 "x_c",  "y_c",  "u_c",  "v_c",  "exx",  "eyy",  "exy",  "e1",  "e2",  "gamma",  "e_vonmises",  "sigma",  "x",  "y",  "u",  "v"
-700,715,0,0,0,0,0,0,0,0,0,-1,524,309,0,0
-693,715,0,0,0,0,0,0,0,0,0,-1,531,309,0,0
-686,715,0,0,0,0,0,0,0,0,0,-1,538,309,0,0
-679,715,0,0,0,0,0,0,0,0,0,-1,545,309,0,0
-672,715,0,0,0,0,0,0,0,0,0,-1,552,309,0,0
-665,715,0,0,0,0,0,0,0,0,0,-1,559,309,0,0
-658,715,0,0,0,0,0,0,0,0,0,-1,566,309,0,0
-651,715,0,0,0,0,0,0,0,0,0,-1,573,309,0,0
-644,715,0,0,0,0,0,0,0,0,0,-1,580,309,0,0
-637,715,0,0,0,0,0,0,0,0,0,-1,587,309,0,0
-630,715,0,0,0,0,0,0,0,0,0,-1,594,309,0,0
-623,715,0,0,0,0,0,0,0,0,0,-1,601,309,0,0
-616,715,0,0,0,0,0,0,0,0,0,-1,608,309,0,0
-609,715,0,0,0,0,0,0,0,0,0,-1,615,309,0,0
-602,715,0,0,0,0,0,0,0,0,0,-1,622,309,0,0
-595,715,0,0,0,0,0,0,0,0,0,-1,629,309,0,0
-588,715,0,0,0,0,0,0,0,0,0,-1,636,309,0,0
-581,715,0,0,0,0,0,0,0,0,0,-1,643,309,0,0
-574,715,0,0,0,0,0,0,0,0,0,-1,650,309,0,0
-567,715,0,0,0,0,0,0,0,0,0,-1,657,309,0,0
-560,715,0,0,0,0,0,0,0,0,0,-1,664,309,0,0
-553,715,0,0,0,0,0,0,0,0,0,-1,671,309,0,0
-546,715,0,0,0,0,0,0,0,0,0,-1,678,309,0,0
-539,715,0,0,0,0,0,0,0,0,0,-1,685,309,0,0
-532,715,0,0,0,0,0,0,0,0,0,-1,692,309,0,0
-525,715,0,0,0,0,0,0,0,0,0,-1,699,309,0,0
-518,715,0,0,0,0,0,0,0,0,0,-1,706,309,0,0
-511,715,0,0,0,0,0,0,0,0,0,-1,713,309,0,0
-504,715,0,0,0,0,0,0,0,0,0,-1,720,309,0,0
-497,715,0,0,0,0,0,0,0,0,0,-1,727,309,0,0
-490,715,0,0,0,0,0,0,0,0,0,-1,734,309,0,0
-483,715,0,0,0,0,0,0,0,0,0,-1,741,309,0,0
-476,715,0,0,0,0,0,0,0,0,0,-1,748,309,0,0
-469,715,0,0,0,0,0,0,0,0,0,-1,755,309,0,0
-462,715,0,0,0,0,0,0,0,0,0,-1,762,309,0,0
-455,715,0,0,0,0,0,0,0,0,0,-1,769,309,0,0
-448,715,0,0,0,0,0,0,0,0,0,-1,776,309,0,0
-441,715,0,0,0,0,0,0,0,0,0,-1,783,309,0,0
-434,715,0,0,0,0,0,0,0,0,0,-1,790,309,0,0
-427,715,0,0,0,0,0,0,0,0,0,-1,797,309,0,0
-420,715,0,0,0,0,0,0,0,0,0,-1,804,309,0,0
-413,715,0,0,0,0,0,0,0,0,0,-1,811,309,0,0
-406,715,0,0,0,0,0,0,0,0,0,-1,818,309,0,0
-399,715,0,0,0,0,0,0,0,0,0,-1,825,309,0,0
-392,715,0,0,0,0,0,0,0,0,0,-1,832,309,0,0
-385,715,0,0,0,0,0,0,0,0,0,-1,839,309,0,0
-378,715,0,0,0,0,0,0,0,0,0,-1,846,309,0,0
-371,715,0,0,0,0,0,0,0,0,0,-1,853,309,0,0
-364,715,0,0,0,0,0,0,0,0,0,-1,860,309,0,0
-357,715,0,0,0,0,0,0,0,0,0,-1,867,309,0,0
-350,715,0,0,0,0,0,0,0,0,0,-1,874,309,0,0
-343,715,0,0,0,0,0,0,0,0,0,-1,881,309,0,0
-336,715,0,0,0,0,0,0,0,0,0,-1,888,309,0,0
-329,715,0,0,0,0,0,0,0,0,0,-1,895,309,0,0
-322,715,0,0,0,0,0,0,0,0,0,-1,902,309,0,0
-315,715,0,0,0,0,0,0,0,0,0,-1,909,309,0,0
-308,715,0,0,0,0,0,0,0,0,0,-1,916,309,0,0
-301,715,0,0,0,0,0,0,0,0,0,-1,923,309,0,0
-294,715,0,0,0,0,0,0,0,0,0,-1,930,309,0,0
-287,715,0,0,0,0,0,0,0,0,0,-1,937,309,0,0
-280,715,0,0,0,0,0,0,0,0,0,-1,944,309,0,0
-273,715,0,0,0,0,0,0,0,0,0,-1,951,309,0,0
-266,715,0,0,0,0,0,0,0,0,0,-1,958,309,0,0
-259,715,0,0,0,0,0,0,0,0,0,-1,965,309,0,0
-252,715,0,0,0,0,0,0,0,0,0,-1,972,309,0,0
-245,715,0,0,0,0,0,0,0,0,0,-1,979,309,0,0
-238,715,0,0,0,0,0,0,0,0,0,-1,986,309,0,0
-231,715,0,0,0,0,0,0,0,0,0,-1,993,309,0,0
-224,715,0,0,0,0,0,0,0,0,0,-1,1000,309,0,0
-217,715,0,0,0,0,0,0,0,0,0,-1,1007,309,0,0
-210,715,0,0,0,0,0,0,0,0,0,-1,1014,309,0,0
-203,715,0,0,0,0,0,0,0,0,0,-1,1021,309,0,0
-196,715,0,0,0,0,0,0,0,0,0,-1,1028,309,0,0
-189,715,0,0,0,0,0,0,0,0,0,-1,1035,309,0,0
-182,715,0,0,0,0,0,0,0,0,0,-1,1042,309,0,0
-175,715,0,0,0,0,0,0,0,0,0,-1,1049,309,0,0
-168,715,0,0,0,0,0,0,0,0,0,-1,1056,309,0,0
-161,715,0,0,0,0,0,0,0,0,0,-1,1063,309,0,0
-154,715,0,0,0,0,0,0,0,0,0,-1,1070,309,0,0
-147,715,0,0,0,0,0,0,0,0,0,-1,1077,309,0,0
-140,715,0,0,0,0,0,0,0,0,0,-1,1084,309,0,0
-133,715,0,0,0,0,0,0,0,0,0,-1,1091,309,0,0
-126,715,0,0,0,0,0,0,0,0,0,-1,1098,309,0,0
-119,715,0,0,0,0,0,0,0,0,0,-1,1105,309,0,0
-112,715,0,0,0,0,0,0,0,0,0,-1,1112,309,0,0
-105,715,0,0,0,0,0,0,0,0,0,-1,1119,309,0,0
-98,715,0,0,0,0,0,0,0,0,0,-1,1126,309,0,0
-91,715,0,0,0,0,0,0,0,0,0,-1,1133,309,0,0
-84,715,0,0,0,0,0,0,0,0,0,-1,1140,309,0,0
-77,715,0,0,0,0,0,0,0,0,0,-1,1147,309,0,0
-70,715,0,0,0,0,0,0,0,0,0,-1,1154,309,0,0
-63,715,0,0,0,0,0,0,0,0,0,-1,1161,309,0,0
-56,715,0,0,0,0,0,0,0,0,0,-1,1168,309,0,0
-49,715,0,0,0,0,0,0,0,0,0,-1,1175,309,0,0
-42,715,0,0,0,0,0,0,0,0,0,-1,1182,309,0,0
-35,715,0,0,0,0,0,0,0,0,0,-1,1189,309,0,0
-28,715,0,0,0,0,0,0,0,0,0,-1,1196,309,0,0
-21,715,0,0,0,0,0,0,0,0,0,-1,1203,309,0,0
-14,715,0,0,0,0,0,0,0,0,0,-1,1210,309,0,0
-7,715,0,0,0,0,0,0,0,0,0,-1,1217,309,0,0
0,715,0,0,0,0,0,0,0,0,0,-1,1224,309,0,0
7,715,0,0,0,0,0,0,0,0,0,-1,1231,309,0,0
14,715,0,0,0,0,0,0,0,0,0,-1,1238,309,0,0
21,715,0,0,0,0,0,0,0,0,0,-1,1245,309,0,0
28,715,0,0,0,0,0,0,0,0,0,-1,1252,309,0,0
35,715,0,0,0,0,0,0,0,0,0,-1,1259,309,0,0
42,715,0,0,0,0,0,0,0,0,0,-1,1266,309,0,0
49,715,0,0,0,0,0,0,0,0,0,-1,1273,309,0,0
56,715,0,0,0,0,0,0,0,0,0,-1,1280,309,0,0
63,715,4.42334,-59.0407,0,0,0,0,0,0,0,-1,1287,309,4.4234,59.0407
70,715,4.14368,-59.2192,0,0,0,0,0,0,0,-1,1294,309,4.14367,59.2192
77,715,0,0,0,0,0,0,0,0,0,-1,1301,309,0,0
84,715,0,0,0,0,0,0,0,0,0,-1,1308,309,0,0
91,715,0,0,0,0,0,0,0,0,0,-1,1315,309,0,0
98,715,0,0,0,0,0,0,0,0,0,-1,1322,309,0,0
105,715,0,0,0,0,0,0,0,0,0,-1,1329,309,0,0
112,715,0,0,0,0,0,0,0,0,0,-1,1336,309,0,0
119,715,0,0,0,0,0,0,0,0,0,-1,1343,309,0,0
126,715,0,0,0,0,0,0,0,0,0,-1,1350,309,0,0
133,715,0,0,0,0,0,0,0,0,0,-1,1357,309,0,0
140,715,0,0,0,0,0,0,0,0,0,-1,1364,309,0,0
147,715,0,0,0,0,0,0,0,0,0,-1,1371,309,0,0
154,715,0,0,0,0,0,0,0,0,0,-1,1378,309,0,0
161,715,0,0,0,0,0,0,0,0,0,-1,1385,309,0,0
168,715,0,0,0,0,0,0,0,0,0,-1,1392,309,0,0
175,715,0,0,0,0,0,0,0,0,0,-1,1399,309,0,0
182,715,0,0,0,0,0,0,0,0,0,-1,1406,309,0,0
189,715,0,0,0,0,0,0,0,0,0,-1,1413,309,0,0
196,715,0,0,0,0,0,0,0,0,0,-1,1420,309,0,0
203,715,0,0,0,0,0,0,0,0,0,-1,1427,309,0,0
210,715,0,0,0,0,0,0,0,0,0,-1,1434,309,0,0
217,715,0,0,0,0,0,0,0,0,0,-1,1441,309,0,0
224,715,0,0,0,0,0,0,0,0,0,-1,1448,309,0,0
231,715,0,0,0,0,0,0,0,0,0,-1,1455,309,0,0
238,715,0,0,0,0,0,0,0,0,0,-1,1462,309,0,0
245,715,0,0,0,0,0,0,0,0,0,-1,1469,309,0,0
252,715,0,0,0,0,0,0,0,0,0,-1,1476,309,0,0
259,715,0,0,0,0,0,0,0,0,0,-1,1483,309,0,0
266,715,0,0,0,0,0,0,0,0,0,-1,1490,309,0,0
273,715,0,0,0,0,0,0,0,0,0,-1,1497,309,0,0
280,715,0,0,0,0,0,0,0,0,0,-1,1504,309,0,0
287,715,0,0,0,0,0,0,0,0,0,-1,1511,309,0,0
294,715,0,0,0,0,0,0,0,0,0,-1,1518,309,0,0
301,715,0,0,0,0,0,0,0,0,0,-1,1525,309,0,0
308,715,0,0,0,0,0,0,0,0,0,-1,1532,309,0,0
315,715,0,0,0,0,0,0,0,0,0,-1,1539,309,0,0
322,715,0,0,0,0,0,0,0,0,0,-1,1546,309,0,0
329,715,0,0,0,0,0,0,0,0,0,-1,1553,309,0,0
336,715,0,0,0,0,0,0,0,0,0,-1,1560,309,0,0
343,715,0,0,0,0,0,0,0,0,0,-1,1567,309,0,0
350,715,0,0,0,0,0,0,0,0,0,-1,1574,309,0,0
357,715,0,0,0,0,0,0,0,0,0,-1,1581,309,0,0
364,715,0,0,0,0,0,0,0,0,0,-1,1588,309,0,0
371,715,0,0,0,0,0,0,0,0,0,-1,1595,309,0,0
378,715,0,0,0,0,0,0,0,0,0,-1,1602,309,0,0
385,715,0,0,0,0,0,0,0,0,0,-1,1609,309,0,0
392,715,0,0,0,0,0,0,0,0,0,-1,1616,309,0,0
399,715,0,0,0,0,0,0,0,0,0,-1,1623,309,0,0
406,715,0,0,0,0,0,0,0,0,0,-1,1630,309,0,0
413,715,0,0,0,0,0,0,0,0,0,-1,1637,309,0,0
420,715,0,0,0,0,0,0,0,0,0,-1,1644,309,0,0
427,715,0,0,0,0,0,0,0,0,0,-1,1651,309,0,0
434,715,0,0,0,0,0,0,0,0,0,-1,1658,309,0,0
441,715,0,0,0,0,0,0,0,0,0,-1,1665,309,0,0
448,715,0,0,0,0,0,0,0,0,0,-1,1672,309,0,0
455,715,0,0,0,0,0,0,0,0,0,-1,1679,309,0,0
462,715,0,0,0,0,0,0,0,0,0,-1,1686,309,0,0
469,715,0,0,0,0,0,0,0,0,0,-1,1693,309,0,0
476,715,0,0,0,0,0,0,0,0,0,-1,1700,309,0,0
483,715,0,0,0,0,0,0,0,0,0,-1,1707,309,0,0
490,715,0,0,0,0,0,0,0,0,0,-1,1714,309,0,0
497,715,0,0,0,0,0,0,0,0,0,-1,1721,309,0,0
504,715,0,0,0,0,0,0,0,0,0,-1,1728,309,0,0
511,715,0,0,0,0,0,0,0,0,0,-1,1735,309,0,0
518,715,0,0,0,0,0,0,0,0,0,-1,1742,309,0,0
525,715,0,0,0,0,0,0,0,0,0,-1,1749,309,0,0
532,715,0,0,0,0,0,0,0,0,0,-1,1756,309,0,0
539,715,0,0,0,0,0,0,0,0,0,-1,1763,309,0,0
546,715,0,0,0,0,0,0,0,0,0,-1,1770,309,0,0
553,715,0,0,0,0,0,0,0,0,0,-1,1777,309,0,0
560,715,0,0,0,0,0,0,0,0,0,-1,1784,309,0,0
567,715,0,0,0,0,0,0,0,0,0,-1,1791,309,0,0
574,715,0,0,0,0,0,0,0,0,0,-1,1798,309,0,0
581,715,0,0,0,0,0,0,0,0,0,-1,1805,309,0,0
588,715,0,0,0,0,0,0,0,0,0,-1,1812,309,0,0
595,715,0,0,0,0,0,0,0,0,0,-1,1819,309,0,0
602,715,0,0,0,0,0,0,0,0,0,-1,1826,309,0,0
609,715,0,0,0,0,0,0,0,0,0,-1,1833,309,0,0
616,715,0,0,0,0,0,0,0,0,0,-1,1840,309,0,0
623,715,0,0,0,0,0,0,0,0,0,-1,1847,309,0,0
630,715,0,0,0,0,0,0,0,0,0,-1,1854,309,0,0
637,715,0,0,0,0,0,0,0,0,0,-1,1861,309,0,0
644,715,0,0,0,0,0,0,0,0,0,-1,1868,309,0,0
651,715,0,0,0,0,0,0,0,0,0,-1,1875,309,0,0
658,715,0,0,0,0,0,0,0,0,0,-1,1882,309,0,0
665,715,0,0,0,0,0,0,0,0,0,-1,1889,309,0,0
672,715,0,0,0,0,0,0,0,0,0,-1,1896,309,0,0
679,715,0,0,0,0,0,0,0,0,0,-1,1903,309,0,0
686,715,0,0,0,0,0,0,0,0,0,-1,1910,309,0,0
693,715,0,0,0,0,0,0,0,0,0,-1,1917,309,0,0
700,715,0,0,0,0,0,0,0,0,0,-1,1924,309,0,0
707,715,0,0,0,0,0,0,0,0,0,-1,1931,309,0,0
714,715,0,0,0,0,0,0,0,0,0,-1,1938,309,0,0
721,715,0,0,0,0,0,0,0,0,0,-1,1945,309,0,0
728,715,0,0,0,0,0,0,0,0,0,-1,1952,309,0,0
735,715,0,0,0,0,0,0,0,0,0,-1,1959,309,0,0
742,715,0,0,0,0,0,0,0,0,0,-1,1966,309,0,0
749,715,0,0,0,0,0,0,0,0,0,-1,1973,309,0,0
756,715,0,0,0,0,0,0,0,0,0,-1,1980,309,0,0
763,715,0,0,0,0,0,0,0,0,0,-1,1987,309,0,0
770,715,0,0,0,0,0,0,0,0,0,-1,1994,309,0,0
777,715,0,0,0,0,0,0,0,0,0,-1,2001,309,0,0
784,715,0,0,0,0,0,0,0,0,0,-1,2008,309,0,0
791,715,0,0,0,0,0,0,0,0,0,-1,2015,309,0,0
798,715,0,0,0,0,0,0,0,0,0,-1,2022,309,0,0
805,715,0,0,0,0,0,0,0,0,0,-1,2029,309,0,0
812,715,0,0,0,0,0,0,0,0,0,-1,2036,309,0,0
-700,708,0,0,0,0,0,0,0,0,0,-1,524,316,0,0
-693,708,0,0,0,0,0,0,0,0,0,-1,531,316,0,0
-686,708,0,0,0,0,0,0,0,0,0,-1,538,316,0,0
-679,708,0,0,0,0,0,0,0,0,0,-1,545,316,0,0
-672,708,0,0,0,0,0,0,0,0,0,-1,552,316,0,0
-665,708,0,0,0,0,0,0,0,0,0,-1,559,316,0,0
-658,708,0,0,0,0,0,0,0,0,0,-1,566,316,0,0
-651,708,0,0,0,0,0,0,0,0,0,-1,573,316,0,0
-644,708,0,0,0,0,0,0,0,0,0,-1,580,316,0,0
-637,708,0,0,0,0,0,0,0,0,0,-1,587,316,0,0
-630,708,0,0,0,0,0,0,0,0,0,-1,594,316,0,0
-623,708,0,0,0,0,0,0,0,0,0,-1,601,316,0,0
-616,708,0,0,0,0,0,0,0,0,0,-1,608,316,0,0
-609,708,0,0,0,0,0,0,0,0,0,-1,615,316,0,0
-602,708,0,0,0,0,0,0,0,0,0,-1,622,316,0,0
-595,708,0,0,0,0,0,0,0,0,0,-1,629,316,0,0
-588,708,0,0,0,0,0,0,0,0,0,-1,636,316,0,0
-581,708,0,0,0,0,0,0,0,0,0,-1,643,316,0,0
-574,708,0,0,0,0,0,0,0,0,0,-1,650,316,0,0
-567,708,0,0,0,0,0,0,0,0,0,-1,657,316,0,0
-560,708,0,0,0,0,0,0,0,0,0,-1,664,316,0,0
-553,708,0,0,0,0,0,0,0,0,0,-1,671,316,0,0
-546,708,0,0,0,0,0,0,0,0,0,-1,678,316,0,0
-539,708,0,0,0,0,0,0,0,0,0,-1,685,316,0,0
-532,708,0,0,0,0,0,0,0,0,0,-1,692,316,0,0
-525,708,0,0,0,0,0,0,0,0,0,-1,699,316,0,0
-518,708,0,0,0,0,0,0,0,0,0,-1,706,316,0,0
-511,708,0,0,0,0,0,0,0,0,0,-1,713,316,0,0
-504,708,0,0,0,0,0,0,0,0,0,-1,720,316,0,0
-497,708,0,0,0,0,0,0,0,0,0,-1,727,316,0,0
-490,708,0,0,0,0,0,0,0,0,0,-1,734,316,0,0
-483,708,0,0,0,0,0,0,0,0,0,-1,741,316,0,0
-476,708,0,0,0,0,0,0,0,0,0,-1,748,316,0,0
-469,708,0,0,0,0,0,0,0,0,0,-1,755,316,0,0
-462,708,0,0,0,0,0,0,0,0,0,-1,762,316,0,0
-455,708,0,0,0,0,0,0,0,0,0,-1,769,316,0,0
-448,708,0,0,0,0,0,0,0,0,0,-1,776,316,0,0
-441,708,0,0,0,0,0,0,0,0,0,-1,783,316,0,0
-434,708,0,0,0,0,0,0,0,0,0,-1,790,316,0,0
-427,708,0,0,0,0,0,0,0,0,0,-1,797,316,0,0
-420,708,0,0,0,0,0,0,0,0,0,-1,804,316,0,0
-413,708,0,0,0,0,0,0,0,0,0,-1,811,316,0,0
-406,708,0,0,0,0,0,0,0,0,0,-1,818,316,0,0
-399,708,0,0,0,0,0,0,0,0,0,-1,825,316,0,0
-392,708,0,0,0,0,0,0,0,0,0,-1,832,316,0,0
-385,708,0,0,0,0,0,0,0,0,0,-1,839,316,0,0
-378,708,0,0,0,0,0,0,0,0,0,-1,846,316,0,0
-371,708,0,0,0,0,0,0,0,0,0,-1,853,316,0,0
-364,708,0,0,0,0,0,0,0,0,0,-1,860,316,0,0
-357,708,0,0,0,0,0,0,0,0,0,-1,867,316,0,0
-350,708,0,0,0,0,0,0,0,0,0,-1,874,316,0,0
-343,708,0,0,0,0,0,0,0,0,0,-1,881,316,0,0
-336,708,0,0,0,0,0,0,0,0,0,-1,888,316,0,0
-329,708,0,0,0,0,0,0,0,0,0,-1,895,316,0,0
-322,708,0,0,0,0,0,0,0,0,0,-1,902,316,0,0
-315,708,0,0,0,0,0,0,0,0,0,-1,909,316,0,0
-308,708,0,0,0,0,0,0,0,0,0,-1,916,316,0,0
-301,708,0,0,0,0,0,0,0,0,0,-1,923,316,0,0
-294,708,0,0,0,0,0,0,0,0,0,-1,930,316,0,0
-287,708,0,0,0,0,0,0,0,0,0,-1,937,316,0,0
-280,708,0,0,0,0,0,0,0,0,0,-1,944,316,0,0
-273,708,0,0,0,0,0,0,0,0,0,-1,951,316,0,0
-266,708,0,0,0,0,0,0,0,0,0,-1,958,316,0,0
-259,708,0,0,0,0,0,0,0,0,0,-1,965,316,0,0
-252,708,0,0,0,0,0,0,0,0,0,-1,972,316,0,0
-245,708,0,0,0,0,0,0,0,0,0,-1,979,316,0,0
-238,708,0,0,0,0,0,0,0,0,0,-1,986,316,0,0
-231,708,0,0,0,0,0,0,0,0,0,-1,993,316,0,0
-224,708,0,0,0,0,0,0,0,0,0,-1,1000,316,0,0
-217,708,0,0,0,0,0,0,0,0,0,-1,1007,316,0,0
-210,708,0,0,0,0,0,0,0,0,0,-1,1014,316,0,0
-203,708,0,0,0,0,0,0,0,0,0,-1,1021,316,0,0
-196,708,0,0,0,0,0,0,0,0,0,-1,1028,316,0,0
-189,708,0,0,0,0,0,0,0,0,0,-1,1035,316,0,0
-182,708,0,0,0,0,0,0,0,0,0,-1,1042,316,0,0
-175,708,0,0,0,0,0,0,0,0,0,-1,1049,316,0,0
-168,708,0,0,0,0,0,0,0,0,0,-1,1056,316,0,0
-161,708,0,0,0,0,0,0,0,0,0,-1,1063,316,0,0
-154,708,0,0,0,0,0,0,0,0,0,-1,1070,316,0,0
-147,708,0,0,0,0,0,0,0,0,0,-1,1077,316,0,0
-140,708,0,0,0,0,0,0,0,0,0,-1,1084,316,0,0
-133,708,0,0,0,0,0,0,0,0,0,-1,1091,316,0,0
-126,708,0,0,0,0,0,0,0,0,0,-1,1098,316,0,0
-119,708,0,0,0,0,0,0,0,0,0,-1,1105,316,0,0
-112,708,0,0,0,0,0,0,0,0,0,-1,1112,316,0,0
-105,708,0,0,0,0,0,0,0,0,0,-1,1119,316,0,0
-98,708,0,0,0,0,0,0,0,0,0,-1,1126,316,0,0
-91,708,0,0,0,0,0,0,0,0,0,-1,1133,316,0,0
-84,708,0,0,0,0,0,0,0,0,0,-1,1140,316,0,0
-77,708,0,0,0,0,0,0,0,0,0,-1,1147,316,0,0
-70,708,0,0,0,0,0,0,0,0,0,-1,1154,316,0,0
-63,708,0,0,0,0,0,0,0,0,0,-1,1161,316,0,0
-56,708,0,0,0,0,0,0,0,0,0,-1,1168,316,0,0
-49,708,0,0,0,0,0,0,0,0,0,-1,1175,316,0,0
-42,708,0,0,0,0,0,0,0,0,0,-1,1182,316,0,0
-35,708,-2.71204,-6.31558,0,0,0,0,0,0,0,-1,1189,316,-2.712,6.3156
-28,708,-2.92371,-5.53253,0,0,0,0,0,0,0,-1,1196,316,-2.92375,5.53254
-21,708,-0.417969,-24.5911,0,0,0,0,0,0,0,-1,1203,316,-0.418022,24.5911
-14,708,6.49792,-54.7388,0,0,0,0,0,0,0,-1,1210,316,6.49795,54.7388
-7,708,6.57373,-54.4513,0,0,0,0,0,0,0,-1,1217,316,6.57376,54.4513
0,708,6.95959,-54.4661,0,0,0,0,0,0,0,-1,1224,316,6.95956,54.4661
7,708,8.98254,-53.7176,-0.0339189,0.139857,-0.0339277,0.146246,-0.0403079,-1.38466,0.113348,0.0454329,1231,316,8.98258,53.7176
14,708,8.43481,-54.0002,-0.0439431,0.129139,-0.0358872,0.136285,-0.051089,-1.37425,0.111846,0.0425843,1238,316,8.43477,54.0002
21,708,8.02625,-54.2192,0,0,0,0,0,0,0,-1,1245,316,8.02624,54.2192
28,708,7.69836,-54.8655,0,0,0,0,0,0,0,-1,1252,316,7.69832,54.8655
35,708,7.48926,-55.4928,0,0,0,0,0,0,0,-1,1259,316,7.48929,55.4928
42,708,5.51636,-56.9596,0,0,0,0,0,0,0,-1,1266,316,5.51633,56.9596
49,708,7.02917,-57.6018,0,0,0,0,0,0,0,-1,1273,316,7.02918,57.6018
56,708,6.21936,-58.4792,-0.077679,0.0806068,-0.0432802,0.0916679,-0.0887402,-1.32058,0.104163,0.0465866,1280,316,6.21939,58.4792
63,708,4.91736,-59.1399,-0.0760135,0.0759317,-0.0452995,0.0884118,-0.0884936,-1.30196,0.102136,0.0465809,1287,316,4.91739,59.1399
70,708,4.3335,-59.3568,-0.0739359,0.0751526,-0.0472757,0.0888798,-0.087663,-1.2882,0.101928,0.0478667,1294,316,4.33345,59.3568
77,708,3.75793,-59.5363,0,0,0,0,0,0,0,-1,1301,316,3.75791,59.5363
84,708,5.29358,-53.764,0,0,0,0,0,0,0,-1,1308,316,5.29359,53.764
91,708,5.15454,-54.4833,0,0,0,0,0,0,0,-1,1315,316,5.15457,54.4833
98,708,5.11499,-54.7967,0,0,0,0,0,0,0,-1,1322,316,5.11497,54.7967
105,708,13.9521,-60.7936,0,0,0,0,0,0,0,-1,1329,316,13.9522,60.7936
112,708,15.1354,-62.2032,0,0,0,0,0,0,0,-1,1336,316,15.1353,62.2032
119,708,5.53467,-56.4797,0,0,0,0,0,0,0,-1,1343,316,5.53468,56.4797
126,708,17.7084,-65.5297,0,0,0,0,0,0,0,-1,1350,316,17.7083,65.5297
133,708,17.8467,-65.9168,0,0,0,0,0,0,0,-1,1357,316,17.8466,65.9168
140,708,20.3782,-64.9478,0,0,0,0,0,0,0,-1,1364,316,20.3781,64.9478
147,708,-2.41565,-46.6527,0,0,0,0,0,0,0,-1,1371,316,-2.4156,46.6527
154,708,0,0,0,0,0,0,0,0,0,-1,1378,316,0,0
161,708,0,0,0,0,0,0,0,0,0,-1,1385,316,0,0
168,708,0,0,0,0,0,0,0,0,0,-1,1392,316,0,0
175,708,0,0,0,0,0,0,0,0,0,-1,1399,316,0,0
182,708,0,0,0,0,0,0,0,0,0,-1,1406,316,0,0
189,708,0,0,0,0,0,0,0,0,0,-1,1413,316,0,0
196,708,0,0,0,0,0,0,0,0,0,-1,1420,316,0,0
203,708,0,0,0,0,0,0,0,0,0,-1,1427,316,0,0
210,708,0,0,0,0,0,0,0,0,0,-1,1434,316,0,0
217,708,0,0,0,0,0,0,0,0,0,-1,1441,316,0,0
224,708,0,0,0,0,0,0,0,0,0,-1,1448,316,0,0
231,708,0,0,0,0,0,0,0,0,0,-1,1455,316,0,0
238,708,0,0,0,0,0,0,0,0,0,-1,1462,316,0,0
245,708,0,0,0,0,0,0,0,0,0,-1,1469,316,0,0
252,708,0,0,0,0,0,0,0,0,0,-1,1476,316,0,0
259,708,0,0,0,0,0,0,0,0,0,-1,1483,316,0,0
266,708,0,0,0,0,0,0,0,0,0,-1,1490,316,0,0
273,708,0,0,0,0,0,0,0,0,0,-1,1497,316,0,0
280,708,0,0,0,0,0,0,0,0,0,-1,1504,316,0,0
287,708,0,0,0,0,0,0,0,0,0,-1,1511,316,0,0
294,708,0,0,0,0,0,0,0,0,0,-1,1518,316,0,0
301,708,0,0,0,0,0,0,0,0,0,-1,1525,316,0,0
308,708,0,0,0,0,0,0,0,0,0,-1,1532,316,0,0
315,708,0,0,0,0,0,0,0,0,0,-1,1539,316,0,0
322,708,0,0,0,0,0,0,0,0,0,-1,1546,316,0,0
329,708,0,0,0,0,0,0,0,0,0,-1,1553,316,0,0
336,708,0,0,0,0,0,0,0,0,0,-1,1560,316,0,0
343,708,0,0,0,0,0,0,0,0,0,-1,1567,316,0,0
350,708,0,0,0,0,0,0,0,0,0,-1,1574,316,0,0
357,708,0,0,0,0,0,0,0,0,0,-1,1581,316,0,0
364,708,0,0,0,0,0,0,0,0,0,-1,1588,316,0,0
371,708,0,0,0,0,0,0,0,0,0,-1,1595,316,0,0
378,708,0,0,0,0,0,0,0,0,0,-1,1602,316,0,0
385,708,0,0,0,0,0,0,0,0,0,-1,1609,316,0,0
392,708,0,0,0,0,0,0,0,0,0,-1,1616,316,0,0
399,708,0,0,0,0,0,0,0,0,0,-1,1623,316,0,0
406,708,0,0,0,0,0,0,0,0,0,-1,1630,316,0,0
413,708,0,0,0,0,0,0,0,0,0,-1,1637,316,0,0
420,708,0,0,0,0,0,0,0,0,0,-1,1644,316,0,0
427,708,0,0,0,0,0,0,0,0,0,-1,1651,316,0,0
434,708,0,0,0,0,0,0,0,0,0,-1,1658,316,0,0
441,708,0,0,0,0,0,0,0,0,0,-1,1665,316,0,0
448,708,0,0,0,0,0,0,0,0,0,-1,1672,316,0,0
455,708,0,0,0,0,0,0,0,0,0,-1,1679,316,0,0
462,708,0,0,0,0,0,0,0,0,0,-1,1686,316,0,0
469,708,0,0,0,0,0,0,0,0,0,-1,1693,316,0,0
476,708,0,0,0,0,0,0,0,0,0,-1,1700,316,0,0
483,708,0,0,0,0,0,0,0,0,0,-1,1707,316,0,0
490,708,0,0,0,0,0,0,0,0,0,-1,1714,316,0,0
497,708,0,0,0,0,0,0,0,0,0,-1,1721,316,0,0
504,708,0,0,0,0,0,0,0,0,0,-1,1728,316,0,0
511,708,0,0,0,0,0,0,0,0,0,-1,1735,316,0,0
518,708,0,0,0,0,0,0,0,0,0,-1,1742,316,0,0
525,708,0,0,0,0,0,0,0,0,0,-1,1749,316,0,0
532,708,0,0,0,0,0,0,0,0,0,-1,1756,316,0,0
539,708,0,0,0,0,0,0,0,0,0,-1,1763,316,0,0
546,708,0,0,0,0,0,0,0,0,0,-1,1770,316,0,0
553,708,0,0,0,0,0,0,0,0,0,-1,1777,316,0,0
560,708,0,0,0,0,0,0,0,0,0,-1,1784,316,0,0
567,708,0,0,0,0,0,0,0,0,0,-1,1791,316,0,0
574,708,0,0,0,0,0,0,0,0,0,-1,1798,316,0,0
581,708,0,0,0,0,0,0,0,0,0,-1,1805,316,0,0
588,708,0,0,0,0,0,0,0,0,0,-1,1812,316,0,0
595,708,0,0,0,0,0,0,0,0,0,-1,1819,316,0,0
602,708,0,0,0,0,0,0,0,0,0,-1,1826,316,0,0
609,708,0,0,0,0,0,0,0,0,0,-1,1833,316,0,0
616,708,0,0,0,0,0,0,0,0,0,-1,1840,316,0,0
623,708,0,0,0,0,0,0,0,0,0,-1,1847,316,0,0
630,708,0,0,0,0,0,0,0,0,0,-1,1854,316,0,0
637,708,0,0,0,0,0,0,0,0,0,-1,1861,316,0,0
644,708,0,0,0,0,0,0,0,0,0,-1,1868,316,0,0
651,708,0,0,0,0,0,0,0,0,0,-1,1875,316,0,0
658,708,0,0,0,0,0,0,0,0,0,-1,1882,316,0,0
665,708,0,0,0,0,0,0,0,0,0,-1,1889,316,0,0
672,708,0,0,0,0,0,0,0,0,0,-1,1896,316,0,0
679,708,0,0,0,0,0,0,0,0,0,-1,1903,316,0,0
686,708,0,0,0,0,0,0,0,0,0,-1,1910,316,0,0
693,708,0,0,0,0,0,0,0,0,0,-1,1917,316,0,0
700,708,0,0,0,0,0,0,0,0,0,-1,1924,316,0,0
707,708,0,0,0,0,0,0,0,0,0,-1,1931,316,0,0
714,708,0,0,0,0,0,0,0,0,0,-1,1938,316,0,0
721,708,0,0,0,0,0,0,0,0,0,-1,1945,316,0,0
728,708,0,0,0,0,0,0,0,0,0,-1,1952,316,0,0
735,708,0,0,0,0,0,0,0,0,0,-1,1959,316,0,0
742,708,0,0,0,0,0,0,0,0,0,-1,1966,316,0,0
749,708,0,0,0,0,0,0,0,0,0,-1,1973,316,0,0
756,708,0,0,0,0,0,0,0,0,0,-1,1980,316,0,0
763,708,0,0,0,0,0,0,0,0,0,-1,1987,316,0,0
770,708,0,0,0,0,0,0,0,0,0,-1,1994,316,0,0
777,708,0,0,0,0,0,0,0,0,0,-1,2001,316,0,0
784,708,0,0,0,0,0,0,0,0,0,-1,2008,316,0,0
791,708,0,0,0,0,0,0,0,0,0,-1,2015,316,0,0
798,708,0,0,0,0,0,0,0,0,0,-1,2022,316,0,0
805,708,0,0,0,0,0,0,0,0,0,-1,2029,316,0,0
812,708,0,0,0,0,0,0,0,0,0,-1,2036,316,0,0
-700,701,0,0,0,0,0,0,0,0,0,-1,524,323,0,0
-693,701,0,0,0,0,0,0,0,0,0,-1,531,323,0,0
-686,701,0,0,0,0,0,0,0,0,0,-1,538,323,0,0
-679,701,0,0,0,0,0,0,0,0,0,-1,545,323,0,0
-672,701,0,0,0,0,0,0,0,0,0,-1,552,323,0,0
-665,701,0,0,0,0,0,0,0,0,0,-1,559,323,0,0
-658,701,0,0,0,0,0,0,0,0,0,-1,566,323,0,0
-651,701,0,0,0,0,0,0,0,0,0,-1,573,323,0,0
-644,701,0,0,0,0,0,0,0,0,0,-1,580,323,0,0
-637,701,0,0,0,0,0,0,0,0,0,-1,587,323,0,0
-630,701,0,0,0,0,0,0,0,0,0,-1,594,323,0,0
-623,701,0,0,0,0,0,0,0,0,0,-1,601,323,0,0
-616,701,0,0,0,0,0,0,0,0,0,-1,608,323,0,0
-609,701,0,0,0,0,0,0,0,0,0,-1,615,323,0,0
-602,701,0,0,0,0,0,0,0,0,0,-1,622,323,0,0
-595,701,0,0,0,0,0,0,0,0,0,-1,629,323,0,0
-588,701,0,0,0,0,0,0,0,0,0,-1,636,323,0,0
-581,701,0,0,0,0,0,0,0,0,0,-1,643,323,0,0
-574,701,0,0,0,0,0,0,0,0,0,-1,650,323,0,0
-567,701,0,0,0,0,0,0,0,0,0,-1,657,323,0,0
-560,701,0,0,0,0,0,0,0,0,0,-1,664,323,0,0
-553,701,0,0,0,0,0,0,0,0,0,-1,671,323,0,0
-546,701,0,0,0,0,0,0,0,0,0,-1,678,323,0,0
-539,701,0,0,0,0,0,0,0,0,0,-1,685,323,0,0
-532,701,0,0,0,0,0,0,0,0,0,-1,692,323,0,0
-525,701,0,0,0,0,0,0,0,0,0,-1,699,323,0,0
-518,701,0,0,0,0,0,0,0,0,0,-1,706,323,0,0
-511,701,0,0,0,0,0,0,0,0,0,-1,713,323,0,0
-504,701,0,0,0,0,0,0,0,0,0,-1,720,323,0,0
-497,701,0,0,0,0,0,0,0,0,0,-1,727,323,0,0
-490,701,0,0,0,0,0,0,0,0,0,-1,734,323,0,0
-483,701,0,0,0,0,0,0,0,0,0,-1,741,323,0,0
-476,701,0,0,0,0,0,0,0,0,0,-1,748,323,0,0
-469,701,0,0,0,0,0,0,0,0,0,-1,755,323,0,0
-462,701,0,0,0,0,0,0,0,0,0,-1,762,323,0,0
-455,701,0,0,0,0,0,0,0,0,0,-1,769,323,0,0
-448,701,0,0,0,0,0,0,0,0,0,-1,776,323,0,0
-441,701,0,0,0,0,0,0,0,0,0,-1,783,323,0,0
-434,701,0,0,0,0,0,0,0,0,0,-1,790,323,0,0
-427,701,0,0,0,0,0,0,0,0,0,-1,797,323,0,0
-420,701,0,0,0,0,0,0,0,0,0,-1,804,323,0,0
-413,701,0,0,0,0,0,0,0,0,0,-1,811,323,0,0
-406,701,0,0,0,0,0,0,0,0,0,-1,818,323,0,0
-399,701,0,0,0,0,0,0,0,0,0,-1,825,323,0,0
-392,701,0,0,0,0,0,0,0,0,0,-1,832,323,0,0
-385,701,0,0,0,0,0,0,0,0,0,-1,839,323,0,0
-378,701,0,0,0,0,0,0,0,0,0,-1,846,323,0,0
-371,701,0,0,0,0,0,0,0,0,0,-1,853,323,0,0
-364,701,0,0,0,0,0,0,0,0,0,-1,860,323,0,0
-357,701,0,0,0,0,0,0,0,0,0,-1,867,323,0,0
-350,701,0,0,0,0,0,0,0,0,0,-1,874,323,0,0
-343,701,0,0,0,0,0,0,0,0,0,-1,881,323,0,0
-336,701,0,0,0,0,0,0,0,0,0,-1,888,323,0,0
-329,701,0,0,0,0,0,0,0,0,0,-1,895,323,0,0
-322,701,0,0,0,0,0,0,0,0,0,-1,902,323,0,0
-315,701,0,0,0,0,0,0,0,0,0,-1,909,323,0,0
-308,701,0,0,0,0,0,0,0,0,0,-1,916,323,0,0
-301,701,0,0,0,0,0,0,0,0,0,-1,923,323,0,0
-294,701,0,0,0,0,0,0,0,0,0,-1,930,323,0,0
-287,701,0,0,0,0,0,0,0,0,0,-1,937,323,0,0
-280,701,0,0,0,0,0,0,0,0,0,-1,944,323,0,0
-273,701,0,0,0,0,0,0,0,0,0,-1,951,323,0,0
-266,701,0,0,0,0,0,0,0,0,0,-1,958,323,0,0
-259,701,0,0,0,0,0,0,0,0,0,-1,965,323,0,0
-252,701,0,0,0,0,0,0,0,0,0,-1,972,323,0,0
-245,701,0,0,0,0,0,0,0,0,0,-1,979,323,0,0
-238,701,0,0,0,0,0,0,0,0,0,-1,986,323,0,0
-231,701,0,0,0,0,0,0,0,0,0,-1,993,323,0,0
-224,701,0,0,0,0,0,0,0,0,0,-1,1000,323,0,0
-217,701,0,0,0,0,0,0,0,0,0,-1,1007,323,0,0
-210,701,0,0,0,0,0,0,0,0,0,-1,1014,323,0,0
-203,701,0,0,0,0,0,0,0,0,0,-1,1021,323,0,0
-196,701,0,0,0,0,0,0,0,0,0,-1,1028,323,0,0
-189,701,0,0,0,0,0,0,0,0,0,-1,1035,323,0,0
-182,701,0,0,0,0,0,0,0,0,0,-1,1042,323,0,0
-175,701,0,0,0,0,0,0,0,0,0,-1,1049,323,0,0
-168,701,0,0,0,0,0,0,0,0,0,-1,1056,323,0,0
-161,701,0,0,0,0,0,0,0,0,0,-1,1063,323,0,0
-154,701,0,0,0,0,0,0,0,0,0,-1,1070,323,0,0
-147,701,0,0,0,0,0,0,0,0,0,-1,1077,323,0,0
-140,701,0,0,0,0,0,0,0,0,0,-1,1084,323,0,0
-133,701,0,0,0,0,0,0,0,0,0,-1,1091,323,0,0
-126,701,0,0,0,0,0,0,0,0,0,-1,1098,323,0,0
-119,701,0,0,0,0,0,0,0,0,0,-1,1105,323,0,0
-112,701,0,0,0,0,0,0,0,0,0,-1,1112,323,0,0
-105,701,0,0,0,0,0,0,0,0,0,-1,1119,323,0,0
-98,701,0,0,0,0,0,0,0,0,0,-1,1126,323,0,0
-91,701,0,0,0,0,0,0,0,0,0,-1,1133,323,0,0
-84,701,0,0,0,0,0,0,0,0,0,-1,1140,323,0,0
-77,701,0,0,0,0,0,0,0,0,0,-1,1147,323,0,0
-70,701,-12.7566,-30.413,0,0,0,0,0,0,0,-1,1154,323,-12.7566,30.413
-63,701,-18.3169,-21.2322,0,0,0,0,0,0,0,-1,1161,323,-18.3169,21.2322
-56,701,-0.420166,-0.101776,0,0,0,0,0,0,0,-1,1168,323,-0.420119,0.101777
-49,701,-1.09021,-0.155762,0,0,0,0,0,0,0,-1,1175,323,-1.09024,0.155768
-42,701,-0.210327,-0.299133,0,0,0,0,0,0,0,-1,1182,323,-0.210379,0.29914
-35,701,-2.9635,-7.98676,0,0,0,0,0,0,0,-1,1189,323,-2.9635,7.98676
-28,701,-6.64417,-5.4917,0,0,0,0,0,0,0,-1,1196,323,-6.64411,5.4917
-21,701,6.58545,-55.0163,0,0,0,0,0,0,0,-1,1203,323,6.58544,55.0163
-14,701,6.96387,-55.0028,-0.00592208,0.124474,-0.0321851,0.131986,-0.0134335,-1.34152,0.092793,0.0490292,1210,323,6.96392,55.0028
-7,701,7.19702,-54.9206,-0.0136734,0.129124,-0.0305053,0.135368,-0.0199171,-1.36891,0.0975644,0.0448124,1217,323,7.19698,54.9206
0,701,7.60352,-54.9378,0,0,0,0,0,0,0,-1,1224,323,7.60353,54.9378
7,701,9.26489,-54.6986,-0.0272572,0.127209,-0.0294959,0.132649,-0.0326979,-1.38839,0.10111,0.044637,1231,323,9.26494,54.6986
14,701,8.75525,-54.9029,-0.0346089,0.118884,-0.0305549,0.124742,-0.0404676,-1.38135,0.0994346,0.0453703,1238,323,8.75523,54.9029
21,701,9.02527,-55.2517,0,0,0,0,0,0,0,-1,1245,323,9.0253,55.2517
28,701,8.97192,-55.6142,0,0,0,0,0,0,0,-1,1252,323,8.97187,55.6142
35,701,6.03442,-57.1433,0,0,0,0,0,0,0,-1,1259,323,6.03447,57.1433
42,701,5.82166,-57.3544,0,0,0,0,0,0,0,-1,1266,323,5.82162,57.3544
49,701,5.60876,-57.5655,0,0,0,0,0,0,0,-1,1273,323,5.60877,57.5655
56,701,5.98572,-58.7631,-0.060387,0.0829313,-0.032744,0.0900579,-0.0675137,-1.35649,0.0912839,0.0434272,1280,323,5.98566,58.7631
63,701,5.15735,-59.3364,-0.059185,0.0798343,-0.0340397,0.0877216,-0.0670723,-1.3431,0.089635,0.0460634,1287,323,5.15735,59.3364
70,701,4.60388,-59.5007,-0.0577817,0.0797876,-0.0353492,0.0883392,-0.0663333,-1.33344,0.089601,0.046906,1294,323,4.60384,59.5007
77,701,5.48804,-53.769,0,0,0,0,0,0,0,-1,1301,323,5.488,53.769
84,701,5.33997,-54.3838,-0.0543471,0.0847223,-0.0391078,0.0949654,-0.0645901,-1.31463,0.0926742,0.0466222,1308,323,5.33998,54.3838
91,701,5.20496,-54.8518,-0.0518534,0.0863383,-0.0414368,0.0978107,-0.0633258,-1.3007,0.0937397,0.0480891,1315,323,5.20499,54.8518
98,701,5.20007,-55.3865,-0.0500074,0.0865402,-0.0430593,0.0989846,-0.0624518,-1.28946,0.0939975,0.04862,1322,323,5.20001,55.3865
105,701,5.1355,-55.9848,0,0,0,0,0,0,0,-1,1329,323,5.13546,55.9848
112,701,5.48865,-56.6768,0,0,0,0,0,0,0,-1,1336,323,5.4886,56.6768
119,701,5.64624,-57.4399,0,0,0,0,0,0,0,-1,1343,323,5.64624,57.44
126,701,5.7887,-57.9687,0,0,0,0,0,0,0,-1,1350,323,5.78865,57.9686
133,701,18.545,-65.6018,0,0,0,0,0,0,0,-1,1357,323,18.5451,65.6018
140,701,19.8352,-67.0381,0,0,0,0,0,0,0,-1,1364,323,19.8353,67.0381
147,701,20.9729,-65.0937,0,0,0,0,0,0,0,-1,1371,323,20.9729,65.0937
154,701,-3.02625,-47.5536,0,0,0,0,0,0,0,-1,1378,323,-3.02628,47.5537
161,701,-0.704102,-37.5125,0,0,0,0,0,0,0,-1,1385,323,-0.704147,37.5126
168,701,30.7272,1.76184,0,0,0,0,0,0,0,-1,1392,323,30.7272,-1.76184
175,701,31.5035,2.25711,0,0,0,0,0,0,0,-1,1399,323,31.5036,-2.25712
182,701,8.80652,5.42807,0,0,0,0,0,0,0,-1,1406,323,8.8065,-5.42808
189,701,8.58081,4.24493,0,0,0,0,0,0,0,-1,1413,323,8.58082,-4.24494
196,701,0,0,0,0,0,0,0,0,0,-1,1420,323,0,0
203,701,0,0,0,0,0,0,0,0,0,-1,1427,323,0,0
210,701,0,0,0,0,0,0,0,0,0,-1,1434,323,0,0
217,701,0,0,0,0,0,0,0,0,0,-1,1441,323,0,0
224,701,0,0,0,0,0,0,0,0,0,-1,1448,323,0,0
231,701,0,0,0,0,0,0,0,0,0,-1,1455,323,0,0
238,701,0,0,0,0,0,0,0,0,0,-1,1462,323,0,0
245,701,0,0,0,0,0,0,0,0,0,-1,1469,323,0,0
252,701,0,0,0,0,0,0,0,0,0,-1,1476,323,0,0
259,701,0,0,0,0,0,0,0,0,0,-1,1483,323,0,0
266,701,0,0,0,0,0,0,0,0,0,-1,1490,323,0,0
273,701,0,0,0,0,0,0,0,0,0,-1,1497,323,0,0
280,701,0,0,0,0,0,0,0,0,0,-1,1504,323,0,0
287,701,0,0,0,0,0,0,0,0,0,-1,1511,323,0,0
294,701,0,0,0,0,0,0,0,0,0,-1,1518,323,0,0
301,701,0,0,0,0,0,0,0,0,0,-1,1525,323,0,0
308,701,0,0,0,0,0,0,0,0,0,-1,1532,323,0,0
315,701,0,0,0,0,0,0,0,0,0,-1,1539,323,0,0
322,701,0,0,0,0,0,0,0,0,0,-1,1546,323,0,0
329,701,0,0,0,0,0,0,0,0,0,-1,1553,323,0,0
336,701,0,0,0,0,0,0,0,0,0,-1,1560,323,0,0
343,701,0,0,0,0,0,0,0,0,0,-1,1567,323,0,0
350,701,0,0,0,0,0,0,0,0,0,-1,1574,323,0,0
357,701,0,0,0,0,0,0,0,0,0,-1,1581,323,0,0
364,701,0,0,0,0,0,0,0,0,0,-1,1588,323,0,0
371,701,0,0,0,0,0,0,0,0,0,-1,1595,323,0,0
378,701,0,0,0,0,0,0,0,0,0,-1,1602,323,0,0
385,701,0,0,0,0,0,0,0,0,0,-1,1609,323,0,0
392,701,0,0,0,0,0,0,0,0,0,-1,1616,323,0,0
399,701,0,0,0,0,0,0,0,0,0,-1,1623,323,0,0
406,701,0,0,0,0,0,0,0,0,0,-1,1630,323,0,0
413,701,0,0,0,0,0,0,0,0,0,-1,1637,323,0,0
420,701,0,0,0,0,0,0,0,0,0,-1,1644,323,0,0
427,701,0,0,0,0,0,0,0,0,0,-1,1651,323,0,0
434,701,0,0,0,0,0,0,0,0,0,-1,1658,323,0,0
441,701,0,0,0,0,0,0,0,0,0,-1,1665,323,0,0
448,701,0,0,0,0,0,0,0,0,0,-1,1672,323,0,0
455,701,0,0,0,0,0,0,0,0,0,-1,1679,323,0,0
462,701,0,0,0,0,0,0,0,0,0,-1,1686,323,0,0
469,701,0,0,0,0,0,0,0,0,0,-1,1693,323,0,0
476,701,0,0,0,0,0,0,0,0,0,-1,1700,323,0,0
483,701,0,0,0,0,0,0,0,0,0,-1,1707,323,0,0
490,701,0,0,0,0,0,0,0,0,0,-1,1714,323,0,0
497,701,0,0,0,0,0,0,0,0,0,-1,1721,323,0,0
504,701,0,0,0,0,0,0,0,0,0,-1,1728,323,0,0
511,701,0,0,0,0,0,0,0,0,0,-1,1735,323,0,0
518,701,0,0,0,0,0,0,0,0,0,-1,1742,323,0,0
525,701,0,0,0,0,0,0,0,0,0,-1,1749,323,0,0
532,701,0,0,0,0,0,0,0,0,0,-1,1756,323,0,0
539,701,0,0,0,0,0,0,0,0,0,-1,1763,323,0,0
546,701,0,0,0,0,0,0,0,0,0,-1,1770,323,0,0
553,701,0,0,0,0,0,0,0,0,0,-1,1777,323,0,0
560,701,0,0,0,0,0,0,0,0,0,-1,1784,323,0,0
567,701,0,0,0,0,0,0,0,0,0,-1,1791,323,0,0
574,701,0,0,0,0,0,0,0,0,0,-1,1798,323,0,0
581,701,0,0,0,0,0,0,0,0,0,-1,1805,323,0,0
588,701,0,0,0,0,0,0,0,0,0,-1,1812,323,0,0
595,701,0,0,0,0,0,0,0,0,0,-1,1819,323,0,0
602,701,0,0,0,0,0,0,0,0,0,-1,1826,323,0,0
609,701,0,0,0,0,0,0,0,0,0,-1,1833,323,0,0
616,701,0,0,0,0,0,0,0,0,0,-1,1840,323,0,0
623,701,0,0,0,0,0,0,0,0,0,-1,1847,323,0,0
630,701,0,0,0,0,0,0,0,0,0,-1,1854,323,0,0
637,701,0,0,0,0,0,0,0,0,0,-1,1861,323,0,0
644,701,0,0,0,0,0,0,0,0,0,-1,1868,323,0,0
651,701,0,0,0,0,0,0,0,0,0,-1,1875,323,0,0
658,701,0,0,0,0,0,0,0,0,0,-1,1882,323,0,0
665,701,0,0,0,0,0,0,0,0,0,-1,1889,323,0,0
672,701,0,0,0,0,0,0,0,0,0,-1,1896,323,0,0
679,701,0,0,0,0,0,0,0,0,0,-1,1903,323,0,0
686,701,0,0,0,0,0,0,0,0,0,-1,1910,323,0,0
693,701,0,0,0,0,0,0,0,0,0,-1,1917,323,0,0
700,701,0,0,0,0,0,0,0,0,0,-1,1924,323,0,0
707,701,0,0,0,0,0,0,0,0,0,-1,1931,323,0,0
714,701,0,0,0,0,0,0,0,0,0,-1,1938,323,0,0
721,701,0,0,0,0,0,0,0,0,0,-1,1945,323,0,0
728,701,0,0,0,0,0,0,0,0,0,-1,1952,323,0,0
735,701,0,0,0,0,0,0,0,0,0,-1,1959,323,0,0
742,701,0,0,0,0,0,0,0,0,0,-1,1966,323,0,0
749,701,0,0,0,0,0,0,0,0,0,-1,1973,323,0,0
756,701,0,0,0,0,0,0,0,0,0,-1,1980,323,0,0
763,701,0,0,0,0,0,0,0,0,0,-1,1987,323,0,0
770,701,0,0,0,0,0,0,0,0,0,-1,1994,323,0,0
777,701,0,0,0,0,0,0,0,0,0,-1,2001,323,0,0
784,701,0,0,0,0,0,0,0,0,0,-1,2008,323,0,0
791,701,0,0,0,0,0,0,0,0,0,-1,2015,323,0,0
798,701,0,0,0,0,0,0,0,0,0,-1,2022,323,0,0
805,701,0,0,0,0,0,0,0,0,0,-1,2029,323,0,0
812,701,0,0,0,0,0,0,0,0,0,-1,2036,323,0,0
-700,694,0,0,0,0,0,0,0,0,0,-1,524,330,0,0
-693,694,0,0,0,0,0,0,0,0,0,-1,531,330,0,0
-686,694,0,0,0,0,0,0,0,0,0,-1,538,330,0,0
-679,694,0,0,0,0,0,0,0,0,0,-1,545,330,0,0
-672,694,0,0,0,0,0,0,0,0,0,-1,552,330,0,0
-665,694,0,0,0,0,0,0,0,0,0,-1,559,330,0,0
-658,694,0,0,0,0,0,0,0,0,0,-1,566,330,0,0
-651,694,0,0,0,0,0,0,0,0,0,-1,573,330,0,0
-644,694,0,0,0,0,0,0,0,0,0,-1,580,330,0,0
-637,694,0,0,0,0,0,0,0,0,0,-1,587,330,0,0
-630,694,0,0,0,0,0,0,0,0,0,-1,594,330,0,0
-623,694,0,0,0,0,0,0,0,0,0,-1,601,330,0,0
-616,694,0,0,0,0,0,0,0,0,0,-1,608,330,0,0
-609,694,0,0,0,0,0,0,0,0,0,-1,615,330,0,0
-602,694,0,0,0,0,0,0,0,0,0,-1,622,330,0,0
-595,694,0,0,0,0,0,0,0,0,0,-1,629,330,0,0
-588,694,0,0,0,0,0,0,0,0,0,-1,636,330,0,0
-581,694,0,0,0,0,0,0,0,0,0,-1,643,330,0,0
-574,694,0,0,0,0,0,0,0,0,0,-1,650,330,0,0
-567,694,0,0,0,0,0,0,0,0,0,-1,657,330,0,0
-560,694,0,0,0,0,0,0,0,0,0,-1,664,330,0,0
-553,694,0,0,0,0,0,0,0,0,0,-1,671,330,0,0
-546,694,0,0,0,0,0,0,0,0,0,-1,678,330,0,0
-539,694,0,0,0,0,0,0,0,0,0,-1,685,330,0,0
-532,694,0,0,0,0,0,0,0,0,0,-1,692,330,0,0
-525,694,0,0,0,0,0,0,0,0,0,-1,699,330,0,0
-518,694,0,0,0,0,0,0,0,0,0,-1,706,330,0,0
-511,694,0,0,0,0,0,0,0,0,0,-1,713,330,0,0
-504,694,0,0,0,0,0,0,0,0,0,-1,720,330,0,0
-497,694,0,0,0,0,0,0,0,0,0,-1,727,330,0,0
-490,694,0,0,0,0,0,0,0,0,0,-1,734,330,0,0
-483,694,0,0,0,0,0,0,0,0,0,-1,741,330,0,0
-476,694,0,0,0,0,0,0,0,0,0,-1,748,330,0,0
-469,694,0,0,0,0,0,0,0,0,0,-1,755,330,0,0
-462,694,0,0,0,0,0,0,0,0,0,-1,762,330,0,0
-455,694,0,0,0,0,0,0,0,0,0,-1,769,330,0,0
-448,694,0,0,0,0,0,0,0,0,0,-1,776,330,0,0
-441,694,0,0,0,0,0,0,0,0,0,-1,783,330,0,0
-434,694,0,0,0,0,0,0,0,0,0,-1,790,330,0,0
-427,694,0,0,0,0,0,0,0,0,0,-1,797,330,0,0
-420,694,0,0,0,0,0,0,0,0,0,-1,804,330,0,0
-413,694,0,0,0,0,0,0,0,0,0,-1,811,330,0,0
-406,694,0,0,0,0,0,0,0,0,0,-1,818,330,0,0
-399,694,0,0,0,0,0,0,0,0,0,-1,825,330,0,0
-392,694,0,0,0,0,0,0,0,0,0,-1,832,330,0,0
-385,694,0,0,0,0,0,0,0,0,0,-1,839,330,0,0
-378,694,0,0,0,0,0,0,0,0,0,-1,846,330,0,0
-371,694,0,0,0,0,0,0,0,0,0,-1,853,330,0,0
-364,694,0,0,0,0,0,0,0,0,0,-1,860,330,0,0
-357,694,0,0,0,0,0,0,0,0,0,-1,867,330,0,0
-350,694,0,0,0,0,0,0,0,0,0,-1,874,330,0,0
-343,694,0,0,0,0,0,0,0,0,0,-1,881,330,0,0
-336,694,0,0,0,0,0,0,0,0,0,-1,888,330,0,0
-329,694,0,0,0,0,0,0,0,0,0,-1,895,330,0,0
-322,694,0,0,0,0,0,0,0,0,0,-1,902,330,0,0
-315,694,0,0,0,0,0,0,0,0,0,-1,909,330,0,0
-308,694,0,0,0,0,0,0,0,0,0,-1,916,330,0,0
-301,694,0,0,0,0,0,0,0,0,0,-1,923,330,0,0
-294,694,0,0,0,0,0,0,0,0,0,-1,930,330,0,0
-287,694,0,0,0,0,0,0,0,0,0,-1,937,330,0,0
-280,694,0,0,0,0,0,0,0,0,0,-1,944,330,0,0
-273,694,0,0,0,0,0,0,0,0,0,-1,951,330,0,0
-266,694,0,0,0,0,0,0,0,0,0,-1,958,330,0,0
-259,694,0,0,0,0,0,0,0,0,0,-1,965,330,0,0
-252,694,0,0,0,0,0,0,0,0,0,-1,972,330,0,0
-245,694,0,0,0,0,0,0,0,0,0,-1,979,330,0,0
-238,694,0,0,0,0,0,0,0,0,0,-1,986,330,0,0
-231,694,0,0,0,0,0,0,0,0,0,-1,993,330,0,0
-224,694,0,0,0,0,0,0,0,0,0,-1,1000,330,0,0
-217,694,0,0,0,0,0,0,0,0,0,-1,1007,330,0,0
-210,694,0,0,0,0,0,0,0,0,0,-1,1014,330,0,0
-203,694,0,0,0,0,0,0,0,0,0,-1,1021,330,0,0
-196,694,0,0,0,0,0,0,0,0,0,-1,1028,330,0,0
-189,694,0,0,0,0,0,0,0,0,0,-1,1035,330,0,0
-182,694,0,0,0,0,0,0,0,0,0,-1,1042,330,0,0
-175,694,0,0,0,0,0,0,0,0,0,-1,1049,330,0,0
-168,694,0,0,0,0,0,0,0,0,0,-1,1056,330,0,0
-161,694,0,0,0,0,0,0,0,0,0,-1,1063,330,0,0
-154,694,0,0,0,0,0,0,0,0,0,-1,1070,330,0,0
-147,694,0,0,0,0,0,0,0,0,0,-1,1077,330,0,0
-140,694,0,0,0,0,0,0,0,0,0,-1,1084,330,0,0
-133,694,0,0,0,0,0,0,0,0,0,-1,1091,330,0,0
-126,694,0,0,0,0,0,0,0,0,0,-1,1098,330,0,0
-119,694,0,0,0,0,0,0,0,0,0,-1,1105,330,0,0
-112,694,0,0,0,0,0,0,0,0,0,-1,1112,330,0,0
-105,694,2.5188,-19.3963,0,0,0,0,0,0,0,-1,1119,330,2.51882,19.3963
-98,694,1.34875,-10.1051,0,0,0,0,0,0,0,-1,1126,330,1.34874,10.1051
-91,694,6.62366,-46.8039,0,0,0,0,0,0,0,-1,1133,330,6.62363,46.8039
-84,694,0.0577393,-40.8823,0,0,0,0,0,0,0,-1,1140,330,0.0577026,40.8823
-77,694,-5.51379,-31.2714,0,0,0,0,0,0,0,-1,1147,330,-5.51383,31.2714
-70,694,-11.9945,-25.5143,0,0,0,0,0,0,0,-1,1154,330,-11.9945,25.5143
-63,694,-18.4752,-19.7572,0,0,0,0,0,0,0,-1,1161,330,-18.4752,19.7572
-56,694,-6.50623,-0.649139,0,0,0,0,0,0,0,-1,1168,330,-6.5062,0.649126
-49,694,-1.11426,0.0341797,0,0,0,0,0,0,0,-1,1175,330,-1.11424,-0.0341846
-42,694,-0.346313,-0.709595,0,0,0,0,0,0,0,-1,1182,330,-0.346298,0.709581
-35,694,-0.459106,-1.24713,0,0,0,0,0,0,0,-1,1189,330,-0.459142,1.24714
-28,694,-6.48413,-3.95972,0,0,0,0,0,0,0,-1,1196,330,-6.48414,3.9597
-21,694,7.13831,-55.3012,0,0,0,0,0,0,0,-1,1203,330,7.13827,55.3012
-14,694,7.31079,-55.5977,-0.00841699,0.109849,-0.0278497,0.116079,-0.014647,-1.35072,0.0827018,0.0495476,1210,330,7.31076,55.5977
-7,694,7.49133,-55.7148,-0.0134242,0.113014,-0.0265139,0.118349,-0.018759,-1.37224,0.0858383,0.0427741,1217,330,7.49137,55.7148
0,694,7.724,-55.9042,0,0,0,0,0,0,0,-1,1224,330,7.72398,55.9042
7,694,8.02844,-56.2233,0,0,0,0,0,0,0,-1,1231,330,8.02847,56.2233
14,694,8.97314,-55.816,-0.0279025,0.105564,-0.0255115,0.110274,-0.0326127,-1.38822,0.0864621,0.0485139,1238,330,8.97317,55.816
21,694,8.82605,-56.1715,-0.0324029,0.0974267,-0.0243828,0.101855,-0.0368311,-1.39114,0.0829522,0.0495746,1245,330,8.82602,56.1715
28,694,8.71179,-56.5147,-0.0363296,0.0933532,-0.0229539,0.0972962,-0.0402726,-1.40068,0.0816682,0.0490394,1252,330,8.71181,56.5147
35,694,8.54309,-56.935,0,0,0,0,0,0,0,-1,1259,330,8.54303,56.935
42,694,6.17249,-57.6635,-0.0441152,0.0852229,-0.0231891,0.0892548,-0.0481472,-1.39865,0.0805038,0.0453945,1266,330,6.17245,57.6635
49,694,6.15161,-58.1387,0,0,0,0,0,0,0,-1,1273,330,6.15162,58.1387
56,694,5.88696,-58.8046,-0.0470898,0.07948,-0.0243877,0.0840165,-0.0516263,-1.38688,0.0790541,0.0433875,1280,330,5.88695,58.8046
63,694,5.53516,-59.4177,-0.0463729,0.0772748,-0.025203,0.0822145,-0.0513127,-1.37725,0.0777771,0.0456066,1287,330,5.53511,59.4177
70,694,5.11792,-59.9332,0,0,0,0,0,0,0,-1,1294,330,5.11795,59.9332
77,694,6.56238,-55.3024,0,0,0,0,0,0,0,-1,1301,330,6.56233,55.3024
84,694,6.35925,-55.4909,-0.0450142,0.0796668,-0.0285983,0.0859134,-0.0512608,-1.35575,0.0800355,0.0490881,1308,330,6.35921,55.4909
91,694,5.55371,-55.2579,-0.0441441,0.080115,-0.030266,0.0870949,-0.0511239,-1.34414,0.0806964,0.0462672,1315,330,5.55367,55.2579
98,694,5.30115,-55.971,-0.0437701,0.0798678,-0.0310217,0.0872148,-0.0511171,-1.33825,0.0807673,0.0462082,1322,330,5.30114,55.971
105,694,5.19568,-56.6293,-0.0433816,0.0789144,-0.0310442,0.0863435,-0.0508107,-1.33591,0.0800669,0.0449053,1329,330,5.19569,56.6293
112,694,5.38953,-57.6484,-0.0419871,0.0788585,-0.0301117,0.085946,-0.0490745,-1.33963,0.078917,0.0421339,1336,330,5.38954,57.6484
119,694,5.69751,-58.3992,0,0,0,0,0,0,0,-1,1343,330,5.69756,58.3992
126,694,5.84595,-58.9314,0,0,0,0,0,0,0,-1,1350,330,5.846,58.9314
133,694,3.38647,-57.5676,0,0,0,0,0,0,0,-1,1357,330,3.38644,57.5676
140,694,3.34814,-58.226,0,0,0,0,0,0,0,-1,1364,330,3.3482,58.2259
147,694,20.2423,-64.3019,0,0,0,0,0,0,0,-1,1371,330,20.2423,64.3019
154,694,-2.88672,-49.1509,0,0,0,0,0,0,0,-1,1378,330,-2.88667,49.1509
161,694,0.0187988,-38.6779,0,0,0,0,0,0,0,-1,1385,330,0.0187579,38.6779
168,694,30.451,0.196686,0,0,0,0,0,0,0,-1,1392,330,30.4511,-0.196674
175,694,31.0701,0.869873,0,0,0,0,0,0,0,-1,1399,330,31.07,-0.869874
182,694,8.29028,5.75238,0,0,0,0,0,0,0,-1,1406,330,8.29034,-5.75237
189,694,7.9801,4.46118,0,0,0,0,0,0,0,-1,1413,330,7.9801,-4.46118
196,694,7.39331,3.32632,0,0,0,0,0,0,0,-1,1420,330,7.39329,-3.32633
203,694,7.04492,2.20529,0,0,0,0,0,0,0,-1,1427,330,7.04496,-2.20529
210,694,6.44714,0.646912,0,0,0,0,0,0,0,-1,1434,330,6.44717,-0.646903
217,694,7.12061,-0.644958,0,0,0,0,0,0,0,-1,1441,330,7.12059,0.644961
224,694,6.74011,-1.70544,0,0,0,0,0,0,0,-1,1448,330,6.74013,1.70546
231,694,0,0,0,0,0,0,0,0,0,-1,1455,330,0,0
238,694,0,0,0,0,0,0,0,0,0,-1,1462,330,0,0
245,694,0,0,0,0,0,0,0,0,0,-1,1469,330,0,0
252,694,0,0,0,0,0,0,0,0,0,-1,1476,330,0,0
259,694,0,0,0,0,0,0,0,0,0,-1,1483,330,0,0
266,694,0,0,0,0,0,0,0,0,0,-1,1490,330,0,0
273,694,0,0,0,0,0,0,0,0,0,-1,1497,330,0,0
280,694,0,0,0,0,0,0,0,0,0,-1,1504,330,0,0
287,694,0,0,0,0,0,0,0,0,0,-1,1511,330,0,0
294,694,0,0,0,0,0,0,0,0,0,-1,1518,330,0,0
301,694,0,0,0,0,0,0,0,0,0,-1,1525,330,0,0
308,694,0,0,0,0,0,0,0,0,0,-1,1532,330,0,0
315,694,0,0,0,0,0,0,0,0,0,-1,1539,330,0,0
322,694,0,0,0,0,0,0,0,0,0,-1,1546,330,0,0
329,694,0,0,0,0,0,0,0,0,0,-1,1553,330,0,0
336,694,0,0,0,0,0,0,0,0,0,-1,1560,330,0,0
343,694,0,0,0,0,0,0,0,0,0,-1,1567,330,0,0
350,694,0,0,0,0,0,0,0,0,0,-1,1574,330,0,0
357,694,0,0,0,0,0,0,0,0,0,-1,1581,330,0,0
364,694,0,0,0,0,0,0,0,0,0,-1,1588,330,0,0
371,694,0,0,0,0,0,0,0,0,0,-1,1595,330,0,0
378,694,0,0,0,0,0,0,0,0,0,-1,1602,330,0,0
385,694,0,0,0,0,0,0,0,0,0,-1,1609,330,0,0
392,694,0,0,0,0,0,0,0,0,0,-1,1616,330,0,0
399,694,0,0,0,0,0,0,0,0,0,-1,1623,330,0,0
406,694,0,0,0,0,0,0,0,0,0,-1,1630,330,0,0
413,694,0,0,0,0,0,0,0,0,0,-1,1637,330,0,0
420,694,0,0,0,0,0,0,0,0,0,-1,1644,330,0,0
427,694,0,0,0,0,0,0,0,0,0,-1,1651,330,0,0
434,694,0,0,0,0,0,0,0,0,0,-1,1658,330,0,0
441,694,0,0,0,0,0,0,0,0,0,-1,1665,330,0,0
448,694,0,0,0,0,0,0,0,0,0,-1,1672,330,0,0
455,694,0,0,0,0,0,0,0,0,0,-1,1679,330,0,0
462,694,0,0,0,0,0,0,0,0,0,-1,1686,330,0,0
469,694,0,0,0,0,0,0,0,0,0,-1,1693,330,0,0
476,694,0,0,0,0,0,0,0,0,0,-1,1700,330,0,0
483,694,0,0,0,0,0,0,0,0,0,-1,1707,330,0,0
490,694,0,0,0,0,0,0,0,0,0,-1,1714,330,0,0
497,694,0,0,0,0,0,0,0,0,0,-1,1721,330,0,0
504,694,0,0,0,0,0,0,0,0,0,-1,1728,330,0,0
511,694,0,0,0,0,0,0,0,0,0,-1,1735,330,0,0
518,694,0,0,0,0,0,0,0,0,0,-1,1742,330,0,0
525,694,0,0,0,0,0,0,0,0,0,-1,1749,330,0,0
532,694,0,0,0,0,0,0,0,0,0,-1,1756,330,0,0
539,694,0,0,0,0,0,0,0,0,0,-1,1763,330,0,0
546,694,0,0,0,0,0,0,0,0,0,-1,1770,330,0,0
553,694,0,0,0,0,0,0,0,0,0,-1,1777,330,0,0
560,694,0,0,0,0,0,0,0,0,0,-1,1784,330,0,0
567,694,0,0,0,0,0,0,0,0,0,-1,1791,330,0,0
574,694,0,0,0,0,0,0,0,0,0,-1,1798,330,0,0
581,694,0,0,0,0,0,0,0,0,0,-1,1805,330,0,0
588,694,0,0,0,0,0,0,0,0,0,-1,1812,330,0,0
595,694,0,0,0,0,0,0,0,0,0,-1,1819,330,0,0
602,694,0,0,0,0,0,0,0,0,0,-1,1826,330,0,0
609,694,0,0,0,0,0,0,0,0,0,-1,1833,330,0,0
616,694,0,0,0,0,0,0,0,0,0,-1,1840,330,0,0
623,694,0,0,0,0,0,0,0,0,0,-1,1847,330,0,0
630,694,0,0,0,0,0,0,0,0,0,-1,1854,330,0,0
637,694,0,0,0,0,0,0,0,0,0,-1,1861,330,0,0
644,694,0,0,0,0,0,0,0,0,0,-1,1868,330,0,0
651,694,0,0,0,0,0,0,0,0,0,-1,1875,330,0,0
658,694,0,0,0,0,0,0,0,0,0,-1,1882,330,0,0
665,694,0,0,0,0,0,0,0,0,0,-1,1889,330,0,0
672,694,0,0,0,0,0,0,0,0,0,-1,1896,330,0,0
679,694,0,0,0,0,0,0,0,0,0,-1,1903,330,0,0
686,694,0,0,0,0,0,0,0,0,0,-1,1910,330,0,0
693,694,0,0,0,0,0,0,0,0,0,-1,1917,330,0,0
700,694,0,0,0,0,0,0,0,0,0,-1,1924,330,0,0
707,694,0,0,0,0,0,0,0,0,0,-1,1931,330,0,0
714,694,0,0,0,0,0,0,0,0,0,-1,1938,330,0,0
721,694,0,0,0,0,0,0,0,0,0,-1,1945,330,0,0
728,694,0,0,0,0,0,0,0,0,0,-1,1952,330,0,0
735,694,0,0,0,0,0,0,0,0,0,-1,1959,330,0,0
742,694,0,0,0,0,0,0,0,0,0,-1,1966,330,0,0
749,694,0,0,0,0,0,0,0,0,0,-1,1973,330,0,0
756,694,0,0,0,0,0,0,0,0,0,-1,1980,330,0,0
763,694,0,0,0,0,0,0,0,0,0,-1,1987,330,0,0
770,694,0,0,0,0,0,0,0,0,0,-1,1994,330,0,0
777,694,0,0,0,0,0,0,0,0,0,-1,2001,330,0,0
784,694,0,0,0,0,0,0,0,0,0,-1,2008,330,0,0
791,694,0,0,0,0,0,0,0,0,0,-1,2015,330,0,0
798,694,0,0,0,0,0,0,0,0,0,-1,2022,330,0,0
805,694,0,0,0,0,0,0,0,0,0,-1,2029,330,0,0
812,694,0,0,0,0,0,0,0,0,0,-1,2036,330,0,0
-700,687,0,0,0,0,0,0,0,0,0,-1,524,337,0,0
-693,687,0,0,0,0,0,0,0,0,0,-1,531,337,0,0
-686,687,0,0,0,0,0,0,0,0,0,-1,538,337,0,0
-679,687,0,0,0,0,0,0,0,0,0,-1,545,337,0,0
-672,687,0,0,0,0,0,0,0,0,0,-1,552,337,0,0
-665,687,0,0,0,0,0,0,0,0,0,-1,559,337,0,0
-658,687,0,0,0,0,0,0,0,0,0,-1,566,337,0,0
-651,687,0,0,0,0,0,0,0,0,0,-1,573,337,0,0
-644,687,0,0,0,0,0,0,0,0,0,-1,580,337,0,0
-637,687,0,0,0,0,0,0,0,0,0,-1,587,337,0,0
-630,687,0,0,0,0,0,0,0,0,0,-1,594,337,0,0
-623,687,0,0,0,0,0,0,0,0,0,-1,601,337,0,0
-616,687,0,0,0,0,0,0,0,0,0,-1,608,337,0,0
-609,687,0,0,0,0,0,0,0,0,0,-1,615,337,0,0
-602,687,0,0,0,0,0,0,0,0,0,-1,622,337,0,0
-595,687,0,0,0,0,0,0,0,0,0,-1,629,337,0,0
-588,687,0,0,0,0,0,0,0,0,0,-1,636,337,0,0
-581,687,0,0,0,0,0,0,0,0,0,-1,643,337,0,0
-574,687,0,0,0,0,0,0,0,0,0,-1,650,337,0,0
-567,687,0,0,0,0,0,0,0,0,0,-1,657,337,0,0
-560,687,0,0,0,0,0,0,0,0,0,-1,664,337,0,0
-553,687,0,0,0,0,0,0,0,0,0,-1,671,337,0,0
-546,687,0,0,0,0,0,0,0,0,0,-1,678,337,0,0
-539,687,0,0,0,0,0,0,0,0,0,-1,685,337,0,0
-532,687,0,0,0,0,0,0,0,0,0,-1,692,337,0,0
-525,687,0,0,0,0,0,0,0,0,0,-1,699,337,0,0
-518,687,0,0,0,0,0,0,0,0,0,-1,706,337,0,0
-511,687,0,0,0,0,0,0,0,0,0,-1,713,337,0,0
-504,687,0,0,0,0,0,0,0,0,0,-1,720,337,0,0
-497,687,0,0,0,0,0,0,0,0,0,-1,727,337,0,0
-490,687,0,0,0,0,0,0,0,0,0,-1,734,337,0,0
-483,687,0,0,0,0,0,0,0,0,0,-1,741,337,0,0
-476,687,0,0,0,0,0,0,0,0,0,-1,748,337,0,0
-469,687,0,0,0,0,0,0,0,0,0,-1,755,337,0,0
-462,687,0,0,0,0,0,0,0,0,0,-1,762,337,0,0
-455,687,0,0,0,0,0,0,0,0,0,-1,769,337,0,0
-448,687,0,0,0,0,0,0,0,0,0,-1,776,337,0,0
-441,687,0,0,0,0,0,0,0,0,0,-1,783,337,0,0
-434,687,0,0,0,0,0,0,0,0,0,-1,790,337,0,0
-427,687,0,0,0,0,0,0,0,0,0,-1,797,337,0,0
-420,687,0,0,0,0,0,0,0,0,0,-1,804,337,0,0
-413,687,0,0,0,0,0,0,0,0,0,-1,811,337,0,0
-406,687,0,0,0,0,0,0,0,0,0,-1,818,337,0,0
-399,687,0,0,0,0,0,0,0,0,0,-1,825,337,0,0
-392,687,0,0,0,0,0,0,0,0,0,-1,832,337,0,0
-385,687,0,0,0,0,0,0,0,0,0,-1,839,337,0,0
-378,687,0,0,0,0,0,0,0,0,0,-1,846,337,0,0
-371,687,0,0,0,0,0,0,0,0,0,-1,853,337,0,0
-364,687,0,0,0,0,0,0,0,0,0,-1,860,337,0,0
-357,687,0,0,0,0,0,0,0,0,0,-1,867,337,0,0
-350,687,0,0,0,0,0,0,0,0,0,-1,874,337,0,0
-343,687,0,0,0,0,0,0,0,0,0,-1,881,337,0,0
-336,687,0,0,0,0,0,0,0,0,0,-1,888,337,0,0
-329,687,0,0,0,0,0,0,0,0,0,-1,895,337,0,0
-322,687,0,0,0,0,0,0,0,0,0,-1,902,337,0,0
-315,687,0,0,0,0,0,0,0,0,0,-1,909,337,0,0
-308,687,0,0,0,0,0,0,0,0,0,-1,916,337,0,0
-301,687,0,0,0,0,0,0,0,0,0,-1,923,337,0,0
-294,687,0,0,0,0,0,0,0,0,0,-1,930,337,0,0
-287,687,0,0,0,0,0,0,0,0,0,-1,937,337,0,0
-280,687,0,0,0,0,0,0,0,0,0,-1,944,337,0,0
-273,687,0,0,0,0,0,0,0,0,0,-1,951,337,0,0
-266,687,0,0,0,0,0,0,0,0,0,-1,958,337,0,0
-259,687,0,0,0,0,0,0,0,0,0,-1,965,337,0,0
-252,687,0,0,0,0,0,0,0,0,0,-1,972,337,0,0
-245,687,0,0,0,0,0,0,0,0,0,-1,979,337,0,0
-238,687,0,0,0,0,0,0,0,0,0,-1,986,337,0,0
-231,687,0,0,0,0,0,0,0,0,0,-1,993,337,0,0
-224,687,0,0,0,0,0,0,0,0,0,-1,1000,337,0,0
-217,687,0,0,0,0,0,0,0,0,0,-1,1007,337,0,0
-210,687,0,0,0,0,0,0,0,0,0,-1,1014,337,0,0
-203,687,0,0,0,0,0,0,0,0,0,-1,1021,337,0,0
-196,687,0,0,0,0,0,0,0,0,0,-1,1028,337,0,0
-189,687,0,0,0,0,0,0,0,0,0,-1,1035,337,0,0
-182,687,0,0,0,0,0,0,0,0,0,-1,1042,337,0,0
-175,687,0,0,0,0,0,0,0,0,0,-1,1049,337,0,0
-168,687,0,0,0,0,0,0,0,0,0,-1,1056,337,0,0
-161,687,0,0,0,0,0,0,0,0,0,-1,1063,337,0,0
-154,687,0,0,0,0,0,0,0,0,0,-1,1070,337,0,0
-147,687,0,0,0,0,0,0,0,0,0,-1,1077,337,0,0
-140,687,0,0,0,0,0,0,0,0,0,-1,1084,337,0,0
-133,687,7.93958,-37.548,0,0,0,0,0,0,0,-1,1091,337,7.93957,37.548
-126,687,0.688477,-38.7298,0,0,0,0,0,0,0,-1,1098,337,0.688509,38.7298
-119,687,7.70825,-33.9236,0,0,0,0,0,0,0,-1,1105,337,7.70826,33.9236
-112,687,7.99866,-32.2983,0,0,0,0,0,0,0,-1,1112,337,7.99866,32.2983
-105,687,1.3208,-29.8313,0,0,0,0,0,0,0,-1,1119,337,1.3208,29.8313
-98,687,13.7111,-47.5645,0,0,0,0,0,0,0,-1,1126,337,13.711,47.5645
-91,687,7.22083,-41.1667,0,0,0,0,0,0,0,-1,1133,337,7.22079,41.1666
-84,687,0.745117,-35.0345,0,0,0,0,0,0,0,-1,1140,337,0.745155,35.0345
-77,687,-5.74353,-28.9553,0,0,0,0,0,0,0,-1,1147,337,-5.74357,28.9553
-70,687,-11.6842,-19.8473,0,0,0,0,0,0,0,-1,1154,337,-11.6842,19.8473
-63,687,-17.6757,-14.8966,0,0,0,0,0,0,0,-1,1161,337,-17.6756,14.8966
-56,687,-18.104,7.81931,0,0,0,0,0,0,0,-1,1168,337,-18.104,-7.81931
-49,687,-15.6449,-9.94391,0,0,0,0,0,0,0,-1,1175,337,-15.6449,9.94392
-42,687,-4.2019,-0.405609,0,0,0,0,0,0,0,-1,1182,337,-4.20192,0.405614
-35,687,-4.42273,-0.688171,0,0,0,0,0,0,0,-1,1189,337,-4.42276,0.688178
-28,687,-1.14038,-1.39072,0,0,0,0,0,0,0,-1,1196,337,-1.14035,1.3907
-21,687,7.25916,-55.9263,0,0,0,0,0,0,0,-1,1203,337,7.25916,55.9263
-14,687,7.40735,-56.2399,-0.00992023,0.0943341,-0.0234915,0.0993829,-0.014969,-1.3591,0.0717672,0.0473163,1210,337,7.4073,56.2399
-7,687,7.45447,-56.4072,-0.0131022,0.0965278,-0.0224419,0.100944,-0.0175183,-1.3765,0.0738314,0.0463486,1217,337,7.45442,56.4072
0,687,7.42224,-56.6424,0,0,0,0,0,0,0,-1,1224,337,7.42218,56.6424
7,687,8.89832,-55.8233,-0.0192532,0.0957751,-0.0208438,0.0994356,-0.0229137,-1.39695,0.0751027,0.0464942,1231,337,8.89832,55.8233
14,687,8.8269,-56.2703,-0.0227453,0.0912481,-0.0208622,0.0949461,-0.0264434,-1.39536,0.0737103,0.0457576,1238,337,8.8269,56.2703
21,687,8.51917,-56.9204,-0.025837,0.0851067,-0.0195762,0.0884597,-0.02919,-1.40117,0.0707399,0.046892,1245,337,8.51911,56.9204
28,687,8.40552,-57.4128,-0.0284586,0.0826623,-0.0180022,0.085506,-0.0313022,-1.41413,0.0698176,0.0456889,1252,337,8.40547,57.4127
35,687,8.3092,-57.9237,0,0,0,0,0,0,0,-1,1259,337,8.30917,57.9237
42,687,6.44495,-57.8259,0,0,0,0,0,0,0,-1,1266,337,6.4449,57.8259
49,687,6.88281,-58.1291,0,0,0,0,0,0,0,-1,1273,337,6.88284,58.1291
56,687,7.0354,-58.0207,0,0,0,0,0,0,0,-1,1280,337,7.03534,58.0207
63,687,7.00244,-57.9086,0,0,0,0,0,0,0,-1,1287,337,7.00245,57.9086
70,687,7.04895,-57.9343,-0.0359574,0.0711091,-0.0187588,0.0743007,-0.0391489,-1.40227,0.0665399,0.0428481,1294,337,7.04901,57.9343
77,687,6.72266,-56.0389,-0.0363951,0.0719087,-0.0195637,0.0753343,-0.0398207,-1.39745,0.0675304,0.0468919,1301,337,6.72261,56.0389
84,687,6.54395,-56.2916,-0.037092,0.0716832,-0.020452,0.0754015,-0.0408103,-1.39095,0.0680784,0.0467939,1308,337,6.54395,56.2916
91,687,6.35327,-56.5357,0,0,0,0,0,0,0,-1,1315,337,6.35322,56.5357
98,687,5.90063,-56.4528,0,0,0,0,0,0,0,-1,1322,337,5.90059,56.4528
105,687,5.26697,-57.2201,-0.0378862,0.0700413,-0.021671,0.0742301,-0.042075,-1.37986,0.0679988,0.0426152,1329,337,5.26702,57.2201
112,687,5.18921,-58.2354,-0.0373231,0.0699482,-0.0207104,0.0738078,-0.0411827,-1.38655,0.0672746,0.0425609,1336,337,5.18925,58.2354
119,687,5.39746,-59.0705,0,0,0,0,0,0,0,-1,1343,337,5.39741,59.0705
126,687,3.55469,-57.273,-0.0387954,0.0696142,-0.0165812,0.0720936,-0.0412748,-1.42237,0.0662545,0.0442718,1350,337,3.55464,57.273
133,687,2.82568,-57.3763,-0.0403249,0.0664481,-0.0129651,0.0679999,-0.0418767,-1.45168,0.0640321,0.0480841,1357,337,2.82572,57.3763
140,687,2.44824,-57.7433,0,0,0,0,0,0,0,-1,1364,337,2.44818,57.7434
147,687,2.19141,-58.1667,0,0,0,0,0,0,0,-1,1371,337,2.1914,58.1667
154,687,5.29272,-50.2722,0,0,0,0,0,0,0,-1,1378,337,5.29275,50.2722
161,687,29.3895,-1.90628,0,0,0,0,0,0,0,-1,1385,337,29.3895,1.90628
168,687,29.8564,-1.19434,0,0,0,0,0,0,0,-1,1392,337,29.8564,1.19434
175,687,30.3419,-0.453583,0,0,0,0,0,0,0,-1,1399,337,30.3419,0.45357
182,687,6.67249,0.289917,0,0,0,0,0,0,0,-1,1406,337,6.67247,-0.289916
189,687,7.76062,4.53635,0,0,0,0,0,0,0,-1,1413,337,7.76064,-4.53636
196,687,6.99048,3.2966,0,0,0,0,0,0,0,-1,1420,337,6.99046,-3.2966
203,687,6.36499,2.1445,0,0,0,0,0,0,0,-1,1427,337,6.36499,-2.14451
210,687,6.68066,0.674652,0,0,0,0,0,0,0,-1,1434,337,6.68062,-0.674655
217,687,5.99683,-0.630493,0,0,0,0,0,0,0,-1,1441,337,5.99684,0.630497
224,687,5.52917,0.524902,0,0,0,0,0,0,0,-1,1448,337,5.5292,-0.524915
231,687,5.85583,-1.73651,0,0,0,0,0,0,0,-1,1455,337,5.85577,1.73651
238,687,5.96582,-2.96774,0,0,0,0,0,0,0,-1,1462,337,5.96577,2.96773
245,687,1.28259,2.32211,0,0,0,0,0,0,0,-1,1469,337,1.28258,-2.32211
252,687,1.97278,3.88422,0,0,0,0,0,0,0,-1,1476,337,1.97281,-3.88421
259,687,0,0,0,0,0,0,0,0,0,-1,1483,337,0,0
266,687,0,0,0,0,0,0,0,0,0,-1,1490,337,0,0
273,687,0,0,0,0,0,0,0,0,0,-1,1497,337,0,0
280,687,0,0,0,0,0,0,0,0,0,-1,1504,337,0,0
287,687,0,0,0,0,0,0,0,0,0,-1,1511,337,0,0
294,687,0,0,0,0,0,0,0,0,0,-1,1518,337,0,0
301,687,0,0,0,0,0,0,0,0,0,-1,1525,337,0,0
308,687,0,0,0,0,0,0,0,0,0,-1,1532,337,0,0
315,687,0,0,0,0,0,0,0,0,0,-1,1539,337,0,0
322,687,0,0,0,0,0,0,0,0,0,-1,1546,337,0,0
329,687,0,0,0,0,0,0,0,0,0,-1,1553,337,0,0
336,687,0,0,0,0,0,0,0,0,0,-1,1560,337,0,0
343,687,0,0,0,0,0,0,0,0,0,-1,1567,337,0,0
350,687,0,0,0,0,0,0,0,0,0,-1,1574,337,0,0
357,687,0,0,0,0,0,0,0,0,0,-1,1581,337,0,0
364,687,0,0,0,0,0,0,0,0,0,-1,1588,337,0,0
371,687,0,0,0,0,0,0,0,0,0,-1,1595,337,0,0
378,687,0,0,0,0,0,0,0,0,0,-1,1602,337,0,0
385,687,0,0,0,0,0,0,0,0,0,-1,1609,337,0,0
392,687,0,0,0,0,0,0,0,0,0,-1,1616,337,0,0
399,687,0,0,0,0,0,0,0,0,0,-1,1623,337,0,0
406,687,0,0,0,0,0,0,0,0,0,-1,1630,337,0,0
413,687,0,0,0,0,0,0,0,0,0,-1,1637,337,0,0
420,687,0,0,0,0,0,0,0,0,0,-1,1644,337,0,0
427,687,0,0,0,0,0,0,0,0,0,-1,1651,337,0,0
434,687,0,0,0,0,0,0,0,0,0,-1,1658,337,0,0
441,687,0,0,0,0,0,0,0,0,0,-1,1665,337,0,0
448,687,0,0,0,0,0,0,0,0,0,-1,1672,337,0,0
455,687,0,0,0,0,0,0,0,0,0,-1,1679,337,0,0
462,687,0,0,0,0,0,0,0,0,0,-1,1686,337,0,0
469,687,0,0,0,0,0,0,0,0,0,-1,1693,337,0,0
476,687,0,0,0,0,0,0,0,0,0,-1,1700,337,0,0
483,687,0,0,0,0,0,0,0,0,0,-1,1707,337,0,0
490,687,0,0,0,0,0,0,0,0,0,-1,1714,337,0,0
497,687,0,0,0,0,0,0,0,0,0,-1,1721,337,0,0
504,687,0,0,0,0,0,0,0,0,0,-1,1728,337,0,0
511,687,0,0,0,0,0,0,0,0,0,-1,1735,337,0,0
518,687,0,0,0,0,0,0,0,0,0,-1,1742,337,0,0
525,687,0,0,0,0,0,0,0,0,0,-1,1749,337,0,0
532,687,0,0,0,0,0,0,0,0,0,-1,1756,337,0,0
539,687,0,0,0,0,0,0,0,0,0,-1,1763,337,0,0
546,687,0,0,0,0,0,0,0,0,0,-1,1770,337,0,0
553,687,0,0,0,0,0,0,0,0,0,-1,1777,337,0,0
560,687,0,0,0,0,0,0,0,0,0,-1,1784,337,0,0
567,687,0,0,0,0,0,0,0,0,0,-1,1791,337,0,0
574,687,0,0,0,0,0,0,0,0,0,-1,1798,337,0,0
581,687,0,0,0,0,0,0,0,0,0,-1,1805,337,0,0
588,687,0,0,0,0,0,0,0,0,0,-1,1812,337,0,0
595,687,0,0,0,0,0,0,0,0,0,-1,1819,337,0,0
602,687,0,0,0,0,0,0,0,0,0,-1,1826,337,0,0
609,687,0,0,0,0,0,0,0,0,0,-1,1833,337,0,0
616,687,0,0,0,0,0,0,0,0,0,-1,1840,337,0,0
623,687,0,0,0,0,0,0,0,0,0,-1,1847,337,0,0
630,687,0,0,0,0,0,0,0,0,0,-1,1854,337,0,0
637,687,0,0,0,0,0,0,0,0,0,-1,1861,337,0,0
644,687,0,0,0,0,0,0,0,0,0,-1,1868,337,0,0
651,687,0,0,0,0,0,0,0,0,0,-1,1875,337,0,0
658,687,0,0,0,0,0,0,0,0,0,-1,1882,337,0,0
665,687,0,0,0,0,0,0,0,0,0,-1,1889,337,0,0
672,687,0,0,0,0,0,0,0,0,0,-1,1896,337,0,0
679,687,0,0,0,0,0,0,0,0,0,-1,1903,337,0,0
686,687,0,0,0,0,0,0,0,0,0,-1,1910,337,0,0
693,687,0,0,0,0,0,0,0,0,0,-1,1917,337,0,0
700,687,0,0,0,0,0,0,0,0,0,-1,1924,337,0,0
707,687,0,0,0,0,0,0,0,0,0,-1,1931,337,0,0
714,687,0,0,0,0,0,0,0,0,0,-1,1938,337,0,0
721,687,0,0,0,0,0,0,0,0,0,-1,1945,337,0,0
728,687,0,0,0,0,0,0,0,0,0,-1,1952,337,0,0
735,687,0,0,0,0,0,0,0,0,0,-1,1959,337,0,0
742,687,0,0,0,0,0,0,0,0,0,-1,1966,337,0,0
749,687,0,0,0,0,0,0,0,0,0,-1,1973,337,0,0
756,687,0,0,0,0,0,0,0,0,0,-1,1980,337,0,0
763,687,0,0,0,0,0,0,0,0,0,-1,1987,337,0,0
770,687,0,0,0,0,0,0,0,0,0,-1,1994,337,0,0
777,687,0,0,0,0,0,0,0,0,0,-1,2001,337,0,0
784,687,0,0,0,0,0,0,0,0,0,-1,2008,337,0,0
791,687,0,0,0,0,0,0,0,0,0,-1,2015,337,0,0
798,687,0,0,0,0,0,0,0,0,0,-1,2022,337,0,0
805,687,0,0,0,0,0,0,0,0,0,-1,2029,337,0,0
812,687,0,0,0,0,0,0,0,0,0,-1,2036,337,0,0
-700,680,0,0,0,0,0,0,0,0,0,-1,524,344,0,0
-693,680,0,0,0,0,0,0,0,0,0,-1,531,344,0,0
-686,680,0,0,0,0,0,0,0,0,0,-1,538,344,0,0
-679,680,0,0,0,0,0,0,0,0,0,-1,545,344,0,0
-672,680,0,0,0,0,0,0,0,0,0,-1,552,344,0,0
-665,680,0,0,0,0,0,0,0,0,0,-1,559,344,0,0
-658,680,0,0,0,0,0,0,0,0,0,-1,566,344,0,0
-651,680,0,0,0,0,0,0,0,0,0,-1,573,344,0,0
-644,680,0,0,0,0,0,0,0,0,0,-1,580,344,0,0
-637,680,0,0,0,0,0,0,0,0,0,-1,587,344,0,0
-630,680,0,0,0,0,0,0,0,0,0,-1,594,344,0,0
-623,680,0,0,0,0,0,0,0,0,0,-1,601,344,0,0
-616,680,0,0,0,0,0,0,0,0,0,-1,608,344,0,0
-609,680,0,0,0,0,0,0,0,0,0,-1,615,344,0,0
-602,680,0,0,0,0,0,0,0,0,0,-1,622,344,0,0
-595,680,0,0,0,0,0,0,0,0,0,-1,629,344,0,0
-588,680,0,0,0,0,0,0,0,0,0,-1,636,344,0,0
-581,680,0,0,0,0,0,0,0,0,0,-1,643,344,0,0
-574,680,0,0,0,0,0,0,0,0,0,-1,650,344,0,0
-567,680,0,0,0,0,0,0,0,0,0,-1,657,344,0,0
-560,680,0,0,0,0,0,0,0,0,0,-1,664,344,0,0
-553,680,0,0,0,0,0,0,0,0,0,-1,671,344,0,0
-546,680,0,0,0,0,0,0,0,0,0,-1,678,344,0,0
-539,680,0,0,0,0,0,0,0,0,0,-1,685,344,0,0
-532,680,0,0,0,0,0,0,0,0,0,-1,692,344,0,0
-525,680,0,0,0,0,0,0,0,0,0,-1,699,344,0,0
-518,680,0,0,0,0,0,0,0,0,0,-1,706,344,0,0
-511,680,0,0,0,0,0,0,0,0,0,-1,713,344,0,0
-504,680,0,0,0,0,0,0,0,0,0,-1,720,344,0,0
-497,680,0,0,0,0,0,0,0,0,0,-1,727,344,0,0
-490,680,0,0,0,0,0,0,0,0,0,-1,734,344,0,0
-483,680,0,0,0,0,0,0,0,0,0,-1,741,344,0,0
-476,680,0,0,0,0,0,0,0,0,0,-1,748,344,0,0
-469,680,0,0,0,0,0,0,0,0,0,-1,755,344,0,0
-462,680,0,0,0,0,0,0,0,0,0,-1,762,344,0,0
-455,680,0,0,0,0,0,0,0,0,0,-1,769,344,0,0
-448,680,0,0,0,0,0,0,0,0,0,-1,776,344,0,0
-441,680,0,0,0,0,0,0,0,0,0,-1,783,344,0,0
-434,680,0,0,0,0,0,0,0,0,0,-1,790,344,0,0
-427,680,0,0,0,0,0,0,0,0,0,-1,797,344,0,0
-420,680,0,0,0,0,0,0,0,0,0,-1,804,344,0,0
-413,680,0,0,0,0,0,0,0,0,0,-1,811,344,0,0
-406,680,0,0,0,0,0,0,0,0,0,-1,818,344,0,0
-399,680,0,0,0,0,0,0,0,0,0,-1,825,344,0,0
-392,680,0,0,0,0,0,0,0,0,0,-1,832,344,0,0
-385,680,0,0,0,0,0,0,0,0,0,-1,839,344,0,0
-378,680,0,0,0,0,0,0,0,0,0,-1,846,344,0,0
-371,680,0,0,0,0,0,0,0,0,0,-1,853,344,0,0
-364,680,0,0,0,0,0,0,0,0,0,-1,860,344,0,0
-357,680,0,0,0,0,0,0,0,0,0,-1,867,344,0,0
-350,680,0,0,0,0,0,0,0,0,0,-1,874,344,0,0
-343,680,0,0,0,0,0,0,0,0,0,-1,881,344,0,0
-336,680,0,0,0,0,0,0,0,0,0,-1,888,344,0,0
-329,680,0,0,0,0,0,0,0,0,0,-1,895,344,0,0
-322,680,0,0,0,0,0,0,0,0,0,-1,902,344,0,0
-315,680,0,0,0,0,0,0,0,0,0,-1,909,344,0,0
-308,680,0,0,0,0,0,0,0,0,0,-1,916,344,0,0
-301,680,0,0,0,0,0,0,0,0,0,-1,923,344,0,0
-294,680,0,0,0,0,0,0,0,0,0,-1,930,344,0,0
-287,680,0,0,0,0,0,0,0,0,0,-1,937,344,0,0
-280,680,0,0,0,0,0,0,0,0,0,-1,944,344,0,0
-273,680,0,0,0,0,0,0,0,0,0,-1,951,344,0,0
-266,680,0,0,0,0,0,0,0,0,0,-1,958,344,0,0
-259,680,0,0,0,0,0,0,0,0,0,-1,965,344,0,0
-252,680,0,0,0,0,0,0,0,0,0,-1,972,344,0,0
-245,680,0,0,0,0,0,0,0,0,0,-1,979,344,0,0
-238,680,0,0,0,0,0,0,0,0,0,-1,986,344,0,0
-231,680,0,0,0,0,0,0,0,0,0,-1,993,344,0,0
-224,680,0,0,0,0,0,0,0,0,0,-1,1000,344,0,0
-217,680,0,0,0,0,0,0,0,0,0,-1,1007,344,0,0
-210,680,0,0,0,0,0,0,0,0,0,-1,1014,344,0,0
-203,680,0,0,0,0,0,0,0,0,0,-1,1021,344,0,0
-196,680,0,0,0,0,0,0,0,0,0,-1,1028,344,0,0
-189,680,0,0,0,0,0,0,0,0,0,-1,1035,344,0,0
-182,680,0,0,0,0,0,0,0,0,0,-1,1042,344,0,0
-175,680,0,0,0,0,0,0,0,0,0,-1,1049,344,0,0
-168,680,0,0,0,0,0,0,0,0,0,-1,1056,344,0,0
-161,680,0,0,0,0,0,0,0,0,0,-1,1063,344,0,0
-154,680,2.25244,-29.1442,0,0,0,0,0,0,0,-1,1070,344,2.25241,29.1442
-147,680,9.29614,-33.0369,0,0,0,0,0,0,0,-1,1077,344,9.29612,33.0369
-140,680,6.98022,-36.6899,0,0,0,0,0,0,0,-1,1084,344,6.98023,36.6899
-133,680,1.85693,-39.7233,0,0,0,0,0,0,0,-1,1091,344,1.85699,39.7233
-126,680,2.30017,-38.3751,0,0,0,0,0,0,0,-1,1098,344,2.30011,38.3751
-119,680,2.74329,-37.0269,0,0,0,0,0,0,0,-1,1105,344,2.74323,37.0269
-112,680,7.7467,-32.4407,0,0,0,0,0,0,0,-1,1112,344,7.74668,32.4407
-105,680,20.6371,-48.461,0,0,0,0,0,0,0,-1,1119,344,20.6371,48.461
-98,680,14.2684,-41.9997,0,0,0,0,0,0,0,-1,1126,344,14.2685,41.9997
-91,680,7.89648,-35.5147,0,0,0,0,0,0,0,-1,1133,344,7.8965,35.5147
-84,680,1.47168,-29.471,0,0,0,0,0,0,0,-1,1140,344,1.47163,29.471
-77,680,-4.95337,-23.3355,0,0,0,0,0,0,0,-1,1147,344,-4.9534,23.3356
-70,680,-11.5099,-17.4337,0,0,0,0,0,0,0,-1,1154,344,-11.5098,17.4338
-63,680,-17.2391,-1.43134,0,0,0,0,0,0,0,-1,1161,344,-17.2392,1.43133
-56,680,-6.96912,-8.83356,0,0,0,0,0,0,0,-1,1168,344,-6.96907,8.83354
-49,680,-6.7677,-2.24063,0,0,0,0,0,0,0,-1,1175,344,-6.76772,2.24063
-42,680,-1.02368,0.618805,0,0,0,0,0,0,0,-1,1182,344,-1.0237,-0.618797
-35,680,-0.947876,-0.942719,0,0,0,0,0,0,0,-1,1189,344,-0.947842,0.942731
-28,680,-1.46118,-1.10574,0,0,0,0,0,0,0,-1,1196,344,-1.4612,1.10575
-21,680,7.8468,-56.5697,0,0,0,0,0,0,0,-1,1203,344,7.84685,56.5697
-14,680,7.61523,-57.0019,-0.0105578,0.0788424,-0.0192653,0.0828173,-0.0145326,-1.36733,0.060639,0.0447493,1210,344,7.61529,57.0019
-7,680,7.40063,-57.3804,-0.0124802,0.0804306,-0.0184764,0.08397,-0.0160196,-1.38153,0.0620135,0.0477609,1217,344,7.40065,57.3804
0,680,7.32141,-57.7396,0,0,0,0,0,0,0,-1,1224,344,7.32138,57.7396
7,680,8.48413,-56.5798,-0.0163354,0.080062,-0.0169142,0.0829437,-0.0192171,-1.40205,0.0626911,0.0472933,1231,344,8.48417,56.5798
14,680,8.37378,-56.8761,-0.0185675,0.0768902,-0.0166698,0.0797175,-0.0213948,-1.40279,0.0615293,0.0448356,1238,344,8.37384,56.8761
21,680,8.03748,-57.2938,-0.0205784,0.0724232,-0.0153801,0.0749007,-0.0230559,-1.41109,0.0591367,0.0491739,1245,344,8.03743,57.2938
28,680,8.15918,-57.9711,0,0,0,0,0,0,0,-1,1252,344,8.15921,57.9711
35,680,7.0625,-58.0782,0,0,0,0,0,0,0,-1,1259,344,7.06244,58.0782
42,680,6.90845,-58.2591,-0.0261326,0.0669201,-0.0125878,0.0685928,-0.0278054,-1.43868,0.0572921,0.0450291,1266,344,6.90842,58.2591
49,680,7.06628,-58.5063,-0.0276504,0.0646832,-0.0121399,0.0662527,-0.0292199,-1.44223,0.0564864,0.0441241,1273,344,7.06628,58.5063
56,680,7.12366,-58.4203,-0.0281129,0.0641592,-0.012497,0.0658218,-0.0297755,-1.43853,0.0564858,0.0417241,1280,344,7.12371,58.4203
63,680,7.10095,-58.2959,-0.0281213,0.0628634,-0.0127293,0.0646107,-0.0298686,-1.43438,0.0557634,0.0402586,1287,344,7.10099,58.2959
70,680,7.0376,-58.2223,-0.028133,0.0627337,-0.0130195,0.0645623,-0.0299616,-1.43125,0.0557789,0.039144,1294,344,7.03758,58.2223
77,680,6.78796,-58.1381,-0.028991,0.0629456,-0.0135033,0.0648878,-0.0309333,-1.42794,0.0564682,0.0435428,1301,344,6.78794,58.1381
84,680,6.6377,-57.2827,-0.0301625,0.0622736,-0.0141027,0.0643773,-0.0322662,-1.42272,0.0568145,0.0450656,1308,344,6.63772,57.2827
91,680,6.40894,-57.5697,0,0,0,0,0,0,0,-1,1315,344,6.40896,57.5697
98,680,6.03455,-57.6448,0,0,0,0,0,0,0,-1,1322,344,6.03455,57.6448
105,680,5.40027,-57.759,-0.0321966,0.0601973,-0.0145612,0.0624378,-0.0344371,-1.41813,0.0567042,0.0431994,1329,344,5.40024,57.759
112,680,4.65393,-57.9822,-0.0321089,0.0599733,-0.0136761,0.0619616,-0.0340972,-1.42643,0.056232,0.0450948,1336,344,4.65393,57.9822
119,680,3.81067,-57.7203,0,0,0,0,0,0,0,-1,1343,344,3.81065,57.7203
126,680,3.27551,-57.4655,-0.033434,0.0593173,-0.0105282,0.0604974,-0.034614,-1.45918,0.0555862,0.0448023,1350,344,3.2755,57.4655
133,680,2.49902,-57.4459,-0.0344006,0.055783,-0.00801347,0.0564895,-0.0351071,-1.48286,0.0533615,0.0468734,1357,344,2.49903,57.4459
140,680,1.77356,-57.4202,0,0,0,0,0,0,0,-1,1364,344,1.77353,57.4202
147,680,5.33191,-55.9116,0,0,0,0,0,0,0,-1,1371,344,5.3319,55.9116
154,680,5.23438,-55.2824,0,0,0,0,0,0,0,-1,1378,344,5.23441,55.2824
161,680,5.56555,-51.1379,0,0,0,0,0,0,0,-1,1385,344,5.56556,51.1379
168,680,29.4142,-2.51651,0,0,0,0,0,0,0,-1,1392,344,29.4142,2.51652
175,680,6.66541,0.942078,0,0,0,0,0,0,0,-1,1399,344,6.66538,-0.942088
182,680,6.52917,0.532379,0,0,0,0,0,0,0,-1,1406,344,6.52922,-0.532385
189,680,7.55884,4.77695,0,0,0,0,0,0,0,-1,1413,344,7.55886,-4.77694
196,680,6.55627,3.35254,0,0,0,0,0,0,0,-1,1420,344,6.55622,-3.35255
203,680,5.7334,1.90753,0,0,0,0,0,0,0,-1,1427,344,5.73341,-1.90754
210,680,5.27515,0.493622,0,0,0,0,0,0,0,-1,1434,344,5.27514,-0.493632
217,680,6.56384,-0.374176,0,0,0,0,0,0,0,-1,1441,344,6.56379,0.374176
224,680,3.9491,-0.640228,0,0,0,0,0,0,0,-1,1448,344,3.94908,0.64024
231,680,4.24866,-1.96881,0,0,0,0,0,0,0,-1,1455,344,4.2486,1.96882
238,680,4.29333,-3.23984,0,0,0,0,0,0,0,-1,1462,344,4.29332,3.23984
245,680,2.44397,0.985382,0,0,0,0,0,0,0,-1,1469,344,2.44402,-0.985394
252,680,3.07349,2.18951,0,0,0,0,0,0,0,-1,1476,344,3.0735,-2.18952
259,680,2.82971,1.30682,0,0,0,0,0,0,0,-1,1483,344,2.82972,-1.30684
266,680,2.67554,1.44067,0,0,0,0,0,0,0,-1,1490,344,2.67551,-1.44066
273,680,2.46411,1.54666,0,0,0,0,0,0,0,-1,1497,344,2.46407,-1.54666
280,680,0,0,0,0,0,0,0,0,0,-1,1504,344,0,0
287,680,0,0,0,0,0,0,0,0,0,-1,1511,344,0,0
294,680,0,0,0,0,0,0,0,0,0,-1,1518,344,0,0
301,680,0,0,0,0,0,0,0,0,0,-1,1525,344,0,0
308,680,0,0,0,0,0,0,0,0,0,-1,1532,344,0,0
315,680,0,0,0,0,0,0,0,0,0,-1,1539,344,0,0
322,680,0,0,0,0,0,0,0,0,0,-1,1546,344,0,0
329,680,0,0,0,0,0,0,0,0,0,-1,1553,344,0,0
336,680,0,0,0,0,0,0,0,0,0,-1,1560,344,0,0
343,680,0,0,0,0,0,0,0,0,0,-1,1567,344,0,0
350,680,0,0,0,0,0,0,0,0,0,-1,1574,344,0,0
357,680,0,0,0,0,0,0,0,0,0,-1,1581,344,0,0
364,680,0,0,0,0,0,0,0,0,0,-1,1588,344,0,0
371,680,0,0,0,0,0,0,0,0,0,-1,1595,344,0,0
378,680,0,0,0,0,0,0,0,0,0,-1,1602,344,0,0
385,680,0,0,0,0,0,0,0,0,0,-1,1609,344,0,0
392,680,0,0,0,0,0,0,0,0,0,-1,1616,344,0,0
399,680,0,0,0,0,0,0,0,0,0,-1,1623,344,0,0
406,680,0,0,0,0,0,0,0,0,0,-1,1630,344,0,0
413,680,0,0,0,0,0,0,0,0,0,-1,1637,344,0,0
420,680,0,0,0,0,0,0,0,0,0,-1,1644,344,0,0
427,680,0,0,0,0,0,0,0,0,0,-1,1651,344,0,0
434,680,0,0,0,0,0,0,0,0,0,-1,1658,344,0,0
441,680,0,0,0,0,0,0,0,0,0,-1,1665,344,0,0
448,680,0,0,0,0,0,0,0,0,0,-1,1672,344,0,0
455,680,0,0,0,0,0,0,0,0,0,-1,1679,344,0,0
462,680,0,0,0,0,0,0,0,0,0,-1,1686,344,0,0
469,680,0,0,0,0,0,0,0,0,0,-1,1693,344,0,0
476,680,0,0,0,0,0,0,0,0,0,-1,1700,344,0,0
483,680,0,0,0,0,0,0,0,0,0,-1,1707,344,0,0
490,680,0,0,0,0,0,0,0,0,0,-1,1714,344,0,0
497,680,0,0,0,0,0,0,0,0,0,-1,1721,344,0,0
504,680,0,0,0,0,0,0,0,0,0,-1,1728,344,0,0
511,680,0,0,0,0,0,0,0,0,0,-1,1735,344,0,0
518,680,0,0,0,0,0,0,0,0,0,-1,1742,344,0,0
525,680,0,0,0,0,0,0,0,0,0,-1,1749,344,0,0
532,680,0,0,0,0,0,0,0,0,0,-1,1756,344,0,0
539,680,0,0,0,0,0,0,0,0,0,-1,1763,344,0,0
546,680,0,0,0,0,0,0,0,0,0,-1,1770,344,0,0
553,680,0,0,0,0,0,0,0,0,0,-1,1777,344,0,0
560,680,0,0,0,0,0,0,0,0,0,-1,1784,344,0,0
567,680,0,0,0,0,0,0,0,0,0,-1,1791,344,0,0
574,680,0,0,0,0,0,0,0,0,0,-1,1798,344,0,0
581,680,0,0,0,0,0,0,0,0,0,-1,1805,344,0,0
588,680,0,0,0,0,0,0,0,0,0,-1,1812,344,0,0
595,680,0,0,0,0,0,0,0,0,0,-1,1819,344,0,0
602,680,0,0,0,0,0,0,0,0,0,-1,1826,344,0,0
609,680,0,0,0,0,0,0,0,0,0,-1,1833,344,0,0
616,680,0,0,0,0,0,0,0,0,0,-1,1840,344,0,0
623,680,0,0,0,0,0,0,0,0,0,-1,1847,344,0,0
630,680,0,0,0,0,0,0,0,0,0,-1,1854,344,0,0
637,680,0,0,0,0,0,0,0,0,0,-1,1861,344,0,0
644,680,0,0,0,0,0,0,0,0,0,-1,1868,344,0,0
651,680,0,0,0,0,0,0,0,0,0,-1,1875,344,0,0
658,680,0,0,0,0,0,0,0,0,0,-1,1882,344,0,0
665,680,0,0,0,0,0,0,0,0,0,-1,1889,344,0,0
672,680,0,0,0,0,0,0,0,0,0,-1,1896,344,0,0
679,680,0,0,0,0,0,0,0,0,0,-1,1903,344,0,0
686,680,0,0,0,0,0,0,0,0,0,-1,1910,344,0,0
693,680,0,0,0,0,0,0,0,0,0,-1,1917,344,0,0
700,680,0,0,0,0,0,0,0,0,0,-1,1924,344,0,0
707,680,0,0,0,0,0,0,0,0,0,-1,1931,344,0,0
714,680,0,0,0,0,0,0,0,0,0,-1,1938,344,0,0
721,680,0,0,0,0,0,0,0,0,0,-1,1945,344,0,0
728,680,0,0,0,0,0,0,0,0,0,-1,1952,344,0,0
735,680,0,0,0,0,0,0,0,0,0,-1,1959,344,0,0
742,680,0,0,0,0,0,0,0,0,0,-1,1966,344,0,0
749,680,0,0,0,0,0,0,0,0,0,-1,1973,344,0,0
756,680,0,0,0,0,0,0,0,0,0,-1,1980,344,0,0
763,680,0,0,0,0,0,0,0,0,0,-1,1987,344,0,0
770,680,0,0,0,0,0,0,0,0,0,-1,1994,344,0,0
777,680,0,0,0,0,0,0,0,0,0,-1,2001,344,0,0
784,680,0,0,0,0,0,0,0,0,0,-1,2008,344,0,0
791,680,0,0,0,0,0,0,0,0,0,-1,2015,344,0,0
798,680,0,0,0,0,0,0,0,0,0,-1,2022,344,0,0
805,680,0,0,0,0,0,0,0,0,0,-1,2029,344,0,0
812,680,0,0,0,0,0,0,0,0,0,-1,2036,344,0,0
-700,673,0,0,0,0,0,0,0,0,0,-1,524,351,0,0
-693,673,0,0,0,0,0,0,0,0,0,-1,531,351,0,0
-686,673,0,0,0,0,0,0,0,0,0,-1,538,351,0,0
-679,673,0,0,0,0,0,0,0,0,0,-1,545,351,0,0
-672,673,0,0,0,0,0,0,0,0,0,-1,552,351,0,0
-665,673,0,0,0,0,0,0,0,0,0,-1,559,351,0,0
-658,673,0,0,0,0,0,0,0,0,0,-1,566,351,0,0
-651,673,0,0,0,0,0,0,0,0,0,-1,573,351,0,0
-644,673,0,0,0,0,0,0,0,0,0,-1,580,351,0,0
-637,673,0,0,0,0,0,0,0,0,0,-1,587,351,0,0
-630,673,0,0,0,0,0,0,0,0,0,-1,594,351,0,0
-623,673,0,0,0,0,0,0,0,0,0,-1,601,351,0,0
-616,673,0,0,0,0,0,0,0,0,0,-1,608,351,0,0
-609,673,0,0,0,0,0,0,0,0,0,-1,615,351,0,0
-602,673,0,0,0,0,0,0,0,0,0,-1,622,351,0,0
-595,673,0,0,0,0,0,0,0,0,0,-1,629,351,0,0
-588,673,0,0,0,0,0,0,0,0,0,-1,636,351,0,0
-581,673,0,0,0,0,0,0,0,0,0,-1,643,351,0,0
-574,673,0,0,0,0,0,0,0,0,0,-1,650,351,0,0
-567,673,0,0,0,0,0,0,0,0,0,-1,657,351,0,0
-560,673,0,0,0,0,0,0,0,0,0,-1,664,351,0,0
-553,673,0,0,0,0,0,0,0,0,0,-1,671,351,0,0
-546,673,0,0,0,0,0,0,0,0,0,-1,678,351,0,0
-539,673,0,0,0,0,0,0,0,0,0,-1,685,351,0,0
-532,673,0,0,0,0,0,0,0,0,0,-1,692,351,0,0
-525,673,0,0,0,0,0,0,0,0,0,-1,699,351,0,0
-518,673,0,0,0,0,0,0,0,0,0,-1,706,351,0,0
-511,673,0,0,0,0,0,0,0,0,0,-1,713,351,0,0
-504,673,0,0,0,0,0,0,0,0,0,-1,720,351,0,0
-497,673,0,0,0,0,0,0,0,0,0,-1,727,351,0,0
-490,673,0,0,0,0,0,0,0,0,0,-1,734,351,0,0
-483,673,0,0,0,0,0,0,0,0,0,-1,741,351,0,0
-476,673,0,0,0,0,0,0,0,0,0,-1,748,351,0,0
-469,673,0,0,0,0,0,0,0,0,0,-1,755,351,0,0
-462,673,0,0,0,0,0,0,0,0,0,-1,762,351,0,0
-455,673,0,0,0,0,0,0,0,0,0,-1,769,351,0,0
-448,673,0,0,0,0,0,0,0,0,0,-1,776,351,0,0
-441,673,0,0,0,0,0,0,0,0,0,-1,783,351,0,0
-434,673,0,0,0,0,0,0,0,0,0,-1,790,351,0,0
-427,673,0,0,0,0,0,0,0,0,0,-1,797,351,0,0
-420,673,0,0,0,0,0,0,0,0,0,-1,804,351,0,0
-413,673,0,0,0,0,0,0,0,0,0,-1,811,351,0,0
-406,673,0,0,0,0,0,0,0,0,0,-1,818,351,0,0
-399,673,0,0,0,0,0,0,0,0,0,-1,825,351,0,0
-392,673,0,0,0,0,0,0,0,0,0,-1,832,351,0,0
-385,673,0,0,0,0,0,0,0,0,0,-1,839,351,0,0
-378,673,0,0,0,0,0,0,0,0,0,-1,846,351,0,0
-371,673,0,0,0,0,0,0,0,0,0,-1,853,351,0,0
-364,673,0,0,0,0,0,0,0,0,0,-1,860,351,0,0
-357,673,0,0,0,0,0,0,0,0,0,-1,867,351,0,0
-350,673,0,0,0,0,0,0,0,0,0,-1,874,351,0,0
-343,673,0,0,0,0,0,0,0,0,0,-1,881,351,0,0
-336,673,0,0,0,0,0,0,0,0,0,-1,888,351,0,0
-329,673,0,0,0,0,0,0,0,0,0,-1,895,351,0,0
-322,673,0,0,0,0,0,0,0,0,0,-1,902,351,0,0
-315,673,0,0,0,0,0,0,0,0,0,-1,909,351,0,0
-308,673,0,0,0,0,0,0,0,0,0,-1,916,351,0,0
-301,673,0,0,0,0,0,0,0,0,0,-1,923,351,0,0
-294,673,0,0,0,0,0,0,0,0,0,-1,930,351,0,0
-287,673,0,0,0,0,0,0,0,0,0,-1,937,351,0,0
-280,673,0,0,0,0,0,0,0,0,0,-1,944,351,0,0
-273,673,0,0,0,0,0,0,0,0,0,-1,951,351,0,0
-266,673,0,0,0,0,0,0,0,0,0,-1,958,351,0,0
-259,673,0,0,0,0,0,0,0,0,0,-1,965,351,0,0
-252,673,0,0,0,0,0,0,0,0,0,-1,972,351,0,0
-245,673,0,0,0,0,0,0,0,0,0,-1,979,351,0,0
-238,673,0,0,0,0,0,0,0,0,0,-1,986,351,0,0
-231,673,0,0,0,0,0,0,0,0,0,-1,993,351,0,0
-224,673,0,0,0,0,0,0,0,0,0,-1,1000,351,0,0
-217,673,0,0,0,0,0,0,0,0,0,-1,1007,351,0,0
-210,673,0,0,0,0,0,0,0,0,0,-1,1014,351,0,0
-203,673,0,0,0,0,0,0,0,0,0,-1,1021,351,0,0
-196,673,0,0,0,0,0,0,0,0,0,-1,1028,351,0,0
-189,673,0,0,0,0,0,0,0,0,0,-1,1035,351,0,0
-182,673,0,0,0,0,0,0,0,0,0,-1,1042,351,0,0
-175,673,7.10449,-31.8279,0,0,0,0,0,0,0,-1,1049,351,7.10448,31.8279
-168,673,7.33081,-32.7122,0,0,0,0,0,0,0,-1,1056,351,7.33085,32.7122
-161,673,7.8938,-33.5352,0,0,0,0,0,0,0,-1,1063,351,7.89385,33.5352
-154,673,8.80566,-35.3518,0,0,0,0,0,0,0,-1,1070,351,8.80563,35.3518
-147,673,2.89221,-37.7351,0,0,0,0,0,0,0,-1,1077,351,2.89224,37.7351
-140,673,3.35046,-37.7151,0,0,0,0,0,0,0,-1,1084,351,3.35046,37.715
-133,673,3.35339,-39.0288,0,0,0,0,0,0,0,-1,1091,351,3.35342,39.0288
-126,673,3.7533,-38.0453,0,0,0,0,0,0,0,-1,1098,351,3.7533,38.0453
-119,673,4.1532,-37.0618,0,0,0,0,0,0,0,-1,1105,351,4.15318,37.0618
-112,673,7.27234,-32.5801,0,0,0,0,0,0,0,-1,1112,351,7.27231,32.5801
-105,673,21.1144,-43.3143,0,0,0,0,0,0,0,-1,1119,351,21.1143,43.3143
-98,673,14.8014,-36.7519,0,0,0,0,0,0,0,-1,1126,351,14.8014,36.7519
-91,673,8.54944,-29.9639,0,0,0,0,0,0,0,-1,1133,351,8.54949,29.9639
-84,673,2.17102,-24.3204,0,0,0,0,0,0,0,-1,1140,351,2.17107,24.3204
-77,673,-4.25378,-18.8346,0,0,0,0,0,0,0,-1,1147,351,-4.25381,18.8346
-70,673,-10.7933,-13.6681,0,0,0,0,0,0,0,-1,1154,351,-10.7934,13.6681
-63,673,-17.3896,-8.24469,0,0,0,0,0,0,0,-1,1161,351,-17.3896,8.2447
-56,673,-18.0282,2.79053,0,0,0,0,0,0,0,-1,1168,351,-18.0283,-2.79052
-49,673,-0.926758,-0.115448,0,0,0,0,0,0,0,-1,1175,351,-0.926732,0.115444
-42,673,-1.15015,0.289917,0,0,0,0,0,0,0,-1,1182,351,-1.15017,-0.289932
-35,673,-0.919556,-1.00711,0,0,0,0,0,0,0,-1,1189,351,-0.919514,1.00711
-28,673,5.28918,-39.2331,0,0,0,0,0,0,0,-1,1196,351,5.28924,39.2331
-21,673,8.28589,-57.1551,0,0,0,0,0,0,0,-1,1203,351,8.28592,57.1551
-14,673,7.83386,-57.3768,-0.0103959,0.0638952,-0.0153012,0.0669232,-0.013424,-1.37542,0.0496982,0.0428678,1210,351,7.83392,57.3768
-7,673,7.646,-57.8849,-0.011451,0.0651488,-0.0147421,0.067888,-0.0141902,-1.38708,0.0506557,0.0443891,1217,351,7.64595,57.8849
0,673,7.94312,-57.9764,0,0,0,0,0,0,0,-1,1224,351,7.94313,57.9764
7,673,7.77112,-58.0376,0,0,0,0,0,0,0,-1,1231,351,7.77106,58.0376
14,673,8.00159,-57.7794,-0.0149988,0.0630543,-0.0129718,0.0651536,-0.0170982,-1.41035,0.050117,0.0493622,1238,351,8.00161,57.7794
21,673,7.77368,-58.3255,-0.0162197,0.0599511,-0.0117855,0.061733,-0.0180015,-1.42074,0.0482876,0.0370813,1245,351,7.77365,58.3255
28,673,7.77295,-58.4756,-0.0171638,0.0593666,-0.0103874,0.0607514,-0.0185487,-1.43826,0.0478964,0.0365562,1252,351,7.77298,58.4756
35,673,7.50745,-58.4797,0,0,0,0,0,0,0,-1,1259,351,7.5074,58.4797
42,673,7.37,-58.6093,-0.0197095,0.0564876,-0.00890094,0.0575135,-0.0207355,-1.45604,0.0468109,0.0408663,1266,351,7.36995,58.6094
49,673,7.23584,-58.7741,-0.0207895,0.0549068,-0.00829611,0.0558053,-0.0216881,-1.46291,0.0461636,0.0251713,1273,351,7.23585,58.7741
56,673,7.20935,-58.7802,-0.0212528,0.0546137,-0.00847969,0.05555,-0.0221891,-1.46083,0.0462397,0.0185611,1280,351,7.20939,58.7802
63,673,7.21338,-58.5427,-0.0214521,0.0535885,-0.00853817,0.0545477,-0.0224113,-1.45892,0.0457054,0.0228025,1287,351,7.21337,58.5427
70,673,7.04675,-58.5429,0,0,0,0,0,0,0,-1,1294,351,7.04679,58.5429
77,673,7.18604,-57.8929,0,0,0,0,0,0,0,-1,1301,351,7.18602,57.8929
84,673,6.86047,-58.1508,0,0,0,0,0,0,0,-1,1308,351,6.86047,58.1508
91,673,6.9115,-58.9331,0,0,0,0,0,0,0,-1,1315,351,6.91153,58.9331
98,673,6.61475,-58.8182,0,0,0,0,0,0,0,-1,1322,351,6.61475,58.8182
105,673,6.32629,-58.5794,0,0,0,0,0,0,0,-1,1329,351,6.32629,58.5794
112,673,4.77502,-58.382,0,0,0,0,0,0,0,-1,1336,351,4.77499,58.3819
119,673,3.89026,-57.9446,0,0,0,0,0,0,0,-1,1343,351,3.89032,57.9446
126,673,3.17053,-57.7598,0,0,0,0,0,0,0,-1,1350,351,3.17051,57.7598
133,673,2.34363,-57.7735,0,0,0,0,0,0,0,-1,1357,351,2.34366,57.7735
140,673,5.70349,-57.1399,0,0,0,0,0,0,0,-1,1364,351,5.70344,57.1399
147,673,5.61511,-56.7164,-0.0275961,0.0474107,0.00269589,0.0475075,-0.0276929,1.53492,0.0439165,0.0456661,1371,351,5.61509,56.7164
154,673,5.52832,-56.1264,-0.0270606,0.0496025,0.0061145,0.0500871,-0.0275452,1.4917,0.0454465,0.0420024,1378,351,5.52833,56.1264
161,673,5.46179,-55.5553,0,0,0,0,0,0,0,-1,1385,351,5.46184,55.5553
168,673,6.87061,1.83954,0,0,0,0,0,0,0,-1,1392,351,6.87063,-1.83953
175,673,6.6228,1.1459,0,0,0,0,0,0,0,-1,1399,351,6.62276,-1.14591
182,673,6.37244,0.796112,0,0,0,0,0,0,0,-1,1406,351,6.3724,-0.796102
189,673,6.12097,0.265472,0,0,0,0,0,0,0,-1,1413,351,6.121,-0.265482
196,673,6.02173,3.12717,0,0,0,0,0,0,0,-1,1420,351,6.02176,-3.12717
203,673,5.04456,1.6351,0,0,0,0,0,0,0,-1,1427,351,5.04455,-1.63509
210,673,4.79224,0.447479,0,0,0,0,0,0,0,-1,1434,351,4.79229,-0.447469
217,673,2.01648,0.972687,0,0,0,0,0,0,0,-1,1441,351,2.01644,-0.972691
224,673,2.3689,-1.80539,0,0,0,0,0,0,0,-1,1448,351,2.36896,1.80539
231,673,2.65857,-2.18497,0,0,0,0,0,0,0,-1,1455,351,2.65852,2.18496
238,673,3.77844,-2.06088,0,0,0,0,0,0,0,-1,1462,351,3.77839,2.06088
245,673,3.5376,-0.190399,0,0,0,0,0,0,0,-1,1469,351,3.53759,0.1904
252,673,3.80518,0.55603,0,0,0,0,0,0,0,-1,1476,351,3.80519,-0.556022
259,673,3.88562,1.29617,0,0,0,0,0,0,0,-1,1483,351,3.88562,-1.29618
266,673,4.22424,2.04834,0,0,0,0,0,0,0,-1,1490,351,4.22429,-2.04834
273,673,6.07886,0.385895,0,0,0,0,0,0,0,-1,1497,351,6.0789,-0.385906
280,673,6.97534,-0.0820007,0,0,0,0,0,0,0,-1,1504,351,6.97536,0.0820122
287,673,7.66968,-0.348541,0,0,0,0,0,0,0,-1,1511,351,7.66969,0.348534
294,673,8.20996,0.28537,0,0,0,0,0,0,0,-1,1518,351,8.20993,-0.28536
301,673,0,0,0,0,0,0,0,0,0,-1,1525,351,0,0
308,673,0,0,0,0,0,0,0,0,0,-1,1532,351,0,0
315,673,0,0,0,0,0,0,0,0,0,-1,1539,351,0,0
322,673,0,0,0,0,0,0,0,0,0,-1,1546,351,0,0
329,673,0,0,0,0,0,0,0,0,0,-1,1553,351,0,0
336,673,0,0,0,0,0,0,0,0,0,-1,1560,351,0,0
343,673,0,0,0,0,0,0,0,0,0,-1,1567,351,0,0
350,673,0,0,0,0,0,0,0,0,0,-1,1574,351,0,0
357,673,0,0,0,0,0,0,0,0,0,-1,1581,351,0,0
364,673,0,0,0,0,0,0,0,0,0,-1,1588,351,0,0
371,673,0,0,0,0,0,0,0,0,0,-1,1595,351,0,0
378,673,0,0,0,0,0,0,0,0,0,-1,1602,351,0,0
385,673,0,0,0,0,0,0,0,0,0,-1,1609,351,0,0
392,673,0,0,0,0,0,0,0,0,0,-1,1616,351,0,0
399,673,0,0,0,0,0,0,0,0,0,-1,1623,351,0,0
406,673,0,0,0,0,0,0,0,0,0,-1,1630,351,0,0
413,673,0,0,0,0,0,0,0,0,0,-1,1637,351,0,0
420,673,0,0,0,0,0,0,0,0,0,-1,1644,351,0,0
427,673,0,0,0,0,0,0,0,0,0,-1,1651,351,0,0
434,673,0,0,0,0,0,0,0,0,0,-1,1658,351,0,0
441,673,0,0,0,0,0,0,0,0,0,-1,1665,351,0,0
448,673,0,0,0,0,0,0,0,0,0,-1,1672,351,0,0
455,673,0,0,0,0,0,0,0,0,0,-1,1679,351,0,0
462,673,0,0,0,0,0,0,0,0,0,-1,1686,351,0,0
469,673,0,0,0,0,0,0,0,0,0,-1,1693,351,0,0
476,673,0,0,0,0,0,0,0,0,0,-1,1700,351,0,0
483,673,0,0,0,0,0,0,0,0,0,-1,1707,351,0,0
490,673,0,0,0,0,0,0,0,0,0,-1,1714,351,0,0
497,673,0,0,0,0,0,0,0,0,0,-1,1721,351,0,0
504,673,0,0,0,0,0,0,0,0,0,-1,1728,351,0,0
511,673,0,0,0,0,0,0,0,0,0,-1,1735,351,0,0
518,673,0,0,0,0,0,0,0,0,0,-1,1742,351,0,0
525,673,0,0,0,0,0,0,0,0,0,-1,1749,351,0,0
532,673,0,0,0,0,0,0,0,0,0,-1,1756,351,0,0
539,673,0,0,0,0,0,0,0,0,0,-1,1763,351,0,0
546,673,0,0,0,0,0,0,0,0,0,-1,1770,351,0,0
553,673,0,0,0,0,0,0,0,0,0,-1,1777,351,0,0
560,673,0,0,0,0,0,0,0,0,0,-1,1784,351,0,0
567,673,0,0,0,0,0,0,0,0,0,-1,1791,351,0,0
574,673,0,0,0,0,0,0,0,0,0,-1,1798,351,0,0
581,673,0,0,0,0,0,0,0,0,0,-1,1805,351,0,0
588,673,0,0,0,0,0,0,0,0,0,-1,1812,351,0,0
595,673,0,0,0,0,0,0,0,0,0,-1,1819,351,0,0
602,673,0,0,0,0,0,0,0,0,0,-1,1826,351,0,0
609,673,0,0,0,0,0,0,0,0,0,-1,1833,351,0,0
616,673,0,0,0,0,0,0,0,0,0,-1,1840,351,0,0
623,673,0,0,0,0,0,0,0,0,0,-1,1847,351,0,0
630,673,0,0,0,0,0,0,0,0,0,-1,1854,351,0,0
637,673,0,0,0,0,0,0,0,0,0,-1,1861,351,0,0
644,673,0,0,0,0,0,0,0,0,0,-1,1868,351,0,0
651,673,0,0,0,0,0,0,0,0,0,-1,1875,351,0,0
658,673,0,0,0,0,0,0,0,0,0,-1,1882,351,0,0
665,673,0,0,0,0,0,0,0,0,0,-1,1889,351,0,0
672,673,0,0,0,0,0,0,0,0,0,-1,1896,351,0,0
679,673,0,0,0,0,0,0,0,0,0,-1,1903,351,0,0
686,673,0,0,0,0,0,0,0,0,0,-1,1910,351,0,0
693,673,0,0,0,0,0,0,0,0,0,-1,1917,351,0,0
700,673,0,0,0,0,0,0,0,0,0,-1,1924,351,0,0
707,673,0,0,0,0,0,0,0,0,0,-1,1931,351,0,0
714,673,0,0,0,0,0,0,0,0,0,-1,1938,351,0,0
721,673,0,0,0,0,0,0,0,0,0,-1,1945,351,0,0
728,673,0,0,0,0,0,0,0,0,0,-1,1952,351,0,0
735,673,0,0,0,0,0,0,0,0,0,-1,1959,351,0,0
742,673,0,0,0,0,0,0,0,0,0,-1,1966,351,0,0
749,673,0,0,0,0,0,0,0,0,0,-1,1973,351,0,0
756,673,0,0,0,0,0,0,0,0,0,-1,1980,351,0,0
763,673,0,0,0,0,0,0,0,0,0,-1,1987,351,0,0
770,673,0,0,0,0,0,0,0,0,0,-1,1994,351,0,0
777,673,0,0,0,0,0,0,0,0,0,-1,2001,351,0,0
784,673,0,0,0,0,0,0,0,0,0,-1,2008,351,0,0
791,673,0,0,0,0,0,0,0,0,0,-1,2015,351,0,0
798,673,0,0,0,0,0,0,0,0,0,-1,2022,351,0,0
805,673,0,0,0,0,0,0,0,0,0,-1,2029,351,0,0
812,673,0,0,0,0,0,0,0,0,0,-1,2036,351,0,0
-700,666,0,0,0,0,0,0,0,0,0,-1,524,358,0,0
-693,666,0,0,0,0,0,0,0,0,0,-1,531,358,0,0
-686,666,0,0,0,0,0,0,0,0,0,-1,538,358,0,0
-679,666,0,0,0,0,0,0,0,0,0,-1,545,358,0,0
-672,666,0,0,0,0,0,0,0,0,0,-1,552,358,0,0
-665,666,0,0,0,0,0,0,0,0,0,-1,559,358,0,0
-658,666,0,0,0,0,0,0,0,0,0,-1,566,358,0,0
-651,666,0,0,0,0,0,0,0,0,0,-1,573,358,0,0
-644,666,0,0,0,0,0,0,0,0,0,-1,580,358,0,0
-637,666,0,0,0,0,0,0,0,0,0,-1,587,358,0,0
-630,666,0,0,0,0,0,0,0,0,0,-1,594,358,0,0
-623,666,0,0,0,0,0,0,0,0,0,-1,601,358,0,0
-616,666,0,0,0,0,0,0,0,0,0,-1,608,358,0,0
-609,666,0,0,0,0,0,0,0,0,0,-1,615,358,0,0
-602,666,0,0,0,0,0,0,0,0,0,-1,622,358,0,0
-595,666,0,0,0,0,0,0,0,0,0,-1,629,358,0,0
-588,666,0,0,0,0,0,0,0,0,0,-1,636,358,0,0
-581,666,0,0,0,0,0,0,0,0,0,-1,643,358,0,0
-574,666,0,0,0,0,0,0,0,0,0,-1,650,358,0,0
-567,666,0,0,0,0,0,0,0,0,0,-1,657,358,0,0
-560,666,0,0,0,0,0,0,0,0,0,-1,664,358,0,0
-553,666,0,0,0,0,0,0,0,0,0,-1,671,358,0,0
-546,666,0,0,0,0,0,0,0,0,0,-1,678,358,0,0
-539,666,0,0,0,0,0,0,0,0,0,-1,685,358,0,0
-532,666,0,0,0,0,0,0,0,0,0,-1,692,358,0,0
-525,666,0,0,0,0,0,0,0,0,0,-1,699,358,0,0
-518,666,0,0,0,0,0,0,0,0,0,-1,706,358,0,0
-511,666,0,0,0,0,0,0,0,0,0,-1,713,358,0,0
-504,666,0,0,0,0,0,0,0,0,0,-1,720,358,0,0
-497,666,0,0,0,0,0,0,0,0,0,-1,727,358,0,0
-490,666,0,0,0,0,0,0,0,0,0,-1,734,358,0,0
-483,666,0,0,0,0,0,0,0,0,0,-1,741,358,0,0
-476,666,0,0,0,0,0,0,0,0,0,-1,748,358,0,0
-469,666,0,0,0,0,0,0,0,0,0,-1,755,358,0,0
-462,666,0,0,0,0,0,0,0,0,0,-1,762,358,0,0
-455,666,0,0,0,0,0,0,0,0,0,-1,769,358,0,0
-448,666,0,0,0,0,0,0,0,0,0,-1,776,358,0,0
-441,666,0,0,0,0,0,0,0,0,0,-1,783,358,0,0
-434,666,0,0,0,0,0,0,0,0,0,-1,790,358,0,0
-427,666,0,0,0,0,0,0,0,0,0,-1,797,358,0,0
-420,666,0,0,0,0,0,0,0,0,0,-1,804,358,0,0
-413,666,0,0,0,0,0,0,0,0,0,-1,811,358,0,0
-406,666,0,0,0,0,0,0,0,0,0,-1,818,358,0,0
-399,666,0,0,0,0,0,0,0,0,0,-1,825,358,0,0
-392,666,0,0,0,0,0,0,0,0,0,-1,832,358,0,0
-385,666,0,0,0,0,0,0,0,0,0,-1,839,358,0,0
-378,666,0,0,0,0,0,0,0,0,0,-1,846,358,0,0
-371,666,0,0,0,0,0,0,0,0,0,-1,853,358,0,0
-364,666,0,0,0,0,0,0,0,0,0,-1,860,358,0,0
-357,666,0,0,0,0,0,0,0,0,0,-1,867,358,0,0
-350,666,0,0,0,0,0,0,0,0,0,-1,874,358,0,0
-343,666,0,0,0,0,0,0,0,0,0,-1,881,358,0,0
-336,666,0,0,0,0,0,0,0,0,0,-1,888,358,0,0
-329,666,0,0,0,0,0,0,0,0,0,-1,895,358,0,0
-322,666,0,0,0,0,0,0,0,0,0,-1,902,358,0,0
-315,666,0,0,0,0,0,0,0,0,0,-1,909,358,0,0
-308,666,0,0,0,0,0,0,0,0,0,-1,916,358,0,0
-301,666,0,0,0,0,0,0,0,0,0,-1,923,358,0,0
-294,666,0,0,0,0,0,0,0,0,0,-1,930,358,0,0
-287,666,0,0,0,0,0,0,0,0,0,-1,937,358,0,0
-280,666,0,0,0,0,0,0,0,0,0,-1,944,358,0,0
-273,666,0,0,0,0,0,0,0,0,0,-1,951,358,0,0
-266,666,0,0,0,0,0,0,0,0,0,-1,958,358,0,0
-259,666,0,0,0,0,0,0,0,0,0,-1,965,358,0,0
-252,666,0,0,0,0,0,0,0,0,0,-1,972,358,0,0
-245,666,0,0,0,0,0,0,0,0,0,-1,979,358,0,0
-238,666,0,0,0,0,0,0,0,0,0,-1,986,358,0,0
-231,666,0,0,0,0,0,0,0,0,0,-1,993,358,0,0
-224,666,0,0,0,0,0,0,0,0,0,-1,1000,358,0,0
-217,666,0,0,0,0,0,0,0,0,0,-1,1007,358,0,0
-210,666,0,0,0,0,0,0,0,0,0,-1,1014,358,0,0
-203,666,0,0,0,0,0,0,0,0,0,-1,1021,358,0,0
-196,666,4.03418,-28.8724,0,0,0,0,0,0,0,-1,1028,358,4.03422,28.8724
-189,666,5.00366,-29.597,0,0,0,0,0,0,0,-1,1035,358,5.00363,29.597
-182,666,6.83252,-30.9843,0,0,0,0,0,0,0,-1,1042,358,6.83247,30.9844
-175,666,7.01611,-31.8763,0,0,0,0,0,0,0,-1,1049,358,7.01617,31.8762
-168,666,7.21545,-32.7414,0,0,0,0,0,0,0,-1,1056,358,7.2154,32.7414
-161,666,7.69116,-33.6269,0,0,0,0,0,0,0,-1,1063,358,7.69121,33.6269
-154,666,3.79041,-37.9204,0,0,0,0,0,0,0,-1,1070,358,3.79034,37.9204
-147,666,4.17908,-37.7466,0,0,0,0,0,0,0,-1,1077,358,4.17912,37.7466
-140,666,4.54309,-37.735,0,0,0,0,0,0,0,-1,1084,358,4.54304,37.735
-133,666,4.65723,-39.0643,0,0,0,0,0,0,0,-1,1091,358,4.65727,39.0643
-126,666,5.02368,-38.0699,0,0,0,0,0,0,0,-1,1098,358,5.02363,38.0698
-119,666,5.39001,-37.0754,0,0,0,0,0,0,0,-1,1105,358,5.38999,37.0754
-112,666,6.77014,-32.8165,0,0,0,0,0,0,0,-1,1112,358,6.77013,32.8165
-105,666,6.30908,-29.0855,0,0,0,0,0,0,0,-1,1119,358,6.30905,29.0855
-98,666,15.4427,-31.5168,0,0,0,0,0,0,0,-1,1126,358,15.4428,31.5168
-91,666,9.5127,-25.1347,0,0,0,0,0,0,0,-1,1133,358,9.51269,25.1347
-84,666,2.91589,-19.4071,0,0,0,0,0,0,0,-1,1140,358,2.91592,19.4071
-77,666,-3.48083,-14.0782,0,0,0,0,0,0,0,-1,1147,358,-3.48081,14.0782
-70,666,-9.99438,-8.90146,0,0,0,0,0,0,0,-1,1154,358,-9.99433,8.90146
-63,666,-11.7778,-0.975189,0,0,0,0,0,0,0,-1,1161,358,-11.7778,0.97519
-56,666,0.424683,-2.04132,0,0,0,0,0,0,0,-1,1168,358,0.424665,2.04132
-49,666,0.754395,-2.23169,0,0,0,0,0,0,0,-1,1175,358,0.754383,2.23169
-42,666,1.34473,-3.53897,0,0,0,0,0,0,0,-1,1182,358,1.34476,3.53896
-35,666,8.09326,-57.2953,0,0,0,0,0,0,0,-1,1189,358,8.09326,57.2953
-28,666,8.22217,-57.1844,0,0,0,0,0,0,0,-1,1196,358,8.2222,57.1844
-21,666,8.07825,-57.5255,-0.00892173,0.0484586,-0.0121067,0.0509084,-0.0113715,-1.37114,0.0382964,0.0435247,1203,358,8.0782,57.5255
-14,666,7.91174,-57.7701,-0.00953665,0.0500685,-0.0117283,0.0522932,-0.0117614,-1.38334,0.0393726,0.0388452,1210,358,7.91177,57.77
-7,666,7.85571,-58.0209,-0.0100133,0.0511601,-0.0113634,0.0532027,-0.0120559,-1.39294,0.0400959,0.0232807,1217,358,7.85568,58.0209
0,666,7.82922,-58.2924,-0.010357,0.0518913,-0.0107816,0.0537058,-0.0121715,-1.40406,0.0404757,0.0159776,1224,358,7.82923,58.2924
7,666,7.71667,-58.4108,-0.0110922,0.0514947,-0.0102167,0.0531202,-0.0127177,-1.41301,0.0403268,0.0231559,1231,358,7.71671,58.4108
14,666,7.64001,-58.4911,-0.011796,0.050203,-0.00980395,0.0517163,-0.0133094,-1.41764,0.0396654,0.0220681,1238,358,7.63999,58.4911
21,666,7.56604,-58.7343,-0.0124665,0.0481571,-0.00878605,0.0494048,-0.0137141,-1.42973,0.0383345,0.017428,1245,358,7.56599,58.7343
28,666,7.4873,-58.9024,-0.0129321,0.0480174,-0.00760042,0.0489509,-0.0138655,-1.44859,0.0381061,0.0246415,1252,358,7.48733,58.9024
35,666,7.46912,-58.9051,-0.0135455,0.0474347,-0.00696244,0.0482195,-0.0143303,-1.45855,0.0378387,0.0223168,1259,358,7.46906,58.9051
42,666,7.32886,-59.007,-0.0144594,0.0460881,-0.00610038,0.0466966,-0.0150679,-1.47137,0.0371856,0.0174073,1266,358,7.32881,59.007
49,666,7.22229,-59.0942,-0.0151918,0.0449874,-0.00544898,0.0454768,-0.0156812,-1.48122,0.0366798,0.0169571,1273,358,7.22227,59.0942
56,666,7.18079,-59.1401,-0.0156111,0.0448261,-0.00550926,0.0453242,-0.0161092,-1.48063,0.0367812,0.0172883,1280,358,7.18084,59.1401
63,666,7.12561,-59.2365,-0.0158986,0.0440119,-0.00545294,0.0445042,-0.0163908,-1.48076,0.0363853,0.0198182,1287,358,7.12562,59.2365
70,666,7.05725,-59.2143,-0.0161751,0.0436567,-0.00539629,0.0441395,-0.0166579,-1.48156,0.036277,0.0191229,1294,358,7.05724,59.2143
77,666,6.98853,-59.0676,-0.0171699,0.0433421,-0.00545387,0.0438297,-0.0176575,-1.48163,0.0365559,0.0234887,1301,358,6.98857,59.0676
84,666,6.97412,-59.1064,-0.0184694,0.0424764,-0.00567145,0.0429997,-0.0189927,-1.47879,0.036675,0.0321244,1308,358,6.97409,59.1064
91,666,6.86768,-59.1296,-0.0193895,0.041603,-0.0060313,0.0421937,-0.0199802,-1.47317,0.0366519,0.0271516,1315,358,6.86772,59.1296
98,666,6.67786,-58.9934,-0.0203266,0.0409535,-0.00573402,0.0414854,-0.0208586,-1.4783,0.0366451,0.0244282,1322,358,6.67786,58.9934
105,666,6.53467,-58.8103,-0.0210183,0.040455,-0.00535286,0.0409176,-0.0214809,-1.48458,0.0366038,0.0297427,1329,358,6.53463,58.8103
112,666,6.5177,-58.6582,0,0,0,0,0,0,0,-1,1336,358,6.51774,58.6582
119,666,6.4751,-58.4647,0,0,0,0,0,0,0,-1,1343,358,6.47512,58.4647
126,666,6.37207,-58.2096,0,0,0,0,0,0,0,-1,1350,358,6.37201,58.2096
133,666,6.19629,-58.0738,0,0,0,0,0,0,0,-1,1357,358,6.19633,58.0738
140,666,6.00439,-57.7815,-0.0219917,0.0358315,0.000889912,0.0358452,-0.0220054,1.55541,0.0337171,0.0434818,1364,358,6.0044,57.7815
147,666,5.83765,-57.4696,-0.0212996,0.0378056,0.00329682,0.0379889,-0.021483,1.51525,0.0347741,0.0318395,1371,358,5.83763,57.4696
154,666,5.83826,-56.9332,-0.0205317,0.0393201,0.00556129,0.0398324,-0.0210441,1.47893,0.0357007,0.0272247,1378,358,5.83824,56.9332
161,666,5.85999,-56.5526,-0.0192367,0.0402601,0.00817369,0.0413625,-0.0203391,1.43672,0.0363062,0.0354681,1385,358,5.85997,56.5526
168,666,5.79651,-56.1823,0,0,0,0,0,0,0,-1,1392,358,5.79656,56.1823
175,666,5.88672,-56.3249,0,0,0,0,0,0,0,-1,1399,358,5.88673,56.3249
182,666,2.60876,-5.17068,0,0,0,0,0,0,0,-1,1406,358,2.6088,5.17068
189,666,2.46973,-5.49979,0,0,0,0,0,0,0,-1,1413,358,2.46975,5.49979
196,666,2.32458,-5.23651,0,0,0,0,0,0,0,-1,1420,358,2.32461,5.23653
203,666,2.28064,-3.88004,0,0,0,0,0,0,0,-1,1427,358,2.28059,3.88003
210,666,3.02576,-5.83548,0,0,0,0,0,0,0,-1,1434,358,3.02581,5.83547
217,666,2.30444,-5.36011,0,0,0,0,0,0,0,-1,1441,358,2.30447,5.3601
224,666,1.82324,-6.03101,0,0,0,0,0,0,0,-1,1448,358,1.82322,6.031
231,666,2.29797,-10.1093,0,0,0,0,0,0,0,-1,1455,358,2.29801,10.1093
238,666,2.52429,-6.10568,0,0,0,0,0,0,0,-1,1462,358,2.52423,6.10567
245,666,4.53345,-1.38205,0,0,0,0,0,0,0,-1,1469,358,4.53349,1.38204
252,666,4.77405,-0.246979,0,0,0,0,0,0,0,-1,1476,358,4.77405,0.246993
259,666,4.83655,1.14087,0,0,0,0,0,0,0,-1,1483,358,4.83652,-1.14087
266,666,6.14148,0.749512,0,0,0,0,0,0,0,-1,1490,358,6.14144,-0.749519
273,666,3.17737,-33.7881,0,0,0,0,0,0,0,-1,1497,358,3.17735,33.7881
280,666,3.37268,-35.2123,0,0,0,0,0,0,0,-1,1504,358,3.37266,35.2123
287,666,-7.06934,-20.3464,0,0,0,0,0,0,0,-1,1511,358,-7.06933,20.3464
294,666,-2.11157,-23.2753,0,0,0,0,0,0,0,-1,1518,358,-2.11162,23.2753
301,666,-4.77222,-21.6957,0,0,0,0,0,0,0,-1,1525,358,-4.77218,21.6957
308,666,-7.45471,-24.766,0,0,0,0,0,0,0,-1,1532,358,-7.45475,24.766
315,666,1.76294,-0.284027,0,0,0,0,0,0,0,-1,1539,358,1.76291,0.284016
322,666,0,0,0,0,0,0,0,0,0,-1,1546,358,0,0
329,666,0,0,0,0,0,0,0,0,0,-1,1553,358,0,0
336,666,0,0,0,0,0,0,0,0,0,-1,1560,358,0,0
343,666,0,0,0,0,0,0,0,0,0,-1,1567,358,0,0
350,666,0,0,0,0,0,0,0,0,0,-1,1574,358,0,0
357,666,0,0,0,0,0,0,0,0,0,-1,1581,358,0,0
364,666,0,0,0,0,0,0,0,0,0,-1,1588,358,0,0
371,666,0,0,0,0,0,0,0,0,0,-1,1595,358,0,0
378,666,0,0,0,0,0,0,0,0,0,-1,1602,358,0,0
385,666,0,0,0,0,0,0,0,0,0,-1,1609,358,0,0
392,666,0,0,0,0,0,0,0,0,0,-1,1616,358,0,0
399,666,0,0,0,0,0,0,0,0,0,-1,1623,358,0,0
406,666,0,0,0,0,0,0,0,0,0,-1,1630,358,0,0
413,666,0,0,0,0,0,0,0,0,0,-1,1637,358,0,0
420,666,0,0,0,0,0,0,0,0,0,-1,1644,358,0,0
427,666,0,0,0,0,0,0,0,0,0,-1,1651,358,0,0
434,666,0,0,0,0,0,0,0,0,0,-1,1658,358,0,0
441,666,0,0,0,0,0,0,0,0,0,-1,1665,358,0,0
448,666,0,0,0,0,0,0,0,0,0,-1,1672,358,0,0
455,666,0,0,0,0,0,0,0,0,0,-1,1679,358,0,0
462,666,0,0,0,0,0,0,0,0,0,-1,1686,358,0,0
469,666,0,0,0,0,0,0,0,0,0,-1,1693,358,0,0
476,666,0,0,0,0,0,0,0,0,0,-1,1700,358,0,0
483,666,0,0,0,0,0,0,0,0,0,-1,1707,358,0,0
490,666,0,0,0,0,0,0,0,0,0,-1,1714,358,0,0
497,666,0,0,0,0,0,0,0,0,0,-1,1721,358,0,0
504,666,0,0,0,0,0,0,0,0,0,-1,1728,358,0,0
511,666,0,0,0,0,0,0,0,0,0,-1,1735,358,0,0
518,666,0,0,0,0,0,0,0,0,0,-1,1742,358,0,0
525,666,0,0,0,0,0,0,0,0,0,-1,1749,358,0,0
532,666,0,0,0,0,0,0,0,0,0,-1,1756,358,0,0
539,666,0,0,0,0,0,0,0,0,0,-1,1763,358,0,0
546,666,0,0,0,0,0,0,0,0,0,-1,1770,358,0,0
553,666,0,0,0,0,0,0,0,0,0,-1,1777,358,0,0
560,666,0,0,0,0,0,0,0,0,0,-1,1784,358,0,0
567,666,0,0,0,0,0,0,0,0,0,-1,1791,358,0,0
574,666,0,0,0,0,0,0,0,0,0,-1,1798,358,0,0
581,666,0,0,0,0,0,0,0,0,0,-1,1805,358,0,0
588,666,0,0,0,0,0,0,0,0,0,-1,1812,358,0,0
595,666,0,0,0,0,0,0,0,0,0,-1,1819,358,0,0
602,666,0,0,0,0,0,0,0,0,0,-1,1826,358,0,0
609,666,0,0,0,0,0,0,0,0,0,-1,1833,358,0,0
616,666,0,0,0,0,0,0,0,0,0,-1,1840,358,0,0
623,666,0,0,0,0,0,0,0,0,0,-1,1847,358,0,0
630,666,0,0,0,0,0,0,0,0,0,-1,1854,358,0,0
637,666,0,0,0,0,0,0,0,0,0,-1,1861,358,0,0
644,666,0,0,0,0,0,0,0,0,0,-1,1868,358,0,0
651,666,0,0,0,0,0,0,0,0,0,-1,1875,358,0,0
658,666,0,0,0,0,0,0,0,0,0,-1,1882,358,0,0
665,666,0,0,0,0,0,0,0,0,0,-1,1889,358,0,0
672,666,0,0,0,0,0,0,0,0,0,-1,1896,358,0,0
679,666,0,0,0,0,0,0,0,0,0,-1,1903,358,0,0
686,666,0,0,0,0,0,0,0,0,0,-1,1910,358,0,0
693,666,0,0,0,0,0,0,0,0,0,-1,1917,358,0,0
700,666,0,0,0,0,0,0,0,0,0,-1,1924,358,0,0
707,666,0,0,0,0,0,0,0,0,0,-1,1931,358,0,0
714,666,0,0,0,0,0,0,0,0,0,-1,1938,358,0,0
721,666,0,0,0,0,0,0,0,0,0,-1,1945,358,0,0
728,666,0,0,0,0,0,0,0,0,0,-1,1952,358,0,0
735,666,0,0,0,0,0,0,0,0,0,-1,1959,358,0,0
742,666,0,0,0,0,0,0,0,0,0,-1,1966,358,0,0
749,666,0,0,0,0,0,0,0,0,0,-1,1973,358,0,0
756,666,0,0,0,0,0,0,0,0,0,-1,1980,358,0,0
763,666,0,0,0,0,0,0,0,0,0,-1,1987,358,0,0
770,666,0,0,0,0,0,0,0,0,0,-1,1994,358,0,0
777,666,0,0,0,0,0,0,0,0,0,-1,2001,358,0,0
784,666,0,0,0,0,0,0,0,0,0,-1,2008,358,0,0
791,666,0,0,0,0,0,0,0,0,0,-1,2015,358,0,0
798,666,0,0,0,0,0,0,0,0,0,-1,2022,358,0,0
805,666,0,0,0,0,0,0,0,0,0,-1,2029,358,0,0
812,666,0,0,0,0,0,0,0,0,0,-1,2036,358,0,0
-700,659,0,0,0,0,0,0,0,0,0,-1,524,365,0,0
-693,659,0,0,0,0,0,0,0,0,0,-1,531,365,0,0
-686,659,0,0,0,0,0,0,0,0,0,-1,538,365,0,0
-679,659,0,0,0,0,0,0,0,0,0,-1,545,365,0,0
-672,659,0,0,0,0,0,0,0,0,0,-1,552,365,0,0
-665,659,0,0,0,0,0,0,0,0,0,-1,559,365,0,0
-658,659,0,0,0,0,0,0,0,0,0,-1,566,365,0,0
-651,659,0,0,0,0,0,0,0,0,0,-1,573,365,0,0
-644,659,0,0,0,0,0,0,0,0,0,-1,580,365,0,0
-637,659,0,0,0,0,0,0,0,0,0,-1,587,365,0,0
-630,659,0,0,0,0,0,0,0,0,0,-1,594,365,0,0
-623,659,0,0,0,0,0,0,0,0,0,-1,601,365,0,0
-616,659,0,0,0,0,0,0,0,0,0,-1,608,365,0,0
-609,659,0,0,0,0,0,0,0,0,0,-1,615,365,0,0
-602,659,0,0,0,0,0,0,0,0,0,-1,622,365,0,0
-595,659,0,0,0,0,0,0,0,0,0,-1,629,365,0,0
-588,659,0,0,0,0,0,0,0,0,0,-1,636,365,0,0
-581,659,0,0,0,0,0,0,0,0,0,-1,643,365,0,0
-574,659,0,0,0,0,0,0,0,0,0,-1,650,365,0,0
-567,659,0,0,0,0,0,0,0,0,0,-1,657,365,0,0
-560,659,0,0,0,0,0,0,0,0,0,-1,664,365,0,0
-553,659,0,0,0,0,0,0,0,0,0,-1,671,365,0,0
-546,659,0,0,0,0,0,0,0,0,0,-1,678,365,0,0
-539,659,0,0,0,0,0,0,0,0,0,-1,685,365,0,0
-532,659,0,0,0,0,0,0,0,0,0,-1,692,365,0,0
-525,659,0,0,0,0,0,0,0,0,0,-1,699,365,0,0
-518,659,0,0,0,0,0,0,0,0,0,-1,706,365,0,0
-511,659,0,0,0,0,0,0,0,0,0,-1,713,365,0,0
-504,659,0,0,0,0,0,0,0,0,0,-1,720,365,0,0
-497,659,0,0,0,0,0,0,0,0,0,-1,727,365,0,0
-490,659,0,0,0,0,0,0,0,0,0,-1,734,365,0,0
-483,659,0,0,0,0,0,0,0,0,0,-1,741,365,0,0
-476,659,0,0,0,0,0,0,0,0,0,-1,748,365,0,0
-469,659,0,0,0,0,0,0,0,0,0,-1,755,365,0,0
-462,659,0,0,0,0,0,0,0,0,0,-1,762,365,0,0
-455,659,0,0,0,0,0,0,0,0,0,-1,769,365,0,0
-448,659,0,0,0,0,0,0,0,0,0,-1,776,365,0,0
-441,659,0,0,0,0,0,0,0,0,0,-1,783,365,0,0
-434,659,0,0,0,0,0,0,0,0,0,-1,790,365,0,0
-427,659,0,0,0,0,0,0,0,0,0,-1,797,365,0,0
-420,659,0,0,0,0,0,0,0,0,0,-1,804,365,0,0
-413,659,0,0,0,0,0,0,0,0,0,-1,811,365,0,0
-406,659,0,0,0,0,0,0,0,0,0,-1,818,365,0,0
-399,659,0,0,0,0,0,0,0,0,0,-1,825,365,0,0
-392,659,0,0,0,0,0,0,0,0,0,-1,832,365,0,0
-385,659,0,0,0,0,0,0,0,0,0,-1,839,365,0,0
-378,659,0,0,0,0,0,0,0,0,0,-1,846,365,0,0
-371,659,0,0,0,0,0,0,0,0,0,-1,853,365,0,0
-364,659,0,0,0,0,0,0,0,0,0,-1,860,365,0,0
-357,659,0,0,0,0,0,0,0,0,0,-1,867,365,0,0
-350,659,0,0,0,0,0,0,0,0,0,-1,874,365,0,0
-343,659,0,0,0,0,0,0,0,0,0,-1,881,365,0,0
-336,659,0,0,0,0,0,0,0,0,0,-1,888,365,0,0
-329,659,0,0,0,0,0,0,0,0,0,-1,895,365,0,0
-322,659,0,0,0,0,0,0,0,0,0,-1,902,365,0,0
-315,659,0,0,0,0,0,0,0,0,0,-1,909,365,0,0
-308,659,0,0,0,0,0,0,0,0,0,-1,916,365,0,0
-301,659,0,0,0,0,0,0,0,0,0,-1,923,365,0,0
-294,659,0,0,0,0,0,0,0,0,0,-1,930,365,0,0
-287,659,0,0,0,0,0,0,0,0,0,-1,937,365,0,0
-280,659,0,0,0,0,0,0,0,0,0,-1,944,365,0,0
-273,659,0,0,0,0,0,0,0,0,0,-1,951,365,0,0
-266,659,0,0,0,0,0,0,0,0,0,-1,958,365,0,0
-259,659,0,0,0,0,0,0,0,0,0,-1,965,365,0,0
-252,659,0,0,0,0,0,0,0,0,0,-1,972,365,0,0
-245,659,0,0,0,0,0,0,0,0,0,-1,979,365,0,0
-238,659,0,0,0,0,0,0,0,0,0,-1,986,365,0,0
-231,659,0,0,0,0,0,0,0,0,0,-1,993,365,0,0
-224,659,0,0,0,0,0,0,0,0,0,-1,1000,365,0,0
-217,659,10.1305,-25.2622,0,0,0,0,0,0,0,-1,1007,365,10.1305,25.2622
-210,659,9.65643,-25.515,0,0,0,0,0,0,0,-1,1014,365,9.65642,25.515
-203,659,8.58911,-25.7432,0,0,0,0,0,0,0,-1,1021,365,8.58916,25.7432
-196,659,2.68323,-27.8121,0,0,0,0,0,0,0,-1,1028,365,2.6832,27.8121
-189,659,6.88049,-28.9412,0,0,0,0,0,0,0,-1,1035,365,6.88045,28.9412
-182,659,6.94189,-30.6316,0,0,0,0,0,0,0,-1,1042,365,6.94189,30.6316
-175,659,6.948,-32.0092,0,0,0,0,0,0,0,-1,1049,365,6.94798,32.0093
-168,659,7.1416,-32.7405,0,0,0,0,0,0,0,-1,1056,365,7.14157,32.7405
-161,659,7.57361,-33.7099,0,0,0,0,0,0,0,-1,1063,365,7.57355,33.7099
-154,659,7.71448,-34.8995,0,0,0,0,0,0,0,-1,1070,365,7.7145,34.8995
-147,659,5.46606,-37.758,0,0,0,0,0,0,0,-1,1077,365,5.46601,37.758
-140,659,5.7356,-37.755,0,0,0,0,0,0,0,-1,1084,365,5.73562,37.755
-133,659,5.91455,-37.9017,0,0,0,0,0,0,0,-1,1091,365,5.9146,37.9017
-126,659,6.31226,-37.9904,0,0,0,0,0,0,0,-1,1098,365,6.3122,37.9904
-119,659,6.26941,-35.0837,0,0,0,0,0,0,0,-1,1105,365,6.26943,35.0837
-112,659,6.24353,-35.0562,0,0,0,0,0,0,0,-1,1112,365,6.24349,35.0562
-105,659,5.38696,-30.5854,0,0,0,0,0,0,0,-1,1119,365,5.387,30.5854
-98,659,4.68042,-26.2438,0,0,0,0,0,0,0,-1,1126,365,4.68041,26.2438
-91,659,4.20776,-20.8654,0,0,0,0,0,0,0,-1,1133,365,4.20777,20.8654
-84,659,2.8584,-17.8303,0,0,0,0,0,0,0,-1,1140,365,2.85836,17.8303
-77,659,2.80139,-15.3457,0,0,0,0,0,0,0,-1,1147,365,2.80139,15.3457
-70,659,2.9353,-12.7028,0,0,0,0,0,0,0,-1,1154,365,2.93533,12.7028
-63,659,2.11267,-9.7796,0,0,0,0,0,0,0,-1,1161,365,2.11266,9.7796
-56,659,2.11182,-9.91541,0,0,0,0,0,0,0,-1,1168,365,2.11178,9.91541
-49,659,8.12988,-56.6092,0,0,0,0,0,0,0,-1,1175,365,8.12993,56.6092
-42,659,8.11023,-56.9296,0,0,0,0,0,0,0,-1,1182,365,8.11028,56.9296
-35,659,8.02014,-57.244,-0.00769752,0.0326461,-0.00891587,0.0345286,-0.00958006,-1.36271,0.0267896,0.0422164,1189,365,8.0201,57.244
-28,659,7.9939,-57.4691,-0.00783539,0.034677,-0.00896427,0.0364899,-0.00964831,-1.37125,0.0281004,0.0162853,1196,365,7.99391,57.4691
-21,659,7.89502,-57.7895,-0.00787451,0.0364626,-0.00891742,0.038189,-0.00960084,-1.37957,0.0291907,0.0153421,1203,365,7.89499,57.7895
-14,659,7.78735,-58.0813,-0.00808157,0.037828,-0.00864646,0.0394025,-0.00965602,-1.39068,0.0300094,0.0130416,1210,365,7.78732,58.0813
-7,659,7.71521,-58.3018,-0.00817664,0.0387627,-0.00842275,0.0402283,-0.00964225,-1.39852,0.0305445,0.0123897,1217,365,7.71515,58.3018
0,659,7.68054,-58.491,-0.00819945,0.0393392,-0.00799069,0.0406464,-0.00950665,-1.40864,0.0307601,0.0103355,1224,365,7.68057,58.491
7,659,7.63928,-58.6658,-0.00849677,0.0392035,-0.00753871,0.0403666,-0.00965986,-1.41772,0.0306428,0.0105293,1231,365,7.6393,58.6658
14,659,7.57043,-58.7723,-0.0087931,0.0384371,-0.00715458,0.0394971,-0.00985311,-1.42371,0.0301572,0.0135582,1238,365,7.57049,58.7723
21,659,7.48767,-58.912,-0.00909794,0.0371269,-0.00633463,0.0379793,-0.00995032,-1.43704,0.0292068,0.0141173,1245,365,7.48763,58.912
28,659,7.39185,-59.0712,-0.00925442,0.0371911,-0.00538712,0.0378077,-0.00987107,-1.45682,0.0290598,0.0132235,1252,365,7.39182,59.0712
35,659,7.33716,-59.1764,-0.00953233,0.036847,-0.00481271,0.0373412,-0.0100265,-1.46848,0.0288235,0.0136312,1259,365,7.33716,59.1764
42,659,7.29553,-59.2538,-0.0100605,0.0359216,-0.00403016,0.0362722,-0.010411,-1.48403,0.0282976,0.0145248,1266,365,7.29558,59.2538
49,659,7.20911,-59.3225,-0.0105261,0.0351829,-0.00341585,0.0354368,-0.01078,-1.49662,0.0279204,0.0158711,1273,365,7.20916,59.3225
56,659,7.14063,-59.3461,-0.0108702,0.0351164,-0.00340118,0.0353666,-0.0111204,-1.49737,0.0280297,0.0194854,1280,365,7.14065,59.3461
63,659,7.10571,-59.3777,-0.0111687,0.0345033,-0.00328651,0.0347386,-0.0114039,-1.49933,0.0277527,0.018347,1287,365,7.10572,59.3777
70,659,7.02246,-59.3904,-0.0114521,0.0341339,-0.00314736,0.0343502,-0.0116684,-1.50219,0.0276236,0.0182739,1294,365,7.02248,59.3904
77,659,6.90039,-59.3751,-0.0123188,0.0337975,-0.00309154,0.0340038,-0.0125251,-1.50416,0.0278012,0.0190002,1301,365,6.90034,59.3751
84,659,6.90173,-59.3276,-0.0134557,0.0330439,-0.00320087,0.0332632,-0.013675,-1.50239,0.0278753,0.0133998,1308,365,6.90175,59.3276
91,659,6.83252,-59.256,-0.0143115,0.0322614,-0.00342064,0.0325113,-0.0145614,-1.49787,0.0278282,0.011929,1315,365,6.83252,59.256
98,659,6.74414,-59.1372,-0.0151624,0.0316929,-0.00310517,0.0318978,-0.0153673,-1.50491,0.0278393,0.00919184,1322,365,6.7442,59.1372
105,659,6.68848,-58.9778,-0.0157885,0.0313126,-0.00275676,0.0314734,-0.0159493,-1.51253,0.0278643,0.0106756,1329,365,6.6885,58.9778
112,659,6.63721,-58.8125,-0.0160968,0.0309501,-0.00220986,0.0310536,-0.0162003,-1.52396,0.0277277,0.0157459,1336,365,6.63725,58.8125
119,659,6.58447,-58.6505,-0.0164235,0.030407,-0.00138662,0.0304481,-0.0164645,-1.54122,0.0274831,0.0179702,1343,365,6.58452,58.6505
126,659,6.48499,-58.388,-0.0165926,0.0301836,-0.000867047,0.0301996,-0.0166087,-1.55227,0.0274019,0.0182515,1350,365,6.48493,58.388
133,659,6.37903,-58.177,-0.0167016,0.0282653,-3.36855e-06,0.0282653,-0.0167016,-1.57072,0.0262463,0.0186584,1357,365,6.37903,58.177
140,659,6.29065,-57.9897,-0.016344,0.028003,0.00176336,0.028073,-0.0164141,1.53112,0.025977,0.0137478,1364,365,6.29062,57.9897
147,659,6.22888,-57.743,-0.0156836,0.0295053,0.00336714,0.0297548,-0.0159331,1.49683,0.0267773,0.0112508,1371,365,6.22891,57.743
154,659,6.13818,-57.4138,-0.0149534,0.0306342,0.00483527,0.0311415,-0.0154606,1.46628,0.0274087,0.0124348,1378,365,6.13818,57.4138
161,659,6.06543,-57.0681,-0.0139016,0.0312731,0.00653235,0.0321987,-0.0148272,1.43003,0.0277611,0.013479,1385,365,6.06541,57.0681
168,659,6.02087,-56.706,-0.0129273,0.0322066,0.00734716,0.0333725,-0.0140932,1.41342,0.0281478,0.0193801,1392,365,6.02089,56.706
175,659,5.99158,-56.3641,-0.0119317,0.031913,0.00742262,0.0331355,-0.0131542,1.40756,0.0275429,0.0427668,1399,365,5.99155,56.3641
182,659,5.84668,-56.0983,0,0,0,0,0,0,0,-1,1406,365,5.8467,56.0983
189,659,5.83118,-55.5918,0,0,0,0,0,0,0,-1,1413,365,5.83112,55.5918
196,659,2.41248,-13.4371,0,0,0,0,0,0,0,-1,1420,365,2.41243,13.4371
203,659,2.38623,-12.2163,0,0,0,0,0,0,0,-1,1427,365,2.38617,12.2163
210,659,2.20789,-13.9792,0,0,0,0,0,0,0,-1,1434,365,2.20794,13.9792
217,659,2.24121,-13.487,0,0,0,0,0,0,0,-1,1441,365,2.24116,13.487
224,659,2.3479,-15.2926,0,0,0,0,0,0,0,-1,1448,365,2.34793,15.2926
231,659,2.47974,-17.8629,0,0,0,0,0,0,0,-1,1455,365,2.47976,17.8628
238,659,3.57886,-21.1258,0,0,0,0,0,0,0,-1,1462,365,3.57889,21.1258
245,659,3.29883,-25.0283,0,0,0,0,0,0,0,-1,1469,365,3.29889,25.0283
252,659,2.81909,-24.1604,0,0,0,0,0,0,0,-1,1476,365,2.81905,24.1604
259,659,2.33069,-3.36703,0,0,0,0,0,0,0,-1,1483,365,2.33073,3.36702
266,659,3.40918,-35.2544,0,0,0,0,0,0,0,-1,1490,365,3.40913,35.2544
273,659,4.45557,-42.3683,0,0,0,0,0,0,0,-1,1497,365,4.45554,42.3683
280,659,4.87903,-41.4995,0,0,0,0,0,0,0,-1,1504,365,4.87898,41.4995
287,659,1.09851,-23.7787,0,0,0,0,0,0,0,-1,1511,365,1.09847,23.7787
294,659,-0.146973,-23.1876,0,0,0,0,0,0,0,-1,1518,365,-0.146929,23.1876
301,659,-1.39233,-22.5964,0,0,0,0,0,0,0,-1,1525,365,-1.39232,22.5964
308,659,-4.59692,-21.4031,0,0,0,0,0,0,0,-1,1532,365,-4.59689,21.4031
315,659,-6.78564,-21.0916,0,0,0,0,0,0,0,-1,1539,365,-6.78563,21.0916
322,659,-8.245,-20.894,0,0,0,0,0,0,0,-1,1546,365,-8.245,20.894
329,659,-7.67749,-23.0449,0,0,0,0,0,0,0,-1,1553,365,-7.67745,23.0449
336,659,-7.71436,-22.4188,0,0,0,0,0,0,0,-1,1560,365,-7.71432,22.4188
343,659,0,0,0,0,0,0,0,0,0,-1,1567,365,0,0
350,659,0,0,0,0,0,0,0,0,0,-1,1574,365,0,0
357,659,0,0,0,0,0,0,0,0,0,-1,1581,365,0,0
364,659,0,0,0,0,0,0,0,0,0,-1,1588,365,0,0
371,659,0,0,0,0,0,0,0,0,0,-1,1595,365,0,0
378,659,0,0,0,0,0,0,0,0,0,-1,1602,365,0,0
385,659,0,0,0,0,0,0,0,0,0,-1,1609,365,0,0
392,659,0,0,0,0,0,0,0,0,0,-1,1616,365,0,0
399,659,0,0,0,0,0,0,0,0,0,-1,1623,365,0,0
406,659,0,0,0,0,0,0,0,0,0,-1,1630,365,0,0
413,659,0,0,0,0,0,0,0,0,0,-1,1637,365,0,0
420,659,0,0,0,0,0,0,0,0,0,-1,1644,365,0,0
427,659,0,0,0,0,0,0,0,0,0,-1,1651,365,0,0
434,659,0,0,0,0,0,0,0,0,0,-1,1658,365,0,0
441,659,0,0,0,0,0,0,0,0,0,-1,1665,365,0,0
448,659,0,0,0,0,0,0,0,0,0,-1,1672,365,0,0
455,659,0,0,0,0,0,0,0,0,0,-1,1679,365,0,0
462,659,0,0,0,0,0,0,0,0,0,-1,1686,365,0,0
469,659,0,0,0,0,0,0,0,0,0,-1,1693,365,0,0
476,659,0,0,0,0,0,0,0,0,0,-1,1700,365,0,0
483,659,0,0,0,0,0,0,0,0,0,-1,1707,365,0,0
490,659,0,0,0,0,0,0,0,0,0,-1,1714,365,0,0
497,659,0,0,0,0,0,0,0,0,0,-1,1721,365,0,0
504,659,0,0,0,0,0,0,0,0,0,-1,1728,365,0,0
511,659,0,0,0,0,0,0,0,0,0,-1,1735,365,0,0
518,659,0,0,0,0,0,0,0,0,0,-1,1742,365,0,0
525,659,0,0,0,0,0,0,0,0,0,-1,1749,365,0,0
532,659,0,0,0,0,0,0,0,0,0,-1,1756,365,0,0
539,659,0,0,0,0,0,0,0,0,0,-1,1763,365,0,0
546,659,0,0,0,0,0,0,0,0,0,-1,1770,365,0,0
553,659,0,0,0,0,0,0,0,0,0,-1,1777,365,0,0
560,659,0,0,0,0,0,0,0,0,0,-1,1784,365,0,0
567,659,0,0,0,0,0,0,0,0,0,-1,1791,365,0,0
574,659,0,0,0,0,0,0,0,0,0,-1,1798,365,0,0
581,659,0,0,0,0,0,0,0,0,0,-1,1805,365,0,0
588,659,0,0,0,0,0,0,0,0,0,-1,1812,365,0,0
595,659,0,0,0,0,0,0,0,0,0,-1,1819,365,0,0
602,659,0,0,0,0,0,0,0,0,0,-1,1826,365,0,0
609,659,0,0,0,0,0,0,0,0,0,-1,1833,365,0,0
616,659,0,0,0,0,0,0,0,0,0,-1,1840,365,0,0
623,659,0,0,0,0,0,0,0,0,0,-1,1847,365,0,0
630,659,0,0,0,0,0,0,0,0,0,-1,1854,365,0,0
637,659,0,0,0,0,0,0,0,0,0,-1,1861,365,0,0
644,659,0,0,0,0,0,0,0,0,0,-1,1868,365,0,0
651,659,0,0,0,0,0,0,0,0,0,-1,1875,365,0,0
658,659,0,0,0,0,0,0,0,0,0,-1,1882,365,0,0
665,659,0,0,0,0,0,0,0,0,0,-1,1889,365,0,0
672,659,0,0,0,0,0,0,0,0,0,-1,1896,365,0,0
679,659,0,0,0,0,0,0,0,0,0,-1,1903,365,0,0
686,659,0,0,0,0,0,0,0,0,0,-1,1910,365,0,0
693,659,0,0,0,0,0,0,0,0,0,-1,1917,365,0,0
700,659,0,0,0,0,0,0,0,0,0,-1,1924,365,0,0
707,659,0,0,0,0,0,0,0,0,0,-1,1931,365,0,0
714,659,0,0,0,0,0,0,0,0,0,-1,1938,365,0,0
721,659,0,0,0,0,0,0,0,0,0,-1,1945,365,0,0
728,659,0,0,0,0,0,0,0,0,0,-1,1952,365,0,0
735,659,0,0,0,0,0,0,0,0,0,-1,1959,365,0,0
742,659,0,0,0,0,0,0,0,0,0,-1,1966,365,0,0
749,659,0,0,0,0,0,0,0,0,0,-1,1973,365,0,0
756,659,0,0,0,0,0,0,0,0,0,-1,1980,365,0,0
763,659,0,0,0,0,0,0,0,0,0,-1,1987,365,0,0
770,659,0,0,0,0,0,0,0,0,0,-1,1994,365,0,0
777,659,0,0,0,0,0,0,0,0,0,-1,2001,365,0,0
784,659,0,0,0,0,0,0,0,0,0,-1,2008,365,0,0
791,659,0,0,0,0,0,0,0,0,0,-1,2015,365,0,0
798,659,0,0,0,0,0,0,0,0,0,-1,2022,365,0,0
805,659,0,0,0,0,0,0,0,0,0,-1,2029,365,0,0
812,659,0,0,0,0,0,0,0,0,0,-1,2036,365,0,0
-700,652,0,0,0,0,0,0,0,0,0,-1,524,372,0,0
-693,652,0,0,0,0,0,0,0,0,0,-1,531,372,0,0
-686,652,0,0,0,0,0,0,0,0,0,-1,538,372,0,0
-679,652,0,0,0,0,0,0,0,0,0,-1,545,372,0,0
-672,652,0,0,0,0,0,0,0,0,0,-1,552,372,0,0
-665,652,0,0,0,0,0,0,0,0,0,-1,559,372,0,0
-658,652,0,0,0,0,0,0,0,0,0,-1,566,372,0,0
-651,652,0,0,0,0,0,0,0,0,0,-1,573,372,0,0
-644,652,0,0,0,0,0,0,0,0,0,-1,580,372,0,0
-637,652,0,0,0,0,0,0,0,0,0,-1,587,372,0,0
-630,652,0,0,0,0,0,0,0,0,0,-1,594,372,0,0
-623,652,0,0,0,0,0,0,0,0,0,-1,601,372,0,0
-616,652,0,0,0,0,0,0,0,0,0,-1,608,372,0,0
-609,652,0,0,0,0,0,0,0,0,0,-1,615,372,0,0
-602,652,0,0,0,0,0,0,0,0,0,-1,622,372,0,0
-595,652,0,0,0,0,0,0,0,0,0,-1,629,372,0,0
-588,652,0,0,0,0,0,0,0,0,0,-1,636,372,0,0
-581,652,0,0,0,0,0,0,0,0,0,-1,643,372,0,0
-574,652,0,0,0,0,0,0,0,0,0,-1,650,372,0,0
-567,652,0,0,0,0,0,0,0,0,0,-1,657,372,0,0
-560,652,0,0,0,0,0,0,0,0,0,-1,664,372,0,0
-553,652,0,0,0,0,0,0,0,0,0,-1,671,372,0,0
-546,652,0,0,0,0,0,0,0,0,0,-1,678,372,0,0
-539,652,0,0,0,0,0,0,0,0,0,-1,685,372,0,0
-532,652,0,0,0,0,0,0,0,0,0,-1,692,372,0,0
-525,652,0,0,0,0,0,0,0,0,0,-1,699,372,0,0
-518,652,0,0,0,0,0,0,0,0,0,-1,706,372,0,0
-511,652,0,0,0,0,0,0,0,0,0,-1,713,372,0,0
-504,652,0,0,0,0,0,0,0,0,0,-1,720,372,0,0
-497,652,0,0,0,0,0,0,0,0,0,-1,727,372,0,0
-490,652,0,0,0,0,0,0,0,0,0,-1,734,372,0,0
-483,652,0,0,0,0,0,0,0,0,0,-1,741,372,0,0
-476,652,0,0,0,0,0,0,0,0,0,-1,748,372,0,0
-469,652,0,0,0,0,0,0,0,0,0,-1,755,372,0,0
-462,652,0,0,0,0,0,0,0,0,0,-1,762,372,0,0
-455,652,0,0,0,0,0,0,0,0,0,-1,769,372,0,0
-448,652,0,0,0,0,0,0,0,0,0,-1,776,372,0,0
-441,652,0,0,0,0,0,0,0,0,0,-1,783,372,0,0
-434,652,0,0,0,0,0,0,0,0,0,-1,790,372,0,0
-427,652,0,0,0,0,0,0,0,0,0,-1,797,372,0,0
-420,652,0,0,0,0,0,0,0,0,0,-1,804,372,0,0
-413,652,0,0,0,0,0,0,0,0,0,-1,811,372,0,0
-406,652,0,0,0,0,0,0,0,0,0,-1,818,372,0,0
-399,652,0,0,0,0,0,0,0,0,0,-1,825,372,0,0
-392,652,0,0,0,0,0,0,0,0,0,-1,832,372,0,0
-385,652,0,0,0,0,0,0,0,0,0,-1,839,372,0,0
-378,652,0,0,0,0,0,0,0,0,0,-1,846,372,0,0
-371,652,0,0,0,0,0,0,0,0,0,-1,853,372,0,0
-364,652,0,0,0,0,0,0,0,0,0,-1,860,372,0,0
-357,652,0,0,0,0,0,0,0,0,0,-1,867,372,0,0
-350,652,0,0,0,0,0,0,0,0,0,-1,874,372,0,0
-343,652,0,0,0,0,0,0,0,0,0,-1,881,372,0,0
-336,652,0,0,0,0,0,0,0,0,0,-1,888,372,0,0
-329,652,0,0,0,0,0,0,0,0,0,-1,895,372,0,0
-322,652,0,0,0,0,0,0,0,0,0,-1,902,372,0,0
-315,652,0,0,0,0,0,0,0,0,0,-1,909,372,0,0
-308,652,0,0,0,0,0,0,0,0,0,-1,916,372,0,0
-301,652,0,0,0,0,0,0,0,0,0,-1,923,372,0,0
-294,652,0,0,0,0,0,0,0,0,0,-1,930,372,0,0
-287,652,0,0,0,0,0,0,0,0,0,-1,937,372,0,0
-280,652,0,0,0,0,0,0,0,0,0,-1,944,372,0,0
-273,652,0,0,0,0,0,0,0,0,0,-1,951,372,0,0
-266,652,0,0,0,0,0,0,0,0,0,-1,958,372,0,0
-259,652,0,0,0,0,0,0,0,0,0,-1,965,372,0,0
-252,652,0,0,0,0,0,0,0,0,0,-1,972,372,0,0
-245,652,0,0,0,0,0,0,0,0,0,-1,979,372,0,0
-238,652,0,0,0,0,0,0,0,0,0,-1,986,372,0,0
-231,652,8.79358,-27.1656,0,0,0,0,0,0,0,-1,993,372,8.79357,27.1656
-224,652,8.84552,-27.675,0,0,0,0,0,0,0,-1,1000,372,8.84555,27.675
-217,652,9.03113,-27.7474,0,0,0,0,0,0,0,-1,1007,372,9.0311,27.7474
-210,652,9.72803,-30.4624,0,0,0,0,0,0,0,-1,1014,372,9.72805,30.4624
-203,652,7.2677,-26.0732,0,0,0,0,0,0,0,-1,1021,372,7.26775,26.0732
-196,652,5.90686,-26.957,0,0,0,0,0,0,0,-1,1028,372,5.9068,26.957
-189,652,6.21326,-28.3035,0,0,0,0,0,0,0,-1,1035,372,6.21331,28.3035
-182,652,6.45068,-29.9377,0,0,0,0,0,0,0,-1,1042,372,6.45074,29.9377
-175,652,6.72559,-31.6948,0,0,0,0,0,0,0,-1,1049,372,6.72563,31.6948
-168,652,7.08533,-32.8669,0,0,0,0,0,0,0,-1,1056,372,7.08532,32.8669
-161,652,7.85291,-37.3545,0,0,0,0,0,0,0,-1,1063,372,7.85294,37.3545
-154,652,7.54639,-37.9586,0,0,0,0,0,0,0,-1,1070,372,7.54642,37.9586
-147,652,7.85571,-42.3712,0,0,0,0,0,0,0,-1,1077,372,7.8557,42.3712
-140,652,5.6842,-33.9781,0,0,0,0,0,0,0,-1,1084,372,5.68421,33.9781
-133,652,6.3009,-35.2887,0,0,0,0,0,0,0,-1,1091,372,6.30093,35.2887
-126,652,5.86841,-37.0981,0,0,0,0,0,0,0,-1,1098,372,5.86845,37.0981
-119,652,8.18018,-49.52,0,0,0,0,0,0,0,-1,1105,372,8.18015,49.52
-112,652,7.81982,-48.4793,0,0,0,0,0,0,0,-1,1112,372,7.81981,48.4793
-105,652,6.63855,-39.9965,0,0,0,0,0,0,0,-1,1119,372,6.63852,39.9965
-98,652,5.84302,-35.2455,0,0,0,0,0,0,0,-1,1126,372,5.84307,35.2455
-91,652,5.66296,-32.9003,0,0,0,0,0,0,0,-1,1133,372,5.66297,32.9003
-84,652,5.46057,-34.9186,0,0,0,0,0,0,0,-1,1140,372,5.46057,34.9186
-77,652,8.18872,-54.8326,0,0,0,0,0,0,0,-1,1147,372,8.18871,54.8326
-70,652,8.12598,-55.4172,0,0,0,0,0,0,0,-1,1154,372,8.12601,55.4172
-63,652,8.08472,-55.8327,0,0,0,0,0,0,0,-1,1161,372,8.08467,55.8327
-56,652,7.96216,-56.268,0,0,0,0,0,0,0,-1,1168,372,7.96222,56.268
-49,652,7.89551,-56.6355,-0.0067716,0.0182266,-0.00579758,0.0195057,-0.00805072,-1.35364,0.0163615,0.0361014,1175,372,7.89552,56.6355
-42,652,7.82751,-56.924,-0.00629881,0.0204131,-0.00597759,0.0216898,-0.00757546,-1.36038,0.0175391,0.0121519,1182,372,7.82751,56.924
-35,652,7.78442,-57.2286,-0.00620133,0.022593,-0.00616229,0.0238564,-0.00746469,-1.36858,0.0188907,0.0097756,1189,372,7.78447,57.2286
-28,652,7.72607,-57.5252,-0.00610295,0.0243183,-0.0061728,0.0255231,-0.00730776,-1.37804,0.0199037,0.00861723,1196,372,7.7261,57.5252
-21,652,7.65222,-57.8257,-0.00591192,0.0257598,-0.00611667,0.0269001,-0.00705216,-1.3865,0.0206887,0.00937473,1203,372,7.65222,57.8257
-14,652,7.59973,-58.0909,-0.00586511,0.0268228,-0.00593195,0.027866,-0.00690831,-1.39672,0.0212576,0.011964,1210,372,7.59979,58.0909
-7,652,7.53857,-58.3239,-0.00574325,0.0275369,-0.00580532,0.0285205,-0.00672685,-1.40296,0.0216079,0.0149017,1217,372,7.53858,58.3239
0,652,7.49353,-58.5092,-0.00559751,0.0278921,-0.00550851,0.0287749,-0.0064803,-1.41189,0.0216688,0.0146053,1224,372,7.49347,58.5092
7,652,7.45911,-58.6684,-0.00556464,0.0278597,-0.00516864,0.0286407,-0.00634565,-1.42082,0.0215231,0.0149777,1231,372,7.45914,58.6684
14,652,7.43372,-58.8564,-0.00555195,0.027409,-0.00483644,0.028104,-0.00624695,-1.42807,0.0211284,0.0138248,1238,372,7.43374,58.8565
21,652,7.34399,-59.0198,-0.00556625,0.0266028,-0.00419384,0.0271406,-0.00610401,-1.44327,0.0204346,0.0130361,1245,372,7.34396,59.0198
28,652,7.28613,-59.1866,-0.00547862,0.0267757,-0.00345566,0.0271418,-0.00584469,-1.46525,0.0203248,0.0114919,1252,372,7.2861,59.1867
35,652,7.24573,-59.2875,-0.00548798,0.0266301,-0.00296326,0.0269012,-0.00575909,-1.47956,0.0201303,0.0111758,1259,372,7.24577,59.2875
42,652,7.20679,-59.3484,-0.00568176,0.0260958,-0.00227867,0.0262584,-0.00584432,-1.49958,0.0197441,0.0120682,1266,372,7.20676,59.3485
49,652,7.18896,-59.4008,-0.00589145,0.0257175,-0.00172734,0.0258116,-0.00598557,-1.51637,0.0195114,0.0147757,1273,372,7.1889,59.4008
56,652,7.1532,-59.407,-0.00613308,0.0257826,-0.0016702,0.0258697,-0.00622024,-1.51865,0.0196508,0.0167433,1280,372,7.15318,59.407
63,652,7.09717,-59.4115,-0.00640095,0.0254448,-0.00155275,0.0255204,-0.00647648,-1.52219,0.0195336,0.0199113,1287,372,7.09714,59.4115
70,652,7.03125,-59.412,-0.00664869,0.0251931,-0.00139889,0.0252545,-0.00671002,-1.52698,0.0194624,0.0182559,1294,372,7.03127,59.412
77,652,6.9502,-59.4095,-0.00736119,0.0249371,-0.00128337,0.024988,-0.0074121,-1.53114,0.0196022,0.0166632,1301,372,6.95014,59.4095
84,652,6.96008,-59.3733,-0.00831631,0.0243456,-0.00134853,0.0244012,-0.0083719,-1.5296,0.0196615,0.0134815,1308,372,6.96007,59.3733
91,652,6.91602,-59.3465,-0.0091096,0.0236738,-0.00152657,0.0237447,-0.00918053,-1.52436,0.0196195,0.0166719,1315,372,6.91607,59.3465
98,652,6.87598,-59.2292,-0.0098977,0.023213,-0.00128163,0.0232625,-0.00994723,-1.53217,0.0196807,0.0139507,1322,372,6.87599,59.2292
105,652,6.81799,-59.0757,-0.0104919,0.0229376,-0.00103838,0.0229699,-0.0105241,-1.53977,0.0197778,0.0115333,1329,372,6.81797,59.0757
112,652,6.75732,-58.92,-0.0109257,0.0226035,-0.00068187,0.0226174,-0.0109395,-1.55047,0.0197613,0.00994004,1336,372,6.75728,58.92
119,652,6.71472,-58.7415,-0.0112682,0.0221615,-0.00016242,0.0221623,-0.011269,-1.56594,0.0196402,0.0108351,1343,372,6.71472,58.7415
126,652,6.64661,-58.5107,-0.0113999,0.0220508,0.000166118,0.0220517,-0.0114007,1.56583,0.0196374,0.013705,1350,372,6.64664,58.5107
133,652,6.58594,-58.2806,-0.0114825,0.0208935,0.000744973,0.0209106,-0.0114996,1.5478,0.0189732,0.0139059,1357,372,6.58589,58.2806
140,652,6.53455,-58.0563,-0.011252,0.0209553,0.00192394,0.0210698,-0.0113665,1.51134,0.0190044,0.0105364,1364,372,6.53457,58.0563
147,652,6.49438,-57.7935,-0.01081,0.0221339,0.00296061,0.0223978,-0.0110739,1.48188,0.0196901,0.0102136,1371,372,6.49441,57.7935
154,652,6.43542,-57.5028,-0.0103328,0.0230361,0.00390086,0.023486,-0.0107827,1.45596,0.0202331,0.0102335,1378,372,6.43538,57.5028
161,652,6.34863,-57.1783,-0.00968284,0.0235768,0.00500328,0.0243131,-0.0104192,1.42467,0.0205806,0.0114014,1385,372,6.3486,57.1783
168,652,6.28809,-56.8221,-0.00911785,0.0241675,0.00553327,0.0250632,-0.0100136,1.41031,0.0208637,0.0123191,1392,372,6.28807,56.8221
175,652,6.24072,-56.4531,-0.00866506,0.0239585,0.00565335,0.0249104,-0.00961695,1.40398,0.0205759,0.0127992,1399,372,6.24069,56.4531
182,652,6.17725,-56.1088,-0.0075625,0.0236731,0.005706,0.0246828,-0.00857221,1.39565,0.0199367,0.0189367,1406,372,6.17721,56.1088
189,652,6.1571,-55.7172,-0.00649106,0.0232156,0.00574685,0.0242886,-0.00756405,1.38621,0.0192165,0.0314161,1413,372,6.15715,55.7172
196,652,6.0686,-55.3394,0,0,0,0,0,0,0,-1,1420,372,6.06855,55.3394
203,652,6.01074,-54.8675,0,0,0,0,0,0,0,-1,1427,372,6.01069,54.8675
210,652,6.01196,-54.3068,0,0,0,0,0,0,0,-1,1434,372,6.01199,54.3068
217,652,5.88513,-53.8912,0,0,0,0,0,0,0,-1,1441,372,5.88513,53.8913
224,652,3.63794,-31.2791,0,0,0,0,0,0,0,-1,1448,372,3.63799,31.2791
231,652,3.83936,-30.4812,0,0,0,0,0,0,0,-1,1455,372,3.8393,30.4812
238,652,4.42358,-36.4103,0,0,0,0,0,0,0,-1,1462,372,4.4236,36.4103
245,652,4.53296,-41.8512,0,0,0,0,0,0,0,-1,1469,372,4.5329,41.8512
252,652,5.00793,-47.7065,0,0,0,0,0,0,0,-1,1476,372,5.00791,47.7064
259,652,3.44922,-31.2655,0,0,0,0,0,0,0,-1,1483,372,3.44921,31.2655
266,652,5.22546,-49.3956,0,0,0,0,0,0,0,-1,1490,372,5.22551,49.3956
273,652,5.14404,-49.1583,0,0,0,0,0,0,0,-1,1497,372,5.14404,49.1583
280,652,4.05066,-24.6993,0,0,0,0,0,0,0,-1,1504,372,4.05066,24.6993
287,652,3.0979,-23.6951,0,0,0,0,0,0,0,-1,1511,372,3.09796,23.6951
294,652,1.79321,-23.0648,0,0,0,0,0,0,0,-1,1518,372,1.79317,23.0648
301,652,0.488403,-22.4346,0,0,0,0,0,0,0,-1,1525,372,0.488378,22.4346
308,652,-2.57666,-21.5525,0,0,0,0,0,0,0,-1,1532,372,-2.5766,21.5525
315,652,-4.21008,-21.5407,0,0,0,0,0,0,0,-1,1539,372,-4.21006,21.5407
322,652,-5.69116,-21.7166,0,0,0,0,0,0,0,-1,1546,372,-5.6911,21.7166
329,652,-7.12329,-21.7065,0,0,0,0,0,0,0,-1,1553,372,-7.12334,21.7065
336,652,-3.56519,-22.3688,0,0,0,0,0,0,0,-1,1560,372,-3.56517,22.3688
343,652,-3.58069,-21.9185,0,0,0,0,0,0,0,-1,1567,372,-3.58069,21.9185
350,652,5.28394,-25.6715,0,0,0,0,0,0,0,-1,1574,372,5.28393,25.6715
357,652,0,0,0,0,0,0,0,0,0,-1,1581,372,0,0
364,652,0,0,0,0,0,0,0,0,0,-1,1588,372,0,0
371,652,0,0,0,0,0,0,0,0,0,-1,1595,372,0,0
378,652,0,0,0,0,0,0,0,0,0,-1,1602,372,0,0
385,652,0,0,0,0,0,0,0,0,0,-1,1609,372,0,0
392,652,0,0,0,0,0,0,0,0,0,-1,1616,372,0,0
399,652,0,0,0,0,0,0,0,0,0,-1,1623,372,0,0
406,652,0,0,0,0,0,0,0,0,0,-1,1630,372,0,0
413,652,0,0,0,0,0,0,0,0,0,-1,1637,372,0,0
420,652,0,0,0,0,0,0,0,0,0,-1,1644,372,0,0
427,652,0,0,0,0,0,0,0,0,0,-1,1651,372,0,0
434,652,0,0,0,0,0,0,0,0,0,-1,1658,372,0,0
441,652,0,0,0,0,0,0,0,0,0,-1,1665,372,0,0
448,652,0,0,0,0,0,0,0,0,0,-1,1672,372,0,0
455,652,0,0,0,0,0,0,0,0,0,-1,1679,372,0,0
462,652,0,0,0,0,0,0,0,0,0,-1,1686,372,0,0
469,652,0,0,0,0,0,0,0,0,0,-1,1693,372,0,0
476,652,0,0,0,0,0,0,0,0,0,-1,1700,372,0,0
483,652,0,0,0,0,0,0,0,0,0,-1,1707,372,0,0
490,652,0,0,0,0,0,0,0,0,0,-1,1714,372,0,0
497,652,0,0,0,0,0,0,0,0,0,-1,1721,372,0,0
504,652,0,0,0,0,0,0,0,0,0,-1,1728,372,0,0
511,652,0,0,0,0,0,0,0,0,0,-1,1735,372,0,0
518,652,0,0,0,0,0,0,0,0,0,-1,1742,372,0,0
525,652,0,0,0,0,0,0,0,0,0,-1,1749,372,0,0
532,652,0,0,0,0,0,0,0,0,0,-1,1756,372,0,0
539,652,0,0,0,0,0,0,0,0,0,-1,1763,372,0,0
546,652,0,0,0,0,0,0,0,0,0,-1,1770,372,0,0
553,652,0,0,0,0,0,0,0,0,0,-1,1777,372,0,0
560,652,0,0,0,0,0,0,0,0,0,-1,1784,372,0,0
567,652,0,0,0,0,0,0,0,0,0,-1,1791,372,0,0
574,652,0,0,0,0,0,0,0,0,0,-1,1798,372,0,0
581,652,0,0,0,0,0,0,0,0,0,-1,1805,372,0,0
588,652,0,0,0,0,0,0,0,0,0,-1,1812,372,0,0
595,652,0,0,0,0,0,0,0,0,0,-1,1819,372,0,0
602,652,0,0,0,0,0,0,0,0,0,-1,1826,372,0,0
609,652,0,0,0,0,0,0,0,0,0,-1,1833,372,0,0
616,652,0,0,0,0,0,0,0,0,0,-1,1840,372,0,0
623,652,0,0,0,0,0,0,0,0,0,-1,1847,372,0,0
630,652,0,0,0,0,0,0,0,0,0,-1,1854,372,0,0
637,652,0,0,0,0,0,0,0,0,0,-1,1861,372,0,0
644,652,0,0,0,0,0,0,0,0,0,-1,1868,372,0,0
651,652,0,0,0,0,0,0,0,0,0,-1,1875,372,0,0
658,652,0,0,0,0,0,0,0,0,0,-1,1882,372,0,0
665,652,0,0,0,0,0,0,0,0,0,-1,1889,372,0,0
672,652,0,0,0,0,0,0,0,0,0,-1,1896,372,0,0
679,652,0,0,0,0,0,0,0,0,0,-1,1903,372,0,0
686,652,0,0,0,0,0,0,0,0,0,-1,1910,372,0,0
693,652,0,0,0,0,0,0,0,0,0,-1,1917,372,0,0
700,652,0,0,0,0,0,0,0,0,0,-1,1924,372,0,0
707,652,0,0,0,0,0,0,0,0,0,-1,1931,372,0,0
714,652,0,0,0,0,0,0,0,0,0,-1,1938,372,0,0
721,652,0,0,0,0,0,0,0,0,0,-1,1945,372,0,0
728,652,0,0,0,0,0,0,0,0,0,-1,1952,372,0,0
735,652,0,0,0,0,0,0,0,0,0,-1,1959,372,0,0
742,652,0,0,0,0,0,0,0,0,0,-1,1966,372,0,0
749,652,0,0,0,0,0,0,0,0,0,-1,1973,372,0,0
756,652,0,0,0,0,0,0,0,0,0,-1,1980,372,0,0
763,652,0,0,0,0,0,0,0,0,0,-1,1987,372,0,0
770,652,0,0,0,0,0,0,0,0,0,-1,1994,372,0,0
777,652,0,0,0,0,0,0,0,0,0,-1,2001,372,0,0
784,652,0,0,0,0,0,0,0,0,0,-1,2008,372,0,0
791,652,0,0,0,0,0,0,0,0,0,-1,2015,372,0,0
798,652,0,0,0,0,0,0,0,0,0,-1,2022,372,0,0
805,652,0,0,0,0,0,0,0,0,0,-1,2029,372,0,0
812,652,0,0,0,0,0,0,0,0,0,-1,2036,372,0,0
-700,645,0,0,0,0,0,0,0,0,0,-1,524,379,0,0
-693,645,0,0,0,0,0,0,0,0,0,-1,531,379,0,0
-686,645,0,0,0,0,0,0,0,0,0,-1,538,379,0,0
-679,645,0,0,0,0,0,0,0,0,0,-1,545,379,0,0
-672,645,0,0,0,0,0,0,0,0,0,-1,552,379,0,0
-665,645,0,0,0,0,0,0,0,0,0,-1,559,379,0,0
-658,645,0,0,0,0,0,0,0,0,0,-1,566,379,0,0
-651,645,0,0,0,0,0,0,0,0,0,-1,573,379,0,0
-644,645,0,0,0,0,0,0,0,0,0,-1,580,379,0,0
-637,645,0,0,0,0,0,0,0,0,0,-1,587,379,0,0
-630,645,0,0,0,0,0,0,0,0,0,-1,594,379,0,0
-623,645,0,0,0,0,0,0,0,0,0,-1,601,379,0,0
-616,645,0,0,0,0,0,0,0,0,0,-1,608,379,0,0
-609,645,0,0,0,0,0,0,0,0,0,-1,615,379,0,0
-602,645,0,0,0,0,0,0,0,0,0,-1,622,379,0,0
-595,645,0,0,0,0,0,0,0,0,0,-1,629,379,0,0
-588,645,0,0,0,0,0,0,0,0,0,-1,636,379,0,0
-581,645,0,0,0,0,0,0,0,0,0,-1,643,379,0,0
-574,645,0,0,0,0,0,0,0,0,0,-1,650,379,0,0
-567,645,0,0,0,0,0,0,0,0,0,-1,657,379,0,0
-560,645,0,0,0,0,0,0,0,0,0,-1,664,379,0,0
-553,645,0,0,0,0,0,0,0,0,0,-1,671,379,0,0
-546,645,0,0,0,0,0,0,0,0,0,-1,678,379,0,0
-539,645,0,0,0,0,0,0,0,0,0,-1,685,379,0,0
-532,645,0,0,0,0,0,0,0,0,0,-1,692,379,0,0
-525,645,0,0,0,0,0,0,0,0,0,-1,699,379,0,0
-518,645,0,0,0,0,0,0,0,0,0,-1,706,379,0,0
-511,645,0,0,0,0,0,0,0,0,0,-1,713,379,0,0
-504,645,0,0,0,0,0,0,0,0,0,-1,720,379,0,0
-497,645,0,0,0,0,0,0,0,0,0,-1,727,379,0,0
-490,645,0,0,0,0,0,0,0,0,0,-1,734,379,0,0
-483,645,0,0,0,0,0,0,0,0,0,-1,741,379,0,0
-476,645,0,0,0,0,0,0,0,0,0,-1,748,379,0,0
-469,645,0,0,0,0,0,0,0,0,0,-1,755,379,0,0
-462,645,0,0,0,0,0,0,0,0,0,-1,762,379,0,0
-455,645,0,0,0,0,0,0,0,0,0,-1,769,379,0,0
-448,645,0,0,0,0,0,0,0,0,0,-1,776,379,0,0
-441,645,0,0,0,0,0,0,0,0,0,-1,783,379,0,0
-434,645,0,0,0,0,0,0,0,0,0,-1,790,379,0,0
-427,645,0,0,0,0,0,0,0,0,0,-1,797,379,0,0
-420,645,0,0,0,0,0,0,0,0,0,-1,804,379,0,0
-413,645,0,0,0,0,0,0,0,0,0,-1,811,379,0,0
-406,645,0,0,0,0,0,0,0,0,0,-1,818,379,0,0
-399,645,0,0,0,0,0,0,0,0,0,-1,825,379,0,0
-392,645,0,0,0,0,0,0,0,0,0,-1,832,379,0,0
-385,645,0,0,0,0,0,0,0,0,0,-1,839,379,0,0
-378,645,0,0,0,0,0,0,0,0,0,-1,846,379,0,0
-371,645,0,0,0,0,0,0,0,0,0,-1,853,379,0,0
-364,645,0,0,0,0,0,0,0,0,0,-1,860,379,0,0
-357,645,0,0,0,0,0,0,0,0,0,-1,867,379,0,0
-350,645,0,0,0,0,0,0,0,0,0,-1,874,379,0,0
-343,645,0,0,0,0,0,0,0,0,0,-1,881,379,0,0
-336,645,0,0,0,0,0,0,0,0,0,-1,888,379,0,0
-329,645,0,0,0,0,0,0,0,0,0,-1,895,379,0,0
-322,645,0,0,0,0,0,0,0,0,0,-1,902,379,0,0
-315,645,0,0,0,0,0,0,0,0,0,-1,909,379,0,0
-308,645,0,0,0,0,0,0,0,0,0,-1,916,379,0,0
-301,645,0,0,0,0,0,0,0,0,0,-1,923,379,0,0
-294,645,0,0,0,0,0,0,0,0,0,-1,930,379,0,0
-287,645,0,0,0,0,0,0,0,0,0,-1,937,379,0,0
-280,645,0,0,0,0,0,0,0,0,0,-1,944,379,0,0
-273,645,0,0,0,0,0,0,0,0,0,-1,951,379,0,0
-266,645,0,0,0,0,0,0,0,0,0,-1,958,379,0,0
-259,645,0,0,0,0,0,0,0,0,0,-1,965,379,0,0
-252,645,2.95691,-26.9133,0,0,0,0,0,0,0,-1,972,379,2.9569,26.9133
-245,645,2.73169,-27.0215,0,0,0,0,0,0,0,-1,979,379,2.73172,27.0215
-238,645,2.6665,-26.9464,0,0,0,0,0,0,0,-1,986,379,2.66649,26.9464
-231,645,7.26807,-29.1054,0,0,0,0,0,0,0,-1,993,379,7.26806,29.1054
-224,645,7.69073,-29.5737,0,0,0,0,0,0,0,-1,1000,379,7.69071,29.5737
-217,645,8.65485,-33.4136,0,0,0,0,0,0,0,-1,1007,379,8.65487,33.4136
-210,645,9.21594,-32.5157,0,0,0,0,0,0,0,-1,1014,379,9.21591,32.5156
-203,645,9.77698,-31.6176,0,0,0,0,0,0,0,-1,1021,379,9.77696,31.6177
-196,645,10.2664,-29.7741,0,0,0,0,0,0,0,-1,1028,379,10.2664,29.7741
-189,645,5.88062,-28.2191,0,0,0,0,0,0,0,-1,1035,379,5.88062,28.2191
-182,645,6.34167,-29.2525,0,0,0,0,0,0,0,-1,1042,379,6.3417,29.2525
-175,645,6.36462,-35.5586,0,0,0,0,0,0,0,-1,1049,379,6.3646,35.5586
-168,645,7.19116,-39.5785,0,0,0,0,0,0,0,-1,1056,379,7.19115,39.5785
-161,645,7.22083,-37.6093,0,0,0,0,0,0,0,-1,1063,379,7.22085,37.6094
-154,645,7.42102,-41.6806,0,0,0,0,0,0,0,-1,1070,379,7.42105,41.6806
-147,645,8.78235,-49.6402,0,0,0,0,0,0,0,-1,1077,379,8.78231,49.6402
-140,645,8.30872,-49.989,0,0,0,0,0,0,0,-1,1084,379,8.3087,49.989
-133,645,8.33496,-50.9663,0,0,0,0,0,0,0,-1,1091,379,8.33493,50.9663
-126,645,8.34131,-51.4686,0,0,0,0,0,0,0,-1,1098,379,8.3413,51.4686
-119,645,8.16003,-51.9425,0,0,0,0,0,0,0,-1,1105,379,8.16,51.9425
-112,645,8.07849,-52.5552,0,0,0,0,0,0,0,-1,1112,379,8.07845,52.5552
-105,645,8.02917,-53.1652,0,0,0,0,0,0,0,-1,1119,379,8.02923,53.1652
-98,645,7.92822,-53.6826,0,0,0,0,0,0,0,-1,1126,379,7.92821,53.6826
-91,645,7.8219,-54.1847,0,0,0,0,0,0,0,-1,1133,379,7.82186,54.1847
-84,645,7.96802,-54.4698,0,0,0,0,0,0,0,-1,1140,379,7.968,54.4698
-77,645,7.83276,-55.0774,-0.00713867,0.00443381,-0.00186986,0.00472844,-0.0074333,-1.41451,0.00707923,0.0445727,1147,379,7.8328,55.0774
-70,645,7.73352,-55.4828,-0.00710317,0.00506084,-0.00180131,0.00532198,-0.00736431,-1.42683,0.007356,0.0158623,1154,379,7.73355,55.4829
-63,645,7.68176,-55.8614,-0.00665993,0.00807953,-0.00290667,0.00863202,-0.00721242,-1.38296,0.00916002,0.0121083,1161,379,7.68177,55.8614
-56,645,7.63062,-56.2159,-0.00615007,0.0106219,-0.00370466,0.0114038,-0.00693192,-1.3628,0.0106906,0.01491,1168,379,7.63062,56.2159
-49,645,7.5874,-56.5911,-0.0056412,0.0115234,-0.00386378,0.012353,-0.00647084,-1.35928,0.0110434,0.0120834,1175,379,7.58735,56.5911
-42,645,7.52234,-56.9353,-0.00506238,0.0127654,-0.00390738,0.0135842,-0.00588117,-1.36424,0.0115279,0.010875,1182,379,7.52233,56.9353
-35,645,7.4718,-57.2865,-0.00474851,0.0142246,-0.00396386,0.0150194,-0.00554334,-1.3729,0.0122849,0.0110522,1189,379,7.47181,57.2865
-28,645,7.42151,-57.6068,-0.00450761,0.015417,-0.00394493,0.0161697,-0.00526024,-1.38228,0.0128959,0.00952799,1196,379,7.42149,57.6067
-21,645,7.37109,-57.8662,-0.00417904,0.01635,-0.00388956,0.0170622,-0.00489127,-1.38969,0.0133083,0.0113739,1203,379,7.37107,57.8662
-14,645,7.35046,-58.138,-0.00394925,0.0170172,-0.0037552,0.0176695,-0.00460153,-1.39881,0.013576,0.011822,1210,379,7.35052,58.138
-7,645,7.33899,-58.381,-0.00365155,0.0174096,-0.00368096,0.0180344,-0.00427635,-1.40266,0.0136731,0.0156161,1217,379,7.33899,58.3809
0,645,7.29407,-58.5556,-0.00338568,0.017504,-0.00349997,0.0180748,-0.00395649,-1.40913,0.0135624,0.0278983,1224,379,7.29402,58.5556
7,645,7.26123,-58.7227,-0.00317208,0.0174643,-0.00327,0.01797,-0.00367784,-1.41734,0.0133756,0.0183111,1231,379,7.26118,58.7227
14,645,7.23169,-58.8908,-0.00306034,0.0172059,-0.00302044,0.0176465,-0.00350092,-1.42595,0.0130883,0.0185276,1238,379,7.23172,58.8908
21,645,7.18604,-59.0619,-0.00295765,0.0167302,-0.00257718,0.017062,-0.00328942,-1.44277,0.0126149,0.0127369,1245,379,7.18602,59.0619
28,645,7.1748,-59.2168,-0.00280536,0.0168784,-0.00206994,0.0170937,-0.00302068,-1.46715,0.0125247,0.0104225,1252,379,7.17479,59.2168
35,645,7.15027,-59.328,-0.00272608,0.0167822,-0.00164129,0.0169193,-0.00286321,-1.48744,0.0123451,0.00936887,1259,379,7.15028,59.328
42,645,7.13123,-59.4163,-0.00276356,0.0165257,-0.00104962,0.0165827,-0.0028205,-1.5166,0.0121053,0.00960865,1266,379,7.13125,59.4163
49,645,7.15869,-59.4635,-0.00285808,0.0164148,-0.000536775,0.0164298,-0.00287301,-1.54297,0.0120258,0.0133022,1273,379,7.15872,59.4635
56,645,7.15308,-59.4734,-0.00304914,0.0165691,-0.000401079,0.0165773,-0.00305734,-1.55036,0.012199,0.01319,1280,379,7.15303,59.4734
63,645,7.10327,-59.5076,-0.00325937,0.0164512,-0.000227814,0.0164539,-0.00326201,-1.55924,0.0122028,0.0125635,1287,379,7.10325,59.5076
70,645,7.05042,-59.484,-0.00342424,0.0163203,-8.80799e-06,0.0163203,-0.00342425,-1.57035,0.0121831,0.0168355,1294,379,7.05043,59.484
77,645,7.02368,-59.4753,-0.00389518,0.0162046,0.000189015,0.0162064,-0.00389695,1.56139,0.0123106,0.0186786,1301,379,7.02368,59.4753
84,645,7.03894,-59.4167,-0.00453584,0.0158141,0.000197607,0.015816,-0.00453776,1.56109,0.012338,0.0135549,1308,379,7.0389,59.4167
91,645,7.00183,-59.3641,-0.00510222,0.0152945,7.48906e-05,0.0152948,-0.00510249,1.56712,0.0122566,0.0164742,1315,379,7.00184,59.3641
98,645,6.97559,-59.2513,-0.00567081,0.0150096,0.000243304,0.0150125,-0.00567367,1.55903,0.0123422,0.0148012,1322,379,6.97559,59.2513
105,645,6.93811,-59.114,-0.0060418,0.0149007,0.000380905,0.0149076,-0.00604872,1.55262,0.0124543,0.0113279,1329,379,6.93812,59.114
112,645,6.89771,-58.9679,-0.00638473,0.0146641,0.000536056,0.0146777,-0.00639837,1.54535,0.0124773,0.00989798,1336,379,6.89767,58.9679
119,645,6.87695,-58.7793,-0.00658628,0.0143797,0.000754087,0.0144068,-0.00661337,1.53489,0.0124109,0.00975418,1343,379,6.87696,58.7793
126,645,6.83557,-58.5605,-0.00665965,0.0144299,0.000850015,0.0144641,-0.00669386,1.53058,0.0124871,0.0130076,1350,379,6.83561,58.5605
133,645,6.81372,-58.3369,-0.00671905,0.0138971,0.00112655,0.0139585,-0.00678043,1.51637,0.0122103,0.0134946,1357,379,6.81371,58.3369
140,645,6.77539,-58.1035,-0.00657897,0.01427,0.00171485,0.0144101,-0.00671907,1.48928,0.0124654,0.0129818,1364,379,6.77541,58.1035
147,645,6.72681,-57.8373,-0.00630904,0.0151947,0.00225814,0.0154292,-0.00654361,1.46729,0.0130272,0.0143414,1371,379,6.72683,57.8373
154,645,6.71692,-57.5455,-0.00603662,0.0159765,0.0027734,0.0163205,-0.00638066,1.44738,0.0135188,0.0130274,1378,379,6.7169,57.5455
161,645,6.65662,-57.2296,-0.00573693,0.0165343,0.00347009,0.0170625,-0.00626509,1.41975,0.0139408,0.0157706,1385,379,6.65656,57.2296
168,645,6.60681,-56.8902,-0.00553221,0.0170631,0.00383364,0.0176958,-0.00616493,1.40723,0.0143022,0.0177359,1392,379,6.60684,56.8902
175,645,6.6106,-56.5401,-0.00546084,0.0170999,0.00397873,0.017781,-0.00614195,1.40125,0.0143465,0.015434,1399,379,6.61056,56.5401
182,645,6.55627,-56.1721,-0.00502081,0.017055,0.00408183,0.0177855,-0.00575136,1.39369,0.0141687,0.0115267,1406,379,6.55622,56.1721
189,645,6.50769,-55.7514,-0.00457409,0.0168517,0.00420504,0.0176474,-0.00536982,1.38378,0.0139049,0.0121101,1413,379,6.50764,55.7514
196,645,6.42944,-55.373,-0.00455805,0.0163469,0.00441715,0.0172419,-0.00545306,1.37088,0.0136795,0.011687,1420,379,6.42942,55.373
203,645,6.35864,-54.908,-0.00472355,0.0153825,0.00454759,0.0163632,-0.00570429,1.35839,0.0132268,0.0119993,1427,379,6.3587,54.908
210,645,6.34351,-54.3598,-0.00502671,0.0137654,0.00459928,0.0148307,-0.00609197,1.34319,0.0124259,0.0219657,1434,379,6.34353,54.3598
217,645,6.31372,-53.9761,-0.00520545,0.0145295,0.00449262,0.0155042,-0.00618006,1.35717,0.0128994,0.0499523,1441,379,6.31371,53.9761
224,645,6.198,-53.5154,0,0,0,0,0,0,0,-1,1448,379,6.19806,53.5154
231,645,6.11401,-52.9436,0,0,0,0,0,0,0,-1,1455,379,6.11399,52.9436
238,645,6.02246,-52.4131,0,0,0,0,0,0,0,-1,1462,379,6.02252,52.4131
245,645,6.01196,-51.7073,0,0,0,0,0,0,0,-1,1469,379,6.01201,51.7073
252,645,6.02148,-51.0865,0,0,0,0,0,0,0,-1,1476,379,6.02148,51.0865
259,645,5.90247,-50.6332,0,0,0,0,0,0,0,-1,1483,379,5.90253,50.6332
266,645,5.73816,-49.8855,-0.0047547,0.0285225,0.00637004,0.0297002,-0.00593239,1.38798,0.0220453,0.0456222,1490,379,5.73821,49.8855
273,645,5.70361,-49.4339,-0.00476244,0.0303493,0.00707247,0.0317203,-0.0061335,1.37931,0.0234602,0.0341192,1497,379,5.70367,49.4339
280,645,5.8252,-48.9398,0,0,0,0,0,0,0,-1,1504,379,5.82525,48.9398
287,645,5.25439,-22.6157,0,0,0,0,0,0,0,-1,1511,379,5.25445,22.6157
294,645,3.76428,-22.9539,0,0,0,0,0,0,0,-1,1518,379,3.7643,22.9539
301,645,1.35217,-22.1208,0,0,0,0,0,0,0,-1,1525,379,1.3522,22.1208
308,645,-0.529297,-21.7611,0,0,0,0,0,0,0,-1,1532,379,-0.529316,21.7611
315,645,5.62427,-45.4924,0,0,0,0,0,0,0,-1,1539,379,5.62432,45.4924
322,645,5.8894,-44.4522,0,0,0,0,0,0,0,-1,1546,379,5.88945,44.4522
329,645,-4.45581,-22.707,0,0,0,0,0,0,0,-1,1553,379,-4.45579,22.707
336,645,-5.83154,-22.8404,0,0,0,0,0,0,0,-1,1560,379,-5.83149,22.8404
343,645,4.03186,-38.0623,0,0,0,0,0,0,0,-1,1567,379,4.03187,38.0623
350,645,4.76404,-22.1987,0,0,0,0,0,0,0,-1,1574,379,4.76399,22.1987
357,645,4.61316,-21.967,0,0,0,0,0,0,0,-1,1581,379,4.61316,21.967
364,645,-0.0794678,-3.22021,0,0,0,0,0,0,0,-1,1588,379,-0.0794987,3.22021
371,645,0,0,0,0,0,0,0,0,0,-1,1595,379,0,0
378,645,0,0,0,0,0,0,0,0,0,-1,1602,379,0,0
385,645,0,0,0,0,0,0,0,0,0,-1,1609,379,0,0
392,645,0,0,0,0,0,0,0,0,0,-1,1616,379,0,0
399,645,0,0,0,0,0,0,0,0,0,-1,1623,379,0,0
406,645,0,0,0,0,0,0,0,0,0,-1,1630,379,0,0
413,645,0,0,0,0,0,0,0,0,0,-1,1637,379,0,0
420,645,0,0,0,0,0,0,0,0,0,-1,1644,379,0,0
427,645,0,0,0,0,0,0,0,0,0,-1,1651,379,0,0
434,645,0,0,0,0,0,0,0,0,0,-1,1658,379,0,0
441,645,0,0,0,0,0,0,0,0,0,-1,1665,379,0,0
448,645,0,0,0,0,0,0,0,0,0,-1,1672,379,0,0
455,645,0,0,0,0,0,0,0,0,0,-1,1679,379,0,0
462,645,0,0,0,0,0,0,0,0,0,-1,1686,379,0,0
469,645,0,0,0,0,0,0,0,0,0,-1,1693,379,0,0
476,645,0,0,0,0,0,0,0,0,0,-1,1700,379,0,0
483,645,0,0,0,0,0,0,0,0,0,-1,1707,379,0,0
490,645,0,0,0,0,0,0,0,0,0,-1,1714,379,0,0
497,645,0,0,0,0,0,0,0,0,0,-1,1721,379,0,0
504,645,0,0,0,0,0,0,0,0,0,-1,1728,379,0,0
511,645,0,0,0,0,0,0,0,0,0,-1,1735,379,0,0
518,645,0,0,0,0,0,0,0,0,0,-1,1742,379,0,0
525,645,0,0,0,0,0,0,0,0,0,-1,1749,379,0,0
532,645,0,0,0,0,0,0,0,0,0,-1,1756,379,0,0
539,645,0,0,0,0,0,0,0,0,0,-1,1763,379,0,0
546,645,0,0,0,0,0,0,0,0,0,-1,1770,379,0,0
553,645,0,0,0,0,0,0,0,0,0,-1,1777,379,0,0
560,645,0,0,0,0,0,0,0,0,0,-1,1784,379,0,0
567,645,0,0,0,0,0,0,0,0,0,-1,1791,379,0,0
574,645,0,0,0,0,0,0,0,0,0,-1,1798,379,0,0
581,645,0,0,0,0,0,0,0,0,0,-1,1805,379,0,0
588,645,0,0,0,0,0,0,0,0,0,-1,1812,379,0,0
595,645,0,0,0,0,0,0,0,0,0,-1,1819,379,0,0
602,645,0,0,0,0,0,0,0,0,0,-1,1826,379,0,0
609,645,0,0,0,0,0,0,0,0,0,-1,1833,379,0,0
616,645,0,0,0,0,0,0,0,0,0,-1,1840,379,0,0
623,645,0,0,0,0,0,0,0,0,0,-1,1847,379,0,0
630,645,0,0,0,0,0,0,0,0,0,-1,1854,379,0,0
637,645,0,0,0,0,0,0,0,0,0,-1,1861,379,0,0
644,645,0,0,0,0,0,0,0,0,0,-1,1868,379,0,0
651,645,0,0,0,0,0,0,0,0,0,-1,1875,379,0,0
658,645,0,0,0,0,0,0,0,0,0,-1,1882,379,0,0
665,645,0,0,0,0,0,0,0,0,0,-1,1889,379,0,0
672,645,0,0,0,0,0,0,0,0,0,-1,1896,379,0,0
679,645,0,0,0,0,0,0,0,0,0,-1,1903,379,0,0
686,645,0,0,0,0,0,0,0,0,0,-1,1910,379,0,0
693,645,0,0,0,0,0,0,0,0,0,-1,1917,379,0,0
700,645,0,0,0,0,0,0,0,0,0,-1,1924,379,0,0
707,645,0,0,0,0,0,0,0,0,0,-1,1931,379,0,0
714,645,0,0,0,0,0,0,0,0,0,-1,1938,379,0,0
721,645,0,0,0,0,0,0,0,0,0,-1,1945,379,0,0
728,645,0,0,0,0,0,0,0,0,0,-1,1952,379,0,0
735,645,0,0,0,0,0,0,0,0,0,-1,1959,379,0,0
742,645,0,0,0,0,0,0,0,0,0,-1,1966,379,0,0
749,645,0,0,0,0,0,0,0,0,0,-1,1973,379,0,0
756,645,0,0,0,0,0,0,0,0,0,-1,1980,379,0,0
763,645,0,0,0,0,0,0,0,0,0,-1,1987,379,0,0
770,645,0,0,0,0,0,0,0,0,0,-1,1994,379,0,0
777,645,0,0,0,0,0,0,0,0,0,-1,2001,379,0,0
784,645,0,0,0,0,0,0,0,0,0,-1,2008,379,0,0
791,645,0,0,0,0,0,0,0,0,0,-1,2015,379,0,0
798,645,0,0,0,0,0,0,0,0,0,-1,2022,379,0,0
805,645,0,0,0,0,0,0,0,0,0,-1,2029,379,0,0
812,645,0,0,0,0,0,0,0,0,0,-1,2036,379,0,0
-700,638,0,0,0,0,0,0,0,0,0,-1,524,386,0,0
-693,638,0,0,0,0,0,0,0,0,0,-1,531,386,0,0
-686,638,0,0,0,0,0,0,0,0,0,-1,538,386,0,0
-679,638,0,0,0,0,0,0,0,0,0,-1,545,386,0,0
-672,638,0,0,0,0,0,0,0,0,0,-1,552,386,0,0
-665,638,0,0,0,0,0,0,0,0,0,-1,559,386,0,0
-658,638,0,0,0,0,0,0,0,0,0,-1,566,386,0,0
-651,638,0,0,0,0,0,0,0,0,0,-1,573,386,0,0
-644,638,0,0,0,0,0,0,0,0,0,-1,580,386,0,0
-637,638,0,0,0,0,0,0,0,0,0,-1,587,386,0,0
-630,638,0,0,0,0,0,0,0,0,0,-1,594,386,0,0
-623,638,0,0,0,0,0,0,0,0,0,-1,601,386,0,0
-616,638,0,0,0,0,0,0,0,0,0,-1,608,386,0,0
-609,638,0,0,0,0,0,0,0,0,0,-1,615,386,0,0
-602,638,0,0,0,0,0,0,0,0,0,-1,622,386,0,0
-595,638,0,0,0,0,0,0,0,0,0,-1,629,386,0,0
-588,638,0,0,0,0,0,0,0,0,0,-1,636,386,0,0
-581,638,0,0,0,0,0,0,0,0,0,-1,643,386,0,0
-574,638,0,0,0,0,0,0,0,0,0,-1,650,386,0,0
-567,638,0,0,0,0,0,0,0,0,0,-1,657,386,0,0
-560,638,0,0,0,0,0,0,0,0,0,-1,664,386,0,0
-553,638,0,0,0,0,0,0,0,0,0,-1,671,386,0,0
-546,638,0,0,0,0,0,0,0,0,0,-1,678,386,0,0
-539,638,0,0,0,0,0,0,0,0,0,-1,685,386,0,0
-532,638,0,0,0,0,0,0,0,0,0,-1,692,386,0,0
-525,638,0,0,0,0,0,0,0,0,0,-1,699,386,0,0
-518,638,0,0,0,0,0,0,0,0,0,-1,706,386,0,0
-511,638,0,0,0,0,0,0,0,0,0,-1,713,386,0,0
-504,638,0,0,0,0,0,0,0,0,0,-1,720,386,0,0
-497,638,0,0,0,0,0,0,0,0,0,-1,727,386,0,0
-490,638,0,0,0,0,0,0,0,0,0,-1,734,386,0,0
-483,638,0,0,0,0,0,0,0,0,0,-1,741,386,0,0
-476,638,0,0,0,0,0,0,0,0,0,-1,748,386,0,0
-469,638,0,0,0,0,0,0,0,0,0,-1,755,386,0,0
-462,638,0,0,0,0,0,0,0,0,0,-1,762,386,0,0
-455,638,0,0,0,0,0,0,0,0,0,-1,769,386,0,0
-448,638,0,0,0,0,0,0,0,0,0,-1,776,386,0,0
-441,638,0,0,0,0,0,0,0,0,0,-1,783,386,0,0
-434,638,0,0,0,0,0,0,0,0,0,-1,790,386,0,0
-427,638,0,0,0,0,0,0,0,0,0,-1,797,386,0,0
-420,638,0,0,0,0,0,0,0,0,0,-1,804,386,0,0
-413,638,0,0,0,0,0,0,0,0,0,-1,811,386,0,0
-406,638,0,0,0,0,0,0,0,0,0,-1,818,386,0,0
-399,638,0,0,0,0,0,0,0,0,0,-1,825,386,0,0
-392,638,0,0,0,0,0,0,0,0,0,-1,832,386,0,0
-385,638,0,0,0,0,0,0,0,0,0,-1,839,386,0,0
-378,638,0,0,0,0,0,0,0,0,0,-1,846,386,0,0
-371,638,0,0,0,0,0,0,0,0,0,-1,853,386,0,0
-364,638,0,0,0,0,0,0,0,0,0,-1,860,386,0,0
-357,638,0,0,0,0,0,0,0,0,0,-1,867,386,0,0
-350,638,0,0,0,0,0,0,0,0,0,-1,874,386,0,0
-343,638,0,0,0,0,0,0,0,0,0,-1,881,386,0,0
-336,638,0,0,0,0,0,0,0,0,0,-1,888,386,0,0
-329,638,0,0,0,0,0,0,0,0,0,-1,895,386,0,0
-322,638,0,0,0,0,0,0,0,0,0,-1,902,386,0,0
-315,638,0,0,0,0,0,0,0,0,0,-1,909,386,0,0
-308,638,0,0,0,0,0,0,0,0,0,-1,916,386,0,0
-301,638,0,0,0,0,0,0,0,0,0,-1,923,386,0,0
-294,638,0,0,0,0,0,0,0,0,0,-1,930,386,0,0
-287,638,0,0,0,0,0,0,0,0,0,-1,937,386,0,0
-280,638,0,0,0,0,0,0,0,0,0,-1,944,386,0,0
-273,638,0,0,0,0,0,0,0,0,0,-1,951,386,0,0
-266,638,10.1613,-36.3326,0,0,0,0,0,0,0,-1,958,386,10.1612,36.3326
-259,638,9.95282,-34.6103,0,0,0,0,0,0,0,-1,965,386,9.9528,34.6103
-252,638,9.95746,-33.6964,0,0,0,0,0,0,0,-1,972,386,9.95744,33.6965
-245,638,9.84143,-32.9009,0,0,0,0,0,0,0,-1,979,386,9.84145,32.9009
-238,638,2.93518,-26.3649,0,0,0,0,0,0,0,-1,986,386,2.93516,26.3649
-231,638,2.36829,-26.0088,0,0,0,0,0,0,0,-1,993,386,2.3683,26.0088
-224,638,6.3465,-30.9124,0,0,0,0,0,0,0,-1,1000,386,6.34648,30.9124
-217,638,7.41205,-32.7263,0,0,0,0,0,0,0,-1,1007,386,7.41204,32.7262
-210,638,8.7038,-34.5688,0,0,0,0,0,0,0,-1,1014,386,8.70378,34.5689
-203,638,4.32593,-27.5803,0,0,0,0,0,0,0,-1,1021,386,4.32594,27.5803
-196,638,6.0614,-28.4651,0,0,0,0,0,0,0,-1,1028,386,6.06143,28.4651
-189,638,11.4561,-30.1556,0,0,0,0,0,0,0,-1,1035,386,11.456,30.1556
-182,638,6.45471,-33.4271,0,0,0,0,0,0,0,-1,1042,386,6.45473,33.427
-175,638,8.3075,-46.8206,0,0,0,0,0,0,0,-1,1049,386,8.30754,46.8206
-168,638,8.15454,-48.3373,0,0,0,0,0,0,0,-1,1056,386,8.15452,48.3373
-161,638,8.10547,-49.0131,0,0,0,0,0,0,0,-1,1063,386,8.10552,49.0131
-154,638,7.96411,-49.4963,0,0,0,0,0,0,0,-1,1070,386,7.96416,49.4963
-147,638,8.00598,-49.5002,-0.00612911,0.0240485,-0.00879058,0.0264224,-0.00850303,-1.30704,0.0210303,0.0487037,1077,386,8.00593,49.5002
-140,638,7.88794,-50.2244,-0.00597592,0.021562,-0.0078914,0.0236631,-0.00807701,-1.31058,0.0190474,0.0423628,1084,386,7.88794,50.2244
-133,638,7.81165,-51.1027,-0.0057955,0.0189315,-0.00708457,0.0208175,-0.00768147,-1.31062,0.0170265,0.035073,1091,386,7.81167,51.1027
-126,638,7.74121,-51.6176,-0.00579045,0.0159787,-0.0060795,0.0175615,-0.0073732,-1.31611,0.0147912,0.0229334,1098,386,7.74121,51.6176
-119,638,7.65222,-52.1555,-0.0056813,0.0133338,-0.00525465,0.0146893,-0.00703675,-1.31835,0.0128003,0.0219575,1105,386,7.65222,52.1555
-112,638,7.63538,-52.6925,-0.00549843,0.0110878,-0.00449433,0.0122273,-0.00663796,-1.32248,0.0110501,0.0193293,1112,386,7.63541,52.6925
-105,638,7.61597,-53.2293,-0.00531929,0.00915051,-0.00383267,0.010103,-0.00627176,-1.32722,0.00953983,0.017882,1119,386,7.61596,53.2293
-98,638,7.53479,-53.7296,-0.00522223,0.00735596,-0.00320013,0.00812332,-0.00598959,-1.33545,0.00817908,0.0163833,1126,386,7.53478,53.7296
-91,638,7.42004,-54.2029,-0.00511169,0.00498054,-0.00258887,0.00560589,-0.00573704,-1.33378,0.00654899,0.0126758,1133,386,7.42001,54.2029
-84,638,7.37598,-54.6524,-0.00491075,0.00360294,-0.00197941,0.00404064,-0.00534845,-1.35317,0.00543829,0.0150286,1140,386,7.37598,54.6524
-77,638,7.3363,-55.0975,-0.0046987,0.00349573,-0.00161399,0.00380217,-0.00500513,-1.38317,0.00510068,0.0129272,1147,386,7.33629,55.0975
-70,638,7.302,-55.5042,-0.00455289,0.00378102,-0.00148271,0.00403696,-0.00480882,-1.39987,0.00511359,0.013472,1154,386,7.30194,55.5043
-63,638,7.28271,-55.8916,-0.0043078,0.00498239,-0.00194933,0.00537483,-0.00470024,-1.37213,0.00582119,0.0131871,1161,386,7.28268,55.8916
-56,638,7.26624,-56.2546,-0.0039857,0.00605719,-0.00231081,0.00656338,-0.00449189,-1.35515,0.00642,0.0170524,1168,386,7.26628,56.2546
-49,638,7.24292,-56.6231,-0.00354384,0.00642811,-0.00229265,0.00692996,-0.00404569,-1.3553,0.00640931,0.0141254,1175,386,7.24286,56.6231
-42,638,7.21277,-56.9782,-0.00301168,0.00703991,-0.00221152,0.00750496,-0.00347673,-1.36353,0.00648091,0.0121558,1182,386,7.21272,56.9782
-35,638,7.17383,-57.3079,-0.00265115,0.00784931,-0.00212783,0.00826411,-0.00306596,-1.37827,0.00676701,0.0114828,1189,386,7.17384,57.3079
-28,638,7.1499,-57.6154,-0.00238418,0.00844091,-0.00206149,0.0088202,-0.00276347,-1.38884,0.00698593,0.010885,1196,386,7.14993,57.6154
-21,638,7.1095,-57.8771,-0.00211512,0.00884205,-0.00203275,0.00920701,-0.00248008,-1.39315,0.00711036,0.012833,1203,386,7.10945,57.8771
-14,638,7.08667,-58.1606,-0.00192562,0.00917759,-0.00198895,0.00952313,-0.00227116,-1.39879,0.00722577,0.0133888,1210,386,7.08668,58.1606
-7,638,7.09265,-58.4587,-0.00170801,0.00925814,-0.00199509,0.00960983,-0.0020597,-1.39631,0.00719211,0.0192903,1217,386,7.09263,58.4587
0,638,7.11987,-58.6238,-0.00157214,0.00905272,-0.00198011,0.00940975,-0.00192916,-1.39241,0.00700533,0.0346432,1224,386,7.11987,58.6238
7,638,7.09302,-58.7819,-0.00145071,0.00886163,-0.00190896,0.00920366,-0.00179274,-1.39351,0.00681245,0.0255741,1231,386,7.09298,58.7819
14,638,7.04065,-58.9404,-0.00146517,0.00856,-0.00178878,0.00886961,-0.00177478,-1.39941,0.00658488,0.0134644,1238,386,7.04067,58.9404
21,638,7.05627,-59.1112,-0.00143069,0.00809838,-0.00156006,0.00834728,-0.0016796,-1.41258,0.00620102,0.0121966,1245,386,7.0563,59.1112
28,638,7.06543,-59.2325,-0.00132038,0.00801779,-0.00126454,0.008186,-0.00148859,-1.43855,0.00601524,0.00977316,1252,386,7.06547,59.2325
35,638,7.05969,-59.3381,-0.00118328,0.00781171,-0.000981148,0.00791749,-0.00128905,-1.4634,0.00575632,0.0112257,1259,386,7.05972,59.3381
42,638,7.0719,-59.4297,-0.00108018,0.00757544,-0.000573575,0.00761328,-0.00111802,-1.50491,0.0054863,0.0108234,1266,386,7.07186,59.4297
49,638,7.11792,-59.4816,-0.000999242,0.00755156,-0.000190842,0.00755582,-0.0010035,-1.54849,0.00540286,0.00946868,1273,386,7.11793,59.4816
56,638,7.09924,-59.5181,-0.000970758,0.00786739,1.45777e-05,0.00786741,-0.000970783,1.56915,0.00559667,0.0123695,1280,386,7.09922,59.5181
63,638,7.0625,-59.541,-0.000919919,0.00804326,0.000268328,0.00805129,-0.000927945,1.5409,0.00570207,0.0151025,1287,386,7.06255,59.541
70,638,7.04651,-59.5351,-0.000819274,0.00816213,0.000508904,0.00819087,-0.000848017,1.51438,0.00576409,0.0200718,1294,386,7.04646,59.5351
77,638,7.05359,-59.5124,-0.000967654,0.00838293,0.000752187,0.00844305,-0.00102778,1.49104,0.00600071,0.019483,1301,386,7.05356,59.5124
84,638,7.09253,-59.4467,-0.00129397,0.00835981,0.00080329,0.00842619,-0.00136035,1.48834,0.00612151,0.0142587,1308,386,7.09256,59.4467
91,638,7.09497,-59.3486,-0.00168358,0.00808403,0.000729005,0.00813814,-0.00173769,1.49671,0.00608789,0.0164168,1315,386,7.09495,59.3486
98,638,7.08289,-59.2344,-0.00210618,0.00802432,0.000817226,0.00808982,-0.00217168,1.49082,0.00624428,0.0141069,1322,386,7.08286,59.2344
105,638,7.0575,-59.1268,-0.00234167,0.00806741,0.000904439,0.00814541,-0.00241967,1.48477,0.00639138,0.0109304,1329,386,7.05746,59.1268
112,638,7.05286,-58.9787,-0.0026417,0.00786953,0.000939528,0.00795285,-0.00272502,1.48235,0.00640643,0.0109617,1336,386,7.05285,58.9787
119,638,7.05652,-58.7842,-0.00276274,0.00765244,0.000962158,0.00774057,-0.00285088,1.47945,0.00632847,0.0133052,1343,386,7.05657,58.7842
126,638,7.04297,-58.5654,-0.00283959,0.00776084,0.000930135,0.00784183,-0.00292058,1.48394,0.00642657,0.0177576,1350,386,7.04293,58.5654
133,638,7.02161,-58.3562,-0.00290845,0.00760658,0.000998452,0.00770055,-0.00300241,1.47696,0.00637472,0.0176479,1357,386,7.02157,58.3562
140,638,7.00916,-58.1397,-0.00287008,0.00805,0.00124838,0.0081909,-0.00301098,1.45841,0.00669393,0.0179527,1364,386,7.00915,58.1397
147,638,6.99854,-57.8788,-0.00270038,0.00874024,0.0014614,0.00892396,-0.00288411,1.44573,0.00710846,0.0191185,1371,386,6.99853,57.8788
154,638,6.99243,-57.5955,-0.00250056,0.00941608,0.00167631,0.00964739,-0.00273188,1.43367,0.00750972,0.0169923,1378,386,6.99247,57.5955
161,638,6.96716,-57.2448,-0.00231137,0.0100418,0.00202389,0.010365,-0.0026345,1.41247,0.00793528,0.0205523,1385,386,6.96717,57.2448
168,638,6.96216,-56.8752,-0.0022385,0.0106692,0.00225223,0.0110509,-0.00262019,1.40292,0.00837838,0.0249321,1392,386,6.96216,56.8752
175,638,6.97961,-56.5644,-0.00236798,0.0110043,0.00243439,0.0114337,-0.00279737,1.39621,0.00870601,0.020121,1399,386,6.97967,56.5644
182,638,6.93347,-56.195,-0.00241453,0.0112579,0.00258201,0.0117293,-0.00288588,1.39023,0.00893813,0.0137272,1406,386,6.9335,56.195
189,638,6.87036,-55.7801,-0.00250374,0.0113825,0.00276283,0.011912,-0.00303324,1.38144,0.00912207,0.0124304,1413,386,6.87042,55.7801
196,638,6.82019,-55.3676,-0.00264176,0.011382,0.00303568,0.012011,-0.00327067,1.36651,0.00929144,0.0153593,1420,386,6.82018,55.3676
203,638,6.78198,-54.9461,-0.0028932,0.0111231,0.00326084,0.0118445,-0.00361469,1.35305,0.00933746,0.0213801,1427,386,6.78202,54.9461
210,638,6.75085,-54.5318,-0.00325271,0.0104549,0.00342822,0.0112645,-0.00406228,1.3389,0.0091688,0.0177682,1434,386,6.75089,54.5318
217,638,6.69702,-54.0661,-0.00347486,0.0112938,0.00347787,0.0120718,-0.00425288,1.35071,0.00977877,0.0136023,1441,386,6.69705,54.0661
224,638,6.64746,-53.5385,-0.00352037,0.0127431,0.00355035,0.0134844,-0.00426163,1.36497,0.010697,0.0116173,1448,386,6.6475,53.5385
231,638,6.55774,-53.0164,-0.0034808,0.0140196,0.00379297,0.0148063,-0.00426751,1.36628,0.011559,0.0123774,1455,386,6.55778,53.0164
238,638,6.49451,-52.5209,-0.00351774,0.0155024,0.00407154,0.0163373,-0.00435266,1.36854,0.0125956,0.0151266,1462,386,6.49455,52.5209
245,638,6.48059,-51.9131,-0.00360105,0.0172073,0.0043898,0.0180955,-0.00448922,1.37116,0.0138056,0.0257742,1469,386,6.48065,51.9131
252,638,6.56934,-51.2883,-0.0037047,0.0190452,0.00477609,0.0200072,-0.00466671,1.37203,0.0151354,0.0449207,1476,386,6.56932,51.2883
259,638,6.42517,-50.8788,-0.00380981,0.020577,0.00518918,0.0216353,-0.00486808,1.36962,0.0162905,0.0365745,1483,386,6.42514,50.8788
266,638,6.24609,-50.2691,-0.00396154,0.0219037,0.00570203,0.0231049,-0.00516278,1.36316,0.0173817,0.0164096,1490,386,6.24607,50.2691
273,638,6.22009,-49.6872,-0.00412414,0.0232415,0.00632114,0.024631,-0.0055137,1.35441,0.018534,0.0127125,1497,386,6.22009,49.6872
280,638,6.28076,-49.0487,-0.00420146,0.0244031,0.00700405,0.026026,-0.00582438,1.3431,0.019583,0.0253101,1504,386,6.28075,49.0487
287,638,6.39233,-48.2975,0,0,0,0,0,0,0,-1,1511,386,6.39236,48.2976
294,638,6.11133,-47.5225,0,0,0,0,0,0,0,-1,1518,386,6.11127,47.5225
301,638,5.8468,-46.8015,0,0,0,0,0,0,0,-1,1525,386,5.84676,46.8015
308,638,6.49963,-45.1722,0,0,0,0,0,0,0,-1,1532,386,6.49966,45.1722
315,638,6.39209,-45.6606,0,0,0,0,0,0,0,-1,1539,386,6.39211,45.6606
322,638,6.1698,-44.6835,0,0,0,0,0,0,0,-1,1546,386,6.16984,44.6835
329,638,6.06885,-44.2856,0,0,0,0,0,0,0,-1,1553,386,6.06881,44.2855
336,638,5.15234,-38.1966,0,0,0,0,0,0,0,-1,1560,386,5.15238,38.1966
343,638,4.8208,-37.2159,0,0,0,0,0,0,0,-1,1567,386,4.82078,37.2159
350,638,4.35254,-37.1565,0,0,0,0,0,0,0,-1,1574,386,4.35259,37.1565
357,638,0.387329,-3.01077,0,0,0,0,0,0,0,-1,1581,386,0.387332,3.01077
364,638,3.78149,-6.45215,0,0,0,0,0,0,0,-1,1588,386,3.78155,6.45216
371,638,4.18604,-6.71164,0,0,0,0,0,0,0,-1,1595,386,4.18598,6.71164
378,638,4.59045,-6.97113,0,0,0,0,0,0,0,-1,1602,386,4.5904,6.97112
385,638,0,0,0,0,0,0,0,0,0,-1,1609,386,0,0
392,638,0,0,0,0,0,0,0,0,0,-1,1616,386,0,0
399,638,0,0,0,0,0,0,0,0,0,-1,1623,386,0,0
406,638,0,0,0,0,0,0,0,0,0,-1,1630,386,0,0
413,638,0,0,0,0,0,0,0,0,0,-1,1637,386,0,0
420,638,0,0,0,0,0,0,0,0,0,-1,1644,386,0,0
427,638,0,0,0,0,0,0,0,0,0,-1,1651,386,0,0
434,638,0,0,0,0,0,0,0,0,0,-1,1658,386,0,0
441,638,0,0,0,0,0,0,0,0,0,-1,1665,386,0,0
448,638,0,0,0,0,0,0,0,0,0,-1,1672,386,0,0
455,638,0,0,0,0,0,0,0,0,0,-1,1679,386,0,0
462,638,0,0,0,0,0,0,0,0,0,-1,1686,386,0,0
469,638,0,0,0,0,0,0,0,0,0,-1,1693,386,0,0
476,638,0,0,0,0,0,0,0,0,0,-1,1700,386,0,0
483,638,0,0,0,0,0,0,0,0,0,-1,1707,386,0,0
490,638,0,0,0,0,0,0,0,0,0,-1,1714,386,0,0
497,638,0,0,0,0,0,0,0,0,0,-1,1721,386,0,0
504,638,0,0,0,0,0,0,0,0,0,-1,1728,386,0,0
511,638,0,0,0,0,0,0,0,0,0,-1,1735,386,0,0
518,638,0,0,0,0,0,0,0,0,0,-1,1742,386,0,0
525,638,0,0,0,0,0,0,0,0,0,-1,1749,386,0,0
532,638,0,0,0,0,0,0,0,0,0,-1,1756,386,0,0
539,638,0,0,0,0,0,0,0,0,0,-1,1763,386,0,0
546,638,0,0,0,0,0,0,0,0,0,-1,1770,386,0,0
553,638,0,0,0,0,0,0,0,0,0,-1,1777,386,0,0
560,638,0,0,0,0,0,0,0,0,0,-1,1784,386,0,0
567,638,0,0,0,0,0,0,0,0,0,-1,1791,386,0,0
574,638,0,0,0,0,0,0,0,0,0,-1,1798,386,0,0
581,638,0,0,0,0,0,0,0,0,0,-1,1805,386,0,0
588,638,0,0,0,0,0,0,0,0,0,-1,1812,386,0,0
595,638,0,0,0,0,0,0,0,0,0,-1,1819,386,0,0
602,638,0,0,0,0,0,0,0,0,0,-1,1826,386,0,0
609,638,0,0,0,0,0,0,0,0,0,-1,1833,386,0,0
616,638,0,0,0,0,0,0,0,0,0,-1,1840,386,0,0
623,638,0,0,0,0,0,0,0,0,0,-1,1847,386,0,0
630,638,0,0,0,0,0,0,0,0,0,-1,1854,386,0,0
637,638,0,0,0,0,0,0,0,0,0,-1,1861,386,0,0
644,638,0,0,0,0,0,0,0,0,0,-1,1868,386,0,0
651,638,0,0,0,0,0,0,0,0,0,-1,1875,386,0,0
658,638,0,0,0,0,0,0,0,0,0,-1,1882,386,0,0
665,638,0,0,0,0,0,0,0,0,0,-1,1889,386,0,0
672,638,0,0,0,0,0,0,0,0,0,-1,1896,386,0,0
679,638,0,0,0,0,0,0,0,0,0,-1,1903,386,0,0
686,638,0,0,0,0,0,0,0,0,0,-1,1910,386,0,0
693,638,0,0,0,0,0,0,0,0,0,-1,1917,386,0,0
700,638,0,0,0,0,0,0,0,0,0,-1,1924,386,0,0
707,638,0,0,0,0,0,0,0,0,0,-1,1931,386,0,0
714,638,0,0,0,0,0,0,0,0,0,-1,1938,386,0,0
721,638,0,0,0,0,0,0,0,0,0,-1,1945,386,0,0
728,638,0,0,0,0,0,0,0,0,0,-1,1952,386,0,0
735,638,0,0,0,0,0,0,0,0,0,-1,1959,386,0,0
742,638,0,0,0,0,0,0,0,0,0,-1,1966,386,0,0
749,638,0,0,0,0,0,0,0,0,0,-1,1973,386,0,0
756,638,0,0,0,0,0,0,0,0,0,-1,1980,386,0,0
763,638,0,0,0,0,0,0,0,0,0,-1,1987,386,0,0
770,638,0,0,0,0,0,0,0,0,0,-1,1994,386,0,0
777,638,0,0,0,0,0,0,0,0,0,-1,2001,386,0,0
784,638,0,0,0,0,0,0,0,0,0,-1,2008,386,0,0
791,638,0,0,0,0,0,0,0,0,0,-1,2015,386,0,0
798,638,0,0,0,0,0,0,0,0,0,-1,2022,386,0,0
805,638,0,0,0,0,0,0,0,0,0,-1,2029,386,0,0
812,638,0,0,0,0,0,0,0,0,0,-1,2036,386,0,0
-700,631,0,0,0,0,0,0,0,0,0,-1,524,393,0,0
-693,631,0,0,0,0,0,0,0,0,0,-1,531,393,0,0
-686,631,0,0,0,0,0,0,0,0,0,-1,538,393,0,0
-679,631,0,0,0,0,0,0,0,0,0,-1,545,393,0,0
-672,631,0,0,0,0,0,0,0,0,0,-1,552,393,0,0
-665,631,0,0,0,0,0,0,0,0,0,-1,559,393,0,0
-658,631,0,0,0,0,0,0,0,0,0,-1,566,393,0,0
-651,631,0,0,0,0,0,0,0,0,0,-1,573,393,0,0
-644,631,0,0,0,0,0,0,0,0,0,-1,580,393,0,0
-637,631,0,0,0,0,0,0,0,0,0,-1,587,393,0,0
-630,631,0,0,0,0,0,0,0,0,0,-1,594,393,0,0
-623,631,0,0,0,0,0,0,0,0,0,-1,601,393,0,0
-616,631,0,0,0,0,0,0,0,0,0,-1,608,393,0,0
-609,631,0,0,0,0,0,0,0,0,0,-1,615,393,0,0
-602,631,0,0,0,0,0,0,0,0,0,-1,622,393,0,0
-595,631,0,0,0,0,0,0,0,0,0,-1,629,393,0,0
-588,631,0,0,0,0,0,0,0,0,0,-1,636,393,0,0
-581,631,0,0,0,0,0,0,0,0,0,-1,643,393,0,0
-574,631,0,0,0,0,0,0,0,0,0,-1,650,393,0,0
-567,631,0,0,0,0,0,0,0,0,0,-1,657,393,0,0
-560,631,0,0,0,0,0,0,0,0,0,-1,664,393,0,0
-553,631,0,0,0,0,0,0,0,0,0,-1,671,393,0,0
-546,631,0,0,0,0,0,0,0,0,0,-1,678,393,0,0
-539,631,0,0,0,0,0,0,0,0,0,-1,685,393,0,0
-532,631,0,0,0,0,0,0,0,0,0,-1,692,393,0,0
-525,631,0,0,0,0,0,0,0,0,0,-1,699,393,0,0
-518,631,0,0,0,0,0,0,0,0,0,-1,706,393,0,0
-511,631,0,0,0,0,0,0,0,0,0,-1,713,393,0,0
-504,631,0,0,0,0,0,0,0,0,0,-1,720,393,0,0
-497,631,0,0,0,0,0,0,0,0,0,-1,727,393,0,0
-490,631,0,0,0,0,0,0,0,0,0,-1,734,393,0,0
-483,631,0,0,0,0,0,0,0,0,0,-1,741,393,0,0
-476,631,0,0,0,0,0,0,0,0,0,-1,748,393,0,0
-469,631,0,0,0,0,0,0,0,0,0,-1,755,393,0,0
-462,631,0,0,0,0,0,0,0,0,0,-1,762,393,0,0
-455,631,0,0,0,0,0,0,0,0,0,-1,769,393,0,0
-448,631,0,0,0,0,0,0,0,0,0,-1,776,393,0,0
-441,631,0,0,0,0,0,0,0,0,0,-1,783,393,0,0
-434,631,0,0,0,0,0,0,0,0,0,-1,790,393,0,0
-427,631,0,0,0,0,0,0,0,0,0,-1,797,393,0,0
-420,631,0,0,0,0,0,0,0,0,0,-1,804,393,0,0
-413,631,0,0,0,0,0,0,0,0,0,-1,811,393,0,0
-406,631,0,0,0,0,0,0,0,0,0,-1,818,393,0,0
-399,631,0,0,0,0,0,0,0,0,0,-1,825,393,0,0
-392,631,0,0,0,0,0,0,0,0,0,-1,832,393,0,0
-385,631,0,0,0,0,0,0,0,0,0,-1,839,393,0,0
-378,631,0,0,0,0,0,0,0,0,0,-1,846,393,0,0
-371,631,0,0,0,0,0,0,0,0,0,-1,853,393,0,0
-364,631,0,0,0,0,0,0,0,0,0,-1,860,393,0,0
-357,631,0,0,0,0,0,0,0,0,0,-1,867,393,0,0
-350,631,0,0,0,0,0,0,0,0,0,-1,874,393,0,0
-343,631,0,0,0,0,0,0,0,0,0,-1,881,393,0,0
-336,631,0,0,0,0,0,0,0,0,0,-1,888,393,0,0
-329,631,0,0,0,0,0,0,0,0,0,-1,895,393,0,0
-322,631,0,0,0,0,0,0,0,0,0,-1,902,393,0,0
-315,631,0,0,0,0,0,0,0,0,0,-1,909,393,0,0
-308,631,0,0,0,0,0,0,0,0,0,-1,916,393,0,0
-301,631,0,0,0,0,0,0,0,0,0,-1,923,393,0,0
-294,631,0,0,0,0,0,0,0,0,0,-1,930,393,0,0
-287,631,0,0,0,0,0,0,0,0,0,-1,937,393,0,0
-280,631,7.71283,-34.969,0,0,0,0,0,0,0,-1,944,393,7.71282,34.969
-273,631,8.04437,-34.934,0,0,0,0,0,0,0,-1,951,393,8.04436,34.9339
-266,631,8.40277,-34.7584,0,0,0,0,0,0,0,-1,958,393,8.40275,34.7584
-259,631,8.56659,-34.037,0,0,0,0,0,0,0,-1,965,393,8.56662,34.037
-252,631,8.44446,-33.2643,0,0,0,0,0,0,0,-1,972,393,8.44445,33.2644
-245,631,8.34705,-32.527,0,0,0,0,0,0,0,-1,979,393,8.34704,32.527
-238,631,8.41888,-31.8855,0,0,0,0,0,0,0,-1,986,393,8.41887,31.8855
-231,631,2.14966,-25.2306,0,0,0,0,0,0,0,-1,993,393,2.14968,25.2306
-224,631,6.83575,-19.7909,0,0,0,0,0,0,0,-1,1000,393,6.83575,19.7909
-217,631,5.05188,-18.3867,0,0,0,0,0,0,0,-1,1007,393,5.0519,18.3866
-210,631,3.37842,-26.3769,0,0,0,0,0,0,0,-1,1014,393,3.37839,26.3769
-203,631,5.05298,-26.4169,0,0,0,0,0,0,0,-1,1021,393,5.05302,26.4169
-196,631,7.83533,-44.726,0,0,0,0,0,0,0,-1,1028,393,7.83537,44.7259
-189,631,6.57983,-42.4494,0,0,0,0,0,0,0,-1,1035,393,6.57983,42.4494
-182,631,7.64722,-46.3393,0,0,0,0,0,0,0,-1,1042,393,7.64723,46.3393
-175,631,7.76306,-47.4115,0,0,0,0,0,0,0,-1,1049,393,7.76307,47.4115
-168,631,7.60913,-48.1069,-0.00484954,0.0225196,-0.00957905,0.0255391,-0.00786902,-1.26544,0.0201675,0.0363892,1056,393,7.60914,48.1069
-161,631,7.52087,-48.8307,-0.00479219,0.0212938,-0.00871695,0.0239386,-0.00743692,-1.27622,0.0189314,0.0197932,1063,393,7.52084,48.8307
-154,631,7.43115,-49.4802,-0.00473404,0.0199273,-0.00786479,0.022222,-0.0070287,-1.28691,0.0176309,0.0181076,1070,393,7.43118,49.4802
-147,631,7.37915,-50.0369,-0.00463233,0.0183039,-0.00707242,0.0203094,-0.00663777,-1.29449,0.0162117,0.0162438,1077,393,7.3792,50.0369
-140,631,7.34082,-50.6063,-0.00441916,0.0163908,-0.00630398,0.0181515,-0.00617986,-1.29844,0.0146035,0.0113565,1084,393,7.3408,50.6063
-133,631,7.27258,-51.1566,-0.00418101,0.0143705,-0.00560497,0.0159324,-0.00574294,-1.29902,0.012967,0.00891991,1091,393,7.27258,51.1566
-126,631,7.229,-51.6885,-0.00406378,0.0121048,-0.00477917,0.0134118,-0.00537078,-1.30385,0.0111705,0.0131157,1098,393,7.22899,51.6885
-119,631,7.17627,-52.2034,-0.00384754,0.0100767,-0.00409279,0.0111906,-0.00496144,-1.30507,0.00955373,0.0152833,1105,393,7.17627,52.2034
-112,631,7.15051,-52.7237,-0.00357761,0.00835242,-0.00347176,0.00928918,-0.00451437,-1.30725,0.00812686,0.0141588,1112,393,7.15045,52.7237
-105,631,7.21094,-53.2494,-0.00333011,0.00686371,-0.00295162,0.00765667,-0.00412307,-1.30834,0.00690228,0.0189313,1119,393,7.21098,53.2494
-98,631,7.12732,-53.7361,-0.00313058,0.00550025,-0.00247907,0.00616164,-0.00379197,-1.31008,0.00580075,0.0160908,1126,393,7.12728,53.736
-91,631,7.02893,-54.1984,-0.00291034,0.00377639,-0.00202535,0.00434201,-0.00347596,-1.29847,0.00452293,0.0175156,1133,393,7.02895,54.1984
-84,631,6.99414,-54.6664,-0.00262401,0.00275079,-0.00155864,0.00317007,-0.0030433,-1.30801,0.00358754,0.0172441,1140,393,6.99415,54.6664
-77,631,6.93359,-55.1187,-0.00231941,0.00254358,-0.00125297,0.00284743,-0.00262326,-1.33289,0.00315939,0.0123719,1147,393,6.93363,55.1186
-70,631,6.91553,-55.5106,-0.00203776,0.00253584,-0.00108061,0.0027783,-0.00228022,-1.35008,0.00292525,0.0152175,1154,393,6.91556,55.5106
-63,631,6.9231,-55.9036,-0.00172732,0.00276966,-0.00112929,0.00303732,-0.00199498,-1.33808,0.0029261,0.0166568,1161,393,6.92314,55.9036
-56,631,6.88245,-56.3105,-0.00138466,0.00292346,-0.00112176,0.00319804,-0.00165925,-1.33073,0.00285088,0.0170211,1168,393,6.88239,56.3106
-49,631,6.87769,-56.6523,-0.000944313,0.00288428,-0.000924087,0.00309565,-0.00115569,-1.34593,0.00253826,0.0121326,1175,393,6.87765,56.6522
-42,631,6.90247,-56.9863,-0.000464324,0.00291737,-0.000676236,0.00304758,-0.000594537,-1.38057,0.00225616,0.00980351,1182,393,6.90245,56.9863
-35,631,6.88159,-57.2988,-0.000164087,0.00314497,-0.00044746,0.00320441,-0.000223526,-1.43873,0.00221455,0.0112395,1189,393,6.8816,57.2988
-28,631,6.86731,-57.5932,-0.000147404,0.00314251,-0.000353413,0.00318005,-0.00018494,-1.46498,0.00218429,0.0132517,1196,393,6.86729,57.5932
-21,631,6.84644,-57.8793,-0.000255937,0.00299831,-0.000372502,0.00304041,-0.000298032,-1.45827,0.00213323,0.0116786,1203,393,6.8464,57.8793
-14,631,6.83142,-58.1561,-0.000472211,0.00299176,-0.000432702,0.00304499,-0.000525445,-1.44839,0.00222591,0.0147019,1210,393,6.83146,58.1561
-7,631,6.87537,-58.4441,-0.000655818,0.00268469,-0.000564439,0.00277748,-0.000748613,-1.40785,0.00214518,0.0236661,1217,393,6.87531,58.4441
0,631,6.86609,-58.6775,-0.00106224,0.00222256,-0.000743295,0.00238292,-0.00122261,-1.3583,0.00211728,0.0264742,1224,393,6.8661,58.6775
7,631,6.8717,-58.8324,-0.00148563,0.00192513,-0.000868304,0.00213345,-0.00169396,-1.33532,0.00221461,0.019871,1231,393,6.87171,58.8324
14,631,6.90662,-58.9956,-0.00207728,0.00161294,-0.000934217,0.00183597,-0.00230031,-1.33645,0.00239309,0.0111274,1238,393,6.90656,58.9956
21,631,6.927,-59.1331,-0.00245368,0.00119796,-0.000986837,0.00144758,-0.0027033,-1.32304,0.00243279,0.0143494,1245,393,6.92695,59.133
28,631,6.92493,-59.2354,-0.00266988,0.000919922,-0.000945737,0.00115383,-0.0029038,-1.32833,0.00241421,0.0162869,1252,393,6.92495,59.2354
35,631,6.98376,-59.3091,-0.00274487,0.000682845,-0.00083699,0.000876305,-0.00293833,-1.34365,0.00230714,0.0157276,1259,393,6.98372,59.3091
42,631,7.03198,-59.3959,-0.00273401,0.000470872,-0.000673798,0.00060677,-0.00286991,-1.37178,0.00214434,0.0138475,1266,393,7.03204,59.3959
49,631,7.06042,-59.4888,-0.00258349,0.000532451,-0.000481571,0.000605181,-0.00265622,-1.4209,0.00200325,0.0119886,1273,393,7.06046,59.4888
56,631,7.07385,-59.5568,-0.0022226,0.00114675,-0.000181782,0.00115653,-0.00223238,-1.51705,0.00198918,0.013914,1280,393,7.07389,59.5568
63,631,7.05981,-59.5985,-0.00161767,0.00170614,0.000146998,0.00171263,-0.00162416,1.52669,0.00192672,0.0175652,1287,393,7.05987,59.5985
70,631,7.05237,-59.5796,-0.000970085,0.0022362,0.000439408,0.00229532,-0.00102921,1.43704,0.00196527,0.0178652,1294,393,7.05235,59.5796
77,631,7.08435,-59.5225,-0.00053828,0.00291393,0.000736784,0.0030646,-0.000688951,1.36908,0.00230727,0.0176711,1301,393,7.08432,59.5225
84,631,7.14417,-59.4682,-0.000321785,0.00326935,0.000807178,0.00344243,-0.000494872,1.35956,0.00247645,0.0146894,1308,393,7.14411,59.4682
91,631,7.16846,-59.3585,-0.000200565,0.00323789,0.000755813,0.00339669,-0.000359368,1.3637,0.00239326,0.0172655,1315,393,7.16851,59.3585
98,631,7.19946,-59.244,-0.000326461,0.00346953,0.000801352,0.00363176,-0.000488697,1.37104,0.00259943,0.0144229,1322,393,7.19948,59.244
105,631,7.17419,-59.1304,-0.000173038,0.00358918,0.000848019,0.0037715,-0.00035535,1.35903,0.00264076,0.0120371,1329,393,7.17418,59.1304
112,631,7.18701,-58.9883,-0.000228286,0.00331957,0.00079214,0.0034884,-0.000397115,1.36081,0.00246864,0.012439,1336,393,7.18702,58.9882
119,631,7.21057,-58.8207,-0.000122372,0.00305614,0.000693664,0.00320092,-0.000267159,1.36502,0.00222835,0.0133911,1343,393,7.21052,58.8207
126,631,7.22668,-58.5863,-0.000185756,0.00305867,0.000605173,0.00316788,-0.000294961,1.39226,0.00221679,0.0188694,1350,393,7.22672,58.5863
133,631,7.24634,-58.3549,-0.000219065,0.00307836,0.00052195,0.00315901,-0.000299712,1.4175,0.00221269,0.0199862,1357,393,7.24628,58.3549
140,631,7.27917,-58.1531,-0.000160133,0.00328239,0.000512436,0.00335705,-0.000234792,1.42612,0.00232026,0.0208168,1364,393,7.27912,58.1531
147,631,7.27344,-57.8972,6.02096e-06,0.00355299,0.000510682,0.00362505,-6.60414e-05,1.43061,0.00243901,0.0235585,1371,393,7.27349,57.8972
154,631,7.25647,-57.5921,0.000200822,0.00392387,0.000535598,0.00399939,0.000125303,1.43072,0.00262549,0.0226348,1378,393,7.25645,57.5921
161,631,7.28613,-57.2418,0.000345618,0.00434033,0.00059394,0.00442676,0.00025918,1.42628,0.00286869,0.0246231,1385,393,7.2861,57.2418
168,631,7.28992,-56.8925,0.000353562,0.0049052,0.00069894,0.00501011,0.000248653,1.42181,0.00326035,0.0280042,1392,393,7.2899,56.8925
175,631,7.2948,-56.6143,0.000207228,0.00546064,0.00089482,0.00560887,5.89951e-05,1.40663,0.00371974,0.0209917,1399,393,7.2948,56.6143
182,631,7.27185,-56.2403,1.80165e-05,0.00604103,0.00109847,0.00623511,-0.000176066,1.39592,0.00421665,0.0115786,1406,393,7.27182,56.2403
189,631,7.22083,-55.8164,-0.000294814,0.00657421,0.00136137,0.00683419,-0.000554786,1.38211,0.00475186,0.0120023,1413,393,7.22084,55.8164
196,631,7.19617,-55.4001,-0.000604499,0.00702758,0.00168789,0.00738421,-0.000961126,1.36257,0.00527246,0.013615,1420,393,7.19617,55.4001
203,631,7.21643,-54.9759,-0.000961842,0.00729241,0.00197875,0.00774225,-0.00141168,1.34726,0.00569073,0.0152086,1427,393,7.2164,54.9759
210,631,7.17419,-54.5396,-0.00142586,0.00730638,0.00222866,0.0078423,-0.00196178,1.33481,0.00599018,0.0171858,1434,393,7.17419,54.5396
217,631,7.14404,-54.1053,-0.00173646,0.00815419,0.00241066,0.00871046,-0.00229273,1.34401,0.00670321,0.017739,1441,393,7.14402,54.1054
224,631,7.09961,-53.6004,-0.00190957,0.00931238,0.00260593,0.00988799,-0.00248518,1.3534,0.00755784,0.0135703,1448,393,7.09962,53.6004
231,631,7.02466,-53.1009,-0.00201269,0.0103379,0.00292339,0.0109949,-0.0026697,1.34973,0.00836312,0.0111435,1455,393,7.02462,53.1009
238,631,7.00891,-52.5989,-0.00214726,0.0114879,0.00323748,0.0122176,-0.00287691,1.34912,0.00925429,0.0177539,1462,393,7.00885,52.5989
245,631,6.99146,-52.0376,-0.00231119,0.0128069,0.00357585,0.01361,-0.00311431,1.34987,0.0102701,0.0193759,1469,393,6.99147,52.0376
252,631,6.95654,-51.4885,-0.00251851,0.0142766,0.00396071,0.0151638,-0.00340568,1.35044,0.011415,0.0182191,1476,393,6.95657,51.4885
259,631,6.87927,-50.9334,-0.00274734,0.0154932,0.00437,0.0164861,-0.00374025,1.34738,0.0124265,0.013669,1483,393,6.87932,50.9334
266,631,6.83386,-50.3603,-0.00301901,0.0165496,0.00484094,0.0176817,-0.00415108,1.34107,0.0133878,0.0119614,1490,393,6.83385,50.3603
273,631,6.79456,-49.7529,-0.00328357,0.0176015,0.00537867,0.0189053,-0.00458738,1.33298,0.0143787,0.0144725,1497,393,6.79459,49.7529
280,631,6.77026,-49.1027,-0.0034418,0.018524,0.00597391,0.0200436,-0.00496137,1.32171,0.015287,0.0142213,1504,393,6.77031,49.1027
287,631,6.68982,-48.4736,-0.00351898,0.0196347,0.00680827,0.0214883,-0.00537254,1.30499,0.0164122,0.0164508,1511,393,6.68979,48.4736
294,631,6.59924,-47.7288,-0.0037093,0.0205027,0.00761543,0.0226988,-0.0059054,1.29004,0.0174376,0.0235407,1518,393,6.59923,47.7288
301,631,6.46826,-46.9529,-0.0038657,0.0213398,0.00848732,0.0239312,-0.00645715,1.27445,0.0184864,0.0380736,1525,393,6.4683,46.9529
308,631,7.00183,-46.3084,0,0,0,0,0,0,0,-1,1532,393,7.00184,46.3084
315,631,6.76892,-45.7358,0,0,0,0,0,0,0,-1,1539,393,6.7689,45.7358
322,631,6.53601,-45.1632,0,0,0,0,0,0,0,-1,1546,393,6.53595,45.1632
329,631,5.70972,-38.2651,0,0,0,0,0,0,0,-1,1553,393,5.70967,38.2651
336,631,5.38281,-39.6306,0,0,0,0,0,0,0,-1,1560,393,5.38277,39.6306
343,631,6.21558,-38.7278,0,0,0,0,0,0,0,-1,1567,393,6.21558,38.7278
350,631,5.18359,-35.9677,0,0,0,0,0,0,0,-1,1574,393,5.18355,35.9677
357,631,2.6449,-9.60303,0,0,0,0,0,0,0,-1,1581,393,2.64491,9.60304
364,631,3.39136,-5.7594,0,0,0,0,0,0,0,-1,1588,393,3.39137,5.75939
371,631,3.72839,-6.0574,0,0,0,0,0,0,0,-1,1595,393,3.72845,6.05742
378,631,4.06555,-6.35544,0,0,0,0,0,0,0,-1,1602,393,4.06553,6.35544
385,631,3.90442,-3.58298,0,0,0,0,0,0,0,-1,1609,393,3.90437,3.58299
392,631,0.352295,-2.21301,0,0,0,0,0,0,0,-1,1616,393,0.352345,2.213
399,631,0,0,0,0,0,0,0,0,0,-1,1623,393,0,0
406,631,0,0,0,0,0,0,0,0,0,-1,1630,393,0,0
413,631,0,0,0,0,0,0,0,0,0,-1,1637,393,0,0
420,631,0,0,0,0,0,0,0,0,0,-1,1644,393,0,0
427,631,0,0,0,0,0,0,0,0,0,-1,1651,393,0,0
434,631,0,0,0,0,0,0,0,0,0,-1,1658,393,0,0
441,631,0,0,0,0,0,0,0,0,0,-1,1665,393,0,0
448,631,0,0,0,0,0,0,0,0,0,-1,1672,393,0,0
455,631,0,0,0,0,0,0,0,0,0,-1,1679,393,0,0
462,631,0,0,0,0,0,0,0,0,0,-1,1686,393,0,0
469,631,0,0,0,0,0,0,0,0,0,-1,1693,393,0,0
476,631,0,0,0,0,0,0,0,0,0,-1,1700,393,0,0
483,631,0,0,0,0,0,0,0,0,0,-1,1707,393,0,0
490,631,0,0,0,0,0,0,0,0,0,-1,1714,393,0,0
497,631,0,0,0,0,0,0,0,0,0,-1,1721,393,0,0
504,631,0,0,0,0,0,0,0,0,0,-1,1728,393,0,0
511,631,0,0,0,0,0,0,0,0,0,-1,1735,393,0,0
518,631,0,0,0,0,0,0,0,0,0,-1,1742,393,0,0
525,631,0,0,0,0,0,0,0,0,0,-1,1749,393,0,0
532,631,0,0,0,0,0,0,0,0,0,-1,1756,393,0,0
539,631,0,0,0,0,0,0,0,0,0,-1,1763,393,0,0
546,631,0,0,0,0,0,0,0,0,0,-1,1770,393,0,0
553,631,0,0,0,0,0,0,0,0,0,-1,1777,393,0,0
560,631,0,0,0,0,0,0,0,0,0,-1,1784,393,0,0
567,631,0,0,0,0,0,0,0,0,0,-1,1791,393,0,0
574,631,0,0,0,0,0,0,0,0,0,-1,1798,393,0,0
581,631,0,0,0,0,0,0,0,0,0,-1,1805,393,0,0
588,631,0,0,0,0,0,0,0,0,0,-1,1812,393,0,0
595,631,0,0,0,0,0,0,0,0,0,-1,1819,393,0,0
602,631,0,0,0,0,0,0,0,0,0,-1,1826,393,0,0
609,631,0,0,0,0,0,0,0,0,0,-1,1833,393,0,0
616,631,0,0,0,0,0,0,0,0,0,-1,1840,393,0,0
623,631,0,0,0,0,0,0,0,0,0,-1,1847,393,0,0
630,631,0,0,0,0,0,0,0,0,0,-1,1854,393,0,0
637,631,0,0,0,0,0,0,0,0,0,-1,1861,393,0,0
644,631,0,0,0,0,0,0,0,0,0,-1,1868,393,0,0
651,631,0,0,0,0,0,0,0,0,0,-1,1875,393,0,0
658,631,0,0,0,0,0,0,0,0,0,-1,1882,393,0,0
665,631,0,0,0,0,0,0,0,0,0,-1,1889,393,0,0
672,631,0,0,0,0,0,0,0,0,0,-1,1896,393,0,0
679,631,0,0,0,0,0,0,0,0,0,-1,1903,393,0,0
686,631,0,0,0,0,0,0,0,0,0,-1,1910,393,0,0
693,631,0,0,0,0,0,0,0,0,0,-1,1917,393,0,0
700,631,0,0,0,0,0,0,0,0,0,-1,1924,393,0,0
707,631,0,0,0,0,0,0,0,0,0,-1,1931,393,0,0
714,631,0,0,0,0,0,0,0,0,0,-1,1938,393,0,0
721,631,0,0,0,0,0,0,0,0,0,-1,1945,393,0,0
728,631,0,0,0,0,0,0,0,0,0,-1,1952,393,0,0
735,631,0,0,0,0,0,0,0,0,0,-1,1959,393,0,0
742,631,0,0,0,0,0,0,0,0,0,-1,1966,393,0,0
749,631,0,0,0,0,0,0,0,0,0,-1,1973,393,0,0
756,631,0,0,0,0,0,0,0,0,0,-1,1980,393,0,0
763,631,0,0,0,0,0,0,0,0,0,-1,1987,393,0,0
770,631,0,0,0,0,0,0,0,0,0,-1,1994,393,0,0
777,631,0,0,0,0,0,0,0,0,0,-1,2001,393,0,0
784,631,0,0,0,0,0,0,0,0,0,-1,2008,393,0,0
791,631,0,0,0,0,0,0,0,0,0,-1,2015,393,0,0
798,631,0,0,0,0,0,0,0,0,0,-1,2022,393,0,0
805,631,0,0,0,0,0,0,0,0,0,-1,2029,393,0,0
812,631,0,0,0,0,0,0,0,0,0,-1,2036,393,0,0
-700,624,0,0,0,0,0,0,0,0,0,-1,524,400,0,0
-693,624,0,0,0,0,0,0,0,0,0,-1,531,400,0,0
-686,624,0,0,0,0,0,0,0,0,0,-1,538,400,0,0
-679,624,0,0,0,0,0,0,0,0,0,-1,545,400,0,0
-672,624,0,0,0,0,0,0,0,0,0,-1,552,400,0,0
-665,624,0,0,0,0,0,0,0,0,0,-1,559,400,0,0
-658,624,0,0,0,0,0,0,0,0,0,-1,566,400,0,0
-651,624,0,0,0,0,0,0,0,0,0,-1,573,400,0,0
-644,624,0,0,0,0,0,0,0,0,0,-1,580,400,0,0
-637,624,0,0,0,0,0,0,0,0,0,-1,587,400,0,0
-630,624,0,0,0,0,0,0,0,0,0,-1,594,400,0,0
-623,624,0,0,0,0,0,0,0,0,0,-1,601,400,0,0
-616,624,0,0,0,0,0,0,0,0,0,-1,608,400,0,0
-609,624,0,0,0,0,0,0,0,0,0,-1,615,400,0,0
-602,624,0,0,0,0,0,0,0,0,0,-1,622,400,0,0
-595,624,0,0,0,0,0,0,0,0,0,-1,629,400,0,0
-588,624,0,0,0,0,0,0,0,0,0,-1,636,400,0,0
-581,624,0,0,0,0,0,0,0,0,0,-1,643,400,0,0
-574,624,0,0,0,0,0,0,0,0,0,-1,650,400,0,0
-567,624,0,0,0,0,0,0,0,0,0,-1,657,400,0,0
-560,624,0,0,0,0,0,0,0,0,0,-1,664,400,0,0
-553,624,0,0,0,0,0,0,0,0,0,-1,671,400,0,0
-546,624,0,0,0,0,0,0,0,0,0,-1,678,400,0,0
-539,624,0,0,0,0,0,0,0,0,0,-1,685,400,0,0
-532,624,0,0,0,0,0,0,0,0,0,-1,692,400,0,0
-525,624,0,0,0,0,0,0,0,0,0,-1,699,400,0,0
-518,624,0,0,0,0,0,0,0,0,0,-1,706,400,0,0
-511,624,0,0,0,0,0,0,0,0,0,-1,713,400,0,0
-504,624,0,0,0,0,0,0,0,0,0,-1,720,400,0,0
-497,624,0,0,0,0,0,0,0,0,0,-1,727,400,0,0
-490,624,0,0,0,0,0,0,0,0,0,-1,734,400,0,0
-483,624,0,0,0,0,0,0,0,0,0,-1,741,400,0,0
-476,624,0,0,0,0,0,0,0,0,0,-1,748,400,0,0
-469,624,0,0,0,0,0,0,0,0,0,-1,755,400,0,0
-462,624,0,0,0,0,0,0,0,0,0,-1,762,400,0,0
-455,624,0,0,0,0,0,0,0,0,0,-1,769,400,0,0
-448,624,0,0,0,0,0,0,0,0,0,-1,776,400,0,0
-441,624,0,0,0,0,0,0,0,0,0,-1,783,400,0,0
-434,624,0,0,0,0,0,0,0,0,0,-1,790,400,0,0
-427,624,0,0,0,0,0,0,0,0,0,-1,797,400,0,0
-420,624,0,0,0,0,0,0,0,0,0,-1,804,400,0,0
-413,624,0,0,0,0,0,0,0,0,0,-1,811,400,0,0
-406,624,0,0,0,0,0,0,0,0,0,-1,818,400,0,0
-399,624,0,0,0,0,0,0,0,0,0,-1,825,400,0,0
-392,624,0,0,0,0,0,0,0,0,0,-1,832,400,0,0
-385,624,0,0,0,0,0,0,0,0,0,-1,839,400,0,0
-378,624,0,0,0,0,0,0,0,0,0,-1,846,400,0,0
-371,624,0,0,0,0,0,0,0,0,0,-1,853,400,0,0
-364,624,0,0,0,0,0,0,0,0,0,-1,860,400,0,0
-357,624,0,0,0,0,0,0,0,0,0,-1,867,400,0,0
-350,624,0,0,0,0,0,0,0,0,0,-1,874,400,0,0
-343,624,0,0,0,0,0,0,0,0,0,-1,881,400,0,0
-336,624,0,0,0,0,0,0,0,0,0,-1,888,400,0,0
-329,624,0,0,0,0,0,0,0,0,0,-1,895,400,0,0
-322,624,0,0,0,0,0,0,0,0,0,-1,902,400,0,0
-315,624,0,0,0,0,0,0,0,0,0,-1,909,400,0,0
-308,624,0,0,0,0,0,0,0,0,0,-1,916,400,0,0
-301,624,0,0,0,0,0,0,0,0,0,-1,923,400,0,0
-294,624,5.08527,-28.5311,0,0,0,0,0,0,0,-1,930,400,5.08525,28.5311
-287,624,6.70825,-33.8,0,0,0,0,0,0,0,-1,937,400,6.70827,33.8
-280,624,6.92474,-33.8738,0,0,0,0,0,0,0,-1,944,400,6.92477,33.8739
-273,624,8.617,-37.3463,0,0,0,0,0,0,0,-1,951,400,8.61697,37.3463
-266,624,7.71747,-37.0599,0,0,0,0,0,0,0,-1,958,400,7.7175,37.0599
-259,624,7.33569,-33.1199,0,0,0,0,0,0,0,-1,965,400,7.33567,33.1199
-252,624,7.5528,-32.8158,0,0,0,0,0,0,0,-1,972,400,7.5528,32.8158
-245,624,6.8396,-32.02,0,0,0,0,0,0,0,-1,979,400,6.83963,32.02
-238,624,6.99402,-31.5278,0,0,0,0,0,0,0,-1,986,400,6.99404,31.5278
-231,624,3.86121,-29.6032,0,0,0,0,0,0,0,-1,993,400,3.86122,29.6032
-224,624,4.59351,-27.4048,0,0,0,0,0,0,0,-1,1000,400,4.59353,27.4048
-217,624,5.90167,-32.048,0,0,0,0,0,0,0,-1,1007,400,5.90167,32.048
-210,624,7.35809,-44.0647,0,0,0,0,0,0,0,-1,1014,400,7.35807,44.0647
-203,624,7.40747,-44.8033,0,0,0,0,0,0,0,-1,1021,400,7.40746,44.8033
-196,624,7.28992,-45.4413,0,0,0,0,0,0,0,-1,1028,400,7.28994,45.4413
-189,624,7.203,-46.0828,0,0,0,0,0,0,0,-1,1035,400,7.20297,46.0828
-182,624,7.0387,-46.6698,-0.00328463,0.0188482,-0.00890703,0.0219874,-0.00642387,-1.23194,0.0172041,0.0478004,1042,400,7.03869,46.6698
-175,624,7.04187,-47.401,-0.00340601,0.0181051,-0.00824126,0.0208995,-0.00620038,-1.24389,0.0163953,0.0286965,1049,400,7.04187,47.401
-168,624,7.06165,-48.1852,-0.00349878,0.0169444,-0.00753618,0.0194222,-0.0059766,-1.25314,0.0153336,0.020471,1056,400,7.06167,48.1853
-161,624,6.94922,-48.8657,-0.00337621,0.0158685,-0.00682487,0.0180431,-0.00555083,-1.26234,0.0142442,0.0114728,1063,400,6.94927,48.8657
-154,624,6.89148,-49.4777,-0.00326474,0.0147078,-0.00608481,0.0165741,-0.00513103,-1.27319,0.0130991,0.010946,1070,400,6.89152,49.4776
-147,624,6.86133,-50.0581,-0.00311541,0.0133776,-0.00539228,0.0149841,-0.0047219,-1.28124,0.0118804,0.0120566,1077,400,6.86136,50.0581
-140,624,6.82971,-50.6213,-0.00286508,0.0117943,-0.00471683,0.0131809,-0.00425163,-1.28489,0.0104955,0.0105427,1084,400,6.82974,50.6213
-133,624,6.75549,-51.1651,-0.00259254,0.0101513,-0.00410074,0.0113568,-0.00379805,-1.28488,0.00910523,0.0117389,1091,400,6.75552,51.1651
-126,624,6.71619,-51.6865,-0.00239307,0.00836958,-0.00342265,0.00936581,-0.0033893,-1.28755,0.00762887,0.0138103,1098,400,6.71618,51.6865
-119,624,6.67639,-52.2253,-0.00209903,0.00679664,-0.00284824,0.00763044,-0.00293283,-1.28601,0.00629652,0.0152393,1105,400,6.6764,52.2253
-112,624,6.67261,-52.7363,-0.00176673,0.00548861,-0.00234336,0.00617966,-0.00245777,-1.28403,0.00513883,0.0171445,1112,400,6.67267,52.7363
-105,624,6.70007,-53.2372,-0.00146401,0.00439464,-0.00194632,0.00498229,-0.00205166,-1.27757,0.00417689,0.0139316,1119,400,6.70008,53.2372
-98,624,6.66064,-53.6942,-0.0011692,0.0034259,-0.00161308,0.00393562,-0.00167892,-1.26473,0.00332769,0.0142423,1126,400,6.6607,53.6941
-91,624,6.59619,-54.1505,-0.000833965,0.00233745,-0.00131197,0.00280984,-0.00130635,-1.22519,0.00242875,0.0197491,1133,400,6.59621,54.1506
-84,624,6.58862,-54.6347,-0.000436724,0.00168497,-0.000988471,0.00207411,-0.000825867,-1.19575,0.00172523,0.0189272,1140,400,6.58863,54.6347
-77,624,6.56384,-55.0894,-4.20538e-06,0.00145439,-0.000762114,0.00177993,-0.00032975,-1.1671,0.00131044,0.0148418,1147,400,6.56388,55.0894
-70,624,6.5708,-55.4995,0.000454962,0.00131034,-0.000598058,0.0016179,0.000147403,-1.0958,0.00103298,0.0169401,1154,400,6.57074,55.4995
-63,624,6.58716,-55.9047,0.000924183,0.00113122,-0.00027669,0.00132313,0.000732282,-0.964407,0.00076536,0.0199634,1161,400,6.58713,55.9047
-56,624,6.53284,-56.2931,0.00135582,0.000825791,9.4248e-05,0.00137208,0.000809531,0.170843,0.000796436,0.0161038,1168,400,6.53285,56.2931
-49,624,6.52979,-56.6721,0.00181474,0.000512032,0.000443878,0.0019516,0.000375167,0.299091,0.00119579,0.0117404,1175,400,6.52982,56.6721
-42,624,6.55627,-56.9839,0.00215678,0.000173429,0.000839036,0.00246411,-0.000133895,0.351106,0.00168914,0.010923,1182,400,6.55621,56.9839
-35,624,6.55212,-57.2886,0.00223294,-6.99664e-05,0.00110799,0.00267945,-0.000516477,0.383083,0.00198103,0.0156815,1189,400,6.55212,57.2886
-28,624,6.55664,-57.614,0.00176087,-0.000624493,0.00108497,0.00218053,-0.00104415,0.369071,0.00189991,0.018743,1196,400,6.55667,57.6139
-21,624,6.56873,-57.8827,0.00119307,-0.00128618,0.000920874,0.00149768,-0.0015908,0.319459,0.00178341,0.0136241,1203,400,6.56872,57.8827
-14,624,6.58105,-58.1321,0.000540498,-0.00166999,0.000675954,0.000730815,-0.0018603,0.274449,0.00154263,0.016028,1210,400,6.58102,58.1321
-7,624,6.65552,-58.3548,-5.25246e-05,-0.002436,0.00035313,-1.30618e-06,-0.00248722,0.144036,0.00165771,0.021673,1217,400,6.65552,58.3548
0,624,6.70825,-58.5889,-0.00112307,-0.00316655,-4.05985e-05,-0.00112226,-0.00316735,-0.0198569,0.00185436,0.0220622,1224,400,6.70825,58.5889
7,624,6.68384,-58.8103,-0.00223413,-0.00355155,-0.000332252,-0.00215508,-0.0036306,-0.23358,0.00210833,0.0163665,1231,400,6.68383,58.8103
14,624,6.77588,-59.0052,-0.00355985,-0.0038516,-0.000496565,-0.00318818,-0.00422327,-0.642534,0.00254174,0.0138376,1238,400,6.77593,59.0052
21,624,6.79858,-59.133,-0.00450471,-0.00420736,-0.000657112,-0.00368231,-0.00502975,-0.896654,0.00300642,0.015118,1245,400,6.79853,59.133
28,624,6.80884,-59.248,-0.00524013,-0.00449477,-0.000679746,-0.00409225,-0.00564266,-1.03615,0.00336617,0.0145209,1252,400,6.80881,59.248
35,624,6.85413,-59.3202,-0.00574669,-0.00460642,-0.000580122,-0.00436317,-0.00598994,-1.17376,0.00357656,0.0180682,1259,400,6.85417,59.3202
42,624,6.90283,-59.413,-0.0060874,-0.00460152,-0.000450105,-0.00447581,-0.00621311,-1.29845,0.00370147,0.0197072,1266,400,6.90285,59.413
49,624,6.98779,-59.469,-0.00610683,-0.00425682,-0.000247782,-0.00422421,-0.00613945,-1.43993,0.00362721,0.0194926,1273,400,6.98783,59.469
56,624,7.03845,-59.5422,-0.00549165,-0.00306914,0.000281321,-0.0030369,-0.00552389,1.45669,0.00319448,0.0194764,1280,400,7.03845,59.5422
63,624,7.08899,-59.5751,-0.00439874,-0.00188798,0.000827327,-0.00163989,-0.00464684,1.27945,0.00272128,0.0173579,1287,400,7.08897,59.5751
70,624,7.08997,-59.5927,-0.00316125,-0.00065676,0.00131931,-9.00237e-05,-0.00372799,1.16506,0.00245587,0.0158046,1294,400,7.08997,59.5926
77,624,7.13855,-59.5192,-0.00208702,0.000677039,0.00178708,0.00155413,-0.00296412,1.11454,0.00265062,0.0160775,1301,400,7.1386,59.5192
84,624,7.20264,-59.4599,-0.00127444,0.00141564,0.00188406,0.00238551,-0.00224431,1.0954,0.00267344,0.0139623,1308,400,7.20258,59.4599
91,624,7.25537,-59.3549,-0.000508382,0.00161564,0.00180047,0.00264398,-0.00153672,1.05186,0.00244178,0.0138175,1315,400,7.25537,59.3549
98,624,7.30286,-59.2583,-0.00015292,0.00209435,0.0017353,0.00303804,-0.00109661,1.07271,0.0024733,0.0147808,1322,400,7.30282,59.2583
105,624,7.32324,-59.1568,0.00063515,0.00218513,0.00166991,0.00325112,-0.000430841,1.00265,0.00232437,0.016104,1329,400,7.32318,59.1568
112,624,7.33887,-59.0285,0.0010035,0.00162438,0.00139147,0.00273962,-0.000111739,0.895153,0.00186477,0.0149116,1336,400,7.33883,59.0285
119,624,7.38232,-58.8885,0.00141547,0.00109895,0.0010572,0.00232619,0.000188235,0.711102,0.00149201,0.0156165,1343,400,7.38226,58.8885
126,624,7.39233,-58.6065,0.00131746,0.000746105,0.000756206,0.00184015,0.000223413,0.604798,0.00115949,0.0188407,1350,400,7.39228,58.6065
133,624,7.47705,-58.3453,0.0012867,0.000479095,0.000445605,0.00148425,0.000281549,0.417287,0.000910279,0.0192863,1357,400,7.47706,58.3453
140,624,7.51013,-58.1557,0.00136053,0.000173669,0.000180446,0.00138735,0.000146841,0.147595,0.000880049,0.0189507,1364,400,7.51008,58.1557
147,624,7.50195,-57.8839,0.00155807,-0.000160486,-7.56894e-05,0.0015614,-0.000163813,-0.043929,0.00109961,0.0232286,1371,400,7.50191,57.8839
154,624,7.57361,-57.5997,0.00181571,-0.00028282,-0.000295321,0.00185647,-0.000323588,-0.137179,0.00135842,0.0258651,1378,400,7.57366,57.5997
161,624,7.61438,-57.2748,0.00201408,-0.000419778,-0.000572135,0.00214186,-0.000547562,-0.219741,0.00164116,0.0244674,1385,400,7.61439,57.2748
168,624,7.60657,-56.9224,0.00211417,-0.000168527,-0.000709485,0.00231671,-0.00037107,-0.278083,0.00168187,0.0243861,1392,400,7.60659,56.9224
175,624,7.63806,-56.6238,0.00215877,0.000352569,-0.000623936,0.00235334,0.000157996,-0.30229,0.00151897,0.0180347,1399,400,7.638,56.6238
182,624,7.63562,-56.2552,0.00222214,0.00119608,-0.000416615,0.00236999,0.00104823,-0.341029,0.00137135,0.0105868,1406,400,7.63563,56.2552
189,624,7.59485,-55.8372,0.00203218,0.00225575,-4.16775e-05,0.00226327,0.00202467,-1.39236,0.00143594,0.0114474,1413,400,7.59482,55.8372
196,624,7.58655,-55.4223,0.00152928,0.00312694,0.000337801,0.00319542,0.00146079,1.37076,0.00184714,0.0128937,1420,400,7.58652,55.4223
203,624,7.62732,-54.9842,0.00104576,0.00376913,0.000678511,0.00392881,0.000886079,1.33966,0.00237949,0.0154836,1427,400,7.62732,54.9842
210,624,7.63452,-54.5432,0.000435505,0.00428579,0.00100022,0.00453012,0.000191177,1.33121,0.00295841,0.0192679,1434,400,7.63457,54.5432
217,624,7.59314,-54.061,3.96833e-06,0.00512952,0.00130783,0.00544393,-0.000310447,1.33486,0.00373707,0.0211378,1441,400,7.59314,54.0611
224,624,7.56348,-53.5776,-0.000304304,0.006093,0.00161922,0.00647949,-0.000690795,1.33649,0.00456737,0.0165912,1448,400,7.56343,53.5776
231,624,7.56299,-53.1329,-0.000547976,0.00697135,0.0020144,0.007477,-0.00105363,1.32486,0.00537044,0.0122456,1455,400,7.56293,53.1329
238,624,7.54016,-52.6441,-0.000761319,0.00792357,0.00236723,0.00852689,-0.00136464,1.32125,0.00618982,0.0178388,1462,400,7.5401,52.6441
245,624,7.52417,-52.1171,-0.000983566,0.00901594,0.00271582,0.00970593,-0.00167356,1.322,0.00709458,0.0186704,1469,400,7.52422,52.1171
252,624,7.47266,-51.5258,-0.00126521,0.0102532,0.00309116,0.0110304,-0.00204234,1.3245,0.00812042,0.0137328,1476,400,7.47268,51.5259
259,624,7.39575,-50.9564,-0.00158853,0.0112868,0.00348812,0.0121711,-0.00247278,1.32252,0.00905161,0.0102904,1483,400,7.39576,50.9564
266,624,7.40613,-50.3641,-0.00194561,0.0121903,0.00391712,0.0132032,-0.00295848,1.31776,0.00993618,0.0134339,1490,400,7.40618,50.3641
273,624,7.35083,-49.7673,-0.002281,0.0130986,0.00438789,0.0142624,-0.00344482,1.31153,0.0108406,0.0156278,1497,400,7.35086,49.7673
280,624,7.27698,-49.1898,-0.00250322,0.0139149,0.00491303,0.0152728,-0.00386111,1.30114,0.0116836,0.0142783,1504,400,7.27701,49.1899
287,624,7.22009,-48.599,-0.00262815,0.0148827,0.00561903,0.0165307,-0.00427614,1.28551,0.0126883,0.0112841,1511,400,7.22011,48.599
294,624,7.16394,-47.9668,-0.00285046,0.0156445,0.00627889,0.0175747,-0.00478065,1.27256,0.0135932,0.0105038,1518,400,7.1639,47.9668
301,624,7.11316,-47.2666,-0.00304949,0.0163836,0.0069782,0.0186298,-0.00529567,1.25939,0.0145108,0.0131654,1525,400,7.11319,47.2666
308,624,7.1272,-46.5538,-0.00304886,0.0172469,0.00775465,0.0198706,-0.00567259,1.24454,0.0154882,0.0196964,1532,400,7.12724,46.5538
315,624,7.08264,-45.911,-0.00287365,0.0183356,0.00870003,0.0214477,-0.00598575,1.22727,0.0166562,0.0251969,1539,400,7.08263,45.911
322,624,6.99194,-45.2814,-0.00274213,0.0190921,0.00979347,0.0228412,-0.00649114,1.2052,0.0177904,0.0444202,1546,400,6.99195,45.2814
329,624,6.9353,-44.6305,0,0,0,0,0,0,0,-1,1553,400,6.93532,44.6305
336,624,6.83875,-43.398,0,0,0,0,0,0,0,-1,1560,400,6.83872,43.398
343,624,6.53369,-39.5615,0,0,0,0,0,0,0,-1,1567,400,6.53364,39.5615
350,624,1.99194,-7.29742,0,0,0,0,0,0,0,-1,1574,400,1.99198,7.29741
357,624,2.64075,-3.13092,0,0,0,0,0,0,0,-1,1581,400,2.64076,3.13091
364,624,3.16565,-4.9458,0,0,0,0,0,0,0,-1,1588,400,3.16564,4.94579
371,624,3.37561,-5.23529,0,0,0,0,0,0,0,-1,1595,400,3.37563,5.23529
378,624,1.50439,-5.22165,0,0,0,0,0,0,0,-1,1602,400,1.50438,5.22164
385,624,1.2301,-10.5866,0,0,0,0,0,0,0,-1,1609,400,1.2301,10.5866
392,624,4.26819,-5.14236,0,0,0,0,0,0,0,-1,1616,400,4.26818,5.14236
399,624,2.22168,-9.19293,0,0,0,0,0,0,0,-1,1623,400,2.22173,9.19294
406,624,2.68213,-9.91171,0,0,0,0,0,0,0,-1,1630,400,2.68213,9.91171
413,624,0,0,0,0,0,0,0,0,0,-1,1637,400,0,0
420,624,0,0,0,0,0,0,0,0,0,-1,1644,400,0,0
427,624,0,0,0,0,0,0,0,0,0,-1,1651,400,0,0
434,624,0,0,0,0,0,0,0,0,0,-1,1658,400,0,0
441,624,0,0,0,0,0,0,0,0,0,-1,1665,400,0,0
448,624,0,0,0,0,0,0,0,0,0,-1,1672,400,0,0
455,624,0,0,0,0,0,0,0,0,0,-1,1679,400,0,0
462,624,0,0,0,0,0,0,0,0,0,-1,1686,400,0,0
469,624,0,0,0,0,0,0,0,0,0,-1,1693,400,0,0
476,624,0,0,0,0,0,0,0,0,0,-1,1700,400,0,0
483,624,0,0,0,0,0,0,0,0,0,-1,1707,400,0,0
490,624,0,0,0,0,0,0,0,0,0,-1,1714,400,0,0
497,624,0,0,0,0,0,0,0,0,0,-1,1721,400,0,0
504,624,0,0,0,0,0,0,0,0,0,-1,1728,400,0,0
511,624,0,0,0,0,0,0,0,0,0,-1,1735,400,0,0
518,624,0,0,0,0,0,0,0,0,0,-1,1742,400,0,0
525,624,0,0,0,0,0,0,0,0,0,-1,1749,400,0,0
532,624,0,0,0,0,0,0,0,0,0,-1,1756,400,0,0
539,624,0,0,0,0,0,0,0,0,0,-1,1763,400,0,0
546,624,0,0,0,0,0,0,0,0,0,-1,1770,400,0,0
553,624,0,0,0,0,0,0,0,0,0,-1,1777,400,0,0
560,624,0,0,0,0,0,0,0,0,0,-1,1784,400,0,0
567,624,0,0,0,0,0,0,0,0,0,-1,1791,400,0,0
574,624,0,0,0,0,0,0,0,0,0,-1,1798,400,0,0
581,624,0,0,0,0,0,0,0,0,0,-1,1805,400,0,0
588,624,0,0,0,0,0,0,0,0,0,-1,1812,400,0,0
595,624,0,0,0,0,0,0,0,0,0,-1,1819,400,0,0
602,624,0,0,0,0,0,0,0,0,0,-1,1826,400,0,0
609,624,0,0,0,0,0,0,0,0,0,-1,1833,400,0,0
616,624,0,0,0,0,0,0,0,0,0,-1,1840,400,0,0
623,624,0,0,0,0,0,0,0,0,0,-1,1847,400,0,0
630,624,0,0,0,0,0,0,0,0,0,-1,1854,400,0,0
637,624,0,0,0,0,0,0,0,0,0,-1,1861,400,0,0
644,624,0,0,0,0,0,0,0,0,0,-1,1868,400,0,0
651,624,0,0,0,0,0,0,0,0,0,-1,1875,400,0,0
658,624,0,0,0,0,0,0,0,0,0,-1,1882,400,0,0
665,624,0,0,0,0,0,0,0,0,0,-1,1889,400,0,0
672,624,0,0,0,0,0,0,0,0,0,-1,1896,400,0,0
679,624,0,0,0,0,0,0,0,0,0,-1,1903,400,0,0
686,624,0,0,0,0,0,0,0,0,0,-1,1910,400,0,0
693,624,0,0,0,0,0,0,0,0,0,-1,1917,400,0,0
700,624,0,0,0,0,0,0,0,0,0,-1,1924,400,0,0
707,624,0,0,0,0,0,0,0,0,0,-1,1931,400,0,0
714,624,0,0,0,0,0,0,0,0,0,-1,1938,400,0,0
721,624,0,0,0,0,0,0,0,0,0,-1,1945,400,0,0
728,624,0,0,0,0,0,0,0,0,0,-1,1952,400,0,0
735,624,0,0,0,0,0,0,0,0,0,-1,1959,400,0,0
742,624,0,0,0,0,0,0,0,0,0,-1,1966,400,0,0
749,624,0,0,0,0,0,0,0,0,0,-1,1973,400,0,0
756,624,0,0,0,0,0,0,0,0,0,-1,1980,400,0,0
763,624,0,0,0,0,0,0,0,0,0,-1,1987,400,0,0
770,624,0,0,0,0,0,0,0,0,0,-1,1994,400,0,0
777,624,0,0,0,0,0,0,0,0,0,-1,2001,400,0,0
784,624,0,0,0,0,0,0,0,0,0,-1,2008,400,0,0
791,624,0,0,0,0,0,0,0,0,0,-1,2015,400,0,0
798,624,0,0,0,0,0,0,0,0,0,-1,2022,400,0,0
805,624,0,0,0,0,0,0,0,0,0,-1,2029,400,0,0
812,624,0,0,0,0,0,0,0,0,0,-1,2036,400,0,0
-700,617,0,0,0,0,0,0,0,0,0,-1,524,407,0,0
-693,617,0,0,0,0,0,0,0,0,0,-1,531,407,0,0
-686,617,0,0,0,0,0,0,0,0,0,-1,538,407,0,0
-679,617,0,0,0,0,0,0,0,0,0,-1,545,407,0,0
-672,617,0,0,0,0,0,0,0,0,0,-1,552,407,0,0
-665,617,0,0,0,0,0,0,0,0,0,-1,559,407,0,0
-658,617,0,0,0,0,0,0,0,0,0,-1,566,407,0,0
-651,617,0,0,0,0,0,0,0,0,0,-1,573,407,0,0
-644,617,0,0,0,0,0,0,0,0,0,-1,580,407,0,0
-637,617,0,0,0,0,0,0,0,0,0,-1,587,407,0,0
-630,617,0,0,0,0,0,0,0,0,0,-1,594,407,0,0
-623,617,0,0,0,0,0,0,0,0,0,-1,601,407,0,0
-616,617,0,0,0,0,0,0,0,0,0,-1,608,407,0,0
-609,617,0,0,0,0,0,0,0,0,0,-1,615,407,0,0
-602,617,0,0,0,0,0,0,0,0,0,-1,622,407,0,0
-595,617,0,0,0,0,0,0,0,0,0,-1,629,407,0,0
-588,617,0,0,0,0,0,0,0,0,0,-1,636,407,0,0
-581,617,0,0,0,0,0,0,0,0,0,-1,643,407,0,0
-574,617,0,0,0,0,0,0,0,0,0,-1,650,407,0,0
-567,617,0,0,0,0,0,0,0,0,0,-1,657,407,0,0
-560,617,0,0,0,0,0,0,0,0,0,-1,664,407,0,0
-553,617,0,0,0,0,0,0,0,0,0,-1,671,407,0,0
-546,617,0,0,0,0,0,0,0,0,0,-1,678,407,0,0
-539,617,0,0,0,0,0,0,0,0,0,-1,685,407,0,0
-532,617,0,0,0,0,0,0,0,0,0,-1,692,407,0,0
-525,617,0,0,0,0,0,0,0,0,0,-1,699,407,0,0
-518,617,0,0,0,0,0,0,0,0,0,-1,706,407,0,0
-511,617,0,0,0,0,0,0,0,0,0,-1,713,407,0,0
-504,617,0,0,0,0,0,0,0,0,0,-1,720,407,0,0
-497,617,0,0,0,0,0,0,0,0,0,-1,727,407,0,0
-490,617,0,0,0,0,0,0,0,0,0,-1,734,407,0,0
-483,617,0,0,0,0,0,0,0,0,0,-1,741,407,0,0
-476,617,0,0,0,0,0,0,0,0,0,-1,748,407,0,0
-469,617,0,0,0,0,0,0,0,0,0,-1,755,407,0,0
-462,617,0,0,0,0,0,0,0,0,0,-1,762,407,0,0
-455,617,0,0,0,0,0,0,0,0,0,-1,769,407,0,0
-448,617,0,0,0,0,0,0,0,0,0,-1,776,407,0,0
-441,617,0,0,0,0,0,0,0,0,0,-1,783,407,0,0
-434,617,0,0,0,0,0,0,0,0,0,-1,790,407,0,0
-427,617,0,0,0,0,0,0,0,0,0,-1,797,407,0,0
-420,617,0,0,0,0,0,0,0,0,0,-1,804,407,0,0
-413,617,0,0,0,0,0,0,0,0,0,-1,811,407,0,0
-406,617,0,0,0,0,0,0,0,0,0,-1,818,407,0,0
-399,617,0,0,0,0,0,0,0,0,0,-1,825,407,0,0
-392,617,0,0,0,0,0,0,0,0,0,-1,832,407,0,0
-385,617,0,0,0,0,0,0,0,0,0,-1,839,407,0,0
-378,617,0,0,0,0,0,0,0,0,0,-1,846,407,0,0
-371,617,0,0,0,0,0,0,0,0,0,-1,853,407,0,0
-364,617,0,0,0,0,0,0,0,0,0,-1,860,407,0,0
-357,617,0,0,0,0,0,0,0,0,0,-1,867,407,0,0
-350,617,0,0,0,0,0,0,0,0,0,-1,874,407,0,0
-343,617,0,0,0,0,0,0,0,0,0,-1,881,407,0,0
-336,617,0,0,0,0,0,0,0,0,0,-1,888,407,0,0
-329,617,0,0,0,0,0,0,0,0,0,-1,895,407,0,0
-322,617,0,0,0,0,0,0,0,0,0,-1,902,407,0,0
-315,617,0,0,0,0,0,0,0,0,0,-1,909,407,0,0
-308,617,0,0,0,0,0,0,0,0,0,-1,916,407,0,0
-301,617,6.81897,-24.525,0,0,0,0,0,0,0,-1,923,407,6.81899,24.525
-294,617,6.19263,-26.917,0,0,0,0,0,0,0,-1,930,407,6.19261,26.917
-287,617,7.00409,-31.9773,0,0,0,0,0,0,0,-1,937,407,7.00406,31.9773
-280,617,9.1106,-36.5021,0,0,0,0,0,0,0,-1,944,407,9.11059,36.5021
-273,617,8.35004,-36.2751,0,0,0,0,0,0,0,-1,951,407,8.35003,36.2751
-266,617,7.61749,-36.1671,0,0,0,0,0,0,0,-1,958,407,7.61746,36.1671
-259,617,6.83643,-36.3605,0,0,0,0,0,0,0,-1,965,407,6.83643,36.3605
-252,617,6.02264,-36.5001,0,0,0,0,0,0,0,-1,972,407,6.02265,36.5001
-245,617,6.72626,-34.4465,0,0,0,0,0,0,0,-1,979,407,6.72627,34.4465
-238,617,5.6474,-34.6842,0,0,0,0,0,0,0,-1,986,407,5.64741,34.6842
-231,617,6.45605,-40.3772,0,0,0,0,0,0,0,-1,993,407,6.45605,40.3772
-224,617,6.82806,-42.5262,0,0,0,0,0,0,0,-1,1000,407,6.82805,42.5261
-217,617,6.84247,-43.3809,0,0,0,0,0,0,0,-1,1007,407,6.84247,43.3809
-210,617,6.76624,-44.2602,-0.0016897,0.0191262,-0.00899069,0.0224717,-0.00503522,-1.21456,0.0169113,0.0356337,1014,407,6.76621,44.2602
-203,617,6.76758,-45.0317,-0.00195658,0.0169795,-0.00828425,0.0200921,-0.00506918,-1.21139,0.0153658,0.0242912,1021,407,6.76758,45.0317
-196,617,6.63416,-45.6288,-0.00224138,0.0160581,-0.00761844,0.0188146,-0.00499787,-1.22363,0.0144991,0.0208204,1028,407,6.6341,45.6288
-189,617,6.57556,-46.2756,-0.00238719,0.015138,-0.00722831,0.0177347,-0.00498379,-1.22593,0.0137879,0.0163767,1035,407,6.57559,46.2756
-182,617,6.54285,-46.9561,-0.00239101,0.01402,-0.00679197,0.0164663,-0.00483732,-1.22508,0.012896,0.0180524,1042,407,6.54284,46.9561
-175,617,6.52344,-47.5905,-0.00235299,0.013273,-0.00628918,0.0154898,-0.00456978,-1.23192,0.0121399,0.01681,1049,407,6.52343,47.5905
-168,617,6.46375,-48.2347,-0.00232568,0.0121502,-0.0057018,0.0141263,-0.00430177,-1.23718,0.011132,0.0125086,1056,407,6.46378,48.2347
-161,617,6.38281,-48.9026,-0.00215173,0.0110989,-0.00508424,0.0128249,-0.00387772,-1.24353,0.0100939,0.0110451,1063,407,6.38282,48.9026
-154,617,6.33154,-49.5025,-0.00199484,0.0100003,-0.00440913,0.0114466,-0.00344115,-1.25383,0.00900012,0.0123598,1070,407,6.33153,49.5025
-147,617,6.31506,-50.0636,-0.0018063,0.00879821,-0.00375956,0.00999582,-0.0030039,-1.26241,0.00785893,0.0176616,1077,407,6.31505,50.0636
-140,617,6.28723,-50.6525,-0.00153611,0.00738244,-0.00311469,0.00836251,-0.00251617,-1.26595,0.00657619,0.0141537,1084,407,6.2872,50.6525
-133,617,6.23059,-51.1806,-0.00124762,0.00594969,-0.00252317,0.00674611,-0.00204404,-1.26505,0.00531152,0.0158367,1091,407,6.23063,51.1806
-126,617,6.19409,-51.6714,-0.000991381,0.00448773,-0.00192765,0.00509795,-0.0016016,-1.26421,0.00403975,0.0152801,1098,407,6.19409,51.6714
-119,617,6.17639,-52.2304,-0.000642168,0.00322611,-0.00141181,0.00368657,-0.00110263,-1.25553,0.00289609,0.0157114,1105,407,6.1764,52.2304
-112,617,6.17297,-52.7389,-0.000260396,0.00223471,-0.00097843,0.00257263,-0.000598312,-1.23826,0.00194544,0.0169755,1112,407,6.17303,52.7388
-105,617,6.17603,-53.2147,9.26554e-05,0.00147719,-0.000664687,0.00174464,-0.000174787,-1.18826,0.00122551,0.0184316,1119,407,6.17608,53.2147
-98,617,6.14355,-53.6913,0.000484242,0.000851988,-0.000429198,0.00113504,0.000201189,-0.987776,0.000699345,0.0143275,1126,407,6.14359,53.6913
-91,617,6.1322,-54.1458,0.000958921,0.00037383,-0.000264208,0.00106057,0.000272181,-0.367272,0.000636037,0.0194084,1133,407,6.13216,54.1458
-84,617,6.15564,-54.6259,0.001534,0.000149479,-9.3929e-05,0.00154035,0.000143136,-0.0674303,0.000982667,0.0199677,1140,407,6.15561,54.6259
-77,617,6.14771,-55.0647,0.00218665,2.26914e-05,-3.55569e-05,0.00218724,2.21073e-05,-0.0164255,0.00145084,0.0157792,1147,407,6.14768,55.0647
-70,617,6.18616,-55.5028,0.00292238,9.70524e-05,-3.31559e-05,0.00292277,9.66634e-05,-0.0117331,0.0019171,0.0171818,1154,407,6.18617,55.5028
-63,617,6.23792,-55.9234,0.00360699,-2.46157e-05,0.00036472,0.00364326,-6.08821e-05,0.0991104,0.00244939,0.0213509,1161,407,6.23789,55.9234
-56,617,6.19128,-56.2831,0.00411856,-0.000456155,0.000954961,0.00430991,-0.000647498,0.197748,0.00311164,0.0161031,1168,407,6.19134,56.2831
-49,617,6.1886,-56.6546,0.00461708,-0.000860276,0.00133525,0.00492525,-0.00116844,0.22682,0.00373441,0.0122165,1175,407,6.18861,56.6546
-42,617,6.22412,-57.0054,0.00465433,-0.00129937,0.00173083,0.00512094,-0.00176597,0.263326,0.00413044,0.0129385,1182,407,6.22415,57.0054
-35,617,6.26941,-57.3212,0.00425205,-0.00177597,0.00190384,0.00480299,-0.00232691,0.281688,0.00419837,0.0174283,1189,407,6.26945,57.3212
-28,617,6.26697,-57.6075,0.00274548,-0.0026776,0.00167065,0.00321883,-0.00315095,0.276097,0.00367766,0.0188061,1196,407,6.26697,57.6075
-21,617,6.32227,-57.8548,0.00150948,-0.00370472,0.00136233,0.00184396,-0.0040392,0.240761,0.00347457,0.013861,1203,407,6.32233,57.8548
-14,617,6.35803,-58.1081,0.000168165,-0.00441494,0.000954465,0.000358994,-0.00460577,0.197331,0.00319691,0.016106,1210,407,6.35804,58.1081
-7,617,6.38708,-58.3139,-0.00112598,-0.00539244,0.000509253,-0.00106603,-0.00545238,0.117169,0.00333683,0.0196845,1217,407,6.38704,58.3139
0,617,6.46729,-58.5112,-0.003024,-0.00621973,2.34494e-05,-0.00302382,-0.0062199,0.00733718,0.00359152,0.0181881,1224,407,6.46729,58.5112
7,617,6.54553,-58.7949,-0.00491632,-0.00670184,-0.00033627,-0.00485509,-0.00676307,-0.180114,0.00402634,0.0138338,1231,407,6.54558,58.7949
14,617,6.61194,-59,-0.00697766,-0.00704781,-0.000503658,-0.00650786,-0.00751761,-0.750633,0.00471136,0.0161472,1238,407,6.61196,59
21,617,6.66516,-59.1201,-0.00852814,-0.00735298,-0.00067638,-0.0070446,-0.00883652,-1.14303,0.00539385,0.0147302,1245,407,6.66518,59.1201
28,617,6.73047,-59.2796,-0.0097769,-0.00748889,-0.000653404,-0.00731544,-0.00995035,-1.31133,0.00595292,0.013726,1252,407,6.73051,59.2796
35,617,6.72571,-59.4021,-0.0106841,-0.00734672,-0.000466196,-0.00728282,-0.010748,-1.43458,0.00633451,0.0162841,1259,407,6.72575,59.4021
42,617,6.84094,-59.4369,-0.0114258,-0.00707558,-0.000213147,-0.00706516,-0.0114362,-1.52196,0.00666349,0.0232639,1266,407,6.84097,59.4369
49,617,6.96301,-59.4622,-0.0115491,-0.00631388,7.56961e-05,-0.00631279,-0.0115501,1.55634,0.00667811,0.0223272,1273,407,6.96303,59.4622
56,617,6.99316,-59.5085,-0.0105258,-0.00431884,0.000973578,-0.00416971,-0.0106749,1.41881,0.00621214,0.0154037,1280,407,6.99312,59.5085
63,617,7.05981,-59.5461,-0.00887144,-0.00240149,0.0019418,-0.00186345,-0.00940948,1.30049,0.00575332,0.0121041,1287,407,7.05986,59.5461
70,617,7.11023,-59.5929,-0.00692272,-0.000296284,0.00284761,0.000759285,-0.00797829,1.21581,0.00558917,0.0178287,1294,407,7.11027,59.5929
77,617,7.2251,-59.5118,-0.00493628,0.00176606,0.00370758,0.00341254,-0.00658276,1.15287,0.00586674,0.0156659,1301,407,7.22511,59.5118
84,617,7.29724,-59.4314,-0.00364052,0.00288291,0.00398266,0.00476905,-0.00552666,1.1285,0.00594959,0.0121663,1308,407,7.29723,59.4314
91,617,7.34192,-59.3681,-0.00230984,0.00332158,0.00400534,0.00540188,-0.00439014,1.09176,0.00566348,0.0111211,1315,407,7.34193,59.3681
98,617,7.3999,-59.274,-0.00154126,0.00389223,0.00393956,0.00596097,-0.00361,1.08726,0.00558109,0.0134336,1322,407,7.3999,59.274
105,617,7.48071,-59.1444,-0.000218434,0.00392151,0.00387504,0.0062448,-0.00254172,1.03071,0.00522092,0.0158154,1329,407,7.48066,59.1444
112,617,7.55359,-59.0181,0.000420639,0.00300475,0.00342211,0.0053706,-0.0019452,0.965906,0.00437539,0.0182757,1336,407,7.55361,59.0181
119,617,7.59558,-58.8305,0.00104779,0.00207854,0.00286405,0.00447322,-0.00134688,0.874418,0.00351812,0.0212562,1343,407,7.59553,58.8305
126,617,7.61792,-58.5963,0.000946463,0.00108608,0.00226596,0.00328331,-0.00125077,0.800797,0.00270401,0.0232609,1350,407,7.61788,58.5963
133,617,7.68262,-58.3585,0.00101256,0.000136798,0.00161257,0.00224564,-0.00109628,0.652824,0.00196713,0.0197799,1357,407,7.68268,58.3585
140,617,7.76843,-58.1339,0.00124444,-0.000877229,0.00098162,0.00162892,-0.00126171,0.373317,0.00167339,0.0169883,1364,407,7.76842,58.1338
147,617,7.76807,-57.8556,0.00164514,-0.00192915,0.000349357,0.00167897,-0.00196298,0.0965242,0.00210481,0.0202433,1371,407,7.76806,57.8556
154,617,7.86865,-57.5986,0.00215307,-0.00268387,-0.000253327,0.0021663,-0.00269711,-0.0521831,0.00281346,0.0229734,1378,407,7.8687,57.5986
161,617,7.93774,-57.3368,0.00265348,-0.00369788,-0.00106745,0.00282808,-0.00387248,-0.162133,0.00388421,0.0249378,1385,407,7.93777,57.3368
168,617,7.96753,-57.0115,0.00312194,-0.00413273,-0.00172418,0.00351086,-0.00452166,-0.221859,0.0046498,0.0241178,1392,407,7.96748,57.0115
175,617,7.97717,-56.6431,0.00356754,-0.00409051,-0.00199686,0.00405695,-0.00457992,-0.240352,0.00498954,0.0182226,1399,407,7.9772,56.6431
182,617,8.01501,-56.2427,0.00420532,-0.00325567,-0.0019593,0.00468855,-0.00373889,-0.241807,0.00487587,0.0111849,1406,407,8.01497,56.2427
189,617,8.00342,-55.8328,0.00446198,-0.00161349,-0.00145958,0.00479444,-0.00194595,-0.223956,0.00400572,0.0114409,1413,407,8.00337,55.8328
196,617,7.99194,-55.4338,0.00373816,-0.000385559,-0.00103032,0.00398126,-0.000628654,-0.231705,0.00288663,0.0158152,1420,407,7.99195,55.4338
203,617,7.99512,-55.0257,0.00310455,0.000477844,-0.000654353,0.00325853,0.000323861,-0.231116,0.00207285,0.0161468,1427,407,7.99516,55.0257
210,617,8.03162,-54.5652,0.00230943,0.00135868,-0.00026625,0.00237891,0.00128919,-0.255275,0.00137508,0.015739,1434,407,8.03166,54.5652
217,617,8.0282,-54.049,0.00173219,0.00220499,0.000161376,0.00225482,0.00168236,1.27131,0.00135337,0.0206357,1441,407,8.0282,54.049
224,617,8.05432,-53.6179,0.0012862,0.00305573,0.000579958,0.00322887,0.00111306,1.28068,0.00189392,0.0198101,1448,407,8.05428,53.6179
231,617,8.07666,-53.158,0.000907101,0.0038573,0.00106406,0.00420103,0.000563373,1.25834,0.00263306,0.0147771,1455,407,8.0766,53.158
238,617,8.06213,-52.6631,0.000633812,0.00466879,0.00145064,0.00513617,0.000166424,1.2591,0.00337001,0.0153604,1462,407,8.06217,52.6631
245,617,8.04419,-52.1277,0.000372574,0.00559818,0.0017885,0.00615168,-0.000180926,1.27067,0.00416274,0.0131953,1469,407,8.04419,52.1277
252,617,8.01709,-51.5309,3.40786e-05,0.00665687,0.00214399,0.00729034,-0.000599399,1.2835,0.00507185,0.0144368,1476,407,8.01706,51.5309
259,617,7.9624,-50.9666,-0.000365711,0.00756369,0.00251773,0.00829557,-0.00109759,1.2879,0.0059302,0.0125587,1483,407,7.96241,50.9666
266,617,7.9342,-50.3617,-0.000788502,0.00836657,0.0028966,0.00920606,-0.00162799,1.28871,0.00674584,0.0139837,1490,407,7.93419,50.3617
273,617,7.89575,-49.76,-0.0011805,0.00920663,0.00330155,0.0101672,-0.00214107,1.28767,0.00759312,0.0137413,1497,407,7.8957,49.76
280,617,7.8396,-49.1901,-0.00146137,0.00999159,0.00376006,0.0111157,-0.00258548,1.28029,0.0084059,0.012925,1504,407,7.83965,49.1901
287,617,7.80334,-48.5716,-0.00163531,0.0109003,0.00435158,0.0122628,-0.00299781,1.26736,0.00933631,0.0123581,1511,407,7.80333,48.5716
294,617,7.7627,-47.95,-0.00188823,0.0116617,0.00489745,0.0132464,-0.00347301,1.25784,0.0101879,0.0101372,1518,407,7.76275,47.95
301,617,7.71594,-47.3312,-0.00212682,0.0124187,0.00547409,0.0142486,-0.00395674,1.24819,0.0110565,0.00830817,1525,407,7.716,47.3312
308,617,7.67249,-46.6828,-0.00219272,0.0132868,0.00611288,0.0154097,-0.00431557,1.23655,0.0119738,0.00882535,1532,407,7.6725,46.6828
315,617,7.60999,-46.0301,-0.00212733,0.0142834,0.00686483,0.0167763,-0.00462028,1.22246,0.0130009,0.0104386,1539,407,7.61002,46.0301
322,617,7.53296,-45.3353,-0.00210863,0.0151043,0.00769141,0.0180403,-0.00504465,1.20614,0.0140144,0.0164361,1546,407,7.53296,45.3353
329,617,7.50891,-44.6314,-0.00206947,0.0161064,0.0085863,0.019521,-0.00548414,1.19228,0.015176,0.0224845,1553,407,7.50886,44.6314
336,617,7.55652,-43.7549,-0.00191324,0.0178202,0.00957419,0.0217018,-0.00579488,1.18562,0.0167373,0.0443136,1560,407,7.5565,43.7549
343,617,7.55127,-43.1439,0,0,0,0,0,0,0,-1,1567,407,7.55126,43.1439
350,617,7.25708,-42.4299,0,0,0,0,0,0,0,-1,1574,407,7.2571,42.4299
357,617,7.10889,-41.4691,0,0,0,0,0,0,0,-1,1581,407,7.10886,41.4691
364,617,7.59924,-38.6995,0,0,0,0,0,0,0,-1,1588,407,7.59927,38.6995
371,617,2.60266,-6.20667,0,0,0,0,0,0,0,-1,1595,407,2.60261,6.20668
378,617,1.56921,-10.3601,0,0,0,0,0,0,0,-1,1602,407,1.56918,10.3601
385,617,1.74146,-10.3561,0,0,0,0,0,0,0,-1,1609,407,1.7414,10.3561
392,617,1.96936,-5.10449,0,0,0,0,0,0,0,-1,1616,407,1.96931,5.10451
399,617,2.48889,-5.81256,0,0,0,0,0,0,0,-1,1623,407,2.48888,5.81255
406,617,3.01465,-6.51642,0,0,0,0,0,0,0,-1,1630,407,3.01461,6.51643
413,617,3.6427,-7.2074,0,0,0,0,0,0,0,-1,1637,407,3.64274,7.20739
420,617,3.42737,-4.47391,0,0,0,0,0,0,0,-1,1644,407,3.42737,4.47391
427,617,0,0,0,0,0,0,0,0,0,-1,1651,407,0,0
434,617,0,0,0,0,0,0,0,0,0,-1,1658,407,0,0
441,617,0,0,0,0,0,0,0,0,0,-1,1665,407,0,0
448,617,0,0,0,0,0,0,0,0,0,-1,1672,407,0,0
455,617,0,0,0,0,0,0,0,0,0,-1,1679,407,0,0
462,617,0,0,0,0,0,0,0,0,0,-1,1686,407,0,0
469,617,0,0,0,0,0,0,0,0,0,-1,1693,407,0,0
476,617,0,0,0,0,0,0,0,0,0,-1,1700,407,0,0
483,617,0,0,0,0,0,0,0,0,0,-1,1707,407,0,0
490,617,0,0,0,0,0,0,0,0,0,-1,1714,407,0,0
497,617,0,0,0,0,0,0,0,0,0,-1,1721,407,0,0
504,617,0,0,0,0,0,0,0,0,0,-1,1728,407,0,0
511,617,0,0,0,0,0,0,0,0,0,-1,1735,407,0,0
518,617,0,0,0,0,0,0,0,0,0,-1,1742,407,0,0
525,617,0,0,0,0,0,0,0,0,0,-1,1749,407,0,0
532,617,0,0,0,0,0,0,0,0,0,-1,1756,407,0,0
539,617,0,0,0,0,0,0,0,0,0,-1,1763,407,0,0
546,617,0,0,0,0,0,0,0,0,0,-1,1770,407,0,0
553,617,0,0,0,0,0,0,0,0,0,-1,1777,407,0,0
560,617,0,0,0,0,0,0,0,0,0,-1,1784,407,0,0
567,617,0,0,0,0,0,0,0,0,0,-1,1791,407,0,0
574,617,0,0,0,0,0,0,0,0,0,-1,1798,407,0,0
581,617,0,0,0,0,0,0,0,0,0,-1,1805,407,0,0
588,617,0,0,0,0,0,0,0,0,0,-1,1812,407,0,0
595,617,0,0,0,0,0,0,0,0,0,-1,1819,407,0,0
602,617,0,0,0,0,0,0,0,0,0,-1,1826,407,0,0
609,617,0,0,0,0,0,0,0,0,0,-1,1833,407,0,0
616,617,0,0,0,0,0,0,0,0,0,-1,1840,407,0,0
623,617,0,0,0,0,0,0,0,0,0,-1,1847,407,0,0
630,617,0,0,0,0,0,0,0,0,0,-1,1854,407,0,0
637,617,0,0,0,0,0,0,0,0,0,-1,1861,407,0,0
644,617,0,0,0,0,0,0,0,0,0,-1,1868,407,0,0
651,617,0,0,0,0,0,0,0,0,0,-1,1875,407,0,0
658,617,0,0,0,0,0,0,0,0,0,-1,1882,407,0,0
665,617,0,0,0,0,0,0,0,0,0,-1,1889,407,0,0
672,617,0,0,0,0,0,0,0,0,0,-1,1896,407,0,0
679,617,0,0,0,0,0,0,0,0,0,-1,1903,407,0,0
686,617,0,0,0,0,0,0,0,0,0,-1,1910,407,0,0
693,617,0,0,0,0,0,0,0,0,0,-1,1917,407,0,0
700,617,0,0,0,0,0,0,0,0,0,-1,1924,407,0,0
707,617,0,0,0,0,0,0,0,0,0,-1,1931,407,0,0
714,617,0,0,0,0,0,0,0,0,0,-1,1938,407,0,0
721,617,0,0,0,0,0,0,0,0,0,-1,1945,407,0,0
728,617,0,0,0,0,0,0,0,0,0,-1,1952,407,0,0
735,617,0,0,0,0,0,0,0,0,0,-1,1959,407,0,0
742,617,0,0,0,0,0,0,0,0,0,-1,1966,407,0,0
749,617,0,0,0,0,0,0,0,0,0,-1,1973,407,0,0
756,617,0,0,0,0,0,0,0,0,0,-1,1980,407,0,0
763,617,0,0,0,0,0,0,0,0,0,-1,1987,407,0,0
770,617,0,0,0,0,0,0,0,0,0,-1,1994,407,0,0
777,617,0,0,0,0,0,0,0,0,0,-1,2001,407,0,0
784,617,0,0,0,0,0,0,0,0,0,-1,2008,407,0,0
791,617,0,0,0,0,0,0,0,0,0,-1,2015,407,0,0
798,617,0,0,0,0,0,0,0,0,0,-1,2022,407,0,0
805,617,0,0,0,0,0,0,0,0,0,-1,2029,407,0,0
812,617,0,0,0,0,0,0,0,0,0,-1,2036,407,0,0
-700,610,0,0,0,0,0,0,0,0,0,-1,524,414,0,0
-693,610,0,0,0,0,0,0,0,0,0,-1,531,414,0,0
-686,610,0,0,0,0,0,0,0,0,0,-1,538,414,0,0
-679,610,0,0,0,0,0,0,0,0,0,-1,545,414,0,0
-672,610,0,0,0,0,0,0,0,0,0,-1,552,414,0,0
-665,610,0,0,0,0,0,0,0,0,0,-1,559,414,0,0
-658,610,0,0,0,0,0,0,0,0,0,-1,566,414,0,0
-651,610,0,0,0,0,0,0,0,0,0,-1,573,414,0,0
-644,610,0,0,0,0,0,0,0,0,0,-1,580,414,0,0
-637,610,0,0,0,0,0,0,0,0,0,-1,587,414,0,0
-630,610,0,0,0,0,0,0,0,0,0,-1,594,414,0,0
-623,610,0,0,0,0,0,0,0,0,0,-1,601,414,0,0
-616,610,0,0,0,0,0,0,0,0,0,-1,608,414,0,0
-609,610,0,0,0,0,0,0,0,0,0,-1,615,414,0,0
-602,610,0,0,0,0,0,0,0,0,0,-1,622,414,0,0
-595,610,0,0,0,0,0,0,0,0,0,-1,629,414,0,0
-588,610,0,0,0,0,0,0,0,0,0,-1,636,414,0,0
-581,610,0,0,0,0,0,0,0,0,0,-1,643,414,0,0
-574,610,0,0,0,0,0,0,0,0,0,-1,650,414,0,0
-567,610,0,0,0,0,0,0,0,0,0,-1,657,414,0,0
-560,610,0,0,0,0,0,0,0,0,0,-1,664,414,0,0
-553,610,0,0,0,0,0,0,0,0,0,-1,671,414,0,0
-546,610,0,0,0,0,0,0,0,0,0,-1,678,414,0,0
-539,610,0,0,0,0,0,0,0,0,0,-1,685,414,0,0
-532,610,0,0,0,0,0,0,0,0,0,-1,692,414,0,0
-525,610,0,0,0,0,0,0,0,0,0,-1,699,414,0,0
-518,610,0,0,0,0,0,0,0,0,0,-1,706,414,0,0
-511,610,0,0,0,0,0,0,0,0,0,-1,713,414,0,0
-504,610,0,0,0,0,0,0,0,0,0,-1,720,414,0,0
-497,610,0,0,0,0,0,0,0,0,0,-1,727,414,0,0
-490,610,0,0,0,0,0,0,0,0,0,-1,734,414,0,0
-483,610,0,0,0,0,0,0,0,0,0,-1,741,414,0,0
-476,610,0,0,0,0,0,0,0,0,0,-1,748,414,0,0
-469,610,0,0,0,0,0,0,0,0,0,-1,755,414,0,0
-462,610,0,0,0,0,0,0,0,0,0,-1,762,414,0,0
-455,610,0,0,0,0,0,0,0,0,0,-1,769,414,0,0
-448,610,0,0,0,0,0,0,0,0,0,-1,776,414,0,0
-441,610,0,0,0,0,0,0,0,0,0,-1,783,414,0,0
-434,610,0,0,0,0,0,0,0,0,0,-1,790,414,0,0
-427,610,0,0,0,0,0,0,0,0,0,-1,797,414,0,0
-420,610,0,0,0,0,0,0,0,0,0,-1,804,414,0,0
-413,610,0,0,0,0,0,0,0,0,0,-1,811,414,0,0
-406,610,0,0,0,0,0,0,0,0,0,-1,818,414,0,0
-399,610,0,0,0,0,0,0,0,0,0,-1,825,414,0,0
-392,610,0,0,0,0,0,0,0,0,0,-1,832,414,0,0
-385,610,0,0,0,0,0,0,0,0,0,-1,839,414,0,0
-378,610,0,0,0,0,0,0,0,0,0,-1,846,414,0,0
-371,610,0,0,0,0,0,0,0,0,0,-1,853,414,0,0
-364,610,0,0,0,0,0,0,0,0,0,-1,860,414,0,0
-357,610,0,0,0,0,0,0,0,0,0,-1,867,414,0,0
-350,610,0,0,0,0,0,0,0,0,0,-1,874,414,0,0
-343,610,0,0,0,0,0,0,0,0,0,-1,881,414,0,0
-336,610,0,0,0,0,0,0,0,0,0,-1,888,414,0,0
-329,610,0,0,0,0,0,0,0,0,0,-1,895,414,0,0
-322,610,0,0,0,0,0,0,0,0,0,-1,902,414,0,0
-315,610,7.68475,-21.5402,0,0,0,0,0,0,0,-1,909,414,7.68475,21.5402
-308,610,3.97211,-23.4133,0,0,0,0,0,0,0,-1,916,414,3.9721,23.4133
-301,610,7.38513,-22.4166,0,0,0,0,0,0,0,-1,923,414,7.38516,22.4166
-294,610,6.77832,-24.1945,0,0,0,0,0,0,0,-1,930,414,6.77829,24.1946
-287,610,3.39276,-28.5804,0,0,0,0,0,0,0,-1,937,414,3.39276,28.5803
-280,610,8.8728,-35.4336,0,0,0,0,0,0,0,-1,944,414,8.87283,35.4336
-273,610,8.14722,-35.5264,0,0,0,0,0,0,0,-1,951,414,8.14723,35.5264
-266,610,7.38361,-35.6366,0,0,0,0,0,0,0,-1,958,414,7.38359,35.6366
-259,610,6.47375,-35.762,0,0,0,0,0,0,0,-1,965,414,6.47373,35.762
-252,610,5.65308,-35.8931,0,0,0,0,0,0,0,-1,972,414,5.65305,35.8931
-245,610,6.51654,-40.6152,0,0,0,0,0,0,0,-1,979,414,6.51654,40.6152
-238,610,6.34155,-41.2396,0,0,0,0,0,0,0,-1,986,414,6.34153,41.2396
-231,610,6.31116,-41.9385,0,0,0,0,0,0,0,-1,993,414,6.31116,41.9385
-224,610,6.22534,-42.7424,-0.000918026,0.0187227,-0.00830954,0.0217666,-0.00396187,-1.21967,0.0159961,0.0327256,1000,414,6.22536,42.7424
-217,610,6.20538,-43.5388,-0.00105784,0.0168156,-0.007684,0.0196648,-0.00390709,-1.21571,0.0145877,0.0210561,1007,414,6.20538,43.5389
-210,610,6.14636,-44.3354,-0.00119174,0.0150448,-0.00706929,0.0176913,-0.00383828,-1.21258,0.0132601,0.0146951,1014,414,6.14638,44.3354
-203,610,6.1156,-45.0389,-0.00129685,0.0132651,-0.00645211,0.0157125,-0.00374431,-1.20824,0.0119208,0.0173347,1021,414,6.11554,45.039
-196,610,6.04871,-45.7023,-0.00142172,0.012201,-0.00586353,0.0143772,-0.00359788,-1.21542,0.0109823,0.0152023,1028,414,6.04873,45.7023
-189,610,5.99536,-46.3472,-0.00145197,0.0111503,-0.00548881,0.0132057,-0.00350735,-1.21249,0.0101764,0.0124145,1035,414,5.99538,46.3472
-182,610,5.96362,-46.9778,-0.00138296,0.00998556,-0.0050616,0.0119125,-0.00330991,-1.20704,0.00924465,0.0144527,1042,414,5.96357,46.9778
-175,610,5.92334,-47.6036,-0.00128672,0.00903985,-0.0045554,0.0107621,-0.00300901,-1.20933,0.00836026,0.0155873,1049,414,5.92337,47.6036
-168,610,5.85498,-48.2408,-0.00120879,0.00787191,-0.00399584,0.00937983,-0.00271671,-1.20995,0.0073286,0.0132618,1056,414,5.85502,48.2408
-161,610,5.82153,-48.9231,-0.0010315,0.0067622,-0.00339331,0.00803256,-0.00230185,-1.21258,0.0062649,0.0114706,1063,414,5.82156,48.923
-154,610,5.80933,-49.4998,-0.00086366,0.00562974,-0.00272003,0.00661856,-0.00185248,-1.22212,0.00514232,0.0147667,1070,414,5.80932,49.4998
-147,610,5.77686,-50.0318,-0.00065814,0.00444793,-0.00206048,0.00517568,-0.00138589,-1.23128,0.0039934,0.0176951,1077,414,5.7769,50.0318
-140,610,5.73438,-50.6158,-0.000386316,0.00309868,-0.00140389,0.00359386,-0.000881495,-1.2317,0.00273746,0.0140644,1084,414,5.73434,50.6158
-133,610,5.70728,-51.1433,-9.83804e-05,0.00177895,-0.000802439,0.0020752,-0.000394624,-1.21714,0.00153204,0.0151892,1091,414,5.70732,51.1433
-126,610,5.68164,-51.6451,0.00020267,0.000544262,-0.000252948,0.000678677,6.82541e-05,-1.08235,0.000431503,0.0139279,1098,414,5.68169,51.6451
-119,610,5.69128,-52.206,0.000610917,-0.000491843,0.000221324,0.000653679,-0.000534605,0.190856,0.000687203,0.0120919,1105,414,5.69122,52.206
-112,610,5.70618,-52.7126,0.00103686,-0.00123597,0.000593267,0.0011824,-0.00138151,0.240566,0.00148176,0.0203282,1112,414,5.70615,52.7126
-105,610,5.68481,-53.2066,0.00144028,-0.00170247,0.000828497,0.00164531,-0.0019075,0.242602,0.00205308,0.0199371,1119,414,5.68485,53.2066
-98,610,5.67114,-53.688,0.00193185,-0.00202544,0.0009713,0.0021574,-0.00225099,0.228167,0.00254538,0.0139492,1126,414,5.67119,53.688
-91,610,5.68579,-54.1797,0.00256195,-0.00193359,0.000997567,0.00277337,-0.00214501,0.208844,0.00284734,0.0152694,1133,414,5.68576,54.1798
-84,610,5.70142,-54.6188,0.00335001,-0.00171684,0.00100823,0.00354326,-0.00191009,0.189379,0.00319521,0.0162047,1140,414,5.70139,54.6188
-77,610,5.70093,-55.0717,0.00427291,-0.001654,0.000856985,0.00439434,-0.00177542,0.140753,0.00366752,0.013138,1147,414,5.70091,55.0717
-70,610,5.74902,-55.5206,0.00534617,-0.00107132,0.000611938,0.005404,-0.00112915,0.0942232,0.0040321,0.0156373,1154,414,5.74906,55.5206
-63,610,5.80322,-55.9249,0.0062803,-0.00081482,0.00106983,0.0064381,-0.000972624,0.146448,0.00465031,0.0158948,1161,414,5.8032,55.9249
-56,610,5.8374,-56.2796,0.00687121,-0.00120208,0.00192496,0.00730669,-0.00163757,0.222487,0.00549887,0.0141579,1168,414,5.83743,56.2796
-49,610,5.83704,-56.6149,0.00741551,-0.00156201,0.00236882,0.00800221,-0.0021487,0.242789,0.0061769,0.0139812,1175,414,5.83699,56.6149
-42,610,5.87585,-56.9621,0.00699248,-0.00207096,0.00280145,0.00778849,-0.00286697,0.276843,0.0063669,0.0170451,1182,414,5.8758,56.9621
-35,610,5.94788,-57.2939,0.00565971,-0.00286166,0.00283784,0.00651828,-0.00372023,0.293788,0.00598433,0.0175037,1189,414,5.94785,57.2939
-28,610,5.9928,-57.5879,0.00278123,-0.00420391,0.00234815,0.0034972,-0.00491989,0.295956,0.00488269,0.0146398,1196,414,5.99276,57.5879
-21,610,6.05444,-57.8276,0.000753699,-0.00560686,0.00190406,0.00128012,-0.00613329,0.269735,0.00457565,0.0119347,1203,414,6.05442,57.8276
-14,610,6.12,-58.0673,-0.00139222,-0.00672089,0.00131592,-0.00108497,-0.00702814,0.229379,0.00436891,0.0126202,1210,414,6.12001,58.0673
-7,610,6.18884,-58.2801,-0.00347389,-0.00774565,0.000749489,-0.0033462,-0.00787333,0.16874,0.00456268,0.0151491,1217,414,6.18881,58.2801
0,610,6.2395,-58.514,-0.00632668,-0.00840302,0.000272766,-0.00629145,-0.00843825,0.128465,0.00506393,0.0134817,1224,414,6.23955,58.514
7,610,6.31421,-58.7709,-0.00904917,-0.00883309,-0.000123751,-0.00877685,-0.00910541,-1.14426,0.00596377,0.0166188,1231,414,6.31421,58.7709
14,610,6.51221,-58.8829,-0.0118728,-0.00904026,-0.000243864,-0.00901942,-0.0118936,-1.48554,0.0071658,0.0238147,1238,414,6.51215,58.8829
21,610,6.58521,-58.9926,-0.0141534,-0.00897459,-0.000349311,-0.00895114,-0.0141769,-1.50375,0.00827868,0.0233104,1245,414,6.58515,58.9926
28,610,6.54895,-59.1711,-0.0160841,-0.00854819,-0.000208267,-0.00854244,-0.0160899,-1.54319,0.00929541,0.0209004,1252,414,6.54894,59.1711
35,610,6.71509,-59.3047,-0.0176543,-0.00768636,0.00011584,-0.00768501,-0.0176556,1.55918,0.0102219,0.0240518,1259,414,6.71503,59.3047
42,610,6.76843,-59.3229,-0.0190429,-0.00665711,0.000545721,-0.00663311,-0.0190669,1.52685,0.0111768,0.022849,1266,414,6.76844,59.3229
49,610,6.82007,-59.4203,-0.0195429,-0.00496124,0.00102898,-0.00488898,-0.0196152,1.50069,0.01179,0.0229769,1273,414,6.82006,59.4203
56,610,6.89966,-59.4503,-0.0182837,-0.001937,0.0022724,-0.00162699,-0.0185937,1.43521,0.0118906,0.0212044,1280,414,6.8997,59.4503
63,610,7.01196,-59.486,-0.01631,0.000941349,0.00361148,0.00166688,-0.0170355,1.37254,0.0119515,0.0273841,1287,414,7.01202,59.486
70,610,7.19006,-59.4966,-0.0139493,0.00379608,0.00481169,0.00501681,-0.01517,1.32234,0.0121363,0.0387328,1294,414,7.19002,59.4966
77,610,7.29688,-59.3015,-0.0113686,0.00632987,0.00593118,0.0081337,-0.0131724,1.27556,0.0124152,0.0453181,1301,414,7.29694,59.3015
84,610,7.34045,-59.338,-0.00953243,0.00752812,0.00631716,0.00961256,-0.0116169,1.25208,0.012275,0.0390225,1308,414,7.34051,59.338
91,610,7.44714,-59.4275,-0.00746035,0.00797721,0.00643483,0.0103076,-0.00979078,1.22333,0.0116051,0.0297094,1315,414,7.4471,59.4275
98,610,7.60315,-59.3204,-0.00600955,0.00836402,0.00641778,0.0108125,-0.008458,1.20633,0.0111535,0.0282949,1322,414,7.60313,59.3204
105,610,7.66614,-59.1194,-0.00383951,0.00820123,0.00635457,0.0109345,-0.00657273,1.1646,0.0102118,0.0242831,1329,414,7.66611,59.1194
112,610,7.73401,-58.9417,-0.00259601,0.00689584,0.00584721,0.00968076,-0.00538093,1.1263,0.0088132,0.0151795,1336,414,7.73404,58.9417
119,610,7.81299,-58.7622,-0.00149883,0.00550838,0.00516098,0.00824264,-0.00423309,1.0836,0.00732581,0.0216374,1343,414,7.81297,58.7623
126,610,7.90771,-58.5591,-0.00121985,0.00374889,0.00435565,0.00627888,-0.00374984,1.04457,0.00585113,0.0306107,1350,414,7.90767,58.5591
133,610,7.97693,-58.3636,-0.000795813,0.00198845,0.00342805,0.00429626,-0.00310363,0.978275,0.00429078,0.0225417,1357,414,7.97692,58.3637
140,610,8.0791,-58.1294,-0.00017966,0.00018102,0.00247857,0.0024858,-0.00248444,0.821714,0.00286957,0.0186528,1364,414,8.07914,58.1294
147,610,8.05713,-57.8092,0.000481247,-0.00161557,0.00143377,0.00120903,-0.00234336,0.46971,0.00208553,0.0204395,1371,414,8.05717,57.8092
154,610,8.10156,-57.5175,0.001374,-0.00313468,0.000357256,0.00140213,-0.00316281,0.0785839,0.00270012,0.024702,1378,414,8.10155,57.5175
161,610,8.24695,-57.2512,0.00230054,-0.00533113,-0.00115202,0.00247065,-0.00550124,-0.146602,0.00471213,0.0293353,1385,414,8.24693,57.2512
168,610,8.31848,-56.9531,0.00334755,-0.00710518,-0.00263159,0.0039727,-0.00773032,-0.233231,0.00687186,0.0289987,1392,414,8.31845,56.9531
175,610,8.34241,-56.6041,0.00439984,-0.00778731,-0.00337377,0.00527146,-0.00865893,-0.252825,0.00812159,0.0223982,1399,414,8.34238,56.6041
182,610,8.40637,-56.2191,0.00596532,-0.00710355,-0.00357608,0.00687986,-0.00801809,-0.250371,0.0086097,0.0154851,1406,414,8.40634,56.2191
189,610,8.4165,-55.8145,0.0070234,-0.00482869,-0.00289966,0.00769478,-0.00550007,-0.227529,0.0076531,0.0142198,1413,414,8.41656,55.8145
196,610,8.43152,-55.42,0.00604164,-0.00334974,-0.00241242,0.00662508,-0.00393319,-0.237294,0.00616151,0.0153265,1420,414,8.43148,55.42
203,610,8.42432,-54.9993,0.00521711,-0.00248961,-0.002012,0.00571076,-0.00298326,-0.240602,0.00510117,0.0155986,1427,414,8.42431,54.9993
210,610,8.42737,-54.5767,0.00418323,-0.00145026,-0.0015678,0.00459015,-0.00185718,-0.253948,0.00383222,0.0114644,1434,414,8.42741,54.5767
217,610,8.50281,-54.0721,0.00343254,-0.000617114,-0.00102954,0.00367925,-0.000863825,-0.235197,0.00278578,0.0174084,1441,414,8.5028,54.0722
224,610,8.56079,-53.6141,0.00284885,0.000198724,-0.000509622,0.00294347,0.000104102,-0.183581,0.00192855,0.0208908,1448,414,8.56085,53.6141
231,610,8.55945,-53.1406,0.00234533,0.000979504,7.80085e-05,0.00234977,0.000975062,0.056868,0.00136317,0.0165418,1455,414,8.55949,53.1406
238,610,8.52759,-52.6064,0.00203332,0.00169012,0.00050458,0.00239468,0.00132876,0.621492,0.00138534,0.012229,1462,414,8.52765,52.6065
245,610,8.54907,-52.0685,0.00170752,0.00244557,0.000816697,0.00297274,0.00118035,0.997593,0.0017284,0.0126536,1469,414,8.54906,52.0685
252,610,8.55701,-51.5164,0.00130766,0.0032872,0.00115491,0.00381844,0.000776418,1.13967,0.00233034,0.0141511,1476,414,8.55701,51.5164
259,610,8.51648,-50.9638,0.000844956,0.0040571,0.0014997,0.00464842,0.000253631,1.19522,0.00301796,0.013565,1483,414,8.51642,50.9638
266,610,8.47742,-50.3676,0.000366105,0.0047356,0.00182732,0.00539905,-0.000297342,1.22252,0.00370246,0.0137433,1490,414,8.47736,50.3676
273,610,8.45459,-49.7695,-7.60231e-05,0.00550021,0.00217664,0.00624924,-0.000825048,1.23937,0.00446665,0.0105503,1497,414,8.4546,49.7695
280,610,8.42566,-49.1572,-0.000406427,0.00625352,0.00258397,0.00713848,-0.00129138,1.24084,0.00524273,0.0102848,1504,414,8.42568,49.1572
287,610,8.39233,-48.5313,-0.00061832,0.00711074,0.00308651,0.00819204,-0.00169961,1.23383,0.00610724,0.0129435,1511,414,8.39239,48.5313
294,610,8.36658,-47.9284,-0.000884788,0.00790418,0.00355947,0.00916491,-0.00214551,1.2304,0.0069366,0.0110622,1518,414,8.36656,47.9284
301,610,8.35669,-47.3427,-0.00114124,0.00872679,0.00406487,0.0101856,-0.0026,1.22624,0.00780279,0.0111222,1525,414,8.35671,47.3428
308,610,8.31079,-46.6973,-0.00124866,0.00966681,0.00462579,0.0113634,-0.00294528,1.21926,0.0087247,0.0124874,1532,414,8.31075,46.6973
315,610,8.21692,-46.0559,-0.00125575,0.0106874,0.00526312,0.0126758,-0.00324408,1.20959,0.00971414,0.0127802,1539,414,8.21698,46.0559
322,610,8.14722,-45.3452,-0.00131265,0.0116372,0.00594017,0.0139492,-0.00362466,1.19962,0.0107141,0.0131358,1546,414,8.14726,45.3452
329,610,8.11646,-44.6509,-0.00133874,0.0126475,0.00666847,0.0153173,-0.00400855,1.18998,0.0117773,0.0125447,1553,414,8.11642,44.6509
336,610,8.0863,-43.9816,-0.00126579,0.0141715,0.00750026,0.0172154,-0.00430964,1.18527,0.013151,0.0145311,1560,414,8.08634,43.9816
343,610,8.02979,-43.2828,-0.00100237,0.0158092,0.00849822,0.0193565,-0.0045497,1.17536,0.0146582,0.0228115,1567,414,8.02977,43.2828
350,610,7.9397,-42.4756,-0.000772308,0.0178118,0.00957361,0.0218613,-0.00482178,1.17064,0.0164192,0.0315498,1574,414,7.93969,42.4756
357,610,7.8844,-41.6298,-0.000440242,0.0196639,0.0108482,0.0244013,-0.00517764,1.15906,0.01824,0.0449192,1581,414,7.88443,41.6298
364,610,7.96497,-40.6561,0,0,0,0,0,0,0,-1,1588,414,7.96496,40.6561
371,610,7.93982,-40.0255,0,0,0,0,0,0,0,-1,1595,414,7.93982,40.0255
378,610,3.5752,-12.1958,0,0,0,0,0,0,0,-1,1602,414,3.57517,12.1958
385,610,2.57104,-10.3878,0,0,0,0,0,0,0,-1,1609,414,2.57109,10.3878
392,610,1.99744,-1.83582,0,0,0,0,0,0,0,-1,1616,414,1.99741,1.8358
399,610,2.77136,-2.60333,0,0,0,0,0,0,0,-1,1623,414,2.77133,2.60332
406,610,3.54529,-3.37085,0,0,0,0,0,0,0,-1,1630,414,3.54525,3.37084
413,610,3.01929,-3.20306,0,0,0,0,0,0,0,-1,1637,414,3.01929,3.20306
420,610,4.78149,-3.64041,0,0,0,0,0,0,0,-1,1644,414,4.78152,3.64042
427,610,8.85168,-23.3853,0,0,0,0,0,0,0,-1,1651,414,8.85174,23.3853
434,610,8.73706,-22.6227,0,0,0,0,0,0,0,-1,1658,414,8.73703,22.6227
441,610,0,0,0,0,0,0,0,0,0,-1,1665,414,0,0
448,610,0,0,0,0,0,0,0,0,0,-1,1672,414,0,0
455,610,0,0,0,0,0,0,0,0,0,-1,1679,414,0,0
462,610,0,0,0,0,0,0,0,0,0,-1,1686,414,0,0
469,610,0,0,0,0,0,0,0,0,0,-1,1693,414,0,0
476,610,0,0,0,0,0,0,0,0,0,-1,1700,414,0,0
483,610,0,0,0,0,0,0,0,0,0,-1,1707,414,0,0
490,610,0,0,0,0,0,0,0,0,0,-1,1714,414,0,0
497,610,0,0,0,0,0,0,0,0,0,-1,1721,414,0,0
504,610,0,0,0,0,0,0,0,0,0,-1,1728,414,0,0
511,610,0,0,0,0,0,0,0,0,0,-1,1735,414,0,0
518,610,0,0,0,0,0,0,0,0,0,-1,1742,414,0,0
525,610,0,0,0,0,0,0,0,0,0,-1,1749,414,0,0
532,610,0,0,0,0,0,0,0,0,0,-1,1756,414,0,0
539,610,0,0,0,0,0,0,0,0,0,-1,1763,414,0,0
546,610,0,0,0,0,0,0,0,0,0,-1,1770,414,0,0
553,610,0,0,0,0,0,0,0,0,0,-1,1777,414,0,0
560,610,0,0,0,0,0,0,0,0,0,-1,1784,414,0,0
567,610,0,0,0,0,0,0,0,0,0,-1,1791,414,0,0
574,610,0,0,0,0,0,0,0,0,0,-1,1798,414,0,0
581,610,0,0,0,0,0,0,0,0,0,-1,1805,414,0,0
588,610,0,0,0,0,0,0,0,0,0,-1,1812,414,0,0
595,610,0,0,0,0,0,0,0,0,0,-1,1819,414,0,0
602,610,0,0,0,0,0,0,0,0,0,-1,1826,414,0,0
609,610,0,0,0,0,0,0,0,0,0,-1,1833,414,0,0
616,610,0,0,0,0,0,0,0,0,0,-1,1840,414,0,0
623,610,0,0,0,0,0,0,0,0,0,-1,1847,414,0,0
630,610,0,0,0,0,0,0,0,0,0,-1,1854,414,0,0
637,610,0,0,0,0,0,0,0,0,0,-1,1861,414,0,0
644,610,0,0,0,0,0,0,0,0,0,-1,1868,414,0,0
651,610,0,0,0,0,0,0,0,0,0,-1,1875,414,0,0
658,610,0,0,0,0,0,0,0,0,0,-1,1882,414,0,0
665,610,0,0,0,0,0,0,0,0,0,-1,1889,414,0,0
672,610,0,0,0,0,0,0,0,0,0,-1,1896,414,0,0
679,610,0,0,0,0,0,0,0,0,0,-1,1903,414,0,0
686,610,0,0,0,0,0,0,0,0,0,-1,1910,414,0,0
693,610,0,0,0,0,0,0,0,0,0,-1,1917,414,0,0
700,610,0,0,0,0,0,0,0,0,0,-1,1924,414,0,0
707,610,0,0,0,0,0,0,0,0,0,-1,1931,414,0,0
714,610,0,0,0,0,0,0,0,0,0,-1,1938,414,0,0
721,610,0,0,0,0,0,0,0,0,0,-1,1945,414,0,0
728,610,0,0,0,0,0,0,0,0,0,-1,1952,414,0,0
735,610,0,0,0,0,0,0,0,0,0,-1,1959,414,0,0
742,610,0,0,0,0,0,0,0,0,0,-1,1966,414,0,0
749,610,0,0,0,0,0,0,0,0,0,-1,1973,414,0,0
756,610,0,0,0,0,0,0,0,0,0,-1,1980,414,0,0
763,610,0,0,0,0,0,0,0,0,0,-1,1987,414,0,0
770,610,0,0,0,0,0,0,0,0,0,-1,1994,414,0,0
777,610,0,0,0,0,0,0,0,0,0,-1,2001,414,0,0
784,610,0,0,0,0,0,0,0,0,0,-1,2008,414,0,0
791,610,0,0,0,0,0,0,0,0,0,-1,2015,414,0,0
798,610,0,0,0,0,0,0,0,0,0,-1,2022,414,0,0
805,610,0,0,0,0,0,0,0,0,0,-1,2029,414,0,0
812,610,0,0,0,0,0,0,0,0,0,-1,2036,414,0,0
-700,603,0,0,0,0,0,0,0,0,0,-1,524,421,0,0
-693,603,0,0,0,0,0,0,0,0,0,-1,531,421,0,0
-686,603,0,0,0,0,0,0,0,0,0,-1,538,421,0,0
-679,603,0,0,0,0,0,0,0,0,0,-1,545,421,0,0
-672,603,0,0,0,0,0,0,0,0,0,-1,552,421,0,0
-665,603,0,0,0,0,0,0,0,0,0,-1,559,421,0,0
-658,603,0,0,0,0,0,0,0,0,0,-1,566,421,0,0
-651,603,0,0,0,0,0,0,0,0,0,-1,573,421,0,0
-644,603,0,0,0,0,0,0,0,0,0,-1,580,421,0,0
-637,603,0,0,0,0,0,0,0,0,0,-1,587,421,0,0
-630,603,0,0,0,0,0,0,0,0,0,-1,594,421,0,0
-623,603,0,0,0,0,0,0,0,0,0,-1,601,421,0,0
-616,603,0,0,0,0,0,0,0,0,0,-1,608,421,0,0
-609,603,0,0,0,0,0,0,0,0,0,-1,615,421,0,0
-602,603,0,0,0,0,0,0,0,0,0,-1,622,421,0,0
-595,603,0,0,0,0,0,0,0,0,0,-1,629,421,0,0
-588,603,0,0,0,0,0,0,0,0,0,-1,636,421,0,0
-581,603,0,0,0,0,0,0,0,0,0,-1,643,421,0,0
-574,603,0,0,0,0,0,0,0,0,0,-1,650,421,0,0
-567,603,0,0,0,0,0,0,0,0,0,-1,657,421,0,0
-560,603,0,0,0,0,0,0,0,0,0,-1,664,421,0,0
-553,603,0,0,0,0,0,0,0,0,0,-1,671,421,0,0
-546,603,0,0,0,0,0,0,0,0,0,-1,678,421,0,0
-539,603,0,0,0,0,0,0,0,0,0,-1,685,421,0,0
-532,603,0,0,0,0,0,0,0,0,0,-1,692,421,0,0
-525,603,0,0,0,0,0,0,0,0,0,-1,699,421,0,0
-518,603,0,0,0,0,0,0,0,0,0,-1,706,421,0,0
-511,603,0,0,0,0,0,0,0,0,0,-1,713,421,0,0
-504,603,0,0,0,0,0,0,0,0,0,-1,720,421,0,0
-497,603,0,0,0,0,0,0,0,0,0,-1,727,421,0,0
-490,603,0,0,0,0,0,0,0,0,0,-1,734,421,0,0
-483,603,0,0,0,0,0,0,0,0,0,-1,741,421,0,0
-476,603,0,0,0,0,0,0,0,0,0,-1,748,421,0,0
-469,603,0,0,0,0,0,0,0,0,0,-1,755,421,0,0
-462,603,0,0,0,0,0,0,0,0,0,-1,762,421,0,0
-455,603,0,0,0,0,0,0,0,0,0,-1,769,421,0,0
-448,603,0,0,0,0,0,0,0,0,0,-1,776,421,0,0
-441,603,0,0,0,0,0,0,0,0,0,-1,783,421,0,0
-434,603,0,0,0,0,0,0,0,0,0,-1,790,421,0,0
-427,603,0,0,0,0,0,0,0,0,0,-1,797,421,0,0
-420,603,0,0,0,0,0,0,0,0,0,-1,804,421,0,0
-413,603,0,0,0,0,0,0,0,0,0,-1,811,421,0,0
-406,603,0,0,0,0,0,0,0,0,0,-1,818,421,0,0
-399,603,0,0,0,0,0,0,0,0,0,-1,825,421,0,0
-392,603,0,0,0,0,0,0,0,0,0,-1,832,421,0,0
-385,603,0,0,0,0,0,0,0,0,0,-1,839,421,0,0
-378,603,0,0,0,0,0,0,0,0,0,-1,846,421,0,0
-371,603,0,0,0,0,0,0,0,0,0,-1,853,421,0,0
-364,603,0,0,0,0,0,0,0,0,0,-1,860,421,0,0
-357,603,0,0,0,0,0,0,0,0,0,-1,867,421,0,0
-350,603,0,0,0,0,0,0,0,0,0,-1,874,421,0,0
-343,603,0,0,0,0,0,0,0,0,0,-1,881,421,0,0
-336,603,0,0,0,0,0,0,0,0,0,-1,888,421,0,0
-329,603,4.09686,-17.9702,0,0,0,0,0,0,0,-1,895,421,4.09687,17.9702
-322,603,8.83179,-28.7376,0,0,0,0,0,0,0,-1,902,421,8.83179,28.7376
-315,603,5.99744,-20.4501,0,0,0,0,0,0,0,-1,909,421,5.99745,20.4501
-308,603,5.92249,-20.778,0,0,0,0,0,0,0,-1,916,421,5.92248,20.778
-301,603,2.72424,-20.9059,0,0,0,0,0,0,0,-1,923,421,2.72424,20.9059
-294,603,2.41553,-20.6767,0,0,0,0,0,0,0,-1,930,421,2.41554,20.6767
-287,603,1.91766,-21.2242,0,0,0,0,0,0,0,-1,937,421,1.91767,21.2242
-280,603,2.36121,-27.3314,0,0,0,0,0,0,0,-1,944,421,2.36119,27.3314
-273,603,7.96613,-34.8225,0,0,0,0,0,0,0,-1,951,421,7.96613,34.8225
-266,603,7.18787,-34.9736,0,0,0,0,0,0,0,-1,958,421,7.18788,34.9736
-259,603,5.44666,-36.8901,0,0,0,0,0,0,0,-1,965,421,5.44664,36.8901
-252,603,5.71552,-40.0926,0,0,0,0,0,0,0,-1,972,421,5.7155,40.0926
-245,603,5.76746,-40.6594,-0.000162083,0.0189265,-0.00919558,0.0226356,-0.00387117,-1.1874,0.0165326,0.0418906,979,421,5.76745,40.6594
-238,603,5.73456,-41.3853,-0.000456597,0.0172259,-0.00817744,0.0204278,-0.00365853,-1.19759,0.0149877,0.0257205,986,421,5.73458,41.3853
-231,603,5.63086,-42.2083,-0.000658451,0.0158585,-0.00729341,0.018618,-0.00341797,-1.20908,0.0136943,0.014149,993,421,5.63086,42.2083
-224,603,5.58313,-42.948,-0.000669611,0.0144731,-0.00663345,0.0169679,-0.00316444,-1.21106,0.012501,0.0143046,1000,421,5.5831,42.948
-217,603,5.55841,-43.6326,-0.000665193,0.0128456,-0.00604979,0.0151585,-0.00297817,-1.20562,0.0112308,0.0141632,1007,421,5.55838,43.6326
-210,603,5.5119,-44.335,-0.000655769,0.0112583,-0.00547568,0.0133926,-0.00279005,-1.19914,0.00998914,0.0118781,1014,421,5.51189,44.335
-203,603,5.47961,-45.0591,-0.000640822,0.00966434,-0.00489405,0.0116182,-0.00259463,-1.19096,0.00873965,0.0177514,1021,421,5.47964,45.0591
-196,603,5.48059,-45.7688,-0.000645685,0.00848235,-0.00432973,0.0102093,-0.00237268,-1.19127,0.00771963,0.0199249,1028,421,5.48062,45.7688
-189,603,5.44055,-46.341,-0.000588921,0.00731448,-0.0039301,0.00893608,-0.00221052,-1.17947,0.00681479,0.0173805,1035,421,5.44052,46.341
-182,603,5.35266,-46.9698,-0.000465292,0.00608292,-0.00346371,0.00757506,-0.00195742,-1.16403,0.00581342,0.0124964,1042,421,5.35272,46.9698
-175,603,5.3064,-47.5991,-0.00032539,0.00491598,-0.00290111,0.00620483,-0.00161424,-1.15273,0.00476663,0.0123264,1049,421,5.30639,47.5991
-168,603,5.25415,-48.2135,-0.000202392,0.00369591,-0.00232844,0.00478334,-0.00128983,-1.13388,0.00369466,0.0151577,1056,421,5.25413,48.2135
-161,603,5.2196,-48.8636,-1.99471e-05,0.00252009,-0.0017055,0.00337649,-0.000876349,-1.10544,0.00259295,0.0146685,1063,421,5.21965,48.8636
-154,603,5.21912,-49.4703,0.000158145,0.00133785,-0.00100616,0.00191431,-0.00041831,-1.05052,0.0014361,0.0135434,1070,421,5.21914,49.4703
-147,603,5.19788,-50.0133,0.000374606,0.000151336,-0.000306473,0.000589143,-6.32008e-05,-0.610739,0.000415435,0.0157908,1077,421,5.19786,50.0133
-140,603,5.20105,-50.5646,0.000635417,-0.00117881,0.000395711,0.000717971,-0.00126136,0.205673,0.00115703,0.0135313,1084,421,5.20106,50.5646
-133,603,5.17456,-51.1182,0.000907972,-0.00243976,0.00103887,0.00120415,-0.00273594,0.27773,0.00233141,0.013791,1091,421,5.17459,51.1182
-126,603,5.177,-51.6237,0.00123875,-0.00350248,0.00157145,0.0017123,-0.00397603,0.292691,0.00336973,0.0124282,1098,421,5.17699,51.6237
-119,603,5.19592,-52.1531,0.00168475,-0.00440621,0.00204117,0.00230552,-0.00502697,0.295233,0.00432952,0.0116316,1105,421,5.19587,52.1531
-112,603,5.20544,-52.6853,0.00213507,-0.00498552,0.00238162,0.00285822,-0.00570866,0.294787,0.00503652,0.0160566,1112,421,5.20542,52.6853
-105,603,5.18677,-53.1742,0.00257277,-0.00523247,0.00256444,0.00333992,-0.00599963,0.290678,0.00546459,0.016875,1119,421,5.18682,53.1742
-98,603,5.18701,-53.6361,0.00314573,-0.00533115,0.00264693,0.00390435,-0.00608977,0.279122,0.00581591,0.01443,1126,421,5.18705,53.6361
-91,603,5.21655,-54.1187,0.00392523,-0.00475921,0.00256131,0.00462435,-0.00545834,0.266466,0.00582788,0.0106137,1133,421,5.21658,54.1187
-84,603,5.24158,-54.5974,0.00494946,-0.00414047,0.0024357,0.00556098,-0.00475199,0.245981,0.0059603,0.0123797,1140,421,5.24154,54.5974
-77,603,5.3064,-55.101,0.00620733,-0.00381541,0.0020215,0.00659969,-0.00420776,0.19171,0.00629042,0.0193571,1147,421,5.30638,55.101
-70,603,5.26819,-55.4873,0,0,0,0,0,0,0,-1,1154,421,5.26817,55.4873
-63,603,5.34326,-55.8591,0,0,0,0,0,0,0,-1,1161,421,5.34328,55.8591
-56,603,5.43494,-56.2438,0,0,0,0,0,0,0,-1,1168,421,5.43493,56.2438
-49,603,5.48291,-56.5829,0,0,0,0,0,0,0,-1,1175,421,5.48292,56.5829
-42,603,5.50574,-56.9642,0,0,0,0,0,0,0,-1,1182,421,5.50573,56.9642
-35,603,5.53784,-57.1627,0.00637821,-0.0034009,0.00363808,0.0075832,-0.00460588,0.319842,0.007107,0.0445697,1189,421,5.53783,57.1627
-28,603,5.6217,-57.4082,0.00170636,-0.00520229,0.00282489,0.00271436,-0.00621029,0.342746,0.00528278,0.0316846,1196,421,5.62167,57.4082
-21,603,5.70496,-57.6959,-0.00115078,-0.006878,0.0022729,-0.000358389,-0.00767039,0.33545,0.00499841,0.0259084,1203,421,5.705,57.6959
-14,603,5.85437,-57.9468,-0.00414526,-0.0083925,0.00150826,-0.00366415,-0.00887361,0.30878,0.00514901,0.0223698,1210,421,5.85433,57.9468
-7,603,5.92615,-58.2021,-0.00702542,-0.00948916,0.000805974,-0.00678518,-0.00972939,0.289685,0.00576133,0.0264004,1217,421,5.92609,58.2021
0,603,5.94482,-58.4962,-0.0107318,-0.0100626,0.00028321,-0.00995879,-0.0108355,1.2196,0.0069499,0.0363731,1224,421,5.94485,58.4962
7,603,5.98218,-58.7345,0,0,0,0,0,0,0,-1,1231,421,5.9822,58.7345
14,603,6.31348,-58.4944,0,0,0,0,0,0,0,-1,1238,421,6.31347,58.4944
21,603,6.43701,-58.362,-0.0209051,-0.0101918,-0.000310914,-0.0101828,-0.0209142,-1.54181,0.0120762,0.0458924,1245,421,6.437,58.362
28,603,6.48315,-58.591,-0.0234853,-0.00914675,-5.64837e-05,-0.00914653,-0.0234855,-1.56686,0.0136694,0.0470076,1252,421,6.48316,58.591
35,603,6.66968,-58.7131,0,0,0,0,0,0,0,-1,1259,421,6.6697,58.7131
42,603,6.65112,-58.6819,-0.0276079,-0.0056837,0.000994099,-0.00563871,-0.0276529,1.52558,0.0168727,0.0488626,1266,421,6.65118,58.6819
49,603,6.6062,-58.8531,-0.028393,-0.00308283,0.00162846,-0.00297849,-0.0284974,1.50681,0.0180874,0.0261676,1273,421,6.60616,58.8531
56,603,6.70825,-59.1428,0,0,0,0,0,0,0,-1,1280,421,6.70822,59.1428
63,603,6.91553,-59.3724,0,0,0,0,0,0,0,-1,1287,421,6.91552,59.3724
70,603,7.19885,-59.3595,0,0,0,0,0,0,0,-1,1294,421,7.19887,59.3595
77,603,7.36182,-59.0333,0,0,0,0,0,0,0,-1,1301,421,7.36184,59.0333
84,603,7.36206,-59.2963,0,0,0,0,0,0,0,-1,1308,421,7.36209,59.2963
91,603,7.54309,-59.5351,0,0,0,0,0,0,0,-1,1315,421,7.54304,59.5351
98,603,7.85828,-59.5693,0,0,0,0,0,0,0,-1,1322,421,7.85831,59.5693
105,603,7.88281,-59.2191,0,0,0,0,0,0,0,-1,1329,421,7.88278,59.2191
112,603,8.00122,-58.6723,-0.00693556,0.0128999,0.00845819,0.0160168,-0.0100525,1.21773,0.0151819,0.0466352,1336,421,8.00127,58.6723
119,603,8.18359,-58.4973,-0.00547542,0.01128,0.00778318,0.0143375,-0.00853292,1.19648,0.0133452,0.0482704,1343,421,8.18364,58.4972
126,603,8.23059,-58.4221,0,0,0,0,0,0,0,-1,1350,421,8.23065,58.4221
133,603,8.33728,-57.9982,-0.00420599,0.00670345,0.00590978,0.00929108,-0.00679363,1.15809,0.00932375,0.0472652,1357,421,8.33723,57.9982
140,603,8.53064,-57.713,-0.00328689,0.00429712,0.00477844,0.00660535,-0.00559512,1.1208,0.00705199,0.0394998,1364,421,8.53064,57.713
147,603,8.44104,-57.6982,0,0,0,0,0,0,0,-1,1371,421,8.44101,57.6982
154,603,8.33984,-57.4101,-0.00122643,-0.000483591,0.00183842,0.00102055,-0.00273058,0.885073,0.00223947,0.0381852,1378,421,8.33988,57.4101
161,603,8.57178,-57.1239,6.90073e-05,-0.00399803,-0.000399445,0.000107868,-0.00403689,-0.0969806,0.00272792,0.0364315,1385,421,8.57174,57.1239
168,603,8.70398,-56.8197,0.00194863,-0.00832295,-0.00308693,0.00280496,-0.00917928,-0.2706,0.00723801,0.0375927,1392,421,8.70394,56.8197
175,603,8.93799,-56.5172,0.00419786,-0.0112118,-0.00479297,0.005567,-0.012581,-0.278245,0.0107354,0.0415395,1399,421,8.93797,56.5172
182,603,8.9895,-56.1635,0.00719321,-0.0110546,-0.00546095,0.00870263,-0.012564,-0.26967,0.0123456,0.0468223,1406,421,8.9895,56.1634
189,603,8.9353,-55.7122,0.00966457,-0.00791924,-0.00448411,0.0107421,-0.00899672,-0.235818,0.011411,0.0391964,1413,421,8.9353,55.7123
196,603,8.87756,-55.2591,0.00838051,-0.00616491,-0.00388785,0.00935448,-0.00713888,-0.245464,0.00955104,0.0286224,1420,421,8.87761,55.2591
203,603,8.8988,-54.9291,0.00733916,-0.00533206,-0.00342153,0.00820402,-0.00619692,-0.247585,0.00834126,0.0172023,1427,421,8.89884,54.9291
210,603,8.92944,-54.6145,0.00603825,-0.00415327,-0.00289696,0.00680416,-0.00491918,-0.258469,0.00679758,0.013866,1434,421,8.92945,54.6145
217,603,8.95923,-54.0812,0.0050989,-0.0033281,-0.00226083,0.00566713,-0.00389633,-0.246236,0.00555293,0.0142219,1441,421,8.95919,54.0812
224,603,9.05005,-53.5813,0.00437558,-0.00247758,-0.00165294,0.00475342,-0.00285542,-0.224729,0.00443829,0.0183238,1448,421,9.05002,53.5813
231,603,9.05591,-53.1003,0.00375973,-0.00167263,-0.000943587,0.00391896,-0.00183186,-0.167176,0.00339234,0.0159567,1455,421,9.05588,53.1003
238,603,9.0426,-52.573,0.0034326,-0.00104355,-0.000470731,0.00348156,-0.00109252,-0.103654,0.0027583,0.012007,1462,421,9.04265,52.573
245,603,9.05566,-52.0516,0.00305095,-0.000455553,-0.000188025,0.003061,-0.000465606,-0.0534178,0.00221226,0.0122453,1469,421,9.05571,52.0516
252,603,9.08887,-51.5143,0.00259388,0.000165945,0.000138202,0.00260172,0.000158104,0.0566774,0.00168426,0.0110122,1476,421,9.08882,51.5143
259,603,9.06519,-50.9511,0.00207667,0.000792433,0.000456009,0.00222212,0.000646986,0.308756,0.00131972,0.0114249,1483,421,9.06519,50.9511
266,603,9.04077,-50.3599,0.00153447,0.00128601,0.000723708,0.00214454,0.000675949,0.700397,0.00126603,0.0124642,1490,421,9.04077,50.3599
273,603,9.03723,-49.7538,0.00103139,0.00192647,0.00101119,0.00258473,0.000373127,0.993736,0.00161323,0.0114543,1497,421,9.03721,49.7538
280,603,9.0282,-49.1409,0.000636257,0.0025907,0.00136152,0.00328939,-6.24348e-05,1.09667,0.00221403,0.013019,1504,421,9.02821,49.1409
287,603,9.00903,-48.5224,0.00036294,0.00334594,0.00176765,0.00416726,-0.000458385,1.13583,0.00294289,0.0117491,1511,421,9.00898,48.5224
294,603,8.96826,-47.9171,5.80213e-05,0.00412753,0.00217216,0.0050691,-0.000883546,1.16177,0.00370916,0.0103282,1518,421,8.96825,47.9171
301,603,8.95667,-47.2945,-0.000237844,0.00497137,0.0026191,0.00606049,-0.00132697,1.17671,0.00454765,0.0129403,1525,421,8.95669,47.2945
308,603,8.90674,-46.6733,-0.00040029,0.00594902,0.00312503,0.00722905,-0.00168032,1.18204,0.00546625,0.0182579,1532,421,8.90679,46.6733
315,603,8.81885,-46.0423,-0.000478543,0.00699485,0.00369313,0.00851192,-0.00199562,1.18103,0.00644366,0.016241,1539,421,8.81883,46.0423
322,603,8.77295,-45.3466,-0.000599874,0.00805464,0.0043032,0.00983006,-0.00237529,1.17949,0.00747206,0.0160646,1546,421,8.773,45.3466
329,603,8.75525,-44.6547,-0.000680049,0.00912779,0.0049707,0.0112064,-0.0027587,1.17472,0.00854036,0.0116465,1553,421,8.7552,44.6547
336,603,8.74023,-43.9974,-0.000674505,0.0105901,0.00574446,0.0130028,-0.00308717,1.17317,0.00986004,0.00964832,1560,421,8.74025,43.9974
343,603,8.70398,-43.2984,-0.000549807,0.0121605,0.00665996,0.015011,-0.00340024,1.16639,0.0113124,0.01163,1567,421,8.70392,43.2984
350,603,8.65479,-42.5697,-0.00045101,0.0140513,0.00765629,0.0173452,-0.00374491,1.16451,0.0129929,0.013728,1574,421,8.65479,42.5697
357,603,8.59485,-41.8164,-0.00028364,0.0157651,0.00877373,0.0196306,-0.00414912,1.15581,0.0146671,0.0168877,1581,421,8.59482,41.8164
364,603,8.57959,-41.0084,-3.25525e-05,0.0181135,0.00996137,0.0225144,-0.00443353,1.15478,0.016685,0.022671,1588,421,8.57954,41.0084
371,603,8.50879,-40.2418,0.000288961,0.0206814,0.0112556,0.0256724,-0.00470204,1.15342,0.0188785,0.0307945,1595,421,8.50884,40.2418
378,603,8.38977,-39.6208,0,0,0,0,0,0,0,-1,1602,421,8.3898,39.6208
385,603,8.37402,-38.5648,0,0,0,0,0,0,0,-1,1609,421,8.37408,38.5648
392,603,8.54272,-37.9052,0,0,0,0,0,0,0,-1,1616,421,8.5427,37.9052
399,603,2.94299,0.638214,0,0,0,0,0,0,0,-1,1623,421,2.94293,-0.638215
406,603,3.01917,-2.37219,0,0,0,0,0,0,0,-1,1630,421,3.01915,2.37219
413,603,2.38928,-2.41275,0,0,0,0,0,0,0,-1,1637,421,2.38926,2.41274
420,603,8.22217,-23.7068,0,0,0,0,0,0,0,-1,1644,421,8.22215,23.7068
427,603,8.20386,-23.1278,0,0,0,0,0,0,0,-1,1651,421,8.2039,23.1278
434,603,8.01489,-22.5655,0,0,0,0,0,0,0,-1,1658,421,8.01493,22.5655
441,603,8.00122,-22.3072,0,0,0,0,0,0,0,-1,1665,421,8.00116,22.3071
448,603,1.14355,-4.59842,0,0,0,0,0,0,0,-1,1672,421,1.14355,4.59841
455,603,0,0,0,0,0,0,0,0,0,-1,1679,421,0,0
462,603,0,0,0,0,0,0,0,0,0,-1,1686,421,0,0
469,603,0,0,0,0,0,0,0,0,0,-1,1693,421,0,0
476,603,0,0,0,0,0,0,0,0,0,-1,1700,421,0,0
483,603,0,0,0,0,0,0,0,0,0,-1,1707,421,0,0
490,603,0,0,0,0,0,0,0,0,0,-1,1714,421,0,0
497,603,0,0,0,0,0,0,0,0,0,-1,1721,421,0,0
504,603,0,0,0,0,0,0,0,0,0,-1,1728,421,0,0
511,603,0,0,0,0,0,0,0,0,0,-1,1735,421,0,0
518,603,0,0,0,0,0,0,0,0,0,-1,1742,421,0,0
525,603,0,0,0,0,0,0,0,0,0,-1,1749,421,0,0
532,603,0,0,0,0,0,0,0,0,0,-1,1756,421,0,0
539,603,0,0,0,0,0,0,0,0,0,-1,1763,421,0,0
546,603,0,0,0,0,0,0,0,0,0,-1,1770,421,0,0
553,603,0,0,0,0,0,0,0,0,0,-1,1777,421,0,0
560,603,0,0,0,0,0,0,0,0,0,-1,1784,421,0,0
567,603,0,0,0,0,0,0,0,0,0,-1,1791,421,0,0
574,603,0,0,0,0,0,0,0,0,0,-1,1798,421,0,0
581,603,0,0,0,0,0,0,0,0,0,-1,1805,421,0,0
588,603,0,0,0,0,0,0,0,0,0,-1,1812,421,0,0
595,603,0,0,0,0,0,0,0,0,0,-1,1819,421,0,0
602,603,0,0,0,0,0,0,0,0,0,-1,1826,421,0,0
609,603,0,0,0,0,0,0,0,0,0,-1,1833,421,0,0
616,603,0,0,0,0,0,0,0,0,0,-1,1840,421,0,0
623,603,0,0,0,0,0,0,0,0,0,-1,1847,421,0,0
630,603,0,0,0,0,0,0,0,0,0,-1,1854,421,0,0
637,603,0,0,0,0,0,0,0,0,0,-1,1861,421,0,0
644,603,0,0,0,0,0,0,0,0,0,-1,1868,421,0,0
651,603,0,0,0,0,0,0,0,0,0,-1,1875,421,0,0
658,603,0,0,0,0,0,0,0,0,0,-1,1882,421,0,0
665,603,0,0,0,0,0,0,0,0,0,-1,1889,421,0,0
672,603,0,0,0,0,0,0,0,0,0,-1,1896,421,0,0
679,603,0,0,0,0,0,0,0,0,0,-1,1903,421,0,0
686,603,0,0,0,0,0,0,0,0,0,-1,1910,421,0,0
693,603,0,0,0,0,0,0,0,0,0,-1,1917,421,0,0
700,603,0,0,0,0,0,0,0,0,0,-1,1924,421,0,0
707,603,0,0,0,0,0,0,0,0,0,-1,1931,421,0,0
714,603,0,0,0,0,0,0,0,0,0,-1,1938,421,0,0
721,603,0,0,0,0,0,0,0,0,0,-1,1945,421,0,0
728,603,0,0,0,0,0,0,0,0,0,-1,1952,421,0,0
735,603,0,0,0,0,0,0,0,0,0,-1,1959,421,0,0
742,603,0,0,0,0,0,0,0,0,0,-1,1966,421,0,0
749,603,0,0,0,0,0,0,0,0,0,-1,1973,421,0,0
756,603,0,0,0,0,0,0,0,0,0,-1,1980,421,0,0
763,603,0,0,0,0,0,0,0,0,0,-1,1987,421,0,0
770,603,0,0,0,0,0,0,0,0,0,-1,1994,421,0,0
777,603,0,0,0,0,0,0,0,0,0,-1,2001,421,0,0
784,603,0,0,0,0,0,0,0,0,0,-1,2008,421,0,0
791,603,0,0,0,0,0,0,0,0,0,-1,2015,421,0,0
798,603,0,0,0,0,0,0,0,0,0,-1,2022,421,0,0
805,603,0,0,0,0,0,0,0,0,0,-1,2029,421,0,0
812,603,0,0,0,0,0,0,0,0,0,-1,2036,421,0,0
-700,596,0,0,0,0,0,0,0,0,0,-1,524,428,0,0
-693,596,0,0,0,0,0,0,0,0,0,-1,531,428,0,0
-686,596,0,0,0,0,0,0,0,0,0,-1,538,428,0,0
-679,596,0,0,0,0,0,0,0,0,0,-1,545,428,0,0
-672,596,0,0,0,0,0,0,0,0,0,-1,552,428,0,0
-665,596,0,0,0,0,0,0,0,0,0,-1,559,428,0,0
-658,596,0,0,0,0,0,0,0,0,0,-1,566,428,0,0
-651,596,0,0,0,0,0,0,0,0,0,-1,573,428,0,0
-644,596,0,0,0,0,0,0,0,0,0,-1,580,428,0,0
-637,596,0,0,0,0,0,0,0,0,0,-1,587,428,0,0
-630,596,0,0,0,0,0,0,0,0,0,-1,594,428,0,0
-623,596,0,0,0,0,0,0,0,0,0,-1,601,428,0,0
-616,596,0,0,0,0,0,0,0,0,0,-1,608,428,0,0
-609,596,0,0,0,0,0,0,0,0,0,-1,615,428,0,0
-602,596,0,0,0,0,0,0,0,0,0,-1,622,428,0,0
-595,596,0,0,0,0,0,0,0,0,0,-1,629,428,0,0
-588,596,0,0,0,0,0,0,0,0,0,-1,636,428,0,0
-581,596,0,0,0,0,0,0,0,0,0,-1,643,428,0,0
-574,596,0,0,0,0,0,0,0,0,0,-1,650,428,0,0
-567,596,0,0,0,0,0,0,0,0,0,-1,657,428,0,0
-560,596,0,0,0,0,0,0,0,0,0,-1,664,428,0,0
-553,596,0,0,0,0,0,0,0,0,0,-1,671,428,0,0
-546,596,0,0,0,0,0,0,0,0,0,-1,678,428,0,0
-539,596,0,0,0,0,0,0,0,0,0,-1,685,428,0,0
-532,596,0,0,0,0,0,0,0,0,0,-1,692,428,0,0
-525,596,0,0,0,0,0,0,0,0,0,-1,699,428,0,0
-518,596,0,0,0,0,0,0,0,0,0,-1,706,428,0,0
-511,596,0,0,0,0,0,0,0,0,0,-1,713,428,0,0
-504,596,0,0,0,0,0,0,0,0,0,-1,720,428,0,0
-497,596,0,0,0,0,0,0,0,0,0,-1,727,428,0,0
-490,596,0,0,0,0,0,0,0,0,0,-1,734,428,0,0
-483,596,0,0,0,0,0,0,0,0,0,-1,741,428,0,0
-476,596,0,0,0,0,0,0,0,0,0,-1,748,428,0,0
-469,596,0,0,0,0,0,0,0,0,0,-1,755,428,0,0
-462,596,0,0,0,0,0,0,0,0,0,-1,762,428,0,0
-455,596,0,0,0,0,0,0,0,0,0,-1,769,428,0,0
-448,596,0,0,0,0,0,0,0,0,0,-1,776,428,0,0
-441,596,0,0,0,0,0,0,0,0,0,-1,783,428,0,0
-434,596,0,0,0,0,0,0,0,0,0,-1,790,428,0,0
-427,596,0,0,0,0,0,0,0,0,0,-1,797,428,0,0
-420,596,0,0,0,0,0,0,0,0,0,-1,804,428,0,0
-413,596,0,0,0,0,0,0,0,0,0,-1,811,428,0,0
-406,596,0,0,0,0,0,0,0,0,0,-1,818,428,0,0
-399,596,0,0,0,0,0,0,0,0,0,-1,825,428,0,0
-392,596,0,0,0,0,0,0,0,0,0,-1,832,428,0,0
-385,596,0,0,0,0,0,0,0,0,0,-1,839,428,0,0
-378,596,0,0,0,0,0,0,0,0,0,-1,846,428,0,0
-371,596,0,0,0,0,0,0,0,0,0,-1,853,428,0,0
-364,596,0,0,0,0,0,0,0,0,0,-1,860,428,0,0
-357,596,0,0,0,0,0,0,0,0,0,-1,867,428,0,0
-350,596,0,0,0,0,0,0,0,0,0,-1,874,428,0,0
-343,596,0,0,0,0,0,0,0,0,0,-1,881,428,0,0
-336,596,6.81445,-30.5258,0,0,0,0,0,0,0,-1,888,428,6.81446,30.5258
-329,596,6.84772,-28.9253,0,0,0,0,0,0,0,-1,895,428,6.84773,28.9253
-322,596,6.97449,-27.9047,0,0,0,0,0,0,0,-1,902,428,6.97451,27.9047
-315,596,7.10132,-26.8841,0,0,0,0,0,0,0,-1,909,428,7.10129,26.8841
-308,596,0.254761,-20.841,0,0,0,0,0,0,0,-1,916,428,0.254731,20.841
-301,596,3.43213,-26.756,0,0,0,0,0,0,0,-1,923,428,3.43214,26.756
-294,596,4.1767,-27.6454,0,0,0,0,0,0,0,-1,930,428,4.17667,27.6454
-287,596,4.36041,-27.6119,0,0,0,0,0,0,0,-1,937,428,4.3604,27.6119
-280,596,5.39758,-37.2094,0,0,0,0,0,0,0,-1,944,428,5.39761,37.2094
-273,596,5.30054,-37.8036,0,0,0,0,0,0,0,-1,951,428,5.30053,37.8035
-266,596,5.04718,-38.4908,0,0,0,0,0,0,0,-1,958,428,5.04717,38.4907
-259,596,5.07471,-39.1558,0,0,0,0,0,0,0,-1,965,428,5.07472,39.1558
-252,596,5.04913,-40.0229,-0.000136029,0.0156515,-0.00843335,0.019309,-0.00379359,-1.16158,0.0143059,0.025257,972,428,5.04912,40.0229
-245,596,5.07312,-40.8326,-0.000270972,0.0143308,-0.00753269,0.0175201,-0.00346029,-1.17028,0.0129881,0.0160902,979,428,5.07313,40.8326
-238,596,5.05237,-41.5598,-0.000357549,0.0129126,-0.00664937,0.0156711,-0.003116,-1.17756,0.0116261,0.0134995,986,428,5.05239,41.5598
-231,596,4.95685,-42.304,-0.000430047,0.0116328,-0.0057924,0.0139638,-0.00276105,-1.1882,0.010353,0.0140562,993,428,4.95685,42.304
-224,596,4.91016,-43.0249,-0.000361683,0.0103567,-0.00512567,0.0124133,-0.00241825,-1.18923,0.00918828,0.0145009,1000,428,4.91013,43.0249
-217,596,4.87769,-43.6897,-0.000239432,0.00885392,-0.00452142,0.0107194,-0.00210489,-1.17949,0.00794142,0.0152165,1007,428,4.87771,43.6897
-210,596,4.87177,-44.3578,-0.000110024,0.00734688,-0.00393314,0.00903792,-0.00180107,-1.16474,0.00670674,0.0136385,1014,428,4.87178,44.3578
-203,596,4.84033,-45.0367,1.66408e-05,0.00586653,-0.00335103,0.00738958,-0.00150641,-1.1442,0.00549776,0.0173963,1021,428,4.8403,45.0367
-196,596,4.83301,-45.6916,0.000125184,0.00464069,-0.00279118,0.00597294,-0.00120707,-1.12547,0.00443936,0.0174985,1028,428,4.83296,45.6916
-189,596,4.78564,-46.3195,0.000266175,0.00343572,-0.00236667,0.00469922,-0.000997324,-1.08042,0.00351277,0.0147891,1035,428,4.78559,46.3195
-182,596,4.74329,-46.9362,0.000440819,0.00219365,-0.00186083,0.00337413,-0.000739654,-1.00548,0.00253224,0.0124619,1042,428,4.74323,46.9362
-175,596,4.70679,-47.5608,0.000613779,0.000834641,-0.00123452,0.00196366,-0.00051524,-0.830006,0.00151044,0.0143103,1049,428,4.7068,47.5608
-168,596,4.68115,-48.2082,0.00077281,-0.00041253,-0.00064631,0.00105705,-0.000696771,-0.414332,0.00101967,0.0172825,1056,428,4.68121,48.2082
-161,596,4.66479,-48.833,0.000950694,-0.00164296,1.29878e-06,0.000950695,-0.00164296,0.000500753,0.00151512,0.015863,1063,428,4.66484,48.833
-154,596,4.6272,-49.4237,0.00111545,-0.0028858,0.000731728,0.00124507,-0.00301542,0.175318,0.00252959,0.013158,1070,428,4.6272,49.4237
-147,596,4.65198,-49.9661,0.00130823,-0.00411929,0.00150118,0.00169576,-0.00450683,0.252638,0.00370163,0.0143711,1077,428,4.65202,49.9661
-140,596,4.67627,-50.5203,0.0015352,-0.00549624,0.00229275,0.00221674,-0.00617778,0.28894,0.00502321,0.0165966,1084,428,4.67633,50.5203
-133,596,4.65588,-51.114,0.00176351,-0.00678027,0.00302828,0.00272799,-0.00774475,0.308332,0.00627342,0.0169991,1091,428,4.6559,51.1139
-126,596,4.65918,-51.6277,0.00209357,-0.00776929,0.00360215,0.00326906,-0.00894479,0.315435,0.00730105,0.0126393,1098,428,4.6592,51.6278
-119,596,4.67358,-52.1484,0.00255436,-0.00864167,0.0041141,0.00390354,-0.00999085,0.316891,0.00827458,0.0141264,1105,428,4.6736,52.1484
-112,596,4.64001,-52.6695,0.00300592,-0.00914701,0.00445942,0.00446669,-0.0106078,0.316554,0.00894074,0.0160692,1112,428,4.63996,52.6695
-105,596,4.63318,-53.1655,0.00345879,-0.00925493,0.00461983,0.00496021,-0.0107563,0.314226,0.00927736,0.0239568,1119,428,4.6332,53.1655
-98,596,4.66821,-53.6725,0.00408829,-0.00921971,0.00467888,0.00556864,-0.0107001,0.306425,0.00954721,0.0310688,1126,428,4.66826,53.6725
-91,596,4.64172,-54.207,0,0,0,0,0,0,0,-1,1133,428,4.64169,54.207
-84,596,4.77856,-54.5778,0,0,0,0,0,0,0,-1,1140,428,4.77852,54.5777
-77,596,4.93726,-55.1779,0,0,0,0,0,0,0,-1,1147,428,4.9372,55.1779
-70,596,3.50696,-32.137,0,0,0,0,0,0,0,-1,1154,428,3.50696,32.137
-63,596,1.95569,-12.2758,0,0,0,0,0,0,0,-1,1161,428,1.95563,12.2759
-56,596,1.60107,-10.5827,0,0,0,0,0,0,0,-1,1168,428,1.60108,10.5827
-49,596,1.59473,-10.0393,0,0,0,0,0,0,0,-1,1175,428,1.59472,10.0393
-42,596,1.99585,-6.6246,0,0,0,0,0,0,0,-1,1182,428,1.99586,6.62459
-35,596,5.00354,-56.8715,0,0,0,0,0,0,0,-1,1189,428,5.00355,56.8715
-28,596,5.28186,-57.187,0,0,0,0,0,0,0,-1,1196,428,5.28182,57.187
-21,596,5.32825,-57.498,0,0,0,0,0,0,0,-1,1203,428,5.32828,57.498
-14,596,5.57898,-57.7874,0,0,0,0,0,0,0,-1,1210,428,5.57902,57.7874
-7,596,5.64063,-58.0629,0,0,0,0,0,0,0,-1,1217,428,5.64065,58.0629
0,596,5.62622,-58.4504,0,0,0,0,0,0,0,-1,1224,428,5.62618,58.4504
7,596,10.1212,-62.9142,0,0,0,0,0,0,0,-1,1231,428,10.1212,62.9142
14,596,6.74353,-57.8412,0,0,0,0,0,0,0,-1,1238,428,6.74348,57.8413
21,596,6.30212,-57.3836,0,0,0,0,0,0,0,-1,1245,428,6.30207,57.3836
28,596,6.36584,-57.7957,0,0,0,0,0,0,0,-1,1252,428,6.3659,57.7957
35,596,6.05603,-57.33,0,0,0,0,0,0,0,-1,1259,428,6.05602,57.3299
42,596,6.45911,-58.07,0,0,0,0,0,0,0,-1,1266,428,6.45906,58.07
49,596,6.71143,-58.3572,-0.0386169,0.00026533,0.00269854,0.000451723,-0.0388033,1.50183,0.0260208,0.046652,1273,428,6.71146,58.3572
56,596,6.23853,-58.568,0,0,0,0,0,0,0,-1,1280,428,6.23858,58.568
63,596,5.76855,-58.4064,-0.0332693,0.00994772,0.00679598,0.0109912,-0.0343127,1.41844,0.027287,0.0477648,1287,428,5.76854,58.4064
70,596,5.16846,-58.2259,0,0,0,0,0,0,0,-1,1294,428,5.1684,58.2259
77,596,4.57727,-58.0567,0,0,0,0,0,0,0,-1,1301,428,4.57731,58.0567
84,596,2.06641,-58.7311,0,0,0,0,0,0,0,-1,1308,428,2.06646,58.7311
91,596,1.30322,-58.9293,0,0,0,0,0,0,0,-1,1315,428,1.30326,58.9293
98,596,0.510254,-59.6605,0,0,0,0,0,0,0,-1,1322,428,0.510242,59.6605
105,596,2.40173,-55.2708,0,0,0,0,0,0,0,-1,1329,428,2.40169,55.2708
112,596,8.25745,-58.4016,0,0,0,0,0,0,0,-1,1336,428,8.25741,58.4016
119,596,8.58826,-58.0796,0,0,0,0,0,0,0,-1,1343,428,8.58826,58.0796
126,596,2.04529,-56.099,0,0,0,0,0,0,0,-1,1350,428,2.04534,56.099
133,596,8.76038,-57.5031,0,0,0,0,0,0,0,-1,1357,428,8.76035,57.5031
140,596,9.05176,-57.018,0,0,0,0,0,0,0,-1,1364,428,9.05178,57.018
147,596,8.87097,-56.9641,0,0,0,0,0,0,0,-1,1371,428,8.87101,56.9641
154,596,8.49316,-57.2304,0,0,0,0,0,0,0,-1,1378,428,8.49319,57.2304
161,596,8.9873,-56.8653,0,0,0,0,0,0,0,-1,1385,428,8.98728,56.8653
168,596,9.2179,-56.3779,0,0,0,0,0,0,0,-1,1392,428,9.21787,56.3779
175,596,9.43042,-56.1322,0,0,0,0,0,0,0,-1,1399,428,9.43047,56.1322
182,596,9.5354,-56.0378,0,0,0,0,0,0,0,-1,1406,428,9.5354,56.0378
189,596,9.45886,-55.588,0,0,0,0,0,0,0,-1,1413,428,9.45882,55.588
196,596,9.37927,-54.9795,0,0,0,0,0,0,0,-1,1420,428,9.37925,54.9795
203,596,9.32092,-54.8888,0,0,0,0,0,0,0,-1,1427,428,9.32093,54.8888
210,596,9.3844,-54.6443,0,0,0,0,0,0,0,-1,1434,428,9.38443,54.6443
217,596,9.40576,-54.0787,0,0,0,0,0,0,0,-1,1441,428,9.40572,54.0787
224,596,9.52332,-53.5716,0,0,0,0,0,0,0,-1,1448,428,9.52327,53.5716
231,596,9.6178,-53.115,0.00514858,-0.00412201,-0.00200507,0.00556365,-0.00453709,-0.20413,0.0058417,0.0276731,1455,428,9.61776,53.115
238,596,9.59204,-52.5329,0.00482983,-0.00357292,-0.00147474,0.00508114,-0.00382423,-0.168789,0.00515856,0.017082,1462,428,9.59199,52.5329
245,596,9.59985,-52.0083,0.00437773,-0.00318453,-0.00122878,0.00457238,-0.00337918,-0.157105,0.00460803,0.0145638,1469,428,9.59986,52.0083
252,596,9.62109,-51.466,0.00386011,-0.00281903,-0.00090689,0.00398106,-0.00293998,-0.132582,0.0040109,0.0111039,1476,428,9.62109,51.466
259,596,9.62598,-50.9172,0.00329891,-0.00235468,-0.000615185,0.00336508,-0.00242084,-0.107143,0.0033553,0.00935317,1483,428,9.62603,50.9172
266,596,9.61096,-50.3419,0.00269807,-0.0020691,-0.00040478,0.00273219,-0.00210323,-0.0841075,0.00279959,0.0103631,1490,428,9.61095,50.3419
273,596,9.61865,-49.7538,0.00213056,-0.00157296,-0.000172722,0.0021386,-0.001581,-0.0465025,0.00215554,0.0129371,1497,428,9.61868,49.7538
280,596,9.62231,-49.1575,0.00172221,-0.00105847,0.000100452,0.00172584,-0.00106209,0.0360622,0.00162475,0.0141507,1504,428,9.62228,49.1575
287,596,9.59656,-48.5431,0.00140573,-0.000427414,0.000371906,0.00147831,-0.000499993,0.19273,0.00118781,0.0120321,1511,428,9.59656,48.5431
294,596,9.57556,-47.9206,0.00105235,0.000337503,0.000689529,0.00147159,-8.1733e-05,0.546284,0.00100941,0.00950335,1518,428,9.57561,47.9206
301,596,9.56165,-47.2828,0.000710501,0.00117651,0.00106769,0.00203633,-0.000149315,0.89283,0.00140996,0.011248,1525,428,9.56169,47.2828
308,596,9.54077,-46.6435,0.000484863,0.00216976,0.00151229,0.00305843,-0.000403799,1.03953,0.00218602,0.0174709,1532,428,9.54076,46.6435
315,596,9.45691,-46.0026,0.000325845,0.00323667,0.00202016,0.00427109,-0.000708574,1.09756,0.00311061,0.0170329,1539,428,9.45687,46.0026
322,596,9.4353,-45.3164,0.000123989,0.00438223,0.00259302,0.00560824,-0.00110203,1.12913,0.00415517,0.0146752,1546,428,9.43525,45.3164
329,596,9.41467,-44.6533,-3.76878e-05,0.00553769,0.00324302,0.0070265,-0.0015265,1.14042,0.00526742,0.0112035,1553,428,9.41469,44.6533
336,596,9.38745,-43.9964,-0.000126756,0.00699936,0.00399855,0.00879203,-0.00191942,1.14933,0.00659493,0.00897767,1560,428,9.38741,43.9964
343,596,9.36011,-43.305,-0.000137435,0.00858046,0.00488732,0.0107703,-0.00232725,1.14956,0.0080686,0.0113267,1567,428,9.36016,43.305
350,596,9.32861,-42.5676,-0.000149129,0.0104456,0.00586505,0.0130515,-0.00275498,1.15269,0.00974992,0.0119594,1574,428,9.32862,42.5676
357,596,9.26135,-41.8544,-0.000105639,0.0121273,0.00690747,0.0152372,-0.00321545,1.14777,0.0113823,0.0102673,1581,428,9.2614,41.8544
364,596,9.19788,-41.1061,1.74508e-05,0.014155,0.00798397,0.0177498,-0.00357732,1.14774,0.0131884,0.0110344,1588,428,9.19785,41.1061
371,596,9.15894,-40.3914,0.000181356,0.01628,0.00909535,0.0203763,-0.00391498,1.14763,0.0150598,0.0125648,1595,428,9.15897,40.3914
378,596,9.09827,-39.6488,0.0003443,0.0186964,0.0102163,0.0232525,-0.00421179,1.1513,0.0170796,0.0173186,1602,428,9.09822,39.6488
385,596,9.10938,-38.6288,0.000603225,0.0208434,0.0110498,0.0257071,-0.00426049,1.15615,0.0187206,0.037871,1609,428,9.10937,38.6288
392,596,9.13013,-37.7507,0.00120438,0.0228935,0.0117209,0.0280171,-0.00391927,1.15869,0.0201122,0.0470991,1616,428,9.13014,37.7507
399,596,9.04272,-37.1299,0,0,0,0,0,0,0,-1,1623,428,9.04271,37.1299
406,596,3.60034,-10.1525,0,0,0,0,0,0,0,-1,1630,428,3.60028,10.1525
413,596,3.39124,-2.63528,0,0,0,0,0,0,0,-1,1637,428,3.39122,2.6353
420,596,2.6344,-3.06308,0,0,0,0,0,0,0,-1,1644,428,2.63439,3.06308
427,596,7.61975,-22.7222,0,0,0,0,0,0,0,-1,1651,428,7.61974,22.7222
434,596,5.09753,-22.5213,0,0,0,0,0,0,0,-1,1658,428,5.09755,22.5213
441,596,7.19043,-22.087,0,0,0,0,0,0,0,-1,1665,428,7.19046,22.087
448,596,1.0769,0.0083313,0,0,0,0,0,0,0,-1,1672,428,1.07684,-0.00832231
455,596,2.00769,-1.43329,0,0,0,0,0,0,0,-1,1679,428,2.00765,1.4333
462,596,0,0,0,0,0,0,0,0,0,-1,1686,428,0,0
469,596,0,0,0,0,0,0,0,0,0,-1,1693,428,0,0
476,596,0,0,0,0,0,0,0,0,0,-1,1700,428,0,0
483,596,0,0,0,0,0,0,0,0,0,-1,1707,428,0,0
490,596,0,0,0,0,0,0,0,0,0,-1,1714,428,0,0
497,596,0,0,0,0,0,0,0,0,0,-1,1721,428,0,0
504,596,0,0,0,0,0,0,0,0,0,-1,1728,428,0,0
511,596,0,0,0,0,0,0,0,0,0,-1,1735,428,0,0
518,596,0,0,0,0,0,0,0,0,0,-1,1742,428,0,0
525,596,0,0,0,0,0,0,0,0,0,-1,1749,428,0,0
532,596,0,0,0,0,0,0,0,0,0,-1,1756,428,0,0
539,596,0,0,0,0,0,0,0,0,0,-1,1763,428,0,0
546,596,0,0,0,0,0,0,0,0,0,-1,1770,428,0,0
553,596,0,0,0,0,0,0,0,0,0,-1,1777,428,0,0
560,596,0,0,0,0,0,0,0,0,0,-1,1784,428,0,0
567,596,0,0,0,0,0,0,0,0,0,-1,1791,428,0,0
574,596,0,0,0,0,0,0,0,0,0,-1,1798,428,0,0
581,596,0,0,0,0,0,0,0,0,0,-1,1805,428,0,0
588,596,0,0,0,0,0,0,0,0,0,-1,1812,428,0,0
595,596,0,0,0,0,0,0,0,0,0,-1,1819,428,0,0
602,596,0,0,0,0,0,0,0,0,0,-1,1826,428,0,0
609,596,0,0,0,0,0,0,0,0,0,-1,1833,428,0,0
616,596,0,0,0,0,0,0,0,0,0,-1,1840,428,0,0
623,596,0,0,0,0,0,0,0,0,0,-1,1847,428,0,0
630,596,0,0,0,0,0,0,0,0,0,-1,1854,428,0,0
637,596,0,0,0,0,0,0,0,0,0,-1,1861,428,0,0
644,596,0,0,0,0,0,0,0,0,0,-1,1868,428,0,0
651,596,0,0,0,0,0,0,0,0,0,-1,1875,428,0,0
658,596,0,0,0,0,0,0,0,0,0,-1,1882,428,0,0
665,596,0,0,0,0,0,0,0,0,0,-1,1889,428,0,0
672,596,0,0,0,0,0,0,0,0,0,-1,1896,428,0,0
679,596,0,0,0,0,0,0,0,0,0,-1,1903,428,0,0
686,596,0,0,0,0,0,0,0,0,0,-1,1910,428,0,0
693,596,0,0,0,0,0,0,0,0,0,-1,1917,428,0,0
700,596,0,0,0,0,0,0,0,0,0,-1,1924,428,0,0
707,596,0,0,0,0,0,0,0,0,0,-1,1931,428,0,0
714,596,0,0,0,0,0,0,0,0,0,-1,1938,428,0,0
721,596,0,0,0,0,0,0,0,0,0,-1,1945,428,0,0
728,596,0,0,0,0,0,0,0,0,0,-1,1952,428,0,0
735,596,0,0,0,0,0,0,0,0,0,-1,1959,428,0,0
742,596,0,0,0,0,0,0,0,0,0,-1,1966,428,0,0
749,596,0,0,0,0,0,0,0,0,0,-1,1973,428,0,0
756,596,0,0,0,0,0,0,0,0,0,-1,1980,428,0,0
763,596,0,0,0,0,0,0,0,0,0,-1,1987,428,0,0
770,596,0,0,0,0,0,0,0,0,0,-1,1994,428,0,0
777,596,0,0,0,0,0,0,0,0,0,-1,2001,428,0,0
784,596,0,0,0,0,0,0,0,0,0,-1,2008,428,0,0
791,596,0,0,0,0,0,0,0,0,0,-1,2015,428,0,0
798,596,0,0,0,0,0,0,0,0,0,-1,2022,428,0,0
805,596,0,0,0,0,0,0,0,0,0,-1,2029,428,0,0
812,596,0,0,0,0,0,0,0,0,0,-1,2036,428,0,0
-700,589,0,0,0,0,0,0,0,0,0,-1,524,435,0,0
-693,589,0,0,0,0,0,0,0,0,0,-1,531,435,0,0
-686,589,0,0,0,0,0,0,0,0,0,-1,538,435,0,0
-679,589,0,0,0,0,0,0,0,0,0,-1,545,435,0,0
-672,589,0,0,0,0,0,0,0,0,0,-1,552,435,0,0
-665,589,0,0,0,0,0,0,0,0,0,-1,559,435,0,0
-658,589,0,0,0,0,0,0,0,0,0,-1,566,435,0,0
-651,589,0,0,0,0,0,0,0,0,0,-1,573,435,0,0
-644,589,0,0,0,0,0,0,0,0,0,-1,580,435,0,0
-637,589,0,0,0,0,0,0,0,0,0,-1,587,435,0,0
-630,589,0,0,0,0,0,0,0,0,0,-1,594,435,0,0
-623,589,0,0,0,0,0,0,0,0,0,-1,601,435,0,0
-616,589,0,0,0,0,0,0,0,0,0,-1,608,435,0,0
-609,589,0,0,0,0,0,0,0,0,0,-1,615,435,0,0
-602,589,0,0,0,0,0,0,0,0,0,-1,622,435,0,0
-595,589,0,0,0,0,0,0,0,0,0,-1,629,435,0,0
-588,589,0,0,0,0,0,0,0,0,0,-1,636,435,0,0
-581,589,0,0,0,0,0,0,0,0,0,-1,643,435,0,0
-574,589,0,0,0,0,0,0,0,0,0,-1,650,435,0,0
-567,589,0,0,0,0,0,0,0,0,0,-1,657,435,0,0
-560,589,0,0,0,0,0,0,0,0,0,-1,664,435,0,0
-553,589,0,0,0,0,0,0,0,0,0,-1,671,435,0,0
-546,589,0,0,0,0,0,0,0,0,0,-1,678,435,0,0
-539,589,0,0,0,0,0,0,0,0,0,-1,685,435,0,0
-532,589,0,0,0,0,0,0,0,0,0,-1,692,435,0,0
-525,589,0,0,0,0,0,0,0,0,0,-1,699,435,0,0
-518,589,0,0,0,0,0,0,0,0,0,-1,706,435,0,0
-511,589,0,0,0,0,0,0,0,0,0,-1,713,435,0,0
-504,589,0,0,0,0,0,0,0,0,0,-1,720,435,0,0
-497,589,0,0,0,0,0,0,0,0,0,-1,727,435,0,0
-490,589,0,0,0,0,0,0,0,0,0,-1,734,435,0,0
-483,589,0,0,0,0,0,0,0,0,0,-1,741,435,0,0
-476,589,0,0,0,0,0,0,0,0,0,-1,748,435,0,0
-469,589,0,0,0,0,0,0,0,0,0,-1,755,435,0,0
-462,589,0,0,0,0,0,0,0,0,0,-1,762,435,0,0
-455,589,0,0,0,0,0,0,0,0,0,-1,769,435,0,0
-448,589,0,0,0,0,0,0,0,0,0,-1,776,435,0,0
-441,589,0,0,0,0,0,0,0,0,0,-1,783,435,0,0
-434,589,0,0,0,0,0,0,0,0,0,-1,790,435,0,0
-427,589,0,0,0,0,0,0,0,0,0,-1,797,435,0,0
-420,589,0,0,0,0,0,0,0,0,0,-1,804,435,0,0
-413,589,0,0,0,0,0,0,0,0,0,-1,811,435,0,0
-406,589,0,0,0,0,0,0,0,0,0,-1,818,435,0,0
-399,589,0,0,0,0,0,0,0,0,0,-1,825,435,0,0
-392,589,0,0,0,0,0,0,0,0,0,-1,832,435,0,0
-385,589,0,0,0,0,0,0,0,0,0,-1,839,435,0,0
-378,589,0,0,0,0,0,0,0,0,0,-1,846,435,0,0
-371,589,0,0,0,0,0,0,0,0,0,-1,853,435,0,0
-364,589,0,0,0,0,0,0,0,0,0,-1,860,435,0,0
-357,589,0,0,0,0,0,0,0,0,0,-1,867,435,0,0
-350,589,-0.799927,-20.664,0,0,0,0,0,0,0,-1,874,435,-0.799952,20.664
-343,589,5.15289,-30.4847,0,0,0,0,0,0,0,-1,881,435,5.15291,30.4847
-336,589,5.07684,-29.2368,0,0,0,0,0,0,0,-1,888,435,5.07687,29.2368
-329,589,4.9624,-28.1366,0,0,0,0,0,0,0,-1,895,435,4.96242,28.1366
-322,589,5.10156,-27.065,0,0,0,0,0,0,0,-1,902,435,5.10155,27.065
-315,589,4.22705,-27.9655,0,0,0,0,0,0,0,-1,909,435,4.22705,27.9655
-308,589,4.46698,-29.037,0,0,0,0,0,0,0,-1,916,435,4.46696,29.037
-301,589,4.94867,-33.7458,0,0,0,0,0,0,0,-1,923,435,4.94869,33.7458
-294,589,4.1037,-31.2976,0,0,0,0,0,0,0,-1,930,435,4.10371,31.2976
-287,589,4.53259,-36.1716,0,0,0,0,0,0,0,-1,937,435,4.53258,36.1716
-280,589,4.63568,-36.9989,0.000725373,0.016315,-0.00971812,0.0209782,-0.00393778,-1.12341,0.0154661,0.043833,944,435,4.6357,36.9989
-273,589,4.61389,-37.742,0.000614625,0.0155312,-0.00907632,0.0198205,-0.00367468,-1.12932,0.0145936,0.0274488,951,435,4.61391,37.742
-266,589,4.5321,-38.5503,0.000289042,0.0142412,-0.00834688,0.0181434,-0.00361312,-1.13349,0.0134626,0.0268996,958,435,4.53213,38.5503
-259,589,4.46924,-39.3487,-2.72682e-05,0.0128202,-0.00766026,0.0163936,-0.00360073,-1.13431,0.0123062,0.0232908,965,435,4.46925,39.3487
-252,589,4.47217,-40.1706,-0.000293049,0.011662,-0.006688,0.0146545,-0.00328548,-1.15008,0.0110291,0.0125307,972,435,4.47218,40.1706
-245,589,4.44305,-40.9109,-0.000260973,0.0104614,-0.0059041,0.0130752,-0.0028748,-1.15402,0.0098164,0.0115012,979,435,4.44307,40.9109
-238,589,4.36823,-41.6322,-0.000173655,0.00912475,-0.00509821,0.0113753,-0.00242422,-1.15508,0.00850754,0.0154254,986,435,4.36823,41.6322
-231,589,4.30865,-42.2907,-0.000106721,0.00780365,-0.0042535,0.00965671,-0.00195978,-1.15993,0.00718077,0.015995,993,435,4.30863,42.2907
-224,589,4.25641,-42.9833,7.449e-05,0.00652048,-0.0035714,0.00810817,-0.00151319,-1.15248,0.00597407,0.0155798,1000,435,4.25642,42.9833
-217,589,4.21698,-43.6781,0.000348126,0.00504512,-0.0029472,0.0064651,-0.00107185,-1.12181,0.0047082,0.0166827,1007,435,4.21696,43.6781
-210,589,4.20544,-44.3502,0.000635594,0.0035497,-0.00235247,0.0048598,-0.000674504,-1.06267,0.00348652,0.0164829,1014,435,4.20547,44.3502
-203,589,4.18506,-45.0009,0.000915024,0.00212651,-0.00178524,0.00340598,-0.00036444,-0.948957,0.00240137,0.0123018,1021,435,4.18505,45.0009
-196,589,4.1571,-45.6515,0.00116334,0.000880055,-0.00125025,0.00227995,-0.000236553,-0.728993,0.00160464,0.0141776,1028,435,4.15709,45.6514
-189,589,4.12378,-46.3428,0.00139519,-0.000339228,-0.000822358,0.0017231,-0.000667144,-0.37943,0.00142419,0.018939,1035,435,4.12377,46.3428
-182,589,4.12109,-46.9092,0.00160336,-0.00158178,-0.000281446,0.00162804,-0.00160646,-0.0874591,0.00186745,0.0136579,1042,435,4.12109,46.9092
-175,589,4.11157,-47.5273,0.00177024,-0.00314181,0.000419333,0.00180578,-0.00317735,0.084553,0.00291311,0.0168861,1049,435,4.11157,47.5273
-168,589,4.10522,-48.2021,0.00192617,-0.00442893,0.00102679,0.00208795,-0.00459071,0.156274,0.00394514,0.0142008,1056,435,4.10524,48.2021
-161,589,4.10364,-48.8046,0.00205405,-0.00575735,0.00170551,0.00241019,-0.00611349,0.205858,0.00507361,0.0125777,1063,435,4.10367,48.8046
-154,589,4.07825,-49.3784,0.00210271,-0.00711651,0.00249354,0.00273393,-0.00774773,0.247932,0.00627812,0.0124543,1070,435,4.07829,49.3784
-147,589,4.07373,-49.9411,0.00212507,-0.00849031,0.0034051,0.00312343,-0.00948867,0.285203,0.00758442,0.0129792,1077,435,4.07368,49.9411
-140,589,4.11072,-50.494,0.00229237,-0.0099793,0.00433613,0.00366989,-0.0113568,0.307601,0.00904615,0.0150041,1084,435,4.11074,50.494
-133,589,4.1073,-51.0635,0.0024447,-0.0113663,0.00522184,0.00419678,-0.0131184,0.323724,0.0104298,0.015369,1091,435,4.10733,51.0635
-126,589,4.12378,-51.609,0.0027445,-0.0123752,0.00589776,0.00477292,-0.0144037,0.331257,0.0115276,0.0123477,1098,435,4.12379,51.609
-119,589,4.1051,-52.1245,0.00319412,-0.0133297,0.00651006,0.00545077,-0.0155863,0.333679,0.0126069,0.0216935,1105,435,4.10507,52.1245
-112,589,4.07813,-52.6593,0,0,0,0,0,0,0,-1,1112,435,4.07811,52.6593
-105,589,4.08643,-53.1949,0,0,0,0,0,0,0,-1,1119,435,4.08639,53.1949
-98,589,4.13831,-53.8083,0,0,0,0,0,0,0,-1,1126,435,4.13833,53.8083
-91,589,3.39563,-37.8231,0,0,0,0,0,0,0,-1,1133,435,3.39565,37.8231
-84,589,2.76538,-22.6013,0,0,0,0,0,0,0,-1,1140,435,2.76539,22.6014
-77,589,2.18152,-14.8023,0,0,0,0,0,0,0,-1,1147,435,2.18155,14.8023
-70,589,1.48267,-9.90961,0,0,0,0,0,0,0,-1,1154,435,1.48264,9.9096
-63,589,0.880127,-5.50586,0,0,0,0,0,0,0,-1,1161,435,0.880186,5.50587
-56,589,-2.78052,-7.28082,0,0,0,0,0,0,0,-1,1168,435,-2.78053,7.28082
-49,589,-0.525757,-2.76703,0,0,0,0,0,0,0,-1,1175,435,-0.525771,2.76702
-42,589,-2.7738,-2.87921,0,0,0,0,0,0,0,-1,1182,435,-2.77383,2.87922
-35,589,-2.55225,-3.27551,0,0,0,0,0,0,0,-1,1189,435,-2.55223,3.27552
-28,589,-0.0632324,-3.42938,0,0,0,0,0,0,0,-1,1196,435,-0.063241,3.42938
-21,589,3.68359,-57.0168,0,0,0,0,0,0,0,-1,1203,435,3.68359,57.0168
-14,589,3.44397,-56.9379,-0.0110269,-0.00955057,0.00156587,-0.00855759,-0.0120199,1.00565,0.00714449,0.046631,1210,435,3.44398,56.9379
-7,589,3.5188,-57.0017,-0.0157841,-0.0106385,0.000679977,-0.0105502,-0.0158724,1.4416,0.00932818,0.0476906,1217,435,3.51874,57.0017
0,589,11.6169,-63.2163,0,0,0,0,0,0,0,-1,1224,435,11.6169,63.2163
7,589,11.0763,-62.9752,0,0,0,0,0,0,0,-1,1231,435,11.0763,62.9752
14,589,10.127,-62.3629,0,0,0,0,0,0,0,-1,1238,435,10.1269,62.3629
21,589,9.52551,-62.0526,-0.0377642,-0.00937937,1.25456e-05,-0.00937937,-0.0377642,1.57035,0.0227049,0.0453196,1245,435,9.52556,62.0527
28,589,8.92468,-61.7475,-0.0418835,-0.00664752,0.000741887,-0.0066319,-0.0418991,1.54975,0.0260055,0.0434683,1252,435,8.92462,61.7475
35,589,8.38391,-61.1129,0,0,0,0,0,0,0,-1,1259,435,8.38389,61.1129
42,589,7.26233,-60.3877,0,0,0,0,0,0,0,-1,1266,435,7.26238,60.3877
49,589,6.7207,-57.9351,0,0,0,0,0,0,0,-1,1273,435,6.72068,57.9351
56,589,6.30652,-58.4788,0,0,0,0,0,0,0,-1,1280,435,6.30654,58.4788
63,589,5.83557,-58.4365,0,0,0,0,0,0,0,-1,1287,435,5.83559,58.4365
70,589,5.22302,-58.2443,0,0,0,0,0,0,0,-1,1294,435,5.22303,58.2443
77,589,2.56543,-58.2198,0,0,0,0,0,0,0,-1,1301,435,2.56538,58.2198
84,589,1.83008,-58.4456,0,0,0,0,0,0,0,-1,1308,435,1.83003,58.4455
91,589,1.06641,-58.6736,0,0,0,0,0,0,0,-1,1315,435,1.06646,58.6736
98,589,2.34924,-56.2771,0,0,0,0,0,0,0,-1,1322,435,2.3492,56.2771
105,589,2.32214,-55.7621,-0.0189735,0.0303336,0.0157371,0.0349282,-0.0235681,1.28673,0.0339844,0.0491828,1329,435,2.32213,55.7621
112,589,2.53906,-55.4715,-0.0160714,0.0290772,0.0156241,0.0339567,-0.0209509,1.26809,0.031996,0.0413155,1336,435,2.53902,55.4715
119,589,2.09558,-54.794,0,0,0,0,0,0,0,-1,1343,435,2.09556,54.794
126,589,1.88867,-55.6635,-0.0134942,0.024722,0.0142841,0.0294708,-0.0182431,1.24983,0.0278007,0.0439967,1350,435,1.88866,55.6635
133,589,1.10754,-56.0854,-0.0128344,0.0219541,0.0131608,0.026372,-0.0172523,1.24693,0.0253692,0.0462762,1357,435,1.10754,56.0854
140,589,0.379883,-55.5643,0,0,0,0,0,0,0,-1,1364,435,0.379915,55.5643
147,589,4.36267,-70.4608,0,0,0,0,0,0,0,-1,1371,435,4.36273,70.4608
154,589,4.0575,-71.5477,0,0,0,0,0,0,0,-1,1378,435,4.05752,71.5477
161,589,-2.87488,-52.599,0,0,0,0,0,0,0,-1,1385,435,-2.87491,52.599
168,589,20.0441,-47.9614,0,0,0,0,0,0,0,-1,1392,435,20.044,47.9613
175,589,8.66992,-7.65527,0,0,0,0,0,0,0,-1,1399,435,8.66994,7.65528
182,589,3.8136,-2.45389,0,0,0,0,0,0,0,-1,1406,435,3.81363,2.4539
189,589,3.69983,-3.68149,0,0,0,0,0,0,0,-1,1413,435,3.69987,3.68147
196,589,3.31055,-5.31677,0,0,0,0,0,0,0,-1,1420,435,3.31059,5.31678
203,589,2.72559,-8.84338,0,0,0,0,0,0,0,-1,1427,435,2.72558,8.84338
210,589,3.62378,-14.4032,0,0,0,0,0,0,0,-1,1434,435,3.62378,14.4032
217,589,4.65601,-22.3745,0,0,0,0,0,0,0,-1,1441,435,4.65607,22.3745
224,589,6.79028,-33.9412,0,0,0,0,0,0,0,-1,1448,435,6.79028,33.9412
231,589,10.1638,-53.1556,0,0,0,0,0,0,0,-1,1455,435,10.1638,53.1556
238,589,10.1311,-52.5091,0,0,0,0,0,0,0,-1,1462,435,10.1311,52.5091
245,589,10.2222,-51.894,0,0,0,0,0,0,0,-1,1469,435,10.2222,51.894
252,589,10.1689,-51.3847,0.00511937,-0.00546744,-0.00208201,0.0055141,-0.00586217,-0.187368,0.00656912,0.0248331,1476,435,10.1689,51.3847
259,589,10.178,-50.8916,0.00451331,-0.00528697,-0.00178873,0.00482958,-0.00560324,-0.175004,0.00602891,0.0109256,1483,435,10.178,50.8916
266,589,10.1898,-50.3202,0.00384173,-0.00534812,-0.00161145,0.00411611,-0.0056225,-0.16865,0.00564497,0.0103123,1490,435,10.1899,50.3202
273,589,10.2092,-49.7622,0.00319561,-0.00510468,-0.00141099,0.00342891,-0.00533798,-0.163863,0.00510141,0.0129702,1497,435,10.2092,49.7622
280,589,10.2115,-49.1631,0.00276128,-0.00481463,-0.00119048,0.00294395,-0.0049973,-0.152253,0.00463569,0.0142928,1504,435,10.2116,49.1631
287,589,10.2028,-48.5462,0.00239585,-0.00434798,-0.00103109,0.00254997,-0.0045021,-0.148379,0.00412319,0.0117536,1511,435,10.2027,48.5462
294,589,10.1947,-47.9122,0.00199696,-0.0036172,-0.000786503,0.00210507,-0.0037253,-0.13659,0.00340921,0.0105812,1518,435,10.1947,47.9122
301,589,10.1844,-47.278,0.00161646,-0.00280923,-0.000479428,0.0016678,-0.00286057,-0.10668,0.00264451,0.0118932,1525,435,10.1844,47.278
308,589,10.1687,-46.6292,0.0013365,-0.00180304,-0.00011036,0.00134037,-0.00180691,-0.0350941,0.00182373,0.0118084,1532,435,10.1687,46.6292
315,589,10.1324,-45.9586,0.00111385,-0.000690403,0.000324295,0.00117037,-0.000746921,0.172547,0.00111591,0.0108026,1539,435,10.1324,45.9586
322,589,10.118,-45.298,0.000860049,0.000573539,0.000841966,0.00157086,-0.000137272,0.701133,0.00109587,0.0121386,1546,435,10.118,45.298
329,589,10.0977,-44.6308,0.000644714,0.00185931,0.00144966,0.00282375,-0.000319717,0.983755,0.00199762,0.011329,1553,435,10.0977,44.6308
336,589,10.0677,-43.9778,0.000483619,0.00337372,0.00215775,0.0045256,-0.000668266,1.08045,0.00326272,0.00993229,1560,435,10.0677,43.9779
343,589,10.0267,-43.3036,0.000369134,0.00502525,0.00300141,0.00649566,-0.00110127,1.11526,0.00474036,0.0108312,1567,435,10.0268,43.3036
350,589,9.97937,-42.5866,0.000282792,0.0069234,0.00394799,0.00876169,-0.0015555,1.13502,0.00642272,0.0158849,1574,435,9.9794,42.5866
357,589,9.94177,-41.85,0.000235587,0.00864734,0.00493061,0.0109222,-0.0020393,1.13852,0.00804785,0.0135523,1581,435,9.94183,41.85
364,589,9.91895,-41.1262,0.000250608,0.0105157,0.00593986,0.0132333,-0.00246701,1.14171,0.00974914,0.0114291,1588,435,9.919,41.1262
371,589,9.87756,-40.3971,0.00029329,0.0124111,0.00694703,0.0155702,-0.00286581,1.14401,0.0114555,0.0120041,1595,435,9.87758,40.3971
378,589,9.82715,-39.6555,0.00031188,0.0144143,0.0079009,0.0179529,-0.0032267,1.14971,0.0131765,0.013235,1602,435,9.82719,39.6555
385,589,9.7832,-38.8753,0.000405834,0.0161024,0.00858264,0.0198841,-0.0033759,1.15577,0.0145129,0.0222568,1609,435,9.78324,38.8753
392,589,9.72876,-37.9278,0.000850458,0.0176229,0.00914448,0.0216443,-0.00317099,1.15648,0.0155944,0.0311552,1616,435,9.7287,37.9278
399,589,9.70947,-36.9853,0.00194835,0.0189404,0.0102967,0.0237937,-0.00290492,1.13034,0.0169141,0.039301,1623,435,9.70944,36.9853
406,589,9.71448,-36.1367,0,0,0,0,0,0,0,-1,1630,435,9.71442,36.1367
413,589,5.61377,-19.0606,0,0,0,0,0,0,0,-1,1637,435,5.61372,19.0606
420,589,2.79724,-5.79956,0,0,0,0,0,0,0,-1,1644,435,2.7973,5.79955
427,589,8.18408,-34.5483,0,0,0,0,0,0,0,-1,1651,435,8.18406,34.5483
434,589,8.47449,-32.6045,0,0,0,0,0,0,0,-1,1658,435,8.47453,32.6045
441,589,7.85901,-29.8665,0,0,0,0,0,0,0,-1,1665,435,7.85898,29.8666
448,589,0.453735,-3.2868,0,0,0,0,0,0,0,-1,1672,435,0.453701,3.28681
455,589,0.664307,-3.46848,0,0,0,0,0,0,0,-1,1679,435,0.66425,3.46846
462,589,3.46716,-4.41891,0,0,0,0,0,0,0,-1,1686,435,3.4672,4.41891
469,589,0.0238037,-3.81497,0,0,0,0,0,0,0,-1,1693,435,0.0237965,3.81498
476,589,0,0,0,0,0,0,0,0,0,-1,1700,435,0,0
483,589,0,0,0,0,0,0,0,0,0,-1,1707,435,0,0
490,589,0,0,0,0,0,0,0,0,0,-1,1714,435,0,0
497,589,0,0,0,0,0,0,0,0,0,-1,1721,435,0,0
504,589,0,0,0,0,0,0,0,0,0,-1,1728,435,0,0
511,589,0,0,0,0,0,0,0,0,0,-1,1735,435,0,0
518,589,0,0,0,0,0,0,0,0,0,-1,1742,435,0,0
525,589,0,0,0,0,0,0,0,0,0,-1,1749,435,0,0
532,589,0,0,0,0,0,0,0,0,0,-1,1756,435,0,0
539,589,0,0,0,0,0,0,0,0,0,-1,1763,435,0,0
546,589,0,0,0,0,0,0,0,0,0,-1,1770,435,0,0
553,589,0,0,0,0,0,0,0,0,0,-1,1777,435,0,0
560,589,0,0,0,0,0,0,0,0,0,-1,1784,435,0,0
567,589,0,0,0,0,0,0,0,0,0,-1,1791,435,0,0
574,589,0,0,0,0,0,0,0,0,0,-1,1798,435,0,0
581,589,0,0,0,0,0,0,0,0,0,-1,1805,435,0,0
588,589,0,0,0,0,0,0,0,0,0,-1,1812,435,0,0
595,589,0,0,0,0,0,0,0,0,0,-1,1819,435,0,0
602,589,0,0,0,0,0,0,0,0,0,-1,1826,435,0,0
609,589,0,0,0,0,0,0,0,0,0,-1,1833,435,0,0
616,589,0,0,0,0,0,0,0,0,0,-1,1840,435,0,0
623,589,0,0,0,0,0,0,0,0,0,-1,1847,435,0,0
630,589,0,0,0,0,0,0,0,0,0,-1,1854,435,0,0
637,589,0,0,0,0,0,0,0,0,0,-1,1861,435,0,0
644,589,0,0,0,0,0,0,0,0,0,-1,1868,435,0,0
651,589,0,0,0,0,0,0,0,0,0,-1,1875,435,0,0
658,589,0,0,0,0,0,0,0,0,0,-1,1882,435,0,0
665,589,0,0,0,0,0,0,0,0,0,-1,1889,435,0,0
672,589,0,0,0,0,0,0,0,0,0,-1,1896,435,0,0
679,589,0,0,0,0,0,0,0,0,0,-1,1903,435,0,0
686,589,0,0,0,0,0,0,0,0,0,-1,1910,435,0,0
693,589,0,0,0,0,0,0,0,0,0,-1,1917,435,0,0
700,589,0,0,0,0,0,0,0,0,0,-1,1924,435,0,0
707,589,0,0,0,0,0,0,0,0,0,-1,1931,435,0,0
714,589,0,0,0,0,0,0,0,0,0,-1,1938,435,0,0
721,589,0,0,0,0,0,0,0,0,0,-1,1945,435,0,0
728,589,0,0,0,0,0,0,0,0,0,-1,1952,435,0,0
735,589,0,0,0,0,0,0,0,0,0,-1,1959,435,0,0
742,589,0,0,0,0,0,0,0,0,0,-1,1966,435,0,0
749,589,0,0,0,0,0,0,0,0,0,-1,1973,435,0,0
756,589,0,0,0,0,0,0,0,0,0,-1,1980,435,0,0
763,589,0,0,0,0,0,0,0,0,0,-1,1987,435,0,0
770,589,0,0,0,0,0,0,0,0,0,-1,1994,435,0,0
777,589,0,0,0,0,0,0,0,0,0,-1,2001,435,0,0
784,589,0,0,0,0,0,0,0,0,0,-1,2008,435,0,0
791,589,0,0,0,0,0,0,0,0,0,-1,2015,435,0,0
798,589,0,0,0,0,0,0,0,0,0,-1,2022,435,0,0
805,589,0,0,0,0,0,0,0,0,0,-1,2029,435,0,0
812,589,0,0,0,0,0,0,0,0,0,-1,2036,435,0,0
-700,582,0,0,0,0,0,0,0,0,0,-1,524,442,0,0
-693,582,0,0,0,0,0,0,0,0,0,-1,531,442,0,0
-686,582,0,0,0,0,0,0,0,0,0,-1,538,442,0,0
-679,582,0,0,0,0,0,0,0,0,0,-1,545,442,0,0
-672,582,0,0,0,0,0,0,0,0,0,-1,552,442,0,0
-665,582,0,0,0,0,0,0,0,0,0,-1,559,442,0,0
-658,582,0,0,0,0,0,0,0,0,0,-1,566,442,0,0
-651,582,0,0,0,0,0,0,0,0,0,-1,573,442,0,0
-644,582,0,0,0,0,0,0,0,0,0,-1,580,442,0,0
-637,582,0,0,0,0,0,0,0,0,0,-1,587,442,0,0
-630,582,0,0,0,0,0,0,0,0,0,-1,594,442,0,0
-623,582,0,0,0,0,0,0,0,0,0,-1,601,442,0,0
-616,582,0,0,0,0,0,0,0,0,0,-1,608,442,0,0
-609,582,0,0,0,0,0,0,0,0,0,-1,615,442,0,0
-602,582,0,0,0,0,0,0,0,0,0,-1,622,442,0,0
-595,582,0,0,0,0,0,0,0,0,0,-1,629,442,0,0
-588,582,0,0,0,0,0,0,0,0,0,-1,636,442,0,0
-581,582,0,0,0,0,0,0,0,0,0,-1,643,442,0,0
-574,582,0,0,0,0,0,0,0,0,0,-1,650,442,0,0
-567,582,0,0,0,0,0,0,0,0,0,-1,657,442,0,0
-560,582,0,0,0,0,0,0,0,0,0,-1,664,442,0,0
-553,582,0,0,0,0,0,0,0,0,0,-1,671,442,0,0
-546,582,0,0,0,0,0,0,0,0,0,-1,678,442,0,0
-539,582,0,0,0,0,0,0,0,0,0,-1,685,442,0,0
-532,582,0,0,0,0,0,0,0,0,0,-1,692,442,0,0
-525,582,0,0,0,0,0,0,0,0,0,-1,699,442,0,0
-518,582,0,0,0,0,0,0,0,0,0,-1,706,442,0,0
-511,582,0,0,0,0,0,0,0,0,0,-1,713,442,0,0
-504,582,0,0,0,0,0,0,0,0,0,-1,720,442,0,0
-497,582,0,0,0,0,0,0,0,0,0,-1,727,442,0,0
-490,582,0,0,0,0,0,0,0,0,0,-1,734,442,0,0
-483,582,0,0,0,0,0,0,0,0,0,-1,741,442,0,0
-476,582,0,0,0,0,0,0,0,0,0,-1,748,442,0,0
-469,582,0,0,0,0,0,0,0,0,0,-1,755,442,0,0
-462,582,0,0,0,0,0,0,0,0,0,-1,762,442,0,0
-455,582,0,0,0,0,0,0,0,0,0,-1,769,442,0,0
-448,582,0,0,0,0,0,0,0,0,0,-1,776,442,0,0
-441,582,0,0,0,0,0,0,0,0,0,-1,783,442,0,0
-434,582,0,0,0,0,0,0,0,0,0,-1,790,442,0,0
-427,582,0,0,0,0,0,0,0,0,0,-1,797,442,0,0
-420,582,0,0,0,0,0,0,0,0,0,-1,804,442,0,0
-413,582,0,0,0,0,0,0,0,0,0,-1,811,442,0,0
-406,582,0,0,0,0,0,0,0,0,0,-1,818,442,0,0
-399,582,0,0,0,0,0,0,0,0,0,-1,825,442,0,0
-392,582,0,0,0,0,0,0,0,0,0,-1,832,442,0,0
-385,582,0,0,0,0,0,0,0,0,0,-1,839,442,0,0
-378,582,0,0,0,0,0,0,0,0,0,-1,846,442,0,0
-371,582,0,0,0,0,0,0,0,0,0,-1,853,442,0,0
-364,582,0,0,0,0,0,0,0,0,0,-1,860,442,0,0
-357,582,-1.4903,-21.5295,0,0,0,0,0,0,0,-1,867,442,-1.49031,21.5295
-350,582,-0.880859,-19.7966,0,0,0,0,0,0,0,-1,874,442,-0.880885,19.7966
-343,582,0.939941,-19.1705,0,0,0,0,0,0,0,-1,881,442,0.939935,19.1705
-336,582,3.33929,-27.9479,0,0,0,0,0,0,0,-1,888,442,3.33928,27.9479
-329,582,3.63544,-26.4736,0,0,0,0,0,0,0,-1,895,442,3.63546,26.4736
-322,582,3.67145,-27.1796,0,0,0,0,0,0,0,-1,902,442,3.67143,27.1796
-315,582,3.90686,-27.6446,0,0,0,0,0,0,0,-1,909,442,3.90689,27.6446
-308,582,4.07587,-33.1895,0,0,0,0,0,0,0,-1,916,442,4.07588,33.1895
-301,582,4.24963,-34.6922,0,0,0,0,0,0,0,-1,923,442,4.24961,34.6922
-294,582,4.09088,-35.3828,0,0,0,0,0,0,0,-1,930,442,4.09089,35.3828
-287,582,3.86145,-36.1353,7.50641e-05,0.0137802,-0.00819174,0.0176077,-0.00375236,-1.13371,0.0131686,0.0415833,937,442,3.86143,36.1353
-280,582,3.94092,-36.9942,0.000171485,0.012906,-0.00769944,0.0165299,-0.00345243,-1.13088,0.0123329,0.0194212,944,442,3.94091,36.9942
-273,582,3.94574,-37.8453,0.000315711,0.0121767,-0.00717505,0.0155549,-0.00306252,-1.13076,0.0115272,0.0128781,951,442,3.94574,37.8453
-266,582,3.89404,-38.6271,0.000180284,0.010877,-0.00655618,0.0139896,-0.00293235,-1.12754,0.010442,0.0112836,958,442,3.89405,38.6271
-259,582,3.83667,-39.3922,3.2354e-05,0.00944844,-0.00593811,0.0123184,-0.00283765,-1.12058,0.00930356,0.00909198,965,442,3.83669,39.3923
-252,582,3.79541,-40.166,-1.39112e-06,0.00831183,-0.00506993,0.0107113,-0.00240082,-1.12876,0.00806117,0.00871118,972,442,3.79542,40.166
-245,582,3.75574,-40.8621,0.000161329,0.00709695,-0.00433565,0.00918103,-0.00192276,-1.12272,0.00685213,0.0131042,979,442,3.75576,40.8621
-238,582,3.69312,-41.5251,0.000372462,0.00571348,-0.00355631,0.00749032,-0.00140438,-1.10744,0.00552153,0.0184351,986,442,3.69309,41.5252
-231,582,3.65161,-42.2188,0.000535093,0.00426386,-0.00270194,0.00568222,-0.000883269,-1.08739,0.00411429,0.0145696,993,442,3.65161,42.2188
-224,582,3.61639,-42.936,0.000785298,0.00288457,-0.00198746,0.00408254,-0.000412675,-1.02835,0.00286916,0.0115167,1000,442,3.61639,42.936
-217,582,3.57324,-43.6472,0.00114285,0.00135148,-0.00132825,0.00257951,-8.51805e-05,-0.824585,0.00174876,0.0133675,1007,442,3.57327,43.6472
-210,582,3.56256,-44.3035,0.00151554,-0.00020244,-0.000714464,0.00177383,-0.000460734,-0.346901,0.00136235,0.0137312,1014,442,3.56255,44.3035
-203,582,3.55688,-44.9679,0.00188628,-0.00163153,-0.000153786,0.00189299,-0.00163824,-0.0436056,0.00204052,0.0110342,1021,442,3.55683,44.9679
-196,582,3.4967,-45.6546,0.00222908,-0.00294602,0.000358641,0.00225382,-0.00297076,0.0688625,0.00302586,0.0167294,1028,442,3.49671,45.6546
-189,582,3.47791,-46.3199,0.00250962,-0.00420934,0.000786698,0.00260051,-0.00430022,0.115014,0.00402422,0.0250807,1035,442,3.4779,46.3199
-182,582,3.48206,-46.9254,0.00271597,-0.00544709,0.00136534,0.00293828,-0.0056694,0.161407,0.00505234,0.0177899,1042,442,3.4821,46.9254
-175,582,3.47095,-47.5007,0.00287238,-0.00716614,0.00214514,0.00331157,-0.00760533,0.201943,0.00646333,0.0148085,1049,442,3.47093,47.5007
-168,582,3.47339,-48.1496,0.00304189,-0.00847844,0.00278375,0.00367928,-0.00911583,0.22509,0.00760629,0.0119712,1056,442,3.47343,48.1496
-161,582,3.48291,-48.7408,0.00310243,-0.00994506,0.00349169,0.00397809,-0.0108207,0.245716,0.0088433,0.0129559,1063,442,3.48287,48.7408
-154,582,3.47437,-49.3291,0.00297406,-0.0114443,0.00433714,0.00417814,-0.0126484,0.270803,0.0101168,0.0127033,1070,442,3.47441,49.3291
-147,582,3.47913,-49.9005,0.00278755,-0.012932,0.00542146,0.00447598,-0.0146204,0.301915,0.0115322,0.0126582,1077,442,3.47913,49.9005
-140,582,3.48645,-50.424,0.00284767,-0.0145336,0.00654457,0.00503631,-0.0167222,0.322729,0.0131524,0.0140081,1084,442,3.48642,50.424
-133,582,3.53784,-50.9904,0.00285649,-0.016046,0.00765287,0.00556635,-0.0187559,0.34032,0.0147146,0.0191933,1091,442,3.53788,50.9904
-126,582,3.55542,-51.4377,0.00303727,-0.0171377,0.008528,0.00615903,-0.0202595,0.35091,0.0159605,0.0188021,1098,442,3.5554,51.4376
-119,582,3.55054,-52.0972,0,0,0,0,0,0,0,-1,1105,442,3.55055,52.0972
-112,582,3.36938,-52.0597,0,0,0,0,0,0,0,-1,1112,442,3.36938,52.0597
-105,582,2.87219,-43.073,0,0,0,0,0,0,0,-1,1119,442,2.87217,43.073
-98,582,2.61938,-32.8673,0,0,0,0,0,0,0,-1,1126,442,2.61944,32.8673
-91,582,2.16492,-24.1119,0,0,0,0,0,0,0,-1,1133,442,2.16496,24.1119
-84,582,2.10278,-16.7533,0,0,0,0,0,0,0,-1,1140,442,2.10279,16.7533
-77,582,2.30212,-11.4907,0,0,0,0,0,0,0,-1,1147,442,2.30207,11.4907
-70,582,1.49255,-6.36548,0,0,0,0,0,0,0,-1,1154,442,1.49251,6.36549
-63,582,-4.62915,-4.0347,0,0,0,0,0,0,0,-1,1161,442,-4.6292,4.03471
-56,582,-5.81714,-5.24149,0,0,0,0,0,0,0,-1,1168,442,-5.81718,5.24149
-49,582,-3.88672,-10.1064,0,0,0,0,0,0,0,-1,1175,442,-3.88678,10.1064
-42,582,-0.948975,1.13968,0,0,0,0,0,0,0,-1,1182,442,-0.949003,-1.13969
-35,582,-2.58435,-3.86911,0,0,0,0,0,0,0,-1,1189,442,-2.58437,3.86912
-28,582,-0.825317,-3.45941,0,0,0,0,0,0,0,-1,1196,442,-0.825377,3.45942
-21,582,3.22595,-57.2831,0,0,0,0,0,0,0,-1,1203,442,3.2259,57.2831
-14,582,2.9679,-57.2292,-0.0140202,-0.00874721,0.00131506,-0.00843744,-0.01433,1.33946,0.00831678,0.0465817,1210,442,2.96793,57.2292
-7,582,3.13159,-57.0041,-0.0200182,-0.0100988,0.00042309,-0.0100808,-0.0200363,1.52825,0.011568,0.0463269,1217,442,3.13157,57.0041
0,582,12.5748,-63.4825,0,0,0,0,0,0,0,-1,1224,442,12.5749,63.4825
7,582,11.917,-62.9572,-0.034126,-0.0110216,-0.000593772,-0.0110063,-0.0341413,-1.54512,0.0201218,0.047394,1231,442,11.917,62.9572
14,582,11.3054,-62.4398,-0.0411091,-0.0102515,-0.000329033,-0.010248,-0.0411126,-1.56014,0.0247112,0.0477495,1238,442,11.3055,62.4398
21,582,10.5133,-61.9234,-0.0469828,-0.00776904,0.000306994,-0.00776663,-0.0469852,1.56297,0.0290824,0.0443563,1245,442,10.5133,61.9234
28,582,9.7655,-61.4448,-0.0519223,-0.00383711,0.00138893,-0.00379703,-0.0519624,1.54194,0.0334478,0.0446595,1252,442,9.76545,61.4448
35,582,9.0929,-60.9481,-0.0558966,0.000889349,0.00259294,0.0010075,-0.0560148,1.52526,0.0376835,0.0450536,1259,442,9.09287,60.9481
42,582,8.18604,-60.2576,0,0,0,0,0,0,0,-1,1266,442,8.18599,60.2576
49,582,7.45264,-59.424,-0.0607686,0.0111452,0.00548524,0.0115612,-0.0611846,1.4951,0.0451397,0.045161,1273,442,7.45267,59.424
56,582,6.73389,-58.9499,-0.0573625,0.0172441,0.008002,0.0180927,-0.0582111,1.46514,0.046039,0.0442522,1280,442,6.73386,58.9499
63,582,5.96008,-58.451,-0.053025,0.0234122,0.0108149,0.0249129,-0.0545257,1.43291,0.0469141,0.0446947,1287,442,5.96003,58.451
70,582,5.33655,-58.143,0,0,0,0,0,0,0,-1,1294,442,5.33657,58.143
77,582,2.3927,-57.6717,0,0,0,0,0,0,0,-1,1301,442,2.3927,57.6717
84,582,1.38293,-58.1229,0,0,0,0,0,0,0,-1,1308,442,1.38296,58.1229
91,582,0.345947,-58.5812,0,0,0,0,0,0,0,-1,1315,442,0.345912,58.5812
98,582,2.35583,-56.7285,0,0,0,0,0,0,0,-1,1322,442,2.35582,56.7285
105,582,2.25549,-56.2292,-0.025092,0.0398071,0.0193524,0.0451397,-0.0304246,1.30192,0.0439019,0.0444182,1329,442,2.2555,56.2292
112,582,2.31335,-55.6354,-0.0215382,0.0389555,0.0196078,0.044755,-0.0273377,1.28322,0.0420257,0.0432811,1336,442,2.31332,55.6354
119,582,1.99658,-55.3008,-0.0194945,0.0373194,0.0193092,0.0432607,-0.0254357,1.2723,0.0401044,0.045814,1343,442,1.99663,55.3007
126,582,1.80225,-55.3164,-0.0187753,0.0347957,0.0186394,0.0406429,-0.0246224,1.26682,0.0380574,0.0466156,1350,442,1.80222,55.3164
133,582,1.17834,-55.627,-0.0182338,0.0321348,0.017526,0.0376329,-0.0237319,1.26681,0.0357307,0.0492258,1357,442,1.17833,55.6271
140,582,0.46167,-55.7964,0,0,0,0,0,0,0,-1,1364,442,0.461716,55.7964
147,582,-0.181519,-55.8953,0,0,0,0,0,0,0,-1,1371,442,-0.181508,55.8953
154,582,3.85791,-70.96,0,0,0,0,0,0,0,-1,1378,442,3.85786,70.9599
161,582,3.60242,-72.0464,0,0,0,0,0,0,0,-1,1385,442,3.60244,72.0464
168,582,0.081665,-40.4535,0,0,0,0,0,0,0,-1,1392,442,0.0816215,40.4535
175,582,6.50549,-2.00424,0,0,0,0,0,0,0,-1,1399,442,6.50546,2.00425
182,582,5.18958,-2.18652,0,0,0,0,0,0,0,-1,1406,442,5.1896,2.18652
189,582,6.19751,-0.880951,0,0,0,0,0,0,0,-1,1413,442,6.19754,0.88096
196,582,4.87354,-2.22327,0,0,0,0,0,0,0,-1,1420,442,4.87348,2.22325
203,582,3.11401,-4.48257,0,0,0,0,0,0,0,-1,1427,442,3.11404,4.48259
210,582,2.93115,-11.0731,0,0,0,0,0,0,0,-1,1434,442,2.93113,11.0731
217,582,4.94092,-16.5476,0,0,0,0,0,0,0,-1,1441,442,4.94087,16.5476
224,582,5.21008,-20.9908,0,0,0,0,0,0,0,-1,1448,442,5.21006,20.9908
231,582,5.70032,-25.622,0,0,0,0,0,0,0,-1,1455,442,5.70026,25.6221
238,582,6.44189,-30.7028,0,0,0,0,0,0,0,-1,1462,442,6.44195,30.7028
245,582,10.0378,-45.1569,0,0,0,0,0,0,0,-1,1469,442,10.0379,45.1568
252,582,10.7635,-51.463,0,0,0,0,0,0,0,-1,1476,442,10.7635,51.463
259,582,10.7649,-50.8872,0.00575279,-0.00830654,-0.00291528,0.00633332,-0.00888707,-0.196562,0.00882863,0.0273291,1483,442,10.7649,50.8872
266,582,10.7859,-50.2734,0.00499158,-0.0088062,-0.00282241,0.00554659,-0.00936121,-0.194168,0.00870044,0.0128967,1490,442,10.7859,50.2734
273,582,10.8173,-49.7329,0.00424269,-0.00884871,-0.0026842,0.00477167,-0.00937769,-0.194579,0.00831216,0.0117174,1497,442,10.8173,49.7329
280,582,10.8214,-49.1633,0.00379445,-0.00882159,-0.00255201,0.00429113,-0.00931826,-0.192218,0.00803408,0.0117792,1504,442,10.8214,49.1633
287,582,10.834,-48.5375,0.00337564,-0.0085114,-0.00253895,0.00389522,-0.00903098,-0.201857,0.00765678,0.0113769,1511,442,10.834,48.5375
294,582,10.8204,-47.8873,0.00292186,-0.00779481,-0.00238171,0.00342734,-0.00830029,-0.20913,0.00696305,0.0100703,1518,442,10.8204,47.8873
301,582,10.8204,-47.2445,0.00250819,-0.00699672,-0.00214716,0.00297073,-0.00745926,-0.212175,0.00620484,0.0116735,1525,442,10.8204,47.2445
308,582,10.8169,-46.5984,0.00218371,-0.00594892,-0.00184911,0.0025844,-0.00634961,-0.213394,0.00530855,0.0145449,1532,442,10.8169,46.5984
315,582,10.7932,-45.9545,0.00190427,-0.00475866,-0.0014762,0.00221668,-0.00507107,-0.208554,0.00431382,0.0136242,1539,442,10.7932,45.9545
322,582,10.7771,-45.2628,0.00160537,-0.00337019,-0.000988351,0.0017945,-0.00355933,-0.189081,0.00314652,0.010901,1546,442,10.7771,45.2628
329,582,10.7572,-44.6154,0.00134364,-0.00192257,-0.000396722,0.00139114,-0.00197007,-0.119154,0.00195016,0.0110249,1553,442,10.7572,44.6154
336,582,10.7322,-43.9604,0.0011078,-0.000303757,0.000276248,0.00115994,-0.000355894,0.186539,0.000915287,0.0117477,1560,442,10.7322,43.9604
343,582,10.7102,-43.2634,0.0008844,0.00146644,0.0010938,0.00230728,4.35655e-05,0.915418,0.00152387,0.0144887,1567,442,10.7102,43.2634
350,582,10.686,-42.5692,0.000724704,0.00342691,0.00202902,0.00451351,-0.000361893,1.07913,0.00313661,0.0177446,1574,442,10.686,42.5692
357,582,10.6403,-41.829,0.000588746,0.00521783,0.00298198,0.00667811,-0.000871541,1.11542,0.00476921,0.014825,1581,442,10.6402,41.829
364,582,10.609,-41.0996,0.000498723,0.00699321,0.00396595,0.00887172,-0.00137979,1.12844,0.00642399,0.011311,1588,442,10.6091,41.0996
371,582,10.5764,-40.3904,0.000447398,0.00876364,0.00492807,0.0110535,-0.00184242,1.13583,0.00805367,0.0155497,1595,442,10.5764,40.3904
378,582,10.5184,-39.6526,0.000374811,0.0105207,0.0058027,0.0131553,-0.00225978,1.1446,0.00961239,0.0172992,1602,442,10.5184,39.6526
385,582,10.4789,-38.9057,0.000364531,0.0119687,0.006434,0.0148303,-0.00249714,1.1523,0.0108158,0.0137206,1609,442,10.4789,38.9057
392,582,10.4186,-38.1361,0.000722314,0.0132007,0.00697389,0.016319,-0.00239598,1.15032,0.0117596,0.0118311,1616,442,10.4185,38.1361
399,582,10.3583,-37.398,0.00164083,0.0141581,0.00796623,0.0180302,-0.00223124,1.11836,0.0128287,0.0188168,1623,442,10.3583,37.398
406,582,10.3024,-36.542,0.00222222,0.0148847,0.00856095,0.0192012,-0.00209428,1.10379,0.0135529,0.0349505,1630,442,10.3024,36.542
413,582,10.2516,-35.6573,0,0,0,0,0,0,0,-1,1637,442,10.2516,35.6573
420,582,10.1017,-34.9851,0,0,0,0,0,0,0,-1,1644,442,10.1017,34.9851
427,582,9.57544,-34.2618,0,0,0,0,0,0,0,-1,1651,442,9.57542,34.2618
434,582,9.34973,-33.5063,0,0,0,0,0,0,0,-1,1658,442,9.34973,33.5063
441,582,9.65845,-32.6406,0,0,0,0,0,0,0,-1,1665,442,9.65841,32.6406
448,582,10.0519,-31.8645,0,0,0,0,0,0,0,-1,1672,442,10.0519,31.8645
455,582,6.4585,-19.4734,0,0,0,0,0,0,0,-1,1679,442,6.45854,19.4734
462,582,5.35022,-19.2616,0,0,0,0,0,0,0,-1,1686,442,5.35025,19.2616
469,582,6.28601,-21.5695,0,0,0,0,0,0,0,-1,1693,442,6.28597,21.5695
476,582,1.93579,-8.53891,0,0,0,0,0,0,0,-1,1700,442,1.93579,8.53892
483,582,0,0,0,0,0,0,0,0,0,-1,1707,442,0,0
490,582,0,0,0,0,0,0,0,0,0,-1,1714,442,0,0
497,582,0,0,0,0,0,0,0,0,0,-1,1721,442,0,0
504,582,0,0,0,0,0,0,0,0,0,-1,1728,442,0,0
511,582,0,0,0,0,0,0,0,0,0,-1,1735,442,0,0
518,582,0,0,0,0,0,0,0,0,0,-1,1742,442,0,0
525,582,0,0,0,0,0,0,0,0,0,-1,1749,442,0,0
532,582,0,0,0,0,0,0,0,0,0,-1,1756,442,0,0
539,582,0,0,0,0,0,0,0,0,0,-1,1763,442,0,0
546,582,0,0,0,0,0,0,0,0,0,-1,1770,442,0,0
553,582,0,0,0,0,0,0,0,0,0,-1,1777,442,0,0
560,582,0,0,0,0,0,0,0,0,0,-1,1784,442,0,0
567,582,0,0,0,0,0,0,0,0,0,-1,1791,442,0,0
574,582,0,0,0,0,0,0,0,0,0,-1,1798,442,0,0
581,582,0,0,0,0,0,0,0,0,0,-1,1805,442,0,0
588,582,0,0,0,0,0,0,0,0,0,-1,1812,442,0,0
595,582,0,0,0,0,0,0,0,0,0,-1,1819,442,0,0
602,582,0,0,0,0,0,0,0,0,0,-1,1826,442,0,0
609,582,0,0,0,0,0,0,0,0,0,-1,1833,442,0,0
616,582,0,0,0,0,0,0,0,0,0,-1,1840,442,0,0
623,582,0,0,0,0,0,0,0,0,0,-1,1847,442,0,0
630,582,0,0,0,0,0,0,0,0,0,-1,1854,442,0,0
637,582,0,0,0,0,0,0,0,0,0,-1,1861,442,0,0
644,582,0,0,0,0,0,0,0,0,0,-1,1868,442,0,0
651,582,0,0,0,0,0,0,0,0,0,-1,1875,442,0,0
658,582,0,0,0,0,0,0,0,0,0,-1,1882,442,0,0
665,582,0,0,0,0,0,0,0,0,0,-1,1889,442,0,0
672,582,0,0,0,0,0,0,0,0,0,-1,1896,442,0,0
679,582,0,0,0,0,0,0,0,0,0,-1,1903,442,0,0
686,582,0,0,0,0,0,0,0,0,0,-1,1910,442,0,0
693,582,0,0,0,0,0,0,0,0,0,-1,1917,442,0,0
700,582,0,0,0,0,0,0,0,0,0,-1,1924,442,0,0
707,582,0,0,0,0,0,0,0,0,0,-1,1931,442,0,0
714,582,0,0,0,0,0,0,0,0,0,-1,1938,442,0,0
721,582,0,0,0,0,0,0,0,0,0,-1,1945,442,0,0
728,582,0,0,0,0,0,0,0,0,0,-1,1952,442,0,0
735,582,0,0,0,0,0,0,0,0,0,-1,1959,442,0,0
742,582,0,0,0,0,0,0,0,0,0,-1,1966,442,0,0
749,582,0,0,0,0,0,0,0,0,0,-1,1973,442,0,0
756,582,0,0,0,0,0,0,0,0,0,-1,1980,442,0,0
763,582,0,0,0,0,0,0,0,0,0,-1,1987,442,0,0
770,582,0,0,0,0,0,0,0,0,0,-1,1994,442,0,0
777,582,0,0,0,0,0,0,0,0,0,-1,2001,442,0,0
784,582,0,0,0,0,0,0,0,0,0,-1,2008,442,0,0
791,582,0,0,0,0,0,0,0,0,0,-1,2015,442,0,0
798,582,0,0,0,0,0,0,0,0,0,-1,2022,442,0,0
805,582,0,0,0,0,0,0,0,0,0,-1,2029,442,0,0
812,582,0,0,0,0,0,0,0,0,0,-1,2036,442,0,0
-700,575,0,0,0,0,0,0,0,0,0,-1,524,449,0,0
-693,575,0,0,0,0,0,0,0,0,0,-1,531,449,0,0
-686,575,0,0,0,0,0,0,0,0,0,-1,538,449,0,0
-679,575,0,0,0,0,0,0,0,0,0,-1,545,449,0,0
-672,575,0,0,0,0,0,0,0,0,0,-1,552,449,0,0
-665,575,0,0,0,0,0,0,0,0,0,-1,559,449,0,0
-658,575,0,0,0,0,0,0,0,0,0,-1,566,449,0,0
-651,575,0,0,0,0,0,0,0,0,0,-1,573,449,0,0
-644,575,0,0,0,0,0,0,0,0,0,-1,580,449,0,0
-637,575,0,0,0,0,0,0,0,0,0,-1,587,449,0,0
-630,575,0,0,0,0,0,0,0,0,0,-1,594,449,0,0
-623,575,0,0,0,0,0,0,0,0,0,-1,601,449,0,0
-616,575,0,0,0,0,0,0,0,0,0,-1,608,449,0,0
-609,575,0,0,0,0,0,0,0,0,0,-1,615,449,0,0
-602,575,0,0,0,0,0,0,0,0,0,-1,622,449,0,0
-595,575,0,0,0,0,0,0,0,0,0,-1,629,449,0,0
-588,575,0,0,0,0,0,0,0,0,0,-1,636,449,0,0
-581,575,0,0,0,0,0,0,0,0,0,-1,643,449,0,0
-574,575,0,0,0,0,0,0,0,0,0,-1,650,449,0,0
-567,575,0,0,0,0,0,0,0,0,0,-1,657,449,0,0
-560,575,0,0,0,0,0,0,0,0,0,-1,664,449,0,0
-553,575,0,0,0,0,0,0,0,0,0,-1,671,449,0,0
-546,575,0,0,0,0,0,0,0,0,0,-1,678,449,0,0
-539,575,0,0,0,0,0,0,0,0,0,-1,685,449,0,0
-532,575,0,0,0,0,0,0,0,0,0,-1,692,449,0,0
-525,575,0,0,0,0,0,0,0,0,0,-1,699,449,0,0
-518,575,0,0,0,0,0,0,0,0,0,-1,706,449,0,0
-511,575,0,0,0,0,0,0,0,0,0,-1,713,449,0,0
-504,575,0,0,0,0,0,0,0,0,0,-1,720,449,0,0
-497,575,0,0,0,0,0,0,0,0,0,-1,727,449,0,0
-490,575,0,0,0,0,0,0,0,0,0,-1,734,449,0,0
-483,575,0,0,0,0,0,0,0,0,0,-1,741,449,0,0
-476,575,0,0,0,0,0,0,0,0,0,-1,748,449,0,0
-469,575,0,0,0,0,0,0,0,0,0,-1,755,449,0,0
-462,575,0,0,0,0,0,0,0,0,0,-1,762,449,0,0
-455,575,0,0,0,0,0,0,0,0,0,-1,769,449,0,0
-448,575,0,0,0,0,0,0,0,0,0,-1,776,449,0,0
-441,575,0,0,0,0,0,0,0,0,0,-1,783,449,0,0
-434,575,0,0,0,0,0,0,0,0,0,-1,790,449,0,0
-427,575,0,0,0,0,0,0,0,0,0,-1,797,449,0,0
-420,575,0,0,0,0,0,0,0,0,0,-1,804,449,0,0
-413,575,0,0,0,0,0,0,0,0,0,-1,811,449,0,0
-406,575,0,0,0,0,0,0,0,0,0,-1,818,449,0,0
-399,575,0,0,0,0,0,0,0,0,0,-1,825,449,0,0
-392,575,0,0,0,0,0,0,0,0,0,-1,832,449,0,0
-385,575,0,0,0,0,0,0,0,0,0,-1,839,449,0,0
-378,575,0,0,0,0,0,0,0,0,0,-1,846,449,0,0
-371,575,0.56897,-3.52304,0,0,0,0,0,0,0,-1,853,449,0.568955,3.52306
-364,575,1.49805,-4.67191,0,0,0,0,0,0,0,-1,860,449,1.49803,4.6719
-357,575,3.15521,-8.29892,0,0,0,0,0,0,0,-1,867,449,3.15521,8.29891
-350,575,-0.825928,-18.5347,0,0,0,0,0,0,0,-1,874,449,-0.825948,18.5347
-343,575,0.465393,-16.3569,0,0,0,0,0,0,0,-1,881,449,0.465397,16.3569
-336,575,3.1994,-17.5725,0,0,0,0,0,0,0,-1,888,449,3.19941,17.5725
-329,575,2.81946,-29.1576,0,0,0,0,0,0,0,-1,895,449,2.81945,29.1576
-322,575,4.28943,-27.9487,0,0,0,0,0,0,0,-1,902,449,4.28944,27.9487
-315,575,4.23724,-30.0034,0,0,0,0,0,0,0,-1,909,449,4.23723,30.0034
-308,575,3.36859,-34.1753,0,0,0,0,0,0,0,-1,916,449,3.3686,34.1753
-301,575,3.5127,-34.8122,-0.00076364,0.0134187,-0.00733177,0.0165275,-0.00387246,-1.16976,0.0125105,0.0432333,923,449,3.51268,34.8122
-294,575,3.40417,-35.4889,-0.000438882,0.0118842,-0.00686842,0.0149497,-0.00350447,-1.151,0.011317,0.0294845,930,449,3.40419,35.4889
-287,575,3.31079,-36.3064,-0.000335712,0.0107157,-0.00631886,0.0135842,-0.00320413,-1.14467,0.0102918,0.0191993,937,449,3.31079,36.3064
-280,575,3.28925,-37.0994,-0.000104763,0.00983437,-0.00590607,0.0125835,-0.00285389,-1.13515,0.00948452,0.0144067,944,449,3.28927,37.0994
-273,575,3.23981,-37.8772,0.000131019,0.00903668,-0.00545364,0.0116244,-0.00245674,-1.12775,0.00868514,0.0124296,951,449,3.23978,37.8772
-266,575,3.19678,-38.6184,0.000118447,0.00775324,-0.00487903,0.0101308,-0.00225911,-1.11736,0.00761937,0.0131662,958,449,3.19679,38.6185
-259,575,3.13739,-39.3673,0.000141267,0.0063268,-0.00427863,0.00851342,-0.00204535,-1.09834,0.00646614,0.0127668,965,449,3.13738,39.3673
-252,575,3.0708,-40.1172,0.000315075,0.00517049,-0.00347781,0.00698412,-0.00149856,-1.09011,0.00522769,0.0121318,972,449,3.07083,40.1171
-245,575,3.01166,-40.8315,0.000606754,0.00391582,-0.00276709,0.0054853,-0.000962725,-1.05485,0.00401642,0.0161493,979,449,3.01164,40.8315
-238,575,2.98578,-41.5038,0.000953593,0.00246803,-0.00199689,0.00384645,-0.000424822,-0.966622,0.002717,0.0168259,986,449,2.98577,41.5038
-231,575,2.96893,-42.1898,0.00124667,0.000886361,-0.00113164,0.00221241,-7.93796e-05,-0.706462,0.0015021,0.0138634,993,449,2.96895,42.1898
-224,575,2.93121,-42.9019,0.00160592,-0.000612294,-0.000382736,0.0016701,-0.000676475,-0.166145,0.00139469,0.0127254,1000,449,2.93121,42.9019
-217,575,2.91443,-43.5958,0.00208226,-0.0022415,0.00032032,0.00210587,-0.0022651,0.0735485,0.00252414,0.0106999,1007,449,2.9144,43.5958
-210,575,2.92609,-44.268,0.00256624,-0.00389979,0.000960578,0.00270592,-0.00403947,0.144404,0.00391974,0.00927861,1014,449,2.92612,44.268
-203,575,2.91205,-44.9499,0.00304334,-0.00538761,0.00151959,0.00330887,-0.00565314,0.17299,0.00523289,0.0133466,1021,449,2.91204,44.9499
-196,575,2.86609,-45.6272,0.0034787,-0.00675211,0.00200097,0.00385613,-0.00712954,0.186433,0.00643575,0.0186048,1028,449,2.86614,45.6272
-189,575,2.82861,-46.2747,0.00379522,-0.00804741,0.00241327,0.00426811,-0.0085203,0.193502,0.00751821,0.0202459,1035,449,2.82863,46.2748
-182,575,2.81104,-46.8663,0.00397381,-0.00929352,0.00302882,0.00463255,-0.00995226,0.214157,0.00860523,0.0172262,1042,449,2.81099,46.8663
-175,575,2.82629,-47.4763,0.00407642,-0.0112162,0.00390824,0.00501734,-0.0121571,0.236256,0.0101973,0.0130074,1049,449,2.82631,47.4763
-168,575,2.82629,-48.0792,0.00421874,-0.0126004,0.004595,0.00539223,-0.0137739,0.250038,0.0114128,0.0116651,1056,449,2.82625,48.0792
-161,575,2.84546,-48.6811,0.004174,-0.0142735,0.00535804,0.00561731,-0.0157168,0.263127,0.012769,0.0163149,1063,449,2.8454,48.6811
-154,575,2.86792,-49.2846,0.00377513,-0.016017,0.00630574,0.00561339,-0.0178553,0.283661,0.0141508,0.0173869,1070,449,2.86797,49.2846
-147,575,2.87231,-49.8127,0.00321499,-0.0177864,0.00768417,0.00572625,-0.0202977,0.315868,0.0157905,0.0158638,1077,449,2.87227,49.8126
-140,575,2.86279,-50.2534,0.00310771,-0.0196909,0.00914049,0.00631979,-0.022903,0.337932,0.0177543,0.0239246,1084,449,2.86277,50.2534
-133,575,2.89502,-50.5872,0.00289711,-0.0215817,0.0106636,0.00689085,-0.0255754,0.358351,0.019752,0.0375599,1091,449,2.89501,50.5871
-126,575,2.83411,-50.9676,0.00288347,-0.0230626,0.0119798,0.00756875,-0.0277479,0.372808,0.0214709,0.048967,1098,449,2.8341,50.9676
-119,575,2.84106,-51.3558,0,0,0,0,0,0,0,-1,1105,449,2.84103,51.3558
-112,575,2.70337,-43.3701,0,0,0,0,0,0,0,-1,1112,449,2.70333,43.3701
-105,575,2.18347,-36.5414,0,0,0,0,0,0,0,-1,1119,449,2.18351,36.5414
-98,575,1.521,-25.6961,0,0,0,0,0,0,0,-1,1126,449,1.52105,25.6961
-91,575,1.60803,-16.4247,0,0,0,0,0,0,0,-1,1133,449,1.60802,16.4247
-84,575,1.16553,-11.9056,0,0,0,0,0,0,0,-1,1140,449,1.16558,11.9056
-77,575,0.205078,-11.2584,0,0,0,0,0,0,0,-1,1147,449,0.205117,11.2584
-70,575,-4.2467,-1.78738,0,0,0,0,0,0,0,-1,1154,449,-4.24674,1.78739
-63,575,-4.52209,-3.48798,0,0,0,0,0,0,0,-1,1161,449,-4.5221,3.48796
-56,575,-5.5968,-5.4928,0,0,0,0,0,0,0,-1,1168,449,-5.59683,5.49281
-49,575,-5.96863,-7.17612,0,0,0,0,0,0,0,-1,1175,449,-5.96868,7.1761
-42,575,-0.830322,0.773499,0,0,0,0,0,0,0,-1,1182,449,-0.83038,-0.77351
-35,575,-0.62085,0.205139,0,0,0,0,0,0,0,-1,1189,449,-0.620855,-0.205126
-28,575,0.49292,-3.87988,0,0,0,0,0,0,0,-1,1196,449,0.492941,3.87989
-21,575,2.45972,-56.5009,0,0,0,0,0,0,0,-1,1203,449,2.45974,56.5009
-14,575,2.5863,-57.0562,0,0,0,0,0,0,0,-1,1210,449,2.58625,57.0562
-7,575,12.8842,-63.3195,0,0,0,0,0,0,0,-1,1217,449,12.8842,63.3195
0,575,12.4248,-62.9966,0,0,0,0,0,0,0,-1,1224,449,12.4248,62.9966
7,575,12.024,-62.6553,-0.0404854,-0.0105002,-0.000965149,-0.0104692,-0.0405164,-1.53865,0.0242854,0.0450809,1231,449,12.0241,62.6553
14,575,12.1094,-62.1708,-0.049027,-0.00913494,-0.000418955,-0.00913054,-0.0490314,-1.5603,0.0301092,0.0478655,1238,449,12.1094,62.1708
21,575,11.4493,-61.6065,-0.0560652,-0.00546884,0.000696691,-0.00545925,-0.0560748,1.55703,0.0357028,0.0445952,1245,449,11.4493,61.6065
28,575,10.5698,-61.1958,0,0,0,0,0,0,0,-1,1252,449,10.5698,61.1958
35,575,9.88757,-60.7211,0,0,0,0,0,0,0,-1,1259,449,9.88758,60.7211
42,575,8.75488,-60.2239,0,0,0,0,0,0,0,-1,1266,449,8.75483,60.2239
49,575,7.87793,-59.7999,-0.0717675,0.0182933,0.00707461,0.0188457,-0.0723198,1.49288,0.0555707,0.0428926,1273,449,7.87796,59.7999
56,575,6.91772,-59.3233,-0.0680027,0.0247341,0.00970906,0.0257396,-0.0690083,1.46759,0.0565722,0.0415505,1280,449,6.91777,59.3233
63,575,6.0553,-58.5582,-0.0633415,0.0314473,0.0127323,0.0331277,-0.065022,1.43957,0.0576554,0.0413571,1287,449,6.05529,58.5582
70,575,5.34802,-58.2175,0,0,0,0,0,0,0,-1,1294,449,5.34807,58.2175
77,575,4.65039,-57.8442,0,0,0,0,0,0,0,-1,1301,449,4.65039,57.8442
84,575,1.03625,-57.7104,0,0,0,0,0,0,0,-1,1308,449,1.03629,57.7104
91,575,-0.0634766,-58.0845,0,0,0,0,0,0,0,-1,1315,449,-0.0635099,58.0845
98,575,2.33484,-57.2005,0,0,0,0,0,0,0,-1,1322,449,2.33485,57.2005
105,575,2.15833,-56.7413,-0.0315624,0.0505287,0.0230247,0.0565456,-0.0375793,1.31519,0.0547095,0.0427314,1329,449,2.15828,56.7413
112,575,2.0105,-56.2746,-0.0272644,0.0504254,0.0238451,0.0571603,-0.0339993,1.29552,0.0531943,0.0448217,1336,449,2.01047,56.2746
119,575,1.88928,-55.8177,-0.0250785,0.0491374,0.0239862,0.0562147,-0.0321559,1.28388,0.0516472,0.0458719,1343,449,1.88933,55.8177
126,575,1.77966,-55.4232,-0.024291,0.0468869,0.0234472,0.0539165,-0.0313206,1.27952,0.0497847,0.0499166,1350,449,1.77963,55.4233
133,575,1.63037,-55.0302,0,0,0,0,0,0,0,-1,1357,449,1.63034,55.0302
140,575,0.543457,-56.0284,0,0,0,0,0,0,0,-1,1364,449,0.543517,56.0284
147,575,-8.00549,-58.4072,0,0,0,0,0,0,0,-1,1371,449,-8.00554,58.4072
154,575,3.6582,-70.3721,0,0,0,0,0,0,0,-1,1378,449,3.6582,70.3722
161,575,12.8262,-51.4623,0,0,0,0,0,0,0,-1,1385,449,12.8262,51.4623
168,575,7.5509,-35.3165,0,0,0,0,0,0,0,-1,1392,449,7.5509,35.3165
175,575,4.32617,1.93634,0,0,0,0,0,0,0,-1,1399,449,4.32612,-1.93634
182,575,6.3147,-2.88345,0,0,0,0,0,0,0,-1,1406,449,6.31466,2.88346
189,575,6.10449,-1.30817,0,0,0,0,0,0,0,-1,1413,449,6.10455,1.30817
196,575,5.79895,0.818359,0,0,0,0,0,0,0,-1,1420,449,5.79895,-0.81837
203,575,3.29724,-1.46378,0,0,0,0,0,0,0,-1,1427,449,3.29722,1.46377
210,575,2.32739,-7.74503,0,0,0,0,0,0,0,-1,1434,449,2.32741,7.74502
217,575,3.33618,-11.5521,0,0,0,0,0,0,0,-1,1441,449,3.3362,11.5521
224,575,5.51709,-16.3903,0,0,0,0,0,0,0,-1,1448,449,5.51713,16.3903
231,575,5.48572,-20.4595,0,0,0,0,0,0,0,-1,1455,449,5.48571,20.4595
238,575,5.33484,-22.3575,0,0,0,0,0,0,0,-1,1462,449,5.33478,22.3575
245,575,5.59741,-23.513,0,0,0,0,0,0,0,-1,1469,449,5.5974,23.513
252,575,10.5602,-44.9309,0,0,0,0,0,0,0,-1,1476,449,10.5602,44.9309
259,575,11.4152,-50.9412,0,0,0,0,0,0,0,-1,1483,449,11.4152,50.9412
266,575,11.417,-50.193,0.00585631,-0.0124709,-0.00391745,0.00665855,-0.0132731,-0.201994,0.0117169,0.0324128,1490,449,11.417,50.193
273,575,11.4717,-49.6599,0.00503205,-0.0128733,-0.00388175,0.00583736,-0.0136787,-0.204559,0.0115668,0.0190204,1497,449,11.4717,49.66
280,575,11.4703,-49.0732,0.00466637,-0.013203,-0.003899,0.00548006,-0.0140167,-0.205739,0.0116105,0.0148306,1504,449,11.4703,49.0732
287,575,11.4509,-48.4876,0.00425332,-0.0130663,-0.0041043,0.00517671,-0.0139897,-0.221295,0.011449,0.0135158,1511,449,11.4509,48.4876
294,575,11.473,-47.8724,0.00378064,-0.012352,-0.00407365,0.00475092,-0.0133222,-0.233828,0.0108186,0.0117291,1518,449,11.473,47.8724
301,575,11.4875,-47.2319,0.00336887,-0.0115665,-0.00393799,0.00434359,-0.0125412,-0.242639,0.0101242,0.0109429,1525,449,11.4875,47.2319
308,575,11.4886,-46.568,0.00303006,-0.0104588,-0.00372755,0.0039916,-0.0114203,-0.252451,0.00923622,0.0113261,1532,449,11.4887,46.568
315,575,11.4609,-45.9221,0.00272249,-0.00914413,-0.0034127,0.00363394,-0.0100556,-0.260983,0.00818838,0.0115823,1539,449,11.4609,45.9221
322,575,11.4469,-45.2566,0.0023959,-0.00759237,-0.00294355,0.00319882,-0.00839529,-0.266295,0.00691435,0.010376,1546,449,11.4468,45.2566
329,575,11.4341,-44.609,0.00208639,-0.00592454,-0.00235166,0.00272571,-0.00656386,-0.265445,0.00551382,0.0106616,1553,449,11.4341,44.609
336,575,11.4171,-43.9396,0.00176535,-0.00413176,-0.00169473,0.00221769,-0.0045841,-0.260829,0.00400545,0.0130697,1560,449,11.4171,43.9396
343,575,11.4109,-43.208,0.00143401,-0.00217552,-0.000874209,0.00163459,-0.0023761,-0.225541,0.00232873,0.0139666,1567,449,11.4109,43.208
350,575,11.3914,-42.5166,0.00120608,-7.53056e-05,8.82067e-05,0.00121212,-8.13489e-05,0.068407,0.000836518,0.0131457,1574,449,11.3914,42.5166
357,575,11.3411,-41.7984,0.00097992,0.00186454,0.00105095,0.00256246,0.000281995,0.98458,0.0016225,0.0119064,1581,449,11.3411,41.7984
364,575,11.3015,-41.0899,0.000784368,0.00363447,0.00204847,0.00470481,-0.000285974,1.0893,0.00323608,0.01147,1588,449,11.3015,41.0899
371,575,11.2822,-40.3967,0.000649409,0.00538453,0.00300808,0.00684501,-0.000811068,1.1188,0.00485632,0.0203644,1595,449,11.2823,40.3967
378,575,11.2312,-39.6306,0.000499678,0.00702283,0.00385532,0.00881114,-0.00128863,1.13648,0.00634739,0.0190033,1602,449,11.2312,39.6306
385,575,11.187,-38.8774,0.000381521,0.00838411,0.0044969,0.0104022,-0.00163653,1.14897,0.00753972,0.0126402,1609,449,11.187,38.8774
392,575,11.1361,-38.1428,0.000644258,0.00946783,0.00506504,0.0117731,-0.00166098,1.14369,0.00845692,0.0102597,1616,449,11.1361,38.1428
399,575,11.0706,-37.4281,0.00139075,0.0102474,0.00594805,0.0132346,-0.00159641,1.10538,0.00940047,0.010936,1623,449,11.0706,37.4281
406,575,11.0199,-36.6297,0.00181345,0.0108915,0.00646401,0.014251,-0.00154602,1.0915,0.0100557,0.0128929,1630,449,11.0199,36.6297
413,575,10.979,-35.8153,0.00219565,0.0111525,0.00676463,0.0147868,-0.00143865,1.07779,0.0103708,0.0149936,1637,449,10.979,35.8153
420,575,10.9067,-35.0121,0.00262694,0.0111102,0.0069647,0.0150232,-0.00128609,1.05891,0.0104705,0.0154438,1644,449,10.9068,35.0121
427,575,10.8151,-34.1773,0.00319513,0.0101908,0.00710305,0.0146105,-0.00122463,1.01419,0.0101732,0.0192569,1651,449,10.8151,34.1773
434,575,10.7183,-33.4731,0.00385165,0.00951536,0.0071884,0.0144096,-0.00104259,0.973037,0.00997212,0.0318194,1658,449,10.7183,33.4731
441,575,10.8881,-32.8012,0,0,0,0,0,0,0,-1,1665,449,10.888,32.8012
448,575,11.9662,-31.9918,0,0,0,0,0,0,0,-1,1672,449,11.9661,31.9918
455,575,10.9758,-30.88,0,0,0,0,0,0,0,-1,1679,449,10.9758,30.88
462,575,7.12781,-21.7179,0,0,0,0,0,0,0,-1,1686,449,7.12778,21.7178
469,575,9.54492,-29.1065,0,0,0,0,0,0,0,-1,1693,449,9.54495,29.1065
476,575,9.43701,-26.9697,0,0,0,0,0,0,0,-1,1700,449,9.43705,26.9697
483,575,8.9624,-26.4681,0,0,0,0,0,0,0,-1,1707,449,8.96243,26.4681
490,575,7.42871,-25.5027,0,0,0,0,0,0,0,-1,1714,449,7.42869,25.5027
497,575,0,0,0,0,0,0,0,0,0,-1,1721,449,0,0
504,575,0,0,0,0,0,0,0,0,0,-1,1728,449,0,0
511,575,0,0,0,0,0,0,0,0,0,-1,1735,449,0,0
518,575,0,0,0,0,0,0,0,0,0,-1,1742,449,0,0
525,575,0,0,0,0,0,0,0,0,0,-1,1749,449,0,0
532,575,0,0,0,0,0,0,0,0,0,-1,1756,449,0,0
539,575,0,0,0,0,0,0,0,0,0,-1,1763,449,0,0
546,575,0,0,0,0,0,0,0,0,0,-1,1770,449,0,0
553,575,0,0,0,0,0,0,0,0,0,-1,1777,449,0,0
560,575,0,0,0,0,0,0,0,0,0,-1,1784,449,0,0
567,575,0,0,0,0,0,0,0,0,0,-1,1791,449,0,0
574,575,0,0,0,0,0,0,0,0,0,-1,1798,449,0,0
581,575,0,0,0,0,0,0,0,0,0,-1,1805,449,0,0
588,575,0,0,0,0,0,0,0,0,0,-1,1812,449,0,0
595,575,0,0,0,0,0,0,0,0,0,-1,1819,449,0,0
602,575,0,0,0,0,0,0,0,0,0,-1,1826,449,0,0
609,575,0,0,0,0,0,0,0,0,0,-1,1833,449,0,0
616,575,0,0,0,0,0,0,0,0,0,-1,1840,449,0,0
623,575,0,0,0,0,0,0,0,0,0,-1,1847,449,0,0
630,575,0,0,0,0,0,0,0,0,0,-1,1854,449,0,0
637,575,0,0,0,0,0,0,0,0,0,-1,1861,449,0,0
644,575,0,0,0,0,0,0,0,0,0,-1,1868,449,0,0
651,575,0,0,0,0,0,0,0,0,0,-1,1875,449,0,0
658,575,0,0,0,0,0,0,0,0,0,-1,1882,449,0,0
665,575,0,0,0,0,0,0,0,0,0,-1,1889,449,0,0
672,575,0,0,0,0,0,0,0,0,0,-1,1896,449,0,0
679,575,0,0,0,0,0,0,0,0,0,-1,1903,449,0,0
686,575,0,0,0,0,0,0,0,0,0,-1,1910,449,0,0
693,575,0,0,0,0,0,0,0,0,0,-1,1917,449,0,0
700,575,0,0,0,0,0,0,0,0,0,-1,1924,449,0,0
707,575,0,0,0,0,0,0,0,0,0,-1,1931,449,0,0
714,575,0,0,0,0,0,0,0,0,0,-1,1938,449,0,0
721,575,0,0,0,0,0,0,0,0,0,-1,1945,449,0,0
728,575,0,0,0,0,0,0,0,0,0,-1,1952,449,0,0
735,575,0,0,0,0,0,0,0,0,0,-1,1959,449,0,0
742,575,0,0,0,0,0,0,0,0,0,-1,1966,449,0,0
749,575,0,0,0,0,0,0,0,0,0,-1,1973,449,0,0
756,575,0,0,0,0,0,0,0,0,0,-1,1980,449,0,0
763,575,0,0,0,0,0,0,0,0,0,-1,1987,449,0,0
770,575,0,0,0,0,0,0,0,0,0,-1,1994,449,0,0
777,575,0,0,0,0,0,0,0,0,0,-1,2001,449,0,0
784,575,0,0,0,0,0,0,0,0,0,-1,2008,449,0,0
791,575,0,0,0,0,0,0,0,0,0,-1,2015,449,0,0
798,575,0,0,0,0,0,0,0,0,0,-1,2022,449,0,0
805,575,0,0,0,0,0,0,0,0,0,-1,2029,449,0,0
812,575,0,0,0,0,0,0,0,0,0,-1,2036,449,0,0
-700,568,0,0,0,0,0,0,0,0,0,-1,524,456,0,0
-693,568,0,0,0,0,0,0,0,0,0,-1,531,456,0,0
-686,568,0,0,0,0,0,0,0,0,0,-1,538,456,0,0
-679,568,0,0,0,0,0,0,0,0,0,-1,545,456,0,0
-672,568,0,0,0,0,0,0,0,0,0,-1,552,456,0,0
-665,568,0,0,0,0,0,0,0,0,0,-1,559,456,0,0
-658,568,0,0,0,0,0,0,0,0,0,-1,566,456,0,0
-651,568,0,0,0,0,0,0,0,0,0,-1,573,456,0,0
-644,568,0,0,0,0,0,0,0,0,0,-1,580,456,0,0
-637,568,0,0,0,0,0,0,0,0,0,-1,587,456,0,0
-630,568,0,0,0,0,0,0,0,0,0,-1,594,456,0,0
-623,568,0,0,0,0,0,0,0,0,0,-1,601,456,0,0
-616,568,0,0,0,0,0,0,0,0,0,-1,608,456,0,0
-609,568,0,0,0,0,0,0,0,0,0,-1,615,456,0,0
-602,568,0,0,0,0,0,0,0,0,0,-1,622,456,0,0
-595,568,0,0,0,0,0,0,0,0,0,-1,629,456,0,0
-588,568,0,0,0,0,0,0,0,0,0,-1,636,456,0,0
-581,568,0,0,0,0,0,0,0,0,0,-1,643,456,0,0
-574,568,0,0,0,0,0,0,0,0,0,-1,650,456,0,0
-567,568,0,0,0,0,0,0,0,0,0,-1,657,456,0,0
-560,568,0,0,0,0,0,0,0,0,0,-1,664,456,0,0
-553,568,0,0,0,0,0,0,0,0,0,-1,671,456,0,0
-546,568,0,0,0,0,0,0,0,0,0,-1,678,456,0,0
-539,568,0,0,0,0,0,0,0,0,0,-1,685,456,0,0
-532,568,0,0,0,0,0,0,0,0,0,-1,692,456,0,0
-525,568,0,0,0,0,0,0,0,0,0,-1,699,456,0,0
-518,568,0,0,0,0,0,0,0,0,0,-1,706,456,0,0
-511,568,0,0,0,0,0,0,0,0,0,-1,713,456,0,0
-504,568,0,0,0,0,0,0,0,0,0,-1,720,456,0,0
-497,568,0,0,0,0,0,0,0,0,0,-1,727,456,0,0
-490,568,0,0,0,0,0,0,0,0,0,-1,734,456,0,0
-483,568,0,0,0,0,0,0,0,0,0,-1,741,456,0,0
-476,568,0,0,0,0,0,0,0,0,0,-1,748,456,0,0
-469,568,0,0,0,0,0,0,0,0,0,-1,755,456,0,0
-462,568,0,0,0,0,0,0,0,0,0,-1,762,456,0,0
-455,568,0,0,0,0,0,0,0,0,0,-1,769,456,0,0
-448,568,0,0,0,0,0,0,0,0,0,-1,776,456,0,0
-441,568,0,0,0,0,0,0,0,0,0,-1,783,456,0,0
-434,568,0,0,0,0,0,0,0,0,0,-1,790,456,0,0
-427,568,0,0,0,0,0,0,0,0,0,-1,797,456,0,0
-420,568,0,0,0,0,0,0,0,0,0,-1,804,456,0,0
-413,568,0,0,0,0,0,0,0,0,0,-1,811,456,0,0
-406,568,0,0,0,0,0,0,0,0,0,-1,818,456,0,0
-399,568,0,0,0,0,0,0,0,0,0,-1,825,456,0,0
-392,568,0,0,0,0,0,0,0,0,0,-1,832,456,0,0
-385,568,0,0,0,0,0,0,0,0,0,-1,839,456,0,0
-378,568,0.321777,-7.29929,0,0,0,0,0,0,0,-1,846,456,0.321806,7.29927
-371,568,1.09595,-7.46707,0,0,0,0,0,0,0,-1,853,456,1.09597,7.46707
-364,568,2.70746,-23.4782,0,0,0,0,0,0,0,-1,860,456,2.70746,23.4782
-357,568,2.14166,-7.67645,0,0,0,0,0,0,0,-1,867,456,2.14167,7.67646
-350,568,2.7467,-11.2507,0,0,0,0,0,0,0,-1,874,456,2.7467,11.2507
-343,568,2.16516,-11.3762,0,0,0,0,0,0,0,-1,881,456,2.16514,11.3762
-336,568,1.14984,-29.3232,0,0,0,0,0,0,0,-1,888,456,1.14984,29.3231
-329,568,2.69049,-31.681,0,0,0,0,0,0,0,-1,895,456,2.69052,31.681
-322,568,2.52576,-31.9083,0,0,0,0,0,0,0,-1,902,456,2.52573,31.9083
-315,568,2.80188,-32.7655,0,0,0,0,0,0,0,-1,909,456,2.8019,32.7655
-308,568,2.80109,-33.9459,-0.00139835,0.0131851,-0.00608748,0.0153922,-0.0036054,-1.22298,0.0116507,0.0460499,916,456,2.80107,33.9459
-301,568,2.77802,-34.8215,-0.000920447,0.0108852,-0.00577916,0.0132432,-0.00327849,-1.18339,0.0101006,0.0246943,923,456,2.77802,34.8215
-294,568,2.68701,-35.548,-0.000557961,0.009365,-0.0052984,0.0116623,-0.00285522,-1.16168,0.00888091,0.0152091,930,456,2.68701,35.548
-287,568,2.63477,-36.3336,-0.000366542,0.00819749,-0.00476866,0.0103245,-0.00249357,-1.15124,0.00784738,0.0122012,937,456,2.63475,36.3335
-280,568,2.60187,-37.1428,-8.95689e-05,0.00726066,-0.00438007,0.00930319,-0.0021321,-1.13445,0.00702157,0.0124055,944,456,2.6019,37.1428
-273,568,2.5426,-37.908,0.000155148,0.00634913,-0.00394443,0.0082671,-0.00176282,-1.11821,0.00618334,0.0139494,951,456,2.5426,37.9079
-266,568,2.47656,-38.6115,0.00019942,0.00503515,-0.00336066,0.00675734,-0.00152277,-1.09723,0.005089,0.0130338,958,456,2.47654,38.6115
-259,568,2.4267,-39.3227,0.000354654,0.00355668,-0.00272549,0.00511661,-0.00120528,-1.05096,0.00387581,0.013732,965,456,2.42671,39.3227
-252,568,2.3717,-40.0474,0.000717175,0.00230399,-0.00195326,0.00361883,-0.000597671,-0.978316,0.00263447,0.0138839,972,456,2.37171,40.0474
-245,568,2.32355,-40.7441,0.00112014,0.000942528,-0.00122832,0.00226287,-0.000200196,-0.749311,0.00157954,0.0157813,979,456,2.32352,40.7441
-238,568,2.29828,-41.4579,0.00159668,-0.000626977,-0.00043277,0.00167794,-0.000708234,-0.185599,0.00141507,0.0147301,986,456,2.29825,41.4579
-231,568,2.25378,-42.1612,0.00203094,-0.00239423,0.00047258,0.00208085,-0.00244413,0.105213,0.0026153,0.0129524,993,456,2.25375,42.1612
-224,568,2.22028,-42.8562,0.00252021,-0.00407001,0.00128627,0.00276236,-0.00431216,0.186083,0.00411701,0.0141639,1000,456,2.22025,42.8562
-217,568,2.23181,-43.5344,0.00313133,-0.0058351,0.00205168,0.00357849,-0.00628227,0.214593,0.00576401,0.0118332,1007,456,2.23184,43.5344
-210,568,2.23444,-44.2102,0.00374584,-0.00763544,0.00273343,0.00436829,-0.00825788,0.223897,0.00740412,0.011707,1014,456,2.23441,44.2102
-203,568,2.22955,-44.8891,0.00435018,-0.00922402,0.00329911,0.00510953,-0.00998336,0.226227,0.00886404,0.0112492,1021,456,2.22953,44.8891
-196,568,2.2384,-45.526,0.00490062,-0.0106445,0.00375171,0.00575871,-0.0115025,0.224851,0.010148,0.0162656,1028,456,2.23838,45.526
-189,568,2.20264,-46.1507,0.00527346,-0.0119695,0.00413792,0.00621505,-0.0129111,0.223742,0.0112658,0.0169692,1035,456,2.20268,46.1507
-182,568,2.19983,-46.8109,0.00543773,-0.0132149,0.00478287,0.00659264,-0.0143698,0.236932,0.0123772,0.0170583,1042,456,2.19985,46.8109
-175,568,2.21472,-47.4337,0.00550133,-0.0153342,0.00576328,0.00698924,-0.0168221,0.252655,0.0141328,0.0168073,1049,456,2.21474,47.4337
-168,568,2.23169,-47.9181,0.00564646,-0.0168272,0.00649961,0.00739082,-0.0185715,0.262201,0.0154457,0.0222279,1056,456,2.23169,47.9181
-161,568,2.22888,-48.5113,0.00549448,-0.0188514,0.00730942,0.00752042,-0.0208773,0.270381,0.0169892,0.0330507,1063,456,2.22887,48.5113
-154,568,2.3363,-49.2881,0.00468269,-0.0210439,0.00837367,0.0071681,-0.0235293,0.28853,0.0185433,0.0371036,1070,456,2.33632,49.2881
-147,568,2.44995,-49.7867,0.00348008,-0.023347,0.0101952,0.00691485,-0.0267817,0.324957,0.0205509,0.0393793,1077,456,2.44996,49.7867
-140,568,2.4624,-50.1579,0.00312376,-0.0258002,0.0121417,0.00754486,-0.0302213,0.349202,0.0230773,0.0440294,1084,456,2.46244,50.1579
-133,568,2.35828,-50.4713,0.00257807,-0.0284139,0.0142966,0.0081657,-0.0340015,0.372582,0.0258236,0.0475028,1091,456,2.35829,50.4713
-126,568,2.31262,-50.261,0.00222125,-0.0308147,0.0163378,0.00893614,-0.0375296,0.389957,0.0284698,0.0475278,1098,456,2.31258,50.2609
-119,568,1.89978,-50.8443,0,0,0,0,0,0,0,-1,1105,456,1.89978,50.8443
-112,568,1.98242,-35.0942,0,0,0,0,0,0,0,-1,1112,456,1.98247,35.0942
-105,568,2.02454,-25.038,0,0,0,0,0,0,0,-1,1119,456,2.02459,25.038
-98,568,1.58618,-14.7874,0,0,0,0,0,0,0,-1,1126,456,1.58617,14.7874
-91,568,1.11621,-11.1853,0,0,0,0,0,0,0,-1,1133,456,1.11626,11.1853
-84,568,0.461792,-9.7959,0,0,0,0,0,0,0,-1,1140,456,0.461793,9.7959
-77,568,-1.13806,-8.57822,0,0,0,0,0,0,0,-1,1147,456,-1.13807,8.57821
-70,568,-4.09766,-1.42911,0,0,0,0,0,0,0,-1,1154,456,-4.09767,1.4291
-63,568,-5.92273,-3.70752,0,0,0,0,0,0,0,-1,1161,456,-5.92272,3.70751
-56,568,-5.24158,-6.01385,0,0,0,0,0,0,0,-1,1168,456,-5.24161,6.01386
-49,568,-5.24365,-8.33557,0,0,0,0,0,0,0,-1,1175,456,-5.24371,8.33557
-42,568,-0.664795,0.521973,0,0,0,0,0,0,0,-1,1182,456,-0.664829,-0.521984
-35,568,-0.153076,-1.67731,0,0,0,0,0,0,0,-1,1189,456,-0.153068,1.67731
-28,568,1.25439,-4.48798,0,0,0,0,0,0,0,-1,1196,456,1.2544,4.48797
-21,568,2.30737,-56.2372,0,0,0,0,0,0,0,-1,1203,456,2.30731,56.2372
-14,568,2.53967,-56.9185,-0.0123402,-0.00312452,-0.000208016,-0.00311983,-0.0123449,-1.54824,0.00741218,0.0441082,1210,456,2.53969,56.9184
-7,568,2.82117,-57.6257,0,0,0,0,0,0,0,-1,1217,456,2.82112,57.6257
0,568,13.0833,-63.5024,0,0,0,0,0,0,0,-1,1224,456,13.0832,63.5024
7,568,13.0032,-62.6942,-0.0454961,-0.0100026,-0.00163702,-0.00992729,-0.0455714,-1.5248,0.0276719,0.0477778,1231,456,13.0032,62.6941
14,568,12.8701,-61.9377,-0.055918,-0.0077297,-0.000613162,-0.00772189,-0.0559258,-1.55807,0.034995,0.0441267,1238,456,12.8701,61.9377
21,568,12.451,-61.4079,-0.0641767,-0.00248131,0.00119292,-0.00245825,-0.0641997,1.55147,0.0420044,0.0427352,1245,456,12.451,61.4079
28,568,9.3512,-60.9985,0,0,0,0,0,0,0,-1,1252,456,9.35121,60.9985
35,568,8.80334,-60.8242,0,0,0,0,0,0,0,-1,1259,456,8.80338,60.8241
42,568,8.4762,-60.5867,-0.0806904,0.0195132,0.00718326,0.0200255,-0.0812027,1.49959,0.0618996,0.0414901,1266,456,8.47616,60.5867
49,568,8.13477,-60.1371,-0.081791,0.0264893,0.00867853,0.0271805,-0.0824822,1.49132,0.0659427,0.0412881,1273,456,8.13476,60.1371
56,568,6.64099,-59.2608,0,0,0,0,0,0,0,-1,1280,456,6.64095,59.2608
63,568,5.85547,-58.7009,0,0,0,0,0,0,0,-1,1287,456,5.8555,58.7009
70,568,5.20374,-58.331,0,0,0,0,0,0,0,-1,1294,456,5.2037,58.331
77,568,4.30688,-57.7795,0,0,0,0,0,0,0,-1,1301,456,4.30689,57.7795
84,568,3.60388,-57.7653,0,0,0,0,0,0,0,-1,1308,456,3.60394,57.7653
91,568,2.80713,-57.8262,0,0,0,0,0,0,0,-1,1315,456,2.80709,57.8262
98,568,2.11487,-57.7147,0,0,0,0,0,0,0,-1,1322,456,2.11492,57.7147
105,568,2.06226,-57.2249,-0.0380896,0.0629038,0.0266825,0.0695199,-0.0447057,1.32774,0.0664649,0.0468605,1329,456,2.06221,57.2249
112,568,1.85364,-56.7556,-0.0329004,0.0640603,0.0283405,0.0717362,-0.0405763,1.3063,0.0656703,0.0489944,1336,456,1.85364,56.7556
119,568,1.62219,-56.3361,-0.0305039,0.0635234,0.0292105,0.0718589,-0.0388395,1.29282,0.0648526,0.0458324,1343,456,1.62214,56.3361
126,568,1.77686,-55.7574,-0.0295322,0.0615938,0.0287014,0.0698802,-0.0378186,1.28973,0.0630917,0.0471306,1350,456,1.7768,55.7574
133,568,2.12463,-55.2573,0,0,0,0,0,0,0,-1,1357,456,2.1246,55.2573
140,568,-8.30859,-58.9365,0,0,0,0,0,0,0,-1,1364,456,-8.3086,58.9365
147,568,3.35278,-68.8009,0,0,0,0,0,0,0,-1,1371,456,3.35275,68.8009
154,568,3.09143,-69.9826,0,0,0,0,0,0,0,-1,1378,456,3.09145,69.9826
161,568,2.81067,-71.1118,0,0,0,0,0,0,0,-1,1385,456,2.81065,71.1118
168,568,-1.74231,-39.2641,0,0,0,0,0,0,0,-1,1392,456,-1.74226,39.2641
175,568,10.5151,0.747498,0,0,0,0,0,0,0,-1,1399,456,10.5152,-0.747501
182,568,6.35095,-3.63361,0,0,0,0,0,0,0,-1,1406,456,6.35093,3.63359
189,568,6.17493,-1.70911,0,0,0,0,0,0,0,-1,1413,456,6.17497,1.70911
196,568,6.04724,0.200836,0,0,0,0,0,0,0,-1,1420,456,6.04724,-0.200835
203,568,5.9281,2.08649,0,0,0,0,0,0,0,-1,1427,456,5.92812,-2.08648
210,568,1.46216,-2.50446,0,0,0,0,0,0,0,-1,1434,456,1.46219,2.50446
217,568,2.62366,-7.86703,0,0,0,0,0,0,0,-1,1441,456,2.62365,7.86704
224,568,3.43494,-12.1555,0,0,0,0,0,0,0,-1,1448,456,3.43492,12.1555
231,568,4.38245,-9.3205,0,0,0,0,0,0,0,-1,1455,456,4.38244,9.32048
238,568,5.88879,-20.7448,0,0,0,0,0,0,0,-1,1462,456,5.88876,20.7449
245,568,3.34387,-10.6774,0,0,0,0,0,0,0,-1,1469,456,3.34389,10.6774
252,568,3.56946,-9.28928,0,0,0,0,0,0,0,-1,1476,456,3.56948,9.28928
259,568,3.38843,-8.73068,0,0,0,0,0,0,0,-1,1483,456,3.38842,8.73068
266,568,12.058,-50.1013,0,0,0,0,0,0,0,-1,1490,456,12.058,50.1013
273,568,12.0609,-49.678,0,0,0,0,0,0,0,-1,1497,456,12.061,49.678
280,568,12.09,-48.9723,0.00547701,-0.0186532,-0.00543093,0.006643,-0.0198192,-0.211483,0.0158967,0.0382531,1504,456,12.0899,48.9723
287,568,12.116,-48.2393,0.00509335,-0.018567,-0.00589926,0.00648264,-0.0199563,-0.231288,0.0159115,0.0255262,1511,456,12.116,48.2393
294,568,12.1635,-47.6741,0.00459729,-0.0176971,-0.00600206,0.00611046,-0.0192103,-0.246961,0.0152572,0.0228078,1518,456,12.1635,47.6741
301,568,12.1471,-47.1144,0.00419867,-0.016804,-0.00596035,0.00577226,-0.0183776,-0.25812,0.0145623,0.0193434,1525,456,12.1471,47.1144
308,568,12.1398,-46.5009,0.00385328,-0.0155053,-0.00583035,0.00547362,-0.0171256,-0.271075,0.0136135,0.0143521,1532,456,12.1397,46.5009
315,568,12.1321,-45.8993,0.00352239,-0.0139331,-0.00555017,0.00513766,-0.0155484,-0.283207,0.0124371,0.00939773,1539,456,12.1321,45.8993
322,568,12.1127,-45.2312,0.00317777,-0.012104,-0.00507047,0.00470709,-0.0136333,-0.292938,0.0109989,0.0106687,1546,456,12.1126,45.2312
329,568,12.1147,-44.553,0.0028265,-0.0101196,-0.00445169,0.00420953,-0.0115026,-0.301221,0.00939149,0.0107521,1553,456,12.1147,44.553
336,568,12.1202,-43.8644,0.00242203,-0.00807526,-0.00378225,0.00364283,-0.00929606,-0.312214,0.00770428,0.012217,1560,456,12.1202,43.8644
343,568,12.127,-43.1574,0.00198952,-0.00587035,-0.00292619,0.00295927,-0.00684011,-0.320015,0.00580368,0.0131425,1567,456,12.1269,43.1574
350,568,12.0867,-42.4871,0.00170519,-0.00358739,-0.00190952,0.0023222,-0.00420439,-0.312533,0.00382,0.011314,1574,456,12.0866,42.4871
357,568,12.0432,-41.7792,0.0014058,-0.00143982,-0.000895868,0.00166435,-0.00169837,-0.280967,0.0019415,0.00993755,1581,456,12.0432,41.7792
364,568,12.0291,-41.0576,0.00111012,0.000424262,0.000161688,0.00114632,0.000388056,0.220291,0.000673236,0.0124856,1588,456,12.0291,41.0575
371,568,12.0004,-40.3333,0.00090205,0.00226432,0.00116759,0.00293493,0.000231437,1.04945,0.00188422,0.0222329,1595,456,12.0003,40.3333
378,568,11.9612,-39.567,0.000689478,0.00389694,0.00204238,0.00488999,-0.000303568,1.11823,0.00336575,0.0196836,1602,456,11.9611,39.567
385,568,11.9086,-38.843,0.000469139,0.00529807,0.00275854,0.00654956,-0.000782349,1.14489,0.00464915,0.0104859,1609,456,11.9086,38.843
392,568,11.8481,-38.1394,0.000642514,0.00633832,0.00341095,0.00793397,-0.000953134,1.13324,0.00563396,0.0115013,1616,456,11.8481,38.1394
399,568,11.7758,-37.4694,0.00123251,0.00706144,0.004232,0.00928545,-0.000991505,1.08694,0.00654588,0.0187295,1623,456,11.7757,37.4694
406,568,11.7657,-36.6447,0.00153278,0.00772604,0.00473444,0.0102866,-0.0010278,1.07501,0.00722476,0.0165283,1630,456,11.7657,36.6447
413,568,11.7373,-35.8206,0.00177104,0.00802345,0.0050612,0.0108461,-0.00105161,1.06206,0.00760554,0.0132112,1637,456,11.7373,35.8207
420,568,11.6837,-35.031,0.00202763,0.00802781,0.00529939,0.0111174,-0.00106195,1.04297,0.00778974,0.0122161,1644,456,11.6837,35.031
427,568,11.6138,-34.2298,0.00236464,0.00734858,0.0054867,0.0108827,-0.00116949,0.998562,0.00767472,0.0146864,1651,456,11.6138,34.2298
434,568,11.5834,-33.4215,0.00278101,0.00688835,0.0056724,0.0108674,-0.00119804,0.959081,0.00767551,0.0225392,1658,456,11.5834,33.4215
441,568,11.6359,-32.66,0.00301263,0.00586347,0.005666,0.0102806,-0.0014045,0.908628,0.00736667,0.0303998,1665,456,11.6358,32.66
448,568,12.144,-31.8456,0.00305862,0.00455358,0.00551284,0.00936938,-0.00175718,0.852782,0.0069069,0.0445035,1672,456,12.144,31.8456
455,568,12.3967,-30.963,0,0,0,0,0,0,0,-1,1679,456,12.3967,30.963
462,568,11.1538,-29.957,0,0,0,0,0,0,0,-1,1686,456,11.1538,29.957
469,568,10.7385,-29.2899,0,0,0,0,0,0,0,-1,1693,456,10.7386,29.2899
476,568,10.7552,-28.5926,0,0,0,0,0,0,0,-1,1700,456,10.7553,28.5926
483,568,9.50525,-26.0135,0,0,0,0,0,0,0,-1,1707,456,9.50521,26.0135
490,568,9.21021,-25.4427,0,0,0,0,0,0,0,-1,1714,456,9.21025,25.4427
497,568,9.19275,-22.8114,0,0,0,0,0,0,0,-1,1721,456,9.19273,22.8114
504,568,0,0,0,0,0,0,0,0,0,-1,1728,456,0,0
511,568,0,0,0,0,0,0,0,0,0,-1,1735,456,0,0
518,568,0,0,0,0,0,0,0,0,0,-1,1742,456,0,0
525,568,0,0,0,0,0,0,0,0,0,-1,1749,456,0,0
532,568,0,0,0,0,0,0,0,0,0,-1,1756,456,0,0
539,568,0,0,0,0,0,0,0,0,0,-1,1763,456,0,0
546,568,0,0,0,0,0,0,0,0,0,-1,1770,456,0,0
553,568,0,0,0,0,0,0,0,0,0,-1,1777,456,0,0
560,568,0,0,0,0,0,0,0,0,0,-1,1784,456,0,0
567,568,0,0,0,0,0,0,0,0,0,-1,1791,456,0,0
574,568,0,0,0,0,0,0,0,0,0,-1,1798,456,0,0
581,568,0,0,0,0,0,0,0,0,0,-1,1805,456,0,0
588,568,0,0,0,0,0,0,0,0,0,-1,1812,456,0,0
595,568,0,0,0,0,0,0,0,0,0,-1,1819,456,0,0
602,568,0,0,0,0,0,0,0,0,0,-1,1826,456,0,0
609,568,0,0,0,0,0,0,0,0,0,-1,1833,456,0,0
616,568,0,0,0,0,0,0,0,0,0,-1,1840,456,0,0
623,568,0,0,0,0,0,0,0,0,0,-1,1847,456,0,0
630,568,0,0,0,0,0,0,0,0,0,-1,1854,456,0,0
637,568,0,0,0,0,0,0,0,0,0,-1,1861,456,0,0
644,568,0,0,0,0,0,0,0,0,0,-1,1868,456,0,0
651,568,0,0,0,0,0,0,0,0,0,-1,1875,456,0,0
658,568,0,0,0,0,0,0,0,0,0,-1,1882,456,0,0
665,568,0,0,0,0,0,0,0,0,0,-1,1889,456,0,0
672,568,0,0,0,0,0,0,0,0,0,-1,1896,456,0,0
679,568,0,0,0,0,0,0,0,0,0,-1,1903,456,0,0
686,568,0,0,0,0,0,0,0,0,0,-1,1910,456,0,0
693,568,0,0,0,0,0,0,0,0,0,-1,1917,456,0,0
700,568,0,0,0,0,0,0,0,0,0,-1,1924,456,0,0
707,568,0,0,0,0,0,0,0,0,0,-1,1931,456,0,0
714,568,0,0,0,0,0,0,0,0,0,-1,1938,456,0,0
721,568,0,0,0,0,0,0,0,0,0,-1,1945,456,0,0
728,568,0,0,0,0,0,0,0,0,0,-1,1952,456,0,0
735,568,0,0,0,0,0,0,0,0,0,-1,1959,456,0,0
742,568,0,0,0,0,0,0,0,0,0,-1,1966,456,0,0
749,568,0,0,0,0,0,0,0,0,0,-1,1973,456,0,0
756,568,0,0,0,0,0,0,0,0,0,-1,1980,456,0,0
763,568,0,0,0,0,0,0,0,0,0,-1,1987,456,0,0
770,568,0,0,0,0,0,0,0,0,0,-1,1994,456,0,0
777,568,0,0,0,0,0,0,0,0,0,-1,2001,456,0,0
784,568,0,0,0,0,0,0,0,0,0,-1,2008,456,0,0
791,568,0,0,0,0,0,0,0,0,0,-1,2015,456,0,0
798,568,0,0,0,0,0,0,0,0,0,-1,2022,456,0,0
805,568,0,0,0,0,0,0,0,0,0,-1,2029,456,0,0
812,568,0,0,0,0,0,0,0,0,0,-1,2036,456,0,0
-700,561,0,0,0,0,0,0,0,0,0,-1,524,463,0,0
-693,561,0,0,0,0,0,0,0,0,0,-1,531,463,0,0
-686,561,0,0,0,0,0,0,0,0,0,-1,538,463,0,0
-679,561,0,0,0,0,0,0,0,0,0,-1,545,463,0,0
-672,561,0,0,0,0,0,0,0,0,0,-1,552,463,0,0
-665,561,0,0,0,0,0,0,0,0,0,-1,559,463,0,0
-658,561,0,0,0,0,0,0,0,0,0,-1,566,463,0,0
-651,561,0,0,0,0,0,0,0,0,0,-1,573,463,0,0
-644,561,0,0,0,0,0,0,0,0,0,-1,580,463,0,0
-637,561,0,0,0,0,0,0,0,0,0,-1,587,463,0,0
-630,561,0,0,0,0,0,0,0,0,0,-1,594,463,0,0
-623,561,0,0,0,0,0,0,0,0,0,-1,601,463,0,0
-616,561,0,0,0,0,0,0,0,0,0,-1,608,463,0,0
-609,561,0,0,0,0,0,0,0,0,0,-1,615,463,0,0
-602,561,0,0,0,0,0,0,0,0,0,-1,622,463,0,0
-595,561,0,0,0,0,0,0,0,0,0,-1,629,463,0,0
-588,561,0,0,0,0,0,0,0,0,0,-1,636,463,0,0
-581,561,0,0,0,0,0,0,0,0,0,-1,643,463,0,0
-574,561,0,0,0,0,0,0,0,0,0,-1,650,463,0,0
-567,561,0,0,0,0,0,0,0,0,0,-1,657,463,0,0
-560,561,0,0,0,0,0,0,0,0,0,-1,664,463,0,0
-553,561,0,0,0,0,0,0,0,0,0,-1,671,463,0,0
-546,561,0,0,0,0,0,0,0,0,0,-1,678,463,0,0
-539,561,0,0,0,0,0,0,0,0,0,-1,685,463,0,0
-532,561,0,0,0,0,0,0,0,0,0,-1,692,463,0,0
-525,561,0,0,0,0,0,0,0,0,0,-1,699,463,0,0
-518,561,0,0,0,0,0,0,0,0,0,-1,706,463,0,0
-511,561,0,0,0,0,0,0,0,0,0,-1,713,463,0,0
-504,561,0,0,0,0,0,0,0,0,0,-1,720,463,0,0
-497,561,0,0,0,0,0,0,0,0,0,-1,727,463,0,0
-490,561,0,0,0,0,0,0,0,0,0,-1,734,463,0,0
-483,561,0,0,0,0,0,0,0,0,0,-1,741,463,0,0
-476,561,0,0,0,0,0,0,0,0,0,-1,748,463,0,0
-469,561,0,0,0,0,0,0,0,0,0,-1,755,463,0,0
-462,561,0,0,0,0,0,0,0,0,0,-1,762,463,0,0
-455,561,0,0,0,0,0,0,0,0,0,-1,769,463,0,0
-448,561,0,0,0,0,0,0,0,0,0,-1,776,463,0,0
-441,561,0,0,0,0,0,0,0,0,0,-1,783,463,0,0
-434,561,0,0,0,0,0,0,0,0,0,-1,790,463,0,0
-427,561,0,0,0,0,0,0,0,0,0,-1,797,463,0,0
-420,561,0,0,0,0,0,0,0,0,0,-1,804,463,0,0
-413,561,0,0,0,0,0,0,0,0,0,-1,811,463,0,0
-406,561,0,0,0,0,0,0,0,0,0,-1,818,463,0,0
-399,561,0,0,0,0,0,0,0,0,0,-1,825,463,0,0
-392,561,4.92407,-2.54578,0,0,0,0,0,0,0,-1,832,463,4.92408,2.54576
-385,561,5.55634,-1.02338,0,0,0,0,0,0,0,-1,839,463,5.55634,1.02338
-378,561,0.160522,-4.51785,0,0,0,0,0,0,0,-1,846,463,0.160542,4.51785
-371,561,4.52112,-25.9745,0,0,0,0,0,0,0,-1,853,463,4.52111,25.9745
-364,561,3.328,-25.9157,0,0,0,0,0,0,0,-1,860,463,3.32801,25.9157
-357,561,2.16742,-23.5582,0,0,0,0,0,0,0,-1,867,463,2.1674,23.5582
-350,561,1.33124,-11.9406,0,0,0,0,0,0,0,-1,874,463,1.33127,11.9406
-343,561,1.13214,-14.1837,0,0,0,0,0,0,0,-1,881,463,1.13217,14.1837
-336,561,2.23914,-30.9872,0,0,0,0,0,0,0,-1,888,463,2.23913,30.9873
-329,561,2.08014,-31.7236,-0.00220094,0.0196268,-0.00720411,0.0217901,-0.00436421,-1.27908,0.0161789,0.0490098,895,463,2.08012,31.7236
-322,561,1.96411,-32.2546,-0.00184194,0.0161609,-0.00627931,0.0181347,-0.00381573,-1.26624,0.0135421,0.0437482,902,463,1.96412,32.2546
-315,561,2.25665,-32.8541,-0.00155696,0.0133257,-0.00551426,0.0151461,-0.0033774,-1.25193,0.0113914,0.0321179,909,463,2.25667,32.8541
-308,561,2.10791,-33.8127,-0.00123771,0.0108243,-0.00491482,0.0125733,-0.00298671,-1.22891,0.00953498,0.0279221,916,463,2.10792,33.8127
-301,561,2.02783,-34.8069,-0.000840297,0.00867428,-0.00449661,0.0104631,-0.0026291,-1.19218,0.00799713,0.0166657,923,463,2.02784,34.8069
-294,561,1.94568,-35.5846,-0.000488478,0.00719499,-0.00396768,0.00887607,-0.00216955,-1.17003,0.00675766,0.0121866,930,463,1.94569,35.5846
-287,561,1.90192,-36.3349,-0.000257072,0.00602902,-0.00342263,0.00753282,-0.00176087,-1.15682,0.00570023,0.0106943,937,463,1.90191,36.3349
-280,561,1.85632,-37.1053,1.78682e-05,0.00499361,-0.00301502,0.00641469,-0.00140321,-1.13035,0.00481287,0.0138408,944,463,1.85632,37.1052
-273,561,1.77588,-37.8304,0.000229509,0.00393352,-0.00255743,0.00523911,-0.00107608,-1.09878,0.00390122,0.0173154,951,463,1.77585,37.8304
-266,561,1.73682,-38.5448,0.000306034,0.00256737,-0.00192698,0.00367091,-0.000797505,-1.05071,0.0027519,0.011372,958,463,1.7368,38.5448
-259,561,1.7149,-39.2833,0.000588903,0.00101184,-0.00121899,0.00203757,-0.000436822,-0.871283,0.00152498,0.0118086,965,463,1.71492,39.2833
-252,561,1.67261,-39.9931,0.0011501,-0.000378568,-0.00045491,0.00127523,-0.0005037,-0.268431,0.00105877,0.0153772,972,463,1.67259,39.9931
-245,561,1.625,-40.6938,0.00166743,-0.0018939,0.000310447,0.00169429,-0.00192076,0.0863041,0.00208852,0.0170454,979,463,1.62502,40.6938
-238,561,1.62537,-41.4222,0.00228542,-0.00362738,0.00115739,0.0025039,-0.00384586,0.186573,0.00369323,0.0146108,986,463,1.62538,41.4222
-231,561,1.57214,-42.1378,0.00289926,-0.00558101,0.00210857,0.00339461,-0.00607636,0.230738,0.00554065,0.0132356,993,463,1.57214,42.1378
-224,561,1.53754,-42.8177,0.00355228,-0.00744225,0.00299898,0.00431711,-0.00820707,0.249706,0.00734618,0.0130191,1000,463,1.53756,42.8177
-217,561,1.5542,-43.482,0.00433719,-0.00936433,0.00384467,0.00534229,-0.0103694,0.255702,0.00922464,0.0121869,1007,463,1.5542,43.482
-210,561,1.55945,-44.1616,0.00512449,-0.0113332,0.00459127,0.00631869,-0.0125274,0.254463,0.0110758,0.0126701,1014,463,1.55948,44.1616
-203,561,1.55566,-44.8289,0.00590137,-0.0130694,0.00519114,0.00722896,-0.014397,0.250376,0.0127123,0.0148395,1021,463,1.55565,44.8289
-196,561,1.47656,-45.4155,0.00661155,-0.0146053,0.00563878,0.00801706,-0.0160108,0.244279,0.0141261,0.017976,1028,463,1.47651,45.4155
-189,561,1.55872,-46.0172,0.00707008,-0.0160265,0.00602248,0.00854613,-0.0175025,0.240352,0.0153327,0.0246402,1035,463,1.55868,46.0172
-182,561,1.68506,-46.6076,0.00721946,-0.0173223,0.00673589,0.00894667,-0.0190495,0.251012,0.0165107,0.0296894,1042,463,1.68505,46.6076
-175,561,1.52771,-47.2018,0.00722899,-0.0196957,0.00788168,0.00936651,-0.0218332,0.264831,0.0184863,0.0459021,1049,463,1.52767,47.2018
-168,561,1.54333,-47.7005,0,0,0,0,0,0,0,-1,1056,463,1.54331,47.7005
-161,561,1.61426,-48.3781,0,0,0,0,0,0,0,-1,1063,463,1.61429,48.3781
-154,561,1.88904,-49.3844,0,0,0,0,0,0,0,-1,1070,463,1.88899,49.3844
-147,561,2.0459,-49.8004,0,0,0,0,0,0,0,-1,1077,463,2.0459,49.8004
-140,561,2.1333,-50.0184,0,0,0,0,0,0,0,-1,1084,463,2.13326,50.0184
-133,561,2.04553,-50.1711,0,0,0,0,0,0,0,-1,1091,463,2.04556,50.1712
-126,561,1.77014,-49.4318,0,0,0,0,0,0,0,-1,1098,463,1.7702,49.4318
-119,561,-0.336304,-35.422,0,0,0,0,0,0,0,-1,1105,463,-0.336245,35.422
-112,561,1.24365,-29.1982,0,0,0,0,0,0,0,-1,1112,463,1.2437,29.1981
-105,561,0.530518,-13.5379,0,0,0,0,0,0,0,-1,1119,463,0.530477,13.5379
-98,561,1.5387,-7.54352,0,0,0,0,0,0,0,-1,1126,463,1.53871,7.54351
-91,561,1.29553,-6.57968,0,0,0,0,0,0,0,-1,1133,463,1.29549,6.5797
-84,561,1.23364,-5.84555,0,0,0,0,0,0,0,-1,1140,463,1.23363,5.84556
-77,561,-2.36023,1.00204,0,0,0,0,0,0,0,-1,1147,463,-2.3602,-1.00205
-70,561,-3.90015,-1.41541,0,0,0,0,0,0,0,-1,1154,463,-3.90009,1.4154
-63,561,-6.95691,-4.02756,0,0,0,0,0,0,0,-1,1161,463,-6.95696,4.02756
-56,561,-5.37988,-6.66855,0,0,0,0,0,0,0,-1,1168,463,-5.37988,6.66854
-49,561,-5.7439,-9.11029,0,0,0,0,0,0,0,-1,1175,463,-5.74387,9.1103
-42,561,-1.72644,-5.63065,0,0,0,0,0,0,0,-1,1182,463,-1.72648,5.63064
-35,561,-1.65674,-4.87994,0,0,0,0,0,0,0,-1,1189,463,-1.6567,4.87993
-28,561,-1.91418,-3.86896,0,0,0,0,0,0,0,-1,1196,463,-1.91414,3.86895
-21,561,2.44299,-56.4518,0,0,0,0,0,0,0,-1,1203,463,2.44293,56.4518
-14,561,2.69971,-57.1433,0,0,0,0,0,0,0,-1,1210,463,2.69968,57.1433
-7,561,2.75452,-57.6694,0,0,0,0,0,0,0,-1,1217,463,2.75448,57.6694
0,561,3.39905,-54.9312,0,0,0,0,0,0,0,-1,1224,463,3.39906,54.9312
7,561,14.1421,-62.506,0,0,0,0,0,0,0,-1,1231,463,14.142,62.5061
14,561,13.6488,-61.5765,-0.0600442,-0.0062716,-0.000936537,-0.0062553,-0.0600605,-1.55339,0.0381267,0.0434642,1238,463,13.6488,61.5765
21,561,13.1943,-60.845,-0.069326,0.00112894,0.00185559,0.00117777,-0.0693749,1.54448,0.0466474,0.0453695,1245,463,13.1944,60.845
28,561,12.7286,-60.1663,0,0,0,0,0,0,0,-1,1252,463,12.7287,60.1663
35,561,12.2773,-59.3982,0,0,0,0,0,0,0,-1,1259,463,12.2774,59.3982
42,561,8.50183,-61.2781,-0.0871342,0.0280407,0.00884109,0.0287154,-0.0878089,1.49463,0.0700997,0.0440708,1266,463,8.50178,61.2781
49,561,8.17822,-60.907,-0.0885256,0.0356674,0.0101763,0.0364957,-0.0893539,1.48958,0.0747651,0.0430948,1273,463,8.17818,60.9071
56,561,6.48279,-59.2446,0,0,0,0,0,0,0,-1,1280,463,6.48281,59.2446
63,561,5.67249,-58.6583,0,0,0,0,0,0,0,-1,1287,463,5.67251,58.6583
70,561,5.01074,-58.1532,-0.0799758,0.0583861,0.0175272,0.0605719,-0.0821616,1.44673,0.0827208,0.0457694,1294,463,5.01074,58.1532
77,561,4.32581,-58.0441,-0.0744796,0.0661128,0.0205768,0.0690625,-0.0774293,1.42842,0.084623,0.0478445,1301,463,4.32577,58.0441
84,561,3.60876,-58.0231,-0.0667322,0.0691749,0.0228861,0.0729253,-0.0704826,1.40837,0.0828006,0.0472083,1308,463,3.60872,58.0231
91,561,2.62878,-58.0866,0,0,0,0,0,0,0,-1,1315,463,2.62872,58.0866
98,561,1.91895,-57.9441,-0.0518817,0.0748715,0.0276975,0.0806595,-0.0576697,1.36479,0.0802312,0.0460176,1322,463,1.91897,57.9441
105,561,1.71143,-57.7601,-0.0438284,0.0776757,0.0300263,0.0846909,-0.0508436,1.34128,0.07906,0.0481731,1329,463,1.71138,57.7601
112,561,1.49194,-57.4883,-0.037518,0.0809051,0.0329389,0.0894503,-0.0460632,1.31697,0.0795642,0.0462537,1336,463,1.4919,57.4883
119,561,1.01843,-57.4304,0,0,0,0,0,0,0,-1,1343,463,1.01849,57.4304
126,561,0.645508,-57.5519,0,0,0,0,0,0,0,-1,1350,463,0.64545,57.5519
133,561,0.0228271,-57.6559,0,0,0,0,0,0,0,-1,1357,463,0.0227935,57.656
140,561,3.3894,-67.1954,0,0,0,0,0,0,0,-1,1364,463,3.38944,67.1954
147,561,3.31396,-68.5279,0,0,0,0,0,0,0,-1,1371,463,3.31402,68.5279
154,561,2.9801,-69.6845,0,0,0,0,0,0,0,-1,1378,463,2.9801,69.6845
161,561,2.58667,-70.5203,0,0,0,0,0,0,0,-1,1385,463,2.58669,70.5203
168,561,2.2384,-71.3521,0,0,0,0,0,0,0,-1,1392,463,2.23841,71.352
175,561,10.4185,0.276398,0,0,0,0,0,0,0,-1,1399,463,10.4185,-0.276394
182,561,6.45703,-4.02127,0,0,0,0,0,0,0,-1,1406,463,6.45704,4.02127
189,561,6.50854,-2.08685,0,0,0,0,0,0,0,-1,1413,463,6.50851,2.08686
196,561,6.44775,-0.27182,0,0,0,0,0,0,0,-1,1420,463,6.44773,0.271814
203,561,6.18591,1.1301,0,0,0,0,0,0,0,-1,1427,463,6.18592,-1.13009
210,561,5.68713,2.68427,0,0,0,0,0,0,0,-1,1434,463,5.6871,-2.68425
217,561,3.61743,-7.33582,0,0,0,0,0,0,0,-1,1441,463,3.61738,7.33581
224,561,4.27466,-8.59171,0,0,0,0,0,0,0,-1,1448,463,4.27466,8.59171
231,561,4.93188,-9.8476,0,0,0,0,0,0,0,-1,1455,463,4.93193,9.84761
238,561,2.18018,-5.18359,0,0,0,0,0,0,0,-1,1462,463,2.18023,5.18359
245,561,3.07568,-3.50238,0,0,0,0,0,0,0,-1,1469,463,3.0757,3.50238
252,561,3.47412,-3.71109,0,0,0,0,0,0,0,-1,1476,463,3.47413,3.71109
259,561,3.42212,-3.2334,0,0,0,0,0,0,0,-1,1483,463,3.42214,3.2334
266,561,4.44373,-5.90027,0,0,0,0,0,0,0,-1,1490,463,4.44372,5.90026
273,561,2.59485,-3.65268,0,0,0,0,0,0,0,-1,1497,463,2.5948,3.65268
280,561,12.7169,-48.8576,0,0,0,0,0,0,0,-1,1504,463,12.717,48.8576
287,561,12.7906,-47.9275,0,0,0,0,0,0,0,-1,1511,463,12.7906,47.9275
294,561,12.863,-47.313,0.00546508,-0.0245657,-0.00824579,0.00758022,-0.0266808,-0.251098,0.02078,0.0461166,1518,463,12.863,47.313
301,561,12.6733,-46.7759,0.00512941,-0.0232891,-0.00828989,0.00737084,-0.0255306,-0.264067,0.0199368,0.0371587,1525,463,12.6733,46.7759
308,561,12.7954,-46.3187,0.00479784,-0.0215285,-0.00822957,0.00715867,-0.0238893,-0.27937,0.0187731,0.0291155,1532,463,12.7954,46.3187
315,561,12.8398,-45.8011,0.00444097,-0.0194529,-0.00795451,0.00684686,-0.0218588,-0.293708,0.0173122,0.0175567,1539,463,12.8398,45.8011
322,561,12.7875,-45.1709,0.00406972,-0.0171366,-0.00743114,0.00641449,-0.0194814,-0.305645,0.0155725,0.0159382,1546,463,12.7875,45.1709
329,561,12.7925,-44.495,0.00365714,-0.0146677,-0.0067531,0.0058769,-0.0168875,-0.317578,0.0136459,0.0122354,1553,463,12.7925,44.495
336,561,12.8115,-43.7986,0.00313745,-0.0122419,-0.0060324,0.00522126,-0.0143257,-0.332602,0.0116864,0.0119368,1560,463,12.8115,43.7986
343,561,12.8052,-43.1369,0.00257758,-0.00968759,-0.00509854,0.00442019,-0.0115302,-0.346794,0.00950904,0.0114661,1567,463,12.8051,43.1369
350,561,12.7595,-42.4368,0.00222285,-0.00714193,-0.00398717,0.00369045,-0.00860952,-0.352689,0.00728823,0.0107656,1574,463,12.7596,42.4368
357,561,12.7428,-41.7181,0.00183873,-0.0047243,-0.00288345,0.00292558,-0.00581115,-0.360459,0.00513504,0.0104402,1581,463,12.7428,41.7182
364,561,12.7388,-41.0214,0.00144084,-0.00269408,-0.00172854,0.00206823,-0.00332147,-0.348176,0.00313967,0.0101595,1588,463,12.7387,41.0214
371,561,12.686,-40.2706,0.0011718,-0.000657317,-0.000630026,0.00136781,-0.000853321,-0.301613,0.00129379,0.017611,1595,463,12.686,40.2706
378,561,12.6494,-39.5552,0.000913353,0.00109064,0.000327325,0.00134111,0.000662882,0.917634,0.00077431,0.0124612,1602,463,12.6494,39.5552
385,561,12.616,-38.8128,0.000592789,0.00265168,0.00117661,0.00318562,5.88471e-05,1.14479,0.00210441,0.0114142,1609,463,12.6159,38.8128
392,561,12.5583,-38.0788,0.000683914,0.00376215,0.00196381,0.00471811,-0.000272047,1.11777,0.0032399,0.015838,1616,463,12.5584,38.0788
399,561,12.5187,-37.3427,0.00112534,0.0045428,0.0027499,0.00607162,-0.000403477,1.06339,0.00418872,0.0223626,1623,463,12.5187,37.3427
406,561,12.5178,-36.5645,0.00132932,0.00532646,0.00327455,0.00716415,-0.000508376,1.05939,0.00495426,0.0190553,1630,463,12.5179,36.5645
413,561,12.4919,-35.7925,0.00146829,0.00572903,0.003655,0.0078292,-0.000631876,1.04926,0.00544233,0.0166756,1637,463,12.4919,35.7925
420,561,12.4272,-35.0194,0.00160874,0.00583017,0.00394265,0.00819155,-0.000752642,1.03116,0.00572842,0.0140678,1644,463,12.4272,35.0194
427,561,12.391,-34.2184,0.00179583,0.00539102,0.00418466,0.00814784,-0.000960992,0.988265,0.00577892,0.011603,1651,463,12.3909,34.2183
434,561,12.3495,-33.4058,0.00206047,0.0051148,0.00444699,0.00828954,-0.00111428,0.950796,0.00593277,0.0134328,1658,463,12.3494,33.4058
441,561,12.3278,-32.5969,0.00217426,0.00451165,0.0045991,0.00808822,-0.00140231,0.909821,0.00591526,0.0155524,1665,463,12.3278,32.5969
448,561,12.3103,-31.7261,0.00211493,0.00369097,0.0046325,0.00760199,-0.00179609,0.869645,0.00576079,0.0226141,1672,463,12.3103,31.7261
455,561,12.1996,-30.8789,0.00187093,0.00262447,0.00461588,0.00687893,-0.00238354,0.82612,0.00555366,0.0429883,1679,463,12.1996,30.8789
462,561,12.011,-30.187,0.00144277,0.00183941,0.00457986,0.00622524,-0.00294306,0.807036,0.0054052,0.0401431,1686,463,12.011,30.187
469,561,11.8977,-29.4754,0.000822499,0.000928924,0.00443803,0.00531406,-0.00356264,0.791393,0.00515811,0.0274853,1693,463,11.8977,29.4754
476,561,11.8552,-28.8466,4.17836e-05,-0.000315076,0.00410404,0.00397127,-0.00424457,0.763674,0.00474429,0.0444841,1700,463,11.8552,28.8466
483,561,11.8126,-28.2305,0,0,0,0,0,0,0,-1,1707,463,11.8127,28.2305
490,561,10.2549,-20.4551,0,0,0,0,0,0,0,-1,1714,463,10.2548,20.4551
497,561,11.7618,-20.3894,0,0,0,0,0,0,0,-1,1721,463,11.7618,20.3894
504,561,12.9351,-20.1285,0,0,0,0,0,0,0,-1,1728,463,12.935,20.1285
511,561,0,0,0,0,0,0,0,0,0,-1,1735,463,0,0
518,561,0,0,0,0,0,0,0,0,0,-1,1742,463,0,0
525,561,0,0,0,0,0,0,0,0,0,-1,1749,463,0,0
532,561,0,0,0,0,0,0,0,0,0,-1,1756,463,0,0
539,561,0,0,0,0,0,0,0,0,0,-1,1763,463,0,0
546,561,0,0,0,0,0,0,0,0,0,-1,1770,463,0,0
553,561,0,0,0,0,0,0,0,0,0,-1,1777,463,0,0
560,561,0,0,0,0,0,0,0,0,0,-1,1784,463,0,0
567,561,0,0,0,0,0,0,0,0,0,-1,1791,463,0,0
574,561,0,0,0,0,0,0,0,0,0,-1,1798,463,0,0
581,561,0,0,0,0,0,0,0,0,0,-1,1805,463,0,0
588,561,0,0,0,0,0,0,0,0,0,-1,1812,463,0,0
595,561,0,0,0,0,0,0,0,0,0,-1,1819,463,0,0
602,561,0,0,0,0,0,0,0,0,0,-1,1826,463,0,0
609,561,0,0,0,0,0,0,0,0,0,-1,1833,463,0,0
616,561,0,0,0,0,0,0,0,0,0,-1,1840,463,0,0
623,561,0,0,0,0,0,0,0,0,0,-1,1847,463,0,0
630,561,0,0,0,0,0,0,0,0,0,-1,1854,463,0,0
637,561,0,0,0,0,0,0,0,0,0,-1,1861,463,0,0
644,561,0,0,0,0,0,0,0,0,0,-1,1868,463,0,0
651,561,0,0,0,0,0,0,0,0,0,-1,1875,463,0,0
658,561,0,0,0,0,0,0,0,0,0,-1,1882,463,0,0
665,561,0,0,0,0,0,0,0,0,0,-1,1889,463,0,0
672,561,0,0,0,0,0,0,0,0,0,-1,1896,463,0,0
679,561,0,0,0,0,0,0,0,0,0,-1,1903,463,0,0
686,561,0,0,0,0,0,0,0,0,0,-1,1910,463,0,0
693,561,0,0,0,0,0,0,0,0,0,-1,1917,463,0,0
700,561,0,0,0,0,0,0,0,0,0,-1,1924,463,0,0
707,561,0,0,0,0,0,0,0,0,0,-1,1931,463,0,0
714,561,0,0,0,0,0,0,0,0,0,-1,1938,463,0,0
721,561,0,0,0,0,0,0,0,0,0,-1,1945,463,0,0
728,561,0,0,0,0,0,0,0,0,0,-1,1952,463,0,0
735,561,0,0,0,0,0,0,0,0,0,-1,1959,463,0,0
742,561,0,0,0,0,0,0,0,0,0,-1,1966,463,0,0
749,561,0,0,0,0,0,0,0,0,0,-1,1973,463,0,0
756,561,0,0,0,0,0,0,0,0,0,-1,1980,463,0,0
763,561,0,0,0,0,0,0,0,0,0,-1,1987,463,0,0
770,561,0,0,0,0,0,0,0,0,0,-1,1994,463,0,0
777,561,0,0,0,0,0,0,0,0,0,-1,2001,463,0,0
784,561,0,0,0,0,0,0,0,0,0,-1,2008,463,0,0
791,561,0,0,0,0,0,0,0,0,0,-1,2015,463,0,0
798,561,0,0,0,0,0,0,0,0,0,-1,2022,463,0,0
805,561,0,0,0,0,0,0,0,0,0,-1,2029,463,0,0
812,561,0,0,0,0,0,0,0,0,0,-1,2036,463,0,0
-700,554,0,0,0,0,0,0,0,0,0,-1,524,470,0,0
-693,554,0,0,0,0,0,0,0,0,0,-1,531,470,0,0
-686,554,0,0,0,0,0,0,0,0,0,-1,538,470,0,0
-679,554,0,0,0,0,0,0,0,0,0,-1,545,470,0,0
-672,554,0,0,0,0,0,0,0,0,0,-1,552,470,0,0
-665,554,0,0,0,0,0,0,0,0,0,-1,559,470,0,0
-658,554,0,0,0,0,0,0,0,0,0,-1,566,470,0,0
-651,554,0,0,0,0,0,0,0,0,0,-1,573,470,0,0
-644,554,0,0,0,0,0,0,0,0,0,-1,580,470,0,0
-637,554,0,0,0,0,0,0,0,0,0,-1,587,470,0,0
-630,554,0,0,0,0,0,0,0,0,0,-1,594,470,0,0
-623,554,0,0,0,0,0,0,0,0,0,-1,601,470,0,0
-616,554,0,0,0,0,0,0,0,0,0,-1,608,470,0,0
-609,554,0,0,0,0,0,0,0,0,0,-1,615,470,0,0
-602,554,0,0,0,0,0,0,0,0,0,-1,622,470,0,0
-595,554,0,0,0,0,0,0,0,0,0,-1,629,470,0,0
-588,554,0,0,0,0,0,0,0,0,0,-1,636,470,0,0
-581,554,0,0,0,0,0,0,0,0,0,-1,643,470,0,0
-574,554,0,0,0,0,0,0,0,0,0,-1,650,470,0,0
-567,554,0,0,0,0,0,0,0,0,0,-1,657,470,0,0
-560,554,0,0,0,0,0,0,0,0,0,-1,664,470,0,0
-553,554,0,0,0,0,0,0,0,0,0,-1,671,470,0,0
-546,554,0,0,0,0,0,0,0,0,0,-1,678,470,0,0
-539,554,0,0,0,0,0,0,0,0,0,-1,685,470,0,0
-532,554,0,0,0,0,0,0,0,0,0,-1,692,470,0,0
-525,554,0,0,0,0,0,0,0,0,0,-1,699,470,0,0
-518,554,0,0,0,0,0,0,0,0,0,-1,706,470,0,0
-511,554,0,0,0,0,0,0,0,0,0,-1,713,470,0,0
-504,554,0,0,0,0,0,0,0,0,0,-1,720,470,0,0
-497,554,0,0,0,0,0,0,0,0,0,-1,727,470,0,0
-490,554,0,0,0,0,0,0,0,0,0,-1,734,470,0,0
-483,554,0,0,0,0,0,0,0,0,0,-1,741,470,0,0
-476,554,0,0,0,0,0,0,0,0,0,-1,748,470,0,0
-469,554,0,0,0,0,0,0,0,0,0,-1,755,470,0,0
-462,554,0,0,0,0,0,0,0,0,0,-1,762,470,0,0
-455,554,0,0,0,0,0,0,0,0,0,-1,769,470,0,0
-448,554,0,0,0,0,0,0,0,0,0,-1,776,470,0,0
-441,554,0,0,0,0,0,0,0,0,0,-1,783,470,0,0
-434,554,0,0,0,0,0,0,0,0,0,-1,790,470,0,0
-427,554,0,0,0,0,0,0,0,0,0,-1,797,470,0,0
-420,554,0,0,0,0,0,0,0,0,0,-1,804,470,0,0
-413,554,0,0,0,0,0,0,0,0,0,-1,811,470,0,0
-406,554,0,0,0,0,0,0,0,0,0,-1,818,470,0,0
-399,554,-1.32275,-3.95142,0,0,0,0,0,0,0,-1,825,470,-1.32275,3.95141
-392,554,-1.35632,-3.7406,0,0,0,0,0,0,0,-1,832,470,-1.35632,3.7406
-385,554,-0.849243,-4.14447,0,0,0,0,0,0,0,-1,839,470,-0.849262,4.14446
-378,554,3.40961,-24.7887,0,0,0,0,0,0,0,-1,846,470,3.40958,24.7887
-371,554,2.43079,-24.7847,0,0,0,0,0,0,0,-1,853,470,2.43077,24.7847
-364,554,2.23926,-26.2108,0,0,0,0,0,0,0,-1,860,470,2.23926,26.2108
-357,554,2.15558,-27.0648,0,0,0,0,0,0,0,-1,867,470,2.15558,27.0648
-350,554,1.17157,-18.1341,0,0,0,0,0,0,0,-1,874,470,1.17156,18.1341
-343,554,1.69714,-29.5944,0,0,0,0,0,0,0,-1,881,470,1.69717,29.5944
-336,554,1.67383,-30.807,-0.0020893,0.0205711,-0.00748463,0.02282,-0.00433824,-1.2789,0.0168466,0.0404398,888,470,1.67384,30.807
-329,554,1.46027,-31.6196,-0.00174262,0.0166863,-0.0063813,0.0186802,-0.00373651,-1.26795,0.0138678,0.0216225,895,470,1.46025,31.6196
-322,554,1.36932,-32.4203,-0.0015654,0.0134936,-0.00531767,0.015182,-0.00325388,-1.26334,0.0113624,0.01515,902,470,1.36932,32.4203
-315,554,1.33466,-33.1923,-0.00137036,0.0109006,-0.00445647,0.0123483,-0.00281803,-1.2567,0.00931473,0.0147483,909,470,1.33466,33.1923
-308,554,1.30103,-33.9888,-0.0010864,0.00862989,-0.00380012,0.0099396,-0.00239611,-1.2389,0.00755288,0.0145782,916,470,1.30104,33.9888
-301,554,1.27356,-34.7959,-0.00073318,0.00666072,-0.00332114,0.00793342,-0.00200588,-1.20485,0.00606909,0.0140525,923,470,1.27357,34.7959
-294,554,1.19385,-35.565,-0.000370509,0.00525743,-0.00277023,0.00639221,-0.00150529,-1.18201,0.00484187,0.0122527,930,470,1.19385,35.565
-287,554,1.1485,-36.328,-8.4998e-05,0.00410889,-0.00222358,0.00506833,-0.00104444,-1.16345,0.0037755,0.0125727,937,470,1.14851,36.328
-280,554,1.10107,-37.0504,0.000189887,0.00295001,-0.00179016,0.00383031,-0.000690414,-1.11377,0.00281207,0.0128695,944,470,1.10105,37.0504
-273,554,1.01855,-37.7801,0.000358457,0.00170394,-0.00129309,0.00248882,-0.000426422,-1.02526,0.0018181,0.0166813,951,470,1.01857,37.78
-266,554,0.985657,-38.5159,0.000461228,0.000267822,-0.000587282,0.000959715,-0.000230666,-0.703799,0.000728967,0.0136746,958,470,0.985671,38.5159
-259,554,0.965027,-39.2051,0.000884276,-0.00137466,0.000222618,0.000906006,-0.00139639,0.0973025,0.0013393,0.0134471,965,470,0.965025,39.2051
-252,554,0.921753,-39.9308,0.00164833,-0.00294153,0.00100352,0.00185815,-0.00315135,0.206112,0.00292418,0.0150782,972,470,0.921766,39.9308
-245,554,0.901001,-40.673,0.00226893,-0.00465425,0.00184559,0.0027302,-0.00511552,0.244912,0.00459898,0.0158709,979,470,0.900977,40.673
-238,554,0.921204,-41.4003,0.00302442,-0.00657619,0.00277504,0.00376882,-0.00732059,0.262079,0.00651102,0.0124605,986,470,0.92119,41.4003
-231,554,0.903259,-42.1116,0.00383303,-0.00872376,0.00380025,0.00489358,-0.00978431,0.27215,0.00862967,0.0119787,993,470,0.903233,42.1116
-224,554,0.888672,-42.7783,0.00468976,-0.0107903,0.00479904,0.00605681,-0.0121574,0.277508,0.0107108,0.0117205,1000,470,0.888694,42.7782
-217,554,0.884399,-43.431,0.00570117,-0.0128844,0.00575975,0.00734139,-0.0145246,0.277429,0.0128494,0.0108981,1007,470,0.88442,43.431
-210,554,0.883362,-44.0841,0.00672953,-0.0150356,0.00660538,0.00857729,-0.0168834,0.272764,0.0149582,0.0146313,1014,470,0.883381,44.0841
-203,554,0.890747,-44.6782,0.00775757,-0.0169536,0.00727188,0.00973867,-0.0189347,0.265979,0.016836,0.0242149,1021,470,0.890756,44.6782
-196,554,0.911865,-45.2053,0.00871398,-0.0186562,0.00773315,0.0107478,-0.02069,0.257173,0.0184507,0.0330714,1028,470,0.91181,45.2052
-189,554,0.928589,-45.7037,0.00933078,-0.0202434,0.00812929,0.011418,-0.0223306,0.251328,0.0198214,0.039606,1035,470,0.928566,45.7037
-182,554,0.894897,-46.1312,0.00950157,-0.0216643,0.0089489,0.0118884,-0.0240511,0.260645,0.021142,0.0483729,1042,470,0.894878,46.1312
-175,554,0.82312,-46.8797,0,0,0,0,0,0,0,-1,1049,470,0.823066,46.8797
-168,554,1.0968,-46.834,0,0,0,0,0,0,0,-1,1056,470,1.09681,46.834
-161,554,1.09583,-42.015,0,0,0,0,0,0,0,-1,1063,470,1.09577,42.015
-154,554,1.03186,-42.7216,0,0,0,0,0,0,0,-1,1070,470,1.03187,42.7216
-147,554,1.4552,-41.5187,0,0,0,0,0,0,0,-1,1077,470,1.45525,41.5187
-140,554,0.428101,-38.9893,0,0,0,0,0,0,0,-1,1084,470,0.428152,38.9893
-133,554,2.67163,-32.8187,0,0,0,0,0,0,0,-1,1091,470,2.67161,32.8187
-126,554,0.851929,-33.5393,0,0,0,0,0,0,0,-1,1098,470,0.851942,33.5393
-119,554,-1.03479,-32.1628,0,0,0,0,0,0,0,-1,1105,470,-1.03476,32.1628
-112,554,1.03162,-24.5784,0,0,0,0,0,0,0,-1,1112,470,1.03156,24.5784
-105,554,0.608765,-21.0475,0,0,0,0,0,0,0,-1,1119,470,0.608728,21.0475
-98,554,1.51929,-7.3624,0,0,0,0,0,0,0,-1,1126,470,1.51928,7.36241
-91,554,1.41089,-6.5864,0,0,0,0,0,0,0,-1,1133,470,1.41093,6.58638
-84,554,1.62305,-5.87186,0,0,0,0,0,0,0,-1,1140,470,1.62299,5.87186
-77,554,-2.56958,1.33258,0,0,0,0,0,0,0,-1,1147,470,-2.56959,-1.33257
-70,554,-3.68164,-1.18332,0,0,0,0,0,0,0,-1,1154,470,-3.68158,1.18331
-63,554,-4.86853,-3.88708,0,0,0,0,0,0,0,-1,1161,470,-4.86853,3.88708
-56,554,-5.69958,-6.45422,0,0,0,0,0,0,0,-1,1168,470,-5.69955,6.45422
-49,554,-6.23645,-8.8569,0,0,0,0,0,0,0,-1,1175,470,-6.23643,8.85689
-42,554,-6.62524,-11.5382,0,0,0,0,0,0,0,-1,1182,470,-6.62522,11.5382
-35,554,-2.40173,-4.59482,0,0,0,0,0,0,0,-1,1189,470,-2.40169,4.59481
-28,554,-0.760132,-1.65555,0,0,0,0,0,0,0,-1,1196,470,-0.760095,1.65556
-21,554,7.92444,-43.2634,0,0,0,0,0,0,0,-1,1203,470,7.92438,43.2634
-14,554,2.6394,-57.1053,0,0,0,0,0,0,0,-1,1210,470,2.6394,57.1054
-7,554,4.14246,-54.6483,0,0,0,0,0,0,0,-1,1217,470,4.1425,54.6483
0,554,9.53613,-55.2457,0,0,0,0,0,0,0,-1,1224,470,9.53616,55.2457
7,554,14.842,-61.8957,0,0,0,0,0,0,0,-1,1231,470,14.842,61.8957
14,554,14.4038,-61.1771,-0.0558219,-0.00839087,-0.000881811,-0.00837448,-0.0558382,-1.55221,0.0347718,0.0487494,1238,470,14.4038,61.1771
21,554,13.9757,-60.4576,-0.0647949,0.00192477,0.0033059,0.00208817,-0.0649583,1.52141,0.0440181,0.0465842,1245,470,13.9758,60.4577
28,554,13.5317,-59.7906,0,0,0,0,0,0,0,-1,1252,470,13.5317,59.7907
35,554,13.0901,-59.0502,0,0,0,0,0,0,0,-1,1259,470,13.0901,59.0502
42,554,12.6709,-58.3567,0,0,0,0,0,0,0,-1,1266,470,12.6709,58.3567
49,554,8.41394,-61.7356,0,0,0,0,0,0,0,-1,1273,470,8.41393,61.7356
56,554,6.34692,-59.1266,0,0,0,0,0,0,0,-1,1280,470,6.34689,59.1266
63,554,5.51819,-58.5803,0,0,0,0,0,0,0,-1,1287,470,5.51822,58.5802
70,554,5.09424,-58.4096,-0.0836294,0.067151,0.0143065,0.0684965,-0.0849748,1.47703,0.0887768,0.0417312,1294,470,5.09423,58.4096
77,554,4.56775,-58.3484,-0.0793586,0.0775186,0.0171508,0.0793718,-0.0812118,1.46316,0.092715,0.0447124,1301,470,4.5678,58.3484
84,554,3.93079,-58.2439,-0.0703817,0.0816851,0.0205162,0.0844044,-0.073101,1.43902,0.0910138,0.0461754,1308,470,3.9308,58.2439
91,554,3.29797,-58.152,0,0,0,0,0,0,0,-1,1315,470,3.29797,58.152
98,554,1.70715,-58.1863,0,0,0,0,0,0,0,-1,1322,470,1.7071,58.1864
105,554,1.02319,-58.0554,0,0,0,0,0,0,0,-1,1329,470,1.02313,58.0554
112,554,0.871338,-58.5909,-0.0375279,0.10259,0.0363557,0.111461,-0.0463993,1.33146,0.0936857,0.044676,1336,470,0.871359,58.591
119,554,0.525879,-58.5724,-0.0335653,0.106612,0.0404863,0.117465,-0.0444183,1.30889,0.0965829,0.0451068,1343,470,0.525888,58.5724
126,554,0.0180664,-58.6077,0,0,0,0,0,0,0,-1,1350,470,0.0180608,58.6078
133,554,-0.595215,-58.7241,0,0,0,0,0,0,0,-1,1357,470,-0.595192,58.724
140,554,-1.13306,-58.787,0,0,0,0,0,0,0,-1,1364,470,-1.13302,58.787
147,554,3.19788,-67.9967,0,0,0,0,0,0,0,-1,1371,470,3.19791,67.9967
154,554,2.79199,-69.7485,0,0,0,0,0,0,0,-1,1378,470,2.79198,69.7485
161,554,2.5188,-70.3378,0,0,0,0,0,0,0,-1,1385,470,2.51883,70.3378
168,554,2.19226,-70.7622,0,0,0,0,0,0,0,-1,1392,470,2.19222,70.7622
175,554,10.663,0.286957,0,0,0,0,0,0,0,-1,1399,470,10.663,-0.286966
182,554,6.71106,-4.50217,0,0,0,0,0,0,0,-1,1406,470,6.71107,4.50215
189,554,6.90479,-2.50348,0,0,0,0,0,0,0,-1,1413,470,6.90477,2.50348
196,554,6.96216,-0.740906,0,0,0,0,0,0,0,-1,1420,470,6.96214,0.740912
203,554,6.43518,0.414154,0,0,0,0,0,0,0,-1,1427,470,6.43523,-0.414141
210,554,6.21167,1.96707,0,0,0,0,0,0,0,-1,1434,470,6.21165,-1.96706
217,554,5.64551,3.4989,0,0,0,0,0,0,0,-1,1441,470,5.64555,-3.49891
224,554,4.85144,-8.85172,0,0,0,0,0,0,0,-1,1448,470,4.85146,8.85173
231,554,3.25073,-5.29642,0,0,0,0,0,0,0,-1,1455,470,3.25078,5.29642
238,554,4.28625,-3.25253,0,0,0,0,0,0,0,-1,1462,470,4.28622,3.25252
245,554,4.0752,-2.90033,0,0,0,0,0,0,0,-1,1469,470,4.07515,2.90032
252,554,3.52112,-0.934998,0,0,0,0,0,0,0,-1,1476,470,3.52113,0.934996
259,554,3.96448,-2.16425,0,0,0,0,0,0,0,-1,1483,470,3.96446,2.16424
266,554,3.0592,-2.71716,0,0,0,0,0,0,0,-1,1490,470,3.05923,2.71718
273,554,2.58521,-3.06876,0,0,0,0,0,0,0,-1,1497,470,2.58524,3.06874
280,554,2.83301,-0.991699,0,0,0,0,0,0,0,-1,1504,470,2.83303,0.991704
287,554,12.9904,-47.3695,0,0,0,0,0,0,0,-1,1511,470,12.9903,47.3695
294,554,13.6538,-46.7581,0,0,0,0,0,0,0,-1,1518,470,13.6539,46.7581
301,554,13.1619,-46.1837,0,0,0,0,0,0,0,-1,1525,470,13.1618,46.1837
308,554,13.4606,-46.1251,0,0,0,0,0,0,0,-1,1532,470,13.4606,46.1251
315,554,13.5037,-45.3587,0.00531626,-0.026221,-0.0109899,0.00876813,-0.0296728,-0.304337,0.0232621,0.0474209,1539,470,13.5037,45.3587
322,554,13.4661,-44.8625,0.00495276,-0.0230851,-0.0103213,0.00834247,-0.0264748,-0.317319,0.0209907,0.035766,1546,470,13.466,44.8625
329,554,13.5248,-44.3441,0.00449607,-0.0198479,-0.00948023,0.00775237,-0.0231042,-0.330858,0.0185354,0.0201697,1553,470,13.5248,44.3441
336,554,13.5044,-43.7565,0.00385782,-0.0168073,-0.0085969,0.00696656,-0.0199161,-0.346981,0.0161097,0.0127872,1560,470,13.5044,43.7565
343,554,13.4935,-43.102,0.00316904,-0.0137201,-0.00747894,0.00600478,-0.0165558,-0.362416,0.0134918,0.0106718,1567,470,13.4936,43.102
350,554,13.4714,-42.3813,0.00275301,-0.0107698,-0.00617845,0.00515074,-0.0131676,-0.370188,0.0109085,0.0102978,1574,470,13.4714,42.3813
357,554,13.4792,-41.6757,0.00229735,-0.00796565,-0.00490206,0.00426251,-0.0099308,-0.381267,0.00840951,0.0113591,1581,470,13.4793,41.6757
364,554,13.4612,-40.9873,0.00180936,-0.00567269,-0.00358912,0.00325265,-0.00711597,-0.382339,0.00612327,0.00968772,1588,470,13.4612,40.9873
371,554,13.4264,-40.2608,0.00149186,-0.00336177,-0.00235228,0.00244479,-0.0043147,-0.384902,0.00395205,0.00983209,1595,470,13.4264,40.2608
378,554,13.3824,-39.5089,0.00119157,-0.00138216,-0.00125098,0.00169941,-0.00189001,-0.38563,0.00207333,0.0108279,1602,470,13.3824,39.5088
385,554,13.3577,-38.7748,0.000760955,0.000431589,-0.000212753,0.000865315,0.000327228,-0.456038,0.00050451,0.0100561,1609,470,13.3576,38.7748
392,554,13.3258,-38.0219,0.000755825,0.00167365,0.000732863,0.00207942,0.000350047,1.06512,0.00128559,0.0141133,1616,470,13.3258,38.0219
399,554,13.2678,-37.2517,0.00105176,0.0025811,0.00150088,0.00350088,0.000131981,1.021,0.00229119,0.0191081,1623,470,13.2678,37.2517
406,554,13.2435,-36.4636,0.00117567,0.00353859,0.00206695,0.00473791,-2.36521e-05,1.04503,0.00316652,0.0171692,1630,470,13.2435,36.4636
413,554,13.2246,-35.7254,0.00124449,0.00408249,0.0025093,0.00554622,-0.000219243,1.04273,0.00377269,0.015028,1637,470,13.2246,35.7254
420,554,13.1818,-34.9712,0.0013048,0.00429166,0.00283841,0.00600556,-0.000409093,1.02757,0.0041468,0.0162383,1644,470,13.1818,34.9712
427,554,13.1556,-34.1936,0.00139029,0.00407099,0.00312073,0.00612704,-0.000665756,0.988235,0.00432373,0.0121972,1651,470,13.1557,34.1936
434,554,13.1016,-33.4254,0.00155664,0.00394153,0.00342738,0.00637797,-0.000879805,0.952808,0.00457355,0.010459,1658,470,13.1015,33.4253
441,554,13.0575,-32.6238,0.00161592,0.00363342,0.00367547,0.00643605,-0.00118672,0.919328,0.00473609,0.0116934,1665,470,13.0575,32.6238
448,554,13.0366,-31.7766,0.00152633,0.00312787,0.00381648,0.00622668,-0.00157248,0.888808,0.00476261,0.0166402,1672,470,13.0366,31.7766
455,554,12.967,-31.0088,0.00129531,0.00249164,0.00392174,0.00586058,-0.00207362,0.861078,0.00475156,0.0183019,1679,470,12.9671,31.0088
462,554,12.8528,-30.2464,0.000997307,0.0020153,0.00400512,0.00554363,-0.00253103,0.848602,0.00476884,0.0213501,1686,470,12.8528,30.2464
469,554,12.6991,-29.4499,0.000723011,0.00150435,0.0040222,0.00515481,-0.00292745,0.833811,0.00472499,0.0268532,1693,470,12.6991,29.4499
476,554,12.5621,-28.5865,0.000413665,0.000823992,0.00393992,0.00456409,-0.00332643,0.811411,0.00457423,0.045485,1700,470,12.5622,28.5865
483,554,12.4657,-27.74,0,0,0,0,0,0,0,-1,1707,470,12.4657,27.74
490,554,12.5504,-17.9805,0,0,0,0,0,0,0,-1,1714,470,12.5505,17.9805
497,554,14.3204,-17.9055,0,0,0,0,0,0,0,-1,1721,470,14.3204,17.9055
504,554,2.13257,-3.81628,0,0,0,0,0,0,0,-1,1728,470,2.1326,3.8163
511,554,1.31396,-4.02713,0,0,0,0,0,0,0,-1,1735,470,1.31398,4.02712
518,554,5.04236,-5.9472,0,0,0,0,0,0,0,-1,1742,470,5.04231,5.94721
525,554,0,0,0,0,0,0,0,0,0,-1,1749,470,0,0
532,554,0,0,0,0,0,0,0,0,0,-1,1756,470,0,0
539,554,0,0,0,0,0,0,0,0,0,-1,1763,470,0,0
546,554,0,0,0,0,0,0,0,0,0,-1,1770,470,0,0
553,554,0,0,0,0,0,0,0,0,0,-1,1777,470,0,0
560,554,0,0,0,0,0,0,0,0,0,-1,1784,470,0,0
567,554,0,0,0,0,0,0,0,0,0,-1,1791,470,0,0
574,554,0,0,0,0,0,0,0,0,0,-1,1798,470,0,0
581,554,0,0,0,0,0,0,0,0,0,-1,1805,470,0,0
588,554,0,0,0,0,0,0,0,0,0,-1,1812,470,0,0
595,554,0,0,0,0,0,0,0,0,0,-1,1819,470,0,0
602,554,0,0,0,0,0,0,0,0,0,-1,1826,470,0,0
609,554,0,0,0,0,0,0,0,0,0,-1,1833,470,0,0
616,554,0,0,0,0,0,0,0,0,0,-1,1840,470,0,0
623,554,0,0,0,0,0,0,0,0,0,-1,1847,470,0,0
630,554,0,0,0,0,0,0,0,0,0,-1,1854,470,0,0
637,554,0,0,0,0,0,0,0,0,0,-1,1861,470,0,0
644,554,0,0,0,0,0,0,0,0,0,-1,1868,470,0,0
651,554,0,0,0,0,0,0,0,0,0,-1,1875,470,0,0
658,554,0,0,0,0,0,0,0,0,0,-1,1882,470,0,0
665,554,0,0,0,0,0,0,0,0,0,-1,1889,470,0,0
672,554,0,0,0,0,0,0,0,0,0,-1,1896,470,0,0
679,554,0,0,0,0,0,0,0,0,0,-1,1903,470,0,0
686,554,0,0,0,0,0,0,0,0,0,-1,1910,470,0,0
693,554,0,0,0,0,0,0,0,0,0,-1,1917,470,0,0
700,554,0,0,0,0,0,0,0,0,0,-1,1924,470,0,0
707,554,0,0,0,0,0,0,0,0,0,-1,1931,470,0,0
714,554,0,0,0,0,0,0,0,0,0,-1,1938,470,0,0
721,554,0,0,0,0,0,0,0,0,0,-1,1945,470,0,0
728,554,0,0,0,0,0,0,0,0,0,-1,1952,470,0,0
735,554,0,0,0,0,0,0,0,0,0,-1,1959,470,0,0
742,554,0,0,0,0,0,0,0,0,0,-1,1966,470,0,0
749,554,0,0,0,0,0,0,0,0,0,-1,1973,470,0,0
756,554,0,0,0,0,0,0,0,0,0,-1,1980,470,0,0
763,554,0,0,0,0,0,0,0,0,0,-1,1987,470,0,0
770,554,0,0,0,0,0,0,0,0,0,-1,1994,470,0,0
777,554,0,0,0,0,0,0,0,0,0,-1,2001,470,0,0
784,554,0,0,0,0,0,0,0,0,0,-1,2008,470,0,0
791,554,0,0,0,0,0,0,0,0,0,-1,2015,470,0,0
798,554,0,0,0,0,0,0,0,0,0,-1,2022,470,0,0
805,554,0,0,0,0,0,0,0,0,0,-1,2029,470,0,0
812,554,0,0,0,0,0,0,0,0,0,-1,2036,470,0,0
-700,547,0,0,0,0,0,0,0,0,0,-1,524,477,0,0
-693,547,0,0,0,0,0,0,0,0,0,-1,531,477,0,0
-686,547,0,0,0,0,0,0,0,0,0,-1,538,477,0,0
-679,547,0,0,0,0,0,0,0,0,0,-1,545,477,0,0
-672,547,0,0,0,0,0,0,0,0,0,-1,552,477,0,0
-665,547,0,0,0,0,0,0,0,0,0,-1,559,477,0,0
-658,547,0,0,0,0,0,0,0,0,0,-1,566,477,0,0
-651,547,0,0,0,0,0,0,0,0,0,-1,573,477,0,0
-644,547,0,0,0,0,0,0,0,0,0,-1,580,477,0,0
-637,547,0,0,0,0,0,0,0,0,0,-1,587,477,0,0
-630,547,0,0,0,0,0,0,0,0,0,-1,594,477,0,0
-623,547,0,0,0,0,0,0,0,0,0,-1,601,477,0,0
-616,547,0,0,0,0,0,0,0,0,0,-1,608,477,0,0
-609,547,0,0,0,0,0,0,0,0,0,-1,615,477,0,0
-602,547,0,0,0,0,0,0,0,0,0,-1,622,477,0,0
-595,547,0,0,0,0,0,0,0,0,0,-1,629,477,0,0
-588,547,0,0,0,0,0,0,0,0,0,-1,636,477,0,0
-581,547,0,0,0,0,0,0,0,0,0,-1,643,477,0,0
-574,547,0,0,0,0,0,0,0,0,0,-1,650,477,0,0
-567,547,0,0,0,0,0,0,0,0,0,-1,657,477,0,0
-560,547,0,0,0,0,0,0,0,0,0,-1,664,477,0,0
-553,547,0,0,0,0,0,0,0,0,0,-1,671,477,0,0
-546,547,0,0,0,0,0,0,0,0,0,-1,678,477,0,0
-539,547,0,0,0,0,0,0,0,0,0,-1,685,477,0,0
-532,547,0,0,0,0,0,0,0,0,0,-1,692,477,0,0
-525,547,0,0,0,0,0,0,0,0,0,-1,699,477,0,0
-518,547,0,0,0,0,0,0,0,0,0,-1,706,477,0,0
-511,547,0,0,0,0,0,0,0,0,0,-1,713,477,0,0
-504,547,0,0,0,0,0,0,0,0,0,-1,720,477,0,0
-497,547,0,0,0,0,0,0,0,0,0,-1,727,477,0,0
-490,547,0,0,0,0,0,0,0,0,0,-1,734,477,0,0
-483,547,0,0,0,0,0,0,0,0,0,-1,741,477,0,0
-476,547,0,0,0,0,0,0,0,0,0,-1,748,477,0,0
-469,547,0,0,0,0,0,0,0,0,0,-1,755,477,0,0
-462,547,0,0,0,0,0,0,0,0,0,-1,762,477,0,0
-455,547,0,0,0,0,0,0,0,0,0,-1,769,477,0,0
-448,547,0,0,0,0,0,0,0,0,0,-1,776,477,0,0
-441,547,0,0,0,0,0,0,0,0,0,-1,783,477,0,0
-434,547,0,0,0,0,0,0,0,0,0,-1,790,477,0,0
-427,547,0,0,0,0,0,0,0,0,0,-1,797,477,0,0
-420,547,0,0,0,0,0,0,0,0,0,-1,804,477,0,0
-413,547,0,0,0,0,0,0,0,0,0,-1,811,477,0,0
-406,547,0.144592,-11.0292,0,0,0,0,0,0,0,-1,818,477,0.144583,11.0292
-399,547,0.775513,-10.0294,0,0,0,0,0,0,0,-1,825,477,0.775482,10.0295
-392,547,-1.52271,-4.41675,0,0,0,0,0,0,0,-1,832,477,-1.52273,4.41674
-385,547,-1.73743,-4.6431,0,0,0,0,0,0,0,-1,839,477,-1.73743,4.64308
-378,547,1.77954,-24.7142,0,0,0,0,0,0,0,-1,846,477,1.77951,24.7142
-371,547,1.43896,-25.6751,0,0,0,0,0,0,0,-1,853,477,1.43897,25.6751
-364,547,1.33228,-26.4501,0.000634229,0.0384255,-0.0141976,0.0431649,-0.0041052,-1.24861,0.030238,0.0479841,860,477,1.33225,26.4501
-357,547,1.30884,-27.3285,-0.000281815,0.0318563,-0.0119646,0.0358214,-0.0042469,-1.25079,0.0254151,0.0477819,867,477,1.30885,27.3285
-350,547,1.00299,-28.6545,0,0,0,0,0,0,0,-1,874,477,1.00302,28.6545
-343,547,0.874817,-29.6867,-0.00142529,0.0212417,-0.00808772,0.0238316,-0.00401513,-1.2609,0.0173814,0.0458936,881,477,0.874808,29.6867
-336,547,0.811035,-30.7781,-0.00137302,0.0172889,-0.0067718,0.0194872,-0.00357134,-1.2569,0.014331,0.0185252,888,477,0.811021,30.7781
-329,547,0.685547,-31.5948,-0.00123231,0.0138764,-0.00558474,0.0157166,-0.0030725,-1.2525,0.0116379,0.0109419,895,477,0.685545,31.5948
-322,547,0.633667,-32.3841,-0.00120634,0.0109616,-0.00443386,0.0124059,-0.00265057,-1.25591,0.00928113,0.0114174,902,477,0.633663,32.3841
-315,547,0.57605,-33.2102,-0.00109759,0.00860796,-0.00350874,0.00974357,-0.0022332,-1.25779,0.00735402,0.0107676,909,477,0.576061,33.2102
-308,547,0.555481,-33.9918,-0.00085272,0.00656865,-0.00281035,0.00751277,-0.00179685,-1.2467,0.00570262,0.0122757,916,477,0.555505,33.9918
-301,547,0.516846,-34.7612,-0.000544259,0.00480792,-0.00228087,0.00564805,-0.0013844,-1.21788,0.00430174,0.0113798,923,477,0.516865,34.7612
-294,547,0.432617,-35.5136,-0.00018304,0.0034977,-0.00170928,0.00416902,-0.000854361,-1.19655,0.00310358,0.00981849,930,477,0.432604,35.5136
-287,547,0.376709,-36.2681,0.000145781,0.00236548,-0.00115645,0.00285848,-0.000347225,-1.16782,0.00203131,0.0119825,937,477,0.376733,36.2681
-280,547,0.353516,-37.0024,0.000405934,0.00105087,-0.000681607,0.00148244,-2.56369e-05,-1.00635,0.000996948,0.0140001,944,477,0.353496,37.0024
-273,547,0.313232,-37.7379,0.000516386,-0.000394219,-0.000132758,0.000535346,-0.000413179,-0.141858,0.000549143,0.0131964,951,477,0.313229,37.7379
-266,547,0.262695,-38.4742,0.000638001,-0.00189583,0.00066888,0.000803732,-0.00206156,0.242882,0.00170658,0.0129487,958,477,0.262692,38.4742
-259,547,0.230957,-39.1782,0.001205,-0.0036073,0.00160746,0.00169255,-0.00409485,0.294485,0.00343597,0.0122296,965,477,0.230932,39.1783
-252,547,0.235413,-39.9172,0.00217528,-0.00536172,0.00242809,0.00288977,-0.00607621,0.286183,0.00528436,0.0120051,972,477,0.235427,39.9171
-245,547,0.227966,-40.647,0.00289388,-0.007284,0.00337309,0.00391027,-0.0083004,0.29267,0.00720011,0.0131518,979,477,0.227989,40.6471
-238,547,0.213074,-41.3622,0.00379037,-0.00941141,0.00442267,0.00513503,-0.0107561,0.295157,0.0093641,0.00928799,986,477,0.213046,41.3622
-231,547,0.199768,-42.0696,0.0048298,-0.0117595,0.00556115,0.00652152,-0.0134512,0.295309,0.0117603,0.00873245,993,477,0.199759,42.0697
-224,547,0.185425,-42.717,0.00594341,-0.0140634,0.00672884,0.00799593,-0.0161159,0.296068,0.0141817,0.0106723,1000,477,0.185437,42.717
-217,547,0.167908,-43.332,0.00725798,-0.0163539,0.00787253,0.00964206,-0.018738,0.294057,0.0166634,0.0160605,1007,477,0.167929,43.3321
-210,547,0.167297,-43.869,0.00863346,-0.0187147,0.00889206,0.0112704,-0.0213516,0.288289,0.0191317,0.0276588,1014,477,0.167294,43.869
-203,547,0.33075,-44.2211,0.0100357,-0.0208602,0.00970049,0.0128289,-0.0236534,0.280358,0.0213699,0.041498,1021,477,0.330754,44.2211
-196,547,0.451782,-44.5339,0,0,0,0,0,0,0,-1,1028,477,0.451723,44.5339
-189,547,0.206421,-45.1371,0,0,0,0,0,0,0,-1,1035,477,0.206443,45.1371
-182,547,0.0614014,-45.4891,0,0,0,0,0,0,0,-1,1042,477,0.0613475,45.4891
-175,547,0.253174,-45.8817,0,0,0,0,0,0,0,-1,1049,477,0.253132,45.8817
-168,547,0.761719,-32.9387,0,0,0,0,0,0,0,-1,1056,477,0.761738,32.9387
-161,547,0.0430908,-34.6016,0,0,0,0,0,0,0,-1,1063,477,0.0431231,34.6016
-154,547,-0.284424,-31.1176,0,0,0,0,0,0,0,-1,1070,477,-0.284395,31.1176
-147,547,3.69434,-26.413,0,0,0,0,0,0,0,-1,1077,477,3.69437,26.413
-140,547,1.55676,-22.5229,0,0,0,0,0,0,0,-1,1084,477,1.5568,22.5229
-133,547,2.31665,-17.9421,0,0,0,0,0,0,0,-1,1091,477,2.31667,17.9421
-126,547,-1.15271,-30.6984,0,0,0,0,0,0,0,-1,1098,477,-1.15267,30.6984
-119,547,0.967651,-24.9351,0,0,0,0,0,0,0,-1,1105,477,0.967657,24.9351
-112,547,1.15674,-22.2276,0,0,0,0,0,0,0,-1,1112,477,1.15677,22.2276
-105,547,0.966797,-20.5777,0,0,0,0,0,0,0,-1,1119,477,0.966804,20.5777
-98,547,0.70166,-18.9755,0,0,0,0,0,0,0,-1,1126,477,0.701713,18.9755
-91,547,1.37805,-7.12024,0,0,0,0,0,0,0,-1,1133,477,1.37804,7.12025
-84,547,1.94202,-6.66241,0,0,0,0,0,0,0,-1,1140,477,1.94201,6.66241
-77,547,-2.28357,1.8588,0,0,0,0,0,0,0,-1,1147,477,-2.28356,-1.85879
-70,547,-3.70178,-0.874908,0,0,0,0,0,0,0,-1,1154,477,-3.70182,0.874918
-63,547,-5.12012,-3.60861,0,0,0,0,0,0,0,-1,1161,477,-5.12009,3.60862
-56,547,-6.01917,-6.2399,0,0,0,0,0,0,0,-1,1168,477,-6.01921,6.23991
-49,547,-6.729,-8.60349,0,0,0,0,0,0,0,-1,1175,477,-6.72899,8.60348
-42,547,-2.41736,-5.53012,0,0,0,0,0,0,0,-1,1182,477,-2.41734,5.53011
-35,547,-2.96838,-4.45734,0,0,0,0,0,0,0,-1,1189,477,-2.96839,4.45734
-28,547,-0.869141,-1.29901,0,0,0,0,0,0,0,-1,1196,477,-0.869135,1.29901
-21,547,-7.68262,-30.8089,0,0,0,0,0,0,0,-1,1203,477,-7.68256,30.8089
-14,547,12.377,-55.4496,0,0,0,0,0,0,0,-1,1210,477,12.377,55.4496
-7,547,4.08606,-54.6218,0,0,0,0,0,0,0,-1,1217,477,4.0861,54.6218
0,547,13.0702,-56.3131,0,0,0,0,0,0,0,-1,1224,477,13.0702,56.3131
7,547,8.28198,-56.8908,0,0,0,0,0,0,0,-1,1231,477,8.28199,56.8908
14,547,0,0,0,0,0,0,0,0,0,-1,1238,477,0,0
21,547,0,0,0,0,0,0,0,0,0,-1,1245,477,0,0
28,547,0,0,0,0,0,0,0,0,0,-1,1252,477,0,0
35,547,0,0,0,0,0,0,0,0,0,-1,1259,477,0,0
42,547,0,0,0,0,0,0,0,0,0,-1,1266,477,0,0
49,547,0,0,0,0,0,0,0,0,0,-1,1273,477,0,0
56,547,0,0,0,0,0,0,0,0,0,-1,1280,477,0,0
63,547,0,0,0,0,0,0,0,0,0,-1,1287,477,0,0
70,547,0,0,0,0,0,0,0,0,0,-1,1294,477,0,0
77,547,0,0,0,0,0,0,0,0,0,-1,1301,477,0,0
84,547,0,0,0,0,0,0,0,0,0,-1,1308,477,0,0
91,547,0,0,0,0,0,0,0,0,0,-1,1315,477,0,0
98,547,0,0,0,0,0,0,0,0,0,-1,1322,477,0,0
105,547,0.194458,-59.3774,0,0,0,0,0,0,0,-1,1329,477,0.19446,59.3774
112,547,0.352051,-59.424,-0.0355706,0.119257,0.0359925,0.127215,-0.0435287,1.35319,0.10245,0.046952,1336,477,0.352105,59.424
119,547,0.224121,-59.2823,-0.0296035,0.126158,0.042345,0.136926,-0.040371,1.32179,0.107303,0.0463328,1343,477,0.224137,59.2824
126,547,-0.609375,-59.6636,0,0,0,0,0,0,0,-1,1350,477,-0.609328,59.6636
133,547,-1.1925,-59.7703,0,0,0,0,0,0,0,-1,1357,477,-1.19256,59.7703
140,547,-1.6875,-59.8236,0,0,0,0,0,0,0,-1,1364,477,-1.6875,59.8236
147,547,2.81067,-68.8452,0,0,0,0,0,0,0,-1,1371,477,2.81066,68.8451
154,547,2.70801,-69.8948,0,0,0,0,0,0,0,-1,1378,477,2.70798,69.8948
161,547,2.22986,-70.2653,0,0,0,0,0,0,0,-1,1385,477,2.22983,70.2653
168,547,0.68689,-68.7853,0,0,0,0,0,0,0,-1,1392,477,0.68688,68.7854
175,547,3.35034,-0.26532,0,0,0,0,0,0,0,-1,1399,477,3.3503,0.265306
182,547,4.26038,3.72672,0,0,0,0,0,0,0,-1,1406,477,4.26039,-3.7267
189,547,3.40454,1.28671,0,0,0,0,0,0,0,-1,1413,477,3.40457,-1.28673
196,547,3.53931,1.87793,0,0,0,0,0,0,0,-1,1420,477,3.53928,-1.87794
203,547,6.49414,-0.425842,0,0,0,0,0,0,0,-1,1427,477,6.4941,0.425844
210,547,4.82092,0.53595,0,0,0,0,0,0,0,-1,1434,477,4.82096,-0.535942
217,547,4.68579,0.480072,0,0,0,0,0,0,0,-1,1441,477,4.68577,-0.480069
224,547,4.55615,0.739807,0,0,0,0,0,0,0,-1,1448,477,4.55613,-0.73981
231,547,5.90869,-3.57721,0,0,0,0,0,0,0,-1,1455,477,5.90871,3.57722
238,547,5.50049,-3.15356,0,0,0,0,0,0,0,-1,1462,477,5.50045,3.15356
245,547,5.13708,-2.65213,0,0,0,0,0,0,0,-1,1469,477,5.13708,2.65212
252,547,3.73511,-0.645233,0,0,0,0,0,0,0,-1,1476,477,3.73515,0.645237
259,547,5.86816,-3.20816,0,0,0,0,0,0,0,-1,1483,477,5.86815,3.20816
266,547,5.40222,-2.45731,0,0,0,0,0,0,0,-1,1490,477,5.40221,2.45732
273,547,3.05737,0.495789,0,0,0,0,0,0,0,-1,1497,477,3.05742,-0.49578
280,547,2.0885,1.47797,0,0,0,0,0,0,0,-1,1504,477,2.08848,-1.47795
287,547,2.31177,-2.21716,0,0,0,0,0,0,0,-1,1511,477,2.31174,2.21717
294,547,2.4823,-3.03659,0,0,0,0,0,0,0,-1,1518,477,2.48229,3.0366
301,547,13.7034,-45.613,0,0,0,0,0,0,0,-1,1525,477,13.7033,45.6131
308,547,14.2695,-44.3525,0,0,0,0,0,0,0,-1,1532,477,14.2695,44.3525
315,547,14.1459,-44.8585,0,0,0,0,0,0,0,-1,1539,477,14.1459,44.8585
322,547,14.1276,-44.5237,0,0,0,0,0,0,0,-1,1546,477,14.1276,44.5237
329,547,14.1996,-43.8903,0.00546293,-0.0260448,-0.0128742,0.0100543,-0.0306362,-0.342573,0.0244739,0.0471332,1553,477,14.1996,43.8903
336,547,14.5592,-43.5724,0.00465009,-0.022057,-0.0116759,0.00903478,-0.0264416,-0.359237,0.0212883,0.0356634,1560,477,14.5591,43.5724
343,547,14.3572,-43.0715,0.00378774,-0.0181633,-0.0102255,0.007813,-0.0221885,-0.375019,0.017972,0.0296236,1567,477,14.3572,43.0716
350,547,14.2358,-42.3623,0.00328859,-0.0145879,-0.00859896,0.00675334,-0.0180527,-0.383027,0.0148087,0.0211716,1574,477,14.2358,42.3623
357,547,14.2039,-41.6572,0.00275328,-0.0112076,-0.00702845,0.00567868,-0.014133,-0.394413,0.0117803,0.0145348,1581,477,14.2038,41.6572
364,547,14.1765,-40.941,0.00217444,-0.00850383,-0.00546843,0.00447796,-0.0108073,-0.398681,0.00907366,0.0106175,1588,477,14.1766,40.941
371,547,14.175,-40.2098,0.00181396,-0.00579781,-0.00402549,0.00354787,-0.00753172,-0.406717,0.00653319,0.0105143,1595,477,14.1751,40.2098
378,547,14.1583,-39.4848,0.00147922,-0.00350511,-0.00273159,0.00268468,-0.00471057,-0.4156,0.00432273,0.0117834,1602,477,14.1583,39.4848
385,547,14.1093,-38.7376,0.000968266,-0.00137837,-0.00144669,0.00165763,-0.00206773,-0.444681,0.00215518,0.0116304,1609,477,14.1092,38.7376
392,547,14.0817,-37.9812,0.000892462,3.05775e-06,-0.000319653,0.000995426,-9.99063e-05,-0.311617,0.000699302,0.0122836,1616,477,14.0816,37.9812
399,547,14.0316,-37.2269,0.00106566,0.00106173,0.000441512,0.00150521,0.000622179,0.783177,0.000873374,0.0139979,1623,477,14.0316,37.2269
406,547,14.0016,-36.4837,0.00113741,0.00219441,0.0010616,0.00285179,0.000480029,1.01636,0.0017631,0.0139687,1630,477,14.0016,36.4837
413,547,13.9977,-35.7272,0.00116741,0.0028603,0.00157338,0.00380047,0.000227233,1.03218,0.0024614,0.0139382,1637,477,13.9976,35.7272
420,547,13.9716,-34.9637,0.00117263,0.00317277,0.0019542,0.00436792,-2.25287e-05,1.0219,0.00291949,0.0159695,1644,477,13.9715,34.9638
427,547,13.9437,-34.181,0.00117686,0.00314934,0.00228022,0.00464747,-0.000321266,0.989509,0.00321077,0.0158534,1651,477,13.9437,34.181
434,547,13.8638,-33.4233,0.0012619,0.0031362,0.00262126,0.0049828,-0.000584697,0.957077,0.00353293,0.0107776,1658,477,13.8638,33.4233
441,547,13.792,-32.632,0.00128176,0.00303976,0.00293614,0.00522565,-0.000904133,0.930839,0.00382097,0.0107861,1665,477,13.792,32.632
448,547,13.7478,-31.8349,0.00117488,0.00275143,0.0031477,0.00520806,-0.00128175,0.908089,0.00396889,0.0113776,1672,477,13.7479,31.8349
455,547,13.7168,-31.0455,0.000961772,0.00240399,0.00333587,0.0050958,-0.00173004,0.891845,0.00409749,0.0121077,1679,477,13.7168,31.0455
462,547,13.6439,-30.2379,0.000766471,0.00216568,0.003507,0.00504217,-0.00211002,0.88385,0.00424342,0.0124047,1686,477,13.644,30.2379
469,547,13.5209,-29.3922,0.000697494,0.00195359,0.00364677,0.00502599,-0.00237491,0.870672,0.00436334,0.0211498,1693,477,13.5209,29.3922
476,547,13.4449,-28.3949,0.000577666,0.00168689,0.0037292,0.00490249,-0.00263793,0.859218,0.00441842,0.0365267,1700,477,13.4449,28.3949
483,547,13.4473,-27.3505,0,0,0,0,0,0,0,-1,1707,477,13.4473,27.3505
490,547,3.65271,-3.71707,0,0,0,0,0,0,0,-1,1714,477,3.65277,3.71708
497,547,2.55481,-3.81421,0,0,0,0,0,0,0,-1,1721,477,2.55476,3.8142
504,547,4.01953,-2.22714,0,0,0,0,0,0,0,-1,1728,477,4.0195,2.22713
511,547,5.2146,-6.9552,0,0,0,0,0,0,0,-1,1735,477,5.21464,6.95521
518,547,5.24243,-6.56122,0,0,0,0,0,0,0,-1,1742,477,5.24241,6.56121
525,547,5.89368,-5.49866,0,0,0,0,0,0,0,-1,1749,477,5.89372,5.49866
532,547,0,0,0,0,0,0,0,0,0,-1,1756,477,0,0
539,547,0,0,0,0,0,0,0,0,0,-1,1763,477,0,0
546,547,0,0,0,0,0,0,0,0,0,-1,1770,477,0,0
553,547,0,0,0,0,0,0,0,0,0,-1,1777,477,0,0
560,547,0,0,0,0,0,0,0,0,0,-1,1784,477,0,0
567,547,0,0,0,0,0,0,0,0,0,-1,1791,477,0,0
574,547,0,0,0,0,0,0,0,0,0,-1,1798,477,0,0
581,547,0,0,0,0,0,0,0,0,0,-1,1805,477,0,0
588,547,0,0,0,0,0,0,0,0,0,-1,1812,477,0,0
595,547,0,0,0,0,0,0,0,0,0,-1,1819,477,0,0
602,547,0,0,0,0,0,0,0,0,0,-1,1826,477,0,0
609,547,0,0,0,0,0,0,0,0,0,-1,1833,477,0,0
616,547,0,0,0,0,0,0,0,0,0,-1,1840,477,0,0
623,547,0,0,0,0,0,0,0,0,0,-1,1847,477,0,0
630,547,0,0,0,0,0,0,0,0,0,-1,1854,477,0,0
637,547,0,0,0,0,0,0,0,0,0,-1,1861,477,0,0
644,547,0,0,0,0,0,0,0,0,0,-1,1868,477,0,0
651,547,0,0,0,0,0,0,0,0,0,-1,1875,477,0,0
658,547,0,0,0,0,0,0,0,0,0,-1,1882,477,0,0
665,547,0,0,0,0,0,0,0,0,0,-1,1889,477,0,0
672,547,0,0,0,0,0,0,0,0,0,-1,1896,477,0,0
679,547,0,0,0,0,0,0,0,0,0,-1,1903,477,0,0
686,547,0,0,0,0,0,0,0,0,0,-1,1910,477,0,0
693,547,0,0,0,0,0,0,0,0,0,-1,1917,477,0,0
700,547,0,0,0,0,0,0,0,0,0,-1,1924,477,0,0
707,547,0,0,0,0,0,0,0,0,0,-1,1931,477,0,0
714,547,0,0,0,0,0,0,0,0,0,-1,1938,477,0,0
721,547,0,0,0,0,0,0,0,0,0,-1,1945,477,0,0
728,547,0,0,0,0,0,0,0,0,0,-1,1952,477,0,0
735,547,0,0,0,0,0,0,0,0,0,-1,1959,477,0,0
742,547,0,0,0,0,0,0,0,0,0,-1,1966,477,0,0
749,547,0,0,0,0,0,0,0,0,0,-1,1973,477,0,0
756,547,0,0,0,0,0,0,0,0,0,-1,1980,477,0,0
763,547,0,0,0,0,0,0,0,0,0,-1,1987,477,0,0
770,547,0,0,0,0,0,0,0,0,0,-1,1994,477,0,0
777,547,0,0,0,0,0,0,0,0,0,-1,2001,477,0,0
784,547,0,0,0,0,0,0,0,0,0,-1,2008,477,0,0
791,547,0,0,0,0,0,0,0,0,0,-1,2015,477,0,0
798,547,0,0,0,0,0,0,0,0,0,-1,2022,477,0,0
805,547,0,0,0,0,0,0,0,0,0,-1,2029,477,0,0
812,547,0,0,0,0,0,0,0,0,0,-1,2036,477,0,0
-700,540,0,0,0,0,0,0,0,0,0,-1,524,484,0,0
-693,540,0,0,0,0,0,0,0,0,0,-1,531,484,0,0
-686,540,0,0,0,0,0,0,0,0,0,-1,538,484,0,0
-679,540,0,0,0,0,0,0,0,0,0,-1,545,484,0,0
-672,540,0,0,0,0,0,0,0,0,0,-1,552,484,0,0
-665,540,0,0,0,0,0,0,0,0,0,-1,559,484,0,0
-658,540,0,0,0,0,0,0,0,0,0,-1,566,484,0,0
-651,540,0,0,0,0,0,0,0,0,0,-1,573,484,0,0
-644,540,0,0,0,0,0,0,0,0,0,-1,580,484,0,0
-637,540,0,0,0,0,0,0,0,0,0,-1,587,484,0,0
-630,540,0,0,0,0,0,0,0,0,0,-1,594,484,0,0
-623,540,0,0,0,0,0,0,0,0,0,-1,601,484,0,0
-616,540,0,0,0,0,0,0,0,0,0,-1,608,484,0,0
-609,540,0,0,0,0,0,0,0,0,0,-1,615,484,0,0
-602,540,0,0,0,0,0,0,0,0,0,-1,622,484,0,0
-595,540,0,0,0,0,0,0,0,0,0,-1,629,484,0,0
-588,540,0,0,0,0,0,0,0,0,0,-1,636,484,0,0
-581,540,0,0,0,0,0,0,0,0,0,-1,643,484,0,0
-574,540,0,0,0,0,0,0,0,0,0,-1,650,484,0,0
-567,540,0,0,0,0,0,0,0,0,0,-1,657,484,0,0
-560,540,0,0,0,0,0,0,0,0,0,-1,664,484,0,0
-553,540,0,0,0,0,0,0,0,0,0,-1,671,484,0,0
-546,540,0,0,0,0,0,0,0,0,0,-1,678,484,0,0
-539,540,0,0,0,0,0,0,0,0,0,-1,685,484,0,0
-532,540,0,0,0,0,0,0,0,0,0,-1,692,484,0,0
-525,540,0,0,0,0,0,0,0,0,0,-1,699,484,0,0
-518,540,0,0,0,0,0,0,0,0,0,-1,706,484,0,0
-511,540,0,0,0,0,0,0,0,0,0,-1,713,484,0,0
-504,540,0,0,0,0,0,0,0,0,0,-1,720,484,0,0
-497,540,0,0,0,0,0,0,0,0,0,-1,727,484,0,0
-490,540,0,0,0,0,0,0,0,0,0,-1,734,484,0,0
-483,540,0,0,0,0,0,0,0,0,0,-1,741,484,0,0
-476,540,0,0,0,0,0,0,0,0,0,-1,748,484,0,0
-469,540,0,0,0,0,0,0,0,0,0,-1,755,484,0,0
-462,540,0,0,0,0,0,0,0,0,0,-1,762,484,0,0
-455,540,0,0,0,0,0,0,0,0,0,-1,769,484,0,0
-448,540,0,0,0,0,0,0,0,0,0,-1,776,484,0,0
-441,540,0,0,0,0,0,0,0,0,0,-1,783,484,0,0
-434,540,0,0,0,0,0,0,0,0,0,-1,790,484,0,0
-427,540,0,0,0,0,0,0,0,0,0,-1,797,484,0,0
-420,540,0.227051,-10.0402,0,0,0,0,0,0,0,-1,804,484,0.227063,10.0402
-413,540,-0.0393677,-10.3862,0,0,0,0,0,0,0,-1,811,484,-0.0393683,10.3862
-406,540,-0.518372,-11.5288,0,0,0,0,0,0,0,-1,818,484,-0.518402,11.5288
-399,540,0.0863037,-11.3801,0,0,0,0,0,0,0,-1,825,484,0.0863201,11.3801
-392,540,-0.517395,-10.6735,0,0,0,0,0,0,0,-1,832,484,-0.517377,10.6735
-385,540,-2.29407,-5.03418,0,0,0,0,0,0,0,-1,839,484,-2.29408,5.03418
-378,540,0.689819,-24.8416,0,0,0,0,0,0,0,-1,846,484,0.689809,24.8417
-371,540,0.576599,-25.5428,0,0,0,0,0,0,0,-1,853,484,0.576583,25.5428
-364,540,0.521851,-26.6017,0.00140975,0.0316621,-0.01317,0.0365921,-0.00352028,-1.21261,0.0256488,0.049911,860,484,0.521824,26.6017
-357,540,0.360962,-27.6752,0.000542921,0.0263972,-0.0110421,0.0304712,-0.00353106,-1.21734,0.0215876,0.0473576,867,484,0.360938,27.6752
-350,540,0.169617,-28.7134,-0.000180248,0.0216787,-0.00906206,0.0249469,-0.00344846,-1.22467,0.0178919,0.0361013,874,484,0.169593,28.7134
-343,540,0.0463867,-29.8395,-0.000623402,0.0175582,-0.00733038,0.0201454,-0.00321067,-1.23149,0.0146185,0.0194217,881,484,0.0463931,29.8395
-336,540,-0.059082,-30.8199,-0.000734777,0.0141205,-0.0059606,0.0162164,-0.00283072,-1.23267,0.0118676,0.0126721,888,484,-0.059055,30.82
-329,540,-0.107727,-31.6044,-0.000745244,0.0111409,-0.00474011,0.0127997,-0.00240407,-1.23416,0.00943712,0.0106332,895,484,-0.107737,31.6045
-322,540,-0.147156,-32.392,-0.000839272,0.00850879,-0.00354379,0.00970034,-0.00203082,-1.24644,0.00723941,0.0146237,902,484,-0.147177,32.392
-315,540,-0.195984,-33.1777,-0.0008058,0.00639393,-0.00258556,0.00722624,-0.00163811,-1.25937,0.00544627,0.0133926,909,484,-0.195966,33.1777
-308,540,-0.207947,-33.9454,-0.000599902,0.00458993,-0.00186508,0.00519066,-0.00120063,-1.2592,0.00392238,0.0130056,916,484,-0.207976,33.9454
-301,540,-0.287476,-34.6711,-0.000340908,0.00305004,-0.00129372,0.00348725,-0.000778117,-1.2449,0.00262297,0.0132538,923,484,-0.287477,34.6712
-294,540,-0.335083,-35.4329,7.3781e-06,0.00187217,-0.000706178,0.00210941,-0.000229863,-1.24669,0.00148882,0.0119555,930,484,-0.335112,35.4329
-287,540,-0.348206,-36.2115,0.000370325,0.000786988,-0.000155667,0.000838722,0.00031859,-1.24994,0.000488874,0.00893068,937,484,-0.348192,36.2115
-280,540,-0.384827,-36.9581,0.000607678,-0.000683453,0.00036151,0.000702007,-0.000777782,0.25524,0.00085473,0.0103297,944,484,-0.384815,36.9581
-273,540,-0.40686,-37.7068,0.000651423,-0.00232943,0.000965637,0.000936898,-0.0026149,0.287447,0.00212555,0.012402,951,484,-0.406853,37.7069
-266,540,-0.431213,-38.4518,0.000794086,-0.00388627,0.00187327,0.0014515,-0.00454369,0.337518,0.00361153,0.0140544,958,484,-0.431184,38.4518
-259,540,-0.46167,-39.1993,0.00152927,-0.00563838,0.00295392,0.00258974,-0.00669884,0.344673,0.00553492,0.0137051,965,484,-0.461677,39.1993
-252,540,-0.475464,-39.8723,0.00272393,-0.00758707,0.00382494,0.00398788,-0.00885102,0.319153,0.00758772,0.0131785,972,484,-0.475464,39.8723
-245,540,-0.5,-40.5657,0.00354832,-0.00976732,0.00490534,0.00516026,-0.0113793,0.317493,0.00977151,0.014395,979,484,-0.5,40.5657
-238,540,-0.531494,-41.2766,0.00460307,-0.0121546,0.00611949,0.00659983,-0.0141513,0.315404,0.0122423,0.0112591,986,484,-0.531519,41.2766
-231,540,-0.52002,-41.9523,0.00593318,-0.0147417,0.0074158,0.00831803,-0.0171266,0.311145,0.014981,0.0134139,993,484,-0.519998,41.9523
-224,540,-0.563293,-42.5928,0.00737859,-0.0173571,0.008831,0.0102078,-0.0201863,0.31004,0.0178605,0.0188756,1000,484,-0.563273,42.5929
-217,540,-0.67865,-43.0848,0.00910368,-0.0198937,0.0102439,0.0123575,-0.0231475,0.307551,0.0208119,0.0300562,1007,484,-0.678671,43.0848
-210,540,-0.716675,-43.6048,0.0109805,-0.0225018,0.0115356,0.01457,-0.0260913,0.301671,0.0237879,0.0438866,1014,484,-0.716665,43.6048
-203,540,-0.102661,-44.2619,0.0129503,-0.0249125,0.0125943,0.0167568,-0.028719,0.293514,0.0265566,0.0481435,1021,484,-0.102691,44.2619
-196,540,0.010498,-44.6584,0,0,0,0,0,0,0,-1,1028,484,0.0105067,44.6584
-189,540,-0.92334,-43.4509,0,0,0,0,0,0,0,-1,1035,484,-0.923387,43.4509
-182,540,-0.826782,-43.3494,0,0,0,0,0,0,0,-1,1042,484,-0.826777,43.3494
-175,540,1.73413,-10.728,0,0,0,0,0,0,0,-1,1049,484,1.73414,10.728
-168,540,1.18164,-7.65347,0,0,0,0,0,0,0,-1,1056,484,1.18163,7.65347
-161,540,-0.405884,-9.86481,0,0,0,0,0,0,0,-1,1063,484,-0.405886,9.8648
-154,540,1.96863,-22.0727,0,0,0,0,0,0,0,-1,1070,484,1.96859,22.0727
-147,540,1.32764,-21.9952,0,0,0,0,0,0,0,-1,1077,484,1.32762,21.9952
-140,540,1.40735,-15.6289,0,0,0,0,0,0,0,-1,1084,484,1.4073,15.6289
-133,540,2.28345,-17.6413,0,0,0,0,0,0,0,-1,1091,484,2.2835,17.6413
-126,540,1.25293,-23.9108,0,0,0,0,0,0,0,-1,1098,484,1.25288,23.9108
-119,540,1.55969,-23.0125,0,0,0,0,0,0,0,-1,1105,484,1.55968,23.0125
-112,540,1.4801,-21.6515,0,0,0,0,0,0,0,-1,1112,484,1.4801,21.6515
-105,540,1.30078,-19.8938,0,0,0,0,0,0,0,-1,1119,484,1.30077,19.8938
-98,540,1.08105,-18.1304,0,0,0,0,0,0,0,-1,1126,484,1.08101,18.1304
-91,540,1.56519,-7.48666,0,0,0,0,0,0,0,-1,1133,484,1.56514,7.48667
-84,540,-0.945923,4.43073,0,0,0,0,0,0,0,-1,1140,484,-0.945891,-4.43074
-77,540,-2.28894,2.14368,0,0,0,0,0,0,0,-1,1147,484,-2.28894,-2.14368
-70,540,-3.75244,-0.452576,0,0,0,0,0,0,0,-1,1154,484,-3.75244,0.452576
-63,540,-5.26257,-3.04767,0,0,0,0,0,0,0,-1,1161,484,-5.26262,3.04766
-56,540,-5.19055,-6.12595,0,0,0,0,0,0,0,-1,1168,484,-5.19057,6.12595
-49,540,-5.63867,-8.52298,0,0,0,0,0,0,0,-1,1175,484,-5.63871,8.52298
-42,540,0,0,0,0,0,0,0,0,0,-1,1182,484,0,0
-35,540,0,0,0,0,0,0,0,0,0,-1,1189,484,0,0
-28,540,0,0,0,0,0,0,0,0,0,-1,1196,484,0,0
-21,540,0,0,0,0,0,0,0,0,0,-1,1203,484,0,0
-14,540,0,0,0,0,0,0,0,0,0,-1,1210,484,0,0
-7,540,0,0,0,0,0,0,0,0,0,-1,1217,484,0,0
0,540,0,0,0,0,0,0,0,0,0,-1,1224,484,0,0
7,540,0,0,0,0,0,0,0,0,0,-1,1231,484,0,0
14,540,0,0,0,0,0,0,0,0,0,-1,1238,484,0,0
21,540,0,0,0,0,0,0,0,0,0,-1,1245,484,0,0
28,540,0,0,0,0,0,0,0,0,0,-1,1252,484,0,0
35,540,0,0,0,0,0,0,0,0,0,-1,1259,484,0,0
42,540,0,0,0,0,0,0,0,0,0,-1,1266,484,0,0
49,540,0,0,0,0,0,0,0,0,0,-1,1273,484,0,0
56,540,0,0,0,0,0,0,0,0,0,-1,1280,484,0,0
63,540,0,0,0,0,0,0,0,0,0,-1,1287,484,0,0
70,540,0,0,0,0,0,0,0,0,0,-1,1294,484,0,0
77,540,0,0,0,0,0,0,0,0,0,-1,1301,484,0,0
84,540,0,0,0,0,0,0,0,0,0,-1,1308,484,0,0
91,540,0,0,0,0,0,0,0,0,0,-1,1315,484,0,0
98,540,0,0,0,0,0,0,0,0,0,-1,1322,484,0,0
105,540,0,0,0,0,0,0,0,0,0,-1,1329,484,0,0
112,540,0,0,0,0,0,0,0,0,0,-1,1336,484,0,0
119,540,0,0,0,0,0,0,0,0,0,-1,1343,484,0,0
126,540,0,0,0,0,0,0,0,0,0,-1,1350,484,0,0
133,540,0,0,0,0,0,0,0,0,0,-1,1357,484,0,0
140,540,0,0,0,0,0,0,0,0,0,-1,1364,484,0,0
147,540,0,0,0,0,0,0,0,0,0,-1,1371,484,0,0
154,540,0,0,0,0,0,0,0,0,0,-1,1378,484,0,0
161,540,0,0,0,0,0,0,0,0,0,-1,1385,484,0,0
168,540,3.05078,-0.0010376,0,0,0,0,0,0,0,-1,1392,484,3.05084,0.00102554
175,540,3.37708,0.617035,0,0,0,0,0,0,0,-1,1399,484,3.37707,-0.617046
182,540,3.32678,1.23267,0,0,0,0,0,0,0,-1,1406,484,3.32678,-1.23266
189,540,3.5813,2.15619,0,0,0,0,0,0,0,-1,1413,484,3.58129,-2.1562
196,540,1.84448,-0.801483,0,0,0,0,0,0,0,-1,1420,484,1.84446,0.80148
203,540,4.14648,0.702087,0,0,0,0,0,0,0,-1,1427,484,4.14645,-0.702089
210,540,4.50671,-0.56076,0,0,0,0,0,0,0,-1,1434,484,4.50667,0.560771
217,540,5.00452,-0.278717,0,0,0,0,0,0,0,-1,1441,484,5.00452,0.278709
224,540,6.44458,-2.83527,0,0,0,0,0,0,0,-1,1448,484,6.44457,2.83525
231,540,6.9231,-3.10504,0,0,0,0,0,0,0,-1,1455,484,6.92307,3.10505
238,540,6.4823,-2.58365,0,0,0,0,0,0,0,-1,1462,484,6.48225,2.58363
245,540,6.02087,-1.97916,0,0,0,0,0,0,0,-1,1469,484,6.02088,1.97915
252,540,6.50647,-3.56006,0,0,0,0,0,0,0,-1,1476,484,6.50649,3.56006
259,540,6.01941,-2.798,0,0,0,0,0,0,0,-1,1483,484,6.01941,2.79801
266,540,5.5332,-2.02853,0,0,0,0,0,0,0,-1,1490,484,5.53323,2.02855
273,540,5.06787,-1.28137,0,0,0,0,0,0,0,-1,1497,484,5.06786,1.28136
280,540,1.62903,-2.14609,0,0,0,0,0,0,0,-1,1504,484,1.62906,2.1461
287,540,1.97156,-2.45053,0,0,0,0,0,0,0,-1,1511,484,1.97159,2.45053
294,540,2.44165,-2.6185,0,0,0,0,0,0,0,-1,1518,484,2.44167,2.6185
301,540,4.36169,-2.54272,0,0,0,0,0,0,0,-1,1525,484,4.36165,2.54272
308,540,4.2019,-4.30469,0,0,0,0,0,0,0,-1,1532,484,4.20193,4.3047
315,540,4.45923,-5.32101,0,0,0,0,0,0,0,-1,1539,484,4.45923,5.32103
322,540,4.71655,-6.33737,0,0,0,0,0,0,0,-1,1546,484,4.71653,6.33736
329,540,15.0186,-43.6651,0,0,0,0,0,0,0,-1,1553,484,15.0185,43.6651
336,540,15.7568,-43.4838,0,0,0,0,0,0,0,-1,1560,484,15.7569,43.4838
343,540,15.2626,-43.0943,0,0,0,0,0,0,0,-1,1567,484,15.2625,43.0943
350,540,14.9707,-41.9651,0.00398937,-0.0187824,-0.0113136,0.00865451,-0.0234476,-0.391106,0.0191789,0.0496107,1574,484,14.9707,41.9651
357,540,14.9656,-41.4041,0.00337051,-0.0145166,-0.0092563,0.00729809,-0.0184442,-0.40129,0.0153197,0.0379878,1581,484,14.9656,41.4041
364,540,14.8676,-40.8415,0.00269153,-0.0111611,-0.00731025,0.00583564,-0.0143053,-0.406179,0.0119662,0.0240221,1588,484,14.8676,40.8415
371,540,14.8727,-40.1719,0.00227632,-0.00786654,-0.00556355,0.00473301,-0.0103232,-0.41582,0.0088902,0.0185896,1595,484,14.8727,40.1719
378,540,14.8978,-39.4414,0.00188052,-0.00511949,-0.00400633,0.00370036,-0.00693933,-0.426374,0.00623698,0.0149602,1602,484,14.8978,39.4414
385,540,14.8615,-38.6979,0.00125066,-0.00264024,-0.00244753,0.00243174,-0.00382132,-0.449598,0.0036398,0.0150751,1609,484,14.8614,38.6979
392,540,14.8015,-37.9585,0.00105861,-0.0012074,-0.00120179,0.00157727,-0.00172606,-0.407425,0.00190782,0.0141102,1616,484,14.8016,37.9585
399,540,14.7607,-37.2421,0.00108558,-4.41383e-05,-0.00050152,0.00127609,-0.000234652,-0.363036,0.000938773,0.0188792,1623,484,14.7608,37.2421
406,540,14.7742,-36.4889,0.00110967,0.0011972,0.000143922,0.00130386,0.00100301,0.932997,0.000788331,0.0197596,1630,484,14.7742,36.4889
413,540,14.7681,-35.7103,0.00112058,0.0019134,0.000698817,0.00232041,0.000713573,1.0434,0.00137238,0.0161765,1637,484,14.7681,35.7103
420,540,14.7336,-34.907,0.0011023,0.00227164,0.00111212,0.00294342,0.000430522,1.02741,0.00183568,0.0142246,1644,484,14.7337,34.907
427,540,14.6774,-34.1575,0.00106921,0.00237567,0.00147483,0.00333545,0.00010942,0.993873,0.00218808,0.0142481,1651,484,14.6774,34.1575
434,540,14.6174,-33.3919,0.00111405,0.002437,0.001855,0.00374494,-0.000193885,0.956664,0.0025637,0.0171067,1658,484,14.6174,33.3919
441,540,14.5823,-32.5775,0.00113914,0.0024973,0.00223966,0.00415857,-0.000522126,0.932597,0.0029618,0.0202629,1665,484,14.5822,32.5775
448,540,14.5272,-31.7953,0.00105869,0.00236835,0.00252879,0.00432572,-0.00089868,0.91209,0.00322538,0.0122006,1672,484,14.5272,31.7953
455,540,14.4946,-30.9943,0.000891083,0.00221496,0.00279654,0.00442684,-0.00132079,0.901609,0.00347616,0.0116798,1679,484,14.4946,30.9943
462,540,14.4172,-30.1848,0.000793549,0.00215615,0.00305655,0.0046064,-0.00165671,0.895055,0.0037473,0.0117946,1686,484,14.4172,30.1848
469,540,14.3389,-29.3531,0.000881455,0.00216958,0.00331139,0.00489896,-0.00184793,0.881449,0.00402589,0.0154069,1693,484,14.3389,29.3531
476,540,14.29,-28.5529,0.000917661,0.00219174,0.00353529,0.00514692,-0.00203752,0.874539,0.00427547,0.0219456,1700,484,14.29,28.5528
483,540,14.3187,-27.6393,0.00112261,0.00235005,0.00379101,0.0055767,-0.00210403,0.865646,0.00458306,0.0404688,1707,484,14.3187,27.6393
490,540,14.4993,-26.6231,0,0,0,0,0,0,0,-1,1714,484,14.4993,26.6231
497,540,10.3452,-16.9359,0,0,0,0,0,0,0,-1,1721,484,10.3453,16.9359
504,540,12.519,-18.0764,0,0,0,0,0,0,0,-1,1728,484,12.519,18.0765
511,540,5.82471,-6.83521,0,0,0,0,0,0,0,-1,1735,484,5.82465,6.83522
518,540,9.98181,-12.4608,0,0,0,0,0,0,0,-1,1742,484,9.98187,12.4608
525,540,12.4843,-16.3481,0,0,0,0,0,0,0,-1,1749,484,12.4842,16.3481
532,540,2.84265,-1.07925,0,0,0,0,0,0,0,-1,1756,484,2.84269,1.07927
539,540,0,0,0,0,0,0,0,0,0,-1,1763,484,0,0
546,540,0,0,0,0,0,0,0,0,0,-1,1770,484,0,0
553,540,0,0,0,0,0,0,0,0,0,-1,1777,484,0,0
560,540,0,0,0,0,0,0,0,0,0,-1,1784,484,0,0
567,540,0,0,0,0,0,0,0,0,0,-1,1791,484,0,0
574,540,0,0,0,0,0,0,0,0,0,-1,1798,484,0,0
581,540,0,0,0,0,0,0,0,0,0,-1,1805,484,0,0
588,540,0,0,0,0,0,0,0,0,0,-1,1812,484,0,0
595,540,0,0,0,0,0,0,0,0,0,-1,1819,484,0,0
602,540,0,0,0,0,0,0,0,0,0,-1,1826,484,0,0
609,540,0,0,0,0,0,0,0,0,0,-1,1833,484,0,0
616,540,0,0,0,0,0,0,0,0,0,-1,1840,484,0,0
623,540,0,0,0,0,0,0,0,0,0,-1,1847,484,0,0
630,540,0,0,0,0,0,0,0,0,0,-1,1854,484,0,0
637,540,0,0,0,0,0,0,0,0,0,-1,1861,484,0,0
644,540,0,0,0,0,0,0,0,0,0,-1,1868,484,0,0
651,540,0,0,0,0,0,0,0,0,0,-1,1875,484,0,0
658,540,0,0,0,0,0,0,0,0,0,-1,1882,484,0,0
665,540,0,0,0,0,0,0,0,0,0,-1,1889,484,0,0
672,540,0,0,0,0,0,0,0,0,0,-1,1896,484,0,0
679,540,0,0,0,0,0,0,0,0,0,-1,1903,484,0,0
686,540,0,0,0,0,0,0,0,0,0,-1,1910,484,0,0
693,540,0,0,0,0,0,0,0,0,0,-1,1917,484,0,0
700,540,0,0,0,0,0,0,0,0,0,-1,1924,484,0,0
707,540,0,0,0,0,0,0,0,0,0,-1,1931,484,0,0
714,540,0,0,0,0,0,0,0,0,0,-1,1938,484,0,0
721,540,0,0,0,0,0,0,0,0,0,-1,1945,484,0,0
728,540,0,0,0,0,0,0,0,0,0,-1,1952,484,0,0
735,540,0,0,0,0,0,0,0,0,0,-1,1959,484,0,0
742,540,0,0,0,0,0,0,0,0,0,-1,1966,484,0,0
749,540,0,0,0,0,0,0,0,0,0,-1,1973,484,0,0
756,540,0,0,0,0,0,0,0,0,0,-1,1980,484,0,0
763,540,0,0,0,0,0,0,0,0,0,-1,1987,484,0,0
770,540,0,0,0,0,0,0,0,0,0,-1,1994,484,0,0
777,540,0,0,0,0,0,0,0,0,0,-1,2001,484,0,0
784,540,0,0,0,0,0,0,0,0,0,-1,2008,484,0,0
791,540,0,0,0,0,0,0,0,0,0,-1,2015,484,0,0
798,540,0,0,0,0,0,0,0,0,0,-1,2022,484,0,0
805,540,0,0,0,0,0,0,0,0,0,-1,2029,484,0,0
812,540,0,0,0,0,0,0,0,0,0,-1,2036,484,0,0
-700,533,0,0,0,0,0,0,0,0,0,-1,524,491,0,0
-693,533,0,0,0,0,0,0,0,0,0,-1,531,491,0,0
-686,533,0,0,0,0,0,0,0,0,0,-1,538,491,0,0
-679,533,0,0,0,0,0,0,0,0,0,-1,545,491,0,0
-672,533,0,0,0,0,0,0,0,0,0,-1,552,491,0,0
-665,533,0,0,0,0,0,0,0,0,0,-1,559,491,0,0
-658,533,0,0,0,0,0,0,0,0,0,-1,566,491,0,0
-651,533,0,0,0,0,0,0,0,0,0,-1,573,491,0,0
-644,533,0,0,0,0,0,0,0,0,0,-1,580,491,0,0
-637,533,0,0,0,0,0,0,0,0,0,-1,587,491,0,0
-630,533,0,0,0,0,0,0,0,0,0,-1,594,491,0,0
-623,533,0,0,0,0,0,0,0,0,0,-1,601,491,0,0
-616,533,0,0,0,0,0,0,0,0,0,-1,608,491,0,0
-609,533,0,0,0,0,0,0,0,0,0,-1,615,491,0,0
-602,533,0,0,0,0,0,0,0,0,0,-1,622,491,0,0
-595,533,0,0,0,0,0,0,0,0,0,-1,629,491,0,0
-588,533,0,0,0,0,0,0,0,0,0,-1,636,491,0,0
-581,533,0,0,0,0,0,0,0,0,0,-1,643,491,0,0
-574,533,0,0,0,0,0,0,0,0,0,-1,650,491,0,0
-567,533,0,0,0,0,0,0,0,0,0,-1,657,491,0,0
-560,533,0,0,0,0,0,0,0,0,0,-1,664,491,0,0
-553,533,0,0,0,0,0,0,0,0,0,-1,671,491,0,0
-546,533,0,0,0,0,0,0,0,0,0,-1,678,491,0,0
-539,533,0,0,0,0,0,0,0,0,0,-1,685,491,0,0
-532,533,0,0,0,0,0,0,0,0,0,-1,692,491,0,0
-525,533,0,0,0,0,0,0,0,0,0,-1,699,491,0,0
-518,533,0,0,0,0,0,0,0,0,0,-1,706,491,0,0
-511,533,0,0,0,0,0,0,0,0,0,-1,713,491,0,0
-504,533,0,0,0,0,0,0,0,0,0,-1,720,491,0,0
-497,533,0,0,0,0,0,0,0,0,0,-1,727,491,0,0
-490,533,0,0,0,0,0,0,0,0,0,-1,734,491,0,0
-483,533,0,0,0,0,0,0,0,0,0,-1,741,491,0,0
-476,533,0,0,0,0,0,0,0,0,0,-1,748,491,0,0
-469,533,0,0,0,0,0,0,0,0,0,-1,755,491,0,0
-462,533,0,0,0,0,0,0,0,0,0,-1,762,491,0,0
-455,533,0,0,0,0,0,0,0,0,0,-1,769,491,0,0
-448,533,0,0,0,0,0,0,0,0,0,-1,776,491,0,0
-441,533,0,0,0,0,0,0,0,0,0,-1,783,491,0,0
-434,533,0,0,0,0,0,0,0,0,0,-1,790,491,0,0
-427,533,0.559814,-4.40222,0,0,0,0,0,0,0,-1,797,491,0.559816,4.40222
-420,533,-1.11127,-10.9054,0,0,0,0,0,0,0,-1,804,491,-1.11124,10.9054
-413,533,-0.704773,-11.0942,0,0,0,0,0,0,0,-1,811,491,-0.704742,11.0942
-406,533,-0.670898,-12.0899,0,0,0,0,0,0,0,-1,818,491,-0.670908,12.0899
-399,533,-0.455017,-12.4423,0,0,0,0,0,0,0,-1,825,491,-0.455032,12.4423
-392,533,-1.89661,-10.3905,0,0,0,0,0,0,0,-1,832,491,-1.89661,10.3905
-385,533,0.797729,-17.0485,0,0,0,0,0,0,0,-1,839,491,0.797746,17.0485
-378,533,-1.89435,-19.6771,0,0,0,0,0,0,0,-1,846,491,-1.89433,19.6771
-371,533,-0.702332,-25.9357,0,0,0,0,0,0,0,-1,853,491,-0.702337,25.9357
-364,533,-0.619568,-26.9821,0,0,0,0,0,0,0,-1,860,491,-0.619591,26.9821
-357,533,-0.538818,-28.0055,0,0,0,0,0,0,0,-1,867,491,-0.538799,28.0055
-350,533,-0.662354,-29.0659,0.000372114,0.0174553,-0.00794872,0.0205816,-0.00275424,-1.19607,0.0147253,0.0146948,874,491,-0.662331,29.0659
-343,533,-0.746216,-29.9446,-4.96131e-05,0.0139897,-0.00633562,0.016426,-0.00248594,-1.20368,0.0118665,0.0125498,881,491,-0.746206,29.9446
-336,533,-0.828918,-30.7907,-0.000248481,0.0110387,-0.00498992,0.0129284,-0.00213811,-1.2088,0.00941291,0.0161109,888,491,-0.828947,30.7907
-329,533,-0.862061,-31.5674,-0.000351964,0.00847547,-0.00379354,0.00988171,-0.0017582,-1.21581,0.00724534,0.0153168,895,491,-0.862087,31.5674
-322,533,-0.900818,-32.3511,-0.000515887,0.0061367,-0.00260677,0.00703645,-0.00141564,-1.23844,0.00522714,0.0124867,902,491,-0.900841,32.3511
-315,533,-0.958923,-33.1282,-0.000523672,0.00426758,-0.00165425,0.00478324,-0.00103933,-1.26863,0.00358583,0.0135876,909,491,-0.958934,33.1283
-308,533,-0.993042,-33.9032,-0.000343235,0.00270733,-0.000934686,0.00297094,-0.000606842,-1.29591,0.00221084,0.013021,916,491,-0.993035,33.9032
-301,533,-1.06964,-34.629,-0.000117826,0.00141579,-0.000348652,0.00149133,-0.000193367,-1.35743,0.00106455,0.0148481,923,491,-1.06963,34.629
-294,533,-1.08826,-35.3809,0.000221691,0.000404197,0.000234975,0.000565016,6.08718e-05,0.97061,0.000358115,0.0136601,930,491,-1.08828,35.3809
-287,533,-1.08154,-36.158,0.000614976,-0.000610901,0.000767789,0.00098448,-0.000980405,0.448541,0.00113443,0.0101883,937,491,-1.08154,36.158
-280,533,-1.10846,-36.9295,0.000820636,-0.00224837,0.00132191,0.00131151,-0.00273924,0.355554,0.00238663,0.00934316,944,491,-1.10843,36.9295
-273,533,-1.14532,-37.6602,0.000778471,-0.00412026,0.00197145,0.00147331,-0.0048151,0.338855,0.00379765,0.0124161,951,491,-1.14532,37.6602
-266,533,-1.1759,-38.4006,0.000926403,-0.00576138,0.00299432,0.00207111,-0.00690609,0.36515,0.00542778,0.0126426,958,491,-1.17591,38.4006
-259,533,-1.18103,-39.1487,0.00183659,-0.00757845,0.00424196,0.00346586,-0.00920772,0.366712,0.00756328,0.0134276,965,491,-1.18102,39.1487
-252,533,-1.21045,-39.8482,0.00326574,-0.00980862,0.00518769,0.00507403,-0.0116169,0.335403,0.00988023,0.0188181,972,491,-1.21047,39.8482
-245,533,-1.27118,-40.5169,0.00418285,-0.0123873,0.00645964,0.00640346,-0.0146079,0.331111,0.0124354,0.0283173,979,491,-1.27121,40.5169
-238,533,-1.14447,-41.0545,0.00540681,-0.0151737,0.00790628,0.0080934,-0.0178603,0.327564,0.015334,0.0291974,986,491,-1.14449,41.0545
-231,533,-1.14929,-41.4999,0.00710738,-0.0180953,0.00941996,0.0102391,-0.021227,0.320961,0.0185325,0.0350358,993,491,-1.14931,41.5
-224,533,-1.40576,-42.1441,0.0089413,-0.0211001,0.0111666,0.0126373,-0.0247961,0.319636,0.0219889,0.0410004,1000,491,-1.40577,42.1441
-217,533,-1.66827,-43.0434,0.0111813,-0.0239281,0.0129431,0.0154369,-0.0281837,0.317663,0.0255403,0.0401052,1007,491,-1.66825,43.0434
-210,533,-1.49084,-43.5654,0.0137333,-0.0267601,0.0146165,0.018458,-0.0314848,0.312643,0.0291596,0.0490002,1014,491,-1.49087,43.5654
-203,533,-1.28894,-44.0604,0,0,0,0,0,0,0,-1,1021,491,-1.28891,44.0604
-196,533,0.688354,-19.5743,0,0,0,0,0,0,0,-1,1028,491,0.688406,19.5743
-189,533,-1.75317,-43.4744,0,0,0,0,0,0,0,-1,1035,491,-1.75312,43.4744
-182,533,1.26123,-11.4969,0,0,0,0,0,0,0,-1,1042,491,1.26128,11.4969
-175,533,0.937744,-7.36966,0,0,0,0,0,0,0,-1,1049,491,0.937769,7.36965
-168,533,2.64807,-2.7543,0,0,0,0,0,0,0,-1,1056,491,2.64812,2.7543
-161,533,1.91833,-1.76553,0,0,0,0,0,0,0,-1,1063,491,1.91836,1.76554
-154,533,0.376709,-11.0633,0,0,0,0,0,0,0,-1,1070,491,0.376715,11.0632
-147,533,0.383789,-12.1586,0,0,0,0,0,0,0,-1,1077,491,0.383829,12.1586
-140,533,1.14001,-15.4608,0,0,0,0,0,0,0,-1,1084,491,1.14005,15.4608
-133,533,0.189941,-16.0795,0,0,0,0,0,0,0,-1,1091,491,0.18994,16.0795
-126,533,2.89612,-2.59003,0,0,0,0,0,0,0,-1,1098,491,2.89608,2.59003
-119,533,1.78284,-22.5394,0,0,0,0,0,0,0,-1,1105,491,1.78279,22.5394
-112,533,1.83862,-21.2401,0,0,0,0,0,0,0,-1,1112,491,1.83859,21.24
-105,533,1.67554,-19.4018,0,0,0,0,0,0,0,-1,1119,491,1.6755,19.4018
-98,533,-1.39392,-5.16367,0,0,0,0,0,0,0,-1,1126,491,-1.39394,5.16367
-91,533,0.367432,4.49753,0,0,0,0,0,0,0,-1,1133,491,0.367468,-4.49754
-84,533,-0.88623,3.03604,0,0,0,0,0,0,0,-1,1140,491,-0.886288,-3.03605
-77,533,0,0,0,0,0,0,0,0,0,-1,1147,491,0,0
-70,533,0,0,0,0,0,0,0,0,0,-1,1154,491,0,0
-63,533,0,0,0,0,0,0,0,0,0,-1,1161,491,0,0
-56,533,0,0,0,0,0,0,0,0,0,-1,1168,491,0,0
-49,533,0,0,0,0,0,0,0,0,0,-1,1175,491,0,0
-42,533,0,0,0,0,0,0,0,0,0,-1,1182,491,0,0
-35,533,0,0,0,0,0,0,0,0,0,-1,1189,491,0,0
-28,533,0,0,0,0,0,0,0,0,0,-1,1196,491,0,0
-21,533,0,0,0,0,0,0,0,0,0,-1,1203,491,0,0
-14,533,0,0,0,0,0,0,0,0,0,-1,1210,491,0,0
-7,533,0,0,0,0,0,0,0,0,0,-1,1217,491,0,0
0,533,0,0,0,0,0,0,0,0,0,-1,1224,491,0,0
7,533,0,0,0,0,0,0,0,0,0,-1,1231,491,0,0
14,533,0,0,0,0,0,0,0,0,0,-1,1238,491,0,0
21,533,0,0,0,0,0,0,0,0,0,-1,1245,491,0,0
28,533,0,0,0,0,0,0,0,0,0,-1,1252,491,0,0
35,533,0,0,0,0,0,0,0,0,0,-1,1259,491,0,0
42,533,0,0,0,0,0,0,0,0,0,-1,1266,491,0,0
49,533,0,0,0,0,0,0,0,0,0,-1,1273,491,0,0
56,533,0,0,0,0,0,0,0,0,0,-1,1280,491,0,0
63,533,0,0,0,0,0,0,0,0,0,-1,1287,491,0,0
70,533,0,0,0,0,0,0,0,0,0,-1,1294,491,0,0
77,533,0,0,0,0,0,0,0,0,0,-1,1301,491,0,0
84,533,0,0,0,0,0,0,0,0,0,-1,1308,491,0,0
91,533,0,0,0,0,0,0,0,0,0,-1,1315,491,0,0
98,533,0,0,0,0,0,0,0,0,0,-1,1322,491,0,0
105,533,0,0,0,0,0,0,0,0,0,-1,1329,491,0,0
112,533,0,0,0,0,0,0,0,0,0,-1,1336,491,0,0
119,533,0,0,0,0,0,0,0,0,0,-1,1343,491,0,0
126,533,0,0,0,0,0,0,0,0,0,-1,1350,491,0,0
133,533,0,0,0,0,0,0,0,0,0,-1,1357,491,0,0
140,533,0,0,0,0,0,0,0,0,0,-1,1364,491,0,0
147,533,0,0,0,0,0,0,0,0,0,-1,1371,491,0,0
154,533,0,0,0,0,0,0,0,0,0,-1,1378,491,0,0
161,533,0,0,0,0,0,0,0,0,0,-1,1385,491,0,0
168,533,0,0,0,0,0,0,0,0,0,-1,1392,491,0,0
175,533,0,0,0,0,0,0,0,0,0,-1,1399,491,0,0
182,533,0,0,0,0,0,0,0,0,0,-1,1406,491,0,0
189,533,0,0,0,0,0,0,0,0,0,-1,1413,491,0,0
196,533,0,0,0,0,0,0,0,0,0,-1,1420,491,0,0
203,533,3.7887,1.16193,0,0,0,0,0,0,0,-1,1427,491,3.78872,-1.16193
210,533,5.09558,-0.216034,0,0,0,0,0,0,0,-1,1434,491,5.09559,0.216028
217,533,6.91614,-2.46814,0,0,0,0,0,0,0,-1,1441,491,6.91618,2.46814
224,533,7.23621,-2.1857,0,0,0,0,0,0,0,-1,1448,491,7.23621,2.1857
231,533,7.23474,-1.92282,0,0,0,0,0,0,0,-1,1455,491,7.2347,1.92282
238,533,7.23535,-1.67258,0,0,0,0,0,0,0,-1,1462,491,7.23539,1.67258
245,533,6.86682,-1.2301,0,0,0,0,0,0,0,-1,1469,491,6.86686,1.23011
252,533,6.63354,-3.07825,0,0,0,0,0,0,0,-1,1476,491,6.6335,3.07824
259,533,6.16431,-2.35037,0,0,0,0,0,0,0,-1,1483,491,6.1643,2.35037
266,533,5.68884,-1.6214,0,0,0,0,0,0,0,-1,1490,491,5.68885,1.6214
273,533,5.21399,-0.864227,0,0,0,0,0,0,0,-1,1497,491,5.21403,0.864227
280,533,1.41089,-1.97946,0,0,0,0,0,0,0,-1,1504,491,1.41087,1.97946
287,533,1.6814,-2.44443,0,0,0,0,0,0,0,-1,1511,491,1.6814,2.44444
294,533,2.2384,-2.57626,0,0,0,0,0,0,0,-1,1518,491,2.23839,2.57625
301,533,3.39941,-4.0817,0,0,0,0,0,0,0,-1,1525,491,3.3994,4.08171
308,533,4.13733,-4.14752,0,0,0,0,0,0,0,-1,1532,491,4.13727,4.14752
315,533,4.80762,-5.29349,0,0,0,0,0,0,0,-1,1539,491,4.80762,5.29347
322,533,5.47803,-6.43942,0,0,0,0,0,0,0,-1,1546,491,5.47798,6.43943
329,533,3.88477,-3.86301,0,0,0,0,0,0,0,-1,1553,491,3.88475,3.86299
336,533,14.5214,-40.908,0,0,0,0,0,0,0,-1,1560,491,14.5214,40.908
343,533,15.0559,-41.4058,0,0,0,0,0,0,0,-1,1567,491,15.056,41.4058
350,533,15.483,-41.5413,0,0,0,0,0,0,0,-1,1574,491,15.483,41.5413
357,533,15.6251,-41.2205,0,0,0,0,0,0,0,-1,1581,491,15.6251,41.2205
364,533,15.5079,-40.8657,0,0,0,0,0,0,0,-1,1588,491,15.5079,40.8656
371,533,15.5662,-40.1581,0,0,0,0,0,0,0,-1,1595,491,15.5661,40.1581
378,533,15.6434,-39.366,0,0,0,0,0,0,0,-1,1602,491,15.6435,39.366
385,533,15.6472,-38.6235,0.00157735,-0.00305636,-0.00309662,0.0031279,-0.00460692,-0.464228,0.00449283,0.0351293,1609,491,15.6472,38.6235
392,533,15.5824,-37.9349,0.00128315,-0.00166932,-0.00176124,0.00210501,-0.00249118,-0.436603,0.00265673,0.0160964,1616,491,15.5824,37.9349
399,533,15.547,-37.2208,0.00118313,-0.000517568,-0.00116678,0.00177655,-0.00111099,-0.470502,0.00168182,0.0148277,1623,491,15.547,37.2208
406,533,15.5432,-36.4553,0.00118622,0.000711251,-0.000533944,0.00153311,0.00036436,-0.576147,0.000924864,0.0172944,1630,491,15.5432,36.4553
413,533,15.5192,-35.6464,0.00120167,0.00136406,2.29448e-05,0.00136724,0.00119849,1.43309,0.000860775,0.0150407,1637,491,15.5191,35.6464
420,533,15.4594,-34.8699,0.00117038,0.00167175,0.000431742,0.00192031,0.000921819,1.04843,0.00110899,0.0139006,1644,491,15.4593,34.8699
427,533,15.421,-34.0822,0.00110146,0.00181257,0.000796837,0.00232958,0.00058445,0.995246,0.00139952,0.0146564,1651,491,15.421,34.0822
434,533,15.3813,-33.3211,0.00110045,0.00188504,0.00117398,0.00273053,0.000254957,0.946645,0.0017416,0.0136013,1658,491,15.3813,33.3211
441,533,15.3724,-32.5381,0.0011174,0.0020067,0.0015772,0.00320073,-7.66246e-05,0.922795,0.00215981,0.0156687,1665,491,15.3724,32.5381
448,533,15.3258,-31.7429,0.00105245,0.00196467,0.00190353,0.00346598,-0.000448854,0.902987,0.00247388,0.0170243,1672,491,15.3258,31.7429
455,533,15.2683,-30.939,0.000921014,0.00194739,0.00222087,0.0037136,-0.000845191,0.898943,0.00280031,0.0166877,1679,491,15.2683,30.939
462,533,15.1987,-30.104,0.00088724,0.00198387,0.00252369,0.00401812,-0.00114701,0.89237,0.0031319,0.0153631,1686,491,15.1987,30.104
469,533,15.1569,-29.3316,0.0010644,0.00211524,0.00283583,0.00447391,-0.00129427,0.876999,0.00349485,0.00992228,1693,491,15.1569,29.3316
476,533,15.1361,-28.4983,0.00117509,0.00227632,0.00313461,0.0049083,-0.00145689,0.87234,0.00385082,0.0124346,1700,491,15.1361,28.4983
483,533,15.1429,-27.6252,0.0014483,0.00256021,0.00349419,0.0055424,-0.00153389,0.864291,0.00429845,0.0243551,1707,491,15.143,27.6252
490,533,15.2109,-26.3774,0,0,0,0,0,0,0,-1,1714,491,15.211,26.3774
497,533,15.1311,-25.7872,0,0,0,0,0,0,0,-1,1721,491,15.1311,25.7873
504,533,14.6896,-22.6455,0,0,0,0,0,0,0,-1,1728,491,14.6895,22.6455
511,533,13.6221,-19.2798,0,0,0,0,0,0,0,-1,1735,491,13.6221,19.2798
518,533,14.1954,-19.4995,0,0,0,0,0,0,0,-1,1742,491,14.1955,19.4995
525,533,13.7935,-19.6901,0,0,0,0,0,0,0,-1,1749,491,13.7934,19.6901
532,533,15.4377,-17.9016,0,0,0,0,0,0,0,-1,1756,491,15.4377,17.9015
539,533,12.8733,-18.2556,0,0,0,0,0,0,0,-1,1763,491,12.8733,18.2556
546,533,3.59607,1.65799,0,0,0,0,0,0,0,-1,1770,491,3.59605,-1.658
553,533,0,0,0,0,0,0,0,0,0,-1,1777,491,0,0
560,533,0,0,0,0,0,0,0,0,0,-1,1784,491,0,0
567,533,0,0,0,0,0,0,0,0,0,-1,1791,491,0,0
574,533,0,0,0,0,0,0,0,0,0,-1,1798,491,0,0
581,533,0,0,0,0,0,0,0,0,0,-1,1805,491,0,0
588,533,0,0,0,0,0,0,0,0,0,-1,1812,491,0,0
595,533,0,0,0,0,0,0,0,0,0,-1,1819,491,0,0
602,533,0,0,0,0,0,0,0,0,0,-1,1826,491,0,0
609,533,0,0,0,0,0,0,0,0,0,-1,1833,491,0,0
616,533,0,0,0,0,0,0,0,0,0,-1,1840,491,0,0
623,533,0,0,0,0,0,0,0,0,0,-1,1847,491,0,0
630,533,0,0,0,0,0,0,0,0,0,-1,1854,491,0,0
637,533,0,0,0,0,0,0,0,0,0,-1,1861,491,0,0
644,533,0,0,0,0,0,0,0,0,0,-1,1868,491,0,0
651,533,0,0,0,0,0,0,0,0,0,-1,1875,491,0,0
658,533,0,0,0,0,0,0,0,0,0,-1,1882,491,0,0
665,533,0,0,0,0,0,0,0,0,0,-1,1889,491,0,0
672,533,0,0,0,0,0,0,0,0,0,-1,1896,491,0,0
679,533,0,0,0,0,0,0,0,0,0,-1,1903,491,0,0
686,533,0,0,0,0,0,0,0,0,0,-1,1910,491,0,0
693,533,0,0,0,0,0,0,0,0,0,-1,1917,491,0,0
700,533,0,0,0,0,0,0,0,0,0,-1,1924,491,0,0
707,533,0,0,0,0,0,0,0,0,0,-1,1931,491,0,0
714,533,0,0,0,0,0,0,0,0,0,-1,1938,491,0,0
721,533,0,0,0,0,0,0,0,0,0,-1,1945,491,0,0
728,533,0,0,0,0,0,0,0,0,0,-1,1952,491,0,0
735,533,0,0,0,0,0,0,0,0,0,-1,1959,491,0,0
742,533,0,0,0,0,0,0,0,0,0,-1,1966,491,0,0
749,533,0,0,0,0,0,0,0,0,0,-1,1973,491,0,0
756,533,0,0,0,0,0,0,0,0,0,-1,1980,491,0,0
763,533,0,0,0,0,0,0,0,0,0,-1,1987,491,0,0
770,533,0,0,0,0,0,0,0,0,0,-1,1994,491,0,0
777,533,0,0,0,0,0,0,0,0,0,-1,2001,491,0,0
784,533,0,0,0,0,0,0,0,0,0,-1,2008,491,0,0
791,533,0,0,0,0,0,0,0,0,0,-1,2015,491,0,0
798,533,0,0,0,0,0,0,0,0,0,-1,2022,491,0,0
805,533,0,0,0,0,0,0,0,0,0,-1,2029,491,0,0
812,533,0,0,0,0,0,0,0,0,0,-1,2036,491,0,0
-700,526,0,0,0,0,0,0,0,0,0,-1,524,498,0,0
-693,526,0,0,0,0,0,0,0,0,0,-1,531,498,0,0
-686,526,0,0,0,0,0,0,0,0,0,-1,538,498,0,0
-679,526,0,0,0,0,0,0,0,0,0,-1,545,498,0,0
-672,526,0,0,0,0,0,0,0,0,0,-1,552,498,0,0
-665,526,0,0,0,0,0,0,0,0,0,-1,559,498,0,0
-658,526,0,0,0,0,0,0,0,0,0,-1,566,498,0,0
-651,526,0,0,0,0,0,0,0,0,0,-1,573,498,0,0
-644,526,0,0,0,0,0,0,0,0,0,-1,580,498,0,0
-637,526,0,0,0,0,0,0,0,0,0,-1,587,498,0,0
-630,526,0,0,0,0,0,0,0,0,0,-1,594,498,0,0
-623,526,0,0,0,0,0,0,0,0,0,-1,601,498,0,0
-616,526,0,0,0,0,0,0,0,0,0,-1,608,498,0,0
-609,526,0,0,0,0,0,0,0,0,0,-1,615,498,0,0
-602,526,0,0,0,0,0,0,0,0,0,-1,622,498,0,0
-595,526,0,0,0,0,0,0,0,0,0,-1,629,498,0,0
-588,526,0,0,0,0,0,0,0,0,0,-1,636,498,0,0
-581,526,0,0,0,0,0,0,0,0,0,-1,643,498,0,0
-574,526,0,0,0,0,0,0,0,0,0,-1,650,498,0,0
-567,526,0,0,0,0,0,0,0,0,0,-1,657,498,0,0
-560,526,0,0,0,0,0,0,0,0,0,-1,664,498,0,0
-553,526,0,0,0,0,0,0,0,0,0,-1,671,498,0,0
-546,526,0,0,0,0,0,0,0,0,0,-1,678,498,0,0
-539,526,0,0,0,0,0,0,0,0,0,-1,685,498,0,0
-532,526,0,0,0,0,0,0,0,0,0,-1,692,498,0,0
-525,526,0,0,0,0,0,0,0,0,0,-1,699,498,0,0
-518,526,0,0,0,0,0,0,0,0,0,-1,706,498,0,0
-511,526,0,0,0,0,0,0,0,0,0,-1,713,498,0,0
-504,526,0,0,0,0,0,0,0,0,0,-1,720,498,0,0
-497,526,0,0,0,0,0,0,0,0,0,-1,727,498,0,0
-490,526,0,0,0,0,0,0,0,0,0,-1,734,498,0,0
-483,526,0,0,0,0,0,0,0,0,0,-1,741,498,0,0
-476,526,0,0,0,0,0,0,0,0,0,-1,748,498,0,0
-469,526,0,0,0,0,0,0,0,0,0,-1,755,498,0,0
-462,526,0,0,0,0,0,0,0,0,0,-1,762,498,0,0
-455,526,0,0,0,0,0,0,0,0,0,-1,769,498,0,0
-448,526,0,0,0,0,0,0,0,0,0,-1,776,498,0,0
-441,526,0,0,0,0,0,0,0,0,0,-1,783,498,0,0
-434,526,-0.153564,-5.96649,0,0,0,0,0,0,0,-1,790,498,-0.153589,5.9665
-427,526,1.23206,-4.59808,0,0,0,0,0,0,0,-1,797,498,1.23208,4.59809
-420,526,-1.76373,-11.6241,0,0,0,0,0,0,0,-1,804,498,-1.76373,11.6241
-413,526,-1.38965,-11.7916,0,0,0,0,0,0,0,-1,811,498,-1.38963,11.7916
-406,526,-1.35187,-12.5182,0,0,0,0,0,0,0,-1,818,498,-1.35185,12.5181
-399,526,-1.32715,-13.2116,0,0,0,0,0,0,0,-1,825,498,-1.32713,13.2116
-392,526,0.197571,-15.303,0,0,0,0,0,0,0,-1,832,498,0.197598,15.303
-385,526,-2.69397,-19.6176,0,0,0,0,0,0,0,-1,839,498,-2.69399,19.6176
-378,526,-1.92523,-24.9865,0,0,0,0,0,0,0,-1,846,498,-1.92521,24.9865
-371,526,-1.52014,-26.2588,0.00229672,0.0234577,-0.0118772,0.0287837,-0.0030292,-1.14926,0.0202744,0.0480982,853,498,-1.52013,26.2588
-364,526,-1.45593,-27.3143,0.00176605,0.0200366,-0.00998222,0.0244327,-0.00263004,-1.15596,0.0172322,0.0230931,860,498,-1.45595,27.3143
-357,526,-1.41479,-28.248,0.00121519,0.016672,-0.00827407,0.0202656,-0.00237844,-1.16105,0.014369,0.0142431,867,498,-1.41477,28.2481
-350,526,-1.45276,-29.0688,0.000713059,0.0135444,-0.00666235,0.016378,-0.00212046,-1.16867,0.0116897,0.0131604,874,498,-1.45275,29.0688
-343,526,-1.54163,-29.8936,0.00036711,0.0106473,-0.0052157,0.0128301,-0.00181564,-1.17445,0.0092184,0.0167249,881,498,-1.54166,29.8935
-336,526,-1.59143,-30.7146,0.000129505,0.00812422,-0.00393835,0.00973841,-0.00148469,-1.18181,0.00703955,0.0171989,888,498,-1.59141,30.7146
-329,526,-1.62268,-31.5165,-2.12013e-05,0.00592456,-0.00279946,0.00703518,-0.00113182,-1.19311,0.00510936,0.0174625,895,498,-1.62265,31.5165
-322,526,-1.64935,-32.2894,-0.000216604,0.0038769,-0.00166475,0.00446844,-0.000808146,-1.22938,0.00328168,0.011275,902,498,-1.64937,32.2894
-315,526,-1.70795,-33.0916,-0.000246335,0.00224853,-0.000752779,0.00245806,-0.000455874,-1.29932,0.00180991,0.00989623,909,498,-1.70797,33.0916
-308,526,-1.76215,-33.8864,-7.89211e-05,0.000929747,-5.86617e-05,0.000933147,-8.23212e-05,-1.5129,0.000651275,0.00935689,916,498,-1.76213,33.8863
-301,526,-1.82446,-34.6143,0.000127308,-9.66337e-05,0.000519466,0.000546734,-0.00051606,0.679247,0.00061369,0.0112565,923,498,-1.82447,34.6142
-294,526,-1.84155,-35.3494,0.000457887,-0.00091026,0.00107336,0.00104663,-0.001499,0.501694,0.00147744,0.0111224,930,498,-1.84156,35.3494
-287,526,-1.8656,-36.1119,0.000880934,-0.00183126,0.00156315,0.00159424,-0.00254457,0.428103,0.00241045,0.0104736,937,498,-1.8656,36.1119
-280,526,-1.90216,-36.8674,0.00106081,-0.00364877,0.00214688,0.00189257,-0.00448054,0.369623,0.00377929,0.0129764,944,498,-1.90214,36.8674
-273,526,-1.90216,-37.6103,0.000952345,-0.0057848,0.00282065,0.00197733,-0.00680978,0.34855,0.00532283,0.0106644,951,498,-1.90215,37.6103
-266,526,-1.92676,-38.3474,0.0011235,-0.00756031,0.00396845,0.00266383,-0.00910064,0.370245,0.00712305,0.0170479,958,498,-1.92673,38.3474
-259,526,-1.87982,-39.0753,0.00224541,-0.0094778,0.00542521,0.00437075,-0.0116031,0.373376,0.00953242,0.0446708,965,498,-1.8798,39.0753
-252,526,-1.9223,-39.8629,0,0,0,0,0,0,0,-1,972,498,-1.92233,39.8629
-245,526,-1.91339,-40.4646,0,0,0,0,0,0,0,-1,979,498,-1.9134,40.4646
-238,526,-1.72333,-40.8365,0,0,0,0,0,0,0,-1,986,498,-1.72331,40.8365
-231,526,-1.96051,-40.5001,0,0,0,0,0,0,0,-1,993,498,-1.96054,40.5001
-224,526,-2.15918,-41.7118,0,0,0,0,0,0,0,-1,1000,498,-2.1592,41.7118
-217,526,-2.30591,-42.9977,0,0,0,0,0,0,0,-1,1007,498,-2.30592,42.9978
-210,526,-2.31458,-43.4537,0,0,0,0,0,0,0,-1,1014,498,-2.3146,43.4536
-203,526,-0.659302,-18.8818,0,0,0,0,0,0,0,-1,1021,498,-0.659273,18.8818
-196,526,-0.328247,-12.179,0,0,0,0,0,0,0,-1,1028,498,-0.328238,12.179
-189,526,0.401245,-5.96826,0,0,0,0,0,0,0,-1,1035,498,0.401197,5.96826
-182,526,1.7323,-2.99405,0,0,0,0,0,0,0,-1,1042,498,1.73226,2.99404
-175,526,2.27637,-2.07983,0,0,0,0,0,0,0,-1,1049,498,2.27639,2.07984
-168,526,2.12036,-1.66049,0,0,0,0,0,0,0,-1,1056,498,2.12035,1.66048
-161,526,2.09082,-1.20572,0,0,0,0,0,0,0,-1,1063,498,2.09086,1.2057
-154,526,-1.3446,-5.37799,0,0,0,0,0,0,0,-1,1070,498,-1.34457,5.37799
-147,526,-0.472656,-6.64996,0,0,0,0,0,0,0,-1,1077,498,-0.472659,6.64997
-140,526,0.422852,-8.03339,0,0,0,0,0,0,0,-1,1084,498,0.422844,8.0334
-133,526,1.09583,-9.2215,0,0,0,0,0,0,0,-1,1091,498,1.09581,9.2215
-126,526,3.42529,-2.36053,0,0,0,0,0,0,0,-1,1098,498,3.42523,2.36052
-119,526,2.7771,-0.764099,0,0,0,0,0,0,0,-1,1105,498,2.7771,0.764107
-112,526,2.57715,-1.1893,0,0,0,0,0,0,0,-1,1112,498,2.57718,1.1893
-105,526,0,0,0,0,0,0,0,0,0,-1,1119,498,0,0
-98,526,0,0,0,0,0,0,0,0,0,-1,1126,498,0,0
-91,526,0,0,0,0,0,0,0,0,0,-1,1133,498,0,0
-84,526,0,0,0,0,0,0,0,0,0,-1,1140,498,0,0
-77,526,0,0,0,0,0,0,0,0,0,-1,1147,498,0,0
-70,526,0,0,0,0,0,0,0,0,0,-1,1154,498,0,0
-63,526,0,0,0,0,0,0,0,0,0,-1,1161,498,0,0
-56,526,0,0,0,0,0,0,0,0,0,-1,1168,498,0,0
-49,526,0,0,0,0,0,0,0,0,0,-1,1175,498,0,0
-42,526,0,0,0,0,0,0,0,0,0,-1,1182,498,0,0
-35,526,0,0,0,0,0,0,0,0,0,-1,1189,498,0,0
-28,526,0,0,0,0,0,0,0,0,0,-1,1196,498,0,0
-21,526,0,0,0,0,0,0,0,0,0,-1,1203,498,0,0
-14,526,0,0,0,0,0,0,0,0,0,-1,1210,498,0,0
-7,526,0,0,0,0,0,0,0,0,0,-1,1217,498,0,0
0,526,0,0,0,0,0,0,0,0,0,-1,1224,498,0,0
7,526,0,0,0,0,0,0,0,0,0,-1,1231,498,0,0
14,526,0,0,0,0,0,0,0,0,0,-1,1238,498,0,0
21,526,0,0,0,0,0,0,0,0,0,-1,1245,498,0,0
28,526,0,0,0,0,0,0,0,0,0,-1,1252,498,0,0
35,526,0,0,0,0,0,0,0,0,0,-1,1259,498,0,0
42,526,0,0,0,0,0,0,0,0,0,-1,1266,498,0,0
49,526,0,0,0,0,0,0,0,0,0,-1,1273,498,0,0
56,526,0,0,0,0,0,0,0,0,0,-1,1280,498,0,0
63,526,0,0,0,0,0,0,0,0,0,-1,1287,498,0,0
70,526,0,0,0,0,0,0,0,0,0,-1,1294,498,0,0
77,526,0,0,0,0,0,0,0,0,0,-1,1301,498,0,0
84,526,0,0,0,0,0,0,0,0,0,-1,1308,498,0,0
91,526,0,0,0,0,0,0,0,0,0,-1,1315,498,0,0
98,526,0,0,0,0,0,0,0,0,0,-1,1322,498,0,0
105,526,0,0,0,0,0,0,0,0,0,-1,1329,498,0,0
112,526,0,0,0,0,0,0,0,0,0,-1,1336,498,0,0
119,526,0,0,0,0,0,0,0,0,0,-1,1343,498,0,0
126,526,0,0,0,0,0,0,0,0,0,-1,1350,498,0,0
133,526,0,0,0,0,0,0,0,0,0,-1,1357,498,0,0
140,526,0,0,0,0,0,0,0,0,0,-1,1364,498,0,0
147,526,0,0,0,0,0,0,0,0,0,-1,1371,498,0,0
154,526,0,0,0,0,0,0,0,0,0,-1,1378,498,0,0
161,526,0,0,0,0,0,0,0,0,0,-1,1385,498,0,0
168,526,0,0,0,0,0,0,0,0,0,-1,1392,498,0,0
175,526,0,0,0,0,0,0,0,0,0,-1,1399,498,0,0
182,526,0,0,0,0,0,0,0,0,0,-1,1406,498,0,0
189,526,0,0,0,0,0,0,0,0,0,-1,1413,498,0,0
196,526,0,0,0,0,0,0,0,0,0,-1,1420,498,0,0
203,526,0,0,0,0,0,0,0,0,0,-1,1427,498,0,0
210,526,0,0,0,0,0,0,0,0,0,-1,1434,498,0,0
217,526,0,0,0,0,0,0,0,0,0,-1,1441,498,0,0
224,526,0,0,0,0,0,0,0,0,0,-1,1448,498,0,0
231,526,7.93237,-1.30618,0,0,0,0,0,0,0,-1,1455,498,7.93238,1.30618
238,526,7.97717,-1.08197,0,0,0,0,0,0,0,-1,1462,498,7.97723,1.08196
245,526,7.2793,-0.792938,0,0,0,0,0,0,0,-1,1469,498,7.27931,0.792926
252,526,6.73523,-2.23608,0,0,0,0,0,0,0,-1,1476,498,6.73525,2.23608
259,526,6.22949,-1.84967,0,0,0,0,0,0,0,-1,1483,498,6.22953,1.84968
266,526,5.72375,-1.46329,0,0,0,0,0,0,0,-1,1490,498,5.72381,1.46328
273,526,4.33984,0.49173,0,0,0,0,0,0,0,-1,1497,498,4.33979,-0.491727
280,526,1.4585,-1.59897,0,0,0,0,0,0,0,-1,1504,498,1.45846,1.59895
287,526,1.46411,-2.40134,0,0,0,0,0,0,0,-1,1511,498,1.46406,2.40133
294,526,5.57471,-4.59085,0,0,0,0,0,0,0,-1,1518,498,5.57466,4.59084
301,526,4.42786,-3.99677,0,0,0,0,0,0,0,-1,1525,498,4.42788,3.99676
308,526,5.79529,-4.19366,0,0,0,0,0,0,0,-1,1532,498,5.79528,4.19368
315,526,5.09851,-5.20068,0,0,0,0,0,0,0,-1,1539,498,5.09851,5.20068
322,526,5.50708,-4.72348,0,0,0,0,0,0,0,-1,1546,498,5.50713,4.72347
329,526,3.88672,-4.345,0,0,0,0,0,0,0,-1,1553,498,3.88674,4.34501
336,526,4.97876,-2.23828,0,0,0,0,0,0,0,-1,1560,498,4.97877,2.23828
343,526,3.31665,-2.69696,0,0,0,0,0,0,0,-1,1567,498,3.31667,2.69696
350,526,6.06287,-6.12015,0,0,0,0,0,0,0,-1,1574,498,6.06286,6.12014
357,526,12.9944,-29.1665,0,0,0,0,0,0,0,-1,1581,498,12.9943,29.1665
364,526,13.2582,-29.5416,0,0,0,0,0,0,0,-1,1588,498,13.2581,29.5416
371,526,12.4481,-29.0131,0,0,0,0,0,0,0,-1,1595,498,12.4481,29.0131
378,526,15.619,-39.1503,0,0,0,0,0,0,0,-1,1602,498,15.619,39.1503
385,526,16.3634,-38.7777,0,0,0,0,0,0,0,-1,1609,498,16.3634,38.7777
392,526,16.3263,-38.0144,0,0,0,0,0,0,0,-1,1616,498,16.3262,38.0144
399,526,16.3198,-37.1818,0.00127592,-0.000582314,-0.00170931,0.00229231,-0.00159871,-0.536455,0.00225835,0.0234476,1623,498,16.3199,37.1818
406,526,16.3225,-36.365,0.00131112,0.000598357,-0.00106876,0.00208135,-0.00017187,-0.624469,0.00144826,0.0138013,1630,498,16.3225,36.365
413,526,16.2771,-35.5988,0.00136894,0.00114297,-0.000504844,0.00177329,0.000738626,-0.675311,0.00102855,0.0130715,1637,498,16.2771,35.5988
420,526,16.2209,-34.8285,0.00134514,0.00134938,-0.000106358,0.00145364,0.00124088,-0.795369,0.000906536,0.0143081,1644,498,16.221,34.8285
427,526,16.2009,-34.0377,0.00125038,0.00147224,0.000242464,0.00162795,0.00109467,0.999947,0.000958343,0.0155884,1651,498,16.2009,34.0377
434,526,16.1504,-33.2555,0.00120015,0.00150632,0.000589133,0.00196193,0.000744537,0.912514,0.00114364,0.0130968,1658,498,16.1504,33.2555
441,526,16.11,-32.4761,0.00119746,0.00161705,0.000974838,0.00240441,0.000410098,0.891387,0.00148524,0.0112869,1665,498,16.11,32.4761
448,526,16.104,-31.7113,0.00113472,0.00160868,0.00130682,0.00269983,4.35704e-05,0.875093,0.00178554,0.0107158,1672,498,16.104,31.7113
455,526,16.0524,-30.91,0.0010178,0.0016532,0.00163945,0.00300546,-0.000334453,0.881105,0.00212392,0.0135846,1679,498,16.0523,30.9101
462,526,16.0143,-30.092,0.00101327,0.00176021,0.00196538,0.00338728,-0.000613807,0.87929,0.00248816,0.0109358,1686,498,16.0142,30.092
469,526,15.9781,-29.3129,0.00122356,0.00196356,0.00230837,0.0039314,-0.000744279,0.864866,0.00290103,0.0083433,1693,498,15.9781,29.3129
476,526,15.9287,-28.4873,0.0013469,0.00219931,0.00264757,0.00445476,-0.000908545,0.865203,0.00331446,0.0100219,1700,498,15.9288,28.4873
483,526,15.8986,-27.5906,0.0016204,0.00252878,0.00305295,0.00516114,-0.00101196,0.859242,0.00382299,0.0148423,1707,498,15.8985,27.5907
490,526,15.9583,-26.6514,0.00203503,0.00289773,0.00351817,0.00601089,-0.00107814,0.846397,0.00441079,0.0377757,1714,498,15.9582,26.6514
497,526,16.0602,-25.8215,0,0,0,0,0,0,0,-1,1721,498,16.0602,25.8215
504,526,15.9695,-24.787,0,0,0,0,0,0,0,-1,1728,498,15.9695,24.787
511,526,16.3196,-24.0748,0,0,0,0,0,0,0,-1,1735,498,16.3196,24.0747
518,526,14.7889,-20.4046,0,0,0,0,0,0,0,-1,1742,498,14.7889,20.4046
525,526,14.7009,-19.7487,0,0,0,0,0,0,0,-1,1749,498,14.7009,19.7486
532,526,15.7457,-17.9624,0,0,0,0,0,0,0,-1,1756,498,15.7458,17.9624
539,526,16.1064,-16.42,0,0,0,0,0,0,0,-1,1763,498,16.1065,16.42
546,526,12.4675,-17.1617,0,0,0,0,0,0,0,-1,1770,498,12.4675,17.1617
553,526,3.40796,1.37137,0,0,0,0,0,0,0,-1,1777,498,3.40792,-1.37138
560,526,0,0,0,0,0,0,0,0,0,-1,1784,498,0,0
567,526,0,0,0,0,0,0,0,0,0,-1,1791,498,0,0
574,526,0,0,0,0,0,0,0,0,0,-1,1798,498,0,0
581,526,0,0,0,0,0,0,0,0,0,-1,1805,498,0,0
588,526,0,0,0,0,0,0,0,0,0,-1,1812,498,0,0
595,526,0,0,0,0,0,0,0,0,0,-1,1819,498,0,0
602,526,0,0,0,0,0,0,0,0,0,-1,1826,498,0,0
609,526,0,0,0,0,0,0,0,0,0,-1,1833,498,0,0
616,526,0,0,0,0,0,0,0,0,0,-1,1840,498,0,0
623,526,0,0,0,0,0,0,0,0,0,-1,1847,498,0,0
630,526,0,0,0,0,0,0,0,0,0,-1,1854,498,0,0
637,526,0,0,0,0,0,0,0,0,0,-1,1861,498,0,0
644,526,0,0,0,0,0,0,0,0,0,-1,1868,498,0,0
651,526,0,0,0,0,0,0,0,0,0,-1,1875,498,0,0
658,526,0,0,0,0,0,0,0,0,0,-1,1882,498,0,0
665,526,0,0,0,0,0,0,0,0,0,-1,1889,498,0,0
672,526,0,0,0,0,0,0,0,0,0,-1,1896,498,0,0
679,526,0,0,0,0,0,0,0,0,0,-1,1903,498,0,0
686,526,0,0,0,0,0,0,0,0,0,-1,1910,498,0,0
693,526,0,0,0,0,0,0,0,0,0,-1,1917,498,0,0
700,526,0,0,0,0,0,0,0,0,0,-1,1924,498,0,0
707,526,0,0,0,0,0,0,0,0,0,-1,1931,498,0,0
714,526,0,0,0,0,0,0,0,0,0,-1,1938,498,0,0
721,526,0,0,0,0,0,0,0,0,0,-1,1945,498,0,0
728,526,0,0,0,0,0,0,0,0,0,-1,1952,498,0,0
735,526,0,0,0,0,0,0,0,0,0,-1,1959,498,0,0
742,526,0,0,0,0,0,0,0,0,0,-1,1966,498,0,0
749,526,0,0,0,0,0,0,0,0,0,-1,1973,498,0,0
756,526,0,0,0,0,0,0,0,0,0,-1,1980,498,0,0
763,526,0,0,0,0,0,0,0,0,0,-1,1987,498,0,0
770,526,0,0,0,0,0,0,0,0,0,-1,1994,498,0,0
777,526,0,0,0,0,0,0,0,0,0,-1,2001,498,0,0
784,526,0,0,0,0,0,0,0,0,0,-1,2008,498,0,0
791,526,0,0,0,0,0,0,0,0,0,-1,2015,498,0,0
798,526,0,0,0,0,0,0,0,0,0,-1,2022,498,0,0
805,526,0,0,0,0,0,0,0,0,0,-1,2029,498,0,0
812,526,0,0,0,0,0,0,0,0,0,-1,2036,498,0,0
-700,519,0,0,0,0,0,0,0,0,0,-1,524,505,0,0
-693,519,0,0,0,0,0,0,0,0,0,-1,531,505,0,0
-686,519,0,0,0,0,0,0,0,0,0,-1,538,505,0,0
-679,519,0,0,0,0,0,0,0,0,0,-1,545,505,0,0
-672,519,0,0,0,0,0,0,0,0,0,-1,552,505,0,0
-665,519,0,0,0,0,0,0,0,0,0,-1,559,505,0,0
-658,519,0,0,0,0,0,0,0,0,0,-1,566,505,0,0
-651,519,0,0,0,0,0,0,0,0,0,-1,573,505,0,0
-644,519,0,0,0,0,0,0,0,0,0,-1,580,505,0,0
-637,519,0,0,0,0,0,0,0,0,0,-1,587,505,0,0
-630,519,0,0,0,0,0,0,0,0,0,-1,594,505,0,0
-623,519,0,0,0,0,0,0,0,0,0,-1,601,505,0,0
-616,519,0,0,0,0,0,0,0,0,0,-1,608,505,0,0
-609,519,0,0,0,0,0,0,0,0,0,-1,615,505,0,0
-602,519,0,0,0,0,0,0,0,0,0,-1,622,505,0,0
-595,519,0,0,0,0,0,0,0,0,0,-1,629,505,0,0
-588,519,0,0,0,0,0,0,0,0,0,-1,636,505,0,0
-581,519,0,0,0,0,0,0,0,0,0,-1,643,505,0,0
-574,519,0,0,0,0,0,0,0,0,0,-1,650,505,0,0
-567,519,0,0,0,0,0,0,0,0,0,-1,657,505,0,0
-560,519,0,0,0,0,0,0,0,0,0,-1,664,505,0,0
-553,519,0,0,0,0,0,0,0,0,0,-1,671,505,0,0
-546,519,0,0,0,0,0,0,0,0,0,-1,678,505,0,0
-539,519,0,0,0,0,0,0,0,0,0,-1,685,505,0,0
-532,519,0,0,0,0,0,0,0,0,0,-1,692,505,0,0
-525,519,0,0,0,0,0,0,0,0,0,-1,699,505,0,0
-518,519,0,0,0,0,0,0,0,0,0,-1,706,505,0,0
-511,519,0,0,0,0,0,0,0,0,0,-1,713,505,0,0
-504,519,0,0,0,0,0,0,0,0,0,-1,720,505,0,0
-497,519,0,0,0,0,0,0,0,0,0,-1,727,505,0,0
-490,519,0,0,0,0,0,0,0,0,0,-1,734,505,0,0
-483,519,0,0,0,0,0,0,0,0,0,-1,741,505,0,0
-476,519,0,0,0,0,0,0,0,0,0,-1,748,505,0,0
-469,519,0,0,0,0,0,0,0,0,0,-1,755,505,0,0
-462,519,0,0,0,0,0,0,0,0,0,-1,762,505,0,0
-455,519,0,0,0,0,0,0,0,0,0,-1,769,505,0,0
-448,519,0,0,0,0,0,0,0,0,0,-1,776,505,0,0
-441,519,1.34839,-5.29346,0,0,0,0,0,0,0,-1,783,505,1.3484,5.29347
-434,519,0.949585,-5.77313,0,0,0,0,0,0,0,-1,790,505,0.949598,5.77315
-427,519,-0.0523682,-9.31567,0,0,0,0,0,0,0,-1,797,505,-0.0523854,9.31568
-420,519,-2.38867,-12.1938,0,0,0,0,0,0,0,-1,804,505,-2.38867,12.1938
-413,519,-2.2298,-12.4998,0,0,0,0,0,0,0,-1,811,505,-2.22979,12.4998
-406,519,-1.44373,-12.3475,0,0,0,0,0,0,0,-1,818,505,-1.44376,12.3475
-399,519,-1.60516,-15.0849,0,0,0,0,0,0,0,-1,825,505,-1.60518,15.0849
-392,519,-1.89258,-23.4095,0,0,0,0,0,0,0,-1,832,505,-1.89259,23.4096
-385,519,-2.67346,-24.2612,0,0,0,0,0,0,0,-1,839,505,-2.67347,24.2612
-378,519,-2.40979,-25.3275,0.00243817,0.0213128,-0.011402,0.0266765,-0.00292545,-1.1311,0.0188353,0.0396341,846,505,-2.40979,25.3274
-371,519,-2.17834,-26.4332,0.00210765,0.0182261,-0.00987816,0.0229155,-0.00258182,-1.12757,0.0162063,0.0200053,853,505,-2.17833,26.4332
-364,519,-2.17963,-27.3769,0.00173388,0.0153603,-0.00827176,0.0192635,-0.00216935,-1.1299,0.0136231,0.0117239,860,505,-2.17961,27.3769
-357,519,-2.18872,-28.2512,0.00132267,0.0126139,-0.00677383,0.0157864,-0.00184974,-1.1328,0.0111919,0.0112921,867,505,-2.18871,28.2512
-350,519,-2.24634,-29.0532,0.000946505,0.0100482,-0.00535884,0.0125278,-0.00153311,-1.13742,0.00890698,0.0134674,874,505,-2.24633,29.0532
-343,519,-2.34515,-29.8255,0.000672576,0.00760619,-0.00406529,0.00948216,-0.0012034,-1.13845,0.00675838,0.0167558,881,505,-2.34514,29.8255
-336,519,-2.40808,-30.6339,0.000436975,0.00544297,-0.00287499,0.00675187,-0.000871922,-1.14357,0.00481826,0.0178786,888,505,-2.40807,30.6339
-329,519,-2.40369,-31.4593,0.000274369,0.00354703,-0.00180766,0.00434898,-0.000527581,-1.15324,0.00309023,0.0154825,895,505,-2.40366,31.4593
-322,519,-2.41174,-32.2464,8.23332e-05,0.00177248,-0.000752368,0.00205887,-0.000204056,-1.20708,0.00144541,0.0115581,902,505,-2.41176,32.2464
-315,519,-2.4588,-33.0397,4.88407e-05,0.000365675,9.93459e-05,0.000394249,2.0267e-05,1.29074,0.000256344,0.00937329,909,505,-2.45881,33.0397
-308,519,-2.52362,-33.8479,0.000198933,-0.000729265,0.000760093,0.000625412,-0.00115574,0.511316,0.00104343,0.00840801,916,505,-2.52359,33.8479
-301,519,-2.5835,-34.5992,0.000359039,-0.00149938,0.00134046,0.00106086,-0.0022012,0.482323,0.00192132,0.0132666,923,505,-2.58349,34.5992
-294,519,-2.58997,-35.3229,0.000616752,-0.00210747,0.00189342,0.00158711,-0.00307783,0.473587,0.00273876,0.0158122,930,505,-2.58998,35.3229
-287,519,-2.64557,-36.069,0.000986879,-0.00292418,0.00235294,0.00209083,-0.00402813,0.438689,0.00359132,0.0112482,937,505,-2.64557,36.069
-280,519,-2.68958,-36.8379,0.00104784,-0.00495266,0.0029919,0.00228469,-0.00618951,0.392003,0.00506276,0.0241364,944,505,-2.68959,36.8379
-273,519,-2.68713,-37.7372,0,0,0,0,0,0,0,-1,951,505,-2.68714,37.7372
-266,519,-2.68616,-38.4332,0,0,0,0,0,0,0,-1,958,505,-2.68615,38.4332
-259,519,-2.5011,-39.2814,0,0,0,0,0,0,0,-1,965,505,-2.5011,39.2814
-252,519,-1.84009,-26.8372,0,0,0,0,0,0,0,-1,972,505,-1.8401,26.8372
-245,519,-1.23254,-23.2696,0,0,0,0,0,0,0,-1,979,505,-1.23256,23.2696
-238,519,-0.645386,-38.9008,0,0,0,0,0,0,0,-1,986,505,-0.645375,38.9008
-231,519,-2.61829,-39.5486,0,0,0,0,0,0,0,-1,993,505,-2.61829,39.5486
-224,519,-2.90112,-39.5726,0,0,0,0,0,0,0,-1,1000,505,-2.90114,39.5726
-217,519,-2.87396,-38.149,0,0,0,0,0,0,0,-1,1007,505,-2.87394,38.149
-210,519,-0.883362,-34.799,0,0,0,0,0,0,0,-1,1014,505,-0.883379,34.799
-203,519,-0.513611,-5.39017,0,0,0,0,0,0,0,-1,1021,505,-0.513585,5.39017
-196,519,-0.374023,-5.41635,0,0,0,0,0,0,0,-1,1028,505,-0.374047,5.41635
-189,519,-0.234497,-5.44254,0,0,0,0,0,0,0,-1,1035,505,-0.234508,5.44253
-182,519,2.76697,-1.19659,0,0,0,0,0,0,0,-1,1042,505,2.76696,1.19661
-175,519,2.31323,-0.960938,0,0,0,0,0,0,0,-1,1049,505,2.31319,0.960941
-168,519,2.01074,-0.721405,0,0,0,0,0,0,0,-1,1056,505,2.01072,0.721407
-161,519,2.32056,-0.522339,0,0,0,0,0,0,0,-1,1063,505,2.32057,0.522328
-154,519,2.55566,0.116669,0,0,0,0,0,0,0,-1,1070,505,2.55563,-0.116661
-147,519,-0.55127,-6.14001,0,0,0,0,0,0,0,-1,1077,505,-0.551252,6.14001
-140,519,0.240601,-7.53503,0,0,0,0,0,0,0,-1,1084,505,0.240653,7.53501
-133,519,2.70911,-4.4516,0,0,0,0,0,0,0,-1,1091,505,2.70915,4.45161
-126,519,0,0,0,0,0,0,0,0,0,-1,1098,505,0,0
-119,519,0,0,0,0,0,0,0,0,0,-1,1105,505,0,0
-112,519,0,0,0,0,0,0,0,0,0,-1,1112,505,0,0
-105,519,0,0,0,0,0,0,0,0,0,-1,1119,505,0,0
-98,519,0,0,0,0,0,0,0,0,0,-1,1126,505,0,0
-91,519,0,0,0,0,0,0,0,0,0,-1,1133,505,0,0
-84,519,0,0,0,0,0,0,0,0,0,-1,1140,505,0,0
-77,519,0,0,0,0,0,0,0,0,0,-1,1147,505,0,0
-70,519,0,0,0,0,0,0,0,0,0,-1,1154,505,0,0
-63,519,0,0,0,0,0,0,0,0,0,-1,1161,505,0,0
-56,519,0,0,0,0,0,0,0,0,0,-1,1168,505,0,0
-49,519,0,0,0,0,0,0,0,0,0,-1,1175,505,0,0
-42,519,0,0,0,0,0,0,0,0,0,-1,1182,505,0,0
-35,519,0,0,0,0,0,0,0,0,0,-1,1189,505,0,0
-28,519,0,0,0,0,0,0,0,0,0,-1,1196,505,0,0
-21,519,0,0,0,0,0,0,0,0,0,-1,1203,505,0,0
-14,519,0,0,0,0,0,0,0,0,0,-1,1210,505,0,0
-7,519,0,0,0,0,0,0,0,0,0,-1,1217,505,0,0
0,519,0,0,0,0,0,0,0,0,0,-1,1224,505,0,0
7,519,0,0,0,0,0,0,0,0,0,-1,1231,505,0,0
14,519,0,0,0,0,0,0,0,0,0,-1,1238,505,0,0
21,519,0,0,0,0,0,0,0,0,0,-1,1245,505,0,0
28,519,0,0,0,0,0,0,0,0,0,-1,1252,505,0,0
35,519,0,0,0,0,0,0,0,0,0,-1,1259,505,0,0
42,519,0,0,0,0,0,0,0,0,0,-1,1266,505,0,0
49,519,0,0,0,0,0,0,0,0,0,-1,1273,505,0,0
56,519,0,0,0,0,0,0,0,0,0,-1,1280,505,0,0
63,519,0,0,0,0,0,0,0,0,0,-1,1287,505,0,0
70,519,0,0,0,0,0,0,0,0,0,-1,1294,505,0,0
77,519,0,0,0,0,0,0,0,0,0,-1,1301,505,0,0
84,519,0,0,0,0,0,0,0,0,0,-1,1308,505,0,0
91,519,0,0,0,0,0,0,0,0,0,-1,1315,505,0,0
98,519,0,0,0,0,0,0,0,0,0,-1,1322,505,0,0
105,519,0,0,0,0,0,0,0,0,0,-1,1329,505,0,0
112,519,0,0,0,0,0,0,0,0,0,-1,1336,505,0,0
119,519,0,0,0,0,0,0,0,0,0,-1,1343,505,0,0
126,519,0,0,0,0,0,0,0,0,0,-1,1350,505,0,0
133,519,0,0,0,0,0,0,0,0,0,-1,1357,505,0,0
140,519,0,0,0,0,0,0,0,0,0,-1,1364,505,0,0
147,519,0,0,0,0,0,0,0,0,0,-1,1371,505,0,0
154,519,0,0,0,0,0,0,0,0,0,-1,1378,505,0,0
161,519,0,0,0,0,0,0,0,0,0,-1,1385,505,0,0
168,519,0,0,0,0,0,0,0,0,0,-1,1392,505,0,0
175,519,0,0,0,0,0,0,0,0,0,-1,1399,505,0,0
182,519,0,0,0,0,0,0,0,0,0,-1,1406,505,0,0
189,519,0,0,0,0,0,0,0,0,0,-1,1413,505,0,0
196,519,0,0,0,0,0,0,0,0,0,-1,1420,505,0,0
203,519,0,0,0,0,0,0,0,0,0,-1,1427,505,0,0
210,519,0,0,0,0,0,0,0,0,0,-1,1434,505,0,0
217,519,0,0,0,0,0,0,0,0,0,-1,1441,505,0,0
224,519,0,0,0,0,0,0,0,0,0,-1,1448,505,0,0
231,519,0,0,0,0,0,0,0,0,0,-1,1455,505,0,0
238,519,0,0,0,0,0,0,0,0,0,-1,1462,505,0,0
245,519,0,0,0,0,0,0,0,0,0,-1,1469,505,0,0
252,519,5.26208,0.0938416,0,0,0,0,0,0,0,-1,1476,505,5.26207,-0.0938493
259,519,6.14246,-1.36441,0,0,0,0,0,0,0,-1,1483,505,6.14241,1.36441
266,519,5.31909,-0.400787,0,0,0,0,0,0,0,-1,1490,505,5.31912,0.400773
273,519,4.02393,0.325531,0,0,0,0,0,0,0,-1,1497,505,4.0239,-0.325522
280,519,4.68848,0.53006,0,0,0,0,0,0,0,-1,1504,505,4.68842,-0.530073
287,519,7.9519,-3.80801,0,0,0,0,0,0,0,-1,1511,505,7.95193,3.808
294,519,6.92273,-3.38889,0,0,0,0,0,0,0,-1,1518,505,6.92268,3.38888
301,519,5.35669,-2.92661,0,0,0,0,0,0,0,-1,1525,505,5.35675,2.9266
308,519,7.37549,-5.64529,0,0,0,0,0,0,0,-1,1532,505,7.3755,5.64529
315,519,6.30029,-4.53754,0,0,0,0,0,0,0,-1,1539,505,6.30024,4.53753
322,519,5.84302,-5.45117,0,0,0,0,0,0,0,-1,1546,505,5.84303,5.45116
329,519,4.92407,0.62384,0,0,0,0,0,0,0,-1,1553,505,4.92403,-0.623832
336,519,3.10095,-0.329285,0,0,0,0,0,0,0,-1,1560,505,3.1009,0.329283
343,519,2.49146,-2.31119,0,0,0,0,0,0,0,-1,1567,505,2.49145,2.31119
350,519,3.47729,-2.22516,0,0,0,0,0,0,0,-1,1574,505,3.47726,2.22515
357,519,13.271,-29.6344,0,0,0,0,0,0,0,-1,1581,505,13.271,29.6344
364,519,12.8292,-28.3627,0,0,0,0,0,0,0,-1,1588,505,12.8292,28.3627
371,519,12.3875,-27.0911,0,0,0,0,0,0,0,-1,1595,505,12.3874,27.091
378,519,6.36597,-10.0967,0,0,0,0,0,0,0,-1,1602,505,6.36597,10.0967
385,519,6.24756,-9.72186,0,0,0,0,0,0,0,-1,1609,505,6.24752,9.72183
392,519,16.8391,-37.6736,0,0,0,0,0,0,0,-1,1616,505,16.8391,37.6737
399,519,17.0321,-37.1837,0,0,0,0,0,0,0,-1,1623,505,17.0321,37.1836
406,519,17.0977,-36.3617,0.00133586,0.000700805,-0.00166786,0.00271615,-0.000679483,-0.691334,0.00207469,0.0355186,1630,505,17.0976,36.3617
413,519,17.0977,-35.5919,0.00150389,0.00111592,-0.00106042,0.00238792,0.000231885,-0.694932,0.00152056,0.0159971,1637,505,17.0977,35.5919
420,519,17.0197,-34.7717,0.0015353,0.0011871,-0.000643387,0.00202773,0.000694676,-0.653262,0.00118989,0.0160914,1644,505,17.0197,34.7717
427,519,17.0023,-34.023,0.00144575,0.00123639,-0.000293744,0.00165291,0.00102923,-0.614234,0.000963835,0.0155203,1651,505,17.0023,34.023
434,519,16.9531,-33.2466,0.00135293,0.00119421,2.77365e-05,0.00135764,0.0011895,0.168113,0.000854578,0.0140136,1658,505,16.9531,33.2466
441,519,16.8962,-32.4407,0.00132888,0.00125655,0.000393511,0.00168789,0.00089755,0.739574,0.000975158,0.0127283,1665,505,16.8963,32.4407
448,519,16.8783,-31.6682,0.00126548,0.00125502,0.000732252,0.00199252,0.00052798,0.78183,0.00119199,0.00986143,1672,505,16.8784,31.6682
455,519,16.829,-30.8804,0.00115041,0.00132721,0.00106849,0.00231095,0.000166666,0.826672,0.00148819,0.0113835,1679,505,16.8289,30.8804
462,519,16.8068,-30.069,0.00114405,0.00148044,0.0014009,0.0027232,-9.87186e-05,0.845143,0.00184925,0.0114852,1686,505,16.8068,30.0691
469,519,16.7948,-29.259,0.00134181,0.00172968,0.00175996,0.00330636,-0.000234864,0.840273,0.00228655,0.0117628,1693,505,16.7948,29.259
476,519,16.752,-28.4261,0.00144691,0.00201179,0.00212349,0.00387154,-0.000412837,0.851514,0.00272906,0.0135438,1700,505,16.7519,28.4261
483,519,16.6992,-27.585,0.00168647,0.00235829,0.00254271,0.00458718,-0.000542423,0.851071,0.00325403,0.0145338,1707,505,16.6993,27.585
490,519,16.647,-26.7435,0.00202915,0.00275449,0.00298806,0.00540181,-0.000618169,0.845789,0.00382395,0.0127763,1714,505,16.647,26.7435
497,519,16.5938,-26.035,0.00240674,0.00296251,0.0032472,0.00594369,-0.000574437,0.828083,0.00416716,0.034483,1721,505,16.5937,26.0351
504,519,16.5859,-25.028,0,0,0,0,0,0,0,-1,1728,505,16.586,25.028
511,519,16.6227,-24.1192,0,0,0,0,0,0,0,-1,1735,505,16.6227,24.1192
518,519,16.5758,-23.2543,0,0,0,0,0,0,0,-1,1742,505,16.5759,23.2542
525,519,15.9647,-20.5714,0,0,0,0,0,0,0,-1,1749,505,15.9648,20.5714
532,519,15.825,-19.0025,0,0,0,0,0,0,0,-1,1756,505,15.8249,19.0025
539,519,16.5902,-16.8075,0,0,0,0,0,0,0,-1,1763,505,16.5903,16.8075
546,519,12.4001,-16.5616,0,0,0,0,0,0,0,-1,1770,505,12.4002,16.5616
553,519,4.14136,0.0667419,0,0,0,0,0,0,0,-1,1777,505,4.14141,-0.0667503
560,519,3.77856,0.279724,0,0,0,0,0,0,0,-1,1784,505,3.77861,-0.279731
567,519,0,0,0,0,0,0,0,0,0,-1,1791,505,0,0
574,519,0,0,0,0,0,0,0,0,0,-1,1798,505,0,0
581,519,0,0,0,0,0,0,0,0,0,-1,1805,505,0,0
588,519,0,0,0,0,0,0,0,0,0,-1,1812,505,0,0
595,519,0,0,0,0,0,0,0,0,0,-1,1819,505,0,0
602,519,0,0,0,0,0,0,0,0,0,-1,1826,505,0,0
609,519,0,0,0,0,0,0,0,0,0,-1,1833,505,0,0
616,519,0,0,0,0,0,0,0,0,0,-1,1840,505,0,0
623,519,0,0,0,0,0,0,0,0,0,-1,1847,505,0,0
630,519,0,0,0,0,0,0,0,0,0,-1,1854,505,0,0
637,519,0,0,0,0,0,0,0,0,0,-1,1861,505,0,0
644,519,0,0,0,0,0,0,0,0,0,-1,1868,505,0,0
651,519,0,0,0,0,0,0,0,0,0,-1,1875,505,0,0
658,519,0,0,0,0,0,0,0,0,0,-1,1882,505,0,0
665,519,0,0,0,0,0,0,0,0,0,-1,1889,505,0,0
672,519,0,0,0,0,0,0,0,0,0,-1,1896,505,0,0
679,519,0,0,0,0,0,0,0,0,0,-1,1903,505,0,0
686,519,0,0,0,0,0,0,0,0,0,-1,1910,505,0,0
693,519,0,0,0,0,0,0,0,0,0,-1,1917,505,0,0
700,519,0,0,0,0,0,0,0,0,0,-1,1924,505,0,0
707,519,0,0,0,0,0,0,0,0,0,-1,1931,505,0,0
714,519,0,0,0,0,0,0,0,0,0,-1,1938,505,0,0
721,519,0,0,0,0,0,0,0,0,0,-1,1945,505,0,0
728,519,0,0,0,0,0,0,0,0,0,-1,1952,505,0,0
735,519,0,0,0,0,0,0,0,0,0,-1,1959,505,0,0
742,519,0,0,0,0,0,0,0,0,0,-1,1966,505,0,0
749,519,0,0,0,0,0,0,0,0,0,-1,1973,505,0,0
756,519,0,0,0,0,0,0,0,0,0,-1,1980,505,0,0
763,519,0,0,0,0,0,0,0,0,0,-1,1987,505,0,0
770,519,0,0,0,0,0,0,0,0,0,-1,1994,505,0,0
777,519,0,0,0,0,0,0,0,0,0,-1,2001,505,0,0
784,519,0,0,0,0,0,0,0,0,0,-1,2008,505,0,0
791,519,0,0,0,0,0,0,0,0,0,-1,2015,505,0,0
798,519,0,0,0,0,0,0,0,0,0,-1,2022,505,0,0
805,519,0,0,0,0,0,0,0,0,0,-1,2029,505,0,0
812,519,0,0,0,0,0,0,0,0,0,-1,2036,505,0,0
-700,512,0,0,0,0,0,0,0,0,0,-1,524,512,0,0
-693,512,0,0,0,0,0,0,0,0,0,-1,531,512,0,0
-686,512,0,0,0,0,0,0,0,0,0,-1,538,512,0,0
-679,512,0,0,0,0,0,0,0,0,0,-1,545,512,0,0
-672,512,0,0,0,0,0,0,0,0,0,-1,552,512,0,0
-665,512,0,0,0,0,0,0,0,0,0,-1,559,512,0,0
-658,512,0,0,0,0,0,0,0,0,0,-1,566,512,0,0
-651,512,0,0,0,0,0,0,0,0,0,-1,573,512,0,0
-644,512,0,0,0,0,0,0,0,0,0,-1,580,512,0,0
-637,512,0,0,0,0,0,0,0,0,0,-1,587,512,0,0
-630,512,0,0,0,0,0,0,0,0,0,-1,594,512,0,0
-623,512,0,0,0,0,0,0,0,0,0,-1,601,512,0,0
-616,512,0,0,0,0,0,0,0,0,0,-1,608,512,0,0
-609,512,0,0,0,0,0,0,0,0,0,-1,615,512,0,0
-602,512,0,0,0,0,0,0,0,0,0,-1,622,512,0,0
-595,512,0,0,0,0,0,0,0,0,0,-1,629,512,0,0
-588,512,0,0,0,0,0,0,0,0,0,-1,636,512,0,0
-581,512,0,0,0,0,0,0,0,0,0,-1,643,512,0,0
-574,512,0,0,0,0,0,0,0,0,0,-1,650,512,0,0
-567,512,0,0,0,0,0,0,0,0,0,-1,657,512,0,0
-560,512,0,0,0,0,0,0,0,0,0,-1,664,512,0,0
-553,512,0,0,0,0,0,0,0,0,0,-1,671,512,0,0
-546,512,0,0,0,0,0,0,0,0,0,-1,678,512,0,0
-539,512,0,0,0,0,0,0,0,0,0,-1,685,512,0,0
-532,512,0,0,0,0,0,0,0,0,0,-1,692,512,0,0
-525,512,0,0,0,0,0,0,0,0,0,-1,699,512,0,0
-518,512,0,0,0,0,0,0,0,0,0,-1,706,512,0,0
-511,512,0,0,0,0,0,0,0,0,0,-1,713,512,0,0
-504,512,0,0,0,0,0,0,0,0,0,-1,720,512,0,0
-497,512,0,0,0,0,0,0,0,0,0,-1,727,512,0,0
-490,512,0,0,0,0,0,0,0,0,0,-1,734,512,0,0
-483,512,0,0,0,0,0,0,0,0,0,-1,741,512,0,0
-476,512,0,0,0,0,0,0,0,0,0,-1,748,512,0,0
-469,512,0,0,0,0,0,0,0,0,0,-1,755,512,0,0
-462,512,0,0,0,0,0,0,0,0,0,-1,762,512,0,0
-455,512,0,0,0,0,0,0,0,0,0,-1,769,512,0,0
-448,512,1.96283,-4.15674,0,0,0,0,0,0,0,-1,776,512,1.96285,4.15677
-441,512,1.78198,-4.88824,0,0,0,0,0,0,0,-1,783,512,1.78201,4.88826
-434,512,0.0726929,-9.85822,0,0,0,0,0,0,0,-1,790,512,0.0727008,9.85819
-427,512,-0.384583,-9.94824,0,0,0,0,0,0,0,-1,797,512,-0.384552,9.94823
-420,512,-2.93219,-12.4855,0,0,0,0,0,0,0,-1,804,512,-2.93219,12.4855
-413,512,-2.22711,-11.4485,0,0,0,0,0,0,0,-1,811,512,-2.22712,11.4485
-406,512,-2.38037,-13.5743,0,0,0,0,0,0,0,-1,818,512,-2.38034,13.5743
-399,512,-3.10394,-22.4773,0,0,0,0,0,0,0,-1,825,512,-3.10395,22.4773
-392,512,-2.70123,-24.0122,0,0,0,0,0,0,0,-1,832,512,-2.70124,24.0122
-385,512,-2.80316,-24.8035,0.00202748,0.0189395,-0.0104457,0.0239229,-0.0029559,-1.12566,0.0170197,0.0242075,839,512,-2.80315,24.8036
-378,512,-2.90076,-25.6319,0.00187653,0.0162291,-0.0091636,0.020692,-0.00258638,-1.11758,0.0147326,0.0176674,846,512,-2.90075,25.6319
-371,512,-2.93359,-26.5069,0.00175456,0.0137056,-0.00792413,0.0176548,-0.00219456,-1.10846,0.0125654,0.0141842,853,512,-2.93359,26.5069
-364,512,-2.97449,-27.4048,0.00156531,0.0113071,-0.00657527,0.0146191,-0.0017467,-1.10419,0.0103774,0.0104598,860,512,-2.9745,27.4048
-357,512,-3.00049,-28.2279,0.00132362,0.0090839,-0.00527701,0.0117537,-0.00134623,-1.10241,0.00832095,0.0112478,867,512,-3.0005,28.2279
-350,512,-3.05585,-29.0239,0.00109215,0.00697135,-0.00404327,0.00903068,-0.000967179,-1.09972,0.00636738,0.0118825,874,512,-3.05585,29.0239
-343,512,-3.13281,-29.8132,0.00090703,0.00491289,-0.00289737,0.00643225,-0.000612326,-1.08783,0.00450616,0.0139505,881,512,-3.13279,29.8132
-336,512,-3.19659,-30.6212,0.000694891,0.00305144,-0.00180035,0.00402481,-0.000278485,-1.07515,0.00278069,0.0161789,888,512,-3.19658,30.6212
-329,512,-3.1817,-31.4311,0.000536937,0.00140583,-0.000807599,0.00188842,5.43453e-05,-1.03217,0.00124123,0.0175886,895,512,-3.18171,31.4311
-322,512,-3.21442,-32.2244,0.00037333,-0.000127484,0.000145478,0.000412521,-0.000166675,0.263153,0.000344294,0.014102,902,512,-3.21444,32.2244
-315,512,-3.25867,-33.0272,0.000354091,-0.00135934,0.000915581,0.000751269,-0.00175652,0.4093,0.00148614,0.0117018,909,512,-3.25866,33.0272
-308,512,-3.32727,-33.7875,0.000494252,-0.00229643,0.00152548,0.00116629,-0.00296846,0.414962,0.00246163,0.0117994,916,512,-3.3273,33.7875
-301,512,-3.36749,-34.541,0.00059708,-0.00288581,0.00210364,0.00158656,-0.00387529,0.43966,0.00324437,0.0166728,923,512,-3.3675,34.541
-294,512,-3.35718,-35.2819,0.00071859,-0.00336234,0.00268621,0.00205144,-0.00469519,0.460588,0.00399361,0.0164981,930,512,-3.35718,35.2819
-287,512,-3.50818,-35.9213,0.00100498,-0.00414684,0.0031184,0.00247378,-0.00561564,0.44019,0.00478641,0.0365645,937,512,-3.50821,35.9213
-280,512,-3.42981,-36.8372,0,0,0,0,0,0,0,-1,944,512,-3.42981,36.8372
-273,512,-2.90118,-34.7153,0,0,0,0,0,0,0,-1,951,512,-2.90121,34.7153
-266,512,-2.33594,-25.9839,0,0,0,0,0,0,0,-1,958,512,-2.33592,25.9839
-259,512,-0.525452,-14.0815,0,0,0,0,0,0,0,-1,965,512,-0.525475,14.0815
-252,512,1.45941,-3.43475,0,0,0,0,0,0,0,-1,972,512,1.45938,3.43475
-245,512,-1.6731,-22.8959,0,0,0,0,0,0,0,-1,979,512,-1.67312,22.8959
-238,512,0.227051,-8.92969,0,0,0,0,0,0,0,-1,986,512,0.227073,8.92968
-231,512,-1.90576,-38.0918,0,0,0,0,0,0,0,-1,993,512,-1.90575,38.0918
-224,512,-1.29974,-33.6304,0,0,0,0,0,0,0,-1,1000,512,-1.29974,33.6304
-217,512,-0.963196,-34.1697,0,0,0,0,0,0,0,-1,1007,512,-0.963226,34.1697
-210,512,-3.76642,-1.94702,0,0,0,0,0,0,0,-1,1014,512,-3.76641,1.94702
-203,512,-2.48328,-5.19061,0,0,0,0,0,0,0,-1,1021,512,-2.48328,5.19059
-196,512,-1.14929,-4.63202,0,0,0,0,0,0,0,-1,1028,512,-1.14934,4.632
-189,512,0.197998,4.55505,0,0,0,0,0,0,0,-1,1035,512,0.197996,-4.55506
-182,512,2.73938,0.0778503,0,0,0,0,0,0,0,-1,1042,512,2.73944,-0.077852
-175,512,2.29565,0.209808,0,0,0,0,0,0,0,-1,1049,512,2.29565,-0.209813
-168,512,2.09399,-0.302856,0,0,0,0,0,0,0,-1,1056,512,2.09403,0.302826
-161,512,2.76636,0.0921021,0,0,0,0,0,0,0,-1,1063,512,2.76633,-0.0921104
-154,512,3.41382,0.466187,0,0,0,0,0,0,0,-1,1070,512,3.41382,-0.466178
-147,512,0,0,0,0,0,0,0,0,0,-1,1077,512,0,0
-140,512,0,0,0,0,0,0,0,0,0,-1,1084,512,0,0
-133,512,0,0,0,0,0,0,0,0,0,-1,1091,512,0,0
-126,512,0,0,0,0,0,0,0,0,0,-1,1098,512,0,0
-119,512,0,0,0,0,0,0,0,0,0,-1,1105,512,0,0
-112,512,0,0,0,0,0,0,0,0,0,-1,1112,512,0,0
-105,512,0,0,0,0,0,0,0,0,0,-1,1119,512,0,0
-98,512,0,0,0,0,0,0,0,0,0,-1,1126,512,0,0
-91,512,0,0,0,0,0,0,0,0,0,-1,1133,512,0,0
-84,512,0,0,0,0,0,0,0,0,0,-1,1140,512,0,0
-77,512,0,0,0,0,0,0,0,0,0,-1,1147,512,0,0
-70,512,0,0,0,0,0,0,0,0,0,-1,1154,512,0,0
-63,512,0,0,0,0,0,0,0,0,0,-1,1161,512,0,0
-56,512,0,0,0,0,0,0,0,0,0,-1,1168,512,0,0
-49,512,0,0,0,0,0,0,0,0,0,-1,1175,512,0,0
-42,512,0,0,0,0,0,0,0,0,0,-1,1182,512,0,0
-35,512,0,0,0,0,0,0,0,0,0,-1,1189,512,0,0
-28,512,0,0,0,0,0,0,0,0,0,-1,1196,512,0,0
-21,512,0,0,0,0,0,0,0,0,0,-1,1203,512,0,0
-14,512,0,0,0,0,0,0,0,0,0,-1,1210,512,0,0
-7,512,0,0,0,0,0,0,0,0,0,-1,1217,512,0,0
0,512,0,0,0,0,0,0,0,0,0,-1,1224,512,0,0
7,512,0,0,0,0,0,0,0,0,0,-1,1231,512,0,0
14,512,0,0,0,0,0,0,0,0,0,-1,1238,512,0,0
21,512,0,0,0,0,0,0,0,0,0,-1,1245,512,0,0
28,512,0,0,0,0,0,0,0,0,0,-1,1252,512,0,0
35,512,0,0,0,0,0,0,0,0,0,-1,1259,512,0,0
42,512,0,0,0,0,0,0,0,0,0,-1,1266,512,0,0
49,512,0,0,0,0,0,0,0,0,0,-1,1273,512,0,0
56,512,0,0,0,0,0,0,0,0,0,-1,1280,512,0,0
63,512,0,0,0,0,0,0,0,0,0,-1,1287,512,0,0
70,512,0,0,0,0,0,0,0,0,0,-1,1294,512,0,0
77,512,0,0,0,0,0,0,0,0,0,-1,1301,512,0,0
84,512,0,0,0,0,0,0,0,0,0,-1,1308,512,0,0
91,512,0,0,0,0,0,0,0,0,0,-1,1315,512,0,0
98,512,0,0,0,0,0,0,0,0,0,-1,1322,512,0,0
105,512,0,0,0,0,0,0,0,0,0,-1,1329,512,0,0
112,512,0,0,0,0,0,0,0,0,0,-1,1336,512,0,0
119,512,0,0,0,0,0,0,0,0,0,-1,1343,512,0,0
126,512,0,0,0,0,0,0,0,0,0,-1,1350,512,0,0
133,512,0,0,0,0,0,0,0,0,0,-1,1357,512,0,0
140,512,0,0,0,0,0,0,0,0,0,-1,1364,512,0,0
147,512,0,0,0,0,0,0,0,0,0,-1,1371,512,0,0
154,512,0,0,0,0,0,0,0,0,0,-1,1378,512,0,0
161,512,0,0,0,0,0,0,0,0,0,-1,1385,512,0,0
168,512,0,0,0,0,0,0,0,0,0,-1,1392,512,0,0
175,512,0,0,0,0,0,0,0,0,0,-1,1399,512,0,0
182,512,0,0,0,0,0,0,0,0,0,-1,1406,512,0,0
189,512,0,0,0,0,0,0,0,0,0,-1,1413,512,0,0
196,512,0,0,0,0,0,0,0,0,0,-1,1420,512,0,0
203,512,0,0,0,0,0,0,0,0,0,-1,1427,512,0,0
210,512,0,0,0,0,0,0,0,0,0,-1,1434,512,0,0
217,512,0,0,0,0,0,0,0,0,0,-1,1441,512,0,0
224,512,0,0,0,0,0,0,0,0,0,-1,1448,512,0,0
231,512,0,0,0,0,0,0,0,0,0,-1,1455,512,0,0
238,512,0,0,0,0,0,0,0,0,0,-1,1462,512,0,0
245,512,0,0,0,0,0,0,0,0,0,-1,1469,512,0,0
252,512,0,0,0,0,0,0,0,0,0,-1,1476,512,0,0
259,512,0,0,0,0,0,0,0,0,0,-1,1483,512,0,0
266,512,0,0,0,0,0,0,0,0,0,-1,1490,512,0,0
273,512,4.00745,0.618622,0,0,0,0,0,0,0,-1,1497,512,4.00747,-0.618611
280,512,4.49609,0.649841,0,0,0,0,0,0,0,-1,1504,512,4.49612,-0.649834
287,512,4.77234,0.458069,0,0,0,0,0,0,0,-1,1511,512,4.77233,-0.458083
294,512,8.54956,-2.36273,0,0,0,0,0,0,0,-1,1518,512,8.54952,2.36274
301,512,6.302,-1.69092,0,0,0,0,0,0,0,-1,1525,512,6.30196,1.69093
308,512,8.2439,-6.22754,0,0,0,0,0,0,0,-1,1532,512,8.24394,6.22757
315,512,7.53687,-6.04211,0,0,0,0,0,0,0,-1,1539,512,7.53691,6.04211
322,512,6.82983,-5.85663,0,0,0,0,0,0,0,-1,1546,512,6.82988,5.85666
329,512,4.38147,-0.329651,0,0,0,0,0,0,0,-1,1553,512,4.38144,0.329662
336,512,4.41467,-0.741455,0,0,0,0,0,0,0,-1,1560,512,4.41467,0.741442
343,512,4.44727,-1.21667,0,0,0,0,0,0,0,-1,1567,512,4.44732,1.21666
350,512,4.55469,-1.65082,0,0,0,0,0,0,0,-1,1574,512,4.5547,1.65083
357,512,5.79993,-2.67456,0,0,0,0,0,0,0,-1,1581,512,5.79991,2.67454
364,512,13.118,-28.5485,0,0,0,0,0,0,0,-1,1588,512,13.1181,28.5485
371,512,5.28467,-7.69269,0,0,0,0,0,0,0,-1,1595,512,5.28464,7.69269
378,512,6.29407,-9.88055,0,0,0,0,0,0,0,-1,1602,512,6.29412,9.88057
385,512,6.45569,-9.32233,0,0,0,0,0,0,0,-1,1609,512,6.45565,9.3223
392,512,6.35522,-8.98425,0,0,0,0,0,0,0,-1,1616,512,6.35526,8.98422
399,512,16.9089,-33.7311,0,0,0,0,0,0,0,-1,1623,512,16.9089,33.7311
406,512,17.9281,-36.4391,0,0,0,0,0,0,0,-1,1630,512,17.9281,36.4391
413,512,17.9061,-35.6175,0,0,0,0,0,0,0,-1,1637,512,17.9062,35.6175
420,512,17.8408,-34.8098,0.00253043,0.000888815,-0.000960473,0.00297304,0.000446202,-0.431823,0.00185131,0.0280805,1644,512,17.8409,34.8098
427,512,17.8066,-34.0196,0.00219239,0.000905236,-0.000688726,0.00249144,0.000606192,-0.409636,0.00150029,0.0163878,1651,512,17.8066,34.0196
434,512,17.7495,-33.2316,0.00183407,0.000820847,-0.000468803,0.0020177,0.000637219,-0.373327,0.00119098,0.012649,1658,512,17.7496,33.2316
441,512,17.6954,-32.4226,0.00158932,0.000875784,-0.000175919,0.00163033,0.00083477,-0.229053,0.000941363,0.0137633,1665,512,17.6955,32.4226
448,512,17.6573,-31.6501,0.00137604,0.000915612,0.000137262,0.00141385,0.000877797,0.268825,0.000824198,0.0101643,1672,512,17.6574,31.6501
455,512,17.6144,-30.8498,0.00115744,0.00103155,0.000448168,0.00154706,0.000641932,0.715629,0.000897497,0.00982554,1679,512,17.6144,30.8498
462,512,17.5889,-30.0279,0.00106559,0.00122815,0.000766939,0.0019181,0.000375637,0.83819,0.00117373,0.0102009,1686,512,17.5888,30.0279
469,512,17.5548,-29.1942,0.00118434,0.00150787,0.00112835,0.002486,0.000206216,0.856596,0.00159305,0.0120335,1693,512,17.5548,29.1942
476,512,17.5072,-28.371,0.00125143,0.00180839,0.00150526,0.00306071,-8.93953e-07,0.876866,0.00204077,0.0151565,1700,512,17.5072,28.371
483,512,17.4772,-27.5392,0.00145969,0.00213212,0.00192693,0.00375195,-0.000160135,0.871769,0.00255635,0.014531,1707,512,17.4771,27.5393
490,512,17.455,-26.7246,0.00174564,0.00251662,0.00234212,0.00450476,-0.000242506,0.866962,0.00308719,0.0118363,1714,512,17.455,26.7246
497,512,17.4063,-25.8952,0.00209828,0.00274393,0.00262423,0.00506512,-0.000222909,0.846599,0.00345345,0.012822,1721,512,17.4062,25.8952
504,512,17.3215,-25.0495,0.00256563,0.00308076,0.00287394,0.00570865,-6.22601e-05,0.830089,0.00382669,0.0169585,1728,512,17.3215,25.0495
511,512,17.2572,-24.1342,0.00307898,0.00342706,0.00317483,0.00643261,7.34222e-05,0.81278,0.00426415,0.0243096,1735,512,17.2572,24.1342
518,512,17.3502,-23.2855,0.00357103,0.00390586,0.00337685,0.00711945,0.000357447,0.810167,0.00463175,0.031175,1742,512,17.3502,23.2855
525,512,17.5389,-22.4301,0,0,0,0,0,0,0,-1,1749,512,17.539,22.4301
532,512,16.6807,-19.0635,0,0,0,0,0,0,0,-1,1756,512,16.6807,19.0635
539,512,12.6367,-16.4022,0,0,0,0,0,0,0,-1,1763,512,12.6367,16.4021
546,512,2.77551,-0.66449,0,0,0,0,0,0,0,-1,1770,512,2.77548,0.664503
553,512,3.927,-0.448853,0,0,0,0,0,0,0,-1,1777,512,3.92704,0.448843
560,512,3.55762,-0.201233,0,0,0,0,0,0,0,-1,1784,512,3.55768,0.201259
567,512,3.09045,0.191193,0,0,0,0,0,0,0,-1,1791,512,3.09045,-0.191203
574,512,0,0,0,0,0,0,0,0,0,-1,1798,512,0,0
581,512,0,0,0,0,0,0,0,0,0,-1,1805,512,0,0
588,512,0,0,0,0,0,0,0,0,0,-1,1812,512,0,0
595,512,0,0,0,0,0,0,0,0,0,-1,1819,512,0,0
602,512,0,0,0,0,0,0,0,0,0,-1,1826,512,0,0
609,512,0,0,0,0,0,0,0,0,0,-1,1833,512,0,0
616,512,0,0,0,0,0,0,0,0,0,-1,1840,512,0,0
623,512,0,0,0,0,0,0,0,0,0,-1,1847,512,0,0
630,512,0,0,0,0,0,0,0,0,0,-1,1854,512,0,0
637,512,0,0,0,0,0,0,0,0,0,-1,1861,512,0,0
644,512,0,0,0,0,0,0,0,0,0,-1,1868,512,0,0
651,512,0,0,0,0,0,0,0,0,0,-1,1875,512,0,0
658,512,0,0,0,0,0,0,0,0,0,-1,1882,512,0,0
665,512,0,0,0,0,0,0,0,0,0,-1,1889,512,0,0
672,512,0,0,0,0,0,0,0,0,0,-1,1896,512,0,0
679,512,0,0,0,0,0,0,0,0,0,-1,1903,512,0,0
686,512,0,0,0,0,0,0,0,0,0,-1,1910,512,0,0
693,512,0,0,0,0,0,0,0,0,0,-1,1917,512,0,0
700,512,0,0,0,0,0,0,0,0,0,-1,1924,512,0,0
707,512,0,0,0,0,0,0,0,0,0,-1,1931,512,0,0
714,512,0,0,0,0,0,0,0,0,0,-1,1938,512,0,0
721,512,0,0,0,0,0,0,0,0,0,-1,1945,512,0,0
728,512,0,0,0,0,0,0,0,0,0,-1,1952,512,0,0
735,512,0,0,0,0,0,0,0,0,0,-1,1959,512,0,0
742,512,0,0,0,0,0,0,0,0,0,-1,1966,512,0,0
749,512,0,0,0,0,0,0,0,0,0,-1,1973,512,0,0
756,512,0,0,0,0,0,0,0,0,0,-1,1980,512,0,0
763,512,0,0,0,0,0,0,0,0,0,-1,1987,512,0,0
770,512,0,0,0,0,0,0,0,0,0,-1,1994,512,0,0
777,512,0,0,0,0,0,0,0,0,0,-1,2001,512,0,0
784,512,0,0,0,0,0,0,0,0,0,-1,2008,512,0,0
791,512,0,0,0,0,0,0,0,0,0,-1,2015,512,0,0
798,512,0,0,0,0,0,0,0,0,0,-1,2022,512,0,0
805,512,0,0,0,0,0,0,0,0,0,-1,2029,512,0,0
812,512,0,0,0,0,0,0,0,0,0,-1,2036,512,0,0
-700,505,0,0,0,0,0,0,0,0,0,-1,524,519,0,0
-693,505,0,0,0,0,0,0,0,0,0,-1,531,519,0,0
-686,505,0,0,0,0,0,0,0,0,0,-1,538,519,0,0
-679,505,0,0,0,0,0,0,0,0,0,-1,545,519,0,0
-672,505,0,0,0,0,0,0,0,0,0,-1,552,519,0,0
-665,505,0,0,0,0,0,0,0,0,0,-1,559,519,0,0
-658,505,0,0,0,0,0,0,0,0,0,-1,566,519,0,0
-651,505,0,0,0,0,0,0,0,0,0,-1,573,519,0,0
-644,505,0,0,0,0,0,0,0,0,0,-1,580,519,0,0
-637,505,0,0,0,0,0,0,0,0,0,-1,587,519,0,0
-630,505,0,0,0,0,0,0,0,0,0,-1,594,519,0,0
-623,505,0,0,0,0,0,0,0,0,0,-1,601,519,0,0
-616,505,0,0,0,0,0,0,0,0,0,-1,608,519,0,0
-609,505,0,0,0,0,0,0,0,0,0,-1,615,519,0,0
-602,505,0,0,0,0,0,0,0,0,0,-1,622,519,0,0
-595,505,0,0,0,0,0,0,0,0,0,-1,629,519,0,0
-588,505,0,0,0,0,0,0,0,0,0,-1,636,519,0,0
-581,505,0,0,0,0,0,0,0,0,0,-1,643,519,0,0
-574,505,0,0,0,0,0,0,0,0,0,-1,650,519,0,0
-567,505,0,0,0,0,0,0,0,0,0,-1,657,519,0,0
-560,505,0,0,0,0,0,0,0,0,0,-1,664,519,0,0
-553,505,0,0,0,0,0,0,0,0,0,-1,671,519,0,0
-546,505,0,0,0,0,0,0,0,0,0,-1,678,519,0,0
-539,505,0,0,0,0,0,0,0,0,0,-1,685,519,0,0
-532,505,0,0,0,0,0,0,0,0,0,-1,692,519,0,0
-525,505,0,0,0,0,0,0,0,0,0,-1,699,519,0,0
-518,505,0,0,0,0,0,0,0,0,0,-1,706,519,0,0
-511,505,0,0,0,0,0,0,0,0,0,-1,713,519,0,0
-504,505,0,0,0,0,0,0,0,0,0,-1,720,519,0,0
-497,505,0,0,0,0,0,0,0,0,0,-1,727,519,0,0
-490,505,0,0,0,0,0,0,0,0,0,-1,734,519,0,0
-483,505,0,0,0,0,0,0,0,0,0,-1,741,519,0,0
-476,505,0,0,0,0,0,0,0,0,0,-1,748,519,0,0
-469,505,0,0,0,0,0,0,0,0,0,-1,755,519,0,0
-462,505,0,0,0,0,0,0,0,0,0,-1,762,519,0,0
-455,505,2.72137,-3.26379,0,0,0,0,0,0,0,-1,769,519,2.72135,3.26377
-448,505,2.51111,-3.94989,0,0,0,0,0,0,0,-1,776,519,2.51112,3.94986
-441,505,2.80212,-6.8902,0,0,0,0,0,0,0,-1,783,519,2.80209,6.89019
-434,505,-0.155212,-10.6374,0,0,0,0,0,0,0,-1,790,519,-0.155194,10.6374
-427,505,-0.474426,-10.4702,0,0,0,0,0,0,0,-1,797,519,-0.474433,10.4702
-420,505,-0.922546,-10.1928,0,0,0,0,0,0,0,-1,804,519,-0.92257,10.1928
-413,505,-3.33948,-13.6183,0,0,0,0,0,0,0,-1,811,519,-3.33949,13.6184
-406,505,-3.2439,-18.3408,0,0,0,0,0,0,0,-1,818,519,-3.24389,18.3408
-399,505,-3.49677,-23.0274,0,0,0,0,0,0,0,-1,825,519,-3.49676,23.0274
-392,505,-3.52832,-23.9338,0.00137283,0.0168746,-0.00933641,0.0212581,-0.00301073,-1.13183,0.0152749,0.0281867,832,519,-3.52832,23.9339
-385,505,-3.62213,-24.8063,0.00143692,0.0143511,-0.00823684,0.0183601,-0.0025721,-1.11783,0.0131814,0.0114118,839,519,-3.62213,24.8063
-378,505,-3.68842,-25.6693,0.00150407,0.0121483,-0.00719404,0.0157748,-0.00212252,-1.10387,0.0112908,0.0117131,846,519,-3.68843,25.6693
-371,505,-3.73315,-26.5341,0.00149234,0.0100135,-0.00617851,0.013258,-0.00175219,-1.08725,0.00947687,0.0144001,853,519,-3.73315,26.5341
-364,505,-3.78644,-27.3704,0.00140789,0.00791076,-0.00503743,0.0106549,-0.0013363,-1.07198,0.00758806,0.0160776,860,519,-3.78645,27.3704
-357,505,-3.80646,-28.2086,0.00129215,0.00602417,-0.00390076,0.00822039,-0.000904068,-1.05801,0.00580513,0.0132232,867,519,-3.80643,28.2086
-350,505,-3.85968,-29.0092,0.00117193,0.00422311,-0.00281482,0.00589918,-0.000504143,-1.03373,0.00411115,0.0124462,874,519,-3.85968,29.0092
-343,505,-3.9101,-29.8059,0.00105356,0.0024491,-0.00178819,0.00367084,-0.000168179,-0.971417,0.00250517,0.0117319,881,519,-3.91009,29.8059
-336,505,-3.948,-30.598,0.000864954,0.000809944,-0.000759697,0.00159764,7.72543e-05,-0.767303,0.0010403,0.0150005,888,519,-3.94798,30.598
-329,505,-3.94824,-31.3768,0.000724778,-0.000632441,0.000188189,0.000750388,-0.000658052,0.135259,0.000813745,0.0197253,895,519,-3.94824,31.3768
-322,505,-3.99115,-32.1997,0.000622141,-0.00191804,0.00105624,0.00100395,-0.00229985,0.346864,0.00195575,0.0230571,902,519,-3.99113,32.1997
-315,505,-4.04834,-32.996,0.000649632,-0.00294204,0.00176809,0.00137395,-0.00366635,0.388806,0.00300867,0.0170762,909,519,-4.04836,32.996
-308,505,-4.10663,-33.704,0.000804071,-0.00365681,0.00235453,0.00181688,-0.00466962,0.406228,0.00386382,0.0130968,916,519,-4.10666,33.704
-301,505,-4.12555,-34.4855,0.000867356,-0.00395699,0.00297661,0.00228648,-0.00537611,0.444881,0.00454229,0.0192885,923,519,-4.12556,34.4855
-294,505,-4.1283,-35.2359,0,0,0,0,0,0,0,-1,930,519,-4.12828,35.2359
-287,505,-4.271,-36.0826,0,0,0,0,0,0,0,-1,937,519,-4.27101,36.0826
-280,505,-2.79846,-27.7252,0,0,0,0,0,0,0,-1,944,519,-2.79845,27.7252
-273,505,-0.0680542,-9.44867,0,0,0,0,0,0,0,-1,951,519,-0.0680462,9.44866
-266,505,-0.036377,-9.07922,0,0,0,0,0,0,0,-1,958,519,-0.0364055,9.0792
-259,505,0.10321,-6.69824,0,0,0,0,0,0,0,-1,965,519,0.103235,6.69826
-252,505,6.82312,-15.6972,0,0,0,0,0,0,0,-1,972,519,6.82314,15.6972
-245,505,4.26727,-12.9861,0,0,0,0,0,0,0,-1,979,519,4.2673,12.9861
-238,505,1.67432,-11.2307,0,0,0,0,0,0,0,-1,986,519,1.67429,11.2307
-231,505,-0.958435,-8.3075,0,0,0,0,0,0,0,-1,993,519,-0.958421,8.30751
-224,505,-1.46399,-33.4399,0,0,0,0,0,0,0,-1,1000,519,-1.46397,33.4399
-217,505,-6.34302,-1.65533,0,0,0,0,0,0,0,-1,1007,519,-6.34299,1.65535
-210,505,-3.06128,-0.396301,0,0,0,0,0,0,0,-1,1014,519,-3.06129,0.396294
-203,505,-4.26465,2.03607,0,0,0,0,0,0,0,-1,1021,519,-4.26462,-2.03606
-196,505,-5.47595,4.27295,0,0,0,0,0,0,0,-1,1028,519,-5.47597,-4.27292
-189,505,1.51526,5.56207,0,0,0,0,0,0,0,-1,1035,519,1.51523,-5.56209
-182,505,2.97815,7.5097,0,0,0,0,0,0,0,-1,1042,519,2.97812,-7.5097
-175,505,-2.38416,-2.17548,0,0,0,0,0,0,0,-1,1049,519,-2.38411,2.1755
-168,505,0,0,0,0,0,0,0,0,0,-1,1056,519,0,0
-161,505,0,0,0,0,0,0,0,0,0,-1,1063,519,0,0
-154,505,0,0,0,0,0,0,0,0,0,-1,1070,519,0,0
-147,505,0,0,0,0,0,0,0,0,0,-1,1077,519,0,0
-140,505,0,0,0,0,0,0,0,0,0,-1,1084,519,0,0
-133,505,0,0,0,0,0,0,0,0,0,-1,1091,519,0,0
-126,505,0,0,0,0,0,0,0,0,0,-1,1098,519,0,0
-119,505,0,0,0,0,0,0,0,0,0,-1,1105,519,0,0
-112,505,0,0,0,0,0,0,0,0,0,-1,1112,519,0,0
-105,505,0,0,0,0,0,0,0,0,0,-1,1119,519,0,0
-98,505,0,0,0,0,0,0,0,0,0,-1,1126,519,0,0
-91,505,0,0,0,0,0,0,0,0,0,-1,1133,519,0,0
-84,505,0,0,0,0,0,0,0,0,0,-1,1140,519,0,0
-77,505,0,0,0,0,0,0,0,0,0,-1,1147,519,0,0
-70,505,0,0,0,0,0,0,0,0,0,-1,1154,519,0,0
-63,505,0,0,0,0,0,0,0,0,0,-1,1161,519,0,0
-56,505,0,0,0,0,0,0,0,0,0,-1,1168,519,0,0
-49,505,0,0,0,0,0,0,0,0,0,-1,1175,519,0,0
-42,505,0,0,0,0,0,0,0,0,0,-1,1182,519,0,0
-35,505,0,0,0,0,0,0,0,0,0,-1,1189,519,0,0
-28,505,0,0,0,0,0,0,0,0,0,-1,1196,519,0,0
-21,505,0,0,0,0,0,0,0,0,0,-1,1203,519,0,0
-14,505,0,0,0,0,0,0,0,0,0,-1,1210,519,0,0
-7,505,0,0,0,0,0,0,0,0,0,-1,1217,519,0,0
0,505,0,0,0,0,0,0,0,0,0,-1,1224,519,0,0
7,505,0,0,0,0,0,0,0,0,0,-1,1231,519,0,0
14,505,0,0,0,0,0,0,0,0,0,-1,1238,519,0,0
21,505,0,0,0,0,0,0,0,0,0,-1,1245,519,0,0
28,505,0,0,0,0,0,0,0,0,0,-1,1252,519,0,0
35,505,0,0,0,0,0,0,0,0,0,-1,1259,519,0,0
42,505,0,0,0,0,0,0,0,0,0,-1,1266,519,0,0
49,505,0,0,0,0,0,0,0,0,0,-1,1273,519,0,0
56,505,0,0,0,0,0,0,0,0,0,-1,1280,519,0,0
63,505,0,0,0,0,0,0,0,0,0,-1,1287,519,0,0
70,505,0,0,0,0,0,0,0,0,0,-1,1294,519,0,0
77,505,0,0,0,0,0,0,0,0,0,-1,1301,519,0,0
84,505,0,0,0,0,0,0,0,0,0,-1,1308,519,0,0
91,505,0,0,0,0,0,0,0,0,0,-1,1315,519,0,0
98,505,0,0,0,0,0,0,0,0,0,-1,1322,519,0,0
105,505,0,0,0,0,0,0,0,0,0,-1,1329,519,0,0
112,505,0,0,0,0,0,0,0,0,0,-1,1336,519,0,0
119,505,0,0,0,0,0,0,0,0,0,-1,1343,519,0,0
126,505,0,0,0,0,0,0,0,0,0,-1,1350,519,0,0
133,505,0,0,0,0,0,0,0,0,0,-1,1357,519,0,0
140,505,0,0,0,0,0,0,0,0,0,-1,1364,519,0,0
147,505,0,0,0,0,0,0,0,0,0,-1,1371,519,0,0
154,505,0,0,0,0,0,0,0,0,0,-1,1378,519,0,0
161,505,0,0,0,0,0,0,0,0,0,-1,1385,519,0,0
168,505,0,0,0,0,0,0,0,0,0,-1,1392,519,0,0
175,505,0,0,0,0,0,0,0,0,0,-1,1399,519,0,0
182,505,0,0,0,0,0,0,0,0,0,-1,1406,519,0,0
189,505,0,0,0,0,0,0,0,0,0,-1,1413,519,0,0
196,505,0,0,0,0,0,0,0,0,0,-1,1420,519,0,0
203,505,0,0,0,0,0,0,0,0,0,-1,1427,519,0,0
210,505,0,0,0,0,0,0,0,0,0,-1,1434,519,0,0
217,505,0,0,0,0,0,0,0,0,0,-1,1441,519,0,0
224,505,0,0,0,0,0,0,0,0,0,-1,1448,519,0,0
231,505,0,0,0,0,0,0,0,0,0,-1,1455,519,0,0
238,505,0,0,0,0,0,0,0,0,0,-1,1462,519,0,0
245,505,0,0,0,0,0,0,0,0,0,-1,1469,519,0,0
252,505,0,0,0,0,0,0,0,0,0,-1,1476,519,0,0
259,505,0,0,0,0,0,0,0,0,0,-1,1483,519,0,0
266,505,0,0,0,0,0,0,0,0,0,-1,1490,519,0,0
273,505,0,0,0,0,0,0,0,0,0,-1,1497,519,0,0
280,505,0,0,0,0,0,0,0,0,0,-1,1504,519,0,0
287,505,4.39478,0.499512,0,0,0,0,0,0,0,-1,1511,519,4.39476,-0.499506
294,505,4.88867,0.0822754,0,0,0,0,0,0,0,-1,1518,519,4.88871,-0.0822748
301,505,4.82153,-0.0704346,0,0,0,0,0,0,0,-1,1525,519,4.82156,0.0704312
308,505,4.67761,-0.29187,0,0,0,0,0,0,0,-1,1532,519,4.67762,0.291845
315,505,8.44055,-6.54352,0,0,0,0,0,0,0,-1,1539,519,8.44059,6.54349
322,505,4.78955,-0.594116,0,0,0,0,0,0,0,-1,1546,519,4.78957,0.594096
329,505,5.16321,0.434631,0,0,0,0,0,0,0,-1,1553,519,5.16316,-0.434614
336,505,4.94495,-0.920471,0,0,0,0,0,0,0,-1,1560,519,4.945,0.920495
343,505,5.01855,-1.4823,0,0,0,0,0,0,0,-1,1567,519,5.01851,1.48227
350,505,5.33154,-1.77838,0,0,0,0,0,0,0,-1,1574,519,5.33152,1.77838
357,505,5.56567,-1.9425,0,0,0,0,0,0,0,-1,1581,519,5.56562,1.94248
364,505,5.85205,-2.6579,0,0,0,0,0,0,0,-1,1588,519,5.85211,2.65788
371,505,5.88477,-7.00922,0,0,0,0,0,0,0,-1,1595,519,5.88473,7.00924
378,505,5.44104,-7.10162,0,0,0,0,0,0,0,-1,1602,519,5.44099,7.10162
385,505,6.64661,-8.65015,0,0,0,0,0,0,0,-1,1609,519,6.64662,8.65014
392,505,6.34558,-8.3429,0,0,0,0,0,0,0,-1,1616,519,6.34554,8.34288
399,505,7.45898,-9.70386,0,0,0,0,0,0,0,-1,1623,519,7.45899,9.70388
406,505,7.08679,-9.4928,0,0,0,0,0,0,0,-1,1630,519,7.08678,9.49278
413,505,8.4032,-14.0308,0,0,0,0,0,0,0,-1,1637,519,8.4032,14.0308
420,505,18.5917,-35.0005,0,0,0,0,0,0,0,-1,1644,519,18.5917,35.0005
427,505,18.6111,-34.1141,0.00254738,0.000563616,-0.00115275,0.00307624,3.47539e-05,-0.430134,0.00203934,0.0316488,1651,519,18.6111,34.1141
434,505,18.5449,-33.2157,0.00207438,0.000413135,-0.00105264,0.00258465,-9.71344e-05,-0.451374,0.00175637,0.0129735,1658,519,18.5449,33.2157
441,505,18.5132,-32.3577,0.00176095,0.000418389,-0.000830704,0.0021577,2.16408e-05,-0.445572,0.00143131,0.011137,1665,519,18.5132,32.3577
448,505,18.4672,-31.5808,0.00154927,0.000490791,-0.000511248,0.00175588,0.000284186,-0.384053,0.0010883,0.0114463,1672,519,18.4672,31.5808
455,505,18.4337,-30.7853,0.00136283,0.000643447,-0.000184427,0.00140735,0.000598922,-0.236894,0.000815531,0.0114169,1679,519,18.4337,30.7853
462,505,18.3917,-29.9728,0.00126688,0.000876464,0.000162024,0.00132536,0.000817983,0.346387,0.00077217,0.0108965,1686,519,18.3918,29.9728
469,505,18.3435,-29.1474,0.00134013,0.00118767,0.000566281,0.00183529,0.000692514,0.718495,0.00107018,0.0118254,1693,519,18.3436,29.1474
476,505,18.2903,-28.3338,0.00139321,0.00151732,0.000996032,0.00245323,0.000457303,0.81651,0.00150637,0.0128229,1700,519,18.2903,28.3338
483,505,18.2765,-27.5127,0.0015635,0.0018425,0.00145661,0.00316628,0.000239724,0.833139,0.00203565,0.0139373,1707,519,18.2765,27.5127
490,505,18.2632,-26.6901,0.00175628,0.00225751,0.00188351,0.003907,0.00010679,0.851538,0.00256981,0.0127125,1714,519,18.2632,26.6901
497,505,18.2202,-25.8837,0.00198543,0.00255651,0.00222322,0.00451245,2.94861e-05,0.849266,0.00299852,0.0120444,1721,519,18.2203,25.8837
504,505,18.1346,-25.024,0.00229607,0.00284342,0.0025347,0.00511918,2.03121e-05,0.839176,0.00340604,0.0125378,1728,519,18.1347,25.024
511,505,18.0631,-24.1298,0.0025584,0.00320728,0.00281615,0.00571761,4.80693e-05,0.842749,0.00379582,0.0151804,1735,519,18.0631,24.1298
518,505,18.1581,-23.3345,0.00269179,0.0036724,0.00294669,0.0061693,0.000194888,0.867839,0.00404947,0.0361509,1742,519,18.1581,23.3345
525,505,18.248,-22.4407,0,0,0,0,0,0,0,-1,1749,519,18.248,22.4407
532,505,17.2922,-20.1019,0,0,0,0,0,0,0,-1,1756,519,17.2923,20.1019
539,505,13.9879,-13.9018,0,0,0,0,0,0,0,-1,1763,519,13.988,13.9018
546,505,7.94946,-6.64539,0,0,0,0,0,0,0,-1,1770,519,7.94947,6.64539
553,505,2.82837,0.162659,0,0,0,0,0,0,0,-1,1777,519,2.82841,-0.162672
560,505,3.66223,-0.479797,0,0,0,0,0,0,0,-1,1784,519,3.66219,0.47982
567,505,4.65271,-0.950256,0,0,0,0,0,0,0,-1,1791,519,4.65274,0.95028
574,505,5.54443,-1.19977,0,0,0,0,0,0,0,-1,1798,519,5.54443,1.19974
581,505,0,0,0,0,0,0,0,0,0,-1,1805,519,0,0
588,505,0,0,0,0,0,0,0,0,0,-1,1812,519,0,0
595,505,0,0,0,0,0,0,0,0,0,-1,1819,519,0,0
602,505,0,0,0,0,0,0,0,0,0,-1,1826,519,0,0
609,505,0,0,0,0,0,0,0,0,0,-1,1833,519,0,0
616,505,0,0,0,0,0,0,0,0,0,-1,1840,519,0,0
623,505,0,0,0,0,0,0,0,0,0,-1,1847,519,0,0
630,505,0,0,0,0,0,0,0,0,0,-1,1854,519,0,0
637,505,0,0,0,0,0,0,0,0,0,-1,1861,519,0,0
644,505,0,0,0,0,0,0,0,0,0,-1,1868,519,0,0
651,505,0,0,0,0,0,0,0,0,0,-1,1875,519,0,0
658,505,0,0,0,0,0,0,0,0,0,-1,1882,519,0,0
665,505,0,0,0,0,0,0,0,0,0,-1,1889,519,0,0
672,505,0,0,0,0,0,0,0,0,0,-1,1896,519,0,0
679,505,0,0,0,0,0,0,0,0,0,-1,1903,519,0,0
686,505,0,0,0,0,0,0,0,0,0,-1,1910,519,0,0
693,505,0,0,0,0,0,0,0,0,0,-1,1917,519,0,0
700,505,0,0,0,0,0,0,0,0,0,-1,1924,519,0,0
707,505,0,0,0,0,0,0,0,0,0,-1,1931,519,0,0
714,505,0,0,0,0,0,0,0,0,0,-1,1938,519,0,0
721,505,0,0,0,0,0,0,0,0,0,-1,1945,519,0,0
728,505,0,0,0,0,0,0,0,0,0,-1,1952,519,0,0
735,505,0,0,0,0,0,0,0,0,0,-1,1959,519,0,0
742,505,0,0,0,0,0,0,0,0,0,-1,1966,519,0,0
749,505,0,0,0,0,0,0,0,0,0,-1,1973,519,0,0
756,505,0,0,0,0,0,0,0,0,0,-1,1980,519,0,0
763,505,0,0,0,0,0,0,0,0,0,-1,1987,519,0,0
770,505,0,0,0,0,0,0,0,0,0,-1,1994,519,0,0
777,505,0,0,0,0,0,0,0,0,0,-1,2001,519,0,0
784,505,0,0,0,0,0,0,0,0,0,-1,2008,519,0,0
791,505,0,0,0,0,0,0,0,0,0,-1,2015,519,0,0
798,505,0,0,0,0,0,0,0,0,0,-1,2022,519,0,0
805,505,0,0,0,0,0,0,0,0,0,-1,2029,519,0,0
812,505,0,0,0,0,0,0,0,0,0,-1,2036,519,0,0
-700,498,0,0,0,0,0,0,0,0,0,-1,524,526,0,0
-693,498,0,0,0,0,0,0,0,0,0,-1,531,526,0,0
-686,498,0,0,0,0,0,0,0,0,0,-1,538,526,0,0
-679,498,0,0,0,0,0,0,0,0,0,-1,545,526,0,0
-672,498,0,0,0,0,0,0,0,0,0,-1,552,526,0,0
-665,498,0,0,0,0,0,0,0,0,0,-1,559,526,0,0
-658,498,0,0,0,0,0,0,0,0,0,-1,566,526,0,0
-651,498,0,0,0,0,0,0,0,0,0,-1,573,526,0,0
-644,498,0,0,0,0,0,0,0,0,0,-1,580,526,0,0
-637,498,0,0,0,0,0,0,0,0,0,-1,587,526,0,0
-630,498,0,0,0,0,0,0,0,0,0,-1,594,526,0,0
-623,498,0,0,0,0,0,0,0,0,0,-1,601,526,0,0
-616,498,0,0,0,0,0,0,0,0,0,-1,608,526,0,0
-609,498,0,0,0,0,0,0,0,0,0,-1,615,526,0,0
-602,498,0,0,0,0,0,0,0,0,0,-1,622,526,0,0
-595,498,0,0,0,0,0,0,0,0,0,-1,629,526,0,0
-588,498,0,0,0,0,0,0,0,0,0,-1,636,526,0,0
-581,498,0,0,0,0,0,0,0,0,0,-1,643,526,0,0
-574,498,0,0,0,0,0,0,0,0,0,-1,650,526,0,0
-567,498,0,0,0,0,0,0,0,0,0,-1,657,526,0,0
-560,498,0,0,0,0,0,0,0,0,0,-1,664,526,0,0
-553,498,0,0,0,0,0,0,0,0,0,-1,671,526,0,0
-546,498,0,0,0,0,0,0,0,0,0,-1,678,526,0,0
-539,498,0,0,0,0,0,0,0,0,0,-1,685,526,0,0
-532,498,0,0,0,0,0,0,0,0,0,-1,692,526,0,0
-525,498,0,0,0,0,0,0,0,0,0,-1,699,526,0,0
-518,498,0,0,0,0,0,0,0,0,0,-1,706,526,0,0
-511,498,0,0,0,0,0,0,0,0,0,-1,713,526,0,0
-504,498,0,0,0,0,0,0,0,0,0,-1,720,526,0,0
-497,498,0,0,0,0,0,0,0,0,0,-1,727,526,0,0
-490,498,0,0,0,0,0,0,0,0,0,-1,734,526,0,0
-483,498,0,0,0,0,0,0,0,0,0,-1,741,526,0,0
-476,498,0,0,0,0,0,0,0,0,0,-1,748,526,0,0
-469,498,0,0,0,0,0,0,0,0,0,-1,755,526,0,0
-462,498,6.81024,1.15515,0,0,0,0,0,0,0,-1,762,526,6.81026,-1.15514
-455,498,3.25757,-3.0592,0,0,0,0,0,0,0,-1,769,526,3.25754,3.05921
-448,498,3.05939,-3.74298,0,0,0,0,0,0,0,-1,776,526,3.05939,3.74296
-441,498,2.77191,-6.08209,0,0,0,0,0,0,0,-1,783,526,2.77189,6.08207
-434,498,2.10681,-6.95929,0,0,0,0,0,0,0,-1,790,526,2.10682,6.9593
-427,498,-0.368042,-10.7726,0,0,0,0,0,0,0,-1,797,526,-0.36807,10.7726
-420,498,-1.05035,-10.5142,0,0,0,0,0,0,0,-1,804,526,-1.05034,10.5142
-413,498,-4.52112,-18.8354,0,0,0,0,0,0,0,-1,811,526,-4.52111,18.8354
-406,498,-4.29938,-22.1137,0,0,0,0,0,0,0,-1,818,526,-4.29941,22.1137
-399,498,-4.2381,-22.9752,0.000542868,0.014994,-0.00788459,0.0184631,-0.00292622,-1.1563,0.0133911,0.0307199,825,526,-4.23811,22.9752
-392,498,-4.38251,-23.9511,0.000778821,0.0127911,-0.00713687,0.0161128,-0.00254288,-1.13519,0.0116821,0.0158925,832,526,-4.38249,23.9511
-385,498,-4.44086,-24.7856,0.00104125,0.010652,-0.00628272,0.0137564,-0.00206313,-1.11187,0.00993033,0.00993221,839,526,-4.44086,24.7856
-378,498,-4.48444,-25.6428,0.00125033,0.00879658,-0.00541703,0.011625,-0.00157811,-1.08959,0.00832605,0.0106114,846,526,-4.48442,25.6428
-371,498,-4.50275,-26.4837,0.00134186,0.00696395,-0.00456849,0.00951695,-0.00121114,-1.0612,0.00678448,0.0152122,853,526,-4.50275,26.4837
-364,498,-4.55219,-27.3233,0.00136112,0.00511123,-0.00358537,0.00728224,-0.000809894,-1.02633,0.00514608,0.0163448,860,526,-4.55217,27.3233
-357,498,-4.59839,-28.1596,0.00135191,0.00347701,-0.00259395,0.0052176,-0.000388682,-0.979787,0.00361493,0.0124681,867,526,-4.5984,28.1596
-350,498,-4.65204,-28.9552,0.0013241,0.00191018,-0.00164193,0.00328502,-5.07333e-05,-0.873705,0.00220712,0.0122661,874,526,-4.65206,28.9552
-343,498,-4.6969,-29.8049,0.00124704,0.000363355,-0.000722976,0.0016525,-4.21028e-05,-0.511111,0.00111597,0.0157687,881,526,-4.69693,29.8049
-336,498,-4.70007,-30.6073,0.00105031,-0.00111223,0.000240323,0.0010767,-0.00113861,0.109352,0.00127918,0.0206566,888,526,-4.70005,30.6073
-329,498,-4.70599,-31.3312,0.000882316,-0.00241398,0.00114667,0.00124196,-0.00277363,0.303928,0.00237395,0.0262241,895,526,-4.70597,31.3312
-322,498,-4.77002,-32.132,0.000792744,-0.00349828,0.00191907,0.00152578,-0.00423132,0.364872,0.00344404,0.0273737,902,526,-4.77002,32.132
-315,498,-4.84131,-32.9149,0.000800177,-0.0043727,0.0025685,0.00185885,-0.00543138,0.390959,0.00437424,0.0198293,909,526,-4.84133,32.9149
-308,498,-4.87506,-33.6611,0.00088423,-0.00492262,0.0031276,0.00224833,-0.00628672,0.411276,0.00510827,0.0219474,916,526,-4.87507,33.6611
-301,498,-4.87396,-34.4752,0,0,0,0,0,0,0,-1,923,526,-4.87397,34.4752
-294,498,-4.74579,-34.9152,0,0,0,0,0,0,0,-1,930,526,-4.7458,34.9152
-287,498,-0.91394,-13.4327,0,0,0,0,0,0,0,-1,937,526,-0.913935,13.4327
-280,498,-0.341614,-8.66608,0,0,0,0,0,0,0,-1,944,526,-0.341589,8.66606
-273,498,-0.988892,-8.62921,0,0,0,0,0,0,0,-1,951,526,-0.988906,8.62922
-266,498,0.362488,-6.33545,0,0,0,0,0,0,0,-1,958,526,0.362478,6.33547
-259,498,10.9454,-17.3615,0,0,0,0,0,0,0,-1,965,526,10.9454,17.3614
-252,498,8.56586,-14.6886,0,0,0,0,0,0,0,-1,972,526,8.56584,14.6886
-245,498,5.97382,-11.928,0,0,0,0,0,0,0,-1,979,526,5.97381,11.928
-238,498,2.24841,-13.8145,0,0,0,0,0,0,0,-1,986,526,2.24838,13.8145
-231,498,0.665894,-10.4898,0,0,0,0,0,0,0,-1,993,526,0.665863,10.4898
-224,498,-2.11243,-4.76312,0,0,0,0,0,0,0,-1,1000,526,-2.11245,4.76314
-217,498,-3.82239,-1.42841,0,0,0,0,0,0,0,-1,1007,526,-3.82241,1.42843
-210,498,-1.80591,-0.358215,0,0,0,0,0,0,0,-1,1014,526,-1.8059,0.3582
-203,498,-3.17316,1.06641,0,0,0,0,0,0,0,-1,1021,526,-3.17313,-1.0664
-196,498,-0.103271,5.40527,0,0,0,0,0,0,0,-1,1028,526,-0.103285,-5.40528
-189,498,3.00256,6.47137,0,0,0,0,0,0,0,-1,1035,526,3.00256,-6.47139
-182,498,0,0,0,0,0,0,0,0,0,-1,1042,526,0,0
-175,498,0,0,0,0,0,0,0,0,0,-1,1049,526,0,0
-168,498,0,0,0,0,0,0,0,0,0,-1,1056,526,0,0
-161,498,0,0,0,0,0,0,0,0,0,-1,1063,526,0,0
-154,498,0,0,0,0,0,0,0,0,0,-1,1070,526,0,0
-147,498,0,0,0,0,0,0,0,0,0,-1,1077,526,0,0
-140,498,0,0,0,0,0,0,0,0,0,-1,1084,526,0,0
-133,498,0,0,0,0,0,0,0,0,0,-1,1091,526,0,0
-126,498,0,0,0,0,0,0,0,0,0,-1,1098,526,0,0
-119,498,0,0,0,0,0,0,0,0,0,-1,1105,526,0,0
-112,498,0,0,0,0,0,0,0,0,0,-1,1112,526,0,0
-105,498,0,0,0,0,0,0,0,0,0,-1,1119,526,0,0
-98,498,0,0,0,0,0,0,0,0,0,-1,1126,526,0,0
-91,498,0,0,0,0,0,0,0,0,0,-1,1133,526,0,0
-84,498,0,0,0,0,0,0,0,0,0,-1,1140,526,0,0
-77,498,0,0,0,0,0,0,0,0,0,-1,1147,526,0,0
-70,498,0,0,0,0,0,0,0,0,0,-1,1154,526,0,0
-63,498,0,0,0,0,0,0,0,0,0,-1,1161,526,0,0
-56,498,0,0,0,0,0,0,0,0,0,-1,1168,526,0,0
-49,498,0,0,0,0,0,0,0,0,0,-1,1175,526,0,0
-42,498,0,0,0,0,0,0,0,0,0,-1,1182,526,0,0
-35,498,0,0,0,0,0,0,0,0,0,-1,1189,526,0,0
-28,498,0,0,0,0,0,0,0,0,0,-1,1196,526,0,0
-21,498,0,0,0,0,0,0,0,0,0,-1,1203,526,0,0
-14,498,0,0,0,0,0,0,0,0,0,-1,1210,526,0,0
-7,498,0,0,0,0,0,0,0,0,0,-1,1217,526,0,0
0,498,0,0,0,0,0,0,0,0,0,-1,1224,526,0,0
7,498,0,0,0,0,0,0,0,0,0,-1,1231,526,0,0
14,498,0,0,0,0,0,0,0,0,0,-1,1238,526,0,0
21,498,0,0,0,0,0,0,0,0,0,-1,1245,526,0,0
28,498,0,0,0,0,0,0,0,0,0,-1,1252,526,0,0
35,498,0,0,0,0,0,0,0,0,0,-1,1259,526,0,0
42,498,0,0,0,0,0,0,0,0,0,-1,1266,526,0,0
49,498,0,0,0,0,0,0,0,0,0,-1,1273,526,0,0
56,498,0,0,0,0,0,0,0,0,0,-1,1280,526,0,0
63,498,0,0,0,0,0,0,0,0,0,-1,1287,526,0,0
70,498,0,0,0,0,0,0,0,0,0,-1,1294,526,0,0
77,498,0,0,0,0,0,0,0,0,0,-1,1301,526,0,0
84,498,0,0,0,0,0,0,0,0,0,-1,1308,526,0,0
91,498,0,0,0,0,0,0,0,0,0,-1,1315,526,0,0
98,498,0,0,0,0,0,0,0,0,0,-1,1322,526,0,0
105,498,0,0,0,0,0,0,0,0,0,-1,1329,526,0,0
112,498,0,0,0,0,0,0,0,0,0,-1,1336,526,0,0
119,498,0,0,0,0,0,0,0,0,0,-1,1343,526,0,0
126,498,0,0,0,0,0,0,0,0,0,-1,1350,526,0,0
133,498,0,0,0,0,0,0,0,0,0,-1,1357,526,0,0
140,498,0,0,0,0,0,0,0,0,0,-1,1364,526,0,0
147,498,0,0,0,0,0,0,0,0,0,-1,1371,526,0,0
154,498,0,0,0,0,0,0,0,0,0,-1,1378,526,0,0
161,498,0,0,0,0,0,0,0,0,0,-1,1385,526,0,0
168,498,0,0,0,0,0,0,0,0,0,-1,1392,526,0,0
175,498,0,0,0,0,0,0,0,0,0,-1,1399,526,0,0
182,498,0,0,0,0,0,0,0,0,0,-1,1406,526,0,0
189,498,0,0,0,0,0,0,0,0,0,-1,1413,526,0,0
196,498,0,0,0,0,0,0,0,0,0,-1,1420,526,0,0
203,498,0,0,0,0,0,0,0,0,0,-1,1427,526,0,0
210,498,0,0,0,0,0,0,0,0,0,-1,1434,526,0,0
217,498,0,0,0,0,0,0,0,0,0,-1,1441,526,0,0
224,498,0,0,0,0,0,0,0,0,0,-1,1448,526,0,0
231,498,0,0,0,0,0,0,0,0,0,-1,1455,526,0,0
238,498,0,0,0,0,0,0,0,0,0,-1,1462,526,0,0
245,498,0,0,0,0,0,0,0,0,0,-1,1469,526,0,0
252,498,0,0,0,0,0,0,0,0,0,-1,1476,526,0,0
259,498,0,0,0,0,0,0,0,0,0,-1,1483,526,0,0
266,498,0,0,0,0,0,0,0,0,0,-1,1490,526,0,0
273,498,0,0,0,0,0,0,0,0,0,-1,1497,526,0,0
280,498,0,0,0,0,0,0,0,0,0,-1,1504,526,0,0
287,498,0,0,0,0,0,0,0,0,0,-1,1511,526,0,0
294,498,0,0,0,0,0,0,0,0,0,-1,1518,526,0,0
301,498,0,0,0,0,0,0,0,0,0,-1,1525,526,0,0
308,498,4.77942,-0.293884,0,0,0,0,0,0,0,-1,1532,526,4.77939,0.293899
315,498,4.56091,-0.564148,0,0,0,0,0,0,0,-1,1539,526,4.56097,0.564142
322,498,4.52344,-0.447266,0,0,0,0,0,0,0,-1,1546,526,4.52341,0.447295
329,498,4.63232,-0.156982,0,0,0,0,0,0,0,-1,1553,526,4.63238,0.156991
336,498,5.22644,0.0925903,0,0,0,0,0,0,0,-1,1560,526,5.22648,-0.0926188
343,498,6.22607,-1.67615,0,0,0,0,0,0,0,-1,1567,526,6.22605,1.67617
350,498,6.19373,-1.59906,0,0,0,0,0,0,0,-1,1574,526,6.19367,1.59906
357,498,6.21472,-1.58929,0,0,0,0,0,0,0,-1,1581,526,6.21476,1.58927
364,498,5.73547,-1.2019,0,0,0,0,0,0,0,-1,1588,526,5.73547,1.20192
371,498,3.27087,-4.55334,0,0,0,0,0,0,0,-1,1595,526,3.27089,4.55332
378,498,8.42944,-4.70624,0,0,0,0,0,0,0,-1,1602,526,8.42942,4.70624
385,498,4.7793,-5.15314,0,0,0,0,0,0,0,-1,1609,526,4.77935,5.15311
392,498,9.12439,-8.57953,0,0,0,0,0,0,0,-1,1616,526,9.12443,8.57955
399,498,7.98938,-9.46021,0,0,0,0,0,0,0,-1,1623,526,7.98936,9.4602
406,498,7.58081,-9.26819,0,0,0,0,0,0,0,-1,1630,526,7.58085,9.26817
413,498,7.17236,-9.07611,0,0,0,0,0,0,0,-1,1637,526,7.17234,9.07614
420,498,11.4314,-16.1147,0,0,0,0,0,0,0,-1,1644,526,11.4313,16.1147
427,498,19.2811,-34.1429,0,0,0,0,0,0,0,-1,1651,526,19.2812,34.1429
434,498,19.2491,-33.1608,0.00212874,-2.03844e-05,-0.00173943,0.00309876,-0.000990402,-0.508708,0.00246326,0.0379498,1658,526,19.2492,33.1608
441,498,19.3114,-32.3401,0.00170382,-7.28636e-05,-0.00156348,0.0026137,-0.00098275,-0.527051,0.0021464,0.0119561,1665,526,19.3114,32.3402
448,498,19.2917,-31.5171,0.00148695,5.28538e-05,-0.00121061,0.00217693,-0.00063713,-0.518028,0.00170385,0.0109365,1672,526,19.2917,31.5171
455,498,19.2523,-30.7231,0.00134111,0.000249718,-0.000865357,0.00181846,-0.000227633,-0.504089,0.00129487,0.0144361,1679,526,19.2523,30.7231
462,498,19.2206,-29.9276,0.00124611,0.000514266,-0.00049185,0.00149322,0.00026715,-0.465583,0.000919462,0.0162336,1686,526,19.2206,29.9276
469,498,19.1631,-29.1199,0.00127151,0.000836392,-5.86788e-05,0.00127929,0.000828618,-0.131722,0.000749263,0.0144479,1693,526,19.1631,29.1199
476,498,19.1248,-28.3056,0.00133348,0.00117439,0.000405037,0.00166671,0.00084116,0.688439,0.000962289,0.0112863,1700,526,19.1248,28.3056
483,498,19.0833,-27.4953,0.00148355,0.00148504,0.000877174,0.00236147,0.000607117,0.785823,0.00141601,0.00963463,1707,526,19.0832,27.4953
490,498,19.0425,-26.6859,0.00161142,0.00191078,0.00129842,0.00306812,0.00045408,0.842783,0.00191211,0.0113208,1714,526,19.0425,26.6859
497,498,19.0048,-25.8322,0.00176412,0.00227465,0.00168476,0.00372337,0.000315396,0.860583,0.00238408,0.0122581,1721,526,19.0048,25.8321
504,498,18.9479,-24.9897,0.00198183,0.00251252,0.00201837,0.00428292,0.000211441,0.850756,0.00278747,0.0143194,1728,526,18.9479,24.9897
511,498,18.8943,-24.1408,0.00210454,0.00283355,0.00229614,0.00479394,0.000144153,0.864114,0.00314901,0.0164553,1735,526,18.8942,24.1408
518,498,18.9578,-23.275,0.00205103,0.00323089,0.00242767,0.00513928,0.000142637,0.904589,0.00337965,0.0224916,1742,526,18.9578,23.2749
525,498,18.762,-22.4483,0.00192954,0.00366263,0.00251151,0.00545289,0.000139288,0.951518,0.00358973,0.0379324,1749,526,18.762,22.4483
532,498,18.6841,-21.5408,0,0,0,0,0,0,0,-1,1756,526,18.6841,21.5408
539,498,17.5154,-19.691,0,0,0,0,0,0,0,-1,1763,526,17.5154,19.691
546,498,10.2014,-8.47589,0,0,0,0,0,0,0,-1,1770,526,10.2014,8.47589
553,498,5.93958,-1.71448,0,0,0,0,0,0,0,-1,1777,526,5.93956,1.71447
560,498,3.69385,-0.615112,0,0,0,0,0,0,0,-1,1784,526,3.69381,0.615118
567,498,5.12695,-0.581604,0,0,0,0,0,0,0,-1,1791,526,5.12699,0.58159
574,498,3.88,0.0286255,0,0,0,0,0,0,0,-1,1798,526,3.87999,-0.0286535
581,498,10.8722,2.58551,0,0,0,0,0,0,0,-1,1805,526,10.8723,-2.58551
588,498,0,0,0,0,0,0,0,0,0,-1,1812,526,0,0
595,498,0,0,0,0,0,0,0,0,0,-1,1819,526,0,0
602,498,0,0,0,0,0,0,0,0,0,-1,1826,526,0,0
609,498,0,0,0,0,0,0,0,0,0,-1,1833,526,0,0
616,498,0,0,0,0,0,0,0,0,0,-1,1840,526,0,0
623,498,0,0,0,0,0,0,0,0,0,-1,1847,526,0,0
630,498,0,0,0,0,0,0,0,0,0,-1,1854,526,0,0
637,498,0,0,0,0,0,0,0,0,0,-1,1861,526,0,0
644,498,0,0,0,0,0,0,0,0,0,-1,1868,526,0,0
651,498,0,0,0,0,0,0,0,0,0,-1,1875,526,0,0
658,498,0,0,0,0,0,0,0,0,0,-1,1882,526,0,0
665,498,0,0,0,0,0,0,0,0,0,-1,1889,526,0,0
672,498,0,0,0,0,0,0,0,0,0,-1,1896,526,0,0
679,498,0,0,0,0,0,0,0,0,0,-1,1903,526,0,0
686,498,0,0,0,0,0,0,0,0,0,-1,1910,526,0,0
693,498,0,0,0,0,0,0,0,0,0,-1,1917,526,0,0
700,498,0,0,0,0,0,0,0,0,0,-1,1924,526,0,0
707,498,0,0,0,0,0,0,0,0,0,-1,1931,526,0,0
714,498,0,0,0,0,0,0,0,0,0,-1,1938,526,0,0
721,498,0,0,0,0,0,0,0,0,0,-1,1945,526,0,0
728,498,0,0,0,0,0,0,0,0,0,-1,1952,526,0,0
735,498,0,0,0,0,0,0,0,0,0,-1,1959,526,0,0
742,498,0,0,0,0,0,0,0,0,0,-1,1966,526,0,0
749,498,0,0,0,0,0,0,0,0,0,-1,1973,526,0,0
756,498,0,0,0,0,0,0,0,0,0,-1,1980,526,0,0
763,498,0,0,0,0,0,0,0,0,0,-1,1987,526,0,0
770,498,0,0,0,0,0,0,0,0,0,-1,1994,526,0,0
777,498,0,0,0,0,0,0,0,0,0,-1,2001,526,0,0
784,498,0,0,0,0,0,0,0,0,0,-1,2008,526,0,0
791,498,0,0,0,0,0,0,0,0,0,-1,2015,526,0,0
798,498,0,0,0,0,0,0,0,0,0,-1,2022,526,0,0
805,498,0,0,0,0,0,0,0,0,0,-1,2029,526,0,0
812,498,0,0,0,0,0,0,0,0,0,-1,2036,526,0,0
-700,491,0,0,0,0,0,0,0,0,0,-1,524,533,0,0
-693,491,0,0,0,0,0,0,0,0,0,-1,531,533,0,0
-686,491,0,0,0,0,0,0,0,0,0,-1,538,533,0,0
-679,491,0,0,0,0,0,0,0,0,0,-1,545,533,0,0
-672,491,0,0,0,0,0,0,0,0,0,-1,552,533,0,0
-665,491,0,0,0,0,0,0,0,0,0,-1,559,533,0,0
-658,491,0,0,0,0,0,0,0,0,0,-1,566,533,0,0
-651,491,0,0,0,0,0,0,0,0,0,-1,573,533,0,0
-644,491,0,0,0,0,0,0,0,0,0,-1,580,533,0,0
-637,491,0,0,0,0,0,0,0,0,0,-1,587,533,0,0
-630,491,0,0,0,0,0,0,0,0,0,-1,594,533,0,0
-623,491,0,0,0,0,0,0,0,0,0,-1,601,533,0,0
-616,491,0,0,0,0,0,0,0,0,0,-1,608,533,0,0
-609,491,0,0,0,0,0,0,0,0,0,-1,615,533,0,0
-602,491,0,0,0,0,0,0,0,0,0,-1,622,533,0,0
-595,491,0,0,0,0,0,0,0,0,0,-1,629,533,0,0
-588,491,0,0,0,0,0,0,0,0,0,-1,636,533,0,0
-581,491,0,0,0,0,0,0,0,0,0,-1,643,533,0,0
-574,491,0,0,0,0,0,0,0,0,0,-1,650,533,0,0
-567,491,0,0,0,0,0,0,0,0,0,-1,657,533,0,0
-560,491,0,0,0,0,0,0,0,0,0,-1,664,533,0,0
-553,491,0,0,0,0,0,0,0,0,0,-1,671,533,0,0
-546,491,0,0,0,0,0,0,0,0,0,-1,678,533,0,0
-539,491,0,0,0,0,0,0,0,0,0,-1,685,533,0,0
-532,491,0,0,0,0,0,0,0,0,0,-1,692,533,0,0
-525,491,0,0,0,0,0,0,0,0,0,-1,699,533,0,0
-518,491,0,0,0,0,0,0,0,0,0,-1,706,533,0,0
-511,491,0,0,0,0,0,0,0,0,0,-1,713,533,0,0
-504,491,0,0,0,0,0,0,0,0,0,-1,720,533,0,0
-497,491,0,0,0,0,0,0,0,0,0,-1,727,533,0,0
-490,491,0,0,0,0,0,0,0,0,0,-1,734,533,0,0
-483,491,0,0,0,0,0,0,0,0,0,-1,741,533,0,0
-476,491,0,0,0,0,0,0,0,0,0,-1,748,533,0,0
-469,491,-5.85913,4.55011,0,0,0,0,0,0,0,-1,755,533,-5.8591,-4.55009
-462,491,-9.93713,4.90381,0,0,0,0,0,0,0,-1,762,533,-9.93716,-4.9038
-455,491,1.9494,-0.27887,0,0,0,0,0,0,0,-1,769,533,1.94941,0.27885
-448,491,2.68909,-1.8999,0,0,0,0,0,0,0,-1,776,533,2.6891,1.89988
-441,491,3.46069,-3.51855,0,0,0,0,0,0,0,-1,783,533,3.46071,3.51854
-434,491,2.67145,-7.44061,0,0,0,0,0,0,0,-1,790,533,2.67146,7.44061
-427,491,2.27136,-8.34546,0,0,0,0,0,0,0,-1,797,533,2.27136,8.34546
-420,491,-5.51227,-19.873,0,0,0,0,0,0,0,-1,804,533,-5.51225,19.873
-413,491,-5.01868,-21.1533,0,0,0,0,0,0,0,-1,811,533,-5.01866,21.1533
-406,491,-5.03851,-22.2151,-7.90792e-05,0.0134345,-0.0066939,0.0161889,-0.00283347,-1.18044,0.0118506,0.0282329,818,533,-5.0385,22.2151
-399,491,-5.10486,-23.1559,0.000147471,0.011263,-0.00602361,0.0139012,-0.00249065,-1.158,0.0101995,0.0141874,825,533,-5.10486,23.1559
-392,491,-5.20258,-24.0073,0.000421231,0.00933489,-0.00538143,0.0118654,-0.0021093,-1.13124,0.00869904,0.0116834,832,533,-5.20258,24.0073
-385,491,-5.24878,-24.8023,0.000766331,0.00749312,-0.00467061,0.00988533,-0.00162588,-1.09745,0.00719369,0.00996729,839,533,-5.24875,24.8023
-378,491,-5.28308,-25.6062,0.00104491,0.00589424,-0.00392125,0.00807991,-0.00114076,-1.0623,0.00580435,0.0137467,846,533,-5.28308,25.6062
-371,491,-5.31354,-26.4271,0.00120202,0.00431373,-0.00318436,0.006302,-0.000786247,-1.01264,0.00448644,0.0140879,853,533,-5.31352,26.4271
-364,491,-5.35663,-27.2744,0.00129752,0.00270937,-0.00230785,0.00441684,-0.00040995,-0.933819,0.00309029,0.0139483,860,533,-5.35664,27.2744
-357,491,-5.39655,-28.087,0.00137954,0.00132846,-0.00142648,0.00278071,-7.27059e-05,-0.776447,0.00187851,0.0128563,867,533,-5.39655,28.087
-350,491,-5.44824,-28.8799,0.00144241,5.31264e-06,-0.000583396,0.00164942,-0.0002017,-0.340981,0.00117264,0.0156054,874,533,-5.44824,28.8799
-343,491,-5.48315,-29.7118,0.00142088,-0.00127868,0.000242978,0.00144257,-0.00130037,0.0890529,0.00158435,0.0278221,881,533,-5.48315,29.7118
-336,491,-5.49677,-30.4979,0.00124709,-0.00255958,0.00114687,0.00156592,-0.0028784,0.271149,0.00260296,0.0290375,888,533,-5.49678,30.4978
-329,491,-5.53241,-31.2711,0.00108479,-0.00370657,0.00202193,0.00182399,-0.00444577,0.350497,0.00372385,0.0290641,895,533,-5.53241,31.2711
-322,491,-5.58948,-32.0551,0.00106885,-0.00457824,0.00268682,0.00214292,-0.00565231,0.380296,0.00465012,0.0239592,902,533,-5.58948,32.0551
-315,491,-5.66034,-32.7741,0.00112755,-0.00532811,0.00324605,0.00247746,-0.00667802,0.394106,0.00546822,0.021907,909,533,-5.66033,32.7741
-308,491,-5.65234,-33.7472,0,0,0,0,0,0,0,-1,916,533,-5.65234,33.7472
-301,491,-5.66852,-34.481,0,0,0,0,0,0,0,-1,923,533,-5.66849,34.481
-294,491,-0.777283,-8.60913,0,0,0,0,0,0,0,-1,930,533,-0.777288,8.6091
-287,491,-0.26123,-8.69055,0,0,0,0,0,0,0,-1,937,533,-0.261204,8.69053
-280,491,0.2948,-5.99219,0,0,0,0,0,0,0,-1,944,533,0.294811,5.99221
-273,491,0.369995,-5.33691,0,0,0,0,0,0,0,-1,951,533,0.369985,5.33693
-266,491,1.1167,-5.0321,0,0,0,0,0,0,0,-1,958,533,1.11668,5.0321
-259,491,12.0862,-16.9615,0,0,0,0,0,0,0,-1,965,533,12.0862,16.9615
-252,491,9.72443,-13.8417,0,0,0,0,0,0,0,-1,972,533,9.72444,13.8418
-245,491,5.27258,-14.3619,0,0,0,0,0,0,0,-1,979,533,5.27255,14.3619
-238,491,3.65381,-11.1472,0,0,0,0,0,0,0,-1,986,533,3.6538,11.1472
-231,491,2.17719,-7.86835,0,0,0,0,0,0,0,-1,993,533,2.17719,7.86832
-224,491,0.554626,-4.61725,0,0,0,0,0,0,0,-1,1000,533,0.554608,4.61727
-217,491,-2.92743,-1.0766,0,0,0,0,0,0,0,-1,1007,533,-2.92743,1.07659
-210,491,-0.92395,0.374512,0,0,0,0,0,0,0,-1,1014,533,-0.923959,-0.374531
-203,491,0.417419,4.77161,0,0,0,0,0,0,0,-1,1021,533,0.417446,-4.77162
-196,491,0,0,0,0,0,0,0,0,0,-1,1028,533,0,0
-189,491,0,0,0,0,0,0,0,0,0,-1,1035,533,0,0
-182,491,0,0,0,0,0,0,0,0,0,-1,1042,533,0,0
-175,491,0,0,0,0,0,0,0,0,0,-1,1049,533,0,0
-168,491,0,0,0,0,0,0,0,0,0,-1,1056,533,0,0
-161,491,0,0,0,0,0,0,0,0,0,-1,1063,533,0,0
-154,491,0,0,0,0,0,0,0,0,0,-1,1070,533,0,0
-147,491,0,0,0,0,0,0,0,0,0,-1,1077,533,0,0
-140,491,0,0,0,0,0,0,0,0,0,-1,1084,533,0,0
-133,491,0,0,0,0,0,0,0,0,0,-1,1091,533,0,0
-126,491,0,0,0,0,0,0,0,0,0,-1,1098,533,0,0
-119,491,0,0,0,0,0,0,0,0,0,-1,1105,533,0,0
-112,491,0,0,0,0,0,0,0,0,0,-1,1112,533,0,0
-105,491,0,0,0,0,0,0,0,0,0,-1,1119,533,0,0
-98,491,0,0,0,0,0,0,0,0,0,-1,1126,533,0,0
-91,491,0,0,0,0,0,0,0,0,0,-1,1133,533,0,0
-84,491,0,0,0,0,0,0,0,0,0,-1,1140,533,0,0
-77,491,0,0,0,0,0,0,0,0,0,-1,1147,533,0,0
-70,491,0,0,0,0,0,0,0,0,0,-1,1154,533,0,0
-63,491,0,0,0,0,0,0,0,0,0,-1,1161,533,0,0
-56,491,0,0,0,0,0,0,0,0,0,-1,1168,533,0,0
-49,491,0,0,0,0,0,0,0,0,0,-1,1175,533,0,0
-42,491,0,0,0,0,0,0,0,0,0,-1,1182,533,0,0
-35,491,0,0,0,0,0,0,0,0,0,-1,1189,533,0,0
-28,491,0,0,0,0,0,0,0,0,0,-1,1196,533,0,0
-21,491,0,0,0,0,0,0,0,0,0,-1,1203,533,0,0
-14,491,0,0,0,0,0,0,0,0,0,-1,1210,533,0,0
-7,491,0,0,0,0,0,0,0,0,0,-1,1217,533,0,0
0,491,0,0,0,0,0,0,0,0,0,-1,1224,533,0,0
7,491,0,0,0,0,0,0,0,0,0,-1,1231,533,0,0
14,491,0,0,0,0,0,0,0,0,0,-1,1238,533,0,0
21,491,0,0,0,0,0,0,0,0,0,-1,1245,533,0,0
28,491,0,0,0,0,0,0,0,0,0,-1,1252,533,0,0
35,491,0,0,0,0,0,0,0,0,0,-1,1259,533,0,0
42,491,0,0,0,0,0,0,0,0,0,-1,1266,533,0,0
49,491,0,0,0,0,0,0,0,0,0,-1,1273,533,0,0
56,491,0,0,0,0,0,0,0,0,0,-1,1280,533,0,0
63,491,0,0,0,0,0,0,0,0,0,-1,1287,533,0,0
70,491,0,0,0,0,0,0,0,0,0,-1,1294,533,0,0
77,491,0,0,0,0,0,0,0,0,0,-1,1301,533,0,0
84,491,0,0,0,0,0,0,0,0,0,-1,1308,533,0,0
91,491,0,0,0,0,0,0,0,0,0,-1,1315,533,0,0
98,491,0,0,0,0,0,0,0,0,0,-1,1322,533,0,0
105,491,0,0,0,0,0,0,0,0,0,-1,1329,533,0,0
112,491,0,0,0,0,0,0,0,0,0,-1,1336,533,0,0
119,491,0,0,0,0,0,0,0,0,0,-1,1343,533,0,0
126,491,0,0,0,0,0,0,0,0,0,-1,1350,533,0,0
133,491,0,0,0,0,0,0,0,0,0,-1,1357,533,0,0
140,491,0,0,0,0,0,0,0,0,0,-1,1364,533,0,0
147,491,0,0,0,0,0,0,0,0,0,-1,1371,533,0,0
154,491,0,0,0,0,0,0,0,0,0,-1,1378,533,0,0
161,491,0,0,0,0,0,0,0,0,0,-1,1385,533,0,0
168,491,0,0,0,0,0,0,0,0,0,-1,1392,533,0,0
175,491,0,0,0,0,0,0,0,0,0,-1,1399,533,0,0
182,491,0,0,0,0,0,0,0,0,0,-1,1406,533,0,0
189,491,0,0,0,0,0,0,0,0,0,-1,1413,533,0,0
196,491,0,0,0,0,0,0,0,0,0,-1,1420,533,0,0
203,491,0,0,0,0,0,0,0,0,0,-1,1427,533,0,0
210,491,0,0,0,0,0,0,0,0,0,-1,1434,533,0,0
217,491,0,0,0,0,0,0,0,0,0,-1,1441,533,0,0
224,491,0,0,0,0,0,0,0,0,0,-1,1448,533,0,0
231,491,0,0,0,0,0,0,0,0,0,-1,1455,533,0,0
238,491,0,0,0,0,0,0,0,0,0,-1,1462,533,0,0
245,491,0,0,0,0,0,0,0,0,0,-1,1469,533,0,0
252,491,0,0,0,0,0,0,0,0,0,-1,1476,533,0,0
259,491,0,0,0,0,0,0,0,0,0,-1,1483,533,0,0
266,491,0,0,0,0,0,0,0,0,0,-1,1490,533,0,0
273,491,0,0,0,0,0,0,0,0,0,-1,1497,533,0,0
280,491,0,0,0,0,0,0,0,0,0,-1,1504,533,0,0
287,491,0,0,0,0,0,0,0,0,0,-1,1511,533,0,0
294,491,0,0,0,0,0,0,0,0,0,-1,1518,533,0,0
301,491,0,0,0,0,0,0,0,0,0,-1,1525,533,0,0
308,491,0,0,0,0,0,0,0,0,0,-1,1532,533,0,0
315,491,0,0,0,0,0,0,0,0,0,-1,1539,533,0,0
322,491,4.26331,-0.734314,0,0,0,0,0,0,0,-1,1546,533,4.26326,0.734324
329,491,4.25354,-0.783752,0,0,0,0,0,0,0,-1,1553,533,4.25359,0.783734
336,491,4.81604,-0.722107,0,0,0,0,0,0,0,-1,1560,533,4.81605,0.722115
343,491,6.14478,-1.44281,0,0,0,0,0,0,0,-1,1567,533,6.14474,1.44281
350,491,6.36353,-1.30792,0,0,0,0,0,0,0,-1,1574,533,6.36352,1.3079
357,491,6.69482,-1.06018,0,0,0,0,0,0,0,-1,1581,533,6.69489,1.06018
364,491,8.01086,-1.69604,0,0,0,0,0,0,0,-1,1588,533,8.01087,1.69607
371,491,8.2135,-0.539307,0,0,0,0,0,0,0,-1,1595,533,8.21348,0.53929
378,491,13.3589,2.17267,0,0,0,0,0,0,0,-1,1602,533,13.3589,-2.17264
385,491,8.08228,-4.95471,0,0,0,0,0,0,0,-1,1609,533,8.08227,4.95474
392,491,2.88721,-4.30988,0,0,0,0,0,0,0,-1,1616,533,2.88716,4.30986
399,491,8.95862,-8.55518,0,0,0,0,0,0,0,-1,1623,533,8.95864,8.55516
406,491,8.16541,-9.00806,0,0,0,0,0,0,0,-1,1630,533,8.16535,9.00807
413,491,5.31848,-3.7124,0,0,0,0,0,0,0,-1,1637,533,5.31849,3.7124
420,491,4.86389,-3.95892,0,0,0,0,0,0,0,-1,1644,533,4.86387,3.95893
427,491,11.5096,-15.2742,0,0,0,0,0,0,0,-1,1651,533,11.5096,15.2742
434,491,20.1576,-32.7458,0,0,0,0,0,0,0,-1,1658,533,20.1576,32.7458
441,491,20.1239,-32.0466,0.00155735,-0.000667909,-0.0023244,0.00302169,-0.00213225,-0.562177,0.00299036,0.0329142,1665,533,20.1239,32.0466
448,491,20.0889,-31.5023,0.00131973,-0.000383148,-0.00190745,0.00255714,-0.00162056,-0.57548,0.00243212,0.0203431,1672,533,20.0889,31.5023
455,491,20.049,-30.6813,0.00121995,-7.45394e-05,-0.00152695,0.00223117,-0.00108575,-0.584936,0.00195272,0.0145768,1679,533,20.0489,30.6813
462,491,20.0332,-29.8663,0.00110146,0.00024165,-0.0011198,0.00187104,-0.000527933,-0.602118,0.00145561,0.0159622,1686,533,20.0332,29.8663
469,491,19.9713,-29.0684,0.0010381,0.000567289,-0.000656856,0.00150046,0.000104929,-0.613338,0.000967227,0.0154009,1693,533,19.9713,29.0684
476,491,19.946,-28.2721,0.00110593,0.000889634,-0.000160134,0.00119102,0.00080455,-0.488396,0.000701615,0.011486,1700,533,19.9461,28.2721
483,491,19.9001,-27.4503,0.0012337,0.00115898,0.000315323,0.00151387,0.000878813,0.726435,0.000877801,0.0133713,1707,533,19.9001,27.4502
490,491,19.8539,-26.6422,0.00131121,0.00155344,0.00072882,0.00217114,0.000693508,0.867737,0.00128047,0.0114236,1714,533,19.8539,26.6422
497,491,19.8149,-25.8003,0.00141547,0.00194718,0.00116424,0.00287554,0.00048712,0.897649,0.00177705,0.0124692,1721,533,19.815,25.8003
504,491,19.7869,-24.9573,0.00157676,0.00210597,0.00152239,0.00338658,0.000296149,0.871443,0.00216576,0.0136077,1728,533,19.7868,24.9573
511,491,19.7268,-24.1364,0.00162948,0.00235625,0.0018161,0.00384496,0.00014077,0.88414,0.0025177,0.0131211,1735,533,19.7268,24.1363
518,491,19.6873,-23.3022,0.00149638,0.00268253,0.00198129,0.00415761,2.13047e-05,0.930822,0.00276467,0.0112886,1742,533,19.6872,23.3022
525,491,19.6523,-22.4401,0.00133016,0.00304093,0.00212952,0.00448043,-0.000109349,0.976375,0.00302406,0.0120951,1749,533,19.6523,22.4401
532,491,19.5719,-21.5487,0,0,0,0,0,0,0,-1,1756,533,19.5719,21.5487
539,491,19.5845,-20.6174,0,0,0,0,0,0,0,-1,1763,533,19.5844,20.6174
546,491,18.6716,-19.347,0,0,0,0,0,0,0,-1,1770,533,18.6716,19.3471
553,491,10.5021,-7.77869,0,0,0,0,0,0,0,-1,1777,533,10.502,7.77871
560,491,6.28455,-1.43585,0,0,0,0,0,0,0,-1,1784,533,6.28458,1.43586
567,491,5.67651,-1.3562,0,0,0,0,0,0,0,-1,1791,533,5.67649,1.3562
574,491,8.0719,1.58325,0,0,0,0,0,0,0,-1,1798,533,8.07195,-1.58326
581,491,9.44812,1.60931,0,0,0,0,0,0,0,-1,1805,533,9.44808,-1.60933
588,491,11.0497,1.54962,0,0,0,0,0,0,0,-1,1812,533,11.0496,-1.54963
595,491,0,0,0,0,0,0,0,0,0,-1,1819,533,0,0
602,491,0,0,0,0,0,0,0,0,0,-1,1826,533,0,0
609,491,0,0,0,0,0,0,0,0,0,-1,1833,533,0,0
616,491,0,0,0,0,0,0,0,0,0,-1,1840,533,0,0
623,491,0,0,0,0,0,0,0,0,0,-1,1847,533,0,0
630,491,0,0,0,0,0,0,0,0,0,-1,1854,533,0,0
637,491,0,0,0,0,0,0,0,0,0,-1,1861,533,0,0
644,491,0,0,0,0,0,0,0,0,0,-1,1868,533,0,0
651,491,0,0,0,0,0,0,0,0,0,-1,1875,533,0,0
658,491,0,0,0,0,0,0,0,0,0,-1,1882,533,0,0
665,491,0,0,0,0,0,0,0,0,0,-1,1889,533,0,0
672,491,0,0,0,0,0,0,0,0,0,-1,1896,533,0,0
679,491,0,0,0,0,0,0,0,0,0,-1,1903,533,0,0
686,491,0,0,0,0,0,0,0,0,0,-1,1910,533,0,0
693,491,0,0,0,0,0,0,0,0,0,-1,1917,533,0,0
700,491,0,0,0,0,0,0,0,0,0,-1,1924,533,0,0
707,491,0,0,0,0,0,0,0,0,0,-1,1931,533,0,0
714,491,0,0,0,0,0,0,0,0,0,-1,1938,533,0,0
721,491,0,0,0,0,0,0,0,0,0,-1,1945,533,0,0
728,491,0,0,0,0,0,0,0,0,0,-1,1952,533,0,0
735,491,0,0,0,0,0,0,0,0,0,-1,1959,533,0,0
742,491,0,0,0,0,0,0,0,0,0,-1,1966,533,0,0
749,491,0,0,0,0,0,0,0,0,0,-1,1973,533,0,0
756,491,0,0,0,0,0,0,0,0,0,-1,1980,533,0,0
763,491,0,0,0,0,0,0,0,0,0,-1,1987,533,0,0
770,491,0,0,0,0,0,0,0,0,0,-1,1994,533,0,0
777,491,0,0,0,0,0,0,0,0,0,-1,2001,533,0,0
784,491,0,0,0,0,0,0,0,0,0,-1,2008,533,0,0
791,491,0,0,0,0,0,0,0,0,0,-1,2015,533,0,0
798,491,0,0,0,0,0,0,0,0,0,-1,2022,533,0,0
805,491,0,0,0,0,0,0,0,0,0,-1,2029,533,0,0
812,491,0,0,0,0,0,0,0,0,0,-1,2036,533,0,0
-700,484,0,0,0,0,0,0,0,0,0,-1,524,540,0,0
-693,484,0,0,0,0,0,0,0,0,0,-1,531,540,0,0
-686,484,0,0,0,0,0,0,0,0,0,-1,538,540,0,0
-679,484,0,0,0,0,0,0,0,0,0,-1,545,540,0,0
-672,484,0,0,0,0,0,0,0,0,0,-1,552,540,0,0
-665,484,0,0,0,0,0,0,0,0,0,-1,559,540,0,0
-658,484,0,0,0,0,0,0,0,0,0,-1,566,540,0,0
-651,484,0,0,0,0,0,0,0,0,0,-1,573,540,0,0
-644,484,0,0,0,0,0,0,0,0,0,-1,580,540,0,0
-637,484,0,0,0,0,0,0,0,0,0,-1,587,540,0,0
-630,484,0,0,0,0,0,0,0,0,0,-1,594,540,0,0
-623,484,0,0,0,0,0,0,0,0,0,-1,601,540,0,0
-616,484,0,0,0,0,0,0,0,0,0,-1,608,540,0,0
-609,484,0,0,0,0,0,0,0,0,0,-1,615,540,0,0
-602,484,0,0,0,0,0,0,0,0,0,-1,622,540,0,0
-595,484,0,0,0,0,0,0,0,0,0,-1,629,540,0,0
-588,484,0,0,0,0,0,0,0,0,0,-1,636,540,0,0
-581,484,0,0,0,0,0,0,0,0,0,-1,643,540,0,0
-574,484,0,0,0,0,0,0,0,0,0,-1,650,540,0,0
-567,484,0,0,0,0,0,0,0,0,0,-1,657,540,0,0
-560,484,0,0,0,0,0,0,0,0,0,-1,664,540,0,0
-553,484,0,0,0,0,0,0,0,0,0,-1,671,540,0,0
-546,484,0,0,0,0,0,0,0,0,0,-1,678,540,0,0
-539,484,0,0,0,0,0,0,0,0,0,-1,685,540,0,0
-532,484,0,0,0,0,0,0,0,0,0,-1,692,540,0,0
-525,484,0,0,0,0,0,0,0,0,0,-1,699,540,0,0
-518,484,0,0,0,0,0,0,0,0,0,-1,706,540,0,0
-511,484,0,0,0,0,0,0,0,0,0,-1,713,540,0,0
-504,484,0,0,0,0,0,0,0,0,0,-1,720,540,0,0
-497,484,0,0,0,0,0,0,0,0,0,-1,727,540,0,0
-490,484,0,0,0,0,0,0,0,0,0,-1,734,540,0,0
-483,484,0,0,0,0,0,0,0,0,0,-1,741,540,0,0
-476,484,-8.46552,1.44702,0,0,0,0,0,0,0,-1,748,540,-8.46554,-1.44702
-469,484,-7.82343,1.70355,0,0,0,0,0,0,0,-1,755,540,-7.82345,-1.70355
-462,484,-8.36987,3.08612,0,0,0,0,0,0,0,-1,762,540,-8.36988,-3.0861
-455,484,-6.77197,2.07092,0,0,0,0,0,0,0,-1,769,540,-6.77197,-2.07094
-448,484,3.54895,-1.40106,0,0,0,0,0,0,0,-1,776,540,3.54897,1.40106
-441,484,4.28906,-3.05884,0,0,0,0,0,0,0,-1,783,540,4.28905,3.05883
-434,484,-2.17548,-5.07245,0,0,0,0,0,0,0,-1,790,540,-2.17546,5.07243
-427,484,-5.73022,-19.0739,0,0,0,0,0,0,0,-1,797,540,-5.73024,19.0739
-420,484,-5.66272,-20.1841,0,0,0,0,0,0,0,-1,804,540,-5.66271,20.1841
-413,484,-5.72211,-21.2173,-0.00050488,0.0123479,-0.00537223,0.0142976,-0.00245461,-1.22265,0.0104465,0.032992,811,540,-5.72213,21.2174
-406,484,-5.82867,-22.21,-0.000143891,0.0101749,-0.00497249,0.0121811,-0.00215004,-1.18732,0.00892414,0.0181898,818,540,-5.8287,22.21
-399,484,-5.95404,-23.0893,8.67611e-05,0.00822855,-0.00438265,0.0101393,-0.00182396,-1.15967,0.00744238,0.0168058,825,540,-5.95405,23.0893
-392,484,-6.00568,-23.9207,0.000386193,0.00651809,-0.00381708,0.00834807,-0.00144379,-1.12375,0.00610383,0.0197732,832,540,-6.00565,23.9207
-385,484,-6.06219,-24.7722,0.000780118,0.00490817,-0.00321777,0.006667,-0.000978717,-1.07057,0.00480425,0.0140267,839,540,-6.06217,24.7722
-378,484,-6.10712,-25.5709,0.00109012,0.00352278,-0.00256257,0.00514303,-0.000530137,-1.00698,0.00361837,0.0150624,846,540,-6.10709,25.5709
-371,484,-6.14917,-26.3696,0.00128103,0.00217741,-0.0019234,0.00370415,-0.000245713,-0.899865,0.00255528,0.0173989,853,540,-6.1492,26.3696
-364,484,-6.19397,-27.1895,0.00141175,0.000845049,-0.00116554,0.00232789,-7.10868e-05,-0.666157,0.00157616,0.0127948,860,540,-6.19396,27.1895
-357,484,-6.22919,-28.0154,0.0015313,-0.000251937,-0.0004231,0.00162659,-0.000347231,-0.221533,0.00121677,0.0134852,867,540,-6.22919,28.0154
-350,484,-6.2934,-28.8203,0.00161839,-0.00128266,0.000272222,0.00164371,-0.00130798,0.0927568,0.00170783,0.0157283,874,540,-6.29339,28.8203
-343,484,-6.33179,-29.6271,0.0015782,-0.00222131,0.000961742,0.00180777,-0.00245088,0.234316,0.00246806,0.0243863,881,540,-6.33181,29.6272
-336,484,-6.35522,-30.4232,0.00135535,-0.00322469,0.00176009,0.0019536,-0.00382294,0.327647,0.0033928,0.0279174,888,540,-6.35522,30.4232
-329,484,-6.39038,-31.1732,0.00112697,-0.00413341,0.00256641,0.00217161,-0.00517804,0.386562,0.00436005,0.0373387,895,540,-6.3904,31.1732
-322,484,-6.3623,-31.9597,0,0,0,0,0,0,0,-1,902,540,-6.36228,31.9597
-315,484,-6.2738,-32.7695,0,0,0,0,0,0,0,-1,909,540,-6.2738,32.7695
-308,484,-1.32623,-8.9317,0,0,0,0,0,0,0,-1,916,540,-1.32626,8.93173
-301,484,-1.33453,-6.52667,0,0,0,0,0,0,0,-1,923,540,-1.33454,6.5267
-294,484,-1.61224,-8.17059,0,0,0,0,0,0,0,-1,930,540,-1.61227,8.17058
-287,484,-0.715759,-5.62103,0,0,0,0,0,0,0,-1,937,540,-0.715772,5.62105
-280,484,2.66742,-1.6795,0,0,0,0,0,0,0,-1,944,540,2.6674,1.67949
-273,484,2.53125,-2.22296,0,0,0,0,0,0,0,-1,951,540,2.53128,2.22295
-266,484,2.6778,-2.72058,0,0,0,0,0,0,0,-1,958,540,2.6778,2.72061
-259,484,2.41718,-2.59894,0,0,0,0,0,0,0,-1,965,540,2.41717,2.59892
-252,484,10.6069,-11.696,0,0,0,0,0,0,0,-1,972,540,10.6069,11.696
-245,484,6.34106,-11.6107,0,0,0,0,0,0,0,-1,979,540,6.34104,11.6107
-238,484,4.89319,-8.54059,0,0,0,0,0,0,0,-1,986,540,4.89321,8.5406
-231,484,3.47675,-5.22064,0,0,0,0,0,0,0,-1,993,540,3.47676,5.22067
-224,484,1.71344,-2.03473,0,0,0,0,0,0,0,-1,1000,540,1.71342,2.03472
-217,484,-0.745056,1.17358,0,0,0,0,0,0,0,-1,1007,540,-0.745043,-1.17359
-210,484,0,0,0,0,0,0,0,0,0,-1,1014,540,0,0
-203,484,0,0,0,0,0,0,0,0,0,-1,1021,540,0,0
-196,484,0,0,0,0,0,0,0,0,0,-1,1028,540,0,0
-189,484,0,0,0,0,0,0,0,0,0,-1,1035,540,0,0
-182,484,0,0,0,0,0,0,0,0,0,-1,1042,540,0,0
-175,484,0,0,0,0,0,0,0,0,0,-1,1049,540,0,0
-168,484,0,0,0,0,0,0,0,0,0,-1,1056,540,0,0
-161,484,0,0,0,0,0,0,0,0,0,-1,1063,540,0,0
-154,484,0,0,0,0,0,0,0,0,0,-1,1070,540,0,0
-147,484,0,0,0,0,0,0,0,0,0,-1,1077,540,0,0
-140,484,0,0,0,0,0,0,0,0,0,-1,1084,540,0,0
-133,484,0,0,0,0,0,0,0,0,0,-1,1091,540,0,0
-126,484,0,0,0,0,0,0,0,0,0,-1,1098,540,0,0
-119,484,0,0,0,0,0,0,0,0,0,-1,1105,540,0,0
-112,484,0,0,0,0,0,0,0,0,0,-1,1112,540,0,0
-105,484,0,0,0,0,0,0,0,0,0,-1,1119,540,0,0
-98,484,0,0,0,0,0,0,0,0,0,-1,1126,540,0,0
-91,484,0,0,0,0,0,0,0,0,0,-1,1133,540,0,0
-84,484,0,0,0,0,0,0,0,0,0,-1,1140,540,0,0
-77,484,0,0,0,0,0,0,0,0,0,-1,1147,540,0,0
-70,484,0,0,0,0,0,0,0,0,0,-1,1154,540,0,0
-63,484,0,0,0,0,0,0,0,0,0,-1,1161,540,0,0
-56,484,0,0,0,0,0,0,0,0,0,-1,1168,540,0,0
-49,484,0,0,0,0,0,0,0,0,0,-1,1175,540,0,0
-42,484,0,0,0,0,0,0,0,0,0,-1,1182,540,0,0
-35,484,0,0,0,0,0,0,0,0,0,-1,1189,540,0,0
-28,484,0,0,0,0,0,0,0,0,0,-1,1196,540,0,0
-21,484,0,0,0,0,0,0,0,0,0,-1,1203,540,0,0
-14,484,0,0,0,0,0,0,0,0,0,-1,1210,540,0,0
-7,484,0,0,0,0,0,0,0,0,0,-1,1217,540,0,0
0,484,0,0,0,0,0,0,0,0,0,-1,1224,540,0,0
7,484,0,0,0,0,0,0,0,0,0,-1,1231,540,0,0
14,484,0,0,0,0,0,0,0,0,0,-1,1238,540,0,0
21,484,0,0,0,0,0,0,0,0,0,-1,1245,540,0,0
28,484,0,0,0,0,0,0,0,0,0,-1,1252,540,0,0
35,484,0,0,0,0,0,0,0,0,0,-1,1259,540,0,0
42,484,0,0,0,0,0,0,0,0,0,-1,1266,540,0,0
49,484,0,0,0,0,0,0,0,0,0,-1,1273,540,0,0
56,484,0,0,0,0,0,0,0,0,0,-1,1280,540,0,0
63,484,0,0,0,0,0,0,0,0,0,-1,1287,540,0,0
70,484,0,0,0,0,0,0,0,0,0,-1,1294,540,0,0
77,484,0,0,0,0,0,0,0,0,0,-1,1301,540,0,0
84,484,0,0,0,0,0,0,0,0,0,-1,1308,540,0,0
91,484,0,0,0,0,0,0,0,0,0,-1,1315,540,0,0
98,484,0,0,0,0,0,0,0,0,0,-1,1322,540,0,0
105,484,0,0,0,0,0,0,0,0,0,-1,1329,540,0,0
112,484,0,0,0,0,0,0,0,0,0,-1,1336,540,0,0
119,484,0,0,0,0,0,0,0,0,0,-1,1343,540,0,0
126,484,0,0,0,0,0,0,0,0,0,-1,1350,540,0,0
133,484,0,0,0,0,0,0,0,0,0,-1,1357,540,0,0
140,484,0,0,0,0,0,0,0,0,0,-1,1364,540,0,0
147,484,0,0,0,0,0,0,0,0,0,-1,1371,540,0,0
154,484,0,0,0,0,0,0,0,0,0,-1,1378,540,0,0
161,484,0,0,0,0,0,0,0,0,0,-1,1385,540,0,0
168,484,0,0,0,0,0,0,0,0,0,-1,1392,540,0,0
175,484,0,0,0,0,0,0,0,0,0,-1,1399,540,0,0
182,484,0,0,0,0,0,0,0,0,0,-1,1406,540,0,0
189,484,0,0,0,0,0,0,0,0,0,-1,1413,540,0,0
196,484,0,0,0,0,0,0,0,0,0,-1,1420,540,0,0
203,484,0,0,0,0,0,0,0,0,0,-1,1427,540,0,0
210,484,0,0,0,0,0,0,0,0,0,-1,1434,540,0,0
217,484,0,0,0,0,0,0,0,0,0,-1,1441,540,0,0
224,484,0,0,0,0,0,0,0,0,0,-1,1448,540,0,0
231,484,0,0,0,0,0,0,0,0,0,-1,1455,540,0,0
238,484,0,0,0,0,0,0,0,0,0,-1,1462,540,0,0
245,484,0,0,0,0,0,0,0,0,0,-1,1469,540,0,0
252,484,0,0,0,0,0,0,0,0,0,-1,1476,540,0,0
259,484,0,0,0,0,0,0,0,0,0,-1,1483,540,0,0
266,484,0,0,0,0,0,0,0,0,0,-1,1490,540,0,0
273,484,0,0,0,0,0,0,0,0,0,-1,1497,540,0,0
280,484,0,0,0,0,0,0,0,0,0,-1,1504,540,0,0
287,484,0,0,0,0,0,0,0,0,0,-1,1511,540,0,0
294,484,0,0,0,0,0,0,0,0,0,-1,1518,540,0,0
301,484,0,0,0,0,0,0,0,0,0,-1,1525,540,0,0
308,484,0,0,0,0,0,0,0,0,0,-1,1532,540,0,0
315,484,0,0,0,0,0,0,0,0,0,-1,1539,540,0,0
322,484,0,0,0,0,0,0,0,0,0,-1,1546,540,0,0
329,484,0,0,0,0,0,0,0,0,0,-1,1553,540,0,0
336,484,4.38708,-1.64136,0,0,0,0,0,0,0,-1,1560,540,4.38704,1.64138
343,484,7.57996,-1.05457,0,0,0,0,0,0,0,-1,1567,540,7.57995,1.05454
350,484,8.10425,-1.18878,0,0,0,0,0,0,0,-1,1574,540,8.1043,1.18877
357,484,7.74902,-3.80286,0,0,0,0,0,0,0,-1,1581,540,7.74901,3.80287
364,484,6.31262,-3.87213,0,0,0,0,0,0,0,-1,1588,540,6.31263,3.87215
371,484,7.21008,0.973511,0,0,0,0,0,0,0,-1,1595,540,7.21014,-0.973541
378,484,11.0563,1.5014,0,0,0,0,0,0,0,-1,1602,540,11.0563,-1.5014
385,484,14.3469,2.5545,0,0,0,0,0,0,0,-1,1609,540,14.3469,-2.55453
392,484,7.39453,-4.95026,0,0,0,0,0,0,0,-1,1616,540,7.39448,4.95023
399,484,7.14417,-2.5639,0,0,0,0,0,0,0,-1,1623,540,7.14417,2.56391
406,484,7.88953,-2.47321,0,0,0,0,0,0,0,-1,1630,540,7.88954,2.47323
413,484,4.4895,-1.08673,0,0,0,0,0,0,0,-1,1637,540,4.48952,1.08674
420,484,4.50012,-2.11255,0,0,0,0,0,0,0,-1,1644,540,4.50012,2.11256
427,484,5.28601,-3.54053,0,0,0,0,0,0,0,-1,1651,540,5.28599,3.54051
434,484,11.1488,-13.5359,0,0,0,0,0,0,0,-1,1658,540,11.1489,13.5359
441,484,20.8715,-31.6708,0,0,0,0,0,0,0,-1,1665,540,20.8714,31.6708
448,484,20.863,-31.5513,0,0,0,0,0,0,0,-1,1672,540,20.863,31.5513
455,484,20.8708,-30.678,0,0,0,0,0,0,0,-1,1679,540,20.8708,30.678
462,484,20.8668,-29.8202,0.000998586,7.53654e-05,-0.00179262,0.00238807,-0.00131412,-0.659383,0.00216723,0.0291126,1686,540,20.8669,29.8202
469,484,20.8306,-29.0331,0.000812118,0.000439644,-0.00122048,0.00186049,-0.000608731,-0.709686,0.00148541,0.0189042,1693,540,20.8305,29.0331
476,484,20.7626,-28.1907,0.000896715,0.000763724,-0.000627491,0.00146122,0.000199214,-0.73261,0.000915002,0.0174768,1700,540,20.7626,28.1907
483,484,20.7179,-27.3889,0.00100929,0.000989246,-0.000116332,0.00111603,0.000882506,-0.742422,0.000679686,0.0143422,1707,540,20.7179,27.3889
490,484,20.6847,-26.6154,0.00105224,0.00133893,0.000314117,0.00154086,0.000850303,0.999459,0.000891209,0.0134822,1714,540,20.6846,26.6154
497,484,20.6307,-25.7762,0.00112634,0.00174683,0.00080922,0.00230324,0.000569933,0.96845,0.00138517,0.0143579,1721,540,20.6307,25.7762
504,484,20.6036,-24.9117,0.00124101,0.00181576,0.00117878,0.00274169,0.000315075,0.90496,0.00173235,0.0159678,1728,540,20.6036,24.9118
511,484,20.5719,-24.0752,0.0012515,0.00197835,0.00146764,0.00312689,0.000102952,0.906769,0.00205114,0.0191099,1735,540,20.5719,24.0752
518,484,20.5269,-23.2583,0.00108949,0.00221818,0.00164104,0.0033892,-8.15374e-05,0.95101,0.00228713,0.0168738,1742,540,20.5269,23.2583
525,484,20.4652,-22.4124,0.000910471,0.00249617,0.00179596,0.0036665,-0.000259858,0.993264,0.00253539,0.0153373,1749,540,20.4652,22.4124
532,484,20.4086,-21.5009,0.000665464,0.0029626,0.00193918,0.00406784,-0.000439768,1.05277,0.00286973,0.0180011,1756,540,20.4085,21.5009
539,484,20.3282,-20.6037,0.00026113,0.00351316,0.00195967,0.00443356,-0.000659266,1.13171,0.00319819,0.0412144,1763,540,20.3282,20.6037
546,484,20.2925,-19.767,0,0,0,0,0,0,0,-1,1770,540,20.2925,19.767
553,484,12.4246,-8.96423,0,0,0,0,0,0,0,-1,1777,540,12.4246,8.96422
560,484,10.0549,-5.47931,0,0,0,0,0,0,0,-1,1784,540,10.055,5.47928
567,484,7.78223,-1.38312,0,0,0,0,0,0,0,-1,1791,540,7.78224,1.38311
574,484,5.74463,1.50922,0,0,0,0,0,0,0,-1,1798,540,5.74463,-1.50924
581,484,10.34,2.9491,0,0,0,0,0,0,0,-1,1805,540,10.34,-2.94912
588,484,10.6669,2.88568,0,0,0,0,0,0,0,-1,1812,540,10.6669,-2.88567
595,484,10.7233,1.04767,0,0,0,0,0,0,0,-1,1819,540,10.7233,-1.04766
602,484,0,0,0,0,0,0,0,0,0,-1,1826,540,0,0
609,484,0,0,0,0,0,0,0,0,0,-1,1833,540,0,0
616,484,0,0,0,0,0,0,0,0,0,-1,1840,540,0,0
623,484,0,0,0,0,0,0,0,0,0,-1,1847,540,0,0
630,484,0,0,0,0,0,0,0,0,0,-1,1854,540,0,0
637,484,0,0,0,0,0,0,0,0,0,-1,1861,540,0,0
644,484,0,0,0,0,0,0,0,0,0,-1,1868,540,0,0
651,484,0,0,0,0,0,0,0,0,0,-1,1875,540,0,0
658,484,0,0,0,0,0,0,0,0,0,-1,1882,540,0,0
665,484,0,0,0,0,0,0,0,0,0,-1,1889,540,0,0
672,484,0,0,0,0,0,0,0,0,0,-1,1896,540,0,0
679,484,0,0,0,0,0,0,0,0,0,-1,1903,540,0,0
686,484,0,0,0,0,0,0,0,0,0,-1,1910,540,0,0
693,484,0,0,0,0,0,0,0,0,0,-1,1917,540,0,0
700,484,0,0,0,0,0,0,0,0,0,-1,1924,540,0,0
707,484,0,0,0,0,0,0,0,0,0,-1,1931,540,0,0
714,484,0,0,0,0,0,0,0,0,0,-1,1938,540,0,0
721,484,0,0,0,0,0,0,0,0,0,-1,1945,540,0,0
728,484,0,0,0,0,0,0,0,0,0,-1,1952,540,0,0
735,484,0,0,0,0,0,0,0,0,0,-1,1959,540,0,0
742,484,0,0,0,0,0,0,0,0,0,-1,1966,540,0,0
749,484,0,0,0,0,0,0,0,0,0,-1,1973,540,0,0
756,484,0,0,0,0,0,0,0,0,0,-1,1980,540,0,0
763,484,0,0,0,0,0,0,0,0,0,-1,1987,540,0,0
770,484,0,0,0,0,0,0,0,0,0,-1,1994,540,0,0
777,484,0,0,0,0,0,0,0,0,0,-1,2001,540,0,0
784,484,0,0,0,0,0,0,0,0,0,-1,2008,540,0,0
791,484,0,0,0,0,0,0,0,0,0,-1,2015,540,0,0
798,484,0,0,0,0,0,0,0,0,0,-1,2022,540,0,0
805,484,0,0,0,0,0,0,0,0,0,-1,2029,540,0,0
812,484,0,0,0,0,0,0,0,0,0,-1,2036,540,0,0
-700,477,0,0,0,0,0,0,0,0,0,-1,524,547,0,0
-693,477,0,0,0,0,0,0,0,0,0,-1,531,547,0,0
-686,477,0,0,0,0,0,0,0,0,0,-1,538,547,0,0
-679,477,0,0,0,0,0,0,0,0,0,-1,545,547,0,0
-672,477,0,0,0,0,0,0,0,0,0,-1,552,547,0,0
-665,477,0,0,0,0,0,0,0,0,0,-1,559,547,0,0
-658,477,0,0,0,0,0,0,0,0,0,-1,566,547,0,0
-651,477,0,0,0,0,0,0,0,0,0,-1,573,547,0,0
-644,477,0,0,0,0,0,0,0,0,0,-1,580,547,0,0
-637,477,0,0,0,0,0,0,0,0,0,-1,587,547,0,0
-630,477,0,0,0,0,0,0,0,0,0,-1,594,547,0,0
-623,477,0,0,0,0,0,0,0,0,0,-1,601,547,0,0
-616,477,0,0,0,0,0,0,0,0,0,-1,608,547,0,0
-609,477,0,0,0,0,0,0,0,0,0,-1,615,547,0,0
-602,477,0,0,0,0,0,0,0,0,0,-1,622,547,0,0
-595,477,0,0,0,0,0,0,0,0,0,-1,629,547,0,0
-588,477,0,0,0,0,0,0,0,0,0,-1,636,547,0,0
-581,477,0,0,0,0,0,0,0,0,0,-1,643,547,0,0
-574,477,0,0,0,0,0,0,0,0,0,-1,650,547,0,0
-567,477,0,0,0,0,0,0,0,0,0,-1,657,547,0,0
-560,477,0,0,0,0,0,0,0,0,0,-1,664,547,0,0
-553,477,0,0,0,0,0,0,0,0,0,-1,671,547,0,0
-546,477,0,0,0,0,0,0,0,0,0,-1,678,547,0,0
-539,477,0,0,0,0,0,0,0,0,0,-1,685,547,0,0
-532,477,0,0,0,0,0,0,0,0,0,-1,692,547,0,0
-525,477,0,0,0,0,0,0,0,0,0,-1,699,547,0,0
-518,477,0,0,0,0,0,0,0,0,0,-1,706,547,0,0
-511,477,0,0,0,0,0,0,0,0,0,-1,713,547,0,0
-504,477,0,0,0,0,0,0,0,0,0,-1,720,547,0,0
-497,477,0,0,0,0,0,0,0,0,0,-1,727,547,0,0
-490,477,0,0,0,0,0,0,0,0,0,-1,734,547,0,0
-483,477,-7.73151,-0.224182,0,0,0,0,0,0,0,-1,741,547,-7.73152,0.224176
-476,477,-6.25806,-0.310547,0,0,0,0,0,0,0,-1,748,547,-6.25804,0.310549
-469,477,-7.26617,0.525085,0,0,0,0,0,0,0,-1,755,547,-7.2662,-0.525111
-462,477,-6.65143,1.06042,0,0,0,0,0,0,0,-1,762,547,-6.65143,-1.06043
-455,477,-5.31757,0.429016,0,0,0,0,0,0,0,-1,769,547,-5.31756,-0.42902
-448,477,-4.0697,0.273376,0,0,0,0,0,0,0,-1,776,547,-4.06971,-0.273363
-441,477,-2.47504,-4.76971,0,0,0,0,0,0,0,-1,783,547,-2.47505,4.76973
-434,477,-6.28607,-18.9181,0,0,0,0,0,0,0,-1,790,547,-6.28608,18.9181
-427,477,-6.54602,-19.3954,-0.00130812,0.0137209,-0.00404371,0.0147398,-0.00232704,-1.32396,0.010687,0.0472354,797,547,-6.54601,19.3954
-420,477,-6.59137,-20.0976,-0.000889486,0.0115398,-0.00407213,0.0127551,-0.00210478,-1.28077,0.00928488,0.0364118,804,547,-6.59135,20.0976
-413,477,-6.6026,-21.226,-0.00047989,0.00956879,-0.00396346,0.0109439,-0.001855,-1.23684,0.00798641,0.0207388,811,547,-6.60263,21.226
-406,477,-6.71442,-22.187,-0.000167101,0.00773609,-0.003604,0.00913276,-0.00156377,-1.20108,0.00667114,0.0112881,818,547,-6.7144,22.187
-399,477,-6.77582,-22.9966,7.03973e-05,0.00608825,-0.00311355,0.0074092,-0.00125055,-1.16955,0.00540476,0.0193614,825,547,-6.7758,22.9967
-392,477,-6.83105,-23.849,0.000381727,0.00462729,-0.00263798,0.00589053,-0.000881515,-1.1242,0.00425143,0.0184881,832,547,-6.83105,23.849
-385,477,-6.85852,-24.7054,0.000800132,0.00324691,-0.00214162,0.00448994,-0.000442897,-1.0449,0.00315132,0.0150141,839,547,-6.8585,24.7054
-378,477,-6.92365,-25.5239,0.00113563,0.00204257,-0.00157129,0.00322452,-4.63167e-05,-0.925879,0.00216528,0.0141938,846,547,-6.92363,25.5239
-371,477,-6.94287,-26.3221,0.00137959,0.000878763,-0.00100817,0.00216798,9.03751e-05,-0.663669,0.00141616,0.0150285,853,547,-6.94286,26.3221
-364,477,-6.96326,-27.1188,0.00157787,-0.000260085,-0.000348723,0.00164181,-0.000324026,-0.181341,0.00121701,0.0150155,860,547,-6.96324,27.1188
-357,477,-7.0589,-27.9367,0.00177102,-0.00121564,0.000284962,0.00179797,-0.00124258,0.0942783,0.0017652,0.0121496,867,547,-7.05889,27.9367
-350,477,-7.12756,-28.7552,0.00192017,-0.00214362,0.00087943,0.00210232,-0.00232577,0.204234,0.00255765,0.0114874,874,547,-7.12755,28.7552
-343,477,-7.0954,-29.5847,0.00190245,-0.00296376,0.00150372,0.00232962,-0.00339093,0.276784,0.00332165,0.0218559,881,547,-7.09539,29.5847
-336,477,-7.06317,-30.4033,0.00167969,-0.00393188,0.00227195,0.00248419,-0.00473638,0.340325,0.00423586,0.0443172,888,547,-7.06316,30.4033
-329,477,-7.12946,-31.2075,0,0,0,0,0,0,0,-1,895,547,-7.12947,31.2075
-322,477,-5.91638,-27.4468,0,0,0,0,0,0,0,-1,902,547,-5.91639,27.4468
-315,477,-1.67358,-9.15253,0,0,0,0,0,0,0,-1,909,547,-1.67356,9.15253
-308,477,-1.30127,-6.55188,0,0,0,0,0,0,0,-1,916,547,-1.30128,6.55185
-301,477,-1.21185,-6.28351,0,0,0,0,0,0,0,-1,923,547,-1.21184,6.28352
-294,477,-0.352905,3.27142,0,0,0,0,0,0,0,-1,930,547,-0.35292,-3.27144
-287,477,3.54364,2.15399,0,0,0,0,0,0,0,-1,937,547,3.54362,-2.15396
-280,477,1.97308,-0.954163,0,0,0,0,0,0,0,-1,944,547,1.9731,0.954178
-273,477,2.11621,-3.76709,0,0,0,0,0,0,0,-1,951,547,2.11619,3.76706
-266,477,2.04669,-3.42389,0,0,0,0,0,0,0,-1,958,547,2.04671,3.42391
-259,477,-1.33478,-3.41205,0,0,0,0,0,0,0,-1,965,547,-1.3348,3.41206
-252,477,0.597168,-5.32922,0,0,0,0,0,0,0,-1,972,547,0.597144,5.32924
-245,477,8.2309,-8.48492,0,0,0,0,0,0,0,-1,979,547,8.23091,8.48494
-238,477,6.60938,-5.64063,0,0,0,0,0,0,0,-1,986,547,6.60938,5.64063
-231,477,4.71716,-2.52484,0,0,0,0,0,0,0,-1,993,547,4.71716,2.52483
-224,477,0,0,0,0,0,0,0,0,0,-1,1000,547,0,0
-217,477,0,0,0,0,0,0,0,0,0,-1,1007,547,0,0
-210,477,0,0,0,0,0,0,0,0,0,-1,1014,547,0,0
-203,477,0,0,0,0,0,0,0,0,0,-1,1021,547,0,0
-196,477,0,0,0,0,0,0,0,0,0,-1,1028,547,0,0
-189,477,0,0,0,0,0,0,0,0,0,-1,1035,547,0,0
-182,477,0,0,0,0,0,0,0,0,0,-1,1042,547,0,0
-175,477,0,0,0,0,0,0,0,0,0,-1,1049,547,0,0
-168,477,0,0,0,0,0,0,0,0,0,-1,1056,547,0,0
-161,477,0,0,0,0,0,0,0,0,0,-1,1063,547,0,0
-154,477,0,0,0,0,0,0,0,0,0,-1,1070,547,0,0
-147,477,0,0,0,0,0,0,0,0,0,-1,1077,547,0,0
-140,477,0,0,0,0,0,0,0,0,0,-1,1084,547,0,0
-133,477,0,0,0,0,0,0,0,0,0,-1,1091,547,0,0
-126,477,0,0,0,0,0,0,0,0,0,-1,1098,547,0,0
-119,477,0,0,0,0,0,0,0,0,0,-1,1105,547,0,0
-112,477,0,0,0,0,0,0,0,0,0,-1,1112,547,0,0
-105,477,0,0,0,0,0,0,0,0,0,-1,1119,547,0,0
-98,477,0,0,0,0,0,0,0,0,0,-1,1126,547,0,0
-91,477,0,0,0,0,0,0,0,0,0,-1,1133,547,0,0
-84,477,0,0,0,0,0,0,0,0,0,-1,1140,547,0,0
-77,477,0,0,0,0,0,0,0,0,0,-1,1147,547,0,0
-70,477,0,0,0,0,0,0,0,0,0,-1,1154,547,0,0
-63,477,0,0,0,0,0,0,0,0,0,-1,1161,547,0,0
-56,477,0,0,0,0,0,0,0,0,0,-1,1168,547,0,0
-49,477,0,0,0,0,0,0,0,0,0,-1,1175,547,0,0
-42,477,0,0,0,0,0,0,0,0,0,-1,1182,547,0,0
-35,477,0,0,0,0,0,0,0,0,0,-1,1189,547,0,0
-28,477,0,0,0,0,0,0,0,0,0,-1,1196,547,0,0
-21,477,0,0,0,0,0,0,0,0,0,-1,1203,547,0,0
-14,477,0,0,0,0,0,0,0,0,0,-1,1210,547,0,0
-7,477,0,0,0,0,0,0,0,0,0,-1,1217,547,0,0
0,477,0,0,0,0,0,0,0,0,0,-1,1224,547,0,0
7,477,0,0,0,0,0,0,0,0,0,-1,1231,547,0,0
14,477,0,0,0,0,0,0,0,0,0,-1,1238,547,0,0
21,477,0,0,0,0,0,0,0,0,0,-1,1245,547,0,0
28,477,0,0,0,0,0,0,0,0,0,-1,1252,547,0,0
35,477,0,0,0,0,0,0,0,0,0,-1,1259,547,0,0
42,477,0,0,0,0,0,0,0,0,0,-1,1266,547,0,0
49,477,0,0,0,0,0,0,0,0,0,-1,1273,547,0,0
56,477,0,0,0,0,0,0,0,0,0,-1,1280,547,0,0
63,477,0,0,0,0,0,0,0,0,0,-1,1287,547,0,0
70,477,0,0,0,0,0,0,0,0,0,-1,1294,547,0,0
77,477,0,0,0,0,0,0,0,0,0,-1,1301,547,0,0
84,477,0,0,0,0,0,0,0,0,0,-1,1308,547,0,0
91,477,0,0,0,0,0,0,0,0,0,-1,1315,547,0,0
98,477,0,0,0,0,0,0,0,0,0,-1,1322,547,0,0
105,477,0,0,0,0,0,0,0,0,0,-1,1329,547,0,0
112,477,0,0,0,0,0,0,0,0,0,-1,1336,547,0,0
119,477,0,0,0,0,0,0,0,0,0,-1,1343,547,0,0
126,477,0,0,0,0,0,0,0,0,0,-1,1350,547,0,0
133,477,0,0,0,0,0,0,0,0,0,-1,1357,547,0,0
140,477,0,0,0,0,0,0,0,0,0,-1,1364,547,0,0
147,477,0,0,0,0,0,0,0,0,0,-1,1371,547,0,0
154,477,0,0,0,0,0,0,0,0,0,-1,1378,547,0,0
161,477,0,0,0,0,0,0,0,0,0,-1,1385,547,0,0
168,477,0,0,0,0,0,0,0,0,0,-1,1392,547,0,0
175,477,0,0,0,0,0,0,0,0,0,-1,1399,547,0,0
182,477,0,0,0,0,0,0,0,0,0,-1,1406,547,0,0
189,477,0,0,0,0,0,0,0,0,0,-1,1413,547,0,0
196,477,0,0,0,0,0,0,0,0,0,-1,1420,547,0,0
203,477,0,0,0,0,0,0,0,0,0,-1,1427,547,0,0
210,477,0,0,0,0,0,0,0,0,0,-1,1434,547,0,0
217,477,0,0,0,0,0,0,0,0,0,-1,1441,547,0,0
224,477,0,0,0,0,0,0,0,0,0,-1,1448,547,0,0
231,477,0,0,0,0,0,0,0,0,0,-1,1455,547,0,0
238,477,0,0,0,0,0,0,0,0,0,-1,1462,547,0,0
245,477,0,0,0,0,0,0,0,0,0,-1,1469,547,0,0
252,477,0,0,0,0,0,0,0,0,0,-1,1476,547,0,0
259,477,0,0,0,0,0,0,0,0,0,-1,1483,547,0,0
266,477,0,0,0,0,0,0,0,0,0,-1,1490,547,0,0
273,477,0,0,0,0,0,0,0,0,0,-1,1497,547,0,0
280,477,0,0,0,0,0,0,0,0,0,-1,1504,547,0,0
287,477,0,0,0,0,0,0,0,0,0,-1,1511,547,0,0
294,477,0,0,0,0,0,0,0,0,0,-1,1518,547,0,0
301,477,0,0,0,0,0,0,0,0,0,-1,1525,547,0,0
308,477,0,0,0,0,0,0,0,0,0,-1,1532,547,0,0
315,477,0,0,0,0,0,0,0,0,0,-1,1539,547,0,0
322,477,0,0,0,0,0,0,0,0,0,-1,1546,547,0,0
329,477,0,0,0,0,0,0,0,0,0,-1,1553,547,0,0
336,477,0,0,0,0,0,0,0,0,0,-1,1560,547,0,0
343,477,0,0,0,0,0,0,0,0,0,-1,1567,547,0,0
350,477,1.7699,-3.32275,0,0,0,0,0,0,0,-1,1574,547,1.7699,3.32272
357,477,3.073,-4.83313,0,0,0,0,0,0,0,-1,1581,547,3.07303,4.83316
364,477,4.30127,-4.22864,0,0,0,0,0,0,0,-1,1588,547,4.30125,4.22865
371,477,4.57703,0.283264,0,0,0,0,0,0,0,-1,1595,547,4.57706,-0.283262
378,477,8.57947,1.05969,0,0,0,0,0,0,0,-1,1602,547,8.5795,-1.05972
385,477,12.3726,2.02356,0,0,0,0,0,0,0,-1,1609,547,12.3725,-2.02355
392,477,16.4678,2.76843,0,0,0,0,0,0,0,-1,1616,547,16.4678,-2.76845
399,477,8.00037,-2.29523,0,0,0,0,0,0,0,-1,1623,547,8.00031,2.2952
406,477,4.82495,2.7475,0,0,0,0,0,0,0,-1,1630,547,4.825,-2.74752
413,477,4.88171,-0.336426,0,0,0,0,0,0,0,-1,1637,547,4.88169,0.336398
420,477,3.34875,0.102722,0,0,0,0,0,0,0,-1,1644,547,3.34871,-0.1027
427,477,1.66772,-0.373108,0,0,0,0,0,0,0,-1,1651,547,1.66768,0.373104
434,477,3.76978,-2.30798,0,0,0,0,0,0,0,-1,1658,547,3.76974,2.30801
441,477,4.05444,-2.80402,0,0,0,0,0,0,0,-1,1665,547,4.05444,2.804
448,477,10.4247,-11.7421,0,0,0,0,0,0,0,-1,1672,547,10.4247,11.7421
455,477,13.3054,-16.8109,0,0,0,0,0,0,0,-1,1679,547,13.3054,16.8109
462,477,21.6714,-29.9892,0,0,0,0,0,0,0,-1,1686,547,21.6714,29.9892
469,477,21.6885,-29.0065,0,0,0,0,0,0,0,-1,1693,547,21.6884,29.0065
476,477,21.6039,-28.2004,0.00080521,0.000749487,-0.000945223,0.00172298,-0.000168286,-0.770665,0.00120866,0.0283784,1700,547,21.6039,28.2004
483,477,21.5732,-27.363,0.000956589,0.000962343,-0.000370574,0.00133005,0.000588881,-0.78928,0.000769582,0.0145346,1707,547,21.5733,27.3631
490,477,21.5128,-26.5801,0.00100538,0.00128666,8.61875e-05,0.00131096,0.000981069,1.2959,0.000787395,0.0139041,1714,547,21.5128,26.5801
497,477,21.4626,-25.7137,0.00107481,0.00172388,0.000645915,0.00212221,0.000676481,1.0182,0.0012518,0.0139345,1721,547,21.4627,25.7137
504,477,21.4349,-24.8401,0.00114992,0.00171923,0.00101389,0.00248767,0.000381479,0.922251,0.00154704,0.0183604,1728,547,21.4349,24.8402
511,477,21.4117,-24.0262,0.00112926,0.00178888,0.00127707,0.00277804,0.000140099,0.911765,0.00180714,0.0237273,1735,547,21.4118,24.0263
518,477,21.3676,-23.235,0.000948103,0.00193537,0.00143338,0.00295774,-7.42675e-05,0.951229,0.00199704,0.0214425,1742,547,21.3675,23.235
525,477,21.3088,-22.3485,0.000740668,0.00212702,0.00155679,0.00313798,-0.000270293,0.994851,0.00218766,0.0187177,1749,547,21.3088,22.3485
532,477,21.1843,-21.4427,0.000477502,0.00248902,0.0016717,0.00343419,-0.000467667,1.05621,0.00246021,0.0217085,1756,547,21.1844,21.4427
539,477,21.1788,-20.5645,0.000103087,0.00292423,0.00170584,0.00372717,-0.000699847,1.13087,0.00274793,0.0184954,1763,547,21.1788,20.5645
546,477,21.064,-19.7888,-0.000379271,0.00367559,0.00176168,0.00433405,-0.00103773,1.21311,0.00329028,0.0430072,1770,547,21.0639,19.7888
553,477,21.0887,-18.8231,0,0,0,0,0,0,0,-1,1777,547,21.0888,18.8231
560,477,19.4597,-16.1135,0,0,0,0,0,0,0,-1,1784,547,19.4597,16.1135
567,477,13.9529,-8.70972,0,0,0,0,0,0,0,-1,1791,547,13.9529,8.7097
574,477,6.82593,-0.916992,0,0,0,0,0,0,0,-1,1798,547,6.82598,0.916977
581,477,9.29321,-0.557007,0,0,0,0,0,0,0,-1,1805,547,9.29324,0.55703
588,477,9.75195,0.422729,0,0,0,0,0,0,0,-1,1812,547,9.75198,-0.42273
595,477,9.89172,1.21326,0,0,0,0,0,0,0,-1,1819,547,9.89174,-1.21328
602,477,6.5271,-0.964417,0,0,0,0,0,0,0,-1,1826,547,6.52706,0.964427
609,477,0,0,0,0,0,0,0,0,0,-1,1833,547,0,0
616,477,0,0,0,0,0,0,0,0,0,-1,1840,547,0,0
623,477,0,0,0,0,0,0,0,0,0,-1,1847,547,0,0
630,477,0,0,0,0,0,0,0,0,0,-1,1854,547,0,0
637,477,0,0,0,0,0,0,0,0,0,-1,1861,547,0,0
644,477,0,0,0,0,0,0,0,0,0,-1,1868,547,0,0
651,477,0,0,0,0,0,0,0,0,0,-1,1875,547,0,0
658,477,0,0,0,0,0,0,0,0,0,-1,1882,547,0,0
665,477,0,0,0,0,0,0,0,0,0,-1,1889,547,0,0
672,477,0,0,0,0,0,0,0,0,0,-1,1896,547,0,0
679,477,0,0,0,0,0,0,0,0,0,-1,1903,547,0,0
686,477,0,0,0,0,0,0,0,0,0,-1,1910,547,0,0
693,477,0,0,0,0,0,0,0,0,0,-1,1917,547,0,0
700,477,0,0,0,0,0,0,0,0,0,-1,1924,547,0,0
707,477,0,0,0,0,0,0,0,0,0,-1,1931,547,0,0
714,477,0,0,0,0,0,0,0,0,0,-1,1938,547,0,0
721,477,0,0,0,0,0,0,0,0,0,-1,1945,547,0,0
728,477,0,0,0,0,0,0,0,0,0,-1,1952,547,0,0
735,477,0,0,0,0,0,0,0,0,0,-1,1959,547,0,0
742,477,0,0,0,0,0,0,0,0,0,-1,1966,547,0,0
749,477,0,0,0,0,0,0,0,0,0,-1,1973,547,0,0
756,477,0,0,0,0,0,0,0,0,0,-1,1980,547,0,0
763,477,0,0,0,0,0,0,0,0,0,-1,1987,547,0,0
770,477,0,0,0,0,0,0,0,0,0,-1,1994,547,0,0
777,477,0,0,0,0,0,0,0,0,0,-1,2001,547,0,0
784,477,0,0,0,0,0,0,0,0,0,-1,2008,547,0,0
791,477,0,0,0,0,0,0,0,0,0,-1,2015,547,0,0
798,477,0,0,0,0,0,0,0,0,0,-1,2022,547,0,0
805,477,0,0,0,0,0,0,0,0,0,-1,2029,547,0,0
812,477,0,0,0,0,0,0,0,0,0,-1,2036,547,0,0
-700,470,0,0,0,0,0,0,0,0,0,-1,524,554,0,0
-693,470,0,0,0,0,0,0,0,0,0,-1,531,554,0,0
-686,470,0,0,0,0,0,0,0,0,0,-1,538,554,0,0
-679,470,0,0,0,0,0,0,0,0,0,-1,545,554,0,0
-672,470,0,0,0,0,0,0,0,0,0,-1,552,554,0,0
-665,470,0,0,0,0,0,0,0,0,0,-1,559,554,0,0
-658,470,0,0,0,0,0,0,0,0,0,-1,566,554,0,0
-651,470,0,0,0,0,0,0,0,0,0,-1,573,554,0,0
-644,470,0,0,0,0,0,0,0,0,0,-1,580,554,0,0
-637,470,0,0,0,0,0,0,0,0,0,-1,587,554,0,0
-630,470,0,0,0,0,0,0,0,0,0,-1,594,554,0,0
-623,470,0,0,0,0,0,0,0,0,0,-1,601,554,0,0
-616,470,0,0,0,0,0,0,0,0,0,-1,608,554,0,0
-609,470,0,0,0,0,0,0,0,0,0,-1,615,554,0,0
-602,470,0,0,0,0,0,0,0,0,0,-1,622,554,0,0
-595,470,0,0,0,0,0,0,0,0,0,-1,629,554,0,0
-588,470,0,0,0,0,0,0,0,0,0,-1,636,554,0,0
-581,470,0,0,0,0,0,0,0,0,0,-1,643,554,0,0
-574,470,0,0,0,0,0,0,0,0,0,-1,650,554,0,0
-567,470,0,0,0,0,0,0,0,0,0,-1,657,554,0,0
-560,470,0,0,0,0,0,0,0,0,0,-1,664,554,0,0
-553,470,0,0,0,0,0,0,0,0,0,-1,671,554,0,0
-546,470,0,0,0,0,0,0,0,0,0,-1,678,554,0,0
-539,470,0,0,0,0,0,0,0,0,0,-1,685,554,0,0
-532,470,0,0,0,0,0,0,0,0,0,-1,692,554,0,0
-525,470,0,0,0,0,0,0,0,0,0,-1,699,554,0,0
-518,470,0,0,0,0,0,0,0,0,0,-1,706,554,0,0
-511,470,0,0,0,0,0,0,0,0,0,-1,713,554,0,0
-504,470,0,0,0,0,0,0,0,0,0,-1,720,554,0,0
-497,470,0,0,0,0,0,0,0,0,0,-1,727,554,0,0
-490,470,-9.13263,-1.03125,0,0,0,0,0,0,0,-1,734,554,-9.1326,1.03127
-483,470,-7.68677,-1.03955,0,0,0,0,0,0,0,-1,741,554,-7.68678,1.03958
-476,470,-6.17969,-1.03394,0,0,0,0,0,0,0,-1,748,554,-6.17971,1.03395
-469,470,-6.23016,-0.651855,0,0,0,0,0,0,0,-1,755,554,-6.23014,0.651829
-462,470,-4.87915,-1.03705,0,0,0,0,0,0,0,-1,762,554,-4.87914,1.03702
-455,470,-4.14777,-1.37079,0,0,0,0,0,0,0,-1,769,554,-4.14779,1.37078
-448,470,-2.9314,-5.74518,0,0,0,0,0,0,0,-1,776,554,-2.93137,5.74518
-441,470,-6.77209,-16.3221,0,0,0,0,0,0,0,-1,783,554,-6.77212,16.3221
-434,470,-7.39197,-18.6317,0,0,0,0,0,0,0,-1,790,554,-7.39196,18.6317
-427,470,-7.44672,-19.4872,-0.00136927,0.0103971,-0.00285706,0.0110542,-0.00202632,-1.34475,0.0081295,0.0267739,797,554,-7.4467,19.4872
-420,470,-7.43121,-20.3761,-0.000862706,0.00876455,-0.00291456,0.00957815,-0.0016763,-1.29858,0.00701132,0.0171622,804,554,-7.4312,20.3761
-413,470,-7.48608,-21.2743,-0.000443697,0.00722506,-0.0028221,0.00815164,-0.00137028,-1.25356,0.00594407,0.0143363,811,554,-7.4861,21.2743
-406,470,-7.5379,-22.1458,-0.000132412,0.00572377,-0.00250234,0.00664736,-0.001056,-1.21722,0.00482227,0.0121652,818,554,-7.53789,22.1457
-399,470,-7.57709,-22.9778,0.000153181,0.0043878,-0.00210596,0.0052568,-0.000715823,-1.17944,0.00376589,0.0150272,825,554,-7.5771,22.9779
-392,470,-7.61841,-23.8155,0.000506555,0.00318012,-0.00171463,0.00401749,-0.00033082,-1.1165,0.00279513,0.0146991,832,554,-7.61842,23.8155
-385,470,-7.6731,-24.6517,0.000968489,0.00203098,-0.00131603,0.00291895,8.05224e-05,-0.977232,0.00191969,0.0114176,839,554,-7.67311,24.6517
-378,470,-7.71857,-25.4852,0.00136077,0.00100752,-0.000840117,0.00204262,0.000325658,-0.681788,0.00126722,0.0170123,846,554,-7.71859,25.4852
-371,470,-7.75092,-26.295,0.00170569,3.37758e-05,-0.000368015,0.00178311,-4.36453e-05,-0.207351,0.00120355,0.0161746,853,554,-7.75092,26.295
-364,470,-7.78241,-27.0751,0.00203519,-0.000886899,0.000157186,0.00204362,-0.00089533,0.0535861,0.00173944,0.0163904,860,554,-7.78239,27.0751
-357,470,-7.86359,-27.8745,0.00237791,-0.00171082,0.000632348,0.00247347,-0.00180638,0.149989,0.00248096,0.0153254,867,554,-7.86358,27.8745
-350,470,-7.90302,-28.7203,0.00265853,-0.00259011,0.00108036,0.00287221,-0.00280379,0.195265,0.00327712,0.0135685,874,554,-7.90299,28.7203
-343,470,-7.85223,-29.5545,0,0,0,0,0,0,0,-1,881,554,-7.85221,29.5545
-336,470,-7.65649,-30.4368,0,0,0,0,0,0,0,-1,888,554,-7.6565,30.4368
-329,470,-2.78516,-12.3594,0,0,0,0,0,0,0,-1,895,554,-2.78517,12.3594
-322,470,-2.30829,-11.4527,0,0,0,0,0,0,0,-1,902,554,-2.30827,11.4527
-315,470,-1.04797,-8.29529,0,0,0,0,0,0,0,-1,909,554,-1.04797,8.29526
-308,470,-1.39368,-6.68152,0,0,0,0,0,0,0,-1,916,554,-1.39369,6.68149
-301,470,-0.0340576,3.34888,0,0,0,0,0,0,0,-1,923,554,-0.0340496,-3.3489
-294,470,-1.18378,3.22266,0,0,0,0,0,0,0,-1,930,554,-1.18376,-3.22268
-287,470,-2.15454,3.2204,0,0,0,0,0,0,0,-1,937,554,-2.15452,-3.22037
-280,470,-3.00537,3.099,0,0,0,0,0,0,0,-1,944,554,-3.00536,-3.09898
-273,470,-12.3932,3.65009,0,0,0,0,0,0,0,-1,951,554,-12.3932,-3.65011
-266,470,-11.5706,1.16028,0,0,0,0,0,0,0,-1,958,554,-11.5706,-1.16031
-259,470,-7.50415,-2.77167,0,0,0,0,0,0,0,-1,965,554,-7.50413,2.7717
-252,470,-0.371155,-5.87823,0,0,0,0,0,0,0,-1,972,554,-0.37114,5.87821
-245,470,1.33221,-6.81122,0,0,0,0,0,0,0,-1,979,554,1.33223,6.8112
-238,470,0,0,0,0,0,0,0,0,0,-1,986,554,0,0
-231,470,0,0,0,0,0,0,0,0,0,-1,993,554,0,0
-224,470,0,0,0,0,0,0,0,0,0,-1,1000,554,0,0
-217,470,0,0,0,0,0,0,0,0,0,-1,1007,554,0,0
-210,470,0,0,0,0,0,0,0,0,0,-1,1014,554,0,0
-203,470,0,0,0,0,0,0,0,0,0,-1,1021,554,0,0
-196,470,0,0,0,0,0,0,0,0,0,-1,1028,554,0,0
-189,470,0,0,0,0,0,0,0,0,0,-1,1035,554,0,0
-182,470,0,0,0,0,0,0,0,0,0,-1,1042,554,0,0
-175,470,0,0,0,0,0,0,0,0,0,-1,1049,554,0,0
-168,470,0,0,0,0,0,0,0,0,0,-1,1056,554,0,0
-161,470,0,0,0,0,0,0,0,0,0,-1,1063,554,0,0
-154,470,0,0,0,0,0,0,0,0,0,-1,1070,554,0,0
-147,470,0,0,0,0,0,0,0,0,0,-1,1077,554,0,0
-140,470,0,0,0,0,0,0,0,0,0,-1,1084,554,0,0
-133,470,0,0,0,0,0,0,0,0,0,-1,1091,554,0,0
-126,470,0,0,0,0,0,0,0,0,0,-1,1098,554,0,0
-119,470,0,0,0,0,0,0,0,0,0,-1,1105,554,0,0
-112,470,0,0,0,0,0,0,0,0,0,-1,1112,554,0,0
-105,470,0,0,0,0,0,0,0,0,0,-1,1119,554,0,0
-98,470,0,0,0,0,0,0,0,0,0,-1,1126,554,0,0
-91,470,0,0,0,0,0,0,0,0,0,-1,1133,554,0,0
-84,470,0,0,0,0,0,0,0,0,0,-1,1140,554,0,0
-77,470,0,0,0,0,0,0,0,0,0,-1,1147,554,0,0
-70,470,0,0,0,0,0,0,0,0,0,-1,1154,554,0,0
-63,470,0,0,0,0,0,0,0,0,0,-1,1161,554,0,0
-56,470,0,0,0,0,0,0,0,0,0,-1,1168,554,0,0
-49,470,0,0,0,0,0,0,0,0,0,-1,1175,554,0,0
-42,470,0,0,0,0,0,0,0,0,0,-1,1182,554,0,0
-35,470,0,0,0,0,0,0,0,0,0,-1,1189,554,0,0
-28,470,0,0,0,0,0,0,0,0,0,-1,1196,554,0,0
-21,470,0,0,0,0,0,0,0,0,0,-1,1203,554,0,0
-14,470,0,0,0,0,0,0,0,0,0,-1,1210,554,0,0
-7,470,0,0,0,0,0,0,0,0,0,-1,1217,554,0,0
0,470,0,0,0,0,0,0,0,0,0,-1,1224,554,0,0
7,470,0,0,0,0,0,0,0,0,0,-1,1231,554,0,0
14,470,0,0,0,0,0,0,0,0,0,-1,1238,554,0,0
21,470,0,0,0,0,0,0,0,0,0,-1,1245,554,0,0
28,470,0,0,0,0,0,0,0,0,0,-1,1252,554,0,0
35,470,0,0,0,0,0,0,0,0,0,-1,1259,554,0,0
42,470,0,0,0,0,0,0,0,0,0,-1,1266,554,0,0
49,470,0,0,0,0,0,0,0,0,0,-1,1273,554,0,0
56,470,0,0,0,0,0,0,0,0,0,-1,1280,554,0,0
63,470,0,0,0,0,0,0,0,0,0,-1,1287,554,0,0
70,470,0,0,0,0,0,0,0,0,0,-1,1294,554,0,0
77,470,0,0,0,0,0,0,0,0,0,-1,1301,554,0,0
84,470,0,0,0,0,0,0,0,0,0,-1,1308,554,0,0
91,470,0,0,0,0,0,0,0,0,0,-1,1315,554,0,0
98,470,0,0,0,0,0,0,0,0,0,-1,1322,554,0,0
105,470,0,0,0,0,0,0,0,0,0,-1,1329,554,0,0
112,470,0,0,0,0,0,0,0,0,0,-1,1336,554,0,0
119,470,0,0,0,0,0,0,0,0,0,-1,1343,554,0,0
126,470,0,0,0,0,0,0,0,0,0,-1,1350,554,0,0
133,470,0,0,0,0,0,0,0,0,0,-1,1357,554,0,0
140,470,0,0,0,0,0,0,0,0,0,-1,1364,554,0,0
147,470,0,0,0,0,0,0,0,0,0,-1,1371,554,0,0
154,470,0,0,0,0,0,0,0,0,0,-1,1378,554,0,0
161,470,0,0,0,0,0,0,0,0,0,-1,1385,554,0,0
168,470,0,0,0,0,0,0,0,0,0,-1,1392,554,0,0
175,470,0,0,0,0,0,0,0,0,0,-1,1399,554,0,0
182,470,0,0,0,0,0,0,0,0,0,-1,1406,554,0,0
189,470,0,0,0,0,0,0,0,0,0,-1,1413,554,0,0
196,470,0,0,0,0,0,0,0,0,0,-1,1420,554,0,0
203,470,0,0,0,0,0,0,0,0,0,-1,1427,554,0,0
210,470,0,0,0,0,0,0,0,0,0,-1,1434,554,0,0
217,470,0,0,0,0,0,0,0,0,0,-1,1441,554,0,0
224,470,0,0,0,0,0,0,0,0,0,-1,1448,554,0,0
231,470,0,0,0,0,0,0,0,0,0,-1,1455,554,0,0
238,470,0,0,0,0,0,0,0,0,0,-1,1462,554,0,0
245,470,0,0,0,0,0,0,0,0,0,-1,1469,554,0,0
252,470,0,0,0,0,0,0,0,0,0,-1,1476,554,0,0
259,470,0,0,0,0,0,0,0,0,0,-1,1483,554,0,0
266,470,0,0,0,0,0,0,0,0,0,-1,1490,554,0,0
273,470,0,0,0,0,0,0,0,0,0,-1,1497,554,0,0
280,470,0,0,0,0,0,0,0,0,0,-1,1504,554,0,0
287,470,0,0,0,0,0,0,0,0,0,-1,1511,554,0,0
294,470,0,0,0,0,0,0,0,0,0,-1,1518,554,0,0
301,470,0,0,0,0,0,0,0,0,0,-1,1525,554,0,0
308,470,0,0,0,0,0,0,0,0,0,-1,1532,554,0,0
315,470,0,0,0,0,0,0,0,0,0,-1,1539,554,0,0
322,470,0,0,0,0,0,0,0,0,0,-1,1546,554,0,0
329,470,0,0,0,0,0,0,0,0,0,-1,1553,554,0,0
336,470,0,0,0,0,0,0,0,0,0,-1,1560,554,0,0
343,470,0,0,0,0,0,0,0,0,0,-1,1567,554,0,0
350,470,0,0,0,0,0,0,0,0,0,-1,1574,554,0,0
357,470,0,0,0,0,0,0,0,0,0,-1,1581,554,0,0
364,470,1.33423,0.293335,0,0,0,0,0,0,0,-1,1588,554,1.33422,-0.293348
371,470,2.22498,-0.0305176,0,0,0,0,0,0,0,-1,1595,554,2.22494,0.0305046
378,470,6.27051,0.710083,0,0,0,0,0,0,0,-1,1602,554,6.27054,-0.710093
385,470,10.3657,1.47296,0,0,0,0,0,0,0,-1,1609,554,10.3657,-1.47299
392,470,15.3881,3.01935,0,0,0,0,0,0,0,-1,1616,554,15.388,-3.01937
399,470,18.4479,2.93793,0,0,0,0,0,0,0,-1,1623,554,18.4479,-2.93792
406,470,15.1896,1.36676,0,0,0,0,0,0,0,-1,1630,554,15.1896,-1.36679
413,470,6.55383,1.99207,0,0,0,0,0,0,0,-1,1637,554,6.5538,-1.99208
420,470,4.47095,0.845703,0,0,0,0,0,0,0,-1,1644,554,4.47098,-0.845718
427,470,3.51038,1.19684,0,0,0,0,0,0,0,-1,1651,554,3.51039,-1.19684
434,470,3.31775,-1.37427,0,0,0,0,0,0,0,-1,1658,554,3.31781,1.37426
441,470,2.55457,-2.05902,0,0,0,0,0,0,0,-1,1665,554,2.55461,2.05904
448,470,3.27258,-2.64032,0,0,0,0,0,0,0,-1,1672,554,3.27257,2.64029
455,470,10.3658,-9.82233,0,0,0,0,0,0,0,-1,1679,554,10.3659,9.82233
462,470,11.0651,-11.9958,0,0,0,0,0,0,0,-1,1686,554,11.0651,11.9958
469,470,15.4242,-19.0521,0,0,0,0,0,0,0,-1,1693,554,15.4242,19.0521
476,470,22.4052,-28.2695,0,0,0,0,0,0,0,-1,1700,554,22.4051,28.2695
483,470,22.4353,-27.3298,0.0011648,0.00118181,-0.000359112,0.00153252,0.000814092,-0.79724,0.000885374,0.0204604,1707,554,22.4353,27.3297
490,470,22.3607,-26.5119,0.00122501,0.00144009,6.09592e-05,0.00145617,0.00120893,1.31296,0.000899761,0.0138361,1714,554,22.3607,26.5119
497,470,22.3169,-25.6708,0.00127914,0.00187019,0.000638533,0.00227827,0.00087106,1.00213,0.00132744,0.0132025,1721,554,22.3169,25.6708
504,470,22.2897,-24.8202,0.00129681,0.00177618,0.000961197,0.00252713,0.000545866,0.907587,0.00153549,0.0195622,1728,554,22.2897,24.8202
511,470,22.2611,-23.985,0.00124554,0.00173352,0.00117466,0.00268927,0.000289796,0.887797,0.00170448,0.0280596,1735,554,22.2611,23.9851
518,470,22.2162,-23.1813,0.0010588,0.00177526,0.00131421,0.00277919,5.48624e-05,0.918456,0.00183478,0.0276675,1742,554,22.2162,23.1813
525,470,22.1525,-22.3112,0.000824484,0.00188043,0.00141557,0.00286328,-0.000158371,0.963895,0.00196377,0.0171157,1749,554,22.1524,22.3112
532,470,22.0594,-21.39,0.000539716,0.0021505,0.00151504,0.00306092,-0.000370705,1.0297,0.00217474,0.0152209,1756,554,22.0595,21.39
539,470,21.998,-20.5208,0.000189142,0.00249993,0.00156301,0.00328822,-0.000599152,1.10368,0.00241675,0.0172962,1763,554,21.998,20.5208
546,470,21.97,-19.6948,-0.000207547,0.00314858,0.00162785,0.00380842,-0.000867387,1.18569,0.00287207,0.016605,1770,554,21.97,19.6948
553,470,21.9884,-18.8137,-0.000560754,0.0040121,0.00179052,0.00462976,-0.00117841,1.23862,0.00354521,0.0267677,1777,554,21.9884,18.8137
560,470,22.028,-17.6959,0,0,0,0,0,0,0,-1,1784,554,22.028,17.6959
567,470,21.8953,-16.7321,0,0,0,0,0,0,0,-1,1791,554,21.8953,16.7321
574,470,14.2793,-8.07147,0,0,0,0,0,0,0,-1,1798,554,14.2793,8.07147
581,470,8.24646,-4.06317,0,0,0,0,0,0,0,-1,1805,554,8.24648,4.06318
588,470,11.1803,1.74927,0,0,0,0,0,0,0,-1,1812,554,11.1803,-1.74926
595,470,4.72192,3.44116,0,0,0,0,0,0,0,-1,1819,554,4.72191,-3.44116
602,470,14.4307,2.76141,0,0,0,0,0,0,0,-1,1826,554,14.4306,-2.76139
609,470,20.9181,4.41058,0,0,0,0,0,0,0,-1,1833,554,20.9181,-4.4106
616,470,0,0,0,0,0,0,0,0,0,-1,1840,554,0,0
623,470,0,0,0,0,0,0,0,0,0,-1,1847,554,0,0
630,470,0,0,0,0,0,0,0,0,0,-1,1854,554,0,0
637,470,0,0,0,0,0,0,0,0,0,-1,1861,554,0,0
644,470,0,0,0,0,0,0,0,0,0,-1,1868,554,0,0
651,470,0,0,0,0,0,0,0,0,0,-1,1875,554,0,0
658,470,0,0,0,0,0,0,0,0,0,-1,1882,554,0,0
665,470,0,0,0,0,0,0,0,0,0,-1,1889,554,0,0
672,470,0,0,0,0,0,0,0,0,0,-1,1896,554,0,0
679,470,0,0,0,0,0,0,0,0,0,-1,1903,554,0,0
686,470,0,0,0,0,0,0,0,0,0,-1,1910,554,0,0
693,470,0,0,0,0,0,0,0,0,0,-1,1917,554,0,0
700,470,0,0,0,0,0,0,0,0,0,-1,1924,554,0,0
707,470,0,0,0,0,0,0,0,0,0,-1,1931,554,0,0
714,470,0,0,0,0,0,0,0,0,0,-1,1938,554,0,0
721,470,0,0,0,0,0,0,0,0,0,-1,1945,554,0,0
728,470,0,0,0,0,0,0,0,0,0,-1,1952,554,0,0
735,470,0,0,0,0,0,0,0,0,0,-1,1959,554,0,0
742,470,0,0,0,0,0,0,0,0,0,-1,1966,554,0,0
749,470,0,0,0,0,0,0,0,0,0,-1,1973,554,0,0
756,470,0,0,0,0,0,0,0,0,0,-1,1980,554,0,0
763,470,0,0,0,0,0,0,0,0,0,-1,1987,554,0,0
770,470,0,0,0,0,0,0,0,0,0,-1,1994,554,0,0
777,470,0,0,0,0,0,0,0,0,0,-1,2001,554,0,0
784,470,0,0,0,0,0,0,0,0,0,-1,2008,554,0,0
791,470,0,0,0,0,0,0,0,0,0,-1,2015,554,0,0
798,470,0,0,0,0,0,0,0,0,0,-1,2022,554,0,0
805,470,0,0,0,0,0,0,0,0,0,-1,2029,554,0,0
812,470,0,0,0,0,0,0,0,0,0,-1,2036,554,0,0
-700,463,0,0,0,0,0,0,0,0,0,-1,524,561,0,0
-693,463,0,0,0,0,0,0,0,0,0,-1,531,561,0,0
-686,463,0,0,0,0,0,0,0,0,0,-1,538,561,0,0
-679,463,0,0,0,0,0,0,0,0,0,-1,545,561,0,0
-672,463,0,0,0,0,0,0,0,0,0,-1,552,561,0,0
-665,463,0,0,0,0,0,0,0,0,0,-1,559,561,0,0
-658,463,0,0,0,0,0,0,0,0,0,-1,566,561,0,0
-651,463,0,0,0,0,0,0,0,0,0,-1,573,561,0,0
-644,463,0,0,0,0,0,0,0,0,0,-1,580,561,0,0
-637,463,0,0,0,0,0,0,0,0,0,-1,587,561,0,0
-630,463,0,0,0,0,0,0,0,0,0,-1,594,561,0,0
-623,463,0,0,0,0,0,0,0,0,0,-1,601,561,0,0
-616,463,0,0,0,0,0,0,0,0,0,-1,608,561,0,0
-609,463,0,0,0,0,0,0,0,0,0,-1,615,561,0,0
-602,463,0,0,0,0,0,0,0,0,0,-1,622,561,0,0
-595,463,0,0,0,0,0,0,0,0,0,-1,629,561,0,0
-588,463,0,0,0,0,0,0,0,0,0,-1,636,561,0,0
-581,463,0,0,0,0,0,0,0,0,0,-1,643,561,0,0
-574,463,0,0,0,0,0,0,0,0,0,-1,650,561,0,0
-567,463,0,0,0,0,0,0,0,0,0,-1,657,561,0,0
-560,463,0,0,0,0,0,0,0,0,0,-1,664,561,0,0
-553,463,0,0,0,0,0,0,0,0,0,-1,671,561,0,0
-546,463,0,0,0,0,0,0,0,0,0,-1,678,561,0,0
-539,463,0,0,0,0,0,0,0,0,0,-1,685,561,0,0
-532,463,0,0,0,0,0,0,0,0,0,-1,692,561,0,0
-525,463,0,0,0,0,0,0,0,0,0,-1,699,561,0,0
-518,463,0,0,0,0,0,0,0,0,0,-1,706,561,0,0
-511,463,0,0,0,0,0,0,0,0,0,-1,713,561,0,0
-504,463,0,0,0,0,0,0,0,0,0,-1,720,561,0,0
-497,463,-9.81451,-1.67126,0,0,0,0,0,0,0,-1,727,561,-9.81452,1.67127
-490,463,-8.57043,-1.58942,0,0,0,0,0,0,0,-1,734,561,-8.57045,1.58944
-483,463,-7.29224,-1.7226,0,0,0,0,0,0,0,-1,741,561,-7.29226,1.72261
-476,463,-5.77704,-1.7312,0,0,0,0,0,0,0,-1,748,561,-5.77703,1.73121
-469,463,-5.14545,-2.138,0,0,0,0,0,0,0,-1,755,561,-5.14546,2.13799
-462,463,-3.13672,-3.07977,0,0,0,0,0,0,0,-1,762,561,-3.13672,3.07974
-455,463,-2.91406,-5.61798,0,0,0,0,0,0,0,-1,769,561,-2.91406,5.61801
-448,463,-4.00177,-8.54681,0,0,0,0,0,0,0,-1,776,561,-4.00175,8.54683
-441,463,-8.31592,-17.5585,0,0,0,0,0,0,0,-1,783,561,-8.31592,17.5585
-434,463,-8.20276,-18.6602,-0.00180747,0.00904007,-0.00178562,0.00932644,-0.00209384,-1.41177,0.00702044,0.0367357,790,561,-8.20275,18.6602
-427,463,-8.23767,-19.5264,-0.00120719,0.0077532,-0.00195384,0.0081607,-0.0016147,-1.36518,0.00605095,0.0120439,797,561,-8.23768,19.5264
-420,463,-8.25482,-20.3746,-0.000702358,0.00654098,-0.00203917,0.00707559,-0.00123697,-1.31439,0.00517886,0.0108261,804,561,-8.25484,20.3746
-413,463,-8.31787,-21.238,-0.000296419,0.0053392,-0.00197461,0.00596219,-0.000919414,-1.26518,0.00431405,0.0110516,811,561,-8.31788,21.238
-406,463,-8.37091,-22.1008,8.93472e-06,0.00412147,-0.0017055,0.00473672,-0.000606308,-1.22459,0.0033781,0.0110083,818,561,-8.37094,22.1007
-399,463,-8.40173,-22.9318,0.000339784,0.00305559,-0.0014031,0.00365027,-0.000254896,-1.16991,0.00252278,0.0111692,825,561,-8.40171,22.9318
-392,463,-8.45435,-23.7448,0.000745419,0.002083,-0.00110258,0.00270377,0.000124653,-1.05802,0.00176243,0.0114799,832,561,-8.45437,23.7448
-385,463,-8.5213,-24.5999,0.00127097,0.00117339,-0.000814181,0.00203782,0.000406541,-0.75547,0.00124536,0.0122292,839,561,-8.52129,24.5998
-378,463,-8.57111,-25.4312,0.00177126,0.000352757,-0.000460444,0.00190762,0.000216405,-0.287905,0.0012061,0.0136458,846,561,-8.57108,25.4312
-371,463,-8.61279,-26.2609,0.00230291,-0.000380215,-0.000116413,0.00230795,-0.000385257,-0.0432786,0.00168183,0.0138086,853,561,-8.61277,26.2609
-364,463,-8.6344,-27.0394,0.00286984,-0.000989436,0.000218354,0.00288216,-0.00100175,0.0563394,0.00232833,0.0159405,860,561,-8.63438,27.0394
-357,463,-8.71002,-27.8065,0.0034703,-0.00158866,0.000476677,0.00351482,-0.00163318,0.0931321,0.00303766,0.0214271,867,561,-8.71003,27.8065
-350,463,-8.62927,-28.6919,0.00399519,-0.00237743,0.000742291,0.00408051,-0.00246275,0.11444,0.00381605,0.0467647,874,561,-8.62927,28.6919
-343,463,-8.2818,-29.6211,0,0,0,0,0,0,0,-1,881,561,-8.28177,29.6211
-336,463,-2.94928,-12.2127,0,0,0,0,0,0,0,-1,888,561,-2.94925,12.2127
-329,463,-2.64307,-12.7037,0,0,0,0,0,0,0,-1,895,561,-2.64307,12.7038
-322,463,-1.82898,-9.11957,0,0,0,0,0,0,0,-1,902,561,-1.829,9.11957
-315,463,-0.944763,-5.96234,0,0,0,0,0,0,0,-1,909,561,-0.94479,5.96237
-308,463,-1.1535,-3.17889,0,0,0,0,0,0,0,-1,916,561,-1.15352,3.17889
-301,463,-1.50366,-3.15338,0,0,0,0,0,0,0,-1,923,561,-1.50364,3.15341
-294,463,-2.35889,-3.93463,0,0,0,0,0,0,0,-1,930,561,-2.35886,3.93465
-287,463,-2.80322,2.73999,0,0,0,0,0,0,0,-1,937,561,-2.80322,-2.74
-280,463,-12.864,5.25146,0,0,0,0,0,0,0,-1,944,561,-12.864,-5.25149
-273,463,-12.4598,3.39178,0,0,0,0,0,0,0,-1,951,561,-12.4598,-3.3918
-266,463,-8.78101,-3.7356,0,0,0,0,0,0,0,-1,958,561,-8.78098,3.73562
-259,463,-6.23285,-5.68842,0,0,0,0,0,0,0,-1,965,561,-6.23288,5.68843
-252,463,0,0,0,0,0,0,0,0,0,-1,972,561,0,0
-245,463,0,0,0,0,0,0,0,0,0,-1,979,561,0,0
-238,463,0,0,0,0,0,0,0,0,0,-1,986,561,0,0
-231,463,0,0,0,0,0,0,0,0,0,-1,993,561,0,0
-224,463,0,0,0,0,0,0,0,0,0,-1,1000,561,0,0
-217,463,0,0,0,0,0,0,0,0,0,-1,1007,561,0,0
-210,463,0,0,0,0,0,0,0,0,0,-1,1014,561,0,0
-203,463,0,0,0,0,0,0,0,0,0,-1,1021,561,0,0
-196,463,0,0,0,0,0,0,0,0,0,-1,1028,561,0,0
-189,463,0,0,0,0,0,0,0,0,0,-1,1035,561,0,0
-182,463,0,0,0,0,0,0,0,0,0,-1,1042,561,0,0
-175,463,0,0,0,0,0,0,0,0,0,-1,1049,561,0,0
-168,463,0,0,0,0,0,0,0,0,0,-1,1056,561,0,0
-161,463,0,0,0,0,0,0,0,0,0,-1,1063,561,0,0
-154,463,0,0,0,0,0,0,0,0,0,-1,1070,561,0,0
-147,463,0,0,0,0,0,0,0,0,0,-1,1077,561,0,0
-140,463,0,0,0,0,0,0,0,0,0,-1,1084,561,0,0
-133,463,0,0,0,0,0,0,0,0,0,-1,1091,561,0,0
-126,463,0,0,0,0,0,0,0,0,0,-1,1098,561,0,0
-119,463,0,0,0,0,0,0,0,0,0,-1,1105,561,0,0
-112,463,0,0,0,0,0,0,0,0,0,-1,1112,561,0,0
-105,463,0,0,0,0,0,0,0,0,0,-1,1119,561,0,0
-98,463,0,0,0,0,0,0,0,0,0,-1,1126,561,0,0
-91,463,0,0,0,0,0,0,0,0,0,-1,1133,561,0,0
-84,463,0,0,0,0,0,0,0,0,0,-1,1140,561,0,0
-77,463,0,0,0,0,0,0,0,0,0,-1,1147,561,0,0
-70,463,0,0,0,0,0,0,0,0,0,-1,1154,561,0,0
-63,463,0,0,0,0,0,0,0,0,0,-1,1161,561,0,0
-56,463,0,0,0,0,0,0,0,0,0,-1,1168,561,0,0
-49,463,0,0,0,0,0,0,0,0,0,-1,1175,561,0,0
-42,463,0,0,0,0,0,0,0,0,0,-1,1182,561,0,0
-35,463,0,0,0,0,0,0,0,0,0,-1,1189,561,0,0
-28,463,0,0,0,0,0,0,0,0,0,-1,1196,561,0,0
-21,463,0,0,0,0,0,0,0,0,0,-1,1203,561,0,0
-14,463,0,0,0,0,0,0,0,0,0,-1,1210,561,0,0
-7,463,0,0,0,0,0,0,0,0,0,-1,1217,561,0,0
0,463,0,0,0,0,0,0,0,0,0,-1,1224,561,0,0
7,463,0,0,0,0,0,0,0,0,0,-1,1231,561,0,0
14,463,0,0,0,0,0,0,0,0,0,-1,1238,561,0,0
21,463,0,0,0,0,0,0,0,0,0,-1,1245,561,0,0
28,463,0,0,0,0,0,0,0,0,0,-1,1252,561,0,0
35,463,0,0,0,0,0,0,0,0,0,-1,1259,561,0,0
42,463,0,0,0,0,0,0,0,0,0,-1,1266,561,0,0
49,463,0,0,0,0,0,0,0,0,0,-1,1273,561,0,0
56,463,0,0,0,0,0,0,0,0,0,-1,1280,561,0,0
63,463,0,0,0,0,0,0,0,0,0,-1,1287,561,0,0
70,463,0,0,0,0,0,0,0,0,0,-1,1294,561,0,0
77,463,0,0,0,0,0,0,0,0,0,-1,1301,561,0,0
84,463,0,0,0,0,0,0,0,0,0,-1,1308,561,0,0
91,463,0,0,0,0,0,0,0,0,0,-1,1315,561,0,0
98,463,0,0,0,0,0,0,0,0,0,-1,1322,561,0,0
105,463,0,0,0,0,0,0,0,0,0,-1,1329,561,0,0
112,463,0,0,0,0,0,0,0,0,0,-1,1336,561,0,0
119,463,0,0,0,0,0,0,0,0,0,-1,1343,561,0,0
126,463,0,0,0,0,0,0,0,0,0,-1,1350,561,0,0
133,463,0,0,0,0,0,0,0,0,0,-1,1357,561,0,0
140,463,0,0,0,0,0,0,0,0,0,-1,1364,561,0,0
147,463,0,0,0,0,0,0,0,0,0,-1,1371,561,0,0
154,463,0,0,0,0,0,0,0,0,0,-1,1378,561,0,0
161,463,0,0,0,0,0,0,0,0,0,-1,1385,561,0,0
168,463,0,0,0,0,0,0,0,0,0,-1,1392,561,0,0
175,463,0,0,0,0,0,0,0,0,0,-1,1399,561,0,0
182,463,0,0,0,0,0,0,0,0,0,-1,1406,561,0,0
189,463,0,0,0,0,0,0,0,0,0,-1,1413,561,0,0
196,463,0,0,0,0,0,0,0,0,0,-1,1420,561,0,0
203,463,0,0,0,0,0,0,0,0,0,-1,1427,561,0,0
210,463,0,0,0,0,0,0,0,0,0,-1,1434,561,0,0
217,463,0,0,0,0,0,0,0,0,0,-1,1441,561,0,0
224,463,0,0,0,0,0,0,0,0,0,-1,1448,561,0,0
231,463,0,0,0,0,0,0,0,0,0,-1,1455,561,0,0
238,463,0,0,0,0,0,0,0,0,0,-1,1462,561,0,0
245,463,0,0,0,0,0,0,0,0,0,-1,1469,561,0,0
252,463,0,0,0,0,0,0,0,0,0,-1,1476,561,0,0
259,463,0,0,0,0,0,0,0,0,0,-1,1483,561,0,0
266,463,0,0,0,0,0,0,0,0,0,-1,1490,561,0,0
273,463,0,0,0,0,0,0,0,0,0,-1,1497,561,0,0
280,463,0,0,0,0,0,0,0,0,0,-1,1504,561,0,0
287,463,0,0,0,0,0,0,0,0,0,-1,1511,561,0,0
294,463,0,0,0,0,0,0,0,0,0,-1,1518,561,0,0
301,463,0,0,0,0,0,0,0,0,0,-1,1525,561,0,0
308,463,0,0,0,0,0,0,0,0,0,-1,1532,561,0,0
315,463,0,0,0,0,0,0,0,0,0,-1,1539,561,0,0
322,463,0,0,0,0,0,0,0,0,0,-1,1546,561,0,0
329,463,0,0,0,0,0,0,0,0,0,-1,1553,561,0,0
336,463,0,0,0,0,0,0,0,0,0,-1,1560,561,0,0
343,463,0,0,0,0,0,0,0,0,0,-1,1567,561,0,0
350,463,0,0,0,0,0,0,0,0,0,-1,1574,561,0,0
357,463,0,0,0,0,0,0,0,0,0,-1,1581,561,0,0
364,463,0,0,0,0,0,0,0,0,0,-1,1588,561,0,0
371,463,1.75842,0.152588,0,0,0,0,0,0,0,-1,1595,561,1.75844,-0.152558
378,463,4.58813,-0.0444336,0,0,0,0,0,0,0,-1,1602,561,4.58809,0.0444505
385,463,8.88574,1.65057,0,0,0,0,0,0,0,-1,1609,561,8.88575,-1.65055
392,463,14.0912,2.50513,0,0,0,0,0,0,0,-1,1616,561,14.0912,-2.5051
399,463,21.4769,2.7002,0,0,0,0,0,0,0,-1,1623,561,21.477,-2.70017
406,463,26.2987,4.32318,0,0,0,0,0,0,0,-1,1630,561,26.2987,-4.3232
413,463,26.5011,2.65222,0,0,0,0,0,0,0,-1,1637,561,26.5011,-2.65224
420,463,8.849,2.26611,0,0,0,0,0,0,0,-1,1644,561,8.84899,-2.26613
427,463,5.12207,1.69183,0,0,0,0,0,0,0,-1,1651,561,5.12206,-1.69184
434,463,4.59814,1.81995,0,0,0,0,0,0,0,-1,1658,561,4.59812,-1.81994
441,463,1.76392,-5.99225,0,0,0,0,0,0,0,-1,1665,561,1.7639,5.99225
448,463,2.49939,-4.30536,0,0,0,0,0,0,0,-1,1672,561,2.49941,4.30536
455,463,4.40295,-3.02557,0,0,0,0,0,0,0,-1,1679,561,4.40299,3.02558
462,463,5.38293,-4.06445,0,0,0,0,0,0,0,-1,1686,561,5.38289,4.06444
469,463,5.94373,-4.50647,0,0,0,0,0,0,0,-1,1693,561,5.94368,4.50646
476,463,15.2559,-17.3189,0,0,0,0,0,0,0,-1,1700,561,15.2558,17.3189
483,463,23.2632,-27.4109,0,0,0,0,0,0,0,-1,1707,561,23.2632,27.411
490,463,23.228,-26.5483,0.00147705,0.00165078,9.96262e-05,0.00169609,0.00143174,1.14394,0.00105372,0.0327711,1714,561,23.228,26.5483
497,463,23.1357,-25.6239,0.00160326,0.00212118,0.000740521,0.00264671,0.00107772,0.953603,0.00153683,0.0153436,1721,561,23.1358,25.6239
504,463,23.1145,-24.7839,0.00160535,0.00197731,0.00104004,0.00284786,0.00073479,0.873874,0.0017072,0.016281,1728,561,23.1145,24.7839
511,463,23.1035,-23.9328,0.00155729,0.0018285,0.00121394,0.00291439,0.000471407,0.84102,0.00180641,0.023913,1735,561,23.1035,23.9328
518,463,23.0522,-23.1063,0.00139779,0.00176227,0.0013451,0.00293742,0.000222635,0.85273,0.00188845,0.0254006,1742,561,23.0522,23.1063
525,463,22.9735,-22.2709,0.00115414,0.00178753,0.00141523,0.00292106,2.06099e-05,0.895473,0.00194054,0.0200838,1749,561,22.9736,22.2709
532,463,22.9701,-21.3678,0.000862601,0.00197487,0.00147994,0.00299972,-0.000162252,0.965125,0.00205603,0.0180785,1756,561,22.9701,21.3678
539,463,22.8889,-20.4669,0.000533601,0.00224656,0.00151738,0.00313249,-0.000352332,1.04233,0.00221513,0.0210346,1763,561,22.8889,20.4669
546,463,22.8298,-19.6622,0.000184673,0.00278396,0.00156053,0.00351517,-0.000546529,1.13262,0.00254525,0.0167284,1770,561,22.8299,19.6622
553,463,22.8148,-18.7779,-0.00013961,0.00349481,0.00166847,0.00414459,-0.000789389,1.19942,0.00306032,0.0124347,1777,561,22.8148,18.7779
560,463,22.796,-17.7626,-0.00033819,0.00442665,0.00187687,0.00507714,-0.000988681,1.23717,0.00375793,0.0251778,1784,561,22.796,17.7626
567,463,22.5974,-16.9171,-0.000547082,0.00553765,0.00218537,0.00624119,-0.00125063,1.25934,0.00463427,0.039385,1791,561,22.5975,16.9171
574,463,22.6953,-16.0544,0,0,0,0,0,0,0,-1,1798,561,22.6953,16.0544
581,463,9.4939,-3.88245,0,0,0,0,0,0,0,-1,1805,561,9.49392,3.88245
588,463,1.97424,2.16016,0,0,0,0,0,0,0,-1,1812,561,1.97422,-2.16013
595,463,9.98657,2.99854,0,0,0,0,0,0,0,-1,1819,561,9.98662,-2.99856
602,463,17.2202,4.91302,0,0,0,0,0,0,0,-1,1826,561,17.2202,-4.91305
609,463,17.96,4.03131,0,0,0,0,0,0,0,-1,1833,561,17.96,-4.03132
616,463,20.8352,3.15131,0,0,0,0,0,0,0,-1,1840,561,20.8352,-3.1513
623,463,0,0,0,0,0,0,0,0,0,-1,1847,561,0,0
630,463,0,0,0,0,0,0,0,0,0,-1,1854,561,0,0
637,463,0,0,0,0,0,0,0,0,0,-1,1861,561,0,0
644,463,0,0,0,0,0,0,0,0,0,-1,1868,561,0,0
651,463,0,0,0,0,0,0,0,0,0,-1,1875,561,0,0
658,463,0,0,0,0,0,0,0,0,0,-1,1882,561,0,0
665,463,0,0,0,0,0,0,0,0,0,-1,1889,561,0,0
672,463,0,0,0,0,0,0,0,0,0,-1,1896,561,0,0
679,463,0,0,0,0,0,0,0,0,0,-1,1903,561,0,0
686,463,0,0,0,0,0,0,0,0,0,-1,1910,561,0,0
693,463,0,0,0,0,0,0,0,0,0,-1,1917,561,0,0
700,463,0,0,0,0,0,0,0,0,0,-1,1924,561,0,0
707,463,0,0,0,0,0,0,0,0,0,-1,1931,561,0,0
714,463,0,0,0,0,0,0,0,0,0,-1,1938,561,0,0
721,463,0,0,0,0,0,0,0,0,0,-1,1945,561,0,0
728,463,0,0,0,0,0,0,0,0,0,-1,1952,561,0,0
735,463,0,0,0,0,0,0,0,0,0,-1,1959,561,0,0
742,463,0,0,0,0,0,0,0,0,0,-1,1966,561,0,0
749,463,0,0,0,0,0,0,0,0,0,-1,1973,561,0,0
756,463,0,0,0,0,0,0,0,0,0,-1,1980,561,0,0
763,463,0,0,0,0,0,0,0,0,0,-1,1987,561,0,0
770,463,0,0,0,0,0,0,0,0,0,-1,1994,561,0,0
777,463,0,0,0,0,0,0,0,0,0,-1,2001,561,0,0
784,463,0,0,0,0,0,0,0,0,0,-1,2008,561,0,0
791,463,0,0,0,0,0,0,0,0,0,-1,2015,561,0,0
798,463,0,0,0,0,0,0,0,0,0,-1,2022,561,0,0
805,463,0,0,0,0,0,0,0,0,0,-1,2029,561,0,0
812,463,0,0,0,0,0,0,0,0,0,-1,2036,561,0,0
-700,456,0,0,0,0,0,0,0,0,0,-1,524,568,0,0
-693,456,0,0,0,0,0,0,0,0,0,-1,531,568,0,0
-686,456,0,0,0,0,0,0,0,0,0,-1,538,568,0,0
-679,456,0,0,0,0,0,0,0,0,0,-1,545,568,0,0
-672,456,0,0,0,0,0,0,0,0,0,-1,552,568,0,0
-665,456,0,0,0,0,0,0,0,0,0,-1,559,568,0,0
-658,456,0,0,0,0,0,0,0,0,0,-1,566,568,0,0
-651,456,0,0,0,0,0,0,0,0,0,-1,573,568,0,0
-644,456,0,0,0,0,0,0,0,0,0,-1,580,568,0,0
-637,456,0,0,0,0,0,0,0,0,0,-1,587,568,0,0
-630,456,0,0,0,0,0,0,0,0,0,-1,594,568,0,0
-623,456,0,0,0,0,0,0,0,0,0,-1,601,568,0,0
-616,456,0,0,0,0,0,0,0,0,0,-1,608,568,0,0
-609,456,0,0,0,0,0,0,0,0,0,-1,615,568,0,0
-602,456,0,0,0,0,0,0,0,0,0,-1,622,568,0,0
-595,456,0,0,0,0,0,0,0,0,0,-1,629,568,0,0
-588,456,0,0,0,0,0,0,0,0,0,-1,636,568,0,0
-581,456,0,0,0,0,0,0,0,0,0,-1,643,568,0,0
-574,456,0,0,0,0,0,0,0,0,0,-1,650,568,0,0
-567,456,0,0,0,0,0,0,0,0,0,-1,657,568,0,0
-560,456,0,0,0,0,0,0,0,0,0,-1,664,568,0,0
-553,456,0,0,0,0,0,0,0,0,0,-1,671,568,0,0
-546,456,0,0,0,0,0,0,0,0,0,-1,678,568,0,0
-539,456,0,0,0,0,0,0,0,0,0,-1,685,568,0,0
-532,456,0,0,0,0,0,0,0,0,0,-1,692,568,0,0
-525,456,0,0,0,0,0,0,0,0,0,-1,699,568,0,0
-518,456,0,0,0,0,0,0,0,0,0,-1,706,568,0,0
-511,456,0,0,0,0,0,0,0,0,0,-1,713,568,0,0
-504,456,-10.3994,-2.34839,0,0,0,0,0,0,0,-1,720,568,-10.3994,2.3484
-497,456,-9.21375,-2.38068,0,0,0,0,0,0,0,-1,727,568,-9.21372,2.38069
-490,456,-8.09058,-2.31824,0,0,0,0,0,0,0,-1,734,568,-8.09057,2.31821
-483,456,-6.66119,-2.24329,0,0,0,0,0,0,0,-1,741,568,-6.66121,2.24331
-476,456,-5.1499,-2.21185,0,0,0,0,0,0,0,-1,748,568,-5.14992,2.21184
-469,456,-2.81238,-3.51501,0,0,0,0,0,0,0,-1,755,568,-2.81237,3.51501
-462,456,-4.2431,-5.27478,0,0,0,0,0,0,0,-1,762,568,-4.24312,5.27476
-455,456,-5.98364,-8.72119,0,0,0,0,0,0,0,-1,769,568,-5.98364,8.72122
-448,456,-8.57849,-16.2391,0,0,0,0,0,0,0,-1,776,568,-8.57846,16.2392
-441,456,-8.86957,-17.6613,-0.00231683,0.00781518,-0.000949308,0.00790336,-0.00240501,-1.47818,0.00622735,0.0430777,783,568,-8.86955,17.6612
-434,456,-9.04608,-18.6226,-0.00148828,0.00678753,-0.00129951,0.00698679,-0.00168754,-1.41865,0.00531051,0.0222577,790,568,-9.04607,18.6226
-427,456,-9.06311,-19.4747,-0.000855086,0.00578975,-0.00146053,0.0060966,-0.00116194,-1.36371,0.00450198,0.010408,797,568,-9.0631,19.4747
-420,456,-9.08893,-20.3256,-0.000299739,0.00487473,-0.00156705,0.00531229,-0.000737305,-1.2985,0.00381115,0.0103576,804,568,-9.08895,20.3256
-413,456,-9.15503,-21.1884,0.000129929,0.0039349,-0.00152503,0.00447069,-0.000405859,-1.23294,0.00312455,0.0101676,811,568,-9.15502,21.1883
-406,456,-9.23401,-22.0349,0.000456627,0.00295337,-0.00130167,0.00350855,-9.85451e-05,-1.16765,0.00237256,0.0102278,818,568,-9.23399,22.0349
-399,456,-9.26758,-22.855,0.000832426,0.00211816,-0.00107721,0.00272975,0.000220837,-1.05443,0.00175087,0.0115513,825,568,-9.2676,22.855
-392,456,-9.29865,-23.6744,0.00127039,0.00135035,-0.00084646,0.00215777,0.000462968,-0.808995,0.00131172,0.0115947,832,568,-9.29865,23.6744
-385,456,-9.3504,-24.5178,0.00180505,0.000666046,-0.000632346,0.00208654,0.000384551,-0.418821,0.00128221,0.0112297,839,568,-9.35038,24.5178
-378,456,-9.41583,-25.3722,0.00234062,3.03228e-05,-0.000354871,0.0023939,-2.29581e-05,-0.149028,0.00160364,0.0113538,846,568,-9.41581,25.3722
-371,456,-9.46136,-26.1971,0.00297452,-0.000461414,-7.82188e-05,0.0029763,-0.000463194,-0.0227492,0.00215525,0.0118447,853,568,-9.46137,26.1971
-364,456,-9.48694,-26.9777,0.00367549,-0.000731874,0.000124872,0.00367902,-0.000735409,0.0283023,0.00273103,0.0231738,860,568,-9.48695,26.9777
-357,456,-9.43616,-27.8199,0,0,0,0,0,0,0,-1,867,568,-9.43615,27.82
-350,456,-9.31519,-28.8979,0,0,0,0,0,0,0,-1,874,568,-9.31521,28.8979
-343,456,-3.39081,-12.0217,0,0,0,0,0,0,0,-1,881,568,-3.39078,12.0217
-336,456,-3.04517,-12.4623,0,0,0,0,0,0,0,-1,888,568,-3.04519,12.4624
-329,456,-1.06183,-10.7184,0,0,0,0,0,0,0,-1,895,568,-1.06184,10.7184
-322,456,-0.662537,-7.66632,0,0,0,0,0,0,0,-1,902,568,-0.662564,7.66633
-315,456,-0.675476,-3.38397,0,0,0,0,0,0,0,-1,909,568,-0.675473,3.38399
-308,456,-1.1618,-3.15314,0,0,0,0,0,0,0,-1,916,568,-1.16178,3.15314
-301,456,-1.83551,-3.26447,0,0,0,0,0,0,0,-1,923,568,-1.8355,3.26449
-294,456,-2.93414,-3.35449,0,0,0,0,0,0,0,-1,930,568,-2.93413,3.35451
-287,456,-3.7569,-3.53101,0,0,0,0,0,0,0,-1,937,568,-3.75692,3.53101
-280,456,-13.072,4.52856,0,0,0,0,0,0,0,-1,944,568,-13.072,-4.52855
-273,456,-8.26538,-6.66748,0,0,0,0,0,0,0,-1,951,568,-8.26536,6.66745
-266,456,-5.71527,-9.36884,0,0,0,0,0,0,0,-1,958,568,-5.71529,9.36885
-259,456,0,0,0,0,0,0,0,0,0,-1,965,568,0,0
-252,456,0,0,0,0,0,0,0,0,0,-1,972,568,0,0
-245,456,0,0,0,0,0,0,0,0,0,-1,979,568,0,0
-238,456,0,0,0,0,0,0,0,0,0,-1,986,568,0,0
-231,456,0,0,0,0,0,0,0,0,0,-1,993,568,0,0
-224,456,0,0,0,0,0,0,0,0,0,-1,1000,568,0,0
-217,456,0,0,0,0,0,0,0,0,0,-1,1007,568,0,0
-210,456,0,0,0,0,0,0,0,0,0,-1,1014,568,0,0
-203,456,0,0,0,0,0,0,0,0,0,-1,1021,568,0,0
-196,456,0,0,0,0,0,0,0,0,0,-1,1028,568,0,0
-189,456,0,0,0,0,0,0,0,0,0,-1,1035,568,0,0
-182,456,0,0,0,0,0,0,0,0,0,-1,1042,568,0,0
-175,456,0,0,0,0,0,0,0,0,0,-1,1049,568,0,0
-168,456,0,0,0,0,0,0,0,0,0,-1,1056,568,0,0
-161,456,0,0,0,0,0,0,0,0,0,-1,1063,568,0,0
-154,456,0,0,0,0,0,0,0,0,0,-1,1070,568,0,0
-147,456,0,0,0,0,0,0,0,0,0,-1,1077,568,0,0
-140,456,0,0,0,0,0,0,0,0,0,-1,1084,568,0,0
-133,456,0,0,0,0,0,0,0,0,0,-1,1091,568,0,0
-126,456,0,0,0,0,0,0,0,0,0,-1,1098,568,0,0
-119,456,0,0,0,0,0,0,0,0,0,-1,1105,568,0,0
-112,456,0,0,0,0,0,0,0,0,0,-1,1112,568,0,0
-105,456,0,0,0,0,0,0,0,0,0,-1,1119,568,0,0
-98,456,0,0,0,0,0,0,0,0,0,-1,1126,568,0,0
-91,456,0,0,0,0,0,0,0,0,0,-1,1133,568,0,0
-84,456,0,0,0,0,0,0,0,0,0,-1,1140,568,0,0
-77,456,0,0,0,0,0,0,0,0,0,-1,1147,568,0,0
-70,456,0,0,0,0,0,0,0,0,0,-1,1154,568,0,0
-63,456,0,0,0,0,0,0,0,0,0,-1,1161,568,0,0
-56,456,0,0,0,0,0,0,0,0,0,-1,1168,568,0,0
-49,456,0,0,0,0,0,0,0,0,0,-1,1175,568,0,0
-42,456,0,0,0,0,0,0,0,0,0,-1,1182,568,0,0
-35,456,0,0,0,0,0,0,0,0,0,-1,1189,568,0,0
-28,456,0,0,0,0,0,0,0,0,0,-1,1196,568,0,0
-21,456,0,0,0,0,0,0,0,0,0,-1,1203,568,0,0
-14,456,0,0,0,0,0,0,0,0,0,-1,1210,568,0,0
-7,456,0,0,0,0,0,0,0,0,0,-1,1217,568,0,0
0,456,0,0,0,0,0,0,0,0,0,-1,1224,568,0,0
7,456,0,0,0,0,0,0,0,0,0,-1,1231,568,0,0
14,456,0,0,0,0,0,0,0,0,0,-1,1238,568,0,0
21,456,0,0,0,0,0,0,0,0,0,-1,1245,568,0,0
28,456,0,0,0,0,0,0,0,0,0,-1,1252,568,0,0
35,456,0,0,0,0,0,0,0,0,0,-1,1259,568,0,0
42,456,0,0,0,0,0,0,0,0,0,-1,1266,568,0,0
49,456,0,0,0,0,0,0,0,0,0,-1,1273,568,0,0
56,456,0,0,0,0,0,0,0,0,0,-1,1280,568,0,0
63,456,0,0,0,0,0,0,0,0,0,-1,1287,568,0,0
70,456,0,0,0,0,0,0,0,0,0,-1,1294,568,0,0
77,456,0,0,0,0,0,0,0,0,0,-1,1301,568,0,0
84,456,0,0,0,0,0,0,0,0,0,-1,1308,568,0,0
91,456,0,0,0,0,0,0,0,0,0,-1,1315,568,0,0
98,456,0,0,0,0,0,0,0,0,0,-1,1322,568,0,0
105,456,0,0,0,0,0,0,0,0,0,-1,1329,568,0,0
112,456,0,0,0,0,0,0,0,0,0,-1,1336,568,0,0
119,456,0,0,0,0,0,0,0,0,0,-1,1343,568,0,0
126,456,0,0,0,0,0,0,0,0,0,-1,1350,568,0,0
133,456,0,0,0,0,0,0,0,0,0,-1,1357,568,0,0
140,456,0,0,0,0,0,0,0,0,0,-1,1364,568,0,0
147,456,0,0,0,0,0,0,0,0,0,-1,1371,568,0,0
154,456,0,0,0,0,0,0,0,0,0,-1,1378,568,0,0
161,456,0,0,0,0,0,0,0,0,0,-1,1385,568,0,0
168,456,0,0,0,0,0,0,0,0,0,-1,1392,568,0,0
175,456,0,0,0,0,0,0,0,0,0,-1,1399,568,0,0
182,456,0,0,0,0,0,0,0,0,0,-1,1406,568,0,0
189,456,0,0,0,0,0,0,0,0,0,-1,1413,568,0,0
196,456,0,0,0,0,0,0,0,0,0,-1,1420,568,0,0
203,456,0,0,0,0,0,0,0,0,0,-1,1427,568,0,0
210,456,0,0,0,0,0,0,0,0,0,-1,1434,568,0,0
217,456,0,0,0,0,0,0,0,0,0,-1,1441,568,0,0
224,456,0,0,0,0,0,0,0,0,0,-1,1448,568,0,0
231,456,0,0,0,0,0,0,0,0,0,-1,1455,568,0,0
238,456,0,0,0,0,0,0,0,0,0,-1,1462,568,0,0
245,456,0,0,0,0,0,0,0,0,0,-1,1469,568,0,0
252,456,0,0,0,0,0,0,0,0,0,-1,1476,568,0,0
259,456,0,0,0,0,0,0,0,0,0,-1,1483,568,0,0
266,456,0,0,0,0,0,0,0,0,0,-1,1490,568,0,0
273,456,0,0,0,0,0,0,0,0,0,-1,1497,568,0,0
280,456,0,0,0,0,0,0,0,0,0,-1,1504,568,0,0
287,456,0,0,0,0,0,0,0,0,0,-1,1511,568,0,0
294,456,0,0,0,0,0,0,0,0,0,-1,1518,568,0,0
301,456,0,0,0,0,0,0,0,0,0,-1,1525,568,0,0
308,456,0,0,0,0,0,0,0,0,0,-1,1532,568,0,0
315,456,0,0,0,0,0,0,0,0,0,-1,1539,568,0,0
322,456,0,0,0,0,0,0,0,0,0,-1,1546,568,0,0
329,456,0,0,0,0,0,0,0,0,0,-1,1553,568,0,0
336,456,0,0,0,0,0,0,0,0,0,-1,1560,568,0,0
343,456,0,0,0,0,0,0,0,0,0,-1,1567,568,0,0
350,456,0,0,0,0,0,0,0,0,0,-1,1574,568,0,0
357,456,0,0,0,0,0,0,0,0,0,-1,1581,568,0,0
364,456,0,0,0,0,0,0,0,0,0,-1,1588,568,0,0
371,456,0,0,0,0,0,0,0,0,0,-1,1595,568,0,0
378,456,0,0,0,0,0,0,0,0,0,-1,1602,568,0,0
385,456,5.66284,0.660645,0,0,0,0,0,0,0,-1,1609,568,5.66285,-0.660615
392,456,17.5027,4.32971,0,0,0,0,0,0,0,-1,1616,568,17.5026,-4.32971
399,456,24.1917,5.99652,0,0,0,0,0,0,0,-1,1623,568,24.1916,-5.99651
406,456,24.446,4.53003,0,0,0,0,0,0,0,-1,1630,568,24.446,-4.53005
413,456,24.9418,2.90521,0,0,0,0,0,0,0,-1,1637,568,24.9418,-2.90524
420,456,25.3048,1.04712,0,0,0,0,0,0,0,-1,1644,568,25.3048,-1.04713
427,456,6.21375,2.02905,0,0,0,0,0,0,0,-1,1651,568,6.21372,-2.02904
434,456,3.0719,-4.86285,0,0,0,0,0,0,0,-1,1658,568,3.07184,4.86287
441,456,2.90344,-4.70459,0,0,0,0,0,0,0,-1,1665,568,2.90346,4.7046
448,456,3.06995,-4.93689,0,0,0,0,0,0,0,-1,1672,568,3.06991,4.93687
455,456,3.46582,-3.43701,0,0,0,0,0,0,0,-1,1679,568,3.46585,3.43698
462,456,4.68445,-4.45831,0,0,0,0,0,0,0,-1,1686,568,4.68439,4.45833
469,456,4.93201,-2.289,0,0,0,0,0,0,0,-1,1693,568,4.93197,2.28903
476,456,4.8363,-2.79364,0,0,0,0,0,0,0,-1,1700,568,4.83636,2.79363
483,456,12.8522,-13.692,0,0,0,0,0,0,0,-1,1707,568,12.8522,13.6919
490,456,23.9384,-26.8357,0,0,0,0,0,0,0,-1,1714,568,23.9383,26.8357
497,456,23.942,-25.5908,0,0,0,0,0,0,0,-1,1721,568,23.942,25.5908
504,456,23.9115,-24.7618,0.00220335,0.00244545,0.00130293,0.00363294,0.00101587,0.831718,0.00216432,0.015309,1728,568,23.9115,24.7618
511,456,23.9313,-23.8959,0.00206871,0.00208704,0.001373,0.0034509,0.000704845,0.788735,0.00210536,0.0143054,1735,568,23.9313,23.8959
518,456,23.8948,-23.0434,0.00186445,0.00183474,0.00145051,0.00330018,0.000399002,0.780278,0.00207992,0.0176648,1742,568,23.8948,23.0434
525,456,23.8168,-22.2081,0.00154665,0.00173393,0.00145079,0.0030941,0.000186476,0.817624,0.00200347,0.0178597,1749,568,23.8168,22.2081
532,456,23.811,-21.31,0.00120152,0.00180438,0.00145264,0.00298654,1.9361e-05,0.887699,0.0019846,0.0188435,1756,568,23.8111,21.31
539,456,23.7594,-20.3901,0.000868657,0.00197815,0.00145605,0.00298155,-0.00013474,0.967407,0.0020341,0.0264177,1763,568,23.7594,20.3901
546,456,23.6449,-19.5526,0.000558018,0.00238912,0.00146061,0.00319741,-0.000250271,1.06535,0.00221974,0.0293125,1770,568,23.6449,19.5525
553,456,23.5909,-18.6816,0.000261951,0.00297688,0.00152897,0.00366403,-0.000425201,1.14842,0.00259605,0.0162029,1777,568,23.591,18.6816
560,456,23.5769,-17.8434,8.49025e-05,0.00375383,0.00171512,0.00443073,-0.00059199,1.1949,0.00316963,0.0120889,1784,568,23.5769,17.8434
567,456,23.5336,-16.967,3.6528e-05,0.00476165,0.0020664,0.00553783,-0.000739655,1.21148,0.00396152,0.022173,1791,568,23.5336,16.967
574,456,23.5007,-16.1007,0,0,0,0,0,0,0,-1,1798,568,23.5007,16.1007
581,456,16.2228,-9.08563,0,0,0,0,0,0,0,-1,1805,568,16.2228,9.08562
588,456,5.23901,-0.0901489,0,0,0,0,0,0,0,-1,1812,568,5.23906,0.0901656
595,456,6.90063,3.14886,0,0,0,0,0,0,0,-1,1819,568,6.90066,-3.14887
602,456,16.894,4.10938,0,0,0,0,0,0,0,-1,1826,568,16.8941,-4.1094
609,456,14.9966,3.5708,0,0,0,0,0,0,0,-1,1833,568,14.9966,-3.57083
616,456,17.7407,2.6579,0,0,0,0,0,0,0,-1,1840,568,17.7408,-2.6579
623,456,20.6838,1.7121,0,0,0,0,0,0,0,-1,1847,568,20.6838,-1.71208
630,456,0,0,0,0,0,0,0,0,0,-1,1854,568,0,0
637,456,0,0,0,0,0,0,0,0,0,-1,1861,568,0,0
644,456,0,0,0,0,0,0,0,0,0,-1,1868,568,0,0
651,456,0,0,0,0,0,0,0,0,0,-1,1875,568,0,0
658,456,0,0,0,0,0,0,0,0,0,-1,1882,568,0,0
665,456,0,0,0,0,0,0,0,0,0,-1,1889,568,0,0
672,456,0,0,0,0,0,0,0,0,0,-1,1896,568,0,0
679,456,0,0,0,0,0,0,0,0,0,-1,1903,568,0,0
686,456,0,0,0,0,0,0,0,0,0,-1,1910,568,0,0
693,456,0,0,0,0,0,0,0,0,0,-1,1917,568,0,0
700,456,0,0,0,0,0,0,0,0,0,-1,1924,568,0,0
707,456,0,0,0,0,0,0,0,0,0,-1,1931,568,0,0
714,456,0,0,0,0,0,0,0,0,0,-1,1938,568,0,0
721,456,0,0,0,0,0,0,0,0,0,-1,1945,568,0,0
728,456,0,0,0,0,0,0,0,0,0,-1,1952,568,0,0
735,456,0,0,0,0,0,0,0,0,0,-1,1959,568,0,0
742,456,0,0,0,0,0,0,0,0,0,-1,1966,568,0,0
749,456,0,0,0,0,0,0,0,0,0,-1,1973,568,0,0
756,456,0,0,0,0,0,0,0,0,0,-1,1980,568,0,0
763,456,0,0,0,0,0,0,0,0,0,-1,1987,568,0,0
770,456,0,0,0,0,0,0,0,0,0,-1,1994,568,0,0
777,456,0,0,0,0,0,0,0,0,0,-1,2001,568,0,0
784,456,0,0,0,0,0,0,0,0,0,-1,2008,568,0,0
791,456,0,0,0,0,0,0,0,0,0,-1,2015,568,0,0
798,456,0,0,0,0,0,0,0,0,0,-1,2022,568,0,0
805,456,0,0,0,0,0,0,0,0,0,-1,2029,568,0,0
812,456,0,0,0,0,0,0,0,0,0,-1,2036,568,0,0
-700,449,0,0,0,0,0,0,0,0,0,-1,524,575,0,0
-693,449,0,0,0,0,0,0,0,0,0,-1,531,575,0,0
-686,449,0,0,0,0,0,0,0,0,0,-1,538,575,0,0
-679,449,0,0,0,0,0,0,0,0,0,-1,545,575,0,0
-672,449,0,0,0,0,0,0,0,0,0,-1,552,575,0,0
-665,449,0,0,0,0,0,0,0,0,0,-1,559,575,0,0
-658,449,0,0,0,0,0,0,0,0,0,-1,566,575,0,0
-651,449,0,0,0,0,0,0,0,0,0,-1,573,575,0,0
-644,449,0,0,0,0,0,0,0,0,0,-1,580,575,0,0
-637,449,0,0,0,0,0,0,0,0,0,-1,587,575,0,0
-630,449,0,0,0,0,0,0,0,0,0,-1,594,575,0,0
-623,449,0,0,0,0,0,0,0,0,0,-1,601,575,0,0
-616,449,0,0,0,0,0,0,0,0,0,-1,608,575,0,0
-609,449,0,0,0,0,0,0,0,0,0,-1,615,575,0,0
-602,449,0,0,0,0,0,0,0,0,0,-1,622,575,0,0
-595,449,0,0,0,0,0,0,0,0,0,-1,629,575,0,0
-588,449,0,0,0,0,0,0,0,0,0,-1,636,575,0,0
-581,449,0,0,0,0,0,0,0,0,0,-1,643,575,0,0
-574,449,0,0,0,0,0,0,0,0,0,-1,650,575,0,0
-567,449,0,0,0,0,0,0,0,0,0,-1,657,575,0,0
-560,449,0,0,0,0,0,0,0,0,0,-1,664,575,0,0
-553,449,0,0,0,0,0,0,0,0,0,-1,671,575,0,0
-546,449,0,0,0,0,0,0,0,0,0,-1,678,575,0,0
-539,449,0,0,0,0,0,0,0,0,0,-1,685,575,0,0
-532,449,0,0,0,0,0,0,0,0,0,-1,692,575,0,0
-525,449,0,0,0,0,0,0,0,0,0,-1,699,575,0,0
-518,449,0,0,0,0,0,0,0,0,0,-1,706,575,0,0
-511,449,-0.941345,-4.4519,0,0,0,0,0,0,0,-1,713,575,-0.941356,4.45191
-504,449,-14.1078,0.318237,0,0,0,0,0,0,0,-1,720,575,-14.1078,-0.318231
-497,449,-8.61292,-3.09009,0,0,0,0,0,0,0,-1,727,575,-8.61291,3.09011
-490,449,-7.50995,-2.96252,0,0,0,0,0,0,0,-1,734,575,-7.50995,2.96251
-483,449,-5.77789,-2.50061,0,0,0,0,0,0,0,-1,741,575,-5.77792,2.50059
-476,449,-4.1723,-2.07739,0,0,0,0,0,0,0,-1,748,575,-4.17228,2.0774
-469,449,-5.0976,-5.78448,0,0,0,0,0,0,0,-1,755,575,-5.09758,5.78451
-462,449,-6.54181,-9.54535,0,0,0,0,0,0,0,-1,762,575,-6.54178,9.54536
-455,449,-8.67291,-13.2226,0,0,0,0,0,0,0,-1,769,575,-8.67289,13.2226
-448,449,-9.72522,-16.748,0,0,0,0,0,0,0,-1,776,575,-9.7252,16.748
-441,449,-9.7644,-17.8159,-0.00192777,0.0057259,-0.000649751,0.00578067,-0.00198254,-1.4867,0.00465747,0.0246494,783,575,-9.76439,17.8159
-434,449,-9.89099,-18.5938,-0.00113158,0.00496824,-0.000951385,0.00511319,-0.00127652,-1.41961,0.00390449,0.0155699,790,575,-9.89097,18.5938
-427,449,-9.91626,-19.4046,-0.000474086,0.00424821,-0.00112946,0.00450445,-0.000730323,-1.34771,0.00327367,0.014577,797,575,-9.91627,19.4046
-420,449,-9.94086,-20.273,0.000134896,0.00359829,-0.00127806,0.00401885,-0.000285665,-1.2529,0.00277935,0.0143874,804,575,-9.94084,20.273
-413,449,-9.99176,-21.1352,0.000603083,0.0029063,-0.00127612,0.00347361,3.57722e-05,-1.15248,0.00230391,0.0123747,811,575,-9.99176,21.1352
-406,449,-10.0683,-21.9763,0.00096824,0.00216612,-0.00111753,0.0028351,0.000299264,-1.03139,0.00179863,0.0112124,818,575,-10.0683,21.9763
-399,449,-10.1215,-22.807,0.00140047,0.00155903,-0.000983507,0.00246645,0.000493052,-0.825617,0.00150708,0.00987654,825,575,-10.1215,22.807
-392,449,-10.1502,-23.6302,0.00188173,0.000991645,-0.000834315,0.00238228,0.000491096,-0.540384,0.00145243,0.0108006,832,575,-10.1502,23.6302
-385,449,-10.1833,-24.4608,0.00242415,0.00053085,-0.000699482,0.00265454,0.000300461,-0.318181,0.00167853,0.0113242,839,575,-10.1833,24.4607
-378,449,-10.244,-25.2944,0.0030065,6.37093e-05,-0.000503733,0.00309034,-2.0129e-05,-0.164922,0.00206697,0.00996428,846,575,-10.244,25.2944
-371,449,-10.2677,-26.1442,0.00377273,-0.000193909,-0.000289946,0.00379381,-0.000214991,-0.072582,0.00260383,0.0190064,853,575,-10.2677,26.1442
-364,449,-10.2958,-27.0546,0,0,0,0,0,0,0,-1,860,575,-10.2958,27.0546
-357,449,-5.88049,-15.8704,0,0,0,0,0,0,0,-1,867,575,-5.88051,15.8704
-350,449,-2.8764,-9.90204,0,0,0,0,0,0,0,-1,874,575,-2.87638,9.90203
-343,449,-2.98492,-9.2254,0,0,0,0,0,0,0,-1,881,575,-2.98491,9.22541
-336,449,-1.29523,-9.54626,0,0,0,0,0,0,0,-1,888,575,-1.29525,9.54626
-329,449,-0.733398,-7.78937,0,0,0,0,0,0,0,-1,895,575,-0.733398,7.78937
-322,449,-0.628845,-3.16669,0,0,0,0,0,0,0,-1,902,575,-0.628861,3.16667
-315,449,-0.540344,-3.21918,0,0,0,0,0,0,0,-1,909,575,-0.540336,3.21917
-308,449,-1.04413,-2.99341,0,0,0,0,0,0,0,-1,916,575,-1.04415,2.99338
-301,449,-1.58691,-2.80725,0,0,0,0,0,0,0,-1,923,575,-1.58692,2.80728
-294,449,-3.71118,-2.76086,0,0,0,0,0,0,0,-1,930,575,-3.71119,2.76087
-287,449,-4.4082,-2.69525,0,0,0,0,0,0,0,-1,937,575,-4.40822,2.69526
-280,449,0.723999,-14.2697,0,0,0,0,0,0,0,-1,944,575,0.723977,14.2696
-273,449,0,0,0,0,0,0,0,0,0,-1,951,575,0,0
-266,449,0,0,0,0,0,0,0,0,0,-1,958,575,0,0
-259,449,0,0,0,0,0,0,0,0,0,-1,965,575,0,0
-252,449,0,0,0,0,0,0,0,0,0,-1,972,575,0,0
-245,449,0,0,0,0,0,0,0,0,0,-1,979,575,0,0
-238,449,0,0,0,0,0,0,0,0,0,-1,986,575,0,0
-231,449,0,0,0,0,0,0,0,0,0,-1,993,575,0,0
-224,449,0,0,0,0,0,0,0,0,0,-1,1000,575,0,0
-217,449,0,0,0,0,0,0,0,0,0,-1,1007,575,0,0
-210,449,0,0,0,0,0,0,0,0,0,-1,1014,575,0,0
-203,449,0,0,0,0,0,0,0,0,0,-1,1021,575,0,0
-196,449,0,0,0,0,0,0,0,0,0,-1,1028,575,0,0
-189,449,0,0,0,0,0,0,0,0,0,-1,1035,575,0,0
-182,449,0,0,0,0,0,0,0,0,0,-1,1042,575,0,0
-175,449,0,0,0,0,0,0,0,0,0,-1,1049,575,0,0
-168,449,0,0,0,0,0,0,0,0,0,-1,1056,575,0,0
-161,449,0,0,0,0,0,0,0,0,0,-1,1063,575,0,0
-154,449,0,0,0,0,0,0,0,0,0,-1,1070,575,0,0
-147,449,0,0,0,0,0,0,0,0,0,-1,1077,575,0,0
-140,449,0,0,0,0,0,0,0,0,0,-1,1084,575,0,0
-133,449,0,0,0,0,0,0,0,0,0,-1,1091,575,0,0
-126,449,0,0,0,0,0,0,0,0,0,-1,1098,575,0,0
-119,449,0,0,0,0,0,0,0,0,0,-1,1105,575,0,0
-112,449,0,0,0,0,0,0,0,0,0,-1,1112,575,0,0
-105,449,0,0,0,0,0,0,0,0,0,-1,1119,575,0,0
-98,449,0,0,0,0,0,0,0,0,0,-1,1126,575,0,0
-91,449,0,0,0,0,0,0,0,0,0,-1,1133,575,0,0
-84,449,0,0,0,0,0,0,0,0,0,-1,1140,575,0,0
-77,449,0,0,0,0,0,0,0,0,0,-1,1147,575,0,0
-70,449,0,0,0,0,0,0,0,0,0,-1,1154,575,0,0
-63,449,0,0,0,0,0,0,0,0,0,-1,1161,575,0,0
-56,449,0,0,0,0,0,0,0,0,0,-1,1168,575,0,0
-49,449,0,0,0,0,0,0,0,0,0,-1,1175,575,0,0
-42,449,0,0,0,0,0,0,0,0,0,-1,1182,575,0,0
-35,449,0,0,0,0,0,0,0,0,0,-1,1189,575,0,0
-28,449,0,0,0,0,0,0,0,0,0,-1,1196,575,0,0
-21,449,0,0,0,0,0,0,0,0,0,-1,1203,575,0,0
-14,449,0,0,0,0,0,0,0,0,0,-1,1210,575,0,0
-7,449,0,0,0,0,0,0,0,0,0,-1,1217,575,0,0
0,449,0,0,0,0,0,0,0,0,0,-1,1224,575,0,0
7,449,0,0,0,0,0,0,0,0,0,-1,1231,575,0,0
14,449,0,0,0,0,0,0,0,0,0,-1,1238,575,0,0
21,449,0,0,0,0,0,0,0,0,0,-1,1245,575,0,0
28,449,0,0,0,0,0,0,0,0,0,-1,1252,575,0,0
35,449,0,0,0,0,0,0,0,0,0,-1,1259,575,0,0
42,449,0,0,0,0,0,0,0,0,0,-1,1266,575,0,0
49,449,0,0,0,0,0,0,0,0,0,-1,1273,575,0,0
56,449,0,0,0,0,0,0,0,0,0,-1,1280,575,0,0
63,449,0,0,0,0,0,0,0,0,0,-1,1287,575,0,0
70,449,0,0,0,0,0,0,0,0,0,-1,1294,575,0,0
77,449,0,0,0,0,0,0,0,0,0,-1,1301,575,0,0
84,449,0,0,0,0,0,0,0,0,0,-1,1308,575,0,0
91,449,0,0,0,0,0,0,0,0,0,-1,1315,575,0,0
98,449,0,0,0,0,0,0,0,0,0,-1,1322,575,0,0
105,449,0,0,0,0,0,0,0,0,0,-1,1329,575,0,0
112,449,0,0,0,0,0,0,0,0,0,-1,1336,575,0,0
119,449,0,0,0,0,0,0,0,0,0,-1,1343,575,0,0
126,449,0,0,0,0,0,0,0,0,0,-1,1350,575,0,0
133,449,0,0,0,0,0,0,0,0,0,-1,1357,575,0,0
140,449,0,0,0,0,0,0,0,0,0,-1,1364,575,0,0
147,449,0,0,0,0,0,0,0,0,0,-1,1371,575,0,0
154,449,0,0,0,0,0,0,0,0,0,-1,1378,575,0,0
161,449,0,0,0,0,0,0,0,0,0,-1,1385,575,0,0
168,449,0,0,0,0,0,0,0,0,0,-1,1392,575,0,0
175,449,0,0,0,0,0,0,0,0,0,-1,1399,575,0,0
182,449,0,0,0,0,0,0,0,0,0,-1,1406,575,0,0
189,449,0,0,0,0,0,0,0,0,0,-1,1413,575,0,0
196,449,0,0,0,0,0,0,0,0,0,-1,1420,575,0,0
203,449,0,0,0,0,0,0,0,0,0,-1,1427,575,0,0
210,449,0,0,0,0,0,0,0,0,0,-1,1434,575,0,0
217,449,0,0,0,0,0,0,0,0,0,-1,1441,575,0,0
224,449,0,0,0,0,0,0,0,0,0,-1,1448,575,0,0
231,449,0,0,0,0,0,0,0,0,0,-1,1455,575,0,0
238,449,0,0,0,0,0,0,0,0,0,-1,1462,575,0,0
245,449,0,0,0,0,0,0,0,0,0,-1,1469,575,0,0
252,449,0,0,0,0,0,0,0,0,0,-1,1476,575,0,0
259,449,0,0,0,0,0,0,0,0,0,-1,1483,575,0,0
266,449,0,0,0,0,0,0,0,0,0,-1,1490,575,0,0
273,449,0,0,0,0,0,0,0,0,0,-1,1497,575,0,0
280,449,0,0,0,0,0,0,0,0,0,-1,1504,575,0,0
287,449,0,0,0,0,0,0,0,0,0,-1,1511,575,0,0
294,449,0,0,0,0,0,0,0,0,0,-1,1518,575,0,0
301,449,0,0,0,0,0,0,0,0,0,-1,1525,575,0,0
308,449,0,0,0,0,0,0,0,0,0,-1,1532,575,0,0
315,449,0,0,0,0,0,0,0,0,0,-1,1539,575,0,0
322,449,0,0,0,0,0,0,0,0,0,-1,1546,575,0,0
329,449,0,0,0,0,0,0,0,0,0,-1,1553,575,0,0
336,449,0,0,0,0,0,0,0,0,0,-1,1560,575,0,0
343,449,0,0,0,0,0,0,0,0,0,-1,1567,575,0,0
350,449,0,0,0,0,0,0,0,0,0,-1,1574,575,0,0
357,449,0,0,0,0,0,0,0,0,0,-1,1581,575,0,0
364,449,0,0,0,0,0,0,0,0,0,-1,1588,575,0,0
371,449,0,0,0,0,0,0,0,0,0,-1,1595,575,0,0
378,449,0,0,0,0,0,0,0,0,0,-1,1602,575,0,0
385,449,0,0,0,0,0,0,0,0,0,-1,1609,575,0,0
392,449,7.95471,3.66217,0,0,0,0,0,0,0,-1,1616,575,7.95471,-3.66218
399,449,19.9791,5.565,0,0,0,0,0,0,0,-1,1623,575,19.9791,-5.56499
406,449,24.9847,4.55969,0,0,0,0,0,0,0,-1,1630,575,24.9848,-4.55968
413,449,30.4159,3.15027,0,0,0,0,0,0,0,-1,1637,575,30.4159,-3.15028
420,449,23.9675,1.29718,0,0,0,0,0,0,0,-1,1644,575,23.9675,-1.29721
427,449,24.4276,-0.596558,0,0,0,0,0,0,0,-1,1651,575,24.4277,0.596569
434,449,25.61,-2.96594,0,0,0,0,0,0,0,-1,1658,575,25.61,2.96595
441,449,3.89856,-6.06458,0,0,0,0,0,0,0,-1,1665,575,3.89855,6.06459
448,449,4.03198,-5.18207,0,0,0,0,0,0,0,-1,1672,575,4.03197,5.18207
455,449,4.21948,-4.09467,0,0,0,0,0,0,0,-1,1679,575,4.21952,4.09465
462,449,4.23181,-2.96924,0,0,0,0,0,0,0,-1,1686,575,4.23185,2.96926
469,449,4.51672,-2.95135,0,0,0,0,0,0,0,-1,1693,575,4.51672,2.95135
476,449,4.71838,-1.86688,0,0,0,0,0,0,0,-1,1700,575,4.71842,1.86689
483,449,4.87878,-1.73126,0,0,0,0,0,0,0,-1,1707,575,4.87875,1.73128
490,449,5.73279,-2.74573,0,0,0,0,0,0,0,-1,1714,575,5.73282,2.74575
497,449,17.2095,-16.4381,0,0,0,0,0,0,0,-1,1721,575,17.2094,16.4381
504,449,24.7434,-24.7936,0,0,0,0,0,0,0,-1,1728,575,24.7434,24.7936
511,449,24.7543,-23.8635,0.00291648,0.00248357,0.00171719,0.0044308,0.000969242,0.722702,0.00268964,0.0161318,1735,575,24.7543,23.8635
518,449,24.7412,-23.0005,0.00264588,0.00201073,0.00172931,0.00408654,0.000570077,0.694589,0.00255562,0.0142318,1742,575,24.7412,23.0005
525,449,24.6638,-22.1444,0.00222557,0.0017695,0.00163902,0.00365234,0.000342726,0.716277,0.00232907,0.014974,1749,575,24.6638,22.1444
532,449,24.5951,-21.2825,0.00179242,0.00170849,0.00155176,0.00330279,0.00019813,0.77188,0.00213887,0.013178,1756,575,24.5951,21.2825
539,449,24.5361,-20.4287,0.00141062,0.00178292,0.00149331,0.00310163,9.19037e-05,0.847406,0.00203781,0.0179462,1763,575,24.5361,20.4287
546,449,24.4917,-19.5032,0.00107332,0.00205832,0.00142901,0.00307732,5.43294e-05,0.951347,0.00203368,0.0314421,1770,575,24.4917,19.5032
553,449,24.4353,-18.6746,0.000729855,0.00251706,0.00142202,0.00330294,-5.60267e-05,1.06592,0.00222087,0.021397,1777,575,24.4353,18.6746
560,449,24.4423,-17.8365,0.000475732,0.00313466,0.0015246,0.00382803,-0.000217639,1.14397,0.00262758,0.014555,1784,575,24.4422,17.8365
567,449,24.381,-16.9628,0.000389811,0.00401228,0.00179681,0.00475234,-0.00035025,1.1801,0.0032912,0.00997149,1791,575,24.381,16.9628
574,449,24.3484,-16.0457,0.000319554,0.00506175,0.00211375,0.00586714,-0.000485829,1.20676,0.00408301,0.0267063,1798,575,24.3484,16.0457
581,449,24.3793,-14.9423,0,0,0,0,0,0,0,-1,1805,575,24.3793,14.9423
588,449,12.3274,-4.5672,0,0,0,0,0,0,0,-1,1812,575,12.3274,4.5672
595,449,15.9352,-5.65479,0,0,0,0,0,0,0,-1,1819,575,15.9352,5.65478
602,449,9.46167,4.17444,0,0,0,0,0,0,0,-1,1826,575,9.46164,-4.17442
609,449,12.2028,3.18652,0,0,0,0,0,0,0,-1,1833,575,12.2027,-3.18655
616,449,14.9438,2.19867,0,0,0,0,0,0,0,-1,1840,575,14.9438,-2.19867
623,449,9.83789,-0.0820313,0,0,0,0,0,0,0,-1,1847,575,9.83794,0.0820443
630,449,8.90686,4.99329,0,0,0,0,0,0,0,-1,1854,575,8.90685,-4.99327
637,449,0,0,0,0,0,0,0,0,0,-1,1861,575,0,0
644,449,0,0,0,0,0,0,0,0,0,-1,1868,575,0,0
651,449,0,0,0,0,0,0,0,0,0,-1,1875,575,0,0
658,449,0,0,0,0,0,0,0,0,0,-1,1882,575,0,0
665,449,0,0,0,0,0,0,0,0,0,-1,1889,575,0,0
672,449,0,0,0,0,0,0,0,0,0,-1,1896,575,0,0
679,449,0,0,0,0,0,0,0,0,0,-1,1903,575,0,0
686,449,0,0,0,0,0,0,0,0,0,-1,1910,575,0,0
693,449,0,0,0,0,0,0,0,0,0,-1,1917,575,0,0
700,449,0,0,0,0,0,0,0,0,0,-1,1924,575,0,0
707,449,0,0,0,0,0,0,0,0,0,-1,1931,575,0,0
714,449,0,0,0,0,0,0,0,0,0,-1,1938,575,0,0
721,449,0,0,0,0,0,0,0,0,0,-1,1945,575,0,0
728,449,0,0,0,0,0,0,0,0,0,-1,1952,575,0,0
735,449,0,0,0,0,0,0,0,0,0,-1,1959,575,0,0
742,449,0,0,0,0,0,0,0,0,0,-1,1966,575,0,0
749,449,0,0,0,0,0,0,0,0,0,-1,1973,575,0,0
756,449,0,0,0,0,0,0,0,0,0,-1,1980,575,0,0
763,449,0,0,0,0,0,0,0,0,0,-1,1987,575,0,0
770,449,0,0,0,0,0,0,0,0,0,-1,1994,575,0,0
777,449,0,0,0,0,0,0,0,0,0,-1,2001,575,0,0
784,449,0,0,0,0,0,0,0,0,0,-1,2008,575,0,0
791,449,0,0,0,0,0,0,0,0,0,-1,2015,575,0,0
798,449,0,0,0,0,0,0,0,0,0,-1,2022,575,0,0
805,449,0,0,0,0,0,0,0,0,0,-1,2029,575,0,0
812,449,0,0,0,0,0,0,0,0,0,-1,2036,575,0,0
-700,442,0,0,0,0,0,0,0,0,0,-1,524,582,0,0
-693,442,0,0,0,0,0,0,0,0,0,-1,531,582,0,0
-686,442,0,0,0,0,0,0,0,0,0,-1,538,582,0,0
-679,442,0,0,0,0,0,0,0,0,0,-1,545,582,0,0
-672,442,0,0,0,0,0,0,0,0,0,-1,552,582,0,0
-665,442,0,0,0,0,0,0,0,0,0,-1,559,582,0,0
-658,442,0,0,0,0,0,0,0,0,0,-1,566,582,0,0
-651,442,0,0,0,0,0,0,0,0,0,-1,573,582,0,0
-644,442,0,0,0,0,0,0,0,0,0,-1,580,582,0,0
-637,442,0,0,0,0,0,0,0,0,0,-1,587,582,0,0
-630,442,0,0,0,0,0,0,0,0,0,-1,594,582,0,0
-623,442,0,0,0,0,0,0,0,0,0,-1,601,582,0,0
-616,442,0,0,0,0,0,0,0,0,0,-1,608,582,0,0
-609,442,0,0,0,0,0,0,0,0,0,-1,615,582,0,0
-602,442,0,0,0,0,0,0,0,0,0,-1,622,582,0,0
-595,442,0,0,0,0,0,0,0,0,0,-1,629,582,0,0
-588,442,0,0,0,0,0,0,0,0,0,-1,636,582,0,0
-581,442,0,0,0,0,0,0,0,0,0,-1,643,582,0,0
-574,442,0,0,0,0,0,0,0,0,0,-1,650,582,0,0
-567,442,0,0,0,0,0,0,0,0,0,-1,657,582,0,0
-560,442,0,0,0,0,0,0,0,0,0,-1,664,582,0,0
-553,442,0,0,0,0,0,0,0,0,0,-1,671,582,0,0
-546,442,0,0,0,0,0,0,0,0,0,-1,678,582,0,0
-539,442,0,0,0,0,0,0,0,0,0,-1,685,582,0,0
-532,442,0,0,0,0,0,0,0,0,0,-1,692,582,0,0
-525,442,0,0,0,0,0,0,0,0,0,-1,699,582,0,0
-518,442,-0.493774,-5.72943,0,0,0,0,0,0,0,-1,706,582,-0.493791,5.72946
-511,442,-1.33008,-6.18512,0,0,0,0,0,0,0,-1,713,582,-1.33006,6.18511
-504,442,-3.20807,-6.34082,0,0,0,0,0,0,0,-1,720,582,-3.2081,6.34083
-497,442,-13.6886,-0.250122,0,0,0,0,0,0,0,-1,727,582,-13.6886,0.250143
-490,442,-9.09039,-3.64862,0,0,0,0,0,0,0,-1,734,582,-9.09037,3.64861
-483,442,-7.36499,-1.01892,0,0,0,0,0,0,0,-1,741,582,-7.365,1.01895
-476,442,-4.84784,-4.44141,0,0,0,0,0,0,0,-1,748,582,-4.84787,4.44138
-469,442,-10.7383,-13.4285,0,0,0,0,0,0,0,-1,755,582,-10.7383,13.4285
-462,442,-10.2018,-14.6873,0,0,0,0,0,0,0,-1,762,582,-10.2019,14.6873
-455,442,-10.6137,-15.8271,0,0,0,0,0,0,0,-1,769,582,-10.6137,15.8271
-448,442,-10.5775,-16.8337,-0.00238564,0.00465167,-3.79592e-05,0.00465187,-0.00238585,-1.5654,0.00413284,0.0215184,776,582,-10.5774,16.8337
-441,442,-10.6509,-17.7079,-0.00143418,0.00407271,-0.000453622,0.00410983,-0.00147129,-1.48916,0.00334014,0.0147752,783,582,-10.6509,17.7079
-434,442,-10.7195,-18.5508,-0.000676012,0.00351722,-0.000725617,0.00363924,-0.000798026,-1.4042,0.00273131,0.0144558,790,582,-10.7195,18.5508
-427,442,-10.7714,-19.3679,-7.42406e-06,0.00302605,-0.000928564,0.00328772,-0.000269091,-1.29612,0.00228679,0.0141819,797,582,-10.7714,19.3679
-420,442,-10.7986,-20.241,0.000635365,0.0026084,-0.00112237,0.00311619,0.000127581,-1.14593,0.00203626,0.0149168,804,582,-10.7986,20.241
-413,442,-10.8362,-21.0956,0.00113488,0.00215416,-0.00117134,0.00292193,0.000367109,-0.990592,0.00183785,0.0128991,811,582,-10.8363,21.0956
-406,442,-10.9058,-21.9435,0.00154007,0.00167933,-0.00110226,0.00271416,0.000505249,-0.816942,0.00166675,0.0106427,818,582,-10.9058,21.9435
-399,442,-10.9679,-22.7755,0.00202881,0.0013323,-0.00108958,0.00282444,0.000536677,-0.630718,0.00173201,0.00888863,825,582,-10.9679,22.7755
-392,442,-11.0154,-23.5801,0.0025571,0.00101916,-0.00105988,0.00309758,0.000478672,-0.471572,0.00192543,0.0110931,832,582,-11.0154,23.5801
-385,442,-11.052,-24.3981,0.00310315,0.000867471,-0.00105298,0.003521,0.000449624,-0.377765,0.00221274,0.0131867,839,582,-11.052,24.3981
-378,442,-11.071,-25.2698,0.00374095,0.000646945,-0.00100347,0.00403791,0.000349992,-0.287714,0.00258319,0.0192108,846,582,-11.071,25.2698
-371,442,-11.0511,-26.2057,0,0,0,0,0,0,0,-1,853,582,-11.0511,26.2057
-364,442,-6.89764,-17.5333,0,0,0,0,0,0,0,-1,860,582,-6.89765,17.5333
-357,442,-4.9115,-11.2649,0,0,0,0,0,0,0,-1,867,582,-4.91147,11.2649
-350,442,-1.75372,-6.27618,0,0,0,0,0,0,0,-1,874,582,-1.75371,6.27618
-343,442,-1.4599,-4.63605,0,0,0,0,0,0,0,-1,881,582,-1.4599,4.63607
-336,442,-1.4054,-2.64313,0,0,0,0,0,0,0,-1,888,582,-1.40539,2.64315
-329,442,-0.952576,-2.76923,0,0,0,0,0,0,0,-1,895,582,-0.952571,2.7692
-322,442,-0.972534,-2.63208,0,0,0,0,0,0,0,-1,902,582,-0.972512,2.6321
-315,442,-0.445557,-2.89764,0,0,0,0,0,0,0,-1,909,582,-0.445582,2.89765
-308,442,-0.654175,-3.07831,0,0,0,0,0,0,0,-1,916,582,-0.654145,3.07832
-301,442,-1.37427,-2.41455,0,0,0,0,0,0,0,-1,923,582,-1.37425,2.41453
-294,442,-2.99963,-2.07855,0,0,0,0,0,0,0,-1,930,582,-2.99964,2.07857
-287,442,3.91034,-10.1913,0,0,0,0,0,0,0,-1,937,582,3.91034,10.1913
-280,442,0,0,0,0,0,0,0,0,0,-1,944,582,0,0
-273,442,0,0,0,0,0,0,0,0,0,-1,951,582,0,0
-266,442,0,0,0,0,0,0,0,0,0,-1,958,582,0,0
-259,442,0,0,0,0,0,0,0,0,0,-1,965,582,0,0
-252,442,0,0,0,0,0,0,0,0,0,-1,972,582,0,0
-245,442,0,0,0,0,0,0,0,0,0,-1,979,582,0,0
-238,442,0,0,0,0,0,0,0,0,0,-1,986,582,0,0
-231,442,0,0,0,0,0,0,0,0,0,-1,993,582,0,0
-224,442,0,0,0,0,0,0,0,0,0,-1,1000,582,0,0
-217,442,0,0,0,0,0,0,0,0,0,-1,1007,582,0,0
-210,442,0,0,0,0,0,0,0,0,0,-1,1014,582,0,0
-203,442,0,0,0,0,0,0,0,0,0,-1,1021,582,0,0
-196,442,0,0,0,0,0,0,0,0,0,-1,1028,582,0,0
-189,442,0,0,0,0,0,0,0,0,0,-1,1035,582,0,0
-182,442,0,0,0,0,0,0,0,0,0,-1,1042,582,0,0
-175,442,0,0,0,0,0,0,0,0,0,-1,1049,582,0,0
-168,442,0,0,0,0,0,0,0,0,0,-1,1056,582,0,0
-161,442,0,0,0,0,0,0,0,0,0,-1,1063,582,0,0
-154,442,0,0,0,0,0,0,0,0,0,-1,1070,582,0,0
-147,442,0,0,0,0,0,0,0,0,0,-1,1077,582,0,0
-140,442,0,0,0,0,0,0,0,0,0,-1,1084,582,0,0
-133,442,0,0,0,0,0,0,0,0,0,-1,1091,582,0,0
-126,442,0,0,0,0,0,0,0,0,0,-1,1098,582,0,0
-119,442,0,0,0,0,0,0,0,0,0,-1,1105,582,0,0
-112,442,0,0,0,0,0,0,0,0,0,-1,1112,582,0,0
-105,442,0,0,0,0,0,0,0,0,0,-1,1119,582,0,0
-98,442,0,0,0,0,0,0,0,0,0,-1,1126,582,0,0
-91,442,0,0,0,0,0,0,0,0,0,-1,1133,582,0,0
-84,442,0,0,0,0,0,0,0,0,0,-1,1140,582,0,0
-77,442,0,0,0,0,0,0,0,0,0,-1,1147,582,0,0
-70,442,0,0,0,0,0,0,0,0,0,-1,1154,582,0,0
-63,442,0,0,0,0,0,0,0,0,0,-1,1161,582,0,0
-56,442,0,0,0,0,0,0,0,0,0,-1,1168,582,0,0
-49,442,0,0,0,0,0,0,0,0,0,-1,1175,582,0,0
-42,442,0,0,0,0,0,0,0,0,0,-1,1182,582,0,0
-35,442,0,0,0,0,0,0,0,0,0,-1,1189,582,0,0
-28,442,0,0,0,0,0,0,0,0,0,-1,1196,582,0,0
-21,442,0,0,0,0,0,0,0,0,0,-1,1203,582,0,0
-14,442,0,0,0,0,0,0,0,0,0,-1,1210,582,0,0
-7,442,0,0,0,0,0,0,0,0,0,-1,1217,582,0,0
0,442,0,0,0,0,0,0,0,0,0,-1,1224,582,0,0
7,442,0,0,0,0,0,0,0,0,0,-1,1231,582,0,0
14,442,0,0,0,0,0,0,0,0,0,-1,1238,582,0,0
21,442,0,0,0,0,0,0,0,0,0,-1,1245,582,0,0
28,442,0,0,0,0,0,0,0,0,0,-1,1252,582,0,0
35,442,0,0,0,0,0,0,0,0,0,-1,1259,582,0,0
42,442,0,0,0,0,0,0,0,0,0,-1,1266,582,0,0
49,442,0,0,0,0,0,0,0,0,0,-1,1273,582,0,0
56,442,0,0,0,0,0,0,0,0,0,-1,1280,582,0,0
63,442,0,0,0,0,0,0,0,0,0,-1,1287,582,0,0
70,442,0,0,0,0,0,0,0,0,0,-1,1294,582,0,0
77,442,0,0,0,0,0,0,0,0,0,-1,1301,582,0,0
84,442,0,0,0,0,0,0,0,0,0,-1,1308,582,0,0
91,442,0,0,0,0,0,0,0,0,0,-1,1315,582,0,0
98,442,0,0,0,0,0,0,0,0,0,-1,1322,582,0,0
105,442,0,0,0,0,0,0,0,0,0,-1,1329,582,0,0
112,442,0,0,0,0,0,0,0,0,0,-1,1336,582,0,0
119,442,0,0,0,0,0,0,0,0,0,-1,1343,582,0,0
126,442,0,0,0,0,0,0,0,0,0,-1,1350,582,0,0
133,442,0,0,0,0,0,0,0,0,0,-1,1357,582,0,0
140,442,0,0,0,0,0,0,0,0,0,-1,1364,582,0,0
147,442,0,0,0,0,0,0,0,0,0,-1,1371,582,0,0
154,442,0,0,0,0,0,0,0,0,0,-1,1378,582,0,0
161,442,0,0,0,0,0,0,0,0,0,-1,1385,582,0,0
168,442,0,0,0,0,0,0,0,0,0,-1,1392,582,0,0
175,442,0,0,0,0,0,0,0,0,0,-1,1399,582,0,0
182,442,0,0,0,0,0,0,0,0,0,-1,1406,582,0,0
189,442,0,0,0,0,0,0,0,0,0,-1,1413,582,0,0
196,442,0,0,0,0,0,0,0,0,0,-1,1420,582,0,0
203,442,0,0,0,0,0,0,0,0,0,-1,1427,582,0,0
210,442,0,0,0,0,0,0,0,0,0,-1,1434,582,0,0
217,442,0,0,0,0,0,0,0,0,0,-1,1441,582,0,0
224,442,0,0,0,0,0,0,0,0,0,-1,1448,582,0,0
231,442,0,0,0,0,0,0,0,0,0,-1,1455,582,0,0
238,442,0,0,0,0,0,0,0,0,0,-1,1462,582,0,0
245,442,0,0,0,0,0,0,0,0,0,-1,1469,582,0,0
252,442,0,0,0,0,0,0,0,0,0,-1,1476,582,0,0
259,442,0,0,0,0,0,0,0,0,0,-1,1483,582,0,0
266,442,0,0,0,0,0,0,0,0,0,-1,1490,582,0,0
273,442,0,0,0,0,0,0,0,0,0,-1,1497,582,0,0
280,442,0,0,0,0,0,0,0,0,0,-1,1504,582,0,0
287,442,0,0,0,0,0,0,0,0,0,-1,1511,582,0,0
294,442,0,0,0,0,0,0,0,0,0,-1,1518,582,0,0
301,442,0,0,0,0,0,0,0,0,0,-1,1525,582,0,0
308,442,0,0,0,0,0,0,0,0,0,-1,1532,582,0,0
315,442,0,0,0,0,0,0,0,0,0,-1,1539,582,0,0
322,442,0,0,0,0,0,0,0,0,0,-1,1546,582,0,0
329,442,0,0,0,0,0,0,0,0,0,-1,1553,582,0,0
336,442,0,0,0,0,0,0,0,0,0,-1,1560,582,0,0
343,442,0,0,0,0,0,0,0,0,0,-1,1567,582,0,0
350,442,0,0,0,0,0,0,0,0,0,-1,1574,582,0,0
357,442,0,0,0,0,0,0,0,0,0,-1,1581,582,0,0
364,442,0,0,0,0,0,0,0,0,0,-1,1588,582,0,0
371,442,0,0,0,0,0,0,0,0,0,-1,1595,582,0,0
378,442,0,0,0,0,0,0,0,0,0,-1,1602,582,0,0
385,442,0,0,0,0,0,0,0,0,0,-1,1609,582,0,0
392,442,0,0,0,0,0,0,0,0,0,-1,1616,582,0,0
399,442,0,0,0,0,0,0,0,0,0,-1,1623,582,0,0
406,442,17.6321,4.08295,0,0,0,0,0,0,0,-1,1630,582,17.6321,-4.08293
413,442,25.4768,2.74445,0,0,0,0,0,0,0,-1,1637,582,25.4768,-2.74444
420,442,22.7478,1.55011,0,0,0,0,0,0,0,-1,1644,582,22.7478,-1.55009
427,442,23.2969,-0.456787,0,0,0,0,0,0,0,-1,1651,582,23.2968,0.456769
434,442,23.9512,-2.49365,0,0,0,0,0,0,0,-1,1658,582,23.9512,2.49366
441,442,24.8251,-4.43958,0,0,0,0,0,0,0,-1,1665,582,24.8251,4.43956
448,442,4.7749,-5.88562,0,0,0,0,0,0,0,-1,1672,582,4.7749,5.8856
455,442,4.87024,-4.60687,0,0,0,0,0,0,0,-1,1679,582,4.87019,4.60686
462,442,5.02307,-3.72821,0,0,0,0,0,0,0,-1,1686,582,5.02311,3.7282
469,442,5.12976,-2.98834,0,0,0,0,0,0,0,-1,1693,582,5.12971,2.98834
476,442,5.4624,1.76947,0,0,0,0,0,0,0,-1,1700,582,5.46234,-1.76944
483,442,5.98486,1.87042,0,0,0,0,0,0,0,-1,1707,582,5.98492,-1.87045
490,442,5.04407,-2.35834,0,0,0,0,0,0,0,-1,1714,582,5.04411,2.35837
497,442,6.20984,-3.07831,0,0,0,0,0,0,0,-1,1721,582,6.2098,3.07833
504,442,20.9276,-19.7709,0,0,0,0,0,0,0,-1,1728,582,20.9276,19.771
511,442,25.5674,-23.84,0,0,0,0,0,0,0,-1,1735,582,25.5674,23.84
518,442,25.5724,-22.9287,0.00343622,0.00233113,0.00214642,0.00510007,0.00066728,0.659421,0.00320089,0.0161902,1742,582,25.5723,22.9287
525,442,25.5068,-22.0877,0.00296264,0.00191069,0.00192907,0.00443615,0.000437173,0.652304,0.00282302,0.0117889,1749,582,25.5068,22.0877
532,442,25.4575,-21.2321,0.0024734,0.0016882,0.00172513,0.00385004,0.000311558,0.673515,0.0024694,0.0129907,1756,582,25.4575,21.2321
539,442,25.4252,-20.3643,0.00206103,0.00165942,0.00158765,0.00346053,0.000259928,0.722492,0.00222544,0.0152994,1763,582,25.4252,20.3643
546,442,25.4193,-19.4892,0.00170387,0.00179194,0.00145015,0.00319872,0.000297084,0.800576,0.00204068,0.0209719,1770,582,25.4193,19.4892
553,442,25.3134,-18.6289,0.00132636,0.00211224,0.00137041,0.00314493,0.000293666,0.925018,0.00200591,0.0224193,1777,582,25.3134,18.6289
560,442,25.285,-17.7561,0.00101608,0.00257092,0.00138961,0.00338579,0.000201204,1.04043,0.0021932,0.0160164,1784,582,25.285,17.7561
567,442,25.2358,-16.9291,0.000894755,0.00328846,0.00158739,0.00407964,0.000103575,1.10842,0.0026859,0.0106666,1791,582,25.2359,16.9291
574,442,25.1962,-16.0606,0.000826329,0.00416161,0.00185971,0.00499188,-3.93507e-06,1.1509,0.00332923,0.0132394,1798,582,25.1961,16.0606
581,442,25.2137,-15.0682,0.000925946,0.0053074,0.00236097,0.00633746,-0.000104114,1.1594,0.0042601,0.0297356,1805,582,25.2138,15.0683
588,442,25.3159,-14.0559,0,0,0,0,0,0,0,-1,1812,582,25.316,14.0559
595,442,16.27,-6.47083,0,0,0,0,0,0,0,-1,1819,582,16.27,6.47082
602,442,16.2213,-4.49225,0,0,0,0,0,0,0,-1,1826,582,16.2213,4.49223
609,442,12.761,2.97223,0,0,0,0,0,0,0,-1,1833,582,12.761,-2.97221
616,442,9.78345,-0.103394,0,0,0,0,0,0,0,-1,1840,582,9.78341,0.103424
623,442,9.23828,0.326721,0,0,0,0,0,0,0,-1,1847,582,9.23829,-0.326727
630,442,7.74304,2.3924,0,0,0,0,0,0,0,-1,1854,582,7.7431,-2.39238
637,442,5.87805,1.84027,0,0,0,0,0,0,0,-1,1861,582,5.87807,-1.84025
644,442,0,0,0,0,0,0,0,0,0,-1,1868,582,0,0
651,442,0,0,0,0,0,0,0,0,0,-1,1875,582,0,0
658,442,0,0,0,0,0,0,0,0,0,-1,1882,582,0,0
665,442,0,0,0,0,0,0,0,0,0,-1,1889,582,0,0
672,442,0,0,0,0,0,0,0,0,0,-1,1896,582,0,0
679,442,0,0,0,0,0,0,0,0,0,-1,1903,582,0,0
686,442,0,0,0,0,0,0,0,0,0,-1,1910,582,0,0
693,442,0,0,0,0,0,0,0,0,0,-1,1917,582,0,0
700,442,0,0,0,0,0,0,0,0,0,-1,1924,582,0,0
707,442,0,0,0,0,0,0,0,0,0,-1,1931,582,0,0
714,442,0,0,0,0,0,0,0,0,0,-1,1938,582,0,0
721,442,0,0,0,0,0,0,0,0,0,-1,1945,582,0,0
728,442,0,0,0,0,0,0,0,0,0,-1,1952,582,0,0
735,442,0,0,0,0,0,0,0,0,0,-1,1959,582,0,0
742,442,0,0,0,0,0,0,0,0,0,-1,1966,582,0,0
749,442,0,0,0,0,0,0,0,0,0,-1,1973,582,0,0
756,442,0,0,0,0,0,0,0,0,0,-1,1980,582,0,0
763,442,0,0,0,0,0,0,0,0,0,-1,1987,582,0,0
770,442,0,0,0,0,0,0,0,0,0,-1,1994,582,0,0
777,442,0,0,0,0,0,0,0,0,0,-1,2001,582,0,0
784,442,0,0,0,0,0,0,0,0,0,-1,2008,582,0,0
791,442,0,0,0,0,0,0,0,0,0,-1,2015,582,0,0
798,442,0,0,0,0,0,0,0,0,0,-1,2022,582,0,0
805,442,0,0,0,0,0,0,0,0,0,-1,2029,582,0,0
812,442,0,0,0,0,0,0,0,0,0,-1,2036,582,0,0
-700,435,0,0,0,0,0,0,0,0,0,-1,524,589,0,0
-693,435,0,0,0,0,0,0,0,0,0,-1,531,589,0,0
-686,435,0,0,0,0,0,0,0,0,0,-1,538,589,0,0
-679,435,0,0,0,0,0,0,0,0,0,-1,545,589,0,0
-672,435,0,0,0,0,0,0,0,0,0,-1,552,589,0,0
-665,435,0,0,0,0,0,0,0,0,0,-1,559,589,0,0
-658,435,0,0,0,0,0,0,0,0,0,-1,566,589,0,0
-651,435,0,0,0,0,0,0,0,0,0,-1,573,589,0,0
-644,435,0,0,0,0,0,0,0,0,0,-1,580,589,0,0
-637,435,0,0,0,0,0,0,0,0,0,-1,587,589,0,0
-630,435,0,0,0,0,0,0,0,0,0,-1,594,589,0,0
-623,435,0,0,0,0,0,0,0,0,0,-1,601,589,0,0
-616,435,0,0,0,0,0,0,0,0,0,-1,608,589,0,0
-609,435,0,0,0,0,0,0,0,0,0,-1,615,589,0,0
-602,435,0,0,0,0,0,0,0,0,0,-1,622,589,0,0
-595,435,0,0,0,0,0,0,0,0,0,-1,629,589,0,0
-588,435,0,0,0,0,0,0,0,0,0,-1,636,589,0,0
-581,435,0,0,0,0,0,0,0,0,0,-1,643,589,0,0
-574,435,0,0,0,0,0,0,0,0,0,-1,650,589,0,0
-567,435,0,0,0,0,0,0,0,0,0,-1,657,589,0,0
-560,435,0,0,0,0,0,0,0,0,0,-1,664,589,0,0
-553,435,0,0,0,0,0,0,0,0,0,-1,671,589,0,0
-546,435,0,0,0,0,0,0,0,0,0,-1,678,589,0,0
-539,435,0,0,0,0,0,0,0,0,0,-1,685,589,0,0
-532,435,0,0,0,0,0,0,0,0,0,-1,692,589,0,0
-525,435,-10.0776,10.0547,0,0,0,0,0,0,0,-1,699,589,-10.0776,-10.0547
-518,435,-1.83093,-5.82367,0,0,0,0,0,0,0,-1,706,589,-1.83093,5.8237
-511,435,-2.45154,-5.33118,0,0,0,0,0,0,0,-1,713,589,-2.45151,5.33115
-504,435,-3.07208,-4.83862,0,0,0,0,0,0,0,-1,720,589,-3.0721,4.8386
-497,435,-6.31012,-5.84698,0,0,0,0,0,0,0,-1,727,589,-6.31012,5.84697
-490,435,-5.81903,-0.458679,0,0,0,0,0,0,0,-1,734,589,-5.81902,0.458684
-483,435,-6.96503,-3.01624,0,0,0,0,0,0,0,-1,741,589,-6.96505,3.01623
-476,435,-11.8045,-12.7868,0,0,0,0,0,0,0,-1,748,589,-11.8045,12.7868
-469,435,-11.3975,-13.7979,0,0,0,0,0,0,0,-1,755,589,-11.3975,13.7979
-462,435,-11.3536,-14.6284,0,0,0,0,0,0,0,-1,762,589,-11.3537,14.6284
-455,435,-11.4304,-15.8069,-0.00268999,0.00382281,0.00046667,0.00385608,-0.00272326,1.49963,0.00381731,0.0289536,769,589,-11.4304,15.8069
-448,435,-11.4445,-16.7825,-0.00177705,0.00331951,2.46062e-05,0.00331963,-0.00177717,1.56597,0.00298722,0.0141421,776,589,-11.4445,16.7825
-441,435,-11.4896,-17.6507,-0.000899553,0.00292029,-0.000367409,0.00295531,-0.000934571,-1.47577,0.00234466,0.0123327,783,589,-11.4896,17.6507
-434,435,-11.5544,-18.475,-0.000178074,0.00253346,-0.000644525,0.00267886,-0.000323479,-1.34891,0.00190292,0.0133411,790,589,-11.5544,18.475
-427,435,-11.5994,-19.3557,0.000496014,0.00223621,-0.000896479,0.00261541,0.000116815,-1.17063,0.001706,0.0110157,797,589,-11.5994,19.3556
-420,435,-11.6293,-20.1982,0.00116265,0.00201684,-0.00114962,0.00281614,0.000363349,-0.963252,0.00176879,0.0112179,804,589,-11.6293,20.1982
-413,435,-11.6805,-21.0417,0.00169733,0.00177893,-0.00126823,0.00300702,0.000469248,-0.801478,0.00186801,0.0118512,811,589,-11.6805,21.0417
-406,435,-11.7378,-21.8911,0.00216162,0.00156473,-0.00131713,0.00321369,0.000512661,-0.673985,0.00199367,0.011857,818,589,-11.7378,21.8911
-399,435,-11.8056,-22.7264,0.00273392,0.00146584,-0.00145949,0.00369115,0.000508614,-0.580485,0.00230997,0.00997121,825,589,-11.8056,22.7264
-392,435,-11.8627,-23.5541,0.00335144,0.00139847,-0.0015848,0.00423644,0.000513471,-0.509292,0.00266965,0.0113333,832,589,-11.8627,23.5541
-385,435,-11.8748,-24.3893,0.00394368,0.00156471,-0.00173465,0.0048575,0.000650891,-0.48486,0.00304465,0.0235155,839,589,-11.8748,24.3893
-378,435,-11.8583,-25.3358,0,0,0,0,0,0,0,-1,846,589,-11.8583,25.3358
-371,435,-10.247,-21.7153,0,0,0,0,0,0,0,-1,853,589,-10.247,21.7153
-364,435,-5.62848,-11.5937,0,0,0,0,0,0,0,-1,860,589,-5.62847,11.5937
-357,435,-5.57343,-10.9666,0,0,0,0,0,0,0,-1,867,589,-5.57342,10.9666
-350,435,-0.86676,-3.69836,0,0,0,0,0,0,0,-1,874,589,-0.866784,3.69834
-343,435,-1.60706,-2.36835,0,0,0,0,0,0,0,-1,881,589,-1.60706,2.36838
-336,435,-2.07263,-1.94012,0,0,0,0,0,0,0,-1,888,589,-2.07265,1.94014
-329,435,-2.55963,-1.5517,0,0,0,0,0,0,0,-1,895,589,-2.5596,1.55168
-322,435,-3.08545,-1.55255,0,0,0,0,0,0,0,-1,902,589,-3.08544,1.55254
-315,435,-0.404297,-2.63763,0,0,0,0,0,0,0,-1,909,589,-0.404276,2.63761
-308,435,-1.70056,-1.90369,0,0,0,0,0,0,0,-1,916,589,-1.70056,1.90367
-301,435,-1.19391,-2.41632,0,0,0,0,0,0,0,-1,923,589,-1.1939,2.41635
-294,435,3.78278,-10.3275,0,0,0,0,0,0,0,-1,930,589,3.78281,10.3275
-287,435,0,0,0,0,0,0,0,0,0,-1,937,589,0,0
-280,435,0,0,0,0,0,0,0,0,0,-1,944,589,0,0
-273,435,0,0,0,0,0,0,0,0,0,-1,951,589,0,0
-266,435,0,0,0,0,0,0,0,0,0,-1,958,589,0,0
-259,435,0,0,0,0,0,0,0,0,0,-1,965,589,0,0
-252,435,0,0,0,0,0,0,0,0,0,-1,972,589,0,0
-245,435,0,0,0,0,0,0,0,0,0,-1,979,589,0,0
-238,435,0,0,0,0,0,0,0,0,0,-1,986,589,0,0
-231,435,0,0,0,0,0,0,0,0,0,-1,993,589,0,0
-224,435,0,0,0,0,0,0,0,0,0,-1,1000,589,0,0
-217,435,0,0,0,0,0,0,0,0,0,-1,1007,589,0,0
-210,435,0,0,0,0,0,0,0,0,0,-1,1014,589,0,0
-203,435,0,0,0,0,0,0,0,0,0,-1,1021,589,0,0
-196,435,0,0,0,0,0,0,0,0,0,-1,1028,589,0,0
-189,435,0,0,0,0,0,0,0,0,0,-1,1035,589,0,0
-182,435,0,0,0,0,0,0,0,0,0,-1,1042,589,0,0
-175,435,0,0,0,0,0,0,0,0,0,-1,1049,589,0,0
-168,435,0,0,0,0,0,0,0,0,0,-1,1056,589,0,0
-161,435,0,0,0,0,0,0,0,0,0,-1,1063,589,0,0
-154,435,0,0,0,0,0,0,0,0,0,-1,1070,589,0,0
-147,435,0,0,0,0,0,0,0,0,0,-1,1077,589,0,0
-140,435,0,0,0,0,0,0,0,0,0,-1,1084,589,0,0
-133,435,0,0,0,0,0,0,0,0,0,-1,1091,589,0,0
-126,435,0,0,0,0,0,0,0,0,0,-1,1098,589,0,0
-119,435,0,0,0,0,0,0,0,0,0,-1,1105,589,0,0
-112,435,0,0,0,0,0,0,0,0,0,-1,1112,589,0,0
-105,435,0,0,0,0,0,0,0,0,0,-1,1119,589,0,0
-98,435,0,0,0,0,0,0,0,0,0,-1,1126,589,0,0
-91,435,0,0,0,0,0,0,0,0,0,-1,1133,589,0,0
-84,435,0,0,0,0,0,0,0,0,0,-1,1140,589,0,0
-77,435,0,0,0,0,0,0,0,0,0,-1,1147,589,0,0
-70,435,0,0,0,0,0,0,0,0,0,-1,1154,589,0,0
-63,435,0,0,0,0,0,0,0,0,0,-1,1161,589,0,0
-56,435,0,0,0,0,0,0,0,0,0,-1,1168,589,0,0
-49,435,0,0,0,0,0,0,0,0,0,-1,1175,589,0,0
-42,435,0,0,0,0,0,0,0,0,0,-1,1182,589,0,0
-35,435,0,0,0,0,0,0,0,0,0,-1,1189,589,0,0
-28,435,0,0,0,0,0,0,0,0,0,-1,1196,589,0,0
-21,435,0,0,0,0,0,0,0,0,0,-1,1203,589,0,0
-14,435,0,0,0,0,0,0,0,0,0,-1,1210,589,0,0
-7,435,0,0,0,0,0,0,0,0,0,-1,1217,589,0,0
0,435,0,0,0,0,0,0,0,0,0,-1,1224,589,0,0
7,435,0,0,0,0,0,0,0,0,0,-1,1231,589,0,0
14,435,0,0,0,0,0,0,0,0,0,-1,1238,589,0,0
21,435,0,0,0,0,0,0,0,0,0,-1,1245,589,0,0
28,435,0,0,0,0,0,0,0,0,0,-1,1252,589,0,0
35,435,0,0,0,0,0,0,0,0,0,-1,1259,589,0,0
42,435,0,0,0,0,0,0,0,0,0,-1,1266,589,0,0
49,435,0,0,0,0,0,0,0,0,0,-1,1273,589,0,0
56,435,0,0,0,0,0,0,0,0,0,-1,1280,589,0,0
63,435,0,0,0,0,0,0,0,0,0,-1,1287,589,0,0
70,435,0,0,0,0,0,0,0,0,0,-1,1294,589,0,0
77,435,0,0,0,0,0,0,0,0,0,-1,1301,589,0,0
84,435,0,0,0,0,0,0,0,0,0,-1,1308,589,0,0
91,435,0,0,0,0,0,0,0,0,0,-1,1315,589,0,0
98,435,0,0,0,0,0,0,0,0,0,-1,1322,589,0,0
105,435,0,0,0,0,0,0,0,0,0,-1,1329,589,0,0
112,435,0,0,0,0,0,0,0,0,0,-1,1336,589,0,0
119,435,0,0,0,0,0,0,0,0,0,-1,1343,589,0,0
126,435,0,0,0,0,0,0,0,0,0,-1,1350,589,0,0
133,435,0,0,0,0,0,0,0,0,0,-1,1357,589,0,0
140,435,0,0,0,0,0,0,0,0,0,-1,1364,589,0,0
147,435,0,0,0,0,0,0,0,0,0,-1,1371,589,0,0
154,435,0,0,0,0,0,0,0,0,0,-1,1378,589,0,0
161,435,0,0,0,0,0,0,0,0,0,-1,1385,589,0,0
168,435,0,0,0,0,0,0,0,0,0,-1,1392,589,0,0
175,435,0,0,0,0,0,0,0,0,0,-1,1399,589,0,0
182,435,0,0,0,0,0,0,0,0,0,-1,1406,589,0,0
189,435,0,0,0,0,0,0,0,0,0,-1,1413,589,0,0
196,435,0,0,0,0,0,0,0,0,0,-1,1420,589,0,0
203,435,0,0,0,0,0,0,0,0,0,-1,1427,589,0,0
210,435,0,0,0,0,0,0,0,0,0,-1,1434,589,0,0
217,435,0,0,0,0,0,0,0,0,0,-1,1441,589,0,0
224,435,0,0,0,0,0,0,0,0,0,-1,1448,589,0,0
231,435,0,0,0,0,0,0,0,0,0,-1,1455,589,0,0
238,435,0,0,0,0,0,0,0,0,0,-1,1462,589,0,0
245,435,0,0,0,0,0,0,0,0,0,-1,1469,589,0,0
252,435,0,0,0,0,0,0,0,0,0,-1,1476,589,0,0
259,435,0,0,0,0,0,0,0,0,0,-1,1483,589,0,0
266,435,0,0,0,0,0,0,0,0,0,-1,1490,589,0,0
273,435,0,0,0,0,0,0,0,0,0,-1,1497,589,0,0
280,435,0,0,0,0,0,0,0,0,0,-1,1504,589,0,0
287,435,0,0,0,0,0,0,0,0,0,-1,1511,589,0,0
294,435,0,0,0,0,0,0,0,0,0,-1,1518,589,0,0
301,435,0,0,0,0,0,0,0,0,0,-1,1525,589,0,0
308,435,0,0,0,0,0,0,0,0,0,-1,1532,589,0,0
315,435,0,0,0,0,0,0,0,0,0,-1,1539,589,0,0
322,435,0,0,0,0,0,0,0,0,0,-1,1546,589,0,0
329,435,0,0,0,0,0,0,0,0,0,-1,1553,589,0,0
336,435,0,0,0,0,0,0,0,0,0,-1,1560,589,0,0
343,435,0,0,0,0,0,0,0,0,0,-1,1567,589,0,0
350,435,0,0,0,0,0,0,0,0,0,-1,1574,589,0,0
357,435,0,0,0,0,0,0,0,0,0,-1,1581,589,0,0
364,435,0,0,0,0,0,0,0,0,0,-1,1588,589,0,0
371,435,0,0,0,0,0,0,0,0,0,-1,1595,589,0,0
378,435,0,0,0,0,0,0,0,0,0,-1,1602,589,0,0
385,435,0,0,0,0,0,0,0,0,0,-1,1609,589,0,0
392,435,0,0,0,0,0,0,0,0,0,-1,1616,589,0,0
399,435,0,0,0,0,0,0,0,0,0,-1,1623,589,0,0
406,435,0,0,0,0,0,0,0,0,0,-1,1630,589,0,0
413,435,20.4565,3.49835,0,0,0,0,0,0,0,-1,1637,589,20.4565,-3.49836
420,435,21.4015,1.49609,0,0,0,0,0,0,0,-1,1644,589,21.4015,-1.49609
427,435,22.0464,-0.373962,0,0,0,0,0,0,0,-1,1651,589,22.0464,0.373972
434,435,22.1863,-1.54407,0,0,0,0,0,0,0,-1,1658,589,22.1862,1.54405
441,435,22.3992,-2.38287,0,0,0,0,0,0,0,-1,1665,589,22.3992,2.38289
448,435,7.4585,-0.00292969,0,0,0,0,0,0,0,-1,1672,589,7.45848,0.00294131
455,435,5.49915,-5.047,0,0,0,0,0,0,0,-1,1679,589,5.49914,5.04703
462,435,5.60669,-4.71466,0,0,0,0,0,0,0,-1,1686,589,5.60675,4.71469
469,435,5.87708,1.22351,0,0,0,0,0,0,0,-1,1693,589,5.87703,-1.22351
476,435,6.14136,1.37714,0,0,0,0,0,0,0,-1,1700,589,6.14138,-1.37712
483,435,6.49243,1.36169,0,0,0,0,0,0,0,-1,1707,589,6.49242,-1.36171
490,435,4.38391,-1.36218,0,0,0,0,0,0,0,-1,1714,589,4.38389,1.3622
497,435,7.23499,-3.64551,0,0,0,0,0,0,0,-1,1721,589,7.23495,3.64551
504,435,7.31189,-3.75909,0,0,0,0,0,0,0,-1,1728,589,7.31184,3.75911
511,435,26.2007,-23.9266,0,0,0,0,0,0,0,-1,1735,589,26.2007,23.9266
518,435,26.4307,-22.9316,0.00446761,0.00274798,0.00271929,0.00645978,0.000755813,0.632276,0.004078,0.040891,1742,589,26.4306,22.9316
525,435,26.3667,-22.0386,0.00382458,0.00211887,0.00231733,0.00544101,0.000502437,0.609074,0.003472,0.0133326,1749,589,26.3667,22.0386
532,435,26.338,-21.1569,0.00319461,0.0017145,0.0019508,0.00454101,0.000368097,0.604106,0.00291241,0.0161431,1756,589,26.338,21.1569
539,435,26.3107,-20.2763,0.00268514,0.00158595,0.00170762,0.00392943,0.000341664,0.629709,0.00251348,0.0181391,1763,589,26.3107,20.2763
546,435,26.2703,-19.4457,0.00225201,0.00157163,0.00148492,0.00343521,0.00038843,0.672794,0.00217227,0.0183453,1770,589,26.2703,19.4458
553,435,26.1956,-18.6012,0.00181318,0.0017582,0.00133197,0.00311794,0.000453434,0.77508,0.00194518,0.0131532,1777,589,26.1956,18.6012
560,435,26.135,-17.755,0.0014407,0.00207369,0.00128402,0.00307965,0.000434744,0.906233,0.00192462,0.0102678,1784,589,26.1349,17.755
567,435,26.1163,-16.8856,0.00126355,0.00264945,0.00143012,0.00354566,0.000367338,1.011,0.00225134,0.0093762,1791,589,26.1163,16.8857
574,435,26.054,-16.0136,0.0011963,0.00337779,0.00167384,0.00428491,0.000289177,1.07416,0.00276526,0.0109683,1798,589,26.054,16.0136
581,435,25.9913,-15.1397,0.0013255,0.00433087,0.0021216,0.00542804,0.000228331,1.09353,0.00354504,0.0186142,1805,589,25.9913,15.1397
588,435,25.9697,-14.3204,0.00175728,0.00553942,0.0027996,0.0070268,0.000269902,1.08244,0.00459721,0.0471422,1812,589,25.9697,14.3204
595,435,26.025,-13.1826,0,0,0,0,0,0,0,-1,1819,589,26.025,13.1826
602,435,16.8671,-6.39026,0,0,0,0,0,0,0,-1,1826,589,16.867,6.39024
609,435,15.2611,-3.42242,0,0,0,0,0,0,0,-1,1833,589,15.2611,3.42242
616,435,5.05151,-2.75269,0,0,0,0,0,0,0,-1,1840,589,5.05157,2.7527
623,435,11.7588,3.9704,0,0,0,0,0,0,0,-1,1847,589,11.7587,-3.97043
630,435,4.72742,-0.87561,0,0,0,0,0,0,0,-1,1854,589,4.7274,0.875636
637,435,5.05286,1.48792,0,0,0,0,0,0,0,-1,1861,589,5.05291,-1.48792
644,435,0,0,0,0,0,0,0,0,0,-1,1868,589,0,0
651,435,0,0,0,0,0,0,0,0,0,-1,1875,589,0,0
658,435,0,0,0,0,0,0,0,0,0,-1,1882,589,0,0
665,435,0,0,0,0,0,0,0,0,0,-1,1889,589,0,0
672,435,0,0,0,0,0,0,0,0,0,-1,1896,589,0,0
679,435,0,0,0,0,0,0,0,0,0,-1,1903,589,0,0
686,435,0,0,0,0,0,0,0,0,0,-1,1910,589,0,0
693,435,0,0,0,0,0,0,0,0,0,-1,1917,589,0,0
700,435,0,0,0,0,0,0,0,0,0,-1,1924,589,0,0
707,435,0,0,0,0,0,0,0,0,0,-1,1931,589,0,0
714,435,0,0,0,0,0,0,0,0,0,-1,1938,589,0,0
721,435,0,0,0,0,0,0,0,0,0,-1,1945,589,0,0
728,435,0,0,0,0,0,0,0,0,0,-1,1952,589,0,0
735,435,0,0,0,0,0,0,0,0,0,-1,1959,589,0,0
742,435,0,0,0,0,0,0,0,0,0,-1,1966,589,0,0
749,435,0,0,0,0,0,0,0,0,0,-1,1973,589,0,0
756,435,0,0,0,0,0,0,0,0,0,-1,1980,589,0,0
763,435,0,0,0,0,0,0,0,0,0,-1,1987,589,0,0
770,435,0,0,0,0,0,0,0,0,0,-1,1994,589,0,0
777,435,0,0,0,0,0,0,0,0,0,-1,2001,589,0,0
784,435,0,0,0,0,0,0,0,0,0,-1,2008,589,0,0
791,435,0,0,0,0,0,0,0,0,0,-1,2015,589,0,0
798,435,0,0,0,0,0,0,0,0,0,-1,2022,589,0,0
805,435,0,0,0,0,0,0,0,0,0,-1,2029,589,0,0
812,435,0,0,0,0,0,0,0,0,0,-1,2036,589,0,0
-700,428,0,0,0,0,0,0,0,0,0,-1,524,596,0,0
-693,428,0,0,0,0,0,0,0,0,0,-1,531,596,0,0
-686,428,0,0,0,0,0,0,0,0,0,-1,538,596,0,0
-679,428,0,0,0,0,0,0,0,0,0,-1,545,596,0,0
-672,428,0,0,0,0,0,0,0,0,0,-1,552,596,0,0
-665,428,0,0,0,0,0,0,0,0,0,-1,559,596,0,0
-658,428,0,0,0,0,0,0,0,0,0,-1,566,596,0,0
-651,428,0,0,0,0,0,0,0,0,0,-1,573,596,0,0
-644,428,0,0,0,0,0,0,0,0,0,-1,580,596,0,0
-637,428,0,0,0,0,0,0,0,0,0,-1,587,596,0,0
-630,428,0,0,0,0,0,0,0,0,0,-1,594,596,0,0
-623,428,0,0,0,0,0,0,0,0,0,-1,601,596,0,0
-616,428,0,0,0,0,0,0,0,0,0,-1,608,596,0,0
-609,428,0,0,0,0,0,0,0,0,0,-1,615,596,0,0
-602,428,0,0,0,0,0,0,0,0,0,-1,622,596,0,0
-595,428,0,0,0,0,0,0,0,0,0,-1,629,596,0,0
-588,428,0,0,0,0,0,0,0,0,0,-1,636,596,0,0
-581,428,0,0,0,0,0,0,0,0,0,-1,643,596,0,0
-574,428,0,0,0,0,0,0,0,0,0,-1,650,596,0,0
-567,428,0,0,0,0,0,0,0,0,0,-1,657,596,0,0
-560,428,0,0,0,0,0,0,0,0,0,-1,664,596,0,0
-553,428,0,0,0,0,0,0,0,0,0,-1,671,596,0,0
-546,428,0,0,0,0,0,0,0,0,0,-1,678,596,0,0
-539,428,0,0,0,0,0,0,0,0,0,-1,685,596,0,0
-532,428,0,0,0,0,0,0,0,0,0,-1,692,596,0,0
-525,428,-9.59918,7.58618,0,0,0,0,0,0,0,-1,699,596,-9.59918,-7.5862
-518,428,-2.92285,-4.81854,0,0,0,0,0,0,0,-1,706,596,-2.92285,4.81856
-511,428,-3.68811,-4.79474,0,0,0,0,0,0,0,-1,713,596,-3.68811,4.79474
-504,428,-4.45337,-4.77094,0,0,0,0,0,0,0,-1,720,596,-4.45337,4.77092
-497,428,-2.98108,-3.77502,0,0,0,0,0,0,0,-1,727,596,-2.98106,3.77505
-490,428,-6.39044,-2.80481,0,0,0,0,0,0,0,-1,734,596,-6.39047,2.80483
-483,428,-10.8474,-9.11322,0,0,0,0,0,0,0,-1,741,596,-10.8473,9.11321
-476,428,-11.9673,-13.2906,0,0,0,0,0,0,0,-1,748,596,-11.9674,13.2906
-469,428,-12.0115,-14.0506,-0.00410131,0.00341282,0.00157474,0.00372949,-0.00441798,1.37235,0.00470954,0.0350363,755,596,-12.0115,14.0506
-462,428,-12.1593,-14.8074,-0.0029164,0.00321441,0.000859286,0.00333257,-0.00303456,1.43414,0.00367741,0.037689,762,596,-12.1593,14.8074
-455,428,-12.2643,-15.7708,-0.0019722,0.00273421,0.000382526,0.0027651,-0.00200309,1.49022,0.00276461,0.0175012,769,596,-12.2643,15.7708
-448,428,-12.3219,-16.6707,-0.00111337,0.0023849,-2.70005e-05,0.00238511,-0.00111358,-1.56308,0.00206395,0.0122291,776,596,-12.3219,16.6707
-441,428,-12.3603,-17.5554,-0.000292543,0.00211364,-0.0003946,0.0021767,-0.000355602,-1.41233,0.00158304,0.0144797,783,596,-12.3603,17.5554
-434,428,-12.3853,-18.4537,0.000408327,0.00187318,-0.000684105,0.00214298,0.000138532,-1.19515,0.00138479,0.0114259,790,596,-12.3853,18.4537
-427,428,-12.4297,-19.3186,0.00109612,0.00174534,-0.000995236,0.00246757,0.000373891,-0.943041,0.00153566,0.0118606,797,596,-12.4297,19.3186
-420,428,-12.4688,-20.1321,0.00178122,0.00169794,-0.0013147,0.00305494,0.000424222,-0.769566,0.00191098,0.011481,804,596,-12.4688,20.1322
-413,428,-12.5145,-20.9567,0.00234955,0.00166635,-0.00151944,0.00356532,0.000450587,-0.674827,0.00224183,0.0143464,811,596,-12.5144,20.9567
-406,428,-12.5792,-21.8062,0.00287826,0.0017223,-0.00172296,0.00411759,0.000482961,-0.623568,0.00259908,0.0173532,818,596,-12.5791,21.8062
-399,428,-12.6135,-22.6696,0.0035381,0.00187097,-0.00207767,0.00494318,0.000465886,-0.594627,0.00315166,0.0172572,825,596,-12.6135,22.6695
-392,428,-12.6354,-23.5536,0.00425132,0.00203086,-0.00242025,0.00580383,0.000478343,-0.570355,0.00372004,0.0356447,832,596,-12.6354,23.5537
-385,428,-12.6559,-24.4063,0,0,0,0,0,0,0,-1,839,596,-12.6559,24.4063
-378,428,-10.8172,-20.952,0,0,0,0,0,0,0,-1,846,596,-10.8172,20.952
-371,428,-5.96155,-11.0703,0,0,0,0,0,0,0,-1,853,596,-5.96154,11.0702
-364,428,-6.33643,-10.7223,0,0,0,0,0,0,0,-1,860,596,-6.33645,10.7223
-357,428,-3.20996,-4.70966,0,0,0,0,0,0,0,-1,867,596,-3.20997,4.70965
-350,428,-1.62793,-3.94055,0,0,0,0,0,0,0,-1,874,596,-1.62794,3.94055
-343,428,-0.0567017,-4.80994,0,0,0,0,0,0,0,-1,881,596,-0.0567096,4.80996
-336,428,-3.29175,-1.39569,0,0,0,0,0,0,0,-1,888,596,-3.29172,1.39568
-329,428,-3.71564,-0.791321,0,0,0,0,0,0,0,-1,895,596,-3.71564,0.791299
-322,428,-5.52863,-3.59827,0,0,0,0,0,0,0,-1,902,596,-5.52865,3.59829
-315,428,-4.57172,-1.22052,0,0,0,0,0,0,0,-1,909,596,-4.57171,1.22052
-308,428,-5.60742,-3.40961,0,0,0,0,0,0,0,-1,916,596,-5.60744,3.40959
-301,428,0,0,0,0,0,0,0,0,0,-1,923,596,0,0
-294,428,0,0,0,0,0,0,0,0,0,-1,930,596,0,0
-287,428,0,0,0,0,0,0,0,0,0,-1,937,596,0,0
-280,428,0,0,0,0,0,0,0,0,0,-1,944,596,0,0
-273,428,0,0,0,0,0,0,0,0,0,-1,951,596,0,0
-266,428,0,0,0,0,0,0,0,0,0,-1,958,596,0,0
-259,428,0,0,0,0,0,0,0,0,0,-1,965,596,0,0
-252,428,0,0,0,0,0,0,0,0,0,-1,972,596,0,0
-245,428,0,0,0,0,0,0,0,0,0,-1,979,596,0,0
-238,428,0,0,0,0,0,0,0,0,0,-1,986,596,0,0
-231,428,0,0,0,0,0,0,0,0,0,-1,993,596,0,0
-224,428,0,0,0,0,0,0,0,0,0,-1,1000,596,0,0
-217,428,0,0,0,0,0,0,0,0,0,-1,1007,596,0,0
-210,428,0,0,0,0,0,0,0,0,0,-1,1014,596,0,0
-203,428,0,0,0,0,0,0,0,0,0,-1,1021,596,0,0
-196,428,0,0,0,0,0,0,0,0,0,-1,1028,596,0,0
-189,428,0,0,0,0,0,0,0,0,0,-1,1035,596,0,0
-182,428,0,0,0,0,0,0,0,0,0,-1,1042,596,0,0
-175,428,0,0,0,0,0,0,0,0,0,-1,1049,596,0,0
-168,428,0,0,0,0,0,0,0,0,0,-1,1056,596,0,0
-161,428,0,0,0,0,0,0,0,0,0,-1,1063,596,0,0
-154,428,0,0,0,0,0,0,0,0,0,-1,1070,596,0,0
-147,428,0,0,0,0,0,0,0,0,0,-1,1077,596,0,0
-140,428,0,0,0,0,0,0,0,0,0,-1,1084,596,0,0
-133,428,0,0,0,0,0,0,0,0,0,-1,1091,596,0,0
-126,428,0,0,0,0,0,0,0,0,0,-1,1098,596,0,0
-119,428,0,0,0,0,0,0,0,0,0,-1,1105,596,0,0
-112,428,0,0,0,0,0,0,0,0,0,-1,1112,596,0,0
-105,428,0,0,0,0,0,0,0,0,0,-1,1119,596,0,0
-98,428,0,0,0,0,0,0,0,0,0,-1,1126,596,0,0
-91,428,0,0,0,0,0,0,0,0,0,-1,1133,596,0,0
-84,428,0,0,0,0,0,0,0,0,0,-1,1140,596,0,0
-77,428,0,0,0,0,0,0,0,0,0,-1,1147,596,0,0
-70,428,0,0,0,0,0,0,0,0,0,-1,1154,596,0,0
-63,428,0,0,0,0,0,0,0,0,0,-1,1161,596,0,0
-56,428,0,0,0,0,0,0,0,0,0,-1,1168,596,0,0
-49,428,0,0,0,0,0,0,0,0,0,-1,1175,596,0,0
-42,428,0,0,0,0,0,0,0,0,0,-1,1182,596,0,0
-35,428,0,0,0,0,0,0,0,0,0,-1,1189,596,0,0
-28,428,0,0,0,0,0,0,0,0,0,-1,1196,596,0,0
-21,428,0,0,0,0,0,0,0,0,0,-1,1203,596,0,0
-14,428,0,0,0,0,0,0,0,0,0,-1,1210,596,0,0
-7,428,0,0,0,0,0,0,0,0,0,-1,1217,596,0,0
0,428,0,0,0,0,0,0,0,0,0,-1,1224,596,0,0
7,428,0,0,0,0,0,0,0,0,0,-1,1231,596,0,0
14,428,0,0,0,0,0,0,0,0,0,-1,1238,596,0,0
21,428,0,0,0,0,0,0,0,0,0,-1,1245,596,0,0
28,428,0,0,0,0,0,0,0,0,0,-1,1252,596,0,0
35,428,0,0,0,0,0,0,0,0,0,-1,1259,596,0,0
42,428,0,0,0,0,0,0,0,0,0,-1,1266,596,0,0
49,428,0,0,0,0,0,0,0,0,0,-1,1273,596,0,0
56,428,0,0,0,0,0,0,0,0,0,-1,1280,596,0,0
63,428,0,0,0,0,0,0,0,0,0,-1,1287,596,0,0
70,428,0,0,0,0,0,0,0,0,0,-1,1294,596,0,0
77,428,0,0,0,0,0,0,0,0,0,-1,1301,596,0,0
84,428,0,0,0,0,0,0,0,0,0,-1,1308,596,0,0
91,428,0,0,0,0,0,0,0,0,0,-1,1315,596,0,0
98,428,0,0,0,0,0,0,0,0,0,-1,1322,596,0,0
105,428,0,0,0,0,0,0,0,0,0,-1,1329,596,0,0
112,428,0,0,0,0,0,0,0,0,0,-1,1336,596,0,0
119,428,0,0,0,0,0,0,0,0,0,-1,1343,596,0,0
126,428,0,0,0,0,0,0,0,0,0,-1,1350,596,0,0
133,428,0,0,0,0,0,0,0,0,0,-1,1357,596,0,0
140,428,0,0,0,0,0,0,0,0,0,-1,1364,596,0,0
147,428,0,0,0,0,0,0,0,0,0,-1,1371,596,0,0
154,428,0,0,0,0,0,0,0,0,0,-1,1378,596,0,0
161,428,0,0,0,0,0,0,0,0,0,-1,1385,596,0,0
168,428,0,0,0,0,0,0,0,0,0,-1,1392,596,0,0
175,428,0,0,0,0,0,0,0,0,0,-1,1399,596,0,0
182,428,0,0,0,0,0,0,0,0,0,-1,1406,596,0,0
189,428,0,0,0,0,0,0,0,0,0,-1,1413,596,0,0
196,428,0,0,0,0,0,0,0,0,0,-1,1420,596,0,0
203,428,0,0,0,0,0,0,0,0,0,-1,1427,596,0,0
210,428,0,0,0,0,0,0,0,0,0,-1,1434,596,0,0
217,428,0,0,0,0,0,0,0,0,0,-1,1441,596,0,0
224,428,0,0,0,0,0,0,0,0,0,-1,1448,596,0,0
231,428,0,0,0,0,0,0,0,0,0,-1,1455,596,0,0
238,428,0,0,0,0,0,0,0,0,0,-1,1462,596,0,0
245,428,0,0,0,0,0,0,0,0,0,-1,1469,596,0,0
252,428,0,0,0,0,0,0,0,0,0,-1,1476,596,0,0
259,428,0,0,0,0,0,0,0,0,0,-1,1483,596,0,0
266,428,0,0,0,0,0,0,0,0,0,-1,1490,596,0,0
273,428,0,0,0,0,0,0,0,0,0,-1,1497,596,0,0
280,428,0,0,0,0,0,0,0,0,0,-1,1504,596,0,0
287,428,0,0,0,0,0,0,0,0,0,-1,1511,596,0,0
294,428,0,0,0,0,0,0,0,0,0,-1,1518,596,0,0
301,428,0,0,0,0,0,0,0,0,0,-1,1525,596,0,0
308,428,0,0,0,0,0,0,0,0,0,-1,1532,596,0,0
315,428,0,0,0,0,0,0,0,0,0,-1,1539,596,0,0
322,428,0,0,0,0,0,0,0,0,0,-1,1546,596,0,0
329,428,0,0,0,0,0,0,0,0,0,-1,1553,596,0,0
336,428,0,0,0,0,0,0,0,0,0,-1,1560,596,0,0
343,428,0,0,0,0,0,0,0,0,0,-1,1567,596,0,0
350,428,0,0,0,0,0,0,0,0,0,-1,1574,596,0,0
357,428,0,0,0,0,0,0,0,0,0,-1,1581,596,0,0
364,428,0,0,0,0,0,0,0,0,0,-1,1588,596,0,0
371,428,0,0,0,0,0,0,0,0,0,-1,1595,596,0,0
378,428,0,0,0,0,0,0,0,0,0,-1,1602,596,0,0
385,428,0,0,0,0,0,0,0,0,0,-1,1609,596,0,0
392,428,0,0,0,0,0,0,0,0,0,-1,1616,596,0,0
399,428,0,0,0,0,0,0,0,0,0,-1,1623,596,0,0
406,428,0,0,0,0,0,0,0,0,0,-1,1630,596,0,0
413,428,0,0,0,0,0,0,0,0,0,-1,1637,596,0,0
420,428,19.8469,1.3399,0,0,0,0,0,0,0,-1,1644,596,19.8469,-1.33992
427,428,20.7299,-0.225281,0,0,0,0,0,0,0,-1,1651,596,20.7299,0.225262
434,428,19.8915,-0.583069,0,0,0,0,0,0,0,-1,1658,596,19.8915,0.583075
441,428,8.17993,0.607483,0,0,0,0,0,0,0,-1,1665,596,8.17997,-0.607513
448,428,7.84338,-0.385986,0,0,0,0,0,0,0,-1,1672,596,7.84336,0.385978
455,428,6.64038,2.1123,0,0,0,0,0,0,0,-1,1679,596,6.64037,-2.11229
462,428,4.84106,4.12341,0,0,0,0,0,0,0,-1,1686,596,4.84107,-4.12339
469,428,7.83789,3.10083,0,0,0,0,0,0,0,-1,1693,596,7.83785,-3.10086
476,428,7.61255,1.73956,0,0,0,0,0,0,0,-1,1700,596,7.61252,-1.73958
483,428,7.22766,1.05121,0,0,0,0,0,0,0,-1,1707,596,7.2277,-1.05121
490,428,5.4071,-3.2793,0,0,0,0,0,0,0,-1,1714,596,5.40707,3.27929
497,428,7.84106,-3.65491,0,0,0,0,0,0,0,-1,1721,596,7.84107,3.65491
504,428,6.92139,-2.83356,0,0,0,0,0,0,0,-1,1728,596,6.92137,2.83353
511,428,7.88501,-3.78723,0,0,0,0,0,0,0,-1,1735,596,7.88502,3.78722
518,428,27.2529,-22.961,0,0,0,0,0,0,0,-1,1742,596,27.2529,22.961
525,428,27.1465,-22.0809,0.00480423,0.00234176,0.00289977,0.00672334,0.000422664,0.584633,0.00434819,0.0389391,1749,596,27.1465,22.081
532,428,27.1659,-21.0752,0.0039863,0.00175649,0.00228395,0.00541294,0.000329852,0.558338,0.00350385,0.0222207,1756,596,27.1659,21.0752
539,428,27.1757,-20.2074,0.00334285,0.00154665,0.00188505,0.00453281,0.000356694,0.563089,0.00291027,0.0247863,1763,596,27.1757,20.2074
546,428,27.1172,-19.4023,0.00280241,0.00138839,0.00154775,0.00379698,0.000393817,0.571151,0.0024108,0.0181803,1770,596,27.1172,19.4023
553,428,27.0419,-18.561,0.00228642,0.00145052,0.00130274,0.00323662,0.00050033,0.630173,0.00201181,0.0121646,1777,596,27.0419,18.561
560,428,27.0209,-17.699,0.00183822,0.00163777,0.00117941,0.00292166,0.000554335,0.743011,0.00179181,0.0130537,1784,596,27.0209,17.699
567,428,26.9808,-16.842,0.00158697,0.00208321,0.0012658,0.00312498,0.000545207,0.88218,0.00192746,0.0128001,1791,596,26.9808,16.8421
574,428,26.9292,-15.9807,0.00148145,0.00268237,0.00147397,0.0036735,0.00049032,0.978823,0.00230302,0.01553,1798,596,26.9292,15.9807
581,428,26.8577,-15.0984,0.001562,0.00347233,0.0018789,0.00462491,0.000409422,1.02056,0.00295627,0.0126597,1805,596,26.8577,15.0985
588,428,26.8088,-14.1913,0.00189119,0.00456374,0.00253748,0.00609529,0.000359637,1.02775,0.00394911,0.0187697,1812,596,26.8088,14.1913
595,428,26.7295,-13.2758,0.00239995,0.00590988,0.00334583,0.00793308,0.000376753,1.02693,0.00516771,0.031366,1819,596,26.7295,13.2758
602,428,26.8285,-12.2805,0,0,0,0,0,0,0,-1,1826,596,26.8285,12.2805
609,428,17.2073,-4.82446,0,0,0,0,0,0,0,-1,1833,596,17.2073,4.82447
616,428,15.7817,-3.09558,0,0,0,0,0,0,0,-1,1840,596,15.7817,3.09556
623,428,9.53577,1.12518,0,0,0,0,0,0,0,-1,1847,596,9.5358,-1.1252
630,428,7.07996,6.88562,0,0,0,0,0,0,0,-1,1854,596,7.0799,-6.88565
637,428,3.95435,1.90857,0,0,0,0,0,0,0,-1,1861,596,3.95439,-1.90858
644,428,5.75476,0.888977,0,0,0,0,0,0,0,-1,1868,596,5.75472,-0.888955
651,428,0,0,0,0,0,0,0,0,0,-1,1875,596,0,0
658,428,0,0,0,0,0,0,0,0,0,-1,1882,596,0,0
665,428,0,0,0,0,0,0,0,0,0,-1,1889,596,0,0
672,428,0,0,0,0,0,0,0,0,0,-1,1896,596,0,0
679,428,0,0,0,0,0,0,0,0,0,-1,1903,596,0,0
686,428,0,0,0,0,0,0,0,0,0,-1,1910,596,0,0
693,428,0,0,0,0,0,0,0,0,0,-1,1917,596,0,0
700,428,0,0,0,0,0,0,0,0,0,-1,1924,596,0,0
707,428,0,0,0,0,0,0,0,0,0,-1,1931,596,0,0
714,428,0,0,0,0,0,0,0,0,0,-1,1938,596,0,0
721,428,0,0,0,0,0,0,0,0,0,-1,1945,596,0,0
728,428,0,0,0,0,0,0,0,0,0,-1,1952,596,0,0
735,428,0,0,0,0,0,0,0,0,0,-1,1959,596,0,0
742,428,0,0,0,0,0,0,0,0,0,-1,1966,596,0,0
749,428,0,0,0,0,0,0,0,0,0,-1,1973,596,0,0
756,428,0,0,0,0,0,0,0,0,0,-1,1980,596,0,0
763,428,0,0,0,0,0,0,0,0,0,-1,1987,596,0,0
770,428,0,0,0,0,0,0,0,0,0,-1,1994,596,0,0
777,428,0,0,0,0,0,0,0,0,0,-1,2001,596,0,0
784,428,0,0,0,0,0,0,0,0,0,-1,2008,596,0,0
791,428,0,0,0,0,0,0,0,0,0,-1,2015,596,0,0
798,428,0,0,0,0,0,0,0,0,0,-1,2022,596,0,0
805,428,0,0,0,0,0,0,0,0,0,-1,2029,596,0,0
812,428,0,0,0,0,0,0,0,0,0,-1,2036,596,0,0
-700,421,0,0,0,0,0,0,0,0,0,-1,524,603,0,0
-693,421,0,0,0,0,0,0,0,0,0,-1,531,603,0,0
-686,421,0,0,0,0,0,0,0,0,0,-1,538,603,0,0
-679,421,0,0,0,0,0,0,0,0,0,-1,545,603,0,0
-672,421,0,0,0,0,0,0,0,0,0,-1,552,603,0,0
-665,421,0,0,0,0,0,0,0,0,0,-1,559,603,0,0
-658,421,0,0,0,0,0,0,0,0,0,-1,566,603,0,0
-651,421,0,0,0,0,0,0,0,0,0,-1,573,603,0,0
-644,421,0,0,0,0,0,0,0,0,0,-1,580,603,0,0
-637,421,0,0,0,0,0,0,0,0,0,-1,587,603,0,0
-630,421,0,0,0,0,0,0,0,0,0,-1,594,603,0,0
-623,421,0,0,0,0,0,0,0,0,0,-1,601,603,0,0
-616,421,0,0,0,0,0,0,0,0,0,-1,608,603,0,0
-609,421,0,0,0,0,0,0,0,0,0,-1,615,603,0,0
-602,421,0,0,0,0,0,0,0,0,0,-1,622,603,0,0
-595,421,0,0,0,0,0,0,0,0,0,-1,629,603,0,0
-588,421,0,0,0,0,0,0,0,0,0,-1,636,603,0,0
-581,421,0,0,0,0,0,0,0,0,0,-1,643,603,0,0
-574,421,0,0,0,0,0,0,0,0,0,-1,650,603,0,0
-567,421,0,0,0,0,0,0,0,0,0,-1,657,603,0,0
-560,421,0,0,0,0,0,0,0,0,0,-1,664,603,0,0
-553,421,0,0,0,0,0,0,0,0,0,-1,671,603,0,0
-546,421,0,0,0,0,0,0,0,0,0,-1,678,603,0,0
-539,421,0,0,0,0,0,0,0,0,0,-1,685,603,0,0
-532,421,-8.97382,6.95636,0,0,0,0,0,0,0,-1,692,603,-8.97384,-6.95634
-525,421,-2.11481,-8.04272,0,0,0,0,0,0,0,-1,699,603,-2.11483,8.0427
-518,421,-3.05908,-5.07233,0,0,0,0,0,0,0,-1,706,603,-3.0591,5.07235
-511,421,-4.63525,-4.08447,0,0,0,0,0,0,0,-1,713,603,-4.63524,4.08449
-504,421,-5.17029,-4.94458,0,0,0,0,0,0,0,-1,720,603,-5.17029,4.9446
-497,421,-6.63141,-2.32501,0,0,0,0,0,0,0,-1,727,603,-6.6314,2.32498
-490,421,-6.7616,-4.14783,0,0,0,0,0,0,0,-1,734,603,-6.76159,4.1478
-483,421,-12.7073,-12.5164,0,0,0,0,0,0,0,-1,741,603,-12.7073,12.5164
-476,421,-12.8453,-13.2748,-0.00383149,0.00258133,0.00170589,0.00300688,-0.00425704,1.32633,0.00421448,0.0402228,748,603,-12.8453,13.2749
-469,421,-13.0141,-13.938,-0.00299032,0.00239906,0.00106722,0.0026027,-0.00319396,1.38225,0.0033525,0.0341354,755,603,-13.0141,13.938
-462,421,-13.0493,-14.8795,-0.00208661,0.00214967,0.000566321,0.00222407,-0.00216102,1.44017,0.00253182,0.0213252,762,603,-13.0492,14.8795
-455,421,-13.1061,-15.7473,-0.00128989,0.00178244,0.000176699,0.00179257,-0.00130002,1.51354,0.00179304,0.0201201,769,603,-13.1061,15.7473
-448,421,-13.1755,-16.6083,-0.000495731,0.00154299,-0.000189663,0.00156048,-0.000513225,-1.47882,0.00124711,0.0194444,776,603,-13.1755,16.6083
-441,421,-13.2137,-17.4978,0.000277745,0.00138429,-0.000528157,0.00159591,6.61251e-05,-1.18971,0.0010426,0.0150964,783,603,-13.2137,17.4978
-434,421,-13.265,-18.3927,0.000979651,0.00130355,-0.000828522,0.0019858,0.000297399,-0.881916,0.00123671,0.0113677,790,603,-13.265,18.3927
-427,421,-13.2932,-19.2423,0.00170312,0.00138322,-0.00119261,0.00274645,0.000339882,-0.718737,0.00172885,0.0107338,797,603,-13.2932,19.2423
-420,421,-13.3219,-20.0605,0.00242608,0.00157035,-0.00156975,0.00362523,0.000371204,-0.652345,0.00230308,0.011409,804,603,-13.3219,20.0605
-413,421,-13.3828,-20.899,0.0030705,0.00185615,-0.00186915,0.00442863,0.000498029,-0.628355,0.0028012,0.0150294,811,603,-13.3828,20.899
-406,421,-13.4731,-21.7771,0.00373958,0.00235872,-0.00226515,0.00541719,0.000681108,-0.637468,0.00340719,0.0234042,818,603,-13.4732,21.7771
-399,421,-13.3704,-22.7602,0.00457704,0.00296475,-0.00290061,0.00678144,0.000760348,-0.649858,0.00429003,0.0483503,825,603,-13.3704,22.7602
-392,421,-13.3542,-23.5745,0,0,0,0,0,0,0,-1,832,603,-13.3543,23.5745
-385,421,-11.5825,-18.8583,0,0,0,0,0,0,0,-1,839,603,-11.5825,18.8583
-378,421,-4.94733,-8.87909,0,0,0,0,0,0,0,-1,846,603,-4.94731,8.87906
-371,421,-5.65082,-7.01849,0,0,0,0,0,0,0,-1,853,603,-5.65082,7.0185
-364,421,-5.94189,-7.09875,0,0,0,0,0,0,0,-1,860,603,-5.94192,7.09878
-357,421,-7.62531,-8.26337,0,0,0,0,0,0,0,-1,867,603,-7.62532,8.26337
-350,421,-5.38019,-3.75024,0,0,0,0,0,0,0,-1,874,603,-5.38017,3.75026
-343,421,-6.22797,-2.57123,0,0,0,0,0,0,0,-1,881,603,-6.22798,2.57121
-336,421,-6.22882,-2.59369,0,0,0,0,0,0,0,-1,888,603,-6.22883,2.5937
-329,421,-4.50134,-1.49469,0,0,0,0,0,0,0,-1,895,603,-4.50137,1.49468
-322,421,-7.55817,1.13263,0,0,0,0,0,0,0,-1,902,603,-7.55818,-1.13263
-315,421,-4.16144,-1.96649,0,0,0,0,0,0,0,-1,909,603,-4.16146,1.9665
-308,421,0,0,0,0,0,0,0,0,0,-1,916,603,0,0
-301,421,0,0,0,0,0,0,0,0,0,-1,923,603,0,0
-294,421,0,0,0,0,0,0,0,0,0,-1,930,603,0,0
-287,421,0,0,0,0,0,0,0,0,0,-1,937,603,0,0
-280,421,0,0,0,0,0,0,0,0,0,-1,944,603,0,0
-273,421,0,0,0,0,0,0,0,0,0,-1,951,603,0,0
-266,421,0,0,0,0,0,0,0,0,0,-1,958,603,0,0
-259,421,0,0,0,0,0,0,0,0,0,-1,965,603,0,0
-252,421,0,0,0,0,0,0,0,0,0,-1,972,603,0,0
-245,421,0,0,0,0,0,0,0,0,0,-1,979,603,0,0
-238,421,0,0,0,0,0,0,0,0,0,-1,986,603,0,0
-231,421,0,0,0,0,0,0,0,0,0,-1,993,603,0,0
-224,421,0,0,0,0,0,0,0,0,0,-1,1000,603,0,0
-217,421,0,0,0,0,0,0,0,0,0,-1,1007,603,0,0
-210,421,0,0,0,0,0,0,0,0,0,-1,1014,603,0,0
-203,421,0,0,0,0,0,0,0,0,0,-1,1021,603,0,0
-196,421,0,0,0,0,0,0,0,0,0,-1,1028,603,0,0
-189,421,0,0,0,0,0,0,0,0,0,-1,1035,603,0,0
-182,421,0,0,0,0,0,0,0,0,0,-1,1042,603,0,0
-175,421,0,0,0,0,0,0,0,0,0,-1,1049,603,0,0
-168,421,0,0,0,0,0,0,0,0,0,-1,1056,603,0,0
-161,421,0,0,0,0,0,0,0,0,0,-1,1063,603,0,0
-154,421,0,0,0,0,0,0,0,0,0,-1,1070,603,0,0
-147,421,0,0,0,0,0,0,0,0,0,-1,1077,603,0,0
-140,421,0,0,0,0,0,0,0,0,0,-1,1084,603,0,0
-133,421,0,0,0,0,0,0,0,0,0,-1,1091,603,0,0
-126,421,0,0,0,0,0,0,0,0,0,-1,1098,603,0,0
-119,421,0,0,0,0,0,0,0,0,0,-1,1105,603,0,0
-112,421,0,0,0,0,0,0,0,0,0,-1,1112,603,0,0
-105,421,0,0,0,0,0,0,0,0,0,-1,1119,603,0,0
-98,421,0,0,0,0,0,0,0,0,0,-1,1126,603,0,0
-91,421,0,0,0,0,0,0,0,0,0,-1,1133,603,0,0
-84,421,0,0,0,0,0,0,0,0,0,-1,1140,603,0,0
-77,421,0,0,0,0,0,0,0,0,0,-1,1147,603,0,0
-70,421,0,0,0,0,0,0,0,0,0,-1,1154,603,0,0
-63,421,0,0,0,0,0,0,0,0,0,-1,1161,603,0,0
-56,421,0,0,0,0,0,0,0,0,0,-1,1168,603,0,0
-49,421,0,0,0,0,0,0,0,0,0,-1,1175,603,0,0
-42,421,0,0,0,0,0,0,0,0,0,-1,1182,603,0,0
-35,421,0,0,0,0,0,0,0,0,0,-1,1189,603,0,0
-28,421,0,0,0,0,0,0,0,0,0,-1,1196,603,0,0
-21,421,0,0,0,0,0,0,0,0,0,-1,1203,603,0,0
-14,421,0,0,0,0,0,0,0,0,0,-1,1210,603,0,0
-7,421,0,0,0,0,0,0,0,0,0,-1,1217,603,0,0
0,421,0,0,0,0,0,0,0,0,0,-1,1224,603,0,0
7,421,0,0,0,0,0,0,0,0,0,-1,1231,603,0,0
14,421,0,0,0,0,0,0,0,0,0,-1,1238,603,0,0
21,421,0,0,0,0,0,0,0,0,0,-1,1245,603,0,0
28,421,0,0,0,0,0,0,0,0,0,-1,1252,603,0,0
35,421,0,0,0,0,0,0,0,0,0,-1,1259,603,0,0
42,421,0,0,0,0,0,0,0,0,0,-1,1266,603,0,0
49,421,0,0,0,0,0,0,0,0,0,-1,1273,603,0,0
56,421,0,0,0,0,0,0,0,0,0,-1,1280,603,0,0
63,421,0,0,0,0,0,0,0,0,0,-1,1287,603,0,0
70,421,0,0,0,0,0,0,0,0,0,-1,1294,603,0,0
77,421,0,0,0,0,0,0,0,0,0,-1,1301,603,0,0
84,421,0,0,0,0,0,0,0,0,0,-1,1308,603,0,0
91,421,0,0,0,0,0,0,0,0,0,-1,1315,603,0,0
98,421,0,0,0,0,0,0,0,0,0,-1,1322,603,0,0
105,421,0,0,0,0,0,0,0,0,0,-1,1329,603,0,0
112,421,0,0,0,0,0,0,0,0,0,-1,1336,603,0,0
119,421,0,0,0,0,0,0,0,0,0,-1,1343,603,0,0
126,421,0,0,0,0,0,0,0,0,0,-1,1350,603,0,0
133,421,0,0,0,0,0,0,0,0,0,-1,1357,603,0,0
140,421,0,0,0,0,0,0,0,0,0,-1,1364,603,0,0
147,421,0,0,0,0,0,0,0,0,0,-1,1371,603,0,0
154,421,0,0,0,0,0,0,0,0,0,-1,1378,603,0,0
161,421,0,0,0,0,0,0,0,0,0,-1,1385,603,0,0
168,421,0,0,0,0,0,0,0,0,0,-1,1392,603,0,0
175,421,0,0,0,0,0,0,0,0,0,-1,1399,603,0,0
182,421,0,0,0,0,0,0,0,0,0,-1,1406,603,0,0
189,421,0,0,0,0,0,0,0,0,0,-1,1413,603,0,0
196,421,0,0,0,0,0,0,0,0,0,-1,1420,603,0,0
203,421,0,0,0,0,0,0,0,0,0,-1,1427,603,0,0
210,421,0,0,0,0,0,0,0,0,0,-1,1434,603,0,0
217,421,0,0,0,0,0,0,0,0,0,-1,1441,603,0,0
224,421,0,0,0,0,0,0,0,0,0,-1,1448,603,0,0
231,421,0,0,0,0,0,0,0,0,0,-1,1455,603,0,0
238,421,0,0,0,0,0,0,0,0,0,-1,1462,603,0,0
245,421,0,0,0,0,0,0,0,0,0,-1,1469,603,0,0
252,421,0,0,0,0,0,0,0,0,0,-1,1476,603,0,0
259,421,0,0,0,0,0,0,0,0,0,-1,1483,603,0,0
266,421,0,0,0,0,0,0,0,0,0,-1,1490,603,0,0
273,421,0,0,0,0,0,0,0,0,0,-1,1497,603,0,0
280,421,0,0,0,0,0,0,0,0,0,-1,1504,603,0,0
287,421,0,0,0,0,0,0,0,0,0,-1,1511,603,0,0
294,421,0,0,0,0,0,0,0,0,0,-1,1518,603,0,0
301,421,0,0,0,0,0,0,0,0,0,-1,1525,603,0,0
308,421,0,0,0,0,0,0,0,0,0,-1,1532,603,0,0
315,421,0,0,0,0,0,0,0,0,0,-1,1539,603,0,0
322,421,0,0,0,0,0,0,0,0,0,-1,1546,603,0,0
329,421,0,0,0,0,0,0,0,0,0,-1,1553,603,0,0
336,421,0,0,0,0,0,0,0,0,0,-1,1560,603,0,0
343,421,0,0,0,0,0,0,0,0,0,-1,1567,603,0,0
350,421,0,0,0,0,0,0,0,0,0,-1,1574,603,0,0
357,421,0,0,0,0,0,0,0,0,0,-1,1581,603,0,0
364,421,0,0,0,0,0,0,0,0,0,-1,1588,603,0,0
371,421,0,0,0,0,0,0,0,0,0,-1,1595,603,0,0
378,421,0,0,0,0,0,0,0,0,0,-1,1602,603,0,0
385,421,0,0,0,0,0,0,0,0,0,-1,1609,603,0,0
392,421,0,0,0,0,0,0,0,0,0,-1,1616,603,0,0
399,421,0,0,0,0,0,0,0,0,0,-1,1623,603,0,0
406,421,0,0,0,0,0,0,0,0,0,-1,1630,603,0,0
413,421,0,0,0,0,0,0,0,0,0,-1,1637,603,0,0
420,421,0,0,0,0,0,0,0,0,0,-1,1644,603,0,0
427,421,0,0,0,0,0,0,0,0,0,-1,1651,603,0,0
434,421,3.68176,-0.0327759,0,0,0,0,0,0,0,-1,1658,603,3.6818,0.0328037
441,421,8.06689,0.527832,0,0,0,0,0,0,0,-1,1665,603,8.06693,-0.527851
448,421,6.93921,0.802246,0,0,0,0,0,0,0,-1,1672,603,6.93923,-0.802251
455,421,7.29456,2.14825,0,0,0,0,0,0,0,-1,1679,603,7.29461,-2.14827
462,421,7.86902,3.53174,0,0,0,0,0,0,0,-1,1686,603,7.869,-3.53173
469,421,8.06604,2.81213,0,0,0,0,0,0,0,-1,1693,603,8.06606,-2.81212
476,421,8.26306,2.09253,0,0,0,0,0,0,0,-1,1700,603,8.26312,-2.09251
483,421,8.05322,0.798096,0,0,0,0,0,0,0,-1,1707,603,8.05323,-0.7981
490,421,7.51233,0.213074,0,0,0,0,0,0,0,-1,1714,603,7.51235,-0.213043
497,421,7.49634,-2.86688,0,0,0,0,0,0,0,-1,1721,603,7.4963,2.86688
504,421,6.90491,-2.18671,0,0,0,0,0,0,0,-1,1728,603,6.90491,2.18669
511,421,6.31348,-1.50653,0,0,0,0,0,0,0,-1,1735,603,6.31353,1.5065
518,421,6.27588,-2.49878,0,0,0,0,0,0,0,-1,1742,603,6.2759,2.4988
525,421,27.8828,-22.1484,0,0,0,0,0,0,0,-1,1749,603,27.8828,22.1485
532,421,27.9437,-21.092,0.00475344,0.00175158,0.00257106,0.00622961,0.000275411,0.521195,0.00406438,0.0446312,1756,603,27.9437,21.092
539,421,28.0212,-20.1904,0.00394508,0.0015074,0.00203113,0.00509501,0.000357476,0.515159,0.00328401,0.0268406,1763,603,28.0213,20.1904
546,421,27.9727,-19.3719,0.0032789,0.00122111,0.00159636,0.00414922,0.000350791,0.49914,0.00265694,0.0148627,1770,603,27.9727,19.3719
553,421,27.9222,-18.4964,0.00268873,0.00118296,0.00127544,0.00341692,0.000454776,0.518772,0.0021425,0.0134363,1777,603,27.9223,18.4964
560,421,27.8805,-17.6232,0.00216766,0.00126365,0.00109095,0.00289653,0.000534776,0.589001,0.00177975,0.0161724,1784,603,27.8806,17.6232
567,421,27.8308,-16.7835,0.00184095,0.00158213,0.00112079,0.00283978,0.000583303,0.727921,0.00173181,0.0194638,1791,603,27.8308,16.7835
574,421,27.7866,-15.9418,0.00169508,0.00206882,0.00130241,0.00319769,0.000566204,0.856652,0.00197037,0.0236885,1798,603,27.7866,15.9418
581,421,27.7472,-15.0147,0.00172636,0.00272078,0.00166567,0.00396187,0.00048527,0.930439,0.00249527,0.0242906,1805,603,27.7472,15.0147
588,421,27.6871,-14.2057,0.00196554,0.00369396,0.00227675,0.005265,0.000394495,0.966788,0.00338617,0.015683,1812,603,27.6871,14.2057
595,421,27.6998,-13.3275,0.00241329,0.00489997,0.00307845,0.00697669,0.000336579,0.977324,0.00454309,0.022203,1819,603,27.6998,13.3275
602,421,27.6949,-12.3875,0,0,0,0,0,0,0,-1,1826,603,27.6949,12.3874
609,421,22.8762,-8.37524,0,0,0,0,0,0,0,-1,1833,603,22.8762,8.37525
616,421,17.7633,-4.72491,0,0,0,0,0,0,0,-1,1840,603,17.7633,4.7249
623,421,6.19885,0.376648,0,0,0,0,0,0,0,-1,1847,603,6.19881,-0.376624
630,421,6.54993,0.778748,0,0,0,0,0,0,0,-1,1854,603,6.54991,-0.778744
637,421,3.74512,1.65405,0,0,0,0,0,0,0,-1,1861,603,3.74517,-1.65407
644,421,3.58081,0.354675,0,0,0,0,0,0,0,-1,1868,603,3.58082,-0.354704
651,421,3.28687,3.66351,0,0,0,0,0,0,0,-1,1875,603,3.28688,-3.66353
658,421,0,0,0,0,0,0,0,0,0,-1,1882,603,0,0
665,421,0,0,0,0,0,0,0,0,0,-1,1889,603,0,0
672,421,0,0,0,0,0,0,0,0,0,-1,1896,603,0,0
679,421,0,0,0,0,0,0,0,0,0,-1,1903,603,0,0
686,421,0,0,0,0,0,0,0,0,0,-1,1910,603,0,0
693,421,0,0,0,0,0,0,0,0,0,-1,1917,603,0,0
700,421,0,0,0,0,0,0,0,0,0,-1,1924,603,0,0
707,421,0,0,0,0,0,0,0,0,0,-1,1931,603,0,0
714,421,0,0,0,0,0,0,0,0,0,-1,1938,603,0,0
721,421,0,0,0,0,0,0,0,0,0,-1,1945,603,0,0
728,421,0,0,0,0,0,0,0,0,0,-1,1952,603,0,0
735,421,0,0,0,0,0,0,0,0,0,-1,1959,603,0,0
742,421,0,0,0,0,0,0,0,0,0,-1,1966,603,0,0
749,421,0,0,0,0,0,0,0,0,0,-1,1973,603,0,0
756,421,0,0,0,0,0,0,0,0,0,-1,1980,603,0,0
763,421,0,0,0,0,0,0,0,0,0,-1,1987,603,0,0
770,421,0,0,0,0,0,0,0,0,0,-1,1994,603,0,0
777,421,0,0,0,0,0,0,0,0,0,-1,2001,603,0,0
784,421,0,0,0,0,0,0,0,0,0,-1,2008,603,0,0
791,421,0,0,0,0,0,0,0,0,0,-1,2015,603,0,0
798,421,0,0,0,0,0,0,0,0,0,-1,2022,603,0,0
805,421,0,0,0,0,0,0,0,0,0,-1,2029,603,0,0
812,421,0,0,0,0,0,0,0,0,0,-1,2036,603,0,0
-700,414,0,0,0,0,0,0,0,0,0,-1,524,610,0,0
-693,414,0,0,0,0,0,0,0,0,0,-1,531,610,0,0
-686,414,0,0,0,0,0,0,0,0,0,-1,538,610,0,0
-679,414,0,0,0,0,0,0,0,0,0,-1,545,610,0,0
-672,414,0,0,0,0,0,0,0,0,0,-1,552,610,0,0
-665,414,0,0,0,0,0,0,0,0,0,-1,559,610,0,0
-658,414,0,0,0,0,0,0,0,0,0,-1,566,610,0,0
-651,414,0,0,0,0,0,0,0,0,0,-1,573,610,0,0
-644,414,0,0,0,0,0,0,0,0,0,-1,580,610,0,0
-637,414,0,0,0,0,0,0,0,0,0,-1,587,610,0,0
-630,414,0,0,0,0,0,0,0,0,0,-1,594,610,0,0
-623,414,0,0,0,0,0,0,0,0,0,-1,601,610,0,0
-616,414,0,0,0,0,0,0,0,0,0,-1,608,610,0,0
-609,414,0,0,0,0,0,0,0,0,0,-1,615,610,0,0
-602,414,0,0,0,0,0,0,0,0,0,-1,622,610,0,0
-595,414,0,0,0,0,0,0,0,0,0,-1,629,610,0,0
-588,414,0,0,0,0,0,0,0,0,0,-1,636,610,0,0
-581,414,0,0,0,0,0,0,0,0,0,-1,643,610,0,0
-574,414,0,0,0,0,0,0,0,0,0,-1,650,610,0,0
-567,414,0,0,0,0,0,0,0,0,0,-1,657,610,0,0
-560,414,0,0,0,0,0,0,0,0,0,-1,664,610,0,0
-553,414,0,0,0,0,0,0,0,0,0,-1,671,610,0,0
-546,414,0,0,0,0,0,0,0,0,0,-1,678,610,0,0
-539,414,-7.50146,5.65619,0,0,0,0,0,0,0,-1,685,610,-7.50149,-5.65617
-532,414,-8.15204,4.01605,0,0,0,0,0,0,0,-1,692,610,-8.15206,-4.01606
-525,414,-3.47137,-3.27924,0,0,0,0,0,0,0,-1,699,610,-3.47136,3.27922
-518,414,-4.12909,-4.36908,0,0,0,0,0,0,0,-1,706,610,-4.12909,4.36909
-511,414,-3.92542,-4.97021,0,0,0,0,0,0,0,-1,713,610,-3.92542,4.97023
-504,414,-9.35394,-5.49896,0,0,0,0,0,0,0,-1,720,610,-9.35394,5.49898
-497,414,-9.67627,-6.54761,0,0,0,0,0,0,0,-1,727,610,-9.6763,6.5476
-490,414,-10.9006,-8.3277,0,0,0,0,0,0,0,-1,734,610,-10.9006,8.3277
-483,414,-13.6395,-12.3353,0,0,0,0,0,0,0,-1,741,610,-13.6395,12.3353
-476,414,-13.8262,-13.1616,-0.00254097,0.00198503,0.00103076,0.00220872,-0.00276466,1.35709,0.00287736,0.0245075,748,610,-13.8262,13.1616
-469,414,-13.9103,-13.9742,-0.00197642,0.00173852,0.000646874,0.00184794,-0.00208584,1.40324,0.00227255,0.0142681,755,610,-13.9103,13.9742
-462,414,-13.9208,-14.8531,-0.00130487,0.00147408,0.000307896,0.00150778,-0.00133857,1.46176,0.00164431,0.0214786,762,610,-13.9208,14.8531
-455,414,-13.9763,-15.7277,-0.000649423,0.0012111,-7.05115e-06,0.00121113,-0.00064945,-1.56701,0.0010904,0.0259447,769,610,-13.9763,15.7277
-448,414,-14.0377,-16.5818,8.70763e-05,0.00106572,-0.000344218,0.00117466,-2.18676e-05,-1.26427,0.000790499,0.0266813,776,610,-14.0377,16.5818
-441,414,-14.0595,-17.4739,0.000832144,0.00100562,-0.000678646,0.00160305,0.000234715,-0.848958,0.000999687,0.0187027,783,610,-14.0595,17.4739
-434,414,-14.1259,-18.3423,0.00156291,0.00106233,-0.00102169,0.00236452,0.00026072,-0.665276,0.00149703,0.0105305,790,610,-14.1259,18.3424
-427,414,-14.1602,-19.1826,0.00234842,0.00131443,-0.00146646,0.00338635,0.0002765,-0.615927,0.00217128,0.011393,797,610,-14.1601,19.1826
-420,414,-14.1876,-20.0108,0.00313561,0.00169751,-0.00192353,0.00447009,0.000363024,-0.606531,0.00286672,0.0106957,804,610,-14.1875,20.0108
-413,414,-14.2604,-20.8857,0.00391343,0.0022798,-0.00236192,0.00559578,0.000597446,-0.618922,0.00354818,0.0121319,811,610,-14.2604,20.8857
-406,414,-14.2762,-21.8943,0.00480763,0.0032477,-0.0030232,0.00714986,0.000905471,-0.659154,0.00449525,0.0383881,818,610,-14.2762,21.8943
-399,414,-14.1397,-22.8934,0,0,0,0,0,0,0,-1,825,610,-14.1397,22.8934
-392,414,-9.43781,-14.5624,0,0,0,0,0,0,0,-1,832,610,-9.43779,14.5624
-385,414,-8.14691,-13.0653,0,0,0,0,0,0,0,-1,839,610,-8.14692,13.0653
-378,414,-8.04907,-11.3331,0,0,0,0,0,0,0,-1,846,610,-8.04905,11.3331
-371,414,-5.20886,-8.05151,0,0,0,0,0,0,0,-1,853,610,-5.20887,8.05153
-364,414,-6.76282,-6.58759,0,0,0,0,0,0,0,-1,860,610,-6.7628,6.58756
-357,414,-9.08685,-8.86188,0,0,0,0,0,0,0,-1,867,610,-9.08688,8.86187
-350,414,-6.4502,-2.41821,0,0,0,0,0,0,0,-1,874,610,-6.45021,2.41822
-343,414,-6.80249,-2.32117,0,0,0,0,0,0,0,-1,881,610,-6.80252,2.32116
-336,414,-7.11017,-2.52026,0,0,0,0,0,0,0,-1,888,610,-7.11016,2.52026
-329,414,-7.59747,-2.70313,0,0,0,0,0,0,0,-1,895,610,-7.59747,2.70315
-322,414,-4.42236,-1.29163,0,0,0,0,0,0,0,-1,902,610,-4.42238,1.2916
-315,414,0,0,0,0,0,0,0,0,0,-1,909,610,0,0
-308,414,0,0,0,0,0,0,0,0,0,-1,916,610,0,0
-301,414,0,0,0,0,0,0,0,0,0,-1,923,610,0,0
-294,414,0,0,0,0,0,0,0,0,0,-1,930,610,0,0
-287,414,0,0,0,0,0,0,0,0,0,-1,937,610,0,0
-280,414,0,0,0,0,0,0,0,0,0,-1,944,610,0,0
-273,414,0,0,0,0,0,0,0,0,0,-1,951,610,0,0
-266,414,0,0,0,0,0,0,0,0,0,-1,958,610,0,0
-259,414,0,0,0,0,0,0,0,0,0,-1,965,610,0,0
-252,414,0,0,0,0,0,0,0,0,0,-1,972,610,0,0
-245,414,0,0,0,0,0,0,0,0,0,-1,979,610,0,0
-238,414,0,0,0,0,0,0,0,0,0,-1,986,610,0,0
-231,414,0,0,0,0,0,0,0,0,0,-1,993,610,0,0
-224,414,0,0,0,0,0,0,0,0,0,-1,1000,610,0,0
-217,414,0,0,0,0,0,0,0,0,0,-1,1007,610,0,0
-210,414,0,0,0,0,0,0,0,0,0,-1,1014,610,0,0
-203,414,0,0,0,0,0,0,0,0,0,-1,1021,610,0,0
-196,414,0,0,0,0,0,0,0,0,0,-1,1028,610,0,0
-189,414,0,0,0,0,0,0,0,0,0,-1,1035,610,0,0
-182,414,0,0,0,0,0,0,0,0,0,-1,1042,610,0,0
-175,414,0,0,0,0,0,0,0,0,0,-1,1049,610,0,0
-168,414,0,0,0,0,0,0,0,0,0,-1,1056,610,0,0
-161,414,0,0,0,0,0,0,0,0,0,-1,1063,610,0,0
-154,414,0,0,0,0,0,0,0,0,0,-1,1070,610,0,0
-147,414,0,0,0,0,0,0,0,0,0,-1,1077,610,0,0
-140,414,0,0,0,0,0,0,0,0,0,-1,1084,610,0,0
-133,414,0,0,0,0,0,0,0,0,0,-1,1091,610,0,0
-126,414,0,0,0,0,0,0,0,0,0,-1,1098,610,0,0
-119,414,0,0,0,0,0,0,0,0,0,-1,1105,610,0,0
-112,414,0,0,0,0,0,0,0,0,0,-1,1112,610,0,0
-105,414,0,0,0,0,0,0,0,0,0,-1,1119,610,0,0
-98,414,0,0,0,0,0,0,0,0,0,-1,1126,610,0,0
-91,414,0,0,0,0,0,0,0,0,0,-1,1133,610,0,0
-84,414,0,0,0,0,0,0,0,0,0,-1,1140,610,0,0
-77,414,0,0,0,0,0,0,0,0,0,-1,1147,610,0,0
-70,414,0,0,0,0,0,0,0,0,0,-1,1154,610,0,0
-63,414,0,0,0,0,0,0,0,0,0,-1,1161,610,0,0
-56,414,0,0,0,0,0,0,0,0,0,-1,1168,610,0,0
-49,414,0,0,0,0,0,0,0,0,0,-1,1175,610,0,0
-42,414,0,0,0,0,0,0,0,0,0,-1,1182,610,0,0
-35,414,0,0,0,0,0,0,0,0,0,-1,1189,610,0,0
-28,414,0,0,0,0,0,0,0,0,0,-1,1196,610,0,0
-21,414,0,0,0,0,0,0,0,0,0,-1,1203,610,0,0
-14,414,0,0,0,0,0,0,0,0,0,-1,1210,610,0,0
-7,414,0,0,0,0,0,0,0,0,0,-1,1217,610,0,0
0,414,0,0,0,0,0,0,0,0,0,-1,1224,610,0,0
7,414,0,0,0,0,0,0,0,0,0,-1,1231,610,0,0
14,414,0,0,0,0,0,0,0,0,0,-1,1238,610,0,0
21,414,0,0,0,0,0,0,0,0,0,-1,1245,610,0,0
28,414,0,0,0,0,0,0,0,0,0,-1,1252,610,0,0
35,414,0,0,0,0,0,0,0,0,0,-1,1259,610,0,0
42,414,0,0,0,0,0,0,0,0,0,-1,1266,610,0,0
49,414,0,0,0,0,0,0,0,0,0,-1,1273,610,0,0
56,414,0,0,0,0,0,0,0,0,0,-1,1280,610,0,0
63,414,0,0,0,0,0,0,0,0,0,-1,1287,610,0,0
70,414,0,0,0,0,0,0,0,0,0,-1,1294,610,0,0
77,414,0,0,0,0,0,0,0,0,0,-1,1301,610,0,0
84,414,0,0,0,0,0,0,0,0,0,-1,1308,610,0,0
91,414,0,0,0,0,0,0,0,0,0,-1,1315,610,0,0
98,414,0,0,0,0,0,0,0,0,0,-1,1322,610,0,0
105,414,0,0,0,0,0,0,0,0,0,-1,1329,610,0,0
112,414,0,0,0,0,0,0,0,0,0,-1,1336,610,0,0
119,414,0,0,0,0,0,0,0,0,0,-1,1343,610,0,0
126,414,0,0,0,0,0,0,0,0,0,-1,1350,610,0,0
133,414,0,0,0,0,0,0,0,0,0,-1,1357,610,0,0
140,414,0,0,0,0,0,0,0,0,0,-1,1364,610,0,0
147,414,0,0,0,0,0,0,0,0,0,-1,1371,610,0,0
154,414,0,0,0,0,0,0,0,0,0,-1,1378,610,0,0
161,414,0,0,0,0,0,0,0,0,0,-1,1385,610,0,0
168,414,0,0,0,0,0,0,0,0,0,-1,1392,610,0,0
175,414,0,0,0,0,0,0,0,0,0,-1,1399,610,0,0
182,414,0,0,0,0,0,0,0,0,0,-1,1406,610,0,0
189,414,0,0,0,0,0,0,0,0,0,-1,1413,610,0,0
196,414,0,0,0,0,0,0,0,0,0,-1,1420,610,0,0
203,414,0,0,0,0,0,0,0,0,0,-1,1427,610,0,0
210,414,0,0,0,0,0,0,0,0,0,-1,1434,610,0,0
217,414,0,0,0,0,0,0,0,0,0,-1,1441,610,0,0
224,414,0,0,0,0,0,0,0,0,0,-1,1448,610,0,0
231,414,0,0,0,0,0,0,0,0,0,-1,1455,610,0,0
238,414,0,0,0,0,0,0,0,0,0,-1,1462,610,0,0
245,414,0,0,0,0,0,0,0,0,0,-1,1469,610,0,0
252,414,0,0,0,0,0,0,0,0,0,-1,1476,610,0,0
259,414,0,0,0,0,0,0,0,0,0,-1,1483,610,0,0
266,414,0,0,0,0,0,0,0,0,0,-1,1490,610,0,0
273,414,0,0,0,0,0,0,0,0,0,-1,1497,610,0,0
280,414,0,0,0,0,0,0,0,0,0,-1,1504,610,0,0
287,414,0,0,0,0,0,0,0,0,0,-1,1511,610,0,0
294,414,0,0,0,0,0,0,0,0,0,-1,1518,610,0,0
301,414,0,0,0,0,0,0,0,0,0,-1,1525,610,0,0
308,414,0,0,0,0,0,0,0,0,0,-1,1532,610,0,0
315,414,0,0,0,0,0,0,0,0,0,-1,1539,610,0,0
322,414,0,0,0,0,0,0,0,0,0,-1,1546,610,0,0
329,414,0,0,0,0,0,0,0,0,0,-1,1553,610,0,0
336,414,0,0,0,0,0,0,0,0,0,-1,1560,610,0,0
343,414,0,0,0,0,0,0,0,0,0,-1,1567,610,0,0
350,414,0,0,0,0,0,0,0,0,0,-1,1574,610,0,0
357,414,0,0,0,0,0,0,0,0,0,-1,1581,610,0,0
364,414,0,0,0,0,0,0,0,0,0,-1,1588,610,0,0
371,414,0,0,0,0,0,0,0,0,0,-1,1595,610,0,0
378,414,0,0,0,0,0,0,0,0,0,-1,1602,610,0,0
385,414,0,0,0,0,0,0,0,0,0,-1,1609,610,0,0
392,414,0,0,0,0,0,0,0,0,0,-1,1616,610,0,0
399,414,0,0,0,0,0,0,0,0,0,-1,1623,610,0,0
406,414,0,0,0,0,0,0,0,0,0,-1,1630,610,0,0
413,414,0,0,0,0,0,0,0,0,0,-1,1637,610,0,0
420,414,0,0,0,0,0,0,0,0,0,-1,1644,610,0,0
427,414,0,0,0,0,0,0,0,0,0,-1,1651,610,0,0
434,414,0,0,0,0,0,0,0,0,0,-1,1658,610,0,0
441,414,7.84375,0.584412,0,0,0,0,0,0,0,-1,1665,610,7.84379,-0.584394
448,414,7.40808,1.25446,0,0,0,0,0,0,0,-1,1672,610,7.40807,-1.25446
455,414,6.3512,1.73846,0,0,0,0,0,0,0,-1,1679,610,6.3512,-1.73847
462,414,8.18103,3.22113,0,0,0,0,0,0,0,-1,1686,610,8.18108,-3.22112
469,414,8.38513,2.49579,0,0,0,0,0,0,0,-1,1693,610,8.38516,-2.49576
476,414,8.64099,1.71161,0,0,0,0,0,0,0,-1,1700,610,8.64097,-1.71164
483,414,8.62744,0.687622,0,0,0,0,0,0,0,-1,1707,610,8.62749,-0.687615
490,414,8.38831,-0.0302734,0,0,0,0,0,0,0,-1,1714,610,8.38835,0.0302913
497,414,4.71094,-0.110046,0,0,0,0,0,0,0,-1,1721,610,4.71089,0.110024
504,414,7.19568,-1.43835,0,0,0,0,0,0,0,-1,1728,610,7.19563,1.43836
511,414,5.94153,-1.28772,0,0,0,0,0,0,0,-1,1735,610,5.94151,1.28769
518,414,4.53381,-0.0996704,0,0,0,0,0,0,0,-1,1742,610,4.53378,0.0996819
525,414,6.18811,-1.64056,0,0,0,0,0,0,0,-1,1749,610,6.18814,1.64055
532,414,28.7476,-21.1721,0,0,0,0,0,0,0,-1,1756,610,28.7476,21.1721
539,414,28.8591,-20.1896,0,0,0,0,0,0,0,-1,1763,610,28.8592,20.1896
546,414,28.8099,-19.3167,0.00383867,0.00116368,0.0017544,0.00470726,0.000295094,0.459713,0.00304458,0.0183596,1770,610,28.81,19.3167
553,414,28.8107,-18.4464,0.00310261,0.00101555,0.0013396,0.00375716,0.000361,0.4545,0.00239353,0.0140032,1777,610,28.8107,18.4464
560,414,28.7593,-17.6017,0.00245899,0.0009806,0.00107406,0.00302364,0.000415949,0.484009,0.00189241,0.0169231,1784,610,28.7593,17.6017
567,414,28.6766,-16.7232,0.00201345,0.00115012,0.00101268,0.00268262,0.000480948,0.58393,0.00165161,0.0274201,1791,610,28.6766,16.7232
574,414,28.6371,-15.8596,0.00179174,0.00152216,0.00113188,0.00279683,0.000517068,0.726133,0.00171833,0.0262531,1798,610,28.6371,15.8596
581,414,28.6129,-14.9815,0.00174684,0.00205475,0.00141775,0.00332687,0.000474709,0.839482,0.00207784,0.0230047,1805,610,28.6129,14.9815
588,414,28.5712,-14.155,0.00188752,0.00291227,0.00193607,0.00440262,0.000397177,0.914756,0.00281205,0.0207407,1812,610,28.5712,14.155
595,414,28.5193,-13.1985,0.00226941,0.00399206,0.00265793,0.00592474,0.000336728,0.942088,0.0038425,0.0217802,1819,610,28.5192,13.1986
602,414,28.4618,-12.326,0.00284846,0.00541379,0.00358818,0.00794167,0.000320576,0.957055,0.00519089,0.0282183,1826,610,28.4618,12.3261
609,414,28.375,-11.4487,0,0,0,0,0,0,0,-1,1833,610,28.375,11.4487
616,414,28.6868,-10.2047,0,0,0,0,0,0,0,-1,1840,610,28.6867,10.2046
623,414,9.6969,0.0378418,0,0,0,0,0,0,0,-1,1847,610,9.69685,-0.0378644
630,414,5.47144,0.499329,0,0,0,0,0,0,0,-1,1854,610,5.47142,-0.499303
637,414,8.36707,4.16278,0,0,0,0,0,0,0,-1,1861,610,8.36709,-4.16278
644,414,5.87073,1.51422,0,0,0,0,0,0,0,-1,1868,610,5.87076,-1.51424
651,414,3.6377,0.820557,0,0,0,0,0,0,0,-1,1875,610,3.6377,-0.820543
658,414,2.29761,3.87323,0,0,0,0,0,0,0,-1,1882,610,2.29758,-3.87325
665,414,0,0,0,0,0,0,0,0,0,-1,1889,610,0,0
672,414,0,0,0,0,0,0,0,0,0,-1,1896,610,0,0
679,414,0,0,0,0,0,0,0,0,0,-1,1903,610,0,0
686,414,0,0,0,0,0,0,0,0,0,-1,1910,610,0,0
693,414,0,0,0,0,0,0,0,0,0,-1,1917,610,0,0
700,414,0,0,0,0,0,0,0,0,0,-1,1924,610,0,0
707,414,0,0,0,0,0,0,0,0,0,-1,1931,610,0,0
714,414,0,0,0,0,0,0,0,0,0,-1,1938,610,0,0
721,414,0,0,0,0,0,0,0,0,0,-1,1945,610,0,0
728,414,0,0,0,0,0,0,0,0,0,-1,1952,610,0,0
735,414,0,0,0,0,0,0,0,0,0,-1,1959,610,0,0
742,414,0,0,0,0,0,0,0,0,0,-1,1966,610,0,0
749,414,0,0,0,0,0,0,0,0,0,-1,1973,610,0,0
756,414,0,0,0,0,0,0,0,0,0,-1,1980,610,0,0
763,414,0,0,0,0,0,0,0,0,0,-1,1987,610,0,0
770,414,0,0,0,0,0,0,0,0,0,-1,1994,610,0,0
777,414,0,0,0,0,0,0,0,0,0,-1,2001,610,0,0
784,414,0,0,0,0,0,0,0,0,0,-1,2008,610,0,0
791,414,0,0,0,0,0,0,0,0,0,-1,2015,610,0,0
798,414,0,0,0,0,0,0,0,0,0,-1,2022,610,0,0
805,414,0,0,0,0,0,0,0,0,0,-1,2029,610,0,0
812,414,0,0,0,0,0,0,0,0,0,-1,2036,610,0,0
-700,407,0,0,0,0,0,0,0,0,0,-1,524,617,0,0
-693,407,0,0,0,0,0,0,0,0,0,-1,531,617,0,0
-686,407,0,0,0,0,0,0,0,0,0,-1,538,617,0,0
-679,407,0,0,0,0,0,0,0,0,0,-1,545,617,0,0
-672,407,0,0,0,0,0,0,0,0,0,-1,552,617,0,0
-665,407,0,0,0,0,0,0,0,0,0,-1,559,617,0,0
-658,407,0,0,0,0,0,0,0,0,0,-1,566,617,0,0
-651,407,0,0,0,0,0,0,0,0,0,-1,573,617,0,0
-644,407,0,0,0,0,0,0,0,0,0,-1,580,617,0,0
-637,407,0,0,0,0,0,0,0,0,0,-1,587,617,0,0
-630,407,0,0,0,0,0,0,0,0,0,-1,594,617,0,0
-623,407,0,0,0,0,0,0,0,0,0,-1,601,617,0,0
-616,407,0,0,0,0,0,0,0,0,0,-1,608,617,0,0
-609,407,0,0,0,0,0,0,0,0,0,-1,615,617,0,0
-602,407,0,0,0,0,0,0,0,0,0,-1,622,617,0,0
-595,407,0,0,0,0,0,0,0,0,0,-1,629,617,0,0
-588,407,0,0,0,0,0,0,0,0,0,-1,636,617,0,0
-581,407,0,0,0,0,0,0,0,0,0,-1,643,617,0,0
-574,407,0,0,0,0,0,0,0,0,0,-1,650,617,0,0
-567,407,0,0,0,0,0,0,0,0,0,-1,657,617,0,0
-560,407,0,0,0,0,0,0,0,0,0,-1,664,617,0,0
-553,407,0,0,0,0,0,0,0,0,0,-1,671,617,0,0
-546,407,-8.54517,-0.658142,0,0,0,0,0,0,0,-1,678,617,-8.54515,0.658112
-539,407,-6.09442,-1.01154,0,0,0,0,0,0,0,-1,685,617,-6.09441,1.01155
-532,407,-7.75665,1.62152,0,0,0,0,0,0,0,-1,692,617,-7.75667,-1.62154
-525,407,-3.78247,-2.67639,0,0,0,0,0,0,0,-1,699,617,-3.78246,2.67638
-518,407,-5.013,-5.87323,0,0,0,0,0,0,0,-1,706,617,-5.013,5.87324
-511,407,-9.42743,-4.94189,0,0,0,0,0,0,0,-1,713,617,-9.42745,4.94191
-504,407,-10.8291,-8.05927,0,0,0,0,0,0,0,-1,720,617,-10.8291,8.05927
-497,407,-9.84467,-6.81641,0,0,0,0,0,0,0,-1,727,617,-9.84468,6.8164
-490,407,-14.9086,-11.3491,0,0,0,0,0,0,0,-1,734,617,-14.9086,11.3491
-483,407,-14.5668,-12.1738,0,0,0,0,0,0,0,-1,741,617,-14.5668,12.1738
-476,407,-14.6592,-13.0565,-0.00150175,0.00149174,0.000532528,0.00158365,-0.00159366,1.39988,0.00183442,0.0165385,748,617,-14.6593,13.0565
-469,407,-14.7469,-13.9062,-0.00112485,0.00124906,0.000310685,0.00128904,-0.00116484,1.44279,0.00141736,0.0127133,755,617,-14.747,13.9062
-462,407,-14.7998,-14.8082,-0.000623075,0.00100217,8.02411e-05,0.00100612,-0.000627027,1.52158,0.00095133,0.0194683,762,617,-14.7998,14.8082
-455,407,-14.8264,-15.7248,-6.96459e-05,0.000838705,-0.000188594,0.000876305,-0.000107246,-1.37401,0.000623036,0.0226509,769,617,-14.8264,15.7248
-448,407,-14.8475,-16.5832,0.000624805,0.000783799,-0.000514654,0.00122506,0.000183545,-0.862026,0.00076292,0.0209062,776,617,-14.8475,16.5832
-441,407,-14.9123,-17.392,0.0013571,0.000815481,-0.000861754,0.00198959,0.000182987,-0.633157,0.0012698,0.0162902,783,617,-14.9123,17.392
-434,407,-14.9802,-18.2349,0.00213972,0.000997568,-0.00126868,0.00295993,0.000177362,-0.573915,0.0019169,0.0120736,790,617,-14.9802,18.2349
-427,407,-15.019,-19.1003,0.00300309,0.00138586,-0.00180744,0.00417455,0.000214401,-0.575061,0.00271439,0.0120761,797,617,-15.019,19.1003
-420,407,-15.0328,-19.9446,0.00386314,0.00191433,-0.00235507,0.00543742,0.000340049,-0.589247,0.00351708,0.0105316,804,617,-15.0328,19.9446
-413,407,-15.0747,-20.811,0.00480953,0.00275491,-0.00296301,0.00691827,0.000646172,-0.618528,0.00441259,0.0181755,811,617,-15.0747,20.811
-406,407,-15.0708,-21.695,0,0,0,0,0,0,0,-1,818,617,-15.0708,21.695
-399,407,-15.2908,-21.5002,0,0,0,0,0,0,0,-1,825,617,-15.2908,21.5002
-392,407,-8.33612,-12.195,0,0,0,0,0,0,0,-1,832,617,-8.33611,12.195
-385,407,-7.65765,-10.7744,0,0,0,0,0,0,0,-1,839,617,-7.65767,10.7744
-378,407,-6.08655,-7.42291,0,0,0,0,0,0,0,-1,846,617,-6.08652,7.42292
-371,407,-7.4007,-5.79449,0,0,0,0,0,0,0,-1,853,617,-7.40072,5.79447
-364,407,-10.0638,-6.6228,0,0,0,0,0,0,0,-1,860,617,-10.0639,6.62279
-357,407,-6.64447,-1.83337,0,0,0,0,0,0,0,-1,867,617,-6.64446,1.8334
-350,407,-7.03351,-1.77551,0,0,0,0,0,0,0,-1,874,617,-7.03349,1.77551
-343,407,-7.40967,-1.95026,0,0,0,0,0,0,0,-1,881,617,-7.40969,1.95026
-336,407,-8.10229,-2.40662,0,0,0,0,0,0,0,-1,888,617,-8.10229,2.40664
-329,407,-8.81232,-2.76331,0,0,0,0,0,0,0,-1,895,617,-8.81235,2.76331
-322,407,0,0,0,0,0,0,0,0,0,-1,902,617,0,0
-315,407,0,0,0,0,0,0,0,0,0,-1,909,617,0,0
-308,407,0,0,0,0,0,0,0,0,0,-1,916,617,0,0
-301,407,0,0,0,0,0,0,0,0,0,-1,923,617,0,0
-294,407,0,0,0,0,0,0,0,0,0,-1,930,617,0,0
-287,407,0,0,0,0,0,0,0,0,0,-1,937,617,0,0
-280,407,0,0,0,0,0,0,0,0,0,-1,944,617,0,0
-273,407,0,0,0,0,0,0,0,0,0,-1,951,617,0,0
-266,407,0,0,0,0,0,0,0,0,0,-1,958,617,0,0
-259,407,0,0,0,0,0,0,0,0,0,-1,965,617,0,0
-252,407,0,0,0,0,0,0,0,0,0,-1,972,617,0,0
-245,407,0,0,0,0,0,0,0,0,0,-1,979,617,0,0
-238,407,0,0,0,0,0,0,0,0,0,-1,986,617,0,0
-231,407,0,0,0,0,0,0,0,0,0,-1,993,617,0,0
-224,407,0,0,0,0,0,0,0,0,0,-1,1000,617,0,0
-217,407,0,0,0,0,0,0,0,0,0,-1,1007,617,0,0
-210,407,0,0,0,0,0,0,0,0,0,-1,1014,617,0,0
-203,407,0,0,0,0,0,0,0,0,0,-1,1021,617,0,0
-196,407,0,0,0,0,0,0,0,0,0,-1,1028,617,0,0
-189,407,0,0,0,0,0,0,0,0,0,-1,1035,617,0,0
-182,407,0,0,0,0,0,0,0,0,0,-1,1042,617,0,0
-175,407,0,0,0,0,0,0,0,0,0,-1,1049,617,0,0
-168,407,0,0,0,0,0,0,0,0,0,-1,1056,617,0,0
-161,407,0,0,0,0,0,0,0,0,0,-1,1063,617,0,0
-154,407,0,0,0,0,0,0,0,0,0,-1,1070,617,0,0
-147,407,0,0,0,0,0,0,0,0,0,-1,1077,617,0,0
-140,407,0,0,0,0,0,0,0,0,0,-1,1084,617,0,0
-133,407,0,0,0,0,0,0,0,0,0,-1,1091,617,0,0
-126,407,0,0,0,0,0,0,0,0,0,-1,1098,617,0,0
-119,407,0,0,0,0,0,0,0,0,0,-1,1105,617,0,0
-112,407,0,0,0,0,0,0,0,0,0,-1,1112,617,0,0
-105,407,0,0,0,0,0,0,0,0,0,-1,1119,617,0,0
-98,407,0,0,0,0,0,0,0,0,0,-1,1126,617,0,0
-91,407,0,0,0,0,0,0,0,0,0,-1,1133,617,0,0
-84,407,0,0,0,0,0,0,0,0,0,-1,1140,617,0,0
-77,407,0,0,0,0,0,0,0,0,0,-1,1147,617,0,0
-70,407,0,0,0,0,0,0,0,0,0,-1,1154,617,0,0
-63,407,0,0,0,0,0,0,0,0,0,-1,1161,617,0,0
-56,407,0,0,0,0,0,0,0,0,0,-1,1168,617,0,0
-49,407,0,0,0,0,0,0,0,0,0,-1,1175,617,0,0
-42,407,0,0,0,0,0,0,0,0,0,-1,1182,617,0,0
-35,407,0,0,0,0,0,0,0,0,0,-1,1189,617,0,0
-28,407,0,0,0,0,0,0,0,0,0,-1,1196,617,0,0
-21,407,0,0,0,0,0,0,0,0,0,-1,1203,617,0,0
-14,407,0,0,0,0,0,0,0,0,0,-1,1210,617,0,0
-7,407,0,0,0,0,0,0,0,0,0,-1,1217,617,0,0
0,407,0,0,0,0,0,0,0,0,0,-1,1224,617,0,0
7,407,0,0,0,0,0,0,0,0,0,-1,1231,617,0,0
14,407,0,0,0,0,0,0,0,0,0,-1,1238,617,0,0
21,407,0,0,0,0,0,0,0,0,0,-1,1245,617,0,0
28,407,0,0,0,0,0,0,0,0,0,-1,1252,617,0,0
35,407,0,0,0,0,0,0,0,0,0,-1,1259,617,0,0
42,407,0,0,0,0,0,0,0,0,0,-1,1266,617,0,0
49,407,0,0,0,0,0,0,0,0,0,-1,1273,617,0,0
56,407,0,0,0,0,0,0,0,0,0,-1,1280,617,0,0
63,407,0,0,0,0,0,0,0,0,0,-1,1287,617,0,0
70,407,0,0,0,0,0,0,0,0,0,-1,1294,617,0,0
77,407,0,0,0,0,0,0,0,0,0,-1,1301,617,0,0
84,407,0,0,0,0,0,0,0,0,0,-1,1308,617,0,0
91,407,0,0,0,0,0,0,0,0,0,-1,1315,617,0,0
98,407,0,0,0,0,0,0,0,0,0,-1,1322,617,0,0
105,407,0,0,0,0,0,0,0,0,0,-1,1329,617,0,0
112,407,0,0,0,0,0,0,0,0,0,-1,1336,617,0,0
119,407,0,0,0,0,0,0,0,0,0,-1,1343,617,0,0
126,407,0,0,0,0,0,0,0,0,0,-1,1350,617,0,0
133,407,0,0,0,0,0,0,0,0,0,-1,1357,617,0,0
140,407,0,0,0,0,0,0,0,0,0,-1,1364,617,0,0
147,407,0,0,0,0,0,0,0,0,0,-1,1371,617,0,0
154,407,0,0,0,0,0,0,0,0,0,-1,1378,617,0,0
161,407,0,0,0,0,0,0,0,0,0,-1,1385,617,0,0
168,407,0,0,0,0,0,0,0,0,0,-1,1392,617,0,0
175,407,0,0,0,0,0,0,0,0,0,-1,1399,617,0,0
182,407,0,0,0,0,0,0,0,0,0,-1,1406,617,0,0
189,407,0,0,0,0,0,0,0,0,0,-1,1413,617,0,0
196,407,0,0,0,0,0,0,0,0,0,-1,1420,617,0,0
203,407,0,0,0,0,0,0,0,0,0,-1,1427,617,0,0
210,407,0,0,0,0,0,0,0,0,0,-1,1434,617,0,0
217,407,0,0,0,0,0,0,0,0,0,-1,1441,617,0,0
224,407,0,0,0,0,0,0,0,0,0,-1,1448,617,0,0
231,407,0,0,0,0,0,0,0,0,0,-1,1455,617,0,0
238,407,0,0,0,0,0,0,0,0,0,-1,1462,617,0,0
245,407,0,0,0,0,0,0,0,0,0,-1,1469,617,0,0
252,407,0,0,0,0,0,0,0,0,0,-1,1476,617,0,0
259,407,0,0,0,0,0,0,0,0,0,-1,1483,617,0,0
266,407,0,0,0,0,0,0,0,0,0,-1,1490,617,0,0
273,407,0,0,0,0,0,0,0,0,0,-1,1497,617,0,0
280,407,0,0,0,0,0,0,0,0,0,-1,1504,617,0,0
287,407,0,0,0,0,0,0,0,0,0,-1,1511,617,0,0
294,407,0,0,0,0,0,0,0,0,0,-1,1518,617,0,0
301,407,0,0,0,0,0,0,0,0,0,-1,1525,617,0,0
308,407,0,0,0,0,0,0,0,0,0,-1,1532,617,0,0
315,407,0,0,0,0,0,0,0,0,0,-1,1539,617,0,0
322,407,0,0,0,0,0,0,0,0,0,-1,1546,617,0,0
329,407,0,0,0,0,0,0,0,0,0,-1,1553,617,0,0
336,407,0,0,0,0,0,0,0,0,0,-1,1560,617,0,0
343,407,0,0,0,0,0,0,0,0,0,-1,1567,617,0,0
350,407,0,0,0,0,0,0,0,0,0,-1,1574,617,0,0
357,407,0,0,0,0,0,0,0,0,0,-1,1581,617,0,0
364,407,0,0,0,0,0,0,0,0,0,-1,1588,617,0,0
371,407,0,0,0,0,0,0,0,0,0,-1,1595,617,0,0
378,407,0,0,0,0,0,0,0,0,0,-1,1602,617,0,0
385,407,0,0,0,0,0,0,0,0,0,-1,1609,617,0,0
392,407,0,0,0,0,0,0,0,0,0,-1,1616,617,0,0
399,407,0,0,0,0,0,0,0,0,0,-1,1623,617,0,0
406,407,0,0,0,0,0,0,0,0,0,-1,1630,617,0,0
413,407,0,0,0,0,0,0,0,0,0,-1,1637,617,0,0
420,407,0,0,0,0,0,0,0,0,0,-1,1644,617,0,0
427,407,0,0,0,0,0,0,0,0,0,-1,1651,617,0,0
434,407,0,0,0,0,0,0,0,0,0,-1,1658,617,0,0
441,407,0,0,0,0,0,0,0,0,0,-1,1665,617,0,0
448,407,7.02893,2.13843,0,0,0,0,0,0,0,-1,1672,617,7.02899,-2.13844
455,407,7.55237,2.29242,0,0,0,0,0,0,0,-1,1679,617,7.55236,-2.29244
462,407,8.2926,2.46173,0,0,0,0,0,0,0,-1,1686,617,8.29261,-2.46174
469,407,8.71509,2.22681,0,0,0,0,0,0,0,-1,1693,617,8.71511,-2.22681
476,407,8.89917,1.47766,0,0,0,0,0,0,0,-1,1700,617,8.89914,-1.47768
483,407,9.02612,0.682983,0,0,0,0,0,0,0,-1,1707,617,9.02608,-0.683004
490,407,9.12659,0.000671387,0,0,0,0,0,0,0,-1,1714,617,9.12653,-0.000675931
497,407,7.76819,0.855835,0,0,0,0,0,0,0,-1,1721,617,7.7682,-0.855865
504,407,4.69336,0.160706,0,0,0,0,0,0,0,-1,1728,617,4.69337,-0.1607
511,407,4.07104,-0.00140381,0,0,0,0,0,0,0,-1,1735,617,4.07109,0.00141425
518,407,6.09534,1.9411,0,0,0,0,0,0,0,-1,1742,617,6.09532,-1.94113
525,407,5.72534,-1.35986,0,0,0,0,0,0,0,-1,1749,617,5.72529,1.35988
532,407,18.5767,-10.6388,0,0,0,0,0,0,0,-1,1756,617,18.5766,10.6388
539,407,29.6323,-20.2477,0,0,0,0,0,0,0,-1,1763,617,29.6324,20.2477
546,407,29.7078,-19.2748,0.00417921,0.00137959,0.00199231,0.0052143,0.0003445,0.479162,0.00336725,0.0310143,1770,617,29.7078,19.2748
553,407,29.6364,-18.4115,0.00336626,0.0010683,0.00144332,0.00406209,0.000372467,0.449228,0.00259284,0.0180347,1777,617,29.6364,18.4115
560,407,29.6252,-17.5356,0.00267369,0.000875015,0.00106005,0.0031645,0.000384206,0.433618,0.00199397,0.0197963,1784,617,29.6253,17.5356
567,407,29.5613,-16.6675,0.00216396,0.00084967,0.000873905,0.00260023,0.000413403,0.46302,0.00161344,0.0347496,1791,617,29.5613,16.6676
574,407,29.5342,-15.8404,0.00190963,0.00108691,0.000918434,0.00250462,0.000491922,0.574849,0.00153232,0.0281244,1798,617,29.5342,15.8404
581,407,29.476,-14.9383,0.0018234,0.00149707,0.00113444,0.00280635,0.000514119,0.713972,0.00172525,0.0196444,1805,617,29.476,14.9383
588,407,29.3955,-14.0583,0.00190422,0.00222522,0.0015792,0.00365206,0.000477378,0.836042,0.00229221,0.0144703,1812,617,29.3955,14.0583
595,407,29.4087,-13.1993,0.00223524,0.00316061,0.00223502,0.00498034,0.000415514,0.887465,0.00319075,0.0278747,1819,617,29.4086,13.1993
602,407,29.3542,-12.2581,0.0027622,0.00437814,0.00307779,0.00675224,0.0003881,0.91376,0.00437787,0.024131,1826,617,29.3542,12.2581
609,407,29.2135,-11.3477,0.00360408,0.00592997,0.00422022,0.00914454,0.000389501,0.919844,0.00597076,0.0219668,1833,617,29.2136,11.3477
616,407,29.2552,-10.2949,0.00472565,0.00787228,0.00563436,0.0121489,0.00044906,0.921548,0.00795378,0.0383337,1840,617,29.2552,10.2949
623,407,29.5396,-9.091,0,0,0,0,0,0,0,-1,1847,617,29.5396,9.09098
630,407,7.06177,0.814575,0,0,0,0,0,0,0,-1,1854,617,7.06178,-0.814579
637,407,11.1063,0.391846,0,0,0,0,0,0,0,-1,1861,617,11.1063,-0.391862
644,407,5.09766,2.27747,0,0,0,0,0,0,0,-1,1868,617,5.09764,-2.27746
651,407,7.37524,0.0513916,0,0,0,0,0,0,0,-1,1875,617,7.3752,-0.0513923
658,407,3.76685,0.594177,0,0,0,0,0,0,0,-1,1882,617,3.76683,-0.594184
665,407,5.76123,0.375061,0,0,0,0,0,0,0,-1,1889,617,5.76118,-0.37509
672,407,0,0,0,0,0,0,0,0,0,-1,1896,617,0,0
679,407,0,0,0,0,0,0,0,0,0,-1,1903,617,0,0
686,407,0,0,0,0,0,0,0,0,0,-1,1910,617,0,0
693,407,0,0,0,0,0,0,0,0,0,-1,1917,617,0,0
700,407,0,0,0,0,0,0,0,0,0,-1,1924,617,0,0
707,407,0,0,0,0,0,0,0,0,0,-1,1931,617,0,0
714,407,0,0,0,0,0,0,0,0,0,-1,1938,617,0,0
721,407,0,0,0,0,0,0,0,0,0,-1,1945,617,0,0
728,407,0,0,0,0,0,0,0,0,0,-1,1952,617,0,0
735,407,0,0,0,0,0,0,0,0,0,-1,1959,617,0,0
742,407,0,0,0,0,0,0,0,0,0,-1,1966,617,0,0
749,407,0,0,0,0,0,0,0,0,0,-1,1973,617,0,0
756,407,0,0,0,0,0,0,0,0,0,-1,1980,617,0,0
763,407,0,0,0,0,0,0,0,0,0,-1,1987,617,0,0
770,407,0,0,0,0,0,0,0,0,0,-1,1994,617,0,0
777,407,0,0,0,0,0,0,0,0,0,-1,2001,617,0,0
784,407,0,0,0,0,0,0,0,0,0,-1,2008,617,0,0
791,407,0,0,0,0,0,0,0,0,0,-1,2015,617,0,0
798,407,0,0,0,0,0,0,0,0,0,-1,2022,617,0,0
805,407,0,0,0,0,0,0,0,0,0,-1,2029,617,0,0
812,407,0,0,0,0,0,0,0,0,0,-1,2036,617,0,0
-700,400,0,0,0,0,0,0,0,0,0,-1,524,624,0,0
-693,400,0,0,0,0,0,0,0,0,0,-1,531,624,0,0
-686,400,0,0,0,0,0,0,0,0,0,-1,538,624,0,0
-679,400,0,0,0,0,0,0,0,0,0,-1,545,624,0,0
-672,400,0,0,0,0,0,0,0,0,0,-1,552,624,0,0
-665,400,0,0,0,0,0,0,0,0,0,-1,559,624,0,0
-658,400,0,0,0,0,0,0,0,0,0,-1,566,624,0,0
-651,400,0,0,0,0,0,0,0,0,0,-1,573,624,0,0
-644,400,0,0,0,0,0,0,0,0,0,-1,580,624,0,0
-637,400,0,0,0,0,0,0,0,0,0,-1,587,624,0,0
-630,400,0,0,0,0,0,0,0,0,0,-1,594,624,0,0
-623,400,0,0,0,0,0,0,0,0,0,-1,601,624,0,0
-616,400,0,0,0,0,0,0,0,0,0,-1,608,624,0,0
-609,400,0,0,0,0,0,0,0,0,0,-1,615,624,0,0
-602,400,0,0,0,0,0,0,0,0,0,-1,622,624,0,0
-595,400,0,0,0,0,0,0,0,0,0,-1,629,624,0,0
-588,400,0,0,0,0,0,0,0,0,0,-1,636,624,0,0
-581,400,0,0,0,0,0,0,0,0,0,-1,643,624,0,0
-574,400,0,0,0,0,0,0,0,0,0,-1,650,624,0,0
-567,400,0,0,0,0,0,0,0,0,0,-1,657,624,0,0
-560,400,0,0,0,0,0,0,0,0,0,-1,664,624,0,0
-553,400,0,0,0,0,0,0,0,0,0,-1,671,624,0,0
-546,400,-8.41174,-1.4599,0,0,0,0,0,0,0,-1,678,624,-8.41173,1.45989
-539,400,-5.69104,-1.7337,0,0,0,0,0,0,0,-1,685,624,-5.69103,1.7337
-532,400,-3.03632,-2.03912,0,0,0,0,0,0,0,-1,692,624,-3.03632,2.03909
-525,400,-6.20813,-7.04071,0,0,0,0,0,0,0,-1,699,624,-6.20814,7.04071
-518,400,-5.26544,-1.58661,0,0,0,0,0,0,0,-1,706,624,-5.26544,1.58658
-511,400,-10.6307,-6.7121,0,0,0,0,0,0,0,-1,713,624,-10.6307,6.71209
-504,400,-10.2663,-6.55109,0,0,0,0,0,0,0,-1,720,624,-10.2663,6.55106
-497,400,-15.6921,-10.1431,0,0,0,0,0,0,0,-1,727,624,-15.6921,10.1431
-490,400,-15.4535,-11.1667,-0.000704123,0.00141117,0.000395245,0.00148261,-0.000775562,1.39198,0.00132489,0.0461249,734,624,-15.4535,11.1667
-483,400,-15.4664,-12.1536,-0.000763771,0.00114776,0.00032372,0.00120109,-0.000817106,1.40751,0.00117221,0.0182185,741,624,-15.4664,12.1536
-476,400,-15.5206,-13.0023,-0.000683936,0.000967142,0.000215521,0.000994811,-0.000711605,1.44311,0.000989712,0.0146582,748,624,-15.5206,13.0023
-469,400,-15.5962,-13.8832,-0.000403506,0.000759318,7.274e-05,0.00076385,-0.000408039,1.50857,0.000686907,0.0152851,755,624,-15.5962,13.8833
-462,400,-15.6344,-14.7881,-9.72806e-06,0.000552286,-0.000105475,0.000571429,-2.88708e-05,-1.39126,0.000390932,0.0200179,762,624,-15.6344,14.7881
-455,400,-15.6487,-15.663,0.00048068,0.000498733,-0.000365349,0.000855167,0.000124246,-0.797749,0.00053354,0.0210455,769,624,-15.6488,15.6629
-448,400,-15.7018,-16.5295,0.00114119,0.000550174,-0.000706218,0.00161123,8.01297e-05,-0.58725,0.00104847,0.015944,776,624,-15.7018,16.5295
-441,400,-15.781,-17.3105,0.00185376,0.000703369,-0.00109418,0.00251472,4.2412e-05,-0.543405,0.00166252,0.0158842,783,624,-15.781,17.3106
-434,400,-15.8361,-18.1396,0.0026783,0.00106047,-0.00160146,0.00366355,7.52207e-05,-0.551535,0.00241768,0.0132891,790,624,-15.8361,18.1396
-427,400,-15.8836,-19.002,0.00359541,0.00163184,-0.00225952,0.00507723,0.000150024,-0.580449,0.00333594,0.0107268,797,624,-15.8836,19.002
-420,400,-15.8521,-19.9245,0.00448195,0.00236454,-0.00292457,0.00653354,0.000312944,-0.611734,0.00425522,0.0225284,804,624,-15.8521,19.9245
-413,400,-15.8067,-20.9253,0,0,0,0,0,0,0,-1,811,624,-15.8067,20.9253
-406,400,-14.392,-18.9125,0,0,0,0,0,0,0,-1,818,624,-14.392,18.9125
-399,400,-11.0176,-13.2944,0,0,0,0,0,0,0,-1,825,624,-11.0176,13.2944
-392,400,-4.92285,-6.63354,0,0,0,0,0,0,0,-1,832,624,-4.92285,6.63354
-385,400,-3.68738,-5.04205,0,0,0,0,0,0,0,-1,839,624,-3.68736,5.04207
-378,400,-6.84064,-1.28662,0,0,0,0,0,0,0,-1,846,624,-6.84062,1.28662
-371,400,-6.98865,-1.2572,0,0,0,0,0,0,0,-1,853,624,-6.98865,1.25721
-364,400,-6.97247,-1.24133,0,0,0,0,0,0,0,-1,860,624,-6.97249,1.24135
-357,400,-7.18329,-1.23218,0,0,0,0,0,0,0,-1,867,624,-7.18327,1.2322
-350,400,-7.40186,-1.19409,0,0,0,0,0,0,0,-1,874,624,-7.40187,1.19407
-343,400,-8.09357,-1.51147,0,0,0,0,0,0,0,-1,881,624,-8.09355,1.51148
-336,400,0,0,0,0,0,0,0,0,0,-1,888,624,0,0
-329,400,0,0,0,0,0,0,0,0,0,-1,895,624,0,0
-322,400,0,0,0,0,0,0,0,0,0,-1,902,624,0,0
-315,400,0,0,0,0,0,0,0,0,0,-1,909,624,0,0
-308,400,0,0,0,0,0,0,0,0,0,-1,916,624,0,0
-301,400,0,0,0,0,0,0,0,0,0,-1,923,624,0,0
-294,400,0,0,0,0,0,0,0,0,0,-1,930,624,0,0
-287,400,0,0,0,0,0,0,0,0,0,-1,937,624,0,0
-280,400,0,0,0,0,0,0,0,0,0,-1,944,624,0,0
-273,400,0,0,0,0,0,0,0,0,0,-1,951,624,0,0
-266,400,0,0,0,0,0,0,0,0,0,-1,958,624,0,0
-259,400,0,0,0,0,0,0,0,0,0,-1,965,624,0,0
-252,400,0,0,0,0,0,0,0,0,0,-1,972,624,0,0
-245,400,0,0,0,0,0,0,0,0,0,-1,979,624,0,0
-238,400,0,0,0,0,0,0,0,0,0,-1,986,624,0,0
-231,400,0,0,0,0,0,0,0,0,0,-1,993,624,0,0
-224,400,0,0,0,0,0,0,0,0,0,-1,1000,624,0,0
-217,400,0,0,0,0,0,0,0,0,0,-1,1007,624,0,0
-210,400,0,0,0,0,0,0,0,0,0,-1,1014,624,0,0
-203,400,0,0,0,0,0,0,0,0,0,-1,1021,624,0,0
-196,400,0,0,0,0,0,0,0,0,0,-1,1028,624,0,0
-189,400,0,0,0,0,0,0,0,0,0,-1,1035,624,0,0
-182,400,0,0,0,0,0,0,0,0,0,-1,1042,624,0,0
-175,400,0,0,0,0,0,0,0,0,0,-1,1049,624,0,0
-168,400,0,0,0,0,0,0,0,0,0,-1,1056,624,0,0
-161,400,0,0,0,0,0,0,0,0,0,-1,1063,624,0,0
-154,400,0,0,0,0,0,0,0,0,0,-1,1070,624,0,0
-147,400,0,0,0,0,0,0,0,0,0,-1,1077,624,0,0
-140,400,0,0,0,0,0,0,0,0,0,-1,1084,624,0,0
-133,400,0,0,0,0,0,0,0,0,0,-1,1091,624,0,0
-126,400,0,0,0,0,0,0,0,0,0,-1,1098,624,0,0
-119,400,0,0,0,0,0,0,0,0,0,-1,1105,624,0,0
-112,400,0,0,0,0,0,0,0,0,0,-1,1112,624,0,0
-105,400,0,0,0,0,0,0,0,0,0,-1,1119,624,0,0
-98,400,0,0,0,0,0,0,0,0,0,-1,1126,624,0,0
-91,400,0,0,0,0,0,0,0,0,0,-1,1133,624,0,0
-84,400,0,0,0,0,0,0,0,0,0,-1,1140,624,0,0
-77,400,0,0,0,0,0,0,0,0,0,-1,1147,624,0,0
-70,400,0,0,0,0,0,0,0,0,0,-1,1154,624,0,0
-63,400,0,0,0,0,0,0,0,0,0,-1,1161,624,0,0
-56,400,0,0,0,0,0,0,0,0,0,-1,1168,624,0,0
-49,400,0,0,0,0,0,0,0,0,0,-1,1175,624,0,0
-42,400,0,0,0,0,0,0,0,0,0,-1,1182,624,0,0
-35,400,0,0,0,0,0,0,0,0,0,-1,1189,624,0,0
-28,400,0,0,0,0,0,0,0,0,0,-1,1196,624,0,0
-21,400,0,0,0,0,0,0,0,0,0,-1,1203,624,0,0
-14,400,0,0,0,0,0,0,0,0,0,-1,1210,624,0,0
-7,400,0,0,0,0,0,0,0,0,0,-1,1217,624,0,0
0,400,0,0,0,0,0,0,0,0,0,-1,1224,624,0,0
7,400,0,0,0,0,0,0,0,0,0,-1,1231,624,0,0
14,400,0,0,0,0,0,0,0,0,0,-1,1238,624,0,0
21,400,0,0,0,0,0,0,0,0,0,-1,1245,624,0,0
28,400,0,0,0,0,0,0,0,0,0,-1,1252,624,0,0
35,400,0,0,0,0,0,0,0,0,0,-1,1259,624,0,0
42,400,0,0,0,0,0,0,0,0,0,-1,1266,624,0,0
49,400,0,0,0,0,0,0,0,0,0,-1,1273,624,0,0
56,400,0,0,0,0,0,0,0,0,0,-1,1280,624,0,0
63,400,0,0,0,0,0,0,0,0,0,-1,1287,624,0,0
70,400,0,0,0,0,0,0,0,0,0,-1,1294,624,0,0
77,400,0,0,0,0,0,0,0,0,0,-1,1301,624,0,0
84,400,0,0,0,0,0,0,0,0,0,-1,1308,624,0,0
91,400,0,0,0,0,0,0,0,0,0,-1,1315,624,0,0
98,400,0,0,0,0,0,0,0,0,0,-1,1322,624,0,0
105,400,0,0,0,0,0,0,0,0,0,-1,1329,624,0,0
112,400,0,0,0,0,0,0,0,0,0,-1,1336,624,0,0
119,400,0,0,0,0,0,0,0,0,0,-1,1343,624,0,0
126,400,0,0,0,0,0,0,0,0,0,-1,1350,624,0,0
133,400,0,0,0,0,0,0,0,0,0,-1,1357,624,0,0
140,400,0,0,0,0,0,0,0,0,0,-1,1364,624,0,0
147,400,0,0,0,0,0,0,0,0,0,-1,1371,624,0,0
154,400,0,0,0,0,0,0,0,0,0,-1,1378,624,0,0
161,400,0,0,0,0,0,0,0,0,0,-1,1385,624,0,0
168,400,0,0,0,0,0,0,0,0,0,-1,1392,624,0,0
175,400,0,0,0,0,0,0,0,0,0,-1,1399,624,0,0
182,400,0,0,0,0,0,0,0,0,0,-1,1406,624,0,0
189,400,0,0,0,0,0,0,0,0,0,-1,1413,624,0,0
196,400,0,0,0,0,0,0,0,0,0,-1,1420,624,0,0
203,400,0,0,0,0,0,0,0,0,0,-1,1427,624,0,0
210,400,0,0,0,0,0,0,0,0,0,-1,1434,624,0,0
217,400,0,0,0,0,0,0,0,0,0,-1,1441,624,0,0
224,400,0,0,0,0,0,0,0,0,0,-1,1448,624,0,0
231,400,0,0,0,0,0,0,0,0,0,-1,1455,624,0,0
238,400,0,0,0,0,0,0,0,0,0,-1,1462,624,0,0
245,400,0,0,0,0,0,0,0,0,0,-1,1469,624,0,0
252,400,0,0,0,0,0,0,0,0,0,-1,1476,624,0,0
259,400,0,0,0,0,0,0,0,0,0,-1,1483,624,0,0
266,400,0,0,0,0,0,0,0,0,0,-1,1490,624,0,0
273,400,0,0,0,0,0,0,0,0,0,-1,1497,624,0,0
280,400,0,0,0,0,0,0,0,0,0,-1,1504,624,0,0
287,400,0,0,0,0,0,0,0,0,0,-1,1511,624,0,0
294,400,0,0,0,0,0,0,0,0,0,-1,1518,624,0,0
301,400,0,0,0,0,0,0,0,0,0,-1,1525,624,0,0
308,400,0,0,0,0,0,0,0,0,0,-1,1532,624,0,0
315,400,0,0,0,0,0,0,0,0,0,-1,1539,624,0,0
322,400,0,0,0,0,0,0,0,0,0,-1,1546,624,0,0
329,400,0,0,0,0,0,0,0,0,0,-1,1553,624,0,0
336,400,0,0,0,0,0,0,0,0,0,-1,1560,624,0,0
343,400,0,0,0,0,0,0,0,0,0,-1,1567,624,0,0
350,400,0,0,0,0,0,0,0,0,0,-1,1574,624,0,0
357,400,0,0,0,0,0,0,0,0,0,-1,1581,624,0,0
364,400,0,0,0,0,0,0,0,0,0,-1,1588,624,0,0
371,400,0,0,0,0,0,0,0,0,0,-1,1595,624,0,0
378,400,0,0,0,0,0,0,0,0,0,-1,1602,624,0,0
385,400,0,0,0,0,0,0,0,0,0,-1,1609,624,0,0
392,400,0,0,0,0,0,0,0,0,0,-1,1616,624,0,0
399,400,0,0,0,0,0,0,0,0,0,-1,1623,624,0,0
406,400,0,0,0,0,0,0,0,0,0,-1,1630,624,0,0
413,400,0,0,0,0,0,0,0,0,0,-1,1637,624,0,0
420,400,0,0,0,0,0,0,0,0,0,-1,1644,624,0,0
427,400,0,0,0,0,0,0,0,0,0,-1,1651,624,0,0
434,400,0,0,0,0,0,0,0,0,0,-1,1658,624,0,0
441,400,0,0,0,0,0,0,0,0,0,-1,1665,624,0,0
448,400,0,0,0,0,0,0,0,0,0,-1,1672,624,0,0
455,400,8.91309,2.75885,0,0,0,0,0,0,0,-1,1679,624,8.91312,-2.75885
462,400,8.90356,2.37878,0,0,0,0,0,0,0,-1,1686,624,8.90353,-2.37878
469,400,9.14429,1.76849,0,0,0,0,0,0,0,-1,1693,624,9.14432,-1.76847
476,400,9.23254,1.25995,0,0,0,0,0,0,0,-1,1700,624,9.23252,-1.25994
483,400,9.59766,0.562439,0,0,0,0,0,0,0,-1,1707,624,9.59771,-0.56242
490,400,9.92578,-0.213745,0,0,0,0,0,0,0,-1,1714,624,9.92579,0.21376
497,400,9.19141,0.175232,0,0,0,0,0,0,0,-1,1721,624,9.19138,-0.175209
504,400,9.23438,0.00823975,0,0,0,0,0,0,0,-1,1728,624,9.23436,-0.00823766
511,400,6.16687,3.3501,0,0,0,0,0,0,0,-1,1735,624,6.16682,-3.35007
518,400,6.55237,1.74994,0,0,0,0,0,0,0,-1,1742,624,6.55236,-1.74993
525,400,6.99731,1.08783,0,0,0,0,0,0,0,-1,1749,624,6.99736,-1.08785
532,400,6.96582,-1.74982,0,0,0,0,0,0,0,-1,1756,624,6.96585,1.74983
539,400,21.2305,-10.5841,0,0,0,0,0,0,0,-1,1763,624,21.2304,10.5841
546,400,30.2322,-19.5204,0,0,0,0,0,0,0,-1,1770,624,30.2321,19.5204
553,400,30.406,-18.3881,0.00367628,0.00139165,0.00156018,0.00446763,0.000600299,0.469402,0.00279985,0.0458922,1777,624,30.406,18.3881
560,400,30.4716,-17.4547,0.00289995,0.00105767,0.00107221,0.00339237,0.000565254,0.43052,0.00209869,0.0174653,1784,624,30.4716,17.4546
567,400,30.4392,-16.5814,0.00226484,0.000835066,0.000758651,0.00259236,0.000507544,0.407545,0.00158636,0.0200495,1791,624,30.4392,16.5813
574,400,30.3831,-15.7397,0.00192052,0.00093905,0.000732898,0.0023118,0.000547764,0.49039,0.00139494,0.0220353,1798,624,30.3831,15.7397
581,400,30.3036,-14.8735,0.00174885,0.00123051,0.000884833,0.00241169,0.000567675,0.642932,0.00145594,0.022869,1805,624,30.3036,14.8735
588,400,30.2247,-13.9478,0.00175879,0.00180332,0.00125964,0.00304089,0.000521219,0.794236,0.00187779,0.0191864,1812,624,30.2247,13.9477
595,400,30.2462,-13.0914,0.00202931,0.00255804,0.00183899,0.00415157,0.000435778,0.856788,0.0026345,0.0178034,1819,624,30.2462,13.0914
602,400,30.223,-12.2251,0.00248187,0.00352469,0.00257941,0.00563486,0.000371704,0.885126,0.00363901,0.0176109,1826,624,30.2231,12.2251
609,400,30.0767,-11.3304,0.00314914,0.00470606,0.00352273,0.00753531,0.000319886,0.894142,0.00492038,0.0169561,1833,624,30.0766,11.3304
616,400,30.0304,-10.4391,0.00405984,0.00617734,0.00468,0.00991686,0.00032032,0.89664,0.0065071,0.0197888,1840,624,30.0304,10.4392
623,400,30.0631,-9.50677,0,0,0,0,0,0,0,-1,1847,624,30.0631,9.50678
630,400,11.9432,0.09021,0,0,0,0,0,0,0,-1,1854,624,11.9432,-0.0902007
637,400,6.92896,1.01917,0,0,0,0,0,0,0,-1,1861,624,6.92899,-1.01918
644,400,8.65381,1.4599,0,0,0,0,0,0,0,-1,1868,624,8.65379,-1.45991
651,400,7.90601,0.424072,0,0,0,0,0,0,0,-1,1875,624,7.90598,-0.424097
658,400,8.69031,1.0484,0,0,0,0,0,0,0,-1,1882,624,8.6903,-1.0484
665,400,5.98438,0.522522,0,0,0,0,0,0,0,-1,1889,624,5.98442,-0.522552
672,400,0,0,0,0,0,0,0,0,0,-1,1896,624,0,0
679,400,0,0,0,0,0,0,0,0,0,-1,1903,624,0,0
686,400,0,0,0,0,0,0,0,0,0,-1,1910,624,0,0
693,400,0,0,0,0,0,0,0,0,0,-1,1917,624,0,0
700,400,0,0,0,0,0,0,0,0,0,-1,1924,624,0,0
707,400,0,0,0,0,0,0,0,0,0,-1,1931,624,0,0
714,400,0,0,0,0,0,0,0,0,0,-1,1938,624,0,0
721,400,0,0,0,0,0,0,0,0,0,-1,1945,624,0,0
728,400,0,0,0,0,0,0,0,0,0,-1,1952,624,0,0
735,400,0,0,0,0,0,0,0,0,0,-1,1959,624,0,0
742,400,0,0,0,0,0,0,0,0,0,-1,1966,624,0,0
749,400,0,0,0,0,0,0,0,0,0,-1,1973,624,0,0
756,400,0,0,0,0,0,0,0,0,0,-1,1980,624,0,0
763,400,0,0,0,0,0,0,0,0,0,-1,1987,624,0,0
770,400,0,0,0,0,0,0,0,0,0,-1,1994,624,0,0
777,400,0,0,0,0,0,0,0,0,0,-1,2001,624,0,0
784,400,0,0,0,0,0,0,0,0,0,-1,2008,624,0,0
791,400,0,0,0,0,0,0,0,0,0,-1,2015,624,0,0
798,400,0,0,0,0,0,0,0,0,0,-1,2022,624,0,0
805,400,0,0,0,0,0,0,0,0,0,-1,2029,624,0,0
812,400,0,0,0,0,0,0,0,0,0,-1,2036,624,0,0
-700,393,0,0,0,0,0,0,0,0,0,-1,524,631,0,0
-693,393,0,0,0,0,0,0,0,0,0,-1,531,631,0,0
-686,393,0,0,0,0,0,0,0,0,0,-1,538,631,0,0
-679,393,0,0,0,0,0,0,0,0,0,-1,545,631,0,0
-672,393,0,0,0,0,0,0,0,0,0,-1,552,631,0,0
-665,393,0,0,0,0,0,0,0,0,0,-1,559,631,0,0
-658,393,0,0,0,0,0,0,0,0,0,-1,566,631,0,0
-651,393,0,0,0,0,0,0,0,0,0,-1,573,631,0,0
-644,393,0,0,0,0,0,0,0,0,0,-1,580,631,0,0
-637,393,0,0,0,0,0,0,0,0,0,-1,587,631,0,0
-630,393,0,0,0,0,0,0,0,0,0,-1,594,631,0,0
-623,393,0,0,0,0,0,0,0,0,0,-1,601,631,0,0
-616,393,0,0,0,0,0,0,0,0,0,-1,608,631,0,0
-609,393,0,0,0,0,0,0,0,0,0,-1,615,631,0,0
-602,393,0,0,0,0,0,0,0,0,0,-1,622,631,0,0
-595,393,0,0,0,0,0,0,0,0,0,-1,629,631,0,0
-588,393,0,0,0,0,0,0,0,0,0,-1,636,631,0,0
-581,393,0,0,0,0,0,0,0,0,0,-1,643,631,0,0
-574,393,0,0,0,0,0,0,0,0,0,-1,650,631,0,0
-567,393,0,0,0,0,0,0,0,0,0,-1,657,631,0,0
-560,393,0,0,0,0,0,0,0,0,0,-1,664,631,0,0
-553,393,-2.35107,3.92633,0,0,0,0,0,0,0,-1,671,631,-2.35108,-3.92634
-546,393,-1.78778,2.4856,0,0,0,0,0,0,0,-1,678,631,-1.78778,-2.48557
-539,393,-5.2113,-2.20245,0,0,0,0,0,0,0,-1,685,631,-5.21128,2.20247
-532,393,-2.83643,-2.01624,0,0,0,0,0,0,0,-1,692,631,-2.83642,2.01626
-525,393,-5.9505,-0.952698,0,0,0,0,0,0,0,-1,699,631,-5.95053,0.95268
-518,393,-5.80219,-1.57739,0,0,0,0,0,0,0,-1,706,631,-5.80219,1.57738
-511,393,-6.15527,-2.09906,0,0,0,0,0,0,0,-1,713,631,-6.15526,2.09903
-504,393,-13.6063,-6.95947,0,0,0,0,0,0,0,-1,720,631,-13.6063,6.95946
-497,393,-16.3713,-10.2125,0,0,0,0,0,0,0,-1,727,631,-16.3714,10.2125
-490,393,-16.3024,-11.1631,-1.00352e-05,0.000945304,4.51404e-05,0.000947432,-1.21634e-05,1.52369,0.000635715,0.0267718,734,631,-16.3024,11.1632
-483,393,-16.3124,-12.088,-0.000125885,0.00076965,3.86996e-06,0.000769667,-0.000125902,1.56648,0.000559818,0.0209702,741,631,-16.3124,12.0879
-476,393,-16.3724,-12.9486,-9.28962e-05,0.000639223,-7.11389e-05,0.000646072,-9.97446e-05,-1.47482,0.000467523,0.0178631,748,631,-16.3724,12.9486
-469,393,-16.4352,-13.8335,0.000125075,0.000491343,-0.000183257,0.000567287,4.91319e-05,-1.17793,0.000362924,0.0136494,755,631,-16.4352,13.8335
-462,393,-16.4966,-14.7379,0.000443501,0.000332317,-0.0003368,0.000729266,4.65522e-05,-0.703606,0.000471426,0.0158557,762,631,-16.4966,14.7379
-455,393,-16.5372,-15.6251,0.000892902,0.000358813,-0.000586666,0.00127044,-1.87275e-05,-0.571817,0.000853273,0.0148382,769,631,-16.5371,15.6251
-448,393,-16.5927,-16.4715,0.00153187,0.000477712,-0.000922769,0.00206749,-5.79003e-05,-0.525913,0.00139802,0.0137998,776,631,-16.5926,16.4715
-441,393,-16.6558,-17.2707,0.00224199,0.000716117,-0.00132709,0.00300982,-5.17068e-05,-0.52452,0.002024,0.0133655,783,631,-16.6557,17.2707
-434,393,-16.7094,-18.0846,0.00313621,0.00121829,-0.001912,0.00431625,3.82464e-05,-0.552955,0.00286484,0.0132135,790,631,-16.7094,18.0846
-427,393,-16.6964,-18.9861,0.00412885,0.00192304,-0.00264601,0.00589261,0.000159288,-0.587938,0.0038764,0.0245225,797,631,-16.6964,18.9861
-420,393,-16.5847,-19.9905,0,0,0,0,0,0,0,-1,804,631,-16.5847,19.9905
-413,393,-15.0913,-18.3777,0,0,0,0,0,0,0,-1,811,631,-15.0913,18.3777
-406,393,-11.826,-12.7987,0,0,0,0,0,0,0,-1,818,631,-11.8261,12.7987
-399,393,-5.07343,-5.92365,0,0,0,0,0,0,0,-1,825,631,-5.07344,5.92364
-392,393,-2.08063,-3.02386,0,0,0,0,0,0,0,-1,832,631,-2.08063,3.02384
-385,393,-3.16931,-0.624756,0,0,0,0,0,0,0,-1,839,631,-3.16928,0.624764
-378,393,-7.33081,-0.872314,0,0,0,0,0,0,0,-1,846,631,-7.33081,0.872325
-371,393,-7.47858,-0.811096,0,0,0,0,0,0,0,-1,853,631,-7.47859,0.811075
-364,393,-7.64917,-0.662415,0,0,0,0,0,0,0,-1,860,631,-7.64917,0.662406
-357,393,-8.09686,-0.726013,0,0,0,0,0,0,0,-1,867,631,-8.09689,0.726029
-350,393,-8.38788,-0.511841,0,0,0,0,0,0,0,-1,874,631,-8.38785,0.511811
-343,393,0,0,0,0,0,0,0,0,0,-1,881,631,0,0
-336,393,0,0,0,0,0,0,0,0,0,-1,888,631,0,0
-329,393,0,0,0,0,0,0,0,0,0,-1,895,631,0,0
-322,393,0,0,0,0,0,0,0,0,0,-1,902,631,0,0
-315,393,0,0,0,0,0,0,0,0,0,-1,909,631,0,0
-308,393,0,0,0,0,0,0,0,0,0,-1,916,631,0,0
-301,393,0,0,0,0,0,0,0,0,0,-1,923,631,0,0
-294,393,0,0,0,0,0,0,0,0,0,-1,930,631,0,0
-287,393,0,0,0,0,0,0,0,0,0,-1,937,631,0,0
-280,393,0,0,0,0,0,0,0,0,0,-1,944,631,0,0
-273,393,0,0,0,0,0,0,0,0,0,-1,951,631,0,0
-266,393,0,0,0,0,0,0,0,0,0,-1,958,631,0,0
-259,393,0,0,0,0,0,0,0,0,0,-1,965,631,0,0
-252,393,0,0,0,0,0,0,0,0,0,-1,972,631,0,0
-245,393,0,0,0,0,0,0,0,0,0,-1,979,631,0,0
-238,393,0,0,0,0,0,0,0,0,0,-1,986,631,0,0
-231,393,0,0,0,0,0,0,0,0,0,-1,993,631,0,0
-224,393,0,0,0,0,0,0,0,0,0,-1,1000,631,0,0
-217,393,0,0,0,0,0,0,0,0,0,-1,1007,631,0,0
-210,393,0,0,0,0,0,0,0,0,0,-1,1014,631,0,0
-203,393,0,0,0,0,0,0,0,0,0,-1,1021,631,0,0
-196,393,0,0,0,0,0,0,0,0,0,-1,1028,631,0,0
-189,393,0,0,0,0,0,0,0,0,0,-1,1035,631,0,0
-182,393,0,0,0,0,0,0,0,0,0,-1,1042,631,0,0
-175,393,0,0,0,0,0,0,0,0,0,-1,1049,631,0,0
-168,393,0,0,0,0,0,0,0,0,0,-1,1056,631,0,0
-161,393,0,0,0,0,0,0,0,0,0,-1,1063,631,0,0
-154,393,0,0,0,0,0,0,0,0,0,-1,1070,631,0,0
-147,393,0,0,0,0,0,0,0,0,0,-1,1077,631,0,0
-140,393,0,0,0,0,0,0,0,0,0,-1,1084,631,0,0
-133,393,0,0,0,0,0,0,0,0,0,-1,1091,631,0,0
-126,393,0,0,0,0,0,0,0,0,0,-1,1098,631,0,0
-119,393,0,0,0,0,0,0,0,0,0,-1,1105,631,0,0
-112,393,0,0,0,0,0,0,0,0,0,-1,1112,631,0,0
-105,393,0,0,0,0,0,0,0,0,0,-1,1119,631,0,0
-98,393,0,0,0,0,0,0,0,0,0,-1,1126,631,0,0
-91,393,0,0,0,0,0,0,0,0,0,-1,1133,631,0,0
-84,393,0,0,0,0,0,0,0,0,0,-1,1140,631,0,0
-77,393,0,0,0,0,0,0,0,0,0,-1,1147,631,0,0
-70,393,0,0,0,0,0,0,0,0,0,-1,1154,631,0,0
-63,393,0,0,0,0,0,0,0,0,0,-1,1161,631,0,0
-56,393,0,0,0,0,0,0,0,0,0,-1,1168,631,0,0
-49,393,0,0,0,0,0,0,0,0,0,-1,1175,631,0,0
-42,393,0,0,0,0,0,0,0,0,0,-1,1182,631,0,0
-35,393,0,0,0,0,0,0,0,0,0,-1,1189,631,0,0
-28,393,0,0,0,0,0,0,0,0,0,-1,1196,631,0,0
-21,393,0,0,0,0,0,0,0,0,0,-1,1203,631,0,0
-14,393,0,0,0,0,0,0,0,0,0,-1,1210,631,0,0
-7,393,0,0,0,0,0,0,0,0,0,-1,1217,631,0,0
0,393,0,0,0,0,0,0,0,0,0,-1,1224,631,0,0
7,393,0,0,0,0,0,0,0,0,0,-1,1231,631,0,0
14,393,0,0,0,0,0,0,0,0,0,-1,1238,631,0,0
21,393,0,0,0,0,0,0,0,0,0,-1,1245,631,0,0
28,393,0,0,0,0,0,0,0,0,0,-1,1252,631,0,0
35,393,0,0,0,0,0,0,0,0,0,-1,1259,631,0,0
42,393,0,0,0,0,0,0,0,0,0,-1,1266,631,0,0
49,393,0,0,0,0,0,0,0,0,0,-1,1273,631,0,0
56,393,0,0,0,0,0,0,0,0,0,-1,1280,631,0,0
63,393,0,0,0,0,0,0,0,0,0,-1,1287,631,0,0
70,393,0,0,0,0,0,0,0,0,0,-1,1294,631,0,0
77,393,0,0,0,0,0,0,0,0,0,-1,1301,631,0,0
84,393,0,0,0,0,0,0,0,0,0,-1,1308,631,0,0
91,393,0,0,0,0,0,0,0,0,0,-1,1315,631,0,0
98,393,0,0,0,0,0,0,0,0,0,-1,1322,631,0,0
105,393,0,0,0,0,0,0,0,0,0,-1,1329,631,0,0
112,393,0,0,0,0,0,0,0,0,0,-1,1336,631,0,0
119,393,0,0,0,0,0,0,0,0,0,-1,1343,631,0,0
126,393,0,0,0,0,0,0,0,0,0,-1,1350,631,0,0
133,393,0,0,0,0,0,0,0,0,0,-1,1357,631,0,0
140,393,0,0,0,0,0,0,0,0,0,-1,1364,631,0,0
147,393,0,0,0,0,0,0,0,0,0,-1,1371,631,0,0
154,393,0,0,0,0,0,0,0,0,0,-1,1378,631,0,0
161,393,0,0,0,0,0,0,0,0,0,-1,1385,631,0,0
168,393,0,0,0,0,0,0,0,0,0,-1,1392,631,0,0
175,393,0,0,0,0,0,0,0,0,0,-1,1399,631,0,0
182,393,0,0,0,0,0,0,0,0,0,-1,1406,631,0,0
189,393,0,0,0,0,0,0,0,0,0,-1,1413,631,0,0
196,393,0,0,0,0,0,0,0,0,0,-1,1420,631,0,0
203,393,0,0,0,0,0,0,0,0,0,-1,1427,631,0,0
210,393,0,0,0,0,0,0,0,0,0,-1,1434,631,0,0
217,393,0,0,0,0,0,0,0,0,0,-1,1441,631,0,0
224,393,0,0,0,0,0,0,0,0,0,-1,1448,631,0,0
231,393,0,0,0,0,0,0,0,0,0,-1,1455,631,0,0
238,393,0,0,0,0,0,0,0,0,0,-1,1462,631,0,0
245,393,0,0,0,0,0,0,0,0,0,-1,1469,631,0,0
252,393,0,0,0,0,0,0,0,0,0,-1,1476,631,0,0
259,393,0,0,0,0,0,0,0,0,0,-1,1483,631,0,0
266,393,0,0,0,0,0,0,0,0,0,-1,1490,631,0,0
273,393,0,0,0,0,0,0,0,0,0,-1,1497,631,0,0
280,393,0,0,0,0,0,0,0,0,0,-1,1504,631,0,0
287,393,0,0,0,0,0,0,0,0,0,-1,1511,631,0,0
294,393,0,0,0,0,0,0,0,0,0,-1,1518,631,0,0
301,393,0,0,0,0,0,0,0,0,0,-1,1525,631,0,0
308,393,0,0,0,0,0,0,0,0,0,-1,1532,631,0,0
315,393,0,0,0,0,0,0,0,0,0,-1,1539,631,0,0
322,393,0,0,0,0,0,0,0,0,0,-1,1546,631,0,0
329,393,0,0,0,0,0,0,0,0,0,-1,1553,631,0,0
336,393,0,0,0,0,0,0,0,0,0,-1,1560,631,0,0
343,393,0,0,0,0,0,0,0,0,0,-1,1567,631,0,0
350,393,0,0,0,0,0,0,0,0,0,-1,1574,631,0,0
357,393,0,0,0,0,0,0,0,0,0,-1,1581,631,0,0
364,393,0,0,0,0,0,0,0,0,0,-1,1588,631,0,0
371,393,0,0,0,0,0,0,0,0,0,-1,1595,631,0,0
378,393,0,0,0,0,0,0,0,0,0,-1,1602,631,0,0
385,393,0,0,0,0,0,0,0,0,0,-1,1609,631,0,0
392,393,0,0,0,0,0,0,0,0,0,-1,1616,631,0,0
399,393,0,0,0,0,0,0,0,0,0,-1,1623,631,0,0
406,393,0,0,0,0,0,0,0,0,0,-1,1630,631,0,0
413,393,0,0,0,0,0,0,0,0,0,-1,1637,631,0,0
420,393,0,0,0,0,0,0,0,0,0,-1,1644,631,0,0
427,393,0,0,0,0,0,0,0,0,0,-1,1651,631,0,0
434,393,0,0,0,0,0,0,0,0,0,-1,1658,631,0,0
441,393,0,0,0,0,0,0,0,0,0,-1,1665,631,0,0
448,393,0,0,0,0,0,0,0,0,0,-1,1672,631,0,0
455,393,0,0,0,0,0,0,0,0,0,-1,1679,631,0,0
462,393,8.51099,1.89502,0,0,0,0,0,0,0,-1,1686,631,8.51103,-1.89504
469,393,9.39465,1.51703,0,0,0,0,0,0,0,-1,1693,631,9.39465,-1.51703
476,393,9.95569,1.185,0,0,0,0,0,0,0,-1,1700,631,9.95575,-1.18497
483,393,10.5267,0.887329,0,0,0,0,0,0,0,-1,1707,631,10.5267,-0.887321
490,393,10.9303,0.761414,0,0,0,0,0,0,0,-1,1714,631,10.9303,-0.761386
497,393,8.32153,1.88104,0,0,0,0,0,0,0,-1,1721,631,8.32148,-1.88103
504,393,9.46985,1.78711,0,0,0,0,0,0,0,-1,1728,631,9.46986,-1.78713
511,393,9.66565,-0.375977,0,0,0,0,0,0,0,-1,1735,631,9.66571,0.375949
518,393,7.01599,1.62482,0,0,0,0,0,0,0,-1,1742,631,7.01597,-1.62483
525,393,7.88245,-1.13422,0,0,0,0,0,0,0,-1,1749,631,7.88246,1.13423
532,393,7.06335,-1.18103,0,0,0,0,0,0,0,-1,1756,631,7.06332,1.18101
539,393,9.91626,-2.46301,0,0,0,0,0,0,0,-1,1763,631,9.91625,2.46302
546,393,16.4094,-8.04651,0,0,0,0,0,0,0,-1,1770,631,16.4094,8.04649
553,393,30.9917,-18.5934,0,0,0,0,0,0,0,-1,1777,631,30.9917,18.5934
560,393,31.2993,-17.4612,0.00302995,0.00129671,0.00106951,0.00353988,0.000786784,0.444905,0.00214628,0.0448033,1784,631,31.2993,17.4612
567,393,31.2726,-16.534,0.00222239,0.000839915,0.000610915,0.00245366,0.000608641,0.361896,0.00147535,0.0176824,1791,631,31.2726,16.534
574,393,31.2223,-15.6626,0.00176115,0.000803595,0.000511212,0.00198277,0.000581968,0.409075,0.00117685,0.0169032,1798,631,31.2223,15.6626
581,393,31.1428,-14.7703,0.00149681,0.00100143,0.000602436,0.00190049,0.000597751,0.59036,0.00112213,0.0189275,1805,631,31.1428,14.7703
588,393,31.0944,-13.8562,0.00146634,0.0014481,0.000915651,0.00237291,0.000541522,0.780417,0.00143589,0.0214,1812,631,31.0943,13.8562
595,393,31.1036,-13.0455,0.00172267,0.00207644,0.00142762,0.00333809,0.000461015,0.847036,0.00208875,0.0177369,1819,631,31.1036,13.0455
602,393,31.076,-12.1916,0.00216508,0.00288322,0.00208474,0.00463958,0.000408713,0.87068,0.00296622,0.0189242,1826,631,31.076,12.1916
609,393,30.991,-11.3123,0.0027577,0.00385892,0.00287321,0.0062338,0.000382819,0.880068,0.00403432,0.0175587,1833,631,30.991,11.3123
616,393,30.9253,-10.4294,0.00352324,0.00507822,0.00377917,0.00815905,0.000442417,0.886848,0.00529805,0.0159926,1840,631,30.9253,10.4294
623,393,30.9004,-9.41156,0.00441744,0.00640637,0.00478127,0.0102955,0.000528303,0.887932,0.00669452,0.0350539,1847,631,30.9004,9.41154
630,393,30.9298,-8.28815,0,0,0,0,0,0,0,-1,1854,631,30.9298,8.28812
637,393,11.4626,0.608887,0,0,0,0,0,0,0,-1,1861,631,11.4627,-0.608904
644,393,8.97583,1.30585,0,0,0,0,0,0,0,-1,1868,631,8.97586,-1.30584
651,393,11.348,0.53302,0,0,0,0,0,0,0,-1,1875,631,11.348,-0.53305
658,393,9.21338,1.50836,0,0,0,0,0,0,0,-1,1882,631,9.21338,-1.50834
665,393,6.1001,2.32129,0,0,0,0,0,0,0,-1,1889,631,6.10012,-2.3213
672,393,7.14575,2.43225,0,0,0,0,0,0,0,-1,1896,631,7.14572,-2.43222
679,393,0,0,0,0,0,0,0,0,0,-1,1903,631,0,0
686,393,0,0,0,0,0,0,0,0,0,-1,1910,631,0,0
693,393,0,0,0,0,0,0,0,0,0,-1,1917,631,0,0
700,393,0,0,0,0,0,0,0,0,0,-1,1924,631,0,0
707,393,0,0,0,0,0,0,0,0,0,-1,1931,631,0,0
714,393,0,0,0,0,0,0,0,0,0,-1,1938,631,0,0
721,393,0,0,0,0,0,0,0,0,0,-1,1945,631,0,0
728,393,0,0,0,0,0,0,0,0,0,-1,1952,631,0,0
735,393,0,0,0,0,0,0,0,0,0,-1,1959,631,0,0
742,393,0,0,0,0,0,0,0,0,0,-1,1966,631,0,0
749,393,0,0,0,0,0,0,0,0,0,-1,1973,631,0,0
756,393,0,0,0,0,0,0,0,0,0,-1,1980,631,0,0
763,393,0,0,0,0,0,0,0,0,0,-1,1987,631,0,0
770,393,0,0,0,0,0,0,0,0,0,-1,1994,631,0,0
777,393,0,0,0,0,0,0,0,0,0,-1,2001,631,0,0
784,393,0,0,0,0,0,0,0,0,0,-1,2008,631,0,0
791,393,0,0,0,0,0,0,0,0,0,-1,2015,631,0,0
798,393,0,0,0,0,0,0,0,0,0,-1,2022,631,0,0
805,393,0,0,0,0,0,0,0,0,0,-1,2029,631,0,0
812,393,0,0,0,0,0,0,0,0,0,-1,2036,631,0,0
-700,386,0,0,0,0,0,0,0,0,0,-1,524,638,0,0
-693,386,0,0,0,0,0,0,0,0,0,-1,531,638,0,0
-686,386,0,0,0,0,0,0,0,0,0,-1,538,638,0,0
-679,386,0,0,0,0,0,0,0,0,0,-1,545,638,0,0
-672,386,0,0,0,0,0,0,0,0,0,-1,552,638,0,0
-665,386,0,0,0,0,0,0,0,0,0,-1,559,638,0,0
-658,386,0,0,0,0,0,0,0,0,0,-1,566,638,0,0
-651,386,0,0,0,0,0,0,0,0,0,-1,573,638,0,0
-644,386,0,0,0,0,0,0,0,0,0,-1,580,638,0,0
-637,386,0,0,0,0,0,0,0,0,0,-1,587,638,0,0
-630,386,0,0,0,0,0,0,0,0,0,-1,594,638,0,0
-623,386,0,0,0,0,0,0,0,0,0,-1,601,638,0,0
-616,386,0,0,0,0,0,0,0,0,0,-1,608,638,0,0
-609,386,0,0,0,0,0,0,0,0,0,-1,615,638,0,0
-602,386,0,0,0,0,0,0,0,0,0,-1,622,638,0,0
-595,386,0,0,0,0,0,0,0,0,0,-1,629,638,0,0
-588,386,0,0,0,0,0,0,0,0,0,-1,636,638,0,0
-581,386,0,0,0,0,0,0,0,0,0,-1,643,638,0,0
-574,386,0,0,0,0,0,0,0,0,0,-1,650,638,0,0
-567,386,0,0,0,0,0,0,0,0,0,-1,657,638,0,0
-560,386,-3.97229,-5.13898,0,0,0,0,0,0,0,-1,664,638,-3.97232,5.13897
-553,386,-4.94244,-5.54309,0,0,0,0,0,0,0,-1,671,638,-4.94242,5.5431
-546,386,-1.78668,1.72827,0,0,0,0,0,0,0,-1,678,638,-1.78668,-1.72829
-539,386,-0.879456,-2.90009,0,0,0,0,0,0,0,-1,685,638,-0.879442,2.90008
-532,386,-5.4884,1.73328,0,0,0,0,0,0,0,-1,692,638,-5.4884,-1.73325
-525,386,-6.64148,-1.50604,0,0,0,0,0,0,0,-1,699,638,-6.64149,1.50603
-518,386,-11.1217,-4.10382,0,0,0,0,0,0,0,-1,706,638,-11.1217,4.1038
-511,386,-13.0612,-5.05151,0,0,0,0,0,0,0,-1,713,638,-13.0612,5.05149
-504,386,-17.191,-9.21509,0,0,0,0,0,0,0,-1,720,638,-17.191,9.21509
-497,386,-17.1907,-10.1635,0,0,0,0,0,0,0,-1,727,638,-17.1908,10.1635
-490,386,-17.1547,-11.1968,0.000504372,0.000611017,-0.000167696,0.000733664,0.000381725,-0.939329,0.000423697,0.013681,734,638,-17.1547,11.1968
-483,386,-17.1896,-12.0662,0.000343631,0.000521534,-0.000188121,0.000640673,0.000224492,-1.00624,0.000375371,0.017962,741,638,-17.1896,12.0662
-476,386,-17.238,-12.9149,0.000340938,0.00044352,-0.000244972,0.000642513,0.000141945,-0.888595,0.00038974,0.0170881,748,638,-17.238,12.9149
-469,386,-17.2983,-13.7791,0.000504032,0.000352079,-0.000339395,0.00077585,8.02613e-05,-0.675284,0.000492664,0.01259,755,638,-17.2983,13.7791
-462,386,-17.3618,-14.674,0.000766905,0.00024275,-0.000487033,0.0010579,-4.82422e-05,-0.538563,0.000721883,0.0119708,762,638,-17.3618,14.674
-455,386,-17.4091,-15.561,0.00119224,0.000319688,-0.000739664,0.00161471,-0.000102779,-0.518945,0.00111231,0.0132776,769,638,-17.4091,15.561
-448,386,-17.4477,-16.3854,0.00182093,0.000475999,-0.00108817,0.00242765,-0.000130719,-0.50863,0.00166372,0.012685,776,638,-17.4477,16.3854
-441,386,-17.5058,-17.2159,0.00255186,0.000777386,-0.00154378,0.0034452,-0.000115955,-0.524588,0.00233641,0.0134341,783,638,-17.5058,17.216
-434,386,-17.5332,-18.1289,0.00355673,0.00140211,-0.00225482,0.00497838,-1.95366e-05,-0.56254,0.00332545,0.0326741,790,638,-17.5332,18.1289
-427,386,-17.488,-19.1358,0,0,0,0,0,0,0,-1,797,638,-17.488,19.1358
-420,386,-14.5338,-16.0451,0,0,0,0,0,0,0,-1,804,638,-14.5338,16.0451
-413,386,-5.45691,-5.35785,0,0,0,0,0,0,0,-1,811,638,-5.45691,5.35783
-406,386,-4.51135,-4.10999,0,0,0,0,0,0,0,-1,818,638,-4.51135,4.10996
-399,386,-3.57117,-3.42126,0,0,0,0,0,0,0,-1,825,638,-3.57116,3.42129
-392,386,-4.00977,0.403625,0,0,0,0,0,0,0,-1,832,638,-4.0098,-0.403616
-385,386,-3.2406,-0.118469,0,0,0,0,0,0,0,-1,839,638,-3.24058,0.118485
-378,386,-2.55243,-1.22748,0,0,0,0,0,0,0,-1,846,638,-2.55243,1.22748
-371,386,-7.95807,-0.330261,0,0,0,0,0,0,0,-1,853,638,-7.95806,0.330284
-364,386,-8.90637,-0.665955,0,0,0,0,0,0,0,-1,860,638,-8.90635,0.665951
-357,386,-9.10364,-0.388733,0,0,0,0,0,0,0,-1,867,638,-9.10364,0.388744
-350,386,0,0,0,0,0,0,0,0,0,-1,874,638,0,0
-343,386,0,0,0,0,0,0,0,0,0,-1,881,638,0,0
-336,386,0,0,0,0,0,0,0,0,0,-1,888,638,0,0
-329,386,0,0,0,0,0,0,0,0,0,-1,895,638,0,0
-322,386,0,0,0,0,0,0,0,0,0,-1,902,638,0,0
-315,386,0,0,0,0,0,0,0,0,0,-1,909,638,0,0
-308,386,0,0,0,0,0,0,0,0,0,-1,916,638,0,0
-301,386,0,0,0,0,0,0,0,0,0,-1,923,638,0,0
-294,386,0,0,0,0,0,0,0,0,0,-1,930,638,0,0
-287,386,0,0,0,0,0,0,0,0,0,-1,937,638,0,0
-280,386,0,0,0,0,0,0,0,0,0,-1,944,638,0,0
-273,386,0,0,0,0,0,0,0,0,0,-1,951,638,0,0
-266,386,0,0,0,0,0,0,0,0,0,-1,958,638,0,0
-259,386,0,0,0,0,0,0,0,0,0,-1,965,638,0,0
-252,386,0,0,0,0,0,0,0,0,0,-1,972,638,0,0
-245,386,0,0,0,0,0,0,0,0,0,-1,979,638,0,0
-238,386,0,0,0,0,0,0,0,0,0,-1,986,638,0,0
-231,386,0,0,0,0,0,0,0,0,0,-1,993,638,0,0
-224,386,0,0,0,0,0,0,0,0,0,-1,1000,638,0,0
-217,386,0,0,0,0,0,0,0,0,0,-1,1007,638,0,0
-210,386,0,0,0,0,0,0,0,0,0,-1,1014,638,0,0
-203,386,0,0,0,0,0,0,0,0,0,-1,1021,638,0,0
-196,386,0,0,0,0,0,0,0,0,0,-1,1028,638,0,0
-189,386,0,0,0,0,0,0,0,0,0,-1,1035,638,0,0
-182,386,0,0,0,0,0,0,0,0,0,-1,1042,638,0,0
-175,386,0,0,0,0,0,0,0,0,0,-1,1049,638,0,0
-168,386,0,0,0,0,0,0,0,0,0,-1,1056,638,0,0
-161,386,0,0,0,0,0,0,0,0,0,-1,1063,638,0,0
-154,386,0,0,0,0,0,0,0,0,0,-1,1070,638,0,0
-147,386,0,0,0,0,0,0,0,0,0,-1,1077,638,0,0
-140,386,0,0,0,0,0,0,0,0,0,-1,1084,638,0,0
-133,386,0,0,0,0,0,0,0,0,0,-1,1091,638,0,0
-126,386,0,0,0,0,0,0,0,0,0,-1,1098,638,0,0
-119,386,0,0,0,0,0,0,0,0,0,-1,1105,638,0,0
-112,386,0,0,0,0,0,0,0,0,0,-1,1112,638,0,0
-105,386,0,0,0,0,0,0,0,0,0,-1,1119,638,0,0
-98,386,0,0,0,0,0,0,0,0,0,-1,1126,638,0,0
-91,386,0,0,0,0,0,0,0,0,0,-1,1133,638,0,0
-84,386,0,0,0,0,0,0,0,0,0,-1,1140,638,0,0
-77,386,0,0,0,0,0,0,0,0,0,-1,1147,638,0,0
-70,386,0,0,0,0,0,0,0,0,0,-1,1154,638,0,0
-63,386,0,0,0,0,0,0,0,0,0,-1,1161,638,0,0
-56,386,0,0,0,0,0,0,0,0,0,-1,1168,638,0,0
-49,386,0,0,0,0,0,0,0,0,0,-1,1175,638,0,0
-42,386,0,0,0,0,0,0,0,0,0,-1,1182,638,0,0
-35,386,0,0,0,0,0,0,0,0,0,-1,1189,638,0,0
-28,386,0,0,0,0,0,0,0,0,0,-1,1196,638,0,0
-21,386,0,0,0,0,0,0,0,0,0,-1,1203,638,0,0
-14,386,0,0,0,0,0,0,0,0,0,-1,1210,638,0,0
-7,386,0,0,0,0,0,0,0,0,0,-1,1217,638,0,0
0,386,0,0,0,0,0,0,0,0,0,-1,1224,638,0,0
7,386,0,0,0,0,0,0,0,0,0,-1,1231,638,0,0
14,386,0,0,0,0,0,0,0,0,0,-1,1238,638,0,0
21,386,0,0,0,0,0,0,0,0,0,-1,1245,638,0,0
28,386,0,0,0,0,0,0,0,0,0,-1,1252,638,0,0
35,386,0,0,0,0,0,0,0,0,0,-1,1259,638,0,0
42,386,0,0,0,0,0,0,0,0,0,-1,1266,638,0,0
49,386,0,0,0,0,0,0,0,0,0,-1,1273,638,0,0
56,386,0,0,0,0,0,0,0,0,0,-1,1280,638,0,0
63,386,0,0,0,0,0,0,0,0,0,-1,1287,638,0,0
70,386,0,0,0,0,0,0,0,0,0,-1,1294,638,0,0
77,386,0,0,0,0,0,0,0,0,0,-1,1301,638,0,0
84,386,0,0,0,0,0,0,0,0,0,-1,1308,638,0,0
91,386,0,0,0,0,0,0,0,0,0,-1,1315,638,0,0
98,386,0,0,0,0,0,0,0,0,0,-1,1322,638,0,0
105,386,0,0,0,0,0,0,0,0,0,-1,1329,638,0,0
112,386,0,0,0,0,0,0,0,0,0,-1,1336,638,0,0
119,386,0,0,0,0,0,0,0,0,0,-1,1343,638,0,0
126,386,0,0,0,0,0,0,0,0,0,-1,1350,638,0,0
133,386,0,0,0,0,0,0,0,0,0,-1,1357,638,0,0
140,386,0,0,0,0,0,0,0,0,0,-1,1364,638,0,0
147,386,0,0,0,0,0,0,0,0,0,-1,1371,638,0,0
154,386,0,0,0,0,0,0,0,0,0,-1,1378,638,0,0
161,386,0,0,0,0,0,0,0,0,0,-1,1385,638,0,0
168,386,0,0,0,0,0,0,0,0,0,-1,1392,638,0,0
175,386,0,0,0,0,0,0,0,0,0,-1,1399,638,0,0
182,386,0,0,0,0,0,0,0,0,0,-1,1406,638,0,0
189,386,0,0,0,0,0,0,0,0,0,-1,1413,638,0,0
196,386,0,0,0,0,0,0,0,0,0,-1,1420,638,0,0
203,386,0,0,0,0,0,0,0,0,0,-1,1427,638,0,0
210,386,0,0,0,0,0,0,0,0,0,-1,1434,638,0,0
217,386,0,0,0,0,0,0,0,0,0,-1,1441,638,0,0
224,386,0,0,0,0,0,0,0,0,0,-1,1448,638,0,0
231,386,0,0,0,0,0,0,0,0,0,-1,1455,638,0,0
238,386,0,0,0,0,0,0,0,0,0,-1,1462,638,0,0
245,386,0,0,0,0,0,0,0,0,0,-1,1469,638,0,0
252,386,0,0,0,0,0,0,0,0,0,-1,1476,638,0,0
259,386,0,0,0,0,0,0,0,0,0,-1,1483,638,0,0
266,386,0,0,0,0,0,0,0,0,0,-1,1490,638,0,0
273,386,0,0,0,0,0,0,0,0,0,-1,1497,638,0,0
280,386,0,0,0,0,0,0,0,0,0,-1,1504,638,0,0
287,386,0,0,0,0,0,0,0,0,0,-1,1511,638,0,0
294,386,0,0,0,0,0,0,0,0,0,-1,1518,638,0,0
301,386,0,0,0,0,0,0,0,0,0,-1,1525,638,0,0
308,386,0,0,0,0,0,0,0,0,0,-1,1532,638,0,0
315,386,0,0,0,0,0,0,0,0,0,-1,1539,638,0,0
322,386,0,0,0,0,0,0,0,0,0,-1,1546,638,0,0
329,386,0,0,0,0,0,0,0,0,0,-1,1553,638,0,0
336,386,0,0,0,0,0,0,0,0,0,-1,1560,638,0,0
343,386,0,0,0,0,0,0,0,0,0,-1,1567,638,0,0
350,386,0,0,0,0,0,0,0,0,0,-1,1574,638,0,0
357,386,0,0,0,0,0,0,0,0,0,-1,1581,638,0,0
364,386,0,0,0,0,0,0,0,0,0,-1,1588,638,0,0
371,386,0,0,0,0,0,0,0,0,0,-1,1595,638,0,0
378,386,0,0,0,0,0,0,0,0,0,-1,1602,638,0,0
385,386,0,0,0,0,0,0,0,0,0,-1,1609,638,0,0
392,386,0,0,0,0,0,0,0,0,0,-1,1616,638,0,0
399,386,0,0,0,0,0,0,0,0,0,-1,1623,638,0,0
406,386,0,0,0,0,0,0,0,0,0,-1,1630,638,0,0
413,386,0,0,0,0,0,0,0,0,0,-1,1637,638,0,0
420,386,0,0,0,0,0,0,0,0,0,-1,1644,638,0,0
427,386,0,0,0,0,0,0,0,0,0,-1,1651,638,0,0
434,386,0,0,0,0,0,0,0,0,0,-1,1658,638,0,0
441,386,0,0,0,0,0,0,0,0,0,-1,1665,638,0,0
448,386,0,0,0,0,0,0,0,0,0,-1,1672,638,0,0
455,386,0,0,0,0,0,0,0,0,0,-1,1679,638,0,0
462,386,0,0,0,0,0,0,0,0,0,-1,1686,638,0,0
469,386,9.84692,1.55804,0,0,0,0,0,0,0,-1,1693,638,9.84691,-1.55807
476,386,10.6145,0.986511,0,0,0,0,0,0,0,-1,1700,638,10.6145,-0.986529
483,386,11.4113,0.732971,0,0,0,0,0,0,0,-1,1707,638,11.4112,-0.732958
490,386,7.79785,1.79572,0,0,0,0,0,0,0,-1,1714,638,7.79788,-1.7957
497,386,8.96362,1.77081,0,0,0,0,0,0,0,-1,1721,638,8.96357,-1.77081
504,386,10.0555,1.69427,0,0,0,0,0,0,0,-1,1728,638,10.0555,-1.69426
511,386,11.2172,1.534,0,0,0,0,0,0,0,-1,1735,638,11.2172,-1.53398
518,386,7.41553,1.75238,0,0,0,0,0,0,0,-1,1742,638,7.41547,-1.75238
525,386,8.82422,-1.1449,0,0,0,0,0,0,0,-1,1749,638,8.82426,1.14492
532,386,10.6432,0.617371,0,0,0,0,0,0,0,-1,1756,638,10.6432,-0.617359
539,386,9.62061,-0.393616,0,0,0,0,0,0,0,-1,1763,638,9.62059,0.393634
546,386,10.7963,-2.854,0,0,0,0,0,0,0,-1,1770,638,10.7962,2.854
553,386,16.9939,-7.27942,0,0,0,0,0,0,0,-1,1777,638,16.9939,7.27944
560,386,32.0734,-17.5803,0,0,0,0,0,0,0,-1,1784,638,32.0733,17.5802
567,386,32.1166,-16.5406,0,0,0,0,0,0,0,-1,1791,638,32.1165,16.5406
574,386,32.1095,-15.5893,0.00161403,0.000779432,0.000404332,0.00177778,0.000615677,0.38481,0.00104244,0.0156072,1798,638,32.1095,15.5893
581,386,32.0237,-14.7465,0.00123603,0.000864038,0.000403607,0.00149443,0.000605632,0.569486,0.00086796,0.0168803,1805,638,32.0237,14.7465
588,386,32.0127,-13.882,0.00115337,0.00115908,0.000629343,0.00178558,0.000526876,0.787669,0.00105937,0.015366,1812,638,32.0127,13.882
595,386,31.9602,-13.0335,0.00136834,0.0016535,0.00104749,0.00256807,0.000453773,0.85304,0.00158262,0.0164836,1819,638,31.9602,13.0335
602,386,31.9071,-12.1777,0.00176649,0.00230722,0.0015919,0.00365155,0.000422157,0.869516,0.00230656,0.0175162,1826,638,31.9071,12.1777
609,386,31.8892,-11.2957,0.00227388,0.00310451,0.0022162,0.00494397,0.000434415,0.878023,0.00316114,0.0165209,1833,638,31.8891,11.2957
616,386,31.8267,-10.3684,0.00293008,0.00410134,0.00289935,0.00647361,0.000557808,0.88505,0.00414234,0.0130858,1840,638,31.8266,10.3684
623,386,31.7313,-9.48761,0.00370199,0.0052049,0.0036683,0.00819792,0.000708974,0.886426,0.00524495,0.0114587,1847,638,31.7314,9.48759
630,386,31.833,-8.58026,0.00449673,0.00635048,0.00433821,0.00985972,0.000987489,0.890642,0.00626996,0.038515,1854,638,31.833,8.58026
637,386,32.0256,-7.64777,0,0,0,0,0,0,0,-1,1861,638,32.0257,7.64776
644,386,11.6521,0.723328,0,0,0,0,0,0,0,-1,1868,638,11.6521,-0.723355
651,386,9.3866,1.31097,0,0,0,0,0,0,0,-1,1875,638,9.3866,-1.31095
658,386,12.0731,-0.00415039,0,0,0,0,0,0,0,-1,1882,638,12.0731,0.00412803
665,386,6.33167,1.78601,0,0,0,0,0,0,0,-1,1889,638,6.33171,-1.78601
672,386,7.23352,2.14435,0,0,0,0,0,0,0,-1,1896,638,7.23353,-2.14433
679,386,8.07764,2.57104,0,0,0,0,0,0,0,-1,1903,638,8.07758,-2.57103
686,386,0,0,0,0,0,0,0,0,0,-1,1910,638,0,0
693,386,0,0,0,0,0,0,0,0,0,-1,1917,638,0,0
700,386,0,0,0,0,0,0,0,0,0,-1,1924,638,0,0
707,386,0,0,0,0,0,0,0,0,0,-1,1931,638,0,0
714,386,0,0,0,0,0,0,0,0,0,-1,1938,638,0,0
721,386,0,0,0,0,0,0,0,0,0,-1,1945,638,0,0
728,386,0,0,0,0,0,0,0,0,0,-1,1952,638,0,0
735,386,0,0,0,0,0,0,0,0,0,-1,1959,638,0,0
742,386,0,0,0,0,0,0,0,0,0,-1,1966,638,0,0
749,386,0,0,0,0,0,0,0,0,0,-1,1973,638,0,0
756,386,0,0,0,0,0,0,0,0,0,-1,1980,638,0,0
763,386,0,0,0,0,0,0,0,0,0,-1,1987,638,0,0
770,386,0,0,0,0,0,0,0,0,0,-1,1994,638,0,0
777,386,0,0,0,0,0,0,0,0,0,-1,2001,638,0,0
784,386,0,0,0,0,0,0,0,0,0,-1,2008,638,0,0
791,386,0,0,0,0,0,0,0,0,0,-1,2015,638,0,0
798,386,0,0,0,0,0,0,0,0,0,-1,2022,638,0,0
805,386,0,0,0,0,0,0,0,0,0,-1,2029,638,0,0
812,386,0,0,0,0,0,0,0,0,0,-1,2036,638,0,0
-700,379,0,0,0,0,0,0,0,0,0,-1,524,645,0,0
-693,379,0,0,0,0,0,0,0,0,0,-1,531,645,0,0
-686,379,0,0,0,0,0,0,0,0,0,-1,538,645,0,0
-679,379,0,0,0,0,0,0,0,0,0,-1,545,645,0,0
-672,379,0,0,0,0,0,0,0,0,0,-1,552,645,0,0
-665,379,0,0,0,0,0,0,0,0,0,-1,559,645,0,0
-658,379,0,0,0,0,0,0,0,0,0,-1,566,645,0,0
-651,379,0,0,0,0,0,0,0,0,0,-1,573,645,0,0
-644,379,0,0,0,0,0,0,0,0,0,-1,580,645,0,0
-637,379,0,0,0,0,0,0,0,0,0,-1,587,645,0,0
-630,379,0,0,0,0,0,0,0,0,0,-1,594,645,0,0
-623,379,0,0,0,0,0,0,0,0,0,-1,601,645,0,0
-616,379,0,0,0,0,0,0,0,0,0,-1,608,645,0,0
-609,379,0,0,0,0,0,0,0,0,0,-1,615,645,0,0
-602,379,0,0,0,0,0,0,0,0,0,-1,622,645,0,0
-595,379,0,0,0,0,0,0,0,0,0,-1,629,645,0,0
-588,379,0,0,0,0,0,0,0,0,0,-1,636,645,0,0
-581,379,0,0,0,0,0,0,0,0,0,-1,643,645,0,0
-574,379,0,0,0,0,0,0,0,0,0,-1,650,645,0,0
-567,379,-8.78058,0.59668,0,0,0,0,0,0,0,-1,657,645,-8.7806,-0.596692
-560,379,-9.53485,-0.211304,0,0,0,0,0,0,0,-1,664,645,-9.53487,0.211282
-553,379,-5.17108,-4.53119,0,0,0,0,0,0,0,-1,671,645,-5.17106,4.53117
-546,379,-6.23053,-4.92102,0,0,0,0,0,0,0,-1,678,645,-6.23054,4.92105
-539,379,-0.71698,-2.19427,0,0,0,0,0,0,0,-1,685,645,-0.716959,2.19427
-532,379,-7.69611,0.217224,0,0,0,0,0,0,0,-1,692,645,-7.69614,-0.217204
-525,379,-7.09833,-1.13043,0,0,0,0,0,0,0,-1,699,645,-7.0983,1.13041
-518,379,-13.126,-5.33893,0,0,0,0,0,0,0,-1,706,645,-13.126,5.33895
-511,379,-17.8885,-8.44055,0,0,0,0,0,0,0,-1,713,645,-17.8886,8.44058
-504,379,-17.8752,-9.41681,0.00163825,0.000257065,-0.000313461,0.00170606,0.000189254,-0.213047,0.00107983,0.0359195,720,645,-17.8752,9.41679
-497,379,-17.9841,-10.2471,0.00115719,0.000393924,-0.000316783,0.00127154,0.000279579,-0.346404,0.000771573,0.0159234,727,645,-17.9841,10.2471
-490,379,-18.0109,-11.1602,0.000843562,0.000361123,-0.000274716,0.000967932,0.000236752,-0.425116,0.000582632,0.0113371,734,645,-18.0109,11.1601
-483,379,-18.0632,-12.0285,0.000653401,0.000316562,-0.000277298,0.000809418,0.000160545,-0.512491,0.000494855,0.0132784,741,645,-18.0632,12.0285
-476,379,-18.0981,-12.8568,0.000619707,0.000270335,-0.000320716,0.000810225,7.98171e-05,-0.536026,0.000515608,0.0138722,748,645,-18.0981,12.8568
-469,379,-18.1572,-13.7163,0.000752845,0.000226301,-0.000424841,0.000989375,-1.02294e-05,-0.50801,0.000663019,0.013041,755,645,-18.1572,13.7163
-462,379,-18.2302,-14.6074,0.000994461,0.000170454,-0.000596177,0.00130715,-0.000142231,-0.483043,0.000922504,0.0102068,762,645,-18.2302,14.6074
-455,379,-18.2875,-15.4608,0.00142951,0.000286965,-0.000878924,0.0019065,-0.000190027,-0.497221,0.00133885,0.0103401,769,645,-18.2875,15.4607
-448,379,-18.3061,-16.293,0.00208079,0.000486474,-0.0012749,0.00278724,-0.000219977,-0.506002,0.00193566,0.0123723,776,645,-18.3061,16.293
-441,379,-18.3358,-17.217,0.0028747,0.000869969,-0.00182936,0.00395831,-0.000213645,-0.534772,0.00271289,0.0229564,783,645,-18.3357,17.217
-434,379,-18.3154,-18.3143,0,0,0,0,0,0,0,-1,790,645,-18.3154,18.3144
-427,379,-4.16113,-4.13452,0,0,0,0,0,0,0,-1,797,645,-4.16116,4.1345
-420,379,-4.63953,-3.46869,0,0,0,0,0,0,0,-1,804,645,-4.63953,3.46872
-413,379,-4.62543,-3.7912,0,0,0,0,0,0,0,-1,811,645,-4.62541,3.79123
-406,379,-4.64063,-4.38489,0,0,0,0,0,0,0,-1,818,645,-4.64065,4.3849
-399,379,-2.93536,-1.40118,0,0,0,0,0,0,0,-1,825,645,-2.93534,1.40119
-392,379,-4.16711,-0.466003,0,0,0,0,0,0,0,-1,832,645,-4.16714,0.465992
-385,379,-3.51862,0.441101,0,0,0,0,0,0,0,-1,839,645,-3.51859,-0.441072
-378,379,-5.3504,0.212219,0,0,0,0,0,0,0,-1,846,645,-5.35038,-0.212241
-371,379,-4.32092,-0.186707,0,0,0,0,0,0,0,-1,853,645,-4.3209,0.186707
-364,379,-3.40887,-0.549805,0,0,0,0,0,0,0,-1,860,645,-3.4089,0.549802
-357,379,0,0,0,0,0,0,0,0,0,-1,867,645,0,0
-350,379,0,0,0,0,0,0,0,0,0,-1,874,645,0,0
-343,379,0,0,0,0,0,0,0,0,0,-1,881,645,0,0
-336,379,0,0,0,0,0,0,0,0,0,-1,888,645,0,0
-329,379,0,0,0,0,0,0,0,0,0,-1,895,645,0,0
-322,379,0,0,0,0,0,0,0,0,0,-1,902,645,0,0
-315,379,0,0,0,0,0,0,0,0,0,-1,909,645,0,0
-308,379,0,0,0,0,0,0,0,0,0,-1,916,645,0,0
-301,379,0,0,0,0,0,0,0,0,0,-1,923,645,0,0
-294,379,0,0,0,0,0,0,0,0,0,-1,930,645,0,0
-287,379,0,0,0,0,0,0,0,0,0,-1,937,645,0,0
-280,379,0,0,0,0,0,0,0,0,0,-1,944,645,0,0
-273,379,0,0,0,0,0,0,0,0,0,-1,951,645,0,0
-266,379,0,0,0,0,0,0,0,0,0,-1,958,645,0,0
-259,379,0,0,0,0,0,0,0,0,0,-1,965,645,0,0
-252,379,0,0,0,0,0,0,0,0,0,-1,972,645,0,0
-245,379,0,0,0,0,0,0,0,0,0,-1,979,645,0,0
-238,379,0,0,0,0,0,0,0,0,0,-1,986,645,0,0
-231,379,0,0,0,0,0,0,0,0,0,-1,993,645,0,0
-224,379,0,0,0,0,0,0,0,0,0,-1,1000,645,0,0
-217,379,0,0,0,0,0,0,0,0,0,-1,1007,645,0,0
-210,379,0,0,0,0,0,0,0,0,0,-1,1014,645,0,0
-203,379,0,0,0,0,0,0,0,0,0,-1,1021,645,0,0
-196,379,0,0,0,0,0,0,0,0,0,-1,1028,645,0,0
-189,379,0,0,0,0,0,0,0,0,0,-1,1035,645,0,0
-182,379,0,0,0,0,0,0,0,0,0,-1,1042,645,0,0
-175,379,0,0,0,0,0,0,0,0,0,-1,1049,645,0,0
-168,379,0,0,0,0,0,0,0,0,0,-1,1056,645,0,0
-161,379,0,0,0,0,0,0,0,0,0,-1,1063,645,0,0
-154,379,0,0,0,0,0,0,0,0,0,-1,1070,645,0,0
-147,379,0,0,0,0,0,0,0,0,0,-1,1077,645,0,0
-140,379,0,0,0,0,0,0,0,0,0,-1,1084,645,0,0
-133,379,0,0,0,0,0,0,0,0,0,-1,1091,645,0,0
-126,379,0,0,0,0,0,0,0,0,0,-1,1098,645,0,0
-119,379,0,0,0,0,0,0,0,0,0,-1,1105,645,0,0
-112,379,0,0,0,0,0,0,0,0,0,-1,1112,645,0,0
-105,379,0,0,0,0,0,0,0,0,0,-1,1119,645,0,0
-98,379,0,0,0,0,0,0,0,0,0,-1,1126,645,0,0
-91,379,0,0,0,0,0,0,0,0,0,-1,1133,645,0,0
-84,379,0,0,0,0,0,0,0,0,0,-1,1140,645,0,0
-77,379,0,0,0,0,0,0,0,0,0,-1,1147,645,0,0
-70,379,0,0,0,0,0,0,0,0,0,-1,1154,645,0,0
-63,379,0,0,0,0,0,0,0,0,0,-1,1161,645,0,0
-56,379,0,0,0,0,0,0,0,0,0,-1,1168,645,0,0
-49,379,0,0,0,0,0,0,0,0,0,-1,1175,645,0,0
-42,379,0,0,0,0,0,0,0,0,0,-1,1182,645,0,0
-35,379,0,0,0,0,0,0,0,0,0,-1,1189,645,0,0
-28,379,0,0,0,0,0,0,0,0,0,-1,1196,645,0,0
-21,379,0,0,0,0,0,0,0,0,0,-1,1203,645,0,0
-14,379,0,0,0,0,0,0,0,0,0,-1,1210,645,0,0
-7,379,0,0,0,0,0,0,0,0,0,-1,1217,645,0,0
0,379,0,0,0,0,0,0,0,0,0,-1,1224,645,0,0
7,379,0,0,0,0,0,0,0,0,0,-1,1231,645,0,0
14,379,0,0,0,0,0,0,0,0,0,-1,1238,645,0,0
21,379,0,0,0,0,0,0,0,0,0,-1,1245,645,0,0
28,379,0,0,0,0,0,0,0,0,0,-1,1252,645,0,0
35,379,0,0,0,0,0,0,0,0,0,-1,1259,645,0,0
42,379,0,0,0,0,0,0,0,0,0,-1,1266,645,0,0
49,379,0,0,0,0,0,0,0,0,0,-1,1273,645,0,0
56,379,0,0,0,0,0,0,0,0,0,-1,1280,645,0,0
63,379,0,0,0,0,0,0,0,0,0,-1,1287,645,0,0
70,379,0,0,0,0,0,0,0,0,0,-1,1294,645,0,0
77,379,0,0,0,0,0,0,0,0,0,-1,1301,645,0,0
84,379,0,0,0,0,0,0,0,0,0,-1,1308,645,0,0
91,379,0,0,0,0,0,0,0,0,0,-1,1315,645,0,0
98,379,0,0,0,0,0,0,0,0,0,-1,1322,645,0,0
105,379,0,0,0,0,0,0,0,0,0,-1,1329,645,0,0
112,379,0,0,0,0,0,0,0,0,0,-1,1336,645,0,0
119,379,0,0,0,0,0,0,0,0,0,-1,1343,645,0,0
126,379,0,0,0,0,0,0,0,0,0,-1,1350,645,0,0
133,379,0,0,0,0,0,0,0,0,0,-1,1357,645,0,0
140,379,0,0,0,0,0,0,0,0,0,-1,1364,645,0,0
147,379,0,0,0,0,0,0,0,0,0,-1,1371,645,0,0
154,379,0,0,0,0,0,0,0,0,0,-1,1378,645,0,0
161,379,0,0,0,0,0,0,0,0,0,-1,1385,645,0,0
168,379,0,0,0,0,0,0,0,0,0,-1,1392,645,0,0
175,379,0,0,0,0,0,0,0,0,0,-1,1399,645,0,0
182,379,0,0,0,0,0,0,0,0,0,-1,1406,645,0,0
189,379,0,0,0,0,0,0,0,0,0,-1,1413,645,0,0
196,379,0,0,0,0,0,0,0,0,0,-1,1420,645,0,0
203,379,0,0,0,0,0,0,0,0,0,-1,1427,645,0,0
210,379,0,0,0,0,0,0,0,0,0,-1,1434,645,0,0
217,379,0,0,0,0,0,0,0,0,0,-1,1441,645,0,0
224,379,0,0,0,0,0,0,0,0,0,-1,1448,645,0,0
231,379,0,0,0,0,0,0,0,0,0,-1,1455,645,0,0
238,379,0,0,0,0,0,0,0,0,0,-1,1462,645,0,0
245,379,0,0,0,0,0,0,0,0,0,-1,1469,645,0,0
252,379,0,0,0,0,0,0,0,0,0,-1,1476,645,0,0
259,379,0,0,0,0,0,0,0,0,0,-1,1483,645,0,0
266,379,0,0,0,0,0,0,0,0,0,-1,1490,645,0,0
273,379,0,0,0,0,0,0,0,0,0,-1,1497,645,0,0
280,379,0,0,0,0,0,0,0,0,0,-1,1504,645,0,0
287,379,0,0,0,0,0,0,0,0,0,-1,1511,645,0,0
294,379,0,0,0,0,0,0,0,0,0,-1,1518,645,0,0
301,379,0,0,0,0,0,0,0,0,0,-1,1525,645,0,0
308,379,0,0,0,0,0,0,0,0,0,-1,1532,645,0,0
315,379,0,0,0,0,0,0,0,0,0,-1,1539,645,0,0
322,379,0,0,0,0,0,0,0,0,0,-1,1546,645,0,0
329,379,0,0,0,0,0,0,0,0,0,-1,1553,645,0,0
336,379,0,0,0,0,0,0,0,0,0,-1,1560,645,0,0
343,379,0,0,0,0,0,0,0,0,0,-1,1567,645,0,0
350,379,0,0,0,0,0,0,0,0,0,-1,1574,645,0,0
357,379,0,0,0,0,0,0,0,0,0,-1,1581,645,0,0
364,379,0,0,0,0,0,0,0,0,0,-1,1588,645,0,0
371,379,0,0,0,0,0,0,0,0,0,-1,1595,645,0,0
378,379,0,0,0,0,0,0,0,0,0,-1,1602,645,0,0
385,379,0,0,0,0,0,0,0,0,0,-1,1609,645,0,0
392,379,0,0,0,0,0,0,0,0,0,-1,1616,645,0,0
399,379,0,0,0,0,0,0,0,0,0,-1,1623,645,0,0
406,379,0,0,0,0,0,0,0,0,0,-1,1630,645,0,0
413,379,0,0,0,0,0,0,0,0,0,-1,1637,645,0,0
420,379,0,0,0,0,0,0,0,0,0,-1,1644,645,0,0
427,379,0,0,0,0,0,0,0,0,0,-1,1651,645,0,0
434,379,0,0,0,0,0,0,0,0,0,-1,1658,645,0,0
441,379,0,0,0,0,0,0,0,0,0,-1,1665,645,0,0
448,379,0,0,0,0,0,0,0,0,0,-1,1672,645,0,0
455,379,0,0,0,0,0,0,0,0,0,-1,1679,645,0,0
462,379,0,0,0,0,0,0,0,0,0,-1,1686,645,0,0
469,379,0,0,0,0,0,0,0,0,0,-1,1693,645,0,0
476,379,11.1787,0.830383,0,0,0,0,0,0,0,-1,1700,645,11.1787,-0.830365
483,379,7.4231,1.54321,0,0,0,0,0,0,0,-1,1707,645,7.42314,-1.54324
490,379,8.52881,1.56677,0,0,0,0,0,0,0,-1,1714,645,8.52878,-1.56677
497,379,9.63599,1.49573,0,0,0,0,0,0,0,-1,1721,645,9.63604,-1.4957
504,379,10.0833,1.35229,0,0,0,0,0,0,0,-1,1728,645,10.0832,-1.35227
511,379,8.14343,1.59912,0,0,0,0,0,0,0,-1,1735,645,8.14347,-1.59912
518,379,12.7955,-0.324097,0,0,0,0,0,0,0,-1,1742,645,12.7955,0.324101
525,379,6.03711,1.10352,0,0,0,0,0,0,0,-1,1749,645,6.03711,-1.10351
532,379,8.70947,0.887817,0,0,0,0,0,0,0,-1,1756,645,8.70953,-0.887808
539,379,9.87097,0.111389,0,0,0,0,0,0,0,-1,1763,645,9.87095,-0.111395
546,379,8.42383,-0.730652,0,0,0,0,0,0,0,-1,1770,645,8.42378,0.730638
553,379,19.2905,-7.67834,0,0,0,0,0,0,0,-1,1777,645,19.2905,7.67837
560,379,22.5734,-10.4749,0,0,0,0,0,0,0,-1,1784,645,22.5734,10.4749
567,379,33.0204,-16.4755,0,0,0,0,0,0,0,-1,1791,645,33.0204,16.4755
574,379,32.9988,-15.5367,0.00145965,0.000835401,0.000258246,0.00155263,0.000742417,0.345609,0.000896696,0.0184663,1798,645,32.9987,15.5367
581,379,32.9689,-14.7027,0.00101317,0.000863737,0.000240719,0.0011905,0.000686405,0.634918,0.000690017,0.0173009,1805,645,32.9689,14.7027
588,379,32.8916,-13.8074,0.0009086,0.00102052,0.000433458,0.00140162,0.000527507,0.849596,0.00081743,0.019148,1812,645,32.8916,13.8074
595,379,32.8246,-12.9589,0.00108839,0.00140117,0.000793181,0.00205323,0.000436328,0.882734,0.00124905,0.0155938,1819,645,32.8246,12.9589
602,379,32.7916,-12.1202,0.0014415,0.00190932,0.00124738,0.00294453,0.000406286,0.878082,0.00184258,0.0176477,1826,645,32.7916,12.1202
609,379,32.7473,-11.2689,0.00185814,0.00252479,0.00173888,0.00396201,0.000420927,0.880095,0.00251281,0.0195083,1833,645,32.7473,11.2689
616,379,32.6805,-10.372,0.00239205,0.00329285,0.00224979,0.00513688,0.000548017,0.88419,0.00325732,0.0151039,1840,645,32.6805,10.372
623,379,32.6378,-9.43604,0.00304217,0.00412828,0.00283687,0.00647361,0.000696845,0.879968,0.00410323,0.012989,1847,645,32.6378,9.43606
630,379,32.5916,-8.55695,0.00366232,0.00500018,0.00333517,0.00773284,0.000929655,0.884369,0.00487498,0.0145038,1854,645,32.5916,8.55698
637,379,32.5691,-7.56091,0.00418447,0.00602209,0.00379367,0.00900663,0.00119993,0.904209,0.0056471,0.0458871,1861,645,32.5691,7.56094
644,379,32.7858,-6.42615,0,0,0,0,0,0,0,-1,1868,645,32.7858,6.42615
651,379,12.9515,0.220825,0,0,0,0,0,0,0,-1,1875,645,12.9515,-0.220814
658,379,13.7498,0.37439,0,0,0,0,0,0,0,-1,1882,645,13.7498,-0.374371
665,379,11.9719,0.353333,0,0,0,0,0,0,0,-1,1889,645,11.9719,-0.353321
672,379,7.57605,2.15326,0,0,0,0,0,0,0,-1,1896,645,7.57599,-2.15326
679,379,8.55078,2.50409,0,0,0,0,0,0,0,-1,1903,645,8.55073,-2.50406
686,379,0,0,0,0,0,0,0,0,0,-1,1910,645,0,0
693,379,0,0,0,0,0,0,0,0,0,-1,1917,645,0,0
700,379,0,0,0,0,0,0,0,0,0,-1,1924,645,0,0
707,379,0,0,0,0,0,0,0,0,0,-1,1931,645,0,0
714,379,0,0,0,0,0,0,0,0,0,-1,1938,645,0,0
721,379,0,0,0,0,0,0,0,0,0,-1,1945,645,0,0
728,379,0,0,0,0,0,0,0,0,0,-1,1952,645,0,0
735,379,0,0,0,0,0,0,0,0,0,-1,1959,645,0,0
742,379,0,0,0,0,0,0,0,0,0,-1,1966,645,0,0
749,379,0,0,0,0,0,0,0,0,0,-1,1973,645,0,0
756,379,0,0,0,0,0,0,0,0,0,-1,1980,645,0,0
763,379,0,0,0,0,0,0,0,0,0,-1,1987,645,0,0
770,379,0,0,0,0,0,0,0,0,0,-1,1994,645,0,0
777,379,0,0,0,0,0,0,0,0,0,-1,2001,645,0,0
784,379,0,0,0,0,0,0,0,0,0,-1,2008,645,0,0
791,379,0,0,0,0,0,0,0,0,0,-1,2015,645,0,0
798,379,0,0,0,0,0,0,0,0,0,-1,2022,645,0,0
805,379,0,0,0,0,0,0,0,0,0,-1,2029,645,0,0
812,379,0,0,0,0,0,0,0,0,0,-1,2036,645,0,0
-700,372,0,0,0,0,0,0,0,0,0,-1,524,652,0,0
-693,372,0,0,0,0,0,0,0,0,0,-1,531,652,0,0
-686,372,0,0,0,0,0,0,0,0,0,-1,538,652,0,0
-679,372,0,0,0,0,0,0,0,0,0,-1,545,652,0,0
-672,372,0,0,0,0,0,0,0,0,0,-1,552,652,0,0
-665,372,0,0,0,0,0,0,0,0,0,-1,559,652,0,0
-658,372,0,0,0,0,0,0,0,0,0,-1,566,652,0,0
-651,372,0,0,0,0,0,0,0,0,0,-1,573,652,0,0
-644,372,0,0,0,0,0,0,0,0,0,-1,580,652,0,0
-637,372,0,0,0,0,0,0,0,0,0,-1,587,652,0,0
-630,372,0,0,0,0,0,0,0,0,0,-1,594,652,0,0
-623,372,0,0,0,0,0,0,0,0,0,-1,601,652,0,0
-616,372,0,0,0,0,0,0,0,0,0,-1,608,652,0,0
-609,372,0,0,0,0,0,0,0,0,0,-1,615,652,0,0
-602,372,0,0,0,0,0,0,0,0,0,-1,622,652,0,0
-595,372,0,0,0,0,0,0,0,0,0,-1,629,652,0,0
-588,372,0,0,0,0,0,0,0,0,0,-1,636,652,0,0
-581,372,0,0,0,0,0,0,0,0,0,-1,643,652,0,0
-574,372,0,0,0,0,0,0,0,0,0,-1,650,652,0,0
-567,372,-7.93744,0.73407,0,0,0,0,0,0,0,-1,657,652,-7.93741,-0.734076
-560,372,-8.78552,-0.158203,0,0,0,0,0,0,0,-1,664,652,-8.78552,0.158216
-553,372,-7.95551,1.61694,0,0,0,0,0,0,0,-1,671,652,-7.95552,-1.61697
-546,372,-4.2403,-3.75372,0,0,0,0,0,0,0,-1,678,652,-4.24028,3.75369
-539,372,-7.92285,-0.0650024,0,0,0,0,0,0,0,-1,685,652,-7.92287,0.0649772
-532,372,-8.59589,-0.419556,0,0,0,0,0,0,0,-1,692,652,-8.59591,0.419539
-525,372,-8.03674,-1.36804,0,0,0,0,0,0,0,-1,699,652,-8.03676,1.36806
-518,372,-18.772,-7.50238,0,0,0,0,0,0,0,-1,706,652,-18.772,7.50237
-511,372,-18.729,-8.51355,0.00243389,7.41844e-07,-0.000424912,0.00250596,-7.13279e-05,-0.168012,0.00169492,0.0422092,713,652,-18.729,8.51354
-504,372,-18.7825,-9.32422,0.00189281,0.000167258,-0.00042496,0.00199179,6.82783e-05,-0.228835,0.00130569,0.0193789,720,652,-18.7826,9.32422
-497,372,-18.8065,-10.2504,0.00146306,0.000211257,-0.000412636,0.00158684,8.74785e-05,-0.291431,0.00102997,0.0128204,727,652,-18.8065,10.2504
-490,372,-18.8708,-11.0974,0.00115261,0.000184444,-0.000401911,0.00129771,3.93455e-05,-0.346459,0.000852326,0.012966,734,652,-18.8709,11.0973
-483,372,-18.9355,-11.9435,0.000955179,0.000146895,-0.000391352,0.00111361,-1.15343e-05,-0.384661,0.00074628,0.0120459,741,652,-18.9356,11.9435
-476,372,-18.9709,-12.7932,0.000893955,0.000134139,-0.000419562,0.00108005,-5.19584e-05,-0.417479,0.000737964,0.0135195,748,652,-18.9709,12.7932
-469,372,-19.0309,-13.6409,0.000973072,0.000148346,-0.000522707,0.00122649,-0.000105073,-0.451431,0.00085484,0.0114572,755,652,-19.0309,13.6408
-462,372,-19.0858,-14.5214,0.00115606,0.000170513,-0.000699396,0.00151885,-0.000192271,-0.478504,0.00108236,0.010228,762,652,-19.0858,14.5214
-455,372,-19.1564,-15.3812,0.00154852,0.000339411,-0.000986537,0.00210101,-0.000213074,-0.510507,0.00147683,0.0106905,769,652,-19.1564,15.3812
-448,372,-19.1773,-16.2365,0.00213793,0.000600326,-0.00139551,0.0029624,-0.000224139,-0.533627,0.00205373,0.0152478,776,652,-19.1773,16.2365
-441,372,-19.0519,-17.3365,0,0,0,0,0,0,0,-1,783,652,-19.052,17.3365
-434,372,-9.86865,-9.68494,0,0,0,0,0,0,0,-1,790,652,-9.86863,9.68492
-427,372,-4.54248,-3.56268,0,0,0,0,0,0,0,-1,797,652,-4.54247,3.56266
-420,372,-4.66168,-2.93597,0,0,0,0,0,0,0,-1,804,652,-4.66166,2.93599
-413,372,-4.74762,-3.29541,0,0,0,0,0,0,0,-1,811,652,-4.74763,3.29542
-406,372,-0.885437,-0.583923,0,0,0,0,0,0,0,-1,818,652,-0.885437,0.5839
-399,372,-3.97357,-0.825012,0,0,0,0,0,0,0,-1,825,652,-3.97359,0.825037
-392,372,-7.64337,0.173035,0,0,0,0,0,0,0,-1,832,652,-7.64337,-0.173019
-385,372,-6.48871,-0.0271606,0,0,0,0,0,0,0,-1,839,652,-6.48874,0.0271353
-378,372,-5.33044,-0.242432,0,0,0,0,0,0,0,-1,846,652,-5.33042,0.242457
-371,372,-4.40802,-0.495667,0,0,0,0,0,0,0,-1,853,652,-4.40802,0.495661
-364,372,0,0,0,0,0,0,0,0,0,-1,860,652,0,0
-357,372,0,0,0,0,0,0,0,0,0,-1,867,652,0,0
-350,372,0,0,0,0,0,0,0,0,0,-1,874,652,0,0
-343,372,0,0,0,0,0,0,0,0,0,-1,881,652,0,0
-336,372,0,0,0,0,0,0,0,0,0,-1,888,652,0,0
-329,372,0,0,0,0,0,0,0,0,0,-1,895,652,0,0
-322,372,0,0,0,0,0,0,0,0,0,-1,902,652,0,0
-315,372,0,0,0,0,0,0,0,0,0,-1,909,652,0,0
-308,372,0,0,0,0,0,0,0,0,0,-1,916,652,0,0
-301,372,0,0,0,0,0,0,0,0,0,-1,923,652,0,0
-294,372,0,0,0,0,0,0,0,0,0,-1,930,652,0,0
-287,372,0,0,0,0,0,0,0,0,0,-1,937,652,0,0
-280,372,0,0,0,0,0,0,0,0,0,-1,944,652,0,0
-273,372,0,0,0,0,0,0,0,0,0,-1,951,652,0,0
-266,372,0,0,0,0,0,0,0,0,0,-1,958,652,0,0
-259,372,0,0,0,0,0,0,0,0,0,-1,965,652,0,0
-252,372,0,0,0,0,0,0,0,0,0,-1,972,652,0,0
-245,372,0,0,0,0,0,0,0,0,0,-1,979,652,0,0
-238,372,0,0,0,0,0,0,0,0,0,-1,986,652,0,0
-231,372,0,0,0,0,0,0,0,0,0,-1,993,652,0,0
-224,372,0,0,0,0,0,0,0,0,0,-1,1000,652,0,0
-217,372,0,0,0,0,0,0,0,0,0,-1,1007,652,0,0
-210,372,0,0,0,0,0,0,0,0,0,-1,1014,652,0,0
-203,372,0,0,0,0,0,0,0,0,0,-1,1021,652,0,0
-196,372,0,0,0,0,0,0,0,0,0,-1,1028,652,0,0
-189,372,0,0,0,0,0,0,0,0,0,-1,1035,652,0,0
-182,372,0,0,0,0,0,0,0,0,0,-1,1042,652,0,0
-175,372,0,0,0,0,0,0,0,0,0,-1,1049,652,0,0
-168,372,0,0,0,0,0,0,0,0,0,-1,1056,652,0,0
-161,372,0,0,0,0,0,0,0,0,0,-1,1063,652,0,0
-154,372,0,0,0,0,0,0,0,0,0,-1,1070,652,0,0
-147,372,0,0,0,0,0,0,0,0,0,-1,1077,652,0,0
-140,372,0,0,0,0,0,0,0,0,0,-1,1084,652,0,0
-133,372,0,0,0,0,0,0,0,0,0,-1,1091,652,0,0
-126,372,0,0,0,0,0,0,0,0,0,-1,1098,652,0,0
-119,372,0,0,0,0,0,0,0,0,0,-1,1105,652,0,0
-112,372,0,0,0,0,0,0,0,0,0,-1,1112,652,0,0
-105,372,0,0,0,0,0,0,0,0,0,-1,1119,652,0,0
-98,372,0,0,0,0,0,0,0,0,0,-1,1126,652,0,0
-91,372,0,0,0,0,0,0,0,0,0,-1,1133,652,0,0
-84,372,0,0,0,0,0,0,0,0,0,-1,1140,652,0,0
-77,372,0,0,0,0,0,0,0,0,0,-1,1147,652,0,0
-70,372,0,0,0,0,0,0,0,0,0,-1,1154,652,0,0
-63,372,0,0,0,0,0,0,0,0,0,-1,1161,652,0,0
-56,372,0,0,0,0,0,0,0,0,0,-1,1168,652,0,0
-49,372,0,0,0,0,0,0,0,0,0,-1,1175,652,0,0
-42,372,0,0,0,0,0,0,0,0,0,-1,1182,652,0,0
-35,372,0,0,0,0,0,0,0,0,0,-1,1189,652,0,0
-28,372,0,0,0,0,0,0,0,0,0,-1,1196,652,0,0
-21,372,0,0,0,0,0,0,0,0,0,-1,1203,652,0,0
-14,372,0,0,0,0,0,0,0,0,0,-1,1210,652,0,0
-7,372,0,0,0,0,0,0,0,0,0,-1,1217,652,0,0
0,372,0,0,0,0,0,0,0,0,0,-1,1224,652,0,0
7,372,0,0,0,0,0,0,0,0,0,-1,1231,652,0,0
14,372,0,0,0,0,0,0,0,0,0,-1,1238,652,0,0
21,372,0,0,0,0,0,0,0,0,0,-1,1245,652,0,0
28,372,0,0,0,0,0,0,0,0,0,-1,1252,652,0,0
35,372,0,0,0,0,0,0,0,0,0,-1,1259,652,0,0
42,372,0,0,0,0,0,0,0,0,0,-1,1266,652,0,0
49,372,0,0,0,0,0,0,0,0,0,-1,1273,652,0,0
56,372,0,0,0,0,0,0,0,0,0,-1,1280,652,0,0
63,372,0,0,0,0,0,0,0,0,0,-1,1287,652,0,0
70,372,0,0,0,0,0,0,0,0,0,-1,1294,652,0,0
77,372,0,0,0,0,0,0,0,0,0,-1,1301,652,0,0
84,372,0,0,0,0,0,0,0,0,0,-1,1308,652,0,0
91,372,0,0,0,0,0,0,0,0,0,-1,1315,652,0,0
98,372,0,0,0,0,0,0,0,0,0,-1,1322,652,0,0
105,372,0,0,0,0,0,0,0,0,0,-1,1329,652,0,0
112,372,0,0,0,0,0,0,0,0,0,-1,1336,652,0,0
119,372,0,0,0,0,0,0,0,0,0,-1,1343,652,0,0
126,372,0,0,0,0,0,0,0,0,0,-1,1350,652,0,0
133,372,0,0,0,0,0,0,0,0,0,-1,1357,652,0,0
140,372,0,0,0,0,0,0,0,0,0,-1,1364,652,0,0
147,372,0,0,0,0,0,0,0,0,0,-1,1371,652,0,0
154,372,0,0,0,0,0,0,0,0,0,-1,1378,652,0,0
161,372,0,0,0,0,0,0,0,0,0,-1,1385,652,0,0
168,372,0,0,0,0,0,0,0,0,0,-1,1392,652,0,0
175,372,0,0,0,0,0,0,0,0,0,-1,1399,652,0,0
182,372,0,0,0,0,0,0,0,0,0,-1,1406,652,0,0
189,372,0,0,0,0,0,0,0,0,0,-1,1413,652,0,0
196,372,0,0,0,0,0,0,0,0,0,-1,1420,652,0,0
203,372,0,0,0,0,0,0,0,0,0,-1,1427,652,0,0
210,372,0,0,0,0,0,0,0,0,0,-1,1434,652,0,0
217,372,0,0,0,0,0,0,0,0,0,-1,1441,652,0,0
224,372,0,0,0,0,0,0,0,0,0,-1,1448,652,0,0
231,372,0,0,0,0,0,0,0,0,0,-1,1455,652,0,0
238,372,0,0,0,0,0,0,0,0,0,-1,1462,652,0,0
245,372,0,0,0,0,0,0,0,0,0,-1,1469,652,0,0
252,372,0,0,0,0,0,0,0,0,0,-1,1476,652,0,0
259,372,0,0,0,0,0,0,0,0,0,-1,1483,652,0,0
266,372,0,0,0,0,0,0,0,0,0,-1,1490,652,0,0
273,372,0,0,0,0,0,0,0,0,0,-1,1497,652,0,0
280,372,0,0,0,0,0,0,0,0,0,-1,1504,652,0,0
287,372,0,0,0,0,0,0,0,0,0,-1,1511,652,0,0
294,372,0,0,0,0,0,0,0,0,0,-1,1518,652,0,0
301,372,0,0,0,0,0,0,0,0,0,-1,1525,652,0,0
308,372,0,0,0,0,0,0,0,0,0,-1,1532,652,0,0
315,372,0,0,0,0,0,0,0,0,0,-1,1539,652,0,0
322,372,0,0,0,0,0,0,0,0,0,-1,1546,652,0,0
329,372,0,0,0,0,0,0,0,0,0,-1,1553,652,0,0
336,372,0,0,0,0,0,0,0,0,0,-1,1560,652,0,0
343,372,0,0,0,0,0,0,0,0,0,-1,1567,652,0,0
350,372,0,0,0,0,0,0,0,0,0,-1,1574,652,0,0
357,372,0,0,0,0,0,0,0,0,0,-1,1581,652,0,0
364,372,0,0,0,0,0,0,0,0,0,-1,1588,652,0,0
371,372,0,0,0,0,0,0,0,0,0,-1,1595,652,0,0
378,372,0,0,0,0,0,0,0,0,0,-1,1602,652,0,0
385,372,0,0,0,0,0,0,0,0,0,-1,1609,652,0,0
392,372,0,0,0,0,0,0,0,0,0,-1,1616,652,0,0
399,372,0,0,0,0,0,0,0,0,0,-1,1623,652,0,0
406,372,0,0,0,0,0,0,0,0,0,-1,1630,652,0,0
413,372,0,0,0,0,0,0,0,0,0,-1,1637,652,0,0
420,372,0,0,0,0,0,0,0,0,0,-1,1644,652,0,0
427,372,0,0,0,0,0,0,0,0,0,-1,1651,652,0,0
434,372,0,0,0,0,0,0,0,0,0,-1,1658,652,0,0
441,372,0,0,0,0,0,0,0,0,0,-1,1665,652,0,0
448,372,0,0,0,0,0,0,0,0,0,-1,1672,652,0,0
455,372,0,0,0,0,0,0,0,0,0,-1,1679,652,0,0
462,372,0,0,0,0,0,0,0,0,0,-1,1686,652,0,0
469,372,0,0,0,0,0,0,0,0,0,-1,1693,652,0,0
476,372,0,0,0,0,0,0,0,0,0,-1,1700,652,0,0
483,372,8.74182,1.53125,0,0,0,0,0,0,0,-1,1707,652,8.74186,-1.53126
490,372,9.78455,1.67096,0,0,0,0,0,0,0,-1,1714,652,9.7846,-1.67093
497,372,9.97644,1.46069,0,0,0,0,0,0,0,-1,1721,652,9.97647,-1.46071
504,372,10.1216,1.28375,0,0,0,0,0,0,0,-1,1728,652,10.1216,-1.28376
511,372,11.7367,-0.0272217,0,0,0,0,0,0,0,-1,1735,652,11.7367,0.0272326
518,372,12.0657,-0.0995483,0,0,0,0,0,0,0,-1,1742,652,12.0657,0.0995285
525,372,12.3947,-0.171814,0,0,0,0,0,0,0,-1,1749,652,12.3946,0.171824
532,372,9.36597,1.72034,0,0,0,0,0,0,0,-1,1756,652,9.36597,-1.72036
539,372,7.82886,-0.0865479,0,0,0,0,0,0,0,-1,1763,652,7.82882,0.0865771
546,372,10.953,-0.187195,0,0,0,0,0,0,0,-1,1770,652,10.953,0.187181
553,372,14.1201,-4.83234,0,0,0,0,0,0,0,-1,1777,652,14.1201,4.83235
560,372,20.1057,-8.06934,0,0,0,0,0,0,0,-1,1784,652,20.1058,8.06936
567,372,33.9337,-16.5757,0,0,0,0,0,0,0,-1,1791,652,33.9337,16.5757
574,372,33.9032,-15.4307,0.00135987,0.000980492,0.000167876,0.00142349,0.000916875,0.362232,0.000833153,0.0447147,1798,652,33.9033,15.4307
581,372,33.8616,-14.6512,0.000921206,0.000950267,0.000188935,0.00112523,0.000746243,0.823776,0.000661085,0.0224206,1805,652,33.8616,14.6512
588,372,33.7784,-13.7735,0.000826361,0.000935839,0.000362009,0.00124722,0.000514976,0.860435,0.000723718,0.017683,1812,652,33.7785,13.7735
595,372,33.7134,-12.9113,0.000972745,0.00118525,0.000655864,0.00174341,0.000414584,0.865704,0.00105168,0.0149951,1819,652,33.7134,12.9113
602,372,33.7106,-12.0758,0.00127131,0.00153814,0.00101154,0.00242503,0.000384426,0.850966,0.001505,0.0179103,1826,652,33.7105,12.0758
609,372,33.5969,-11.231,0.00158898,0.00198247,0.00137882,0.00317851,0.000392937,0.856266,0.00200093,0.0194601,1833,652,33.597,11.231
616,372,33.5443,-10.3154,0.00197767,0.00255547,0.00173987,0.00403026,0.000502878,0.867671,0.00253589,0.0178145,1840,652,33.5443,10.3154
623,372,33.5194,-9.38007,0.00246264,0.00319134,0.00217062,0.00502797,0.000626008,0.86855,0.00316402,0.0141935,1847,652,33.5194,9.38009
630,372,33.4755,-8.48889,0.00287603,0.00388111,0.00253504,0.00596294,0.000794194,0.883247,0.00373879,0.0181581,1854,652,33.4755,8.48891
637,372,33.443,-7.64172,0.00318762,0.00466293,0.00285015,0.00686934,0.000981218,0.912026,0.00429005,0.02942,1861,652,33.443,7.64175
644,372,33.5675,-6.755,0,0,0,0,0,0,0,-1,1868,652,33.5675,6.75503
651,372,21.3998,-0.888,0,0,0,0,0,0,0,-1,1875,652,21.3998,0.887992
658,372,14.157,0.280273,0,0,0,0,0,0,0,-1,1882,652,14.157,-0.280264
665,372,15.2286,0.463867,0,0,0,0,0,0,0,-1,1889,652,15.2287,-0.463854
672,372,9.34106,1.48444,0,0,0,0,0,0,0,-1,1896,652,9.34109,-1.48444
679,372,10.7308,2.32391,0,0,0,0,0,0,0,-1,1903,652,10.7309,-2.3239
686,372,11.6295,2.52997,0,0,0,0,0,0,0,-1,1910,652,11.6296,-2.52996
693,372,0,0,0,0,0,0,0,0,0,-1,1917,652,0,0
700,372,0,0,0,0,0,0,0,0,0,-1,1924,652,0,0
707,372,0,0,0,0,0,0,0,0,0,-1,1931,652,0,0
714,372,0,0,0,0,0,0,0,0,0,-1,1938,652,0,0
721,372,0,0,0,0,0,0,0,0,0,-1,1945,652,0,0
728,372,0,0,0,0,0,0,0,0,0,-1,1952,652,0,0
735,372,0,0,0,0,0,0,0,0,0,-1,1959,652,0,0
742,372,0,0,0,0,0,0,0,0,0,-1,1966,652,0,0
749,372,0,0,0,0,0,0,0,0,0,-1,1973,652,0,0
756,372,0,0,0,0,0,0,0,0,0,-1,1980,652,0,0
763,372,0,0,0,0,0,0,0,0,0,-1,1987,652,0,0
770,372,0,0,0,0,0,0,0,0,0,-1,1994,652,0,0
777,372,0,0,0,0,0,0,0,0,0,-1,2001,652,0,0
784,372,0,0,0,0,0,0,0,0,0,-1,2008,652,0,0
791,372,0,0,0,0,0,0,0,0,0,-1,2015,652,0,0
798,372,0,0,0,0,0,0,0,0,0,-1,2022,652,0,0
805,372,0,0,0,0,0,0,0,0,0,-1,2029,652,0,0
812,372,0,0,0,0,0,0,0,0,0,-1,2036,652,0,0
-700,365,0,0,0,0,0,0,0,0,0,-1,524,659,0,0
-693,365,0,0,0,0,0,0,0,0,0,-1,531,659,0,0
-686,365,0,0,0,0,0,0,0,0,0,-1,538,659,0,0
-679,365,0,0,0,0,0,0,0,0,0,-1,545,659,0,0
-672,365,0,0,0,0,0,0,0,0,0,-1,552,659,0,0
-665,365,0,0,0,0,0,0,0,0,0,-1,559,659,0,0
-658,365,0,0,0,0,0,0,0,0,0,-1,566,659,0,0
-651,365,0,0,0,0,0,0,0,0,0,-1,573,659,0,0
-644,365,0,0,0,0,0,0,0,0,0,-1,580,659,0,0
-637,365,0,0,0,0,0,0,0,0,0,-1,587,659,0,0
-630,365,0,0,0,0,0,0,0,0,0,-1,594,659,0,0
-623,365,0,0,0,0,0,0,0,0,0,-1,601,659,0,0
-616,365,0,0,0,0,0,0,0,0,0,-1,608,659,0,0
-609,365,0,0,0,0,0,0,0,0,0,-1,615,659,0,0
-602,365,0,0,0,0,0,0,0,0,0,-1,622,659,0,0
-595,365,0,0,0,0,0,0,0,0,0,-1,629,659,0,0
-588,365,0,0,0,0,0,0,0,0,0,-1,636,659,0,0
-581,365,0,0,0,0,0,0,0,0,0,-1,643,659,0,0
-574,365,-7.69281,1.59015,0,0,0,0,0,0,0,-1,650,659,-7.69282,-1.59018
-567,365,-8.2583,1.72638,0,0,0,0,0,0,0,-1,657,659,-8.25827,-1.72637
-560,365,-7.17767,0.275757,0,0,0,0,0,0,0,-1,664,659,-7.17768,-0.27577
-553,365,-10.0349,-0.169617,0,0,0,0,0,0,0,-1,671,659,-10.0349,0.169593
-546,365,-10.6303,-1.51642,0,0,0,0,0,0,0,-1,678,659,-10.6303,1.5164
-539,365,-8.38599,1.52936,0,0,0,0,0,0,0,-1,685,659,-8.38598,-1.52935
-532,365,-8.52863,0.166504,0,0,0,0,0,0,0,-1,692,659,-8.52863,-0.166501
-525,365,-9.28229,-2.62726,0,0,0,0,0,0,0,-1,699,659,-9.28227,2.62724
-518,365,-19.5886,-7.41418,0,0,0,0,0,0,0,-1,706,659,-19.5886,7.41421
-511,365,-19.6207,-8.3855,0.00292804,0.000142519,-0.000648493,0.00307162,-1.05507e-06,-0.217882,0.0020481,0.0404151,713,659,-19.6207,8.38549
-504,365,-19.6149,-9.27039,0.00227212,0.000165209,-0.00059838,0.0024302,7.12555e-06,-0.258285,0.00161776,0.012943,720,659,-19.6148,9.2704
-497,365,-19.6637,-10.1836,0.00176721,0.000133008,-0.000539653,0.00192933,-2.9115e-05,-0.291842,0.00129604,0.0137221,727,659,-19.6637,10.1836
-490,365,-19.729,-11.0416,0.00136563,0.000101863,-0.000514259,0.00154845,-8.09546e-05,-0.341564,0.00106032,0.014802,734,659,-19.729,11.0416
-483,365,-19.8105,-11.8787,0.00112307,7.55857e-05,-0.000480405,0.00131003,-0.000111372,-0.371132,0.000912747,0.0130748,741,659,-19.8105,11.8787
-476,365,-19.7907,-12.7554,0.00101833,9.93527e-05,-0.000488257,0.00122931,-0.000111624,-0.407871,0.000859168,0.0190123,748,659,-19.7907,12.7554
-469,365,-19.8561,-13.6232,0.00103786,0.000172695,-0.000576414,0.00132596,-0.000115402,-0.463496,0.000924845,0.019061,755,659,-19.8561,13.6232
-462,365,-19.9606,-14.4528,0.00117419,0.000284943,-0.000740154,0.001593,-0.000133867,-0.514925,0.00110932,0.014957,762,659,-19.9605,14.4528
-455,365,-20.0071,-15.3077,0.0015231,0.000487168,-0.000991972,0.0021242,-0.000113926,-0.54479,0.00145559,0.0181049,769,659,-20.0071,15.3077
-448,365,-20.0453,-16.2629,0,0,0,0,0,0,0,-1,776,659,-20.0453,16.2629
-441,365,-16.9571,-15.1896,0,0,0,0,0,0,0,-1,783,659,-16.9571,15.1896
-434,365,-5.45056,-3.98041,0,0,0,0,0,0,0,-1,790,659,-5.45055,3.98042
-427,365,-5.05377,-4.74689,0,0,0,0,0,0,0,-1,797,659,-5.05376,4.7469
-420,365,-4.58813,-3.16376,0,0,0,0,0,0,0,-1,804,659,-4.58816,3.16374
-413,365,0.141357,0.672729,0,0,0,0,0,0,0,-1,811,659,0.141365,-0.672714
-406,365,-1.75067,-0.934448,0,0,0,0,0,0,0,-1,818,659,-1.7507,0.934424
-399,365,-4.10242,-1.25439,0,0,0,0,0,0,0,-1,825,659,-4.10244,1.25438
-392,365,-7.46545,-0.779724,0,0,0,0,0,0,0,-1,832,659,-7.46543,0.779744
-385,365,-6.27875,-0.887573,0,0,0,0,0,0,0,-1,839,659,-6.27874,0.887545
-378,365,-5.34503,-0.263306,0,0,0,0,0,0,0,-1,846,659,-5.34504,0.263275
-371,365,0,0,0,0,0,0,0,0,0,-1,853,659,0,0
-364,365,0,0,0,0,0,0,0,0,0,-1,860,659,0,0
-357,365,0,0,0,0,0,0,0,0,0,-1,867,659,0,0
-350,365,0,0,0,0,0,0,0,0,0,-1,874,659,0,0
-343,365,0,0,0,0,0,0,0,0,0,-1,881,659,0,0
-336,365,0,0,0,0,0,0,0,0,0,-1,888,659,0,0
-329,365,0,0,0,0,0,0,0,0,0,-1,895,659,0,0
-322,365,0,0,0,0,0,0,0,0,0,-1,902,659,0,0
-315,365,0,0,0,0,0,0,0,0,0,-1,909,659,0,0
-308,365,0,0,0,0,0,0,0,0,0,-1,916,659,0,0
-301,365,0,0,0,0,0,0,0,0,0,-1,923,659,0,0
-294,365,0,0,0,0,0,0,0,0,0,-1,930,659,0,0
-287,365,0,0,0,0,0,0,0,0,0,-1,937,659,0,0
-280,365,0,0,0,0,0,0,0,0,0,-1,944,659,0,0
-273,365,0,0,0,0,0,0,0,0,0,-1,951,659,0,0
-266,365,0,0,0,0,0,0,0,0,0,-1,958,659,0,0
-259,365,0,0,0,0,0,0,0,0,0,-1,965,659,0,0
-252,365,0,0,0,0,0,0,0,0,0,-1,972,659,0,0
-245,365,0,0,0,0,0,0,0,0,0,-1,979,659,0,0
-238,365,0,0,0,0,0,0,0,0,0,-1,986,659,0,0
-231,365,0,0,0,0,0,0,0,0,0,-1,993,659,0,0
-224,365,0,0,0,0,0,0,0,0,0,-1,1000,659,0,0
-217,365,0,0,0,0,0,0,0,0,0,-1,1007,659,0,0
-210,365,0,0,0,0,0,0,0,0,0,-1,1014,659,0,0
-203,365,0,0,0,0,0,0,0,0,0,-1,1021,659,0,0
-196,365,0,0,0,0,0,0,0,0,0,-1,1028,659,0,0
-189,365,0,0,0,0,0,0,0,0,0,-1,1035,659,0,0
-182,365,0,0,0,0,0,0,0,0,0,-1,1042,659,0,0
-175,365,0,0,0,0,0,0,0,0,0,-1,1049,659,0,0
-168,365,0,0,0,0,0,0,0,0,0,-1,1056,659,0,0
-161,365,0,0,0,0,0,0,0,0,0,-1,1063,659,0,0
-154,365,0,0,0,0,0,0,0,0,0,-1,1070,659,0,0
-147,365,0,0,0,0,0,0,0,0,0,-1,1077,659,0,0
-140,365,0,0,0,0,0,0,0,0,0,-1,1084,659,0,0
-133,365,0,0,0,0,0,0,0,0,0,-1,1091,659,0,0
-126,365,0,0,0,0,0,0,0,0,0,-1,1098,659,0,0
-119,365,0,0,0,0,0,0,0,0,0,-1,1105,659,0,0
-112,365,0,0,0,0,0,0,0,0,0,-1,1112,659,0,0
-105,365,0,0,0,0,0,0,0,0,0,-1,1119,659,0,0
-98,365,0,0,0,0,0,0,0,0,0,-1,1126,659,0,0
-91,365,0,0,0,0,0,0,0,0,0,-1,1133,659,0,0
-84,365,0,0,0,0,0,0,0,0,0,-1,1140,659,0,0
-77,365,0,0,0,0,0,0,0,0,0,-1,1147,659,0,0
-70,365,0,0,0,0,0,0,0,0,0,-1,1154,659,0,0
-63,365,0,0,0,0,0,0,0,0,0,-1,1161,659,0,0
-56,365,0,0,0,0,0,0,0,0,0,-1,1168,659,0,0
-49,365,0,0,0,0,0,0,0,0,0,-1,1175,659,0,0
-42,365,0,0,0,0,0,0,0,0,0,-1,1182,659,0,0
-35,365,0,0,0,0,0,0,0,0,0,-1,1189,659,0,0
-28,365,0,0,0,0,0,0,0,0,0,-1,1196,659,0,0
-21,365,0,0,0,0,0,0,0,0,0,-1,1203,659,0,0
-14,365,0,0,0,0,0,0,0,0,0,-1,1210,659,0,0
-7,365,0,0,0,0,0,0,0,0,0,-1,1217,659,0,0
0,365,0,0,0,0,0,0,0,0,0,-1,1224,659,0,0
7,365,0,0,0,0,0,0,0,0,0,-1,1231,659,0,0
14,365,0,0,0,0,0,0,0,0,0,-1,1238,659,0,0
21,365,0,0,0,0,0,0,0,0,0,-1,1245,659,0,0
28,365,0,0,0,0,0,0,0,0,0,-1,1252,659,0,0
35,365,0,0,0,0,0,0,0,0,0,-1,1259,659,0,0
42,365,0,0,0,0,0,0,0,0,0,-1,1266,659,0,0
49,365,0,0,0,0,0,0,0,0,0,-1,1273,659,0,0
56,365,0,0,0,0,0,0,0,0,0,-1,1280,659,0,0
63,365,0,0,0,0,0,0,0,0,0,-1,1287,659,0,0
70,365,0,0,0,0,0,0,0,0,0,-1,1294,659,0,0
77,365,0,0,0,0,0,0,0,0,0,-1,1301,659,0,0
84,365,0,0,0,0,0,0,0,0,0,-1,1308,659,0,0
91,365,0,0,0,0,0,0,0,0,0,-1,1315,659,0,0
98,365,0,0,0,0,0,0,0,0,0,-1,1322,659,0,0
105,365,0,0,0,0,0,0,0,0,0,-1,1329,659,0,0
112,365,0,0,0,0,0,0,0,0,0,-1,1336,659,0,0
119,365,0,0,0,0,0,0,0,0,0,-1,1343,659,0,0
126,365,0,0,0,0,0,0,0,0,0,-1,1350,659,0,0
133,365,0,0,0,0,0,0,0,0,0,-1,1357,659,0,0
140,365,0,0,0,0,0,0,0,0,0,-1,1364,659,0,0
147,365,0,0,0,0,0,0,0,0,0,-1,1371,659,0,0
154,365,0,0,0,0,0,0,0,0,0,-1,1378,659,0,0
161,365,0,0,0,0,0,0,0,0,0,-1,1385,659,0,0
168,365,0,0,0,0,0,0,0,0,0,-1,1392,659,0,0
175,365,0,0,0,0,0,0,0,0,0,-1,1399,659,0,0
182,365,0,0,0,0,0,0,0,0,0,-1,1406,659,0,0
189,365,0,0,0,0,0,0,0,0,0,-1,1413,659,0,0
196,365,0,0,0,0,0,0,0,0,0,-1,1420,659,0,0
203,365,0,0,0,0,0,0,0,0,0,-1,1427,659,0,0
210,365,0,0,0,0,0,0,0,0,0,-1,1434,659,0,0
217,365,0,0,0,0,0,0,0,0,0,-1,1441,659,0,0
224,365,0,0,0,0,0,0,0,0,0,-1,1448,659,0,0
231,365,0,0,0,0,0,0,0,0,0,-1,1455,659,0,0
238,365,0,0,0,0,0,0,0,0,0,-1,1462,659,0,0
245,365,0,0,0,0,0,0,0,0,0,-1,1469,659,0,0
252,365,0,0,0,0,0,0,0,0,0,-1,1476,659,0,0
259,365,0,0,0,0,0,0,0,0,0,-1,1483,659,0,0
266,365,0,0,0,0,0,0,0,0,0,-1,1490,659,0,0
273,365,0,0,0,0,0,0,0,0,0,-1,1497,659,0,0
280,365,0,0,0,0,0,0,0,0,0,-1,1504,659,0,0
287,365,0,0,0,0,0,0,0,0,0,-1,1511,659,0,0
294,365,0,0,0,0,0,0,0,0,0,-1,1518,659,0,0
301,365,0,0,0,0,0,0,0,0,0,-1,1525,659,0,0
308,365,0,0,0,0,0,0,0,0,0,-1,1532,659,0,0
315,365,0,0,0,0,0,0,0,0,0,-1,1539,659,0,0
322,365,0,0,0,0,0,0,0,0,0,-1,1546,659,0,0
329,365,0,0,0,0,0,0,0,0,0,-1,1553,659,0,0
336,365,0,0,0,0,0,0,0,0,0,-1,1560,659,0,0
343,365,0,0,0,0,0,0,0,0,0,-1,1567,659,0,0
350,365,0,0,0,0,0,0,0,0,0,-1,1574,659,0,0
357,365,0,0,0,0,0,0,0,0,0,-1,1581,659,0,0
364,365,0,0,0,0,0,0,0,0,0,-1,1588,659,0,0
371,365,0,0,0,0,0,0,0,0,0,-1,1595,659,0,0
378,365,0,0,0,0,0,0,0,0,0,-1,1602,659,0,0
385,365,0,0,0,0,0,0,0,0,0,-1,1609,659,0,0
392,365,0,0,0,0,0,0,0,0,0,-1,1616,659,0,0
399,365,0,0,0,0,0,0,0,0,0,-1,1623,659,0,0
406,365,0,0,0,0,0,0,0,0,0,-1,1630,659,0,0
413,365,0,0,0,0,0,0,0,0,0,-1,1637,659,0,0
420,365,0,0,0,0,0,0,0,0,0,-1,1644,659,0,0
427,365,0,0,0,0,0,0,0,0,0,-1,1651,659,0,0
434,365,0,0,0,0,0,0,0,0,0,-1,1658,659,0,0
441,365,0,0,0,0,0,0,0,0,0,-1,1665,659,0,0
448,365,0,0,0,0,0,0,0,0,0,-1,1672,659,0,0
455,365,0,0,0,0,0,0,0,0,0,-1,1679,659,0,0
462,365,0,0,0,0,0,0,0,0,0,-1,1686,659,0,0
469,365,0,0,0,0,0,0,0,0,0,-1,1693,659,0,0
476,365,0,0,0,0,0,0,0,0,0,-1,1700,659,0,0
483,365,0,0,0,0,0,0,0,0,0,-1,1707,659,0,0
490,365,8.39551,0.471252,0,0,0,0,0,0,0,-1,1714,659,8.39551,-0.471241
497,365,9.89233,1.35394,0,0,0,0,0,0,0,-1,1721,659,9.89237,-1.35396
504,365,10.1414,1.18005,0,0,0,0,0,0,0,-1,1728,659,10.1413,-1.18004
511,365,10.5151,0.993896,0,0,0,0,0,0,0,-1,1735,659,10.5152,-0.993894
518,365,11.2029,0.398132,0,0,0,0,0,0,0,-1,1742,659,11.2029,-0.398136
525,365,15.5748,3.85303,0,0,0,0,0,0,0,-1,1749,659,15.5748,-3.85303
532,365,11.2446,1.00629,0,0,0,0,0,0,0,-1,1756,659,11.2446,-1.00631
539,365,12.6301,1.03204,0,0,0,0,0,0,0,-1,1763,659,12.6302,-1.03204
546,365,11.647,0.84198,0,0,0,0,0,0,0,-1,1770,659,11.6469,-0.841955
553,365,12.028,-0.558899,0,0,0,0,0,0,0,-1,1777,659,12.028,0.558873
560,365,14.5372,-4.55548,0,0,0,0,0,0,0,-1,1784,659,14.5373,4.55547
567,365,20.5676,-7.53888,0,0,0,0,0,0,0,-1,1791,659,20.5676,7.53887
574,365,35.0319,-15.3466,0,0,0,0,0,0,0,-1,1798,659,35.0319,15.3466
581,365,34.7284,-14.5603,0,0,0,0,0,0,0,-1,1805,659,34.7284,14.5603
588,365,34.6172,-13.8133,0.000676021,0.000887923,0.000320819,0.00111983,0.000444111,0.944885,0.00065113,0.0244849,1812,659,34.6172,13.8133
595,365,34.5878,-12.8779,0.00078324,0.00104193,0.00056774,0.00149487,0.000330299,0.8974,0.000906763,0.0144753,1819,659,34.5878,12.8779
602,365,34.5457,-11.9826,0.00103875,0.00126244,0.000837337,0.00199537,0.000305824,0.851791,0.00124093,0.0176226,1826,659,34.5456,11.9826
609,365,34.4309,-11.111,0.00130126,0.00156513,0.00110705,0.00254808,0.000318318,0.844706,0.00160318,0.0196514,1833,659,34.4309,11.111
616,365,34.4048,-10.2134,0.0016063,0.00197825,0.00136033,0.00316526,0.000419299,0.853334,0.00198522,0.0203249,1840,659,34.4048,10.2134
623,365,34.399,-9.32922,0.0020004,0.00245835,0.00167295,0.00391792,0.000540829,0.853411,0.00245164,0.0132265,1847,659,34.3991,9.32925
630,365,34.3435,-8.4707,0.00231388,0.00300725,0.00194977,0.00464092,0.000680213,0.873383,0.00289398,0.0170236,1854,659,34.3435,8.47068
637,365,34.276,-7.62683,0.00253798,0.0036164,0.00217327,0.00531635,0.000838024,0.906998,0.00330055,0.0229497,1861,659,34.276,7.62682
644,365,34.262,-6.72559,0.00265904,0.00440554,0.00241904,0.00610412,0.000960456,0.958614,0.00379005,0.0276767,1868,659,34.262,6.72556
651,365,34.4041,-5.67749,0,0,0,0,0,0,0,-1,1875,659,34.404,5.67746
658,365,24.745,-2.13275,0,0,0,0,0,0,0,-1,1882,659,24.745,2.13277
665,365,14.0961,0.769043,0,0,0,0,0,0,0,-1,1889,659,14.0961,-0.769063
672,365,10.0579,2.15088,0,0,0,0,0,0,0,-1,1896,659,10.0579,-2.15088
679,365,10.9718,2.19208,0,0,0,0,0,0,0,-1,1903,659,10.9718,-2.19211
686,365,12.2134,2.17108,0,0,0,0,0,0,0,-1,1910,659,12.2134,-2.17109
693,365,13.7141,1.98279,0,0,0,0,0,0,0,-1,1917,659,13.7141,-1.98278
700,365,0,0,0,0,0,0,0,0,0,-1,1924,659,0,0
707,365,0,0,0,0,0,0,0,0,0,-1,1931,659,0,0
714,365,0,0,0,0,0,0,0,0,0,-1,1938,659,0,0
721,365,0,0,0,0,0,0,0,0,0,-1,1945,659,0,0
728,365,0,0,0,0,0,0,0,0,0,-1,1952,659,0,0
735,365,0,0,0,0,0,0,0,0,0,-1,1959,659,0,0
742,365,0,0,0,0,0,0,0,0,0,-1,1966,659,0,0
749,365,0,0,0,0,0,0,0,0,0,-1,1973,659,0,0
756,365,0,0,0,0,0,0,0,0,0,-1,1980,659,0,0
763,365,0,0,0,0,0,0,0,0,0,-1,1987,659,0,0
770,365,0,0,0,0,0,0,0,0,0,-1,1994,659,0,0
777,365,0,0,0,0,0,0,0,0,0,-1,2001,659,0,0
784,365,0,0,0,0,0,0,0,0,0,-1,2008,659,0,0
791,365,0,0,0,0,0,0,0,0,0,-1,2015,659,0,0
798,365,0,0,0,0,0,0,0,0,0,-1,2022,659,0,0
805,365,0,0,0,0,0,0,0,0,0,-1,2029,659,0,0
812,365,0,0,0,0,0,0,0,0,0,-1,2036,659,0,0
-700,358,0,0,0,0,0,0,0,0,0,-1,524,666,0,0
-693,358,0,0,0,0,0,0,0,0,0,-1,531,666,0,0
-686,358,0,0,0,0,0,0,0,0,0,-1,538,666,0,0
-679,358,0,0,0,0,0,0,0,0,0,-1,545,666,0,0
-672,358,0,0,0,0,0,0,0,0,0,-1,552,666,0,0
-665,358,0,0,0,0,0,0,0,0,0,-1,559,666,0,0
-658,358,0,0,0,0,0,0,0,0,0,-1,566,666,0,0
-651,358,0,0,0,0,0,0,0,0,0,-1,573,666,0,0
-644,358,0,0,0,0,0,0,0,0,0,-1,580,666,0,0
-637,358,0,0,0,0,0,0,0,0,0,-1,587,666,0,0
-630,358,0,0,0,0,0,0,0,0,0,-1,594,666,0,0
-623,358,0,0,0,0,0,0,0,0,0,-1,601,666,0,0
-616,358,0,0,0,0,0,0,0,0,0,-1,608,666,0,0
-609,358,0,0,0,0,0,0,0,0,0,-1,615,666,0,0
-602,358,0,0,0,0,0,0,0,0,0,-1,622,666,0,0
-595,358,0,0,0,0,0,0,0,0,0,-1,629,666,0,0
-588,358,0,0,0,0,0,0,0,0,0,-1,636,666,0,0
-581,358,-8.31616,1.61993,0,0,0,0,0,0,0,-1,643,666,-8.31614,-1.61993
-574,358,-8.22406,1.75385,0,0,0,0,0,0,0,-1,650,666,-8.22408,-1.75383
-567,358,-8.14215,1.91577,0,0,0,0,0,0,0,-1,657,666,-8.14214,-1.91579
-560,358,-10.6086,2.18872,0,0,0,0,0,0,0,-1,664,666,-10.6086,-2.18873
-553,358,-13.4767,1.09552,0,0,0,0,0,0,0,-1,671,666,-13.4767,-1.09551
-546,358,-13.3743,-0.185059,0,0,0,0,0,0,0,-1,678,666,-13.3743,0.185037
-539,358,-9.43884,-2.04785,0,0,0,0,0,0,0,-1,685,666,-9.43884,2.04785
-532,358,-12.4141,-2.36572,0,0,0,0,0,0,0,-1,692,666,-12.4141,2.3657
-525,358,-12.731,-3.88031,0,0,0,0,0,0,0,-1,699,666,-12.731,3.88029
-518,358,-20.4371,-7.4715,0,0,0,0,0,0,0,-1,706,666,-20.4371,7.47148
-511,358,-20.4597,-8.33307,0.00313362,0.000270239,-0.00068152,0.00328755,0.000116304,-0.222142,0.00215398,0.0168255,713,666,-20.4597,8.33305
-504,358,-20.493,-9.20325,0.00239611,0.000187546,-0.000574482,0.00253661,4.70517e-05,-0.23985,0.00167561,0.0123842,720,666,-20.493,9.20326
-497,358,-20.5422,-10.11,0.00184627,0.000101633,-0.000479962,0.00196959,-2.16911e-05,-0.251504,0.00132035,0.0120874,727,666,-20.5422,10.11
-490,358,-20.6002,-10.9731,0.00139999,6.80245e-05,-0.000450227,0.0015379,-6.98814e-05,-0.297229,0.00104934,0.0113263,734,666,-20.6002,10.9731
-483,358,-20.6669,-11.8178,0.00115379,7.09343e-05,-0.000433506,0.00130595,-8.12318e-05,-0.337576,0.000898936,0.0102997,741,666,-20.6669,11.8178
-476,358,-20.645,-12.6655,0.00105439,0.000143199,-0.000476222,0.00125785,-6.02612e-05,-0.403765,0.000859359,0.0149599,748,666,-20.645,12.6655
-469,358,-20.7408,-13.5363,0.00107755,0.000283234,-0.000612046,0.00141,-4.9222e-05,-0.497598,0.00095683,0.0194316,755,666,-20.7409,13.5363
-462,358,-20.8505,-14.3951,0.00123435,0.000511798,-0.000823064,0.00177194,-2.57881e-05,-0.578588,0.00118998,0.0186932,762,666,-20.8506,14.3951
-455,358,-20.8749,-15.2506,0,0,0,0,0,0,0,-1,769,666,-20.8749,15.2506
-448,358,-17.7847,-14.434,0,0,0,0,0,0,0,-1,776,666,-17.7847,14.434
-441,358,-5.56293,-3.98041,0,0,0,0,0,0,0,-1,783,666,-5.56291,3.98043
-434,358,-5.21558,-4.43127,0,0,0,0,0,0,0,-1,790,666,-5.21559,4.43125
-427,358,-3.56189,-3.15729,0,0,0,0,0,0,0,-1,797,666,-3.56192,3.15729
-420,358,0.200195,1.08234,0,0,0,0,0,0,0,-1,804,666,0.200174,-1.08231
-413,358,0.0325317,0.161072,0,0,0,0,0,0,0,-1,811,666,0.0325501,-0.161098
-406,358,-3.85846,0.753113,0,0,0,0,0,0,0,-1,818,666,-3.85846,-0.753129
-399,358,-1.31213,0.190735,0,0,0,0,0,0,0,-1,825,666,-1.31215,-0.190763
-392,358,-3.73914,-0.832214,0,0,0,0,0,0,0,-1,832,666,-3.73915,0.832202
-385,358,-5.95178,-1.69141,0,0,0,0,0,0,0,-1,839,666,-5.9518,1.69143
-378,358,0,0,0,0,0,0,0,0,0,-1,846,666,0,0
-371,358,0,0,0,0,0,0,0,0,0,-1,853,666,0,0
-364,358,0,0,0,0,0,0,0,0,0,-1,860,666,0,0
-357,358,0,0,0,0,0,0,0,0,0,-1,867,666,0,0
-350,358,0,0,0,0,0,0,0,0,0,-1,874,666,0,0
-343,358,0,0,0,0,0,0,0,0,0,-1,881,666,0,0
-336,358,0,0,0,0,0,0,0,0,0,-1,888,666,0,0
-329,358,0,0,0,0,0,0,0,0,0,-1,895,666,0,0
-322,358,0,0,0,0,0,0,0,0,0,-1,902,666,0,0
-315,358,0,0,0,0,0,0,0,0,0,-1,909,666,0,0
-308,358,0,0,0,0,0,0,0,0,0,-1,916,666,0,0
-301,358,0,0,0,0,0,0,0,0,0,-1,923,666,0,0
-294,358,0,0,0,0,0,0,0,0,0,-1,930,666,0,0
-287,358,0,0,0,0,0,0,0,0,0,-1,937,666,0,0
-280,358,0,0,0,0,0,0,0,0,0,-1,944,666,0,0
-273,358,0,0,0,0,0,0,0,0,0,-1,951,666,0,0
-266,358,0,0,0,0,0,0,0,0,0,-1,958,666,0,0
-259,358,0,0,0,0,0,0,0,0,0,-1,965,666,0,0
-252,358,0,0,0,0,0,0,0,0,0,-1,972,666,0,0
-245,358,0,0,0,0,0,0,0,0,0,-1,979,666,0,0
-238,358,0,0,0,0,0,0,0,0,0,-1,986,666,0,0
-231,358,0,0,0,0,0,0,0,0,0,-1,993,666,0,0
-224,358,0,0,0,0,0,0,0,0,0,-1,1000,666,0,0
-217,358,0,0,0,0,0,0,0,0,0,-1,1007,666,0,0
-210,358,0,0,0,0,0,0,0,0,0,-1,1014,666,0,0
-203,358,0,0,0,0,0,0,0,0,0,-1,1021,666,0,0
-196,358,0,0,0,0,0,0,0,0,0,-1,1028,666,0,0
-189,358,0,0,0,0,0,0,0,0,0,-1,1035,666,0,0
-182,358,0,0,0,0,0,0,0,0,0,-1,1042,666,0,0
-175,358,0,0,0,0,0,0,0,0,0,-1,1049,666,0,0
-168,358,0,0,0,0,0,0,0,0,0,-1,1056,666,0,0
-161,358,0,0,0,0,0,0,0,0,0,-1,1063,666,0,0
-154,358,0,0,0,0,0,0,0,0,0,-1,1070,666,0,0
-147,358,0,0,0,0,0,0,0,0,0,-1,1077,666,0,0
-140,358,0,0,0,0,0,0,0,0,0,-1,1084,666,0,0
-133,358,0,0,0,0,0,0,0,0,0,-1,1091,666,0,0
-126,358,0,0,0,0,0,0,0,0,0,-1,1098,666,0,0
-119,358,0,0,0,0,0,0,0,0,0,-1,1105,666,0,0
-112,358,0,0,0,0,0,0,0,0,0,-1,1112,666,0,0
-105,358,0,0,0,0,0,0,0,0,0,-1,1119,666,0,0
-98,358,0,0,0,0,0,0,0,0,0,-1,1126,666,0,0
-91,358,0,0,0,0,0,0,0,0,0,-1,1133,666,0,0
-84,358,0,0,0,0,0,0,0,0,0,-1,1140,666,0,0
-77,358,0,0,0,0,0,0,0,0,0,-1,1147,666,0,0
-70,358,0,0,0,0,0,0,0,0,0,-1,1154,666,0,0
-63,358,0,0,0,0,0,0,0,0,0,-1,1161,666,0,0
-56,358,0,0,0,0,0,0,0,0,0,-1,1168,666,0,0
-49,358,0,0,0,0,0,0,0,0,0,-1,1175,666,0,0
-42,358,0,0,0,0,0,0,0,0,0,-1,1182,666,0,0
-35,358,0,0,0,0,0,0,0,0,0,-1,1189,666,0,0
-28,358,0,0,0,0,0,0,0,0,0,-1,1196,666,0,0
-21,358,0,0,0,0,0,0,0,0,0,-1,1203,666,0,0
-14,358,0,0,0,0,0,0,0,0,0,-1,1210,666,0,0
-7,358,0,0,0,0,0,0,0,0,0,-1,1217,666,0,0
0,358,0,0,0,0,0,0,0,0,0,-1,1224,666,0,0
7,358,0,0,0,0,0,0,0,0,0,-1,1231,666,0,0
14,358,0,0,0,0,0,0,0,0,0,-1,1238,666,0,0
21,358,0,0,0,0,0,0,0,0,0,-1,1245,666,0,0
28,358,0,0,0,0,0,0,0,0,0,-1,1252,666,0,0
35,358,0,0,0,0,0,0,0,0,0,-1,1259,666,0,0
42,358,0,0,0,0,0,0,0,0,0,-1,1266,666,0,0
49,358,0,0,0,0,0,0,0,0,0,-1,1273,666,0,0
56,358,0,0,0,0,0,0,0,0,0,-1,1280,666,0,0
63,358,0,0,0,0,0,0,0,0,0,-1,1287,666,0,0
70,358,0,0,0,0,0,0,0,0,0,-1,1294,666,0,0
77,358,0,0,0,0,0,0,0,0,0,-1,1301,666,0,0
84,358,0,0,0,0,0,0,0,0,0,-1,1308,666,0,0
91,358,0,0,0,0,0,0,0,0,0,-1,1315,666,0,0
98,358,0,0,0,0,0,0,0,0,0,-1,1322,666,0,0
105,358,0,0,0,0,0,0,0,0,0,-1,1329,666,0,0
112,358,0,0,0,0,0,0,0,0,0,-1,1336,666,0,0
119,358,0,0,0,0,0,0,0,0,0,-1,1343,666,0,0
126,358,0,0,0,0,0,0,0,0,0,-1,1350,666,0,0
133,358,0,0,0,0,0,0,0,0,0,-1,1357,666,0,0
140,358,0,0,0,0,0,0,0,0,0,-1,1364,666,0,0
147,358,0,0,0,0,0,0,0,0,0,-1,1371,666,0,0
154,358,0,0,0,0,0,0,0,0,0,-1,1378,666,0,0
161,358,0,0,0,0,0,0,0,0,0,-1,1385,666,0,0
168,358,0,0,0,0,0,0,0,0,0,-1,1392,666,0,0
175,358,0,0,0,0,0,0,0,0,0,-1,1399,666,0,0
182,358,0,0,0,0,0,0,0,0,0,-1,1406,666,0,0
189,358,0,0,0,0,0,0,0,0,0,-1,1413,666,0,0
196,358,0,0,0,0,0,0,0,0,0,-1,1420,666,0,0
203,358,0,0,0,0,0,0,0,0,0,-1,1427,666,0,0
210,358,0,0,0,0,0,0,0,0,0,-1,1434,666,0,0
217,358,0,0,0,0,0,0,0,0,0,-1,1441,666,0,0
224,358,0,0,0,0,0,0,0,0,0,-1,1448,666,0,0
231,358,0,0,0,0,0,0,0,0,0,-1,1455,666,0,0
238,358,0,0,0,0,0,0,0,0,0,-1,1462,666,0,0
245,358,0,0,0,0,0,0,0,0,0,-1,1469,666,0,0
252,358,0,0,0,0,0,0,0,0,0,-1,1476,666,0,0
259,358,0,0,0,0,0,0,0,0,0,-1,1483,666,0,0
266,358,0,0,0,0,0,0,0,0,0,-1,1490,666,0,0
273,358,0,0,0,0,0,0,0,0,0,-1,1497,666,0,0
280,358,0,0,0,0,0,0,0,0,0,-1,1504,666,0,0
287,358,0,0,0,0,0,0,0,0,0,-1,1511,666,0,0
294,358,0,0,0,0,0,0,0,0,0,-1,1518,666,0,0
301,358,0,0,0,0,0,0,0,0,0,-1,1525,666,0,0
308,358,0,0,0,0,0,0,0,0,0,-1,1532,666,0,0
315,358,0,0,0,0,0,0,0,0,0,-1,1539,666,0,0
322,358,0,0,0,0,0,0,0,0,0,-1,1546,666,0,0
329,358,0,0,0,0,0,0,0,0,0,-1,1553,666,0,0
336,358,0,0,0,0,0,0,0,0,0,-1,1560,666,0,0
343,358,0,0,0,0,0,0,0,0,0,-1,1567,666,0,0
350,358,0,0,0,0,0,0,0,0,0,-1,1574,666,0,0
357,358,0,0,0,0,0,0,0,0,0,-1,1581,666,0,0
364,358,0,0,0,0,0,0,0,0,0,-1,1588,666,0,0
371,358,0,0,0,0,0,0,0,0,0,-1,1595,666,0,0
378,358,0,0,0,0,0,0,0,0,0,-1,1602,666,0,0
385,358,0,0,0,0,0,0,0,0,0,-1,1609,666,0,0
392,358,0,0,0,0,0,0,0,0,0,-1,1616,666,0,0
399,358,0,0,0,0,0,0,0,0,0,-1,1623,666,0,0
406,358,0,0,0,0,0,0,0,0,0,-1,1630,666,0,0
413,358,0,0,0,0,0,0,0,0,0,-1,1637,666,0,0
420,358,0,0,0,0,0,0,0,0,0,-1,1644,666,0,0
427,358,0,0,0,0,0,0,0,0,0,-1,1651,666,0,0
434,358,0,0,0,0,0,0,0,0,0,-1,1658,666,0,0
441,358,0,0,0,0,0,0,0,0,0,-1,1665,666,0,0
448,358,0,0,0,0,0,0,0,0,0,-1,1672,666,0,0
455,358,0,0,0,0,0,0,0,0,0,-1,1679,666,0,0
462,358,0,0,0,0,0,0,0,0,0,-1,1686,666,0,0
469,358,0,0,0,0,0,0,0,0,0,-1,1693,666,0,0
476,358,0,0,0,0,0,0,0,0,0,-1,1700,666,0,0
483,358,0,0,0,0,0,0,0,0,0,-1,1707,666,0,0
490,358,0,0,0,0,0,0,0,0,0,-1,1714,666,0,0
497,358,8.57239,1.1322,0,0,0,0,0,0,0,-1,1721,666,8.57234,-1.13219
504,358,10.5972,0.832947,0,0,0,0,0,0,0,-1,1728,666,10.5972,-0.832968
511,358,10.6873,0.868469,0,0,0,0,0,0,0,-1,1735,666,10.6872,-0.868484
518,358,16.5884,2.34894,0,0,0,0,0,0,0,-1,1742,666,16.5884,-2.34894
525,358,15.7626,3.65344,0,0,0,0,0,0,0,-1,1749,666,15.7626,-3.65342
532,358,14.9368,4.95789,0,0,0,0,0,0,0,-1,1756,666,14.9367,-4.9579
539,358,15.1597,3.42694,0,0,0,0,0,0,0,-1,1763,666,15.1597,-3.42692
546,358,12.3792,1.53558,0,0,0,0,0,0,0,-1,1770,666,12.3792,-1.5356
553,358,11.6584,1.26172,0,0,0,0,0,0,0,-1,1777,666,11.6585,-1.26175
560,358,10.8234,1.43042,0,0,0,0,0,0,0,-1,1784,666,10.8233,-1.43041
567,358,10.1333,-0.955139,0,0,0,0,0,0,0,-1,1791,666,10.1333,0.955132
574,358,14.7886,-2.69293,0,0,0,0,0,0,0,-1,1798,666,14.7885,2.6929
581,358,20.1738,-6.76135,0,0,0,0,0,0,0,-1,1805,666,20.1738,6.76137
588,358,35.4017,-13.7783,0,0,0,0,0,0,0,-1,1812,666,35.4017,13.7783
595,358,35.4183,-12.8276,0.000566096,0.000913623,0.000536461,0.00130376,0.000175958,0.94202,0.000816863,0.0181469,1819,666,35.4183,12.8276
602,358,35.3781,-11.8917,0.000833476,0.00103102,0.000705859,0.00164499,0.000219513,0.854914,0.0010313,0.0151457,1826,666,35.378,11.8917
609,358,35.2922,-11.0197,0.00109305,0.00122219,0.000882965,0.00204294,0.000272299,0.821899,0.00128088,0.020203,1833,666,35.2922,11.0197
616,358,35.2583,-10.1357,0.00135412,0.00150557,0.00105677,0.00248933,0.000370365,0.821164,0.00155091,0.0185098,1840,666,35.2583,10.1357
623,358,35.2732,-9.29266,0.00168494,0.00186386,0.00128179,0.00305931,0.000489496,0.820238,0.00189754,0.0157888,1847,666,35.2732,9.29269
630,358,35.2235,-8.45178,0.00195214,0.00231703,0.00151342,0.00365897,0.000610208,0.845385,0.0022635,0.0196216,1854,666,35.2235,8.45176
637,358,35.1433,-7.59332,0.00214742,0.00280906,0.00169909,0.00420924,0.000747238,0.881546,0.00259322,0.026893,1861,666,35.1433,7.59334
644,358,35.1335,-6.71106,0.00226633,0.0034291,0.00190293,0.00483747,0.000857957,0.933655,0.00298045,0.0217461,1868,666,35.1336,6.71105
651,358,35.1942,-5.77008,0,0,0,0,0,0,0,-1,1875,666,35.1942,5.77006
658,358,34.9259,-4.64734,0,0,0,0,0,0,0,-1,1882,666,34.9258,4.64733
665,358,28.0272,-2.07764,0,0,0,0,0,0,0,-1,1889,666,28.0272,2.07764
672,358,12.4299,1.47272,0,0,0,0,0,0,0,-1,1896,666,12.4299,-1.4727
679,358,12.1294,2.19702,0,0,0,0,0,0,0,-1,1903,666,12.1294,-2.19703
686,358,11.9557,2.2002,0,0,0,0,0,0,0,-1,1910,666,11.9557,-2.20021
693,358,13.188,2.52203,0,0,0,0,0,0,0,-1,1917,666,13.188,-2.52202
700,358,0,0,0,0,0,0,0,0,0,-1,1924,666,0,0
707,358,0,0,0,0,0,0,0,0,0,-1,1931,666,0,0
714,358,0,0,0,0,0,0,0,0,0,-1,1938,666,0,0
721,358,0,0,0,0,0,0,0,0,0,-1,1945,666,0,0
728,358,0,0,0,0,0,0,0,0,0,-1,1952,666,0,0
735,358,0,0,0,0,0,0,0,0,0,-1,1959,666,0,0
742,358,0,0,0,0,0,0,0,0,0,-1,1966,666,0,0
749,358,0,0,0,0,0,0,0,0,0,-1,1973,666,0,0
756,358,0,0,0,0,0,0,0,0,0,-1,1980,666,0,0
763,358,0,0,0,0,0,0,0,0,0,-1,1987,666,0,0
770,358,0,0,0,0,0,0,0,0,0,-1,1994,666,0,0
777,358,0,0,0,0,0,0,0,0,0,-1,2001,666,0,0
784,358,0,0,0,0,0,0,0,0,0,-1,2008,666,0,0
791,358,0,0,0,0,0,0,0,0,0,-1,2015,666,0,0
798,358,0,0,0,0,0,0,0,0,0,-1,2022,666,0,0
805,358,0,0,0,0,0,0,0,0,0,-1,2029,666,0,0
812,358,0,0,0,0,0,0,0,0,0,-1,2036,666,0,0
-700,351,0,0,0,0,0,0,0,0,0,-1,524,673,0,0
-693,351,0,0,0,0,0,0,0,0,0,-1,531,673,0,0
-686,351,0,0,0,0,0,0,0,0,0,-1,538,673,0,0
-679,351,0,0,0,0,0,0,0,0,0,-1,545,673,0,0
-672,351,0,0,0,0,0,0,0,0,0,-1,552,673,0,0
-665,351,0,0,0,0,0,0,0,0,0,-1,559,673,0,0
-658,351,0,0,0,0,0,0,0,0,0,-1,566,673,0,0
-651,351,0,0,0,0,0,0,0,0,0,-1,573,673,0,0
-644,351,0,0,0,0,0,0,0,0,0,-1,580,673,0,0
-637,351,0,0,0,0,0,0,0,0,0,-1,587,673,0,0
-630,351,0,0,0,0,0,0,0,0,0,-1,594,673,0,0
-623,351,0,0,0,0,0,0,0,0,0,-1,601,673,0,0
-616,351,0,0,0,0,0,0,0,0,0,-1,608,673,0,0
-609,351,0,0,0,0,0,0,0,0,0,-1,615,673,0,0
-602,351,0,0,0,0,0,0,0,0,0,-1,622,673,0,0
-595,351,0,0,0,0,0,0,0,0,0,-1,629,673,0,0
-588,351,0,0,0,0,0,0,0,0,0,-1,636,673,0,0
-581,351,-9.0647,1.71906,0,0,0,0,0,0,0,-1,643,673,-9.06472,-1.71908
-574,351,-8.23584,2.64764,0,0,0,0,0,0,0,-1,650,673,-8.23584,-2.64764
-567,351,-10.8027,4.56836,0,0,0,0,0,0,0,-1,657,673,-10.8027,-4.56839
-560,351,-14.2001,2.17084,0,0,0,0,0,0,0,-1,664,673,-14.2002,-2.17086
-553,351,-13.4979,0.779541,0,0,0,0,0,0,0,-1,671,673,-13.4978,-0.779519
-546,351,-14.0065,0.73645,0,0,0,0,0,0,0,-1,678,673,-14.0065,-0.736473
-539,351,-12.8123,-1.46393,0,0,0,0,0,0,0,-1,685,673,-12.8123,1.46395
-532,351,-16.0198,-4.03937,0,0,0,0,0,0,0,-1,692,673,-16.0198,4.03936
-525,351,-21.3407,-6.49072,0,0,0,0,0,0,0,-1,699,673,-21.3407,6.49072
-518,351,-21.3013,-7.35706,0.00419444,0.000829365,-0.000938671,0.00443856,0.000585238,-0.25444,0.00278454,0.0235719,706,673,-21.3014,7.35706
-511,351,-21.3139,-8.27081,0.00319143,0.000467161,-0.000667488,0.00334619,0.000312407,-0.22782,0.00213429,0.0120028,713,673,-21.3139,8.2708
-504,351,-21.3665,-9.14789,0.002408,0.000238487,-0.000497003,0.00251644,0.00013005,-0.214814,0.001636,0.0115709,720,673,-21.3665,9.14788
-497,351,-21.4297,-10.0278,0.00182794,5.16768e-05,-0.000357241,0.0018971,-1.74789e-05,-0.191217,0.0012706,0.0112791,727,673,-21.4297,10.0278
-490,351,-21.4944,-10.8873,0.00136855,2.84237e-06,-0.000333026,0.00144543,-7.40373e-05,-0.226878,0.000989226,0.010763,734,673,-21.4944,10.8873
-483,351,-21.5258,-11.7302,0.00112579,3.63287e-05,-0.000351908,0.00122957,-6.7455e-05,-0.286787,0.0008431,0.0124493,741,673,-21.5258,11.7302
-476,351,-21.5667,-12.5895,0.00102777,0.000165396,-0.000463429,0.00122958,-3.64158e-05,-0.410711,0.000832127,0.011296,748,673,-21.5667,12.5895
-469,351,-21.6053,-13.4478,0.0010531,0.000384524,-0.000689788,0.00148533,-4.77106e-05,-0.559763,0.0010065,0.0131774,755,673,-21.6053,13.4478
-462,351,-21.6508,-14.3763,0.00124365,0.00077892,-0.00101258,0.00205018,-2.76132e-05,-0.672612,0.00137609,0.03775,762,673,-21.6507,14.3764
-455,351,-21.619,-15.3332,0,0,0,0,0,0,0,-1,769,673,-21.619,15.3332
-448,351,-6.61456,-4.38654,0,0,0,0,0,0,0,-1,776,673,-6.61456,4.38654
-441,351,-4.31567,-2.3009,0,0,0,0,0,0,0,-1,783,673,-4.31565,2.30089
-434,351,-3.81708,-2.28003,0,0,0,0,0,0,0,-1,790,673,-3.81706,2.28006
-427,351,-2.05157,-2.7785,0,0,0,0,0,0,0,-1,797,673,-2.05157,2.77848
-420,351,-1.06989,-2.43665,0,0,0,0,0,0,0,-1,804,673,-1.06991,2.43663
-413,351,-0.392334,-2.06671,0,0,0,0,0,0,0,-1,811,673,-0.392363,2.06672
-406,351,-1.86316,-2.58105,0,0,0,0,0,0,0,-1,818,673,-1.86313,2.58106
-399,351,1.00952,-1.53455,0,0,0,0,0,0,0,-1,825,673,1.00954,1.53457
-392,351,-1.02197,0.877136,0,0,0,0,0,0,0,-1,832,673,-1.02195,-0.877143
-385,351,-1.47205,1.04437,0,0,0,0,0,0,0,-1,839,673,-1.47207,-1.04435
-378,351,0,0,0,0,0,0,0,0,0,-1,846,673,0,0
-371,351,0,0,0,0,0,0,0,0,0,-1,853,673,0,0
-364,351,0,0,0,0,0,0,0,0,0,-1,860,673,0,0
-357,351,0,0,0,0,0,0,0,0,0,-1,867,673,0,0
-350,351,0,0,0,0,0,0,0,0,0,-1,874,673,0,0
-343,351,0,0,0,0,0,0,0,0,0,-1,881,673,0,0
-336,351,0,0,0,0,0,0,0,0,0,-1,888,673,0,0
-329,351,0,0,0,0,0,0,0,0,0,-1,895,673,0,0
-322,351,0,0,0,0,0,0,0,0,0,-1,902,673,0,0
-315,351,0,0,0,0,0,0,0,0,0,-1,909,673,0,0
-308,351,0,0,0,0,0,0,0,0,0,-1,916,673,0,0
-301,351,0,0,0,0,0,0,0,0,0,-1,923,673,0,0
-294,351,0,0,0,0,0,0,0,0,0,-1,930,673,0,0
-287,351,0,0,0,0,0,0,0,0,0,-1,937,673,0,0
-280,351,0,0,0,0,0,0,0,0,0,-1,944,673,0,0
-273,351,0,0,0,0,0,0,0,0,0,-1,951,673,0,0
-266,351,0,0,0,0,0,0,0,0,0,-1,958,673,0,0
-259,351,0,0,0,0,0,0,0,0,0,-1,965,673,0,0
-252,351,0,0,0,0,0,0,0,0,0,-1,972,673,0,0
-245,351,0,0,0,0,0,0,0,0,0,-1,979,673,0,0
-238,351,0,0,0,0,0,0,0,0,0,-1,986,673,0,0
-231,351,0,0,0,0,0,0,0,0,0,-1,993,673,0,0
-224,351,0,0,0,0,0,0,0,0,0,-1,1000,673,0,0
-217,351,0,0,0,0,0,0,0,0,0,-1,1007,673,0,0
-210,351,0,0,0,0,0,0,0,0,0,-1,1014,673,0,0
-203,351,0,0,0,0,0,0,0,0,0,-1,1021,673,0,0
-196,351,0,0,0,0,0,0,0,0,0,-1,1028,673,0,0
-189,351,0,0,0,0,0,0,0,0,0,-1,1035,673,0,0
-182,351,0,0,0,0,0,0,0,0,0,-1,1042,673,0,0
-175,351,0,0,0,0,0,0,0,0,0,-1,1049,673,0,0
-168,351,0,0,0,0,0,0,0,0,0,-1,1056,673,0,0
-161,351,0,0,0,0,0,0,0,0,0,-1,1063,673,0,0
-154,351,0,0,0,0,0,0,0,0,0,-1,1070,673,0,0
-147,351,0,0,0,0,0,0,0,0,0,-1,1077,673,0,0
-140,351,0,0,0,0,0,0,0,0,0,-1,1084,673,0,0
-133,351,0,0,0,0,0,0,0,0,0,-1,1091,673,0,0
-126,351,0,0,0,0,0,0,0,0,0,-1,1098,673,0,0
-119,351,0,0,0,0,0,0,0,0,0,-1,1105,673,0,0
-112,351,0,0,0,0,0,0,0,0,0,-1,1112,673,0,0
-105,351,0,0,0,0,0,0,0,0,0,-1,1119,673,0,0
-98,351,0,0,0,0,0,0,0,0,0,-1,1126,673,0,0
-91,351,0,0,0,0,0,0,0,0,0,-1,1133,673,0,0
-84,351,0,0,0,0,0,0,0,0,0,-1,1140,673,0,0
-77,351,0,0,0,0,0,0,0,0,0,-1,1147,673,0,0
-70,351,0,0,0,0,0,0,0,0,0,-1,1154,673,0,0
-63,351,0,0,0,0,0,0,0,0,0,-1,1161,673,0,0
-56,351,0,0,0,0,0,0,0,0,0,-1,1168,673,0,0
-49,351,0,0,0,0,0,0,0,0,0,-1,1175,673,0,0
-42,351,0,0,0,0,0,0,0,0,0,-1,1182,673,0,0
-35,351,0,0,0,0,0,0,0,0,0,-1,1189,673,0,0
-28,351,0,0,0,0,0,0,0,0,0,-1,1196,673,0,0
-21,351,0,0,0,0,0,0,0,0,0,-1,1203,673,0,0
-14,351,0,0,0,0,0,0,0,0,0,-1,1210,673,0,0
-7,351,0,0,0,0,0,0,0,0,0,-1,1217,673,0,0
0,351,0,0,0,0,0,0,0,0,0,-1,1224,673,0,0
7,351,0,0,0,0,0,0,0,0,0,-1,1231,673,0,0
14,351,0,0,0,0,0,0,0,0,0,-1,1238,673,0,0
21,351,0,0,0,0,0,0,0,0,0,-1,1245,673,0,0
28,351,0,0,0,0,0,0,0,0,0,-1,1252,673,0,0
35,351,0,0,0,0,0,0,0,0,0,-1,1259,673,0,0
42,351,0,0,0,0,0,0,0,0,0,-1,1266,673,0,0
49,351,0,0,0,0,0,0,0,0,0,-1,1273,673,0,0
56,351,0,0,0,0,0,0,0,0,0,-1,1280,673,0,0
63,351,0,0,0,0,0,0,0,0,0,-1,1287,673,0,0
70,351,0,0,0,0,0,0,0,0,0,-1,1294,673,0,0
77,351,0,0,0,0,0,0,0,0,0,-1,1301,673,0,0
84,351,0,0,0,0,0,0,0,0,0,-1,1308,673,0,0
91,351,0,0,0,0,0,0,0,0,0,-1,1315,673,0,0
98,351,0,0,0,0,0,0,0,0,0,-1,1322,673,0,0
105,351,0,0,0,0,0,0,0,0,0,-1,1329,673,0,0
112,351,0,0,0,0,0,0,0,0,0,-1,1336,673,0,0
119,351,0,0,0,0,0,0,0,0,0,-1,1343,673,0,0
126,351,0,0,0,0,0,0,0,0,0,-1,1350,673,0,0
133,351,0,0,0,0,0,0,0,0,0,-1,1357,673,0,0
140,351,0,0,0,0,0,0,0,0,0,-1,1364,673,0,0
147,351,0,0,0,0,0,0,0,0,0,-1,1371,673,0,0
154,351,0,0,0,0,0,0,0,0,0,-1,1378,673,0,0
161,351,0,0,0,0,0,0,0,0,0,-1,1385,673,0,0
168,351,0,0,0,0,0,0,0,0,0,-1,1392,673,0,0
175,351,0,0,0,0,0,0,0,0,0,-1,1399,673,0,0
182,351,0,0,0,0,0,0,0,0,0,-1,1406,673,0,0
189,351,0,0,0,0,0,0,0,0,0,-1,1413,673,0,0
196,351,0,0,0,0,0,0,0,0,0,-1,1420,673,0,0
203,351,0,0,0,0,0,0,0,0,0,-1,1427,673,0,0
210,351,0,0,0,0,0,0,0,0,0,-1,1434,673,0,0
217,351,0,0,0,0,0,0,0,0,0,-1,1441,673,0,0
224,351,0,0,0,0,0,0,0,0,0,-1,1448,673,0,0
231,351,0,0,0,0,0,0,0,0,0,-1,1455,673,0,0
238,351,0,0,0,0,0,0,0,0,0,-1,1462,673,0,0
245,351,0,0,0,0,0,0,0,0,0,-1,1469,673,0,0
252,351,0,0,0,0,0,0,0,0,0,-1,1476,673,0,0
259,351,0,0,0,0,0,0,0,0,0,-1,1483,673,0,0
266,351,0,0,0,0,0,0,0,0,0,-1,1490,673,0,0
273,351,0,0,0,0,0,0,0,0,0,-1,1497,673,0,0
280,351,0,0,0,0,0,0,0,0,0,-1,1504,673,0,0
287,351,0,0,0,0,0,0,0,0,0,-1,1511,673,0,0
294,351,0,0,0,0,0,0,0,0,0,-1,1518,673,0,0
301,351,0,0,0,0,0,0,0,0,0,-1,1525,673,0,0
308,351,0,0,0,0,0,0,0,0,0,-1,1532,673,0,0
315,351,0,0,0,0,0,0,0,0,0,-1,1539,673,0,0
322,351,0,0,0,0,0,0,0,0,0,-1,1546,673,0,0
329,351,0,0,0,0,0,0,0,0,0,-1,1553,673,0,0
336,351,0,0,0,0,0,0,0,0,0,-1,1560,673,0,0
343,351,0,0,0,0,0,0,0,0,0,-1,1567,673,0,0
350,351,0,0,0,0,0,0,0,0,0,-1,1574,673,0,0
357,351,0,0,0,0,0,0,0,0,0,-1,1581,673,0,0
364,351,0,0,0,0,0,0,0,0,0,-1,1588,673,0,0
371,351,0,0,0,0,0,0,0,0,0,-1,1595,673,0,0
378,351,0,0,0,0,0,0,0,0,0,-1,1602,673,0,0
385,351,0,0,0,0,0,0,0,0,0,-1,1609,673,0,0
392,351,0,0,0,0,0,0,0,0,0,-1,1616,673,0,0
399,351,0,0,0,0,0,0,0,0,0,-1,1623,673,0,0
406,351,0,0,0,0,0,0,0,0,0,-1,1630,673,0,0
413,351,0,0,0,0,0,0,0,0,0,-1,1637,673,0,0
420,351,0,0,0,0,0,0,0,0,0,-1,1644,673,0,0
427,351,0,0,0,0,0,0,0,0,0,-1,1651,673,0,0
434,351,0,0,0,0,0,0,0,0,0,-1,1658,673,0,0
441,351,0,0,0,0,0,0,0,0,0,-1,1665,673,0,0
448,351,0,0,0,0,0,0,0,0,0,-1,1672,673,0,0
455,351,0,0,0,0,0,0,0,0,0,-1,1679,673,0,0
462,351,0,0,0,0,0,0,0,0,0,-1,1686,673,0,0
469,351,0,0,0,0,0,0,0,0,0,-1,1693,673,0,0
476,351,0,0,0,0,0,0,0,0,0,-1,1700,673,0,0
483,351,0,0,0,0,0,0,0,0,0,-1,1707,673,0,0
490,351,0,0,0,0,0,0,0,0,0,-1,1714,673,0,0
497,351,0,0,0,0,0,0,0,0,0,-1,1721,673,0,0
504,351,10.8842,1.61615,0,0,0,0,0,0,0,-1,1728,673,10.8842,-1.61618
511,351,15.4548,0.0236816,0,0,0,0,0,0,0,-1,1735,673,15.4549,-0.0236664
518,351,16.7448,2.49268,0,0,0,0,0,0,0,-1,1742,673,16.7448,-2.49269
525,351,16.0701,3.43225,0,0,0,0,0,0,0,-1,1749,673,16.07,-3.43227
532,351,32.3822,3.03021,0,0,0,0,0,0,0,-1,1756,673,32.3822,-3.03019
539,351,15.3387,3.54486,0,0,0,0,0,0,0,-1,1763,673,15.3387,-3.54485
546,351,13.9387,4.59357,0,0,0,0,0,0,0,-1,1770,673,13.9388,-4.59359
553,351,12.0682,2.02832,0,0,0,0,0,0,0,-1,1777,673,12.0683,-2.02831
560,351,12.0173,0.55304,0,0,0,0,0,0,0,-1,1784,673,12.0174,-0.553028
567,351,10.7827,0.130188,0,0,0,0,0,0,0,-1,1791,673,10.7827,-0.130183
574,351,13.405,-1.09204,0,0,0,0,0,0,0,-1,1798,673,13.405,1.09207
581,351,15.2351,-3.06049,0,0,0,0,0,0,0,-1,1805,673,15.2351,3.06046
588,351,36.0314,-13.8989,0,0,0,0,0,0,0,-1,1812,673,36.0313,13.8989
595,351,36.3187,-12.942,0.000497926,0.000996492,0.000750655,0.00153817,-4.37562e-05,0.945712,0.00104034,0.0486459,1819,673,36.3187,12.9419
602,351,36.256,-11.8818,0.000731848,0.000926804,0.000723153,0.00155902,9.96331e-05,0.852392,0.00100778,0.0204438,1826,673,36.256,11.8818
609,351,36.2411,-11.0167,0.000972531,0.000942536,0.000748848,0.00170653,0.000208536,0.775386,0.00107494,0.0189564,1833,673,36.2411,11.0167
616,351,36.1702,-10.1306,0.00117387,0.00105594,0.000814039,0.00193107,0.000298731,0.749243,0.00120026,0.0157338,1840,673,36.1701,10.1305
623,351,36.1403,-9.26154,0.00142009,0.00128755,0.000927539,0.00228372,0.000423913,0.749736,0.00140269,0.0162024,1847,673,36.1403,9.26155
630,351,36.0632,-8.39557,0.00163161,0.00164558,0.00109881,0.00273743,0.000539762,0.788577,0.00167429,0.0264802,1854,673,36.0633,8.39559
637,351,36.0208,-7.50513,0.00180234,0.00206765,0.00125821,0.00320018,0.000669809,0.837922,0.00194894,0.0315276,1861,673,36.0207,7.50513
644,351,36.0135,-6.61322,0.00193086,0.00259188,0.00144306,0.00374179,0.000780942,0.897974,0.00227925,0.0226734,1868,673,36.0135,6.61323
651,351,35.9828,-5.69739,0.00205994,0.00335497,0.00172015,0.00454544,0.000869475,0.965411,0.00278607,0.0178879,1875,673,35.9828,5.69741
658,351,35.8536,-4.74506,0.0020639,0.00405596,0.00202342,0.00531521,0.000804648,1.01411,0.00330804,0.0448849,1882,673,35.8536,4.74507
665,351,35.5498,-3.70282,0,0,0,0,0,0,0,-1,1889,673,35.5498,3.70281
672,351,34.9646,-3.1748,0,0,0,0,0,0,0,-1,1896,673,34.9646,3.17482
679,351,14.1252,1.85681,0,0,0,0,0,0,0,-1,1903,673,14.1253,-1.85682
686,351,13.0294,2.1189,0,0,0,0,0,0,0,-1,1910,673,13.0294,-2.11892
693,351,13.5187,2.34595,0,0,0,0,0,0,0,-1,1917,673,13.5187,-2.34596
700,351,14.5629,-2.40173,0,0,0,0,0,0,0,-1,1924,673,14.5629,2.40172
707,351,0,0,0,0,0,0,0,0,0,-1,1931,673,0,0
714,351,0,0,0,0,0,0,0,0,0,-1,1938,673,0,0
721,351,0,0,0,0,0,0,0,0,0,-1,1945,673,0,0
728,351,0,0,0,0,0,0,0,0,0,-1,1952,673,0,0
735,351,0,0,0,0,0,0,0,0,0,-1,1959,673,0,0
742,351,0,0,0,0,0,0,0,0,0,-1,1966,673,0,0
749,351,0,0,0,0,0,0,0,0,0,-1,1973,673,0,0
756,351,0,0,0,0,0,0,0,0,0,-1,1980,673,0,0
763,351,0,0,0,0,0,0,0,0,0,-1,1987,673,0,0
770,351,0,0,0,0,0,0,0,0,0,-1,1994,673,0,0
777,351,0,0,0,0,0,0,0,0,0,-1,2001,673,0,0
784,351,0,0,0,0,0,0,0,0,0,-1,2008,673,0,0
791,351,0,0,0,0,0,0,0,0,0,-1,2015,673,0,0
798,351,0,0,0,0,0,0,0,0,0,-1,2022,673,0,0
805,351,0,0,0,0,0,0,0,0,0,-1,2029,673,0,0
812,351,0,0,0,0,0,0,0,0,0,-1,2036,673,0,0
-700,344,0,0,0,0,0,0,0,0,0,-1,524,680,0,0
-693,344,0,0,0,0,0,0,0,0,0,-1,531,680,0,0
-686,344,0,0,0,0,0,0,0,0,0,-1,538,680,0,0
-679,344,0,0,0,0,0,0,0,0,0,-1,545,680,0,0
-672,344,0,0,0,0,0,0,0,0,0,-1,552,680,0,0
-665,344,0,0,0,0,0,0,0,0,0,-1,559,680,0,0
-658,344,0,0,0,0,0,0,0,0,0,-1,566,680,0,0
-651,344,0,0,0,0,0,0,0,0,0,-1,573,680,0,0
-644,344,0,0,0,0,0,0,0,0,0,-1,580,680,0,0
-637,344,0,0,0,0,0,0,0,0,0,-1,587,680,0,0
-630,344,0,0,0,0,0,0,0,0,0,-1,594,680,0,0
-623,344,0,0,0,0,0,0,0,0,0,-1,601,680,0,0
-616,344,0,0,0,0,0,0,0,0,0,-1,608,680,0,0
-609,344,0,0,0,0,0,0,0,0,0,-1,615,680,0,0
-602,344,0,0,0,0,0,0,0,0,0,-1,622,680,0,0
-595,344,0,0,0,0,0,0,0,0,0,-1,629,680,0,0
-588,344,-9.27826,1.47302,0,0,0,0,0,0,0,-1,636,680,-9.27829,-1.473
-581,344,-10.0098,1.71753,0,0,0,0,0,0,0,-1,643,680,-10.0098,-1.7175
-574,344,-10.2208,3.04871,0,0,0,0,0,0,0,-1,650,680,-10.2208,-3.04869
-567,344,-14.3779,2.29016,0,0,0,0,0,0,0,-1,657,680,-14.3779,-2.29014
-560,344,-14.1238,1.8374,0,0,0,0,0,0,0,-1,664,680,-14.1238,-1.83743
-553,344,-14.7884,2.00116,0,0,0,0,0,0,0,-1,671,680,-14.7884,-2.00115
-546,344,-17.4192,0.157654,0,0,0,0,0,0,0,-1,678,680,-17.4192,-0.157635
-539,344,-17.2671,-2.75714,0,0,0,0,0,0,0,-1,685,680,-17.2671,2.75712
-532,344,-18.4417,-4.38605,0,0,0,0,0,0,0,-1,692,680,-18.4417,4.38603
-525,344,-22.1676,-6.48859,0,0,0,0,0,0,0,-1,699,680,-22.1676,6.48861
-518,344,-22.1833,-7.34521,0.00407095,0.00106364,-0.000860923,0.00429997,0.000834615,-0.259997,0.00263291,0.0208585,706,680,-22.1833,7.3452
-511,344,-22.1948,-8.22858,0.00304325,0.000543477,-0.000556491,0.00316153,0.00042519,-0.209442,0.00198123,0.0170681,713,680,-22.1948,8.22859
-504,344,-22.2272,-9.10876,0.00224752,0.000161613,-0.000337227,0.00230069,0.000108449,-0.156364,0.00149895,0.017769,720,680,-22.2272,9.10874
-497,344,-22.2858,-9.99646,0.00166099,-0.000110832,-0.000178665,0.00167883,-0.000128668,-0.0995019,0.00116448,0.0162671,727,680,-22.2858,9.99644
-490,344,-22.3536,-10.8478,0.00121681,-0.000195459,-0.000167422,0.00123638,-0.000215035,-0.116399,0.000904495,0.0154136,734,680,-22.3536,10.8478
-483,344,-22.3618,-11.6892,0.000997156,-0.000142887,-0.000238185,0.00104492,-0.000190649,-0.1979,0.000768089,0.0150708,741,680,-22.3618,11.6892
-476,344,-22.4101,-12.5442,0.000921615,3.23028e-05,-0.000455014,0.00111316,-0.000159246,-0.398456,0.000800489,0.0143877,748,680,-22.4101,12.5442
-469,344,-22.4426,-13.468,0.000959227,0.000332859,-0.000812532,0.00151684,-0.000224758,-0.601451,0.00109387,0.0221834,755,680,-22.4426,13.468
-462,344,-22.4058,-14.4092,0,0,0,0,0,0,0,-1,762,680,-22.4058,14.4092
-455,344,-12.1653,-7.99176,0,0,0,0,0,0,0,-1,769,680,-12.1653,7.99174
-448,344,-5.67657,-2.72864,0,0,0,0,0,0,0,-1,776,680,-5.6766,2.72863
-441,344,-5.09229,-2.34167,0,0,0,0,0,0,0,-1,783,680,-5.09229,2.34168
-434,344,-4.28778,-2.08807,0,0,0,0,0,0,0,-1,790,680,-4.28778,2.08809
-427,344,-3.06506,-1.45404,0,0,0,0,0,0,0,-1,797,680,-3.06505,1.45402
-420,344,-1.96582,-1.57574,0,0,0,0,0,0,0,-1,804,680,-1.96579,1.57574
-413,344,-0.817993,-1.4751,0,0,0,0,0,0,0,-1,811,680,-0.818017,1.47511
-406,344,-0.00714111,-1.25189,0,0,0,0,0,0,0,-1,818,680,-0.00714956,1.25191
-399,344,0.240051,-1.75769,0,0,0,0,0,0,0,-1,825,680,0.240079,1.75767
-392,344,1.11353,-2.05615,0,0,0,0,0,0,0,-1,832,680,1.11351,2.05616
-385,344,0,0,0,0,0,0,0,0,0,-1,839,680,0,0
-378,344,0,0,0,0,0,0,0,0,0,-1,846,680,0,0
-371,344,0,0,0,0,0,0,0,0,0,-1,853,680,0,0
-364,344,0,0,0,0,0,0,0,0,0,-1,860,680,0,0
-357,344,0,0,0,0,0,0,0,0,0,-1,867,680,0,0
-350,344,0,0,0,0,0,0,0,0,0,-1,874,680,0,0
-343,344,0,0,0,0,0,0,0,0,0,-1,881,680,0,0
-336,344,0,0,0,0,0,0,0,0,0,-1,888,680,0,0
-329,344,0,0,0,0,0,0,0,0,0,-1,895,680,0,0
-322,344,0,0,0,0,0,0,0,0,0,-1,902,680,0,0
-315,344,0,0,0,0,0,0,0,0,0,-1,909,680,0,0
-308,344,0,0,0,0,0,0,0,0,0,-1,916,680,0,0
-301,344,0,0,0,0,0,0,0,0,0,-1,923,680,0,0
-294,344,0,0,0,0,0,0,0,0,0,-1,930,680,0,0
-287,344,0,0,0,0,0,0,0,0,0,-1,937,680,0,0
-280,344,0,0,0,0,0,0,0,0,0,-1,944,680,0,0
-273,344,0,0,0,0,0,0,0,0,0,-1,951,680,0,0
-266,344,0,0,0,0,0,0,0,0,0,-1,958,680,0,0
-259,344,0,0,0,0,0,0,0,0,0,-1,965,680,0,0
-252,344,0,0,0,0,0,0,0,0,0,-1,972,680,0,0
-245,344,0,0,0,0,0,0,0,0,0,-1,979,680,0,0
-238,344,0,0,0,0,0,0,0,0,0,-1,986,680,0,0
-231,344,0,0,0,0,0,0,0,0,0,-1,993,680,0,0
-224,344,0,0,0,0,0,0,0,0,0,-1,1000,680,0,0
-217,344,0,0,0,0,0,0,0,0,0,-1,1007,680,0,0
-210,344,0,0,0,0,0,0,0,0,0,-1,1014,680,0,0
-203,344,0,0,0,0,0,0,0,0,0,-1,1021,680,0,0
-196,344,0,0,0,0,0,0,0,0,0,-1,1028,680,0,0
-189,344,0,0,0,0,0,0,0,0,0,-1,1035,680,0,0
-182,344,0,0,0,0,0,0,0,0,0,-1,1042,680,0,0
-175,344,0,0,0,0,0,0,0,0,0,-1,1049,680,0,0
-168,344,0,0,0,0,0,0,0,0,0,-1,1056,680,0,0
-161,344,0,0,0,0,0,0,0,0,0,-1,1063,680,0,0
-154,344,0,0,0,0,0,0,0,0,0,-1,1070,680,0,0
-147,344,0,0,0,0,0,0,0,0,0,-1,1077,680,0,0
-140,344,0,0,0,0,0,0,0,0,0,-1,1084,680,0,0
-133,344,0,0,0,0,0,0,0,0,0,-1,1091,680,0,0
-126,344,0,0,0,0,0,0,0,0,0,-1,1098,680,0,0
-119,344,0,0,0,0,0,0,0,0,0,-1,1105,680,0,0
-112,344,0,0,0,0,0,0,0,0,0,-1,1112,680,0,0
-105,344,0,0,0,0,0,0,0,0,0,-1,1119,680,0,0
-98,344,0,0,0,0,0,0,0,0,0,-1,1126,680,0,0
-91,344,0,0,0,0,0,0,0,0,0,-1,1133,680,0,0
-84,344,0,0,0,0,0,0,0,0,0,-1,1140,680,0,0
-77,344,0,0,0,0,0,0,0,0,0,-1,1147,680,0,0
-70,344,0,0,0,0,0,0,0,0,0,-1,1154,680,0,0
-63,344,0,0,0,0,0,0,0,0,0,-1,1161,680,0,0
-56,344,0,0,0,0,0,0,0,0,0,-1,1168,680,0,0
-49,344,0,0,0,0,0,0,0,0,0,-1,1175,680,0,0
-42,344,0,0,0,0,0,0,0,0,0,-1,1182,680,0,0
-35,344,0,0,0,0,0,0,0,0,0,-1,1189,680,0,0
-28,344,0,0,0,0,0,0,0,0,0,-1,1196,680,0,0
-21,344,0,0,0,0,0,0,0,0,0,-1,1203,680,0,0
-14,344,0,0,0,0,0,0,0,0,0,-1,1210,680,0,0
-7,344,0,0,0,0,0,0,0,0,0,-1,1217,680,0,0
0,344,0,0,0,0,0,0,0,0,0,-1,1224,680,0,0
7,344,0,0,0,0,0,0,0,0,0,-1,1231,680,0,0
14,344,0,0,0,0,0,0,0,0,0,-1,1238,680,0,0
21,344,0,0,0,0,0,0,0,0,0,-1,1245,680,0,0
28,344,0,0,0,0,0,0,0,0,0,-1,1252,680,0,0
35,344,0,0,0,0,0,0,0,0,0,-1,1259,680,0,0
42,344,0,0,0,0,0,0,0,0,0,-1,1266,680,0,0
49,344,0,0,0,0,0,0,0,0,0,-1,1273,680,0,0
56,344,0,0,0,0,0,0,0,0,0,-1,1280,680,0,0
63,344,0,0,0,0,0,0,0,0,0,-1,1287,680,0,0
70,344,0,0,0,0,0,0,0,0,0,-1,1294,680,0,0
77,344,0,0,0,0,0,0,0,0,0,-1,1301,680,0,0
84,344,0,0,0,0,0,0,0,0,0,-1,1308,680,0,0
91,344,0,0,0,0,0,0,0,0,0,-1,1315,680,0,0
98,344,0,0,0,0,0,0,0,0,0,-1,1322,680,0,0
105,344,0,0,0,0,0,0,0,0,0,-1,1329,680,0,0
112,344,0,0,0,0,0,0,0,0,0,-1,1336,680,0,0
119,344,0,0,0,0,0,0,0,0,0,-1,1343,680,0,0
126,344,0,0,0,0,0,0,0,0,0,-1,1350,680,0,0
133,344,0,0,0,0,0,0,0,0,0,-1,1357,680,0,0
140,344,0,0,0,0,0,0,0,0,0,-1,1364,680,0,0
147,344,0,0,0,0,0,0,0,0,0,-1,1371,680,0,0
154,344,0,0,0,0,0,0,0,0,0,-1,1378,680,0,0
161,344,0,0,0,0,0,0,0,0,0,-1,1385,680,0,0
168,344,0,0,0,0,0,0,0,0,0,-1,1392,680,0,0
175,344,0,0,0,0,0,0,0,0,0,-1,1399,680,0,0
182,344,0,0,0,0,0,0,0,0,0,-1,1406,680,0,0
189,344,0,0,0,0,0,0,0,0,0,-1,1413,680,0,0
196,344,0,0,0,0,0,0,0,0,0,-1,1420,680,0,0
203,344,0,0,0,0,0,0,0,0,0,-1,1427,680,0,0
210,344,0,0,0,0,0,0,0,0,0,-1,1434,680,0,0
217,344,0,0,0,0,0,0,0,0,0,-1,1441,680,0,0
224,344,0,0,0,0,0,0,0,0,0,-1,1448,680,0,0
231,344,0,0,0,0,0,0,0,0,0,-1,1455,680,0,0
238,344,0,0,0,0,0,0,0,0,0,-1,1462,680,0,0
245,344,0,0,0,0,0,0,0,0,0,-1,1469,680,0,0
252,344,0,0,0,0,0,0,0,0,0,-1,1476,680,0,0
259,344,0,0,0,0,0,0,0,0,0,-1,1483,680,0,0
266,344,0,0,0,0,0,0,0,0,0,-1,1490,680,0,0
273,344,0,0,0,0,0,0,0,0,0,-1,1497,680,0,0
280,344,0,0,0,0,0,0,0,0,0,-1,1504,680,0,0
287,344,0,0,0,0,0,0,0,0,0,-1,1511,680,0,0
294,344,0,0,0,0,0,0,0,0,0,-1,1518,680,0,0
301,344,0,0,0,0,0,0,0,0,0,-1,1525,680,0,0
308,344,0,0,0,0,0,0,0,0,0,-1,1532,680,0,0
315,344,0,0,0,0,0,0,0,0,0,-1,1539,680,0,0
322,344,0,0,0,0,0,0,0,0,0,-1,1546,680,0,0
329,344,0,0,0,0,0,0,0,0,0,-1,1553,680,0,0
336,344,0,0,0,0,0,0,0,0,0,-1,1560,680,0,0
343,344,0,0,0,0,0,0,0,0,0,-1,1567,680,0,0
350,344,0,0,0,0,0,0,0,0,0,-1,1574,680,0,0
357,344,0,0,0,0,0,0,0,0,0,-1,1581,680,0,0
364,344,0,0,0,0,0,0,0,0,0,-1,1588,680,0,0
371,344,0,0,0,0,0,0,0,0,0,-1,1595,680,0,0
378,344,0,0,0,0,0,0,0,0,0,-1,1602,680,0,0
385,344,0,0,0,0,0,0,0,0,0,-1,1609,680,0,0
392,344,0,0,0,0,0,0,0,0,0,-1,1616,680,0,0
399,344,0,0,0,0,0,0,0,0,0,-1,1623,680,0,0
406,344,0,0,0,0,0,0,0,0,0,-1,1630,680,0,0
413,344,0,0,0,0,0,0,0,0,0,-1,1637,680,0,0
420,344,0,0,0,0,0,0,0,0,0,-1,1644,680,0,0
427,344,0,0,0,0,0,0,0,0,0,-1,1651,680,0,0
434,344,0,0,0,0,0,0,0,0,0,-1,1658,680,0,0
441,344,0,0,0,0,0,0,0,0,0,-1,1665,680,0,0
448,344,0,0,0,0,0,0,0,0,0,-1,1672,680,0,0
455,344,0,0,0,0,0,0,0,0,0,-1,1679,680,0,0
462,344,0,0,0,0,0,0,0,0,0,-1,1686,680,0,0
469,344,0,0,0,0,0,0,0,0,0,-1,1693,680,0,0
476,344,0,0,0,0,0,0,0,0,0,-1,1700,680,0,0
483,344,0,0,0,0,0,0,0,0,0,-1,1707,680,0,0
490,344,0,0,0,0,0,0,0,0,0,-1,1714,680,0,0
497,344,0,0,0,0,0,0,0,0,0,-1,1721,680,0,0
504,344,0,0,0,0,0,0,0,0,0,-1,1728,680,0,0
511,344,15.4819,0.452637,0,0,0,0,0,0,0,-1,1735,680,15.4819,-0.452656
518,344,17.1357,2.31207,0,0,0,0,0,0,0,-1,1742,680,17.1358,-2.31207
525,344,31.5201,2.6217,0,0,0,0,0,0,0,-1,1749,680,31.5201,-2.62168
532,344,31.9766,2.61047,0,0,0,0,0,0,0,-1,1756,680,31.9765,-2.6105
539,344,32.4379,2.65314,0,0,0,0,0,0,0,-1,1763,680,32.4378,-2.65316
546,344,14.6722,4.30243,0,0,0,0,0,0,0,-1,1770,680,14.6722,-4.30241
553,344,14.8136,4.35681,0,0,0,0,0,0,0,-1,1777,680,14.8136,-4.35679
560,344,11.9363,2.14185,0,0,0,0,0,0,0,-1,1784,680,11.9362,-2.14182
567,344,11.397,0.925842,0,0,0,0,0,0,0,-1,1791,680,11.397,-0.92583
574,344,10.0004,0.504639,0,0,0,0,0,0,0,-1,1798,680,10.0004,-0.504645
581,344,13.6709,-0.969604,0,0,0,0,0,0,0,-1,1805,680,13.6709,0.969629
588,344,16.1447,-3.15948,0,0,0,0,0,0,0,-1,1812,680,16.1447,3.15946
595,344,37.181,-12.8269,0,0,0,0,0,0,0,-1,1819,680,37.181,12.8269
602,344,37.306,-11.858,0.000652424,0.000921822,0.000805915,0.00160422,-2.99712e-05,0.868202,0.00107961,0.0359531,1826,680,37.306,11.858
609,344,37.1506,-10.9551,0.00097223,0.000762585,0.000747874,0.00162259,0.000112223,0.715771,0.00104633,0.0183448,1833,680,37.1506,10.955
616,344,37.0835,-10.0662,0.00114792,0.000724082,0.000754679,0.00171987,0.000152133,0.648519,0.00109938,0.023626,1840,680,37.0835,10.0662
623,344,36.9978,-9.19714,0.00131664,0.000855237,0.000782925,0.00190214,0.00026973,0.642121,0.00118843,0.020168,1847,680,36.9978,9.19714
630,344,36.9194,-8.36523,0.00148511,0.00113025,0.000898892,0.00222392,0.000391448,0.687957,0.00137089,0.026202,1854,680,36.9194,8.36522
637,344,36.8916,-7.43933,0.0016431,0.00149654,0.00102428,0.00259672,0.000542916,0.749689,0.00158155,0.0260365,1861,680,36.8916,7.43935
644,344,36.9022,-6.54865,0.00178964,0.00195573,0.00117805,0.00305366,0.00069171,0.820586,0.00184885,0.0174221,1868,680,36.9023,6.54864
651,344,36.8431,-5.66846,0.00196893,0.00261433,0.00141288,0.00374089,0.000842366,0.897673,0.00226595,0.012059,1875,680,36.8431,5.66845
658,344,36.7714,-4.64471,0.00212623,0.0033185,0.00171017,0.00453345,0.000911272,0.953104,0.00276899,0.0278519,1882,680,36.7714,4.64469
665,344,36.5885,-3.82068,0.00261052,0.00422131,0.00214345,0.00570568,0.00112614,0.965111,0.00348951,0.0449022,1889,680,36.5885,3.82066
672,344,36.6172,-3.052,0,0,0,0,0,0,0,-1,1896,680,36.6172,3.05198
679,344,36.7468,-2.59857,0,0,0,0,0,0,0,-1,1903,680,36.7468,2.59857
686,344,15.024,1.82709,0,0,0,0,0,0,0,-1,1910,680,15.024,-1.82706
693,344,12.4362,-1.42346,0,0,0,0,0,0,0,-1,1917,680,12.4361,1.42348
700,344,17.5396,2.61206,0,0,0,0,0,0,0,-1,1924,680,17.5396,-2.61204
707,344,18.5829,3.29352,0,0,0,0,0,0,0,-1,1931,680,18.5828,-3.2935
714,344,0,0,0,0,0,0,0,0,0,-1,1938,680,0,0
721,344,0,0,0,0,0,0,0,0,0,-1,1945,680,0,0
728,344,0,0,0,0,0,0,0,0,0,-1,1952,680,0,0
735,344,0,0,0,0,0,0,0,0,0,-1,1959,680,0,0
742,344,0,0,0,0,0,0,0,0,0,-1,1966,680,0,0
749,344,0,0,0,0,0,0,0,0,0,-1,1973,680,0,0
756,344,0,0,0,0,0,0,0,0,0,-1,1980,680,0,0
763,344,0,0,0,0,0,0,0,0,0,-1,1987,680,0,0
770,344,0,0,0,0,0,0,0,0,0,-1,1994,680,0,0
777,344,0,0,0,0,0,0,0,0,0,-1,2001,680,0,0
784,344,0,0,0,0,0,0,0,0,0,-1,2008,680,0,0
791,344,0,0,0,0,0,0,0,0,0,-1,2015,680,0,0
798,344,0,0,0,0,0,0,0,0,0,-1,2022,680,0,0
805,344,0,0,0,0,0,0,0,0,0,-1,2029,680,0,0
812,344,0,0,0,0,0,0,0,0,0,-1,2036,680,0,0
-700,337,0,0,0,0,0,0,0,0,0,-1,524,687,0,0
-693,337,0,0,0,0,0,0,0,0,0,-1,531,687,0,0
-686,337,0,0,0,0,0,0,0,0,0,-1,538,687,0,0
-679,337,0,0,0,0,0,0,0,0,0,-1,545,687,0,0
-672,337,0,0,0,0,0,0,0,0,0,-1,552,687,0,0
-665,337,0,0,0,0,0,0,0,0,0,-1,559,687,0,0
-658,337,0,0,0,0,0,0,0,0,0,-1,566,687,0,0
-651,337,0,0,0,0,0,0,0,0,0,-1,573,687,0,0
-644,337,0,0,0,0,0,0,0,0,0,-1,580,687,0,0
-637,337,0,0,0,0,0,0,0,0,0,-1,587,687,0,0
-630,337,0,0,0,0,0,0,0,0,0,-1,594,687,0,0
-623,337,0,0,0,0,0,0,0,0,0,-1,601,687,0,0
-616,337,0,0,0,0,0,0,0,0,0,-1,608,687,0,0
-609,337,0,0,0,0,0,0,0,0,0,-1,615,687,0,0
-602,337,0,0,0,0,0,0,0,0,0,-1,622,687,0,0
-595,337,0,0,0,0,0,0,0,0,0,-1,629,687,0,0
-588,337,-10.8413,1.27863,0,0,0,0,0,0,0,-1,636,687,-10.8413,-1.27861
-581,337,-11.2157,1.31567,0,0,0,0,0,0,0,-1,643,687,-11.2157,-1.3157
-574,337,-6.03339,2.0321,0,0,0,0,0,0,0,-1,650,687,-6.03337,-2.03213
-567,337,-13.8102,1.56787,0,0,0,0,0,0,0,-1,657,687,-13.8102,-1.56789
-560,337,-15.5435,2.34247,0,0,0,0,0,0,0,-1,664,687,-15.5435,-2.34247
-553,337,-18.0128,1.12927,0,0,0,0,0,0,0,-1,671,687,-18.0128,-1.12926
-546,337,-18.0244,-2.03845,0,0,0,0,0,0,0,-1,678,687,-18.0244,2.03846
-539,337,-19.2426,-3.53815,0,0,0,0,0,0,0,-1,685,687,-19.2426,3.53813
-532,337,-23.0461,-5.57678,0,0,0,0,0,0,0,-1,692,687,-23.0461,5.57679
-525,337,-23.064,-6.47058,0.00479819,0.00181828,-0.00119502,0.00521822,0.00139825,-0.337996,0.00311901,0.0215204,699,687,-23.064,6.47058
-518,337,-23.0635,-7.34644,0.00366215,0.00101635,-0.000777434,0.00387368,0.000804826,-0.265654,0.00236037,0.0223107,706,687,-23.0635,7.34643
-511,337,-23.0735,-8.20105,0.0027678,0.000399903,-0.00042575,0.00284202,0.000325679,-0.172602,0.00179599,0.0229684,713,687,-23.0735,8.20103
-504,337,-23.1092,-9.09839,0.00201152,-7.70411e-05,-0.000126978,0.00201921,-8.47325e-05,-0.0604997,0.00137526,0.0234529,720,687,-23.1092,9.0984
-497,337,-23.14,-9.96283,0.00143745,-0.000410388,8.99149e-05,0.00144181,-0.000414753,0.0485069,0.00112523,0.0175813,727,687,-23.14,9.96281
-490,337,-23.214,-10.8148,0.00104518,-0.000543935,0.000156615,0.00106047,-0.000559223,0.097307,0.000949941,0.0160996,734,687,-23.214,10.8148
-483,337,-23.2312,-11.6891,0.000862488,-0.000494537,9.80379e-05,0.000869534,-0.000501583,0.0717482,0.00080106,0.0159995,741,687,-23.2312,11.6892
-476,337,-23.2589,-12.5755,0.000803423,-0.000314585,-0.00018537,0.000833357,-0.000344519,-0.160099,0.000699296,0.0185499,748,687,-23.2589,12.5755
-469,337,-23.2977,-13.5209,0,0,0,0,0,0,0,-1,755,687,-23.2977,13.5209
-462,337,-14.186,-8.89264,0,0,0,0,0,0,0,-1,762,687,-14.186,8.89266
-455,337,-6.00574,-3.12933,0,0,0,0,0,0,0,-1,769,687,-6.00576,3.12934
-448,337,-5.30627,-2.07202,0,0,0,0,0,0,0,-1,776,687,-5.30628,2.07205
-441,337,-4.24762,-1.49597,0,0,0,0,0,0,0,-1,783,687,-4.24762,1.49598
-434,337,-6.86908,1.37531,0,0,0,0,0,0,0,-1,790,687,-6.86908,-1.3753
-427,337,-9.92004,2.487,0,0,0,0,0,0,0,-1,797,687,-9.92002,-2.48701
-420,337,-2.95996,-1.76697,0,0,0,0,0,0,0,-1,804,687,-2.95998,1.76696
-413,337,-1.29169,-1.99487,0,0,0,0,0,0,0,-1,811,687,-1.29171,1.9949
-406,337,-1.02356,-1.89563,0,0,0,0,0,0,0,-1,818,687,-1.02357,1.89564
-399,337,-0.472839,-2.21338,0,0,0,0,0,0,0,-1,825,687,-0.472837,2.2134
-392,337,0,0,0,0,0,0,0,0,0,-1,832,687,0,0
-385,337,0,0,0,0,0,0,0,0,0,-1,839,687,0,0
-378,337,0,0,0,0,0,0,0,0,0,-1,846,687,0,0
-371,337,0,0,0,0,0,0,0,0,0,-1,853,687,0,0
-364,337,0,0,0,0,0,0,0,0,0,-1,860,687,0,0
-357,337,0,0,0,0,0,0,0,0,0,-1,867,687,0,0
-350,337,0,0,0,0,0,0,0,0,0,-1,874,687,0,0
-343,337,0,0,0,0,0,0,0,0,0,-1,881,687,0,0
-336,337,0,0,0,0,0,0,0,0,0,-1,888,687,0,0
-329,337,0,0,0,0,0,0,0,0,0,-1,895,687,0,0
-322,337,0,0,0,0,0,0,0,0,0,-1,902,687,0,0
-315,337,0,0,0,0,0,0,0,0,0,-1,909,687,0,0
-308,337,0,0,0,0,0,0,0,0,0,-1,916,687,0,0
-301,337,0,0,0,0,0,0,0,0,0,-1,923,687,0,0
-294,337,0,0,0,0,0,0,0,0,0,-1,930,687,0,0
-287,337,0,0,0,0,0,0,0,0,0,-1,937,687,0,0
-280,337,0,0,0,0,0,0,0,0,0,-1,944,687,0,0
-273,337,0,0,0,0,0,0,0,0,0,-1,951,687,0,0
-266,337,0,0,0,0,0,0,0,0,0,-1,958,687,0,0
-259,337,0,0,0,0,0,0,0,0,0,-1,965,687,0,0
-252,337,0,0,0,0,0,0,0,0,0,-1,972,687,0,0
-245,337,0,0,0,0,0,0,0,0,0,-1,979,687,0,0
-238,337,0,0,0,0,0,0,0,0,0,-1,986,687,0,0
-231,337,0,0,0,0,0,0,0,0,0,-1,993,687,0,0
-224,337,0,0,0,0,0,0,0,0,0,-1,1000,687,0,0
-217,337,0,0,0,0,0,0,0,0,0,-1,1007,687,0,0
-210,337,0,0,0,0,0,0,0,0,0,-1,1014,687,0,0
-203,337,0,0,0,0,0,0,0,0,0,-1,1021,687,0,0
-196,337,0,0,0,0,0,0,0,0,0,-1,1028,687,0,0
-189,337,0,0,0,0,0,0,0,0,0,-1,1035,687,0,0
-182,337,0,0,0,0,0,0,0,0,0,-1,1042,687,0,0
-175,337,0,0,0,0,0,0,0,0,0,-1,1049,687,0,0
-168,337,0,0,0,0,0,0,0,0,0,-1,1056,687,0,0
-161,337,0,0,0,0,0,0,0,0,0,-1,1063,687,0,0
-154,337,0,0,0,0,0,0,0,0,0,-1,1070,687,0,0
-147,337,0,0,0,0,0,0,0,0,0,-1,1077,687,0,0
-140,337,0,0,0,0,0,0,0,0,0,-1,1084,687,0,0
-133,337,0,0,0,0,0,0,0,0,0,-1,1091,687,0,0
-126,337,0,0,0,0,0,0,0,0,0,-1,1098,687,0,0
-119,337,0,0,0,0,0,0,0,0,0,-1,1105,687,0,0
-112,337,0,0,0,0,0,0,0,0,0,-1,1112,687,0,0
-105,337,0,0,0,0,0,0,0,0,0,-1,1119,687,0,0
-98,337,0,0,0,0,0,0,0,0,0,-1,1126,687,0,0
-91,337,0,0,0,0,0,0,0,0,0,-1,1133,687,0,0
-84,337,0,0,0,0,0,0,0,0,0,-1,1140,687,0,0
-77,337,0,0,0,0,0,0,0,0,0,-1,1147,687,0,0
-70,337,0,0,0,0,0,0,0,0,0,-1,1154,687,0,0
-63,337,0,0,0,0,0,0,0,0,0,-1,1161,687,0,0
-56,337,0,0,0,0,0,0,0,0,0,-1,1168,687,0,0
-49,337,0,0,0,0,0,0,0,0,0,-1,1175,687,0,0
-42,337,0,0,0,0,0,0,0,0,0,-1,1182,687,0,0
-35,337,0,0,0,0,0,0,0,0,0,-1,1189,687,0,0
-28,337,0,0,0,0,0,0,0,0,0,-1,1196,687,0,0
-21,337,0,0,0,0,0,0,0,0,0,-1,1203,687,0,0
-14,337,0,0,0,0,0,0,0,0,0,-1,1210,687,0,0
-7,337,0,0,0,0,0,0,0,0,0,-1,1217,687,0,0
0,337,0,0,0,0,0,0,0,0,0,-1,1224,687,0,0
7,337,0,0,0,0,0,0,0,0,0,-1,1231,687,0,0
14,337,0,0,0,0,0,0,0,0,0,-1,1238,687,0,0
21,337,0,0,0,0,0,0,0,0,0,-1,1245,687,0,0
28,337,0,0,0,0,0,0,0,0,0,-1,1252,687,0,0
35,337,0,0,0,0,0,0,0,0,0,-1,1259,687,0,0
42,337,0,0,0,0,0,0,0,0,0,-1,1266,687,0,0
49,337,0,0,0,0,0,0,0,0,0,-1,1273,687,0,0
56,337,0,0,0,0,0,0,0,0,0,-1,1280,687,0,0
63,337,0,0,0,0,0,0,0,0,0,-1,1287,687,0,0
70,337,0,0,0,0,0,0,0,0,0,-1,1294,687,0,0
77,337,0,0,0,0,0,0,0,0,0,-1,1301,687,0,0
84,337,0,0,0,0,0,0,0,0,0,-1,1308,687,0,0
91,337,0,0,0,0,0,0,0,0,0,-1,1315,687,0,0
98,337,0,0,0,0,0,0,0,0,0,-1,1322,687,0,0
105,337,0,0,0,0,0,0,0,0,0,-1,1329,687,0,0
112,337,0,0,0,0,0,0,0,0,0,-1,1336,687,0,0
119,337,0,0,0,0,0,0,0,0,0,-1,1343,687,0,0
126,337,0,0,0,0,0,0,0,0,0,-1,1350,687,0,0
133,337,0,0,0,0,0,0,0,0,0,-1,1357,687,0,0
140,337,0,0,0,0,0,0,0,0,0,-1,1364,687,0,0
147,337,0,0,0,0,0,0,0,0,0,-1,1371,687,0,0
154,337,0,0,0,0,0,0,0,0,0,-1,1378,687,0,0
161,337,0,0,0,0,0,0,0,0,0,-1,1385,687,0,0
168,337,0,0,0,0,0,0,0,0,0,-1,1392,687,0,0
175,337,0,0,0,0,0,0,0,0,0,-1,1399,687,0,0
182,337,0,0,0,0,0,0,0,0,0,-1,1406,687,0,0
189,337,0,0,0,0,0,0,0,0,0,-1,1413,687,0,0
196,337,0,0,0,0,0,0,0,0,0,-1,1420,687,0,0
203,337,0,0,0,0,0,0,0,0,0,-1,1427,687,0,0
210,337,0,0,0,0,0,0,0,0,0,-1,1434,687,0,0
217,337,0,0,0,0,0,0,0,0,0,-1,1441,687,0,0
224,337,0,0,0,0,0,0,0,0,0,-1,1448,687,0,0
231,337,0,0,0,0,0,0,0,0,0,-1,1455,687,0,0
238,337,0,0,0,0,0,0,0,0,0,-1,1462,687,0,0
245,337,0,0,0,0,0,0,0,0,0,-1,1469,687,0,0
252,337,0,0,0,0,0,0,0,0,0,-1,1476,687,0,0
259,337,0,0,0,0,0,0,0,0,0,-1,1483,687,0,0
266,337,0,0,0,0,0,0,0,0,0,-1,1490,687,0,0
273,337,0,0,0,0,0,0,0,0,0,-1,1497,687,0,0
280,337,0,0,0,0,0,0,0,0,0,-1,1504,687,0,0
287,337,0,0,0,0,0,0,0,0,0,-1,1511,687,0,0
294,337,0,0,0,0,0,0,0,0,0,-1,1518,687,0,0
301,337,0,0,0,0,0,0,0,0,0,-1,1525,687,0,0
308,337,0,0,0,0,0,0,0,0,0,-1,1532,687,0,0
315,337,0,0,0,0,0,0,0,0,0,-1,1539,687,0,0
322,337,0,0,0,0,0,0,0,0,0,-1,1546,687,0,0
329,337,0,0,0,0,0,0,0,0,0,-1,1553,687,0,0
336,337,0,0,0,0,0,0,0,0,0,-1,1560,687,0,0
343,337,0,0,0,0,0,0,0,0,0,-1,1567,687,0,0
350,337,0,0,0,0,0,0,0,0,0,-1,1574,687,0,0
357,337,0,0,0,0,0,0,0,0,0,-1,1581,687,0,0
364,337,0,0,0,0,0,0,0,0,0,-1,1588,687,0,0
371,337,0,0,0,0,0,0,0,0,0,-1,1595,687,0,0
378,337,0,0,0,0,0,0,0,0,0,-1,1602,687,0,0
385,337,0,0,0,0,0,0,0,0,0,-1,1609,687,0,0
392,337,0,0,0,0,0,0,0,0,0,-1,1616,687,0,0
399,337,0,0,0,0,0,0,0,0,0,-1,1623,687,0,0
406,337,0,0,0,0,0,0,0,0,0,-1,1630,687,0,0
413,337,0,0,0,0,0,0,0,0,0,-1,1637,687,0,0
420,337,0,0,0,0,0,0,0,0,0,-1,1644,687,0,0
427,337,0,0,0,0,0,0,0,0,0,-1,1651,687,0,0
434,337,0,0,0,0,0,0,0,0,0,-1,1658,687,0,0
441,337,0,0,0,0,0,0,0,0,0,-1,1665,687,0,0
448,337,0,0,0,0,0,0,0,0,0,-1,1672,687,0,0
455,337,0,0,0,0,0,0,0,0,0,-1,1679,687,0,0
462,337,0,0,0,0,0,0,0,0,0,-1,1686,687,0,0
469,337,0,0,0,0,0,0,0,0,0,-1,1693,687,0,0
476,337,0,0,0,0,0,0,0,0,0,-1,1700,687,0,0
483,337,0,0,0,0,0,0,0,0,0,-1,1707,687,0,0
490,337,0,0,0,0,0,0,0,0,0,-1,1714,687,0,0
497,337,0,0,0,0,0,0,0,0,0,-1,1721,687,0,0
504,337,0,0,0,0,0,0,0,0,0,-1,1728,687,0,0
511,337,0,0,0,0,0,0,0,0,0,-1,1735,687,0,0
518,337,18.0369,1.64581,0,0,0,0,0,0,0,-1,1742,687,18.0368,-1.64581
525,337,31.0717,2.13745,0,0,0,0,0,0,0,-1,1749,687,31.0717,-2.13747
532,337,31.5126,2.13904,0,0,0,0,0,0,0,-1,1756,687,31.5125,-2.13905
539,337,31.9684,2.15594,0,0,0,0,0,0,0,-1,1763,687,31.9684,-2.15596
546,337,32.3584,1.43719,0,0,0,0,0,0,0,-1,1770,687,32.3585,-1.43722
553,337,32.1809,1.36395,0,0,0,0,0,0,0,-1,1777,687,32.181,-1.36396
560,337,18.4053,3.62793,0,0,0,0,0,0,0,-1,1784,687,18.4052,-3.6279
567,337,11.9288,1.38776,0,0,0,0,0,0,0,-1,1791,687,11.9288,-1.38777
574,337,10.704,1.19476,0,0,0,0,0,0,0,-1,1798,687,10.704,-1.19478
581,337,8.50427,0.561768,0,0,0,0,0,0,0,-1,1805,687,8.5043,-0.561754
588,337,8.5885,-0.0536499,0,0,0,0,0,0,0,-1,1812,687,8.58844,0.0536788
595,337,37.9265,-12.8655,0,0,0,0,0,0,0,-1,1819,687,37.9265,12.8656
602,337,38.0831,-11.741,0.000793956,0.000833964,0.00100031,0.00181447,-0.000186545,0.795396,0.00127638,0.0463935,1826,687,38.0831,11.7409
609,337,38.0154,-10.8577,0.00110488,0.000523619,0.000809026,0.0016739,-4.53944e-05,0.612959,0.00113137,0.0242295,1833,687,38.0154,10.8577
616,337,37.9506,-9.99457,0.001212,0.000374939,0.000752652,0.00165466,-6.77223e-05,0.53165,0.00112636,0.018997,1840,687,37.9506,9.99455
623,337,37.8884,-9.13208,0.0012747,0.000447259,0.000688761,0.00166444,5.75134e-05,0.514942,0.00109096,0.0160851,1847,687,37.8884,9.13206
630,337,37.8448,-8.26593,0.00138566,0.000670354,0.00074144,0.0018512,0.000204814,0.560673,0.00117185,0.020621,1854,687,37.8448,8.26595
637,337,37.8383,-7.38275,0.00151802,0.00100809,0.000834764,0.00213589,0.00039022,0.63718,0.00131332,0.0192266,1861,687,37.8383,7.38278
644,337,37.7793,-6.4707,0.00167999,0.00145143,0.000983854,0.00255618,0.000575239,0.72758,0.00154841,0.0122942,1868,687,37.7793,6.47073
651,337,37.6918,-5.61859,0.00189702,0.00205377,0.00121133,0.00318926,0.000761537,0.817705,0.00192326,0.011168,1875,687,37.6918,5.61858
658,337,37.6656,-4.73187,0.00216998,0.00277204,0.00154123,0.00404136,0.000900666,0.881843,0.00244984,0.0133293,1882,687,37.6656,4.73186
665,337,37.6582,-3.84094,0.00275337,0.00368018,0.00203264,0.00530157,0.00113198,0.897472,0.00322399,0.017124,1889,687,37.6583,3.84095
672,337,37.6982,-2.93579,0,0,0,0,0,0,0,-1,1896,687,37.6983,2.93582
679,337,37.5571,-2.21075,0,0,0,0,0,0,0,-1,1903,687,37.5571,2.21078
686,337,18.5614,1.68597,0,0,0,0,0,0,0,-1,1910,687,18.5614,-1.68598
693,337,16.5415,2.21411,0,0,0,0,0,0,0,-1,1917,687,16.5415,-2.2141
700,337,17.2661,2.44379,0,0,0,0,0,0,0,-1,1924,687,17.2661,-2.44378
707,337,17.3544,5.61853,0,0,0,0,0,0,0,-1,1931,687,17.3543,-5.61851
714,337,0,0,0,0,0,0,0,0,0,-1,1938,687,0,0
721,337,0,0,0,0,0,0,0,0,0,-1,1945,687,0,0
728,337,0,0,0,0,0,0,0,0,0,-1,1952,687,0,0
735,337,0,0,0,0,0,0,0,0,0,-1,1959,687,0,0
742,337,0,0,0,0,0,0,0,0,0,-1,1966,687,0,0
749,337,0,0,0,0,0,0,0,0,0,-1,1973,687,0,0
756,337,0,0,0,0,0,0,0,0,0,-1,1980,687,0,0
763,337,0,0,0,0,0,0,0,0,0,-1,1987,687,0,0
770,337,0,0,0,0,0,0,0,0,0,-1,1994,687,0,0
777,337,0,0,0,0,0,0,0,0,0,-1,2001,687,0,0
784,337,0,0,0,0,0,0,0,0,0,-1,2008,687,0,0
791,337,0,0,0,0,0,0,0,0,0,-1,2015,687,0,0
798,337,0,0,0,0,0,0,0,0,0,-1,2022,687,0,0
805,337,0,0,0,0,0,0,0,0,0,-1,2029,687,0,0
812,337,0,0,0,0,0,0,0,0,0,-1,2036,687,0,0
-700,330,0,0,0,0,0,0,0,0,0,-1,524,694,0,0
-693,330,0,0,0,0,0,0,0,0,0,-1,531,694,0,0
-686,330,0,0,0,0,0,0,0,0,0,-1,538,694,0,0
-679,330,0,0,0,0,0,0,0,0,0,-1,545,694,0,0
-672,330,0,0,0,0,0,0,0,0,0,-1,552,694,0,0
-665,330,0,0,0,0,0,0,0,0,0,-1,559,694,0,0
-658,330,0,0,0,0,0,0,0,0,0,-1,566,694,0,0
-651,330,0,0,0,0,0,0,0,0,0,-1,573,694,0,0
-644,330,0,0,0,0,0,0,0,0,0,-1,580,694,0,0
-637,330,0,0,0,0,0,0,0,0,0,-1,587,694,0,0
-630,330,0,0,0,0,0,0,0,0,0,-1,594,694,0,0
-623,330,0,0,0,0,0,0,0,0,0,-1,601,694,0,0
-616,330,0,0,0,0,0,0,0,0,0,-1,608,694,0,0
-609,330,0,0,0,0,0,0,0,0,0,-1,615,694,0,0
-602,330,0,0,0,0,0,0,0,0,0,-1,622,694,0,0
-595,330,-4.67883,1.65515,0,0,0,0,0,0,0,-1,629,694,-4.67881,-1.65515
-588,330,-8.5047,2.67346,0,0,0,0,0,0,0,-1,636,694,-8.50469,-2.67348
-581,330,-12.4227,0.947083,0,0,0,0,0,0,0,-1,643,694,-12.4227,-0.947109
-574,330,-9.02118,1.87952,0,0,0,0,0,0,0,-1,650,694,-9.02115,-1.87953
-567,330,-8.35577,0.909973,0,0,0,0,0,0,0,-1,657,694,-8.35575,-0.909945
-560,330,-13.1036,-0.584656,0,0,0,0,0,0,0,-1,664,694,-13.1035,0.584658
-553,330,-17.5484,-1.21545,0,0,0,0,0,0,0,-1,671,694,-17.5484,1.21547
-546,330,-23.5276,-3.47461,0,0,0,0,0,0,0,-1,678,694,-23.5276,3.47459
-539,330,-23.9312,-4.53461,0,0,0,0,0,0,0,-1,685,694,-23.9312,4.53459
-532,330,-23.8788,-5.49939,0.00529536,0.00258917,-0.00136325,0.00586302,0.00202151,-0.394568,0.00343895,0.0259864,692,694,-23.8788,5.49936
-525,330,-23.8622,-6.45013,0.00420551,0.00159176,-0.000966875,0.00452429,0.00127297,-0.318483,0.00269406,0.0119803,699,694,-23.8622,6.45015
-518,330,-23.9024,-7.28131,0.00324296,0.000786155,-0.000559961,0.00336457,0.000664546,-0.213852,0.00205762,0.0145024,706,694,-23.9024,7.28131
-511,330,-23.9578,-8.14209,0.0024052,0.000151506,-0.000213616,0.00242527,0.000131437,-0.0936731,0.00157487,0.0196262,713,694,-23.9578,8.14208
-504,330,-23.9982,-9.03223,0.00164409,-0.00034314,0.000113339,0.00165053,-0.000349583,0.0567884,0.00123351,0.0194675,720,694,-23.9982,9.03223
-497,330,-24.0367,-9.86597,0.00105143,-0.000680594,0.000351128,0.00111991,-0.00074907,0.192599,0.00108611,0.0146916,727,694,-24.0367,9.86594
-490,330,-24.0726,-10.7506,0.000698807,-0.000835325,0.00047547,0.000834217,-0.000970734,0.277446,0.00104308,0.0153226,734,694,-24.0726,10.7506
-483,330,-24.0975,-11.6583,0.000535548,-0.000769138,0.000459476,0.000681121,-0.00091471,0.306819,0.000924638,0.0155468,741,694,-24.0975,11.6583
-476,330,-24.104,-12.5824,0,0,0,0,0,0,0,-1,748,694,-24.104,12.5824
-469,330,-16.1478,-9.23303,0,0,0,0,0,0,0,-1,755,694,-16.1478,9.23301
-462,330,-7.26733,-3.84833,0,0,0,0,0,0,0,-1,762,694,-7.26731,3.84832
-455,330,-5.04254,-1.79303,0,0,0,0,0,0,0,-1,769,694,-5.04252,1.79305
-448,330,-4.89886,-1.66156,0,0,0,0,0,0,0,-1,776,694,-4.89886,1.66157
-441,330,-5.30676,-2.34045,0,0,0,0,0,0,0,-1,783,694,-5.30679,2.34048
-434,330,-7.20428,1.00024,0,0,0,0,0,0,0,-1,790,694,-7.20431,-1.00027
-427,330,-16.0428,2.89258,0,0,0,0,0,0,0,-1,797,694,-16.0428,-2.89259
-420,330,-29.0331,0.271606,0,0,0,0,0,0,0,-1,804,694,-29.0331,-0.27158
-413,330,-29.0896,0.56366,0,0,0,0,0,0,0,-1,811,694,-29.0896,-0.563671
-406,330,-1.65375,-1.74371,0,0,0,0,0,0,0,-1,818,694,-1.65375,1.74371
-399,330,0,0,0,0,0,0,0,0,0,-1,825,694,0,0
-392,330,0,0,0,0,0,0,0,0,0,-1,832,694,0,0
-385,330,0,0,0,0,0,0,0,0,0,-1,839,694,0,0
-378,330,0,0,0,0,0,0,0,0,0,-1,846,694,0,0
-371,330,0,0,0,0,0,0,0,0,0,-1,853,694,0,0
-364,330,0,0,0,0,0,0,0,0,0,-1,860,694,0,0
-357,330,0,0,0,0,0,0,0,0,0,-1,867,694,0,0
-350,330,0,0,0,0,0,0,0,0,0,-1,874,694,0,0
-343,330,0,0,0,0,0,0,0,0,0,-1,881,694,0,0
-336,330,0,0,0,0,0,0,0,0,0,-1,888,694,0,0
-329,330,0,0,0,0,0,0,0,0,0,-1,895,694,0,0
-322,330,0,0,0,0,0,0,0,0,0,-1,902,694,0,0
-315,330,0,0,0,0,0,0,0,0,0,-1,909,694,0,0
-308,330,0,0,0,0,0,0,0,0,0,-1,916,694,0,0
-301,330,0,0,0,0,0,0,0,0,0,-1,923,694,0,0
-294,330,0,0,0,0,0,0,0,0,0,-1,930,694,0,0
-287,330,0,0,0,0,0,0,0,0,0,-1,937,694,0,0
-280,330,0,0,0,0,0,0,0,0,0,-1,944,694,0,0
-273,330,0,0,0,0,0,0,0,0,0,-1,951,694,0,0
-266,330,0,0,0,0,0,0,0,0,0,-1,958,694,0,0
-259,330,0,0,0,0,0,0,0,0,0,-1,965,694,0,0
-252,330,0,0,0,0,0,0,0,0,0,-1,972,694,0,0
-245,330,0,0,0,0,0,0,0,0,0,-1,979,694,0,0
-238,330,0,0,0,0,0,0,0,0,0,-1,986,694,0,0
-231,330,0,0,0,0,0,0,0,0,0,-1,993,694,0,0
-224,330,0,0,0,0,0,0,0,0,0,-1,1000,694,0,0
-217,330,0,0,0,0,0,0,0,0,0,-1,1007,694,0,0
-210,330,0,0,0,0,0,0,0,0,0,-1,1014,694,0,0
-203,330,0,0,0,0,0,0,0,0,0,-1,1021,694,0,0
-196,330,0,0,0,0,0,0,0,0,0,-1,1028,694,0,0
-189,330,0,0,0,0,0,0,0,0,0,-1,1035,694,0,0
-182,330,0,0,0,0,0,0,0,0,0,-1,1042,694,0,0
-175,330,0,0,0,0,0,0,0,0,0,-1,1049,694,0,0
-168,330,0,0,0,0,0,0,0,0,0,-1,1056,694,0,0
-161,330,0,0,0,0,0,0,0,0,0,-1,1063,694,0,0
-154,330,0,0,0,0,0,0,0,0,0,-1,1070,694,0,0
-147,330,0,0,0,0,0,0,0,0,0,-1,1077,694,0,0
-140,330,0,0,0,0,0,0,0,0,0,-1,1084,694,0,0
-133,330,0,0,0,0,0,0,0,0,0,-1,1091,694,0,0
-126,330,0,0,0,0,0,0,0,0,0,-1,1098,694,0,0
-119,330,0,0,0,0,0,0,0,0,0,-1,1105,694,0,0
-112,330,0,0,0,0,0,0,0,0,0,-1,1112,694,0,0
-105,330,0,0,0,0,0,0,0,0,0,-1,1119,694,0,0
-98,330,0,0,0,0,0,0,0,0,0,-1,1126,694,0,0
-91,330,0,0,0,0,0,0,0,0,0,-1,1133,694,0,0
-84,330,0,0,0,0,0,0,0,0,0,-1,1140,694,0,0
-77,330,0,0,0,0,0,0,0,0,0,-1,1147,694,0,0
-70,330,0,0,0,0,0,0,0,0,0,-1,1154,694,0,0
-63,330,0,0,0,0,0,0,0,0,0,-1,1161,694,0,0
-56,330,0,0,0,0,0,0,0,0,0,-1,1168,694,0,0
-49,330,0,0,0,0,0,0,0,0,0,-1,1175,694,0,0
-42,330,0,0,0,0,0,0,0,0,0,-1,1182,694,0,0
-35,330,0,0,0,0,0,0,0,0,0,-1,1189,694,0,0
-28,330,0,0,0,0,0,0,0,0,0,-1,1196,694,0,0
-21,330,0,0,0,0,0,0,0,0,0,-1,1203,694,0,0
-14,330,0,0,0,0,0,0,0,0,0,-1,1210,694,0,0
-7,330,0,0,0,0,0,0,0,0,0,-1,1217,694,0,0
0,330,0,0,0,0,0,0,0,0,0,-1,1224,694,0,0
7,330,0,0,0,0,0,0,0,0,0,-1,1231,694,0,0
14,330,0,0,0,0,0,0,0,0,0,-1,1238,694,0,0
21,330,0,0,0,0,0,0,0,0,0,-1,1245,694,0,0
28,330,0,0,0,0,0,0,0,0,0,-1,1252,694,0,0
35,330,0,0,0,0,0,0,0,0,0,-1,1259,694,0,0
42,330,0,0,0,0,0,0,0,0,0,-1,1266,694,0,0
49,330,0,0,0,0,0,0,0,0,0,-1,1273,694,0,0
56,330,0,0,0,0,0,0,0,0,0,-1,1280,694,0,0
63,330,0,0,0,0,0,0,0,0,0,-1,1287,694,0,0
70,330,0,0,0,0,0,0,0,0,0,-1,1294,694,0,0
77,330,0,0,0,0,0,0,0,0,0,-1,1301,694,0,0
84,330,0,0,0,0,0,0,0,0,0,-1,1308,694,0,0
91,330,0,0,0,0,0,0,0,0,0,-1,1315,694,0,0
98,330,0,0,0,0,0,0,0,0,0,-1,1322,694,0,0
105,330,0,0,0,0,0,0,0,0,0,-1,1329,694,0,0
112,330,0,0,0,0,0,0,0,0,0,-1,1336,694,0,0
119,330,0,0,0,0,0,0,0,0,0,-1,1343,694,0,0
126,330,0,0,0,0,0,0,0,0,0,-1,1350,694,0,0
133,330,0,0,0,0,0,0,0,0,0,-1,1357,694,0,0
140,330,0,0,0,0,0,0,0,0,0,-1,1364,694,0,0
147,330,0,0,0,0,0,0,0,0,0,-1,1371,694,0,0
154,330,0,0,0,0,0,0,0,0,0,-1,1378,694,0,0
161,330,0,0,0,0,0,0,0,0,0,-1,1385,694,0,0
168,330,0,0,0,0,0,0,0,0,0,-1,1392,694,0,0
175,330,0,0,0,0,0,0,0,0,0,-1,1399,694,0,0
182,330,0,0,0,0,0,0,0,0,0,-1,1406,694,0,0
189,330,0,0,0,0,0,0,0,0,0,-1,1413,694,0,0
196,330,0,0,0,0,0,0,0,0,0,-1,1420,694,0,0
203,330,0,0,0,0,0,0,0,0,0,-1,1427,694,0,0
210,330,0,0,0,0,0,0,0,0,0,-1,1434,694,0,0
217,330,0,0,0,0,0,0,0,0,0,-1,1441,694,0,0
224,330,0,0,0,0,0,0,0,0,0,-1,1448,694,0,0
231,330,0,0,0,0,0,0,0,0,0,-1,1455,694,0,0
238,330,0,0,0,0,0,0,0,0,0,-1,1462,694,0,0
245,330,0,0,0,0,0,0,0,0,0,-1,1469,694,0,0
252,330,0,0,0,0,0,0,0,0,0,-1,1476,694,0,0
259,330,0,0,0,0,0,0,0,0,0,-1,1483,694,0,0
266,330,0,0,0,0,0,0,0,0,0,-1,1490,694,0,0
273,330,0,0,0,0,0,0,0,0,0,-1,1497,694,0,0
280,330,0,0,0,0,0,0,0,0,0,-1,1504,694,0,0
287,330,0,0,0,0,0,0,0,0,0,-1,1511,694,0,0
294,330,0,0,0,0,0,0,0,0,0,-1,1518,694,0,0
301,330,0,0,0,0,0,0,0,0,0,-1,1525,694,0,0
308,330,0,0,0,0,0,0,0,0,0,-1,1532,694,0,0
315,330,0,0,0,0,0,0,0,0,0,-1,1539,694,0,0
322,330,0,0,0,0,0,0,0,0,0,-1,1546,694,0,0
329,330,0,0,0,0,0,0,0,0,0,-1,1553,694,0,0
336,330,0,0,0,0,0,0,0,0,0,-1,1560,694,0,0
343,330,0,0,0,0,0,0,0,0,0,-1,1567,694,0,0
350,330,0,0,0,0,0,0,0,0,0,-1,1574,694,0,0
357,330,0,0,0,0,0,0,0,0,0,-1,1581,694,0,0
364,330,0,0,0,0,0,0,0,0,0,-1,1588,694,0,0
371,330,0,0,0,0,0,0,0,0,0,-1,1595,694,0,0
378,330,0,0,0,0,0,0,0,0,0,-1,1602,694,0,0
385,330,0,0,0,0,0,0,0,0,0,-1,1609,694,0,0
392,330,0,0,0,0,0,0,0,0,0,-1,1616,694,0,0
399,330,0,0,0,0,0,0,0,0,0,-1,1623,694,0,0
406,330,0,0,0,0,0,0,0,0,0,-1,1630,694,0,0
413,330,0,0,0,0,0,0,0,0,0,-1,1637,694,0,0
420,330,0,0,0,0,0,0,0,0,0,-1,1644,694,0,0
427,330,0,0,0,0,0,0,0,0,0,-1,1651,694,0,0
434,330,0,0,0,0,0,0,0,0,0,-1,1658,694,0,0
441,330,0,0,0,0,0,0,0,0,0,-1,1665,694,0,0
448,330,0,0,0,0,0,0,0,0,0,-1,1672,694,0,0
455,330,0,0,0,0,0,0,0,0,0,-1,1679,694,0,0
462,330,0,0,0,0,0,0,0,0,0,-1,1686,694,0,0
469,330,0,0,0,0,0,0,0,0,0,-1,1693,694,0,0
476,330,0,0,0,0,0,0,0,0,0,-1,1700,694,0,0
483,330,0,0,0,0,0,0,0,0,0,-1,1707,694,0,0
490,330,0,0,0,0,0,0,0,0,0,-1,1714,694,0,0
497,330,0,0,0,0,0,0,0,0,0,-1,1721,694,0,0
504,330,0,0,0,0,0,0,0,0,0,-1,1728,694,0,0
511,330,0,0,0,0,0,0,0,0,0,-1,1735,694,0,0
518,330,0,0,0,0,0,0,0,0,0,-1,1742,694,0,0
525,330,30.6694,0.69519,0,0,0,0,0,0,0,-1,1749,694,30.6694,-0.695206
532,330,30.9469,1.32501,0,0,0,0,0,0,0,-1,1756,694,30.9469,-1.32501
539,330,31.5155,1.62506,0,0,0,0,0,0,0,-1,1763,694,31.5155,-1.62507
546,330,31.4187,1.85651,0,0,0,0,0,0,0,-1,1770,694,31.4187,-1.85651
553,330,31.8452,1.81476,0,0,0,0,0,0,0,-1,1777,694,31.8452,-1.81475
560,330,32.2401,2.43225,0,0,0,0,0,0,0,-1,1784,694,32.2401,-2.43227
567,330,18.0321,3.98578,0,0,0,0,0,0,0,-1,1791,694,18.0321,-3.98576
574,330,12.0454,2.1662,0,0,0,0,0,0,0,-1,1798,694,12.0455,-2.16618
581,330,11.4215,4.50836,0,0,0,0,0,0,0,-1,1805,694,11.4215,-4.50837
588,330,6.45667,-0.0630493,0,0,0,0,0,0,0,-1,1812,694,6.45661,0.0630695
595,330,8.23193,-0.258484,0,0,0,0,0,0,0,-1,1819,694,8.23188,0.258459
602,330,38.722,-11.9474,0,0,0,0,0,0,0,-1,1826,694,38.7221,11.9474
609,330,38.819,-10.8634,0.00147719,0.000337189,0.000962245,0.00202559,-0.000211209,0.518005,0.00142602,0.0290029,1833,694,38.819,10.8634
616,330,38.8212,-9.97699,0.00142919,0.000117592,0.000818355,0.0018221,-0.000275311,0.447612,0.00131613,0.0124088,1840,694,38.8212,9.977
623,330,38.7625,-9.08868,0.00132698,0.000169479,0.00066014,0.00162614,-0.000129687,0.4255,0.00112981,0.0137226,1847,694,38.7625,9.08868
630,330,38.7482,-8.19464,0.00134285,0.00035635,0.000653654,0.00166848,3.07229e-05,0.462177,0.00110222,0.014158,1854,694,38.7481,8.19467
637,330,38.7365,-7.30688,0.00141635,0.000667187,0.000716618,0.00185038,0.000233156,0.544575,0.00116368,0.0145899,1861,694,38.7365,7.30689
644,330,38.6251,-6.43085,0.00155232,0.00108109,0.000860403,0.00220878,0.000424624,0.651753,0.00135337,0.00977293,1868,694,38.6251,6.43087
651,330,38.5826,-5.5564,0.00176207,0.00160963,0.00107952,0.00276806,0.000603641,0.750153,0.00168069,0.0131098,1875,694,38.5826,5.5564
658,330,38.5271,-4.67706,0.00207533,0.00228288,0.00141361,0.00359652,0.000761693,0.822039,0.00218842,0.0136925,1882,694,38.5271,4.67704
665,330,38.475,-3.78247,0.00265278,0.00310844,0.00190696,0.00480113,0.000960089,0.844854,0.00293357,0.0116958,1889,694,38.475,3.78246
672,330,38.5365,-2.87616,0.00345445,0.00403589,0.0023901,0.00615288,0.00133746,0.845918,0.00373675,0.0371958,1896,694,38.5364,2.87616
679,330,38.7061,-1.88733,0,0,0,0,0,0,0,-1,1903,694,38.7061,1.8873
686,330,30.6691,0.582825,0,0,0,0,0,0,0,-1,1910,694,30.6691,-0.582798
693,330,17.3999,2.5976,0,0,0,0,0,0,0,-1,1917,694,17.4,-2.59759
700,330,17.1072,4.13,0,0,0,0,0,0,0,-1,1924,694,17.1071,-4.13002
707,330,16.663,4.88672,0,0,0,0,0,0,0,-1,1931,694,16.6629,-4.88673
714,330,16.5454,5.80896,0,0,0,0,0,0,0,-1,1938,694,16.5454,-5.80899
721,330,0,0,0,0,0,0,0,0,0,-1,1945,694,0,0
728,330,0,0,0,0,0,0,0,0,0,-1,1952,694,0,0
735,330,0,0,0,0,0,0,0,0,0,-1,1959,694,0,0
742,330,0,0,0,0,0,0,0,0,0,-1,1966,694,0,0
749,330,0,0,0,0,0,0,0,0,0,-1,1973,694,0,0
756,330,0,0,0,0,0,0,0,0,0,-1,1980,694,0,0
763,330,0,0,0,0,0,0,0,0,0,-1,1987,694,0,0
770,330,0,0,0,0,0,0,0,0,0,-1,1994,694,0,0
777,330,0,0,0,0,0,0,0,0,0,-1,2001,694,0,0
784,330,0,0,0,0,0,0,0,0,0,-1,2008,694,0,0
791,330,0,0,0,0,0,0,0,0,0,-1,2015,694,0,0
798,330,0,0,0,0,0,0,0,0,0,-1,2022,694,0,0
805,330,0,0,0,0,0,0,0,0,0,-1,2029,694,0,0
812,330,0,0,0,0,0,0,0,0,0,-1,2036,694,0,0
-700,323,0,0,0,0,0,0,0,0,0,-1,524,701,0,0
-693,323,0,0,0,0,0,0,0,0,0,-1,531,701,0,0
-686,323,0,0,0,0,0,0,0,0,0,-1,538,701,0,0
-679,323,0,0,0,0,0,0,0,0,0,-1,545,701,0,0
-672,323,0,0,0,0,0,0,0,0,0,-1,552,701,0,0
-665,323,0,0,0,0,0,0,0,0,0,-1,559,701,0,0
-658,323,0,0,0,0,0,0,0,0,0,-1,566,701,0,0
-651,323,0,0,0,0,0,0,0,0,0,-1,573,701,0,0
-644,323,0,0,0,0,0,0,0,0,0,-1,580,701,0,0
-637,323,0,0,0,0,0,0,0,0,0,-1,587,701,0,0
-630,323,0,0,0,0,0,0,0,0,0,-1,594,701,0,0
-623,323,0,0,0,0,0,0,0,0,0,-1,601,701,0,0
-616,323,0,0,0,0,0,0,0,0,0,-1,608,701,0,0
-609,323,0,0,0,0,0,0,0,0,0,-1,615,701,0,0
-602,323,-4.15833,2.12256,0,0,0,0,0,0,0,-1,622,701,-4.1583,-2.12257
-595,323,-4.052,1.79156,0,0,0,0,0,0,0,-1,629,701,-4.05198,-1.79158
-588,323,-4.07019,1.94543,0,0,0,0,0,0,0,-1,636,701,-4.07019,-1.94542
-581,323,-6.63727,0.562805,0,0,0,0,0,0,0,-1,643,701,-6.63728,-0.56279
-574,323,-6.15887,0.426697,0,0,0,0,0,0,0,-1,650,701,-6.15887,-0.426727
-567,323,-10.0015,0.0371094,0,0,0,0,0,0,0,-1,657,701,-10.0015,-0.037126
-560,323,-16.3503,-1.16956,0,0,0,0,0,0,0,-1,664,701,-16.3503,1.16957
-553,323,-24.6248,-3.01062,0,0,0,0,0,0,0,-1,671,701,-24.6248,3.01064
-546,323,-24.5848,-3.74738,0.00584724,0.00434373,-0.0015871,0.00685162,0.00333935,-0.564217,0.00395621,0.039809,678,701,-24.5848,3.74738
-539,323,-24.5806,-4.51477,0.00524455,0.00321603,-0.00136219,0.0059286,0.00253198,-0.465386,0.00343499,0.0302365,685,701,-24.5806,4.51479
-532,323,-24.665,-5.46069,0.00443031,0.00218369,-0.00105477,0.00484789,0.0017661,-0.37697,0.00283308,0.0131551,692,701,-24.6651,5.46068
-525,323,-24.726,-6.36664,0.00356685,0.00128452,-0.000704318,0.0037667,0.00108467,-0.276483,0.00223894,0.00928097,699,701,-24.7259,6.36665
-518,323,-24.7734,-7.20996,0.00275432,0.000528011,-0.000338686,0.0028047,0.000477627,-0.147679,0.00173268,0.0106869,706,701,-24.7734,7.20997
-511,323,-24.8398,-8.07239,0.00194143,-9.01278e-05,-1.07456e-05,0.00194149,-9.01847e-05,-0.00528915,0.00132541,0.0137832,713,701,-24.8398,8.07237
-504,323,-24.9019,-8.9386,0.00113438,-0.000585347,0.000321027,0.00119235,-0.00064332,0.17866,0.00107551,0.0158954,720,701,-24.9019,8.93857
-497,323,-24.9223,-9.77899,0.000467417,-0.000919414,0.000565092,0.000668515,-0.00112051,0.341892,0.00104383,0.0132483,727,701,-24.9223,9.779
-490,323,-24.9691,-10.6599,0.000100351,-0.00112206,0.000762464,0.000466348,-0.00148805,0.447535,0.00117865,0.014485,734,701,-24.9691,10.6598
-483,323,-25.0027,-11.563,-8.99971e-05,-0.0010193,0.000800529,0.000370957,-0.00148026,0.522445,0.00113095,0.0331558,741,701,-25.0028,11.563
-476,323,-25.0334,-12.4716,0,0,0,0,0,0,0,-1,748,701,-25.0334,12.4716
-469,323,-8.33301,-3.64001,0,0,0,0,0,0,0,-1,755,701,-8.33298,3.64
-462,323,-5.29431,-1.45697,0,0,0,0,0,0,0,-1,762,701,-5.29431,1.45699
-455,323,-5.0658,-1.36639,0,0,0,0,0,0,0,-1,769,701,-5.06578,1.3664
-448,323,-4.91608,-1.59601,0,0,0,0,0,0,0,-1,776,701,-4.91606,1.59604
-441,323,-14.4006,0.535217,0,0,0,0,0,0,0,-1,783,701,-14.4006,-0.535203
-434,323,-15.3158,2.479,0,0,0,0,0,0,0,-1,790,701,-15.3158,-2.47898
-427,323,-28.3923,1.16797,0,0,0,0,0,0,0,-1,797,701,-28.3923,-1.16796
-420,323,-28.7292,1.09302,0,0,0,0,0,0,0,-1,804,701,-28.7292,-1.09304
-413,323,-28.7955,1.22418,0,0,0,0,0,0,0,-1,811,701,-28.7956,-1.22419
-406,323,0,0,0,0,0,0,0,0,0,-1,818,701,0,0
-399,323,0,0,0,0,0,0,0,0,0,-1,825,701,0,0
-392,323,0,0,0,0,0,0,0,0,0,-1,832,701,0,0
-385,323,0,0,0,0,0,0,0,0,0,-1,839,701,0,0
-378,323,0,0,0,0,0,0,0,0,0,-1,846,701,0,0
-371,323,0,0,0,0,0,0,0,0,0,-1,853,701,0,0
-364,323,0,0,0,0,0,0,0,0,0,-1,860,701,0,0
-357,323,0,0,0,0,0,0,0,0,0,-1,867,701,0,0
-350,323,0,0,0,0,0,0,0,0,0,-1,874,701,0,0
-343,323,0,0,0,0,0,0,0,0,0,-1,881,701,0,0
-336,323,0,0,0,0,0,0,0,0,0,-1,888,701,0,0
-329,323,0,0,0,0,0,0,0,0,0,-1,895,701,0,0
-322,323,0,0,0,0,0,0,0,0,0,-1,902,701,0,0
-315,323,0,0,0,0,0,0,0,0,0,-1,909,701,0,0
-308,323,0,0,0,0,0,0,0,0,0,-1,916,701,0,0
-301,323,0,0,0,0,0,0,0,0,0,-1,923,701,0,0
-294,323,0,0,0,0,0,0,0,0,0,-1,930,701,0,0
-287,323,0,0,0,0,0,0,0,0,0,-1,937,701,0,0
-280,323,0,0,0,0,0,0,0,0,0,-1,944,701,0,0
-273,323,0,0,0,0,0,0,0,0,0,-1,951,701,0,0
-266,323,0,0,0,0,0,0,0,0,0,-1,958,701,0,0
-259,323,0,0,0,0,0,0,0,0,0,-1,965,701,0,0
-252,323,0,0,0,0,0,0,0,0,0,-1,972,701,0,0
-245,323,0,0,0,0,0,0,0,0,0,-1,979,701,0,0
-238,323,0,0,0,0,0,0,0,0,0,-1,986,701,0,0
-231,323,0,0,0,0,0,0,0,0,0,-1,993,701,0,0
-224,323,0,0,0,0,0,0,0,0,0,-1,1000,701,0,0
-217,323,0,0,0,0,0,0,0,0,0,-1,1007,701,0,0
-210,323,0,0,0,0,0,0,0,0,0,-1,1014,701,0,0
-203,323,0,0,0,0,0,0,0,0,0,-1,1021,701,0,0
-196,323,0,0,0,0,0,0,0,0,0,-1,1028,701,0,0
-189,323,0,0,0,0,0,0,0,0,0,-1,1035,701,0,0
-182,323,0,0,0,0,0,0,0,0,0,-1,1042,701,0,0
-175,323,0,0,0,0,0,0,0,0,0,-1,1049,701,0,0
-168,323,0,0,0,0,0,0,0,0,0,-1,1056,701,0,0
-161,323,0,0,0,0,0,0,0,0,0,-1,1063,701,0,0
-154,323,0,0,0,0,0,0,0,0,0,-1,1070,701,0,0
-147,323,0,0,0,0,0,0,0,0,0,-1,1077,701,0,0
-140,323,0,0,0,0,0,0,0,0,0,-1,1084,701,0,0
-133,323,0,0,0,0,0,0,0,0,0,-1,1091,701,0,0
-126,323,0,0,0,0,0,0,0,0,0,-1,1098,701,0,0
-119,323,0,0,0,0,0,0,0,0,0,-1,1105,701,0,0
-112,323,0,0,0,0,0,0,0,0,0,-1,1112,701,0,0
-105,323,0,0,0,0,0,0,0,0,0,-1,1119,701,0,0
-98,323,0,0,0,0,0,0,0,0,0,-1,1126,701,0,0
-91,323,0,0,0,0,0,0,0,0,0,-1,1133,701,0,0
-84,323,0,0,0,0,0,0,0,0,0,-1,1140,701,0,0
-77,323,0,0,0,0,0,0,0,0,0,-1,1147,701,0,0
-70,323,0,0,0,0,0,0,0,0,0,-1,1154,701,0,0
-63,323,0,0,0,0,0,0,0,0,0,-1,1161,701,0,0
-56,323,0,0,0,0,0,0,0,0,0,-1,1168,701,0,0
-49,323,0,0,0,0,0,0,0,0,0,-1,1175,701,0,0
-42,323,0,0,0,0,0,0,0,0,0,-1,1182,701,0,0
-35,323,0,0,0,0,0,0,0,0,0,-1,1189,701,0,0
-28,323,0,0,0,0,0,0,0,0,0,-1,1196,701,0,0
-21,323,0,0,0,0,0,0,0,0,0,-1,1203,701,0,0
-14,323,0,0,0,0,0,0,0,0,0,-1,1210,701,0,0
-7,323,0,0,0,0,0,0,0,0,0,-1,1217,701,0,0
0,323,0,0,0,0,0,0,0,0,0,-1,1224,701,0,0
7,323,0,0,0,0,0,0,0,0,0,-1,1231,701,0,0
14,323,0,0,0,0,0,0,0,0,0,-1,1238,701,0,0
21,323,0,0,0,0,0,0,0,0,0,-1,1245,701,0,0
28,323,0,0,0,0,0,0,0,0,0,-1,1252,701,0,0
35,323,0,0,0,0,0,0,0,0,0,-1,1259,701,0,0
42,323,0,0,0,0,0,0,0,0,0,-1,1266,701,0,0
49,323,0,0,0,0,0,0,0,0,0,-1,1273,701,0,0
56,323,0,0,0,0,0,0,0,0,0,-1,1280,701,0,0
63,323,0,0,0,0,0,0,0,0,0,-1,1287,701,0,0
70,323,0,0,0,0,0,0,0,0,0,-1,1294,701,0,0
77,323,0,0,0,0,0,0,0,0,0,-1,1301,701,0,0
84,323,0,0,0,0,0,0,0,0,0,-1,1308,701,0,0
91,323,0,0,0,0,0,0,0,0,0,-1,1315,701,0,0
98,323,0,0,0,0,0,0,0,0,0,-1,1322,701,0,0
105,323,0,0,0,0,0,0,0,0,0,-1,1329,701,0,0
112,323,0,0,0,0,0,0,0,0,0,-1,1336,701,0,0
119,323,0,0,0,0,0,0,0,0,0,-1,1343,701,0,0
126,323,0,0,0,0,0,0,0,0,0,-1,1350,701,0,0
133,323,0,0,0,0,0,0,0,0,0,-1,1357,701,0,0
140,323,0,0,0,0,0,0,0,0,0,-1,1364,701,0,0
147,323,0,0,0,0,0,0,0,0,0,-1,1371,701,0,0
154,323,0,0,0,0,0,0,0,0,0,-1,1378,701,0,0
161,323,0,0,0,0,0,0,0,0,0,-1,1385,701,0,0
168,323,0,0,0,0,0,0,0,0,0,-1,1392,701,0,0
175,323,0,0,0,0,0,0,0,0,0,-1,1399,701,0,0
182,323,0,0,0,0,0,0,0,0,0,-1,1406,701,0,0
189,323,0,0,0,0,0,0,0,0,0,-1,1413,701,0,0
196,323,0,0,0,0,0,0,0,0,0,-1,1420,701,0,0
203,323,0,0,0,0,0,0,0,0,0,-1,1427,701,0,0
210,323,0,0,0,0,0,0,0,0,0,-1,1434,701,0,0
217,323,0,0,0,0,0,0,0,0,0,-1,1441,701,0,0
224,323,0,0,0,0,0,0,0,0,0,-1,1448,701,0,0
231,323,0,0,0,0,0,0,0,0,0,-1,1455,701,0,0
238,323,0,0,0,0,0,0,0,0,0,-1,1462,701,0,0
245,323,0,0,0,0,0,0,0,0,0,-1,1469,701,0,0
252,323,0,0,0,0,0,0,0,0,0,-1,1476,701,0,0
259,323,0,0,0,0,0,0,0,0,0,-1,1483,701,0,0
266,323,0,0,0,0,0,0,0,0,0,-1,1490,701,0,0
273,323,0,0,0,0,0,0,0,0,0,-1,1497,701,0,0
280,323,0,0,0,0,0,0,0,0,0,-1,1504,701,0,0
287,323,0,0,0,0,0,0,0,0,0,-1,1511,701,0,0
294,323,0,0,0,0,0,0,0,0,0,-1,1518,701,0,0
301,323,0,0,0,0,0,0,0,0,0,-1,1525,701,0,0
308,323,0,0,0,0,0,0,0,0,0,-1,1532,701,0,0
315,323,0,0,0,0,0,0,0,0,0,-1,1539,701,0,0
322,323,0,0,0,0,0,0,0,0,0,-1,1546,701,0,0
329,323,0,0,0,0,0,0,0,0,0,-1,1553,701,0,0
336,323,0,0,0,0,0,0,0,0,0,-1,1560,701,0,0
343,323,0,0,0,0,0,0,0,0,0,-1,1567,701,0,0
350,323,0,0,0,0,0,0,0,0,0,-1,1574,701,0,0
357,323,0,0,0,0,0,0,0,0,0,-1,1581,701,0,0
364,323,0,0,0,0,0,0,0,0,0,-1,1588,701,0,0
371,323,0,0,0,0,0,0,0,0,0,-1,1595,701,0,0
378,323,0,0,0,0,0,0,0,0,0,-1,1602,701,0,0
385,323,0,0,0,0,0,0,0,0,0,-1,1609,701,0,0
392,323,0,0,0,0,0,0,0,0,0,-1,1616,701,0,0
399,323,0,0,0,0,0,0,0,0,0,-1,1623,701,0,0
406,323,0,0,0,0,0,0,0,0,0,-1,1630,701,0,0
413,323,0,0,0,0,0,0,0,0,0,-1,1637,701,0,0
420,323,0,0,0,0,0,0,0,0,0,-1,1644,701,0,0
427,323,0,0,0,0,0,0,0,0,0,-1,1651,701,0,0
434,323,0,0,0,0,0,0,0,0,0,-1,1658,701,0,0
441,323,0,0,0,0,0,0,0,0,0,-1,1665,701,0,0
448,323,0,0,0,0,0,0,0,0,0,-1,1672,701,0,0
455,323,0,0,0,0,0,0,0,0,0,-1,1679,701,0,0
462,323,0,0,0,0,0,0,0,0,0,-1,1686,701,0,0
469,323,0,0,0,0,0,0,0,0,0,-1,1693,701,0,0
476,323,0,0,0,0,0,0,0,0,0,-1,1700,701,0,0
483,323,0,0,0,0,0,0,0,0,0,-1,1707,701,0,0
490,323,0,0,0,0,0,0,0,0,0,-1,1714,701,0,0
497,323,0,0,0,0,0,0,0,0,0,-1,1721,701,0,0
504,323,0,0,0,0,0,0,0,0,0,-1,1728,701,0,0
511,323,0,0,0,0,0,0,0,0,0,-1,1735,701,0,0
518,323,0,0,0,0,0,0,0,0,0,-1,1742,701,0,0
525,323,0,0,0,0,0,0,0,0,0,-1,1749,701,0,0
532,323,33.6193,1.69446,0,0,0,0,0,0,0,-1,1756,701,33.6193,-1.69444
539,323,32.2698,2.44037,0,0,0,0,0,0,0,-1,1763,701,32.2697,-2.44036
546,323,31.1644,3.9444,0,0,0,0,0,0,0,-1,1770,701,31.1644,-3.94438
553,323,30.2488,5.8775,0,0,0,0,0,0,0,-1,1777,701,30.2487,-5.87752
560,323,40.6711,1.25153,0,0,0,0,0,0,0,-1,1784,701,40.6711,-1.25154
567,323,42.1637,2.01208,0,0,0,0,0,0,0,-1,1791,701,42.1637,-2.01207
574,323,12.514,5.89685,0,0,0,0,0,0,0,-1,1798,701,12.5141,-5.89683
581,323,11.821,5.3476,0,0,0,0,0,0,0,-1,1805,701,11.821,-5.34762
588,323,11.7933,7.00818,0,0,0,0,0,0,0,-1,1812,701,11.7933,-7.00819
595,323,6.67847,0.06604,0,0,0,0,0,0,0,-1,1819,701,6.67841,-0.0660418
602,323,39.3833,-11.767,0,0,0,0,0,0,0,-1,1826,701,39.3832,11.767
609,323,39.6053,-10.8163,0.00191841,0.000422364,0.00127555,0.00264909,-0.000308315,0.520206,0.00187729,0.0417254,1833,701,39.6053,10.8163
616,323,39.6968,-9.90125,0.0017419,0.000102595,0.00102593,0.0022354,-0.000390905,0.448353,0.00163621,0.0137297,1840,701,39.6968,9.90125
623,323,39.6565,-9.01886,0.00149352,0.000105858,0.000758828,0.0018279,-0.000228524,0.415056,0.00130148,0.0130739,1847,701,39.6566,9.01885
630,323,39.6143,-8.1192,0.00144364,0.000220785,0.000677054,0.00174449,-8.00616e-05,0.418143,0.00119058,0.0148449,1854,701,39.6142,8.11919
637,323,39.5756,-7.24408,0.0014654,0.000465093,0.000689765,0.00181726,0.000113233,0.471708,0.00117558,0.0128808,1861,701,39.5755,7.24407
644,323,39.5193,-6.39368,0.00156882,0.000811796,0.000799033,0.00207446,0.000306154,0.5642,0.00129306,0.00947255,1868,701,39.5193,6.39367
651,323,39.4841,-5.50964,0.00174109,0.00124856,0.00097641,0.00250181,0.000487839,0.661866,0.00153139,0.0130795,1875,701,39.4842,5.50963
658,323,39.3873,-4.6048,0.00198317,0.00186014,0.00123912,0.0031623,0.000681008,0.760596,0.00192185,0.0218301,1882,701,39.3873,4.60478
665,323,39.3037,-3.72461,0.00242165,0.00259271,0.00164223,0.00415164,0.000862722,0.811415,0.00252971,0.017613,1889,701,39.3037,3.72458
672,323,39.3354,-2.77936,0.00299713,0.0034379,0.00205358,0.00528289,0.00115215,0.838852,0.00320761,0.0219328,1896,701,39.3354,2.77938
679,323,39.4008,-1.71173,0,0,0,0,0,0,0,-1,1903,701,39.4007,1.71172
686,323,30.4916,0.378235,0,0,0,0,0,0,0,-1,1910,701,30.4916,-0.37825
693,323,23.8806,1.08844,0,0,0,0,0,0,0,-1,1917,701,23.8806,-1.08845
700,323,10.7705,0.828613,0,0,0,0,0,0,0,-1,1924,701,10.7705,-0.828591
707,323,16.9005,4.79193,0,0,0,0,0,0,0,-1,1931,701,16.9005,-4.7919
714,323,16.2346,6.25958,0,0,0,0,0,0,0,-1,1938,701,16.2346,-6.25956
721,323,0,0,0,0,0,0,0,0,0,-1,1945,701,0,0
728,323,0,0,0,0,0,0,0,0,0,-1,1952,701,0,0
735,323,0,0,0,0,0,0,0,0,0,-1,1959,701,0,0
742,323,0,0,0,0,0,0,0,0,0,-1,1966,701,0,0
749,323,0,0,0,0,0,0,0,0,0,-1,1973,701,0,0
756,323,0,0,0,0,0,0,0,0,0,-1,1980,701,0,0
763,323,0,0,0,0,0,0,0,0,0,-1,1987,701,0,0
770,323,0,0,0,0,0,0,0,0,0,-1,1994,701,0,0
777,323,0,0,0,0,0,0,0,0,0,-1,2001,701,0,0
784,323,0,0,0,0,0,0,0,0,0,-1,2008,701,0,0
791,323,0,0,0,0,0,0,0,0,0,-1,2015,701,0,0
798,323,0,0,0,0,0,0,0,0,0,-1,2022,701,0,0
805,323,0,0,0,0,0,0,0,0,0,-1,2029,701,0,0
812,323,0,0,0,0,0,0,0,0,0,-1,2036,701,0,0
-700,316,0,0,0,0,0,0,0,0,0,-1,524,708,0,0
-693,316,0,0,0,0,0,0,0,0,0,-1,531,708,0,0
-686,316,0,0,0,0,0,0,0,0,0,-1,538,708,0,0
-679,316,0,0,0,0,0,0,0,0,0,-1,545,708,0,0
-672,316,0,0,0,0,0,0,0,0,0,-1,552,708,0,0
-665,316,0,0,0,0,0,0,0,0,0,-1,559,708,0,0
-658,316,0,0,0,0,0,0,0,0,0,-1,566,708,0,0
-651,316,0,0,0,0,0,0,0,0,0,-1,573,708,0,0
-644,316,0,0,0,0,0,0,0,0,0,-1,580,708,0,0
-637,316,0,0,0,0,0,0,0,0,0,-1,587,708,0,0
-630,316,0,0,0,0,0,0,0,0,0,-1,594,708,0,0
-623,316,0,0,0,0,0,0,0,0,0,-1,601,708,0,0
-616,316,0,0,0,0,0,0,0,0,0,-1,608,708,0,0
-609,316,0,0,0,0,0,0,0,0,0,-1,615,708,0,0
-602,316,-0.451782,-0.0494995,0,0,0,0,0,0,0,-1,622,708,-0.451768,0.0495022
-595,316,-3.3761,2.17188,0,0,0,0,0,0,0,-1,629,708,-3.37609,-2.17189
-588,316,-5.00177,2.60675,0,0,0,0,0,0,0,-1,636,708,-5.00175,-2.60676
-581,316,-3.94653,0.393433,0,0,0,0,0,0,0,-1,643,708,-3.94655,-0.39342
-574,316,-9.67395,1.06067,0,0,0,0,0,0,0,-1,650,708,-9.67396,-1.06065
-567,316,-10.1962,0.448425,0,0,0,0,0,0,0,-1,657,708,-10.1962,-0.448411
-560,316,-18.9941,-1.75067,0,0,0,0,0,0,0,-1,664,708,-18.9941,1.75068
-553,316,-25.6896,-2.78827,0,0,0,0,0,0,0,-1,671,708,-25.6896,2.78827
-546,316,-25.5961,-3.61816,0.00412942,0.00422603,-0.00141979,0.00559834,0.00275711,-0.802403,0.00323232,0.0488209,678,708,-25.5961,3.61818
-539,316,-25.453,-4.54529,0.00391415,0.00301044,-0.00116844,0.00471506,0.00220953,-0.600897,0.00272403,0.0149481,685,708,-25.453,4.54527
-532,316,-25.5183,-5.41852,0.00342799,0.00194335,-0.000850545,0.00381459,0.00155674,-0.426619,0.00221472,0.0118255,692,708,-25.5183,5.41853
-525,316,-25.5643,-6.29291,0.00280268,0.000981613,-0.000486658,0.00292458,0.000859719,-0.245423,0.00173563,0.0108671,699,708,-25.5643,6.29292
-518,316,-25.5986,-7.16376,0.00214881,0.000210063,-0.000103177,0.00215429,0.000204588,-0.0530186,0.00137309,0.0106079,706,708,-25.5986,7.16376
-511,316,-25.6856,-8.03699,0.00140481,-0.000447442,0.000260915,0.00144087,-0.000483493,0.137304,0.00115595,0.0117635,713,708,-25.6856,8.037
-504,316,-25.7559,-8.89874,0.000611659,-0.00100354,0.000644822,0.000837506,-0.00122939,0.336895,0.00120045,0.0153886,720,708,-25.7559,8.89874
-497,316,-25.7789,-9.72119,-7.15334e-05,-0.00139617,0.000933375,0.000410638,-0.00187834,0.47683,0.00140919,0.0139895,727,708,-25.7789,9.72122
-490,316,-25.846,-10.5712,-0.000375883,-0.0017118,0.00123713,0.0003621,-0.00244978,0.537861,0.0017663,0.0194246,734,708,-25.846,10.5712
-483,316,-25.8482,-11.4759,0,0,0,0,0,0,0,-1,741,708,-25.8482,11.4759
-476,316,-8.90894,-3.31207,0,0,0,0,0,0,0,-1,748,708,-8.90896,3.31206
-469,316,-6.24194,-1.42725,0,0,0,0,0,0,0,-1,755,708,-6.24192,1.42725
-462,316,-5.74237,-1.40039,0,0,0,0,0,0,0,-1,762,708,-5.74238,1.40039
-455,316,-5.44745,-1.21899,0,0,0,0,0,0,0,-1,769,708,-5.44746,1.21898
-448,316,-14.8945,0.655396,0,0,0,0,0,0,0,-1,776,708,-14.8946,-0.655396
-441,316,-14.9626,0.576111,0,0,0,0,0,0,0,-1,783,708,-14.9626,-0.576115
-434,316,-27.7723,1.15576,0,0,0,0,0,0,0,-1,790,708,-27.7723,-1.15579
-427,316,-28.0504,1.31427,0,0,0,0,0,0,0,-1,797,708,-28.0504,-1.31427
-420,316,-28.198,1.62891,0,0,0,0,0,0,0,-1,804,708,-28.198,-1.62889
-413,316,0,0,0,0,0,0,0,0,0,-1,811,708,0,0
-406,316,0,0,0,0,0,0,0,0,0,-1,818,708,0,0
-399,316,0,0,0,0,0,0,0,0,0,-1,825,708,0,0
-392,316,0,0,0,0,0,0,0,0,0,-1,832,708,0,0
-385,316,0,0,0,0,0,0,0,0,0,-1,839,708,0,0
-378,316,0,0,0,0,0,0,0,0,0,-1,846,708,0,0
-371,316,0,0,0,0,0,0,0,0,0,-1,853,708,0,0
-364,316,0,0,0,0,0,0,0,0,0,-1,860,708,0,0
-357,316,0,0,0,0,0,0,0,0,0,-1,867,708,0,0
-350,316,0,0,0,0,0,0,0,0,0,-1,874,708,0,0
-343,316,0,0,0,0,0,0,0,0,0,-1,881,708,0,0
-336,316,0,0,0,0,0,0,0,0,0,-1,888,708,0,0
-329,316,0,0,0,0,0,0,0,0,0,-1,895,708,0,0
-322,316,0,0,0,0,0,0,0,0,0,-1,902,708,0,0
-315,316,0,0,0,0,0,0,0,0,0,-1,909,708,0,0
-308,316,0,0,0,0,0,0,0,0,0,-1,916,708,0,0
-301,316,0,0,0,0,0,0,0,0,0,-1,923,708,0,0
-294,316,0,0,0,0,0,0,0,0,0,-1,930,708,0,0
-287,316,0,0,0,0,0,0,0,0,0,-1,937,708,0,0
-280,316,0,0,0,0,0,0,0,0,0,-1,944,708,0,0
-273,316,0,0,0,0,0,0,0,0,0,-1,951,708,0,0
-266,316,0,0,0,0,0,0,0,0,0,-1,958,708,0,0
-259,316,0,0,0,0,0,0,0,0,0,-1,965,708,0,0
-252,316,0,0,0,0,0,0,0,0,0,-1,972,708,0,0
-245,316,0,0,0,0,0,0,0,0,0,-1,979,708,0,0
-238,316,0,0,0,0,0,0,0,0,0,-1,986,708,0,0
-231,316,0,0,0,0,0,0,0,0,0,-1,993,708,0,0
-224,316,0,0,0,0,0,0,0,0,0,-1,1000,708,0,0
-217,316,0,0,0,0,0,0,0,0,0,-1,1007,708,0,0
-210,316,0,0,0,0,0,0,0,0,0,-1,1014,708,0,0
-203,316,0,0,0,0,0,0,0,0,0,-1,1021,708,0,0
-196,316,0,0,0,0,0,0,0,0,0,-1,1028,708,0,0
-189,316,0,0,0,0,0,0,0,0,0,-1,1035,708,0,0
-182,316,0,0,0,0,0,0,0,0,0,-1,1042,708,0,0
-175,316,0,0,0,0,0,0,0,0,0,-1,1049,708,0,0
-168,316,0,0,0,0,0,0,0,0,0,-1,1056,708,0,0
-161,316,0,0,0,0,0,0,0,0,0,-1,1063,708,0,0
-154,316,0,0,0,0,0,0,0,0,0,-1,1070,708,0,0
-147,316,0,0,0,0,0,0,0,0,0,-1,1077,708,0,0
-140,316,0,0,0,0,0,0,0,0,0,-1,1084,708,0,0
-133,316,0,0,0,0,0,0,0,0,0,-1,1091,708,0,0
-126,316,0,0,0,0,0,0,0,0,0,-1,1098,708,0,0
-119,316,0,0,0,0,0,0,0,0,0,-1,1105,708,0,0
-112,316,0,0,0,0,0,0,0,0,0,-1,1112,708,0,0
-105,316,0,0,0,0,0,0,0,0,0,-1,1119,708,0,0
-98,316,0,0,0,0,0,0,0,0,0,-1,1126,708,0,0
-91,316,0,0,0,0,0,0,0,0,0,-1,1133,708,0,0
-84,316,0,0,0,0,0,0,0,0,0,-1,1140,708,0,0
-77,316,0,0,0,0,0,0,0,0,0,-1,1147,708,0,0
-70,316,0,0,0,0,0,0,0,0,0,-1,1154,708,0,0
-63,316,0,0,0,0,0,0,0,0,0,-1,1161,708,0,0
-56,316,0,0,0,0,0,0,0,0,0,-1,1168,708,0,0
-49,316,0,0,0,0,0,0,0,0,0,-1,1175,708,0,0
-42,316,0,0,0,0,0,0,0,0,0,-1,1182,708,0,0
-35,316,0,0,0,0,0,0,0,0,0,-1,1189,708,0,0
-28,316,0,0,0,0,0,0,0,0,0,-1,1196,708,0,0
-21,316,0,0,0,0,0,0,0,0,0,-1,1203,708,0,0
-14,316,0,0,0,0,0,0,0,0,0,-1,1210,708,0,0
-7,316,0,0,0,0,0,0,0,0,0,-1,1217,708,0,0
0,316,0,0,0,0,0,0,0,0,0,-1,1224,708,0,0
7,316,0,0,0,0,0,0,0,0,0,-1,1231,708,0,0
14,316,0,0,0,0,0,0,0,0,0,-1,1238,708,0,0
21,316,0,0,0,0,0,0,0,0,0,-1,1245,708,0,0
28,316,0,0,0,0,0,0,0,0,0,-1,1252,708,0,0
35,316,0,0,0,0,0,0,0,0,0,-1,1259,708,0,0
42,316,0,0,0,0,0,0,0,0,0,-1,1266,708,0,0
49,316,0,0,0,0,0,0,0,0,0,-1,1273,708,0,0
56,316,0,0,0,0,0,0,0,0,0,-1,1280,708,0,0
63,316,0,0,0,0,0,0,0,0,0,-1,1287,708,0,0
70,316,0,0,0,0,0,0,0,0,0,-1,1294,708,0,0
77,316,0,0,0,0,0,0,0,0,0,-1,1301,708,0,0
84,316,0,0,0,0,0,0,0,0,0,-1,1308,708,0,0
91,316,0,0,0,0,0,0,0,0,0,-1,1315,708,0,0
98,316,0,0,0,0,0,0,0,0,0,-1,1322,708,0,0
105,316,0,0,0,0,0,0,0,0,0,-1,1329,708,0,0
112,316,0,0,0,0,0,0,0,0,0,-1,1336,708,0,0
119,316,0,0,0,0,0,0,0,0,0,-1,1343,708,0,0
126,316,0,0,0,0,0,0,0,0,0,-1,1350,708,0,0
133,316,0,0,0,0,0,0,0,0,0,-1,1357,708,0,0
140,316,0,0,0,0,0,0,0,0,0,-1,1364,708,0,0
147,316,0,0,0,0,0,0,0,0,0,-1,1371,708,0,0
154,316,0,0,0,0,0,0,0,0,0,-1,1378,708,0,0
161,316,0,0,0,0,0,0,0,0,0,-1,1385,708,0,0
168,316,0,0,0,0,0,0,0,0,0,-1,1392,708,0,0
175,316,0,0,0,0,0,0,0,0,0,-1,1399,708,0,0
182,316,0,0,0,0,0,0,0,0,0,-1,1406,708,0,0
189,316,0,0,0,0,0,0,0,0,0,-1,1413,708,0,0
196,316,0,0,0,0,0,0,0,0,0,-1,1420,708,0,0
203,316,0,0,0,0,0,0,0,0,0,-1,1427,708,0,0
210,316,0,0,0,0,0,0,0,0,0,-1,1434,708,0,0
217,316,0,0,0,0,0,0,0,0,0,-1,1441,708,0,0
224,316,0,0,0,0,0,0,0,0,0,-1,1448,708,0,0
231,316,0,0,0,0,0,0,0,0,0,-1,1455,708,0,0
238,316,0,0,0,0,0,0,0,0,0,-1,1462,708,0,0
245,316,0,0,0,0,0,0,0,0,0,-1,1469,708,0,0
252,316,0,0,0,0,0,0,0,0,0,-1,1476,708,0,0
259,316,0,0,0,0,0,0,0,0,0,-1,1483,708,0,0
266,316,0,0,0,0,0,0,0,0,0,-1,1490,708,0,0
273,316,0,0,0,0,0,0,0,0,0,-1,1497,708,0,0
280,316,0,0,0,0,0,0,0,0,0,-1,1504,708,0,0
287,316,0,0,0,0,0,0,0,0,0,-1,1511,708,0,0
294,316,0,0,0,0,0,0,0,0,0,-1,1518,708,0,0
301,316,0,0,0,0,0,0,0,0,0,-1,1525,708,0,0
308,316,0,0,0,0,0,0,0,0,0,-1,1532,708,0,0
315,316,0,0,0,0,0,0,0,0,0,-1,1539,708,0,0
322,316,0,0,0,0,0,0,0,0,0,-1,1546,708,0,0
329,316,0,0,0,0,0,0,0,0,0,-1,1553,708,0,0
336,316,0,0,0,0,0,0,0,0,0,-1,1560,708,0,0
343,316,0,0,0,0,0,0,0,0,0,-1,1567,708,0,0
350,316,0,0,0,0,0,0,0,0,0,-1,1574,708,0,0
357,316,0,0,0,0,0,0,0,0,0,-1,1581,708,0,0
364,316,0,0,0,0,0,0,0,0,0,-1,1588,708,0,0
371,316,0,0,0,0,0,0,0,0,0,-1,1595,708,0,0
378,316,0,0,0,0,0,0,0,0,0,-1,1602,708,0,0
385,316,0,0,0,0,0,0,0,0,0,-1,1609,708,0,0
392,316,0,0,0,0,0,0,0,0,0,-1,1616,708,0,0
399,316,0,0,0,0,0,0,0,0,0,-1,1623,708,0,0
406,316,0,0,0,0,0,0,0,0,0,-1,1630,708,0,0
413,316,0,0,0,0,0,0,0,0,0,-1,1637,708,0,0
420,316,0,0,0,0,0,0,0,0,0,-1,1644,708,0,0
427,316,0,0,0,0,0,0,0,0,0,-1,1651,708,0,0
434,316,0,0,0,0,0,0,0,0,0,-1,1658,708,0,0
441,316,0,0,0,0,0,0,0,0,0,-1,1665,708,0,0
448,316,0,0,0,0,0,0,0,0,0,-1,1672,708,0,0
455,316,0,0,0,0,0,0,0,0,0,-1,1679,708,0,0
462,316,0,0,0,0,0,0,0,0,0,-1,1686,708,0,0
469,316,0,0,0,0,0,0,0,0,0,-1,1693,708,0,0
476,316,0,0,0,0,0,0,0,0,0,-1,1700,708,0,0
483,316,0,0,0,0,0,0,0,0,0,-1,1707,708,0,0
490,316,0,0,0,0,0,0,0,0,0,-1,1714,708,0,0
497,316,0,0,0,0,0,0,0,0,0,-1,1721,708,0,0
504,316,0,0,0,0,0,0,0,0,0,-1,1728,708,0,0
511,316,0,0,0,0,0,0,0,0,0,-1,1735,708,0,0
518,316,0,0,0,0,0,0,0,0,0,-1,1742,708,0,0
525,316,0,0,0,0,0,0,0,0,0,-1,1749,708,0,0
532,316,33.8604,0.531128,0,0,0,0,0,0,0,-1,1756,708,33.8604,-0.531151
539,316,44.4543,2.73468,0,0,0,0,0,0,0,-1,1763,708,44.4543,-2.7347
546,316,44.713,3.35498,0,0,0,0,0,0,0,-1,1770,708,44.7131,-3.35501
553,316,39.9031,6.57275,0,0,0,0,0,0,0,-1,1777,708,39.9031,-6.57274
560,316,39.1196,1.10046,0,0,0,0,0,0,0,-1,1784,708,39.1197,-1.10048
567,316,47.3683,6.04919,0,0,0,0,0,0,0,-1,1791,708,47.3683,-6.04918
574,316,45.9872,6.7655,0,0,0,0,0,0,0,-1,1798,708,45.9871,-6.76552
581,316,24.6815,7.77496,0,0,0,0,0,0,0,-1,1805,708,24.6815,-7.77499
588,316,19.7659,2.90198,0,0,0,0,0,0,0,-1,1812,708,19.7659,-2.902
595,316,12.5363,1.50702,0,0,0,0,0,0,0,-1,1819,708,12.5363,-1.50701
602,316,7.79919,0.0422363,0,0,0,0,0,0,0,-1,1826,708,7.79923,-0.0422066
609,316,40.5916,-10.669,0,0,0,0,0,0,0,-1,1833,708,40.5915,10.669
616,316,40.5686,-9.80188,0.00206426,0.000118767,0.00120744,0.00264204,-0.000459021,0.446318,0.00193263,0.0147999,1840,708,40.5686,9.80188
623,316,40.5365,-8.94647,0.00166401,0.000106693,0.000860532,0.00204588,-0.000275176,0.417651,0.00146429,0.0112892,1847,708,40.5365,8.94645
630,316,40.4664,-8.11346,0.00155616,0.000172051,0.000726638,0.00186757,-0.00013936,0.404886,0.001294,0.0137412,1854,708,40.4665,8.11344
637,316,40.4242,-7.2179,0.00153506,0.000371755,0.000714407,0.00187466,3.21602e-05,0.443736,0.00123919,0.0133693,1861,708,40.4242,7.21789
644,316,40.4165,-6.33282,0.00160901,0.000680898,0.000807599,0.00207639,0.000213524,0.524626,0.00131886,0.013383,1868,708,40.4165,6.33284
651,316,40.3417,-5.46936,0.00175523,0.0010636,0.000963859,0.00243343,0.000385397,0.613161,0.0015103,0.0184341,1875,708,40.3417,5.46938
658,316,40.2412,-4.57391,0.00195961,0.00163103,0.00117747,0.0029842,0.000606439,0.716082,0.00182129,0.0364938,1882,708,40.2412,4.5739
665,316,40.1504,-3.69281,0.00230261,0.00230144,0.00151488,0.00381691,0.000787142,0.785205,0.00232704,0.0254752,1889,708,40.1504,3.6928
672,316,40.1849,-2.79547,0.0027531,0.00310101,0.00188402,0.00481909,0.00103503,0.831433,0.00292931,0.014687,1896,708,40.1849,2.79549
679,316,40.1932,-1.88293,0,0,0,0,0,0,0,-1,1903,708,40.1933,1.88291
686,316,34.0828,0.223206,0,0,0,0,0,0,0,-1,1910,708,34.0828,-0.223183
693,316,26.4315,1.80652,0,0,0,0,0,0,0,-1,1917,708,26.4315,-1.80651
700,316,12.8749,2.89136,0,0,0,0,0,0,0,-1,1924,708,12.8748,-2.89137
707,316,15.7089,5.41486,0,0,0,0,0,0,0,-1,1931,708,15.7088,-5.41487
714,316,16.1727,5.52045,0,0,0,0,0,0,0,-1,1938,708,16.1728,-5.52042
721,316,16.7094,6.53351,0,0,0,0,0,0,0,-1,1945,708,16.7094,-6.5335
728,316,0,0,0,0,0,0,0,0,0,-1,1952,708,0,0
735,316,0,0,0,0,0,0,0,0,0,-1,1959,708,0,0
742,316,0,0,0,0,0,0,0,0,0,-1,1966,708,0,0
749,316,0,0,0,0,0,0,0,0,0,-1,1973,708,0,0
756,316,0,0,0,0,0,0,0,0,0,-1,1980,708,0,0
763,316,0,0,0,0,0,0,0,0,0,-1,1987,708,0,0
770,316,0,0,0,0,0,0,0,0,0,-1,1994,708,0,0
777,316,0,0,0,0,0,0,0,0,0,-1,2001,708,0,0
784,316,0,0,0,0,0,0,0,0,0,-1,2008,708,0,0
791,316,0,0,0,0,0,0,0,0,0,-1,2015,708,0,0
798,316,0,0,0,0,0,0,0,0,0,-1,2022,708,0,0
805,316,0,0,0,0,0,0,0,0,0,-1,2029,708,0,0
812,316,0,0,0,0,0,0,0,0,0,-1,2036,708,0,0
-700,309,0,0,0,0,0,0,0,0,0,-1,524,715,0,0
-693,309,0,0,0,0,0,0,0,0,0,-1,531,715,0,0
-686,309,0,0,0,0,0,0,0,0,0,-1,538,715,0,0
-679,309,0,0,0,0,0,0,0,0,0,-1,545,715,0,0
-672,309,0,0,0,0,0,0,0,0,0,-1,552,715,0,0
-665,309,0,0,0,0,0,0,0,0,0,-1,559,715,0,0
-658,309,0,0,0,0,0,0,0,0,0,-1,566,715,0,0
-651,309,0,0,0,0,0,0,0,0,0,-1,573,715,0,0
-644,309,0,0,0,0,0,0,0,0,0,-1,580,715,0,0
-637,309,0,0,0,0,0,0,0,0,0,-1,587,715,0,0
-630,309,0,0,0,0,0,0,0,0,0,-1,594,715,0,0
-623,309,0,0,0,0,0,0,0,0,0,-1,601,715,0,0
-616,309,0,0,0,0,0,0,0,0,0,-1,608,715,0,0
-609,309,-5.95392,-3.93689,0,0,0,0,0,0,0,-1,615,715,-5.95392,3.93686
-602,309,-4.99786,-3.31287,0,0,0,0,0,0,0,-1,622,715,-4.99786,3.31284
-595,309,-6.80847,2.4046,0,0,0,0,0,0,0,-1,629,715,-6.80845,-2.40458
-588,309,-6.08795,2.19324,0,0,0,0,0,0,0,-1,636,715,-6.08793,-2.19325
-581,309,-5.97552,1.3277,0,0,0,0,0,0,0,-1,643,715,-5.97552,-1.32769
-574,309,-8.73602,0.208435,0,0,0,0,0,0,0,-1,650,715,-8.73604,-0.208437
-567,309,-10.3909,0.85968,0,0,0,0,0,0,0,-1,657,715,-10.3909,-0.859696
-560,309,-18.6088,-1.73389,0,0,0,0,0,0,0,-1,664,715,-18.6088,1.73389
-553,309,-26.4115,-2.5708,0,0,0,0,0,0,0,-1,671,715,-26.4115,2.57082
-546,309,-26.4333,-3.59796,0.00302734,0.00392865,-0.0012077,0.00476704,0.00218895,-0.963972,0.0027553,0.0375137,678,715,-26.4333,3.59796
-539,309,-26.3334,-4.5072,0.00290852,0.00267567,-0.000900414,0.0037,0.00188418,-0.721104,0.00213632,0.0158245,685,715,-26.3334,4.50722
-532,309,-26.3643,-5.36487,0.0025026,0.00158567,-0.000527378,0.00274293,0.00134534,-0.427595,0.00158373,0.0128941,692,715,-26.3642,5.36487
-525,309,-26.4088,-6.28326,0.00198182,0.00060183,-0.00014759,0.00199743,0.000586221,-0.105362,0.00118555,0.0164717,699,715,-26.4087,6.28329
-518,309,-26.4543,-7.14264,0.00141947,-0.000173504,0.000260569,0.00146101,-0.000215043,0.158087,0.00105303,0.0168536,706,715,-26.4543,7.14263
-511,309,-26.5366,-7.96533,0.000703461,-0.00085468,0.000671086,0.000952644,-0.00110386,0.355536,0.0011884,0.0131733,713,715,-26.5366,7.96534
-504,309,-26.6177,-8.82745,-8.79824e-05,-0.00144901,0.00110773,0.00053157,-0.00206856,0.509953,0.00158621,0.0107684,720,715,-26.6177,8.82746
-497,309,-26.6481,-9.65729,-0.000769196,-0.00187611,0.00143504,0.000215413,-0.00286071,0.601351,0.00198285,0.0158986,727,715,-26.6481,9.65729
-490,309,-26.6988,-10.4965,0,0,0,0,0,0,0,-1,734,715,-26.6988,10.4965
-483,309,-17.7261,-7.75836,0,0,0,0,0,0,0,-1,741,715,-17.7261,7.75839
-476,309,-5.29486,-1.2262,0,0,0,0,0,0,0,-1,748,715,-5.29484,1.22622
-469,309,-4.22717,-0.592896,0,0,0,0,0,0,0,-1,755,715,-4.2272,0.592905
-462,309,-10.428,2.46948,0,0,0,0,0,0,0,-1,762,715,-10.428,-2.46947
-455,309,-15.8216,0.00915527,0,0,0,0,0,0,0,-1,769,715,-15.8216,-0.00913359
-448,309,-37.3543,-1.02441,0,0,0,0,0,0,0,-1,776,715,-37.3543,1.02444
-441,309,-19.8181,1.4425,0,0,0,0,0,0,0,-1,783,715,-19.8181,-1.44249
-434,309,-46.7953,1.72064,0,0,0,0,0,0,0,-1,790,715,-46.7953,-1.72067
-427,309,-27.8553,1.40332,0,0,0,0,0,0,0,-1,797,715,-27.8553,-1.40334
-420,309,-27.3148,1.90747,0,0,0,0,0,0,0,-1,804,715,-27.3148,-1.90745
-413,309,0,0,0,0,0,0,0,0,0,-1,811,715,0,0
-406,309,0,0,0,0,0,0,0,0,0,-1,818,715,0,0
-399,309,0,0,0,0,0,0,0,0,0,-1,825,715,0,0
-392,309,0,0,0,0,0,0,0,0,0,-1,832,715,0,0
-385,309,0,0,0,0,0,0,0,0,0,-1,839,715,0,0
-378,309,0,0,0,0,0,0,0,0,0,-1,846,715,0,0
-371,309,0,0,0,0,0,0,0,0,0,-1,853,715,0,0
-364,309,0,0,0,0,0,0,0,0,0,-1,860,715,0,0
-357,309,0,0,0,0,0,0,0,0,0,-1,867,715,0,0
-350,309,0,0,0,0,0,0,0,0,0,-1,874,715,0,0
-343,309,0,0,0,0,0,0,0,0,0,-1,881,715,0,0
-336,309,0,0,0,0,0,0,0,0,0,-1,888,715,0,0
-329,309,0,0,0,0,0,0,0,0,0,-1,895,715,0,0
-322,309,0,0,0,0,0,0,0,0,0,-1,902,715,0,0
-315,309,0,0,0,0,0,0,0,0,0,-1,909,715,0,0
-308,309,0,0,0,0,0,0,0,0,0,-1,916,715,0,0
-301,309,0,0,0,0,0,0,0,0,0,-1,923,715,0,0
-294,309,0,0,0,0,0,0,0,0,0,-1,930,715,0,0
-287,309,0,0,0,0,0,0,0,0,0,-1,937,715,0,0
-280,309,0,0,0,0,0,0,0,0,0,-1,944,715,0,0
-273,309,0,0,0,0,0,0,0,0,0,-1,951,715,0,0
-266,309,0,0,0,0,0,0,0,0,0,-1,958,715,0,0
-259,309,0,0,0,0,0,0,0,0,0,-1,965,715,0,0
-252,309,0,0,0,0,0,0,0,0,0,-1,972,715,0,0
-245,309,0,0,0,0,0,0,0,0,0,-1,979,715,0,0
-238,309,0,0,0,0,0,0,0,0,0,-1,986,715,0,0
-231,309,0,0,0,0,0,0,0,0,0,-1,993,715,0,0
-224,309,0,0,0,0,0,0,0,0,0,-1,1000,715,0,0
-217,309,0,0,0,0,0,0,0,0,0,-1,1007,715,0,0
-210,309,0,0,0,0,0,0,0,0,0,-1,1014,715,0,0
-203,309,0,0,0,0,0,0,0,0,0,-1,1021,715,0,0
-196,309,0,0,0,0,0,0,0,0,0,-1,1028,715,0,0
-189,309,0,0,0,0,0,0,0,0,0,-1,1035,715,0,0
-182,309,0,0,0,0,0,0,0,0,0,-1,1042,715,0,0
-175,309,0,0,0,0,0,0,0,0,0,-1,1049,715,0,0
-168,309,0,0,0,0,0,0,0,0,0,-1,1056,715,0,0
-161,309,0,0,0,0,0,0,0,0,0,-1,1063,715,0,0
-154,309,0,0,0,0,0,0,0,0,0,-1,1070,715,0,0
-147,309,0,0,0,0,0,0,0,0,0,-1,1077,715,0,0
-140,309,0,0,0,0,0,0,0,0,0,-1,1084,715,0,0
-133,309,0,0,0,0,0,0,0,0,0,-1,1091,715,0,0
-126,309,0,0,0,0,0,0,0,0,0,-1,1098,715,0,0
-119,309,0,0,0,0,0,0,0,0,0,-1,1105,715,0,0
-112,309,0,0,0,0,0,0,0,0,0,-1,1112,715,0,0
-105,309,0,0,0,0,0,0,0,0,0,-1,1119,715,0,0
-98,309,0,0,0,0,0,0,0,0,0,-1,1126,715,0,0
-91,309,0,0,0,0,0,0,0,0,0,-1,1133,715,0,0
-84,309,0,0,0,0,0,0,0,0,0,-1,1140,715,0,0
-77,309,0,0,0,0,0,0,0,0,0,-1,1147,715,0,0
-70,309,0,0,0,0,0,0,0,0,0,-1,1154,715,0,0
-63,309,0,0,0,0,0,0,0,0,0,-1,1161,715,0,0
-56,309,0,0,0,0,0,0,0,0,0,-1,1168,715,0,0
-49,309,0,0,0,0,0,0,0,0,0,-1,1175,715,0,0
-42,309,0,0,0,0,0,0,0,0,0,-1,1182,715,0,0
-35,309,0,0,0,0,0,0,0,0,0,-1,1189,715,0,0
-28,309,0,0,0,0,0,0,0,0,0,-1,1196,715,0,0
-21,309,0,0,0,0,0,0,0,0,0,-1,1203,715,0,0
-14,309,0,0,0,0,0,0,0,0,0,-1,1210,715,0,0
-7,309,0,0,0,0,0,0,0,0,0,-1,1217,715,0,0
0,309,0,0,0,0,0,0,0,0,0,-1,1224,715,0,0
7,309,0,0,0,0,0,0,0,0,0,-1,1231,715,0,0
14,309,0,0,0,0,0,0,0,0,0,-1,1238,715,0,0
21,309,0,0,0,0,0,0,0,0,0,-1,1245,715,0,0
28,309,0,0,0,0,0,0,0,0,0,-1,1252,715,0,0
35,309,0,0,0,0,0,0,0,0,0,-1,1259,715,0,0
42,309,0,0,0,0,0,0,0,0,0,-1,1266,715,0,0
49,309,0,0,0,0,0,0,0,0,0,-1,1273,715,0,0
56,309,0,0,0,0,0,0,0,0,0,-1,1280,715,0,0
63,309,0,0,0,0,0,0,0,0,0,-1,1287,715,0,0
70,309,0,0,0,0,0,0,0,0,0,-1,1294,715,0,0
77,309,0,0,0,0,0,0,0,0,0,-1,1301,715,0,0
84,309,0,0,0,0,0,0,0,0,0,-1,1308,715,0,0
91,309,0,0,0,0,0,0,0,0,0,-1,1315,715,0,0
98,309,0,0,0,0,0,0,0,0,0,-1,1322,715,0,0
105,309,0,0,0,0,0,0,0,0,0,-1,1329,715,0,0
112,309,0,0,0,0,0,0,0,0,0,-1,1336,715,0,0
119,309,0,0,0,0,0,0,0,0,0,-1,1343,715,0,0
126,309,0,0,0,0,0,0,0,0,0,-1,1350,715,0,0
133,309,0,0,0,0,0,0,0,0,0,-1,1357,715,0,0
140,309,0,0,0,0,0,0,0,0,0,-1,1364,715,0,0
147,309,0,0,0,0,0,0,0,0,0,-1,1371,715,0,0
154,309,0,0,0,0,0,0,0,0,0,-1,1378,715,0,0
161,309,0,0,0,0,0,0,0,0,0,-1,1385,715,0,0
168,309,0,0,0,0,0,0,0,0,0,-1,1392,715,0,0
175,309,0,0,0,0,0,0,0,0,0,-1,1399,715,0,0
182,309,0,0,0,0,0,0,0,0,0,-1,1406,715,0,0
189,309,0,0,0,0,0,0,0,0,0,-1,1413,715,0,0
196,309,0,0,0,0,0,0,0,0,0,-1,1420,715,0,0
203,309,0,0,0,0,0,0,0,0,0,-1,1427,715,0,0
210,309,0,0,0,0,0,0,0,0,0,-1,1434,715,0,0
217,309,0,0,0,0,0,0,0,0,0,-1,1441,715,0,0
224,309,0,0,0,0,0,0,0,0,0,-1,1448,715,0,0
231,309,0,0,0,0,0,0,0,0,0,-1,1455,715,0,0
238,309,0,0,0,0,0,0,0,0,0,-1,1462,715,0,0
245,309,0,0,0,0,0,0,0,0,0,-1,1469,715,0,0
252,309,0,0,0,0,0,0,0,0,0,-1,1476,715,0,0
259,309,0,0,0,0,0,0,0,0,0,-1,1483,715,0,0
266,309,0,0,0,0,0,0,0,0,0,-1,1490,715,0,0
273,309,0,0,0,0,0,0,0,0,0,-1,1497,715,0,0
280,309,0,0,0,0,0,0,0,0,0,-1,1504,715,0,0
287,309,0,0,0,0,0,0,0,0,0,-1,1511,715,0,0
294,309,0,0,0,0,0,0,0,0,0,-1,1518,715,0,0
301,309,0,0,0,0,0,0,0,0,0,-1,1525,715,0,0
308,309,0,0,0,0,0,0,0,0,0,-1,1532,715,0,0
315,309,0,0,0,0,0,0,0,0,0,-1,1539,715,0,0
322,309,0,0,0,0,0,0,0,0,0,-1,1546,715,0,0
329,309,0,0,0,0,0,0,0,0,0,-1,1553,715,0,0
336,309,0,0,0,0,0,0,0,0,0,-1,1560,715,0,0
343,309,0,0,0,0,0,0,0,0,0,-1,1567,715,0,0
350,309,0,0,0,0,0,0,0,0,0,-1,1574,715,0,0
357,309,0,0,0,0,0,0,0,0,0,-1,1581,715,0,0
364,309,0,0,0,0,0,0,0,0,0,-1,1588,715,0,0
371,309,0,0,0,0,0,0,0,0,0,-1,1595,715,0,0
378,309,0,0,0,0,0,0,0,0,0,-1,1602,715,0,0
385,309,0,0,0,0,0,0,0,0,0,-1,1609,715,0,0
392,309,0,0,0,0,0,0,0,0,0,-1,1616,715,0,0
399,309,0,0,0,0,0,0,0,0,0,-1,1623,715,0,0
406,309,0,0,0,0,0,0,0,0,0,-1,1630,715,0,0
413,309,0,0,0,0,0,0,0,0,0,-1,1637,715,0,0
420,309,0,0,0,0,0,0,0,0,0,-1,1644,715,0,0
427,309,0,0,0,0,0,0,0,0,0,-1,1651,715,0,0
434,309,0,0,0,0,0,0,0,0,0,-1,1658,715,0,0
441,309,0,0,0,0,0,0,0,0,0,-1,1665,715,0,0
448,309,0,0,0,0,0,0,0,0,0,-1,1672,715,0,0
455,309,0,0,0,0,0,0,0,0,0,-1,1679,715,0,0
462,309,0,0,0,0,0,0,0,0,0,-1,1686,715,0,0
469,309,0,0,0,0,0,0,0,0,0,-1,1693,715,0,0
476,309,0,0,0,0,0,0,0,0,0,-1,1700,715,0,0
483,309,0,0,0,0,0,0,0,0,0,-1,1707,715,0,0
490,309,0,0,0,0,0,0,0,0,0,-1,1714,715,0,0
497,309,0,0,0,0,0,0,0,0,0,-1,1721,715,0,0
504,309,0,0,0,0,0,0,0,0,0,-1,1728,715,0,0
511,309,0,0,0,0,0,0,0,0,0,-1,1735,715,0,0
518,309,0,0,0,0,0,0,0,0,0,-1,1742,715,0,0
525,309,0,0,0,0,0,0,0,0,0,-1,1749,715,0,0
532,309,0,0,0,0,0,0,0,0,0,-1,1756,715,0,0
539,309,44.2073,2.66235,0,0,0,0,0,0,0,-1,1763,715,44.2073,-2.66238
546,309,44.4976,3.25531,0,0,0,0,0,0,0,-1,1770,715,44.4976,-3.25533
553,309,47.9611,4.06433,0,0,0,0,0,0,0,-1,1777,715,47.9611,-4.06434
560,309,47.9784,4.64801,0,0,0,0,0,0,0,-1,1784,715,47.9784,-4.64799
567,309,47.0073,5.43121,0,0,0,0,0,0,0,-1,1791,715,47.0073,-5.43121
574,309,45.8746,6.53271,0,0,0,0,0,0,0,-1,1798,715,45.8747,-6.53269
581,309,45.0629,7.73468,0,0,0,0,0,0,0,-1,1805,715,45.0629,-7.73471
588,309,26.2064,7.76422,0,0,0,0,0,0,0,-1,1812,715,26.2064,-7.7642
595,309,19.585,3.71558,0,0,0,0,0,0,0,-1,1819,715,19.5849,-3.71555
602,309,11.0811,3.47772,0,0,0,0,0,0,0,-1,1826,715,11.0811,-3.47772
609,309,41.5635,-10.5402,0,0,0,0,0,0,0,-1,1833,715,41.5634,10.5402
616,309,41.494,-9.71655,0.00222009,0.000193916,0.00117086,0.00275531,-0.000341304,0.428757,0.00196057,0.0290345,1840,715,41.494,9.71655
623,309,41.4226,-8.88782,0.00167119,0.000175129,0.000828271,0.00203922,-0.000192897,0.418129,0.00142813,0.0123657,1847,715,41.4226,8.88779
630,309,41.3341,-8.0592,0.00150538,0.000192283,0.000694759,0.00180474,-0.000107068,0.406833,0.00124039,0.0119667,1854,715,41.3341,8.05919
637,309,41.2859,-7.18744,0.00144015,0.000331307,0.000678747,0.00176213,9.32754e-06,0.442937,0.00117166,0.0148802,1861,715,41.2859,7.18744
644,309,41.2338,-6.28119,0.00148682,0.000595034,0.000768198,0.00192915,0.000152698,0.522442,0.00123835,0.0163724,1868,715,41.2337,6.28119
651,309,41.1832,-5.39777,0.00161759,0.000923261,0.000918584,0.00225242,0.000288427,0.604729,0.0014153,0.0166159,1875,715,41.1832,5.39774
658,309,41.1179,-4.53046,0.0018122,0.00143422,0.00110967,0.00274886,0.000497562,0.701051,0.00169129,0.0228893,1882,715,41.1179,4.53045
665,309,41.1244,-3.64221,0.00212901,0.00203861,0.00141439,0.00349892,0.000668694,0.769425,0.00214475,0.0182641,1889,715,41.1244,3.64219
672,309,41.0659,-2.75598,0.00255488,0.00278296,0.00177573,0.0044483,0.000889534,0.817466,0.00271799,0.0167512,1896,715,41.066,2.756
679,309,41.0577,-1.81281,0.00301923,0.0037836,0.0022142,0.00564836,0.00115447,0.87086,0.00344583,0.030491,1903,715,41.0578,1.81278
686,309,41.0957,-0.779053,0,0,0,0,0,0,0,-1,1910,715,41.0957,0.779069
693,309,32.7026,1.51727,0,0,0,0,0,0,0,-1,1917,715,32.7026,-1.51727
700,309,23.0179,3.08337,0,0,0,0,0,0,0,-1,1924,715,23.018,-3.08336
707,309,15.6318,4.58655,0,0,0,0,0,0,0,-1,1931,715,15.6318,-4.58657
714,309,16.7573,6.68286,0,0,0,0,0,0,0,-1,1938,715,16.7574,-6.68284
721,309,16.8337,5.4458,0,0,0,0,0,0,0,-1,1945,715,16.8338,-5.44582
728,309,0,0,0,0,0,0,0,0,0,-1,1952,715,0,0
735,309,0,0,0,0,0,0,0,0,0,-1,1959,715,0,0
742,309,0,0,0,0,0,0,0,0,0,-1,1966,715,0,0
749,309,0,0,0,0,0,0,0,0,0,-1,1973,715,0,0
756,309,0,0,0,0,0,0,0,0,0,-1,1980,715,0,0
763,309,0,0,0,0,0,0,0,0,0,-1,1987,715,0,0
770,309,0,0,0,0,0,0,0,0,0,-1,1994,715,0,0
777,309,0,0,0,0,0,0,0,0,0,-1,2001,715,0,0
784,309,0,0,0,0,0,0,0,0,0,-1,2008,715,0,0
791,309,0,0,0,0,0,0,0,0,0,-1,2015,715,0,0
798,309,0,0,0,0,0,0,0,0,0,-1,2022,715,0,0
805,309,0,0,0,0,0,0,0,0,0,-1,2029,715,0,0
812,309,0,0,0,0,0,0,0,0,0,-1,2036,715,0,0
-700,302,0,0,0,0,0,0,0,0,0,-1,524,722,0,0
-693,302,0,0,0,0,0,0,0,0,0,-1,531,722,0,0
-686,302,0,0,0,0,0,0,0,0,0,-1,538,722,0,0
-679,302,0,0,0,0,0,0,0,0,0,-1,545,722,0,0
-672,302,0,0,0,0,0,0,0,0,0,-1,552,722,0,0
-665,302,0,0,0,0,0,0,0,0,0,-1,559,722,0,0
-658,302,0,0,0,0,0,0,0,0,0,-1,566,722,0,0
-651,302,0,0,0,0,0,0,0,0,0,-1,573,722,0,0
-644,302,0,0,0,0,0,0,0,0,0,-1,580,722,0,0
-637,302,0,0,0,0,0,0,0,0,0,-1,587,722,0,0
-630,302,0,0,0,0,0,0,0,0,0,-1,594,722,0,0
-623,302,0,0,0,0,0,0,0,0,0,-1,601,722,0,0
-616,302,0,0,0,0,0,0,0,0,0,-1,608,722,0,0
-609,302,-7.79266,-3.71649,0,0,0,0,0,0,0,-1,615,722,-7.79267,3.7165
-602,302,0.92865,-1.99158,0,0,0,0,0,0,0,-1,622,722,0.928637,1.99157
-595,302,-7.89941,2.13641,0,0,0,0,0,0,0,-1,629,722,-7.89939,-2.13639
-588,302,-7.10895,1.79163,0,0,0,0,0,0,0,-1,636,722,-7.10896,-1.79163
-581,302,-9.17566,1.09448,0,0,0,0,0,0,0,-1,643,722,-9.17569,-1.09445
-574,302,-11.5183,-0.344543,0,0,0,0,0,0,0,-1,650,722,-11.5183,0.344557
-567,302,-12.1534,-0.672241,0,0,0,0,0,0,0,-1,657,722,-12.1535,0.672246
-560,302,-27.322,-1.75262,0,0,0,0,0,0,0,-1,664,722,-27.3219,1.75263
-553,302,-27.1898,-2.64264,0.00170701,0.00429294,-0.0011428,0.00472559,0.00127436,-1.20888,0.00282317,0.0388534,671,722,-27.1898,2.64266
-546,302,-27.1967,-3.60382,0.00200221,0.00319124,-0.000911326,0.00368482,0.00150862,-1.07441,0.00213904,0.0186569,678,722,-27.1967,3.60383
-539,302,-27.2414,-4.42706,0.00194978,0.00217763,-0.000580056,0.00265485,0.00147257,-0.882366,0.00153583,0.0155824,685,722,-27.2414,4.42707
-532,302,-27.2725,-5.27936,0.00162735,0.00118062,-0.000204684,0.00170695,0.00110102,-0.370895,0.000999229,0.01449,692,722,-27.2725,5.27939
-525,302,-27.2783,-6.23041,0.00118926,0.000270333,0.000148155,0.00121255,0.000247037,0.155963,0.000739901,0.0206232,699,722,-27.2783,6.23044
-518,302,-27.3391,-7.06854,0.000676456,-0.000438935,0.00054095,0.00089571,-0.00065819,0.385079,0.000900632,0.0223802,706,722,-27.339,7.06853
-511,302,-27.4138,-7.88739,-5.29869e-05,-0.00108141,0.000965467,0.000526667,-0.00166106,0.540704,0.00131847,0.0112258,713,722,-27.4138,7.88741
-504,302,-27.4604,-8.75146,-0.000868938,-0.00165857,0.00141725,0.000207467,-0.00273497,0.649553,0.00189626,0.0101506,720,722,-27.4605,8.75149
-497,302,-27.5364,-9.5957,-0.00156942,-0.00207301,0.00176117,-4.21301e-05,-0.0036003,0.714393,0.00238628,0.0165187,727,722,-27.5365,9.59572
-490,302,-27.6229,-10.4374,0,0,0,0,0,0,0,-1,734,722,-27.6228,10.4374
-483,302,-9.53412,-3.1673,0,0,0,0,0,0,0,-1,741,722,-9.53411,3.1673
-476,302,-4.29749,-0.203491,0,0,0,0,0,0,0,-1,748,722,-4.29751,0.203464
-469,302,-12.369,1.42859,0,0,0,0,0,0,0,-1,755,722,-12.3689,-1.42857
-462,302,-17.4766,0.310791,0,0,0,0,0,0,0,-1,762,722,-17.4766,-0.310788
-455,302,-36.7368,-2.97418,0,0,0,0,0,0,0,-1,769,722,-36.7368,2.97416
-448,302,-42.1174,-1.44232,0,0,0,0,0,0,0,-1,776,722,-42.1174,1.44229
-441,302,-46.7637,0.580078,0,0,0,0,0,0,0,-1,783,722,-46.7636,-0.58007
-434,302,-46.574,1.30511,0,0,0,0,0,0,0,-1,790,722,-46.574,-1.30509
-427,302,-46.7514,1.51532,0,0,0,0,0,0,0,-1,797,722,-46.7514,-1.51532
-420,302,0,0,0,0,0,0,0,0,0,-1,804,722,0,0
-413,302,0,0,0,0,0,0,0,0,0,-1,811,722,0,0
-406,302,0,0,0,0,0,0,0,0,0,-1,818,722,0,0
-399,302,0,0,0,0,0,0,0,0,0,-1,825,722,0,0
-392,302,0,0,0,0,0,0,0,0,0,-1,832,722,0,0
-385,302,0,0,0,0,0,0,0,0,0,-1,839,722,0,0
-378,302,0,0,0,0,0,0,0,0,0,-1,846,722,0,0
-371,302,0,0,0,0,0,0,0,0,0,-1,853,722,0,0
-364,302,0,0,0,0,0,0,0,0,0,-1,860,722,0,0
-357,302,0,0,0,0,0,0,0,0,0,-1,867,722,0,0
-350,302,0,0,0,0,0,0,0,0,0,-1,874,722,0,0
-343,302,0,0,0,0,0,0,0,0,0,-1,881,722,0,0
-336,302,0,0,0,0,0,0,0,0,0,-1,888,722,0,0
-329,302,0,0,0,0,0,0,0,0,0,-1,895,722,0,0
-322,302,0,0,0,0,0,0,0,0,0,-1,902,722,0,0
-315,302,0,0,0,0,0,0,0,0,0,-1,909,722,0,0
-308,302,0,0,0,0,0,0,0,0,0,-1,916,722,0,0
-301,302,0,0,0,0,0,0,0,0,0,-1,923,722,0,0
-294,302,0,0,0,0,0,0,0,0,0,-1,930,722,0,0
-287,302,0,0,0,0,0,0,0,0,0,-1,937,722,0,0
-280,302,0,0,0,0,0,0,0,0,0,-1,944,722,0,0
-273,302,0,0,0,0,0,0,0,0,0,-1,951,722,0,0
-266,302,0,0,0,0,0,0,0,0,0,-1,958,722,0,0
-259,302,0,0,0,0,0,0,0,0,0,-1,965,722,0,0
-252,302,0,0,0,0,0,0,0,0,0,-1,972,722,0,0
-245,302,0,0,0,0,0,0,0,0,0,-1,979,722,0,0
-238,302,0,0,0,0,0,0,0,0,0,-1,986,722,0,0
-231,302,0,0,0,0,0,0,0,0,0,-1,993,722,0,0
-224,302,0,0,0,0,0,0,0,0,0,-1,1000,722,0,0
-217,302,0,0,0,0,0,0,0,0,0,-1,1007,722,0,0
-210,302,0,0,0,0,0,0,0,0,0,-1,1014,722,0,0
-203,302,0,0,0,0,0,0,0,0,0,-1,1021,722,0,0
-196,302,0,0,0,0,0,0,0,0,0,-1,1028,722,0,0
-189,302,0,0,0,0,0,0,0,0,0,-1,1035,722,0,0
-182,302,0,0,0,0,0,0,0,0,0,-1,1042,722,0,0
-175,302,0,0,0,0,0,0,0,0,0,-1,1049,722,0,0
-168,302,0,0,0,0,0,0,0,0,0,-1,1056,722,0,0
-161,302,0,0,0,0,0,0,0,0,0,-1,1063,722,0,0
-154,302,0,0,0,0,0,0,0,0,0,-1,1070,722,0,0
-147,302,0,0,0,0,0,0,0,0,0,-1,1077,722,0,0
-140,302,0,0,0,0,0,0,0,0,0,-1,1084,722,0,0
-133,302,0,0,0,0,0,0,0,0,0,-1,1091,722,0,0
-126,302,0,0,0,0,0,0,0,0,0,-1,1098,722,0,0
-119,302,0,0,0,0,0,0,0,0,0,-1,1105,722,0,0
-112,302,0,0,0,0,0,0,0,0,0,-1,1112,722,0,0
-105,302,0,0,0,0,0,0,0,0,0,-1,1119,722,0,0
-98,302,0,0,0,0,0,0,0,0,0,-1,1126,722,0,0
-91,302,0,0,0,0,0,0,0,0,0,-1,1133,722,0,0
-84,302,0,0,0,0,0,0,0,0,0,-1,1140,722,0,0
-77,302,0,0,0,0,0,0,0,0,0,-1,1147,722,0,0
-70,302,0,0,0,0,0,0,0,0,0,-1,1154,722,0,0
-63,302,0,0,0,0,0,0,0,0,0,-1,1161,722,0,0
-56,302,0,0,0,0,0,0,0,0,0,-1,1168,722,0,0
-49,302,0,0,0,0,0,0,0,0,0,-1,1175,722,0,0
-42,302,0,0,0,0,0,0,0,0,0,-1,1182,722,0,0
-35,302,0,0,0,0,0,0,0,0,0,-1,1189,722,0,0
-28,302,0,0,0,0,0,0,0,0,0,-1,1196,722,0,0
-21,302,0,0,0,0,0,0,0,0,0,-1,1203,722,0,0
-14,302,0,0,0,0,0,0,0,0,0,-1,1210,722,0,0
-7,302,0,0,0,0,0,0,0,0,0,-1,1217,722,0,0
0,302,0,0,0,0,0,0,0,0,0,-1,1224,722,0,0
7,302,0,0,0,0,0,0,0,0,0,-1,1231,722,0,0
14,302,0,0,0,0,0,0,0,0,0,-1,1238,722,0,0
21,302,0,0,0,0,0,0,0,0,0,-1,1245,722,0,0
28,302,0,0,0,0,0,0,0,0,0,-1,1252,722,0,0
35,302,0,0,0,0,0,0,0,0,0,-1,1259,722,0,0
42,302,0,0,0,0,0,0,0,0,0,-1,1266,722,0,0
49,302,0,0,0,0,0,0,0,0,0,-1,1273,722,0,0
56,302,0,0,0,0,0,0,0,0,0,-1,1280,722,0,0
63,302,0,0,0,0,0,0,0,0,0,-1,1287,722,0,0
70,302,0,0,0,0,0,0,0,0,0,-1,1294,722,0,0
77,302,0,0,0,0,0,0,0,0,0,-1,1301,722,0,0
84,302,0,0,0,0,0,0,0,0,0,-1,1308,722,0,0
91,302,0,0,0,0,0,0,0,0,0,-1,1315,722,0,0
98,302,0,0,0,0,0,0,0,0,0,-1,1322,722,0,0
105,302,0,0,0,0,0,0,0,0,0,-1,1329,722,0,0
112,302,0,0,0,0,0,0,0,0,0,-1,1336,722,0,0
119,302,0,0,0,0,0,0,0,0,0,-1,1343,722,0,0
126,302,0,0,0,0,0,0,0,0,0,-1,1350,722,0,0
133,302,0,0,0,0,0,0,0,0,0,-1,1357,722,0,0
140,302,0,0,0,0,0,0,0,0,0,-1,1364,722,0,0
147,302,0,0,0,0,0,0,0,0,0,-1,1371,722,0,0
154,302,0,0,0,0,0,0,0,0,0,-1,1378,722,0,0
161,302,0,0,0,0,0,0,0,0,0,-1,1385,722,0,0
168,302,0,0,0,0,0,0,0,0,0,-1,1392,722,0,0
175,302,0,0,0,0,0,0,0,0,0,-1,1399,722,0,0
182,302,0,0,0,0,0,0,0,0,0,-1,1406,722,0,0
189,302,0,0,0,0,0,0,0,0,0,-1,1413,722,0,0
196,302,0,0,0,0,0,0,0,0,0,-1,1420,722,0,0
203,302,0,0,0,0,0,0,0,0,0,-1,1427,722,0,0
210,302,0,0,0,0,0,0,0,0,0,-1,1434,722,0,0
217,302,0,0,0,0,0,0,0,0,0,-1,1441,722,0,0
224,302,0,0,0,0,0,0,0,0,0,-1,1448,722,0,0
231,302,0,0,0,0,0,0,0,0,0,-1,1455,722,0,0
238,302,0,0,0,0,0,0,0,0,0,-1,1462,722,0,0
245,302,0,0,0,0,0,0,0,0,0,-1,1469,722,0,0
252,302,0,0,0,0,0,0,0,0,0,-1,1476,722,0,0
259,302,0,0,0,0,0,0,0,0,0,-1,1483,722,0,0
266,302,0,0,0,0,0,0,0,0,0,-1,1490,722,0,0
273,302,0,0,0,0,0,0,0,0,0,-1,1497,722,0,0
280,302,0,0,0,0,0,0,0,0,0,-1,1504,722,0,0
287,302,0,0,0,0,0,0,0,0,0,-1,1511,722,0,0
294,302,0,0,0,0,0,0,0,0,0,-1,1518,722,0,0
301,302,0,0,0,0,0,0,0,0,0,-1,1525,722,0,0
308,302,0,0,0,0,0,0,0,0,0,-1,1532,722,0,0
315,302,0,0,0,0,0,0,0,0,0,-1,1539,722,0,0
322,302,0,0,0,0,0,0,0,0,0,-1,1546,722,0,0
329,302,0,0,0,0,0,0,0,0,0,-1,1553,722,0,0
336,302,0,0,0,0,0,0,0,0,0,-1,1560,722,0,0
343,302,0,0,0,0,0,0,0,0,0,-1,1567,722,0,0
350,302,0,0,0,0,0,0,0,0,0,-1,1574,722,0,0
357,302,0,0,0,0,0,0,0,0,0,-1,1581,722,0,0
364,302,0,0,0,0,0,0,0,0,0,-1,1588,722,0,0
371,302,0,0,0,0,0,0,0,0,0,-1,1595,722,0,0
378,302,0,0,0,0,0,0,0,0,0,-1,1602,722,0,0
385,302,0,0,0,0,0,0,0,0,0,-1,1609,722,0,0
392,302,0,0,0,0,0,0,0,0,0,-1,1616,722,0,0
399,302,0,0,0,0,0,0,0,0,0,-1,1623,722,0,0
406,302,0,0,0,0,0,0,0,0,0,-1,1630,722,0,0
413,302,0,0,0,0,0,0,0,0,0,-1,1637,722,0,0
420,302,0,0,0,0,0,0,0,0,0,-1,1644,722,0,0
427,302,0,0,0,0,0,0,0,0,0,-1,1651,722,0,0
434,302,0,0,0,0,0,0,0,0,0,-1,1658,722,0,0
441,302,0,0,0,0,0,0,0,0,0,-1,1665,722,0,0
448,302,0,0,0,0,0,0,0,0,0,-1,1672,722,0,0
455,302,0,0,0,0,0,0,0,0,0,-1,1679,722,0,0
462,302,0,0,0,0,0,0,0,0,0,-1,1686,722,0,0
469,302,0,0,0,0,0,0,0,0,0,-1,1693,722,0,0
476,302,0,0,0,0,0,0,0,0,0,-1,1700,722,0,0
483,302,0,0,0,0,0,0,0,0,0,-1,1707,722,0,0
490,302,0,0,0,0,0,0,0,0,0,-1,1714,722,0,0
497,302,0,0,0,0,0,0,0,0,0,-1,1721,722,0,0
504,302,0,0,0,0,0,0,0,0,0,-1,1728,722,0,0
511,302,0,0,0,0,0,0,0,0,0,-1,1735,722,0,0
518,302,0,0,0,0,0,0,0,0,0,-1,1742,722,0,0
525,302,0,0,0,0,0,0,0,0,0,-1,1749,722,0,0
532,302,0,0,0,0,0,0,0,0,0,-1,1756,722,0,0
539,302,0,0,0,0,0,0,0,0,0,-1,1763,722,0,0
546,302,48.9873,1.50562,0,0,0,0,0,0,0,-1,1770,722,48.9873,-1.50562
553,302,56.7844,3.46533,0,0,0,0,0,0,0,-1,1777,722,56.7844,-3.4653
560,302,56.7115,3.84808,0,0,0,0,0,0,0,-1,1784,722,56.7116,-3.84806
567,302,55.9475,4.24542,0,0,0,0,0,0,0,-1,1791,722,55.9475,-4.24542
574,302,45.9537,6.00867,0,0,0,0,0,0,0,-1,1798,722,45.9537,-6.00864
581,302,45.137,7.38043,0,0,0,0,0,0,0,-1,1805,722,45.1369,-7.38044
588,302,26.9731,7.19983,0,0,0,0,0,0,0,-1,1812,722,26.9732,-7.19981
595,302,27.3826,8.13104,0,0,0,0,0,0,0,-1,1819,722,27.3825,-8.13102
602,302,14.7349,5.21246,0,0,0,0,0,0,0,-1,1826,722,14.7349,-5.21247
609,302,31.1039,-6.34253,0,0,0,0,0,0,0,-1,1833,722,31.1039,6.34254
616,302,42.3552,-9.67059,0,0,0,0,0,0,0,-1,1840,722,42.3552,9.67059
623,302,42.3015,-8.81946,0.00194643,0.000657586,0.00124006,0.00269951,-9.55007e-05,0.545769,0.00183234,0.0170371,1847,722,42.3015,8.81948
630,302,42.2255,-7.98193,0.00161907,0.000458559,0.000938854,0.00214251,-6.48814e-05,0.508606,0.00145045,0.0127781,1854,722,42.2255,7.98191
637,302,42.1536,-7.1264,0.00140808,0.00042942,0.000773376,0.00183393,3.57139e-06,0.503331,0.00122143,0.0161384,1861,722,42.1535,7.1264
644,302,42.1057,-6.23108,0.00136538,0.00053638,0.000769979,0.00182534,7.64221e-05,0.538479,0.00119224,0.0167455,1868,722,42.1057,6.23108
651,302,42.0656,-5.33441,0.00146063,0.000822926,0.000885987,0.00208339,0.000200162,0.612673,0.00132725,0.0165007,1875,722,42.0655,5.33441
658,302,42.0428,-4.48602,0.00161557,0.00127354,0.0010275,0.00248618,0.00040292,0.702935,0.00154081,0.0179042,1882,722,42.0428,4.486
665,302,41.9902,-3.60364,0.00187379,0.00180578,0.00126576,0.00310601,0.000573569,0.771969,0.00190843,0.0165194,1889,722,41.9902,3.60365
672,302,41.926,-2.70752,0.00225096,0.00246906,0.00158478,0.00394853,0.000771486,0.819751,0.0024166,0.0132521,1896,722,41.9261,2.70752
679,302,41.8787,-1.8382,0.00267849,0.00333822,0.00196071,0.00499662,0.00102009,0.868737,0.00304849,0.0113812,1903,722,41.8786,1.83819
686,302,41.854,-0.882935,0.0031972,0.00435476,0.00242986,0.00627382,0.00127814,0.902317,0.0038283,0.0259917,1910,722,41.854,0.882954
693,302,41.7762,0.0725708,0,0,0,0,0,0,0,-1,1917,722,41.7762,-0.0725813
700,302,25.4069,1.97308,0,0,0,0,0,0,0,-1,1924,722,25.4068,-1.97311
707,302,16.7321,4.76685,0,0,0,0,0,0,0,-1,1931,722,16.7321,-4.76687
714,302,17.2,5.77594,0,0,0,0,0,0,0,-1,1938,722,17.2,-5.77595
721,302,17.7914,6.60394,0,0,0,0,0,0,0,-1,1945,722,17.7914,-6.60395
728,302,17.2798,4.81702,0,0,0,0,0,0,0,-1,1952,722,17.2798,-4.81703
735,302,0,0,0,0,0,0,0,0,0,-1,1959,722,0,0
742,302,0,0,0,0,0,0,0,0,0,-1,1966,722,0,0
749,302,0,0,0,0,0,0,0,0,0,-1,1973,722,0,0
756,302,0,0,0,0,0,0,0,0,0,-1,1980,722,0,0
763,302,0,0,0,0,0,0,0,0,0,-1,1987,722,0,0
770,302,0,0,0,0,0,0,0,0,0,-1,1994,722,0,0
777,302,0,0,0,0,0,0,0,0,0,-1,2001,722,0,0
784,302,0,0,0,0,0,0,0,0,0,-1,2008,722,0,0
791,302,0,0,0,0,0,0,0,0,0,-1,2015,722,0,0
798,302,0,0,0,0,0,0,0,0,0,-1,2022,722,0,0
805,302,0,0,0,0,0,0,0,0,0,-1,2029,722,0,0
812,302,0,0,0,0,0,0,0,0,0,-1,2036,722,0,0
-700,295,0,0,0,0,0,0,0,0,0,-1,524,729,0,0
-693,295,0,0,0,0,0,0,0,0,0,-1,531,729,0,0
-686,295,0,0,0,0,0,0,0,0,0,-1,538,729,0,0
-679,295,0,0,0,0,0,0,0,0,0,-1,545,729,0,0
-672,295,0,0,0,0,0,0,0,0,0,-1,552,729,0,0
-665,295,0,0,0,0,0,0,0,0,0,-1,559,729,0,0
-658,295,0,0,0,0,0,0,0,0,0,-1,566,729,0,0
-651,295,0,0,0,0,0,0,0,0,0,-1,573,729,0,0
-644,295,0,0,0,0,0,0,0,0,0,-1,580,729,0,0
-637,295,0,0,0,0,0,0,0,0,0,-1,587,729,0,0
-630,295,0,0,0,0,0,0,0,0,0,-1,594,729,0,0
-623,295,0,0,0,0,0,0,0,0,0,-1,601,729,0,0
-616,295,-13.4911,1.31738,0,0,0,0,0,0,0,-1,608,729,-13.4911,-1.3174
-609,295,-10.2864,0.832031,0,0,0,0,0,0,0,-1,615,729,-10.2863,-0.832034
-602,295,-8.19006,3.01587,0,0,0,0,0,0,0,-1,622,729,-8.19005,-3.01588
-595,295,-0.615479,-1.95447,0,0,0,0,0,0,0,-1,629,729,-0.615481,1.95445
-588,295,-7.98999,1.56903,0,0,0,0,0,0,0,-1,636,729,-7.98997,-1.56905
-581,295,-12.0404,0.150574,0,0,0,0,0,0,0,-1,643,729,-12.0404,-0.150604
-574,295,-12.1605,-0.0739746,0,0,0,0,0,0,0,-1,650,729,-12.1605,0.0739856
-567,295,-27.4909,-0.880554,0,0,0,0,0,0,0,-1,657,729,-27.4909,0.880563
-560,295,-27.9243,-1.81256,0.000103444,0.00480201,-0.00154487,0.00526445,-0.000358989,-1.27995,0.00363521,0.0383335,664,729,-27.9242,1.81255
-553,295,-27.97,-2.758,0.000812823,0.00345885,-0.00109087,0.00385059,0.000421086,-1.22603,0.00243884,0.020664,671,729,-27.97,2.75801
-546,295,-28.089,-3.58917,0.00110252,0.00250265,-0.000721166,0.00280766,0.000797509,-1.17067,0.00167064,0.0216562,678,729,-28.089,3.58919
-539,295,-28.1415,-4.39465,0.00108437,0.00169125,-0.000303406,0.00181691,0.000958707,-1.17812,0.00104953,0.0200479,685,729,-28.1415,4.39468
-532,295,-28.1647,-5.23352,0.000837362,0.000771377,0.000107772,0.000917079,0.00069166,0.636862,0.000551813,0.0162238,692,729,-28.1647,5.23355
-525,295,-28.1608,-6.1452,0.000478305,-8.65817e-05,0.000461797,0.000737185,-0.000345462,0.510939,0.000638559,0.0161985,699,729,-28.1608,6.14523
-518,295,-28.1947,-6.99683,7.88637e-05,-0.00076767,0.000850774,0.000605845,-0.00129465,0.554572,0.00112102,0.0122437,706,729,-28.1947,6.99685
-511,295,-28.2757,-7.81836,-0.000428078,-0.00138324,0.00132516,0.000502933,-0.00231425,0.612445,0.00173495,0.0101817,713,729,-28.2757,7.81836
-504,295,-28.3176,-8.65631,-0.000912873,-0.00197277,0.00181155,0.000444657,-0.0033303,0.6431,0.00238229,0.0119289,720,729,-28.3177,8.65633
-497,295,-28.4116,-9.4502,-0.00101976,-0.00243185,0.00221334,0.000597422,-0.00404903,0.631002,0.00291894,0.0246589,727,729,-28.4116,9.45022
-490,295,-28.5304,-10.2245,0,0,0,0,0,0,0,-1,734,729,-28.5304,10.2245
-483,295,-6.84503,-0.454651,0,0,0,0,0,0,0,-1,741,729,-6.84505,0.454639
-476,295,-13.1738,-0.836243,0,0,0,0,0,0,0,-1,748,729,-13.1738,0.836223
-469,295,-26.5608,-0.466187,0,0,0,0,0,0,0,-1,755,729,-26.5608,0.466162
-462,295,-29.7701,-0.792664,0,0,0,0,0,0,0,-1,762,729,-29.7701,0.792642
-455,295,-45.11,-2.79272,0,0,0,0,0,0,0,-1,769,729,-45.11,2.79272
-448,295,-48.0288,1.41229,0,0,0,0,0,0,0,-1,776,729,-48.0288,-1.41227
-441,295,-47.1089,1.03058,0,0,0,0,0,0,0,-1,783,729,-47.109,-1.0306
-434,295,-46.2319,1.10614,0,0,0,0,0,0,0,-1,790,729,-46.2319,-1.10612
-427,295,0,0,0,0,0,0,0,0,0,-1,797,729,0,0
-420,295,0,0,0,0,0,0,0,0,0,-1,804,729,0,0
-413,295,0,0,0,0,0,0,0,0,0,-1,811,729,0,0
-406,295,0,0,0,0,0,0,0,0,0,-1,818,729,0,0
-399,295,0,0,0,0,0,0,0,0,0,-1,825,729,0,0
-392,295,0,0,0,0,0,0,0,0,0,-1,832,729,0,0
-385,295,0,0,0,0,0,0,0,0,0,-1,839,729,0,0
-378,295,0,0,0,0,0,0,0,0,0,-1,846,729,0,0
-371,295,0,0,0,0,0,0,0,0,0,-1,853,729,0,0
-364,295,0,0,0,0,0,0,0,0,0,-1,860,729,0,0
-357,295,0,0,0,0,0,0,0,0,0,-1,867,729,0,0
-350,295,0,0,0,0,0,0,0,0,0,-1,874,729,0,0
-343,295,0,0,0,0,0,0,0,0,0,-1,881,729,0,0
-336,295,0,0,0,0,0,0,0,0,0,-1,888,729,0,0
-329,295,0,0,0,0,0,0,0,0,0,-1,895,729,0,0
-322,295,0,0,0,0,0,0,0,0,0,-1,902,729,0,0
-315,295,0,0,0,0,0,0,0,0,0,-1,909,729,0,0
-308,295,0,0,0,0,0,0,0,0,0,-1,916,729,0,0
-301,295,0,0,0,0,0,0,0,0,0,-1,923,729,0,0
-294,295,0,0,0,0,0,0,0,0,0,-1,930,729,0,0
-287,295,0,0,0,0,0,0,0,0,0,-1,937,729,0,0
-280,295,0,0,0,0,0,0,0,0,0,-1,944,729,0,0
-273,295,0,0,0,0,0,0,0,0,0,-1,951,729,0,0
-266,295,0,0,0,0,0,0,0,0,0,-1,958,729,0,0
-259,295,0,0,0,0,0,0,0,0,0,-1,965,729,0,0
-252,295,0,0,0,0,0,0,0,0,0,-1,972,729,0,0
-245,295,0,0,0,0,0,0,0,0,0,-1,979,729,0,0
-238,295,0,0,0,0,0,0,0,0,0,-1,986,729,0,0
-231,295,0,0,0,0,0,0,0,0,0,-1,993,729,0,0
-224,295,0,0,0,0,0,0,0,0,0,-1,1000,729,0,0
-217,295,0,0,0,0,0,0,0,0,0,-1,1007,729,0,0
-210,295,0,0,0,0,0,0,0,0,0,-1,1014,729,0,0
-203,295,0,0,0,0,0,0,0,0,0,-1,1021,729,0,0
-196,295,0,0,0,0,0,0,0,0,0,-1,1028,729,0,0
-189,295,0,0,0,0,0,0,0,0,0,-1,1035,729,0,0
-182,295,0,0,0,0,0,0,0,0,0,-1,1042,729,0,0
-175,295,0,0,0,0,0,0,0,0,0,-1,1049,729,0,0
-168,295,0,0,0,0,0,0,0,0,0,-1,1056,729,0,0
-161,295,0,0,0,0,0,0,0,0,0,-1,1063,729,0,0
-154,295,0,0,0,0,0,0,0,0,0,-1,1070,729,0,0
-147,295,0,0,0,0,0,0,0,0,0,-1,1077,729,0,0
-140,295,0,0,0,0,0,0,0,0,0,-1,1084,729,0,0
-133,295,0,0,0,0,0,0,0,0,0,-1,1091,729,0,0
-126,295,0,0,0,0,0,0,0,0,0,-1,1098,729,0,0
-119,295,0,0,0,0,0,0,0,0,0,-1,1105,729,0,0
-112,295,0,0,0,0,0,0,0,0,0,-1,1112,729,0,0
-105,295,0,0,0,0,0,0,0,0,0,-1,1119,729,0,0
-98,295,0,0,0,0,0,0,0,0,0,-1,1126,729,0,0
-91,295,0,0,0,0,0,0,0,0,0,-1,1133,729,0,0
-84,295,0,0,0,0,0,0,0,0,0,-1,1140,729,0,0
-77,295,0,0,0,0,0,0,0,0,0,-1,1147,729,0,0
-70,295,0,0,0,0,0,0,0,0,0,-1,1154,729,0,0
-63,295,0,0,0,0,0,0,0,0,0,-1,1161,729,0,0
-56,295,0,0,0,0,0,0,0,0,0,-1,1168,729,0,0
-49,295,0,0,0,0,0,0,0,0,0,-1,1175,729,0,0
-42,295,0,0,0,0,0,0,0,0,0,-1,1182,729,0,0
-35,295,0,0,0,0,0,0,0,0,0,-1,1189,729,0,0
-28,295,0,0,0,0,0,0,0,0,0,-1,1196,729,0,0
-21,295,0,0,0,0,0,0,0,0,0,-1,1203,729,0,0
-14,295,0,0,0,0,0,0,0,0,0,-1,1210,729,0,0
-7,295,0,0,0,0,0,0,0,0,0,-1,1217,729,0,0
0,295,0,0,0,0,0,0,0,0,0,-1,1224,729,0,0
7,295,0,0,0,0,0,0,0,0,0,-1,1231,729,0,0
14,295,0,0,0,0,0,0,0,0,0,-1,1238,729,0,0
21,295,0,0,0,0,0,0,0,0,0,-1,1245,729,0,0
28,295,0,0,0,0,0,0,0,0,0,-1,1252,729,0,0
35,295,0,0,0,0,0,0,0,0,0,-1,1259,729,0,0
42,295,0,0,0,0,0,0,0,0,0,-1,1266,729,0,0
49,295,0,0,0,0,0,0,0,0,0,-1,1273,729,0,0
56,295,0,0,0,0,0,0,0,0,0,-1,1280,729,0,0
63,295,0,0,0,0,0,0,0,0,0,-1,1287,729,0,0
70,295,0,0,0,0,0,0,0,0,0,-1,1294,729,0,0
77,295,0,0,0,0,0,0,0,0,0,-1,1301,729,0,0
84,295,0,0,0,0,0,0,0,0,0,-1,1308,729,0,0
91,295,0,0,0,0,0,0,0,0,0,-1,1315,729,0,0
98,295,0,0,0,0,0,0,0,0,0,-1,1322,729,0,0
105,295,0,0,0,0,0,0,0,0,0,-1,1329,729,0,0
112,295,0,0,0,0,0,0,0,0,0,-1,1336,729,0,0
119,295,0,0,0,0,0,0,0,0,0,-1,1343,729,0,0
126,295,0,0,0,0,0,0,0,0,0,-1,1350,729,0,0
133,295,0,0,0,0,0,0,0,0,0,-1,1357,729,0,0
140,295,0,0,0,0,0,0,0,0,0,-1,1364,729,0,0
147,295,0,0,0,0,0,0,0,0,0,-1,1371,729,0,0
154,295,0,0,0,0,0,0,0,0,0,-1,1378,729,0,0
161,295,0,0,0,0,0,0,0,0,0,-1,1385,729,0,0
168,295,0,0,0,0,0,0,0,0,0,-1,1392,729,0,0
175,295,0,0,0,0,0,0,0,0,0,-1,1399,729,0,0
182,295,0,0,0,0,0,0,0,0,0,-1,1406,729,0,0
189,295,0,0,0,0,0,0,0,0,0,-1,1413,729,0,0
196,295,0,0,0,0,0,0,0,0,0,-1,1420,729,0,0
203,295,0,0,0,0,0,0,0,0,0,-1,1427,729,0,0
210,295,0,0,0,0,0,0,0,0,0,-1,1434,729,0,0
217,295,0,0,0,0,0,0,0,0,0,-1,1441,729,0,0
224,295,0,0,0,0,0,0,0,0,0,-1,1448,729,0,0
231,295,0,0,0,0,0,0,0,0,0,-1,1455,729,0,0
238,295,0,0,0,0,0,0,0,0,0,-1,1462,729,0,0
245,295,0,0,0,0,0,0,0,0,0,-1,1469,729,0,0
252,295,0,0,0,0,0,0,0,0,0,-1,1476,729,0,0
259,295,0,0,0,0,0,0,0,0,0,-1,1483,729,0,0
266,295,0,0,0,0,0,0,0,0,0,-1,1490,729,0,0
273,295,0,0,0,0,0,0,0,0,0,-1,1497,729,0,0
280,295,0,0,0,0,0,0,0,0,0,-1,1504,729,0,0
287,295,0,0,0,0,0,0,0,0,0,-1,1511,729,0,0
294,295,0,0,0,0,0,0,0,0,0,-1,1518,729,0,0
301,295,0,0,0,0,0,0,0,0,0,-1,1525,729,0,0
308,295,0,0,0,0,0,0,0,0,0,-1,1532,729,0,0
315,295,0,0,0,0,0,0,0,0,0,-1,1539,729,0,0
322,295,0,0,0,0,0,0,0,0,0,-1,1546,729,0,0
329,295,0,0,0,0,0,0,0,0,0,-1,1553,729,0,0
336,295,0,0,0,0,0,0,0,0,0,-1,1560,729,0,0
343,295,0,0,0,0,0,0,0,0,0,-1,1567,729,0,0
350,295,0,0,0,0,0,0,0,0,0,-1,1574,729,0,0
357,295,0,0,0,0,0,0,0,0,0,-1,1581,729,0,0
364,295,0,0,0,0,0,0,0,0,0,-1,1588,729,0,0
371,295,0,0,0,0,0,0,0,0,0,-1,1595,729,0,0
378,295,0,0,0,0,0,0,0,0,0,-1,1602,729,0,0
385,295,0,0,0,0,0,0,0,0,0,-1,1609,729,0,0
392,295,0,0,0,0,0,0,0,0,0,-1,1616,729,0,0
399,295,0,0,0,0,0,0,0,0,0,-1,1623,729,0,0
406,295,0,0,0,0,0,0,0,0,0,-1,1630,729,0,0
413,295,0,0,0,0,0,0,0,0,0,-1,1637,729,0,0
420,295,0,0,0,0,0,0,0,0,0,-1,1644,729,0,0
427,295,0,0,0,0,0,0,0,0,0,-1,1651,729,0,0
434,295,0,0,0,0,0,0,0,0,0,-1,1658,729,0,0
441,295,0,0,0,0,0,0,0,0,0,-1,1665,729,0,0
448,295,0,0,0,0,0,0,0,0,0,-1,1672,729,0,0
455,295,0,0,0,0,0,0,0,0,0,-1,1679,729,0,0
462,295,0,0,0,0,0,0,0,0,0,-1,1686,729,0,0
469,295,0,0,0,0,0,0,0,0,0,-1,1693,729,0,0
476,295,0,0,0,0,0,0,0,0,0,-1,1700,729,0,0
483,295,0,0,0,0,0,0,0,0,0,-1,1707,729,0,0
490,295,0,0,0,0,0,0,0,0,0,-1,1714,729,0,0
497,295,0,0,0,0,0,0,0,0,0,-1,1721,729,0,0
504,295,0,0,0,0,0,0,0,0,0,-1,1728,729,0,0
511,295,0,0,0,0,0,0,0,0,0,-1,1735,729,0,0
518,295,0,0,0,0,0,0,0,0,0,-1,1742,729,0,0
525,295,0,0,0,0,0,0,0,0,0,-1,1749,729,0,0
532,295,0,0,0,0,0,0,0,0,0,-1,1756,729,0,0
539,295,0,0,0,0,0,0,0,0,0,-1,1763,729,0,0
546,295,57.4674,2.36884,0,0,0,0,0,0,0,-1,1770,729,57.4674,-2.36883
553,295,57.1969,2.73846,0,0,0,0,0,0,0,-1,1777,729,57.197,-2.73843
560,295,57.0291,3.27454,0,0,0,0,0,0,0,-1,1784,729,57.029,-3.27454
567,295,56.6243,3.88239,0,0,0,0,0,0,0,-1,1791,729,56.6242,-3.8824
574,295,56.5275,4.755,0,0,0,0,0,0,0,-1,1798,729,56.5274,-4.75501
581,295,37.8191,2.19592,0,0,0,0,0,0,0,-1,1805,729,37.8191,-2.19594
588,295,39.0542,2.45679,0,0,0,0,0,0,0,-1,1812,729,39.0542,-2.45676
595,295,27.2102,6.99121,0,0,0,0,0,0,0,-1,1819,729,27.2103,-6.99121
602,295,26.9065,7.82141,0,0,0,0,0,0,0,-1,1826,729,26.9064,-7.8214
609,295,11.7737,2.19989,0,0,0,0,0,0,0,-1,1833,729,11.7736,-2.19988
616,295,43.2048,-9.70428,0,0,0,0,0,0,0,-1,1840,729,43.2048,9.70431
623,295,43.1464,-8.8139,0.00326049,0.000781779,0.00197579,0.00435346,-0.000311192,0.505283,0.0030114,0.0460081,1847,729,43.1464,8.81389
630,295,43.0945,-7.90576,0.00240702,0.000615962,0.00143987,0.00320713,-0.000184148,0.507196,0.00220204,0.0147294,1854,729,43.0945,7.90579
637,295,43.0356,-7.02203,0.00178265,0.000560029,0.00105387,0.00238968,-4.69977e-05,0.522583,0.00160901,0.0157307,1861,729,43.0356,7.02204
644,295,42.996,-6.1485,0.00143366,0.000517738,0.000856764,0.00194718,4.21959e-06,0.539956,0.00129672,0.0146089,1868,729,42.996,6.14852
651,295,42.9401,-5.2757,0.00136959,0.000753393,0.000847617,0.00196337,0.000159616,0.611078,0.00125908,0.0154001,1875,729,42.94,5.27569
658,295,42.8892,-4.41846,0.00148493,0.00112786,0.000924635,0.00224811,0.000364681,0.69003,0.00139318,0.0152207,1882,729,42.8892,4.41845
665,295,42.834,-3.54633,0.00166914,0.00158242,0.00108527,0.00271191,0.000539645,0.765433,0.0016576,0.0136409,1889,729,42.834,3.54636
672,295,42.7904,-2.6781,0.00195982,0.00216424,0.00134139,0.00340731,0.000716758,0.823423,0.00207432,0.015308,1896,729,42.7904,2.67807
679,295,42.7469,-1.80988,0.00231351,0.00288734,0.00164829,0.0042735,0.000927344,0.871569,0.0025957,0.0120363,1903,729,42.747,1.80987
686,295,42.7458,-0.930115,0.00271538,0.00375792,0.00202749,0.00533007,0.00114323,0.911223,0.00324024,0.0130418,1910,729,42.7459,0.930104
693,295,42.7638,-0.053772,0,0,0,0,0,0,0,-1,1917,729,42.7638,0.0537982
700,295,31.3757,2.06982,0,0,0,0,0,0,0,-1,1924,729,31.3758,-2.0698
707,295,22.2661,3.05206,0,0,0,0,0,0,0,-1,1931,729,22.2662,-3.05207
714,295,17.4906,4.63068,0,0,0,0,0,0,0,-1,1938,729,17.4906,-4.63066
721,295,18.3792,5.32281,0,0,0,0,0,0,0,-1,1945,729,18.3791,-5.32283
728,295,17.379,3.74866,0,0,0,0,0,0,0,-1,1952,729,17.379,-3.74863
735,295,0,0,0,0,0,0,0,0,0,-1,1959,729,0,0
742,295,0,0,0,0,0,0,0,0,0,-1,1966,729,0,0
749,295,0,0,0,0,0,0,0,0,0,-1,1973,729,0,0
756,295,0,0,0,0,0,0,0,0,0,-1,1980,729,0,0
763,295,0,0,0,0,0,0,0,0,0,-1,1987,729,0,0
770,295,0,0,0,0,0,0,0,0,0,-1,1994,729,0,0
777,295,0,0,0,0,0,0,0,0,0,-1,2001,729,0,0
784,295,0,0,0,0,0,0,0,0,0,-1,2008,729,0,0
791,295,0,0,0,0,0,0,0,0,0,-1,2015,729,0,0
798,295,0,0,0,0,0,0,0,0,0,-1,2022,729,0,0
805,295,0,0,0,0,0,0,0,0,0,-1,2029,729,0,0
812,295,0,0,0,0,0,0,0,0,0,-1,2036,729,0,0
-700,288,0,0,0,0,0,0,0,0,0,-1,524,736,0,0
-693,288,0,0,0,0,0,0,0,0,0,-1,531,736,0,0
-686,288,0,0,0,0,0,0,0,0,0,-1,538,736,0,0
-679,288,0,0,0,0,0,0,0,0,0,-1,545,736,0,0
-672,288,0,0,0,0,0,0,0,0,0,-1,552,736,0,0
-665,288,0,0,0,0,0,0,0,0,0,-1,559,736,0,0
-658,288,0,0,0,0,0,0,0,0,0,-1,566,736,0,0
-651,288,0,0,0,0,0,0,0,0,0,-1,573,736,0,0
-644,288,0,0,0,0,0,0,0,0,0,-1,580,736,0,0
-637,288,0,0,0,0,0,0,0,0,0,-1,587,736,0,0
-630,288,0,0,0,0,0,0,0,0,0,-1,594,736,0,0
-623,288,0,0,0,0,0,0,0,0,0,-1,601,736,0,0
-616,288,-11.7584,2.4425,0,0,0,0,0,0,0,-1,608,736,-11.7584,-2.44251
-609,288,-10.3007,2.32178,0,0,0,0,0,0,0,-1,615,736,-10.3007,-2.32178
-602,288,-10.1458,-1.85559,0,0,0,0,0,0,0,-1,622,736,-10.1458,1.85556
-595,288,-7.63208,1.81769,0,0,0,0,0,0,0,-1,629,736,-7.63205,-1.81766
-588,288,-8.19269,1.50598,0,0,0,0,0,0,0,-1,636,736,-8.19268,-1.50601
-581,288,-13.1915,0.659241,0,0,0,0,0,0,0,-1,643,736,-13.1915,-0.659228
-574,288,-28.3306,0.0458374,0,0,0,0,0,0,0,-1,650,736,-28.3306,-0.0458131
-567,288,-28.5197,-0.894897,-0.000862378,0.00494556,-0.00279682,0.00607337,-0.00199019,-1.18749,0.00485038,0.0375385,657,736,-28.5197,0.894922
-560,288,-28.8131,-1.86176,-0.000276244,0.00391981,-0.00185863,0.00462468,-0.000981113,-1.20831,0.00345688,0.0180391,664,736,-28.8131,1.86174
-553,288,-28.82,-2.67316,0.000189941,0.00281468,-0.00113927,0.0032402,-0.000235578,-1.21334,0.00224279,0.0180488,671,736,-28.82,2.67318
-546,288,-28.903,-3.5191,0.000377291,0.00191638,-0.000562322,0.00209994,0.000193733,-1.25527,0.00134006,0.0205395,678,736,-28.903,3.51911
-539,288,-28.9745,-4.34204,0.00031296,0.00120743,2.24881e-05,0.001208,0.000312395,1.54568,0.000724025,0.0186945,685,736,-28.9745,4.34201
-532,288,-28.9508,-5.1991,0.000110544,0.000313444,0.000535954,0.000757465,-0.000333477,0.878936,0.000645517,0.0153757,692,736,-28.9508,5.19909
-525,288,-28.9918,-6.07568,-6.48866e-05,-0.000544429,0.000976758,0.000701099,-0.00131041,0.66504,0.00117897,0.0143501,699,736,-28.9917,6.0757
-518,288,-29.0715,-6.94061,-0.000104105,-0.00127126,0.00145307,0.000878196,-0.00225356,0.594449,0.00186533,0.0129787,706,736,-29.0715,6.94063
-511,288,-29.1572,-7.76788,-2.1851e-05,-0.00193882,0.00204769,0.00128058,-0.00324125,0.566504,0.00269124,0.00991776,713,736,-29.1572,7.76789
-504,288,-29.199,-8.60596,0.000345155,-0.00268151,0.00269133,0.00191945,-0.0042558,0.529279,0.00364935,0.0124179,720,736,-29.199,8.60597
-497,288,-29.208,-9.25537,0.00139149,-0.00339652,0.00332143,0.00309177,-0.0050968,0.473131,0.00477468,0.0364579,727,736,-29.208,9.25536
-490,288,-29.125,-9.84393,0,0,0,0,0,0,0,-1,734,736,-29.125,9.84392
-483,288,-17.3287,0.564758,0,0,0,0,0,0,0,-1,741,736,-17.3287,-0.56477
-476,288,-26.136,0.452148,0,0,0,0,0,0,0,-1,748,736,-26.136,-0.452177
-469,288,-27.7904,0.649841,0,0,0,0,0,0,0,-1,755,736,-27.7904,-0.649854
-462,288,-44.999,-2.65112,0,0,0,0,0,0,0,-1,762,736,-44.999,2.65111
-455,288,-49.1631,1.86432,0,0,0,0,0,0,0,-1,769,736,-49.1632,-1.8643
-448,288,-51.4573,1.70825,0,0,0,0,0,0,0,-1,776,736,-51.4573,-1.70824
-441,288,-47.7353,1.50165,0,0,0,0,0,0,0,-1,783,736,-47.7353,-1.50164
-434,288,-46.7119,1.66388,0,0,0,0,0,0,0,-1,790,736,-46.7119,-1.66385
-427,288,0,0,0,0,0,0,0,0,0,-1,797,736,0,0
-420,288,0,0,0,0,0,0,0,0,0,-1,804,736,0,0
-413,288,0,0,0,0,0,0,0,0,0,-1,811,736,0,0
-406,288,0,0,0,0,0,0,0,0,0,-1,818,736,0,0
-399,288,0,0,0,0,0,0,0,0,0,-1,825,736,0,0
-392,288,0,0,0,0,0,0,0,0,0,-1,832,736,0,0
-385,288,0,0,0,0,0,0,0,0,0,-1,839,736,0,0
-378,288,0,0,0,0,0,0,0,0,0,-1,846,736,0,0
-371,288,0,0,0,0,0,0,0,0,0,-1,853,736,0,0
-364,288,0,0,0,0,0,0,0,0,0,-1,860,736,0,0
-357,288,0,0,0,0,0,0,0,0,0,-1,867,736,0,0
-350,288,0,0,0,0,0,0,0,0,0,-1,874,736,0,0
-343,288,0,0,0,0,0,0,0,0,0,-1,881,736,0,0
-336,288,0,0,0,0,0,0,0,0,0,-1,888,736,0,0
-329,288,0,0,0,0,0,0,0,0,0,-1,895,736,0,0
-322,288,0,0,0,0,0,0,0,0,0,-1,902,736,0,0
-315,288,0,0,0,0,0,0,0,0,0,-1,909,736,0,0
-308,288,0,0,0,0,0,0,0,0,0,-1,916,736,0,0
-301,288,0,0,0,0,0,0,0,0,0,-1,923,736,0,0
-294,288,0,0,0,0,0,0,0,0,0,-1,930,736,0,0
-287,288,0,0,0,0,0,0,0,0,0,-1,937,736,0,0
-280,288,0,0,0,0,0,0,0,0,0,-1,944,736,0,0
-273,288,0,0,0,0,0,0,0,0,0,-1,951,736,0,0
-266,288,0,0,0,0,0,0,0,0,0,-1,958,736,0,0
-259,288,0,0,0,0,0,0,0,0,0,-1,965,736,0,0
-252,288,0,0,0,0,0,0,0,0,0,-1,972,736,0,0
-245,288,0,0,0,0,0,0,0,0,0,-1,979,736,0,0
-238,288,0,0,0,0,0,0,0,0,0,-1,986,736,0,0
-231,288,0,0,0,0,0,0,0,0,0,-1,993,736,0,0
-224,288,0,0,0,0,0,0,0,0,0,-1,1000,736,0,0
-217,288,0,0,0,0,0,0,0,0,0,-1,1007,736,0,0
-210,288,0,0,0,0,0,0,0,0,0,-1,1014,736,0,0
-203,288,0,0,0,0,0,0,0,0,0,-1,1021,736,0,0
-196,288,0,0,0,0,0,0,0,0,0,-1,1028,736,0,0
-189,288,0,0,0,0,0,0,0,0,0,-1,1035,736,0,0
-182,288,0,0,0,0,0,0,0,0,0,-1,1042,736,0,0
-175,288,0,0,0,0,0,0,0,0,0,-1,1049,736,0,0
-168,288,0,0,0,0,0,0,0,0,0,-1,1056,736,0,0
-161,288,0,0,0,0,0,0,0,0,0,-1,1063,736,0,0
-154,288,0,0,0,0,0,0,0,0,0,-1,1070,736,0,0
-147,288,0,0,0,0,0,0,0,0,0,-1,1077,736,0,0
-140,288,0,0,0,0,0,0,0,0,0,-1,1084,736,0,0
-133,288,0,0,0,0,0,0,0,0,0,-1,1091,736,0,0
-126,288,0,0,0,0,0,0,0,0,0,-1,1098,736,0,0
-119,288,0,0,0,0,0,0,0,0,0,-1,1105,736,0,0
-112,288,0,0,0,0,0,0,0,0,0,-1,1112,736,0,0
-105,288,0,0,0,0,0,0,0,0,0,-1,1119,736,0,0
-98,288,0,0,0,0,0,0,0,0,0,-1,1126,736,0,0
-91,288,0,0,0,0,0,0,0,0,0,-1,1133,736,0,0
-84,288,0,0,0,0,0,0,0,0,0,-1,1140,736,0,0
-77,288,0,0,0,0,0,0,0,0,0,-1,1147,736,0,0
-70,288,0,0,0,0,0,0,0,0,0,-1,1154,736,0,0
-63,288,0,0,0,0,0,0,0,0,0,-1,1161,736,0,0
-56,288,0,0,0,0,0,0,0,0,0,-1,1168,736,0,0
-49,288,0,0,0,0,0,0,0,0,0,-1,1175,736,0,0
-42,288,0,0,0,0,0,0,0,0,0,-1,1182,736,0,0
-35,288,0,0,0,0,0,0,0,0,0,-1,1189,736,0,0
-28,288,0,0,0,0,0,0,0,0,0,-1,1196,736,0,0
-21,288,0,0,0,0,0,0,0,0,0,-1,1203,736,0,0
-14,288,0,0,0,0,0,0,0,0,0,-1,1210,736,0,0
-7,288,0,0,0,0,0,0,0,0,0,-1,1217,736,0,0
0,288,0,0,0,0,0,0,0,0,0,-1,1224,736,0,0
7,288,0,0,0,0,0,0,0,0,0,-1,1231,736,0,0
14,288,0,0,0,0,0,0,0,0,0,-1,1238,736,0,0
21,288,0,0,0,0,0,0,0,0,0,-1,1245,736,0,0
28,288,0,0,0,0,0,0,0,0,0,-1,1252,736,0,0
35,288,0,0,0,0,0,0,0,0,0,-1,1259,736,0,0
42,288,0,0,0,0,0,0,0,0,0,-1,1266,736,0,0
49,288,0,0,0,0,0,0,0,0,0,-1,1273,736,0,0
56,288,0,0,0,0,0,0,0,0,0,-1,1280,736,0,0
63,288,0,0,0,0,0,0,0,0,0,-1,1287,736,0,0
70,288,0,0,0,0,0,0,0,0,0,-1,1294,736,0,0
77,288,0,0,0,0,0,0,0,0,0,-1,1301,736,0,0
84,288,0,0,0,0,0,0,0,0,0,-1,1308,736,0,0
91,288,0,0,0,0,0,0,0,0,0,-1,1315,736,0,0
98,288,0,0,0,0,0,0,0,0,0,-1,1322,736,0,0
105,288,0,0,0,0,0,0,0,0,0,-1,1329,736,0,0
112,288,0,0,0,0,0,0,0,0,0,-1,1336,736,0,0
119,288,0,0,0,0,0,0,0,0,0,-1,1343,736,0,0
126,288,0,0,0,0,0,0,0,0,0,-1,1350,736,0,0
133,288,0,0,0,0,0,0,0,0,0,-1,1357,736,0,0
140,288,0,0,0,0,0,0,0,0,0,-1,1364,736,0,0
147,288,0,0,0,0,0,0,0,0,0,-1,1371,736,0,0
154,288,0,0,0,0,0,0,0,0,0,-1,1378,736,0,0
161,288,0,0,0,0,0,0,0,0,0,-1,1385,736,0,0
168,288,0,0,0,0,0,0,0,0,0,-1,1392,736,0,0
175,288,0,0,0,0,0,0,0,0,0,-1,1399,736,0,0
182,288,0,0,0,0,0,0,0,0,0,-1,1406,736,0,0
189,288,0,0,0,0,0,0,0,0,0,-1,1413,736,0,0
196,288,0,0,0,0,0,0,0,0,0,-1,1420,736,0,0
203,288,0,0,0,0,0,0,0,0,0,-1,1427,736,0,0
210,288,0,0,0,0,0,0,0,0,0,-1,1434,736,0,0
217,288,0,0,0,0,0,0,0,0,0,-1,1441,736,0,0
224,288,0,0,0,0,0,0,0,0,0,-1,1448,736,0,0
231,288,0,0,0,0,0,0,0,0,0,-1,1455,736,0,0
238,288,0,0,0,0,0,0,0,0,0,-1,1462,736,0,0
245,288,0,0,0,0,0,0,0,0,0,-1,1469,736,0,0
252,288,0,0,0,0,0,0,0,0,0,-1,1476,736,0,0
259,288,0,0,0,0,0,0,0,0,0,-1,1483,736,0,0
266,288,0,0,0,0,0,0,0,0,0,-1,1490,736,0,0
273,288,0,0,0,0,0,0,0,0,0,-1,1497,736,0,0
280,288,0,0,0,0,0,0,0,0,0,-1,1504,736,0,0
287,288,0,0,0,0,0,0,0,0,0,-1,1511,736,0,0
294,288,0,0,0,0,0,0,0,0,0,-1,1518,736,0,0
301,288,0,0,0,0,0,0,0,0,0,-1,1525,736,0,0
308,288,0,0,0,0,0,0,0,0,0,-1,1532,736,0,0
315,288,0,0,0,0,0,0,0,0,0,-1,1539,736,0,0
322,288,0,0,0,0,0,0,0,0,0,-1,1546,736,0,0
329,288,0,0,0,0,0,0,0,0,0,-1,1553,736,0,0
336,288,0,0,0,0,0,0,0,0,0,-1,1560,736,0,0
343,288,0,0,0,0,0,0,0,0,0,-1,1567,736,0,0
350,288,0,0,0,0,0,0,0,0,0,-1,1574,736,0,0
357,288,0,0,0,0,0,0,0,0,0,-1,1581,736,0,0
364,288,0,0,0,0,0,0,0,0,0,-1,1588,736,0,0
371,288,0,0,0,0,0,0,0,0,0,-1,1595,736,0,0
378,288,0,0,0,0,0,0,0,0,0,-1,1602,736,0,0
385,288,0,0,0,0,0,0,0,0,0,-1,1609,736,0,0
392,288,0,0,0,0,0,0,0,0,0,-1,1616,736,0,0
399,288,0,0,0,0,0,0,0,0,0,-1,1623,736,0,0
406,288,0,0,0,0,0,0,0,0,0,-1,1630,736,0,0
413,288,0,0,0,0,0,0,0,0,0,-1,1637,736,0,0
420,288,0,0,0,0,0,0,0,0,0,-1,1644,736,0,0
427,288,0,0,0,0,0,0,0,0,0,-1,1651,736,0,0
434,288,0,0,0,0,0,0,0,0,0,-1,1658,736,0,0
441,288,0,0,0,0,0,0,0,0,0,-1,1665,736,0,0
448,288,0,0,0,0,0,0,0,0,0,-1,1672,736,0,0
455,288,0,0,0,0,0,0,0,0,0,-1,1679,736,0,0
462,288,0,0,0,0,0,0,0,0,0,-1,1686,736,0,0
469,288,0,0,0,0,0,0,0,0,0,-1,1693,736,0,0
476,288,0,0,0,0,0,0,0,0,0,-1,1700,736,0,0
483,288,0,0,0,0,0,0,0,0,0,-1,1707,736,0,0
490,288,0,0,0,0,0,0,0,0,0,-1,1714,736,0,0
497,288,0,0,0,0,0,0,0,0,0,-1,1721,736,0,0
504,288,0,0,0,0,0,0,0,0,0,-1,1728,736,0,0
511,288,0,0,0,0,0,0,0,0,0,-1,1735,736,0,0
518,288,0,0,0,0,0,0,0,0,0,-1,1742,736,0,0
525,288,0,0,0,0,0,0,0,0,0,-1,1749,736,0,0
532,288,0,0,0,0,0,0,0,0,0,-1,1756,736,0,0
539,288,0,0,0,0,0,0,0,0,0,-1,1763,736,0,0
546,288,0,0,0,0,0,0,0,0,0,-1,1770,736,0,0
553,288,57.4934,2.28064,0,0,0,0,0,0,0,-1,1777,736,57.4934,-2.28064
560,288,57.3807,3.02881,0,0,0,0,0,0,0,-1,1784,736,57.3808,-3.0288
567,288,57.2081,3.74274,0,0,0,0,0,0,0,-1,1791,736,57.2081,-3.74273
574,288,56.9817,4.36981,0,0,0,0,0,0,0,-1,1798,736,56.9816,-4.36984
581,288,53.4904,5.33215,0,0,0,0,0,0,0,-1,1805,736,53.4904,-5.33218
588,288,54.9313,3.29852,0,0,0,0,0,0,0,-1,1812,736,54.9313,-3.29849
595,288,47.035,3.35156,0,0,0,0,0,0,0,-1,1819,736,47.035,-3.35157
602,288,26.7634,7.61279,0,0,0,0,0,0,0,-1,1826,736,26.7635,-7.61279
609,288,17.5223,4.86414,0,0,0,0,0,0,0,-1,1833,736,17.5223,-4.86412
616,288,13.4886,0.801331,0,0,0,0,0,0,0,-1,1840,736,13.4886,-0.80132
623,288,44.0122,-8.83539,0,0,0,0,0,0,0,-1,1847,736,44.0123,8.83539
630,288,43.9294,-7.84753,0.00324136,0.000835552,0.00205243,0.00441742,-0.000340508,0.520335,0.00306476,0.033619,1854,736,43.9295,7.84754
637,288,43.9153,-6.95068,0.00234261,0.00086488,0.0015053,0.00328061,-7.31121e-05,0.55725,0.00221184,0.0126463,1861,736,43.9152,6.95066
644,288,43.8655,-6.08081,0.00165552,0.00062341,0.00111381,0.00236702,-8.80873e-05,0.568459,0.00160818,0.0112644,1868,736,43.8655,6.08083
651,288,43.7998,-5.21448,0.00135868,0.000701399,0.000916088,0.00200329,5.67854e-05,0.613177,0.00131701,0.0136179,1875,736,43.7998,5.21449
658,288,43.7725,-4.32251,0.00139652,0.00092469,0.000904734,0.00209559,0.000225617,0.657861,0.00132826,0.0189154,1882,736,43.7725,4.3225
665,288,43.7301,-3.49036,0.00152542,0.00126219,0.00100222,0.00240463,0.000382979,0.72011,0.00149191,0.0188917,1889,736,43.7301,3.49033
672,288,43.676,-2.64258,0.00174628,0.00173943,0.00119497,0.00293783,0.000547886,0.783965,0.00180388,0.0182085,1896,736,43.6761,2.64257
679,288,43.631,-1.76202,0.00201734,0.00232291,0.00143541,0.00361364,0.000726603,0.838419,0.00220713,0.015853,1903,736,43.631,1.762
686,288,43.5664,-0.90802,0.00230281,0.00307042,0.00172268,0.00445153,0.0009217,0.895007,0.00271315,0.0127501,1910,736,43.5664,0.908033
693,288,43.5746,0.0536499,0.00273438,0.0041008,0.00214281,0.00566668,0.0011685,0.939722,0.00345479,0.0274143,1917,736,43.5745,-0.0536524
700,288,43.5775,1.08167,0,0,0,0,0,0,0,-1,1924,736,43.5776,-1.08168
707,288,30.9496,3.07977,0,0,0,0,0,0,0,-1,1931,736,30.9496,-3.07975
714,288,23.0149,3.82544,0,0,0,0,0,0,0,-1,1938,736,23.0149,-3.82541
721,288,18.0732,3.69385,0,0,0,0,0,0,0,-1,1945,736,18.0732,-3.69387
728,288,19.3208,3.91455,0,0,0,0,0,0,0,-1,1952,736,19.3209,-3.91455
735,288,18.7712,3.51312,0,0,0,0,0,0,0,-1,1959,736,18.7713,-3.51309
742,288,0,0,0,0,0,0,0,0,0,-1,1966,736,0,0
749,288,0,0,0,0,0,0,0,0,0,-1,1973,736,0,0
756,288,0,0,0,0,0,0,0,0,0,-1,1980,736,0,0
763,288,0,0,0,0,0,0,0,0,0,-1,1987,736,0,0
770,288,0,0,0,0,0,0,0,0,0,-1,1994,736,0,0
777,288,0,0,0,0,0,0,0,0,0,-1,2001,736,0,0
784,288,0,0,0,0,0,0,0,0,0,-1,2008,736,0,0
791,288,0,0,0,0,0,0,0,0,0,-1,2015,736,0,0
798,288,0,0,0,0,0,0,0,0,0,-1,2022,736,0,0
805,288,0,0,0,0,0,0,0,0,0,-1,2029,736,0,0
812,288,0,0,0,0,0,0,0,0,0,-1,2036,736,0,0
-700,281,0,0,0,0,0,0,0,0,0,-1,524,743,0,0
-693,281,0,0,0,0,0,0,0,0,0,-1,531,743,0,0
-686,281,0,0,0,0,0,0,0,0,0,-1,538,743,0,0
-679,281,0,0,0,0,0,0,0,0,0,-1,545,743,0,0
-672,281,0,0,0,0,0,0,0,0,0,-1,552,743,0,0
-665,281,0,0,0,0,0,0,0,0,0,-1,559,743,0,0
-658,281,0,0,0,0,0,0,0,0,0,-1,566,743,0,0
-651,281,0,0,0,0,0,0,0,0,0,-1,573,743,0,0
-644,281,0,0,0,0,0,0,0,0,0,-1,580,743,0,0
-637,281,0,0,0,0,0,0,0,0,0,-1,587,743,0,0
-630,281,0,0,0,0,0,0,0,0,0,-1,594,743,0,0
-623,281,-19.1697,5.67017,0,0,0,0,0,0,0,-1,601,743,-19.1697,-5.67019
-616,281,-11.5906,2.6853,0,0,0,0,0,0,0,-1,608,743,-11.5906,-2.68529
-609,281,-16.1972,4.14838,0,0,0,0,0,0,0,-1,615,743,-16.1972,-4.14837
-602,281,-21.9772,6.77417,0,0,0,0,0,0,0,-1,622,743,-21.9771,-6.77415
-595,281,-10.4797,-1.07404,0,0,0,0,0,0,0,-1,629,743,-10.4798,1.07402
-588,281,-13.277,1.49817,0,0,0,0,0,0,0,-1,636,743,-13.2771,-1.49817
-581,281,-29.4494,0.951477,0,0,0,0,0,0,0,-1,643,743,-29.4494,-0.951478
-574,281,-29.3846,-0.00610352,-0.00110835,0.00517693,-0.0045571,0.00756994,-0.00350135,-1.08726,0.0065343,0.0480314,650,743,-29.3846,0.00608251
-567,281,-29.5989,-0.881287,-0.000735312,0.00416157,-0.00296154,0.00555573,-0.00212947,-1.13082,0.00458168,0.0225416,657,743,-29.5989,0.881305
-560,281,-29.7051,-1.75781,-0.000475673,0.00325867,-0.00184199,0.00401433,-0.00123134,-1.18149,0.00316748,0.0096282,664,743,-29.705,1.75784
-553,281,-29.7131,-2.60376,-0.00024194,0.00230444,-0.000981687,0.00263896,-0.000576457,-1.24238,0.00197963,0.0141493,671,743,-29.7131,2.60374
-546,281,-29.7618,-3.41833,-0.000174397,0.00144463,-0.000288242,0.00149442,-0.000224183,-1.39976,0.0010788,0.0163609,678,743,-29.7618,3.41835
-539,281,-29.823,-4.27966,-0.000310877,0.000785182,0.000391858,0.000910865,-0.000436561,1.26042,0.00079384,0.0146494,685,743,-29.823,4.27964
-532,281,-29.8343,-5.10638,-0.000407301,-0.000110936,0.00096748,0.000719644,-0.00123788,0.861389,0.0011433,0.0150368,692,743,-29.8343,5.1064
-525,281,-29.8922,-5.99866,-0.000291272,-0.000968758,0.00144619,0.000855318,-0.00211535,0.670357,0.00176579,0.0178027,699,743,-29.8922,5.99869
-518,281,-29.9474,-6.8764,0.00015666,-0.00175054,0.0019273,0.00135337,-0.00294726,0.555665,0.00253918,0.0136908,706,743,-29.9474,6.87638
-511,281,-30.0111,-7.73413,0.000887493,-0.00250494,0.00254114,0.00224653,-0.00386398,0.491108,0.00356886,0.0125234,713,743,-30.0111,7.73414
-504,281,-30.1104,-8.60388,0.0020674,-0.00343878,0.00319512,0.00353192,-0.00490331,0.429788,0.00489149,0.01791,720,743,-30.1103,8.6039
-497,281,-29.9654,-9.26886,0,0,0,0,0,0,0,-1,727,743,-29.9654,9.26887
-490,281,-27.6985,-9.63165,0,0,0,0,0,0,0,-1,734,743,-27.6986,9.63165
-483,281,-22.1078,-2.34973,0,0,0,0,0,0,0,-1,741,743,-22.1078,2.3497
-476,281,-28.0016,2.17786,0,0,0,0,0,0,0,-1,748,743,-28.0016,-2.17786
-469,281,-34.6448,0.171692,0,0,0,0,0,0,0,-1,755,743,-34.6448,-0.171685
-462,281,-46.6214,0.0193481,0,0,0,0,0,0,0,-1,762,743,-46.6214,-0.0193665
-455,281,-52.2403,1.03314,0,0,0,0,0,0,0,-1,769,743,-52.2403,-1.03317
-448,281,-51.8248,1.71381,0,0,0,0,0,0,0,-1,776,743,-51.8247,-1.71382
-441,281,-51.6853,2.25977,0,0,0,0,0,0,0,-1,783,743,-51.6853,-2.25976
-434,281,0,0,0,0,0,0,0,0,0,-1,790,743,0,0
-427,281,0,0,0,0,0,0,0,0,0,-1,797,743,0,0
-420,281,0,0,0,0,0,0,0,0,0,-1,804,743,0,0
-413,281,0,0,0,0,0,0,0,0,0,-1,811,743,0,0
-406,281,0,0,0,0,0,0,0,0,0,-1,818,743,0,0
-399,281,0,0,0,0,0,0,0,0,0,-1,825,743,0,0
-392,281,0,0,0,0,0,0,0,0,0,-1,832,743,0,0
-385,281,0,0,0,0,0,0,0,0,0,-1,839,743,0,0
-378,281,0,0,0,0,0,0,0,0,0,-1,846,743,0,0
-371,281,0,0,0,0,0,0,0,0,0,-1,853,743,0,0
-364,281,0,0,0,0,0,0,0,0,0,-1,860,743,0,0
-357,281,0,0,0,0,0,0,0,0,0,-1,867,743,0,0
-350,281,0,0,0,0,0,0,0,0,0,-1,874,743,0,0
-343,281,0,0,0,0,0,0,0,0,0,-1,881,743,0,0
-336,281,0,0,0,0,0,0,0,0,0,-1,888,743,0,0
-329,281,0,0,0,0,0,0,0,0,0,-1,895,743,0,0
-322,281,0,0,0,0,0,0,0,0,0,-1,902,743,0,0
-315,281,0,0,0,0,0,0,0,0,0,-1,909,743,0,0
-308,281,0,0,0,0,0,0,0,0,0,-1,916,743,0,0
-301,281,0,0,0,0,0,0,0,0,0,-1,923,743,0,0
-294,281,0,0,0,0,0,0,0,0,0,-1,930,743,0,0
-287,281,0,0,0,0,0,0,0,0,0,-1,937,743,0,0
-280,281,0,0,0,0,0,0,0,0,0,-1,944,743,0,0
-273,281,0,0,0,0,0,0,0,0,0,-1,951,743,0,0
-266,281,0,0,0,0,0,0,0,0,0,-1,958,743,0,0
-259,281,0,0,0,0,0,0,0,0,0,-1,965,743,0,0
-252,281,0,0,0,0,0,0,0,0,0,-1,972,743,0,0
-245,281,0,0,0,0,0,0,0,0,0,-1,979,743,0,0
-238,281,0,0,0,0,0,0,0,0,0,-1,986,743,0,0
-231,281,0,0,0,0,0,0,0,0,0,-1,993,743,0,0
-224,281,0,0,0,0,0,0,0,0,0,-1,1000,743,0,0
-217,281,0,0,0,0,0,0,0,0,0,-1,1007,743,0,0
-210,281,0,0,0,0,0,0,0,0,0,-1,1014,743,0,0
-203,281,0,0,0,0,0,0,0,0,0,-1,1021,743,0,0
-196,281,0,0,0,0,0,0,0,0,0,-1,1028,743,0,0
-189,281,0,0,0,0,0,0,0,0,0,-1,1035,743,0,0
-182,281,0,0,0,0,0,0,0,0,0,-1,1042,743,0,0
-175,281,0,0,0,0,0,0,0,0,0,-1,1049,743,0,0
-168,281,0,0,0,0,0,0,0,0,0,-1,1056,743,0,0
-161,281,0,0,0,0,0,0,0,0,0,-1,1063,743,0,0
-154,281,0,0,0,0,0,0,0,0,0,-1,1070,743,0,0
-147,281,0,0,0,0,0,0,0,0,0,-1,1077,743,0,0
-140,281,0,0,0,0,0,0,0,0,0,-1,1084,743,0,0
-133,281,0,0,0,0,0,0,0,0,0,-1,1091,743,0,0
-126,281,0,0,0,0,0,0,0,0,0,-1,1098,743,0,0
-119,281,0,0,0,0,0,0,0,0,0,-1,1105,743,0,0
-112,281,0,0,0,0,0,0,0,0,0,-1,1112,743,0,0
-105,281,0,0,0,0,0,0,0,0,0,-1,1119,743,0,0
-98,281,0,0,0,0,0,0,0,0,0,-1,1126,743,0,0
-91,281,0,0,0,0,0,0,0,0,0,-1,1133,743,0,0
-84,281,0,0,0,0,0,0,0,0,0,-1,1140,743,0,0
-77,281,0,0,0,0,0,0,0,0,0,-1,1147,743,0,0
-70,281,0,0,0,0,0,0,0,0,0,-1,1154,743,0,0
-63,281,0,0,0,0,0,0,0,0,0,-1,1161,743,0,0
-56,281,0,0,0,0,0,0,0,0,0,-1,1168,743,0,0
-49,281,0,0,0,0,0,0,0,0,0,-1,1175,743,0,0
-42,281,0,0,0,0,0,0,0,0,0,-1,1182,743,0,0
-35,281,0,0,0,0,0,0,0,0,0,-1,1189,743,0,0
-28,281,0,0,0,0,0,0,0,0,0,-1,1196,743,0,0
-21,281,0,0,0,0,0,0,0,0,0,-1,1203,743,0,0
-14,281,0,0,0,0,0,0,0,0,0,-1,1210,743,0,0
-7,281,0,0,0,0,0,0,0,0,0,-1,1217,743,0,0
0,281,0,0,0,0,0,0,0,0,0,-1,1224,743,0,0
7,281,0,0,0,0,0,0,0,0,0,-1,1231,743,0,0
14,281,0,0,0,0,0,0,0,0,0,-1,1238,743,0,0
21,281,0,0,0,0,0,0,0,0,0,-1,1245,743,0,0
28,281,0,0,0,0,0,0,0,0,0,-1,1252,743,0,0
35,281,0,0,0,0,0,0,0,0,0,-1,1259,743,0,0
42,281,0,0,0,0,0,0,0,0,0,-1,1266,743,0,0
49,281,0,0,0,0,0,0,0,0,0,-1,1273,743,0,0
56,281,0,0,0,0,0,0,0,0,0,-1,1280,743,0,0
63,281,0,0,0,0,0,0,0,0,0,-1,1287,743,0,0
70,281,0,0,0,0,0,0,0,0,0,-1,1294,743,0,0
77,281,0,0,0,0,0,0,0,0,0,-1,1301,743,0,0
84,281,0,0,0,0,0,0,0,0,0,-1,1308,743,0,0
91,281,0,0,0,0,0,0,0,0,0,-1,1315,743,0,0
98,281,0,0,0,0,0,0,0,0,0,-1,1322,743,0,0
105,281,0,0,0,0,0,0,0,0,0,-1,1329,743,0,0
112,281,0,0,0,0,0,0,0,0,0,-1,1336,743,0,0
119,281,0,0,0,0,0,0,0,0,0,-1,1343,743,0,0
126,281,0,0,0,0,0,0,0,0,0,-1,1350,743,0,0
133,281,0,0,0,0,0,0,0,0,0,-1,1357,743,0,0
140,281,0,0,0,0,0,0,0,0,0,-1,1364,743,0,0
147,281,0,0,0,0,0,0,0,0,0,-1,1371,743,0,0
154,281,0,0,0,0,0,0,0,0,0,-1,1378,743,0,0
161,281,0,0,0,0,0,0,0,0,0,-1,1385,743,0,0
168,281,0,0,0,0,0,0,0,0,0,-1,1392,743,0,0
175,281,0,0,0,0,0,0,0,0,0,-1,1399,743,0,0
182,281,0,0,0,0,0,0,0,0,0,-1,1406,743,0,0
189,281,0,0,0,0,0,0,0,0,0,-1,1413,743,0,0
196,281,0,0,0,0,0,0,0,0,0,-1,1420,743,0,0
203,281,0,0,0,0,0,0,0,0,0,-1,1427,743,0,0
210,281,0,0,0,0,0,0,0,0,0,-1,1434,743,0,0
217,281,0,0,0,0,0,0,0,0,0,-1,1441,743,0,0
224,281,0,0,0,0,0,0,0,0,0,-1,1448,743,0,0
231,281,0,0,0,0,0,0,0,0,0,-1,1455,743,0,0
238,281,0,0,0,0,0,0,0,0,0,-1,1462,743,0,0
245,281,0,0,0,0,0,0,0,0,0,-1,1469,743,0,0
252,281,0,0,0,0,0,0,0,0,0,-1,1476,743,0,0
259,281,0,0,0,0,0,0,0,0,0,-1,1483,743,0,0
266,281,0,0,0,0,0,0,0,0,0,-1,1490,743,0,0
273,281,0,0,0,0,0,0,0,0,0,-1,1497,743,0,0
280,281,0,0,0,0,0,0,0,0,0,-1,1504,743,0,0
287,281,0,0,0,0,0,0,0,0,0,-1,1511,743,0,0
294,281,0,0,0,0,0,0,0,0,0,-1,1518,743,0,0
301,281,0,0,0,0,0,0,0,0,0,-1,1525,743,0,0
308,281,0,0,0,0,0,0,0,0,0,-1,1532,743,0,0
315,281,0,0,0,0,0,0,0,0,0,-1,1539,743,0,0
322,281,0,0,0,0,0,0,0,0,0,-1,1546,743,0,0
329,281,0,0,0,0,0,0,0,0,0,-1,1553,743,0,0
336,281,0,0,0,0,0,0,0,0,0,-1,1560,743,0,0
343,281,0,0,0,0,0,0,0,0,0,-1,1567,743,0,0
350,281,0,0,0,0,0,0,0,0,0,-1,1574,743,0,0
357,281,0,0,0,0,0,0,0,0,0,-1,1581,743,0,0
364,281,0,0,0,0,0,0,0,0,0,-1,1588,743,0,0
371,281,0,0,0,0,0,0,0,0,0,-1,1595,743,0,0
378,281,0,0,0,0,0,0,0,0,0,-1,1602,743,0,0
385,281,0,0,0,0,0,0,0,0,0,-1,1609,743,0,0
392,281,0,0,0,0,0,0,0,0,0,-1,1616,743,0,0
399,281,0,0,0,0,0,0,0,0,0,-1,1623,743,0,0
406,281,0,0,0,0,0,0,0,0,0,-1,1630,743,0,0
413,281,0,0,0,0,0,0,0,0,0,-1,1637,743,0,0
420,281,0,0,0,0,0,0,0,0,0,-1,1644,743,0,0
427,281,0,0,0,0,0,0,0,0,0,-1,1651,743,0,0
434,281,0,0,0,0,0,0,0,0,0,-1,1658,743,0,0
441,281,0,0,0,0,0,0,0,0,0,-1,1665,743,0,0
448,281,0,0,0,0,0,0,0,0,0,-1,1672,743,0,0
455,281,0,0,0,0,0,0,0,0,0,-1,1679,743,0,0
462,281,0,0,0,0,0,0,0,0,0,-1,1686,743,0,0
469,281,0,0,0,0,0,0,0,0,0,-1,1693,743,0,0
476,281,0,0,0,0,0,0,0,0,0,-1,1700,743,0,0
483,281,0,0,0,0,0,0,0,0,0,-1,1707,743,0,0
490,281,0,0,0,0,0,0,0,0,0,-1,1714,743,0,0
497,281,0,0,0,0,0,0,0,0,0,-1,1721,743,0,0
504,281,0,0,0,0,0,0,0,0,0,-1,1728,743,0,0
511,281,0,0,0,0,0,0,0,0,0,-1,1735,743,0,0
518,281,0,0,0,0,0,0,0,0,0,-1,1742,743,0,0
525,281,0,0,0,0,0,0,0,0,0,-1,1749,743,0,0
532,281,0,0,0,0,0,0,0,0,0,-1,1756,743,0,0
539,281,0,0,0,0,0,0,0,0,0,-1,1763,743,0,0
546,281,0,0,0,0,0,0,0,0,0,-1,1770,743,0,0
553,281,0,0,0,0,0,0,0,0,0,-1,1777,743,0,0
560,281,57.8354,3.06482,0,0,0,0,0,0,0,-1,1784,743,57.8354,-3.06479
567,281,57.6156,3.64508,0,0,0,0,0,0,0,-1,1791,743,57.6156,-3.64511
574,281,57.3431,4.17767,0,0,0,0,0,0,0,-1,1798,743,57.3431,-4.17769
581,281,57.0648,4.53906,0,0,0,0,0,0,0,-1,1805,743,57.0648,-4.53908
588,281,53.5422,6.00092,0,0,0,0,0,0,0,-1,1812,743,53.5422,-6.00092
595,281,54.8569,3.32269,0,0,0,0,0,0,0,-1,1819,743,54.857,-3.32269
602,281,45.9985,3.98254,0,0,0,0,0,0,0,-1,1826,743,45.9985,-3.98254
609,281,32.7925,1.28723,0,0,0,0,0,0,0,-1,1833,743,32.7925,-1.28722
616,281,21.3191,-0.253906,0,0,0,0,0,0,0,-1,1840,743,21.3191,0.253931
623,281,31.8741,-4.74182,0,0,0,0,0,0,0,-1,1847,743,31.8741,4.74184
630,281,44.7241,-7.76318,0,0,0,0,0,0,0,-1,1854,743,44.7241,7.76316
637,281,44.7158,-6.91418,0.00296277,0.00103902,0.00175568,0.0040028,-1.01048e-06,0.534798,0.00266887,0.0224775,1861,743,44.7158,6.91419
644,281,44.7228,-6.03894,0.00202554,0.00068336,0.00135649,0.00286786,-0.000158962,0.555688,0.00196704,0.0116746,1868,743,44.7228,6.03893
651,281,44.6981,-5.17535,0.00141112,0.000679546,0.000983614,0.00209476,-4.09409e-06,0.607382,0.00139787,0.0130853,1875,743,44.6982,5.17534
658,281,44.6525,-4.27173,0.00127157,0.000769973,0.000864814,0.00192122,0.000120325,0.644268,0.00124265,0.0222147,1882,743,44.6524,4.27172
665,281,44.6222,-3.4303,0.00126719,0.00101742,0.000884502,0.00203558,0.00024903,0.715268,0.00128213,0.0236308,1889,743,44.6222,3.4303
672,281,44.5424,-2.57941,0.00139726,0.00139508,0.00100287,0.00239904,0.000393298,0.784855,0.00148572,0.0155436,1896,743,44.5424,2.57941
679,281,44.4838,-1.72833,0.00158208,0.00186138,0.00116839,0.00289843,0.000545028,0.844876,0.00177867,0.0246245,1903,743,44.4838,1.72834
686,281,44.3723,-0.890564,0.00177108,0.00249177,0.00136943,0.00354747,0.000715377,0.914049,0.00216626,0.0202545,1910,743,44.3723,0.890575
693,281,44.3497,0.0144653,0.00205717,0.00332343,0.00167186,0.00447803,0.000902579,0.966403,0.0027346,0.0150609,1917,743,44.3498,-0.0144585
700,281,44.3158,0.942566,0.00241569,0.00431023,0.00210848,0.00567445,0.00105147,0.99652,0.00348575,0.0455156,1924,743,44.3157,-0.942593
707,281,44.4347,1.84735,0,0,0,0,0,0,0,-1,1931,743,44.4347,-1.84735
714,281,25.0125,2.5105,0,0,0,0,0,0,0,-1,1938,743,25.0124,-2.51053
721,281,16.9656,3.22174,0,0,0,0,0,0,0,-1,1945,743,16.9656,-3.22172
728,281,19.0251,3.63934,0,0,0,0,0,0,0,-1,1952,743,19.0252,-3.63932
735,281,19.0869,2.50311,0,0,0,0,0,0,0,-1,1959,743,19.0869,-2.5031
742,281,0,0,0,0,0,0,0,0,0,-1,1966,743,0,0
749,281,0,0,0,0,0,0,0,0,0,-1,1973,743,0,0
756,281,0,0,0,0,0,0,0,0,0,-1,1980,743,0,0
763,281,0,0,0,0,0,0,0,0,0,-1,1987,743,0,0
770,281,0,0,0,0,0,0,0,0,0,-1,1994,743,0,0
777,281,0,0,0,0,0,0,0,0,0,-1,2001,743,0,0
784,281,0,0,0,0,0,0,0,0,0,-1,2008,743,0,0
791,281,0,0,0,0,0,0,0,0,0,-1,2015,743,0,0
798,281,0,0,0,0,0,0,0,0,0,-1,2022,743,0,0
805,281,0,0,0,0,0,0,0,0,0,-1,2029,743,0,0
812,281,0,0,0,0,0,0,0,0,0,-1,2036,743,0,0
-700,274,0,0,0,0,0,0,0,0,0,-1,524,750,0,0
-693,274,0,0,0,0,0,0,0,0,0,-1,531,750,0,0
-686,274,0,0,0,0,0,0,0,0,0,-1,538,750,0,0
-679,274,0,0,0,0,0,0,0,0,0,-1,545,750,0,0
-672,274,0,0,0,0,0,0,0,0,0,-1,552,750,0,0
-665,274,0,0,0,0,0,0,0,0,0,-1,559,750,0,0
-658,274,0,0,0,0,0,0,0,0,0,-1,566,750,0,0
-651,274,0,0,0,0,0,0,0,0,0,-1,573,750,0,0
-644,274,0,0,0,0,0,0,0,0,0,-1,580,750,0,0
-637,274,0,0,0,0,0,0,0,0,0,-1,587,750,0,0
-630,274,0,0,0,0,0,0,0,0,0,-1,594,750,0,0
-623,274,-19.6909,5.12701,0,0,0,0,0,0,0,-1,601,750,-19.6908,-5.12703
-616,274,-17.9133,3.9024,0,0,0,0,0,0,0,-1,608,750,-17.9133,-3.90239
-609,274,-26.0861,5.57306,0,0,0,0,0,0,0,-1,615,750,-26.0861,-5.57307
-602,274,-25.7372,3.73846,0,0,0,0,0,0,0,-1,622,750,-25.7372,-3.73849
-595,274,-25.258,2.53473,0,0,0,0,0,0,0,-1,629,750,-25.258,-2.53474
-588,274,-24.9805,2.2334,0,0,0,0,0,0,0,-1,636,750,-24.9805,-2.23341
-581,274,-30.2847,0.947388,0,0,0,0,0,0,0,-1,643,750,-30.2847,-0.947359
-574,274,-30.2173,-0.0448608,-0.000203676,0.0048087,-0.00506288,0.00795173,-0.00334671,-1.01522,0.00670133,0.0306981,650,750,-30.2173,0.0448317
-567,274,-30.47,-0.876831,-0.000332806,0.00376949,-0.00317701,0.00549995,-0.00206327,-1.07204,0.00451439,0.0291878,657,750,-30.47,0.876821
-560,274,-30.5126,-1.6922,-0.000418345,0.0028513,-0.0018396,0.00367753,-0.00124458,-1.14866,0.00295524,0.0157011,664,750,-30.5126,1.69223
-553,274,-30.5677,-2.55664,-0.000451491,0.00196467,-0.000824223,0.00221905,-0.000705874,-1.27144,0.00176243,0.0103519,671,750,-30.5677,2.55661
-546,274,-30.627,-3.4057,-0.000564525,0.00105347,3.29452e-05,0.00105414,-0.000565196,1.55045,0.000949024,0.012069,678,750,-30.627,3.40572
-539,274,-30.6882,-4.2558,-0.00079499,0.000436053,0.000766929,0.000803917,-0.00116285,1.12355,0.0011418,0.0127094,685,750,-30.6882,4.2558
-532,274,-30.7257,-5.08472,-0.000722653,-0.000491358,0.00134155,0.000739518,-0.00195353,0.828394,0.00160663,0.0140528,692,750,-30.7257,5.08471
-525,274,-30.7697,-5.91913,-0.000240973,-0.00134217,0.00179326,0.00108431,-0.00266745,0.636448,0.00222944,0.0148788,699,750,-30.7697,5.91915
-518,274,-30.7925,-6.80078,0.000719917,-0.00222065,0.00219575,0.00189218,-0.00339292,0.490382,0.00309209,0.0135362,706,750,-30.7925,6.8008
-511,274,-30.8422,-7.70154,0.00198976,-0.00304557,0.00271801,0.00317699,-0.0042328,0.411823,0.0042925,0.0190331,713,750,-30.8422,7.70151
-504,274,-31.0049,-8.65497,0.00368011,-0.00409625,0.00325514,0.00486282,-0.00527896,0.348504,0.005857,0.0365199,720,750,-31.005,8.65499
-497,274,-31.2277,-9.63367,0,0,0,0,0,0,0,-1,727,750,-31.2277,9.63369
-490,274,-13.6545,-3.58826,0,0,0,0,0,0,0,-1,734,750,-13.6546,3.58825
-483,274,-27.8608,1.30981,0,0,0,0,0,0,0,-1,741,750,-27.8608,-1.30979
-476,274,-33.7561,-0.508606,0,0,0,0,0,0,0,-1,748,750,-33.7561,0.508636
-469,274,-41.1387,0.907715,0,0,0,0,0,0,0,-1,755,750,-41.1387,-0.907744
-462,274,-52.6144,0.482544,0,0,0,0,0,0,0,-1,762,750,-52.6144,-0.482558
-455,274,-54.602,0.496216,0,0,0,0,0,0,0,-1,769,750,-54.602,-0.496205
-448,274,-52.0339,1.55475,0,0,0,0,0,0,0,-1,776,750,-52.0339,-1.55472
-441,274,0,0,0,0,0,0,0,0,0,-1,783,750,0,0
-434,274,0,0,0,0,0,0,0,0,0,-1,790,750,0,0
-427,274,0,0,0,0,0,0,0,0,0,-1,797,750,0,0
-420,274,0,0,0,0,0,0,0,0,0,-1,804,750,0,0
-413,274,0,0,0,0,0,0,0,0,0,-1,811,750,0,0
-406,274,0,0,0,0,0,0,0,0,0,-1,818,750,0,0
-399,274,0,0,0,0,0,0,0,0,0,-1,825,750,0,0
-392,274,0,0,0,0,0,0,0,0,0,-1,832,750,0,0
-385,274,0,0,0,0,0,0,0,0,0,-1,839,750,0,0
-378,274,0,0,0,0,0,0,0,0,0,-1,846,750,0,0
-371,274,0,0,0,0,0,0,0,0,0,-1,853,750,0,0
-364,274,0,0,0,0,0,0,0,0,0,-1,860,750,0,0
-357,274,0,0,0,0,0,0,0,0,0,-1,867,750,0,0
-350,274,0,0,0,0,0,0,0,0,0,-1,874,750,0,0
-343,274,0,0,0,0,0,0,0,0,0,-1,881,750,0,0
-336,274,0,0,0,0,0,0,0,0,0,-1,888,750,0,0
-329,274,0,0,0,0,0,0,0,0,0,-1,895,750,0,0
-322,274,0,0,0,0,0,0,0,0,0,-1,902,750,0,0
-315,274,0,0,0,0,0,0,0,0,0,-1,909,750,0,0
-308,274,0,0,0,0,0,0,0,0,0,-1,916,750,0,0
-301,274,0,0,0,0,0,0,0,0,0,-1,923,750,0,0
-294,274,0,0,0,0,0,0,0,0,0,-1,930,750,0,0
-287,274,0,0,0,0,0,0,0,0,0,-1,937,750,0,0
-280,274,0,0,0,0,0,0,0,0,0,-1,944,750,0,0
-273,274,0,0,0,0,0,0,0,0,0,-1,951,750,0,0
-266,274,0,0,0,0,0,0,0,0,0,-1,958,750,0,0
-259,274,0,0,0,0,0,0,0,0,0,-1,965,750,0,0
-252,274,0,0,0,0,0,0,0,0,0,-1,972,750,0,0
-245,274,0,0,0,0,0,0,0,0,0,-1,979,750,0,0
-238,274,0,0,0,0,0,0,0,0,0,-1,986,750,0,0
-231,274,0,0,0,0,0,0,0,0,0,-1,993,750,0,0
-224,274,0,0,0,0,0,0,0,0,0,-1,1000,750,0,0
-217,274,0,0,0,0,0,0,0,0,0,-1,1007,750,0,0
-210,274,0,0,0,0,0,0,0,0,0,-1,1014,750,0,0
-203,274,0,0,0,0,0,0,0,0,0,-1,1021,750,0,0
-196,274,0,0,0,0,0,0,0,0,0,-1,1028,750,0,0
-189,274,0,0,0,0,0,0,0,0,0,-1,1035,750,0,0
-182,274,0,0,0,0,0,0,0,0,0,-1,1042,750,0,0
-175,274,0,0,0,0,0,0,0,0,0,-1,1049,750,0,0
-168,274,0,0,0,0,0,0,0,0,0,-1,1056,750,0,0
-161,274,0,0,0,0,0,0,0,0,0,-1,1063,750,0,0
-154,274,0,0,0,0,0,0,0,0,0,-1,1070,750,0,0
-147,274,0,0,0,0,0,0,0,0,0,-1,1077,750,0,0
-140,274,0,0,0,0,0,0,0,0,0,-1,1084,750,0,0
-133,274,0,0,0,0,0,0,0,0,0,-1,1091,750,0,0
-126,274,0,0,0,0,0,0,0,0,0,-1,1098,750,0,0
-119,274,0,0,0,0,0,0,0,0,0,-1,1105,750,0,0
-112,274,0,0,0,0,0,0,0,0,0,-1,1112,750,0,0
-105,274,0,0,0,0,0,0,0,0,0,-1,1119,750,0,0
-98,274,0,0,0,0,0,0,0,0,0,-1,1126,750,0,0
-91,274,0,0,0,0,0,0,0,0,0,-1,1133,750,0,0
-84,274,0,0,0,0,0,0,0,0,0,-1,1140,750,0,0
-77,274,0,0,0,0,0,0,0,0,0,-1,1147,750,0,0
-70,274,0,0,0,0,0,0,0,0,0,-1,1154,750,0,0
-63,274,0,0,0,0,0,0,0,0,0,-1,1161,750,0,0
-56,274,0,0,0,0,0,0,0,0,0,-1,1168,750,0,0
-49,274,0,0,0,0,0,0,0,0,0,-1,1175,750,0,0
-42,274,0,0,0,0,0,0,0,0,0,-1,1182,750,0,0
-35,274,0,0,0,0,0,0,0,0,0,-1,1189,750,0,0
-28,274,0,0,0,0,0,0,0,0,0,-1,1196,750,0,0
-21,274,0,0,0,0,0,0,0,0,0,-1,1203,750,0,0
-14,274,0,0,0,0,0,0,0,0,0,-1,1210,750,0,0
-7,274,0,0,0,0,0,0,0,0,0,-1,1217,750,0,0
0,274,0,0,0,0,0,0,0,0,0,-1,1224,750,0,0
7,274,0,0,0,0,0,0,0,0,0,-1,1231,750,0,0
14,274,0,0,0,0,0,0,0,0,0,-1,1238,750,0,0
21,274,0,0,0,0,0,0,0,0,0,-1,1245,750,0,0
28,274,0,0,0,0,0,0,0,0,0,-1,1252,750,0,0
35,274,0,0,0,0,0,0,0,0,0,-1,1259,750,0,0
42,274,0,0,0,0,0,0,0,0,0,-1,1266,750,0,0
49,274,0,0,0,0,0,0,0,0,0,-1,1273,750,0,0
56,274,0,0,0,0,0,0,0,0,0,-1,1280,750,0,0
63,274,0,0,0,0,0,0,0,0,0,-1,1287,750,0,0
70,274,0,0,0,0,0,0,0,0,0,-1,1294,750,0,0
77,274,0,0,0,0,0,0,0,0,0,-1,1301,750,0,0
84,274,0,0,0,0,0,0,0,0,0,-1,1308,750,0,0
91,274,0,0,0,0,0,0,0,0,0,-1,1315,750,0,0
98,274,0,0,0,0,0,0,0,0,0,-1,1322,750,0,0
105,274,0,0,0,0,0,0,0,0,0,-1,1329,750,0,0
112,274,0,0,0,0,0,0,0,0,0,-1,1336,750,0,0
119,274,0,0,0,0,0,0,0,0,0,-1,1343,750,0,0
126,274,0,0,0,0,0,0,0,0,0,-1,1350,750,0,0
133,274,0,0,0,0,0,0,0,0,0,-1,1357,750,0,0
140,274,0,0,0,0,0,0,0,0,0,-1,1364,750,0,0
147,274,0,0,0,0,0,0,0,0,0,-1,1371,750,0,0
154,274,0,0,0,0,0,0,0,0,0,-1,1378,750,0,0
161,274,0,0,0,0,0,0,0,0,0,-1,1385,750,0,0
168,274,0,0,0,0,0,0,0,0,0,-1,1392,750,0,0
175,274,0,0,0,0,0,0,0,0,0,-1,1399,750,0,0
182,274,0,0,0,0,0,0,0,0,0,-1,1406,750,0,0
189,274,0,0,0,0,0,0,0,0,0,-1,1413,750,0,0
196,274,0,0,0,0,0,0,0,0,0,-1,1420,750,0,0
203,274,0,0,0,0,0,0,0,0,0,-1,1427,750,0,0
210,274,0,0,0,0,0,0,0,0,0,-1,1434,750,0,0
217,274,0,0,0,0,0,0,0,0,0,-1,1441,750,0,0
224,274,0,0,0,0,0,0,0,0,0,-1,1448,750,0,0
231,274,0,0,0,0,0,0,0,0,0,-1,1455,750,0,0
238,274,0,0,0,0,0,0,0,0,0,-1,1462,750,0,0
245,274,0,0,0,0,0,0,0,0,0,-1,1469,750,0,0
252,274,0,0,0,0,0,0,0,0,0,-1,1476,750,0,0
259,274,0,0,0,0,0,0,0,0,0,-1,1483,750,0,0
266,274,0,0,0,0,0,0,0,0,0,-1,1490,750,0,0
273,274,0,0,0,0,0,0,0,0,0,-1,1497,750,0,0
280,274,0,0,0,0,0,0,0,0,0,-1,1504,750,0,0
287,274,0,0,0,0,0,0,0,0,0,-1,1511,750,0,0
294,274,0,0,0,0,0,0,0,0,0,-1,1518,750,0,0
301,274,0,0,0,0,0,0,0,0,0,-1,1525,750,0,0
308,274,0,0,0,0,0,0,0,0,0,-1,1532,750,0,0
315,274,0,0,0,0,0,0,0,0,0,-1,1539,750,0,0
322,274,0,0,0,0,0,0,0,0,0,-1,1546,750,0,0
329,274,0,0,0,0,0,0,0,0,0,-1,1553,750,0,0
336,274,0,0,0,0,0,0,0,0,0,-1,1560,750,0,0
343,274,0,0,0,0,0,0,0,0,0,-1,1567,750,0,0
350,274,0,0,0,0,0,0,0,0,0,-1,1574,750,0,0
357,274,0,0,0,0,0,0,0,0,0,-1,1581,750,0,0
364,274,0,0,0,0,0,0,0,0,0,-1,1588,750,0,0
371,274,0,0,0,0,0,0,0,0,0,-1,1595,750,0,0
378,274,0,0,0,0,0,0,0,0,0,-1,1602,750,0,0
385,274,0,0,0,0,0,0,0,0,0,-1,1609,750,0,0
392,274,0,0,0,0,0,0,0,0,0,-1,1616,750,0,0
399,274,0,0,0,0,0,0,0,0,0,-1,1623,750,0,0
406,274,0,0,0,0,0,0,0,0,0,-1,1630,750,0,0
413,274,0,0,0,0,0,0,0,0,0,-1,1637,750,0,0
420,274,0,0,0,0,0,0,0,0,0,-1,1644,750,0,0
427,274,0,0,0,0,0,0,0,0,0,-1,1651,750,0,0
434,274,0,0,0,0,0,0,0,0,0,-1,1658,750,0,0
441,274,0,0,0,0,0,0,0,0,0,-1,1665,750,0,0
448,274,0,0,0,0,0,0,0,0,0,-1,1672,750,0,0
455,274,0,0,0,0,0,0,0,0,0,-1,1679,750,0,0
462,274,0,0,0,0,0,0,0,0,0,-1,1686,750,0,0
469,274,0,0,0,0,0,0,0,0,0,-1,1693,750,0,0
476,274,0,0,0,0,0,0,0,0,0,-1,1700,750,0,0
483,274,0,0,0,0,0,0,0,0,0,-1,1707,750,0,0
490,274,0,0,0,0,0,0,0,0,0,-1,1714,750,0,0
497,274,0,0,0,0,0,0,0,0,0,-1,1721,750,0,0
504,274,0,0,0,0,0,0,0,0,0,-1,1728,750,0,0
511,274,0,0,0,0,0,0,0,0,0,-1,1735,750,0,0
518,274,0,0,0,0,0,0,0,0,0,-1,1742,750,0,0
525,274,0,0,0,0,0,0,0,0,0,-1,1749,750,0,0
532,274,0,0,0,0,0,0,0,0,0,-1,1756,750,0,0
539,274,0,0,0,0,0,0,0,0,0,-1,1763,750,0,0
546,274,0,0,0,0,0,0,0,0,0,-1,1770,750,0,0
553,274,0,0,0,0,0,0,0,0,0,-1,1777,750,0,0
560,274,57.9182,3.24518,0,0,0,0,0,0,0,-1,1784,750,57.9182,-3.24516
567,274,57.8315,3.4137,0,0,0,0,0,0,0,-1,1791,750,57.8315,-3.41368
574,274,58.2571,3.11115,0,0,0,0,0,0,0,-1,1798,750,58.2571,-3.11114
581,274,54.4941,4.68127,0,0,0,0,0,0,0,-1,1805,750,54.4941,-4.68125
588,274,53.9908,5.6676,0,0,0,0,0,0,0,-1,1812,750,53.9908,-5.66763
595,274,66.2316,2.66986,0,0,0,0,0,0,0,-1,1819,750,66.2315,-2.66988
602,274,55.6321,2.56519,0,0,0,0,0,0,0,-1,1826,750,55.6321,-2.56521
609,274,44.6676,3.10461,0,0,0,0,0,0,0,-1,1833,750,44.6676,-3.1046
616,274,32.7869,1.78436,0,0,0,0,0,0,0,-1,1840,750,32.7868,-1.78437
623,274,24.8231,-1.80353,0,0,0,0,0,0,0,-1,1847,750,24.8232,1.80351
630,274,45.7606,-7.86292,0,0,0,0,0,0,0,-1,1854,750,45.7607,7.86294
637,274,45.5599,-6.97955,0.00266874,0.00140339,0.00223223,0.00435622,-0.00028409,0.647306,0.00300332,0.0304838,1861,750,45.5599,6.97958
644,274,45.5562,-6.01825,0.00192439,0.00101999,0.00191944,0.00344418,-0.000499797,0.669712,0.00247956,0.0151443,1868,750,45.5561,6.01823
651,274,45.5386,-5.13391,0.0013083,0.000930582,0.00133142,0.00246418,-0.000225303,0.714944,0.00172281,0.0147691,1875,750,45.5386,5.13391
658,274,45.5012,-4.24811,0.0011336,0.000823123,0.000979329,0.00196992,-1.31949e-05,0.706794,0.0013177,0.0174695,1882,750,45.5013,4.24809
665,274,45.4459,-3.3623,0.00105545,0.00092601,0.000817292,0.00181058,0.000170878,0.745887,0.00115432,0.0173663,1889,750,45.4459,3.36228
672,274,45.397,-2.51788,0.00114022,0.001167,0.000792237,0.00194596,0.000361258,0.79385,0.00119523,0.0144902,1896,750,45.397,2.51789
679,274,45.3411,-1.63861,0.00125706,0.00151456,0.000873399,0.00226865,0.000502975,0.858578,0.00137577,0.0167799,1903,750,45.341,1.63858
686,274,45.2794,-0.777466,0.00136284,0.00205122,0.00100854,0.00277268,0.000641376,0.949838,0.00167608,0.0205922,1910,750,45.2794,0.777445
693,274,45.2081,0.0993042,0.00153639,0.00270836,0.0012279,0.00348294,0.000761817,1.00803,0.00211427,0.0146194,1917,750,45.2081,-0.0992987
700,274,45.2012,0.998718,0.00179084,0.00347006,0.00157179,0.00441244,0.00084847,1.0307,0.00270355,0.0200701,1924,750,45.2012,-0.998701
707,274,44.9811,1.86041,0.00198045,0.00414554,0.00183159,0.00519058,0.00093541,1.0523,0.00319456,0.0446836,1931,750,44.9811,-1.86039
714,274,44.6854,2.83594,0,0,0,0,0,0,0,-1,1938,750,44.6855,-2.83596
721,274,25.6215,3.91144,0,0,0,0,0,0,0,-1,1945,750,25.6214,-3.91141
728,274,19.2209,3.95154,0,0,0,0,0,0,0,-1,1952,750,19.221,-3.95151
735,274,20.6608,4.10931,0,0,0,0,0,0,0,-1,1959,750,20.6607,-4.10932
742,274,11.7815,-0.740234,0,0,0,0,0,0,0,-1,1966,750,11.7815,0.740253
749,274,0,0,0,0,0,0,0,0,0,-1,1973,750,0,0
756,274,0,0,0,0,0,0,0,0,0,-1,1980,750,0,0
763,274,0,0,0,0,0,0,0,0,0,-1,1987,750,0,0
770,274,0,0,0,0,0,0,0,0,0,-1,1994,750,0,0
777,274,0,0,0,0,0,0,0,0,0,-1,2001,750,0,0
784,274,0,0,0,0,0,0,0,0,0,-1,2008,750,0,0
791,274,0,0,0,0,0,0,0,0,0,-1,2015,750,0,0
798,274,0,0,0,0,0,0,0,0,0,-1,2022,750,0,0
805,274,0,0,0,0,0,0,0,0,0,-1,2029,750,0,0
812,274,0,0,0,0,0,0,0,0,0,-1,2036,750,0,0
-700,267,0,0,0,0,0,0,0,0,0,-1,524,757,0,0
-693,267,0,0,0,0,0,0,0,0,0,-1,531,757,0,0
-686,267,0,0,0,0,0,0,0,0,0,-1,538,757,0,0
-679,267,0,0,0,0,0,0,0,0,0,-1,545,757,0,0
-672,267,0,0,0,0,0,0,0,0,0,-1,552,757,0,0
-665,267,0,0,0,0,0,0,0,0,0,-1,559,757,0,0
-658,267,0,0,0,0,0,0,0,0,0,-1,566,757,0,0
-651,267,0,0,0,0,0,0,0,0,0,-1,573,757,0,0
-644,267,0,0,0,0,0,0,0,0,0,-1,580,757,0,0
-637,267,0,0,0,0,0,0,0,0,0,-1,587,757,0,0
-630,267,-21.3979,5.17529,0,0,0,0,0,0,0,-1,594,757,-21.3979,-5.17529
-623,267,-20.043,4.43115,0,0,0,0,0,0,0,-1,601,757,-20.043,-4.43116
-616,267,-27.1628,5.9325,0,0,0,0,0,0,0,-1,608,757,-27.1629,-5.93249
-609,267,-26.9868,4.99658,0,0,0,0,0,0,0,-1,615,757,-26.9868,-4.99656
-602,267,-26.6637,3.74072,0,0,0,0,0,0,0,-1,622,757,-26.6637,-3.74075
-595,267,-29.6408,3.87256,0,0,0,0,0,0,0,-1,629,757,-29.6408,-3.87258
-588,267,-31.2645,2.09229,0,0,0,0,0,0,0,-1,636,757,-31.2646,-2.09231
-581,267,-31.0162,1.15173,0.000836172,0.00507201,-0.00783151,0.0110669,-0.00515875,-0.917457,0.00957268,0.0438479,643,757,-31.0163,-1.15171
-574,267,-31.1572,0.0757446,0.000251206,0.00425536,-0.00519344,0.00781926,-0.00331269,-0.969371,0.00660026,0.0260303,650,757,-31.1572,-0.0757142
-567,267,-31.2966,-0.743225,-0.000115395,0.00329665,-0.00321501,0.00523024,-0.00204899,-1.02933,0.00433438,0.0300022,657,757,-31.2967,0.743241
-560,267,-31.33,-1.58929,-0.000371692,0.00243186,-0.00178157,0.00329702,-0.00123685,-1.11872,0.00270621,0.0244993,664,757,-31.33,1.58932
-553,267,-31.3782,-2.49286,-0.000566873,0.0016461,-0.000682026,0.00183941,-0.000760184,-1.2946,0.00154339,0.0194973,671,757,-31.3782,2.49286
-546,267,-31.4451,-3.36139,-0.000758925,0.000758596,0.000260396,0.000802035,-0.000802363,1.4055,0.0009263,0.0122834,678,757,-31.4451,3.36136
-539,267,-31.4915,-4.21973,-0.00099948,0.000189032,0.00097606,0.000737507,-0.00154795,1.05884,0.00134688,0.0122131,685,757,-31.4915,4.21971
-532,267,-31.5339,-5.07031,-0.000649081,-0.000768567,0.00150958,0.000801941,-0.00221959,0.76562,0.00180735,0.0135609,692,757,-31.5339,5.0703
-525,267,-31.6287,-5.87036,0.000264408,-0.00158902,0.00192219,0.00147161,-0.00279622,0.56078,0.00250328,0.0126747,699,757,-31.6286,5.87038
-518,267,-31.6732,-6.71863,0.00163731,-0.00250728,0.00224707,0.00262177,-0.00349174,0.41292,0.00354153,0.015278,706,757,-31.6732,6.71861
-511,267,-31.6634,-7.63269,0.00325873,-0.00332781,0.002686,0.00421519,-0.00428427,0.342091,0.00490722,0.0332263,713,757,-31.6634,7.63266
-504,267,-31.8278,-8.61847,0,0,0,0,0,0,0,-1,720,757,-31.8278,8.61847
-497,267,-31.5913,-8.72119,0,0,0,0,0,0,0,-1,727,757,-31.5913,8.72117
-490,267,-23.4949,-0.494995,0,0,0,0,0,0,0,-1,734,757,-23.4949,0.494981
-483,267,-33.2785,-0.448425,0,0,0,0,0,0,0,-1,741,757,-33.2785,0.448407
-476,267,-40.2954,0.52002,0,0,0,0,0,0,0,-1,748,757,-40.2954,-0.520037
-469,267,-52.9857,0.187744,0,0,0,0,0,0,0,-1,755,757,-52.9857,-0.187726
-462,267,-54.3212,0.768005,0,0,0,0,0,0,0,-1,762,757,-54.3211,-0.768018
-455,267,-54.66,0.603699,0,0,0,0,0,0,0,-1,769,757,-54.66,-0.603723
-448,267,-54.7286,0.468689,0,0,0,0,0,0,0,-1,776,757,-54.7286,-0.468668
-441,267,0,0,0,0,0,0,0,0,0,-1,783,757,0,0
-434,267,0,0,0,0,0,0,0,0,0,-1,790,757,0,0
-427,267,0,0,0,0,0,0,0,0,0,-1,797,757,0,0
-420,267,0,0,0,0,0,0,0,0,0,-1,804,757,0,0
-413,267,0,0,0,0,0,0,0,0,0,-1,811,757,0,0
-406,267,0,0,0,0,0,0,0,0,0,-1,818,757,0,0
-399,267,0,0,0,0,0,0,0,0,0,-1,825,757,0,0
-392,267,0,0,0,0,0,0,0,0,0,-1,832,757,0,0
-385,267,0,0,0,0,0,0,0,0,0,-1,839,757,0,0
-378,267,0,0,0,0,0,0,0,0,0,-1,846,757,0,0
-371,267,0,0,0,0,0,0,0,0,0,-1,853,757,0,0
-364,267,0,0,0,0,0,0,0,0,0,-1,860,757,0,0
-357,267,0,0,0,0,0,0,0,0,0,-1,867,757,0,0
-350,267,0,0,0,0,0,0,0,0,0,-1,874,757,0,0
-343,267,0,0,0,0,0,0,0,0,0,-1,881,757,0,0
-336,267,0,0,0,0,0,0,0,0,0,-1,888,757,0,0
-329,267,0,0,0,0,0,0,0,0,0,-1,895,757,0,0
-322,267,0,0,0,0,0,0,0,0,0,-1,902,757,0,0
-315,267,0,0,0,0,0,0,0,0,0,-1,909,757,0,0
-308,267,0,0,0,0,0,0,0,0,0,-1,916,757,0,0
-301,267,0,0,0,0,0,0,0,0,0,-1,923,757,0,0
-294,267,0,0,0,0,0,0,0,0,0,-1,930,757,0,0
-287,267,0,0,0,0,0,0,0,0,0,-1,937,757,0,0
-280,267,0,0,0,0,0,0,0,0,0,-1,944,757,0,0
-273,267,0,0,0,0,0,0,0,0,0,-1,951,757,0,0
-266,267,0,0,0,0,0,0,0,0,0,-1,958,757,0,0
-259,267,0,0,0,0,0,0,0,0,0,-1,965,757,0,0
-252,267,0,0,0,0,0,0,0,0,0,-1,972,757,0,0
-245,267,0,0,0,0,0,0,0,0,0,-1,979,757,0,0
-238,267,0,0,0,0,0,0,0,0,0,-1,986,757,0,0
-231,267,0,0,0,0,0,0,0,0,0,-1,993,757,0,0
-224,267,0,0,0,0,0,0,0,0,0,-1,1000,757,0,0
-217,267,0,0,0,0,0,0,0,0,0,-1,1007,757,0,0
-210,267,0,0,0,0,0,0,0,0,0,-1,1014,757,0,0
-203,267,0,0,0,0,0,0,0,0,0,-1,1021,757,0,0
-196,267,0,0,0,0,0,0,0,0,0,-1,1028,757,0,0
-189,267,0,0,0,0,0,0,0,0,0,-1,1035,757,0,0
-182,267,0,0,0,0,0,0,0,0,0,-1,1042,757,0,0
-175,267,0,0,0,0,0,0,0,0,0,-1,1049,757,0,0
-168,267,0,0,0,0,0,0,0,0,0,-1,1056,757,0,0
-161,267,0,0,0,0,0,0,0,0,0,-1,1063,757,0,0
-154,267,0,0,0,0,0,0,0,0,0,-1,1070,757,0,0
-147,267,0,0,0,0,0,0,0,0,0,-1,1077,757,0,0
-140,267,0,0,0,0,0,0,0,0,0,-1,1084,757,0,0
-133,267,0,0,0,0,0,0,0,0,0,-1,1091,757,0,0
-126,267,0,0,0,0,0,0,0,0,0,-1,1098,757,0,0
-119,267,0,0,0,0,0,0,0,0,0,-1,1105,757,0,0
-112,267,0,0,0,0,0,0,0,0,0,-1,1112,757,0,0
-105,267,0,0,0,0,0,0,0,0,0,-1,1119,757,0,0
-98,267,0,0,0,0,0,0,0,0,0,-1,1126,757,0,0
-91,267,0,0,0,0,0,0,0,0,0,-1,1133,757,0,0
-84,267,0,0,0,0,0,0,0,0,0,-1,1140,757,0,0
-77,267,0,0,0,0,0,0,0,0,0,-1,1147,757,0,0
-70,267,0,0,0,0,0,0,0,0,0,-1,1154,757,0,0
-63,267,0,0,0,0,0,0,0,0,0,-1,1161,757,0,0
-56,267,0,0,0,0,0,0,0,0,0,-1,1168,757,0,0
-49,267,0,0,0,0,0,0,0,0,0,-1,1175,757,0,0
-42,267,0,0,0,0,0,0,0,0,0,-1,1182,757,0,0
-35,267,0,0,0,0,0,0,0,0,0,-1,1189,757,0,0
-28,267,0,0,0,0,0,0,0,0,0,-1,1196,757,0,0
-21,267,0,0,0,0,0,0,0,0,0,-1,1203,757,0,0
-14,267,0,0,0,0,0,0,0,0,0,-1,1210,757,0,0
-7,267,0,0,0,0,0,0,0,0,0,-1,1217,757,0,0
0,267,0,0,0,0,0,0,0,0,0,-1,1224,757,0,0
7,267,0,0,0,0,0,0,0,0,0,-1,1231,757,0,0
14,267,0,0,0,0,0,0,0,0,0,-1,1238,757,0,0
21,267,0,0,0,0,0,0,0,0,0,-1,1245,757,0,0
28,267,0,0,0,0,0,0,0,0,0,-1,1252,757,0,0
35,267,0,0,0,0,0,0,0,0,0,-1,1259,757,0,0
42,267,0,0,0,0,0,0,0,0,0,-1,1266,757,0,0
49,267,0,0,0,0,0,0,0,0,0,-1,1273,757,0,0
56,267,0,0,0,0,0,0,0,0,0,-1,1280,757,0,0
63,267,0,0,0,0,0,0,0,0,0,-1,1287,757,0,0
70,267,0,0,0,0,0,0,0,0,0,-1,1294,757,0,0
77,267,0,0,0,0,0,0,0,0,0,-1,1301,757,0,0
84,267,0,0,0,0,0,0,0,0,0,-1,1308,757,0,0
91,267,0,0,0,0,0,0,0,0,0,-1,1315,757,0,0
98,267,0,0,0,0,0,0,0,0,0,-1,1322,757,0,0
105,267,0,0,0,0,0,0,0,0,0,-1,1329,757,0,0
112,267,0,0,0,0,0,0,0,0,0,-1,1336,757,0,0
119,267,0,0,0,0,0,0,0,0,0,-1,1343,757,0,0
126,267,0,0,0,0,0,0,0,0,0,-1,1350,757,0,0
133,267,0,0,0,0,0,0,0,0,0,-1,1357,757,0,0
140,267,0,0,0,0,0,0,0,0,0,-1,1364,757,0,0
147,267,0,0,0,0,0,0,0,0,0,-1,1371,757,0,0
154,267,0,0,0,0,0,0,0,0,0,-1,1378,757,0,0
161,267,0,0,0,0,0,0,0,0,0,-1,1385,757,0,0
168,267,0,0,0,0,0,0,0,0,0,-1,1392,757,0,0
175,267,0,0,0,0,0,0,0,0,0,-1,1399,757,0,0
182,267,0,0,0,0,0,0,0,0,0,-1,1406,757,0,0
189,267,0,0,0,0,0,0,0,0,0,-1,1413,757,0,0
196,267,0,0,0,0,0,0,0,0,0,-1,1420,757,0,0
203,267,0,0,0,0,0,0,0,0,0,-1,1427,757,0,0
210,267,0,0,0,0,0,0,0,0,0,-1,1434,757,0,0
217,267,0,0,0,0,0,0,0,0,0,-1,1441,757,0,0
224,267,0,0,0,0,0,0,0,0,0,-1,1448,757,0,0
231,267,0,0,0,0,0,0,0,0,0,-1,1455,757,0,0
238,267,0,0,0,0,0,0,0,0,0,-1,1462,757,0,0
245,267,0,0,0,0,0,0,0,0,0,-1,1469,757,0,0
252,267,0,0,0,0,0,0,0,0,0,-1,1476,757,0,0
259,267,0,0,0,0,0,0,0,0,0,-1,1483,757,0,0
266,267,0,0,0,0,0,0,0,0,0,-1,1490,757,0,0
273,267,0,0,0,0,0,0,0,0,0,-1,1497,757,0,0
280,267,0,0,0,0,0,0,0,0,0,-1,1504,757,0,0
287,267,0,0,0,0,0,0,0,0,0,-1,1511,757,0,0
294,267,0,0,0,0,0,0,0,0,0,-1,1518,757,0,0
301,267,0,0,0,0,0,0,0,0,0,-1,1525,757,0,0
308,267,0,0,0,0,0,0,0,0,0,-1,1532,757,0,0
315,267,0,0,0,0,0,0,0,0,0,-1,1539,757,0,0
322,267,0,0,0,0,0,0,0,0,0,-1,1546,757,0,0
329,267,0,0,0,0,0,0,0,0,0,-1,1553,757,0,0
336,267,0,0,0,0,0,0,0,0,0,-1,1560,757,0,0
343,267,0,0,0,0,0,0,0,0,0,-1,1567,757,0,0
350,267,0,0,0,0,0,0,0,0,0,-1,1574,757,0,0
357,267,0,0,0,0,0,0,0,0,0,-1,1581,757,0,0
364,267,0,0,0,0,0,0,0,0,0,-1,1588,757,0,0
371,267,0,0,0,0,0,0,0,0,0,-1,1595,757,0,0
378,267,0,0,0,0,0,0,0,0,0,-1,1602,757,0,0
385,267,0,0,0,0,0,0,0,0,0,-1,1609,757,0,0
392,267,0,0,0,0,0,0,0,0,0,-1,1616,757,0,0
399,267,0,0,0,0,0,0,0,0,0,-1,1623,757,0,0
406,267,0,0,0,0,0,0,0,0,0,-1,1630,757,0,0
413,267,0,0,0,0,0,0,0,0,0,-1,1637,757,0,0
420,267,0,0,0,0,0,0,0,0,0,-1,1644,757,0,0
427,267,0,0,0,0,0,0,0,0,0,-1,1651,757,0,0
434,267,0,0,0,0,0,0,0,0,0,-1,1658,757,0,0
441,267,0,0,0,0,0,0,0,0,0,-1,1665,757,0,0
448,267,0,0,0,0,0,0,0,0,0,-1,1672,757,0,0
455,267,0,0,0,0,0,0,0,0,0,-1,1679,757,0,0
462,267,0,0,0,0,0,0,0,0,0,-1,1686,757,0,0
469,267,0,0,0,0,0,0,0,0,0,-1,1693,757,0,0
476,267,0,0,0,0,0,0,0,0,0,-1,1700,757,0,0
483,267,0,0,0,0,0,0,0,0,0,-1,1707,757,0,0
490,267,0,0,0,0,0,0,0,0,0,-1,1714,757,0,0
497,267,0,0,0,0,0,0,0,0,0,-1,1721,757,0,0
504,267,0,0,0,0,0,0,0,0,0,-1,1728,757,0,0
511,267,0,0,0,0,0,0,0,0,0,-1,1735,757,0,0
518,267,0,0,0,0,0,0,0,0,0,-1,1742,757,0,0
525,267,0,0,0,0,0,0,0,0,0,-1,1749,757,0,0
532,267,0,0,0,0,0,0,0,0,0,-1,1756,757,0,0
539,267,0,0,0,0,0,0,0,0,0,-1,1763,757,0,0
546,267,0,0,0,0,0,0,0,0,0,-1,1770,757,0,0
553,267,0,0,0,0,0,0,0,0,0,-1,1777,757,0,0
560,267,0,0,0,0,0,0,0,0,0,-1,1784,757,0,0
567,267,58.0104,3.24304,0,0,0,0,0,0,0,-1,1791,757,58.0104,-3.24306
574,267,64.5414,2.91858,0,0,0,0,0,0,0,-1,1798,757,64.5414,-2.91855
581,267,58.374,2.95636,0,0,0,0,0,0,0,-1,1805,757,58.3741,-2.95639
588,267,65.9681,2.6438,0,0,0,0,0,0,0,-1,1812,757,65.9682,-2.64382
595,267,66.191,2.60791,0,0,0,0,0,0,0,-1,1819,757,66.191,-2.60792
602,267,66.4139,2.57202,0,0,0,0,0,0,0,-1,1826,757,66.4139,-2.57203
609,267,54.5498,3.24054,0,0,0,0,0,0,0,-1,1833,757,54.5498,-3.24052
616,267,44.2543,3.28918,0,0,0,0,0,0,0,-1,1840,757,44.2542,-3.28918
623,267,24.1475,-1.1391,0,0,0,0,0,0,0,-1,1847,757,24.1475,1.13913
630,267,40.7198,-5.42108,0,0,0,0,0,0,0,-1,1854,757,40.7198,5.4211
637,267,46.3647,-6.80475,0,0,0,0,0,0,0,-1,1861,757,46.3648,6.80476
644,267,46.4094,-6.04114,0.00194061,0.0014523,0.00215486,0.0038651,-0.00047219,0.728986,0.00274769,0.0217687,1868,757,46.4094,6.04112
651,267,46.3478,-5.07172,0.00134749,0.00129265,0.00154223,0.00286255,-0.000222403,0.776509,0.00198665,0.0172992,1875,757,46.3478,5.07174
658,267,46.3408,-4.203,0.00110203,0.000996858,0.00106039,0.00211114,-1.22531e-05,0.760624,0.00141153,0.015956,1882,757,46.3409,4.20301
665,267,46.3002,-3.32324,0.000910776,0.000915275,0.000746173,0.0016592,0.00016685,0.786906,0.00105493,0.0160967,1889,757,46.3001,3.32326
672,267,46.2715,-2.46967,0.000938732,0.000968551,0.00057514,0.00152897,0.000378309,0.798357,0.000919531,0.0142358,1896,757,46.2715,2.46969
679,267,46.2333,-1.59692,0.00102768,0.00114283,0.000575902,0.00166403,0.000506482,0.835221,0.000984934,0.0129396,1903,757,46.2333,1.5969
686,267,46.1858,-0.709656,0.00112215,0.00158791,0.000674464,0.00206856,0.000641492,0.95163,0.00122266,0.0178047,1910,757,46.1858,0.709682
693,267,46.0898,0.11377,0.00128886,0.00210304,0.000858104,0.00264572,0.000746175,1.00688,0.00157514,0.0174312,1917,757,46.0898,-0.11377
700,267,46.0424,0.984802,0.00155898,0.00268978,0.0011645,0.00341888,0.00082988,1.0114,0.00205915,0.0161739,1924,757,46.0424,-0.98481
707,267,46.0194,1.83862,0.00182454,0.00319094,0.00145897,0.00411875,0.000896733,1.00437,0.00250109,0.0224746,1931,757,46.0194,-1.83862
714,267,46.0679,2.6828,0,0,0,0,0,0,0,-1,1938,757,46.0679,-2.68278
721,267,45.84,3.83148,0,0,0,0,0,0,0,-1,1945,757,45.84,-3.8315
728,267,26.7886,3.90027,0,0,0,0,0,0,0,-1,1952,757,26.7886,-3.90028
735,267,24.6713,2.82483,0,0,0,0,0,0,0,-1,1959,757,24.6713,-2.82483
742,267,18.1177,3.56561,0,0,0,0,0,0,0,-1,1966,757,18.1176,-3.56564
749,267,0,0,0,0,0,0,0,0,0,-1,1973,757,0,0
756,267,0,0,0,0,0,0,0,0,0,-1,1980,757,0,0
763,267,0,0,0,0,0,0,0,0,0,-1,1987,757,0,0
770,267,0,0,0,0,0,0,0,0,0,-1,1994,757,0,0
777,267,0,0,0,0,0,0,0,0,0,-1,2001,757,0,0
784,267,0,0,0,0,0,0,0,0,0,-1,2008,757,0,0
791,267,0,0,0,0,0,0,0,0,0,-1,2015,757,0,0
798,267,0,0,0,0,0,0,0,0,0,-1,2022,757,0,0
805,267,0,0,0,0,0,0,0,0,0,-1,2029,757,0,0
812,267,0,0,0,0,0,0,0,0,0,-1,2036,757,0,0
-700,260,0,0,0,0,0,0,0,0,0,-1,524,764,0,0
-693,260,0,0,0,0,0,0,0,0,0,-1,531,764,0,0
-686,260,0,0,0,0,0,0,0,0,0,-1,538,764,0,0
-679,260,0,0,0,0,0,0,0,0,0,-1,545,764,0,0
-672,260,0,0,0,0,0,0,0,0,0,-1,552,764,0,0
-665,260,0,0,0,0,0,0,0,0,0,-1,559,764,0,0
-658,260,0,0,0,0,0,0,0,0,0,-1,566,764,0,0
-651,260,0,0,0,0,0,0,0,0,0,-1,573,764,0,0
-644,260,0,0,0,0,0,0,0,0,0,-1,580,764,0,0
-637,260,0,0,0,0,0,0,0,0,0,-1,587,764,0,0
-630,260,-21.8905,4.49341,0,0,0,0,0,0,0,-1,594,764,-21.8905,-4.49342
-623,260,-20.3127,3.53546,0,0,0,0,0,0,0,-1,601,764,-20.3127,-3.53544
-616,260,-23.4346,3.65009,0,0,0,0,0,0,0,-1,608,764,-23.4345,-3.65008
-609,260,-27.8874,4.42004,0,0,0,0,0,0,0,-1,615,764,-27.8874,-4.42005
-602,260,-31.7818,4.59277,0,0,0,0,0,0,0,-1,622,764,-31.7818,-4.59277
-595,260,-32.4832,2.83234,0,0,0,0,0,0,0,-1,629,764,-32.4832,-2.83235
-588,260,-32.2932,1.86108,0.00225038,0.00541465,-0.0106226,0.0145723,-0.00690727,-0.859325,0.0126617,0.0472839,636,764,-32.2931,-1.86106
-581,260,-32.1111,0.922241,0.00106835,0.00472034,-0.00755366,0.0106656,-0.00487689,-0.903991,0.00917856,0.0289086,643,764,-32.1112,-0.922252
-574,260,-32.1216,0.0834961,0.000386727,0.00383538,-0.00495975,0.007362,-0.0031399,-0.952694,0.00622446,0.0192991,650,764,-32.1217,-0.0835113
-567,260,-32.1616,-0.673035,-0.00011629,0.00291327,-0.00297031,0.00473275,-0.00193577,-1.0212,0.00396135,0.0183573,657,764,-32.1616,0.67302
-560,260,-32.1892,-1.54016,-0.000480269,0.00206883,-0.00148073,0.002748,-0.00115945,-1.14075,0.00231728,0.0215291,664,764,-32.1892,1.54015
-553,260,-32.2399,-2.43091,-0.00076347,0.00134653,-0.000349296,0.00140285,-0.00081979,-1.41093,0.00129788,0.0180662,671,764,-32.2399,2.43088
-546,260,-32.3001,-3.30896,-0.00095851,0.000534867,0.000647353,0.000776414,-0.00120006,1.21367,0.00114982,0.0117417,678,764,-32.3001,3.30898
-539,260,-32.3231,-4.1532,-0.0011098,-2.25695e-05,0.00130304,0.000845699,-0.00197807,0.983018,0.00167343,0.0137702,685,764,-32.3231,4.15319
-532,260,-32.3536,-4.93506,-0.000366768,-0.00103661,0.00178591,0.00111536,-0.00251873,0.692707,0.00214966,0.018656,692,764,-32.3536,4.93503
-525,260,-32.4865,-5.776,0.000975257,-0.00181957,0.00218637,0.00217264,-0.00301696,0.501044,0.0030094,0.0174937,699,764,-32.4865,5.77599
-518,260,-32.6599,-6.6156,0.00262737,-0.00276205,0.00247023,0.00358827,-0.00372295,0.370982,0.00422138,0.0276673,706,764,-32.6599,6.61562
-511,260,-32.6993,-7.46826,0.00442684,-0.00356448,0.00285448,0.00534172,-0.00447936,0.310161,0.00567748,0.0492995,713,764,-32.6994,7.46826
-504,260,-32.8945,-8.27368,0,0,0,0,0,0,0,-1,720,764,-32.8945,8.2737
-497,260,-16.6542,-3.67334,0,0,0,0,0,0,0,-1,727,764,-16.6542,3.67331
-490,260,-29.4557,0.921387,0,0,0,0,0,0,0,-1,734,764,-29.4557,-0.921369
-483,260,-40.8972,1.04193,0,0,0,0,0,0,0,-1,741,764,-40.8972,-1.04193
-476,260,-53.8282,0.00378418,0,0,0,0,0,0,0,-1,748,764,-53.8283,-0.00378825
-469,260,-54.91,0.536499,0,0,0,0,0,0,0,-1,755,764,-54.91,-0.536528
-462,260,-54.4383,0.764282,0,0,0,0,0,0,0,-1,762,764,-54.4383,-0.764252
-455,260,-54.639,0.692444,0,0,0,0,0,0,0,-1,769,764,-54.639,-0.692433
-448,260,0,0,0,0,0,0,0,0,0,-1,776,764,0,0
-441,260,0,0,0,0,0,0,0,0,0,-1,783,764,0,0
-434,260,0,0,0,0,0,0,0,0,0,-1,790,764,0,0
-427,260,0,0,0,0,0,0,0,0,0,-1,797,764,0,0
-420,260,0,0,0,0,0,0,0,0,0,-1,804,764,0,0
-413,260,0,0,0,0,0,0,0,0,0,-1,811,764,0,0
-406,260,0,0,0,0,0,0,0,0,0,-1,818,764,0,0
-399,260,0,0,0,0,0,0,0,0,0,-1,825,764,0,0
-392,260,0,0,0,0,0,0,0,0,0,-1,832,764,0,0
-385,260,0,0,0,0,0,0,0,0,0,-1,839,764,0,0
-378,260,0,0,0,0,0,0,0,0,0,-1,846,764,0,0
-371,260,0,0,0,0,0,0,0,0,0,-1,853,764,0,0
-364,260,0,0,0,0,0,0,0,0,0,-1,860,764,0,0
-357,260,0,0,0,0,0,0,0,0,0,-1,867,764,0,0
-350,260,0,0,0,0,0,0,0,0,0,-1,874,764,0,0
-343,260,0,0,0,0,0,0,0,0,0,-1,881,764,0,0
-336,260,0,0,0,0,0,0,0,0,0,-1,888,764,0,0
-329,260,0,0,0,0,0,0,0,0,0,-1,895,764,0,0
-322,260,0,0,0,0,0,0,0,0,0,-1,902,764,0,0
-315,260,0,0,0,0,0,0,0,0,0,-1,909,764,0,0
-308,260,0,0,0,0,0,0,0,0,0,-1,916,764,0,0
-301,260,0,0,0,0,0,0,0,0,0,-1,923,764,0,0
-294,260,0,0,0,0,0,0,0,0,0,-1,930,764,0,0
-287,260,0,0,0,0,0,0,0,0,0,-1,937,764,0,0
-280,260,0,0,0,0,0,0,0,0,0,-1,944,764,0,0
-273,260,0,0,0,0,0,0,0,0,0,-1,951,764,0,0
-266,260,0,0,0,0,0,0,0,0,0,-1,958,764,0,0
-259,260,0,0,0,0,0,0,0,0,0,-1,965,764,0,0
-252,260,0,0,0,0,0,0,0,0,0,-1,972,764,0,0
-245,260,0,0,0,0,0,0,0,0,0,-1,979,764,0,0
-238,260,0,0,0,0,0,0,0,0,0,-1,986,764,0,0
-231,260,0,0,0,0,0,0,0,0,0,-1,993,764,0,0
-224,260,0,0,0,0,0,0,0,0,0,-1,1000,764,0,0
-217,260,0,0,0,0,0,0,0,0,0,-1,1007,764,0,0
-210,260,0,0,0,0,0,0,0,0,0,-1,1014,764,0,0
-203,260,0,0,0,0,0,0,0,0,0,-1,1021,764,0,0
-196,260,0,0,0,0,0,0,0,0,0,-1,1028,764,0,0
-189,260,0,0,0,0,0,0,0,0,0,-1,1035,764,0,0
-182,260,0,0,0,0,0,0,0,0,0,-1,1042,764,0,0
-175,260,0,0,0,0,0,0,0,0,0,-1,1049,764,0,0
-168,260,0,0,0,0,0,0,0,0,0,-1,1056,764,0,0
-161,260,0,0,0,0,0,0,0,0,0,-1,1063,764,0,0
-154,260,0,0,0,0,0,0,0,0,0,-1,1070,764,0,0
-147,260,0,0,0,0,0,0,0,0,0,-1,1077,764,0,0
-140,260,0,0,0,0,0,0,0,0,0,-1,1084,764,0,0
-133,260,0,0,0,0,0,0,0,0,0,-1,1091,764,0,0
-126,260,0,0,0,0,0,0,0,0,0,-1,1098,764,0,0
-119,260,0,0,0,0,0,0,0,0,0,-1,1105,764,0,0
-112,260,0,0,0,0,0,0,0,0,0,-1,1112,764,0,0
-105,260,0,0,0,0,0,0,0,0,0,-1,1119,764,0,0
-98,260,0,0,0,0,0,0,0,0,0,-1,1126,764,0,0
-91,260,0,0,0,0,0,0,0,0,0,-1,1133,764,0,0
-84,260,0,0,0,0,0,0,0,0,0,-1,1140,764,0,0
-77,260,0,0,0,0,0,0,0,0,0,-1,1147,764,0,0
-70,260,0,0,0,0,0,0,0,0,0,-1,1154,764,0,0
-63,260,0,0,0,0,0,0,0,0,0,-1,1161,764,0,0
-56,260,0,0,0,0,0,0,0,0,0,-1,1168,764,0,0
-49,260,0,0,0,0,0,0,0,0,0,-1,1175,764,0,0
-42,260,0,0,0,0,0,0,0,0,0,-1,1182,764,0,0
-35,260,0,0,0,0,0,0,0,0,0,-1,1189,764,0,0
-28,260,0,0,0,0,0,0,0,0,0,-1,1196,764,0,0
-21,260,0,0,0,0,0,0,0,0,0,-1,1203,764,0,0
-14,260,0,0,0,0,0,0,0,0,0,-1,1210,764,0,0
-7,260,0,0,0,0,0,0,0,0,0,-1,1217,764,0,0
0,260,0,0,0,0,0,0,0,0,0,-1,1224,764,0,0
7,260,0,0,0,0,0,0,0,0,0,-1,1231,764,0,0
14,260,0,0,0,0,0,0,0,0,0,-1,1238,764,0,0
21,260,0,0,0,0,0,0,0,0,0,-1,1245,764,0,0
28,260,0,0,0,0,0,0,0,0,0,-1,1252,764,0,0
35,260,0,0,0,0,0,0,0,0,0,-1,1259,764,0,0
42,260,0,0,0,0,0,0,0,0,0,-1,1266,764,0,0
49,260,0,0,0,0,0,0,0,0,0,-1,1273,764,0,0
56,260,0,0,0,0,0,0,0,0,0,-1,1280,764,0,0
63,260,0,0,0,0,0,0,0,0,0,-1,1287,764,0,0
70,260,0,0,0,0,0,0,0,0,0,-1,1294,764,0,0
77,260,0,0,0,0,0,0,0,0,0,-1,1301,764,0,0
84,260,0,0,0,0,0,0,0,0,0,-1,1308,764,0,0
91,260,0,0,0,0,0,0,0,0,0,-1,1315,764,0,0
98,260,0,0,0,0,0,0,0,0,0,-1,1322,764,0,0
105,260,0,0,0,0,0,0,0,0,0,-1,1329,764,0,0
112,260,0,0,0,0,0,0,0,0,0,-1,1336,764,0,0
119,260,0,0,0,0,0,0,0,0,0,-1,1343,764,0,0
126,260,0,0,0,0,0,0,0,0,0,-1,1350,764,0,0
133,260,0,0,0,0,0,0,0,0,0,-1,1357,764,0,0
140,260,0,0,0,0,0,0,0,0,0,-1,1364,764,0,0
147,260,0,0,0,0,0,0,0,0,0,-1,1371,764,0,0
154,260,0,0,0,0,0,0,0,0,0,-1,1378,764,0,0
161,260,0,0,0,0,0,0,0,0,0,-1,1385,764,0,0
168,260,0,0,0,0,0,0,0,0,0,-1,1392,764,0,0
175,260,0,0,0,0,0,0,0,0,0,-1,1399,764,0,0
182,260,0,0,0,0,0,0,0,0,0,-1,1406,764,0,0
189,260,0,0,0,0,0,0,0,0,0,-1,1413,764,0,0
196,260,0,0,0,0,0,0,0,0,0,-1,1420,764,0,0
203,260,0,0,0,0,0,0,0,0,0,-1,1427,764,0,0
210,260,0,0,0,0,0,0,0,0,0,-1,1434,764,0,0
217,260,0,0,0,0,0,0,0,0,0,-1,1441,764,0,0
224,260,0,0,0,0,0,0,0,0,0,-1,1448,764,0,0
231,260,0,0,0,0,0,0,0,0,0,-1,1455,764,0,0
238,260,0,0,0,0,0,0,0,0,0,-1,1462,764,0,0
245,260,0,0,0,0,0,0,0,0,0,-1,1469,764,0,0
252,260,0,0,0,0,0,0,0,0,0,-1,1476,764,0,0
259,260,0,0,0,0,0,0,0,0,0,-1,1483,764,0,0
266,260,0,0,0,0,0,0,0,0,0,-1,1490,764,0,0
273,260,0,0,0,0,0,0,0,0,0,-1,1497,764,0,0
280,260,0,0,0,0,0,0,0,0,0,-1,1504,764,0,0
287,260,0,0,0,0,0,0,0,0,0,-1,1511,764,0,0
294,260,0,0,0,0,0,0,0,0,0,-1,1518,764,0,0
301,260,0,0,0,0,0,0,0,0,0,-1,1525,764,0,0
308,260,0,0,0,0,0,0,0,0,0,-1,1532,764,0,0
315,260,0,0,0,0,0,0,0,0,0,-1,1539,764,0,0
322,260,0,0,0,0,0,0,0,0,0,-1,1546,764,0,0
329,260,0,0,0,0,0,0,0,0,0,-1,1553,764,0,0
336,260,0,0,0,0,0,0,0,0,0,-1,1560,764,0,0
343,260,0,0,0,0,0,0,0,0,0,-1,1567,764,0,0
350,260,0,0,0,0,0,0,0,0,0,-1,1574,764,0,0
357,260,0,0,0,0,0,0,0,0,0,-1,1581,764,0,0
364,260,0,0,0,0,0,0,0,0,0,-1,1588,764,0,0
371,260,0,0,0,0,0,0,0,0,0,-1,1595,764,0,0
378,260,0,0,0,0,0,0,0,0,0,-1,1602,764,0,0
385,260,0,0,0,0,0,0,0,0,0,-1,1609,764,0,0
392,260,0,0,0,0,0,0,0,0,0,-1,1616,764,0,0
399,260,0,0,0,0,0,0,0,0,0,-1,1623,764,0,0
406,260,0,0,0,0,0,0,0,0,0,-1,1630,764,0,0
413,260,0,0,0,0,0,0,0,0,0,-1,1637,764,0,0
420,260,0,0,0,0,0,0,0,0,0,-1,1644,764,0,0
427,260,0,0,0,0,0,0,0,0,0,-1,1651,764,0,0
434,260,0,0,0,0,0,0,0,0,0,-1,1658,764,0,0
441,260,0,0,0,0,0,0,0,0,0,-1,1665,764,0,0
448,260,0,0,0,0,0,0,0,0,0,-1,1672,764,0,0
455,260,0,0,0,0,0,0,0,0,0,-1,1679,764,0,0
462,260,0,0,0,0,0,0,0,0,0,-1,1686,764,0,0
469,260,0,0,0,0,0,0,0,0,0,-1,1693,764,0,0
476,260,0,0,0,0,0,0,0,0,0,-1,1700,764,0,0
483,260,0,0,0,0,0,0,0,0,0,-1,1707,764,0,0
490,260,0,0,0,0,0,0,0,0,0,-1,1714,764,0,0
497,260,0,0,0,0,0,0,0,0,0,-1,1721,764,0,0
504,260,0,0,0,0,0,0,0,0,0,-1,1728,764,0,0
511,260,0,0,0,0,0,0,0,0,0,-1,1735,764,0,0
518,260,0,0,0,0,0,0,0,0,0,-1,1742,764,0,0
525,260,0,0,0,0,0,0,0,0,0,-1,1749,764,0,0
532,260,0,0,0,0,0,0,0,0,0,-1,1756,764,0,0
539,260,0,0,0,0,0,0,0,0,0,-1,1763,764,0,0
546,260,0,0,0,0,0,0,0,0,0,-1,1770,764,0,0
553,260,0,0,0,0,0,0,0,0,0,-1,1777,764,0,0
560,260,0,0,0,0,0,0,0,0,0,-1,1784,764,0,0
567,260,0,0,0,0,0,0,0,0,0,-1,1791,764,0,0
574,260,70.8018,2.35876,0,0,0,0,0,0,0,-1,1798,764,70.8018,-2.35877
581,260,70.8401,2.58368,0,0,0,0,0,0,0,-1,1805,764,70.84,-2.58369
588,260,70.8303,2.6853,0,0,0,0,0,0,0,-1,1812,764,70.8304,-2.6853
595,260,66.1678,2.56989,0,0,0,0,0,0,0,-1,1819,764,66.1678,-2.56989
602,260,65.9274,2.69824,0,0,0,0,0,0,0,-1,1826,764,65.9274,-2.69825
609,260,65.4674,3.08105,0,0,0,0,0,0,0,-1,1833,764,65.4673,-3.08107
616,260,46.0709,2.74542,0,0,0,0,0,0,0,-1,1840,764,46.0709,-2.74545
623,260,32.2268,3.25836,0,0,0,0,0,0,0,-1,1847,764,32.2268,-3.25833
630,260,24.3739,-0.536316,0,0,0,0,0,0,0,-1,1854,764,24.3739,0.536343
637,260,42.7155,-5.35486,0,0,0,0,0,0,0,-1,1861,764,42.7154,5.35488
644,260,47.385,-6.10327,0,0,0,0,0,0,0,-1,1868,764,47.385,6.10326
651,260,47.4249,-5.00031,0.0014029,0.001557,0.00176542,0.00324705,-0.000287145,0.807207,0.00226648,0.0257353,1875,764,47.425,5.00028
658,260,47.2444,-4.11011,0.00116883,0.00119725,0.00122263,0.00240575,-3.96736e-05,0.79121,0.00161722,0.0167761,1882,764,47.2444,4.11011
665,260,47.1552,-3.2597,0.000887687,0.000978249,0.000792282,0.00172654,0.000139394,0.813943,0.00110749,0.016443,1889,764,47.1552,3.25973
672,260,47.1356,-2.41504,0.000856146,0.000846447,0.000466929,0.00131825,0.000384343,0.780205,0.000782828,0.0151254,1896,764,47.1357,2.41507
679,260,47.0792,-1.56934,0.000916849,0.000809253,0.000366277,0.00123326,0.000492844,0.712481,0.000716788,0.0135059,1903,764,47.0792,1.56932
686,260,47.0087,-0.68457,0.000996081,0.00116263,0.000438043,0.00152524,0.000633465,0.879328,0.000884798,0.0225962,1910,764,47.0086,0.684593
693,260,46.902,0.140747,0.00116227,0.00157365,0.000606181,0.00200809,0.000727829,0.948965,0.0011739,0.0227809,1917,764,46.902,-0.140726
700,260,46.8381,0.992004,0.00144786,0.00204657,0.000901076,0.00269671,0.00079771,0.945773,0.00159964,0.0167389,1924,764,46.8381,-0.991975
707,260,46.8604,1.85449,0.00177907,0.00246483,0.00125084,0.00341893,0.000824971,0.919172,0.00206011,0.0173381,1931,764,46.8604,-1.85449
714,260,46.8867,2.72375,0.00214263,0.00266066,0.00176978,0.00419028,0.000613007,0.85806,0.00261326,0.0364136,1938,764,46.8868,-2.72376
721,260,46.9204,3.60516,0,0,0,0,0,0,0,-1,1945,764,46.9204,-3.60515
728,260,33.4344,5.75409,0,0,0,0,0,0,0,-1,1952,764,33.4345,-5.75408
735,260,26.9788,4.85681,0,0,0,0,0,0,0,-1,1959,764,26.9787,-4.85678
742,260,32.1443,1.73688,0,0,0,0,0,0,0,-1,1966,764,32.1442,-1.73688
749,260,33.6013,2.94733,0,0,0,0,0,0,0,-1,1973,764,33.6013,-2.9473
756,260,0,0,0,0,0,0,0,0,0,-1,1980,764,0,0
763,260,0,0,0,0,0,0,0,0,0,-1,1987,764,0,0
770,260,0,0,0,0,0,0,0,0,0,-1,1994,764,0,0
777,260,0,0,0,0,0,0,0,0,0,-1,2001,764,0,0
784,260,0,0,0,0,0,0,0,0,0,-1,2008,764,0,0
791,260,0,0,0,0,0,0,0,0,0,-1,2015,764,0,0
798,260,0,0,0,0,0,0,0,0,0,-1,2022,764,0,0
805,260,0,0,0,0,0,0,0,0,0,-1,2029,764,0,0
812,260,0,0,0,0,0,0,0,0,0,-1,2036,764,0,0
-700,253,0,0,0,0,0,0,0,0,0,-1,524,771,0,0
-693,253,0,0,0,0,0,0,0,0,0,-1,531,771,0,0
-686,253,0,0,0,0,0,0,0,0,0,-1,538,771,0,0
-679,253,0,0,0,0,0,0,0,0,0,-1,545,771,0,0
-672,253,0,0,0,0,0,0,0,0,0,-1,552,771,0,0
-665,253,0,0,0,0,0,0,0,0,0,-1,559,771,0,0
-658,253,0,0,0,0,0,0,0,0,0,-1,566,771,0,0
-651,253,0,0,0,0,0,0,0,0,0,-1,573,771,0,0
-644,253,0,0,0,0,0,0,0,0,0,-1,580,771,0,0
-637,253,-24.7979,-0.491394,0,0,0,0,0,0,0,-1,587,771,-24.7978,0.491371
-630,253,-25.156,0.540405,0,0,0,0,0,0,0,-1,594,771,-25.156,-0.540421
-623,253,-20.808,2.84314,0,0,0,0,0,0,0,-1,601,771,-20.8081,-2.84312
-616,253,-25.0877,2.96875,0,0,0,0,0,0,0,-1,608,771,-25.0877,-2.96876
-609,253,-24.28,2.08228,0,0,0,0,0,0,0,-1,615,771,-24.2801,-2.08227
-602,253,-33.0258,3.6579,0,0,0,0,0,0,0,-1,622,771,-33.0258,-3.65788
-595,253,-32.9695,2.70911,0.00357961,0.00657433,-0.0137308,0.0188891,-0.0087352,-0.839709,0.0163041,0.0472724,629,771,-32.9695,-2.70909
-588,253,-32.9617,1.79095,0.00238072,0.00557258,-0.0099616,0.0140653,-0.00611198,-0.864827,0.0119472,0.0392257,636,771,-32.9617,-1.79097
-581,253,-32.9508,0.939148,0.00131948,0.00462366,-0.00705392,0.0102164,-0.00427324,-0.900429,0.00859695,0.0262616,643,771,-32.9508,-0.939141
-574,253,-32.9894,0.0974731,0.000587069,0.00361885,-0.00455449,0.0069031,-0.00269718,-0.946049,0.00571728,0.0221188,650,771,-32.9894,-0.0974701
-567,253,-33.0477,-0.743164,-1.36695e-05,0.00268287,-0.00260156,0.00426478,-0.00159558,-1.02447,0.00349851,0.0185367,657,771,-33.0477,0.743186
-560,253,-33.043,-1.50867,-0.000465247,0.00182468,-0.00109192,0.00226187,-0.000902442,-1.18995,0.00188228,0.0147616,664,771,-33.043,1.50864
-553,253,-33.1014,-2.37158,-0.000842212,0.00114109,4.4508e-05,0.00114209,-0.00084321,1.54837,0.00115053,0.0123493,671,771,-33.1013,2.37161
-546,253,-33.173,-3.23248,-0.000962795,0.000426904,0.00107948,0.00101584,-0.00155173,1.07136,0.00149311,0.0108408,678,771,-33.173,3.23249
-539,253,-33.2437,-4.09143,-0.000912027,-0.000172747,0.00164907,0.00114761,-0.00223238,0.895651,0.00198465,0.0137638,685,771,-33.2436,4.09143
-532,253,-33.2658,-4.91827,0.000264662,-0.00136591,0.00206339,0.00166799,-0.00276924,0.597252,0.002588,0.0192373,692,771,-33.2658,4.91826
-525,253,-33.3351,-5.75177,0.00191104,-0.00218234,0.0024901,0.00308763,-0.00335893,0.441413,0.00372302,0.0258241,699,771,-33.3351,5.75176
-518,253,-33.5053,-6.67651,0.00368241,-0.00318128,0.0027674,0.0046592,-0.00415807,0.339312,0.0050934,0.0443983,706,771,-33.5053,6.67654
-511,253,-33.7819,-7.39233,0,0,0,0,0,0,0,-1,713,771,-33.7819,7.39233
-504,253,-19.317,-4.1723,0,0,0,0,0,0,0,-1,720,771,-19.317,4.1723
-497,253,-21.7737,-1.76837,0,0,0,0,0,0,0,-1,727,771,-21.7738,1.7684
-490,253,-29.7674,0.438354,0,0,0,0,0,0,0,-1,734,771,-29.7674,-0.438339
-483,253,-45.4489,1.59302,0,0,0,0,0,0,0,-1,741,771,-45.4489,-1.59303
-476,253,-55.539,0.193665,0,0,0,0,0,0,0,-1,748,771,-55.539,-0.193654
-469,253,-54.9974,0.690979,0,0,0,0,0,0,0,-1,755,771,-54.9973,-0.690951
-462,253,-54.4557,1.18823,0,0,0,0,0,0,0,-1,762,771,-54.4557,-1.18825
-455,253,-54.6697,0.788147,0,0,0,0,0,0,0,-1,769,771,-54.6697,-0.788145
-448,253,0,0,0,0,0,0,0,0,0,-1,776,771,0,0
-441,253,0,0,0,0,0,0,0,0,0,-1,783,771,0,0
-434,253,0,0,0,0,0,0,0,0,0,-1,790,771,0,0
-427,253,0,0,0,0,0,0,0,0,0,-1,797,771,0,0
-420,253,0,0,0,0,0,0,0,0,0,-1,804,771,0,0
-413,253,0,0,0,0,0,0,0,0,0,-1,811,771,0,0
-406,253,0,0,0,0,0,0,0,0,0,-1,818,771,0,0
-399,253,0,0,0,0,0,0,0,0,0,-1,825,771,0,0
-392,253,0,0,0,0,0,0,0,0,0,-1,832,771,0,0
-385,253,0,0,0,0,0,0,0,0,0,-1,839,771,0,0
-378,253,0,0,0,0,0,0,0,0,0,-1,846,771,0,0
-371,253,0,0,0,0,0,0,0,0,0,-1,853,771,0,0
-364,253,0,0,0,0,0,0,0,0,0,-1,860,771,0,0
-357,253,0,0,0,0,0,0,0,0,0,-1,867,771,0,0
-350,253,0,0,0,0,0,0,0,0,0,-1,874,771,0,0
-343,253,0,0,0,0,0,0,0,0,0,-1,881,771,0,0
-336,253,0,0,0,0,0,0,0,0,0,-1,888,771,0,0
-329,253,0,0,0,0,0,0,0,0,0,-1,895,771,0,0
-322,253,0,0,0,0,0,0,0,0,0,-1,902,771,0,0
-315,253,0,0,0,0,0,0,0,0,0,-1,909,771,0,0
-308,253,0,0,0,0,0,0,0,0,0,-1,916,771,0,0
-301,253,0,0,0,0,0,0,0,0,0,-1,923,771,0,0
-294,253,0,0,0,0,0,0,0,0,0,-1,930,771,0,0
-287,253,0,0,0,0,0,0,0,0,0,-1,937,771,0,0
-280,253,0,0,0,0,0,0,0,0,0,-1,944,771,0,0
-273,253,0,0,0,0,0,0,0,0,0,-1,951,771,0,0
-266,253,0,0,0,0,0,0,0,0,0,-1,958,771,0,0
-259,253,0,0,0,0,0,0,0,0,0,-1,965,771,0,0
-252,253,0,0,0,0,0,0,0,0,0,-1,972,771,0,0
-245,253,0,0,0,0,0,0,0,0,0,-1,979,771,0,0
-238,253,0,0,0,0,0,0,0,0,0,-1,986,771,0,0
-231,253,0,0,0,0,0,0,0,0,0,-1,993,771,0,0
-224,253,0,0,0,0,0,0,0,0,0,-1,1000,771,0,0
-217,253,0,0,0,0,0,0,0,0,0,-1,1007,771,0,0
-210,253,0,0,0,0,0,0,0,0,0,-1,1014,771,0,0
-203,253,0,0,0,0,0,0,0,0,0,-1,1021,771,0,0
-196,253,0,0,0,0,0,0,0,0,0,-1,1028,771,0,0
-189,253,0,0,0,0,0,0,0,0,0,-1,1035,771,0,0
-182,253,0,0,0,0,0,0,0,0,0,-1,1042,771,0,0
-175,253,0,0,0,0,0,0,0,0,0,-1,1049,771,0,0
-168,253,0,0,0,0,0,0,0,0,0,-1,1056,771,0,0
-161,253,0,0,0,0,0,0,0,0,0,-1,1063,771,0,0
-154,253,0,0,0,0,0,0,0,0,0,-1,1070,771,0,0
-147,253,0,0,0,0,0,0,0,0,0,-1,1077,771,0,0
-140,253,0,0,0,0,0,0,0,0,0,-1,1084,771,0,0
-133,253,0,0,0,0,0,0,0,0,0,-1,1091,771,0,0
-126,253,0,0,0,0,0,0,0,0,0,-1,1098,771,0,0
-119,253,0,0,0,0,0,0,0,0,0,-1,1105,771,0,0
-112,253,0,0,0,0,0,0,0,0,0,-1,1112,771,0,0
-105,253,0,0,0,0,0,0,0,0,0,-1,1119,771,0,0
-98,253,0,0,0,0,0,0,0,0,0,-1,1126,771,0,0
-91,253,0,0,0,0,0,0,0,0,0,-1,1133,771,0,0
-84,253,0,0,0,0,0,0,0,0,0,-1,1140,771,0,0
-77,253,0,0,0,0,0,0,0,0,0,-1,1147,771,0,0
-70,253,0,0,0,0,0,0,0,0,0,-1,1154,771,0,0
-63,253,0,0,0,0,0,0,0,0,0,-1,1161,771,0,0
-56,253,0,0,0,0,0,0,0,0,0,-1,1168,771,0,0
-49,253,0,0,0,0,0,0,0,0,0,-1,1175,771,0,0
-42,253,0,0,0,0,0,0,0,0,0,-1,1182,771,0,0
-35,253,0,0,0,0,0,0,0,0,0,-1,1189,771,0,0
-28,253,0,0,0,0,0,0,0,0,0,-1,1196,771,0,0
-21,253,0,0,0,0,0,0,0,0,0,-1,1203,771,0,0
-14,253,0,0,0,0,0,0,0,0,0,-1,1210,771,0,0
-7,253,0,0,0,0,0,0,0,0,0,-1,1217,771,0,0
0,253,0,0,0,0,0,0,0,0,0,-1,1224,771,0,0
7,253,0,0,0,0,0,0,0,0,0,-1,1231,771,0,0
14,253,0,0,0,0,0,0,0,0,0,-1,1238,771,0,0
21,253,0,0,0,0,0,0,0,0,0,-1,1245,771,0,0
28,253,0,0,0,0,0,0,0,0,0,-1,1252,771,0,0
35,253,0,0,0,0,0,0,0,0,0,-1,1259,771,0,0
42,253,0,0,0,0,0,0,0,0,0,-1,1266,771,0,0
49,253,0,0,0,0,0,0,0,0,0,-1,1273,771,0,0
56,253,0,0,0,0,0,0,0,0,0,-1,1280,771,0,0
63,253,0,0,0,0,0,0,0,0,0,-1,1287,771,0,0
70,253,0,0,0,0,0,0,0,0,0,-1,1294,771,0,0
77,253,0,0,0,0,0,0,0,0,0,-1,1301,771,0,0
84,253,0,0,0,0,0,0,0,0,0,-1,1308,771,0,0
91,253,0,0,0,0,0,0,0,0,0,-1,1315,771,0,0
98,253,0,0,0,0,0,0,0,0,0,-1,1322,771,0,0
105,253,0,0,0,0,0,0,0,0,0,-1,1329,771,0,0
112,253,0,0,0,0,0,0,0,0,0,-1,1336,771,0,0
119,253,0,0,0,0,0,0,0,0,0,-1,1343,771,0,0
126,253,0,0,0,0,0,0,0,0,0,-1,1350,771,0,0
133,253,0,0,0,0,0,0,0,0,0,-1,1357,771,0,0
140,253,0,0,0,0,0,0,0,0,0,-1,1364,771,0,0
147,253,0,0,0,0,0,0,0,0,0,-1,1371,771,0,0
154,253,0,0,0,0,0,0,0,0,0,-1,1378,771,0,0
161,253,0,0,0,0,0,0,0,0,0,-1,1385,771,0,0
168,253,0,0,0,0,0,0,0,0,0,-1,1392,771,0,0
175,253,0,0,0,0,0,0,0,0,0,-1,1399,771,0,0
182,253,0,0,0,0,0,0,0,0,0,-1,1406,771,0,0
189,253,0,0,0,0,0,0,0,0,0,-1,1413,771,0,0
196,253,0,0,0,0,0,0,0,0,0,-1,1420,771,0,0
203,253,0,0,0,0,0,0,0,0,0,-1,1427,771,0,0
210,253,0,0,0,0,0,0,0,0,0,-1,1434,771,0,0
217,253,0,0,0,0,0,0,0,0,0,-1,1441,771,0,0
224,253,0,0,0,0,0,0,0,0,0,-1,1448,771,0,0
231,253,0,0,0,0,0,0,0,0,0,-1,1455,771,0,0
238,253,0,0,0,0,0,0,0,0,0,-1,1462,771,0,0
245,253,0,0,0,0,0,0,0,0,0,-1,1469,771,0,0
252,253,0,0,0,0,0,0,0,0,0,-1,1476,771,0,0
259,253,0,0,0,0,0,0,0,0,0,-1,1483,771,0,0
266,253,0,0,0,0,0,0,0,0,0,-1,1490,771,0,0
273,253,0,0,0,0,0,0,0,0,0,-1,1497,771,0,0
280,253,0,0,0,0,0,0,0,0,0,-1,1504,771,0,0
287,253,0,0,0,0,0,0,0,0,0,-1,1511,771,0,0
294,253,0,0,0,0,0,0,0,0,0,-1,1518,771,0,0
301,253,0,0,0,0,0,0,0,0,0,-1,1525,771,0,0
308,253,0,0,0,0,0,0,0,0,0,-1,1532,771,0,0
315,253,0,0,0,0,0,0,0,0,0,-1,1539,771,0,0
322,253,0,0,0,0,0,0,0,0,0,-1,1546,771,0,0
329,253,0,0,0,0,0,0,0,0,0,-1,1553,771,0,0
336,253,0,0,0,0,0,0,0,0,0,-1,1560,771,0,0
343,253,0,0,0,0,0,0,0,0,0,-1,1567,771,0,0
350,253,0,0,0,0,0,0,0,0,0,-1,1574,771,0,0
357,253,0,0,0,0,0,0,0,0,0,-1,1581,771,0,0
364,253,0,0,0,0,0,0,0,0,0,-1,1588,771,0,0
371,253,0,0,0,0,0,0,0,0,0,-1,1595,771,0,0
378,253,0,0,0,0,0,0,0,0,0,-1,1602,771,0,0
385,253,0,0,0,0,0,0,0,0,0,-1,1609,771,0,0
392,253,0,0,0,0,0,0,0,0,0,-1,1616,771,0,0
399,253,0,0,0,0,0,0,0,0,0,-1,1623,771,0,0
406,253,0,0,0,0,0,0,0,0,0,-1,1630,771,0,0
413,253,0,0,0,0,0,0,0,0,0,-1,1637,771,0,0
420,253,0,0,0,0,0,0,0,0,0,-1,1644,771,0,0
427,253,0,0,0,0,0,0,0,0,0,-1,1651,771,0,0
434,253,0,0,0,0,0,0,0,0,0,-1,1658,771,0,0
441,253,0,0,0,0,0,0,0,0,0,-1,1665,771,0,0
448,253,0,0,0,0,0,0,0,0,0,-1,1672,771,0,0
455,253,0,0,0,0,0,0,0,0,0,-1,1679,771,0,0
462,253,0,0,0,0,0,0,0,0,0,-1,1686,771,0,0
469,253,0,0,0,0,0,0,0,0,0,-1,1693,771,0,0
476,253,0,0,0,0,0,0,0,0,0,-1,1700,771,0,0
483,253,0,0,0,0,0,0,0,0,0,-1,1707,771,0,0
490,253,0,0,0,0,0,0,0,0,0,-1,1714,771,0,0
497,253,0,0,0,0,0,0,0,0,0,-1,1721,771,0,0
504,253,0,0,0,0,0,0,0,0,0,-1,1728,771,0,0
511,253,0,0,0,0,0,0,0,0,0,-1,1735,771,0,0
518,253,0,0,0,0,0,0,0,0,0,-1,1742,771,0,0
525,253,0,0,0,0,0,0,0,0,0,-1,1749,771,0,0
532,253,0,0,0,0,0,0,0,0,0,-1,1756,771,0,0
539,253,0,0,0,0,0,0,0,0,0,-1,1763,771,0,0
546,253,0,0,0,0,0,0,0,0,0,-1,1770,771,0,0
553,253,0,0,0,0,0,0,0,0,0,-1,1777,771,0,0
560,253,0,0,0,0,0,0,0,0,0,-1,1784,771,0,0
567,253,0,0,0,0,0,0,0,0,0,-1,1791,771,0,0
574,253,70.6947,2.16132,0,0,0,0,0,0,0,-1,1798,771,70.6947,-2.1613
581,253,70.7192,2.36243,0.0120805,-0.00229172,0.00516184,0.0137422,-0.00395349,0.311454,0.010725,0.0440201,1805,771,70.7193,-2.3624
588,253,70.7937,2.50818,0.0106812,-0.00124414,0.00511798,0.0125764,-0.00313941,0.354657,0.00960336,0.0475449,1812,771,70.7937,-2.50818
595,253,71.3496,2.35254,0,0,0,0,0,0,0,-1,1819,771,71.3497,-2.35251
602,253,66.4502,2.6098,0,0,0,0,0,0,0,-1,1826,771,66.4502,-2.60979
609,253,65.2542,3.18195,0,0,0,0,0,0,0,-1,1833,771,65.2541,-3.18193
616,253,58.416,2.69031,0,0,0,0,0,0,0,-1,1840,771,58.4161,-2.69031
623,253,48.8328,3.01001,0,0,0,0,0,0,0,-1,1847,771,48.8328,-3.01002
630,253,33.561,2.96838,0,0,0,0,0,0,0,-1,1854,771,33.561,-2.96836
637,253,22.3192,-0.604004,0,0,0,0,0,0,0,-1,1861,771,22.3192,0.603986
644,253,48.2843,-5.22784,0,0,0,0,0,0,0,-1,1868,771,48.2843,5.22783
651,253,48.569,-4.9187,0,0,0,0,0,0,0,-1,1875,771,48.5689,4.91868
658,253,48.0669,-4.02051,0.00102607,0.00169484,0.00139696,0.00279688,-7.59723e-05,0.902871,0.00189042,0.0235045,1882,771,48.0669,4.02053
665,253,47.9585,-3.21613,0.00067782,0.00130346,0.000905356,0.00194851,3.27636e-05,0.951737,0.00128823,0.0216922,1889,771,47.9585,3.21614
672,253,47.9355,-2.39362,0.00060848,0.000922919,0.000443768,0.00123649,0.000294904,0.955641,0.000745726,0.0176284,1896,771,47.9356,2.39363
679,253,47.9399,-1.51904,0.000667048,0.000587711,0.000224734,0.000855588,0.000399171,0.698041,0.000494342,0.0143065,1903,771,47.94,1.51904
686,253,47.8329,-0.632324,0.000751704,0.000795957,0.000223293,0.000998217,0.000549443,0.834783,0.000577297,0.0255431,1910,771,47.8328,0.63233
693,253,47.7334,0.21521,0.000968933,0.00110973,0.000357263,0.00140347,0.0006752,0.882678,0.000810485,0.0248492,1917,771,47.7334,-0.215199
700,253,47.7141,1.03027,0.00131639,0.00150936,0.000625689,0.00204596,0.000779793,0.8619,0.00119231,0.01728,1924,771,47.7141,-1.03028
707,253,47.7147,1.90271,0.00174005,0.0018777,0.000987332,0.0027986,0.000819145,0.820195,0.00166142,0.016134,1931,771,47.7148,-1.90269
714,253,47.6727,2.7392,0.00220768,0.00207564,0.00149784,0.00364095,0.000642367,0.763375,0.00224404,0.0254307,1938,771,47.6728,-2.73918
721,253,47.691,3.5849,0.00307421,0.00223273,0.00232956,0.00502071,0.000286223,0.696056,0.00325593,0.0459461,1945,771,47.691,-3.58491
728,253,47.7404,4.48883,0,0,0,0,0,0,0,-1,1952,771,47.7404,-4.48886
735,253,34.5735,6.15118,0,0,0,0,0,0,0,-1,1959,771,34.5734,-6.1512
742,253,31.0571,5.7337,0,0,0,0,0,0,0,-1,1966,771,31.0571,-5.73373
749,253,33.7754,3.21533,0,0,0,0,0,0,0,-1,1973,771,33.7754,-3.21533
756,253,0,0,0,0,0,0,0,0,0,-1,1980,771,0,0
763,253,0,0,0,0,0,0,0,0,0,-1,1987,771,0,0
770,253,0,0,0,0,0,0,0,0,0,-1,1994,771,0,0
777,253,0,0,0,0,0,0,0,0,0,-1,2001,771,0,0
784,253,0,0,0,0,0,0,0,0,0,-1,2008,771,0,0
791,253,0,0,0,0,0,0,0,0,0,-1,2015,771,0,0
798,253,0,0,0,0,0,0,0,0,0,-1,2022,771,0,0
805,253,0,0,0,0,0,0,0,0,0,-1,2029,771,0,0
812,253,0,0,0,0,0,0,0,0,0,-1,2036,771,0,0
-700,246,0,0,0,0,0,0,0,0,0,-1,524,778,0,0
-693,246,0,0,0,0,0,0,0,0,0,-1,531,778,0,0
-686,246,0,0,0,0,0,0,0,0,0,-1,538,778,0,0
-679,246,0,0,0,0,0,0,0,0,0,-1,545,778,0,0
-672,246,0,0,0,0,0,0,0,0,0,-1,552,778,0,0
-665,246,0,0,0,0,0,0,0,0,0,-1,559,778,0,0
-658,246,0,0,0,0,0,0,0,0,0,-1,566,778,0,0
-651,246,0,0,0,0,0,0,0,0,0,-1,573,778,0,0
-644,246,0,0,0,0,0,0,0,0,0,-1,580,778,0,0
-637,246,-24.1234,0.130432,0,0,0,0,0,0,0,-1,587,778,-24.1234,-0.130438
-630,246,-24.0781,1.38916,0,0,0,0,0,0,0,-1,594,778,-24.0781,-1.38913
-623,246,-23.9183,2.49573,0,0,0,0,0,0,0,-1,601,778,-23.9183,-2.49575
-616,246,-26.8182,2.0705,0,0,0,0,0,0,0,-1,608,778,-26.8182,-2.07052
-609,246,-26.0615,1.16388,0,0,0,0,0,0,0,-1,615,778,-26.0615,-1.16388
-602,246,-33.7183,4.17621,0,0,0,0,0,0,0,-1,622,778,-33.7183,-4.1762
-595,246,-33.7011,3.12286,0.00268206,0.00712801,-0.0124683,0.0175699,-0.00775987,-0.873616,0.0149853,0.0448174,629,778,-33.7011,-3.12287
-588,246,-33.6931,1.95404,0.00199893,0.00575938,-0.00911876,0.0131897,-0.00543143,-0.88707,0.0110576,0.0313475,636,778,-33.6931,-1.95405
-581,246,-33.8307,1.04016,0.00124829,0.00457474,-0.00639597,0.0095202,-0.00369717,-0.912602,0.00787404,0.018383,643,778,-33.8307,-1.04016
-574,246,-33.7673,0.116394,0.000629081,0.00346121,-0.00401805,0.00630542,-0.00221513,-0.954815,0.00510479,0.0194788,650,778,-33.7673,-0.116397
-567,246,-33.827,-0.703125,5.6823e-05,0.00251763,-0.00212894,0.00374615,-0.00117169,-1.04742,0.00296617,0.0266304,657,778,-33.827,0.703145
-560,246,-33.9229,-1.50525,-0.000445343,0.00166993,-0.000668898,0.0018637,-0.000639114,-1.28883,0.00150155,0.0207714,664,778,-33.9228,1.50526
-553,246,-33.9633,-2.29633,-0.000954425,0.000974573,0.000354161,0.00103754,-0.00101739,1.39484,0.00118644,0.0141328,671,778,-33.9633,2.29634
-546,246,-34.0217,-3.13135,-0.00101709,0.000307054,0.00127909,0.00108526,-0.00179529,1.02422,0.00167985,0.0116513,678,778,-34.0217,3.13135
-539,246,-34.084,-4.0213,-0.00080633,-0.000464751,0.00167551,0.00104865,-0.00231974,0.836189,0.00199036,0.0125869,685,778,-34.084,4.02133
-532,246,-34.1227,-4.91113,0.000610741,-0.00203315,0.00205321,0.00173076,-0.00315318,0.49938,0.00285933,0.026656,692,778,-34.1228,4.91111
-525,246,-34.2322,-5.80408,0,0,0,0,0,0,0,-1,699,778,-34.2322,5.80409
-518,246,-34.3649,-6.98376,0,0,0,0,0,0,0,-1,706,778,-34.3649,6.98377
-511,246,-28.5886,-5.38635,0,0,0,0,0,0,0,-1,713,778,-28.5886,5.38633
-504,246,-20.0047,-2.88214,0,0,0,0,0,0,0,-1,720,778,-20.0047,2.88216
-497,246,-29.4669,1.82684,0,0,0,0,0,0,0,-1,727,778,-29.4669,-1.82687
-490,246,-40.4299,1.04309,0,0,0,0,0,0,0,-1,734,778,-40.4299,-1.04308
-483,246,-55.5514,-0.0795898,0,0,0,0,0,0,0,-1,741,778,-55.5514,0.0795595
-476,246,-55.3043,0.53241,0,0,0,0,0,0,0,-1,748,778,-55.3043,-0.532424
-469,246,-55.09,0.724243,0.0230591,-0.00938171,0.00826368,0.0250428,-0.0113654,0.235594,0.021509,0.0427581,755,778,-55.09,-0.724221
-462,246,-54.903,0.888855,0.0253604,-0.00835966,0.00925414,0.0277332,-0.0107324,0.250992,0.0229197,0.0478123,762,778,-54.903,-0.888858
-455,246,0,0,0,0,0,0,0,0,0,-1,769,778,0,0
-448,246,0,0,0,0,0,0,0,0,0,-1,776,778,0,0
-441,246,0,0,0,0,0,0,0,0,0,-1,783,778,0,0
-434,246,0,0,0,0,0,0,0,0,0,-1,790,778,0,0
-427,246,0,0,0,0,0,0,0,0,0,-1,797,778,0,0
-420,246,0,0,0,0,0,0,0,0,0,-1,804,778,0,0
-413,246,0,0,0,0,0,0,0,0,0,-1,811,778,0,0
-406,246,0,0,0,0,0,0,0,0,0,-1,818,778,0,0
-399,246,0,0,0,0,0,0,0,0,0,-1,825,778,0,0
-392,246,0,0,0,0,0,0,0,0,0,-1,832,778,0,0
-385,246,0,0,0,0,0,0,0,0,0,-1,839,778,0,0
-378,246,0,0,0,0,0,0,0,0,0,-1,846,778,0,0
-371,246,0,0,0,0,0,0,0,0,0,-1,853,778,0,0
-364,246,0,0,0,0,0,0,0,0,0,-1,860,778,0,0
-357,246,0,0,0,0,0,0,0,0,0,-1,867,778,0,0
-350,246,0,0,0,0,0,0,0,0,0,-1,874,778,0,0
-343,246,0,0,0,0,0,0,0,0,0,-1,881,778,0,0
-336,246,0,0,0,0,0,0,0,0,0,-1,888,778,0,0
-329,246,0,0,0,0,0,0,0,0,0,-1,895,778,0,0
-322,246,0,0,0,0,0,0,0,0,0,-1,902,778,0,0
-315,246,0,0,0,0,0,0,0,0,0,-1,909,778,0,0
-308,246,0,0,0,0,0,0,0,0,0,-1,916,778,0,0
-301,246,0,0,0,0,0,0,0,0,0,-1,923,778,0,0
-294,246,0,0,0,0,0,0,0,0,0,-1,930,778,0,0
-287,246,0,0,0,0,0,0,0,0,0,-1,937,778,0,0
-280,246,0,0,0,0,0,0,0,0,0,-1,944,778,0,0
-273,246,0,0,0,0,0,0,0,0,0,-1,951,778,0,0
-266,246,0,0,0,0,0,0,0,0,0,-1,958,778,0,0
-259,246,0,0,0,0,0,0,0,0,0,-1,965,778,0,0
-252,246,0,0,0,0,0,0,0,0,0,-1,972,778,0,0
-245,246,0,0,0,0,0,0,0,0,0,-1,979,778,0,0
-238,246,0,0,0,0,0,0,0,0,0,-1,986,778,0,0
-231,246,0,0,0,0,0,0,0,0,0,-1,993,778,0,0
-224,246,0,0,0,0,0,0,0,0,0,-1,1000,778,0,0
-217,246,0,0,0,0,0,0,0,0,0,-1,1007,778,0,0
-210,246,0,0,0,0,0,0,0,0,0,-1,1014,778,0,0
-203,246,0,0,0,0,0,0,0,0,0,-1,1021,778,0,0
-196,246,0,0,0,0,0,0,0,0,0,-1,1028,778,0,0
-189,246,0,0,0,0,0,0,0,0,0,-1,1035,778,0,0
-182,246,0,0,0,0,0,0,0,0,0,-1,1042,778,0,0
-175,246,0,0,0,0,0,0,0,0,0,-1,1049,778,0,0
-168,246,0,0,0,0,0,0,0,0,0,-1,1056,778,0,0
-161,246,0,0,0,0,0,0,0,0,0,-1,1063,778,0,0
-154,246,0,0,0,0,0,0,0,0,0,-1,1070,778,0,0
-147,246,0,0,0,0,0,0,0,0,0,-1,1077,778,0,0
-140,246,0,0,0,0,0,0,0,0,0,-1,1084,778,0,0
-133,246,0,0,0,0,0,0,0,0,0,-1,1091,778,0,0
-126,246,0,0,0,0,0,0,0,0,0,-1,1098,778,0,0
-119,246,0,0,0,0,0,0,0,0,0,-1,1105,778,0,0
-112,246,0,0,0,0,0,0,0,0,0,-1,1112,778,0,0
-105,246,0,0,0,0,0,0,0,0,0,-1,1119,778,0,0
-98,246,0,0,0,0,0,0,0,0,0,-1,1126,778,0,0
-91,246,0,0,0,0,0,0,0,0,0,-1,1133,778,0,0
-84,246,0,0,0,0,0,0,0,0,0,-1,1140,778,0,0
-77,246,0,0,0,0,0,0,0,0,0,-1,1147,778,0,0
-70,246,0,0,0,0,0,0,0,0,0,-1,1154,778,0,0
-63,246,0,0,0,0,0,0,0,0,0,-1,1161,778,0,0
-56,246,0,0,0,0,0,0,0,0,0,-1,1168,778,0,0
-49,246,0,0,0,0,0,0,0,0,0,-1,1175,778,0,0
-42,246,0,0,0,0,0,0,0,0,0,-1,1182,778,0,0
-35,246,0,0,0,0,0,0,0,0,0,-1,1189,778,0,0
-28,246,0,0,0,0,0,0,0,0,0,-1,1196,778,0,0
-21,246,0,0,0,0,0,0,0,0,0,-1,1203,778,0,0
-14,246,0,0,0,0,0,0,0,0,0,-1,1210,778,0,0
-7,246,0,0,0,0,0,0,0,0,0,-1,1217,778,0,0
0,246,0,0,0,0,0,0,0,0,0,-1,1224,778,0,0
7,246,0,0,0,0,0,0,0,0,0,-1,1231,778,0,0
14,246,0,0,0,0,0,0,0,0,0,-1,1238,778,0,0
21,246,0,0,0,0,0,0,0,0,0,-1,1245,778,0,0
28,246,0,0,0,0,0,0,0,0,0,-1,1252,778,0,0
35,246,0,0,0,0,0,0,0,0,0,-1,1259,778,0,0
42,246,0,0,0,0,0,0,0,0,0,-1,1266,778,0,0
49,246,0,0,0,0,0,0,0,0,0,-1,1273,778,0,0
56,246,0,0,0,0,0,0,0,0,0,-1,1280,778,0,0
63,246,0,0,0,0,0,0,0,0,0,-1,1287,778,0,0
70,246,0,0,0,0,0,0,0,0,0,-1,1294,778,0,0
77,246,0,0,0,0,0,0,0,0,0,-1,1301,778,0,0
84,246,0,0,0,0,0,0,0,0,0,-1,1308,778,0,0
91,246,0,0,0,0,0,0,0,0,0,-1,1315,778,0,0
98,246,0,0,0,0,0,0,0,0,0,-1,1322,778,0,0
105,246,0,0,0,0,0,0,0,0,0,-1,1329,778,0,0
112,246,0,0,0,0,0,0,0,0,0,-1,1336,778,0,0
119,246,0,0,0,0,0,0,0,0,0,-1,1343,778,0,0
126,246,0,0,0,0,0,0,0,0,0,-1,1350,778,0,0
133,246,0,0,0,0,0,0,0,0,0,-1,1357,778,0,0
140,246,0,0,0,0,0,0,0,0,0,-1,1364,778,0,0
147,246,0,0,0,0,0,0,0,0,0,-1,1371,778,0,0
154,246,0,0,0,0,0,0,0,0,0,-1,1378,778,0,0
161,246,0,0,0,0,0,0,0,0,0,-1,1385,778,0,0
168,246,0,0,0,0,0,0,0,0,0,-1,1392,778,0,0
175,246,0,0,0,0,0,0,0,0,0,-1,1399,778,0,0
182,246,0,0,0,0,0,0,0,0,0,-1,1406,778,0,0
189,246,0,0,0,0,0,0,0,0,0,-1,1413,778,0,0
196,246,0,0,0,0,0,0,0,0,0,-1,1420,778,0,0
203,246,0,0,0,0,0,0,0,0,0,-1,1427,778,0,0
210,246,0,0,0,0,0,0,0,0,0,-1,1434,778,0,0
217,246,0,0,0,0,0,0,0,0,0,-1,1441,778,0,0
224,246,0,0,0,0,0,0,0,0,0,-1,1448,778,0,0
231,246,0,0,0,0,0,0,0,0,0,-1,1455,778,0,0
238,246,0,0,0,0,0,0,0,0,0,-1,1462,778,0,0
245,246,0,0,0,0,0,0,0,0,0,-1,1469,778,0,0
252,246,0,0,0,0,0,0,0,0,0,-1,1476,778,0,0
259,246,0,0,0,0,0,0,0,0,0,-1,1483,778,0,0
266,246,0,0,0,0,0,0,0,0,0,-1,1490,778,0,0
273,246,0,0,0,0,0,0,0,0,0,-1,1497,778,0,0
280,246,0,0,0,0,0,0,0,0,0,-1,1504,778,0,0
287,246,0,0,0,0,0,0,0,0,0,-1,1511,778,0,0
294,246,0,0,0,0,0,0,0,0,0,-1,1518,778,0,0
301,246,0,0,0,0,0,0,0,0,0,-1,1525,778,0,0
308,246,0,0,0,0,0,0,0,0,0,-1,1532,778,0,0
315,246,0,0,0,0,0,0,0,0,0,-1,1539,778,0,0
322,246,0,0,0,0,0,0,0,0,0,-1,1546,778,0,0
329,246,0,0,0,0,0,0,0,0,0,-1,1553,778,0,0
336,246,0,0,0,0,0,0,0,0,0,-1,1560,778,0,0
343,246,0,0,0,0,0,0,0,0,0,-1,1567,778,0,0
350,246,0,0,0,0,0,0,0,0,0,-1,1574,778,0,0
357,246,0,0,0,0,0,0,0,0,0,-1,1581,778,0,0
364,246,0,0,0,0,0,0,0,0,0,-1,1588,778,0,0
371,246,0,0,0,0,0,0,0,0,0,-1,1595,778,0,0
378,246,0,0,0,0,0,0,0,0,0,-1,1602,778,0,0
385,246,0,0,0,0,0,0,0,0,0,-1,1609,778,0,0
392,246,0,0,0,0,0,0,0,0,0,-1,1616,778,0,0
399,246,0,0,0,0,0,0,0,0,0,-1,1623,778,0,0
406,246,0,0,0,0,0,0,0,0,0,-1,1630,778,0,0
413,246,0,0,0,0,0,0,0,0,0,-1,1637,778,0,0
420,246,0,0,0,0,0,0,0,0,0,-1,1644,778,0,0
427,246,0,0,0,0,0,0,0,0,0,-1,1651,778,0,0
434,246,0,0,0,0,0,0,0,0,0,-1,1658,778,0,0
441,246,0,0,0,0,0,0,0,0,0,-1,1665,778,0,0
448,246,0,0,0,0,0,0,0,0,0,-1,1672,778,0,0
455,246,0,0,0,0,0,0,0,0,0,-1,1679,778,0,0
462,246,0,0,0,0,0,0,0,0,0,-1,1686,778,0,0
469,246,0,0,0,0,0,0,0,0,0,-1,1693,778,0,0
476,246,0,0,0,0,0,0,0,0,0,-1,1700,778,0,0
483,246,0,0,0,0,0,0,0,0,0,-1,1707,778,0,0
490,246,0,0,0,0,0,0,0,0,0,-1,1714,778,0,0
497,246,0,0,0,0,0,0,0,0,0,-1,1721,778,0,0
504,246,0,0,0,0,0,0,0,0,0,-1,1728,778,0,0
511,246,0,0,0,0,0,0,0,0,0,-1,1735,778,0,0
518,246,0,0,0,0,0,0,0,0,0,-1,1742,778,0,0
525,246,0,0,0,0,0,0,0,0,0,-1,1749,778,0,0
532,246,0,0,0,0,0,0,0,0,0,-1,1756,778,0,0
539,246,0,0,0,0,0,0,0,0,0,-1,1763,778,0,0
546,246,0,0,0,0,0,0,0,0,0,-1,1770,778,0,0
553,246,0,0,0,0,0,0,0,0,0,-1,1777,778,0,0
560,246,0,0,0,0,0,0,0,0,0,-1,1784,778,0,0
567,246,0,0,0,0,0,0,0,0,0,-1,1791,778,0,0
574,246,0,0,0,0,0,0,0,0,0,-1,1798,778,0,0
581,246,70.678,2.35211,0.00869729,-0.00239084,0.00321346,0.00956127,-0.00325482,0.26265,0.00769219,0.0388329,1805,778,70.678,-2.35209
588,246,70.7561,2.33466,0.00899449,-0.000931783,0.00445767,0.0107025,-0.00263974,0.365898,0.0081585,0.0413692,1812,778,70.7561,-2.33467
595,246,71.0208,2.33087,0.00806412,0.000243576,0.00468731,0.010258,-0.00195034,0.437766,0.00757299,0.0444463,1819,778,71.0207,-2.33086
602,246,70.9463,2.53247,0,0,0,0,0,0,0,-1,1826,778,70.9463,-2.53247
609,246,65.04,3.03278,0,0,0,0,0,0,0,-1,1833,778,65.04,-3.03277
616,246,60.4568,3.98492,0,0,0,0,0,0,0,-1,1840,778,60.4568,-3.98491
623,246,55.8947,3.95953,0,0,0,0,0,0,0,-1,1847,778,55.8947,-3.95952
630,246,49.5938,1.99902,0,0,0,0,0,0,0,-1,1854,778,49.5937,-1.999
637,246,29.5785,0.837585,0,0,0,0,0,0,0,-1,1861,778,29.5785,-0.837606
644,246,28.1232,-1.43188,0,0,0,0,0,0,0,-1,1868,778,28.1232,1.43188
651,246,48.5865,-4.32922,0,0,0,0,0,0,0,-1,1875,778,48.5865,4.32921
658,246,48.8348,-3.95251,0,0,0,0,0,0,0,-1,1882,778,48.8348,3.95254
665,246,48.8037,-3.20361,0.000640127,0.00171241,0.00102179,0.00233017,2.23652e-05,1.02701,0.00154605,0.0292397,1889,778,48.8037,3.20362
672,246,48.811,-2.31311,0.000500942,0.00120144,0.000488279,0.0014521,0.000250283,1.09652,0.000896363,0.0216817,1896,778,48.811,2.31309
679,246,48.7826,-1.46545,0.000542709,0.000570601,0.000180163,0.000737358,0.000375953,0.824026,0.000425741,0.0216225,1903,778,48.7826,1.46548
686,246,48.7361,-0.577271,0.000582201,0.000596345,7.3196e-05,0.00066281,0.000515736,0.83356,0.000401921,0.0235364,1910,778,48.7361,0.577274
693,246,48.6665,0.273499,0.000781204,0.000790116,0.000160021,0.000945743,0.000625577,0.799318,0.000555434,0.0188664,1917,778,48.6665,-0.273515
700,246,48.6304,1.07855,0.00111056,0.00114211,0.000445142,0.00157176,0.000680913,0.803113,0.000910147,0.014986,1924,778,48.6304,-1.07855
707,246,48.5898,1.94977,0.00152712,0.00149265,0.000864534,0.00237459,0.000645183,0.775432,0.00141781,0.0139581,1931,778,48.5899,-1.94975
714,246,48.5165,2.83459,0.0019579,0.00172626,0.00143862,0.00328535,0.000398801,0.745231,0.00207014,0.0149537,1938,778,48.5164,-2.83461
721,246,48.424,3.63165,0.00264581,0.00192614,0.0023332,0.00464676,-7.48131e-05,0.708889,0.00312308,0.0201024,1945,778,48.424,-3.63168
728,246,48.4475,4.5058,0.00350617,0.00182904,0.00349332,0.00626017,-0.00092496,0.667603,0.00451347,0.0454122,1952,778,48.4476,-4.50582
735,246,48.5032,5.42419,0,0,0,0,0,0,0,-1,1959,778,48.5032,-5.42419
742,246,31.7356,6.70013,0,0,0,0,0,0,0,-1,1966,778,31.7356,-6.70011
749,246,32.3883,7.69324,0,0,0,0,0,0,0,-1,1973,778,32.3883,-7.69322
756,246,33.6919,3.45264,0,0,0,0,0,0,0,-1,1980,778,33.6919,-3.45262
763,246,0,0,0,0,0,0,0,0,0,-1,1987,778,0,0
770,246,0,0,0,0,0,0,0,0,0,-1,1994,778,0,0
777,246,0,0,0,0,0,0,0,0,0,-1,2001,778,0,0
784,246,0,0,0,0,0,0,0,0,0,-1,2008,778,0,0
791,246,0,0,0,0,0,0,0,0,0,-1,2015,778,0,0
798,246,0,0,0,0,0,0,0,0,0,-1,2022,778,0,0
805,246,0,0,0,0,0,0,0,0,0,-1,2029,778,0,0
812,246,0,0,0,0,0,0,0,0,0,-1,2036,778,0,0
-700,239,0,0,0,0,0,0,0,0,0,-1,524,785,0,0
-693,239,0,0,0,0,0,0,0,0,0,-1,531,785,0,0
-686,239,0,0,0,0,0,0,0,0,0,-1,538,785,0,0
-679,239,0,0,0,0,0,0,0,0,0,-1,545,785,0,0
-672,239,0,0,0,0,0,0,0,0,0,-1,552,785,0,0
-665,239,0,0,0,0,0,0,0,0,0,-1,559,785,0,0
-658,239,0,0,0,0,0,0,0,0,0,-1,566,785,0,0
-651,239,0,0,0,0,0,0,0,0,0,-1,573,785,0,0
-644,239,0,0,0,0,0,0,0,0,0,-1,580,785,0,0
-637,239,-23.2709,0.465088,0,0,0,0,0,0,0,-1,587,785,-23.271,-0.465116
-630,239,-23.4006,0.956299,0,0,0,0,0,0,0,-1,594,785,-23.4005,-0.956285
-623,239,-30.6328,2.52185,0,0,0,0,0,0,0,-1,601,785,-30.6328,-2.52183
-616,239,-29.1425,1.42139,0,0,0,0,0,0,0,-1,608,785,-29.1425,-1.42139
-609,239,-27.8569,0.322937,0,0,0,0,0,0,0,-1,615,785,-27.857,-0.322963
-602,239,-34.3709,4.94489,0,0,0,0,0,0,0,-1,622,785,-34.3709,-4.9449
-595,239,-34.4139,3.52686,0.00215445,0.00753452,-0.0110641,0.0162309,-0.00654191,-0.904651,0.0135387,0.040862,629,785,-34.4139,-3.52687
-588,239,-34.5028,2.07782,0.00178473,0.0059455,-0.00814239,0.0122691,-0.00453884,-0.910473,0.0100403,0.0207515,636,785,-34.5028,-2.07781
-581,239,-34.6577,1.09558,0.00128125,0.00460471,-0.00565377,0.0088359,-0.00294994,-0.928331,0.00708176,0.0116101,643,785,-34.6577,-1.09559
-574,239,-34.6507,0.206238,0.000785235,0.00342528,-0.00344784,0.00579715,-0.00158663,-0.968218,0.00448812,0.0129778,650,785,-34.6507,-0.206229
-567,239,-34.7093,-0.654236,0.000270703,0.00249225,-0.00166296,0.00338129,-0.000618339,-1.07984,0.00248607,0.0188623,657,785,-34.7093,0.654233
-560,239,-34.7922,-1.45624,-0.000325472,0.0016705,-0.00031055,0.00171771,-0.000372673,-1.41996,0.00128747,0.0194717,664,785,-34.7922,1.45623
-553,239,-34.8208,-2.26239,-0.00102423,0.000937927,0.000552084,0.0010826,-0.0011689,1.31451,0.00130022,0.015185,671,785,-34.8208,2.26241
-546,239,-34.8612,-3.08508,-0.00101036,0.000347669,0.00133256,0.00116424,-0.00182693,1.02103,0.00174103,0.0161491,678,785,-34.8612,3.0851
-539,239,-35.0481,-3.9314,-0.000634397,-0.00057454,0.00160409,0.000999896,-0.00220883,0.794726,0.00189588,0.0276706,685,785,-35.0481,3.93141
-532,239,-35.2483,-4.75391,0.000839344,-0.00233725,0.00198501,0.00179328,-0.00329119,0.447984,0.00297768,0.0325993,692,785,-35.2483,4.75391
-525,239,-35.1539,-5.2934,0,0,0,0,0,0,0,-1,699,785,-35.1539,5.29341
-518,239,-35.2819,-5.74396,0,0,0,0,0,0,0,-1,706,785,-35.2819,5.74396
-511,239,-20.9849,-2.09235,0,0,0,0,0,0,0,-1,713,785,-20.9848,2.09234
-504,239,-25.5015,2.00421,0,0,0,0,0,0,0,-1,720,785,-25.5015,-2.00422
-497,239,-40.2453,1.4447,0,0,0,0,0,0,0,-1,727,785,-40.2453,-1.4447
-490,239,-55.7633,-0.30426,0,0,0,0,0,0,0,-1,734,785,-55.7633,0.304271
-483,239,-55.4545,0.0797119,0.0173482,-0.00928739,0.00556321,0.0184635,-0.0104026,0.197847,0.0168811,0.0479313,741,785,-55.4545,-0.0797077
-476,239,-55.1996,0.572449,0.0210458,-0.0100752,0.00672428,0.0224365,-0.011466,0.20395,0.0199123,0.0421076,748,785,-55.1997,-0.572452
-469,239,-54.937,0.818115,0.024295,-0.0104895,0.00782474,0.0259741,-0.0121686,0.211385,0.0224974,0.0449833,755,785,-54.937,-0.818144
-462,239,-54.9033,0.894226,0.0264592,-0.0100033,0.00879147,0.0284682,-0.0120123,0.224661,0.0240065,0.0471413,762,785,-54.9033,-0.894225
-455,239,0,0,0,0,0,0,0,0,0,-1,769,785,0,0
-448,239,0,0,0,0,0,0,0,0,0,-1,776,785,0,0
-441,239,0,0,0,0,0,0,0,0,0,-1,783,785,0,0
-434,239,0,0,0,0,0,0,0,0,0,-1,790,785,0,0
-427,239,0,0,0,0,0,0,0,0,0,-1,797,785,0,0
-420,239,0,0,0,0,0,0,0,0,0,-1,804,785,0,0
-413,239,0,0,0,0,0,0,0,0,0,-1,811,785,0,0
-406,239,0,0,0,0,0,0,0,0,0,-1,818,785,0,0
-399,239,0,0,0,0,0,0,0,0,0,-1,825,785,0,0
-392,239,0,0,0,0,0,0,0,0,0,-1,832,785,0,0
-385,239,0,0,0,0,0,0,0,0,0,-1,839,785,0,0
-378,239,0,0,0,0,0,0,0,0,0,-1,846,785,0,0
-371,239,0,0,0,0,0,0,0,0,0,-1,853,785,0,0
-364,239,0,0,0,0,0,0,0,0,0,-1,860,785,0,0
-357,239,0,0,0,0,0,0,0,0,0,-1,867,785,0,0
-350,239,0,0,0,0,0,0,0,0,0,-1,874,785,0,0
-343,239,0,0,0,0,0,0,0,0,0,-1,881,785,0,0
-336,239,0,0,0,0,0,0,0,0,0,-1,888,785,0,0
-329,239,0,0,0,0,0,0,0,0,0,-1,895,785,0,0
-322,239,0,0,0,0,0,0,0,0,0,-1,902,785,0,0
-315,239,0,0,0,0,0,0,0,0,0,-1,909,785,0,0
-308,239,0,0,0,0,0,0,0,0,0,-1,916,785,0,0
-301,239,0,0,0,0,0,0,0,0,0,-1,923,785,0,0
-294,239,0,0,0,0,0,0,0,0,0,-1,930,785,0,0
-287,239,0,0,0,0,0,0,0,0,0,-1,937,785,0,0
-280,239,0,0,0,0,0,0,0,0,0,-1,944,785,0,0
-273,239,0,0,0,0,0,0,0,0,0,-1,951,785,0,0
-266,239,0,0,0,0,0,0,0,0,0,-1,958,785,0,0
-259,239,0,0,0,0,0,0,0,0,0,-1,965,785,0,0
-252,239,0,0,0,0,0,0,0,0,0,-1,972,785,0,0
-245,239,0,0,0,0,0,0,0,0,0,-1,979,785,0,0
-238,239,0,0,0,0,0,0,0,0,0,-1,986,785,0,0
-231,239,0,0,0,0,0,0,0,0,0,-1,993,785,0,0
-224,239,0,0,0,0,0,0,0,0,0,-1,1000,785,0,0
-217,239,0,0,0,0,0,0,0,0,0,-1,1007,785,0,0
-210,239,0,0,0,0,0,0,0,0,0,-1,1014,785,0,0
-203,239,0,0,0,0,0,0,0,0,0,-1,1021,785,0,0
-196,239,0,0,0,0,0,0,0,0,0,-1,1028,785,0,0
-189,239,0,0,0,0,0,0,0,0,0,-1,1035,785,0,0
-182,239,0,0,0,0,0,0,0,0,0,-1,1042,785,0,0
-175,239,0,0,0,0,0,0,0,0,0,-1,1049,785,0,0
-168,239,0,0,0,0,0,0,0,0,0,-1,1056,785,0,0
-161,239,0,0,0,0,0,0,0,0,0,-1,1063,785,0,0
-154,239,0,0,0,0,0,0,0,0,0,-1,1070,785,0,0
-147,239,0,0,0,0,0,0,0,0,0,-1,1077,785,0,0
-140,239,0,0,0,0,0,0,0,0,0,-1,1084,785,0,0
-133,239,0,0,0,0,0,0,0,0,0,-1,1091,785,0,0
-126,239,0,0,0,0,0,0,0,0,0,-1,1098,785,0,0
-119,239,0,0,0,0,0,0,0,0,0,-1,1105,785,0,0
-112,239,0,0,0,0,0,0,0,0,0,-1,1112,785,0,0
-105,239,0,0,0,0,0,0,0,0,0,-1,1119,785,0,0
-98,239,0,0,0,0,0,0,0,0,0,-1,1126,785,0,0
-91,239,0,0,0,0,0,0,0,0,0,-1,1133,785,0,0
-84,239,0,0,0,0,0,0,0,0,0,-1,1140,785,0,0
-77,239,0,0,0,0,0,0,0,0,0,-1,1147,785,0,0
-70,239,0,0,0,0,0,0,0,0,0,-1,1154,785,0,0
-63,239,0,0,0,0,0,0,0,0,0,-1,1161,785,0,0
-56,239,0,0,0,0,0,0,0,0,0,-1,1168,785,0,0
-49,239,0,0,0,0,0,0,0,0,0,-1,1175,785,0,0
-42,239,0,0,0,0,0,0,0,0,0,-1,1182,785,0,0
-35,239,0,0,0,0,0,0,0,0,0,-1,1189,785,0,0
-28,239,0,0,0,0,0,0,0,0,0,-1,1196,785,0,0
-21,239,0,0,0,0,0,0,0,0,0,-1,1203,785,0,0
-14,239,0,0,0,0,0,0,0,0,0,-1,1210,785,0,0
-7,239,0,0,0,0,0,0,0,0,0,-1,1217,785,0,0
0,239,0,0,0,0,0,0,0,0,0,-1,1224,785,0,0
7,239,0,0,0,0,0,0,0,0,0,-1,1231,785,0,0
14,239,0,0,0,0,0,0,0,0,0,-1,1238,785,0,0
21,239,0,0,0,0,0,0,0,0,0,-1,1245,785,0,0
28,239,0,0,0,0,0,0,0,0,0,-1,1252,785,0,0
35,239,0,0,0,0,0,0,0,0,0,-1,1259,785,0,0
42,239,0,0,0,0,0,0,0,0,0,-1,1266,785,0,0
49,239,0,0,0,0,0,0,0,0,0,-1,1273,785,0,0
56,239,0,0,0,0,0,0,0,0,0,-1,1280,785,0,0
63,239,0,0,0,0,0,0,0,0,0,-1,1287,785,0,0
70,239,0,0,0,0,0,0,0,0,0,-1,1294,785,0,0
77,239,0,0,0,0,0,0,0,0,0,-1,1301,785,0,0
84,239,0,0,0,0,0,0,0,0,0,-1,1308,785,0,0
91,239,0,0,0,0,0,0,0,0,0,-1,1315,785,0,0
98,239,0,0,0,0,0,0,0,0,0,-1,1322,785,0,0
105,239,0,0,0,0,0,0,0,0,0,-1,1329,785,0,0
112,239,0,0,0,0,0,0,0,0,0,-1,1336,785,0,0
119,239,0,0,0,0,0,0,0,0,0,-1,1343,785,0,0
126,239,0,0,0,0,0,0,0,0,0,-1,1350,785,0,0
133,239,0,0,0,0,0,0,0,0,0,-1,1357,785,0,0
140,239,0,0,0,0,0,0,0,0,0,-1,1364,785,0,0
147,239,0,0,0,0,0,0,0,0,0,-1,1371,785,0,0
154,239,0,0,0,0,0,0,0,0,0,-1,1378,785,0,0
161,239,0,0,0,0,0,0,0,0,0,-1,1385,785,0,0
168,239,0,0,0,0,0,0,0,0,0,-1,1392,785,0,0
175,239,0,0,0,0,0,0,0,0,0,-1,1399,785,0,0
182,239,0,0,0,0,0,0,0,0,0,-1,1406,785,0,0
189,239,0,0,0,0,0,0,0,0,0,-1,1413,785,0,0
196,239,0,0,0,0,0,0,0,0,0,-1,1420,785,0,0
203,239,0,0,0,0,0,0,0,0,0,-1,1427,785,0,0
210,239,0,0,0,0,0,0,0,0,0,-1,1434,785,0,0
217,239,0,0,0,0,0,0,0,0,0,-1,1441,785,0,0
224,239,0,0,0,0,0,0,0,0,0,-1,1448,785,0,0
231,239,0,0,0,0,0,0,0,0,0,-1,1455,785,0,0
238,239,0,0,0,0,0,0,0,0,0,-1,1462,785,0,0
245,239,0,0,0,0,0,0,0,0,0,-1,1469,785,0,0
252,239,0,0,0,0,0,0,0,0,0,-1,1476,785,0,0
259,239,0,0,0,0,0,0,0,0,0,-1,1483,785,0,0
266,239,0,0,0,0,0,0,0,0,0,-1,1490,785,0,0
273,239,0,0,0,0,0,0,0,0,0,-1,1497,785,0,0
280,239,0,0,0,0,0,0,0,0,0,-1,1504,785,0,0
287,239,0,0,0,0,0,0,0,0,0,-1,1511,785,0,0
294,239,0,0,0,0,0,0,0,0,0,-1,1518,785,0,0
301,239,0,0,0,0,0,0,0,0,0,-1,1525,785,0,0
308,239,0,0,0,0,0,0,0,0,0,-1,1532,785,0,0
315,239,0,0,0,0,0,0,0,0,0,-1,1539,785,0,0
322,239,0,0,0,0,0,0,0,0,0,-1,1546,785,0,0
329,239,0,0,0,0,0,0,0,0,0,-1,1553,785,0,0
336,239,0,0,0,0,0,0,0,0,0,-1,1560,785,0,0
343,239,0,0,0,0,0,0,0,0,0,-1,1567,785,0,0
350,239,0,0,0,0,0,0,0,0,0,-1,1574,785,0,0
357,239,0,0,0,0,0,0,0,0,0,-1,1581,785,0,0
364,239,0,0,0,0,0,0,0,0,0,-1,1588,785,0,0
371,239,0,0,0,0,0,0,0,0,0,-1,1595,785,0,0
378,239,0,0,0,0,0,0,0,0,0,-1,1602,785,0,0
385,239,0,0,0,0,0,0,0,0,0,-1,1609,785,0,0
392,239,0,0,0,0,0,0,0,0,0,-1,1616,785,0,0
399,239,0,0,0,0,0,0,0,0,0,-1,1623,785,0,0
406,239,0,0,0,0,0,0,0,0,0,-1,1630,785,0,0
413,239,0,0,0,0,0,0,0,0,0,-1,1637,785,0,0
420,239,0,0,0,0,0,0,0,0,0,-1,1644,785,0,0
427,239,0,0,0,0,0,0,0,0,0,-1,1651,785,0,0
434,239,0,0,0,0,0,0,0,0,0,-1,1658,785,0,0
441,239,0,0,0,0,0,0,0,0,0,-1,1665,785,0,0
448,239,0,0,0,0,0,0,0,0,0,-1,1672,785,0,0
455,239,0,0,0,0,0,0,0,0,0,-1,1679,785,0,0
462,239,0,0,0,0,0,0,0,0,0,-1,1686,785,0,0
469,239,0,0,0,0,0,0,0,0,0,-1,1693,785,0,0
476,239,0,0,0,0,0,0,0,0,0,-1,1700,785,0,0
483,239,0,0,0,0,0,0,0,0,0,-1,1707,785,0,0
490,239,0,0,0,0,0,0,0,0,0,-1,1714,785,0,0
497,239,0,0,0,0,0,0,0,0,0,-1,1721,785,0,0
504,239,0,0,0,0,0,0,0,0,0,-1,1728,785,0,0
511,239,0,0,0,0,0,0,0,0,0,-1,1735,785,0,0
518,239,0,0,0,0,0,0,0,0,0,-1,1742,785,0,0
525,239,0,0,0,0,0,0,0,0,0,-1,1749,785,0,0
532,239,0,0,0,0,0,0,0,0,0,-1,1756,785,0,0
539,239,0,0,0,0,0,0,0,0,0,-1,1763,785,0,0
546,239,0,0,0,0,0,0,0,0,0,-1,1770,785,0,0
553,239,0,0,0,0,0,0,0,0,0,-1,1777,785,0,0
560,239,0,0,0,0,0,0,0,0,0,-1,1784,785,0,0
567,239,0,0,0,0,0,0,0,0,0,-1,1791,785,0,0
574,239,0,0,0,0,0,0,0,0,0,-1,1798,785,0,0
581,239,70.6262,2.49402,0.00359921,-0.00328937,0.000303072,0.00361252,-0.00330268,0.0438833,0.00399383,0.039284,1805,785,70.6262,-2.49402
588,239,70.6311,2.48022,0.00620598,-0.000948902,0.00306195,0.00733742,-0.00208035,0.353956,0.00571276,0.0392759,1812,785,70.6311,-2.48025
595,239,70.7299,2.34094,0.00652836,0.000685397,0.00413227,0.00866758,-0.00145382,0.477697,0.00631899,0.036715,1819,785,70.7299,-2.34096
602,239,70.8209,2.40173,0.00581139,0.001619,0.00423792,0.0084432,-0.0010128,0.555727,0.00599498,0.048527,1826,785,70.8209,-2.40174
609,239,70.839,2.55591,0,0,0,0,0,0,0,-1,1833,785,70.839,-2.55591
616,239,55.8469,3.72443,0,0,0,0,0,0,0,-1,1840,785,55.8469,-3.72445
623,239,65.0618,2.66516,0,0,0,0,0,0,0,-1,1847,785,65.0617,-2.66519
630,239,54.5767,3.64667,0,0,0,0,0,0,0,-1,1854,785,54.5766,-3.64667
637,239,39.5542,2.54114,0,0,0,0,0,0,0,-1,1861,785,39.5543,-2.54114
644,239,18.3466,0.735413,0,0,0,0,0,0,0,-1,1868,785,18.3465,-0.735414
651,239,34.2471,-2.15778,0,0,0,0,0,0,0,-1,1875,785,34.2471,2.1578
658,239,49.4781,-4.21851,0,0,0,0,0,0,0,-1,1882,785,49.4781,4.21849
665,239,49.6469,-3.17206,0.000496061,0.00186521,0.00107092,0.00245166,-9.03921e-05,1.06978,0.00166539,0.0417336,1889,785,49.6469,3.17205
672,239,49.6616,-2.2337,0.000191207,0.00140018,0.000564865,0.00162302,-3.16377e-05,1.19503,0.00109271,0.0228598,1896,785,49.6616,2.23371
679,239,49.613,-1.34253,0.000221819,0.000629947,0.000225955,0.000730346,0.00012142,1.15267,0.000451895,0.0228955,1903,785,49.613,1.34251
686,239,49.5516,-0.455811,0.000273138,0.000550099,1.85951e-05,0.000551342,0.000271895,1.50406,0.000318328,0.0235718,1910,785,49.5517,0.455809
693,239,49.5276,0.342773,0.000479158,0.000654244,3.6599e-05,0.000661586,0.000471815,1.3728,0.000393367,0.0164421,1917,785,49.5276,-0.342798
700,239,49.4988,1.15503,0.000803363,0.000977117,0.000308339,0.00121058,0.000569896,0.922717,0.000699329,0.0124346,1924,785,49.4988,-1.15501
707,239,49.4539,2.00397,0.00124751,0.00135215,0.000694851,0.00199664,0.000603008,0.822975,0.0011825,0.0117132,1931,785,49.4538,-2.00399
714,239,49.3979,2.84839,0.00168221,0.00166137,0.00121942,0.00289125,0.000452327,0.781125,0.00179581,0.0111744,1938,785,49.398,-2.84841
721,239,49.314,3.70593,0.00225082,0.00196375,0.00195444,0.00406699,0.000147577,0.748744,0.0026635,0.0213608,1945,785,49.314,-3.70596
728,239,49.2385,4.60651,0.00288266,0.00210476,0.00282411,0.00534448,-0.00035706,0.716966,0.00368777,0.0460529,1952,785,49.2386,-4.60648
735,239,49.4266,5.599,0,0,0,0,0,0,0,-1,1959,785,49.4266,-5.59902
742,239,32.4141,7.6665,0,0,0,0,0,0,0,-1,1966,785,32.4141,-7.6665
749,239,32.1489,3.4411,0,0,0,0,0,0,0,-1,1973,785,32.149,-3.44109
756,239,32.9064,3.6687,0,0,0,0,0,0,0,-1,1980,785,32.9063,-3.66873
763,239,0,0,0,0,0,0,0,0,0,-1,1987,785,0,0
770,239,0,0,0,0,0,0,0,0,0,-1,1994,785,0,0
777,239,0,0,0,0,0,0,0,0,0,-1,2001,785,0,0
784,239,0,0,0,0,0,0,0,0,0,-1,2008,785,0,0
791,239,0,0,0,0,0,0,0,0,0,-1,2015,785,0,0
798,239,0,0,0,0,0,0,0,0,0,-1,2022,785,0,0
805,239,0,0,0,0,0,0,0,0,0,-1,2029,785,0,0
812,239,0,0,0,0,0,0,0,0,0,-1,2036,785,0,0
-700,232,0,0,0,0,0,0,0,0,0,-1,524,792,0,0
-693,232,0,0,0,0,0,0,0,0,0,-1,531,792,0,0
-686,232,0,0,0,0,0,0,0,0,0,-1,538,792,0,0
-679,232,0,0,0,0,0,0,0,0,0,-1,545,792,0,0
-672,232,0,0,0,0,0,0,0,0,0,-1,552,792,0,0
-665,232,0,0,0,0,0,0,0,0,0,-1,559,792,0,0
-658,232,0,0,0,0,0,0,0,0,0,-1,566,792,0,0
-651,232,0,0,0,0,0,0,0,0,0,-1,573,792,0,0
-644,232,-41.2348,4.28168,0,0,0,0,0,0,0,-1,580,792,-41.2348,-4.28166
-637,232,-42.1427,3.51453,0,0,0,0,0,0,0,-1,587,792,-42.1427,-3.51452
-630,232,-32.2345,1.80212,0,0,0,0,0,0,0,-1,594,792,-32.2345,-1.80211
-623,232,-31.5665,1.05115,0,0,0,0,0,0,0,-1,601,792,-31.5664,-1.05112
-616,232,-30.6812,0.432861,0,0,0,0,0,0,0,-1,608,792,-30.6812,-0.432881
-609,232,-29.7142,-0.478943,0,0,0,0,0,0,0,-1,615,792,-29.7142,0.478965
-602,232,-35.4761,4.49524,0,0,0,0,0,0,0,-1,622,792,-35.4761,-4.49527
-595,232,-35.3942,3.28302,0.00208042,0.0082797,-0.00990526,0.015559,-0.00519886,-0.937036,0.0124722,0.0372437,629,792,-35.3942,-3.28301
-588,232,-35.424,2.06152,0.00181651,0.00634425,-0.00723121,0.0116577,-0.00349693,-0.9371,0.00916263,0.0139252,636,792,-35.424,-2.06152
-581,232,-35.4756,1.11847,0.00143208,0.00475929,-0.00488261,0.00825393,-0.00206256,-0.94959,0.00630364,0.00925361,643,792,-35.4756,-1.11846
-574,232,-35.5148,0.286438,0.00099034,0.00344493,-0.00279439,0.00526966,-0.000834396,-0.992316,0.00382172,0.00937484,650,792,-35.5148,-0.286418
-567,232,-35.5772,-0.558899,0.00046436,0.00243885,-0.00105972,0.00289994,3.27313e-06,-1.1604,0.0019322,0.0110629,657,792,-35.5772,0.558908
-560,232,-35.6457,-1.39099,-0.00038673,0.00157361,8.50635e-05,0.0015773,-0.000390414,1.52751,0.00120298,0.0160262,664,792,-35.6457,1.39096
-553,232,-35.7141,-2.21906,-0.00144448,0.000832029,0.000689841,0.00102475,-0.00163721,1.29837,0.00155038,0.0157906,671,792,-35.7141,2.21907
-546,232,-35.7599,-3.01471,-0.00129476,0.000475893,0.00126483,0.00113446,-0.00195332,1.09075,0.00180351,0.0295731,678,792,-35.76,3.01471
-539,232,-36.0236,-3.81927,0,0,0,0,0,0,0,-1,685,792,-36.0236,3.81926
-532,232,-36.3817,-4.46875,0,0,0,0,0,0,0,-1,692,792,-36.3816,4.46872
-525,232,-36.1438,-5.48553,0,0,0,0,0,0,0,-1,699,792,-36.1438,5.48554
-518,232,-20.8098,-3.08154,0,0,0,0,0,0,0,-1,706,792,-20.8098,3.08155
-511,232,-21.6708,-0.962708,0,0,0,0,0,0,0,-1,713,792,-21.6708,0.962731
-504,232,-34.2155,0.346985,0,0,0,0,0,0,0,-1,720,792,-34.2155,-0.346955
-497,232,-52.7195,0.518677,0,0,0,0,0,0,0,-1,727,792,-52.7195,-0.518678
-490,232,-55.1912,0.532227,0,0,0,0,0,0,0,-1,734,792,-55.1912,-0.53224
-483,232,-55.3615,0.335571,0.0174245,-0.00988235,0.00537811,0.0184455,-0.0109034,0.187619,0.0171301,0.0424073,741,792,-55.3615,-0.335576
-476,232,-55.046,0.621338,0.0212204,-0.0110601,0.00643418,0.0224556,-0.0122953,0.189668,0.0203473,0.0358579,748,792,-55.046,-0.62136
-469,232,-54.957,0.767822,0.0244353,-0.0119563,0.00764072,0.0259745,-0.0134954,0.198779,0.0231645,0.0352333,755,792,-54.9571,-0.767826
-462,232,0,0,0,0,0,0,0,0,0,-1,762,792,0,0
-455,232,0,0,0,0,0,0,0,0,0,-1,769,792,0,0
-448,232,0,0,0,0,0,0,0,0,0,-1,776,792,0,0
-441,232,0,0,0,0,0,0,0,0,0,-1,783,792,0,0
-434,232,0,0,0,0,0,0,0,0,0,-1,790,792,0,0
-427,232,0,0,0,0,0,0,0,0,0,-1,797,792,0,0
-420,232,0,0,0,0,0,0,0,0,0,-1,804,792,0,0
-413,232,0,0,0,0,0,0,0,0,0,-1,811,792,0,0
-406,232,0,0,0,0,0,0,0,0,0,-1,818,792,0,0
-399,232,0,0,0,0,0,0,0,0,0,-1,825,792,0,0
-392,232,0,0,0,0,0,0,0,0,0,-1,832,792,0,0
-385,232,0,0,0,0,0,0,0,0,0,-1,839,792,0,0
-378,232,0,0,0,0,0,0,0,0,0,-1,846,792,0,0
-371,232,0,0,0,0,0,0,0,0,0,-1,853,792,0,0
-364,232,0,0,0,0,0,0,0,0,0,-1,860,792,0,0
-357,232,0,0,0,0,0,0,0,0,0,-1,867,792,0,0
-350,232,0,0,0,0,0,0,0,0,0,-1,874,792,0,0
-343,232,0,0,0,0,0,0,0,0,0,-1,881,792,0,0
-336,232,0,0,0,0,0,0,0,0,0,-1,888,792,0,0
-329,232,0,0,0,0,0,0,0,0,0,-1,895,792,0,0
-322,232,0,0,0,0,0,0,0,0,0,-1,902,792,0,0
-315,232,0,0,0,0,0,0,0,0,0,-1,909,792,0,0
-308,232,0,0,0,0,0,0,0,0,0,-1,916,792,0,0
-301,232,0,0,0,0,0,0,0,0,0,-1,923,792,0,0
-294,232,0,0,0,0,0,0,0,0,0,-1,930,792,0,0
-287,232,0,0,0,0,0,0,0,0,0,-1,937,792,0,0
-280,232,0,0,0,0,0,0,0,0,0,-1,944,792,0,0
-273,232,0,0,0,0,0,0,0,0,0,-1,951,792,0,0
-266,232,0,0,0,0,0,0,0,0,0,-1,958,792,0,0
-259,232,0,0,0,0,0,0,0,0,0,-1,965,792,0,0
-252,232,0,0,0,0,0,0,0,0,0,-1,972,792,0,0
-245,232,0,0,0,0,0,0,0,0,0,-1,979,792,0,0
-238,232,0,0,0,0,0,0,0,0,0,-1,986,792,0,0
-231,232,0,0,0,0,0,0,0,0,0,-1,993,792,0,0
-224,232,0,0,0,0,0,0,0,0,0,-1,1000,792,0,0
-217,232,0,0,0,0,0,0,0,0,0,-1,1007,792,0,0
-210,232,0,0,0,0,0,0,0,0,0,-1,1014,792,0,0
-203,232,0,0,0,0,0,0,0,0,0,-1,1021,792,0,0
-196,232,0,0,0,0,0,0,0,0,0,-1,1028,792,0,0
-189,232,0,0,0,0,0,0,0,0,0,-1,1035,792,0,0
-182,232,0,0,0,0,0,0,0,0,0,-1,1042,792,0,0
-175,232,0,0,0,0,0,0,0,0,0,-1,1049,792,0,0
-168,232,0,0,0,0,0,0,0,0,0,-1,1056,792,0,0
-161,232,0,0,0,0,0,0,0,0,0,-1,1063,792,0,0
-154,232,0,0,0,0,0,0,0,0,0,-1,1070,792,0,0
-147,232,0,0,0,0,0,0,0,0,0,-1,1077,792,0,0
-140,232,0,0,0,0,0,0,0,0,0,-1,1084,792,0,0
-133,232,0,0,0,0,0,0,0,0,0,-1,1091,792,0,0
-126,232,0,0,0,0,0,0,0,0,0,-1,1098,792,0,0
-119,232,0,0,0,0,0,0,0,0,0,-1,1105,792,0,0
-112,232,0,0,0,0,0,0,0,0,0,-1,1112,792,0,0
-105,232,0,0,0,0,0,0,0,0,0,-1,1119,792,0,0
-98,232,0,0,0,0,0,0,0,0,0,-1,1126,792,0,0
-91,232,0,0,0,0,0,0,0,0,0,-1,1133,792,0,0
-84,232,0,0,0,0,0,0,0,0,0,-1,1140,792,0,0
-77,232,0,0,0,0,0,0,0,0,0,-1,1147,792,0,0
-70,232,0,0,0,0,0,0,0,0,0,-1,1154,792,0,0
-63,232,0,0,0,0,0,0,0,0,0,-1,1161,792,0,0
-56,232,0,0,0,0,0,0,0,0,0,-1,1168,792,0,0
-49,232,0,0,0,0,0,0,0,0,0,-1,1175,792,0,0
-42,232,0,0,0,0,0,0,0,0,0,-1,1182,792,0,0
-35,232,0,0,0,0,0,0,0,0,0,-1,1189,792,0,0
-28,232,0,0,0,0,0,0,0,0,0,-1,1196,792,0,0
-21,232,0,0,0,0,0,0,0,0,0,-1,1203,792,0,0
-14,232,0,0,0,0,0,0,0,0,0,-1,1210,792,0,0
-7,232,0,0,0,0,0,0,0,0,0,-1,1217,792,0,0
0,232,0,0,0,0,0,0,0,0,0,-1,1224,792,0,0
7,232,0,0,0,0,0,0,0,0,0,-1,1231,792,0,0
14,232,0,0,0,0,0,0,0,0,0,-1,1238,792,0,0
21,232,0,0,0,0,0,0,0,0,0,-1,1245,792,0,0
28,232,0,0,0,0,0,0,0,0,0,-1,1252,792,0,0
35,232,0,0,0,0,0,0,0,0,0,-1,1259,792,0,0
42,232,0,0,0,0,0,0,0,0,0,-1,1266,792,0,0
49,232,0,0,0,0,0,0,0,0,0,-1,1273,792,0,0
56,232,0,0,0,0,0,0,0,0,0,-1,1280,792,0,0
63,232,0,0,0,0,0,0,0,0,0,-1,1287,792,0,0
70,232,0,0,0,0,0,0,0,0,0,-1,1294,792,0,0
77,232,0,0,0,0,0,0,0,0,0,-1,1301,792,0,0
84,232,0,0,0,0,0,0,0,0,0,-1,1308,792,0,0
91,232,0,0,0,0,0,0,0,0,0,-1,1315,792,0,0
98,232,0,0,0,0,0,0,0,0,0,-1,1322,792,0,0
105,232,0,0,0,0,0,0,0,0,0,-1,1329,792,0,0
112,232,0,0,0,0,0,0,0,0,0,-1,1336,792,0,0
119,232,0,0,0,0,0,0,0,0,0,-1,1343,792,0,0
126,232,0,0,0,0,0,0,0,0,0,-1,1350,792,0,0
133,232,0,0,0,0,0,0,0,0,0,-1,1357,792,0,0
140,232,0,0,0,0,0,0,0,0,0,-1,1364,792,0,0
147,232,0,0,0,0,0,0,0,0,0,-1,1371,792,0,0
154,232,0,0,0,0,0,0,0,0,0,-1,1378,792,0,0
161,232,0,0,0,0,0,0,0,0,0,-1,1385,792,0,0
168,232,0,0,0,0,0,0,0,0,0,-1,1392,792,0,0
175,232,0,0,0,0,0,0,0,0,0,-1,1399,792,0,0
182,232,0,0,0,0,0,0,0,0,0,-1,1406,792,0,0
189,232,0,0,0,0,0,0,0,0,0,-1,1413,792,0,0
196,232,0,0,0,0,0,0,0,0,0,-1,1420,792,0,0
203,232,0,0,0,0,0,0,0,0,0,-1,1427,792,0,0
210,232,0,0,0,0,0,0,0,0,0,-1,1434,792,0,0
217,232,0,0,0,0,0,0,0,0,0,-1,1441,792,0,0
224,232,0,0,0,0,0,0,0,0,0,-1,1448,792,0,0
231,232,0,0,0,0,0,0,0,0,0,-1,1455,792,0,0
238,232,0,0,0,0,0,0,0,0,0,-1,1462,792,0,0
245,232,0,0,0,0,0,0,0,0,0,-1,1469,792,0,0
252,232,0,0,0,0,0,0,0,0,0,-1,1476,792,0,0
259,232,0,0,0,0,0,0,0,0,0,-1,1483,792,0,0
266,232,0,0,0,0,0,0,0,0,0,-1,1490,792,0,0
273,232,0,0,0,0,0,0,0,0,0,-1,1497,792,0,0
280,232,0,0,0,0,0,0,0,0,0,-1,1504,792,0,0
287,232,0,0,0,0,0,0,0,0,0,-1,1511,792,0,0
294,232,0,0,0,0,0,0,0,0,0,-1,1518,792,0,0
301,232,0,0,0,0,0,0,0,0,0,-1,1525,792,0,0
308,232,0,0,0,0,0,0,0,0,0,-1,1532,792,0,0
315,232,0,0,0,0,0,0,0,0,0,-1,1539,792,0,0
322,232,0,0,0,0,0,0,0,0,0,-1,1546,792,0,0
329,232,0,0,0,0,0,0,0,0,0,-1,1553,792,0,0
336,232,0,0,0,0,0,0,0,0,0,-1,1560,792,0,0
343,232,0,0,0,0,0,0,0,0,0,-1,1567,792,0,0
350,232,0,0,0,0,0,0,0,0,0,-1,1574,792,0,0
357,232,0,0,0,0,0,0,0,0,0,-1,1581,792,0,0
364,232,0,0,0,0,0,0,0,0,0,-1,1588,792,0,0
371,232,0,0,0,0,0,0,0,0,0,-1,1595,792,0,0
378,232,0,0,0,0,0,0,0,0,0,-1,1602,792,0,0
385,232,0,0,0,0,0,0,0,0,0,-1,1609,792,0,0
392,232,0,0,0,0,0,0,0,0,0,-1,1616,792,0,0
399,232,0,0,0,0,0,0,0,0,0,-1,1623,792,0,0
406,232,0,0,0,0,0,0,0,0,0,-1,1630,792,0,0
413,232,0,0,0,0,0,0,0,0,0,-1,1637,792,0,0
420,232,0,0,0,0,0,0,0,0,0,-1,1644,792,0,0
427,232,0,0,0,0,0,0,0,0,0,-1,1651,792,0,0
434,232,0,0,0,0,0,0,0,0,0,-1,1658,792,0,0
441,232,0,0,0,0,0,0,0,0,0,-1,1665,792,0,0
448,232,0,0,0,0,0,0,0,0,0,-1,1672,792,0,0
455,232,0,0,0,0,0,0,0,0,0,-1,1679,792,0,0
462,232,0,0,0,0,0,0,0,0,0,-1,1686,792,0,0
469,232,0,0,0,0,0,0,0,0,0,-1,1693,792,0,0
476,232,0,0,0,0,0,0,0,0,0,-1,1700,792,0,0
483,232,0,0,0,0,0,0,0,0,0,-1,1707,792,0,0
490,232,0,0,0,0,0,0,0,0,0,-1,1714,792,0,0
497,232,0,0,0,0,0,0,0,0,0,-1,1721,792,0,0
504,232,0,0,0,0,0,0,0,0,0,-1,1728,792,0,0
511,232,0,0,0,0,0,0,0,0,0,-1,1735,792,0,0
518,232,0,0,0,0,0,0,0,0,0,-1,1742,792,0,0
525,232,0,0,0,0,0,0,0,0,0,-1,1749,792,0,0
532,232,0,0,0,0,0,0,0,0,0,-1,1756,792,0,0
539,232,0,0,0,0,0,0,0,0,0,-1,1763,792,0,0
546,232,0,0,0,0,0,0,0,0,0,-1,1770,792,0,0
553,232,0,0,0,0,0,0,0,0,0,-1,1777,792,0,0
560,232,0,0,0,0,0,0,0,0,0,-1,1784,792,0,0
567,232,0,0,0,0,0,0,0,0,0,-1,1791,792,0,0
574,232,0,0,0,0,0,0,0,0,0,-1,1798,792,0,0
581,232,0,0,0,0,0,0,0,0,0,-1,1805,792,0,0
588,232,70.7006,2.42999,0.0033202,-0.00214501,0.000818917,0.00344027,-0.00226508,0.145583,0.0033172,0.0392623,1812,792,70.7006,-2.43
595,232,70.6802,2.33923,0.00457472,0.000249657,0.00292173,0.00604717,-0.00122278,0.466813,0.00449483,0.0392281,1819,792,70.6802,-2.33924
602,232,70.6758,2.40552,0.00458914,0.00175241,0.00376245,0.00719169,-0.000850141,0.605146,0.00510151,0.0399511,1826,792,70.6758,-2.40549
609,232,70.8047,2.32471,0.00392309,0.00242423,0.00384384,0.00708987,-0.000742556,0.689122,0.00499254,0.0476965,1833,792,70.8047,-2.32473
616,232,70.8677,2.45239,0,0,0,0,0,0,0,-1,1840,792,70.8677,-2.45237
623,232,70.4993,2.90906,0,0,0,0,0,0,0,-1,1847,792,70.4992,-2.90906
630,232,64.9034,2.97992,0,0,0,0,0,0,0,-1,1854,792,64.9035,-2.9799
637,232,47.0471,4.04309,0,0,0,0,0,0,0,-1,1861,792,47.0471,-4.04309
644,232,30.7756,4.24139,0,0,0,0,0,0,0,-1,1868,792,30.7757,-4.24141
651,232,31.6797,-0.564087,0,0,0,0,0,0,0,-1,1875,792,31.6797,0.564059
658,232,46.7423,-3.10736,0,0,0,0,0,0,0,-1,1882,792,46.7423,3.10735
665,232,50.3114,-3.11823,0,0,0,0,0,0,0,-1,1889,792,50.3114,3.11823
672,232,50.4427,-2.19275,0,0,0,0,0,0,0,-1,1896,792,50.4427,2.19275
679,232,50.4542,-1.27905,-0.000104295,0.000568447,0.000169164,0.000608588,-0.000144437,1.33781,0.000461468,0.0215169,1903,792,50.4543,1.27905
686,232,50.4235,-0.389832,-9.96486e-06,0.000409647,-0.000133952,0.000448763,-4.90801e-05,-1.28669,0.000316805,0.0203399,1910,792,50.4234,0.389815
693,232,50.3744,0.384094,0.000216861,0.000465725,-0.000194767,0.000572415,0.000110171,-1.06966,0.000350703,0.0125392,1917,792,50.3744,-0.384079
700,232,50.3738,1.20001,0.00054191,0.000800019,4.73615e-05,0.000808435,0.000533493,1.39493,0.00047464,0.0152448,1924,792,50.3738,-1.20003
707,232,50.3417,2.04889,0.00108991,0.00125061,0.000433754,0.00161139,0.000729128,0.876981,0.000931738,0.014444,1931,792,50.3417,-2.04888
714,232,50.27,2.88623,0.00164944,0.00168437,0.000959063,0.00262613,0.000707682,0.794501,0.00156899,0.0141321,1938,792,50.27,-2.88624
721,232,50.2006,3.75061,0.00231686,0.002141,0.00160775,0.00383908,0.00061878,0.758078,0.00238009,0.0203231,1945,792,50.2006,-3.7506
728,232,50.1027,4.67719,0,0,0,0,0,0,0,-1,1952,792,50.1026,-4.67719
735,232,49.8849,5.8241,0,0,0,0,0,0,0,-1,1959,792,49.8849,-5.82411
742,232,25.6461,6.00684,0,0,0,0,0,0,0,-1,1966,792,25.6461,-6.00684
749,232,31.2874,3.74713,0,0,0,0,0,0,0,-1,1973,792,31.2874,-3.74713
756,232,34.9586,15.3984,0,0,0,0,0,0,0,-1,1980,792,34.9586,-15.3984
763,232,33.9954,15.86,0,0,0,0,0,0,0,-1,1987,792,33.9954,-15.86
770,232,0,0,0,0,0,0,0,0,0,-1,1994,792,0,0
777,232,0,0,0,0,0,0,0,0,0,-1,2001,792,0,0
784,232,0,0,0,0,0,0,0,0,0,-1,2008,792,0,0
791,232,0,0,0,0,0,0,0,0,0,-1,2015,792,0,0
798,232,0,0,0,0,0,0,0,0,0,-1,2022,792,0,0
805,232,0,0,0,0,0,0,0,0,0,-1,2029,792,0,0
812,232,0,0,0,0,0,0,0,0,0,-1,2036,792,0,0
-700,225,0,0,0,0,0,0,0,0,0,-1,524,799,0,0
-693,225,0,0,0,0,0,0,0,0,0,-1,531,799,0,0
-686,225,0,0,0,0,0,0,0,0,0,-1,538,799,0,0
-679,225,0,0,0,0,0,0,0,0,0,-1,545,799,0,0
-672,225,0,0,0,0,0,0,0,0,0,-1,552,799,0,0
-665,225,0,0,0,0,0,0,0,0,0,-1,559,799,0,0
-658,225,0,0,0,0,0,0,0,0,0,-1,566,799,0,0
-651,225,0,0,0,0,0,0,0,0,0,-1,573,799,0,0
-644,225,-40.8898,4.14661,0,0,0,0,0,0,0,-1,580,799,-40.8898,-4.14661
-637,225,-41.61,3.36749,0,0,0,0,0,0,0,-1,587,799,-41.61,-3.36751
-630,225,-30.244,4.82196,0,0,0,0,0,0,0,-1,594,799,-30.244,-4.82193
-623,225,-32.8276,-0.00836182,0,0,0,0,0,0,0,-1,601,799,-32.8276,0.00837668
-616,225,-32.0569,-0.549255,0,0,0,0,0,0,0,-1,608,799,-32.0569,0.549265
-609,225,-36.189,5.68158,0,0,0,0,0,0,0,-1,615,799,-36.189,-5.68158
-602,225,-36.3459,4.26581,0.00235452,0.0115387,-0.0114,0.0192367,-0.00534349,-0.976864,0.0149279,0.0474535,622,799,-36.3459,-4.26582
-595,225,-36.3214,2.92328,0.00205962,0.00878383,-0.0086213,0.0146754,-0.00383196,-0.971316,0.01128,0.0321018,629,799,-36.3214,-2.92327
-588,225,-36.2877,1.97083,0.00178051,0.00654707,-0.00615309,0.0107623,-0.00243473,-0.970167,0.00810921,0.013583,636,799,-36.2877,-1.9708
-581,225,-36.3171,1.14661,0.00143663,0.00474308,-0.00393692,0.00735981,-0.0011801,-0.984182,0.00534352,0.0116073,643,799,-36.3171,-1.1466
-574,225,-36.3623,0.332336,0.00102035,0.00330284,-0.00196891,0.00443734,-0.000114156,-1.04805,0.002997,0.00954021,650,799,-36.3623,-0.332331
-567,225,-36.4114,-0.514832,0.000519953,0.00229257,-0.000328717,0.00235156,0.000460959,-1.39322,0.00143888,0.0124165,657,799,-36.4114,0.51484
-560,225,-36.47,-1.34265,-0.00056836,0.0014777,0.000410942,0.00155715,-0.00064781,1.37981,0.00130862,0.0145591,664,799,-36.47,1.34263
-553,225,-36.5412,-2.16669,-0.00187598,0.000845584,0.000560413,0.000956465,-0.00198686,1.37546,0.00173369,0.0133169,671,799,-36.5412,2.16668
-546,225,-36.6569,-2.94794,0,0,0,0,0,0,0,-1,678,799,-36.6569,2.94791
-539,225,-36.8017,-3.88788,0,0,0,0,0,0,0,-1,685,799,-36.8017,3.88787
-532,225,-37.7279,-4.29803,0,0,0,0,0,0,0,-1,692,799,-37.7279,4.29805
-525,225,-29.1705,-3.88239,0,0,0,0,0,0,0,-1,699,799,-29.1705,3.88237
-518,225,-21.963,0.171326,0,0,0,0,0,0,0,-1,706,799,-21.9629,-0.171319
-511,225,-33.0002,0.660217,0,0,0,0,0,0,0,-1,713,799,-33.0002,-0.660239
-504,225,-50.4542,0.524109,0,0,0,0,0,0,0,-1,720,799,-50.4542,-0.524105
-497,225,-55.3993,0.579224,0,0,0,0,0,0,0,-1,727,799,-55.3993,-0.579234
-490,225,-55.1926,0.530945,0.0132766,-0.00868925,0.00466285,0.0142254,-0.00963808,0.200746,0.0138622,0.038344,734,799,-55.1926,-0.530941
-483,225,-55.1264,0.558655,0.0171377,-0.0102097,0.00539942,0.0181652,-0.0112371,0.18804,0.0171318,0.0318327,741,799,-55.1264,-0.558654
-476,225,-54.9659,0.707458,0.0209766,-0.0116708,0.00657676,0.0222516,-0.0129458,0.191501,0.0205567,0.0315927,748,799,-54.966,-0.707474
-469,225,-54.8503,0.936829,0.0240171,-0.0126637,0.00798209,0.0256788,-0.0143254,0.205247,0.0234045,0.0370588,755,799,-54.8503,-0.936811
-462,225,0,0,0,0,0,0,0,0,0,-1,762,799,0,0
-455,225,0,0,0,0,0,0,0,0,0,-1,769,799,0,0
-448,225,0,0,0,0,0,0,0,0,0,-1,776,799,0,0
-441,225,0,0,0,0,0,0,0,0,0,-1,783,799,0,0
-434,225,0,0,0,0,0,0,0,0,0,-1,790,799,0,0
-427,225,0,0,0,0,0,0,0,0,0,-1,797,799,0,0
-420,225,0,0,0,0,0,0,0,0,0,-1,804,799,0,0
-413,225,0,0,0,0,0,0,0,0,0,-1,811,799,0,0
-406,225,0,0,0,0,0,0,0,0,0,-1,818,799,0,0
-399,225,0,0,0,0,0,0,0,0,0,-1,825,799,0,0
-392,225,0,0,0,0,0,0,0,0,0,-1,832,799,0,0
-385,225,0,0,0,0,0,0,0,0,0,-1,839,799,0,0
-378,225,0,0,0,0,0,0,0,0,0,-1,846,799,0,0
-371,225,0,0,0,0,0,0,0,0,0,-1,853,799,0,0
-364,225,0,0,0,0,0,0,0,0,0,-1,860,799,0,0
-357,225,0,0,0,0,0,0,0,0,0,-1,867,799,0,0
-350,225,0,0,0,0,0,0,0,0,0,-1,874,799,0,0
-343,225,0,0,0,0,0,0,0,0,0,-1,881,799,0,0
-336,225,0,0,0,0,0,0,0,0,0,-1,888,799,0,0
-329,225,0,0,0,0,0,0,0,0,0,-1,895,799,0,0
-322,225,0,0,0,0,0,0,0,0,0,-1,902,799,0,0
-315,225,0,0,0,0,0,0,0,0,0,-1,909,799,0,0
-308,225,0,0,0,0,0,0,0,0,0,-1,916,799,0,0
-301,225,0,0,0,0,0,0,0,0,0,-1,923,799,0,0
-294,225,0,0,0,0,0,0,0,0,0,-1,930,799,0,0
-287,225,0,0,0,0,0,0,0,0,0,-1,937,799,0,0
-280,225,0,0,0,0,0,0,0,0,0,-1,944,799,0,0
-273,225,0,0,0,0,0,0,0,0,0,-1,951,799,0,0
-266,225,0,0,0,0,0,0,0,0,0,-1,958,799,0,0
-259,225,0,0,0,0,0,0,0,0,0,-1,965,799,0,0
-252,225,0,0,0,0,0,0,0,0,0,-1,972,799,0,0
-245,225,0,0,0,0,0,0,0,0,0,-1,979,799,0,0
-238,225,0,0,0,0,0,0,0,0,0,-1,986,799,0,0
-231,225,0,0,0,0,0,0,0,0,0,-1,993,799,0,0
-224,225,0,0,0,0,0,0,0,0,0,-1,1000,799,0,0
-217,225,0,0,0,0,0,0,0,0,0,-1,1007,799,0,0
-210,225,0,0,0,0,0,0,0,0,0,-1,1014,799,0,0
-203,225,0,0,0,0,0,0,0,0,0,-1,1021,799,0,0
-196,225,0,0,0,0,0,0,0,0,0,-1,1028,799,0,0
-189,225,0,0,0,0,0,0,0,0,0,-1,1035,799,0,0
-182,225,0,0,0,0,0,0,0,0,0,-1,1042,799,0,0
-175,225,0,0,0,0,0,0,0,0,0,-1,1049,799,0,0
-168,225,0,0,0,0,0,0,0,0,0,-1,1056,799,0,0
-161,225,0,0,0,0,0,0,0,0,0,-1,1063,799,0,0
-154,225,0,0,0,0,0,0,0,0,0,-1,1070,799,0,0
-147,225,0,0,0,0,0,0,0,0,0,-1,1077,799,0,0
-140,225,0,0,0,0,0,0,0,0,0,-1,1084,799,0,0
-133,225,0,0,0,0,0,0,0,0,0,-1,1091,799,0,0
-126,225,0,0,0,0,0,0,0,0,0,-1,1098,799,0,0
-119,225,0,0,0,0,0,0,0,0,0,-1,1105,799,0,0
-112,225,0,0,0,0,0,0,0,0,0,-1,1112,799,0,0
-105,225,0,0,0,0,0,0,0,0,0,-1,1119,799,0,0
-98,225,0,0,0,0,0,0,0,0,0,-1,1126,799,0,0
-91,225,0,0,0,0,0,0,0,0,0,-1,1133,799,0,0
-84,225,0,0,0,0,0,0,0,0,0,-1,1140,799,0,0
-77,225,0,0,0,0,0,0,0,0,0,-1,1147,799,0,0
-70,225,0,0,0,0,0,0,0,0,0,-1,1154,799,0,0
-63,225,0,0,0,0,0,0,0,0,0,-1,1161,799,0,0
-56,225,0,0,0,0,0,0,0,0,0,-1,1168,799,0,0
-49,225,0,0,0,0,0,0,0,0,0,-1,1175,799,0,0
-42,225,0,0,0,0,0,0,0,0,0,-1,1182,799,0,0
-35,225,0,0,0,0,0,0,0,0,0,-1,1189,799,0,0
-28,225,0,0,0,0,0,0,0,0,0,-1,1196,799,0,0
-21,225,0,0,0,0,0,0,0,0,0,-1,1203,799,0,0
-14,225,0,0,0,0,0,0,0,0,0,-1,1210,799,0,0
-7,225,0,0,0,0,0,0,0,0,0,-1,1217,799,0,0
0,225,0,0,0,0,0,0,0,0,0,-1,1224,799,0,0
7,225,0,0,0,0,0,0,0,0,0,-1,1231,799,0,0
14,225,0,0,0,0,0,0,0,0,0,-1,1238,799,0,0
21,225,0,0,0,0,0,0,0,0,0,-1,1245,799,0,0
28,225,0,0,0,0,0,0,0,0,0,-1,1252,799,0,0
35,225,0,0,0,0,0,0,0,0,0,-1,1259,799,0,0
42,225,0,0,0,0,0,0,0,0,0,-1,1266,799,0,0
49,225,0,0,0,0,0,0,0,0,0,-1,1273,799,0,0
56,225,0,0,0,0,0,0,0,0,0,-1,1280,799,0,0
63,225,0,0,0,0,0,0,0,0,0,-1,1287,799,0,0
70,225,0,0,0,0,0,0,0,0,0,-1,1294,799,0,0
77,225,0,0,0,0,0,0,0,0,0,-1,1301,799,0,0
84,225,0,0,0,0,0,0,0,0,0,-1,1308,799,0,0
91,225,0,0,0,0,0,0,0,0,0,-1,1315,799,0,0
98,225,0,0,0,0,0,0,0,0,0,-1,1322,799,0,0
105,225,0,0,0,0,0,0,0,0,0,-1,1329,799,0,0
112,225,0,0,0,0,0,0,0,0,0,-1,1336,799,0,0
119,225,0,0,0,0,0,0,0,0,0,-1,1343,799,0,0
126,225,0,0,0,0,0,0,0,0,0,-1,1350,799,0,0
133,225,0,0,0,0,0,0,0,0,0,-1,1357,799,0,0
140,225,0,0,0,0,0,0,0,0,0,-1,1364,799,0,0
147,225,0,0,0,0,0,0,0,0,0,-1,1371,799,0,0
154,225,0,0,0,0,0,0,0,0,0,-1,1378,799,0,0
161,225,0,0,0,0,0,0,0,0,0,-1,1385,799,0,0
168,225,0,0,0,0,0,0,0,0,0,-1,1392,799,0,0
175,225,0,0,0,0,0,0,0,0,0,-1,1399,799,0,0
182,225,0,0,0,0,0,0,0,0,0,-1,1406,799,0,0
189,225,0,0,0,0,0,0,0,0,0,-1,1413,799,0,0
196,225,0,0,0,0,0,0,0,0,0,-1,1420,799,0,0
203,225,0,0,0,0,0,0,0,0,0,-1,1427,799,0,0
210,225,0,0,0,0,0,0,0,0,0,-1,1434,799,0,0
217,225,0,0,0,0,0,0,0,0,0,-1,1441,799,0,0
224,225,0,0,0,0,0,0,0,0,0,-1,1448,799,0,0
231,225,0,0,0,0,0,0,0,0,0,-1,1455,799,0,0
238,225,0,0,0,0,0,0,0,0,0,-1,1462,799,0,0
245,225,0,0,0,0,0,0,0,0,0,-1,1469,799,0,0
252,225,0,0,0,0,0,0,0,0,0,-1,1476,799,0,0
259,225,0,0,0,0,0,0,0,0,0,-1,1483,799,0,0
266,225,0,0,0,0,0,0,0,0,0,-1,1490,799,0,0
273,225,0,0,0,0,0,0,0,0,0,-1,1497,799,0,0
280,225,0,0,0,0,0,0,0,0,0,-1,1504,799,0,0
287,225,0,0,0,0,0,0,0,0,0,-1,1511,799,0,0
294,225,0,0,0,0,0,0,0,0,0,-1,1518,799,0,0
301,225,0,0,0,0,0,0,0,0,0,-1,1525,799,0,0
308,225,0,0,0,0,0,0,0,0,0,-1,1532,799,0,0
315,225,0,0,0,0,0,0,0,0,0,-1,1539,799,0,0
322,225,0,0,0,0,0,0,0,0,0,-1,1546,799,0,0
329,225,0,0,0,0,0,0,0,0,0,-1,1553,799,0,0
336,225,0,0,0,0,0,0,0,0,0,-1,1560,799,0,0
343,225,0,0,0,0,0,0,0,0,0,-1,1567,799,0,0
350,225,0,0,0,0,0,0,0,0,0,-1,1574,799,0,0
357,225,0,0,0,0,0,0,0,0,0,-1,1581,799,0,0
364,225,0,0,0,0,0,0,0,0,0,-1,1588,799,0,0
371,225,0,0,0,0,0,0,0,0,0,-1,1595,799,0,0
378,225,0,0,0,0,0,0,0,0,0,-1,1602,799,0,0
385,225,0,0,0,0,0,0,0,0,0,-1,1609,799,0,0
392,225,0,0,0,0,0,0,0,0,0,-1,1616,799,0,0
399,225,0,0,0,0,0,0,0,0,0,-1,1623,799,0,0
406,225,0,0,0,0,0,0,0,0,0,-1,1630,799,0,0
413,225,0,0,0,0,0,0,0,0,0,-1,1637,799,0,0
420,225,0,0,0,0,0,0,0,0,0,-1,1644,799,0,0
427,225,0,0,0,0,0,0,0,0,0,-1,1651,799,0,0
434,225,0,0,0,0,0,0,0,0,0,-1,1658,799,0,0
441,225,0,0,0,0,0,0,0,0,0,-1,1665,799,0,0
448,225,0,0,0,0,0,0,0,0,0,-1,1672,799,0,0
455,225,0,0,0,0,0,0,0,0,0,-1,1679,799,0,0
462,225,0,0,0,0,0,0,0,0,0,-1,1686,799,0,0
469,225,0,0,0,0,0,0,0,0,0,-1,1693,799,0,0
476,225,0,0,0,0,0,0,0,0,0,-1,1700,799,0,0
483,225,0,0,0,0,0,0,0,0,0,-1,1707,799,0,0
490,225,0,0,0,0,0,0,0,0,0,-1,1714,799,0,0
497,225,0,0,0,0,0,0,0,0,0,-1,1721,799,0,0
504,225,0,0,0,0,0,0,0,0,0,-1,1728,799,0,0
511,225,0,0,0,0,0,0,0,0,0,-1,1735,799,0,0
518,225,0,0,0,0,0,0,0,0,0,-1,1742,799,0,0
525,225,0,0,0,0,0,0,0,0,0,-1,1749,799,0,0
532,225,0,0,0,0,0,0,0,0,0,-1,1756,799,0,0
539,225,0,0,0,0,0,0,0,0,0,-1,1763,799,0,0
546,225,0,0,0,0,0,0,0,0,0,-1,1770,799,0,0
553,225,0,0,0,0,0,0,0,0,0,-1,1777,799,0,0
560,225,0,0,0,0,0,0,0,0,0,-1,1784,799,0,0
567,225,0,0,0,0,0,0,0,0,0,-1,1791,799,0,0
574,225,0,0,0,0,0,0,0,0,0,-1,1798,799,0,0
581,225,0,0,0,0,0,0,0,0,0,-1,1805,799,0,0
588,225,70.8799,2.43097,0.00186363,-0.00347122,-0.00169644,0.00235738,-0.00396498,-0.28323,0.00368934,0.0384426,1812,799,70.8799,-2.43097
595,225,70.7534,2.36987,0.00319347,-0.000824204,0.000953238,0.00340816,-0.0010389,0.221529,0.00268623,0.0377201,1819,799,70.7534,-2.36989
602,225,70.6509,2.39569,0.00356098,0.00123412,0.00270714,0.0053441,-0.000549007,0.582449,0.00375912,0.0334917,1826,799,70.6509,-2.3957
609,225,70.7006,2.39502,0.00319399,0.00236286,0.00340072,0.00620444,-0.00064759,0.7246,0.00436818,0.031665,1833,799,70.7005,-2.39502
616,225,70.7563,2.41095,0.00282219,0.00283801,0.00343812,0.00626823,-0.000608034,0.786549,0.00439554,0.039349,1840,799,70.7563,-2.41094
623,225,70.6364,2.67792,0.00253108,0.00286694,0.00319825,0.00590167,-0.000503644,0.811628,0.00411262,0.0453559,1847,799,70.6364,-2.6779
630,225,70.646,2.83118,0,0,0,0,0,0,0,-1,1854,799,70.646,-2.83119
637,225,55.6359,2.8064,0,0,0,0,0,0,0,-1,1861,799,55.6359,-2.80637
644,225,42.0298,2.46411,0,0,0,0,0,0,0,-1,1868,799,42.0298,-2.4641
651,225,27.9657,0.579529,0,0,0,0,0,0,0,-1,1875,799,27.9657,-0.579541
658,225,47.9047,-1.92926,0,0,0,0,0,0,0,-1,1882,799,47.9047,1.92927
665,225,47.541,-2.27985,0,0,0,0,0,0,0,-1,1889,799,47.5411,2.27983
672,225,51.3793,-2.34717,0,0,0,0,0,0,0,-1,1896,799,51.3792,2.34714
679,225,51.29,-1.2287,-0.000617152,0.000368032,6.05573e-05,0.000371741,-0.00062086,1.50964,0.000579064,0.0411224,1903,799,51.2901,1.22867
686,225,51.2771,-0.39563,-0.000482998,0.000170228,-0.000327497,0.000306141,-0.000618911,-1.17742,0.000544159,0.0124797,1910,799,51.2771,0.395657
693,225,51.2163,0.414612,-0.000143346,0.000227028,-0.000474668,0.000551354,-0.000467672,-0.971387,0.000588996,0.0116203,1917,799,51.2164,-0.414638
700,225,51.1847,1.24329,0.00021909,0.000622633,-0.000273698,0.000760895,8.08282e-05,-1.10303,0.000482582,0.0137269,1924,799,51.1847,-1.24331
707,225,51.1506,2.09796,0.000863095,0.00118626,0.000160128,0.00125216,0.000797192,1.18036,0.000731881,0.0128205,1931,799,51.1506,-2.09796
714,225,51.0939,2.95862,0.00159415,0.00176988,0.000757442,0.00244454,0.000919494,0.84314,0.00142571,0.0130065,1938,799,51.0939,-2.9586
721,225,51.0787,3.80579,0.00241119,0.00239329,0.00143954,0.0038418,0.000962676,0.78229,0.00230822,0.0169372,1945,799,51.0787,-3.80577
728,225,51.0728,4.67072,0,0,0,0,0,0,0,-1,1952,799,51.0727,-4.6707
735,225,50.6138,5.50348,0,0,0,0,0,0,0,-1,1959,799,50.6138,-5.50349
742,225,29.0922,3.2132,0,0,0,0,0,0,0,-1,1966,799,29.0921,-3.21322
749,225,29.9529,4.45538,0,0,0,0,0,0,0,-1,1973,799,29.9529,-4.45537
756,225,39.5922,11.8015,0,0,0,0,0,0,0,-1,1980,799,39.5922,-11.8015
763,225,38.6727,12.2767,0,0,0,0,0,0,0,-1,1987,799,38.6727,-12.2767
770,225,0,0,0,0,0,0,0,0,0,-1,1994,799,0,0
777,225,0,0,0,0,0,0,0,0,0,-1,2001,799,0,0
784,225,0,0,0,0,0,0,0,0,0,-1,2008,799,0,0
791,225,0,0,0,0,0,0,0,0,0,-1,2015,799,0,0
798,225,0,0,0,0,0,0,0,0,0,-1,2022,799,0,0
805,225,0,0,0,0,0,0,0,0,0,-1,2029,799,0,0
812,225,0,0,0,0,0,0,0,0,0,-1,2036,799,0,0
-700,218,0,0,0,0,0,0,0,0,0,-1,524,806,0,0
-693,218,0,0,0,0,0,0,0,0,0,-1,531,806,0,0
-686,218,0,0,0,0,0,0,0,0,0,-1,538,806,0,0
-679,218,0,0,0,0,0,0,0,0,0,-1,545,806,0,0
-672,218,0,0,0,0,0,0,0,0,0,-1,552,806,0,0
-665,218,0,0,0,0,0,0,0,0,0,-1,559,806,0,0
-658,218,0,0,0,0,0,0,0,0,0,-1,566,806,0,0
-651,218,-40.3778,5.1792,0,0,0,0,0,0,0,-1,573,806,-40.3778,-5.1792
-644,218,-40.7704,4.19714,0,0,0,0,0,0,0,-1,580,806,-40.7704,-4.19714
-637,218,-41.541,3.36328,0,0,0,0,0,0,0,-1,587,806,-41.541,-3.36326
-630,218,-42.1423,2.85565,0,0,0,0,0,0,0,-1,594,806,-42.1423,-2.85567
-623,218,-42.7292,2.59015,0,0,0,0,0,0,0,-1,601,806,-42.7292,-2.59015
-616,218,-20.0258,1.87585,0,0,0,0,0,0,0,-1,608,806,-20.0258,-1.87585
-609,218,-36.6156,4.51379,0,0,0,0,0,0,0,-1,615,806,-36.6156,-4.51377
-602,218,-36.8749,3.63654,0.00256995,0.0117394,-0.00975367,0.0179321,-0.0036228,-1.0051,0.0133275,0.0433095,622,806,-36.8749,-3.63651
-595,218,-37.1321,2.81848,0.00209814,0.00882598,-0.00719516,0.0134047,-0.00248063,-1.00406,0.00986786,0.019988,629,806,-37.1321,-2.81846
-588,218,-37.1386,1.99994,0.00174116,0.00645426,-0.00491962,0.00955262,-0.0013572,-1.00876,0.00686567,0.0123936,636,806,-37.1386,-1.99996
-581,218,-37.1575,1.19989,0.00139813,0.00453485,-0.00283974,0.00621055,-0.000277568,-1.0377,0.00423592,0.012019,643,806,-37.1574,-1.19992
-574,218,-37.218,0.391235,0.00103062,0.00303862,-0.00102544,0.00346972,0.000599514,-1.17281,0.00214147,0.0117018,650,806,-37.218,-0.391244
-567,218,-37.2537,-0.44519,0.000667251,0.00216209,0.000431905,0.00227791,0.000551434,1.30881,0.00137224,0.0196903,657,806,-37.2537,0.445206
-560,218,-37.2973,-1.25861,-0.000566769,0.00155605,0.000621596,0.00172466,-0.000735389,1.3059,0.00145809,0.0192528,664,806,-37.2973,1.25859
-553,218,-37.2179,-2.29791,-0.00196967,0.00105897,0.000283725,0.00108532,-0.00199602,1.47819,0.00180473,0.0193482,671,806,-37.2179,2.2979
-546,218,-37.4346,-3.23676,0,0,0,0,0,0,0,-1,678,806,-37.4346,3.23675
-539,218,-37.5411,-3.89886,0,0,0,0,0,0,0,-1,685,806,-37.5411,3.89887
-532,218,-37.496,-4.40723,0,0,0,0,0,0,0,-1,692,806,-37.496,4.40725
-525,218,-29.3521,-3.64417,0,0,0,0,0,0,0,-1,699,806,-29.3521,3.64414
-518,218,-23.61,2.54181,0,0,0,0,0,0,0,-1,706,806,-23.61,-2.54183
-511,218,-41.0953,1.06879,0,0,0,0,0,0,0,-1,713,806,-41.0953,-1.06876
-504,218,-55.3393,0.606934,0,0,0,0,0,0,0,-1,720,806,-55.3393,-0.606939
-497,218,-55.1547,0.625061,0.00893132,-0.00677267,0.00373043,0.00977242,-0.00761377,0.221762,0.0100637,0.0492374,727,806,-55.1547,-0.625031
-490,218,-55.0244,0.617249,0.0126055,-0.00838709,0.00440478,0.0134923,-0.00927386,0.198665,0.0132191,0.0342686,734,806,-55.0244,-0.617264
-483,218,-55.0099,0.585083,0.0165645,-0.0099875,0.00522305,0.017555,-0.010978,0.187411,0.0166188,0.0312665,741,806,-55.0099,-0.585084
-476,218,-54.9001,0.777832,0.0204775,-0.0114302,0.0066714,0.0218162,-0.0127689,0.198035,0.0201942,0.0351131,748,806,-54.9002,-0.777812
-469,218,0,0,0,0,0,0,0,0,0,-1,755,806,0,0
-462,218,0,0,0,0,0,0,0,0,0,-1,762,806,0,0
-455,218,0,0,0,0,0,0,0,0,0,-1,769,806,0,0
-448,218,0,0,0,0,0,0,0,0,0,-1,776,806,0,0
-441,218,0,0,0,0,0,0,0,0,0,-1,783,806,0,0
-434,218,0,0,0,0,0,0,0,0,0,-1,790,806,0,0
-427,218,0,0,0,0,0,0,0,0,0,-1,797,806,0,0
-420,218,0,0,0,0,0,0,0,0,0,-1,804,806,0,0
-413,218,0,0,0,0,0,0,0,0,0,-1,811,806,0,0
-406,218,0,0,0,0,0,0,0,0,0,-1,818,806,0,0
-399,218,0,0,0,0,0,0,0,0,0,-1,825,806,0,0
-392,218,0,0,0,0,0,0,0,0,0,-1,832,806,0,0
-385,218,0,0,0,0,0,0,0,0,0,-1,839,806,0,0
-378,218,0,0,0,0,0,0,0,0,0,-1,846,806,0,0
-371,218,0,0,0,0,0,0,0,0,0,-1,853,806,0,0
-364,218,0,0,0,0,0,0,0,0,0,-1,860,806,0,0
-357,218,0,0,0,0,0,0,0,0,0,-1,867,806,0,0
-350,218,0,0,0,0,0,0,0,0,0,-1,874,806,0,0
-343,218,0,0,0,0,0,0,0,0,0,-1,881,806,0,0
-336,218,0,0,0,0,0,0,0,0,0,-1,888,806,0,0
-329,218,0,0,0,0,0,0,0,0,0,-1,895,806,0,0
-322,218,0,0,0,0,0,0,0,0,0,-1,902,806,0,0
-315,218,0,0,0,0,0,0,0,0,0,-1,909,806,0,0
-308,218,0,0,0,0,0,0,0,0,0,-1,916,806,0,0
-301,218,0,0,0,0,0,0,0,0,0,-1,923,806,0,0
-294,218,0,0,0,0,0,0,0,0,0,-1,930,806,0,0
-287,218,0,0,0,0,0,0,0,0,0,-1,937,806,0,0
-280,218,0,0,0,0,0,0,0,0,0,-1,944,806,0,0
-273,218,0,0,0,0,0,0,0,0,0,-1,951,806,0,0
-266,218,0,0,0,0,0,0,0,0,0,-1,958,806,0,0
-259,218,0,0,0,0,0,0,0,0,0,-1,965,806,0,0
-252,218,0,0,0,0,0,0,0,0,0,-1,972,806,0,0
-245,218,0,0,0,0,0,0,0,0,0,-1,979,806,0,0
-238,218,0,0,0,0,0,0,0,0,0,-1,986,806,0,0
-231,218,0,0,0,0,0,0,0,0,0,-1,993,806,0,0
-224,218,0,0,0,0,0,0,0,0,0,-1,1000,806,0,0
-217,218,0,0,0,0,0,0,0,0,0,-1,1007,806,0,0
-210,218,0,0,0,0,0,0,0,0,0,-1,1014,806,0,0
-203,218,0,0,0,0,0,0,0,0,0,-1,1021,806,0,0
-196,218,0,0,0,0,0,0,0,0,0,-1,1028,806,0,0
-189,218,0,0,0,0,0,0,0,0,0,-1,1035,806,0,0
-182,218,0,0,0,0,0,0,0,0,0,-1,1042,806,0,0
-175,218,0,0,0,0,0,0,0,0,0,-1,1049,806,0,0
-168,218,0,0,0,0,0,0,0,0,0,-1,1056,806,0,0
-161,218,0,0,0,0,0,0,0,0,0,-1,1063,806,0,0
-154,218,0,0,0,0,0,0,0,0,0,-1,1070,806,0,0
-147,218,0,0,0,0,0,0,0,0,0,-1,1077,806,0,0
-140,218,0,0,0,0,0,0,0,0,0,-1,1084,806,0,0
-133,218,0,0,0,0,0,0,0,0,0,-1,1091,806,0,0
-126,218,0,0,0,0,0,0,0,0,0,-1,1098,806,0,0
-119,218,0,0,0,0,0,0,0,0,0,-1,1105,806,0,0
-112,218,0,0,0,0,0,0,0,0,0,-1,1112,806,0,0
-105,218,0,0,0,0,0,0,0,0,0,-1,1119,806,0,0
-98,218,0,0,0,0,0,0,0,0,0,-1,1126,806,0,0
-91,218,0,0,0,0,0,0,0,0,0,-1,1133,806,0,0
-84,218,0,0,0,0,0,0,0,0,0,-1,1140,806,0,0
-77,218,0,0,0,0,0,0,0,0,0,-1,1147,806,0,0
-70,218,0,0,0,0,0,0,0,0,0,-1,1154,806,0,0
-63,218,0,0,0,0,0,0,0,0,0,-1,1161,806,0,0
-56,218,0,0,0,0,0,0,0,0,0,-1,1168,806,0,0
-49,218,0,0,0,0,0,0,0,0,0,-1,1175,806,0,0
-42,218,0,0,0,0,0,0,0,0,0,-1,1182,806,0,0
-35,218,0,0,0,0,0,0,0,0,0,-1,1189,806,0,0
-28,218,0,0,0,0,0,0,0,0,0,-1,1196,806,0,0
-21,218,0,0,0,0,0,0,0,0,0,-1,1203,806,0,0
-14,218,0,0,0,0,0,0,0,0,0,-1,1210,806,0,0
-7,218,0,0,0,0,0,0,0,0,0,-1,1217,806,0,0
0,218,0,0,0,0,0,0,0,0,0,-1,1224,806,0,0
7,218,0,0,0,0,0,0,0,0,0,-1,1231,806,0,0
14,218,0,0,0,0,0,0,0,0,0,-1,1238,806,0,0
21,218,0,0,0,0,0,0,0,0,0,-1,1245,806,0,0
28,218,0,0,0,0,0,0,0,0,0,-1,1252,806,0,0
35,218,0,0,0,0,0,0,0,0,0,-1,1259,806,0,0
42,218,0,0,0,0,0,0,0,0,0,-1,1266,806,0,0
49,218,0,0,0,0,0,0,0,0,0,-1,1273,806,0,0
56,218,0,0,0,0,0,0,0,0,0,-1,1280,806,0,0
63,218,0,0,0,0,0,0,0,0,0,-1,1287,806,0,0
70,218,0,0,0,0,0,0,0,0,0,-1,1294,806,0,0
77,218,0,0,0,0,0,0,0,0,0,-1,1301,806,0,0
84,218,0,0,0,0,0,0,0,0,0,-1,1308,806,0,0
91,218,0,0,0,0,0,0,0,0,0,-1,1315,806,0,0
98,218,0,0,0,0,0,0,0,0,0,-1,1322,806,0,0
105,218,0,0,0,0,0,0,0,0,0,-1,1329,806,0,0
112,218,0,0,0,0,0,0,0,0,0,-1,1336,806,0,0
119,218,0,0,0,0,0,0,0,0,0,-1,1343,806,0,0
126,218,0,0,0,0,0,0,0,0,0,-1,1350,806,0,0
133,218,0,0,0,0,0,0,0,0,0,-1,1357,806,0,0
140,218,0,0,0,0,0,0,0,0,0,-1,1364,806,0,0
147,218,0,0,0,0,0,0,0,0,0,-1,1371,806,0,0
154,218,0,0,0,0,0,0,0,0,0,-1,1378,806,0,0
161,218,0,0,0,0,0,0,0,0,0,-1,1385,806,0,0
168,218,0,0,0,0,0,0,0,0,0,-1,1392,806,0,0
175,218,0,0,0,0,0,0,0,0,0,-1,1399,806,0,0
182,218,0,0,0,0,0,0,0,0,0,-1,1406,806,0,0
189,218,0,0,0,0,0,0,0,0,0,-1,1413,806,0,0
196,218,0,0,0,0,0,0,0,0,0,-1,1420,806,0,0
203,218,0,0,0,0,0,0,0,0,0,-1,1427,806,0,0
210,218,0,0,0,0,0,0,0,0,0,-1,1434,806,0,0
217,218,0,0,0,0,0,0,0,0,0,-1,1441,806,0,0
224,218,0,0,0,0,0,0,0,0,0,-1,1448,806,0,0
231,218,0,0,0,0,0,0,0,0,0,-1,1455,806,0,0
238,218,0,0,0,0,0,0,0,0,0,-1,1462,806,0,0
245,218,0,0,0,0,0,0,0,0,0,-1,1469,806,0,0
252,218,0,0,0,0,0,0,0,0,0,-1,1476,806,0,0
259,218,0,0,0,0,0,0,0,0,0,-1,1483,806,0,0
266,218,0,0,0,0,0,0,0,0,0,-1,1490,806,0,0
273,218,0,0,0,0,0,0,0,0,0,-1,1497,806,0,0
280,218,0,0,0,0,0,0,0,0,0,-1,1504,806,0,0
287,218,0,0,0,0,0,0,0,0,0,-1,1511,806,0,0
294,218,0,0,0,0,0,0,0,0,0,-1,1518,806,0,0
301,218,0,0,0,0,0,0,0,0,0,-1,1525,806,0,0
308,218,0,0,0,0,0,0,0,0,0,-1,1532,806,0,0
315,218,0,0,0,0,0,0,0,0,0,-1,1539,806,0,0
322,218,0,0,0,0,0,0,0,0,0,-1,1546,806,0,0
329,218,0,0,0,0,0,0,0,0,0,-1,1553,806,0,0
336,218,0,0,0,0,0,0,0,0,0,-1,1560,806,0,0
343,218,0,0,0,0,0,0,0,0,0,-1,1567,806,0,0
350,218,0,0,0,0,0,0,0,0,0,-1,1574,806,0,0
357,218,0,0,0,0,0,0,0,0,0,-1,1581,806,0,0
364,218,0,0,0,0,0,0,0,0,0,-1,1588,806,0,0
371,218,0,0,0,0,0,0,0,0,0,-1,1595,806,0,0
378,218,0,0,0,0,0,0,0,0,0,-1,1602,806,0,0
385,218,0,0,0,0,0,0,0,0,0,-1,1609,806,0,0
392,218,0,0,0,0,0,0,0,0,0,-1,1616,806,0,0
399,218,0,0,0,0,0,0,0,0,0,-1,1623,806,0,0
406,218,0,0,0,0,0,0,0,0,0,-1,1630,806,0,0
413,218,0,0,0,0,0,0,0,0,0,-1,1637,806,0,0
420,218,0,0,0,0,0,0,0,0,0,-1,1644,806,0,0
427,218,0,0,0,0,0,0,0,0,0,-1,1651,806,0,0
434,218,0,0,0,0,0,0,0,0,0,-1,1658,806,0,0
441,218,0,0,0,0,0,0,0,0,0,-1,1665,806,0,0
448,218,0,0,0,0,0,0,0,0,0,-1,1672,806,0,0
455,218,0,0,0,0,0,0,0,0,0,-1,1679,806,0,0
462,218,0,0,0,0,0,0,0,0,0,-1,1686,806,0,0
469,218,0,0,0,0,0,0,0,0,0,-1,1693,806,0,0
476,218,0,0,0,0,0,0,0,0,0,-1,1700,806,0,0
483,218,0,0,0,0,0,0,0,0,0,-1,1707,806,0,0
490,218,0,0,0,0,0,0,0,0,0,-1,1714,806,0,0
497,218,0,0,0,0,0,0,0,0,0,-1,1721,806,0,0
504,218,0,0,0,0,0,0,0,0,0,-1,1728,806,0,0
511,218,0,0,0,0,0,0,0,0,0,-1,1735,806,0,0
518,218,0,0,0,0,0,0,0,0,0,-1,1742,806,0,0
525,218,0,0,0,0,0,0,0,0,0,-1,1749,806,0,0
532,218,0,0,0,0,0,0,0,0,0,-1,1756,806,0,0
539,218,0,0,0,0,0,0,0,0,0,-1,1763,806,0,0
546,218,0,0,0,0,0,0,0,0,0,-1,1770,806,0,0
553,218,0,0,0,0,0,0,0,0,0,-1,1777,806,0,0
560,218,0,0,0,0,0,0,0,0,0,-1,1784,806,0,0
567,218,0,0,0,0,0,0,0,0,0,-1,1791,806,0,0
574,218,0,0,0,0,0,0,0,0,0,-1,1798,806,0,0
581,218,0,0,0,0,0,0,0,0,0,-1,1805,806,0,0
588,218,0,0,0,0,0,0,0,0,0,-1,1812,806,0,0
595,218,70.7256,2.43616,0.00262378,-0.00229183,-0.00119242,0.00289776,-0.00256582,-0.225852,0.00315634,0.0406216,1819,806,70.7256,-2.43617
602,218,70.6334,2.37866,0.00300112,0.000166962,0.00113949,0.00340244,-0.000234349,0.338621,0.0023503,0.0361362,1826,806,70.6335,-2.37863
609,218,70.6188,2.3913,0.00270424,0.00188637,0.00252668,0.00485486,-0.000264248,0.705171,0.00332816,0.0308427,1833,806,70.6187,-2.39127
616,218,70.6617,2.40967,0.00229944,0.00273623,0.0030178,0.00554353,-0.00050786,0.821519,0.00387608,0.0332226,1840,806,70.6617,-2.40965
623,218,70.6984,2.45496,0.00198945,0.0029269,0.00300391,0.00549844,-0.000582085,0.862793,0.00387426,0.038204,1847,806,70.6983,-2.45495
630,218,70.776,2.48206,0.00158099,0.00254652,0.00249136,0.00460145,-0.000473946,0.8811,0.0032372,0.0459697,1854,806,70.7759,-2.48207
637,218,70.8438,2.50049,0,0,0,0,0,0,0,-1,1861,806,70.8438,-2.50049
644,218,52.4042,2.47949,0,0,0,0,0,0,0,-1,1868,806,52.4041,-2.47949
651,218,41.7338,1.99164,0,0,0,0,0,0,0,-1,1875,806,41.7338,-1.99162
658,218,28.41,0.514954,0,0,0,0,0,0,0,-1,1882,806,28.41,-0.514983
665,218,52.1176,-2.84406,0,0,0,0,0,0,0,-1,1889,806,52.1176,2.84404
672,218,52.5366,-2.01697,0,0,0,0,0,0,0,-1,1896,806,52.5366,2.017
679,218,52.2802,-1.13379,-0.0011346,0.000370743,-0.000140589,0.000383761,-0.00114762,-1.47847,0.000920075,0.0496691,1903,806,52.2801,1.13378
686,218,52.1151,-0.374023,-0.000898999,0.000107916,-0.000592174,0.000381723,-0.00117281,-1.1377,0.000935443,0.0225832,1910,806,52.1152,0.374002
693,218,52.0958,0.455017,-0.000476005,9.1165e-05,-0.000794426,0.000651104,-0.00103594,-0.956833,0.000982429,0.0126399,1917,806,52.0958,-0.454991
700,218,52.0192,1.28503,-0.000149029,0.000440401,-0.000620369,0.000832501,-0.000541129,-1.00715,0.000798991,0.01118,1924,806,52.0191,-1.28506
707,218,51.964,2.12567,0.000502225,0.00103452,-0.000127628,0.00106354,0.000473205,-1.34722,0.000615273,0.00888309,1931,806,51.964,-2.12569
714,218,51.929,2.97754,0.0013559,0.00172011,0.000542954,0.00211069,0.000965326,0.947204,0.00122008,0.0107154,1938,806,51.929,-2.97752
721,218,51.9183,3.80597,0.00227863,0.00247248,0.00124723,0.00362655,0.00112456,0.824175,0.00214354,0.0148643,1945,806,51.9183,-3.80597
728,218,51.8788,4.69507,0.00330339,0.00329408,0.00194517,0.00524391,0.00135356,0.784202,0.00314344,0.0312225,1952,806,51.8788,-4.69505
735,218,51.9982,5.68018,0,0,0,0,0,0,0,-1,1959,806,51.9981,-5.68015
742,218,47.8733,6.84155,0,0,0,0,0,0,0,-1,1966,806,47.8733,-6.84158
749,218,42.0249,6.64703,0,0,0,0,0,0,0,-1,1973,806,42.0249,-6.64703
756,218,43.7126,8.22174,0,0,0,0,0,0,0,-1,1980,806,43.7127,-8.22176
763,218,42.9994,8.8255,0,0,0,0,0,0,0,-1,1987,806,42.9994,-8.82548
770,218,0,0,0,0,0,0,0,0,0,-1,1994,806,0,0
777,218,0,0,0,0,0,0,0,0,0,-1,2001,806,0,0
784,218,0,0,0,0,0,0,0,0,0,-1,2008,806,0,0
791,218,0,0,0,0,0,0,0,0,0,-1,2015,806,0,0
798,218,0,0,0,0,0,0,0,0,0,-1,2022,806,0,0
805,218,0,0,0,0,0,0,0,0,0,-1,2029,806,0,0
812,218,0,0,0,0,0,0,0,0,0,-1,2036,806,0,0
-700,211,0,0,0,0,0,0,0,0,0,-1,524,813,0,0
-693,211,0,0,0,0,0,0,0,0,0,-1,531,813,0,0
-686,211,0,0,0,0,0,0,0,0,0,-1,538,813,0,0
-679,211,0,0,0,0,0,0,0,0,0,-1,545,813,0,0
-672,211,0,0,0,0,0,0,0,0,0,-1,552,813,0,0
-665,211,0,0,0,0,0,0,0,0,0,-1,559,813,0,0
-658,211,0,0,0,0,0,0,0,0,0,-1,566,813,0,0
-651,211,-40.2495,5.20386,0,0,0,0,0,0,0,-1,573,813,-40.2494,-5.20384
-644,211,-40.6288,4.32092,0,0,0,0,0,0,0,-1,580,813,-40.6288,-4.3209
-637,211,-41.3664,3.51849,0,0,0,0,0,0,0,-1,587,813,-41.3664,-3.51847
-630,211,-41.9262,2.94977,0,0,0,0,0,0,0,-1,594,813,-41.9262,-2.94975
-623,211,-42.5012,2.62903,0,0,0,0,0,0,0,-1,601,813,-42.5011,-2.629
-616,211,-37.2266,4.94861,0,0,0,0,0,0,0,-1,608,813,-37.2266,-4.94862
-609,211,-37.4382,4.3324,0.00416391,0.0152451,-0.0113681,0.0223509,-0.00294189,-1.01215,0.0159718,0.0436349,615,813,-37.4382,-4.33239
-602,211,-37.7515,3.71545,0.00295739,0.0112538,-0.00828911,0.0163747,-0.00216355,-1.0174,0.0117045,0.0236308,622,813,-37.7515,-3.71548
-595,211,-37.9281,2.86951,0.0021735,0.00828203,-0.00586305,0.0118387,-0.00138313,-1.02553,0.00839156,0.0120352,629,813,-37.9281,-2.86952
-588,211,-37.9822,2.05774,0.00161817,0.00586454,-0.00372239,0.00802669,-0.000543976,-1.04458,0.00554136,0.0118493,636,813,-37.9822,-2.05773
-581,211,-38.0076,1.2583,0.00118752,0.00392032,-0.00175603,0.00477893,0.000328911,-1.11603,0.00308217,0.0128062,643,813,-38.0076,-1.2583
-574,211,-38.0551,0.414551,0.000875704,0.00246954,-0.000160052,0.00248546,0.000859791,-1.4717,0.00145751,0.0145858,650,813,-38.055,-0.414524
-567,211,-38.1514,-0.39624,0.000757099,0.00187166,0.000939702,0.0024069,0.000221858,1.05304,0.001536,0.0220215,657,813,-38.1513,0.396265
-560,211,-38.2164,-1.25165,-0.000604633,0.00147858,0.000540361,0.0016104,-0.000736455,1.33152,0.00138592,0.0367298,664,813,-38.2164,1.25162
-553,211,-37.8619,-2.49554,0,0,0,0,0,0,0,-1,671,813,-37.8619,2.49556
-546,211,-38.2122,-3.52557,0,0,0,0,0,0,0,-1,678,813,-38.2122,3.52558
-539,211,-38.3814,-3.77252,0,0,0,0,0,0,0,-1,685,813,-38.3814,3.77249
-532,211,-38.3082,-4.50531,0,0,0,0,0,0,0,-1,692,813,-38.3082,4.50531
-525,211,-14.3009,2.3233,0,0,0,0,0,0,0,-1,699,813,-14.3009,-2.3233
-518,211,-34.952,1.93011,0,0,0,0,0,0,0,-1,706,813,-34.952,-1.9301
-511,211,-53.0876,0.677734,0,0,0,0,0,0,0,-1,713,813,-53.0876,-0.677737
-504,211,-55.1741,0.461304,0,0,0,0,0,0,0,-1,720,813,-55.1742,-0.461276
-497,211,-55.0452,0.572449,0.00807557,-0.00599276,0.00298211,0.0086816,-0.00659878,0.200489,0.00884941,0.04728,727,813,-55.0451,-0.572421
-490,211,-54.9219,0.705994,0.0118971,-0.00758745,0.0037424,0.0125911,-0.00828153,0.18338,0.0121362,0.0344276,734,813,-54.9219,-0.705984
-483,211,-54.9451,0.633423,0.0162007,-0.00910606,0.0047318,0.0170565,-0.00996186,0.178927,0.0157773,0.0319986,741,813,-54.9451,-0.633434
-476,211,-54.8369,0.801025,0.0207923,-0.0103983,0.00671131,0.0221751,-0.0117811,0.203193,0.0199084,0.0358422,748,813,-54.8369,-0.801019
-469,211,0,0,0,0,0,0,0,0,0,-1,755,813,0,0
-462,211,0,0,0,0,0,0,0,0,0,-1,762,813,0,0
-455,211,0,0,0,0,0,0,0,0,0,-1,769,813,0,0
-448,211,0,0,0,0,0,0,0,0,0,-1,776,813,0,0
-441,211,0,0,0,0,0,0,0,0,0,-1,783,813,0,0
-434,211,0,0,0,0,0,0,0,0,0,-1,790,813,0,0
-427,211,0,0,0,0,0,0,0,0,0,-1,797,813,0,0
-420,211,0,0,0,0,0,0,0,0,0,-1,804,813,0,0
-413,211,0,0,0,0,0,0,0,0,0,-1,811,813,0,0
-406,211,0,0,0,0,0,0,0,0,0,-1,818,813,0,0
-399,211,0,0,0,0,0,0,0,0,0,-1,825,813,0,0
-392,211,0,0,0,0,0,0,0,0,0,-1,832,813,0,0
-385,211,0,0,0,0,0,0,0,0,0,-1,839,813,0,0
-378,211,0,0,0,0,0,0,0,0,0,-1,846,813,0,0
-371,211,0,0,0,0,0,0,0,0,0,-1,853,813,0,0
-364,211,0,0,0,0,0,0,0,0,0,-1,860,813,0,0
-357,211,0,0,0,0,0,0,0,0,0,-1,867,813,0,0
-350,211,0,0,0,0,0,0,0,0,0,-1,874,813,0,0
-343,211,0,0,0,0,0,0,0,0,0,-1,881,813,0,0
-336,211,0,0,0,0,0,0,0,0,0,-1,888,813,0,0
-329,211,0,0,0,0,0,0,0,0,0,-1,895,813,0,0
-322,211,0,0,0,0,0,0,0,0,0,-1,902,813,0,0
-315,211,0,0,0,0,0,0,0,0,0,-1,909,813,0,0
-308,211,0,0,0,0,0,0,0,0,0,-1,916,813,0,0
-301,211,0,0,0,0,0,0,0,0,0,-1,923,813,0,0
-294,211,0,0,0,0,0,0,0,0,0,-1,930,813,0,0
-287,211,0,0,0,0,0,0,0,0,0,-1,937,813,0,0
-280,211,0,0,0,0,0,0,0,0,0,-1,944,813,0,0
-273,211,0,0,0,0,0,0,0,0,0,-1,951,813,0,0
-266,211,0,0,0,0,0,0,0,0,0,-1,958,813,0,0
-259,211,0,0,0,0,0,0,0,0,0,-1,965,813,0,0
-252,211,0,0,0,0,0,0,0,0,0,-1,972,813,0,0
-245,211,0,0,0,0,0,0,0,0,0,-1,979,813,0,0
-238,211,0,0,0,0,0,0,0,0,0,-1,986,813,0,0
-231,211,0,0,0,0,0,0,0,0,0,-1,993,813,0,0
-224,211,0,0,0,0,0,0,0,0,0,-1,1000,813,0,0
-217,211,0,0,0,0,0,0,0,0,0,-1,1007,813,0,0
-210,211,0,0,0,0,0,0,0,0,0,-1,1014,813,0,0
-203,211,0,0,0,0,0,0,0,0,0,-1,1021,813,0,0
-196,211,0,0,0,0,0,0,0,0,0,-1,1028,813,0,0
-189,211,0,0,0,0,0,0,0,0,0,-1,1035,813,0,0
-182,211,0,0,0,0,0,0,0,0,0,-1,1042,813,0,0
-175,211,0,0,0,0,0,0,0,0,0,-1,1049,813,0,0
-168,211,0,0,0,0,0,0,0,0,0,-1,1056,813,0,0
-161,211,0,0,0,0,0,0,0,0,0,-1,1063,813,0,0
-154,211,0,0,0,0,0,0,0,0,0,-1,1070,813,0,0
-147,211,0,0,0,0,0,0,0,0,0,-1,1077,813,0,0
-140,211,0,0,0,0,0,0,0,0,0,-1,1084,813,0,0
-133,211,0,0,0,0,0,0,0,0,0,-1,1091,813,0,0
-126,211,0,0,0,0,0,0,0,0,0,-1,1098,813,0,0
-119,211,0,0,0,0,0,0,0,0,0,-1,1105,813,0,0
-112,211,0,0,0,0,0,0,0,0,0,-1,1112,813,0,0
-105,211,0,0,0,0,0,0,0,0,0,-1,1119,813,0,0
-98,211,0,0,0,0,0,0,0,0,0,-1,1126,813,0,0
-91,211,0,0,0,0,0,0,0,0,0,-1,1133,813,0,0
-84,211,0,0,0,0,0,0,0,0,0,-1,1140,813,0,0
-77,211,0,0,0,0,0,0,0,0,0,-1,1147,813,0,0
-70,211,0,0,0,0,0,0,0,0,0,-1,1154,813,0,0
-63,211,0,0,0,0,0,0,0,0,0,-1,1161,813,0,0
-56,211,0,0,0,0,0,0,0,0,0,-1,1168,813,0,0
-49,211,0,0,0,0,0,0,0,0,0,-1,1175,813,0,0
-42,211,0,0,0,0,0,0,0,0,0,-1,1182,813,0,0
-35,211,0,0,0,0,0,0,0,0,0,-1,1189,813,0,0
-28,211,0,0,0,0,0,0,0,0,0,-1,1196,813,0,0
-21,211,0,0,0,0,0,0,0,0,0,-1,1203,813,0,0
-14,211,0,0,0,0,0,0,0,0,0,-1,1210,813,0,0
-7,211,0,0,0,0,0,0,0,0,0,-1,1217,813,0,0
0,211,0,0,0,0,0,0,0,0,0,-1,1224,813,0,0
7,211,0,0,0,0,0,0,0,0,0,-1,1231,813,0,0
14,211,0,0,0,0,0,0,0,0,0,-1,1238,813,0,0
21,211,0,0,0,0,0,0,0,0,0,-1,1245,813,0,0
28,211,0,0,0,0,0,0,0,0,0,-1,1252,813,0,0
35,211,0,0,0,0,0,0,0,0,0,-1,1259,813,0,0
42,211,0,0,0,0,0,0,0,0,0,-1,1266,813,0,0
49,211,0,0,0,0,0,0,0,0,0,-1,1273,813,0,0
56,211,0,0,0,0,0,0,0,0,0,-1,1280,813,0,0
63,211,0,0,0,0,0,0,0,0,0,-1,1287,813,0,0
70,211,0,0,0,0,0,0,0,0,0,-1,1294,813,0,0
77,211,0,0,0,0,0,0,0,0,0,-1,1301,813,0,0
84,211,0,0,0,0,0,0,0,0,0,-1,1308,813,0,0
91,211,0,0,0,0,0,0,0,0,0,-1,1315,813,0,0
98,211,0,0,0,0,0,0,0,0,0,-1,1322,813,0,0
105,211,0,0,0,0,0,0,0,0,0,-1,1329,813,0,0
112,211,0,0,0,0,0,0,0,0,0,-1,1336,813,0,0
119,211,0,0,0,0,0,0,0,0,0,-1,1343,813,0,0
126,211,0,0,0,0,0,0,0,0,0,-1,1350,813,0,0
133,211,0,0,0,0,0,0,0,0,0,-1,1357,813,0,0
140,211,0,0,0,0,0,0,0,0,0,-1,1364,813,0,0
147,211,0,0,0,0,0,0,0,0,0,-1,1371,813,0,0
154,211,0,0,0,0,0,0,0,0,0,-1,1378,813,0,0
161,211,0,0,0,0,0,0,0,0,0,-1,1385,813,0,0
168,211,0,0,0,0,0,0,0,0,0,-1,1392,813,0,0
175,211,0,0,0,0,0,0,0,0,0,-1,1399,813,0,0
182,211,0,0,0,0,0,0,0,0,0,-1,1406,813,0,0
189,211,0,0,0,0,0,0,0,0,0,-1,1413,813,0,0
196,211,0,0,0,0,0,0,0,0,0,-1,1420,813,0,0
203,211,0,0,0,0,0,0,0,0,0,-1,1427,813,0,0
210,211,0,0,0,0,0,0,0,0,0,-1,1434,813,0,0
217,211,0,0,0,0,0,0,0,0,0,-1,1441,813,0,0
224,211,0,0,0,0,0,0,0,0,0,-1,1448,813,0,0
231,211,0,0,0,0,0,0,0,0,0,-1,1455,813,0,0
238,211,0,0,0,0,0,0,0,0,0,-1,1462,813,0,0
245,211,0,0,0,0,0,0,0,0,0,-1,1469,813,0,0
252,211,0,0,0,0,0,0,0,0,0,-1,1476,813,0,0
259,211,0,0,0,0,0,0,0,0,0,-1,1483,813,0,0
266,211,0,0,0,0,0,0,0,0,0,-1,1490,813,0,0
273,211,0,0,0,0,0,0,0,0,0,-1,1497,813,0,0
280,211,0,0,0,0,0,0,0,0,0,-1,1504,813,0,0
287,211,0,0,0,0,0,0,0,0,0,-1,1511,813,0,0
294,211,0,0,0,0,0,0,0,0,0,-1,1518,813,0,0
301,211,0,0,0,0,0,0,0,0,0,-1,1525,813,0,0
308,211,0,0,0,0,0,0,0,0,0,-1,1532,813,0,0
315,211,0,0,0,0,0,0,0,0,0,-1,1539,813,0,0
322,211,0,0,0,0,0,0,0,0,0,-1,1546,813,0,0
329,211,0,0,0,0,0,0,0,0,0,-1,1553,813,0,0
336,211,0,0,0,0,0,0,0,0,0,-1,1560,813,0,0
343,211,0,0,0,0,0,0,0,0,0,-1,1567,813,0,0
350,211,0,0,0,0,0,0,0,0,0,-1,1574,813,0,0
357,211,0,0,0,0,0,0,0,0,0,-1,1581,813,0,0
364,211,0,0,0,0,0,0,0,0,0,-1,1588,813,0,0
371,211,0,0,0,0,0,0,0,0,0,-1,1595,813,0,0
378,211,0,0,0,0,0,0,0,0,0,-1,1602,813,0,0
385,211,0,0,0,0,0,0,0,0,0,-1,1609,813,0,0
392,211,0,0,0,0,0,0,0,0,0,-1,1616,813,0,0
399,211,0,0,0,0,0,0,0,0,0,-1,1623,813,0,0
406,211,0,0,0,0,0,0,0,0,0,-1,1630,813,0,0
413,211,0,0,0,0,0,0,0,0,0,-1,1637,813,0,0
420,211,0,0,0,0,0,0,0,0,0,-1,1644,813,0,0
427,211,0,0,0,0,0,0,0,0,0,-1,1651,813,0,0
434,211,0,0,0,0,0,0,0,0,0,-1,1658,813,0,0
441,211,0,0,0,0,0,0,0,0,0,-1,1665,813,0,0
448,211,0,0,0,0,0,0,0,0,0,-1,1672,813,0,0
455,211,0,0,0,0,0,0,0,0,0,-1,1679,813,0,0
462,211,0,0,0,0,0,0,0,0,0,-1,1686,813,0,0
469,211,0,0,0,0,0,0,0,0,0,-1,1693,813,0,0
476,211,0,0,0,0,0,0,0,0,0,-1,1700,813,0,0
483,211,0,0,0,0,0,0,0,0,0,-1,1707,813,0,0
490,211,0,0,0,0,0,0,0,0,0,-1,1714,813,0,0
497,211,0,0,0,0,0,0,0,0,0,-1,1721,813,0,0
504,211,0,0,0,0,0,0,0,0,0,-1,1728,813,0,0
511,211,0,0,0,0,0,0,0,0,0,-1,1735,813,0,0
518,211,0,0,0,0,0,0,0,0,0,-1,1742,813,0,0
525,211,0,0,0,0,0,0,0,0,0,-1,1749,813,0,0
532,211,0,0,0,0,0,0,0,0,0,-1,1756,813,0,0
539,211,0,0,0,0,0,0,0,0,0,-1,1763,813,0,0
546,211,0,0,0,0,0,0,0,0,0,-1,1770,813,0,0
553,211,0,0,0,0,0,0,0,0,0,-1,1777,813,0,0
560,211,0,0,0,0,0,0,0,0,0,-1,1784,813,0,0
567,211,0,0,0,0,0,0,0,0,0,-1,1791,813,0,0
574,211,0,0,0,0,0,0,0,0,0,-1,1798,813,0,0
581,211,0,0,0,0,0,0,0,0,0,-1,1805,813,0,0
588,211,0,0,0,0,0,0,0,0,0,-1,1812,813,0,0
595,211,70.7489,2.27563,0.00312778,-0.00421059,-0.00212781,0.00370012,-0.00478292,-0.26276,0.00491097,0.0410836,1819,813,70.7489,-2.27566
602,211,70.668,2.31311,0.00317433,-0.00152355,-1.91943e-06,0.00317433,-0.00152355,-0.000408572,0.00276758,0.0413331,1826,813,70.668,-2.31309
609,211,70.6227,2.36505,0.00271779,0.000818151,0.00161132,0.0036384,-0.000102461,0.519079,0.00246047,0.0395473,1833,813,70.6226,-2.36505
616,211,70.6191,2.40015,0.00208168,0.00237674,0.00254255,0.00477603,-0.000317621,0.814378,0.003295,0.0330096,1840,813,70.6191,-2.40012
623,211,70.692,2.42358,0.00162068,0.00305486,0.00290211,0.00532717,-0.000651625,0.906519,0.00378738,0.0318984,1847,813,70.692,-2.42359
630,211,70.7096,2.4472,0.00118231,0.00278884,0.00254124,0.00465074,-0.000679594,0.938475,0.00335008,0.0350664,1854,813,70.7096,-2.44719
637,211,70.6569,2.60693,0,0,0,0,0,0,0,-1,1861,813,70.6569,-2.60695
644,211,66.401,2.3595,0,0,0,0,0,0,0,-1,1868,813,66.401,-2.35952
651,211,48.5043,2.95557,0,0,0,0,0,0,0,-1,1875,813,48.5043,-2.95558
658,211,27.7909,1.52234,0,0,0,0,0,0,0,-1,1882,813,27.7909,-1.52234
665,211,42.2053,-0.745605,0,0,0,0,0,0,0,-1,1889,813,42.2054,0.745605
672,211,53.189,-1.99603,0,0,0,0,0,0,0,-1,1896,813,53.189,1.99603
679,211,53.5519,-1.06519,0,0,0,0,0,0,0,-1,1903,813,53.5519,1.0652
686,211,52.9789,-0.339478,-0.00130182,0.000160869,-0.000834272,0.000538972,-0.00167993,-1.14527,0.00133634,0.0266105,1910,813,52.9789,0.339456
693,211,52.9218,0.458618,-0.000912073,-3.20095e-05,-0.00116549,0.00077375,-0.00171783,-0.965901,0.00147254,0.0149915,1917,813,52.9218,-0.458595
700,211,52.8247,1.27216,-0.000722711,0.000184888,-0.0010749,0.000897857,-0.00143568,-0.985137,0.00135914,0.0157185,1924,813,52.8246,-1.27216
707,211,52.8336,2.17401,-0.000164867,0.000737767,-0.00056773,0.00101171,-0.000438812,-1.12123,0.000858957,0.0229614,1931,813,52.8336,-2.174
714,211,52.7875,3.01831,0.000752631,0.00149247,0.000141326,0.00151855,0.000726553,1.38833,0.000877008,0.0236277,1938,813,52.7875,-3.01833
721,211,52.7529,3.80591,0.00176618,0.00235956,0.000837355,0.00295124,0.00117451,0.955657,0.00171568,0.0189064,1945,813,52.753,-3.80592
728,211,52.7404,4.65485,0.00287923,0.0033064,0.00148274,0.00459086,0.00159477,0.85693,0.00269138,0.0207294,1952,813,52.7404,-4.65483
735,211,52.772,5.59998,0.00406272,0.00432239,0.00193958,0.00613648,0.00224863,0.818818,0.00358478,0.0386032,1959,813,52.7719,-5.59998
742,211,52.9612,6.51349,0,0,0,0,0,0,0,-1,1966,813,52.9612,-6.5135
749,211,51.9924,6.30768,0,0,0,0,0,0,0,-1,1973,813,51.9925,-6.30765
756,211,51.9747,6.22113,0,0,0,0,0,0,0,-1,1980,813,51.9747,-6.22112
763,211,51.4039,8.61835,0,0,0,0,0,0,0,-1,1987,813,51.404,-8.61832
770,211,46.2148,12.9099,0,0,0,0,0,0,0,-1,1994,813,46.2148,-12.9099
777,211,0,0,0,0,0,0,0,0,0,-1,2001,813,0,0
784,211,0,0,0,0,0,0,0,0,0,-1,2008,813,0,0
791,211,0,0,0,0,0,0,0,0,0,-1,2015,813,0,0
798,211,0,0,0,0,0,0,0,0,0,-1,2022,813,0,0
805,211,0,0,0,0,0,0,0,0,0,-1,2029,813,0,0
812,211,0,0,0,0,0,0,0,0,0,-1,2036,813,0,0
-700,204,0,0,0,0,0,0,0,0,0,-1,524,820,0,0
-693,204,0,0,0,0,0,0,0,0,0,-1,531,820,0,0
-686,204,0,0,0,0,0,0,0,0,0,-1,538,820,0,0
-679,204,0,0,0,0,0,0,0,0,0,-1,545,820,0,0
-672,204,0,0,0,0,0,0,0,0,0,-1,552,820,0,0
-665,204,0,0,0,0,0,0,0,0,0,-1,559,820,0,0
-658,204,0,0,0,0,0,0,0,0,0,-1,566,820,0,0
-651,204,-40.064,5.25806,0,0,0,0,0,0,0,-1,573,820,-40.064,-5.25806
-644,204,-40.4117,4.54321,0,0,0,0,0,0,0,-1,580,820,-40.4117,-4.54323
-637,204,-40.8671,3.93817,0,0,0,0,0,0,0,-1,587,820,-40.8671,-3.93819
-630,204,-41.7101,3.04382,0,0,0,0,0,0,0,-1,594,820,-41.7101,-3.04383
-623,204,-41.8597,2.11951,0,0,0,0,0,0,0,-1,601,820,-41.8597,-2.11951
-616,204,-38.7098,4.90924,0,0,0,0,0,0,0,-1,608,820,-38.7098,-4.90925
-609,204,-38.6204,4.36102,0.00466946,0.0144418,-0.0100463,0.0207271,-0.00161588,-1.01174,0.014387,0.0379514,615,820,-38.6204,-4.36101
-602,204,-38.6614,3.75439,0.00299815,0.0105348,-0.00705395,0.0147639,-0.00123093,-1.03072,0.0102775,0.0187858,622,820,-38.6614,-3.75437
-595,204,-38.7845,2.8894,0.00186671,0.00749843,-0.00464954,0.0101183,-0.000753174,-1.05767,0.0070101,0.0171257,629,820,-38.7845,-2.88942
-588,204,-38.8229,2.09216,0.0010815,0.00501162,-0.00255544,0.00627018,-0.00017706,-1.11316,0.00424037,0.0146877,636,820,-38.8229,-2.09218
-581,204,-38.8521,1.28119,0.000590908,0.00303347,-0.000668428,0.00320443,0.000419952,-1.32041,0.00201097,0.013658,643,820,-38.8521,-1.28117
-574,204,-38.8662,0.450623,0.000482302,0.00166357,0.000685212,0.00197757,0.000168301,1.1411,0.00126601,0.0148605,650,820,-38.8662,-0.450605
-567,204,-38.9048,-0.344727,0.000848388,0.00140109,0.00133082,0.00248395,-0.000234473,0.88777,0.0017394,0.0155946,657,820,-38.9048,0.34472
-560,204,-38.948,-1.15051,0,0,0,0,0,0,0,-1,664,820,-38.948,1.15049
-553,204,-38.7455,-1.98621,0,0,0,0,0,0,0,-1,671,820,-38.7455,1.98622
-546,204,-32.433,-2.2323,0,0,0,0,0,0,0,-1,678,820,-32.433,2.23228
-539,204,-39.1532,-3.58167,0,0,0,0,0,0,0,-1,685,820,-39.1532,3.58168
-532,204,-30.0565,-3.29065,0,0,0,0,0,0,0,-1,692,820,-30.0565,3.29063
-525,204,-25.7137,1.52496,0,0,0,0,0,0,0,-1,699,820,-25.7137,-1.52496
-518,204,-43.4591,0.383972,0,0,0,0,0,0,0,-1,706,820,-43.4591,-0.383942
-511,204,-54.9847,0.562622,0,0,0,0,0,0,0,-1,713,820,-54.9847,-0.562624
-504,204,-55.328,0.208984,0,0,0,0,0,0,0,-1,720,820,-55.328,-0.208974
-497,204,-55.1567,0.483704,0.00760184,-0.00522267,0.00222215,0.00797596,-0.00559679,0.166798,0.00787626,0.0403233,727,820,-55.1567,-0.483701
-490,204,-55.0247,0.761169,0.0116546,-0.00651955,0.00307553,0.012161,-0.0070259,0.163174,0.011209,0.0349302,734,820,-55.0247,-0.761157
-483,204,-54.9518,0.645081,0.0164033,-0.00757586,0.00434138,0.0171651,-0.00833766,0.173705,0.0150152,0.039855,741,820,-54.9518,-0.645065
-476,204,0,0,0,0,0,0,0,0,0,-1,748,820,0,0
-469,204,0,0,0,0,0,0,0,0,0,-1,755,820,0,0
-462,204,0,0,0,0,0,0,0,0,0,-1,762,820,0,0
-455,204,0,0,0,0,0,0,0,0,0,-1,769,820,0,0
-448,204,0,0,0,0,0,0,0,0,0,-1,776,820,0,0
-441,204,0,0,0,0,0,0,0,0,0,-1,783,820,0,0
-434,204,0,0,0,0,0,0,0,0,0,-1,790,820,0,0
-427,204,0,0,0,0,0,0,0,0,0,-1,797,820,0,0
-420,204,0,0,0,0,0,0,0,0,0,-1,804,820,0,0
-413,204,0,0,0,0,0,0,0,0,0,-1,811,820,0,0
-406,204,0,0,0,0,0,0,0,0,0,-1,818,820,0,0
-399,204,0,0,0,0,0,0,0,0,0,-1,825,820,0,0
-392,204,0,0,0,0,0,0,0,0,0,-1,832,820,0,0
-385,204,0,0,0,0,0,0,0,0,0,-1,839,820,0,0
-378,204,0,0,0,0,0,0,0,0,0,-1,846,820,0,0
-371,204,0,0,0,0,0,0,0,0,0,-1,853,820,0,0
-364,204,0,0,0,0,0,0,0,0,0,-1,860,820,0,0
-357,204,0,0,0,0,0,0,0,0,0,-1,867,820,0,0
-350,204,0,0,0,0,0,0,0,0,0,-1,874,820,0,0
-343,204,0,0,0,0,0,0,0,0,0,-1,881,820,0,0
-336,204,0,0,0,0,0,0,0,0,0,-1,888,820,0,0
-329,204,0,0,0,0,0,0,0,0,0,-1,895,820,0,0
-322,204,0,0,0,0,0,0,0,0,0,-1,902,820,0,0
-315,204,0,0,0,0,0,0,0,0,0,-1,909,820,0,0
-308,204,0,0,0,0,0,0,0,0,0,-1,916,820,0,0
-301,204,0,0,0,0,0,0,0,0,0,-1,923,820,0,0
-294,204,0,0,0,0,0,0,0,0,0,-1,930,820,0,0
-287,204,0,0,0,0,0,0,0,0,0,-1,937,820,0,0
-280,204,0,0,0,0,0,0,0,0,0,-1,944,820,0,0
-273,204,0,0,0,0,0,0,0,0,0,-1,951,820,0,0
-266,204,0,0,0,0,0,0,0,0,0,-1,958,820,0,0
-259,204,0,0,0,0,0,0,0,0,0,-1,965,820,0,0
-252,204,0,0,0,0,0,0,0,0,0,-1,972,820,0,0
-245,204,0,0,0,0,0,0,0,0,0,-1,979,820,0,0
-238,204,0,0,0,0,0,0,0,0,0,-1,986,820,0,0
-231,204,0,0,0,0,0,0,0,0,0,-1,993,820,0,0
-224,204,0,0,0,0,0,0,0,0,0,-1,1000,820,0,0
-217,204,0,0,0,0,0,0,0,0,0,-1,1007,820,0,0
-210,204,0,0,0,0,0,0,0,0,0,-1,1014,820,0,0
-203,204,0,0,0,0,0,0,0,0,0,-1,1021,820,0,0
-196,204,0,0,0,0,0,0,0,0,0,-1,1028,820,0,0
-189,204,0,0,0,0,0,0,0,0,0,-1,1035,820,0,0
-182,204,0,0,0,0,0,0,0,0,0,-1,1042,820,0,0
-175,204,0,0,0,0,0,0,0,0,0,-1,1049,820,0,0
-168,204,0,0,0,0,0,0,0,0,0,-1,1056,820,0,0
-161,204,0,0,0,0,0,0,0,0,0,-1,1063,820,0,0
-154,204,0,0,0,0,0,0,0,0,0,-1,1070,820,0,0
-147,204,0,0,0,0,0,0,0,0,0,-1,1077,820,0,0
-140,204,0,0,0,0,0,0,0,0,0,-1,1084,820,0,0
-133,204,0,0,0,0,0,0,0,0,0,-1,1091,820,0,0
-126,204,0,0,0,0,0,0,0,0,0,-1,1098,820,0,0
-119,204,0,0,0,0,0,0,0,0,0,-1,1105,820,0,0
-112,204,0,0,0,0,0,0,0,0,0,-1,1112,820,0,0
-105,204,0,0,0,0,0,0,0,0,0,-1,1119,820,0,0
-98,204,0,0,0,0,0,0,0,0,0,-1,1126,820,0,0
-91,204,0,0,0,0,0,0,0,0,0,-1,1133,820,0,0
-84,204,0,0,0,0,0,0,0,0,0,-1,1140,820,0,0
-77,204,0,0,0,0,0,0,0,0,0,-1,1147,820,0,0
-70,204,0,0,0,0,0,0,0,0,0,-1,1154,820,0,0
-63,204,0,0,0,0,0,0,0,0,0,-1,1161,820,0,0
-56,204,0,0,0,0,0,0,0,0,0,-1,1168,820,0,0
-49,204,0,0,0,0,0,0,0,0,0,-1,1175,820,0,0
-42,204,0,0,0,0,0,0,0,0,0,-1,1182,820,0,0
-35,204,0,0,0,0,0,0,0,0,0,-1,1189,820,0,0
-28,204,0,0,0,0,0,0,0,0,0,-1,1196,820,0,0
-21,204,0,0,0,0,0,0,0,0,0,-1,1203,820,0,0
-14,204,0,0,0,0,0,0,0,0,0,-1,1210,820,0,0
-7,204,0,0,0,0,0,0,0,0,0,-1,1217,820,0,0
0,204,0,0,0,0,0,0,0,0,0,-1,1224,820,0,0
7,204,0,0,0,0,0,0,0,0,0,-1,1231,820,0,0
14,204,0,0,0,0,0,0,0,0,0,-1,1238,820,0,0
21,204,0,0,0,0,0,0,0,0,0,-1,1245,820,0,0
28,204,0,0,0,0,0,0,0,0,0,-1,1252,820,0,0
35,204,0,0,0,0,0,0,0,0,0,-1,1259,820,0,0
42,204,0,0,0,0,0,0,0,0,0,-1,1266,820,0,0
49,204,0,0,0,0,0,0,0,0,0,-1,1273,820,0,0
56,204,0,0,0,0,0,0,0,0,0,-1,1280,820,0,0
63,204,0,0,0,0,0,0,0,0,0,-1,1287,820,0,0
70,204,0,0,0,0,0,0,0,0,0,-1,1294,820,0,0
77,204,0,0,0,0,0,0,0,0,0,-1,1301,820,0,0
84,204,0,0,0,0,0,0,0,0,0,-1,1308,820,0,0
91,204,0,0,0,0,0,0,0,0,0,-1,1315,820,0,0
98,204,0,0,0,0,0,0,0,0,0,-1,1322,820,0,0
105,204,0,0,0,0,0,0,0,0,0,-1,1329,820,0,0
112,204,0,0,0,0,0,0,0,0,0,-1,1336,820,0,0
119,204,0,0,0,0,0,0,0,0,0,-1,1343,820,0,0
126,204,0,0,0,0,0,0,0,0,0,-1,1350,820,0,0
133,204,0,0,0,0,0,0,0,0,0,-1,1357,820,0,0
140,204,0,0,0,0,0,0,0,0,0,-1,1364,820,0,0
147,204,0,0,0,0,0,0,0,0,0,-1,1371,820,0,0
154,204,0,0,0,0,0,0,0,0,0,-1,1378,820,0,0
161,204,0,0,0,0,0,0,0,0,0,-1,1385,820,0,0
168,204,0,0,0,0,0,0,0,0,0,-1,1392,820,0,0
175,204,0,0,0,0,0,0,0,0,0,-1,1399,820,0,0
182,204,0,0,0,0,0,0,0,0,0,-1,1406,820,0,0
189,204,0,0,0,0,0,0,0,0,0,-1,1413,820,0,0
196,204,0,0,0,0,0,0,0,0,0,-1,1420,820,0,0
203,204,0,0,0,0,0,0,0,0,0,-1,1427,820,0,0
210,204,0,0,0,0,0,0,0,0,0,-1,1434,820,0,0
217,204,0,0,0,0,0,0,0,0,0,-1,1441,820,0,0
224,204,0,0,0,0,0,0,0,0,0,-1,1448,820,0,0
231,204,0,0,0,0,0,0,0,0,0,-1,1455,820,0,0
238,204,0,0,0,0,0,0,0,0,0,-1,1462,820,0,0
245,204,0,0,0,0,0,0,0,0,0,-1,1469,820,0,0
252,204,0,0,0,0,0,0,0,0,0,-1,1476,820,0,0
259,204,0,0,0,0,0,0,0,0,0,-1,1483,820,0,0
266,204,0,0,0,0,0,0,0,0,0,-1,1490,820,0,0
273,204,0,0,0,0,0,0,0,0,0,-1,1497,820,0,0
280,204,0,0,0,0,0,0,0,0,0,-1,1504,820,0,0
287,204,0,0,0,0,0,0,0,0,0,-1,1511,820,0,0
294,204,0,0,0,0,0,0,0,0,0,-1,1518,820,0,0
301,204,0,0,0,0,0,0,0,0,0,-1,1525,820,0,0
308,204,0,0,0,0,0,0,0,0,0,-1,1532,820,0,0
315,204,0,0,0,0,0,0,0,0,0,-1,1539,820,0,0
322,204,0,0,0,0,0,0,0,0,0,-1,1546,820,0,0
329,204,0,0,0,0,0,0,0,0,0,-1,1553,820,0,0
336,204,0,0,0,0,0,0,0,0,0,-1,1560,820,0,0
343,204,0,0,0,0,0,0,0,0,0,-1,1567,820,0,0
350,204,0,0,0,0,0,0,0,0,0,-1,1574,820,0,0
357,204,0,0,0,0,0,0,0,0,0,-1,1581,820,0,0
364,204,0,0,0,0,0,0,0,0,0,-1,1588,820,0,0
371,204,0,0,0,0,0,0,0,0,0,-1,1595,820,0,0
378,204,0,0,0,0,0,0,0,0,0,-1,1602,820,0,0
385,204,0,0,0,0,0,0,0,0,0,-1,1609,820,0,0
392,204,0,0,0,0,0,0,0,0,0,-1,1616,820,0,0
399,204,0,0,0,0,0,0,0,0,0,-1,1623,820,0,0
406,204,0,0,0,0,0,0,0,0,0,-1,1630,820,0,0
413,204,0,0,0,0,0,0,0,0,0,-1,1637,820,0,0
420,204,0,0,0,0,0,0,0,0,0,-1,1644,820,0,0
427,204,0,0,0,0,0,0,0,0,0,-1,1651,820,0,0
434,204,0,0,0,0,0,0,0,0,0,-1,1658,820,0,0
441,204,0,0,0,0,0,0,0,0,0,-1,1665,820,0,0
448,204,0,0,0,0,0,0,0,0,0,-1,1672,820,0,0
455,204,0,0,0,0,0,0,0,0,0,-1,1679,820,0,0
462,204,0,0,0,0,0,0,0,0,0,-1,1686,820,0,0
469,204,0,0,0,0,0,0,0,0,0,-1,1693,820,0,0
476,204,0,0,0,0,0,0,0,0,0,-1,1700,820,0,0
483,204,0,0,0,0,0,0,0,0,0,-1,1707,820,0,0
490,204,0,0,0,0,0,0,0,0,0,-1,1714,820,0,0
497,204,0,0,0,0,0,0,0,0,0,-1,1721,820,0,0
504,204,0,0,0,0,0,0,0,0,0,-1,1728,820,0,0
511,204,0,0,0,0,0,0,0,0,0,-1,1735,820,0,0
518,204,0,0,0,0,0,0,0,0,0,-1,1742,820,0,0
525,204,0,0,0,0,0,0,0,0,0,-1,1749,820,0,0
532,204,0,0,0,0,0,0,0,0,0,-1,1756,820,0,0
539,204,0,0,0,0,0,0,0,0,0,-1,1763,820,0,0
546,204,0,0,0,0,0,0,0,0,0,-1,1770,820,0,0
553,204,0,0,0,0,0,0,0,0,0,-1,1777,820,0,0
560,204,0,0,0,0,0,0,0,0,0,-1,1784,820,0,0
567,204,0,0,0,0,0,0,0,0,0,-1,1791,820,0,0
574,204,0,0,0,0,0,0,0,0,0,-1,1798,820,0,0
581,204,0,0,0,0,0,0,0,0,0,-1,1805,820,0,0
588,204,0,0,0,0,0,0,0,0,0,-1,1812,820,0,0
595,204,0,0,0,0,0,0,0,0,0,-1,1819,820,0,0
602,204,70.692,2.34161,0.00331964,-0.00344163,-0.000670342,0.00338546,-0.00350745,-0.0978749,0.00397983,0.040928,1826,820,70.692,-2.34161
609,204,70.6721,2.30884,0.00282197,-0.000808543,0.000873247,0.00302109,-0.00100766,0.224191,0.00242089,0.041469,1833,820,70.6721,-2.30885
616,204,70.7024,2.41296,0.00210312,0.00144166,0.0020212,0.00382047,-0.000275687,0.704301,0.00264367,0.0371691,1840,820,70.7024,-2.41296
623,204,70.6605,2.41034,0.00154065,0.0028545,0.00272101,0.00499676,-0.000601613,0.903845,0.00354875,0.0281581,1847,820,70.6605,-2.41036
630,204,70.6532,2.41064,0.00105626,0.00300318,0.00262307,0.0048276,-0.000768162,0.963078,0.00350264,0.028048,1854,820,70.6532,-2.41065
637,204,70.6597,2.49146,0.000468383,0.00252078,0.00199422,0.00373735,-0.000748185,1.02302,0.00277479,0.0365007,1861,820,70.6597,-2.49145
644,204,70.7034,2.46155,0,0,0,0,0,0,0,-1,1868,820,70.7033,-2.46157
651,204,53.7611,2.32251,0,0,0,0,0,0,0,-1,1875,820,53.7611,-2.32249
658,204,34.9631,1.64844,0,0,0,0,0,0,0,-1,1882,820,34.9631,-1.64842
665,204,21.8292,1.51099,0,0,0,0,0,0,0,-1,1889,820,21.8292,-1.51099
672,204,54.071,-1.75543,0,0,0,0,0,0,0,-1,1896,820,54.071,1.7554
679,204,53.9869,-1.04968,0,0,0,0,0,0,0,-1,1903,820,53.987,1.04967
686,204,53.8892,-0.284363,-0.00144598,0.000271104,-0.000868763,0.000633971,-0.00180885,-1.17514,0.00146373,0.0254144,1910,820,53.8891,0.284392
693,204,53.6263,0.498657,-0.00112315,-6.56983e-05,-0.0013492,0.000854676,-0.00204352,-0.972142,0.00171956,0.026366,1917,820,53.6264,-0.498629
700,204,53.6862,1.34033,-0.0011335,-3.0953e-05,-0.00145254,0.000971406,-0.00213585,-0.966763,0.00183549,0.0184734,1924,820,53.6862,-1.34032
707,204,53.6545,2.24823,-0.000782199,0.000422648,-0.00104691,0.00102809,-0.00138764,-1.04648,0.00139986,0.0163151,1931,820,53.6546,-2.24823
714,204,53.611,3.12817,0.000129566,0.00120309,-0.000364717,0.00131527,1.73807e-05,-1.27239,0.000871113,0.0253263,1938,820,53.611,-3.1282
721,204,53.5699,3.89868,0.0011962,0.00217371,0.000322572,0.00227056,0.00109935,1.27911,0.00131113,0.0236838,1945,820,53.5699,-3.8987
728,204,53.516,4.67548,0.00235251,0.00321982,0.000948157,0.00382878,0.00174354,0.999879,0.00221348,0.0153753,1952,820,53.516,-4.67549
735,204,53.4346,5.52698,0.00358223,0.0043357,0.00138487,0.00539416,0.00252377,0.918203,0.00311646,0.0187038,1959,820,53.4345,-5.52696
742,204,53.4186,6.27411,0.00489191,0.00553983,0.00147113,0.00672224,0.0037095,0.893775,0.00388803,0.0364498,1966,820,53.4186,-6.27409
749,204,53.4365,7.02313,0,0,0,0,0,0,0,-1,1973,820,53.4365,-7.02312
756,204,52.3918,7.54156,0,0,0,0,0,0,0,-1,1980,820,52.3919,-7.54155
763,204,52.5433,8.84253,0,0,0,0,0,0,0,-1,1987,820,52.5433,-8.84254
770,204,52.6947,10.1436,0,0,0,0,0,0,0,-1,1994,820,52.6947,-10.1435
777,204,0,0,0,0,0,0,0,0,0,-1,2001,820,0,0
784,204,0,0,0,0,0,0,0,0,0,-1,2008,820,0,0
791,204,0,0,0,0,0,0,0,0,0,-1,2015,820,0,0
798,204,0,0,0,0,0,0,0,0,0,-1,2022,820,0,0
805,204,0,0,0,0,0,0,0,0,0,-1,2029,820,0,0
812,204,0,0,0,0,0,0,0,0,0,-1,2036,820,0,0
-700,197,0,0,0,0,0,0,0,0,0,-1,524,827,0,0
-693,197,0,0,0,0,0,0,0,0,0,-1,531,827,0,0
-686,197,0,0,0,0,0,0,0,0,0,-1,538,827,0,0
-679,197,0,0,0,0,0,0,0,0,0,-1,545,827,0,0
-672,197,0,0,0,0,0,0,0,0,0,-1,552,827,0,0
-665,197,0,0,0,0,0,0,0,0,0,-1,559,827,0,0
-658,197,-39.9774,5.66638,0,0,0,0,0,0,0,-1,566,827,-39.9774,-5.66637
-651,197,-39.9665,5.23578,0,0,0,0,0,0,0,-1,573,827,-39.9665,-5.23575
-644,197,-38.9225,4.75665,0,0,0,0,0,0,0,-1,580,827,-38.9225,-4.75665
-637,197,-35.9322,6.14551,0,0,0,0,0,0,0,-1,587,827,-35.9322,-6.14552
-630,197,-40.4908,2.45648,0,0,0,0,0,0,0,-1,594,827,-40.4908,-2.45649
-623,197,-38.6499,4.81158,0,0,0,0,0,0,0,-1,601,827,-38.6499,-4.81161
-616,197,-39.7642,5.66724,0,0,0,0,0,0,0,-1,608,827,-39.7641,-5.66726
-609,197,-39.3982,4.55884,0.00503011,0.0139947,-0.00899852,0.0195655,-0.000540663,-1.01647,0.0132276,0.0359923,615,827,-39.3982,-4.55887
-602,197,-39.4979,3.75531,0.00306465,0.0101224,-0.0060001,0.0135544,-0.000367385,-1.05122,0.0091612,0.0200799,622,827,-39.4979,-3.75532
-595,197,-39.6134,2.97766,0.00167159,0.00697048,-0.00354698,0.0087483,-0.000106218,-1.10617,0.00586792,0.0207285,629,827,-39.6134,-2.97764
-588,197,-39.6334,2.14508,0.000691398,0.00433294,-0.00146823,0.00485117,0.000173175,-1.23149,0.00317796,0.0215787,636,827,-39.6334,-2.1451
-581,197,-39.6793,1.30389,0.000159431,0.00224955,0.000263064,0.00228215,0.00012683,1.4475,0.00148097,0.012299,643,827,-39.6793,-1.30391
-574,197,-39.6964,0.494995,0.000269766,0.000974324,0.00124056,0.00191165,-0.00066756,0.923741,0.00154577,0.0138252,650,827,-39.6964,-0.494967
-567,197,-39.6245,-0.284424,0.00105085,0.00102065,0.00138449,0.00242032,-0.000348831,0.779945,0.00174151,0.0199141,657,827,-39.6245,0.284414
-560,197,-39.5142,-1.08093,0,0,0,0,0,0,0,-1,664,827,-39.5142,1.08091
-553,197,-33.1771,-1.4881,0,0,0,0,0,0,0,-1,671,827,-33.1771,1.4881
-546,197,-33.0991,-2.06989,0,0,0,0,0,0,0,-1,678,827,-33.0991,2.06991
-539,197,-32.8993,-2.61737,0,0,0,0,0,0,0,-1,685,827,-32.8993,2.61737
-532,197,-16.0519,0.0410156,0,0,0,0,0,0,0,-1,692,827,-16.0519,-0.0410415
-525,197,-35.3785,2.11829,0,0,0,0,0,0,0,-1,699,827,-35.3785,-2.11826
-518,197,-54.8683,0.698608,0,0,0,0,0,0,0,-1,706,827,-54.8684,-0.698612
-511,197,-54.9486,0.596375,0.0028922,-0.00191424,0.000288212,0.00290942,-0.00193146,0.0596787,0.00281383,0.0453449,713,827,-54.9486,-0.596351
-504,197,-55.1942,0.37561,0.00455947,-0.00317146,0.000828798,0.00464732,-0.00325931,0.105606,0.00458829,0.0412259,720,827,-55.1942,-0.375615
-497,197,-55.203,0.557312,0.00755342,-0.00445296,0.00169278,0.00778752,-0.00468706,0.137422,0.00727597,0.0405276,727,827,-55.203,-0.557285
-490,197,-55.0773,0.824341,0.0123169,-0.00486732,0.00253496,0.0126831,-0.00523347,0.143447,0.010638,0.039794,734,827,-55.0773,-0.82434
-483,197,-54.9227,1.06775,0.0180215,-0.00500409,0.00392508,0.0186722,-0.00565479,0.164286,0.0147002,0.0424703,741,827,-54.9227,-1.06778
-476,197,0,0,0,0,0,0,0,0,0,-1,748,827,0,0
-469,197,0,0,0,0,0,0,0,0,0,-1,755,827,0,0
-462,197,0,0,0,0,0,0,0,0,0,-1,762,827,0,0
-455,197,0,0,0,0,0,0,0,0,0,-1,769,827,0,0
-448,197,0,0,0,0,0,0,0,0,0,-1,776,827,0,0
-441,197,0,0,0,0,0,0,0,0,0,-1,783,827,0,0
-434,197,0,0,0,0,0,0,0,0,0,-1,790,827,0,0
-427,197,0,0,0,0,0,0,0,0,0,-1,797,827,0,0
-420,197,0,0,0,0,0,0,0,0,0,-1,804,827,0,0
-413,197,0,0,0,0,0,0,0,0,0,-1,811,827,0,0
-406,197,0,0,0,0,0,0,0,0,0,-1,818,827,0,0
-399,197,0,0,0,0,0,0,0,0,0,-1,825,827,0,0
-392,197,0,0,0,0,0,0,0,0,0,-1,832,827,0,0
-385,197,0,0,0,0,0,0,0,0,0,-1,839,827,0,0
-378,197,0,0,0,0,0,0,0,0,0,-1,846,827,0,0
-371,197,0,0,0,0,0,0,0,0,0,-1,853,827,0,0
-364,197,0,0,0,0,0,0,0,0,0,-1,860,827,0,0
-357,197,0,0,0,0,0,0,0,0,0,-1,867,827,0,0
-350,197,0,0,0,0,0,0,0,0,0,-1,874,827,0,0
-343,197,0,0,0,0,0,0,0,0,0,-1,881,827,0,0
-336,197,0,0,0,0,0,0,0,0,0,-1,888,827,0,0
-329,197,0,0,0,0,0,0,0,0,0,-1,895,827,0,0
-322,197,0,0,0,0,0,0,0,0,0,-1,902,827,0,0
-315,197,0,0,0,0,0,0,0,0,0,-1,909,827,0,0
-308,197,0,0,0,0,0,0,0,0,0,-1,916,827,0,0
-301,197,0,0,0,0,0,0,0,0,0,-1,923,827,0,0
-294,197,0,0,0,0,0,0,0,0,0,-1,930,827,0,0
-287,197,0,0,0,0,0,0,0,0,0,-1,937,827,0,0
-280,197,0,0,0,0,0,0,0,0,0,-1,944,827,0,0
-273,197,0,0,0,0,0,0,0,0,0,-1,951,827,0,0
-266,197,0,0,0,0,0,0,0,0,0,-1,958,827,0,0
-259,197,0,0,0,0,0,0,0,0,0,-1,965,827,0,0
-252,197,0,0,0,0,0,0,0,0,0,-1,972,827,0,0
-245,197,0,0,0,0,0,0,0,0,0,-1,979,827,0,0
-238,197,0,0,0,0,0,0,0,0,0,-1,986,827,0,0
-231,197,0,0,0,0,0,0,0,0,0,-1,993,827,0,0
-224,197,0,0,0,0,0,0,0,0,0,-1,1000,827,0,0
-217,197,0,0,0,0,0,0,0,0,0,-1,1007,827,0,0
-210,197,0,0,0,0,0,0,0,0,0,-1,1014,827,0,0
-203,197,0,0,0,0,0,0,0,0,0,-1,1021,827,0,0
-196,197,0,0,0,0,0,0,0,0,0,-1,1028,827,0,0
-189,197,0,0,0,0,0,0,0,0,0,-1,1035,827,0,0
-182,197,0,0,0,0,0,0,0,0,0,-1,1042,827,0,0
-175,197,0,0,0,0,0,0,0,0,0,-1,1049,827,0,0
-168,197,0,0,0,0,0,0,0,0,0,-1,1056,827,0,0
-161,197,0,0,0,0,0,0,0,0,0,-1,1063,827,0,0
-154,197,0,0,0,0,0,0,0,0,0,-1,1070,827,0,0
-147,197,0,0,0,0,0,0,0,0,0,-1,1077,827,0,0
-140,197,0,0,0,0,0,0,0,0,0,-1,1084,827,0,0
-133,197,0,0,0,0,0,0,0,0,0,-1,1091,827,0,0
-126,197,0,0,0,0,0,0,0,0,0,-1,1098,827,0,0
-119,197,0,0,0,0,0,0,0,0,0,-1,1105,827,0,0
-112,197,0,0,0,0,0,0,0,0,0,-1,1112,827,0,0
-105,197,0,0,0,0,0,0,0,0,0,-1,1119,827,0,0
-98,197,0,0,0,0,0,0,0,0,0,-1,1126,827,0,0
-91,197,0,0,0,0,0,0,0,0,0,-1,1133,827,0,0
-84,197,0,0,0,0,0,0,0,0,0,-1,1140,827,0,0
-77,197,0,0,0,0,0,0,0,0,0,-1,1147,827,0,0
-70,197,0,0,0,0,0,0,0,0,0,-1,1154,827,0,0
-63,197,0,0,0,0,0,0,0,0,0,-1,1161,827,0,0
-56,197,0,0,0,0,0,0,0,0,0,-1,1168,827,0,0
-49,197,0,0,0,0,0,0,0,0,0,-1,1175,827,0,0
-42,197,0,0,0,0,0,0,0,0,0,-1,1182,827,0,0
-35,197,0,0,0,0,0,0,0,0,0,-1,1189,827,0,0
-28,197,0,0,0,0,0,0,0,0,0,-1,1196,827,0,0
-21,197,0,0,0,0,0,0,0,0,0,-1,1203,827,0,0
-14,197,0,0,0,0,0,0,0,0,0,-1,1210,827,0,0
-7,197,0,0,0,0,0,0,0,0,0,-1,1217,827,0,0
0,197,0,0,0,0,0,0,0,0,0,-1,1224,827,0,0
7,197,0,0,0,0,0,0,0,0,0,-1,1231,827,0,0
14,197,0,0,0,0,0,0,0,0,0,-1,1238,827,0,0
21,197,0,0,0,0,0,0,0,0,0,-1,1245,827,0,0
28,197,0,0,0,0,0,0,0,0,0,-1,1252,827,0,0
35,197,0,0,0,0,0,0,0,0,0,-1,1259,827,0,0
42,197,0,0,0,0,0,0,0,0,0,-1,1266,827,0,0
49,197,0,0,0,0,0,0,0,0,0,-1,1273,827,0,0
56,197,0,0,0,0,0,0,0,0,0,-1,1280,827,0,0
63,197,0,0,0,0,0,0,0,0,0,-1,1287,827,0,0
70,197,0,0,0,0,0,0,0,0,0,-1,1294,827,0,0
77,197,0,0,0,0,0,0,0,0,0,-1,1301,827,0,0
84,197,0,0,0,0,0,0,0,0,0,-1,1308,827,0,0
91,197,0,0,0,0,0,0,0,0,0,-1,1315,827,0,0
98,197,0,0,0,0,0,0,0,0,0,-1,1322,827,0,0
105,197,0,0,0,0,0,0,0,0,0,-1,1329,827,0,0
112,197,0,0,0,0,0,0,0,0,0,-1,1336,827,0,0
119,197,0,0,0,0,0,0,0,0,0,-1,1343,827,0,0
126,197,0,0,0,0,0,0,0,0,0,-1,1350,827,0,0
133,197,0,0,0,0,0,0,0,0,0,-1,1357,827,0,0
140,197,0,0,0,0,0,0,0,0,0,-1,1364,827,0,0
147,197,0,0,0,0,0,0,0,0,0,-1,1371,827,0,0
154,197,0,0,0,0,0,0,0,0,0,-1,1378,827,0,0
161,197,0,0,0,0,0,0,0,0,0,-1,1385,827,0,0
168,197,0,0,0,0,0,0,0,0,0,-1,1392,827,0,0
175,197,0,0,0,0,0,0,0,0,0,-1,1399,827,0,0
182,197,0,0,0,0,0,0,0,0,0,-1,1406,827,0,0
189,197,0,0,0,0,0,0,0,0,0,-1,1413,827,0,0
196,197,0,0,0,0,0,0,0,0,0,-1,1420,827,0,0
203,197,0,0,0,0,0,0,0,0,0,-1,1427,827,0,0
210,197,0,0,0,0,0,0,0,0,0,-1,1434,827,0,0
217,197,0,0,0,0,0,0,0,0,0,-1,1441,827,0,0
224,197,0,0,0,0,0,0,0,0,0,-1,1448,827,0,0
231,197,0,0,0,0,0,0,0,0,0,-1,1455,827,0,0
238,197,0,0,0,0,0,0,0,0,0,-1,1462,827,0,0
245,197,0,0,0,0,0,0,0,0,0,-1,1469,827,0,0
252,197,0,0,0,0,0,0,0,0,0,-1,1476,827,0,0
259,197,0,0,0,0,0,0,0,0,0,-1,1483,827,0,0
266,197,0,0,0,0,0,0,0,0,0,-1,1490,827,0,0
273,197,0,0,0,0,0,0,0,0,0,-1,1497,827,0,0
280,197,0,0,0,0,0,0,0,0,0,-1,1504,827,0,0
287,197,0,0,0,0,0,0,0,0,0,-1,1511,827,0,0
294,197,0,0,0,0,0,0,0,0,0,-1,1518,827,0,0
301,197,0,0,0,0,0,0,0,0,0,-1,1525,827,0,0
308,197,0,0,0,0,0,0,0,0,0,-1,1532,827,0,0
315,197,0,0,0,0,0,0,0,0,0,-1,1539,827,0,0
322,197,0,0,0,0,0,0,0,0,0,-1,1546,827,0,0
329,197,0,0,0,0,0,0,0,0,0,-1,1553,827,0,0
336,197,0,0,0,0,0,0,0,0,0,-1,1560,827,0,0
343,197,0,0,0,0,0,0,0,0,0,-1,1567,827,0,0
350,197,0,0,0,0,0,0,0,0,0,-1,1574,827,0,0
357,197,0,0,0,0,0,0,0,0,0,-1,1581,827,0,0
364,197,0,0,0,0,0,0,0,0,0,-1,1588,827,0,0
371,197,0,0,0,0,0,0,0,0,0,-1,1595,827,0,0
378,197,0,0,0,0,0,0,0,0,0,-1,1602,827,0,0
385,197,0,0,0,0,0,0,0,0,0,-1,1609,827,0,0
392,197,0,0,0,0,0,0,0,0,0,-1,1616,827,0,0
399,197,0,0,0,0,0,0,0,0,0,-1,1623,827,0,0
406,197,0,0,0,0,0,0,0,0,0,-1,1630,827,0,0
413,197,0,0,0,0,0,0,0,0,0,-1,1637,827,0,0
420,197,0,0,0,0,0,0,0,0,0,-1,1644,827,0,0
427,197,0,0,0,0,0,0,0,0,0,-1,1651,827,0,0
434,197,0,0,0,0,0,0,0,0,0,-1,1658,827,0,0
441,197,0,0,0,0,0,0,0,0,0,-1,1665,827,0,0
448,197,0,0,0,0,0,0,0,0,0,-1,1672,827,0,0
455,197,0,0,0,0,0,0,0,0,0,-1,1679,827,0,0
462,197,0,0,0,0,0,0,0,0,0,-1,1686,827,0,0
469,197,0,0,0,0,0,0,0,0,0,-1,1693,827,0,0
476,197,0,0,0,0,0,0,0,0,0,-1,1700,827,0,0
483,197,0,0,0,0,0,0,0,0,0,-1,1707,827,0,0
490,197,0,0,0,0,0,0,0,0,0,-1,1714,827,0,0
497,197,0,0,0,0,0,0,0,0,0,-1,1721,827,0,0
504,197,0,0,0,0,0,0,0,0,0,-1,1728,827,0,0
511,197,0,0,0,0,0,0,0,0,0,-1,1735,827,0,0
518,197,0,0,0,0,0,0,0,0,0,-1,1742,827,0,0
525,197,0,0,0,0,0,0,0,0,0,-1,1749,827,0,0
532,197,0,0,0,0,0,0,0,0,0,-1,1756,827,0,0
539,197,0,0,0,0,0,0,0,0,0,-1,1763,827,0,0
546,197,0,0,0,0,0,0,0,0,0,-1,1770,827,0,0
553,197,0,0,0,0,0,0,0,0,0,-1,1777,827,0,0
560,197,0,0,0,0,0,0,0,0,0,-1,1784,827,0,0
567,197,0,0,0,0,0,0,0,0,0,-1,1791,827,0,0
574,197,0,0,0,0,0,0,0,0,0,-1,1798,827,0,0
581,197,0,0,0,0,0,0,0,0,0,-1,1805,827,0,0
588,197,0,0,0,0,0,0,0,0,0,-1,1812,827,0,0
595,197,0,0,0,0,0,0,0,0,0,-1,1819,827,0,0
602,197,70.5977,2.28278,0.00371361,-0.005112,-0.00102436,0.00383094,-0.00522934,-0.114047,0.00525168,0.0411903,1826,827,70.5976,-2.28279
609,197,70.5842,2.18274,0.00300371,-0.00248016,0.000365299,0.00302794,-0.00250439,0.0662232,0.00319886,0.041779,1833,827,70.5842,-2.18274
616,197,70.7468,2.28809,0.00210054,0.00011452,0.00146079,0.00287388,-0.000658812,0.486885,0.00216913,0.0407921,1840,827,70.7468,-2.28808
623,197,70.7487,2.2984,0.00135032,0.00210249,0.00226922,0.00402658,-0.000573763,0.867518,0.00289466,0.0364351,1847,827,70.7486,-2.29842
630,197,70.6667,2.25433,0.000767513,0.00291291,0.00243563,0.0045016,-0.000821178,0.992827,0.00330893,0.0317001,1854,827,70.6668,-2.25436
637,197,70.6575,2.39697,0.000191711,0.00260881,0.00191258,0.00366268,-0.000862161,1.06717,0.0027742,0.0292216,1861,827,70.6575,-2.39697
644,197,70.7072,2.45972,-0.000210684,0.00215674,0.00157124,0.00294025,-0.000994198,1.10822,0.00236236,0.0454316,1868,827,70.7071,-2.4597
651,197,70.7631,2.37317,0,0,0,0,0,0,0,-1,1875,827,70.7631,-2.3732
658,197,40.4694,3.05927,0,0,0,0,0,0,0,-1,1882,827,40.4694,-3.05926
665,197,14.0618,1.80304,0,0,0,0,0,0,0,-1,1889,827,14.0617,-1.80303
672,197,54.272,-2.20929,0,0,0,0,0,0,0,-1,1896,827,54.272,2.20931
679,197,54.6094,-1.25793,0,0,0,0,0,0,0,-1,1903,827,54.6094,1.25791
686,197,54.7391,-0.133606,0,0,0,0,0,0,0,-1,1910,827,54.7391,0.133619
693,197,54.5752,0.595825,0,0,0,0,0,0,0,-1,1917,827,54.5751,-0.595797
700,197,54.5256,1.43604,-0.0013949,-0.000236762,-0.00175245,0.00102982,-0.00266148,-0.944967,0.00219948,0.0323945,1924,827,54.5256,-1.43606
707,197,54.4984,2.28693,-0.00130712,8.90506e-05,-0.00148154,0.00102873,-0.0022468,-1.00557,0.00193423,0.0104515,1931,827,54.4984,-2.2869
714,197,54.4468,3.10345,-0.000499914,0.000858381,-0.000872719,0.00128507,-0.000926605,-1.11605,0.00128249,0.0130146,1938,827,54.4468,-3.10344
721,197,54.3926,3.92377,0.000550797,0.00194181,-0.000203613,0.001971,0.000521605,-1.4284,0.00117923,0.0135044,1945,827,54.3926,-3.92374
728,197,54.3317,4.72925,0.00171985,0.00307093,0.000430236,0.0031963,0.00159448,1.28725,0.00184539,0.011632,1952,827,54.3317,-4.72926
735,197,54.2515,5.5556,0.00295143,0.00425273,0.000885418,0.00470086,0.0025033,1.10227,0.00271595,0.0125841,1959,827,54.2515,-5.55561
742,197,54.1815,6.40137,0.00426239,0.00549343,0.00101259,0.0060629,0.00369292,1.05849,0.00352808,0.0243992,1966,827,54.1816,-6.40134
749,197,54.0339,7.46173,0.00577695,0.00685583,0.000901252,0.00736675,0.00526603,1.05507,0.00438211,0.0493666,1973,827,54.0339,-7.46173
756,197,53.8588,8.49921,0,0,0,0,0,0,0,-1,1980,827,53.8588,-8.49923
763,197,53.6741,9.09924,0,0,0,0,0,0,0,-1,1987,827,53.6741,-9.09925
770,197,53.8623,10.3351,0,0,0,0,0,0,0,-1,1994,827,53.8623,-10.3351
777,197,0,0,0,0,0,0,0,0,0,-1,2001,827,0,0
784,197,0,0,0,0,0,0,0,0,0,-1,2008,827,0,0
791,197,0,0,0,0,0,0,0,0,0,-1,2015,827,0,0
798,197,0,0,0,0,0,0,0,0,0,-1,2022,827,0,0
805,197,0,0,0,0,0,0,0,0,0,-1,2029,827,0,0
812,197,0,0,0,0,0,0,0,0,0,-1,2036,827,0,0
-700,190,0,0,0,0,0,0,0,0,0,-1,524,834,0,0
-693,190,0,0,0,0,0,0,0,0,0,-1,531,834,0,0
-686,190,0,0,0,0,0,0,0,0,0,-1,538,834,0,0
-679,190,0,0,0,0,0,0,0,0,0,-1,545,834,0,0
-672,190,0,0,0,0,0,0,0,0,0,-1,552,834,0,0
-665,190,0,0,0,0,0,0,0,0,0,-1,559,834,0,0
-658,190,-41.9736,5.50092,0,0,0,0,0,0,0,-1,566,834,-41.9736,-5.50089
-651,190,-40.1895,4.99677,0,0,0,0,0,0,0,-1,573,834,-40.1894,-4.99677
-644,190,-35.4149,8.88776,0,0,0,0,0,0,0,-1,580,834,-35.4149,-8.88774
-637,190,-40.3998,10.5266,0,0,0,0,0,0,0,-1,587,834,-40.3998,-10.5266
-630,190,-39.7164,6.77704,0,0,0,0,0,0,0,-1,594,834,-39.7164,-6.77701
-623,190,-40.5861,7.03516,0,0,0,0,0,0,0,-1,601,834,-40.5861,-7.03517
-616,190,-40.4583,5.80841,0.00804661,0.0176805,-0.0114273,0.0252647,0.00046248,-0.984862,0.0166911,0.0462758,608,834,-40.4583,-5.80843
-609,190,-40.2653,4.60657,0.00508179,0.0132307,-0.00788353,0.0180304,0.000282059,-1.02391,0.0119274,0.0270534,615,834,-40.2653,-4.60658
-602,190,-40.3276,3.81836,0.00285508,0.00938265,-0.0048584,0.0119718,0.000265978,-1.08117,0.00789401,0.0184533,622,834,-40.3276,-3.81834
-595,190,-40.419,3.01807,0.00119492,0.0061411,-0.00235306,0.00708167,0.000254351,-1.19053,0.00463866,0.0201525,629,834,-40.419,-3.01807
-588,190,-40.4632,2.18744,-6.3221e-06,0.00341722,-0.000358944,0.00345445,-4.35509e-05,-1.46745,0.00231762,0.0200752,636,834,-40.4632,-2.18744
-581,190,-40.4764,1.35052,-0.000587309,0.00140205,0.00107445,0.00187155,-0.00105682,1.15883,0.00171237,0.0149438,643,834,-40.4764,-1.35051
-574,190,-40.4808,0.552246,-0.000263704,0.000439087,0.00159749,0.00172338,-0.00154799,0.893657,0.00188963,0.0140433,650,834,-40.4808,-0.552235
-567,190,-40.3745,-0.376282,0.000746203,0.000751458,0.00134114,0.00208998,-0.000592316,0.786378,0.0016271,0.0318744,657,834,-40.3745,0.376288
-560,190,-40.1953,-1.37219,0,0,0,0,0,0,0,-1,664,834,-40.1953,1.37217
-553,190,-33.9625,-1.6355,0,0,0,0,0,0,0,-1,671,834,-33.9625,1.63552
-546,190,-33.7621,-2.04889,0,0,0,0,0,0,0,-1,678,834,-33.7621,2.04886
-539,190,-16.4624,-0.542542,0,0,0,0,0,0,0,-1,685,834,-16.4624,0.542527
-532,190,-21.6292,2.06122,0,0,0,0,0,0,0,-1,692,834,-21.6292,-2.06123
-525,190,-38.9377,1.03369,0,0,0,0,0,0,0,-1,699,834,-38.9377,-1.0337
-518,190,-54.8831,0.661987,0,0,0,0,0,0,0,-1,706,834,-54.883,-0.662001
-511,190,-54.9238,0.601196,0.00223969,-0.0018564,-0.000291558,0.00226034,-0.00187705,-0.0707043,0.00239214,0.0380213,713,834,-54.9238,-0.601196
-504,190,-55.0667,0.627747,0.00409375,-0.00280035,0.000241143,0.00410217,-0.00280878,0.0349213,0.00401326,0.0404802,720,834,-55.0666,-0.627725
-497,190,-55.202,0.727783,0.00796529,-0.00350986,0.0011062,0.00807096,-0.00361552,0.0952311,0.00690871,0.0421141,727,834,-55.202,-0.72776
-490,190,-55.0943,0.931335,0.0138458,-0.00357578,0.0022137,0.0141227,-0.00385267,0.124432,0.0109282,0.0402074,734,834,-55.0943,-0.931364
-483,190,0,0,0,0,0,0,0,0,0,-1,741,834,0,0
-476,190,0,0,0,0,0,0,0,0,0,-1,748,834,0,0
-469,190,0,0,0,0,0,0,0,0,0,-1,755,834,0,0
-462,190,0,0,0,0,0,0,0,0,0,-1,762,834,0,0
-455,190,0,0,0,0,0,0,0,0,0,-1,769,834,0,0
-448,190,0,0,0,0,0,0,0,0,0,-1,776,834,0,0
-441,190,0,0,0,0,0,0,0,0,0,-1,783,834,0,0
-434,190,0,0,0,0,0,0,0,0,0,-1,790,834,0,0
-427,190,0,0,0,0,0,0,0,0,0,-1,797,834,0,0
-420,190,0,0,0,0,0,0,0,0,0,-1,804,834,0,0
-413,190,0,0,0,0,0,0,0,0,0,-1,811,834,0,0
-406,190,0,0,0,0,0,0,0,0,0,-1,818,834,0,0
-399,190,0,0,0,0,0,0,0,0,0,-1,825,834,0,0
-392,190,0,0,0,0,0,0,0,0,0,-1,832,834,0,0
-385,190,0,0,0,0,0,0,0,0,0,-1,839,834,0,0
-378,190,0,0,0,0,0,0,0,0,0,-1,846,834,0,0
-371,190,0,0,0,0,0,0,0,0,0,-1,853,834,0,0
-364,190,0,0,0,0,0,0,0,0,0,-1,860,834,0,0
-357,190,0,0,0,0,0,0,0,0,0,-1,867,834,0,0
-350,190,0,0,0,0,0,0,0,0,0,-1,874,834,0,0
-343,190,0,0,0,0,0,0,0,0,0,-1,881,834,0,0
-336,190,0,0,0,0,0,0,0,0,0,-1,888,834,0,0
-329,190,0,0,0,0,0,0,0,0,0,-1,895,834,0,0
-322,190,0,0,0,0,0,0,0,0,0,-1,902,834,0,0
-315,190,0,0,0,0,0,0,0,0,0,-1,909,834,0,0
-308,190,0,0,0,0,0,0,0,0,0,-1,916,834,0,0
-301,190,0,0,0,0,0,0,0,0,0,-1,923,834,0,0
-294,190,0,0,0,0,0,0,0,0,0,-1,930,834,0,0
-287,190,0,0,0,0,0,0,0,0,0,-1,937,834,0,0
-280,190,0,0,0,0,0,0,0,0,0,-1,944,834,0,0
-273,190,0,0,0,0,0,0,0,0,0,-1,951,834,0,0
-266,190,0,0,0,0,0,0,0,0,0,-1,958,834,0,0
-259,190,0,0,0,0,0,0,0,0,0,-1,965,834,0,0
-252,190,0,0,0,0,0,0,0,0,0,-1,972,834,0,0
-245,190,0,0,0,0,0,0,0,0,0,-1,979,834,0,0
-238,190,0,0,0,0,0,0,0,0,0,-1,986,834,0,0
-231,190,0,0,0,0,0,0,0,0,0,-1,993,834,0,0
-224,190,0,0,0,0,0,0,0,0,0,-1,1000,834,0,0
-217,190,0,0,0,0,0,0,0,0,0,-1,1007,834,0,0
-210,190,0,0,0,0,0,0,0,0,0,-1,1014,834,0,0
-203,190,0,0,0,0,0,0,0,0,0,-1,1021,834,0,0
-196,190,0,0,0,0,0,0,0,0,0,-1,1028,834,0,0
-189,190,0,0,0,0,0,0,0,0,0,-1,1035,834,0,0
-182,190,0,0,0,0,0,0,0,0,0,-1,1042,834,0,0
-175,190,0,0,0,0,0,0,0,0,0,-1,1049,834,0,0
-168,190,0,0,0,0,0,0,0,0,0,-1,1056,834,0,0
-161,190,0,0,0,0,0,0,0,0,0,-1,1063,834,0,0
-154,190,0,0,0,0,0,0,0,0,0,-1,1070,834,0,0
-147,190,0,0,0,0,0,0,0,0,0,-1,1077,834,0,0
-140,190,0,0,0,0,0,0,0,0,0,-1,1084,834,0,0
-133,190,0,0,0,0,0,0,0,0,0,-1,1091,834,0,0
-126,190,0,0,0,0,0,0,0,0,0,-1,1098,834,0,0
-119,190,0,0,0,0,0,0,0,0,0,-1,1105,834,0,0
-112,190,0,0,0,0,0,0,0,0,0,-1,1112,834,0,0
-105,190,0,0,0,0,0,0,0,0,0,-1,1119,834,0,0
-98,190,0,0,0,0,0,0,0,0,0,-1,1126,834,0,0
-91,190,0,0,0,0,0,0,0,0,0,-1,1133,834,0,0
-84,190,0,0,0,0,0,0,0,0,0,-1,1140,834,0,0
-77,190,0,0,0,0,0,0,0,0,0,-1,1147,834,0,0
-70,190,0,0,0,0,0,0,0,0,0,-1,1154,834,0,0
-63,190,0,0,0,0,0,0,0,0,0,-1,1161,834,0,0
-56,190,0,0,0,0,0,0,0,0,0,-1,1168,834,0,0
-49,190,0,0,0,0,0,0,0,0,0,-1,1175,834,0,0
-42,190,0,0,0,0,0,0,0,0,0,-1,1182,834,0,0
-35,190,0,0,0,0,0,0,0,0,0,-1,1189,834,0,0
-28,190,0,0,0,0,0,0,0,0,0,-1,1196,834,0,0
-21,190,0,0,0,0,0,0,0,0,0,-1,1203,834,0,0
-14,190,0,0,0,0,0,0,0,0,0,-1,1210,834,0,0
-7,190,0,0,0,0,0,0,0,0,0,-1,1217,834,0,0
0,190,0,0,0,0,0,0,0,0,0,-1,1224,834,0,0
7,190,0,0,0,0,0,0,0,0,0,-1,1231,834,0,0
14,190,0,0,0,0,0,0,0,0,0,-1,1238,834,0,0
21,190,0,0,0,0,0,0,0,0,0,-1,1245,834,0,0
28,190,0,0,0,0,0,0,0,0,0,-1,1252,834,0,0
35,190,0,0,0,0,0,0,0,0,0,-1,1259,834,0,0
42,190,0,0,0,0,0,0,0,0,0,-1,1266,834,0,0
49,190,0,0,0,0,0,0,0,0,0,-1,1273,834,0,0
56,190,0,0,0,0,0,0,0,0,0,-1,1280,834,0,0
63,190,0,0,0,0,0,0,0,0,0,-1,1287,834,0,0
70,190,0,0,0,0,0,0,0,0,0,-1,1294,834,0,0
77,190,0,0,0,0,0,0,0,0,0,-1,1301,834,0,0
84,190,0,0,0,0,0,0,0,0,0,-1,1308,834,0,0
91,190,0,0,0,0,0,0,0,0,0,-1,1315,834,0,0
98,190,0,0,0,0,0,0,0,0,0,-1,1322,834,0,0
105,190,0,0,0,0,0,0,0,0,0,-1,1329,834,0,0
112,190,0,0,0,0,0,0,0,0,0,-1,1336,834,0,0
119,190,0,0,0,0,0,0,0,0,0,-1,1343,834,0,0
126,190,0,0,0,0,0,0,0,0,0,-1,1350,834,0,0
133,190,0,0,0,0,0,0,0,0,0,-1,1357,834,0,0
140,190,0,0,0,0,0,0,0,0,0,-1,1364,834,0,0
147,190,0,0,0,0,0,0,0,0,0,-1,1371,834,0,0
154,190,0,0,0,0,0,0,0,0,0,-1,1378,834,0,0
161,190,0,0,0,0,0,0,0,0,0,-1,1385,834,0,0
168,190,0,0,0,0,0,0,0,0,0,-1,1392,834,0,0
175,190,0,0,0,0,0,0,0,0,0,-1,1399,834,0,0
182,190,0,0,0,0,0,0,0,0,0,-1,1406,834,0,0
189,190,0,0,0,0,0,0,0,0,0,-1,1413,834,0,0
196,190,0,0,0,0,0,0,0,0,0,-1,1420,834,0,0
203,190,0,0,0,0,0,0,0,0,0,-1,1427,834,0,0
210,190,0,0,0,0,0,0,0,0,0,-1,1434,834,0,0
217,190,0,0,0,0,0,0,0,0,0,-1,1441,834,0,0
224,190,0,0,0,0,0,0,0,0,0,-1,1448,834,0,0
231,190,0,0,0,0,0,0,0,0,0,-1,1455,834,0,0
238,190,0,0,0,0,0,0,0,0,0,-1,1462,834,0,0
245,190,0,0,0,0,0,0,0,0,0,-1,1469,834,0,0
252,190,0,0,0,0,0,0,0,0,0,-1,1476,834,0,0
259,190,0,0,0,0,0,0,0,0,0,-1,1483,834,0,0
266,190,0,0,0,0,0,0,0,0,0,-1,1490,834,0,0
273,190,0,0,0,0,0,0,0,0,0,-1,1497,834,0,0
280,190,0,0,0,0,0,0,0,0,0,-1,1504,834,0,0
287,190,0,0,0,0,0,0,0,0,0,-1,1511,834,0,0
294,190,0,0,0,0,0,0,0,0,0,-1,1518,834,0,0
301,190,0,0,0,0,0,0,0,0,0,-1,1525,834,0,0
308,190,0,0,0,0,0,0,0,0,0,-1,1532,834,0,0
315,190,0,0,0,0,0,0,0,0,0,-1,1539,834,0,0
322,190,0,0,0,0,0,0,0,0,0,-1,1546,834,0,0
329,190,0,0,0,0,0,0,0,0,0,-1,1553,834,0,0
336,190,0,0,0,0,0,0,0,0,0,-1,1560,834,0,0
343,190,0,0,0,0,0,0,0,0,0,-1,1567,834,0,0
350,190,0,0,0,0,0,0,0,0,0,-1,1574,834,0,0
357,190,0,0,0,0,0,0,0,0,0,-1,1581,834,0,0
364,190,0,0,0,0,0,0,0,0,0,-1,1588,834,0,0
371,190,0,0,0,0,0,0,0,0,0,-1,1595,834,0,0
378,190,0,0,0,0,0,0,0,0,0,-1,1602,834,0,0
385,190,0,0,0,0,0,0,0,0,0,-1,1609,834,0,0
392,190,0,0,0,0,0,0,0,0,0,-1,1616,834,0,0
399,190,0,0,0,0,0,0,0,0,0,-1,1623,834,0,0
406,190,0,0,0,0,0,0,0,0,0,-1,1630,834,0,0
413,190,0,0,0,0,0,0,0,0,0,-1,1637,834,0,0
420,190,0,0,0,0,0,0,0,0,0,-1,1644,834,0,0
427,190,0,0,0,0,0,0,0,0,0,-1,1651,834,0,0
434,190,0,0,0,0,0,0,0,0,0,-1,1658,834,0,0
441,190,0,0,0,0,0,0,0,0,0,-1,1665,834,0,0
448,190,0,0,0,0,0,0,0,0,0,-1,1672,834,0,0
455,190,0,0,0,0,0,0,0,0,0,-1,1679,834,0,0
462,190,0,0,0,0,0,0,0,0,0,-1,1686,834,0,0
469,190,0,0,0,0,0,0,0,0,0,-1,1693,834,0,0
476,190,0,0,0,0,0,0,0,0,0,-1,1700,834,0,0
483,190,0,0,0,0,0,0,0,0,0,-1,1707,834,0,0
490,190,0,0,0,0,0,0,0,0,0,-1,1714,834,0,0
497,190,0,0,0,0,0,0,0,0,0,-1,1721,834,0,0
504,190,0,0,0,0,0,0,0,0,0,-1,1728,834,0,0
511,190,0,0,0,0,0,0,0,0,0,-1,1735,834,0,0
518,190,0,0,0,0,0,0,0,0,0,-1,1742,834,0,0
525,190,0,0,0,0,0,0,0,0,0,-1,1749,834,0,0
532,190,0,0,0,0,0,0,0,0,0,-1,1756,834,0,0
539,190,0,0,0,0,0,0,0,0,0,-1,1763,834,0,0
546,190,0,0,0,0,0,0,0,0,0,-1,1770,834,0,0
553,190,0,0,0,0,0,0,0,0,0,-1,1777,834,0,0
560,190,0,0,0,0,0,0,0,0,0,-1,1784,834,0,0
567,190,0,0,0,0,0,0,0,0,0,-1,1791,834,0,0
574,190,0,0,0,0,0,0,0,0,0,-1,1798,834,0,0
581,190,0,0,0,0,0,0,0,0,0,-1,1805,834,0,0
588,190,0,0,0,0,0,0,0,0,0,-1,1812,834,0,0
595,190,0,0,0,0,0,0,0,0,0,-1,1819,834,0,0
602,190,70.454,2.46375,0.00391536,-0.00674764,-0.000901431,0.00399103,-0.00682331,-0.0837462,0.00631464,0.0450948,1826,834,70.454,-2.46373
609,190,70.3617,2.54755,0.00305226,-0.0040805,0.000370569,0.00307146,-0.0040997,0.0517674,0.00415443,0.0437076,1833,834,70.3617,-2.54753
616,190,70.7573,2.37048,0.00205252,-0.00138422,0.00126397,0.00246732,-0.00179902,0.317097,0.00247323,0.0411588,1840,834,70.7573,-2.3705
623,190,70.8973,2.26563,0.00111039,0.000903638,0.00195844,0.00296818,-0.00095415,0.75903,0.00236197,0.038427,1847,834,70.8973,-2.26562
630,190,70.7852,2.33264,0.000369248,0.00237662,0.00222586,0.00381462,-0.00106876,0.997208,0.00296427,0.0406763,1854,834,70.7851,-2.33264
637,190,70.6174,2.35095,-0.000241548,0.00247751,0.00183127,0.00339874,-0.00116278,1.10471,0.00273702,0.0341459,1861,834,70.6175,-2.35094
644,190,70.6559,2.4314,-0.000645569,0.00207368,0.00150573,0.0027428,-0.00131469,1.15262,0.00239047,0.0280569,1868,834,70.6559,-2.43142
651,190,70.7133,2.52448,0,0,0,0,0,0,0,-1,1875,834,70.7133,-2.52447
658,190,54.0599,3.0943,0,0,0,0,0,0,0,-1,1882,834,54.0599,-3.09428
665,190,25.9916,3.05157,0,0,0,0,0,0,0,-1,1889,834,25.9916,-3.05156
672,190,27.2662,1.70862,0,0,0,0,0,0,0,-1,1896,834,27.2662,-1.70861
679,190,55.5585,-0.849976,0,0,0,0,0,0,0,-1,1903,834,55.5585,0.849998
686,190,55.5931,-0.0431519,-0.00168601,0.000456307,-0.00109623,0.000917827,-0.00214753,-1.17231,0.00181664,0.029373,1910,834,55.5932,0.0431354
693,190,55.6017,0.78363,-0.00135062,6.15916e-05,-0.00162097,0.00112357,-0.0024126,-0.990809,0.00208634,0.0359456,1917,834,55.6017,-0.783649
700,190,55.3132,1.49707,-0.00163099,-0.000104489,-0.00194294,0.00121974,-0.00295521,-0.972554,0.00247885,0.0246944,1924,834,55.3133,-1.49705
707,190,55.2797,2.31769,-0.0017235,8.81639e-05,-0.00185364,0.00124546,-0.0028808,-1.01267,0.00244387,0.0149578,1931,834,55.2797,-2.31771
714,190,55.2534,3.12726,-0.00100209,0.000709278,-0.00137772,0.00147541,-0.00176822,-1.06329,0.00187526,0.0135787,1938,834,55.2534,-3.12725
721,190,55.2203,3.94171,-9.78359e-06,0.00178972,-0.00076073,0.00206821,-0.000288278,-1.21986,0.00148426,0.0126534,1945,834,55.2204,-3.94174
728,190,55.1774,4.75891,0.00107177,0.00294112,-0.000110629,0.00294764,0.00106524,-1.51189,0.00172348,0.0143264,1952,834,55.1774,-4.75891
735,190,55.1418,5.54321,0.00222531,0.00415904,0.000379612,0.00423089,0.00215346,1.38373,0.00244284,0.0138068,1959,834,55.1418,-5.54322
742,190,55.0189,6.43115,0.00340136,0.00539211,0.000564255,0.00554092,0.00325255,1.31294,0.00321515,0.0191968,1966,834,55.0189,-6.43114
749,190,54.8838,7.4613,0.00469601,0.00664996,0.000499414,0.00677021,0.00457576,1.33452,0.00398857,0.0415281,1973,834,54.8838,-7.46129
756,190,54.7124,8.47058,0.00611604,0.00822742,-0.000419655,0.00830777,0.00603568,-1.38161,0.00495784,0.0489702,1980,834,54.7124,-8.47059
763,190,54.8181,9.35046,0,0,0,0,0,0,0,-1,1987,834,54.8181,-9.35047
770,190,55.0325,10.5452,0,0,0,0,0,0,0,-1,1994,834,55.0324,-10.5452
777,190,51.4365,10.3331,0,0,0,0,0,0,0,-1,2001,834,51.4366,-10.3331
784,190,0,0,0,0,0,0,0,0,0,-1,2008,834,0,0
791,190,0,0,0,0,0,0,0,0,0,-1,2015,834,0,0
798,190,0,0,0,0,0,0,0,0,0,-1,2022,834,0,0
805,190,0,0,0,0,0,0,0,0,0,-1,2029,834,0,0
812,190,0,0,0,0,0,0,0,0,0,-1,2036,834,0,0
-700,183,0,0,0,0,0,0,0,0,0,-1,524,841,0,0
-693,183,0,0,0,0,0,0,0,0,0,-1,531,841,0,0
-686,183,0,0,0,0,0,0,0,0,0,-1,538,841,0,0
-679,183,0,0,0,0,0,0,0,0,0,-1,545,841,0,0
-672,183,0,0,0,0,0,0,0,0,0,-1,552,841,0,0
-665,183,0,0,0,0,0,0,0,0,0,-1,559,841,0,0
-658,183,-56.7401,1.32843,0,0,0,0,0,0,0,-1,566,841,-56.7401,-1.32844
-651,183,-36.1273,9.60504,0,0,0,0,0,0,0,-1,573,841,-36.1273,-9.60503
-644,183,-38.5381,8.53137,0,0,0,0,0,0,0,-1,580,841,-38.5382,-8.53136
-637,183,-41.2306,7.42352,0,0,0,0,0,0,0,-1,587,841,-41.2306,-7.42353
-630,183,-41.4553,8.15369,0,0,0,0,0,0,0,-1,594,841,-41.4553,-8.15366
-623,183,-41.319,7.01178,0.0127481,0.0214231,-0.0146561,0.0323701,0.00180112,-0.929267,0.0210054,0.0461952,601,841,-41.3189,-7.01178
-616,183,-41.1854,5.8064,0.00806736,0.0160817,-0.0100714,0.0229138,0.00123526,-0.974735,0.0148812,0.0390046,608,841,-41.1853,-5.80641
-609,183,-41.1478,4.69434,0.00480235,0.0118442,-0.00660548,0.0158085,0.000837996,-1.03026,0.0102711,0.0187572,615,841,-41.1478,-4.69431
-602,183,-41.1773,3.85681,0.00217092,0.0081759,-0.00367169,0.00991643,0.000430388,-1.12813,0.00647226,0.0114304,622,841,-41.1773,-3.85679
-595,183,-41.2221,3.02594,7.61165e-05,0.00507036,-0.00125217,0.00536672,-0.000220245,-1.33839,0.00365344,0.0114291,629,841,-41.2221,-3.02593
-588,183,-41.2333,2.21094,-0.00139737,0.00259204,0.000451822,0.00264257,-0.00144791,1.45942,0.00239498,0.0145689,636,841,-41.2333,-2.21092
-581,183,-41.2971,1.4079,-0.00194208,0.000980913,0.00141561,0.0015541,-0.00251527,1.18607,0.0023712,0.0161126,643,841,-41.2971,-1.40787
-574,183,-41.3085,0.610901,-0.00125118,0.000378238,0.00159754,0.00135682,-0.00222976,1.0212,0.00209106,0.0207899,650,841,-41.3086,-0.61092
-567,183,-41.2438,-0.147461,0,0,0,0,0,0,0,-1,657,841,-41.2438,0.147469
-560,183,-34.0303,-1.05511,0,0,0,0,0,0,0,-1,664,841,-34.0303,1.05511
-553,183,-32.2224,-1.71942,0,0,0,0,0,0,0,-1,671,841,-32.2224,1.71944
-546,183,-27.8053,-1.91199,0,0,0,0,0,0,0,-1,678,841,-27.8053,1.91201
-539,183,-16.8032,-0.417297,0,0,0,0,0,0,0,-1,685,841,-16.8032,0.41732
-532,183,-29.9686,0.953613,0,0,0,0,0,0,0,-1,692,841,-29.9686,-0.953627
-525,183,-53.0594,0.986877,0,0,0,0,0,0,0,-1,699,841,-53.0594,-0.986848
-518,183,-54.9406,0.664856,0,0,0,0,0,0,0,-1,706,841,-54.9405,-0.664882
-511,183,-54.8665,0.664001,0.00185787,-0.00156567,-0.00106991,0.00216473,-0.00187253,-0.279312,0.00233295,0.0400741,713,841,-54.8665,-0.663973
-504,183,-55.1251,0.514832,0.00418257,-0.00228757,-0.000388713,0.00420584,-0.00231084,-0.0597914,0.00381506,0.0391358,720,841,-55.1251,-0.514832
-497,183,-55.1148,0.68042,0.00916918,-0.00267818,0.000787059,0.00922124,-0.00273024,0.0660464,0.00723146,0.0401572,727,841,-55.1148,-0.680422
-490,183,-54.9222,0.876404,0.015917,-0.0028871,0.00243039,0.0162261,-0.00319614,0.126479,0.0120252,0.0386176,734,841,-54.9222,-0.876414
-483,183,0,0,0,0,0,0,0,0,0,-1,741,841,0,0
-476,183,0,0,0,0,0,0,0,0,0,-1,748,841,0,0
-469,183,0,0,0,0,0,0,0,0,0,-1,755,841,0,0
-462,183,0,0,0,0,0,0,0,0,0,-1,762,841,0,0
-455,183,0,0,0,0,0,0,0,0,0,-1,769,841,0,0
-448,183,0,0,0,0,0,0,0,0,0,-1,776,841,0,0
-441,183,0,0,0,0,0,0,0,0,0,-1,783,841,0,0
-434,183,0,0,0,0,0,0,0,0,0,-1,790,841,0,0
-427,183,0,0,0,0,0,0,0,0,0,-1,797,841,0,0
-420,183,0,0,0,0,0,0,0,0,0,-1,804,841,0,0
-413,183,0,0,0,0,0,0,0,0,0,-1,811,841,0,0
-406,183,0,0,0,0,0,0,0,0,0,-1,818,841,0,0
-399,183,0,0,0,0,0,0,0,0,0,-1,825,841,0,0
-392,183,0,0,0,0,0,0,0,0,0,-1,832,841,0,0
-385,183,0,0,0,0,0,0,0,0,0,-1,839,841,0,0
-378,183,0,0,0,0,0,0,0,0,0,-1,846,841,0,0
-371,183,0,0,0,0,0,0,0,0,0,-1,853,841,0,0
-364,183,0,0,0,0,0,0,0,0,0,-1,860,841,0,0
-357,183,0,0,0,0,0,0,0,0,0,-1,867,841,0,0
-350,183,0,0,0,0,0,0,0,0,0,-1,874,841,0,0
-343,183,0,0,0,0,0,0,0,0,0,-1,881,841,0,0
-336,183,0,0,0,0,0,0,0,0,0,-1,888,841,0,0
-329,183,0,0,0,0,0,0,0,0,0,-1,895,841,0,0
-322,183,0,0,0,0,0,0,0,0,0,-1,902,841,0,0
-315,183,0,0,0,0,0,0,0,0,0,-1,909,841,0,0
-308,183,0,0,0,0,0,0,0,0,0,-1,916,841,0,0
-301,183,0,0,0,0,0,0,0,0,0,-1,923,841,0,0
-294,183,0,0,0,0,0,0,0,0,0,-1,930,841,0,0
-287,183,0,0,0,0,0,0,0,0,0,-1,937,841,0,0
-280,183,0,0,0,0,0,0,0,0,0,-1,944,841,0,0
-273,183,0,0,0,0,0,0,0,0,0,-1,951,841,0,0
-266,183,0,0,0,0,0,0,0,0,0,-1,958,841,0,0
-259,183,0,0,0,0,0,0,0,0,0,-1,965,841,0,0
-252,183,0,0,0,0,0,0,0,0,0,-1,972,841,0,0
-245,183,0,0,0,0,0,0,0,0,0,-1,979,841,0,0
-238,183,0,0,0,0,0,0,0,0,0,-1,986,841,0,0
-231,183,0,0,0,0,0,0,0,0,0,-1,993,841,0,0
-224,183,0,0,0,0,0,0,0,0,0,-1,1000,841,0,0
-217,183,0,0,0,0,0,0,0,0,0,-1,1007,841,0,0
-210,183,0,0,0,0,0,0,0,0,0,-1,1014,841,0,0
-203,183,0,0,0,0,0,0,0,0,0,-1,1021,841,0,0
-196,183,0,0,0,0,0,0,0,0,0,-1,1028,841,0,0
-189,183,0,0,0,0,0,0,0,0,0,-1,1035,841,0,0
-182,183,0,0,0,0,0,0,0,0,0,-1,1042,841,0,0
-175,183,0,0,0,0,0,0,0,0,0,-1,1049,841,0,0
-168,183,0,0,0,0,0,0,0,0,0,-1,1056,841,0,0
-161,183,0,0,0,0,0,0,0,0,0,-1,1063,841,0,0
-154,183,0,0,0,0,0,0,0,0,0,-1,1070,841,0,0
-147,183,0,0,0,0,0,0,0,0,0,-1,1077,841,0,0
-140,183,0,0,0,0,0,0,0,0,0,-1,1084,841,0,0
-133,183,0,0,0,0,0,0,0,0,0,-1,1091,841,0,0
-126,183,0,0,0,0,0,0,0,0,0,-1,1098,841,0,0
-119,183,0,0,0,0,0,0,0,0,0,-1,1105,841,0,0
-112,183,0,0,0,0,0,0,0,0,0,-1,1112,841,0,0
-105,183,0,0,0,0,0,0,0,0,0,-1,1119,841,0,0
-98,183,0,0,0,0,0,0,0,0,0,-1,1126,841,0,0
-91,183,0,0,0,0,0,0,0,0,0,-1,1133,841,0,0
-84,183,0,0,0,0,0,0,0,0,0,-1,1140,841,0,0
-77,183,0,0,0,0,0,0,0,0,0,-1,1147,841,0,0
-70,183,0,0,0,0,0,0,0,0,0,-1,1154,841,0,0
-63,183,0,0,0,0,0,0,0,0,0,-1,1161,841,0,0
-56,183,0,0,0,0,0,0,0,0,0,-1,1168,841,0,0
-49,183,0,0,0,0,0,0,0,0,0,-1,1175,841,0,0
-42,183,0,0,0,0,0,0,0,0,0,-1,1182,841,0,0
-35,183,0,0,0,0,0,0,0,0,0,-1,1189,841,0,0
-28,183,0,0,0,0,0,0,0,0,0,-1,1196,841,0,0
-21,183,0,0,0,0,0,0,0,0,0,-1,1203,841,0,0
-14,183,0,0,0,0,0,0,0,0,0,-1,1210,841,0,0
-7,183,0,0,0,0,0,0,0,0,0,-1,1217,841,0,0
0,183,0,0,0,0,0,0,0,0,0,-1,1224,841,0,0
7,183,0,0,0,0,0,0,0,0,0,-1,1231,841,0,0
14,183,0,0,0,0,0,0,0,0,0,-1,1238,841,0,0
21,183,0,0,0,0,0,0,0,0,0,-1,1245,841,0,0
28,183,0,0,0,0,0,0,0,0,0,-1,1252,841,0,0
35,183,0,0,0,0,0,0,0,0,0,-1,1259,841,0,0
42,183,0,0,0,0,0,0,0,0,0,-1,1266,841,0,0
49,183,0,0,0,0,0,0,0,0,0,-1,1273,841,0,0
56,183,0,0,0,0,0,0,0,0,0,-1,1280,841,0,0
63,183,0,0,0,0,0,0,0,0,0,-1,1287,841,0,0
70,183,0,0,0,0,0,0,0,0,0,-1,1294,841,0,0
77,183,0,0,0,0,0,0,0,0,0,-1,1301,841,0,0
84,183,0,0,0,0,0,0,0,0,0,-1,1308,841,0,0
91,183,0,0,0,0,0,0,0,0,0,-1,1315,841,0,0
98,183,0,0,0,0,0,0,0,0,0,-1,1322,841,0,0
105,183,0,0,0,0,0,0,0,0,0,-1,1329,841,0,0
112,183,0,0,0,0,0,0,0,0,0,-1,1336,841,0,0
119,183,0,0,0,0,0,0,0,0,0,-1,1343,841,0,0
126,183,0,0,0,0,0,0,0,0,0,-1,1350,841,0,0
133,183,0,0,0,0,0,0,0,0,0,-1,1357,841,0,0
140,183,0,0,0,0,0,0,0,0,0,-1,1364,841,0,0
147,183,0,0,0,0,0,0,0,0,0,-1,1371,841,0,0
154,183,0,0,0,0,0,0,0,0,0,-1,1378,841,0,0
161,183,0,0,0,0,0,0,0,0,0,-1,1385,841,0,0
168,183,0,0,0,0,0,0,0,0,0,-1,1392,841,0,0
175,183,0,0,0,0,0,0,0,0,0,-1,1399,841,0,0
182,183,0,0,0,0,0,0,0,0,0,-1,1406,841,0,0
189,183,0,0,0,0,0,0,0,0,0,-1,1413,841,0,0
196,183,0,0,0,0,0,0,0,0,0,-1,1420,841,0,0
203,183,0,0,0,0,0,0,0,0,0,-1,1427,841,0,0
210,183,0,0,0,0,0,0,0,0,0,-1,1434,841,0,0
217,183,0,0,0,0,0,0,0,0,0,-1,1441,841,0,0
224,183,0,0,0,0,0,0,0,0,0,-1,1448,841,0,0
231,183,0,0,0,0,0,0,0,0,0,-1,1455,841,0,0
238,183,0,0,0,0,0,0,0,0,0,-1,1462,841,0,0
245,183,0,0,0,0,0,0,0,0,0,-1,1469,841,0,0
252,183,0,0,0,0,0,0,0,0,0,-1,1476,841,0,0
259,183,0,0,0,0,0,0,0,0,0,-1,1483,841,0,0
266,183,0,0,0,0,0,0,0,0,0,-1,1490,841,0,0
273,183,0,0,0,0,0,0,0,0,0,-1,1497,841,0,0
280,183,0,0,0,0,0,0,0,0,0,-1,1504,841,0,0
287,183,0,0,0,0,0,0,0,0,0,-1,1511,841,0,0
294,183,0,0,0,0,0,0,0,0,0,-1,1518,841,0,0
301,183,0,0,0,0,0,0,0,0,0,-1,1525,841,0,0
308,183,0,0,0,0,0,0,0,0,0,-1,1532,841,0,0
315,183,0,0,0,0,0,0,0,0,0,-1,1539,841,0,0
322,183,0,0,0,0,0,0,0,0,0,-1,1546,841,0,0
329,183,0,0,0,0,0,0,0,0,0,-1,1553,841,0,0
336,183,0,0,0,0,0,0,0,0,0,-1,1560,841,0,0
343,183,0,0,0,0,0,0,0,0,0,-1,1567,841,0,0
350,183,0,0,0,0,0,0,0,0,0,-1,1574,841,0,0
357,183,0,0,0,0,0,0,0,0,0,-1,1581,841,0,0
364,183,0,0,0,0,0,0,0,0,0,-1,1588,841,0,0
371,183,0,0,0,0,0,0,0,0,0,-1,1595,841,0,0
378,183,0,0,0,0,0,0,0,0,0,-1,1602,841,0,0
385,183,0,0,0,0,0,0,0,0,0,-1,1609,841,0,0
392,183,0,0,0,0,0,0,0,0,0,-1,1616,841,0,0
399,183,0,0,0,0,0,0,0,0,0,-1,1623,841,0,0
406,183,0,0,0,0,0,0,0,0,0,-1,1630,841,0,0
413,183,0,0,0,0,0,0,0,0,0,-1,1637,841,0,0
420,183,0,0,0,0,0,0,0,0,0,-1,1644,841,0,0
427,183,0,0,0,0,0,0,0,0,0,-1,1651,841,0,0
434,183,0,0,0,0,0,0,0,0,0,-1,1658,841,0,0
441,183,0,0,0,0,0,0,0,0,0,-1,1665,841,0,0
448,183,0,0,0,0,0,0,0,0,0,-1,1672,841,0,0
455,183,0,0,0,0,0,0,0,0,0,-1,1679,841,0,0
462,183,0,0,0,0,0,0,0,0,0,-1,1686,841,0,0
469,183,0,0,0,0,0,0,0,0,0,-1,1693,841,0,0
476,183,0,0,0,0,0,0,0,0,0,-1,1700,841,0,0
483,183,0,0,0,0,0,0,0,0,0,-1,1707,841,0,0
490,183,0,0,0,0,0,0,0,0,0,-1,1714,841,0,0
497,183,0,0,0,0,0,0,0,0,0,-1,1721,841,0,0
504,183,0,0,0,0,0,0,0,0,0,-1,1728,841,0,0
511,183,0,0,0,0,0,0,0,0,0,-1,1735,841,0,0
518,183,0,0,0,0,0,0,0,0,0,-1,1742,841,0,0
525,183,0,0,0,0,0,0,0,0,0,-1,1749,841,0,0
532,183,0,0,0,0,0,0,0,0,0,-1,1756,841,0,0
539,183,0,0,0,0,0,0,0,0,0,-1,1763,841,0,0
546,183,0,0,0,0,0,0,0,0,0,-1,1770,841,0,0
553,183,0,0,0,0,0,0,0,0,0,-1,1777,841,0,0
560,183,0,0,0,0,0,0,0,0,0,-1,1784,841,0,0
567,183,0,0,0,0,0,0,0,0,0,-1,1791,841,0,0
574,183,0,0,0,0,0,0,0,0,0,-1,1798,841,0,0
581,183,0,0,0,0,0,0,0,0,0,-1,1805,841,0,0
588,183,0,0,0,0,0,0,0,0,0,-1,1812,841,0,0
595,183,0,0,0,0,0,0,0,0,0,-1,1819,841,0,0
602,183,0,0,0,0,0,0,0,0,0,-1,1826,841,0,0
609,183,70.3883,2.70374,0.00312204,-0.00524741,0.000870781,0.00321168,-0.00533705,0.102579,0.0049862,0.043919,1833,841,70.3883,-2.70376
616,183,70.7069,2.39606,0.00209398,-0.00261207,0.00153716,0.00255157,-0.00306967,0.289336,0.00325002,0.040385,1840,841,70.7069,-2.39603
623,183,70.915,2.30304,0.00103499,-0.000273188,0.00201055,0.00249517,-0.00173337,0.628134,0.00245452,0.0431854,1847,841,70.9151,-2.30305
630,183,70.8029,2.39886,0.000195172,0.00161831,0.00216104,0.00318191,-0.00136843,0.944444,0.00269579,0.0416745,1854,841,70.8029,-2.39885
637,183,70.6326,2.40082,-0.000469287,0.00223712,0.00179836,0.00313453,-0.00136669,1.10794,0.00266475,0.0354329,1861,841,70.6326,-2.40084
644,183,70.5258,2.39258,-0.000907017,0.00198886,0.00144334,0.00258536,-0.00150352,1.17889,0.0023881,0.028358,1868,841,70.5258,-2.3926
651,183,70.6293,2.43976,-0.00111162,0.00163296,0.000934817,0.00192111,-0.00139977,1.27179,0.00192517,0.031373,1875,841,70.6292,-2.43974
658,183,70.7649,2.45221,0,0,0,0,0,0,0,-1,1882,841,70.7649,-2.45222
665,183,38.4337,2.66992,0,0,0,0,0,0,0,-1,1889,841,38.4337,-2.6699
672,183,29.168,1.54572,0,0,0,0,0,0,0,-1,1896,841,29.168,-1.54574
679,183,56.4469,-0.633606,0,0,0,0,0,0,0,-1,1903,841,56.4469,0.633598
686,183,56.4288,0.0623169,-0.00170051,0.000535868,-0.00132092,0.00114834,-0.00231298,-1.13663,0.00203575,0.0393635,1910,841,56.4289,-0.0623342
693,183,56.3657,0.730469,-0.00131912,0.000217575,-0.00180792,0.00141365,-0.00251519,-0.986328,0.00229784,0.0366837,1917,841,56.3657,-0.730462
700,183,56.1091,1.5752,0,0,0,0,0,0,0,-1,1924,841,56.1091,-1.5752
707,183,56.1079,2.38556,-0.00182749,0.000201845,-0.00223307,0.00163996,-0.0032656,-0.998644,0.0028836,0.0143444,1931,841,56.1079,-2.38558
714,183,56.0891,3.18433,-0.00122042,0.000632713,-0.00191651,0.00183489,-0.0024226,-1.01056,0.00246586,0.0185901,1938,841,56.0891,-3.18435
721,183,56.0442,3.98718,-0.000350396,0.0016138,-0.00137923,0.00232486,-0.00106146,-1.09479,0.00199994,0.0169908,1945,841,56.0442,-3.98718
728,183,55.9901,4.78711,0.000537521,0.00275026,-0.000713439,0.00296034,0.000327437,-1.28442,0.00187397,0.014487,1952,841,55.9901,-4.78711
735,183,55.96,5.57037,0.00152358,0.00399494,-0.000170639,0.00400666,0.00151186,-1.50218,0.00233634,0.0136165,1959,841,55.96,-5.57038
742,183,55.9257,6.39722,0.00247828,0.00526481,9.26879e-05,0.00526789,0.0024752,1.53758,0.00304326,0.0136392,1966,841,55.9257,-6.39722
749,183,55.98,7.49805,0.00343514,0.00652141,0.000108788,0.00652524,0.00343131,1.53561,0.00376903,0.0358372,1973,841,55.98,-7.49804
756,183,56.1399,8.54236,0.00432355,0.00809122,-0.000592536,0.00818221,0.00423256,-1.41843,0.00472494,0.0469023,1980,841,56.1399,-8.54233
763,183,55.9739,9.57062,0,0,0,0,0,0,0,-1,1987,841,55.9739,-9.57061
770,183,51.5659,9.50665,0,0,0,0,0,0,0,-1,1994,841,51.5659,-9.50663
777,183,42.1948,7.22906,0,0,0,0,0,0,0,-1,2001,841,42.1948,-7.22905
784,183,0,0,0,0,0,0,0,0,0,-1,2008,841,0,0
791,183,0,0,0,0,0,0,0,0,0,-1,2015,841,0,0
798,183,0,0,0,0,0,0,0,0,0,-1,2022,841,0,0
805,183,0,0,0,0,0,0,0,0,0,-1,2029,841,0,0
812,183,0,0,0,0,0,0,0,0,0,-1,2036,841,0,0
-700,176,0,0,0,0,0,0,0,0,0,-1,524,848,0,0
-693,176,0,0,0,0,0,0,0,0,0,-1,531,848,0,0
-686,176,0,0,0,0,0,0,0,0,0,-1,538,848,0,0
-679,176,0,0,0,0,0,0,0,0,0,-1,545,848,0,0
-672,176,0,0,0,0,0,0,0,0,0,-1,552,848,0,0
-665,176,-59.6962,8.75854,0,0,0,0,0,0,0,-1,559,848,-59.6962,-8.75853
-658,176,-59.6349,7.95142,0,0,0,0,0,0,0,-1,566,848,-59.6349,-7.95144
-651,176,-40.3313,9.35437,0,0,0,0,0,0,0,-1,573,848,-40.3313,-9.35437
-644,176,-43.1446,7.86438,0,0,0,0,0,0,0,-1,580,848,-43.1446,-7.86439
-637,176,-41.3419,8.49255,0,0,0,0,0,0,0,-1,587,848,-41.3419,-8.49257
-630,176,-41.7836,7.62585,0,0,0,0,0,0,0,-1,594,848,-41.7836,-7.62583
-623,176,-42.048,6.72076,0.0113223,0.0193608,-0.0129754,0.0289252,0.0017579,-0.935592,0.018725,0.0430734,601,848,-42.0481,-6.72077
-616,176,-41.9337,5.57275,0.00705186,0.0143455,-0.00877531,0.0202016,0.00119576,-0.982329,0.0130873,0.0287644,608,848,-41.9337,-5.57273
-609,176,-41.9769,4.68652,0.0038534,0.0103189,-0.00549903,0.013465,0.000707265,-1.05113,0.00875044,0.012632,615,848,-41.9768,-4.6865
-602,176,-42.0104,3.85132,0.00114682,0.00684937,-0.00271314,0.00793394,6.22482e-05,-1.19051,0.00526867,0.0122899,622,848,-42.0104,-3.85131
-595,176,-42.0258,3.03589,-0.00104121,0.00398079,-0.000447549,0.00402037,-0.00108078,-1.4826,0.00310387,0.012051,629,848,-42.0258,-3.03587
-588,176,-42.0397,2.26398,-0.00243006,0.00183783,0.000911064,0.00202418,-0.0026164,1.36904,0.0026865,0.0146477,636,848,-42.0397,-2.26397
-581,176,-42.1272,1.5199,-0.00270592,0.00057908,0.00153873,0.00118724,-0.00331408,1.1944,0.0026938,0.0139832,643,848,-42.1272,-1.51992
-574,176,-42.2635,0.734863,-0.00177472,0.000123743,0.00163813,0.00106779,-0.00271877,1.04799,0.00225437,0.0300809,650,848,-42.2635,-0.734834
-567,176,-42.2955,-0.188049,0,0,0,0,0,0,0,-1,657,848,-42.2955,0.188028
-560,176,-31.6935,-0.0994873,0,0,0,0,0,0,0,-1,664,848,-31.6936,0.0994584
-553,176,-29.4605,-1.50214,0,0,0,0,0,0,0,-1,671,848,-29.4605,1.50211
-546,176,-16.657,-0.403198,0,0,0,0,0,0,0,-1,678,848,-16.657,0.403182
-539,176,-22.7061,1.48657,0,0,0,0,0,0,0,-1,685,848,-22.7061,-1.48657
-532,176,-38.8326,1.29749,0,0,0,0,0,0,0,-1,692,848,-38.8326,-1.29747
-525,176,-55.0286,0.488464,0,0,0,0,0,0,0,-1,699,848,-55.0286,-0.488482
-518,176,-54.9363,0.728088,0.00166857,-0.000785345,-0.00151517,0.00239127,-0.00150805,-0.44506,0.00227044,0.04503,706,848,-54.9363,-0.728111
-511,176,-54.8726,0.825928,0.00182466,-0.0014366,-0.00108078,0.00215031,-0.00176225,-0.292659,0.00226262,0.0432977,713,848,-54.8726,-0.825909
-504,176,-55.1446,0.279541,0.00496336,-0.00183922,-0.000220349,0.00497049,-0.00184635,-0.0323467,0.00407115,0.0416405,720,848,-55.1446,-0.279559
-497,176,-55.0899,0.430969,0.01039,-0.00183405,0.000959247,0.0104648,-0.00190887,0.077837,0.00769221,0.0407937,727,848,-55.0899,-0.430994
-490,176,-54.8107,0.75354,0.0167796,-0.00190136,0.00247541,0.0171021,-0.00222381,0.129532,0.0122103,0.0391163,734,848,-54.8107,-0.753527
-483,176,0,0,0,0,0,0,0,0,0,-1,741,848,0,0
-476,176,0,0,0,0,0,0,0,0,0,-1,748,848,0,0
-469,176,0,0,0,0,0,0,0,0,0,-1,755,848,0,0
-462,176,0,0,0,0,0,0,0,0,0,-1,762,848,0,0
-455,176,0,0,0,0,0,0,0,0,0,-1,769,848,0,0
-448,176,0,0,0,0,0,0,0,0,0,-1,776,848,0,0
-441,176,0,0,0,0,0,0,0,0,0,-1,783,848,0,0
-434,176,0,0,0,0,0,0,0,0,0,-1,790,848,0,0
-427,176,0,0,0,0,0,0,0,0,0,-1,797,848,0,0
-420,176,0,0,0,0,0,0,0,0,0,-1,804,848,0,0
-413,176,0,0,0,0,0,0,0,0,0,-1,811,848,0,0
-406,176,0,0,0,0,0,0,0,0,0,-1,818,848,0,0
-399,176,0,0,0,0,0,0,0,0,0,-1,825,848,0,0
-392,176,0,0,0,0,0,0,0,0,0,-1,832,848,0,0
-385,176,0,0,0,0,0,0,0,0,0,-1,839,848,0,0
-378,176,0,0,0,0,0,0,0,0,0,-1,846,848,0,0
-371,176,0,0,0,0,0,0,0,0,0,-1,853,848,0,0
-364,176,0,0,0,0,0,0,0,0,0,-1,860,848,0,0
-357,176,0,0,0,0,0,0,0,0,0,-1,867,848,0,0
-350,176,0,0,0,0,0,0,0,0,0,-1,874,848,0,0
-343,176,0,0,0,0,0,0,0,0,0,-1,881,848,0,0
-336,176,0,0,0,0,0,0,0,0,0,-1,888,848,0,0
-329,176,0,0,0,0,0,0,0,0,0,-1,895,848,0,0
-322,176,0,0,0,0,0,0,0,0,0,-1,902,848,0,0
-315,176,0,0,0,0,0,0,0,0,0,-1,909,848,0,0
-308,176,0,0,0,0,0,0,0,0,0,-1,916,848,0,0
-301,176,0,0,0,0,0,0,0,0,0,-1,923,848,0,0
-294,176,0,0,0,0,0,0,0,0,0,-1,930,848,0,0
-287,176,0,0,0,0,0,0,0,0,0,-1,937,848,0,0
-280,176,0,0,0,0,0,0,0,0,0,-1,944,848,0,0
-273,176,0,0,0,0,0,0,0,0,0,-1,951,848,0,0
-266,176,0,0,0,0,0,0,0,0,0,-1,958,848,0,0
-259,176,0,0,0,0,0,0,0,0,0,-1,965,848,0,0
-252,176,0,0,0,0,0,0,0,0,0,-1,972,848,0,0
-245,176,0,0,0,0,0,0,0,0,0,-1,979,848,0,0
-238,176,0,0,0,0,0,0,0,0,0,-1,986,848,0,0
-231,176,0,0,0,0,0,0,0,0,0,-1,993,848,0,0
-224,176,0,0,0,0,0,0,0,0,0,-1,1000,848,0,0
-217,176,0,0,0,0,0,0,0,0,0,-1,1007,848,0,0
-210,176,0,0,0,0,0,0,0,0,0,-1,1014,848,0,0
-203,176,0,0,0,0,0,0,0,0,0,-1,1021,848,0,0
-196,176,0,0,0,0,0,0,0,0,0,-1,1028,848,0,0
-189,176,0,0,0,0,0,0,0,0,0,-1,1035,848,0,0
-182,176,0,0,0,0,0,0,0,0,0,-1,1042,848,0,0
-175,176,0,0,0,0,0,0,0,0,0,-1,1049,848,0,0
-168,176,0,0,0,0,0,0,0,0,0,-1,1056,848,0,0
-161,176,0,0,0,0,0,0,0,0,0,-1,1063,848,0,0
-154,176,0,0,0,0,0,0,0,0,0,-1,1070,848,0,0
-147,176,0,0,0,0,0,0,0,0,0,-1,1077,848,0,0
-140,176,0,0,0,0,0,0,0,0,0,-1,1084,848,0,0
-133,176,0,0,0,0,0,0,0,0,0,-1,1091,848,0,0
-126,176,0,0,0,0,0,0,0,0,0,-1,1098,848,0,0
-119,176,0,0,0,0,0,0,0,0,0,-1,1105,848,0,0
-112,176,0,0,0,0,0,0,0,0,0,-1,1112,848,0,0
-105,176,0,0,0,0,0,0,0,0,0,-1,1119,848,0,0
-98,176,0,0,0,0,0,0,0,0,0,-1,1126,848,0,0
-91,176,0,0,0,0,0,0,0,0,0,-1,1133,848,0,0
-84,176,0,0,0,0,0,0,0,0,0,-1,1140,848,0,0
-77,176,0,0,0,0,0,0,0,0,0,-1,1147,848,0,0
-70,176,0,0,0,0,0,0,0,0,0,-1,1154,848,0,0
-63,176,0,0,0,0,0,0,0,0,0,-1,1161,848,0,0
-56,176,0,0,0,0,0,0,0,0,0,-1,1168,848,0,0
-49,176,0,0,0,0,0,0,0,0,0,-1,1175,848,0,0
-42,176,0,0,0,0,0,0,0,0,0,-1,1182,848,0,0
-35,176,0,0,0,0,0,0,0,0,0,-1,1189,848,0,0
-28,176,0,0,0,0,0,0,0,0,0,-1,1196,848,0,0
-21,176,0,0,0,0,0,0,0,0,0,-1,1203,848,0,0
-14,176,0,0,0,0,0,0,0,0,0,-1,1210,848,0,0
-7,176,0,0,0,0,0,0,0,0,0,-1,1217,848,0,0
0,176,0,0,0,0,0,0,0,0,0,-1,1224,848,0,0
7,176,0,0,0,0,0,0,0,0,0,-1,1231,848,0,0
14,176,0,0,0,0,0,0,0,0,0,-1,1238,848,0,0
21,176,0,0,0,0,0,0,0,0,0,-1,1245,848,0,0
28,176,0,0,0,0,0,0,0,0,0,-1,1252,848,0,0
35,176,0,0,0,0,0,0,0,0,0,-1,1259,848,0,0
42,176,0,0,0,0,0,0,0,0,0,-1,1266,848,0,0
49,176,0,0,0,0,0,0,0,0,0,-1,1273,848,0,0
56,176,0,0,0,0,0,0,0,0,0,-1,1280,848,0,0
63,176,0,0,0,0,0,0,0,0,0,-1,1287,848,0,0
70,176,0,0,0,0,0,0,0,0,0,-1,1294,848,0,0
77,176,0,0,0,0,0,0,0,0,0,-1,1301,848,0,0
84,176,0,0,0,0,0,0,0,0,0,-1,1308,848,0,0
91,176,0,0,0,0,0,0,0,0,0,-1,1315,848,0,0
98,176,0,0,0,0,0,0,0,0,0,-1,1322,848,0,0
105,176,0,0,0,0,0,0,0,0,0,-1,1329,848,0,0
112,176,0,0,0,0,0,0,0,0,0,-1,1336,848,0,0
119,176,0,0,0,0,0,0,0,0,0,-1,1343,848,0,0
126,176,0,0,0,0,0,0,0,0,0,-1,1350,848,0,0
133,176,0,0,0,0,0,0,0,0,0,-1,1357,848,0,0
140,176,0,0,0,0,0,0,0,0,0,-1,1364,848,0,0
147,176,0,0,0,0,0,0,0,0,0,-1,1371,848,0,0
154,176,0,0,0,0,0,0,0,0,0,-1,1378,848,0,0
161,176,0,0,0,0,0,0,0,0,0,-1,1385,848,0,0
168,176,0,0,0,0,0,0,0,0,0,-1,1392,848,0,0
175,176,0,0,0,0,0,0,0,0,0,-1,1399,848,0,0
182,176,0,0,0,0,0,0,0,0,0,-1,1406,848,0,0
189,176,0,0,0,0,0,0,0,0,0,-1,1413,848,0,0
196,176,0,0,0,0,0,0,0,0,0,-1,1420,848,0,0
203,176,0,0,0,0,0,0,0,0,0,-1,1427,848,0,0
210,176,0,0,0,0,0,0,0,0,0,-1,1434,848,0,0
217,176,0,0,0,0,0,0,0,0,0,-1,1441,848,0,0
224,176,0,0,0,0,0,0,0,0,0,-1,1448,848,0,0
231,176,0,0,0,0,0,0,0,0,0,-1,1455,848,0,0
238,176,0,0,0,0,0,0,0,0,0,-1,1462,848,0,0
245,176,0,0,0,0,0,0,0,0,0,-1,1469,848,0,0
252,176,0,0,0,0,0,0,0,0,0,-1,1476,848,0,0
259,176,0,0,0,0,0,0,0,0,0,-1,1483,848,0,0
266,176,0,0,0,0,0,0,0,0,0,-1,1490,848,0,0
273,176,0,0,0,0,0,0,0,0,0,-1,1497,848,0,0
280,176,0,0,0,0,0,0,0,0,0,-1,1504,848,0,0
287,176,0,0,0,0,0,0,0,0,0,-1,1511,848,0,0
294,176,0,0,0,0,0,0,0,0,0,-1,1518,848,0,0
301,176,0,0,0,0,0,0,0,0,0,-1,1525,848,0,0
308,176,0,0,0,0,0,0,0,0,0,-1,1532,848,0,0
315,176,0,0,0,0,0,0,0,0,0,-1,1539,848,0,0
322,176,0,0,0,0,0,0,0,0,0,-1,1546,848,0,0
329,176,0,0,0,0,0,0,0,0,0,-1,1553,848,0,0
336,176,0,0,0,0,0,0,0,0,0,-1,1560,848,0,0
343,176,0,0,0,0,0,0,0,0,0,-1,1567,848,0,0
350,176,0,0,0,0,0,0,0,0,0,-1,1574,848,0,0
357,176,0,0,0,0,0,0,0,0,0,-1,1581,848,0,0
364,176,0,0,0,0,0,0,0,0,0,-1,1588,848,0,0
371,176,0,0,0,0,0,0,0,0,0,-1,1595,848,0,0
378,176,0,0,0,0,0,0,0,0,0,-1,1602,848,0,0
385,176,0,0,0,0,0,0,0,0,0,-1,1609,848,0,0
392,176,0,0,0,0,0,0,0,0,0,-1,1616,848,0,0
399,176,0,0,0,0,0,0,0,0,0,-1,1623,848,0,0
406,176,0,0,0,0,0,0,0,0,0,-1,1630,848,0,0
413,176,0,0,0,0,0,0,0,0,0,-1,1637,848,0,0
420,176,0,0,0,0,0,0,0,0,0,-1,1644,848,0,0
427,176,0,0,0,0,0,0,0,0,0,-1,1651,848,0,0
434,176,0,0,0,0,0,0,0,0,0,-1,1658,848,0,0
441,176,0,0,0,0,0,0,0,0,0,-1,1665,848,0,0
448,176,0,0,0,0,0,0,0,0,0,-1,1672,848,0,0
455,176,0,0,0,0,0,0,0,0,0,-1,1679,848,0,0
462,176,0,0,0,0,0,0,0,0,0,-1,1686,848,0,0
469,176,0,0,0,0,0,0,0,0,0,-1,1693,848,0,0
476,176,0,0,0,0,0,0,0,0,0,-1,1700,848,0,0
483,176,0,0,0,0,0,0,0,0,0,-1,1707,848,0,0
490,176,0,0,0,0,0,0,0,0,0,-1,1714,848,0,0
497,176,0,0,0,0,0,0,0,0,0,-1,1721,848,0,0
504,176,0,0,0,0,0,0,0,0,0,-1,1728,848,0,0
511,176,0,0,0,0,0,0,0,0,0,-1,1735,848,0,0
518,176,0,0,0,0,0,0,0,0,0,-1,1742,848,0,0
525,176,0,0,0,0,0,0,0,0,0,-1,1749,848,0,0
532,176,0,0,0,0,0,0,0,0,0,-1,1756,848,0,0
539,176,0,0,0,0,0,0,0,0,0,-1,1763,848,0,0
546,176,0,0,0,0,0,0,0,0,0,-1,1770,848,0,0
553,176,0,0,0,0,0,0,0,0,0,-1,1777,848,0,0
560,176,0,0,0,0,0,0,0,0,0,-1,1784,848,0,0
567,176,0,0,0,0,0,0,0,0,0,-1,1791,848,0,0
574,176,0,0,0,0,0,0,0,0,0,-1,1798,848,0,0
581,176,0,0,0,0,0,0,0,0,0,-1,1805,848,0,0
588,176,0,0,0,0,0,0,0,0,0,-1,1812,848,0,0
595,176,0,0,0,0,0,0,0,0,0,-1,1819,848,0,0
602,176,0,0,0,0,0,0,0,0,0,-1,1826,848,0,0
609,176,70.4917,2.67438,0.00317905,-0.00613406,0.00202883,0.00360183,-0.00655684,0.205446,0.00594725,0.0405501,1833,848,70.4917,-2.6744
616,176,70.5433,2.40656,0.00203962,-0.00338311,0.00239223,0.00294409,-0.00428757,0.361474,0.00419915,0.0398572,1840,848,70.5433,-2.40656
623,176,70.8129,2.2099,0.000879567,-0.00106948,0.00257956,0.00266255,-0.00285246,0.604792,0.00318472,0.0449522,1847,848,70.8129,-2.20992
630,176,70.9855,2.37164,6.31015e-05,0.000833481,0.00248798,0.00296592,-0.00206933,0.862198,0.00292243,0.0416465,1854,848,70.9855,-2.37163
637,176,70.6885,2.41937,-0.000546019,0.0018017,0.00204281,0.0029839,-0.00172822,1.04618,0.00275255,0.0325891,1861,848,70.6884,-2.41936
644,176,70.4424,2.40277,-0.000958925,0.00175501,0.00159103,0.00248915,-0.00169307,1.13848,0.00242914,0.0306397,1868,848,70.4424,-2.40274
651,176,70.5439,2.4505,-0.00119425,0.0014896,0.000997723,0.00181986,-0.00152451,1.25113,0.00193338,0.0317704,1875,848,70.5439,-2.4505
658,176,70.6901,2.42511,0,0,0,0,0,0,0,-1,1882,848,70.69,-2.42514
665,176,54.3333,2.34277,0,0,0,0,0,0,0,-1,1889,848,54.3333,-2.34279
672,176,16.9304,2.80719,0,0,0,0,0,0,0,-1,1896,848,16.9305,-2.80719
679,176,50.9341,0.315979,0,0,0,0,0,0,0,-1,1903,848,50.9341,-0.315984
686,176,57.4115,0.160706,0,0,0,0,0,0,0,-1,1910,848,57.4115,-0.160677
693,176,57.1909,0.899536,-0.00115189,5.89094e-05,-0.00193334,0.00147942,-0.0025724,-0.937131,0.00236752,0.0352976,1917,848,57.1909,-0.899564
700,176,57.0416,1.8194,-0.00137812,-2.33254e-05,-0.00226964,0.00166785,-0.0030693,-0.93042,0.0027746,0.0417041,1924,848,57.0416,-1.81942
707,176,57.0391,2.56317,-0.00170156,1.09896e-05,-0.00246187,0.00176125,-0.00345182,-0.952762,0.00306206,0.0278997,1931,848,57.039,-2.56316
714,176,56.9146,3.22589,-0.00127065,0.00034343,-0.00232212,0.00199475,-0.00292197,-0.952641,0.00285545,0.0150272,1938,848,56.9146,-3.2259
721,176,56.8765,4.0025,-0.000626394,0.00124596,-0.00193324,0.00245777,-0.0018382,-1.01088,0.00248887,0.0141764,1945,848,56.8764,-4.0025
728,176,56.8,4.84619,-3.87731e-05,0.00236638,-0.00131325,0.00294448,-0.000616874,-1.15612,0.00219766,0.017358,1952,848,56.8,-4.84621
735,176,56.7542,5.6463,0.000704274,0.00364738,-0.000746544,0.00382592,0.000525738,-1.33605,0.00239468,0.0160516,1959,848,56.7541,-5.64629
742,176,56.7277,6.4281,0.00139084,0.005006,-0.000416365,0.00505333,0.00134351,-1.4576,0.00302229,0.0244054,1966,848,56.7276,-6.42807
749,176,56.9742,7.38562,0.00197691,0.00635662,-0.000316758,0.00637942,0.00195412,-1.49897,0.00377415,0.0374457,1973,848,56.9742,-7.38561
756,176,57.4193,8.51575,0,0,0,0,0,0,0,-1,1980,848,57.4193,-8.51577
763,176,44.4343,7.70581,0,0,0,0,0,0,0,-1,1987,848,44.4343,-7.70578
770,176,36.4186,4.25641,0,0,0,0,0,0,0,-1,1994,848,36.4186,-4.25639
777,176,43.8328,7.50177,0,0,0,0,0,0,0,-1,2001,848,43.8328,-7.50178
784,176,0,0,0,0,0,0,0,0,0,-1,2008,848,0,0
791,176,0,0,0,0,0,0,0,0,0,-1,2015,848,0,0
798,176,0,0,0,0,0,0,0,0,0,-1,2022,848,0,0
805,176,0,0,0,0,0,0,0,0,0,-1,2029,848,0,0
812,176,0,0,0,0,0,0,0,0,0,-1,2036,848,0,0
-700,169,0,0,0,0,0,0,0,0,0,-1,524,855,0,0
-693,169,0,0,0,0,0,0,0,0,0,-1,531,855,0,0
-686,169,0,0,0,0,0,0,0,0,0,-1,538,855,0,0
-679,169,0,0,0,0,0,0,0,0,0,-1,545,855,0,0
-672,169,0,0,0,0,0,0,0,0,0,-1,552,855,0,0
-665,169,-50.4697,8.3269,0,0,0,0,0,0,0,-1,559,855,-50.4697,-8.32688
-658,169,-58.8608,8.22839,0,0,0,0,0,0,0,-1,566,855,-58.8608,-8.2284
-651,169,-43.5024,9.3349,0,0,0,0,0,0,0,-1,573,855,-43.5025,-9.33492
-644,169,-43.193,8.37292,0,0,0,0,0,0,0,-1,580,855,-43.193,-8.3729
-637,169,-42.8521,7.51019,0,0,0,0,0,0,0,-1,587,855,-42.8521,-7.51017
-630,169,-42.8984,7.33942,0,0,0,0,0,0,0,-1,594,855,-42.8984,-7.33939
-623,169,-42.8058,6.39813,0.00879175,0.0171433,-0.0106634,0.0244193,0.00151567,-0.972019,0.0157986,0.0412301,601,855,-42.8059,-6.39815
-616,169,-42.7169,5.47577,0.00525257,0.0125024,-0.0070146,0.0167734,0.000981634,-1.02388,0.0108698,0.0239604,608,855,-42.7169,-5.47575
-609,169,-42.7615,4.70313,0.00243994,0.00872642,-0.00409224,0.0107433,0.000423096,-1.11289,0.00702539,0.0144013,615,855,-42.7615,-4.70313
-602,169,-42.8057,3.88721,-4.11454e-05,0.0054748,-0.00159503,0.00590282,-0.000469162,-1.30863,0.00410055,0.0141325,622,855,-42.8057,-3.88722
-595,169,-42.8356,3.07703,-0.00198791,0.00286939,0.000357652,0.00289558,-0.0020141,1.49769,0.0028498,0.0128374,629,855,-42.8356,-3.07701
-588,169,-42.8549,2.328,-0.00305022,0.000999332,0.00127839,0.00136913,-0.00342002,1.28921,0.00284828,0.0113386,636,855,-42.8549,-2.32801
-581,169,-42.9525,1.60638,-0.0030808,-7.60086e-05,0.00163106,0.000639148,-0.00379596,1.15758,0.00276839,0.0245216,643,855,-42.9524,-1.60641
-574,169,-43.3041,0.769531,-0.00215853,-0.000500588,0.00175558,0.000611894,-0.00327101,1.00598,0.00241066,0.0422623,650,855,-43.3041,-0.769549
-567,169,-43.0947,-0.0325928,0,0,0,0,0,0,0,-1,657,855,-43.0947,0.0325893
-560,169,-43.131,-0.723755,0,0,0,0,0,0,0,-1,664,855,-43.131,0.723729
-553,169,-32.1944,-0.787964,0,0,0,0,0,0,0,-1,671,855,-32.1944,0.787959
-546,169,-19.0852,-1.05609,0,0,0,0,0,0,0,-1,678,855,-19.0852,1.05612
-539,169,-33.2307,1.10706,0,0,0,0,0,0,0,-1,685,855,-33.2307,-1.10708
-532,169,-55.0493,0.422119,0,0,0,0,0,0,0,-1,692,855,-55.0493,-0.422148
-525,169,-54.9822,0.483765,0.00163814,-0.00100107,-0.000584914,0.00176196,-0.00112489,-0.208613,0.0016802,0.045756,699,855,-54.9823,-0.483775
-518,169,-54.8981,0.612732,0.00153925,-0.00111515,-0.00122006,0.00201483,-0.00159073,-0.371682,0.00208646,0.04311,706,855,-54.8981,-0.612707
-511,169,-54.8093,0.724609,0.00233644,-0.00137442,-0.000710272,0.00246774,-0.00150572,-0.182799,0.00231638,0.0431581,713,855,-54.8093,-0.724602
-504,169,-54.9652,0.312622,0.00571779,-0.00106897,0.000185389,0.00572285,-0.00107403,0.0272891,0.00421906,0.042755,720,855,-54.9652,-0.312602
-497,169,-55.0151,0.19873,0.0105517,-0.00041946,0.00118885,0.010679,-0.000546807,0.106711,0.00730844,0.0424751,727,855,-55.0151,-0.19872
-490,169,0,0,0,0,0,0,0,0,0,-1,734,855,0,0
-483,169,0,0,0,0,0,0,0,0,0,-1,741,855,0,0
-476,169,0,0,0,0,0,0,0,0,0,-1,748,855,0,0
-469,169,0,0,0,0,0,0,0,0,0,-1,755,855,0,0
-462,169,0,0,0,0,0,0,0,0,0,-1,762,855,0,0
-455,169,0,0,0,0,0,0,0,0,0,-1,769,855,0,0
-448,169,0,0,0,0,0,0,0,0,0,-1,776,855,0,0
-441,169,0,0,0,0,0,0,0,0,0,-1,783,855,0,0
-434,169,0,0,0,0,0,0,0,0,0,-1,790,855,0,0
-427,169,0,0,0,0,0,0,0,0,0,-1,797,855,0,0
-420,169,0,0,0,0,0,0,0,0,0,-1,804,855,0,0
-413,169,0,0,0,0,0,0,0,0,0,-1,811,855,0,0
-406,169,0,0,0,0,0,0,0,0,0,-1,818,855,0,0
-399,169,0,0,0,0,0,0,0,0,0,-1,825,855,0,0
-392,169,0,0,0,0,0,0,0,0,0,-1,832,855,0,0
-385,169,0,0,0,0,0,0,0,0,0,-1,839,855,0,0
-378,169,0,0,0,0,0,0,0,0,0,-1,846,855,0,0
-371,169,0,0,0,0,0,0,0,0,0,-1,853,855,0,0
-364,169,0,0,0,0,0,0,0,0,0,-1,860,855,0,0
-357,169,0,0,0,0,0,0,0,0,0,-1,867,855,0,0
-350,169,0,0,0,0,0,0,0,0,0,-1,874,855,0,0
-343,169,0,0,0,0,0,0,0,0,0,-1,881,855,0,0
-336,169,0,0,0,0,0,0,0,0,0,-1,888,855,0,0
-329,169,0,0,0,0,0,0,0,0,0,-1,895,855,0,0
-322,169,0,0,0,0,0,0,0,0,0,-1,902,855,0,0
-315,169,0,0,0,0,0,0,0,0,0,-1,909,855,0,0
-308,169,0,0,0,0,0,0,0,0,0,-1,916,855,0,0
-301,169,0,0,0,0,0,0,0,0,0,-1,923,855,0,0
-294,169,0,0,0,0,0,0,0,0,0,-1,930,855,0,0
-287,169,0,0,0,0,0,0,0,0,0,-1,937,855,0,0
-280,169,0,0,0,0,0,0,0,0,0,-1,944,855,0,0
-273,169,0,0,0,0,0,0,0,0,0,-1,951,855,0,0
-266,169,0,0,0,0,0,0,0,0,0,-1,958,855,0,0
-259,169,0,0,0,0,0,0,0,0,0,-1,965,855,0,0
-252,169,0,0,0,0,0,0,0,0,0,-1,972,855,0,0
-245,169,0,0,0,0,0,0,0,0,0,-1,979,855,0,0
-238,169,0,0,0,0,0,0,0,0,0,-1,986,855,0,0
-231,169,0,0,0,0,0,0,0,0,0,-1,993,855,0,0
-224,169,0,0,0,0,0,0,0,0,0,-1,1000,855,0,0
-217,169,0,0,0,0,0,0,0,0,0,-1,1007,855,0,0
-210,169,0,0,0,0,0,0,0,0,0,-1,1014,855,0,0
-203,169,0,0,0,0,0,0,0,0,0,-1,1021,855,0,0
-196,169,0,0,0,0,0,0,0,0,0,-1,1028,855,0,0
-189,169,0,0,0,0,0,0,0,0,0,-1,1035,855,0,0
-182,169,0,0,0,0,0,0,0,0,0,-1,1042,855,0,0
-175,169,0,0,0,0,0,0,0,0,0,-1,1049,855,0,0
-168,169,0,0,0,0,0,0,0,0,0,-1,1056,855,0,0
-161,169,0,0,0,0,0,0,0,0,0,-1,1063,855,0,0
-154,169,0,0,0,0,0,0,0,0,0,-1,1070,855,0,0
-147,169,0,0,0,0,0,0,0,0,0,-1,1077,855,0,0
-140,169,0,0,0,0,0,0,0,0,0,-1,1084,855,0,0
-133,169,0,0,0,0,0,0,0,0,0,-1,1091,855,0,0
-126,169,0,0,0,0,0,0,0,0,0,-1,1098,855,0,0
-119,169,0,0,0,0,0,0,0,0,0,-1,1105,855,0,0
-112,169,0,0,0,0,0,0,0,0,0,-1,1112,855,0,0
-105,169,0,0,0,0,0,0,0,0,0,-1,1119,855,0,0
-98,169,0,0,0,0,0,0,0,0,0,-1,1126,855,0,0
-91,169,0,0,0,0,0,0,0,0,0,-1,1133,855,0,0
-84,169,0,0,0,0,0,0,0,0,0,-1,1140,855,0,0
-77,169,0,0,0,0,0,0,0,0,0,-1,1147,855,0,0
-70,169,0,0,0,0,0,0,0,0,0,-1,1154,855,0,0
-63,169,0,0,0,0,0,0,0,0,0,-1,1161,855,0,0
-56,169,0,0,0,0,0,0,0,0,0,-1,1168,855,0,0
-49,169,0,0,0,0,0,0,0,0,0,-1,1175,855,0,0
-42,169,0,0,0,0,0,0,0,0,0,-1,1182,855,0,0
-35,169,0,0,0,0,0,0,0,0,0,-1,1189,855,0,0
-28,169,0,0,0,0,0,0,0,0,0,-1,1196,855,0,0
-21,169,0,0,0,0,0,0,0,0,0,-1,1203,855,0,0
-14,169,0,0,0,0,0,0,0,0,0,-1,1210,855,0,0
-7,169,0,0,0,0,0,0,0,0,0,-1,1217,855,0,0
0,169,0,0,0,0,0,0,0,0,0,-1,1224,855,0,0
7,169,0,0,0,0,0,0,0,0,0,-1,1231,855,0,0
14,169,0,0,0,0,0,0,0,0,0,-1,1238,855,0,0
21,169,0,0,0,0,0,0,0,0,0,-1,1245,855,0,0
28,169,0,0,0,0,0,0,0,0,0,-1,1252,855,0,0
35,169,0,0,0,0,0,0,0,0,0,-1,1259,855,0,0
42,169,0,0,0,0,0,0,0,0,0,-1,1266,855,0,0
49,169,0,0,0,0,0,0,0,0,0,-1,1273,855,0,0
56,169,0,0,0,0,0,0,0,0,0,-1,1280,855,0,0
63,169,0,0,0,0,0,0,0,0,0,-1,1287,855,0,0
70,169,0,0,0,0,0,0,0,0,0,-1,1294,855,0,0
77,169,0,0,0,0,0,0,0,0,0,-1,1301,855,0,0
84,169,0,0,0,0,0,0,0,0,0,-1,1308,855,0,0
91,169,0,0,0,0,0,0,0,0,0,-1,1315,855,0,0
98,169,0,0,0,0,0,0,0,0,0,-1,1322,855,0,0
105,169,0,0,0,0,0,0,0,0,0,-1,1329,855,0,0
112,169,0,0,0,0,0,0,0,0,0,-1,1336,855,0,0
119,169,0,0,0,0,0,0,0,0,0,-1,1343,855,0,0
126,169,0,0,0,0,0,0,0,0,0,-1,1350,855,0,0
133,169,0,0,0,0,0,0,0,0,0,-1,1357,855,0,0
140,169,0,0,0,0,0,0,0,0,0,-1,1364,855,0,0
147,169,0,0,0,0,0,0,0,0,0,-1,1371,855,0,0
154,169,0,0,0,0,0,0,0,0,0,-1,1378,855,0,0
161,169,0,0,0,0,0,0,0,0,0,-1,1385,855,0,0
168,169,0,0,0,0,0,0,0,0,0,-1,1392,855,0,0
175,169,0,0,0,0,0,0,0,0,0,-1,1399,855,0,0
182,169,0,0,0,0,0,0,0,0,0,-1,1406,855,0,0
189,169,0,0,0,0,0,0,0,0,0,-1,1413,855,0,0
196,169,0,0,0,0,0,0,0,0,0,-1,1420,855,0,0
203,169,0,0,0,0,0,0,0,0,0,-1,1427,855,0,0
210,169,0,0,0,0,0,0,0,0,0,-1,1434,855,0,0
217,169,0,0,0,0,0,0,0,0,0,-1,1441,855,0,0
224,169,0,0,0,0,0,0,0,0,0,-1,1448,855,0,0
231,169,0,0,0,0,0,0,0,0,0,-1,1455,855,0,0
238,169,0,0,0,0,0,0,0,0,0,-1,1462,855,0,0
245,169,0,0,0,0,0,0,0,0,0,-1,1469,855,0,0
252,169,0,0,0,0,0,0,0,0,0,-1,1476,855,0,0
259,169,0,0,0,0,0,0,0,0,0,-1,1483,855,0,0
266,169,0,0,0,0,0,0,0,0,0,-1,1490,855,0,0
273,169,0,0,0,0,0,0,0,0,0,-1,1497,855,0,0
280,169,0,0,0,0,0,0,0,0,0,-1,1504,855,0,0
287,169,0,0,0,0,0,0,0,0,0,-1,1511,855,0,0
294,169,0,0,0,0,0,0,0,0,0,-1,1518,855,0,0
301,169,0,0,0,0,0,0,0,0,0,-1,1525,855,0,0
308,169,0,0,0,0,0,0,0,0,0,-1,1532,855,0,0
315,169,0,0,0,0,0,0,0,0,0,-1,1539,855,0,0
322,169,0,0,0,0,0,0,0,0,0,-1,1546,855,0,0
329,169,0,0,0,0,0,0,0,0,0,-1,1553,855,0,0
336,169,0,0,0,0,0,0,0,0,0,-1,1560,855,0,0
343,169,0,0,0,0,0,0,0,0,0,-1,1567,855,0,0
350,169,0,0,0,0,0,0,0,0,0,-1,1574,855,0,0
357,169,0,0,0,0,0,0,0,0,0,-1,1581,855,0,0
364,169,0,0,0,0,0,0,0,0,0,-1,1588,855,0,0
371,169,0,0,0,0,0,0,0,0,0,-1,1595,855,0,0
378,169,0,0,0,0,0,0,0,0,0,-1,1602,855,0,0
385,169,0,0,0,0,0,0,0,0,0,-1,1609,855,0,0
392,169,0,0,0,0,0,0,0,0,0,-1,1616,855,0,0
399,169,0,0,0,0,0,0,0,0,0,-1,1623,855,0,0
406,169,0,0,0,0,0,0,0,0,0,-1,1630,855,0,0
413,169,0,0,0,0,0,0,0,0,0,-1,1637,855,0,0
420,169,0,0,0,0,0,0,0,0,0,-1,1644,855,0,0
427,169,0,0,0,0,0,0,0,0,0,-1,1651,855,0,0
434,169,0,0,0,0,0,0,0,0,0,-1,1658,855,0,0
441,169,0,0,0,0,0,0,0,0,0,-1,1665,855,0,0
448,169,0,0,0,0,0,0,0,0,0,-1,1672,855,0,0
455,169,0,0,0,0,0,0,0,0,0,-1,1679,855,0,0
462,169,0,0,0,0,0,0,0,0,0,-1,1686,855,0,0
469,169,0,0,0,0,0,0,0,0,0,-1,1693,855,0,0
476,169,0,0,0,0,0,0,0,0,0,-1,1700,855,0,0
483,169,0,0,0,0,0,0,0,0,0,-1,1707,855,0,0
490,169,0,0,0,0,0,0,0,0,0,-1,1714,855,0,0
497,169,0,0,0,0,0,0,0,0,0,-1,1721,855,0,0
504,169,0,0,0,0,0,0,0,0,0,-1,1728,855,0,0
511,169,0,0,0,0,0,0,0,0,0,-1,1735,855,0,0
518,169,0,0,0,0,0,0,0,0,0,-1,1742,855,0,0
525,169,0,0,0,0,0,0,0,0,0,-1,1749,855,0,0
532,169,0,0,0,0,0,0,0,0,0,-1,1756,855,0,0
539,169,0,0,0,0,0,0,0,0,0,-1,1763,855,0,0
546,169,0,0,0,0,0,0,0,0,0,-1,1770,855,0,0
553,169,0,0,0,0,0,0,0,0,0,-1,1777,855,0,0
560,169,0,0,0,0,0,0,0,0,0,-1,1784,855,0,0
567,169,0,0,0,0,0,0,0,0,0,-1,1791,855,0,0
574,169,0,0,0,0,0,0,0,0,0,-1,1798,855,0,0
581,169,0,0,0,0,0,0,0,0,0,-1,1805,855,0,0
588,169,0,0,0,0,0,0,0,0,0,-1,1812,855,0,0
595,169,0,0,0,0,0,0,0,0,0,-1,1819,855,0,0
602,169,0,0,0,0,0,0,0,0,0,-1,1826,855,0,0
609,169,0,0,0,0,0,0,0,0,0,-1,1833,855,0,0
616,169,70.626,2.31757,0,0,0,0,0,0,0,-1,1840,855,70.626,-2.31754
623,169,71.2485,2.25238,0,0,0,0,0,0,0,-1,1847,855,71.2486,-2.25238
630,169,71.021,2.42981,0.00015289,-0.000215792,0.00288938,0.00286381,-0.00292671,0.753542,0.00334322,0.0441981,1854,855,71.0209,-2.42979
637,169,70.8094,2.47449,-0.000443186,0.000999477,0.0022822,0.00267162,-0.00211533,0.938465,0.00276996,0.0373794,1861,855,70.8094,-2.47448
644,169,70.5886,2.47736,-0.000849867,0.0011892,0.00169395,0.00214676,-0.00180743,1.05629,0.00228575,0.0348545,1868,855,70.5886,-2.47736
651,169,70.5569,2.52429,-0.0011113,0.00103794,0.0010109,0.00143869,-0.00151206,1.19337,0.00170379,0.0358855,1875,855,70.5569,-2.5243
658,169,70.6366,2.47974,-0.00147058,0.000633776,0.00025567,0.000664393,-0.0015012,1.45161,0.00128104,0.0442178,1882,855,70.6366,-2.47977
665,169,70.7546,2.38867,0,0,0,0,0,0,0,-1,1889,855,70.7546,-2.38865
672,169,31.2465,2.96387,0,0,0,0,0,0,0,-1,1896,855,31.2464,-2.9639
679,169,38.4297,1.08197,0,0,0,0,0,0,0,-1,1903,855,38.4296,-1.08194
686,169,57.999,0.176208,0,0,0,0,0,0,0,-1,1910,855,57.999,-0.176187
693,169,58.1064,1.02484,-0.00108497,-0.000314337,-0.00209707,0.00143252,-0.00283182,-0.876255,0.00250582,0.0391556,1917,855,58.1065,-1.02484
700,169,58.1138,1.90619,-0.00125925,-0.000368412,-0.0024037,0.00163079,-0.00325846,-0.877012,0.00287448,0.0328994,1924,855,58.1138,-1.90622
707,169,58.0109,2.66046,-0.00162082,-0.000340414,-0.00268248,0.0017772,-0.00373844,-0.902537,0.00325087,0.0346985,1931,855,58.0108,-2.66049
714,169,57.6956,3.21912,-0.00133479,-3.64729e-05,-0.00268447,0.00207621,-0.00344747,-0.904031,0.00322169,0.0205024,1938,855,57.6956,-3.2191
721,169,57.6847,4.0423,-0.000913196,0.000827407,-0.00243844,0.0025462,-0.00263199,-0.956806,0.00298977,0.0189491,1945,855,57.6847,-4.04231
728,169,57.6309,4.88733,-0.000655213,0.00191279,-0.00189211,0.00291544,-0.00165786,-1.08351,0.00267346,0.0157362,1952,855,57.6309,-4.8873
735,169,57.5536,5.69031,-0.000202489,0.00317763,-0.00132548,0.00363541,-0.000660265,-1.23826,0.00267104,0.0209719,1959,855,57.5536,-5.69032
742,169,57.5592,6.46838,0.000191872,0.00457995,-0.000906953,0.00476002,1.18066e-05,-1.37481,0.00316942,0.0194421,1966,855,57.5592,-6.46841
749,169,57.4866,7.1806,0.000394478,0.00595897,-0.000687127,0.00604257,0.000310885,-1.44973,0.00392885,0.0306337,1973,855,57.4866,-7.18061
756,169,57.5741,7.88055,0,0,0,0,0,0,0,-1,1980,855,57.5741,-7.88057
763,169,45.1978,7.5675,0,0,0,0,0,0,0,-1,1987,855,45.1977,-7.56751
770,169,37.2059,3.97021,0,0,0,0,0,0,0,-1,1994,855,37.2059,-3.97022
777,169,41.7505,8.7085,0,0,0,0,0,0,0,-1,2001,855,41.7505,-8.70852
784,169,40.7385,9.24359,0,0,0,0,0,0,0,-1,2008,855,40.7384,-9.24361
791,169,0,0,0,0,0,0,0,0,0,-1,2015,855,0,0
798,169,0,0,0,0,0,0,0,0,0,-1,2022,855,0,0
805,169,0,0,0,0,0,0,0,0,0,-1,2029,855,0,0
812,169,0,0,0,0,0,0,0,0,0,-1,2036,855,0,0
-700,162,0,0,0,0,0,0,0,0,0,-1,524,862,0,0
-693,162,0,0,0,0,0,0,0,0,0,-1,531,862,0,0
-686,162,0,0,0,0,0,0,0,0,0,-1,538,862,0,0
-679,162,0,0,0,0,0,0,0,0,0,-1,545,862,0,0
-672,162,0,0,0,0,0,0,0,0,0,-1,552,862,0,0
-665,162,-50.6751,7.18884,0,0,0,0,0,0,0,-1,559,862,-50.6751,-7.18885
-658,162,-50.7888,6.02673,0,0,0,0,0,0,0,-1,566,862,-50.7888,-6.02673
-651,162,-43.5444,9.86621,0,0,0,0,0,0,0,-1,573,862,-43.5444,-9.86623
-644,162,-43.2151,8.88611,0,0,0,0,0,0,0,-1,580,862,-43.2151,-8.88608
-637,162,-43.332,8.02917,0,0,0,0,0,0,0,-1,587,862,-43.332,-8.02917
-630,162,-43.6012,7.24939,0,0,0,0,0,0,0,-1,594,862,-43.6012,-7.24938
-623,162,-43.5599,6.34772,0.00621161,0.0155593,-0.00869775,0.0207594,0.00101145,-1.03194,0.0135151,0.035354,601,862,-43.56,-6.34772
-616,162,-43.492,5.49011,0.00350634,0.0113429,-0.00558403,0.0142462,0.000603022,-1.09133,0.00930301,0.0216485,608,862,-43.492,-5.49009
-609,162,-43.5659,4.69873,0.00118363,0.00779416,-0.00297787,0.00893777,4.00208e-05,-1.20413,0.00594522,0.0140846,615,862,-43.5659,-4.69872
-602,162,-43.6134,3.91473,-0.000984529,0.0046731,-0.000687009,0.00475533,-0.00106676,-1.45167,0.00357919,0.0123313,622,862,-43.6134,-3.91473
-595,162,-43.6447,3.13422,-0.00255676,0.00223473,0.00101742,0.00244182,-0.00276385,1.37,0.00300741,0.0119527,629,862,-43.6447,-3.13424
-588,162,-43.6627,2.37054,-0.00327015,0.000489974,0.00159957,0.00107836,-0.00385854,1.21832,0.00299719,0.0164115,636,862,-43.6626,-2.37052
-581,162,-43.9485,1.60559,-0.00315581,-0.00058364,0.00172614,0.000282846,-0.0040223,1.10557,0.00278061,0.0434674,643,862,-43.9485,-1.60561
-574,162,-44.4815,0.477112,0,0,0,0,0,0,0,-1,650,862,-44.4815,-0.477134
-567,162,-44.3654,-0.134033,0,0,0,0,0,0,0,-1,657,862,-44.3654,0.134061
-560,162,-36.5075,-0.831665,0,0,0,0,0,0,0,-1,664,862,-36.5075,0.831657
-553,162,-35.9823,-1.60956,0,0,0,0,0,0,0,-1,671,862,-35.9823,1.60954
-546,162,-22.8181,-1.51154,0,0,0,0,0,0,0,-1,678,862,-22.8181,1.51155
-539,162,-53.0229,0.9328,0,0,0,0,0,0,0,-1,685,862,-53.0229,-0.932798
-532,162,-54.9792,0.37561,0,0,0,0,0,0,0,-1,692,862,-54.9792,-0.375614
-525,162,-54.93,0.487732,0.00127365,-0.00184114,-0.000288663,0.00130017,-0.00186767,-0.0916349,0.00183871,0.0386625,699,862,-54.93,-0.487761
-518,162,-54.8576,0.472839,0.00140704,-0.0018174,-0.0008392,0.00161238,-0.00202274,-0.239966,0.00210319,0.0394897,706,862,-54.8576,-0.472809
-511,162,-54.7748,0.397705,0,0,0,0,0,0,0,-1,713,862,-54.7749,-0.397728
-504,162,-54.9438,0.325256,0.00542193,-0.000190528,0.000393353,0.00544937,-0.000217963,0.069632,0.0037077,0.0447906,720,862,-54.9438,-0.32528
-497,162,-54.8637,0.122375,0.00927856,0.00100481,0.0012999,0.00947798,0.00080539,0.152227,0.00606803,0.0434077,727,862,-54.8637,-0.122355
-490,162,0,0,0,0,0,0,0,0,0,-1,734,862,0,0
-483,162,0,0,0,0,0,0,0,0,0,-1,741,862,0,0
-476,162,0,0,0,0,0,0,0,0,0,-1,748,862,0,0
-469,162,0,0,0,0,0,0,0,0,0,-1,755,862,0,0
-462,162,0,0,0,0,0,0,0,0,0,-1,762,862,0,0
-455,162,0,0,0,0,0,0,0,0,0,-1,769,862,0,0
-448,162,0,0,0,0,0,0,0,0,0,-1,776,862,0,0
-441,162,0,0,0,0,0,0,0,0,0,-1,783,862,0,0
-434,162,0,0,0,0,0,0,0,0,0,-1,790,862,0,0
-427,162,0,0,0,0,0,0,0,0,0,-1,797,862,0,0
-420,162,0,0,0,0,0,0,0,0,0,-1,804,862,0,0
-413,162,0,0,0,0,0,0,0,0,0,-1,811,862,0,0
-406,162,0,0,0,0,0,0,0,0,0,-1,818,862,0,0
-399,162,0,0,0,0,0,0,0,0,0,-1,825,862,0,0
-392,162,0,0,0,0,0,0,0,0,0,-1,832,862,0,0
-385,162,0,0,0,0,0,0,0,0,0,-1,839,862,0,0
-378,162,0,0,0,0,0,0,0,0,0,-1,846,862,0,0
-371,162,0,0,0,0,0,0,0,0,0,-1,853,862,0,0
-364,162,0,0,0,0,0,0,0,0,0,-1,860,862,0,0
-357,162,0,0,0,0,0,0,0,0,0,-1,867,862,0,0
-350,162,0,0,0,0,0,0,0,0,0,-1,874,862,0,0
-343,162,0,0,0,0,0,0,0,0,0,-1,881,862,0,0
-336,162,0,0,0,0,0,0,0,0,0,-1,888,862,0,0
-329,162,0,0,0,0,0,0,0,0,0,-1,895,862,0,0
-322,162,0,0,0,0,0,0,0,0,0,-1,902,862,0,0
-315,162,0,0,0,0,0,0,0,0,0,-1,909,862,0,0
-308,162,0,0,0,0,0,0,0,0,0,-1,916,862,0,0
-301,162,0,0,0,0,0,0,0,0,0,-1,923,862,0,0
-294,162,0,0,0,0,0,0,0,0,0,-1,930,862,0,0
-287,162,0,0,0,0,0,0,0,0,0,-1,937,862,0,0
-280,162,0,0,0,0,0,0,0,0,0,-1,944,862,0,0
-273,162,0,0,0,0,0,0,0,0,0,-1,951,862,0,0
-266,162,0,0,0,0,0,0,0,0,0,-1,958,862,0,0
-259,162,0,0,0,0,0,0,0,0,0,-1,965,862,0,0
-252,162,0,0,0,0,0,0,0,0,0,-1,972,862,0,0
-245,162,0,0,0,0,0,0,0,0,0,-1,979,862,0,0
-238,162,0,0,0,0,0,0,0,0,0,-1,986,862,0,0
-231,162,0,0,0,0,0,0,0,0,0,-1,993,862,0,0
-224,162,0,0,0,0,0,0,0,0,0,-1,1000,862,0,0
-217,162,0,0,0,0,0,0,0,0,0,-1,1007,862,0,0
-210,162,0,0,0,0,0,0,0,0,0,-1,1014,862,0,0
-203,162,0,0,0,0,0,0,0,0,0,-1,1021,862,0,0
-196,162,0,0,0,0,0,0,0,0,0,-1,1028,862,0,0
-189,162,0,0,0,0,0,0,0,0,0,-1,1035,862,0,0
-182,162,0,0,0,0,0,0,0,0,0,-1,1042,862,0,0
-175,162,0,0,0,0,0,0,0,0,0,-1,1049,862,0,0
-168,162,0,0,0,0,0,0,0,0,0,-1,1056,862,0,0
-161,162,0,0,0,0,0,0,0,0,0,-1,1063,862,0,0
-154,162,0,0,0,0,0,0,0,0,0,-1,1070,862,0,0
-147,162,0,0,0,0,0,0,0,0,0,-1,1077,862,0,0
-140,162,0,0,0,0,0,0,0,0,0,-1,1084,862,0,0
-133,162,0,0,0,0,0,0,0,0,0,-1,1091,862,0,0
-126,162,0,0,0,0,0,0,0,0,0,-1,1098,862,0,0
-119,162,0,0,0,0,0,0,0,0,0,-1,1105,862,0,0
-112,162,0,0,0,0,0,0,0,0,0,-1,1112,862,0,0
-105,162,0,0,0,0,0,0,0,0,0,-1,1119,862,0,0
-98,162,0,0,0,0,0,0,0,0,0,-1,1126,862,0,0
-91,162,0,0,0,0,0,0,0,0,0,-1,1133,862,0,0
-84,162,0,0,0,0,0,0,0,0,0,-1,1140,862,0,0
-77,162,0,0,0,0,0,0,0,0,0,-1,1147,862,0,0
-70,162,0,0,0,0,0,0,0,0,0,-1,1154,862,0,0
-63,162,0,0,0,0,0,0,0,0,0,-1,1161,862,0,0
-56,162,0,0,0,0,0,0,0,0,0,-1,1168,862,0,0
-49,162,0,0,0,0,0,0,0,0,0,-1,1175,862,0,0
-42,162,0,0,0,0,0,0,0,0,0,-1,1182,862,0,0
-35,162,0,0,0,0,0,0,0,0,0,-1,1189,862,0,0
-28,162,0,0,0,0,0,0,0,0,0,-1,1196,862,0,0
-21,162,0,0,0,0,0,0,0,0,0,-1,1203,862,0,0
-14,162,0,0,0,0,0,0,0,0,0,-1,1210,862,0,0
-7,162,0,0,0,0,0,0,0,0,0,-1,1217,862,0,0
0,162,0,0,0,0,0,0,0,0,0,-1,1224,862,0,0
7,162,0,0,0,0,0,0,0,0,0,-1,1231,862,0,0
14,162,0,0,0,0,0,0,0,0,0,-1,1238,862,0,0
21,162,0,0,0,0,0,0,0,0,0,-1,1245,862,0,0
28,162,0,0,0,0,0,0,0,0,0,-1,1252,862,0,0
35,162,0,0,0,0,0,0,0,0,0,-1,1259,862,0,0
42,162,0,0,0,0,0,0,0,0,0,-1,1266,862,0,0
49,162,0,0,0,0,0,0,0,0,0,-1,1273,862,0,0
56,162,0,0,0,0,0,0,0,0,0,-1,1280,862,0,0
63,162,0,0,0,0,0,0,0,0,0,-1,1287,862,0,0
70,162,0,0,0,0,0,0,0,0,0,-1,1294,862,0,0
77,162,0,0,0,0,0,0,0,0,0,-1,1301,862,0,0
84,162,0,0,0,0,0,0,0,0,0,-1,1308,862,0,0
91,162,0,0,0,0,0,0,0,0,0,-1,1315,862,0,0
98,162,0,0,0,0,0,0,0,0,0,-1,1322,862,0,0
105,162,0,0,0,0,0,0,0,0,0,-1,1329,862,0,0
112,162,0,0,0,0,0,0,0,0,0,-1,1336,862,0,0
119,162,0,0,0,0,0,0,0,0,0,-1,1343,862,0,0
126,162,0,0,0,0,0,0,0,0,0,-1,1350,862,0,0
133,162,0,0,0,0,0,0,0,0,0,-1,1357,862,0,0
140,162,0,0,0,0,0,0,0,0,0,-1,1364,862,0,0
147,162,0,0,0,0,0,0,0,0,0,-1,1371,862,0,0
154,162,0,0,0,0,0,0,0,0,0,-1,1378,862,0,0
161,162,0,0,0,0,0,0,0,0,0,-1,1385,862,0,0
168,162,0,0,0,0,0,0,0,0,0,-1,1392,862,0,0
175,162,0,0,0,0,0,0,0,0,0,-1,1399,862,0,0
182,162,0,0,0,0,0,0,0,0,0,-1,1406,862,0,0
189,162,0,0,0,0,0,0,0,0,0,-1,1413,862,0,0
196,162,0,0,0,0,0,0,0,0,0,-1,1420,862,0,0
203,162,0,0,0,0,0,0,0,0,0,-1,1427,862,0,0
210,162,0,0,0,0,0,0,0,0,0,-1,1434,862,0,0
217,162,0,0,0,0,0,0,0,0,0,-1,1441,862,0,0
224,162,0,0,0,0,0,0,0,0,0,-1,1448,862,0,0
231,162,0,0,0,0,0,0,0,0,0,-1,1455,862,0,0
238,162,0,0,0,0,0,0,0,0,0,-1,1462,862,0,0
245,162,0,0,0,0,0,0,0,0,0,-1,1469,862,0,0
252,162,0,0,0,0,0,0,0,0,0,-1,1476,862,0,0
259,162,0,0,0,0,0,0,0,0,0,-1,1483,862,0,0
266,162,0,0,0,0,0,0,0,0,0,-1,1490,862,0,0
273,162,0,0,0,0,0,0,0,0,0,-1,1497,862,0,0
280,162,0,0,0,0,0,0,0,0,0,-1,1504,862,0,0
287,162,0,0,0,0,0,0,0,0,0,-1,1511,862,0,0
294,162,0,0,0,0,0,0,0,0,0,-1,1518,862,0,0
301,162,0,0,0,0,0,0,0,0,0,-1,1525,862,0,0
308,162,0,0,0,0,0,0,0,0,0,-1,1532,862,0,0
315,162,0,0,0,0,0,0,0,0,0,-1,1539,862,0,0
322,162,0,0,0,0,0,0,0,0,0,-1,1546,862,0,0
329,162,0,0,0,0,0,0,0,0,0,-1,1553,862,0,0
336,162,0,0,0,0,0,0,0,0,0,-1,1560,862,0,0
343,162,0,0,0,0,0,0,0,0,0,-1,1567,862,0,0
350,162,0,0,0,0,0,0,0,0,0,-1,1574,862,0,0
357,162,0,0,0,0,0,0,0,0,0,-1,1581,862,0,0
364,162,0,0,0,0,0,0,0,0,0,-1,1588,862,0,0
371,162,0,0,0,0,0,0,0,0,0,-1,1595,862,0,0
378,162,0,0,0,0,0,0,0,0,0,-1,1602,862,0,0
385,162,0,0,0,0,0,0,0,0,0,-1,1609,862,0,0
392,162,0,0,0,0,0,0,0,0,0,-1,1616,862,0,0
399,162,0,0,0,0,0,0,0,0,0,-1,1623,862,0,0
406,162,0,0,0,0,0,0,0,0,0,-1,1630,862,0,0
413,162,0,0,0,0,0,0,0,0,0,-1,1637,862,0,0
420,162,0,0,0,0,0,0,0,0,0,-1,1644,862,0,0
427,162,0,0,0,0,0,0,0,0,0,-1,1651,862,0,0
434,162,0,0,0,0,0,0,0,0,0,-1,1658,862,0,0
441,162,0,0,0,0,0,0,0,0,0,-1,1665,862,0,0
448,162,0,0,0,0,0,0,0,0,0,-1,1672,862,0,0
455,162,0,0,0,0,0,0,0,0,0,-1,1679,862,0,0
462,162,0,0,0,0,0,0,0,0,0,-1,1686,862,0,0
469,162,0,0,0,0,0,0,0,0,0,-1,1693,862,0,0
476,162,0,0,0,0,0,0,0,0,0,-1,1700,862,0,0
483,162,0,0,0,0,0,0,0,0,0,-1,1707,862,0,0
490,162,0,0,0,0,0,0,0,0,0,-1,1714,862,0,0
497,162,0,0,0,0,0,0,0,0,0,-1,1721,862,0,0
504,162,0,0,0,0,0,0,0,0,0,-1,1728,862,0,0
511,162,0,0,0,0,0,0,0,0,0,-1,1735,862,0,0
518,162,0,0,0,0,0,0,0,0,0,-1,1742,862,0,0
525,162,0,0,0,0,0,0,0,0,0,-1,1749,862,0,0
532,162,0,0,0,0,0,0,0,0,0,-1,1756,862,0,0
539,162,0,0,0,0,0,0,0,0,0,-1,1763,862,0,0
546,162,0,0,0,0,0,0,0,0,0,-1,1770,862,0,0
553,162,0,0,0,0,0,0,0,0,0,-1,1777,862,0,0
560,162,0,0,0,0,0,0,0,0,0,-1,1784,862,0,0
567,162,0,0,0,0,0,0,0,0,0,-1,1791,862,0,0
574,162,0,0,0,0,0,0,0,0,0,-1,1798,862,0,0
581,162,0,0,0,0,0,0,0,0,0,-1,1805,862,0,0
588,162,0,0,0,0,0,0,0,0,0,-1,1812,862,0,0
595,162,0,0,0,0,0,0,0,0,0,-1,1819,862,0,0
602,162,0,0,0,0,0,0,0,0,0,-1,1826,862,0,0
609,162,0,0,0,0,0,0,0,0,0,-1,1833,862,0,0
616,162,70.8286,1.90918,0.00287184,-0.00597847,0.00444108,0.00471608,-0.0078227,0.393597,0.00731295,0.0452294,1840,862,70.8286,-1.90918
623,162,70.9199,2.09381,0.00133825,-0.00338923,0.00410438,0.00371088,-0.00576186,0.524141,0.00551165,0.0468932,1847,862,70.9199,-2.09381
630,162,70.7491,2.31989,0.000370229,-0.00141128,0.00349381,0.00308504,-0.00412609,0.660581,0.00417779,0.0460996,1854,862,70.7492,-2.31988
637,162,70.6952,2.41882,-0.000242335,0.000111272,0.00271773,0.00265795,-0.00278901,0.81788,0.0031451,0.0438134,1861,862,70.6952,-2.41883
644,162,70.6827,2.42712,-0.000617589,0.000640065,0.00196709,0.00207639,-0.00205391,0.940102,0.00238464,0.0380815,1868,862,70.6827,-2.42715
651,162,70.6624,2.40417,-0.000842996,0.000677698,0.00116468,0.00130825,-0.00147355,1.07458,0.00160702,0.0348031,1875,862,70.6623,-2.40416
658,162,70.6881,2.35638,-0.0011923,0.000327609,0.000303755,0.000386067,-0.00125076,1.38067,0.000987997,0.0350749,1882,862,70.6881,-2.3564
665,162,70.7096,2.35437,0,0,0,0,0,0,0,-1,1889,862,70.7096,-2.35439
672,162,56.9712,3.04034,0,0,0,0,0,0,0,-1,1896,862,56.9711,-3.04034
679,162,26.5077,2.54785,0,0,0,0,0,0,0,-1,1903,862,26.5077,-2.54787
686,162,58.4304,0.0736084,0,0,0,0,0,0,0,-1,1910,862,58.4304,-0.0736353
693,162,58.9366,1.20038,-0.000797448,-0.00047246,-0.00219978,0.00157082,-0.00284073,-0.822265,0.00258194,0.0435227,1917,862,58.9367,-1.20037
700,162,58.929,1.92621,-0.000966467,-0.000452956,-0.00246668,0.00177029,-0.00318971,-0.837256,0.00290248,0.0434904,1924,862,58.929,-1.9262
707,162,58.765,2.64368,-0.00138797,-0.000409298,-0.00280914,0.0019528,-0.00375007,-0.87163,0.00334661,0.0300112,1931,862,58.7651,-2.64369
714,162,58.5059,3.25031,-0.0012413,-0.000178349,-0.00291933,0.00225749,-0.00367713,-0.875439,0.00345888,0.0337529,1938,862,58.5059,-3.2503
721,162,58.3584,4.16302,-0.00102534,0.000578356,-0.00280425,0.00269314,-0.00314013,-0.924653,0.00337114,0.0324911,1945,862,58.3584,-4.163
728,162,58.348,4.94385,-0.001132,0.00158245,-0.00234418,0.00293396,-0.00248352,-1.04781,0.00313138,0.0262295,1952,862,58.348,-4.94385
735,162,58.3593,5.71973,-0.00105965,0.00278335,-0.00179579,0.00349187,-0.00176817,-1.195,0.00309076,0.0119989,1959,862,58.3593,-5.71973
742,162,58.3186,6.47742,-0.0010223,0.00420439,-0.00127674,0.00449959,-0.0013175,-1.34357,0.00352202,0.0147297,1966,862,58.3186,-6.47743
749,162,58.2097,7.20251,-0.00124917,0.00559685,-0.000899434,0.00571304,-0.00136537,-1.44232,0.00433608,0.0216412,1973,862,58.2098,-7.20253
756,162,58.1022,7.87219,-0.00188227,0.00721171,-0.000862209,0.00729274,-0.00196329,-1.4771,0.00563151,0.0454345,1980,862,58.1022,-7.8722
763,162,58.0566,8.58344,0,0,0,0,0,0,0,-1,1987,862,58.0566,-8.58344
770,162,54.8257,9.36987,0,0,0,0,0,0,0,-1,1994,862,54.8256,-9.36988
777,162,54.9807,10.2266,0,0,0,0,0,0,0,-1,2001,862,54.9806,-10.2265
784,162,55.02,11.0949,0,0,0,0,0,0,0,-1,2008,862,55.0201,-11.0949
791,162,0,0,0,0,0,0,0,0,0,-1,2015,862,0,0
798,162,0,0,0,0,0,0,0,0,0,-1,2022,862,0,0
805,162,0,0,0,0,0,0,0,0,0,-1,2029,862,0,0
812,162,0,0,0,0,0,0,0,0,0,-1,2036,862,0,0
-700,155,0,0,0,0,0,0,0,0,0,-1,524,869,0,0
-693,155,0,0,0,0,0,0,0,0,0,-1,531,869,0,0
-686,155,0,0,0,0,0,0,0,0,0,-1,538,869,0,0
-679,155,0,0,0,0,0,0,0,0,0,-1,545,869,0,0
-672,155,0,0,0,0,0,0,0,0,0,-1,552,869,0,0
-665,155,-50.9639,6.01917,0,0,0,0,0,0,0,-1,559,869,-50.9639,-6.01917
-658,155,-51.2028,4.90723,0,0,0,0,0,0,0,-1,566,869,-51.2028,-4.90722
-651,155,-51.22,3.81226,0,0,0,0,0,0,0,-1,573,869,-51.2201,-3.81228
-644,155,-43.2642,9.34686,0,0,0,0,0,0,0,-1,580,869,-43.2642,-9.34684
-637,155,-43.2825,8.02545,0,0,0,0,0,0,0,-1,587,869,-43.2825,-8.02545
-630,155,-44.2901,7.01862,0,0,0,0,0,0,0,-1,594,869,-44.2901,-7.01862
-623,155,-44.2438,6.29877,0.00362844,0.0142931,-0.00703895,0.0177914,0.000130106,-1.10955,0.0118178,0.0305318,601,869,-44.2439,-6.29877
-616,155,-44.2683,5.52747,0.00169899,0.0104639,-0.00439219,0.012286,-0.000123174,-1.17754,0.00823205,0.0168062,608,869,-44.2683,-5.52744
-609,155,-44.3638,4.70673,-0.000143286,0.00710428,-0.00207414,0.00765589,-0.000694889,-1.31087,0.00535062,0.0145598,615,869,-44.3637,-4.70672
-602,155,-44.4244,3.93817,-0.00193938,0.00409934,-2.28016e-05,0.00409943,-0.00193946,-1.56702,0.00356012,0.0147223,622,869,-44.4244,-3.93818
-595,155,-44.47,3.18726,-0.00300687,0.00191536,0.00134978,0.0022612,-0.00335271,1.31997,0.00326155,0.0141054,629,869,-44.47,-3.18727
-588,155,-44.4624,2.48364,-0.00327125,0.000369652,0.00159385,0.00096879,-0.00387039,1.21123,0.00295658,0.0236643,636,869,-44.4624,-2.48362
-581,155,-44.804,1.87952,-0.00296455,-0.000669944,0.00154901,0.000110377,-0.00374487,1.10415,0.00253417,0.0459279,643,869,-44.804,-1.87951
-574,155,-45.0837,1.40033,0,0,0,0,0,0,0,-1,650,869,-45.0837,-1.40035
-567,155,-38.0134,0.582214,0,0,0,0,0,0,0,-1,657,869,-38.0134,-0.582192
-560,155,-37.1416,-0.708008,0,0,0,0,0,0,0,-1,664,869,-37.1416,0.70801
-553,155,-36.7729,-1.71521,0,0,0,0,0,0,0,-1,671,869,-36.7729,1.71523
-546,155,-22.7988,0.873657,0,0,0,0,0,0,0,-1,678,869,-22.7988,-0.873645
-539,155,-55.0695,0.239685,0,0,0,0,0,0,0,-1,685,869,-55.0694,-0.239705
-532,155,-54.9528,0.407898,-0.000308066,-0.00307344,0.000619391,-0.000175673,-0.00320583,0.210579,0.00208114,0.0391434,692,869,-54.9528,-0.407928
-525,155,-54.871,0.602051,0.00112712,-0.00262039,-0.000154255,0.00113346,-0.00262672,-0.0410694,0.00222728,0.0373458,699,869,-54.8709,-0.602078
-518,155,-54.8375,0.624207,0.00127079,-0.00237076,-0.000532625,0.00134709,-0.00244707,-0.142293,0.00222103,0.0397803,706,869,-54.8375,-0.624209
-511,155,-54.714,0.365906,0.00210344,-0.00147703,-5.56614e-05,0.00210431,-0.0014779,-0.0155408,0.0020787,0.0416552,713,869,-54.714,-0.365886
-504,155,-54.7371,0.353333,0.0039867,-0.000182111,0.000540779,0.0040557,-0.000251119,0.126922,0.00279128,0.0425477,720,869,-54.7371,-0.353344
-497,155,0,0,0,0,0,0,0,0,0,-1,727,869,0,0
-490,155,0,0,0,0,0,0,0,0,0,-1,734,869,0,0
-483,155,0,0,0,0,0,0,0,0,0,-1,741,869,0,0
-476,155,0,0,0,0,0,0,0,0,0,-1,748,869,0,0
-469,155,0,0,0,0,0,0,0,0,0,-1,755,869,0,0
-462,155,0,0,0,0,0,0,0,0,0,-1,762,869,0,0
-455,155,0,0,0,0,0,0,0,0,0,-1,769,869,0,0
-448,155,0,0,0,0,0,0,0,0,0,-1,776,869,0,0
-441,155,0,0,0,0,0,0,0,0,0,-1,783,869,0,0
-434,155,0,0,0,0,0,0,0,0,0,-1,790,869,0,0
-427,155,0,0,0,0,0,0,0,0,0,-1,797,869,0,0
-420,155,0,0,0,0,0,0,0,0,0,-1,804,869,0,0
-413,155,0,0,0,0,0,0,0,0,0,-1,811,869,0,0
-406,155,0,0,0,0,0,0,0,0,0,-1,818,869,0,0
-399,155,0,0,0,0,0,0,0,0,0,-1,825,869,0,0
-392,155,0,0,0,0,0,0,0,0,0,-1,832,869,0,0
-385,155,0,0,0,0,0,0,0,0,0,-1,839,869,0,0
-378,155,0,0,0,0,0,0,0,0,0,-1,846,869,0,0
-371,155,0,0,0,0,0,0,0,0,0,-1,853,869,0,0
-364,155,0,0,0,0,0,0,0,0,0,-1,860,869,0,0
-357,155,0,0,0,0,0,0,0,0,0,-1,867,869,0,0
-350,155,0,0,0,0,0,0,0,0,0,-1,874,869,0,0
-343,155,0,0,0,0,0,0,0,0,0,-1,881,869,0,0
-336,155,0,0,0,0,0,0,0,0,0,-1,888,869,0,0
-329,155,0,0,0,0,0,0,0,0,0,-1,895,869,0,0
-322,155,0,0,0,0,0,0,0,0,0,-1,902,869,0,0
-315,155,0,0,0,0,0,0,0,0,0,-1,909,869,0,0
-308,155,0,0,0,0,0,0,0,0,0,-1,916,869,0,0
-301,155,0,0,0,0,0,0,0,0,0,-1,923,869,0,0
-294,155,0,0,0,0,0,0,0,0,0,-1,930,869,0,0
-287,155,0,0,0,0,0,0,0,0,0,-1,937,869,0,0
-280,155,0,0,0,0,0,0,0,0,0,-1,944,869,0,0
-273,155,0,0,0,0,0,0,0,0,0,-1,951,869,0,0
-266,155,0,0,0,0,0,0,0,0,0,-1,958,869,0,0
-259,155,0,0,0,0,0,0,0,0,0,-1,965,869,0,0
-252,155,0,0,0,0,0,0,0,0,0,-1,972,869,0,0
-245,155,0,0,0,0,0,0,0,0,0,-1,979,869,0,0
-238,155,0,0,0,0,0,0,0,0,0,-1,986,869,0,0
-231,155,0,0,0,0,0,0,0,0,0,-1,993,869,0,0
-224,155,0,0,0,0,0,0,0,0,0,-1,1000,869,0,0
-217,155,0,0,0,0,0,0,0,0,0,-1,1007,869,0,0
-210,155,0,0,0,0,0,0,0,0,0,-1,1014,869,0,0
-203,155,0,0,0,0,0,0,0,0,0,-1,1021,869,0,0
-196,155,0,0,0,0,0,0,0,0,0,-1,1028,869,0,0
-189,155,0,0,0,0,0,0,0,0,0,-1,1035,869,0,0
-182,155,0,0,0,0,0,0,0,0,0,-1,1042,869,0,0
-175,155,0,0,0,0,0,0,0,0,0,-1,1049,869,0,0
-168,155,0,0,0,0,0,0,0,0,0,-1,1056,869,0,0
-161,155,0,0,0,0,0,0,0,0,0,-1,1063,869,0,0
-154,155,0,0,0,0,0,0,0,0,0,-1,1070,869,0,0
-147,155,0,0,0,0,0,0,0,0,0,-1,1077,869,0,0
-140,155,0,0,0,0,0,0,0,0,0,-1,1084,869,0,0
-133,155,0,0,0,0,0,0,0,0,0,-1,1091,869,0,0
-126,155,0,0,0,0,0,0,0,0,0,-1,1098,869,0,0
-119,155,0,0,0,0,0,0,0,0,0,-1,1105,869,0,0
-112,155,0,0,0,0,0,0,0,0,0,-1,1112,869,0,0
-105,155,0,0,0,0,0,0,0,0,0,-1,1119,869,0,0
-98,155,0,0,0,0,0,0,0,0,0,-1,1126,869,0,0
-91,155,0,0,0,0,0,0,0,0,0,-1,1133,869,0,0
-84,155,0,0,0,0,0,0,0,0,0,-1,1140,869,0,0
-77,155,0,0,0,0,0,0,0,0,0,-1,1147,869,0,0
-70,155,0,0,0,0,0,0,0,0,0,-1,1154,869,0,0
-63,155,0,0,0,0,0,0,0,0,0,-1,1161,869,0,0
-56,155,0,0,0,0,0,0,0,0,0,-1,1168,869,0,0
-49,155,0,0,0,0,0,0,0,0,0,-1,1175,869,0,0
-42,155,0,0,0,0,0,0,0,0,0,-1,1182,869,0,0
-35,155,0,0,0,0,0,0,0,0,0,-1,1189,869,0,0
-28,155,0,0,0,0,0,0,0,0,0,-1,1196,869,0,0
-21,155,0,0,0,0,0,0,0,0,0,-1,1203,869,0,0
-14,155,0,0,0,0,0,0,0,0,0,-1,1210,869,0,0
-7,155,0,0,0,0,0,0,0,0,0,-1,1217,869,0,0
0,155,0,0,0,0,0,0,0,0,0,-1,1224,869,0,0
7,155,0,0,0,0,0,0,0,0,0,-1,1231,869,0,0
14,155,0,0,0,0,0,0,0,0,0,-1,1238,869,0,0
21,155,0,0,0,0,0,0,0,0,0,-1,1245,869,0,0
28,155,0,0,0,0,0,0,0,0,0,-1,1252,869,0,0
35,155,0,0,0,0,0,0,0,0,0,-1,1259,869,0,0
42,155,0,0,0,0,0,0,0,0,0,-1,1266,869,0,0
49,155,0,0,0,0,0,0,0,0,0,-1,1273,869,0,0
56,155,0,0,0,0,0,0,0,0,0,-1,1280,869,0,0
63,155,0,0,0,0,0,0,0,0,0,-1,1287,869,0,0
70,155,0,0,0,0,0,0,0,0,0,-1,1294,869,0,0
77,155,0,0,0,0,0,0,0,0,0,-1,1301,869,0,0
84,155,0,0,0,0,0,0,0,0,0,-1,1308,869,0,0
91,155,0,0,0,0,0,0,0,0,0,-1,1315,869,0,0
98,155,0,0,0,0,0,0,0,0,0,-1,1322,869,0,0
105,155,0,0,0,0,0,0,0,0,0,-1,1329,869,0,0
112,155,0,0,0,0,0,0,0,0,0,-1,1336,869,0,0
119,155,0,0,0,0,0,0,0,0,0,-1,1343,869,0,0
126,155,0,0,0,0,0,0,0,0,0,-1,1350,869,0,0
133,155,0,0,0,0,0,0,0,0,0,-1,1357,869,0,0
140,155,0,0,0,0,0,0,0,0,0,-1,1364,869,0,0
147,155,0,0,0,0,0,0,0,0,0,-1,1371,869,0,0
154,155,0,0,0,0,0,0,0,0,0,-1,1378,869,0,0
161,155,0,0,0,0,0,0,0,0,0,-1,1385,869,0,0
168,155,0,0,0,0,0,0,0,0,0,-1,1392,869,0,0
175,155,0,0,0,0,0,0,0,0,0,-1,1399,869,0,0
182,155,0,0,0,0,0,0,0,0,0,-1,1406,869,0,0
189,155,0,0,0,0,0,0,0,0,0,-1,1413,869,0,0
196,155,0,0,0,0,0,0,0,0,0,-1,1420,869,0,0
203,155,0,0,0,0,0,0,0,0,0,-1,1427,869,0,0
210,155,0,0,0,0,0,0,0,0,0,-1,1434,869,0,0
217,155,0,0,0,0,0,0,0,0,0,-1,1441,869,0,0
224,155,0,0,0,0,0,0,0,0,0,-1,1448,869,0,0
231,155,0,0,0,0,0,0,0,0,0,-1,1455,869,0,0
238,155,0,0,0,0,0,0,0,0,0,-1,1462,869,0,0
245,155,0,0,0,0,0,0,0,0,0,-1,1469,869,0,0
252,155,0,0,0,0,0,0,0,0,0,-1,1476,869,0,0
259,155,0,0,0,0,0,0,0,0,0,-1,1483,869,0,0
266,155,0,0,0,0,0,0,0,0,0,-1,1490,869,0,0
273,155,0,0,0,0,0,0,0,0,0,-1,1497,869,0,0
280,155,0,0,0,0,0,0,0,0,0,-1,1504,869,0,0
287,155,0,0,0,0,0,0,0,0,0,-1,1511,869,0,0
294,155,0,0,0,0,0,0,0,0,0,-1,1518,869,0,0
301,155,0,0,0,0,0,0,0,0,0,-1,1525,869,0,0
308,155,0,0,0,0,0,0,0,0,0,-1,1532,869,0,0
315,155,0,0,0,0,0,0,0,0,0,-1,1539,869,0,0
322,155,0,0,0,0,0,0,0,0,0,-1,1546,869,0,0
329,155,0,0,0,0,0,0,0,0,0,-1,1553,869,0,0
336,155,0,0,0,0,0,0,0,0,0,-1,1560,869,0,0
343,155,0,0,0,0,0,0,0,0,0,-1,1567,869,0,0
350,155,0,0,0,0,0,0,0,0,0,-1,1574,869,0,0
357,155,0,0,0,0,0,0,0,0,0,-1,1581,869,0,0
364,155,0,0,0,0,0,0,0,0,0,-1,1588,869,0,0
371,155,0,0,0,0,0,0,0,0,0,-1,1595,869,0,0
378,155,0,0,0,0,0,0,0,0,0,-1,1602,869,0,0
385,155,0,0,0,0,0,0,0,0,0,-1,1609,869,0,0
392,155,0,0,0,0,0,0,0,0,0,-1,1616,869,0,0
399,155,0,0,0,0,0,0,0,0,0,-1,1623,869,0,0
406,155,0,0,0,0,0,0,0,0,0,-1,1630,869,0,0
413,155,0,0,0,0,0,0,0,0,0,-1,1637,869,0,0
420,155,0,0,0,0,0,0,0,0,0,-1,1644,869,0,0
427,155,0,0,0,0,0,0,0,0,0,-1,1651,869,0,0
434,155,0,0,0,0,0,0,0,0,0,-1,1658,869,0,0
441,155,0,0,0,0,0,0,0,0,0,-1,1665,869,0,0
448,155,0,0,0,0,0,0,0,0,0,-1,1672,869,0,0
455,155,0,0,0,0,0,0,0,0,0,-1,1679,869,0,0
462,155,0,0,0,0,0,0,0,0,0,-1,1686,869,0,0
469,155,0,0,0,0,0,0,0,0,0,-1,1693,869,0,0
476,155,0,0,0,0,0,0,0,0,0,-1,1700,869,0,0
483,155,0,0,0,0,0,0,0,0,0,-1,1707,869,0,0
490,155,0,0,0,0,0,0,0,0,0,-1,1714,869,0,0
497,155,0,0,0,0,0,0,0,0,0,-1,1721,869,0,0
504,155,0,0,0,0,0,0,0,0,0,-1,1728,869,0,0
511,155,0,0,0,0,0,0,0,0,0,-1,1735,869,0,0
518,155,0,0,0,0,0,0,0,0,0,-1,1742,869,0,0
525,155,0,0,0,0,0,0,0,0,0,-1,1749,869,0,0
532,155,0,0,0,0,0,0,0,0,0,-1,1756,869,0,0
539,155,0,0,0,0,0,0,0,0,0,-1,1763,869,0,0
546,155,0,0,0,0,0,0,0,0,0,-1,1770,869,0,0
553,155,0,0,0,0,0,0,0,0,0,-1,1777,869,0,0
560,155,0,0,0,0,0,0,0,0,0,-1,1784,869,0,0
567,155,0,0,0,0,0,0,0,0,0,-1,1791,869,0,0
574,155,0,0,0,0,0,0,0,0,0,-1,1798,869,0,0
581,155,0,0,0,0,0,0,0,0,0,-1,1805,869,0,0
588,155,0,0,0,0,0,0,0,0,0,-1,1812,869,0,0
595,155,0,0,0,0,0,0,0,0,0,-1,1819,869,0,0
602,155,0,0,0,0,0,0,0,0,0,-1,1826,869,0,0
609,155,0,0,0,0,0,0,0,0,0,-1,1833,869,0,0
616,155,70.7695,2.11554,0.0030364,-0.00773474,0.00553516,0.00537367,-0.010072,0.399547,0.00905405,0.0465539,1840,869,70.7696,-2.11556
623,155,70.5953,2.1629,0.00143219,-0.00481177,0.00497357,0.00418244,-0.00756202,0.505123,0.00687361,0.044005,1847,869,70.5953,-2.1629
630,155,70.4824,2.23157,0.00048007,-0.0026528,0.00412983,0.00333056,-0.00550329,0.604132,0.00515139,0.0451019,1854,869,70.4825,-2.23154
637,155,70.5378,2.31976,-8.4782e-05,-0.000861481,0.00316025,0.00271089,-0.00365716,0.724262,0.0036901,0.0429632,1861,869,70.5378,-2.31979
644,155,70.6237,2.35651,-0.000413509,3.92761e-05,0.00221502,0.00203944,-0.00241367,0.836325,0.00257403,0.0363001,1868,869,70.6236,-2.35652
651,155,70.7413,2.2594,-0.000611874,0.000350912,0.00126771,0.00122555,-0.00148651,0.966856,0.00156823,0.0341041,1875,869,70.7413,-2.2594
658,155,70.7507,2.2746,-0.00095072,0.000151758,0.000286195,0.000221625,-0.00102059,1.33136,0.000765042,0.0290836,1882,869,70.7507,-2.27461
665,155,70.6449,2.36017,-0.00122298,1.99923e-05,-0.000496026,0.000193671,-0.00139666,-1.234,0.00100192,0.0379159,1889,869,70.6448,-2.36015
672,155,70.8011,2.02728,0,0,0,0,0,0,0,-1,1896,869,70.8012,-2.02726
679,155,35.1565,2.78528,0,0,0,0,0,0,0,-1,1903,869,35.1565,-2.7853
686,155,43.6101,1.63361,0,0,0,0,0,0,0,-1,1910,869,43.6101,-1.63362
693,155,59.9003,1.4303,0,0,0,0,0,0,0,-1,1917,869,59.9003,-1.43028
700,155,59.6074,1.89911,0,0,0,0,0,0,0,-1,1924,869,59.6074,-1.89908
707,155,59.6648,2.82715,0,0,0,0,0,0,0,-1,1931,869,59.6648,-2.82716
714,155,60.1714,3.55725,0,0,0,0,0,0,0,-1,1938,869,60.1714,-3.55723
721,155,59.1863,4.21008,-0.00095466,0.000620041,-0.00309745,0.00302865,-0.00336327,-0.909859,0.00369206,0.0457542,1945,869,59.1862,-4.2101
728,155,59.1901,5.01117,-0.00137109,0.00151887,-0.00273669,0.00316863,-0.00302085,-1.0283,0.00357384,0.0209803,1952,869,59.1901,-5.0112
735,155,59.1633,5.75702,-0.00172005,0.00266148,-0.00225129,0.00361202,-0.00267058,-1.17129,0.00364081,0.0173814,1959,869,59.1633,-5.75701
742,155,59.1254,6.51276,-0.00212598,0.00413323,-0.00169395,0.00456226,-0.00255501,-1.32274,0.00416327,0.0199069,1966,869,59.1253,-6.51277
749,155,59.0145,7.2428,-0.0028095,0.00558577,-0.00120272,0.00575467,-0.00297841,-1.43127,0.00512627,0.0192292,1973,869,59.0146,-7.24281
756,155,58.9445,8.03998,-0.00393152,0.00725206,-0.000940337,0.00733057,-0.00401004,-1.48749,0.0066404,0.0326962,1980,869,58.9444,-8.03996
763,155,58.9082,8.86523,0,0,0,0,0,0,0,-1,1987,869,58.9082,-8.86525
770,155,58.1348,9.75653,0,0,0,0,0,0,0,-1,1994,869,58.1348,-9.75653
777,155,54.6055,10.1432,0,0,0,0,0,0,0,-1,2001,869,54.6055,-10.1433
784,155,54.8704,11.0088,0,0,0,0,0,0,0,-1,2008,869,54.8704,-11.0088
791,155,0,0,0,0,0,0,0,0,0,-1,2015,869,0,0
798,155,0,0,0,0,0,0,0,0,0,-1,2022,869,0,0
805,155,0,0,0,0,0,0,0,0,0,-1,2029,869,0,0
812,155,0,0,0,0,0,0,0,0,0,-1,2036,869,0,0
-700,148,0,0,0,0,0,0,0,0,0,-1,524,876,0,0
-693,148,0,0,0,0,0,0,0,0,0,-1,531,876,0,0
-686,148,0,0,0,0,0,0,0,0,0,-1,538,876,0,0
-679,148,0,0,0,0,0,0,0,0,0,-1,545,876,0,0
-672,148,-51.0451,5.80676,0,0,0,0,0,0,0,-1,552,876,-51.0451,-5.80678
-665,148,-51.6555,5.14398,0,0,0,0,0,0,0,-1,559,876,-51.6555,-5.14401
-658,148,-51.7661,3.82794,0,0,0,0,0,0,0,-1,566,876,-51.7661,-3.82797
-651,148,-52.0392,2.79663,0,0,0,0,0,0,0,-1,573,876,-52.0392,-2.79661
-644,148,-52.2687,1.81482,0,0,0,0,0,0,0,-1,580,876,-52.2687,-1.81482
-637,148,-52.5708,0.881165,0,0,0,0,0,0,0,-1,587,876,-52.5708,-0.88117
-630,148,-44.6724,7.24585,0,0,0,0,0,0,0,-1,594,876,-44.6723,-7.24587
-623,148,-44.8707,6.38672,-5.28964e-05,0.0133163,-0.004659,0.0147797,-0.00151631,-1.26645,0.0103955,0.0315763,601,876,-44.8706,-6.38675
-616,148,-45.0356,5.55011,-0.000871315,0.00972936,-0.00269925,0.0103771,-0.00151905,-1.33528,0.00747604,0.0150018,608,876,-45.0357,-5.55012
-609,148,-45.1523,4.74036,-0.00187111,0.00648259,-0.000907981,0.00658014,-0.00196866,-1.46377,0.00516948,0.0143323,615,876,-45.1523,-4.74036
-602,148,-45.231,3.97485,-0.00291744,0.00362756,0.000654257,0.00369233,-0.0029822,1.47213,0.0038608,0.0169871,622,876,-45.231,-3.97487
-595,148,-45.2651,3.22791,-0.00327522,0.00179456,0.00157921,0.00224624,-0.00372689,1.29222,0.00348373,0.0145932,629,876,-45.2651,-3.22789
-588,148,-45.2842,2.41315,-0.00315445,0.000509304,0.00160671,0.00111408,-0.00375923,1.21079,0.00294853,0.0318987,636,876,-45.2842,-2.41316
-581,148,-45.3011,2.16486,0,0,0,0,0,0,0,-1,643,876,-45.3011,-2.16483
-574,148,-42.5058,1.22711,0,0,0,0,0,0,0,-1,650,876,-42.5058,-1.22714
-567,148,-35.6293,0.615784,0,0,0,0,0,0,0,-1,657,876,-35.6293,-0.615792
-560,148,-37.7973,-0.588135,0,0,0,0,0,0,0,-1,664,876,-37.7973,0.588143
-553,148,-18.3896,-0.00280762,0,0,0,0,0,0,0,-1,671,876,-18.3897,0.00278524
-546,148,-54.9584,0.511963,0,0,0,0,0,0,0,-1,678,876,-54.9584,-0.511944
-539,148,-54.9075,0.414185,-0.00160449,-0.00301416,0.00102236,-0.00106755,-0.00355111,0.483605,0.00210386,0.0482797,685,876,-54.9075,-0.414195
-532,148,-54.9204,0.44104,-0.000593927,-0.0034121,0.00103104,-0.000256997,-0.00374903,0.315846,0.00241825,0.0346379,692,876,-54.9204,-0.441069
-525,148,-54.8459,0.580139,0.000680494,-0.0029516,0.000294381,0.000704199,-0.00297531,0.0803511,0.00225522,0.0361236,699,876,-54.8459,-0.580163
-518,148,-54.8542,0.53772,0.000495931,-0.00238261,0.000122054,0.000501097,-0.00238778,0.0423002,0.00178252,0.0403517,706,876,-54.8542,-0.537744
-511,148,-54.7822,0.316467,0.000697915,-0.0010588,0.00052537,0.000843044,-0.00120393,0.26952,0.00118793,0.0398992,713,876,-54.7821,-0.316497
-504,148,-54.6331,0.380859,0.00167738,0.000560703,0.00102317,0.00228464,-4.65595e-05,0.535633,0.00153885,0.0404152,720,876,-54.6331,-0.380871
-497,148,0,0,0,0,0,0,0,0,0,-1,727,876,0,0
-490,148,0,0,0,0,0,0,0,0,0,-1,734,876,0,0
-483,148,0,0,0,0,0,0,0,0,0,-1,741,876,0,0
-476,148,0,0,0,0,0,0,0,0,0,-1,748,876,0,0
-469,148,0,0,0,0,0,0,0,0,0,-1,755,876,0,0
-462,148,0,0,0,0,0,0,0,0,0,-1,762,876,0,0
-455,148,0,0,0,0,0,0,0,0,0,-1,769,876,0,0
-448,148,0,0,0,0,0,0,0,0,0,-1,776,876,0,0
-441,148,0,0,0,0,0,0,0,0,0,-1,783,876,0,0
-434,148,0,0,0,0,0,0,0,0,0,-1,790,876,0,0
-427,148,0,0,0,0,0,0,0,0,0,-1,797,876,0,0
-420,148,0,0,0,0,0,0,0,0,0,-1,804,876,0,0
-413,148,0,0,0,0,0,0,0,0,0,-1,811,876,0,0
-406,148,0,0,0,0,0,0,0,0,0,-1,818,876,0,0
-399,148,0,0,0,0,0,0,0,0,0,-1,825,876,0,0
-392,148,0,0,0,0,0,0,0,0,0,-1,832,876,0,0
-385,148,0,0,0,0,0,0,0,0,0,-1,839,876,0,0
-378,148,0,0,0,0,0,0,0,0,0,-1,846,876,0,0
-371,148,0,0,0,0,0,0,0,0,0,-1,853,876,0,0
-364,148,0,0,0,0,0,0,0,0,0,-1,860,876,0,0
-357,148,0,0,0,0,0,0,0,0,0,-1,867,876,0,0
-350,148,0,0,0,0,0,0,0,0,0,-1,874,876,0,0
-343,148,0,0,0,0,0,0,0,0,0,-1,881,876,0,0
-336,148,0,0,0,0,0,0,0,0,0,-1,888,876,0,0
-329,148,0,0,0,0,0,0,0,0,0,-1,895,876,0,0
-322,148,0,0,0,0,0,0,0,0,0,-1,902,876,0,0
-315,148,0,0,0,0,0,0,0,0,0,-1,909,876,0,0
-308,148,0,0,0,0,0,0,0,0,0,-1,916,876,0,0
-301,148,0,0,0,0,0,0,0,0,0,-1,923,876,0,0
-294,148,0,0,0,0,0,0,0,0,0,-1,930,876,0,0
-287,148,0,0,0,0,0,0,0,0,0,-1,937,876,0,0
-280,148,0,0,0,0,0,0,0,0,0,-1,944,876,0,0
-273,148,0,0,0,0,0,0,0,0,0,-1,951,876,0,0
-266,148,0,0,0,0,0,0,0,0,0,-1,958,876,0,0
-259,148,0,0,0,0,0,0,0,0,0,-1,965,876,0,0
-252,148,0,0,0,0,0,0,0,0,0,-1,972,876,0,0
-245,148,0,0,0,0,0,0,0,0,0,-1,979,876,0,0
-238,148,0,0,0,0,0,0,0,0,0,-1,986,876,0,0
-231,148,0,0,0,0,0,0,0,0,0,-1,993,876,0,0
-224,148,0,0,0,0,0,0,0,0,0,-1,1000,876,0,0
-217,148,0,0,0,0,0,0,0,0,0,-1,1007,876,0,0
-210,148,0,0,0,0,0,0,0,0,0,-1,1014,876,0,0
-203,148,0,0,0,0,0,0,0,0,0,-1,1021,876,0,0
-196,148,0,0,0,0,0,0,0,0,0,-1,1028,876,0,0
-189,148,0,0,0,0,0,0,0,0,0,-1,1035,876,0,0
-182,148,0,0,0,0,0,0,0,0,0,-1,1042,876,0,0
-175,148,0,0,0,0,0,0,0,0,0,-1,1049,876,0,0
-168,148,0,0,0,0,0,0,0,0,0,-1,1056,876,0,0
-161,148,0,0,0,0,0,0,0,0,0,-1,1063,876,0,0
-154,148,0,0,0,0,0,0,0,0,0,-1,1070,876,0,0
-147,148,0,0,0,0,0,0,0,0,0,-1,1077,876,0,0
-140,148,0,0,0,0,0,0,0,0,0,-1,1084,876,0,0
-133,148,0,0,0,0,0,0,0,0,0,-1,1091,876,0,0
-126,148,0,0,0,0,0,0,0,0,0,-1,1098,876,0,0
-119,148,0,0,0,0,0,0,0,0,0,-1,1105,876,0,0
-112,148,0,0,0,0,0,0,0,0,0,-1,1112,876,0,0
-105,148,0,0,0,0,0,0,0,0,0,-1,1119,876,0,0
-98,148,0,0,0,0,0,0,0,0,0,-1,1126,876,0,0
-91,148,0,0,0,0,0,0,0,0,0,-1,1133,876,0,0
-84,148,0,0,0,0,0,0,0,0,0,-1,1140,876,0,0
-77,148,0,0,0,0,0,0,0,0,0,-1,1147,876,0,0
-70,148,0,0,0,0,0,0,0,0,0,-1,1154,876,0,0
-63,148,0,0,0,0,0,0,0,0,0,-1,1161,876,0,0
-56,148,0,0,0,0,0,0,0,0,0,-1,1168,876,0,0
-49,148,0,0,0,0,0,0,0,0,0,-1,1175,876,0,0
-42,148,0,0,0,0,0,0,0,0,0,-1,1182,876,0,0
-35,148,0,0,0,0,0,0,0,0,0,-1,1189,876,0,0
-28,148,0,0,0,0,0,0,0,0,0,-1,1196,876,0,0
-21,148,0,0,0,0,0,0,0,0,0,-1,1203,876,0,0
-14,148,0,0,0,0,0,0,0,0,0,-1,1210,876,0,0
-7,148,0,0,0,0,0,0,0,0,0,-1,1217,876,0,0
0,148,0,0,0,0,0,0,0,0,0,-1,1224,876,0,0
7,148,0,0,0,0,0,0,0,0,0,-1,1231,876,0,0
14,148,0,0,0,0,0,0,0,0,0,-1,1238,876,0,0
21,148,0,0,0,0,0,0,0,0,0,-1,1245,876,0,0
28,148,0,0,0,0,0,0,0,0,0,-1,1252,876,0,0
35,148,0,0,0,0,0,0,0,0,0,-1,1259,876,0,0
42,148,0,0,0,0,0,0,0,0,0,-1,1266,876,0,0
49,148,0,0,0,0,0,0,0,0,0,-1,1273,876,0,0
56,148,0,0,0,0,0,0,0,0,0,-1,1280,876,0,0
63,148,0,0,0,0,0,0,0,0,0,-1,1287,876,0,0
70,148,0,0,0,0,0,0,0,0,0,-1,1294,876,0,0
77,148,0,0,0,0,0,0,0,0,0,-1,1301,876,0,0
84,148,0,0,0,0,0,0,0,0,0,-1,1308,876,0,0
91,148,0,0,0,0,0,0,0,0,0,-1,1315,876,0,0
98,148,0,0,0,0,0,0,0,0,0,-1,1322,876,0,0
105,148,0,0,0,0,0,0,0,0,0,-1,1329,876,0,0
112,148,0,0,0,0,0,0,0,0,0,-1,1336,876,0,0
119,148,0,0,0,0,0,0,0,0,0,-1,1343,876,0,0
126,148,0,0,0,0,0,0,0,0,0,-1,1350,876,0,0
133,148,0,0,0,0,0,0,0,0,0,-1,1357,876,0,0
140,148,0,0,0,0,0,0,0,0,0,-1,1364,876,0,0
147,148,0,0,0,0,0,0,0,0,0,-1,1371,876,0,0
154,148,0,0,0,0,0,0,0,0,0,-1,1378,876,0,0
161,148,0,0,0,0,0,0,0,0,0,-1,1385,876,0,0
168,148,0,0,0,0,0,0,0,0,0,-1,1392,876,0,0
175,148,0,0,0,0,0,0,0,0,0,-1,1399,876,0,0
182,148,0,0,0,0,0,0,0,0,0,-1,1406,876,0,0
189,148,0,0,0,0,0,0,0,0,0,-1,1413,876,0,0
196,148,0,0,0,0,0,0,0,0,0,-1,1420,876,0,0
203,148,0,0,0,0,0,0,0,0,0,-1,1427,876,0,0
210,148,0,0,0,0,0,0,0,0,0,-1,1434,876,0,0
217,148,0,0,0,0,0,0,0,0,0,-1,1441,876,0,0
224,148,0,0,0,0,0,0,0,0,0,-1,1448,876,0,0
231,148,0,0,0,0,0,0,0,0,0,-1,1455,876,0,0
238,148,0,0,0,0,0,0,0,0,0,-1,1462,876,0,0
245,148,0,0,0,0,0,0,0,0,0,-1,1469,876,0,0
252,148,0,0,0,0,0,0,0,0,0,-1,1476,876,0,0
259,148,0,0,0,0,0,0,0,0,0,-1,1483,876,0,0
266,148,0,0,0,0,0,0,0,0,0,-1,1490,876,0,0
273,148,0,0,0,0,0,0,0,0,0,-1,1497,876,0,0
280,148,0,0,0,0,0,0,0,0,0,-1,1504,876,0,0
287,148,0,0,0,0,0,0,0,0,0,-1,1511,876,0,0
294,148,0,0,0,0,0,0,0,0,0,-1,1518,876,0,0
301,148,0,0,0,0,0,0,0,0,0,-1,1525,876,0,0
308,148,0,0,0,0,0,0,0,0,0,-1,1532,876,0,0
315,148,0,0,0,0,0,0,0,0,0,-1,1539,876,0,0
322,148,0,0,0,0,0,0,0,0,0,-1,1546,876,0,0
329,148,0,0,0,0,0,0,0,0,0,-1,1553,876,0,0
336,148,0,0,0,0,0,0,0,0,0,-1,1560,876,0,0
343,148,0,0,0,0,0,0,0,0,0,-1,1567,876,0,0
350,148,0,0,0,0,0,0,0,0,0,-1,1574,876,0,0
357,148,0,0,0,0,0,0,0,0,0,-1,1581,876,0,0
364,148,0,0,0,0,0,0,0,0,0,-1,1588,876,0,0
371,148,0,0,0,0,0,0,0,0,0,-1,1595,876,0,0
378,148,0,0,0,0,0,0,0,0,0,-1,1602,876,0,0
385,148,0,0,0,0,0,0,0,0,0,-1,1609,876,0,0
392,148,0,0,0,0,0,0,0,0,0,-1,1616,876,0,0
399,148,0,0,0,0,0,0,0,0,0,-1,1623,876,0,0
406,148,0,0,0,0,0,0,0,0,0,-1,1630,876,0,0
413,148,0,0,0,0,0,0,0,0,0,-1,1637,876,0,0
420,148,0,0,0,0,0,0,0,0,0,-1,1644,876,0,0
427,148,0,0,0,0,0,0,0,0,0,-1,1651,876,0,0
434,148,0,0,0,0,0,0,0,0,0,-1,1658,876,0,0
441,148,0,0,0,0,0,0,0,0,0,-1,1665,876,0,0
448,148,0,0,0,0,0,0,0,0,0,-1,1672,876,0,0
455,148,0,0,0,0,0,0,0,0,0,-1,1679,876,0,0
462,148,0,0,0,0,0,0,0,0,0,-1,1686,876,0,0
469,148,0,0,0,0,0,0,0,0,0,-1,1693,876,0,0
476,148,0,0,0,0,0,0,0,0,0,-1,1700,876,0,0
483,148,0,0,0,0,0,0,0,0,0,-1,1707,876,0,0
490,148,0,0,0,0,0,0,0,0,0,-1,1714,876,0,0
497,148,0,0,0,0,0,0,0,0,0,-1,1721,876,0,0
504,148,0,0,0,0,0,0,0,0,0,-1,1728,876,0,0
511,148,0,0,0,0,0,0,0,0,0,-1,1735,876,0,0
518,148,0,0,0,0,0,0,0,0,0,-1,1742,876,0,0
525,148,0,0,0,0,0,0,0,0,0,-1,1749,876,0,0
532,148,0,0,0,0,0,0,0,0,0,-1,1756,876,0,0
539,148,0,0,0,0,0,0,0,0,0,-1,1763,876,0,0
546,148,0,0,0,0,0,0,0,0,0,-1,1770,876,0,0
553,148,0,0,0,0,0,0,0,0,0,-1,1777,876,0,0
560,148,0,0,0,0,0,0,0,0,0,-1,1784,876,0,0
567,148,0,0,0,0,0,0,0,0,0,-1,1791,876,0,0
574,148,0,0,0,0,0,0,0,0,0,-1,1798,876,0,0
581,148,0,0,0,0,0,0,0,0,0,-1,1805,876,0,0
588,148,0,0,0,0,0,0,0,0,0,-1,1812,876,0,0
595,148,0,0,0,0,0,0,0,0,0,-1,1819,876,0,0
602,148,0,0,0,0,0,0,0,0,0,-1,1826,876,0,0
609,148,0,0,0,0,0,0,0,0,0,-1,1833,876,0,0
616,148,0,0,0,0,0,0,0,0,0,-1,1840,876,0,0
623,148,70.6699,2.1142,0.00114812,-0.00614886,0.00564704,0.00422276,-0.0092235,0.498588,0.00794015,0.0402058,1847,876,70.6699,-2.1142
630,148,70.5055,2.20679,0.000377934,-0.00397198,0.0045616,0.00325655,-0.0068506,0.562942,0.00595707,0.0410338,1854,876,70.5055,-2.20681
637,148,70.4883,2.30389,-2.9773e-05,-0.00206592,0.00342941,0.00252949,-0.00462518,0.641109,0.00418941,0.0383213,1861,876,70.4883,-2.30392
644,148,70.5858,2.23755,-0.000221363,-0.000846838,0.0023537,0.00184028,-0.00290849,0.71935,0.00276473,0.0346126,1868,876,70.5858,-2.23757
651,148,70.754,2.12994,-0.000325541,-0.000225142,0.0013139,0.00103952,-0.0015902,0.804492,0.00152933,0.0385099,1875,876,70.754,-2.12997
658,148,70.7274,2.28625,-0.000594879,-0.000155329,0.000248965,-4.30129e-05,-0.000707195,1.147,0.0004578,0.034738,1882,876,70.7275,-2.28623
665,148,70.557,2.46393,-0.000774105,-0.000162085,-0.000647902,0.000248438,-0.00118463,-1.00602,0.000884275,0.0259393,1889,876,70.557,-2.46392
672,148,70.6729,2.29407,-0.000576415,-0.000373308,-0.00118617,0.000715649,-0.00166537,-0.828101,0.00141066,0.0477824,1896,876,70.6729,-2.29407
679,148,70.8237,2.05145,0,0,0,0,0,0,0,-1,1903,876,70.8238,-2.05146
686,148,21.6195,2.40845,0,0,0,0,0,0,0,-1,1910,876,21.6196,-2.40846
693,148,48.1387,1.97351,0,0,0,0,0,0,0,-1,1917,876,48.1387,-1.97351
700,148,60.5096,2.55426,0,0,0,0,0,0,0,-1,1924,876,60.5096,-2.55423
707,148,60.5145,3.06042,0,0,0,0,0,0,0,-1,1931,876,60.5146,-3.06042
714,148,60.3839,3.63416,0,0,0,0,0,0,0,-1,1938,876,60.3839,-3.63418
721,148,60.0083,4.33295,-0.000771184,0.000771896,-0.00320335,0.00329531,-0.0032946,-0.903574,0.00380469,0.0329358,1945,876,60.0083,-4.33296
728,148,60.0146,5.05872,-0.00130351,0.00159147,-0.00293158,0.00341345,-0.00312548,-1.01472,0.00377647,0.0227119,1952,876,60.0147,-5.05869
735,148,59.9839,5.81213,-0.0018364,0.0026905,-0.00253961,0.00382893,-0.00297484,-1.14938,0.00393846,0.0221131,1959,876,59.9839,-5.81211
742,148,59.9087,6.55731,-0.0024137,0.00429416,-0.001979,0.00483449,-0.00295403,-1.30426,0.00454018,0.0237066,1966,876,59.9087,-6.55728
749,148,59.7964,7.26831,-0.00315259,0.00593955,-0.00137628,0.00614331,-0.00335635,-1.42381,0.00556275,0.0229157,1973,876,59.7964,-7.26828
756,148,59.6661,8.03754,-0.00414777,0.00779298,-0.000911287,0.00786213,-0.00421691,-1.49506,0.0070789,0.0275128,1980,876,59.6661,-8.03756
763,148,59.5526,8.91693,-0.00567686,0.00968804,-0.000670788,0.00971727,-0.00570609,-1.52725,0.0090045,0.0463066,1987,876,59.5526,-8.91693
770,148,59.4187,9.78198,0,0,0,0,0,0,0,-1,1994,876,59.4187,-9.78199
777,148,59.1804,10.5937,0,0,0,0,0,0,0,-1,2001,876,59.1804,-10.5937
784,148,54.7207,10.9227,0,0,0,0,0,0,0,-1,2008,876,54.7207,-10.9227
791,148,57.4717,12.5975,0,0,0,0,0,0,0,-1,2015,876,57.4717,-12.5974
798,148,0,0,0,0,0,0,0,0,0,-1,2022,876,0,0
805,148,0,0,0,0,0,0,0,0,0,-1,2029,876,0,0
812,148,0,0,0,0,0,0,0,0,0,-1,2036,876,0,0
-700,141,0,0,0,0,0,0,0,0,0,-1,524,883,0,0
-693,141,0,0,0,0,0,0,0,0,0,-1,531,883,0,0
-686,141,0,0,0,0,0,0,0,0,0,-1,538,883,0,0
-679,141,0,0,0,0,0,0,0,0,0,-1,545,883,0,0
-672,141,-51.8351,5.3291,0,0,0,0,0,0,0,-1,552,883,-51.8351,-5.32909
-665,141,-52.1505,4.24664,0,0,0,0,0,0,0,-1,559,883,-52.1505,-4.24666
-658,141,-52.3438,3.12531,0,0,0,0,0,0,0,-1,566,883,-52.3438,-3.1253
-651,141,-53.1779,1.50293,0,0,0,0,0,0,0,-1,573,883,-53.1778,-1.50292
-644,141,-52.4205,-0.191956,0,0,0,0,0,0,0,-1,580,883,-52.4205,0.191941
-637,141,-52.859,0.400024,0,0,0,0,0,0,0,-1,587,883,-52.859,-0.400006
-630,141,-45.3601,7.29498,0,0,0,0,0,0,0,-1,594,883,-45.3601,-7.29501
-623,141,-45.5916,6.36609,-0.00210831,0.0109202,-0.00121773,0.011033,-0.00222115,-1.4784,0.00819667,0.0364548,601,883,-45.5915,-6.36606
-616,141,-45.8341,5.54572,-0.00234163,0.00877486,-0.000675552,0.00881576,-0.00238253,-1.51032,0.00681169,0.0140185,608,883,-45.8341,-5.54569
-609,141,-45.9451,4.77728,-0.00276981,0.00598439,0.000288753,0.00599391,-0.00277932,1.53786,0.00517732,0.0147497,615,883,-45.9451,-4.77727
-602,141,-45.9948,4.01996,-0.00329919,0.00344872,0.00117318,0.00364687,-0.00349733,1.40348,0.00412501,0.016542,622,883,-45.9947,-4.01994
-595,141,-46.0219,3.27429,0,0,0,0,0,0,0,-1,629,883,-46.0219,-3.27431
-588,141,-46.3839,2.46838,0,0,0,0,0,0,0,-1,636,883,-46.3838,-2.46837
-581,141,-46.7458,1.66241,0,0,0,0,0,0,0,-1,643,883,-46.7458,-1.66243
-574,141,-42.7302,0.864685,0,0,0,0,0,0,0,-1,650,883,-42.7301,-0.864692
-567,141,-30.5335,0.480103,0,0,0,0,0,0,0,-1,657,883,-30.5335,-0.480081
-560,141,-30.5542,0.23175,0,0,0,0,0,0,0,-1,664,883,-30.5542,-0.231742
-553,141,-32.0876,1.39459,0,0,0,0,0,0,0,-1,671,883,-32.0876,-1.3946
-546,141,-54.7391,0.585571,0,0,0,0,0,0,0,-1,678,883,-54.7391,-0.585545
-539,141,-54.8068,0.558777,-0.00194116,-0.00283406,0.00134492,-0.00097053,-0.0038047,0.625145,0.00228279,0.0291356,685,883,-54.8068,-0.558794
-532,141,-54.8986,0.467041,-0.000873345,-0.0031588,0.00146238,-0.000160166,-0.00387197,0.453746,0.00252962,0.0282759,692,883,-54.8986,-0.467014
-525,141,-54.8812,0.535706,0.000106944,-0.00254452,0.000883564,0.000374401,-0.00281198,0.293934,0.0020111,0.0367198,699,883,-54.8812,-0.535683
-518,141,-54.9235,0.598206,-0.000399926,-0.00137939,0.000916684,0.000149643,-0.00192896,0.540065,0.00133864,0.0411222,706,883,-54.9234,-0.598225
-511,141,-54.9792,0.545654,-0.000714069,0.000513278,0.00120558,0.00125238,-0.00145318,1.02082,0.00156349,0.0396203,713,883,-54.9792,-0.545632
-504,141,-54.89,0.447815,-0.000569715,0.00275523,0.00148152,0.00331957,-0.00113406,1.20684,0.00267251,0.0418149,720,883,-54.8899,-0.447834
-497,141,0,0,0,0,0,0,0,0,0,-1,727,883,0,0
-490,141,0,0,0,0,0,0,0,0,0,-1,734,883,0,0
-483,141,0,0,0,0,0,0,0,0,0,-1,741,883,0,0
-476,141,0,0,0,0,0,0,0,0,0,-1,748,883,0,0
-469,141,0,0,0,0,0,0,0,0,0,-1,755,883,0,0
-462,141,0,0,0,0,0,0,0,0,0,-1,762,883,0,0
-455,141,0,0,0,0,0,0,0,0,0,-1,769,883,0,0
-448,141,0,0,0,0,0,0,0,0,0,-1,776,883,0,0
-441,141,0,0,0,0,0,0,0,0,0,-1,783,883,0,0
-434,141,0,0,0,0,0,0,0,0,0,-1,790,883,0,0
-427,141,0,0,0,0,0,0,0,0,0,-1,797,883,0,0
-420,141,0,0,0,0,0,0,0,0,0,-1,804,883,0,0
-413,141,0,0,0,0,0,0,0,0,0,-1,811,883,0,0
-406,141,0,0,0,0,0,0,0,0,0,-1,818,883,0,0
-399,141,0,0,0,0,0,0,0,0,0,-1,825,883,0,0
-392,141,0,0,0,0,0,0,0,0,0,-1,832,883,0,0
-385,141,0,0,0,0,0,0,0,0,0,-1,839,883,0,0
-378,141,0,0,0,0,0,0,0,0,0,-1,846,883,0,0
-371,141,0,0,0,0,0,0,0,0,0,-1,853,883,0,0
-364,141,0,0,0,0,0,0,0,0,0,-1,860,883,0,0
-357,141,0,0,0,0,0,0,0,0,0,-1,867,883,0,0
-350,141,0,0,0,0,0,0,0,0,0,-1,874,883,0,0
-343,141,0,0,0,0,0,0,0,0,0,-1,881,883,0,0
-336,141,0,0,0,0,0,0,0,0,0,-1,888,883,0,0
-329,141,0,0,0,0,0,0,0,0,0,-1,895,883,0,0
-322,141,0,0,0,0,0,0,0,0,0,-1,902,883,0,0
-315,141,0,0,0,0,0,0,0,0,0,-1,909,883,0,0
-308,141,0,0,0,0,0,0,0,0,0,-1,916,883,0,0
-301,141,0,0,0,0,0,0,0,0,0,-1,923,883,0,0
-294,141,0,0,0,0,0,0,0,0,0,-1,930,883,0,0
-287,141,0,0,0,0,0,0,0,0,0,-1,937,883,0,0
-280,141,0,0,0,0,0,0,0,0,0,-1,944,883,0,0
-273,141,0,0,0,0,0,0,0,0,0,-1,951,883,0,0
-266,141,0,0,0,0,0,0,0,0,0,-1,958,883,0,0
-259,141,0,0,0,0,0,0,0,0,0,-1,965,883,0,0
-252,141,0,0,0,0,0,0,0,0,0,-1,972,883,0,0
-245,141,0,0,0,0,0,0,0,0,0,-1,979,883,0,0
-238,141,0,0,0,0,0,0,0,0,0,-1,986,883,0,0
-231,141,0,0,0,0,0,0,0,0,0,-1,993,883,0,0
-224,141,0,0,0,0,0,0,0,0,0,-1,1000,883,0,0
-217,141,0,0,0,0,0,0,0,0,0,-1,1007,883,0,0
-210,141,0,0,0,0,0,0,0,0,0,-1,1014,883,0,0
-203,141,0,0,0,0,0,0,0,0,0,-1,1021,883,0,0
-196,141,0,0,0,0,0,0,0,0,0,-1,1028,883,0,0
-189,141,0,0,0,0,0,0,0,0,0,-1,1035,883,0,0
-182,141,0,0,0,0,0,0,0,0,0,-1,1042,883,0,0
-175,141,0,0,0,0,0,0,0,0,0,-1,1049,883,0,0
-168,141,0,0,0,0,0,0,0,0,0,-1,1056,883,0,0
-161,141,0,0,0,0,0,0,0,0,0,-1,1063,883,0,0
-154,141,0,0,0,0,0,0,0,0,0,-1,1070,883,0,0
-147,141,0,0,0,0,0,0,0,0,0,-1,1077,883,0,0
-140,141,0,0,0,0,0,0,0,0,0,-1,1084,883,0,0
-133,141,0,0,0,0,0,0,0,0,0,-1,1091,883,0,0
-126,141,0,0,0,0,0,0,0,0,0,-1,1098,883,0,0
-119,141,0,0,0,0,0,0,0,0,0,-1,1105,883,0,0
-112,141,0,0,0,0,0,0,0,0,0,-1,1112,883,0,0
-105,141,0,0,0,0,0,0,0,0,0,-1,1119,883,0,0
-98,141,0,0,0,0,0,0,0,0,0,-1,1126,883,0,0
-91,141,0,0,0,0,0,0,0,0,0,-1,1133,883,0,0
-84,141,0,0,0,0,0,0,0,0,0,-1,1140,883,0,0
-77,141,0,0,0,0,0,0,0,0,0,-1,1147,883,0,0
-70,141,0,0,0,0,0,0,0,0,0,-1,1154,883,0,0
-63,141,0,0,0,0,0,0,0,0,0,-1,1161,883,0,0
-56,141,0,0,0,0,0,0,0,0,0,-1,1168,883,0,0
-49,141,0,0,0,0,0,0,0,0,0,-1,1175,883,0,0
-42,141,0,0,0,0,0,0,0,0,0,-1,1182,883,0,0
-35,141,0,0,0,0,0,0,0,0,0,-1,1189,883,0,0
-28,141,0,0,0,0,0,0,0,0,0,-1,1196,883,0,0
-21,141,0,0,0,0,0,0,0,0,0,-1,1203,883,0,0
-14,141,0,0,0,0,0,0,0,0,0,-1,1210,883,0,0
-7,141,0,0,0,0,0,0,0,0,0,-1,1217,883,0,0
0,141,0,0,0,0,0,0,0,0,0,-1,1224,883,0,0
7,141,0,0,0,0,0,0,0,0,0,-1,1231,883,0,0
14,141,0,0,0,0,0,0,0,0,0,-1,1238,883,0,0
21,141,0,0,0,0,0,0,0,0,0,-1,1245,883,0,0
28,141,0,0,0,0,0,0,0,0,0,-1,1252,883,0,0
35,141,0,0,0,0,0,0,0,0,0,-1,1259,883,0,0
42,141,0,0,0,0,0,0,0,0,0,-1,1266,883,0,0
49,141,0,0,0,0,0,0,0,0,0,-1,1273,883,0,0
56,141,0,0,0,0,0,0,0,0,0,-1,1280,883,0,0
63,141,0,0,0,0,0,0,0,0,0,-1,1287,883,0,0
70,141,0,0,0,0,0,0,0,0,0,-1,1294,883,0,0
77,141,0,0,0,0,0,0,0,0,0,-1,1301,883,0,0
84,141,0,0,0,0,0,0,0,0,0,-1,1308,883,0,0
91,141,0,0,0,0,0,0,0,0,0,-1,1315,883,0,0
98,141,0,0,0,0,0,0,0,0,0,-1,1322,883,0,0
105,141,0,0,0,0,0,0,0,0,0,-1,1329,883,0,0
112,141,0,0,0,0,0,0,0,0,0,-1,1336,883,0,0
119,141,0,0,0,0,0,0,0,0,0,-1,1343,883,0,0
126,141,0,0,0,0,0,0,0,0,0,-1,1350,883,0,0
133,141,0,0,0,0,0,0,0,0,0,-1,1357,883,0,0
140,141,0,0,0,0,0,0,0,0,0,-1,1364,883,0,0
147,141,0,0,0,0,0,0,0,0,0,-1,1371,883,0,0
154,141,0,0,0,0,0,0,0,0,0,-1,1378,883,0,0
161,141,0,0,0,0,0,0,0,0,0,-1,1385,883,0,0
168,141,0,0,0,0,0,0,0,0,0,-1,1392,883,0,0
175,141,0,0,0,0,0,0,0,0,0,-1,1399,883,0,0
182,141,0,0,0,0,0,0,0,0,0,-1,1406,883,0,0
189,141,0,0,0,0,0,0,0,0,0,-1,1413,883,0,0
196,141,0,0,0,0,0,0,0,0,0,-1,1420,883,0,0
203,141,0,0,0,0,0,0,0,0,0,-1,1427,883,0,0
210,141,0,0,0,0,0,0,0,0,0,-1,1434,883,0,0
217,141,0,0,0,0,0,0,0,0,0,-1,1441,883,0,0
224,141,0,0,0,0,0,0,0,0,0,-1,1448,883,0,0
231,141,0,0,0,0,0,0,0,0,0,-1,1455,883,0,0
238,141,0,0,0,0,0,0,0,0,0,-1,1462,883,0,0
245,141,0,0,0,0,0,0,0,0,0,-1,1469,883,0,0
252,141,0,0,0,0,0,0,0,0,0,-1,1476,883,0,0
259,141,0,0,0,0,0,0,0,0,0,-1,1483,883,0,0
266,141,0,0,0,0,0,0,0,0,0,-1,1490,883,0,0
273,141,0,0,0,0,0,0,0,0,0,-1,1497,883,0,0
280,141,0,0,0,0,0,0,0,0,0,-1,1504,883,0,0
287,141,0,0,0,0,0,0,0,0,0,-1,1511,883,0,0
294,141,0,0,0,0,0,0,0,0,0,-1,1518,883,0,0
301,141,0,0,0,0,0,0,0,0,0,-1,1525,883,0,0
308,141,0,0,0,0,0,0,0,0,0,-1,1532,883,0,0
315,141,0,0,0,0,0,0,0,0,0,-1,1539,883,0,0
322,141,0,0,0,0,0,0,0,0,0,-1,1546,883,0,0
329,141,0,0,0,0,0,0,0,0,0,-1,1553,883,0,0
336,141,0,0,0,0,0,0,0,0,0,-1,1560,883,0,0
343,141,0,0,0,0,0,0,0,0,0,-1,1567,883,0,0
350,141,0,0,0,0,0,0,0,0,0,-1,1574,883,0,0
357,141,0,0,0,0,0,0,0,0,0,-1,1581,883,0,0
364,141,0,0,0,0,0,0,0,0,0,-1,1588,883,0,0
371,141,0,0,0,0,0,0,0,0,0,-1,1595,883,0,0
378,141,0,0,0,0,0,0,0,0,0,-1,1602,883,0,0
385,141,0,0,0,0,0,0,0,0,0,-1,1609,883,0,0
392,141,0,0,0,0,0,0,0,0,0,-1,1616,883,0,0
399,141,0,0,0,0,0,0,0,0,0,-1,1623,883,0,0
406,141,0,0,0,0,0,0,0,0,0,-1,1630,883,0,0
413,141,0,0,0,0,0,0,0,0,0,-1,1637,883,0,0
420,141,0,0,0,0,0,0,0,0,0,-1,1644,883,0,0
427,141,0,0,0,0,0,0,0,0,0,-1,1651,883,0,0
434,141,0,0,0,0,0,0,0,0,0,-1,1658,883,0,0
441,141,0,0,0,0,0,0,0,0,0,-1,1665,883,0,0
448,141,0,0,0,0,0,0,0,0,0,-1,1672,883,0,0
455,141,0,0,0,0,0,0,0,0,0,-1,1679,883,0,0
462,141,0,0,0,0,0,0,0,0,0,-1,1686,883,0,0
469,141,0,0,0,0,0,0,0,0,0,-1,1693,883,0,0
476,141,0,0,0,0,0,0,0,0,0,-1,1700,883,0,0
483,141,0,0,0,0,0,0,0,0,0,-1,1707,883,0,0
490,141,0,0,0,0,0,0,0,0,0,-1,1714,883,0,0
497,141,0,0,0,0,0,0,0,0,0,-1,1721,883,0,0
504,141,0,0,0,0,0,0,0,0,0,-1,1728,883,0,0
511,141,0,0,0,0,0,0,0,0,0,-1,1735,883,0,0
518,141,0,0,0,0,0,0,0,0,0,-1,1742,883,0,0
525,141,0,0,0,0,0,0,0,0,0,-1,1749,883,0,0
532,141,0,0,0,0,0,0,0,0,0,-1,1756,883,0,0
539,141,0,0,0,0,0,0,0,0,0,-1,1763,883,0,0
546,141,0,0,0,0,0,0,0,0,0,-1,1770,883,0,0
553,141,0,0,0,0,0,0,0,0,0,-1,1777,883,0,0
560,141,0,0,0,0,0,0,0,0,0,-1,1784,883,0,0
567,141,0,0,0,0,0,0,0,0,0,-1,1791,883,0,0
574,141,0,0,0,0,0,0,0,0,0,-1,1798,883,0,0
581,141,0,0,0,0,0,0,0,0,0,-1,1805,883,0,0
588,141,0,0,0,0,0,0,0,0,0,-1,1812,883,0,0
595,141,0,0,0,0,0,0,0,0,0,-1,1819,883,0,0
602,141,0,0,0,0,0,0,0,0,0,-1,1826,883,0,0
609,141,0,0,0,0,0,0,0,0,0,-1,1833,883,0,0
616,141,0,0,0,0,0,0,0,0,0,-1,1840,883,0,0
623,141,70.6304,2.12665,0.000893849,-0.00651712,0.00598537,0.00422791,-0.00985118,0.508229,0.00834189,0.0429007,1847,883,70.6303,-2.12667
630,141,70.5444,2.26471,0.000302227,-0.00452538,0.00467005,0.0031454,-0.00736855,0.546872,0.00623132,0.0443631,1854,883,70.5445,-2.2647
637,141,70.5013,2.17456,3.78905e-05,-0.00273713,0.00340493,0.00232716,-0.0050264,0.591921,0.00433987,0.0438846,1861,883,70.5013,-2.17459
644,141,70.6261,2.08026,-8.08953e-05,-0.0014726,0.00228028,0.00160735,-0.00316084,0.637306,0.00280119,0.0389523,1868,883,70.6261,-2.08025
651,141,70.8824,2.12915,-0.000133475,-0.000743094,0.00123685,0.000835566,-0.00171214,0.664585,0.00149966,0.0402426,1875,883,70.8824,-2.12917
658,141,70.8265,2.23138,-0.000339161,-0.000491136,0.000186954,-0.000213342,-0.000616955,0.592371,0.000361802,0.0385193,1882,883,70.8265,-2.23137
665,141,70.5347,2.43542,-0.000427933,-0.00039615,-0.000746591,0.000334719,-0.0011588,-0.796039,0.000904981,0.0310792,1889,883,70.5347,-2.43542
672,141,70.5872,2.41693,-0.000222946,-0.000618827,-0.00132598,0.000919781,-0.00176155,-0.711306,0.00157329,0.0262248,1896,883,70.5872,-2.41691
679,141,70.5942,2.36798,-7.7423e-05,-0.000745119,-0.00181023,0.00142948,-0.00225202,-0.694211,0.00214313,0.0430268,1903,883,70.5942,-2.36798
686,141,70.5565,2.31653,0,0,0,0,0,0,0,-1,1910,883,70.5565,-2.31651
693,141,51.7202,1.76593,0,0,0,0,0,0,0,-1,1917,883,51.7202,-1.76595
700,141,60.3544,2.08118,0,0,0,0,0,0,0,-1,1924,883,60.3544,-2.08121
707,141,61.1132,3.01025,0,0,0,0,0,0,0,-1,1931,883,61.1131,-3.01025
714,141,60.5919,3.67004,0,0,0,0,0,0,0,-1,1938,883,60.5919,-3.67003
721,141,60.722,4.31512,-0.000929933,0.000620831,-0.00325621,0.0031927,-0.00350181,-0.902283,0.00386645,0.0218934,1945,883,60.722,-4.31513
728,141,60.8279,4.99878,-0.00152414,0.00139044,-0.00307025,0.0033317,-0.0034654,-1.00698,0.00392456,0.0183316,1952,883,60.8279,-4.99876
735,141,60.7692,5.85419,-0.00212295,0.00246495,-0.0028174,0.00380417,-0.00346217,-1.12707,0.00419677,0.0215733,1959,883,60.7692,-5.8542
742,141,60.6749,6.59326,-0.00275423,0.00424959,-0.00234698,0.00496332,-0.00346797,-1.27557,0.00489326,0.0217376,1966,883,60.6749,-6.59327
749,141,60.6302,7.26917,-0.00349765,0.00620451,-0.00168047,0.00648733,-0.00378047,-1.40406,0.00599639,0.0167728,1973,883,60.6303,-7.26918
756,141,60.5297,8.06451,-0.00436853,0.0083588,-0.00105527,0.00844571,-0.00445543,-1.48863,0.0075663,0.022602,1980,883,60.5296,-8.06452
763,141,60.3007,8.95313,-0.00552184,0.0106018,-0.000524855,0.0106189,-0.00553891,-1.53829,0.00948113,0.0449785,1987,883,60.3006,-8.9531
770,141,60.0471,9.83527,0,0,0,0,0,0,0,-1,1994,883,60.0472,-9.83524
777,141,60.5322,10.0602,0,0,0,0,0,0,0,-1,2001,883,60.5323,-10.0602
784,141,57.8308,11.1509,0,0,0,0,0,0,0,-1,2008,883,57.8308,-11.151
791,141,59.0291,12.3168,0,0,0,0,0,0,0,-1,2015,883,59.029,-12.3168
798,141,0,0,0,0,0,0,0,0,0,-1,2022,883,0,0
805,141,0,0,0,0,0,0,0,0,0,-1,2029,883,0,0
812,141,0,0,0,0,0,0,0,0,0,-1,2036,883,0,0
-700,134,0,0,0,0,0,0,0,0,0,-1,524,890,0,0
-693,134,0,0,0,0,0,0,0,0,0,-1,531,890,0,0
-686,134,0,0,0,0,0,0,0,0,0,-1,538,890,0,0
-679,134,0,0,0,0,0,0,0,0,0,-1,545,890,0,0
-672,134,-48.8808,0.0828247,0,0,0,0,0,0,0,-1,552,890,-48.8808,-0.0828383
-665,134,-48.0922,-2.01764,0,0,0,0,0,0,0,-1,559,890,-48.0922,2.01764
-658,134,-54.3168,2.50623,0,0,0,0,0,0,0,-1,566,890,-54.3168,-2.50621
-651,134,-53.0905,0.530762,0,0,0,0,0,0,0,-1,573,890,-53.0905,-0.530792
-644,134,-51.8253,-1.26782,0,0,0,0,0,0,0,-1,580,890,-51.8253,1.26783
-637,134,-50.5067,-2.83545,0,0,0,0,0,0,0,-1,587,890,-50.5066,2.83545
-630,134,-46.2798,6.76263,0,0,0,0,0,0,0,-1,594,890,-46.2798,-6.76264
-623,134,-46.3987,6.21252,-0.00488657,0.00789575,0.00180609,0.00814604,-0.00513687,1.43309,0.00773421,0.0327755,601,890,-46.3987,-6.21255
-616,134,-46.6318,5.53723,-0.00422917,0.00735761,0.00126391,0.00749388,-0.00436543,1.4634,0.00692593,0.0128515,608,890,-46.6318,-5.53726
-609,134,-46.7601,4.80676,-0.00376043,0.00530208,0.00145022,0.00552849,-0.00398684,1.41592,0.00551766,0.0126243,615,890,-46.7601,-4.80678
-602,134,-46.7686,4.03528,-0.00362796,0.0031304,0.00170959,0.00353825,-0.00403581,1.33661,0.00437603,0.0148065,622,890,-46.7686,-4.03531
-595,134,-46.6554,3.32294,-0.00329962,0.00188705,0.00188802,0.00250152,-0.00391409,1.25615,0.00373386,0.0295155,629,890,-46.6554,-3.32292
-588,134,-47.2027,2.66492,-0.00307145,0.000982182,0.00179155,0.00166048,-0.00374975,1.20887,0.00320029,0.0464683,636,890,-47.2027,-2.66492
-581,134,-47.33,1.83783,0,0,0,0,0,0,0,-1,643,890,-47.3299,-1.83781
-574,134,-31.1517,0.757751,0,0,0,0,0,0,0,-1,650,890,-31.1517,-0.757758
-567,134,-30.9003,0.296326,0,0,0,0,0,0,0,-1,657,890,-30.9002,-0.296302
-560,134,-22.9123,0.106567,0,0,0,0,0,0,0,-1,664,890,-22.9123,-0.106594
-553,134,-54.7383,0.58197,0,0,0,0,0,0,0,-1,671,890,-54.7383,-0.581982
-546,134,-54.7668,0.556519,-0.00249689,-0.00247511,0.00176404,-0.000721924,-0.00425007,0.788485,0.00262603,0.0327926,678,890,-54.7669,-0.556538
-539,134,-54.7913,0.537109,-0.00225137,-0.00268718,0.00155722,-0.000896877,-0.00404166,0.715884,0.00245081,0.0171279,685,890,-54.7913,-0.537132
-532,134,-54.8678,0.520203,-0.00128865,-0.00284957,0.00178272,-0.000123033,-0.00401518,0.579071,0.00263674,0.0214903,692,890,-54.8678,-0.52021
-525,134,-54.9517,0.578552,-0.00072931,-0.00188688,0.0014178,0.000223293,-0.00283948,0.591609,0.00197164,0.034075,699,890,-54.9517,-0.578565
-518,134,-54.9423,0.877319,-0.00145103,-4.00348e-05,0.00162207,0.00102332,-0.00251438,0.990526,0.00210209,0.0452159,706,890,-54.9423,-0.877329
-511,134,-54.918,1.08203,-0.00203707,0.00227215,0.00193678,0.00301469,-0.00277961,1.20469,0.00334625,0.0481143,713,890,-54.918,-1.08203
-504,134,0,0,0,0,0,0,0,0,0,-1,720,890,0,0
-497,134,0,0,0,0,0,0,0,0,0,-1,727,890,0,0
-490,134,0,0,0,0,0,0,0,0,0,-1,734,890,0,0
-483,134,0,0,0,0,0,0,0,0,0,-1,741,890,0,0
-476,134,0,0,0,0,0,0,0,0,0,-1,748,890,0,0
-469,134,0,0,0,0,0,0,0,0,0,-1,755,890,0,0
-462,134,0,0,0,0,0,0,0,0,0,-1,762,890,0,0
-455,134,0,0,0,0,0,0,0,0,0,-1,769,890,0,0
-448,134,0,0,0,0,0,0,0,0,0,-1,776,890,0,0
-441,134,0,0,0,0,0,0,0,0,0,-1,783,890,0,0
-434,134,0,0,0,0,0,0,0,0,0,-1,790,890,0,0
-427,134,0,0,0,0,0,0,0,0,0,-1,797,890,0,0
-420,134,0,0,0,0,0,0,0,0,0,-1,804,890,0,0
-413,134,0,0,0,0,0,0,0,0,0,-1,811,890,0,0
-406,134,0,0,0,0,0,0,0,0,0,-1,818,890,0,0
-399,134,0,0,0,0,0,0,0,0,0,-1,825,890,0,0
-392,134,0,0,0,0,0,0,0,0,0,-1,832,890,0,0
-385,134,0,0,0,0,0,0,0,0,0,-1,839,890,0,0
-378,134,0,0,0,0,0,0,0,0,0,-1,846,890,0,0
-371,134,0,0,0,0,0,0,0,0,0,-1,853,890,0,0
-364,134,0,0,0,0,0,0,0,0,0,-1,860,890,0,0
-357,134,0,0,0,0,0,0,0,0,0,-1,867,890,0,0
-350,134,0,0,0,0,0,0,0,0,0,-1,874,890,0,0
-343,134,0,0,0,0,0,0,0,0,0,-1,881,890,0,0
-336,134,0,0,0,0,0,0,0,0,0,-1,888,890,0,0
-329,134,0,0,0,0,0,0,0,0,0,-1,895,890,0,0
-322,134,0,0,0,0,0,0,0,0,0,-1,902,890,0,0
-315,134,0,0,0,0,0,0,0,0,0,-1,909,890,0,0
-308,134,0,0,0,0,0,0,0,0,0,-1,916,890,0,0
-301,134,0,0,0,0,0,0,0,0,0,-1,923,890,0,0
-294,134,0,0,0,0,0,0,0,0,0,-1,930,890,0,0
-287,134,0,0,0,0,0,0,0,0,0,-1,937,890,0,0
-280,134,0,0,0,0,0,0,0,0,0,-1,944,890,0,0
-273,134,0,0,0,0,0,0,0,0,0,-1,951,890,0,0
-266,134,0,0,0,0,0,0,0,0,0,-1,958,890,0,0
-259,134,0,0,0,0,0,0,0,0,0,-1,965,890,0,0
-252,134,0,0,0,0,0,0,0,0,0,-1,972,890,0,0
-245,134,0,0,0,0,0,0,0,0,0,-1,979,890,0,0
-238,134,0,0,0,0,0,0,0,0,0,-1,986,890,0,0
-231,134,0,0,0,0,0,0,0,0,0,-1,993,890,0,0
-224,134,0,0,0,0,0,0,0,0,0,-1,1000,890,0,0
-217,134,0,0,0,0,0,0,0,0,0,-1,1007,890,0,0
-210,134,0,0,0,0,0,0,0,0,0,-1,1014,890,0,0
-203,134,0,0,0,0,0,0,0,0,0,-1,1021,890,0,0
-196,134,0,0,0,0,0,0,0,0,0,-1,1028,890,0,0
-189,134,0,0,0,0,0,0,0,0,0,-1,1035,890,0,0
-182,134,0,0,0,0,0,0,0,0,0,-1,1042,890,0,0
-175,134,0,0,0,0,0,0,0,0,0,-1,1049,890,0,0
-168,134,0,0,0,0,0,0,0,0,0,-1,1056,890,0,0
-161,134,0,0,0,0,0,0,0,0,0,-1,1063,890,0,0
-154,134,0,0,0,0,0,0,0,0,0,-1,1070,890,0,0
-147,134,0,0,0,0,0,0,0,0,0,-1,1077,890,0,0
-140,134,0,0,0,0,0,0,0,0,0,-1,1084,890,0,0
-133,134,0,0,0,0,0,0,0,0,0,-1,1091,890,0,0
-126,134,0,0,0,0,0,0,0,0,0,-1,1098,890,0,0
-119,134,0,0,0,0,0,0,0,0,0,-1,1105,890,0,0
-112,134,0,0,0,0,0,0,0,0,0,-1,1112,890,0,0
-105,134,0,0,0,0,0,0,0,0,0,-1,1119,890,0,0
-98,134,0,0,0,0,0,0,0,0,0,-1,1126,890,0,0
-91,134,0,0,0,0,0,0,0,0,0,-1,1133,890,0,0
-84,134,0,0,0,0,0,0,0,0,0,-1,1140,890,0,0
-77,134,0,0,0,0,0,0,0,0,0,-1,1147,890,0,0
-70,134,0,0,0,0,0,0,0,0,0,-1,1154,890,0,0
-63,134,0,0,0,0,0,0,0,0,0,-1,1161,890,0,0
-56,134,0,0,0,0,0,0,0,0,0,-1,1168,890,0,0
-49,134,0,0,0,0,0,0,0,0,0,-1,1175,890,0,0
-42,134,0,0,0,0,0,0,0,0,0,-1,1182,890,0,0
-35,134,0,0,0,0,0,0,0,0,0,-1,1189,890,0,0
-28,134,0,0,0,0,0,0,0,0,0,-1,1196,890,0,0
-21,134,0,0,0,0,0,0,0,0,0,-1,1203,890,0,0
-14,134,0,0,0,0,0,0,0,0,0,-1,1210,890,0,0
-7,134,0,0,0,0,0,0,0,0,0,-1,1217,890,0,0
0,134,0,0,0,0,0,0,0,0,0,-1,1224,890,0,0
7,134,0,0,0,0,0,0,0,0,0,-1,1231,890,0,0
14,134,0,0,0,0,0,0,0,0,0,-1,1238,890,0,0
21,134,0,0,0,0,0,0,0,0,0,-1,1245,890,0,0
28,134,0,0,0,0,0,0,0,0,0,-1,1252,890,0,0
35,134,0,0,0,0,0,0,0,0,0,-1,1259,890,0,0
42,134,0,0,0,0,0,0,0,0,0,-1,1266,890,0,0
49,134,0,0,0,0,0,0,0,0,0,-1,1273,890,0,0
56,134,0,0,0,0,0,0,0,0,0,-1,1280,890,0,0
63,134,0,0,0,0,0,0,0,0,0,-1,1287,890,0,0
70,134,0,0,0,0,0,0,0,0,0,-1,1294,890,0,0
77,134,0,0,0,0,0,0,0,0,0,-1,1301,890,0,0
84,134,0,0,0,0,0,0,0,0,0,-1,1308,890,0,0
91,134,0,0,0,0,0,0,0,0,0,-1,1315,890,0,0
98,134,0,0,0,0,0,0,0,0,0,-1,1322,890,0,0
105,134,0,0,0,0,0,0,0,0,0,-1,1329,890,0,0
112,134,0,0,0,0,0,0,0,0,0,-1,1336,890,0,0
119,134,0,0,0,0,0,0,0,0,0,-1,1343,890,0,0
126,134,0,0,0,0,0,0,0,0,0,-1,1350,890,0,0
133,134,0,0,0,0,0,0,0,0,0,-1,1357,890,0,0
140,134,0,0,0,0,0,0,0,0,0,-1,1364,890,0,0
147,134,0,0,0,0,0,0,0,0,0,-1,1371,890,0,0
154,134,0,0,0,0,0,0,0,0,0,-1,1378,890,0,0
161,134,0,0,0,0,0,0,0,0,0,-1,1385,890,0,0
168,134,0,0,0,0,0,0,0,0,0,-1,1392,890,0,0
175,134,0,0,0,0,0,0,0,0,0,-1,1399,890,0,0
182,134,0,0,0,0,0,0,0,0,0,-1,1406,890,0,0
189,134,0,0,0,0,0,0,0,0,0,-1,1413,890,0,0
196,134,0,0,0,0,0,0,0,0,0,-1,1420,890,0,0
203,134,0,0,0,0,0,0,0,0,0,-1,1427,890,0,0
210,134,0,0,0,0,0,0,0,0,0,-1,1434,890,0,0
217,134,0,0,0,0,0,0,0,0,0,-1,1441,890,0,0
224,134,0,0,0,0,0,0,0,0,0,-1,1448,890,0,0
231,134,0,0,0,0,0,0,0,0,0,-1,1455,890,0,0
238,134,0,0,0,0,0,0,0,0,0,-1,1462,890,0,0
245,134,0,0,0,0,0,0,0,0,0,-1,1469,890,0,0
252,134,0,0,0,0,0,0,0,0,0,-1,1476,890,0,0
259,134,0,0,0,0,0,0,0,0,0,-1,1483,890,0,0
266,134,0,0,0,0,0,0,0,0,0,-1,1490,890,0,0
273,134,0,0,0,0,0,0,0,0,0,-1,1497,890,0,0
280,134,0,0,0,0,0,0,0,0,0,-1,1504,890,0,0
287,134,0,0,0,0,0,0,0,0,0,-1,1511,890,0,0
294,134,0,0,0,0,0,0,0,0,0,-1,1518,890,0,0
301,134,0,0,0,0,0,0,0,0,0,-1,1525,890,0,0
308,134,0,0,0,0,0,0,0,0,0,-1,1532,890,0,0
315,134,0,0,0,0,0,0,0,0,0,-1,1539,890,0,0
322,134,0,0,0,0,0,0,0,0,0,-1,1546,890,0,0
329,134,0,0,0,0,0,0,0,0,0,-1,1553,890,0,0
336,134,0,0,0,0,0,0,0,0,0,-1,1560,890,0,0
343,134,0,0,0,0,0,0,0,0,0,-1,1567,890,0,0
350,134,0,0,0,0,0,0,0,0,0,-1,1574,890,0,0
357,134,0,0,0,0,0,0,0,0,0,-1,1581,890,0,0
364,134,0,0,0,0,0,0,0,0,0,-1,1588,890,0,0
371,134,0,0,0,0,0,0,0,0,0,-1,1595,890,0,0
378,134,0,0,0,0,0,0,0,0,0,-1,1602,890,0,0
385,134,0,0,0,0,0,0,0,0,0,-1,1609,890,0,0
392,134,0,0,0,0,0,0,0,0,0,-1,1616,890,0,0
399,134,0,0,0,0,0,0,0,0,0,-1,1623,890,0,0
406,134,0,0,0,0,0,0,0,0,0,-1,1630,890,0,0
413,134,0,0,0,0,0,0,0,0,0,-1,1637,890,0,0
420,134,0,0,0,0,0,0,0,0,0,-1,1644,890,0,0
427,134,0,0,0,0,0,0,0,0,0,-1,1651,890,0,0
434,134,0,0,0,0,0,0,0,0,0,-1,1658,890,0,0
441,134,0,0,0,0,0,0,0,0,0,-1,1665,890,0,0
448,134,0,0,0,0,0,0,0,0,0,-1,1672,890,0,0
455,134,0,0,0,0,0,0,0,0,0,-1,1679,890,0,0
462,134,0,0,0,0,0,0,0,0,0,-1,1686,890,0,0
469,134,0,0,0,0,0,0,0,0,0,-1,1693,890,0,0
476,134,0,0,0,0,0,0,0,0,0,-1,1700,890,0,0
483,134,0,0,0,0,0,0,0,0,0,-1,1707,890,0,0
490,134,0,0,0,0,0,0,0,0,0,-1,1714,890,0,0
497,134,0,0,0,0,0,0,0,0,0,-1,1721,890,0,0
504,134,0,0,0,0,0,0,0,0,0,-1,1728,890,0,0
511,134,0,0,0,0,0,0,0,0,0,-1,1735,890,0,0
518,134,0,0,0,0,0,0,0,0,0,-1,1742,890,0,0
525,134,0,0,0,0,0,0,0,0,0,-1,1749,890,0,0
532,134,0,0,0,0,0,0,0,0,0,-1,1756,890,0,0
539,134,0,0,0,0,0,0,0,0,0,-1,1763,890,0,0
546,134,0,0,0,0,0,0,0,0,0,-1,1770,890,0,0
553,134,0,0,0,0,0,0,0,0,0,-1,1777,890,0,0
560,134,0,0,0,0,0,0,0,0,0,-1,1784,890,0,0
567,134,0,0,0,0,0,0,0,0,0,-1,1791,890,0,0
574,134,0,0,0,0,0,0,0,0,0,-1,1798,890,0,0
581,134,0,0,0,0,0,0,0,0,0,-1,1805,890,0,0
588,134,0,0,0,0,0,0,0,0,0,-1,1812,890,0,0
595,134,0,0,0,0,0,0,0,0,0,-1,1819,890,0,0
602,134,0,0,0,0,0,0,0,0,0,-1,1826,890,0,0
609,134,0,0,0,0,0,0,0,0,0,-1,1833,890,0,0
616,134,0,0,0,0,0,0,0,0,0,-1,1840,890,0,0
623,134,70.6143,2.16943,0.000618936,-0.00665966,0.00649079,0.00442106,-0.0104618,0.529893,0.00882539,0.0457056,1847,890,70.6143,-2.16944
630,134,70.5337,2.35608,0.000252847,-0.00484261,0.00492339,0.00324864,-0.0078384,0.546634,0.0065814,0.0453324,1854,890,70.5337,-2.3561
637,134,70.5828,2.42023,0.000162437,-0.0031804,0.00348342,0.00235467,-0.00537264,0.56171,0.00457338,0.0452309,1861,890,70.5827,-2.42022
644,134,70.5979,2.48828,0.000108432,-0.00188158,0.00227514,0.00159663,-0.00336978,0.579261,0.00292764,0.0399191,1868,890,70.5979,-2.48828
651,134,70.6935,2.44867,0.000115249,-0.00108733,0.00121702,0.000871412,-0.0018435,0.555952,0.0016006,0.0402352,1875,890,70.6935,-2.44867
658,134,70.8124,2.25043,-1.40954e-05,-0.000705333,0.000202104,4.06587e-05,-0.000760087,0.264569,0.000520807,0.0403643,1882,890,70.8123,-2.25042
665,134,70.5814,2.28522,-1.43495e-05,-0.00052019,-0.00073016,0.000505454,-0.00103999,-0.618671,0.000909882,0.0371154,1889,890,70.5814,-2.28521
672,134,70.616,2.27783,0.000143624,-0.000756147,-0.00130031,0.00106967,-0.0016822,-0.618852,0.00160186,0.0270624,1896,890,70.616,-2.27783
679,134,70.6453,2.26001,0.000196877,-0.000932404,-0.00174501,0.00146633,-0.00220185,-0.628927,0.00213197,0.0261418,1903,890,70.6452,-2.25999
686,134,70.64,2.26105,0,0,0,0,0,0,0,-1,1910,890,70.6401,-2.26102
693,134,34.5778,2.48096,0,0,0,0,0,0,0,-1,1917,890,34.5777,-2.48099
700,134,61.3168,1.77283,0,0,0,0,0,0,0,-1,1924,890,61.3167,-1.77284
707,134,61.3387,2.52356,0,0,0,0,0,0,0,-1,1931,890,61.3388,-2.52354
714,134,61.4642,3.4043,-0.000997013,-5.10068e-05,-0.00307876,0.00259087,-0.00363889,-0.861619,0.00361368,0.0286374,1938,890,61.4643,-3.40431
721,134,61.5875,4.16663,-0.00115004,0.000414283,-0.00318189,0.00290874,-0.00364449,-0.905917,0.00379145,0.027106,1945,890,61.5876,-4.16664
728,134,61.6335,4.92859,-0.00184761,0.00115743,-0.0030471,0.00305232,-0.0037425,-1.01445,0.00392973,0.0235314,1952,890,61.6335,-4.92862
735,134,61.5636,5.83582,-0.00251603,0.00224554,-0.0029075,0.00362263,-0.00389313,-1.12846,0.00434017,0.0297925,1959,890,61.5636,-5.83581
742,134,61.4523,6.61017,-0.00321289,0.00422045,-0.00253241,0.00500119,-0.00399364,-1.27174,0.00520402,0.0185637,1966,890,61.4523,-6.61019
749,134,61.4353,7.30426,-0.00399457,0.00655666,-0.00180722,0.00685762,-0.00429552,-1.40578,0.00649566,0.0137005,1973,890,61.4353,-7.30425
756,134,61.3616,8.02692,-0.00479192,0.00916054,-0.00099934,0.00923176,-0.00486313,-1.49966,0.00826696,0.0188172,1980,890,61.3616,-8.02692
763,134,61.2244,8.80237,-0.00573415,0.0119115,-0.000203502,0.0119138,-0.00573649,-1.55927,0.0103964,0.0387009,1987,890,61.2245,-8.8024
770,134,61.0854,9.57843,0,0,0,0,0,0,0,-1,1994,890,61.0855,-9.57845
777,134,56.5676,10.374,0,0,0,0,0,0,0,-1,2001,890,56.5676,-10.374
784,134,59.4336,10.8775,0,0,0,0,0,0,0,-1,2008,890,59.4337,-10.8775
791,134,61.1787,12.2078,0,0,0,0,0,0,0,-1,2015,890,61.1787,-12.2078
798,134,0,0,0,0,0,0,0,0,0,-1,2022,890,0,0
805,134,0,0,0,0,0,0,0,0,0,-1,2029,890,0,0
812,134,0,0,0,0,0,0,0,0,0,-1,2036,890,0,0
-700,127,0,0,0,0,0,0,0,0,0,-1,524,897,0,0
-693,127,0,0,0,0,0,0,0,0,0,-1,531,897,0,0
-686,127,0,0,0,0,0,0,0,0,0,-1,538,897,0,0
-679,127,-50.3174,1.3479,0,0,0,0,0,0,0,-1,545,897,-50.3174,-1.34791
-672,127,-49.6997,-0.577454,0,0,0,0,0,0,0,-1,552,897,-49.6997,0.577428
-665,127,-48.882,-2.81653,0,0,0,0,0,0,0,-1,559,897,-48.882,2.81654
-658,127,-48.2457,-4.87506,0,0,0,0,0,0,0,-1,566,897,-48.2457,4.87505
-651,127,-52.9149,-0.455505,0,0,0,0,0,0,0,-1,573,897,-52.9149,0.455524
-644,127,-51.6913,-2.33765,0,0,0,0,0,0,0,-1,580,897,-51.6914,2.33763
-637,127,-50.3104,-4.18658,0,0,0,0,0,0,0,-1,587,897,-50.3104,4.18656
-630,127,-47.3304,6.63989,0,0,0,0,0,0,0,-1,594,897,-47.3304,-6.63987
-623,127,-47.3706,6.11267,-0.00678552,0.00565902,0.00323477,0.00644962,-0.00757613,1.33109,0.00810647,0.0206941,601,897,-47.3706,-6.11265
-616,127,-47.4401,5.51801,-0.0054708,0.0059303,0.00242085,0.00642304,-0.00596354,1.37,0.00715303,0.011169,608,897,-47.4401,-5.518
-609,127,-47.5148,4.79675,-0.00432432,0.00452035,0.00227004,0.00506894,-0.00487292,1.33368,0.0057403,0.0158277,615,897,-47.5147,-4.79675
-602,127,-47.5176,4.0733,-0.00368201,0.00278005,0.00209189,0.00339812,-0.00430008,1.28351,0.00445471,0.0191103,622,897,-47.5176,-4.07332
-595,127,-47.451,3.41162,-0.00313094,0.00175138,0.00203774,0.0024901,-0.00386966,1.22301,0.00370049,0.0352279,629,897,-47.451,-3.41161
-588,127,-47.48,2.53491,-0.00282347,0.000961467,0.00190304,0.00175284,-0.00361484,1.17671,0.00316057,0.0422328,636,897,-47.48,-2.53493
-581,127,-47.0338,1.59686,0,0,0,0,0,0,0,-1,643,897,-47.0338,-1.59688
-574,127,-25.2603,0.511169,0,0,0,0,0,0,0,-1,650,897,-25.2603,-0.51117
-567,127,-24.5417,-0.0447388,0,0,0,0,0,0,0,-1,657,897,-24.5417,0.0447226
-560,127,-18.9678,1.21667,0,0,0,0,0,0,0,-1,664,897,-18.9677,-1.2167
-553,127,-54.8495,0.539124,0,0,0,0,0,0,0,-1,671,897,-54.8495,-0.539101
-546,127,-54.8166,0.524902,-0.00231735,-0.00213025,0.00168706,-0.000534144,-0.00391345,0.813094,0.0024504,0.02124,678,897,-54.8166,-0.524875
-539,127,-54.78,0.53418,-0.00219333,-0.00223202,0.00155028,-0.000662272,-0.00376308,0.779159,0.00231969,0.0193217,685,897,-54.78,-0.53415
-532,127,-54.7924,0.554565,-0.00155937,-0.0020525,0.00189337,0.000103423,-0.00371529,0.72065,0.00251204,0.0165659,692,897,-54.7923,-0.55457
-525,127,-54.8755,0.638306,-0.001702,-0.00070707,0.00184648,0.000707785,-0.00311685,0.91698,0.00234964,0.031811,699,897,-54.8756,-0.638315
-518,127,-54.9333,0.977783,-0.00282045,0.00154764,0.00220239,0.0024653,-0.00373811,1.17601,0.00360659,0.0443824,706,897,-54.9333,-0.977759
-511,127,-54.9357,1.13495,-0.00385325,0.00418477,0.00254914,0.00492502,-0.0045935,1.28818,0.00549663,0.047862,713,897,-54.9357,-1.13495
-504,127,0,0,0,0,0,0,0,0,0,-1,720,897,0,0
-497,127,0,0,0,0,0,0,0,0,0,-1,727,897,0,0
-490,127,0,0,0,0,0,0,0,0,0,-1,734,897,0,0
-483,127,0,0,0,0,0,0,0,0,0,-1,741,897,0,0
-476,127,0,0,0,0,0,0,0,0,0,-1,748,897,0,0
-469,127,0,0,0,0,0,0,0,0,0,-1,755,897,0,0
-462,127,0,0,0,0,0,0,0,0,0,-1,762,897,0,0
-455,127,0,0,0,0,0,0,0,0,0,-1,769,897,0,0
-448,127,0,0,0,0,0,0,0,0,0,-1,776,897,0,0
-441,127,0,0,0,0,0,0,0,0,0,-1,783,897,0,0
-434,127,0,0,0,0,0,0,0,0,0,-1,790,897,0,0
-427,127,0,0,0,0,0,0,0,0,0,-1,797,897,0,0
-420,127,0,0,0,0,0,0,0,0,0,-1,804,897,0,0
-413,127,0,0,0,0,0,0,0,0,0,-1,811,897,0,0
-406,127,0,0,0,0,0,0,0,0,0,-1,818,897,0,0
-399,127,0,0,0,0,0,0,0,0,0,-1,825,897,0,0
-392,127,0,0,0,0,0,0,0,0,0,-1,832,897,0,0
-385,127,0,0,0,0,0,0,0,0,0,-1,839,897,0,0
-378,127,0,0,0,0,0,0,0,0,0,-1,846,897,0,0
-371,127,0,0,0,0,0,0,0,0,0,-1,853,897,0,0
-364,127,0,0,0,0,0,0,0,0,0,-1,860,897,0,0
-357,127,0,0,0,0,0,0,0,0,0,-1,867,897,0,0
-350,127,0,0,0,0,0,0,0,0,0,-1,874,897,0,0
-343,127,0,0,0,0,0,0,0,0,0,-1,881,897,0,0
-336,127,0,0,0,0,0,0,0,0,0,-1,888,897,0,0
-329,127,0,0,0,0,0,0,0,0,0,-1,895,897,0,0
-322,127,0,0,0,0,0,0,0,0,0,-1,902,897,0,0
-315,127,0,0,0,0,0,0,0,0,0,-1,909,897,0,0
-308,127,0,0,0,0,0,0,0,0,0,-1,916,897,0,0
-301,127,0,0,0,0,0,0,0,0,0,-1,923,897,0,0
-294,127,0,0,0,0,0,0,0,0,0,-1,930,897,0,0
-287,127,0,0,0,0,0,0,0,0,0,-1,937,897,0,0
-280,127,0,0,0,0,0,0,0,0,0,-1,944,897,0,0
-273,127,0,0,0,0,0,0,0,0,0,-1,951,897,0,0
-266,127,0,0,0,0,0,0,0,0,0,-1,958,897,0,0
-259,127,0,0,0,0,0,0,0,0,0,-1,965,897,0,0
-252,127,0,0,0,0,0,0,0,0,0,-1,972,897,0,0
-245,127,0,0,0,0,0,0,0,0,0,-1,979,897,0,0
-238,127,0,0,0,0,0,0,0,0,0,-1,986,897,0,0
-231,127,0,0,0,0,0,0,0,0,0,-1,993,897,0,0
-224,127,0,0,0,0,0,0,0,0,0,-1,1000,897,0,0
-217,127,0,0,0,0,0,0,0,0,0,-1,1007,897,0,0
-210,127,0,0,0,0,0,0,0,0,0,-1,1014,897,0,0
-203,127,0,0,0,0,0,0,0,0,0,-1,1021,897,0,0
-196,127,0,0,0,0,0,0,0,0,0,-1,1028,897,0,0
-189,127,0,0,0,0,0,0,0,0,0,-1,1035,897,0,0
-182,127,0,0,0,0,0,0,0,0,0,-1,1042,897,0,0
-175,127,0,0,0,0,0,0,0,0,0,-1,1049,897,0,0
-168,127,0,0,0,0,0,0,0,0,0,-1,1056,897,0,0
-161,127,0,0,0,0,0,0,0,0,0,-1,1063,897,0,0
-154,127,0,0,0,0,0,0,0,0,0,-1,1070,897,0,0
-147,127,0,0,0,0,0,0,0,0,0,-1,1077,897,0,0
-140,127,0,0,0,0,0,0,0,0,0,-1,1084,897,0,0
-133,127,0,0,0,0,0,0,0,0,0,-1,1091,897,0,0
-126,127,0,0,0,0,0,0,0,0,0,-1,1098,897,0,0
-119,127,0,0,0,0,0,0,0,0,0,-1,1105,897,0,0
-112,127,0,0,0,0,0,0,0,0,0,-1,1112,897,0,0
-105,127,0,0,0,0,0,0,0,0,0,-1,1119,897,0,0
-98,127,0,0,0,0,0,0,0,0,0,-1,1126,897,0,0
-91,127,0,0,0,0,0,0,0,0,0,-1,1133,897,0,0
-84,127,0,0,0,0,0,0,0,0,0,-1,1140,897,0,0
-77,127,0,0,0,0,0,0,0,0,0,-1,1147,897,0,0
-70,127,0,0,0,0,0,0,0,0,0,-1,1154,897,0,0
-63,127,0,0,0,0,0,0,0,0,0,-1,1161,897,0,0
-56,127,0,0,0,0,0,0,0,0,0,-1,1168,897,0,0
-49,127,0,0,0,0,0,0,0,0,0,-1,1175,897,0,0
-42,127,0,0,0,0,0,0,0,0,0,-1,1182,897,0,0
-35,127,0,0,0,0,0,0,0,0,0,-1,1189,897,0,0
-28,127,0,0,0,0,0,0,0,0,0,-1,1196,897,0,0
-21,127,0,0,0,0,0,0,0,0,0,-1,1203,897,0,0
-14,127,0,0,0,0,0,0,0,0,0,-1,1210,897,0,0
-7,127,0,0,0,0,0,0,0,0,0,-1,1217,897,0,0
0,127,0,0,0,0,0,0,0,0,0,-1,1224,897,0,0
7,127,0,0,0,0,0,0,0,0,0,-1,1231,897,0,0
14,127,0,0,0,0,0,0,0,0,0,-1,1238,897,0,0
21,127,0,0,0,0,0,0,0,0,0,-1,1245,897,0,0
28,127,0,0,0,0,0,0,0,0,0,-1,1252,897,0,0
35,127,0,0,0,0,0,0,0,0,0,-1,1259,897,0,0
42,127,0,0,0,0,0,0,0,0,0,-1,1266,897,0,0
49,127,0,0,0,0,0,0,0,0,0,-1,1273,897,0,0
56,127,0,0,0,0,0,0,0,0,0,-1,1280,897,0,0
63,127,0,0,0,0,0,0,0,0,0,-1,1287,897,0,0
70,127,0,0,0,0,0,0,0,0,0,-1,1294,897,0,0
77,127,0,0,0,0,0,0,0,0,0,-1,1301,897,0,0
84,127,0,0,0,0,0,0,0,0,0,-1,1308,897,0,0
91,127,0,0,0,0,0,0,0,0,0,-1,1315,897,0,0
98,127,0,0,0,0,0,0,0,0,0,-1,1322,897,0,0
105,127,0,0,0,0,0,0,0,0,0,-1,1329,897,0,0
112,127,0,0,0,0,0,0,0,0,0,-1,1336,897,0,0
119,127,0,0,0,0,0,0,0,0,0,-1,1343,897,0,0
126,127,0,0,0,0,0,0,0,0,0,-1,1350,897,0,0
133,127,0,0,0,0,0,0,0,0,0,-1,1357,897,0,0
140,127,0,0,0,0,0,0,0,0,0,-1,1364,897,0,0
147,127,0,0,0,0,0,0,0,0,0,-1,1371,897,0,0
154,127,0,0,0,0,0,0,0,0,0,-1,1378,897,0,0
161,127,0,0,0,0,0,0,0,0,0,-1,1385,897,0,0
168,127,0,0,0,0,0,0,0,0,0,-1,1392,897,0,0
175,127,0,0,0,0,0,0,0,0,0,-1,1399,897,0,0
182,127,0,0,0,0,0,0,0,0,0,-1,1406,897,0,0
189,127,0,0,0,0,0,0,0,0,0,-1,1413,897,0,0
196,127,0,0,0,0,0,0,0,0,0,-1,1420,897,0,0
203,127,0,0,0,0,0,0,0,0,0,-1,1427,897,0,0
210,127,0,0,0,0,0,0,0,0,0,-1,1434,897,0,0
217,127,0,0,0,0,0,0,0,0,0,-1,1441,897,0,0
224,127,0,0,0,0,0,0,0,0,0,-1,1448,897,0,0
231,127,0,0,0,0,0,0,0,0,0,-1,1455,897,0,0
238,127,0,0,0,0,0,0,0,0,0,-1,1462,897,0,0
245,127,0,0,0,0,0,0,0,0,0,-1,1469,897,0,0
252,127,0,0,0,0,0,0,0,0,0,-1,1476,897,0,0
259,127,0,0,0,0,0,0,0,0,0,-1,1483,897,0,0
266,127,0,0,0,0,0,0,0,0,0,-1,1490,897,0,0
273,127,0,0,0,0,0,0,0,0,0,-1,1497,897,0,0
280,127,0,0,0,0,0,0,0,0,0,-1,1504,897,0,0
287,127,0,0,0,0,0,0,0,0,0,-1,1511,897,0,0
294,127,0,0,0,0,0,0,0,0,0,-1,1518,897,0,0
301,127,0,0,0,0,0,0,0,0,0,-1,1525,897,0,0
308,127,0,0,0,0,0,0,0,0,0,-1,1532,897,0,0
315,127,0,0,0,0,0,0,0,0,0,-1,1539,897,0,0
322,127,0,0,0,0,0,0,0,0,0,-1,1546,897,0,0
329,127,0,0,0,0,0,0,0,0,0,-1,1553,897,0,0
336,127,0,0,0,0,0,0,0,0,0,-1,1560,897,0,0
343,127,0,0,0,0,0,0,0,0,0,-1,1567,897,0,0
350,127,0,0,0,0,0,0,0,0,0,-1,1574,897,0,0
357,127,0,0,0,0,0,0,0,0,0,-1,1581,897,0,0
364,127,0,0,0,0,0,0,0,0,0,-1,1588,897,0,0
371,127,0,0,0,0,0,0,0,0,0,-1,1595,897,0,0
378,127,0,0,0,0,0,0,0,0,0,-1,1602,897,0,0
385,127,0,0,0,0,0,0,0,0,0,-1,1609,897,0,0
392,127,0,0,0,0,0,0,0,0,0,-1,1616,897,0,0
399,127,0,0,0,0,0,0,0,0,0,-1,1623,897,0,0
406,127,0,0,0,0,0,0,0,0,0,-1,1630,897,0,0
413,127,0,0,0,0,0,0,0,0,0,-1,1637,897,0,0
420,127,0,0,0,0,0,0,0,0,0,-1,1644,897,0,0
427,127,0,0,0,0,0,0,0,0,0,-1,1651,897,0,0
434,127,0,0,0,0,0,0,0,0,0,-1,1658,897,0,0
441,127,0,0,0,0,0,0,0,0,0,-1,1665,897,0,0
448,127,0,0,0,0,0,0,0,0,0,-1,1672,897,0,0
455,127,0,0,0,0,0,0,0,0,0,-1,1679,897,0,0
462,127,0,0,0,0,0,0,0,0,0,-1,1686,897,0,0
469,127,0,0,0,0,0,0,0,0,0,-1,1693,897,0,0
476,127,0,0,0,0,0,0,0,0,0,-1,1700,897,0,0
483,127,0,0,0,0,0,0,0,0,0,-1,1707,897,0,0
490,127,0,0,0,0,0,0,0,0,0,-1,1714,897,0,0
497,127,0,0,0,0,0,0,0,0,0,-1,1721,897,0,0
504,127,0,0,0,0,0,0,0,0,0,-1,1728,897,0,0
511,127,0,0,0,0,0,0,0,0,0,-1,1735,897,0,0
518,127,0,0,0,0,0,0,0,0,0,-1,1742,897,0,0
525,127,0,0,0,0,0,0,0,0,0,-1,1749,897,0,0
532,127,0,0,0,0,0,0,0,0,0,-1,1756,897,0,0
539,127,0,0,0,0,0,0,0,0,0,-1,1763,897,0,0
546,127,0,0,0,0,0,0,0,0,0,-1,1770,897,0,0
553,127,0,0,0,0,0,0,0,0,0,-1,1777,897,0,0
560,127,0,0,0,0,0,0,0,0,0,-1,1784,897,0,0
567,127,0,0,0,0,0,0,0,0,0,-1,1791,897,0,0
574,127,0,0,0,0,0,0,0,0,0,-1,1798,897,0,0
581,127,0,0,0,0,0,0,0,0,0,-1,1805,897,0,0
588,127,0,0,0,0,0,0,0,0,0,-1,1812,897,0,0
595,127,0,0,0,0,0,0,0,0,0,-1,1819,897,0,0
602,127,0,0,0,0,0,0,0,0,0,-1,1826,897,0,0
609,127,0,0,0,0,0,0,0,0,0,-1,1833,897,0,0
616,127,0,0,0,0,0,0,0,0,0,-1,1840,897,0,0
623,127,0,0,0,0,0,0,0,0,0,-1,1847,897,0,0
630,127,70.7035,1.94745,0.000537494,-0.00569574,0.0051839,0.00346952,-0.00862777,0.514744,0.0071929,0.0426633,1854,897,70.7035,-1.94742
637,127,70.8013,2.24963,0.000583867,-0.00400294,0.00350106,0.00247581,-0.00589488,0.495437,0.00496539,0.041042,1861,897,70.8013,-2.24962
644,127,70.6779,2.49597,0.000529537,-0.00259501,0.00221311,0.00167624,-0.00374171,0.478055,0.00320293,0.0388044,1868,897,70.6779,-2.49594
651,127,70.5436,2.51508,0.000484963,-0.00165979,0.00118387,0.00100994,-0.00218477,0.417387,0.00188558,0.0397404,1875,897,70.5435,-2.5151
658,127,70.5334,2.33813,0.000329407,-0.00106174,0.000275113,0.000381837,-0.00111417,0.188319,0.000897555,0.0419255,1882,897,70.5334,-2.33812
665,127,70.5518,2.15472,0.000321499,-0.000695285,-0.000564192,0.000572564,-0.00094635,-0.418688,0.000885752,0.0396727,1889,897,70.5518,-2.15474
672,127,70.5494,2.17633,0.000381681,-0.000876568,-0.00107187,0.00099542,-0.00149031,-0.520018,0.00144458,0.0340158,1896,897,70.5495,-2.17634
679,127,70.6632,2.21552,0.000342197,-0.00106498,-0.00146456,0.00126341,-0.0019862,-0.561472,0.00189157,0.0286249,1903,897,70.6633,-2.21554
686,127,70.667,2.25177,0,0,0,0,0,0,0,-1,1910,897,70.667,-2.25177
693,127,59.2523,2.33673,0,0,0,0,0,0,0,-1,1917,897,59.2524,-2.33674
700,127,58.717,1.80957,0,0,0,0,0,0,0,-1,1924,897,58.717,-1.80956
707,127,61.7568,2.09393,0,0,0,0,0,0,0,-1,1931,897,61.7568,-2.09394
714,127,62.4755,3.45111,-0.00133874,-4.34562e-05,-0.00281399,0.00219646,-0.00357866,-0.898504,0.00336594,0.0278881,1938,897,62.4755,-3.45111
721,127,62.5367,4.39227,-0.00162184,0.000391499,-0.00294232,0.00249459,-0.00372493,-0.950224,0.00361419,0.0279932,1945,897,62.5368,-4.39228
728,127,62.3879,5.07611,-0.00241298,0.00112523,-0.00288876,0.00274355,-0.0040313,-1.06015,0.00393495,0.0253013,1952,897,62.388,-5.07612
735,127,62.3304,5.87311,-0.00314518,0.00221896,-0.00290377,0.00348978,-0.00441601,-1.15826,0.00457484,0.0197662,1959,897,62.3305,-5.87309
742,127,62.2498,6.60583,-0.00392398,0.004298,-0.00272541,0.00511936,-0.00474534,-1.27808,0.00569675,0.0177021,1966,897,62.2497,-6.60583
749,127,62.1899,7.30493,-0.00481372,0.0069717,-0.00209068,0.00733159,-0.00517361,-1.40033,0.00725562,0.0132936,1973,897,62.19,-7.30496
756,127,62.1139,7.97107,-0.00566801,0.0100215,-0.00124939,0.0101204,-0.00576688,-1.49183,0.00928662,0.0163912,1980,897,62.1139,-7.97106
763,127,62.0195,8.61462,-0.0065557,0.0132536,-0.000348044,0.0132597,-0.00656182,-1.55323,0.0116597,0.0257327,1987,897,62.0195,-8.6146
770,127,61.9797,9.24847,0,0,0,0,0,0,0,-1,1994,897,61.9797,-9.24848
777,127,42.703,5.33789,0,0,0,0,0,0,0,-1,2001,897,42.7031,-5.33791
784,127,64.0547,11.0536,0,0,0,0,0,0,0,-1,2008,897,64.0547,-11.0536
791,127,63.4036,12.2262,0,0,0,0,0,0,0,-1,2015,897,63.4036,-12.2262
798,127,0,0,0,0,0,0,0,0,0,-1,2022,897,0,0
805,127,0,0,0,0,0,0,0,0,0,-1,2029,897,0,0
812,127,0,0,0,0,0,0,0,0,0,-1,2036,897,0,0
-700,120,0,0,0,0,0,0,0,0,0,-1,524,904,0,0
-693,120,0,0,0,0,0,0,0,0,0,-1,531,904,0,0
-686,120,0,0,0,0,0,0,0,0,0,-1,538,904,0,0
-679,120,-51.263,0.49823,0,0,0,0,0,0,0,-1,545,904,-51.263,-0.4982
-672,120,-50.539,-0.857056,0,0,0,0,0,0,0,-1,552,904,-50.539,0.857059
-665,120,-49.5799,-2.14374,0,0,0,0,0,0,0,-1,559,904,-49.5799,2.14373
-658,120,-51.0778,7.89978,0,0,0,0,0,0,0,-1,566,904,-51.0778,-7.89975
-651,120,-52.9452,-1.22644,0,0,0,0,0,0,0,-1,573,904,-52.9452,1.22647
-644,120,-51.6526,-3.15863,0,0,0,0,0,0,0,-1,580,904,-51.6526,3.15864
-637,120,-48.0572,7.32642,0,0,0,0,0,0,0,-1,587,904,-48.0572,-7.32639
-630,120,-48.0684,6.745,-0.00993645,0.00329139,0.00466471,0.00477089,-0.0114159,1.26366,0.00960439,0.0381227,594,904,-48.0684,-6.74496
-623,120,-48.1594,6.12128,-0.00817804,0.00475989,0.0038921,0.00584049,-0.00925864,1.29998,0.00879163,0.0132604,601,904,-48.1594,-6.12129
-616,120,-48.2078,5.48523,-0.00622242,0.0051774,0.00301861,0.00592737,-0.00697239,1.32728,0.00745582,0.0113531,608,904,-48.2078,-5.48522
-609,120,-48.2317,4.78717,-0.00449015,0.00387424,0.00277404,0.00471061,-0.00532653,1.27796,0.00579858,0.0149671,615,904,-48.2317,-4.78719
-602,120,-48.2615,4.10614,-0.00347196,0.00237128,0.00238592,0.00322173,-0.00432241,1.22839,0.00437104,0.0182236,622,904,-48.2615,-4.10615
-595,120,-48.1867,3.47253,-0.00276628,0.0015534,0.00219271,0.00247136,-0.00368425,1.17432,0.00357686,0.036005,629,904,-48.1867,-3.47253
-588,120,-48.0379,2.55438,-0.00239038,0.000926998,0.00202485,0.0018858,-0.00334919,1.12856,0.00306153,0.0485191,636,904,-48.0379,-2.55439
-581,120,-47.5338,1.35785,0,0,0,0,0,0,0,-1,643,904,-47.5338,-1.35786
-574,120,-27.5438,0.505066,0,0,0,0,0,0,0,-1,650,904,-27.5438,-0.505085
-567,120,-25.2822,-0.410645,0,0,0,0,0,0,0,-1,657,904,-25.2821,0.410629
-560,120,-27.3358,1.10327,0,0,0,0,0,0,0,-1,664,904,-27.3358,-1.10324
-553,120,-54.8385,0.584656,0,0,0,0,0,0,0,-1,671,904,-54.8385,-0.584663
-546,120,-54.796,0.564697,-0.00211159,-0.00162887,0.00156179,-0.000289902,-0.00345056,0.862062,0.00221008,0.02984,678,904,-54.796,-0.564708
-539,120,-54.7693,0.583191,-0.0022095,-0.00150897,0.00149654,-0.00032226,-0.00339622,0.900354,0.00216473,0.0245701,685,904,-54.7693,-0.583177
-532,120,-54.7853,0.604126,-0.00211877,-0.000908826,0.00190395,0.000483953,-0.00351154,0.939226,0.0025179,0.0279415,692,904,-54.7853,-0.604106
-525,120,-54.9459,0.724121,-0.00302425,0.000643124,0.00202914,0.00154436,-0.00392549,1.15282,0.00325623,0.0350383,699,904,-54.9459,-0.724114
-518,120,-54.9965,0.927551,-0.00456663,0.00289186,0.0023619,0.0035769,-0.00525167,1.28851,0.00512765,0.0395581,706,904,-54.9965,-0.927569
-511,120,-55.0876,0.942749,-0.00614969,0.00548347,0.00265904,0.00606245,-0.00672866,1.3564,0.00738829,0.0415317,713,904,-55.0876,-0.942768
-504,120,0,0,0,0,0,0,0,0,0,-1,720,904,0,0
-497,120,0,0,0,0,0,0,0,0,0,-1,727,904,0,0
-490,120,0,0,0,0,0,0,0,0,0,-1,734,904,0,0
-483,120,0,0,0,0,0,0,0,0,0,-1,741,904,0,0
-476,120,0,0,0,0,0,0,0,0,0,-1,748,904,0,0
-469,120,0,0,0,0,0,0,0,0,0,-1,755,904,0,0
-462,120,0,0,0,0,0,0,0,0,0,-1,762,904,0,0
-455,120,0,0,0,0,0,0,0,0,0,-1,769,904,0,0
-448,120,0,0,0,0,0,0,0,0,0,-1,776,904,0,0
-441,120,0,0,0,0,0,0,0,0,0,-1,783,904,0,0
-434,120,0,0,0,0,0,0,0,0,0,-1,790,904,0,0
-427,120,0,0,0,0,0,0,0,0,0,-1,797,904,0,0
-420,120,0,0,0,0,0,0,0,0,0,-1,804,904,0,0
-413,120,0,0,0,0,0,0,0,0,0,-1,811,904,0,0
-406,120,0,0,0,0,0,0,0,0,0,-1,818,904,0,0
-399,120,0,0,0,0,0,0,0,0,0,-1,825,904,0,0
-392,120,0,0,0,0,0,0,0,0,0,-1,832,904,0,0
-385,120,0,0,0,0,0,0,0,0,0,-1,839,904,0,0
-378,120,0,0,0,0,0,0,0,0,0,-1,846,904,0,0
-371,120,0,0,0,0,0,0,0,0,0,-1,853,904,0,0
-364,120,0,0,0,0,0,0,0,0,0,-1,860,904,0,0
-357,120,0,0,0,0,0,0,0,0,0,-1,867,904,0,0
-350,120,0,0,0,0,0,0,0,0,0,-1,874,904,0,0
-343,120,0,0,0,0,0,0,0,0,0,-1,881,904,0,0
-336,120,0,0,0,0,0,0,0,0,0,-1,888,904,0,0
-329,120,0,0,0,0,0,0,0,0,0,-1,895,904,0,0
-322,120,0,0,0,0,0,0,0,0,0,-1,902,904,0,0
-315,120,0,0,0,0,0,0,0,0,0,-1,909,904,0,0
-308,120,0,0,0,0,0,0,0,0,0,-1,916,904,0,0
-301,120,0,0,0,0,0,0,0,0,0,-1,923,904,0,0
-294,120,0,0,0,0,0,0,0,0,0,-1,930,904,0,0
-287,120,0,0,0,0,0,0,0,0,0,-1,937,904,0,0
-280,120,0,0,0,0,0,0,0,0,0,-1,944,904,0,0
-273,120,0,0,0,0,0,0,0,0,0,-1,951,904,0,0
-266,120,0,0,0,0,0,0,0,0,0,-1,958,904,0,0
-259,120,0,0,0,0,0,0,0,0,0,-1,965,904,0,0
-252,120,0,0,0,0,0,0,0,0,0,-1,972,904,0,0
-245,120,0,0,0,0,0,0,0,0,0,-1,979,904,0,0
-238,120,0,0,0,0,0,0,0,0,0,-1,986,904,0,0
-231,120,0,0,0,0,0,0,0,0,0,-1,993,904,0,0
-224,120,0,0,0,0,0,0,0,0,0,-1,1000,904,0,0
-217,120,0,0,0,0,0,0,0,0,0,-1,1007,904,0,0
-210,120,0,0,0,0,0,0,0,0,0,-1,1014,904,0,0
-203,120,0,0,0,0,0,0,0,0,0,-1,1021,904,0,0
-196,120,0,0,0,0,0,0,0,0,0,-1,1028,904,0,0
-189,120,0,0,0,0,0,0,0,0,0,-1,1035,904,0,0
-182,120,0,0,0,0,0,0,0,0,0,-1,1042,904,0,0
-175,120,0,0,0,0,0,0,0,0,0,-1,1049,904,0,0
-168,120,0,0,0,0,0,0,0,0,0,-1,1056,904,0,0
-161,120,0,0,0,0,0,0,0,0,0,-1,1063,904,0,0
-154,120,0,0,0,0,0,0,0,0,0,-1,1070,904,0,0
-147,120,0,0,0,0,0,0,0,0,0,-1,1077,904,0,0
-140,120,0,0,0,0,0,0,0,0,0,-1,1084,904,0,0
-133,120,0,0,0,0,0,0,0,0,0,-1,1091,904,0,0
-126,120,0,0,0,0,0,0,0,0,0,-1,1098,904,0,0
-119,120,0,0,0,0,0,0,0,0,0,-1,1105,904,0,0
-112,120,0,0,0,0,0,0,0,0,0,-1,1112,904,0,0
-105,120,0,0,0,0,0,0,0,0,0,-1,1119,904,0,0
-98,120,0,0,0,0,0,0,0,0,0,-1,1126,904,0,0
-91,120,0,0,0,0,0,0,0,0,0,-1,1133,904,0,0
-84,120,0,0,0,0,0,0,0,0,0,-1,1140,904,0,0
-77,120,0,0,0,0,0,0,0,0,0,-1,1147,904,0,0
-70,120,0,0,0,0,0,0,0,0,0,-1,1154,904,0,0
-63,120,0,0,0,0,0,0,0,0,0,-1,1161,904,0,0
-56,120,0,0,0,0,0,0,0,0,0,-1,1168,904,0,0
-49,120,0,0,0,0,0,0,0,0,0,-1,1175,904,0,0
-42,120,0,0,0,0,0,0,0,0,0,-1,1182,904,0,0
-35,120,0,0,0,0,0,0,0,0,0,-1,1189,904,0,0
-28,120,0,0,0,0,0,0,0,0,0,-1,1196,904,0,0
-21,120,0,0,0,0,0,0,0,0,0,-1,1203,904,0,0
-14,120,0,0,0,0,0,0,0,0,0,-1,1210,904,0,0
-7,120,0,0,0,0,0,0,0,0,0,-1,1217,904,0,0
0,120,0,0,0,0,0,0,0,0,0,-1,1224,904,0,0
7,120,0,0,0,0,0,0,0,0,0,-1,1231,904,0,0
14,120,0,0,0,0,0,0,0,0,0,-1,1238,904,0,0
21,120,0,0,0,0,0,0,0,0,0,-1,1245,904,0,0
28,120,0,0,0,0,0,0,0,0,0,-1,1252,904,0,0
35,120,0,0,0,0,0,0,0,0,0,-1,1259,904,0,0
42,120,0,0,0,0,0,0,0,0,0,-1,1266,904,0,0
49,120,0,0,0,0,0,0,0,0,0,-1,1273,904,0,0
56,120,0,0,0,0,0,0,0,0,0,-1,1280,904,0,0
63,120,0,0,0,0,0,0,0,0,0,-1,1287,904,0,0
70,120,0,0,0,0,0,0,0,0,0,-1,1294,904,0,0
77,120,0,0,0,0,0,0,0,0,0,-1,1301,904,0,0
84,120,0,0,0,0,0,0,0,0,0,-1,1308,904,0,0
91,120,0,0,0,0,0,0,0,0,0,-1,1315,904,0,0
98,120,0,0,0,0,0,0,0,0,0,-1,1322,904,0,0
105,120,0,0,0,0,0,0,0,0,0,-1,1329,904,0,0
112,120,0,0,0,0,0,0,0,0,0,-1,1336,904,0,0
119,120,0,0,0,0,0,0,0,0,0,-1,1343,904,0,0
126,120,0,0,0,0,0,0,0,0,0,-1,1350,904,0,0
133,120,0,0,0,0,0,0,0,0,0,-1,1357,904,0,0
140,120,0,0,0,0,0,0,0,0,0,-1,1364,904,0,0
147,120,0,0,0,0,0,0,0,0,0,-1,1371,904,0,0
154,120,0,0,0,0,0,0,0,0,0,-1,1378,904,0,0
161,120,0,0,0,0,0,0,0,0,0,-1,1385,904,0,0
168,120,0,0,0,0,0,0,0,0,0,-1,1392,904,0,0
175,120,0,0,0,0,0,0,0,0,0,-1,1399,904,0,0
182,120,0,0,0,0,0,0,0,0,0,-1,1406,904,0,0
189,120,0,0,0,0,0,0,0,0,0,-1,1413,904,0,0
196,120,0,0,0,0,0,0,0,0,0,-1,1420,904,0,0
203,120,0,0,0,0,0,0,0,0,0,-1,1427,904,0,0
210,120,0,0,0,0,0,0,0,0,0,-1,1434,904,0,0
217,120,0,0,0,0,0,0,0,0,0,-1,1441,904,0,0
224,120,0,0,0,0,0,0,0,0,0,-1,1448,904,0,0
231,120,0,0,0,0,0,0,0,0,0,-1,1455,904,0,0
238,120,0,0,0,0,0,0,0,0,0,-1,1462,904,0,0
245,120,0,0,0,0,0,0,0,0,0,-1,1469,904,0,0
252,120,0,0,0,0,0,0,0,0,0,-1,1476,904,0,0
259,120,0,0,0,0,0,0,0,0,0,-1,1483,904,0,0
266,120,0,0,0,0,0,0,0,0,0,-1,1490,904,0,0
273,120,0,0,0,0,0,0,0,0,0,-1,1497,904,0,0
280,120,0,0,0,0,0,0,0,0,0,-1,1504,904,0,0
287,120,0,0,0,0,0,0,0,0,0,-1,1511,904,0,0
294,120,0,0,0,0,0,0,0,0,0,-1,1518,904,0,0
301,120,0,0,0,0,0,0,0,0,0,-1,1525,904,0,0
308,120,0,0,0,0,0,0,0,0,0,-1,1532,904,0,0
315,120,0,0,0,0,0,0,0,0,0,-1,1539,904,0,0
322,120,0,0,0,0,0,0,0,0,0,-1,1546,904,0,0
329,120,0,0,0,0,0,0,0,0,0,-1,1553,904,0,0
336,120,0,0,0,0,0,0,0,0,0,-1,1560,904,0,0
343,120,0,0,0,0,0,0,0,0,0,-1,1567,904,0,0
350,120,0,0,0,0,0,0,0,0,0,-1,1574,904,0,0
357,120,0,0,0,0,0,0,0,0,0,-1,1581,904,0,0
364,120,0,0,0,0,0,0,0,0,0,-1,1588,904,0,0
371,120,0,0,0,0,0,0,0,0,0,-1,1595,904,0,0
378,120,0,0,0,0,0,0,0,0,0,-1,1602,904,0,0
385,120,0,0,0,0,0,0,0,0,0,-1,1609,904,0,0
392,120,0,0,0,0,0,0,0,0,0,-1,1616,904,0,0
399,120,0,0,0,0,0,0,0,0,0,-1,1623,904,0,0
406,120,0,0,0,0,0,0,0,0,0,-1,1630,904,0,0
413,120,0,0,0,0,0,0,0,0,0,-1,1637,904,0,0
420,120,0,0,0,0,0,0,0,0,0,-1,1644,904,0,0
427,120,0,0,0,0,0,0,0,0,0,-1,1651,904,0,0
434,120,0,0,0,0,0,0,0,0,0,-1,1658,904,0,0
441,120,0,0,0,0,0,0,0,0,0,-1,1665,904,0,0
448,120,0,0,0,0,0,0,0,0,0,-1,1672,904,0,0
455,120,0,0,0,0,0,0,0,0,0,-1,1679,904,0,0
462,120,0,0,0,0,0,0,0,0,0,-1,1686,904,0,0
469,120,0,0,0,0,0,0,0,0,0,-1,1693,904,0,0
476,120,0,0,0,0,0,0,0,0,0,-1,1700,904,0,0
483,120,0,0,0,0,0,0,0,0,0,-1,1707,904,0,0
490,120,0,0,0,0,0,0,0,0,0,-1,1714,904,0,0
497,120,0,0,0,0,0,0,0,0,0,-1,1721,904,0,0
504,120,0,0,0,0,0,0,0,0,0,-1,1728,904,0,0
511,120,0,0,0,0,0,0,0,0,0,-1,1735,904,0,0
518,120,0,0,0,0,0,0,0,0,0,-1,1742,904,0,0
525,120,0,0,0,0,0,0,0,0,0,-1,1749,904,0,0
532,120,0,0,0,0,0,0,0,0,0,-1,1756,904,0,0
539,120,0,0,0,0,0,0,0,0,0,-1,1763,904,0,0
546,120,0,0,0,0,0,0,0,0,0,-1,1770,904,0,0
553,120,0,0,0,0,0,0,0,0,0,-1,1777,904,0,0
560,120,0,0,0,0,0,0,0,0,0,-1,1784,904,0,0
567,120,0,0,0,0,0,0,0,0,0,-1,1791,904,0,0
574,120,0,0,0,0,0,0,0,0,0,-1,1798,904,0,0
581,120,0,0,0,0,0,0,0,0,0,-1,1805,904,0,0
588,120,0,0,0,0,0,0,0,0,0,-1,1812,904,0,0
595,120,0,0,0,0,0,0,0,0,0,-1,1819,904,0,0
602,120,0,0,0,0,0,0,0,0,0,-1,1826,904,0,0
609,120,0,0,0,0,0,0,0,0,0,-1,1833,904,0,0
616,120,0,0,0,0,0,0,0,0,0,-1,1840,904,0,0
623,120,0,0,0,0,0,0,0,0,0,-1,1847,904,0,0
630,120,70.6445,2.138,0.00138943,-0.00689295,0.00542119,0.00407018,-0.0095737,0.459233,0.00808809,0.0391917,1854,904,70.6445,-2.13801
637,120,70.9028,2.11133,0.00139908,-0.005068,0.00351684,0.00294298,-0.0066119,0.413671,0.00565045,0.0431568,1861,904,70.9028,-2.11135
644,120,70.7609,2.34454,0.00122203,-0.00354028,0.00215,0.00204905,-0.0043673,0.367214,0.00378422,0.0402991,1868,904,70.7609,-2.34452
651,120,70.5668,2.45752,0.00103621,-0.00244427,0.00113459,0.0013734,-0.00278146,0.28888,0.0024443,0.0405034,1875,904,70.5667,-2.45752
658,120,70.53,2.57422,0.000784338,-0.00161575,0.000321201,0.000826581,-0.00165799,0.130764,0.001461,0.042721,1882,904,70.53,-2.57421
665,120,70.562,2.47888,0.000701197,-0.00102487,-0.000400208,0.000789475,-0.00111315,-0.217103,0.00110376,0.037756,1889,904,70.562,-2.47888
672,120,70.6022,2.30054,0.00058368,-0.00110286,-0.000823308,0.000918943,-0.00143813,-0.38671,0.00137182,0.0338703,1896,904,70.6022,-2.30054
679,120,70.6522,2.2243,0.000421659,-0.00128091,-0.00114009,0.000993217,-0.00185247,-0.46471,0.00166774,0.0316137,1903,904,70.6523,-2.22433
686,120,70.6251,2.27338,8.44048e-05,-0.00128835,-0.00150657,0.00105358,-0.00225752,-0.571651,0.00195334,0.0327821,1910,904,70.6251,-2.27336
693,120,70.7242,2.2146,0,0,0,0,0,0,0,-1,1917,904,70.7242,-2.21458
700,120,42.2007,3.00946,0,0,0,0,0,0,0,-1,1924,904,42.2007,-3.00944
707,120,62.2279,3.00775,0,0,0,0,0,0,0,-1,1931,904,62.228,-3.00776
714,120,63.6514,3.54456,0,0,0,0,0,0,0,-1,1938,904,63.6513,-3.54458
721,120,63.2672,4.58661,-0.00215708,0.000331692,-0.00268023,0.00204232,-0.00386771,-1.00273,0.00346598,0.0261401,1945,904,63.2672,-4.58662
728,120,63.1348,5.28412,-0.003026,0.00106435,-0.00270946,0.00241386,-0.00437551,-1.10869,0.00397401,0.0177114,1952,904,63.1347,-5.28412
735,120,63.0752,5.92725,-0.00380753,0.00214106,-0.00288953,0.00331355,-0.00498002,-1.18532,0.00482041,0.0146788,1959,904,63.0752,-5.92722
742,120,63.0111,6.64862,-0.00458231,0.00423544,-0.00302549,0.00517369,-0.00552056,-1.27008,0.00617541,0.0143918,1966,904,63.0111,-6.64863
749,120,62.9717,7.2998,-0.00545678,0.00711826,-0.00276641,0.00769994,-0.00603846,-1.36355,0.00795118,0.0112979,1973,904,62.9717,-7.29977
756,120,62.8726,7.96326,-0.00627119,0.0104253,-0.00226364,0.0107267,-0.00657264,-1.4384,0.0100833,0.0152164,1980,904,62.8726,-7.96327
763,120,62.7246,8.63611,-0.00709664,0.0138309,-0.00170291,0.0139686,-0.0072343,-1.49013,0.0124456,0.0333989,1987,904,62.7246,-8.63614
770,120,62.6101,9.3302,0,0,0,0,0,0,0,-1,1994,904,62.6102,-9.33022
777,120,59.313,9.57587,0,0,0,0,0,0,0,-1,2001,904,59.3129,-9.57587
784,120,60.7788,13.7254,0,0,0,0,0,0,0,-1,2008,904,60.7789,-13.7254
791,120,62.675,12.8759,0,0,0,0,0,0,0,-1,2015,904,62.6751,-12.8759
798,120,62.2224,11.3201,0,0,0,0,0,0,0,-1,2022,904,62.2225,-11.3201
805,120,0,0,0,0,0,0,0,0,0,-1,2029,904,0,0
812,120,0,0,0,0,0,0,0,0,0,-1,2036,904,0,0
-700,113,0,0,0,0,0,0,0,0,0,-1,524,911,0,0
-693,113,0,0,0,0,0,0,0,0,0,-1,531,911,0,0
-686,113,0,0,0,0,0,0,0,0,0,-1,538,911,0,0
-679,113,-52.3433,0.543823,0,0,0,0,0,0,0,-1,545,911,-52.3433,-0.543807
-672,113,-51.5534,-0.824829,0,0,0,0,0,0,0,-1,552,911,-51.5534,0.824825
-665,113,-50.8663,-2.03278,0,0,0,0,0,0,0,-1,559,911,-50.8663,2.03278
-658,113,-50.1924,-3.30115,0,0,0,0,0,0,0,-1,566,911,-50.1924,3.30116
-651,113,-52.0364,8.10352,0,0,0,0,0,0,0,-1,573,911,-52.0364,-8.10352
-644,113,-48.5211,7.83691,0,0,0,0,0,0,0,-1,580,911,-48.5211,-7.83694
-637,113,-48.7406,7.45142,0,0,0,0,0,0,0,-1,587,911,-48.7406,-7.45139
-630,113,-48.7987,6.76788,-0.0103623,0.00294316,0.00526023,0.00477151,-0.0121906,1.23628,0.0101005,0.0240124,594,911,-48.7987,-6.76791
-623,113,-48.9105,6.11688,-0.00832676,0.00445712,0.00443596,0.00584558,-0.00971522,1.26745,0.00907615,0.0134005,601,911,-48.9105,-6.11687
-616,113,-48.9467,5.45874,-0.00605957,0.00484213,0.0034846,0.00586076,-0.0070782,1.2864,0.00748133,0.0119799,608,911,-48.9467,-5.45876
-609,113,-48.9542,4.83063,-0.00413644,0.00351981,0.00314561,0.00464642,-0.00526305,1.22688,0.00572492,0.0118558,615,911,-48.9542,-4.83061
-602,113,-48.9866,4.11456,-0.00299097,0.00212388,0.00261185,0.00322188,-0.00408898,1.17283,0.00423081,0.0206786,622,911,-48.9866,-4.11454
-595,113,-49.037,3.58441,-0.00223419,0.00144864,0.00231437,0.00256478,-0.00335033,1.12144,0.00342511,0.0286768,629,911,-49.037,-3.58442
-588,113,-48.9486,2.84369,-0.00183689,0.0009418,0.00211926,0.00208653,-0.00298162,1.07554,0.00294127,0.0368672,636,911,-48.9486,-2.84371
-581,113,-48.9917,2.16797,-0.00171123,0.000464875,0.00180275,0.00148247,-0.00272882,1.05691,0.00246663,0.0383938,643,911,-48.9917,-2.16796
-574,113,-48.9772,1.25555,0,0,0,0,0,0,0,-1,650,911,-48.9772,-1.25555
-567,113,-21.8396,0.437378,0,0,0,0,0,0,0,-1,657,911,-21.8396,-0.437351
-560,113,-54.8961,0.444702,0,0,0,0,0,0,0,-1,664,911,-54.8961,-0.444714
-553,113,-54.8165,0.615356,-0.00164414,-0.000937887,0.0015287,0.000277944,-0.00285997,0.898906,0.00200572,0.044129,671,911,-54.8165,-0.615339
-546,113,-54.7574,0.688965,-0.00195566,-0.00090551,0.00141696,8.0535e-05,-0.0029417,0.962836,0.00198853,0.0317906,678,911,-54.7574,-0.688938
-539,113,-54.7391,0.710571,-0.0023151,-0.000466061,0.00140885,0.000294527,-0.00307569,1.07577,0.00215536,0.033704,685,911,-54.7391,-0.710547
-532,113,-54.7267,0.733459,-0.00276241,0.000588244,0.00182739,0.00139204,-0.00356621,1.1564,0.00295296,0.0374451,692,911,-54.7267,-0.733436
-525,113,-54.7966,0.688599,-0.00408457,0.00232867,0.00211988,0.00296604,-0.00472195,1.27873,0.00447709,0.0388067,699,911,-54.7966,-0.68858
-518,113,-54.9109,0.525085,-0.0057462,0.00455903,0.00255308,0.00515686,-0.00634403,1.34078,0.00665182,0.0404398,706,911,-54.9109,-0.525063
-511,113,-55.1166,0.64325,-0.00754662,0.00721932,0.00307416,0.00783377,-0.00816107,1.37352,0.00923527,0.0410826,713,911,-55.1166,-0.643262
-504,113,0,0,0,0,0,0,0,0,0,-1,720,911,0,0
-497,113,0,0,0,0,0,0,0,0,0,-1,727,911,0,0
-490,113,0,0,0,0,0,0,0,0,0,-1,734,911,0,0
-483,113,0,0,0,0,0,0,0,0,0,-1,741,911,0,0
-476,113,0,0,0,0,0,0,0,0,0,-1,748,911,0,0
-469,113,0,0,0,0,0,0,0,0,0,-1,755,911,0,0
-462,113,0,0,0,0,0,0,0,0,0,-1,762,911,0,0
-455,113,0,0,0,0,0,0,0,0,0,-1,769,911,0,0
-448,113,0,0,0,0,0,0,0,0,0,-1,776,911,0,0
-441,113,0,0,0,0,0,0,0,0,0,-1,783,911,0,0
-434,113,0,0,0,0,0,0,0,0,0,-1,790,911,0,0
-427,113,0,0,0,0,0,0,0,0,0,-1,797,911,0,0
-420,113,0,0,0,0,0,0,0,0,0,-1,804,911,0,0
-413,113,0,0,0,0,0,0,0,0,0,-1,811,911,0,0
-406,113,0,0,0,0,0,0,0,0,0,-1,818,911,0,0
-399,113,0,0,0,0,0,0,0,0,0,-1,825,911,0,0
-392,113,0,0,0,0,0,0,0,0,0,-1,832,911,0,0
-385,113,0,0,0,0,0,0,0,0,0,-1,839,911,0,0
-378,113,0,0,0,0,0,0,0,0,0,-1,846,911,0,0
-371,113,0,0,0,0,0,0,0,0,0,-1,853,911,0,0
-364,113,0,0,0,0,0,0,0,0,0,-1,860,911,0,0
-357,113,0,0,0,0,0,0,0,0,0,-1,867,911,0,0
-350,113,0,0,0,0,0,0,0,0,0,-1,874,911,0,0
-343,113,0,0,0,0,0,0,0,0,0,-1,881,911,0,0
-336,113,0,0,0,0,0,0,0,0,0,-1,888,911,0,0
-329,113,0,0,0,0,0,0,0,0,0,-1,895,911,0,0
-322,113,0,0,0,0,0,0,0,0,0,-1,902,911,0,0
-315,113,0,0,0,0,0,0,0,0,0,-1,909,911,0,0
-308,113,0,0,0,0,0,0,0,0,0,-1,916,911,0,0
-301,113,0,0,0,0,0,0,0,0,0,-1,923,911,0,0
-294,113,0,0,0,0,0,0,0,0,0,-1,930,911,0,0
-287,113,0,0,0,0,0,0,0,0,0,-1,937,911,0,0
-280,113,0,0,0,0,0,0,0,0,0,-1,944,911,0,0
-273,113,0,0,0,0,0,0,0,0,0,-1,951,911,0,0
-266,113,0,0,0,0,0,0,0,0,0,-1,958,911,0,0
-259,113,0,0,0,0,0,0,0,0,0,-1,965,911,0,0
-252,113,0,0,0,0,0,0,0,0,0,-1,972,911,0,0
-245,113,0,0,0,0,0,0,0,0,0,-1,979,911,0,0
-238,113,0,0,0,0,0,0,0,0,0,-1,986,911,0,0
-231,113,0,0,0,0,0,0,0,0,0,-1,993,911,0,0
-224,113,0,0,0,0,0,0,0,0,0,-1,1000,911,0,0
-217,113,0,0,0,0,0,0,0,0,0,-1,1007,911,0,0
-210,113,0,0,0,0,0,0,0,0,0,-1,1014,911,0,0
-203,113,0,0,0,0,0,0,0,0,0,-1,1021,911,0,0
-196,113,0,0,0,0,0,0,0,0,0,-1,1028,911,0,0
-189,113,0,0,0,0,0,0,0,0,0,-1,1035,911,0,0
-182,113,0,0,0,0,0,0,0,0,0,-1,1042,911,0,0
-175,113,0,0,0,0,0,0,0,0,0,-1,1049,911,0,0
-168,113,0,0,0,0,0,0,0,0,0,-1,1056,911,0,0
-161,113,0,0,0,0,0,0,0,0,0,-1,1063,911,0,0
-154,113,0,0,0,0,0,0,0,0,0,-1,1070,911,0,0
-147,113,0,0,0,0,0,0,0,0,0,-1,1077,911,0,0
-140,113,0,0,0,0,0,0,0,0,0,-1,1084,911,0,0
-133,113,0,0,0,0,0,0,0,0,0,-1,1091,911,0,0
-126,113,0,0,0,0,0,0,0,0,0,-1,1098,911,0,0
-119,113,0,0,0,0,0,0,0,0,0,-1,1105,911,0,0
-112,113,0,0,0,0,0,0,0,0,0,-1,1112,911,0,0
-105,113,0,0,0,0,0,0,0,0,0,-1,1119,911,0,0
-98,113,0,0,0,0,0,0,0,0,0,-1,1126,911,0,0
-91,113,0,0,0,0,0,0,0,0,0,-1,1133,911,0,0
-84,113,0,0,0,0,0,0,0,0,0,-1,1140,911,0,0
-77,113,0,0,0,0,0,0,0,0,0,-1,1147,911,0,0
-70,113,0,0,0,0,0,0,0,0,0,-1,1154,911,0,0
-63,113,0,0,0,0,0,0,0,0,0,-1,1161,911,0,0
-56,113,0,0,0,0,0,0,0,0,0,-1,1168,911,0,0
-49,113,0,0,0,0,0,0,0,0,0,-1,1175,911,0,0
-42,113,0,0,0,0,0,0,0,0,0,-1,1182,911,0,0
-35,113,0,0,0,0,0,0,0,0,0,-1,1189,911,0,0
-28,113,0,0,0,0,0,0,0,0,0,-1,1196,911,0,0
-21,113,0,0,0,0,0,0,0,0,0,-1,1203,911,0,0
-14,113,0,0,0,0,0,0,0,0,0,-1,1210,911,0,0
-7,113,0,0,0,0,0,0,0,0,0,-1,1217,911,0,0
0,113,0,0,0,0,0,0,0,0,0,-1,1224,911,0,0
7,113,0,0,0,0,0,0,0,0,0,-1,1231,911,0,0
14,113,0,0,0,0,0,0,0,0,0,-1,1238,911,0,0
21,113,0,0,0,0,0,0,0,0,0,-1,1245,911,0,0
28,113,0,0,0,0,0,0,0,0,0,-1,1252,911,0,0
35,113,0,0,0,0,0,0,0,0,0,-1,1259,911,0,0
42,113,0,0,0,0,0,0,0,0,0,-1,1266,911,0,0
49,113,0,0,0,0,0,0,0,0,0,-1,1273,911,0,0
56,113,0,0,0,0,0,0,0,0,0,-1,1280,911,0,0
63,113,0,0,0,0,0,0,0,0,0,-1,1287,911,0,0
70,113,0,0,0,0,0,0,0,0,0,-1,1294,911,0,0
77,113,0,0,0,0,0,0,0,0,0,-1,1301,911,0,0
84,113,0,0,0,0,0,0,0,0,0,-1,1308,911,0,0
91,113,0,0,0,0,0,0,0,0,0,-1,1315,911,0,0
98,113,0,0,0,0,0,0,0,0,0,-1,1322,911,0,0
105,113,0,0,0,0,0,0,0,0,0,-1,1329,911,0,0
112,113,0,0,0,0,0,0,0,0,0,-1,1336,911,0,0
119,113,0,0,0,0,0,0,0,0,0,-1,1343,911,0,0
126,113,0,0,0,0,0,0,0,0,0,-1,1350,911,0,0
133,113,0,0,0,0,0,0,0,0,0,-1,1357,911,0,0
140,113,0,0,0,0,0,0,0,0,0,-1,1364,911,0,0
147,113,0,0,0,0,0,0,0,0,0,-1,1371,911,0,0
154,113,0,0,0,0,0,0,0,0,0,-1,1378,911,0,0
161,113,0,0,0,0,0,0,0,0,0,-1,1385,911,0,0
168,113,0,0,0,0,0,0,0,0,0,-1,1392,911,0,0
175,113,0,0,0,0,0,0,0,0,0,-1,1399,911,0,0
182,113,0,0,0,0,0,0,0,0,0,-1,1406,911,0,0
189,113,0,0,0,0,0,0,0,0,0,-1,1413,911,0,0
196,113,0,0,0,0,0,0,0,0,0,-1,1420,911,0,0
203,113,0,0,0,0,0,0,0,0,0,-1,1427,911,0,0
210,113,0,0,0,0,0,0,0,0,0,-1,1434,911,0,0
217,113,0,0,0,0,0,0,0,0,0,-1,1441,911,0,0
224,113,0,0,0,0,0,0,0,0,0,-1,1448,911,0,0
231,113,0,0,0,0,0,0,0,0,0,-1,1455,911,0,0
238,113,0,0,0,0,0,0,0,0,0,-1,1462,911,0,0
245,113,0,0,0,0,0,0,0,0,0,-1,1469,911,0,0
252,113,0,0,0,0,0,0,0,0,0,-1,1476,911,0,0
259,113,0,0,0,0,0,0,0,0,0,-1,1483,911,0,0
266,113,0,0,0,0,0,0,0,0,0,-1,1490,911,0,0
273,113,0,0,0,0,0,0,0,0,0,-1,1497,911,0,0
280,113,0,0,0,0,0,0,0,0,0,-1,1504,911,0,0
287,113,0,0,0,0,0,0,0,0,0,-1,1511,911,0,0
294,113,0,0,0,0,0,0,0,0,0,-1,1518,911,0,0
301,113,0,0,0,0,0,0,0,0,0,-1,1525,911,0,0
308,113,0,0,0,0,0,0,0,0,0,-1,1532,911,0,0
315,113,0,0,0,0,0,0,0,0,0,-1,1539,911,0,0
322,113,0,0,0,0,0,0,0,0,0,-1,1546,911,0,0
329,113,0,0,0,0,0,0,0,0,0,-1,1553,911,0,0
336,113,0,0,0,0,0,0,0,0,0,-1,1560,911,0,0
343,113,0,0,0,0,0,0,0,0,0,-1,1567,911,0,0
350,113,0,0,0,0,0,0,0,0,0,-1,1574,911,0,0
357,113,0,0,0,0,0,0,0,0,0,-1,1581,911,0,0
364,113,0,0,0,0,0,0,0,0,0,-1,1588,911,0,0
371,113,0,0,0,0,0,0,0,0,0,-1,1595,911,0,0
378,113,0,0,0,0,0,0,0,0,0,-1,1602,911,0,0
385,113,0,0,0,0,0,0,0,0,0,-1,1609,911,0,0
392,113,0,0,0,0,0,0,0,0,0,-1,1616,911,0,0
399,113,0,0,0,0,0,0,0,0,0,-1,1623,911,0,0
406,113,0,0,0,0,0,0,0,0,0,-1,1630,911,0,0
413,113,0,0,0,0,0,0,0,0,0,-1,1637,911,0,0
420,113,0,0,0,0,0,0,0,0,0,-1,1644,911,0,0
427,113,0,0,0,0,0,0,0,0,0,-1,1651,911,0,0
434,113,0,0,0,0,0,0,0,0,0,-1,1658,911,0,0
441,113,0,0,0,0,0,0,0,0,0,-1,1665,911,0,0
448,113,0,0,0,0,0,0,0,0,0,-1,1672,911,0,0
455,113,0,0,0,0,0,0,0,0,0,-1,1679,911,0,0
462,113,0,0,0,0,0,0,0,0,0,-1,1686,911,0,0
469,113,0,0,0,0,0,0,0,0,0,-1,1693,911,0,0
476,113,0,0,0,0,0,0,0,0,0,-1,1700,911,0,0
483,113,0,0,0,0,0,0,0,0,0,-1,1707,911,0,0
490,113,0,0,0,0,0,0,0,0,0,-1,1714,911,0,0
497,113,0,0,0,0,0,0,0,0,0,-1,1721,911,0,0
504,113,0,0,0,0,0,0,0,0,0,-1,1728,911,0,0
511,113,0,0,0,0,0,0,0,0,0,-1,1735,911,0,0
518,113,0,0,0,0,0,0,0,0,0,-1,1742,911,0,0
525,113,0,0,0,0,0,0,0,0,0,-1,1749,911,0,0
532,113,0,0,0,0,0,0,0,0,0,-1,1756,911,0,0
539,113,0,0,0,0,0,0,0,0,0,-1,1763,911,0,0
546,113,0,0,0,0,0,0,0,0,0,-1,1770,911,0,0
553,113,0,0,0,0,0,0,0,0,0,-1,1777,911,0,0
560,113,0,0,0,0,0,0,0,0,0,-1,1784,911,0,0
567,113,0,0,0,0,0,0,0,0,0,-1,1791,911,0,0
574,113,0,0,0,0,0,0,0,0,0,-1,1798,911,0,0
581,113,0,0,0,0,0,0,0,0,0,-1,1805,911,0,0
588,113,0,0,0,0,0,0,0,0,0,-1,1812,911,0,0
595,113,0,0,0,0,0,0,0,0,0,-1,1819,911,0,0
602,113,0,0,0,0,0,0,0,0,0,-1,1826,911,0,0
609,113,0,0,0,0,0,0,0,0,0,-1,1833,911,0,0
616,113,0,0,0,0,0,0,0,0,0,-1,1840,911,0,0
623,113,0,0,0,0,0,0,0,0,0,-1,1847,911,0,0
630,113,70.6216,2.41034,0.00291987,-0.00742778,0.0049753,0.00492394,-0.00943184,0.38292,0.00842342,0.0367446,1854,911,70.6216,-2.41031
637,113,70.8242,2.42517,0.00263876,-0.0055873,0.00315917,0.003712,-0.00666053,0.327489,0.0060687,0.0396558,1861,911,70.8242,-2.4252
644,113,70.8813,2.17133,0,0,0,0,0,0,0,-1,1868,911,70.8814,-2.17134
651,113,70.595,2.44995,0.00177322,-0.00297367,0.000981655,0.00196822,-0.00316867,0.196087,0.00299266,0.0429246,1875,911,70.595,-2.44998
658,113,70.6724,2.59772,0.00133715,-0.00209025,0.00029689,0.00136268,-0.00211578,0.0857712,0.00202392,0.0446076,1882,911,70.6724,-2.59774
665,113,70.7137,2.61755,0.00110291,-0.00141294,-0.000280348,0.00113378,-0.0014438,-0.109641,0.00149175,0.0384791,1889,911,70.7137,-2.61754
672,113,70.6107,2.43854,0.000721629,-0.00141738,-0.000608935,0.000882832,-0.00157858,-0.258794,0.0014399,0.0348036,1896,911,70.6107,-2.43856
679,113,70.6149,2.26093,0.000373681,-0.0015999,-0.000855805,0.00069309,-0.00191931,-0.357215,0.00156267,0.0317641,1903,911,70.6149,-2.26094
686,113,70.6204,2.34766,-4.38395e-05,-0.00161475,-0.00120309,0.000607497,-0.00226609,-0.496205,0.00174876,0.0308572,1910,911,70.6204,-2.34768
693,113,70.7241,2.18219,0,0,0,0,0,0,0,-1,1917,911,70.7241,-2.18216
700,113,43.897,2.79669,0,0,0,0,0,0,0,-1,1924,911,43.897,-2.79671
707,113,62.9154,3.08472,0,0,0,0,0,0,0,-1,1931,911,62.9154,-3.08471
714,113,62.9569,3.77478,0,0,0,0,0,0,0,-1,1938,911,62.9569,-3.77476
721,113,63.8699,4.57678,0,0,0,0,0,0,0,-1,1945,911,63.8698,-4.57678
728,113,63.941,5.26514,-0.0035007,0.000924034,-0.00256925,0.00210218,-0.00467885,-1.14085,0.00400814,0.0267628,1952,911,63.941,-5.26511
735,113,63.8348,5.97046,-0.00429388,0.00203708,-0.00284995,0.00313099,-0.0053878,-1.2043,0.00497552,0.0232692,1959,911,63.8349,-5.97047
742,113,63.7395,6.61047,-0.00501565,0.0041979,-0.00322709,0.00521576,-0.00603351,-1.26526,0.00650049,0.0133455,1966,911,63.7395,-6.61045
749,113,63.7367,7.2926,-0.00581543,0.00731578,-0.0033206,0.00810772,-0.00660737,-1.33668,0.00851047,0.0104621,1973,911,63.7367,-7.29259
756,113,63.635,8.00861,-0.00654912,0.0109782,-0.00315781,0.0115297,-0.00710069,-1.39787,0.0108571,0.0162185,1980,911,63.635,-8.00863
763,113,63.4363,8.88782,-0.00733384,0.0147063,-0.00294389,0.0150927,-0.00772028,-1.44027,0.0133984,0.0377163,1987,911,63.4363,-8.88779
770,113,63.3105,9.79657,0,0,0,0,0,0,0,-1,1994,911,63.3105,-9.79658
777,113,58.1719,9.65338,0,0,0,0,0,0,0,-1,2001,911,58.172,-9.6534
784,113,59.4839,11.6239,0,0,0,0,0,0,0,-1,2008,911,59.4839,-11.6239
791,113,63.7207,8.32813,0,0,0,0,0,0,0,-1,2015,911,63.7207,-8.32813
798,113,63.0522,12.1951,0,0,0,0,0,0,0,-1,2022,911,63.0522,-12.1951
805,113,0,0,0,0,0,0,0,0,0,-1,2029,911,0,0
812,113,0,0,0,0,0,0,0,0,0,-1,2036,911,0,0
-700,106,0,0,0,0,0,0,0,0,0,-1,524,918,0,0
-693,106,0,0,0,0,0,0,0,0,0,-1,531,918,0,0
-686,106,0,0,0,0,0,0,0,0,0,-1,538,918,0,0
-679,106,-48.8762,5.79541,0,0,0,0,0,0,0,-1,545,918,-48.8761,-5.79541
-672,106,-52.9974,-0.699463,0,0,0,0,0,0,0,-1,552,918,-52.9974,0.699464
-665,106,-52.3677,-2.05621,0,0,0,0,0,0,0,-1,559,918,-52.3677,2.05621
-658,106,-51.7827,-3.39862,0,0,0,0,0,0,0,-1,566,918,-51.7827,3.39861
-651,106,-51.623,7.9671,0,0,0,0,0,0,0,-1,573,918,-51.6231,-7.96712
-644,106,-48.1461,7.96442,0,0,0,0,0,0,0,-1,580,918,-48.1461,-7.9644
-637,106,-49.0416,7.50769,0,0,0,0,0,0,0,-1,587,918,-49.0416,-7.50772
-630,106,-49.4388,6.84973,-0.0100595,0.00312285,0.00546951,0.00509667,-0.0120333,1.22446,0.0101567,0.0182513,594,918,-49.4388,-6.84974
-623,106,-49.672,6.06805,-0.00785643,0.00450298,0.00468925,0.00608071,-0.00943416,1.24624,0.00902699,0.0188204,601,918,-49.672,-6.06806
-616,106,-49.725,5.39825,-0.00546108,0.00474322,0.00374169,0.00596817,-0.00668603,1.25441,0.00730982,0.018534,608,918,-49.725,-5.39827
-609,106,-49.6926,4.81366,-0.00353851,0.00341146,0.00334717,0.00476131,-0.00488837,1.18746,0.00557141,0.0131662,615,918,-49.6926,-4.81365
-602,106,-49.7307,4.14105,-0.00237118,0.0021355,0.00274293,0.00343198,-0.00366766,1.12926,0.00409973,0.0224694,622,918,-49.7307,-4.14106
-595,106,-49.8906,3.51587,-0.001578,0.00153035,0.00241027,0.00284408,-0.00289173,1.07176,0.00331161,0.0271873,629,918,-49.8906,-3.51585
-588,106,-49.9926,2.87286,0,0,0,0,0,0,0,-1,636,918,-49.9926,-2.87288
-581,106,-49.7323,2.09656,0,0,0,0,0,0,0,-1,643,918,-49.7323,-2.09655
-574,106,-49.9651,1.38684,0,0,0,0,0,0,0,-1,650,918,-49.9652,-1.38685
-567,106,-41.3706,0.420776,0,0,0,0,0,0,0,-1,657,918,-41.3706,-0.420794
-560,106,-54.77,0.552063,0,0,0,0,0,0,0,-1,664,918,-54.77,-0.552063
-553,106,-54.7905,0.656982,-0.00130987,-0.000172091,0.00130559,0.000683173,-0.00216513,0.99086,0.00171706,0.0333899,671,918,-54.7905,-0.656986
-546,106,-54.711,0.698364,-0.00181682,0.000154826,0.00121579,0.000734246,-0.00239624,1.12606,0.00189039,0.0361003,678,918,-54.711,-0.698376
-539,106,-54.6011,0.810852,-0.00249168,0.000927439,0.00121561,0.00131557,-0.00287981,1.26174,0.00247769,0.0396989,685,918,-54.6011,-0.810865
-532,106,-54.4762,0.937744,-0.00345848,0.00228919,0.00154876,0.00267995,-0.00384924,1.32365,0.00378972,0.0403735,692,918,-54.4762,-0.937735
-525,106,-54.4271,0.866577,-0.00511148,0.00409472,0.00182182,0.00444213,-0.00545889,1.38236,0.00572639,0.03877,699,918,-54.4271,-0.866574
-518,106,-54.829,0.740295,-0.00703415,0.00637276,0.00226077,0.00674373,-0.00740512,1.40816,0.00817182,0.0418605,706,918,-54.829,-0.74031
-511,106,0,0,0,0,0,0,0,0,0,-1,713,918,0,0
-504,106,0,0,0,0,0,0,0,0,0,-1,720,918,0,0
-497,106,0,0,0,0,0,0,0,0,0,-1,727,918,0,0
-490,106,0,0,0,0,0,0,0,0,0,-1,734,918,0,0
-483,106,0,0,0,0,0,0,0,0,0,-1,741,918,0,0
-476,106,0,0,0,0,0,0,0,0,0,-1,748,918,0,0
-469,106,0,0,0,0,0,0,0,0,0,-1,755,918,0,0
-462,106,0,0,0,0,0,0,0,0,0,-1,762,918,0,0
-455,106,0,0,0,0,0,0,0,0,0,-1,769,918,0,0
-448,106,0,0,0,0,0,0,0,0,0,-1,776,918,0,0
-441,106,0,0,0,0,0,0,0,0,0,-1,783,918,0,0
-434,106,0,0,0,0,0,0,0,0,0,-1,790,918,0,0
-427,106,0,0,0,0,0,0,0,0,0,-1,797,918,0,0
-420,106,0,0,0,0,0,0,0,0,0,-1,804,918,0,0
-413,106,0,0,0,0,0,0,0,0,0,-1,811,918,0,0
-406,106,0,0,0,0,0,0,0,0,0,-1,818,918,0,0
-399,106,0,0,0,0,0,0,0,0,0,-1,825,918,0,0
-392,106,0,0,0,0,0,0,0,0,0,-1,832,918,0,0
-385,106,0,0,0,0,0,0,0,0,0,-1,839,918,0,0
-378,106,0,0,0,0,0,0,0,0,0,-1,846,918,0,0
-371,106,0,0,0,0,0,0,0,0,0,-1,853,918,0,0
-364,106,0,0,0,0,0,0,0,0,0,-1,860,918,0,0
-357,106,0,0,0,0,0,0,0,0,0,-1,867,918,0,0
-350,106,0,0,0,0,0,0,0,0,0,-1,874,918,0,0
-343,106,0,0,0,0,0,0,0,0,0,-1,881,918,0,0
-336,106,0,0,0,0,0,0,0,0,0,-1,888,918,0,0
-329,106,0,0,0,0,0,0,0,0,0,-1,895,918,0,0
-322,106,0,0,0,0,0,0,0,0,0,-1,902,918,0,0
-315,106,0,0,0,0,0,0,0,0,0,-1,909,918,0,0
-308,106,0,0,0,0,0,0,0,0,0,-1,916,918,0,0
-301,106,0,0,0,0,0,0,0,0,0,-1,923,918,0,0
-294,106,0,0,0,0,0,0,0,0,0,-1,930,918,0,0
-287,106,0,0,0,0,0,0,0,0,0,-1,937,918,0,0
-280,106,0,0,0,0,0,0,0,0,0,-1,944,918,0,0
-273,106,0,0,0,0,0,0,0,0,0,-1,951,918,0,0
-266,106,0,0,0,0,0,0,0,0,0,-1,958,918,0,0
-259,106,0,0,0,0,0,0,0,0,0,-1,965,918,0,0
-252,106,0,0,0,0,0,0,0,0,0,-1,972,918,0,0
-245,106,0,0,0,0,0,0,0,0,0,-1,979,918,0,0
-238,106,0,0,0,0,0,0,0,0,0,-1,986,918,0,0
-231,106,0,0,0,0,0,0,0,0,0,-1,993,918,0,0
-224,106,0,0,0,0,0,0,0,0,0,-1,1000,918,0,0
-217,106,0,0,0,0,0,0,0,0,0,-1,1007,918,0,0
-210,106,0,0,0,0,0,0,0,0,0,-1,1014,918,0,0
-203,106,0,0,0,0,0,0,0,0,0,-1,1021,918,0,0
-196,106,0,0,0,0,0,0,0,0,0,-1,1028,918,0,0
-189,106,0,0,0,0,0,0,0,0,0,-1,1035,918,0,0
-182,106,0,0,0,0,0,0,0,0,0,-1,1042,918,0,0
-175,106,0,0,0,0,0,0,0,0,0,-1,1049,918,0,0
-168,106,0,0,0,0,0,0,0,0,0,-1,1056,918,0,0
-161,106,0,0,0,0,0,0,0,0,0,-1,1063,918,0,0
-154,106,0,0,0,0,0,0,0,0,0,-1,1070,918,0,0
-147,106,0,0,0,0,0,0,0,0,0,-1,1077,918,0,0
-140,106,0,0,0,0,0,0,0,0,0,-1,1084,918,0,0
-133,106,0,0,0,0,0,0,0,0,0,-1,1091,918,0,0
-126,106,0,0,0,0,0,0,0,0,0,-1,1098,918,0,0
-119,106,0,0,0,0,0,0,0,0,0,-1,1105,918,0,0
-112,106,0,0,0,0,0,0,0,0,0,-1,1112,918,0,0
-105,106,0,0,0,0,0,0,0,0,0,-1,1119,918,0,0
-98,106,0,0,0,0,0,0,0,0,0,-1,1126,918,0,0
-91,106,0,0,0,0,0,0,0,0,0,-1,1133,918,0,0
-84,106,0,0,0,0,0,0,0,0,0,-1,1140,918,0,0
-77,106,0,0,0,0,0,0,0,0,0,-1,1147,918,0,0
-70,106,0,0,0,0,0,0,0,0,0,-1,1154,918,0,0
-63,106,0,0,0,0,0,0,0,0,0,-1,1161,918,0,0
-56,106,0,0,0,0,0,0,0,0,0,-1,1168,918,0,0
-49,106,0,0,0,0,0,0,0,0,0,-1,1175,918,0,0
-42,106,0,0,0,0,0,0,0,0,0,-1,1182,918,0,0
-35,106,0,0,0,0,0,0,0,0,0,-1,1189,918,0,0
-28,106,0,0,0,0,0,0,0,0,0,-1,1196,918,0,0
-21,106,0,0,0,0,0,0,0,0,0,-1,1203,918,0,0
-14,106,0,0,0,0,0,0,0,0,0,-1,1210,918,0,0
-7,106,0,0,0,0,0,0,0,0,0,-1,1217,918,0,0
0,106,0,0,0,0,0,0,0,0,0,-1,1224,918,0,0
7,106,0,0,0,0,0,0,0,0,0,-1,1231,918,0,0
14,106,0,0,0,0,0,0,0,0,0,-1,1238,918,0,0
21,106,0,0,0,0,0,0,0,0,0,-1,1245,918,0,0
28,106,0,0,0,0,0,0,0,0,0,-1,1252,918,0,0
35,106,0,0,0,0,0,0,0,0,0,-1,1259,918,0,0
42,106,0,0,0,0,0,0,0,0,0,-1,1266,918,0,0
49,106,0,0,0,0,0,0,0,0,0,-1,1273,918,0,0
56,106,0,0,0,0,0,0,0,0,0,-1,1280,918,0,0
63,106,0,0,0,0,0,0,0,0,0,-1,1287,918,0,0
70,106,0,0,0,0,0,0,0,0,0,-1,1294,918,0,0
77,106,0,0,0,0,0,0,0,0,0,-1,1301,918,0,0
84,106,0,0,0,0,0,0,0,0,0,-1,1308,918,0,0
91,106,0,0,0,0,0,0,0,0,0,-1,1315,918,0,0
98,106,0,0,0,0,0,0,0,0,0,-1,1322,918,0,0
105,106,0,0,0,0,0,0,0,0,0,-1,1329,918,0,0
112,106,0,0,0,0,0,0,0,0,0,-1,1336,918,0,0
119,106,0,0,0,0,0,0,0,0,0,-1,1343,918,0,0
126,106,0,0,0,0,0,0,0,0,0,-1,1350,918,0,0
133,106,0,0,0,0,0,0,0,0,0,-1,1357,918,0,0
140,106,0,0,0,0,0,0,0,0,0,-1,1364,918,0,0
147,106,0,0,0,0,0,0,0,0,0,-1,1371,918,0,0
154,106,0,0,0,0,0,0,0,0,0,-1,1378,918,0,0
161,106,0,0,0,0,0,0,0,0,0,-1,1385,918,0,0
168,106,0,0,0,0,0,0,0,0,0,-1,1392,918,0,0
175,106,0,0,0,0,0,0,0,0,0,-1,1399,918,0,0
182,106,0,0,0,0,0,0,0,0,0,-1,1406,918,0,0
189,106,0,0,0,0,0,0,0,0,0,-1,1413,918,0,0
196,106,0,0,0,0,0,0,0,0,0,-1,1420,918,0,0
203,106,0,0,0,0,0,0,0,0,0,-1,1427,918,0,0
210,106,0,0,0,0,0,0,0,0,0,-1,1434,918,0,0
217,106,0,0,0,0,0,0,0,0,0,-1,1441,918,0,0
224,106,0,0,0,0,0,0,0,0,0,-1,1448,918,0,0
231,106,0,0,0,0,0,0,0,0,0,-1,1455,918,0,0
238,106,0,0,0,0,0,0,0,0,0,-1,1462,918,0,0
245,106,0,0,0,0,0,0,0,0,0,-1,1469,918,0,0
252,106,0,0,0,0,0,0,0,0,0,-1,1476,918,0,0
259,106,0,0,0,0,0,0,0,0,0,-1,1483,918,0,0
266,106,0,0,0,0,0,0,0,0,0,-1,1490,918,0,0
273,106,0,0,0,0,0,0,0,0,0,-1,1497,918,0,0
280,106,0,0,0,0,0,0,0,0,0,-1,1504,918,0,0
287,106,0,0,0,0,0,0,0,0,0,-1,1511,918,0,0
294,106,0,0,0,0,0,0,0,0,0,-1,1518,918,0,0
301,106,0,0,0,0,0,0,0,0,0,-1,1525,918,0,0
308,106,0,0,0,0,0,0,0,0,0,-1,1532,918,0,0
315,106,0,0,0,0,0,0,0,0,0,-1,1539,918,0,0
322,106,0,0,0,0,0,0,0,0,0,-1,1546,918,0,0
329,106,0,0,0,0,0,0,0,0,0,-1,1553,918,0,0
336,106,0,0,0,0,0,0,0,0,0,-1,1560,918,0,0
343,106,0,0,0,0,0,0,0,0,0,-1,1567,918,0,0
350,106,0,0,0,0,0,0,0,0,0,-1,1574,918,0,0
357,106,0,0,0,0,0,0,0,0,0,-1,1581,918,0,0
364,106,0,0,0,0,0,0,0,0,0,-1,1588,918,0,0
371,106,0,0,0,0,0,0,0,0,0,-1,1595,918,0,0
378,106,0,0,0,0,0,0,0,0,0,-1,1602,918,0,0
385,106,0,0,0,0,0,0,0,0,0,-1,1609,918,0,0
392,106,0,0,0,0,0,0,0,0,0,-1,1616,918,0,0
399,106,0,0,0,0,0,0,0,0,0,-1,1623,918,0,0
406,106,0,0,0,0,0,0,0,0,0,-1,1630,918,0,0
413,106,0,0,0,0,0,0,0,0,0,-1,1637,918,0,0
420,106,0,0,0,0,0,0,0,0,0,-1,1644,918,0,0
427,106,0,0,0,0,0,0,0,0,0,-1,1651,918,0,0
434,106,0,0,0,0,0,0,0,0,0,-1,1658,918,0,0
441,106,0,0,0,0,0,0,0,0,0,-1,1665,918,0,0
448,106,0,0,0,0,0,0,0,0,0,-1,1672,918,0,0
455,106,0,0,0,0,0,0,0,0,0,-1,1679,918,0,0
462,106,0,0,0,0,0,0,0,0,0,-1,1686,918,0,0
469,106,0,0,0,0,0,0,0,0,0,-1,1693,918,0,0
476,106,0,0,0,0,0,0,0,0,0,-1,1700,918,0,0
483,106,0,0,0,0,0,0,0,0,0,-1,1707,918,0,0
490,106,0,0,0,0,0,0,0,0,0,-1,1714,918,0,0
497,106,0,0,0,0,0,0,0,0,0,-1,1721,918,0,0
504,106,0,0,0,0,0,0,0,0,0,-1,1728,918,0,0
511,106,0,0,0,0,0,0,0,0,0,-1,1735,918,0,0
518,106,0,0,0,0,0,0,0,0,0,-1,1742,918,0,0
525,106,0,0,0,0,0,0,0,0,0,-1,1749,918,0,0
532,106,0,0,0,0,0,0,0,0,0,-1,1756,918,0,0
539,106,0,0,0,0,0,0,0,0,0,-1,1763,918,0,0
546,106,0,0,0,0,0,0,0,0,0,-1,1770,918,0,0
553,106,0,0,0,0,0,0,0,0,0,-1,1777,918,0,0
560,106,0,0,0,0,0,0,0,0,0,-1,1784,918,0,0
567,106,0,0,0,0,0,0,0,0,0,-1,1791,918,0,0
574,106,0,0,0,0,0,0,0,0,0,-1,1798,918,0,0
581,106,0,0,0,0,0,0,0,0,0,-1,1805,918,0,0
588,106,0,0,0,0,0,0,0,0,0,-1,1812,918,0,0
595,106,0,0,0,0,0,0,0,0,0,-1,1819,918,0,0
602,106,0,0,0,0,0,0,0,0,0,-1,1826,918,0,0
609,106,0,0,0,0,0,0,0,0,0,-1,1833,918,0,0
616,106,0,0,0,0,0,0,0,0,0,-1,1840,918,0,0
623,106,0,0,0,0,0,0,0,0,0,-1,1847,918,0,0
630,106,70.6812,2.52753,0.00377167,-0.00714923,0.00405525,0.00511281,-0.00849037,0.319393,0.00793408,0.0391542,1854,918,70.6812,-2.52755
637,106,70.7721,2.72418,0.00333289,-0.00539364,0.0024346,0.00396616,-0.00602691,0.254473,0.00581025,0.0394877,1861,918,70.7721,-2.72419
644,106,70.5742,2.7207,0.00275957,-0.00399659,0.00131873,0.00300785,-0.00424487,0.186093,0.00420761,0.0389472,1868,918,70.5742,-2.72071
651,106,70.5458,2.44464,0.00219822,-0.00298799,0.000606414,0.00226819,-0.00305796,0.114864,0.0030863,0.0419178,1875,918,70.5458,-2.44462
658,106,70.7703,2.31647,0.00168685,-0.00217261,0.000112256,0.00169011,-0.00217587,0.0290533,0.00223789,0.0427047,1882,918,70.7703,-2.31646
665,106,70.7025,2.40308,0.00138023,-0.00152464,-0.000264556,0.00140413,-0.00154853,-0.0900856,0.0017054,0.0401991,1889,918,70.7026,-2.40309
672,106,70.571,2.33752,0.000835219,-0.00151083,-0.000450642,0.000918803,-0.00159441,-0.183394,0.00146838,0.0403278,1896,918,70.571,-2.33754
679,106,70.5525,2.34735,0.000334323,-0.00172237,-0.000586286,0.000489711,-0.00187776,-0.259082,0.00144304,0.0362811,1903,918,70.5525,-2.34736
686,106,70.5934,2.3476,-0.000135314,-0.00175735,-0.000901392,0.00026621,-0.00215887,-0.419063,0.0015357,0.0353618,1910,918,70.5934,-2.34759
693,106,70.6433,2.21198,-0.000575053,-0.00151329,-0.00133516,0.000371,-0.00245935,-0.616455,0.00177619,0.0422443,1917,918,70.6433,-2.21197
700,106,70.8552,2.10718,0,0,0,0,0,0,0,-1,1924,918,70.8552,-2.10717
707,106,59.4137,3.22595,0,0,0,0,0,0,0,-1,1931,918,59.4136,-3.22598
714,106,64.3755,3.76825,0,0,0,0,0,0,0,-1,1938,918,64.3754,-3.76822
721,106,64.6733,4.61432,-0.00287597,0.000215977,-0.00229929,0.0014407,-0.00410069,-1.08137,0.00331992,0.0335379,1945,918,64.6733,-4.61432
728,106,64.7299,5.34998,-0.0038239,0.000986097,-0.00243991,0.00200706,-0.00484486,-1.17449,0.00406748,0.0319457,1952,918,64.7298,-5.34997
735,106,64.6346,6.00281,-0.00459675,0.00213311,-0.00282892,0.00316426,-0.00562791,-1.22126,0.00514216,0.0276642,1959,918,64.6347,-6.00282
742,106,64.516,6.61145,-0.00525572,0.00430123,-0.00341351,0.00539522,-0.00634971,-1.26065,0.0067884,0.0140737,1966,918,64.516,-6.61146
749,106,64.4602,7.28552,-0.00596491,0.00753392,-0.00385473,0.00855712,-0.00698811,-1.31134,0.00899027,0.0116418,1973,918,64.4602,-7.28555
756,106,64.3741,7.94421,-0.00654647,0.0114513,-0.00406401,0.0123264,-0.0074216,-1.3587,0.0115181,0.0148587,1980,918,64.3742,-7.94424
763,106,64.2783,8.77496,-0.00713092,0.0154108,-0.00425621,0.0161876,-0.00790778,-1.39026,0.0141826,0.0307068,1987,918,64.2784,-8.77497
770,106,64.2603,9.65143,0,0,0,0,0,0,0,-1,1994,918,64.2604,-9.65143
777,106,65.7214,10.252,0,0,0,0,0,0,0,-1,2001,918,65.7214,-10.252
784,106,66.5906,10.7704,0,0,0,0,0,0,0,-1,2008,918,66.5905,-10.7705
791,106,63.3948,10.3615,0,0,0,0,0,0,0,-1,2015,918,63.3947,-10.3615
798,106,63.9021,11.3224,0,0,0,0,0,0,0,-1,2022,918,63.9021,-11.3225
805,106,0,0,0,0,0,0,0,0,0,-1,2029,918,0,0
812,106,0,0,0,0,0,0,0,0,0,-1,2036,918,0,0
-700,99,0,0,0,0,0,0,0,0,0,-1,524,925,0,0
-693,99,0,0,0,0,0,0,0,0,0,-1,531,925,0,0
-686,99,0,0,0,0,0,0,0,0,0,-1,538,925,0,0
-679,99,-48.9871,6.49524,0,0,0,0,0,0,0,-1,545,925,-48.9871,-6.49523
-672,99,-49.1498,7.59161,0,0,0,0,0,0,0,-1,552,925,-49.1498,-7.59158
-665,99,-49.4687,7.81793,0,0,0,0,0,0,0,-1,559,925,-49.4687,-7.81796
-658,99,-49.4258,7.24249,0,0,0,0,0,0,0,-1,566,925,-49.4258,-7.24249
-651,99,-50.2766,8.37952,0,0,0,0,0,0,0,-1,573,925,-50.2766,-8.37952
-644,99,-49.6163,8.10687,0,0,0,0,0,0,0,-1,580,925,-49.6163,-8.10685
-637,99,-49.8524,7.43182,-0.0110316,-0.000784993,0.0061772,0.00211705,-0.0139336,1.1316,0.0100692,0.0345782,587,925,-49.8524,-7.43184
-630,99,-50.1498,6.78979,-0.00960699,0.00354424,0.00537608,0.00546221,-0.011525,1.22811,0.0100136,0.0188081,594,925,-50.1498,-6.7898
-623,99,-50.4125,6.07825,-0.00728248,0.00466388,0.0047329,0.00631167,-0.00893027,1.23576,0.00884312,0.0134803,601,925,-50.4125,-6.07822
-616,99,-50.4376,5.42639,-0.00483415,0.00467414,0.00387251,0.00605173,-0.00621174,1.22902,0.00708052,0.015409,608,925,-50.4376,-5.42638
-609,99,-50.4184,4.85388,-0.00295228,0.00331847,0.00347627,0.00486445,-0.00449825,1.15234,0.00540693,0.0130995,615,925,-50.4184,-4.85388
-602,99,-50.4221,4.25745,-0.00177297,0.00214466,0.00285413,0.00364749,-0.0032758,1.08614,0.00399908,0.0185542,622,925,-50.4221,-4.25746
-595,99,-50.5603,3.63885,-0.000936,0.00159973,0.00251321,0.00314677,-0.00248304,1.01901,0.00325789,0.0252134,629,925,-50.5603,-3.63888
-588,99,-50.5572,2.98145,0,0,0,0,0,0,0,-1,636,925,-50.5572,-2.98147
-581,99,-50.6584,2.14905,0,0,0,0,0,0,0,-1,643,925,-50.6584,-2.14903
-574,99,-51.0658,1.36853,0,0,0,0,0,0,0,-1,650,925,-51.0658,-1.36852
-567,99,-50.5977,0.659485,0,0,0,0,0,0,0,-1,657,925,-50.5977,-0.659461
-560,99,-54.6841,0.704163,0,0,0,0,0,0,0,-1,664,925,-54.6841,-0.704139
-553,99,-54.8334,0.598877,-0.00105299,0.00060444,0.000988678,0.00106578,-0.00151433,1.1342,0.00149712,0.0369979,671,925,-54.8334,-0.598858
-546,99,-54.7867,0.549622,-0.00173853,0.00124896,0.000859428,0.00147855,-0.00196812,1.30975,0.00199661,0.0411912,678,925,-54.7867,-0.549634
-539,99,-54.644,0.818604,-0.00268488,0.00235774,0.000788494,0.00247815,-0.0028053,1.41925,0.00305235,0.0408438,685,925,-54.644,-0.818588
-532,99,-54.6091,1.01495,-0.00401344,0.00394356,0.000901268,0.00404437,-0.00411425,1.45941,0.00471044,0.0442992,692,925,-54.6091,-1.01495
-525,99,-54.6112,0.961243,-0.00581439,0.00589354,0.000954858,0.0059709,-0.00589176,1.48995,0.00684896,0.0438303,699,925,-54.6112,-0.961239
-518,99,-54.8236,0.851746,-0.00787355,0.00827024,0.00116477,0.00835385,-0.00795715,1.49914,0.00941809,0.0427546,706,925,-54.8236,-0.851722
-511,99,0,0,0,0,0,0,0,0,0,-1,713,925,0,0
-504,99,0,0,0,0,0,0,0,0,0,-1,720,925,0,0
-497,99,0,0,0,0,0,0,0,0,0,-1,727,925,0,0
-490,99,0,0,0,0,0,0,0,0,0,-1,734,925,0,0
-483,99,0,0,0,0,0,0,0,0,0,-1,741,925,0,0
-476,99,0,0,0,0,0,0,0,0,0,-1,748,925,0,0
-469,99,0,0,0,0,0,0,0,0,0,-1,755,925,0,0
-462,99,0,0,0,0,0,0,0,0,0,-1,762,925,0,0
-455,99,0,0,0,0,0,0,0,0,0,-1,769,925,0,0
-448,99,0,0,0,0,0,0,0,0,0,-1,776,925,0,0
-441,99,0,0,0,0,0,0,0,0,0,-1,783,925,0,0
-434,99,0,0,0,0,0,0,0,0,0,-1,790,925,0,0
-427,99,0,0,0,0,0,0,0,0,0,-1,797,925,0,0
-420,99,0,0,0,0,0,0,0,0,0,-1,804,925,0,0
-413,99,0,0,0,0,0,0,0,0,0,-1,811,925,0,0
-406,99,0,0,0,0,0,0,0,0,0,-1,818,925,0,0
-399,99,0,0,0,0,0,0,0,0,0,-1,825,925,0,0
-392,99,0,0,0,0,0,0,0,0,0,-1,832,925,0,0
-385,99,0,0,0,0,0,0,0,0,0,-1,839,925,0,0
-378,99,0,0,0,0,0,0,0,0,0,-1,846,925,0,0
-371,99,0,0,0,0,0,0,0,0,0,-1,853,925,0,0
-364,99,0,0,0,0,0,0,0,0,0,-1,860,925,0,0
-357,99,0,0,0,0,0,0,0,0,0,-1,867,925,0,0
-350,99,0,0,0,0,0,0,0,0,0,-1,874,925,0,0
-343,99,0,0,0,0,0,0,0,0,0,-1,881,925,0,0
-336,99,0,0,0,0,0,0,0,0,0,-1,888,925,0,0
-329,99,0,0,0,0,0,0,0,0,0,-1,895,925,0,0
-322,99,0,0,0,0,0,0,0,0,0,-1,902,925,0,0
-315,99,0,0,0,0,0,0,0,0,0,-1,909,925,0,0
-308,99,0,0,0,0,0,0,0,0,0,-1,916,925,0,0
-301,99,0,0,0,0,0,0,0,0,0,-1,923,925,0,0
-294,99,0,0,0,0,0,0,0,0,0,-1,930,925,0,0
-287,99,0,0,0,0,0,0,0,0,0,-1,937,925,0,0
-280,99,0,0,0,0,0,0,0,0,0,-1,944,925,0,0
-273,99,0,0,0,0,0,0,0,0,0,-1,951,925,0,0
-266,99,0,0,0,0,0,0,0,0,0,-1,958,925,0,0
-259,99,0,0,0,0,0,0,0,0,0,-1,965,925,0,0
-252,99,0,0,0,0,0,0,0,0,0,-1,972,925,0,0
-245,99,0,0,0,0,0,0,0,0,0,-1,979,925,0,0
-238,99,0,0,0,0,0,0,0,0,0,-1,986,925,0,0
-231,99,0,0,0,0,0,0,0,0,0,-1,993,925,0,0
-224,99,0,0,0,0,0,0,0,0,0,-1,1000,925,0,0
-217,99,0,0,0,0,0,0,0,0,0,-1,1007,925,0,0
-210,99,0,0,0,0,0,0,0,0,0,-1,1014,925,0,0
-203,99,0,0,0,0,0,0,0,0,0,-1,1021,925,0,0
-196,99,0,0,0,0,0,0,0,0,0,-1,1028,925,0,0
-189,99,0,0,0,0,0,0,0,0,0,-1,1035,925,0,0
-182,99,0,0,0,0,0,0,0,0,0,-1,1042,925,0,0
-175,99,0,0,0,0,0,0,0,0,0,-1,1049,925,0,0
-168,99,0,0,0,0,0,0,0,0,0,-1,1056,925,0,0
-161,99,0,0,0,0,0,0,0,0,0,-1,1063,925,0,0
-154,99,0,0,0,0,0,0,0,0,0,-1,1070,925,0,0
-147,99,0,0,0,0,0,0,0,0,0,-1,1077,925,0,0
-140,99,0,0,0,0,0,0,0,0,0,-1,1084,925,0,0
-133,99,0,0,0,0,0,0,0,0,0,-1,1091,925,0,0
-126,99,0,0,0,0,0,0,0,0,0,-1,1098,925,0,0
-119,99,0,0,0,0,0,0,0,0,0,-1,1105,925,0,0
-112,99,0,0,0,0,0,0,0,0,0,-1,1112,925,0,0
-105,99,0,0,0,0,0,0,0,0,0,-1,1119,925,0,0
-98,99,0,0,0,0,0,0,0,0,0,-1,1126,925,0,0
-91,99,0,0,0,0,0,0,0,0,0,-1,1133,925,0,0
-84,99,0,0,0,0,0,0,0,0,0,-1,1140,925,0,0
-77,99,0,0,0,0,0,0,0,0,0,-1,1147,925,0,0
-70,99,0,0,0,0,0,0,0,0,0,-1,1154,925,0,0
-63,99,0,0,0,0,0,0,0,0,0,-1,1161,925,0,0
-56,99,0,0,0,0,0,0,0,0,0,-1,1168,925,0,0
-49,99,0,0,0,0,0,0,0,0,0,-1,1175,925,0,0
-42,99,0,0,0,0,0,0,0,0,0,-1,1182,925,0,0
-35,99,0,0,0,0,0,0,0,0,0,-1,1189,925,0,0
-28,99,0,0,0,0,0,0,0,0,0,-1,1196,925,0,0
-21,99,0,0,0,0,0,0,0,0,0,-1,1203,925,0,0
-14,99,0,0,0,0,0,0,0,0,0,-1,1210,925,0,0
-7,99,0,0,0,0,0,0,0,0,0,-1,1217,925,0,0
0,99,0,0,0,0,0,0,0,0,0,-1,1224,925,0,0
7,99,0,0,0,0,0,0,0,0,0,-1,1231,925,0,0
14,99,0,0,0,0,0,0,0,0,0,-1,1238,925,0,0
21,99,0,0,0,0,0,0,0,0,0,-1,1245,925,0,0
28,99,0,0,0,0,0,0,0,0,0,-1,1252,925,0,0
35,99,0,0,0,0,0,0,0,0,0,-1,1259,925,0,0
42,99,0,0,0,0,0,0,0,0,0,-1,1266,925,0,0
49,99,0,0,0,0,0,0,0,0,0,-1,1273,925,0,0
56,99,0,0,0,0,0,0,0,0,0,-1,1280,925,0,0
63,99,0,0,0,0,0,0,0,0,0,-1,1287,925,0,0
70,99,0,0,0,0,0,0,0,0,0,-1,1294,925,0,0
77,99,0,0,0,0,0,0,0,0,0,-1,1301,925,0,0
84,99,0,0,0,0,0,0,0,0,0,-1,1308,925,0,0
91,99,0,0,0,0,0,0,0,0,0,-1,1315,925,0,0
98,99,0,0,0,0,0,0,0,0,0,-1,1322,925,0,0
105,99,0,0,0,0,0,0,0,0,0,-1,1329,925,0,0
112,99,0,0,0,0,0,0,0,0,0,-1,1336,925,0,0
119,99,0,0,0,0,0,0,0,0,0,-1,1343,925,0,0
126,99,0,0,0,0,0,0,0,0,0,-1,1350,925,0,0
133,99,0,0,0,0,0,0,0,0,0,-1,1357,925,0,0
140,99,0,0,0,0,0,0,0,0,0,-1,1364,925,0,0
147,99,0,0,0,0,0,0,0,0,0,-1,1371,925,0,0
154,99,0,0,0,0,0,0,0,0,0,-1,1378,925,0,0
161,99,0,0,0,0,0,0,0,0,0,-1,1385,925,0,0
168,99,0,0,0,0,0,0,0,0,0,-1,1392,925,0,0
175,99,0,0,0,0,0,0,0,0,0,-1,1399,925,0,0
182,99,0,0,0,0,0,0,0,0,0,-1,1406,925,0,0
189,99,0,0,0,0,0,0,0,0,0,-1,1413,925,0,0
196,99,0,0,0,0,0,0,0,0,0,-1,1420,925,0,0
203,99,0,0,0,0,0,0,0,0,0,-1,1427,925,0,0
210,99,0,0,0,0,0,0,0,0,0,-1,1434,925,0,0
217,99,0,0,0,0,0,0,0,0,0,-1,1441,925,0,0
224,99,0,0,0,0,0,0,0,0,0,-1,1448,925,0,0
231,99,0,0,0,0,0,0,0,0,0,-1,1455,925,0,0
238,99,0,0,0,0,0,0,0,0,0,-1,1462,925,0,0
245,99,0,0,0,0,0,0,0,0,0,-1,1469,925,0,0
252,99,0,0,0,0,0,0,0,0,0,-1,1476,925,0,0
259,99,0,0,0,0,0,0,0,0,0,-1,1483,925,0,0
266,99,0,0,0,0,0,0,0,0,0,-1,1490,925,0,0
273,99,0,0,0,0,0,0,0,0,0,-1,1497,925,0,0
280,99,0,0,0,0,0,0,0,0,0,-1,1504,925,0,0
287,99,0,0,0,0,0,0,0,0,0,-1,1511,925,0,0
294,99,0,0,0,0,0,0,0,0,0,-1,1518,925,0,0
301,99,0,0,0,0,0,0,0,0,0,-1,1525,925,0,0
308,99,0,0,0,0,0,0,0,0,0,-1,1532,925,0,0
315,99,0,0,0,0,0,0,0,0,0,-1,1539,925,0,0
322,99,0,0,0,0,0,0,0,0,0,-1,1546,925,0,0
329,99,0,0,0,0,0,0,0,0,0,-1,1553,925,0,0
336,99,0,0,0,0,0,0,0,0,0,-1,1560,925,0,0
343,99,0,0,0,0,0,0,0,0,0,-1,1567,925,0,0
350,99,0,0,0,0,0,0,0,0,0,-1,1574,925,0,0
357,99,0,0,0,0,0,0,0,0,0,-1,1581,925,0,0
364,99,0,0,0,0,0,0,0,0,0,-1,1588,925,0,0
371,99,0,0,0,0,0,0,0,0,0,-1,1595,925,0,0
378,99,0,0,0,0,0,0,0,0,0,-1,1602,925,0,0
385,99,0,0,0,0,0,0,0,0,0,-1,1609,925,0,0
392,99,0,0,0,0,0,0,0,0,0,-1,1616,925,0,0
399,99,0,0,0,0,0,0,0,0,0,-1,1623,925,0,0
406,99,0,0,0,0,0,0,0,0,0,-1,1630,925,0,0
413,99,0,0,0,0,0,0,0,0,0,-1,1637,925,0,0
420,99,0,0,0,0,0,0,0,0,0,-1,1644,925,0,0
427,99,0,0,0,0,0,0,0,0,0,-1,1651,925,0,0
434,99,0,0,0,0,0,0,0,0,0,-1,1658,925,0,0
441,99,0,0,0,0,0,0,0,0,0,-1,1665,925,0,0
448,99,0,0,0,0,0,0,0,0,0,-1,1672,925,0,0
455,99,0,0,0,0,0,0,0,0,0,-1,1679,925,0,0
462,99,0,0,0,0,0,0,0,0,0,-1,1686,925,0,0
469,99,0,0,0,0,0,0,0,0,0,-1,1693,925,0,0
476,99,0,0,0,0,0,0,0,0,0,-1,1700,925,0,0
483,99,0,0,0,0,0,0,0,0,0,-1,1707,925,0,0
490,99,0,0,0,0,0,0,0,0,0,-1,1714,925,0,0
497,99,0,0,0,0,0,0,0,0,0,-1,1721,925,0,0
504,99,0,0,0,0,0,0,0,0,0,-1,1728,925,0,0
511,99,0,0,0,0,0,0,0,0,0,-1,1735,925,0,0
518,99,0,0,0,0,0,0,0,0,0,-1,1742,925,0,0
525,99,0,0,0,0,0,0,0,0,0,-1,1749,925,0,0
532,99,0,0,0,0,0,0,0,0,0,-1,1756,925,0,0
539,99,0,0,0,0,0,0,0,0,0,-1,1763,925,0,0
546,99,0,0,0,0,0,0,0,0,0,-1,1770,925,0,0
553,99,0,0,0,0,0,0,0,0,0,-1,1777,925,0,0
560,99,0,0,0,0,0,0,0,0,0,-1,1784,925,0,0
567,99,0,0,0,0,0,0,0,0,0,-1,1791,925,0,0
574,99,0,0,0,0,0,0,0,0,0,-1,1798,925,0,0
581,99,0,0,0,0,0,0,0,0,0,-1,1805,925,0,0
588,99,0,0,0,0,0,0,0,0,0,-1,1812,925,0,0
595,99,0,0,0,0,0,0,0,0,0,-1,1819,925,0,0
602,99,0,0,0,0,0,0,0,0,0,-1,1826,925,0,0
609,99,0,0,0,0,0,0,0,0,0,-1,1833,925,0,0
616,99,0,0,0,0,0,0,0,0,0,-1,1840,925,0,0
623,99,0,0,0,0,0,0,0,0,0,-1,1847,925,0,0
630,99,0,0,0,0,0,0,0,0,0,-1,1854,925,0,0
637,99,70.7336,2.86285,0.00404003,-0.00518548,0.00233679,0.00459816,-0.00574361,0.234454,0.00598302,0.0427778,1861,925,70.7337,-2.86284
644,99,70.5251,2.89771,0.00321685,-0.00375402,0.00120505,0.00341929,-0.00395646,0.166438,0.00426215,0.0390533,1868,925,70.5252,-2.8977
651,99,70.4856,2.45306,0.00249225,-0.00276439,0.000526579,0.00254448,-0.00281662,0.0988652,0.00309656,0.0396269,1875,925,70.4856,-2.45303
658,99,70.6124,2.34741,0.00190607,-0.00198163,8.44199e-05,0.00190791,-0.00198346,0.021701,0.00224682,0.0401364,1882,925,70.6124,-2.34742
665,99,70.6835,2.25952,0.00150603,-0.00136889,-0.000214713,0.00152197,-0.00138484,-0.0741366,0.00167887,0.0400001,1889,925,70.6834,-2.25952
672,99,70.6771,2.15411,0.000783386,-0.00134111,-0.000304517,0.000826173,-0.00138389,-0.139593,0.00128946,0.0408445,1896,925,70.6771,-2.15412
679,99,70.585,2.20361,0.000122259,-0.00158695,-0.00034668,0.0001899,-0.00165459,-0.192688,0.0011715,0.0377045,1903,925,70.585,-2.20362
686,99,70.6019,2.23553,-0.000414318,-0.00168555,-0.000610817,-0.000168399,-0.00193147,-0.382752,0.00123535,0.0317113,1910,925,70.6019,-2.23551
693,99,70.5844,2.36005,-0.000905799,-0.00151511,-0.00102024,-0.000145704,-0.00227521,-0.640306,0.00147065,0.0391372,1917,925,70.5844,-2.36003
700,99,70.6147,2.43005,0,0,0,0,0,0,0,-1,1924,925,70.6148,-2.43007
707,99,47.9915,3.27429,0,0,0,0,0,0,0,-1,1931,925,47.9914,-3.27427
714,99,65.2236,3.73096,0,0,0,0,0,0,0,-1,1938,925,65.2236,-3.73099
721,99,65.4198,4.58783,-0.00346364,0.000325962,-0.00208842,0.00125105,-0.00438873,-1.15381,0.00341998,0.0369379,1945,925,65.4198,-4.58785
728,99,65.3885,5.28015,-0.00440353,0.00116806,-0.00232321,0.00200966,-0.00524513,-1.22325,0.00432517,0.0292518,1952,925,65.3886,-5.28014
735,99,65.3375,5.97479,-0.00511931,0.00233988,-0.00282959,0.00329179,-0.00607122,-1.24628,0.00548455,0.0236151,1959,925,65.3375,-5.97482
742,99,65.2366,6.63074,-0.00567107,0.00433921,-0.00356424,0.0054786,-0.00681046,-1.26139,0.00710896,0.0160394,1966,925,65.2366,-6.63076
749,99,65.1447,7.26831,-0.00625991,0.00731703,-0.00428498,0.00855629,-0.00749916,-1.28927,0.00927631,0.0144022,1973,925,65.1446,-7.26833
756,99,65.0725,7.86914,-0.0066668,0.0109005,-0.00481339,0.0121329,-0.00789919,-1.32015,0.0116513,0.0146858,1980,925,65.0725,-7.86913
763,99,65.0913,8.50134,-0.00696623,0.0144276,-0.00530008,0.0156686,-0.00820728,-1.34078,0.0140073,0.018005,1987,925,65.0914,-8.50134
770,99,65.4402,9.12292,-0.00710171,0.0176446,-0.00588582,0.0189732,-0.0084303,-1.34879,0.016207,0.0331776,1994,925,65.4403,-9.12292
777,99,66.1667,9.72583,0,0,0,0,0,0,0,-1,2001,925,66.1667,-9.72584
784,99,67.1089,10.189,0,0,0,0,0,0,0,-1,2008,925,67.1089,-10.189
791,99,67.7236,10.8571,0,0,0,0,0,0,0,-1,2015,925,67.7235,-10.8571
798,99,63.3972,10.1684,0,0,0,0,0,0,0,-1,2022,925,63.3973,-10.1684
805,99,0,0,0,0,0,0,0,0,0,-1,2029,925,0,0
812,99,0,0,0,0,0,0,0,0,0,-1,2036,925,0,0
-700,92,0,0,0,0,0,0,0,0,0,-1,524,932,0,0
-693,92,0,0,0,0,0,0,0,0,0,-1,531,932,0,0
-686,92,-50.5533,7.91882,0,0,0,0,0,0,0,-1,538,932,-50.5533,-7.91883
-679,92,-49.9495,7.53174,0,0,0,0,0,0,0,-1,545,932,-49.9495,-7.53173
-672,92,-50.1584,7.98511,-0.00529587,-0.0626045,0.0159919,-0.00113541,-0.066765,0.254519,0.0441364,0.0455787,552,932,-50.1584,-7.98508
-665,92,-50.2244,8.22253,-0.00881512,-0.0433652,0.0123359,-0.00486279,-0.0473175,0.31006,0.0300555,0.0483871,559,932,-50.2244,-8.22252
-658,92,-50.2122,7.65607,-0.0109711,-0.0273837,0.00966536,-0.00649819,-0.0318566,0.43343,0.0194372,0.0476586,566,932,-50.2122,-7.65605
-651,92,-51.0956,7.94562,0,0,0,0,0,0,0,-1,573,932,-51.0957,-7.94564
-644,92,-50.9928,7.71503,-0.0117641,-0.00544928,0.00650041,-0.00138004,-0.0158334,1.01148,0.010127,0.0467552,580,932,-50.9928,-7.715
-637,92,-50.8376,7.30908,-0.0107707,0.000506451,0.00568285,0.00287339,-0.0131377,1.17614,0.00985685,0.0294328,587,932,-50.8376,-7.3091
-630,92,-50.8969,6.66302,-0.00921566,0.00424578,0.00514038,0.00598418,-0.0109541,1.24468,0.00991863,0.0151813,594,932,-50.8969,-6.66305
-623,92,-51.0447,6.07397,-0.00681724,0.00491747,0.00469166,0.00656261,-0.00846237,1.23354,0.00869776,0.0105381,601,932,-51.0447,-6.07398
-616,92,-51.0778,5.4834,-0.00440596,0.00457643,0.00396735,0.00607779,-0.00590732,1.20902,0.00691984,0.00990799,608,932,-51.0777,-5.4834
-609,92,-51.1184,4.9024,-0.00263911,0.00313425,0.00361947,0.0048772,-0.00438206,1.12202,0.00534838,0.0101615,615,932,-51.1184,-4.90239
-602,92,-51.1027,4.26971,-0.0015122,0.00202449,0.00301794,0.00375401,-0.00324171,1.05041,0.00404259,0.0123722,622,932,-51.1027,-4.26971
-595,92,-51.0115,3.5509,-0.000666118,0.00151458,0.00266887,0.00330723,-0.00245877,0.979323,0.003341,0.0255478,629,932,-51.0115,-3.55087
-588,92,-50.9083,3.11481,0,0,0,0,0,0,0,-1,636,932,-50.9083,-3.11479
-581,92,-51.6813,2.34949,0,0,0,0,0,0,0,-1,643,932,-51.6813,-2.34949
-574,92,-52.4543,1.58417,0,0,0,0,0,0,0,-1,650,932,-52.4543,-1.58419
-567,92,-54.6144,0.706421,0,0,0,0,0,0,0,-1,657,932,-54.6144,-0.70644
-560,92,-54.6485,0.575989,-0.000522143,0.000838116,0.000909238,0.00129346,-0.000977482,1.10651,0.00131535,0.040631,664,932,-54.6485,-0.575968
-553,92,-54.923,0.496399,-0.00108741,0.00141112,0.000667859,0.00157843,-0.00125473,1.32532,0.00163928,0.0372465,671,932,-54.923,-0.496372
-546,92,-54.9075,0.485596,-0.00188068,0.00241051,0.000455707,0.00245837,-0.00192854,1.46616,0.00253893,0.0400975,678,932,-54.9075,-0.485578
-539,92,-54.7663,0.695007,-0.00298686,0.00384045,0.000255152,0.00384997,-0.00299638,1.53349,0.00396297,0.039311,685,932,-54.7663,-0.694983
-532,92,-54.8475,0.747681,-0.00452344,0.00551378,0.000125519,0.00551535,-0.00452501,1.55829,0.0058062,0.0455469,692,932,-54.8475,-0.747706
-525,92,-54.8672,0.646667,-0.00651765,0.00746809,-5.96572e-05,0.00746835,-0.00651791,-1.56653,0.00808118,0.0444111,699,932,-54.8672,-0.646672
-518,92,-54.742,0.812073,-0.00881789,0.00977921,-0.000129794,0.00978012,-0.00881879,-1.56382,0.0107429,0.04324,706,932,-54.742,-0.812078
-511,92,0,0,0,0,0,0,0,0,0,-1,713,932,0,0
-504,92,0,0,0,0,0,0,0,0,0,-1,720,932,0,0
-497,92,0,0,0,0,0,0,0,0,0,-1,727,932,0,0
-490,92,0,0,0,0,0,0,0,0,0,-1,734,932,0,0
-483,92,0,0,0,0,0,0,0,0,0,-1,741,932,0,0
-476,92,0,0,0,0,0,0,0,0,0,-1,748,932,0,0
-469,92,0,0,0,0,0,0,0,0,0,-1,755,932,0,0
-462,92,0,0,0,0,0,0,0,0,0,-1,762,932,0,0
-455,92,0,0,0,0,0,0,0,0,0,-1,769,932,0,0
-448,92,0,0,0,0,0,0,0,0,0,-1,776,932,0,0
-441,92,0,0,0,0,0,0,0,0,0,-1,783,932,0,0
-434,92,0,0,0,0,0,0,0,0,0,-1,790,932,0,0
-427,92,0,0,0,0,0,0,0,0,0,-1,797,932,0,0
-420,92,0,0,0,0,0,0,0,0,0,-1,804,932,0,0
-413,92,0,0,0,0,0,0,0,0,0,-1,811,932,0,0
-406,92,0,0,0,0,0,0,0,0,0,-1,818,932,0,0
-399,92,0,0,0,0,0,0,0,0,0,-1,825,932,0,0
-392,92,0,0,0,0,0,0,0,0,0,-1,832,932,0,0
-385,92,0,0,0,0,0,0,0,0,0,-1,839,932,0,0
-378,92,0,0,0,0,0,0,0,0,0,-1,846,932,0,0
-371,92,0,0,0,0,0,0,0,0,0,-1,853,932,0,0
-364,92,0,0,0,0,0,0,0,0,0,-1,860,932,0,0
-357,92,0,0,0,0,0,0,0,0,0,-1,867,932,0,0
-350,92,0,0,0,0,0,0,0,0,0,-1,874,932,0,0
-343,92,0,0,0,0,0,0,0,0,0,-1,881,932,0,0
-336,92,0,0,0,0,0,0,0,0,0,-1,888,932,0,0
-329,92,0,0,0,0,0,0,0,0,0,-1,895,932,0,0
-322,92,0,0,0,0,0,0,0,0,0,-1,902,932,0,0
-315,92,0,0,0,0,0,0,0,0,0,-1,909,932,0,0
-308,92,0,0,0,0,0,0,0,0,0,-1,916,932,0,0
-301,92,0,0,0,0,0,0,0,0,0,-1,923,932,0,0
-294,92,0,0,0,0,0,0,0,0,0,-1,930,932,0,0
-287,92,0,0,0,0,0,0,0,0,0,-1,937,932,0,0
-280,92,0,0,0,0,0,0,0,0,0,-1,944,932,0,0
-273,92,0,0,0,0,0,0,0,0,0,-1,951,932,0,0
-266,92,0,0,0,0,0,0,0,0,0,-1,958,932,0,0
-259,92,0,0,0,0,0,0,0,0,0,-1,965,932,0,0
-252,92,0,0,0,0,0,0,0,0,0,-1,972,932,0,0
-245,92,0,0,0,0,0,0,0,0,0,-1,979,932,0,0
-238,92,0,0,0,0,0,0,0,0,0,-1,986,932,0,0
-231,92,0,0,0,0,0,0,0,0,0,-1,993,932,0,0
-224,92,0,0,0,0,0,0,0,0,0,-1,1000,932,0,0
-217,92,0,0,0,0,0,0,0,0,0,-1,1007,932,0,0
-210,92,0,0,0,0,0,0,0,0,0,-1,1014,932,0,0
-203,92,0,0,0,0,0,0,0,0,0,-1,1021,932,0,0
-196,92,0,0,0,0,0,0,0,0,0,-1,1028,932,0,0
-189,92,0,0,0,0,0,0,0,0,0,-1,1035,932,0,0
-182,92,0,0,0,0,0,0,0,0,0,-1,1042,932,0,0
-175,92,0,0,0,0,0,0,0,0,0,-1,1049,932,0,0
-168,92,0,0,0,0,0,0,0,0,0,-1,1056,932,0,0
-161,92,0,0,0,0,0,0,0,0,0,-1,1063,932,0,0
-154,92,0,0,0,0,0,0,0,0,0,-1,1070,932,0,0
-147,92,0,0,0,0,0,0,0,0,0,-1,1077,932,0,0
-140,92,0,0,0,0,0,0,0,0,0,-1,1084,932,0,0
-133,92,0,0,0,0,0,0,0,0,0,-1,1091,932,0,0
-126,92,0,0,0,0,0,0,0,0,0,-1,1098,932,0,0
-119,92,0,0,0,0,0,0,0,0,0,-1,1105,932,0,0
-112,92,0,0,0,0,0,0,0,0,0,-1,1112,932,0,0
-105,92,0,0,0,0,0,0,0,0,0,-1,1119,932,0,0
-98,92,0,0,0,0,0,0,0,0,0,-1,1126,932,0,0
-91,92,0,0,0,0,0,0,0,0,0,-1,1133,932,0,0
-84,92,0,0,0,0,0,0,0,0,0,-1,1140,932,0,0
-77,92,0,0,0,0,0,0,0,0,0,-1,1147,932,0,0
-70,92,0,0,0,0,0,0,0,0,0,-1,1154,932,0,0
-63,92,0,0,0,0,0,0,0,0,0,-1,1161,932,0,0
-56,92,0,0,0,0,0,0,0,0,0,-1,1168,932,0,0
-49,92,0,0,0,0,0,0,0,0,0,-1,1175,932,0,0
-42,92,0,0,0,0,0,0,0,0,0,-1,1182,932,0,0
-35,92,0,0,0,0,0,0,0,0,0,-1,1189,932,0,0
-28,92,0,0,0,0,0,0,0,0,0,-1,1196,932,0,0
-21,92,0,0,0,0,0,0,0,0,0,-1,1203,932,0,0
-14,92,0,0,0,0,0,0,0,0,0,-1,1210,932,0,0
-7,92,0,0,0,0,0,0,0,0,0,-1,1217,932,0,0
0,92,0,0,0,0,0,0,0,0,0,-1,1224,932,0,0
7,92,0,0,0,0,0,0,0,0,0,-1,1231,932,0,0
14,92,0,0,0,0,0,0,0,0,0,-1,1238,932,0,0
21,92,0,0,0,0,0,0,0,0,0,-1,1245,932,0,0
28,92,0,0,0,0,0,0,0,0,0,-1,1252,932,0,0
35,92,0,0,0,0,0,0,0,0,0,-1,1259,932,0,0
42,92,0,0,0,0,0,0,0,0,0,-1,1266,932,0,0
49,92,0,0,0,0,0,0,0,0,0,-1,1273,932,0,0
56,92,0,0,0,0,0,0,0,0,0,-1,1280,932,0,0
63,92,0,0,0,0,0,0,0,0,0,-1,1287,932,0,0
70,92,0,0,0,0,0,0,0,0,0,-1,1294,932,0,0
77,92,0,0,0,0,0,0,0,0,0,-1,1301,932,0,0
84,92,0,0,0,0,0,0,0,0,0,-1,1308,932,0,0
91,92,0,0,0,0,0,0,0,0,0,-1,1315,932,0,0
98,92,0,0,0,0,0,0,0,0,0,-1,1322,932,0,0
105,92,0,0,0,0,0,0,0,0,0,-1,1329,932,0,0
112,92,0,0,0,0,0,0,0,0,0,-1,1336,932,0,0
119,92,0,0,0,0,0,0,0,0,0,-1,1343,932,0,0
126,92,0,0,0,0,0,0,0,0,0,-1,1350,932,0,0
133,92,0,0,0,0,0,0,0,0,0,-1,1357,932,0,0
140,92,0,0,0,0,0,0,0,0,0,-1,1364,932,0,0
147,92,0,0,0,0,0,0,0,0,0,-1,1371,932,0,0
154,92,0,0,0,0,0,0,0,0,0,-1,1378,932,0,0
161,92,0,0,0,0,0,0,0,0,0,-1,1385,932,0,0
168,92,0,0,0,0,0,0,0,0,0,-1,1392,932,0,0
175,92,0,0,0,0,0,0,0,0,0,-1,1399,932,0,0
182,92,0,0,0,0,0,0,0,0,0,-1,1406,932,0,0
189,92,0,0,0,0,0,0,0,0,0,-1,1413,932,0,0
196,92,0,0,0,0,0,0,0,0,0,-1,1420,932,0,0
203,92,0,0,0,0,0,0,0,0,0,-1,1427,932,0,0
210,92,0,0,0,0,0,0,0,0,0,-1,1434,932,0,0
217,92,0,0,0,0,0,0,0,0,0,-1,1441,932,0,0
224,92,0,0,0,0,0,0,0,0,0,-1,1448,932,0,0
231,92,0,0,0,0,0,0,0,0,0,-1,1455,932,0,0
238,92,0,0,0,0,0,0,0,0,0,-1,1462,932,0,0
245,92,0,0,0,0,0,0,0,0,0,-1,1469,932,0,0
252,92,0,0,0,0,0,0,0,0,0,-1,1476,932,0,0
259,92,0,0,0,0,0,0,0,0,0,-1,1483,932,0,0
266,92,0,0,0,0,0,0,0,0,0,-1,1490,932,0,0
273,92,0,0,0,0,0,0,0,0,0,-1,1497,932,0,0
280,92,0,0,0,0,0,0,0,0,0,-1,1504,932,0,0
287,92,0,0,0,0,0,0,0,0,0,-1,1511,932,0,0
294,92,0,0,0,0,0,0,0,0,0,-1,1518,932,0,0
301,92,0,0,0,0,0,0,0,0,0,-1,1525,932,0,0
308,92,0,0,0,0,0,0,0,0,0,-1,1532,932,0,0
315,92,0,0,0,0,0,0,0,0,0,-1,1539,932,0,0
322,92,0,0,0,0,0,0,0,0,0,-1,1546,932,0,0
329,92,0,0,0,0,0,0,0,0,0,-1,1553,932,0,0
336,92,0,0,0,0,0,0,0,0,0,-1,1560,932,0,0
343,92,0,0,0,0,0,0,0,0,0,-1,1567,932,0,0
350,92,0,0,0,0,0,0,0,0,0,-1,1574,932,0,0
357,92,0,0,0,0,0,0,0,0,0,-1,1581,932,0,0
364,92,0,0,0,0,0,0,0,0,0,-1,1588,932,0,0
371,92,0,0,0,0,0,0,0,0,0,-1,1595,932,0,0
378,92,0,0,0,0,0,0,0,0,0,-1,1602,932,0,0
385,92,0,0,0,0,0,0,0,0,0,-1,1609,932,0,0
392,92,0,0,0,0,0,0,0,0,0,-1,1616,932,0,0
399,92,0,0,0,0,0,0,0,0,0,-1,1623,932,0,0
406,92,0,0,0,0,0,0,0,0,0,-1,1630,932,0,0
413,92,0,0,0,0,0,0,0,0,0,-1,1637,932,0,0
420,92,0,0,0,0,0,0,0,0,0,-1,1644,932,0,0
427,92,0,0,0,0,0,0,0,0,0,-1,1651,932,0,0
434,92,0,0,0,0,0,0,0,0,0,-1,1658,932,0,0
441,92,0,0,0,0,0,0,0,0,0,-1,1665,932,0,0
448,92,0,0,0,0,0,0,0,0,0,-1,1672,932,0,0
455,92,0,0,0,0,0,0,0,0,0,-1,1679,932,0,0
462,92,0,0,0,0,0,0,0,0,0,-1,1686,932,0,0
469,92,0,0,0,0,0,0,0,0,0,-1,1693,932,0,0
476,92,0,0,0,0,0,0,0,0,0,-1,1700,932,0,0
483,92,0,0,0,0,0,0,0,0,0,-1,1707,932,0,0
490,92,0,0,0,0,0,0,0,0,0,-1,1714,932,0,0
497,92,0,0,0,0,0,0,0,0,0,-1,1721,932,0,0
504,92,0,0,0,0,0,0,0,0,0,-1,1728,932,0,0
511,92,0,0,0,0,0,0,0,0,0,-1,1735,932,0,0
518,92,0,0,0,0,0,0,0,0,0,-1,1742,932,0,0
525,92,0,0,0,0,0,0,0,0,0,-1,1749,932,0,0
532,92,0,0,0,0,0,0,0,0,0,-1,1756,932,0,0
539,92,0,0,0,0,0,0,0,0,0,-1,1763,932,0,0
546,92,0,0,0,0,0,0,0,0,0,-1,1770,932,0,0
553,92,0,0,0,0,0,0,0,0,0,-1,1777,932,0,0
560,92,0,0,0,0,0,0,0,0,0,-1,1784,932,0,0
567,92,0,0,0,0,0,0,0,0,0,-1,1791,932,0,0
574,92,0,0,0,0,0,0,0,0,0,-1,1798,932,0,0
581,92,0,0,0,0,0,0,0,0,0,-1,1805,932,0,0
588,92,0,0,0,0,0,0,0,0,0,-1,1812,932,0,0
595,92,0,0,0,0,0,0,0,0,0,-1,1819,932,0,0
602,92,0,0,0,0,0,0,0,0,0,-1,1826,932,0,0
609,92,0,0,0,0,0,0,0,0,0,-1,1833,932,0,0
616,92,0,0,0,0,0,0,0,0,0,-1,1840,932,0,0
623,92,0,0,0,0,0,0,0,0,0,-1,1847,932,0,0
630,92,0,0,0,0,0,0,0,0,0,-1,1854,932,0,0
637,92,70.6808,2.98834,0.00507637,-0.00542957,0.00251429,0.00564709,-0.00600029,0.223208,0.00672565,0.0464449,1861,932,70.6808,-2.98833
644,92,70.6154,2.93927,0.00392919,-0.00383039,0.00132496,0.0041492,-0.0040504,0.164543,0.00473415,0.0405822,1868,932,70.6153,-2.93927
651,92,70.5582,2.40479,0.00294563,-0.00274599,0.000635951,0.00301582,-0.00281619,0.109928,0.00336777,0.040835,1875,932,70.5582,-2.4048
658,92,70.3892,2.47736,0.00220009,-0.0019113,0.000201327,0.00220993,-0.00192113,0.0488125,0.00238701,0.0418645,1882,932,70.3891,-2.47734
665,92,70.5555,2.45825,0.00165427,-0.00126311,-7.6246e-05,0.00165626,-0.0012651,-0.0261114,0.00169168,0.0396197,1889,932,70.5556,-2.45825
672,92,70.775,2.34418,0.000783738,-0.00117506,-0.000120043,0.000791067,-0.00118239,-0.0609797,0.00114682,0.0408099,1896,932,70.775,-2.34418
679,92,70.6913,2.05994,-4.52433e-06,-0.00144156,-9.55419e-05,1.79996e-06,-0.00144788,-0.0660978,0.000965854,0.0386908,1903,932,70.6913,-2.05996
686,92,70.6672,2.14728,-0.00057943,-0.00161567,-0.000316368,-0.000490478,-0.00170462,-0.274091,0.0010133,0.0309235,1910,932,70.6672,-2.14726
693,92,70.6111,2.42133,-0.0011062,-0.00152945,-0.00070244,-0.000584199,-0.00205145,-0.639089,0.00122043,0.0295263,1917,932,70.6111,-2.42132
700,92,70.6582,2.36896,0,0,0,0,0,0,0,-1,1924,932,70.6581,-2.36895
707,92,32.9893,3.26874,0,0,0,0,0,0,0,-1,1931,932,32.9893,-3.26874
714,92,66.5242,4.05212,0,0,0,0,0,0,0,-1,1938,932,66.5242,-4.05211
721,92,66.2705,4.79645,-0.00381303,0.000363563,-0.00191314,0.00110742,-0.00455688,-1.19997,0.00346653,0.0354837,1945,932,66.2705,-4.79643
728,92,66.0073,5.4209,-0.0047352,0.00127129,-0.00223275,0.00201032,-0.00547423,-1.25115,0.00447281,0.0295181,1952,932,66.0073,-5.42091
735,92,65.9828,6.02875,-0.00541958,0.00248093,-0.00281929,0.00338381,-0.00632246,-1.26087,0.00568888,0.0232996,1959,932,65.9828,-6.02877
742,92,65.9969,6.60297,-0.00592124,0.00443356,-0.00359552,0.00555959,-0.00704727,-1.2673,0.00729545,0.0220498,1966,932,65.9969,-6.60294
749,92,65.8788,7.229,-0.00640347,0.00761696,-0.00433476,0.00884891,-0.00763542,-1.2939,0.00952583,0.0198974,1973,932,65.8788,-7.22898
756,92,65.7698,7.81696,-0.00666053,0.0115247,-0.00487108,0.0127473,-0.0078831,-1.32489,0.0120208,0.0163111,1980,932,65.7698,-7.81697
763,92,65.7966,8.40778,-0.00660566,0.0157013,-0.00522938,0.0168664,-0.00777073,-1.35158,0.0145438,0.0184102,1987,932,65.7966,-8.40778
770,92,65.8276,8.98871,-0.00630621,0.0198165,-0.00545425,0.0209096,-0.00739929,-1.37301,0.0169532,0.0297396,1994,932,65.8276,-8.9887
777,92,66.6121,9.19971,0,0,0,0,0,0,0,-1,2001,932,66.612,-9.19968
784,92,67.7251,9.50128,0,0,0,0,0,0,0,-1,2008,932,67.7252,-9.50129
791,92,68.9268,10.5617,0,0,0,0,0,0,0,-1,2015,932,68.9268,-10.5617
798,92,66.4177,11.2793,0,0,0,0,0,0,0,-1,2022,932,66.4177,-11.2793
805,92,0,0,0,0,0,0,0,0,0,-1,2029,932,0,0
812,92,0,0,0,0,0,0,0,0,0,-1,2036,932,0,0
-700,85,0,0,0,0,0,0,0,0,0,-1,524,939,0,0
-693,85,0,0,0,0,0,0,0,0,0,-1,531,939,0,0
-686,85,-50.9404,8.76343,-0.00127639,-0.0983088,0.0125652,0.000324331,-0.0999096,0.126711,0.0667147,0.0430063,538,939,-50.9404,-8.76343
-679,85,-50.9074,8.32697,0,0,0,0,0,0,0,-1,545,939,-50.9074,-8.32699
-672,85,-50.9041,8.59644,-0.00783067,-0.0545581,0.0104193,-0.00561265,-0.0567761,0.209745,0.0361255,0.043277,552,939,-50.9041,-8.59644
-665,85,-50.9547,8.59827,-0.0107958,-0.0366325,0.00841888,-0.00829469,-0.0391337,0.288785,0.0238108,0.0418076,559,939,-50.9546,-8.59828
-658,85,-51.0113,8.0376,-0.0124093,-0.0219636,0.0069862,-0.00872308,-0.0256498,0.485512,0.0150593,0.0443134,566,939,-51.0113,-8.03761
-651,85,-51.1031,7.50751,-0.0127764,-0.0106183,0.00600809,-0.00559314,-0.0178016,0.87425,0.0105116,0.0423154,573,939,-51.1031,-7.50751
-644,85,-51.3004,7.35724,-0.0121985,-0.00256329,0.0053388,-0.000189785,-0.014572,1.15246,0.00965203,0.0362873,580,939,-51.3004,-7.35722
-637,85,-51.4833,7.12903,-0.01088,0.00234368,0.00497492,0.00400628,-0.0125426,1.24827,0.00996921,0.0233784,587,939,-51.4833,-7.12902
-630,85,-51.5801,6.56293,-0.00910915,0.00530983,0.00472799,0.00672186,-0.0105212,1.28058,0.0100355,0.0144412,594,939,-51.5801,-6.56294
-623,85,-51.6897,6.00653,-0.00660437,0.00537638,0.00449458,0.00687505,-0.00810304,1.24895,0.00865729,0.0105432,601,939,-51.6897,-6.0065
-616,85,-51.724,5.45898,-0.00422388,0.00459809,0.00391837,0.00608714,-0.00571293,1.20763,0.00681391,0.0109285,608,939,-51.724,-5.45899
-609,85,-51.7701,4.89917,-0.00252348,0.00303367,0.00362869,0.00482542,-0.00431522,1.11214,0.0052801,0.0135499,615,939,-51.7701,-4.89919
-602,85,-51.7863,4.30084,-0.00139927,0.0019665,0.00306339,0.00377882,-0.0032116,1.03657,0.00404034,0.0179058,622,939,-51.7863,-4.30082
-595,85,-51.6852,3.67633,-0.000503846,0.00145806,0.00272022,0.0033688,-0.00241458,0.958449,0.00335415,0.0215396,629,939,-51.6852,-3.67636
-588,85,-51.6266,3.08502,7.38554e-05,0.000904224,0.00244065,0.00296476,-0.00198668,0.869648,0.00287724,0.0275412,636,939,-51.6267,-3.08499
-581,85,-52.8013,2.54773,0,0,0,0,0,0,0,-1,643,939,-52.8013,-2.54772
-574,85,-52.1889,1.33484,0,0,0,0,0,0,0,-1,650,939,-52.1889,-1.33486
-567,85,-54.6783,0.607056,0,0,0,0,0,0,0,-1,657,939,-54.6783,-0.60704
-560,85,-54.6566,0.451172,-0.000434434,0.00121951,0.000635512,0.0014355,-0.000650418,1.24318,0.00123241,0.034772,664,939,-54.6566,-0.451183
-553,85,-54.9238,0.404419,-0.00108252,0.00208848,0.000327597,0.00212197,-0.00111601,1.46892,0.00189929,0.0383566,671,939,-54.9238,-0.404422
-546,85,-54.962,0.432434,-0.00194331,0.00334616,5.06843e-05,0.00334664,-0.00194379,1.56122,0.00309002,0.0391245,678,939,-54.962,-0.432464
-539,85,-54.8264,0.541077,-0.00318657,0.00489058,-0.000219676,0.00489655,-0.00319254,-1.54363,0.00470465,0.0379942,685,939,-54.8263,-0.541086
-532,85,-54.7979,0.608704,-0.00494933,0.00638539,-0.000464026,0.00640436,-0.0049683,-1.52995,0.00658343,0.0407369,692,939,-54.7979,-0.608711
-525,85,-54.8648,0.441467,-0.00719644,0.00814767,-0.000755744,0.0081848,-0.00723357,-1.5217,0.00890745,0.0409976,699,939,-54.8648,-0.441442
-518,85,-54.7509,0.647217,-0.00982016,0.010269,-0.0010036,0.010319,-0.00987017,-1.521,0.0116572,0.0395761,706,939,-54.7509,-0.647201
-511,85,0,0,0,0,0,0,0,0,0,-1,713,939,0,0
-504,85,0,0,0,0,0,0,0,0,0,-1,720,939,0,0
-497,85,0,0,0,0,0,0,0,0,0,-1,727,939,0,0
-490,85,0,0,0,0,0,0,0,0,0,-1,734,939,0,0
-483,85,0,0,0,0,0,0,0,0,0,-1,741,939,0,0
-476,85,0,0,0,0,0,0,0,0,0,-1,748,939,0,0
-469,85,0,0,0,0,0,0,0,0,0,-1,755,939,0,0
-462,85,0,0,0,0,0,0,0,0,0,-1,762,939,0,0
-455,85,0,0,0,0,0,0,0,0,0,-1,769,939,0,0
-448,85,0,0,0,0,0,0,0,0,0,-1,776,939,0,0
-441,85,0,0,0,0,0,0,0,0,0,-1,783,939,0,0
-434,85,0,0,0,0,0,0,0,0,0,-1,790,939,0,0
-427,85,0,0,0,0,0,0,0,0,0,-1,797,939,0,0
-420,85,0,0,0,0,0,0,0,0,0,-1,804,939,0,0
-413,85,0,0,0,0,0,0,0,0,0,-1,811,939,0,0
-406,85,0,0,0,0,0,0,0,0,0,-1,818,939,0,0
-399,85,0,0,0,0,0,0,0,0,0,-1,825,939,0,0
-392,85,0,0,0,0,0,0,0,0,0,-1,832,939,0,0
-385,85,0,0,0,0,0,0,0,0,0,-1,839,939,0,0
-378,85,0,0,0,0,0,0,0,0,0,-1,846,939,0,0
-371,85,0,0,0,0,0,0,0,0,0,-1,853,939,0,0
-364,85,0,0,0,0,0,0,0,0,0,-1,860,939,0,0
-357,85,0,0,0,0,0,0,0,0,0,-1,867,939,0,0
-350,85,0,0,0,0,0,0,0,0,0,-1,874,939,0,0
-343,85,0,0,0,0,0,0,0,0,0,-1,881,939,0,0
-336,85,0,0,0,0,0,0,0,0,0,-1,888,939,0,0
-329,85,0,0,0,0,0,0,0,0,0,-1,895,939,0,0
-322,85,0,0,0,0,0,0,0,0,0,-1,902,939,0,0
-315,85,0,0,0,0,0,0,0,0,0,-1,909,939,0,0
-308,85,0,0,0,0,0,0,0,0,0,-1,916,939,0,0
-301,85,0,0,0,0,0,0,0,0,0,-1,923,939,0,0
-294,85,0,0,0,0,0,0,0,0,0,-1,930,939,0,0
-287,85,0,0,0,0,0,0,0,0,0,-1,937,939,0,0
-280,85,0,0,0,0,0,0,0,0,0,-1,944,939,0,0
-273,85,0,0,0,0,0,0,0,0,0,-1,951,939,0,0
-266,85,0,0,0,0,0,0,0,0,0,-1,958,939,0,0
-259,85,0,0,0,0,0,0,0,0,0,-1,965,939,0,0
-252,85,0,0,0,0,0,0,0,0,0,-1,972,939,0,0
-245,85,0,0,0,0,0,0,0,0,0,-1,979,939,0,0
-238,85,0,0,0,0,0,0,0,0,0,-1,986,939,0,0
-231,85,0,0,0,0,0,0,0,0,0,-1,993,939,0,0
-224,85,0,0,0,0,0,0,0,0,0,-1,1000,939,0,0
-217,85,0,0,0,0,0,0,0,0,0,-1,1007,939,0,0
-210,85,0,0,0,0,0,0,0,0,0,-1,1014,939,0,0
-203,85,0,0,0,0,0,0,0,0,0,-1,1021,939,0,0
-196,85,0,0,0,0,0,0,0,0,0,-1,1028,939,0,0
-189,85,0,0,0,0,0,0,0,0,0,-1,1035,939,0,0
-182,85,0,0,0,0,0,0,0,0,0,-1,1042,939,0,0
-175,85,0,0,0,0,0,0,0,0,0,-1,1049,939,0,0
-168,85,0,0,0,0,0,0,0,0,0,-1,1056,939,0,0
-161,85,0,0,0,0,0,0,0,0,0,-1,1063,939,0,0
-154,85,0,0,0,0,0,0,0,0,0,-1,1070,939,0,0
-147,85,0,0,0,0,0,0,0,0,0,-1,1077,939,0,0
-140,85,0,0,0,0,0,0,0,0,0,-1,1084,939,0,0
-133,85,0,0,0,0,0,0,0,0,0,-1,1091,939,0,0
-126,85,0,0,0,0,0,0,0,0,0,-1,1098,939,0,0
-119,85,0,0,0,0,0,0,0,0,0,-1,1105,939,0,0
-112,85,0,0,0,0,0,0,0,0,0,-1,1112,939,0,0
-105,85,0,0,0,0,0,0,0,0,0,-1,1119,939,0,0
-98,85,0,0,0,0,0,0,0,0,0,-1,1126,939,0,0
-91,85,0,0,0,0,0,0,0,0,0,-1,1133,939,0,0
-84,85,0,0,0,0,0,0,0,0,0,-1,1140,939,0,0
-77,85,0,0,0,0,0,0,0,0,0,-1,1147,939,0,0
-70,85,0,0,0,0,0,0,0,0,0,-1,1154,939,0,0
-63,85,0,0,0,0,0,0,0,0,0,-1,1161,939,0,0
-56,85,0,0,0,0,0,0,0,0,0,-1,1168,939,0,0
-49,85,0,0,0,0,0,0,0,0,0,-1,1175,939,0,0
-42,85,0,0,0,0,0,0,0,0,0,-1,1182,939,0,0
-35,85,0,0,0,0,0,0,0,0,0,-1,1189,939,0,0
-28,85,0,0,0,0,0,0,0,0,0,-1,1196,939,0,0
-21,85,0,0,0,0,0,0,0,0,0,-1,1203,939,0,0
-14,85,0,0,0,0,0,0,0,0,0,-1,1210,939,0,0
-7,85,0,0,0,0,0,0,0,0,0,-1,1217,939,0,0
0,85,0,0,0,0,0,0,0,0,0,-1,1224,939,0,0
7,85,0,0,0,0,0,0,0,0,0,-1,1231,939,0,0
14,85,0,0,0,0,0,0,0,0,0,-1,1238,939,0,0
21,85,0,0,0,0,0,0,0,0,0,-1,1245,939,0,0
28,85,0,0,0,0,0,0,0,0,0,-1,1252,939,0,0
35,85,0,0,0,0,0,0,0,0,0,-1,1259,939,0,0
42,85,0,0,0,0,0,0,0,0,0,-1,1266,939,0,0
49,85,0,0,0,0,0,0,0,0,0,-1,1273,939,0,0
56,85,0,0,0,0,0,0,0,0,0,-1,1280,939,0,0
63,85,0,0,0,0,0,0,0,0,0,-1,1287,939,0,0
70,85,0,0,0,0,0,0,0,0,0,-1,1294,939,0,0
77,85,0,0,0,0,0,0,0,0,0,-1,1301,939,0,0
84,85,0,0,0,0,0,0,0,0,0,-1,1308,939,0,0
91,85,0,0,0,0,0,0,0,0,0,-1,1315,939,0,0
98,85,0,0,0,0,0,0,0,0,0,-1,1322,939,0,0
105,85,0,0,0,0,0,0,0,0,0,-1,1329,939,0,0
112,85,0,0,0,0,0,0,0,0,0,-1,1336,939,0,0
119,85,0,0,0,0,0,0,0,0,0,-1,1343,939,0,0
126,85,0,0,0,0,0,0,0,0,0,-1,1350,939,0,0
133,85,0,0,0,0,0,0,0,0,0,-1,1357,939,0,0
140,85,0,0,0,0,0,0,0,0,0,-1,1364,939,0,0
147,85,0,0,0,0,0,0,0,0,0,-1,1371,939,0,0
154,85,0,0,0,0,0,0,0,0,0,-1,1378,939,0,0
161,85,0,0,0,0,0,0,0,0,0,-1,1385,939,0,0
168,85,0,0,0,0,0,0,0,0,0,-1,1392,939,0,0
175,85,0,0,0,0,0,0,0,0,0,-1,1399,939,0,0
182,85,0,0,0,0,0,0,0,0,0,-1,1406,939,0,0
189,85,0,0,0,0,0,0,0,0,0,-1,1413,939,0,0
196,85,0,0,0,0,0,0,0,0,0,-1,1420,939,0,0
203,85,0,0,0,0,0,0,0,0,0,-1,1427,939,0,0
210,85,0,0,0,0,0,0,0,0,0,-1,1434,939,0,0
217,85,0,0,0,0,0,0,0,0,0,-1,1441,939,0,0
224,85,0,0,0,0,0,0,0,0,0,-1,1448,939,0,0
231,85,0,0,0,0,0,0,0,0,0,-1,1455,939,0,0
238,85,0,0,0,0,0,0,0,0,0,-1,1462,939,0,0
245,85,0,0,0,0,0,0,0,0,0,-1,1469,939,0,0
252,85,0,0,0,0,0,0,0,0,0,-1,1476,939,0,0
259,85,0,0,0,0,0,0,0,0,0,-1,1483,939,0,0
266,85,0,0,0,0,0,0,0,0,0,-1,1490,939,0,0
273,85,0,0,0,0,0,0,0,0,0,-1,1497,939,0,0
280,85,0,0,0,0,0,0,0,0,0,-1,1504,939,0,0
287,85,0,0,0,0,0,0,0,0,0,-1,1511,939,0,0
294,85,0,0,0,0,0,0,0,0,0,-1,1518,939,0,0
301,85,0,0,0,0,0,0,0,0,0,-1,1525,939,0,0
308,85,0,0,0,0,0,0,0,0,0,-1,1532,939,0,0
315,85,0,0,0,0,0,0,0,0,0,-1,1539,939,0,0
322,85,0,0,0,0,0,0,0,0,0,-1,1546,939,0,0
329,85,0,0,0,0,0,0,0,0,0,-1,1553,939,0,0
336,85,0,0,0,0,0,0,0,0,0,-1,1560,939,0,0
343,85,0,0,0,0,0,0,0,0,0,-1,1567,939,0,0
350,85,0,0,0,0,0,0,0,0,0,-1,1574,939,0,0
357,85,0,0,0,0,0,0,0,0,0,-1,1581,939,0,0
364,85,0,0,0,0,0,0,0,0,0,-1,1588,939,0,0
371,85,0,0,0,0,0,0,0,0,0,-1,1595,939,0,0
378,85,0,0,0,0,0,0,0,0,0,-1,1602,939,0,0
385,85,0,0,0,0,0,0,0,0,0,-1,1609,939,0,0
392,85,0,0,0,0,0,0,0,0,0,-1,1616,939,0,0
399,85,0,0,0,0,0,0,0,0,0,-1,1623,939,0,0
406,85,0,0,0,0,0,0,0,0,0,-1,1630,939,0,0
413,85,0,0,0,0,0,0,0,0,0,-1,1637,939,0,0
420,85,0,0,0,0,0,0,0,0,0,-1,1644,939,0,0
427,85,0,0,0,0,0,0,0,0,0,-1,1651,939,0,0
434,85,0,0,0,0,0,0,0,0,0,-1,1658,939,0,0
441,85,0,0,0,0,0,0,0,0,0,-1,1665,939,0,0
448,85,0,0,0,0,0,0,0,0,0,-1,1672,939,0,0
455,85,0,0,0,0,0,0,0,0,0,-1,1679,939,0,0
462,85,0,0,0,0,0,0,0,0,0,-1,1686,939,0,0
469,85,0,0,0,0,0,0,0,0,0,-1,1693,939,0,0
476,85,0,0,0,0,0,0,0,0,0,-1,1700,939,0,0
483,85,0,0,0,0,0,0,0,0,0,-1,1707,939,0,0
490,85,0,0,0,0,0,0,0,0,0,-1,1714,939,0,0
497,85,0,0,0,0,0,0,0,0,0,-1,1721,939,0,0
504,85,0,0,0,0,0,0,0,0,0,-1,1728,939,0,0
511,85,0,0,0,0,0,0,0,0,0,-1,1735,939,0,0
518,85,0,0,0,0,0,0,0,0,0,-1,1742,939,0,0
525,85,0,0,0,0,0,0,0,0,0,-1,1749,939,0,0
532,85,0,0,0,0,0,0,0,0,0,-1,1756,939,0,0
539,85,0,0,0,0,0,0,0,0,0,-1,1763,939,0,0
546,85,0,0,0,0,0,0,0,0,0,-1,1770,939,0,0
553,85,0,0,0,0,0,0,0,0,0,-1,1777,939,0,0
560,85,0,0,0,0,0,0,0,0,0,-1,1784,939,0,0
567,85,0,0,0,0,0,0,0,0,0,-1,1791,939,0,0
574,85,0,0,0,0,0,0,0,0,0,-1,1798,939,0,0
581,85,0,0,0,0,0,0,0,0,0,-1,1805,939,0,0
588,85,0,0,0,0,0,0,0,0,0,-1,1812,939,0,0
595,85,0,0,0,0,0,0,0,0,0,-1,1819,939,0,0
602,85,0,0,0,0,0,0,0,0,0,-1,1826,939,0,0
609,85,0,0,0,0,0,0,0,0,0,-1,1833,939,0,0
616,85,0,0,0,0,0,0,0,0,0,-1,1840,939,0,0
623,85,0,0,0,0,0,0,0,0,0,-1,1847,939,0,0
630,85,0,0,0,0,0,0,0,0,0,-1,1854,939,0,0
637,85,70.6051,2.42761,0,0,0,0,0,0,0,-1,1861,939,70.6051,-2.42762
644,85,70.4954,2.24493,0,0,0,0,0,0,0,-1,1868,939,70.4953,-2.24496
651,85,70.5603,2.11359,0.0032317,-0.00267001,0.000815519,0.00334232,-0.00278063,0.134818,0.00354004,0.0436131,1875,939,70.5603,-2.11359
658,85,70.4041,2.26715,0.00243089,-0.00190802,0.000363792,0.00246118,-0.00193831,0.0830713,0.00254602,0.0429112,1882,939,70.4041,-2.26714
665,85,70.4596,2.54279,0.00184169,-0.00132362,6.8829e-05,0.00184318,-0.00132512,0.0217311,0.00183735,0.0401504,1889,939,70.4596,-2.54278
672,85,70.7651,2.40918,0.000904776,-0.00123942,3.21244e-05,0.000905257,-0.0012399,0.0149775,0.00124352,0.0407549,1896,939,70.7652,-2.40918
679,85,70.8081,2.12048,3.94405e-05,-0.00153798,0.000101547,4.59508e-05,-0.00154449,0.0640234,0.00104531,0.041114,1903,939,70.8081,-2.12051
686,85,70.6563,2.21008,-0.000555497,-0.00178808,-8.35525e-05,-0.000549859,-0.00179372,-0.0673756,0.00106113,0.0360275,1910,939,70.6562,-2.21008
693,85,70.5817,2.36865,-0.00112229,-0.00179082,-0.000443015,-0.00090158,-0.00201153,-0.462202,0.00116343,0.0327525,1917,939,70.5816,-2.36864
700,85,70.6146,2.31006,-0.00186651,-0.00158461,-0.000676301,-0.00103473,-0.00241639,-0.888136,0.00139989,0.0473042,1924,939,70.6146,-2.31004
707,85,70.7815,2.2522,0,0,0,0,0,0,0,-1,1931,939,70.7815,-2.25218
714,85,67.2301,4.237,0,0,0,0,0,0,0,-1,1938,939,67.2301,-4.23703
721,85,66.9219,4.93018,-0.00401166,0.000175817,-0.0017365,0.000802223,-0.00463807,-1.2246,0.00339123,0.0351289,1945,939,66.9218,-4.93017
728,85,66.6288,5.69482,-0.00494743,0.00118367,-0.0021091,0.00183912,-0.00560289,-1.26948,0.00447607,0.0345081,1952,939,66.6287,-5.69482
735,85,66.65,6.15411,-0.0056261,0.00248078,-0.00275258,0.00332704,-0.00647236,-1.27253,0.00575401,0.0319812,1959,939,66.65,-6.15409
742,85,66.7152,6.67572,-0.00613242,0.00446285,-0.00352764,0.0055299,-0.00719947,-1.27706,0.00737035,0.0217172,1966,939,66.7152,-6.67575
749,85,66.5862,7.24939,-0.00666943,0.00796085,-0.00425577,0.00910874,-0.00781732,-1.30734,0.00978174,0.015983,1973,939,66.5862,-7.24937
756,85,66.438,7.78217,-0.00702419,0.0123409,-0.00483279,0.01348,-0.00816327,-1.33932,0.0126208,0.0140197,1980,939,66.438,-7.78215
763,85,66.3882,8.33099,-0.00698912,0.0174002,-0.00518826,0.018458,-0.00804692,-1.36967,0.0156912,0.0145887,1987,939,66.3882,-8.33098
770,85,66.271,8.84222,-0.00674197,0.0227113,-0.00530477,0.0236376,-0.00766827,-1.39792,0.018842,0.0220605,1994,939,66.271,-8.8422
777,85,66.0588,9.32318,-0.00682715,0.0286595,-0.00474978,0.0292843,-0.0074519,-1.44002,0.0224234,0.0456566,2001,939,66.0588,-9.32317
784,85,68.4255,8.79034,0,0,0,0,0,0,0,-1,2008,939,68.4256,-8.79035
791,85,66.2764,10.7004,0,0,0,0,0,0,0,-1,2015,939,66.2763,-10.7004
798,85,65.0735,8.8537,0,0,0,0,0,0,0,-1,2022,939,65.0734,-8.8537
805,85,67.4045,8.44751,0,0,0,0,0,0,0,-1,2029,939,67.4046,-8.4475
812,85,0,0,0,0,0,0,0,0,0,-1,2036,939,0,0
-700,78,0,0,0,0,0,0,0,0,0,-1,524,946,0,0
-693,78,0,0,0,0,0,0,0,0,0,-1,531,946,0,0
-686,78,-51.3909,9.60236,0,0,0,0,0,0,0,-1,538,946,-51.3909,-9.60234
-679,78,-51.6315,9.16034,0,0,0,0,0,0,0,-1,545,946,-51.6315,-9.16031
-672,78,-51.3455,10.5215,0,0,0,0,0,0,0,-1,552,946,-51.3455,-10.5215
-665,78,-51.5854,9.47308,-0.0134628,-0.0295228,0.0049423,-0.0120637,-0.0309218,0.275862,0.0179958,0.0464357,559,946,-51.5854,-9.4731
-658,78,-51.6466,8.39575,-0.0143993,-0.0160649,0.00453835,-0.0106179,-0.0198462,0.694658,0.0114676,0.0440819,566,946,-51.6466,-8.39573
-651,78,-51.6306,7.91681,-0.0141282,-0.00599431,0.00435295,-0.00410405,-0.0160185,1.16112,0.00960772,0.0413322,573,946,-51.6305,-7.91683
-644,78,-51.7358,7.4281,-0.0130308,0.000816305,0.00428253,0.00203374,-0.0142483,1.29382,0.0102443,0.0313981,580,946,-51.7358,-7.42813
-637,78,-52.0677,6.95789,-0.0113125,0.00462767,0.00434162,0.00573348,-0.0124183,1.3214,0.0107142,0.022232,587,946,-52.0677,-6.95789
-630,78,-52.2432,6.44153,-0.00925026,0.00668436,0.00437771,0.00780783,-0.0103737,1.31958,0.0105319,0.0191421,594,946,-52.2432,-6.44155
-623,78,-52.301,5.91614,-0.0065941,0.00603739,0.00433276,0.00738072,-0.00793743,1.27015,0.00884589,0.0143109,601,946,-52.301,-5.91614
-616,78,-52.3341,5.40961,-0.00419003,0.00474484,0.00387645,0.0061922,-0.00563739,1.21345,0.00683232,0.0132166,608,946,-52.3341,-5.4096
-609,78,-52.3551,4.92493,-0.00247016,0.00299098,0.00360889,0.00478591,-0.00426508,1.10926,0.00522847,0.0130892,615,946,-52.3551,-4.92493
-602,78,-52.3713,4.37225,-0.00129538,0.00184912,0.00307905,0.00373411,-0.00318037,1.02146,0.00399634,0.0173732,622,946,-52.3713,-4.37228
-595,78,-52.2869,3.76593,-0.000325703,0.00124744,0.00277059,0.00334095,-0.00241921,0.923709,0.0033398,0.0176825,629,946,-52.2869,-3.76595
-588,78,-52.2811,3.2514,0.00033615,0.000551938,0.00247818,0.00292457,-0.00203648,0.807153,0.00287952,0.0156755,636,946,-52.2811,-3.25139
-581,78,-52.2363,2.6413,0,0,0,0,0,0,0,-1,643,946,-52.2363,-2.64131
-574,78,-54.7367,0.52124,0,0,0,0,0,0,0,-1,650,946,-54.7367,-0.521241
-567,78,-54.6783,0.544006,0.00026542,0.000380066,0.000826932,0.00115166,-0.000506173,0.820003,0.000981036,0.0349788,657,946,-54.6783,-0.544019
-560,78,-54.7682,0.45459,-0.000275723,0.00107493,0.000418263,0.00119397,-0.000394757,1.29353,0.000955155,0.0305413,664,946,-54.7683,-0.45456
-553,78,-54.8261,0.532898,-0.000984287,0.00211384,4.36155e-05,0.00211445,-0.000984901,1.55672,0.0018286,0.0394204,671,946,-54.8261,-0.532881
-546,78,-54.8633,0.616333,-0.00191447,0.00350823,-0.000301947,0.00352499,-0.00193123,-1.51534,0.00319463,0.0394904,678,946,-54.8633,-0.616315
-539,78,-54.737,0.576782,-0.00332893,0.00505335,-0.000644827,0.00510267,-0.00337824,-1.49447,0.00493008,0.0376625,685,946,-54.737,-0.576797
-532,78,-54.6677,0.461792,-0.00523602,0.00627764,-0.000983264,0.006361,-0.00531939,-1.48621,0.00675261,0.0400583,692,946,-54.6677,-0.461809
-525,78,-54.7238,0.119873,-0.00759671,0.00775845,-0.00139233,0.00788368,-0.00772194,-1.4811,0.00901007,0.0408115,699,946,-54.7238,-0.11988
-518,78,-54.7942,0.325867,-0.0103972,0.00959235,-0.00188696,0.00976891,-0.0105738,-1.4775,0.0117479,0.0423186,706,946,-54.7942,-0.32589
-511,78,0,0,0,0,0,0,0,0,0,-1,713,946,0,0
-504,78,0,0,0,0,0,0,0,0,0,-1,720,946,0,0
-497,78,0,0,0,0,0,0,0,0,0,-1,727,946,0,0
-490,78,0,0,0,0,0,0,0,0,0,-1,734,946,0,0
-483,78,0,0,0,0,0,0,0,0,0,-1,741,946,0,0
-476,78,0,0,0,0,0,0,0,0,0,-1,748,946,0,0
-469,78,0,0,0,0,0,0,0,0,0,-1,755,946,0,0
-462,78,0,0,0,0,0,0,0,0,0,-1,762,946,0,0
-455,78,0,0,0,0,0,0,0,0,0,-1,769,946,0,0
-448,78,0,0,0,0,0,0,0,0,0,-1,776,946,0,0
-441,78,0,0,0,0,0,0,0,0,0,-1,783,946,0,0
-434,78,0,0,0,0,0,0,0,0,0,-1,790,946,0,0
-427,78,0,0,0,0,0,0,0,0,0,-1,797,946,0,0
-420,78,0,0,0,0,0,0,0,0,0,-1,804,946,0,0
-413,78,0,0,0,0,0,0,0,0,0,-1,811,946,0,0
-406,78,0,0,0,0,0,0,0,0,0,-1,818,946,0,0
-399,78,0,0,0,0,0,0,0,0,0,-1,825,946,0,0
-392,78,0,0,0,0,0,0,0,0,0,-1,832,946,0,0
-385,78,0,0,0,0,0,0,0,0,0,-1,839,946,0,0
-378,78,0,0,0,0,0,0,0,0,0,-1,846,946,0,0
-371,78,0,0,0,0,0,0,0,0,0,-1,853,946,0,0
-364,78,0,0,0,0,0,0,0,0,0,-1,860,946,0,0
-357,78,0,0,0,0,0,0,0,0,0,-1,867,946,0,0
-350,78,0,0,0,0,0,0,0,0,0,-1,874,946,0,0
-343,78,0,0,0,0,0,0,0,0,0,-1,881,946,0,0
-336,78,0,0,0,0,0,0,0,0,0,-1,888,946,0,0
-329,78,0,0,0,0,0,0,0,0,0,-1,895,946,0,0
-322,78,0,0,0,0,0,0,0,0,0,-1,902,946,0,0
-315,78,0,0,0,0,0,0,0,0,0,-1,909,946,0,0
-308,78,0,0,0,0,0,0,0,0,0,-1,916,946,0,0
-301,78,0,0,0,0,0,0,0,0,0,-1,923,946,0,0
-294,78,0,0,0,0,0,0,0,0,0,-1,930,946,0,0
-287,78,0,0,0,0,0,0,0,0,0,-1,937,946,0,0
-280,78,0,0,0,0,0,0,0,0,0,-1,944,946,0,0
-273,78,0,0,0,0,0,0,0,0,0,-1,951,946,0,0
-266,78,0,0,0,0,0,0,0,0,0,-1,958,946,0,0
-259,78,0,0,0,0,0,0,0,0,0,-1,965,946,0,0
-252,78,0,0,0,0,0,0,0,0,0,-1,972,946,0,0
-245,78,0,0,0,0,0,0,0,0,0,-1,979,946,0,0
-238,78,0,0,0,0,0,0,0,0,0,-1,986,946,0,0
-231,78,0,0,0,0,0,0,0,0,0,-1,993,946,0,0
-224,78,0,0,0,0,0,0,0,0,0,-1,1000,946,0,0
-217,78,0,0,0,0,0,0,0,0,0,-1,1007,946,0,0
-210,78,0,0,0,0,0,0,0,0,0,-1,1014,946,0,0
-203,78,0,0,0,0,0,0,0,0,0,-1,1021,946,0,0
-196,78,0,0,0,0,0,0,0,0,0,-1,1028,946,0,0
-189,78,0,0,0,0,0,0,0,0,0,-1,1035,946,0,0
-182,78,0,0,0,0,0,0,0,0,0,-1,1042,946,0,0
-175,78,0,0,0,0,0,0,0,0,0,-1,1049,946,0,0
-168,78,0,0,0,0,0,0,0,0,0,-1,1056,946,0,0
-161,78,0,0,0,0,0,0,0,0,0,-1,1063,946,0,0
-154,78,0,0,0,0,0,0,0,0,0,-1,1070,946,0,0
-147,78,0,0,0,0,0,0,0,0,0,-1,1077,946,0,0
-140,78,0,0,0,0,0,0,0,0,0,-1,1084,946,0,0
-133,78,0,0,0,0,0,0,0,0,0,-1,1091,946,0,0
-126,78,0,0,0,0,0,0,0,0,0,-1,1098,946,0,0
-119,78,0,0,0,0,0,0,0,0,0,-1,1105,946,0,0
-112,78,0,0,0,0,0,0,0,0,0,-1,1112,946,0,0
-105,78,0,0,0,0,0,0,0,0,0,-1,1119,946,0,0
-98,78,0,0,0,0,0,0,0,0,0,-1,1126,946,0,0
-91,78,0,0,0,0,0,0,0,0,0,-1,1133,946,0,0
-84,78,0,0,0,0,0,0,0,0,0,-1,1140,946,0,0
-77,78,0,0,0,0,0,0,0,0,0,-1,1147,946,0,0
-70,78,0,0,0,0,0,0,0,0,0,-1,1154,946,0,0
-63,78,0,0,0,0,0,0,0,0,0,-1,1161,946,0,0
-56,78,0,0,0,0,0,0,0,0,0,-1,1168,946,0,0
-49,78,0,0,0,0,0,0,0,0,0,-1,1175,946,0,0
-42,78,0,0,0,0,0,0,0,0,0,-1,1182,946,0,0
-35,78,0,0,0,0,0,0,0,0,0,-1,1189,946,0,0
-28,78,0,0,0,0,0,0,0,0,0,-1,1196,946,0,0
-21,78,0,0,0,0,0,0,0,0,0,-1,1203,946,0,0
-14,78,0,0,0,0,0,0,0,0,0,-1,1210,946,0,0
-7,78,0,0,0,0,0,0,0,0,0,-1,1217,946,0,0
0,78,0,0,0,0,0,0,0,0,0,-1,1224,946,0,0
7,78,0,0,0,0,0,0,0,0,0,-1,1231,946,0,0
14,78,0,0,0,0,0,0,0,0,0,-1,1238,946,0,0
21,78,0,0,0,0,0,0,0,0,0,-1,1245,946,0,0
28,78,0,0,0,0,0,0,0,0,0,-1,1252,946,0,0
35,78,0,0,0,0,0,0,0,0,0,-1,1259,946,0,0
42,78,0,0,0,0,0,0,0,0,0,-1,1266,946,0,0
49,78,0,0,0,0,0,0,0,0,0,-1,1273,946,0,0
56,78,0,0,0,0,0,0,0,0,0,-1,1280,946,0,0
63,78,0,0,0,0,0,0,0,0,0,-1,1287,946,0,0
70,78,0,0,0,0,0,0,0,0,0,-1,1294,946,0,0
77,78,0,0,0,0,0,0,0,0,0,-1,1301,946,0,0
84,78,0,0,0,0,0,0,0,0,0,-1,1308,946,0,0
91,78,0,0,0,0,0,0,0,0,0,-1,1315,946,0,0
98,78,0,0,0,0,0,0,0,0,0,-1,1322,946,0,0
105,78,0,0,0,0,0,0,0,0,0,-1,1329,946,0,0
112,78,0,0,0,0,0,0,0,0,0,-1,1336,946,0,0
119,78,0,0,0,0,0,0,0,0,0,-1,1343,946,0,0
126,78,0,0,0,0,0,0,0,0,0,-1,1350,946,0,0
133,78,0,0,0,0,0,0,0,0,0,-1,1357,946,0,0
140,78,0,0,0,0,0,0,0,0,0,-1,1364,946,0,0
147,78,0,0,0,0,0,0,0,0,0,-1,1371,946,0,0
154,78,0,0,0,0,0,0,0,0,0,-1,1378,946,0,0
161,78,0,0,0,0,0,0,0,0,0,-1,1385,946,0,0
168,78,0,0,0,0,0,0,0,0,0,-1,1392,946,0,0
175,78,0,0,0,0,0,0,0,0,0,-1,1399,946,0,0
182,78,0,0,0,0,0,0,0,0,0,-1,1406,946,0,0
189,78,0,0,0,0,0,0,0,0,0,-1,1413,946,0,0
196,78,0,0,0,0,0,0,0,0,0,-1,1420,946,0,0
203,78,0,0,0,0,0,0,0,0,0,-1,1427,946,0,0
210,78,0,0,0,0,0,0,0,0,0,-1,1434,946,0,0
217,78,0,0,0,0,0,0,0,0,0,-1,1441,946,0,0
224,78,0,0,0,0,0,0,0,0,0,-1,1448,946,0,0
231,78,0,0,0,0,0,0,0,0,0,-1,1455,946,0,0
238,78,0,0,0,0,0,0,0,0,0,-1,1462,946,0,0
245,78,0,0,0,0,0,0,0,0,0,-1,1469,946,0,0
252,78,0,0,0,0,0,0,0,0,0,-1,1476,946,0,0
259,78,0,0,0,0,0,0,0,0,0,-1,1483,946,0,0
266,78,0,0,0,0,0,0,0,0,0,-1,1490,946,0,0
273,78,0,0,0,0,0,0,0,0,0,-1,1497,946,0,0
280,78,0,0,0,0,0,0,0,0,0,-1,1504,946,0,0
287,78,0,0,0,0,0,0,0,0,0,-1,1511,946,0,0
294,78,0,0,0,0,0,0,0,0,0,-1,1518,946,0,0
301,78,0,0,0,0,0,0,0,0,0,-1,1525,946,0,0
308,78,0,0,0,0,0,0,0,0,0,-1,1532,946,0,0
315,78,0,0,0,0,0,0,0,0,0,-1,1539,946,0,0
322,78,0,0,0,0,0,0,0,0,0,-1,1546,946,0,0
329,78,0,0,0,0,0,0,0,0,0,-1,1553,946,0,0
336,78,0,0,0,0,0,0,0,0,0,-1,1560,946,0,0
343,78,0,0,0,0,0,0,0,0,0,-1,1567,946,0,0
350,78,0,0,0,0,0,0,0,0,0,-1,1574,946,0,0
357,78,0,0,0,0,0,0,0,0,0,-1,1581,946,0,0
364,78,0,0,0,0,0,0,0,0,0,-1,1588,946,0,0
371,78,0,0,0,0,0,0,0,0,0,-1,1595,946,0,0
378,78,0,0,0,0,0,0,0,0,0,-1,1602,946,0,0
385,78,0,0,0,0,0,0,0,0,0,-1,1609,946,0,0
392,78,0,0,0,0,0,0,0,0,0,-1,1616,946,0,0
399,78,0,0,0,0,0,0,0,0,0,-1,1623,946,0,0
406,78,0,0,0,0,0,0,0,0,0,-1,1630,946,0,0
413,78,0,0,0,0,0,0,0,0,0,-1,1637,946,0,0
420,78,0,0,0,0,0,0,0,0,0,-1,1644,946,0,0
427,78,0,0,0,0,0,0,0,0,0,-1,1651,946,0,0
434,78,0,0,0,0,0,0,0,0,0,-1,1658,946,0,0
441,78,0,0,0,0,0,0,0,0,0,-1,1665,946,0,0
448,78,0,0,0,0,0,0,0,0,0,-1,1672,946,0,0
455,78,0,0,0,0,0,0,0,0,0,-1,1679,946,0,0
462,78,0,0,0,0,0,0,0,0,0,-1,1686,946,0,0
469,78,0,0,0,0,0,0,0,0,0,-1,1693,946,0,0
476,78,0,0,0,0,0,0,0,0,0,-1,1700,946,0,0
483,78,0,0,0,0,0,0,0,0,0,-1,1707,946,0,0
490,78,0,0,0,0,0,0,0,0,0,-1,1714,946,0,0
497,78,0,0,0,0,0,0,0,0,0,-1,1721,946,0,0
504,78,0,0,0,0,0,0,0,0,0,-1,1728,946,0,0
511,78,0,0,0,0,0,0,0,0,0,-1,1735,946,0,0
518,78,0,0,0,0,0,0,0,0,0,-1,1742,946,0,0
525,78,0,0,0,0,0,0,0,0,0,-1,1749,946,0,0
532,78,0,0,0,0,0,0,0,0,0,-1,1756,946,0,0
539,78,0,0,0,0,0,0,0,0,0,-1,1763,946,0,0
546,78,0,0,0,0,0,0,0,0,0,-1,1770,946,0,0
553,78,0,0,0,0,0,0,0,0,0,-1,1777,946,0,0
560,78,0,0,0,0,0,0,0,0,0,-1,1784,946,0,0
567,78,0,0,0,0,0,0,0,0,0,-1,1791,946,0,0
574,78,0,0,0,0,0,0,0,0,0,-1,1798,946,0,0
581,78,0,0,0,0,0,0,0,0,0,-1,1805,946,0,0
588,78,0,0,0,0,0,0,0,0,0,-1,1812,946,0,0
595,78,0,0,0,0,0,0,0,0,0,-1,1819,946,0,0
602,78,0,0,0,0,0,0,0,0,0,-1,1826,946,0,0
609,78,0,0,0,0,0,0,0,0,0,-1,1833,946,0,0
616,78,0,0,0,0,0,0,0,0,0,-1,1840,946,0,0
623,78,0,0,0,0,0,0,0,0,0,-1,1847,946,0,0
630,78,0,0,0,0,0,0,0,0,0,-1,1854,946,0,0
637,78,70.2992,2.224,0.0065465,-0.00506494,0.00304765,0.0072978,-0.00581624,0.2417,0.00758748,0.047159,1861,946,70.2992,-2.22398
644,78,70.4103,2.30811,0.00496558,-0.00351633,0.00174226,0.00530951,-0.00386026,0.194898,0.00531616,0.0451612,1868,946,70.4103,-2.30813
651,78,70.575,1.8891,0.00362394,-0.0025318,0.000992336,0.00377995,-0.00268782,0.155944,0.00375187,0.042885,1875,946,70.575,-1.88913
658,78,70.526,2.21191,0.00270377,-0.0018333,0.000528925,0.00276461,-0.00189415,0.114532,0.00270534,0.0402572,1882,946,70.526,-2.21191
665,78,70.5376,2.45026,0.00202269,-0.00130112,0.000215643,0.00203662,-0.00131505,0.0645177,0.00194998,0.0395489,1889,946,70.5376,-2.45026
672,78,70.6842,2.44922,0.00102906,-0.00119445,0.000172995,0.00104244,-0.00120783,0.0771837,0.00130037,0.039712,1896,946,70.6842,-2.44923
679,78,70.8278,2.35724,0.00010208,-0.00147494,0.000268191,0.000146441,-0.0015193,0.163925,0.00106504,0.0400654,1903,946,70.8278,-2.35724
686,78,70.6556,2.34235,-0.000506067,-0.00176422,0.000113446,-0.000495919,-0.00177437,0.0892098,0.00105712,0.0370273,1910,946,70.6556,-2.34233
693,78,70.5403,2.29791,-0.00110531,-0.00184139,-0.000216804,-0.0010462,-0.0019005,-0.266175,0.00109911,0.0336782,1917,946,70.5403,-2.2979
700,78,70.5372,2.25134,-0.00190896,-0.00167793,-0.000453951,-0.00132503,-0.00226186,-0.909986,0.00131228,0.0330971,1924,946,70.5372,-2.25136
707,78,70.6442,2.35962,0,0,0,0,0,0,0,-1,1931,946,70.6442,-2.35961
714,78,67.6312,4.36383,0,0,0,0,0,0,0,-1,1938,946,67.6312,-4.36386
721,78,67.4297,4.9837,-0.00417199,0.000198006,-0.00157697,0.000707644,-0.00468163,-1.25822,0.00338174,0.0339902,1945,946,67.4297,-4.9837
728,78,67.3076,5.7771,-0.00513063,0.001292,-0.00197763,0.0018521,-0.00569073,-1.29481,0.00453894,0.0423742,1952,946,67.3076,-5.7771
735,78,67.3673,6.23053,-0.00582889,0.0026379,-0.00264676,0.0033972,-0.00658819,-1.29142,0.00586237,0.0287655,1959,946,67.3673,-6.23053
742,78,67.3486,6.71149,-0.00637983,0.00460769,-0.00337817,0.00556323,-0.00733537,-1.29514,0.0074704,0.0211606,1966,946,67.3487,-6.71149
749,78,67.1959,7.23389,-0.00698043,0.00818093,-0.00406745,0.0092032,-0.0080027,-1.32457,0.00994189,0.0166813,1973,946,67.1959,-7.2339
756,78,67.1182,7.72388,-0.00743986,0.0127109,-0.00464471,0.01373,-0.00845892,-1.35482,0.0129307,0.0160854,1980,946,67.1182,-7.72386
763,78,67.0051,8.18774,-0.00743552,0.0182036,-0.00497778,0.0191361,-0.00836803,-1.38561,0.0162802,0.0176289,1987,946,67.0052,-8.18773
770,78,66.8516,8.63116,-0.0071644,0.0240928,-0.00503036,0.0248824,-0.00795401,-1.4151,0.0197801,0.0244997,1994,946,66.8515,-8.63119
777,78,66.635,9.09283,-0.00702893,0.0307913,-0.00443063,0.0313034,-0.00754104,-1.45572,0.0237845,0.0458565,2001,946,66.6351,-9.09285
784,78,66.4712,9.57172,0,0,0,0,0,0,0,-1,2008,946,66.4713,-9.57172
791,78,65.4421,10.9893,0,0,0,0,0,0,0,-1,2015,946,65.4421,-10.9893
798,78,67.9287,7.90448,0,0,0,0,0,0,0,-1,2022,946,67.9287,-7.90446
805,78,68.5852,7.34106,0,0,0,0,0,0,0,-1,2029,946,68.5853,-7.34105
812,78,0,0,0,0,0,0,0,0,0,-1,2036,946,0,0
-700,71,0,0,0,0,0,0,0,0,0,-1,524,953,0,0
-693,71,0,0,0,0,0,0,0,0,0,-1,531,953,0,0
-686,71,-48.9455,12.9092,0,0,0,0,0,0,0,-1,538,953,-48.9455,-12.9092
-679,71,-49.678,11.8161,0,0,0,0,0,0,0,-1,545,953,-49.678,-11.8161
-672,71,-51.0284,9.49609,0,0,0,0,0,0,0,-1,552,953,-51.0284,-9.49611
-665,71,-51.4463,9.0191,-0.0168247,-0.0223468,0.0022993,-0.0159927,-0.0231788,0.347198,0.0137005,0.0468278,559,953,-51.4462,-9.01908
-658,71,-51.7511,8.45013,-0.0170521,-0.00989144,0.00267828,-0.00900054,-0.017943,1.24967,0.0103594,0.047615,566,953,-51.7511,-8.45016
-651,71,-51.8471,7.95746,-0.0161077,-0.00100932,0.00312061,-0.000389759,-0.0167272,1.37481,0.0110239,0.0442598,573,953,-51.8471,-7.95745
-644,71,-52.2051,7.45056,-0.0144867,0.0045692,0.00350927,0.00519491,-0.0151124,1.39435,0.0121816,0.036428,580,953,-52.2051,-7.45056
-637,71,-52.6763,6.88947,-0.0123982,0.00728207,0.00387648,0.00801811,-0.0131342,1.38316,0.0123308,0.0211582,587,953,-52.6763,-6.88948
-630,71,-52.8238,6.34851,-0.0100643,0.00834227,0.00412356,0.00922384,-0.0109459,1.36018,0.0116591,0.0186788,594,953,-52.8238,-6.3485
-623,71,-52.864,5.86163,-0.00731073,0.00692377,0.00419522,0.00806819,-0.00845515,1.30449,0.00954063,0.0158883,601,953,-52.864,-5.86164
-616,71,-52.9152,5.35321,-0.0049205,0.00508761,0.00380045,0.00636719,-0.00620007,1.24603,0.00725592,0.0158937,608,953,-52.9152,-5.35321
-609,71,-52.9048,4.88104,-0.00319723,0.00311404,0.00353084,0.0046939,-0.00477709,1.15007,0.00546815,0.0165729,615,953,-52.9049,-4.88106
-602,71,-52.8959,4.40503,-0.00197962,0.00183207,0.00303749,0.00351211,-0.00365966,1.06557,0.00414091,0.0183126,622,953,-52.8959,-4.40501
-595,71,-52.8876,3.95593,-0.000910707,0.00110448,0.00274477,0.00302076,-0.00282698,0.961309,0.00337681,0.0224635,629,953,-52.8876,-3.95593
-588,71,-52.8582,3.4989,-0.000119288,0.000277088,0.0024226,0.00250959,-0.00235179,0.826211,0.00280722,0.0295355,636,953,-52.8582,-3.49889
-581,71,-52.6425,2.91864,0,0,0,0,0,0,0,-1,643,953,-52.6424,-2.91863
-574,71,-54.729,0.439087,0,0,0,0,0,0,0,-1,650,953,-54.729,-0.439068
-567,71,-54.6842,0.462769,-2.60351e-05,3.99715e-05,0.000640252,0.00064807,-0.000634133,0.811149,0.000740295,0.0197927,657,953,-54.6842,-0.462798
-560,71,-54.7182,0.491821,-0.00050855,0.000811486,0.000176918,0.000834786,-0.000531851,1.43985,0.000795464,0.0266921,664,953,-54.7182,-0.491819
-553,71,-54.6812,0.521545,-0.0011449,0.00195554,-0.000250542,0.00197565,-0.00116501,-1.49068,0.00183329,0.038425,671,953,-54.6812,-0.52152
-546,71,-54.7053,0.617126,-0.00200998,0.00341161,-0.000642706,0.00348675,-0.00208513,-1.4544,0.00325068,0.0404488,678,953,-54.7052,-0.617113
-539,71,-54.7281,0.655701,-0.00342261,0.00488326,-0.00103595,0.00501052,-0.00354987,-1.44857,0.00496627,0.040565,685,953,-54.7281,-0.655678
-532,71,-54.7986,0.536072,-0.00534915,0.00580806,-0.00144447,0.00599203,-0.00553313,-1.44411,0.00665581,0.04381,692,953,-54.7986,-0.536094
-525,71,-54.8996,0.147827,-0.00772965,0.00697552,-0.00196493,0.00723355,-0.00798768,-1.44023,0.00879158,0.0436869,699,953,-54.8996,-0.147831
-518,71,0,0,0,0,0,0,0,0,0,-1,706,953,0,0
-511,71,0,0,0,0,0,0,0,0,0,-1,713,953,0,0
-504,71,0,0,0,0,0,0,0,0,0,-1,720,953,0,0
-497,71,0,0,0,0,0,0,0,0,0,-1,727,953,0,0
-490,71,0,0,0,0,0,0,0,0,0,-1,734,953,0,0
-483,71,0,0,0,0,0,0,0,0,0,-1,741,953,0,0
-476,71,0,0,0,0,0,0,0,0,0,-1,748,953,0,0
-469,71,0,0,0,0,0,0,0,0,0,-1,755,953,0,0
-462,71,0,0,0,0,0,0,0,0,0,-1,762,953,0,0
-455,71,0,0,0,0,0,0,0,0,0,-1,769,953,0,0
-448,71,0,0,0,0,0,0,0,0,0,-1,776,953,0,0
-441,71,0,0,0,0,0,0,0,0,0,-1,783,953,0,0
-434,71,0,0,0,0,0,0,0,0,0,-1,790,953,0,0
-427,71,0,0,0,0,0,0,0,0,0,-1,797,953,0,0
-420,71,0,0,0,0,0,0,0,0,0,-1,804,953,0,0
-413,71,0,0,0,0,0,0,0,0,0,-1,811,953,0,0
-406,71,0,0,0,0,0,0,0,0,0,-1,818,953,0,0
-399,71,0,0,0,0,0,0,0,0,0,-1,825,953,0,0
-392,71,0,0,0,0,0,0,0,0,0,-1,832,953,0,0
-385,71,0,0,0,0,0,0,0,0,0,-1,839,953,0,0
-378,71,0,0,0,0,0,0,0,0,0,-1,846,953,0,0
-371,71,0,0,0,0,0,0,0,0,0,-1,853,953,0,0
-364,71,0,0,0,0,0,0,0,0,0,-1,860,953,0,0
-357,71,0,0,0,0,0,0,0,0,0,-1,867,953,0,0
-350,71,0,0,0,0,0,0,0,0,0,-1,874,953,0,0
-343,71,0,0,0,0,0,0,0,0,0,-1,881,953,0,0
-336,71,0,0,0,0,0,0,0,0,0,-1,888,953,0,0
-329,71,0,0,0,0,0,0,0,0,0,-1,895,953,0,0
-322,71,0,0,0,0,0,0,0,0,0,-1,902,953,0,0
-315,71,0,0,0,0,0,0,0,0,0,-1,909,953,0,0
-308,71,0,0,0,0,0,0,0,0,0,-1,916,953,0,0
-301,71,0,0,0,0,0,0,0,0,0,-1,923,953,0,0
-294,71,0,0,0,0,0,0,0,0,0,-1,930,953,0,0
-287,71,0,0,0,0,0,0,0,0,0,-1,937,953,0,0
-280,71,0,0,0,0,0,0,0,0,0,-1,944,953,0,0
-273,71,0,0,0,0,0,0,0,0,0,-1,951,953,0,0
-266,71,0,0,0,0,0,0,0,0,0,-1,958,953,0,0
-259,71,0,0,0,0,0,0,0,0,0,-1,965,953,0,0
-252,71,0,0,0,0,0,0,0,0,0,-1,972,953,0,0
-245,71,0,0,0,0,0,0,0,0,0,-1,979,953,0,0
-238,71,0,0,0,0,0,0,0,0,0,-1,986,953,0,0
-231,71,0,0,0,0,0,0,0,0,0,-1,993,953,0,0
-224,71,0,0,0,0,0,0,0,0,0,-1,1000,953,0,0
-217,71,0,0,0,0,0,0,0,0,0,-1,1007,953,0,0
-210,71,0,0,0,0,0,0,0,0,0,-1,1014,953,0,0
-203,71,0,0,0,0,0,0,0,0,0,-1,1021,953,0,0
-196,71,0,0,0,0,0,0,0,0,0,-1,1028,953,0,0
-189,71,0,0,0,0,0,0,0,0,0,-1,1035,953,0,0
-182,71,0,0,0,0,0,0,0,0,0,-1,1042,953,0,0
-175,71,0,0,0,0,0,0,0,0,0,-1,1049,953,0,0
-168,71,0,0,0,0,0,0,0,0,0,-1,1056,953,0,0
-161,71,0,0,0,0,0,0,0,0,0,-1,1063,953,0,0
-154,71,0,0,0,0,0,0,0,0,0,-1,1070,953,0,0
-147,71,0,0,0,0,0,0,0,0,0,-1,1077,953,0,0
-140,71,0,0,0,0,0,0,0,0,0,-1,1084,953,0,0
-133,71,0,0,0,0,0,0,0,0,0,-1,1091,953,0,0
-126,71,0,0,0,0,0,0,0,0,0,-1,1098,953,0,0
-119,71,0,0,0,0,0,0,0,0,0,-1,1105,953,0,0
-112,71,0,0,0,0,0,0,0,0,0,-1,1112,953,0,0
-105,71,0,0,0,0,0,0,0,0,0,-1,1119,953,0,0
-98,71,0,0,0,0,0,0,0,0,0,-1,1126,953,0,0
-91,71,0,0,0,0,0,0,0,0,0,-1,1133,953,0,0
-84,71,0,0,0,0,0,0,0,0,0,-1,1140,953,0,0
-77,71,0,0,0,0,0,0,0,0,0,-1,1147,953,0,0
-70,71,0,0,0,0,0,0,0,0,0,-1,1154,953,0,0
-63,71,0,0,0,0,0,0,0,0,0,-1,1161,953,0,0
-56,71,0,0,0,0,0,0,0,0,0,-1,1168,953,0,0
-49,71,0,0,0,0,0,0,0,0,0,-1,1175,953,0,0
-42,71,0,0,0,0,0,0,0,0,0,-1,1182,953,0,0
-35,71,0,0,0,0,0,0,0,0,0,-1,1189,953,0,0
-28,71,0,0,0,0,0,0,0,0,0,-1,1196,953,0,0
-21,71,0,0,0,0,0,0,0,0,0,-1,1203,953,0,0
-14,71,0,0,0,0,0,0,0,0,0,-1,1210,953,0,0
-7,71,0,0,0,0,0,0,0,0,0,-1,1217,953,0,0
0,71,0,0,0,0,0,0,0,0,0,-1,1224,953,0,0
7,71,0,0,0,0,0,0,0,0,0,-1,1231,953,0,0
14,71,0,0,0,0,0,0,0,0,0,-1,1238,953,0,0
21,71,0,0,0,0,0,0,0,0,0,-1,1245,953,0,0
28,71,0,0,0,0,0,0,0,0,0,-1,1252,953,0,0
35,71,0,0,0,0,0,0,0,0,0,-1,1259,953,0,0
42,71,0,0,0,0,0,0,0,0,0,-1,1266,953,0,0
49,71,0,0,0,0,0,0,0,0,0,-1,1273,953,0,0
56,71,0,0,0,0,0,0,0,0,0,-1,1280,953,0,0
63,71,0,0,0,0,0,0,0,0,0,-1,1287,953,0,0
70,71,0,0,0,0,0,0,0,0,0,-1,1294,953,0,0
77,71,0,0,0,0,0,0,0,0,0,-1,1301,953,0,0
84,71,0,0,0,0,0,0,0,0,0,-1,1308,953,0,0
91,71,0,0,0,0,0,0,0,0,0,-1,1315,953,0,0
98,71,0,0,0,0,0,0,0,0,0,-1,1322,953,0,0
105,71,0,0,0,0,0,0,0,0,0,-1,1329,953,0,0
112,71,0,0,0,0,0,0,0,0,0,-1,1336,953,0,0
119,71,0,0,0,0,0,0,0,0,0,-1,1343,953,0,0
126,71,0,0,0,0,0,0,0,0,0,-1,1350,953,0,0
133,71,0,0,0,0,0,0,0,0,0,-1,1357,953,0,0
140,71,0,0,0,0,0,0,0,0,0,-1,1364,953,0,0
147,71,0,0,0,0,0,0,0,0,0,-1,1371,953,0,0
154,71,0,0,0,0,0,0,0,0,0,-1,1378,953,0,0
161,71,0,0,0,0,0,0,0,0,0,-1,1385,953,0,0
168,71,0,0,0,0,0,0,0,0,0,-1,1392,953,0,0
175,71,0,0,0,0,0,0,0,0,0,-1,1399,953,0,0
182,71,0,0,0,0,0,0,0,0,0,-1,1406,953,0,0
189,71,0,0,0,0,0,0,0,0,0,-1,1413,953,0,0
196,71,0,0,0,0,0,0,0,0,0,-1,1420,953,0,0
203,71,0,0,0,0,0,0,0,0,0,-1,1427,953,0,0
210,71,0,0,0,0,0,0,0,0,0,-1,1434,953,0,0
217,71,0,0,0,0,0,0,0,0,0,-1,1441,953,0,0
224,71,0,0,0,0,0,0,0,0,0,-1,1448,953,0,0
231,71,0,0,0,0,0,0,0,0,0,-1,1455,953,0,0
238,71,0,0,0,0,0,0,0,0,0,-1,1462,953,0,0
245,71,0,0,0,0,0,0,0,0,0,-1,1469,953,0,0
252,71,0,0,0,0,0,0,0,0,0,-1,1476,953,0,0
259,71,0,0,0,0,0,0,0,0,0,-1,1483,953,0,0
266,71,0,0,0,0,0,0,0,0,0,-1,1490,953,0,0
273,71,0,0,0,0,0,0,0,0,0,-1,1497,953,0,0
280,71,0,0,0,0,0,0,0,0,0,-1,1504,953,0,0
287,71,0,0,0,0,0,0,0,0,0,-1,1511,953,0,0
294,71,0,0,0,0,0,0,0,0,0,-1,1518,953,0,0
301,71,0,0,0,0,0,0,0,0,0,-1,1525,953,0,0
308,71,0,0,0,0,0,0,0,0,0,-1,1532,953,0,0
315,71,0,0,0,0,0,0,0,0,0,-1,1539,953,0,0
322,71,0,0,0,0,0,0,0,0,0,-1,1546,953,0,0
329,71,0,0,0,0,0,0,0,0,0,-1,1553,953,0,0
336,71,0,0,0,0,0,0,0,0,0,-1,1560,953,0,0
343,71,0,0,0,0,0,0,0,0,0,-1,1567,953,0,0
350,71,0,0,0,0,0,0,0,0,0,-1,1574,953,0,0
357,71,0,0,0,0,0,0,0,0,0,-1,1581,953,0,0
364,71,0,0,0,0,0,0,0,0,0,-1,1588,953,0,0
371,71,0,0,0,0,0,0,0,0,0,-1,1595,953,0,0
378,71,0,0,0,0,0,0,0,0,0,-1,1602,953,0,0
385,71,0,0,0,0,0,0,0,0,0,-1,1609,953,0,0
392,71,0,0,0,0,0,0,0,0,0,-1,1616,953,0,0
399,71,0,0,0,0,0,0,0,0,0,-1,1623,953,0,0
406,71,0,0,0,0,0,0,0,0,0,-1,1630,953,0,0
413,71,0,0,0,0,0,0,0,0,0,-1,1637,953,0,0
420,71,0,0,0,0,0,0,0,0,0,-1,1644,953,0,0
427,71,0,0,0,0,0,0,0,0,0,-1,1651,953,0,0
434,71,0,0,0,0,0,0,0,0,0,-1,1658,953,0,0
441,71,0,0,0,0,0,0,0,0,0,-1,1665,953,0,0
448,71,0,0,0,0,0,0,0,0,0,-1,1672,953,0,0
455,71,0,0,0,0,0,0,0,0,0,-1,1679,953,0,0
462,71,0,0,0,0,0,0,0,0,0,-1,1686,953,0,0
469,71,0,0,0,0,0,0,0,0,0,-1,1693,953,0,0
476,71,0,0,0,0,0,0,0,0,0,-1,1700,953,0,0
483,71,0,0,0,0,0,0,0,0,0,-1,1707,953,0,0
490,71,0,0,0,0,0,0,0,0,0,-1,1714,953,0,0
497,71,0,0,0,0,0,0,0,0,0,-1,1721,953,0,0
504,71,0,0,0,0,0,0,0,0,0,-1,1728,953,0,0
511,71,0,0,0,0,0,0,0,0,0,-1,1735,953,0,0
518,71,0,0,0,0,0,0,0,0,0,-1,1742,953,0,0
525,71,0,0,0,0,0,0,0,0,0,-1,1749,953,0,0
532,71,0,0,0,0,0,0,0,0,0,-1,1756,953,0,0
539,71,0,0,0,0,0,0,0,0,0,-1,1763,953,0,0
546,71,0,0,0,0,0,0,0,0,0,-1,1770,953,0,0
553,71,0,0,0,0,0,0,0,0,0,-1,1777,953,0,0
560,71,0,0,0,0,0,0,0,0,0,-1,1784,953,0,0
567,71,0,0,0,0,0,0,0,0,0,-1,1791,953,0,0
574,71,0,0,0,0,0,0,0,0,0,-1,1798,953,0,0
581,71,0,0,0,0,0,0,0,0,0,-1,1805,953,0,0
588,71,0,0,0,0,0,0,0,0,0,-1,1812,953,0,0
595,71,0,0,0,0,0,0,0,0,0,-1,1819,953,0,0
602,71,0,0,0,0,0,0,0,0,0,-1,1826,953,0,0
609,71,0,0,0,0,0,0,0,0,0,-1,1833,953,0,0
616,71,0,0,0,0,0,0,0,0,0,-1,1840,953,0,0
623,71,0,0,0,0,0,0,0,0,0,-1,1847,953,0,0
630,71,0,0,0,0,0,0,0,0,0,-1,1854,953,0,0
637,71,70.2325,2.27008,0.00696655,-0.00539489,0.00265566,0.00751292,-0.00594127,0.202909,0.00778543,0.0439465,1861,953,70.2326,-2.2701
644,71,70.3269,2.31641,0.00525694,-0.00363768,0.00148132,0.00549716,-0.0038779,0.160763,0.00543953,0.0462049,1868,953,70.3269,-2.3164
651,71,70.6599,2.35791,0.00378213,-0.00249602,0.000815518,0.00388633,-0.00260022,0.127088,0.00376947,0.0424608,1875,953,70.6599,-2.35793
658,71,70.6334,2.37067,0.00279515,-0.00170437,0.000436839,0.00283716,-0.00174639,0.0958925,0.00267118,0.0391734,1882,953,70.6334,-2.3707
665,71,70.5906,2.35144,0.00207639,-0.00109631,0.000178929,0.00208645,-0.00110636,0.0561592,0.0018721,0.0395389,1889,953,70.5905,-2.35146
672,71,70.4729,2.5921,0.00110297,-0.000877439,0.000157419,0.0011154,-0.000889874,0.0788286,0.00116019,0.0404338,1896,953,70.4728,-2.59208
679,71,70.5508,2.55011,0.00020739,-0.00107675,0.000282294,0.000266707,-0.00113607,0.207112,0.000860174,0.0392797,1903,953,70.5508,-2.55011
686,71,70.5685,2.20007,-0.000347015,-0.0013857,0.000177393,-0.000317554,-0.00141516,0.164574,0.000857418,0.0377179,1910,953,70.5685,-2.20009
693,71,70.532,2.15295,-0.000926809,-0.0015269,-0.000107233,-0.000908223,-0.00154549,-0.171621,0.000896846,0.0341605,1917,953,70.5319,-2.15292
700,71,70.5414,2.22217,-0.00172943,-0.00140083,-0.000336233,-0.0011909,-0.00193936,-1.01266,0.00112936,0.039386,1924,953,70.5413,-2.22219
707,71,70.6127,2.34589,0,0,0,0,0,0,0,-1,1931,953,70.6126,-2.3459
714,71,68.4971,4.4552,0,0,0,0,0,0,0,-1,1938,953,68.4971,-4.45519
721,71,68.1239,5.06506,-0.00406793,0.000494763,-0.00146123,0.000922613,-0.00449578,-1.28596,0.00334738,0.0395064,1945,953,68.1239,-5.06505
728,71,67.8359,5.77545,-0.00505698,0.00162212,-0.00186088,0.00210559,-0.00554045,-1.31661,0.00456051,0.0348154,1952,953,67.8359,-5.77546
735,71,67.8396,6.31018,-0.00579349,0.00297452,-0.00252184,0.0036481,-0.00646707,-1.30979,0.00591511,0.023761,1959,953,67.8396,-6.31016
742,71,67.881,6.74438,-0.00644893,0.00490843,-0.00318073,0.00573855,-0.00727905,-1.31551,0.00753323,0.0233778,1966,953,67.881,-6.74437
749,71,67.8169,7.19904,-0.00719028,0.0085488,-0.00378723,0.00941268,-0.00805417,-1.34653,0.0100947,0.0211032,1973,953,67.8169,-7.19904
756,71,67.7476,7.63586,-0.00784635,0.0131708,-0.00431567,0.0140225,-0.00869802,-1.37596,0.0132372,0.0204324,1980,953,67.7476,-7.63586
763,71,67.6545,8.11505,-0.00797025,0.0190569,-0.00455197,0.0198029,-0.00871631,-1.40834,0.0168752,0.0226174,1987,953,67.6546,-8.11503
770,71,67.3457,8.48535,-0.00770276,0.0255587,-0.00446491,0.0261476,-0.00829168,-1.43965,0.0207553,0.0260659,1994,953,67.3456,-8.48535
777,71,67.0896,8.83636,-0.00733257,0.0330365,-0.0037188,0.0333762,-0.00767229,-1.4797,0.0252006,0.0465205,2001,953,67.0895,-8.83636
784,71,66.9177,8.93268,-0.00556265,0.0421789,-0.00195813,0.042259,-0.00564283,-1.52987,0.0302297,0.047002,2008,953,66.9177,-8.93265
791,71,66.5613,9.12219,0,0,0,0,0,0,0,-1,2015,953,66.5614,-9.12219
798,71,65.5405,11.3743,0,0,0,0,0,0,0,-1,2022,953,65.5404,-11.3743
805,71,59.978,6.41992,0,0,0,0,0,0,0,-1,2029,953,59.9781,-6.41992
812,71,0,0,0,0,0,0,0,0,0,-1,2036,953,0,0
-700,64,0,0,0,0,0,0,0,0,0,-1,524,960,0,0
-693,64,0,0,0,0,0,0,0,0,0,-1,531,960,0,0
-686,64,-48.6843,11.6387,0,0,0,0,0,0,0,-1,538,960,-48.6843,-11.6388
-679,64,-49.3788,10.509,0,0,0,0,0,0,0,-1,545,960,-49.3788,-10.509
-672,64,-50.3205,9.5116,0,0,0,0,0,0,0,-1,552,960,-50.3205,-9.51162
-665,64,-51.1315,8.34467,0,0,0,0,0,0,0,-1,559,960,-51.1315,-8.34464
-658,64,-51.6932,8.14941,0,0,0,0,0,0,0,-1,566,960,-51.6932,-8.1494
-651,64,-53.2158,7.56458,0,0,0,0,0,0,0,-1,573,960,-53.2158,-7.56459
-644,64,-53.2521,7.09686,-0.0159622,0.00841658,0.00281858,0.00873821,-0.0162839,1.45718,0.0146638,0.0365184,580,960,-53.2521,-7.09688
-637,64,-53.2925,6.6181,-0.0135021,0.0100466,0.00342871,0.0105356,-0.0139911,1.42911,0.0142073,0.0202686,587,960,-53.2925,-6.61812
-630,64,-53.3686,6.2088,-0.0109242,0.0101008,0.00382725,0.0107758,-0.0115992,1.39622,0.0129211,0.016144,594,960,-53.3686,-6.20882
-623,64,-53.4056,5.81543,-0.0081337,0.00794861,0.00396355,0.00887238,-0.00905748,1.34182,0.010352,0.0152917,601,960,-53.4056,-5.81546
-616,64,-53.4571,5.38397,-0.0057953,0.00562161,0.00360389,0.00666405,-0.00683773,1.28923,0.00779547,0.0191785,608,960,-53.4571,-5.38399
-609,64,-53.4373,4.96057,-0.00409366,0.00345386,0.00333032,0.00471322,-0.00535302,1.20927,0.00581566,0.0197052,615,960,-53.4373,-4.96057
-602,64,-53.4188,4.50854,-0.00285255,0.0020515,0.0028618,0.00336807,-0.00416912,1.13962,0.00435978,0.0190427,622,960,-53.4188,-4.50856
-595,64,-53.4313,4.11584,-0.00170154,0.00122055,0.00258215,0.00272635,-0.00320734,1.04285,0.00342957,0.0275602,629,960,-53.4313,-4.11582
-588,64,-53.2776,3.76685,-0.000784702,0.000268161,0.00224777,0.00205033,-0.00256687,0.900426,0.00267129,0.0431329,636,960,-53.2777,-3.76685
-581,64,-53.0159,3.31268,0,0,0,0,0,0,0,-1,643,960,-53.0159,-3.31268
-574,64,-54.7028,0.379822,0,0,0,0,0,0,0,-1,650,960,-54.7028,-0.379799
-567,64,-54.6644,0.436035,-0.000461859,-0.000141468,0.000465331,0.00019047,-0.000793797,0.951175,0.000602803,0.025399,657,960,-54.6644,-0.436065
-560,64,-54.7473,0.541748,-0.000812342,0.000641973,1.58961e-05,0.000642146,-0.000812516,1.55987,0.000841767,0.0342573,664,960,-54.7473,-0.541756
-553,64,-54.559,0.366089,-0.00131335,0.00179735,-0.000383613,0.00184396,-0.00135996,-1.44989,0.00185681,0.0394108,671,960,-54.5589,-0.366103
-546,64,-54.4802,0.291443,-0.00206241,0.00318316,-0.00073207,0.00328342,-0.00216267,-1.4347,0.00316641,0.0411432,678,960,-54.4802,-0.291471
-539,64,-54.6782,0.50531,-0.00343657,0.00438493,-0.00106859,0.0045283,-0.00357994,-1.43743,0.00469195,0.0417723,685,960,-54.6782,-0.505297
-532,64,-54.8241,0.573914,-0.00535522,0.00481673,-0.00144987,0.00501935,-0.00555785,-1.43194,0.00610939,0.0418147,692,960,-54.8241,-0.573895
-525,64,-54.8818,0.454834,-0.00775155,0.00546034,-0.0019764,0.00574966,-0.00804087,-1.42544,0.00799851,0.0421367,699,960,-54.8818,-0.454818
-518,64,0,0,0,0,0,0,0,0,0,-1,706,960,0,0
-511,64,0,0,0,0,0,0,0,0,0,-1,713,960,0,0
-504,64,0,0,0,0,0,0,0,0,0,-1,720,960,0,0
-497,64,0,0,0,0,0,0,0,0,0,-1,727,960,0,0
-490,64,0,0,0,0,0,0,0,0,0,-1,734,960,0,0
-483,64,0,0,0,0,0,0,0,0,0,-1,741,960,0,0
-476,64,0,0,0,0,0,0,0,0,0,-1,748,960,0,0
-469,64,0,0,0,0,0,0,0,0,0,-1,755,960,0,0
-462,64,0,0,0,0,0,0,0,0,0,-1,762,960,0,0
-455,64,0,0,0,0,0,0,0,0,0,-1,769,960,0,0
-448,64,0,0,0,0,0,0,0,0,0,-1,776,960,0,0
-441,64,0,0,0,0,0,0,0,0,0,-1,783,960,0,0
-434,64,0,0,0,0,0,0,0,0,0,-1,790,960,0,0
-427,64,0,0,0,0,0,0,0,0,0,-1,797,960,0,0
-420,64,0,0,0,0,0,0,0,0,0,-1,804,960,0,0
-413,64,0,0,0,0,0,0,0,0,0,-1,811,960,0,0
-406,64,0,0,0,0,0,0,0,0,0,-1,818,960,0,0
-399,64,0,0,0,0,0,0,0,0,0,-1,825,960,0,0
-392,64,0,0,0,0,0,0,0,0,0,-1,832,960,0,0
-385,64,0,0,0,0,0,0,0,0,0,-1,839,960,0,0
-378,64,0,0,0,0,0,0,0,0,0,-1,846,960,0,0
-371,64,0,0,0,0,0,0,0,0,0,-1,853,960,0,0
-364,64,0,0,0,0,0,0,0,0,0,-1,860,960,0,0
-357,64,0,0,0,0,0,0,0,0,0,-1,867,960,0,0
-350,64,0,0,0,0,0,0,0,0,0,-1,874,960,0,0
-343,64,0,0,0,0,0,0,0,0,0,-1,881,960,0,0
-336,64,0,0,0,0,0,0,0,0,0,-1,888,960,0,0
-329,64,0,0,0,0,0,0,0,0,0,-1,895,960,0,0
-322,64,0,0,0,0,0,0,0,0,0,-1,902,960,0,0
-315,64,0,0,0,0,0,0,0,0,0,-1,909,960,0,0
-308,64,0,0,0,0,0,0,0,0,0,-1,916,960,0,0
-301,64,0,0,0,0,0,0,0,0,0,-1,923,960,0,0
-294,64,0,0,0,0,0,0,0,0,0,-1,930,960,0,0
-287,64,0,0,0,0,0,0,0,0,0,-1,937,960,0,0
-280,64,0,0,0,0,0,0,0,0,0,-1,944,960,0,0
-273,64,0,0,0,0,0,0,0,0,0,-1,951,960,0,0
-266,64,0,0,0,0,0,0,0,0,0,-1,958,960,0,0
-259,64,0,0,0,0,0,0,0,0,0,-1,965,960,0,0
-252,64,0,0,0,0,0,0,0,0,0,-1,972,960,0,0
-245,64,0,0,0,0,0,0,0,0,0,-1,979,960,0,0
-238,64,0,0,0,0,0,0,0,0,0,-1,986,960,0,0
-231,64,0,0,0,0,0,0,0,0,0,-1,993,960,0,0
-224,64,0,0,0,0,0,0,0,0,0,-1,1000,960,0,0
-217,64,0,0,0,0,0,0,0,0,0,-1,1007,960,0,0
-210,64,0,0,0,0,0,0,0,0,0,-1,1014,960,0,0
-203,64,0,0,0,0,0,0,0,0,0,-1,1021,960,0,0
-196,64,0,0,0,0,0,0,0,0,0,-1,1028,960,0,0
-189,64,0,0,0,0,0,0,0,0,0,-1,1035,960,0,0
-182,64,0,0,0,0,0,0,0,0,0,-1,1042,960,0,0
-175,64,0,0,0,0,0,0,0,0,0,-1,1049,960,0,0
-168,64,0,0,0,0,0,0,0,0,0,-1,1056,960,0,0
-161,64,0,0,0,0,0,0,0,0,0,-1,1063,960,0,0
-154,64,0,0,0,0,0,0,0,0,0,-1,1070,960,0,0
-147,64,0,0,0,0,0,0,0,0,0,-1,1077,960,0,0
-140,64,0,0,0,0,0,0,0,0,0,-1,1084,960,0,0
-133,64,0,0,0,0,0,0,0,0,0,-1,1091,960,0,0
-126,64,0,0,0,0,0,0,0,0,0,-1,1098,960,0,0
-119,64,0,0,0,0,0,0,0,0,0,-1,1105,960,0,0
-112,64,0,0,0,0,0,0,0,0,0,-1,1112,960,0,0
-105,64,0,0,0,0,0,0,0,0,0,-1,1119,960,0,0
-98,64,0,0,0,0,0,0,0,0,0,-1,1126,960,0,0
-91,64,0,0,0,0,0,0,0,0,0,-1,1133,960,0,0
-84,64,0,0,0,0,0,0,0,0,0,-1,1140,960,0,0
-77,64,0,0,0,0,0,0,0,0,0,-1,1147,960,0,0
-70,64,0,0,0,0,0,0,0,0,0,-1,1154,960,0,0
-63,64,0,0,0,0,0,0,0,0,0,-1,1161,960,0,0
-56,64,0,0,0,0,0,0,0,0,0,-1,1168,960,0,0
-49,64,0,0,0,0,0,0,0,0,0,-1,1175,960,0,0
-42,64,0,0,0,0,0,0,0,0,0,-1,1182,960,0,0
-35,64,0,0,0,0,0,0,0,0,0,-1,1189,960,0,0
-28,64,0,0,0,0,0,0,0,0,0,-1,1196,960,0,0
-21,64,0,0,0,0,0,0,0,0,0,-1,1203,960,0,0
-14,64,0,0,0,0,0,0,0,0,0,-1,1210,960,0,0
-7,64,0,0,0,0,0,0,0,0,0,-1,1217,960,0,0
0,64,0,0,0,0,0,0,0,0,0,-1,1224,960,0,0
7,64,0,0,0,0,0,0,0,0,0,-1,1231,960,0,0
14,64,0,0,0,0,0,0,0,0,0,-1,1238,960,0,0
21,64,0,0,0,0,0,0,0,0,0,-1,1245,960,0,0
28,64,0,0,0,0,0,0,0,0,0,-1,1252,960,0,0
35,64,0,0,0,0,0,0,0,0,0,-1,1259,960,0,0
42,64,0,0,0,0,0,0,0,0,0,-1,1266,960,0,0
49,64,0,0,0,0,0,0,0,0,0,-1,1273,960,0,0
56,64,0,0,0,0,0,0,0,0,0,-1,1280,960,0,0
63,64,0,0,0,0,0,0,0,0,0,-1,1287,960,0,0
70,64,0,0,0,0,0,0,0,0,0,-1,1294,960,0,0
77,64,0,0,0,0,0,0,0,0,0,-1,1301,960,0,0
84,64,0,0,0,0,0,0,0,0,0,-1,1308,960,0,0
91,64,0,0,0,0,0,0,0,0,0,-1,1315,960,0,0
98,64,0,0,0,0,0,0,0,0,0,-1,1322,960,0,0
105,64,0,0,0,0,0,0,0,0,0,-1,1329,960,0,0
112,64,0,0,0,0,0,0,0,0,0,-1,1336,960,0,0
119,64,0,0,0,0,0,0,0,0,0,-1,1343,960,0,0
126,64,0,0,0,0,0,0,0,0,0,-1,1350,960,0,0
133,64,0,0,0,0,0,0,0,0,0,-1,1357,960,0,0
140,64,0,0,0,0,0,0,0,0,0,-1,1364,960,0,0
147,64,0,0,0,0,0,0,0,0,0,-1,1371,960,0,0
154,64,0,0,0,0,0,0,0,0,0,-1,1378,960,0,0
161,64,0,0,0,0,0,0,0,0,0,-1,1385,960,0,0
168,64,0,0,0,0,0,0,0,0,0,-1,1392,960,0,0
175,64,0,0,0,0,0,0,0,0,0,-1,1399,960,0,0
182,64,0,0,0,0,0,0,0,0,0,-1,1406,960,0,0
189,64,0,0,0,0,0,0,0,0,0,-1,1413,960,0,0
196,64,0,0,0,0,0,0,0,0,0,-1,1420,960,0,0
203,64,0,0,0,0,0,0,0,0,0,-1,1427,960,0,0
210,64,0,0,0,0,0,0,0,0,0,-1,1434,960,0,0
217,64,0,0,0,0,0,0,0,0,0,-1,1441,960,0,0
224,64,0,0,0,0,0,0,0,0,0,-1,1448,960,0,0
231,64,0,0,0,0,0,0,0,0,0,-1,1455,960,0,0
238,64,0,0,0,0,0,0,0,0,0,-1,1462,960,0,0
245,64,0,0,0,0,0,0,0,0,0,-1,1469,960,0,0
252,64,0,0,0,0,0,0,0,0,0,-1,1476,960,0,0
259,64,0,0,0,0,0,0,0,0,0,-1,1483,960,0,0
266,64,0,0,0,0,0,0,0,0,0,-1,1490,960,0,0
273,64,0,0,0,0,0,0,0,0,0,-1,1497,960,0,0
280,64,0,0,0,0,0,0,0,0,0,-1,1504,960,0,0
287,64,0,0,0,0,0,0,0,0,0,-1,1511,960,0,0
294,64,0,0,0,0,0,0,0,0,0,-1,1518,960,0,0
301,64,0,0,0,0,0,0,0,0,0,-1,1525,960,0,0
308,64,0,0,0,0,0,0,0,0,0,-1,1532,960,0,0
315,64,0,0,0,0,0,0,0,0,0,-1,1539,960,0,0
322,64,0,0,0,0,0,0,0,0,0,-1,1546,960,0,0
329,64,0,0,0,0,0,0,0,0,0,-1,1553,960,0,0
336,64,0,0,0,0,0,0,0,0,0,-1,1560,960,0,0
343,64,0,0,0,0,0,0,0,0,0,-1,1567,960,0,0
350,64,0,0,0,0,0,0,0,0,0,-1,1574,960,0,0
357,64,0,0,0,0,0,0,0,0,0,-1,1581,960,0,0
364,64,0,0,0,0,0,0,0,0,0,-1,1588,960,0,0
371,64,0,0,0,0,0,0,0,0,0,-1,1595,960,0,0
378,64,0,0,0,0,0,0,0,0,0,-1,1602,960,0,0
385,64,0,0,0,0,0,0,0,0,0,-1,1609,960,0,0
392,64,0,0,0,0,0,0,0,0,0,-1,1616,960,0,0
399,64,0,0,0,0,0,0,0,0,0,-1,1623,960,0,0
406,64,0,0,0,0,0,0,0,0,0,-1,1630,960,0,0
413,64,0,0,0,0,0,0,0,0,0,-1,1637,960,0,0
420,64,0,0,0,0,0,0,0,0,0,-1,1644,960,0,0
427,64,0,0,0,0,0,0,0,0,0,-1,1651,960,0,0
434,64,0,0,0,0,0,0,0,0,0,-1,1658,960,0,0
441,64,0,0,0,0,0,0,0,0,0,-1,1665,960,0,0
448,64,0,0,0,0,0,0,0,0,0,-1,1672,960,0,0
455,64,0,0,0,0,0,0,0,0,0,-1,1679,960,0,0
462,64,0,0,0,0,0,0,0,0,0,-1,1686,960,0,0
469,64,0,0,0,0,0,0,0,0,0,-1,1693,960,0,0
476,64,0,0,0,0,0,0,0,0,0,-1,1700,960,0,0
483,64,0,0,0,0,0,0,0,0,0,-1,1707,960,0,0
490,64,0,0,0,0,0,0,0,0,0,-1,1714,960,0,0
497,64,0,0,0,0,0,0,0,0,0,-1,1721,960,0,0
504,64,0,0,0,0,0,0,0,0,0,-1,1728,960,0,0
511,64,0,0,0,0,0,0,0,0,0,-1,1735,960,0,0
518,64,0,0,0,0,0,0,0,0,0,-1,1742,960,0,0
525,64,0,0,0,0,0,0,0,0,0,-1,1749,960,0,0
532,64,0,0,0,0,0,0,0,0,0,-1,1756,960,0,0
539,64,0,0,0,0,0,0,0,0,0,-1,1763,960,0,0
546,64,0,0,0,0,0,0,0,0,0,-1,1770,960,0,0
553,64,0,0,0,0,0,0,0,0,0,-1,1777,960,0,0
560,64,0,0,0,0,0,0,0,0,0,-1,1784,960,0,0
567,64,0,0,0,0,0,0,0,0,0,-1,1791,960,0,0
574,64,0,0,0,0,0,0,0,0,0,-1,1798,960,0,0
581,64,0,0,0,0,0,0,0,0,0,-1,1805,960,0,0
588,64,0,0,0,0,0,0,0,0,0,-1,1812,960,0,0
595,64,0,0,0,0,0,0,0,0,0,-1,1819,960,0,0
602,64,0,0,0,0,0,0,0,0,0,-1,1826,960,0,0
609,64,0,0,0,0,0,0,0,0,0,-1,1833,960,0,0
616,64,0,0,0,0,0,0,0,0,0,-1,1840,960,0,0
623,64,0,0,0,0,0,0,0,0,0,-1,1847,960,0,0
630,64,0,0,0,0,0,0,0,0,0,-1,1854,960,0,0
637,64,0,0,0,0,0,0,0,0,0,-1,1861,960,0,0
644,64,70.4392,2.30719,0.00502235,-0.00324133,0.00102607,0.00514785,-0.00336683,0.121704,0.00495167,0.0432875,1868,960,70.4392,-2.30718
651,64,70.6541,2.47833,0.0035595,-0.00213037,0.000488696,0.00360117,-0.00217204,0.0850585,0.00336704,0.0416583,1875,960,70.6541,-2.47833
658,64,70.5786,2.54211,0.00261574,-0.0013727,0.000234612,0.0026295,-0.00138645,0.0585538,0.00235534,0.03947,1882,960,70.5786,-2.54211
665,64,70.4458,2.58154,0.00197366,-0.000769243,7.48155e-05,0.0019757,-0.000771282,0.027249,0.001636,0.0413931,1889,960,70.4457,-2.58155
672,64,70.421,2.5957,0.00114578,-0.000489573,0.000101208,0.00115202,-0.000495813,0.0615745,0.0009762,0.0437893,1896,960,70.421,-2.59573
679,64,70.4969,2.56689,0.000379833,-0.000631038,0.000264518,0.000444867,-0.000696071,0.241075,0.000664022,0.0405575,1903,960,70.497,-2.56688
686,64,70.5823,2.27875,-5.1756e-05,-0.000973198,0.00022104,-1.47539e-06,-0.00102348,0.223667,0.000681828,0.0379094,1910,960,70.5823,-2.27875
693,64,70.511,2.15936,-0.000556415,-0.00119702,-3.20279e-06,-0.000556399,-0.00119704,-0.00499943,0.000691681,0.0340117,1917,960,70.511,-2.15936
700,64,70.6185,2.29041,-0.00129908,-0.00112706,-0.000211357,-0.00098488,-0.00144126,-0.978643,0.000850554,0.0360663,1924,960,70.6186,-2.29042
707,64,70.6725,2.38733,0,0,0,0,0,0,0,-1,1931,960,70.6724,-2.38731
714,64,69.3745,4.68549,0,0,0,0,0,0,0,-1,1938,960,69.3745,-4.68547
721,64,68.6661,5.18628,-0.00368098,0.000782226,-0.00130205,0.0011343,-0.00403305,-1.30671,0.00313594,0.0397007,1945,960,68.6661,-5.18627
728,64,68.2898,5.81567,-0.00471338,0.00193237,-0.00169695,0.0023406,-0.00512161,-1.33472,0.00440691,0.024623,1952,960,68.2899,-5.81569
735,64,68.2209,6.39166,-0.00551152,0.00331021,-0.00233778,0.00389143,-0.00609274,-1.32712,0.00581088,0.0322493,1959,960,68.2209,-6.39166
742,64,68.3984,6.73523,-0.00629267,0.00527805,-0.0029152,0.00597103,-0.00698564,-1.33742,0.00748818,0.0283246,1966,960,68.3984,-6.73522
749,64,68.359,7.172,-0.00720179,0.00905378,-0.00340927,0.00973985,-0.00788786,-1.37221,0.0101961,0.0187662,1973,960,68.3591,-7.17201
756,64,68.2847,7.58917,-0.00809619,0.013801,-0.00384985,0.0144581,-0.00875333,-1.40173,0.0135354,0.0188099,1980,960,68.2846,-7.5892
763,64,68.2429,8.03479,-0.00842531,0.0201283,-0.00392344,0.0206576,-0.00895461,-1.4367,0.017536,0.0201898,1987,960,68.2428,-8.03478
770,64,67.948,8.37341,-0.00820865,0.0274126,-0.00360728,0.0277742,-0.00857027,-1.47088,0.0219382,0.0196172,1994,960,67.948,-8.37339
777,64,67.6482,8.74921,-0.00767327,0.035854,-0.0025853,0.036007,-0.00782628,-1.51168,0.0269943,0.0352533,2001,960,67.6482,-8.74922
784,64,67.4629,9.09875,-0.00573169,0.046338,-0.000433896,0.0463417,-0.00573531,-1.56246,0.0329729,0.045015,2008,960,67.4629,-9.09877
791,64,67.2529,9.50867,0,0,0,0,0,0,0,-1,2015,960,67.2529,-9.50865
798,64,63.2893,9.93152,0,0,0,0,0,0,0,-1,2022,960,63.2892,-9.93152
805,64,65.2471,6.27972,0,0,0,0,0,0,0,-1,2029,960,65.2472,-6.27974
812,64,0,0,0,0,0,0,0,0,0,-1,2036,960,0,0
-700,57,0,0,0,0,0,0,0,0,0,-1,524,967,0,0
-693,57,0,0,0,0,0,0,0,0,0,-1,531,967,0,0
-686,57,-48.4231,10.3683,0,0,0,0,0,0,0,-1,538,967,-48.4231,-10.3683
-679,57,-49.0797,9.20197,0,0,0,0,0,0,0,-1,545,967,-49.0796,-9.20196
-672,57,-50.0349,8.17682,0,0,0,0,0,0,0,-1,552,967,-50.0349,-8.17683
-665,57,-50.8073,7.60474,0,0,0,0,0,0,0,-1,559,967,-50.8073,-7.60476
-658,57,-52.3992,6.41095,0,0,0,0,0,0,0,-1,566,967,-52.3992,-6.41092
-651,57,-53.5732,6.66644,0,0,0,0,0,0,0,-1,573,967,-53.5732,-6.66642
-644,57,-53.9205,6.81873,-0.0177559,0.0123684,0.00242228,0.0125619,-0.0179495,1.49107,0.017707,0.0367814,580,967,-53.9205,-6.81873
-637,57,-53.7871,6.36493,-0.0148455,0.0128761,0.00318825,0.0132381,-0.0152075,1.45775,0.0164361,0.0216638,587,967,-53.7871,-6.36492
-630,57,-53.8801,6.03857,-0.0119516,0.0118977,0.00363556,0.0124396,-0.0124935,1.42283,0.0143951,0.0145574,594,967,-53.88,-6.03856
-623,57,-53.9222,5.7381,-0.00904093,0.00902189,0.00373098,0.0097622,-0.00978124,1.37492,0.0112834,0.013734,601,967,-53.9222,-5.73811
-616,57,-53.9178,5.39178,-0.00665236,0.0062033,0.00330636,0.00700382,-0.00745288,1.33325,0.00834792,0.0168576,608,967,-53.9178,-5.3918
-609,57,-53.9138,5.00641,-0.00488134,0.00381452,0.00295005,0.00472086,-0.00578767,1.27272,0.00607752,0.017624,615,967,-53.9138,-5.00641
-602,57,-53.9037,4.5506,-0.00357025,0.00224314,0.00246106,0.00314508,-0.00447219,1.21951,0.00442003,0.0123238,622,967,-53.9038,-4.55058
-595,57,-53.8876,4.16705,-0.00232885,0.00127098,0.00216625,0.0022875,-0.00334538,1.13205,0.00327121,0.0194868,629,967,-53.8876,-4.16706
-588,57,-53.7123,3.88354,-0.00128627,0.000181366,0.00181871,0.00140872,-0.00251362,0.977151,0.00229432,0.032809,636,967,-53.7123,-3.88355
-581,57,-53.9573,2.34485,0,0,0,0,0,0,0,-1,643,967,-53.9574,-2.34487
-574,57,-54.5085,0.619629,0,0,0,0,0,0,0,-1,650,967,-54.5085,-0.619633
-567,57,-54.6625,0.341858,-0.000745598,-0.000465765,0.00016042,-0.000392817,-0.000818546,1.14402,0.000472715,0.0327429,657,967,-54.6625,-0.341876
-560,57,-54.6625,0.293457,-0.000965332,0.000271979,-0.000203838,0.000304695,-0.000998048,-1.41165,0.000786847,0.0416534,664,967,-54.6625,-0.293442
-553,57,-54.4733,0.333801,-0.00135346,0.00137169,-0.000485484,0.0014556,-0.00143736,-1.39966,0.00167026,0.0422558,671,967,-54.4733,-0.333807
-546,57,-54.4003,0.400452,-0.00203166,0.00261297,-0.000677007,0.00270964,-0.00212833,-1.42897,0.00279991,0.0433326,678,967,-54.4003,-0.400439
-539,57,-54.4926,0.622253,-0.00341767,0.00346907,-0.000813899,0.00356395,-0.00351255,-1.45474,0.00408566,0.0426072,685,967,-54.4926,-0.622245
-532,57,-54.65,0.54364,-0.00533036,0.00340745,-0.00105289,0.00353253,-0.00545544,-1.45255,0.00522864,0.039166,692,967,-54.65,-0.543621
-525,57,-54.7159,0.484497,-0.00773354,0.00353792,-0.00148607,0.00373056,-0.00792618,-1.44189,0.0068738,0.0399306,699,967,-54.7159,-0.484497
-518,57,0,0,0,0,0,0,0,0,0,-1,706,967,0,0
-511,57,0,0,0,0,0,0,0,0,0,-1,713,967,0,0
-504,57,0,0,0,0,0,0,0,0,0,-1,720,967,0,0
-497,57,0,0,0,0,0,0,0,0,0,-1,727,967,0,0
-490,57,0,0,0,0,0,0,0,0,0,-1,734,967,0,0
-483,57,0,0,0,0,0,0,0,0,0,-1,741,967,0,0
-476,57,0,0,0,0,0,0,0,0,0,-1,748,967,0,0
-469,57,0,0,0,0,0,0,0,0,0,-1,755,967,0,0
-462,57,0,0,0,0,0,0,0,0,0,-1,762,967,0,0
-455,57,0,0,0,0,0,0,0,0,0,-1,769,967,0,0
-448,57,0,0,0,0,0,0,0,0,0,-1,776,967,0,0
-441,57,0,0,0,0,0,0,0,0,0,-1,783,967,0,0
-434,57,0,0,0,0,0,0,0,0,0,-1,790,967,0,0
-427,57,0,0,0,0,0,0,0,0,0,-1,797,967,0,0
-420,57,0,0,0,0,0,0,0,0,0,-1,804,967,0,0
-413,57,0,0,0,0,0,0,0,0,0,-1,811,967,0,0
-406,57,0,0,0,0,0,0,0,0,0,-1,818,967,0,0
-399,57,0,0,0,0,0,0,0,0,0,-1,825,967,0,0
-392,57,0,0,0,0,0,0,0,0,0,-1,832,967,0,0
-385,57,0,0,0,0,0,0,0,0,0,-1,839,967,0,0
-378,57,0,0,0,0,0,0,0,0,0,-1,846,967,0,0
-371,57,0,0,0,0,0,0,0,0,0,-1,853,967,0,0
-364,57,0,0,0,0,0,0,0,0,0,-1,860,967,0,0
-357,57,0,0,0,0,0,0,0,0,0,-1,867,967,0,0
-350,57,0,0,0,0,0,0,0,0,0,-1,874,967,0,0
-343,57,0,0,0,0,0,0,0,0,0,-1,881,967,0,0
-336,57,0,0,0,0,0,0,0,0,0,-1,888,967,0,0
-329,57,0,0,0,0,0,0,0,0,0,-1,895,967,0,0
-322,57,0,0,0,0,0,0,0,0,0,-1,902,967,0,0
-315,57,0,0,0,0,0,0,0,0,0,-1,909,967,0,0
-308,57,0,0,0,0,0,0,0,0,0,-1,916,967,0,0
-301,57,0,0,0,0,0,0,0,0,0,-1,923,967,0,0
-294,57,0,0,0,0,0,0,0,0,0,-1,930,967,0,0
-287,57,0,0,0,0,0,0,0,0,0,-1,937,967,0,0
-280,57,0,0,0,0,0,0,0,0,0,-1,944,967,0,0
-273,57,0,0,0,0,0,0,0,0,0,-1,951,967,0,0
-266,57,0,0,0,0,0,0,0,0,0,-1,958,967,0,0
-259,57,0,0,0,0,0,0,0,0,0,-1,965,967,0,0
-252,57,0,0,0,0,0,0,0,0,0,-1,972,967,0,0
-245,57,0,0,0,0,0,0,0,0,0,-1,979,967,0,0
-238,57,0,0,0,0,0,0,0,0,0,-1,986,967,0,0
-231,57,0,0,0,0,0,0,0,0,0,-1,993,967,0,0
-224,57,0,0,0,0,0,0,0,0,0,-1,1000,967,0,0
-217,57,0,0,0,0,0,0,0,0,0,-1,1007,967,0,0
-210,57,0,0,0,0,0,0,0,0,0,-1,1014,967,0,0
-203,57,0,0,0,0,0,0,0,0,0,-1,1021,967,0,0
-196,57,0,0,0,0,0,0,0,0,0,-1,1028,967,0,0
-189,57,0,0,0,0,0,0,0,0,0,-1,1035,967,0,0
-182,57,0,0,0,0,0,0,0,0,0,-1,1042,967,0,0
-175,57,0,0,0,0,0,0,0,0,0,-1,1049,967,0,0
-168,57,0,0,0,0,0,0,0,0,0,-1,1056,967,0,0
-161,57,0,0,0,0,0,0,0,0,0,-1,1063,967,0,0
-154,57,0,0,0,0,0,0,0,0,0,-1,1070,967,0,0
-147,57,0,0,0,0,0,0,0,0,0,-1,1077,967,0,0
-140,57,0,0,0,0,0,0,0,0,0,-1,1084,967,0,0
-133,57,0,0,0,0,0,0,0,0,0,-1,1091,967,0,0
-126,57,0,0,0,0,0,0,0,0,0,-1,1098,967,0,0
-119,57,0,0,0,0,0,0,0,0,0,-1,1105,967,0,0
-112,57,0,0,0,0,0,0,0,0,0,-1,1112,967,0,0
-105,57,0,0,0,0,0,0,0,0,0,-1,1119,967,0,0
-98,57,0,0,0,0,0,0,0,0,0,-1,1126,967,0,0
-91,57,0,0,0,0,0,0,0,0,0,-1,1133,967,0,0
-84,57,0,0,0,0,0,0,0,0,0,-1,1140,967,0,0
-77,57,0,0,0,0,0,0,0,0,0,-1,1147,967,0,0
-70,57,0,0,0,0,0,0,0,0,0,-1,1154,967,0,0
-63,57,0,0,0,0,0,0,0,0,0,-1,1161,967,0,0
-56,57,0,0,0,0,0,0,0,0,0,-1,1168,967,0,0
-49,57,0,0,0,0,0,0,0,0,0,-1,1175,967,0,0
-42,57,0,0,0,0,0,0,0,0,0,-1,1182,967,0,0
-35,57,0,0,0,0,0,0,0,0,0,-1,1189,967,0,0
-28,57,0,0,0,0,0,0,0,0,0,-1,1196,967,0,0
-21,57,0,0,0,0,0,0,0,0,0,-1,1203,967,0,0
-14,57,0,0,0,0,0,0,0,0,0,-1,1210,967,0,0
-7,57,0,0,0,0,0,0,0,0,0,-1,1217,967,0,0
0,57,0,0,0,0,0,0,0,0,0,-1,1224,967,0,0
7,57,0,0,0,0,0,0,0,0,0,-1,1231,967,0,0
14,57,0,0,0,0,0,0,0,0,0,-1,1238,967,0,0
21,57,0,0,0,0,0,0,0,0,0,-1,1245,967,0,0
28,57,0,0,0,0,0,0,0,0,0,-1,1252,967,0,0
35,57,0,0,0,0,0,0,0,0,0,-1,1259,967,0,0
42,57,0,0,0,0,0,0,0,0,0,-1,1266,967,0,0
49,57,0,0,0,0,0,0,0,0,0,-1,1273,967,0,0
56,57,0,0,0,0,0,0,0,0,0,-1,1280,967,0,0
63,57,0,0,0,0,0,0,0,0,0,-1,1287,967,0,0
70,57,0,0,0,0,0,0,0,0,0,-1,1294,967,0,0
77,57,0,0,0,0,0,0,0,0,0,-1,1301,967,0,0
84,57,0,0,0,0,0,0,0,0,0,-1,1308,967,0,0
91,57,0,0,0,0,0,0,0,0,0,-1,1315,967,0,0
98,57,0,0,0,0,0,0,0,0,0,-1,1322,967,0,0
105,57,0,0,0,0,0,0,0,0,0,-1,1329,967,0,0
112,57,0,0,0,0,0,0,0,0,0,-1,1336,967,0,0
119,57,0,0,0,0,0,0,0,0,0,-1,1343,967,0,0
126,57,0,0,0,0,0,0,0,0,0,-1,1350,967,0,0
133,57,0,0,0,0,0,0,0,0,0,-1,1357,967,0,0
140,57,0,0,0,0,0,0,0,0,0,-1,1364,967,0,0
147,57,0,0,0,0,0,0,0,0,0,-1,1371,967,0,0
154,57,0,0,0,0,0,0,0,0,0,-1,1378,967,0,0
161,57,0,0,0,0,0,0,0,0,0,-1,1385,967,0,0
168,57,0,0,0,0,0,0,0,0,0,-1,1392,967,0,0
175,57,0,0,0,0,0,0,0,0,0,-1,1399,967,0,0
182,57,0,0,0,0,0,0,0,0,0,-1,1406,967,0,0
189,57,0,0,0,0,0,0,0,0,0,-1,1413,967,0,0
196,57,0,0,0,0,0,0,0,0,0,-1,1420,967,0,0
203,57,0,0,0,0,0,0,0,0,0,-1,1427,967,0,0
210,57,0,0,0,0,0,0,0,0,0,-1,1434,967,0,0
217,57,0,0,0,0,0,0,0,0,0,-1,1441,967,0,0
224,57,0,0,0,0,0,0,0,0,0,-1,1448,967,0,0
231,57,0,0,0,0,0,0,0,0,0,-1,1455,967,0,0
238,57,0,0,0,0,0,0,0,0,0,-1,1462,967,0,0
245,57,0,0,0,0,0,0,0,0,0,-1,1469,967,0,0
252,57,0,0,0,0,0,0,0,0,0,-1,1476,967,0,0
259,57,0,0,0,0,0,0,0,0,0,-1,1483,967,0,0
266,57,0,0,0,0,0,0,0,0,0,-1,1490,967,0,0
273,57,0,0,0,0,0,0,0,0,0,-1,1497,967,0,0
280,57,0,0,0,0,0,0,0,0,0,-1,1504,967,0,0
287,57,0,0,0,0,0,0,0,0,0,-1,1511,967,0,0
294,57,0,0,0,0,0,0,0,0,0,-1,1518,967,0,0
301,57,0,0,0,0,0,0,0,0,0,-1,1525,967,0,0
308,57,0,0,0,0,0,0,0,0,0,-1,1532,967,0,0
315,57,0,0,0,0,0,0,0,0,0,-1,1539,967,0,0
322,57,0,0,0,0,0,0,0,0,0,-1,1546,967,0,0
329,57,0,0,0,0,0,0,0,0,0,-1,1553,967,0,0
336,57,0,0,0,0,0,0,0,0,0,-1,1560,967,0,0
343,57,0,0,0,0,0,0,0,0,0,-1,1567,967,0,0
350,57,0,0,0,0,0,0,0,0,0,-1,1574,967,0,0
357,57,0,0,0,0,0,0,0,0,0,-1,1581,967,0,0
364,57,0,0,0,0,0,0,0,0,0,-1,1588,967,0,0
371,57,0,0,0,0,0,0,0,0,0,-1,1595,967,0,0
378,57,0,0,0,0,0,0,0,0,0,-1,1602,967,0,0
385,57,0,0,0,0,0,0,0,0,0,-1,1609,967,0,0
392,57,0,0,0,0,0,0,0,0,0,-1,1616,967,0,0
399,57,0,0,0,0,0,0,0,0,0,-1,1623,967,0,0
406,57,0,0,0,0,0,0,0,0,0,-1,1630,967,0,0
413,57,0,0,0,0,0,0,0,0,0,-1,1637,967,0,0
420,57,0,0,0,0,0,0,0,0,0,-1,1644,967,0,0
427,57,0,0,0,0,0,0,0,0,0,-1,1651,967,0,0
434,57,0,0,0,0,0,0,0,0,0,-1,1658,967,0,0
441,57,0,0,0,0,0,0,0,0,0,-1,1665,967,0,0
448,57,0,0,0,0,0,0,0,0,0,-1,1672,967,0,0
455,57,0,0,0,0,0,0,0,0,0,-1,1679,967,0,0
462,57,0,0,0,0,0,0,0,0,0,-1,1686,967,0,0
469,57,0,0,0,0,0,0,0,0,0,-1,1693,967,0,0
476,57,0,0,0,0,0,0,0,0,0,-1,1700,967,0,0
483,57,0,0,0,0,0,0,0,0,0,-1,1707,967,0,0
490,57,0,0,0,0,0,0,0,0,0,-1,1714,967,0,0
497,57,0,0,0,0,0,0,0,0,0,-1,1721,967,0,0
504,57,0,0,0,0,0,0,0,0,0,-1,1728,967,0,0
511,57,0,0,0,0,0,0,0,0,0,-1,1735,967,0,0
518,57,0,0,0,0,0,0,0,0,0,-1,1742,967,0,0
525,57,0,0,0,0,0,0,0,0,0,-1,1749,967,0,0
532,57,0,0,0,0,0,0,0,0,0,-1,1756,967,0,0
539,57,0,0,0,0,0,0,0,0,0,-1,1763,967,0,0
546,57,0,0,0,0,0,0,0,0,0,-1,1770,967,0,0
553,57,0,0,0,0,0,0,0,0,0,-1,1777,967,0,0
560,57,0,0,0,0,0,0,0,0,0,-1,1784,967,0,0
567,57,0,0,0,0,0,0,0,0,0,-1,1791,967,0,0
574,57,0,0,0,0,0,0,0,0,0,-1,1798,967,0,0
581,57,0,0,0,0,0,0,0,0,0,-1,1805,967,0,0
588,57,0,0,0,0,0,0,0,0,0,-1,1812,967,0,0
595,57,0,0,0,0,0,0,0,0,0,-1,1819,967,0,0
602,57,0,0,0,0,0,0,0,0,0,-1,1826,967,0,0
609,57,0,0,0,0,0,0,0,0,0,-1,1833,967,0,0
616,57,0,0,0,0,0,0,0,0,0,-1,1840,967,0,0
623,57,0,0,0,0,0,0,0,0,0,-1,1847,967,0,0
630,57,0,0,0,0,0,0,0,0,0,-1,1854,967,0,0
637,57,0,0,0,0,0,0,0,0,0,-1,1861,967,0,0
644,57,70.593,2.28961,0.00418912,-0.00259601,0.000497096,0.00422534,-0.00263224,0.0727449,0.00399468,0.0401498,1868,967,70.593,-2.28958
651,57,70.6205,2.42456,0.00286948,-0.00176941,6.8426e-05,0.00287048,-0.00177042,0.0147463,0.0027044,0.0363045,1875,967,70.6205,-2.42459
658,57,70.5875,2.45764,0.00207478,-0.00121407,-8.78684e-05,0.00207712,-0.00121641,-0.0266917,0.00192305,0.0367322,1882,967,70.5876,-2.45764
665,57,70.4381,2.41602,0.00160284,-0.000735509,-0.000169298,0.00161503,-0.000747703,-0.0719011,0.00139442,0.0426898,1889,967,70.4381,-2.41601
672,57,70.4407,2.39838,0.00100463,-0.000481525,-0.000108278,0.00101248,-0.000489372,-0.0723483,0.000884455,0.0442768,1896,967,70.4406,-2.39838
679,57,70.5217,2.49402,0.00044204,-0.000590622,7.82065e-05,0.000447929,-0.000596511,0.0751617,0.000605038,0.0412309,1903,967,70.5217,-2.49402
686,57,70.5673,2.46143,0.000164616,-0.000934479,9.08436e-05,0.000172074,-0.000941937,0.0819124,0.000692479,0.0383702,1910,967,70.5672,-2.46146
693,57,70.5336,2.20947,-0.000228282,-0.00120397,-6.49672e-05,-0.000223975,-0.00120827,-0.0661967,0.000742209,0.0336573,1917,967,70.5336,-2.20945
700,57,70.6017,2.28589,-0.000864673,-0.00116674,-0.000240714,-0.000731535,-0.00129988,-0.50522,0.000752457,0.0293213,1924,967,70.6017,-2.28591
707,57,70.676,2.47424,0,0,0,0,0,0,0,-1,1931,967,70.676,-2.47423
714,57,68.848,2.83807,0,0,0,0,0,0,0,-1,1938,967,68.848,-2.83808
721,57,69.276,5.25543,0,0,0,0,0,0,0,-1,1945,967,69.276,-5.25544
728,57,68.8269,5.9256,-0.00439908,0.00215633,-0.00157751,0.00251619,-0.00475894,-1.34651,0.00426631,0.0247147,1952,967,68.8269,-5.9256
735,57,68.8492,6.42224,-0.00525457,0.00360486,-0.00216741,0.00410668,-0.00575639,-1.34328,0.00572094,0.0316297,1959,967,68.8492,-6.42225
742,57,68.9265,6.7243,-0.00617205,0.00566784,-0.00261875,0.00622119,-0.0067254,-1.36255,0.00747661,0.024511,1966,967,68.9265,-6.72433
749,57,68.8354,7.1571,-0.00725654,0.00962668,-0.00294262,0.0101249,-0.00775471,-1.40309,0.010353,0.0172664,1973,967,68.8354,-7.15713
756,57,68.7576,7.55145,-0.00836882,0.0144777,-0.0032542,0.0149322,-0.0088233,-1.43203,0.0138656,0.0138975,1980,967,68.7576,-7.55143
763,57,68.6499,7.93042,-0.00890926,0.0211876,-0.00313665,0.021511,-0.00923268,-1.46805,0.0182156,0.0145274,1987,967,68.6499,-7.9304
770,57,68.4778,8.26837,-0.00876131,0.0292538,-0.00256398,0.0294259,-0.00893346,-1.50375,0.0231763,0.0133823,1994,967,68.4777,-8.26834
777,57,68.3279,8.60321,-0.00813286,0.0387082,-0.00121401,0.0387397,-0.00816431,-1.5449,0.0289344,0.0268777,2001,967,68.3279,-8.6032
784,57,68.5515,8.61908,-0.00609511,0.0505727,0.00139819,0.0506071,-0.00612959,1.54614,0.0359559,0.044223,2008,967,68.5515,-8.61907
791,57,68.7319,8.65332,0,0,0,0,0,0,0,-1,2015,967,68.7319,-8.65334
798,57,64.2332,9.30481,0,0,0,0,0,0,0,-1,2022,967,64.2332,-9.30481
805,57,67.2554,7.88916,0,0,0,0,0,0,0,-1,2029,967,67.2553,-7.88919
812,57,0,0,0,0,0,0,0,0,0,-1,2036,967,0,0
-700,50,0,0,0,0,0,0,0,0,0,-1,524,974,0,0
-693,50,-54.7593,10.9908,0,0,0,0,0,0,0,-1,531,974,-54.7593,-10.9908
-686,50,-54.1526,9.6377,0,0,0,0,0,0,0,-1,538,974,-54.1526,-9.63769
-679,50,-53.517,8.66888,0,0,0,0,0,0,0,-1,545,974,-53.517,-8.6689
-672,50,-52.4983,7.513,0,0,0,0,0,0,0,-1,552,974,-52.4983,-7.51302
-665,50,-51.3172,6.15887,0,0,0,0,0,0,0,-1,559,974,-51.3172,-6.15885
-658,50,-53.3655,6.88855,0,0,0,0,0,0,0,-1,566,974,-53.3655,-6.88854
-651,50,-53.7581,6.63788,-0.0234705,0.0140395,0.00100873,0.0140666,-0.0234976,1.54393,0.0219144,0.0494888,573,974,-53.7581,-6.6379
-644,50,-54.0207,6.47266,-0.0196725,0.0159386,0.00218328,0.016072,-0.0198059,1.50979,0.0207515,0.0350514,580,974,-54.0207,-6.47266
-637,50,-54.1989,6.17554,-0.0162209,0.0153671,0.00304362,0.0156577,-0.0165115,1.47561,0.018575,0.0200528,587,974,-54.1989,-6.17551
-630,50,-54.3123,5.92151,-0.0129605,0.0134259,0.00349384,0.0138807,-0.0134153,1.44136,0.0157601,0.0121241,594,974,-54.3123,-5.92148
-623,50,-54.3528,5.66541,-0.00990208,0.00995411,0.00353078,0.0105633,-0.0105112,1.39995,0.0121674,0.0134965,601,974,-54.3528,-5.66538
-616,50,-54.345,5.36584,-0.00743603,0.00672043,0.00304914,0.00734924,-0.00806485,1.36742,0.00890253,0.0147431,608,974,-54.345,-5.36586
-609,50,-54.3349,4.97937,-0.00557927,0.00410663,0.00264124,0.00478005,-0.00625269,1.32115,0.00638865,0.0127242,615,974,-54.3349,-4.97936
-602,50,-54.3602,4.59717,-0.00419447,0.00234192,0.00215589,0.00298895,-0.0048415,1.27923,0.00456289,0.0121476,622,974,-54.3602,-4.59717
-595,50,-54.3829,4.26178,-0.00287371,0.00118136,0.0018554,0.00190217,-0.00359452,1.20025,0.00322326,0.016491,629,974,-54.3829,-4.2618
-588,50,-54.3301,3.65796,0,0,0,0,0,0,0,-1,636,974,-54.3301,-3.65795
-581,50,-54.4724,1.39044,0,0,0,0,0,0,0,-1,643,974,-54.4723,-1.39046
-574,50,-54.6929,0.354065,-0.00106741,-0.00131494,0.000326231,-0.000842254,-0.00154009,0.604099,0.000890474,0.0285747,650,974,-54.6929,-0.354068
-567,50,-54.6357,0.274719,-0.000975436,-0.00104537,2.69381e-05,-0.000966263,-0.00105455,0.328199,0.000675529,0.0354932,657,974,-54.6357,-0.274709
-560,50,-54.5555,0.256958,-0.00108537,-0.000383233,-0.000222007,-0.000318926,-0.00114968,-1.28885,0.00068534,0.0419126,664,974,-54.5555,-0.256937
-553,50,-54.5042,0.352905,-0.00139205,0.000643157,-0.000366725,0.000707221,-0.00145612,-1.39785,0.00127371,0.0427839,671,974,-54.5042,-0.352887
-546,50,-54.4772,0.541809,-0.00204101,0.00176439,-0.000382776,0.00180251,-0.00207913,-1.47153,0.00224296,0.0434722,678,974,-54.4772,-0.54178
-539,50,-54.4298,0.866028,-0.0034729,0.0024201,-0.000289644,0.0024343,-0.0034871,-1.5218,0.00343669,0.0459291,685,974,-54.4298,-0.866029
-532,50,-54.4193,0.600159,-0.00539886,0.00215851,-0.000301555,0.00217052,-0.00541087,-1.53098,0.00450842,0.0433333,692,974,-54.4193,-0.60016
-525,50,-54.5854,0.344971,-0.00787199,0.00216509,-0.000532528,0.00219326,-0.00790016,-1.51794,0.00613007,0.0413381,699,974,-54.5855,-0.344952
-518,50,0,0,0,0,0,0,0,0,0,-1,706,974,0,0
-511,50,0,0,0,0,0,0,0,0,0,-1,713,974,0,0
-504,50,0,0,0,0,0,0,0,0,0,-1,720,974,0,0
-497,50,0,0,0,0,0,0,0,0,0,-1,727,974,0,0
-490,50,0,0,0,0,0,0,0,0,0,-1,734,974,0,0
-483,50,0,0,0,0,0,0,0,0,0,-1,741,974,0,0
-476,50,0,0,0,0,0,0,0,0,0,-1,748,974,0,0
-469,50,0,0,0,0,0,0,0,0,0,-1,755,974,0,0
-462,50,0,0,0,0,0,0,0,0,0,-1,762,974,0,0
-455,50,0,0,0,0,0,0,0,0,0,-1,769,974,0,0
-448,50,0,0,0,0,0,0,0,0,0,-1,776,974,0,0
-441,50,0,0,0,0,0,0,0,0,0,-1,783,974,0,0
-434,50,0,0,0,0,0,0,0,0,0,-1,790,974,0,0
-427,50,0,0,0,0,0,0,0,0,0,-1,797,974,0,0
-420,50,0,0,0,0,0,0,0,0,0,-1,804,974,0,0
-413,50,0,0,0,0,0,0,0,0,0,-1,811,974,0,0
-406,50,0,0,0,0,0,0,0,0,0,-1,818,974,0,0
-399,50,0,0,0,0,0,0,0,0,0,-1,825,974,0,0
-392,50,0,0,0,0,0,0,0,0,0,-1,832,974,0,0
-385,50,0,0,0,0,0,0,0,0,0,-1,839,974,0,0
-378,50,0,0,0,0,0,0,0,0,0,-1,846,974,0,0
-371,50,0,0,0,0,0,0,0,0,0,-1,853,974,0,0
-364,50,0,0,0,0,0,0,0,0,0,-1,860,974,0,0
-357,50,0,0,0,0,0,0,0,0,0,-1,867,974,0,0
-350,50,0,0,0,0,0,0,0,0,0,-1,874,974,0,0
-343,50,0,0,0,0,0,0,0,0,0,-1,881,974,0,0
-336,50,0,0,0,0,0,0,0,0,0,-1,888,974,0,0
-329,50,0,0,0,0,0,0,0,0,0,-1,895,974,0,0
-322,50,0,0,0,0,0,0,0,0,0,-1,902,974,0,0
-315,50,0,0,0,0,0,0,0,0,0,-1,909,974,0,0
-308,50,0,0,0,0,0,0,0,0,0,-1,916,974,0,0
-301,50,0,0,0,0,0,0,0,0,0,-1,923,974,0,0
-294,50,0,0,0,0,0,0,0,0,0,-1,930,974,0,0
-287,50,0,0,0,0,0,0,0,0,0,-1,937,974,0,0
-280,50,0,0,0,0,0,0,0,0,0,-1,944,974,0,0
-273,50,0,0,0,0,0,0,0,0,0,-1,951,974,0,0
-266,50,0,0,0,0,0,0,0,0,0,-1,958,974,0,0
-259,50,0,0,0,0,0,0,0,0,0,-1,965,974,0,0
-252,50,0,0,0,0,0,0,0,0,0,-1,972,974,0,0
-245,50,0,0,0,0,0,0,0,0,0,-1,979,974,0,0
-238,50,0,0,0,0,0,0,0,0,0,-1,986,974,0,0
-231,50,0,0,0,0,0,0,0,0,0,-1,993,974,0,0
-224,50,0,0,0,0,0,0,0,0,0,-1,1000,974,0,0
-217,50,0,0,0,0,0,0,0,0,0,-1,1007,974,0,0
-210,50,0,0,0,0,0,0,0,0,0,-1,1014,974,0,0
-203,50,0,0,0,0,0,0,0,0,0,-1,1021,974,0,0
-196,50,0,0,0,0,0,0,0,0,0,-1,1028,974,0,0
-189,50,0,0,0,0,0,0,0,0,0,-1,1035,974,0,0
-182,50,0,0,0,0,0,0,0,0,0,-1,1042,974,0,0
-175,50,0,0,0,0,0,0,0,0,0,-1,1049,974,0,0
-168,50,0,0,0,0,0,0,0,0,0,-1,1056,974,0,0
-161,50,0,0,0,0,0,0,0,0,0,-1,1063,974,0,0
-154,50,0,0,0,0,0,0,0,0,0,-1,1070,974,0,0
-147,50,0,0,0,0,0,0,0,0,0,-1,1077,974,0,0
-140,50,0,0,0,0,0,0,0,0,0,-1,1084,974,0,0
-133,50,0,0,0,0,0,0,0,0,0,-1,1091,974,0,0
-126,50,0,0,0,0,0,0,0,0,0,-1,1098,974,0,0
-119,50,0,0,0,0,0,0,0,0,0,-1,1105,974,0,0
-112,50,0,0,0,0,0,0,0,0,0,-1,1112,974,0,0
-105,50,0,0,0,0,0,0,0,0,0,-1,1119,974,0,0
-98,50,0,0,0,0,0,0,0,0,0,-1,1126,974,0,0
-91,50,0,0,0,0,0,0,0,0,0,-1,1133,974,0,0
-84,50,0,0,0,0,0,0,0,0,0,-1,1140,974,0,0
-77,50,0,0,0,0,0,0,0,0,0,-1,1147,974,0,0
-70,50,0,0,0,0,0,0,0,0,0,-1,1154,974,0,0
-63,50,0,0,0,0,0,0,0,0,0,-1,1161,974,0,0
-56,50,0,0,0,0,0,0,0,0,0,-1,1168,974,0,0
-49,50,0,0,0,0,0,0,0,0,0,-1,1175,974,0,0
-42,50,0,0,0,0,0,0,0,0,0,-1,1182,974,0,0
-35,50,0,0,0,0,0,0,0,0,0,-1,1189,974,0,0
-28,50,0,0,0,0,0,0,0,0,0,-1,1196,974,0,0
-21,50,0,0,0,0,0,0,0,0,0,-1,1203,974,0,0
-14,50,0,0,0,0,0,0,0,0,0,-1,1210,974,0,0
-7,50,0,0,0,0,0,0,0,0,0,-1,1217,974,0,0
0,50,0,0,0,0,0,0,0,0,0,-1,1224,974,0,0
7,50,0,0,0,0,0,0,0,0,0,-1,1231,974,0,0
14,50,0,0,0,0,0,0,0,0,0,-1,1238,974,0,0
21,50,0,0,0,0,0,0,0,0,0,-1,1245,974,0,0
28,50,0,0,0,0,0,0,0,0,0,-1,1252,974,0,0
35,50,0,0,0,0,0,0,0,0,0,-1,1259,974,0,0
42,50,0,0,0,0,0,0,0,0,0,-1,1266,974,0,0
49,50,0,0,0,0,0,0,0,0,0,-1,1273,974,0,0
56,50,0,0,0,0,0,0,0,0,0,-1,1280,974,0,0
63,50,0,0,0,0,0,0,0,0,0,-1,1287,974,0,0
70,50,0,0,0,0,0,0,0,0,0,-1,1294,974,0,0
77,50,0,0,0,0,0,0,0,0,0,-1,1301,974,0,0
84,50,0,0,0,0,0,0,0,0,0,-1,1308,974,0,0
91,50,0,0,0,0,0,0,0,0,0,-1,1315,974,0,0
98,50,0,0,0,0,0,0,0,0,0,-1,1322,974,0,0
105,50,0,0,0,0,0,0,0,0,0,-1,1329,974,0,0
112,50,0,0,0,0,0,0,0,0,0,-1,1336,974,0,0
119,50,0,0,0,0,0,0,0,0,0,-1,1343,974,0,0
126,50,0,0,0,0,0,0,0,0,0,-1,1350,974,0,0
133,50,0,0,0,0,0,0,0,0,0,-1,1357,974,0,0
140,50,0,0,0,0,0,0,0,0,0,-1,1364,974,0,0
147,50,0,0,0,0,0,0,0,0,0,-1,1371,974,0,0
154,50,0,0,0,0,0,0,0,0,0,-1,1378,974,0,0
161,50,0,0,0,0,0,0,0,0,0,-1,1385,974,0,0
168,50,0,0,0,0,0,0,0,0,0,-1,1392,974,0,0
175,50,0,0,0,0,0,0,0,0,0,-1,1399,974,0,0
182,50,0,0,0,0,0,0,0,0,0,-1,1406,974,0,0
189,50,0,0,0,0,0,0,0,0,0,-1,1413,974,0,0
196,50,0,0,0,0,0,0,0,0,0,-1,1420,974,0,0
203,50,0,0,0,0,0,0,0,0,0,-1,1427,974,0,0
210,50,0,0,0,0,0,0,0,0,0,-1,1434,974,0,0
217,50,0,0,0,0,0,0,0,0,0,-1,1441,974,0,0
224,50,0,0,0,0,0,0,0,0,0,-1,1448,974,0,0
231,50,0,0,0,0,0,0,0,0,0,-1,1455,974,0,0
238,50,0,0,0,0,0,0,0,0,0,-1,1462,974,0,0
245,50,0,0,0,0,0,0,0,0,0,-1,1469,974,0,0
252,50,0,0,0,0,0,0,0,0,0,-1,1476,974,0,0
259,50,0,0,0,0,0,0,0,0,0,-1,1483,974,0,0
266,50,0,0,0,0,0,0,0,0,0,-1,1490,974,0,0
273,50,0,0,0,0,0,0,0,0,0,-1,1497,974,0,0
280,50,0,0,0,0,0,0,0,0,0,-1,1504,974,0,0
287,50,0,0,0,0,0,0,0,0,0,-1,1511,974,0,0
294,50,0,0,0,0,0,0,0,0,0,-1,1518,974,0,0
301,50,0,0,0,0,0,0,0,0,0,-1,1525,974,0,0
308,50,0,0,0,0,0,0,0,0,0,-1,1532,974,0,0
315,50,0,0,0,0,0,0,0,0,0,-1,1539,974,0,0
322,50,0,0,0,0,0,0,0,0,0,-1,1546,974,0,0
329,50,0,0,0,0,0,0,0,0,0,-1,1553,974,0,0
336,50,0,0,0,0,0,0,0,0,0,-1,1560,974,0,0
343,50,0,0,0,0,0,0,0,0,0,-1,1567,974,0,0
350,50,0,0,0,0,0,0,0,0,0,-1,1574,974,0,0
357,50,0,0,0,0,0,0,0,0,0,-1,1581,974,0,0
364,50,0,0,0,0,0,0,0,0,0,-1,1588,974,0,0
371,50,0,0,0,0,0,0,0,0,0,-1,1595,974,0,0
378,50,0,0,0,0,0,0,0,0,0,-1,1602,974,0,0
385,50,0,0,0,0,0,0,0,0,0,-1,1609,974,0,0
392,50,0,0,0,0,0,0,0,0,0,-1,1616,974,0,0
399,50,0,0,0,0,0,0,0,0,0,-1,1623,974,0,0
406,50,0,0,0,0,0,0,0,0,0,-1,1630,974,0,0
413,50,0,0,0,0,0,0,0,0,0,-1,1637,974,0,0
420,50,0,0,0,0,0,0,0,0,0,-1,1644,974,0,0
427,50,0,0,0,0,0,0,0,0,0,-1,1651,974,0,0
434,50,0,0,0,0,0,0,0,0,0,-1,1658,974,0,0
441,50,0,0,0,0,0,0,0,0,0,-1,1665,974,0,0
448,50,0,0,0,0,0,0,0,0,0,-1,1672,974,0,0
455,50,0,0,0,0,0,0,0,0,0,-1,1679,974,0,0
462,50,0,0,0,0,0,0,0,0,0,-1,1686,974,0,0
469,50,0,0,0,0,0,0,0,0,0,-1,1693,974,0,0
476,50,0,0,0,0,0,0,0,0,0,-1,1700,974,0,0
483,50,0,0,0,0,0,0,0,0,0,-1,1707,974,0,0
490,50,0,0,0,0,0,0,0,0,0,-1,1714,974,0,0
497,50,0,0,0,0,0,0,0,0,0,-1,1721,974,0,0
504,50,0,0,0,0,0,0,0,0,0,-1,1728,974,0,0
511,50,0,0,0,0,0,0,0,0,0,-1,1735,974,0,0
518,50,0,0,0,0,0,0,0,0,0,-1,1742,974,0,0
525,50,0,0,0,0,0,0,0,0,0,-1,1749,974,0,0
532,50,0,0,0,0,0,0,0,0,0,-1,1756,974,0,0
539,50,0,0,0,0,0,0,0,0,0,-1,1763,974,0,0
546,50,0,0,0,0,0,0,0,0,0,-1,1770,974,0,0
553,50,0,0,0,0,0,0,0,0,0,-1,1777,974,0,0
560,50,0,0,0,0,0,0,0,0,0,-1,1784,974,0,0
567,50,0,0,0,0,0,0,0,0,0,-1,1791,974,0,0
574,50,0,0,0,0,0,0,0,0,0,-1,1798,974,0,0
581,50,0,0,0,0,0,0,0,0,0,-1,1805,974,0,0
588,50,0,0,0,0,0,0,0,0,0,-1,1812,974,0,0
595,50,0,0,0,0,0,0,0,0,0,-1,1819,974,0,0
602,50,0,0,0,0,0,0,0,0,0,-1,1826,974,0,0
609,50,0,0,0,0,0,0,0,0,0,-1,1833,974,0,0
616,50,0,0,0,0,0,0,0,0,0,-1,1840,974,0,0
623,50,0,0,0,0,0,0,0,0,0,-1,1847,974,0,0
630,50,0,0,0,0,0,0,0,0,0,-1,1854,974,0,0
637,50,0,0,0,0,0,0,0,0,0,-1,1861,974,0,0
644,50,70.7103,2.1496,0.00378467,-0.0023292,5.67811e-05,0.0037852,-0.00232973,0.0092862,0.00356363,0.0390299,1868,974,70.7103,-2.14957
651,50,70.6759,2.27759,0.00246518,-0.00170235,-0.000290945,0.00248539,-0.00172256,-0.0693641,0.00244273,0.0333351,1875,974,70.6759,-2.27758
658,50,70.7224,2.37305,0.00170644,-0.00128471,-0.000383659,0.00175487,-0.00133313,-0.125557,0.00178839,0.0388971,1882,974,70.7224,-2.37307
665,50,70.571,2.31726,0.00130645,-0.000883733,-0.000413627,0.00138196,-0.000959245,-0.180572,0.00135902,0.0409858,1889,974,70.571,-2.31729
672,50,70.4674,2.216,0.000849934,-0.000620572,-0.000327678,0.000919647,-0.000690284,-0.209622,0.000932633,0.0391087,1896,974,70.4674,-2.216
679,50,70.4404,2.38855,0.000419688,-0.000667558,-0.000126837,0.000434288,-0.000682159,-0.114609,0.000649855,0.039686,1903,974,70.4405,-2.38852
686,50,70.4856,2.40594,0.000241256,-0.000982373,-6.17663e-05,0.000244366,-0.000985483,-0.0503075,0.000751801,0.0418248,1910,974,70.4856,-2.40592
693,50,70.4867,2.23425,-6.83619e-05,-0.00126347,-0.000153993,-4.88384e-05,-0.00128299,-0.126109,0.000839523,0.0377229,1917,974,70.4867,-2.23427
700,50,70.4882,2.32135,-0.000600561,-0.00125151,-0.000298211,-0.000484602,-0.00136747,-0.370857,0.000800591,0.0241526,1924,974,70.4882,-2.32137
707,50,70.5582,2.39563,-0.00121088,-0.00084103,-0.000616659,-0.000382164,-0.00166974,-0.931072,0.00101016,0.0407122,1931,974,70.5582,-2.39562
714,50,70.5026,2.50092,0,0,0,0,0,0,0,-1,1938,974,70.5026,-2.50091
721,50,69.2483,5.47919,0,0,0,0,0,0,0,-1,1945,974,69.2483,-5.47919
728,50,69.3395,5.94965,-0.0043318,0.00239048,-0.00145586,0.00269223,-0.00463355,-1.36642,0.00427876,0.0208963,1952,974,69.3394,-5.94962
735,50,69.3929,6.39087,-0.00523302,0.00392107,-0.0019731,0.00432825,-0.0056402,-1.36729,0.00577188,0.0225384,1959,974,69.3929,-6.39084
742,50,69.3934,6.79602,-0.00628027,0.00607881,-0.00230302,0.00649402,-0.00669547,-1.39243,0.00761525,0.0173543,1966,974,69.3934,-6.79602
749,50,69.2979,7.11359,-0.00754122,0.0101856,-0.00244936,0.0105178,-0.00787343,-1.43599,0.0106547,0.0176749,1973,974,69.2978,-7.11357
756,50,69.2151,7.4613,-0.00886642,0.0151158,-0.00260007,0.0153945,-0.00914507,-1.46403,0.0143202,0.0158544,1980,974,69.2151,-7.46131
763,50,69.1025,7.81622,-0.00965263,0.0221511,-0.00225826,0.0223106,-0.00981218,-1.50026,0.0190083,0.0157287,1987,974,69.1025,-7.81623
770,50,68.9619,8.13501,-0.00964808,0.0309946,-0.00137539,0.0310411,-0.00969457,-1.53701,0.0245716,0.0144645,1994,974,68.9618,-8.13498
777,50,68.8611,8.55029,-0.0090528,0.0415097,0.000364056,0.0415123,-0.00905542,1.5636,0.0311354,0.0239511,2001,974,68.8611,-8.5503
784,50,68.9072,9.05469,-0.00706559,0.0547908,0.00348826,0.0549869,-0.00726168,1.51464,0.0393027,0.0418322,2008,974,68.9072,-9.0547
791,50,69.2036,9.22241,-0.00233352,0.0720729,0.00831257,0.0729903,-0.00325088,1.46088,0.0497792,0.0475388,2015,974,69.2036,-9.22243
798,50,69.5188,9.38458,0,0,0,0,0,0,0,-1,2022,974,69.5187,-9.38457
805,50,70.2219,11.585,0,0,0,0,0,0,0,-1,2029,974,70.2218,-11.585
812,50,0,0,0,0,0,0,0,0,0,-1,2036,974,0,0
-700,43,0,0,0,0,0,0,0,0,0,-1,524,981,0,0
-693,43,-55.6134,10.6201,0,0,0,0,0,0,0,-1,531,981,-55.6134,-10.6201
-686,43,-55.5221,9.17328,0,0,0,0,0,0,0,-1,538,981,-55.5221,-9.1733
-679,43,-54.1999,8.13141,0,0,0,0,0,0,0,-1,545,981,-54.1999,-8.1314
-672,43,-53.1416,6.98151,0,0,0,0,0,0,0,-1,552,981,-53.1416,-6.98153
-665,43,-58.3989,4.90314,0,0,0,0,0,0,0,-1,559,981,-58.3989,-4.90313
-658,43,-53.6268,7.06177,0,0,0,0,0,0,0,-1,566,981,-53.6268,-7.06177
-651,43,-53.9958,6.69788,-0.0228182,0.0193344,0.00155626,0.0193917,-0.0228756,1.53394,0.0244306,0.0459283,573,981,-53.9958,-6.69787
-644,43,-54.3882,6.32703,-0.0193648,0.0195838,0.00230595,0.0197198,-0.0195009,1.51187,0.0226442,0.0268863,580,981,-54.3882,-6.32701
-637,43,-54.6019,6.03137,-0.0161853,0.0177604,0.00294019,0.0180131,-0.0164381,1.48503,0.0198974,0.0197605,587,981,-54.6019,-6.0314
-630,43,-54.6581,5.81317,-0.0130859,0.0148298,0.00322926,0.0151985,-0.0134545,1.45712,0.016553,0.0155756,594,981,-54.6581,-5.81316
-623,43,-54.6807,5.57788,-0.0102438,0.0108101,0.00315302,0.0112721,-0.0107059,1.42529,0.0126904,0.0140929,601,981,-54.6807,-5.5779
-616,43,-54.6891,5.28888,-0.00793106,0.00719899,0.00263272,0.00764401,-0.00837608,1.40335,0.00925243,0.0135614,608,981,-54.6891,-5.2889
-609,43,-54.697,4.96851,-0.00614961,0.00434052,0.00220915,0.00478677,-0.00659586,1.37148,0.00659937,0.0147437,615,981,-54.697,-4.96848
-602,43,-54.6939,4.66583,-0.00477045,0.00240307,0.00176896,0.00281557,-0.00518295,1.3417,0.00468488,0.0174253,622,981,-54.6939,-4.6658
-595,43,-54.852,4.39105,-0.00340926,0.0010719,0.00152007,0.00153887,-0.00387622,1.27275,0.00322202,0.0193739,629,981,-54.852,-4.39104
-588,43,-55.1335,4.22748,0,0,0,0,0,0,0,-1,636,981,-55.1335,-4.22746
-581,43,-54.7195,0.476929,0,0,0,0,0,0,0,-1,643,981,-54.7196,-0.476913
-574,43,-54.6675,0.438904,-0.00140636,-0.00186469,0.000251536,-0.00129525,-0.0019758,0.415951,0.00115899,0.0293684,650,981,-54.6676,-0.438927
-567,43,-54.6081,0.327576,-0.00123058,-0.00175971,4.52479e-05,-0.00122674,-0.00176356,0.0846942,0.00104384,0.0366455,657,981,-54.6081,-0.327575
-560,43,-54.4857,0.28717,-0.0012274,-0.00124228,-7.32832e-05,-0.00116118,-0.0013085,-0.734803,0.000827609,0.0412254,664,981,-54.4857,-0.28718
-553,43,-54.5258,0.35614,-0.00145769,-0.000365858,-7.29209e-05,-0.000361009,-0.00146254,-1.5044,0.000879739,0.0424723,671,981,-54.5258,-0.35616
-546,43,-54.5502,0.335449,-0.00210649,0.000565804,8.16099e-05,0.000568295,-0.00210898,1.5403,0.00162881,0.0447908,678,981,-54.5502,-0.335457
-539,43,-54.4832,0.433594,-0.00365979,0.000980805,0.000395104,0.0010142,-0.00369319,1.48646,0.00286076,0.0469456,685,981,-54.4832,-0.433576
-532,43,-54.4058,0.379211,-0.00571701,0.000558106,0.000606522,0.000616191,-0.0057751,1.47532,0.00407104,0.0476224,692,981,-54.4058,-0.37919
-525,43,-54.5769,0.286865,-0.00844143,0.00046954,0.000556556,0.000504166,-0.00847605,1.50866,0.00582603,0.044211,699,981,-54.5769,-0.286884
-518,43,0,0,0,0,0,0,0,0,0,-1,706,981,0,0
-511,43,0,0,0,0,0,0,0,0,0,-1,713,981,0,0
-504,43,0,0,0,0,0,0,0,0,0,-1,720,981,0,0
-497,43,0,0,0,0,0,0,0,0,0,-1,727,981,0,0
-490,43,0,0,0,0,0,0,0,0,0,-1,734,981,0,0
-483,43,0,0,0,0,0,0,0,0,0,-1,741,981,0,0
-476,43,0,0,0,0,0,0,0,0,0,-1,748,981,0,0
-469,43,0,0,0,0,0,0,0,0,0,-1,755,981,0,0
-462,43,0,0,0,0,0,0,0,0,0,-1,762,981,0,0
-455,43,0,0,0,0,0,0,0,0,0,-1,769,981,0,0
-448,43,0,0,0,0,0,0,0,0,0,-1,776,981,0,0
-441,43,0,0,0,0,0,0,0,0,0,-1,783,981,0,0
-434,43,0,0,0,0,0,0,0,0,0,-1,790,981,0,0
-427,43,0,0,0,0,0,0,0,0,0,-1,797,981,0,0
-420,43,0,0,0,0,0,0,0,0,0,-1,804,981,0,0
-413,43,0,0,0,0,0,0,0,0,0,-1,811,981,0,0
-406,43,0,0,0,0,0,0,0,0,0,-1,818,981,0,0
-399,43,0,0,0,0,0,0,0,0,0,-1,825,981,0,0
-392,43,0,0,0,0,0,0,0,0,0,-1,832,981,0,0
-385,43,0,0,0,0,0,0,0,0,0,-1,839,981,0,0
-378,43,0,0,0,0,0,0,0,0,0,-1,846,981,0,0
-371,43,0,0,0,0,0,0,0,0,0,-1,853,981,0,0
-364,43,0,0,0,0,0,0,0,0,0,-1,860,981,0,0
-357,43,0,0,0,0,0,0,0,0,0,-1,867,981,0,0
-350,43,0,0,0,0,0,0,0,0,0,-1,874,981,0,0
-343,43,0,0,0,0,0,0,0,0,0,-1,881,981,0,0
-336,43,0,0,0,0,0,0,0,0,0,-1,888,981,0,0
-329,43,0,0,0,0,0,0,0,0,0,-1,895,981,0,0
-322,43,0,0,0,0,0,0,0,0,0,-1,902,981,0,0
-315,43,0,0,0,0,0,0,0,0,0,-1,909,981,0,0
-308,43,0,0,0,0,0,0,0,0,0,-1,916,981,0,0
-301,43,0,0,0,0,0,0,0,0,0,-1,923,981,0,0
-294,43,0,0,0,0,0,0,0,0,0,-1,930,981,0,0
-287,43,0,0,0,0,0,0,0,0,0,-1,937,981,0,0
-280,43,0,0,0,0,0,0,0,0,0,-1,944,981,0,0
-273,43,0,0,0,0,0,0,0,0,0,-1,951,981,0,0
-266,43,0,0,0,0,0,0,0,0,0,-1,958,981,0,0
-259,43,0,0,0,0,0,0,0,0,0,-1,965,981,0,0
-252,43,0,0,0,0,0,0,0,0,0,-1,972,981,0,0
-245,43,0,0,0,0,0,0,0,0,0,-1,979,981,0,0
-238,43,0,0,0,0,0,0,0,0,0,-1,986,981,0,0
-231,43,0,0,0,0,0,0,0,0,0,-1,993,981,0,0
-224,43,0,0,0,0,0,0,0,0,0,-1,1000,981,0,0
-217,43,0,0,0,0,0,0,0,0,0,-1,1007,981,0,0
-210,43,0,0,0,0,0,0,0,0,0,-1,1014,981,0,0
-203,43,0,0,0,0,0,0,0,0,0,-1,1021,981,0,0
-196,43,0,0,0,0,0,0,0,0,0,-1,1028,981,0,0
-189,43,0,0,0,0,0,0,0,0,0,-1,1035,981,0,0
-182,43,0,0,0,0,0,0,0,0,0,-1,1042,981,0,0
-175,43,0,0,0,0,0,0,0,0,0,-1,1049,981,0,0
-168,43,0,0,0,0,0,0,0,0,0,-1,1056,981,0,0
-161,43,0,0,0,0,0,0,0,0,0,-1,1063,981,0,0
-154,43,0,0,0,0,0,0,0,0,0,-1,1070,981,0,0
-147,43,0,0,0,0,0,0,0,0,0,-1,1077,981,0,0
-140,43,0,0,0,0,0,0,0,0,0,-1,1084,981,0,0
-133,43,0,0,0,0,0,0,0,0,0,-1,1091,981,0,0
-126,43,0,0,0,0,0,0,0,0,0,-1,1098,981,0,0
-119,43,0,0,0,0,0,0,0,0,0,-1,1105,981,0,0
-112,43,0,0,0,0,0,0,0,0,0,-1,1112,981,0,0
-105,43,0,0,0,0,0,0,0,0,0,-1,1119,981,0,0
-98,43,0,0,0,0,0,0,0,0,0,-1,1126,981,0,0
-91,43,0,0,0,0,0,0,0,0,0,-1,1133,981,0,0
-84,43,0,0,0,0,0,0,0,0,0,-1,1140,981,0,0
-77,43,0,0,0,0,0,0,0,0,0,-1,1147,981,0,0
-70,43,0,0,0,0,0,0,0,0,0,-1,1154,981,0,0
-63,43,0,0,0,0,0,0,0,0,0,-1,1161,981,0,0
-56,43,0,0,0,0,0,0,0,0,0,-1,1168,981,0,0
-49,43,0,0,0,0,0,0,0,0,0,-1,1175,981,0,0
-42,43,0,0,0,0,0,0,0,0,0,-1,1182,981,0,0
-35,43,0,0,0,0,0,0,0,0,0,-1,1189,981,0,0
-28,43,0,0,0,0,0,0,0,0,0,-1,1196,981,0,0
-21,43,0,0,0,0,0,0,0,0,0,-1,1203,981,0,0
-14,43,0,0,0,0,0,0,0,0,0,-1,1210,981,0,0
-7,43,0,0,0,0,0,0,0,0,0,-1,1217,981,0,0
0,43,0,0,0,0,0,0,0,0,0,-1,1224,981,0,0
7,43,0,0,0,0,0,0,0,0,0,-1,1231,981,0,0
14,43,0,0,0,0,0,0,0,0,0,-1,1238,981,0,0
21,43,0,0,0,0,0,0,0,0,0,-1,1245,981,0,0
28,43,0,0,0,0,0,0,0,0,0,-1,1252,981,0,0
35,43,0,0,0,0,0,0,0,0,0,-1,1259,981,0,0
42,43,0,0,0,0,0,0,0,0,0,-1,1266,981,0,0
49,43,0,0,0,0,0,0,0,0,0,-1,1273,981,0,0
56,43,0,0,0,0,0,0,0,0,0,-1,1280,981,0,0
63,43,0,0,0,0,0,0,0,0,0,-1,1287,981,0,0
70,43,0,0,0,0,0,0,0,0,0,-1,1294,981,0,0
77,43,0,0,0,0,0,0,0,0,0,-1,1301,981,0,0
84,43,0,0,0,0,0,0,0,0,0,-1,1308,981,0,0
91,43,0,0,0,0,0,0,0,0,0,-1,1315,981,0,0
98,43,0,0,0,0,0,0,0,0,0,-1,1322,981,0,0
105,43,0,0,0,0,0,0,0,0,0,-1,1329,981,0,0
112,43,0,0,0,0,0,0,0,0,0,-1,1336,981,0,0
119,43,0,0,0,0,0,0,0,0,0,-1,1343,981,0,0
126,43,0,0,0,0,0,0,0,0,0,-1,1350,981,0,0
133,43,0,0,0,0,0,0,0,0,0,-1,1357,981,0,0
140,43,0,0,0,0,0,0,0,0,0,-1,1364,981,0,0
147,43,0,0,0,0,0,0,0,0,0,-1,1371,981,0,0
154,43,0,0,0,0,0,0,0,0,0,-1,1378,981,0,0
161,43,0,0,0,0,0,0,0,0,0,-1,1385,981,0,0
168,43,0,0,0,0,0,0,0,0,0,-1,1392,981,0,0
175,43,0,0,0,0,0,0,0,0,0,-1,1399,981,0,0
182,43,0,0,0,0,0,0,0,0,0,-1,1406,981,0,0
189,43,0,0,0,0,0,0,0,0,0,-1,1413,981,0,0
196,43,0,0,0,0,0,0,0,0,0,-1,1420,981,0,0
203,43,0,0,0,0,0,0,0,0,0,-1,1427,981,0,0
210,43,0,0,0,0,0,0,0,0,0,-1,1434,981,0,0
217,43,0,0,0,0,0,0,0,0,0,-1,1441,981,0,0
224,43,0,0,0,0,0,0,0,0,0,-1,1448,981,0,0
231,43,0,0,0,0,0,0,0,0,0,-1,1455,981,0,0
238,43,0,0,0,0,0,0,0,0,0,-1,1462,981,0,0
245,43,0,0,0,0,0,0,0,0,0,-1,1469,981,0,0
252,43,0,0,0,0,0,0,0,0,0,-1,1476,981,0,0
259,43,0,0,0,0,0,0,0,0,0,-1,1483,981,0,0
266,43,0,0,0,0,0,0,0,0,0,-1,1490,981,0,0
273,43,0,0,0,0,0,0,0,0,0,-1,1497,981,0,0
280,43,0,0,0,0,0,0,0,0,0,-1,1504,981,0,0
287,43,0,0,0,0,0,0,0,0,0,-1,1511,981,0,0
294,43,0,0,0,0,0,0,0,0,0,-1,1518,981,0,0
301,43,0,0,0,0,0,0,0,0,0,-1,1525,981,0,0
308,43,0,0,0,0,0,0,0,0,0,-1,1532,981,0,0
315,43,0,0,0,0,0,0,0,0,0,-1,1539,981,0,0
322,43,0,0,0,0,0,0,0,0,0,-1,1546,981,0,0
329,43,0,0,0,0,0,0,0,0,0,-1,1553,981,0,0
336,43,0,0,0,0,0,0,0,0,0,-1,1560,981,0,0
343,43,0,0,0,0,0,0,0,0,0,-1,1567,981,0,0
350,43,0,0,0,0,0,0,0,0,0,-1,1574,981,0,0
357,43,0,0,0,0,0,0,0,0,0,-1,1581,981,0,0
364,43,0,0,0,0,0,0,0,0,0,-1,1588,981,0,0
371,43,0,0,0,0,0,0,0,0,0,-1,1595,981,0,0
378,43,0,0,0,0,0,0,0,0,0,-1,1602,981,0,0
385,43,0,0,0,0,0,0,0,0,0,-1,1609,981,0,0
392,43,0,0,0,0,0,0,0,0,0,-1,1616,981,0,0
399,43,0,0,0,0,0,0,0,0,0,-1,1623,981,0,0
406,43,0,0,0,0,0,0,0,0,0,-1,1630,981,0,0
413,43,0,0,0,0,0,0,0,0,0,-1,1637,981,0,0
420,43,0,0,0,0,0,0,0,0,0,-1,1644,981,0,0
427,43,0,0,0,0,0,0,0,0,0,-1,1651,981,0,0
434,43,0,0,0,0,0,0,0,0,0,-1,1658,981,0,0
441,43,0,0,0,0,0,0,0,0,0,-1,1665,981,0,0
448,43,0,0,0,0,0,0,0,0,0,-1,1672,981,0,0
455,43,0,0,0,0,0,0,0,0,0,-1,1679,981,0,0
462,43,0,0,0,0,0,0,0,0,0,-1,1686,981,0,0
469,43,0,0,0,0,0,0,0,0,0,-1,1693,981,0,0
476,43,0,0,0,0,0,0,0,0,0,-1,1700,981,0,0
483,43,0,0,0,0,0,0,0,0,0,-1,1707,981,0,0
490,43,0,0,0,0,0,0,0,0,0,-1,1714,981,0,0
497,43,0,0,0,0,0,0,0,0,0,-1,1721,981,0,0
504,43,0,0,0,0,0,0,0,0,0,-1,1728,981,0,0
511,43,0,0,0,0,0,0,0,0,0,-1,1735,981,0,0
518,43,0,0,0,0,0,0,0,0,0,-1,1742,981,0,0
525,43,0,0,0,0,0,0,0,0,0,-1,1749,981,0,0
532,43,0,0,0,0,0,0,0,0,0,-1,1756,981,0,0
539,43,0,0,0,0,0,0,0,0,0,-1,1763,981,0,0
546,43,0,0,0,0,0,0,0,0,0,-1,1770,981,0,0
553,43,0,0,0,0,0,0,0,0,0,-1,1777,981,0,0
560,43,0,0,0,0,0,0,0,0,0,-1,1784,981,0,0
567,43,0,0,0,0,0,0,0,0,0,-1,1791,981,0,0
574,43,0,0,0,0,0,0,0,0,0,-1,1798,981,0,0
581,43,0,0,0,0,0,0,0,0,0,-1,1805,981,0,0
588,43,0,0,0,0,0,0,0,0,0,-1,1812,981,0,0
595,43,0,0,0,0,0,0,0,0,0,-1,1819,981,0,0
602,43,0,0,0,0,0,0,0,0,0,-1,1826,981,0,0
609,43,0,0,0,0,0,0,0,0,0,-1,1833,981,0,0
616,43,0,0,0,0,0,0,0,0,0,-1,1840,981,0,0
623,43,0,0,0,0,0,0,0,0,0,-1,1847,981,0,0
630,43,0,0,0,0,0,0,0,0,0,-1,1854,981,0,0
637,43,0,0,0,0,0,0,0,0,0,-1,1861,981,0,0
644,43,70.4402,2.34851,0.00337182,-0.00224322,-0.000421248,0.00340324,-0.00227465,-0.0744659,0.00329965,0.0394231,1868,981,70.4402,-2.34853
651,43,70.5448,2.33838,0.00207489,-0.00164137,-0.000677286,0.00219448,-0.00176096,-0.174766,0.00228824,0.0375995,1875,981,70.5448,-2.33835
658,43,70.7449,2.37817,0.00135393,-0.00124362,-0.000709749,0.00153521,-0.0014249,-0.250067,0.00170941,0.039226,1882,981,70.7449,-2.37817
665,43,70.6627,2.22076,0.0010102,-0.000858525,-0.000700886,0.00124386,-0.00109218,-0.32179,0.00134966,0.0380743,1889,981,70.6627,-2.22074
672,43,70.5339,2.02948,0.000682421,-0.000563313,-0.00060585,0.000928472,-0.000809364,-0.385775,0.00100413,0.0359236,1896,981,70.534,-2.02951
679,43,70.4332,2.09882,0.000388403,-0.000539778,-0.00041536,0.000547132,-0.000698507,-0.365023,0.000720938,0.0385861,1903,981,70.4332,-2.09882
686,43,70.4414,2.28638,0.000301509,-0.000818379,-0.000328122,0.000390565,-0.000907435,-0.265027,0.000768951,0.0414509,1910,981,70.4414,-2.28636
693,43,70.4208,2.33392,7.75134e-05,-0.00111845,-0.00037485,0.00018529,-0.00122623,-0.279967,0.000885733,0.0366907,1917,981,70.4208,-2.33393
700,43,70.4209,2.38654,-0.000339418,-0.00115051,-0.000486831,-0.000111345,-0.00137858,-0.438118,0.000884279,0.0332379,1924,981,70.4209,-2.38655
707,43,70.5874,2.28601,-0.00093088,-0.000713829,-0.0007716,-4.31594e-05,-0.00160155,-0.855265,0.00105361,0.0346534,1931,981,70.5874,-2.28602
714,43,70.5731,2.25659,0,0,0,0,0,0,0,-1,1938,981,70.5731,-2.25657
721,43,69.71,5.56104,0,0,0,0,0,0,0,-1,1945,981,69.7099,-5.56105
728,43,69.7788,5.98517,-0.00445037,0.0027837,-0.00142252,0.00305338,-0.00472004,-1.38345,0.00452224,0.0188444,1952,981,69.7789,-5.9852
735,43,69.8279,6.39075,-0.00543828,0.00444097,-0.00184355,0.00477378,-0.00577109,-1.39219,0.00609715,0.0154783,1959,981,69.8278,-6.39073
742,43,69.7722,6.74805,-0.00664857,0.00670037,-0.00203474,0.00700363,-0.00695183,-1.42284,0.00805721,0.016964,1966,981,69.7722,-6.74804
749,43,69.7153,7.07391,-0.00815266,0.0108773,-0.00199698,0.0110846,-0.00835996,-1.46736,0.011263,0.0195122,1973,981,69.7154,-7.07394
756,43,69.7021,7.36652,-0.00976527,0.0158204,-0.0019911,0.0159744,-0.00991929,-1.49359,0.0150854,0.0240349,1980,981,69.7022,-7.36652
763,43,69.6377,7.62939,-0.0109207,0.0230646,-0.00146205,0.0231273,-0.0109835,-1.52788,0.0201056,0.026957,1987,981,69.6377,-7.62938
770,43,69.4724,7.99591,-0.0112413,0.032578,-0.000323782,0.0325804,-0.0112437,-1.56341,0.0262825,0.0216215,1994,981,69.4724,-7.99593
777,43,69.4326,8.38959,-0.0108625,0.0440466,0.00172101,0.0441004,-0.0109164,1.53949,0.0336349,0.0248163,2001,981,69.4326,-8.38956
784,43,69.4541,9.1347,-0.00908521,0.0585587,0.00521465,0.0589583,-0.00948484,1.49431,0.0428188,0.0416633,2008,981,69.454,-9.13468
791,43,69.4553,10.0982,-0.00462041,0.0775749,0.0105949,0.0789186,-0.00596413,1.44464,0.0547089,0.0461254,2015,981,69.4553,-10.0982
798,43,69.771,10.857,0.00270084,0.103202,0.0186,0.106534,-0.00063106,1.39354,0.0712338,0.0451726,2022,981,69.771,-10.857
805,43,70.2737,11.3029,0,0,0,0,0,0,0,-1,2029,981,70.2737,-11.3029
812,43,70.7471,11.7739,0,0,0,0,0,0,0,-1,2036,981,70.747,-11.7739
-700,36,0,0,0,0,0,0,0,0,0,-1,524,988,0,0
-693,36,-56.7862,9.92981,0,0,0,0,0,0,0,-1,531,988,-56.7862,-9.92979
-686,36,-56.743,8.78217,0,0,0,0,0,0,0,-1,538,988,-56.743,-8.78215
-679,36,-54.704,7.83893,0,0,0,0,0,0,0,-1,545,988,-54.704,-7.83895
-672,36,-53.6129,6.52045,0,0,0,0,0,0,0,-1,552,988,-53.6128,-6.52046
-665,36,-57.6921,3.67902,0,0,0,0,0,0,0,-1,559,988,-57.6921,-3.67901
-658,36,-53.9243,6.92798,0,0,0,0,0,0,0,-1,566,988,-53.9242,-6.92801
-651,36,-54.3134,6.45947,-0.0201781,0.0254274,0.00260363,0.0255755,-0.0203263,1.51395,0.0265591,0.0459484,573,988,-54.3133,-6.45946
-644,36,-54.7238,6.02509,-0.0177874,0.0237071,0.00287143,0.0239048,-0.0179851,1.50203,0.0242656,0.0291092,580,988,-54.7238,-6.02506
-637,36,-54.9398,5.80725,-0.0153914,0.0204235,0.00316667,0.0207013,-0.0156693,1.48328,0.0210655,0.0227335,587,988,-54.9398,-5.80725
-630,36,-54.961,5.68408,-0.0127804,0.0163535,0.00320171,0.0167012,-0.0131281,1.46262,0.0172631,0.0170971,594,988,-54.961,-5.68411
-623,36,-55.0135,5.49976,-0.0103645,0.0117072,0.00294402,0.0120931,-0.0107504,1.44045,0.0131963,0.0153765,601,988,-55.0135,-5.49978
-616,36,-55.0156,5.29242,-0.00832941,0.00767619,0.00235876,0.00801657,-0.00866978,1.42748,0.00963633,0.0135487,608,988,-55.0156,-5.29244
-609,36,-54.9337,5.06494,-0.00670349,0.00455692,0.00187334,0.0048604,-0.00700697,1.41019,0.00688889,0.0179966,615,988,-54.9337,-5.06495
-602,36,-54.9966,4.75671,-0.0054019,0.00242676,0.00149922,0.00270404,-0.00567919,1.38791,0.00494061,0.0224158,622,988,-54.9966,-4.75671
-595,36,-55.2643,4.43701,-0.00406595,0.000964204,0.00132543,0.00129208,-0.00439383,1.32829,0.00344173,0.0266529,629,988,-55.2643,-4.43701
-588,36,-55.5221,4.21924,0,0,0,0,0,0,0,-1,636,988,-55.5221,-4.21925
-581,36,-54.6063,0.513977,0,0,0,0,0,0,0,-1,643,988,-54.6063,-0.513996
-574,36,-54.6107,0.422424,-0.00185296,-0.00244511,0.000436348,-0.00162172,-0.00267635,0.487313,0.00155671,0.0283194,650,988,-54.6107,-0.422415
-567,36,-54.6589,0.308167,-0.00163305,-0.00254355,0.000366999,-0.00150355,-0.00267306,0.339241,0.0015473,0.0355407,657,988,-54.6589,-0.30816
-560,36,-54.5887,0.197388,-0.00155241,-0.00222422,0.00041313,-0.00135586,-0.00242077,0.444064,0.00140099,0.0410675,664,988,-54.5888,-0.197383
-553,36,-54.5172,0.133606,-0.0017464,-0.00157632,0.000575113,-0.00107999,-0.00224272,0.858801,0.00129513,0.0439362,671,988,-54.5171,-0.133604
-546,36,-54.5675,0.274048,-0.00245179,-0.000934589,0.000888789,-0.000524677,-0.0028617,1.13867,0.00175918,0.0447736,678,988,-54.5675,-0.274029
-539,36,-54.4395,0.21936,-0.00423953,-0.000871865,0.00135361,-0.000395244,-0.00471615,1.23224,0.00302099,0.0459306,685,988,-54.4395,-0.219362
-532,36,-54.3813,0.371399,-0.00658167,-0.00154491,0.00165989,-0.00104709,-0.0070795,1.27942,0.00441225,0.0471779,692,988,-54.3814,-0.371372
-525,36,-54.6766,0.495117,-0.00975751,-0.00182818,0.00161655,-0.00151128,-0.0100744,1.37722,0.00627349,0.0464227,699,988,-54.6767,-0.495129
-518,36,0,0,0,0,0,0,0,0,0,-1,706,988,0,0
-511,36,0,0,0,0,0,0,0,0,0,-1,713,988,0,0
-504,36,0,0,0,0,0,0,0,0,0,-1,720,988,0,0
-497,36,0,0,0,0,0,0,0,0,0,-1,727,988,0,0
-490,36,0,0,0,0,0,0,0,0,0,-1,734,988,0,0
-483,36,0,0,0,0,0,0,0,0,0,-1,741,988,0,0
-476,36,0,0,0,0,0,0,0,0,0,-1,748,988,0,0
-469,36,0,0,0,0,0,0,0,0,0,-1,755,988,0,0
-462,36,0,0,0,0,0,0,0,0,0,-1,762,988,0,0
-455,36,0,0,0,0,0,0,0,0,0,-1,769,988,0,0
-448,36,0,0,0,0,0,0,0,0,0,-1,776,988,0,0
-441,36,0,0,0,0,0,0,0,0,0,-1,783,988,0,0
-434,36,0,0,0,0,0,0,0,0,0,-1,790,988,0,0
-427,36,0,0,0,0,0,0,0,0,0,-1,797,988,0,0
-420,36,0,0,0,0,0,0,0,0,0,-1,804,988,0,0
-413,36,0,0,0,0,0,0,0,0,0,-1,811,988,0,0
-406,36,0,0,0,0,0,0,0,0,0,-1,818,988,0,0
-399,36,0,0,0,0,0,0,0,0,0,-1,825,988,0,0
-392,36,0,0,0,0,0,0,0,0,0,-1,832,988,0,0
-385,36,0,0,0,0,0,0,0,0,0,-1,839,988,0,0
-378,36,0,0,0,0,0,0,0,0,0,-1,846,988,0,0
-371,36,0,0,0,0,0,0,0,0,0,-1,853,988,0,0
-364,36,0,0,0,0,0,0,0,0,0,-1,860,988,0,0
-357,36,0,0,0,0,0,0,0,0,0,-1,867,988,0,0
-350,36,0,0,0,0,0,0,0,0,0,-1,874,988,0,0
-343,36,0,0,0,0,0,0,0,0,0,-1,881,988,0,0
-336,36,0,0,0,0,0,0,0,0,0,-1,888,988,0,0
-329,36,0,0,0,0,0,0,0,0,0,-1,895,988,0,0
-322,36,0,0,0,0,0,0,0,0,0,-1,902,988,0,0
-315,36,0,0,0,0,0,0,0,0,0,-1,909,988,0,0
-308,36,0,0,0,0,0,0,0,0,0,-1,916,988,0,0
-301,36,0,0,0,0,0,0,0,0,0,-1,923,988,0,0
-294,36,0,0,0,0,0,0,0,0,0,-1,930,988,0,0
-287,36,0,0,0,0,0,0,0,0,0,-1,937,988,0,0
-280,36,0,0,0,0,0,0,0,0,0,-1,944,988,0,0
-273,36,0,0,0,0,0,0,0,0,0,-1,951,988,0,0
-266,36,0,0,0,0,0,0,0,0,0,-1,958,988,0,0
-259,36,0,0,0,0,0,0,0,0,0,-1,965,988,0,0
-252,36,0,0,0,0,0,0,0,0,0,-1,972,988,0,0
-245,36,0,0,0,0,0,0,0,0,0,-1,979,988,0,0
-238,36,0,0,0,0,0,0,0,0,0,-1,986,988,0,0
-231,36,0,0,0,0,0,0,0,0,0,-1,993,988,0,0
-224,36,0,0,0,0,0,0,0,0,0,-1,1000,988,0,0
-217,36,0,0,0,0,0,0,0,0,0,-1,1007,988,0,0
-210,36,0,0,0,0,0,0,0,0,0,-1,1014,988,0,0
-203,36,0,0,0,0,0,0,0,0,0,-1,1021,988,0,0
-196,36,0,0,0,0,0,0,0,0,0,-1,1028,988,0,0
-189,36,0,0,0,0,0,0,0,0,0,-1,1035,988,0,0
-182,36,0,0,0,0,0,0,0,0,0,-1,1042,988,0,0
-175,36,0,0,0,0,0,0,0,0,0,-1,1049,988,0,0
-168,36,0,0,0,0,0,0,0,0,0,-1,1056,988,0,0
-161,36,0,0,0,0,0,0,0,0,0,-1,1063,988,0,0
-154,36,0,0,0,0,0,0,0,0,0,-1,1070,988,0,0
-147,36,0,0,0,0,0,0,0,0,0,-1,1077,988,0,0
-140,36,0,0,0,0,0,0,0,0,0,-1,1084,988,0,0
-133,36,0,0,0,0,0,0,0,0,0,-1,1091,988,0,0
-126,36,0,0,0,0,0,0,0,0,0,-1,1098,988,0,0
-119,36,0,0,0,0,0,0,0,0,0,-1,1105,988,0,0
-112,36,0,0,0,0,0,0,0,0,0,-1,1112,988,0,0
-105,36,0,0,0,0,0,0,0,0,0,-1,1119,988,0,0
-98,36,0,0,0,0,0,0,0,0,0,-1,1126,988,0,0
-91,36,0,0,0,0,0,0,0,0,0,-1,1133,988,0,0
-84,36,0,0,0,0,0,0,0,0,0,-1,1140,988,0,0
-77,36,0,0,0,0,0,0,0,0,0,-1,1147,988,0,0
-70,36,0,0,0,0,0,0,0,0,0,-1,1154,988,0,0
-63,36,0,0,0,0,0,0,0,0,0,-1,1161,988,0,0
-56,36,0,0,0,0,0,0,0,0,0,-1,1168,988,0,0
-49,36,0,0,0,0,0,0,0,0,0,-1,1175,988,0,0
-42,36,0,0,0,0,0,0,0,0,0,-1,1182,988,0,0
-35,36,0,0,0,0,0,0,0,0,0,-1,1189,988,0,0
-28,36,0,0,0,0,0,0,0,0,0,-1,1196,988,0,0
-21,36,0,0,0,0,0,0,0,0,0,-1,1203,988,0,0
-14,36,0,0,0,0,0,0,0,0,0,-1,1210,988,0,0
-7,36,0,0,0,0,0,0,0,0,0,-1,1217,988,0,0
0,36,0,0,0,0,0,0,0,0,0,-1,1224,988,0,0
7,36,0,0,0,0,0,0,0,0,0,-1,1231,988,0,0
14,36,0,0,0,0,0,0,0,0,0,-1,1238,988,0,0
21,36,0,0,0,0,0,0,0,0,0,-1,1245,988,0,0
28,36,0,0,0,0,0,0,0,0,0,-1,1252,988,0,0
35,36,0,0,0,0,0,0,0,0,0,-1,1259,988,0,0
42,36,0,0,0,0,0,0,0,0,0,-1,1266,988,0,0
49,36,0,0,0,0,0,0,0,0,0,-1,1273,988,0,0
56,36,0,0,0,0,0,0,0,0,0,-1,1280,988,0,0
63,36,0,0,0,0,0,0,0,0,0,-1,1287,988,0,0
70,36,0,0,0,0,0,0,0,0,0,-1,1294,988,0,0
77,36,0,0,0,0,0,0,0,0,0,-1,1301,988,0,0
84,36,0,0,0,0,0,0,0,0,0,-1,1308,988,0,0
91,36,0,0,0,0,0,0,0,0,0,-1,1315,988,0,0
98,36,0,0,0,0,0,0,0,0,0,-1,1322,988,0,0
105,36,0,0,0,0,0,0,0,0,0,-1,1329,988,0,0
112,36,0,0,0,0,0,0,0,0,0,-1,1336,988,0,0
119,36,0,0,0,0,0,0,0,0,0,-1,1343,988,0,0
126,36,0,0,0,0,0,0,0,0,0,-1,1350,988,0,0
133,36,0,0,0,0,0,0,0,0,0,-1,1357,988,0,0
140,36,0,0,0,0,0,0,0,0,0,-1,1364,988,0,0
147,36,0,0,0,0,0,0,0,0,0,-1,1371,988,0,0
154,36,0,0,0,0,0,0,0,0,0,-1,1378,988,0,0
161,36,0,0,0,0,0,0,0,0,0,-1,1385,988,0,0
168,36,0,0,0,0,0,0,0,0,0,-1,1392,988,0,0
175,36,0,0,0,0,0,0,0,0,0,-1,1399,988,0,0
182,36,0,0,0,0,0,0,0,0,0,-1,1406,988,0,0
189,36,0,0,0,0,0,0,0,0,0,-1,1413,988,0,0
196,36,0,0,0,0,0,0,0,0,0,-1,1420,988,0,0
203,36,0,0,0,0,0,0,0,0,0,-1,1427,988,0,0
210,36,0,0,0,0,0,0,0,0,0,-1,1434,988,0,0
217,36,0,0,0,0,0,0,0,0,0,-1,1441,988,0,0
224,36,0,0,0,0,0,0,0,0,0,-1,1448,988,0,0
231,36,0,0,0,0,0,0,0,0,0,-1,1455,988,0,0
238,36,0,0,0,0,0,0,0,0,0,-1,1462,988,0,0
245,36,0,0,0,0,0,0,0,0,0,-1,1469,988,0,0
252,36,0,0,0,0,0,0,0,0,0,-1,1476,988,0,0
259,36,0,0,0,0,0,0,0,0,0,-1,1483,988,0,0
266,36,0,0,0,0,0,0,0,0,0,-1,1490,988,0,0
273,36,0,0,0,0,0,0,0,0,0,-1,1497,988,0,0
280,36,0,0,0,0,0,0,0,0,0,-1,1504,988,0,0
287,36,0,0,0,0,0,0,0,0,0,-1,1511,988,0,0
294,36,0,0,0,0,0,0,0,0,0,-1,1518,988,0,0
301,36,0,0,0,0,0,0,0,0,0,-1,1525,988,0,0
308,36,0,0,0,0,0,0,0,0,0,-1,1532,988,0,0
315,36,0,0,0,0,0,0,0,0,0,-1,1539,988,0,0
322,36,0,0,0,0,0,0,0,0,0,-1,1546,988,0,0
329,36,0,0,0,0,0,0,0,0,0,-1,1553,988,0,0
336,36,0,0,0,0,0,0,0,0,0,-1,1560,988,0,0
343,36,0,0,0,0,0,0,0,0,0,-1,1567,988,0,0
350,36,0,0,0,0,0,0,0,0,0,-1,1574,988,0,0
357,36,0,0,0,0,0,0,0,0,0,-1,1581,988,0,0
364,36,0,0,0,0,0,0,0,0,0,-1,1588,988,0,0
371,36,0,0,0,0,0,0,0,0,0,-1,1595,988,0,0
378,36,0,0,0,0,0,0,0,0,0,-1,1602,988,0,0
385,36,0,0,0,0,0,0,0,0,0,-1,1609,988,0,0
392,36,0,0,0,0,0,0,0,0,0,-1,1616,988,0,0
399,36,0,0,0,0,0,0,0,0,0,-1,1623,988,0,0
406,36,0,0,0,0,0,0,0,0,0,-1,1630,988,0,0
413,36,0,0,0,0,0,0,0,0,0,-1,1637,988,0,0
420,36,0,0,0,0,0,0,0,0,0,-1,1644,988,0,0
427,36,0,0,0,0,0,0,0,0,0,-1,1651,988,0,0
434,36,0,0,0,0,0,0,0,0,0,-1,1658,988,0,0
441,36,0,0,0,0,0,0,0,0,0,-1,1665,988,0,0
448,36,0,0,0,0,0,0,0,0,0,-1,1672,988,0,0
455,36,0,0,0,0,0,0,0,0,0,-1,1679,988,0,0
462,36,0,0,0,0,0,0,0,0,0,-1,1686,988,0,0
469,36,0,0,0,0,0,0,0,0,0,-1,1693,988,0,0
476,36,0,0,0,0,0,0,0,0,0,-1,1700,988,0,0
483,36,0,0,0,0,0,0,0,0,0,-1,1707,988,0,0
490,36,0,0,0,0,0,0,0,0,0,-1,1714,988,0,0
497,36,0,0,0,0,0,0,0,0,0,-1,1721,988,0,0
504,36,0,0,0,0,0,0,0,0,0,-1,1728,988,0,0
511,36,0,0,0,0,0,0,0,0,0,-1,1735,988,0,0
518,36,0,0,0,0,0,0,0,0,0,-1,1742,988,0,0
525,36,0,0,0,0,0,0,0,0,0,-1,1749,988,0,0
532,36,0,0,0,0,0,0,0,0,0,-1,1756,988,0,0
539,36,0,0,0,0,0,0,0,0,0,-1,1763,988,0,0
546,36,0,0,0,0,0,0,0,0,0,-1,1770,988,0,0
553,36,0,0,0,0,0,0,0,0,0,-1,1777,988,0,0
560,36,0,0,0,0,0,0,0,0,0,-1,1784,988,0,0
567,36,0,0,0,0,0,0,0,0,0,-1,1791,988,0,0
574,36,0,0,0,0,0,0,0,0,0,-1,1798,988,0,0
581,36,0,0,0,0,0,0,0,0,0,-1,1805,988,0,0
588,36,0,0,0,0,0,0,0,0,0,-1,1812,988,0,0
595,36,0,0,0,0,0,0,0,0,0,-1,1819,988,0,0
602,36,0,0,0,0,0,0,0,0,0,-1,1826,988,0,0
609,36,0,0,0,0,0,0,0,0,0,-1,1833,988,0,0
616,36,0,0,0,0,0,0,0,0,0,-1,1840,988,0,0
623,36,0,0,0,0,0,0,0,0,0,-1,1847,988,0,0
630,36,0,0,0,0,0,0,0,0,0,-1,1854,988,0,0
637,36,0,0,0,0,0,0,0,0,0,-1,1861,988,0,0
644,36,70.4719,2.40112,0.00247808,-0.00271624,-0.00104275,0.00267959,-0.00291775,-0.190898,0.0032326,0.0437802,1868,988,70.472,-2.40113
651,36,70.3895,2.4856,0.00140692,-0.00192128,-0.00116847,0.00177618,-0.00229054,-0.306088,0.00235417,0.0443744,1875,988,70.3896,-2.4856
658,36,70.5798,2.51019,0.000844133,-0.00138214,-0.00111588,0.00130715,-0.00184515,-0.393314,0.0018288,0.040786,1882,988,70.5799,-2.51021
665,36,70.6403,2.2644,0.000611811,-0.00091242,-0.00103444,0.00113456,-0.00143517,-0.467917,0.00148702,0.0397584,1889,988,70.6402,-2.26441
672,36,70.595,2.14581,0.000435849,-0.000525026,-0.000885654,0.000962984,-0.00105216,-0.536878,0.00116382,0.0391939,1896,988,70.5949,-2.14579
679,36,70.5383,2.08746,0.000304029,-0.000377105,-0.000661295,0.000707301,-0.000780377,-0.547611,0.000859257,0.0391687,1903,988,70.5384,-2.08744
686,36,70.5111,2.26697,0.0003154,-0.0005836,-0.000526262,0.000557999,-0.000826199,-0.431953,0.000804152,0.0372908,1910,988,70.5111,-2.26694
693,36,70.5428,2.46509,0.000194266,-0.0008469,-0.000496605,0.000393143,-0.00104578,-0.380915,0.000858772,0.0368542,1917,988,70.5428,-2.46506
700,36,70.5243,2.46826,-9.46736e-05,-0.000900624,-0.000545776,0.000180776,-0.00117607,-0.467395,0.000850734,0.0339207,1924,988,70.5243,-2.46825
707,36,70.6193,2.29962,-0.000659628,-0.000451352,-0.000769851,0.000221372,-0.00133235,-0.852625,0.000970478,0.0285156,1931,988,70.6193,-2.2996
714,36,70.6277,2.19513,0,0,0,0,0,0,0,-1,1938,988,70.6277,-2.19514
721,36,70.0066,5.65564,0,0,0,0,0,0,0,-1,1945,988,70.0066,-5.65565
728,36,70.0421,6.07703,-0.00442771,0.00322983,-0.0012602,0.00343188,-0.00462977,-1.41181,0.00467149,0.0237639,1952,988,70.0421,-6.07701
735,36,70.0881,6.47815,-0.00545747,0.00497151,-0.00161517,0.00521593,-0.00570189,-1.42061,0.00630549,0.0206408,1959,988,70.0882,-6.47816
742,36,70.0333,6.7019,-0.00677377,0.00728087,-0.00171179,0.00748635,-0.00697926,-1.45133,0.00835344,0.0173915,1966,988,70.0333,-6.70192
749,36,70.0148,7.0141,-0.00844312,0.0114147,-0.00156695,0.0115376,-0.00856601,-1.49253,0.011649,0.0195047,1973,988,70.0148,-7.01412
756,36,70.0042,7.31445,-0.0102532,0.0163039,-0.00148299,0.0163864,-0.0103357,-1.51519,0.0155593,0.0190881,1980,988,70.0041,-7.31444
763,36,69.8662,7.53113,-0.0117314,0.0236096,-0.000870915,0.0236311,-0.0117528,-1.54617,0.0208091,0.0210823,1987,988,69.8661,-7.53111
770,36,69.7625,7.81934,-0.0124398,0.0335879,0.000432454,0.033592,-0.0124439,1.5614,0.0274977,0.0170604,1994,988,69.7625,-7.81934
777,36,69.7068,8.16699,-0.0124025,0.0457772,0.00268041,0.0459004,-0.0125257,1.52485,0.0355195,0.0254243,2001,988,69.7069,-8.167
784,36,69.7317,8.52588,-0.0110306,0.0611802,0.00637787,0.0617392,-0.0115896,1.48338,0.0455171,0.0439184,2008,988,69.7317,-8.52587
791,36,69.7588,8.85052,-0.00712518,0.0814515,0.0120473,0.0830608,-0.00873449,1.438,0.0585031,0.0453627,2015,988,69.7588,-8.85055
798,36,69.396,9.09839,-0.000465305,0.108775,0.0204821,0.112489,-0.00417934,1.39141,0.076424,0.0466632,2022,988,69.3959,-9.09841
805,36,69.2563,9.40845,0,0,0,0,0,0,0,-1,2029,988,69.2564,-9.40847
812,36,66.1145,5.13074,0,0,0,0,0,0,0,-1,2036,988,66.1145,-5.13077
-700,29,0,0,0,0,0,0,0,0,0,-1,524,995,0,0
-693,29,-58.0126,9.29993,0,0,0,0,0,0,0,-1,531,995,-58.0126,-9.2999
-686,29,-56.6404,8.29932,0,0,0,0,0,0,0,-1,538,995,-56.6404,-8.29932
-679,29,-55.2009,7.28424,0,0,0,0,0,0,0,-1,545,995,-55.2009,-7.28426
-672,29,-53.7003,6.1709,0,0,0,0,0,0,0,-1,552,995,-53.7003,-6.1709
-665,29,-56.7872,2.3208,0,0,0,0,0,0,0,-1,559,995,-56.7872,-2.3208
-658,29,-56.4618,2.64648,0,0,0,0,0,0,0,-1,566,995,-56.4618,-2.6465
-651,29,-54.4987,5.3172,0,0,0,0,0,0,0,-1,573,995,-54.4987,-5.3172
-644,29,-54.9323,5.51282,-0.0134788,0.0286102,0.00155984,0.0286679,-0.0135365,1.5338,0.0248833,0.0463603,580,995,-54.9322,-5.51284
-637,29,-55.2004,5.59668,-0.0133111,0.0233858,0.00257888,0.0235661,-0.0134914,1.50098,0.0216571,0.0279417,587,995,-55.2004,-5.59665
-630,29,-55.2169,5.53442,-0.0118221,0.0178011,0.00279619,0.0180627,-0.0120837,1.4775,0.0175188,0.015263,594,995,-55.2169,-5.5344
-623,29,-55.2241,5.42706,-0.0100917,0.0125613,0.00254814,0.0128444,-0.0103748,1.46015,0.0134309,0.0138295,601,995,-55.2241,-5.42705
-616,29,-55.2515,5.24915,-0.00832797,0.00813288,0.00192791,0.00835566,-0.00855075,1.45575,0.00976114,0.0161215,608,995,-55.2515,-5.24912
-609,29,-55.1887,5.14886,-0.00687365,0.00476175,0.00141241,0.00493074,-0.00704265,1.45171,0.00694859,0.0244516,615,995,-55.1887,-5.14888
-602,29,-55.3637,4.91937,-0.00567591,0.00247393,0.00110483,0.00262105,-0.00582303,1.43841,0.00499066,0.0259647,622,995,-55.3637,-4.91936
-595,29,-55.6174,4.55872,-0.00442439,0.000888899,0.0010099,0.00107438,-0.00460987,1.38916,0.00348699,0.0270661,629,995,-55.6173,-4.55869
-588,29,-55.8489,4.20709,0,0,0,0,0,0,0,-1,636,995,-55.849,-4.20709
-581,29,-54.533,0.534851,0,0,0,0,0,0,0,-1,643,995,-54.533,-0.534858
-574,29,-54.5901,0.421143,-0.00214306,-0.00286477,0.000487739,-0.0018972,-0.00311063,0.466911,0.00181033,0.0315413,650,995,-54.5901,-0.421156
-567,29,-54.6944,0.324097,-0.00189387,-0.00313192,0.000549299,-0.00168529,-0.00334049,0.362894,0.00192866,0.03313,657,995,-54.6944,-0.324106
-560,29,-54.6413,0.183594,-0.00175979,-0.00297899,0.000752735,-0.00140077,-0.00333801,0.44504,0.00193548,0.0393221,664,995,-54.6413,-0.183619
-553,29,-54.5597,0.013855,-0.00193998,-0.00253432,0.00107295,-0.00112381,-0.00335049,0.650303,0.00196903,0.0433712,671,995,-54.5597,-0.0138325
-546,29,-54.6663,0.260986,-0.00270181,-0.00216122,0.00154753,-0.000860551,-0.00400248,0.871857,0.00243274,0.0440289,678,995,-54.6663,-0.261015
-539,29,-54.667,0.652283,-0.00466068,-0.00240847,0.00215119,-0.00110646,-0.00596269,1.02653,0.00366245,0.0411279,685,995,-54.667,-0.652277
-532,29,-54.4798,0.623779,-0.00716771,-0.00323922,0.00250468,-0.00202044,-0.00838649,1.11792,0.00505397,0.0446596,692,995,-54.4798,-0.623798
-525,29,-54.6379,0.622498,-0.0107033,-0.00370983,0.00252312,-0.00289457,-0.0115186,1.25827,0.00691906,0.0456118,699,995,-54.638,-0.622476
-518,29,0,0,0,0,0,0,0,0,0,-1,706,995,0,0
-511,29,0,0,0,0,0,0,0,0,0,-1,713,995,0,0
-504,29,0,0,0,0,0,0,0,0,0,-1,720,995,0,0
-497,29,0,0,0,0,0,0,0,0,0,-1,727,995,0,0
-490,29,0,0,0,0,0,0,0,0,0,-1,734,995,0,0
-483,29,0,0,0,0,0,0,0,0,0,-1,741,995,0,0
-476,29,0,0,0,0,0,0,0,0,0,-1,748,995,0,0
-469,29,0,0,0,0,0,0,0,0,0,-1,755,995,0,0
-462,29,0,0,0,0,0,0,0,0,0,-1,762,995,0,0
-455,29,0,0,0,0,0,0,0,0,0,-1,769,995,0,0
-448,29,0,0,0,0,0,0,0,0,0,-1,776,995,0,0
-441,29,0,0,0,0,0,0,0,0,0,-1,783,995,0,0
-434,29,0,0,0,0,0,0,0,0,0,-1,790,995,0,0
-427,29,0,0,0,0,0,0,0,0,0,-1,797,995,0,0
-420,29,0,0,0,0,0,0,0,0,0,-1,804,995,0,0
-413,29,0,0,0,0,0,0,0,0,0,-1,811,995,0,0
-406,29,0,0,0,0,0,0,0,0,0,-1,818,995,0,0
-399,29,0,0,0,0,0,0,0,0,0,-1,825,995,0,0
-392,29,0,0,0,0,0,0,0,0,0,-1,832,995,0,0
-385,29,0,0,0,0,0,0,0,0,0,-1,839,995,0,0
-378,29,0,0,0,0,0,0,0,0,0,-1,846,995,0,0
-371,29,0,0,0,0,0,0,0,0,0,-1,853,995,0,0
-364,29,0,0,0,0,0,0,0,0,0,-1,860,995,0,0
-357,29,0,0,0,0,0,0,0,0,0,-1,867,995,0,0
-350,29,0,0,0,0,0,0,0,0,0,-1,874,995,0,0
-343,29,0,0,0,0,0,0,0,0,0,-1,881,995,0,0
-336,29,0,0,0,0,0,0,0,0,0,-1,888,995,0,0
-329,29,0,0,0,0,0,0,0,0,0,-1,895,995,0,0
-322,29,0,0,0,0,0,0,0,0,0,-1,902,995,0,0
-315,29,0,0,0,0,0,0,0,0,0,-1,909,995,0,0
-308,29,0,0,0,0,0,0,0,0,0,-1,916,995,0,0
-301,29,0,0,0,0,0,0,0,0,0,-1,923,995,0,0
-294,29,0,0,0,0,0,0,0,0,0,-1,930,995,0,0
-287,29,0,0,0,0,0,0,0,0,0,-1,937,995,0,0
-280,29,0,0,0,0,0,0,0,0,0,-1,944,995,0,0
-273,29,0,0,0,0,0,0,0,0,0,-1,951,995,0,0
-266,29,0,0,0,0,0,0,0,0,0,-1,958,995,0,0
-259,29,0,0,0,0,0,0,0,0,0,-1,965,995,0,0
-252,29,0,0,0,0,0,0,0,0,0,-1,972,995,0,0
-245,29,0,0,0,0,0,0,0,0,0,-1,979,995,0,0
-238,29,0,0,0,0,0,0,0,0,0,-1,986,995,0,0
-231,29,0,0,0,0,0,0,0,0,0,-1,993,995,0,0
-224,29,0,0,0,0,0,0,0,0,0,-1,1000,995,0,0
-217,29,0,0,0,0,0,0,0,0,0,-1,1007,995,0,0
-210,29,0,0,0,0,0,0,0,0,0,-1,1014,995,0,0
-203,29,0,0,0,0,0,0,0,0,0,-1,1021,995,0,0
-196,29,0,0,0,0,0,0,0,0,0,-1,1028,995,0,0
-189,29,0,0,0,0,0,0,0,0,0,-1,1035,995,0,0
-182,29,0,0,0,0,0,0,0,0,0,-1,1042,995,0,0
-175,29,0,0,0,0,0,0,0,0,0,-1,1049,995,0,0
-168,29,0,0,0,0,0,0,0,0,0,-1,1056,995,0,0
-161,29,0,0,0,0,0,0,0,0,0,-1,1063,995,0,0
-154,29,0,0,0,0,0,0,0,0,0,-1,1070,995,0,0
-147,29,0,0,0,0,0,0,0,0,0,-1,1077,995,0,0
-140,29,0,0,0,0,0,0,0,0,0,-1,1084,995,0,0
-133,29,0,0,0,0,0,0,0,0,0,-1,1091,995,0,0
-126,29,0,0,0,0,0,0,0,0,0,-1,1098,995,0,0
-119,29,0,0,0,0,0,0,0,0,0,-1,1105,995,0,0
-112,29,0,0,0,0,0,0,0,0,0,-1,1112,995,0,0
-105,29,0,0,0,0,0,0,0,0,0,-1,1119,995,0,0
-98,29,0,0,0,0,0,0,0,0,0,-1,1126,995,0,0
-91,29,0,0,0,0,0,0,0,0,0,-1,1133,995,0,0
-84,29,0,0,0,0,0,0,0,0,0,-1,1140,995,0,0
-77,29,0,0,0,0,0,0,0,0,0,-1,1147,995,0,0
-70,29,0,0,0,0,0,0,0,0,0,-1,1154,995,0,0
-63,29,0,0,0,0,0,0,0,0,0,-1,1161,995,0,0
-56,29,0,0,0,0,0,0,0,0,0,-1,1168,995,0,0
-49,29,0,0,0,0,0,0,0,0,0,-1,1175,995,0,0
-42,29,0,0,0,0,0,0,0,0,0,-1,1182,995,0,0
-35,29,0,0,0,0,0,0,0,0,0,-1,1189,995,0,0
-28,29,0,0,0,0,0,0,0,0,0,-1,1196,995,0,0
-21,29,0,0,0,0,0,0,0,0,0,-1,1203,995,0,0
-14,29,0,0,0,0,0,0,0,0,0,-1,1210,995,0,0
-7,29,0,0,0,0,0,0,0,0,0,-1,1217,995,0,0
0,29,0,0,0,0,0,0,0,0,0,-1,1224,995,0,0
7,29,0,0,0,0,0,0,0,0,0,-1,1231,995,0,0
14,29,0,0,0,0,0,0,0,0,0,-1,1238,995,0,0
21,29,0,0,0,0,0,0,0,0,0,-1,1245,995,0,0
28,29,0,0,0,0,0,0,0,0,0,-1,1252,995,0,0
35,29,0,0,0,0,0,0,0,0,0,-1,1259,995,0,0
42,29,0,0,0,0,0,0,0,0,0,-1,1266,995,0,0
49,29,0,0,0,0,0,0,0,0,0,-1,1273,995,0,0
56,29,0,0,0,0,0,0,0,0,0,-1,1280,995,0,0
63,29,0,0,0,0,0,0,0,0,0,-1,1287,995,0,0
70,29,0,0,0,0,0,0,0,0,0,-1,1294,995,0,0
77,29,0,0,0,0,0,0,0,0,0,-1,1301,995,0,0
84,29,0,0,0,0,0,0,0,0,0,-1,1308,995,0,0
91,29,0,0,0,0,0,0,0,0,0,-1,1315,995,0,0
98,29,0,0,0,0,0,0,0,0,0,-1,1322,995,0,0
105,29,0,0,0,0,0,0,0,0,0,-1,1329,995,0,0
112,29,0,0,0,0,0,0,0,0,0,-1,1336,995,0,0
119,29,0,0,0,0,0,0,0,0,0,-1,1343,995,0,0
126,29,0,0,0,0,0,0,0,0,0,-1,1350,995,0,0
133,29,0,0,0,0,0,0,0,0,0,-1,1357,995,0,0
140,29,0,0,0,0,0,0,0,0,0,-1,1364,995,0,0
147,29,0,0,0,0,0,0,0,0,0,-1,1371,995,0,0
154,29,0,0,0,0,0,0,0,0,0,-1,1378,995,0,0
161,29,0,0,0,0,0,0,0,0,0,-1,1385,995,0,0
168,29,0,0,0,0,0,0,0,0,0,-1,1392,995,0,0
175,29,0,0,0,0,0,0,0,0,0,-1,1399,995,0,0
182,29,0,0,0,0,0,0,0,0,0,-1,1406,995,0,0
189,29,0,0,0,0,0,0,0,0,0,-1,1413,995,0,0
196,29,0,0,0,0,0,0,0,0,0,-1,1420,995,0,0
203,29,0,0,0,0,0,0,0,0,0,-1,1427,995,0,0
210,29,0,0,0,0,0,0,0,0,0,-1,1434,995,0,0
217,29,0,0,0,0,0,0,0,0,0,-1,1441,995,0,0
224,29,0,0,0,0,0,0,0,0,0,-1,1448,995,0,0
231,29,0,0,0,0,0,0,0,0,0,-1,1455,995,0,0
238,29,0,0,0,0,0,0,0,0,0,-1,1462,995,0,0
245,29,0,0,0,0,0,0,0,0,0,-1,1469,995,0,0
252,29,0,0,0,0,0,0,0,0,0,-1,1476,995,0,0
259,29,0,0,0,0,0,0,0,0,0,-1,1483,995,0,0
266,29,0,0,0,0,0,0,0,0,0,-1,1490,995,0,0
273,29,0,0,0,0,0,0,0,0,0,-1,1497,995,0,0
280,29,0,0,0,0,0,0,0,0,0,-1,1504,995,0,0
287,29,0,0,0,0,0,0,0,0,0,-1,1511,995,0,0
294,29,0,0,0,0,0,0,0,0,0,-1,1518,995,0,0
301,29,0,0,0,0,0,0,0,0,0,-1,1525,995,0,0
308,29,0,0,0,0,0,0,0,0,0,-1,1532,995,0,0
315,29,0,0,0,0,0,0,0,0,0,-1,1539,995,0,0
322,29,0,0,0,0,0,0,0,0,0,-1,1546,995,0,0
329,29,0,0,0,0,0,0,0,0,0,-1,1553,995,0,0
336,29,0,0,0,0,0,0,0,0,0,-1,1560,995,0,0
343,29,0,0,0,0,0,0,0,0,0,-1,1567,995,0,0
350,29,0,0,0,0,0,0,0,0,0,-1,1574,995,0,0
357,29,0,0,0,0,0,0,0,0,0,-1,1581,995,0,0
364,29,0,0,0,0,0,0,0,0,0,-1,1588,995,0,0
371,29,0,0,0,0,0,0,0,0,0,-1,1595,995,0,0
378,29,0,0,0,0,0,0,0,0,0,-1,1602,995,0,0
385,29,0,0,0,0,0,0,0,0,0,-1,1609,995,0,0
392,29,0,0,0,0,0,0,0,0,0,-1,1616,995,0,0
399,29,0,0,0,0,0,0,0,0,0,-1,1623,995,0,0
406,29,0,0,0,0,0,0,0,0,0,-1,1630,995,0,0
413,29,0,0,0,0,0,0,0,0,0,-1,1637,995,0,0
420,29,0,0,0,0,0,0,0,0,0,-1,1644,995,0,0
427,29,0,0,0,0,0,0,0,0,0,-1,1651,995,0,0
434,29,0,0,0,0,0,0,0,0,0,-1,1658,995,0,0
441,29,0,0,0,0,0,0,0,0,0,-1,1665,995,0,0
448,29,0,0,0,0,0,0,0,0,0,-1,1672,995,0,0
455,29,0,0,0,0,0,0,0,0,0,-1,1679,995,0,0
462,29,0,0,0,0,0,0,0,0,0,-1,1686,995,0,0
469,29,0,0,0,0,0,0,0,0,0,-1,1693,995,0,0
476,29,0,0,0,0,0,0,0,0,0,-1,1700,995,0,0
483,29,0,0,0,0,0,0,0,0,0,-1,1707,995,0,0
490,29,0,0,0,0,0,0,0,0,0,-1,1714,995,0,0
497,29,0,0,0,0,0,0,0,0,0,-1,1721,995,0,0
504,29,0,0,0,0,0,0,0,0,0,-1,1728,995,0,0
511,29,0,0,0,0,0,0,0,0,0,-1,1735,995,0,0
518,29,0,0,0,0,0,0,0,0,0,-1,1742,995,0,0
525,29,0,0,0,0,0,0,0,0,0,-1,1749,995,0,0
532,29,0,0,0,0,0,0,0,0,0,-1,1756,995,0,0
539,29,0,0,0,0,0,0,0,0,0,-1,1763,995,0,0
546,29,0,0,0,0,0,0,0,0,0,-1,1770,995,0,0
553,29,0,0,0,0,0,0,0,0,0,-1,1777,995,0,0
560,29,0,0,0,0,0,0,0,0,0,-1,1784,995,0,0
567,29,0,0,0,0,0,0,0,0,0,-1,1791,995,0,0
574,29,0,0,0,0,0,0,0,0,0,-1,1798,995,0,0
581,29,0,0,0,0,0,0,0,0,0,-1,1805,995,0,0
588,29,0,0,0,0,0,0,0,0,0,-1,1812,995,0,0
595,29,0,0,0,0,0,0,0,0,0,-1,1819,995,0,0
602,29,0,0,0,0,0,0,0,0,0,-1,1826,995,0,0
609,29,0,0,0,0,0,0,0,0,0,-1,1833,995,0,0
616,29,0,0,0,0,0,0,0,0,0,-1,1840,995,0,0
623,29,0,0,0,0,0,0,0,0,0,-1,1847,995,0,0
630,29,0,0,0,0,0,0,0,0,0,-1,1854,995,0,0
637,29,0,0,0,0,0,0,0,0,0,-1,1861,995,0,0
644,29,70.5413,2.5094,0,0,0,0,0,0,0,-1,1868,995,70.5412,-2.50943
651,29,70.3033,2.53186,0,0,0,0,0,0,0,-1,1875,995,70.3033,-2.53185
658,29,70.4756,2.52673,0.00026259,-0.0014549,-0.00186336,0.00145557,-0.00264788,-0.569475,0.00240223,0.0440254,1882,995,70.4756,-2.52675
665,29,70.6069,2.48242,0.000176177,-0.000998066,-0.00159076,0.0012847,-0.00210659,-0.608612,0.00197704,0.0426066,1889,995,70.6069,-2.48241
672,29,70.6014,2.38708,0.000140691,-0.000592071,-0.00128697,0.00111241,-0.00156379,-0.646724,0.00155242,0.0408776,1896,995,70.6014,-2.38711
679,29,70.5242,2.32153,0.000145432,-0.000373139,-0.000944865,0.000865942,-0.00109365,-0.651487,0.00113391,0.0392296,1903,995,70.5242,-2.32152
686,29,70.5132,2.3407,0.000189579,-0.000531534,-0.000714907,0.000629705,-0.00097166,-0.551841,0.000931549,0.0364127,1910,995,70.5132,-2.34071
693,29,70.6188,2.44928,0.000112666,-0.00078279,-0.000592439,0.000407531,-0.00107766,-0.461817,0.00088609,0.0358945,1917,995,70.6188,-2.44926
700,29,70.609,2.40839,-8.64126e-05,-0.000858181,-0.000560691,0.000208351,-0.00115294,-0.484007,0.000846669,0.0324181,1924,995,70.609,-2.40836
707,29,70.5823,2.29913,-0.000656492,-0.000396798,-0.000715413,0.000200456,-0.00125375,-0.875171,0.000910038,0.0246031,1931,995,70.5822,-2.29912
714,29,70.5535,2.27228,0,0,0,0,0,0,0,-1,1938,995,70.5535,-2.2723
721,29,69.4491,5.99884,0,0,0,0,0,0,0,-1,1945,995,69.4491,-5.99887
728,29,70.2249,6.18323,0,0,0,0,0,0,0,-1,1952,995,70.2248,-6.1832
735,29,70.3223,6.57513,-0.00570625,0.00524272,-0.00137344,0.00541237,-0.00587591,-1.44789,0.00651912,0.0184329,1959,995,70.3223,-6.57513
742,29,70.2605,6.75916,-0.0070407,0.00751264,-0.00142185,0.00765025,-0.00717832,-1.47431,0.00856272,0.0155866,1966,995,70.2606,-6.75915
749,29,70.2435,7.00659,-0.00870038,0.0114091,-0.00128898,0.0114914,-0.00878266,-1.50705,0.01174,0.0170689,1973,995,70.2435,-7.00657
756,29,70.23,7.25647,-0.0105018,0.0160366,-0.00122232,0.0160928,-0.0105579,-1.52487,0.015497,0.0157072,1980,995,70.23,-7.25646
763,29,70.1572,7.4151,-0.0120071,0.0229388,-0.000694641,0.0229526,-0.0120209,-1.55093,0.0205181,0.0136443,1987,995,70.1571,-7.41509
770,29,69.9993,7.5824,-0.0127415,0.0326206,0.000499655,0.0326261,-0.012747,1.55978,0.0270213,0.0186712,1994,995,69.9992,-7.58241
777,29,69.821,7.88971,-0.0125946,0.0444132,0.0025149,0.0445239,-0.0127053,1.5268,0.0347019,0.0316792,2001,995,69.8212,-7.88969
784,29,69.792,8.06079,-0.0110523,0.058865,0.00570704,0.0593277,-0.0115151,1.48988,0.0438966,0.0466606,2008,995,69.7921,-8.0608
791,29,69.7217,8.16827,-0.00702989,0.0774133,0.0105339,0.0787075,-0.00832411,1.44855,0.055455,0.0457488,2015,995,69.7216,-8.16829
798,29,69.6287,8.31696,0,0,0,0,0,0,0,-1,2022,995,69.6287,-8.31694
805,29,66.3442,5.29028,0,0,0,0,0,0,0,-1,2029,995,66.3442,-5.29026
812,29,66.1416,4.3512,0,0,0,0,0,0,0,-1,2036,995,66.1415,-4.35118
-700,22,0,0,0,0,0,0,0,0,0,-1,524,1002,0,0
-693,22,-55.6099,0.0201416,0,0,0,0,0,0,0,-1,531,1002,-55.6099,-0.0201224
-686,22,-57.4036,8.08044,0,0,0,0,0,0,0,-1,538,1002,-57.4036,-8.08043
-679,22,-55.8522,6.97675,0,0,0,0,0,0,0,-1,545,1002,-55.8522,-6.97672
-672,22,-53.9034,6.42346,0,0,0,0,0,0,0,-1,552,1002,-53.9034,-6.42344
-665,22,-52.1933,5.88751,0,0,0,0,0,0,0,-1,559,1002,-52.1933,-5.88753
-658,22,-55.4,1.48871,0,0,0,0,0,0,0,-1,566,1002,-55.4,-1.48869
-651,22,-54.3122,4.98871,0,0,0,0,0,0,0,-1,573,1002,-54.3122,-4.98872
-644,22,-54.9947,5.20911,-0.00332296,0.0306501,0.00460963,0.0312644,-0.00393731,1.4383,0.0222717,0.0437558,580,1002,-54.9947,-5.2091
-637,22,-55.4235,5.38202,-0.00729397,0.024675,0.00467333,0.0253441,-0.00796312,1.42858,0.0200838,0.028495,587,1002,-55.4234,-5.38202
-630,22,-55.41,5.38678,-0.0086715,0.0185028,0.00392078,0.0190572,-0.00922589,1.43033,0.0166549,0.0158485,594,1002,-55.41,-5.38676
-623,22,-55.4276,5.30615,-0.00880556,0.0129862,0.00291315,0.0133689,-0.00918827,1.44017,0.0130978,0.0126319,601,1002,-55.4276,-5.30612
-616,22,-55.4075,5.13275,-0.0080102,0.00833339,0.00178943,0.00852701,-0.00820382,1.46301,0.00966015,0.0196275,608,1002,-55.4075,-5.13277
-609,22,-55.512,5.04736,-0.00672633,0.00479134,0.00110476,0.00489635,-0.00683134,1.47603,0.00680164,0.0318727,615,1002,-55.512,-5.04738
-602,22,-55.736,4.97882,-0.00565175,0.00240183,0.000752039,0.00247146,-0.00572138,1.47848,0.0048526,0.0323151,622,1002,-55.736,-4.97885
-595,22,-55.9211,4.6264,-0.00452028,0.000751404,0.000698865,0.000842479,-0.00461136,1.44121,0.00339014,0.036072,629,1002,-55.9211,-4.62643
-588,22,-55.9796,4.17584,0,0,0,0,0,0,0,-1,636,1002,-55.9796,-4.17585
-581,22,-54.5638,0.591614,0,0,0,0,0,0,0,-1,643,1002,-54.5638,-0.591635
-574,22,-54.6237,0.54071,-0.00231558,-0.00307371,0.000523262,-0.00204851,-0.00334078,0.471933,0.0019452,0.034057,650,1002,-54.6237,-0.540686
-567,22,-54.6914,0.454773,-0.0020758,-0.0034039,0.000720766,-0.00175982,-0.00371989,0.413165,0.00214871,0.0324346,657,1002,-54.6914,-0.454785
-560,22,-54.6064,0.23407,-0.00194381,-0.00329007,0.00107988,-0.00134444,-0.00388944,0.506696,0.00228095,0.0388977,664,1002,-54.6064,-0.234042
-553,22,-54.8266,0.598755,-0.00214904,-0.00289728,0.00155189,-0.000926809,-0.0041195,0.667118,0.00249544,0.0413632,671,1002,-54.8266,-0.598746
-546,22,-54.7478,0.593445,-0.00295394,-0.00260481,0.00216824,-0.000604115,-0.00495463,0.825566,0.00312126,0.0422885,678,1002,-54.7478,-0.593458
-539,22,-54.6364,0.424683,-0.00496999,-0.00289145,0.00287221,-0.000876269,-0.00698517,0.958988,0.00439392,0.0410613,685,1002,-54.6364,-0.424689
-532,22,-54.5656,0.570618,-0.00745312,-0.00359097,0.00324942,-0.00174212,-0.00930196,1.0535,0.00570989,0.0418087,692,1002,-54.5656,-0.570603
-525,22,0,0,0,0,0,0,0,0,0,-1,699,1002,0,0
-518,22,0,0,0,0,0,0,0,0,0,-1,706,1002,0,0
-511,22,0,0,0,0,0,0,0,0,0,-1,713,1002,0,0
-504,22,0,0,0,0,0,0,0,0,0,-1,720,1002,0,0
-497,22,0,0,0,0,0,0,0,0,0,-1,727,1002,0,0
-490,22,0,0,0,0,0,0,0,0,0,-1,734,1002,0,0
-483,22,0,0,0,0,0,0,0,0,0,-1,741,1002,0,0
-476,22,0,0,0,0,0,0,0,0,0,-1,748,1002,0,0
-469,22,0,0,0,0,0,0,0,0,0,-1,755,1002,0,0
-462,22,0,0,0,0,0,0,0,0,0,-1,762,1002,0,0
-455,22,0,0,0,0,0,0,0,0,0,-1,769,1002,0,0
-448,22,0,0,0,0,0,0,0,0,0,-1,776,1002,0,0
-441,22,0,0,0,0,0,0,0,0,0,-1,783,1002,0,0
-434,22,0,0,0,0,0,0,0,0,0,-1,790,1002,0,0
-427,22,0,0,0,0,0,0,0,0,0,-1,797,1002,0,0
-420,22,0,0,0,0,0,0,0,0,0,-1,804,1002,0,0
-413,22,0,0,0,0,0,0,0,0,0,-1,811,1002,0,0
-406,22,0,0,0,0,0,0,0,0,0,-1,818,1002,0,0
-399,22,0,0,0,0,0,0,0,0,0,-1,825,1002,0,0
-392,22,0,0,0,0,0,0,0,0,0,-1,832,1002,0,0
-385,22,0,0,0,0,0,0,0,0,0,-1,839,1002,0,0
-378,22,0,0,0,0,0,0,0,0,0,-1,846,1002,0,0
-371,22,0,0,0,0,0,0,0,0,0,-1,853,1002,0,0
-364,22,0,0,0,0,0,0,0,0,0,-1,860,1002,0,0
-357,22,0,0,0,0,0,0,0,0,0,-1,867,1002,0,0
-350,22,0,0,0,0,0,0,0,0,0,-1,874,1002,0,0
-343,22,0,0,0,0,0,0,0,0,0,-1,881,1002,0,0
-336,22,0,0,0,0,0,0,0,0,0,-1,888,1002,0,0
-329,22,0,0,0,0,0,0,0,0,0,-1,895,1002,0,0
-322,22,0,0,0,0,0,0,0,0,0,-1,902,1002,0,0
-315,22,0,0,0,0,0,0,0,0,0,-1,909,1002,0,0
-308,22,0,0,0,0,0,0,0,0,0,-1,916,1002,0,0
-301,22,0,0,0,0,0,0,0,0,0,-1,923,1002,0,0
-294,22,0,0,0,0,0,0,0,0,0,-1,930,1002,0,0
-287,22,0,0,0,0,0,0,0,0,0,-1,937,1002,0,0
-280,22,0,0,0,0,0,0,0,0,0,-1,944,1002,0,0
-273,22,0,0,0,0,0,0,0,0,0,-1,951,1002,0,0
-266,22,0,0,0,0,0,0,0,0,0,-1,958,1002,0,0
-259,22,0,0,0,0,0,0,0,0,0,-1,965,1002,0,0
-252,22,0,0,0,0,0,0,0,0,0,-1,972,1002,0,0
-245,22,0,0,0,0,0,0,0,0,0,-1,979,1002,0,0
-238,22,0,0,0,0,0,0,0,0,0,-1,986,1002,0,0
-231,22,0,0,0,0,0,0,0,0,0,-1,993,1002,0,0
-224,22,0,0,0,0,0,0,0,0,0,-1,1000,1002,0,0
-217,22,0,0,0,0,0,0,0,0,0,-1,1007,1002,0,0
-210,22,0,0,0,0,0,0,0,0,0,-1,1014,1002,0,0
-203,22,0,0,0,0,0,0,0,0,0,-1,1021,1002,0,0
-196,22,0,0,0,0,0,0,0,0,0,-1,1028,1002,0,0
-189,22,0,0,0,0,0,0,0,0,0,-1,1035,1002,0,0
-182,22,0,0,0,0,0,0,0,0,0,-1,1042,1002,0,0
-175,22,0,0,0,0,0,0,0,0,0,-1,1049,1002,0,0
-168,22,0,0,0,0,0,0,0,0,0,-1,1056,1002,0,0
-161,22,0,0,0,0,0,0,0,0,0,-1,1063,1002,0,0
-154,22,0,0,0,0,0,0,0,0,0,-1,1070,1002,0,0
-147,22,0,0,0,0,0,0,0,0,0,-1,1077,1002,0,0
-140,22,0,0,0,0,0,0,0,0,0,-1,1084,1002,0,0
-133,22,0,0,0,0,0,0,0,0,0,-1,1091,1002,0,0
-126,22,0,0,0,0,0,0,0,0,0,-1,1098,1002,0,0
-119,22,0,0,0,0,0,0,0,0,0,-1,1105,1002,0,0
-112,22,0,0,0,0,0,0,0,0,0,-1,1112,1002,0,0
-105,22,0,0,0,0,0,0,0,0,0,-1,1119,1002,0,0
-98,22,0,0,0,0,0,0,0,0,0,-1,1126,1002,0,0
-91,22,0,0,0,0,0,0,0,0,0,-1,1133,1002,0,0
-84,22,0,0,0,0,0,0,0,0,0,-1,1140,1002,0,0
-77,22,0,0,0,0,0,0,0,0,0,-1,1147,1002,0,0
-70,22,0,0,0,0,0,0,0,0,0,-1,1154,1002,0,0
-63,22,0,0,0,0,0,0,0,0,0,-1,1161,1002,0,0
-56,22,0,0,0,0,0,0,0,0,0,-1,1168,1002,0,0
-49,22,0,0,0,0,0,0,0,0,0,-1,1175,1002,0,0
-42,22,0,0,0,0,0,0,0,0,0,-1,1182,1002,0,0
-35,22,0,0,0,0,0,0,0,0,0,-1,1189,1002,0,0
-28,22,0,0,0,0,0,0,0,0,0,-1,1196,1002,0,0
-21,22,0,0,0,0,0,0,0,0,0,-1,1203,1002,0,0
-14,22,0,0,0,0,0,0,0,0,0,-1,1210,1002,0,0
-7,22,0,0,0,0,0,0,0,0,0,-1,1217,1002,0,0
0,22,0,0,0,0,0,0,0,0,0,-1,1224,1002,0,0
7,22,0,0,0,0,0,0,0,0,0,-1,1231,1002,0,0
14,22,0,0,0,0,0,0,0,0,0,-1,1238,1002,0,0
21,22,0,0,0,0,0,0,0,0,0,-1,1245,1002,0,0
28,22,0,0,0,0,0,0,0,0,0,-1,1252,1002,0,0
35,22,0,0,0,0,0,0,0,0,0,-1,1259,1002,0,0
42,22,0,0,0,0,0,0,0,0,0,-1,1266,1002,0,0
49,22,0,0,0,0,0,0,0,0,0,-1,1273,1002,0,0
56,22,0,0,0,0,0,0,0,0,0,-1,1280,1002,0,0
63,22,0,0,0,0,0,0,0,0,0,-1,1287,1002,0,0
70,22,0,0,0,0,0,0,0,0,0,-1,1294,1002,0,0
77,22,0,0,0,0,0,0,0,0,0,-1,1301,1002,0,0
84,22,0,0,0,0,0,0,0,0,0,-1,1308,1002,0,0
91,22,0,0,0,0,0,0,0,0,0,-1,1315,1002,0,0
98,22,0,0,0,0,0,0,0,0,0,-1,1322,1002,0,0
105,22,0,0,0,0,0,0,0,0,0,-1,1329,1002,0,0
112,22,0,0,0,0,0,0,0,0,0,-1,1336,1002,0,0
119,22,0,0,0,0,0,0,0,0,0,-1,1343,1002,0,0
126,22,0,0,0,0,0,0,0,0,0,-1,1350,1002,0,0
133,22,0,0,0,0,0,0,0,0,0,-1,1357,1002,0,0
140,22,0,0,0,0,0,0,0,0,0,-1,1364,1002,0,0
147,22,0,0,0,0,0,0,0,0,0,-1,1371,1002,0,0
154,22,0,0,0,0,0,0,0,0,0,-1,1378,1002,0,0
161,22,0,0,0,0,0,0,0,0,0,-1,1385,1002,0,0
168,22,0,0,0,0,0,0,0,0,0,-1,1392,1002,0,0
175,22,0,0,0,0,0,0,0,0,0,-1,1399,1002,0,0
182,22,0,0,0,0,0,0,0,0,0,-1,1406,1002,0,0
189,22,0,0,0,0,0,0,0,0,0,-1,1413,1002,0,0
196,22,0,0,0,0,0,0,0,0,0,-1,1420,1002,0,0
203,22,0,0,0,0,0,0,0,0,0,-1,1427,1002,0,0
210,22,0,0,0,0,0,0,0,0,0,-1,1434,1002,0,0
217,22,0,0,0,0,0,0,0,0,0,-1,1441,1002,0,0
224,22,0,0,0,0,0,0,0,0,0,-1,1448,1002,0,0
231,22,0,0,0,0,0,0,0,0,0,-1,1455,1002,0,0
238,22,0,0,0,0,0,0,0,0,0,-1,1462,1002,0,0
245,22,0,0,0,0,0,0,0,0,0,-1,1469,1002,0,0
252,22,0,0,0,0,0,0,0,0,0,-1,1476,1002,0,0
259,22,0,0,0,0,0,0,0,0,0,-1,1483,1002,0,0
266,22,0,0,0,0,0,0,0,0,0,-1,1490,1002,0,0
273,22,0,0,0,0,0,0,0,0,0,-1,1497,1002,0,0
280,22,0,0,0,0,0,0,0,0,0,-1,1504,1002,0,0
287,22,0,0,0,0,0,0,0,0,0,-1,1511,1002,0,0
294,22,0,0,0,0,0,0,0,0,0,-1,1518,1002,0,0
301,22,0,0,0,0,0,0,0,0,0,-1,1525,1002,0,0
308,22,0,0,0,0,0,0,0,0,0,-1,1532,1002,0,0
315,22,0,0,0,0,0,0,0,0,0,-1,1539,1002,0,0
322,22,0,0,0,0,0,0,0,0,0,-1,1546,1002,0,0
329,22,0,0,0,0,0,0,0,0,0,-1,1553,1002,0,0
336,22,0,0,0,0,0,0,0,0,0,-1,1560,1002,0,0
343,22,0,0,0,0,0,0,0,0,0,-1,1567,1002,0,0
350,22,0,0,0,0,0,0,0,0,0,-1,1574,1002,0,0
357,22,0,0,0,0,0,0,0,0,0,-1,1581,1002,0,0
364,22,0,0,0,0,0,0,0,0,0,-1,1588,1002,0,0
371,22,0,0,0,0,0,0,0,0,0,-1,1595,1002,0,0
378,22,0,0,0,0,0,0,0,0,0,-1,1602,1002,0,0
385,22,0,0,0,0,0,0,0,0,0,-1,1609,1002,0,0
392,22,0,0,0,0,0,0,0,0,0,-1,1616,1002,0,0
399,22,0,0,0,0,0,0,0,0,0,-1,1623,1002,0,0
406,22,0,0,0,0,0,0,0,0,0,-1,1630,1002,0,0
413,22,0,0,0,0,0,0,0,0,0,-1,1637,1002,0,0
420,22,0,0,0,0,0,0,0,0,0,-1,1644,1002,0,0
427,22,0,0,0,0,0,0,0,0,0,-1,1651,1002,0,0
434,22,0,0,0,0,0,0,0,0,0,-1,1658,1002,0,0
441,22,0,0,0,0,0,0,0,0,0,-1,1665,1002,0,0
448,22,0,0,0,0,0,0,0,0,0,-1,1672,1002,0,0
455,22,0,0,0,0,0,0,0,0,0,-1,1679,1002,0,0
462,22,0,0,0,0,0,0,0,0,0,-1,1686,1002,0,0
469,22,0,0,0,0,0,0,0,0,0,-1,1693,1002,0,0
476,22,0,0,0,0,0,0,0,0,0,-1,1700,1002,0,0
483,22,0,0,0,0,0,0,0,0,0,-1,1707,1002,0,0
490,22,0,0,0,0,0,0,0,0,0,-1,1714,1002,0,0
497,22,0,0,0,0,0,0,0,0,0,-1,1721,1002,0,0
504,22,0,0,0,0,0,0,0,0,0,-1,1728,1002,0,0
511,22,0,0,0,0,0,0,0,0,0,-1,1735,1002,0,0
518,22,0,0,0,0,0,0,0,0,0,-1,1742,1002,0,0
525,22,0,0,0,0,0,0,0,0,0,-1,1749,1002,0,0
532,22,0,0,0,0,0,0,0,0,0,-1,1756,1002,0,0
539,22,0,0,0,0,0,0,0,0,0,-1,1763,1002,0,0
546,22,0,0,0,0,0,0,0,0,0,-1,1770,1002,0,0
553,22,0,0,0,0,0,0,0,0,0,-1,1777,1002,0,0
560,22,0,0,0,0,0,0,0,0,0,-1,1784,1002,0,0
567,22,0,0,0,0,0,0,0,0,0,-1,1791,1002,0,0
574,22,0,0,0,0,0,0,0,0,0,-1,1798,1002,0,0
581,22,0,0,0,0,0,0,0,0,0,-1,1805,1002,0,0
588,22,0,0,0,0,0,0,0,0,0,-1,1812,1002,0,0
595,22,0,0,0,0,0,0,0,0,0,-1,1819,1002,0,0
602,22,0,0,0,0,0,0,0,0,0,-1,1826,1002,0,0
609,22,0,0,0,0,0,0,0,0,0,-1,1833,1002,0,0
616,22,0,0,0,0,0,0,0,0,0,-1,1840,1002,0,0
623,22,0,0,0,0,0,0,0,0,0,-1,1847,1002,0,0
630,22,0,0,0,0,0,0,0,0,0,-1,1854,1002,0,0
637,22,0,0,0,0,0,0,0,0,0,-1,1861,1002,0,0
644,22,70.5438,2.63635,-0.000512957,-0.00169314,-0.0032521,0.00220215,-0.00440825,-0.69565,0.00388672,0.0414818,1868,1002,70.5438,-2.63634
651,22,70.4681,2.53754,-0.000630492,-0.00123248,-0.00288224,0.00196643,-0.0038294,-0.733371,0.00340336,0.0434558,1875,1002,70.4682,-2.53756
658,22,70.5088,2.41882,-0.000572745,-0.000952826,-0.00243533,0.00167995,-0.00320552,-0.74646,0.0028661,0.0414262,1882,1002,70.5088,-2.41883
665,22,70.6117,2.46564,-0.000434387,-0.000711001,-0.00202494,0.00145696,-0.00260235,-0.7513,0.00237454,0.0388275,1889,1002,70.6117,-2.46565
672,22,70.621,2.37903,-0.000289514,-0.000473798,-0.00160257,0.00122356,-0.00198687,-0.756682,0.00187092,0.0393022,1896,1002,70.621,-2.37905
679,22,70.5277,2.38208,-0.000142155,-0.000356056,-0.00116253,0.000918334,-0.00141655,-0.739528,0.00135823,0.0392429,1903,1002,70.5277,-2.3821
686,22,70.5559,2.34363,-7.24498e-05,-0.000578612,-0.000839504,0.000551291,-0.00120235,-0.638998,0.00103547,0.0381334,1910,1002,70.556,-2.34363
693,22,70.5732,2.3244,-0.000118954,-0.000892185,-0.00062831,0.00023216,-0.0012433,-0.509592,0.000916111,0.0366469,1917,1002,70.5732,-2.32442
700,22,70.6077,2.27509,-0.000255465,-0.0010327,-0.0005224,7.01379e-06,-0.00129518,-0.465604,0.000865798,0.0321889,1924,1002,70.6077,-2.27512
707,22,70.5463,2.32111,-0.000839177,-0.000597703,-0.000618131,-8.86282e-05,-0.00134825,-0.881847,0.000870797,0.0322343,1931,1002,70.5463,-2.32111
714,22,70.4448,2.49774,0,0,0,0,0,0,0,-1,1938,1002,70.4449,-2.49772
721,22,69.812,2.92676,0,0,0,0,0,0,0,-1,1945,1002,69.812,-2.92676
728,22,70.4907,6.55353,0,0,0,0,0,0,0,-1,1952,1002,70.4907,-6.55354
735,22,70.4933,6.69849,-0.00607854,0.00525482,-0.00103796,0.0053491,-0.00617282,-1.48022,0.00665785,0.0193169,1959,1002,70.4933,-6.69848
742,22,70.5021,6.82959,-0.00735677,0.00748261,-0.00105277,0.00755693,-0.00743109,-1.50032,0.00865343,0.0194455,1966,1002,70.502,-6.8296
749,22,70.4365,6.99768,-0.00887251,0.0110989,-0.000949555,0.0111439,-0.00891756,-1.52339,0.0116062,0.0147815,1973,1002,70.4366,-6.99769
756,22,70.4373,7.14008,-0.0104322,0.0153869,-0.000925326,0.01542,-0.0104653,-1.53502,0.0150359,0.02014,1980,1002,70.4373,-7.14007
763,22,70.3416,7.29645,-0.011571,0.0216386,-0.00058731,0.021649,-0.0115813,-1.55312,0.0194769,0.0212966,1987,1002,70.3415,-7.29645
770,22,70.1082,7.39899,-0.011768,0.0305138,0.000285578,0.0305158,-0.01177,1.56404,0.0252006,0.0216672,1994,1002,70.1082,-7.399
777,22,69.699,7.50354,-0.0107198,0.0411588,0.00171789,0.0412157,-0.0107766,1.53773,0.0316862,0.0441416,2001,1002,69.6989,-7.50352
784,22,69.5293,7.44635,0,0,0,0,0,0,0,-1,2008,1002,69.5292,-7.44632
791,22,69.4163,7.4978,0,0,0,0,0,0,0,-1,2015,1002,69.4163,-7.4978
798,22,67.1895,5.14026,0,0,0,0,0,0,0,-1,2022,1002,67.1894,-5.14028
805,22,66.6375,4.45691,0,0,0,0,0,0,0,-1,2029,1002,66.6374,-4.45689
812,22,66.3667,3.86255,0,0,0,0,0,0,0,-1,2036,1002,66.3666,-3.86252
-700,15,0,0,0,0,0,0,0,0,0,-1,524,1009,0,0
-693,15,-60.8217,7.90485,0,0,0,0,0,0,0,-1,531,1009,-60.8217,-7.90483
-686,15,-58.6934,7.20398,0,0,0,0,0,0,0,-1,538,1009,-58.6934,-7.20395
-679,15,-56.416,6.57275,0,0,0,0,0,0,0,-1,545,1009,-56.416,-6.57272
-672,15,-56.181,5.66943,0,0,0,0,0,0,0,-1,552,1009,-56.181,-5.66944
-665,15,-55.8499,5.09497,0,0,0,0,0,0,0,-1,559,1009,-55.8499,-5.09497
-658,15,-54.8215,3.72443,0,0,0,0,0,0,0,-1,566,1009,-54.8215,-3.72442
-651,15,-51.4943,3.62128,0,0,0,0,0,0,0,-1,573,1009,-51.4943,-3.62128
-644,15,-55.2686,5.01849,0,0,0,0,0,0,0,-1,580,1009,-55.2686,-5.0185
-637,15,-55.4578,5.32068,-0.002952,0.0244575,0.00593577,0.0256877,-0.00418223,1.36643,0.018676,0.0321856,587,1009,-55.4578,-5.32068
-630,15,-55.4802,5.28192,-0.00626886,0.0183158,0.00469779,0.0191829,-0.00713596,1.38827,0.0157168,0.0176821,594,1009,-55.4802,-5.28193
-623,15,-55.5369,5.23065,-0.00751986,0.0128692,0.00313184,0.0133394,-0.00799008,1.42177,0.012443,0.0101879,601,1009,-55.5369,-5.23068
-616,15,-55.5531,5.15192,-0.00736576,0.00825524,0.00165959,0.00842961,-0.00754013,1.46611,0.0092249,0.0171014,608,1009,-55.5531,-5.15193
-609,15,-55.7016,5.10339,-0.00635452,0.00472529,0.000823448,0.00478616,-0.00641539,1.49702,0.00648998,0.0248121,615,1009,-55.7016,-5.10337
-602,15,-55.786,5.0553,-0.00546993,0.00227994,0.000424942,0.00230318,-0.00549316,1.51618,0.00462511,0.0261253,622,1009,-55.786,-5.05529
-595,15,-56.1841,4.55823,0,0,0,0,0,0,0,-1,629,1009,-56.1841,-4.55825
-588,15,-54.502,0.584473,0,0,0,0,0,0,0,-1,636,1009,-54.5019,-0.584475
-581,15,-54.5865,0.613098,-0.00267988,-0.00236701,0.000516867,-0.00198342,-0.00306347,0.932349,0.00179414,0.0435823,643,1009,-54.5865,-0.613072
-574,15,-54.669,0.659241,-0.00239783,-0.00330946,0.000591809,-0.00210665,-0.00360065,0.457244,0.00208884,0.0332808,650,1009,-54.669,-0.659253
-567,15,-54.7127,0.337402,0,0,0,0,0,0,0,-1,657,1009,-54.7127,-0.33738
-560,15,-54.5941,0.215027,-0.00203715,-0.00361109,0.00144084,-0.00118236,-0.00446587,0.535442,0.00267181,0.0412554,664,1009,-54.594,-0.215049
-553,15,-54.6951,0.472534,-0.0022303,-0.00324041,0.00206242,-0.000611993,-0.00485871,0.66532,0.00305564,0.0415972,671,1009,-54.695,-0.472512
-546,15,-54.6694,0.409302,-0.00298328,-0.00293736,0.00281359,-0.000146643,-0.005774,0.789478,0.0038014,0.040839,678,1009,-54.6694,-0.409298
-539,15,-54.6599,0.243713,-0.00487381,-0.00304606,0.00360966,-0.000236382,-0.00768349,0.90938,0.00504538,0.0415619,685,1009,-54.6599,-0.24372
-532,15,-54.606,0.580811,-0.00715113,-0.0033221,0.00407434,-0.000734877,-0.00973835,1.00504,0.00626167,0.0425376,692,1009,-54.606,-0.580813
-525,15,0,0,0,0,0,0,0,0,0,-1,699,1009,0,0
-518,15,0,0,0,0,0,0,0,0,0,-1,706,1009,0,0
-511,15,0,0,0,0,0,0,0,0,0,-1,713,1009,0,0
-504,15,0,0,0,0,0,0,0,0,0,-1,720,1009,0,0
-497,15,0,0,0,0,0,0,0,0,0,-1,727,1009,0,0
-490,15,0,0,0,0,0,0,0,0,0,-1,734,1009,0,0
-483,15,0,0,0,0,0,0,0,0,0,-1,741,1009,0,0
-476,15,0,0,0,0,0,0,0,0,0,-1,748,1009,0,0
-469,15,0,0,0,0,0,0,0,0,0,-1,755,1009,0,0
-462,15,0,0,0,0,0,0,0,0,0,-1,762,1009,0,0
-455,15,0,0,0,0,0,0,0,0,0,-1,769,1009,0,0
-448,15,0,0,0,0,0,0,0,0,0,-1,776,1009,0,0
-441,15,0,0,0,0,0,0,0,0,0,-1,783,1009,0,0
-434,15,0,0,0,0,0,0,0,0,0,-1,790,1009,0,0
-427,15,0,0,0,0,0,0,0,0,0,-1,797,1009,0,0
-420,15,0,0,0,0,0,0,0,0,0,-1,804,1009,0,0
-413,15,0,0,0,0,0,0,0,0,0,-1,811,1009,0,0
-406,15,0,0,0,0,0,0,0,0,0,-1,818,1009,0,0
-399,15,0,0,0,0,0,0,0,0,0,-1,825,1009,0,0
-392,15,0,0,0,0,0,0,0,0,0,-1,832,1009,0,0
-385,15,0,0,0,0,0,0,0,0,0,-1,839,1009,0,0
-378,15,0,0,0,0,0,0,0,0,0,-1,846,1009,0,0
-371,15,0,0,0,0,0,0,0,0,0,-1,853,1009,0,0
-364,15,0,0,0,0,0,0,0,0,0,-1,860,1009,0,0
-357,15,0,0,0,0,0,0,0,0,0,-1,867,1009,0,0
-350,15,0,0,0,0,0,0,0,0,0,-1,874,1009,0,0
-343,15,0,0,0,0,0,0,0,0,0,-1,881,1009,0,0
-336,15,0,0,0,0,0,0,0,0,0,-1,888,1009,0,0
-329,15,0,0,0,0,0,0,0,0,0,-1,895,1009,0,0
-322,15,0,0,0,0,0,0,0,0,0,-1,902,1009,0,0
-315,15,0,0,0,0,0,0,0,0,0,-1,909,1009,0,0
-308,15,0,0,0,0,0,0,0,0,0,-1,916,1009,0,0
-301,15,0,0,0,0,0,0,0,0,0,-1,923,1009,0,0
-294,15,0,0,0,0,0,0,0,0,0,-1,930,1009,0,0
-287,15,0,0,0,0,0,0,0,0,0,-1,937,1009,0,0
-280,15,0,0,0,0,0,0,0,0,0,-1,944,1009,0,0
-273,15,0,0,0,0,0,0,0,0,0,-1,951,1009,0,0
-266,15,0,0,0,0,0,0,0,0,0,-1,958,1009,0,0
-259,15,0,0,0,0,0,0,0,0,0,-1,965,1009,0,0
-252,15,0,0,0,0,0,0,0,0,0,-1,972,1009,0,0
-245,15,0,0,0,0,0,0,0,0,0,-1,979,1009,0,0
-238,15,0,0,0,0,0,0,0,0,0,-1,986,1009,0,0
-231,15,0,0,0,0,0,0,0,0,0,-1,993,1009,0,0
-224,15,0,0,0,0,0,0,0,0,0,-1,1000,1009,0,0
-217,15,0,0,0,0,0,0,0,0,0,-1,1007,1009,0,0
-210,15,0,0,0,0,0,0,0,0,0,-1,1014,1009,0,0
-203,15,0,0,0,0,0,0,0,0,0,-1,1021,1009,0,0
-196,15,0,0,0,0,0,0,0,0,0,-1,1028,1009,0,0
-189,15,0,0,0,0,0,0,0,0,0,-1,1035,1009,0,0
-182,15,0,0,0,0,0,0,0,0,0,-1,1042,1009,0,0
-175,15,0,0,0,0,0,0,0,0,0,-1,1049,1009,0,0
-168,15,0,0,0,0,0,0,0,0,0,-1,1056,1009,0,0
-161,15,0,0,0,0,0,0,0,0,0,-1,1063,1009,0,0
-154,15,0,0,0,0,0,0,0,0,0,-1,1070,1009,0,0
-147,15,0,0,0,0,0,0,0,0,0,-1,1077,1009,0,0
-140,15,0,0,0,0,0,0,0,0,0,-1,1084,1009,0,0
-133,15,0,0,0,0,0,0,0,0,0,-1,1091,1009,0,0
-126,15,0,0,0,0,0,0,0,0,0,-1,1098,1009,0,0
-119,15,0,0,0,0,0,0,0,0,0,-1,1105,1009,0,0
-112,15,0,0,0,0,0,0,0,0,0,-1,1112,1009,0,0
-105,15,0,0,0,0,0,0,0,0,0,-1,1119,1009,0,0
-98,15,0,0,0,0,0,0,0,0,0,-1,1126,1009,0,0
-91,15,0,0,0,0,0,0,0,0,0,-1,1133,1009,0,0
-84,15,0,0,0,0,0,0,0,0,0,-1,1140,1009,0,0
-77,15,0,0,0,0,0,0,0,0,0,-1,1147,1009,0,0
-70,15,0,0,0,0,0,0,0,0,0,-1,1154,1009,0,0
-63,15,0,0,0,0,0,0,0,0,0,-1,1161,1009,0,0
-56,15,0,0,0,0,0,0,0,0,0,-1,1168,1009,0,0
-49,15,0,0,0,0,0,0,0,0,0,-1,1175,1009,0,0
-42,15,0,0,0,0,0,0,0,0,0,-1,1182,1009,0,0
-35,15,0,0,0,0,0,0,0,0,0,-1,1189,1009,0,0
-28,15,0,0,0,0,0,0,0,0,0,-1,1196,1009,0,0
-21,15,0,0,0,0,0,0,0,0,0,-1,1203,1009,0,0
-14,15,0,0,0,0,0,0,0,0,0,-1,1210,1009,0,0
-7,15,0,0,0,0,0,0,0,0,0,-1,1217,1009,0,0
0,15,0,0,0,0,0,0,0,0,0,-1,1224,1009,0,0
7,15,0,0,0,0,0,0,0,0,0,-1,1231,1009,0,0
14,15,0,0,0,0,0,0,0,0,0,-1,1238,1009,0,0
21,15,0,0,0,0,0,0,0,0,0,-1,1245,1009,0,0
28,15,0,0,0,0,0,0,0,0,0,-1,1252,1009,0,0
35,15,0,0,0,0,0,0,0,0,0,-1,1259,1009,0,0
42,15,0,0,0,0,0,0,0,0,0,-1,1266,1009,0,0
49,15,0,0,0,0,0,0,0,0,0,-1,1273,1009,0,0
56,15,0,0,0,0,0,0,0,0,0,-1,1280,1009,0,0
63,15,0,0,0,0,0,0,0,0,0,-1,1287,1009,0,0
70,15,0,0,0,0,0,0,0,0,0,-1,1294,1009,0,0
77,15,0,0,0,0,0,0,0,0,0,-1,1301,1009,0,0
84,15,0,0,0,0,0,0,0,0,0,-1,1308,1009,0,0
91,15,0,0,0,0,0,0,0,0,0,-1,1315,1009,0,0
98,15,0,0,0,0,0,0,0,0,0,-1,1322,1009,0,0
105,15,0,0,0,0,0,0,0,0,0,-1,1329,1009,0,0
112,15,0,0,0,0,0,0,0,0,0,-1,1336,1009,0,0
119,15,0,0,0,0,0,0,0,0,0,-1,1343,1009,0,0
126,15,0,0,0,0,0,0,0,0,0,-1,1350,1009,0,0
133,15,0,0,0,0,0,0,0,0,0,-1,1357,1009,0,0
140,15,0,0,0,0,0,0,0,0,0,-1,1364,1009,0,0
147,15,0,0,0,0,0,0,0,0,0,-1,1371,1009,0,0
154,15,0,0,0,0,0,0,0,0,0,-1,1378,1009,0,0
161,15,0,0,0,0,0,0,0,0,0,-1,1385,1009,0,0
168,15,0,0,0,0,0,0,0,0,0,-1,1392,1009,0,0
175,15,0,0,0,0,0,0,0,0,0,-1,1399,1009,0,0
182,15,0,0,0,0,0,0,0,0,0,-1,1406,1009,0,0
189,15,0,0,0,0,0,0,0,0,0,-1,1413,1009,0,0
196,15,0,0,0,0,0,0,0,0,0,-1,1420,1009,0,0
203,15,0,0,0,0,0,0,0,0,0,-1,1427,1009,0,0
210,15,0,0,0,0,0,0,0,0,0,-1,1434,1009,0,0
217,15,0,0,0,0,0,0,0,0,0,-1,1441,1009,0,0
224,15,0,0,0,0,0,0,0,0,0,-1,1448,1009,0,0
231,15,0,0,0,0,0,0,0,0,0,-1,1455,1009,0,0
238,15,0,0,0,0,0,0,0,0,0,-1,1462,1009,0,0
245,15,0,0,0,0,0,0,0,0,0,-1,1469,1009,0,0
252,15,0,0,0,0,0,0,0,0,0,-1,1476,1009,0,0
259,15,0,0,0,0,0,0,0,0,0,-1,1483,1009,0,0
266,15,0,0,0,0,0,0,0,0,0,-1,1490,1009,0,0
273,15,0,0,0,0,0,0,0,0,0,-1,1497,1009,0,0
280,15,0,0,0,0,0,0,0,0,0,-1,1504,1009,0,0
287,15,0,0,0,0,0,0,0,0,0,-1,1511,1009,0,0
294,15,0,0,0,0,0,0,0,0,0,-1,1518,1009,0,0
301,15,0,0,0,0,0,0,0,0,0,-1,1525,1009,0,0
308,15,0,0,0,0,0,0,0,0,0,-1,1532,1009,0,0
315,15,0,0,0,0,0,0,0,0,0,-1,1539,1009,0,0
322,15,0,0,0,0,0,0,0,0,0,-1,1546,1009,0,0
329,15,0,0,0,0,0,0,0,0,0,-1,1553,1009,0,0
336,15,0,0,0,0,0,0,0,0,0,-1,1560,1009,0,0
343,15,0,0,0,0,0,0,0,0,0,-1,1567,1009,0,0
350,15,0,0,0,0,0,0,0,0,0,-1,1574,1009,0,0
357,15,0,0,0,0,0,0,0,0,0,-1,1581,1009,0,0
364,15,0,0,0,0,0,0,0,0,0,-1,1588,1009,0,0
371,15,0,0,0,0,0,0,0,0,0,-1,1595,1009,0,0
378,15,0,0,0,0,0,0,0,0,0,-1,1602,1009,0,0
385,15,0,0,0,0,0,0,0,0,0,-1,1609,1009,0,0
392,15,0,0,0,0,0,0,0,0,0,-1,1616,1009,0,0
399,15,0,0,0,0,0,0,0,0,0,-1,1623,1009,0,0
406,15,0,0,0,0,0,0,0,0,0,-1,1630,1009,0,0
413,15,0,0,0,0,0,0,0,0,0,-1,1637,1009,0,0
420,15,0,0,0,0,0,0,0,0,0,-1,1644,1009,0,0
427,15,0,0,0,0,0,0,0,0,0,-1,1651,1009,0,0
434,15,0,0,0,0,0,0,0,0,0,-1,1658,1009,0,0
441,15,0,0,0,0,0,0,0,0,0,-1,1665,1009,0,0
448,15,0,0,0,0,0,0,0,0,0,-1,1672,1009,0,0
455,15,0,0,0,0,0,0,0,0,0,-1,1679,1009,0,0
462,15,0,0,0,0,0,0,0,0,0,-1,1686,1009,0,0
469,15,0,0,0,0,0,0,0,0,0,-1,1693,1009,0,0
476,15,0,0,0,0,0,0,0,0,0,-1,1700,1009,0,0
483,15,0,0,0,0,0,0,0,0,0,-1,1707,1009,0,0
490,15,0,0,0,0,0,0,0,0,0,-1,1714,1009,0,0
497,15,0,0,0,0,0,0,0,0,0,-1,1721,1009,0,0
504,15,0,0,0,0,0,0,0,0,0,-1,1728,1009,0,0
511,15,0,0,0,0,0,0,0,0,0,-1,1735,1009,0,0
518,15,0,0,0,0,0,0,0,0,0,-1,1742,1009,0,0
525,15,0,0,0,0,0,0,0,0,0,-1,1749,1009,0,0
532,15,0,0,0,0,0,0,0,0,0,-1,1756,1009,0,0
539,15,0,0,0,0,0,0,0,0,0,-1,1763,1009,0,0
546,15,0,0,0,0,0,0,0,0,0,-1,1770,1009,0,0
553,15,0,0,0,0,0,0,0,0,0,-1,1777,1009,0,0
560,15,0,0,0,0,0,0,0,0,0,-1,1784,1009,0,0
567,15,0,0,0,0,0,0,0,0,0,-1,1791,1009,0,0
574,15,0,0,0,0,0,0,0,0,0,-1,1798,1009,0,0
581,15,0,0,0,0,0,0,0,0,0,-1,1805,1009,0,0
588,15,0,0,0,0,0,0,0,0,0,-1,1812,1009,0,0
595,15,0,0,0,0,0,0,0,0,0,-1,1819,1009,0,0
602,15,0,0,0,0,0,0,0,0,0,-1,1826,1009,0,0
609,15,0,0,0,0,0,0,0,0,0,-1,1833,1009,0,0
616,15,0,0,0,0,0,0,0,0,0,-1,1840,1009,0,0
623,15,0,0,0,0,0,0,0,0,0,-1,1847,1009,0,0
630,15,0,0,0,0,0,0,0,0,0,-1,1854,1009,0,0
637,15,0,0,0,0,0,0,0,0,0,-1,1861,1009,0,0
644,15,70.6814,2.72162,-0.0019444,-0.000229566,-0.00349787,0.00251444,-0.00468841,-0.905591,0.00422124,0.0426925,1868,1009,70.6814,-2.72163
651,15,70.5974,2.48883,-0.00154293,-0.00024931,-0.00301577,0.00218823,-0.00398048,-0.891036,0.00361126,0.0408569,1875,1009,70.5974,-2.48881
658,15,70.559,2.38898,-0.00116533,-0.000323979,-0.00250444,0.00179487,-0.00328418,-0.868608,0.00297411,0.038564,1882,1009,70.559,-2.389
665,15,70.5848,2.34521,-0.000869523,-0.000360082,-0.00204795,0.00144893,-0.00267854,-0.847269,0.00241799,0.0385084,1889,1009,70.5849,-2.34523
672,15,70.5773,2.26862,-0.000627107,-0.00032957,-0.00159584,0.00112442,-0.0020811,-0.831875,0.00187798,0.038383,1896,1009,70.5773,-2.26862
679,15,70.5786,2.31042,-0.00040176,-0.000339737,-0.00113716,0.000766834,-0.00150833,-0.79903,0.00133662,0.0390483,1903,1009,70.5787,-2.3104
686,15,70.5793,2.26703,-0.000342414,-0.000618563,-0.000797827,0.000329198,-0.00129018,-0.699715,0.000988298,0.0433906,1910,1009,70.5793,-2.26706
693,15,70.5275,2.22797,-0.000385773,-0.000956048,-0.0005531,-4.86382e-05,-0.00129318,-0.547403,0.000846375,0.0410172,1917,1009,70.5275,-2.22794
700,15,70.5443,2.24689,-0.000469772,-0.00112306,-0.000406855,-0.000274663,-0.00131817,-0.447158,0.000803041,0.0314084,1924,1009,70.5443,-2.24692
707,15,70.5109,2.38141,-0.00106208,-0.000696606,-0.000481498,-0.000364335,-0.00139435,-0.966761,0.00083505,0.0306022,1931,1009,70.5108,-2.3814
714,15,70.5338,2.43707,-0.0021704,0.00027725,-0.000535432,0.000389253,-0.0022824,-1.36459,0.00166657,0.0417236,1938,1009,70.5338,-2.43706
721,15,70.4967,2.37036,0,0,0,0,0,0,0,-1,1945,1009,70.4967,-2.37035
728,15,70.6294,6.63367,0,0,0,0,0,0,0,-1,1952,1009,70.6294,-6.63365
735,15,70.573,6.80493,-0.00643478,0.00540741,-0.00068731,0.00544717,-0.00647454,-1.51302,0.00689151,0.0225847,1959,1009,70.5731,-6.80492
742,15,70.6222,6.98108,-0.00768354,0.00762318,-0.000668487,0.00765232,-0.00771268,-1.52723,0.00887101,0.0452577,1966,1009,70.6222,-6.98106
749,15,70.6149,7.06915,-0.00915242,0.0110057,-0.000548058,0.0110206,-0.00916731,-1.54364,0.0116718,0.0285199,1973,1009,70.6148,-7.06913
756,15,70.6152,7.0072,-0.0105801,0.015299,-0.000449418,0.0153068,-0.0105879,-1.55344,0.0150328,0.0204714,1980,1009,70.6153,-7.00723
763,15,70.5159,7.13806,-0.0115025,0.0212912,-0.000180016,0.0212922,-0.0115035,-1.56531,0.0192137,0.0148751,1987,1009,70.5159,-7.13806
770,15,70.314,7.17432,-0.0113855,0.0299628,0.000550248,0.0299701,-0.0113928,1.55749,0.0246707,0.0211471,1994,1009,70.3139,-7.17431
777,15,69.8293,7.28882,-0.00974646,0.0404745,0.00168712,0.0405311,-0.00980308,1.53725,0.0308127,0.0467258,2001,1009,69.8294,-7.28881
784,15,69.3877,7.45514,0,0,0,0,0,0,0,-1,2008,1009,69.3878,-7.45513
791,15,67.3594,5.49945,0,0,0,0,0,0,0,-1,2015,1009,67.3594,-5.49946
798,15,67.7197,6.69128,0,0,0,0,0,0,0,-1,2022,1009,67.7197,-6.69127
805,15,66.8518,4.17676,0,0,0,0,0,0,0,-1,2029,1009,66.8517,-4.17677
812,15,66.7568,6.7915,0,0,0,0,0,0,0,-1,2036,1009,66.7569,-6.79153
-700,8,0,0,0,0,0,0,0,0,0,-1,524,1016,0,0
-693,8,-55.2131,-1.20856,0,0,0,0,0,0,0,-1,531,1016,-55.2131,1.20854
-686,8,-58.563,3.88342,0,0,0,0,0,0,0,-1,538,1016,-58.563,-3.88342
-679,8,-55.9191,5.77063,0,0,0,0,0,0,0,-1,545,1016,-55.9191,-5.77064
-672,8,-56.7747,3.94641,0,0,0,0,0,0,0,-1,552,1016,-56.7747,-3.94644
-665,8,-55.4861,4.88428,0,0,0,0,0,0,0,-1,559,1016,-55.4861,-4.88429
-658,8,-55.1605,4.35193,0,0,0,0,0,0,0,-1,566,1016,-55.1605,-4.35194
-651,8,-53.9449,4.52704,0,0,0,0,0,0,0,-1,573,1016,-53.9449,-4.52702
-644,8,-55.2584,4.77948,0,0,0,0,0,0,0,-1,580,1016,-55.2584,-4.77949
-637,8,-55.2845,4.98987,0.00139779,0.0228844,0.00560726,0.0242597,2.25166e-05,1.33028,0.0161656,0.0452519,587,1016,-55.2845,-4.98987
-630,8,-55.5438,5.17615,-0.003701,0.0173845,0.00451111,0.018309,-0.00462558,1.36864,0.0140049,0.0279121,594,1016,-55.5438,-5.17613
-623,8,-55.5086,5.21246,-0.00612709,0.0124017,0.00284282,0.0128281,-0.00655345,1.42193,0.0113837,0.0170483,601,1016,-55.5086,-5.21248
-616,8,-55.5706,5.16003,-0.00670348,0.00801522,0.00124463,0.00811973,-0.00680799,1.48703,0.0086296,0.0192917,608,1016,-55.5705,-5.16006
-609,8,-55.6911,5.0556,-0.00600846,0.00454498,0.000398629,0.00456002,-0.00602349,1.5331,0.00612984,0.0232272,615,1016,-55.6911,-5.05559
-602,8,-55.6172,5.11774,-0.00535497,0.00208349,1.6569e-05,0.00208353,-0.00535501,1.56857,0.00443093,0.0262902,622,1016,-55.6173,-5.11776
-595,8,-55.644,5.06165,0,0,0,0,0,0,0,-1,629,1016,-55.644,-5.06165
-588,8,-54.4337,0.382202,0,0,0,0,0,0,0,-1,636,1016,-54.4337,-0.382177
-581,8,-54.5635,0.555176,-0.00282015,-0.00257797,0.000432652,-0.00224978,-0.00314833,0.921844,0.00187266,0.0327087,643,1016,-54.5636,-0.55515
-574,8,-54.6751,0.613892,-0.00252279,-0.00353954,0.000665273,-0.00219389,-0.00386844,0.459146,0.00224014,0.0341819,650,1016,-54.6751,-0.613888
-567,8,-54.5521,0.263306,-0.00232995,-0.00396659,0.0011383,-0.00174636,-0.00455019,0.473749,0.00265059,0.0384627,657,1016,-54.5521,-0.263329
-560,8,-54.4337,0.175476,-0.00219749,-0.00393453,0.00177635,-0.0010887,-0.00504332,0.558019,0.00306447,0.0412702,664,1016,-54.4337,-0.175469
-553,8,-54.4931,0.3927,-0.00237152,-0.00359988,0.00251827,-0.000393613,-0.00557778,0.665788,0.00359451,0.0405204,671,1016,-54.4931,-0.39272
-546,8,-54.5546,0.453735,-0.00302754,-0.00329982,0.00335089,0.000189977,-0.00651734,0.765095,0.00440958,0.0391142,678,1016,-54.5546,-0.453744
-539,8,-54.5762,0.382935,-0.0047152,-0.00327537,0.00416315,0.000229649,-0.00822022,0.871014,0.00555828,0.041067,685,1016,-54.5762,-0.382953
-532,8,-54.574,0.575012,-0.00674295,-0.00325101,0.00466506,-1.58944e-05,-0.00997807,0.964461,0.00664675,0.0431846,692,1016,-54.574,-0.575025
-525,8,0,0,0,0,0,0,0,0,0,-1,699,1016,0,0
-518,8,0,0,0,0,0,0,0,0,0,-1,706,1016,0,0
-511,8,0,0,0,0,0,0,0,0,0,-1,713,1016,0,0
-504,8,0,0,0,0,0,0,0,0,0,-1,720,1016,0,0
-497,8,0,0,0,0,0,0,0,0,0,-1,727,1016,0,0
-490,8,0,0,0,0,0,0,0,0,0,-1,734,1016,0,0
-483,8,0,0,0,0,0,0,0,0,0,-1,741,1016,0,0
-476,8,0,0,0,0,0,0,0,0,0,-1,748,1016,0,0
-469,8,0,0,0,0,0,0,0,0,0,-1,755,1016,0,0
-462,8,0,0,0,0,0,0,0,0,0,-1,762,1016,0,0
-455,8,0,0,0,0,0,0,0,0,0,-1,769,1016,0,0
-448,8,0,0,0,0,0,0,0,0,0,-1,776,1016,0,0
-441,8,0,0,0,0,0,0,0,0,0,-1,783,1016,0,0
-434,8,0,0,0,0,0,0,0,0,0,-1,790,1016,0,0
-427,8,0,0,0,0,0,0,0,0,0,-1,797,1016,0,0
-420,8,0,0,0,0,0,0,0,0,0,-1,804,1016,0,0
-413,8,0,0,0,0,0,0,0,0,0,-1,811,1016,0,0
-406,8,0,0,0,0,0,0,0,0,0,-1,818,1016,0,0
-399,8,0,0,0,0,0,0,0,0,0,-1,825,1016,0,0
-392,8,0,0,0,0,0,0,0,0,0,-1,832,1016,0,0
-385,8,0,0,0,0,0,0,0,0,0,-1,839,1016,0,0
-378,8,0,0,0,0,0,0,0,0,0,-1,846,1016,0,0
-371,8,0,0,0,0,0,0,0,0,0,-1,853,1016,0,0
-364,8,0,0,0,0,0,0,0,0,0,-1,860,1016,0,0
-357,8,0,0,0,0,0,0,0,0,0,-1,867,1016,0,0
-350,8,0,0,0,0,0,0,0,0,0,-1,874,1016,0,0
-343,8,0,0,0,0,0,0,0,0,0,-1,881,1016,0,0
-336,8,0,0,0,0,0,0,0,0,0,-1,888,1016,0,0
-329,8,0,0,0,0,0,0,0,0,0,-1,895,1016,0,0
-322,8,0,0,0,0,0,0,0,0,0,-1,902,1016,0,0
-315,8,0,0,0,0,0,0,0,0,0,-1,909,1016,0,0
-308,8,0,0,0,0,0,0,0,0,0,-1,916,1016,0,0
-301,8,0,0,0,0,0,0,0,0,0,-1,923,1016,0,0
-294,8,0,0,0,0,0,0,0,0,0,-1,930,1016,0,0
-287,8,0,0,0,0,0,0,0,0,0,-1,937,1016,0,0
-280,8,0,0,0,0,0,0,0,0,0,-1,944,1016,0,0
-273,8,0,0,0,0,0,0,0,0,0,-1,951,1016,0,0
-266,8,0,0,0,0,0,0,0,0,0,-1,958,1016,0,0
-259,8,0,0,0,0,0,0,0,0,0,-1,965,1016,0,0
-252,8,0,0,0,0,0,0,0,0,0,-1,972,1016,0,0
-245,8,0,0,0,0,0,0,0,0,0,-1,979,1016,0,0
-238,8,0,0,0,0,0,0,0,0,0,-1,986,1016,0,0
-231,8,0,0,0,0,0,0,0,0,0,-1,993,1016,0,0
-224,8,0,0,0,0,0,0,0,0,0,-1,1000,1016,0,0
-217,8,0,0,0,0,0,0,0,0,0,-1,1007,1016,0,0
-210,8,0,0,0,0,0,0,0,0,0,-1,1014,1016,0,0
-203,8,0,0,0,0,0,0,0,0,0,-1,1021,1016,0,0
-196,8,0,0,0,0,0,0,0,0,0,-1,1028,1016,0,0
-189,8,0,0,0,0,0,0,0,0,0,-1,1035,1016,0,0
-182,8,0,0,0,0,0,0,0,0,0,-1,1042,1016,0,0
-175,8,0,0,0,0,0,0,0,0,0,-1,1049,1016,0,0
-168,8,0,0,0,0,0,0,0,0,0,-1,1056,1016,0,0
-161,8,0,0,0,0,0,0,0,0,0,-1,1063,1016,0,0
-154,8,0,0,0,0,0,0,0,0,0,-1,1070,1016,0,0
-147,8,0,0,0,0,0,0,0,0,0,-1,1077,1016,0,0
-140,8,0,0,0,0,0,0,0,0,0,-1,1084,1016,0,0
-133,8,0,0,0,0,0,0,0,0,0,-1,1091,1016,0,0
-126,8,0,0,0,0,0,0,0,0,0,-1,1098,1016,0,0
-119,8,0,0,0,0,0,0,0,0,0,-1,1105,1016,0,0
-112,8,0,0,0,0,0,0,0,0,0,-1,1112,1016,0,0
-105,8,0,0,0,0,0,0,0,0,0,-1,1119,1016,0,0
-98,8,0,0,0,0,0,0,0,0,0,-1,1126,1016,0,0
-91,8,0,0,0,0,0,0,0,0,0,-1,1133,1016,0,0
-84,8,0,0,0,0,0,0,0,0,0,-1,1140,1016,0,0
-77,8,0,0,0,0,0,0,0,0,0,-1,1147,1016,0,0
-70,8,0,0,0,0,0,0,0,0,0,-1,1154,1016,0,0
-63,8,0,0,0,0,0,0,0,0,0,-1,1161,1016,0,0
-56,8,0,0,0,0,0,0,0,0,0,-1,1168,1016,0,0
-49,8,0,0,0,0,0,0,0,0,0,-1,1175,1016,0,0
-42,8,0,0,0,0,0,0,0,0,0,-1,1182,1016,0,0
-35,8,0,0,0,0,0,0,0,0,0,-1,1189,1016,0,0
-28,8,0,0,0,0,0,0,0,0,0,-1,1196,1016,0,0
-21,8,0,0,0,0,0,0,0,0,0,-1,1203,1016,0,0
-14,8,0,0,0,0,0,0,0,0,0,-1,1210,1016,0,0
-7,8,0,0,0,0,0,0,0,0,0,-1,1217,1016,0,0
0,8,0,0,0,0,0,0,0,0,0,-1,1224,1016,0,0
7,8,0,0,0,0,0,0,0,0,0,-1,1231,1016,0,0
14,8,0,0,0,0,0,0,0,0,0,-1,1238,1016,0,0
21,8,0,0,0,0,0,0,0,0,0,-1,1245,1016,0,0
28,8,0,0,0,0,0,0,0,0,0,-1,1252,1016,0,0
35,8,0,0,0,0,0,0,0,0,0,-1,1259,1016,0,0
42,8,0,0,0,0,0,0,0,0,0,-1,1266,1016,0,0
49,8,0,0,0,0,0,0,0,0,0,-1,1273,1016,0,0
56,8,0,0,0,0,0,0,0,0,0,-1,1280,1016,0,0
63,8,0,0,0,0,0,0,0,0,0,-1,1287,1016,0,0
70,8,0,0,0,0,0,0,0,0,0,-1,1294,1016,0,0
77,8,0,0,0,0,0,0,0,0,0,-1,1301,1016,0,0
84,8,0,0,0,0,0,0,0,0,0,-1,1308,1016,0,0
91,8,0,0,0,0,0,0,0,0,0,-1,1315,1016,0,0
98,8,0,0,0,0,0,0,0,0,0,-1,1322,1016,0,0
105,8,0,0,0,0,0,0,0,0,0,-1,1329,1016,0,0
112,8,0,0,0,0,0,0,0,0,0,-1,1336,1016,0,0
119,8,0,0,0,0,0,0,0,0,0,-1,1343,1016,0,0
126,8,0,0,0,0,0,0,0,0,0,-1,1350,1016,0,0
133,8,0,0,0,0,0,0,0,0,0,-1,1357,1016,0,0
140,8,0,0,0,0,0,0,0,0,0,-1,1364,1016,0,0
147,8,0,0,0,0,0,0,0,0,0,-1,1371,1016,0,0
154,8,0,0,0,0,0,0,0,0,0,-1,1378,1016,0,0
161,8,0,0,0,0,0,0,0,0,0,-1,1385,1016,0,0
168,8,0,0,0,0,0,0,0,0,0,-1,1392,1016,0,0
175,8,0,0,0,0,0,0,0,0,0,-1,1399,1016,0,0
182,8,0,0,0,0,0,0,0,0,0,-1,1406,1016,0,0
189,8,0,0,0,0,0,0,0,0,0,-1,1413,1016,0,0
196,8,0,0,0,0,0,0,0,0,0,-1,1420,1016,0,0
203,8,0,0,0,0,0,0,0,0,0,-1,1427,1016,0,0
210,8,0,0,0,0,0,0,0,0,0,-1,1434,1016,0,0
217,8,0,0,0,0,0,0,0,0,0,-1,1441,1016,0,0
224,8,0,0,0,0,0,0,0,0,0,-1,1448,1016,0,0
231,8,0,0,0,0,0,0,0,0,0,-1,1455,1016,0,0
238,8,0,0,0,0,0,0,0,0,0,-1,1462,1016,0,0
245,8,0,0,0,0,0,0,0,0,0,-1,1469,1016,0,0
252,8,0,0,0,0,0,0,0,0,0,-1,1476,1016,0,0
259,8,0,0,0,0,0,0,0,0,0,-1,1483,1016,0,0
266,8,0,0,0,0,0,0,0,0,0,-1,1490,1016,0,0
273,8,0,0,0,0,0,0,0,0,0,-1,1497,1016,0,0
280,8,0,0,0,0,0,0,0,0,0,-1,1504,1016,0,0
287,8,0,0,0,0,0,0,0,0,0,-1,1511,1016,0,0
294,8,0,0,0,0,0,0,0,0,0,-1,1518,1016,0,0
301,8,0,0,0,0,0,0,0,0,0,-1,1525,1016,0,0
308,8,0,0,0,0,0,0,0,0,0,-1,1532,1016,0,0
315,8,0,0,0,0,0,0,0,0,0,-1,1539,1016,0,0
322,8,0,0,0,0,0,0,0,0,0,-1,1546,1016,0,0
329,8,0,0,0,0,0,0,0,0,0,-1,1553,1016,0,0
336,8,0,0,0,0,0,0,0,0,0,-1,1560,1016,0,0
343,8,0,0,0,0,0,0,0,0,0,-1,1567,1016,0,0
350,8,0,0,0,0,0,0,0,0,0,-1,1574,1016,0,0
357,8,0,0,0,0,0,0,0,0,0,-1,1581,1016,0,0
364,8,0,0,0,0,0,0,0,0,0,-1,1588,1016,0,0
371,8,0,0,0,0,0,0,0,0,0,-1,1595,1016,0,0
378,8,0,0,0,0,0,0,0,0,0,-1,1602,1016,0,0
385,8,0,0,0,0,0,0,0,0,0,-1,1609,1016,0,0
392,8,0,0,0,0,0,0,0,0,0,-1,1616,1016,0,0
399,8,0,0,0,0,0,0,0,0,0,-1,1623,1016,0,0
406,8,0,0,0,0,0,0,0,0,0,-1,1630,1016,0,0
413,8,0,0,0,0,0,0,0,0,0,-1,1637,1016,0,0
420,8,0,0,0,0,0,0,0,0,0,-1,1644,1016,0,0
427,8,0,0,0,0,0,0,0,0,0,-1,1651,1016,0,0
434,8,0,0,0,0,0,0,0,0,0,-1,1658,1016,0,0
441,8,0,0,0,0,0,0,0,0,0,-1,1665,1016,0,0
448,8,0,0,0,0,0,0,0,0,0,-1,1672,1016,0,0
455,8,0,0,0,0,0,0,0,0,0,-1,1679,1016,0,0
462,8,0,0,0,0,0,0,0,0,0,-1,1686,1016,0,0
469,8,0,0,0,0,0,0,0,0,0,-1,1693,1016,0,0
476,8,0,0,0,0,0,0,0,0,0,-1,1700,1016,0,0
483,8,0,0,0,0,0,0,0,0,0,-1,1707,1016,0,0
490,8,0,0,0,0,0,0,0,0,0,-1,1714,1016,0,0
497,8,0,0,0,0,0,0,0,0,0,-1,1721,1016,0,0
504,8,0,0,0,0,0,0,0,0,0,-1,1728,1016,0,0
511,8,0,0,0,0,0,0,0,0,0,-1,1735,1016,0,0
518,8,0,0,0,0,0,0,0,0,0,-1,1742,1016,0,0
525,8,0,0,0,0,0,0,0,0,0,-1,1749,1016,0,0
532,8,0,0,0,0,0,0,0,0,0,-1,1756,1016,0,0
539,8,0,0,0,0,0,0,0,0,0,-1,1763,1016,0,0
546,8,0,0,0,0,0,0,0,0,0,-1,1770,1016,0,0
553,8,0,0,0,0,0,0,0,0,0,-1,1777,1016,0,0
560,8,0,0,0,0,0,0,0,0,0,-1,1784,1016,0,0
567,8,0,0,0,0,0,0,0,0,0,-1,1791,1016,0,0
574,8,0,0,0,0,0,0,0,0,0,-1,1798,1016,0,0
581,8,0,0,0,0,0,0,0,0,0,-1,1805,1016,0,0
588,8,0,0,0,0,0,0,0,0,0,-1,1812,1016,0,0
595,8,0,0,0,0,0,0,0,0,0,-1,1819,1016,0,0
602,8,0,0,0,0,0,0,0,0,0,-1,1826,1016,0,0
609,8,0,0,0,0,0,0,0,0,0,-1,1833,1016,0,0
616,8,0,0,0,0,0,0,0,0,0,-1,1840,1016,0,0
623,8,0,0,0,0,0,0,0,0,0,-1,1847,1016,0,0
630,8,0,0,0,0,0,0,0,0,0,-1,1854,1016,0,0
637,8,0,0,0,0,0,0,0,0,0,-1,1861,1016,0,0
644,8,70.7074,2.62463,-0.00274094,0.00042874,-0.00330225,0.00250677,-0.00481897,-1.00913,0.00429916,0.0456513,1868,1016,70.7074,-2.62466
651,8,70.7,2.47211,-0.00199512,0.000123422,-0.00274769,0.00200895,-0.00388065,-0.969377,0.00345712,0.0417858,1875,1016,70.6999,-2.47209
658,8,70.5679,2.50232,-0.0014437,-0.000123491,-0.00222264,0.001535,-0.00310219,-0.929745,0.00272777,0.0404966,1882,1016,70.5679,-2.50232
665,8,70.5226,2.36896,-0.00109208,-0.000278792,-0.00176463,0.00112545,-0.00249631,-0.898641,0.00214037,0.0413912,1889,1016,70.5226,-2.36898
672,8,70.5793,2.22321,-0.00083941,-0.000323001,-0.00133145,0.00077505,-0.00193746,-0.881173,0.00161329,0.0401971,1896,1016,70.5793,-2.22321
679,8,70.5088,2.39343,-0.000604704,-0.000348763,-0.000905785,0.000438047,-0.00139151,-0.855574,0.00110308,0.0385522,1903,1016,70.5088,-2.39342
686,8,70.4423,2.52454,-0.000604842,-0.000610025,-0.00059614,-1.12877e-05,-0.00120358,-0.783224,0.00079865,0.0414901,1910,1016,70.4423,-2.52451
693,8,70.5214,2.26257,-0.000684834,-0.000919661,-0.000354274,-0.000429024,-0.00117547,-0.625384,0.000686858,0.0405324,1917,1016,70.5213,-2.26259
700,8,70.6118,2.2475,-0.000730117,-0.00107684,-0.00018967,-0.000646518,-0.00116044,-0.415146,0.000671436,0.0308471,1924,1016,70.6118,-2.24748
707,8,70.5431,2.33722,-0.00132944,-0.000643321,-0.000242558,-0.000566233,-0.00140653,-1.26308,0.000817184,0.0276736,1931,1016,70.5431,-2.33724
714,8,70.5665,2.29187,-0.00244632,0.000330561,-0.000267608,0.000356115,-0.00247188,-1.47559,0.00177855,0.0378998,1938,1016,70.5665,-2.29186
721,8,70.611,2.20612,0,0,0,0,0,0,0,-1,1945,1016,70.611,-2.20613
728,8,52.1681,5.36774,0,0,0,0,0,0,0,-1,1952,1016,52.168,-5.36773
735,8,70.6265,6.95514,0,0,0,0,0,0,0,-1,1959,1016,70.6264,-6.95514
742,8,70.5607,7.14508,0,0,0,0,0,0,0,-1,1966,1016,70.5607,-7.14509
749,8,70.8217,7.1416,0,0,0,0,0,0,0,-1,1973,1016,70.8216,-7.14163
756,8,70.7095,6.86194,-0.0105236,0.0150278,-0.00022027,0.0150297,-0.0105255,-1.56218,0.0148305,0.040159,1980,1016,70.7095,-6.86195
763,8,70.6436,6.99078,-0.0112008,0.020675,-0.000182447,0.020676,-0.0112018,-1.56507,0.0186737,0.0165514,1987,1016,70.6437,-6.99079
770,8,70.4912,6.95526,-0.0106776,0.0288809,8.68945e-05,0.0288811,-0.0106778,1.5686,0.0236316,0.0221226,1994,1016,70.4911,-6.95525
777,8,70.0947,6.97467,-0.00839898,0.0389436,0.000532349,0.0389496,-0.00840496,1.55955,0.0291745,0.0364245,2001,1016,70.0948,-6.97469
784,8,69.7134,6.9798,0,0,0,0,0,0,0,-1,2008,1016,69.7134,-6.97979
791,8,68.6685,6.11176,0,0,0,0,0,0,0,-1,2015,1016,68.6683,-6.11175
798,8,67.9675,6.01642,0,0,0,0,0,0,0,-1,2022,1016,67.9676,-6.0164
805,8,69.4014,2.42334,0,0,0,0,0,0,0,-1,2029,1016,69.4014,-2.42332
812,8,66.925,5.26801,0,0,0,0,0,0,0,-1,2036,1016,66.9251,-5.26801
-700,1,0,0,0,0,0,0,0,0,0,-1,524,1023,0,0
-693,1,-58.9521,3.26691,0,0,0,0,0,0,0,-1,531,1023,-58.9521,-3.26691
-686,1,-58.3572,3.27203,0,0,0,0,0,0,0,-1,538,1023,-58.3572,-3.27203
-679,1,-56.9562,3.16644,0,0,0,0,0,0,0,-1,545,1023,-56.9562,-3.16642
-672,1,-56.4025,3.47156,0,0,0,0,0,0,0,-1,552,1023,-56.4025,-3.47157
-665,1,-55.85,3.85272,0,0,0,0,0,0,0,-1,559,1023,-55.85,-3.8527
-658,1,-55.4534,4.32715,0,0,0,0,0,0,0,-1,566,1023,-55.4534,-4.32714
-651,1,-54.2266,4.49854,0,0,0,0,0,0,0,-1,573,1023,-54.2266,-4.49852
-644,1,-55.0706,5.01733,0,0,0,0,0,0,0,-1,580,1023,-55.0706,-5.01736
-637,1,-55.2728,4.91797,0.00466238,0.0214648,0.00521027,0.0229493,0.00317788,1.29323,0.0143579,0.0427561,587,1023,-55.2728,-4.918
-630,1,-55.589,5.04089,-0.00154721,0.0165219,0.00429359,0.0174902,-0.00251556,1.34897,0.0125828,0.038856,594,1023,-55.589,-5.04092
-623,1,-55.4423,5.13892,-0.00477053,0.011916,0.00262078,0.012318,-0.00517247,1.41862,0.0103752,0.018216,601,1023,-55.4423,-5.13891
-616,1,-55.6035,5.04596,-0.00590483,0.00771228,0.000955988,0.00777907,-0.00597162,1.50105,0.00796179,0.0242415,608,1023,-55.6034,-5.04598
-609,1,-55.6427,5.11578,-0.00544432,0.0043035,0.000116722,0.00430489,-0.00544572,1.55882,0.00564235,0.0271736,615,1023,-55.6427,-5.11579
-602,1,-55.4175,5.24414,-0.00496254,0.0018343,-0.000293487,0.00184695,-0.00497519,-1.52772,0.00407445,0.0174501,622,1023,-55.4176,-5.24417
-595,1,-55.4025,5.30743,0,0,0,0,0,0,0,-1,629,1023,-55.4025,-5.30742
-588,1,-55.3873,5.49188,0,0,0,0,0,0,0,-1,636,1023,-55.3873,-5.49188
-581,1,-54.5472,0.566467,-0.00274285,-0.00263077,0.000363947,-0.00231857,-0.00305505,0.861786,0.00184098,0.0290874,643,1023,-54.5472,-0.566457
-574,1,-54.5927,0.551575,-0.00246903,-0.00353984,0.000714441,-0.00211164,-0.00389723,0.463837,0.00225269,0.0340728,650,1023,-54.5927,-0.55156
-567,1,-54.5067,0.267273,-0.00236067,-0.00391005,0.00126611,-0.00165104,-0.00461968,0.510849,0.00270309,0.0392825,657,1023,-54.5067,-0.267273
-560,1,-54.3728,0.273376,-0.00233014,-0.0038147,0.0019654,-0.000971528,-0.00517332,0.604842,0.00317498,0.0407698,664,1023,-54.3728,-0.273365
-553,1,-54.3404,0.423584,-0.00260039,-0.00340548,0.0027466,-0.000226995,-0.00577888,0.712636,0.00377919,0.0407968,671,1023,-54.3404,-0.423604
-546,1,-54.303,0.568665,-0.00328801,-0.00301115,0.00357629,0.000429391,-0.00672855,0.804742,0.00463546,0.0409051,678,1023,-54.303,-0.568658
-539,1,-54.4202,0.57959,-0.00490021,-0.00282292,0.00432825,0.000589565,-0.00831269,0.903156,0.0057484,0.0403797,685,1023,-54.4203,-0.579593
-532,1,-54.5204,0.745056,-0.0067713,-0.00256496,0.00489542,0.00065995,-0.00999621,0.988287,0.00689466,0.0423852,692,1023,-54.5204,-0.745047
-525,1,0,0,0,0,0,0,0,0,0,-1,699,1023,0,0
-518,1,0,0,0,0,0,0,0,0,0,-1,706,1023,0,0
-511,1,0,0,0,0,0,0,0,0,0,-1,713,1023,0,0
-504,1,0,0,0,0,0,0,0,0,0,-1,720,1023,0,0
-497,1,0,0,0,0,0,0,0,0,0,-1,727,1023,0,0
-490,1,0,0,0,0,0,0,0,0,0,-1,734,1023,0,0
-483,1,0,0,0,0,0,0,0,0,0,-1,741,1023,0,0
-476,1,0,0,0,0,0,0,0,0,0,-1,748,1023,0,0
-469,1,0,0,0,0,0,0,0,0,0,-1,755,1023,0,0
-462,1,0,0,0,0,0,0,0,0,0,-1,762,1023,0,0
-455,1,0,0,0,0,0,0,0,0,0,-1,769,1023,0,0
-448,1,0,0,0,0,0,0,0,0,0,-1,776,1023,0,0
-441,1,0,0,0,0,0,0,0,0,0,-1,783,1023,0,0
-434,1,0,0,0,0,0,0,0,0,0,-1,790,1023,0,0
-427,1,0,0,0,0,0,0,0,0,0,-1,797,1023,0,0
-420,1,0,0,0,0,0,0,0,0,0,-1,804,1023,0,0
-413,1,0,0,0,0,0,0,0,0,0,-1,811,1023,0,0
-406,1,0,0,0,0,0,0,0,0,0,-1,818,1023,0,0
-399,1,0,0,0,0,0,0,0,0,0,-1,825,1023,0,0
-392,1,0,0,0,0,0,0,0,0,0,-1,832,1023,0,0
-385,1,0,0,0,0,0,0,0,0,0,-1,839,1023,0,0
-378,1,0,0,0,0,0,0,0,0,0,-1,846,1023,0,0
-371,1,0,0,0,0,0,0,0,0,0,-1,853,1023,0,0
-364,1,0,0,0,0,0,0,0,0,0,-1,860,1023,0,0
-357,1,0,0,0,0,0,0,0,0,0,-1,867,1023,0,0
-350,1,0,0,0,0,0,0,0,0,0,-1,874,1023,0,0
-343,1,0,0,0,0,0,0,0,0,0,-1,881,1023,0,0
-336,1,0,0,0,0,0,0,0,0,0,-1,888,1023,0,0
-329,1,0,0,0,0,0,0,0,0,0,-1,895,1023,0,0
-322,1,0,0,0,0,0,0,0,0,0,-1,902,1023,0,0
-315,1,0,0,0,0,0,0,0,0,0,-1,909,1023,0,0
-308,1,0,0,0,0,0,0,0,0,0,-1,916,1023,0,0
-301,1,0,0,0,0,0,0,0,0,0,-1,923,1023,0,0
-294,1,0,0,0,0,0,0,0,0,0,-1,930,1023,0,0
-287,1,0,0,0,0,0,0,0,0,0,-1,937,1023,0,0
-280,1,0,0,0,0,0,0,0,0,0,-1,944,1023,0,0
-273,1,0,0,0,0,0,0,0,0,0,-1,951,1023,0,0
-266,1,0,0,0,0,0,0,0,0,0,-1,958,1023,0,0
-259,1,0,0,0,0,0,0,0,0,0,-1,965,1023,0,0
-252,1,0,0,0,0,0,0,0,0,0,-1,972,1023,0,0
-245,1,0,0,0,0,0,0,0,0,0,-1,979,1023,0,0
-238,1,0,0,0,0,0,0,0,0,0,-1,986,1023,0,0
-231,1,0,0,0,0,0,0,0,0,0,-1,993,1023,0,0
-224,1,0,0,0,0,0,0,0,0,0,-1,1000,1023,0,0
-217,1,0,0,0,0,0,0,0,0,0,-1,1007,1023,0,0
-210,1,0,0,0,0,0,0,0,0,0,-1,1014,1023,0,0
-203,1,0,0,0,0,0,0,0,0,0,-1,1021,1023,0,0
-196,1,0,0,0,0,0,0,0,0,0,-1,1028,1023,0,0
-189,1,0,0,0,0,0,0,0,0,0,-1,1035,1023,0,0
-182,1,0,0,0,0,0,0,0,0,0,-1,1042,1023,0,0
-175,1,0,0,0,0,0,0,0,0,0,-1,1049,1023,0,0
-168,1,0,0,0,0,0,0,0,0,0,-1,1056,1023,0,0
-161,1,0,0,0,0,0,0,0,0,0,-1,1063,1023,0,0
-154,1,0,0,0,0,0,0,0,0,0,-1,1070,1023,0,0
-147,1,0,0,0,0,0,0,0,0,0,-1,1077,1023,0,0
-140,1,0,0,0,0,0,0,0,0,0,-1,1084,1023,0,0
-133,1,0,0,0,0,0,0,0,0,0,-1,1091,1023,0,0
-126,1,0,0,0,0,0,0,0,0,0,-1,1098,1023,0,0
-119,1,0,0,0,0,0,0,0,0,0,-1,1105,1023,0,0
-112,1,0,0,0,0,0,0,0,0,0,-1,1112,1023,0,0
-105,1,0,0,0,0,0,0,0,0,0,-1,1119,1023,0,0
-98,1,0,0,0,0,0,0,0,0,0,-1,1126,1023,0,0
-91,1,0,0,0,0,0,0,0,0,0,-1,1133,1023,0,0
-84,1,0,0,0,0,0,0,0,0,0,-1,1140,1023,0,0
-77,1,0,0,0,0,0,0,0,0,0,-1,1147,1023,0,0
-70,1,0,0,0,0,0,0,0,0,0,-1,1154,1023,0,0
-63,1,0,0,0,0,0,0,0,0,0,-1,1161,1023,0,0
-56,1,0,0,0,0,0,0,0,0,0,-1,1168,1023,0,0
-49,1,0,0,0,0,0,0,0,0,0,-1,1175,1023,0,0
-42,1,0,0,0,0,0,0,0,0,0,-1,1182,1023,0,0
-35,1,0,0,0,0,0,0,0,0,0,-1,1189,1023,0,0
-28,1,0,0,0,0,0,0,0,0,0,-1,1196,1023,0,0
-21,1,0,0,0,0,0,0,0,0,0,-1,1203,1023,0,0
-14,1,0,0,0,0,0,0,0,0,0,-1,1210,1023,0,0
-7,1,0,0,0,0,0,0,0,0,0,-1,1217,1023,0,0
0,1,0,0,0,0,0,0,0,0,0,-1,1224,1023,0,0
7,1,0,0,0,0,0,0,0,0,0,-1,1231,1023,0,0
14,1,0,0,0,0,0,0,0,0,0,-1,1238,1023,0,0
21,1,0,0,0,0,0,0,0,0,0,-1,1245,1023,0,0
28,1,0,0,0,0,0,0,0,0,0,-1,1252,1023,0,0
35,1,0,0,0,0,0,0,0,0,0,-1,1259,1023,0,0
42,1,0,0,0,0,0,0,0,0,0,-1,1266,1023,0,0
49,1,0,0,0,0,0,0,0,0,0,-1,1273,1023,0,0
56,1,0,0,0,0,0,0,0,0,0,-1,1280,1023,0,0
63,1,0,0,0,0,0,0,0,0,0,-1,1287,1023,0,0
70,1,0,0,0,0,0,0,0,0,0,-1,1294,1023,0,0
77,1,0,0,0,0,0,0,0,0,0,-1,1301,1023,0,0
84,1,0,0,0,0,0,0,0,0,0,-1,1308,1023,0,0
91,1,0,0,0,0,0,0,0,0,0,-1,1315,1023,0,0
98,1,0,0,0,0,0,0,0,0,0,-1,1322,1023,0,0
105,1,0,0,0,0,0,0,0,0,0,-1,1329,1023,0,0
112,1,0,0,0,0,0,0,0,0,0,-1,1336,1023,0,0
119,1,0,0,0,0,0,0,0,0,0,-1,1343,1023,0,0
126,1,0,0,0,0,0,0,0,0,0,-1,1350,1023,0,0
133,1,0,0,0,0,0,0,0,0,0,-1,1357,1023,0,0
140,1,0,0,0,0,0,0,0,0,0,-1,1364,1023,0,0
147,1,0,0,0,0,0,0,0,0,0,-1,1371,1023,0,0
154,1,0,0,0,0,0,0,0,0,0,-1,1378,1023,0,0
161,1,0,0,0,0,0,0,0,0,0,-1,1385,1023,0,0
168,1,0,0,0,0,0,0,0,0,0,-1,1392,1023,0,0
175,1,0,0,0,0,0,0,0,0,0,-1,1399,1023,0,0
182,1,0,0,0,0,0,0,0,0,0,-1,1406,1023,0,0
189,1,0,0,0,0,0,0,0,0,0,-1,1413,1023,0,0
196,1,0,0,0,0,0,0,0,0,0,-1,1420,1023,0,0
203,1,0,0,0,0,0,0,0,0,0,-1,1427,1023,0,0
210,1,0,0,0,0,0,0,0,0,0,-1,1434,1023,0,0
217,1,0,0,0,0,0,0,0,0,0,-1,1441,1023,0,0
224,1,0,0,0,0,0,0,0,0,0,-1,1448,1023,0,0
231,1,0,0,0,0,0,0,0,0,0,-1,1455,1023,0,0
238,1,0,0,0,0,0,0,0,0,0,-1,1462,1023,0,0
245,1,0,0,0,0,0,0,0,0,0,-1,1469,1023,0,0
252,1,0,0,0,0,0,0,0,0,0,-1,1476,1023,0,0
259,1,0,0,0,0,0,0,0,0,0,-1,1483,1023,0,0
266,1,0,0,0,0,0,0,0,0,0,-1,1490,1023,0,0
273,1,0,0,0,0,0,0,0,0,0,-1,1497,1023,0,0
280,1,0,0,0,0,0,0,0,0,0,-1,1504,1023,0,0
287,1,0,0,0,0,0,0,0,0,0,-1,1511,1023,0,0
294,1,0,0,0,0,0,0,0,0,0,-1,1518,1023,0,0
301,1,0,0,0,0,0,0,0,0,0,-1,1525,1023,0,0
308,1,0,0,0,0,0,0,0,0,0,-1,1532,1023,0,0
315,1,0,0,0,0,0,0,0,0,0,-1,1539,1023,0,0
322,1,0,0,0,0,0,0,0,0,0,-1,1546,1023,0,0
329,1,0,0,0,0,0,0,0,0,0,-1,1553,1023,0,0
336,1,0,0,0,0,0,0,0,0,0,-1,1560,1023,0,0
343,1,0,0,0,0,0,0,0,0,0,-1,1567,1023,0,0
350,1,0,0,0,0,0,0,0,0,0,-1,1574,1023,0,0
357,1,0,0,0,0,0,0,0,0,0,-1,1581,1023,0,0
364,1,0,0,0,0,0,0,0,0,0,-1,1588,1023,0,0
371,1,0,0,0,0,0,0,0,0,0,-1,1595,1023,0,0
378,1,0,0,0,0,0,0,0,0,0,-1,1602,1023,0,0
385,1,0,0,0,0,0,0,0,0,0,-1,1609,1023,0,0
392,1,0,0,0,0,0,0,0,0,0,-1,1616,1023,0,0
399,1,0,0,0,0,0,0,0,0,0,-1,1623,1023,0,0
406,1,0,0,0,0,0,0,0,0,0,-1,1630,1023,0,0
413,1,0,0,0,0,0,0,0,0,0,-1,1637,1023,0,0
420,1,0,0,0,0,0,0,0,0,0,-1,1644,1023,0,0
427,1,0,0,0,0,0,0,0,0,0,-1,1651,1023,0,0
434,1,0,0,0,0,0,0,0,0,0,-1,1658,1023,0,0
441,1,0,0,0,0,0,0,0,0,0,-1,1665,1023,0,0
448,1,0,0,0,0,0,0,0,0,0,-1,1672,1023,0,0
455,1,0,0,0,0,0,0,0,0,0,-1,1679,1023,0,0
462,1,0,0,0,0,0,0,0,0,0,-1,1686,1023,0,0
469,1,0,0,0,0,0,0,0,0,0,-1,1693,1023,0,0
476,1,0,0,0,0,0,0,0,0,0,-1,1700,1023,0,0
483,1,0,0,0,0,0,0,0,0,0,-1,1707,1023,0,0
490,1,0,0,0,0,0,0,0,0,0,-1,1714,1023,0,0
497,1,0,0,0,0,0,0,0,0,0,-1,1721,1023,0,0
504,1,0,0,0,0,0,0,0,0,0,-1,1728,1023,0,0
511,1,0,0,0,0,0,0,0,0,0,-1,1735,1023,0,0
518,1,0,0,0,0,0,0,0,0,0,-1,1742,1023,0,0
525,1,0,0,0,0,0,0,0,0,0,-1,1749,1023,0,0
532,1,0,0,0,0,0,0,0,0,0,-1,1756,1023,0,0
539,1,0,0,0,0,0,0,0,0,0,-1,1763,1023,0,0
546,1,0,0,0,0,0,0,0,0,0,-1,1770,1023,0,0
553,1,0,0,0,0,0,0,0,0,0,-1,1777,1023,0,0
560,1,0,0,0,0,0,0,0,0,0,-1,1784,1023,0,0
567,1,0,0,0,0,0,0,0,0,0,-1,1791,1023,0,0
574,1,0,0,0,0,0,0,0,0,0,-1,1798,1023,0,0
581,1,0,0,0,0,0,0,0,0,0,-1,1805,1023,0,0
588,1,0,0,0,0,0,0,0,0,0,-1,1812,1023,0,0
595,1,0,0,0,0,0,0,0,0,0,-1,1819,1023,0,0
602,1,0,0,0,0,0,0,0,0,0,-1,1826,1023,0,0
609,1,0,0,0,0,0,0,0,0,0,-1,1833,1023,0,0
616,1,0,0,0,0,0,0,0,0,0,-1,1840,1023,0,0
623,1,0,0,0,0,0,0,0,0,0,-1,1847,1023,0,0
630,1,0,0,0,0,0,0,0,0,0,-1,1854,1023,0,0
637,1,0,0,0,0,0,0,0,0,0,-1,1861,1023,0,0
644,1,0,0,0,0,0,0,0,0,0,-1,1868,1023,0,0
651,1,70.6886,2.42706,-0.00213292,0.000273131,-0.00218523,0.0015646,-0.00342439,-1.03702,0.00294635,0.0424728,1875,1023,70.6885,-2.42705
658,1,70.552,2.58228,-0.00152105,-8.17771e-05,-0.00173738,0.00107911,-0.00268194,-0.981745,0.0022362,0.0424291,1882,1023,70.552,-2.5823
665,1,70.614,2.41016,-0.00116847,-0.000302677,-0.00134572,0.000678062,-0.00214921,-0.941013,0.0017044,0.0419424,1889,1023,70.614,-2.41014
672,1,70.6779,2.263,-0.000942097,-0.000394893,-0.000978686,0.000347716,-0.00168471,-0.921699,0.0012552,0.0401613,1896,1023,70.6778,-2.26303
679,1,70.5828,2.38409,-0.000761873,-0.00043731,-0.000618334,3.9683e-05,-0.00123887,-0.913729,0.000839451,0.0394367,1903,1023,70.5827,-2.38409
686,1,70.5162,2.505,-0.000888854,-0.000705328,-0.000351556,-0.000433757,-0.00116043,-0.913059,0.000677049,0.039534,1910,1023,70.5162,-2.50498
693,1,70.5449,2.4386,-0.0010664,-0.00100591,-0.000125952,-0.000906623,-0.00116569,-0.903236,0.000706779,0.0369634,1917,1023,70.5449,-2.43859
700,1,70.6064,2.38275,-0.00113855,-0.00116761,5.36216e-05,-0.00109753,-0.00120863,0.653126,0.000771392,0.0312895,1924,1023,70.6065,-2.38276
707,1,70.5278,2.34924,-0.00175869,-0.00074717,3.72181e-05,-0.000745802,-0.00176005,1.53407,0.0010201,0.0297796,1931,1023,70.5278,-2.34922
714,1,70.4976,2.28101,-0.002871,0.00020118,5.16218e-05,0.000202048,-0.00287187,1.554,0.00198536,0.0342885,1938,1023,70.4976,-2.28098
721,1,70.6006,2.32007,0,0,0,0,0,0,0,-1,1945,1023,70.6006,-2.32009
728,1,52.4639,5.59277,0,0,0,0,0,0,0,-1,1952,1023,52.4639,-5.59276
735,1,53.3617,6.10699,0,0,0,0,0,0,0,-1,1959,1023,53.3617,-6.10698
742,1,52.4393,5.81525,0,0,0,0,0,0,0,-1,1966,1023,52.4393,-5.81527
749,1,70.9048,6.77197,0,0,0,0,0,0,0,-1,1973,1023,70.9048,-6.77199
756,1,70.7651,6.97998,-0.010527,0.0143662,0.000451193,0.0143744,-0.0105352,1.55268,0.0144384,0.0429012,1980,1023,70.7652,-6.98001
763,1,70.572,6.84509,-0.0108837,0.0195434,0.000539518,0.019553,-0.0108933,1.55307,0.0178136,0.01733,1987,1023,70.5721,-6.84508
770,1,70.5056,6.76166,-0.00983535,0.0268987,0.000883854,0.02692,-0.00985661,1.54675,0.0219816,0.0192435,1994,1023,70.5056,-6.76166
777,1,70.2051,6.66754,-0.00680969,0.0359106,0.00143095,0.0359584,-0.00685756,1.53735,0.026555,0.0271448,2001,1023,70.205,-6.66752
784,1,69.928,6.5636,0,0,0,0,0,0,0,-1,2008,1023,69.928,-6.56363
791,1,68.3582,6.70612,0,0,0,0,0,0,0,-1,2015,1023,68.3582,-6.70614
798,1,69.5527,3.05798,0,0,0,0,0,0,0,-1,2022,1023,69.5527,-3.05799
805,1,69.593,2.88153,0,0,0,0,0,0,0,-1,2029,1023,69.593,-2.88153
812,1,69.8936,2.68451,0,0,0,0,0,0,0,-1,2036,1023,69.8936,-2.68451
-700,-6,0,0,0,0,0,0,0,0,0,-1,524,1030,0,0
-693,-6,-58.7773,2.72754,0,0,0,0,0,0,0,-1,531,1030,-58.7773,-2.72751
-686,-6,-61.8725,-0.9823,0,0,0,0,0,0,0,-1,538,1030,-61.8725,0.982327
-679,-6,-56.5179,2.66919,0,0,0,0,0,0,0,-1,545,1030,-56.5179,-2.66921
-672,-6,-55.9753,3.0061,0,0,0,0,0,0,0,-1,552,1030,-55.9753,-3.00616
-665,-6,-55.4463,3.34875,0.05928,0.0333555,-0.00543592,0.0603737,0.0322619,-0.198545,0.0348842,0.0426849,559,1030,-55.4463,-3.3487
-658,-6,-55.1888,3.81042,0.0431548,0.0309781,-0.000486546,0.0431742,0.0309586,-0.0398723,0.0256977,0.039733,566,1030,-55.1888,-3.81038
-651,-6,-55.0355,4.01855,0,0,0,0,0,0,0,-1,573,1030,-55.0355,-4.01855
-644,-6,-54.9161,5.37756,0,0,0,0,0,0,0,-1,580,1030,-54.9161,-5.3776
-637,-6,-55.2184,5.11499,0.0080376,0.0203599,0.00463535,0.0219089,0.00648861,1.24829,0.0129947,0.04899,587,1030,-55.2184,-5.11502
-630,-6,-55.4281,4.91443,0.000991366,0.0157176,0.00393908,0.0167051,3.92832e-06,1.32518,0.0111354,0.0267816,594,1030,-55.4281,-4.91448
-623,-6,-55.3622,5.03613,-0.00295846,0.0113672,0.00236067,0.0117461,-0.00333744,1.41162,0.00914846,0.0196767,601,1030,-55.3622,-5.03614
-616,-6,-55.4373,5.04163,-0.00466797,0.00729859,0.000683731,0.00733753,-0.00470691,1.51391,0.00700893,0.0236859,608,1030,-55.4372,-5.04159
-609,-6,-55.4244,5.18591,-0.00447369,0.00398589,-0.000141364,0.00398825,-0.00447606,-1.55409,0.00488957,0.0240188,615,1030,-55.4245,-5.18595
-602,-6,-55.298,5.32507,-0.00417056,0.00156235,-0.000597222,0.0016239,-0.00423211,-1.46809,0.00349096,0.0159947,622,1030,-55.298,-5.32501
-595,-6,-55.3293,5.42834,0,0,0,0,0,0,0,-1,629,1030,-55.3293,-5.42833
-588,-6,-54.551,0.63916,0,0,0,0,0,0,0,-1,636,1030,-54.551,-0.63915
-581,-6,-54.5737,0.539795,-0.00245805,-0.00258347,0.000195205,-0.00231573,-0.00272579,0.629989,0.0016971,0.0250124,643,1030,-54.5737,-0.539789
-574,-6,-54.5911,0.481934,-0.00225234,-0.00337052,0.00061754,-0.0019784,-0.00364446,0.417518,0.0021067,0.0289671,650,1030,-54.5911,-0.481989
-567,-6,-54.6224,0.465698,-0.00228001,-0.00361548,0.00119907,-0.00157529,-0.0043202,0.531343,0.00252455,0.0382275,657,1030,-54.6224,-0.465751
-560,-6,-54.6353,0.595093,-0.0024281,-0.00339744,0.00190703,-0.000945115,-0.00488042,0.660957,0.00298881,0.0417973,664,1030,-54.6353,-0.595115
-553,-6,-54.2983,0.381836,-0.00287415,-0.00288572,0.00266633,-0.000213602,-0.00554627,0.784314,0.00362841,0.0416539,671,1030,-54.2983,-0.381828
-546,-6,-54.359,0.557007,-0.00366681,-0.00240411,0.00341993,0.000442254,-0.00651318,0.876675,0.00449679,0.0406139,678,1030,-54.359,-0.557025
-539,-6,-54.4684,0.680542,-0.00523512,-0.00212431,0.00403987,0.000649242,-0.00800867,0.969159,0.00556816,0.0408088,685,1030,-54.4684,-0.68052
-532,-6,-54.641,0.681885,-0.00699975,-0.00172937,0.00453648,0.000881755,-0.00961088,1.04852,0.00672048,0.0410596,692,1030,-54.641,-0.681855
-525,-6,0,0,0,0,0,0,0,0,0,-1,699,1030,0,0
-518,-6,0,0,0,0,0,0,0,0,0,-1,706,1030,0,0
-511,-6,0,0,0,0,0,0,0,0,0,-1,713,1030,0,0
-504,-6,0,0,0,0,0,0,0,0,0,-1,720,1030,0,0
-497,-6,0,0,0,0,0,0,0,0,0,-1,727,1030,0,0
-490,-6,0,0,0,0,0,0,0,0,0,-1,734,1030,0,0
-483,-6,0,0,0,0,0,0,0,0,0,-1,741,1030,0,0
-476,-6,0,0,0,0,0,0,0,0,0,-1,748,1030,0,0
-469,-6,0,0,0,0,0,0,0,0,0,-1,755,1030,0,0
-462,-6,0,0,0,0,0,0,0,0,0,-1,762,1030,0,0
-455,-6,0,0,0,0,0,0,0,0,0,-1,769,1030,0,0
-448,-6,0,0,0,0,0,0,0,0,0,-1,776,1030,0,0
-441,-6,0,0,0,0,0,0,0,0,0,-1,783,1030,0,0
-434,-6,0,0,0,0,0,0,0,0,0,-1,790,1030,0,0
-427,-6,0,0,0,0,0,0,0,0,0,-1,797,1030,0,0
-420,-6,0,0,0,0,0,0,0,0,0,-1,804,1030,0,0
-413,-6,0,0,0,0,0,0,0,0,0,-1,811,1030,0,0
-406,-6,0,0,0,0,0,0,0,0,0,-1,818,1030,0,0
-399,-6,0,0,0,0,0,0,0,0,0,-1,825,1030,0,0
-392,-6,0,0,0,0,0,0,0,0,0,-1,832,1030,0,0
-385,-6,0,0,0,0,0,0,0,0,0,-1,839,1030,0,0
-378,-6,0,0,0,0,0,0,0,0,0,-1,846,1030,0,0
-371,-6,0,0,0,0,0,0,0,0,0,-1,853,1030,0,0
-364,-6,0,0,0,0,0,0,0,0,0,-1,860,1030,0,0
-357,-6,0,0,0,0,0,0,0,0,0,-1,867,1030,0,0
-350,-6,0,0,0,0,0,0,0,0,0,-1,874,1030,0,0
-343,-6,0,0,0,0,0,0,0,0,0,-1,881,1030,0,0
-336,-6,0,0,0,0,0,0,0,0,0,-1,888,1030,0,0
-329,-6,0,0,0,0,0,0,0,0,0,-1,895,1030,0,0
-322,-6,0,0,0,0,0,0,0,0,0,-1,902,1030,0,0
-315,-6,0,0,0,0,0,0,0,0,0,-1,909,1030,0,0
-308,-6,0,0,0,0,0,0,0,0,0,-1,916,1030,0,0
-301,-6,0,0,0,0,0,0,0,0,0,-1,923,1030,0,0
-294,-6,0,0,0,0,0,0,0,0,0,-1,930,1030,0,0
-287,-6,0,0,0,0,0,0,0,0,0,-1,937,1030,0,0
-280,-6,0,0,0,0,0,0,0,0,0,-1,944,1030,0,0
-273,-6,0,0,0,0,0,0,0,0,0,-1,951,1030,0,0
-266,-6,0,0,0,0,0,0,0,0,0,-1,958,1030,0,0
-259,-6,0,0,0,0,0,0,0,0,0,-1,965,1030,0,0
-252,-6,0,0,0,0,0,0,0,0,0,-1,972,1030,0,0
-245,-6,0,0,0,0,0,0,0,0,0,-1,979,1030,0,0
-238,-6,0,0,0,0,0,0,0,0,0,-1,986,1030,0,0
-231,-6,0,0,0,0,0,0,0,0,0,-1,993,1030,0,0
-224,-6,0,0,0,0,0,0,0,0,0,-1,1000,1030,0,0
-217,-6,0,0,0,0,0,0,0,0,0,-1,1007,1030,0,0
-210,-6,0,0,0,0,0,0,0,0,0,-1,1014,1030,0,0
-203,-6,0,0,0,0,0,0,0,0,0,-1,1021,1030,0,0
-196,-6,0,0,0,0,0,0,0,0,0,-1,1028,1030,0,0
-189,-6,0,0,0,0,0,0,0,0,0,-1,1035,1030,0,0
-182,-6,0,0,0,0,0,0,0,0,0,-1,1042,1030,0,0
-175,-6,0,0,0,0,0,0,0,0,0,-1,1049,1030,0,0
-168,-6,0,0,0,0,0,0,0,0,0,-1,1056,1030,0,0
-161,-6,0,0,0,0,0,0,0,0,0,-1,1063,1030,0,0
-154,-6,0,0,0,0,0,0,0,0,0,-1,1070,1030,0,0
-147,-6,0,0,0,0,0,0,0,0,0,-1,1077,1030,0,0
-140,-6,0,0,0,0,0,0,0,0,0,-1,1084,1030,0,0
-133,-6,0,0,0,0,0,0,0,0,0,-1,1091,1030,0,0
-126,-6,0,0,0,0,0,0,0,0,0,-1,1098,1030,0,0
-119,-6,0,0,0,0,0,0,0,0,0,-1,1105,1030,0,0
-112,-6,0,0,0,0,0,0,0,0,0,-1,1112,1030,0,0
-105,-6,0,0,0,0,0,0,0,0,0,-1,1119,1030,0,0
-98,-6,0,0,0,0,0,0,0,0,0,-1,1126,1030,0,0
-91,-6,0,0,0,0,0,0,0,0,0,-1,1133,1030,0,0
-84,-6,0,0,0,0,0,0,0,0,0,-1,1140,1030,0,0
-77,-6,0,0,0,0,0,0,0,0,0,-1,1147,1030,0,0
-70,-6,0,0,0,0,0,0,0,0,0,-1,1154,1030,0,0
-63,-6,0,0,0,0,0,0,0,0,0,-1,1161,1030,0,0
-56,-6,0,0,0,0,0,0,0,0,0,-1,1168,1030,0,0
-49,-6,0,0,0,0,0,0,0,0,0,-1,1175,1030,0,0
-42,-6,0,0,0,0,0,0,0,0,0,-1,1182,1030,0,0
-35,-6,0,0,0,0,0,0,0,0,0,-1,1189,1030,0,0
-28,-6,0,0,0,0,0,0,0,0,0,-1,1196,1030,0,0
-21,-6,0,0,0,0,0,0,0,0,0,-1,1203,1030,0,0
-14,-6,0,0,0,0,0,0,0,0,0,-1,1210,1030,0,0
-7,-6,0,0,0,0,0,0,0,0,0,-1,1217,1030,0,0
0,-6,0,0,0,0,0,0,0,0,0,-1,1224,1030,0,0
7,-6,0,0,0,0,0,0,0,0,0,-1,1231,1030,0,0
14,-6,0,0,0,0,0,0,0,0,0,-1,1238,1030,0,0
21,-6,0,0,0,0,0,0,0,0,0,-1,1245,1030,0,0
28,-6,0,0,0,0,0,0,0,0,0,-1,1252,1030,0,0
35,-6,0,0,0,0,0,0,0,0,0,-1,1259,1030,0,0
42,-6,0,0,0,0,0,0,0,0,0,-1,1266,1030,0,0
49,-6,0,0,0,0,0,0,0,0,0,-1,1273,1030,0,0
56,-6,0,0,0,0,0,0,0,0,0,-1,1280,1030,0,0
63,-6,0,0,0,0,0,0,0,0,0,-1,1287,1030,0,0
70,-6,0,0,0,0,0,0,0,0,0,-1,1294,1030,0,0
77,-6,0,0,0,0,0,0,0,0,0,-1,1301,1030,0,0
84,-6,0,0,0,0,0,0,0,0,0,-1,1308,1030,0,0
91,-6,0,0,0,0,0,0,0,0,0,-1,1315,1030,0,0
98,-6,0,0,0,0,0,0,0,0,0,-1,1322,1030,0,0
105,-6,0,0,0,0,0,0,0,0,0,-1,1329,1030,0,0
112,-6,0,0,0,0,0,0,0,0,0,-1,1336,1030,0,0
119,-6,0,0,0,0,0,0,0,0,0,-1,1343,1030,0,0
126,-6,0,0,0,0,0,0,0,0,0,-1,1350,1030,0,0
133,-6,0,0,0,0,0,0,0,0,0,-1,1357,1030,0,0
140,-6,0,0,0,0,0,0,0,0,0,-1,1364,1030,0,0
147,-6,0,0,0,0,0,0,0,0,0,-1,1371,1030,0,0
154,-6,0,0,0,0,0,0,0,0,0,-1,1378,1030,0,0
161,-6,0,0,0,0,0,0,0,0,0,-1,1385,1030,0,0
168,-6,0,0,0,0,0,0,0,0,0,-1,1392,1030,0,0
175,-6,0,0,0,0,0,0,0,0,0,-1,1399,1030,0,0
182,-6,0,0,0,0,0,0,0,0,0,-1,1406,1030,0,0
189,-6,0,0,0,0,0,0,0,0,0,-1,1413,1030,0,0
196,-6,0,0,0,0,0,0,0,0,0,-1,1420,1030,0,0
203,-6,0,0,0,0,0,0,0,0,0,-1,1427,1030,0,0
210,-6,0,0,0,0,0,0,0,0,0,-1,1434,1030,0,0
217,-6,0,0,0,0,0,0,0,0,0,-1,1441,1030,0,0
224,-6,0,0,0,0,0,0,0,0,0,-1,1448,1030,0,0
231,-6,0,0,0,0,0,0,0,0,0,-1,1455,1030,0,0
238,-6,0,0,0,0,0,0,0,0,0,-1,1462,1030,0,0
245,-6,0,0,0,0,0,0,0,0,0,-1,1469,1030,0,0
252,-6,0,0,0,0,0,0,0,0,0,-1,1476,1030,0,0
259,-6,0,0,0,0,0,0,0,0,0,-1,1483,1030,0,0
266,-6,0,0,0,0,0,0,0,0,0,-1,1490,1030,0,0
273,-6,0,0,0,0,0,0,0,0,0,-1,1497,1030,0,0
280,-6,0,0,0,0,0,0,0,0,0,-1,1504,1030,0,0
287,-6,0,0,0,0,0,0,0,0,0,-1,1511,1030,0,0
294,-6,0,0,0,0,0,0,0,0,0,-1,1518,1030,0,0
301,-6,0,0,0,0,0,0,0,0,0,-1,1525,1030,0,0
308,-6,0,0,0,0,0,0,0,0,0,-1,1532,1030,0,0
315,-6,0,0,0,0,0,0,0,0,0,-1,1539,1030,0,0
322,-6,0,0,0,0,0,0,0,0,0,-1,1546,1030,0,0
329,-6,0,0,0,0,0,0,0,0,0,-1,1553,1030,0,0
336,-6,0,0,0,0,0,0,0,0,0,-1,1560,1030,0,0
343,-6,0,0,0,0,0,0,0,0,0,-1,1567,1030,0,0
350,-6,0,0,0,0,0,0,0,0,0,-1,1574,1030,0,0
357,-6,0,0,0,0,0,0,0,0,0,-1,1581,1030,0,0
364,-6,0,0,0,0,0,0,0,0,0,-1,1588,1030,0,0
371,-6,0,0,0,0,0,0,0,0,0,-1,1595,1030,0,0
378,-6,0,0,0,0,0,0,0,0,0,-1,1602,1030,0,0
385,-6,0,0,0,0,0,0,0,0,0,-1,1609,1030,0,0
392,-6,0,0,0,0,0,0,0,0,0,-1,1616,1030,0,0
399,-6,0,0,0,0,0,0,0,0,0,-1,1623,1030,0,0
406,-6,0,0,0,0,0,0,0,0,0,-1,1630,1030,0,0
413,-6,0,0,0,0,0,0,0,0,0,-1,1637,1030,0,0
420,-6,0,0,0,0,0,0,0,0,0,-1,1644,1030,0,0
427,-6,0,0,0,0,0,0,0,0,0,-1,1651,1030,0,0
434,-6,0,0,0,0,0,0,0,0,0,-1,1658,1030,0,0
441,-6,0,0,0,0,0,0,0,0,0,-1,1665,1030,0,0
448,-6,0,0,0,0,0,0,0,0,0,-1,1672,1030,0,0
455,-6,0,0,0,0,0,0,0,0,0,-1,1679,1030,0,0
462,-6,0,0,0,0,0,0,0,0,0,-1,1686,1030,0,0
469,-6,0,0,0,0,0,0,0,0,0,-1,1693,1030,0,0
476,-6,0,0,0,0,0,0,0,0,0,-1,1700,1030,0,0
483,-6,0,0,0,0,0,0,0,0,0,-1,1707,1030,0,0
490,-6,0,0,0,0,0,0,0,0,0,-1,1714,1030,0,0
497,-6,0,0,0,0,0,0,0,0,0,-1,1721,1030,0,0
504,-6,0,0,0,0,0,0,0,0,0,-1,1728,1030,0,0
511,-6,0,0,0,0,0,0,0,0,0,-1,1735,1030,0,0
518,-6,0,0,0,0,0,0,0,0,0,-1,1742,1030,0,0
525,-6,0,0,0,0,0,0,0,0,0,-1,1749,1030,0,0
532,-6,0,0,0,0,0,0,0,0,0,-1,1756,1030,0,0
539,-6,0,0,0,0,0,0,0,0,0,-1,1763,1030,0,0
546,-6,0,0,0,0,0,0,0,0,0,-1,1770,1030,0,0
553,-6,0,0,0,0,0,0,0,0,0,-1,1777,1030,0,0
560,-6,0,0,0,0,0,0,0,0,0,-1,1784,1030,0,0
567,-6,0,0,0,0,0,0,0,0,0,-1,1791,1030,0,0
574,-6,0,0,0,0,0,0,0,0,0,-1,1798,1030,0,0
581,-6,0,0,0,0,0,0,0,0,0,-1,1805,1030,0,0
588,-6,0,0,0,0,0,0,0,0,0,-1,1812,1030,0,0
595,-6,0,0,0,0,0,0,0,0,0,-1,1819,1030,0,0
602,-6,0,0,0,0,0,0,0,0,0,-1,1826,1030,0,0
609,-6,0,0,0,0,0,0,0,0,0,-1,1833,1030,0,0
616,-6,0,0,0,0,0,0,0,0,0,-1,1840,1030,0,0
623,-6,0,0,0,0,0,0,0,0,0,-1,1847,1030,0,0
630,-6,0,0,0,0,0,0,0,0,0,-1,1854,1030,0,0
637,-6,0,0,0,0,0,0,0,0,0,-1,1861,1030,0,0
644,-6,0,0,0,0,0,0,0,0,0,-1,1868,1030,0,0
651,-6,70.5735,2.58264,-0.0020792,0.000369499,-0.00160377,0.00116285,-0.00287255,-1.11142,0.00239853,0.0397543,1875,1030,70.5735,-2.58268
658,-6,70.457,2.58032,-0.00142828,-0.000104432,-0.00127533,0.000670515,-0.00220323,-1.02477,0.00173604,0.0408354,1882,1030,70.457,-2.58034
665,-6,70.6212,2.34094,-0.00108981,-0.000399143,-0.000993722,0.000307541,-0.00179649,-0.952627,0.00131224,0.0416362,1889,1030,70.6212,-2.34095
672,-6,70.6647,2.34741,-0.000899415,-0.000530106,-0.000716505,2.51564e-05,-0.00145468,-0.911512,0.000978278,0.039143,1896,1030,70.6646,-2.34744
679,-6,70.6731,2.39026,-0.000781233,-0.000582115,-0.000442115,-0.000228487,-0.00113486,-0.896145,0.000693081,0.0413721,1903,1030,70.6731,-2.39022
686,-6,70.5315,2.45288,-0.00102851,-0.00084727,-0.000237921,-0.000683295,-0.00119248,-0.967356,0.000690923,0.0403501,1910,1030,70.5315,-2.45287
693,-6,70.4711,2.39746,-0.00129963,-0.00113271,-4.52887e-05,-0.00112121,-0.00131113,-1.32222,0.000818161,0.036847,1917,1030,70.4711,-2.39747
700,-6,70.566,2.39587,-0.00141851,-0.0012953,0.000152079,-0.00119283,-0.00152099,0.977839,0.000924234,0.0323826,1924,1030,70.566,-2.39582
707,-6,70.4977,2.34119,-0.00206029,-0.000904619,0.000186627,-0.000875228,-0.00208968,1.4146,0.00121176,0.0316814,1931,1030,70.4977,-2.34124
714,-6,70.4775,2.15393,-0.00315875,-5.7107e-07,0.000258099,2.03827e-05,-0.0031797,1.48979,0.00212663,0.0431432,1938,1030,70.4775,-2.15395
721,-6,70.5643,2.06592,0,0,0,0,0,0,0,-1,1945,1030,70.5644,-2.06591
728,-6,53.1713,6.25494,0,0,0,0,0,0,0,-1,1952,1030,53.1713,-6.25495
735,-6,70.54,7.047,0,0,0,0,0,0,0,-1,1959,1030,70.5401,-7.04698
742,-6,70.6674,7.24121,0,0,0,0,0,0,0,-1,1966,1030,70.6673,-7.2412
749,-6,70.6716,6.67181,0,0,0,0,0,0,0,-1,1973,1030,70.6716,-6.67181
756,-6,70.6799,6.76971,-0.0104969,0.0137437,0.000757141,0.0137673,-0.0105206,1.5396,0.0140643,0.0370305,1980,1030,70.68,-6.76969
763,-6,70.4797,6.62384,-0.0106382,0.0186413,0.000665046,0.0186564,-0.0106533,1.5481,0.0171309,0.0226184,1987,1030,70.4797,-6.62381
770,-6,70.3931,6.51904,-0.00933024,0.0254591,0.00066195,0.0254717,-0.00934283,1.55178,0.0208067,0.0195432,1994,1030,70.3932,-6.51904
777,-6,70.2344,6.49304,-0.005959,0.0338327,0.000677384,0.0338442,-0.00597053,1.55378,0.0247938,0.0210731,2001,1030,70.2345,-6.49302
784,-6,70.054,6.41516,-0.000866222,0.0428594,0.000648458,0.042869,-0.000875838,1.55597,0.0288757,0.0495518,2008,1030,70.0539,-6.41517
791,-6,69.8796,6.33405,0,0,0,0,0,0,0,-1,2015,1030,69.8796,-6.33405
798,-6,70.3652,5.12317,0,0,0,0,0,0,0,-1,2022,1030,70.3652,-5.1232
805,-6,69.8875,3.526,0,0,0,0,0,0,0,-1,2029,1030,69.8875,-3.52604
812,-6,69.8679,2.30786,0,0,0,0,0,0,0,-1,2036,1030,69.868,-2.30781
-700,-13,0,0,0,0,0,0,0,0,0,-1,524,1037,0,0
-693,-13,-61.7071,-0.988159,0,0,0,0,0,0,0,-1,531,1037,-61.7071,0.988179
-686,-13,-60.6017,-1.08459,0,0,0,0,0,0,0,-1,538,1037,-60.6018,1.08464
-679,-13,-59.9466,-0.943726,0,0,0,0,0,0,0,-1,545,1037,-59.9466,0.943761
-672,-13,-55.6624,2.48657,0,0,0,0,0,0,0,-1,552,1037,-55.6624,-2.48663
-665,-13,-55.3739,2.97314,0.063715,0.0315673,-0.00551147,0.0646336,0.0306487,-0.165161,0.0373328,0.047267,559,1037,-55.3739,-2.97311
-658,-13,-55.0435,3.48572,0.0475607,0.0292209,-0.00104707,0.0476203,0.0291613,-0.0568463,0.0277241,0.0484666,566,1037,-55.0435,-3.48575
-651,-13,-54.947,3.95667,0.0334431,0.0262749,0.00152493,0.033754,0.025964,0.201135,0.0204078,0.0446379,573,1037,-54.947,-3.95663
-644,-13,-54.8798,4.49927,0.0217727,0.0231444,0.00306831,0.0256026,0.0193145,0.895356,0.0154062,0.0374543,580,1037,-54.8798,-4.49929
-637,-13,-54.9954,4.71021,0.0111592,0.0192265,0.00405728,0.020914,0.00947168,1.17664,0.0120926,0.0285677,587,1037,-54.9954,-4.7102
-630,-13,-55.1871,4.75122,0.00350406,0.0148972,0.00355372,0.0159148,0.00248648,1.29192,0.00988583,0.0178504,594,1037,-55.1871,-4.75119
-623,-13,-55.2214,4.92139,-0.00102782,0.0107936,0.00207418,0.011147,-0.00138119,1.40205,0.00793191,0.0153614,601,1037,-55.2215,-4.92138
-616,-13,-55.2168,5.09912,-0.00328547,0.00689308,0.000428101,0.00691105,-0.00330344,1.52884,0.0060187,0.0142494,608,1037,-55.2168,-5.09912
-609,-13,-55.1838,5.24951,-0.00336235,0.00369528,-0.000372863,0.00371493,-0.003382,-1.51816,0.00409891,0.0183419,615,1037,-55.1838,-5.24951
-602,-13,-55.155,5.39783,-0.00321163,0.00130756,-0.000881298,0.00147334,-0.00337742,-1.38486,0.0028716,0.0143766,622,1037,-55.155,-5.39785
-595,-13,-55.1764,5.53003,0,0,0,0,0,0,0,-1,629,1037,-55.1764,-5.52999
-588,-13,-54.4635,0.790527,0,0,0,0,0,0,0,-1,636,1037,-54.4635,-0.790473
-581,-13,-54.5606,0.408936,-0.00196101,-0.00249724,-1.26242e-05,-0.00196071,-0.00249754,-0.0235251,0.00151806,0.027356,643,1037,-54.5606,-0.408892
-574,-13,-54.5612,0.499878,-0.0018243,-0.00314169,0.000439586,-0.00169109,-0.0032749,0.294241,0.0018911,0.0308257,650,1037,-54.5612,-0.499881
-567,-13,-54.6329,0.665283,-0.00198068,-0.00325259,0.00101154,-0.0014218,-0.00381148,0.50477,0.00222408,0.0389094,657,1037,-54.6329,-0.665248
-560,-13,-54.1746,-0.381592,0,0,0,0,0,0,0,-1,664,1037,-54.1745,0.381572
-553,-13,-54.3681,0.0605469,-0.00290945,-0.0022273,0.00233924,-0.000204402,-0.00493235,0.857792,0.00322226,0.0421348,671,1037,-54.3681,-0.0606035
-546,-13,-54.5861,0.553345,-0.00379291,-0.00155559,0.00290488,0.000438578,-0.00578708,0.969195,0.00401225,0.0378157,678,1037,-54.5861,-0.55335
-539,-13,-54.6744,0.865479,-0.00530541,-0.00107174,0.00325777,0.000696533,-0.00707368,1.07351,0.00496428,0.0420322,685,1037,-54.6744,-0.865447
-532,-13,-54.8026,0.603882,-0.00696693,-0.000392016,0.00350626,0.0011269,-0.00848585,1.162,0.00606784,0.0423554,692,1037,-54.8025,-0.603878
-525,-13,0,0,0,0,0,0,0,0,0,-1,699,1037,0,0
-518,-13,0,0,0,0,0,0,0,0,0,-1,706,1037,0,0
-511,-13,0,0,0,0,0,0,0,0,0,-1,713,1037,0,0
-504,-13,0,0,0,0,0,0,0,0,0,-1,720,1037,0,0
-497,-13,0,0,0,0,0,0,0,0,0,-1,727,1037,0,0
-490,-13,0,0,0,0,0,0,0,0,0,-1,734,1037,0,0
-483,-13,0,0,0,0,0,0,0,0,0,-1,741,1037,0,0
-476,-13,0,0,0,0,0,0,0,0,0,-1,748,1037,0,0
-469,-13,0,0,0,0,0,0,0,0,0,-1,755,1037,0,0
-462,-13,0,0,0,0,0,0,0,0,0,-1,762,1037,0,0
-455,-13,0,0,0,0,0,0,0,0,0,-1,769,1037,0,0
-448,-13,0,0,0,0,0,0,0,0,0,-1,776,1037,0,0
-441,-13,0,0,0,0,0,0,0,0,0,-1,783,1037,0,0
-434,-13,0,0,0,0,0,0,0,0,0,-1,790,1037,0,0
-427,-13,0,0,0,0,0,0,0,0,0,-1,797,1037,0,0
-420,-13,0,0,0,0,0,0,0,0,0,-1,804,1037,0,0
-413,-13,0,0,0,0,0,0,0,0,0,-1,811,1037,0,0
-406,-13,0,0,0,0,0,0,0,0,0,-1,818,1037,0,0
-399,-13,0,0,0,0,0,0,0,0,0,-1,825,1037,0,0
-392,-13,0,0,0,0,0,0,0,0,0,-1,832,1037,0,0
-385,-13,0,0,0,0,0,0,0,0,0,-1,839,1037,0,0
-378,-13,0,0,0,0,0,0,0,0,0,-1,846,1037,0,0
-371,-13,0,0,0,0,0,0,0,0,0,-1,853,1037,0,0
-364,-13,0,0,0,0,0,0,0,0,0,-1,860,1037,0,0
-357,-13,0,0,0,0,0,0,0,0,0,-1,867,1037,0,0
-350,-13,0,0,0,0,0,0,0,0,0,-1,874,1037,0,0
-343,-13,0,0,0,0,0,0,0,0,0,-1,881,1037,0,0
-336,-13,0,0,0,0,0,0,0,0,0,-1,888,1037,0,0
-329,-13,0,0,0,0,0,0,0,0,0,-1,895,1037,0,0
-322,-13,0,0,0,0,0,0,0,0,0,-1,902,1037,0,0
-315,-13,0,0,0,0,0,0,0,0,0,-1,909,1037,0,0
-308,-13,0,0,0,0,0,0,0,0,0,-1,916,1037,0,0
-301,-13,0,0,0,0,0,0,0,0,0,-1,923,1037,0,0
-294,-13,0,0,0,0,0,0,0,0,0,-1,930,1037,0,0
-287,-13,0,0,0,0,0,0,0,0,0,-1,937,1037,0,0
-280,-13,0,0,0,0,0,0,0,0,0,-1,944,1037,0,0
-273,-13,0,0,0,0,0,0,0,0,0,-1,951,1037,0,0
-266,-13,0,0,0,0,0,0,0,0,0,-1,958,1037,0,0
-259,-13,0,0,0,0,0,0,0,0,0,-1,965,1037,0,0
-252,-13,0,0,0,0,0,0,0,0,0,-1,972,1037,0,0
-245,-13,0,0,0,0,0,0,0,0,0,-1,979,1037,0,0
-238,-13,0,0,0,0,0,0,0,0,0,-1,986,1037,0,0
-231,-13,0,0,0,0,0,0,0,0,0,-1,993,1037,0,0
-224,-13,0,0,0,0,0,0,0,0,0,-1,1000,1037,0,0
-217,-13,0,0,0,0,0,0,0,0,0,-1,1007,1037,0,0
-210,-13,0,0,0,0,0,0,0,0,0,-1,1014,1037,0,0
-203,-13,0,0,0,0,0,0,0,0,0,-1,1021,1037,0,0
-196,-13,0,0,0,0,0,0,0,0,0,-1,1028,1037,0,0
-189,-13,0,0,0,0,0,0,0,0,0,-1,1035,1037,0,0
-182,-13,0,0,0,0,0,0,0,0,0,-1,1042,1037,0,0
-175,-13,0,0,0,0,0,0,0,0,0,-1,1049,1037,0,0
-168,-13,0,0,0,0,0,0,0,0,0,-1,1056,1037,0,0
-161,-13,0,0,0,0,0,0,0,0,0,-1,1063,1037,0,0
-154,-13,0,0,0,0,0,0,0,0,0,-1,1070,1037,0,0
-147,-13,0,0,0,0,0,0,0,0,0,-1,1077,1037,0,0
-140,-13,0,0,0,0,0,0,0,0,0,-1,1084,1037,0,0
-133,-13,0,0,0,0,0,0,0,0,0,-1,1091,1037,0,0
-126,-13,0,0,0,0,0,0,0,0,0,-1,1098,1037,0,0
-119,-13,0,0,0,0,0,0,0,0,0,-1,1105,1037,0,0
-112,-13,0,0,0,0,0,0,0,0,0,-1,1112,1037,0,0
-105,-13,0,0,0,0,0,0,0,0,0,-1,1119,1037,0,0
-98,-13,0,0,0,0,0,0,0,0,0,-1,1126,1037,0,0
-91,-13,0,0,0,0,0,0,0,0,0,-1,1133,1037,0,0
-84,-13,0,0,0,0,0,0,0,0,0,-1,1140,1037,0,0
-77,-13,0,0,0,0,0,0,0,0,0,-1,1147,1037,0,0
-70,-13,0,0,0,0,0,0,0,0,0,-1,1154,1037,0,0
-63,-13,0,0,0,0,0,0,0,0,0,-1,1161,1037,0,0
-56,-13,0,0,0,0,0,0,0,0,0,-1,1168,1037,0,0
-49,-13,0,0,0,0,0,0,0,0,0,-1,1175,1037,0,0
-42,-13,0,0,0,0,0,0,0,0,0,-1,1182,1037,0,0
-35,-13,0,0,0,0,0,0,0,0,0,-1,1189,1037,0,0
-28,-13,0,0,0,0,0,0,0,0,0,-1,1196,1037,0,0
-21,-13,0,0,0,0,0,0,0,0,0,-1,1203,1037,0,0
-14,-13,0,0,0,0,0,0,0,0,0,-1,1210,1037,0,0
-7,-13,0,0,0,0,0,0,0,0,0,-1,1217,1037,0,0
0,-13,0,0,0,0,0,0,0,0,0,-1,1224,1037,0,0
7,-13,0,0,0,0,0,0,0,0,0,-1,1231,1037,0,0
14,-13,0,0,0,0,0,0,0,0,0,-1,1238,1037,0,0
21,-13,0,0,0,0,0,0,0,0,0,-1,1245,1037,0,0
28,-13,0,0,0,0,0,0,0,0,0,-1,1252,1037,0,0
35,-13,0,0,0,0,0,0,0,0,0,-1,1259,1037,0,0
42,-13,0,0,0,0,0,0,0,0,0,-1,1266,1037,0,0
49,-13,0,0,0,0,0,0,0,0,0,-1,1273,1037,0,0
56,-13,0,0,0,0,0,0,0,0,0,-1,1280,1037,0,0
63,-13,0,0,0,0,0,0,0,0,0,-1,1287,1037,0,0
70,-13,0,0,0,0,0,0,0,0,0,-1,1294,1037,0,0
77,-13,0,0,0,0,0,0,0,0,0,-1,1301,1037,0,0
84,-13,0,0,0,0,0,0,0,0,0,-1,1308,1037,0,0
91,-13,0,0,0,0,0,0,0,0,0,-1,1315,1037,0,0
98,-13,0,0,0,0,0,0,0,0,0,-1,1322,1037,0,0
105,-13,0,0,0,0,0,0,0,0,0,-1,1329,1037,0,0
112,-13,0,0,0,0,0,0,0,0,0,-1,1336,1037,0,0
119,-13,0,0,0,0,0,0,0,0,0,-1,1343,1037,0,0
126,-13,0,0,0,0,0,0,0,0,0,-1,1350,1037,0,0
133,-13,0,0,0,0,0,0,0,0,0,-1,1357,1037,0,0
140,-13,0,0,0,0,0,0,0,0,0,-1,1364,1037,0,0
147,-13,0,0,0,0,0,0,0,0,0,-1,1371,1037,0,0
154,-13,0,0,0,0,0,0,0,0,0,-1,1378,1037,0,0
161,-13,0,0,0,0,0,0,0,0,0,-1,1385,1037,0,0
168,-13,0,0,0,0,0,0,0,0,0,-1,1392,1037,0,0
175,-13,0,0,0,0,0,0,0,0,0,-1,1399,1037,0,0
182,-13,0,0,0,0,0,0,0,0,0,-1,1406,1037,0,0
189,-13,0,0,0,0,0,0,0,0,0,-1,1413,1037,0,0
196,-13,0,0,0,0,0,0,0,0,0,-1,1420,1037,0,0
203,-13,0,0,0,0,0,0,0,0,0,-1,1427,1037,0,0
210,-13,0,0,0,0,0,0,0,0,0,-1,1434,1037,0,0
217,-13,0,0,0,0,0,0,0,0,0,-1,1441,1037,0,0
224,-13,0,0,0,0,0,0,0,0,0,-1,1448,1037,0,0
231,-13,0,0,0,0,0,0,0,0,0,-1,1455,1037,0,0
238,-13,0,0,0,0,0,0,0,0,0,-1,1462,1037,0,0
245,-13,0,0,0,0,0,0,0,0,0,-1,1469,1037,0,0
252,-13,0,0,0,0,0,0,0,0,0,-1,1476,1037,0,0
259,-13,0,0,0,0,0,0,0,0,0,-1,1483,1037,0,0
266,-13,0,0,0,0,0,0,0,0,0,-1,1490,1037,0,0
273,-13,0,0,0,0,0,0,0,0,0,-1,1497,1037,0,0
280,-13,0,0,0,0,0,0,0,0,0,-1,1504,1037,0,0
287,-13,0,0,0,0,0,0,0,0,0,-1,1511,1037,0,0
294,-13,0,0,0,0,0,0,0,0,0,-1,1518,1037,0,0
301,-13,0,0,0,0,0,0,0,0,0,-1,1525,1037,0,0
308,-13,0,0,0,0,0,0,0,0,0,-1,1532,1037,0,0
315,-13,0,0,0,0,0,0,0,0,0,-1,1539,1037,0,0
322,-13,0,0,0,0,0,0,0,0,0,-1,1546,1037,0,0
329,-13,0,0,0,0,0,0,0,0,0,-1,1553,1037,0,0
336,-13,0,0,0,0,0,0,0,0,0,-1,1560,1037,0,0
343,-13,0,0,0,0,0,0,0,0,0,-1,1567,1037,0,0
350,-13,0,0,0,0,0,0,0,0,0,-1,1574,1037,0,0
357,-13,0,0,0,0,0,0,0,0,0,-1,1581,1037,0,0
364,-13,0,0,0,0,0,0,0,0,0,-1,1588,1037,0,0
371,-13,0,0,0,0,0,0,0,0,0,-1,1595,1037,0,0
378,-13,0,0,0,0,0,0,0,0,0,-1,1602,1037,0,0
385,-13,0,0,0,0,0,0,0,0,0,-1,1609,1037,0,0
392,-13,0,0,0,0,0,0,0,0,0,-1,1616,1037,0,0
399,-13,0,0,0,0,0,0,0,0,0,-1,1623,1037,0,0
406,-13,0,0,0,0,0,0,0,0,0,-1,1630,1037,0,0
413,-13,0,0,0,0,0,0,0,0,0,-1,1637,1037,0,0
420,-13,0,0,0,0,0,0,0,0,0,-1,1644,1037,0,0
427,-13,0,0,0,0,0,0,0,0,0,-1,1651,1037,0,0
434,-13,0,0,0,0,0,0,0,0,0,-1,1658,1037,0,0
441,-13,0,0,0,0,0,0,0,0,0,-1,1665,1037,0,0
448,-13,0,0,0,0,0,0,0,0,0,-1,1672,1037,0,0
455,-13,0,0,0,0,0,0,0,0,0,-1,1679,1037,0,0
462,-13,0,0,0,0,0,0,0,0,0,-1,1686,1037,0,0
469,-13,0,0,0,0,0,0,0,0,0,-1,1693,1037,0,0
476,-13,0,0,0,0,0,0,0,0,0,-1,1700,1037,0,0
483,-13,0,0,0,0,0,0,0,0,0,-1,1707,1037,0,0
490,-13,0,0,0,0,0,0,0,0,0,-1,1714,1037,0,0
497,-13,0,0,0,0,0,0,0,0,0,-1,1721,1037,0,0
504,-13,0,0,0,0,0,0,0,0,0,-1,1728,1037,0,0
511,-13,0,0,0,0,0,0,0,0,0,-1,1735,1037,0,0
518,-13,0,0,0,0,0,0,0,0,0,-1,1742,1037,0,0
525,-13,0,0,0,0,0,0,0,0,0,-1,1749,1037,0,0
532,-13,0,0,0,0,0,0,0,0,0,-1,1756,1037,0,0
539,-13,0,0,0,0,0,0,0,0,0,-1,1763,1037,0,0
546,-13,0,0,0,0,0,0,0,0,0,-1,1770,1037,0,0
553,-13,0,0,0,0,0,0,0,0,0,-1,1777,1037,0,0
560,-13,0,0,0,0,0,0,0,0,0,-1,1784,1037,0,0
567,-13,0,0,0,0,0,0,0,0,0,-1,1791,1037,0,0
574,-13,0,0,0,0,0,0,0,0,0,-1,1798,1037,0,0
581,-13,0,0,0,0,0,0,0,0,0,-1,1805,1037,0,0
588,-13,0,0,0,0,0,0,0,0,0,-1,1812,1037,0,0
595,-13,0,0,0,0,0,0,0,0,0,-1,1819,1037,0,0
602,-13,0,0,0,0,0,0,0,0,0,-1,1826,1037,0,0
609,-13,0,0,0,0,0,0,0,0,0,-1,1833,1037,0,0
616,-13,0,0,0,0,0,0,0,0,0,-1,1840,1037,0,0
623,-13,0,0,0,0,0,0,0,0,0,-1,1847,1037,0,0
630,-13,0,0,0,0,0,0,0,0,0,-1,1854,1037,0,0
637,-13,0,0,0,0,0,0,0,0,0,-1,1861,1037,0,0
644,-13,0,0,0,0,0,0,0,0,0,-1,1868,1037,0,0
651,-13,70.5227,2.521,-0.00205183,0.00054818,-0.000574953,0.000669647,-0.0021733,-1.36259,0.0017162,0.0406949,1875,1037,70.5227,-2.521
658,-13,70.4268,2.47961,-0.0013389,-1.98106e-05,-0.000502061,0.000149538,-0.00150825,-1.24547,0.00105887,0.0449697,1882,1037,70.4268,-2.47957
665,-13,70.5436,2.30981,-0.00100445,-0.000355786,-0.000415478,-0.000153038,-0.0012072,-1.1168,0.000758945,0.0423389,1889,1037,70.5436,-2.30983
672,-13,70.6163,2.35437,-0.000842545,-0.000485125,-0.000287263,-0.000325519,-0.00100215,-1.06366,0.00059031,0.0343343,1896,1037,70.6163,-2.35433
679,-13,70.6248,2.40173,-0.000779365,-0.000504991,-0.000145219,-0.000442405,-0.00084195,-1.16388,0.00048631,0.0362775,1903,1037,70.6247,-2.40175
686,-13,70.5729,2.34778,-0.00113943,-0.000731718,-3.22416e-05,-0.000729184,-0.00114196,-1.49237,0.000667696,0.0418615,1910,1037,70.5729,-2.34777
693,-13,70.5836,2.23291,-0.00151151,-0.000997195,0.000110798,-0.000974342,-0.00153436,1.36739,0.000896565,0.0405521,1917,1037,70.5836,-2.23294
700,-13,70.5927,2.26843,-0.0017038,-0.00116434,0.00032076,-0.00101497,-0.00185316,1.135,0.00107155,0.0376973,1924,1037,70.5926,-2.26838
707,-13,70.5624,2.2688,-0.00237208,-0.000840981,0.000396464,-0.000744411,-0.00246865,1.33187,0.00146222,0.0346849,1931,1037,70.5623,-2.26883
714,-13,70.494,2.495,-0.00345085,-1.74287e-05,0.000513105,5.7612e-05,-0.00352589,1.42558,0.00237003,0.0376484,1938,1037,70.494,-2.495
721,-13,70.3167,2.73755,0,0,0,0,0,0,0,-1,1945,1037,70.3166,-2.73759
728,-13,70.538,7.16833,0,0,0,0,0,0,0,-1,1952,1037,70.5379,-7.16831
735,-13,70.4307,7.11377,-0.00770515,0.00482807,0.000676112,0.00486444,-0.00774152,1.51706,0.00734097,0.0424825,1959,1037,70.4307,-7.11377
742,-13,70.4089,7.00012,-0.00874931,0.00658306,0.000730212,0.00661776,-0.00878401,1.52331,0.00892149,0.0269488,1966,1037,70.4089,-7.00011
749,-13,70.5276,6.84509,-0.00967353,0.00898907,0.000756108,0.00901965,-0.00970411,1.53037,0.0108126,0.0361339,1973,1037,70.5275,-6.84504
756,-13,70.5154,6.70593,-0.0102566,0.0126434,0.000752097,0.0126681,-0.0102813,1.538,0.0132737,0.0231498,1980,1037,70.5154,-6.70596
763,-13,70.4321,6.54688,-0.0101137,0.0170438,0.00031725,0.0170475,-0.0101174,1.55912,0.0158529,0.0314237,1987,1037,70.4321,-6.54692
770,-13,70.3254,6.427,-0.00851991,0.0230341,-0.000270218,0.0230365,-0.00852223,-1.56223,0.0188518,0.0261261,1994,1037,70.3255,-6.42702
777,-13,70.1074,6.25354,-0.00480349,0.0303569,-0.00115091,0.0303946,-0.00484112,-1.53811,0.0220546,0.0183602,2001,1037,70.1074,-6.25352
784,-13,70.0586,6.12085,0.000423961,0.0380962,-0.00227982,0.0382337,0.000286493,-1.51057,0.0253942,0.0387839,2008,1037,70.0586,-6.1209
791,-13,70.0227,5.99585,0,0,0,0,0,0,0,-1,2015,1037,70.0226,-5.99585
798,-13,70.7556,4.92419,0,0,0,0,0,0,0,-1,2022,1037,70.7557,-4.92414
805,-13,69.9949,5.11133,0,0,0,0,0,0,0,-1,2029,1037,69.9949,-5.11133
812,-13,70.5376,3.04578,0,0,0,0,0,0,0,-1,2036,1037,70.5376,-3.04581
-700,-20,-61.1535,-2.44299,0,0,0,0,0,0,0,-1,524,1044,-61.1535,2.44297
-693,-20,-60.3812,-1.53186,0.135876,0.0362592,-0.047169,0.154667,0.0174689,-0.379093,0.0978095,0.0449451,531,1044,-60.3812,1.53184
-686,-20,-59.5434,-1.17859,0.118967,0.0338193,-0.0313106,0.129241,0.0235454,-0.31706,0.0794831,0.0444488,538,1044,-59.5434,1.17859
-679,-20,-58.8662,-0.859253,0.10103,0.0320883,-0.0199465,0.106385,0.0267332,-0.262285,0.0639045,0.0479567,545,1044,-58.8662,0.859305
-672,-20,-55.3661,2.17249,0,0,0,0,0,0,0,-1,552,1044,-55.3661,-2.17246
-665,-20,-55.3648,2.79553,0,0,0,0,0,0,0,-1,559,1044,-55.3648,-2.79551
-658,-20,-54.9332,3.99109,0,0,0,0,0,0,0,-1,566,1044,-54.9332,-3.99115
-651,-20,-54.8264,4.06299,0.0362612,0.0241155,0.000764394,0.0363091,0.0240676,0.0626064,0.0213305,0.0447782,573,1044,-54.8264,-4.06295
-644,-20,-54.7125,4.17285,0.0245402,0.0213901,0.00237502,0.025815,0.0201153,0.492609,0.0156598,0.0300435,580,1044,-54.7125,-4.17284
-637,-20,-54.7836,4.34814,0.0136473,0.0178893,0.00346219,0.0198285,0.0117081,1.06022,0.0115103,0.0214542,587,1044,-54.7836,-4.34815
-630,-20,-54.8944,4.60706,0.00562677,0.013929,0.00312402,0.0149732,0.00458257,1.24822,0.00885889,0.017317,594,1044,-54.8944,-4.6071
-623,-20,-54.9802,4.87146,0.000713973,0.0101357,0.00174328,0.0104479,0.000401764,1.39358,0.00683529,0.0153831,601,1044,-54.9802,-4.8715
-616,-20,-54.9957,5.07385,-0.00193635,0.0064564,0.000127713,0.00645834,-0.00193829,1.55558,0.00507654,0.0150153,608,1044,-54.9957,-5.07379
-609,-20,-55.0237,5.2655,-0.00221485,0.00341886,-0.000658576,0.00349482,-0.00229081,-1.45596,0.00336436,0.0159167,615,1044,-55.0237,-5.26553
-602,-20,-54.9758,5.46997,-0.00219058,0.00106936,-0.00123077,0.00148184,-0.00260306,-1.24742,0.00238785,0.0152032,622,1044,-54.9757,-5.46993
-595,-20,-54.9925,5.6781,0,0,0,0,0,0,0,-1,629,1044,-54.9925,-5.67812
-588,-20,-54.4982,0.655151,0,0,0,0,0,0,0,-1,636,1044,-54.4982,-0.655156
-581,-20,-54.5427,0.286987,-0.00129528,-0.00228505,-0.000376091,-0.00116859,-0.00241174,-0.324921,0.00139264,0.035468,643,1044,-54.5427,-0.287047
-574,-20,-54.5634,0.596558,-0.00120283,-0.00276459,5.57579e-05,-0.00120084,-0.00276658,0.0356414,0.00160191,0.0370627,650,1044,-54.5634,-0.596595
-567,-20,-54.4995,0.706299,-0.00144157,-0.00272024,0.000567108,-0.00122629,-0.00293552,0.362801,0.00170245,0.0430207,657,1044,-54.4995,-0.706336
-560,-20,-54.5458,0.402588,-0.00187278,-0.0021847,0.00112897,-0.000889052,-0.00316843,0.716761,0.00188709,0.0441741,664,1044,-54.5458,-0.402589
-553,-20,-54.5391,0.533569,-0.00255629,-0.00131268,0.00163272,-0.000187367,-0.0036816,0.967339,0.00239439,0.0418736,671,1044,-54.5391,-0.533616
-546,-20,-54.6098,0.671387,-0.00342016,-0.000354128,0.00194919,0.000592669,-0.00436696,1.11862,0.00312764,0.0404202,678,1044,-54.6098,-0.671421
-539,-20,-54.6274,0.984497,-0.00472962,0.00046454,0.00197607,0.00113084,-0.00539592,1.24558,0.0040275,0.0448071,685,1044,-54.6274,-0.984553
-532,-20,-54.7219,0.834961,-0.00610961,0.00155666,0.00190441,0.00200368,-0.00655663,1.34024,0.00517006,0.042006,692,1044,-54.7219,-0.834907
-525,-20,0,0,0,0,0,0,0,0,0,-1,699,1044,0,0
-518,-20,0,0,0,0,0,0,0,0,0,-1,706,1044,0,0
-511,-20,0,0,0,0,0,0,0,0,0,-1,713,1044,0,0
-504,-20,0,0,0,0,0,0,0,0,0,-1,720,1044,0,0
-497,-20,0,0,0,0,0,0,0,0,0,-1,727,1044,0,0
-490,-20,0,0,0,0,0,0,0,0,0,-1,734,1044,0,0
-483,-20,0,0,0,0,0,0,0,0,0,-1,741,1044,0,0
-476,-20,0,0,0,0,0,0,0,0,0,-1,748,1044,0,0
-469,-20,0,0,0,0,0,0,0,0,0,-1,755,1044,0,0
-462,-20,0,0,0,0,0,0,0,0,0,-1,762,1044,0,0
-455,-20,0,0,0,0,0,0,0,0,0,-1,769,1044,0,0
-448,-20,0,0,0,0,0,0,0,0,0,-1,776,1044,0,0
-441,-20,0,0,0,0,0,0,0,0,0,-1,783,1044,0,0
-434,-20,0,0,0,0,0,0,0,0,0,-1,790,1044,0,0
-427,-20,0,0,0,0,0,0,0,0,0,-1,797,1044,0,0
-420,-20,0,0,0,0,0,0,0,0,0,-1,804,1044,0,0
-413,-20,0,0,0,0,0,0,0,0,0,-1,811,1044,0,0
-406,-20,0,0,0,0,0,0,0,0,0,-1,818,1044,0,0
-399,-20,0,0,0,0,0,0,0,0,0,-1,825,1044,0,0
-392,-20,0,0,0,0,0,0,0,0,0,-1,832,1044,0,0
-385,-20,0,0,0,0,0,0,0,0,0,-1,839,1044,0,0
-378,-20,0,0,0,0,0,0,0,0,0,-1,846,1044,0,0
-371,-20,0,0,0,0,0,0,0,0,0,-1,853,1044,0,0
-364,-20,0,0,0,0,0,0,0,0,0,-1,860,1044,0,0
-357,-20,0,0,0,0,0,0,0,0,0,-1,867,1044,0,0
-350,-20,0,0,0,0,0,0,0,0,0,-1,874,1044,0,0
-343,-20,0,0,0,0,0,0,0,0,0,-1,881,1044,0,0
-336,-20,0,0,0,0,0,0,0,0,0,-1,888,1044,0,0
-329,-20,0,0,0,0,0,0,0,0,0,-1,895,1044,0,0
-322,-20,0,0,0,0,0,0,0,0,0,-1,902,1044,0,0
-315,-20,0,0,0,0,0,0,0,0,0,-1,909,1044,0,0
-308,-20,0,0,0,0,0,0,0,0,0,-1,916,1044,0,0
-301,-20,0,0,0,0,0,0,0,0,0,-1,923,1044,0,0
-294,-20,0,0,0,0,0,0,0,0,0,-1,930,1044,0,0
-287,-20,0,0,0,0,0,0,0,0,0,-1,937,1044,0,0
-280,-20,0,0,0,0,0,0,0,0,0,-1,944,1044,0,0
-273,-20,0,0,0,0,0,0,0,0,0,-1,951,1044,0,0
-266,-20,0,0,0,0,0,0,0,0,0,-1,958,1044,0,0
-259,-20,0,0,0,0,0,0,0,0,0,-1,965,1044,0,0
-252,-20,0,0,0,0,0,0,0,0,0,-1,972,1044,0,0
-245,-20,0,0,0,0,0,0,0,0,0,-1,979,1044,0,0
-238,-20,0,0,0,0,0,0,0,0,0,-1,986,1044,0,0
-231,-20,0,0,0,0,0,0,0,0,0,-1,993,1044,0,0
-224,-20,0,0,0,0,0,0,0,0,0,-1,1000,1044,0,0
-217,-20,0,0,0,0,0,0,0,0,0,-1,1007,1044,0,0
-210,-20,0,0,0,0,0,0,0,0,0,-1,1014,1044,0,0
-203,-20,0,0,0,0,0,0,0,0,0,-1,1021,1044,0,0
-196,-20,0,0,0,0,0,0,0,0,0,-1,1028,1044,0,0
-189,-20,0,0,0,0,0,0,0,0,0,-1,1035,1044,0,0
-182,-20,0,0,0,0,0,0,0,0,0,-1,1042,1044,0,0
-175,-20,0,0,0,0,0,0,0,0,0,-1,1049,1044,0,0
-168,-20,0,0,0,0,0,0,0,0,0,-1,1056,1044,0,0
-161,-20,0,0,0,0,0,0,0,0,0,-1,1063,1044,0,0
-154,-20,0,0,0,0,0,0,0,0,0,-1,1070,1044,0,0
-147,-20,0,0,0,0,0,0,0,0,0,-1,1077,1044,0,0
-140,-20,0,0,0,0,0,0,0,0,0,-1,1084,1044,0,0
-133,-20,0,0,0,0,0,0,0,0,0,-1,1091,1044,0,0
-126,-20,0,0,0,0,0,0,0,0,0,-1,1098,1044,0,0
-119,-20,0,0,0,0,0,0,0,0,0,-1,1105,1044,0,0
-112,-20,0,0,0,0,0,0,0,0,0,-1,1112,1044,0,0
-105,-20,0,0,0,0,0,0,0,0,0,-1,1119,1044,0,0
-98,-20,0,0,0,0,0,0,0,0,0,-1,1126,1044,0,0
-91,-20,0,0,0,0,0,0,0,0,0,-1,1133,1044,0,0
-84,-20,0,0,0,0,0,0,0,0,0,-1,1140,1044,0,0
-77,-20,0,0,0,0,0,0,0,0,0,-1,1147,1044,0,0
-70,-20,0,0,0,0,0,0,0,0,0,-1,1154,1044,0,0
-63,-20,0,0,0,0,0,0,0,0,0,-1,1161,1044,0,0
-56,-20,0,0,0,0,0,0,0,0,0,-1,1168,1044,0,0
-49,-20,0,0,0,0,0,0,0,0,0,-1,1175,1044,0,0
-42,-20,0,0,0,0,0,0,0,0,0,-1,1182,1044,0,0
-35,-20,0,0,0,0,0,0,0,0,0,-1,1189,1044,0,0
-28,-20,0,0,0,0,0,0,0,0,0,-1,1196,1044,0,0
-21,-20,0,0,0,0,0,0,0,0,0,-1,1203,1044,0,0
-14,-20,0,0,0,0,0,0,0,0,0,-1,1210,1044,0,0
-7,-20,0,0,0,0,0,0,0,0,0,-1,1217,1044,0,0
0,-20,0,0,0,0,0,0,0,0,0,-1,1224,1044,0,0
7,-20,0,0,0,0,0,0,0,0,0,-1,1231,1044,0,0
14,-20,0,0,0,0,0,0,0,0,0,-1,1238,1044,0,0
21,-20,0,0,0,0,0,0,0,0,0,-1,1245,1044,0,0
28,-20,0,0,0,0,0,0,0,0,0,-1,1252,1044,0,0
35,-20,0,0,0,0,0,0,0,0,0,-1,1259,1044,0,0
42,-20,0,0,0,0,0,0,0,0,0,-1,1266,1044,0,0
49,-20,0,0,0,0,0,0,0,0,0,-1,1273,1044,0,0
56,-20,0,0,0,0,0,0,0,0,0,-1,1280,1044,0,0
63,-20,0,0,0,0,0,0,0,0,0,-1,1287,1044,0,0
70,-20,0,0,0,0,0,0,0,0,0,-1,1294,1044,0,0
77,-20,0,0,0,0,0,0,0,0,0,-1,1301,1044,0,0
84,-20,0,0,0,0,0,0,0,0,0,-1,1308,1044,0,0
91,-20,0,0,0,0,0,0,0,0,0,-1,1315,1044,0,0
98,-20,0,0,0,0,0,0,0,0,0,-1,1322,1044,0,0
105,-20,0,0,0,0,0,0,0,0,0,-1,1329,1044,0,0
112,-20,0,0,0,0,0,0,0,0,0,-1,1336,1044,0,0
119,-20,0,0,0,0,0,0,0,0,0,-1,1343,1044,0,0
126,-20,0,0,0,0,0,0,0,0,0,-1,1350,1044,0,0
133,-20,0,0,0,0,0,0,0,0,0,-1,1357,1044,0,0
140,-20,0,0,0,0,0,0,0,0,0,-1,1364,1044,0,0
147,-20,0,0,0,0,0,0,0,0,0,-1,1371,1044,0,0
154,-20,0,0,0,0,0,0,0,0,0,-1,1378,1044,0,0
161,-20,0,0,0,0,0,0,0,0,0,-1,1385,1044,0,0
168,-20,0,0,0,0,0,0,0,0,0,-1,1392,1044,0,0
175,-20,0,0,0,0,0,0,0,0,0,-1,1399,1044,0,0
182,-20,0,0,0,0,0,0,0,0,0,-1,1406,1044,0,0
189,-20,0,0,0,0,0,0,0,0,0,-1,1413,1044,0,0
196,-20,0,0,0,0,0,0,0,0,0,-1,1420,1044,0,0
203,-20,0,0,0,0,0,0,0,0,0,-1,1427,1044,0,0
210,-20,0,0,0,0,0,0,0,0,0,-1,1434,1044,0,0
217,-20,0,0,0,0,0,0,0,0,0,-1,1441,1044,0,0
224,-20,0,0,0,0,0,0,0,0,0,-1,1448,1044,0,0
231,-20,0,0,0,0,0,0,0,0,0,-1,1455,1044,0,0
238,-20,0,0,0,0,0,0,0,0,0,-1,1462,1044,0,0
245,-20,0,0,0,0,0,0,0,0,0,-1,1469,1044,0,0
252,-20,0,0,0,0,0,0,0,0,0,-1,1476,1044,0,0
259,-20,0,0,0,0,0,0,0,0,0,-1,1483,1044,0,0
266,-20,0,0,0,0,0,0,0,0,0,-1,1490,1044,0,0
273,-20,0,0,0,0,0,0,0,0,0,-1,1497,1044,0,0
280,-20,0,0,0,0,0,0,0,0,0,-1,1504,1044,0,0
287,-20,0,0,0,0,0,0,0,0,0,-1,1511,1044,0,0
294,-20,0,0,0,0,0,0,0,0,0,-1,1518,1044,0,0
301,-20,0,0,0,0,0,0,0,0,0,-1,1525,1044,0,0
308,-20,0,0,0,0,0,0,0,0,0,-1,1532,1044,0,0
315,-20,0,0,0,0,0,0,0,0,0,-1,1539,1044,0,0
322,-20,0,0,0,0,0,0,0,0,0,-1,1546,1044,0,0
329,-20,0,0,0,0,0,0,0,0,0,-1,1553,1044,0,0
336,-20,0,0,0,0,0,0,0,0,0,-1,1560,1044,0,0
343,-20,0,0,0,0,0,0,0,0,0,-1,1567,1044,0,0
350,-20,0,0,0,0,0,0,0,0,0,-1,1574,1044,0,0
357,-20,0,0,0,0,0,0,0,0,0,-1,1581,1044,0,0
364,-20,0,0,0,0,0,0,0,0,0,-1,1588,1044,0,0
371,-20,0,0,0,0,0,0,0,0,0,-1,1595,1044,0,0
378,-20,0,0,0,0,0,0,0,0,0,-1,1602,1044,0,0
385,-20,0,0,0,0,0,0,0,0,0,-1,1609,1044,0,0
392,-20,0,0,0,0,0,0,0,0,0,-1,1616,1044,0,0
399,-20,0,0,0,0,0,0,0,0,0,-1,1623,1044,0,0
406,-20,0,0,0,0,0,0,0,0,0,-1,1630,1044,0,0
413,-20,0,0,0,0,0,0,0,0,0,-1,1637,1044,0,0
420,-20,0,0,0,0,0,0,0,0,0,-1,1644,1044,0,0
427,-20,0,0,0,0,0,0,0,0,0,-1,1651,1044,0,0
434,-20,0,0,0,0,0,0,0,0,0,-1,1658,1044,0,0
441,-20,0,0,0,0,0,0,0,0,0,-1,1665,1044,0,0
448,-20,0,0,0,0,0,0,0,0,0,-1,1672,1044,0,0
455,-20,0,0,0,0,0,0,0,0,0,-1,1679,1044,0,0
462,-20,0,0,0,0,0,0,0,0,0,-1,1686,1044,0,0
469,-20,0,0,0,0,0,0,0,0,0,-1,1693,1044,0,0
476,-20,0,0,0,0,0,0,0,0,0,-1,1700,1044,0,0
483,-20,0,0,0,0,0,0,0,0,0,-1,1707,1044,0,0
490,-20,0,0,0,0,0,0,0,0,0,-1,1714,1044,0,0
497,-20,0,0,0,0,0,0,0,0,0,-1,1721,1044,0,0
504,-20,0,0,0,0,0,0,0,0,0,-1,1728,1044,0,0
511,-20,0,0,0,0,0,0,0,0,0,-1,1735,1044,0,0
518,-20,0,0,0,0,0,0,0,0,0,-1,1742,1044,0,0
525,-20,0,0,0,0,0,0,0,0,0,-1,1749,1044,0,0
532,-20,0,0,0,0,0,0,0,0,0,-1,1756,1044,0,0
539,-20,0,0,0,0,0,0,0,0,0,-1,1763,1044,0,0
546,-20,0,0,0,0,0,0,0,0,0,-1,1770,1044,0,0
553,-20,0,0,0,0,0,0,0,0,0,-1,1777,1044,0,0
560,-20,0,0,0,0,0,0,0,0,0,-1,1784,1044,0,0
567,-20,0,0,0,0,0,0,0,0,0,-1,1791,1044,0,0
574,-20,0,0,0,0,0,0,0,0,0,-1,1798,1044,0,0
581,-20,0,0,0,0,0,0,0,0,0,-1,1805,1044,0,0
588,-20,0,0,0,0,0,0,0,0,0,-1,1812,1044,0,0
595,-20,0,0,0,0,0,0,0,0,0,-1,1819,1044,0,0
602,-20,0,0,0,0,0,0,0,0,0,-1,1826,1044,0,0
609,-20,0,0,0,0,0,0,0,0,0,-1,1833,1044,0,0
616,-20,0,0,0,0,0,0,0,0,0,-1,1840,1044,0,0
623,-20,0,0,0,0,0,0,0,0,0,-1,1847,1044,0,0
630,-20,0,0,0,0,0,0,0,0,0,-1,1854,1044,0,0
637,-20,0,0,0,0,0,0,0,0,0,-1,1861,1044,0,0
644,-20,0,0,0,0,0,0,0,0,0,-1,1868,1044,0,0
651,-20,70.5095,2.45288,-0.00170229,0.000778415,0.000608635,0.000919696,-0.00184357,1.34271,0.00162482,0.0412788,1875,1044,70.5095,-2.45294
658,-20,70.4756,2.49475,-0.00107545,0.000220214,0.000391901,0.00032953,-0.00118477,1.29877,0.000919584,0.0438687,1882,1044,70.4755,-2.49473
665,-20,70.5406,2.38184,-0.000811754,-0.000114885,0.000249094,-3.5004e-05,-0.000891636,1.26047,0.000583106,0.0394219,1889,1044,70.5406,-2.38186
672,-20,70.5867,2.30444,-0.000705842,-0.000236232,0.00019846,-0.000163597,-0.000778478,1.21994,0.00047396,0.0252744,1896,1044,70.5867,-2.30443
679,-20,70.5516,2.38464,-0.000696955,-0.000244576,0.000177623,-0.000183169,-0.000758362,1.23794,0.000456925,0.0279446,1903,1044,70.5516,-2.38463
686,-20,70.5959,2.29138,-0.0011488,-0.000469685,0.000184498,-0.000422798,-0.00119569,1.32194,0.000700125,0.0396308,1910,1044,70.596,-2.29133
693,-20,70.609,2.14172,-0.00162321,-0.000751364,0.000269966,-0.000674539,-0.00170003,1.29355,0.000988461,0.043033,1917,1044,70.609,-2.14176
700,-20,70.5272,2.30908,-0.00190563,-0.000944598,0.000478379,-0.000747071,-0.00210316,1.17921,0.00123111,0.0396265,1924,1044,70.5272,-2.30906
707,-20,70.504,2.33728,-0.00258309,-0.000707149,0.000583383,-0.000540527,-0.00274972,1.29259,0.00168217,0.0361204,1931,1044,70.504,-2.33722
714,-20,70.5024,2.47925,-0.00363758,1.04031e-05,0.000741647,0.000155418,-0.0037826,1.3777,0.0025751,0.0361723,1938,1044,70.5024,-2.47931
721,-20,70.3601,2.44495,0,0,0,0,0,0,0,-1,1945,1044,70.3601,-2.44492
728,-20,70.8595,7.28491,0,0,0,0,0,0,0,-1,1952,1044,70.8595,-7.28493
735,-20,70.493,7.16296,-0.00773514,0.00441958,0.000957141,0.00449449,-0.00781005,1.49269,0.00718949,0.0349835,1959,1044,70.493,-7.16294
742,-20,70.1946,6.87952,-0.00861478,0.00591344,0.00101099,0.00598346,-0.0086848,1.50165,0.00851646,0.0326985,1966,1044,70.1946,-6.8795
749,-20,70.3442,6.76965,-0.00922264,0.00799582,0.000989841,0.00805253,-0.00927936,1.51356,0.0100149,0.0333778,1973,1044,70.3442,-6.76967
756,-20,70.3464,6.65063,-0.00940464,0.0114869,0.000870031,0.0115231,-0.00944081,1.52925,0.0121234,0.0226429,1980,1044,70.3464,-6.65065
763,-20,70.2498,6.49744,-0.00875537,0.0154764,0.000235864,0.0154787,-0.00875767,1.56106,0.0141711,0.0327738,1987,1044,70.2497,-6.49749
770,-20,70.1445,6.40918,-0.00650133,0.0208737,-0.000696042,0.0208914,-0.00651901,-1.54539,0.0165347,0.0272597,1994,1044,70.1446,-6.40916
777,-20,69.9409,6.13281,-0.00189189,0.0275169,-0.0021157,0.0276684,-0.00204332,-1.49935,0.019163,0.0181361,2001,1044,69.9409,-6.13279
784,-20,69.9177,5.95911,0.00416748,0.0343803,-0.00387581,0.0348696,0.00367821,-1.44522,0.0221225,0.0221862,2008,1044,69.9178,-5.9591
791,-20,70.1882,5.49731,0.0121184,0.0415947,-0.00621991,0.0428534,0.0108597,-1.37112,0.0257248,0.0377113,2015,1044,70.1882,-5.49726
798,-20,70.4434,5.00964,0.022659,0.049135,-0.00917235,0.0520022,0.0197918,-1.26783,0.0303075,0.045982,2022,1044,70.4433,-5.00968
805,-20,70.7761,4.57227,0,0,0,0,0,0,0,-1,2029,1044,70.7762,-4.57223
812,-20,71.2283,4.82666,0,0,0,0,0,0,0,-1,2036,1044,71.2283,-4.82663
-700,-27,-59.8242,-3.07483,0,0,0,0,0,0,0,-1,524,1051,-59.8242,3.07478
-693,-27,-59.0487,-2.00293,0.129224,0.0275111,-0.047108,0.14769,0.00904559,-0.373576,0.0955874,0.0468654,531,1051,-59.0487,2.00294
-686,-27,-58.4287,-1.35437,0.114968,0.0275573,-0.0313987,0.125078,0.0174478,-0.311489,0.0782206,0.0418366,538,1051,-58.4287,1.35436
-679,-27,-57.8976,-0.890747,0.0984089,0.0273673,-0.0204691,0.103885,0.0218916,-0.261389,0.0632352,0.0430317,545,1051,-57.8976,0.890751
-672,-27,-55.3131,1.20874,0.0816686,0.0268031,-0.0125672,0.0844102,0.0240615,-0.214789,0.0502129,0.0498688,552,1051,-55.3132,-1.20873
-665,-27,-54.304,1.51465,0,0,0,0,0,0,0,-1,559,1051,-54.304,-1.51462
-658,-27,-54.4449,2.56213,0.0506149,0.024188,-0.00294654,0.0509395,0.0238634,-0.109703,0.0294294,0.0471527,566,1051,-54.445,-2.56213
-651,-27,-54.5997,3.68774,0.0373686,0.0219606,-0.000508812,0.0373854,0.0219438,-0.0329747,0.021693,0.038106,573,1051,-54.5997,-3.68776
-644,-27,-54.5122,3.95117,0.026096,0.0196523,0.0012884,0.0263441,0.0194043,0.190208,0.015767,0.0187411,580,1051,-54.5122,-3.95119
-637,-27,-54.5583,4.17151,0.0152702,0.0165584,0.00254667,0.0185411,0.0132874,0.909259,0.0110346,0.0163818,587,1051,-54.5584,-4.17157
-630,-27,-54.6633,4.56616,0.00713368,0.0128704,0.00241974,0.0137547,0.00624935,1.22041,0.00795231,0.0209274,594,1051,-54.6633,-4.56613
-623,-27,-54.7221,4.86133,0.00209544,0.00934003,0.00122215,0.00954065,0.00189483,1.4081,0.00583234,0.0184411,601,1051,-54.7221,-4.8613
-616,-27,-54.6908,5.10486,-0.000772773,0.00587695,-0.00026981,0.00588788,-0.000783702,-1.53031,0.00421087,0.0158986,608,1051,-54.6908,-5.10488
-609,-27,-54.6677,5.32397,-0.00119049,0.00303649,-0.000989015,0.00325645,-0.00141045,-1.35195,0.0027638,0.0149961,615,1051,-54.6677,-5.32395
-602,-27,-54.6432,5.59412,-0.00123866,0.000800989,-0.00160101,0.0016794,-0.00211707,-1.06898,0.00219674,0.0145682,622,1051,-54.6432,-5.59417
-595,-27,-54.6771,5.84448,-0.00108613,-0.000427734,-0.00139579,0.000677156,-0.00219102,-0.901207,0.00173112,0.0229906,629,1051,-54.6771,-5.84444
-588,-27,-54.9231,6.02148,0,0,0,0,0,0,0,-1,636,1051,-54.9231,-6.02145
-581,-27,-54.4581,0.433838,-0.000578802,-0.00201563,-0.000794191,-0.000226302,-0.00236813,-0.417726,0.00150899,0.0262446,643,1051,-54.4581,-0.433814
-574,-27,-54.5309,0.598022,-0.000528506,-0.00229819,-0.000401081,-0.000441848,-0.00238485,-0.212789,0.001465,0.0343048,650,1051,-54.531,-0.597977
-567,-27,-54.4523,0.667358,-0.000826956,-0.00207481,3.28284e-05,-0.000826093,-0.00207567,0.0262837,0.00120667,0.0428636,657,1051,-54.4523,-0.667378
-560,-27,-54.3966,0.584717,-0.00136067,-0.00136582,0.000489009,-0.000874232,-0.00185226,0.782765,0.00106996,0.0442312,664,1051,-54.3966,-0.584759
-553,-27,-54.2836,0.394775,-0.00213708,-0.000327586,0.000861117,1.67023e-05,-0.00248137,1.19045,0.00165984,0.0410572,671,1051,-54.2836,-0.394792
-546,-27,-54.3978,0.52417,-0.00304281,0.000806104,0.000990261,0.00104594,-0.00328264,1.33318,0.00260795,0.0406784,678,1051,-54.3978,-0.524199
-539,-27,-54.4533,0.720947,-0.00430685,0.00178294,0.000791793,0.0018842,-0.00440812,1.44359,0.00372901,0.0431008,685,1051,-54.4533,-0.720924
-532,-27,-54.5273,0.739136,-0.00558484,0.00305956,0.000535178,0.00309257,-0.00561784,1.5092,0.00509892,0.040339,692,1051,-54.5274,-0.739184
-525,-27,0,0,0,0,0,0,0,0,0,-1,699,1051,0,0
-518,-27,0,0,0,0,0,0,0,0,0,-1,706,1051,0,0
-511,-27,0,0,0,0,0,0,0,0,0,-1,713,1051,0,0
-504,-27,0,0,0,0,0,0,0,0,0,-1,720,1051,0,0
-497,-27,0,0,0,0,0,0,0,0,0,-1,727,1051,0,0
-490,-27,0,0,0,0,0,0,0,0,0,-1,734,1051,0,0
-483,-27,0,0,0,0,0,0,0,0,0,-1,741,1051,0,0
-476,-27,0,0,0,0,0,0,0,0,0,-1,748,1051,0,0
-469,-27,0,0,0,0,0,0,0,0,0,-1,755,1051,0,0
-462,-27,0,0,0,0,0,0,0,0,0,-1,762,1051,0,0
-455,-27,0,0,0,0,0,0,0,0,0,-1,769,1051,0,0
-448,-27,0,0,0,0,0,0,0,0,0,-1,776,1051,0,0
-441,-27,0,0,0,0,0,0,0,0,0,-1,783,1051,0,0
-434,-27,0,0,0,0,0,0,0,0,0,-1,790,1051,0,0
-427,-27,0,0,0,0,0,0,0,0,0,-1,797,1051,0,0
-420,-27,0,0,0,0,0,0,0,0,0,-1,804,1051,0,0
-413,-27,0,0,0,0,0,0,0,0,0,-1,811,1051,0,0
-406,-27,0,0,0,0,0,0,0,0,0,-1,818,1051,0,0
-399,-27,0,0,0,0,0,0,0,0,0,-1,825,1051,0,0
-392,-27,0,0,0,0,0,0,0,0,0,-1,832,1051,0,0
-385,-27,0,0,0,0,0,0,0,0,0,-1,839,1051,0,0
-378,-27,0,0,0,0,0,0,0,0,0,-1,846,1051,0,0
-371,-27,0,0,0,0,0,0,0,0,0,-1,853,1051,0,0
-364,-27,0,0,0,0,0,0,0,0,0,-1,860,1051,0,0
-357,-27,0,0,0,0,0,0,0,0,0,-1,867,1051,0,0
-350,-27,0,0,0,0,0,0,0,0,0,-1,874,1051,0,0
-343,-27,0,0,0,0,0,0,0,0,0,-1,881,1051,0,0
-336,-27,0,0,0,0,0,0,0,0,0,-1,888,1051,0,0
-329,-27,0,0,0,0,0,0,0,0,0,-1,895,1051,0,0
-322,-27,0,0,0,0,0,0,0,0,0,-1,902,1051,0,0
-315,-27,0,0,0,0,0,0,0,0,0,-1,909,1051,0,0
-308,-27,0,0,0,0,0,0,0,0,0,-1,916,1051,0,0
-301,-27,0,0,0,0,0,0,0,0,0,-1,923,1051,0,0
-294,-27,0,0,0,0,0,0,0,0,0,-1,930,1051,0,0
-287,-27,0,0,0,0,0,0,0,0,0,-1,937,1051,0,0
-280,-27,0,0,0,0,0,0,0,0,0,-1,944,1051,0,0
-273,-27,0,0,0,0,0,0,0,0,0,-1,951,1051,0,0
-266,-27,0,0,0,0,0,0,0,0,0,-1,958,1051,0,0
-259,-27,0,0,0,0,0,0,0,0,0,-1,965,1051,0,0
-252,-27,0,0,0,0,0,0,0,0,0,-1,972,1051,0,0
-245,-27,0,0,0,0,0,0,0,0,0,-1,979,1051,0,0
-238,-27,0,0,0,0,0,0,0,0,0,-1,986,1051,0,0
-231,-27,0,0,0,0,0,0,0,0,0,-1,993,1051,0,0
-224,-27,0,0,0,0,0,0,0,0,0,-1,1000,1051,0,0
-217,-27,0,0,0,0,0,0,0,0,0,-1,1007,1051,0,0
-210,-27,0,0,0,0,0,0,0,0,0,-1,1014,1051,0,0
-203,-27,0,0,0,0,0,0,0,0,0,-1,1021,1051,0,0
-196,-27,0,0,0,0,0,0,0,0,0,-1,1028,1051,0,0
-189,-27,0,0,0,0,0,0,0,0,0,-1,1035,1051,0,0
-182,-27,0,0,0,0,0,0,0,0,0,-1,1042,1051,0,0
-175,-27,0,0,0,0,0,0,0,0,0,-1,1049,1051,0,0
-168,-27,0,0,0,0,0,0,0,0,0,-1,1056,1051,0,0
-161,-27,0,0,0,0,0,0,0,0,0,-1,1063,1051,0,0
-154,-27,0,0,0,0,0,0,0,0,0,-1,1070,1051,0,0
-147,-27,0,0,0,0,0,0,0,0,0,-1,1077,1051,0,0
-140,-27,0,0,0,0,0,0,0,0,0,-1,1084,1051,0,0
-133,-27,0,0,0,0,0,0,0,0,0,-1,1091,1051,0,0
-126,-27,0,0,0,0,0,0,0,0,0,-1,1098,1051,0,0
-119,-27,0,0,0,0,0,0,0,0,0,-1,1105,1051,0,0
-112,-27,0,0,0,0,0,0,0,0,0,-1,1112,1051,0,0
-105,-27,0,0,0,0,0,0,0,0,0,-1,1119,1051,0,0
-98,-27,0,0,0,0,0,0,0,0,0,-1,1126,1051,0,0
-91,-27,0,0,0,0,0,0,0,0,0,-1,1133,1051,0,0
-84,-27,0,0,0,0,0,0,0,0,0,-1,1140,1051,0,0
-77,-27,0,0,0,0,0,0,0,0,0,-1,1147,1051,0,0
-70,-27,0,0,0,0,0,0,0,0,0,-1,1154,1051,0,0
-63,-27,0,0,0,0,0,0,0,0,0,-1,1161,1051,0,0
-56,-27,0,0,0,0,0,0,0,0,0,-1,1168,1051,0,0
-49,-27,0,0,0,0,0,0,0,0,0,-1,1175,1051,0,0
-42,-27,0,0,0,0,0,0,0,0,0,-1,1182,1051,0,0
-35,-27,0,0,0,0,0,0,0,0,0,-1,1189,1051,0,0
-28,-27,0,0,0,0,0,0,0,0,0,-1,1196,1051,0,0
-21,-27,0,0,0,0,0,0,0,0,0,-1,1203,1051,0,0
-14,-27,0,0,0,0,0,0,0,0,0,-1,1210,1051,0,0
-7,-27,0,0,0,0,0,0,0,0,0,-1,1217,1051,0,0
0,-27,0,0,0,0,0,0,0,0,0,-1,1224,1051,0,0
7,-27,0,0,0,0,0,0,0,0,0,-1,1231,1051,0,0
14,-27,0,0,0,0,0,0,0,0,0,-1,1238,1051,0,0
21,-27,0,0,0,0,0,0,0,0,0,-1,1245,1051,0,0
28,-27,0,0,0,0,0,0,0,0,0,-1,1252,1051,0,0
35,-27,0,0,0,0,0,0,0,0,0,-1,1259,1051,0,0
42,-27,0,0,0,0,0,0,0,0,0,-1,1266,1051,0,0
49,-27,0,0,0,0,0,0,0,0,0,-1,1273,1051,0,0
56,-27,0,0,0,0,0,0,0,0,0,-1,1280,1051,0,0
63,-27,0,0,0,0,0,0,0,0,0,-1,1287,1051,0,0
70,-27,0,0,0,0,0,0,0,0,0,-1,1294,1051,0,0
77,-27,0,0,0,0,0,0,0,0,0,-1,1301,1051,0,0
84,-27,0,0,0,0,0,0,0,0,0,-1,1308,1051,0,0
91,-27,0,0,0,0,0,0,0,0,0,-1,1315,1051,0,0
98,-27,0,0,0,0,0,0,0,0,0,-1,1322,1051,0,0
105,-27,0,0,0,0,0,0,0,0,0,-1,1329,1051,0,0
112,-27,0,0,0,0,0,0,0,0,0,-1,1336,1051,0,0
119,-27,0,0,0,0,0,0,0,0,0,-1,1343,1051,0,0
126,-27,0,0,0,0,0,0,0,0,0,-1,1350,1051,0,0
133,-27,0,0,0,0,0,0,0,0,0,-1,1357,1051,0,0
140,-27,0,0,0,0,0,0,0,0,0,-1,1364,1051,0,0
147,-27,0,0,0,0,0,0,0,0,0,-1,1371,1051,0,0
154,-27,0,0,0,0,0,0,0,0,0,-1,1378,1051,0,0
161,-27,0,0,0,0,0,0,0,0,0,-1,1385,1051,0,0
168,-27,0,0,0,0,0,0,0,0,0,-1,1392,1051,0,0
175,-27,0,0,0,0,0,0,0,0,0,-1,1399,1051,0,0
182,-27,0,0,0,0,0,0,0,0,0,-1,1406,1051,0,0
189,-27,0,0,0,0,0,0,0,0,0,-1,1413,1051,0,0
196,-27,0,0,0,0,0,0,0,0,0,-1,1420,1051,0,0
203,-27,0,0,0,0,0,0,0,0,0,-1,1427,1051,0,0
210,-27,0,0,0,0,0,0,0,0,0,-1,1434,1051,0,0
217,-27,0,0,0,0,0,0,0,0,0,-1,1441,1051,0,0
224,-27,0,0,0,0,0,0,0,0,0,-1,1448,1051,0,0
231,-27,0,0,0,0,0,0,0,0,0,-1,1455,1051,0,0
238,-27,0,0,0,0,0,0,0,0,0,-1,1462,1051,0,0
245,-27,0,0,0,0,0,0,0,0,0,-1,1469,1051,0,0
252,-27,0,0,0,0,0,0,0,0,0,-1,1476,1051,0,0
259,-27,0,0,0,0,0,0,0,0,0,-1,1483,1051,0,0
266,-27,0,0,0,0,0,0,0,0,0,-1,1490,1051,0,0
273,-27,0,0,0,0,0,0,0,0,0,-1,1497,1051,0,0
280,-27,0,0,0,0,0,0,0,0,0,-1,1504,1051,0,0
287,-27,0,0,0,0,0,0,0,0,0,-1,1511,1051,0,0
294,-27,0,0,0,0,0,0,0,0,0,-1,1518,1051,0,0
301,-27,0,0,0,0,0,0,0,0,0,-1,1525,1051,0,0
308,-27,0,0,0,0,0,0,0,0,0,-1,1532,1051,0,0
315,-27,0,0,0,0,0,0,0,0,0,-1,1539,1051,0,0
322,-27,0,0,0,0,0,0,0,0,0,-1,1546,1051,0,0
329,-27,0,0,0,0,0,0,0,0,0,-1,1553,1051,0,0
336,-27,0,0,0,0,0,0,0,0,0,-1,1560,1051,0,0
343,-27,0,0,0,0,0,0,0,0,0,-1,1567,1051,0,0
350,-27,0,0,0,0,0,0,0,0,0,-1,1574,1051,0,0
357,-27,0,0,0,0,0,0,0,0,0,-1,1581,1051,0,0
364,-27,0,0,0,0,0,0,0,0,0,-1,1588,1051,0,0
371,-27,0,0,0,0,0,0,0,0,0,-1,1595,1051,0,0
378,-27,0,0,0,0,0,0,0,0,0,-1,1602,1051,0,0
385,-27,0,0,0,0,0,0,0,0,0,-1,1609,1051,0,0
392,-27,0,0,0,0,0,0,0,0,0,-1,1616,1051,0,0
399,-27,0,0,0,0,0,0,0,0,0,-1,1623,1051,0,0
406,-27,0,0,0,0,0,0,0,0,0,-1,1630,1051,0,0
413,-27,0,0,0,0,0,0,0,0,0,-1,1637,1051,0,0
420,-27,0,0,0,0,0,0,0,0,0,-1,1644,1051,0,0
427,-27,0,0,0,0,0,0,0,0,0,-1,1651,1051,0,0
434,-27,0,0,0,0,0,0,0,0,0,-1,1658,1051,0,0
441,-27,0,0,0,0,0,0,0,0,0,-1,1665,1051,0,0
448,-27,0,0,0,0,0,0,0,0,0,-1,1672,1051,0,0
455,-27,0,0,0,0,0,0,0,0,0,-1,1679,1051,0,0
462,-27,0,0,0,0,0,0,0,0,0,-1,1686,1051,0,0
469,-27,0,0,0,0,0,0,0,0,0,-1,1693,1051,0,0
476,-27,0,0,0,0,0,0,0,0,0,-1,1700,1051,0,0
483,-27,0,0,0,0,0,0,0,0,0,-1,1707,1051,0,0
490,-27,0,0,0,0,0,0,0,0,0,-1,1714,1051,0,0
497,-27,0,0,0,0,0,0,0,0,0,-1,1721,1051,0,0
504,-27,0,0,0,0,0,0,0,0,0,-1,1728,1051,0,0
511,-27,0,0,0,0,0,0,0,0,0,-1,1735,1051,0,0
518,-27,0,0,0,0,0,0,0,0,0,-1,1742,1051,0,0
525,-27,0,0,0,0,0,0,0,0,0,-1,1749,1051,0,0
532,-27,0,0,0,0,0,0,0,0,0,-1,1756,1051,0,0
539,-27,0,0,0,0,0,0,0,0,0,-1,1763,1051,0,0
546,-27,0,0,0,0,0,0,0,0,0,-1,1770,1051,0,0
553,-27,0,0,0,0,0,0,0,0,0,-1,1777,1051,0,0
560,-27,0,0,0,0,0,0,0,0,0,-1,1784,1051,0,0
567,-27,0,0,0,0,0,0,0,0,0,-1,1791,1051,0,0
574,-27,0,0,0,0,0,0,0,0,0,-1,1798,1051,0,0
581,-27,0,0,0,0,0,0,0,0,0,-1,1805,1051,0,0
588,-27,0,0,0,0,0,0,0,0,0,-1,1812,1051,0,0
595,-27,0,0,0,0,0,0,0,0,0,-1,1819,1051,0,0
602,-27,0,0,0,0,0,0,0,0,0,-1,1826,1051,0,0
609,-27,0,0,0,0,0,0,0,0,0,-1,1833,1051,0,0
616,-27,0,0,0,0,0,0,0,0,0,-1,1840,1051,0,0
623,-27,0,0,0,0,0,0,0,0,0,-1,1847,1051,0,0
630,-27,0,0,0,0,0,0,0,0,0,-1,1854,1051,0,0
637,-27,0,0,0,0,0,0,0,0,0,-1,1861,1051,0,0
644,-27,0,0,0,0,0,0,0,0,0,-1,1868,1051,0,0
651,-27,70.5889,2.41821,-0.000921105,-0.000480328,0.0015827,0.000897254,-0.00229869,0.854578,0.00190339,0.0419881,1875,1051,70.5888,-2.41825
658,-27,70.5199,2.55615,-0.000566463,-0.000675625,0.00111943,0.000499718,-0.00174181,0.761039,0.00135876,0.0407324,1882,1051,70.52,-2.55616
665,-27,70.6316,2.43518,-0.00046455,-0.000734189,0.000769934,0.00018228,-0.00138102,0.698724,0.000987065,0.0382987,1889,1051,70.6316,-2.43512
672,-27,70.5667,2.27478,-0.000461674,-0.000639899,0.000556238,1.25444e-05,-0.00111412,0.70597,0.000746961,0.0303981,1896,1051,70.5667,-2.27484
679,-27,70.5033,2.28491,-0.000522773,-0.000471122,0.00038842,-0.00010767,-0.000886225,0.818594,0.000558397,0.0301658,1903,1051,70.5033,-2.28487
686,-27,70.5332,2.33533,-0.00103651,-0.000574906,0.000311717,-0.000417846,-0.00119357,1.10407,0.000699359,0.0423886,1910,1051,70.5332,-2.33532
693,-27,70.4938,2.44763,-0.00158208,-0.000783415,0.000362858,-0.000643181,-0.00172232,1.20201,0.00100494,0.0432291,1917,1051,70.4937,-2.44765
700,-27,70.5037,2.40698,-0.00192065,-0.000937729,0.00057839,-0.000670197,-0.00218818,1.13756,0.00129457,0.0388857,1924,1051,70.5037,-2.40699
707,-27,70.4553,2.33545,-0.00260181,-0.000742254,0.000722519,-0.000494525,-0.00284953,1.24049,0.00175819,0.0289986,1931,1051,70.4553,-2.33547
714,-27,70.4918,2.41772,-0.00362039,-9.62701e-05,0.000939939,0.000138753,-0.00385542,1.32578,0.00261776,0.0291398,1938,1051,70.4919,-2.41773
721,-27,70.4543,2.54333,0,0,0,0,0,0,0,-1,1945,1051,70.4543,-2.54328
728,-27,70.8358,7.3595,0,0,0,0,0,0,0,-1,1952,1051,70.8358,-7.35947
735,-27,70.3068,7.27722,-0.00744392,0.00386171,0.0012919,0.00400746,-0.00758967,1.45846,0.00680124,0.0336504,1959,1051,70.3068,-7.27722
742,-27,70.0726,7.08667,-0.00816297,0.00515626,0.00136728,0.00529517,-0.00830188,1.46955,0.00791398,0.0218345,1966,1051,70.0727,-7.0867
749,-27,70.1239,6.78857,-0.00848249,0.00721082,0.00140536,0.00733567,-0.00860734,1.48218,0.00921446,0.0172681,1973,1051,70.1238,-6.78861
756,-27,70.0916,6.58362,-0.00835413,0.0106687,0.00128147,0.0107546,-0.00844007,1.50383,0.0111089,0.0174242,1980,1051,70.0916,-6.58364
763,-27,69.9861,6.35242,-0.00736926,0.0145152,0.000596448,0.0145314,-0.0073855,1.54357,0.012876,0.0176057,1987,1051,69.986,-6.35247
770,-27,69.9021,6.10876,-0.00474982,0.0197615,-0.000411744,0.0197684,-0.00475674,-1.554,0.0150178,0.0184249,1994,1051,69.9022,-6.10874
777,-27,69.7734,6.02332,0.000311842,0.0263696,-0.0019416,0.0265135,0.000167965,-1.49683,0.0176199,0.0216653,2001,1051,69.7735,-6.02332
784,-27,69.7046,5.97717,0.0067425,0.0332513,-0.00380502,0.0337866,0.00620714,-1.43102,0.0207669,0.0297557,2008,1051,69.7046,-5.97722
791,-27,69.9065,5.71155,0.0149083,0.0405129,-0.00618757,0.0419298,0.0134915,-1.34569,0.0247156,0.0424274,2015,1051,69.9064,-5.71157
798,-27,70.562,5.34521,0.025372,0.048169,-0.00918514,0.0514092,0.0221318,-1.23166,0.0297765,0.0450705,2022,1051,70.5619,-5.34516
805,-27,71.2151,4.91541,0.0384838,0.0561625,-0.0126938,0.0627914,0.0318549,-1.08953,0.0362539,0.0425962,2029,1051,71.2151,-4.91545
812,-27,71.4246,4.47656,0.0532851,0.0645191,-0.0169503,0.0767588,0.0410454,-0.945395,0.0443523,0.0431474,2036,1051,71.4245,-4.4765
-700,-34,-58.6571,-2.74597,0,0,0,0,0,0,0,-1,524,1058,-58.6571,2.74596
-693,-34,-57.9528,-2.18677,0.119439,0.0180831,-0.0478831,0.138482,-0.000960171,-0.378525,0.092643,0.04971,531,1058,-57.9528,2.18671
-686,-34,-57.2104,-1.56482,0.108281,0.0205632,-0.0326786,0.119117,0.00972749,-0.320174,0.0763754,0.0432794,538,1058,-57.2104,1.56484
-679,-34,-55.8991,-0.71875,0,0,0,0,0,0,0,-1,545,1058,-55.8991,0.718773
-672,-34,-55.15,0.676025,0,0,0,0,0,0,0,-1,552,1058,-55.15,-0.67602
-665,-34,-54.188,1.06421,0,0,0,0,0,0,0,-1,559,1058,-54.188,-1.06421
-658,-34,-54.1786,2.20325,0.0500803,0.021726,-0.00453333,0.0507874,0.0210189,-0.154744,0.0294668,0.0439505,566,1058,-54.1786,-2.20323
-651,-34,-54.1816,3.42798,0.0375233,0.0200194,-0.00190095,0.0377274,0.0198154,-0.106941,0.0217912,0.0338433,573,1058,-54.1816,-3.42797
-644,-34,-54.2836,3.76453,0.0268422,0.0181371,0.000161791,0.0268452,0.0181341,0.0185771,0.0158141,0.0151337,580,1058,-54.2836,-3.76451
-637,-34,-54.3182,4.05908,0.0162245,0.01544,0.0016283,0.0175071,0.0141574,0.667213,0.0107305,0.0169185,587,1058,-54.3182,-4.05907
-630,-34,-54.369,4.45142,0.00808475,0.0119283,0.00168707,0.0125637,0.00744929,1.21057,0.00729531,0.020198,594,1058,-54.369,-4.45144
-623,-34,-54.3688,4.78662,0.00310363,0.00857713,0.000679695,0.00866027,0.00302049,1.44908,0.00507567,0.0154303,601,1058,-54.3688,-4.78662
-616,-34,-54.3374,5.16138,0.000183645,0.00529428,-0.000647536,0.00537505,0.000102877,-1.4467,0.00354957,0.0213439,608,1058,-54.3374,-5.16142
-609,-34,-54.3185,5.44666,-0.000297006,0.00264723,-0.0012873,0.00313069,-0.000780466,-1.21154,0.00239014,0.0204601,615,1058,-54.3185,-5.44662
-602,-34,-54.3187,5.6875,-0.000354808,0.000529882,-0.00191134,0.0020494,-0.00187432,-0.899112,0.00226611,0.0163932,622,1058,-54.3187,-5.68754
-595,-34,-54.4433,5.95203,-0.00023111,-0.000543422,-0.0016879,0.00130784,-0.00208237,-0.739272,0.00197429,0.0200438,629,1058,-54.4433,-5.95204
-588,-34,-54.7933,6.19019,0,0,0,0,0,0,0,-1,636,1058,-54.7933,-6.19019
-581,-34,-54.4048,0.515503,0.000171023,-0.00178206,-0.00112237,0.000682211,-0.00229324,-0.427382,0.00179986,0.0268371,643,1058,-54.4048,-0.515466
-574,-34,-54.466,0.615967,0.000179833,-0.00187162,-0.000765076,0.000433738,-0.00212553,-0.320432,0.00158155,0.0333997,650,1058,-54.466,-0.615931
-567,-34,-54.4874,0.671875,-0.000163523,-0.00146855,-0.000390252,-5.57269e-05,-0.00157634,-0.269502,0.00103282,0.0381277,657,1058,-54.4874,-0.671836
-560,-34,-54.5185,0.577515,-0.00079775,-0.00059788,-1.63406e-05,-0.000596553,-0.000799077,-1.48976,0.000479679,0.0397364,664,1058,-54.5185,-0.577538
-553,-34,-54.3439,0.309204,-0.00167452,0.000591159,0.000248628,0.000618122,-0.00170149,1.46277,0.00138706,0.0424062,671,1058,-54.3439,-0.30921
-546,-34,-54.4028,0.478271,-0.00265175,0.00186321,0.000213681,0.0018733,-0.00266184,1.52361,0.00263153,0.0434616,678,1058,-54.4029,-0.478264
-539,-34,-54.4029,0.547241,-0.0039431,0.0029155,-0.000218402,0.00292245,-0.00395004,-1.539,0.00398259,0.0423813,685,1058,-54.4029,-0.547264
-532,-34,-54.3386,0.473022,-0.00520192,0.00428451,-0.000705175,0.00433664,-0.00525405,-1.497,0.00554563,0.0410154,692,1058,-54.3386,-0.473057
-525,-34,0,0,0,0,0,0,0,0,0,-1,699,1058,0,0
-518,-34,0,0,0,0,0,0,0,0,0,-1,706,1058,0,0
-511,-34,0,0,0,0,0,0,0,0,0,-1,713,1058,0,0
-504,-34,0,0,0,0,0,0,0,0,0,-1,720,1058,0,0
-497,-34,0,0,0,0,0,0,0,0,0,-1,727,1058,0,0
-490,-34,0,0,0,0,0,0,0,0,0,-1,734,1058,0,0
-483,-34,0,0,0,0,0,0,0,0,0,-1,741,1058,0,0
-476,-34,0,0,0,0,0,0,0,0,0,-1,748,1058,0,0
-469,-34,0,0,0,0,0,0,0,0,0,-1,755,1058,0,0
-462,-34,0,0,0,0,0,0,0,0,0,-1,762,1058,0,0
-455,-34,0,0,0,0,0,0,0,0,0,-1,769,1058,0,0
-448,-34,0,0,0,0,0,0,0,0,0,-1,776,1058,0,0
-441,-34,0,0,0,0,0,0,0,0,0,-1,783,1058,0,0
-434,-34,0,0,0,0,0,0,0,0,0,-1,790,1058,0,0
-427,-34,0,0,0,0,0,0,0,0,0,-1,797,1058,0,0
-420,-34,0,0,0,0,0,0,0,0,0,-1,804,1058,0,0
-413,-34,0,0,0,0,0,0,0,0,0,-1,811,1058,0,0
-406,-34,0,0,0,0,0,0,0,0,0,-1,818,1058,0,0
-399,-34,0,0,0,0,0,0,0,0,0,-1,825,1058,0,0
-392,-34,0,0,0,0,0,0,0,0,0,-1,832,1058,0,0
-385,-34,0,0,0,0,0,0,0,0,0,-1,839,1058,0,0
-378,-34,0,0,0,0,0,0,0,0,0,-1,846,1058,0,0
-371,-34,0,0,0,0,0,0,0,0,0,-1,853,1058,0,0
-364,-34,0,0,0,0,0,0,0,0,0,-1,860,1058,0,0
-357,-34,0,0,0,0,0,0,0,0,0,-1,867,1058,0,0
-350,-34,0,0,0,0,0,0,0,0,0,-1,874,1058,0,0
-343,-34,0,0,0,0,0,0,0,0,0,-1,881,1058,0,0
-336,-34,0,0,0,0,0,0,0,0,0,-1,888,1058,0,0
-329,-34,0,0,0,0,0,0,0,0,0,-1,895,1058,0,0
-322,-34,0,0,0,0,0,0,0,0,0,-1,902,1058,0,0
-315,-34,0,0,0,0,0,0,0,0,0,-1,909,1058,0,0
-308,-34,0,0,0,0,0,0,0,0,0,-1,916,1058,0,0
-301,-34,0,0,0,0,0,0,0,0,0,-1,923,1058,0,0
-294,-34,0,0,0,0,0,0,0,0,0,-1,930,1058,0,0
-287,-34,0,0,0,0,0,0,0,0,0,-1,937,1058,0,0
-280,-34,0,0,0,0,0,0,0,0,0,-1,944,1058,0,0
-273,-34,0,0,0,0,0,0,0,0,0,-1,951,1058,0,0
-266,-34,0,0,0,0,0,0,0,0,0,-1,958,1058,0,0
-259,-34,0,0,0,0,0,0,0,0,0,-1,965,1058,0,0
-252,-34,0,0,0,0,0,0,0,0,0,-1,972,1058,0,0
-245,-34,0,0,0,0,0,0,0,0,0,-1,979,1058,0,0
-238,-34,0,0,0,0,0,0,0,0,0,-1,986,1058,0,0
-231,-34,0,0,0,0,0,0,0,0,0,-1,993,1058,0,0
-224,-34,0,0,0,0,0,0,0,0,0,-1,1000,1058,0,0
-217,-34,0,0,0,0,0,0,0,0,0,-1,1007,1058,0,0
-210,-34,0,0,0,0,0,0,0,0,0,-1,1014,1058,0,0
-203,-34,0,0,0,0,0,0,0,0,0,-1,1021,1058,0,0
-196,-34,0,0,0,0,0,0,0,0,0,-1,1028,1058,0,0
-189,-34,0,0,0,0,0,0,0,0,0,-1,1035,1058,0,0
-182,-34,0,0,0,0,0,0,0,0,0,-1,1042,1058,0,0
-175,-34,0,0,0,0,0,0,0,0,0,-1,1049,1058,0,0
-168,-34,0,0,0,0,0,0,0,0,0,-1,1056,1058,0,0
-161,-34,0,0,0,0,0,0,0,0,0,-1,1063,1058,0,0
-154,-34,0,0,0,0,0,0,0,0,0,-1,1070,1058,0,0
-147,-34,0,0,0,0,0,0,0,0,0,-1,1077,1058,0,0
-140,-34,0,0,0,0,0,0,0,0,0,-1,1084,1058,0,0
-133,-34,0,0,0,0,0,0,0,0,0,-1,1091,1058,0,0
-126,-34,0,0,0,0,0,0,0,0,0,-1,1098,1058,0,0
-119,-34,0,0,0,0,0,0,0,0,0,-1,1105,1058,0,0
-112,-34,0,0,0,0,0,0,0,0,0,-1,1112,1058,0,0
-105,-34,0,0,0,0,0,0,0,0,0,-1,1119,1058,0,0
-98,-34,0,0,0,0,0,0,0,0,0,-1,1126,1058,0,0
-91,-34,0,0,0,0,0,0,0,0,0,-1,1133,1058,0,0
-84,-34,0,0,0,0,0,0,0,0,0,-1,1140,1058,0,0
-77,-34,0,0,0,0,0,0,0,0,0,-1,1147,1058,0,0
-70,-34,0,0,0,0,0,0,0,0,0,-1,1154,1058,0,0
-63,-34,0,0,0,0,0,0,0,0,0,-1,1161,1058,0,0
-56,-34,0,0,0,0,0,0,0,0,0,-1,1168,1058,0,0
-49,-34,0,0,0,0,0,0,0,0,0,-1,1175,1058,0,0
-42,-34,0,0,0,0,0,0,0,0,0,-1,1182,1058,0,0
-35,-34,0,0,0,0,0,0,0,0,0,-1,1189,1058,0,0
-28,-34,0,0,0,0,0,0,0,0,0,-1,1196,1058,0,0
-21,-34,0,0,0,0,0,0,0,0,0,-1,1203,1058,0,0
-14,-34,0,0,0,0,0,0,0,0,0,-1,1210,1058,0,0
-7,-34,0,0,0,0,0,0,0,0,0,-1,1217,1058,0,0
0,-34,0,0,0,0,0,0,0,0,0,-1,1224,1058,0,0
7,-34,0,0,0,0,0,0,0,0,0,-1,1231,1058,0,0
14,-34,0,0,0,0,0,0,0,0,0,-1,1238,1058,0,0
21,-34,0,0,0,0,0,0,0,0,0,-1,1245,1058,0,0
28,-34,0,0,0,0,0,0,0,0,0,-1,1252,1058,0,0
35,-34,0,0,0,0,0,0,0,0,0,-1,1259,1058,0,0
42,-34,0,0,0,0,0,0,0,0,0,-1,1266,1058,0,0
49,-34,0,0,0,0,0,0,0,0,0,-1,1273,1058,0,0
56,-34,0,0,0,0,0,0,0,0,0,-1,1280,1058,0,0
63,-34,0,0,0,0,0,0,0,0,0,-1,1287,1058,0,0
70,-34,0,0,0,0,0,0,0,0,0,-1,1294,1058,0,0
77,-34,0,0,0,0,0,0,0,0,0,-1,1301,1058,0,0
84,-34,0,0,0,0,0,0,0,0,0,-1,1308,1058,0,0
91,-34,0,0,0,0,0,0,0,0,0,-1,1315,1058,0,0
98,-34,0,0,0,0,0,0,0,0,0,-1,1322,1058,0,0
105,-34,0,0,0,0,0,0,0,0,0,-1,1329,1058,0,0
112,-34,0,0,0,0,0,0,0,0,0,-1,1336,1058,0,0
119,-34,0,0,0,0,0,0,0,0,0,-1,1343,1058,0,0
126,-34,0,0,0,0,0,0,0,0,0,-1,1350,1058,0,0
133,-34,0,0,0,0,0,0,0,0,0,-1,1357,1058,0,0
140,-34,0,0,0,0,0,0,0,0,0,-1,1364,1058,0,0
147,-34,0,0,0,0,0,0,0,0,0,-1,1371,1058,0,0
154,-34,0,0,0,0,0,0,0,0,0,-1,1378,1058,0,0
161,-34,0,0,0,0,0,0,0,0,0,-1,1385,1058,0,0
168,-34,0,0,0,0,0,0,0,0,0,-1,1392,1058,0,0
175,-34,0,0,0,0,0,0,0,0,0,-1,1399,1058,0,0
182,-34,0,0,0,0,0,0,0,0,0,-1,1406,1058,0,0
189,-34,0,0,0,0,0,0,0,0,0,-1,1413,1058,0,0
196,-34,0,0,0,0,0,0,0,0,0,-1,1420,1058,0,0
203,-34,0,0,0,0,0,0,0,0,0,-1,1427,1058,0,0
210,-34,0,0,0,0,0,0,0,0,0,-1,1434,1058,0,0
217,-34,0,0,0,0,0,0,0,0,0,-1,1441,1058,0,0
224,-34,0,0,0,0,0,0,0,0,0,-1,1448,1058,0,0
231,-34,0,0,0,0,0,0,0,0,0,-1,1455,1058,0,0
238,-34,0,0,0,0,0,0,0,0,0,-1,1462,1058,0,0
245,-34,0,0,0,0,0,0,0,0,0,-1,1469,1058,0,0
252,-34,0,0,0,0,0,0,0,0,0,-1,1476,1058,0,0
259,-34,0,0,0,0,0,0,0,0,0,-1,1483,1058,0,0
266,-34,0,0,0,0,0,0,0,0,0,-1,1490,1058,0,0
273,-34,0,0,0,0,0,0,0,0,0,-1,1497,1058,0,0
280,-34,0,0,0,0,0,0,0,0,0,-1,1504,1058,0,0
287,-34,0,0,0,0,0,0,0,0,0,-1,1511,1058,0,0
294,-34,0,0,0,0,0,0,0,0,0,-1,1518,1058,0,0
301,-34,0,0,0,0,0,0,0,0,0,-1,1525,1058,0,0
308,-34,0,0,0,0,0,0,0,0,0,-1,1532,1058,0,0
315,-34,0,0,0,0,0,0,0,0,0,-1,1539,1058,0,0
322,-34,0,0,0,0,0,0,0,0,0,-1,1546,1058,0,0
329,-34,0,0,0,0,0,0,0,0,0,-1,1553,1058,0,0
336,-34,0,0,0,0,0,0,0,0,0,-1,1560,1058,0,0
343,-34,0,0,0,0,0,0,0,0,0,-1,1567,1058,0,0
350,-34,0,0,0,0,0,0,0,0,0,-1,1574,1058,0,0
357,-34,0,0,0,0,0,0,0,0,0,-1,1581,1058,0,0
364,-34,0,0,0,0,0,0,0,0,0,-1,1588,1058,0,0
371,-34,0,0,0,0,0,0,0,0,0,-1,1595,1058,0,0
378,-34,0,0,0,0,0,0,0,0,0,-1,1602,1058,0,0
385,-34,0,0,0,0,0,0,0,0,0,-1,1609,1058,0,0
392,-34,0,0,0,0,0,0,0,0,0,-1,1616,1058,0,0
399,-34,0,0,0,0,0,0,0,0,0,-1,1623,1058,0,0
406,-34,0,0,0,0,0,0,0,0,0,-1,1630,1058,0,0
413,-34,0,0,0,0,0,0,0,0,0,-1,1637,1058,0,0
420,-34,0,0,0,0,0,0,0,0,0,-1,1644,1058,0,0
427,-34,0,0,0,0,0,0,0,0,0,-1,1651,1058,0,0
434,-34,0,0,0,0,0,0,0,0,0,-1,1658,1058,0,0
441,-34,0,0,0,0,0,0,0,0,0,-1,1665,1058,0,0
448,-34,0,0,0,0,0,0,0,0,0,-1,1672,1058,0,0
455,-34,0,0,0,0,0,0,0,0,0,-1,1679,1058,0,0
462,-34,0,0,0,0,0,0,0,0,0,-1,1686,1058,0,0
469,-34,0,0,0,0,0,0,0,0,0,-1,1693,1058,0,0
476,-34,0,0,0,0,0,0,0,0,0,-1,1700,1058,0,0
483,-34,0,0,0,0,0,0,0,0,0,-1,1707,1058,0,0
490,-34,0,0,0,0,0,0,0,0,0,-1,1714,1058,0,0
497,-34,0,0,0,0,0,0,0,0,0,-1,1721,1058,0,0
504,-34,0,0,0,0,0,0,0,0,0,-1,1728,1058,0,0
511,-34,0,0,0,0,0,0,0,0,0,-1,1735,1058,0,0
518,-34,0,0,0,0,0,0,0,0,0,-1,1742,1058,0,0
525,-34,0,0,0,0,0,0,0,0,0,-1,1749,1058,0,0
532,-34,0,0,0,0,0,0,0,0,0,-1,1756,1058,0,0
539,-34,0,0,0,0,0,0,0,0,0,-1,1763,1058,0,0
546,-34,0,0,0,0,0,0,0,0,0,-1,1770,1058,0,0
553,-34,0,0,0,0,0,0,0,0,0,-1,1777,1058,0,0
560,-34,0,0,0,0,0,0,0,0,0,-1,1784,1058,0,0
567,-34,0,0,0,0,0,0,0,0,0,-1,1791,1058,0,0
574,-34,0,0,0,0,0,0,0,0,0,-1,1798,1058,0,0
581,-34,0,0,0,0,0,0,0,0,0,-1,1805,1058,0,0
588,-34,0,0,0,0,0,0,0,0,0,-1,1812,1058,0,0
595,-34,0,0,0,0,0,0,0,0,0,-1,1819,1058,0,0
602,-34,0,0,0,0,0,0,0,0,0,-1,1826,1058,0,0
609,-34,0,0,0,0,0,0,0,0,0,-1,1833,1058,0,0
616,-34,0,0,0,0,0,0,0,0,0,-1,1840,1058,0,0
623,-34,0,0,0,0,0,0,0,0,0,-1,1847,1058,0,0
630,-34,0,0,0,0,0,0,0,0,0,-1,1854,1058,0,0
637,-34,0,0,0,0,0,0,0,0,0,-1,1861,1058,0,0
644,-34,0,0,0,0,0,0,0,0,0,-1,1868,1058,0,0
651,-34,70.5288,2.1167,4.17428e-05,-0.00151275,0.00271216,0.00208583,-0.00355684,0.645849,0.00329449,0.0437104,1875,1058,70.5288,-2.11664
658,-34,70.504,2.53198,4.95619e-05,-0.00148984,0.00192702,0.00135491,-0.00279519,0.595393,0.00244369,0.0433089,1882,1058,70.504,-2.53198
665,-34,70.6511,2.24426,-4.96683e-05,-0.00133477,0.00130525,0.00076262,-0.00214706,0.556671,0.00174214,0.0428642,1889,1058,70.6511,-2.24431
672,-34,70.5917,2.27148,-0.000171237,-0.0010407,0.000869949,0.000366554,-0.00157849,0.553686,0.00119343,0.0395801,1896,1058,70.5917,-2.27146
679,-34,70.5647,2.39673,-0.000315161,-0.000680548,0.000505376,3.953e-05,-0.00103524,0.611956,0.000703706,0.0400429,1903,1058,70.5647,-2.39672
686,-34,70.5084,2.55017,-0.000856279,-0.000652267,0.000325072,-0.000413572,-0.00109497,0.937431,0.000638456,0.0456812,1910,1058,70.5084,-2.55018
693,-34,70.4596,2.63904,-0.00140971,-0.000774082,0.000347351,-0.000621089,-0.0015627,1.15591,0.000908528,0.043147,1917,1058,70.4596,-2.63904
700,-34,70.4427,2.46155,-0.00175906,-0.000875383,0.000565976,-0.000599204,-0.00203524,1.11682,0.0012077,0.0383814,1924,1058,70.4428,-2.46151
707,-34,70.4479,2.34351,-0.00241392,-0.000703013,0.000749181,-0.000421333,-0.0026956,1.21116,0.00167439,0.0273124,1931,1058,70.4479,-2.34349
714,-34,70.4396,2.40479,-0.00336153,-0.000120958,0.001022,0.000174433,-0.00365692,1.28943,0.00249812,0.0268181,1938,1058,70.4396,-2.40478
721,-34,70.4139,2.51587,0,0,0,0,0,0,0,-1,1945,1058,70.414,-2.5159
728,-34,70.1265,7.55701,0,0,0,0,0,0,0,-1,1952,1058,70.1264,-7.55703
735,-34,69.9045,7.36731,-0.00681838,0.00343543,0.00160132,0.00367968,-0.00706263,1.41943,0.00630376,0.0235216,1959,1058,69.9046,-7.3673
742,-34,69.7976,7.08435,-0.00736998,0.00460842,0.00172451,0.00485175,-0.00761331,1.43062,0.00725534,0.0189728,1966,1058,69.7976,-7.0844
749,-34,69.8204,6.81714,-0.00744005,0.00665499,0.00186291,0.00689705,-0.00768211,1.44158,0.00842135,0.0163476,1973,1058,69.8204,-6.81713
756,-34,69.802,6.53296,-0.00705148,0.0100874,0.00177541,0.0102694,-0.00723347,1.46865,0.0101558,0.0129952,1980,1058,69.8019,-6.53291
763,-34,69.6799,6.25647,-0.00583692,0.0138627,0.00111115,0.0139251,-0.0058994,1.51463,0.0117542,0.014078,1987,1058,69.68,-6.25645
770,-34,69.5471,5.9928,-0.00300946,0.0190901,9.14484e-05,0.0190905,-0.00300983,1.56666,0.0138398,0.0200083,1994,1058,69.5471,-5.99274
777,-34,69.3633,5.84973,0.00222253,0.0257982,-0.00147269,0.0258899,0.00213089,-1.50865,0.0165953,0.0229101,2001,1058,69.3632,-5.84969
784,-34,69.1248,5.72778,0.00876116,0.0328872,-0.00335786,0.0333458,0.00830253,-1.43505,0.0200446,0.0400187,2008,1058,69.1247,-5.72775
791,-34,68.9309,5.57178,0,0,0,0,0,0,0,-1,2015,1058,68.9309,-5.57176
798,-34,70.4817,5.32959,0,0,0,0,0,0,0,-1,2022,1058,70.4817,-5.32959
805,-34,71.1443,4.54919,0.0399869,0.0575286,-0.0121799,0.063767,0.0337485,-1.09745,0.0368369,0.0453385,2029,1058,71.1442,-4.54917
812,-34,71.4365,4.15845,0.0543165,0.0670256,-0.0164993,0.0783517,0.0429904,-0.969214,0.0453078,0.0472749,2036,1058,71.4366,-4.15849
-700,-41,-57.0145,-2.38269,0.108142,0.00432241,-0.0691012,0.142659,-0.0301947,-0.46326,0.106606,0.0456788,524,1065,-57.0145,2.38273
-693,-41,-56.7854,-2.06677,0.107517,0.00904518,-0.0495637,0.128144,-0.0115811,-0.394357,0.0895395,0.0438287,531,1065,-56.7854,2.06678
-686,-41,-55.368,-1.36401,0.0994326,0.0135418,-0.0350413,0.111915,0.00105982,-0.342195,0.074259,0.0434091,538,1065,-55.368,1.36397
-679,-41,-55.0093,-0.675293,0.0875292,0.0166252,-0.0245384,0.0951931,0.00896137,-0.302722,0.0606959,0.0440094,545,1065,-55.0093,0.675237
-672,-41,-54.4724,0.074585,0.074329,0.0184999,-0.0165689,0.078876,0.0139529,-0.267834,0.0486052,0.0452276,552,1065,-54.4723,-0.0745397
-665,-41,-54.1549,0.800659,0.0610059,0.0193016,-0.0105217,0.0635101,0.0167974,-0.233654,0.0379993,0.0438044,559,1065,-54.1549,-0.80067
-658,-41,-53.6629,2.00891,0.0482021,0.019106,-0.00610641,0.0494317,0.0178765,-0.198704,0.0289013,0.0425378,566,1065,-53.6629,-2.00896
-651,-41,-53.6154,2.98706,0,0,0,0,0,0,0,-1,573,1065,-53.6153,-2.98702
-644,-41,-53.894,3.66077,0.0263947,0.0165199,-0.000710231,0.0264455,0.0164691,-0.0714336,0.015421,0.0166246,580,1065,-53.894,-3.66076
-637,-41,-53.9636,3.98779,0.0161694,0.0142339,0.000978426,0.0165778,0.0138255,0.395442,0.0102583,0.0180077,587,1065,-53.9636,-3.98784
-630,-41,-53.9882,4.37097,0.00822817,0.0108932,0.00118128,0.0113414,0.00777994,1.20814,0.00669724,0.0171656,594,1065,-53.9882,-4.37094
-623,-41,-53.9947,4.74646,0.00353045,0.00771778,0.000331102,0.0077438,0.00350443,1.49237,0.00447759,0.0132289,601,1065,-53.9947,-4.74641
-616,-41,-54.0043,5.19788,0.000774163,0.0046262,-0.000835207,0.0047995,0.000600868,-1.36621,0.00301937,0.0152156,608,1065,-54.0043,-5.19789
-609,-41,-53.9699,5.56958,0.000326513,0.00216863,-0.00140993,0.00293168,-0.000436544,-1.07473,0.00211504,0.0213386,615,1065,-53.9699,-5.56963
-602,-41,-54.0033,5.78467,0.000327846,0.00014699,-0.00204855,0.00228796,-0.00181312,-0.763341,0.00237304,0.0141511,622,1065,-54.0033,-5.78472
-595,-41,-54.1408,6.04211,0.000480211,-0.00079444,-0.00189846,0.00184547,-0.0021597,-0.623456,0.00231476,0.0249525,629,1065,-54.1408,-6.04211
-588,-41,-54.5602,6.18323,0,0,0,0,0,0,0,-1,636,1065,-54.5602,-6.18328
-581,-41,-54.4001,0.459839,0.000884943,-0.00184744,-0.00148236,0.00153466,-0.00249716,-0.413078,0.00234977,0.0353928,643,1065,-54.4001,-0.459834
-574,-41,-54.5302,0.620972,0.000880791,-0.00185099,-0.00120154,0.00133406,-0.00230427,-0.360736,0.00212534,0.03668,650,1065,-54.5302,-0.62096
-567,-41,-54.523,0.583252,0.000534958,-0.00139176,-0.000918966,0.000902974,-0.00175977,-0.380909,0.00156364,0.039886,657,1065,-54.523,-0.583245
-560,-41,-54.5052,0.573364,-0.000139466,-0.000489607,-0.000650227,0.000358847,-0.00098792,-0.653894,0.000805334,0.0397784,664,1065,-54.5052,-0.57334
-553,-41,-54.5127,0.475464,-0.00104746,0.000720175,-0.000497408,0.000850531,-0.00117782,-1.31449,0.00117614,0.0421375,671,1065,-54.5127,-0.475504
-546,-41,-54.5254,0.566895,-0.00203991,0.00200259,-0.000648127,0.00210396,-0.00214128,-1.41565,0.00245102,0.0417971,678,1065,-54.5254,-0.566886
-539,-41,-54.5332,0.653198,-0.00328536,0.00304139,-0.00122083,0.00326879,-0.00351276,-1.38664,0.00391617,0.0406059,685,1065,-54.5332,-0.653139
-532,-41,-54.4589,0.619263,-0.00444948,0.00438716,-0.00181272,0.00474456,-0.00480688,-1.37613,0.00551457,0.039293,692,1065,-54.4589,-0.619301
-525,-41,0,0,0,0,0,0,0,0,0,-1,699,1065,0,0
-518,-41,0,0,0,0,0,0,0,0,0,-1,706,1065,0,0
-511,-41,0,0,0,0,0,0,0,0,0,-1,713,1065,0,0
-504,-41,0,0,0,0,0,0,0,0,0,-1,720,1065,0,0
-497,-41,0,0,0,0,0,0,0,0,0,-1,727,1065,0,0
-490,-41,0,0,0,0,0,0,0,0,0,-1,734,1065,0,0
-483,-41,0,0,0,0,0,0,0,0,0,-1,741,1065,0,0
-476,-41,0,0,0,0,0,0,0,0,0,-1,748,1065,0,0
-469,-41,0,0,0,0,0,0,0,0,0,-1,755,1065,0,0
-462,-41,0,0,0,0,0,0,0,0,0,-1,762,1065,0,0
-455,-41,0,0,0,0,0,0,0,0,0,-1,769,1065,0,0
-448,-41,0,0,0,0,0,0,0,0,0,-1,776,1065,0,0
-441,-41,0,0,0,0,0,0,0,0,0,-1,783,1065,0,0
-434,-41,0,0,0,0,0,0,0,0,0,-1,790,1065,0,0
-427,-41,0,0,0,0,0,0,0,0,0,-1,797,1065,0,0
-420,-41,0,0,0,0,0,0,0,0,0,-1,804,1065,0,0
-413,-41,0,0,0,0,0,0,0,0,0,-1,811,1065,0,0
-406,-41,0,0,0,0,0,0,0,0,0,-1,818,1065,0,0
-399,-41,0,0,0,0,0,0,0,0,0,-1,825,1065,0,0
-392,-41,0,0,0,0,0,0,0,0,0,-1,832,1065,0,0
-385,-41,0,0,0,0,0,0,0,0,0,-1,839,1065,0,0
-378,-41,0,0,0,0,0,0,0,0,0,-1,846,1065,0,0
-371,-41,0,0,0,0,0,0,0,0,0,-1,853,1065,0,0
-364,-41,0,0,0,0,0,0,0,0,0,-1,860,1065,0,0
-357,-41,0,0,0,0,0,0,0,0,0,-1,867,1065,0,0
-350,-41,0,0,0,0,0,0,0,0,0,-1,874,1065,0,0
-343,-41,0,0,0,0,0,0,0,0,0,-1,881,1065,0,0
-336,-41,0,0,0,0,0,0,0,0,0,-1,888,1065,0,0
-329,-41,0,0,0,0,0,0,0,0,0,-1,895,1065,0,0
-322,-41,0,0,0,0,0,0,0,0,0,-1,902,1065,0,0
-315,-41,0,0,0,0,0,0,0,0,0,-1,909,1065,0,0
-308,-41,0,0,0,0,0,0,0,0,0,-1,916,1065,0,0
-301,-41,0,0,0,0,0,0,0,0,0,-1,923,1065,0,0
-294,-41,0,0,0,0,0,0,0,0,0,-1,930,1065,0,0
-287,-41,0,0,0,0,0,0,0,0,0,-1,937,1065,0,0
-280,-41,0,0,0,0,0,0,0,0,0,-1,944,1065,0,0
-273,-41,0,0,0,0,0,0,0,0,0,-1,951,1065,0,0
-266,-41,0,0,0,0,0,0,0,0,0,-1,958,1065,0,0
-259,-41,0,0,0,0,0,0,0,0,0,-1,965,1065,0,0
-252,-41,0,0,0,0,0,0,0,0,0,-1,972,1065,0,0
-245,-41,0,0,0,0,0,0,0,0,0,-1,979,1065,0,0
-238,-41,0,0,0,0,0,0,0,0,0,-1,986,1065,0,0
-231,-41,0,0,0,0,0,0,0,0,0,-1,993,1065,0,0
-224,-41,0,0,0,0,0,0,0,0,0,-1,1000,1065,0,0
-217,-41,0,0,0,0,0,0,0,0,0,-1,1007,1065,0,0
-210,-41,0,0,0,0,0,0,0,0,0,-1,1014,1065,0,0
-203,-41,0,0,0,0,0,0,0,0,0,-1,1021,1065,0,0
-196,-41,0,0,0,0,0,0,0,0,0,-1,1028,1065,0,0
-189,-41,0,0,0,0,0,0,0,0,0,-1,1035,1065,0,0
-182,-41,0,0,0,0,0,0,0,0,0,-1,1042,1065,0,0
-175,-41,0,0,0,0,0,0,0,0,0,-1,1049,1065,0,0
-168,-41,0,0,0,0,0,0,0,0,0,-1,1056,1065,0,0
-161,-41,0,0,0,0,0,0,0,0,0,-1,1063,1065,0,0
-154,-41,0,0,0,0,0,0,0,0,0,-1,1070,1065,0,0
-147,-41,0,0,0,0,0,0,0,0,0,-1,1077,1065,0,0
-140,-41,0,0,0,0,0,0,0,0,0,-1,1084,1065,0,0
-133,-41,0,0,0,0,0,0,0,0,0,-1,1091,1065,0,0
-126,-41,0,0,0,0,0,0,0,0,0,-1,1098,1065,0,0
-119,-41,0,0,0,0,0,0,0,0,0,-1,1105,1065,0,0
-112,-41,0,0,0,0,0,0,0,0,0,-1,1112,1065,0,0
-105,-41,0,0,0,0,0,0,0,0,0,-1,1119,1065,0,0
-98,-41,0,0,0,0,0,0,0,0,0,-1,1126,1065,0,0
-91,-41,0,0,0,0,0,0,0,0,0,-1,1133,1065,0,0
-84,-41,0,0,0,0,0,0,0,0,0,-1,1140,1065,0,0
-77,-41,0,0,0,0,0,0,0,0,0,-1,1147,1065,0,0
-70,-41,0,0,0,0,0,0,0,0,0,-1,1154,1065,0,0
-63,-41,0,0,0,0,0,0,0,0,0,-1,1161,1065,0,0
-56,-41,0,0,0,0,0,0,0,0,0,-1,1168,1065,0,0
-49,-41,0,0,0,0,0,0,0,0,0,-1,1175,1065,0,0
-42,-41,0,0,0,0,0,0,0,0,0,-1,1182,1065,0,0
-35,-41,0,0,0,0,0,0,0,0,0,-1,1189,1065,0,0
-28,-41,0,0,0,0,0,0,0,0,0,-1,1196,1065,0,0
-21,-41,0,0,0,0,0,0,0,0,0,-1,1203,1065,0,0
-14,-41,0,0,0,0,0,0,0,0,0,-1,1210,1065,0,0
-7,-41,0,0,0,0,0,0,0,0,0,-1,1217,1065,0,0
0,-41,0,0,0,0,0,0,0,0,0,-1,1224,1065,0,0
7,-41,0,0,0,0,0,0,0,0,0,-1,1231,1065,0,0
14,-41,0,0,0,0,0,0,0,0,0,-1,1238,1065,0,0
21,-41,0,0,0,0,0,0,0,0,0,-1,1245,1065,0,0
28,-41,0,0,0,0,0,0,0,0,0,-1,1252,1065,0,0
35,-41,0,0,0,0,0,0,0,0,0,-1,1259,1065,0,0
42,-41,0,0,0,0,0,0,0,0,0,-1,1266,1065,0,0
49,-41,0,0,0,0,0,0,0,0,0,-1,1273,1065,0,0
56,-41,0,0,0,0,0,0,0,0,0,-1,1280,1065,0,0
63,-41,0,0,0,0,0,0,0,0,0,-1,1287,1065,0,0
70,-41,0,0,0,0,0,0,0,0,0,-1,1294,1065,0,0
77,-41,0,0,0,0,0,0,0,0,0,-1,1301,1065,0,0
84,-41,0,0,0,0,0,0,0,0,0,-1,1308,1065,0,0
91,-41,0,0,0,0,0,0,0,0,0,-1,1315,1065,0,0
98,-41,0,0,0,0,0,0,0,0,0,-1,1322,1065,0,0
105,-41,0,0,0,0,0,0,0,0,0,-1,1329,1065,0,0
112,-41,0,0,0,0,0,0,0,0,0,-1,1336,1065,0,0
119,-41,0,0,0,0,0,0,0,0,0,-1,1343,1065,0,0
126,-41,0,0,0,0,0,0,0,0,0,-1,1350,1065,0,0
133,-41,0,0,0,0,0,0,0,0,0,-1,1357,1065,0,0
140,-41,0,0,0,0,0,0,0,0,0,-1,1364,1065,0,0
147,-41,0,0,0,0,0,0,0,0,0,-1,1371,1065,0,0
154,-41,0,0,0,0,0,0,0,0,0,-1,1378,1065,0,0
161,-41,0,0,0,0,0,0,0,0,0,-1,1385,1065,0,0
168,-41,0,0,0,0,0,0,0,0,0,-1,1392,1065,0,0
175,-41,0,0,0,0,0,0,0,0,0,-1,1399,1065,0,0
182,-41,0,0,0,0,0,0,0,0,0,-1,1406,1065,0,0
189,-41,0,0,0,0,0,0,0,0,0,-1,1413,1065,0,0
196,-41,0,0,0,0,0,0,0,0,0,-1,1420,1065,0,0
203,-41,0,0,0,0,0,0,0,0,0,-1,1427,1065,0,0
210,-41,0,0,0,0,0,0,0,0,0,-1,1434,1065,0,0
217,-41,0,0,0,0,0,0,0,0,0,-1,1441,1065,0,0
224,-41,0,0,0,0,0,0,0,0,0,-1,1448,1065,0,0
231,-41,0,0,0,0,0,0,0,0,0,-1,1455,1065,0,0
238,-41,0,0,0,0,0,0,0,0,0,-1,1462,1065,0,0
245,-41,0,0,0,0,0,0,0,0,0,-1,1469,1065,0,0
252,-41,0,0,0,0,0,0,0,0,0,-1,1476,1065,0,0
259,-41,0,0,0,0,0,0,0,0,0,-1,1483,1065,0,0
266,-41,0,0,0,0,0,0,0,0,0,-1,1490,1065,0,0
273,-41,0,0,0,0,0,0,0,0,0,-1,1497,1065,0,0
280,-41,0,0,0,0,0,0,0,0,0,-1,1504,1065,0,0
287,-41,0,0,0,0,0,0,0,0,0,-1,1511,1065,0,0
294,-41,0,0,0,0,0,0,0,0,0,-1,1518,1065,0,0
301,-41,0,0,0,0,0,0,0,0,0,-1,1525,1065,0,0
308,-41,0,0,0,0,0,0,0,0,0,-1,1532,1065,0,0
315,-41,0,0,0,0,0,0,0,0,0,-1,1539,1065,0,0
322,-41,0,0,0,0,0,0,0,0,0,-1,1546,1065,0,0
329,-41,0,0,0,0,0,0,0,0,0,-1,1553,1065,0,0
336,-41,0,0,0,0,0,0,0,0,0,-1,1560,1065,0,0
343,-41,0,0,0,0,0,0,0,0,0,-1,1567,1065,0,0
350,-41,0,0,0,0,0,0,0,0,0,-1,1574,1065,0,0
357,-41,0,0,0,0,0,0,0,0,0,-1,1581,1065,0,0
364,-41,0,0,0,0,0,0,0,0,0,-1,1588,1065,0,0
371,-41,0,0,0,0,0,0,0,0,0,-1,1595,1065,0,0
378,-41,0,0,0,0,0,0,0,0,0,-1,1602,1065,0,0
385,-41,0,0,0,0,0,0,0,0,0,-1,1609,1065,0,0
392,-41,0,0,0,0,0,0,0,0,0,-1,1616,1065,0,0
399,-41,0,0,0,0,0,0,0,0,0,-1,1623,1065,0,0
406,-41,0,0,0,0,0,0,0,0,0,-1,1630,1065,0,0
413,-41,0,0,0,0,0,0,0,0,0,-1,1637,1065,0,0
420,-41,0,0,0,0,0,0,0,0,0,-1,1644,1065,0,0
427,-41,0,0,0,0,0,0,0,0,0,-1,1651,1065,0,0
434,-41,0,0,0,0,0,0,0,0,0,-1,1658,1065,0,0
441,-41,0,0,0,0,0,0,0,0,0,-1,1665,1065,0,0
448,-41,0,0,0,0,0,0,0,0,0,-1,1672,1065,0,0
455,-41,0,0,0,0,0,0,0,0,0,-1,1679,1065,0,0
462,-41,0,0,0,0,0,0,0,0,0,-1,1686,1065,0,0
469,-41,0,0,0,0,0,0,0,0,0,-1,1693,1065,0,0
476,-41,0,0,0,0,0,0,0,0,0,-1,1700,1065,0,0
483,-41,0,0,0,0,0,0,0,0,0,-1,1707,1065,0,0
490,-41,0,0,0,0,0,0,0,0,0,-1,1714,1065,0,0
497,-41,0,0,0,0,0,0,0,0,0,-1,1721,1065,0,0
504,-41,0,0,0,0,0,0,0,0,0,-1,1728,1065,0,0
511,-41,0,0,0,0,0,0,0,0,0,-1,1735,1065,0,0
518,-41,0,0,0,0,0,0,0,0,0,-1,1742,1065,0,0
525,-41,0,0,0,0,0,0,0,0,0,-1,1749,1065,0,0
532,-41,0,0,0,0,0,0,0,0,0,-1,1756,1065,0,0
539,-41,0,0,0,0,0,0,0,0,0,-1,1763,1065,0,0
546,-41,0,0,0,0,0,0,0,0,0,-1,1770,1065,0,0
553,-41,0,0,0,0,0,0,0,0,0,-1,1777,1065,0,0
560,-41,0,0,0,0,0,0,0,0,0,-1,1784,1065,0,0
567,-41,0,0,0,0,0,0,0,0,0,-1,1791,1065,0,0
574,-41,0,0,0,0,0,0,0,0,0,-1,1798,1065,0,0
581,-41,0,0,0,0,0,0,0,0,0,-1,1805,1065,0,0
588,-41,0,0,0,0,0,0,0,0,0,-1,1812,1065,0,0
595,-41,0,0,0,0,0,0,0,0,0,-1,1819,1065,0,0
602,-41,0,0,0,0,0,0,0,0,0,-1,1826,1065,0,0
609,-41,0,0,0,0,0,0,0,0,0,-1,1833,1065,0,0
616,-41,0,0,0,0,0,0,0,0,0,-1,1840,1065,0,0
623,-41,0,0,0,0,0,0,0,0,0,-1,1847,1065,0,0
630,-41,0,0,0,0,0,0,0,0,0,-1,1854,1065,0,0
637,-41,0,0,0,0,0,0,0,0,0,-1,1861,1065,0,0
644,-41,0,0,0,0,0,0,0,0,0,-1,1868,1065,0,0
651,-41,70.4205,2.23535,0.00107819,-0.0023098,0.0038149,0.00355829,-0.0047899,0.576452,0.00483728,0.0374706,1875,1065,70.4206,-2.23535
658,-41,70.3816,2.37744,0.000766886,-0.0019919,0.00267451,0.00239676,-0.00362178,0.547311,0.00349872,0.0399089,1882,1065,70.3815,-2.37748
665,-41,70.5317,2.50732,0.000459362,-0.00160389,0.00176903,0.00147559,-0.00262012,0.521425,0.00239524,0.0402081,1889,1065,70.5317,-2.50728
672,-41,70.5405,2.47559,0.000187451,-0.00112047,0.00109439,0.000808387,-0.0017414,0.516089,0.00150462,0.0408775,1896,1065,70.5405,-2.47556
679,-41,70.4569,2.63855,-7.51925e-05,-0.000595021,0.000519552,0.000245831,-0.000916045,0.553468,0.000707033,0.0402611,1903,1065,70.4569,-2.63861
686,-41,70.442,2.7356,-0.000657394,-0.000470321,0.000209734,-0.000334211,-0.000793504,0.99515,0.000460023,0.0425673,1910,1065,70.442,-2.73558
693,-41,70.3988,2.43726,-0.00119725,-0.000546944,0.000173335,-0.000503629,-0.00124057,1.32591,0.000720454,0.0432535,1917,1065,70.3988,-2.4372
700,-41,70.4196,2.34729,-0.00152302,-0.000621821,0.00037881,-0.000483747,-0.0016611,1.22127,0.00098651,0.0386405,1924,1065,70.4196,-2.34728
707,-41,70.4642,2.33374,-0.00214347,-0.000485199,0.000594235,-0.000294246,-0.00233442,1.25988,0.00146806,0.030415,1931,1065,70.4643,-2.33377
714,-41,70.4619,2.34863,-0.00300986,7.67367e-06,0.000913899,0.000262877,-0.00326506,1.29849,0.00226941,0.0294017,1938,1065,70.462,-2.34865
721,-41,70.4639,2.45386,0,0,0,0,0,0,0,-1,1945,1065,70.4639,-2.45389
728,-41,69.7178,7.59387,0,0,0,0,0,0,0,-1,1952,1065,69.7177,-7.59386
735,-41,69.5494,7.33545,-0.00610916,0.00311132,0.00173177,0.00342585,-0.00642369,1.39113,0.00577376,0.0238502,1959,1065,69.5494,-7.3355
742,-41,69.458,7.04932,-0.00651212,0.00416442,0.00192446,0.00450071,-0.00684841,1.3978,0.00659899,0.0201874,1966,1065,69.458,-7.04936
749,-41,69.4797,6.80371,-0.0063881,0.00618631,0.00218252,0.00655436,-0.00675615,1.40374,0.00768512,0.0175201,1973,1065,69.4798,-6.80366
756,-41,69.4919,6.52551,-0.00581987,0.00955876,0.00213793,0.00985045,-0.00611155,1.4352,0.00929955,0.0154689,1980,1065,69.492,-6.52551
763,-41,69.3301,6.19714,-0.00446037,0.0133098,0.0015193,0.0134388,-0.00458933,1.48612,0.0108185,0.0130126,1987,1065,69.3301,-6.19711
770,-41,69.1858,5.92029,-0.00147333,0.0186407,0.000480069,0.0186522,-0.00148478,1.54695,0.0129581,0.0143692,1994,1065,69.1857,-5.92028
777,-41,68.9827,5.63391,0.00377214,0.0254996,-0.0011487,0.0255602,0.00371158,-1.51812,0.0159476,0.0173121,2001,1065,68.9828,-5.63392
784,-41,68.8188,5.27368,0.0102696,0.0328225,-0.00311864,0.0332458,0.0098463,-1.43589,0.019719,0.0277234,2008,1065,68.8189,-5.2737
791,-41,68.8452,4.45093,0,0,0,0,0,0,0,-1,2015,1065,68.8452,-4.45091
798,-41,68.9309,2.98889,0.028384,0.0494202,-0.00866649,0.0525307,0.0252735,-1.22621,0.0303358,0.0448834,2022,1065,68.931,-2.98894
805,-41,68.9805,1.57544,0.0407066,0.05885,-0.0124313,0.0651676,0.0343889,-1.1006,0.0376438,0.0475781,2029,1065,68.9806,-1.57545
812,-41,71.0034,3.9364,0,0,0,0,0,0,0,-1,2036,1065,71.0035,-3.93636
-700,-48,-55.9774,-2.36194,0.0933295,-0.00174341,-0.0642968,0.125754,-0.0341681,-0.46708,0.0972474,0.0490882,524,1072,-55.9774,2.36194
-693,-48,-55.3815,-1.85364,0.094576,0.00530883,-0.0453607,0.11358,-0.0136953,-0.396739,0.0806735,0.0451353,531,1072,-55.3815,1.85367
-686,-48,-54.4618,-1.29895,0.0885713,0.0107926,-0.0319629,0.100021,-0.000656929,-0.343974,0.0669006,0.0466082,538,1072,-54.4618,1.29895
-679,-48,-54.1,-0.637939,0.0788103,0.0143939,-0.02244,0.0858567,0.00734755,-0.304259,0.0549526,0.0458889,545,1072,-54.1,0.637997
-672,-48,-53.7663,0.0612793,0.0675061,0.0165916,-0.0152658,0.0717324,0.0123653,-0.270086,0.0442791,0.0464011,552,1072,-53.7663,-0.0612293
-665,-48,-53.395,0.789063,0.0558132,0.0176274,-0.00979558,0.0581794,0.0152612,-0.237016,0.034832,0.0459331,559,1072,-53.395,-0.789017
-658,-48,-53.1584,1.52356,0.044368,0.0176312,-0.00577954,0.0455639,0.0164353,-0.20403,0.0266444,0.0489174,566,1072,-53.1584,-1.52354
-651,-48,-53.2259,2.71106,0,0,0,0,0,0,0,-1,573,1072,-53.2259,-2.71107
-644,-48,-53.3914,3.62146,0.0246196,0.015386,-0.000760438,0.0246818,0.0153238,-0.0816228,0.0143881,0.0246246,580,1072,-53.3914,-3.62144
-637,-48,-53.4439,3.88794,0.0151674,0.0132899,0.000779872,0.0154491,0.0130082,0.346601,0.00958989,0.0255897,587,1072,-53.4439,-3.88791
-630,-48,-53.4745,4.30322,0.0078325,0.0100232,0.000840783,0.0103087,0.00754701,1.24347,0.00616177,0.0300286,594,1072,-53.4745,-4.30323
-623,-48,-53.6024,4.70142,0.00359163,0.00691278,2.14437e-05,0.00691292,0.00359149,1.56434,0.00399219,0.0147022,601,1072,-53.6024,-4.70142
-616,-48,-53.6125,5.10071,0.00111036,0.00390775,-0.000999063,0.00422792,0.000790198,-1.26067,0.00259562,0.0121338,608,1072,-53.6125,-5.10065
-609,-48,-53.55,5.48755,0.000746455,0.0016155,-0.00145363,0.00269816,-0.000336203,-0.930632,0.00192067,0.0130764,615,1072,-53.5501,-5.48758
-602,-48,-53.5654,5.8573,0.00085817,-0.000265472,-0.00204505,0.00241717,-0.00182447,-0.651344,0.00245687,0.0144526,622,1072,-53.5654,-5.85726
-595,-48,-53.5976,6.1543,0.00106399,-0.00109979,-0.00196706,0.00222705,-0.00226285,-0.533976,0.00259227,0.035307,629,1072,-53.5976,-6.15424
-588,-48,-53.8342,6.35986,0,0,0,0,0,0,0,-1,636,1072,-53.8342,-6.35981
-581,-48,-54.4332,0.397095,0,0,0,0,0,0,0,-1,643,1072,-54.4332,-0.397151
-574,-48,-54.5583,0.515625,0.00148995,-0.00203601,-0.00147142,0.00202332,-0.00256938,-0.347749,0.00265783,0.0409372,650,1072,-54.5584,-0.515619
-567,-48,-54.3682,0.554443,0.00117831,-0.00159313,-0.00129343,0.00168815,-0.00210298,-0.375482,0.00219317,0.0394327,657,1072,-54.3682,-0.554427
-560,-48,-54.3915,0.705566,0.000500277,-0.000723092,-0.00115204,0.00119295,-0.00141577,-0.541345,0.00150797,0.0386501,664,1072,-54.3915,-0.70557
-553,-48,-54.5681,0.50415,-0.000427566,0.000443426,-0.00112406,0.0012134,-0.00119754,-0.97021,0.00139197,0.0403407,671,1072,-54.5681,-0.50421
-546,-48,-54.5873,0.527466,-0.00146563,0.00169941,-0.00139254,0.00222486,-0.00199108,-1.20998,0.00243532,0.0399477,678,1072,-54.5873,-0.527474
-539,-48,-54.602,0.611938,-0.00271574,0.00272224,-0.00211009,0.00344496,-0.00343846,-1.24081,0.00397415,0.0377241,685,1072,-54.602,-0.611975
-532,-48,-54.6794,0.662354,-0.00385358,0.00401432,-0.00279827,0.00490803,-0.00474728,-1.26166,0.00557475,0.0366568,692,1072,-54.6794,-0.662383
-525,-48,0,0,0,0,0,0,0,0,0,-1,699,1072,0,0
-518,-48,0,0,0,0,0,0,0,0,0,-1,706,1072,0,0
-511,-48,0,0,0,0,0,0,0,0,0,-1,713,1072,0,0
-504,-48,0,0,0,0,0,0,0,0,0,-1,720,1072,0,0
-497,-48,0,0,0,0,0,0,0,0,0,-1,727,1072,0,0
-490,-48,0,0,0,0,0,0,0,0,0,-1,734,1072,0,0
-483,-48,0,0,0,0,0,0,0,0,0,-1,741,1072,0,0
-476,-48,0,0,0,0,0,0,0,0,0,-1,748,1072,0,0
-469,-48,0,0,0,0,0,0,0,0,0,-1,755,1072,0,0
-462,-48,0,0,0,0,0,0,0,0,0,-1,762,1072,0,0
-455,-48,0,0,0,0,0,0,0,0,0,-1,769,1072,0,0
-448,-48,0,0,0,0,0,0,0,0,0,-1,776,1072,0,0
-441,-48,0,0,0,0,0,0,0,0,0,-1,783,1072,0,0
-434,-48,0,0,0,0,0,0,0,0,0,-1,790,1072,0,0
-427,-48,0,0,0,0,0,0,0,0,0,-1,797,1072,0,0
-420,-48,0,0,0,0,0,0,0,0,0,-1,804,1072,0,0
-413,-48,0,0,0,0,0,0,0,0,0,-1,811,1072,0,0
-406,-48,0,0,0,0,0,0,0,0,0,-1,818,1072,0,0
-399,-48,0,0,0,0,0,0,0,0,0,-1,825,1072,0,0
-392,-48,0,0,0,0,0,0,0,0,0,-1,832,1072,0,0
-385,-48,0,0,0,0,0,0,0,0,0,-1,839,1072,0,0
-378,-48,0,0,0,0,0,0,0,0,0,-1,846,1072,0,0
-371,-48,0,0,0,0,0,0,0,0,0,-1,853,1072,0,0
-364,-48,0,0,0,0,0,0,0,0,0,-1,860,1072,0,0
-357,-48,0,0,0,0,0,0,0,0,0,-1,867,1072,0,0
-350,-48,0,0,0,0,0,0,0,0,0,-1,874,1072,0,0
-343,-48,0,0,0,0,0,0,0,0,0,-1,881,1072,0,0
-336,-48,0,0,0,0,0,0,0,0,0,-1,888,1072,0,0
-329,-48,0,0,0,0,0,0,0,0,0,-1,895,1072,0,0
-322,-48,0,0,0,0,0,0,0,0,0,-1,902,1072,0,0
-315,-48,0,0,0,0,0,0,0,0,0,-1,909,1072,0,0
-308,-48,0,0,0,0,0,0,0,0,0,-1,916,1072,0,0
-301,-48,0,0,0,0,0,0,0,0,0,-1,923,1072,0,0
-294,-48,0,0,0,0,0,0,0,0,0,-1,930,1072,0,0
-287,-48,0,0,0,0,0,0,0,0,0,-1,937,1072,0,0
-280,-48,0,0,0,0,0,0,0,0,0,-1,944,1072,0,0
-273,-48,0,0,0,0,0,0,0,0,0,-1,951,1072,0,0
-266,-48,0,0,0,0,0,0,0,0,0,-1,958,1072,0,0
-259,-48,0,0,0,0,0,0,0,0,0,-1,965,1072,0,0
-252,-48,0,0,0,0,0,0,0,0,0,-1,972,1072,0,0
-245,-48,0,0,0,0,0,0,0,0,0,-1,979,1072,0,0
-238,-48,0,0,0,0,0,0,0,0,0,-1,986,1072,0,0
-231,-48,0,0,0,0,0,0,0,0,0,-1,993,1072,0,0
-224,-48,0,0,0,0,0,0,0,0,0,-1,1000,1072,0,0
-217,-48,0,0,0,0,0,0,0,0,0,-1,1007,1072,0,0
-210,-48,0,0,0,0,0,0,0,0,0,-1,1014,1072,0,0
-203,-48,0,0,0,0,0,0,0,0,0,-1,1021,1072,0,0
-196,-48,0,0,0,0,0,0,0,0,0,-1,1028,1072,0,0
-189,-48,0,0,0,0,0,0,0,0,0,-1,1035,1072,0,0
-182,-48,0,0,0,0,0,0,0,0,0,-1,1042,1072,0,0
-175,-48,0,0,0,0,0,0,0,0,0,-1,1049,1072,0,0
-168,-48,0,0,0,0,0,0,0,0,0,-1,1056,1072,0,0
-161,-48,0,0,0,0,0,0,0,0,0,-1,1063,1072,0,0
-154,-48,0,0,0,0,0,0,0,0,0,-1,1070,1072,0,0
-147,-48,0,0,0,0,0,0,0,0,0,-1,1077,1072,0,0
-140,-48,0,0,0,0,0,0,0,0,0,-1,1084,1072,0,0
-133,-48,0,0,0,0,0,0,0,0,0,-1,1091,1072,0,0
-126,-48,0,0,0,0,0,0,0,0,0,-1,1098,1072,0,0
-119,-48,0,0,0,0,0,0,0,0,0,-1,1105,1072,0,0
-112,-48,0,0,0,0,0,0,0,0,0,-1,1112,1072,0,0
-105,-48,0,0,0,0,0,0,0,0,0,-1,1119,1072,0,0
-98,-48,0,0,0,0,0,0,0,0,0,-1,1126,1072,0,0
-91,-48,0,0,0,0,0,0,0,0,0,-1,1133,1072,0,0
-84,-48,0,0,0,0,0,0,0,0,0,-1,1140,1072,0,0
-77,-48,0,0,0,0,0,0,0,0,0,-1,1147,1072,0,0
-70,-48,0,0,0,0,0,0,0,0,0,-1,1154,1072,0,0
-63,-48,0,0,0,0,0,0,0,0,0,-1,1161,1072,0,0
-56,-48,0,0,0,0,0,0,0,0,0,-1,1168,1072,0,0
-49,-48,0,0,0,0,0,0,0,0,0,-1,1175,1072,0,0
-42,-48,0,0,0,0,0,0,0,0,0,-1,1182,1072,0,0
-35,-48,0,0,0,0,0,0,0,0,0,-1,1189,1072,0,0
-28,-48,0,0,0,0,0,0,0,0,0,-1,1196,1072,0,0
-21,-48,0,0,0,0,0,0,0,0,0,-1,1203,1072,0,0
-14,-48,0,0,0,0,0,0,0,0,0,-1,1210,1072,0,0
-7,-48,0,0,0,0,0,0,0,0,0,-1,1217,1072,0,0
0,-48,0,0,0,0,0,0,0,0,0,-1,1224,1072,0,0
7,-48,0,0,0,0,0,0,0,0,0,-1,1231,1072,0,0
14,-48,0,0,0,0,0,0,0,0,0,-1,1238,1072,0,0
21,-48,0,0,0,0,0,0,0,0,0,-1,1245,1072,0,0
28,-48,0,0,0,0,0,0,0,0,0,-1,1252,1072,0,0
35,-48,0,0,0,0,0,0,0,0,0,-1,1259,1072,0,0
42,-48,0,0,0,0,0,0,0,0,0,-1,1266,1072,0,0
49,-48,0,0,0,0,0,0,0,0,0,-1,1273,1072,0,0
56,-48,0,0,0,0,0,0,0,0,0,-1,1280,1072,0,0
63,-48,0,0,0,0,0,0,0,0,0,-1,1287,1072,0,0
70,-48,0,0,0,0,0,0,0,0,0,-1,1294,1072,0,0
77,-48,0,0,0,0,0,0,0,0,0,-1,1301,1072,0,0
84,-48,0,0,0,0,0,0,0,0,0,-1,1308,1072,0,0
91,-48,0,0,0,0,0,0,0,0,0,-1,1315,1072,0,0
98,-48,0,0,0,0,0,0,0,0,0,-1,1322,1072,0,0
105,-48,0,0,0,0,0,0,0,0,0,-1,1329,1072,0,0
112,-48,0,0,0,0,0,0,0,0,0,-1,1336,1072,0,0
119,-48,0,0,0,0,0,0,0,0,0,-1,1343,1072,0,0
126,-48,0,0,0,0,0,0,0,0,0,-1,1350,1072,0,0
133,-48,0,0,0,0,0,0,0,0,0,-1,1357,1072,0,0
140,-48,0,0,0,0,0,0,0,0,0,-1,1364,1072,0,0
147,-48,0,0,0,0,0,0,0,0,0,-1,1371,1072,0,0
154,-48,0,0,0,0,0,0,0,0,0,-1,1378,1072,0,0
161,-48,0,0,0,0,0,0,0,0,0,-1,1385,1072,0,0
168,-48,0,0,0,0,0,0,0,0,0,-1,1392,1072,0,0
175,-48,0,0,0,0,0,0,0,0,0,-1,1399,1072,0,0
182,-48,0,0,0,0,0,0,0,0,0,-1,1406,1072,0,0
189,-48,0,0,0,0,0,0,0,0,0,-1,1413,1072,0,0
196,-48,0,0,0,0,0,0,0,0,0,-1,1420,1072,0,0
203,-48,0,0,0,0,0,0,0,0,0,-1,1427,1072,0,0
210,-48,0,0,0,0,0,0,0,0,0,-1,1434,1072,0,0
217,-48,0,0,0,0,0,0,0,0,0,-1,1441,1072,0,0
224,-48,0,0,0,0,0,0,0,0,0,-1,1448,1072,0,0
231,-48,0,0,0,0,0,0,0,0,0,-1,1455,1072,0,0
238,-48,0,0,0,0,0,0,0,0,0,-1,1462,1072,0,0
245,-48,0,0,0,0,0,0,0,0,0,-1,1469,1072,0,0
252,-48,0,0,0,0,0,0,0,0,0,-1,1476,1072,0,0
259,-48,0,0,0,0,0,0,0,0,0,-1,1483,1072,0,0
266,-48,0,0,0,0,0,0,0,0,0,-1,1490,1072,0,0
273,-48,0,0,0,0,0,0,0,0,0,-1,1497,1072,0,0
280,-48,0,0,0,0,0,0,0,0,0,-1,1504,1072,0,0
287,-48,0,0,0,0,0,0,0,0,0,-1,1511,1072,0,0
294,-48,0,0,0,0,0,0,0,0,0,-1,1518,1072,0,0
301,-48,0,0,0,0,0,0,0,0,0,-1,1525,1072,0,0
308,-48,0,0,0,0,0,0,0,0,0,-1,1532,1072,0,0
315,-48,0,0,0,0,0,0,0,0,0,-1,1539,1072,0,0
322,-48,0,0,0,0,0,0,0,0,0,-1,1546,1072,0,0
329,-48,0,0,0,0,0,0,0,0,0,-1,1553,1072,0,0
336,-48,0,0,0,0,0,0,0,0,0,-1,1560,1072,0,0
343,-48,0,0,0,0,0,0,0,0,0,-1,1567,1072,0,0
350,-48,0,0,0,0,0,0,0,0,0,-1,1574,1072,0,0
357,-48,0,0,0,0,0,0,0,0,0,-1,1581,1072,0,0
364,-48,0,0,0,0,0,0,0,0,0,-1,1588,1072,0,0
371,-48,0,0,0,0,0,0,0,0,0,-1,1595,1072,0,0
378,-48,0,0,0,0,0,0,0,0,0,-1,1602,1072,0,0
385,-48,0,0,0,0,0,0,0,0,0,-1,1609,1072,0,0
392,-48,0,0,0,0,0,0,0,0,0,-1,1616,1072,0,0
399,-48,0,0,0,0,0,0,0,0,0,-1,1623,1072,0,0
406,-48,0,0,0,0,0,0,0,0,0,-1,1630,1072,0,0
413,-48,0,0,0,0,0,0,0,0,0,-1,1637,1072,0,0
420,-48,0,0,0,0,0,0,0,0,0,-1,1644,1072,0,0
427,-48,0,0,0,0,0,0,0,0,0,-1,1651,1072,0,0
434,-48,0,0,0,0,0,0,0,0,0,-1,1658,1072,0,0
441,-48,0,0,0,0,0,0,0,0,0,-1,1665,1072,0,0
448,-48,0,0,0,0,0,0,0,0,0,-1,1672,1072,0,0
455,-48,0,0,0,0,0,0,0,0,0,-1,1679,1072,0,0
462,-48,0,0,0,0,0,0,0,0,0,-1,1686,1072,0,0
469,-48,0,0,0,0,0,0,0,0,0,-1,1693,1072,0,0
476,-48,0,0,0,0,0,0,0,0,0,-1,1700,1072,0,0
483,-48,0,0,0,0,0,0,0,0,0,-1,1707,1072,0,0
490,-48,0,0,0,0,0,0,0,0,0,-1,1714,1072,0,0
497,-48,0,0,0,0,0,0,0,0,0,-1,1721,1072,0,0
504,-48,0,0,0,0,0,0,0,0,0,-1,1728,1072,0,0
511,-48,0,0,0,0,0,0,0,0,0,-1,1735,1072,0,0
518,-48,0,0,0,0,0,0,0,0,0,-1,1742,1072,0,0
525,-48,0,0,0,0,0,0,0,0,0,-1,1749,1072,0,0
532,-48,0,0,0,0,0,0,0,0,0,-1,1756,1072,0,0
539,-48,0,0,0,0,0,0,0,0,0,-1,1763,1072,0,0
546,-48,0,0,0,0,0,0,0,0,0,-1,1770,1072,0,0
553,-48,0,0,0,0,0,0,0,0,0,-1,1777,1072,0,0
560,-48,0,0,0,0,0,0,0,0,0,-1,1784,1072,0,0
567,-48,0,0,0,0,0,0,0,0,0,-1,1791,1072,0,0
574,-48,0,0,0,0,0,0,0,0,0,-1,1798,1072,0,0
581,-48,0,0,0,0,0,0,0,0,0,-1,1805,1072,0,0
588,-48,0,0,0,0,0,0,0,0,0,-1,1812,1072,0,0
595,-48,0,0,0,0,0,0,0,0,0,-1,1819,1072,0,0
602,-48,0,0,0,0,0,0,0,0,0,-1,1826,1072,0,0
609,-48,0,0,0,0,0,0,0,0,0,-1,1833,1072,0,0
616,-48,0,0,0,0,0,0,0,0,0,-1,1840,1072,0,0
623,-48,0,0,0,0,0,0,0,0,0,-1,1847,1072,0,0
630,-48,0,0,0,0,0,0,0,0,0,-1,1854,1072,0,0
637,-48,0,0,0,0,0,0,0,0,0,-1,1861,1072,0,0
644,-48,0,0,0,0,0,0,0,0,0,-1,1868,1072,0,0
651,-48,70.4547,2.32056,0.00213565,-0.0035719,0.00404635,0.00423333,-0.00566959,0.478271,0.00573747,0.0326864,1875,1072,70.4547,-2.32056
658,-48,70.4761,2.3551,0.00150523,-0.00278437,0.00279564,0.00288403,-0.00416317,0.45819,0.00409098,0.0355207,1882,1072,70.4761,-2.35514
665,-48,70.431,2.37341,0.00097796,-0.00206679,0.00180506,0.00181691,-0.00290575,0.435075,0.00275068,0.0403371,1889,1072,70.431,-2.37343
672,-48,70.3229,2.31738,0.000535649,-0.0013165,0.00103744,0.00100022,-0.00178107,0.421027,0.00162674,0.0399189,1896,1072,70.3229,-2.31733
679,-48,70.3058,2.40283,0.000127185,-0.00056667,0.000379066,0.000294115,-0.0007336,0.414819,0.000611169,0.0384061,1903,1072,70.3058,-2.40285
686,-48,70.3478,2.53723,-0.00050479,-0.000307454,1.60836e-05,-0.000306151,-0.000506093,1.49,0.00029433,0.0392501,1910,1072,70.3477,-2.53721
693,-48,70.3381,2.4364,-0.00103266,-0.000325966,-4.26232e-05,-0.000323405,-0.00103522,-1.51077,0.000611548,0.0403168,1917,1072,70.3382,-2.4364
700,-48,70.3981,2.36328,-0.00132648,-0.000370511,0.00015104,-0.000347215,-0.00134977,1.41776,0.00080933,0.0347394,1924,1072,70.398,-2.36327
707,-48,70.4791,2.34363,-0.00189467,-0.000250336,0.000385307,-0.000164527,-0.00198048,1.35167,0.00126903,0.0303309,1931,1072,70.4791,-2.34364
714,-48,70.4696,2.33411,-0.00266526,0.00015386,0.000732087,0.000332635,-0.00284404,1.33128,0.00201607,0.0461277,1938,1072,70.4696,-2.33406
721,-48,70.517,2.39185,0,0,0,0,0,0,0,-1,1945,1072,70.517,-2.39183
728,-48,69.3068,7.76794,0,0,0,0,0,0,0,-1,1952,1072,69.3067,-7.768
735,-48,69.1655,7.48938,-0.00536756,0.00274925,0.00171125,0.00309528,-0.00571359,1.37128,0.00516014,0.0261006,1959,1072,69.1655,-7.48939
742,-48,69.0216,7.15759,-0.00559697,0.00370502,0.00192353,0.00408709,-0.00597904,1.37472,0.0058458,0.0202347,1966,1072,69.0216,-7.15763
749,-48,69.066,6.80078,-0.00530487,0.00569129,0.00224996,0.00613385,-0.00574743,1.37658,0.00686087,0.0168806,1973,1072,69.0661,-6.80072
756,-48,69.0464,6.47791,-0.00459036,0.00900394,0.002189,0.00934773,-0.00493415,1.41502,0.00837586,0.0147963,1980,1072,69.0464,-6.47788
763,-48,68.9321,6.15454,-0.00312292,0.0127845,0.00157169,0.0129383,-0.00327672,1.47325,0.00990022,0.0136421,1987,1072,68.9322,-6.15456
770,-48,68.8601,5.823,-2.29323e-05,0.0182624,0.000460791,0.018274,-3.45372e-05,1.54562,0.0121942,0.0146746,1994,1072,68.8602,-5.82305
777,-48,68.7026,5.44238,0.00511794,0.0252588,-0.00127824,0.0253396,0.00503714,-1.50767,0.0154895,0.0136442,2001,1072,68.7027,-5.44239
784,-48,68.5681,5.05078,0.0114587,0.0327897,-0.00339729,0.0333177,0.0109307,-1.41661,0.0196114,0.026509,2008,1072,68.568,-5.05072
791,-48,68.949,4.20178,0,0,0,0,0,0,0,-1,2015,1072,68.9489,-4.20178
798,-48,68.1453,2.27209,0.029006,0.050057,-0.00944179,0.0536713,0.0253917,-1.20521,0.0310021,0.0443444,2022,1072,68.1452,-2.27212
805,-48,68.5337,3.67407,0.040935,0.0599592,-0.0136077,0.0670498,0.0338445,-1.09043,0.0387118,0.0459795,2029,1072,68.5338,-3.67413
812,-48,69.0356,3.052,0,0,0,0,0,0,0,-1,2036,1072,69.0357,-3.05202
-700,-55,-54.5855,-2.09985,0.0786967,-0.00155648,-0.0545497,0.106289,-0.0291485,-0.468289,0.082314,0.0499969,524,1079,-54.5855,2.09982
-693,-55,-54.3998,-1.46838,0.0816205,0.00652232,-0.0368968,0.0967146,-0.00857182,-0.388318,0.0675153,0.0485985,531,1079,-54.3998,1.46839
-686,-55,-53.5318,-1.21484,0,0,0,0,0,0,0,-1,538,1079,-53.5318,1.2149
-679,-55,-53.103,-0.585083,0.0689034,0.0151943,-0.0173886,0.0740415,0.0100562,-0.287311,0.0463738,0.0499443,545,1079,-53.103,0.585081
-672,-55,-52.8184,0.0859375,0.0593129,0.0169947,-0.0116679,0.0623168,0.0139909,-0.251973,0.0377551,0.0486125,552,1079,-52.8184,-0.0859612
-665,-55,-52.5002,0.904175,0.0491971,0.0176761,-0.00736888,0.0508347,0.0160385,-0.218677,0.0300081,0.0476285,559,1079,-52.5002,-0.90423
-658,-55,-52.932,0.745728,0,0,0,0,0,0,0,-1,566,1079,-52.932,-0.745731
-651,-55,-52.957,3.03833,0,0,0,0,0,0,0,-1,573,1079,-52.957,-3.03834
-644,-55,-53.0062,3.48401,0.0218062,0.0148962,-0.000263959,0.0218162,0.0148861,-0.0381257,0.0128718,0.0307141,580,1079,-53.0062,-3.48407
-637,-55,-53.0479,3.80859,0.013369,0.0127726,0.000904337,0.014023,0.0121185,0.62614,0.00878295,0.0241433,587,1079,-53.0479,-3.80857
-630,-55,-53.0928,4.27441,0.00692592,0.00946272,0.000666515,0.00962718,0.00676147,1.32889,0.00570793,0.0271595,594,1079,-53.0928,-4.27442
-623,-55,-53.2682,4.74585,0.00330848,0.00630007,-0.000185896,0.00631158,0.00329698,-1.50897,0.00364521,0.022292,601,1079,-53.2682,-4.74588
-616,-55,-53.2972,5.11609,0.00127042,0.00333015,-0.00108938,0.00379941,0.000801163,-1.16406,0.00231262,0.0201419,608,1079,-53.2972,-5.11611
-609,-55,-53.2107,5.55664,0.00108356,0.0011984,-0.00145168,0.0025938,-0.000311835,-0.805164,0.00184196,0.0195806,615,1079,-53.2107,-5.55665
-602,-55,-53.1264,5.95361,0.0013485,-0.00050383,-0.00201716,0.00264196,-0.00179729,-0.570182,0.00257842,0.0166999,622,1079,-53.1264,-5.95359
-595,-55,-52.9851,6.33618,0.00164332,-0.0012349,-0.00204316,0.00270332,-0.0022949,-0.478577,0.00288893,0.0345226,629,1079,-52.9851,-6.33622
-588,-55,-53.0426,6.72314,0,0,0,0,0,0,0,-1,636,1079,-53.0426,-6.72314
-581,-55,-54.408,0.363403,0,0,0,0,0,0,0,-1,643,1079,-54.408,-0.363459
-574,-55,-54.4149,0.392578,0.00223632,-0.0021341,-0.00189377,0.00294273,-0.00284052,-0.357035,0.00333914,0.040296,650,1079,-54.4149,-0.392614
-567,-55,-54.3424,0.429688,0.00201001,-0.00172725,-0.0018763,0.00278945,-0.00250669,-0.393724,0.00305918,0.0384502,657,1079,-54.3424,-0.429734
-560,-55,-54.3624,0.484741,0.0013898,-0.000931476,-0.00191852,0.00247144,-0.00201312,-0.513367,0.00259366,0.0407794,664,1079,-54.3624,-0.484708
-553,-55,-54.4163,0.452026,0.000496893,0.000130745,-0.00206793,0.00238983,-0.0017622,-0.741248,0.00240629,0.0422359,671,1079,-54.4163,-0.452028
-546,-55,-54.4675,0.505493,-0.000478516,0.00127899,-0.0024835,0.00303463,-0.00223415,-0.955442,0.00305361,0.0399568,678,1079,-54.4675,-0.505494
-539,-55,-54.4965,0.488281,-0.00149924,0.00214653,-0.00332673,0.00411706,-0.00346978,-1.03603,0.00438557,0.0358055,685,1079,-54.4965,-0.488251
-532,-55,-54.6282,0.480957,-0.0023771,0.00324259,-0.00407937,0.00538618,-0.00452068,-1.08698,0.005727,0.0341138,692,1079,-54.6282,-0.48092
-525,-55,0,0,0,0,0,0,0,0,0,-1,699,1079,0,0
-518,-55,0,0,0,0,0,0,0,0,0,-1,706,1079,0,0
-511,-55,0,0,0,0,0,0,0,0,0,-1,713,1079,0,0
-504,-55,0,0,0,0,0,0,0,0,0,-1,720,1079,0,0
-497,-55,0,0,0,0,0,0,0,0,0,-1,727,1079,0,0
-490,-55,0,0,0,0,0,0,0,0,0,-1,734,1079,0,0
-483,-55,0,0,0,0,0,0,0,0,0,-1,741,1079,0,0
-476,-55,0,0,0,0,0,0,0,0,0,-1,748,1079,0,0
-469,-55,0,0,0,0,0,0,0,0,0,-1,755,1079,0,0
-462,-55,0,0,0,0,0,0,0,0,0,-1,762,1079,0,0
-455,-55,0,0,0,0,0,0,0,0,0,-1,769,1079,0,0
-448,-55,0,0,0,0,0,0,0,0,0,-1,776,1079,0,0
-441,-55,0,0,0,0,0,0,0,0,0,-1,783,1079,0,0
-434,-55,0,0,0,0,0,0,0,0,0,-1,790,1079,0,0
-427,-55,0,0,0,0,0,0,0,0,0,-1,797,1079,0,0
-420,-55,0,0,0,0,0,0,0,0,0,-1,804,1079,0,0
-413,-55,0,0,0,0,0,0,0,0,0,-1,811,1079,0,0
-406,-55,0,0,0,0,0,0,0,0,0,-1,818,1079,0,0
-399,-55,0,0,0,0,0,0,0,0,0,-1,825,1079,0,0
-392,-55,0,0,0,0,0,0,0,0,0,-1,832,1079,0,0
-385,-55,0,0,0,0,0,0,0,0,0,-1,839,1079,0,0
-378,-55,0,0,0,0,0,0,0,0,0,-1,846,1079,0,0
-371,-55,0,0,0,0,0,0,0,0,0,-1,853,1079,0,0
-364,-55,0,0,0,0,0,0,0,0,0,-1,860,1079,0,0
-357,-55,0,0,0,0,0,0,0,0,0,-1,867,1079,0,0
-350,-55,0,0,0,0,0,0,0,0,0,-1,874,1079,0,0
-343,-55,0,0,0,0,0,0,0,0,0,-1,881,1079,0,0
-336,-55,0,0,0,0,0,0,0,0,0,-1,888,1079,0,0
-329,-55,0,0,0,0,0,0,0,0,0,-1,895,1079,0,0
-322,-55,0,0,0,0,0,0,0,0,0,-1,902,1079,0,0
-315,-55,0,0,0,0,0,0,0,0,0,-1,909,1079,0,0
-308,-55,0,0,0,0,0,0,0,0,0,-1,916,1079,0,0
-301,-55,0,0,0,0,0,0,0,0,0,-1,923,1079,0,0
-294,-55,0,0,0,0,0,0,0,0,0,-1,930,1079,0,0
-287,-55,0,0,0,0,0,0,0,0,0,-1,937,1079,0,0
-280,-55,0,0,0,0,0,0,0,0,0,-1,944,1079,0,0
-273,-55,0,0,0,0,0,0,0,0,0,-1,951,1079,0,0
-266,-55,0,0,0,0,0,0,0,0,0,-1,958,1079,0,0
-259,-55,0,0,0,0,0,0,0,0,0,-1,965,1079,0,0
-252,-55,0,0,0,0,0,0,0,0,0,-1,972,1079,0,0
-245,-55,0,0,0,0,0,0,0,0,0,-1,979,1079,0,0
-238,-55,0,0,0,0,0,0,0,0,0,-1,986,1079,0,0
-231,-55,0,0,0,0,0,0,0,0,0,-1,993,1079,0,0
-224,-55,0,0,0,0,0,0,0,0,0,-1,1000,1079,0,0
-217,-55,0,0,0,0,0,0,0,0,0,-1,1007,1079,0,0
-210,-55,0,0,0,0,0,0,0,0,0,-1,1014,1079,0,0
-203,-55,0,0,0,0,0,0,0,0,0,-1,1021,1079,0,0
-196,-55,0,0,0,0,0,0,0,0,0,-1,1028,1079,0,0
-189,-55,0,0,0,0,0,0,0,0,0,-1,1035,1079,0,0
-182,-55,0,0,0,0,0,0,0,0,0,-1,1042,1079,0,0
-175,-55,0,0,0,0,0,0,0,0,0,-1,1049,1079,0,0
-168,-55,0,0,0,0,0,0,0,0,0,-1,1056,1079,0,0
-161,-55,0,0,0,0,0,0,0,0,0,-1,1063,1079,0,0
-154,-55,0,0,0,0,0,0,0,0,0,-1,1070,1079,0,0
-147,-55,0,0,0,0,0,0,0,0,0,-1,1077,1079,0,0
-140,-55,0,0,0,0,0,0,0,0,0,-1,1084,1079,0,0
-133,-55,0,0,0,0,0,0,0,0,0,-1,1091,1079,0,0
-126,-55,0,0,0,0,0,0,0,0,0,-1,1098,1079,0,0
-119,-55,0,0,0,0,0,0,0,0,0,-1,1105,1079,0,0
-112,-55,0,0,0,0,0,0,0,0,0,-1,1112,1079,0,0
-105,-55,0,0,0,0,0,0,0,0,0,-1,1119,1079,0,0
-98,-55,0,0,0,0,0,0,0,0,0,-1,1126,1079,0,0
-91,-55,0,0,0,0,0,0,0,0,0,-1,1133,1079,0,0
-84,-55,0,0,0,0,0,0,0,0,0,-1,1140,1079,0,0
-77,-55,0,0,0,0,0,0,0,0,0,-1,1147,1079,0,0
-70,-55,0,0,0,0,0,0,0,0,0,-1,1154,1079,0,0
-63,-55,0,0,0,0,0,0,0,0,0,-1,1161,1079,0,0
-56,-55,0,0,0,0,0,0,0,0,0,-1,1168,1079,0,0
-49,-55,0,0,0,0,0,0,0,0,0,-1,1175,1079,0,0
-42,-55,0,0,0,0,0,0,0,0,0,-1,1182,1079,0,0
-35,-55,0,0,0,0,0,0,0,0,0,-1,1189,1079,0,0
-28,-55,0,0,0,0,0,0,0,0,0,-1,1196,1079,0,0
-21,-55,0,0,0,0,0,0,0,0,0,-1,1203,1079,0,0
-14,-55,0,0,0,0,0,0,0,0,0,-1,1210,1079,0,0
-7,-55,0,0,0,0,0,0,0,0,0,-1,1217,1079,0,0
0,-55,0,0,0,0,0,0,0,0,0,-1,1224,1079,0,0
7,-55,0,0,0,0,0,0,0,0,0,-1,1231,1079,0,0
14,-55,0,0,0,0,0,0,0,0,0,-1,1238,1079,0,0
21,-55,0,0,0,0,0,0,0,0,0,-1,1245,1079,0,0
28,-55,0,0,0,0,0,0,0,0,0,-1,1252,1079,0,0
35,-55,0,0,0,0,0,0,0,0,0,-1,1259,1079,0,0
42,-55,0,0,0,0,0,0,0,0,0,-1,1266,1079,0,0
49,-55,0,0,0,0,0,0,0,0,0,-1,1273,1079,0,0
56,-55,0,0,0,0,0,0,0,0,0,-1,1280,1079,0,0
63,-55,0,0,0,0,0,0,0,0,0,-1,1287,1079,0,0
70,-55,0,0,0,0,0,0,0,0,0,-1,1294,1079,0,0
77,-55,0,0,0,0,0,0,0,0,0,-1,1301,1079,0,0
84,-55,0,0,0,0,0,0,0,0,0,-1,1308,1079,0,0
91,-55,0,0,0,0,0,0,0,0,0,-1,1315,1079,0,0
98,-55,0,0,0,0,0,0,0,0,0,-1,1322,1079,0,0
105,-55,0,0,0,0,0,0,0,0,0,-1,1329,1079,0,0
112,-55,0,0,0,0,0,0,0,0,0,-1,1336,1079,0,0
119,-55,0,0,0,0,0,0,0,0,0,-1,1343,1079,0,0
126,-55,0,0,0,0,0,0,0,0,0,-1,1350,1079,0,0
133,-55,0,0,0,0,0,0,0,0,0,-1,1357,1079,0,0
140,-55,0,0,0,0,0,0,0,0,0,-1,1364,1079,0,0
147,-55,0,0,0,0,0,0,0,0,0,-1,1371,1079,0,0
154,-55,0,0,0,0,0,0,0,0,0,-1,1378,1079,0,0
161,-55,0,0,0,0,0,0,0,0,0,-1,1385,1079,0,0
168,-55,0,0,0,0,0,0,0,0,0,-1,1392,1079,0,0
175,-55,0,0,0,0,0,0,0,0,0,-1,1399,1079,0,0
182,-55,0,0,0,0,0,0,0,0,0,-1,1406,1079,0,0
189,-55,0,0,0,0,0,0,0,0,0,-1,1413,1079,0,0
196,-55,0,0,0,0,0,0,0,0,0,-1,1420,1079,0,0
203,-55,0,0,0,0,0,0,0,0,0,-1,1427,1079,0,0
210,-55,0,0,0,0,0,0,0,0,0,-1,1434,1079,0,0
217,-55,0,0,0,0,0,0,0,0,0,-1,1441,1079,0,0
224,-55,0,0,0,0,0,0,0,0,0,-1,1448,1079,0,0
231,-55,0,0,0,0,0,0,0,0,0,-1,1455,1079,0,0
238,-55,0,0,0,0,0,0,0,0,0,-1,1462,1079,0,0
245,-55,0,0,0,0,0,0,0,0,0,-1,1469,1079,0,0
252,-55,0,0,0,0,0,0,0,0,0,-1,1476,1079,0,0
259,-55,0,0,0,0,0,0,0,0,0,-1,1483,1079,0,0
266,-55,0,0,0,0,0,0,0,0,0,-1,1490,1079,0,0
273,-55,0,0,0,0,0,0,0,0,0,-1,1497,1079,0,0
280,-55,0,0,0,0,0,0,0,0,0,-1,1504,1079,0,0
287,-55,0,0,0,0,0,0,0,0,0,-1,1511,1079,0,0
294,-55,0,0,0,0,0,0,0,0,0,-1,1518,1079,0,0
301,-55,0,0,0,0,0,0,0,0,0,-1,1525,1079,0,0
308,-55,0,0,0,0,0,0,0,0,0,-1,1532,1079,0,0
315,-55,0,0,0,0,0,0,0,0,0,-1,1539,1079,0,0
322,-55,0,0,0,0,0,0,0,0,0,-1,1546,1079,0,0
329,-55,0,0,0,0,0,0,0,0,0,-1,1553,1079,0,0
336,-55,0,0,0,0,0,0,0,0,0,-1,1560,1079,0,0
343,-55,0,0,0,0,0,0,0,0,0,-1,1567,1079,0,0
350,-55,0,0,0,0,0,0,0,0,0,-1,1574,1079,0,0
357,-55,0,0,0,0,0,0,0,0,0,-1,1581,1079,0,0
364,-55,0,0,0,0,0,0,0,0,0,-1,1588,1079,0,0
371,-55,0,0,0,0,0,0,0,0,0,-1,1595,1079,0,0
378,-55,0,0,0,0,0,0,0,0,0,-1,1602,1079,0,0
385,-55,0,0,0,0,0,0,0,0,0,-1,1609,1079,0,0
392,-55,0,0,0,0,0,0,0,0,0,-1,1616,1079,0,0
399,-55,0,0,0,0,0,0,0,0,0,-1,1623,1079,0,0
406,-55,0,0,0,0,0,0,0,0,0,-1,1630,1079,0,0
413,-55,0,0,0,0,0,0,0,0,0,-1,1637,1079,0,0
420,-55,0,0,0,0,0,0,0,0,0,-1,1644,1079,0,0
427,-55,0,0,0,0,0,0,0,0,0,-1,1651,1079,0,0
434,-55,0,0,0,0,0,0,0,0,0,-1,1658,1079,0,0
441,-55,0,0,0,0,0,0,0,0,0,-1,1665,1079,0,0
448,-55,0,0,0,0,0,0,0,0,0,-1,1672,1079,0,0
455,-55,0,0,0,0,0,0,0,0,0,-1,1679,1079,0,0
462,-55,0,0,0,0,0,0,0,0,0,-1,1686,1079,0,0
469,-55,0,0,0,0,0,0,0,0,0,-1,1693,1079,0,0
476,-55,0,0,0,0,0,0,0,0,0,-1,1700,1079,0,0
483,-55,0,0,0,0,0,0,0,0,0,-1,1707,1079,0,0
490,-55,0,0,0,0,0,0,0,0,0,-1,1714,1079,0,0
497,-55,0,0,0,0,0,0,0,0,0,-1,1721,1079,0,0
504,-55,0,0,0,0,0,0,0,0,0,-1,1728,1079,0,0
511,-55,0,0,0,0,0,0,0,0,0,-1,1735,1079,0,0
518,-55,0,0,0,0,0,0,0,0,0,-1,1742,1079,0,0
525,-55,0,0,0,0,0,0,0,0,0,-1,1749,1079,0,0
532,-55,0,0,0,0,0,0,0,0,0,-1,1756,1079,0,0
539,-55,0,0,0,0,0,0,0,0,0,-1,1763,1079,0,0
546,-55,0,0,0,0,0,0,0,0,0,-1,1770,1079,0,0
553,-55,0,0,0,0,0,0,0,0,0,-1,1777,1079,0,0
560,-55,0,0,0,0,0,0,0,0,0,-1,1784,1079,0,0
567,-55,0,0,0,0,0,0,0,0,0,-1,1791,1079,0,0
574,-55,0,0,0,0,0,0,0,0,0,-1,1798,1079,0,0
581,-55,0,0,0,0,0,0,0,0,0,-1,1805,1079,0,0
588,-55,0,0,0,0,0,0,0,0,0,-1,1812,1079,0,0
595,-55,0,0,0,0,0,0,0,0,0,-1,1819,1079,0,0
602,-55,0,0,0,0,0,0,0,0,0,-1,1826,1079,0,0
609,-55,0,0,0,0,0,0,0,0,0,-1,1833,1079,0,0
616,-55,0,0,0,0,0,0,0,0,0,-1,1840,1079,0,0
623,-55,0,0,0,0,0,0,0,0,0,-1,1847,1079,0,0
630,-55,0,0,0,0,0,0,0,0,0,-1,1854,1079,0,0
637,-55,0,0,0,0,0,0,0,0,0,-1,1861,1079,0,0
644,-55,0,0,0,0,0,0,0,0,0,-1,1868,1079,0,0
651,-55,70.4727,2.44458,0.00342782,-0.00470037,0.00367091,0.00484026,-0.00611281,0.367305,0.00633797,0.0346511,1875,1079,70.4727,-2.44452
658,-55,70.5034,2.29419,0.00239265,-0.00365088,0.00250002,0.00329277,-0.00455099,0.345595,0.00454798,0.0344834,1882,1079,70.5034,-2.29415
665,-55,70.3601,2.52515,0.00158123,-0.00271463,0.00155928,0.00208753,-0.00322093,0.313964,0.00308804,0.0401142,1889,1079,70.3601,-2.52518
672,-55,70.3191,2.4209,0.00092105,-0.00176327,0.000798022,0.00114037,-0.00198259,0.268213,0.00182477,0.0385037,1896,1079,70.3191,-2.42089
679,-55,70.5046,2.29321,0.000358772,-0.000834216,0.0001425,0.000375557,-0.000851001,0.11725,0.000725671,0.0368309,1903,1079,70.5046,-2.29315
686,-55,70.4761,2.40491,-0.000293896,-0.000462049,-0.000210586,-0.000151223,-0.000604722,-0.595468,0.000363385,0.0381492,1910,1079,70.4761,-2.40492
693,-55,70.4114,2.45776,-0.000795544,-0.000412564,-0.000253257,-0.000286552,-0.000921556,-1.1091,0.000544591,0.0380418,1917,1079,70.4114,-2.45782
700,-55,70.455,2.41663,-0.0010444,-0.000402817,-5.69943e-05,-0.000397793,-0.00104942,-1.48288,0.000611763,0.0328699,1924,1079,70.455,-2.41661
707,-55,70.4822,2.34534,-0.00154191,-0.000261793,0.000216646,-0.000226122,-0.00157758,1.40761,0.000985038,0.0299621,1931,1079,70.4822,-2.34539
714,-55,70.4275,2.21191,0,0,0,0,0,0,0,-1,1938,1079,70.4275,-2.21186
721,-55,69.9749,2.34363,0,0,0,0,0,0,0,-1,1945,1079,69.9749,-2.34358
728,-55,68.7855,7.98938,0,0,0,0,0,0,0,-1,1952,1079,68.7855,-7.98938
735,-55,68.6862,7.60559,-0.00450635,0.00236264,0.00166581,0.0027453,-0.00488901,1.345,0.00446522,0.0251789,1959,1079,68.6862,-7.60562
742,-55,68.6895,7.23279,-0.0045736,0.00327238,0.00186973,0.00369516,-0.00499638,1.34842,0.00503678,0.0240252,1966,1079,68.6894,-7.23273
749,-55,68.6914,6.84131,-0.00419345,0.00520686,0.00223069,0.00570934,-0.00469594,1.34924,0.00601698,0.0162237,1973,1079,68.6914,-6.84134
756,-55,68.5945,6.47083,-0.00341513,0.00840233,0.0021259,0.00877313,-0.00378594,1.39811,0.00743911,0.0135411,1980,1079,68.5945,-6.47086
763,-55,68.5208,6.11743,-0.00188688,0.0121817,0.00146742,0.0123331,-0.00203831,1.46797,0.00897897,0.0155045,1987,1079,68.5206,-6.1174
770,-55,68.4465,5.72144,0.0012745,0.0177297,0.000226068,0.0177328,0.00127139,1.55706,0.0114217,0.0170105,1994,1079,68.4466,-5.72142
777,-55,68.3323,5.34314,0.00628841,0.0247355,-0.00168894,0.0248889,0.00613505,-1.48024,0.0149726,0.0140354,2001,1079,68.3322,-5.3432
784,-55,68.2124,4.94617,0.0124663,0.0323305,-0.00402917,0.0331167,0.0116801,-1.3781,0.0193945,0.0298776,2008,1079,68.2124,-4.94618
791,-55,68.0352,4.57117,0.0200826,0.0406896,-0.00699485,0.0428397,0.0179326,-1.27259,0.0248425,0.0441115,2015,1079,68.0352,-4.5712
798,-55,67.8782,4.27502,0,0,0,0,0,0,0,-1,2022,1079,67.8783,-4.27497
805,-55,68.4763,3.63623,0.0412748,0.0602702,-0.0155773,0.069017,0.0325281,-1.05916,0.0398688,0.0460863,2029,1079,68.4764,-3.63627
812,-55,68.5688,3.07715,0.0542121,0.0714852,-0.0216154,0.0861256,0.0395717,-0.975459,0.0497791,0.0472307,2036,1079,68.5687,-3.07716
-700,-62,-53.2267,-1.8374,0,0,0,0,0,0,0,-1,524,1086,-53.2266,1.83736
-693,-62,-53.4167,-1.32874,0,0,0,0,0,0,0,-1,531,1086,-53.4167,1.32871
-686,-62,-51.9035,-2.83118,0,0,0,0,0,0,0,-1,538,1086,-51.9035,2.83121
-679,-62,-52.1759,-0.527954,0,0,0,0,0,0,0,-1,545,1086,-52.1759,0.527949
-672,-62,-51.7109,-0.0539551,0.0522288,0.0199731,-0.00625623,0.0533997,0.0188022,-0.185023,0.0312767,0.0442244,552,1086,-51.7109,0.0540134
-665,-62,-51.1461,0.82312,0.0432065,0.019478,-0.00367071,0.0437614,0.0189231,-0.150026,0.0253425,0.0452949,559,1086,-51.1461,-0.823085
-658,-62,-50.2874,1.52039,0,0,0,0,0,0,0,-1,566,1086,-50.2873,-1.52033
-651,-62,-52.4465,2.60254,0,0,0,0,0,0,0,-1,573,1086,-52.4464,-2.60257
-644,-62,-52.589,3.33435,0.0188352,0.0147592,0.000541118,0.0189058,0.0146886,0.129764,0.0114598,0.0395001,580,1086,-52.589,-3.33435
-637,-62,-52.6547,3.84851,0.0113087,0.0123312,0.00113826,0.0130677,0.0105721,0.996475,0.00801059,0.0165841,587,1086,-52.6547,-3.84849
-630,-62,-52.7363,4.26929,0.0057031,0.00888592,0.000533362,0.00897292,0.0056161,1.4091,0.00523497,0.0172734,594,1086,-52.7362,-4.26932
-623,-62,-52.8272,4.76624,0.00270347,0.00560698,-0.000396004,0.00566002,0.00265043,-1.43765,0.00327,0.0207059,601,1086,-52.8272,-4.76618
-616,-62,-52.8328,5.24475,0.0012342,0.00273047,-0.00118681,0.00338527,0.000579393,-1.06662,0.00209065,0.0211046,608,1086,-52.8328,-5.24478
-609,-62,-52.7673,5.65637,0.00137744,0.000814118,-0.00146519,0.0025878,-0.000396239,-0.690439,0.00187131,0.0199783,615,1086,-52.7673,-5.65638
-602,-62,-52.6295,6.04102,0.00188403,-0.000681261,-0.00202223,0.00299609,-0.00179332,-0.502779,0.00279408,0.0174925,622,1086,-52.6295,-6.04098
-595,-62,-52.5295,6.53296,0.0023209,-0.00131014,-0.00217907,0.00334166,-0.0023309,-0.438079,0.00329234,0.0407916,629,1086,-52.5295,-6.533
-588,-62,-52.4622,7.05176,0,0,0,0,0,0,0,-1,636,1086,-52.4621,-7.05171
-581,-62,-54.4169,0.562378,0,0,0,0,0,0,0,-1,643,1086,-54.4169,-0.562414
-574,-62,-54.458,0.425293,0.00317318,-0.00224649,-0.00246895,0.00412926,-0.00320257,-0.369459,0.00424429,0.0353898,650,1086,-54.458,-0.425298
-567,-62,-54.4274,0.337891,0.00303363,-0.00192637,-0.00262995,0.00416846,-0.0030612,-0.407368,0.00419034,0.0378468,657,1086,-54.4274,-0.337866
-560,-62,-54.3668,0.328857,0.00246313,-0.00128198,-0.00287365,0.00402049,-0.00283934,-0.496638,0.00398004,0.0405963,664,1086,-54.3667,-0.328838
-553,-62,-54.3264,0.306641,0.00153372,-0.000415349,-0.00322928,0.00393231,-0.00281394,-0.638853,0.00391275,0.0383305,671,1086,-54.3263,-0.306668
-546,-62,-54.374,0.387329,0.000496369,0.000501461,-0.00381555,0.00431447,-0.00331664,-0.785732,0.00441836,0.0332628,678,1086,-54.374,-0.38736
-539,-62,-54.3741,0.350098,-0.000395763,0.00103878,-0.00475636,0.00513165,-0.00448863,-0.860236,0.00555841,0.0354067,685,1086,-54.3741,-0.35009
-532,-62,-54.389,0.313599,-0.00113723,0.00178133,-0.00552973,0.00604109,-0.00539699,-0.914405,0.00660727,0.0372057,692,1086,-54.389,-0.313568
-525,-62,0,0,0,0,0,0,0,0,0,-1,699,1086,0,0
-518,-62,0,0,0,0,0,0,0,0,0,-1,706,1086,0,0
-511,-62,0,0,0,0,0,0,0,0,0,-1,713,1086,0,0
-504,-62,0,0,0,0,0,0,0,0,0,-1,720,1086,0,0
-497,-62,0,0,0,0,0,0,0,0,0,-1,727,1086,0,0
-490,-62,0,0,0,0,0,0,0,0,0,-1,734,1086,0,0
-483,-62,0,0,0,0,0,0,0,0,0,-1,741,1086,0,0
-476,-62,0,0,0,0,0,0,0,0,0,-1,748,1086,0,0
-469,-62,0,0,0,0,0,0,0,0,0,-1,755,1086,0,0
-462,-62,0,0,0,0,0,0,0,0,0,-1,762,1086,0,0
-455,-62,0,0,0,0,0,0,0,0,0,-1,769,1086,0,0
-448,-62,0,0,0,0,0,0,0,0,0,-1,776,1086,0,0
-441,-62,0,0,0,0,0,0,0,0,0,-1,783,1086,0,0
-434,-62,0,0,0,0,0,0,0,0,0,-1,790,1086,0,0
-427,-62,0,0,0,0,0,0,0,0,0,-1,797,1086,0,0
-420,-62,0,0,0,0,0,0,0,0,0,-1,804,1086,0,0
-413,-62,0,0,0,0,0,0,0,0,0,-1,811,1086,0,0
-406,-62,0,0,0,0,0,0,0,0,0,-1,818,1086,0,0
-399,-62,0,0,0,0,0,0,0,0,0,-1,825,1086,0,0
-392,-62,0,0,0,0,0,0,0,0,0,-1,832,1086,0,0
-385,-62,0,0,0,0,0,0,0,0,0,-1,839,1086,0,0
-378,-62,0,0,0,0,0,0,0,0,0,-1,846,1086,0,0
-371,-62,0,0,0,0,0,0,0,0,0,-1,853,1086,0,0
-364,-62,0,0,0,0,0,0,0,0,0,-1,860,1086,0,0
-357,-62,0,0,0,0,0,0,0,0,0,-1,867,1086,0,0
-350,-62,0,0,0,0,0,0,0,0,0,-1,874,1086,0,0
-343,-62,0,0,0,0,0,0,0,0,0,-1,881,1086,0,0
-336,-62,0,0,0,0,0,0,0,0,0,-1,888,1086,0,0
-329,-62,0,0,0,0,0,0,0,0,0,-1,895,1086,0,0
-322,-62,0,0,0,0,0,0,0,0,0,-1,902,1086,0,0
-315,-62,0,0,0,0,0,0,0,0,0,-1,909,1086,0,0
-308,-62,0,0,0,0,0,0,0,0,0,-1,916,1086,0,0
-301,-62,0,0,0,0,0,0,0,0,0,-1,923,1086,0,0
-294,-62,0,0,0,0,0,0,0,0,0,-1,930,1086,0,0
-287,-62,0,0,0,0,0,0,0,0,0,-1,937,1086,0,0
-280,-62,0,0,0,0,0,0,0,0,0,-1,944,1086,0,0
-273,-62,0,0,0,0,0,0,0,0,0,-1,951,1086,0,0
-266,-62,0,0,0,0,0,0,0,0,0,-1,958,1086,0,0
-259,-62,0,0,0,0,0,0,0,0,0,-1,965,1086,0,0
-252,-62,0,0,0,0,0,0,0,0,0,-1,972,1086,0,0
-245,-62,0,0,0,0,0,0,0,0,0,-1,979,1086,0,0
-238,-62,0,0,0,0,0,0,0,0,0,-1,986,1086,0,0
-231,-62,0,0,0,0,0,0,0,0,0,-1,993,1086,0,0
-224,-62,0,0,0,0,0,0,0,0,0,-1,1000,1086,0,0
-217,-62,0,0,0,0,0,0,0,0,0,-1,1007,1086,0,0
-210,-62,0,0,0,0,0,0,0,0,0,-1,1014,1086,0,0
-203,-62,0,0,0,0,0,0,0,0,0,-1,1021,1086,0,0
-196,-62,0,0,0,0,0,0,0,0,0,-1,1028,1086,0,0
-189,-62,0,0,0,0,0,0,0,0,0,-1,1035,1086,0,0
-182,-62,0,0,0,0,0,0,0,0,0,-1,1042,1086,0,0
-175,-62,0,0,0,0,0,0,0,0,0,-1,1049,1086,0,0
-168,-62,0,0,0,0,0,0,0,0,0,-1,1056,1086,0,0
-161,-62,0,0,0,0,0,0,0,0,0,-1,1063,1086,0,0
-154,-62,0,0,0,0,0,0,0,0,0,-1,1070,1086,0,0
-147,-62,0,0,0,0,0,0,0,0,0,-1,1077,1086,0,0
-140,-62,0,0,0,0,0,0,0,0,0,-1,1084,1086,0,0
-133,-62,0,0,0,0,0,0,0,0,0,-1,1091,1086,0,0
-126,-62,0,0,0,0,0,0,0,0,0,-1,1098,1086,0,0
-119,-62,0,0,0,0,0,0,0,0,0,-1,1105,1086,0,0
-112,-62,0,0,0,0,0,0,0,0,0,-1,1112,1086,0,0
-105,-62,0,0,0,0,0,0,0,0,0,-1,1119,1086,0,0
-98,-62,0,0,0,0,0,0,0,0,0,-1,1126,1086,0,0
-91,-62,0,0,0,0,0,0,0,0,0,-1,1133,1086,0,0
-84,-62,0,0,0,0,0,0,0,0,0,-1,1140,1086,0,0
-77,-62,0,0,0,0,0,0,0,0,0,-1,1147,1086,0,0
-70,-62,0,0,0,0,0,0,0,0,0,-1,1154,1086,0,0
-63,-62,0,0,0,0,0,0,0,0,0,-1,1161,1086,0,0
-56,-62,0,0,0,0,0,0,0,0,0,-1,1168,1086,0,0
-49,-62,0,0,0,0,0,0,0,0,0,-1,1175,1086,0,0
-42,-62,0,0,0,0,0,0,0,0,0,-1,1182,1086,0,0
-35,-62,0,0,0,0,0,0,0,0,0,-1,1189,1086,0,0
-28,-62,0,0,0,0,0,0,0,0,0,-1,1196,1086,0,0
-21,-62,0,0,0,0,0,0,0,0,0,-1,1203,1086,0,0
-14,-62,0,0,0,0,0,0,0,0,0,-1,1210,1086,0,0
-7,-62,0,0,0,0,0,0,0,0,0,-1,1217,1086,0,0
0,-62,0,0,0,0,0,0,0,0,0,-1,1224,1086,0,0
7,-62,0,0,0,0,0,0,0,0,0,-1,1231,1086,0,0
14,-62,0,0,0,0,0,0,0,0,0,-1,1238,1086,0,0
21,-62,0,0,0,0,0,0,0,0,0,-1,1245,1086,0,0
28,-62,0,0,0,0,0,0,0,0,0,-1,1252,1086,0,0
35,-62,0,0,0,0,0,0,0,0,0,-1,1259,1086,0,0
42,-62,0,0,0,0,0,0,0,0,0,-1,1266,1086,0,0
49,-62,0,0,0,0,0,0,0,0,0,-1,1273,1086,0,0
56,-62,0,0,0,0,0,0,0,0,0,-1,1280,1086,0,0
63,-62,0,0,0,0,0,0,0,0,0,-1,1287,1086,0,0
70,-62,0,0,0,0,0,0,0,0,0,-1,1294,1086,0,0
77,-62,0,0,0,0,0,0,0,0,0,-1,1301,1086,0,0
84,-62,0,0,0,0,0,0,0,0,0,-1,1308,1086,0,0
91,-62,0,0,0,0,0,0,0,0,0,-1,1315,1086,0,0
98,-62,0,0,0,0,0,0,0,0,0,-1,1322,1086,0,0
105,-62,0,0,0,0,0,0,0,0,0,-1,1329,1086,0,0
112,-62,0,0,0,0,0,0,0,0,0,-1,1336,1086,0,0
119,-62,0,0,0,0,0,0,0,0,0,-1,1343,1086,0,0
126,-62,0,0,0,0,0,0,0,0,0,-1,1350,1086,0,0
133,-62,0,0,0,0,0,0,0,0,0,-1,1357,1086,0,0
140,-62,0,0,0,0,0,0,0,0,0,-1,1364,1086,0,0
147,-62,0,0,0,0,0,0,0,0,0,-1,1371,1086,0,0
154,-62,0,0,0,0,0,0,0,0,0,-1,1378,1086,0,0
161,-62,0,0,0,0,0,0,0,0,0,-1,1385,1086,0,0
168,-62,0,0,0,0,0,0,0,0,0,-1,1392,1086,0,0
175,-62,0,0,0,0,0,0,0,0,0,-1,1399,1086,0,0
182,-62,0,0,0,0,0,0,0,0,0,-1,1406,1086,0,0
189,-62,0,0,0,0,0,0,0,0,0,-1,1413,1086,0,0
196,-62,0,0,0,0,0,0,0,0,0,-1,1420,1086,0,0
203,-62,0,0,0,0,0,0,0,0,0,-1,1427,1086,0,0
210,-62,0,0,0,0,0,0,0,0,0,-1,1434,1086,0,0
217,-62,0,0,0,0,0,0,0,0,0,-1,1441,1086,0,0
224,-62,0,0,0,0,0,0,0,0,0,-1,1448,1086,0,0
231,-62,0,0,0,0,0,0,0,0,0,-1,1455,1086,0,0
238,-62,0,0,0,0,0,0,0,0,0,-1,1462,1086,0,0
245,-62,0,0,0,0,0,0,0,0,0,-1,1469,1086,0,0
252,-62,0,0,0,0,0,0,0,0,0,-1,1476,1086,0,0
259,-62,0,0,0,0,0,0,0,0,0,-1,1483,1086,0,0
266,-62,0,0,0,0,0,0,0,0,0,-1,1490,1086,0,0
273,-62,0,0,0,0,0,0,0,0,0,-1,1497,1086,0,0
280,-62,0,0,0,0,0,0,0,0,0,-1,1504,1086,0,0
287,-62,0,0,0,0,0,0,0,0,0,-1,1511,1086,0,0
294,-62,0,0,0,0,0,0,0,0,0,-1,1518,1086,0,0
301,-62,0,0,0,0,0,0,0,0,0,-1,1525,1086,0,0
308,-62,0,0,0,0,0,0,0,0,0,-1,1532,1086,0,0
315,-62,0,0,0,0,0,0,0,0,0,-1,1539,1086,0,0
322,-62,0,0,0,0,0,0,0,0,0,-1,1546,1086,0,0
329,-62,0,0,0,0,0,0,0,0,0,-1,1553,1086,0,0
336,-62,0,0,0,0,0,0,0,0,0,-1,1560,1086,0,0
343,-62,0,0,0,0,0,0,0,0,0,-1,1567,1086,0,0
350,-62,0,0,0,0,0,0,0,0,0,-1,1574,1086,0,0
357,-62,0,0,0,0,0,0,0,0,0,-1,1581,1086,0,0
364,-62,0,0,0,0,0,0,0,0,0,-1,1588,1086,0,0
371,-62,0,0,0,0,0,0,0,0,0,-1,1595,1086,0,0
378,-62,0,0,0,0,0,0,0,0,0,-1,1602,1086,0,0
385,-62,0,0,0,0,0,0,0,0,0,-1,1609,1086,0,0
392,-62,0,0,0,0,0,0,0,0,0,-1,1616,1086,0,0
399,-62,0,0,0,0,0,0,0,0,0,-1,1623,1086,0,0
406,-62,0,0,0,0,0,0,0,0,0,-1,1630,1086,0,0
413,-62,0,0,0,0,0,0,0,0,0,-1,1637,1086,0,0
420,-62,0,0,0,0,0,0,0,0,0,-1,1644,1086,0,0
427,-62,0,0,0,0,0,0,0,0,0,-1,1651,1086,0,0
434,-62,0,0,0,0,0,0,0,0,0,-1,1658,1086,0,0
441,-62,0,0,0,0,0,0,0,0,0,-1,1665,1086,0,0
448,-62,0,0,0,0,0,0,0,0,0,-1,1672,1086,0,0
455,-62,0,0,0,0,0,0,0,0,0,-1,1679,1086,0,0
462,-62,0,0,0,0,0,0,0,0,0,-1,1686,1086,0,0
469,-62,0,0,0,0,0,0,0,0,0,-1,1693,1086,0,0
476,-62,0,0,0,0,0,0,0,0,0,-1,1700,1086,0,0
483,-62,0,0,0,0,0,0,0,0,0,-1,1707,1086,0,0
490,-62,0,0,0,0,0,0,0,0,0,-1,1714,1086,0,0
497,-62,0,0,0,0,0,0,0,0,0,-1,1721,1086,0,0
504,-62,0,0,0,0,0,0,0,0,0,-1,1728,1086,0,0
511,-62,0,0,0,0,0,0,0,0,0,-1,1735,1086,0,0
518,-62,0,0,0,0,0,0,0,0,0,-1,1742,1086,0,0
525,-62,0,0,0,0,0,0,0,0,0,-1,1749,1086,0,0
532,-62,0,0,0,0,0,0,0,0,0,-1,1756,1086,0,0
539,-62,0,0,0,0,0,0,0,0,0,-1,1763,1086,0,0
546,-62,0,0,0,0,0,0,0,0,0,-1,1770,1086,0,0
553,-62,0,0,0,0,0,0,0,0,0,-1,1777,1086,0,0
560,-62,0,0,0,0,0,0,0,0,0,-1,1784,1086,0,0
567,-62,0,0,0,0,0,0,0,0,0,-1,1791,1086,0,0
574,-62,0,0,0,0,0,0,0,0,0,-1,1798,1086,0,0
581,-62,0,0,0,0,0,0,0,0,0,-1,1805,1086,0,0
588,-62,0,0,0,0,0,0,0,0,0,-1,1812,1086,0,0
595,-62,0,0,0,0,0,0,0,0,0,-1,1819,1086,0,0
602,-62,0,0,0,0,0,0,0,0,0,-1,1826,1086,0,0
609,-62,0,0,0,0,0,0,0,0,0,-1,1833,1086,0,0
616,-62,0,0,0,0,0,0,0,0,0,-1,1840,1086,0,0
623,-62,0,0,0,0,0,0,0,0,0,-1,1847,1086,0,0
630,-62,0,0,0,0,0,0,0,0,0,-1,1854,1086,0,0
637,-62,0,0,0,0,0,0,0,0,0,-1,1861,1086,0,0
644,-62,0,0,0,0,0,0,0,0,0,-1,1868,1086,0,0
651,-62,70.396,2.42932,0.00463881,-0.00490367,0.00351262,0.00579237,-0.00605723,0.317307,0.00684194,0.0386695,1875,1086,70.396,-2.42936
658,-62,70.4869,2.56384,0.00325129,-0.00394061,0.0023888,0.00397242,-0.00466175,0.293182,0.00499023,0.0406977,1882,1086,70.487,-2.56389
665,-62,70.3966,2.64917,0.00217907,-0.00305273,0.00146683,0.00256226,-0.00343592,0.255525,0.00347528,0.0415111,1889,1086,70.3967,-2.64912
672,-62,70.4175,2.43933,0.00131036,-0.002102,0.000694145,0.00144616,-0.0022378,0.193195,0.00214324,0.0379216,1896,1086,70.4174,-2.4393
679,-62,70.5916,2.37964,0.000608428,-0.00117071,3.18962e-05,0.000608999,-0.00117128,0.0179202,0.0010448,0.0379445,1903,1086,70.5915,-2.37967
686,-62,70.6469,2.33813,-4.11431e-05,-0.000795551,-0.000311751,7.10109e-05,-0.000907705,-0.345339,0.000630142,0.0396703,1910,1086,70.6468,-2.33817
693,-62,70.5023,2.2395,-0.000496963,-0.00072657,-0.000343846,-0.000249262,-0.000974272,-0.624276,0.000584423,0.0384455,1917,1086,70.5023,-2.23955
700,-62,70.5304,2.24243,-0.000690489,-0.000689676,-0.000156624,-0.000533458,-0.000846706,-0.786696,0.000494326,0.0337339,1924,1086,70.5304,-2.24247
707,-62,70.4575,2.29358,-0.00112753,-0.000533126,0.000127373,-0.000506981,-0.00115367,1.36835,0.000667698,0.0272667,1931,1086,70.4576,-2.2936
714,-62,70.4626,2.19641,-0.00169747,-0.000147726,0.000509681,4.87268e-06,-0.00185007,1.27989,0.00123501,0.0427801,1938,1086,70.4626,-2.19643
721,-62,70.469,2.07996,0,0,0,0,0,0,0,-1,1945,1086,70.469,-2.08001
728,-62,68.3619,8.19885,0,0,0,0,0,0,0,-1,1952,1086,68.3619,-8.19879
735,-62,68.2881,7.65002,-0.00362069,0.00188939,0.0015819,0.00231125,-0.00404255,1.31019,0.00371348,0.03343,1959,1086,68.288,-7.64997
742,-62,68.2213,7.28992,-0.00357853,0.00276512,0.00176605,0.00322364,-0.00403705,1.31677,0.00420072,0.0332557,1966,1086,68.2213,-7.28993
749,-62,68.1891,6.86963,-0.00317459,0.00462172,0.00212877,0.0051651,-0.00371798,1.32088,0.00515128,0.0244554,1973,1086,68.1891,-6.86966
756,-62,68.0906,6.51575,-0.00239701,0.00765721,0.00198173,0.00803372,-0.00277352,1.38304,0.00648124,0.0158341,1980,1086,68.0905,-6.51569
763,-62,68.0486,6.08691,-0.000848256,0.0113727,0.00126579,0.0115024,-0.000977984,1.46867,0.00801421,0.0181784,1987,1086,68.0485,-6.08689
770,-62,68.0012,5.64368,0.00230788,0.0168497,-0.000110096,0.0168505,0.00230705,-1.56323,0.0105491,0.0167189,1994,1086,68.0011,-5.64371
777,-62,67.8418,5.20166,0.00713646,0.0236759,-0.00216785,0.0239553,0.00685704,-1.44261,0.0142457,0.0171504,2001,1086,67.8418,-5.20167
784,-62,67.7969,4.80078,0.0131059,0.0311236,-0.00469304,0.0322727,0.0119568,-1.33067,0.0188398,0.0275141,2008,1086,67.7968,-4.80077
791,-62,67.9111,4.56177,0.0205419,0.0394022,-0.00793694,0.0422977,0.0176464,-1.22098,0.024532,0.0422899,2015,1086,67.9111,-4.56172
798,-62,68.2207,4.19421,0.0298881,0.0487091,-0.0121693,0.054682,0.0239153,-1.11452,0.0316532,0.0422614,2022,1086,68.2207,-4.19425
805,-62,68.4231,3.69763,0.0414827,0.0591202,-0.0175843,0.0699732,0.0306297,-1.01783,0.0405033,0.0415626,2029,1086,68.4231,-3.6976
812,-62,68.5017,3.01697,0.0543659,0.0705518,-0.024503,0.0882638,0.0366539,-0.9449,0.0512024,0.0467466,2036,1086,68.5017,-3.01696
-700,-69,-51.8175,-0.765747,0,0,0,0,0,0,0,-1,524,1093,-51.8175,0.765697
-693,-69,-43.6682,-3.46033,0,0,0,0,0,0,0,-1,531,1093,-43.6682,3.46031
-686,-69,-44.2352,-3.00256,0,0,0,0,0,0,0,-1,538,1093,-44.2352,3.00253
-679,-69,-52.2173,-0.997925,0,0,0,0,0,0,0,-1,545,1093,-52.2174,0.997953
-672,-69,-50.79,-0.457397,0,0,0,0,0,0,0,-1,552,1093,-50.79,0.457343
-665,-69,-50.0447,0.474731,0,0,0,0,0,0,0,-1,559,1093,-50.0447,-0.474704
-658,-69,-51.3428,1.25269,0,0,0,0,0,0,0,-1,566,1093,-51.3428,-1.25271
-651,-69,-50.3486,2.71582,0,0,0,0,0,0,0,-1,573,1093,-50.3486,-2.71579
-644,-69,-52.129,3.29468,0,0,0,0,0,0,0,-1,580,1093,-52.1289,-3.29473
-637,-69,-52.1104,3.7832,0.00900827,0.0121979,0.00147845,0.0127778,0.0084284,1.19702,0.00750151,0.0189896,587,1093,-52.1104,-3.7832
-630,-69,-52.1404,4.23889,0.00421167,0.00839921,0.000388577,0.00843496,0.00417592,1.47905,0.00487,0.0158602,594,1093,-52.1404,-4.23891
-623,-69,-52.1578,4.70508,0.00180695,0.00488092,-0.000691112,0.00502915,0.00165872,-1.35951,0.00295911,0.0199542,601,1093,-52.1578,-4.70511
-616,-69,-52.1938,5.16687,0.000947096,0.00208565,-0.0013907,0.00301908,1.36676e-05,-0.979667,0.00200818,0.0247109,608,1093,-52.1938,-5.16685
-609,-69,-52.2063,5.62439,0.00148702,0.000372319,-0.00155742,0.00258382,-0.000724475,-0.613564,0.00200808,0.0214862,615,1093,-52.2063,-5.62444
-602,-69,-52.1478,6.07996,0.00230365,-0.000893368,-0.00208042,0.00332877,-0.00191848,-0.457825,0.00306576,0.020814,622,1093,-52.1478,-6.07999
-595,-69,-52.0333,6.46875,0.00291006,-0.00141192,-0.00230772,0.00391063,-0.00241249,-0.40911,0.00368465,0.0461649,629,1093,-52.0333,-6.46869
-588,-69,-52.0487,6.88147,0,0,0,0,0,0,0,-1,636,1093,-52.0487,-6.88152
-581,-69,-54.4481,0.646606,0,0,0,0,0,0,0,-1,643,1093,-54.4481,-0.646586
-574,-69,-54.4118,0.478394,0.00401231,-0.00243014,-0.00284395,0.0050881,-0.00350593,-0.361637,0.00498972,0.031837,650,1093,-54.4118,-0.478386
-567,-69,-54.3615,0.412598,0.00395654,-0.00222037,-0.00310782,0.00524954,-0.00351336,-0.394262,0.00509226,0.0361904,657,1093,-54.3615,-0.412617
-560,-69,-54.3497,0.407715,0.00343092,-0.00173468,-0.00345609,0.00516268,-0.00346644,-0.464507,0.00501401,0.0388704,664,1093,-54.3497,-0.407735
-553,-69,-54.271,0.403931,0.002394,-0.00106105,-0.0039207,0.0049509,-0.00361794,-0.577887,0.00496713,0.0376033,671,1093,-54.271,-0.403966
-546,-69,-54.3348,0.265015,0.00114443,-0.000335972,-0.00456546,0.0050293,-0.00422085,-0.705032,0.00534737,0.0347708,678,1093,-54.3348,-0.265034
-539,-69,-54.3012,0.162354,7.66493e-05,-7.15714e-05,-0.00546264,0.00546569,-0.00546061,-0.778615,0.0063083,0.0365769,685,1093,-54.3012,-0.162397
-532,-69,-54.0958,0.0463867,-0.00086473,0.000387516,-0.0061362,0.00592946,-0.00640667,-0.836241,0.00712405,0.0427822,692,1093,-54.0958,-0.0464062
-525,-69,0,0,0,0,0,0,0,0,0,-1,699,1093,0,0
-518,-69,0,0,0,0,0,0,0,0,0,-1,706,1093,0,0
-511,-69,0,0,0,0,0,0,0,0,0,-1,713,1093,0,0
-504,-69,0,0,0,0,0,0,0,0,0,-1,720,1093,0,0
-497,-69,0,0,0,0,0,0,0,0,0,-1,727,1093,0,0
-490,-69,0,0,0,0,0,0,0,0,0,-1,734,1093,0,0
-483,-69,0,0,0,0,0,0,0,0,0,-1,741,1093,0,0
-476,-69,0,0,0,0,0,0,0,0,0,-1,748,1093,0,0
-469,-69,0,0,0,0,0,0,0,0,0,-1,755,1093,0,0
-462,-69,0,0,0,0,0,0,0,0,0,-1,762,1093,0,0
-455,-69,0,0,0,0,0,0,0,0,0,-1,769,1093,0,0
-448,-69,0,0,0,0,0,0,0,0,0,-1,776,1093,0,0
-441,-69,0,0,0,0,0,0,0,0,0,-1,783,1093,0,0
-434,-69,0,0,0,0,0,0,0,0,0,-1,790,1093,0,0
-427,-69,0,0,0,0,0,0,0,0,0,-1,797,1093,0,0
-420,-69,0,0,0,0,0,0,0,0,0,-1,804,1093,0,0
-413,-69,0,0,0,0,0,0,0,0,0,-1,811,1093,0,0
-406,-69,0,0,0,0,0,0,0,0,0,-1,818,1093,0,0
-399,-69,0,0,0,0,0,0,0,0,0,-1,825,1093,0,0
-392,-69,0,0,0,0,0,0,0,0,0,-1,832,1093,0,0
-385,-69,0,0,0,0,0,0,0,0,0,-1,839,1093,0,0
-378,-69,0,0,0,0,0,0,0,0,0,-1,846,1093,0,0
-371,-69,0,0,0,0,0,0,0,0,0,-1,853,1093,0,0
-364,-69,0,0,0,0,0,0,0,0,0,-1,860,1093,0,0
-357,-69,0,0,0,0,0,0,0,0,0,-1,867,1093,0,0
-350,-69,0,0,0,0,0,0,0,0,0,-1,874,1093,0,0
-343,-69,0,0,0,0,0,0,0,0,0,-1,881,1093,0,0
-336,-69,0,0,0,0,0,0,0,0,0,-1,888,1093,0,0
-329,-69,0,0,0,0,0,0,0,0,0,-1,895,1093,0,0
-322,-69,0,0,0,0,0,0,0,0,0,-1,902,1093,0,0
-315,-69,0,0,0,0,0,0,0,0,0,-1,909,1093,0,0
-308,-69,0,0,0,0,0,0,0,0,0,-1,916,1093,0,0
-301,-69,0,0,0,0,0,0,0,0,0,-1,923,1093,0,0
-294,-69,0,0,0,0,0,0,0,0,0,-1,930,1093,0,0
-287,-69,0,0,0,0,0,0,0,0,0,-1,937,1093,0,0
-280,-69,0,0,0,0,0,0,0,0,0,-1,944,1093,0,0
-273,-69,0,0,0,0,0,0,0,0,0,-1,951,1093,0,0
-266,-69,0,0,0,0,0,0,0,0,0,-1,958,1093,0,0
-259,-69,0,0,0,0,0,0,0,0,0,-1,965,1093,0,0
-252,-69,0,0,0,0,0,0,0,0,0,-1,972,1093,0,0
-245,-69,0,0,0,0,0,0,0,0,0,-1,979,1093,0,0
-238,-69,0,0,0,0,0,0,0,0,0,-1,986,1093,0,0
-231,-69,0,0,0,0,0,0,0,0,0,-1,993,1093,0,0
-224,-69,0,0,0,0,0,0,0,0,0,-1,1000,1093,0,0
-217,-69,0,0,0,0,0,0,0,0,0,-1,1007,1093,0,0
-210,-69,0,0,0,0,0,0,0,0,0,-1,1014,1093,0,0
-203,-69,0,0,0,0,0,0,0,0,0,-1,1021,1093,0,0
-196,-69,0,0,0,0,0,0,0,0,0,-1,1028,1093,0,0
-189,-69,0,0,0,0,0,0,0,0,0,-1,1035,1093,0,0
-182,-69,0,0,0,0,0,0,0,0,0,-1,1042,1093,0,0
-175,-69,0,0,0,0,0,0,0,0,0,-1,1049,1093,0,0
-168,-69,0,0,0,0,0,0,0,0,0,-1,1056,1093,0,0
-161,-69,0,0,0,0,0,0,0,0,0,-1,1063,1093,0,0
-154,-69,0,0,0,0,0,0,0,0,0,-1,1070,1093,0,0
-147,-69,0,0,0,0,0,0,0,0,0,-1,1077,1093,0,0
-140,-69,0,0,0,0,0,0,0,0,0,-1,1084,1093,0,0
-133,-69,0,0,0,0,0,0,0,0,0,-1,1091,1093,0,0
-126,-69,0,0,0,0,0,0,0,0,0,-1,1098,1093,0,0
-119,-69,0,0,0,0,0,0,0,0,0,-1,1105,1093,0,0
-112,-69,0,0,0,0,0,0,0,0,0,-1,1112,1093,0,0
-105,-69,0,0,0,0,0,0,0,0,0,-1,1119,1093,0,0
-98,-69,0,0,0,0,0,0,0,0,0,-1,1126,1093,0,0
-91,-69,0,0,0,0,0,0,0,0,0,-1,1133,1093,0,0
-84,-69,0,0,0,0,0,0,0,0,0,-1,1140,1093,0,0
-77,-69,0,0,0,0,0,0,0,0,0,-1,1147,1093,0,0
-70,-69,0,0,0,0,0,0,0,0,0,-1,1154,1093,0,0
-63,-69,0,0,0,0,0,0,0,0,0,-1,1161,1093,0,0
-56,-69,0,0,0,0,0,0,0,0,0,-1,1168,1093,0,0
-49,-69,0,0,0,0,0,0,0,0,0,-1,1175,1093,0,0
-42,-69,0,0,0,0,0,0,0,0,0,-1,1182,1093,0,0
-35,-69,0,0,0,0,0,0,0,0,0,-1,1189,1093,0,0
-28,-69,0,0,0,0,0,0,0,0,0,-1,1196,1093,0,0
-21,-69,0,0,0,0,0,0,0,0,0,-1,1203,1093,0,0
-14,-69,0,0,0,0,0,0,0,0,0,-1,1210,1093,0,0
-7,-69,0,0,0,0,0,0,0,0,0,-1,1217,1093,0,0
0,-69,0,0,0,0,0,0,0,0,0,-1,1224,1093,0,0
7,-69,0,0,0,0,0,0,0,0,0,-1,1231,1093,0,0
14,-69,0,0,0,0,0,0,0,0,0,-1,1238,1093,0,0
21,-69,0,0,0,0,0,0,0,0,0,-1,1245,1093,0,0
28,-69,0,0,0,0,0,0,0,0,0,-1,1252,1093,0,0
35,-69,0,0,0,0,0,0,0,0,0,-1,1259,1093,0,0
42,-69,0,0,0,0,0,0,0,0,0,-1,1266,1093,0,0
49,-69,0,0,0,0,0,0,0,0,0,-1,1273,1093,0,0
56,-69,0,0,0,0,0,0,0,0,0,-1,1280,1093,0,0
63,-69,0,0,0,0,0,0,0,0,0,-1,1287,1093,0,0
70,-69,0,0,0,0,0,0,0,0,0,-1,1294,1093,0,0
77,-69,0,0,0,0,0,0,0,0,0,-1,1301,1093,0,0
84,-69,0,0,0,0,0,0,0,0,0,-1,1308,1093,0,0
91,-69,0,0,0,0,0,0,0,0,0,-1,1315,1093,0,0
98,-69,0,0,0,0,0,0,0,0,0,-1,1322,1093,0,0
105,-69,0,0,0,0,0,0,0,0,0,-1,1329,1093,0,0
112,-69,0,0,0,0,0,0,0,0,0,-1,1336,1093,0,0
119,-69,0,0,0,0,0,0,0,0,0,-1,1343,1093,0,0
126,-69,0,0,0,0,0,0,0,0,0,-1,1350,1093,0,0
133,-69,0,0,0,0,0,0,0,0,0,-1,1357,1093,0,0
140,-69,0,0,0,0,0,0,0,0,0,-1,1364,1093,0,0
147,-69,0,0,0,0,0,0,0,0,0,-1,1371,1093,0,0
154,-69,0,0,0,0,0,0,0,0,0,-1,1378,1093,0,0
161,-69,0,0,0,0,0,0,0,0,0,-1,1385,1093,0,0
168,-69,0,0,0,0,0,0,0,0,0,-1,1392,1093,0,0
175,-69,0,0,0,0,0,0,0,0,0,-1,1399,1093,0,0
182,-69,0,0,0,0,0,0,0,0,0,-1,1406,1093,0,0
189,-69,0,0,0,0,0,0,0,0,0,-1,1413,1093,0,0
196,-69,0,0,0,0,0,0,0,0,0,-1,1420,1093,0,0
203,-69,0,0,0,0,0,0,0,0,0,-1,1427,1093,0,0
210,-69,0,0,0,0,0,0,0,0,0,-1,1434,1093,0,0
217,-69,0,0,0,0,0,0,0,0,0,-1,1441,1093,0,0
224,-69,0,0,0,0,0,0,0,0,0,-1,1448,1093,0,0
231,-69,0,0,0,0,0,0,0,0,0,-1,1455,1093,0,0
238,-69,0,0,0,0,0,0,0,0,0,-1,1462,1093,0,0
245,-69,0,0,0,0,0,0,0,0,0,-1,1469,1093,0,0
252,-69,0,0,0,0,0,0,0,0,0,-1,1476,1093,0,0
259,-69,0,0,0,0,0,0,0,0,0,-1,1483,1093,0,0
266,-69,0,0,0,0,0,0,0,0,0,-1,1490,1093,0,0
273,-69,0,0,0,0,0,0,0,0,0,-1,1497,1093,0,0
280,-69,0,0,0,0,0,0,0,0,0,-1,1504,1093,0,0
287,-69,0,0,0,0,0,0,0,0,0,-1,1511,1093,0,0
294,-69,0,0,0,0,0,0,0,0,0,-1,1518,1093,0,0
301,-69,0,0,0,0,0,0,0,0,0,-1,1525,1093,0,0
308,-69,0,0,0,0,0,0,0,0,0,-1,1532,1093,0,0
315,-69,0,0,0,0,0,0,0,0,0,-1,1539,1093,0,0
322,-69,0,0,0,0,0,0,0,0,0,-1,1546,1093,0,0
329,-69,0,0,0,0,0,0,0,0,0,-1,1553,1093,0,0
336,-69,0,0,0,0,0,0,0,0,0,-1,1560,1093,0,0
343,-69,0,0,0,0,0,0,0,0,0,-1,1567,1093,0,0
350,-69,0,0,0,0,0,0,0,0,0,-1,1574,1093,0,0
357,-69,0,0,0,0,0,0,0,0,0,-1,1581,1093,0,0
364,-69,0,0,0,0,0,0,0,0,0,-1,1588,1093,0,0
371,-69,0,0,0,0,0,0,0,0,0,-1,1595,1093,0,0
378,-69,0,0,0,0,0,0,0,0,0,-1,1602,1093,0,0
385,-69,0,0,0,0,0,0,0,0,0,-1,1609,1093,0,0
392,-69,0,0,0,0,0,0,0,0,0,-1,1616,1093,0,0
399,-69,0,0,0,0,0,0,0,0,0,-1,1623,1093,0,0
406,-69,0,0,0,0,0,0,0,0,0,-1,1630,1093,0,0
413,-69,0,0,0,0,0,0,0,0,0,-1,1637,1093,0,0
420,-69,0,0,0,0,0,0,0,0,0,-1,1644,1093,0,0
427,-69,0,0,0,0,0,0,0,0,0,-1,1651,1093,0,0
434,-69,0,0,0,0,0,0,0,0,0,-1,1658,1093,0,0
441,-69,0,0,0,0,0,0,0,0,0,-1,1665,1093,0,0
448,-69,0,0,0,0,0,0,0,0,0,-1,1672,1093,0,0
455,-69,0,0,0,0,0,0,0,0,0,-1,1679,1093,0,0
462,-69,0,0,0,0,0,0,0,0,0,-1,1686,1093,0,0
469,-69,0,0,0,0,0,0,0,0,0,-1,1693,1093,0,0
476,-69,0,0,0,0,0,0,0,0,0,-1,1700,1093,0,0
483,-69,0,0,0,0,0,0,0,0,0,-1,1707,1093,0,0
490,-69,0,0,0,0,0,0,0,0,0,-1,1714,1093,0,0
497,-69,0,0,0,0,0,0,0,0,0,-1,1721,1093,0,0
504,-69,0,0,0,0,0,0,0,0,0,-1,1728,1093,0,0
511,-69,0,0,0,0,0,0,0,0,0,-1,1735,1093,0,0
518,-69,0,0,0,0,0,0,0,0,0,-1,1742,1093,0,0
525,-69,0,0,0,0,0,0,0,0,0,-1,1749,1093,0,0
532,-69,0,0,0,0,0,0,0,0,0,-1,1756,1093,0,0
539,-69,0,0,0,0,0,0,0,0,0,-1,1763,1093,0,0
546,-69,0,0,0,0,0,0,0,0,0,-1,1770,1093,0,0
553,-69,0,0,0,0,0,0,0,0,0,-1,1777,1093,0,0
560,-69,0,0,0,0,0,0,0,0,0,-1,1784,1093,0,0
567,-69,0,0,0,0,0,0,0,0,0,-1,1791,1093,0,0
574,-69,0,0,0,0,0,0,0,0,0,-1,1798,1093,0,0
581,-69,0,0,0,0,0,0,0,0,0,-1,1805,1093,0,0
588,-69,0,0,0,0,0,0,0,0,0,-1,1812,1093,0,0
595,-69,0,0,0,0,0,0,0,0,0,-1,1819,1093,0,0
602,-69,0,0,0,0,0,0,0,0,0,-1,1826,1093,0,0
609,-69,0,0,0,0,0,0,0,0,0,-1,1833,1093,0,0
616,-69,0,0,0,0,0,0,0,0,0,-1,1840,1093,0,0
623,-69,0,0,0,0,0,0,0,0,0,-1,1847,1093,0,0
630,-69,0,0,0,0,0,0,0,0,0,-1,1854,1093,0,0
637,-69,0,0,0,0,0,0,0,0,0,-1,1861,1093,0,0
644,-69,0,0,0,0,0,0,0,0,0,-1,1868,1093,0,0
651,-69,70.3213,2.30737,0,0,0,0,0,0,0,-1,1875,1093,70.3213,-2.30736
658,-69,70.4692,1.9259,0,0,0,0,0,0,0,-1,1882,1093,70.4693,-1.92593
665,-69,70.5752,2.22656,0,0,0,0,0,0,0,-1,1889,1093,70.5752,-2.22654
672,-69,70.3976,2.44153,0.00167233,-0.00211566,0.000601613,0.00176558,-0.00220891,0.153781,0.00229943,0.0380504,1896,1093,70.3975,-2.4415
679,-69,70.4392,2.46667,0.000895396,-0.00132364,-9.74467e-05,0.000899667,-0.00132791,-0.0438016,0.00129399,0.0377877,1903,1093,70.4393,-2.46666
686,-69,70.53,2.41357,0.000276085,-0.00102583,-0.000458834,0.00042154,-0.00117129,-0.30699,0.000952973,0.0375927,1910,1093,70.5301,-2.41352
693,-69,70.4899,2.19128,-0.000142384,-0.000991064,-0.000506649,9.41521e-05,-0.0012276,-0.43679,0.000851521,0.0360256,1917,1093,70.4898,-2.19129
700,-69,70.486,2.20496,-0.000289204,-0.000979219,-0.000331451,-0.000155787,-0.00111264,-0.38268,0.000695667,0.0316744,1924,1093,70.486,-2.20493
707,-69,70.4484,2.22815,-0.000692348,-0.000822854,-5.41269e-05,-0.00067282,-0.000842381,-0.346233,0.000514467,0.0268823,1931,1093,70.4484,-2.22813
714,-69,70.4347,2.09106,-0.00122675,-0.000431743,0.000315313,-0.000321869,-0.00133662,1.2355,0.00080552,0.0371446,1938,1093,70.4347,-2.09106
721,-69,70.4305,1.93201,0,0,0,0,0,0,0,-1,1945,1093,70.4306,-1.93197
728,-69,67.4717,8.37866,0,0,0,0,0,0,0,-1,1952,1093,67.4717,-8.37871
735,-69,67.8134,7.80347,-0.00283459,0.00152504,0.00138966,0.00193033,-0.00323988,1.28702,0.00301677,0.0458438,1959,1093,67.8134,-7.8035
742,-69,67.6873,7.43921,-0.00269704,0.00239018,0.00155873,0.00282979,-0.00313665,1.29591,0.00344624,0.0344054,1966,1093,67.6873,-7.43924
749,-69,67.5106,6.92346,-0.00228178,0.00414969,0.00192336,0.00468099,-0.00281309,1.30128,0.00437128,0.0357693,1973,1093,67.5106,-6.92352
756,-69,67.5785,6.49915,-0.00151011,0.00701558,0.00176576,0.00736682,-0.00186135,1.37444,0.00563508,0.018467,1980,1093,67.5785,-6.49912
763,-69,67.5513,6.06116,9.77933e-05,0.0106597,0.00100577,0.0107546,2.87127e-06,1.4767,0.00716877,0.019695,1987,1093,67.5512,-6.06119
770,-69,67.4507,5.64575,0.00330345,0.0160205,-0.000507033,0.0160407,0.00328327,-1.53101,0.00978473,0.0227403,1994,1093,67.4506,-5.64574
777,-69,67.3044,5.22412,0.00805282,0.022598,-0.00272846,0.023093,0.00755785,-1.39134,0.0135953,0.0279176,2001,1093,67.3045,-5.22414
784,-69,67.3269,4.60132,0.0139246,0.029806,-0.00546453,0.0315046,0.012226,-1.26943,0.0183405,0.0350428,2008,1093,67.3269,-4.60131
791,-69,67.8281,4.27234,0.0213284,0.0378887,-0.0090246,0.0418561,0.0173609,-1.1566,0.0242824,0.0450186,2015,1093,67.8281,-4.27237
798,-69,68.3535,3.15125,0.0306893,0.0470309,-0.0137331,0.05484,0.0228801,-1.05376,0.0318062,0.0462141,2022,1093,68.3536,-3.15129
805,-69,68.9114,2.21655,0.0423741,0.057356,-0.019839,0.0710712,0.0286589,-0.965916,0.0412883,0.0473314,2029,1093,68.9114,-2.21656
812,-69,66.3789,0.83606,0,0,0,0,0,0,0,-1,2036,1093,66.3789,-0.836115
-700,-76,0,0,0,0,0,0,0,0,0,-1,524,1100,0,0
-693,-76,-44.0942,-2.31824,0,0,0,0,0,0,0,-1,531,1100,-44.0942,2.31821
-686,-76,-52.489,-2.00378,0,0,0,0,0,0,0,-1,538,1100,-52.489,2.0038
-679,-76,-51.9002,-1.07813,0,0,0,0,0,0,0,-1,545,1100,-51.9002,1.07817
-672,-76,-51.3586,-0.161743,0,0,0,0,0,0,0,-1,552,1100,-51.3586,0.161737
-665,-76,-50.8765,0.324219,0,0,0,0,0,0,0,-1,559,1100,-50.8765,-0.324277
-658,-76,-49.8206,1.08411,0,0,0,0,0,0,0,-1,566,1100,-49.8205,-1.08405
-651,-76,-49.6233,2.99988,0,0,0,0,0,0,0,-1,573,1100,-49.6233,-2.99991
-644,-76,-51.4321,3.21069,0,0,0,0,0,0,0,-1,580,1100,-51.4321,-3.21069
-637,-76,-51.5414,3.70032,0.00717675,0.012459,0.00261071,0.0135316,0.00610421,1.18099,0.0078249,0.0230831,587,1100,-51.5414,-3.70032
-630,-76,-51.5634,4.19373,0.00318635,0.00815519,0.000789985,0.00827776,0.00306377,1.41686,0.00483262,0.0155861,594,1100,-51.5634,-4.19368
-623,-76,-51.5881,4.67566,0.00132898,0.0042959,-0.000630295,0.00442424,0.00120063,-1.36991,0.00264185,0.021575,601,1100,-51.5881,-4.67568
-616,-76,-51.6845,5.20764,0.000988513,0.00157308,-0.00131801,0.00263083,-6.92288e-05,-0.894514,0.00177741,0.0222468,608,1100,-51.6845,-5.20765
-609,-76,-51.6898,5.66797,0.0018017,4.40157e-05,-0.00143894,0.00260896,-0.000763235,-0.511252,0.00204183,0.0210978,615,1100,-51.6898,-5.66802
-602,-76,-51.6057,6.10388,0.0027728,-0.00100873,-0.00191128,0.00357053,-0.00180645,-0.395397,0.0031596,0.0205025,622,1100,-51.6057,-6.1039
-595,-76,-51.6104,6.51758,0.00337981,-0.00146409,-0.00219312,0.00422521,-0.0023095,-0.367928,0.00382648,0.0411151,629,1100,-51.6103,-6.51758
-588,-76,-51.7433,7.01599,0,0,0,0,0,0,0,-1,636,1100,-51.7433,-7.01598
-581,-76,-54.4269,0.37915,0,0,0,0,0,0,0,-1,643,1100,-54.4269,-0.379124
-574,-76,-54.3665,0.472168,0.0046484,-0.00276185,-0.00283929,0.0056112,-0.00372465,-0.32693,0.00542662,0.0344988,650,1100,-54.3665,-0.472195
-567,-76,-54.241,0.525635,0.00467158,-0.00271331,-0.00314343,0.0058284,-0.00387012,-0.352628,0.00563736,0.0408214,657,1100,-54.241,-0.525643
-560,-76,-54.2101,0.500854,0.00419946,-0.00243075,-0.00353013,0.00572705,-0.00395834,-0.4084,0.00562286,0.0420031,664,1100,-54.2101,-0.500821
-553,-76,-54.1869,0.538818,0.00306138,-0.00198964,-0.00405312,0.00531143,-0.00423969,-0.506781,0.0055259,0.0418197,671,1100,-54.1869,-0.538806
-546,-76,-54.2538,0.391602,0.00163295,-0.00152648,-0.00473619,0.00504594,-0.00493946,-0.62443,0.00576518,0.0400958,678,1100,-54.2538,-0.391644
-539,-76,-54.2635,0.239258,0.000464282,-0.00163932,-0.00562186,0.00513188,-0.00630692,-0.692921,0.0066158,0.0400355,685,1100,-54.2635,-0.239206
-532,-76,-54.1331,0.216553,-0.00056679,-0.00156936,-0.00627736,0.00522927,-0.00736542,-0.745555,0.00730632,0.0435969,692,1100,-54.1331,-0.216508
-525,-76,0,0,0,0,0,0,0,0,0,-1,699,1100,0,0
-518,-76,0,0,0,0,0,0,0,0,0,-1,706,1100,0,0
-511,-76,0,0,0,0,0,0,0,0,0,-1,713,1100,0,0
-504,-76,0,0,0,0,0,0,0,0,0,-1,720,1100,0,0
-497,-76,0,0,0,0,0,0,0,0,0,-1,727,1100,0,0
-490,-76,0,0,0,0,0,0,0,0,0,-1,734,1100,0,0
-483,-76,0,0,0,0,0,0,0,0,0,-1,741,1100,0,0
-476,-76,0,0,0,0,0,0,0,0,0,-1,748,1100,0,0
-469,-76,0,0,0,0,0,0,0,0,0,-1,755,1100,0,0
-462,-76,0,0,0,0,0,0,0,0,0,-1,762,1100,0,0
-455,-76,0,0,0,0,0,0,0,0,0,-1,769,1100,0,0
-448,-76,0,0,0,0,0,0,0,0,0,-1,776,1100,0,0
-441,-76,0,0,0,0,0,0,0,0,0,-1,783,1100,0,0
-434,-76,0,0,0,0,0,0,0,0,0,-1,790,1100,0,0
-427,-76,0,0,0,0,0,0,0,0,0,-1,797,1100,0,0
-420,-76,0,0,0,0,0,0,0,0,0,-1,804,1100,0,0
-413,-76,0,0,0,0,0,0,0,0,0,-1,811,1100,0,0
-406,-76,0,0,0,0,0,0,0,0,0,-1,818,1100,0,0
-399,-76,0,0,0,0,0,0,0,0,0,-1,825,1100,0,0
-392,-76,0,0,0,0,0,0,0,0,0,-1,832,1100,0,0
-385,-76,0,0,0,0,0,0,0,0,0,-1,839,1100,0,0
-378,-76,0,0,0,0,0,0,0,0,0,-1,846,1100,0,0
-371,-76,0,0,0,0,0,0,0,0,0,-1,853,1100,0,0
-364,-76,0,0,0,0,0,0,0,0,0,-1,860,1100,0,0
-357,-76,0,0,0,0,0,0,0,0,0,-1,867,1100,0,0
-350,-76,0,0,0,0,0,0,0,0,0,-1,874,1100,0,0
-343,-76,0,0,0,0,0,0,0,0,0,-1,881,1100,0,0
-336,-76,0,0,0,0,0,0,0,0,0,-1,888,1100,0,0
-329,-76,0,0,0,0,0,0,0,0,0,-1,895,1100,0,0
-322,-76,0,0,0,0,0,0,0,0,0,-1,902,1100,0,0
-315,-76,0,0,0,0,0,0,0,0,0,-1,909,1100,0,0
-308,-76,0,0,0,0,0,0,0,0,0,-1,916,1100,0,0
-301,-76,0,0,0,0,0,0,0,0,0,-1,923,1100,0,0
-294,-76,0,0,0,0,0,0,0,0,0,-1,930,1100,0,0
-287,-76,0,0,0,0,0,0,0,0,0,-1,937,1100,0,0
-280,-76,0,0,0,0,0,0,0,0,0,-1,944,1100,0,0
-273,-76,0,0,0,0,0,0,0,0,0,-1,951,1100,0,0
-266,-76,0,0,0,0,0,0,0,0,0,-1,958,1100,0,0
-259,-76,0,0,0,0,0,0,0,0,0,-1,965,1100,0,0
-252,-76,0,0,0,0,0,0,0,0,0,-1,972,1100,0,0
-245,-76,0,0,0,0,0,0,0,0,0,-1,979,1100,0,0
-238,-76,0,0,0,0,0,0,0,0,0,-1,986,1100,0,0
-231,-76,0,0,0,0,0,0,0,0,0,-1,993,1100,0,0
-224,-76,0,0,0,0,0,0,0,0,0,-1,1000,1100,0,0
-217,-76,0,0,0,0,0,0,0,0,0,-1,1007,1100,0,0
-210,-76,0,0,0,0,0,0,0,0,0,-1,1014,1100,0,0
-203,-76,0,0,0,0,0,0,0,0,0,-1,1021,1100,0,0
-196,-76,0,0,0,0,0,0,0,0,0,-1,1028,1100,0,0
-189,-76,0,0,0,0,0,0,0,0,0,-1,1035,1100,0,0
-182,-76,0,0,0,0,0,0,0,0,0,-1,1042,1100,0,0
-175,-76,0,0,0,0,0,0,0,0,0,-1,1049,1100,0,0
-168,-76,0,0,0,0,0,0,0,0,0,-1,1056,1100,0,0
-161,-76,0,0,0,0,0,0,0,0,0,-1,1063,1100,0,0
-154,-76,0,0,0,0,0,0,0,0,0,-1,1070,1100,0,0
-147,-76,0,0,0,0,0,0,0,0,0,-1,1077,1100,0,0
-140,-76,0,0,0,0,0,0,0,0,0,-1,1084,1100,0,0
-133,-76,0,0,0,0,0,0,0,0,0,-1,1091,1100,0,0
-126,-76,0,0,0,0,0,0,0,0,0,-1,1098,1100,0,0
-119,-76,0,0,0,0,0,0,0,0,0,-1,1105,1100,0,0
-112,-76,0,0,0,0,0,0,0,0,0,-1,1112,1100,0,0
-105,-76,0,0,0,0,0,0,0,0,0,-1,1119,1100,0,0
-98,-76,0,0,0,0,0,0,0,0,0,-1,1126,1100,0,0
-91,-76,0,0,0,0,0,0,0,0,0,-1,1133,1100,0,0
-84,-76,0,0,0,0,0,0,0,0,0,-1,1140,1100,0,0
-77,-76,0,0,0,0,0,0,0,0,0,-1,1147,1100,0,0
-70,-76,0,0,0,0,0,0,0,0,0,-1,1154,1100,0,0
-63,-76,0,0,0,0,0,0,0,0,0,-1,1161,1100,0,0
-56,-76,0,0,0,0,0,0,0,0,0,-1,1168,1100,0,0
-49,-76,0,0,0,0,0,0,0,0,0,-1,1175,1100,0,0
-42,-76,0,0,0,0,0,0,0,0,0,-1,1182,1100,0,0
-35,-76,0,0,0,0,0,0,0,0,0,-1,1189,1100,0,0
-28,-76,0,0,0,0,0,0,0,0,0,-1,1196,1100,0,0
-21,-76,0,0,0,0,0,0,0,0,0,-1,1203,1100,0,0
-14,-76,0,0,0,0,0,0,0,0,0,-1,1210,1100,0,0
-7,-76,0,0,0,0,0,0,0,0,0,-1,1217,1100,0,0
0,-76,0,0,0,0,0,0,0,0,0,-1,1224,1100,0,0
7,-76,0,0,0,0,0,0,0,0,0,-1,1231,1100,0,0
14,-76,0,0,0,0,0,0,0,0,0,-1,1238,1100,0,0
21,-76,0,0,0,0,0,0,0,0,0,-1,1245,1100,0,0
28,-76,0,0,0,0,0,0,0,0,0,-1,1252,1100,0,0
35,-76,0,0,0,0,0,0,0,0,0,-1,1259,1100,0,0
42,-76,0,0,0,0,0,0,0,0,0,-1,1266,1100,0,0
49,-76,0,0,0,0,0,0,0,0,0,-1,1273,1100,0,0
56,-76,0,0,0,0,0,0,0,0,0,-1,1280,1100,0,0
63,-76,0,0,0,0,0,0,0,0,0,-1,1287,1100,0,0
70,-76,0,0,0,0,0,0,0,0,0,-1,1294,1100,0,0
77,-76,0,0,0,0,0,0,0,0,0,-1,1301,1100,0,0
84,-76,0,0,0,0,0,0,0,0,0,-1,1308,1100,0,0
91,-76,0,0,0,0,0,0,0,0,0,-1,1315,1100,0,0
98,-76,0,0,0,0,0,0,0,0,0,-1,1322,1100,0,0
105,-76,0,0,0,0,0,0,0,0,0,-1,1329,1100,0,0
112,-76,0,0,0,0,0,0,0,0,0,-1,1336,1100,0,0
119,-76,0,0,0,0,0,0,0,0,0,-1,1343,1100,0,0
126,-76,0,0,0,0,0,0,0,0,0,-1,1350,1100,0,0
133,-76,0,0,0,0,0,0,0,0,0,-1,1357,1100,0,0
140,-76,0,0,0,0,0,0,0,0,0,-1,1364,1100,0,0
147,-76,0,0,0,0,0,0,0,0,0,-1,1371,1100,0,0
154,-76,0,0,0,0,0,0,0,0,0,-1,1378,1100,0,0
161,-76,0,0,0,0,0,0,0,0,0,-1,1385,1100,0,0
168,-76,0,0,0,0,0,0,0,0,0,-1,1392,1100,0,0
175,-76,0,0,0,0,0,0,0,0,0,-1,1399,1100,0,0
182,-76,0,0,0,0,0,0,0,0,0,-1,1406,1100,0,0
189,-76,0,0,0,0,0,0,0,0,0,-1,1413,1100,0,0
196,-76,0,0,0,0,0,0,0,0,0,-1,1420,1100,0,0
203,-76,0,0,0,0,0,0,0,0,0,-1,1427,1100,0,0
210,-76,0,0,0,0,0,0,0,0,0,-1,1434,1100,0,0
217,-76,0,0,0,0,0,0,0,0,0,-1,1441,1100,0,0
224,-76,0,0,0,0,0,0,0,0,0,-1,1448,1100,0,0
231,-76,0,0,0,0,0,0,0,0,0,-1,1455,1100,0,0
238,-76,0,0,0,0,0,0,0,0,0,-1,1462,1100,0,0
245,-76,0,0,0,0,0,0,0,0,0,-1,1469,1100,0,0
252,-76,0,0,0,0,0,0,0,0,0,-1,1476,1100,0,0
259,-76,0,0,0,0,0,0,0,0,0,-1,1483,1100,0,0
266,-76,0,0,0,0,0,0,0,0,0,-1,1490,1100,0,0
273,-76,0,0,0,0,0,0,0,0,0,-1,1497,1100,0,0
280,-76,0,0,0,0,0,0,0,0,0,-1,1504,1100,0,0
287,-76,0,0,0,0,0,0,0,0,0,-1,1511,1100,0,0
294,-76,0,0,0,0,0,0,0,0,0,-1,1518,1100,0,0
301,-76,0,0,0,0,0,0,0,0,0,-1,1525,1100,0,0
308,-76,0,0,0,0,0,0,0,0,0,-1,1532,1100,0,0
315,-76,0,0,0,0,0,0,0,0,0,-1,1539,1100,0,0
322,-76,0,0,0,0,0,0,0,0,0,-1,1546,1100,0,0
329,-76,0,0,0,0,0,0,0,0,0,-1,1553,1100,0,0
336,-76,0,0,0,0,0,0,0,0,0,-1,1560,1100,0,0
343,-76,0,0,0,0,0,0,0,0,0,-1,1567,1100,0,0
350,-76,0,0,0,0,0,0,0,0,0,-1,1574,1100,0,0
357,-76,0,0,0,0,0,0,0,0,0,-1,1581,1100,0,0
364,-76,0,0,0,0,0,0,0,0,0,-1,1588,1100,0,0
371,-76,0,0,0,0,0,0,0,0,0,-1,1595,1100,0,0
378,-76,0,0,0,0,0,0,0,0,0,-1,1602,1100,0,0
385,-76,0,0,0,0,0,0,0,0,0,-1,1609,1100,0,0
392,-76,0,0,0,0,0,0,0,0,0,-1,1616,1100,0,0
399,-76,0,0,0,0,0,0,0,0,0,-1,1623,1100,0,0
406,-76,0,0,0,0,0,0,0,0,0,-1,1630,1100,0,0
413,-76,0,0,0,0,0,0,0,0,0,-1,1637,1100,0,0
420,-76,0,0,0,0,0,0,0,0,0,-1,1644,1100,0,0
427,-76,0,0,0,0,0,0,0,0,0,-1,1651,1100,0,0
434,-76,0,0,0,0,0,0,0,0,0,-1,1658,1100,0,0
441,-76,0,0,0,0,0,0,0,0,0,-1,1665,1100,0,0
448,-76,0,0,0,0,0,0,0,0,0,-1,1672,1100,0,0
455,-76,0,0,0,0,0,0,0,0,0,-1,1679,1100,0,0
462,-76,0,0,0,0,0,0,0,0,0,-1,1686,1100,0,0
469,-76,0,0,0,0,0,0,0,0,0,-1,1693,1100,0,0
476,-76,0,0,0,0,0,0,0,0,0,-1,1700,1100,0,0
483,-76,0,0,0,0,0,0,0,0,0,-1,1707,1100,0,0
490,-76,0,0,0,0,0,0,0,0,0,-1,1714,1100,0,0
497,-76,0,0,0,0,0,0,0,0,0,-1,1721,1100,0,0
504,-76,0,0,0,0,0,0,0,0,0,-1,1728,1100,0,0
511,-76,0,0,0,0,0,0,0,0,0,-1,1735,1100,0,0
518,-76,0,0,0,0,0,0,0,0,0,-1,1742,1100,0,0
525,-76,0,0,0,0,0,0,0,0,0,-1,1749,1100,0,0
532,-76,0,0,0,0,0,0,0,0,0,-1,1756,1100,0,0
539,-76,0,0,0,0,0,0,0,0,0,-1,1763,1100,0,0
546,-76,0,0,0,0,0,0,0,0,0,-1,1770,1100,0,0
553,-76,0,0,0,0,0,0,0,0,0,-1,1777,1100,0,0
560,-76,0,0,0,0,0,0,0,0,0,-1,1784,1100,0,0
567,-76,0,0,0,0,0,0,0,0,0,-1,1791,1100,0,0
574,-76,0,0,0,0,0,0,0,0,0,-1,1798,1100,0,0
581,-76,0,0,0,0,0,0,0,0,0,-1,1805,1100,0,0
588,-76,0,0,0,0,0,0,0,0,0,-1,1812,1100,0,0
595,-76,0,0,0,0,0,0,0,0,0,-1,1819,1100,0,0
602,-76,0,0,0,0,0,0,0,0,0,-1,1826,1100,0,0
609,-76,0,0,0,0,0,0,0,0,0,-1,1833,1100,0,0
616,-76,0,0,0,0,0,0,0,0,0,-1,1840,1100,0,0
623,-76,0,0,0,0,0,0,0,0,0,-1,1847,1100,0,0
630,-76,0,0,0,0,0,0,0,0,0,-1,1854,1100,0,0
637,-76,0,0,0,0,0,0,0,0,0,-1,1861,1100,0,0
644,-76,0,0,0,0,0,0,0,0,0,-1,1868,1100,0,0
651,-76,70.4087,2.224,0.00633791,-0.00400148,0.00335213,0.00732959,-0.00499316,0.287631,0.00715704,0.0399388,1875,1100,70.4087,-2.22403
658,-76,70.6062,2.31445,0.00470483,-0.00349222,0.00237397,0.00534272,-0.00413011,0.262501,0.00548406,0.0418168,1882,1100,70.6061,-2.3145
665,-76,70.5283,2.32507,0.00335311,-0.00290908,0.00146817,0.00368024,-0.0032362,0.21923,0.00399595,0.037996,1889,1100,70.5284,-2.3251
672,-76,70.3621,2.39221,0.00218944,-0.00219435,0.000615245,0.00227415,-0.00227906,0.136825,0.0026288,0.0366917,1896,1100,70.362,-2.39217
679,-76,70.4089,2.40454,0.00127158,-0.00149107,-0.000129942,0.00127768,-0.00149717,-0.0468972,0.00160373,0.0364784,1903,1100,70.4089,-2.40455
686,-76,70.5421,2.40894,0.000663681,-0.00123798,-0.0005225,0.000797787,-0.00137208,-0.251238,0.00126732,0.0349972,1910,1100,70.5421,-2.40891
693,-76,70.5299,2.34851,0.000272105,-0.0011984,-0.000593105,0.000481506,-0.0014078,-0.339397,0.00113365,0.0356161,1917,1100,70.5299,-2.34851
700,-76,70.4673,2.27747,0.000162691,-0.00117663,-0.000445629,0.000297413,-0.00131136,-0.293581,0.000988404,0.0324134,1924,1100,70.4673,-2.27743
707,-76,70.4447,2.29688,-0.00019185,-0.00100396,-0.000186137,-0.00015122,-0.00104459,-0.21491,0.00065186,0.0274864,1931,1100,70.4447,-2.29689
714,-76,70.5005,2.31067,0,0,0,0,0,0,0,-1,1938,1100,70.5005,-2.31067
721,-76,45.1713,3.04919,0,0,0,0,0,0,0,-1,1945,1100,45.1713,-3.04915
728,-76,60.937,8.08447,0,0,0,0,0,0,0,-1,1952,1100,60.937,-8.08446
735,-76,67.2523,8.099,0,0,0,0,0,0,0,-1,1959,1100,67.2523,-8.09905
742,-76,67.1299,7.51013,-0.00177224,0.00213351,0.00134669,0.00255283,-0.00219156,1.26894,0.00274182,0.0349412,1966,1100,67.1298,-7.51015
749,-76,66.9916,6.95081,-0.00139519,0.00379411,0.00172245,0.00431379,-0.00191487,1.27777,0.00368395,0.0332674,1973,1100,66.9916,-6.95075
756,-76,67.0681,6.5,-0.000683726,0.00650964,0.00156255,0.0068344,-0.00100849,1.36588,0.00492695,0.0180697,1980,1100,67.0681,-6.50006
763,-76,67.0266,6.01941,0.000911794,0.0101227,0.00075824,0.0101847,0.000849793,1.48921,0.00652502,0.0185541,1987,1100,67.0267,-6.01944
770,-76,66.8953,5.59021,0.00404079,0.0153667,-0.000851149,0.0154303,0.00397718,-1.4962,0.00925066,0.0212699,1994,1100,66.8953,-5.5902
777,-76,66.7517,5.2384,0.00859278,0.0216521,-0.0031533,0.0223736,0.00787125,-1.34585,0.0131052,0.0246171,2001,1100,66.7516,-5.23846
784,-76,66.7959,4.58545,0.0143053,0.0285725,-0.00601121,0.0307675,0.0121103,-1.22069,0.0178972,0.0336966,2008,1100,66.7958,-4.58549
791,-76,66.925,3.79199,0.0217199,0.0363687,-0.00979578,0.0412756,0.016813,-1.10642,0.0239665,0.0414776,2015,1100,66.9249,-3.79197
798,-76,67.1563,2.83423,0.031224,0.0451978,-0.0148866,0.0546557,0.0217662,-1.00481,0.0317725,0.0437058,2022,1100,67.1563,-2.83428
805,-76,66.3296,1.95203,0,0,0,0,0,0,0,-1,2029,1100,66.3295,-1.95202
812,-76,65.999,1.08728,0,0,0,0,0,0,0,-1,2036,1100,65.9991,-1.0873
-700,-83,0,0,0,0,0,0,0,0,0,-1,524,1107,0,0
-693,-83,-51.2318,0.46875,0,0,0,0,0,0,0,-1,531,1107,-51.2318,-0.46877
-686,-83,-51.345,0.0662842,0,0,0,0,0,0,0,-1,538,1107,-51.345,-0.066287
-679,-83,-51.2041,-0.0993652,0,0,0,0,0,0,0,-1,545,1107,-51.2041,0.0994123
-672,-83,-50.9587,-0.234131,0,0,0,0,0,0,0,-1,552,1107,-50.9587,0.234107
-665,-83,-49.4666,0.547363,0,0,0,0,0,0,0,-1,559,1107,-49.4665,-0.547362
-658,-83,-49.855,1.1532,0,0,0,0,0,0,0,-1,566,1107,-49.8551,-1.15314
-651,-83,-50.2728,2.88184,0,0,0,0,0,0,0,-1,573,1107,-50.2728,-2.88182
-644,-83,-50.701,3.22656,0.00931234,0.016933,0.0049889,0.0194002,0.00684511,1.11152,0.0113613,0.0333143,580,1107,-50.701,-3.2265
-637,-83,-50.9491,3.65466,0.00460956,0.0124788,0.00321245,0.0136236,0.0034647,1.22845,0.00817599,0.0157648,587,1107,-50.9491,-3.65468
-630,-83,-51.0139,4.18384,0.00172166,0.00784196,0.000921077,0.00797758,0.00158605,1.42461,0.00487645,0.0175124,594,1107,-51.0139,-4.18384
-623,-83,-51.061,4.66382,0.000757075,0.00376722,-0.000607095,0.00388505,0.000639246,-1.37909,0.00240543,0.0215888,601,1107,-51.061,-4.66379
-616,-83,-51.1724,5.20911,0.00116875,0.00120412,-0.00114879,0.00233536,3.7507e-05,-0.793096,0.00154455,0.0190091,608,1107,-51.1723,-5.20914
-609,-83,-51.1219,5.67236,0.00218409,-0.00013786,-0.00120164,0.00269399,-0.000647754,-0.401304,0.00204637,0.0235802,615,1107,-51.1219,-5.67242
-602,-83,-51.0979,6.21484,0.00322005,-0.0010181,-0.00160911,0.00376175,-0.00155979,-0.324727,0.00315885,0.0206134,622,1107,-51.0979,-6.21485
-595,-83,-51.0428,6.73059,0.00373988,-0.00148702,-0.00194921,0.00438672,-0.00213386,-0.320416,0.00383883,0.0310949,629,1107,-51.0428,-6.73063
-588,-83,-51.1301,7.1189,0,0,0,0,0,0,0,-1,636,1107,-51.1301,-7.11888
-581,-83,-54.3865,0.366211,0,0,0,0,0,0,0,-1,643,1107,-54.3865,-0.366229
-574,-83,-54.3713,0.529053,0.00517508,-0.0031949,-0.00274512,0.00599508,-0.00401489,-0.290272,0.00581683,0.034693,650,1107,-54.3713,-0.528994
-567,-83,-54.269,0.639038,0.00531981,-0.00334285,-0.00310089,0.00631539,-0.00433843,-0.310666,0.00618618,0.04185,657,1107,-54.269,-0.639072
-560,-83,-54.2351,0.472778,0.00494933,-0.00329292,-0.0035464,0.00626518,-0.00460877,-0.355291,0.00630231,0.0425383,664,1107,-54.2351,-0.472742
-553,-83,-54.2579,0.518188,0.00377215,-0.00313316,-0.00416533,0.00572975,-0.00509076,-0.439339,0.00625085,0.041425,671,1107,-54.2579,-0.518188
-546,-83,-54.2403,0.61145,0.0022438,-0.00297293,-0.0049474,0.00522831,-0.00595744,-0.542805,0.00646267,0.0435103,678,1107,-54.2403,-0.611478
-539,-83,-54.1813,-0.0568848,0,0,0,0,0,0,0,-1,685,1107,-54.1813,0.0568441
-532,-83,-54.2052,0.203979,0,0,0,0,0,0,0,-1,692,1107,-54.2052,-0.20395
-525,-83,0,0,0,0,0,0,0,0,0,-1,699,1107,0,0
-518,-83,0,0,0,0,0,0,0,0,0,-1,706,1107,0,0
-511,-83,0,0,0,0,0,0,0,0,0,-1,713,1107,0,0
-504,-83,0,0,0,0,0,0,0,0,0,-1,720,1107,0,0
-497,-83,0,0,0,0,0,0,0,0,0,-1,727,1107,0,0
-490,-83,0,0,0,0,0,0,0,0,0,-1,734,1107,0,0
-483,-83,0,0,0,0,0,0,0,0,0,-1,741,1107,0,0
-476,-83,0,0,0,0,0,0,0,0,0,-1,748,1107,0,0
-469,-83,0,0,0,0,0,0,0,0,0,-1,755,1107,0,0
-462,-83,0,0,0,0,0,0,0,0,0,-1,762,1107,0,0
-455,-83,0,0,0,0,0,0,0,0,0,-1,769,1107,0,0
-448,-83,0,0,0,0,0,0,0,0,0,-1,776,1107,0,0
-441,-83,0,0,0,0,0,0,0,0,0,-1,783,1107,0,0
-434,-83,0,0,0,0,0,0,0,0,0,-1,790,1107,0,0
-427,-83,0,0,0,0,0,0,0,0,0,-1,797,1107,0,0
-420,-83,0,0,0,0,0,0,0,0,0,-1,804,1107,0,0
-413,-83,0,0,0,0,0,0,0,0,0,-1,811,1107,0,0
-406,-83,0,0,0,0,0,0,0,0,0,-1,818,1107,0,0
-399,-83,0,0,0,0,0,0,0,0,0,-1,825,1107,0,0
-392,-83,0,0,0,0,0,0,0,0,0,-1,832,1107,0,0
-385,-83,0,0,0,0,0,0,0,0,0,-1,839,1107,0,0
-378,-83,0,0,0,0,0,0,0,0,0,-1,846,1107,0,0
-371,-83,0,0,0,0,0,0,0,0,0,-1,853,1107,0,0
-364,-83,0,0,0,0,0,0,0,0,0,-1,860,1107,0,0
-357,-83,0,0,0,0,0,0,0,0,0,-1,867,1107,0,0
-350,-83,0,0,0,0,0,0,0,0,0,-1,874,1107,0,0
-343,-83,0,0,0,0,0,0,0,0,0,-1,881,1107,0,0
-336,-83,0,0,0,0,0,0,0,0,0,-1,888,1107,0,0
-329,-83,0,0,0,0,0,0,0,0,0,-1,895,1107,0,0
-322,-83,0,0,0,0,0,0,0,0,0,-1,902,1107,0,0
-315,-83,0,0,0,0,0,0,0,0,0,-1,909,1107,0,0
-308,-83,0,0,0,0,0,0,0,0,0,-1,916,1107,0,0
-301,-83,0,0,0,0,0,0,0,0,0,-1,923,1107,0,0
-294,-83,0,0,0,0,0,0,0,0,0,-1,930,1107,0,0
-287,-83,0,0,0,0,0,0,0,0,0,-1,937,1107,0,0
-280,-83,0,0,0,0,0,0,0,0,0,-1,944,1107,0,0
-273,-83,0,0,0,0,0,0,0,0,0,-1,951,1107,0,0
-266,-83,0,0,0,0,0,0,0,0,0,-1,958,1107,0,0
-259,-83,0,0,0,0,0,0,0,0,0,-1,965,1107,0,0
-252,-83,0,0,0,0,0,0,0,0,0,-1,972,1107,0,0
-245,-83,0,0,0,0,0,0,0,0,0,-1,979,1107,0,0
-238,-83,0,0,0,0,0,0,0,0,0,-1,986,1107,0,0
-231,-83,0,0,0,0,0,0,0,0,0,-1,993,1107,0,0
-224,-83,0,0,0,0,0,0,0,0,0,-1,1000,1107,0,0
-217,-83,0,0,0,0,0,0,0,0,0,-1,1007,1107,0,0
-210,-83,0,0,0,0,0,0,0,0,0,-1,1014,1107,0,0
-203,-83,0,0,0,0,0,0,0,0,0,-1,1021,1107,0,0
-196,-83,0,0,0,0,0,0,0,0,0,-1,1028,1107,0,0
-189,-83,0,0,0,0,0,0,0,0,0,-1,1035,1107,0,0
-182,-83,0,0,0,0,0,0,0,0,0,-1,1042,1107,0,0
-175,-83,0,0,0,0,0,0,0,0,0,-1,1049,1107,0,0
-168,-83,0,0,0,0,0,0,0,0,0,-1,1056,1107,0,0
-161,-83,0,0,0,0,0,0,0,0,0,-1,1063,1107,0,0
-154,-83,0,0,0,0,0,0,0,0,0,-1,1070,1107,0,0
-147,-83,0,0,0,0,0,0,0,0,0,-1,1077,1107,0,0
-140,-83,0,0,0,0,0,0,0,0,0,-1,1084,1107,0,0
-133,-83,0,0,0,0,0,0,0,0,0,-1,1091,1107,0,0
-126,-83,0,0,0,0,0,0,0,0,0,-1,1098,1107,0,0
-119,-83,0,0,0,0,0,0,0,0,0,-1,1105,1107,0,0
-112,-83,0,0,0,0,0,0,0,0,0,-1,1112,1107,0,0
-105,-83,0,0,0,0,0,0,0,0,0,-1,1119,1107,0,0
-98,-83,0,0,0,0,0,0,0,0,0,-1,1126,1107,0,0
-91,-83,0,0,0,0,0,0,0,0,0,-1,1133,1107,0,0
-84,-83,0,0,0,0,0,0,0,0,0,-1,1140,1107,0,0
-77,-83,0,0,0,0,0,0,0,0,0,-1,1147,1107,0,0
-70,-83,0,0,0,0,0,0,0,0,0,-1,1154,1107,0,0
-63,-83,0,0,0,0,0,0,0,0,0,-1,1161,1107,0,0
-56,-83,0,0,0,0,0,0,0,0,0,-1,1168,1107,0,0
-49,-83,0,0,0,0,0,0,0,0,0,-1,1175,1107,0,0
-42,-83,0,0,0,0,0,0,0,0,0,-1,1182,1107,0,0
-35,-83,0,0,0,0,0,0,0,0,0,-1,1189,1107,0,0
-28,-83,0,0,0,0,0,0,0,0,0,-1,1196,1107,0,0
-21,-83,0,0,0,0,0,0,0,0,0,-1,1203,1107,0,0
-14,-83,0,0,0,0,0,0,0,0,0,-1,1210,1107,0,0
-7,-83,0,0,0,0,0,0,0,0,0,-1,1217,1107,0,0
0,-83,0,0,0,0,0,0,0,0,0,-1,1224,1107,0,0
7,-83,0,0,0,0,0,0,0,0,0,-1,1231,1107,0,0
14,-83,0,0,0,0,0,0,0,0,0,-1,1238,1107,0,0
21,-83,0,0,0,0,0,0,0,0,0,-1,1245,1107,0,0
28,-83,0,0,0,0,0,0,0,0,0,-1,1252,1107,0,0
35,-83,0,0,0,0,0,0,0,0,0,-1,1259,1107,0,0
42,-83,0,0,0,0,0,0,0,0,0,-1,1266,1107,0,0
49,-83,0,0,0,0,0,0,0,0,0,-1,1273,1107,0,0
56,-83,0,0,0,0,0,0,0,0,0,-1,1280,1107,0,0
63,-83,0,0,0,0,0,0,0,0,0,-1,1287,1107,0,0
70,-83,0,0,0,0,0,0,0,0,0,-1,1294,1107,0,0
77,-83,0,0,0,0,0,0,0,0,0,-1,1301,1107,0,0
84,-83,0,0,0,0,0,0,0,0,0,-1,1308,1107,0,0
91,-83,0,0,0,0,0,0,0,0,0,-1,1315,1107,0,0
98,-83,0,0,0,0,0,0,0,0,0,-1,1322,1107,0,0
105,-83,0,0,0,0,0,0,0,0,0,-1,1329,1107,0,0
112,-83,0,0,0,0,0,0,0,0,0,-1,1336,1107,0,0
119,-83,0,0,0,0,0,0,0,0,0,-1,1343,1107,0,0
126,-83,0,0,0,0,0,0,0,0,0,-1,1350,1107,0,0
133,-83,0,0,0,0,0,0,0,0,0,-1,1357,1107,0,0
140,-83,0,0,0,0,0,0,0,0,0,-1,1364,1107,0,0
147,-83,0,0,0,0,0,0,0,0,0,-1,1371,1107,0,0
154,-83,0,0,0,0,0,0,0,0,0,-1,1378,1107,0,0
161,-83,0,0,0,0,0,0,0,0,0,-1,1385,1107,0,0
168,-83,0,0,0,0,0,0,0,0,0,-1,1392,1107,0,0
175,-83,0,0,0,0,0,0,0,0,0,-1,1399,1107,0,0
182,-83,0,0,0,0,0,0,0,0,0,-1,1406,1107,0,0
189,-83,0,0,0,0,0,0,0,0,0,-1,1413,1107,0,0
196,-83,0,0,0,0,0,0,0,0,0,-1,1420,1107,0,0
203,-83,0,0,0,0,0,0,0,0,0,-1,1427,1107,0,0
210,-83,0,0,0,0,0,0,0,0,0,-1,1434,1107,0,0
217,-83,0,0,0,0,0,0,0,0,0,-1,1441,1107,0,0
224,-83,0,0,0,0,0,0,0,0,0,-1,1448,1107,0,0
231,-83,0,0,0,0,0,0,0,0,0,-1,1455,1107,0,0
238,-83,0,0,0,0,0,0,0,0,0,-1,1462,1107,0,0
245,-83,0,0,0,0,0,0,0,0,0,-1,1469,1107,0,0
252,-83,0,0,0,0,0,0,0,0,0,-1,1476,1107,0,0
259,-83,0,0,0,0,0,0,0,0,0,-1,1483,1107,0,0
266,-83,0,0,0,0,0,0,0,0,0,-1,1490,1107,0,0
273,-83,0,0,0,0,0,0,0,0,0,-1,1497,1107,0,0
280,-83,0,0,0,0,0,0,0,0,0,-1,1504,1107,0,0
287,-83,0,0,0,0,0,0,0,0,0,-1,1511,1107,0,0
294,-83,0,0,0,0,0,0,0,0,0,-1,1518,1107,0,0
301,-83,0,0,0,0,0,0,0,0,0,-1,1525,1107,0,0
308,-83,0,0,0,0,0,0,0,0,0,-1,1532,1107,0,0
315,-83,0,0,0,0,0,0,0,0,0,-1,1539,1107,0,0
322,-83,0,0,0,0,0,0,0,0,0,-1,1546,1107,0,0
329,-83,0,0,0,0,0,0,0,0,0,-1,1553,1107,0,0
336,-83,0,0,0,0,0,0,0,0,0,-1,1560,1107,0,0
343,-83,0,0,0,0,0,0,0,0,0,-1,1567,1107,0,0
350,-83,0,0,0,0,0,0,0,0,0,-1,1574,1107,0,0
357,-83,0,0,0,0,0,0,0,0,0,-1,1581,1107,0,0
364,-83,0,0,0,0,0,0,0,0,0,-1,1588,1107,0,0
371,-83,0,0,0,0,0,0,0,0,0,-1,1595,1107,0,0
378,-83,0,0,0,0,0,0,0,0,0,-1,1602,1107,0,0
385,-83,0,0,0,0,0,0,0,0,0,-1,1609,1107,0,0
392,-83,0,0,0,0,0,0,0,0,0,-1,1616,1107,0,0
399,-83,0,0,0,0,0,0,0,0,0,-1,1623,1107,0,0
406,-83,0,0,0,0,0,0,0,0,0,-1,1630,1107,0,0
413,-83,0,0,0,0,0,0,0,0,0,-1,1637,1107,0,0
420,-83,0,0,0,0,0,0,0,0,0,-1,1644,1107,0,0
427,-83,0,0,0,0,0,0,0,0,0,-1,1651,1107,0,0
434,-83,0,0,0,0,0,0,0,0,0,-1,1658,1107,0,0
441,-83,0,0,0,0,0,0,0,0,0,-1,1665,1107,0,0
448,-83,0,0,0,0,0,0,0,0,0,-1,1672,1107,0,0
455,-83,0,0,0,0,0,0,0,0,0,-1,1679,1107,0,0
462,-83,0,0,0,0,0,0,0,0,0,-1,1686,1107,0,0
469,-83,0,0,0,0,0,0,0,0,0,-1,1693,1107,0,0
476,-83,0,0,0,0,0,0,0,0,0,-1,1700,1107,0,0
483,-83,0,0,0,0,0,0,0,0,0,-1,1707,1107,0,0
490,-83,0,0,0,0,0,0,0,0,0,-1,1714,1107,0,0
497,-83,0,0,0,0,0,0,0,0,0,-1,1721,1107,0,0
504,-83,0,0,0,0,0,0,0,0,0,-1,1728,1107,0,0
511,-83,0,0,0,0,0,0,0,0,0,-1,1735,1107,0,0
518,-83,0,0,0,0,0,0,0,0,0,-1,1742,1107,0,0
525,-83,0,0,0,0,0,0,0,0,0,-1,1749,1107,0,0
532,-83,0,0,0,0,0,0,0,0,0,-1,1756,1107,0,0
539,-83,0,0,0,0,0,0,0,0,0,-1,1763,1107,0,0
546,-83,0,0,0,0,0,0,0,0,0,-1,1770,1107,0,0
553,-83,0,0,0,0,0,0,0,0,0,-1,1777,1107,0,0
560,-83,0,0,0,0,0,0,0,0,0,-1,1784,1107,0,0
567,-83,0,0,0,0,0,0,0,0,0,-1,1791,1107,0,0
574,-83,0,0,0,0,0,0,0,0,0,-1,1798,1107,0,0
581,-83,0,0,0,0,0,0,0,0,0,-1,1805,1107,0,0
588,-83,0,0,0,0,0,0,0,0,0,-1,1812,1107,0,0
595,-83,0,0,0,0,0,0,0,0,0,-1,1819,1107,0,0
602,-83,0,0,0,0,0,0,0,0,0,-1,1826,1107,0,0
609,-83,0,0,0,0,0,0,0,0,0,-1,1833,1107,0,0
616,-83,0,0,0,0,0,0,0,0,0,-1,1840,1107,0,0
623,-83,0,0,0,0,0,0,0,0,0,-1,1847,1107,0,0
630,-83,0,0,0,0,0,0,0,0,0,-1,1854,1107,0,0
637,-83,0,0,0,0,0,0,0,0,0,-1,1861,1107,0,0
644,-83,70.5143,2.28796,0.00864505,-0.00390725,0.0040771,0.00985307,-0.00511527,0.288053,0.00878509,0.036122,1868,1107,70.5142,-2.28797
651,-83,70.6586,2.34937,0.0066304,-0.00357262,0.00323707,0.00757075,-0.00451297,0.282712,0.0070506,0.0401975,1875,1107,70.6585,-2.34939
658,-83,70.7667,2.5769,0.00504067,-0.00317444,0.00235248,0.00566663,-0.0038004,0.26006,0.00550108,0.0433023,1882,1107,70.7668,-2.57688
665,-83,70.5115,2.55664,0.00366412,-0.00267561,0.00148371,0.00399417,-0.00300566,0.218888,0.00405477,0.0396332,1889,1107,70.5115,-2.55662
672,-83,70.3733,2.32776,0.00242995,-0.00205717,0.000625762,0.00251559,-0.0021428,0.136001,0.00269239,0.0362902,1896,1107,70.3733,-2.3278
679,-83,70.4664,2.27063,0.00147821,-0.00149004,-0.000115422,0.0014827,-0.00149452,-0.0388073,0.0017189,0.0359984,1903,1107,70.4665,-2.27068
686,-83,70.5797,2.32361,0.000926562,-0.00133389,-0.000518168,0.00103968,-0.00144701,-0.214935,0.0014421,0.0345269,1910,1107,70.5797,-2.32364
693,-83,70.5455,2.36938,0.000583452,-0.00132006,-0.000606078,0.000760044,-0.00149665,-0.28352,0.00132584,0.0344856,1917,1107,70.5455,-2.36937
700,-83,70.4843,2.38354,0.000536957,-0.00130449,-0.000485599,0.000657165,-0.0014247,-0.242667,0.00122889,0.0316602,1924,1107,70.4842,-2.38358
707,-83,70.4534,2.32703,0.000236996,-0.00114491,-0.000252987,0.000281855,-0.00118977,-0.175491,0.000901934,0.0263414,1931,1107,70.4533,-2.32706
714,-83,70.4712,2.23914,0,0,0,0,0,0,0,-1,1938,1107,70.4712,-2.23914
721,-83,49.1162,7.36719,0,0,0,0,0,0,0,-1,1945,1107,49.1162,-7.36721
728,-83,66.1693,8.42603,0,0,0,0,0,0,0,-1,1952,1107,66.1693,-8.42603
735,-83,66.3195,7.99902,-0.0012159,0.0009934,0.000953702,0.00134813,-0.00157063,1.2147,0.00168678,0.0495728,1959,1107,66.3195,-7.99903
742,-83,66.4875,7.51501,-0.000940499,0.00181019,0.00111714,0.00220673,-0.00133704,1.22971,0.00206643,0.0296421,1966,1107,66.4876,-7.51505
749,-83,66.579,6.99146,-0.000617702,0.00333066,0.00147063,0.00381822,-0.00110526,1.25067,0.00298295,0.0195254,1973,1107,66.579,-6.99146
756,-83,66.5852,6.49219,9.42925e-06,0.00587445,0.00128824,0.00614494,-0.000261054,1.36384,0.00418636,0.0168939,1980,1107,66.5852,-6.49219
763,-83,66.5215,5.97058,0.00154252,0.00937021,0.000425295,0.00939325,0.00151948,1.51668,0.00582215,0.0129578,1987,1107,66.5214,-5.97053
770,-83,66.4031,5.52832,0.00449787,0.0143117,-0.00124784,0.0144679,0.0043417,-1.44628,0.00857267,0.0167169,1994,1107,66.4032,-5.5283
777,-83,66.2551,5.08655,0.00875335,0.0201237,-0.00355732,0.021145,0.00773213,-1.29124,0.012354,0.0185175,2001,1107,66.2551,-5.08657
784,-83,66.1228,4.63953,0.0142331,0.0266045,-0.00643891,0.0293476,0.0114901,-1.16807,0.0170762,0.0268236,2008,1107,66.1227,-4.63952
791,-83,66.1584,4,0.0216134,0.0339763,-0.0103242,0.0398281,0.0157616,-1.05514,0.0231608,0.0387331,2015,1107,66.1584,-3.99995
798,-83,66.0613,3.11084,0.0312837,0.0424174,-0.0155856,0.0534005,0.0203006,-0.956925,0.0311246,0.0444607,2022,1107,66.0612,-3.11082
805,-83,65.8086,2.17578,0,0,0,0,0,0,0,-1,2029,1107,65.8086,-2.17578
812,-83,65.6313,1.3512,0,0,0,0,0,0,0,-1,2036,1107,65.6312,-1.35122
-700,-90,0,0,0,0,0,0,0,0,0,-1,524,1114,0,0
-693,-90,-51.4476,0.738403,0,0,0,0,0,0,0,-1,531,1114,-51.4476,-0.738432
-686,-90,-51.7355,2.19092,0,0,0,0,0,0,0,-1,538,1114,-51.7355,-2.19093
-679,-90,-52.0194,3.73535,0,0,0,0,0,0,0,-1,545,1114,-52.0194,-3.73536
-672,-90,-52.3863,5.6449,0,0,0,0,0,0,0,-1,552,1114,-52.3863,-5.64486
-665,-90,-52.2849,7.19177,0,0,0,0,0,0,0,-1,559,1114,-52.2849,-7.19175
-658,-90,-49.7085,1.40466,0,0,0,0,0,0,0,-1,566,1114,-49.7085,-1.40468
-651,-90,-50.1484,2.17126,0.0122555,0.0240724,0.00804192,0.028143,0.00818482,1.10222,0.0167156,0.037248,573,1114,-50.1484,-2.17124
-644,-90,-50.2985,2.97192,0.00781209,0.0187787,0.00601609,0.0214354,0.00515536,1.15495,0.0129194,0.0198912,580,1114,-50.2985,-2.97198
-637,-90,-50.362,3.61914,0.00369259,0.0133441,0.00369826,0.0145983,0.00243846,1.24385,0.00902978,0.0152276,587,1114,-50.362,-3.61908
-630,-90,-50.4122,4.17004,0.00124757,0.00810636,0.00100814,0.00825147,0.00110245,1.42784,0.0051728,0.0136015,594,1114,-50.4122,-4.17004
-623,-90,-50.4501,4.724,0.000434564,0.00355483,-0.000554043,0.00365029,0.000339107,-1.40018,0.00232874,0.0138452,601,1114,-50.4501,-4.72402
-616,-90,-50.5096,5.28394,0.00117649,0.00103983,-0.00099179,0.0021023,0.000114019,-0.751003,0.00136512,0.0161165,608,1114,-50.5096,-5.28398
-609,-90,-50.493,5.83643,0.00239934,-0.000213746,-0.000952156,0.00270948,-0.000523883,-0.314884,0.00200391,0.0253293,615,1114,-50.493,-5.83637
-602,-90,-50.5944,6.32703,0.0034835,-0.000927274,-0.00135361,0.00386578,-0.00130955,-0.275244,0.00310709,0.0243874,622,1114,-50.5944,-6.32703
-595,-90,-50.4797,6.93896,0.00392032,-0.00144212,-0.00174063,0.00443578,-0.00195757,-0.287904,0.00378251,0.0243402,629,1114,-50.4797,-6.939
-588,-90,-50.587,7.3905,0,0,0,0,0,0,0,-1,636,1114,-50.5871,-7.39051
-581,-90,-54.4238,0.557373,0,0,0,0,0,0,0,-1,643,1114,-54.4238,-0.557326
-574,-90,-54.4004,0.533325,0.00559175,-0.00335564,-0.0027196,0.00635352,-0.00411741,-0.273107,0.00609117,0.0385582,650,1114,-54.4004,-0.533292
-567,-90,-54.3864,0.4646,0.00591706,-0.00362702,-0.00313276,0.00685348,-0.00456345,-0.29046,0.00663562,0.0373179,657,1114,-54.3864,-0.464562
-560,-90,-54.3537,0.467896,0.00572721,-0.00372755,-0.00364505,0.0069693,-0.00496963,-0.328419,0.0069251,0.0413742,664,1114,-54.3537,-0.467859
-553,-90,-54.2885,0.611694,0.00451312,-0.00372157,-0.00439649,0.0064192,-0.00562765,-0.409087,0.00696026,0.0419466,671,1114,-54.2885,-0.611729
-546,-90,-54.3331,0.20166,0.0028453,-0.00367643,-0.005327,0.00583025,-0.00666138,-0.51075,0.00721736,0.0431928,678,1114,-54.3331,-0.201614
-539,-90,-54.422,-0.128784,0.0016554,-0.00423231,-0.00638954,0.00574664,-0.00832355,-0.569527,0.00816872,0.043402,685,1114,-54.422,0.128742
-532,-90,-54.4024,0.129761,0.00062551,-0.00464066,-0.00722675,0.00568392,-0.00969907,-0.610697,0.00898165,0.0408866,692,1114,-54.4024,-0.129762
-525,-90,0,0,0,0,0,0,0,0,0,-1,699,1114,0,0
-518,-90,0,0,0,0,0,0,0,0,0,-1,706,1114,0,0
-511,-90,0,0,0,0,0,0,0,0,0,-1,713,1114,0,0
-504,-90,0,0,0,0,0,0,0,0,0,-1,720,1114,0,0
-497,-90,0,0,0,0,0,0,0,0,0,-1,727,1114,0,0
-490,-90,0,0,0,0,0,0,0,0,0,-1,734,1114,0,0
-483,-90,0,0,0,0,0,0,0,0,0,-1,741,1114,0,0
-476,-90,0,0,0,0,0,0,0,0,0,-1,748,1114,0,0
-469,-90,0,0,0,0,0,0,0,0,0,-1,755,1114,0,0
-462,-90,0,0,0,0,0,0,0,0,0,-1,762,1114,0,0
-455,-90,0,0,0,0,0,0,0,0,0,-1,769,1114,0,0
-448,-90,0,0,0,0,0,0,0,0,0,-1,776,1114,0,0
-441,-90,0,0,0,0,0,0,0,0,0,-1,783,1114,0,0
-434,-90,0,0,0,0,0,0,0,0,0,-1,790,1114,0,0
-427,-90,0,0,0,0,0,0,0,0,0,-1,797,1114,0,0
-420,-90,0,0,0,0,0,0,0,0,0,-1,804,1114,0,0
-413,-90,0,0,0,0,0,0,0,0,0,-1,811,1114,0,0
-406,-90,0,0,0,0,0,0,0,0,0,-1,818,1114,0,0
-399,-90,0,0,0,0,0,0,0,0,0,-1,825,1114,0,0
-392,-90,0,0,0,0,0,0,0,0,0,-1,832,1114,0,0
-385,-90,0,0,0,0,0,0,0,0,0,-1,839,1114,0,0
-378,-90,0,0,0,0,0,0,0,0,0,-1,846,1114,0,0
-371,-90,0,0,0,0,0,0,0,0,0,-1,853,1114,0,0
-364,-90,0,0,0,0,0,0,0,0,0,-1,860,1114,0,0
-357,-90,0,0,0,0,0,0,0,0,0,-1,867,1114,0,0
-350,-90,0,0,0,0,0,0,0,0,0,-1,874,1114,0,0
-343,-90,0,0,0,0,0,0,0,0,0,-1,881,1114,0,0
-336,-90,0,0,0,0,0,0,0,0,0,-1,888,1114,0,0
-329,-90,0,0,0,0,0,0,0,0,0,-1,895,1114,0,0
-322,-90,0,0,0,0,0,0,0,0,0,-1,902,1114,0,0
-315,-90,0,0,0,0,0,0,0,0,0,-1,909,1114,0,0
-308,-90,0,0,0,0,0,0,0,0,0,-1,916,1114,0,0
-301,-90,0,0,0,0,0,0,0,0,0,-1,923,1114,0,0
-294,-90,0,0,0,0,0,0,0,0,0,-1,930,1114,0,0
-287,-90,0,0,0,0,0,0,0,0,0,-1,937,1114,0,0
-280,-90,0,0,0,0,0,0,0,0,0,-1,944,1114,0,0
-273,-90,0,0,0,0,0,0,0,0,0,-1,951,1114,0,0
-266,-90,0,0,0,0,0,0,0,0,0,-1,958,1114,0,0
-259,-90,0,0,0,0,0,0,0,0,0,-1,965,1114,0,0
-252,-90,0,0,0,0,0,0,0,0,0,-1,972,1114,0,0
-245,-90,0,0,0,0,0,0,0,0,0,-1,979,1114,0,0
-238,-90,0,0,0,0,0,0,0,0,0,-1,986,1114,0,0
-231,-90,0,0,0,0,0,0,0,0,0,-1,993,1114,0,0
-224,-90,0,0,0,0,0,0,0,0,0,-1,1000,1114,0,0
-217,-90,0,0,0,0,0,0,0,0,0,-1,1007,1114,0,0
-210,-90,0,0,0,0,0,0,0,0,0,-1,1014,1114,0,0
-203,-90,0,0,0,0,0,0,0,0,0,-1,1021,1114,0,0
-196,-90,0,0,0,0,0,0,0,0,0,-1,1028,1114,0,0
-189,-90,0,0,0,0,0,0,0,0,0,-1,1035,1114,0,0
-182,-90,0,0,0,0,0,0,0,0,0,-1,1042,1114,0,0
-175,-90,0,0,0,0,0,0,0,0,0,-1,1049,1114,0,0
-168,-90,0,0,0,0,0,0,0,0,0,-1,1056,1114,0,0
-161,-90,0,0,0,0,0,0,0,0,0,-1,1063,1114,0,0
-154,-90,0,0,0,0,0,0,0,0,0,-1,1070,1114,0,0
-147,-90,0,0,0,0,0,0,0,0,0,-1,1077,1114,0,0
-140,-90,0,0,0,0,0,0,0,0,0,-1,1084,1114,0,0
-133,-90,0,0,0,0,0,0,0,0,0,-1,1091,1114,0,0
-126,-90,0,0,0,0,0,0,0,0,0,-1,1098,1114,0,0
-119,-90,0,0,0,0,0,0,0,0,0,-1,1105,1114,0,0
-112,-90,0,0,0,0,0,0,0,0,0,-1,1112,1114,0,0
-105,-90,0,0,0,0,0,0,0,0,0,-1,1119,1114,0,0
-98,-90,0,0,0,0,0,0,0,0,0,-1,1126,1114,0,0
-91,-90,0,0,0,0,0,0,0,0,0,-1,1133,1114,0,0
-84,-90,0,0,0,0,0,0,0,0,0,-1,1140,1114,0,0
-77,-90,0,0,0,0,0,0,0,0,0,-1,1147,1114,0,0
-70,-90,0,0,0,0,0,0,0,0,0,-1,1154,1114,0,0
-63,-90,0,0,0,0,0,0,0,0,0,-1,1161,1114,0,0
-56,-90,0,0,0,0,0,0,0,0,0,-1,1168,1114,0,0
-49,-90,0,0,0,0,0,0,0,0,0,-1,1175,1114,0,0
-42,-90,0,0,0,0,0,0,0,0,0,-1,1182,1114,0,0
-35,-90,0,0,0,0,0,0,0,0,0,-1,1189,1114,0,0
-28,-90,0,0,0,0,0,0,0,0,0,-1,1196,1114,0,0
-21,-90,0,0,0,0,0,0,0,0,0,-1,1203,1114,0,0
-14,-90,0,0,0,0,0,0,0,0,0,-1,1210,1114,0,0
-7,-90,0,0,0,0,0,0,0,0,0,-1,1217,1114,0,0
0,-90,0,0,0,0,0,0,0,0,0,-1,1224,1114,0,0
7,-90,0,0,0,0,0,0,0,0,0,-1,1231,1114,0,0
14,-90,0,0,0,0,0,0,0,0,0,-1,1238,1114,0,0
21,-90,0,0,0,0,0,0,0,0,0,-1,1245,1114,0,0
28,-90,0,0,0,0,0,0,0,0,0,-1,1252,1114,0,0
35,-90,0,0,0,0,0,0,0,0,0,-1,1259,1114,0,0
42,-90,0,0,0,0,0,0,0,0,0,-1,1266,1114,0,0
49,-90,0,0,0,0,0,0,0,0,0,-1,1273,1114,0,0
56,-90,0,0,0,0,0,0,0,0,0,-1,1280,1114,0,0
63,-90,0,0,0,0,0,0,0,0,0,-1,1287,1114,0,0
70,-90,0,0,0,0,0,0,0,0,0,-1,1294,1114,0,0
77,-90,0,0,0,0,0,0,0,0,0,-1,1301,1114,0,0
84,-90,0,0,0,0,0,0,0,0,0,-1,1308,1114,0,0
91,-90,0,0,0,0,0,0,0,0,0,-1,1315,1114,0,0
98,-90,0,0,0,0,0,0,0,0,0,-1,1322,1114,0,0
105,-90,0,0,0,0,0,0,0,0,0,-1,1329,1114,0,0
112,-90,0,0,0,0,0,0,0,0,0,-1,1336,1114,0,0
119,-90,0,0,0,0,0,0,0,0,0,-1,1343,1114,0,0
126,-90,0,0,0,0,0,0,0,0,0,-1,1350,1114,0,0
133,-90,0,0,0,0,0,0,0,0,0,-1,1357,1114,0,0
140,-90,0,0,0,0,0,0,0,0,0,-1,1364,1114,0,0
147,-90,0,0,0,0,0,0,0,0,0,-1,1371,1114,0,0
154,-90,0,0,0,0,0,0,0,0,0,-1,1378,1114,0,0
161,-90,0,0,0,0,0,0,0,0,0,-1,1385,1114,0,0
168,-90,0,0,0,0,0,0,0,0,0,-1,1392,1114,0,0
175,-90,0,0,0,0,0,0,0,0,0,-1,1399,1114,0,0
182,-90,0,0,0,0,0,0,0,0,0,-1,1406,1114,0,0
189,-90,0,0,0,0,0,0,0,0,0,-1,1413,1114,0,0
196,-90,0,0,0,0,0,0,0,0,0,-1,1420,1114,0,0
203,-90,0,0,0,0,0,0,0,0,0,-1,1427,1114,0,0
210,-90,0,0,0,0,0,0,0,0,0,-1,1434,1114,0,0
217,-90,0,0,0,0,0,0,0,0,0,-1,1441,1114,0,0
224,-90,0,0,0,0,0,0,0,0,0,-1,1448,1114,0,0
231,-90,0,0,0,0,0,0,0,0,0,-1,1455,1114,0,0
238,-90,0,0,0,0,0,0,0,0,0,-1,1462,1114,0,0
245,-90,0,0,0,0,0,0,0,0,0,-1,1469,1114,0,0
252,-90,0,0,0,0,0,0,0,0,0,-1,1476,1114,0,0
259,-90,0,0,0,0,0,0,0,0,0,-1,1483,1114,0,0
266,-90,0,0,0,0,0,0,0,0,0,-1,1490,1114,0,0
273,-90,0,0,0,0,0,0,0,0,0,-1,1497,1114,0,0
280,-90,0,0,0,0,0,0,0,0,0,-1,1504,1114,0,0
287,-90,0,0,0,0,0,0,0,0,0,-1,1511,1114,0,0
294,-90,0,0,0,0,0,0,0,0,0,-1,1518,1114,0,0
301,-90,0,0,0,0,0,0,0,0,0,-1,1525,1114,0,0
308,-90,0,0,0,0,0,0,0,0,0,-1,1532,1114,0,0
315,-90,0,0,0,0,0,0,0,0,0,-1,1539,1114,0,0
322,-90,0,0,0,0,0,0,0,0,0,-1,1546,1114,0,0
329,-90,0,0,0,0,0,0,0,0,0,-1,1553,1114,0,0
336,-90,0,0,0,0,0,0,0,0,0,-1,1560,1114,0,0
343,-90,0,0,0,0,0,0,0,0,0,-1,1567,1114,0,0
350,-90,0,0,0,0,0,0,0,0,0,-1,1574,1114,0,0
357,-90,0,0,0,0,0,0,0,0,0,-1,1581,1114,0,0
364,-90,0,0,0,0,0,0,0,0,0,-1,1588,1114,0,0
371,-90,0,0,0,0,0,0,0,0,0,-1,1595,1114,0,0
378,-90,0,0,0,0,0,0,0,0,0,-1,1602,1114,0,0
385,-90,0,0,0,0,0,0,0,0,0,-1,1609,1114,0,0
392,-90,0,0,0,0,0,0,0,0,0,-1,1616,1114,0,0
399,-90,0,0,0,0,0,0,0,0,0,-1,1623,1114,0,0
406,-90,0,0,0,0,0,0,0,0,0,-1,1630,1114,0,0
413,-90,0,0,0,0,0,0,0,0,0,-1,1637,1114,0,0
420,-90,0,0,0,0,0,0,0,0,0,-1,1644,1114,0,0
427,-90,0,0,0,0,0,0,0,0,0,-1,1651,1114,0,0
434,-90,0,0,0,0,0,0,0,0,0,-1,1658,1114,0,0
441,-90,0,0,0,0,0,0,0,0,0,-1,1665,1114,0,0
448,-90,0,0,0,0,0,0,0,0,0,-1,1672,1114,0,0
455,-90,0,0,0,0,0,0,0,0,0,-1,1679,1114,0,0
462,-90,0,0,0,0,0,0,0,0,0,-1,1686,1114,0,0
469,-90,0,0,0,0,0,0,0,0,0,-1,1693,1114,0,0
476,-90,0,0,0,0,0,0,0,0,0,-1,1700,1114,0,0
483,-90,0,0,0,0,0,0,0,0,0,-1,1707,1114,0,0
490,-90,0,0,0,0,0,0,0,0,0,-1,1714,1114,0,0
497,-90,0,0,0,0,0,0,0,0,0,-1,1721,1114,0,0
504,-90,0,0,0,0,0,0,0,0,0,-1,1728,1114,0,0
511,-90,0,0,0,0,0,0,0,0,0,-1,1735,1114,0,0
518,-90,0,0,0,0,0,0,0,0,0,-1,1742,1114,0,0
525,-90,0,0,0,0,0,0,0,0,0,-1,1749,1114,0,0
532,-90,0,0,0,0,0,0,0,0,0,-1,1756,1114,0,0
539,-90,0,0,0,0,0,0,0,0,0,-1,1763,1114,0,0
546,-90,0,0,0,0,0,0,0,0,0,-1,1770,1114,0,0
553,-90,0,0,0,0,0,0,0,0,0,-1,1777,1114,0,0
560,-90,0,0,0,0,0,0,0,0,0,-1,1784,1114,0,0
567,-90,0,0,0,0,0,0,0,0,0,-1,1791,1114,0,0
574,-90,0,0,0,0,0,0,0,0,0,-1,1798,1114,0,0
581,-90,0,0,0,0,0,0,0,0,0,-1,1805,1114,0,0
588,-90,0,0,0,0,0,0,0,0,0,-1,1812,1114,0,0
595,-90,0,0,0,0,0,0,0,0,0,-1,1819,1114,0,0
602,-90,0,0,0,0,0,0,0,0,0,-1,1826,1114,0,0
609,-90,0,0,0,0,0,0,0,0,0,-1,1833,1114,0,0
616,-90,0,0,0,0,0,0,0,0,0,-1,1840,1114,0,0
623,-90,0,0,0,0,0,0,0,0,0,-1,1847,1114,0,0
630,-90,0,0,0,0,0,0,0,0,0,-1,1854,1114,0,0
637,-90,0,0,0,0,0,0,0,0,0,-1,1861,1114,0,0
644,-90,70.4886,2.29065,0.00810043,-0.00275562,0.00353217,0.0091485,-0.00380368,0.288444,0.00768725,0.0342567,1868,1114,70.4886,-2.29062
651,-90,70.5311,2.36926,0.00636079,-0.00256114,0.00292432,0.00723386,-0.00343421,0.290128,0.00628808,0.0371215,1875,1114,70.5312,-2.36932
658,-90,70.6489,2.54053,0.00496076,-0.00232847,0.00217087,0.00555831,-0.00292601,0.268603,0.00497639,0.0404453,1882,1114,70.649,-2.54049
665,-90,70.4659,2.24255,0.00367752,-0.00198302,0.00138826,0.00399966,-0.00230516,0.228011,0.00368365,0.0421799,1889,1114,70.4659,-2.24251
672,-90,70.4146,2.0553,0.00248433,-0.00153793,0.000578669,0.00256593,-0.00161953,0.140082,0.00243698,0.0406752,1896,1114,70.4146,-2.05532
679,-90,70.5975,2.39417,0.00159759,-0.00121008,-0.000103418,0.00160139,-0.00121388,-0.0367678,0.00163053,0.0377621,1903,1114,70.5975,-2.3942
686,-90,70.6417,2.43823,0.00113639,-0.0012272,-0.000483572,0.0012315,-0.0013223,-0.194199,0.00147475,0.0356013,1910,1114,70.6418,-2.43826
693,-90,70.5039,2.28052,0.000848036,-0.00131477,-0.000587612,0.000997373,-0.00146411,-0.248873,0.00142963,0.0353223,1917,1114,70.5038,-2.28047
700,-90,70.4346,2.33618,0.000855631,-0.00136431,-0.000489357,0.000958716,-0.0014674,-0.207619,0.00141094,0.0329872,1924,1114,70.4345,-2.33619
707,-90,70.4225,2.18323,0.000600775,-0.00126606,-0.000282439,0.00064257,-0.00130785,-0.146914,0.00114771,0.0263966,1931,1114,70.4225,-2.18328
714,-90,70.3756,1.80908,0,0,0,0,0,0,0,-1,1938,1114,70.3756,-1.80912
721,-90,63.521,8.76965,0,0,0,0,0,0,0,-1,1945,1114,63.521,-8.7697
728,-90,65.799,8.58264,0,0,0,0,0,0,0,-1,1952,1114,65.799,-8.58261
735,-90,65.7207,8.09692,-0.000516115,0.000595154,0.000790657,0.00100589,-0.00092685,1.09168,0.00111618,0.0413808,1959,1114,65.7207,-8.09695
742,-90,65.8542,7.50342,-0.000166452,0.00133224,0.000947479,0.00179088,-0.000625094,1.11998,0.00144798,0.0357711,1966,1114,65.8542,-7.50343
749,-90,66.1938,6.85608,0.000232894,0.00273583,0.00121114,0.00322592,-0.000257196,1.18628,0.00224127,0.0212377,1973,1114,66.1939,-6.85602
756,-90,66.1276,6.40222,0.00101318,0.00504729,0.000909356,0.0052428,0.000817668,1.35902,0.00325704,0.0176514,1980,1114,66.1275,-6.40224
763,-90,66.0151,5.91296,0.00283031,0.0082926,-0.000150249,0.00829673,0.00282618,-1.54332,0.00487054,0.0130563,1987,1114,66.0152,-5.91297
770,-90,65.9185,5.4281,0.00614519,0.0127352,-0.00210676,0.0133512,0.00552925,-1.28636,0.00774609,0.0168154,1994,1114,65.9184,-5.42815
777,-90,65.7913,4.99133,0.0108195,0.0179225,-0.00476571,0.0203145,0.00842748,-1.10562,0.0117851,0.01695,2001,1114,65.7914,-4.99132
784,-90,65.6743,4.56775,0.0169619,0.0238455,-0.00816012,0.02926,0.0115475,-0.984969,0.0170178,0.0314006,2008,1114,65.6742,-4.56776
791,-90,65.6716,4.12476,0.025443,0.030805,-0.0128507,0.0412515,0.0149966,-0.888236,0.0241104,0.0438554,2015,1114,65.6716,-4.12472
798,-90,65.6768,3.61108,0,0,0,0,0,0,0,-1,2022,1114,65.6768,-3.61106
805,-90,65.2878,2.39954,0,0,0,0,0,0,0,-1,2029,1114,65.2878,-2.39954
812,-90,65.1321,1.67981,0,0,0,0,0,0,0,-1,2036,1114,65.1321,-1.67986
-700,-97,0,0,0,0,0,0,0,0,0,-1,524,1121,0,0
-693,-97,-50.6471,0.308228,0,0,0,0,0,0,0,-1,531,1121,-50.6471,-0.308209
-686,-97,-50.9507,1.81238,0.0360436,0.0627674,0.026692,0.0792552,0.0195558,1.01746,0.0476744,0.0458255,538,1121,-50.9507,-1.81233
-679,-97,-51.2342,3.34961,0.0308842,0.0565015,0.0237501,0.0706767,0.016709,1.0327,0.0426534,0.0463557,545,1121,-51.2342,-3.34962
-672,-97,-51.5086,5.06274,0.0257091,0.0495234,0.0203279,0.0611748,0.0140577,1.05034,0.0369985,0.0459107,552,1121,-51.5086,-5.06278
-665,-97,-51.4351,6.54199,0,0,0,0,0,0,0,-1,559,1121,-51.4351,-6.54196
-658,-97,-51.6977,8.14124,0,0,0,0,0,0,0,-1,566,1121,-51.6977,-8.14118
-651,-97,-49.6318,2.38123,0.0109488,0.0275655,0.00981337,0.0321153,0.00639902,1.13667,0.019628,0.0372121,573,1121,-49.6318,-2.38126
-644,-97,-49.7469,2.99353,0.00695258,0.0209662,0.00701099,0.0238715,0.00404731,1.17795,0.0147515,0.0149769,580,1121,-49.7469,-2.99349
-637,-97,-49.7768,3.59424,0.00337399,0.0144416,0.00415392,0.0158272,0.0019884,1.24884,0.00995506,0.0144643,587,1121,-49.7768,-3.59427
-630,-97,-49.8143,4.14453,0.00127939,0.00846787,0.00116973,0.00865343,0.00109383,1.41348,0.00544111,0.011731,594,1121,-49.8143,-4.14454
-623,-97,-49.8724,4.66309,0.000558201,0.00337255,-0.000428798,0.00343643,0.000494319,-1.4229,0.00214525,0.0148983,601,1121,-49.8724,-4.66311
-616,-97,-49.9566,5.28625,0.00149418,0.00092576,-0.000736305,0.00199922,0.000420716,-0.601212,0.00121706,0.0228272,608,1121,-49.9566,-5.28628
-609,-97,-50.0485,5.90112,0.00274895,-0.000229907,-0.000626062,0.00287518,-0.000356137,-0.198957,0.00204586,0.032054,615,1121,-50.0485,-5.90117
-602,-97,-50.1158,6.36877,0.00373583,-0.000720768,-0.0010487,0.00397028,-0.000955208,-0.219937,0.0030161,0.0319891,622,1121,-50.1158,-6.36872
-595,-97,-50.0682,6.95178,0.00398275,-0.00117122,-0.00149789,0.00438646,-0.00157493,-0.263261,0.00356712,0.0254761,629,1121,-50.0683,-6.95182
-588,-97,-50.3734,7.47534,0,0,0,0,0,0,0,-1,636,1121,-50.3734,-7.47539
-581,-97,-51.2355,3.23926,0,0,0,0,0,0,0,-1,643,1121,-51.2355,-3.23926
-574,-97,-54.384,0.456055,0,0,0,0,0,0,0,-1,650,1121,-54.3839,-0.456069
-567,-97,-54.4979,0.654053,0.00651947,-0.00315305,-0.0031653,0.00746322,-0.0040968,-0.289764,0.00676786,0.036203,657,1121,-54.4979,-0.654097
-560,-97,-54.4243,0.714966,0.00662148,-0.00328489,-0.00373042,0.00786911,-0.00453252,-0.322753,0.00724595,0.041597,664,1121,-54.4243,-0.715023
-553,-97,-54.2325,0.647461,0.00541071,-0.00332833,-0.00464737,0.00742012,-0.00533774,-0.408101,0.00739839,0.0464276,671,1121,-54.2326,-0.647519
-546,-97,-54.1152,0.432007,0.00358976,-0.00328548,-0.00578695,0.00688311,-0.00657883,-0.517389,0.00777292,0.0446648,678,1121,-54.1152,-0.431992
-539,-97,-54.3509,0.261597,0.00226168,-0.00380921,-0.00703366,0.00688693,-0.00843446,-0.581691,0.00886084,0.0392921,685,1121,-54.3509,-0.261541
-532,-97,-54.4788,0.3302,0.00109003,-0.00425403,-0.00804383,0.00689402,-0.010058,-0.62504,0.00984393,0.0395617,692,1121,-54.4788,-0.330188
-525,-97,0,0,0,0,0,0,0,0,0,-1,699,1121,0,0
-518,-97,0,0,0,0,0,0,0,0,0,-1,706,1121,0,0
-511,-97,0,0,0,0,0,0,0,0,0,-1,713,1121,0,0
-504,-97,0,0,0,0,0,0,0,0,0,-1,720,1121,0,0
-497,-97,0,0,0,0,0,0,0,0,0,-1,727,1121,0,0
-490,-97,0,0,0,0,0,0,0,0,0,-1,734,1121,0,0
-483,-97,0,0,0,0,0,0,0,0,0,-1,741,1121,0,0
-476,-97,0,0,0,0,0,0,0,0,0,-1,748,1121,0,0
-469,-97,0,0,0,0,0,0,0,0,0,-1,755,1121,0,0
-462,-97,0,0,0,0,0,0,0,0,0,-1,762,1121,0,0
-455,-97,0,0,0,0,0,0,0,0,0,-1,769,1121,0,0
-448,-97,0,0,0,0,0,0,0,0,0,-1,776,1121,0,0
-441,-97,0,0,0,0,0,0,0,0,0,-1,783,1121,0,0
-434,-97,0,0,0,0,0,0,0,0,0,-1,790,1121,0,0
-427,-97,0,0,0,0,0,0,0,0,0,-1,797,1121,0,0
-420,-97,0,0,0,0,0,0,0,0,0,-1,804,1121,0,0
-413,-97,0,0,0,0,0,0,0,0,0,-1,811,1121,0,0
-406,-97,0,0,0,0,0,0,0,0,0,-1,818,1121,0,0
-399,-97,0,0,0,0,0,0,0,0,0,-1,825,1121,0,0
-392,-97,0,0,0,0,0,0,0,0,0,-1,832,1121,0,0
-385,-97,0,0,0,0,0,0,0,0,0,-1,839,1121,0,0
-378,-97,0,0,0,0,0,0,0,0,0,-1,846,1121,0,0
-371,-97,0,0,0,0,0,0,0,0,0,-1,853,1121,0,0
-364,-97,0,0,0,0,0,0,0,0,0,-1,860,1121,0,0
-357,-97,0,0,0,0,0,0,0,0,0,-1,867,1121,0,0
-350,-97,0,0,0,0,0,0,0,0,0,-1,874,1121,0,0
-343,-97,0,0,0,0,0,0,0,0,0,-1,881,1121,0,0
-336,-97,0,0,0,0,0,0,0,0,0,-1,888,1121,0,0
-329,-97,0,0,0,0,0,0,0,0,0,-1,895,1121,0,0
-322,-97,0,0,0,0,0,0,0,0,0,-1,902,1121,0,0
-315,-97,0,0,0,0,0,0,0,0,0,-1,909,1121,0,0
-308,-97,0,0,0,0,0,0,0,0,0,-1,916,1121,0,0
-301,-97,0,0,0,0,0,0,0,0,0,-1,923,1121,0,0
-294,-97,0,0,0,0,0,0,0,0,0,-1,930,1121,0,0
-287,-97,0,0,0,0,0,0,0,0,0,-1,937,1121,0,0
-280,-97,0,0,0,0,0,0,0,0,0,-1,944,1121,0,0
-273,-97,0,0,0,0,0,0,0,0,0,-1,951,1121,0,0
-266,-97,0,0,0,0,0,0,0,0,0,-1,958,1121,0,0
-259,-97,0,0,0,0,0,0,0,0,0,-1,965,1121,0,0
-252,-97,0,0,0,0,0,0,0,0,0,-1,972,1121,0,0
-245,-97,0,0,0,0,0,0,0,0,0,-1,979,1121,0,0
-238,-97,0,0,0,0,0,0,0,0,0,-1,986,1121,0,0
-231,-97,0,0,0,0,0,0,0,0,0,-1,993,1121,0,0
-224,-97,0,0,0,0,0,0,0,0,0,-1,1000,1121,0,0
-217,-97,0,0,0,0,0,0,0,0,0,-1,1007,1121,0,0
-210,-97,0,0,0,0,0,0,0,0,0,-1,1014,1121,0,0
-203,-97,0,0,0,0,0,0,0,0,0,-1,1021,1121,0,0
-196,-97,0,0,0,0,0,0,0,0,0,-1,1028,1121,0,0
-189,-97,0,0,0,0,0,0,0,0,0,-1,1035,1121,0,0
-182,-97,0,0,0,0,0,0,0,0,0,-1,1042,1121,0,0
-175,-97,0,0,0,0,0,0,0,0,0,-1,1049,1121,0,0
-168,-97,0,0,0,0,0,0,0,0,0,-1,1056,1121,0,0
-161,-97,0,0,0,0,0,0,0,0,0,-1,1063,1121,0,0
-154,-97,0,0,0,0,0,0,0,0,0,-1,1070,1121,0,0
-147,-97,0,0,0,0,0,0,0,0,0,-1,1077,1121,0,0
-140,-97,0,0,0,0,0,0,0,0,0,-1,1084,1121,0,0
-133,-97,0,0,0,0,0,0,0,0,0,-1,1091,1121,0,0
-126,-97,0,0,0,0,0,0,0,0,0,-1,1098,1121,0,0
-119,-97,0,0,0,0,0,0,0,0,0,-1,1105,1121,0,0
-112,-97,0,0,0,0,0,0,0,0,0,-1,1112,1121,0,0
-105,-97,0,0,0,0,0,0,0,0,0,-1,1119,1121,0,0
-98,-97,0,0,0,0,0,0,0,0,0,-1,1126,1121,0,0
-91,-97,0,0,0,0,0,0,0,0,0,-1,1133,1121,0,0
-84,-97,0,0,0,0,0,0,0,0,0,-1,1140,1121,0,0
-77,-97,0,0,0,0,0,0,0,0,0,-1,1147,1121,0,0
-70,-97,0,0,0,0,0,0,0,0,0,-1,1154,1121,0,0
-63,-97,0,0,0,0,0,0,0,0,0,-1,1161,1121,0,0
-56,-97,0,0,0,0,0,0,0,0,0,-1,1168,1121,0,0
-49,-97,0,0,0,0,0,0,0,0,0,-1,1175,1121,0,0
-42,-97,0,0,0,0,0,0,0,0,0,-1,1182,1121,0,0
-35,-97,0,0,0,0,0,0,0,0,0,-1,1189,1121,0,0
-28,-97,0,0,0,0,0,0,0,0,0,-1,1196,1121,0,0
-21,-97,0,0,0,0,0,0,0,0,0,-1,1203,1121,0,0
-14,-97,0,0,0,0,0,0,0,0,0,-1,1210,1121,0,0
-7,-97,0,0,0,0,0,0,0,0,0,-1,1217,1121,0,0
0,-97,0,0,0,0,0,0,0,0,0,-1,1224,1121,0,0
7,-97,0,0,0,0,0,0,0,0,0,-1,1231,1121,0,0
14,-97,0,0,0,0,0,0,0,0,0,-1,1238,1121,0,0
21,-97,0,0,0,0,0,0,0,0,0,-1,1245,1121,0,0
28,-97,0,0,0,0,0,0,0,0,0,-1,1252,1121,0,0
35,-97,0,0,0,0,0,0,0,0,0,-1,1259,1121,0,0
42,-97,0,0,0,0,0,0,0,0,0,-1,1266,1121,0,0
49,-97,0,0,0,0,0,0,0,0,0,-1,1273,1121,0,0
56,-97,0,0,0,0,0,0,0,0,0,-1,1280,1121,0,0
63,-97,0,0,0,0,0,0,0,0,0,-1,1287,1121,0,0
70,-97,0,0,0,0,0,0,0,0,0,-1,1294,1121,0,0
77,-97,0,0,0,0,0,0,0,0,0,-1,1301,1121,0,0
84,-97,0,0,0,0,0,0,0,0,0,-1,1308,1121,0,0
91,-97,0,0,0,0,0,0,0,0,0,-1,1315,1121,0,0
98,-97,0,0,0,0,0,0,0,0,0,-1,1322,1121,0,0
105,-97,0,0,0,0,0,0,0,0,0,-1,1329,1121,0,0
112,-97,0,0,0,0,0,0,0,0,0,-1,1336,1121,0,0
119,-97,0,0,0,0,0,0,0,0,0,-1,1343,1121,0,0
126,-97,0,0,0,0,0,0,0,0,0,-1,1350,1121,0,0
133,-97,0,0,0,0,0,0,0,0,0,-1,1357,1121,0,0
140,-97,0,0,0,0,0,0,0,0,0,-1,1364,1121,0,0
147,-97,0,0,0,0,0,0,0,0,0,-1,1371,1121,0,0
154,-97,0,0,0,0,0,0,0,0,0,-1,1378,1121,0,0
161,-97,0,0,0,0,0,0,0,0,0,-1,1385,1121,0,0
168,-97,0,0,0,0,0,0,0,0,0,-1,1392,1121,0,0
175,-97,0,0,0,0,0,0,0,0,0,-1,1399,1121,0,0
182,-97,0,0,0,0,0,0,0,0,0,-1,1406,1121,0,0
189,-97,0,0,0,0,0,0,0,0,0,-1,1413,1121,0,0
196,-97,0,0,0,0,0,0,0,0,0,-1,1420,1121,0,0
203,-97,0,0,0,0,0,0,0,0,0,-1,1427,1121,0,0
210,-97,0,0,0,0,0,0,0,0,0,-1,1434,1121,0,0
217,-97,0,0,0,0,0,0,0,0,0,-1,1441,1121,0,0
224,-97,0,0,0,0,0,0,0,0,0,-1,1448,1121,0,0
231,-97,0,0,0,0,0,0,0,0,0,-1,1455,1121,0,0
238,-97,0,0,0,0,0,0,0,0,0,-1,1462,1121,0,0
245,-97,0,0,0,0,0,0,0,0,0,-1,1469,1121,0,0
252,-97,0,0,0,0,0,0,0,0,0,-1,1476,1121,0,0
259,-97,0,0,0,0,0,0,0,0,0,-1,1483,1121,0,0
266,-97,0,0,0,0,0,0,0,0,0,-1,1490,1121,0,0
273,-97,0,0,0,0,0,0,0,0,0,-1,1497,1121,0,0
280,-97,0,0,0,0,0,0,0,0,0,-1,1504,1121,0,0
287,-97,0,0,0,0,0,0,0,0,0,-1,1511,1121,0,0
294,-97,0,0,0,0,0,0,0,0,0,-1,1518,1121,0,0
301,-97,0,0,0,0,0,0,0,0,0,-1,1525,1121,0,0
308,-97,0,0,0,0,0,0,0,0,0,-1,1532,1121,0,0
315,-97,0,0,0,0,0,0,0,0,0,-1,1539,1121,0,0
322,-97,0,0,0,0,0,0,0,0,0,-1,1546,1121,0,0
329,-97,0,0,0,0,0,0,0,0,0,-1,1553,1121,0,0
336,-97,0,0,0,0,0,0,0,0,0,-1,1560,1121,0,0
343,-97,0,0,0,0,0,0,0,0,0,-1,1567,1121,0,0
350,-97,0,0,0,0,0,0,0,0,0,-1,1574,1121,0,0
357,-97,0,0,0,0,0,0,0,0,0,-1,1581,1121,0,0
364,-97,0,0,0,0,0,0,0,0,0,-1,1588,1121,0,0
371,-97,0,0,0,0,0,0,0,0,0,-1,1595,1121,0,0
378,-97,0,0,0,0,0,0,0,0,0,-1,1602,1121,0,0
385,-97,0,0,0,0,0,0,0,0,0,-1,1609,1121,0,0
392,-97,0,0,0,0,0,0,0,0,0,-1,1616,1121,0,0
399,-97,0,0,0,0,0,0,0,0,0,-1,1623,1121,0,0
406,-97,0,0,0,0,0,0,0,0,0,-1,1630,1121,0,0
413,-97,0,0,0,0,0,0,0,0,0,-1,1637,1121,0,0
420,-97,0,0,0,0,0,0,0,0,0,-1,1644,1121,0,0
427,-97,0,0,0,0,0,0,0,0,0,-1,1651,1121,0,0
434,-97,0,0,0,0,0,0,0,0,0,-1,1658,1121,0,0
441,-97,0,0,0,0,0,0,0,0,0,-1,1665,1121,0,0
448,-97,0,0,0,0,0,0,0,0,0,-1,1672,1121,0,0
455,-97,0,0,0,0,0,0,0,0,0,-1,1679,1121,0,0
462,-97,0,0,0,0,0,0,0,0,0,-1,1686,1121,0,0
469,-97,0,0,0,0,0,0,0,0,0,-1,1693,1121,0,0
476,-97,0,0,0,0,0,0,0,0,0,-1,1700,1121,0,0
483,-97,0,0,0,0,0,0,0,0,0,-1,1707,1121,0,0
490,-97,0,0,0,0,0,0,0,0,0,-1,1714,1121,0,0
497,-97,0,0,0,0,0,0,0,0,0,-1,1721,1121,0,0
504,-97,0,0,0,0,0,0,0,0,0,-1,1728,1121,0,0
511,-97,0,0,0,0,0,0,0,0,0,-1,1735,1121,0,0
518,-97,0,0,0,0,0,0,0,0,0,-1,1742,1121,0,0
525,-97,0,0,0,0,0,0,0,0,0,-1,1749,1121,0,0
532,-97,0,0,0,0,0,0,0,0,0,-1,1756,1121,0,0
539,-97,0,0,0,0,0,0,0,0,0,-1,1763,1121,0,0
546,-97,0,0,0,0,0,0,0,0,0,-1,1770,1121,0,0
553,-97,0,0,0,0,0,0,0,0,0,-1,1777,1121,0,0
560,-97,0,0,0,0,0,0,0,0,0,-1,1784,1121,0,0
567,-97,0,0,0,0,0,0,0,0,0,-1,1791,1121,0,0
574,-97,0,0,0,0,0,0,0,0,0,-1,1798,1121,0,0
581,-97,0,0,0,0,0,0,0,0,0,-1,1805,1121,0,0
588,-97,0,0,0,0,0,0,0,0,0,-1,1812,1121,0,0
595,-97,0,0,0,0,0,0,0,0,0,-1,1819,1121,0,0
602,-97,0,0,0,0,0,0,0,0,0,-1,1826,1121,0,0
609,-97,0,0,0,0,0,0,0,0,0,-1,1833,1121,0,0
616,-97,0,0,0,0,0,0,0,0,0,-1,1840,1121,0,0
623,-97,0,0,0,0,0,0,0,0,0,-1,1847,1121,0,0
630,-97,0,0,0,0,0,0,0,0,0,-1,1854,1121,0,0
637,-97,0,0,0,0,0,0,0,0,0,-1,1861,1121,0,0
644,-97,70.4285,2.43213,0.00705646,-0.00158252,0.00358487,0.00835028,-0.00287634,0.346363,0.00673362,0.0361416,1868,1121,70.4285,-2.43216
651,-97,70.4496,2.38904,0.00575888,-0.0015557,0.00305029,0.00686395,-0.00266077,0.347574,0.00567477,0.03555,1875,1121,70.4495,-2.38905
658,-97,70.5143,2.22937,0.00464664,-0.00149792,0.0023152,0.00542131,-0.0022726,0.322894,0.00456439,0.0377095,1882,1121,70.5142,-2.22943
665,-97,70.5304,2.07471,0.00352675,-0.00131342,0.00152949,0.00396956,-0.00175623,0.281807,0.00338711,0.0428203,1889,1121,70.5304,-2.07471
672,-97,70.5594,2.18982,0.00243262,-0.00103534,0.000693371,0.00256611,-0.00116883,0.190198,0.0022061,0.0435147,1896,1121,70.5594,-2.18986
679,-97,70.5924,2.41333,0.00166149,-0.000924987,1.89835e-05,0.00166163,-0.000925126,0.007339,0.00151351,0.041786,1903,1121,70.5924,-2.41333
686,-97,70.4962,2.33472,0.00133866,-0.00105384,-0.000363066,0.00139254,-0.00110772,-0.147334,0.00144665,0.038092,1910,1121,70.4962,-2.33473
693,-97,70.4637,2.24939,0.00112897,-0.00120257,-0.000490967,0.00122813,-0.00130174,-0.199304,0.00146083,0.0363845,1917,1121,70.4637,-2.24942
700,-97,70.4109,2.33154,0.00118529,-0.00130271,-0.000418852,0.00125391,-0.00137133,-0.162388,0.00151619,0.0302198,1924,1121,70.4109,-2.33156
707,-97,70.4171,2.2323,0.000975365,-0.00127085,-0.000257279,0.00100446,-0.00129995,-0.112596,0.00133409,0.0280527,1931,1121,70.4172,-2.23231
714,-97,70.4121,2.02795,0,0,0,0,0,0,0,-1,1938,1121,70.4121,-2.02792
721,-97,65.6006,8.87756,0,0,0,0,0,0,0,-1,1945,1121,65.6006,-8.87756
728,-97,65.5602,8.53589,-0.000119657,-0.000186238,0.000558414,0.000406458,-0.000712353,0.755625,0.000653945,0.0368985,1952,1121,65.5602,-8.53594
735,-97,65.4907,7.98938,0.000166422,0.000337019,0.000716217,0.000972999,-0.000469558,0.844667,0.000849599,0.0318615,1959,1121,65.4907,-7.98939
742,-97,65.4568,7.48596,0.000555274,0.00100551,0.000890503,0.00169891,-0.000138126,0.909203,0.00118134,0.0267022,1966,1121,65.4568,-7.48599
749,-97,65.5306,6.93298,0.000974865,0.00226728,0.00110044,0.00289722,0.000344926,1.05089,0.00182739,0.0244375,1973,1121,65.5307,-6.93301
756,-97,65.5466,6.40405,0.00189413,0.00446465,0.000748104,0.00466652,0.00169226,1.30723,0.00272789,0.0169507,1980,1121,65.5466,-6.40408
763,-97,65.4404,5.91614,0.00400285,0.00758153,-0.00044736,0.0076366,0.00394777,-1.4483,0.00440984,0.0134422,1987,1121,65.4406,-5.91613
770,-97,65.3611,5.43811,0.00765799,0.0117665,-0.00258571,0.0130146,0.00640984,-1.12108,0.00751429,0.0130519,1994,1121,65.3611,-5.43807
777,-97,65.2676,4.93542,0.0127361,0.0166959,-0.00550019,0.0205617,0.0088703,-0.958162,0.0119085,0.0179674,2001,1121,65.2675,-4.93542
784,-97,65.2595,4.32874,0.0195241,0.0225096,-0.00933425,0.0304697,0.011564,-0.864687,0.0177611,0.0389669,2008,1121,65.2596,-4.32876
791,-97,65.4028,3.60168,0.0289954,0.0296588,-0.0147643,0.0440952,0.0145591,-0.79663,0.0259432,0.046785,2015,1121,65.4029,-3.60163
798,-97,65.7876,2.79114,0,0,0,0,0,0,0,-1,2022,1121,65.7877,-2.79117
805,-97,65.9385,2.23669,0,0,0,0,0,0,0,-1,2029,1121,65.9385,-2.23666
812,-97,64.5991,1.97266,0,0,0,0,0,0,0,-1,2036,1121,64.5992,-1.97262
-700,-104,0,0,0,0,0,0,0,0,0,-1,524,1128,0,0
-693,-104,-50.1292,0.196411,0,0,0,0,0,0,0,-1,531,1128,-50.1291,-0.196396
-686,-104,-50.334,1.66675,0.0302545,0.0748947,0.0355095,0.0945163,0.0106328,1.06598,0.0597826,0.0447574,538,1128,-50.334,-1.6667
-679,-104,-50.5871,3.06128,0.0267876,0.0666054,0.0303544,0.0829974,0.0103956,1.07565,0.0522125,0.0458646,545,1128,-50.5871,-3.06126
-672,-104,-50.8016,4.43774,0.022984,0.057751,0.025178,0.0709636,0.00977149,1.08753,0.0444117,0.0486949,552,1128,-50.8016,-4.43778
-665,-104,-50.7872,5.58716,0,0,0,0,0,0,0,-1,559,1128,-50.7872,-5.58715
-658,-104,-48.9739,1.76917,0,0,0,0,0,0,0,-1,566,1128,-48.9739,-1.76918
-651,-104,-49.0314,2.32373,0.0106812,0.0308665,0.0113615,0.0359707,0.005577,1.14856,0.0223546,0.0473835,573,1128,-49.0314,-2.3237
-644,-104,-49.1096,2.96143,0.00712072,0.0228489,0.00776681,0.0260377,0.00393187,1.18121,0.0162076,0.0170179,580,1128,-49.1096,-2.96143
-637,-104,-49.1625,3.57214,0.00377929,0.0152571,0.00443813,0.016773,0.00226341,1.24166,0.0105091,0.0126558,587,1128,-49.1625,-3.57216
-630,-104,-49.1879,4.07983,0.00165674,0.00861247,0.00125477,0.0088319,0.00143731,1.39767,0.00547211,0.0184352,594,1128,-49.1878,-4.07988
-623,-104,-49.2894,4.68152,0.000717373,0.00307966,-0.000379186,0.00313903,0.000658,-1.41548,0.00191149,0.0207168,601,1128,-49.2894,-4.6815
-616,-104,-49.637,5.37842,0.00161954,0.000780758,-0.000579847,0.00191577,0.000484529,-0.472308,0.00115021,0.0307702,608,1128,-49.637,-5.37842
-609,-104,-49.7655,5.828,0.00281871,-0.000214557,-0.000446863,0.00288317,-0.000279019,-0.143267,0.00202155,0.0406685,615,1128,-49.7655,-5.82795
-602,-104,-49.5803,6.43726,0.00366722,-0.000468773,-0.000899793,0.00385449,-0.000656046,-0.205199,0.00281395,0.0358289,622,1128,-49.5803,-6.43728
-595,-104,-49.3783,7.12415,0.0037391,-0.000730268,-0.00137479,0.00412813,-0.0011193,-0.275763,0.0031913,0.0274687,629,1128,-49.3783,-7.1242
-588,-104,-49.4861,7.90747,0,0,0,0,0,0,0,-1,636,1128,-49.4861,-7.90746
-581,-104,-23.9373,2.85864,0,0,0,0,0,0,0,-1,643,1128,-23.9373,-2.85861
-574,-104,-54.3458,0.449219,0,0,0,0,0,0,0,-1,650,1128,-54.3458,-0.449235
-567,-104,-54.4541,0.750366,0.00684557,-0.00211207,-0.00319194,0.0078666,-0.0031331,-0.309591,0.00654375,0.0361479,657,1128,-54.4541,-0.750356
-560,-104,-54.4319,0.917725,0.00736178,-0.00226091,-0.00372376,0.00863447,-0.00353359,-0.329328,0.00722806,0.0436378,664,1128,-54.4319,-0.917682
-553,-104,-54.3857,0.486206,0.00632223,-0.00244339,-0.00473366,0.00839051,-0.00451167,-0.411932,0.00756045,0.0496386,671,1128,-54.3857,-0.486266
-546,-104,-54.6811,0.833008,0,0,0,0,0,0,0,-1,678,1128,-54.6811,-0.833011
-539,-104,-54.5337,0.671509,0.00324686,-0.0033565,-0.00743206,0.00807762,-0.00818726,-0.576368,0.0093906,0.0409792,685,1128,-54.5337,-0.671484
-532,-104,-54.4039,0.452637,0.0021526,-0.00411552,-0.00857456,0.00814791,-0.0101108,-0.610187,0.010562,0.0416785,692,1128,-54.4039,-0.452673
-525,-104,-54.3692,0.375732,0.00108457,-0.00474607,-0.00942354,0.00803344,-0.0116949,-0.635385,0.0114554,0.0390784,699,1128,-54.3692,-0.375702
-518,-104,0,0,0,0,0,0,0,0,0,-1,706,1128,0,0
-511,-104,0,0,0,0,0,0,0,0,0,-1,713,1128,0,0
-504,-104,0,0,0,0,0,0,0,0,0,-1,720,1128,0,0
-497,-104,0,0,0,0,0,0,0,0,0,-1,727,1128,0,0
-490,-104,0,0,0,0,0,0,0,0,0,-1,734,1128,0,0
-483,-104,0,0,0,0,0,0,0,0,0,-1,741,1128,0,0
-476,-104,0,0,0,0,0,0,0,0,0,-1,748,1128,0,0
-469,-104,0,0,0,0,0,0,0,0,0,-1,755,1128,0,0
-462,-104,0,0,0,0,0,0,0,0,0,-1,762,1128,0,0
-455,-104,0,0,0,0,0,0,0,0,0,-1,769,1128,0,0
-448,-104,0,0,0,0,0,0,0,0,0,-1,776,1128,0,0
-441,-104,0,0,0,0,0,0,0,0,0,-1,783,1128,0,0
-434,-104,0,0,0,0,0,0,0,0,0,-1,790,1128,0,0
-427,-104,0,0,0,0,0,0,0,0,0,-1,797,1128,0,0
-420,-104,0,0,0,0,0,0,0,0,0,-1,804,1128,0,0
-413,-104,0,0,0,0,0,0,0,0,0,-1,811,1128,0,0
-406,-104,0,0,0,0,0,0,0,0,0,-1,818,1128,0,0
-399,-104,0,0,0,0,0,0,0,0,0,-1,825,1128,0,0
-392,-104,0,0,0,0,0,0,0,0,0,-1,832,1128,0,0
-385,-104,0,0,0,0,0,0,0,0,0,-1,839,1128,0,0
-378,-104,0,0,0,0,0,0,0,0,0,-1,846,1128,0,0
-371,-104,0,0,0,0,0,0,0,0,0,-1,853,1128,0,0
-364,-104,0,0,0,0,0,0,0,0,0,-1,860,1128,0,0
-357,-104,0,0,0,0,0,0,0,0,0,-1,867,1128,0,0
-350,-104,0,0,0,0,0,0,0,0,0,-1,874,1128,0,0
-343,-104,0,0,0,0,0,0,0,0,0,-1,881,1128,0,0
-336,-104,0,0,0,0,0,0,0,0,0,-1,888,1128,0,0
-329,-104,0,0,0,0,0,0,0,0,0,-1,895,1128,0,0
-322,-104,0,0,0,0,0,0,0,0,0,-1,902,1128,0,0
-315,-104,0,0,0,0,0,0,0,0,0,-1,909,1128,0,0
-308,-104,0,0,0,0,0,0,0,0,0,-1,916,1128,0,0
-301,-104,0,0,0,0,0,0,0,0,0,-1,923,1128,0,0
-294,-104,0,0,0,0,0,0,0,0,0,-1,930,1128,0,0
-287,-104,0,0,0,0,0,0,0,0,0,-1,937,1128,0,0
-280,-104,0,0,0,0,0,0,0,0,0,-1,944,1128,0,0
-273,-104,0,0,0,0,0,0,0,0,0,-1,951,1128,0,0
-266,-104,0,0,0,0,0,0,0,0,0,-1,958,1128,0,0
-259,-104,0,0,0,0,0,0,0,0,0,-1,965,1128,0,0
-252,-104,0,0,0,0,0,0,0,0,0,-1,972,1128,0,0
-245,-104,0,0,0,0,0,0,0,0,0,-1,979,1128,0,0
-238,-104,0,0,0,0,0,0,0,0,0,-1,986,1128,0,0
-231,-104,0,0,0,0,0,0,0,0,0,-1,993,1128,0,0
-224,-104,0,0,0,0,0,0,0,0,0,-1,1000,1128,0,0
-217,-104,0,0,0,0,0,0,0,0,0,-1,1007,1128,0,0
-210,-104,0,0,0,0,0,0,0,0,0,-1,1014,1128,0,0
-203,-104,0,0,0,0,0,0,0,0,0,-1,1021,1128,0,0
-196,-104,0,0,0,0,0,0,0,0,0,-1,1028,1128,0,0
-189,-104,0,0,0,0,0,0,0,0,0,-1,1035,1128,0,0
-182,-104,0,0,0,0,0,0,0,0,0,-1,1042,1128,0,0
-175,-104,0,0,0,0,0,0,0,0,0,-1,1049,1128,0,0
-168,-104,0,0,0,0,0,0,0,0,0,-1,1056,1128,0,0
-161,-104,0,0,0,0,0,0,0,0,0,-1,1063,1128,0,0
-154,-104,0,0,0,0,0,0,0,0,0,-1,1070,1128,0,0
-147,-104,0,0,0,0,0,0,0,0,0,-1,1077,1128,0,0
-140,-104,0,0,0,0,0,0,0,0,0,-1,1084,1128,0,0
-133,-104,0,0,0,0,0,0,0,0,0,-1,1091,1128,0,0
-126,-104,0,0,0,0,0,0,0,0,0,-1,1098,1128,0,0
-119,-104,0,0,0,0,0,0,0,0,0,-1,1105,1128,0,0
-112,-104,0,0,0,0,0,0,0,0,0,-1,1112,1128,0,0
-105,-104,0,0,0,0,0,0,0,0,0,-1,1119,1128,0,0
-98,-104,0,0,0,0,0,0,0,0,0,-1,1126,1128,0,0
-91,-104,0,0,0,0,0,0,0,0,0,-1,1133,1128,0,0
-84,-104,0,0,0,0,0,0,0,0,0,-1,1140,1128,0,0
-77,-104,0,0,0,0,0,0,0,0,0,-1,1147,1128,0,0
-70,-104,0,0,0,0,0,0,0,0,0,-1,1154,1128,0,0
-63,-104,0,0,0,0,0,0,0,0,0,-1,1161,1128,0,0
-56,-104,0,0,0,0,0,0,0,0,0,-1,1168,1128,0,0
-49,-104,0,0,0,0,0,0,0,0,0,-1,1175,1128,0,0
-42,-104,0,0,0,0,0,0,0,0,0,-1,1182,1128,0,0
-35,-104,0,0,0,0,0,0,0,0,0,-1,1189,1128,0,0
-28,-104,0,0,0,0,0,0,0,0,0,-1,1196,1128,0,0
-21,-104,0,0,0,0,0,0,0,0,0,-1,1203,1128,0,0
-14,-104,0,0,0,0,0,0,0,0,0,-1,1210,1128,0,0
-7,-104,0,0,0,0,0,0,0,0,0,-1,1217,1128,0,0
0,-104,0,0,0,0,0,0,0,0,0,-1,1224,1128,0,0
7,-104,0,0,0,0,0,0,0,0,0,-1,1231,1128,0,0
14,-104,0,0,0,0,0,0,0,0,0,-1,1238,1128,0,0
21,-104,0,0,0,0,0,0,0,0,0,-1,1245,1128,0,0
28,-104,0,0,0,0,0,0,0,0,0,-1,1252,1128,0,0
35,-104,0,0,0,0,0,0,0,0,0,-1,1259,1128,0,0
42,-104,0,0,0,0,0,0,0,0,0,-1,1266,1128,0,0
49,-104,0,0,0,0,0,0,0,0,0,-1,1273,1128,0,0
56,-104,0,0,0,0,0,0,0,0,0,-1,1280,1128,0,0
63,-104,0,0,0,0,0,0,0,0,0,-1,1287,1128,0,0
70,-104,0,0,0,0,0,0,0,0,0,-1,1294,1128,0,0
77,-104,0,0,0,0,0,0,0,0,0,-1,1301,1128,0,0
84,-104,0,0,0,0,0,0,0,0,0,-1,1308,1128,0,0
91,-104,0,0,0,0,0,0,0,0,0,-1,1315,1128,0,0
98,-104,0,0,0,0,0,0,0,0,0,-1,1322,1128,0,0
105,-104,0,0,0,0,0,0,0,0,0,-1,1329,1128,0,0
112,-104,0,0,0,0,0,0,0,0,0,-1,1336,1128,0,0
119,-104,0,0,0,0,0,0,0,0,0,-1,1343,1128,0,0
126,-104,0,0,0,0,0,0,0,0,0,-1,1350,1128,0,0
133,-104,0,0,0,0,0,0,0,0,0,-1,1357,1128,0,0
140,-104,0,0,0,0,0,0,0,0,0,-1,1364,1128,0,0
147,-104,0,0,0,0,0,0,0,0,0,-1,1371,1128,0,0
154,-104,0,0,0,0,0,0,0,0,0,-1,1378,1128,0,0
161,-104,0,0,0,0,0,0,0,0,0,-1,1385,1128,0,0
168,-104,0,0,0,0,0,0,0,0,0,-1,1392,1128,0,0
175,-104,0,0,0,0,0,0,0,0,0,-1,1399,1128,0,0
182,-104,0,0,0,0,0,0,0,0,0,-1,1406,1128,0,0
189,-104,0,0,0,0,0,0,0,0,0,-1,1413,1128,0,0
196,-104,0,0,0,0,0,0,0,0,0,-1,1420,1128,0,0
203,-104,0,0,0,0,0,0,0,0,0,-1,1427,1128,0,0
210,-104,0,0,0,0,0,0,0,0,0,-1,1434,1128,0,0
217,-104,0,0,0,0,0,0,0,0,0,-1,1441,1128,0,0
224,-104,0,0,0,0,0,0,0,0,0,-1,1448,1128,0,0
231,-104,0,0,0,0,0,0,0,0,0,-1,1455,1128,0,0
238,-104,0,0,0,0,0,0,0,0,0,-1,1462,1128,0,0
245,-104,0,0,0,0,0,0,0,0,0,-1,1469,1128,0,0
252,-104,0,0,0,0,0,0,0,0,0,-1,1476,1128,0,0
259,-104,0,0,0,0,0,0,0,0,0,-1,1483,1128,0,0
266,-104,0,0,0,0,0,0,0,0,0,-1,1490,1128,0,0
273,-104,0,0,0,0,0,0,0,0,0,-1,1497,1128,0,0
280,-104,0,0,0,0,0,0,0,0,0,-1,1504,1128,0,0
287,-104,0,0,0,0,0,0,0,0,0,-1,1511,1128,0,0
294,-104,0,0,0,0,0,0,0,0,0,-1,1518,1128,0,0
301,-104,0,0,0,0,0,0,0,0,0,-1,1525,1128,0,0
308,-104,0,0,0,0,0,0,0,0,0,-1,1532,1128,0,0
315,-104,0,0,0,0,0,0,0,0,0,-1,1539,1128,0,0
322,-104,0,0,0,0,0,0,0,0,0,-1,1546,1128,0,0
329,-104,0,0,0,0,0,0,0,0,0,-1,1553,1128,0,0
336,-104,0,0,0,0,0,0,0,0,0,-1,1560,1128,0,0
343,-104,0,0,0,0,0,0,0,0,0,-1,1567,1128,0,0
350,-104,0,0,0,0,0,0,0,0,0,-1,1574,1128,0,0
357,-104,0,0,0,0,0,0,0,0,0,-1,1581,1128,0,0
364,-104,0,0,0,0,0,0,0,0,0,-1,1588,1128,0,0
371,-104,0,0,0,0,0,0,0,0,0,-1,1595,1128,0,0
378,-104,0,0,0,0,0,0,0,0,0,-1,1602,1128,0,0
385,-104,0,0,0,0,0,0,0,0,0,-1,1609,1128,0,0
392,-104,0,0,0,0,0,0,0,0,0,-1,1616,1128,0,0
399,-104,0,0,0,0,0,0,0,0,0,-1,1623,1128,0,0
406,-104,0,0,0,0,0,0,0,0,0,-1,1630,1128,0,0
413,-104,0,0,0,0,0,0,0,0,0,-1,1637,1128,0,0
420,-104,0,0,0,0,0,0,0,0,0,-1,1644,1128,0,0
427,-104,0,0,0,0,0,0,0,0,0,-1,1651,1128,0,0
434,-104,0,0,0,0,0,0,0,0,0,-1,1658,1128,0,0
441,-104,0,0,0,0,0,0,0,0,0,-1,1665,1128,0,0
448,-104,0,0,0,0,0,0,0,0,0,-1,1672,1128,0,0
455,-104,0,0,0,0,0,0,0,0,0,-1,1679,1128,0,0
462,-104,0,0,0,0,0,0,0,0,0,-1,1686,1128,0,0
469,-104,0,0,0,0,0,0,0,0,0,-1,1693,1128,0,0
476,-104,0,0,0,0,0,0,0,0,0,-1,1700,1128,0,0
483,-104,0,0,0,0,0,0,0,0,0,-1,1707,1128,0,0
490,-104,0,0,0,0,0,0,0,0,0,-1,1714,1128,0,0
497,-104,0,0,0,0,0,0,0,0,0,-1,1721,1128,0,0
504,-104,0,0,0,0,0,0,0,0,0,-1,1728,1128,0,0
511,-104,0,0,0,0,0,0,0,0,0,-1,1735,1128,0,0
518,-104,0,0,0,0,0,0,0,0,0,-1,1742,1128,0,0
525,-104,0,0,0,0,0,0,0,0,0,-1,1749,1128,0,0
532,-104,0,0,0,0,0,0,0,0,0,-1,1756,1128,0,0
539,-104,0,0,0,0,0,0,0,0,0,-1,1763,1128,0,0
546,-104,0,0,0,0,0,0,0,0,0,-1,1770,1128,0,0
553,-104,0,0,0,0,0,0,0,0,0,-1,1777,1128,0,0
560,-104,0,0,0,0,0,0,0,0,0,-1,1784,1128,0,0
567,-104,0,0,0,0,0,0,0,0,0,-1,1791,1128,0,0
574,-104,0,0,0,0,0,0,0,0,0,-1,1798,1128,0,0
581,-104,0,0,0,0,0,0,0,0,0,-1,1805,1128,0,0
588,-104,0,0,0,0,0,0,0,0,0,-1,1812,1128,0,0
595,-104,0,0,0,0,0,0,0,0,0,-1,1819,1128,0,0
602,-104,0,0,0,0,0,0,0,0,0,-1,1826,1128,0,0
609,-104,0,0,0,0,0,0,0,0,0,-1,1833,1128,0,0
616,-104,0,0,0,0,0,0,0,0,0,-1,1840,1128,0,0
623,-104,0,0,0,0,0,0,0,0,0,-1,1847,1128,0,0
630,-104,0,0,0,0,0,0,0,0,0,-1,1854,1128,0,0
637,-104,0,0,0,0,0,0,0,0,0,-1,1861,1128,0,0
644,-104,70.3512,2.55139,0.00613982,-0.000591763,0.00391187,0.00793457,-0.00238652,0.430146,0.00623927,0.038929,1868,1128,70.3512,-2.55141
651,-104,70.4049,2.50085,0.00520547,-0.000757359,0.00344534,0.00678029,-0.00233217,0.42873,0.00546602,0.0383271,1875,1128,70.4049,-2.50089
658,-104,70.5858,2.29614,0.0043294,-0.000853028,0.00271353,0.0054902,-0.00201383,0.404226,0.00448475,0.0394411,1882,1128,70.5858,-2.2961
665,-104,70.6874,2.28381,0.00334882,-0.000806823,0.00188757,0.00407818,-0.00153619,0.368729,0.00335037,0.045023,1889,1128,70.6874,-2.28382
672,-104,70.8289,2.36755,0.00234256,-0.000659237,0.000975007,0.00263145,-0.000948124,0.288052,0.00214149,0.046091,1896,1128,70.8288,-2.36755
679,-104,70.5831,2.30847,0.00168052,-0.000719531,0.000276986,0.00171207,-0.000751083,0.113422,0.00145773,0.0418598,1903,1128,70.5832,-2.3085
686,-104,70.4222,2.27063,0.00147449,-0.00092027,-0.000122973,0.00148079,-0.000926568,-0.0511713,0.00140211,0.0401699,1910,1128,70.4222,-2.27066
693,-104,70.4409,2.39966,0.00132494,-0.00109419,-0.000265564,0.00135375,-0.001123,-0.108062,0.00143202,0.037454,1917,1128,70.4409,-2.3997
700,-104,70.4513,2.3606,0.00142792,-0.00122283,-0.000208349,0.0014442,-0.0012391,-0.0779618,0.00155071,0.0306558,1924,1128,70.4513,-2.36056
707,-104,70.4415,2.27283,0,0,0,0,0,0,0,-1,1931,1128,70.4416,-2.2728
714,-104,45.5221,2.32166,0,0,0,0,0,0,0,-1,1938,1128,45.5221,-2.3216
721,-104,64.8842,9.23694,0,0,0,0,0,0,0,-1,1945,1128,64.8842,-9.23693
728,-104,65.0441,8.51379,0.000283071,-0.000344246,0.000546805,0.000599791,-0.000660967,0.525,0.000728185,0.0366155,1952,1128,65.0441,-8.51373
735,-104,65.2245,7.98108,0.000735496,0.000147681,0.000715326,0.00121494,-0.000331763,0.590476,0.000940264,0.0384899,1959,1128,65.2244,-7.98114
742,-104,65.0114,7.49805,0.00115522,0.000787859,0.000924764,0.00191437,2.87099e-05,0.687363,0.00126678,0.0256801,1966,1128,65.0113,-7.4981
749,-104,64.8691,6.96423,0.0016039,0.0019821,0.00102235,0.0028327,0.000753305,0.876849,0.00169414,0.0241067,1973,1128,64.8691,-6.96424
756,-104,64.9038,6.42761,0.00269544,0.00425723,0.000471572,0.00438858,0.0025641,1.29916,0.00254571,0.0181904,1980,1128,64.9038,-6.4276
763,-104,64.8362,5.92322,0.00513973,0.00754652,-0.00108833,0.00796566,0.00472059,-1.20318,0.0046252,0.0175001,1987,1128,64.8361,-5.92323
770,-104,64.7671,5.4231,0.00915696,0.0119374,-0.00371161,0.0145106,0.00658375,-0.964588,0.00838964,0.016529,1994,1128,64.7672,-5.42314
777,-104,64.634,4.85156,0.0146287,0.0172087,-0.00725711,0.0232896,0.00854784,-0.873359,0.0136038,0.0247556,2001,1128,64.6342,-4.85158
784,-104,64.6992,4.17834,0.0219745,0.0236354,-0.0120001,0.0348337,0.0107762,-0.819944,0.0205928,0.0402776,2008,1128,64.6993,-4.17832
791,-104,65.0625,3.12073,0.0321564,0.0318734,-0.0187121,0.0507276,0.0133022,-0.781617,0.0303714,0.047661,2015,1128,65.0626,-3.1207
798,-104,65.2419,2.53516,0,0,0,0,0,0,0,-1,2022,1128,65.2419,-2.53513
805,-104,66.0371,2.83838,0,0,0,0,0,0,0,-1,2029,1128,66.0371,-2.83832
812,-104,66.9326,2.89502,0,0,0,0,0,0,0,-1,2036,1128,66.9325,-2.89497
-700,-111,0,0,0,0,0,0,0,0,0,-1,524,1135,0,0
-693,-111,-50.2821,0.339355,0.0309668,0.096487,0.0490991,0.122752,0.00470193,1.07959,0.0803131,0.049109,531,1135,-50.2821,-0.339404
-686,-111,-50.0092,1.44128,0.0302893,0.0869977,0.0418023,0.109155,0.00813216,1.0834,0.0702163,0.0476979,538,1135,-50.0092,-1.4413
-679,-111,-49.833,2.52856,0.0274434,0.0762401,0.0346108,0.0941878,0.00949569,1.09241,0.0598781,0.0494036,545,1135,-49.833,-2.52851
-672,-111,-49.5304,3.43042,0,0,0,0,0,0,0,-1,552,1135,-49.5304,-3.43042
-665,-111,-49.7288,4.65051,0,0,0,0,0,0,0,-1,559,1135,-49.7288,-4.65055
-658,-111,-48.2744,1.67444,0,0,0,0,0,0,0,-1,566,1135,-48.2744,-1.67447
-651,-111,-48.2749,2.16296,0,0,0,0,0,0,0,-1,573,1135,-48.2749,-2.1629
-644,-111,-48.3993,2.88965,0.00806271,0.0242772,0.00783693,0.0274458,0.00489409,1.18657,0.0169037,0.0284882,580,1135,-48.3993,-2.88962
-637,-111,-48.5255,3.56226,0.0044796,0.0158515,0.004302,0.0172956,0.00303553,1.24694,0.0106636,0.0133485,587,1135,-48.5255,-3.5623
-630,-111,-48.5793,4.08118,0.00196463,0.00872772,0.00109662,0.00890109,0.00179126,1.414,0.00543625,0.0277152,594,1135,-48.5793,-4.08114
-623,-111,-48.6215,4.73853,0.000655214,0.0029428,-0.000540856,0.00306423,0.000533785,-1.34995,0.00189019,0.0239445,601,1135,-48.6214,-4.7385
-616,-111,-48.9869,5.32605,0.00144674,0.000838914,-0.000645105,0.00185594,0.000429719,-0.565264,0.00112183,0.0281239,608,1135,-48.9869,-5.32605
-609,-111,-49.22,5.8302,0.00254646,-4.84171e-05,-0.00048337,0.00263357,-0.000135534,-0.178314,0.00180259,0.0368495,615,1135,-49.2201,-5.83016
-602,-111,-49.1946,6.4447,0.00323571,-7.70047e-05,-0.000909893,0.00346917,-0.000310469,-0.251166,0.00242291,0.0461864,622,1135,-49.1946,-6.44468
-595,-111,-48.7647,7.15088,0.00315433,-0.000236204,-0.00132332,0.00360967,-0.00069154,-0.331398,0.00266701,0.0243721,629,1135,-48.7647,-7.1509
-588,-111,-48.5181,7.98254,0,0,0,0,0,0,0,-1,636,1135,-48.5181,-7.98249
-581,-111,-21.0555,3.14551,0,0,0,0,0,0,0,-1,643,1135,-21.0555,-3.14548
-574,-111,-54.3043,0.363159,0,0,0,0,0,0,0,-1,650,1135,-54.3044,-0.363215
-567,-111,-54.3822,0.615112,0.00659113,-0.00109873,-0.00286057,0.00753853,-0.00204613,-0.31982,0.00582869,0.0415778,657,1135,-54.3822,-0.615116
-560,-111,-54.251,0.885864,0.00757426,-0.00129712,-0.00321424,0.00861641,-0.00233927,-0.313533,0.00666236,0.0427642,664,1135,-54.251,-0.885896
-553,-111,-54.2769,0.321289,0.00680582,-0.00170255,-0.0041575,0.00849998,-0.00339671,-0.386952,0.00707607,0.0462492,671,1135,-54.2769,-0.321237
-546,-111,-54.6722,0.884033,0,0,0,0,0,0,0,-1,678,1135,-54.6722,-0.884037
-539,-111,-54.4612,0.69165,0.00371803,-0.00339517,-0.00669282,0.00774057,-0.0074177,-0.541171,0.00875229,0.0408367,685,1135,-54.4612,-0.691704
-532,-111,-54.2935,0.473999,0.00259326,-0.00468149,-0.00763998,0.00741755,-0.00950578,-0.563226,0.00979545,0.0404455,692,1135,-54.2935,-0.473944
-525,-111,-54.3471,0.341675,0.00138756,-0.00590022,-0.00823613,0.00674987,-0.0112625,-0.577129,0.0105077,0.0390513,699,1135,-54.3471,-0.34169
-518,-111,0,0,0,0,0,0,0,0,0,-1,706,1135,0,0
-511,-111,0,0,0,0,0,0,0,0,0,-1,713,1135,0,0
-504,-111,0,0,0,0,0,0,0,0,0,-1,720,1135,0,0
-497,-111,0,0,0,0,0,0,0,0,0,-1,727,1135,0,0
-490,-111,0,0,0,0,0,0,0,0,0,-1,734,1135,0,0
-483,-111,0,0,0,0,0,0,0,0,0,-1,741,1135,0,0
-476,-111,0,0,0,0,0,0,0,0,0,-1,748,1135,0,0
-469,-111,0,0,0,0,0,0,0,0,0,-1,755,1135,0,0
-462,-111,0,0,0,0,0,0,0,0,0,-1,762,1135,0,0
-455,-111,0,0,0,0,0,0,0,0,0,-1,769,1135,0,0
-448,-111,0,0,0,0,0,0,0,0,0,-1,776,1135,0,0
-441,-111,0,0,0,0,0,0,0,0,0,-1,783,1135,0,0
-434,-111,0,0,0,0,0,0,0,0,0,-1,790,1135,0,0
-427,-111,0,0,0,0,0,0,0,0,0,-1,797,1135,0,0
-420,-111,0,0,0,0,0,0,0,0,0,-1,804,1135,0,0
-413,-111,0,0,0,0,0,0,0,0,0,-1,811,1135,0,0
-406,-111,0,0,0,0,0,0,0,0,0,-1,818,1135,0,0
-399,-111,0,0,0,0,0,0,0,0,0,-1,825,1135,0,0
-392,-111,0,0,0,0,0,0,0,0,0,-1,832,1135,0,0
-385,-111,0,0,0,0,0,0,0,0,0,-1,839,1135,0,0
-378,-111,0,0,0,0,0,0,0,0,0,-1,846,1135,0,0
-371,-111,0,0,0,0,0,0,0,0,0,-1,853,1135,0,0
-364,-111,0,0,0,0,0,0,0,0,0,-1,860,1135,0,0
-357,-111,0,0,0,0,0,0,0,0,0,-1,867,1135,0,0
-350,-111,0,0,0,0,0,0,0,0,0,-1,874,1135,0,0
-343,-111,0,0,0,0,0,0,0,0,0,-1,881,1135,0,0
-336,-111,0,0,0,0,0,0,0,0,0,-1,888,1135,0,0
-329,-111,0,0,0,0,0,0,0,0,0,-1,895,1135,0,0
-322,-111,0,0,0,0,0,0,0,0,0,-1,902,1135,0,0
-315,-111,0,0,0,0,0,0,0,0,0,-1,909,1135,0,0
-308,-111,0,0,0,0,0,0,0,0,0,-1,916,1135,0,0
-301,-111,0,0,0,0,0,0,0,0,0,-1,923,1135,0,0
-294,-111,0,0,0,0,0,0,0,0,0,-1,930,1135,0,0
-287,-111,0,0,0,0,0,0,0,0,0,-1,937,1135,0,0
-280,-111,0,0,0,0,0,0,0,0,0,-1,944,1135,0,0
-273,-111,0,0,0,0,0,0,0,0,0,-1,951,1135,0,0
-266,-111,0,0,0,0,0,0,0,0,0,-1,958,1135,0,0
-259,-111,0,0,0,0,0,0,0,0,0,-1,965,1135,0,0
-252,-111,0,0,0,0,0,0,0,0,0,-1,972,1135,0,0
-245,-111,0,0,0,0,0,0,0,0,0,-1,979,1135,0,0
-238,-111,0,0,0,0,0,0,0,0,0,-1,986,1135,0,0
-231,-111,0,0,0,0,0,0,0,0,0,-1,993,1135,0,0
-224,-111,0,0,0,0,0,0,0,0,0,-1,1000,1135,0,0
-217,-111,0,0,0,0,0,0,0,0,0,-1,1007,1135,0,0
-210,-111,0,0,0,0,0,0,0,0,0,-1,1014,1135,0,0
-203,-111,0,0,0,0,0,0,0,0,0,-1,1021,1135,0,0
-196,-111,0,0,0,0,0,0,0,0,0,-1,1028,1135,0,0
-189,-111,0,0,0,0,0,0,0,0,0,-1,1035,1135,0,0
-182,-111,0,0,0,0,0,0,0,0,0,-1,1042,1135,0,0
-175,-111,0,0,0,0,0,0,0,0,0,-1,1049,1135,0,0
-168,-111,0,0,0,0,0,0,0,0,0,-1,1056,1135,0,0
-161,-111,0,0,0,0,0,0,0,0,0,-1,1063,1135,0,0
-154,-111,0,0,0,0,0,0,0,0,0,-1,1070,1135,0,0
-147,-111,0,0,0,0,0,0,0,0,0,-1,1077,1135,0,0
-140,-111,0,0,0,0,0,0,0,0,0,-1,1084,1135,0,0
-133,-111,0,0,0,0,0,0,0,0,0,-1,1091,1135,0,0
-126,-111,0,0,0,0,0,0,0,0,0,-1,1098,1135,0,0
-119,-111,0,0,0,0,0,0,0,0,0,-1,1105,1135,0,0
-112,-111,0,0,0,0,0,0,0,0,0,-1,1112,1135,0,0
-105,-111,0,0,0,0,0,0,0,0,0,-1,1119,1135,0,0
-98,-111,0,0,0,0,0,0,0,0,0,-1,1126,1135,0,0
-91,-111,0,0,0,0,0,0,0,0,0,-1,1133,1135,0,0
-84,-111,0,0,0,0,0,0,0,0,0,-1,1140,1135,0,0
-77,-111,0,0,0,0,0,0,0,0,0,-1,1147,1135,0,0
-70,-111,0,0,0,0,0,0,0,0,0,-1,1154,1135,0,0
-63,-111,0,0,0,0,0,0,0,0,0,-1,1161,1135,0,0
-56,-111,0,0,0,0,0,0,0,0,0,-1,1168,1135,0,0
-49,-111,0,0,0,0,0,0,0,0,0,-1,1175,1135,0,0
-42,-111,0,0,0,0,0,0,0,0,0,-1,1182,1135,0,0
-35,-111,0,0,0,0,0,0,0,0,0,-1,1189,1135,0,0
-28,-111,0,0,0,0,0,0,0,0,0,-1,1196,1135,0,0
-21,-111,0,0,0,0,0,0,0,0,0,-1,1203,1135,0,0
-14,-111,0,0,0,0,0,0,0,0,0,-1,1210,1135,0,0
-7,-111,0,0,0,0,0,0,0,0,0,-1,1217,1135,0,0
0,-111,0,0,0,0,0,0,0,0,0,-1,1224,1135,0,0
7,-111,0,0,0,0,0,0,0,0,0,-1,1231,1135,0,0
14,-111,0,0,0,0,0,0,0,0,0,-1,1238,1135,0,0
21,-111,0,0,0,0,0,0,0,0,0,-1,1245,1135,0,0
28,-111,0,0,0,0,0,0,0,0,0,-1,1252,1135,0,0
35,-111,0,0,0,0,0,0,0,0,0,-1,1259,1135,0,0
42,-111,0,0,0,0,0,0,0,0,0,-1,1266,1135,0,0
49,-111,0,0,0,0,0,0,0,0,0,-1,1273,1135,0,0
56,-111,0,0,0,0,0,0,0,0,0,-1,1280,1135,0,0
63,-111,0,0,0,0,0,0,0,0,0,-1,1287,1135,0,0
70,-111,0,0,0,0,0,0,0,0,0,-1,1294,1135,0,0
77,-111,0,0,0,0,0,0,0,0,0,-1,1301,1135,0,0
84,-111,0,0,0,0,0,0,0,0,0,-1,1308,1135,0,0
91,-111,0,0,0,0,0,0,0,0,0,-1,1315,1135,0,0
98,-111,0,0,0,0,0,0,0,0,0,-1,1322,1135,0,0
105,-111,0,0,0,0,0,0,0,0,0,-1,1329,1135,0,0
112,-111,0,0,0,0,0,0,0,0,0,-1,1336,1135,0,0
119,-111,0,0,0,0,0,0,0,0,0,-1,1343,1135,0,0
126,-111,0,0,0,0,0,0,0,0,0,-1,1350,1135,0,0
133,-111,0,0,0,0,0,0,0,0,0,-1,1357,1135,0,0
140,-111,0,0,0,0,0,0,0,0,0,-1,1364,1135,0,0
147,-111,0,0,0,0,0,0,0,0,0,-1,1371,1135,0,0
154,-111,0,0,0,0,0,0,0,0,0,-1,1378,1135,0,0
161,-111,0,0,0,0,0,0,0,0,0,-1,1385,1135,0,0
168,-111,0,0,0,0,0,0,0,0,0,-1,1392,1135,0,0
175,-111,0,0,0,0,0,0,0,0,0,-1,1399,1135,0,0
182,-111,0,0,0,0,0,0,0,0,0,-1,1406,1135,0,0
189,-111,0,0,0,0,0,0,0,0,0,-1,1413,1135,0,0
196,-111,0,0,0,0,0,0,0,0,0,-1,1420,1135,0,0
203,-111,0,0,0,0,0,0,0,0,0,-1,1427,1135,0,0
210,-111,0,0,0,0,0,0,0,0,0,-1,1434,1135,0,0
217,-111,0,0,0,0,0,0,0,0,0,-1,1441,1135,0,0
224,-111,0,0,0,0,0,0,0,0,0,-1,1448,1135,0,0
231,-111,0,0,0,0,0,0,0,0,0,-1,1455,1135,0,0
238,-111,0,0,0,0,0,0,0,0,0,-1,1462,1135,0,0
245,-111,0,0,0,0,0,0,0,0,0,-1,1469,1135,0,0
252,-111,0,0,0,0,0,0,0,0,0,-1,1476,1135,0,0
259,-111,0,0,0,0,0,0,0,0,0,-1,1483,1135,0,0
266,-111,0,0,0,0,0,0,0,0,0,-1,1490,1135,0,0
273,-111,0,0,0,0,0,0,0,0,0,-1,1497,1135,0,0
280,-111,0,0,0,0,0,0,0,0,0,-1,1504,1135,0,0
287,-111,0,0,0,0,0,0,0,0,0,-1,1511,1135,0,0
294,-111,0,0,0,0,0,0,0,0,0,-1,1518,1135,0,0
301,-111,0,0,0,0,0,0,0,0,0,-1,1525,1135,0,0
308,-111,0,0,0,0,0,0,0,0,0,-1,1532,1135,0,0
315,-111,0,0,0,0,0,0,0,0,0,-1,1539,1135,0,0
322,-111,0,0,0,0,0,0,0,0,0,-1,1546,1135,0,0
329,-111,0,0,0,0,0,0,0,0,0,-1,1553,1135,0,0
336,-111,0,0,0,0,0,0,0,0,0,-1,1560,1135,0,0
343,-111,0,0,0,0,0,0,0,0,0,-1,1567,1135,0,0
350,-111,0,0,0,0,0,0,0,0,0,-1,1574,1135,0,0
357,-111,0,0,0,0,0,0,0,0,0,-1,1581,1135,0,0
364,-111,0,0,0,0,0,0,0,0,0,-1,1588,1135,0,0
371,-111,0,0,0,0,0,0,0,0,0,-1,1595,1135,0,0
378,-111,0,0,0,0,0,0,0,0,0,-1,1602,1135,0,0
385,-111,0,0,0,0,0,0,0,0,0,-1,1609,1135,0,0
392,-111,0,0,0,0,0,0,0,0,0,-1,1616,1135,0,0
399,-111,0,0,0,0,0,0,0,0,0,-1,1623,1135,0,0
406,-111,0,0,0,0,0,0,0,0,0,-1,1630,1135,0,0
413,-111,0,0,0,0,0,0,0,0,0,-1,1637,1135,0,0
420,-111,0,0,0,0,0,0,0,0,0,-1,1644,1135,0,0
427,-111,0,0,0,0,0,0,0,0,0,-1,1651,1135,0,0
434,-111,0,0,0,0,0,0,0,0,0,-1,1658,1135,0,0
441,-111,0,0,0,0,0,0,0,0,0,-1,1665,1135,0,0
448,-111,0,0,0,0,0,0,0,0,0,-1,1672,1135,0,0
455,-111,0,0,0,0,0,0,0,0,0,-1,1679,1135,0,0
462,-111,0,0,0,0,0,0,0,0,0,-1,1686,1135,0,0
469,-111,0,0,0,0,0,0,0,0,0,-1,1693,1135,0,0
476,-111,0,0,0,0,0,0,0,0,0,-1,1700,1135,0,0
483,-111,0,0,0,0,0,0,0,0,0,-1,1707,1135,0,0
490,-111,0,0,0,0,0,0,0,0,0,-1,1714,1135,0,0
497,-111,0,0,0,0,0,0,0,0,0,-1,1721,1135,0,0
504,-111,0,0,0,0,0,0,0,0,0,-1,1728,1135,0,0
511,-111,0,0,0,0,0,0,0,0,0,-1,1735,1135,0,0
518,-111,0,0,0,0,0,0,0,0,0,-1,1742,1135,0,0
525,-111,0,0,0,0,0,0,0,0,0,-1,1749,1135,0,0
532,-111,0,0,0,0,0,0,0,0,0,-1,1756,1135,0,0
539,-111,0,0,0,0,0,0,0,0,0,-1,1763,1135,0,0
546,-111,0,0,0,0,0,0,0,0,0,-1,1770,1135,0,0
553,-111,0,0,0,0,0,0,0,0,0,-1,1777,1135,0,0
560,-111,0,0,0,0,0,0,0,0,0,-1,1784,1135,0,0
567,-111,0,0,0,0,0,0,0,0,0,-1,1791,1135,0,0
574,-111,0,0,0,0,0,0,0,0,0,-1,1798,1135,0,0
581,-111,0,0,0,0,0,0,0,0,0,-1,1805,1135,0,0
588,-111,0,0,0,0,0,0,0,0,0,-1,1812,1135,0,0
595,-111,0,0,0,0,0,0,0,0,0,-1,1819,1135,0,0
602,-111,0,0,0,0,0,0,0,0,0,-1,1826,1135,0,0
609,-111,0,0,0,0,0,0,0,0,0,-1,1833,1135,0,0
616,-111,0,0,0,0,0,0,0,0,0,-1,1840,1135,0,0
623,-111,0,0,0,0,0,0,0,0,0,-1,1847,1135,0,0
630,-111,0,0,0,0,0,0,0,0,0,-1,1854,1135,0,0
637,-111,0,0,0,0,0,0,0,0,0,-1,1861,1135,0,0
644,-111,70.1731,2.56396,0.00490233,0.000230561,0.00441283,0.00755939,-0.00242649,0.541977,0.00601387,0.0394894,1868,1135,70.1731,-2.56395
651,-111,70.2134,2.57166,0.00435358,-1.96846e-05,0.00399205,0.00671864,-0.00238474,0.534842,0.00545076,0.0406882,1875,1135,70.2134,-2.57169
658,-111,70.5725,2.44604,0.00375798,-0.000200702,0.00324472,0.00557943,-0.00202215,0.511521,0.00454614,0.042003,1882,1135,70.5725,-2.446
665,-111,70.6528,2.44556,0.00298876,-0.000253496,0.00235137,0.00422368,-0.00148842,0.483597,0.00342159,0.0433471,1889,1135,70.6528,-2.44554
672,-111,70.6597,2.48108,0.00215413,-0.000202399,0.00132949,0.00275234,-0.000800605,0.422814,0.00215199,0.0446573,1896,1135,70.6597,-2.48107
679,-111,70.4172,2.25049,0.00165201,-0.00039543,0.000586181,0.00180796,-0.000551375,0.260014,0.00142511,0.041437,1903,1135,70.4173,-2.25045
686,-111,70.363,2.49121,0.0015659,-0.000639205,0.000159877,0.00157743,-0.000650736,0.0720014,0.001323,0.0392971,1910,1135,70.363,-2.49123
693,-111,70.3943,2.58716,0.00146862,-0.000835368,4.88637e-06,0.00146863,-0.000835379,0.00212082,0.00134686,0.0382192,1917,1135,70.3943,-2.5871
700,-111,70.4952,2.39038,0.00161692,-0.000984899,5.59831e-05,0.00161813,-0.000986103,0.0215036,0.00151824,0.0311839,1924,1135,70.4952,-2.39037
707,-111,70.4631,2.29785,0,0,0,0,0,0,0,-1,1931,1135,70.4632,-2.29784
714,-111,45.1654,7.39746,0,0,0,0,0,0,0,-1,1938,1135,45.1654,-7.39745
721,-111,64.3334,9.38257,0,0,0,0,0,0,0,-1,1945,1135,64.3334,-9.38258
728,-111,64.4128,8.62927,0.000638086,-0.000424162,0.000588134,0.000899423,-0.000685499,0.418145,0.000917829,0.0291482,1952,1135,64.4129,-8.6293
735,-111,64.5255,8.10815,0.00124038,-5.12549e-06,0.000767107,0.00160569,-0.000370439,0.444445,0.00121294,0.0312285,1959,1135,64.5256,-8.10812
742,-111,64.4023,7.5896,0.00167355,0.000573477,0.00101634,0.00227915,-3.21174e-05,0.537369,0.00153025,0.0205079,1966,1135,64.4024,-7.58959
749,-111,64.311,7.00012,0.00222436,0.00178869,0.00106508,0.00309365,0.000919393,0.684528,0.00183445,0.0206405,1973,1135,64.3111,-7.0001
756,-111,64.3053,6.44153,0.00368427,0.00420794,0.000411151,0.00443355,0.00345866,1.06893,0.00269027,0.0184642,1980,1135,64.3053,-6.44148
763,-111,64.2617,5.91467,0.00676399,0.0077949,-0.00131199,0.00868906,0.00586983,-0.972575,0.00511865,0.0156985,1987,1135,64.2618,-5.91465
770,-111,64.2085,5.3717,0.0115224,0.0125241,-0.00407357,0.0161275,0.00791902,-0.846562,0.00931171,0.0142928,1994,1135,64.2085,-5.37175
777,-111,64.0249,4.77625,0.0178501,0.0182703,-0.00777334,0.0258364,0.010284,-0.798909,0.0150197,0.0292606,2001,1135,64.0248,-4.77627
784,-111,64.1265,4.10986,0.0262923,0.0253978,-0.0127361,0.038589,0.0131011,-0.767849,0.0226587,0.0434117,2008,1135,64.1265,-4.10985
791,-111,64.2656,3.49268,0.0378033,0.0347115,-0.0197008,0.0560188,0.016496,-0.746245,0.0332408,0.0480057,2015,1135,64.2656,-3.49264
798,-111,64.1592,2.7334,0,0,0,0,0,0,0,-1,2022,1135,64.1591,-2.73338
805,-111,65.7202,1.66333,0,0,0,0,0,0,0,-1,2029,1135,65.7202,-1.66328
812,-111,66.7991,1.77124,0,0,0,0,0,0,0,-1,2036,1135,66.799,-1.77128
-700,-118,0,0,0,0,0,0,0,0,0,-1,524,1142,0,0
-693,-118,-49.9525,-0.231689,0.0380335,0.101714,0.0403389,0.121265,0.0184829,1.1195,0.075441,0.0496881,531,1142,-49.9525,0.23168
-686,-118,-49.6512,0.743774,0.0359538,0.0911308,0.0353595,0.108391,0.0186934,1.11668,0.0669059,0.0486444,538,1142,-49.6511,-0.743835
-679,-118,-49.3371,1.67786,0.0321206,0.0794121,0.0296876,0.0937199,0.0178128,1.1217,0.05747,0.0471885,545,1142,-49.3371,-1.67784
-672,-118,-49.0256,2.56506,0,0,0,0,0,0,0,-1,552,1142,-49.0256,-2.56509
-665,-118,-49.768,-0.611816,0,0,0,0,0,0,0,-1,559,1142,-49.768,0.611801
-658,-118,-44.7487,0.726318,0,0,0,0,0,0,0,-1,566,1142,-44.7487,-0.726346
-651,-118,-47.4,2.14453,0,0,0,0,0,0,0,-1,573,1142,-47.4,-2.14449
-644,-118,-47.6917,2.87134,0.00952527,0.0247064,0.00663389,0.0271967,0.0070349,1.21167,0.0163003,0.0364675,580,1142,-47.6917,-2.87129
-637,-118,-47.8877,3.5791,0.00541512,0.0159995,0.00345185,0.0170258,0.00438889,1.28182,0.0102071,0.0200083,587,1142,-47.8877,-3.57912
-630,-118,-47.9392,4.14392,0.00217413,0.00861205,0.00061197,0.00866971,0.00211648,1.47686,0.00521937,0.0285472,594,1142,-47.9392,-4.1439
-623,-118,-47.9432,4.78503,0.000222559,0.00278602,-0.000870896,0.0030539,-4.53212e-05,-1.27239,0.00205121,0.0230275,601,1142,-47.9432,-4.78499
-616,-118,-48.1222,5.36072,0.000774128,0.000909405,-0.000939731,0.00178393,-0.000100395,-0.821324,0.00122412,0.0345544,608,1142,-48.1222,-5.36069
-609,-118,-48.4282,5.75061,0.00176931,0.000174152,-0.000769894,0.00208027,-0.000136813,-0.383869,0.00143463,0.04449,615,1142,-48.4282,-5.75058
-602,-118,-48.3027,6.66235,0.0024119,0.000321514,-0.00112769,0.00290428,-0.000170863,-0.411674,0.00199558,0.0497231,622,1142,-48.3027,-6.66239
-595,-118,-48.4219,7.6084,0,0,0,0,0,0,0,-1,629,1142,-48.4219,-7.6084
-588,-118,-47.2278,8.06299,0,0,0,0,0,0,0,-1,636,1142,-47.2278,-8.06303
-581,-118,-24.6116,3.89648,0,0,0,0,0,0,0,-1,643,1142,-24.6116,-3.89645
-574,-118,-54.2739,0.4375,0,0,0,0,0,0,0,-1,650,1142,-54.2739,-0.4375
-567,-118,-54.3385,0.52356,0.00619812,-0.000270232,-0.00270289,0.00717886,-0.00125097,-0.348075,0.00525279,0.0438961,657,1142,-54.3385,-0.523569
-560,-118,-54.2839,0.57251,0.00768735,-0.000396686,-0.00283676,0.00858347,-0.0012928,-0.305972,0.00619835,0.0370565,664,1142,-54.2839,-0.572508
-553,-118,-54.0789,0.409668,0.00733117,-0.000850274,-0.00361989,0.00870283,-0.00222193,-0.362205,0.00666711,0.0400738,671,1142,-54.0789,-0.409649
-546,-118,-54.0728,0.431763,0.00557705,-0.00156575,-0.00479286,0.0079828,-0.00397151,-0.465203,0.00703015,0.0402151,678,1142,-54.0728,-0.431813
-539,-118,-54.2279,0.627563,0.00416803,-0.0031111,-0.00584508,0.00741406,-0.00635713,-0.506937,0.0079586,0.0404936,685,1142,-54.2279,-0.62751
-532,-118,-54.3289,0.556641,0.00288863,-0.00482385,-0.0065012,0.00659124,-0.00852645,-0.517711,0.00875201,0.040722,692,1142,-54.3289,-0.556656
-525,-118,-54.4304,0.443359,0.00140065,-0.00649234,-0.00672443,0.00525113,-0.0103428,-0.520036,0.00916175,0.0416115,699,1142,-54.4304,-0.443391
-518,-118,0,0,0,0,0,0,0,0,0,-1,706,1142,0,0
-511,-118,0,0,0,0,0,0,0,0,0,-1,713,1142,0,0
-504,-118,0,0,0,0,0,0,0,0,0,-1,720,1142,0,0
-497,-118,0,0,0,0,0,0,0,0,0,-1,727,1142,0,0
-490,-118,0,0,0,0,0,0,0,0,0,-1,734,1142,0,0
-483,-118,0,0,0,0,0,0,0,0,0,-1,741,1142,0,0
-476,-118,0,0,0,0,0,0,0,0,0,-1,748,1142,0,0
-469,-118,0,0,0,0,0,0,0,0,0,-1,755,1142,0,0
-462,-118,0,0,0,0,0,0,0,0,0,-1,762,1142,0,0
-455,-118,0,0,0,0,0,0,0,0,0,-1,769,1142,0,0
-448,-118,0,0,0,0,0,0,0,0,0,-1,776,1142,0,0
-441,-118,0,0,0,0,0,0,0,0,0,-1,783,1142,0,0
-434,-118,0,0,0,0,0,0,0,0,0,-1,790,1142,0,0
-427,-118,0,0,0,0,0,0,0,0,0,-1,797,1142,0,0
-420,-118,0,0,0,0,0,0,0,0,0,-1,804,1142,0,0
-413,-118,0,0,0,0,0,0,0,0,0,-1,811,1142,0,0
-406,-118,0,0,0,0,0,0,0,0,0,-1,818,1142,0,0
-399,-118,0,0,0,0,0,0,0,0,0,-1,825,1142,0,0
-392,-118,0,0,0,0,0,0,0,0,0,-1,832,1142,0,0
-385,-118,0,0,0,0,0,0,0,0,0,-1,839,1142,0,0
-378,-118,0,0,0,0,0,0,0,0,0,-1,846,1142,0,0
-371,-118,0,0,0,0,0,0,0,0,0,-1,853,1142,0,0
-364,-118,0,0,0,0,0,0,0,0,0,-1,860,1142,0,0
-357,-118,0,0,0,0,0,0,0,0,0,-1,867,1142,0,0
-350,-118,0,0,0,0,0,0,0,0,0,-1,874,1142,0,0
-343,-118,0,0,0,0,0,0,0,0,0,-1,881,1142,0,0
-336,-118,0,0,0,0,0,0,0,0,0,-1,888,1142,0,0
-329,-118,0,0,0,0,0,0,0,0,0,-1,895,1142,0,0
-322,-118,0,0,0,0,0,0,0,0,0,-1,902,1142,0,0
-315,-118,0,0,0,0,0,0,0,0,0,-1,909,1142,0,0
-308,-118,0,0,0,0,0,0,0,0,0,-1,916,1142,0,0
-301,-118,0,0,0,0,0,0,0,0,0,-1,923,1142,0,0
-294,-118,0,0,0,0,0,0,0,0,0,-1,930,1142,0,0
-287,-118,0,0,0,0,0,0,0,0,0,-1,937,1142,0,0
-280,-118,0,0,0,0,0,0,0,0,0,-1,944,1142,0,0
-273,-118,0,0,0,0,0,0,0,0,0,-1,951,1142,0,0
-266,-118,0,0,0,0,0,0,0,0,0,-1,958,1142,0,0
-259,-118,0,0,0,0,0,0,0,0,0,-1,965,1142,0,0
-252,-118,0,0,0,0,0,0,0,0,0,-1,972,1142,0,0
-245,-118,0,0,0,0,0,0,0,0,0,-1,979,1142,0,0
-238,-118,0,0,0,0,0,0,0,0,0,-1,986,1142,0,0
-231,-118,0,0,0,0,0,0,0,0,0,-1,993,1142,0,0
-224,-118,0,0,0,0,0,0,0,0,0,-1,1000,1142,0,0
-217,-118,0,0,0,0,0,0,0,0,0,-1,1007,1142,0,0
-210,-118,0,0,0,0,0,0,0,0,0,-1,1014,1142,0,0
-203,-118,0,0,0,0,0,0,0,0,0,-1,1021,1142,0,0
-196,-118,0,0,0,0,0,0,0,0,0,-1,1028,1142,0,0
-189,-118,0,0,0,0,0,0,0,0,0,-1,1035,1142,0,0
-182,-118,0,0,0,0,0,0,0,0,0,-1,1042,1142,0,0
-175,-118,0,0,0,0,0,0,0,0,0,-1,1049,1142,0,0
-168,-118,0,0,0,0,0,0,0,0,0,-1,1056,1142,0,0
-161,-118,0,0,0,0,0,0,0,0,0,-1,1063,1142,0,0
-154,-118,0,0,0,0,0,0,0,0,0,-1,1070,1142,0,0
-147,-118,0,0,0,0,0,0,0,0,0,-1,1077,1142,0,0
-140,-118,0,0,0,0,0,0,0,0,0,-1,1084,1142,0,0
-133,-118,0,0,0,0,0,0,0,0,0,-1,1091,1142,0,0
-126,-118,0,0,0,0,0,0,0,0,0,-1,1098,1142,0,0
-119,-118,0,0,0,0,0,0,0,0,0,-1,1105,1142,0,0
-112,-118,0,0,0,0,0,0,0,0,0,-1,1112,1142,0,0
-105,-118,0,0,0,0,0,0,0,0,0,-1,1119,1142,0,0
-98,-118,0,0,0,0,0,0,0,0,0,-1,1126,1142,0,0
-91,-118,0,0,0,0,0,0,0,0,0,-1,1133,1142,0,0
-84,-118,0,0,0,0,0,0,0,0,0,-1,1140,1142,0,0
-77,-118,0,0,0,0,0,0,0,0,0,-1,1147,1142,0,0
-70,-118,0,0,0,0,0,0,0,0,0,-1,1154,1142,0,0
-63,-118,0,0,0,0,0,0,0,0,0,-1,1161,1142,0,0
-56,-118,0,0,0,0,0,0,0,0,0,-1,1168,1142,0,0
-49,-118,0,0,0,0,0,0,0,0,0,-1,1175,1142,0,0
-42,-118,0,0,0,0,0,0,0,0,0,-1,1182,1142,0,0
-35,-118,0,0,0,0,0,0,0,0,0,-1,1189,1142,0,0
-28,-118,0,0,0,0,0,0,0,0,0,-1,1196,1142,0,0
-21,-118,0,0,0,0,0,0,0,0,0,-1,1203,1142,0,0
-14,-118,0,0,0,0,0,0,0,0,0,-1,1210,1142,0,0
-7,-118,0,0,0,0,0,0,0,0,0,-1,1217,1142,0,0
0,-118,0,0,0,0,0,0,0,0,0,-1,1224,1142,0,0
7,-118,0,0,0,0,0,0,0,0,0,-1,1231,1142,0,0
14,-118,0,0,0,0,0,0,0,0,0,-1,1238,1142,0,0
21,-118,0,0,0,0,0,0,0,0,0,-1,1245,1142,0,0
28,-118,0,0,0,0,0,0,0,0,0,-1,1252,1142,0,0
35,-118,0,0,0,0,0,0,0,0,0,-1,1259,1142,0,0
42,-118,0,0,0,0,0,0,0,0,0,-1,1266,1142,0,0
49,-118,0,0,0,0,0,0,0,0,0,-1,1273,1142,0,0
56,-118,0,0,0,0,0,0,0,0,0,-1,1280,1142,0,0
63,-118,0,0,0,0,0,0,0,0,0,-1,1287,1142,0,0
70,-118,0,0,0,0,0,0,0,0,0,-1,1294,1142,0,0
77,-118,0,0,0,0,0,0,0,0,0,-1,1301,1142,0,0
84,-118,0,0,0,0,0,0,0,0,0,-1,1308,1142,0,0
91,-118,0,0,0,0,0,0,0,0,0,-1,1315,1142,0,0
98,-118,0,0,0,0,0,0,0,0,0,-1,1322,1142,0,0
105,-118,0,0,0,0,0,0,0,0,0,-1,1329,1142,0,0
112,-118,0,0,0,0,0,0,0,0,0,-1,1336,1142,0,0
119,-118,0,0,0,0,0,0,0,0,0,-1,1343,1142,0,0
126,-118,0,0,0,0,0,0,0,0,0,-1,1350,1142,0,0
133,-118,0,0,0,0,0,0,0,0,0,-1,1357,1142,0,0
140,-118,0,0,0,0,0,0,0,0,0,-1,1364,1142,0,0
147,-118,0,0,0,0,0,0,0,0,0,-1,1371,1142,0,0
154,-118,0,0,0,0,0,0,0,0,0,-1,1378,1142,0,0
161,-118,0,0,0,0,0,0,0,0,0,-1,1385,1142,0,0
168,-118,0,0,0,0,0,0,0,0,0,-1,1392,1142,0,0
175,-118,0,0,0,0,0,0,0,0,0,-1,1399,1142,0,0
182,-118,0,0,0,0,0,0,0,0,0,-1,1406,1142,0,0
189,-118,0,0,0,0,0,0,0,0,0,-1,1413,1142,0,0
196,-118,0,0,0,0,0,0,0,0,0,-1,1420,1142,0,0
203,-118,0,0,0,0,0,0,0,0,0,-1,1427,1142,0,0
210,-118,0,0,0,0,0,0,0,0,0,-1,1434,1142,0,0
217,-118,0,0,0,0,0,0,0,0,0,-1,1441,1142,0,0
224,-118,0,0,0,0,0,0,0,0,0,-1,1448,1142,0,0
231,-118,0,0,0,0,0,0,0,0,0,-1,1455,1142,0,0
238,-118,0,0,0,0,0,0,0,0,0,-1,1462,1142,0,0
245,-118,0,0,0,0,0,0,0,0,0,-1,1469,1142,0,0
252,-118,0,0,0,0,0,0,0,0,0,-1,1476,1142,0,0
259,-118,0,0,0,0,0,0,0,0,0,-1,1483,1142,0,0
266,-118,0,0,0,0,0,0,0,0,0,-1,1490,1142,0,0
273,-118,0,0,0,0,0,0,0,0,0,-1,1497,1142,0,0
280,-118,0,0,0,0,0,0,0,0,0,-1,1504,1142,0,0
287,-118,0,0,0,0,0,0,0,0,0,-1,1511,1142,0,0
294,-118,0,0,0,0,0,0,0,0,0,-1,1518,1142,0,0
301,-118,0,0,0,0,0,0,0,0,0,-1,1525,1142,0,0
308,-118,0,0,0,0,0,0,0,0,0,-1,1532,1142,0,0
315,-118,0,0,0,0,0,0,0,0,0,-1,1539,1142,0,0
322,-118,0,0,0,0,0,0,0,0,0,-1,1546,1142,0,0
329,-118,0,0,0,0,0,0,0,0,0,-1,1553,1142,0,0
336,-118,0,0,0,0,0,0,0,0,0,-1,1560,1142,0,0
343,-118,0,0,0,0,0,0,0,0,0,-1,1567,1142,0,0
350,-118,0,0,0,0,0,0,0,0,0,-1,1574,1142,0,0
357,-118,0,0,0,0,0,0,0,0,0,-1,1581,1142,0,0
364,-118,0,0,0,0,0,0,0,0,0,-1,1588,1142,0,0
371,-118,0,0,0,0,0,0,0,0,0,-1,1595,1142,0,0
378,-118,0,0,0,0,0,0,0,0,0,-1,1602,1142,0,0
385,-118,0,0,0,0,0,0,0,0,0,-1,1609,1142,0,0
392,-118,0,0,0,0,0,0,0,0,0,-1,1616,1142,0,0
399,-118,0,0,0,0,0,0,0,0,0,-1,1623,1142,0,0
406,-118,0,0,0,0,0,0,0,0,0,-1,1630,1142,0,0
413,-118,0,0,0,0,0,0,0,0,0,-1,1637,1142,0,0
420,-118,0,0,0,0,0,0,0,0,0,-1,1644,1142,0,0
427,-118,0,0,0,0,0,0,0,0,0,-1,1651,1142,0,0
434,-118,0,0,0,0,0,0,0,0,0,-1,1658,1142,0,0
441,-118,0,0,0,0,0,0,0,0,0,-1,1665,1142,0,0
448,-118,0,0,0,0,0,0,0,0,0,-1,1672,1142,0,0
455,-118,0,0,0,0,0,0,0,0,0,-1,1679,1142,0,0
462,-118,0,0,0,0,0,0,0,0,0,-1,1686,1142,0,0
469,-118,0,0,0,0,0,0,0,0,0,-1,1693,1142,0,0
476,-118,0,0,0,0,0,0,0,0,0,-1,1700,1142,0,0
483,-118,0,0,0,0,0,0,0,0,0,-1,1707,1142,0,0
490,-118,0,0,0,0,0,0,0,0,0,-1,1714,1142,0,0
497,-118,0,0,0,0,0,0,0,0,0,-1,1721,1142,0,0
504,-118,0,0,0,0,0,0,0,0,0,-1,1728,1142,0,0
511,-118,0,0,0,0,0,0,0,0,0,-1,1735,1142,0,0
518,-118,0,0,0,0,0,0,0,0,0,-1,1742,1142,0,0
525,-118,0,0,0,0,0,0,0,0,0,-1,1749,1142,0,0
532,-118,0,0,0,0,0,0,0,0,0,-1,1756,1142,0,0
539,-118,0,0,0,0,0,0,0,0,0,-1,1763,1142,0,0
546,-118,0,0,0,0,0,0,0,0,0,-1,1770,1142,0,0
553,-118,0,0,0,0,0,0,0,0,0,-1,1777,1142,0,0
560,-118,0,0,0,0,0,0,0,0,0,-1,1784,1142,0,0
567,-118,0,0,0,0,0,0,0,0,0,-1,1791,1142,0,0
574,-118,0,0,0,0,0,0,0,0,0,-1,1798,1142,0,0
581,-118,0,0,0,0,0,0,0,0,0,-1,1805,1142,0,0
588,-118,0,0,0,0,0,0,0,0,0,-1,1812,1142,0,0
595,-118,0,0,0,0,0,0,0,0,0,-1,1819,1142,0,0
602,-118,0,0,0,0,0,0,0,0,0,-1,1826,1142,0,0
609,-118,0,0,0,0,0,0,0,0,0,-1,1833,1142,0,0
616,-118,0,0,0,0,0,0,0,0,0,-1,1840,1142,0,0
623,-118,0,0,0,0,0,0,0,0,0,-1,1847,1142,0,0
630,-118,0,0,0,0,0,0,0,0,0,-1,1854,1142,0,0
637,-118,0,0,0,0,0,0,0,0,0,-1,1861,1142,0,0
644,-118,70.2885,2.29028,0.00351917,0.000384636,0.0051776,0.00736151,-0.00345771,0.638432,0.00638058,0.0401389,1868,1142,70.2884,-2.29024
651,-118,70.087,2.24927,0.00332783,0.000288539,0.00464239,0.00669297,-0.0030766,0.627224,0.00576784,0.0417061,1875,1142,70.087,-2.24928
658,-118,70.2462,2.29712,0.00301996,0.000210443,0.00377297,0.0056412,-0.00241079,0.607188,0.0047719,0.0411842,1882,1142,70.2462,-2.29711
665,-118,70.5012,2.39124,0.00250355,0.00022019,0.00273025,0.00432121,-0.00159747,0.587367,0.00353571,0.0417245,1889,1142,70.5012,-2.3912
672,-118,70.8123,2.5835,0,0,0,0,0,0,0,-1,1896,1142,70.8122,-2.58345
679,-118,70.376,2.53613,0.00155649,7.91508e-05,0.000702576,0.00183725,-0.000201614,0.38018,0.00129727,0.0433095,1903,1142,70.3759,-2.53616
686,-118,70.3529,2.62036,0.00160143,-0.000149946,0.000246749,0.00163553,-0.000184046,0.137328,0.00115659,0.0375101,1910,1142,70.3529,-2.62041
693,-118,70.3456,2.60156,0.00155087,-0.000353965,8.75626e-05,0.00155489,-0.000357982,0.0458397,0.00117425,0.0379471,1917,1142,70.3456,-2.60159
700,-118,70.4731,2.40784,0.00173517,-0.000511573,0.000134455,0.00174318,-0.000519591,0.0595611,0.0013686,0.0273463,1924,1142,70.4732,-2.40788
707,-118,70.481,2.31445,0,0,0,0,0,0,0,-1,1931,1142,70.481,-2.31441
714,-118,50.4819,8.53809,0,0,0,0,0,0,0,-1,1938,1142,50.4819,-8.53809
721,-118,63.8466,9.38513,0,0,0,0,0,0,0,-1,1945,1142,63.8465,-9.38517
728,-118,63.8564,8.76538,0.000846409,-0.000339523,0.00054665,0.00105994,-0.000553053,0.372389,0.000946464,0.0243019,1952,1142,63.8564,-8.76537
735,-118,63.8282,8.23401,0.00152868,-7.8841e-05,0.000792826,0.0018539,-0.000404065,0.389275,0.00139033,0.0241517,1959,1142,63.8283,-8.23397
742,-118,63.7932,7.65735,0.00190961,0.000334543,0.00111727,0.00248901,-0.000244858,0.478404,0.00174669,0.0352664,1966,1142,63.7933,-7.65741
749,-118,63.6786,7.08228,0.00245742,0.00150368,0.00114964,0.00322517,0.000735935,0.588798,0.00195161,0.0257348,1973,1142,63.6785,-7.08225
756,-118,63.7062,6.47192,0.00419547,0.0039914,0.000388821,0.00449542,0.00369145,0.657078,0.00276815,0.0196496,1980,1142,63.7062,-6.47186
763,-118,63.7117,5.8905,0.00778769,0.00769746,-0.00150049,0.00924374,0.00624141,-0.77037,0.005445,0.0108386,1987,1142,63.7118,-5.8905
770,-118,63.6113,5.36755,0.0131304,0.0124768,-0.00440951,0.0172252,0.00838201,-0.748407,0.00994618,0.0150793,1994,1142,63.6112,-5.36751
777,-118,63.4529,4.83789,0.0201515,0.0182674,-0.00827706,0.0275399,0.0108789,-0.728734,0.0160166,0.0320065,2001,1142,63.4528,-4.83786
784,-118,63.9473,4.12512,0.0295524,0.0254828,-0.0134884,0.0411586,0.0138766,-0.710534,0.0241794,0.0448192,2008,1142,63.9473,-4.1251
791,-118,64.0459,3.40906,0,0,0,0,0,0,0,-1,2015,1142,64.0459,-3.4091
798,-118,63.676,1.93713,0,0,0,0,0,0,0,-1,2022,1142,63.6761,-1.93719
805,-118,63.0437,0.958008,0,0,0,0,0,0,0,-1,2029,1142,63.0437,-0.957974
812,-118,66.5225,0.634888,0,0,0,0,0,0,0,-1,2036,1142,66.5225,-0.63493
-700,-125,0,0,0,0,0,0,0,0,0,-1,524,1149,0,0
-693,-125,-49.2415,-0.790039,0.0474772,0.104314,0.0287327,0.116308,0.0354831,1.17535,0.0688305,0.0496681,531,1149,-49.2416,0.789984
-686,-125,-49.0598,0.0249023,0.0443247,0.0937632,0.0254128,0.104496,0.0335918,1.17118,0.0615995,0.046204,538,1149,-49.0598,-0.024858
-679,-125,-48.8704,0.86145,0.0391709,0.0816642,0.0214304,0.0905951,0.03024,1.17594,0.0532597,0.0446056,545,1149,-48.8704,-0.861395
-672,-125,-48.6297,1.6958,0,0,0,0,0,0,0,-1,552,1149,-48.6297,-1.6958
-665,-125,-48.471,2.50476,0,0,0,0,0,0,0,-1,559,1149,-48.471,-2.50482
-658,-125,-48.4406,0.689575,0,0,0,0,0,0,0,-1,566,1149,-48.4406,-0.689525
-651,-125,-47.7312,1.8551,0.0164661,0.0351433,0.00711872,0.0375472,0.0140622,1.24514,0.0219042,0.0466167,573,1149,-47.7312,-1.85506
-644,-125,-47.0739,2.93921,0.0112587,0.0251998,0.00437669,0.02646,0.00999862,1.29046,0.0154278,0.0356579,580,1149,-47.0739,-2.93916
-637,-125,-47.2827,3.56604,0.00641366,0.0162736,0.0019287,0.0166374,0.00604981,1.38434,0.00972397,0.01568,587,1149,-47.2827,-3.56607
-630,-125,-47.3065,4.18237,0.0022734,0.0086341,-0.000169711,0.00863863,0.00226888,-1.54414,0.00517145,0.0164768,594,1149,-47.3065,-4.18233
-623,-125,-47.3176,4.82312,-0.000471618,0.00271337,-0.00127602,0.00316153,-0.000919775,-1.23304,0.00247199,0.0146435,601,1149,-47.3176,-4.82316
-616,-125,-47.4013,5.38,-0.000286062,0.000863725,-0.0013019,0.00171202,-0.00113435,-0.993313,0.0016546,0.0343557,608,1149,-47.4013,-5.38003
-609,-125,-47.7144,5.80762,0,0,0,0,0,0,0,-1,615,1149,-47.7144,-5.80762
-602,-125,-47.4934,6.72302,0,0,0,0,0,0,0,-1,622,1149,-47.4934,-6.72303
-595,-125,-47.6281,7.39819,0,0,0,0,0,0,0,-1,629,1149,-47.6281,-7.39815
-588,-125,-46.342,7.97205,0,0,0,0,0,0,0,-1,636,1149,-46.342,-7.97205
-581,-125,-26.4055,4.83203,0,0,0,0,0,0,0,-1,643,1149,-26.4055,-4.83204
-574,-125,-37.674,0.655151,0,0,0,0,0,0,0,-1,650,1149,-37.674,-0.655195
-567,-125,-54.267,0.447876,0,0,0,0,0,0,0,-1,657,1149,-54.267,-0.447875
-560,-125,-54.2772,0.457275,0.00746623,0.000390377,-0.00254861,0.00828862,-0.000432013,-0.312133,0.00567523,0.0376784,664,1149,-54.2771,-0.457258
-553,-125,-54.2335,0.480225,0.00759683,0.000178982,-0.00307125,0.00870337,-0.000927559,-0.345812,0.00613485,0.0390976,671,1149,-54.2335,-0.480197
-546,-125,-54.2875,0.414307,0.00589022,-0.000405242,-0.0040418,0.00786541,-0.00238044,-0.45456,0.00619155,0.0388009,678,1149,-54.2875,-0.414339
-539,-125,-54.2786,0.528687,0.00412736,-0.0019747,-0.00487562,0.00682789,-0.00467523,-0.505821,0.00667999,0.0403496,685,1149,-54.2786,-0.528626
-532,-125,-54.41,0.734375,0,0,0,0,0,0,0,-1,692,1149,-54.41,-0.734435
-525,-125,-54.3458,0.425903,0,0,0,0,0,0,0,-1,699,1149,-54.3458,-0.42591
-518,-125,0,0,0,0,0,0,0,0,0,-1,706,1149,0,0
-511,-125,0,0,0,0,0,0,0,0,0,-1,713,1149,0,0
-504,-125,0,0,0,0,0,0,0,0,0,-1,720,1149,0,0
-497,-125,0,0,0,0,0,0,0,0,0,-1,727,1149,0,0
-490,-125,0,0,0,0,0,0,0,0,0,-1,734,1149,0,0
-483,-125,0,0,0,0,0,0,0,0,0,-1,741,1149,0,0
-476,-125,0,0,0,0,0,0,0,0,0,-1,748,1149,0,0
-469,-125,0,0,0,0,0,0,0,0,0,-1,755,1149,0,0
-462,-125,0,0,0,0,0,0,0,0,0,-1,762,1149,0,0
-455,-125,0,0,0,0,0,0,0,0,0,-1,769,1149,0,0
-448,-125,0,0,0,0,0,0,0,0,0,-1,776,1149,0,0
-441,-125,0,0,0,0,0,0,0,0,0,-1,783,1149,0,0
-434,-125,0,0,0,0,0,0,0,0,0,-1,790,1149,0,0
-427,-125,0,0,0,0,0,0,0,0,0,-1,797,1149,0,0
-420,-125,0,0,0,0,0,0,0,0,0,-1,804,1149,0,0
-413,-125,0,0,0,0,0,0,0,0,0,-1,811,1149,0,0
-406,-125,0,0,0,0,0,0,0,0,0,-1,818,1149,0,0
-399,-125,0,0,0,0,0,0,0,0,0,-1,825,1149,0,0
-392,-125,0,0,0,0,0,0,0,0,0,-1,832,1149,0,0
-385,-125,0,0,0,0,0,0,0,0,0,-1,839,1149,0,0
-378,-125,0,0,0,0,0,0,0,0,0,-1,846,1149,0,0
-371,-125,0,0,0,0,0,0,0,0,0,-1,853,1149,0,0
-364,-125,0,0,0,0,0,0,0,0,0,-1,860,1149,0,0
-357,-125,0,0,0,0,0,0,0,0,0,-1,867,1149,0,0
-350,-125,0,0,0,0,0,0,0,0,0,-1,874,1149,0,0
-343,-125,0,0,0,0,0,0,0,0,0,-1,881,1149,0,0
-336,-125,0,0,0,0,0,0,0,0,0,-1,888,1149,0,0
-329,-125,0,0,0,0,0,0,0,0,0,-1,895,1149,0,0
-322,-125,0,0,0,0,0,0,0,0,0,-1,902,1149,0,0
-315,-125,0,0,0,0,0,0,0,0,0,-1,909,1149,0,0
-308,-125,0,0,0,0,0,0,0,0,0,-1,916,1149,0,0
-301,-125,0,0,0,0,0,0,0,0,0,-1,923,1149,0,0
-294,-125,0,0,0,0,0,0,0,0,0,-1,930,1149,0,0
-287,-125,0,0,0,0,0,0,0,0,0,-1,937,1149,0,0
-280,-125,0,0,0,0,0,0,0,0,0,-1,944,1149,0,0
-273,-125,0,0,0,0,0,0,0,0,0,-1,951,1149,0,0
-266,-125,0,0,0,0,0,0,0,0,0,-1,958,1149,0,0
-259,-125,0,0,0,0,0,0,0,0,0,-1,965,1149,0,0
-252,-125,0,0,0,0,0,0,0,0,0,-1,972,1149,0,0
-245,-125,0,0,0,0,0,0,0,0,0,-1,979,1149,0,0
-238,-125,0,0,0,0,0,0,0,0,0,-1,986,1149,0,0
-231,-125,0,0,0,0,0,0,0,0,0,-1,993,1149,0,0
-224,-125,0,0,0,0,0,0,0,0,0,-1,1000,1149,0,0
-217,-125,0,0,0,0,0,0,0,0,0,-1,1007,1149,0,0
-210,-125,0,0,0,0,0,0,0,0,0,-1,1014,1149,0,0
-203,-125,0,0,0,0,0,0,0,0,0,-1,1021,1149,0,0
-196,-125,0,0,0,0,0,0,0,0,0,-1,1028,1149,0,0
-189,-125,0,0,0,0,0,0,0,0,0,-1,1035,1149,0,0
-182,-125,0,0,0,0,0,0,0,0,0,-1,1042,1149,0,0
-175,-125,0,0,0,0,0,0,0,0,0,-1,1049,1149,0,0
-168,-125,0,0,0,0,0,0,0,0,0,-1,1056,1149,0,0
-161,-125,0,0,0,0,0,0,0,0,0,-1,1063,1149,0,0
-154,-125,0,0,0,0,0,0,0,0,0,-1,1070,1149,0,0
-147,-125,0,0,0,0,0,0,0,0,0,-1,1077,1149,0,0
-140,-125,0,0,0,0,0,0,0,0,0,-1,1084,1149,0,0
-133,-125,0,0,0,0,0,0,0,0,0,-1,1091,1149,0,0
-126,-125,0,0,0,0,0,0,0,0,0,-1,1098,1149,0,0
-119,-125,0,0,0,0,0,0,0,0,0,-1,1105,1149,0,0
-112,-125,0,0,0,0,0,0,0,0,0,-1,1112,1149,0,0
-105,-125,0,0,0,0,0,0,0,0,0,-1,1119,1149,0,0
-98,-125,0,0,0,0,0,0,0,0,0,-1,1126,1149,0,0
-91,-125,0,0,0,0,0,0,0,0,0,-1,1133,1149,0,0
-84,-125,0,0,0,0,0,0,0,0,0,-1,1140,1149,0,0
-77,-125,0,0,0,0,0,0,0,0,0,-1,1147,1149,0,0
-70,-125,0,0,0,0,0,0,0,0,0,-1,1154,1149,0,0
-63,-125,0,0,0,0,0,0,0,0,0,-1,1161,1149,0,0
-56,-125,0,0,0,0,0,0,0,0,0,-1,1168,1149,0,0
-49,-125,0,0,0,0,0,0,0,0,0,-1,1175,1149,0,0
-42,-125,0,0,0,0,0,0,0,0,0,-1,1182,1149,0,0
-35,-125,0,0,0,0,0,0,0,0,0,-1,1189,1149,0,0
-28,-125,0,0,0,0,0,0,0,0,0,-1,1196,1149,0,0
-21,-125,0,0,0,0,0,0,0,0,0,-1,1203,1149,0,0
-14,-125,0,0,0,0,0,0,0,0,0,-1,1210,1149,0,0
-7,-125,0,0,0,0,0,0,0,0,0,-1,1217,1149,0,0
0,-125,0,0,0,0,0,0,0,0,0,-1,1224,1149,0,0
7,-125,0,0,0,0,0,0,0,0,0,-1,1231,1149,0,0
14,-125,0,0,0,0,0,0,0,0,0,-1,1238,1149,0,0
21,-125,0,0,0,0,0,0,0,0,0,-1,1245,1149,0,0
28,-125,0,0,0,0,0,0,0,0,0,-1,1252,1149,0,0
35,-125,0,0,0,0,0,0,0,0,0,-1,1259,1149,0,0
42,-125,0,0,0,0,0,0,0,0,0,-1,1266,1149,0,0
49,-125,0,0,0,0,0,0,0,0,0,-1,1273,1149,0,0
56,-125,0,0,0,0,0,0,0,0,0,-1,1280,1149,0,0
63,-125,0,0,0,0,0,0,0,0,0,-1,1287,1149,0,0
70,-125,0,0,0,0,0,0,0,0,0,-1,1294,1149,0,0
77,-125,0,0,0,0,0,0,0,0,0,-1,1301,1149,0,0
84,-125,0,0,0,0,0,0,0,0,0,-1,1308,1149,0,0
91,-125,0,0,0,0,0,0,0,0,0,-1,1315,1149,0,0
98,-125,0,0,0,0,0,0,0,0,0,-1,1322,1149,0,0
105,-125,0,0,0,0,0,0,0,0,0,-1,1329,1149,0,0
112,-125,0,0,0,0,0,0,0,0,0,-1,1336,1149,0,0
119,-125,0,0,0,0,0,0,0,0,0,-1,1343,1149,0,0
126,-125,0,0,0,0,0,0,0,0,0,-1,1350,1149,0,0
133,-125,0,0,0,0,0,0,0,0,0,-1,1357,1149,0,0
140,-125,0,0,0,0,0,0,0,0,0,-1,1364,1149,0,0
147,-125,0,0,0,0,0,0,0,0,0,-1,1371,1149,0,0
154,-125,0,0,0,0,0,0,0,0,0,-1,1378,1149,0,0
161,-125,0,0,0,0,0,0,0,0,0,-1,1385,1149,0,0
168,-125,0,0,0,0,0,0,0,0,0,-1,1392,1149,0,0
175,-125,0,0,0,0,0,0,0,0,0,-1,1399,1149,0,0
182,-125,0,0,0,0,0,0,0,0,0,-1,1406,1149,0,0
189,-125,0,0,0,0,0,0,0,0,0,-1,1413,1149,0,0
196,-125,0,0,0,0,0,0,0,0,0,-1,1420,1149,0,0
203,-125,0,0,0,0,0,0,0,0,0,-1,1427,1149,0,0
210,-125,0,0,0,0,0,0,0,0,0,-1,1434,1149,0,0
217,-125,0,0,0,0,0,0,0,0,0,-1,1441,1149,0,0
224,-125,0,0,0,0,0,0,0,0,0,-1,1448,1149,0,0
231,-125,0,0,0,0,0,0,0,0,0,-1,1455,1149,0,0
238,-125,0,0,0,0,0,0,0,0,0,-1,1462,1149,0,0
245,-125,0,0,0,0,0,0,0,0,0,-1,1469,1149,0,0
252,-125,0,0,0,0,0,0,0,0,0,-1,1476,1149,0,0
259,-125,0,0,0,0,0,0,0,0,0,-1,1483,1149,0,0
266,-125,0,0,0,0,0,0,0,0,0,-1,1490,1149,0,0
273,-125,0,0,0,0,0,0,0,0,0,-1,1497,1149,0,0
280,-125,0,0,0,0,0,0,0,0,0,-1,1504,1149,0,0
287,-125,0,0,0,0,0,0,0,0,0,-1,1511,1149,0,0
294,-125,0,0,0,0,0,0,0,0,0,-1,1518,1149,0,0
301,-125,0,0,0,0,0,0,0,0,0,-1,1525,1149,0,0
308,-125,0,0,0,0,0,0,0,0,0,-1,1532,1149,0,0
315,-125,0,0,0,0,0,0,0,0,0,-1,1539,1149,0,0
322,-125,0,0,0,0,0,0,0,0,0,-1,1546,1149,0,0
329,-125,0,0,0,0,0,0,0,0,0,-1,1553,1149,0,0
336,-125,0,0,0,0,0,0,0,0,0,-1,1560,1149,0,0
343,-125,0,0,0,0,0,0,0,0,0,-1,1567,1149,0,0
350,-125,0,0,0,0,0,0,0,0,0,-1,1574,1149,0,0
357,-125,0,0,0,0,0,0,0,0,0,-1,1581,1149,0,0
364,-125,0,0,0,0,0,0,0,0,0,-1,1588,1149,0,0
371,-125,0,0,0,0,0,0,0,0,0,-1,1595,1149,0,0
378,-125,0,0,0,0,0,0,0,0,0,-1,1602,1149,0,0
385,-125,0,0,0,0,0,0,0,0,0,-1,1609,1149,0,0
392,-125,0,0,0,0,0,0,0,0,0,-1,1616,1149,0,0
399,-125,0,0,0,0,0,0,0,0,0,-1,1623,1149,0,0
406,-125,0,0,0,0,0,0,0,0,0,-1,1630,1149,0,0
413,-125,0,0,0,0,0,0,0,0,0,-1,1637,1149,0,0
420,-125,0,0,0,0,0,0,0,0,0,-1,1644,1149,0,0
427,-125,0,0,0,0,0,0,0,0,0,-1,1651,1149,0,0
434,-125,0,0,0,0,0,0,0,0,0,-1,1658,1149,0,0
441,-125,0,0,0,0,0,0,0,0,0,-1,1665,1149,0,0
448,-125,0,0,0,0,0,0,0,0,0,-1,1672,1149,0,0
455,-125,0,0,0,0,0,0,0,0,0,-1,1679,1149,0,0
462,-125,0,0,0,0,0,0,0,0,0,-1,1686,1149,0,0
469,-125,0,0,0,0,0,0,0,0,0,-1,1693,1149,0,0
476,-125,0,0,0,0,0,0,0,0,0,-1,1700,1149,0,0
483,-125,0,0,0,0,0,0,0,0,0,-1,1707,1149,0,0
490,-125,0,0,0,0,0,0,0,0,0,-1,1714,1149,0,0
497,-125,0,0,0,0,0,0,0,0,0,-1,1721,1149,0,0
504,-125,0,0,0,0,0,0,0,0,0,-1,1728,1149,0,0
511,-125,0,0,0,0,0,0,0,0,0,-1,1735,1149,0,0
518,-125,0,0,0,0,0,0,0,0,0,-1,1742,1149,0,0
525,-125,0,0,0,0,0,0,0,0,0,-1,1749,1149,0,0
532,-125,0,0,0,0,0,0,0,0,0,-1,1756,1149,0,0
539,-125,0,0,0,0,0,0,0,0,0,-1,1763,1149,0,0
546,-125,0,0,0,0,0,0,0,0,0,-1,1770,1149,0,0
553,-125,0,0,0,0,0,0,0,0,0,-1,1777,1149,0,0
560,-125,0,0,0,0,0,0,0,0,0,-1,1784,1149,0,0
567,-125,0,0,0,0,0,0,0,0,0,-1,1791,1149,0,0
574,-125,0,0,0,0,0,0,0,0,0,-1,1798,1149,0,0
581,-125,0,0,0,0,0,0,0,0,0,-1,1805,1149,0,0
588,-125,0,0,0,0,0,0,0,0,0,-1,1812,1149,0,0
595,-125,0,0,0,0,0,0,0,0,0,-1,1819,1149,0,0
602,-125,0,0,0,0,0,0,0,0,0,-1,1826,1149,0,0
609,-125,0,0,0,0,0,0,0,0,0,-1,1833,1149,0,0
616,-125,0,0,0,0,0,0,0,0,0,-1,1840,1149,0,0
623,-125,0,0,0,0,0,0,0,0,0,-1,1847,1149,0,0
630,-125,0,0,0,0,0,0,0,0,0,-1,1854,1149,0,0
637,-125,0,0,0,0,0,0,0,0,0,-1,1861,1149,0,0
644,-125,70.399,1.97864,0,0,0,0,0,0,0,-1,1868,1149,70.399,-1.9786
651,-125,69.9042,1.80249,0,0,0,0,0,0,0,-1,1875,1149,69.9042,-1.80251
658,-125,70.0885,2.27893,0.00256877,0.000232715,0.00409172,0.00565591,-0.00285442,0.646365,0.00500139,0.0408382,1882,1149,70.0885,-2.27887
665,-125,70.3873,2.50879,0.00222235,0.000488339,0.00287784,0.00436094,-0.00165026,0.639088,0.00358626,0.042285,1889,1149,70.3873,-2.50877
672,-125,70.5253,2.84473,0.00177683,0.000816018,0.00150241,0.00287378,-0.000280928,0.630657,0.00201603,0.0464143,1896,1149,70.5253,-2.84472
679,-125,70.4976,2.84961,0.00155483,0.000665562,0.000622334,0.00187505,0.000345343,0.475215,0.0011523,0.0425004,1903,1149,70.4976,-2.84966
686,-125,70.4161,2.58777,0.00173898,0.000543889,0.000160431,0.00176014,0.000522727,0.13115,0.00104377,0.0366287,1910,1149,70.4162,-2.5878
693,-125,70.3666,2.49658,0.00173765,0.000362996,4.05416e-05,0.00173885,0.000361801,0.0294581,0.00105943,0.0354494,1917,1149,70.3666,-2.49662
700,-125,70.4304,2.38855,0.00190619,0.00022008,9.76197e-05,0.00191183,0.000214447,0.0576396,0.00120942,0.0229051,1924,1149,70.4304,-2.38857
707,-125,70.4551,2.26392,0,0,0,0,0,0,0,-1,1931,1149,70.4551,-2.26398
714,-125,54.8745,9.21375,0,0,0,0,0,0,0,-1,1938,1149,54.8746,-9.21371
721,-125,63.1927,9.38696,0,0,0,0,0,0,0,-1,1945,1149,63.1927,-9.38699
728,-125,63.1963,8.86304,0.00124666,0.000116403,0.000380699,0.00136293,1.34169e-07,0.296412,0.000908572,0.0211239,1952,1149,63.1963,-8.86307
735,-125,63.214,8.33984,0.00196375,0.000219105,0.000694003,0.00220614,-2.32857e-05,0.33602,0.00147858,0.0236967,1959,1149,63.214,-8.3398
742,-125,63.1571,7.72424,0.00231565,0.000469058,0.0010828,0.00281536,-3.06444e-05,0.432369,0.0018872,0.0360249,1966,1149,63.1572,-7.72421
749,-125,63.0234,7.12671,0.00285157,0.00155079,0.00112006,0.00349638,0.000905984,0.522355,0.00209527,0.0280962,1973,1149,63.0234,-7.12674
756,-125,63.0934,6.47595,0.00484712,0.00414411,0.000231976,0.00491677,0.00407447,0.291669,0.00303628,0.0217153,1980,1149,63.0934,-6.47596
763,-125,63.0896,5.90259,0.00885158,0.00798905,-0.00184642,0.0103164,0.00652419,-0.670671,0.00602541,0.012214,1987,1149,63.0895,-5.90261
770,-125,63.0076,5.328,0.0145977,0.0128419,-0.00491557,0.0187132,0.00872646,-0.69703,0.0108122,0.0167049,1994,1149,63.0075,-5.32796
777,-125,62.8938,4.82947,0.0220354,0.0186544,-0.00895509,0.0294581,0.0112316,-0.692109,0.0171667,0.0330799,2001,1149,62.8938,-4.82951
784,-125,63.0542,4.05481,0.031882,0.0258051,-0.0143631,0.0435245,0.0141626,-0.681162,0.0256345,0.0470448,2008,1149,63.0542,-4.05484
791,-125,63.3469,3.23962,0,0,0,0,0,0,0,-1,2015,1149,63.3469,-3.23957
798,-125,63.4092,0.708374,0,0,0,0,0,0,0,-1,2022,1149,63.4092,-0.708377
805,-125,60.8354,5.36206,0,0,0,0,0,0,0,-1,2029,1149,60.8355,-5.36204
812,-125,62.2241,-1.43518,0,0,0,0,0,0,0,-1,2036,1149,62.2241,1.43523
-700,-132,0,0,0,0,0,0,0,0,0,-1,524,1156,0,0
-693,-132,-48.606,-1.48352,0,0,0,0,0,0,0,-1,531,1156,-48.606,1.48355
-686,-132,-48.5413,-0.610962,0,0,0,0,0,0,0,-1,538,1156,-48.5413,0.611018
-679,-132,-48.3822,0.0936279,0,0,0,0,0,0,0,-1,545,1156,-48.3822,-0.0936017
-672,-132,-48.9832,0.0944824,0,0,0,0,0,0,0,-1,552,1156,-48.9832,-0.0944312
-665,-132,-49.0078,1.02686,0,0,0,0,0,0,0,-1,559,1156,-49.0078,-1.02681
-658,-132,-47.6544,0.614746,0,0,0,0,0,0,0,-1,566,1156,-47.6544,-0.614774
-651,-132,-47.0739,1.75415,0.01899,0.0352812,0.00346521,0.0359877,0.0182836,1.36969,0.0207784,0.0447013,573,1156,-47.0738,-1.75418
-644,-132,-46.5317,2.88538,0.013034,0.0252111,0.0017345,0.0254533,0.0127918,1.43203,0.0146956,0.0281027,580,1156,-46.5318,-2.88533
-637,-132,-46.6461,3.56262,0.00754899,0.0162208,0.000158374,0.0162237,0.00754609,1.55254,0.00937435,0.0137041,587,1156,-46.6461,-3.56257
-630,-132,-46.6581,4.18787,0.00265889,0.00855957,-0.00106115,0.0087446,0.00247385,-1.39816,0.00520492,0.0108507,594,1156,-46.6581,-4.18789
-623,-132,-46.6851,4.82935,-0.000842688,0.00259124,-0.00169234,0.00328508,-0.00153653,-1.18171,0.00284412,0.0162489,601,1156,-46.6851,-4.82941
-616,-132,-46.7197,5.47644,0,0,0,0,0,0,0,-1,608,1156,-46.7196,-5.47645
-609,-132,-46.6606,6.01099,0,0,0,0,0,0,0,-1,615,1156,-46.6606,-6.01101
-602,-132,-46.6977,6.7771,0,0,0,0,0,0,0,-1,622,1156,-46.6977,-6.7771
-595,-132,-46.7767,7.4364,0,0,0,0,0,0,0,-1,629,1156,-46.7768,-7.43642
-588,-132,-42.6534,6.92969,0,0,0,0,0,0,0,-1,636,1156,-42.6535,-6.92967
-581,-132,-35.9343,6.42957,0,0,0,0,0,0,0,-1,643,1156,-35.9342,-6.42957
-574,-132,-33.2071,2.86963,0,0,0,0,0,0,0,-1,650,1156,-33.2071,-2.86963
-567,-132,-54.2489,0.461914,0,0,0,0,0,0,0,-1,657,1156,-54.2489,-0.461946
-560,-132,-54.3563,0.566406,0.00682517,0.000536593,-0.00258822,0.00775341,-0.000391642,-0.344349,0.00530431,0.0358329,664,1156,-54.3563,-0.566394
-553,-132,-54.4561,0.652832,0.00741108,0.000651191,-0.00286687,0.00846318,-0.000400904,-0.351724,0.00578039,0.0381556,671,1156,-54.456,-0.652842
-546,-132,-54.4265,0.558105,0.00606064,0.00046409,-0.00353144,0.00776807,-0.00124334,-0.450356,0.00563904,0.0404511,678,1156,-54.4265,-0.558077
-539,-132,-54.2865,0.437744,0.0042626,-0.000792266,-0.00408657,0.00654016,-0.00306983,-0.508452,0.00566764,0.0412431,685,1156,-54.2865,-0.437792
-532,-132,-54.1114,0.418701,0.00228449,-0.00242311,-0.00413045,0.00468474,-0.00482336,-0.526415,0.0054897,0.0396711,692,1156,-54.1114,-0.418697
-525,-132,-54.0399,0.368286,-0.000352646,-0.00415564,-0.00370737,0.00191242,-0.00642071,-0.548442,0.00504037,0.0400293,699,1156,-54.0399,-0.368239
-518,-132,0,0,0,0,0,0,0,0,0,-1,706,1156,0,0
-511,-132,0,0,0,0,0,0,0,0,0,-1,713,1156,0,0
-504,-132,0,0,0,0,0,0,0,0,0,-1,720,1156,0,0
-497,-132,0,0,0,0,0,0,0,0,0,-1,727,1156,0,0
-490,-132,0,0,0,0,0,0,0,0,0,-1,734,1156,0,0
-483,-132,0,0,0,0,0,0,0,0,0,-1,741,1156,0,0
-476,-132,0,0,0,0,0,0,0,0,0,-1,748,1156,0,0
-469,-132,0,0,0,0,0,0,0,0,0,-1,755,1156,0,0
-462,-132,0,0,0,0,0,0,0,0,0,-1,762,1156,0,0
-455,-132,0,0,0,0,0,0,0,0,0,-1,769,1156,0,0
-448,-132,0,0,0,0,0,0,0,0,0,-1,776,1156,0,0
-441,-132,0,0,0,0,0,0,0,0,0,-1,783,1156,0,0
-434,-132,0,0,0,0,0,0,0,0,0,-1,790,1156,0,0
-427,-132,0,0,0,0,0,0,0,0,0,-1,797,1156,0,0
-420,-132,0,0,0,0,0,0,0,0,0,-1,804,1156,0,0
-413,-132,0,0,0,0,0,0,0,0,0,-1,811,1156,0,0
-406,-132,0,0,0,0,0,0,0,0,0,-1,818,1156,0,0
-399,-132,0,0,0,0,0,0,0,0,0,-1,825,1156,0,0
-392,-132,0,0,0,0,0,0,0,0,0,-1,832,1156,0,0
-385,-132,0,0,0,0,0,0,0,0,0,-1,839,1156,0,0
-378,-132,0,0,0,0,0,0,0,0,0,-1,846,1156,0,0
-371,-132,0,0,0,0,0,0,0,0,0,-1,853,1156,0,0
-364,-132,0,0,0,0,0,0,0,0,0,-1,860,1156,0,0
-357,-132,0,0,0,0,0,0,0,0,0,-1,867,1156,0,0
-350,-132,0,0,0,0,0,0,0,0,0,-1,874,1156,0,0
-343,-132,0,0,0,0,0,0,0,0,0,-1,881,1156,0,0
-336,-132,0,0,0,0,0,0,0,0,0,-1,888,1156,0,0
-329,-132,0,0,0,0,0,0,0,0,0,-1,895,1156,0,0
-322,-132,0,0,0,0,0,0,0,0,0,-1,902,1156,0,0
-315,-132,0,0,0,0,0,0,0,0,0,-1,909,1156,0,0
-308,-132,0,0,0,0,0,0,0,0,0,-1,916,1156,0,0
-301,-132,0,0,0,0,0,0,0,0,0,-1,923,1156,0,0
-294,-132,0,0,0,0,0,0,0,0,0,-1,930,1156,0,0
-287,-132,0,0,0,0,0,0,0,0,0,-1,937,1156,0,0
-280,-132,0,0,0,0,0,0,0,0,0,-1,944,1156,0,0
-273,-132,0,0,0,0,0,0,0,0,0,-1,951,1156,0,0
-266,-132,0,0,0,0,0,0,0,0,0,-1,958,1156,0,0
-259,-132,0,0,0,0,0,0,0,0,0,-1,965,1156,0,0
-252,-132,0,0,0,0,0,0,0,0,0,-1,972,1156,0,0
-245,-132,0,0,0,0,0,0,0,0,0,-1,979,1156,0,0
-238,-132,0,0,0,0,0,0,0,0,0,-1,986,1156,0,0
-231,-132,0,0,0,0,0,0,0,0,0,-1,993,1156,0,0
-224,-132,0,0,0,0,0,0,0,0,0,-1,1000,1156,0,0
-217,-132,0,0,0,0,0,0,0,0,0,-1,1007,1156,0,0
-210,-132,0,0,0,0,0,0,0,0,0,-1,1014,1156,0,0
-203,-132,0,0,0,0,0,0,0,0,0,-1,1021,1156,0,0
-196,-132,0,0,0,0,0,0,0,0,0,-1,1028,1156,0,0
-189,-132,0,0,0,0,0,0,0,0,0,-1,1035,1156,0,0
-182,-132,0,0,0,0,0,0,0,0,0,-1,1042,1156,0,0
-175,-132,0,0,0,0,0,0,0,0,0,-1,1049,1156,0,0
-168,-132,0,0,0,0,0,0,0,0,0,-1,1056,1156,0,0
-161,-132,0,0,0,0,0,0,0,0,0,-1,1063,1156,0,0
-154,-132,0,0,0,0,0,0,0,0,0,-1,1070,1156,0,0
-147,-132,0,0,0,0,0,0,0,0,0,-1,1077,1156,0,0
-140,-132,0,0,0,0,0,0,0,0,0,-1,1084,1156,0,0
-133,-132,0,0,0,0,0,0,0,0,0,-1,1091,1156,0,0
-126,-132,0,0,0,0,0,0,0,0,0,-1,1098,1156,0,0
-119,-132,0,0,0,0,0,0,0,0,0,-1,1105,1156,0,0
-112,-132,0,0,0,0,0,0,0,0,0,-1,1112,1156,0,0
-105,-132,0,0,0,0,0,0,0,0,0,-1,1119,1156,0,0
-98,-132,0,0,0,0,0,0,0,0,0,-1,1126,1156,0,0
-91,-132,0,0,0,0,0,0,0,0,0,-1,1133,1156,0,0
-84,-132,0,0,0,0,0,0,0,0,0,-1,1140,1156,0,0
-77,-132,0,0,0,0,0,0,0,0,0,-1,1147,1156,0,0
-70,-132,0,0,0,0,0,0,0,0,0,-1,1154,1156,0,0
-63,-132,0,0,0,0,0,0,0,0,0,-1,1161,1156,0,0
-56,-132,0,0,0,0,0,0,0,0,0,-1,1168,1156,0,0
-49,-132,0,0,0,0,0,0,0,0,0,-1,1175,1156,0,0
-42,-132,0,0,0,0,0,0,0,0,0,-1,1182,1156,0,0
-35,-132,0,0,0,0,0,0,0,0,0,-1,1189,1156,0,0
-28,-132,0,0,0,0,0,0,0,0,0,-1,1196,1156,0,0
-21,-132,0,0,0,0,0,0,0,0,0,-1,1203,1156,0,0
-14,-132,0,0,0,0,0,0,0,0,0,-1,1210,1156,0,0
-7,-132,0,0,0,0,0,0,0,0,0,-1,1217,1156,0,0
0,-132,0,0,0,0,0,0,0,0,0,-1,1224,1156,0,0
7,-132,0,0,0,0,0,0,0,0,0,-1,1231,1156,0,0
14,-132,0,0,0,0,0,0,0,0,0,-1,1238,1156,0,0
21,-132,0,0,0,0,0,0,0,0,0,-1,1245,1156,0,0
28,-132,0,0,0,0,0,0,0,0,0,-1,1252,1156,0,0
35,-132,0,0,0,0,0,0,0,0,0,-1,1259,1156,0,0
42,-132,0,0,0,0,0,0,0,0,0,-1,1266,1156,0,0
49,-132,0,0,0,0,0,0,0,0,0,-1,1273,1156,0,0
56,-132,0,0,0,0,0,0,0,0,0,-1,1280,1156,0,0
63,-132,0,0,0,0,0,0,0,0,0,-1,1287,1156,0,0
70,-132,0,0,0,0,0,0,0,0,0,-1,1294,1156,0,0
77,-132,0,0,0,0,0,0,0,0,0,-1,1301,1156,0,0
84,-132,0,0,0,0,0,0,0,0,0,-1,1308,1156,0,0
91,-132,0,0,0,0,0,0,0,0,0,-1,1315,1156,0,0
98,-132,0,0,0,0,0,0,0,0,0,-1,1322,1156,0,0
105,-132,0,0,0,0,0,0,0,0,0,-1,1329,1156,0,0
112,-132,0,0,0,0,0,0,0,0,0,-1,1336,1156,0,0
119,-132,0,0,0,0,0,0,0,0,0,-1,1343,1156,0,0
126,-132,0,0,0,0,0,0,0,0,0,-1,1350,1156,0,0
133,-132,0,0,0,0,0,0,0,0,0,-1,1357,1156,0,0
140,-132,0,0,0,0,0,0,0,0,0,-1,1364,1156,0,0
147,-132,0,0,0,0,0,0,0,0,0,-1,1371,1156,0,0
154,-132,0,0,0,0,0,0,0,0,0,-1,1378,1156,0,0
161,-132,0,0,0,0,0,0,0,0,0,-1,1385,1156,0,0
168,-132,0,0,0,0,0,0,0,0,0,-1,1392,1156,0,0
175,-132,0,0,0,0,0,0,0,0,0,-1,1399,1156,0,0
182,-132,0,0,0,0,0,0,0,0,0,-1,1406,1156,0,0
189,-132,0,0,0,0,0,0,0,0,0,-1,1413,1156,0,0
196,-132,0,0,0,0,0,0,0,0,0,-1,1420,1156,0,0
203,-132,0,0,0,0,0,0,0,0,0,-1,1427,1156,0,0
210,-132,0,0,0,0,0,0,0,0,0,-1,1434,1156,0,0
217,-132,0,0,0,0,0,0,0,0,0,-1,1441,1156,0,0
224,-132,0,0,0,0,0,0,0,0,0,-1,1448,1156,0,0
231,-132,0,0,0,0,0,0,0,0,0,-1,1455,1156,0,0
238,-132,0,0,0,0,0,0,0,0,0,-1,1462,1156,0,0
245,-132,0,0,0,0,0,0,0,0,0,-1,1469,1156,0,0
252,-132,0,0,0,0,0,0,0,0,0,-1,1476,1156,0,0
259,-132,0,0,0,0,0,0,0,0,0,-1,1483,1156,0,0
266,-132,0,0,0,0,0,0,0,0,0,-1,1490,1156,0,0
273,-132,0,0,0,0,0,0,0,0,0,-1,1497,1156,0,0
280,-132,0,0,0,0,0,0,0,0,0,-1,1504,1156,0,0
287,-132,0,0,0,0,0,0,0,0,0,-1,1511,1156,0,0
294,-132,0,0,0,0,0,0,0,0,0,-1,1518,1156,0,0
301,-132,0,0,0,0,0,0,0,0,0,-1,1525,1156,0,0
308,-132,0,0,0,0,0,0,0,0,0,-1,1532,1156,0,0
315,-132,0,0,0,0,0,0,0,0,0,-1,1539,1156,0,0
322,-132,0,0,0,0,0,0,0,0,0,-1,1546,1156,0,0
329,-132,0,0,0,0,0,0,0,0,0,-1,1553,1156,0,0
336,-132,0,0,0,0,0,0,0,0,0,-1,1560,1156,0,0
343,-132,0,0,0,0,0,0,0,0,0,-1,1567,1156,0,0
350,-132,0,0,0,0,0,0,0,0,0,-1,1574,1156,0,0
357,-132,0,0,0,0,0,0,0,0,0,-1,1581,1156,0,0
364,-132,0,0,0,0,0,0,0,0,0,-1,1588,1156,0,0
371,-132,0,0,0,0,0,0,0,0,0,-1,1595,1156,0,0
378,-132,0,0,0,0,0,0,0,0,0,-1,1602,1156,0,0
385,-132,0,0,0,0,0,0,0,0,0,-1,1609,1156,0,0
392,-132,0,0,0,0,0,0,0,0,0,-1,1616,1156,0,0
399,-132,0,0,0,0,0,0,0,0,0,-1,1623,1156,0,0
406,-132,0,0,0,0,0,0,0,0,0,-1,1630,1156,0,0
413,-132,0,0,0,0,0,0,0,0,0,-1,1637,1156,0,0
420,-132,0,0,0,0,0,0,0,0,0,-1,1644,1156,0,0
427,-132,0,0,0,0,0,0,0,0,0,-1,1651,1156,0,0
434,-132,0,0,0,0,0,0,0,0,0,-1,1658,1156,0,0
441,-132,0,0,0,0,0,0,0,0,0,-1,1665,1156,0,0
448,-132,0,0,0,0,0,0,0,0,0,-1,1672,1156,0,0
455,-132,0,0,0,0,0,0,0,0,0,-1,1679,1156,0,0
462,-132,0,0,0,0,0,0,0,0,0,-1,1686,1156,0,0
469,-132,0,0,0,0,0,0,0,0,0,-1,1693,1156,0,0
476,-132,0,0,0,0,0,0,0,0,0,-1,1700,1156,0,0
483,-132,0,0,0,0,0,0,0,0,0,-1,1707,1156,0,0
490,-132,0,0,0,0,0,0,0,0,0,-1,1714,1156,0,0
497,-132,0,0,0,0,0,0,0,0,0,-1,1721,1156,0,0
504,-132,0,0,0,0,0,0,0,0,0,-1,1728,1156,0,0
511,-132,0,0,0,0,0,0,0,0,0,-1,1735,1156,0,0
518,-132,0,0,0,0,0,0,0,0,0,-1,1742,1156,0,0
525,-132,0,0,0,0,0,0,0,0,0,-1,1749,1156,0,0
532,-132,0,0,0,0,0,0,0,0,0,-1,1756,1156,0,0
539,-132,0,0,0,0,0,0,0,0,0,-1,1763,1156,0,0
546,-132,0,0,0,0,0,0,0,0,0,-1,1770,1156,0,0
553,-132,0,0,0,0,0,0,0,0,0,-1,1777,1156,0,0
560,-132,0,0,0,0,0,0,0,0,0,-1,1784,1156,0,0
567,-132,0,0,0,0,0,0,0,0,0,-1,1791,1156,0,0
574,-132,0,0,0,0,0,0,0,0,0,-1,1798,1156,0,0
581,-132,0,0,0,0,0,0,0,0,0,-1,1805,1156,0,0
588,-132,0,0,0,0,0,0,0,0,0,-1,1812,1156,0,0
595,-132,0,0,0,0,0,0,0,0,0,-1,1819,1156,0,0
602,-132,0,0,0,0,0,0,0,0,0,-1,1826,1156,0,0
609,-132,0,0,0,0,0,0,0,0,0,-1,1833,1156,0,0
616,-132,0,0,0,0,0,0,0,0,0,-1,1840,1156,0,0
623,-132,0,0,0,0,0,0,0,0,0,-1,1847,1156,0,0
630,-132,0,0,0,0,0,0,0,0,0,-1,1854,1156,0,0
637,-132,0,0,0,0,0,0,0,0,0,-1,1861,1156,0,0
644,-132,70.5094,2.06775,0.00172353,-0.000507116,0.00602383,0.00673442,-0.00551801,0.693859,0.00708556,0.0413323,1868,1156,70.5094,-2.0677
651,-132,70.3622,2.22852,0.00191993,-1.05328e-05,0.00522378,0.0062669,-0.00435751,0.69404,0.00616694,0.041215,1875,1156,70.3622,-2.22847
658,-132,70.3065,2.51331,0.00199196,0.000426702,0.00409055,0.00537407,-0.00295541,0.690877,0.00487614,0.0403433,1882,1156,70.3066,-2.51326
665,-132,70.323,2.67273,0.00187679,0.000908468,0.00274617,0.00418115,-0.0013959,0.698143,0.00335109,0.0417711,1889,1156,70.323,-2.67277
672,-132,70.3445,2.79333,0.0016524,0.00145655,0.00121336,0.00277178,0.000337168,0.745132,0.00174635,0.0433382,1896,1156,70.3445,-2.79333
679,-132,70.4283,2.68433,0.00154173,0.00137703,0.000261002,0.00173306,0.00118569,0.632578,0.00102296,0.0401875,1903,1156,70.4284,-2.68438
686,-132,70.4177,2.57397,0.00181415,0.00132758,-0.000162959,0.00186369,0.00127805,-0.295091,0.00110048,0.0345325,1910,1156,70.4178,-2.57393
693,-132,70.4012,2.50696,0.00183155,0.00113302,-0.00016654,0.00186923,0.00109534,-0.222468,0.00108451,0.030249,1917,1156,70.4012,-2.50699
700,-132,70.4365,2.38416,0,0,0,0,0,0,0,-1,1924,1156,70.4365,-2.38411
707,-132,57.9275,3.01367,0,0,0,0,0,0,0,-1,1931,1156,57.9275,-3.01369
714,-132,57.8083,9.22156,0,0,0,0,0,0,0,-1,1938,1156,57.8084,-9.22151
721,-132,62.6885,9.32715,0,0,0,0,0,0,0,-1,1945,1156,62.6885,-9.3272
728,-132,62.5596,8.95703,0.00145881,0.000658327,0.000238742,0.00152461,0.000592531,0.268919,0.00088748,0.0310815,1952,1156,62.5596,-8.95698
735,-132,62.5178,8.38745,0.00211824,0.000614416,0.000645111,0.00235706,0.000375601,0.354548,0.00146234,0.0317596,1959,1156,62.5178,-8.38742
742,-132,62.5145,7.73291,0.00242545,0.000679026,0.00112116,0.00297333,0.000131143,0.454545,0.00193998,0.0279983,1966,1156,62.5145,-7.73296
749,-132,62.4631,7.08594,0.00298862,0.00165565,0.00120569,0.00369977,0.0009445,0.532909,0.00221971,0.0265061,1973,1156,62.4631,-7.08589
756,-132,62.4982,6.50891,0.00545369,0.00456092,9.93743e-05,0.00546462,0.00454999,0.109524,0.00337971,0.0239782,1980,1156,62.4982,-6.50892
763,-132,62.4517,5.92224,0.0101138,0.0089031,-0.00229322,0.0118802,0.00713666,-0.656358,0.00690527,0.0143606,1987,1156,62.4517,-5.92222
770,-132,62.426,5.36658,0.0165484,0.0143572,-0.00572173,0.0212785,0.00962712,-0.690805,0.0123036,0.0149714,1994,1156,62.426,-5.36659
777,-132,62.3462,4.76624,0.0247624,0.0209383,-0.010229,0.0332565,0.0124441,-0.693002,0.0194022,0.0273479,2001,1156,62.3462,-4.76622
784,-132,62.4189,4.13843,0.0354491,0.0290512,-0.0162281,0.0487906,0.0157098,-0.688084,0.0287582,0.0471013,2008,1156,62.4189,-4.13841
791,-132,62.5942,3.50403,0,0,0,0,0,0,0,-1,2015,1156,62.5944,-3.50402
798,-132,60.063,5.51709,0,0,0,0,0,0,0,-1,2022,1156,60.063,-5.51706
805,-132,61.1895,4.5979,0,0,0,0,0,0,0,-1,2029,1156,61.1895,-4.59794
812,-132,62.0815,3.98352,0,0,0,0,0,0,0,-1,2036,1156,62.0816,-3.98355
-700,-139,0,0,0,0,0,0,0,0,0,-1,524,1163,0,0
-693,-139,-48.0837,-1.74231,0.0597974,0.103656,0.00607265,0.104481,0.0589721,1.43572,0.0604889,0.0443026,531,1163,-48.0837,1.74228
-686,-139,-48.0171,-1.33545,0,0,0,0,0,0,0,-1,538,1163,-48.0171,1.3354
-679,-139,-47.8886,-0.618164,0.0503946,0.0820224,0.00442774,0.0826305,0.0497865,1.4343,0.0480399,0.049542,545,1163,-47.8886,0.618202
-672,-139,-47.4472,-0.42627,0.0434684,0.0696052,0.00323612,0.0699999,0.0430736,1.44942,0.0407713,0.0457291,552,1163,-47.4472,0.426315
-665,-139,-47.4989,0.558472,0.0362645,0.0574483,0.0020805,0.0576507,0.0360621,1.47382,0.0336325,0.0453503,559,1163,-47.4989,-0.558443
-658,-139,-46.9243,1.26746,0,0,0,0,0,0,0,-1,566,1163,-46.9243,-1.2674
-651,-139,-45.905,2.0708,0,0,0,0,0,0,0,-1,573,1163,-45.905,-2.0708
-644,-139,-45.859,2.91772,0.015057,0.0247505,-0.000671567,0.0247968,0.0150107,-1.50195,0.014422,0.028476,580,1163,-45.859,-2.91776
-637,-139,-45.9628,3.56396,0.0089279,0.0158478,-0.00140974,0.016124,0.00865173,-1.37734,0.0093175,0.0160514,587,1163,-45.9628,-3.56391
-630,-139,-45.9876,4.19885,0.0033595,0.00836364,-0.00184988,0.00897323,0.00274992,-1.25247,0.00530849,0.0112821,594,1163,-45.9876,-4.19884
-623,-139,-46.0097,4.84229,-0.000867922,0.00250036,-0.00202439,0.00344956,-0.00181712,-1.13235,0.00308903,0.0175684,601,1163,-46.0097,-4.84225
-616,-139,-46.115,5.48022,-0.00182291,0.000546814,-0.00191208,0.00161139,-0.00288749,-1.06278,0.00263202,0.0212618,608,1163,-46.115,-5.48024
-609,-139,-46.2772,6.18323,0,0,0,0,0,0,0,-1,615,1163,-46.2772,-6.18323
-602,-139,-45.9636,6.83496,0,0,0,0,0,0,0,-1,622,1163,-45.9636,-6.83491
-595,-139,-46.1774,7.43176,0,0,0,0,0,0,0,-1,629,1163,-46.1773,-7.43175
-588,-139,-46.5293,7.91577,0,0,0,0,0,0,0,-1,636,1163,-46.5293,-7.91574
-581,-139,-34.4892,6.72473,0,0,0,0,0,0,0,-1,643,1163,-34.4892,-6.72476
-574,-139,-23.0725,2.4043,0,0,0,0,0,0,0,-1,650,1163,-23.0725,-2.40433
-567,-139,-54.2872,0.628906,0,0,0,0,0,0,0,-1,657,1163,-54.2872,-0.628862
-560,-139,-54.3798,0.663818,0.00611911,0.00048628,-0.00287823,0.00732966,-0.000724268,-0.398127,0.00514488,0.0362978,664,1163,-54.3798,-0.663806
-553,-139,-54.4304,0.711182,0.00703452,0.000726033,-0.00293752,0.00819052,-0.000429976,-0.374918,0.00560917,0.0394123,671,1163,-54.4304,-0.71121
-546,-139,-54.3376,0.680542,0.00614318,0.000666194,-0.00314558,0.0075753,-0.000765929,-0.427236,0.00532391,0.0420567,678,1163,-54.3377,-0.680518
-539,-139,-54.249,0.543701,0.00442641,-0.000607845,-0.00318869,0.00597176,-0.00215319,-0.451279,0.00486056,0.0401694,685,1163,-54.249,-0.543757
-532,-139,-54.05,0.302734,0.00233513,-0.00242972,-0.00270879,0.00356013,-0.00365471,-0.424707,0.00416561,0.0400368,692,1163,-54.05,-0.302686
-525,-139,-53.933,0.350342,-0.00068568,-0.00457959,-0.00186259,6.17772e-05,-0.00532705,-0.381627,0.00357214,0.040743,699,1163,-53.9331,-0.350378
-518,-139,0,0,0,0,0,0,0,0,0,-1,706,1163,0,0
-511,-139,0,0,0,0,0,0,0,0,0,-1,713,1163,0,0
-504,-139,0,0,0,0,0,0,0,0,0,-1,720,1163,0,0
-497,-139,0,0,0,0,0,0,0,0,0,-1,727,1163,0,0
-490,-139,0,0,0,0,0,0,0,0,0,-1,734,1163,0,0
-483,-139,0,0,0,0,0,0,0,0,0,-1,741,1163,0,0
-476,-139,0,0,0,0,0,0,0,0,0,-1,748,1163,0,0
-469,-139,0,0,0,0,0,0,0,0,0,-1,755,1163,0,0
-462,-139,0,0,0,0,0,0,0,0,0,-1,762,1163,0,0
-455,-139,0,0,0,0,0,0,0,0,0,-1,769,1163,0,0
-448,-139,0,0,0,0,0,0,0,0,0,-1,776,1163,0,0
-441,-139,0,0,0,0,0,0,0,0,0,-1,783,1163,0,0
-434,-139,0,0,0,0,0,0,0,0,0,-1,790,1163,0,0
-427,-139,0,0,0,0,0,0,0,0,0,-1,797,1163,0,0
-420,-139,0,0,0,0,0,0,0,0,0,-1,804,1163,0,0
-413,-139,0,0,0,0,0,0,0,0,0,-1,811,1163,0,0
-406,-139,0,0,0,0,0,0,0,0,0,-1,818,1163,0,0
-399,-139,0,0,0,0,0,0,0,0,0,-1,825,1163,0,0
-392,-139,0,0,0,0,0,0,0,0,0,-1,832,1163,0,0
-385,-139,0,0,0,0,0,0,0,0,0,-1,839,1163,0,0
-378,-139,0,0,0,0,0,0,0,0,0,-1,846,1163,0,0
-371,-139,0,0,0,0,0,0,0,0,0,-1,853,1163,0,0
-364,-139,0,0,0,0,0,0,0,0,0,-1,860,1163,0,0
-357,-139,0,0,0,0,0,0,0,0,0,-1,867,1163,0,0
-350,-139,0,0,0,0,0,0,0,0,0,-1,874,1163,0,0
-343,-139,0,0,0,0,0,0,0,0,0,-1,881,1163,0,0
-336,-139,0,0,0,0,0,0,0,0,0,-1,888,1163,0,0
-329,-139,0,0,0,0,0,0,0,0,0,-1,895,1163,0,0
-322,-139,0,0,0,0,0,0,0,0,0,-1,902,1163,0,0
-315,-139,0,0,0,0,0,0,0,0,0,-1,909,1163,0,0
-308,-139,0,0,0,0,0,0,0,0,0,-1,916,1163,0,0
-301,-139,0,0,0,0,0,0,0,0,0,-1,923,1163,0,0
-294,-139,0,0,0,0,0,0,0,0,0,-1,930,1163,0,0
-287,-139,0,0,0,0,0,0,0,0,0,-1,937,1163,0,0
-280,-139,0,0,0,0,0,0,0,0,0,-1,944,1163,0,0
-273,-139,0,0,0,0,0,0,0,0,0,-1,951,1163,0,0
-266,-139,0,0,0,0,0,0,0,0,0,-1,958,1163,0,0
-259,-139,0,0,0,0,0,0,0,0,0,-1,965,1163,0,0
-252,-139,0,0,0,0,0,0,0,0,0,-1,972,1163,0,0
-245,-139,0,0,0,0,0,0,0,0,0,-1,979,1163,0,0
-238,-139,0,0,0,0,0,0,0,0,0,-1,986,1163,0,0
-231,-139,0,0,0,0,0,0,0,0,0,-1,993,1163,0,0
-224,-139,0,0,0,0,0,0,0,0,0,-1,1000,1163,0,0
-217,-139,0,0,0,0,0,0,0,0,0,-1,1007,1163,0,0
-210,-139,0,0,0,0,0,0,0,0,0,-1,1014,1163,0,0
-203,-139,0,0,0,0,0,0,0,0,0,-1,1021,1163,0,0
-196,-139,0,0,0,0,0,0,0,0,0,-1,1028,1163,0,0
-189,-139,0,0,0,0,0,0,0,0,0,-1,1035,1163,0,0
-182,-139,0,0,0,0,0,0,0,0,0,-1,1042,1163,0,0
-175,-139,0,0,0,0,0,0,0,0,0,-1,1049,1163,0,0
-168,-139,0,0,0,0,0,0,0,0,0,-1,1056,1163,0,0
-161,-139,0,0,0,0,0,0,0,0,0,-1,1063,1163,0,0
-154,-139,0,0,0,0,0,0,0,0,0,-1,1070,1163,0,0
-147,-139,0,0,0,0,0,0,0,0,0,-1,1077,1163,0,0
-140,-139,0,0,0,0,0,0,0,0,0,-1,1084,1163,0,0
-133,-139,0,0,0,0,0,0,0,0,0,-1,1091,1163,0,0
-126,-139,0,0,0,0,0,0,0,0,0,-1,1098,1163,0,0
-119,-139,0,0,0,0,0,0,0,0,0,-1,1105,1163,0,0
-112,-139,0,0,0,0,0,0,0,0,0,-1,1112,1163,0,0
-105,-139,0,0,0,0,0,0,0,0,0,-1,1119,1163,0,0
-98,-139,0,0,0,0,0,0,0,0,0,-1,1126,1163,0,0
-91,-139,0,0,0,0,0,0,0,0,0,-1,1133,1163,0,0
-84,-139,0,0,0,0,0,0,0,0,0,-1,1140,1163,0,0
-77,-139,0,0,0,0,0,0,0,0,0,-1,1147,1163,0,0
-70,-139,0,0,0,0,0,0,0,0,0,-1,1154,1163,0,0
-63,-139,0,0,0,0,0,0,0,0,0,-1,1161,1163,0,0
-56,-139,0,0,0,0,0,0,0,0,0,-1,1168,1163,0,0
-49,-139,0,0,0,0,0,0,0,0,0,-1,1175,1163,0,0
-42,-139,0,0,0,0,0,0,0,0,0,-1,1182,1163,0,0
-35,-139,0,0,0,0,0,0,0,0,0,-1,1189,1163,0,0
-28,-139,0,0,0,0,0,0,0,0,0,-1,1196,1163,0,0
-21,-139,0,0,0,0,0,0,0,0,0,-1,1203,1163,0,0
-14,-139,0,0,0,0,0,0,0,0,0,-1,1210,1163,0,0
-7,-139,0,0,0,0,0,0,0,0,0,-1,1217,1163,0,0
0,-139,0,0,0,0,0,0,0,0,0,-1,1224,1163,0,0
7,-139,0,0,0,0,0,0,0,0,0,-1,1231,1163,0,0
14,-139,0,0,0,0,0,0,0,0,0,-1,1238,1163,0,0
21,-139,0,0,0,0,0,0,0,0,0,-1,1245,1163,0,0
28,-139,0,0,0,0,0,0,0,0,0,-1,1252,1163,0,0
35,-139,0,0,0,0,0,0,0,0,0,-1,1259,1163,0,0
42,-139,0,0,0,0,0,0,0,0,0,-1,1266,1163,0,0
49,-139,0,0,0,0,0,0,0,0,0,-1,1273,1163,0,0
56,-139,0,0,0,0,0,0,0,0,0,-1,1280,1163,0,0
63,-139,0,0,0,0,0,0,0,0,0,-1,1287,1163,0,0
70,-139,0,0,0,0,0,0,0,0,0,-1,1294,1163,0,0
77,-139,0,0,0,0,0,0,0,0,0,-1,1301,1163,0,0
84,-139,0,0,0,0,0,0,0,0,0,-1,1308,1163,0,0
91,-139,0,0,0,0,0,0,0,0,0,-1,1315,1163,0,0
98,-139,0,0,0,0,0,0,0,0,0,-1,1322,1163,0,0
105,-139,0,0,0,0,0,0,0,0,0,-1,1329,1163,0,0
112,-139,0,0,0,0,0,0,0,0,0,-1,1336,1163,0,0
119,-139,0,0,0,0,0,0,0,0,0,-1,1343,1163,0,0
126,-139,0,0,0,0,0,0,0,0,0,-1,1350,1163,0,0
133,-139,0,0,0,0,0,0,0,0,0,-1,1357,1163,0,0
140,-139,0,0,0,0,0,0,0,0,0,-1,1364,1163,0,0
147,-139,0,0,0,0,0,0,0,0,0,-1,1371,1163,0,0
154,-139,0,0,0,0,0,0,0,0,0,-1,1378,1163,0,0
161,-139,0,0,0,0,0,0,0,0,0,-1,1385,1163,0,0
168,-139,0,0,0,0,0,0,0,0,0,-1,1392,1163,0,0
175,-139,0,0,0,0,0,0,0,0,0,-1,1399,1163,0,0
182,-139,0,0,0,0,0,0,0,0,0,-1,1406,1163,0,0
189,-139,0,0,0,0,0,0,0,0,0,-1,1413,1163,0,0
196,-139,0,0,0,0,0,0,0,0,0,-1,1420,1163,0,0
203,-139,0,0,0,0,0,0,0,0,0,-1,1427,1163,0,0
210,-139,0,0,0,0,0,0,0,0,0,-1,1434,1163,0,0
217,-139,0,0,0,0,0,0,0,0,0,-1,1441,1163,0,0
224,-139,0,0,0,0,0,0,0,0,0,-1,1448,1163,0,0
231,-139,0,0,0,0,0,0,0,0,0,-1,1455,1163,0,0
238,-139,0,0,0,0,0,0,0,0,0,-1,1462,1163,0,0
245,-139,0,0,0,0,0,0,0,0,0,-1,1469,1163,0,0
252,-139,0,0,0,0,0,0,0,0,0,-1,1476,1163,0,0
259,-139,0,0,0,0,0,0,0,0,0,-1,1483,1163,0,0
266,-139,0,0,0,0,0,0,0,0,0,-1,1490,1163,0,0
273,-139,0,0,0,0,0,0,0,0,0,-1,1497,1163,0,0
280,-139,0,0,0,0,0,0,0,0,0,-1,1504,1163,0,0
287,-139,0,0,0,0,0,0,0,0,0,-1,1511,1163,0,0
294,-139,0,0,0,0,0,0,0,0,0,-1,1518,1163,0,0
301,-139,0,0,0,0,0,0,0,0,0,-1,1525,1163,0,0
308,-139,0,0,0,0,0,0,0,0,0,-1,1532,1163,0,0
315,-139,0,0,0,0,0,0,0,0,0,-1,1539,1163,0,0
322,-139,0,0,0,0,0,0,0,0,0,-1,1546,1163,0,0
329,-139,0,0,0,0,0,0,0,0,0,-1,1553,1163,0,0
336,-139,0,0,0,0,0,0,0,0,0,-1,1560,1163,0,0
343,-139,0,0,0,0,0,0,0,0,0,-1,1567,1163,0,0
350,-139,0,0,0,0,0,0,0,0,0,-1,1574,1163,0,0
357,-139,0,0,0,0,0,0,0,0,0,-1,1581,1163,0,0
364,-139,0,0,0,0,0,0,0,0,0,-1,1588,1163,0,0
371,-139,0,0,0,0,0,0,0,0,0,-1,1595,1163,0,0
378,-139,0,0,0,0,0,0,0,0,0,-1,1602,1163,0,0
385,-139,0,0,0,0,0,0,0,0,0,-1,1609,1163,0,0
392,-139,0,0,0,0,0,0,0,0,0,-1,1616,1163,0,0
399,-139,0,0,0,0,0,0,0,0,0,-1,1623,1163,0,0
406,-139,0,0,0,0,0,0,0,0,0,-1,1630,1163,0,0
413,-139,0,0,0,0,0,0,0,0,0,-1,1637,1163,0,0
420,-139,0,0,0,0,0,0,0,0,0,-1,1644,1163,0,0
427,-139,0,0,0,0,0,0,0,0,0,-1,1651,1163,0,0
434,-139,0,0,0,0,0,0,0,0,0,-1,1658,1163,0,0
441,-139,0,0,0,0,0,0,0,0,0,-1,1665,1163,0,0
448,-139,0,0,0,0,0,0,0,0,0,-1,1672,1163,0,0
455,-139,0,0,0,0,0,0,0,0,0,-1,1679,1163,0,0
462,-139,0,0,0,0,0,0,0,0,0,-1,1686,1163,0,0
469,-139,0,0,0,0,0,0,0,0,0,-1,1693,1163,0,0
476,-139,0,0,0,0,0,0,0,0,0,-1,1700,1163,0,0
483,-139,0,0,0,0,0,0,0,0,0,-1,1707,1163,0,0
490,-139,0,0,0,0,0,0,0,0,0,-1,1714,1163,0,0
497,-139,0,0,0,0,0,0,0,0,0,-1,1721,1163,0,0
504,-139,0,0,0,0,0,0,0,0,0,-1,1728,1163,0,0
511,-139,0,0,0,0,0,0,0,0,0,-1,1735,1163,0,0
518,-139,0,0,0,0,0,0,0,0,0,-1,1742,1163,0,0
525,-139,0,0,0,0,0,0,0,0,0,-1,1749,1163,0,0
532,-139,0,0,0,0,0,0,0,0,0,-1,1756,1163,0,0
539,-139,0,0,0,0,0,0,0,0,0,-1,1763,1163,0,0
546,-139,0,0,0,0,0,0,0,0,0,-1,1770,1163,0,0
553,-139,0,0,0,0,0,0,0,0,0,-1,1777,1163,0,0
560,-139,0,0,0,0,0,0,0,0,0,-1,1784,1163,0,0
567,-139,0,0,0,0,0,0,0,0,0,-1,1791,1163,0,0
574,-139,0,0,0,0,0,0,0,0,0,-1,1798,1163,0,0
581,-139,0,0,0,0,0,0,0,0,0,-1,1805,1163,0,0
588,-139,0,0,0,0,0,0,0,0,0,-1,1812,1163,0,0
595,-139,0,0,0,0,0,0,0,0,0,-1,1819,1163,0,0
602,-139,0,0,0,0,0,0,0,0,0,-1,1826,1163,0,0
609,-139,0,0,0,0,0,0,0,0,0,-1,1833,1163,0,0
616,-139,0,0,0,0,0,0,0,0,0,-1,1840,1163,0,0
623,-139,0,0,0,0,0,0,0,0,0,-1,1847,1163,0,0
630,-139,0,0,0,0,0,0,0,0,0,-1,1854,1163,0,0
637,-139,0,0,0,0,0,0,0,0,0,-1,1861,1163,0,0
644,-139,70.67,2.15271,0.000873939,-0.000922622,0.0058975,0.00594118,-0.00598986,0.709821,0.00688841,0.0415648,1868,1163,70.6701,-2.15274
651,-139,70.491,2.09692,0.00126547,-0.000184243,0.00505523,0.00564754,-0.00456632,0.71419,0.00590798,0.0417292,1875,1163,70.491,-2.09691
658,-139,70.4159,2.42444,0.00151645,0.000525062,0.00386263,0.00491506,-0.00287355,0.721581,0.00454796,0.0427838,1882,1163,70.4159,-2.42448
665,-139,70.3694,2.67908,0.00158538,0.00129428,0.00242943,0.00387361,-0.000993954,0.755479,0.0029697,0.0419561,1889,1163,70.3694,-2.67904
672,-139,70.375,2.66016,0.00153689,0.00214278,0.000778902,0.00267558,0.00100409,0.970867,0.00156068,0.0399819,1896,1163,70.375,-2.66015
679,-139,70.4498,2.53247,0.0015022,0.00217455,-0.000211843,0.00223573,0.00144102,-1.28964,0.00130865,0.0353894,1903,1163,70.4499,-2.53243
686,-139,70.3782,2.53735,0.00182123,0.00218814,-0.000584279,0.00261709,0.00139228,-0.937514,0.00151201,0.037328,1910,1163,70.3782,-2.53738
693,-139,70.4186,2.44568,0.00181422,0.00190585,-0.000441663,0.00230407,0.001416,-0.837081,0.00134184,0.0291963,1917,1163,70.4186,-2.44573
700,-139,70.4835,2.23792,0,0,0,0,0,0,0,-1,1924,1163,70.4835,-2.23786
707,-139,32.116,6.54346,0,0,0,0,0,0,0,-1,1931,1163,32.116,-6.54343
714,-139,62.1425,10.1428,0,0,0,0,0,0,0,-1,1938,1163,62.1424,-10.1428
721,-139,62.1398,9.50867,0,0,0,0,0,0,0,-1,1945,1163,62.1397,-9.50873
728,-139,61.9095,9.11047,0.00160595,0.00107389,2.82947e-05,0.00160745,0.00107239,0.0529804,0.000945188,0.0499445,1952,1163,61.9095,-9.11042
735,-139,61.8038,8.5105,0.00212641,0.000865445,0.000491287,0.00229522,0.000696634,0.330972,0.00135882,0.0363248,1959,1163,61.8038,-8.51045
742,-139,61.8882,7.7157,0.00231606,0.000706702,0.00103543,0.00282272,0.000200038,0.455074,0.0018188,0.0265649,1966,1163,61.8881,-7.71568
749,-139,61.8505,7.09399,0.00285697,0.00156402,0.00123289,0.0036026,0.000818391,0.543926,0.00218074,0.0219114,1973,1163,61.8505,-7.09403
756,-139,61.8149,6.50964,0.00585503,0.00483779,-3.82677e-05,0.00585646,0.00483635,-0.0375486,0.0036126,0.0119145,1980,1163,61.815,-6.50964
763,-139,61.7771,5.89893,0.0112392,0.00973937,-0.00266465,0.0132574,0.00772111,-0.648233,0.00768875,0.0117557,1987,1163,61.777,-5.89889
770,-139,61.7715,5.33691,0.0184494,0.0158796,-0.00636277,0.0236557,0.0106733,-0.685769,0.0136793,0.0133613,1994,1163,61.7714,-5.33685
777,-139,61.7876,4.84143,0.0275321,0.0233407,-0.0112256,0.036856,0.0140168,-0.693116,0.0214811,0.0278805,2001,1163,61.7875,-4.84139
784,-139,61.8452,4.37402,0.0391746,0.0325601,-0.0176718,0.0538459,0.0178888,-0.692893,0.031666,0.0466831,2008,1163,61.8453,-4.374
791,-139,61.9556,3.88611,0,0,0,0,0,0,0,-1,2015,1163,61.9556,-3.88615
798,-139,60.5557,4.75281,0.0726145,0.0588135,-0.0377984,0.104137,0.0272909,-0.695112,0.0623515,0.0485146,2022,1163,60.5557,-4.75282
805,-139,61.5491,3.87268,0.0953729,0.0765354,-0.0526933,0.139483,0.0324257,-0.696959,0.0842852,0.0466394,2029,1163,61.549,-3.87269
812,-139,0,0,0,0,0,0,0,0,0,-1,2036,1163,0,0
-700,-146,0,0,0,0,0,0,0,0,0,-1,524,1170,0,0
-693,-146,-47.6126,-2.1449,0,0,0,0,0,0,0,-1,531,1170,-47.6126,2.14489
-686,-146,-47.7904,-2.60889,0,0,0,0,0,0,0,-1,538,1170,-47.7904,2.60892
-679,-146,-47.204,-1.56567,0.0569567,0.0803852,-0.00405708,0.0810679,0.056274,-1.40409,0.0479664,0.0473873,545,1170,-47.204,1.5657
-672,-146,-46.6508,-0.761963,0.0490786,0.0683178,-0.00395123,0.0690977,0.0482988,-1.37593,0.0409332,0.0433189,552,1170,-46.6508,0.762006
-665,-146,-45.9725,0.0775146,0.0409568,0.0564357,-0.00387443,0.0573513,0.0400412,-1.33873,0.0339677,0.0427783,559,1170,-45.9725,-0.0775558
-658,-146,-45.5392,0.892944,0,0,0,0,0,0,0,-1,566,1170,-45.5392,-0.892912
-651,-146,-45.3514,1.89709,0.0247406,0.0343195,-0.00359699,0.0355198,0.0235403,-1.24872,0.0208663,0.0472727,573,1170,-45.3514,-1.89714
-644,-146,-45.1655,2.88843,0.0171242,0.024436,-0.00333802,0.0257307,0.0158296,-1.20081,0.0149865,0.0281063,580,1170,-45.1656,-2.88842
-637,-146,-45.2671,3.56311,0.0102668,0.0157299,-0.00317692,0.0171881,0.00880855,-1.14048,0.00992459,0.0136362,587,1170,-45.2671,-3.56313
-630,-146,-45.3021,4.20178,0.00399746,0.00844139,-0.00279509,0.00979009,0.00264876,-1.12123,0.00584733,0.011235,594,1170,-45.3021,-4.20177
-623,-146,-45.3463,4.8335,-0.000968014,0.00256434,-0.00238972,0.00376972,-0.0021734,-1.10363,0.00347228,0.013859,601,1170,-45.3462,-4.83346
-616,-146,-45.4433,5.48145,-0.00259378,0.00043871,-0.00201364,0.00144313,-0.00359819,-1.1081,0.00299795,0.0211732,608,1170,-45.4433,-5.48146
-609,-146,-45.5218,6.14136,0,0,0,0,0,0,0,-1,615,1170,-45.5218,-6.14137
-602,-146,-45.3022,6.91602,0,0,0,0,0,0,0,-1,622,1170,-45.3022,-6.91604
-595,-146,-45.502,7.54346,0,0,0,0,0,0,0,-1,629,1170,-45.502,-7.54349
-588,-146,-45.0034,7.81934,0,0,0,0,0,0,0,-1,636,1170,-45.0034,-7.81931
-581,-146,-31.7815,6.30347,0,0,0,0,0,0,0,-1,643,1170,-31.7815,-6.3035
-574,-146,-17.9915,3.79114,0,0,0,0,0,0,0,-1,650,1170,-17.9915,-3.79118
-567,-146,-44.4572,0.6604,0,0,0,0,0,0,0,-1,657,1170,-44.4572,-0.660404
-560,-146,-54.3016,0.593384,0,0,0,0,0,0,0,-1,664,1170,-54.3016,-0.593424
-553,-146,-54.3058,0.661011,0.00650251,0.000564395,-0.00268347,0.00753549,-0.000468586,-0.367459,0.00518692,0.0374328,671,1170,-54.3059,-0.661034
-546,-146,-54.375,0.995728,0.00604689,0.000527423,-0.00245091,0.0069781,-0.000403791,-0.3631,0.00479234,0.0407803,678,1170,-54.375,-0.995776
-539,-146,-54.0122,0.334229,0.00438371,-0.000719273,-0.00203489,0.00509579,-0.00143135,-0.336617,0.00396147,0.0407162,685,1170,-54.0122,-0.33423
-532,-146,-53.7941,0.0839844,0.00212467,-0.00258339,-0.00110323,0.00237036,-0.00282909,-0.219129,0.00300579,0.0411638,692,1170,-53.7941,-0.0839695
-525,-146,-53.8832,0.234131,-0.00128934,-0.00484282,9.62273e-05,-0.00128674,-0.00484542,0.0270533,0.0028982,0.0438741,699,1170,-53.8833,-0.234129
-518,-146,0,0,0,0,0,0,0,0,0,-1,706,1170,0,0
-511,-146,0,0,0,0,0,0,0,0,0,-1,713,1170,0,0
-504,-146,0,0,0,0,0,0,0,0,0,-1,720,1170,0,0
-497,-146,0,0,0,0,0,0,0,0,0,-1,727,1170,0,0
-490,-146,0,0,0,0,0,0,0,0,0,-1,734,1170,0,0
-483,-146,0,0,0,0,0,0,0,0,0,-1,741,1170,0,0
-476,-146,0,0,0,0,0,0,0,0,0,-1,748,1170,0,0
-469,-146,0,0,0,0,0,0,0,0,0,-1,755,1170,0,0
-462,-146,0,0,0,0,0,0,0,0,0,-1,762,1170,0,0
-455,-146,0,0,0,0,0,0,0,0,0,-1,769,1170,0,0
-448,-146,0,0,0,0,0,0,0,0,0,-1,776,1170,0,0
-441,-146,0,0,0,0,0,0,0,0,0,-1,783,1170,0,0
-434,-146,0,0,0,0,0,0,0,0,0,-1,790,1170,0,0
-427,-146,0,0,0,0,0,0,0,0,0,-1,797,1170,0,0
-420,-146,0,0,0,0,0,0,0,0,0,-1,804,1170,0,0
-413,-146,0,0,0,0,0,0,0,0,0,-1,811,1170,0,0
-406,-146,0,0,0,0,0,0,0,0,0,-1,818,1170,0,0
-399,-146,0,0,0,0,0,0,0,0,0,-1,825,1170,0,0
-392,-146,0,0,0,0,0,0,0,0,0,-1,832,1170,0,0
-385,-146,0,0,0,0,0,0,0,0,0,-1,839,1170,0,0
-378,-146,0,0,0,0,0,0,0,0,0,-1,846,1170,0,0
-371,-146,0,0,0,0,0,0,0,0,0,-1,853,1170,0,0
-364,-146,0,0,0,0,0,0,0,0,0,-1,860,1170,0,0
-357,-146,0,0,0,0,0,0,0,0,0,-1,867,1170,0,0
-350,-146,0,0,0,0,0,0,0,0,0,-1,874,1170,0,0
-343,-146,0,0,0,0,0,0,0,0,0,-1,881,1170,0,0
-336,-146,0,0,0,0,0,0,0,0,0,-1,888,1170,0,0
-329,-146,0,0,0,0,0,0,0,0,0,-1,895,1170,0,0
-322,-146,0,0,0,0,0,0,0,0,0,-1,902,1170,0,0
-315,-146,0,0,0,0,0,0,0,0,0,-1,909,1170,0,0
-308,-146,0,0,0,0,0,0,0,0,0,-1,916,1170,0,0
-301,-146,0,0,0,0,0,0,0,0,0,-1,923,1170,0,0
-294,-146,0,0,0,0,0,0,0,0,0,-1,930,1170,0,0
-287,-146,0,0,0,0,0,0,0,0,0,-1,937,1170,0,0
-280,-146,0,0,0,0,0,0,0,0,0,-1,944,1170,0,0
-273,-146,0,0,0,0,0,0,0,0,0,-1,951,1170,0,0
-266,-146,0,0,0,0,0,0,0,0,0,-1,958,1170,0,0
-259,-146,0,0,0,0,0,0,0,0,0,-1,965,1170,0,0
-252,-146,0,0,0,0,0,0,0,0,0,-1,972,1170,0,0
-245,-146,0,0,0,0,0,0,0,0,0,-1,979,1170,0,0
-238,-146,0,0,0,0,0,0,0,0,0,-1,986,1170,0,0
-231,-146,0,0,0,0,0,0,0,0,0,-1,993,1170,0,0
-224,-146,0,0,0,0,0,0,0,0,0,-1,1000,1170,0,0
-217,-146,0,0,0,0,0,0,0,0,0,-1,1007,1170,0,0
-210,-146,0,0,0,0,0,0,0,0,0,-1,1014,1170,0,0
-203,-146,0,0,0,0,0,0,0,0,0,-1,1021,1170,0,0
-196,-146,0,0,0,0,0,0,0,0,0,-1,1028,1170,0,0
-189,-146,0,0,0,0,0,0,0,0,0,-1,1035,1170,0,0
-182,-146,0,0,0,0,0,0,0,0,0,-1,1042,1170,0,0
-175,-146,0,0,0,0,0,0,0,0,0,-1,1049,1170,0,0
-168,-146,0,0,0,0,0,0,0,0,0,-1,1056,1170,0,0
-161,-146,0,0,0,0,0,0,0,0,0,-1,1063,1170,0,0
-154,-146,0,0,0,0,0,0,0,0,0,-1,1070,1170,0,0
-147,-146,0,0,0,0,0,0,0,0,0,-1,1077,1170,0,0
-140,-146,0,0,0,0,0,0,0,0,0,-1,1084,1170,0,0
-133,-146,0,0,0,0,0,0,0,0,0,-1,1091,1170,0,0
-126,-146,0,0,0,0,0,0,0,0,0,-1,1098,1170,0,0
-119,-146,0,0,0,0,0,0,0,0,0,-1,1105,1170,0,0
-112,-146,0,0,0,0,0,0,0,0,0,-1,1112,1170,0,0
-105,-146,0,0,0,0,0,0,0,0,0,-1,1119,1170,0,0
-98,-146,0,0,0,0,0,0,0,0,0,-1,1126,1170,0,0
-91,-146,0,0,0,0,0,0,0,0,0,-1,1133,1170,0,0
-84,-146,0,0,0,0,0,0,0,0,0,-1,1140,1170,0,0
-77,-146,0,0,0,0,0,0,0,0,0,-1,1147,1170,0,0
-70,-146,0,0,0,0,0,0,0,0,0,-1,1154,1170,0,0
-63,-146,0,0,0,0,0,0,0,0,0,-1,1161,1170,0,0
-56,-146,0,0,0,0,0,0,0,0,0,-1,1168,1170,0,0
-49,-146,0,0,0,0,0,0,0,0,0,-1,1175,1170,0,0
-42,-146,0,0,0,0,0,0,0,0,0,-1,1182,1170,0,0
-35,-146,0,0,0,0,0,0,0,0,0,-1,1189,1170,0,0
-28,-146,0,0,0,0,0,0,0,0,0,-1,1196,1170,0,0
-21,-146,0,0,0,0,0,0,0,0,0,-1,1203,1170,0,0
-14,-146,0,0,0,0,0,0,0,0,0,-1,1210,1170,0,0
-7,-146,0,0,0,0,0,0,0,0,0,-1,1217,1170,0,0
0,-146,0,0,0,0,0,0,0,0,0,-1,1224,1170,0,0
7,-146,0,0,0,0,0,0,0,0,0,-1,1231,1170,0,0
14,-146,0,0,0,0,0,0,0,0,0,-1,1238,1170,0,0
21,-146,0,0,0,0,0,0,0,0,0,-1,1245,1170,0,0
28,-146,0,0,0,0,0,0,0,0,0,-1,1252,1170,0,0
35,-146,0,0,0,0,0,0,0,0,0,-1,1259,1170,0,0
42,-146,0,0,0,0,0,0,0,0,0,-1,1266,1170,0,0
49,-146,0,0,0,0,0,0,0,0,0,-1,1273,1170,0,0
56,-146,0,0,0,0,0,0,0,0,0,-1,1280,1170,0,0
63,-146,0,0,0,0,0,0,0,0,0,-1,1287,1170,0,0
70,-146,0,0,0,0,0,0,0,0,0,-1,1294,1170,0,0
77,-146,0,0,0,0,0,0,0,0,0,-1,1301,1170,0,0
84,-146,0,0,0,0,0,0,0,0,0,-1,1308,1170,0,0
91,-146,0,0,0,0,0,0,0,0,0,-1,1315,1170,0,0
98,-146,0,0,0,0,0,0,0,0,0,-1,1322,1170,0,0
105,-146,0,0,0,0,0,0,0,0,0,-1,1329,1170,0,0
112,-146,0,0,0,0,0,0,0,0,0,-1,1336,1170,0,0
119,-146,0,0,0,0,0,0,0,0,0,-1,1343,1170,0,0
126,-146,0,0,0,0,0,0,0,0,0,-1,1350,1170,0,0
133,-146,0,0,0,0,0,0,0,0,0,-1,1357,1170,0,0
140,-146,0,0,0,0,0,0,0,0,0,-1,1364,1170,0,0
147,-146,0,0,0,0,0,0,0,0,0,-1,1371,1170,0,0
154,-146,0,0,0,0,0,0,0,0,0,-1,1378,1170,0,0
161,-146,0,0,0,0,0,0,0,0,0,-1,1385,1170,0,0
168,-146,0,0,0,0,0,0,0,0,0,-1,1392,1170,0,0
175,-146,0,0,0,0,0,0,0,0,0,-1,1399,1170,0,0
182,-146,0,0,0,0,0,0,0,0,0,-1,1406,1170,0,0
189,-146,0,0,0,0,0,0,0,0,0,-1,1413,1170,0,0
196,-146,0,0,0,0,0,0,0,0,0,-1,1420,1170,0,0
203,-146,0,0,0,0,0,0,0,0,0,-1,1427,1170,0,0
210,-146,0,0,0,0,0,0,0,0,0,-1,1434,1170,0,0
217,-146,0,0,0,0,0,0,0,0,0,-1,1441,1170,0,0
224,-146,0,0,0,0,0,0,0,0,0,-1,1448,1170,0,0
231,-146,0,0,0,0,0,0,0,0,0,-1,1455,1170,0,0
238,-146,0,0,0,0,0,0,0,0,0,-1,1462,1170,0,0
245,-146,0,0,0,0,0,0,0,0,0,-1,1469,1170,0,0
252,-146,0,0,0,0,0,0,0,0,0,-1,1476,1170,0,0
259,-146,0,0,0,0,0,0,0,0,0,-1,1483,1170,0,0
266,-146,0,0,0,0,0,0,0,0,0,-1,1490,1170,0,0
273,-146,0,0,0,0,0,0,0,0,0,-1,1497,1170,0,0
280,-146,0,0,0,0,0,0,0,0,0,-1,1504,1170,0,0
287,-146,0,0,0,0,0,0,0,0,0,-1,1511,1170,0,0
294,-146,0,0,0,0,0,0,0,0,0,-1,1518,1170,0,0
301,-146,0,0,0,0,0,0,0,0,0,-1,1525,1170,0,0
308,-146,0,0,0,0,0,0,0,0,0,-1,1532,1170,0,0
315,-146,0,0,0,0,0,0,0,0,0,-1,1539,1170,0,0
322,-146,0,0,0,0,0,0,0,0,0,-1,1546,1170,0,0
329,-146,0,0,0,0,0,0,0,0,0,-1,1553,1170,0,0
336,-146,0,0,0,0,0,0,0,0,0,-1,1560,1170,0,0
343,-146,0,0,0,0,0,0,0,0,0,-1,1567,1170,0,0
350,-146,0,0,0,0,0,0,0,0,0,-1,1574,1170,0,0
357,-146,0,0,0,0,0,0,0,0,0,-1,1581,1170,0,0
364,-146,0,0,0,0,0,0,0,0,0,-1,1588,1170,0,0
371,-146,0,0,0,0,0,0,0,0,0,-1,1595,1170,0,0
378,-146,0,0,0,0,0,0,0,0,0,-1,1602,1170,0,0
385,-146,0,0,0,0,0,0,0,0,0,-1,1609,1170,0,0
392,-146,0,0,0,0,0,0,0,0,0,-1,1616,1170,0,0
399,-146,0,0,0,0,0,0,0,0,0,-1,1623,1170,0,0
406,-146,0,0,0,0,0,0,0,0,0,-1,1630,1170,0,0
413,-146,0,0,0,0,0,0,0,0,0,-1,1637,1170,0,0
420,-146,0,0,0,0,0,0,0,0,0,-1,1644,1170,0,0
427,-146,0,0,0,0,0,0,0,0,0,-1,1651,1170,0,0
434,-146,0,0,0,0,0,0,0,0,0,-1,1658,1170,0,0
441,-146,0,0,0,0,0,0,0,0,0,-1,1665,1170,0,0
448,-146,0,0,0,0,0,0,0,0,0,-1,1672,1170,0,0
455,-146,0,0,0,0,0,0,0,0,0,-1,1679,1170,0,0
462,-146,0,0,0,0,0,0,0,0,0,-1,1686,1170,0,0
469,-146,0,0,0,0,0,0,0,0,0,-1,1693,1170,0,0
476,-146,0,0,0,0,0,0,0,0,0,-1,1700,1170,0,0
483,-146,0,0,0,0,0,0,0,0,0,-1,1707,1170,0,0
490,-146,0,0,0,0,0,0,0,0,0,-1,1714,1170,0,0
497,-146,0,0,0,0,0,0,0,0,0,-1,1721,1170,0,0
504,-146,0,0,0,0,0,0,0,0,0,-1,1728,1170,0,0
511,-146,0,0,0,0,0,0,0,0,0,-1,1735,1170,0,0
518,-146,0,0,0,0,0,0,0,0,0,-1,1742,1170,0,0
525,-146,0,0,0,0,0,0,0,0,0,-1,1749,1170,0,0
532,-146,0,0,0,0,0,0,0,0,0,-1,1756,1170,0,0
539,-146,0,0,0,0,0,0,0,0,0,-1,1763,1170,0,0
546,-146,0,0,0,0,0,0,0,0,0,-1,1770,1170,0,0
553,-146,0,0,0,0,0,0,0,0,0,-1,1777,1170,0,0
560,-146,0,0,0,0,0,0,0,0,0,-1,1784,1170,0,0
567,-146,0,0,0,0,0,0,0,0,0,-1,1791,1170,0,0
574,-146,0,0,0,0,0,0,0,0,0,-1,1798,1170,0,0
581,-146,0,0,0,0,0,0,0,0,0,-1,1805,1170,0,0
588,-146,0,0,0,0,0,0,0,0,0,-1,1812,1170,0,0
595,-146,0,0,0,0,0,0,0,0,0,-1,1819,1170,0,0
602,-146,0,0,0,0,0,0,0,0,0,-1,1826,1170,0,0
609,-146,0,0,0,0,0,0,0,0,0,-1,1833,1170,0,0
616,-146,0,0,0,0,0,0,0,0,0,-1,1840,1170,0,0
623,-146,0,0,0,0,0,0,0,0,0,-1,1847,1170,0,0
630,-146,0,0,0,0,0,0,0,0,0,-1,1854,1170,0,0
637,-146,70.6005,2.21814,-0.000101424,-0.00229206,0.0062194,0.00511837,-0.00751185,0.698235,0.00733558,0.0399497,1861,1170,70.6005,-2.21817
644,-146,70.4659,2.16028,0.000508564,-0.00159683,0.00568415,0.00523667,-0.00632494,0.693836,0.00668495,0.0378362,1868,1170,70.4659,-2.16029
651,-146,70.4688,2.16125,0.000936787,-0.000584989,0.00468889,0.00492612,-0.00457433,0.704962,0.00548634,0.036326,1875,1170,70.4688,-2.16129
658,-146,70.4583,2.30676,0.00125289,0.0004545,0.00336546,0.00424274,-0.00253535,0.726366,0.00395451,0.0379214,1882,1170,70.4583,-2.30676
665,-146,70.4417,2.44446,0.00142224,0.00158702,0.00180255,0.00330906,-0.000299809,0.808236,0.00231247,0.039541,1889,1170,70.4417,-2.44442
672,-146,70.4269,2.47424,0.00151846,0.00276296,4.83258e-05,0.00276484,0.00151659,1.53204,0.00159878,0.0378181,1896,1170,70.4269,-2.47423
679,-146,70.428,2.4657,0.00157695,0.00291535,-0.000945329,0.00340437,0.00108793,-1.0934,0.00200772,0.0307149,1903,1170,70.428,-2.46572
686,-146,70.313,2.33862,0.00195912,0.00290373,-0.00118273,0.00370497,0.00115787,-0.975364,0.00218862,0.0285718,1910,1170,70.313,-2.33864
693,-146,70.4027,2.24451,0.00191225,0.00246826,-0.000836925,0.00307215,0.00130837,-0.945751,0.00178019,0.0247857,1917,1170,70.4028,-2.24455
700,-146,70.4666,1.9823,0,0,0,0,0,0,0,-1,1924,1170,70.4666,-1.98228
707,-146,29.9441,6.94653,0,0,0,0,0,0,0,-1,1931,1170,29.9441,-6.94652
714,-146,31.325,6.13245,0,0,0,0,0,0,0,-1,1938,1170,31.325,-6.1325
721,-146,61.3608,9.47766,0,0,0,0,0,0,0,-1,1945,1170,61.3608,-9.47767
728,-146,61.3063,9.32263,0,0,0,0,0,0,0,-1,1952,1170,61.3063,-9.32264
735,-146,61.1929,8.35999,0.00214899,0.000975312,0.000366063,0.0022538,0.000870499,0.278863,0.00131241,0.0402269,1959,1170,61.1928,-8.35996
742,-146,61.33,7.7146,0.00218512,0.000644915,0.000969573,0.00265321,0.000176822,0.44978,0.00171291,0.0196996,1966,1170,61.3299,-7.71457
749,-146,61.2123,7.16125,0.00272512,0.00145703,0.0012485,0.00349135,0.000690806,0.550446,0.00213488,0.0178969,1973,1170,61.2123,-7.16121
756,-146,61.1897,6.52588,0.00618314,0.00505607,-0.000175339,0.00620978,0.00502942,-0.150824,0.00380788,0.0135658,1980,1170,61.1897,-6.52587
763,-146,61.1265,5.8877,0.0120534,0.0103344,-0.00294888,0.0142655,0.00812232,-0.643592,0.00826256,0.0125056,1987,1170,61.1266,-5.88772
770,-146,61.0933,5.28699,0.0197565,0.0169348,-0.00679718,0.0252877,0.0114036,-0.683071,0.0146233,0.0138717,1994,1170,61.0933,-5.287
777,-146,61.1472,4.8584,0.029365,0.0249881,-0.0118459,0.0392229,0.0151302,-0.694055,0.0228416,0.0251989,2001,1170,61.1473,-4.8584
784,-146,61.261,4.44983,0.0415717,0.034963,-0.0185178,0.0570777,0.0194571,-0.697107,0.0335054,0.0449128,2008,1170,61.2609,-4.44979
791,-146,61.4355,4.00916,0,0,0,0,0,0,0,-1,2015,1170,61.4355,-4.00911
798,-146,61.1067,4.0542,0.075541,0.0628549,-0.038777,0.10849,0.0299056,-0.704328,0.0647046,0.0436799,2022,1170,61.1066,-4.05419
805,-146,61.6804,3.26233,0.0980197,0.0812618,-0.0533935,0.143688,0.0355938,-0.707568,0.0864065,0.0464919,2029,1170,61.6804,-3.26232
812,-146,0,0,0,0,0,0,0,0,0,-1,2036,1170,0,0
-700,-153,0,0,0,0,0,0,0,0,0,-1,524,1177,0,0
-693,-153,0,0,0,0,0,0,0,0,0,-1,531,1177,0,0
-686,-153,-46.6493,-3.3606,0,0,0,0,0,0,0,-1,538,1177,-46.6493,3.36064
-679,-153,-46.1067,-2.40942,0.0632426,0.0788308,-0.012986,0.0861821,0.0558913,-1.05568,0.0504837,0.0483597,545,1177,-46.1067,2.4094
-672,-153,-45.5503,-1.40747,0.0544304,0.0671112,-0.0115963,0.0739873,0.0475543,-1.03557,0.0432929,0.046156,552,1177,-45.5503,1.40753
-665,-153,-46.7444,3.49817,0,0,0,0,0,0,0,-1,559,1177,-46.7445,-3.49818
-658,-153,-44.1541,0.518433,0,0,0,0,0,0,0,-1,566,1177,-44.1541,-0.518428
-651,-153,-44.4648,2.11829,0.0274812,0.0338492,-0.00752576,0.0388368,0.0224936,-0.985522,0.022516,0.0497495,573,1177,-44.4648,-2.11826
-644,-153,-44.4589,2.86047,0.0190607,0.024195,-0.00614496,0.0282875,0.0149682,-0.983259,0.016341,0.0320231,580,1177,-44.4589,-2.86046
-637,-153,-44.5734,3.55688,0.011598,0.0157321,-0.00503485,0.0191077,0.00822236,-0.980182,0.0110675,0.0132927,587,1177,-44.5734,-3.55683
-630,-153,-44.6241,4.20667,0.00477111,0.00866356,-0.00380058,0.0109873,0.00244741,-1.02203,0.00666064,0.0107283,594,1177,-44.6242,-4.20662
-623,-153,-44.6756,4.87476,-0.000684965,0.00280003,-0.00287086,0.00441582,-0.00230076,-1.05816,0.00394139,0.0118585,601,1177,-44.6756,-4.87476
-616,-153,-44.7338,5.49829,-0.00298998,0.000444419,-0.00227972,0.00158132,-0.00412688,-1.10819,0.00340311,0.015764,608,1177,-44.7338,-5.49833
-609,-153,-44.8206,6.05969,-0.00245661,0.000144677,-0.002469,0.00163466,-0.00394659,-1.02782,0.00331321,0.0425922,615,1177,-44.8206,-6.05971
-602,-153,-44.8768,6.38159,0,0,0,0,0,0,0,-1,622,1177,-44.8768,-6.38154
-595,-153,-43.9551,7.35718,0,0,0,0,0,0,0,-1,629,1177,-43.9551,-7.35722
-588,-153,-32.348,5.51038,0,0,0,0,0,0,0,-1,636,1177,-32.348,-5.51034
-581,-153,-33.4568,6.41492,0,0,0,0,0,0,0,-1,643,1177,-33.4568,-6.41497
-574,-153,-25.4814,5.16956,0,0,0,0,0,0,0,-1,650,1177,-25.4814,-5.16961
-567,-153,-35.3121,1.09485,0,0,0,0,0,0,0,-1,657,1177,-35.3121,-1.09482
-560,-153,-54.2702,0.476196,0,0,0,0,0,0,0,-1,664,1177,-54.2702,-0.476242
-553,-153,-54.1556,0.395752,0.00540789,0.000479069,-0.00250912,0.00646044,-0.000573477,-0.397193,0.00451029,0.0381807,671,1177,-54.1556,-0.395707
-546,-153,-54.0493,0.394653,0.00526634,0.000271973,-0.00186891,0.00588825,-0.00034994,-0.321241,0.00404719,0.0416366,678,1177,-54.0493,-0.394649
-539,-153,-53.9684,0.0817871,0.00383291,-0.000978493,-0.000921254,0.00400327,-0.00114886,-0.182859,0.00312305,0.0448591,685,1177,-53.9684,-0.081838
-532,-153,-53.3932,-0.339722,0,0,0,0,0,0,0,-1,692,1177,-53.3932,0.339715
-525,-153,-53.849,0.108887,0,0,0,0,0,0,0,-1,699,1177,-53.849,-0.108848
-518,-153,0,0,0,0,0,0,0,0,0,-1,706,1177,0,0
-511,-153,0,0,0,0,0,0,0,0,0,-1,713,1177,0,0
-504,-153,0,0,0,0,0,0,0,0,0,-1,720,1177,0,0
-497,-153,0,0,0,0,0,0,0,0,0,-1,727,1177,0,0
-490,-153,0,0,0,0,0,0,0,0,0,-1,734,1177,0,0
-483,-153,0,0,0,0,0,0,0,0,0,-1,741,1177,0,0
-476,-153,0,0,0,0,0,0,0,0,0,-1,748,1177,0,0
-469,-153,0,0,0,0,0,0,0,0,0,-1,755,1177,0,0
-462,-153,0,0,0,0,0,0,0,0,0,-1,762,1177,0,0
-455,-153,0,0,0,0,0,0,0,0,0,-1,769,1177,0,0
-448,-153,0,0,0,0,0,0,0,0,0,-1,776,1177,0,0
-441,-153,0,0,0,0,0,0,0,0,0,-1,783,1177,0,0
-434,-153,0,0,0,0,0,0,0,0,0,-1,790,1177,0,0
-427,-153,0,0,0,0,0,0,0,0,0,-1,797,1177,0,0
-420,-153,0,0,0,0,0,0,0,0,0,-1,804,1177,0,0
-413,-153,0,0,0,0,0,0,0,0,0,-1,811,1177,0,0
-406,-153,0,0,0,0,0,0,0,0,0,-1,818,1177,0,0
-399,-153,0,0,0,0,0,0,0,0,0,-1,825,1177,0,0
-392,-153,0,0,0,0,0,0,0,0,0,-1,832,1177,0,0
-385,-153,0,0,0,0,0,0,0,0,0,-1,839,1177,0,0
-378,-153,0,0,0,0,0,0,0,0,0,-1,846,1177,0,0
-371,-153,0,0,0,0,0,0,0,0,0,-1,853,1177,0,0
-364,-153,0,0,0,0,0,0,0,0,0,-1,860,1177,0,0
-357,-153,0,0,0,0,0,0,0,0,0,-1,867,1177,0,0
-350,-153,0,0,0,0,0,0,0,0,0,-1,874,1177,0,0
-343,-153,0,0,0,0,0,0,0,0,0,-1,881,1177,0,0
-336,-153,0,0,0,0,0,0,0,0,0,-1,888,1177,0,0
-329,-153,0,0,0,0,0,0,0,0,0,-1,895,1177,0,0
-322,-153,0,0,0,0,0,0,0,0,0,-1,902,1177,0,0
-315,-153,0,0,0,0,0,0,0,0,0,-1,909,1177,0,0
-308,-153,0,0,0,0,0,0,0,0,0,-1,916,1177,0,0
-301,-153,0,0,0,0,0,0,0,0,0,-1,923,1177,0,0
-294,-153,0,0,0,0,0,0,0,0,0,-1,930,1177,0,0
-287,-153,0,0,0,0,0,0,0,0,0,-1,937,1177,0,0
-280,-153,0,0,0,0,0,0,0,0,0,-1,944,1177,0,0
-273,-153,0,0,0,0,0,0,0,0,0,-1,951,1177,0,0
-266,-153,0,0,0,0,0,0,0,0,0,-1,958,1177,0,0
-259,-153,0,0,0,0,0,0,0,0,0,-1,965,1177,0,0
-252,-153,0,0,0,0,0,0,0,0,0,-1,972,1177,0,0
-245,-153,0,0,0,0,0,0,0,0,0,-1,979,1177,0,0
-238,-153,0,0,0,0,0,0,0,0,0,-1,986,1177,0,0
-231,-153,0,0,0,0,0,0,0,0,0,-1,993,1177,0,0
-224,-153,0,0,0,0,0,0,0,0,0,-1,1000,1177,0,0
-217,-153,0,0,0,0,0,0,0,0,0,-1,1007,1177,0,0
-210,-153,0,0,0,0,0,0,0,0,0,-1,1014,1177,0,0
-203,-153,0,0,0,0,0,0,0,0,0,-1,1021,1177,0,0
-196,-153,0,0,0,0,0,0,0,0,0,-1,1028,1177,0,0
-189,-153,0,0,0,0,0,0,0,0,0,-1,1035,1177,0,0
-182,-153,0,0,0,0,0,0,0,0,0,-1,1042,1177,0,0
-175,-153,0,0,0,0,0,0,0,0,0,-1,1049,1177,0,0
-168,-153,0,0,0,0,0,0,0,0,0,-1,1056,1177,0,0
-161,-153,0,0,0,0,0,0,0,0,0,-1,1063,1177,0,0
-154,-153,0,0,0,0,0,0,0,0,0,-1,1070,1177,0,0
-147,-153,0,0,0,0,0,0,0,0,0,-1,1077,1177,0,0
-140,-153,0,0,0,0,0,0,0,0,0,-1,1084,1177,0,0
-133,-153,0,0,0,0,0,0,0,0,0,-1,1091,1177,0,0
-126,-153,0,0,0,0,0,0,0,0,0,-1,1098,1177,0,0
-119,-153,0,0,0,0,0,0,0,0,0,-1,1105,1177,0,0
-112,-153,0,0,0,0,0,0,0,0,0,-1,1112,1177,0,0
-105,-153,0,0,0,0,0,0,0,0,0,-1,1119,1177,0,0
-98,-153,0,0,0,0,0,0,0,0,0,-1,1126,1177,0,0
-91,-153,0,0,0,0,0,0,0,0,0,-1,1133,1177,0,0
-84,-153,0,0,0,0,0,0,0,0,0,-1,1140,1177,0,0
-77,-153,0,0,0,0,0,0,0,0,0,-1,1147,1177,0,0
-70,-153,0,0,0,0,0,0,0,0,0,-1,1154,1177,0,0
-63,-153,0,0,0,0,0,0,0,0,0,-1,1161,1177,0,0
-56,-153,0,0,0,0,0,0,0,0,0,-1,1168,1177,0,0
-49,-153,0,0,0,0,0,0,0,0,0,-1,1175,1177,0,0
-42,-153,0,0,0,0,0,0,0,0,0,-1,1182,1177,0,0
-35,-153,0,0,0,0,0,0,0,0,0,-1,1189,1177,0,0
-28,-153,0,0,0,0,0,0,0,0,0,-1,1196,1177,0,0
-21,-153,0,0,0,0,0,0,0,0,0,-1,1203,1177,0,0
-14,-153,0,0,0,0,0,0,0,0,0,-1,1210,1177,0,0
-7,-153,0,0,0,0,0,0,0,0,0,-1,1217,1177,0,0
0,-153,0,0,0,0,0,0,0,0,0,-1,1224,1177,0,0
7,-153,0,0,0,0,0,0,0,0,0,-1,1231,1177,0,0
14,-153,0,0,0,0,0,0,0,0,0,-1,1238,1177,0,0
21,-153,0,0,0,0,0,0,0,0,0,-1,1245,1177,0,0
28,-153,0,0,0,0,0,0,0,0,0,-1,1252,1177,0,0
35,-153,0,0,0,0,0,0,0,0,0,-1,1259,1177,0,0
42,-153,0,0,0,0,0,0,0,0,0,-1,1266,1177,0,0
49,-153,0,0,0,0,0,0,0,0,0,-1,1273,1177,0,0
56,-153,0,0,0,0,0,0,0,0,0,-1,1280,1177,0,0
63,-153,0,0,0,0,0,0,0,0,0,-1,1287,1177,0,0
70,-153,0,0,0,0,0,0,0,0,0,-1,1294,1177,0,0
77,-153,0,0,0,0,0,0,0,0,0,-1,1301,1177,0,0
84,-153,0,0,0,0,0,0,0,0,0,-1,1308,1177,0,0
91,-153,0,0,0,0,0,0,0,0,0,-1,1315,1177,0,0
98,-153,0,0,0,0,0,0,0,0,0,-1,1322,1177,0,0
105,-153,0,0,0,0,0,0,0,0,0,-1,1329,1177,0,0
112,-153,0,0,0,0,0,0,0,0,0,-1,1336,1177,0,0
119,-153,0,0,0,0,0,0,0,0,0,-1,1343,1177,0,0
126,-153,0,0,0,0,0,0,0,0,0,-1,1350,1177,0,0
133,-153,0,0,0,0,0,0,0,0,0,-1,1357,1177,0,0
140,-153,0,0,0,0,0,0,0,0,0,-1,1364,1177,0,0
147,-153,0,0,0,0,0,0,0,0,0,-1,1371,1177,0,0
154,-153,0,0,0,0,0,0,0,0,0,-1,1378,1177,0,0
161,-153,0,0,0,0,0,0,0,0,0,-1,1385,1177,0,0
168,-153,0,0,0,0,0,0,0,0,0,-1,1392,1177,0,0
175,-153,0,0,0,0,0,0,0,0,0,-1,1399,1177,0,0
182,-153,0,0,0,0,0,0,0,0,0,-1,1406,1177,0,0
189,-153,0,0,0,0,0,0,0,0,0,-1,1413,1177,0,0
196,-153,0,0,0,0,0,0,0,0,0,-1,1420,1177,0,0
203,-153,0,0,0,0,0,0,0,0,0,-1,1427,1177,0,0
210,-153,0,0,0,0,0,0,0,0,0,-1,1434,1177,0,0
217,-153,0,0,0,0,0,0,0,0,0,-1,1441,1177,0,0
224,-153,0,0,0,0,0,0,0,0,0,-1,1448,1177,0,0
231,-153,0,0,0,0,0,0,0,0,0,-1,1455,1177,0,0
238,-153,0,0,0,0,0,0,0,0,0,-1,1462,1177,0,0
245,-153,0,0,0,0,0,0,0,0,0,-1,1469,1177,0,0
252,-153,0,0,0,0,0,0,0,0,0,-1,1476,1177,0,0
259,-153,0,0,0,0,0,0,0,0,0,-1,1483,1177,0,0
266,-153,0,0,0,0,0,0,0,0,0,-1,1490,1177,0,0
273,-153,0,0,0,0,0,0,0,0,0,-1,1497,1177,0,0
280,-153,0,0,0,0,0,0,0,0,0,-1,1504,1177,0,0
287,-153,0,0,0,0,0,0,0,0,0,-1,1511,1177,0,0
294,-153,0,0,0,0,0,0,0,0,0,-1,1518,1177,0,0
301,-153,0,0,0,0,0,0,0,0,0,-1,1525,1177,0,0
308,-153,0,0,0,0,0,0,0,0,0,-1,1532,1177,0,0
315,-153,0,0,0,0,0,0,0,0,0,-1,1539,1177,0,0
322,-153,0,0,0,0,0,0,0,0,0,-1,1546,1177,0,0
329,-153,0,0,0,0,0,0,0,0,0,-1,1553,1177,0,0
336,-153,0,0,0,0,0,0,0,0,0,-1,1560,1177,0,0
343,-153,0,0,0,0,0,0,0,0,0,-1,1567,1177,0,0
350,-153,0,0,0,0,0,0,0,0,0,-1,1574,1177,0,0
357,-153,0,0,0,0,0,0,0,0,0,-1,1581,1177,0,0
364,-153,0,0,0,0,0,0,0,0,0,-1,1588,1177,0,0
371,-153,0,0,0,0,0,0,0,0,0,-1,1595,1177,0,0
378,-153,0,0,0,0,0,0,0,0,0,-1,1602,1177,0,0
385,-153,0,0,0,0,0,0,0,0,0,-1,1609,1177,0,0
392,-153,0,0,0,0,0,0,0,0,0,-1,1616,1177,0,0
399,-153,0,0,0,0,0,0,0,0,0,-1,1623,1177,0,0
406,-153,0,0,0,0,0,0,0,0,0,-1,1630,1177,0,0
413,-153,0,0,0,0,0,0,0,0,0,-1,1637,1177,0,0
420,-153,0,0,0,0,0,0,0,0,0,-1,1644,1177,0,0
427,-153,0,0,0,0,0,0,0,0,0,-1,1651,1177,0,0
434,-153,0,0,0,0,0,0,0,0,0,-1,1658,1177,0,0
441,-153,0,0,0,0,0,0,0,0,0,-1,1665,1177,0,0
448,-153,0,0,0,0,0,0,0,0,0,-1,1672,1177,0,0
455,-153,0,0,0,0,0,0,0,0,0,-1,1679,1177,0,0
462,-153,0,0,0,0,0,0,0,0,0,-1,1686,1177,0,0
469,-153,0,0,0,0,0,0,0,0,0,-1,1693,1177,0,0
476,-153,0,0,0,0,0,0,0,0,0,-1,1700,1177,0,0
483,-153,0,0,0,0,0,0,0,0,0,-1,1707,1177,0,0
490,-153,0,0,0,0,0,0,0,0,0,-1,1714,1177,0,0
497,-153,0,0,0,0,0,0,0,0,0,-1,1721,1177,0,0
504,-153,0,0,0,0,0,0,0,0,0,-1,1728,1177,0,0
511,-153,0,0,0,0,0,0,0,0,0,-1,1735,1177,0,0
518,-153,0,0,0,0,0,0,0,0,0,-1,1742,1177,0,0
525,-153,0,0,0,0,0,0,0,0,0,-1,1749,1177,0,0
532,-153,0,0,0,0,0,0,0,0,0,-1,1756,1177,0,0
539,-153,0,0,0,0,0,0,0,0,0,-1,1763,1177,0,0
546,-153,0,0,0,0,0,0,0,0,0,-1,1770,1177,0,0
553,-153,0,0,0,0,0,0,0,0,0,-1,1777,1177,0,0
560,-153,0,0,0,0,0,0,0,0,0,-1,1784,1177,0,0
567,-153,0,0,0,0,0,0,0,0,0,-1,1791,1177,0,0
574,-153,0,0,0,0,0,0,0,0,0,-1,1798,1177,0,0
581,-153,0,0,0,0,0,0,0,0,0,-1,1805,1177,0,0
588,-153,0,0,0,0,0,0,0,0,0,-1,1812,1177,0,0
595,-153,0,0,0,0,0,0,0,0,0,-1,1819,1177,0,0
602,-153,0,0,0,0,0,0,0,0,0,-1,1826,1177,0,0
609,-153,0,0,0,0,0,0,0,0,0,-1,1833,1177,0,0
616,-153,0,0,0,0,0,0,0,0,0,-1,1840,1177,0,0
623,-153,0,0,0,0,0,0,0,0,0,-1,1847,1177,0,0
630,-153,0,0,0,0,0,0,0,0,0,-1,1854,1177,0,0
637,-153,70.4304,2.28674,-4.38949e-05,-0.0028069,0.00614763,0.00487555,-0.00772634,0.674874,0.0073375,0.0402608,1861,1177,70.4305,-2.28669
644,-153,70.4465,2.24097,0.000449678,-0.00185123,0.0054211,0.00484106,-0.00624261,0.68084,0.00641619,0.0367041,1868,1177,70.4466,-2.24091
651,-153,70.4597,2.30212,0.000860169,-0.000601467,0.00425381,0.00444548,-0.00418678,0.700327,0.00498458,0.0302887,1875,1177,70.4597,-2.30217
658,-153,70.4799,2.31982,0.0011893,0.000702426,0.0027807,0.0037372,-0.00184547,0.741737,0.00328426,0.0335205,1882,1177,70.4799,-2.31988
665,-153,70.4587,2.33643,0.00137779,0.00204533,0.00116218,0.00292072,0.000502396,0.925232,0.00180317,0.0380601,1889,1177,70.4587,-2.33638
672,-153,70.3591,2.3772,0.00151715,0.00330799,-0.000501939,0.00343907,0.00138606,-1.31534,0.00199796,0.0369257,1896,1177,70.3591,-2.37724
679,-153,70.3414,2.35034,0.00160412,0.00339451,-0.00133382,0.00410569,0.00089294,-1.08095,0.00249336,0.029427,1903,1177,70.3414,-2.35031
686,-153,70.361,2.34521,0.00200743,0.00323286,-0.00135908,0.00411096,0.00112933,-0.997169,0.00245246,0.0222056,1910,1177,70.361,-2.34524
693,-153,70.4215,2.10742,0,0,0,0,0,0,0,-1,1917,1177,70.4215,-2.10737
700,-153,69.9335,2.47583,0,0,0,0,0,0,0,-1,1924,1177,69.9335,-2.47577
707,-153,29.6483,6.6842,0,0,0,0,0,0,0,-1,1931,1177,29.6483,-6.68415
714,-153,36.0046,6.78418,0,0,0,0,0,0,0,-1,1938,1177,36.0046,-6.78418
721,-153,36.4866,6.47595,0,0,0,0,0,0,0,-1,1945,1177,36.4866,-6.47593
728,-153,47.7305,7.37024,0,0,0,0,0,0,0,-1,1952,1177,47.7304,-7.37022
735,-153,60.4301,8.02075,0,0,0,0,0,0,0,-1,1959,1177,60.43,-8.02071
742,-153,60.5883,7.7926,0.00220314,0.000675146,0.000995297,0.00269386,0.000184429,0.45806,0.00173769,0.0173628,1966,1177,60.5882,-7.79257
749,-153,60.5833,7.21265,0.00293766,0.00157157,0.00120292,0.00363793,0.000871293,0.527187,0.00219332,0.0177392,1973,1177,60.5833,-7.21262
756,-153,60.5789,6.55188,0.00677489,0.00545136,-0.000396783,0.00688473,0.00534152,-0.270057,0.00417167,0.0128071,1980,1177,60.5789,-6.55191
763,-153,60.5231,5.92163,0.0128551,0.0109608,-0.00323111,0.015275,0.00854085,-0.642824,0.00883956,0.012335,1987,1177,60.5231,-5.92168
770,-153,60.4983,5.30969,0.0207802,0.0179025,-0.00712914,0.0266142,0.0120684,-0.685822,0.0153879,0.0132945,1994,1177,60.4983,-5.30967
777,-153,60.5029,4.7196,0.0306366,0.0264206,-0.0122397,0.0409485,0.0161087,-0.700123,0.0238201,0.0254337,2001,1177,60.5029,-4.71966
784,-153,60.7268,4.16492,0.0431028,0.0369874,-0.0189756,0.0592655,0.0208247,-0.705516,0.0347171,0.0444516,2008,1177,60.7268,-4.16496
791,-153,60.9963,3.66016,0.0584984,0.0501685,-0.0276977,0.0823426,0.0263243,-0.710771,0.04856,0.0470031,2015,1177,60.9962,-3.66013
798,-153,61.2825,3.38538,0.0770885,0.0662905,-0.0390204,0.111082,0.0322973,-0.716652,0.0659785,0.043996,2022,1177,61.2824,-3.38539
805,-153,61.7749,2.56921,0.098958,0.0853392,-0.0531642,0.145747,0.0385501,-0.721704,0.0872028,0.0463733,2029,1177,61.7748,-2.56923
812,-153,0,0,0,0,0,0,0,0,0,-1,2036,1177,0,0
-700,-160,0,0,0,0,0,0,0,0,0,-1,524,1184,0,0
-693,-160,0,0,0,0,0,0,0,0,0,-1,531,1184,0,0
-686,-160,-47.9166,-0.526123,0,0,0,0,0,0,0,-1,538,1184,-47.9166,0.526113
-679,-160,-47.1685,0.100342,0,0,0,0,0,0,0,-1,545,1184,-47.1685,-0.100358
-672,-160,-46.428,2.55164,0,0,0,0,0,0,0,-1,552,1184,-46.428,-2.55161
-665,-160,-46.0561,2.63574,0,0,0,0,0,0,0,-1,559,1184,-46.0561,-2.63576
-658,-160,-45.6841,2.71985,0,0,0,0,0,0,0,-1,566,1184,-45.6841,-2.71991
-651,-160,-43.7544,2.46875,0,0,0,0,0,0,0,-1,573,1184,-43.7544,-2.4688
-644,-160,-43.7808,3.0177,0.0209993,0.0235853,-0.00876148,0.0311487,0.0134359,-0.858658,0.0180401,0.0409134,580,1184,-43.7807,-3.01774
-637,-160,-43.8708,3.56323,0.0130067,0.0155394,-0.00679955,0.0211895,0.00735659,-0.877462,0.0124228,0.0165294,587,1184,-43.8708,-3.56328
-630,-160,-43.9572,4.19458,0.00569781,0.00882872,-0.0048135,0.0123249,0.0022016,-0.942614,0.00758995,0.00956753,594,1184,-43.9572,-4.19458
-623,-160,-44.0055,4.86157,-0.000266676,0.00308135,-0.0034072,0.00520356,-0.00238889,-1.01374,0.00448278,0.0141137,601,1184,-44.0055,-4.86154
-616,-160,-44.056,5.52612,-0.00338156,0.000454063,-0.00256669,0.00174029,-0.00466779,-1.10625,0.00382624,0.0128961,608,1184,-44.056,-5.52609
-609,-160,-44.1995,6.16565,-0.00336249,-6.13736e-05,-0.00263588,0.00139809,-0.00482195,-1.06512,0.00376813,0.0244152,615,1184,-44.1995,-6.16563
-602,-160,-44.3832,6.82056,0,0,0,0,0,0,0,-1,622,1184,-44.3833,-6.82051
-595,-160,-33.0669,5.93445,0,0,0,0,0,0,0,-1,629,1184,-33.0669,-5.93446
-588,-160,-33.4845,5.66699,0,0,0,0,0,0,0,-1,636,1184,-33.4845,-5.66697
-581,-160,-33.1338,6.41174,0,0,0,0,0,0,0,-1,643,1184,-33.1338,-6.41176
-574,-160,-32.7831,7.15649,0,0,0,0,0,0,0,-1,650,1184,-32.7831,-7.15655
-567,-160,-29.5828,0.643921,0,0,0,0,0,0,0,-1,657,1184,-29.5828,-0.643968
-560,-160,-54.1033,0.15564,0,0,0,0,0,0,0,-1,664,1184,-54.1034,-0.155697
-553,-160,-54.1204,0.213745,0.00392976,-1.13155e-05,-0.00214668,0.00487319,-0.000954752,-0.414077,0.00360939,0.0461268,671,1184,-54.1204,-0.213748
-546,-160,-54.1539,0.278442,0.00395199,-0.000408622,-0.00129811,0.00430917,-0.000765798,-0.268507,0.00315914,0.0425081,678,1184,-54.1539,-0.278384
-539,-160,-53.7325,-0.311279,0,0,0,0,0,0,0,-1,685,1184,-53.7325,0.31132
-532,-160,-53.7955,0.0285645,0.000387789,-0.00341828,0.00185917,0.00114522,-0.00417571,0.38687,0.00323386,0.0463716,692,1184,-53.7955,-0.0285343
-525,-160,-53.8199,0.279663,-0.00339829,-0.00571656,0.00396981,-0.000421843,-0.008693,0.643353,0.00565996,0.0444232,699,1184,-53.82,-0.279611
-518,-160,-53.9947,0.494263,-0.00781523,-0.00820295,0.00655016,-0.00145607,-0.0145621,0.770604,0.00926095,0.0422065,706,1184,-53.9947,-0.49431
-511,-160,0,0,0,0,0,0,0,0,0,-1,713,1184,0,0
-504,-160,0,0,0,0,0,0,0,0,0,-1,720,1184,0,0
-497,-160,0,0,0,0,0,0,0,0,0,-1,727,1184,0,0
-490,-160,0,0,0,0,0,0,0,0,0,-1,734,1184,0,0
-483,-160,0,0,0,0,0,0,0,0,0,-1,741,1184,0,0
-476,-160,0,0,0,0,0,0,0,0,0,-1,748,1184,0,0
-469,-160,0,0,0,0,0,0,0,0,0,-1,755,1184,0,0
-462,-160,0,0,0,0,0,0,0,0,0,-1,762,1184,0,0
-455,-160,0,0,0,0,0,0,0,0,0,-1,769,1184,0,0
-448,-160,0,0,0,0,0,0,0,0,0,-1,776,1184,0,0
-441,-160,0,0,0,0,0,0,0,0,0,-1,783,1184,0,0
-434,-160,0,0,0,0,0,0,0,0,0,-1,790,1184,0,0
-427,-160,0,0,0,0,0,0,0,0,0,-1,797,1184,0,0
-420,-160,0,0,0,0,0,0,0,0,0,-1,804,1184,0,0
-413,-160,0,0,0,0,0,0,0,0,0,-1,811,1184,0,0
-406,-160,0,0,0,0,0,0,0,0,0,-1,818,1184,0,0
-399,-160,0,0,0,0,0,0,0,0,0,-1,825,1184,0,0
-392,-160,0,0,0,0,0,0,0,0,0,-1,832,1184,0,0
-385,-160,0,0,0,0,0,0,0,0,0,-1,839,1184,0,0
-378,-160,0,0,0,0,0,0,0,0,0,-1,846,1184,0,0
-371,-160,0,0,0,0,0,0,0,0,0,-1,853,1184,0,0
-364,-160,0,0,0,0,0,0,0,0,0,-1,860,1184,0,0
-357,-160,0,0,0,0,0,0,0,0,0,-1,867,1184,0,0
-350,-160,0,0,0,0,0,0,0,0,0,-1,874,1184,0,0
-343,-160,0,0,0,0,0,0,0,0,0,-1,881,1184,0,0
-336,-160,0,0,0,0,0,0,0,0,0,-1,888,1184,0,0
-329,-160,0,0,0,0,0,0,0,0,0,-1,895,1184,0,0
-322,-160,0,0,0,0,0,0,0,0,0,-1,902,1184,0,0
-315,-160,0,0,0,0,0,0,0,0,0,-1,909,1184,0,0
-308,-160,0,0,0,0,0,0,0,0,0,-1,916,1184,0,0
-301,-160,0,0,0,0,0,0,0,0,0,-1,923,1184,0,0
-294,-160,0,0,0,0,0,0,0,0,0,-1,930,1184,0,0
-287,-160,0,0,0,0,0,0,0,0,0,-1,937,1184,0,0
-280,-160,0,0,0,0,0,0,0,0,0,-1,944,1184,0,0
-273,-160,0,0,0,0,0,0,0,0,0,-1,951,1184,0,0
-266,-160,0,0,0,0,0,0,0,0,0,-1,958,1184,0,0
-259,-160,0,0,0,0,0,0,0,0,0,-1,965,1184,0,0
-252,-160,0,0,0,0,0,0,0,0,0,-1,972,1184,0,0
-245,-160,0,0,0,0,0,0,0,0,0,-1,979,1184,0,0
-238,-160,0,0,0,0,0,0,0,0,0,-1,986,1184,0,0
-231,-160,0,0,0,0,0,0,0,0,0,-1,993,1184,0,0
-224,-160,0,0,0,0,0,0,0,0,0,-1,1000,1184,0,0
-217,-160,0,0,0,0,0,0,0,0,0,-1,1007,1184,0,0
-210,-160,0,0,0,0,0,0,0,0,0,-1,1014,1184,0,0
-203,-160,0,0,0,0,0,0,0,0,0,-1,1021,1184,0,0
-196,-160,0,0,0,0,0,0,0,0,0,-1,1028,1184,0,0
-189,-160,0,0,0,0,0,0,0,0,0,-1,1035,1184,0,0
-182,-160,0,0,0,0,0,0,0,0,0,-1,1042,1184,0,0
-175,-160,0,0,0,0,0,0,0,0,0,-1,1049,1184,0,0
-168,-160,0,0,0,0,0,0,0,0,0,-1,1056,1184,0,0
-161,-160,0,0,0,0,0,0,0,0,0,-1,1063,1184,0,0
-154,-160,0,0,0,0,0,0,0,0,0,-1,1070,1184,0,0
-147,-160,0,0,0,0,0,0,0,0,0,-1,1077,1184,0,0
-140,-160,0,0,0,0,0,0,0,0,0,-1,1084,1184,0,0
-133,-160,0,0,0,0,0,0,0,0,0,-1,1091,1184,0,0
-126,-160,0,0,0,0,0,0,0,0,0,-1,1098,1184,0,0
-119,-160,0,0,0,0,0,0,0,0,0,-1,1105,1184,0,0
-112,-160,0,0,0,0,0,0,0,0,0,-1,1112,1184,0,0
-105,-160,0,0,0,0,0,0,0,0,0,-1,1119,1184,0,0
-98,-160,0,0,0,0,0,0,0,0,0,-1,1126,1184,0,0
-91,-160,0,0,0,0,0,0,0,0,0,-1,1133,1184,0,0
-84,-160,0,0,0,0,0,0,0,0,0,-1,1140,1184,0,0
-77,-160,0,0,0,0,0,0,0,0,0,-1,1147,1184,0,0
-70,-160,0,0,0,0,0,0,0,0,0,-1,1154,1184,0,0
-63,-160,0,0,0,0,0,0,0,0,0,-1,1161,1184,0,0
-56,-160,0,0,0,0,0,0,0,0,0,-1,1168,1184,0,0
-49,-160,0,0,0,0,0,0,0,0,0,-1,1175,1184,0,0
-42,-160,0,0,0,0,0,0,0,0,0,-1,1182,1184,0,0
-35,-160,0,0,0,0,0,0,0,0,0,-1,1189,1184,0,0
-28,-160,0,0,0,0,0,0,0,0,0,-1,1196,1184,0,0
-21,-160,0,0,0,0,0,0,0,0,0,-1,1203,1184,0,0
-14,-160,0,0,0,0,0,0,0,0,0,-1,1210,1184,0,0
-7,-160,0,0,0,0,0,0,0,0,0,-1,1217,1184,0,0
0,-160,0,0,0,0,0,0,0,0,0,-1,1224,1184,0,0
7,-160,0,0,0,0,0,0,0,0,0,-1,1231,1184,0,0
14,-160,0,0,0,0,0,0,0,0,0,-1,1238,1184,0,0
21,-160,0,0,0,0,0,0,0,0,0,-1,1245,1184,0,0
28,-160,0,0,0,0,0,0,0,0,0,-1,1252,1184,0,0
35,-160,0,0,0,0,0,0,0,0,0,-1,1259,1184,0,0
42,-160,0,0,0,0,0,0,0,0,0,-1,1266,1184,0,0
49,-160,0,0,0,0,0,0,0,0,0,-1,1273,1184,0,0
56,-160,0,0,0,0,0,0,0,0,0,-1,1280,1184,0,0
63,-160,0,0,0,0,0,0,0,0,0,-1,1287,1184,0,0
70,-160,0,0,0,0,0,0,0,0,0,-1,1294,1184,0,0
77,-160,0,0,0,0,0,0,0,0,0,-1,1301,1184,0,0
84,-160,0,0,0,0,0,0,0,0,0,-1,1308,1184,0,0
91,-160,0,0,0,0,0,0,0,0,0,-1,1315,1184,0,0
98,-160,0,0,0,0,0,0,0,0,0,-1,1322,1184,0,0
105,-160,0,0,0,0,0,0,0,0,0,-1,1329,1184,0,0
112,-160,0,0,0,0,0,0,0,0,0,-1,1336,1184,0,0
119,-160,0,0,0,0,0,0,0,0,0,-1,1343,1184,0,0
126,-160,0,0,0,0,0,0,0,0,0,-1,1350,1184,0,0
133,-160,0,0,0,0,0,0,0,0,0,-1,1357,1184,0,0
140,-160,0,0,0,0,0,0,0,0,0,-1,1364,1184,0,0
147,-160,0,0,0,0,0,0,0,0,0,-1,1371,1184,0,0
154,-160,0,0,0,0,0,0,0,0,0,-1,1378,1184,0,0
161,-160,0,0,0,0,0,0,0,0,0,-1,1385,1184,0,0
168,-160,0,0,0,0,0,0,0,0,0,-1,1392,1184,0,0
175,-160,0,0,0,0,0,0,0,0,0,-1,1399,1184,0,0
182,-160,0,0,0,0,0,0,0,0,0,-1,1406,1184,0,0
189,-160,0,0,0,0,0,0,0,0,0,-1,1413,1184,0,0
196,-160,0,0,0,0,0,0,0,0,0,-1,1420,1184,0,0
203,-160,0,0,0,0,0,0,0,0,0,-1,1427,1184,0,0
210,-160,0,0,0,0,0,0,0,0,0,-1,1434,1184,0,0
217,-160,0,0,0,0,0,0,0,0,0,-1,1441,1184,0,0
224,-160,0,0,0,0,0,0,0,0,0,-1,1448,1184,0,0
231,-160,0,0,0,0,0,0,0,0,0,-1,1455,1184,0,0
238,-160,0,0,0,0,0,0,0,0,0,-1,1462,1184,0,0
245,-160,0,0,0,0,0,0,0,0,0,-1,1469,1184,0,0
252,-160,0,0,0,0,0,0,0,0,0,-1,1476,1184,0,0
259,-160,0,0,0,0,0,0,0,0,0,-1,1483,1184,0,0
266,-160,0,0,0,0,0,0,0,0,0,-1,1490,1184,0,0
273,-160,0,0,0,0,0,0,0,0,0,-1,1497,1184,0,0
280,-160,0,0,0,0,0,0,0,0,0,-1,1504,1184,0,0
287,-160,0,0,0,0,0,0,0,0,0,-1,1511,1184,0,0
294,-160,0,0,0,0,0,0,0,0,0,-1,1518,1184,0,0
301,-160,0,0,0,0,0,0,0,0,0,-1,1525,1184,0,0
308,-160,0,0,0,0,0,0,0,0,0,-1,1532,1184,0,0
315,-160,0,0,0,0,0,0,0,0,0,-1,1539,1184,0,0
322,-160,0,0,0,0,0,0,0,0,0,-1,1546,1184,0,0
329,-160,0,0,0,0,0,0,0,0,0,-1,1553,1184,0,0
336,-160,0,0,0,0,0,0,0,0,0,-1,1560,1184,0,0
343,-160,0,0,0,0,0,0,0,0,0,-1,1567,1184,0,0
350,-160,0,0,0,0,0,0,0,0,0,-1,1574,1184,0,0
357,-160,0,0,0,0,0,0,0,0,0,-1,1581,1184,0,0
364,-160,0,0,0,0,0,0,0,0,0,-1,1588,1184,0,0
371,-160,0,0,0,0,0,0,0,0,0,-1,1595,1184,0,0
378,-160,0,0,0,0,0,0,0,0,0,-1,1602,1184,0,0
385,-160,0,0,0,0,0,0,0,0,0,-1,1609,1184,0,0
392,-160,0,0,0,0,0,0,0,0,0,-1,1616,1184,0,0
399,-160,0,0,0,0,0,0,0,0,0,-1,1623,1184,0,0
406,-160,0,0,0,0,0,0,0,0,0,-1,1630,1184,0,0
413,-160,0,0,0,0,0,0,0,0,0,-1,1637,1184,0,0
420,-160,0,0,0,0,0,0,0,0,0,-1,1644,1184,0,0
427,-160,0,0,0,0,0,0,0,0,0,-1,1651,1184,0,0
434,-160,0,0,0,0,0,0,0,0,0,-1,1658,1184,0,0
441,-160,0,0,0,0,0,0,0,0,0,-1,1665,1184,0,0
448,-160,0,0,0,0,0,0,0,0,0,-1,1672,1184,0,0
455,-160,0,0,0,0,0,0,0,0,0,-1,1679,1184,0,0
462,-160,0,0,0,0,0,0,0,0,0,-1,1686,1184,0,0
469,-160,0,0,0,0,0,0,0,0,0,-1,1693,1184,0,0
476,-160,0,0,0,0,0,0,0,0,0,-1,1700,1184,0,0
483,-160,0,0,0,0,0,0,0,0,0,-1,1707,1184,0,0
490,-160,0,0,0,0,0,0,0,0,0,-1,1714,1184,0,0
497,-160,0,0,0,0,0,0,0,0,0,-1,1721,1184,0,0
504,-160,0,0,0,0,0,0,0,0,0,-1,1728,1184,0,0
511,-160,0,0,0,0,0,0,0,0,0,-1,1735,1184,0,0
518,-160,0,0,0,0,0,0,0,0,0,-1,1742,1184,0,0
525,-160,0,0,0,0,0,0,0,0,0,-1,1749,1184,0,0
532,-160,0,0,0,0,0,0,0,0,0,-1,1756,1184,0,0
539,-160,0,0,0,0,0,0,0,0,0,-1,1763,1184,0,0
546,-160,0,0,0,0,0,0,0,0,0,-1,1770,1184,0,0
553,-160,0,0,0,0,0,0,0,0,0,-1,1777,1184,0,0
560,-160,0,0,0,0,0,0,0,0,0,-1,1784,1184,0,0
567,-160,0,0,0,0,0,0,0,0,0,-1,1791,1184,0,0
574,-160,0,0,0,0,0,0,0,0,0,-1,1798,1184,0,0
581,-160,0,0,0,0,0,0,0,0,0,-1,1805,1184,0,0
588,-160,0,0,0,0,0,0,0,0,0,-1,1812,1184,0,0
595,-160,0,0,0,0,0,0,0,0,0,-1,1819,1184,0,0
602,-160,0,0,0,0,0,0,0,0,0,-1,1826,1184,0,0
609,-160,0,0,0,0,0,0,0,0,0,-1,1833,1184,0,0
616,-160,0,0,0,0,0,0,0,0,0,-1,1840,1184,0,0
623,-160,0,0,0,0,0,0,0,0,0,-1,1847,1184,0,0
630,-160,0,0,0,0,0,0,0,0,0,-1,1854,1184,0,0
637,-160,70.4261,2.26868,-5.93194e-05,-0.00294357,0.00566972,0.00434881,-0.0073517,0.660861,0.00682905,0.0434325,1861,1184,70.4262,-2.26872
644,-160,70.48,2.20313,0.000410243,-0.00177083,0.00477227,0.00421499,-0.00557558,0.673069,0.00567075,0.0421646,1868,1184,70.4799,-2.20316
651,-160,70.3751,2.34619,0.00085767,-0.000340537,0.00346862,0.00377854,-0.00326141,0.699881,0.00406817,0.0383495,1875,1184,70.3751,-2.34619
658,-160,70.4017,2.37793,0.00123489,0.00113706,0.00191496,0.00310156,-0.000729617,0.772629,0.00234899,0.037125,1882,1184,70.4017,-2.3779
665,-160,70.426,2.34778,0.00147847,0.00255031,0.000363717,0.00266208,0.0013667,1.27266,0.00153714,0.0379523,1889,1184,70.426,-2.34773
672,-160,70.3717,2.36169,0.00170005,0.00373263,-0.00103719,0.00416845,0.00126423,-1.17301,0.00246796,0.033787,1896,1184,70.3716,-2.36174
679,-160,70.3561,2.34363,0.00177696,0.00371724,-0.0015954,0.00461431,0.000879886,-1.05857,0.0028289,0.0276161,1903,1184,70.3561,-2.34366
686,-160,70.3936,2.35828,0.00213318,0.00346877,-0.00147708,0.00442199,0.00117995,-0.9977,0.00264395,0.0206345,1910,1184,70.3935,-2.35824
693,-160,70.4613,2.33618,0,0,0,0,0,0,0,-1,1917,1184,70.4613,-2.33616
700,-160,42.8784,2.44617,0,0,0,0,0,0,0,-1,1924,1184,42.8785,-2.4462
707,-160,24.5115,6.27405,0,0,0,0,0,0,0,-1,1931,1184,24.5115,-6.27401
714,-160,35.6892,6.8905,0,0,0,0,0,0,0,-1,1938,1184,35.6892,-6.89048
721,-160,36.2388,6.37878,0,0,0,0,0,0,0,-1,1945,1184,36.2388,-6.37876
728,-160,52.2174,8.57385,0,0,0,0,0,0,0,-1,1952,1184,52.2174,-8.57381
735,-160,59.8783,8.38977,0,0,0,0,0,0,0,-1,1959,1184,59.8783,-8.38974
742,-160,59.9302,7.76379,0.00223311,0.000793863,0.00091231,0.00267545,0.000351519,0.451463,0.00167877,0.0192716,1966,1184,59.9302,-7.7638
749,-160,59.9189,7.16797,0.00324174,0.0018843,0.000998391,0.00377027,0.00135577,0.486874,0.00220519,0.0190171,1973,1184,59.9189,-7.16797
756,-160,59.9183,6.5647,0.00732479,0.00596198,-0.000690646,0.00761359,0.00567317,-0.396067,0.00456842,0.0127393,1980,1184,59.9183,-6.56467
763,-160,59.8679,5.96045,0.0133828,0.0115677,-0.00344682,0.0160396,0.00891095,-0.656666,0.00927948,0.0131974,1987,1184,59.8679,-5.96041
770,-160,59.7632,5.30212,0.0213473,0.0187498,-0.00728935,0.0274527,0.0126444,-0.697239,0.0158662,0.0289344,1994,1184,59.7632,-5.30211
777,-160,59.8733,4.60864,0.031286,0.0276362,-0.0123766,0.0419715,0.0169507,-0.712201,0.0243811,0.0372844,2001,1184,59.8733,-4.6087
784,-160,60.3181,3.80212,0.0438218,0.0386845,-0.0191047,0.0605298,0.0219765,-0.718573,0.035381,0.0434655,2008,1184,60.318,-3.80212
791,-160,60.6375,3.26282,0.0593133,0.0525134,-0.0277975,0.083918,0.0279086,-0.724545,0.0493473,0.046331,2015,1184,60.6374,-3.2628
798,-160,61.1433,2.73145,0.0779673,0.0693934,-0.0390214,0.112937,0.0344241,-0.730687,0.0668396,0.0465702,2022,1184,61.1432,-2.73141
805,-160,61.7466,2.31738,0.0994611,0.0891402,-0.0527907,0.147343,0.0412584,-0.736676,0.0877701,0.0460015,2029,1184,61.7467,-2.31734
812,-160,0,0,0,0,0,0,0,0,0,-1,2036,1184,0,0
-700,-167,0,0,0,0,0,0,0,0,0,-1,524,1191,0,0
-693,-167,0,0,0,0,0,0,0,0,0,-1,531,1191,0,0
-686,-167,-46.8448,-0.697998,0.0829754,0.0803695,-0.0333013,0.114999,0.0483457,-0.765845,0.0666747,0.0479317,538,1191,-46.8448,0.698035
-679,-167,-46.1314,-0.0692139,0.0738745,0.071015,-0.0293823,0.101862,0.0430278,-0.761087,0.0590455,0.0441492,545,1191,-46.1314,0.0691882
-672,-167,-45.7036,0.988647,0,0,0,0,0,0,0,-1,552,1191,-45.7037,-0.98863
-665,-167,-45.6673,1.57568,0,0,0,0,0,0,0,-1,559,1191,-45.6673,-1.57571
-658,-167,-45.736,2.10474,0,0,0,0,0,0,0,-1,566,1191,-45.736,-2.10477
-651,-167,-42.9507,2.35132,0,0,0,0,0,0,0,-1,573,1191,-42.9507,-2.35126
-644,-167,-43.0129,2.96631,0.022586,0.0226771,-0.01105,0.0336817,0.0115814,-0.787459,0.0197597,0.045452,580,1191,-43.0129,-2.96628
-637,-167,-43.1539,3.5769,0.0142679,0.015213,-0.00826501,0.0230189,0.0064619,-0.813954,0.0137094,0.020722,587,1191,-43.1539,-3.57684
-630,-167,-43.2777,4.19324,0.00672603,0.00897548,-0.00562931,0.0135913,0.00211019,-0.883999,0.00844582,0.00976635,594,1191,-43.2777,-4.19318
-623,-167,-43.3135,4.82971,0.000445412,0.00345477,-0.0037729,0.00601197,-0.00211179,-0.975139,0.0048671,0.0136301,601,1191,-43.3134,-4.82974
-616,-167,-43.3551,5.52136,-0.00341436,0.000502685,-0.00268394,0.00186672,-0.00477839,-1.1006,0.00395741,0.0173399,608,1191,-43.3551,-5.52136
-609,-167,-43.418,6.24585,-0.00411002,-0.000461831,-0.00256539,0.000861854,-0.00543371,-1.09445,0.00394129,0.0168645,615,1191,-43.418,-6.24588
-602,-167,-43.5933,6.84216,-0.00319695,0.000476306,-0.00270259,0.00190728,-0.00462792,-1.08384,0.00388056,0.0266686,622,1191,-43.5933,-6.84214
-595,-167,-43.4412,7.30859,0,0,0,0,0,0,0,-1,629,1191,-43.4412,-7.30855
-588,-167,-42.7112,7.92004,0,0,0,0,0,0,0,-1,636,1191,-42.7112,-7.92007
-581,-167,-32.8646,6.30542,0,0,0,0,0,0,0,-1,643,1191,-32.8646,-6.30537
-574,-167,-32.4808,7.37524,0,0,0,0,0,0,0,-1,650,1191,-32.4808,-7.37525
-567,-167,-27.3643,2.55859,0,0,0,0,0,0,0,-1,657,1191,-27.3643,-2.55864
-560,-167,-48.2598,0.834839,0,0,0,0,0,0,0,-1,664,1191,-48.2598,-0.834822
-553,-167,-54.1682,0.404175,0,0,0,0,0,0,0,-1,671,1191,-54.1682,-0.404154
-546,-167,-54.2041,0.451172,0.00252972,-0.00151684,-0.00079734,0.00268116,-0.00166828,-0.187698,0.00253375,0.0359349,678,1191,-54.2041,-0.451172
-539,-167,-54.1101,0.343384,0.00150052,-0.00279575,0.00051912,0.00156236,-0.00285759,0.118557,0.00258812,0.0390306,685,1191,-54.1101,-0.34343
-532,-167,-53.9147,0.235596,-0.000364279,-0.00420772,0.00243269,0.000814157,-0.00538616,0.451104,0.00389066,0.0429347,692,1191,-53.9147,-0.235646
-525,-167,-53.8625,0.479248,-0.0037228,-0.00629452,0.0046753,-0.000159755,-0.00985757,0.6512,0.00651911,0.0440306,699,1191,-53.8625,-0.479251
-518,-167,-54.0122,0.696899,-0.0075803,-0.00858722,0.00716579,-0.000900308,-0.0152672,0.750326,0.00989171,0.0441897,706,1191,-54.0122,-0.696911
-511,-167,0,0,0,0,0,0,0,0,0,-1,713,1191,0,0
-504,-167,0,0,0,0,0,0,0,0,0,-1,720,1191,0,0
-497,-167,0,0,0,0,0,0,0,0,0,-1,727,1191,0,0
-490,-167,0,0,0,0,0,0,0,0,0,-1,734,1191,0,0
-483,-167,0,0,0,0,0,0,0,0,0,-1,741,1191,0,0
-476,-167,0,0,0,0,0,0,0,0,0,-1,748,1191,0,0
-469,-167,0,0,0,0,0,0,0,0,0,-1,755,1191,0,0
-462,-167,0,0,0,0,0,0,0,0,0,-1,762,1191,0,0
-455,-167,0,0,0,0,0,0,0,0,0,-1,769,1191,0,0
-448,-167,0,0,0,0,0,0,0,0,0,-1,776,1191,0,0
-441,-167,0,0,0,0,0,0,0,0,0,-1,783,1191,0,0
-434,-167,0,0,0,0,0,0,0,0,0,-1,790,1191,0,0
-427,-167,0,0,0,0,0,0,0,0,0,-1,797,1191,0,0
-420,-167,0,0,0,0,0,0,0,0,0,-1,804,1191,0,0
-413,-167,0,0,0,0,0,0,0,0,0,-1,811,1191,0,0
-406,-167,0,0,0,0,0,0,0,0,0,-1,818,1191,0,0
-399,-167,0,0,0,0,0,0,0,0,0,-1,825,1191,0,0
-392,-167,0,0,0,0,0,0,0,0,0,-1,832,1191,0,0
-385,-167,0,0,0,0,0,0,0,0,0,-1,839,1191,0,0
-378,-167,0,0,0,0,0,0,0,0,0,-1,846,1191,0,0
-371,-167,0,0,0,0,0,0,0,0,0,-1,853,1191,0,0
-364,-167,0,0,0,0,0,0,0,0,0,-1,860,1191,0,0
-357,-167,0,0,0,0,0,0,0,0,0,-1,867,1191,0,0
-350,-167,0,0,0,0,0,0,0,0,0,-1,874,1191,0,0
-343,-167,0,0,0,0,0,0,0,0,0,-1,881,1191,0,0
-336,-167,0,0,0,0,0,0,0,0,0,-1,888,1191,0,0
-329,-167,0,0,0,0,0,0,0,0,0,-1,895,1191,0,0
-322,-167,0,0,0,0,0,0,0,0,0,-1,902,1191,0,0
-315,-167,0,0,0,0,0,0,0,0,0,-1,909,1191,0,0
-308,-167,0,0,0,0,0,0,0,0,0,-1,916,1191,0,0
-301,-167,0,0,0,0,0,0,0,0,0,-1,923,1191,0,0
-294,-167,0,0,0,0,0,0,0,0,0,-1,930,1191,0,0
-287,-167,0,0,0,0,0,0,0,0,0,-1,937,1191,0,0
-280,-167,0,0,0,0,0,0,0,0,0,-1,944,1191,0,0
-273,-167,0,0,0,0,0,0,0,0,0,-1,951,1191,0,0
-266,-167,0,0,0,0,0,0,0,0,0,-1,958,1191,0,0
-259,-167,0,0,0,0,0,0,0,0,0,-1,965,1191,0,0
-252,-167,0,0,0,0,0,0,0,0,0,-1,972,1191,0,0
-245,-167,0,0,0,0,0,0,0,0,0,-1,979,1191,0,0
-238,-167,0,0,0,0,0,0,0,0,0,-1,986,1191,0,0
-231,-167,0,0,0,0,0,0,0,0,0,-1,993,1191,0,0
-224,-167,0,0,0,0,0,0,0,0,0,-1,1000,1191,0,0
-217,-167,0,0,0,0,0,0,0,0,0,-1,1007,1191,0,0
-210,-167,0,0,0,0,0,0,0,0,0,-1,1014,1191,0,0
-203,-167,0,0,0,0,0,0,0,0,0,-1,1021,1191,0,0
-196,-167,0,0,0,0,0,0,0,0,0,-1,1028,1191,0,0
-189,-167,0,0,0,0,0,0,0,0,0,-1,1035,1191,0,0
-182,-167,0,0,0,0,0,0,0,0,0,-1,1042,1191,0,0
-175,-167,0,0,0,0,0,0,0,0,0,-1,1049,1191,0,0
-168,-167,0,0,0,0,0,0,0,0,0,-1,1056,1191,0,0
-161,-167,0,0,0,0,0,0,0,0,0,-1,1063,1191,0,0
-154,-167,0,0,0,0,0,0,0,0,0,-1,1070,1191,0,0
-147,-167,0,0,0,0,0,0,0,0,0,-1,1077,1191,0,0
-140,-167,0,0,0,0,0,0,0,0,0,-1,1084,1191,0,0
-133,-167,0,0,0,0,0,0,0,0,0,-1,1091,1191,0,0
-126,-167,0,0,0,0,0,0,0,0,0,-1,1098,1191,0,0
-119,-167,0,0,0,0,0,0,0,0,0,-1,1105,1191,0,0
-112,-167,0,0,0,0,0,0,0,0,0,-1,1112,1191,0,0
-105,-167,0,0,0,0,0,0,0,0,0,-1,1119,1191,0,0
-98,-167,0,0,0,0,0,0,0,0,0,-1,1126,1191,0,0
-91,-167,0,0,0,0,0,0,0,0,0,-1,1133,1191,0,0
-84,-167,0,0,0,0,0,0,0,0,0,-1,1140,1191,0,0
-77,-167,0,0,0,0,0,0,0,0,0,-1,1147,1191,0,0
-70,-167,0,0,0,0,0,0,0,0,0,-1,1154,1191,0,0
-63,-167,0,0,0,0,0,0,0,0,0,-1,1161,1191,0,0
-56,-167,0,0,0,0,0,0,0,0,0,-1,1168,1191,0,0
-49,-167,0,0,0,0,0,0,0,0,0,-1,1175,1191,0,0
-42,-167,0,0,0,0,0,0,0,0,0,-1,1182,1191,0,0
-35,-167,0,0,0,0,0,0,0,0,0,-1,1189,1191,0,0
-28,-167,0,0,0,0,0,0,0,0,0,-1,1196,1191,0,0
-21,-167,0,0,0,0,0,0,0,0,0,-1,1203,1191,0,0
-14,-167,0,0,0,0,0,0,0,0,0,-1,1210,1191,0,0
-7,-167,0,0,0,0,0,0,0,0,0,-1,1217,1191,0,0
0,-167,0,0,0,0,0,0,0,0,0,-1,1224,1191,0,0
7,-167,0,0,0,0,0,0,0,0,0,-1,1231,1191,0,0
14,-167,0,0,0,0,0,0,0,0,0,-1,1238,1191,0,0
21,-167,0,0,0,0,0,0,0,0,0,-1,1245,1191,0,0
28,-167,0,0,0,0,0,0,0,0,0,-1,1252,1191,0,0
35,-167,0,0,0,0,0,0,0,0,0,-1,1259,1191,0,0
42,-167,0,0,0,0,0,0,0,0,0,-1,1266,1191,0,0
49,-167,0,0,0,0,0,0,0,0,0,-1,1273,1191,0,0
56,-167,0,0,0,0,0,0,0,0,0,-1,1280,1191,0,0
63,-167,0,0,0,0,0,0,0,0,0,-1,1287,1191,0,0
70,-167,0,0,0,0,0,0,0,0,0,-1,1294,1191,0,0
77,-167,0,0,0,0,0,0,0,0,0,-1,1301,1191,0,0
84,-167,0,0,0,0,0,0,0,0,0,-1,1308,1191,0,0
91,-167,0,0,0,0,0,0,0,0,0,-1,1315,1191,0,0
98,-167,0,0,0,0,0,0,0,0,0,-1,1322,1191,0,0
105,-167,0,0,0,0,0,0,0,0,0,-1,1329,1191,0,0
112,-167,0,0,0,0,0,0,0,0,0,-1,1336,1191,0,0
119,-167,0,0,0,0,0,0,0,0,0,-1,1343,1191,0,0
126,-167,0,0,0,0,0,0,0,0,0,-1,1350,1191,0,0
133,-167,0,0,0,0,0,0,0,0,0,-1,1357,1191,0,0
140,-167,0,0,0,0,0,0,0,0,0,-1,1364,1191,0,0
147,-167,0,0,0,0,0,0,0,0,0,-1,1371,1191,0,0
154,-167,0,0,0,0,0,0,0,0,0,-1,1378,1191,0,0
161,-167,0,0,0,0,0,0,0,0,0,-1,1385,1191,0,0
168,-167,0,0,0,0,0,0,0,0,0,-1,1392,1191,0,0
175,-167,0,0,0,0,0,0,0,0,0,-1,1399,1191,0,0
182,-167,0,0,0,0,0,0,0,0,0,-1,1406,1191,0,0
189,-167,0,0,0,0,0,0,0,0,0,-1,1413,1191,0,0
196,-167,0,0,0,0,0,0,0,0,0,-1,1420,1191,0,0
203,-167,0,0,0,0,0,0,0,0,0,-1,1427,1191,0,0
210,-167,0,0,0,0,0,0,0,0,0,-1,1434,1191,0,0
217,-167,0,0,0,0,0,0,0,0,0,-1,1441,1191,0,0
224,-167,0,0,0,0,0,0,0,0,0,-1,1448,1191,0,0
231,-167,0,0,0,0,0,0,0,0,0,-1,1455,1191,0,0
238,-167,0,0,0,0,0,0,0,0,0,-1,1462,1191,0,0
245,-167,0,0,0,0,0,0,0,0,0,-1,1469,1191,0,0
252,-167,0,0,0,0,0,0,0,0,0,-1,1476,1191,0,0
259,-167,0,0,0,0,0,0,0,0,0,-1,1483,1191,0,0
266,-167,0,0,0,0,0,0,0,0,0,-1,1490,1191,0,0
273,-167,0,0,0,0,0,0,0,0,0,-1,1497,1191,0,0
280,-167,0,0,0,0,0,0,0,0,0,-1,1504,1191,0,0
287,-167,0,0,0,0,0,0,0,0,0,-1,1511,1191,0,0
294,-167,0,0,0,0,0,0,0,0,0,-1,1518,1191,0,0
301,-167,0,0,0,0,0,0,0,0,0,-1,1525,1191,0,0
308,-167,0,0,0,0,0,0,0,0,0,-1,1532,1191,0,0
315,-167,0,0,0,0,0,0,0,0,0,-1,1539,1191,0,0
322,-167,0,0,0,0,0,0,0,0,0,-1,1546,1191,0,0
329,-167,0,0,0,0,0,0,0,0,0,-1,1553,1191,0,0
336,-167,0,0,0,0,0,0,0,0,0,-1,1560,1191,0,0
343,-167,0,0,0,0,0,0,0,0,0,-1,1567,1191,0,0
350,-167,0,0,0,0,0,0,0,0,0,-1,1574,1191,0,0
357,-167,0,0,0,0,0,0,0,0,0,-1,1581,1191,0,0
364,-167,0,0,0,0,0,0,0,0,0,-1,1588,1191,0,0
371,-167,0,0,0,0,0,0,0,0,0,-1,1595,1191,0,0
378,-167,0,0,0,0,0,0,0,0,0,-1,1602,1191,0,0
385,-167,0,0,0,0,0,0,0,0,0,-1,1609,1191,0,0
392,-167,0,0,0,0,0,0,0,0,0,-1,1616,1191,0,0
399,-167,0,0,0,0,0,0,0,0,0,-1,1623,1191,0,0
406,-167,0,0,0,0,0,0,0,0,0,-1,1630,1191,0,0
413,-167,0,0,0,0,0,0,0,0,0,-1,1637,1191,0,0
420,-167,0,0,0,0,0,0,0,0,0,-1,1644,1191,0,0
427,-167,0,0,0,0,0,0,0,0,0,-1,1651,1191,0,0
434,-167,0,0,0,0,0,0,0,0,0,-1,1658,1191,0,0
441,-167,0,0,0,0,0,0,0,0,0,-1,1665,1191,0,0
448,-167,0,0,0,0,0,0,0,0,0,-1,1672,1191,0,0
455,-167,0,0,0,0,0,0,0,0,0,-1,1679,1191,0,0
462,-167,0,0,0,0,0,0,0,0,0,-1,1686,1191,0,0
469,-167,0,0,0,0,0,0,0,0,0,-1,1693,1191,0,0
476,-167,0,0,0,0,0,0,0,0,0,-1,1700,1191,0,0
483,-167,0,0,0,0,0,0,0,0,0,-1,1707,1191,0,0
490,-167,0,0,0,0,0,0,0,0,0,-1,1714,1191,0,0
497,-167,0,0,0,0,0,0,0,0,0,-1,1721,1191,0,0
504,-167,0,0,0,0,0,0,0,0,0,-1,1728,1191,0,0
511,-167,0,0,0,0,0,0,0,0,0,-1,1735,1191,0,0
518,-167,0,0,0,0,0,0,0,0,0,-1,1742,1191,0,0
525,-167,0,0,0,0,0,0,0,0,0,-1,1749,1191,0,0
532,-167,0,0,0,0,0,0,0,0,0,-1,1756,1191,0,0
539,-167,0,0,0,0,0,0,0,0,0,-1,1763,1191,0,0
546,-167,0,0,0,0,0,0,0,0,0,-1,1770,1191,0,0
553,-167,0,0,0,0,0,0,0,0,0,-1,1777,1191,0,0
560,-167,0,0,0,0,0,0,0,0,0,-1,1784,1191,0,0
567,-167,0,0,0,0,0,0,0,0,0,-1,1791,1191,0,0
574,-167,0,0,0,0,0,0,0,0,0,-1,1798,1191,0,0
581,-167,0,0,0,0,0,0,0,0,0,-1,1805,1191,0,0
588,-167,0,0,0,0,0,0,0,0,0,-1,1812,1191,0,0
595,-167,0,0,0,0,0,0,0,0,0,-1,1819,1191,0,0
602,-167,0,0,0,0,0,0,0,0,0,-1,1826,1191,0,0
609,-167,0,0,0,0,0,0,0,0,0,-1,1833,1191,0,0
616,-167,0,0,0,0,0,0,0,0,0,-1,1840,1191,0,0
623,-167,0,0,0,0,0,0,0,0,0,-1,1847,1191,0,0
630,-167,0,0,0,0,0,0,0,0,0,-1,1854,1191,0,0
637,-167,70.3091,2.18311,0.000158387,-0.00355536,0.00479862,0.00344687,-0.00684385,0.600791,0.00604829,0.0444253,1861,1191,70.309,-2.18305
644,-167,70.3937,2.22534,0.000618236,-0.00210504,0.00378341,0.00327758,-0.00476438,0.612666,0.0046694,0.0464544,1868,1191,70.3937,-2.22537
651,-167,70.209,2.54456,0.00108292,-0.000420984,0.00241442,0.00285977,-0.00219784,0.634438,0.00292834,0.0429651,1875,1191,70.209,-2.54459
658,-167,70.286,2.55701,0.00146,0.00128585,0.000885611,0.00226281,0.000483044,0.736395,0.00137608,0.0400853,1882,1191,70.286,-2.55705
665,-167,70.4272,2.56494,0.0016824,0.00280391,-0.000479903,0.00298123,0.00150508,-1.21686,0.00172124,0.0366407,1889,1191,70.4273,-2.5649
672,-167,70.4557,2.45569,0.00187849,0.00389208,-0.00150377,0.00469497,0.0010756,-1.08038,0.00284017,0.0291331,1896,1191,70.4556,-2.45568
679,-167,70.4039,2.37634,0.00190059,0.00384899,-0.0017459,0.0048741,0.000875479,-1.03988,0.00300045,0.023235,1903,1191,70.404,-2.3764
686,-167,70.3551,2.25183,0.00215752,0.00358667,-0.00154418,0.0045736,0.00117059,-1.0021,0.00274342,0.0361519,1910,1191,70.3551,-2.25178
693,-167,70.3047,2.09058,0,0,0,0,0,0,0,-1,1917,1191,70.3047,-2.09062
700,-167,28.0459,2.70508,0,0,0,0,0,0,0,-1,1924,1191,28.0459,-2.70513
707,-167,29.4708,7.10168,0,0,0,0,0,0,0,-1,1931,1191,29.4708,-7.10172
714,-167,35.9202,6.84668,0,0,0,0,0,0,0,-1,1938,1191,35.9202,-6.84664
721,-167,36.2072,6.38892,0,0,0,0,0,0,0,-1,1945,1191,36.2072,-6.38891
728,-167,57.6855,8.99255,0,0,0,0,0,0,0,-1,1952,1191,57.6855,-8.99257
735,-167,59.3943,8.49695,0,0,0,0,0,0,0,-1,1959,1191,59.3943,-8.49696
742,-167,59.3065,7.86157,0.00224893,0.00100422,0.000822381,0.0026579,0.000595245,0.461487,0.00161061,0.017885,1966,1191,59.3065,-7.86159
749,-167,59.2562,7.21033,0.00359842,0.00233658,0.000758447,0.00395406,0.00198094,0.438465,0.00228288,0.0157986,1973,1191,59.2562,-7.21038
756,-167,59.2662,6.60583,0.00787686,0.00648044,-0.000966742,0.00837116,0.00598614,-0.472654,0.00497993,0.0121645,1980,1191,59.2663,-6.60581
763,-167,59.2019,5.97778,0.0138792,0.0120555,-0.00359904,0.0166801,0.00925461,-0.661327,0.00964956,0.0147387,1987,1191,59.2019,-5.97782
770,-167,58.9976,5.54504,0.0218186,0.0193081,-0.00734147,0.0280113,0.0131153,-0.700728,0.0161832,0.0379123,1994,1191,58.9976,-5.54504
777,-167,59.1475,5.19202,0,0,0,0,0,0,0,-1,2001,1191,59.1476,-5.19199
784,-167,60.0374,3.40417,0,0,0,0,0,0,0,-1,2008,1191,60.0374,-3.4042
791,-167,60.2642,2.76367,0,0,0,0,0,0,0,-1,2015,1191,60.2643,-2.76362
798,-167,60.7864,2.25244,0,0,0,0,0,0,0,-1,2022,1191,60.7863,-2.25238
805,-167,61.6555,1.76758,0,0,0,0,0,0,0,-1,2029,1191,61.6554,-1.7676
812,-167,0,0,0,0,0,0,0,0,0,-1,2036,1191,0,0
-700,-174,0,0,0,0,0,0,0,0,0,-1,524,1198,0,0
-693,-174,0,0,0,0,0,0,0,0,0,-1,531,1198,0,0
-686,-174,-45.6241,-0.962524,0.0880446,0.0729547,-0.0414471,0.122628,0.0383714,-0.695365,0.0724325,0.0469547,538,1198,-45.6241,0.962476
-679,-174,-45.0402,-0.226074,0.0784204,0.0647265,-0.0363618,0.108574,0.0345726,-0.692337,0.0640484,0.0432549,545,1198,-45.0402,0.226023
-672,-174,-44.4927,0.529541,0.0670271,0.0555423,-0.0311674,0.0929767,0.0295927,-0.694298,0.0548491,0.0470709,552,1198,-44.4927,-0.529521
-665,-174,-44.3821,1.05017,0.0556582,0.0463197,-0.0261775,0.0775796,0.0243983,-0.697142,0.0458067,0.0472856,559,1198,-44.3822,-1.05019
-658,-174,-44.4269,1.60461,0.044726,0.0375123,-0.0215534,0.0629723,0.019266,-0.702494,0.0372586,0.0471035,566,1198,-44.427,-1.60461
-651,-174,-42.1904,2.04529,0,0,0,0,0,0,0,-1,573,1198,-42.1904,-2.04528
-644,-174,-42.2723,2.78125,0.0246277,0.0215856,-0.0132506,0.0364442,0.00976903,-0.728252,0.0217827,0.0484796,580,1198,-42.2723,-2.7813
-637,-174,-42.3759,3.53406,0.0160796,0.014798,-0.00980896,0.0252686,0.00560889,-0.75278,0.0153222,0.0274567,587,1198,-42.3759,-3.53412
-630,-174,-42.571,4.22595,0.00839524,0.00909416,-0.00661146,0.0153654,0.00212401,-0.811802,0.00961412,0.0137945,594,1198,-42.571,-4.226
-623,-174,-42.6182,4.90845,0.00197529,0.00390499,-0.00432161,0.00736814,-0.00148787,-0.895228,0.00547585,0.0152938,601,1198,-42.6181,-4.9085
-616,-174,-42.6192,5.59863,-0.002329,0.000685688,-0.00293224,0.00247533,-0.00411864,-1.02281,0.00384624,0.0206875,608,1198,-42.6192,-5.59867
-609,-174,-42.6997,6.27148,-0.00367011,-0.000719219,-0.0025015,0.000709549,-0.00509887,-1.05185,0.00365877,0.0224865,615,1198,-42.6997,-6.2715
-602,-174,-42.8204,6.86597,-0.0031527,5.25917e-05,-0.00269926,0.00158913,-0.00468924,-1.0533,0.00376924,0.0283167,622,1198,-42.8204,-6.866
-595,-174,-42.4191,7.34253,0,0,0,0,0,0,0,-1,629,1198,-42.419,-7.34254
-588,-174,-43.1425,8.36719,0,0,0,0,0,0,0,-1,636,1198,-43.1425,-8.36718
-581,-174,-43.2676,9.06372,0,0,0,0,0,0,0,-1,643,1198,-43.2676,-9.06368
-574,-174,-31.7448,7.09595,0,0,0,0,0,0,0,-1,650,1198,-31.7448,-7.09599
-567,-174,-26.6597,3.04041,0,0,0,0,0,0,0,-1,657,1198,-26.6597,-3.04039
-560,-174,-42.6953,1.07178,0,0,0,0,0,0,0,-1,664,1198,-42.6953,-1.07181
-553,-174,-54.1824,0.557739,0,0,0,0,0,0,0,-1,671,1198,-54.1823,-0.557778
-546,-174,-54.1998,0.5979,0.0014385,-0.00264226,-0.000520194,0.00150377,-0.00270753,-0.124816,0.00246428,0.0304469,678,1198,-54.1998,-0.597858
-539,-174,-54.1578,0.461304,0.000496867,-0.00375491,0.000540848,0.000564587,-0.00382263,0.124562,0.00275596,0.03322,685,1198,-54.1578,-0.461327
-532,-174,-53.8508,0.440674,-0.000865824,-0.00481972,0.00224982,0.000152225,-0.00583777,0.424933,0.00394357,0.0423429,692,1198,-53.8508,-0.440637
-525,-174,-53.9373,0.519531,-0.00339359,-0.00668964,0.00444881,-0.000297365,-0.00978587,0.608014,0.00642708,0.0414345,699,1198,-53.9372,-0.519507
-518,-174,-54.177,0.705322,-0.00639058,-0.00885709,0.00676762,-0.000744766,-0.0145029,0.695272,0.00943015,0.0410676,706,1198,-54.177,-0.705352
-511,-174,0,0,0,0,0,0,0,0,0,-1,713,1198,0,0
-504,-174,0,0,0,0,0,0,0,0,0,-1,720,1198,0,0
-497,-174,0,0,0,0,0,0,0,0,0,-1,727,1198,0,0
-490,-174,0,0,0,0,0,0,0,0,0,-1,734,1198,0,0
-483,-174,0,0,0,0,0,0,0,0,0,-1,741,1198,0,0
-476,-174,0,0,0,0,0,0,0,0,0,-1,748,1198,0,0
-469,-174,0,0,0,0,0,0,0,0,0,-1,755,1198,0,0
-462,-174,0,0,0,0,0,0,0,0,0,-1,762,1198,0,0
-455,-174,0,0,0,0,0,0,0,0,0,-1,769,1198,0,0
-448,-174,0,0,0,0,0,0,0,0,0,-1,776,1198,0,0
-441,-174,0,0,0,0,0,0,0,0,0,-1,783,1198,0,0
-434,-174,0,0,0,0,0,0,0,0,0,-1,790,1198,0,0
-427,-174,0,0,0,0,0,0,0,0,0,-1,797,1198,0,0
-420,-174,0,0,0,0,0,0,0,0,0,-1,804,1198,0,0
-413,-174,0,0,0,0,0,0,0,0,0,-1,811,1198,0,0
-406,-174,0,0,0,0,0,0,0,0,0,-1,818,1198,0,0
-399,-174,0,0,0,0,0,0,0,0,0,-1,825,1198,0,0
-392,-174,0,0,0,0,0,0,0,0,0,-1,832,1198,0,0
-385,-174,0,0,0,0,0,0,0,0,0,-1,839,1198,0,0
-378,-174,0,0,0,0,0,0,0,0,0,-1,846,1198,0,0
-371,-174,0,0,0,0,0,0,0,0,0,-1,853,1198,0,0
-364,-174,0,0,0,0,0,0,0,0,0,-1,860,1198,0,0
-357,-174,0,0,0,0,0,0,0,0,0,-1,867,1198,0,0
-350,-174,0,0,0,0,0,0,0,0,0,-1,874,1198,0,0
-343,-174,0,0,0,0,0,0,0,0,0,-1,881,1198,0,0
-336,-174,0,0,0,0,0,0,0,0,0,-1,888,1198,0,0
-329,-174,0,0,0,0,0,0,0,0,0,-1,895,1198,0,0
-322,-174,0,0,0,0,0,0,0,0,0,-1,902,1198,0,0
-315,-174,0,0,0,0,0,0,0,0,0,-1,909,1198,0,0
-308,-174,0,0,0,0,0,0,0,0,0,-1,916,1198,0,0
-301,-174,0,0,0,0,0,0,0,0,0,-1,923,1198,0,0
-294,-174,0,0,0,0,0,0,0,0,0,-1,930,1198,0,0
-287,-174,0,0,0,0,0,0,0,0,0,-1,937,1198,0,0
-280,-174,0,0,0,0,0,0,0,0,0,-1,944,1198,0,0
-273,-174,0,0,0,0,0,0,0,0,0,-1,951,1198,0,0
-266,-174,0,0,0,0,0,0,0,0,0,-1,958,1198,0,0
-259,-174,0,0,0,0,0,0,0,0,0,-1,965,1198,0,0
-252,-174,0,0,0,0,0,0,0,0,0,-1,972,1198,0,0
-245,-174,0,0,0,0,0,0,0,0,0,-1,979,1198,0,0
-238,-174,0,0,0,0,0,0,0,0,0,-1,986,1198,0,0
-231,-174,0,0,0,0,0,0,0,0,0,-1,993,1198,0,0
-224,-174,0,0,0,0,0,0,0,0,0,-1,1000,1198,0,0
-217,-174,0,0,0,0,0,0,0,0,0,-1,1007,1198,0,0
-210,-174,0,0,0,0,0,0,0,0,0,-1,1014,1198,0,0
-203,-174,0,0,0,0,0,0,0,0,0,-1,1021,1198,0,0
-196,-174,0,0,0,0,0,0,0,0,0,-1,1028,1198,0,0
-189,-174,0,0,0,0,0,0,0,0,0,-1,1035,1198,0,0
-182,-174,0,0,0,0,0,0,0,0,0,-1,1042,1198,0,0
-175,-174,0,0,0,0,0,0,0,0,0,-1,1049,1198,0,0
-168,-174,0,0,0,0,0,0,0,0,0,-1,1056,1198,0,0
-161,-174,0,0,0,0,0,0,0,0,0,-1,1063,1198,0,0
-154,-174,0,0,0,0,0,0,0,0,0,-1,1070,1198,0,0
-147,-174,0,0,0,0,0,0,0,0,0,-1,1077,1198,0,0
-140,-174,0,0,0,0,0,0,0,0,0,-1,1084,1198,0,0
-133,-174,0,0,0,0,0,0,0,0,0,-1,1091,1198,0,0
-126,-174,0,0,0,0,0,0,0,0,0,-1,1098,1198,0,0
-119,-174,0,0,0,0,0,0,0,0,0,-1,1105,1198,0,0
-112,-174,0,0,0,0,0,0,0,0,0,-1,1112,1198,0,0
-105,-174,0,0,0,0,0,0,0,0,0,-1,1119,1198,0,0
-98,-174,0,0,0,0,0,0,0,0,0,-1,1126,1198,0,0
-91,-174,0,0,0,0,0,0,0,0,0,-1,1133,1198,0,0
-84,-174,0,0,0,0,0,0,0,0,0,-1,1140,1198,0,0
-77,-174,0,0,0,0,0,0,0,0,0,-1,1147,1198,0,0
-70,-174,0,0,0,0,0,0,0,0,0,-1,1154,1198,0,0
-63,-174,0,0,0,0,0,0,0,0,0,-1,1161,1198,0,0
-56,-174,0,0,0,0,0,0,0,0,0,-1,1168,1198,0,0
-49,-174,0,0,0,0,0,0,0,0,0,-1,1175,1198,0,0
-42,-174,0,0,0,0,0,0,0,0,0,-1,1182,1198,0,0
-35,-174,0,0,0,0,0,0,0,0,0,-1,1189,1198,0,0
-28,-174,0,0,0,0,0,0,0,0,0,-1,1196,1198,0,0
-21,-174,0,0,0,0,0,0,0,0,0,-1,1203,1198,0,0
-14,-174,0,0,0,0,0,0,0,0,0,-1,1210,1198,0,0
-7,-174,0,0,0,0,0,0,0,0,0,-1,1217,1198,0,0
0,-174,0,0,0,0,0,0,0,0,0,-1,1224,1198,0,0
7,-174,0,0,0,0,0,0,0,0,0,-1,1231,1198,0,0
14,-174,0,0,0,0,0,0,0,0,0,-1,1238,1198,0,0
21,-174,0,0,0,0,0,0,0,0,0,-1,1245,1198,0,0
28,-174,0,0,0,0,0,0,0,0,0,-1,1252,1198,0,0
35,-174,0,0,0,0,0,0,0,0,0,-1,1259,1198,0,0
42,-174,0,0,0,0,0,0,0,0,0,-1,1266,1198,0,0
49,-174,0,0,0,0,0,0,0,0,0,-1,1273,1198,0,0
56,-174,0,0,0,0,0,0,0,0,0,-1,1280,1198,0,0
63,-174,0,0,0,0,0,0,0,0,0,-1,1287,1198,0,0
70,-174,0,0,0,0,0,0,0,0,0,-1,1294,1198,0,0
77,-174,0,0,0,0,0,0,0,0,0,-1,1301,1198,0,0
84,-174,0,0,0,0,0,0,0,0,0,-1,1308,1198,0,0
91,-174,0,0,0,0,0,0,0,0,0,-1,1315,1198,0,0
98,-174,0,0,0,0,0,0,0,0,0,-1,1322,1198,0,0
105,-174,0,0,0,0,0,0,0,0,0,-1,1329,1198,0,0
112,-174,0,0,0,0,0,0,0,0,0,-1,1336,1198,0,0
119,-174,0,0,0,0,0,0,0,0,0,-1,1343,1198,0,0
126,-174,0,0,0,0,0,0,0,0,0,-1,1350,1198,0,0
133,-174,0,0,0,0,0,0,0,0,0,-1,1357,1198,0,0
140,-174,0,0,0,0,0,0,0,0,0,-1,1364,1198,0,0
147,-174,0,0,0,0,0,0,0,0,0,-1,1371,1198,0,0
154,-174,0,0,0,0,0,0,0,0,0,-1,1378,1198,0,0
161,-174,0,0,0,0,0,0,0,0,0,-1,1385,1198,0,0
168,-174,0,0,0,0,0,0,0,0,0,-1,1392,1198,0,0
175,-174,0,0,0,0,0,0,0,0,0,-1,1399,1198,0,0
182,-174,0,0,0,0,0,0,0,0,0,-1,1406,1198,0,0
189,-174,0,0,0,0,0,0,0,0,0,-1,1413,1198,0,0
196,-174,0,0,0,0,0,0,0,0,0,-1,1420,1198,0,0
203,-174,0,0,0,0,0,0,0,0,0,-1,1427,1198,0,0
210,-174,0,0,0,0,0,0,0,0,0,-1,1434,1198,0,0
217,-174,0,0,0,0,0,0,0,0,0,-1,1441,1198,0,0
224,-174,0,0,0,0,0,0,0,0,0,-1,1448,1198,0,0
231,-174,0,0,0,0,0,0,0,0,0,-1,1455,1198,0,0
238,-174,0,0,0,0,0,0,0,0,0,-1,1462,1198,0,0
245,-174,0,0,0,0,0,0,0,0,0,-1,1469,1198,0,0
252,-174,0,0,0,0,0,0,0,0,0,-1,1476,1198,0,0
259,-174,0,0,0,0,0,0,0,0,0,-1,1483,1198,0,0
266,-174,0,0,0,0,0,0,0,0,0,-1,1490,1198,0,0
273,-174,0,0,0,0,0,0,0,0,0,-1,1497,1198,0,0
280,-174,0,0,0,0,0,0,0,0,0,-1,1504,1198,0,0
287,-174,0,0,0,0,0,0,0,0,0,-1,1511,1198,0,0
294,-174,0,0,0,0,0,0,0,0,0,-1,1518,1198,0,0
301,-174,0,0,0,0,0,0,0,0,0,-1,1525,1198,0,0
308,-174,0,0,0,0,0,0,0,0,0,-1,1532,1198,0,0
315,-174,0,0,0,0,0,0,0,0,0,-1,1539,1198,0,0
322,-174,0,0,0,0,0,0,0,0,0,-1,1546,1198,0,0
329,-174,0,0,0,0,0,0,0,0,0,-1,1553,1198,0,0
336,-174,0,0,0,0,0,0,0,0,0,-1,1560,1198,0,0
343,-174,0,0,0,0,0,0,0,0,0,-1,1567,1198,0,0
350,-174,0,0,0,0,0,0,0,0,0,-1,1574,1198,0,0
357,-174,0,0,0,0,0,0,0,0,0,-1,1581,1198,0,0
364,-174,0,0,0,0,0,0,0,0,0,-1,1588,1198,0,0
371,-174,0,0,0,0,0,0,0,0,0,-1,1595,1198,0,0
378,-174,0,0,0,0,0,0,0,0,0,-1,1602,1198,0,0
385,-174,0,0,0,0,0,0,0,0,0,-1,1609,1198,0,0
392,-174,0,0,0,0,0,0,0,0,0,-1,1616,1198,0,0
399,-174,0,0,0,0,0,0,0,0,0,-1,1623,1198,0,0
406,-174,0,0,0,0,0,0,0,0,0,-1,1630,1198,0,0
413,-174,0,0,0,0,0,0,0,0,0,-1,1637,1198,0,0
420,-174,0,0,0,0,0,0,0,0,0,-1,1644,1198,0,0
427,-174,0,0,0,0,0,0,0,0,0,-1,1651,1198,0,0
434,-174,0,0,0,0,0,0,0,0,0,-1,1658,1198,0,0
441,-174,0,0,0,0,0,0,0,0,0,-1,1665,1198,0,0
448,-174,0,0,0,0,0,0,0,0,0,-1,1672,1198,0,0
455,-174,0,0,0,0,0,0,0,0,0,-1,1679,1198,0,0
462,-174,0,0,0,0,0,0,0,0,0,-1,1686,1198,0,0
469,-174,0,0,0,0,0,0,0,0,0,-1,1693,1198,0,0
476,-174,0,0,0,0,0,0,0,0,0,-1,1700,1198,0,0
483,-174,0,0,0,0,0,0,0,0,0,-1,1707,1198,0,0
490,-174,0,0,0,0,0,0,0,0,0,-1,1714,1198,0,0
497,-174,0,0,0,0,0,0,0,0,0,-1,1721,1198,0,0
504,-174,0,0,0,0,0,0,0,0,0,-1,1728,1198,0,0
511,-174,0,0,0,0,0,0,0,0,0,-1,1735,1198,0,0
518,-174,0,0,0,0,0,0,0,0,0,-1,1742,1198,0,0
525,-174,0,0,0,0,0,0,0,0,0,-1,1749,1198,0,0
532,-174,0,0,0,0,0,0,0,0,0,-1,1756,1198,0,0
539,-174,0,0,0,0,0,0,0,0,0,-1,1763,1198,0,0
546,-174,0,0,0,0,0,0,0,0,0,-1,1770,1198,0,0
553,-174,0,0,0,0,0,0,0,0,0,-1,1777,1198,0,0
560,-174,0,0,0,0,0,0,0,0,0,-1,1784,1198,0,0
567,-174,0,0,0,0,0,0,0,0,0,-1,1791,1198,0,0
574,-174,0,0,0,0,0,0,0,0,0,-1,1798,1198,0,0
581,-174,0,0,0,0,0,0,0,0,0,-1,1805,1198,0,0
588,-174,0,0,0,0,0,0,0,0,0,-1,1812,1198,0,0
595,-174,0,0,0,0,0,0,0,0,0,-1,1819,1198,0,0
602,-174,0,0,0,0,0,0,0,0,0,-1,1826,1198,0,0
609,-174,0,0,0,0,0,0,0,0,0,-1,1833,1198,0,0
616,-174,0,0,0,0,0,0,0,0,0,-1,1840,1198,0,0
623,-174,0,0,0,0,0,0,0,0,0,-1,1847,1198,0,0
630,-174,0,0,0,0,0,0,0,0,0,-1,1854,1198,0,0
637,-174,69.9453,2.19055,0.00105642,-0.00401727,0.00359143,0.00291661,-0.00587746,0.477907,0.0051723,0.0436745,1861,1198,69.9454,-2.19058
644,-174,70.124,2.35254,0.00133306,-0.00228647,0.00254453,0.00264578,-0.00359919,0.476284,0.00361951,0.0439368,1868,1198,70.1241,-2.35258
651,-174,70.4742,2.61499,0.00163509,-0.000340157,0.00118627,0.00219105,-0.000896114,0.438262,0.0018339,0.0428452,1875,1198,70.4742,-2.61494
658,-174,70.1034,2.59924,0.00183633,0.00154859,-0.000210077,0.00194708,0.00143784,-0.48516,0.00116598,0.0411999,1882,1198,70.1034,-2.59919
665,-174,70.2892,2.42444,0.00185983,0.0030062,-0.00123494,0.00379449,0.00107154,-1.00267,0.00225885,0.0355858,1889,1198,70.2892,-2.42443
672,-174,70.3615,2.31335,0.00188691,0.00380075,-0.00178346,0.00486779,0.000819865,-1.03163,0.00300937,0.0295651,1896,1198,70.3615,-2.31331
679,-174,70.3831,2.31567,0.00182417,0.00363238,-0.00170331,0.00465666,0.000799884,-1.02939,0.00287514,0.0269646,1903,1198,70.3831,-2.3157
686,-174,70.3346,2.15112,0,0,0,0,0,0,0,-1,1910,1198,70.3346,-2.15114
693,-174,51.1324,2.57349,0,0,0,0,0,0,0,-1,1917,1198,51.1325,-2.57343
700,-174,25.4004,6.11792,0,0,0,0,0,0,0,-1,1924,1198,25.4004,-6.11797
707,-174,34.7908,7.34473,0,0,0,0,0,0,0,-1,1931,1198,34.7908,-7.34475
714,-174,40.1135,7.79871,0,0,0,0,0,0,0,-1,1938,1198,40.1135,-7.79875
721,-174,40.8693,7.59863,0,0,0,0,0,0,0,-1,1945,1198,40.8693,-7.59859
728,-174,58.5095,9.16968,0,0,0,0,0,0,0,-1,1952,1198,58.5095,-9.16968
735,-174,58.6102,8.56531,0.00191314,0.00139933,0.000415074,0.00214438,0.00116809,0.508285,0.00123971,0.0226336,1959,1198,58.6102,-8.56528
742,-174,58.6797,7.87634,0.0022344,0.00117661,0.00082753,0.00268761,0.000723397,0.501052,0.00160587,0.0211121,1966,1198,58.6797,-7.87637
749,-174,58.6482,7.24561,0.00378603,0.00273826,0.000617013,0.00407156,0.00245272,0.433422,0.00236709,0.0187151,1973,1198,58.6482,-7.2456
756,-174,58.6108,6.61023,0.00798094,0.00673592,-0.00103566,0.00856678,0.00615008,-0.514792,0.00510019,0.0115051,1980,1198,58.6108,-6.61025
763,-174,58.5824,5.99304,0.0136877,0.0120502,-0.00343695,0.0164021,0.00933583,-0.668468,0.00949992,0.0174509,1987,1198,58.5825,-5.99308
770,-174,58.7783,5.34473,0.0213993,0.0191122,-0.00695588,0.027305,0.0132065,-0.703924,0.0157674,0.0460415,1994,1198,58.7783,-5.34471
777,-174,59.2178,4.56165,0,0,0,0,0,0,0,-1,2001,1198,59.2178,-4.56164
784,-174,67.8457,-0.896606,0,0,0,0,0,0,0,-1,2008,1198,67.8456,0.896657
791,-174,59.8242,2.32861,0,0,0,0,0,0,0,-1,2015,1198,59.8243,-2.32855
798,-174,61.8975,4.00464,0,0,0,0,0,0,0,-1,2022,1198,61.8976,-4.00459
805,-174,61.3882,1.10266,0,0,0,0,0,0,0,-1,2029,1198,61.3881,-1.10262
812,-174,0,0,0,0,0,0,0,0,0,-1,2036,1198,0,0
-700,-181,0,0,0,0,0,0,0,0,0,-1,524,1205,0,0
-693,-181,0,0,0,0,0,0,0,0,0,-1,531,1205,0,0
-686,-181,-44.0744,-0.950439,0.0951626,0.0639336,-0.0481316,0.130149,0.0289471,-0.628548,0.0789072,0.046558,538,1205,-44.0744,0.95049
-679,-181,-43.8703,-0.286011,0.0844067,0.0573959,-0.0420628,0.115079,0.0267235,-0.630059,0.0695446,0.0461428,545,1205,-43.8703,0.28603
-672,-181,-44.1245,-0.31604,0.0718755,0.0497932,-0.0359067,0.0984003,0.0232684,-0.636238,0.0593835,0.0493292,552,1205,-44.1245,0.316074
-665,-181,-43.2358,0.415771,0.0595894,0.0420509,-0.0300707,0.0821434,0.0194968,-0.643522,0.0495587,0.0488188,559,1205,-43.2358,-0.415717
-658,-181,-43.1279,1.33118,0.047919,0.0344902,-0.024696,0.066797,0.0156121,-0.652665,0.0403471,0.0484183,566,1205,-43.1279,-1.33121
-651,-181,-42.6432,2.04639,0.0369842,0.0272389,-0.0197765,0.0524795,0.0117436,-0.664611,0.031803,0.0499654,573,1205,-42.6433,-2.04636
-644,-181,-41.5878,2.72363,0,0,0,0,0,0,0,-1,580,1205,-41.5878,-2.72368
-637,-181,-41.6856,3.58569,0.0179343,0.0143538,-0.0113609,0.0276451,0.00464297,-0.70725,0.0170939,0.0281852,587,1205,-41.6856,-3.58574
-630,-181,-41.8795,4.25537,0.0100183,0.00920138,-0.00770112,0.0173218,0.0018979,-0.758902,0.0109701,0.0144906,594,1205,-41.8794,-4.25543
-623,-181,-41.9316,4.94556,0.00349109,0.00448097,-0.00506264,0.00907281,-0.00110075,-0.834125,0.00644685,0.0157704,601,1205,-41.9316,-4.9455
-616,-181,-41.9434,5.62183,-0.00104851,0.00120689,-0.00344483,0.00370391,-0.00354553,-0.94358,0.0041858,0.015641,608,1205,-41.9433,-5.62183
-609,-181,-41.9781,6.32825,-0.00287071,-0.000236274,-0.00265706,0.00141215,-0.00451913,-1.01552,0.00357761,0.0153965,615,1205,-41.9782,-6.32825
-602,-181,-41.9551,7.047,-0.00270208,0.000366665,-0.00278374,0.00201089,-0.00434631,-1.03728,0.00375198,0.0266841,622,1205,-41.9551,-7.04695
-595,-181,-41.643,7.74426,0,0,0,0,0,0,0,-1,629,1205,-41.643,-7.74422
-588,-181,-42.4171,8.36267,0.00104224,0.000635247,-0.00395027,0.00479425,-0.00311676,-0.759664,0.00460152,0.0405061,636,1205,-42.4171,-8.36271
-581,-181,-42.4794,9.0166,0.00189419,-0.000117725,-0.00339195,0.00442621,-0.00264975,-0.641244,0.004128,0.0453687,643,1205,-42.4794,-9.01665
-574,-181,-41.8271,9.63025,0,0,0,0,0,0,0,-1,650,1205,-41.8271,-9.63031
-567,-181,-25.8839,3.34485,0,0,0,0,0,0,0,-1,657,1205,-25.8839,-3.3449
-560,-181,-31.7396,1.63306,0,0,0,0,0,0,0,-1,664,1205,-31.7396,-1.63303
-553,-181,-54.2004,0.67334,0,0,0,0,0,0,0,-1,671,1205,-54.2005,-0.673283
-546,-181,-54.2076,0.611084,0.000190245,-0.00263312,-0.00027228,0.000216264,-0.00265914,-0.0952681,0.00184907,0.0419993,678,1205,-54.2076,-0.611091
-539,-181,-54.2061,0.595581,-0.000723152,-0.00368615,0.000474148,-0.000649126,-0.00376017,0.154873,0.00232087,0.0381273,685,1205,-54.2061,-0.595639
-532,-181,-53.9179,0.601074,-0.0017956,-0.00461299,0.0017562,-0.00095293,-0.00545567,0.44738,0.00336475,0.0458631,692,1205,-53.9179,-0.601096
-525,-181,-54.0107,0.417603,-0.00360676,-0.00675902,0.00369721,-0.00116374,-0.00920204,0.583911,0.00578593,0.0409938,699,1205,-54.0107,-0.41757
-518,-181,-54.168,0.518799,-0.00585845,-0.00904887,0.00568574,-0.00154838,-0.0133589,0.648633,0.00843733,0.0373242,706,1205,-54.168,-0.518805
-511,-181,0,0,0,0,0,0,0,0,0,-1,713,1205,0,0
-504,-181,0,0,0,0,0,0,0,0,0,-1,720,1205,0,0
-497,-181,0,0,0,0,0,0,0,0,0,-1,727,1205,0,0
-490,-181,0,0,0,0,0,0,0,0,0,-1,734,1205,0,0
-483,-181,0,0,0,0,0,0,0,0,0,-1,741,1205,0,0
-476,-181,0,0,0,0,0,0,0,0,0,-1,748,1205,0,0
-469,-181,0,0,0,0,0,0,0,0,0,-1,755,1205,0,0
-462,-181,0,0,0,0,0,0,0,0,0,-1,762,1205,0,0
-455,-181,0,0,0,0,0,0,0,0,0,-1,769,1205,0,0
-448,-181,0,0,0,0,0,0,0,0,0,-1,776,1205,0,0
-441,-181,0,0,0,0,0,0,0,0,0,-1,783,1205,0,0
-434,-181,0,0,0,0,0,0,0,0,0,-1,790,1205,0,0
-427,-181,0,0,0,0,0,0,0,0,0,-1,797,1205,0,0
-420,-181,0,0,0,0,0,0,0,0,0,-1,804,1205,0,0
-413,-181,0,0,0,0,0,0,0,0,0,-1,811,1205,0,0
-406,-181,0,0,0,0,0,0,0,0,0,-1,818,1205,0,0
-399,-181,0,0,0,0,0,0,0,0,0,-1,825,1205,0,0
-392,-181,0,0,0,0,0,0,0,0,0,-1,832,1205,0,0
-385,-181,0,0,0,0,0,0,0,0,0,-1,839,1205,0,0
-378,-181,0,0,0,0,0,0,0,0,0,-1,846,1205,0,0
-371,-181,0,0,0,0,0,0,0,0,0,-1,853,1205,0,0
-364,-181,0,0,0,0,0,0,0,0,0,-1,860,1205,0,0
-357,-181,0,0,0,0,0,0,0,0,0,-1,867,1205,0,0
-350,-181,0,0,0,0,0,0,0,0,0,-1,874,1205,0,0
-343,-181,0,0,0,0,0,0,0,0,0,-1,881,1205,0,0
-336,-181,0,0,0,0,0,0,0,0,0,-1,888,1205,0,0
-329,-181,0,0,0,0,0,0,0,0,0,-1,895,1205,0,0
-322,-181,0,0,0,0,0,0,0,0,0,-1,902,1205,0,0
-315,-181,0,0,0,0,0,0,0,0,0,-1,909,1205,0,0
-308,-181,0,0,0,0,0,0,0,0,0,-1,916,1205,0,0
-301,-181,0,0,0,0,0,0,0,0,0,-1,923,1205,0,0
-294,-181,0,0,0,0,0,0,0,0,0,-1,930,1205,0,0
-287,-181,0,0,0,0,0,0,0,0,0,-1,937,1205,0,0
-280,-181,0,0,0,0,0,0,0,0,0,-1,944,1205,0,0
-273,-181,0,0,0,0,0,0,0,0,0,-1,951,1205,0,0
-266,-181,0,0,0,0,0,0,0,0,0,-1,958,1205,0,0
-259,-181,0,0,0,0,0,0,0,0,0,-1,965,1205,0,0
-252,-181,0,0,0,0,0,0,0,0,0,-1,972,1205,0,0
-245,-181,0,0,0,0,0,0,0,0,0,-1,979,1205,0,0
-238,-181,0,0,0,0,0,0,0,0,0,-1,986,1205,0,0
-231,-181,0,0,0,0,0,0,0,0,0,-1,993,1205,0,0
-224,-181,0,0,0,0,0,0,0,0,0,-1,1000,1205,0,0
-217,-181,0,0,0,0,0,0,0,0,0,-1,1007,1205,0,0
-210,-181,0,0,0,0,0,0,0,0,0,-1,1014,1205,0,0
-203,-181,0,0,0,0,0,0,0,0,0,-1,1021,1205,0,0
-196,-181,0,0,0,0,0,0,0,0,0,-1,1028,1205,0,0
-189,-181,0,0,0,0,0,0,0,0,0,-1,1035,1205,0,0
-182,-181,0,0,0,0,0,0,0,0,0,-1,1042,1205,0,0
-175,-181,0,0,0,0,0,0,0,0,0,-1,1049,1205,0,0
-168,-181,0,0,0,0,0,0,0,0,0,-1,1056,1205,0,0
-161,-181,0,0,0,0,0,0,0,0,0,-1,1063,1205,0,0
-154,-181,0,0,0,0,0,0,0,0,0,-1,1070,1205,0,0
-147,-181,0,0,0,0,0,0,0,0,0,-1,1077,1205,0,0
-140,-181,0,0,0,0,0,0,0,0,0,-1,1084,1205,0,0
-133,-181,0,0,0,0,0,0,0,0,0,-1,1091,1205,0,0
-126,-181,0,0,0,0,0,0,0,0,0,-1,1098,1205,0,0
-119,-181,0,0,0,0,0,0,0,0,0,-1,1105,1205,0,0
-112,-181,0,0,0,0,0,0,0,0,0,-1,1112,1205,0,0
-105,-181,0,0,0,0,0,0,0,0,0,-1,1119,1205,0,0
-98,-181,0,0,0,0,0,0,0,0,0,-1,1126,1205,0,0
-91,-181,0,0,0,0,0,0,0,0,0,-1,1133,1205,0,0
-84,-181,0,0,0,0,0,0,0,0,0,-1,1140,1205,0,0
-77,-181,0,0,0,0,0,0,0,0,0,-1,1147,1205,0,0
-70,-181,0,0,0,0,0,0,0,0,0,-1,1154,1205,0,0
-63,-181,0,0,0,0,0,0,0,0,0,-1,1161,1205,0,0
-56,-181,0,0,0,0,0,0,0,0,0,-1,1168,1205,0,0
-49,-181,0,0,0,0,0,0,0,0,0,-1,1175,1205,0,0
-42,-181,0,0,0,0,0,0,0,0,0,-1,1182,1205,0,0
-35,-181,0,0,0,0,0,0,0,0,0,-1,1189,1205,0,0
-28,-181,0,0,0,0,0,0,0,0,0,-1,1196,1205,0,0
-21,-181,0,0,0,0,0,0,0,0,0,-1,1203,1205,0,0
-14,-181,0,0,0,0,0,0,0,0,0,-1,1210,1205,0,0
-7,-181,0,0,0,0,0,0,0,0,0,-1,1217,1205,0,0
0,-181,0,0,0,0,0,0,0,0,0,-1,1224,1205,0,0
7,-181,0,0,0,0,0,0,0,0,0,-1,1231,1205,0,0
14,-181,0,0,0,0,0,0,0,0,0,-1,1238,1205,0,0
21,-181,0,0,0,0,0,0,0,0,0,-1,1245,1205,0,0
28,-181,0,0,0,0,0,0,0,0,0,-1,1252,1205,0,0
35,-181,0,0,0,0,0,0,0,0,0,-1,1259,1205,0,0
42,-181,0,0,0,0,0,0,0,0,0,-1,1266,1205,0,0
49,-181,0,0,0,0,0,0,0,0,0,-1,1273,1205,0,0
56,-181,0,0,0,0,0,0,0,0,0,-1,1280,1205,0,0
63,-181,0,0,0,0,0,0,0,0,0,-1,1287,1205,0,0
70,-181,0,0,0,0,0,0,0,0,0,-1,1294,1205,0,0
77,-181,0,0,0,0,0,0,0,0,0,-1,1301,1205,0,0
84,-181,0,0,0,0,0,0,0,0,0,-1,1308,1205,0,0
91,-181,0,0,0,0,0,0,0,0,0,-1,1315,1205,0,0
98,-181,0,0,0,0,0,0,0,0,0,-1,1322,1205,0,0
105,-181,0,0,0,0,0,0,0,0,0,-1,1329,1205,0,0
112,-181,0,0,0,0,0,0,0,0,0,-1,1336,1205,0,0
119,-181,0,0,0,0,0,0,0,0,0,-1,1343,1205,0,0
126,-181,0,0,0,0,0,0,0,0,0,-1,1350,1205,0,0
133,-181,0,0,0,0,0,0,0,0,0,-1,1357,1205,0,0
140,-181,0,0,0,0,0,0,0,0,0,-1,1364,1205,0,0
147,-181,0,0,0,0,0,0,0,0,0,-1,1371,1205,0,0
154,-181,0,0,0,0,0,0,0,0,0,-1,1378,1205,0,0
161,-181,0,0,0,0,0,0,0,0,0,-1,1385,1205,0,0
168,-181,0,0,0,0,0,0,0,0,0,-1,1392,1205,0,0
175,-181,0,0,0,0,0,0,0,0,0,-1,1399,1205,0,0
182,-181,0,0,0,0,0,0,0,0,0,-1,1406,1205,0,0
189,-181,0,0,0,0,0,0,0,0,0,-1,1413,1205,0,0
196,-181,0,0,0,0,0,0,0,0,0,-1,1420,1205,0,0
203,-181,0,0,0,0,0,0,0,0,0,-1,1427,1205,0,0
210,-181,0,0,0,0,0,0,0,0,0,-1,1434,1205,0,0
217,-181,0,0,0,0,0,0,0,0,0,-1,1441,1205,0,0
224,-181,0,0,0,0,0,0,0,0,0,-1,1448,1205,0,0
231,-181,0,0,0,0,0,0,0,0,0,-1,1455,1205,0,0
238,-181,0,0,0,0,0,0,0,0,0,-1,1462,1205,0,0
245,-181,0,0,0,0,0,0,0,0,0,-1,1469,1205,0,0
252,-181,0,0,0,0,0,0,0,0,0,-1,1476,1205,0,0
259,-181,0,0,0,0,0,0,0,0,0,-1,1483,1205,0,0
266,-181,0,0,0,0,0,0,0,0,0,-1,1490,1205,0,0
273,-181,0,0,0,0,0,0,0,0,0,-1,1497,1205,0,0
280,-181,0,0,0,0,0,0,0,0,0,-1,1504,1205,0,0
287,-181,0,0,0,0,0,0,0,0,0,-1,1511,1205,0,0
294,-181,0,0,0,0,0,0,0,0,0,-1,1518,1205,0,0
301,-181,0,0,0,0,0,0,0,0,0,-1,1525,1205,0,0
308,-181,0,0,0,0,0,0,0,0,0,-1,1532,1205,0,0
315,-181,0,0,0,0,0,0,0,0,0,-1,1539,1205,0,0
322,-181,0,0,0,0,0,0,0,0,0,-1,1546,1205,0,0
329,-181,0,0,0,0,0,0,0,0,0,-1,1553,1205,0,0
336,-181,0,0,0,0,0,0,0,0,0,-1,1560,1205,0,0
343,-181,0,0,0,0,0,0,0,0,0,-1,1567,1205,0,0
350,-181,0,0,0,0,0,0,0,0,0,-1,1574,1205,0,0
357,-181,0,0,0,0,0,0,0,0,0,-1,1581,1205,0,0
364,-181,0,0,0,0,0,0,0,0,0,-1,1588,1205,0,0
371,-181,0,0,0,0,0,0,0,0,0,-1,1595,1205,0,0
378,-181,0,0,0,0,0,0,0,0,0,-1,1602,1205,0,0
385,-181,0,0,0,0,0,0,0,0,0,-1,1609,1205,0,0
392,-181,0,0,0,0,0,0,0,0,0,-1,1616,1205,0,0
399,-181,0,0,0,0,0,0,0,0,0,-1,1623,1205,0,0
406,-181,0,0,0,0,0,0,0,0,0,-1,1630,1205,0,0
413,-181,0,0,0,0,0,0,0,0,0,-1,1637,1205,0,0
420,-181,0,0,0,0,0,0,0,0,0,-1,1644,1205,0,0
427,-181,0,0,0,0,0,0,0,0,0,-1,1651,1205,0,0
434,-181,0,0,0,0,0,0,0,0,0,-1,1658,1205,0,0
441,-181,0,0,0,0,0,0,0,0,0,-1,1665,1205,0,0
448,-181,0,0,0,0,0,0,0,0,0,-1,1672,1205,0,0
455,-181,0,0,0,0,0,0,0,0,0,-1,1679,1205,0,0
462,-181,0,0,0,0,0,0,0,0,0,-1,1686,1205,0,0
469,-181,0,0,0,0,0,0,0,0,0,-1,1693,1205,0,0
476,-181,0,0,0,0,0,0,0,0,0,-1,1700,1205,0,0
483,-181,0,0,0,0,0,0,0,0,0,-1,1707,1205,0,0
490,-181,0,0,0,0,0,0,0,0,0,-1,1714,1205,0,0
497,-181,0,0,0,0,0,0,0,0,0,-1,1721,1205,0,0
504,-181,0,0,0,0,0,0,0,0,0,-1,1728,1205,0,0
511,-181,0,0,0,0,0,0,0,0,0,-1,1735,1205,0,0
518,-181,0,0,0,0,0,0,0,0,0,-1,1742,1205,0,0
525,-181,0,0,0,0,0,0,0,0,0,-1,1749,1205,0,0
532,-181,0,0,0,0,0,0,0,0,0,-1,1756,1205,0,0
539,-181,0,0,0,0,0,0,0,0,0,-1,1763,1205,0,0
546,-181,0,0,0,0,0,0,0,0,0,-1,1770,1205,0,0
553,-181,0,0,0,0,0,0,0,0,0,-1,1777,1205,0,0
560,-181,0,0,0,0,0,0,0,0,0,-1,1784,1205,0,0
567,-181,0,0,0,0,0,0,0,0,0,-1,1791,1205,0,0
574,-181,0,0,0,0,0,0,0,0,0,-1,1798,1205,0,0
581,-181,0,0,0,0,0,0,0,0,0,-1,1805,1205,0,0
588,-181,0,0,0,0,0,0,0,0,0,-1,1812,1205,0,0
595,-181,0,0,0,0,0,0,0,0,0,-1,1819,1205,0,0
602,-181,0,0,0,0,0,0,0,0,0,-1,1826,1205,0,0
609,-181,0,0,0,0,0,0,0,0,0,-1,1833,1205,0,0
616,-181,0,0,0,0,0,0,0,0,0,-1,1840,1205,0,0
623,-181,0,0,0,0,0,0,0,0,0,-1,1847,1205,0,0
630,-181,70.3372,2.4707,0.00122075,-0.00371944,0.00268143,0.00239639,-0.00489509,0.413199,0.00429134,0.0380375,1854,1205,70.3371,-2.47065
637,-181,70.3185,2.42603,0.00147371,-0.0024567,0.00206833,0.00236157,-0.00334456,0.405479,0.00331069,0.0395237,1861,1205,70.3184,-2.426
644,-181,70.1638,2.38745,0.00168213,-0.000933539,0.00111614,0.00209366,-0.00134507,0.353241,0.00200097,0.0420994,1868,1205,70.1638,-2.38745
651,-181,70.4264,2.55835,0.0019455,0.000805616,-0.000119971,0.00195799,0.000793126,-0.103734,0.00113722,0.0394794,1875,1205,70.4264,-2.55831
658,-181,70.4602,2.6875,0.00204392,0.00231226,-0.00118325,0.00336892,0.000987251,-0.841852,0.00199981,0.0368891,1882,1205,70.4602,-2.68754
665,-181,70.3251,2.55457,0.00191488,0.00319235,-0.00168922,0.00435957,0.000747664,-0.966151,0.00269199,0.0337049,1889,1205,70.3251,-2.5546
672,-181,70.3229,2.43286,0.00182545,0.00341861,-0.0017531,0.00454762,0.000696438,-0.998644,0.00282833,0.0269586,1896,1205,70.3229,-2.43285
679,-181,70.4211,2.33472,0.00168134,0.0030851,-0.0014582,0.00400155,0.000764889,-1.0097,0.00245282,0.0395685,1903,1205,70.4212,-2.33466
686,-181,70.5413,2.25391,0,0,0,0,0,0,0,-1,1910,1205,70.5413,-2.2539
693,-181,36.1301,2.91016,0,0,0,0,0,0,0,-1,1917,1205,36.1302,-2.9102
700,-181,29.5845,6.58398,0,0,0,0,0,0,0,-1,1924,1205,29.5844,-6.58395
707,-181,55.4949,10.6722,0,0,0,0,0,0,0,-1,1931,1205,55.4949,-10.6722
714,-181,55.6268,10.3521,0,0,0,0,0,0,0,-1,1938,1205,55.6268,-10.3521
721,-181,51.2217,9.59631,0,0,0,0,0,0,0,-1,1945,1205,51.2217,-9.59637
728,-181,58.097,9.17065,0,0,0,0,0,0,0,-1,1952,1205,58.097,-9.17061
735,-181,58.0651,8.53247,0.0018063,0.00117364,0.000588681,0.00215826,0.00082168,0.538855,0.00125784,0.0160545,1959,1205,58.0651,-8.53251
742,-181,58.0375,7.92578,0.00225951,0.00120471,0.000850126,0.00273254,0.000731674,0.507762,0.00163338,0.0177048,1966,1205,58.0375,-7.92577
749,-181,58.0005,7.24463,0.00397131,0.00297655,0.000511115,0.00418711,0.00276075,0.399507,0.00245801,0.0161237,1973,1205,58.0005,-7.24469
756,-181,57.9534,6.5896,0.00797538,0.006744,-0.00100663,0.00853967,0.0061797,-0.510933,0.00509213,0.0121115,1980,1205,57.9534,-6.58954
763,-181,57.9628,5.95959,0.0133138,0.0117108,-0.00312623,0.0157396,0.00928495,-0.65991,0.00913612,0.0176872,1987,1205,57.9628,-5.95957
770,-181,58.4839,4.61292,0,0,0,0,0,0,0,-1,1994,1205,58.4839,-4.61293
777,-181,68.1692,-1.57874,0,0,0,0,0,0,0,-1,2001,1205,68.1692,1.57871
784,-181,67.5371,-0.476318,0,0,0,0,0,0,0,-1,2008,1205,67.537,0.476299
791,-181,66.29,1.57324,0,0,0,0,0,0,0,-1,2015,1205,66.29,-1.5732
798,-181,61.2429,4.45374,0,0,0,0,0,0,0,-1,2022,1205,61.243,-4.45375
805,-181,0,0,0,0,0,0,0,0,0,-1,2029,1205,0,0
812,-181,0,0,0,0,0,0,0,0,0,-1,2036,1205,0,0
-700,-188,0,0,0,0,0,0,0,0,0,-1,524,1212,0,0
-693,-188,0,0,0,0,0,0,0,0,0,-1,531,1212,0,0
-686,-188,0,0,0,0,0,0,0,0,0,-1,538,1212,0,0
-679,-188,-42.6035,-0.353394,0,0,0,0,0,0,0,-1,545,1212,-42.6034,0.353413
-672,-188,-43.1812,-0.178345,0,0,0,0,0,0,0,-1,552,1212,-43.1811,0.178377
-665,-188,-42.3648,0.536377,0.0641484,0.0378852,-0.0326428,0.0862019,0.0158317,-0.594162,0.052985,0.048242,559,1212,-42.3648,-0.536388
-658,-188,-41.7537,1.26685,0.0515921,0.0317416,-0.0266754,0.0701289,0.0132048,-0.607297,0.0430317,0.0492,566,1212,-41.7537,-1.2668
-651,-188,-41.358,2.21448,0.0399457,0.0254895,-0.0213145,0.0552244,0.0102109,-0.621925,0.0339287,0.0488685,573,1212,-41.358,-2.21447
-644,-188,-41.2776,3.09436,0.0293468,0.0194872,-0.016553,0.0416885,0.00714553,-0.640671,0.0257432,0.046882,580,1212,-41.2776,-3.09439
-637,-188,-41.1419,3.64417,0.0199617,0.0139096,-0.0123567,0.0296575,0.00421375,-0.665316,0.0185275,0.0247576,587,1212,-41.1419,-3.64417
-630,-188,-41.1976,4.28674,0.0117209,0.0091484,-0.00841729,0.0189497,0.00191966,-0.709579,0.0120443,0.0114227,594,1212,-41.1976,-4.28669
-623,-188,-41.2285,4.98267,0.00507155,0.00482626,-0.00558496,0.0105352,-0.000637396,-0.77442,0.00724529,0.0114763,601,1212,-41.2285,-4.98271
-616,-188,-41.2464,5.66919,0.000286982,0.00157828,-0.00381729,0.00480414,-0.00293887,-0.869174,0.00451346,0.0115305,608,1212,-41.2464,-5.66917
-609,-188,-41.2582,6.3717,-0.00187562,0.000237339,-0.00280154,0.00217498,-0.00381326,-0.965706,0.00350018,0.0147821,615,1212,-41.2582,-6.37175
-602,-188,-41.2188,7.11548,-0.00193275,0.000684872,-0.00281691,0.00248218,-0.00373006,-1.00287,0.00361068,0.0254269,622,1212,-41.2188,-7.11548
-595,-188,-41.1863,7.96472,0,0,0,0,0,0,0,-1,629,1212,-41.1863,-7.96472
-588,-188,-41.6618,8.44958,0.00143553,0.00107959,-0.00388277,0.00514441,-0.00262929,-0.762496,0.00456578,0.0311539,636,1212,-41.6618,-8.44962
-581,-188,-41.666,9.09949,0.00200218,0.000220405,-0.00319917,0.00443219,-0.00220961,-0.649602,0.00390556,0.0331151,643,1212,-41.666,-9.0995
-574,-188,-41.7868,9.67773,0,0,0,0,0,0,0,-1,650,1212,-41.7868,-9.67771
-567,-188,-19.5786,4.10388,0,0,0,0,0,0,0,-1,657,1212,-19.5785,-4.10383
-560,-188,-23.9507,0.416626,0,0,0,0,0,0,0,-1,664,1212,-23.9508,-0.416602
-553,-188,-49.2368,1.03101,0,0,0,0,0,0,0,-1,671,1212,-49.2367,-1.03099
-546,-188,-54.1822,0.613037,0,0,0,0,0,0,0,-1,678,1212,-54.1822,-0.613032
-539,-188,-54.2117,0.644287,0,0,0,0,0,0,0,-1,685,1212,-54.2117,-0.644262
-532,-188,-54.022,0.705444,0,0,0,0,0,0,0,-1,692,1212,-54.022,-0.705489
-525,-188,-54.0754,0.487061,-0.00425626,-0.00627093,0.0031751,-0.00193253,-0.00859466,0.63179,0.00520655,0.0401066,699,1212,-54.0754,-0.487119
-518,-188,-54.0884,0.58313,-0.00577406,-0.00891733,0.00510834,-0.00200106,-0.0126903,0.636163,0.00787837,0.0410442,706,1212,-54.0884,-0.583122
-511,-188,-54.106,0.524414,-0.00684888,-0.011658,0.00686766,-0.00197698,-0.0165299,0.617005,0.0104236,0.0419028,713,1212,-54.1059,-0.524382
-504,-188,0,0,0,0,0,0,0,0,0,-1,720,1212,0,0
-497,-188,0,0,0,0,0,0,0,0,0,-1,727,1212,0,0
-490,-188,0,0,0,0,0,0,0,0,0,-1,734,1212,0,0
-483,-188,0,0,0,0,0,0,0,0,0,-1,741,1212,0,0
-476,-188,0,0,0,0,0,0,0,0,0,-1,748,1212,0,0
-469,-188,0,0,0,0,0,0,0,0,0,-1,755,1212,0,0
-462,-188,0,0,0,0,0,0,0,0,0,-1,762,1212,0,0
-455,-188,0,0,0,0,0,0,0,0,0,-1,769,1212,0,0
-448,-188,0,0,0,0,0,0,0,0,0,-1,776,1212,0,0
-441,-188,0,0,0,0,0,0,0,0,0,-1,783,1212,0,0
-434,-188,0,0,0,0,0,0,0,0,0,-1,790,1212,0,0
-427,-188,0,0,0,0,0,0,0,0,0,-1,797,1212,0,0
-420,-188,0,0,0,0,0,0,0,0,0,-1,804,1212,0,0
-413,-188,0,0,0,0,0,0,0,0,0,-1,811,1212,0,0
-406,-188,0,0,0,0,0,0,0,0,0,-1,818,1212,0,0
-399,-188,0,0,0,0,0,0,0,0,0,-1,825,1212,0,0
-392,-188,0,0,0,0,0,0,0,0,0,-1,832,1212,0,0
-385,-188,0,0,0,0,0,0,0,0,0,-1,839,1212,0,0
-378,-188,0,0,0,0,0,0,0,0,0,-1,846,1212,0,0
-371,-188,0,0,0,0,0,0,0,0,0,-1,853,1212,0,0
-364,-188,0,0,0,0,0,0,0,0,0,-1,860,1212,0,0
-357,-188,0,0,0,0,0,0,0,0,0,-1,867,1212,0,0
-350,-188,0,0,0,0,0,0,0,0,0,-1,874,1212,0,0
-343,-188,0,0,0,0,0,0,0,0,0,-1,881,1212,0,0
-336,-188,0,0,0,0,0,0,0,0,0,-1,888,1212,0,0
-329,-188,0,0,0,0,0,0,0,0,0,-1,895,1212,0,0
-322,-188,0,0,0,0,0,0,0,0,0,-1,902,1212,0,0
-315,-188,0,0,0,0,0,0,0,0,0,-1,909,1212,0,0
-308,-188,0,0,0,0,0,0,0,0,0,-1,916,1212,0,0
-301,-188,0,0,0,0,0,0,0,0,0,-1,923,1212,0,0
-294,-188,0,0,0,0,0,0,0,0,0,-1,930,1212,0,0
-287,-188,0,0,0,0,0,0,0,0,0,-1,937,1212,0,0
-280,-188,0,0,0,0,0,0,0,0,0,-1,944,1212,0,0
-273,-188,0,0,0,0,0,0,0,0,0,-1,951,1212,0,0
-266,-188,0,0,0,0,0,0,0,0,0,-1,958,1212,0,0
-259,-188,0,0,0,0,0,0,0,0,0,-1,965,1212,0,0
-252,-188,0,0,0,0,0,0,0,0,0,-1,972,1212,0,0
-245,-188,0,0,0,0,0,0,0,0,0,-1,979,1212,0,0
-238,-188,0,0,0,0,0,0,0,0,0,-1,986,1212,0,0
-231,-188,0,0,0,0,0,0,0,0,0,-1,993,1212,0,0
-224,-188,0,0,0,0,0,0,0,0,0,-1,1000,1212,0,0
-217,-188,0,0,0,0,0,0,0,0,0,-1,1007,1212,0,0
-210,-188,0,0,0,0,0,0,0,0,0,-1,1014,1212,0,0
-203,-188,0,0,0,0,0,0,0,0,0,-1,1021,1212,0,0
-196,-188,0,0,0,0,0,0,0,0,0,-1,1028,1212,0,0
-189,-188,0,0,0,0,0,0,0,0,0,-1,1035,1212,0,0
-182,-188,0,0,0,0,0,0,0,0,0,-1,1042,1212,0,0
-175,-188,0,0,0,0,0,0,0,0,0,-1,1049,1212,0,0
-168,-188,0,0,0,0,0,0,0,0,0,-1,1056,1212,0,0
-161,-188,0,0,0,0,0,0,0,0,0,-1,1063,1212,0,0
-154,-188,0,0,0,0,0,0,0,0,0,-1,1070,1212,0,0
-147,-188,0,0,0,0,0,0,0,0,0,-1,1077,1212,0,0
-140,-188,0,0,0,0,0,0,0,0,0,-1,1084,1212,0,0
-133,-188,0,0,0,0,0,0,0,0,0,-1,1091,1212,0,0
-126,-188,0,0,0,0,0,0,0,0,0,-1,1098,1212,0,0
-119,-188,0,0,0,0,0,0,0,0,0,-1,1105,1212,0,0
-112,-188,0,0,0,0,0,0,0,0,0,-1,1112,1212,0,0
-105,-188,0,0,0,0,0,0,0,0,0,-1,1119,1212,0,0
-98,-188,0,0,0,0,0,0,0,0,0,-1,1126,1212,0,0
-91,-188,0,0,0,0,0,0,0,0,0,-1,1133,1212,0,0
-84,-188,0,0,0,0,0,0,0,0,0,-1,1140,1212,0,0
-77,-188,0,0,0,0,0,0,0,0,0,-1,1147,1212,0,0
-70,-188,0,0,0,0,0,0,0,0,0,-1,1154,1212,0,0
-63,-188,0,0,0,0,0,0,0,0,0,-1,1161,1212,0,0
-56,-188,0,0,0,0,0,0,0,0,0,-1,1168,1212,0,0
-49,-188,0,0,0,0,0,0,0,0,0,-1,1175,1212,0,0
-42,-188,0,0,0,0,0,0,0,0,0,-1,1182,1212,0,0
-35,-188,0,0,0,0,0,0,0,0,0,-1,1189,1212,0,0
-28,-188,0,0,0,0,0,0,0,0,0,-1,1196,1212,0,0
-21,-188,0,0,0,0,0,0,0,0,0,-1,1203,1212,0,0
-14,-188,0,0,0,0,0,0,0,0,0,-1,1210,1212,0,0
-7,-188,0,0,0,0,0,0,0,0,0,-1,1217,1212,0,0
0,-188,0,0,0,0,0,0,0,0,0,-1,1224,1212,0,0
7,-188,0,0,0,0,0,0,0,0,0,-1,1231,1212,0,0
14,-188,0,0,0,0,0,0,0,0,0,-1,1238,1212,0,0
21,-188,0,0,0,0,0,0,0,0,0,-1,1245,1212,0,0
28,-188,0,0,0,0,0,0,0,0,0,-1,1252,1212,0,0
35,-188,0,0,0,0,0,0,0,0,0,-1,1259,1212,0,0
42,-188,0,0,0,0,0,0,0,0,0,-1,1266,1212,0,0
49,-188,0,0,0,0,0,0,0,0,0,-1,1273,1212,0,0
56,-188,0,0,0,0,0,0,0,0,0,-1,1280,1212,0,0
63,-188,0,0,0,0,0,0,0,0,0,-1,1287,1212,0,0
70,-188,0,0,0,0,0,0,0,0,0,-1,1294,1212,0,0
77,-188,0,0,0,0,0,0,0,0,0,-1,1301,1212,0,0
84,-188,0,0,0,0,0,0,0,0,0,-1,1308,1212,0,0
91,-188,0,0,0,0,0,0,0,0,0,-1,1315,1212,0,0
98,-188,0,0,0,0,0,0,0,0,0,-1,1322,1212,0,0
105,-188,0,0,0,0,0,0,0,0,0,-1,1329,1212,0,0
112,-188,0,0,0,0,0,0,0,0,0,-1,1336,1212,0,0
119,-188,0,0,0,0,0,0,0,0,0,-1,1343,1212,0,0
126,-188,0,0,0,0,0,0,0,0,0,-1,1350,1212,0,0
133,-188,0,0,0,0,0,0,0,0,0,-1,1357,1212,0,0
140,-188,0,0,0,0,0,0,0,0,0,-1,1364,1212,0,0
147,-188,0,0,0,0,0,0,0,0,0,-1,1371,1212,0,0
154,-188,0,0,0,0,0,0,0,0,0,-1,1378,1212,0,0
161,-188,0,0,0,0,0,0,0,0,0,-1,1385,1212,0,0
168,-188,0,0,0,0,0,0,0,0,0,-1,1392,1212,0,0
175,-188,0,0,0,0,0,0,0,0,0,-1,1399,1212,0,0
182,-188,0,0,0,0,0,0,0,0,0,-1,1406,1212,0,0
189,-188,0,0,0,0,0,0,0,0,0,-1,1413,1212,0,0
196,-188,0,0,0,0,0,0,0,0,0,-1,1420,1212,0,0
203,-188,0,0,0,0,0,0,0,0,0,-1,1427,1212,0,0
210,-188,0,0,0,0,0,0,0,0,0,-1,1434,1212,0,0
217,-188,0,0,0,0,0,0,0,0,0,-1,1441,1212,0,0
224,-188,0,0,0,0,0,0,0,0,0,-1,1448,1212,0,0
231,-188,0,0,0,0,0,0,0,0,0,-1,1455,1212,0,0
238,-188,0,0,0,0,0,0,0,0,0,-1,1462,1212,0,0
245,-188,0,0,0,0,0,0,0,0,0,-1,1469,1212,0,0
252,-188,0,0,0,0,0,0,0,0,0,-1,1476,1212,0,0
259,-188,0,0,0,0,0,0,0,0,0,-1,1483,1212,0,0
266,-188,0,0,0,0,0,0,0,0,0,-1,1490,1212,0,0
273,-188,0,0,0,0,0,0,0,0,0,-1,1497,1212,0,0
280,-188,0,0,0,0,0,0,0,0,0,-1,1504,1212,0,0
287,-188,0,0,0,0,0,0,0,0,0,-1,1511,1212,0,0
294,-188,0,0,0,0,0,0,0,0,0,-1,1518,1212,0,0
301,-188,0,0,0,0,0,0,0,0,0,-1,1525,1212,0,0
308,-188,0,0,0,0,0,0,0,0,0,-1,1532,1212,0,0
315,-188,0,0,0,0,0,0,0,0,0,-1,1539,1212,0,0
322,-188,0,0,0,0,0,0,0,0,0,-1,1546,1212,0,0
329,-188,0,0,0,0,0,0,0,0,0,-1,1553,1212,0,0
336,-188,0,0,0,0,0,0,0,0,0,-1,1560,1212,0,0
343,-188,0,0,0,0,0,0,0,0,0,-1,1567,1212,0,0
350,-188,0,0,0,0,0,0,0,0,0,-1,1574,1212,0,0
357,-188,0,0,0,0,0,0,0,0,0,-1,1581,1212,0,0
364,-188,0,0,0,0,0,0,0,0,0,-1,1588,1212,0,0
371,-188,0,0,0,0,0,0,0,0,0,-1,1595,1212,0,0
378,-188,0,0,0,0,0,0,0,0,0,-1,1602,1212,0,0
385,-188,0,0,0,0,0,0,0,0,0,-1,1609,1212,0,0
392,-188,0,0,0,0,0,0,0,0,0,-1,1616,1212,0,0
399,-188,0,0,0,0,0,0,0,0,0,-1,1623,1212,0,0
406,-188,0,0,0,0,0,0,0,0,0,-1,1630,1212,0,0
413,-188,0,0,0,0,0,0,0,0,0,-1,1637,1212,0,0
420,-188,0,0,0,0,0,0,0,0,0,-1,1644,1212,0,0
427,-188,0,0,0,0,0,0,0,0,0,-1,1651,1212,0,0
434,-188,0,0,0,0,0,0,0,0,0,-1,1658,1212,0,0
441,-188,0,0,0,0,0,0,0,0,0,-1,1665,1212,0,0
448,-188,0,0,0,0,0,0,0,0,0,-1,1672,1212,0,0
455,-188,0,0,0,0,0,0,0,0,0,-1,1679,1212,0,0
462,-188,0,0,0,0,0,0,0,0,0,-1,1686,1212,0,0
469,-188,0,0,0,0,0,0,0,0,0,-1,1693,1212,0,0
476,-188,0,0,0,0,0,0,0,0,0,-1,1700,1212,0,0
483,-188,0,0,0,0,0,0,0,0,0,-1,1707,1212,0,0
490,-188,0,0,0,0,0,0,0,0,0,-1,1714,1212,0,0
497,-188,0,0,0,0,0,0,0,0,0,-1,1721,1212,0,0
504,-188,0,0,0,0,0,0,0,0,0,-1,1728,1212,0,0
511,-188,0,0,0,0,0,0,0,0,0,-1,1735,1212,0,0
518,-188,0,0,0,0,0,0,0,0,0,-1,1742,1212,0,0
525,-188,0,0,0,0,0,0,0,0,0,-1,1749,1212,0,0
532,-188,0,0,0,0,0,0,0,0,0,-1,1756,1212,0,0
539,-188,0,0,0,0,0,0,0,0,0,-1,1763,1212,0,0
546,-188,0,0,0,0,0,0,0,0,0,-1,1770,1212,0,0
553,-188,0,0,0,0,0,0,0,0,0,-1,1777,1212,0,0
560,-188,0,0,0,0,0,0,0,0,0,-1,1784,1212,0,0
567,-188,0,0,0,0,0,0,0,0,0,-1,1791,1212,0,0
574,-188,0,0,0,0,0,0,0,0,0,-1,1798,1212,0,0
581,-188,0,0,0,0,0,0,0,0,0,-1,1805,1212,0,0
588,-188,0,0,0,0,0,0,0,0,0,-1,1812,1212,0,0
595,-188,0,0,0,0,0,0,0,0,0,-1,1819,1212,0,0
602,-188,0,0,0,0,0,0,0,0,0,-1,1826,1212,0,0
609,-188,0,0,0,0,0,0,0,0,0,-1,1833,1212,0,0
616,-188,0,0,0,0,0,0,0,0,0,-1,1840,1212,0,0
623,-188,0,0,0,0,0,0,0,0,0,-1,1847,1212,0,0
630,-188,70.4392,2.53979,0.00203018,-0.002225,0.00152911,0.00252267,-0.00271749,0.311585,0.0030261,0.0393752,1854,1212,70.4392,-2.53982
637,-188,70.3981,2.4696,0.0020222,-0.00105799,0.000934722,0.00228366,-0.00131945,0.272748,0.00210494,0.0415963,1861,1212,70.398,-2.46958
644,-188,70.3143,2.43384,0.00203796,0.000374859,2.87174e-05,0.00203845,0.000374363,0.0172605,0.00125296,0.0371975,1868,1212,70.3144,-2.43382
651,-188,70.2921,2.41089,0.00211707,0.00195851,-0.00111078,0.00315139,0.000924185,-0.749772,0.00187058,0.032003,1875,1212,70.2921,-2.41092
658,-188,70.3955,2.36865,0.00196523,0.00296383,-0.00176399,0.00429782,0.000631234,-0.923315,0.0026797,0.0337344,1882,1212,70.3956,-2.36867
665,-188,70.3351,2.43677,0.00167909,0.00318001,-0.00178627,0.00436707,0.000492039,-0.984266,0.00276201,0.0325865,1889,1212,70.3351,-2.43679
672,-188,70.3455,2.35657,0.00158704,0.00288751,-0.00153318,0.00390264,0.000571916,-0.985956,0.00243363,0.027145,1896,1212,70.3454,-2.35661
679,-188,70.3182,2.06128,0,0,0,0,0,0,0,-1,1903,1212,70.3183,-2.06123
686,-188,60.1007,2.41321,0,0,0,0,0,0,0,-1,1910,1212,60.1007,-2.41325
693,-188,35.9054,2.18042,0,0,0,0,0,0,0,-1,1917,1212,35.9054,-2.18038
700,-188,54.452,11.2678,0,0,0,0,0,0,0,-1,1924,1212,54.452,-11.2678
707,-188,57.7205,11.3809,0,0,0,0,0,0,0,-1,1931,1212,57.7205,-11.3808
714,-188,54.7506,10.1539,0,0,0,0,0,0,0,-1,1938,1212,54.7507,-10.1539
721,-188,57.066,10.1368,0,0,0,0,0,0,0,-1,1945,1212,57.066,-10.1369
728,-188,57.3868,9.28357,0.00154527,0.00097569,0.000450534,0.00179348,0.000727482,0.503548,0.0010416,0.0310461,1952,1212,57.3869,-9.28355
735,-188,57.3855,8.59229,0.00171469,0.000888068,0.000744459,0.00215287,0.000449882,0.531992,0.00131127,0.0144673,1959,1212,57.3855,-8.59232
742,-188,57.3529,7.9375,0.00226316,0.00115405,0.000934885,0.00279559,0.000621618,0.517703,0.00169495,0.0161208,1966,1212,57.353,-7.93746
749,-188,57.35,7.28223,0.00394372,0.00293029,0.000616125,0.00423473,0.00263928,0.441267,0.00246956,0.0155051,1973,1212,57.35,-7.28225
756,-188,57.2985,6.61719,0.00755364,0.00626599,-0.000615588,0.00780058,0.00601906,-0.381492,0.00471998,0.0139749,1980,1212,57.2985,-6.61717
763,-188,57.2821,5.95923,0.0123827,0.0107147,-0.00230511,0.0140001,0.00909738,-0.611826,0.00820298,0.0190306,1987,1212,57.2821,-5.9592
770,-188,57.3081,5.29492,0.0193613,0.01706,-0.00512016,0.0234585,0.0129628,-0.674868,0.0135687,0.0460151,1994,1212,57.3081,-5.29494
777,-188,57.5374,4.72034,0,0,0,0,0,0,0,-1,2001,1212,57.5373,-4.72031
784,-188,67.2061,-0.0683594,0,0,0,0,0,0,0,-1,2008,1212,67.2062,0.0683892
791,-188,66.3975,1.17078,0,0,0,0,0,0,0,-1,2015,1212,66.3974,-1.17072
798,-188,65.8904,2.49292,0,0,0,0,0,0,0,-1,2022,1212,65.8905,-2.49295
805,-188,0,0,0,0,0,0,0,0,0,-1,2029,1212,0,0
812,-188,0,0,0,0,0,0,0,0,0,-1,2036,1212,0,0
-700,-195,0,0,0,0,0,0,0,0,0,-1,524,1219,0,0
-693,-195,0,0,0,0,0,0,0,0,0,-1,531,1219,0,0
-686,-195,0,0,0,0,0,0,0,0,0,-1,538,1219,0,0
-679,-195,-41.5242,-0.627319,0,0,0,0,0,0,0,-1,545,1219,-41.5242,0.627289
-672,-195,-42.2682,0.151001,0.0834745,0.0380063,-0.042898,0.10929,0.0121907,-0.541735,0.0691556,0.0485891,552,1219,-42.2682,-0.151019
-665,-195,-41.3283,0.593994,0.0692064,0.0341912,-0.0351391,0.0909579,0.0124397,-0.55428,0.0569467,0.0494984,559,1219,-41.3283,-0.594
-658,-195,-40.5082,1.11267,0,0,0,0,0,0,0,-1,566,1219,-40.5082,-1.11263
-651,-195,-40.5914,2.63855,0,0,0,0,0,0,0,-1,573,1219,-40.5914,-2.6385
-644,-195,-40.4971,3.16736,0.0320969,0.0181589,-0.0173407,0.0438166,0.00643922,-0.594332,0.0273188,0.0457894,580,1219,-40.4971,-3.16733
-637,-195,-40.3826,3.65454,0.0220867,0.0130192,-0.0127784,0.0311118,0.00399416,-0.614926,0.0195463,0.0250977,587,1219,-40.3826,-3.65451
-630,-195,-40.4894,4.31616,0.0134899,0.00861649,-0.00859182,0.0199839,0.00212253,-0.647223,0.0126745,0.0091723,594,1219,-40.4894,-4.31622
-623,-195,-40.5361,5.00806,0.00672964,0.00479566,-0.00565163,0.0114964,2.88975e-05,-0.700669,0.00765466,0.00845786,601,1219,-40.5362,-5.00803
-616,-195,-40.5613,5.70337,0.00169257,0.0016988,-0.0038283,0.00552399,-0.00213262,-0.785805,0.0045628,0.00977004,608,1219,-40.5613,-5.70337
-609,-195,-40.5721,6.4126,-0.000831274,0.000441339,-0.00274483,0.00262265,-0.00301258,-0.899296,0.0032561,0.0182702,615,1219,-40.5721,-6.41265
-602,-195,-40.6024,7.11658,-0.00120225,0.000578134,-0.00267959,0.00251153,-0.00313565,-0.945768,0.00326703,0.0231871,622,1219,-40.6024,-7.11654
-595,-195,-40.6052,7.84412,-0.000352979,0.000766555,-0.00314756,0.00340373,-0.00299016,-0.873399,0.00369409,0.0380984,629,1219,-40.6052,-7.84414
-588,-195,-40.7817,8.63232,0,0,0,0,0,0,0,-1,636,1219,-40.7817,-8.63232
-581,-195,-40.78,9.11011,0,0,0,0,0,0,0,-1,643,1219,-40.78,-9.11005
-574,-195,-41.1481,9.52527,0,0,0,0,0,0,0,-1,650,1219,-41.1481,-9.52524
-567,-195,-20.6388,3.78369,0,0,0,0,0,0,0,-1,657,1219,-20.6388,-3.78369
-560,-195,-20.878,2.10388,0,0,0,0,0,0,0,-1,664,1219,-20.878,-2.10385
-553,-195,-41.595,0.613281,0,0,0,0,0,0,0,-1,671,1219,-41.595,-0.61334
-546,-195,-54.0878,0.794922,0,0,0,0,0,0,0,-1,678,1219,-54.0878,-0.794981
-539,-195,-54.1254,0.645752,0,0,0,0,0,0,0,-1,685,1219,-54.1254,-0.645734
-532,-195,-54.1707,0.475342,-0.00377755,-0.00420812,0.00122108,-0.00275292,-0.00523275,0.698142,0.0030225,0.0354715,692,1219,-54.1707,-0.47533
-525,-195,-54.1795,0.70166,-0.00488194,-0.00574841,0.0022421,-0.0030316,-0.00759875,0.689961,0.0044169,0.0385539,699,1219,-54.1795,-0.701665
-518,-195,-54.2775,0.821899,-0.00564123,-0.00759238,0.00354777,-0.00293734,-0.0102963,0.651223,0.00612454,0.0409696,706,1219,-54.2775,-0.821842
-511,-195,-54.3044,0.850464,-0.00562843,-0.0101411,0.00490285,-0.00248763,-0.0132819,0.569745,0.00815287,0.0418363,713,1219,-54.3044,-0.850445
-504,-195,0,0,0,0,0,0,0,0,0,-1,720,1219,0,0
-497,-195,0,0,0,0,0,0,0,0,0,-1,727,1219,0,0
-490,-195,0,0,0,0,0,0,0,0,0,-1,734,1219,0,0
-483,-195,0,0,0,0,0,0,0,0,0,-1,741,1219,0,0
-476,-195,0,0,0,0,0,0,0,0,0,-1,748,1219,0,0
-469,-195,0,0,0,0,0,0,0,0,0,-1,755,1219,0,0
-462,-195,0,0,0,0,0,0,0,0,0,-1,762,1219,0,0
-455,-195,0,0,0,0,0,0,0,0,0,-1,769,1219,0,0
-448,-195,0,0,0,0,0,0,0,0,0,-1,776,1219,0,0
-441,-195,0,0,0,0,0,0,0,0,0,-1,783,1219,0,0
-434,-195,0,0,0,0,0,0,0,0,0,-1,790,1219,0,0
-427,-195,0,0,0,0,0,0,0,0,0,-1,797,1219,0,0
-420,-195,0,0,0,0,0,0,0,0,0,-1,804,1219,0,0
-413,-195,0,0,0,0,0,0,0,0,0,-1,811,1219,0,0
-406,-195,0,0,0,0,0,0,0,0,0,-1,818,1219,0,0
-399,-195,0,0,0,0,0,0,0,0,0,-1,825,1219,0,0
-392,-195,0,0,0,0,0,0,0,0,0,-1,832,1219,0,0
-385,-195,0,0,0,0,0,0,0,0,0,-1,839,1219,0,0
-378,-195,0,0,0,0,0,0,0,0,0,-1,846,1219,0,0
-371,-195,0,0,0,0,0,0,0,0,0,-1,853,1219,0,0
-364,-195,0,0,0,0,0,0,0,0,0,-1,860,1219,0,0
-357,-195,0,0,0,0,0,0,0,0,0,-1,867,1219,0,0
-350,-195,0,0,0,0,0,0,0,0,0,-1,874,1219,0,0
-343,-195,0,0,0,0,0,0,0,0,0,-1,881,1219,0,0
-336,-195,0,0,0,0,0,0,0,0,0,-1,888,1219,0,0
-329,-195,0,0,0,0,0,0,0,0,0,-1,895,1219,0,0
-322,-195,0,0,0,0,0,0,0,0,0,-1,902,1219,0,0
-315,-195,0,0,0,0,0,0,0,0,0,-1,909,1219,0,0
-308,-195,0,0,0,0,0,0,0,0,0,-1,916,1219,0,0
-301,-195,0,0,0,0,0,0,0,0,0,-1,923,1219,0,0
-294,-195,0,0,0,0,0,0,0,0,0,-1,930,1219,0,0
-287,-195,0,0,0,0,0,0,0,0,0,-1,937,1219,0,0
-280,-195,0,0,0,0,0,0,0,0,0,-1,944,1219,0,0
-273,-195,0,0,0,0,0,0,0,0,0,-1,951,1219,0,0
-266,-195,0,0,0,0,0,0,0,0,0,-1,958,1219,0,0
-259,-195,0,0,0,0,0,0,0,0,0,-1,965,1219,0,0
-252,-195,0,0,0,0,0,0,0,0,0,-1,972,1219,0,0
-245,-195,0,0,0,0,0,0,0,0,0,-1,979,1219,0,0
-238,-195,0,0,0,0,0,0,0,0,0,-1,986,1219,0,0
-231,-195,0,0,0,0,0,0,0,0,0,-1,993,1219,0,0
-224,-195,0,0,0,0,0,0,0,0,0,-1,1000,1219,0,0
-217,-195,0,0,0,0,0,0,0,0,0,-1,1007,1219,0,0
-210,-195,0,0,0,0,0,0,0,0,0,-1,1014,1219,0,0
-203,-195,0,0,0,0,0,0,0,0,0,-1,1021,1219,0,0
-196,-195,0,0,0,0,0,0,0,0,0,-1,1028,1219,0,0
-189,-195,0,0,0,0,0,0,0,0,0,-1,1035,1219,0,0
-182,-195,0,0,0,0,0,0,0,0,0,-1,1042,1219,0,0
-175,-195,0,0,0,0,0,0,0,0,0,-1,1049,1219,0,0
-168,-195,0,0,0,0,0,0,0,0,0,-1,1056,1219,0,0
-161,-195,0,0,0,0,0,0,0,0,0,-1,1063,1219,0,0
-154,-195,0,0,0,0,0,0,0,0,0,-1,1070,1219,0,0
-147,-195,0,0,0,0,0,0,0,0,0,-1,1077,1219,0,0
-140,-195,0,0,0,0,0,0,0,0,0,-1,1084,1219,0,0
-133,-195,0,0,0,0,0,0,0,0,0,-1,1091,1219,0,0
-126,-195,0,0,0,0,0,0,0,0,0,-1,1098,1219,0,0
-119,-195,0,0,0,0,0,0,0,0,0,-1,1105,1219,0,0
-112,-195,0,0,0,0,0,0,0,0,0,-1,1112,1219,0,0
-105,-195,0,0,0,0,0,0,0,0,0,-1,1119,1219,0,0
-98,-195,0,0,0,0,0,0,0,0,0,-1,1126,1219,0,0
-91,-195,0,0,0,0,0,0,0,0,0,-1,1133,1219,0,0
-84,-195,0,0,0,0,0,0,0,0,0,-1,1140,1219,0,0
-77,-195,0,0,0,0,0,0,0,0,0,-1,1147,1219,0,0
-70,-195,0,0,0,0,0,0,0,0,0,-1,1154,1219,0,0
-63,-195,0,0,0,0,0,0,0,0,0,-1,1161,1219,0,0
-56,-195,0,0,0,0,0,0,0,0,0,-1,1168,1219,0,0
-49,-195,0,0,0,0,0,0,0,0,0,-1,1175,1219,0,0
-42,-195,0,0,0,0,0,0,0,0,0,-1,1182,1219,0,0
-35,-195,0,0,0,0,0,0,0,0,0,-1,1189,1219,0,0
-28,-195,0,0,0,0,0,0,0,0,0,-1,1196,1219,0,0
-21,-195,0,0,0,0,0,0,0,0,0,-1,1203,1219,0,0
-14,-195,0,0,0,0,0,0,0,0,0,-1,1210,1219,0,0
-7,-195,0,0,0,0,0,0,0,0,0,-1,1217,1219,0,0
0,-195,0,0,0,0,0,0,0,0,0,-1,1224,1219,0,0
7,-195,0,0,0,0,0,0,0,0,0,-1,1231,1219,0,0
14,-195,0,0,0,0,0,0,0,0,0,-1,1238,1219,0,0
21,-195,0,0,0,0,0,0,0,0,0,-1,1245,1219,0,0
28,-195,0,0,0,0,0,0,0,0,0,-1,1252,1219,0,0
35,-195,0,0,0,0,0,0,0,0,0,-1,1259,1219,0,0
42,-195,0,0,0,0,0,0,0,0,0,-1,1266,1219,0,0
49,-195,0,0,0,0,0,0,0,0,0,-1,1273,1219,0,0
56,-195,0,0,0,0,0,0,0,0,0,-1,1280,1219,0,0
63,-195,0,0,0,0,0,0,0,0,0,-1,1287,1219,0,0
70,-195,0,0,0,0,0,0,0,0,0,-1,1294,1219,0,0
77,-195,0,0,0,0,0,0,0,0,0,-1,1301,1219,0,0
84,-195,0,0,0,0,0,0,0,0,0,-1,1308,1219,0,0
91,-195,0,0,0,0,0,0,0,0,0,-1,1315,1219,0,0
98,-195,0,0,0,0,0,0,0,0,0,-1,1322,1219,0,0
105,-195,0,0,0,0,0,0,0,0,0,-1,1329,1219,0,0
112,-195,0,0,0,0,0,0,0,0,0,-1,1336,1219,0,0
119,-195,0,0,0,0,0,0,0,0,0,-1,1343,1219,0,0
126,-195,0,0,0,0,0,0,0,0,0,-1,1350,1219,0,0
133,-195,0,0,0,0,0,0,0,0,0,-1,1357,1219,0,0
140,-195,0,0,0,0,0,0,0,0,0,-1,1364,1219,0,0
147,-195,0,0,0,0,0,0,0,0,0,-1,1371,1219,0,0
154,-195,0,0,0,0,0,0,0,0,0,-1,1378,1219,0,0
161,-195,0,0,0,0,0,0,0,0,0,-1,1385,1219,0,0
168,-195,0,0,0,0,0,0,0,0,0,-1,1392,1219,0,0
175,-195,0,0,0,0,0,0,0,0,0,-1,1399,1219,0,0
182,-195,0,0,0,0,0,0,0,0,0,-1,1406,1219,0,0
189,-195,0,0,0,0,0,0,0,0,0,-1,1413,1219,0,0
196,-195,0,0,0,0,0,0,0,0,0,-1,1420,1219,0,0
203,-195,0,0,0,0,0,0,0,0,0,-1,1427,1219,0,0
210,-195,0,0,0,0,0,0,0,0,0,-1,1434,1219,0,0
217,-195,0,0,0,0,0,0,0,0,0,-1,1441,1219,0,0
224,-195,0,0,0,0,0,0,0,0,0,-1,1448,1219,0,0
231,-195,0,0,0,0,0,0,0,0,0,-1,1455,1219,0,0
238,-195,0,0,0,0,0,0,0,0,0,-1,1462,1219,0,0
245,-195,0,0,0,0,0,0,0,0,0,-1,1469,1219,0,0
252,-195,0,0,0,0,0,0,0,0,0,-1,1476,1219,0,0
259,-195,0,0,0,0,0,0,0,0,0,-1,1483,1219,0,0
266,-195,0,0,0,0,0,0,0,0,0,-1,1490,1219,0,0
273,-195,0,0,0,0,0,0,0,0,0,-1,1497,1219,0,0
280,-195,0,0,0,0,0,0,0,0,0,-1,1504,1219,0,0
287,-195,0,0,0,0,0,0,0,0,0,-1,1511,1219,0,0
294,-195,0,0,0,0,0,0,0,0,0,-1,1518,1219,0,0
301,-195,0,0,0,0,0,0,0,0,0,-1,1525,1219,0,0
308,-195,0,0,0,0,0,0,0,0,0,-1,1532,1219,0,0
315,-195,0,0,0,0,0,0,0,0,0,-1,1539,1219,0,0
322,-195,0,0,0,0,0,0,0,0,0,-1,1546,1219,0,0
329,-195,0,0,0,0,0,0,0,0,0,-1,1553,1219,0,0
336,-195,0,0,0,0,0,0,0,0,0,-1,1560,1219,0,0
343,-195,0,0,0,0,0,0,0,0,0,-1,1567,1219,0,0
350,-195,0,0,0,0,0,0,0,0,0,-1,1574,1219,0,0
357,-195,0,0,0,0,0,0,0,0,0,-1,1581,1219,0,0
364,-195,0,0,0,0,0,0,0,0,0,-1,1588,1219,0,0
371,-195,0,0,0,0,0,0,0,0,0,-1,1595,1219,0,0
378,-195,0,0,0,0,0,0,0,0,0,-1,1602,1219,0,0
385,-195,0,0,0,0,0,0,0,0,0,-1,1609,1219,0,0
392,-195,0,0,0,0,0,0,0,0,0,-1,1616,1219,0,0
399,-195,0,0,0,0,0,0,0,0,0,-1,1623,1219,0,0
406,-195,0,0,0,0,0,0,0,0,0,-1,1630,1219,0,0
413,-195,0,0,0,0,0,0,0,0,0,-1,1637,1219,0,0
420,-195,0,0,0,0,0,0,0,0,0,-1,1644,1219,0,0
427,-195,0,0,0,0,0,0,0,0,0,-1,1651,1219,0,0
434,-195,0,0,0,0,0,0,0,0,0,-1,1658,1219,0,0
441,-195,0,0,0,0,0,0,0,0,0,-1,1665,1219,0,0
448,-195,0,0,0,0,0,0,0,0,0,-1,1672,1219,0,0
455,-195,0,0,0,0,0,0,0,0,0,-1,1679,1219,0,0
462,-195,0,0,0,0,0,0,0,0,0,-1,1686,1219,0,0
469,-195,0,0,0,0,0,0,0,0,0,-1,1693,1219,0,0
476,-195,0,0,0,0,0,0,0,0,0,-1,1700,1219,0,0
483,-195,0,0,0,0,0,0,0,0,0,-1,1707,1219,0,0
490,-195,0,0,0,0,0,0,0,0,0,-1,1714,1219,0,0
497,-195,0,0,0,0,0,0,0,0,0,-1,1721,1219,0,0
504,-195,0,0,0,0,0,0,0,0,0,-1,1728,1219,0,0
511,-195,0,0,0,0,0,0,0,0,0,-1,1735,1219,0,0
518,-195,0,0,0,0,0,0,0,0,0,-1,1742,1219,0,0
525,-195,0,0,0,0,0,0,0,0,0,-1,1749,1219,0,0
532,-195,0,0,0,0,0,0,0,0,0,-1,1756,1219,0,0
539,-195,0,0,0,0,0,0,0,0,0,-1,1763,1219,0,0
546,-195,0,0,0,0,0,0,0,0,0,-1,1770,1219,0,0
553,-195,0,0,0,0,0,0,0,0,0,-1,1777,1219,0,0
560,-195,0,0,0,0,0,0,0,0,0,-1,1784,1219,0,0
567,-195,0,0,0,0,0,0,0,0,0,-1,1791,1219,0,0
574,-195,0,0,0,0,0,0,0,0,0,-1,1798,1219,0,0
581,-195,0,0,0,0,0,0,0,0,0,-1,1805,1219,0,0
588,-195,0,0,0,0,0,0,0,0,0,-1,1812,1219,0,0
595,-195,0,0,0,0,0,0,0,0,0,-1,1819,1219,0,0
602,-195,0,0,0,0,0,0,0,0,0,-1,1826,1219,0,0
609,-195,0,0,0,0,0,0,0,0,0,-1,1833,1219,0,0
616,-195,0,0,0,0,0,0,0,0,0,-1,1840,1219,0,0
623,-195,0,0,0,0,0,0,0,0,0,-1,1847,1219,0,0
630,-195,70.3743,2.38953,0.00262177,-0.00095633,0.000622729,0.00272705,-0.00106161,0.167481,0.00225673,0.0380652,1854,1219,70.3743,-2.38957
637,-195,70.4269,2.35437,0.00231244,0.00021408,5.08647e-06,0.00231246,0.000214068,0.002424,0.00147547,0.0395534,1861,1219,70.4269,-2.35442
644,-195,70.3555,2.35901,0.00208541,0.00161548,-0.000884438,0.00276556,0.000935329,-0.655566,0.00162432,0.0361387,1868,1219,70.3554,-2.35906
651,-195,70.3307,2.36267,0.0019815,0.00294947,-0.0018704,0.00439749,0.000533473,-0.912001,0.002771,0.0285879,1875,1219,70.3307,-2.36263
658,-195,70.3866,2.36121,0.00171382,0.00332555,-0.00207282,0.00474364,0.000295732,-0.970796,0.00306861,0.0268828,1882,1219,70.3866,-2.36126
665,-195,70.4014,2.40015,0.00147795,0.0029481,-0.00175622,0.00411688,0.000309178,-0.983597,0.00264755,0.0255718,1889,1219,70.4014,-2.40012
672,-195,70.3966,2.15955,0.00148754,0.00231354,-0.00137824,0.00333933,0.000461749,-0.930969,0.00208938,0.038913,1896,1219,70.3965,-2.15951
679,-195,70.3427,1.86499,0,0,0,0,0,0,0,-1,1903,1219,70.3427,-1.86494
686,-195,51.2117,1.94312,0,0,0,0,0,0,0,-1,1910,1219,51.2117,-1.9431
693,-195,24.4368,5.68298,0,0,0,0,0,0,0,-1,1917,1219,24.4368,-5.68293
700,-195,56.9725,12.0028,0,0,0,0,0,0,0,-1,1924,1219,56.9726,-12.0028
707,-195,56.9349,11.2992,0,0,0,0,0,0,0,-1,1931,1219,56.9349,-11.2992
714,-195,56.952,10.7589,0,0,0,0,0,0,0,-1,1938,1219,56.952,-10.7589
721,-195,56.6755,10.0082,0.00124892,0.000894154,0.000172157,0.00131872,0.000824347,0.385227,0.000769269,0.0446168,1945,1219,56.6755,-10.0082
728,-195,56.7147,9.32825,0.00144417,0.000318873,0.000690128,0.00177194,-8.8996e-06,0.443404,0.00118427,0.0127244,1952,1219,56.7148,-9.32822
735,-195,56.724,8.60657,0.00160154,0.000452092,0.000932857,0.0021225,-6.8871e-05,0.509315,0.00143851,0.0141928,1959,1219,56.724,-8.60662
742,-195,56.697,7.97339,0.00203184,0.000876039,0.00116192,0.00275164,0.000156237,0.554629,0.00178463,0.0167939,1966,1219,56.6971,-7.97339
749,-195,56.6743,7.34119,0.0032235,0.00234909,0.0011342,0.00400185,0.00157075,0.601438,0.0023282,0.0155111,1973,1219,56.6744,-7.34119
756,-195,56.6417,6.67346,0.00583963,0.0049272,0.000520159,0.00607529,0.00469153,0.425396,0.00367679,0.0148046,1980,1219,56.6417,-6.67351
763,-195,56.6333,5.96411,0.00951251,0.00848413,-0.000337023,0.00961312,0.00838352,-0.290095,0.00604074,0.0225322,1987,1219,56.6333,-5.96412
770,-195,56.5906,5.44775,0.0152285,0.0139408,-0.0021612,0.0168397,0.0123296,-0.640633,0.0100657,0.0469747,1994,1219,56.5905,-5.44771
777,-195,56.6816,5.15967,0,0,0,0,0,0,0,-1,2001,1219,56.6817,-5.15965
784,-195,66.8708,0.396484,0,0,0,0,0,0,0,-1,2008,1219,66.8709,-0.396515
791,-195,66.4263,1.44348,0,0,0,0,0,0,0,-1,2015,1219,66.4263,-1.44344
798,-195,66.05,2.49902,0,0,0,0,0,0,0,-1,2022,1219,66.0501,-2.499
805,-195,0,0,0,0,0,0,0,0,0,-1,2029,1219,0,0
812,-195,0,0,0,0,0,0,0,0,0,-1,2036,1219,0,0
-700,-202,0,0,0,0,0,0,0,0,0,-1,524,1226,0,0
-693,-202,0,0,0,0,0,0,0,0,0,-1,531,1226,0,0
-686,-202,0,0,0,0,0,0,0,0,0,-1,538,1226,0,0
-679,-202,-40.609,-0.679077,0,0,0,0,0,0,0,-1,545,1226,-40.609,0.67909
-672,-202,-41.1191,0.0892334,0,0,0,0,0,0,0,-1,552,1226,-41.1191,-0.0892198
-665,-202,-40.3919,0.584717,0,0,0,0,0,0,0,-1,559,1226,-40.3919,-0.584675
-658,-202,-38.7341,3.04883,0,0,0,0,0,0,0,-1,566,1226,-38.7341,-3.04878
-651,-202,-38.6968,2.58691,0,0,0,0,0,0,0,-1,573,1226,-38.6969,-2.58695
-644,-202,-39.7303,3.2207,0,0,0,0,0,0,0,-1,580,1226,-39.7303,-3.22064
-637,-202,-39.6584,3.67883,0,0,0,0,0,0,0,-1,587,1226,-39.6584,-3.67886
-630,-202,-39.7872,4.29102,0.014485,0.00798036,-0.00848028,0.0203152,0.00215012,-0.602291,0.0128867,0.0227377,594,1226,-39.7872,-4.29096
-623,-202,-39.8157,5.0022,0.00776709,0.0046299,-0.00547374,0.0118925,0.000504431,-0.645854,0.00776569,0.00951486,601,1226,-39.8157,-5.00219
-616,-202,-39.8256,5.70483,0.00268662,0.00176863,-0.00363345,0.00588995,-0.0014347,-0.722568,0.00448207,0.00886162,608,1226,-39.8256,-5.70486
-609,-202,-39.8425,6.44385,8.5529e-06,0.00060821,-0.00251779,0.00284397,-0.0022272,-0.844661,0.00293505,0.0220282,615,1226,-39.8425,-6.44382
-602,-202,-39.8916,7.12781,-0.00052243,0.000416159,-0.00238959,0.0023821,-0.00248837,-0.88236,0.00281219,0.0217848,622,1226,-39.8916,-7.12782
-595,-202,-40.0325,7.88647,-4.7666e-05,0.000332273,-0.00276469,0.00291351,-0.0026289,-0.819701,0.00320132,0.0221802,629,1226,-40.0325,-7.88644
-588,-202,-40.0933,8.49878,0.00131999,-1.4232e-05,-0.0031199,0.00384331,-0.00253755,-0.680072,0.00370961,0.0240334,636,1226,-40.0933,-8.49873
-581,-202,-39.9836,9.08557,0,0,0,0,0,0,0,-1,643,1226,-39.9836,-9.08559
-574,-202,-40.1091,9.70337,0,0,0,0,0,0,0,-1,650,1226,-40.1091,-9.70337
-567,-202,-22.1768,4.56995,0,0,0,0,0,0,0,-1,657,1226,-22.1768,-4.56991
-560,-202,-10.929,2.73096,0,0,0,0,0,0,0,-1,664,1226,-10.929,-2.73092
-553,-202,-30.2701,1.474,0,0,0,0,0,0,0,-1,671,1226,-30.2701,-1.47395
-546,-202,-53.2803,0.580933,0,0,0,0,0,0,0,-1,678,1226,-53.2803,-0.580945
-539,-202,-54.0632,0.664185,0,0,0,0,0,0,0,-1,685,1226,-54.0632,-0.664238
-532,-202,-54.1075,0.543823,-0.00439251,-0.00483617,0.00113123,-0.00346157,-0.00576711,0.688577,0.00335187,0.0305702,692,1226,-54.1076,-0.543792
-525,-202,-54.3267,0.796997,-0.00517062,-0.00559092,0.0013418,-0.00402262,-0.00673893,0.70772,0.00391501,0.0354967,699,1226,-54.3267,-0.797043
-518,-202,-54.5107,1.047,0,0,0,0,0,0,0,-1,706,1226,-54.5107,-1.04699
-511,-202,-54.441,0.943115,0,0,0,0,0,0,0,-1,713,1226,-54.441,-0.943079
-504,-202,0,0,0,0,0,0,0,0,0,-1,720,1226,0,0
-497,-202,0,0,0,0,0,0,0,0,0,-1,727,1226,0,0
-490,-202,0,0,0,0,0,0,0,0,0,-1,734,1226,0,0
-483,-202,0,0,0,0,0,0,0,0,0,-1,741,1226,0,0
-476,-202,0,0,0,0,0,0,0,0,0,-1,748,1226,0,0
-469,-202,0,0,0,0,0,0,0,0,0,-1,755,1226,0,0
-462,-202,0,0,0,0,0,0,0,0,0,-1,762,1226,0,0
-455,-202,0,0,0,0,0,0,0,0,0,-1,769,1226,0,0
-448,-202,0,0,0,0,0,0,0,0,0,-1,776,1226,0,0
-441,-202,0,0,0,0,0,0,0,0,0,-1,783,1226,0,0
-434,-202,0,0,0,0,0,0,0,0,0,-1,790,1226,0,0
-427,-202,0,0,0,0,0,0,0,0,0,-1,797,1226,0,0
-420,-202,0,0,0,0,0,0,0,0,0,-1,804,1226,0,0
-413,-202,0,0,0,0,0,0,0,0,0,-1,811,1226,0,0
-406,-202,0,0,0,0,0,0,0,0,0,-1,818,1226,0,0
-399,-202,0,0,0,0,0,0,0,0,0,-1,825,1226,0,0
-392,-202,0,0,0,0,0,0,0,0,0,-1,832,1226,0,0
-385,-202,0,0,0,0,0,0,0,0,0,-1,839,1226,0,0
-378,-202,0,0,0,0,0,0,0,0,0,-1,846,1226,0,0
-371,-202,0,0,0,0,0,0,0,0,0,-1,853,1226,0,0
-364,-202,0,0,0,0,0,0,0,0,0,-1,860,1226,0,0
-357,-202,0,0,0,0,0,0,0,0,0,-1,867,1226,0,0
-350,-202,0,0,0,0,0,0,0,0,0,-1,874,1226,0,0
-343,-202,0,0,0,0,0,0,0,0,0,-1,881,1226,0,0
-336,-202,0,0,0,0,0,0,0,0,0,-1,888,1226,0,0
-329,-202,0,0,0,0,0,0,0,0,0,-1,895,1226,0,0
-322,-202,0,0,0,0,0,0,0,0,0,-1,902,1226,0,0
-315,-202,0,0,0,0,0,0,0,0,0,-1,909,1226,0,0
-308,-202,0,0,0,0,0,0,0,0,0,-1,916,1226,0,0
-301,-202,0,0,0,0,0,0,0,0,0,-1,923,1226,0,0
-294,-202,0,0,0,0,0,0,0,0,0,-1,930,1226,0,0
-287,-202,0,0,0,0,0,0,0,0,0,-1,937,1226,0,0
-280,-202,0,0,0,0,0,0,0,0,0,-1,944,1226,0,0
-273,-202,0,0,0,0,0,0,0,0,0,-1,951,1226,0,0
-266,-202,0,0,0,0,0,0,0,0,0,-1,958,1226,0,0
-259,-202,0,0,0,0,0,0,0,0,0,-1,965,1226,0,0
-252,-202,0,0,0,0,0,0,0,0,0,-1,972,1226,0,0
-245,-202,0,0,0,0,0,0,0,0,0,-1,979,1226,0,0
-238,-202,0,0,0,0,0,0,0,0,0,-1,986,1226,0,0
-231,-202,0,0,0,0,0,0,0,0,0,-1,993,1226,0,0
-224,-202,0,0,0,0,0,0,0,0,0,-1,1000,1226,0,0
-217,-202,0,0,0,0,0,0,0,0,0,-1,1007,1226,0,0
-210,-202,0,0,0,0,0,0,0,0,0,-1,1014,1226,0,0
-203,-202,0,0,0,0,0,0,0,0,0,-1,1021,1226,0,0
-196,-202,0,0,0,0,0,0,0,0,0,-1,1028,1226,0,0
-189,-202,0,0,0,0,0,0,0,0,0,-1,1035,1226,0,0
-182,-202,0,0,0,0,0,0,0,0,0,-1,1042,1226,0,0
-175,-202,0,0,0,0,0,0,0,0,0,-1,1049,1226,0,0
-168,-202,0,0,0,0,0,0,0,0,0,-1,1056,1226,0,0
-161,-202,0,0,0,0,0,0,0,0,0,-1,1063,1226,0,0
-154,-202,0,0,0,0,0,0,0,0,0,-1,1070,1226,0,0
-147,-202,0,0,0,0,0,0,0,0,0,-1,1077,1226,0,0
-140,-202,0,0,0,0,0,0,0,0,0,-1,1084,1226,0,0
-133,-202,0,0,0,0,0,0,0,0,0,-1,1091,1226,0,0
-126,-202,0,0,0,0,0,0,0,0,0,-1,1098,1226,0,0
-119,-202,0,0,0,0,0,0,0,0,0,-1,1105,1226,0,0
-112,-202,0,0,0,0,0,0,0,0,0,-1,1112,1226,0,0
-105,-202,0,0,0,0,0,0,0,0,0,-1,1119,1226,0,0
-98,-202,0,0,0,0,0,0,0,0,0,-1,1126,1226,0,0
-91,-202,0,0,0,0,0,0,0,0,0,-1,1133,1226,0,0
-84,-202,0,0,0,0,0,0,0,0,0,-1,1140,1226,0,0
-77,-202,0,0,0,0,0,0,0,0,0,-1,1147,1226,0,0
-70,-202,0,0,0,0,0,0,0,0,0,-1,1154,1226,0,0
-63,-202,0,0,0,0,0,0,0,0,0,-1,1161,1226,0,0
-56,-202,0,0,0,0,0,0,0,0,0,-1,1168,1226,0,0
-49,-202,0,0,0,0,0,0,0,0,0,-1,1175,1226,0,0
-42,-202,0,0,0,0,0,0,0,0,0,-1,1182,1226,0,0
-35,-202,0,0,0,0,0,0,0,0,0,-1,1189,1226,0,0
-28,-202,0,0,0,0,0,0,0,0,0,-1,1196,1226,0,0
-21,-202,0,0,0,0,0,0,0,0,0,-1,1203,1226,0,0
-14,-202,0,0,0,0,0,0,0,0,0,-1,1210,1226,0,0
-7,-202,0,0,0,0,0,0,0,0,0,-1,1217,1226,0,0
0,-202,0,0,0,0,0,0,0,0,0,-1,1224,1226,0,0
7,-202,0,0,0,0,0,0,0,0,0,-1,1231,1226,0,0
14,-202,0,0,0,0,0,0,0,0,0,-1,1238,1226,0,0
21,-202,0,0,0,0,0,0,0,0,0,-1,1245,1226,0,0
28,-202,0,0,0,0,0,0,0,0,0,-1,1252,1226,0,0
35,-202,0,0,0,0,0,0,0,0,0,-1,1259,1226,0,0
42,-202,0,0,0,0,0,0,0,0,0,-1,1266,1226,0,0
49,-202,0,0,0,0,0,0,0,0,0,-1,1273,1226,0,0
56,-202,0,0,0,0,0,0,0,0,0,-1,1280,1226,0,0
63,-202,0,0,0,0,0,0,0,0,0,-1,1287,1226,0,0
70,-202,0,0,0,0,0,0,0,0,0,-1,1294,1226,0,0
77,-202,0,0,0,0,0,0,0,0,0,-1,1301,1226,0,0
84,-202,0,0,0,0,0,0,0,0,0,-1,1308,1226,0,0
91,-202,0,0,0,0,0,0,0,0,0,-1,1315,1226,0,0
98,-202,0,0,0,0,0,0,0,0,0,-1,1322,1226,0,0
105,-202,0,0,0,0,0,0,0,0,0,-1,1329,1226,0,0
112,-202,0,0,0,0,0,0,0,0,0,-1,1336,1226,0,0
119,-202,0,0,0,0,0,0,0,0,0,-1,1343,1226,0,0
126,-202,0,0,0,0,0,0,0,0,0,-1,1350,1226,0,0
133,-202,0,0,0,0,0,0,0,0,0,-1,1357,1226,0,0
140,-202,0,0,0,0,0,0,0,0,0,-1,1364,1226,0,0
147,-202,0,0,0,0,0,0,0,0,0,-1,1371,1226,0,0
154,-202,0,0,0,0,0,0,0,0,0,-1,1378,1226,0,0
161,-202,0,0,0,0,0,0,0,0,0,-1,1385,1226,0,0
168,-202,0,0,0,0,0,0,0,0,0,-1,1392,1226,0,0
175,-202,0,0,0,0,0,0,0,0,0,-1,1399,1226,0,0
182,-202,0,0,0,0,0,0,0,0,0,-1,1406,1226,0,0
189,-202,0,0,0,0,0,0,0,0,0,-1,1413,1226,0,0
196,-202,0,0,0,0,0,0,0,0,0,-1,1420,1226,0,0
203,-202,0,0,0,0,0,0,0,0,0,-1,1427,1226,0,0
210,-202,0,0,0,0,0,0,0,0,0,-1,1434,1226,0,0
217,-202,0,0,0,0,0,0,0,0,0,-1,1441,1226,0,0
224,-202,0,0,0,0,0,0,0,0,0,-1,1448,1226,0,0
231,-202,0,0,0,0,0,0,0,0,0,-1,1455,1226,0,0
238,-202,0,0,0,0,0,0,0,0,0,-1,1462,1226,0,0
245,-202,0,0,0,0,0,0,0,0,0,-1,1469,1226,0,0
252,-202,0,0,0,0,0,0,0,0,0,-1,1476,1226,0,0
259,-202,0,0,0,0,0,0,0,0,0,-1,1483,1226,0,0
266,-202,0,0,0,0,0,0,0,0,0,-1,1490,1226,0,0
273,-202,0,0,0,0,0,0,0,0,0,-1,1497,1226,0,0
280,-202,0,0,0,0,0,0,0,0,0,-1,1504,1226,0,0
287,-202,0,0,0,0,0,0,0,0,0,-1,1511,1226,0,0
294,-202,0,0,0,0,0,0,0,0,0,-1,1518,1226,0,0
301,-202,0,0,0,0,0,0,0,0,0,-1,1525,1226,0,0
308,-202,0,0,0,0,0,0,0,0,0,-1,1532,1226,0,0
315,-202,0,0,0,0,0,0,0,0,0,-1,1539,1226,0,0
322,-202,0,0,0,0,0,0,0,0,0,-1,1546,1226,0,0
329,-202,0,0,0,0,0,0,0,0,0,-1,1553,1226,0,0
336,-202,0,0,0,0,0,0,0,0,0,-1,1560,1226,0,0
343,-202,0,0,0,0,0,0,0,0,0,-1,1567,1226,0,0
350,-202,0,0,0,0,0,0,0,0,0,-1,1574,1226,0,0
357,-202,0,0,0,0,0,0,0,0,0,-1,1581,1226,0,0
364,-202,0,0,0,0,0,0,0,0,0,-1,1588,1226,0,0
371,-202,0,0,0,0,0,0,0,0,0,-1,1595,1226,0,0
378,-202,0,0,0,0,0,0,0,0,0,-1,1602,1226,0,0
385,-202,0,0,0,0,0,0,0,0,0,-1,1609,1226,0,0
392,-202,0,0,0,0,0,0,0,0,0,-1,1616,1226,0,0
399,-202,0,0,0,0,0,0,0,0,0,-1,1623,1226,0,0
406,-202,0,0,0,0,0,0,0,0,0,-1,1630,1226,0,0
413,-202,0,0,0,0,0,0,0,0,0,-1,1637,1226,0,0
420,-202,0,0,0,0,0,0,0,0,0,-1,1644,1226,0,0
427,-202,0,0,0,0,0,0,0,0,0,-1,1651,1226,0,0
434,-202,0,0,0,0,0,0,0,0,0,-1,1658,1226,0,0
441,-202,0,0,0,0,0,0,0,0,0,-1,1665,1226,0,0
448,-202,0,0,0,0,0,0,0,0,0,-1,1672,1226,0,0
455,-202,0,0,0,0,0,0,0,0,0,-1,1679,1226,0,0
462,-202,0,0,0,0,0,0,0,0,0,-1,1686,1226,0,0
469,-202,0,0,0,0,0,0,0,0,0,-1,1693,1226,0,0
476,-202,0,0,0,0,0,0,0,0,0,-1,1700,1226,0,0
483,-202,0,0,0,0,0,0,0,0,0,-1,1707,1226,0,0
490,-202,0,0,0,0,0,0,0,0,0,-1,1714,1226,0,0
497,-202,0,0,0,0,0,0,0,0,0,-1,1721,1226,0,0
504,-202,0,0,0,0,0,0,0,0,0,-1,1728,1226,0,0
511,-202,0,0,0,0,0,0,0,0,0,-1,1735,1226,0,0
518,-202,0,0,0,0,0,0,0,0,0,-1,1742,1226,0,0
525,-202,0,0,0,0,0,0,0,0,0,-1,1749,1226,0,0
532,-202,0,0,0,0,0,0,0,0,0,-1,1756,1226,0,0
539,-202,0,0,0,0,0,0,0,0,0,-1,1763,1226,0,0
546,-202,0,0,0,0,0,0,0,0,0,-1,1770,1226,0,0
553,-202,0,0,0,0,0,0,0,0,0,-1,1777,1226,0,0
560,-202,0,0,0,0,0,0,0,0,0,-1,1784,1226,0,0
567,-202,0,0,0,0,0,0,0,0,0,-1,1791,1226,0,0
574,-202,0,0,0,0,0,0,0,0,0,-1,1798,1226,0,0
581,-202,0,0,0,0,0,0,0,0,0,-1,1805,1226,0,0
588,-202,0,0,0,0,0,0,0,0,0,-1,1812,1226,0,0
595,-202,0,0,0,0,0,0,0,0,0,-1,1819,1226,0,0
602,-202,0,0,0,0,0,0,0,0,0,-1,1826,1226,0,0
609,-202,0,0,0,0,0,0,0,0,0,-1,1833,1226,0,0
616,-202,0,0,0,0,0,0,0,0,0,-1,1840,1226,0,0
623,-202,0,0,0,0,0,0,0,0,0,-1,1847,1226,0,0
630,-202,70.3215,2.45569,0.00284822,0.000354182,-0.000207466,0.00286536,0.000337041,-0.0824297,0.00180839,0.0364247,1854,1226,70.3215,-2.45567
637,-202,70.3937,2.39612,0.00190312,0.00160907,-0.000947427,0.00271486,0.000797328,-0.708421,0.00161129,0.036218,1861,1226,70.3937,-2.3961
644,-202,70.384,2.38477,0.00120286,0.0029547,-0.00186451,0.00413879,1.87757e-05,-1.00499,0.00275296,0.0348469,1868,1226,70.384,-2.38482
651,-202,70.42,2.37524,0.000878139,0.00387531,-0.00264072,0.00541303,-0.000659578,-1.04349,0.00384744,0.0285752,1875,1226,70.42,-2.3753
658,-202,70.4443,2.33936,0.000692214,0.0035717,-0.0023985,0.00492939,-0.000665477,-1.05571,0.00352907,0.024975,1882,1226,70.4443,-2.33937
665,-202,70.4594,2.34424,0.000718633,0.00277728,-0.00183395,0.00385102,-0.000355112,-1.04112,0.00269353,0.0240463,1889,1226,70.4594,-2.34427
672,-202,70.5677,2.23828,0,0,0,0,0,0,0,-1,1896,1226,70.5678,-2.23833
679,-202,70.1797,2.4928,0,0,0,0,0,0,0,-1,1903,1226,70.1796,-2.49282
686,-202,49.1708,2.15198,0,0,0,0,0,0,0,-1,1910,1226,49.1708,-2.15195
693,-202,52.1176,12.0886,0,0,0,0,0,0,0,-1,1917,1226,52.1176,-12.0886
700,-202,56.2804,12.0548,0,0,0,0,0,0,0,-1,1924,1226,56.2803,-12.0548
707,-202,56.1949,11.2134,0.00086332,0.000349722,-0.000339102,0.00103189,0.000181155,-0.461323,0.000636195,0.0324025,1931,1226,56.1949,-11.2133
714,-202,56.0886,10.637,0.000856736,0.000369151,-4.62232e-05,0.000861079,0.000364808,-0.0936884,0.000499072,0.0373533,1938,1226,56.0887,-10.637
721,-202,56.0974,10.0918,0.000889718,-1.31463e-05,0.00048615,0.00110171,-0.000225139,0.411205,0.00081989,0.0261288,1945,1226,56.0974,-10.0918
728,-202,56.0885,9.31702,0.001018,-0.000450711,0.000978728,0.00150724,-0.00093995,0.463546,0.00142549,0.0124899,1952,1226,56.0885,-9.31704
735,-202,56.0674,8.64685,0.0010825,-0.000136419,0.00120847,0.0018265,-0.000880416,0.551848,0.00159434,0.0128156,1959,1226,56.0673,-8.64689
742,-202,56.0237,7.97852,0.00137667,0.000414497,0.00148965,0.00246099,-0.000669822,0.629208,0.00190363,0.0135952,1966,1226,56.0236,-7.97853
749,-202,55.9506,7.3125,0.00218695,0.00158528,0.00173476,0.00364676,0.00012546,0.699544,0.00239045,0.0130952,1973,1226,55.9506,-7.31245
756,-202,55.9608,6.67029,0.00404375,0.00342475,0.00167747,0.00544004,0.00202847,0.694172,0.00317446,0.0125959,1980,1226,55.9608,-6.67032
763,-202,56.045,6.05115,0.00678581,0.00600426,0.00160768,0.00804953,0.00474054,0.666177,0.00467183,0.0266188,1987,1226,56.045,-6.05117
770,-202,56.2065,5.69666,0,0,0,0,0,0,0,-1,1994,1226,56.2066,-5.69661
777,-202,67.5615,-0.236572,0,0,0,0,0,0,0,-1,2001,1226,67.5615,0.236573
784,-202,66.7117,0.754517,0,0,0,0,0,0,0,-1,2008,1226,66.7118,-0.754543
791,-202,66.512,1.74207,0,0,0,0,0,0,0,-1,2015,1226,66.512,-1.74201
798,-202,51.8999,3.58789,0,0,0,0,0,0,0,-1,2022,1226,51.9,-3.58791
805,-202,0,0,0,0,0,0,0,0,0,-1,2029,1226,0,0
812,-202,0,0,0,0,0,0,0,0,0,-1,2036,1226,0,0
-700,-209,0,0,0,0,0,0,0,0,0,-1,524,1233,0,0
-693,-209,0,0,0,0,0,0,0,0,0,-1,531,1233,0,0
-686,-209,0,0,0,0,0,0,0,0,0,-1,538,1233,0,0
-679,-209,-36.337,1.48828,0,0,0,0,0,0,0,-1,545,1233,-36.337,-1.48828
-672,-209,-40.1313,-0.0955811,0,0,0,0,0,0,0,-1,552,1233,-40.1313,0.0955687
-665,-209,-38.1835,2.77393,0,0,0,0,0,0,0,-1,559,1233,-38.1835,-2.7739
-658,-209,-40.528,2.2196,0,0,0,0,0,0,0,-1,566,1233,-40.528,-2.21965
-651,-209,-37.7562,3.28711,0,0,0,0,0,0,0,-1,573,1233,-37.7562,-3.28708
-644,-209,-43.4648,-7.04663,0,0,0,0,0,0,0,-1,580,1233,-43.4648,7.04659
-637,-209,-39.0131,3.66833,0,0,0,0,0,0,0,-1,587,1233,-39.0131,-3.66831
-630,-209,-38.9877,4.31702,0.0151638,0.00746109,-0.00825212,0.0204191,0.00220584,-0.567066,0.0129403,0.0408443,594,1233,-38.9877,-4.31706
-623,-209,-39.0759,5.02344,0.00852261,0.00453357,-0.00517458,0.0120738,0.000982428,-0.601449,0.0077425,0.0180667,601,1233,-39.0759,-5.02346
-616,-209,-39.0901,5.7417,0.00343928,0.00194016,-0.00331869,0.006092,-0.000712565,-0.674332,0.0043185,0.0127643,608,1233,-39.0902,-5.74172
-609,-209,-39.1201,6.45483,0.000618812,0.000849958,-0.00219518,0.0029326,-0.00146383,-0.811698,0.00258507,0.014886,615,1233,-39.1201,-6.45489
-602,-209,-39.1747,7.14807,-4.91399e-05,0.000455146,-0.00200674,0.00222552,-0.00181951,-0.847895,0.00233932,0.0170124,622,1233,-39.1748,-7.14813
-595,-209,-39.2205,7.86047,0.000115986,8.9267e-05,-0.00231405,0.00241672,-0.00221147,-0.782512,0.00267296,0.0157579,629,1233,-39.2205,-7.86049
-588,-209,-39.3453,8.59375,0.00110151,-0.000672898,-0.00261975,0.00298022,-0.0025516,-0.62213,0.00319699,0.0344447,636,1233,-39.3452,-8.59375
-581,-209,-39.243,9.0105,0,0,0,0,0,0,0,-1,643,1233,-39.243,-9.01046
-574,-209,-33.4955,9.52966,0,0,0,0,0,0,0,-1,650,1233,-33.4955,-9.52972
-567,-209,-26.2951,6.92981,0,0,0,0,0,0,0,-1,657,1233,-26.2951,-6.92986
-560,-209,-13.9294,4.16626,0,0,0,0,0,0,0,-1,664,1233,-13.9294,-4.16621
-553,-209,-22.7542,0.748779,0,0,0,0,0,0,0,-1,671,1233,-22.7541,-0.748796
-546,-209,-44.691,0.142822,0,0,0,0,0,0,0,-1,678,1233,-44.6911,-0.142844
-539,-209,-53.787,0.277954,0,0,0,0,0,0,0,-1,685,1233,-53.787,-0.278003
-532,-209,-53.9354,0.477783,-0.00469488,-0.00467345,0.000495551,-0.0041885,-0.00517983,0.796208,0.00317479,0.0363861,692,1233,-53.9354,-0.477762
-525,-209,-54.112,0.60791,-0.00511983,-0.00487753,6.14734e-05,-0.00486282,-0.00513453,1.33601,0.00333614,0.0362543,699,1233,-54.112,-0.60785
-518,-209,-54.3101,0.75415,-0.00468907,-0.00450494,-0.000459974,-0.00412791,-0.0050661,-0.884168,0.00311217,0.0423301,706,1233,-54.3101,-0.754123
-511,-209,-54.4058,0.860229,-0.00263723,-0.00445756,-0.000830196,-0.00231548,-0.00477932,-0.36974,0.00275978,0.0404414,713,1233,-54.4058,-0.860177
-504,-209,0,0,0,0,0,0,0,0,0,-1,720,1233,0,0
-497,-209,0,0,0,0,0,0,0,0,0,-1,727,1233,0,0
-490,-209,0,0,0,0,0,0,0,0,0,-1,734,1233,0,0
-483,-209,0,0,0,0,0,0,0,0,0,-1,741,1233,0,0
-476,-209,0,0,0,0,0,0,0,0,0,-1,748,1233,0,0
-469,-209,0,0,0,0,0,0,0,0,0,-1,755,1233,0,0
-462,-209,0,0,0,0,0,0,0,0,0,-1,762,1233,0,0
-455,-209,0,0,0,0,0,0,0,0,0,-1,769,1233,0,0
-448,-209,0,0,0,0,0,0,0,0,0,-1,776,1233,0,0
-441,-209,0,0,0,0,0,0,0,0,0,-1,783,1233,0,0
-434,-209,0,0,0,0,0,0,0,0,0,-1,790,1233,0,0
-427,-209,0,0,0,0,0,0,0,0,0,-1,797,1233,0,0
-420,-209,0,0,0,0,0,0,0,0,0,-1,804,1233,0,0
-413,-209,0,0,0,0,0,0,0,0,0,-1,811,1233,0,0
-406,-209,0,0,0,0,0,0,0,0,0,-1,818,1233,0,0
-399,-209,0,0,0,0,0,0,0,0,0,-1,825,1233,0,0
-392,-209,0,0,0,0,0,0,0,0,0,-1,832,1233,0,0
-385,-209,0,0,0,0,0,0,0,0,0,-1,839,1233,0,0
-378,-209,0,0,0,0,0,0,0,0,0,-1,846,1233,0,0
-371,-209,0,0,0,0,0,0,0,0,0,-1,853,1233,0,0
-364,-209,0,0,0,0,0,0,0,0,0,-1,860,1233,0,0
-357,-209,0,0,0,0,0,0,0,0,0,-1,867,1233,0,0
-350,-209,0,0,0,0,0,0,0,0,0,-1,874,1233,0,0
-343,-209,0,0,0,0,0,0,0,0,0,-1,881,1233,0,0
-336,-209,0,0,0,0,0,0,0,0,0,-1,888,1233,0,0
-329,-209,0,0,0,0,0,0,0,0,0,-1,895,1233,0,0
-322,-209,0,0,0,0,0,0,0,0,0,-1,902,1233,0,0
-315,-209,0,0,0,0,0,0,0,0,0,-1,909,1233,0,0
-308,-209,0,0,0,0,0,0,0,0,0,-1,916,1233,0,0
-301,-209,0,0,0,0,0,0,0,0,0,-1,923,1233,0,0
-294,-209,0,0,0,0,0,0,0,0,0,-1,930,1233,0,0
-287,-209,0,0,0,0,0,0,0,0,0,-1,937,1233,0,0
-280,-209,0,0,0,0,0,0,0,0,0,-1,944,1233,0,0
-273,-209,0,0,0,0,0,0,0,0,0,-1,951,1233,0,0
-266,-209,0,0,0,0,0,0,0,0,0,-1,958,1233,0,0
-259,-209,0,0,0,0,0,0,0,0,0,-1,965,1233,0,0
-252,-209,0,0,0,0,0,0,0,0,0,-1,972,1233,0,0
-245,-209,0,0,0,0,0,0,0,0,0,-1,979,1233,0,0
-238,-209,0,0,0,0,0,0,0,0,0,-1,986,1233,0,0
-231,-209,0,0,0,0,0,0,0,0,0,-1,993,1233,0,0
-224,-209,0,0,0,0,0,0,0,0,0,-1,1000,1233,0,0
-217,-209,0,0,0,0,0,0,0,0,0,-1,1007,1233,0,0
-210,-209,0,0,0,0,0,0,0,0,0,-1,1014,1233,0,0
-203,-209,0,0,0,0,0,0,0,0,0,-1,1021,1233,0,0
-196,-209,0,0,0,0,0,0,0,0,0,-1,1028,1233,0,0
-189,-209,0,0,0,0,0,0,0,0,0,-1,1035,1233,0,0
-182,-209,0,0,0,0,0,0,0,0,0,-1,1042,1233,0,0
-175,-209,0,0,0,0,0,0,0,0,0,-1,1049,1233,0,0
-168,-209,0,0,0,0,0,0,0,0,0,-1,1056,1233,0,0
-161,-209,0,0,0,0,0,0,0,0,0,-1,1063,1233,0,0
-154,-209,0,0,0,0,0,0,0,0,0,-1,1070,1233,0,0
-147,-209,0,0,0,0,0,0,0,0,0,-1,1077,1233,0,0
-140,-209,0,0,0,0,0,0,0,0,0,-1,1084,1233,0,0
-133,-209,0,0,0,0,0,0,0,0,0,-1,1091,1233,0,0
-126,-209,0,0,0,0,0,0,0,0,0,-1,1098,1233,0,0
-119,-209,0,0,0,0,0,0,0,0,0,-1,1105,1233,0,0
-112,-209,0,0,0,0,0,0,0,0,0,-1,1112,1233,0,0
-105,-209,0,0,0,0,0,0,0,0,0,-1,1119,1233,0,0
-98,-209,0,0,0,0,0,0,0,0,0,-1,1126,1233,0,0
-91,-209,0,0,0,0,0,0,0,0,0,-1,1133,1233,0,0
-84,-209,0,0,0,0,0,0,0,0,0,-1,1140,1233,0,0
-77,-209,0,0,0,0,0,0,0,0,0,-1,1147,1233,0,0
-70,-209,0,0,0,0,0,0,0,0,0,-1,1154,1233,0,0
-63,-209,0,0,0,0,0,0,0,0,0,-1,1161,1233,0,0
-56,-209,0,0,0,0,0,0,0,0,0,-1,1168,1233,0,0
-49,-209,0,0,0,0,0,0,0,0,0,-1,1175,1233,0,0
-42,-209,0,0,0,0,0,0,0,0,0,-1,1182,1233,0,0
-35,-209,0,0,0,0,0,0,0,0,0,-1,1189,1233,0,0
-28,-209,0,0,0,0,0,0,0,0,0,-1,1196,1233,0,0
-21,-209,0,0,0,0,0,0,0,0,0,-1,1203,1233,0,0
-14,-209,0,0,0,0,0,0,0,0,0,-1,1210,1233,0,0
-7,-209,0,0,0,0,0,0,0,0,0,-1,1217,1233,0,0
0,-209,0,0,0,0,0,0,0,0,0,-1,1224,1233,0,0
7,-209,0,0,0,0,0,0,0,0,0,-1,1231,1233,0,0
14,-209,0,0,0,0,0,0,0,0,0,-1,1238,1233,0,0
21,-209,0,0,0,0,0,0,0,0,0,-1,1245,1233,0,0
28,-209,0,0,0,0,0,0,0,0,0,-1,1252,1233,0,0
35,-209,0,0,0,0,0,0,0,0,0,-1,1259,1233,0,0
42,-209,0,0,0,0,0,0,0,0,0,-1,1266,1233,0,0
49,-209,0,0,0,0,0,0,0,0,0,-1,1273,1233,0,0
56,-209,0,0,0,0,0,0,0,0,0,-1,1280,1233,0,0
63,-209,0,0,0,0,0,0,0,0,0,-1,1287,1233,0,0
70,-209,0,0,0,0,0,0,0,0,0,-1,1294,1233,0,0
77,-209,0,0,0,0,0,0,0,0,0,-1,1301,1233,0,0
84,-209,0,0,0,0,0,0,0,0,0,-1,1308,1233,0,0
91,-209,0,0,0,0,0,0,0,0,0,-1,1315,1233,0,0
98,-209,0,0,0,0,0,0,0,0,0,-1,1322,1233,0,0
105,-209,0,0,0,0,0,0,0,0,0,-1,1329,1233,0,0
112,-209,0,0,0,0,0,0,0,0,0,-1,1336,1233,0,0
119,-209,0,0,0,0,0,0,0,0,0,-1,1343,1233,0,0
126,-209,0,0,0,0,0,0,0,0,0,-1,1350,1233,0,0
133,-209,0,0,0,0,0,0,0,0,0,-1,1357,1233,0,0
140,-209,0,0,0,0,0,0,0,0,0,-1,1364,1233,0,0
147,-209,0,0,0,0,0,0,0,0,0,-1,1371,1233,0,0
154,-209,0,0,0,0,0,0,0,0,0,-1,1378,1233,0,0
161,-209,0,0,0,0,0,0,0,0,0,-1,1385,1233,0,0
168,-209,0,0,0,0,0,0,0,0,0,-1,1392,1233,0,0
175,-209,0,0,0,0,0,0,0,0,0,-1,1399,1233,0,0
182,-209,0,0,0,0,0,0,0,0,0,-1,1406,1233,0,0
189,-209,0,0,0,0,0,0,0,0,0,-1,1413,1233,0,0
196,-209,0,0,0,0,0,0,0,0,0,-1,1420,1233,0,0
203,-209,0,0,0,0,0,0,0,0,0,-1,1427,1233,0,0
210,-209,0,0,0,0,0,0,0,0,0,-1,1434,1233,0,0
217,-209,0,0,0,0,0,0,0,0,0,-1,1441,1233,0,0
224,-209,0,0,0,0,0,0,0,0,0,-1,1448,1233,0,0
231,-209,0,0,0,0,0,0,0,0,0,-1,1455,1233,0,0
238,-209,0,0,0,0,0,0,0,0,0,-1,1462,1233,0,0
245,-209,0,0,0,0,0,0,0,0,0,-1,1469,1233,0,0
252,-209,0,0,0,0,0,0,0,0,0,-1,1476,1233,0,0
259,-209,0,0,0,0,0,0,0,0,0,-1,1483,1233,0,0
266,-209,0,0,0,0,0,0,0,0,0,-1,1490,1233,0,0
273,-209,0,0,0,0,0,0,0,0,0,-1,1497,1233,0,0
280,-209,0,0,0,0,0,0,0,0,0,-1,1504,1233,0,0
287,-209,0,0,0,0,0,0,0,0,0,-1,1511,1233,0,0
294,-209,0,0,0,0,0,0,0,0,0,-1,1518,1233,0,0
301,-209,0,0,0,0,0,0,0,0,0,-1,1525,1233,0,0
308,-209,0,0,0,0,0,0,0,0,0,-1,1532,1233,0,0
315,-209,0,0,0,0,0,0,0,0,0,-1,1539,1233,0,0
322,-209,0,0,0,0,0,0,0,0,0,-1,1546,1233,0,0
329,-209,0,0,0,0,0,0,0,0,0,-1,1553,1233,0,0
336,-209,0,0,0,0,0,0,0,0,0,-1,1560,1233,0,0
343,-209,0,0,0,0,0,0,0,0,0,-1,1567,1233,0,0
350,-209,0,0,0,0,0,0,0,0,0,-1,1574,1233,0,0
357,-209,0,0,0,0,0,0,0,0,0,-1,1581,1233,0,0
364,-209,0,0,0,0,0,0,0,0,0,-1,1588,1233,0,0
371,-209,0,0,0,0,0,0,0,0,0,-1,1595,1233,0,0
378,-209,0,0,0,0,0,0,0,0,0,-1,1602,1233,0,0
385,-209,0,0,0,0,0,0,0,0,0,-1,1609,1233,0,0
392,-209,0,0,0,0,0,0,0,0,0,-1,1616,1233,0,0
399,-209,0,0,0,0,0,0,0,0,0,-1,1623,1233,0,0
406,-209,0,0,0,0,0,0,0,0,0,-1,1630,1233,0,0
413,-209,0,0,0,0,0,0,0,0,0,-1,1637,1233,0,0
420,-209,0,0,0,0,0,0,0,0,0,-1,1644,1233,0,0
427,-209,0,0,0,0,0,0,0,0,0,-1,1651,1233,0,0
434,-209,0,0,0,0,0,0,0,0,0,-1,1658,1233,0,0
441,-209,0,0,0,0,0,0,0,0,0,-1,1665,1233,0,0
448,-209,0,0,0,0,0,0,0,0,0,-1,1672,1233,0,0
455,-209,0,0,0,0,0,0,0,0,0,-1,1679,1233,0,0
462,-209,0,0,0,0,0,0,0,0,0,-1,1686,1233,0,0
469,-209,0,0,0,0,0,0,0,0,0,-1,1693,1233,0,0
476,-209,0,0,0,0,0,0,0,0,0,-1,1700,1233,0,0
483,-209,0,0,0,0,0,0,0,0,0,-1,1707,1233,0,0
490,-209,0,0,0,0,0,0,0,0,0,-1,1714,1233,0,0
497,-209,0,0,0,0,0,0,0,0,0,-1,1721,1233,0,0
504,-209,0,0,0,0,0,0,0,0,0,-1,1728,1233,0,0
511,-209,0,0,0,0,0,0,0,0,0,-1,1735,1233,0,0
518,-209,0,0,0,0,0,0,0,0,0,-1,1742,1233,0,0
525,-209,0,0,0,0,0,0,0,0,0,-1,1749,1233,0,0
532,-209,0,0,0,0,0,0,0,0,0,-1,1756,1233,0,0
539,-209,0,0,0,0,0,0,0,0,0,-1,1763,1233,0,0
546,-209,0,0,0,0,0,0,0,0,0,-1,1770,1233,0,0
553,-209,0,0,0,0,0,0,0,0,0,-1,1777,1233,0,0
560,-209,0,0,0,0,0,0,0,0,0,-1,1784,1233,0,0
567,-209,0,0,0,0,0,0,0,0,0,-1,1791,1233,0,0
574,-209,0,0,0,0,0,0,0,0,0,-1,1798,1233,0,0
581,-209,0,0,0,0,0,0,0,0,0,-1,1805,1233,0,0
588,-209,0,0,0,0,0,0,0,0,0,-1,1812,1233,0,0
595,-209,0,0,0,0,0,0,0,0,0,-1,1819,1233,0,0
602,-209,0,0,0,0,0,0,0,0,0,-1,1826,1233,0,0
609,-209,0,0,0,0,0,0,0,0,0,-1,1833,1233,0,0
616,-209,0,0,0,0,0,0,0,0,0,-1,1840,1233,0,0
623,-209,70.3469,2.51099,0.00388671,0.000360019,-0.000216292,0.00389992,0.000346803,-0.0610251,0.0024924,0.0337611,1847,1233,70.3469,-2.51099
630,-209,70.3682,2.52466,0.00222898,0.00187602,-0.000874124,0.00294426,0.00116074,-0.685792,0.0017125,0.0361046,1854,1233,70.3681,-2.52462
637,-209,70.424,2.38843,0.000952349,0.00335319,-0.00169414,0.0042291,7.64448e-05,-1.09363,0.00279426,0.0367698,1861,1233,70.4239,-2.38841
644,-209,70.3955,2.26917,9.32476e-05,0.00466473,-0.00259061,0.00583382,-0.00107585,-1.14688,0.004293,0.0330723,1868,1233,70.3956,-2.26919
651,-209,70.4368,2.34058,-0.000123364,0.00507989,-0.00308138,0.00651105,-0.00155452,-1.13599,0.00494107,0.02764,1875,1233,70.4368,-2.34062
658,-209,70.4635,2.36084,-7.07056e-05,0.00417137,-0.00249603,0.00532584,-0.00122518,-1.13758,0.00402165,0.0250896,1882,1233,70.4636,-2.36086
665,-209,70.5219,2.28943,0.000150443,0.00311097,-0.00184037,0.00399251,-0.000731099,-1.12409,0.00293588,0.0427653,1889,1233,70.5219,-2.28938
672,-209,70.6561,2.18335,0,0,0,0,0,0,0,-1,1896,1233,70.6561,-2.18337
679,-209,55.2465,2.78674,0,0,0,0,0,0,0,-1,1903,1233,55.2464,-2.78678
686,-209,33.3711,3.89856,0,0,0,0,0,0,0,-1,1910,1233,33.3711,-3.89855
693,-209,55.3716,12.8625,0,0,0,0,0,0,0,-1,1917,1233,55.3715,-12.8625
700,-209,55.4147,12.0194,0,0,0,0,0,0,0,-1,1924,1233,55.4147,-12.0194
707,-209,55.4093,11.3107,0.000674269,5.50013e-05,-0.000136945,0.000703201,2.6069e-05,-0.208208,0.000460357,0.0371334,1931,1233,55.4093,-11.3107
714,-209,55.3921,10.7159,0.000605205,1.44315e-05,0.000203105,0.000668294,-4.86574e-05,0.301174,0.000462602,0.0244754,1938,1233,55.3921,-10.716
721,-209,55.4485,9.99561,0.000581995,-0.000384476,0.000771132,0.00100879,-0.000811275,0.505503,0.00105288,0.0148196,1945,1233,55.4485,-9.99556
728,-209,55.4539,9.35876,0.000571783,-0.000696849,0.00126397,0.00135168,-0.00147674,0.552838,0.00163352,0.0145355,1952,1233,55.4538,-9.35876
735,-209,55.415,8.70068,0.00046728,-0.000358063,0.00155925,0.00166754,-0.00155832,0.656034,0.00186281,0.0165002,1959,1233,55.415,-8.70065
742,-209,55.3528,8.00208,0.000489941,7.74583e-05,0.00195025,0.00224482,-0.00167742,0.732718,0.00227239,0.0159352,1966,1233,55.3527,-8.00207
749,-209,55.2789,7.33264,0.00084727,0.000786011,0.00241539,0.00323222,-0.00159894,0.779058,0.00284191,0.0142175,1973,1233,55.2789,-7.33265
756,-209,55.2716,6.70398,0.00189165,0.00180446,0.00284949,0.00469787,-0.00100177,0.777749,0.00351377,0.012925,1980,1233,55.2716,-6.70397
763,-209,55.2599,6.15503,0.00358866,0.00315992,0.00349816,0.00687901,-0.000130426,0.754796,0.00463009,0.0274721,1987,1233,55.2599,-6.15508
770,-209,55.4292,5.44373,0,0,0,0,0,0,0,-1,1994,1233,55.4292,-5.44371
777,-209,68.0347,-0.36377,0,0,0,0,0,0,0,-1,2001,1233,68.0346,0.363742
784,-209,67.6289,0.771729,0,0,0,0,0,0,0,-1,2008,1233,67.6289,-0.771742
791,-209,67.1841,1.90906,0,0,0,0,0,0,0,-1,2015,1233,67.1841,-1.90909
798,-209,53.6404,3.71179,0,0,0,0,0,0,0,-1,2022,1233,53.6404,-3.71185
805,-209,0,0,0,0,0,0,0,0,0,-1,2029,1233,0,0
812,-209,0,0,0,0,0,0,0,0,0,-1,2036,1233,0,0
-700,-216,0,0,0,0,0,0,0,0,0,-1,524,1240,0,0
-693,-216,0,0,0,0,0,0,0,0,0,-1,531,1240,0,0
-686,-216,0,0,0,0,0,0,0,0,0,-1,538,1240,0,0
-679,-216,-36.7546,1.03992,0,0,0,0,0,0,0,-1,545,1240,-36.7546,-1.03987
-672,-216,-38.5297,1.10828,0,0,0,0,0,0,0,-1,552,1240,-38.5297,-1.1083
-665,-216,-39.902,1.93457,0,0,0,0,0,0,0,-1,559,1240,-39.902,-1.93453
-658,-216,-41.7407,1.98083,0,0,0,0,0,0,0,-1,566,1240,-41.7407,-1.98077
-651,-216,-42.788,-8.0509,0,0,0,0,0,0,0,-1,573,1240,-42.788,8.05092
-644,-216,-45.6099,1.72839,0,0,0,0,0,0,0,-1,580,1240,-45.6099,-1.72843
-637,-216,-38.1276,3.46326,0,0,0,0,0,0,0,-1,587,1240,-38.1275,-3.4633
-630,-216,-38.1542,4.35791,0.0151641,0.00700244,-0.00748535,0.0196087,0.0025578,-0.535832,0.0123088,0.0480813,594,1240,-38.1542,-4.35785
-623,-216,-38.321,5.16602,0.00864642,0.00418674,-0.00448616,0.0114264,0.00140681,-0.554757,0.00719463,0.0228315,601,1240,-38.321,-5.166
-616,-216,-38.3987,5.79529,0.00370369,0.00182236,-0.00273087,0.00565136,-0.000125309,-0.619535,0.00381003,0.0135903,608,1240,-38.3987,-5.79524
-609,-216,-38.4354,6.50647,0.000954489,0.000888787,-0.00171841,0.00264037,-0.00079709,-0.775841,0.00207755,0.0137699,615,1240,-38.4354,-6.50644
-602,-216,-38.4777,7.16089,0.000330877,0.000439737,-0.00158839,0.00197463,-0.00120402,-0.802525,0.00185309,0.0137556,622,1240,-38.4777,-7.16094
-595,-216,-38.4919,7.84265,0.000395164,7.57391e-05,-0.00197534,0.00221724,-0.00174633,-0.745059,0.00229375,0.0184217,629,1240,-38.4919,-7.84271
-588,-216,-38.5057,8.53857,0.00114395,-0.000708359,-0.00241585,0.00280509,-0.0023695,-0.602356,0.00299107,0.0287066,636,1240,-38.5056,-8.53862
-581,-216,-38.579,9.06079,0,0,0,0,0,0,0,-1,643,1240,-38.579,-9.06082
-574,-216,-39.26,9.85864,0,0,0,0,0,0,0,-1,650,1240,-39.26,-9.85869
-567,-216,-33.4159,9.56567,0,0,0,0,0,0,0,-1,657,1240,-33.4159,-9.56565
-560,-216,-16.5087,5.4574,0,0,0,0,0,0,0,-1,664,1240,-16.5087,-5.45746
-553,-216,-16.2355,1.22351,0,0,0,0,0,0,0,-1,671,1240,-16.2356,-1.22356
-546,-216,-37.1617,-0.25415,0,0,0,0,0,0,0,-1,678,1240,-37.1618,0.254161
-539,-216,-47.7817,1.47327,0,0,0,0,0,0,0,-1,685,1240,-47.7818,-1.4733
-532,-216,-53.785,0.386475,0,0,0,0,0,0,0,-1,692,1240,-53.785,-0.386431
-525,-216,-54.011,0.67981,-0.00445518,-0.00392612,-0.00133972,-0.00282506,-0.00555624,-0.88287,0.00320805,0.0488775,699,1240,-54.011,-0.679826
-518,-216,-54.2352,0.742798,-0.00385562,-0.00331372,-0.00217236,-0.00139548,-0.00577386,-0.847441,0.00347866,0.0422596,706,1240,-54.2352,-0.742805
-511,-216,-54.364,0.781372,-0.00162216,-0.00216357,-0.00314415,0.00126291,-0.00504865,-0.742455,0.0038563,0.0410931,713,1240,-54.364,-0.781369
-504,-216,-54.0881,0.363281,0.00428545,-0.0054765,-0.00351222,0.00541776,-0.00660881,-0.311871,0.00695488,0.0412555,720,1240,-54.0882,-0.363318
-497,-216,0,0,0,0,0,0,0,0,0,-1,727,1240,0,0
-490,-216,0,0,0,0,0,0,0,0,0,-1,734,1240,0,0
-483,-216,0,0,0,0,0,0,0,0,0,-1,741,1240,0,0
-476,-216,0,0,0,0,0,0,0,0,0,-1,748,1240,0,0
-469,-216,0,0,0,0,0,0,0,0,0,-1,755,1240,0,0
-462,-216,0,0,0,0,0,0,0,0,0,-1,762,1240,0,0
-455,-216,0,0,0,0,0,0,0,0,0,-1,769,1240,0,0
-448,-216,0,0,0,0,0,0,0,0,0,-1,776,1240,0,0
-441,-216,0,0,0,0,0,0,0,0,0,-1,783,1240,0,0
-434,-216,0,0,0,0,0,0,0,0,0,-1,790,1240,0,0
-427,-216,0,0,0,0,0,0,0,0,0,-1,797,1240,0,0
-420,-216,0,0,0,0,0,0,0,0,0,-1,804,1240,0,0
-413,-216,0,0,0,0,0,0,0,0,0,-1,811,1240,0,0
-406,-216,0,0,0,0,0,0,0,0,0,-1,818,1240,0,0
-399,-216,0,0,0,0,0,0,0,0,0,-1,825,1240,0,0
-392,-216,0,0,0,0,0,0,0,0,0,-1,832,1240,0,0
-385,-216,0,0,0,0,0,0,0,0,0,-1,839,1240,0,0
-378,-216,0,0,0,0,0,0,0,0,0,-1,846,1240,0,0
-371,-216,0,0,0,0,0,0,0,0,0,-1,853,1240,0,0
-364,-216,0,0,0,0,0,0,0,0,0,-1,860,1240,0,0
-357,-216,0,0,0,0,0,0,0,0,0,-1,867,1240,0,0
-350,-216,0,0,0,0,0,0,0,0,0,-1,874,1240,0,0
-343,-216,0,0,0,0,0,0,0,0,0,-1,881,1240,0,0
-336,-216,0,0,0,0,0,0,0,0,0,-1,888,1240,0,0
-329,-216,0,0,0,0,0,0,0,0,0,-1,895,1240,0,0
-322,-216,0,0,0,0,0,0,0,0,0,-1,902,1240,0,0
-315,-216,0,0,0,0,0,0,0,0,0,-1,909,1240,0,0
-308,-216,0,0,0,0,0,0,0,0,0,-1,916,1240,0,0
-301,-216,0,0,0,0,0,0,0,0,0,-1,923,1240,0,0
-294,-216,0,0,0,0,0,0,0,0,0,-1,930,1240,0,0
-287,-216,0,0,0,0,0,0,0,0,0,-1,937,1240,0,0
-280,-216,0,0,0,0,0,0,0,0,0,-1,944,1240,0,0
-273,-216,0,0,0,0,0,0,0,0,0,-1,951,1240,0,0
-266,-216,0,0,0,0,0,0,0,0,0,-1,958,1240,0,0
-259,-216,0,0,0,0,0,0,0,0,0,-1,965,1240,0,0
-252,-216,0,0,0,0,0,0,0,0,0,-1,972,1240,0,0
-245,-216,0,0,0,0,0,0,0,0,0,-1,979,1240,0,0
-238,-216,0,0,0,0,0,0,0,0,0,-1,986,1240,0,0
-231,-216,0,0,0,0,0,0,0,0,0,-1,993,1240,0,0
-224,-216,0,0,0,0,0,0,0,0,0,-1,1000,1240,0,0
-217,-216,0,0,0,0,0,0,0,0,0,-1,1007,1240,0,0
-210,-216,0,0,0,0,0,0,0,0,0,-1,1014,1240,0,0
-203,-216,0,0,0,0,0,0,0,0,0,-1,1021,1240,0,0
-196,-216,0,0,0,0,0,0,0,0,0,-1,1028,1240,0,0
-189,-216,0,0,0,0,0,0,0,0,0,-1,1035,1240,0,0
-182,-216,0,0,0,0,0,0,0,0,0,-1,1042,1240,0,0
-175,-216,0,0,0,0,0,0,0,0,0,-1,1049,1240,0,0
-168,-216,0,0,0,0,0,0,0,0,0,-1,1056,1240,0,0
-161,-216,0,0,0,0,0,0,0,0,0,-1,1063,1240,0,0
-154,-216,0,0,0,0,0,0,0,0,0,-1,1070,1240,0,0
-147,-216,0,0,0,0,0,0,0,0,0,-1,1077,1240,0,0
-140,-216,0,0,0,0,0,0,0,0,0,-1,1084,1240,0,0
-133,-216,0,0,0,0,0,0,0,0,0,-1,1091,1240,0,0
-126,-216,0,0,0,0,0,0,0,0,0,-1,1098,1240,0,0
-119,-216,0,0,0,0,0,0,0,0,0,-1,1105,1240,0,0
-112,-216,0,0,0,0,0,0,0,0,0,-1,1112,1240,0,0
-105,-216,0,0,0,0,0,0,0,0,0,-1,1119,1240,0,0
-98,-216,0,0,0,0,0,0,0,0,0,-1,1126,1240,0,0
-91,-216,0,0,0,0,0,0,0,0,0,-1,1133,1240,0,0
-84,-216,0,0,0,0,0,0,0,0,0,-1,1140,1240,0,0
-77,-216,0,0,0,0,0,0,0,0,0,-1,1147,1240,0,0
-70,-216,0,0,0,0,0,0,0,0,0,-1,1154,1240,0,0
-63,-216,0,0,0,0,0,0,0,0,0,-1,1161,1240,0,0
-56,-216,0,0,0,0,0,0,0,0,0,-1,1168,1240,0,0
-49,-216,0,0,0,0,0,0,0,0,0,-1,1175,1240,0,0
-42,-216,0,0,0,0,0,0,0,0,0,-1,1182,1240,0,0
-35,-216,0,0,0,0,0,0,0,0,0,-1,1189,1240,0,0
-28,-216,0,0,0,0,0,0,0,0,0,-1,1196,1240,0,0
-21,-216,0,0,0,0,0,0,0,0,0,-1,1203,1240,0,0
-14,-216,0,0,0,0,0,0,0,0,0,-1,1210,1240,0,0
-7,-216,0,0,0,0,0,0,0,0,0,-1,1217,1240,0,0
0,-216,0,0,0,0,0,0,0,0,0,-1,1224,1240,0,0
7,-216,0,0,0,0,0,0,0,0,0,-1,1231,1240,0,0
14,-216,0,0,0,0,0,0,0,0,0,-1,1238,1240,0,0
21,-216,0,0,0,0,0,0,0,0,0,-1,1245,1240,0,0
28,-216,0,0,0,0,0,0,0,0,0,-1,1252,1240,0,0
35,-216,0,0,0,0,0,0,0,0,0,-1,1259,1240,0,0
42,-216,0,0,0,0,0,0,0,0,0,-1,1266,1240,0,0
49,-216,0,0,0,0,0,0,0,0,0,-1,1273,1240,0,0
56,-216,0,0,0,0,0,0,0,0,0,-1,1280,1240,0,0
63,-216,0,0,0,0,0,0,0,0,0,-1,1287,1240,0,0
70,-216,0,0,0,0,0,0,0,0,0,-1,1294,1240,0,0
77,-216,0,0,0,0,0,0,0,0,0,-1,1301,1240,0,0
84,-216,0,0,0,0,0,0,0,0,0,-1,1308,1240,0,0
91,-216,0,0,0,0,0,0,0,0,0,-1,1315,1240,0,0
98,-216,0,0,0,0,0,0,0,0,0,-1,1322,1240,0,0
105,-216,0,0,0,0,0,0,0,0,0,-1,1329,1240,0,0
112,-216,0,0,0,0,0,0,0,0,0,-1,1336,1240,0,0
119,-216,0,0,0,0,0,0,0,0,0,-1,1343,1240,0,0
126,-216,0,0,0,0,0,0,0,0,0,-1,1350,1240,0,0
133,-216,0,0,0,0,0,0,0,0,0,-1,1357,1240,0,0
140,-216,0,0,0,0,0,0,0,0,0,-1,1364,1240,0,0
147,-216,0,0,0,0,0,0,0,0,0,-1,1371,1240,0,0
154,-216,0,0,0,0,0,0,0,0,0,-1,1378,1240,0,0
161,-216,0,0,0,0,0,0,0,0,0,-1,1385,1240,0,0
168,-216,0,0,0,0,0,0,0,0,0,-1,1392,1240,0,0
175,-216,0,0,0,0,0,0,0,0,0,-1,1399,1240,0,0
182,-216,0,0,0,0,0,0,0,0,0,-1,1406,1240,0,0
189,-216,0,0,0,0,0,0,0,0,0,-1,1413,1240,0,0
196,-216,0,0,0,0,0,0,0,0,0,-1,1420,1240,0,0
203,-216,0,0,0,0,0,0,0,0,0,-1,1427,1240,0,0
210,-216,0,0,0,0,0,0,0,0,0,-1,1434,1240,0,0
217,-216,0,0,0,0,0,0,0,0,0,-1,1441,1240,0,0
224,-216,0,0,0,0,0,0,0,0,0,-1,1448,1240,0,0
231,-216,0,0,0,0,0,0,0,0,0,-1,1455,1240,0,0
238,-216,0,0,0,0,0,0,0,0,0,-1,1462,1240,0,0
245,-216,0,0,0,0,0,0,0,0,0,-1,1469,1240,0,0
252,-216,0,0,0,0,0,0,0,0,0,-1,1476,1240,0,0
259,-216,0,0,0,0,0,0,0,0,0,-1,1483,1240,0,0
266,-216,0,0,0,0,0,0,0,0,0,-1,1490,1240,0,0
273,-216,0,0,0,0,0,0,0,0,0,-1,1497,1240,0,0
280,-216,0,0,0,0,0,0,0,0,0,-1,1504,1240,0,0
287,-216,0,0,0,0,0,0,0,0,0,-1,1511,1240,0,0
294,-216,0,0,0,0,0,0,0,0,0,-1,1518,1240,0,0
301,-216,0,0,0,0,0,0,0,0,0,-1,1525,1240,0,0
308,-216,0,0,0,0,0,0,0,0,0,-1,1532,1240,0,0
315,-216,0,0,0,0,0,0,0,0,0,-1,1539,1240,0,0
322,-216,0,0,0,0,0,0,0,0,0,-1,1546,1240,0,0
329,-216,0,0,0,0,0,0,0,0,0,-1,1553,1240,0,0
336,-216,0,0,0,0,0,0,0,0,0,-1,1560,1240,0,0
343,-216,0,0,0,0,0,0,0,0,0,-1,1567,1240,0,0
350,-216,0,0,0,0,0,0,0,0,0,-1,1574,1240,0,0
357,-216,0,0,0,0,0,0,0,0,0,-1,1581,1240,0,0
364,-216,0,0,0,0,0,0,0,0,0,-1,1588,1240,0,0
371,-216,0,0,0,0,0,0,0,0,0,-1,1595,1240,0,0
378,-216,0,0,0,0,0,0,0,0,0,-1,1602,1240,0,0
385,-216,0,0,0,0,0,0,0,0,0,-1,1609,1240,0,0
392,-216,0,0,0,0,0,0,0,0,0,-1,1616,1240,0,0
399,-216,0,0,0,0,0,0,0,0,0,-1,1623,1240,0,0
406,-216,0,0,0,0,0,0,0,0,0,-1,1630,1240,0,0
413,-216,0,0,0,0,0,0,0,0,0,-1,1637,1240,0,0
420,-216,0,0,0,0,0,0,0,0,0,-1,1644,1240,0,0
427,-216,0,0,0,0,0,0,0,0,0,-1,1651,1240,0,0
434,-216,0,0,0,0,0,0,0,0,0,-1,1658,1240,0,0
441,-216,0,0,0,0,0,0,0,0,0,-1,1665,1240,0,0
448,-216,0,0,0,0,0,0,0,0,0,-1,1672,1240,0,0
455,-216,0,0,0,0,0,0,0,0,0,-1,1679,1240,0,0
462,-216,0,0,0,0,0,0,0,0,0,-1,1686,1240,0,0
469,-216,0,0,0,0,0,0,0,0,0,-1,1693,1240,0,0
476,-216,0,0,0,0,0,0,0,0,0,-1,1700,1240,0,0
483,-216,0,0,0,0,0,0,0,0,0,-1,1707,1240,0,0
490,-216,0,0,0,0,0,0,0,0,0,-1,1714,1240,0,0
497,-216,0,0,0,0,0,0,0,0,0,-1,1721,1240,0,0
504,-216,0,0,0,0,0,0,0,0,0,-1,1728,1240,0,0
511,-216,0,0,0,0,0,0,0,0,0,-1,1735,1240,0,0
518,-216,0,0,0,0,0,0,0,0,0,-1,1742,1240,0,0
525,-216,0,0,0,0,0,0,0,0,0,-1,1749,1240,0,0
532,-216,0,0,0,0,0,0,0,0,0,-1,1756,1240,0,0
539,-216,0,0,0,0,0,0,0,0,0,-1,1763,1240,0,0
546,-216,0,0,0,0,0,0,0,0,0,-1,1770,1240,0,0
553,-216,0,0,0,0,0,0,0,0,0,-1,1777,1240,0,0
560,-216,0,0,0,0,0,0,0,0,0,-1,1784,1240,0,0
567,-216,0,0,0,0,0,0,0,0,0,-1,1791,1240,0,0
574,-216,0,0,0,0,0,0,0,0,0,-1,1798,1240,0,0
581,-216,0,0,0,0,0,0,0,0,0,-1,1805,1240,0,0
588,-216,0,0,0,0,0,0,0,0,0,-1,1812,1240,0,0
595,-216,0,0,0,0,0,0,0,0,0,-1,1819,1240,0,0
602,-216,0,0,0,0,0,0,0,0,0,-1,1826,1240,0,0
609,-216,0,0,0,0,0,0,0,0,0,-1,1833,1240,0,0
616,-216,0,0,0,0,0,0,0,0,0,-1,1840,1240,0,0
623,-216,70.2888,2.53674,0.00314356,0.00163305,-0.00059829,0.00335182,0.00142479,-0.334975,0.0019424,0.0386327,1847,1240,70.2888,-2.53669
630,-216,70.3064,2.52002,0.00136831,0.00366166,-0.00155648,0.00444825,0.00058172,-1.10287,0.00279187,0.0359393,1854,1240,70.3064,-2.52007
637,-216,70.3864,2.37024,-0.000108814,0.00558944,-0.00257792,0.0065826,-0.00110198,-1.20306,0.0047981,0.0320053,1861,1240,70.3864,-2.37028
644,-216,70.3868,2.36487,-0.000920454,0.00681541,-0.00344491,0.00812708,-0.00223213,-1.20699,0.00629541,0.0286576,1868,1240,70.3869,-2.36491
651,-216,70.4413,2.40942,-0.000888112,0.00657925,-0.00357578,0.00801535,-0.00232421,-1.1889,0.00626373,0.0261776,1875,1240,70.4413,-2.40937
658,-216,70.5211,2.49805,-0.000618046,0.005127,-0.00270892,0.00620284,-0.00169389,-1.19275,0.00480053,0.0375604,1882,1240,70.5211,-2.498
665,-216,70.6034,2.25244,0,0,0,0,0,0,0,-1,1889,1240,70.6034,-2.25244
672,-216,68.6339,1.33826,0,0,0,0,0,0,0,-1,1896,1240,68.6339,-1.33828
679,-216,47.3159,3.82703,0,0,0,0,0,0,0,-1,1903,1240,47.316,-3.82708
686,-216,21.5172,6.19458,0,0,0,0,0,0,0,-1,1910,1240,21.5172,-6.19453
693,-216,54.9205,12.4714,0,0,0,0,0,0,0,-1,1917,1240,54.9206,-12.4714
700,-216,54.6693,11.9633,0,0,0,0,0,0,0,-1,1924,1240,54.6693,-11.9632
707,-216,54.6072,11.3907,0,0,0,0,0,0,0,-1,1931,1240,54.6071,-11.3907
714,-216,54.7939,10.6797,0.000314301,-0.000222962,0.000504339,0.00061709,-0.00052575,0.540689,0.000660521,0.0231608,1938,1240,54.7939,-10.6797
721,-216,54.804,10.0673,0.000196428,-0.000645263,0.00109328,0.000947068,-0.0013959,0.601671,0.00136096,0.0154711,1945,1240,54.8039,-10.0673
728,-216,54.8032,9.41321,1.48917e-05,-0.000826268,0.00159318,0.00124207,-0.00205345,0.656348,0.00192179,0.014484,1952,1240,54.8032,-9.41323
735,-216,54.7948,8.74622,-0.000275193,-0.000501372,0.00199147,0.00160639,-0.00238296,0.757035,0.00231775,0.0157902,1959,1240,54.7948,-8.74626
742,-216,54.697,8.06848,-0.00053528,-0.000200119,0.00252951,0.00216735,-0.00290275,0.818475,0.00293747,0.0174416,1966,1240,54.697,-8.06851
749,-216,54.6343,7.38391,-0.000695584,6.50161e-05,0.00321161,0.00291876,-0.00354933,0.844331,0.00374027,0.0131131,1973,1240,54.6343,-7.38392
756,-216,54.598,6.73352,-0.000668143,0.000260122,0.00405603,0.00387849,-0.00428651,0.842366,0.00471602,0.0120628,1980,1240,54.598,-6.73354
763,-216,54.5818,6.13562,-0.000528236,0.000213892,0.00539501,0.00525058,-0.00556493,0.819734,0.00624521,0.0229652,1987,1240,54.5817,-6.13565
770,-216,54.7908,5.53918,0,0,0,0,0,0,0,-1,1994,1240,54.7908,-5.53917
777,-216,55.1125,4.92847,0,0,0,0,0,0,0,-1,2001,1240,55.1126,-4.92842
784,-216,68.2205,0.660034,0,0,0,0,0,0,0,-1,2008,1240,68.2204,-0.660033
791,-216,67.71,1.8468,0,0,0,0,0,0,0,-1,2015,1240,67.7099,-1.84686
798,-216,0,0,0,0,0,0,0,0,0,-1,2022,1240,0,0
805,-216,0,0,0,0,0,0,0,0,0,-1,2029,1240,0,0
812,-216,0,0,0,0,0,0,0,0,0,-1,2036,1240,0,0
-700,-223,0,0,0,0,0,0,0,0,0,-1,524,1247,0,0
-693,-223,0,0,0,0,0,0,0,0,0,-1,531,1247,0,0
-686,-223,0,0,0,0,0,0,0,0,0,-1,538,1247,0,0
-679,-223,0,0,0,0,0,0,0,0,0,-1,545,1247,0,0
-672,-223,-38.277,2.04651,0,0,0,0,0,0,0,-1,552,1247,-38.2771,-2.04651
-665,-223,-40.2462,2.229,0,0,0,0,0,0,0,-1,559,1247,-40.2462,-2.22899
-658,-223,-39.6435,-8.36633,0,0,0,0,0,0,0,-1,566,1247,-39.6435,8.36633
-651,-223,-40.2339,-7.32275,0,0,0,0,0,0,0,-1,573,1247,-40.234,7.32277
-644,-223,-45.9081,3.8446,0,0,0,0,0,0,0,-1,580,1247,-45.9081,-3.84463
-637,-223,-49.2922,0.294189,0,0,0,0,0,0,0,-1,587,1247,-49.2922,-0.294245
-630,-223,-37.4655,4.53003,0,0,0,0,0,0,0,-1,594,1247,-37.4655,-4.53
-623,-223,-37.7826,5.29785,0.00730467,0.00353021,-0.0036319,0.0095104,0.00132447,-0.545786,0.00594813,0.0404619,601,1247,-37.7826,-5.29781
-616,-223,-37.7172,5.80261,0.00289001,0.00151703,-0.0020179,0.00433499,7.20504e-05,-0.621439,0.00286628,0.0174735,608,1247,-37.7172,-5.8026
-609,-223,-37.7136,6.54138,0.000593191,0.000835617,-0.00115881,0.00187953,-0.000450725,-0.837509,0.00142719,0.0126327,615,1247,-37.7136,-6.54144
-602,-223,-37.758,7.19824,0.000315802,0.000451189,-0.00109781,0.00148339,-0.000716403,-0.81619,0.00129553,0.0151246,622,1247,-37.758,-7.19826
-595,-223,-37.7691,7.90674,0.000525417,0.000190957,-0.0014739,0.00184155,-0.00112517,-0.728909,0.0017294,0.0201844,629,1247,-37.7691,-7.90674
-588,-223,-37.72,8.6134,0.00114969,-0.000425144,-0.00195816,0.00247282,-0.00174827,-0.594231,0.00244898,0.0288088,636,1247,-37.7199,-8.6134
-581,-223,-37.7031,9.26904,0,0,0,0,0,0,0,-1,643,1247,-37.7031,-9.26908
-574,-223,-38.1083,10.1418,0,0,0,0,0,0,0,-1,650,1247,-38.1084,-10.1418
-567,-223,-38.6921,10.9498,0,0,0,0,0,0,0,-1,657,1247,-38.6921,-10.9498
-560,-223,-31.8748,9.50732,0,0,0,0,0,0,0,-1,664,1247,-31.8748,-9.50735
-553,-223,-11.4025,4.14722,0,0,0,0,0,0,0,-1,671,1247,-11.4025,-4.14719
-546,-223,-26.9034,-0.148682,0,0,0,0,0,0,0,-1,678,1247,-26.9034,0.14867
-539,-223,-36.7405,0.35376,0,0,0,0,0,0,0,-1,685,1247,-36.7405,-0.353807
-532,-223,-47.6184,1.39844,0,0,0,0,0,0,0,-1,692,1247,-47.6184,-1.3984
-525,-223,-54.0619,0.796631,0,0,0,0,0,0,0,-1,699,1247,-54.0619,-0.79667
-518,-223,-54.2741,0.800049,0,0,0,0,0,0,0,-1,706,1247,-54.2741,-0.799996
-511,-223,-54.1426,0.632446,-0.000155986,-0.00136098,-0.00467475,0.00395494,-0.0054719,-0.72131,0.00546603,0.0403791,713,1247,-54.1426,-0.63248
-504,-223,-54.0188,0.36377,0.00471365,-0.00237894,-0.0057904,0.00795742,-0.0056227,-0.510639,0.00787901,0.039722,720,1247,-54.0188,-0.363792
-497,-223,0,0,0,0,0,0,0,0,0,-1,727,1247,0,0
-490,-223,0,0,0,0,0,0,0,0,0,-1,734,1247,0,0
-483,-223,0,0,0,0,0,0,0,0,0,-1,741,1247,0,0
-476,-223,0,0,0,0,0,0,0,0,0,-1,748,1247,0,0
-469,-223,0,0,0,0,0,0,0,0,0,-1,755,1247,0,0
-462,-223,0,0,0,0,0,0,0,0,0,-1,762,1247,0,0
-455,-223,0,0,0,0,0,0,0,0,0,-1,769,1247,0,0
-448,-223,0,0,0,0,0,0,0,0,0,-1,776,1247,0,0
-441,-223,0,0,0,0,0,0,0,0,0,-1,783,1247,0,0
-434,-223,0,0,0,0,0,0,0,0,0,-1,790,1247,0,0
-427,-223,0,0,0,0,0,0,0,0,0,-1,797,1247,0,0
-420,-223,0,0,0,0,0,0,0,0,0,-1,804,1247,0,0
-413,-223,0,0,0,0,0,0,0,0,0,-1,811,1247,0,0
-406,-223,0,0,0,0,0,0,0,0,0,-1,818,1247,0,0
-399,-223,0,0,0,0,0,0,0,0,0,-1,825,1247,0,0
-392,-223,0,0,0,0,0,0,0,0,0,-1,832,1247,0,0
-385,-223,0,0,0,0,0,0,0,0,0,-1,839,1247,0,0
-378,-223,0,0,0,0,0,0,0,0,0,-1,846,1247,0,0
-371,-223,0,0,0,0,0,0,0,0,0,-1,853,1247,0,0
-364,-223,0,0,0,0,0,0,0,0,0,-1,860,1247,0,0
-357,-223,0,0,0,0,0,0,0,0,0,-1,867,1247,0,0
-350,-223,0,0,0,0,0,0,0,0,0,-1,874,1247,0,0
-343,-223,0,0,0,0,0,0,0,0,0,-1,881,1247,0,0
-336,-223,0,0,0,0,0,0,0,0,0,-1,888,1247,0,0
-329,-223,0,0,0,0,0,0,0,0,0,-1,895,1247,0,0
-322,-223,0,0,0,0,0,0,0,0,0,-1,902,1247,0,0
-315,-223,0,0,0,0,0,0,0,0,0,-1,909,1247,0,0
-308,-223,0,0,0,0,0,0,0,0,0,-1,916,1247,0,0
-301,-223,0,0,0,0,0,0,0,0,0,-1,923,1247,0,0
-294,-223,0,0,0,0,0,0,0,0,0,-1,930,1247,0,0
-287,-223,0,0,0,0,0,0,0,0,0,-1,937,1247,0,0
-280,-223,0,0,0,0,0,0,0,0,0,-1,944,1247,0,0
-273,-223,0,0,0,0,0,0,0,0,0,-1,951,1247,0,0
-266,-223,0,0,0,0,0,0,0,0,0,-1,958,1247,0,0
-259,-223,0,0,0,0,0,0,0,0,0,-1,965,1247,0,0
-252,-223,0,0,0,0,0,0,0,0,0,-1,972,1247,0,0
-245,-223,0,0,0,0,0,0,0,0,0,-1,979,1247,0,0
-238,-223,0,0,0,0,0,0,0,0,0,-1,986,1247,0,0
-231,-223,0,0,0,0,0,0,0,0,0,-1,993,1247,0,0
-224,-223,0,0,0,0,0,0,0,0,0,-1,1000,1247,0,0
-217,-223,0,0,0,0,0,0,0,0,0,-1,1007,1247,0,0
-210,-223,0,0,0,0,0,0,0,0,0,-1,1014,1247,0,0
-203,-223,0,0,0,0,0,0,0,0,0,-1,1021,1247,0,0
-196,-223,0,0,0,0,0,0,0,0,0,-1,1028,1247,0,0
-189,-223,0,0,0,0,0,0,0,0,0,-1,1035,1247,0,0
-182,-223,0,0,0,0,0,0,0,0,0,-1,1042,1247,0,0
-175,-223,0,0,0,0,0,0,0,0,0,-1,1049,1247,0,0
-168,-223,0,0,0,0,0,0,0,0,0,-1,1056,1247,0,0
-161,-223,0,0,0,0,0,0,0,0,0,-1,1063,1247,0,0
-154,-223,0,0,0,0,0,0,0,0,0,-1,1070,1247,0,0
-147,-223,0,0,0,0,0,0,0,0,0,-1,1077,1247,0,0
-140,-223,0,0,0,0,0,0,0,0,0,-1,1084,1247,0,0
-133,-223,0,0,0,0,0,0,0,0,0,-1,1091,1247,0,0
-126,-223,0,0,0,0,0,0,0,0,0,-1,1098,1247,0,0
-119,-223,0,0,0,0,0,0,0,0,0,-1,1105,1247,0,0
-112,-223,0,0,0,0,0,0,0,0,0,-1,1112,1247,0,0
-105,-223,0,0,0,0,0,0,0,0,0,-1,1119,1247,0,0
-98,-223,0,0,0,0,0,0,0,0,0,-1,1126,1247,0,0
-91,-223,0,0,0,0,0,0,0,0,0,-1,1133,1247,0,0
-84,-223,0,0,0,0,0,0,0,0,0,-1,1140,1247,0,0
-77,-223,0,0,0,0,0,0,0,0,0,-1,1147,1247,0,0
-70,-223,0,0,0,0,0,0,0,0,0,-1,1154,1247,0,0
-63,-223,0,0,0,0,0,0,0,0,0,-1,1161,1247,0,0
-56,-223,0,0,0,0,0,0,0,0,0,-1,1168,1247,0,0
-49,-223,0,0,0,0,0,0,0,0,0,-1,1175,1247,0,0
-42,-223,0,0,0,0,0,0,0,0,0,-1,1182,1247,0,0
-35,-223,0,0,0,0,0,0,0,0,0,-1,1189,1247,0,0
-28,-223,0,0,0,0,0,0,0,0,0,-1,1196,1247,0,0
-21,-223,0,0,0,0,0,0,0,0,0,-1,1203,1247,0,0
-14,-223,0,0,0,0,0,0,0,0,0,-1,1210,1247,0,0
-7,-223,0,0,0,0,0,0,0,0,0,-1,1217,1247,0,0
0,-223,0,0,0,0,0,0,0,0,0,-1,1224,1247,0,0
7,-223,0,0,0,0,0,0,0,0,0,-1,1231,1247,0,0
14,-223,0,0,0,0,0,0,0,0,0,-1,1238,1247,0,0
21,-223,0,0,0,0,0,0,0,0,0,-1,1245,1247,0,0
28,-223,0,0,0,0,0,0,0,0,0,-1,1252,1247,0,0
35,-223,0,0,0,0,0,0,0,0,0,-1,1259,1247,0,0
42,-223,0,0,0,0,0,0,0,0,0,-1,1266,1247,0,0
49,-223,0,0,0,0,0,0,0,0,0,-1,1273,1247,0,0
56,-223,0,0,0,0,0,0,0,0,0,-1,1280,1247,0,0
63,-223,0,0,0,0,0,0,0,0,0,-1,1287,1247,0,0
70,-223,0,0,0,0,0,0,0,0,0,-1,1294,1247,0,0
77,-223,0,0,0,0,0,0,0,0,0,-1,1301,1247,0,0
84,-223,0,0,0,0,0,0,0,0,0,-1,1308,1247,0,0
91,-223,0,0,0,0,0,0,0,0,0,-1,1315,1247,0,0
98,-223,0,0,0,0,0,0,0,0,0,-1,1322,1247,0,0
105,-223,0,0,0,0,0,0,0,0,0,-1,1329,1247,0,0
112,-223,0,0,0,0,0,0,0,0,0,-1,1336,1247,0,0
119,-223,0,0,0,0,0,0,0,0,0,-1,1343,1247,0,0
126,-223,0,0,0,0,0,0,0,0,0,-1,1350,1247,0,0
133,-223,0,0,0,0,0,0,0,0,0,-1,1357,1247,0,0
140,-223,0,0,0,0,0,0,0,0,0,-1,1364,1247,0,0
147,-223,0,0,0,0,0,0,0,0,0,-1,1371,1247,0,0
154,-223,0,0,0,0,0,0,0,0,0,-1,1378,1247,0,0
161,-223,0,0,0,0,0,0,0,0,0,-1,1385,1247,0,0
168,-223,0,0,0,0,0,0,0,0,0,-1,1392,1247,0,0
175,-223,0,0,0,0,0,0,0,0,0,-1,1399,1247,0,0
182,-223,0,0,0,0,0,0,0,0,0,-1,1406,1247,0,0
189,-223,0,0,0,0,0,0,0,0,0,-1,1413,1247,0,0
196,-223,0,0,0,0,0,0,0,0,0,-1,1420,1247,0,0
203,-223,0,0,0,0,0,0,0,0,0,-1,1427,1247,0,0
210,-223,0,0,0,0,0,0,0,0,0,-1,1434,1247,0,0
217,-223,0,0,0,0,0,0,0,0,0,-1,1441,1247,0,0
224,-223,0,0,0,0,0,0,0,0,0,-1,1448,1247,0,0
231,-223,0,0,0,0,0,0,0,0,0,-1,1455,1247,0,0
238,-223,0,0,0,0,0,0,0,0,0,-1,1462,1247,0,0
245,-223,0,0,0,0,0,0,0,0,0,-1,1469,1247,0,0
252,-223,0,0,0,0,0,0,0,0,0,-1,1476,1247,0,0
259,-223,0,0,0,0,0,0,0,0,0,-1,1483,1247,0,0
266,-223,0,0,0,0,0,0,0,0,0,-1,1490,1247,0,0
273,-223,0,0,0,0,0,0,0,0,0,-1,1497,1247,0,0
280,-223,0,0,0,0,0,0,0,0,0,-1,1504,1247,0,0
287,-223,0,0,0,0,0,0,0,0,0,-1,1511,1247,0,0
294,-223,0,0,0,0,0,0,0,0,0,-1,1518,1247,0,0
301,-223,0,0,0,0,0,0,0,0,0,-1,1525,1247,0,0
308,-223,0,0,0,0,0,0,0,0,0,-1,1532,1247,0,0
315,-223,0,0,0,0,0,0,0,0,0,-1,1539,1247,0,0
322,-223,0,0,0,0,0,0,0,0,0,-1,1546,1247,0,0
329,-223,0,0,0,0,0,0,0,0,0,-1,1553,1247,0,0
336,-223,0,0,0,0,0,0,0,0,0,-1,1560,1247,0,0
343,-223,0,0,0,0,0,0,0,0,0,-1,1567,1247,0,0
350,-223,0,0,0,0,0,0,0,0,0,-1,1574,1247,0,0
357,-223,0,0,0,0,0,0,0,0,0,-1,1581,1247,0,0
364,-223,0,0,0,0,0,0,0,0,0,-1,1588,1247,0,0
371,-223,0,0,0,0,0,0,0,0,0,-1,1595,1247,0,0
378,-223,0,0,0,0,0,0,0,0,0,-1,1602,1247,0,0
385,-223,0,0,0,0,0,0,0,0,0,-1,1609,1247,0,0
392,-223,0,0,0,0,0,0,0,0,0,-1,1616,1247,0,0
399,-223,0,0,0,0,0,0,0,0,0,-1,1623,1247,0,0
406,-223,0,0,0,0,0,0,0,0,0,-1,1630,1247,0,0
413,-223,0,0,0,0,0,0,0,0,0,-1,1637,1247,0,0
420,-223,0,0,0,0,0,0,0,0,0,-1,1644,1247,0,0
427,-223,0,0,0,0,0,0,0,0,0,-1,1651,1247,0,0
434,-223,0,0,0,0,0,0,0,0,0,-1,1658,1247,0,0
441,-223,0,0,0,0,0,0,0,0,0,-1,1665,1247,0,0
448,-223,0,0,0,0,0,0,0,0,0,-1,1672,1247,0,0
455,-223,0,0,0,0,0,0,0,0,0,-1,1679,1247,0,0
462,-223,0,0,0,0,0,0,0,0,0,-1,1686,1247,0,0
469,-223,0,0,0,0,0,0,0,0,0,-1,1693,1247,0,0
476,-223,0,0,0,0,0,0,0,0,0,-1,1700,1247,0,0
483,-223,0,0,0,0,0,0,0,0,0,-1,1707,1247,0,0
490,-223,0,0,0,0,0,0,0,0,0,-1,1714,1247,0,0
497,-223,0,0,0,0,0,0,0,0,0,-1,1721,1247,0,0
504,-223,0,0,0,0,0,0,0,0,0,-1,1728,1247,0,0
511,-223,0,0,0,0,0,0,0,0,0,-1,1735,1247,0,0
518,-223,0,0,0,0,0,0,0,0,0,-1,1742,1247,0,0
525,-223,0,0,0,0,0,0,0,0,0,-1,1749,1247,0,0
532,-223,0,0,0,0,0,0,0,0,0,-1,1756,1247,0,0
539,-223,0,0,0,0,0,0,0,0,0,-1,1763,1247,0,0
546,-223,0,0,0,0,0,0,0,0,0,-1,1770,1247,0,0
553,-223,0,0,0,0,0,0,0,0,0,-1,1777,1247,0,0
560,-223,0,0,0,0,0,0,0,0,0,-1,1784,1247,0,0
567,-223,0,0,0,0,0,0,0,0,0,-1,1791,1247,0,0
574,-223,0,0,0,0,0,0,0,0,0,-1,1798,1247,0,0
581,-223,0,0,0,0,0,0,0,0,0,-1,1805,1247,0,0
588,-223,0,0,0,0,0,0,0,0,0,-1,1812,1247,0,0
595,-223,0,0,0,0,0,0,0,0,0,-1,1819,1247,0,0
602,-223,0,0,0,0,0,0,0,0,0,-1,1826,1247,0,0
609,-223,0,0,0,0,0,0,0,0,0,-1,1833,1247,0,0
616,-223,0,0,0,0,0,0,0,0,0,-1,1840,1247,0,0
623,-223,70.2151,2.59497,0.00221045,0.00322448,-0.00135381,0.0041631,0.00127183,-0.96457,0.00246344,0.0398154,1847,1247,70.2151,-2.59495
630,-223,70.2292,2.55774,9.42908e-05,0.00562889,-0.0024389,0.00655024,-0.000827065,-1.20959,0.00466701,0.0356307,1854,1247,70.2293,-2.55774
637,-223,70.3275,2.33557,-0.00170365,0.00783958,-0.00349681,0.0089837,-0.00284777,-1.25458,0.00713054,0.0275256,1861,1247,70.3275,-2.33559
644,-223,70.3638,2.36841,-0.00219727,0.00848668,-0.00409168,0.00987364,-0.00358423,-1.24398,0.00804777,0.0246635,1868,1247,70.3638,-2.36836
651,-223,70.4009,2.36548,-0.00174266,0.00749383,-0.00383251,0.00887695,-0.00312578,-1.22445,0.00719006,0.0340302,1875,1247,70.4009,-2.36546
658,-223,70.4885,2.42334,0,0,0,0,0,0,0,-1,1882,1247,70.4885,-2.42336
665,-223,68.7177,1.6427,0,0,0,0,0,0,0,-1,1889,1247,68.7176,-1.64275
672,-223,56.4625,2.72424,0,0,0,0,0,0,0,-1,1896,1247,56.4626,-2.72418
679,-223,43.2783,2.46973,0,0,0,0,0,0,0,-1,1903,1247,43.2784,-2.46978
686,-223,40.7926,10.0316,0,0,0,0,0,0,0,-1,1910,1247,40.7926,-10.0316
693,-223,54.2776,12.5676,0,0,0,0,0,0,0,-1,1917,1247,54.2776,-12.5676
700,-223,53.8348,12.0425,0,0,0,0,0,0,0,-1,1924,1247,53.8348,-12.0425
707,-223,54.2806,11.3091,0,0,0,0,0,0,0,-1,1931,1247,54.2806,-11.3091
714,-223,54.1938,10.7218,0.000177604,-0.000529337,0.000818043,0.000715277,-0.00106701,0.581467,0.00103566,0.0190736,1938,1247,54.1938,-10.7218
721,-223,54.1127,10.0922,-7.16352e-05,-0.000855648,0.00142565,0.00101492,-0.0019422,0.65123,0.00173505,0.0164976,1945,1247,54.1127,-10.0921
728,-223,54.0789,9.43799,-0.000456923,-0.000871306,0.00194587,0.00129276,-0.00262099,0.732359,0.00230257,0.0204009,1952,1247,54.0789,-9.43793
735,-223,54.0647,8.79602,-0.000907676,-0.000549923,0.00243975,0.0017175,-0.0031751,0.821992,0.00286622,0.0202503,1959,1247,54.0647,-8.79603
742,-223,53.979,8.14954,-0.00129131,-0.000282323,0.00308233,0.00233653,-0.00391017,0.866515,0.00364448,0.0177434,1966,1247,53.979,-8.14958
749,-223,53.9347,7.42444,-0.00153687,-5.45074e-05,0.00385006,0.00312507,-0.00471644,0.880491,0.00455827,0.0137497,1973,1247,53.9347,-7.42448
756,-223,53.8826,6.75195,-0.00158467,0.000102789,0.00479662,0.00412932,-0.00561121,0.872458,0.00564535,0.015408,1980,1247,53.8826,-6.75193
763,-223,53.8682,6.15564,-0.00150898,1.49798e-05,0.00627076,0.00556988,-0.00706388,0.845858,0.00731109,0.0222394,1987,1247,53.8681,-6.15563
770,-223,54.1536,5.47375,0,0,0,0,0,0,0,-1,1994,1247,54.1535,-5.47379
777,-223,53.7227,4.88562,0,0,0,0,0,0,0,-1,2001,1247,53.7227,-4.8856
784,-223,68.8677,0.507813,0,0,0,0,0,0,0,-1,2008,1247,68.8676,-0.507816
791,-223,34.7136,2.92554,0,0,0,0,0,0,0,-1,2015,1247,34.7137,-2.92555
798,-223,0,0,0,0,0,0,0,0,0,-1,2022,1247,0,0
805,-223,0,0,0,0,0,0,0,0,0,-1,2029,1247,0,0
812,-223,0,0,0,0,0,0,0,0,0,-1,2036,1247,0,0
-700,-230,0,0,0,0,0,0,0,0,0,-1,524,1254,0,0
-693,-230,0,0,0,0,0,0,0,0,0,-1,531,1254,0,0
-686,-230,0,0,0,0,0,0,0,0,0,-1,538,1254,0,0
-679,-230,0,0,0,0,0,0,0,0,0,-1,545,1254,0,0
-672,-230,-38.5905,2.07617,0,0,0,0,0,0,0,-1,552,1254,-38.5905,-2.07614
-665,-230,-38.168,-9.9397,0,0,0,0,0,0,0,-1,559,1254,-38.168,9.93971
-658,-230,-38.8468,-8.48303,0,0,0,0,0,0,0,-1,566,1254,-38.8468,8.48304
-651,-230,-39.3627,-7.38525,0,0,0,0,0,0,0,-1,573,1254,-39.3627,7.38529
-644,-230,-48.2715,0.872925,0,0,0,0,0,0,0,-1,580,1254,-48.2715,-0.87288
-637,-230,-49.1636,-0.158325,0,0,0,0,0,0,0,-1,587,1254,-49.1636,0.158288
-630,-230,-36.8388,4.02295,0,0,0,0,0,0,0,-1,594,1254,-36.8388,-4.02292
-623,-230,-37.3055,5.44385,0,0,0,0,0,0,0,-1,601,1254,-37.3055,-5.4438
-616,-230,-36.9675,5.82056,0.00282767,0.0012878,-0.000791846,0.00316219,0.000953278,-0.399712,0.00187305,0.0189648,608,1254,-36.9675,-5.8206
-609,-230,-36.9771,6.54907,0.000729407,0.00106932,-0.000305165,0.00124866,0.000550062,-1.03947,0.000722613,0.0130098,615,1254,-36.9771,-6.54913
-602,-230,-37.0199,7.25659,0.000466172,0.000701199,-0.000472202,0.00107029,9.70813e-05,-0.907352,0.000683468,0.0122164,622,1254,-37.0199,-7.25661
-595,-230,-37.0775,7.97974,0.000594612,0.000337023,-0.000914838,0.00138968,-0.000458042,-0.715466,0.00111106,0.0188561,629,1254,-37.0775,-7.97979
-588,-230,-37.0983,8.71899,0.0009722,-0.000310102,-0.0014682,0.00193314,-0.00127104,-0.579532,0.00186305,0.0281812,636,1254,-37.0983,-8.71899
-581,-230,-37.1388,9.65344,0.000547216,-0.00104012,-0.00153624,0.00148269,-0.0019756,-0.546966,0.00200339,0.0351059,643,1254,-37.1388,-9.65342
-574,-230,-37.1699,10.3156,-0.0011966,-0.00182929,-0.000874086,-0.000583371,-0.00244251,-0.611773,0.00147291,0.0390291,650,1254,-37.1699,-10.3155
-567,-230,-37.2441,10.7094,0,0,0,0,0,0,0,-1,657,1254,-37.2441,-10.7093
-560,-230,-37.5911,11.0079,0,0,0,0,0,0,0,-1,664,1254,-37.591,-11.0079
-553,-230,-13.1939,4.9718,0,0,0,0,0,0,0,-1,671,1254,-13.1939,-4.97175
-546,-230,-15.23,0.453979,0,0,0,0,0,0,0,-1,678,1254,-15.23,-0.453996
-539,-230,-25.8232,0.512817,0,0,0,0,0,0,0,-1,685,1254,-25.8232,-0.512878
-532,-230,-21.1644,1.52966,0,0,0,0,0,0,0,-1,692,1254,-21.1644,-1.52969
-525,-230,-29.4775,0.731445,0,0,0,0,0,0,0,-1,699,1254,-29.4775,-0.731432
-518,-230,-54.023,0.637085,0,0,0,0,0,0,0,-1,706,1254,-54.023,-0.637032
-511,-230,-54.0421,0.474121,0.00204948,-0.0010684,-0.00540471,0.00611559,-0.00513451,-0.644989,0.00650348,0.0436377,713,1254,-54.0421,-0.474102
-504,-230,-53.9506,0.344604,0.00528147,-0.000446768,-0.00651559,0.00953466,-0.00469996,-0.578321,0.00837488,0.0384447,720,1254,-53.9506,-0.344631
-497,-230,0,0,0,0,0,0,0,0,0,-1,727,1254,0,0
-490,-230,0,0,0,0,0,0,0,0,0,-1,734,1254,0,0
-483,-230,0,0,0,0,0,0,0,0,0,-1,741,1254,0,0
-476,-230,0,0,0,0,0,0,0,0,0,-1,748,1254,0,0
-469,-230,0,0,0,0,0,0,0,0,0,-1,755,1254,0,0
-462,-230,0,0,0,0,0,0,0,0,0,-1,762,1254,0,0
-455,-230,0,0,0,0,0,0,0,0,0,-1,769,1254,0,0
-448,-230,0,0,0,0,0,0,0,0,0,-1,776,1254,0,0
-441,-230,0,0,0,0,0,0,0,0,0,-1,783,1254,0,0
-434,-230,0,0,0,0,0,0,0,0,0,-1,790,1254,0,0
-427,-230,0,0,0,0,0,0,0,0,0,-1,797,1254,0,0
-420,-230,0,0,0,0,0,0,0,0,0,-1,804,1254,0,0
-413,-230,0,0,0,0,0,0,0,0,0,-1,811,1254,0,0
-406,-230,0,0,0,0,0,0,0,0,0,-1,818,1254,0,0
-399,-230,0,0,0,0,0,0,0,0,0,-1,825,1254,0,0
-392,-230,0,0,0,0,0,0,0,0,0,-1,832,1254,0,0
-385,-230,0,0,0,0,0,0,0,0,0,-1,839,1254,0,0
-378,-230,0,0,0,0,0,0,0,0,0,-1,846,1254,0,0
-371,-230,0,0,0,0,0,0,0,0,0,-1,853,1254,0,0
-364,-230,0,0,0,0,0,0,0,0,0,-1,860,1254,0,0
-357,-230,0,0,0,0,0,0,0,0,0,-1,867,1254,0,0
-350,-230,0,0,0,0,0,0,0,0,0,-1,874,1254,0,0
-343,-230,0,0,0,0,0,0,0,0,0,-1,881,1254,0,0
-336,-230,0,0,0,0,0,0,0,0,0,-1,888,1254,0,0
-329,-230,0,0,0,0,0,0,0,0,0,-1,895,1254,0,0
-322,-230,0,0,0,0,0,0,0,0,0,-1,902,1254,0,0
-315,-230,0,0,0,0,0,0,0,0,0,-1,909,1254,0,0
-308,-230,0,0,0,0,0,0,0,0,0,-1,916,1254,0,0
-301,-230,0,0,0,0,0,0,0,0,0,-1,923,1254,0,0
-294,-230,0,0,0,0,0,0,0,0,0,-1,930,1254,0,0
-287,-230,0,0,0,0,0,0,0,0,0,-1,937,1254,0,0
-280,-230,0,0,0,0,0,0,0,0,0,-1,944,1254,0,0
-273,-230,0,0,0,0,0,0,0,0,0,-1,951,1254,0,0
-266,-230,0,0,0,0,0,0,0,0,0,-1,958,1254,0,0
-259,-230,0,0,0,0,0,0,0,0,0,-1,965,1254,0,0
-252,-230,0,0,0,0,0,0,0,0,0,-1,972,1254,0,0
-245,-230,0,0,0,0,0,0,0,0,0,-1,979,1254,0,0
-238,-230,0,0,0,0,0,0,0,0,0,-1,986,1254,0,0
-231,-230,0,0,0,0,0,0,0,0,0,-1,993,1254,0,0
-224,-230,0,0,0,0,0,0,0,0,0,-1,1000,1254,0,0
-217,-230,0,0,0,0,0,0,0,0,0,-1,1007,1254,0,0
-210,-230,0,0,0,0,0,0,0,0,0,-1,1014,1254,0,0
-203,-230,0,0,0,0,0,0,0,0,0,-1,1021,1254,0,0
-196,-230,0,0,0,0,0,0,0,0,0,-1,1028,1254,0,0
-189,-230,0,0,0,0,0,0,0,0,0,-1,1035,1254,0,0
-182,-230,0,0,0,0,0,0,0,0,0,-1,1042,1254,0,0
-175,-230,0,0,0,0,0,0,0,0,0,-1,1049,1254,0,0
-168,-230,0,0,0,0,0,0,0,0,0,-1,1056,1254,0,0
-161,-230,0,0,0,0,0,0,0,0,0,-1,1063,1254,0,0
-154,-230,0,0,0,0,0,0,0,0,0,-1,1070,1254,0,0
-147,-230,0,0,0,0,0,0,0,0,0,-1,1077,1254,0,0
-140,-230,0,0,0,0,0,0,0,0,0,-1,1084,1254,0,0
-133,-230,0,0,0,0,0,0,0,0,0,-1,1091,1254,0,0
-126,-230,0,0,0,0,0,0,0,0,0,-1,1098,1254,0,0
-119,-230,0,0,0,0,0,0,0,0,0,-1,1105,1254,0,0
-112,-230,0,0,0,0,0,0,0,0,0,-1,1112,1254,0,0
-105,-230,0,0,0,0,0,0,0,0,0,-1,1119,1254,0,0
-98,-230,0,0,0,0,0,0,0,0,0,-1,1126,1254,0,0
-91,-230,0,0,0,0,0,0,0,0,0,-1,1133,1254,0,0
-84,-230,0,0,0,0,0,0,0,0,0,-1,1140,1254,0,0
-77,-230,0,0,0,0,0,0,0,0,0,-1,1147,1254,0,0
-70,-230,0,0,0,0,0,0,0,0,0,-1,1154,1254,0,0
-63,-230,0,0,0,0,0,0,0,0,0,-1,1161,1254,0,0
-56,-230,0,0,0,0,0,0,0,0,0,-1,1168,1254,0,0
-49,-230,0,0,0,0,0,0,0,0,0,-1,1175,1254,0,0
-42,-230,0,0,0,0,0,0,0,0,0,-1,1182,1254,0,0
-35,-230,0,0,0,0,0,0,0,0,0,-1,1189,1254,0,0
-28,-230,0,0,0,0,0,0,0,0,0,-1,1196,1254,0,0
-21,-230,0,0,0,0,0,0,0,0,0,-1,1203,1254,0,0
-14,-230,0,0,0,0,0,0,0,0,0,-1,1210,1254,0,0
-7,-230,0,0,0,0,0,0,0,0,0,-1,1217,1254,0,0
0,-230,0,0,0,0,0,0,0,0,0,-1,1224,1254,0,0
7,-230,0,0,0,0,0,0,0,0,0,-1,1231,1254,0,0
14,-230,0,0,0,0,0,0,0,0,0,-1,1238,1254,0,0
21,-230,0,0,0,0,0,0,0,0,0,-1,1245,1254,0,0
28,-230,0,0,0,0,0,0,0,0,0,-1,1252,1254,0,0
35,-230,0,0,0,0,0,0,0,0,0,-1,1259,1254,0,0
42,-230,0,0,0,0,0,0,0,0,0,-1,1266,1254,0,0
49,-230,0,0,0,0,0,0,0,0,0,-1,1273,1254,0,0
56,-230,0,0,0,0,0,0,0,0,0,-1,1280,1254,0,0
63,-230,0,0,0,0,0,0,0,0,0,-1,1287,1254,0,0
70,-230,0,0,0,0,0,0,0,0,0,-1,1294,1254,0,0
77,-230,0,0,0,0,0,0,0,0,0,-1,1301,1254,0,0
84,-230,0,0,0,0,0,0,0,0,0,-1,1308,1254,0,0
91,-230,0,0,0,0,0,0,0,0,0,-1,1315,1254,0,0
98,-230,0,0,0,0,0,0,0,0,0,-1,1322,1254,0,0
105,-230,0,0,0,0,0,0,0,0,0,-1,1329,1254,0,0
112,-230,0,0,0,0,0,0,0,0,0,-1,1336,1254,0,0
119,-230,0,0,0,0,0,0,0,0,0,-1,1343,1254,0,0
126,-230,0,0,0,0,0,0,0,0,0,-1,1350,1254,0,0
133,-230,0,0,0,0,0,0,0,0,0,-1,1357,1254,0,0
140,-230,0,0,0,0,0,0,0,0,0,-1,1364,1254,0,0
147,-230,0,0,0,0,0,0,0,0,0,-1,1371,1254,0,0
154,-230,0,0,0,0,0,0,0,0,0,-1,1378,1254,0,0
161,-230,0,0,0,0,0,0,0,0,0,-1,1385,1254,0,0
168,-230,0,0,0,0,0,0,0,0,0,-1,1392,1254,0,0
175,-230,0,0,0,0,0,0,0,0,0,-1,1399,1254,0,0
182,-230,0,0,0,0,0,0,0,0,0,-1,1406,1254,0,0
189,-230,0,0,0,0,0,0,0,0,0,-1,1413,1254,0,0
196,-230,0,0,0,0,0,0,0,0,0,-1,1420,1254,0,0
203,-230,0,0,0,0,0,0,0,0,0,-1,1427,1254,0,0
210,-230,0,0,0,0,0,0,0,0,0,-1,1434,1254,0,0
217,-230,0,0,0,0,0,0,0,0,0,-1,1441,1254,0,0
224,-230,0,0,0,0,0,0,0,0,0,-1,1448,1254,0,0
231,-230,0,0,0,0,0,0,0,0,0,-1,1455,1254,0,0
238,-230,0,0,0,0,0,0,0,0,0,-1,1462,1254,0,0
245,-230,0,0,0,0,0,0,0,0,0,-1,1469,1254,0,0
252,-230,0,0,0,0,0,0,0,0,0,-1,1476,1254,0,0
259,-230,0,0,0,0,0,0,0,0,0,-1,1483,1254,0,0
266,-230,0,0,0,0,0,0,0,0,0,-1,1490,1254,0,0
273,-230,0,0,0,0,0,0,0,0,0,-1,1497,1254,0,0
280,-230,0,0,0,0,0,0,0,0,0,-1,1504,1254,0,0
287,-230,0,0,0,0,0,0,0,0,0,-1,1511,1254,0,0
294,-230,0,0,0,0,0,0,0,0,0,-1,1518,1254,0,0
301,-230,0,0,0,0,0,0,0,0,0,-1,1525,1254,0,0
308,-230,0,0,0,0,0,0,0,0,0,-1,1532,1254,0,0
315,-230,0,0,0,0,0,0,0,0,0,-1,1539,1254,0,0
322,-230,0,0,0,0,0,0,0,0,0,-1,1546,1254,0,0
329,-230,0,0,0,0,0,0,0,0,0,-1,1553,1254,0,0
336,-230,0,0,0,0,0,0,0,0,0,-1,1560,1254,0,0
343,-230,0,0,0,0,0,0,0,0,0,-1,1567,1254,0,0
350,-230,0,0,0,0,0,0,0,0,0,-1,1574,1254,0,0
357,-230,0,0,0,0,0,0,0,0,0,-1,1581,1254,0,0
364,-230,0,0,0,0,0,0,0,0,0,-1,1588,1254,0,0
371,-230,0,0,0,0,0,0,0,0,0,-1,1595,1254,0,0
378,-230,0,0,0,0,0,0,0,0,0,-1,1602,1254,0,0
385,-230,0,0,0,0,0,0,0,0,0,-1,1609,1254,0,0
392,-230,0,0,0,0,0,0,0,0,0,-1,1616,1254,0,0
399,-230,0,0,0,0,0,0,0,0,0,-1,1623,1254,0,0
406,-230,0,0,0,0,0,0,0,0,0,-1,1630,1254,0,0
413,-230,0,0,0,0,0,0,0,0,0,-1,1637,1254,0,0
420,-230,0,0,0,0,0,0,0,0,0,-1,1644,1254,0,0
427,-230,0,0,0,0,0,0,0,0,0,-1,1651,1254,0,0
434,-230,0,0,0,0,0,0,0,0,0,-1,1658,1254,0,0
441,-230,0,0,0,0,0,0,0,0,0,-1,1665,1254,0,0
448,-230,0,0,0,0,0,0,0,0,0,-1,1672,1254,0,0
455,-230,0,0,0,0,0,0,0,0,0,-1,1679,1254,0,0
462,-230,0,0,0,0,0,0,0,0,0,-1,1686,1254,0,0
469,-230,0,0,0,0,0,0,0,0,0,-1,1693,1254,0,0
476,-230,0,0,0,0,0,0,0,0,0,-1,1700,1254,0,0
483,-230,0,0,0,0,0,0,0,0,0,-1,1707,1254,0,0
490,-230,0,0,0,0,0,0,0,0,0,-1,1714,1254,0,0
497,-230,0,0,0,0,0,0,0,0,0,-1,1721,1254,0,0
504,-230,0,0,0,0,0,0,0,0,0,-1,1728,1254,0,0
511,-230,0,0,0,0,0,0,0,0,0,-1,1735,1254,0,0
518,-230,0,0,0,0,0,0,0,0,0,-1,1742,1254,0,0
525,-230,0,0,0,0,0,0,0,0,0,-1,1749,1254,0,0
532,-230,0,0,0,0,0,0,0,0,0,-1,1756,1254,0,0
539,-230,0,0,0,0,0,0,0,0,0,-1,1763,1254,0,0
546,-230,0,0,0,0,0,0,0,0,0,-1,1770,1254,0,0
553,-230,0,0,0,0,0,0,0,0,0,-1,1777,1254,0,0
560,-230,0,0,0,0,0,0,0,0,0,-1,1784,1254,0,0
567,-230,0,0,0,0,0,0,0,0,0,-1,1791,1254,0,0
574,-230,0,0,0,0,0,0,0,0,0,-1,1798,1254,0,0
581,-230,0,0,0,0,0,0,0,0,0,-1,1805,1254,0,0
588,-230,0,0,0,0,0,0,0,0,0,-1,1812,1254,0,0
595,-230,0,0,0,0,0,0,0,0,0,-1,1819,1254,0,0
602,-230,0,0,0,0,0,0,0,0,0,-1,1826,1254,0,0
609,-230,0,0,0,0,0,0,0,0,0,-1,1833,1254,0,0
616,-230,70.3422,2.51733,0.00317878,0.00214391,-0.000415143,0.00332473,0.00199796,-0.338076,0.00193253,0.0379911,1840,1254,70.3421,-2.51734
623,-230,70.3978,2.47925,0.000737968,0.00483708,-0.00169446,0.00544683,0.000128228,-1.22538,0.00358924,0.0357415,1847,1254,70.3978,-2.47921
630,-230,70.4396,2.44348,-0.00157336,0.00758013,-0.00303224,0.00849348,-0.00248671,-1.27823,0.0066481,0.0311522,1854,1254,70.4396,-2.44354
637,-230,70.3568,2.3606,-0.00336586,0.00989154,-0.00420896,0.0111149,-0.00458923,-1.28793,0.00932407,0.0265959,1861,1254,70.3568,-2.36065
644,-230,70.3025,2.31445,-0.00325351,0.00971145,-0.00451467,0.0111286,-0.0046707,-1.26663,0.00937231,0.0232724,1868,1254,70.3025,-2.31443
651,-230,70.2452,2.16809,0,0,0,0,0,0,0,-1,1875,1254,70.2453,-2.16805
658,-230,69.6754,2.08289,0,0,0,0,0,0,0,-1,1882,1254,69.6754,-2.08291
665,-230,56.2585,2.51587,0,0,0,0,0,0,0,-1,1889,1254,56.2586,-2.51586
672,-230,43.0962,2.78699,0,0,0,0,0,0,0,-1,1896,1254,43.0962,-2.78698
679,-230,27.9967,2.37708,0,0,0,0,0,0,0,-1,1903,1254,27.9967,-2.3771
686,-230,40.8854,10.1788,0,0,0,0,0,0,0,-1,1910,1254,40.8853,-10.1788
693,-230,50.7637,12.0411,0,0,0,0,0,0,0,-1,1917,1254,50.7636,-12.0412
700,-230,53.3702,12.1572,0,0,0,0,0,0,0,-1,1924,1254,53.3702,-12.1572
707,-230,53.5701,11.4266,0.000362421,-0.00059245,0.000534286,0.000601509,-0.000831539,0.420766,0.000830916,0.0299065,1931,1254,53.5701,-11.4266
714,-230,53.4564,10.8021,-0.000129367,-0.000731841,0.00104718,0.000659043,-0.00152025,0.645347,0.00129055,0.0165196,1938,1254,53.4564,-10.8021
721,-230,53.4181,10.1417,-0.000557367,-0.000954507,0.00169795,0.000953589,-0.00246546,0.727189,0.00203731,0.0144143,1945,1254,53.4181,-10.1417
728,-230,53.3486,9.49878,-0.00114365,-0.000894961,0.00230722,0.00129126,-0.00332987,0.812318,0.00275319,0.0161207,1952,1254,53.3487,-9.49874
735,-230,53.3229,8.8335,-0.00178019,-0.000639527,0.00293707,0.00178208,-0.00420179,0.881296,0.0035477,0.0164073,1959,1254,53.3229,-8.83351
742,-230,53.2839,8.13818,-0.00237121,-0.000445148,0.00371267,0.00242736,-0.00524372,0.912297,0.0045273,0.0126979,1966,1254,53.284,-8.13815
749,-230,53.2511,7.42664,-0.00284422,-0.00028543,0.0046156,0.00322481,-0.00635446,0.920598,0.00562812,0.0121356,1973,1254,53.2511,-7.42665
756,-230,53.2213,6.76196,-0.00317213,-0.000219937,0.00575021,0.00424062,-0.00763268,0.911037,0.00694768,0.0163254,1980,1254,53.2213,-6.76199
763,-230,53.2406,5.99585,-0.00344512,-0.000427935,0.00748033,0.00569441,-0.00956746,0.884901,0.00890552,0.0371301,1987,1254,53.2406,-5.9958
770,-230,53.6088,5.14063,0,0,0,0,0,0,0,-1,1994,1254,53.6088,-5.14064
777,-230,41.8693,3.74707,0,0,0,0,0,0,0,-1,2001,1254,41.8692,-3.74713
784,-230,35.8896,1.80334,0,0,0,0,0,0,0,-1,2008,1254,35.8897,-1.80338
791,-230,35.6028,2.20642,0,0,0,0,0,0,0,-1,2015,1254,35.6027,-2.2064
798,-230,0,0,0,0,0,0,0,0,0,-1,2022,1254,0,0
805,-230,0,0,0,0,0,0,0,0,0,-1,2029,1254,0,0
812,-230,0,0,0,0,0,0,0,0,0,-1,2036,1254,0,0
-700,-237,0,0,0,0,0,0,0,0,0,-1,524,1261,0,0
-693,-237,0,0,0,0,0,0,0,0,0,-1,531,1261,0,0
-686,-237,0,0,0,0,0,0,0,0,0,-1,538,1261,0,0
-679,-237,0,0,0,0,0,0,0,0,0,-1,545,1261,0,0
-672,-237,-36.6405,-12.5112,0,0,0,0,0,0,0,-1,552,1261,-36.6405,12.5113
-665,-237,-37.1436,-10.5648,0,0,0,0,0,0,0,-1,559,1261,-37.1436,10.5649
-658,-237,-37.8344,-8.67175,0,0,0,0,0,0,0,-1,566,1261,-37.8344,8.67179
-651,-237,-46.9487,1.65137,0,0,0,0,0,0,0,-1,573,1261,-46.9487,-1.65142
-644,-237,-47.6604,0.785034,0,0,0,0,0,0,0,-1,580,1261,-47.6604,-0.785034
-637,-237,-33.4961,2.71313,0,0,0,0,0,0,0,-1,587,1261,-33.4961,-2.71312
-630,-237,-36.1792,4.34583,0,0,0,0,0,0,0,-1,594,1261,-36.1792,-4.34582
-623,-237,-36.1356,5.04968,0.00445712,0.00154763,-0.000300734,0.00448788,0.00151687,-0.101927,0.00263603,0.0371972,601,1261,-36.1356,-5.04963
-616,-237,-36.1755,5.82043,0.0014735,0.00137908,0.000555784,0.00198407,0.000868504,0.743026,0.00114846,0.0156263,608,1261,-36.1755,-5.82041
-609,-237,-36.2527,6.55872,0.000137573,0.00143923,0.000609041,0.00167975,-0.000102951,1.19467,0.00115568,0.0170731,615,1261,-36.2527,-6.55868
-602,-237,-36.298,7.28247,0.000180185,0.00103112,0.000174896,0.00106567,0.00014564,1.37579,0.000667216,0.0130382,622,1261,-36.2981,-7.28252
-595,-237,-36.3626,8.01135,0.000471909,0.000520555,-0.000387947,0.00088494,0.000107523,-0.816705,0.000557586,0.0157667,629,1261,-36.3626,-8.01141
-588,-237,-36.3917,8.73816,0.000842237,-0.000225891,-0.000996329,0.00143861,-0.000822268,-0.53937,0.00132139,0.0272778,636,1261,-36.3916,-8.73811
-581,-237,-36.4474,9.44482,0.000570825,-0.0010095,-0.00125121,0.00126048,-0.00169916,-0.503761,0.001715,0.0258171,643,1261,-36.4474,-9.44485
-574,-237,-36.3502,10.1223,-0.00087406,-0.00188182,-0.000855579,-0.000385009,-0.00237087,-0.519276,0.00146916,0.0309262,650,1261,-36.3502,-10.1223
-567,-237,-36.3876,10.6837,0,0,0,0,0,0,0,-1,657,1261,-36.3875,-10.6838
-560,-237,-36.438,11.1632,0,0,0,0,0,0,0,-1,664,1261,-36.438,-11.1633
-553,-237,-20.6102,6.92139,0,0,0,0,0,0,0,-1,671,1261,-20.6102,-6.92138
-546,-237,-11.192,1.14014,0,0,0,0,0,0,0,-1,678,1261,-11.192,-1.14011
-539,-237,-16.512,1.53455,0,0,0,0,0,0,0,-1,685,1261,-16.512,-1.53457
-532,-237,-29.7025,1.23621,0,0,0,0,0,0,0,-1,692,1261,-29.7025,-1.23618
-525,-237,-47.2925,0.590942,0,0,0,0,0,0,0,-1,699,1261,-47.2925,-0.590989
-518,-237,-48.2897,0.765869,0,0,0,0,0,0,0,-1,706,1261,-48.2897,-0.765854
-511,-237,-53.9925,0.515015,0,0,0,0,0,0,0,-1,713,1261,-53.9925,-0.515058
-504,-237,-54.1804,0.615479,0.0078038,-0.000239064,-0.00598486,0.0109928,-0.00342808,-0.489578,0.00869937,0.0433379,720,1261,-54.1804,-0.615442
-497,-237,-54.277,0.843994,0.0125051,-0.00190832,-0.00681028,0.0152138,-0.00461709,-0.378562,0.0119819,0.0424451,727,1261,-54.277,-0.844012
-490,-237,0,0,0,0,0,0,0,0,0,-1,734,1261,0,0
-483,-237,0,0,0,0,0,0,0,0,0,-1,741,1261,0,0
-476,-237,0,0,0,0,0,0,0,0,0,-1,748,1261,0,0
-469,-237,0,0,0,0,0,0,0,0,0,-1,755,1261,0,0
-462,-237,0,0,0,0,0,0,0,0,0,-1,762,1261,0,0
-455,-237,0,0,0,0,0,0,0,0,0,-1,769,1261,0,0
-448,-237,0,0,0,0,0,0,0,0,0,-1,776,1261,0,0
-441,-237,0,0,0,0,0,0,0,0,0,-1,783,1261,0,0
-434,-237,0,0,0,0,0,0,0,0,0,-1,790,1261,0,0
-427,-237,0,0,0,0,0,0,0,0,0,-1,797,1261,0,0
-420,-237,0,0,0,0,0,0,0,0,0,-1,804,1261,0,0
-413,-237,0,0,0,0,0,0,0,0,0,-1,811,1261,0,0
-406,-237,0,0,0,0,0,0,0,0,0,-1,818,1261,0,0
-399,-237,0,0,0,0,0,0,0,0,0,-1,825,1261,0,0
-392,-237,0,0,0,0,0,0,0,0,0,-1,832,1261,0,0
-385,-237,0,0,0,0,0,0,0,0,0,-1,839,1261,0,0
-378,-237,0,0,0,0,0,0,0,0,0,-1,846,1261,0,0
-371,-237,0,0,0,0,0,0,0,0,0,-1,853,1261,0,0
-364,-237,0,0,0,0,0,0,0,0,0,-1,860,1261,0,0
-357,-237,0,0,0,0,0,0,0,0,0,-1,867,1261,0,0
-350,-237,0,0,0,0,0,0,0,0,0,-1,874,1261,0,0
-343,-237,0,0,0,0,0,0,0,0,0,-1,881,1261,0,0
-336,-237,0,0,0,0,0,0,0,0,0,-1,888,1261,0,0
-329,-237,0,0,0,0,0,0,0,0,0,-1,895,1261,0,0
-322,-237,0,0,0,0,0,0,0,0,0,-1,902,1261,0,0
-315,-237,0,0,0,0,0,0,0,0,0,-1,909,1261,0,0
-308,-237,0,0,0,0,0,0,0,0,0,-1,916,1261,0,0
-301,-237,0,0,0,0,0,0,0,0,0,-1,923,1261,0,0
-294,-237,0,0,0,0,0,0,0,0,0,-1,930,1261,0,0
-287,-237,0,0,0,0,0,0,0,0,0,-1,937,1261,0,0
-280,-237,0,0,0,0,0,0,0,0,0,-1,944,1261,0,0
-273,-237,0,0,0,0,0,0,0,0,0,-1,951,1261,0,0
-266,-237,0,0,0,0,0,0,0,0,0,-1,958,1261,0,0
-259,-237,0,0,0,0,0,0,0,0,0,-1,965,1261,0,0
-252,-237,0,0,0,0,0,0,0,0,0,-1,972,1261,0,0
-245,-237,0,0,0,0,0,0,0,0,0,-1,979,1261,0,0
-238,-237,0,0,0,0,0,0,0,0,0,-1,986,1261,0,0
-231,-237,0,0,0,0,0,0,0,0,0,-1,993,1261,0,0
-224,-237,0,0,0,0,0,0,0,0,0,-1,1000,1261,0,0
-217,-237,0,0,0,0,0,0,0,0,0,-1,1007,1261,0,0
-210,-237,0,0,0,0,0,0,0,0,0,-1,1014,1261,0,0
-203,-237,0,0,0,0,0,0,0,0,0,-1,1021,1261,0,0
-196,-237,0,0,0,0,0,0,0,0,0,-1,1028,1261,0,0
-189,-237,0,0,0,0,0,0,0,0,0,-1,1035,1261,0,0
-182,-237,0,0,0,0,0,0,0,0,0,-1,1042,1261,0,0
-175,-237,0,0,0,0,0,0,0,0,0,-1,1049,1261,0,0
-168,-237,0,0,0,0,0,0,0,0,0,-1,1056,1261,0,0
-161,-237,0,0,0,0,0,0,0,0,0,-1,1063,1261,0,0
-154,-237,0,0,0,0,0,0,0,0,0,-1,1070,1261,0,0
-147,-237,0,0,0,0,0,0,0,0,0,-1,1077,1261,0,0
-140,-237,0,0,0,0,0,0,0,0,0,-1,1084,1261,0,0
-133,-237,0,0,0,0,0,0,0,0,0,-1,1091,1261,0,0
-126,-237,0,0,0,0,0,0,0,0,0,-1,1098,1261,0,0
-119,-237,0,0,0,0,0,0,0,0,0,-1,1105,1261,0,0
-112,-237,0,0,0,0,0,0,0,0,0,-1,1112,1261,0,0
-105,-237,0,0,0,0,0,0,0,0,0,-1,1119,1261,0,0
-98,-237,0,0,0,0,0,0,0,0,0,-1,1126,1261,0,0
-91,-237,0,0,0,0,0,0,0,0,0,-1,1133,1261,0,0
-84,-237,0,0,0,0,0,0,0,0,0,-1,1140,1261,0,0
-77,-237,0,0,0,0,0,0,0,0,0,-1,1147,1261,0,0
-70,-237,0,0,0,0,0,0,0,0,0,-1,1154,1261,0,0
-63,-237,0,0,0,0,0,0,0,0,0,-1,1161,1261,0,0
-56,-237,0,0,0,0,0,0,0,0,0,-1,1168,1261,0,0
-49,-237,0,0,0,0,0,0,0,0,0,-1,1175,1261,0,0
-42,-237,0,0,0,0,0,0,0,0,0,-1,1182,1261,0,0
-35,-237,0,0,0,0,0,0,0,0,0,-1,1189,1261,0,0
-28,-237,0,0,0,0,0,0,0,0,0,-1,1196,1261,0,0
-21,-237,0,0,0,0,0,0,0,0,0,-1,1203,1261,0,0
-14,-237,0,0,0,0,0,0,0,0,0,-1,1210,1261,0,0
-7,-237,0,0,0,0,0,0,0,0,0,-1,1217,1261,0,0
0,-237,0,0,0,0,0,0,0,0,0,-1,1224,1261,0,0
7,-237,0,0,0,0,0,0,0,0,0,-1,1231,1261,0,0
14,-237,0,0,0,0,0,0,0,0,0,-1,1238,1261,0,0
21,-237,0,0,0,0,0,0,0,0,0,-1,1245,1261,0,0
28,-237,0,0,0,0,0,0,0,0,0,-1,1252,1261,0,0
35,-237,0,0,0,0,0,0,0,0,0,-1,1259,1261,0,0
42,-237,0,0,0,0,0,0,0,0,0,-1,1266,1261,0,0
49,-237,0,0,0,0,0,0,0,0,0,-1,1273,1261,0,0
56,-237,0,0,0,0,0,0,0,0,0,-1,1280,1261,0,0
63,-237,0,0,0,0,0,0,0,0,0,-1,1287,1261,0,0
70,-237,0,0,0,0,0,0,0,0,0,-1,1294,1261,0,0
77,-237,0,0,0,0,0,0,0,0,0,-1,1301,1261,0,0
84,-237,0,0,0,0,0,0,0,0,0,-1,1308,1261,0,0
91,-237,0,0,0,0,0,0,0,0,0,-1,1315,1261,0,0
98,-237,0,0,0,0,0,0,0,0,0,-1,1322,1261,0,0
105,-237,0,0,0,0,0,0,0,0,0,-1,1329,1261,0,0
112,-237,0,0,0,0,0,0,0,0,0,-1,1336,1261,0,0
119,-237,0,0,0,0,0,0,0,0,0,-1,1343,1261,0,0
126,-237,0,0,0,0,0,0,0,0,0,-1,1350,1261,0,0
133,-237,0,0,0,0,0,0,0,0,0,-1,1357,1261,0,0
140,-237,0,0,0,0,0,0,0,0,0,-1,1364,1261,0,0
147,-237,0,0,0,0,0,0,0,0,0,-1,1371,1261,0,0
154,-237,0,0,0,0,0,0,0,0,0,-1,1378,1261,0,0
161,-237,0,0,0,0,0,0,0,0,0,-1,1385,1261,0,0
168,-237,0,0,0,0,0,0,0,0,0,-1,1392,1261,0,0
175,-237,0,0,0,0,0,0,0,0,0,-1,1399,1261,0,0
182,-237,0,0,0,0,0,0,0,0,0,-1,1406,1261,0,0
189,-237,0,0,0,0,0,0,0,0,0,-1,1413,1261,0,0
196,-237,0,0,0,0,0,0,0,0,0,-1,1420,1261,0,0
203,-237,0,0,0,0,0,0,0,0,0,-1,1427,1261,0,0
210,-237,0,0,0,0,0,0,0,0,0,-1,1434,1261,0,0
217,-237,0,0,0,0,0,0,0,0,0,-1,1441,1261,0,0
224,-237,0,0,0,0,0,0,0,0,0,-1,1448,1261,0,0
231,-237,0,0,0,0,0,0,0,0,0,-1,1455,1261,0,0
238,-237,0,0,0,0,0,0,0,0,0,-1,1462,1261,0,0
245,-237,0,0,0,0,0,0,0,0,0,-1,1469,1261,0,0
252,-237,0,0,0,0,0,0,0,0,0,-1,1476,1261,0,0
259,-237,0,0,0,0,0,0,0,0,0,-1,1483,1261,0,0
266,-237,0,0,0,0,0,0,0,0,0,-1,1490,1261,0,0
273,-237,0,0,0,0,0,0,0,0,0,-1,1497,1261,0,0
280,-237,0,0,0,0,0,0,0,0,0,-1,1504,1261,0,0
287,-237,0,0,0,0,0,0,0,0,0,-1,1511,1261,0,0
294,-237,0,0,0,0,0,0,0,0,0,-1,1518,1261,0,0
301,-237,0,0,0,0,0,0,0,0,0,-1,1525,1261,0,0
308,-237,0,0,0,0,0,0,0,0,0,-1,1532,1261,0,0
315,-237,0,0,0,0,0,0,0,0,0,-1,1539,1261,0,0
322,-237,0,0,0,0,0,0,0,0,0,-1,1546,1261,0,0
329,-237,0,0,0,0,0,0,0,0,0,-1,1553,1261,0,0
336,-237,0,0,0,0,0,0,0,0,0,-1,1560,1261,0,0
343,-237,0,0,0,0,0,0,0,0,0,-1,1567,1261,0,0
350,-237,0,0,0,0,0,0,0,0,0,-1,1574,1261,0,0
357,-237,0,0,0,0,0,0,0,0,0,-1,1581,1261,0,0
364,-237,0,0,0,0,0,0,0,0,0,-1,1588,1261,0,0
371,-237,0,0,0,0,0,0,0,0,0,-1,1595,1261,0,0
378,-237,0,0,0,0,0,0,0,0,0,-1,1602,1261,0,0
385,-237,0,0,0,0,0,0,0,0,0,-1,1609,1261,0,0
392,-237,0,0,0,0,0,0,0,0,0,-1,1616,1261,0,0
399,-237,0,0,0,0,0,0,0,0,0,-1,1623,1261,0,0
406,-237,0,0,0,0,0,0,0,0,0,-1,1630,1261,0,0
413,-237,0,0,0,0,0,0,0,0,0,-1,1637,1261,0,0
420,-237,0,0,0,0,0,0,0,0,0,-1,1644,1261,0,0
427,-237,0,0,0,0,0,0,0,0,0,-1,1651,1261,0,0
434,-237,0,0,0,0,0,0,0,0,0,-1,1658,1261,0,0
441,-237,0,0,0,0,0,0,0,0,0,-1,1665,1261,0,0
448,-237,0,0,0,0,0,0,0,0,0,-1,1672,1261,0,0
455,-237,0,0,0,0,0,0,0,0,0,-1,1679,1261,0,0
462,-237,0,0,0,0,0,0,0,0,0,-1,1686,1261,0,0
469,-237,0,0,0,0,0,0,0,0,0,-1,1693,1261,0,0
476,-237,0,0,0,0,0,0,0,0,0,-1,1700,1261,0,0
483,-237,0,0,0,0,0,0,0,0,0,-1,1707,1261,0,0
490,-237,0,0,0,0,0,0,0,0,0,-1,1714,1261,0,0
497,-237,0,0,0,0,0,0,0,0,0,-1,1721,1261,0,0
504,-237,0,0,0,0,0,0,0,0,0,-1,1728,1261,0,0
511,-237,0,0,0,0,0,0,0,0,0,-1,1735,1261,0,0
518,-237,0,0,0,0,0,0,0,0,0,-1,1742,1261,0,0
525,-237,0,0,0,0,0,0,0,0,0,-1,1749,1261,0,0
532,-237,0,0,0,0,0,0,0,0,0,-1,1756,1261,0,0
539,-237,0,0,0,0,0,0,0,0,0,-1,1763,1261,0,0
546,-237,0,0,0,0,0,0,0,0,0,-1,1770,1261,0,0
553,-237,0,0,0,0,0,0,0,0,0,-1,1777,1261,0,0
560,-237,0,0,0,0,0,0,0,0,0,-1,1784,1261,0,0
567,-237,0,0,0,0,0,0,0,0,0,-1,1791,1261,0,0
574,-237,0,0,0,0,0,0,0,0,0,-1,1798,1261,0,0
581,-237,0,0,0,0,0,0,0,0,0,-1,1805,1261,0,0
588,-237,0,0,0,0,0,0,0,0,0,-1,1812,1261,0,0
595,-237,0,0,0,0,0,0,0,0,0,-1,1819,1261,0,0
602,-237,0,0,0,0,0,0,0,0,0,-1,1826,1261,0,0
609,-237,0,0,0,0,0,0,0,0,0,-1,1833,1261,0,0
616,-237,70.3923,2.31213,0.00207329,0.00356207,-0.000125717,0.00357261,0.00206275,-1.48714,0.00207087,0.0359977,1840,1261,70.3923,-2.31217
623,-237,70.4512,2.32666,-0.000569696,0.00671616,-0.00190336,0.00718343,-0.00103696,-1.33006,0.00516939,0.0308165,1847,1261,70.4511,-2.32668
630,-237,70.4357,2.34827,-0.00326678,0.00993063,-0.00374201,0.0109178,-0.00425395,-1.31286,0.00903668,0.0253624,1854,1261,70.4357,-2.34821
637,-237,70.2542,2.28418,-0.00490063,0.0120222,-0.00504605,0.0134126,-0.00629102,-1.30193,0.011621,0.0223316,1861,1261,70.2542,-2.28415
644,-237,70.0203,1.98096,-0.00411127,0.0107911,-0.00491511,0.0122662,-0.00558636,-1.27924,0.010545,0.0448414,1868,1261,70.0203,-1.98095
651,-237,69.7999,1.64526,0,0,0,0,0,0,0,-1,1875,1261,69.7999,-1.64532
658,-237,62.9901,2.01404,0,0,0,0,0,0,0,-1,1882,1261,62.9901,-2.01406
665,-237,57.9302,3.30676,0,0,0,0,0,0,0,-1,1889,1261,57.9302,-3.30671
672,-237,45.3922,1.95618,0,0,0,0,0,0,0,-1,1896,1261,45.3922,-1.95623
679,-237,23.1501,7.37488,0,0,0,0,0,0,0,-1,1903,1261,23.1502,-7.37493
686,-237,36.8348,9.99426,0,0,0,0,0,0,0,-1,1910,1261,36.8349,-9.99424
693,-237,52.6616,13.0547,0,0,0,0,0,0,0,-1,1917,1261,52.6616,-13.0547
700,-237,52.9036,12.1901,0.00092947,-0.000465001,0.00042936,0.00105107,-0.000586598,0.275979,0.000958099,0.030007,1924,1261,52.9036,-12.19
707,-237,52.8102,11.5548,0.000340112,-0.000758472,0.000706392,0.000685645,-0.00110401,0.454931,0.00104262,0.0179171,1931,1261,52.8102,-11.5549
714,-237,52.7434,10.8667,-0.000318774,-0.000779908,0.00122359,0.000695786,-0.00179447,0.692273,0.00148366,0.0167968,1938,1261,52.7434,-10.8667
721,-237,52.6761,10.2194,-0.000914461,-0.000887142,0.00186631,0.000965562,-0.00276716,0.789058,0.0022372,0.0195951,1945,1261,52.6762,-10.2193
728,-237,52.6682,9.50256,-0.00160155,-0.000769656,0.00252028,0.00136877,-0.00373997,0.867181,0.0030536,0.0167879,1952,1261,52.6682,-9.50255
735,-237,52.6429,8.7915,-0.00233696,-0.000549307,0.00324245,0.00192026,-0.00480653,0.91989,0.00400111,0.0206888,1959,1261,52.6429,-8.79155
742,-237,52.6193,8.16003,-0.00306208,-0.000378562,0.00410835,0.00260158,-0.00604222,0.943234,0.00512059,0.0164152,1966,1261,52.6192,-8.16007
749,-237,52.5519,7.49976,-0.00370264,-0.000236158,0.0050921,0.0034096,-0.0073484,0.949437,0.00634838,0.0112164,1973,1261,52.5519,-7.49972
756,-237,52.4789,6.81775,-0.00425977,-0.000198624,0.0063435,0.00443138,-0.00888977,0.940296,0.00783323,0.0186785,1980,1261,52.4789,-6.8177
763,-237,52.4554,6.12451,0,0,0,0,0,0,0,-1,1987,1261,52.4554,-6.12455
770,-237,52.0847,4.74023,0,0,0,0,0,0,0,-1,1994,1261,52.0847,-4.74029
777,-237,52.7693,3.3363,0,0,0,0,0,0,0,-1,2001,1261,52.7694,-3.33629
784,-237,36.3441,1.68591,0,0,0,0,0,0,0,-1,2008,1261,36.3441,-1.68592
791,-237,32.3025,6.03235,0,0,0,0,0,0,0,-1,2015,1261,32.3025,-6.03229
798,-237,0,0,0,0,0,0,0,0,0,-1,2022,1261,0,0
805,-237,0,0,0,0,0,0,0,0,0,-1,2029,1261,0,0
812,-237,0,0,0,0,0,0,0,0,0,-1,2036,1261,0,0
-700,-244,0,0,0,0,0,0,0,0,0,-1,524,1268,0,0
-693,-244,0,0,0,0,0,0,0,0,0,-1,531,1268,0,0
-686,-244,0,0,0,0,0,0,0,0,0,-1,538,1268,0,0
-679,-244,0,0,0,0,0,0,0,0,0,-1,545,1268,0,0
-672,-244,-44.7993,4.39575,0,0,0,0,0,0,0,-1,552,1268,-44.7992,-4.39576
-665,-244,-46.0868,3.64392,0,0,0,0,0,0,0,-1,559,1268,-46.0868,-3.64391
-658,-244,-45.9758,2.05481,0,0,0,0,0,0,0,-1,566,1268,-45.9758,-2.05486
-651,-244,-46.4749,1.28564,0,0,0,0,0,0,0,-1,573,1268,-46.4749,-1.28561
-644,-244,-32.7362,1.51355,0,0,0,0,0,0,0,-1,580,1268,-32.7362,-1.51355
-637,-244,-34.8414,3.00073,0,0,0,0,0,0,0,-1,587,1268,-34.8414,-3.00078
-630,-244,-35.4853,4.20508,0,0,0,0,0,0,0,-1,594,1268,-35.4853,-4.20511
-623,-244,-35.48,5.05493,0.00129258,0.00194027,0.00193471,0.00357805,-0.000345199,0.868322,0.00250836,0.0397163,601,1268,-35.48,-5.05488
-616,-244,-35.4855,5.89172,-0.000279294,0.00181405,0.00202197,0.00304419,-0.00150944,1.02423,0.00267835,0.0180324,608,1268,-35.4855,-5.89168
-609,-244,-35.5365,6.61584,-0.00064928,0.00190087,0.0015429,0.00262738,-0.00137579,1.13072,0.00234858,0.0159727,615,1268,-35.5365,-6.61581
-602,-244,-35.5778,7.31921,-0.000249135,0.00136816,0.000820916,0.00171182,-0.000592795,1.17433,0.00138187,0.0160802,622,1268,-35.5778,-7.31917
-595,-244,-35.6118,8.05457,0.000160744,0.000683153,0.000146129,0.000721251,0.000122646,1.31576,0.000445614,0.0167429,629,1268,-35.6118,-8.05462
-588,-244,-35.6371,8.79688,0.000558123,-0.000199605,-0.000476098,0.000787705,-0.000429188,-0.44932,0.000712665,0.0219196,636,1268,-35.6371,-8.79687
-581,-244,-35.6885,9.51257,0.000534071,-0.00114012,-0.000838202,0.00088159,-0.00148764,-0.393029,0.00138271,0.0190452,643,1268,-35.6885,-9.51256
-574,-244,-35.7189,10.22,-0.000403357,-0.00207964,-0.000768018,-0.000104691,-0.00237831,-0.370883,0.00155182,0.0220362,650,1268,-35.719,-10.22
-567,-244,-35.792,10.9183,-0.00171277,-0.00304012,-0.000366994,-0.00161806,-0.00313483,-0.25256,0.00181021,0.0334747,657,1268,-35.792,-10.9184
-560,-244,-35.779,11.5404,-0.00208383,-0.0022621,-0.00102309,-0.001146,-0.00319992,-0.741945,0.0018721,0.0437897,664,1268,-35.779,-11.5404
-553,-244,-35.6624,12.178,0,0,0,0,0,0,0,-1,671,1268,-35.6624,-12.178
-546,-244,-11.2686,4.41772,0,0,0,0,0,0,0,-1,678,1268,-11.2686,-4.41767
-539,-244,-12.8706,0.3302,0,0,0,0,0,0,0,-1,685,1268,-12.8706,-0.330156
-532,-244,-18.1502,0.816528,0,0,0,0,0,0,0,-1,692,1268,-18.1502,-0.816514
-525,-244,-33.0835,0.693604,0,0,0,0,0,0,0,-1,699,1268,-33.0835,-0.69365
-518,-244,-47.5015,0.609131,0,0,0,0,0,0,0,-1,706,1268,-47.5015,-0.60919
-511,-244,-48.6138,1.11877,0,0,0,0,0,0,0,-1,713,1268,-48.6138,-1.11872
-504,-244,-54.1479,0.664551,0,0,0,0,0,0,0,-1,720,1268,-54.1479,-0.664565
-497,-244,-54.1907,0.799194,0,0,0,0,0,0,0,-1,727,1268,-54.1907,-0.799181
-490,-244,0,0,0,0,0,0,0,0,0,-1,734,1268,0,0
-483,-244,0,0,0,0,0,0,0,0,0,-1,741,1268,0,0
-476,-244,0,0,0,0,0,0,0,0,0,-1,748,1268,0,0
-469,-244,0,0,0,0,0,0,0,0,0,-1,755,1268,0,0
-462,-244,0,0,0,0,0,0,0,0,0,-1,762,1268,0,0
-455,-244,0,0,0,0,0,0,0,0,0,-1,769,1268,0,0
-448,-244,0,0,0,0,0,0,0,0,0,-1,776,1268,0,0
-441,-244,0,0,0,0,0,0,0,0,0,-1,783,1268,0,0
-434,-244,0,0,0,0,0,0,0,0,0,-1,790,1268,0,0
-427,-244,0,0,0,0,0,0,0,0,0,-1,797,1268,0,0
-420,-244,0,0,0,0,0,0,0,0,0,-1,804,1268,0,0
-413,-244,0,0,0,0,0,0,0,0,0,-1,811,1268,0,0
-406,-244,0,0,0,0,0,0,0,0,0,-1,818,1268,0,0
-399,-244,0,0,0,0,0,0,0,0,0,-1,825,1268,0,0
-392,-244,0,0,0,0,0,0,0,0,0,-1,832,1268,0,0
-385,-244,0,0,0,0,0,0,0,0,0,-1,839,1268,0,0
-378,-244,0,0,0,0,0,0,0,0,0,-1,846,1268,0,0
-371,-244,0,0,0,0,0,0,0,0,0,-1,853,1268,0,0
-364,-244,0,0,0,0,0,0,0,0,0,-1,860,1268,0,0
-357,-244,0,0,0,0,0,0,0,0,0,-1,867,1268,0,0
-350,-244,0,0,0,0,0,0,0,0,0,-1,874,1268,0,0
-343,-244,0,0,0,0,0,0,0,0,0,-1,881,1268,0,0
-336,-244,0,0,0,0,0,0,0,0,0,-1,888,1268,0,0
-329,-244,0,0,0,0,0,0,0,0,0,-1,895,1268,0,0
-322,-244,0,0,0,0,0,0,0,0,0,-1,902,1268,0,0
-315,-244,0,0,0,0,0,0,0,0,0,-1,909,1268,0,0
-308,-244,0,0,0,0,0,0,0,0,0,-1,916,1268,0,0
-301,-244,0,0,0,0,0,0,0,0,0,-1,923,1268,0,0
-294,-244,0,0,0,0,0,0,0,0,0,-1,930,1268,0,0
-287,-244,0,0,0,0,0,0,0,0,0,-1,937,1268,0,0
-280,-244,0,0,0,0,0,0,0,0,0,-1,944,1268,0,0
-273,-244,0,0,0,0,0,0,0,0,0,-1,951,1268,0,0
-266,-244,0,0,0,0,0,0,0,0,0,-1,958,1268,0,0
-259,-244,0,0,0,0,0,0,0,0,0,-1,965,1268,0,0
-252,-244,0,0,0,0,0,0,0,0,0,-1,972,1268,0,0
-245,-244,0,0,0,0,0,0,0,0,0,-1,979,1268,0,0
-238,-244,0,0,0,0,0,0,0,0,0,-1,986,1268,0,0
-231,-244,0,0,0,0,0,0,0,0,0,-1,993,1268,0,0
-224,-244,0,0,0,0,0,0,0,0,0,-1,1000,1268,0,0
-217,-244,0,0,0,0,0,0,0,0,0,-1,1007,1268,0,0
-210,-244,0,0,0,0,0,0,0,0,0,-1,1014,1268,0,0
-203,-244,0,0,0,0,0,0,0,0,0,-1,1021,1268,0,0
-196,-244,0,0,0,0,0,0,0,0,0,-1,1028,1268,0,0
-189,-244,0,0,0,0,0,0,0,0,0,-1,1035,1268,0,0
-182,-244,0,0,0,0,0,0,0,0,0,-1,1042,1268,0,0
-175,-244,0,0,0,0,0,0,0,0,0,-1,1049,1268,0,0
-168,-244,0,0,0,0,0,0,0,0,0,-1,1056,1268,0,0
-161,-244,0,0,0,0,0,0,0,0,0,-1,1063,1268,0,0
-154,-244,0,0,0,0,0,0,0,0,0,-1,1070,1268,0,0
-147,-244,0,0,0,0,0,0,0,0,0,-1,1077,1268,0,0
-140,-244,0,0,0,0,0,0,0,0,0,-1,1084,1268,0,0
-133,-244,0,0,0,0,0,0,0,0,0,-1,1091,1268,0,0
-126,-244,0,0,0,0,0,0,0,0,0,-1,1098,1268,0,0
-119,-244,0,0,0,0,0,0,0,0,0,-1,1105,1268,0,0
-112,-244,0,0,0,0,0,0,0,0,0,-1,1112,1268,0,0
-105,-244,0,0,0,0,0,0,0,0,0,-1,1119,1268,0,0
-98,-244,0,0,0,0,0,0,0,0,0,-1,1126,1268,0,0
-91,-244,0,0,0,0,0,0,0,0,0,-1,1133,1268,0,0
-84,-244,0,0,0,0,0,0,0,0,0,-1,1140,1268,0,0
-77,-244,0,0,0,0,0,0,0,0,0,-1,1147,1268,0,0
-70,-244,0,0,0,0,0,0,0,0,0,-1,1154,1268,0,0
-63,-244,0,0,0,0,0,0,0,0,0,-1,1161,1268,0,0
-56,-244,0,0,0,0,0,0,0,0,0,-1,1168,1268,0,0
-49,-244,0,0,0,0,0,0,0,0,0,-1,1175,1268,0,0
-42,-244,0,0,0,0,0,0,0,0,0,-1,1182,1268,0,0
-35,-244,0,0,0,0,0,0,0,0,0,-1,1189,1268,0,0
-28,-244,0,0,0,0,0,0,0,0,0,-1,1196,1268,0,0
-21,-244,0,0,0,0,0,0,0,0,0,-1,1203,1268,0,0
-14,-244,0,0,0,0,0,0,0,0,0,-1,1210,1268,0,0
-7,-244,0,0,0,0,0,0,0,0,0,-1,1217,1268,0,0
0,-244,0,0,0,0,0,0,0,0,0,-1,1224,1268,0,0
7,-244,0,0,0,0,0,0,0,0,0,-1,1231,1268,0,0
14,-244,0,0,0,0,0,0,0,0,0,-1,1238,1268,0,0
21,-244,0,0,0,0,0,0,0,0,0,-1,1245,1268,0,0
28,-244,0,0,0,0,0,0,0,0,0,-1,1252,1268,0,0
35,-244,0,0,0,0,0,0,0,0,0,-1,1259,1268,0,0
42,-244,0,0,0,0,0,0,0,0,0,-1,1266,1268,0,0
49,-244,0,0,0,0,0,0,0,0,0,-1,1273,1268,0,0
56,-244,0,0,0,0,0,0,0,0,0,-1,1280,1268,0,0
63,-244,0,0,0,0,0,0,0,0,0,-1,1287,1268,0,0
70,-244,0,0,0,0,0,0,0,0,0,-1,1294,1268,0,0
77,-244,0,0,0,0,0,0,0,0,0,-1,1301,1268,0,0
84,-244,0,0,0,0,0,0,0,0,0,-1,1308,1268,0,0
91,-244,0,0,0,0,0,0,0,0,0,-1,1315,1268,0,0
98,-244,0,0,0,0,0,0,0,0,0,-1,1322,1268,0,0
105,-244,0,0,0,0,0,0,0,0,0,-1,1329,1268,0,0
112,-244,0,0,0,0,0,0,0,0,0,-1,1336,1268,0,0
119,-244,0,0,0,0,0,0,0,0,0,-1,1343,1268,0,0
126,-244,0,0,0,0,0,0,0,0,0,-1,1350,1268,0,0
133,-244,0,0,0,0,0,0,0,0,0,-1,1357,1268,0,0
140,-244,0,0,0,0,0,0,0,0,0,-1,1364,1268,0,0
147,-244,0,0,0,0,0,0,0,0,0,-1,1371,1268,0,0
154,-244,0,0,0,0,0,0,0,0,0,-1,1378,1268,0,0
161,-244,0,0,0,0,0,0,0,0,0,-1,1385,1268,0,0
168,-244,0,0,0,0,0,0,0,0,0,-1,1392,1268,0,0
175,-244,0,0,0,0,0,0,0,0,0,-1,1399,1268,0,0
182,-244,0,0,0,0,0,0,0,0,0,-1,1406,1268,0,0
189,-244,0,0,0,0,0,0,0,0,0,-1,1413,1268,0,0
196,-244,0,0,0,0,0,0,0,0,0,-1,1420,1268,0,0
203,-244,0,0,0,0,0,0,0,0,0,-1,1427,1268,0,0
210,-244,0,0,0,0,0,0,0,0,0,-1,1434,1268,0,0
217,-244,0,0,0,0,0,0,0,0,0,-1,1441,1268,0,0
224,-244,0,0,0,0,0,0,0,0,0,-1,1448,1268,0,0
231,-244,0,0,0,0,0,0,0,0,0,-1,1455,1268,0,0
238,-244,0,0,0,0,0,0,0,0,0,-1,1462,1268,0,0
245,-244,0,0,0,0,0,0,0,0,0,-1,1469,1268,0,0
252,-244,0,0,0,0,0,0,0,0,0,-1,1476,1268,0,0
259,-244,0,0,0,0,0,0,0,0,0,-1,1483,1268,0,0
266,-244,0,0,0,0,0,0,0,0,0,-1,1490,1268,0,0
273,-244,0,0,0,0,0,0,0,0,0,-1,1497,1268,0,0
280,-244,0,0,0,0,0,0,0,0,0,-1,1504,1268,0,0
287,-244,0,0,0,0,0,0,0,0,0,-1,1511,1268,0,0
294,-244,0,0,0,0,0,0,0,0,0,-1,1518,1268,0,0
301,-244,0,0,0,0,0,0,0,0,0,-1,1525,1268,0,0
308,-244,0,0,0,0,0,0,0,0,0,-1,1532,1268,0,0
315,-244,0,0,0,0,0,0,0,0,0,-1,1539,1268,0,0
322,-244,0,0,0,0,0,0,0,0,0,-1,1546,1268,0,0
329,-244,0,0,0,0,0,0,0,0,0,-1,1553,1268,0,0
336,-244,0,0,0,0,0,0,0,0,0,-1,1560,1268,0,0
343,-244,0,0,0,0,0,0,0,0,0,-1,1567,1268,0,0
350,-244,0,0,0,0,0,0,0,0,0,-1,1574,1268,0,0
357,-244,0,0,0,0,0,0,0,0,0,-1,1581,1268,0,0
364,-244,0,0,0,0,0,0,0,0,0,-1,1588,1268,0,0
371,-244,0,0,0,0,0,0,0,0,0,-1,1595,1268,0,0
378,-244,0,0,0,0,0,0,0,0,0,-1,1602,1268,0,0
385,-244,0,0,0,0,0,0,0,0,0,-1,1609,1268,0,0
392,-244,0,0,0,0,0,0,0,0,0,-1,1616,1268,0,0
399,-244,0,0,0,0,0,0,0,0,0,-1,1623,1268,0,0
406,-244,0,0,0,0,0,0,0,0,0,-1,1630,1268,0,0
413,-244,0,0,0,0,0,0,0,0,0,-1,1637,1268,0,0
420,-244,0,0,0,0,0,0,0,0,0,-1,1644,1268,0,0
427,-244,0,0,0,0,0,0,0,0,0,-1,1651,1268,0,0
434,-244,0,0,0,0,0,0,0,0,0,-1,1658,1268,0,0
441,-244,0,0,0,0,0,0,0,0,0,-1,1665,1268,0,0
448,-244,0,0,0,0,0,0,0,0,0,-1,1672,1268,0,0
455,-244,0,0,0,0,0,0,0,0,0,-1,1679,1268,0,0
462,-244,0,0,0,0,0,0,0,0,0,-1,1686,1268,0,0
469,-244,0,0,0,0,0,0,0,0,0,-1,1693,1268,0,0
476,-244,0,0,0,0,0,0,0,0,0,-1,1700,1268,0,0
483,-244,0,0,0,0,0,0,0,0,0,-1,1707,1268,0,0
490,-244,0,0,0,0,0,0,0,0,0,-1,1714,1268,0,0
497,-244,0,0,0,0,0,0,0,0,0,-1,1721,1268,0,0
504,-244,0,0,0,0,0,0,0,0,0,-1,1728,1268,0,0
511,-244,0,0,0,0,0,0,0,0,0,-1,1735,1268,0,0
518,-244,0,0,0,0,0,0,0,0,0,-1,1742,1268,0,0
525,-244,0,0,0,0,0,0,0,0,0,-1,1749,1268,0,0
532,-244,0,0,0,0,0,0,0,0,0,-1,1756,1268,0,0
539,-244,0,0,0,0,0,0,0,0,0,-1,1763,1268,0,0
546,-244,0,0,0,0,0,0,0,0,0,-1,1770,1268,0,0
553,-244,0,0,0,0,0,0,0,0,0,-1,1777,1268,0,0
560,-244,0,0,0,0,0,0,0,0,0,-1,1784,1268,0,0
567,-244,0,0,0,0,0,0,0,0,0,-1,1791,1268,0,0
574,-244,0,0,0,0,0,0,0,0,0,-1,1798,1268,0,0
581,-244,0,0,0,0,0,0,0,0,0,-1,1805,1268,0,0
588,-244,0,0,0,0,0,0,0,0,0,-1,1812,1268,0,0
595,-244,0,0,0,0,0,0,0,0,0,-1,1819,1268,0,0
602,-244,0,0,0,0,0,0,0,0,0,-1,1826,1268,0,0
609,-244,0,0,0,0,0,0,0,0,0,-1,1833,1268,0,0
616,-244,70.4182,2.25806,0.000683144,0.00481007,-0.00043724,0.00485589,0.000637328,-1.46639,0.00304711,0.0323923,1840,1268,70.4182,-2.25804
623,-244,70.4358,2.31946,-0.00205066,0.00859155,-0.00266915,0.00922347,-0.00268258,-1.33833,0.00721145,0.0253075,1847,1268,70.4358,-2.31942
630,-244,70.3734,2.37756,-0.00484555,0.0121981,-0.00485943,0.0134863,-0.00613369,-1.31167,0.0115897,0.0233193,1854,1268,70.3735,-2.3776
637,-244,70.0193,2.01428,0,0,0,0,0,0,0,-1,1861,1268,70.0193,-2.01423
644,-244,69.7208,1.60608,-0.00435895,0.0112287,-0.00514817,0.0127755,-0.00590576,-1.27892,0.011026,0.048686,1868,1268,69.7209,-1.60611
651,-244,69.4305,1.19861,0,0,0,0,0,0,0,-1,1875,1268,69.4305,-1.1986
658,-244,69.1154,0.765625,0,0,0,0,0,0,0,-1,1882,1268,69.1154,-0.765637
665,-244,50.7988,1.09888,0,0,0,0,0,0,0,-1,1889,1268,50.7989,-1.09893
672,-244,32.224,3.6123,0,0,0,0,0,0,0,-1,1896,1268,32.224,-3.6123
679,-244,27.2593,7.90649,0,0,0,0,0,0,0,-1,1903,1268,27.2592,-7.9065
686,-244,52.1396,13.6345,0,0,0,0,0,0,0,-1,1910,1268,52.1396,-13.6346
693,-244,52.077,13.0081,-0.000822164,0.00135472,-0.000248975,0.00138284,-0.000850276,-1.45836,0.00130145,0.0382778,1917,1268,52.077,-13.0081
700,-244,52.1107,12.2928,0.00103102,-0.000905099,0.000394524,0.00110832,-0.000982405,0.193495,0.00120781,0.0120862,1924,1268,52.1107,-12.2929
707,-244,52.0864,11.6143,0.000327497,-0.00096931,0.000721054,0.000648808,-0.00129062,0.419199,0.00113998,0.011183,1931,1268,52.0864,-11.6143
714,-244,52.1321,10.9257,-0.000448751,-0.000784825,0.00129236,0.000686447,-0.00192002,0.720749,0.00156001,0.015828,1938,1268,52.1321,-10.9257
721,-244,52.0229,10.2679,-0.00119216,-0.000711845,0.00195432,0.00101701,-0.00292102,0.846535,0.00236054,0.0231214,1945,1268,52.0229,-10.2679
728,-244,51.9869,9.52368,-0.00199744,-0.000512728,0.00265596,0.00150267,-0.00401284,0.921673,0.00329248,0.0294657,1952,1268,51.9869,-9.52373
735,-244,51.9403,8.75891,-0.00285385,-0.000300685,0.00345939,0.00211015,-0.00526468,0.962156,0.00438578,0.0290787,1959,1268,51.9403,-8.75885
742,-244,51.8851,8.20251,-0.00372765,-0.000122674,0.00440791,0.00283705,-0.00668737,0.979485,0.00564672,0.0184509,1966,1268,51.8851,-8.20257
749,-244,51.7294,7.66467,-0.00456966,3.00414e-05,0.00548345,0.00367641,-0.00821603,0.983964,0.00703087,0.0256287,1973,1268,51.7293,-7.6647
756,-244,51.4889,7.11462,-0.00541239,6.73962e-05,0.00688629,0.00473884,-0.0100838,0.974736,0.00874137,0.0369375,1980,1268,51.4889,-7.11457
763,-244,51.3728,6.34827,0,0,0,0,0,0,0,-1,1987,1268,51.3728,-6.34825
770,-244,51.988,4.63623,0,0,0,0,0,0,0,-1,1994,1268,51.988,-4.63621
777,-244,48.7119,2.7002,0,0,0,0,0,0,0,-1,2001,1268,48.712,-2.70019
784,-244,31.7908,5.20081,0,0,0,0,0,0,0,-1,2008,1268,31.7907,-5.20083
791,-244,0,0,0,0,0,0,0,0,0,-1,2015,1268,0,0
798,-244,0,0,0,0,0,0,0,0,0,-1,2022,1268,0,0
805,-244,0,0,0,0,0,0,0,0,0,-1,2029,1268,0,0
812,-244,0,0,0,0,0,0,0,0,0,-1,2036,1268,0,0
-700,-251,0,0,0,0,0,0,0,0,0,-1,524,1275,0,0
-693,-251,0,0,0,0,0,0,0,0,0,-1,531,1275,0,0
-686,-251,0,0,0,0,0,0,0,0,0,-1,538,1275,0,0
-679,-251,0,0,0,0,0,0,0,0,0,-1,545,1275,0,0
-672,-251,0,0,0,0,0,0,0,0,0,-1,552,1275,0,0
-665,-251,-45.2521,2.44568,0,0,0,0,0,0,0,-1,559,1275,-45.2521,-2.44573
-658,-251,-45.5222,1.44397,0,0,0,0,0,0,0,-1,566,1275,-45.5221,-1.44401
-651,-251,-45.8498,0.382935,0,0,0,0,0,0,0,-1,573,1275,-45.8498,-0.382965
-644,-251,-46.2018,-0.658325,0,0,0,0,0,0,0,-1,580,1275,-46.2019,0.658365
-637,-251,-34.0408,3.17102,0,0,0,0,0,0,0,-1,587,1275,-34.0407,-3.17108
-630,-251,-34.8013,4.18127,0,0,0,0,0,0,0,-1,594,1275,-34.8013,-4.18131
-623,-251,-34.8197,5.06555,-0.00232093,0.0025053,0.00477611,0.00544329,-0.00525892,1.01932,0.00617923,0.0419168,601,1275,-34.8197,-5.0656
-616,-251,-34.7628,5.94434,-0.00144709,0.00243987,0.00350656,0.00450551,-0.00351274,1.03844,0.00464115,0.0206723,608,1275,-34.7628,-5.94429
-609,-251,-34.8105,6.65527,-0.000937414,0.00246673,0.00242774,0.00372961,-0.0022003,1.09113,0.00346138,0.0197132,615,1275,-34.8105,-6.65527
-602,-251,-34.8408,7.36938,-0.000461793,0.00176311,0.0014932,0.0025127,-0.00121138,1.10555,0.00219342,0.0146158,622,1275,-34.8407,-7.36942
-595,-251,-34.863,8.08643,-1.32416e-05,0.000933939,0.000675945,0.00128569,-0.000364993,1.09097,0.00100122,0.0137574,629,1275,-34.863,-8.08644
-588,-251,-34.9107,8.79492,0.000419675,-4.95078e-05,-3.16447e-05,0.000421799,-5.16325e-05,-0.0670419,0.000299896,0.0161809,636,1275,-34.9107,-8.79493
-581,-251,-34.9461,9.54565,0.000599387,-0.00110411,-0.000560594,0.000767315,-0.00127204,-0.291048,0.00118938,0.0151571,643,1275,-34.9461,-9.54564
-574,-251,-34.9816,10.3246,0.000158969,-0.00212189,-0.000805013,0.000414471,-0.0023774,-0.307332,0.00173962,0.0150653,650,1275,-34.9816,-10.3246
-567,-251,-35.0731,11.0494,-0.000662185,-0.00303084,-0.000768282,-0.000434815,-0.00325821,-0.287733,0.00204268,0.0279757,657,1275,-35.0731,-11.0494
-560,-251,-35.0643,11.9302,-0.00101879,-0.00220138,-0.00156267,6.07191e-05,-0.00328088,-0.604529,0.00220777,0.0477656,664,1275,-35.0643,-11.9302
-553,-251,-34.8975,12.7003,0,0,0,0,0,0,0,-1,671,1275,-34.8975,-12.7003
-546,-251,-12.995,4.5675,0,0,0,0,0,0,0,-1,678,1275,-12.995,-4.56745
-539,-251,-10.7916,0.366333,0,0,0,0,0,0,0,-1,685,1275,-10.7916,-0.366282
-532,-251,-10.7391,-0.00769043,0,0,0,0,0,0,0,-1,692,1275,-10.7391,0.00773227
-525,-251,-29.4286,-0.250244,0,0,0,0,0,0,0,-1,699,1275,-29.4286,0.250266
-518,-251,-32.6981,0.678833,0,0,0,0,0,0,0,-1,706,1275,-32.6981,-0.678787
-511,-251,-29.4731,0.637085,0,0,0,0,0,0,0,-1,713,1275,-29.4731,-0.637025
-504,-251,-30.6428,0.792358,0,0,0,0,0,0,0,-1,720,1275,-30.6427,-0.792335
-497,-251,-54.1249,0.753784,0,0,0,0,0,0,0,-1,727,1275,-54.1249,-0.753774
-490,-251,0,0,0,0,0,0,0,0,0,-1,734,1275,0,0
-483,-251,0,0,0,0,0,0,0,0,0,-1,741,1275,0,0
-476,-251,0,0,0,0,0,0,0,0,0,-1,748,1275,0,0
-469,-251,0,0,0,0,0,0,0,0,0,-1,755,1275,0,0
-462,-251,0,0,0,0,0,0,0,0,0,-1,762,1275,0,0
-455,-251,0,0,0,0,0,0,0,0,0,-1,769,1275,0,0
-448,-251,0,0,0,0,0,0,0,0,0,-1,776,1275,0,0
-441,-251,0,0,0,0,0,0,0,0,0,-1,783,1275,0,0
-434,-251,0,0,0,0,0,0,0,0,0,-1,790,1275,0,0
-427,-251,0,0,0,0,0,0,0,0,0,-1,797,1275,0,0
-420,-251,0,0,0,0,0,0,0,0,0,-1,804,1275,0,0
-413,-251,0,0,0,0,0,0,0,0,0,-1,811,1275,0,0
-406,-251,0,0,0,0,0,0,0,0,0,-1,818,1275,0,0
-399,-251,0,0,0,0,0,0,0,0,0,-1,825,1275,0,0
-392,-251,0,0,0,0,0,0,0,0,0,-1,832,1275,0,0
-385,-251,0,0,0,0,0,0,0,0,0,-1,839,1275,0,0
-378,-251,0,0,0,0,0,0,0,0,0,-1,846,1275,0,0
-371,-251,0,0,0,0,0,0,0,0,0,-1,853,1275,0,0
-364,-251,0,0,0,0,0,0,0,0,0,-1,860,1275,0,0
-357,-251,0,0,0,0,0,0,0,0,0,-1,867,1275,0,0
-350,-251,0,0,0,0,0,0,0,0,0,-1,874,1275,0,0
-343,-251,0,0,0,0,0,0,0,0,0,-1,881,1275,0,0
-336,-251,0,0,0,0,0,0,0,0,0,-1,888,1275,0,0
-329,-251,0,0,0,0,0,0,0,0,0,-1,895,1275,0,0
-322,-251,0,0,0,0,0,0,0,0,0,-1,902,1275,0,0
-315,-251,0,0,0,0,0,0,0,0,0,-1,909,1275,0,0
-308,-251,0,0,0,0,0,0,0,0,0,-1,916,1275,0,0
-301,-251,0,0,0,0,0,0,0,0,0,-1,923,1275,0,0
-294,-251,0,0,0,0,0,0,0,0,0,-1,930,1275,0,0
-287,-251,0,0,0,0,0,0,0,0,0,-1,937,1275,0,0
-280,-251,0,0,0,0,0,0,0,0,0,-1,944,1275,0,0
-273,-251,0,0,0,0,0,0,0,0,0,-1,951,1275,0,0
-266,-251,0,0,0,0,0,0,0,0,0,-1,958,1275,0,0
-259,-251,0,0,0,0,0,0,0,0,0,-1,965,1275,0,0
-252,-251,0,0,0,0,0,0,0,0,0,-1,972,1275,0,0
-245,-251,0,0,0,0,0,0,0,0,0,-1,979,1275,0,0
-238,-251,0,0,0,0,0,0,0,0,0,-1,986,1275,0,0
-231,-251,0,0,0,0,0,0,0,0,0,-1,993,1275,0,0
-224,-251,0,0,0,0,0,0,0,0,0,-1,1000,1275,0,0
-217,-251,0,0,0,0,0,0,0,0,0,-1,1007,1275,0,0
-210,-251,0,0,0,0,0,0,0,0,0,-1,1014,1275,0,0
-203,-251,0,0,0,0,0,0,0,0,0,-1,1021,1275,0,0
-196,-251,0,0,0,0,0,0,0,0,0,-1,1028,1275,0,0
-189,-251,0,0,0,0,0,0,0,0,0,-1,1035,1275,0,0
-182,-251,0,0,0,0,0,0,0,0,0,-1,1042,1275,0,0
-175,-251,0,0,0,0,0,0,0,0,0,-1,1049,1275,0,0
-168,-251,0,0,0,0,0,0,0,0,0,-1,1056,1275,0,0
-161,-251,0,0,0,0,0,0,0,0,0,-1,1063,1275,0,0
-154,-251,0,0,0,0,0,0,0,0,0,-1,1070,1275,0,0
-147,-251,0,0,0,0,0,0,0,0,0,-1,1077,1275,0,0
-140,-251,0,0,0,0,0,0,0,0,0,-1,1084,1275,0,0
-133,-251,0,0,0,0,0,0,0,0,0,-1,1091,1275,0,0
-126,-251,0,0,0,0,0,0,0,0,0,-1,1098,1275,0,0
-119,-251,0,0,0,0,0,0,0,0,0,-1,1105,1275,0,0
-112,-251,0,0,0,0,0,0,0,0,0,-1,1112,1275,0,0
-105,-251,0,0,0,0,0,0,0,0,0,-1,1119,1275,0,0
-98,-251,0,0,0,0,0,0,0,0,0,-1,1126,1275,0,0
-91,-251,0,0,0,0,0,0,0,0,0,-1,1133,1275,0,0
-84,-251,0,0,0,0,0,0,0,0,0,-1,1140,1275,0,0
-77,-251,0,0,0,0,0,0,0,0,0,-1,1147,1275,0,0
-70,-251,0,0,0,0,0,0,0,0,0,-1,1154,1275,0,0
-63,-251,0,0,0,0,0,0,0,0,0,-1,1161,1275,0,0
-56,-251,0,0,0,0,0,0,0,0,0,-1,1168,1275,0,0
-49,-251,0,0,0,0,0,0,0,0,0,-1,1175,1275,0,0
-42,-251,0,0,0,0,0,0,0,0,0,-1,1182,1275,0,0
-35,-251,0,0,0,0,0,0,0,0,0,-1,1189,1275,0,0
-28,-251,0,0,0,0,0,0,0,0,0,-1,1196,1275,0,0
-21,-251,0,0,0,0,0,0,0,0,0,-1,1203,1275,0,0
-14,-251,0,0,0,0,0,0,0,0,0,-1,1210,1275,0,0
-7,-251,0,0,0,0,0,0,0,0,0,-1,1217,1275,0,0
0,-251,0,0,0,0,0,0,0,0,0,-1,1224,1275,0,0
7,-251,0,0,0,0,0,0,0,0,0,-1,1231,1275,0,0
14,-251,0,0,0,0,0,0,0,0,0,-1,1238,1275,0,0
21,-251,0,0,0,0,0,0,0,0,0,-1,1245,1275,0,0
28,-251,0,0,0,0,0,0,0,0,0,-1,1252,1275,0,0
35,-251,0,0,0,0,0,0,0,0,0,-1,1259,1275,0,0
42,-251,0,0,0,0,0,0,0,0,0,-1,1266,1275,0,0
49,-251,0,0,0,0,0,0,0,0,0,-1,1273,1275,0,0
56,-251,0,0,0,0,0,0,0,0,0,-1,1280,1275,0,0
63,-251,0,0,0,0,0,0,0,0,0,-1,1287,1275,0,0
70,-251,0,0,0,0,0,0,0,0,0,-1,1294,1275,0,0
77,-251,0,0,0,0,0,0,0,0,0,-1,1301,1275,0,0
84,-251,0,0,0,0,0,0,0,0,0,-1,1308,1275,0,0
91,-251,0,0,0,0,0,0,0,0,0,-1,1315,1275,0,0
98,-251,0,0,0,0,0,0,0,0,0,-1,1322,1275,0,0
105,-251,0,0,0,0,0,0,0,0,0,-1,1329,1275,0,0
112,-251,0,0,0,0,0,0,0,0,0,-1,1336,1275,0,0
119,-251,0,0,0,0,0,0,0,0,0,-1,1343,1275,0,0
126,-251,0,0,0,0,0,0,0,0,0,-1,1350,1275,0,0
133,-251,0,0,0,0,0,0,0,0,0,-1,1357,1275,0,0
140,-251,0,0,0,0,0,0,0,0,0,-1,1364,1275,0,0
147,-251,0,0,0,0,0,0,0,0,0,-1,1371,1275,0,0
154,-251,0,0,0,0,0,0,0,0,0,-1,1378,1275,0,0
161,-251,0,0,0,0,0,0,0,0,0,-1,1385,1275,0,0
168,-251,0,0,0,0,0,0,0,0,0,-1,1392,1275,0,0
175,-251,0,0,0,0,0,0,0,0,0,-1,1399,1275,0,0
182,-251,0,0,0,0,0,0,0,0,0,-1,1406,1275,0,0
189,-251,0,0,0,0,0,0,0,0,0,-1,1413,1275,0,0
196,-251,0,0,0,0,0,0,0,0,0,-1,1420,1275,0,0
203,-251,0,0,0,0,0,0,0,0,0,-1,1427,1275,0,0
210,-251,0,0,0,0,0,0,0,0,0,-1,1434,1275,0,0
217,-251,0,0,0,0,0,0,0,0,0,-1,1441,1275,0,0
224,-251,0,0,0,0,0,0,0,0,0,-1,1448,1275,0,0
231,-251,0,0,0,0,0,0,0,0,0,-1,1455,1275,0,0
238,-251,0,0,0,0,0,0,0,0,0,-1,1462,1275,0,0
245,-251,0,0,0,0,0,0,0,0,0,-1,1469,1275,0,0
252,-251,0,0,0,0,0,0,0,0,0,-1,1476,1275,0,0
259,-251,0,0,0,0,0,0,0,0,0,-1,1483,1275,0,0
266,-251,0,0,0,0,0,0,0,0,0,-1,1490,1275,0,0
273,-251,0,0,0,0,0,0,0,0,0,-1,1497,1275,0,0
280,-251,0,0,0,0,0,0,0,0,0,-1,1504,1275,0,0
287,-251,0,0,0,0,0,0,0,0,0,-1,1511,1275,0,0
294,-251,0,0,0,0,0,0,0,0,0,-1,1518,1275,0,0
301,-251,0,0,0,0,0,0,0,0,0,-1,1525,1275,0,0
308,-251,0,0,0,0,0,0,0,0,0,-1,1532,1275,0,0
315,-251,0,0,0,0,0,0,0,0,0,-1,1539,1275,0,0
322,-251,0,0,0,0,0,0,0,0,0,-1,1546,1275,0,0
329,-251,0,0,0,0,0,0,0,0,0,-1,1553,1275,0,0
336,-251,0,0,0,0,0,0,0,0,0,-1,1560,1275,0,0
343,-251,0,0,0,0,0,0,0,0,0,-1,1567,1275,0,0
350,-251,0,0,0,0,0,0,0,0,0,-1,1574,1275,0,0
357,-251,0,0,0,0,0,0,0,0,0,-1,1581,1275,0,0
364,-251,0,0,0,0,0,0,0,0,0,-1,1588,1275,0,0
371,-251,0,0,0,0,0,0,0,0,0,-1,1595,1275,0,0
378,-251,0,0,0,0,0,0,0,0,0,-1,1602,1275,0,0
385,-251,0,0,0,0,0,0,0,0,0,-1,1609,1275,0,0
392,-251,0,0,0,0,0,0,0,0,0,-1,1616,1275,0,0
399,-251,0,0,0,0,0,0,0,0,0,-1,1623,1275,0,0
406,-251,0,0,0,0,0,0,0,0,0,-1,1630,1275,0,0
413,-251,0,0,0,0,0,0,0,0,0,-1,1637,1275,0,0
420,-251,0,0,0,0,0,0,0,0,0,-1,1644,1275,0,0
427,-251,0,0,0,0,0,0,0,0,0,-1,1651,1275,0,0
434,-251,0,0,0,0,0,0,0,0,0,-1,1658,1275,0,0
441,-251,0,0,0,0,0,0,0,0,0,-1,1665,1275,0,0
448,-251,0,0,0,0,0,0,0,0,0,-1,1672,1275,0,0
455,-251,0,0,0,0,0,0,0,0,0,-1,1679,1275,0,0
462,-251,0,0,0,0,0,0,0,0,0,-1,1686,1275,0,0
469,-251,0,0,0,0,0,0,0,0,0,-1,1693,1275,0,0
476,-251,0,0,0,0,0,0,0,0,0,-1,1700,1275,0,0
483,-251,0,0,0,0,0,0,0,0,0,-1,1707,1275,0,0
490,-251,0,0,0,0,0,0,0,0,0,-1,1714,1275,0,0
497,-251,0,0,0,0,0,0,0,0,0,-1,1721,1275,0,0
504,-251,0,0,0,0,0,0,0,0,0,-1,1728,1275,0,0
511,-251,0,0,0,0,0,0,0,0,0,-1,1735,1275,0,0
518,-251,0,0,0,0,0,0,0,0,0,-1,1742,1275,0,0
525,-251,0,0,0,0,0,0,0,0,0,-1,1749,1275,0,0
532,-251,0,0,0,0,0,0,0,0,0,-1,1756,1275,0,0
539,-251,0,0,0,0,0,0,0,0,0,-1,1763,1275,0,0
546,-251,0,0,0,0,0,0,0,0,0,-1,1770,1275,0,0
553,-251,0,0,0,0,0,0,0,0,0,-1,1777,1275,0,0
560,-251,0,0,0,0,0,0,0,0,0,-1,1784,1275,0,0
567,-251,0,0,0,0,0,0,0,0,0,-1,1791,1275,0,0
574,-251,0,0,0,0,0,0,0,0,0,-1,1798,1275,0,0
581,-251,0,0,0,0,0,0,0,0,0,-1,1805,1275,0,0
588,-251,0,0,0,0,0,0,0,0,0,-1,1812,1275,0,0
595,-251,0,0,0,0,0,0,0,0,0,-1,1819,1275,0,0
602,-251,0,0,0,0,0,0,0,0,0,-1,1826,1275,0,0
609,-251,70.3512,2.2937,0.00144831,0.00200086,0.00111744,0.00287567,0.000573498,0.906589,0.00175742,0.0293957,1833,1275,70.3512,-2.29373
616,-251,70.3506,2.25781,-0.000749661,0.00627023,-0.00132036,0.00651036,-0.00098979,-1.3909,0.004705,0.0267272,1840,1275,70.3506,-2.25783
623,-251,70.3333,2.3114,-0.00327923,0.0105679,-0.00386295,0.0115727,-0.00428398,-1.31634,0.00947173,0.0226971,1847,1275,70.3332,-2.31137
630,-251,70.2949,2.31335,-0.00539534,0.0136543,-0.00578594,0.015274,-0.007015,-1.29785,0.0131597,0.0339547,1854,1275,70.2949,-2.31339
637,-251,70.0859,1.88892,-0.00526844,0.0135177,-0.0059157,0.0152253,-0.00697606,-1.28978,0.0131096,0.0412481,1861,1275,70.0859,-1.88891
644,-251,69.6409,1.4707,-0.00408241,0.0112284,-0.00509372,0.0127682,-0.00562218,-1.27724,0.0108816,0.0472764,1868,1275,69.6409,-1.47068
651,-251,69.2196,0.908813,0,0,0,0,0,0,0,-1,1875,1275,69.2196,-0.908771
658,-251,64.3931,2.57288,0,0,0,0,0,0,0,-1,1882,1275,64.393,-2.57287
665,-251,32.9579,2.60229,0,0,0,0,0,0,0,-1,1889,1275,32.9579,-2.60231
672,-251,26.0721,4.53064,0,0,0,0,0,0,0,-1,1896,1275,26.0721,-4.53063
679,-251,29.1344,8.63782,0,0,0,0,0,0,0,-1,1903,1275,29.1344,-8.63778
686,-251,51.5953,13.6438,0,0,0,0,0,0,0,-1,1910,1275,51.5953,-13.6438
693,-251,51.4664,13.0251,-0.000904249,0.00122776,-0.000161632,0.00123994,-0.000916433,-1.49556,0.00124964,0.0307123,1917,1275,51.4664,-13.0252
700,-251,51.4238,12.3358,0.00102581,-0.00104841,0.000530351,0.00115355,-0.00117615,0.236353,0.00134507,0.0108637,1924,1275,51.4239,-12.3358
707,-251,51.4182,11.6462,0.000239497,-0.000950539,0.00083707,0.000671481,-0.00138252,0.476418,0.00120933,0.0117268,1931,1275,51.4182,-11.6463
714,-251,51.4318,10.9415,-0.000571657,-0.000686364,0.00138015,0.000752334,-0.00201036,0.764632,0.00164924,0.0156449,1938,1275,51.4318,-10.9415
721,-251,51.3174,10.2953,-0.00137251,-0.000529224,0.00200947,0.00110236,-0.00300409,0.888811,0.00245415,0.0252962,1945,1275,51.3173,-10.2953
728,-251,51.2765,9.66467,-0.0022293,-0.000323902,0.00272528,0.0016104,-0.0041636,0.953548,0.00344054,0.0306323,1952,1275,51.2765,-9.66465
735,-251,51.2722,8.85876,-0.00315173,-0.000146198,0.00357418,0.00222829,-0.00552622,0.984403,0.00461005,0.0240894,1959,1275,51.2722,-8.85879
742,-251,51.1721,8.25513,-0.00412113,2.44237e-05,0.00457325,0.0029727,-0.0070694,0.99817,0.00595646,0.0196786,1966,1275,51.1722,-8.25513
749,-251,50.9396,7.83423,-0.00512241,0.000180564,0.00571445,0.00382871,-0.00877055,1.00261,0.00745837,0.0387677,1973,1275,50.9396,-7.83418
756,-251,50.7295,7.31909,0,0,0,0,0,0,0,-1,1980,1275,50.7295,-7.31908
763,-251,43.3652,5.7583,0,0,0,0,0,0,0,-1,1987,1275,43.3653,-5.75827
770,-251,49.4386,3.45508,0,0,0,0,0,0,0,-1,1994,1275,49.4386,-3.4551
777,-251,31.5731,4.33252,0,0,0,0,0,0,0,-1,2001,1275,31.5731,-4.33251
784,-251,32.0776,5.78247,0,0,0,0,0,0,0,-1,2008,1275,32.0776,-5.78247
791,-251,0,0,0,0,0,0,0,0,0,-1,2015,1275,0,0
798,-251,0,0,0,0,0,0,0,0,0,-1,2022,1275,0,0
805,-251,0,0,0,0,0,0,0,0,0,-1,2029,1275,0,0
812,-251,0,0,0,0,0,0,0,0,0,-1,2036,1275,0,0
-700,-258,0,0,0,0,0,0,0,0,0,-1,524,1282,0,0
-693,-258,0,0,0,0,0,0,0,0,0,-1,531,1282,0,0
-686,-258,0,0,0,0,0,0,0,0,0,-1,538,1282,0,0
-679,-258,0,0,0,0,0,0,0,0,0,-1,545,1282,0,0
-672,-258,0,0,0,0,0,0,0,0,0,-1,552,1282,0,0
-665,-258,-44.8717,2.03601,0,0,0,0,0,0,0,-1,559,1282,-44.8717,-2.03603
-658,-258,-45.2628,1.20544,0,0,0,0,0,0,0,-1,566,1282,-45.2627,-1.20545
-651,-258,-45.5418,0.0863037,0,0,0,0,0,0,0,-1,573,1282,-45.5418,-0.0863288
-644,-258,-45.1855,0.336792,0,0,0,0,0,0,0,-1,580,1282,-45.1855,-0.336733
-637,-258,-45.329,0.234253,0,0,0,0,0,0,0,-1,587,1282,-45.329,-0.234296
-630,-258,-32.7277,4.26843,0,0,0,0,0,0,0,-1,594,1282,-32.7277,-4.26847
-623,-258,-33.9088,5.11316,0,0,0,0,0,0,0,-1,601,1282,-33.9088,-5.11318
-616,-258,-34.0046,5.90259,-0.00180757,0.00322301,0.00441153,0.00578594,-0.0043705,1.04449,0.00588278,0.0342225,608,1282,-34.0046,-5.90254
-609,-258,-34.037,6.68201,-0.00115006,0.00314837,0.00317117,0.00483001,-0.0028317,1.08321,0.00447336,0.0170871,615,1282,-34.037,-6.68196
-602,-258,-34.098,7.41919,-0.000593014,0.00228277,0.00212682,0.00341215,-0.0017224,1.08264,0.00301747,0.0140682,622,1282,-34.0979,-7.41924
-595,-258,-34.1187,8.14233,-0.000101065,0.00132783,0.00123591,0.00204093,-0.000814168,1.04747,0.00169836,0.0121786,629,1282,-34.1187,-8.14231
-588,-258,-34.1703,8.85437,0.000354963,0.000272882,0.000495618,0.000811237,-0.000183392,0.744089,0.000611196,0.0135063,636,1282,-34.1703,-8.85437
-581,-258,-34.2116,9.59167,0.000709996,-0.000874231,-0.000112479,0.000717942,-0.000882177,-0.0705279,0.00092545,0.0149766,643,1282,-34.2116,-9.59166
-574,-258,-34.2235,10.3544,0.000754756,-0.00206212,-0.000545257,0.000856617,-0.00216398,-0.184684,0.00179757,0.0146932,650,1282,-34.2235,-10.3543
-567,-258,-34.3448,11.0676,0.00050681,-0.00315707,-0.000716418,0.000641913,-0.00329218,-0.186392,0.0024371,0.0179479,657,1282,-34.3448,-11.0677
-560,-258,-34.5037,11.7051,0,0,0,0,0,0,0,-1,664,1282,-34.5037,-11.7051
-553,-258,-32.5081,11.6642,0,0,0,0,0,0,0,-1,671,1282,-32.5081,-11.6641
-546,-258,-14.2231,5.92029,0,0,0,0,0,0,0,-1,678,1282,-14.2231,-5.92028
-539,-258,-10.2228,4.05823,0,0,0,0,0,0,0,-1,685,1282,-10.2228,-4.05823
-532,-258,-10.2173,-0.353882,0,0,0,0,0,0,0,-1,692,1282,-10.2173,0.353836
-525,-258,-21.8661,-1.5929,0,0,0,0,0,0,0,-1,699,1282,-21.8661,1.59285
-518,-258,-29.2484,0.123169,0,0,0,0,0,0,0,-1,706,1282,-29.2484,-0.123186
-511,-258,-23.5061,1.16833,0,0,0,0,0,0,0,-1,713,1282,-23.5061,-1.16833
-504,-258,-22.9178,0.484131,0,0,0,0,0,0,0,-1,720,1282,-22.9178,-0.484106
-497,-258,-17.8047,0.730469,0,0,0,0,0,0,0,-1,727,1282,-17.8048,-0.730489
-490,-258,-15.4346,0.632935,0,0,0,0,0,0,0,-1,734,1282,-15.4346,-0.632917
-483,-258,0,0,0,0,0,0,0,0,0,-1,741,1282,0,0
-476,-258,0,0,0,0,0,0,0,0,0,-1,748,1282,0,0
-469,-258,0,0,0,0,0,0,0,0,0,-1,755,1282,0,0
-462,-258,0,0,0,0,0,0,0,0,0,-1,762,1282,0,0
-455,-258,0,0,0,0,0,0,0,0,0,-1,769,1282,0,0
-448,-258,0,0,0,0,0,0,0,0,0,-1,776,1282,0,0
-441,-258,0,0,0,0,0,0,0,0,0,-1,783,1282,0,0
-434,-258,0,0,0,0,0,0,0,0,0,-1,790,1282,0,0
-427,-258,0,0,0,0,0,0,0,0,0,-1,797,1282,0,0
-420,-258,0,0,0,0,0,0,0,0,0,-1,804,1282,0,0
-413,-258,0,0,0,0,0,0,0,0,0,-1,811,1282,0,0
-406,-258,0,0,0,0,0,0,0,0,0,-1,818,1282,0,0
-399,-258,0,0,0,0,0,0,0,0,0,-1,825,1282,0,0
-392,-258,0,0,0,0,0,0,0,0,0,-1,832,1282,0,0
-385,-258,0,0,0,0,0,0,0,0,0,-1,839,1282,0,0
-378,-258,0,0,0,0,0,0,0,0,0,-1,846,1282,0,0
-371,-258,0,0,0,0,0,0,0,0,0,-1,853,1282,0,0
-364,-258,0,0,0,0,0,0,0,0,0,-1,860,1282,0,0
-357,-258,0,0,0,0,0,0,0,0,0,-1,867,1282,0,0
-350,-258,0,0,0,0,0,0,0,0,0,-1,874,1282,0,0
-343,-258,0,0,0,0,0,0,0,0,0,-1,881,1282,0,0
-336,-258,0,0,0,0,0,0,0,0,0,-1,888,1282,0,0
-329,-258,0,0,0,0,0,0,0,0,0,-1,895,1282,0,0
-322,-258,0,0,0,0,0,0,0,0,0,-1,902,1282,0,0
-315,-258,0,0,0,0,0,0,0,0,0,-1,909,1282,0,0
-308,-258,0,0,0,0,0,0,0,0,0,-1,916,1282,0,0
-301,-258,0,0,0,0,0,0,0,0,0,-1,923,1282,0,0
-294,-258,0,0,0,0,0,0,0,0,0,-1,930,1282,0,0
-287,-258,0,0,0,0,0,0,0,0,0,-1,937,1282,0,0
-280,-258,0,0,0,0,0,0,0,0,0,-1,944,1282,0,0
-273,-258,0,0,0,0,0,0,0,0,0,-1,951,1282,0,0
-266,-258,0,0,0,0,0,0,0,0,0,-1,958,1282,0,0
-259,-258,0,0,0,0,0,0,0,0,0,-1,965,1282,0,0
-252,-258,0,0,0,0,0,0,0,0,0,-1,972,1282,0,0
-245,-258,0,0,0,0,0,0,0,0,0,-1,979,1282,0,0
-238,-258,0,0,0,0,0,0,0,0,0,-1,986,1282,0,0
-231,-258,0,0,0,0,0,0,0,0,0,-1,993,1282,0,0
-224,-258,0,0,0,0,0,0,0,0,0,-1,1000,1282,0,0
-217,-258,0,0,0,0,0,0,0,0,0,-1,1007,1282,0,0
-210,-258,0,0,0,0,0,0,0,0,0,-1,1014,1282,0,0
-203,-258,0,0,0,0,0,0,0,0,0,-1,1021,1282,0,0
-196,-258,0,0,0,0,0,0,0,0,0,-1,1028,1282,0,0
-189,-258,0,0,0,0,0,0,0,0,0,-1,1035,1282,0,0
-182,-258,0,0,0,0,0,0,0,0,0,-1,1042,1282,0,0
-175,-258,0,0,0,0,0,0,0,0,0,-1,1049,1282,0,0
-168,-258,0,0,0,0,0,0,0,0,0,-1,1056,1282,0,0
-161,-258,0,0,0,0,0,0,0,0,0,-1,1063,1282,0,0
-154,-258,0,0,0,0,0,0,0,0,0,-1,1070,1282,0,0
-147,-258,0,0,0,0,0,0,0,0,0,-1,1077,1282,0,0
-140,-258,0,0,0,0,0,0,0,0,0,-1,1084,1282,0,0
-133,-258,0,0,0,0,0,0,0,0,0,-1,1091,1282,0,0
-126,-258,0,0,0,0,0,0,0,0,0,-1,1098,1282,0,0
-119,-258,0,0,0,0,0,0,0,0,0,-1,1105,1282,0,0
-112,-258,0,0,0,0,0,0,0,0,0,-1,1112,1282,0,0
-105,-258,0,0,0,0,0,0,0,0,0,-1,1119,1282,0,0
-98,-258,0,0,0,0,0,0,0,0,0,-1,1126,1282,0,0
-91,-258,0,0,0,0,0,0,0,0,0,-1,1133,1282,0,0
-84,-258,0,0,0,0,0,0,0,0,0,-1,1140,1282,0,0
-77,-258,0,0,0,0,0,0,0,0,0,-1,1147,1282,0,0
-70,-258,0,0,0,0,0,0,0,0,0,-1,1154,1282,0,0
-63,-258,0,0,0,0,0,0,0,0,0,-1,1161,1282,0,0
-56,-258,0,0,0,0,0,0,0,0,0,-1,1168,1282,0,0
-49,-258,0,0,0,0,0,0,0,0,0,-1,1175,1282,0,0
-42,-258,0,0,0,0,0,0,0,0,0,-1,1182,1282,0,0
-35,-258,0,0,0,0,0,0,0,0,0,-1,1189,1282,0,0
-28,-258,0,0,0,0,0,0,0,0,0,-1,1196,1282,0,0
-21,-258,0,0,0,0,0,0,0,0,0,-1,1203,1282,0,0
-14,-258,0,0,0,0,0,0,0,0,0,-1,1210,1282,0,0
-7,-258,0,0,0,0,0,0,0,0,0,-1,1217,1282,0,0
0,-258,0,0,0,0,0,0,0,0,0,-1,1224,1282,0,0
7,-258,0,0,0,0,0,0,0,0,0,-1,1231,1282,0,0
14,-258,0,0,0,0,0,0,0,0,0,-1,1238,1282,0,0
21,-258,0,0,0,0,0,0,0,0,0,-1,1245,1282,0,0
28,-258,0,0,0,0,0,0,0,0,0,-1,1252,1282,0,0
35,-258,0,0,0,0,0,0,0,0,0,-1,1259,1282,0,0
42,-258,0,0,0,0,0,0,0,0,0,-1,1266,1282,0,0
49,-258,0,0,0,0,0,0,0,0,0,-1,1273,1282,0,0
56,-258,0,0,0,0,0,0,0,0,0,-1,1280,1282,0,0
63,-258,0,0,0,0,0,0,0,0,0,-1,1287,1282,0,0
70,-258,0,0,0,0,0,0,0,0,0,-1,1294,1282,0,0
77,-258,0,0,0,0,0,0,0,0,0,-1,1301,1282,0,0
84,-258,0,0,0,0,0,0,0,0,0,-1,1308,1282,0,0
91,-258,0,0,0,0,0,0,0,0,0,-1,1315,1282,0,0
98,-258,0,0,0,0,0,0,0,0,0,-1,1322,1282,0,0
105,-258,0,0,0,0,0,0,0,0,0,-1,1329,1282,0,0
112,-258,0,0,0,0,0,0,0,0,0,-1,1336,1282,0,0
119,-258,0,0,0,0,0,0,0,0,0,-1,1343,1282,0,0
126,-258,0,0,0,0,0,0,0,0,0,-1,1350,1282,0,0
133,-258,0,0,0,0,0,0,0,0,0,-1,1357,1282,0,0
140,-258,0,0,0,0,0,0,0,0,0,-1,1364,1282,0,0
147,-258,0,0,0,0,0,0,0,0,0,-1,1371,1282,0,0
154,-258,0,0,0,0,0,0,0,0,0,-1,1378,1282,0,0
161,-258,0,0,0,0,0,0,0,0,0,-1,1385,1282,0,0
168,-258,0,0,0,0,0,0,0,0,0,-1,1392,1282,0,0
175,-258,0,0,0,0,0,0,0,0,0,-1,1399,1282,0,0
182,-258,0,0,0,0,0,0,0,0,0,-1,1406,1282,0,0
189,-258,0,0,0,0,0,0,0,0,0,-1,1413,1282,0,0
196,-258,0,0,0,0,0,0,0,0,0,-1,1420,1282,0,0
203,-258,0,0,0,0,0,0,0,0,0,-1,1427,1282,0,0
210,-258,0,0,0,0,0,0,0,0,0,-1,1434,1282,0,0
217,-258,0,0,0,0,0,0,0,0,0,-1,1441,1282,0,0
224,-258,0,0,0,0,0,0,0,0,0,-1,1448,1282,0,0
231,-258,0,0,0,0,0,0,0,0,0,-1,1455,1282,0,0
238,-258,0,0,0,0,0,0,0,0,0,-1,1462,1282,0,0
245,-258,0,0,0,0,0,0,0,0,0,-1,1469,1282,0,0
252,-258,0,0,0,0,0,0,0,0,0,-1,1476,1282,0,0
259,-258,0,0,0,0,0,0,0,0,0,-1,1483,1282,0,0
266,-258,0,0,0,0,0,0,0,0,0,-1,1490,1282,0,0
273,-258,0,0,0,0,0,0,0,0,0,-1,1497,1282,0,0
280,-258,0,0,0,0,0,0,0,0,0,-1,1504,1282,0,0
287,-258,0,0,0,0,0,0,0,0,0,-1,1511,1282,0,0
294,-258,0,0,0,0,0,0,0,0,0,-1,1518,1282,0,0
301,-258,0,0,0,0,0,0,0,0,0,-1,1525,1282,0,0
308,-258,0,0,0,0,0,0,0,0,0,-1,1532,1282,0,0
315,-258,0,0,0,0,0,0,0,0,0,-1,1539,1282,0,0
322,-258,0,0,0,0,0,0,0,0,0,-1,1546,1282,0,0
329,-258,0,0,0,0,0,0,0,0,0,-1,1553,1282,0,0
336,-258,0,0,0,0,0,0,0,0,0,-1,1560,1282,0,0
343,-258,0,0,0,0,0,0,0,0,0,-1,1567,1282,0,0
350,-258,0,0,0,0,0,0,0,0,0,-1,1574,1282,0,0
357,-258,0,0,0,0,0,0,0,0,0,-1,1581,1282,0,0
364,-258,0,0,0,0,0,0,0,0,0,-1,1588,1282,0,0
371,-258,0,0,0,0,0,0,0,0,0,-1,1595,1282,0,0
378,-258,0,0,0,0,0,0,0,0,0,-1,1602,1282,0,0
385,-258,0,0,0,0,0,0,0,0,0,-1,1609,1282,0,0
392,-258,0,0,0,0,0,0,0,0,0,-1,1616,1282,0,0
399,-258,0,0,0,0,0,0,0,0,0,-1,1623,1282,0,0
406,-258,0,0,0,0,0,0,0,0,0,-1,1630,1282,0,0
413,-258,0,0,0,0,0,0,0,0,0,-1,1637,1282,0,0
420,-258,0,0,0,0,0,0,0,0,0,-1,1644,1282,0,0
427,-258,0,0,0,0,0,0,0,0,0,-1,1651,1282,0,0
434,-258,0,0,0,0,0,0,0,0,0,-1,1658,1282,0,0
441,-258,0,0,0,0,0,0,0,0,0,-1,1665,1282,0,0
448,-258,0,0,0,0,0,0,0,0,0,-1,1672,1282,0,0
455,-258,0,0,0,0,0,0,0,0,0,-1,1679,1282,0,0
462,-258,0,0,0,0,0,0,0,0,0,-1,1686,1282,0,0
469,-258,0,0,0,0,0,0,0,0,0,-1,1693,1282,0,0
476,-258,0,0,0,0,0,0,0,0,0,-1,1700,1282,0,0
483,-258,0,0,0,0,0,0,0,0,0,-1,1707,1282,0,0
490,-258,0,0,0,0,0,0,0,0,0,-1,1714,1282,0,0
497,-258,0,0,0,0,0,0,0,0,0,-1,1721,1282,0,0
504,-258,0,0,0,0,0,0,0,0,0,-1,1728,1282,0,0
511,-258,0,0,0,0,0,0,0,0,0,-1,1735,1282,0,0
518,-258,0,0,0,0,0,0,0,0,0,-1,1742,1282,0,0
525,-258,0,0,0,0,0,0,0,0,0,-1,1749,1282,0,0
532,-258,0,0,0,0,0,0,0,0,0,-1,1756,1282,0,0
539,-258,0,0,0,0,0,0,0,0,0,-1,1763,1282,0,0
546,-258,0,0,0,0,0,0,0,0,0,-1,1770,1282,0,0
553,-258,0,0,0,0,0,0,0,0,0,-1,1777,1282,0,0
560,-258,0,0,0,0,0,0,0,0,0,-1,1784,1282,0,0
567,-258,0,0,0,0,0,0,0,0,0,-1,1791,1282,0,0
574,-258,0,0,0,0,0,0,0,0,0,-1,1798,1282,0,0
581,-258,0,0,0,0,0,0,0,0,0,-1,1805,1282,0,0
588,-258,0,0,0,0,0,0,0,0,0,-1,1812,1282,0,0
595,-258,0,0,0,0,0,0,0,0,0,-1,1819,1282,0,0
602,-258,0,0,0,0,0,0,0,0,0,-1,1826,1282,0,0
609,-258,70.309,2.38818,0.000344239,0.00297334,0.000223296,0.00299217,0.000325409,1.48667,0.00189564,0.0256937,1833,1282,70.309,-2.38817
616,-258,70.2506,2.31519,-0.00139495,0.00762542,-0.00251537,0.00827942,-0.00204896,-1.31643,0.0063144,0.0271084,1840,1282,70.2506,-2.31521
623,-258,70.1758,2.23157,-0.0033566,0.011731,-0.00501676,0.0132469,-0.00487243,-1.27737,0.0108272,0.0377,1847,1282,70.1758,-2.23151
630,-258,70.1248,2.02124,-0.00466735,0.0136157,-0.00621459,0.0155281,-0.00657972,-1.27227,0.0131079,0.045407,1854,1282,70.1248,-2.02127
637,-258,70.1345,1.89722,-0.0042775,0.0127826,-0.00575401,0.0145419,-0.00603678,-1.27407,0.0122146,0.0451639,1861,1282,70.1345,-1.89717
644,-258,69.356,1.07739,0,0,0,0,0,0,0,-1,1868,1282,69.3559,-1.07735
651,-258,69.574,1.94336,0,0,0,0,0,0,0,-1,1875,1282,69.574,-1.94334
658,-258,45.4424,3.1405,0,0,0,0,0,0,0,-1,1882,1282,45.4423,-3.14046
665,-258,35.4747,1.1864,0,0,0,0,0,0,0,-1,1889,1282,35.4747,-1.18637
672,-258,22.703,2.80957,0,0,0,0,0,0,0,-1,1896,1282,22.703,-2.80962
679,-258,26.8693,8.19543,0,0,0,0,0,0,0,-1,1903,1282,26.8692,-8.19548
686,-258,50.9082,13.8309,0,0,0,0,0,0,0,-1,1910,1282,50.9083,-13.8309
693,-258,50.8035,13.0913,-0.000861805,0.0012715,-0.00034875,0.00132706,-0.00091737,-1.4128,0.001303,0.0232654,1917,1282,50.8034,-13.0913
700,-258,50.7405,12.3702,0.00103961,-0.00082365,0.000338326,0.00109914,-0.00088318,0.174173,0.00114675,0.0104095,1924,1282,50.7405,-12.3703
707,-258,50.7269,11.6816,0.0002633,-0.000713632,0.000710938,0.000637407,-0.00108774,0.484399,0.00100726,0.0114645,1931,1282,50.727,-11.6816
714,-258,50.7043,10.9849,-0.00053591,-0.000518355,0.00131125,0.000784146,-0.00183841,0.788745,0.00155438,0.0122167,1938,1282,50.7044,-10.9849
721,-258,50.6353,10.2764,-0.00136471,-0.000415394,0.00200994,0.00117518,-0.00295528,0.901351,0.00245743,0.022953,1945,1282,50.6353,-10.2763
728,-258,50.5702,9.62927,-0.00226849,-0.000295976,0.00280277,0.001689,-0.00425346,0.954575,0.00353577,0.0228332,1952,1282,50.5702,-9.62922
735,-258,50.5854,8.91333,-0.00327583,-0.000186492,0.00372551,0.00230188,-0.0057642,0.981921,0.00479783,0.01964,1959,1282,50.5854,-8.91333
742,-258,50.5371,8.25635,-0.00437397,-5.12657e-05,0.0048003,0.00305182,-0.00747706,0.996931,0.00625526,0.0188396,1966,1282,50.5371,-8.25638
749,-258,50.3567,7.7865,-0.00559953,7.48644e-05,0.00603535,0.00390664,-0.00943131,1.00512,0.0079178,0.041891,1973,1282,50.3567,-7.78644
756,-258,50.1941,7.17932,0,0,0,0,0,0,0,-1,1980,1282,50.194,-7.17931
763,-258,39.3638,5.09753,0,0,0,0,0,0,0,-1,1987,1282,39.3638,-5.09751
770,-258,40.3713,4.08325,0,0,0,0,0,0,0,-1,1994,1282,40.3713,-4.08323
777,-258,31.912,4.83093,0,0,0,0,0,0,0,-1,2001,1282,31.912,-4.8309
784,-258,32.6525,6.43091,0,0,0,0,0,0,0,-1,2008,1282,32.6525,-6.43091
791,-258,0,0,0,0,0,0,0,0,0,-1,2015,1282,0,0
798,-258,0,0,0,0,0,0,0,0,0,-1,2022,1282,0,0
805,-258,0,0,0,0,0,0,0,0,0,-1,2029,1282,0,0
812,-258,0,0,0,0,0,0,0,0,0,-1,2036,1282,0,0
-700,-265,0,0,0,0,0,0,0,0,0,-1,524,1289,0,0
-693,-265,0,0,0,0,0,0,0,0,0,-1,531,1289,0,0
-686,-265,0,0,0,0,0,0,0,0,0,-1,538,1289,0,0
-679,-265,0,0,0,0,0,0,0,0,0,-1,545,1289,0,0
-672,-265,0,0,0,0,0,0,0,0,0,-1,552,1289,0,0
-665,-265,-44.553,1.771,0,0,0,0,0,0,0,-1,559,1289,-44.553,-1.77096
-658,-265,-44.9351,1.32117,0,0,0,0,0,0,0,-1,566,1289,-44.9351,-1.32118
-651,-265,-44.821,1.0614,0,0,0,0,0,0,0,-1,573,1289,-44.821,-1.06141
-644,-265,-44.4684,0.304932,0,0,0,0,0,0,0,-1,580,1289,-44.4684,-0.304991
-637,-265,-44.6157,0.250122,0,0,0,0,0,0,0,-1,587,1289,-44.6157,-0.250067
-630,-265,-44.5689,0.900269,0,0,0,0,0,0,0,-1,594,1289,-44.5689,-0.900302
-623,-265,-32.9706,4.75549,0,0,0,0,0,0,0,-1,601,1289,-32.9706,-4.75548
-616,-265,-33.1301,5.68018,-0.00191357,0.00435271,0.00542395,0.00748342,-0.00504427,1.04731,0.00727842,0.0481763,608,1289,-33.1301,-5.68012
-609,-265,-33.3009,6.67737,-0.00109181,0.00408689,0.00398253,0.00624783,-0.00325276,1.07365,0.00557528,0.0201575,615,1289,-33.3009,-6.67732
-602,-265,-33.3661,7.47192,-0.00046701,0.00300852,0.0027983,0.00456474,-0.00202322,1.06326,0.00389676,0.0151596,622,1289,-33.3661,-7.47198
-595,-265,-33.3807,8.21606,3.75958e-05,0.00189235,0.00180518,0.00299443,-0.00106449,1.02268,0.00243011,0.0125714,629,1289,-33.3807,-8.21603
-588,-265,-33.4101,8.92358,0.000479159,0.000743567,0.00100238,0.00162242,-0.000399697,0.850965,0.00123657,0.0120916,636,1289,-33.4101,-8.9236
-581,-265,-33.4663,9.64148,0.000869402,-0.000486266,0.000345572,0.000952409,-0.000569273,0.235736,0.000887778,0.0139487,643,1289,-33.4663,-9.64143
-574,-265,-33.5172,10.4186,0.00115212,-0.00179355,-0.000148267,0.00115956,-0.00180099,-0.0501649,0.0017226,0.0145542,650,1289,-33.5172,-10.4186
-567,-265,-33.5872,11.167,0.00135794,-0.00311121,-0.000438582,0.00140057,-0.00315384,-0.0969036,0.00269366,0.0208536,657,1289,-33.5872,-11.167
-560,-265,-33.6582,11.8937,0.00163307,-0.00335592,-0.00119764,0.00190567,-0.00362853,-0.223807,0.00324637,0.0287638,664,1289,-33.6582,-11.8937
-553,-265,-33.7179,12.6543,0,0,0,0,0,0,0,-1,671,1289,-33.7179,-12.6543
-546,-265,-24.2283,10.2581,0,0,0,0,0,0,0,-1,678,1289,-24.2283,-10.258
-539,-265,-13.7668,6.39917,0,0,0,0,0,0,0,-1,685,1289,-13.7668,-6.39915
-532,-265,-8.53998,3.41467,0,0,0,0,0,0,0,-1,692,1289,-8.53996,-3.41473
-525,-265,-12.1317,0.514648,0,0,0,0,0,0,0,-1,699,1289,-12.1317,-0.514634
-518,-265,-24.1604,0.712402,0,0,0,0,0,0,0,-1,706,1289,-24.1604,-0.712425
-511,-265,-23.233,0.791626,0,0,0,0,0,0,0,-1,713,1289,-23.233,-0.791617
-504,-265,-22.3056,0.87085,0,0,0,0,0,0,0,-1,720,1289,-22.3056,-0.87081
-497,-265,-18.689,-0.278442,0,0,0,0,0,0,0,-1,727,1289,-18.689,0.278423
-490,-265,-15.1696,0.492676,0,0,0,0,0,0,0,-1,734,1289,-15.1696,-0.492688
-483,-265,0,0,0,0,0,0,0,0,0,-1,741,1289,0,0
-476,-265,0,0,0,0,0,0,0,0,0,-1,748,1289,0,0
-469,-265,0,0,0,0,0,0,0,0,0,-1,755,1289,0,0
-462,-265,0,0,0,0,0,0,0,0,0,-1,762,1289,0,0
-455,-265,0,0,0,0,0,0,0,0,0,-1,769,1289,0,0
-448,-265,0,0,0,0,0,0,0,0,0,-1,776,1289,0,0
-441,-265,0,0,0,0,0,0,0,0,0,-1,783,1289,0,0
-434,-265,0,0,0,0,0,0,0,0,0,-1,790,1289,0,0
-427,-265,0,0,0,0,0,0,0,0,0,-1,797,1289,0,0
-420,-265,0,0,0,0,0,0,0,0,0,-1,804,1289,0,0
-413,-265,0,0,0,0,0,0,0,0,0,-1,811,1289,0,0
-406,-265,0,0,0,0,0,0,0,0,0,-1,818,1289,0,0
-399,-265,0,0,0,0,0,0,0,0,0,-1,825,1289,0,0
-392,-265,0,0,0,0,0,0,0,0,0,-1,832,1289,0,0
-385,-265,0,0,0,0,0,0,0,0,0,-1,839,1289,0,0
-378,-265,0,0,0,0,0,0,0,0,0,-1,846,1289,0,0
-371,-265,0,0,0,0,0,0,0,0,0,-1,853,1289,0,0
-364,-265,0,0,0,0,0,0,0,0,0,-1,860,1289,0,0
-357,-265,0,0,0,0,0,0,0,0,0,-1,867,1289,0,0
-350,-265,0,0,0,0,0,0,0,0,0,-1,874,1289,0,0
-343,-265,0,0,0,0,0,0,0,0,0,-1,881,1289,0,0
-336,-265,0,0,0,0,0,0,0,0,0,-1,888,1289,0,0
-329,-265,0,0,0,0,0,0,0,0,0,-1,895,1289,0,0
-322,-265,0,0,0,0,0,0,0,0,0,-1,902,1289,0,0
-315,-265,0,0,0,0,0,0,0,0,0,-1,909,1289,0,0
-308,-265,0,0,0,0,0,0,0,0,0,-1,916,1289,0,0
-301,-265,0,0,0,0,0,0,0,0,0,-1,923,1289,0,0
-294,-265,0,0,0,0,0,0,0,0,0,-1,930,1289,0,0
-287,-265,0,0,0,0,0,0,0,0,0,-1,937,1289,0,0
-280,-265,0,0,0,0,0,0,0,0,0,-1,944,1289,0,0
-273,-265,0,0,0,0,0,0,0,0,0,-1,951,1289,0,0
-266,-265,0,0,0,0,0,0,0,0,0,-1,958,1289,0,0
-259,-265,0,0,0,0,0,0,0,0,0,-1,965,1289,0,0
-252,-265,0,0,0,0,0,0,0,0,0,-1,972,1289,0,0
-245,-265,0,0,0,0,0,0,0,0,0,-1,979,1289,0,0
-238,-265,0,0,0,0,0,0,0,0,0,-1,986,1289,0,0
-231,-265,0,0,0,0,0,0,0,0,0,-1,993,1289,0,0
-224,-265,0,0,0,0,0,0,0,0,0,-1,1000,1289,0,0
-217,-265,0,0,0,0,0,0,0,0,0,-1,1007,1289,0,0
-210,-265,0,0,0,0,0,0,0,0,0,-1,1014,1289,0,0
-203,-265,0,0,0,0,0,0,0,0,0,-1,1021,1289,0,0
-196,-265,0,0,0,0,0,0,0,0,0,-1,1028,1289,0,0
-189,-265,0,0,0,0,0,0,0,0,0,-1,1035,1289,0,0
-182,-265,0,0,0,0,0,0,0,0,0,-1,1042,1289,0,0
-175,-265,0,0,0,0,0,0,0,0,0,-1,1049,1289,0,0
-168,-265,0,0,0,0,0,0,0,0,0,-1,1056,1289,0,0
-161,-265,0,0,0,0,0,0,0,0,0,-1,1063,1289,0,0
-154,-265,0,0,0,0,0,0,0,0,0,-1,1070,1289,0,0
-147,-265,0,0,0,0,0,0,0,0,0,-1,1077,1289,0,0
-140,-265,0,0,0,0,0,0,0,0,0,-1,1084,1289,0,0
-133,-265,0,0,0,0,0,0,0,0,0,-1,1091,1289,0,0
-126,-265,0,0,0,0,0,0,0,0,0,-1,1098,1289,0,0
-119,-265,0,0,0,0,0,0,0,0,0,-1,1105,1289,0,0
-112,-265,0,0,0,0,0,0,0,0,0,-1,1112,1289,0,0
-105,-265,0,0,0,0,0,0,0,0,0,-1,1119,1289,0,0
-98,-265,0,0,0,0,0,0,0,0,0,-1,1126,1289,0,0
-91,-265,0,0,0,0,0,0,0,0,0,-1,1133,1289,0,0
-84,-265,0,0,0,0,0,0,0,0,0,-1,1140,1289,0,0
-77,-265,0,0,0,0,0,0,0,0,0,-1,1147,1289,0,0
-70,-265,0,0,0,0,0,0,0,0,0,-1,1154,1289,0,0
-63,-265,0,0,0,0,0,0,0,0,0,-1,1161,1289,0,0
-56,-265,0,0,0,0,0,0,0,0,0,-1,1168,1289,0,0
-49,-265,0,0,0,0,0,0,0,0,0,-1,1175,1289,0,0
-42,-265,0,0,0,0,0,0,0,0,0,-1,1182,1289,0,0
-35,-265,0,0,0,0,0,0,0,0,0,-1,1189,1289,0,0
-28,-265,0,0,0,0,0,0,0,0,0,-1,1196,1289,0,0
-21,-265,0,0,0,0,0,0,0,0,0,-1,1203,1289,0,0
-14,-265,0,0,0,0,0,0,0,0,0,-1,1210,1289,0,0
-7,-265,0,0,0,0,0,0,0,0,0,-1,1217,1289,0,0
0,-265,0,0,0,0,0,0,0,0,0,-1,1224,1289,0,0
7,-265,0,0,0,0,0,0,0,0,0,-1,1231,1289,0,0
14,-265,0,0,0,0,0,0,0,0,0,-1,1238,1289,0,0
21,-265,0,0,0,0,0,0,0,0,0,-1,1245,1289,0,0
28,-265,0,0,0,0,0,0,0,0,0,-1,1252,1289,0,0
35,-265,0,0,0,0,0,0,0,0,0,-1,1259,1289,0,0
42,-265,0,0,0,0,0,0,0,0,0,-1,1266,1289,0,0
49,-265,0,0,0,0,0,0,0,0,0,-1,1273,1289,0,0
56,-265,0,0,0,0,0,0,0,0,0,-1,1280,1289,0,0
63,-265,0,0,0,0,0,0,0,0,0,-1,1287,1289,0,0
70,-265,0,0,0,0,0,0,0,0,0,-1,1294,1289,0,0
77,-265,0,0,0,0,0,0,0,0,0,-1,1301,1289,0,0
84,-265,0,0,0,0,0,0,0,0,0,-1,1308,1289,0,0
91,-265,0,0,0,0,0,0,0,0,0,-1,1315,1289,0,0
98,-265,0,0,0,0,0,0,0,0,0,-1,1322,1289,0,0
105,-265,0,0,0,0,0,0,0,0,0,-1,1329,1289,0,0
112,-265,0,0,0,0,0,0,0,0,0,-1,1336,1289,0,0
119,-265,0,0,0,0,0,0,0,0,0,-1,1343,1289,0,0
126,-265,0,0,0,0,0,0,0,0,0,-1,1350,1289,0,0
133,-265,0,0,0,0,0,0,0,0,0,-1,1357,1289,0,0
140,-265,0,0,0,0,0,0,0,0,0,-1,1364,1289,0,0
147,-265,0,0,0,0,0,0,0,0,0,-1,1371,1289,0,0
154,-265,0,0,0,0,0,0,0,0,0,-1,1378,1289,0,0
161,-265,0,0,0,0,0,0,0,0,0,-1,1385,1289,0,0
168,-265,0,0,0,0,0,0,0,0,0,-1,1392,1289,0,0
175,-265,0,0,0,0,0,0,0,0,0,-1,1399,1289,0,0
182,-265,0,0,0,0,0,0,0,0,0,-1,1406,1289,0,0
189,-265,0,0,0,0,0,0,0,0,0,-1,1413,1289,0,0
196,-265,0,0,0,0,0,0,0,0,0,-1,1420,1289,0,0
203,-265,0,0,0,0,0,0,0,0,0,-1,1427,1289,0,0
210,-265,0,0,0,0,0,0,0,0,0,-1,1434,1289,0,0
217,-265,0,0,0,0,0,0,0,0,0,-1,1441,1289,0,0
224,-265,0,0,0,0,0,0,0,0,0,-1,1448,1289,0,0
231,-265,0,0,0,0,0,0,0,0,0,-1,1455,1289,0,0
238,-265,0,0,0,0,0,0,0,0,0,-1,1462,1289,0,0
245,-265,0,0,0,0,0,0,0,0,0,-1,1469,1289,0,0
252,-265,0,0,0,0,0,0,0,0,0,-1,1476,1289,0,0
259,-265,0,0,0,0,0,0,0,0,0,-1,1483,1289,0,0
266,-265,0,0,0,0,0,0,0,0,0,-1,1490,1289,0,0
273,-265,0,0,0,0,0,0,0,0,0,-1,1497,1289,0,0
280,-265,0,0,0,0,0,0,0,0,0,-1,1504,1289,0,0
287,-265,0,0,0,0,0,0,0,0,0,-1,1511,1289,0,0
294,-265,0,0,0,0,0,0,0,0,0,-1,1518,1289,0,0
301,-265,0,0,0,0,0,0,0,0,0,-1,1525,1289,0,0
308,-265,0,0,0,0,0,0,0,0,0,-1,1532,1289,0,0
315,-265,0,0,0,0,0,0,0,0,0,-1,1539,1289,0,0
322,-265,0,0,0,0,0,0,0,0,0,-1,1546,1289,0,0
329,-265,0,0,0,0,0,0,0,0,0,-1,1553,1289,0,0
336,-265,0,0,0,0,0,0,0,0,0,-1,1560,1289,0,0
343,-265,0,0,0,0,0,0,0,0,0,-1,1567,1289,0,0
350,-265,0,0,0,0,0,0,0,0,0,-1,1574,1289,0,0
357,-265,0,0,0,0,0,0,0,0,0,-1,1581,1289,0,0
364,-265,0,0,0,0,0,0,0,0,0,-1,1588,1289,0,0
371,-265,0,0,0,0,0,0,0,0,0,-1,1595,1289,0,0
378,-265,0,0,0,0,0,0,0,0,0,-1,1602,1289,0,0
385,-265,0,0,0,0,0,0,0,0,0,-1,1609,1289,0,0
392,-265,0,0,0,0,0,0,0,0,0,-1,1616,1289,0,0
399,-265,0,0,0,0,0,0,0,0,0,-1,1623,1289,0,0
406,-265,0,0,0,0,0,0,0,0,0,-1,1630,1289,0,0
413,-265,0,0,0,0,0,0,0,0,0,-1,1637,1289,0,0
420,-265,0,0,0,0,0,0,0,0,0,-1,1644,1289,0,0
427,-265,0,0,0,0,0,0,0,0,0,-1,1651,1289,0,0
434,-265,0,0,0,0,0,0,0,0,0,-1,1658,1289,0,0
441,-265,0,0,0,0,0,0,0,0,0,-1,1665,1289,0,0
448,-265,0,0,0,0,0,0,0,0,0,-1,1672,1289,0,0
455,-265,0,0,0,0,0,0,0,0,0,-1,1679,1289,0,0
462,-265,0,0,0,0,0,0,0,0,0,-1,1686,1289,0,0
469,-265,0,0,0,0,0,0,0,0,0,-1,1693,1289,0,0
476,-265,0,0,0,0,0,0,0,0,0,-1,1700,1289,0,0
483,-265,0,0,0,0,0,0,0,0,0,-1,1707,1289,0,0
490,-265,0,0,0,0,0,0,0,0,0,-1,1714,1289,0,0
497,-265,0,0,0,0,0,0,0,0,0,-1,1721,1289,0,0
504,-265,0,0,0,0,0,0,0,0,0,-1,1728,1289,0,0
511,-265,0,0,0,0,0,0,0,0,0,-1,1735,1289,0,0
518,-265,0,0,0,0,0,0,0,0,0,-1,1742,1289,0,0
525,-265,0,0,0,0,0,0,0,0,0,-1,1749,1289,0,0
532,-265,0,0,0,0,0,0,0,0,0,-1,1756,1289,0,0
539,-265,0,0,0,0,0,0,0,0,0,-1,1763,1289,0,0
546,-265,0,0,0,0,0,0,0,0,0,-1,1770,1289,0,0
553,-265,0,0,0,0,0,0,0,0,0,-1,1777,1289,0,0
560,-265,0,0,0,0,0,0,0,0,0,-1,1784,1289,0,0
567,-265,0,0,0,0,0,0,0,0,0,-1,1791,1289,0,0
574,-265,0,0,0,0,0,0,0,0,0,-1,1798,1289,0,0
581,-265,0,0,0,0,0,0,0,0,0,-1,1805,1289,0,0
588,-265,0,0,0,0,0,0,0,0,0,-1,1812,1289,0,0
595,-265,0,0,0,0,0,0,0,0,0,-1,1819,1289,0,0
602,-265,70.2993,2.37097,0.000895039,-0.00140931,0.00168479,0.00178394,-0.00229822,0.485489,0.00236306,0.0273152,1826,1289,70.2993,-2.37097
609,-265,70.1891,2.27844,0.000563165,0.00314431,-0.000975561,0.00347154,0.000235932,-1.24716,0.00223987,0.0307276,1833,1289,70.1891,-2.27841
616,-265,70.2206,2.26746,-0.000430934,0.00771174,-0.00372166,0.00915643,-0.00187562,-1.20052,0.00681606,0.0391517,1840,1289,70.2206,-2.26742
623,-265,70.0607,2.15381,0,0,0,0,0,0,0,-1,1847,1289,70.0607,-2.1538
630,-265,70.0527,1.771,-0.00245797,0.0113695,-0.00559217,0.013348,-0.00443648,-1.23074,0.0106889,0.047068,1854,1289,70.0527,-1.77099
637,-265,70.2229,1.46802,-0.00251471,0.0108603,-0.00506918,0.0125644,-0.00421882,-1.24649,0.0100812,0.0477955,1861,1289,70.2229,-1.46803
644,-265,70.3324,1.28735,0,0,0,0,0,0,0,-1,1868,1289,70.3324,-1.28735
651,-265,53.6781,1.57166,0,0,0,0,0,0,0,-1,1875,1289,53.6781,-1.57167
658,-265,41.7163,3.71619,0,0,0,0,0,0,0,-1,1882,1289,41.7163,-3.71624
665,-265,34.7902,1.43164,0,0,0,0,0,0,0,-1,1889,1289,34.7901,-1.43162
672,-265,20.0045,6.62671,0,0,0,0,0,0,0,-1,1896,1289,20.0045,-6.62668
679,-265,48.9694,14.0298,0,0,0,0,0,0,0,-1,1903,1289,48.9694,-14.0297
686,-265,50.0621,13.8289,0,0,0,0,0,0,0,-1,1910,1289,50.0621,-13.8289
693,-265,50.076,13.114,-0.000803946,0.00123009,-0.000431098,0.00131769,-0.000891541,-1.37033,0.00128339,0.0126873,1917,1289,50.076,-13.1141
700,-265,50.0464,12.405,0.000877972,-0.000586965,0.000254215,0.000920833,-0.000629826,0.167029,0.000900513,0.0107536,1924,1289,50.0464,-12.4051
707,-265,50.017,11.6885,0.000186917,-0.000496025,0.000695201,0.000619982,-0.000929091,0.557114,0.000900273,0.0109992,1931,1289,50.017,-11.6885
714,-265,49.9846,10.998,-0.000514544,-0.000351342,0.00130332,0.000872929,-0.00173882,0.816662,0.00153527,0.0134629,1938,1289,49.9847,-10.998
721,-265,49.8878,10.2813,-0.00127498,-0.000254653,0.00201045,0.00130935,-0.00283898,0.909653,0.00244872,0.0160613,1945,1289,49.8878,-10.2813
728,-265,49.838,9.62891,-0.00212658,-0.000165238,0.00282663,0.00184601,-0.00413783,0.952371,0.00353822,0.0169757,1952,1289,49.838,-9.62895
735,-265,49.9017,8.95801,-0.00310335,-7.95055e-05,0.00377109,0.00247146,-0.00565431,0.97605,0.00480988,0.017653,1959,1289,49.9017,-8.95804
742,-265,49.8427,8.25293,-0.00420043,5.75189e-05,0.0048674,0.00324118,-0.00738409,0.991559,0.00628802,0.0202373,1966,1289,49.8427,-8.25299
749,-265,49.8268,7.66272,-0.00549274,0.000166952,0.00613606,0.00409427,-0.00942006,1.00146,0.00800191,0.0472627,1973,1289,49.8268,-7.66271
756,-265,49.9338,7.07385,0,0,0,0,0,0,0,-1,1980,1289,49.9339,-7.0739
763,-265,39.1299,4.9679,0,0,0,0,0,0,0,-1,1987,1289,39.1299,-4.96791
770,-265,35.1674,5.07715,0,0,0,0,0,0,0,-1,1994,1289,35.1673,-5.07718
777,-265,32.1664,5.3457,0,0,0,0,0,0,0,-1,2001,1289,32.1664,-5.34568
784,-265,0,0,0,0,0,0,0,0,0,-1,2008,1289,0,0
791,-265,0,0,0,0,0,0,0,0,0,-1,2015,1289,0,0
798,-265,0,0,0,0,0,0,0,0,0,-1,2022,1289,0,0
805,-265,0,0,0,0,0,0,0,0,0,-1,2029,1289,0,0
812,-265,0,0,0,0,0,0,0,0,0,-1,2036,1289,0,0
-700,-272,0,0,0,0,0,0,0,0,0,-1,524,1296,0,0
-693,-272,0,0,0,0,0,0,0,0,0,-1,531,1296,0,0
-686,-272,0,0,0,0,0,0,0,0,0,-1,538,1296,0,0
-679,-272,0,0,0,0,0,0,0,0,0,-1,545,1296,0,0
-672,-272,0,0,0,0,0,0,0,0,0,-1,552,1296,0,0
-665,-272,0,0,0,0,0,0,0,0,0,-1,559,1296,0,0
-658,-272,-44.6526,1.54443,0,0,0,0,0,0,0,-1,566,1296,-44.6526,-1.5444
-651,-272,-44.3723,1.53772,0,0,0,0,0,0,0,-1,573,1296,-44.3723,-1.53774
-644,-272,-44.1104,1.46021,0,0,0,0,0,0,0,-1,580,1296,-44.1104,-1.46022
-637,-272,-43.9348,1.25171,0,0,0,0,0,0,0,-1,587,1296,-43.9348,-1.25175
-630,-272,-43.5906,0.784912,0,0,0,0,0,0,0,-1,594,1296,-43.5906,-0.784935
-623,-272,-31.4228,4.74304,0,0,0,0,0,0,0,-1,601,1296,-31.4228,-4.74301
-616,-272,-31.9619,5.90979,-0.00166716,0.00560731,0.00630845,0.00925197,-0.00531182,1.0469,0.00851036,0.0482879,608,1296,-31.9618,-5.90983
-609,-272,-32.5345,6.90393,-0.000805732,0.00511601,0.00470103,0.0077109,-0.00340062,1.06643,0.00657416,0.0285314,615,1296,-32.5346,-6.90396
-602,-272,-32.5966,7.49976,-0.000208885,0.00382173,0.0033986,0.00575762,-0.00214477,1.05302,0.00471871,0.0158506,622,1296,-32.5966,-7.49972
-595,-272,-32.6414,8.24634,0.000233504,0.00255299,0.00231699,0.00398428,-0.00119778,1.01744,0.00313273,0.011899,629,1296,-32.6414,-8.24635
-588,-272,-32.663,8.96362,0.000616029,0.00132687,0.00146172,0.00247576,-0.000532864,0.904659,0.00185383,0.0117824,636,1296,-32.663,-8.96365
-581,-272,-32.727,9.68176,0.0009713,9.10759e-05,0.000784837,0.001431,-0.000368628,0.529862,0.00109771,0.01091,643,1296,-32.727,-9.68179
-574,-272,-32.7895,10.453,0.00133948,-0.00116416,0.000274849,0.0013693,-0.00119398,0.108065,0.00148106,0.0155217,650,1296,-32.7895,-10.453
-567,-272,-32.8035,11.1998,0.00180732,-0.00244596,-4.92298e-05,0.00180789,-0.00244652,-0.0115725,0.00246549,0.0224266,657,1296,-32.8034,-11.1998
-560,-272,-32.8652,11.9375,0.00233652,-0.00314337,-0.00053596,0.00238845,-0.00319529,-0.0965853,0.00323497,0.0223933,664,1296,-32.8652,-11.9375
-553,-272,-32.8626,12.663,0.00325268,-0.0039002,-7.10572e-05,0.00325339,-0.00390091,-0.00993276,0.00413617,0.0324573,671,1296,-32.8626,-12.6629
-546,-272,-32.9454,13.4236,0,0,0,0,0,0,0,-1,678,1296,-32.9454,-13.4236
-539,-272,-24.1416,11.0325,0,0,0,0,0,0,0,-1,685,1296,-24.1416,-11.0324
-532,-272,-10.5572,4.53943,0,0,0,0,0,0,0,-1,692,1296,-10.5572,-4.53943
-525,-272,-11.9599,0.0393066,0,0,0,0,0,0,0,-1,699,1296,-11.9599,-0.0393577
-518,-272,-21.1357,-1.41382,0,0,0,0,0,0,0,-1,706,1296,-21.1357,1.41379
-511,-272,-23.2565,0.226318,0,0,0,0,0,0,0,-1,713,1296,-23.2565,-0.22626
-504,-272,-19.7397,0.114746,0,0,0,0,0,0,0,-1,720,1296,-19.7397,-0.114701
-497,-272,-19.2225,1.71301,0,0,0,0,0,0,0,-1,727,1296,-19.2225,-1.71302
-490,-272,-20.1948,2.4032,0,0,0,0,0,0,0,-1,734,1296,-20.1948,-2.40322
-483,-272,-15.3736,0.792603,0,0,0,0,0,0,0,-1,741,1296,-15.3736,-0.79263
-476,-272,0,0,0,0,0,0,0,0,0,-1,748,1296,0,0
-469,-272,0,0,0,0,0,0,0,0,0,-1,755,1296,0,0
-462,-272,0,0,0,0,0,0,0,0,0,-1,762,1296,0,0
-455,-272,0,0,0,0,0,0,0,0,0,-1,769,1296,0,0
-448,-272,0,0,0,0,0,0,0,0,0,-1,776,1296,0,0
-441,-272,0,0,0,0,0,0,0,0,0,-1,783,1296,0,0
-434,-272,0,0,0,0,0,0,0,0,0,-1,790,1296,0,0
-427,-272,0,0,0,0,0,0,0,0,0,-1,797,1296,0,0
-420,-272,0,0,0,0,0,0,0,0,0,-1,804,1296,0,0
-413,-272,0,0,0,0,0,0,0,0,0,-1,811,1296,0,0
-406,-272,0,0,0,0,0,0,0,0,0,-1,818,1296,0,0
-399,-272,0,0,0,0,0,0,0,0,0,-1,825,1296,0,0
-392,-272,0,0,0,0,0,0,0,0,0,-1,832,1296,0,0
-385,-272,0,0,0,0,0,0,0,0,0,-1,839,1296,0,0
-378,-272,0,0,0,0,0,0,0,0,0,-1,846,1296,0,0
-371,-272,0,0,0,0,0,0,0,0,0,-1,853,1296,0,0
-364,-272,0,0,0,0,0,0,0,0,0,-1,860,1296,0,0
-357,-272,0,0,0,0,0,0,0,0,0,-1,867,1296,0,0
-350,-272,0,0,0,0,0,0,0,0,0,-1,874,1296,0,0
-343,-272,0,0,0,0,0,0,0,0,0,-1,881,1296,0,0
-336,-272,0,0,0,0,0,0,0,0,0,-1,888,1296,0,0
-329,-272,0,0,0,0,0,0,0,0,0,-1,895,1296,0,0
-322,-272,0,0,0,0,0,0,0,0,0,-1,902,1296,0,0
-315,-272,0,0,0,0,0,0,0,0,0,-1,909,1296,0,0
-308,-272,0,0,0,0,0,0,0,0,0,-1,916,1296,0,0
-301,-272,0,0,0,0,0,0,0,0,0,-1,923,1296,0,0
-294,-272,0,0,0,0,0,0,0,0,0,-1,930,1296,0,0
-287,-272,0,0,0,0,0,0,0,0,0,-1,937,1296,0,0
-280,-272,0,0,0,0,0,0,0,0,0,-1,944,1296,0,0
-273,-272,0,0,0,0,0,0,0,0,0,-1,951,1296,0,0
-266,-272,0,0,0,0,0,0,0,0,0,-1,958,1296,0,0
-259,-272,0,0,0,0,0,0,0,0,0,-1,965,1296,0,0
-252,-272,0,0,0,0,0,0,0,0,0,-1,972,1296,0,0
-245,-272,0,0,0,0,0,0,0,0,0,-1,979,1296,0,0
-238,-272,0,0,0,0,0,0,0,0,0,-1,986,1296,0,0
-231,-272,0,0,0,0,0,0,0,0,0,-1,993,1296,0,0
-224,-272,0,0,0,0,0,0,0,0,0,-1,1000,1296,0,0
-217,-272,0,0,0,0,0,0,0,0,0,-1,1007,1296,0,0
-210,-272,0,0,0,0,0,0,0,0,0,-1,1014,1296,0,0
-203,-272,0,0,0,0,0,0,0,0,0,-1,1021,1296,0,0
-196,-272,0,0,0,0,0,0,0,0,0,-1,1028,1296,0,0
-189,-272,0,0,0,0,0,0,0,0,0,-1,1035,1296,0,0
-182,-272,0,0,0,0,0,0,0,0,0,-1,1042,1296,0,0
-175,-272,0,0,0,0,0,0,0,0,0,-1,1049,1296,0,0
-168,-272,0,0,0,0,0,0,0,0,0,-1,1056,1296,0,0
-161,-272,0,0,0,0,0,0,0,0,0,-1,1063,1296,0,0
-154,-272,0,0,0,0,0,0,0,0,0,-1,1070,1296,0,0
-147,-272,0,0,0,0,0,0,0,0,0,-1,1077,1296,0,0
-140,-272,0,0,0,0,0,0,0,0,0,-1,1084,1296,0,0
-133,-272,0,0,0,0,0,0,0,0,0,-1,1091,1296,0,0
-126,-272,0,0,0,0,0,0,0,0,0,-1,1098,1296,0,0
-119,-272,0,0,0,0,0,0,0,0,0,-1,1105,1296,0,0
-112,-272,0,0,0,0,0,0,0,0,0,-1,1112,1296,0,0
-105,-272,0,0,0,0,0,0,0,0,0,-1,1119,1296,0,0
-98,-272,0,0,0,0,0,0,0,0,0,-1,1126,1296,0,0
-91,-272,0,0,0,0,0,0,0,0,0,-1,1133,1296,0,0
-84,-272,0,0,0,0,0,0,0,0,0,-1,1140,1296,0,0
-77,-272,0,0,0,0,0,0,0,0,0,-1,1147,1296,0,0
-70,-272,0,0,0,0,0,0,0,0,0,-1,1154,1296,0,0
-63,-272,0,0,0,0,0,0,0,0,0,-1,1161,1296,0,0
-56,-272,0,0,0,0,0,0,0,0,0,-1,1168,1296,0,0
-49,-272,0,0,0,0,0,0,0,0,0,-1,1175,1296,0,0
-42,-272,0,0,0,0,0,0,0,0,0,-1,1182,1296,0,0
-35,-272,0,0,0,0,0,0,0,0,0,-1,1189,1296,0,0
-28,-272,0,0,0,0,0,0,0,0,0,-1,1196,1296,0,0
-21,-272,0,0,0,0,0,0,0,0,0,-1,1203,1296,0,0
-14,-272,0,0,0,0,0,0,0,0,0,-1,1210,1296,0,0
-7,-272,0,0,0,0,0,0,0,0,0,-1,1217,1296,0,0
0,-272,0,0,0,0,0,0,0,0,0,-1,1224,1296,0,0
7,-272,0,0,0,0,0,0,0,0,0,-1,1231,1296,0,0
14,-272,0,0,0,0,0,0,0,0,0,-1,1238,1296,0,0
21,-272,0,0,0,0,0,0,0,0,0,-1,1245,1296,0,0
28,-272,0,0,0,0,0,0,0,0,0,-1,1252,1296,0,0
35,-272,0,0,0,0,0,0,0,0,0,-1,1259,1296,0,0
42,-272,0,0,0,0,0,0,0,0,0,-1,1266,1296,0,0
49,-272,0,0,0,0,0,0,0,0,0,-1,1273,1296,0,0
56,-272,0,0,0,0,0,0,0,0,0,-1,1280,1296,0,0
63,-272,0,0,0,0,0,0,0,0,0,-1,1287,1296,0,0
70,-272,0,0,0,0,0,0,0,0,0,-1,1294,1296,0,0
77,-272,0,0,0,0,0,0,0,0,0,-1,1301,1296,0,0
84,-272,0,0,0,0,0,0,0,0,0,-1,1308,1296,0,0
91,-272,0,0,0,0,0,0,0,0,0,-1,1315,1296,0,0
98,-272,0,0,0,0,0,0,0,0,0,-1,1322,1296,0,0
105,-272,0,0,0,0,0,0,0,0,0,-1,1329,1296,0,0
112,-272,0,0,0,0,0,0,0,0,0,-1,1336,1296,0,0
119,-272,0,0,0,0,0,0,0,0,0,-1,1343,1296,0,0
126,-272,0,0,0,0,0,0,0,0,0,-1,1350,1296,0,0
133,-272,0,0,0,0,0,0,0,0,0,-1,1357,1296,0,0
140,-272,0,0,0,0,0,0,0,0,0,-1,1364,1296,0,0
147,-272,0,0,0,0,0,0,0,0,0,-1,1371,1296,0,0
154,-272,0,0,0,0,0,0,0,0,0,-1,1378,1296,0,0
161,-272,0,0,0,0,0,0,0,0,0,-1,1385,1296,0,0
168,-272,0,0,0,0,0,0,0,0,0,-1,1392,1296,0,0
175,-272,0,0,0,0,0,0,0,0,0,-1,1399,1296,0,0
182,-272,0,0,0,0,0,0,0,0,0,-1,1406,1296,0,0
189,-272,0,0,0,0,0,0,0,0,0,-1,1413,1296,0,0
196,-272,0,0,0,0,0,0,0,0,0,-1,1420,1296,0,0
203,-272,0,0,0,0,0,0,0,0,0,-1,1427,1296,0,0
210,-272,0,0,0,0,0,0,0,0,0,-1,1434,1296,0,0
217,-272,0,0,0,0,0,0,0,0,0,-1,1441,1296,0,0
224,-272,0,0,0,0,0,0,0,0,0,-1,1448,1296,0,0
231,-272,0,0,0,0,0,0,0,0,0,-1,1455,1296,0,0
238,-272,0,0,0,0,0,0,0,0,0,-1,1462,1296,0,0
245,-272,0,0,0,0,0,0,0,0,0,-1,1469,1296,0,0
252,-272,0,0,0,0,0,0,0,0,0,-1,1476,1296,0,0
259,-272,0,0,0,0,0,0,0,0,0,-1,1483,1296,0,0
266,-272,0,0,0,0,0,0,0,0,0,-1,1490,1296,0,0
273,-272,0,0,0,0,0,0,0,0,0,-1,1497,1296,0,0
280,-272,0,0,0,0,0,0,0,0,0,-1,1504,1296,0,0
287,-272,0,0,0,0,0,0,0,0,0,-1,1511,1296,0,0
294,-272,0,0,0,0,0,0,0,0,0,-1,1518,1296,0,0
301,-272,0,0,0,0,0,0,0,0,0,-1,1525,1296,0,0
308,-272,0,0,0,0,0,0,0,0,0,-1,1532,1296,0,0
315,-272,0,0,0,0,0,0,0,0,0,-1,1539,1296,0,0
322,-272,0,0,0,0,0,0,0,0,0,-1,1546,1296,0,0
329,-272,0,0,0,0,0,0,0,0,0,-1,1553,1296,0,0
336,-272,0,0,0,0,0,0,0,0,0,-1,1560,1296,0,0
343,-272,0,0,0,0,0,0,0,0,0,-1,1567,1296,0,0
350,-272,0,0,0,0,0,0,0,0,0,-1,1574,1296,0,0
357,-272,0,0,0,0,0,0,0,0,0,-1,1581,1296,0,0
364,-272,0,0,0,0,0,0,0,0,0,-1,1588,1296,0,0
371,-272,0,0,0,0,0,0,0,0,0,-1,1595,1296,0,0
378,-272,0,0,0,0,0,0,0,0,0,-1,1602,1296,0,0
385,-272,0,0,0,0,0,0,0,0,0,-1,1609,1296,0,0
392,-272,0,0,0,0,0,0,0,0,0,-1,1616,1296,0,0
399,-272,0,0,0,0,0,0,0,0,0,-1,1623,1296,0,0
406,-272,0,0,0,0,0,0,0,0,0,-1,1630,1296,0,0
413,-272,0,0,0,0,0,0,0,0,0,-1,1637,1296,0,0
420,-272,0,0,0,0,0,0,0,0,0,-1,1644,1296,0,0
427,-272,0,0,0,0,0,0,0,0,0,-1,1651,1296,0,0
434,-272,0,0,0,0,0,0,0,0,0,-1,1658,1296,0,0
441,-272,0,0,0,0,0,0,0,0,0,-1,1665,1296,0,0
448,-272,0,0,0,0,0,0,0,0,0,-1,1672,1296,0,0
455,-272,0,0,0,0,0,0,0,0,0,-1,1679,1296,0,0
462,-272,0,0,0,0,0,0,0,0,0,-1,1686,1296,0,0
469,-272,0,0,0,0,0,0,0,0,0,-1,1693,1296,0,0
476,-272,0,0,0,0,0,0,0,0,0,-1,1700,1296,0,0
483,-272,0,0,0,0,0,0,0,0,0,-1,1707,1296,0,0
490,-272,0,0,0,0,0,0,0,0,0,-1,1714,1296,0,0
497,-272,0,0,0,0,0,0,0,0,0,-1,1721,1296,0,0
504,-272,0,0,0,0,0,0,0,0,0,-1,1728,1296,0,0
511,-272,0,0,0,0,0,0,0,0,0,-1,1735,1296,0,0
518,-272,0,0,0,0,0,0,0,0,0,-1,1742,1296,0,0
525,-272,0,0,0,0,0,0,0,0,0,-1,1749,1296,0,0
532,-272,0,0,0,0,0,0,0,0,0,-1,1756,1296,0,0
539,-272,0,0,0,0,0,0,0,0,0,-1,1763,1296,0,0
546,-272,0,0,0,0,0,0,0,0,0,-1,1770,1296,0,0
553,-272,0,0,0,0,0,0,0,0,0,-1,1777,1296,0,0
560,-272,0,0,0,0,0,0,0,0,0,-1,1784,1296,0,0
567,-272,0,0,0,0,0,0,0,0,0,-1,1791,1296,0,0
574,-272,0,0,0,0,0,0,0,0,0,-1,1798,1296,0,0
581,-272,0,0,0,0,0,0,0,0,0,-1,1805,1296,0,0
588,-272,0,0,0,0,0,0,0,0,0,-1,1812,1296,0,0
595,-272,0,0,0,0,0,0,0,0,0,-1,1819,1296,0,0
602,-272,70.2834,2.30762,0.00234251,-0.00263447,0.000600349,0.0024139,-0.00270586,0.118364,0.0029575,0.0320333,1826,1296,70.2835,-2.30758
609,-272,70.1719,2.15942,0.00302075,0.00166244,-0.00214976,0.00459608,8.71054e-05,-0.632398,0.00303543,0.0417344,1833,1296,70.1719,-2.15941
616,-272,70.2751,2.12012,0.00277698,0.00523528,-0.00408567,0.00827269,-0.000260421,-0.931513,0.00560395,0.0468957,1840,1296,70.2751,-2.12009
623,-272,69.8733,1.69019,0,0,0,0,0,0,0,-1,1847,1296,69.8733,-1.69018
630,-272,70.0092,1.60596,0,0,0,0,0,0,0,-1,1854,1296,70.0091,-1.606
637,-272,70.145,1.52185,0,0,0,0,0,0,0,-1,1861,1296,70.145,-1.52182
644,-272,53.563,1.44336,0,0,0,0,0,0,0,-1,1868,1296,53.5629,-1.4433
651,-272,41.9225,4.27161,0,0,0,0,0,0,0,-1,1875,1296,41.9225,-4.27157
658,-272,35.1527,2.10571,0,0,0,0,0,0,0,-1,1882,1296,35.1527,-2.10573
665,-272,22.0238,4.14417,0,0,0,0,0,0,0,-1,1889,1296,22.0238,-4.14421
672,-272,22.661,7.21765,0,0,0,0,0,0,0,-1,1896,1296,22.661,-7.21761
679,-272,49.4447,14.7072,0,0,0,0,0,0,0,-1,1903,1296,49.4447,-14.7071
686,-272,49.3357,13.9526,-0.00149549,0.0035929,-0.00221506,0.00442204,-0.00232464,-1.21262,0.00395744,0.0429325,1910,1296,49.3357,-13.9526
693,-272,49.3409,13.1593,-0.000439474,0.00116889,-0.00059322,0.00136402,-0.000634602,-1.25301,0.00117924,0.0121137,1917,1296,49.3409,-13.1593
700,-272,49.3346,12.455,0.000861601,-0.000302268,0.00013774,0.00087768,-0.000318347,0.116208,0.000715254,0.0121017,1924,1296,49.3347,-12.455
707,-272,49.3043,11.7242,0.000251812,-0.000279163,0.000668892,0.000705977,-0.000733328,0.59648,0.000831033,0.0116823,1931,1296,49.3044,-11.7243
714,-272,49.2666,11.0165,-0.000389528,-0.000201702,0.0012903,0.000998102,-0.00158933,0.821726,0.0015068,0.0141273,1938,1296,49.2666,-11.0165
721,-272,49.1863,10.3649,-0.00110933,-0.00012502,0.00199491,0.00143754,-0.0026719,0.906336,0.002408,0.0189769,1945,1296,49.1863,-10.3649
728,-272,49.1636,9.64539,-0.00191772,-5.45179e-05,0.00280632,0.00197079,-0.00394303,0.945658,0.00347706,0.0201823,1952,1296,49.1636,-9.64539
735,-272,49.1599,8.98621,-0.00286634,1.51976e-05,0.00374993,0.00259161,-0.00544276,0.96881,0.00473501,0.0173967,1959,1296,49.16,-8.98623
742,-272,49.0778,8.37366,-0.00395875,0.000162401,0.00485302,0.00337418,-0.00717053,0.986163,0.00621812,0.0263014,1966,1296,49.0778,-8.37371
749,-272,49.0061,7.70276,-0.00530991,0.000249201,0.0061493,0.00421796,-0.00927867,0.997661,0.00797279,0.0475753,1973,1296,49.0061,-7.70274
756,-272,49.0403,7.07178,0,0,0,0,0,0,0,-1,1980,1296,49.0402,-7.07174
763,-272,34.3995,5.88416,0,0,0,0,0,0,0,-1,1987,1296,34.3996,-5.88419
770,-272,25.9485,3.67749,0,0,0,0,0,0,0,-1,1994,1296,25.9485,-3.67744
777,-272,32.3619,6.13257,0,0,0,0,0,0,0,-1,2001,1296,32.362,-6.1326
784,-272,0,0,0,0,0,0,0,0,0,-1,2008,1296,0,0
791,-272,0,0,0,0,0,0,0,0,0,-1,2015,1296,0,0
798,-272,0,0,0,0,0,0,0,0,0,-1,2022,1296,0,0
805,-272,0,0,0,0,0,0,0,0,0,-1,2029,1296,0,0
812,-272,0,0,0,0,0,0,0,0,0,-1,2036,1296,0,0
-700,-279,0,0,0,0,0,0,0,0,0,-1,524,1303,0,0
-693,-279,0,0,0,0,0,0,0,0,0,-1,531,1303,0,0
-686,-279,0,0,0,0,0,0,0,0,0,-1,538,1303,0,0
-679,-279,0,0,0,0,0,0,0,0,0,-1,545,1303,0,0
-672,-279,0,0,0,0,0,0,0,0,0,-1,552,1303,0,0
-665,-279,0,0,0,0,0,0,0,0,0,-1,559,1303,0,0
-658,-279,-44.3733,1.65881,0,0,0,0,0,0,0,-1,566,1303,-44.3733,-1.65883
-651,-279,-44.1603,1.61462,0,0,0,0,0,0,0,-1,573,1303,-44.1604,-1.61462
-644,-279,-43.8069,1.50903,0,0,0,0,0,0,0,-1,580,1303,-43.8069,-1.50909
-637,-279,-43.2951,1.33704,0,0,0,0,0,0,0,-1,587,1303,-43.2951,-1.33703
-630,-279,-42.6152,1.22852,0,0,0,0,0,0,0,-1,594,1303,-42.6152,-1.22856
-623,-279,-41.8359,0.907715,0,0,0,0,0,0,0,-1,601,1303,-41.8358,-0.907688
-616,-279,-32.5623,5.70435,0,0,0,0,0,0,0,-1,608,1303,-32.5623,-5.70439
-609,-279,-32.1594,6.63782,-0.000421575,0.00602679,0.0054831,0.00916341,-0.00355819,1.05118,0.00757874,0.0499012,615,1303,-32.1594,-6.63787
-602,-279,-31.8309,7.52173,0.000158724,0.00456839,0.00402049,0.00694893,-0.00222181,1.0362,0.00552422,0.0156879,622,1303,-31.8309,-7.52168
-595,-279,-31.8957,8.25269,0.000532189,0.00319384,0.00281308,0.00497501,-0.00124898,1.00634,0.00380201,0.010516,629,1303,-31.8957,-8.25269
-588,-279,-31.9329,8.98035,0.000838596,0.00193293,0.00187421,0.00333821,-0.00056669,0.927423,0.00243644,0.0114262,636,1303,-31.9329,-8.98032
-581,-279,-31.9923,9.69373,0.00113241,0.000725081,0.00115758,0.0021041,-0.000246611,0.698319,0.00149175,0.0127009,643,1303,-31.9923,-9.69374
-574,-279,-32.0585,10.4572,0.0014457,-0.000434433,0.000636667,0.00164101,-0.000629739,0.297649,0.00135366,0.0137372,650,1303,-32.0586,-10.4572
-567,-279,-32.0728,11.1959,0.00185278,-0.00155913,0.000305939,0.00188,-0.00158634,0.0887247,0.00200369,0.0201797,657,1303,-32.0728,-11.1959
-560,-279,-32.1011,11.9827,0.00230379,-0.00245179,9.22406e-05,0.00230557,-0.00245358,0.0193866,0.00274814,0.0192881,664,1303,-32.1011,-11.9827
-553,-279,-32.1321,12.7466,0.00304715,-0.00337631,0.000751013,0.00313379,-0.00346295,0.114853,0.00381021,0.018615,671,1303,-32.1321,-12.7465
-546,-279,-32.1647,13.4862,0,0,0,0,0,0,0,-1,678,1303,-32.1647,-13.4863
-539,-279,-31.782,13.9238,0,0,0,0,0,0,0,-1,685,1303,-31.782,-13.9239
-532,-279,-14.9813,7.89917,0,0,0,0,0,0,0,-1,692,1303,-14.9813,-7.89918
-525,-279,-11.7063,-0.539185,0,0,0,0,0,0,0,-1,699,1303,-11.7063,0.539166
-518,-279,-16.8138,1.11963,0,0,0,0,0,0,0,-1,706,1303,-16.8138,-1.11968
-511,-279,-20.1063,-1.37915,0,0,0,0,0,0,0,-1,713,1303,-20.1062,1.37918
-504,-279,-18.3766,1.04578,0,0,0,0,0,0,0,-1,720,1303,-18.3767,-1.04577
-497,-279,-19.0046,2.08911,0,0,0,0,0,0,0,-1,727,1303,-19.0046,-2.08905
-490,-279,-20.0176,2.55188,0,0,0,0,0,0,0,-1,734,1303,-20.0176,-2.55183
-483,-279,-20.8064,2.99792,0,0,0,0,0,0,0,-1,741,1303,-20.8064,-2.99797
-476,-279,0,0,0,0,0,0,0,0,0,-1,748,1303,0,0
-469,-279,0,0,0,0,0,0,0,0,0,-1,755,1303,0,0
-462,-279,0,0,0,0,0,0,0,0,0,-1,762,1303,0,0
-455,-279,0,0,0,0,0,0,0,0,0,-1,769,1303,0,0
-448,-279,0,0,0,0,0,0,0,0,0,-1,776,1303,0,0
-441,-279,0,0,0,0,0,0,0,0,0,-1,783,1303,0,0
-434,-279,0,0,0,0,0,0,0,0,0,-1,790,1303,0,0
-427,-279,0,0,0,0,0,0,0,0,0,-1,797,1303,0,0
-420,-279,0,0,0,0,0,0,0,0,0,-1,804,1303,0,0
-413,-279,0,0,0,0,0,0,0,0,0,-1,811,1303,0,0
-406,-279,0,0,0,0,0,0,0,0,0,-1,818,1303,0,0
-399,-279,0,0,0,0,0,0,0,0,0,-1,825,1303,0,0
-392,-279,0,0,0,0,0,0,0,0,0,-1,832,1303,0,0
-385,-279,0,0,0,0,0,0,0,0,0,-1,839,1303,0,0
-378,-279,0,0,0,0,0,0,0,0,0,-1,846,1303,0,0
-371,-279,0,0,0,0,0,0,0,0,0,-1,853,1303,0,0
-364,-279,0,0,0,0,0,0,0,0,0,-1,860,1303,0,0
-357,-279,0,0,0,0,0,0,0,0,0,-1,867,1303,0,0
-350,-279,0,0,0,0,0,0,0,0,0,-1,874,1303,0,0
-343,-279,0,0,0,0,0,0,0,0,0,-1,881,1303,0,0
-336,-279,0,0,0,0,0,0,0,0,0,-1,888,1303,0,0
-329,-279,0,0,0,0,0,0,0,0,0,-1,895,1303,0,0
-322,-279,0,0,0,0,0,0,0,0,0,-1,902,1303,0,0
-315,-279,0,0,0,0,0,0,0,0,0,-1,909,1303,0,0
-308,-279,0,0,0,0,0,0,0,0,0,-1,916,1303,0,0
-301,-279,0,0,0,0,0,0,0,0,0,-1,923,1303,0,0
-294,-279,0,0,0,0,0,0,0,0,0,-1,930,1303,0,0
-287,-279,0,0,0,0,0,0,0,0,0,-1,937,1303,0,0
-280,-279,0,0,0,0,0,0,0,0,0,-1,944,1303,0,0
-273,-279,0,0,0,0,0,0,0,0,0,-1,951,1303,0,0
-266,-279,0,0,0,0,0,0,0,0,0,-1,958,1303,0,0
-259,-279,0,0,0,0,0,0,0,0,0,-1,965,1303,0,0
-252,-279,0,0,0,0,0,0,0,0,0,-1,972,1303,0,0
-245,-279,0,0,0,0,0,0,0,0,0,-1,979,1303,0,0
-238,-279,0,0,0,0,0,0,0,0,0,-1,986,1303,0,0
-231,-279,0,0,0,0,0,0,0,0,0,-1,993,1303,0,0
-224,-279,0,0,0,0,0,0,0,0,0,-1,1000,1303,0,0
-217,-279,0,0,0,0,0,0,0,0,0,-1,1007,1303,0,0
-210,-279,0,0,0,0,0,0,0,0,0,-1,1014,1303,0,0
-203,-279,0,0,0,0,0,0,0,0,0,-1,1021,1303,0,0
-196,-279,0,0,0,0,0,0,0,0,0,-1,1028,1303,0,0
-189,-279,0,0,0,0,0,0,0,0,0,-1,1035,1303,0,0
-182,-279,0,0,0,0,0,0,0,0,0,-1,1042,1303,0,0
-175,-279,0,0,0,0,0,0,0,0,0,-1,1049,1303,0,0
-168,-279,0,0,0,0,0,0,0,0,0,-1,1056,1303,0,0
-161,-279,0,0,0,0,0,0,0,0,0,-1,1063,1303,0,0
-154,-279,0,0,0,0,0,0,0,0,0,-1,1070,1303,0,0
-147,-279,0,0,0,0,0,0,0,0,0,-1,1077,1303,0,0
-140,-279,0,0,0,0,0,0,0,0,0,-1,1084,1303,0,0
-133,-279,0,0,0,0,0,0,0,0,0,-1,1091,1303,0,0
-126,-279,0,0,0,0,0,0,0,0,0,-1,1098,1303,0,0
-119,-279,0,0,0,0,0,0,0,0,0,-1,1105,1303,0,0
-112,-279,0,0,0,0,0,0,0,0,0,-1,1112,1303,0,0
-105,-279,0,0,0,0,0,0,0,0,0,-1,1119,1303,0,0
-98,-279,0,0,0,0,0,0,0,0,0,-1,1126,1303,0,0
-91,-279,0,0,0,0,0,0,0,0,0,-1,1133,1303,0,0
-84,-279,0,0,0,0,0,0,0,0,0,-1,1140,1303,0,0
-77,-279,0,0,0,0,0,0,0,0,0,-1,1147,1303,0,0
-70,-279,0,0,0,0,0,0,0,0,0,-1,1154,1303,0,0
-63,-279,0,0,0,0,0,0,0,0,0,-1,1161,1303,0,0
-56,-279,0,0,0,0,0,0,0,0,0,-1,1168,1303,0,0
-49,-279,0,0,0,0,0,0,0,0,0,-1,1175,1303,0,0
-42,-279,0,0,0,0,0,0,0,0,0,-1,1182,1303,0,0
-35,-279,0,0,0,0,0,0,0,0,0,-1,1189,1303,0,0
-28,-279,0,0,0,0,0,0,0,0,0,-1,1196,1303,0,0
-21,-279,0,0,0,0,0,0,0,0,0,-1,1203,1303,0,0
-14,-279,0,0,0,0,0,0,0,0,0,-1,1210,1303,0,0
-7,-279,0,0,0,0,0,0,0,0,0,-1,1217,1303,0,0
0,-279,0,0,0,0,0,0,0,0,0,-1,1224,1303,0,0
7,-279,0,0,0,0,0,0,0,0,0,-1,1231,1303,0,0
14,-279,0,0,0,0,0,0,0,0,0,-1,1238,1303,0,0
21,-279,0,0,0,0,0,0,0,0,0,-1,1245,1303,0,0
28,-279,0,0,0,0,0,0,0,0,0,-1,1252,1303,0,0
35,-279,0,0,0,0,0,0,0,0,0,-1,1259,1303,0,0
42,-279,0,0,0,0,0,0,0,0,0,-1,1266,1303,0,0
49,-279,0,0,0,0,0,0,0,0,0,-1,1273,1303,0,0
56,-279,0,0,0,0,0,0,0,0,0,-1,1280,1303,0,0
63,-279,0,0,0,0,0,0,0,0,0,-1,1287,1303,0,0
70,-279,0,0,0,0,0,0,0,0,0,-1,1294,1303,0,0
77,-279,0,0,0,0,0,0,0,0,0,-1,1301,1303,0,0
84,-279,0,0,0,0,0,0,0,0,0,-1,1308,1303,0,0
91,-279,0,0,0,0,0,0,0,0,0,-1,1315,1303,0,0
98,-279,0,0,0,0,0,0,0,0,0,-1,1322,1303,0,0
105,-279,0,0,0,0,0,0,0,0,0,-1,1329,1303,0,0
112,-279,0,0,0,0,0,0,0,0,0,-1,1336,1303,0,0
119,-279,0,0,0,0,0,0,0,0,0,-1,1343,1303,0,0
126,-279,0,0,0,0,0,0,0,0,0,-1,1350,1303,0,0
133,-279,0,0,0,0,0,0,0,0,0,-1,1357,1303,0,0
140,-279,0,0,0,0,0,0,0,0,0,-1,1364,1303,0,0
147,-279,0,0,0,0,0,0,0,0,0,-1,1371,1303,0,0
154,-279,0,0,0,0,0,0,0,0,0,-1,1378,1303,0,0
161,-279,0,0,0,0,0,0,0,0,0,-1,1385,1303,0,0
168,-279,0,0,0,0,0,0,0,0,0,-1,1392,1303,0,0
175,-279,0,0,0,0,0,0,0,0,0,-1,1399,1303,0,0
182,-279,0,0,0,0,0,0,0,0,0,-1,1406,1303,0,0
189,-279,0,0,0,0,0,0,0,0,0,-1,1413,1303,0,0
196,-279,0,0,0,0,0,0,0,0,0,-1,1420,1303,0,0
203,-279,0,0,0,0,0,0,0,0,0,-1,1427,1303,0,0
210,-279,0,0,0,0,0,0,0,0,0,-1,1434,1303,0,0
217,-279,0,0,0,0,0,0,0,0,0,-1,1441,1303,0,0
224,-279,0,0,0,0,0,0,0,0,0,-1,1448,1303,0,0
231,-279,0,0,0,0,0,0,0,0,0,-1,1455,1303,0,0
238,-279,0,0,0,0,0,0,0,0,0,-1,1462,1303,0,0
245,-279,0,0,0,0,0,0,0,0,0,-1,1469,1303,0,0
252,-279,0,0,0,0,0,0,0,0,0,-1,1476,1303,0,0
259,-279,0,0,0,0,0,0,0,0,0,-1,1483,1303,0,0
266,-279,0,0,0,0,0,0,0,0,0,-1,1490,1303,0,0
273,-279,0,0,0,0,0,0,0,0,0,-1,1497,1303,0,0
280,-279,0,0,0,0,0,0,0,0,0,-1,1504,1303,0,0
287,-279,0,0,0,0,0,0,0,0,0,-1,1511,1303,0,0
294,-279,0,0,0,0,0,0,0,0,0,-1,1518,1303,0,0
301,-279,0,0,0,0,0,0,0,0,0,-1,1525,1303,0,0
308,-279,0,0,0,0,0,0,0,0,0,-1,1532,1303,0,0
315,-279,0,0,0,0,0,0,0,0,0,-1,1539,1303,0,0
322,-279,0,0,0,0,0,0,0,0,0,-1,1546,1303,0,0
329,-279,0,0,0,0,0,0,0,0,0,-1,1553,1303,0,0
336,-279,0,0,0,0,0,0,0,0,0,-1,1560,1303,0,0
343,-279,0,0,0,0,0,0,0,0,0,-1,1567,1303,0,0
350,-279,0,0,0,0,0,0,0,0,0,-1,1574,1303,0,0
357,-279,0,0,0,0,0,0,0,0,0,-1,1581,1303,0,0
364,-279,0,0,0,0,0,0,0,0,0,-1,1588,1303,0,0
371,-279,0,0,0,0,0,0,0,0,0,-1,1595,1303,0,0
378,-279,0,0,0,0,0,0,0,0,0,-1,1602,1303,0,0
385,-279,0,0,0,0,0,0,0,0,0,-1,1609,1303,0,0
392,-279,0,0,0,0,0,0,0,0,0,-1,1616,1303,0,0
399,-279,0,0,0,0,0,0,0,0,0,-1,1623,1303,0,0
406,-279,0,0,0,0,0,0,0,0,0,-1,1630,1303,0,0
413,-279,0,0,0,0,0,0,0,0,0,-1,1637,1303,0,0
420,-279,0,0,0,0,0,0,0,0,0,-1,1644,1303,0,0
427,-279,0,0,0,0,0,0,0,0,0,-1,1651,1303,0,0
434,-279,0,0,0,0,0,0,0,0,0,-1,1658,1303,0,0
441,-279,0,0,0,0,0,0,0,0,0,-1,1665,1303,0,0
448,-279,0,0,0,0,0,0,0,0,0,-1,1672,1303,0,0
455,-279,0,0,0,0,0,0,0,0,0,-1,1679,1303,0,0
462,-279,0,0,0,0,0,0,0,0,0,-1,1686,1303,0,0
469,-279,0,0,0,0,0,0,0,0,0,-1,1693,1303,0,0
476,-279,0,0,0,0,0,0,0,0,0,-1,1700,1303,0,0
483,-279,0,0,0,0,0,0,0,0,0,-1,1707,1303,0,0
490,-279,0,0,0,0,0,0,0,0,0,-1,1714,1303,0,0
497,-279,0,0,0,0,0,0,0,0,0,-1,1721,1303,0,0
504,-279,0,0,0,0,0,0,0,0,0,-1,1728,1303,0,0
511,-279,0,0,0,0,0,0,0,0,0,-1,1735,1303,0,0
518,-279,0,0,0,0,0,0,0,0,0,-1,1742,1303,0,0
525,-279,0,0,0,0,0,0,0,0,0,-1,1749,1303,0,0
532,-279,0,0,0,0,0,0,0,0,0,-1,1756,1303,0,0
539,-279,0,0,0,0,0,0,0,0,0,-1,1763,1303,0,0
546,-279,0,0,0,0,0,0,0,0,0,-1,1770,1303,0,0
553,-279,0,0,0,0,0,0,0,0,0,-1,1777,1303,0,0
560,-279,0,0,0,0,0,0,0,0,0,-1,1784,1303,0,0
567,-279,0,0,0,0,0,0,0,0,0,-1,1791,1303,0,0
574,-279,0,0,0,0,0,0,0,0,0,-1,1798,1303,0,0
581,-279,0,0,0,0,0,0,0,0,0,-1,1805,1303,0,0
588,-279,0,0,0,0,0,0,0,0,0,-1,1812,1303,0,0
595,-279,0,0,0,0,0,0,0,0,0,-1,1819,1303,0,0
602,-279,70.2527,2.20215,0,0,0,0,0,0,0,-1,1826,1303,70.2526,-2.20215
609,-279,70.1344,2.0542,0,0,0,0,0,0,0,-1,1833,1303,70.1344,-2.05423
616,-279,70.2368,2.42249,0.00741655,0.000471122,-0.00357737,0.00892955,-0.00104187,-0.400121,0.00632897,0.0471871,1840,1303,70.2369,-2.42244
623,-279,70.4581,2.66772,0,0,0,0,0,0,0,-1,1847,1303,70.4581,-2.66769
630,-279,69.9368,1.39551,0,0,0,0,0,0,0,-1,1854,1303,69.9367,-1.39552
637,-279,64.8074,1.49939,0,0,0,0,0,0,0,-1,1861,1303,64.8074,-1.49939
644,-279,33.5021,3.40234,0,0,0,0,0,0,0,-1,1868,1303,33.5021,-3.40237
651,-279,29.8456,2.3562,0,0,0,0,0,0,0,-1,1875,1303,29.8455,-2.35615
658,-279,21.5076,7.65649,0,0,0,0,0,0,0,-1,1882,1303,21.5076,-7.65648
665,-279,18.9794,6.09607,0,0,0,0,0,0,0,-1,1889,1303,18.9793,-6.09601
672,-279,23.5206,8.32507,0,0,0,0,0,0,0,-1,1896,1303,23.5206,-8.32512
679,-279,48.4171,14.6083,0,0,0,0,0,0,0,-1,1903,1303,48.4171,-14.6082
686,-279,48.5975,13.9056,-0.000822641,0.00299919,-0.00211246,0.0039368,-0.00176025,-1.15307,0.00336826,0.0322504,1910,1303,48.5975,-13.9056
693,-279,48.6415,13.218,9.81758e-05,0.000821965,-0.00060926,0.00116871,-0.000248566,-1.05339,0.000873857,0.0172663,1917,1303,48.6415,-13.2181
700,-279,48.6207,12.511,0.000960239,-0.000178191,9.97146e-05,0.000968907,-0.000186859,0.0867097,0.000716394,0.012715,1924,1303,48.6208,-12.511
707,-279,48.5754,11.7672,0.000420784,-0.000168186,0.000649972,0.000839871,-0.000587273,0.572695,0.000828253,0.0100484,1931,1303,48.5754,-11.7672
714,-279,48.5342,11.0707,-0.000152641,-0.000132102,0.00125672,0.00111439,-0.00139914,0.789484,0.00145429,0.0115049,1938,1303,48.5341,-11.0707
721,-279,48.5387,10.3816,-0.000798587,-9.88246e-05,0.00194762,0.00153009,-0.0024275,0.874273,0.00230442,0.0164369,1945,1303,48.5387,-10.3816
728,-279,48.5176,9.68872,-0.00153692,-7.1596e-05,0.00274813,0.00203986,-0.00364838,0.91567,0.00332759,0.0179672,1952,1303,48.5175,-9.68872
735,-279,48.4393,9.02869,-0.00242823,-4.78575e-05,0.00369129,0.00264038,-0.00511646,0.941351,0.00455383,0.0173977,1959,1303,48.4393,-9.0287
742,-279,48.4006,8.42297,-0.00347061,7.66611e-05,0.00480816,0.00342789,-0.00682183,0.962095,0.00602485,0.0299722,1966,1303,48.4006,-8.42292
749,-279,48.2264,8.03357,0,0,0,0,0,0,0,-1,1973,1303,48.2264,-8.03354
756,-279,23.2091,4.43433,0,0,0,0,0,0,0,-1,1980,1303,23.2092,-4.43432
763,-279,27.1613,3.46265,0,0,0,0,0,0,0,-1,1987,1303,27.1613,-3.4627
770,-279,21.5828,3.54199,0,0,0,0,0,0,0,-1,1994,1303,21.5827,-3.54198
777,-279,32.5369,6.99609,0,0,0,0,0,0,0,-1,2001,1303,32.5369,-6.99608
784,-279,0,0,0,0,0,0,0,0,0,-1,2008,1303,0,0
791,-279,0,0,0,0,0,0,0,0,0,-1,2015,1303,0,0
798,-279,0,0,0,0,0,0,0,0,0,-1,2022,1303,0,0
805,-279,0,0,0,0,0,0,0,0,0,-1,2029,1303,0,0
812,-279,0,0,0,0,0,0,0,0,0,-1,2036,1303,0,0
-700,-286,0,0,0,0,0,0,0,0,0,-1,524,1310,0,0
-693,-286,0,0,0,0,0,0,0,0,0,-1,531,1310,0,0
-686,-286,0,0,0,0,0,0,0,0,0,-1,538,1310,0,0
-679,-286,0,0,0,0,0,0,0,0,0,-1,545,1310,0,0
-672,-286,0,0,0,0,0,0,0,0,0,-1,552,1310,0,0
-665,-286,0,0,0,0,0,0,0,0,0,-1,559,1310,0,0
-658,-286,-44.103,1.76782,0,0,0,0,0,0,0,-1,566,1310,-44.103,-1.76778
-651,-286,-43.6417,1.98254,0,0,0,0,0,0,0,-1,573,1310,-43.6416,-1.98254
-644,-286,-43.3175,1.59558,0,0,0,0,0,0,0,-1,580,1310,-43.3175,-1.59556
-637,-286,-42.8448,1.15039,0,0,0,0,0,0,0,-1,587,1310,-42.8448,-1.15043
-630,-286,-42.1176,0.443848,0,0,0,0,0,0,0,-1,594,1310,-42.1176,-0.443802
-623,-286,-41.3121,-0.468384,0,0,0,0,0,0,0,-1,601,1310,-41.3121,0.468376
-616,-286,-22.0634,2.37744,0,0,0,0,0,0,0,-1,608,1310,-22.0633,-2.37746
-609,-286,-31.5362,6.22632,0,0,0,0,0,0,0,-1,615,1310,-31.5362,-6.22635
-602,-286,-31.1185,7.43701,0.000802916,0.00533481,0.00441596,0.00803225,-0.00189453,1.02244,0.00608545,0.0230288,622,1310,-31.1185,-7.43707
-595,-286,-31.1801,8.28882,0.00105096,0.00374573,0.00307879,0.00575906,-0.000962375,0.99166,0.0041971,0.0123324,629,1310,-31.18,-8.28887
-588,-286,-31.2197,9.00671,0.00123608,0.00236974,0.00207404,0.00395302,-0.000347191,0.918789,0.00275837,0.0136419,636,1310,-31.2197,-9.00668
-581,-286,-31.2145,9.73499,0.00143794,0.0011295,0.00135463,0.0026471,-7.96602e-05,0.728719,0.00179188,0.0160273,643,1310,-31.2145,-9.73502
-574,-286,-31.2925,10.5092,0.00168159,8.57088e-06,0.000863263,0.00204715,-0.00035699,0.400569,0.00149801,0.0155656,650,1310,-31.2925,-10.5091
-567,-286,-31.3456,11.2518,0.00202382,-0.00101312,0.000574699,0.00212893,-0.00111824,0.180906,0.00190479,0.0160319,657,1310,-31.3456,-11.2519
-560,-286,-31.3579,12.0181,0.00246124,-0.00194245,0.000513532,0.00252033,-0.00200155,0.114566,0.00261643,0.0156094,664,1310,-31.3579,-12.0181
-553,-286,-31.361,12.7759,0.00310767,-0.00278593,0.00112274,0.00331431,-0.00299257,0.182011,0.00364286,0.0111337,671,1310,-31.361,-12.7759
-546,-286,-31.3251,13.5546,0.00390262,-0.00324872,0.0019763,0.00441243,-0.00375853,0.25246,0.00472254,0.0263571,678,1310,-31.3251,-13.5546
-539,-286,-31.415,14.426,0,0,0,0,0,0,0,-1,685,1310,-31.415,-14.426
-532,-286,-21.6771,10.4924,0,0,0,0,0,0,0,-1,692,1310,-21.6771,-10.4924
-525,-286,-11.4528,-1.11768,0,0,0,0,0,0,0,-1,699,1310,-11.4528,1.11769
-518,-286,-11.0701,1.37329,0,0,0,0,0,0,0,-1,706,1310,-11.0701,-1.37332
-511,-286,-17.7545,-0.0791016,0,0,0,0,0,0,0,-1,713,1310,-17.7544,0.0791606
-504,-286,-18.0455,1.29602,0,0,0,0,0,0,0,-1,720,1310,-18.0455,-1.29601
-497,-286,-18.3367,2.67114,0,0,0,0,0,0,0,-1,727,1310,-18.3366,-2.67118
-490,-286,-19.5795,2.47266,0,0,0,0,0,0,0,-1,734,1310,-19.5795,-2.4727
-483,-286,-19.7277,2.74744,0,0,0,0,0,0,0,-1,741,1310,-19.7277,-2.74747
-476,-286,-20.0391,3.06177,0,0,0,0,0,0,0,-1,748,1310,-20.0391,-3.06178
-469,-286,0,0,0,0,0,0,0,0,0,-1,755,1310,0,0
-462,-286,0,0,0,0,0,0,0,0,0,-1,762,1310,0,0
-455,-286,0,0,0,0,0,0,0,0,0,-1,769,1310,0,0
-448,-286,0,0,0,0,0,0,0,0,0,-1,776,1310,0,0
-441,-286,0,0,0,0,0,0,0,0,0,-1,783,1310,0,0
-434,-286,0,0,0,0,0,0,0,0,0,-1,790,1310,0,0
-427,-286,0,0,0,0,0,0,0,0,0,-1,797,1310,0,0
-420,-286,0,0,0,0,0,0,0,0,0,-1,804,1310,0,0
-413,-286,0,0,0,0,0,0,0,0,0,-1,811,1310,0,0
-406,-286,0,0,0,0,0,0,0,0,0,-1,818,1310,0,0
-399,-286,0,0,0,0,0,0,0,0,0,-1,825,1310,0,0
-392,-286,0,0,0,0,0,0,0,0,0,-1,832,1310,0,0
-385,-286,0,0,0,0,0,0,0,0,0,-1,839,1310,0,0
-378,-286,0,0,0,0,0,0,0,0,0,-1,846,1310,0,0
-371,-286,0,0,0,0,0,0,0,0,0,-1,853,1310,0,0
-364,-286,0,0,0,0,0,0,0,0,0,-1,860,1310,0,0
-357,-286,0,0,0,0,0,0,0,0,0,-1,867,1310,0,0
-350,-286,0,0,0,0,0,0,0,0,0,-1,874,1310,0,0
-343,-286,0,0,0,0,0,0,0,0,0,-1,881,1310,0,0
-336,-286,0,0,0,0,0,0,0,0,0,-1,888,1310,0,0
-329,-286,0,0,0,0,0,0,0,0,0,-1,895,1310,0,0
-322,-286,0,0,0,0,0,0,0,0,0,-1,902,1310,0,0
-315,-286,0,0,0,0,0,0,0,0,0,-1,909,1310,0,0
-308,-286,0,0,0,0,0,0,0,0,0,-1,916,1310,0,0
-301,-286,0,0,0,0,0,0,0,0,0,-1,923,1310,0,0
-294,-286,0,0,0,0,0,0,0,0,0,-1,930,1310,0,0
-287,-286,0,0,0,0,0,0,0,0,0,-1,937,1310,0,0
-280,-286,0,0,0,0,0,0,0,0,0,-1,944,1310,0,0
-273,-286,0,0,0,0,0,0,0,0,0,-1,951,1310,0,0
-266,-286,0,0,0,0,0,0,0,0,0,-1,958,1310,0,0
-259,-286,0,0,0,0,0,0,0,0,0,-1,965,1310,0,0
-252,-286,0,0,0,0,0,0,0,0,0,-1,972,1310,0,0
-245,-286,0,0,0,0,0,0,0,0,0,-1,979,1310,0,0
-238,-286,0,0,0,0,0,0,0,0,0,-1,986,1310,0,0
-231,-286,0,0,0,0,0,0,0,0,0,-1,993,1310,0,0
-224,-286,0,0,0,0,0,0,0,0,0,-1,1000,1310,0,0
-217,-286,0,0,0,0,0,0,0,0,0,-1,1007,1310,0,0
-210,-286,0,0,0,0,0,0,0,0,0,-1,1014,1310,0,0
-203,-286,0,0,0,0,0,0,0,0,0,-1,1021,1310,0,0
-196,-286,0,0,0,0,0,0,0,0,0,-1,1028,1310,0,0
-189,-286,0,0,0,0,0,0,0,0,0,-1,1035,1310,0,0
-182,-286,0,0,0,0,0,0,0,0,0,-1,1042,1310,0,0
-175,-286,0,0,0,0,0,0,0,0,0,-1,1049,1310,0,0
-168,-286,0,0,0,0,0,0,0,0,0,-1,1056,1310,0,0
-161,-286,0,0,0,0,0,0,0,0,0,-1,1063,1310,0,0
-154,-286,0,0,0,0,0,0,0,0,0,-1,1070,1310,0,0
-147,-286,0,0,0,0,0,0,0,0,0,-1,1077,1310,0,0
-140,-286,0,0,0,0,0,0,0,0,0,-1,1084,1310,0,0
-133,-286,0,0,0,0,0,0,0,0,0,-1,1091,1310,0,0
-126,-286,0,0,0,0,0,0,0,0,0,-1,1098,1310,0,0
-119,-286,0,0,0,0,0,0,0,0,0,-1,1105,1310,0,0
-112,-286,0,0,0,0,0,0,0,0,0,-1,1112,1310,0,0
-105,-286,0,0,0,0,0,0,0,0,0,-1,1119,1310,0,0
-98,-286,0,0,0,0,0,0,0,0,0,-1,1126,1310,0,0
-91,-286,0,0,0,0,0,0,0,0,0,-1,1133,1310,0,0
-84,-286,0,0,0,0,0,0,0,0,0,-1,1140,1310,0,0
-77,-286,0,0,0,0,0,0,0,0,0,-1,1147,1310,0,0
-70,-286,0,0,0,0,0,0,0,0,0,-1,1154,1310,0,0
-63,-286,0,0,0,0,0,0,0,0,0,-1,1161,1310,0,0
-56,-286,0,0,0,0,0,0,0,0,0,-1,1168,1310,0,0
-49,-286,0,0,0,0,0,0,0,0,0,-1,1175,1310,0,0
-42,-286,0,0,0,0,0,0,0,0,0,-1,1182,1310,0,0
-35,-286,0,0,0,0,0,0,0,0,0,-1,1189,1310,0,0
-28,-286,0,0,0,0,0,0,0,0,0,-1,1196,1310,0,0
-21,-286,0,0,0,0,0,0,0,0,0,-1,1203,1310,0,0
-14,-286,0,0,0,0,0,0,0,0,0,-1,1210,1310,0,0
-7,-286,0,0,0,0,0,0,0,0,0,-1,1217,1310,0,0
0,-286,0,0,0,0,0,0,0,0,0,-1,1224,1310,0,0
7,-286,0,0,0,0,0,0,0,0,0,-1,1231,1310,0,0
14,-286,0,0,0,0,0,0,0,0,0,-1,1238,1310,0,0
21,-286,0,0,0,0,0,0,0,0,0,-1,1245,1310,0,0
28,-286,0,0,0,0,0,0,0,0,0,-1,1252,1310,0,0
35,-286,0,0,0,0,0,0,0,0,0,-1,1259,1310,0,0
42,-286,0,0,0,0,0,0,0,0,0,-1,1266,1310,0,0
49,-286,0,0,0,0,0,0,0,0,0,-1,1273,1310,0,0
56,-286,0,0,0,0,0,0,0,0,0,-1,1280,1310,0,0
63,-286,0,0,0,0,0,0,0,0,0,-1,1287,1310,0,0
70,-286,0,0,0,0,0,0,0,0,0,-1,1294,1310,0,0
77,-286,0,0,0,0,0,0,0,0,0,-1,1301,1310,0,0
84,-286,0,0,0,0,0,0,0,0,0,-1,1308,1310,0,0
91,-286,0,0,0,0,0,0,0,0,0,-1,1315,1310,0,0
98,-286,0,0,0,0,0,0,0,0,0,-1,1322,1310,0,0
105,-286,0,0,0,0,0,0,0,0,0,-1,1329,1310,0,0
112,-286,0,0,0,0,0,0,0,0,0,-1,1336,1310,0,0
119,-286,0,0,0,0,0,0,0,0,0,-1,1343,1310,0,0
126,-286,0,0,0,0,0,0,0,0,0,-1,1350,1310,0,0
133,-286,0,0,0,0,0,0,0,0,0,-1,1357,1310,0,0
140,-286,0,0,0,0,0,0,0,0,0,-1,1364,1310,0,0
147,-286,0,0,0,0,0,0,0,0,0,-1,1371,1310,0,0
154,-286,0,0,0,0,0,0,0,0,0,-1,1378,1310,0,0
161,-286,0,0,0,0,0,0,0,0,0,-1,1385,1310,0,0
168,-286,0,0,0,0,0,0,0,0,0,-1,1392,1310,0,0
175,-286,0,0,0,0,0,0,0,0,0,-1,1399,1310,0,0
182,-286,0,0,0,0,0,0,0,0,0,-1,1406,1310,0,0
189,-286,0,0,0,0,0,0,0,0,0,-1,1413,1310,0,0
196,-286,0,0,0,0,0,0,0,0,0,-1,1420,1310,0,0
203,-286,0,0,0,0,0,0,0,0,0,-1,1427,1310,0,0
210,-286,0,0,0,0,0,0,0,0,0,-1,1434,1310,0,0
217,-286,0,0,0,0,0,0,0,0,0,-1,1441,1310,0,0
224,-286,0,0,0,0,0,0,0,0,0,-1,1448,1310,0,0
231,-286,0,0,0,0,0,0,0,0,0,-1,1455,1310,0,0
238,-286,0,0,0,0,0,0,0,0,0,-1,1462,1310,0,0
245,-286,0,0,0,0,0,0,0,0,0,-1,1469,1310,0,0
252,-286,0,0,0,0,0,0,0,0,0,-1,1476,1310,0,0
259,-286,0,0,0,0,0,0,0,0,0,-1,1483,1310,0,0
266,-286,0,0,0,0,0,0,0,0,0,-1,1490,1310,0,0
273,-286,0,0,0,0,0,0,0,0,0,-1,1497,1310,0,0
280,-286,0,0,0,0,0,0,0,0,0,-1,1504,1310,0,0
287,-286,0,0,0,0,0,0,0,0,0,-1,1511,1310,0,0
294,-286,0,0,0,0,0,0,0,0,0,-1,1518,1310,0,0
301,-286,0,0,0,0,0,0,0,0,0,-1,1525,1310,0,0
308,-286,0,0,0,0,0,0,0,0,0,-1,1532,1310,0,0
315,-286,0,0,0,0,0,0,0,0,0,-1,1539,1310,0,0
322,-286,0,0,0,0,0,0,0,0,0,-1,1546,1310,0,0
329,-286,0,0,0,0,0,0,0,0,0,-1,1553,1310,0,0
336,-286,0,0,0,0,0,0,0,0,0,-1,1560,1310,0,0
343,-286,0,0,0,0,0,0,0,0,0,-1,1567,1310,0,0
350,-286,0,0,0,0,0,0,0,0,0,-1,1574,1310,0,0
357,-286,0,0,0,0,0,0,0,0,0,-1,1581,1310,0,0
364,-286,0,0,0,0,0,0,0,0,0,-1,1588,1310,0,0
371,-286,0,0,0,0,0,0,0,0,0,-1,1595,1310,0,0
378,-286,0,0,0,0,0,0,0,0,0,-1,1602,1310,0,0
385,-286,0,0,0,0,0,0,0,0,0,-1,1609,1310,0,0
392,-286,0,0,0,0,0,0,0,0,0,-1,1616,1310,0,0
399,-286,0,0,0,0,0,0,0,0,0,-1,1623,1310,0,0
406,-286,0,0,0,0,0,0,0,0,0,-1,1630,1310,0,0
413,-286,0,0,0,0,0,0,0,0,0,-1,1637,1310,0,0
420,-286,0,0,0,0,0,0,0,0,0,-1,1644,1310,0,0
427,-286,0,0,0,0,0,0,0,0,0,-1,1651,1310,0,0
434,-286,0,0,0,0,0,0,0,0,0,-1,1658,1310,0,0
441,-286,0,0,0,0,0,0,0,0,0,-1,1665,1310,0,0
448,-286,0,0,0,0,0,0,0,0,0,-1,1672,1310,0,0
455,-286,0,0,0,0,0,0,0,0,0,-1,1679,1310,0,0
462,-286,0,0,0,0,0,0,0,0,0,-1,1686,1310,0,0
469,-286,0,0,0,0,0,0,0,0,0,-1,1693,1310,0,0
476,-286,0,0,0,0,0,0,0,0,0,-1,1700,1310,0,0
483,-286,0,0,0,0,0,0,0,0,0,-1,1707,1310,0,0
490,-286,0,0,0,0,0,0,0,0,0,-1,1714,1310,0,0
497,-286,0,0,0,0,0,0,0,0,0,-1,1721,1310,0,0
504,-286,0,0,0,0,0,0,0,0,0,-1,1728,1310,0,0
511,-286,0,0,0,0,0,0,0,0,0,-1,1735,1310,0,0
518,-286,0,0,0,0,0,0,0,0,0,-1,1742,1310,0,0
525,-286,0,0,0,0,0,0,0,0,0,-1,1749,1310,0,0
532,-286,0,0,0,0,0,0,0,0,0,-1,1756,1310,0,0
539,-286,0,0,0,0,0,0,0,0,0,-1,1763,1310,0,0
546,-286,0,0,0,0,0,0,0,0,0,-1,1770,1310,0,0
553,-286,0,0,0,0,0,0,0,0,0,-1,1777,1310,0,0
560,-286,0,0,0,0,0,0,0,0,0,-1,1784,1310,0,0
567,-286,0,0,0,0,0,0,0,0,0,-1,1791,1310,0,0
574,-286,0,0,0,0,0,0,0,0,0,-1,1798,1310,0,0
581,-286,0,0,0,0,0,0,0,0,0,-1,1805,1310,0,0
588,-286,0,0,0,0,0,0,0,0,0,-1,1812,1310,0,0
595,-286,69.8951,2.40527,0,0,0,0,0,0,0,-1,1819,1310,69.8951,-2.40522
602,-286,70.2703,2.01245,0,0,0,0,0,0,0,-1,1826,1310,70.2702,-2.01243
609,-286,70.4806,2.62817,0,0,0,0,0,0,0,-1,1833,1310,70.4805,-2.62816
616,-286,70.4763,2.89722,0,0,0,0,0,0,0,-1,1840,1310,70.4763,-2.89727
623,-286,70.4722,3.16638,0,0,0,0,0,0,0,-1,1847,1310,70.4721,-3.16638
630,-286,65.3651,1.61572,0,0,0,0,0,0,0,-1,1854,1310,65.3651,-1.61568
637,-286,47.8409,3.69824,0,0,0,0,0,0,0,-1,1861,1310,47.841,-3.69823
644,-286,25.6433,1.33862,0,0,0,0,0,0,0,-1,1868,1310,25.6433,-1.33858
651,-286,25.2507,1.88245,0,0,0,0,0,0,0,-1,1875,1310,25.2508,-1.88245
658,-286,25.9475,9.43689,0,0,0,0,0,0,0,-1,1882,1310,25.9475,-9.43693
665,-286,24.9838,8.03101,0,0,0,0,0,0,0,-1,1889,1310,24.9837,-8.03104
672,-286,40.2175,12.9626,0,0,0,0,0,0,0,-1,1896,1310,40.2175,-12.9627
679,-286,47.9254,14.6592,0,0,0,0,0,0,0,-1,1903,1310,47.9255,-14.6592
686,-286,47.98,13.9508,0.000122383,0.00219691,-0.00189401,0.00331909,-0.000999796,-1.03592,0.00261061,0.022663,1910,1310,47.98,-13.9508
693,-286,47.9561,13.2501,0.000680825,0.000501607,-0.000587811,0.00118582,-3.38611e-06,-0.709758,0.000791677,0.0170323,1917,1310,47.956,-13.2501
700,-286,47.913,12.5295,0.00108822,-5.38463e-05,7.09211e-05,0.00109261,-5.82336e-05,0.0617824,0.000748574,0.0122192,1924,1310,47.9129,-12.5296
707,-286,47.8622,11.8245,0.000603197,-7.09405e-05,0.000606415,0.000959925,-0.000427669,0.531741,0.000820538,0.00954646,1931,1310,47.8621,-11.8245
714,-286,47.828,11.1335,8.6915e-05,-8.41747e-05,0.0012084,0.00121279,-0.00121005,0.750061,0.00139883,0.0103799,1938,1310,47.828,-11.1335
721,-286,47.83,10.4391,-0.000491772,-0.000100744,0.00189645,0.00161024,-0.00220276,0.836764,0.00221028,0.0137151,1945,1310,47.83,-10.4391
728,-286,47.7933,9.74561,-0.00116724,-0.000134486,0.00270752,0.00210546,-0.00340718,0.879627,0.00321217,0.0157331,1952,1310,47.7933,-9.74564
735,-286,47.7668,9.02405,-0.00201729,-0.000192793,0.00368952,0.00269559,-0.00490567,0.906594,0.00444999,0.0212061,1959,1310,47.7669,-9.02399
742,-286,47.8026,8.42285,-0.00303362,-0.000147674,0.00488707,0.003505,-0.00668629,0.928951,0.00597874,0.0407262,1966,1310,47.8026,-8.42279
749,-286,48.0161,7.8114,0,0,0,0,0,0,0,-1,1973,1310,48.0162,-7.81141
756,-286,24.8226,4.43481,0,0,0,0,0,0,0,-1,1980,1310,24.8227,-4.43479
763,-286,20.6671,3.99683,0,0,0,0,0,0,0,-1,1987,1310,20.6671,-3.99683
770,-286,23.9147,4.45679,0,0,0,0,0,0,0,-1,1994,1310,23.9146,-4.45675
777,-286,0,0,0,0,0,0,0,0,0,-1,2001,1310,0,0
784,-286,0,0,0,0,0,0,0,0,0,-1,2008,1310,0,0
791,-286,0,0,0,0,0,0,0,0,0,-1,2015,1310,0,0
798,-286,0,0,0,0,0,0,0,0,0,-1,2022,1310,0,0
805,-286,0,0,0,0,0,0,0,0,0,-1,2029,1310,0,0
812,-286,0,0,0,0,0,0,0,0,0,-1,2036,1310,0,0
-700,-293,0,0,0,0,0,0,0,0,0,-1,524,1317,0,0
-693,-293,0,0,0,0,0,0,0,0,0,-1,531,1317,0,0
-686,-293,0,0,0,0,0,0,0,0,0,-1,538,1317,0,0
-679,-293,0,0,0,0,0,0,0,0,0,-1,545,1317,0,0
-672,-293,0,0,0,0,0,0,0,0,0,-1,552,1317,0,0
-665,-293,0,0,0,0,0,0,0,0,0,-1,559,1317,0,0
-658,-293,0,0,0,0,0,0,0,0,0,-1,566,1317,0,0
-651,-293,-42.6636,2.1897,0,0,0,0,0,0,0,-1,573,1317,-42.6636,-2.18965
-644,-293,-42.6672,1.56262,0,0,0,0,0,0,0,-1,580,1317,-42.6672,-1.5626
-637,-293,-42.7898,0.963745,0,0,0,0,0,0,0,-1,587,1317,-42.7898,-0.963689
-630,-293,-42.7558,0.296021,0,0,0,0,0,0,0,-1,594,1317,-42.7558,-0.295997
-623,-293,-15.6058,0.229614,0,0,0,0,0,0,0,-1,601,1317,-15.6058,-0.229666
-616,-293,-15.5056,2.17737,0,0,0,0,0,0,0,-1,608,1317,-15.5055,-2.17742
-609,-293,-25.3796,5.07373,0,0,0,0,0,0,0,-1,615,1317,-25.3796,-5.07369
-602,-293,-30.459,7.34021,0,0,0,0,0,0,0,-1,622,1317,-30.459,-7.34025
-595,-293,-30.4731,8.30762,0.00188104,0.00422897,0.00328336,0.00654193,-0.000431919,0.957091,0.00451216,0.0220602,629,1317,-30.4731,-8.30763
-588,-293,-30.4849,9.05688,0.00183138,0.00279529,0.00221919,0.00458425,4.24166e-05,0.892326,0.00304213,0.0170742,636,1317,-30.4849,-9.0569
-581,-293,-30.475,9.78455,0.00184858,0.00158778,0.00150136,0.0032252,0.000211164,0.74208,0.00208331,0.0200962,643,1317,-30.475,-9.7845
-574,-293,-30.5089,10.5709,0.0019457,0.00055055,0.00103276,0.0024944,1.84972e-06,0.488369,0.00166232,0.0175987,650,1317,-30.5089,-10.571
-567,-293,-30.5804,11.3295,0.00216448,-0.00035023,0.000778745,0.00238611,-0.000571856,0.277264,0.00181169,0.017208,657,1317,-30.5804,-11.3295
-560,-293,-30.6075,12.0811,0.00257183,-0.00112049,0.000762072,0.00272293,-0.00127159,0.195741,0.00235643,0.0186984,664,1317,-30.6076,-12.0811
-553,-293,-30.6205,12.8131,0.00323346,-0.00167488,0.00108193,0.00346137,-0.00190278,0.207611,0.00314027,0.0121614,671,1317,-30.6206,-12.8131
-546,-293,-30.6135,13.5762,0.00430528,-0.00204568,0.00163038,0.00469937,-0.00243976,0.237166,0.00419003,0.0182094,678,1317,-30.6135,-13.5762
-539,-293,-30.5789,14.349,0,0,0,0,0,0,0,-1,685,1317,-30.5789,-14.349
-532,-293,-27.4858,13.6715,0,0,0,0,0,0,0,-1,692,1317,-27.4858,-13.6715
-525,-293,-8.20642,3.62256,0,0,0,0,0,0,0,-1,699,1317,-8.20639,-3.6226
-518,-293,-10.1053,0.314209,0,0,0,0,0,0,0,-1,706,1317,-10.1053,-0.314234
-511,-293,-11.6276,0.235352,0,0,0,0,0,0,0,-1,713,1317,-11.6276,-0.235372
-504,-293,-17.9086,1.25427,0,0,0,0,0,0,0,-1,720,1317,-17.9086,-1.25423
-497,-293,-18.8006,1.62122,0,0,0,0,0,0,0,-1,727,1317,-18.8006,-1.62119
-490,-293,-18.8961,1.99255,0,0,0,0,0,0,0,-1,734,1317,-18.8961,-1.99251
-483,-293,-19.0831,2.35498,0,0,0,0,0,0,0,-1,741,1317,-19.0831,-2.35497
-476,-293,-19.5228,2.61243,0,0,0,0,0,0,0,-1,748,1317,-19.5228,-2.61237
-469,-293,0,0,0,0,0,0,0,0,0,-1,755,1317,0,0
-462,-293,0,0,0,0,0,0,0,0,0,-1,762,1317,0,0
-455,-293,0,0,0,0,0,0,0,0,0,-1,769,1317,0,0
-448,-293,0,0,0,0,0,0,0,0,0,-1,776,1317,0,0
-441,-293,0,0,0,0,0,0,0,0,0,-1,783,1317,0,0
-434,-293,0,0,0,0,0,0,0,0,0,-1,790,1317,0,0
-427,-293,0,0,0,0,0,0,0,0,0,-1,797,1317,0,0
-420,-293,0,0,0,0,0,0,0,0,0,-1,804,1317,0,0
-413,-293,0,0,0,0,0,0,0,0,0,-1,811,1317,0,0
-406,-293,0,0,0,0,0,0,0,0,0,-1,818,1317,0,0
-399,-293,0,0,0,0,0,0,0,0,0,-1,825,1317,0,0
-392,-293,0,0,0,0,0,0,0,0,0,-1,832,1317,0,0
-385,-293,0,0,0,0,0,0,0,0,0,-1,839,1317,0,0
-378,-293,0,0,0,0,0,0,0,0,0,-1,846,1317,0,0
-371,-293,0,0,0,0,0,0,0,0,0,-1,853,1317,0,0
-364,-293,0,0,0,0,0,0,0,0,0,-1,860,1317,0,0
-357,-293,0,0,0,0,0,0,0,0,0,-1,867,1317,0,0
-350,-293,0,0,0,0,0,0,0,0,0,-1,874,1317,0,0
-343,-293,0,0,0,0,0,0,0,0,0,-1,881,1317,0,0
-336,-293,0,0,0,0,0,0,0,0,0,-1,888,1317,0,0
-329,-293,0,0,0,0,0,0,0,0,0,-1,895,1317,0,0
-322,-293,0,0,0,0,0,0,0,0,0,-1,902,1317,0,0
-315,-293,0,0,0,0,0,0,0,0,0,-1,909,1317,0,0
-308,-293,0,0,0,0,0,0,0,0,0,-1,916,1317,0,0
-301,-293,0,0,0,0,0,0,0,0,0,-1,923,1317,0,0
-294,-293,0,0,0,0,0,0,0,0,0,-1,930,1317,0,0
-287,-293,0,0,0,0,0,0,0,0,0,-1,937,1317,0,0
-280,-293,0,0,0,0,0,0,0,0,0,-1,944,1317,0,0
-273,-293,0,0,0,0,0,0,0,0,0,-1,951,1317,0,0
-266,-293,0,0,0,0,0,0,0,0,0,-1,958,1317,0,0
-259,-293,0,0,0,0,0,0,0,0,0,-1,965,1317,0,0
-252,-293,0,0,0,0,0,0,0,0,0,-1,972,1317,0,0
-245,-293,0,0,0,0,0,0,0,0,0,-1,979,1317,0,0
-238,-293,0,0,0,0,0,0,0,0,0,-1,986,1317,0,0
-231,-293,0,0,0,0,0,0,0,0,0,-1,993,1317,0,0
-224,-293,0,0,0,0,0,0,0,0,0,-1,1000,1317,0,0
-217,-293,0,0,0,0,0,0,0,0,0,-1,1007,1317,0,0
-210,-293,0,0,0,0,0,0,0,0,0,-1,1014,1317,0,0
-203,-293,0,0,0,0,0,0,0,0,0,-1,1021,1317,0,0
-196,-293,0,0,0,0,0,0,0,0,0,-1,1028,1317,0,0
-189,-293,0,0,0,0,0,0,0,0,0,-1,1035,1317,0,0
-182,-293,0,0,0,0,0,0,0,0,0,-1,1042,1317,0,0
-175,-293,0,0,0,0,0,0,0,0,0,-1,1049,1317,0,0
-168,-293,0,0,0,0,0,0,0,0,0,-1,1056,1317,0,0
-161,-293,0,0,0,0,0,0,0,0,0,-1,1063,1317,0,0
-154,-293,0,0,0,0,0,0,0,0,0,-1,1070,1317,0,0
-147,-293,0,0,0,0,0,0,0,0,0,-1,1077,1317,0,0
-140,-293,0,0,0,0,0,0,0,0,0,-1,1084,1317,0,0
-133,-293,0,0,0,0,0,0,0,0,0,-1,1091,1317,0,0
-126,-293,0,0,0,0,0,0,0,0,0,-1,1098,1317,0,0
-119,-293,0,0,0,0,0,0,0,0,0,-1,1105,1317,0,0
-112,-293,0,0,0,0,0,0,0,0,0,-1,1112,1317,0,0
-105,-293,0,0,0,0,0,0,0,0,0,-1,1119,1317,0,0
-98,-293,0,0,0,0,0,0,0,0,0,-1,1126,1317,0,0
-91,-293,0,0,0,0,0,0,0,0,0,-1,1133,1317,0,0
-84,-293,0,0,0,0,0,0,0,0,0,-1,1140,1317,0,0
-77,-293,0,0,0,0,0,0,0,0,0,-1,1147,1317,0,0
-70,-293,0,0,0,0,0,0,0,0,0,-1,1154,1317,0,0
-63,-293,0,0,0,0,0,0,0,0,0,-1,1161,1317,0,0
-56,-293,0,0,0,0,0,0,0,0,0,-1,1168,1317,0,0
-49,-293,0,0,0,0,0,0,0,0,0,-1,1175,1317,0,0
-42,-293,0,0,0,0,0,0,0,0,0,-1,1182,1317,0,0
-35,-293,0,0,0,0,0,0,0,0,0,-1,1189,1317,0,0
-28,-293,0,0,0,0,0,0,0,0,0,-1,1196,1317,0,0
-21,-293,0,0,0,0,0,0,0,0,0,-1,1203,1317,0,0
-14,-293,0,0,0,0,0,0,0,0,0,-1,1210,1317,0,0
-7,-293,0,0,0,0,0,0,0,0,0,-1,1217,1317,0,0
0,-293,0,0,0,0,0,0,0,0,0,-1,1224,1317,0,0
7,-293,0,0,0,0,0,0,0,0,0,-1,1231,1317,0,0
14,-293,0,0,0,0,0,0,0,0,0,-1,1238,1317,0,0
21,-293,0,0,0,0,0,0,0,0,0,-1,1245,1317,0,0
28,-293,0,0,0,0,0,0,0,0,0,-1,1252,1317,0,0
35,-293,0,0,0,0,0,0,0,0,0,-1,1259,1317,0,0
42,-293,0,0,0,0,0,0,0,0,0,-1,1266,1317,0,0
49,-293,0,0,0,0,0,0,0,0,0,-1,1273,1317,0,0
56,-293,0,0,0,0,0,0,0,0,0,-1,1280,1317,0,0
63,-293,0,0,0,0,0,0,0,0,0,-1,1287,1317,0,0
70,-293,0,0,0,0,0,0,0,0,0,-1,1294,1317,0,0
77,-293,0,0,0,0,0,0,0,0,0,-1,1301,1317,0,0
84,-293,0,0,0,0,0,0,0,0,0,-1,1308,1317,0,0
91,-293,0,0,0,0,0,0,0,0,0,-1,1315,1317,0,0
98,-293,0,0,0,0,0,0,0,0,0,-1,1322,1317,0,0
105,-293,0,0,0,0,0,0,0,0,0,-1,1329,1317,0,0
112,-293,0,0,0,0,0,0,0,0,0,-1,1336,1317,0,0
119,-293,0,0,0,0,0,0,0,0,0,-1,1343,1317,0,0
126,-293,0,0,0,0,0,0,0,0,0,-1,1350,1317,0,0
133,-293,0,0,0,0,0,0,0,0,0,-1,1357,1317,0,0
140,-293,0,0,0,0,0,0,0,0,0,-1,1364,1317,0,0
147,-293,0,0,0,0,0,0,0,0,0,-1,1371,1317,0,0
154,-293,0,0,0,0,0,0,0,0,0,-1,1378,1317,0,0
161,-293,0,0,0,0,0,0,0,0,0,-1,1385,1317,0,0
168,-293,0,0,0,0,0,0,0,0,0,-1,1392,1317,0,0
175,-293,0,0,0,0,0,0,0,0,0,-1,1399,1317,0,0
182,-293,0,0,0,0,0,0,0,0,0,-1,1406,1317,0,0
189,-293,0,0,0,0,0,0,0,0,0,-1,1413,1317,0,0
196,-293,0,0,0,0,0,0,0,0,0,-1,1420,1317,0,0
203,-293,0,0,0,0,0,0,0,0,0,-1,1427,1317,0,0
210,-293,0,0,0,0,0,0,0,0,0,-1,1434,1317,0,0
217,-293,0,0,0,0,0,0,0,0,0,-1,1441,1317,0,0
224,-293,0,0,0,0,0,0,0,0,0,-1,1448,1317,0,0
231,-293,0,0,0,0,0,0,0,0,0,-1,1455,1317,0,0
238,-293,0,0,0,0,0,0,0,0,0,-1,1462,1317,0,0
245,-293,0,0,0,0,0,0,0,0,0,-1,1469,1317,0,0
252,-293,0,0,0,0,0,0,0,0,0,-1,1476,1317,0,0
259,-293,0,0,0,0,0,0,0,0,0,-1,1483,1317,0,0
266,-293,0,0,0,0,0,0,0,0,0,-1,1490,1317,0,0
273,-293,0,0,0,0,0,0,0,0,0,-1,1497,1317,0,0
280,-293,0,0,0,0,0,0,0,0,0,-1,1504,1317,0,0
287,-293,0,0,0,0,0,0,0,0,0,-1,1511,1317,0,0
294,-293,0,0,0,0,0,0,0,0,0,-1,1518,1317,0,0
301,-293,0,0,0,0,0,0,0,0,0,-1,1525,1317,0,0
308,-293,0,0,0,0,0,0,0,0,0,-1,1532,1317,0,0
315,-293,0,0,0,0,0,0,0,0,0,-1,1539,1317,0,0
322,-293,0,0,0,0,0,0,0,0,0,-1,1546,1317,0,0
329,-293,0,0,0,0,0,0,0,0,0,-1,1553,1317,0,0
336,-293,0,0,0,0,0,0,0,0,0,-1,1560,1317,0,0
343,-293,0,0,0,0,0,0,0,0,0,-1,1567,1317,0,0
350,-293,0,0,0,0,0,0,0,0,0,-1,1574,1317,0,0
357,-293,0,0,0,0,0,0,0,0,0,-1,1581,1317,0,0
364,-293,0,0,0,0,0,0,0,0,0,-1,1588,1317,0,0
371,-293,0,0,0,0,0,0,0,0,0,-1,1595,1317,0,0
378,-293,0,0,0,0,0,0,0,0,0,-1,1602,1317,0,0
385,-293,0,0,0,0,0,0,0,0,0,-1,1609,1317,0,0
392,-293,0,0,0,0,0,0,0,0,0,-1,1616,1317,0,0
399,-293,0,0,0,0,0,0,0,0,0,-1,1623,1317,0,0
406,-293,0,0,0,0,0,0,0,0,0,-1,1630,1317,0,0
413,-293,0,0,0,0,0,0,0,0,0,-1,1637,1317,0,0
420,-293,0,0,0,0,0,0,0,0,0,-1,1644,1317,0,0
427,-293,0,0,0,0,0,0,0,0,0,-1,1651,1317,0,0
434,-293,0,0,0,0,0,0,0,0,0,-1,1658,1317,0,0
441,-293,0,0,0,0,0,0,0,0,0,-1,1665,1317,0,0
448,-293,0,0,0,0,0,0,0,0,0,-1,1672,1317,0,0
455,-293,0,0,0,0,0,0,0,0,0,-1,1679,1317,0,0
462,-293,0,0,0,0,0,0,0,0,0,-1,1686,1317,0,0
469,-293,0,0,0,0,0,0,0,0,0,-1,1693,1317,0,0
476,-293,0,0,0,0,0,0,0,0,0,-1,1700,1317,0,0
483,-293,0,0,0,0,0,0,0,0,0,-1,1707,1317,0,0
490,-293,0,0,0,0,0,0,0,0,0,-1,1714,1317,0,0
497,-293,0,0,0,0,0,0,0,0,0,-1,1721,1317,0,0
504,-293,0,0,0,0,0,0,0,0,0,-1,1728,1317,0,0
511,-293,0,0,0,0,0,0,0,0,0,-1,1735,1317,0,0
518,-293,0,0,0,0,0,0,0,0,0,-1,1742,1317,0,0
525,-293,0,0,0,0,0,0,0,0,0,-1,1749,1317,0,0
532,-293,0,0,0,0,0,0,0,0,0,-1,1756,1317,0,0
539,-293,0,0,0,0,0,0,0,0,0,-1,1763,1317,0,0
546,-293,0,0,0,0,0,0,0,0,0,-1,1770,1317,0,0
553,-293,0,0,0,0,0,0,0,0,0,-1,1777,1317,0,0
560,-293,0,0,0,0,0,0,0,0,0,-1,1784,1317,0,0
567,-293,0,0,0,0,0,0,0,0,0,-1,1791,1317,0,0
574,-293,0,0,0,0,0,0,0,0,0,-1,1798,1317,0,0
581,-293,0,0,0,0,0,0,0,0,0,-1,1805,1317,0,0
588,-293,0,0,0,0,0,0,0,0,0,-1,1812,1317,0,0
595,-293,70.0999,2.25085,0,0,0,0,0,0,0,-1,1819,1317,70.0998,-2.25088
602,-293,70.2273,2.05859,0,0,0,0,0,0,0,-1,1826,1317,70.2273,-2.05859
609,-293,68.6733,1.3855,0,0,0,0,0,0,0,-1,1833,1317,68.6734,-1.38547
616,-293,70.767,3.26294,0,0,0,0,0,0,0,-1,1840,1317,70.767,-3.26295
623,-293,64.6224,0.448364,0,0,0,0,0,0,0,-1,1847,1317,64.6224,-0.448318
630,-293,46.6716,3.21558,0,0,0,0,0,0,0,-1,1854,1317,46.6716,-3.2156
637,-293,42.7729,4.95544,0,0,0,0,0,0,0,-1,1861,1317,42.773,-4.95546
644,-293,24.4565,0.520752,0,0,0,0,0,0,0,-1,1868,1317,24.4566,-0.520709
651,-293,25.8926,9.51245,0,0,0,0,0,0,0,-1,1875,1317,25.8926,-9.51246
658,-293,25.4904,9.10205,0,0,0,0,0,0,0,-1,1882,1317,25.4904,-9.10209
665,-293,39.7999,13.4221,0,0,0,0,0,0,0,-1,1889,1317,39.8,-13.4221
672,-293,47.334,15.4006,0,0,0,0,0,0,0,-1,1896,1317,47.334,-15.4007
679,-293,47.3154,14.7024,0.000854123,0.00329683,-0.00254262,0.00489623,-0.000745272,-1.0093,0.00353883,0.0184504,1903,1317,47.3154,-14.7024
686,-293,47.297,14.0072,0.00102769,0.00136417,-0.00154926,0.0027543,-0.000362442,-0.839483,0.00196817,0.0169273,1910,1317,47.297,-14.0072
693,-293,47.2604,13.2905,0.0011365,0.00021727,-0.000493292,0.00135111,2.65648e-06,-0.410363,0.000899856,0.0130618,1917,1317,47.2604,-13.2905
700,-293,47.2115,12.5596,0.00115412,1.76018e-07,7.86836e-05,0.00115946,-5.16442e-06,0.0677684,0.000774704,0.0110517,1924,1317,47.2116,-12.5596
707,-293,47.1635,11.8704,0.000715804,-2.51738e-05,0.000582914,0.001036,-0.000345374,0.502313,0.000830099,0.0115314,1931,1317,47.1635,-11.8703
714,-293,47.1309,11.1746,0.00026775,-4.83398e-05,0.00114801,0.00126854,-0.00104913,0.716994,0.00134011,0.0084358,1938,1317,47.1309,-11.1745
721,-293,47.123,10.4537,-0.000216943,-7.15887e-05,0.00179099,0.0016482,-0.00193673,0.805677,0.00207199,0.0105639,1945,1317,47.123,-10.4538
728,-293,47.092,9.72461,-0.000775815,-9.71259e-05,0.00254613,0.00213218,-0.00300512,0.851647,0.00298026,0.0131734,1952,1317,47.092,-9.72461
735,-293,47.0582,8.99243,-0.00149445,-0.000133612,0.00346544,0.00271758,-0.00434564,0.882337,0.0041139,0.02493,1959,1317,47.0582,-8.99245
742,-293,47.1245,8.24255,0,0,0,0,0,0,0,-1,1966,1317,47.1245,-8.24258
749,-293,29.439,5.35339,0,0,0,0,0,0,0,-1,1973,1317,29.4389,-5.35334
756,-293,24.978,3.9718,0,0,0,0,0,0,0,-1,1980,1317,24.978,-3.97186
763,-293,26.6713,4.74097,0,0,0,0,0,0,0,-1,1987,1317,26.6713,-4.74098
770,-293,24.1349,4.69153,0,0,0,0,0,0,0,-1,1994,1317,24.1348,-4.69159
777,-293,0,0,0,0,0,0,0,0,0,-1,2001,1317,0,0
784,-293,0,0,0,0,0,0,0,0,0,-1,2008,1317,0,0
791,-293,0,0,0,0,0,0,0,0,0,-1,2015,1317,0,0
798,-293,0,0,0,0,0,0,0,0,0,-1,2022,1317,0,0
805,-293,0,0,0,0,0,0,0,0,0,-1,2029,1317,0,0
812,-293,0,0,0,0,0,0,0,0,0,-1,2036,1317,0,0
-700,-300,0,0,0,0,0,0,0,0,0,-1,524,1324,0,0
-693,-300,0,0,0,0,0,0,0,0,0,-1,531,1324,0,0
-686,-300,0,0,0,0,0,0,0,0,0,-1,538,1324,0,0
-679,-300,0,0,0,0,0,0,0,0,0,-1,545,1324,0,0
-672,-300,0,0,0,0,0,0,0,0,0,-1,552,1324,0,0
-665,-300,0,0,0,0,0,0,0,0,0,-1,559,1324,0,0
-658,-300,0,0,0,0,0,0,0,0,0,-1,566,1324,0,0
-651,-300,-41.7632,2.33789,0,0,0,0,0,0,0,-1,573,1324,-41.7632,-2.33789
-644,-300,-42.3084,1.3728,0,0,0,0,0,0,0,-1,580,1324,-42.3084,-1.37282
-637,-300,-42.6259,0.807251,0,0,0,0,0,0,0,-1,587,1324,-42.6259,-0.807209
-630,-300,-21.1108,2.26306,0,0,0,0,0,0,0,-1,594,1324,-21.1109,-2.2631
-623,-300,-12.7067,1.48462,0,0,0,0,0,0,0,-1,601,1324,-12.7067,-1.48462
-616,-300,-14.9988,1.68628,0,0,0,0,0,0,0,-1,608,1324,-14.9988,-1.68627
-609,-300,-15.5027,3.29907,0,0,0,0,0,0,0,-1,615,1324,-15.5027,-3.29902
-602,-300,-29.7253,7.28418,0,0,0,0,0,0,0,-1,622,1324,-29.7253,-7.28414
-595,-300,-29.7509,8.31055,0.00254018,0.00433638,0.00343403,0.00698781,-0.000111249,0.913298,0.00469606,0.0405646,629,1324,-29.7508,-8.31052
-588,-300,-29.7187,9.1051,0.00229237,0.00297783,0.0023063,0.00496673,0.000303472,0.859161,0.00321477,0.0212186,636,1324,-29.7187,-9.10511
-581,-300,-29.7584,9.85144,0.00217814,0.00193432,0.00159592,0.0036568,0.000455662,0.747277,0.00230107,0.0203429,643,1324,-29.7584,-9.85139
-574,-300,-29.7513,10.6172,0.00218867,0.00108691,0.00115961,0.0029216,0.000353983,0.563651,0.00184112,0.0166451,650,1324,-29.7513,-10.6172
-567,-300,-29.8148,11.3704,0.00234286,0.000399367,0.000955682,0.00273406,8.16851e-06,0.388532,0.00181999,0.0176844,657,1324,-29.8148,-11.3704
-560,-300,-29.8672,12.137,0.00273994,-0.000151452,0.000985546,0.00304391,-0.000455424,0.299173,0.00219687,0.0166348,664,1324,-29.8673,-12.137
-553,-300,-29.8743,12.8749,0.00331689,-0.000542109,0.00126846,0.00369649,-0.000921711,0.29078,0.00282219,0.0110643,671,1324,-29.8743,-12.8749
-546,-300,-29.8997,13.6113,0.0042596,-0.000769336,0.00181287,0.00484498,-0.00135472,0.312333,0.00376373,0.0108647,678,1324,-29.8997,-13.6113
-539,-300,-29.8149,14.4177,0.00562381,-0.000943464,0.00261646,0.00653876,-0.00185841,0.336399,0.00509295,0.0286562,685,1324,-29.8149,-14.4178
-532,-300,-29.6784,15.2023,0,0,0,0,0,0,0,-1,692,1324,-29.6784,-15.2023
-525,-300,-13.5115,6.27783,0,0,0,0,0,0,0,-1,699,1324,-13.5115,-6.2778
-518,-300,-9.8349,-0.537109,0,0,0,0,0,0,0,-1,706,1324,-9.83487,0.537068
-511,-300,-12.8644,0.081665,0,0,0,0,0,0,0,-1,713,1324,-12.8644,-0.0817016
-504,-300,-13.4829,-0.165527,0,0,0,0,0,0,0,-1,720,1324,-13.4829,0.165544
-497,-300,-18.1063,0.956543,0,0,0,0,0,0,0,-1,727,1324,-18.1063,-0.9565
-490,-300,-18.2293,1.53625,0,0,0,0,0,0,0,-1,734,1324,-18.2293,-1.53626
-483,-300,-18.3522,1.61084,0,0,0,0,0,0,0,-1,741,1324,-18.3522,-1.6108
-476,-300,-18.7489,1.96387,0,0,0,0,0,0,0,-1,748,1324,-18.7489,-1.96387
-469,-300,0,0,0,0,0,0,0,0,0,-1,755,1324,0,0
-462,-300,0,0,0,0,0,0,0,0,0,-1,762,1324,0,0
-455,-300,0,0,0,0,0,0,0,0,0,-1,769,1324,0,0
-448,-300,0,0,0,0,0,0,0,0,0,-1,776,1324,0,0
-441,-300,0,0,0,0,0,0,0,0,0,-1,783,1324,0,0
-434,-300,0,0,0,0,0,0,0,0,0,-1,790,1324,0,0
-427,-300,0,0,0,0,0,0,0,0,0,-1,797,1324,0,0
-420,-300,0,0,0,0,0,0,0,0,0,-1,804,1324,0,0
-413,-300,0,0,0,0,0,0,0,0,0,-1,811,1324,0,0
-406,-300,0,0,0,0,0,0,0,0,0,-1,818,1324,0,0
-399,-300,0,0,0,0,0,0,0,0,0,-1,825,1324,0,0
-392,-300,0,0,0,0,0,0,0,0,0,-1,832,1324,0,0
-385,-300,0,0,0,0,0,0,0,0,0,-1,839,1324,0,0
-378,-300,0,0,0,0,0,0,0,0,0,-1,846,1324,0,0
-371,-300,0,0,0,0,0,0,0,0,0,-1,853,1324,0,0
-364,-300,0,0,0,0,0,0,0,0,0,-1,860,1324,0,0
-357,-300,0,0,0,0,0,0,0,0,0,-1,867,1324,0,0
-350,-300,0,0,0,0,0,0,0,0,0,-1,874,1324,0,0
-343,-300,0,0,0,0,0,0,0,0,0,-1,881,1324,0,0
-336,-300,0,0,0,0,0,0,0,0,0,-1,888,1324,0,0
-329,-300,0,0,0,0,0,0,0,0,0,-1,895,1324,0,0
-322,-300,0,0,0,0,0,0,0,0,0,-1,902,1324,0,0
-315,-300,0,0,0,0,0,0,0,0,0,-1,909,1324,0,0
-308,-300,0,0,0,0,0,0,0,0,0,-1,916,1324,0,0
-301,-300,0,0,0,0,0,0,0,0,0,-1,923,1324,0,0
-294,-300,0,0,0,0,0,0,0,0,0,-1,930,1324,0,0
-287,-300,0,0,0,0,0,0,0,0,0,-1,937,1324,0,0
-280,-300,0,0,0,0,0,0,0,0,0,-1,944,1324,0,0
-273,-300,0,0,0,0,0,0,0,0,0,-1,951,1324,0,0
-266,-300,0,0,0,0,0,0,0,0,0,-1,958,1324,0,0
-259,-300,0,0,0,0,0,0,0,0,0,-1,965,1324,0,0
-252,-300,0,0,0,0,0,0,0,0,0,-1,972,1324,0,0
-245,-300,0,0,0,0,0,0,0,0,0,-1,979,1324,0,0
-238,-300,0,0,0,0,0,0,0,0,0,-1,986,1324,0,0
-231,-300,0,0,0,0,0,0,0,0,0,-1,993,1324,0,0
-224,-300,0,0,0,0,0,0,0,0,0,-1,1000,1324,0,0
-217,-300,0,0,0,0,0,0,0,0,0,-1,1007,1324,0,0
-210,-300,0,0,0,0,0,0,0,0,0,-1,1014,1324,0,0
-203,-300,0,0,0,0,0,0,0,0,0,-1,1021,1324,0,0
-196,-300,0,0,0,0,0,0,0,0,0,-1,1028,1324,0,0
-189,-300,0,0,0,0,0,0,0,0,0,-1,1035,1324,0,0
-182,-300,0,0,0,0,0,0,0,0,0,-1,1042,1324,0,0
-175,-300,0,0,0,0,0,0,0,0,0,-1,1049,1324,0,0
-168,-300,0,0,0,0,0,0,0,0,0,-1,1056,1324,0,0
-161,-300,0,0,0,0,0,0,0,0,0,-1,1063,1324,0,0
-154,-300,0,0,0,0,0,0,0,0,0,-1,1070,1324,0,0
-147,-300,0,0,0,0,0,0,0,0,0,-1,1077,1324,0,0
-140,-300,0,0,0,0,0,0,0,0,0,-1,1084,1324,0,0
-133,-300,0,0,0,0,0,0,0,0,0,-1,1091,1324,0,0
-126,-300,0,0,0,0,0,0,0,0,0,-1,1098,1324,0,0
-119,-300,0,0,0,0,0,0,0,0,0,-1,1105,1324,0,0
-112,-300,0,0,0,0,0,0,0,0,0,-1,1112,1324,0,0
-105,-300,0,0,0,0,0,0,0,0,0,-1,1119,1324,0,0
-98,-300,0,0,0,0,0,0,0,0,0,-1,1126,1324,0,0
-91,-300,0,0,0,0,0,0,0,0,0,-1,1133,1324,0,0
-84,-300,0,0,0,0,0,0,0,0,0,-1,1140,1324,0,0
-77,-300,0,0,0,0,0,0,0,0,0,-1,1147,1324,0,0
-70,-300,0,0,0,0,0,0,0,0,0,-1,1154,1324,0,0
-63,-300,0,0,0,0,0,0,0,0,0,-1,1161,1324,0,0
-56,-300,0,0,0,0,0,0,0,0,0,-1,1168,1324,0,0
-49,-300,0,0,0,0,0,0,0,0,0,-1,1175,1324,0,0
-42,-300,0,0,0,0,0,0,0,0,0,-1,1182,1324,0,0
-35,-300,0,0,0,0,0,0,0,0,0,-1,1189,1324,0,0
-28,-300,0,0,0,0,0,0,0,0,0,-1,1196,1324,0,0
-21,-300,0,0,0,0,0,0,0,0,0,-1,1203,1324,0,0
-14,-300,0,0,0,0,0,0,0,0,0,-1,1210,1324,0,0
-7,-300,0,0,0,0,0,0,0,0,0,-1,1217,1324,0,0
0,-300,0,0,0,0,0,0,0,0,0,-1,1224,1324,0,0
7,-300,0,0,0,0,0,0,0,0,0,-1,1231,1324,0,0
14,-300,0,0,0,0,0,0,0,0,0,-1,1238,1324,0,0
21,-300,0,0,0,0,0,0,0,0,0,-1,1245,1324,0,0
28,-300,0,0,0,0,0,0,0,0,0,-1,1252,1324,0,0
35,-300,0,0,0,0,0,0,0,0,0,-1,1259,1324,0,0
42,-300,0,0,0,0,0,0,0,0,0,-1,1266,1324,0,0
49,-300,0,0,0,0,0,0,0,0,0,-1,1273,1324,0,0
56,-300,0,0,0,0,0,0,0,0,0,-1,1280,1324,0,0
63,-300,0,0,0,0,0,0,0,0,0,-1,1287,1324,0,0
70,-300,0,0,0,0,0,0,0,0,0,-1,1294,1324,0,0
77,-300,0,0,0,0,0,0,0,0,0,-1,1301,1324,0,0
84,-300,0,0,0,0,0,0,0,0,0,-1,1308,1324,0,0
91,-300,0,0,0,0,0,0,0,0,0,-1,1315,1324,0,0
98,-300,0,0,0,0,0,0,0,0,0,-1,1322,1324,0,0
105,-300,0,0,0,0,0,0,0,0,0,-1,1329,1324,0,0
112,-300,0,0,0,0,0,0,0,0,0,-1,1336,1324,0,0
119,-300,0,0,0,0,0,0,0,0,0,-1,1343,1324,0,0
126,-300,0,0,0,0,0,0,0,0,0,-1,1350,1324,0,0
133,-300,0,0,0,0,0,0,0,0,0,-1,1357,1324,0,0
140,-300,0,0,0,0,0,0,0,0,0,-1,1364,1324,0,0
147,-300,0,0,0,0,0,0,0,0,0,-1,1371,1324,0,0
154,-300,0,0,0,0,0,0,0,0,0,-1,1378,1324,0,0
161,-300,0,0,0,0,0,0,0,0,0,-1,1385,1324,0,0
168,-300,0,0,0,0,0,0,0,0,0,-1,1392,1324,0,0
175,-300,0,0,0,0,0,0,0,0,0,-1,1399,1324,0,0
182,-300,0,0,0,0,0,0,0,0,0,-1,1406,1324,0,0
189,-300,0,0,0,0,0,0,0,0,0,-1,1413,1324,0,0
196,-300,0,0,0,0,0,0,0,0,0,-1,1420,1324,0,0
203,-300,0,0,0,0,0,0,0,0,0,-1,1427,1324,0,0
210,-300,0,0,0,0,0,0,0,0,0,-1,1434,1324,0,0
217,-300,0,0,0,0,0,0,0,0,0,-1,1441,1324,0,0
224,-300,0,0,0,0,0,0,0,0,0,-1,1448,1324,0,0
231,-300,0,0,0,0,0,0,0,0,0,-1,1455,1324,0,0
238,-300,0,0,0,0,0,0,0,0,0,-1,1462,1324,0,0
245,-300,0,0,0,0,0,0,0,0,0,-1,1469,1324,0,0
252,-300,0,0,0,0,0,0,0,0,0,-1,1476,1324,0,0
259,-300,0,0,0,0,0,0,0,0,0,-1,1483,1324,0,0
266,-300,0,0,0,0,0,0,0,0,0,-1,1490,1324,0,0
273,-300,0,0,0,0,0,0,0,0,0,-1,1497,1324,0,0
280,-300,0,0,0,0,0,0,0,0,0,-1,1504,1324,0,0
287,-300,0,0,0,0,0,0,0,0,0,-1,1511,1324,0,0
294,-300,0,0,0,0,0,0,0,0,0,-1,1518,1324,0,0
301,-300,0,0,0,0,0,0,0,0,0,-1,1525,1324,0,0
308,-300,0,0,0,0,0,0,0,0,0,-1,1532,1324,0,0
315,-300,0,0,0,0,0,0,0,0,0,-1,1539,1324,0,0
322,-300,0,0,0,0,0,0,0,0,0,-1,1546,1324,0,0
329,-300,0,0,0,0,0,0,0,0,0,-1,1553,1324,0,0
336,-300,0,0,0,0,0,0,0,0,0,-1,1560,1324,0,0
343,-300,0,0,0,0,0,0,0,0,0,-1,1567,1324,0,0
350,-300,0,0,0,0,0,0,0,0,0,-1,1574,1324,0,0
357,-300,0,0,0,0,0,0,0,0,0,-1,1581,1324,0,0
364,-300,0,0,0,0,0,0,0,0,0,-1,1588,1324,0,0
371,-300,0,0,0,0,0,0,0,0,0,-1,1595,1324,0,0
378,-300,0,0,0,0,0,0,0,0,0,-1,1602,1324,0,0
385,-300,0,0,0,0,0,0,0,0,0,-1,1609,1324,0,0
392,-300,0,0,0,0,0,0,0,0,0,-1,1616,1324,0,0
399,-300,0,0,0,0,0,0,0,0,0,-1,1623,1324,0,0
406,-300,0,0,0,0,0,0,0,0,0,-1,1630,1324,0,0
413,-300,0,0,0,0,0,0,0,0,0,-1,1637,1324,0,0
420,-300,0,0,0,0,0,0,0,0,0,-1,1644,1324,0,0
427,-300,0,0,0,0,0,0,0,0,0,-1,1651,1324,0,0
434,-300,0,0,0,0,0,0,0,0,0,-1,1658,1324,0,0
441,-300,0,0,0,0,0,0,0,0,0,-1,1665,1324,0,0
448,-300,0,0,0,0,0,0,0,0,0,-1,1672,1324,0,0
455,-300,0,0,0,0,0,0,0,0,0,-1,1679,1324,0,0
462,-300,0,0,0,0,0,0,0,0,0,-1,1686,1324,0,0
469,-300,0,0,0,0,0,0,0,0,0,-1,1693,1324,0,0
476,-300,0,0,0,0,0,0,0,0,0,-1,1700,1324,0,0
483,-300,0,0,0,0,0,0,0,0,0,-1,1707,1324,0,0
490,-300,0,0,0,0,0,0,0,0,0,-1,1714,1324,0,0
497,-300,0,0,0,0,0,0,0,0,0,-1,1721,1324,0,0
504,-300,0,0,0,0,0,0,0,0,0,-1,1728,1324,0,0
511,-300,0,0,0,0,0,0,0,0,0,-1,1735,1324,0,0
518,-300,0,0,0,0,0,0,0,0,0,-1,1742,1324,0,0
525,-300,0,0,0,0,0,0,0,0,0,-1,1749,1324,0,0
532,-300,0,0,0,0,0,0,0,0,0,-1,1756,1324,0,0
539,-300,0,0,0,0,0,0,0,0,0,-1,1763,1324,0,0
546,-300,0,0,0,0,0,0,0,0,0,-1,1770,1324,0,0
553,-300,0,0,0,0,0,0,0,0,0,-1,1777,1324,0,0
560,-300,0,0,0,0,0,0,0,0,0,-1,1784,1324,0,0
567,-300,0,0,0,0,0,0,0,0,0,-1,1791,1324,0,0
574,-300,0,0,0,0,0,0,0,0,0,-1,1798,1324,0,0
581,-300,0,0,0,0,0,0,0,0,0,-1,1805,1324,0,0
588,-300,66.4561,1.99207,0,0,0,0,0,0,0,-1,1812,1324,66.456,-1.99202
595,-300,66.4685,1.95496,0,0,0,0,0,0,0,-1,1819,1324,66.4685,-1.95499
602,-300,66.5259,1.72363,0,0,0,0,0,0,0,-1,1826,1324,66.5259,-1.72367
609,-300,64.2576,2.90149,0,0,0,0,0,0,0,-1,1833,1324,64.2575,-2.90154
616,-300,65.1267,2.84033,0,0,0,0,0,0,0,-1,1840,1324,65.1267,-2.84037
623,-300,47.4474,2.43188,0,0,0,0,0,0,0,-1,1847,1324,47.4474,-2.43194
630,-300,42.4099,3.9165,0,0,0,0,0,0,0,-1,1854,1324,42.4099,-3.91649
637,-300,31.1719,4.6366,0,0,0,0,0,0,0,-1,1861,1324,31.1718,-4.63665
644,-300,22.9836,3.44934,0,0,0,0,0,0,0,-1,1868,1324,22.9836,-3.4493
651,-300,25.5004,9.11853,0,0,0,0,0,0,0,-1,1875,1324,25.5004,-9.11851
658,-300,25.4012,9.20032,0,0,0,0,0,0,0,-1,1882,1324,25.4012,-9.20036
665,-300,46.7826,16.1602,0,0,0,0,0,0,0,-1,1889,1324,46.7826,-16.1602
672,-300,46.6261,15.4919,0.0010996,0.00355341,-0.0026921,0.00528501,-0.000631995,-0.999208,0.00375179,0.0336569,1896,1324,46.6261,-15.492
679,-300,46.6072,14.7369,0.00131161,0.00212848,-0.00189075,0.00365441,-0.000214313,-0.891773,0.00251076,0.0128699,1903,1324,46.6072,-14.7369
686,-300,46.5701,14.0483,0.00125745,0.000721939,-0.00103527,0.00205903,-7.96407e-05,-0.658854,0.00139999,0.0142209,1910,1324,46.57,-14.0483
693,-300,46.5104,13.3383,0.00121481,2.01415e-05,-0.000286614,0.00128001,-4.50619e-05,-0.223688,0.00086875,0.0121143,1917,1324,46.5103,-13.3383
700,-300,46.4709,12.6046,0.00111234,1.13089e-06,0.000123092,0.00112581,-1.23411e-05,0.109012,0.000754686,0.0130349,1924,1324,46.4709,-12.6047
707,-300,46.4689,11.8635,0.000870385,2.6674e-05,0.000512691,0.00111247,-0.000215408,0.441145,0.0008229,0.00960832,1931,1324,46.4689,-11.8635
714,-300,46.4415,11.1862,0.000609679,4.59042e-05,0.000968009,0.00133601,-0.000680425,0.643715,0.00118452,0.0113351,1938,1324,46.4416,-11.1862
721,-300,46.4147,10.4872,0.000346265,6.69107e-05,0.00149045,0.00170357,-0.0012904,0.738677,0.00173405,0.0130771,1945,1324,46.4147,-10.4872
728,-300,46.4197,9.72522,4.97391e-05,0.000104018,0.0021006,0.00217766,-0.0020239,0.791858,0.00242631,0.0177224,1952,1324,46.4197,-9.72525
735,-300,46.4677,8.99634,0,0,0,0,0,0,0,-1,1959,1324,46.4677,-8.99637
742,-300,45.1371,8.42065,0,0,0,0,0,0,0,-1,1966,1324,45.1371,-8.42062
749,-300,27.4065,5.9718,0,0,0,0,0,0,0,-1,1973,1324,27.4065,-5.97181
756,-300,22.1423,3.45642,0,0,0,0,0,0,0,-1,1980,1324,22.1423,-3.45638
763,-300,22.6136,5.1571,0,0,0,0,0,0,0,-1,1987,1324,22.6136,-5.15706
770,-300,24.859,4.77979,0,0,0,0,0,0,0,-1,1994,1324,24.859,-4.77972
777,-300,0,0,0,0,0,0,0,0,0,-1,2001,1324,0,0
784,-300,0,0,0,0,0,0,0,0,0,-1,2008,1324,0,0
791,-300,0,0,0,0,0,0,0,0,0,-1,2015,1324,0,0
798,-300,0,0,0,0,0,0,0,0,0,-1,2022,1324,0,0
805,-300,0,0,0,0,0,0,0,0,0,-1,2029,1324,0,0
812,-300,0,0,0,0,0,0,0,0,0,-1,2036,1324,0,0
-700,-307,0,0,0,0,0,0,0,0,0,-1,524,1331,0,0
-693,-307,0,0,0,0,0,0,0,0,0,-1,531,1331,0,0
-686,-307,0,0,0,0,0,0,0,0,0,-1,538,1331,0,0
-679,-307,0,0,0,0,0,0,0,0,0,-1,545,1331,0,0
-672,-307,0,0,0,0,0,0,0,0,0,-1,552,1331,0,0
-665,-307,0,0,0,0,0,0,0,0,0,-1,559,1331,0,0
-658,-307,0,0,0,0,0,0,0,0,0,-1,566,1331,0,0
-651,-307,-40.7436,1.98755,0,0,0,0,0,0,0,-1,573,1331,-40.7436,-1.98753
-644,-307,-41.7838,1.24817,0,0,0,0,0,0,0,-1,580,1331,-41.7838,-1.2482
-637,-307,-41.9006,0.477783,0,0,0,0,0,0,0,-1,587,1331,-41.9006,-0.477844
-630,-307,-12.0005,0.767212,0,0,0,0,0,0,0,-1,594,1331,-12.0005,-0.767266
-623,-307,-12.2128,2.93811,0,0,0,0,0,0,0,-1,601,1331,-12.2128,-2.93813
-616,-307,-12.6612,2.08289,0,0,0,0,0,0,0,-1,608,1331,-12.6612,-2.08293
-609,-307,-12.2767,1.83228,0,0,0,0,0,0,0,-1,615,1331,-12.2768,-1.83224
-602,-307,-27.5659,6.93335,0,0,0,0,0,0,0,-1,622,1331,-27.5658,-6.9333
-595,-307,-29.1269,8.29736,0,0,0,0,0,0,0,-1,629,1331,-29.1269,-8.29736
-588,-307,-28.9878,9.17419,0.00285894,0.00301513,0.0024298,0.00536809,0.000505987,0.801463,0.00342255,0.0237748,636,1331,-28.9878,-9.17424
-581,-307,-29.0033,9.90747,0.00258214,0.00210979,0.00166253,0.00402518,0.000666746,0.714842,0.00249113,0.0156612,643,1331,-29.0033,-9.90743
-574,-307,-28.9954,10.6558,0.00247177,0.00139663,0.00119932,0.00324849,0.000619914,0.574709,0.00199145,0.0131343,650,1331,-28.9954,-10.6557
-567,-307,-29.0677,11.4027,0.00252554,0.000851981,0.000984252,0.00298064,0.000396881,0.433103,0.0018689,0.0138528,657,1331,-29.0677,-11.4027
-560,-307,-29.0909,12.1714,0.00283648,0.00043445,0.000990867,0.00319247,7.84636e-05,0.344907,0.00210265,0.0142818,664,1331,-29.0909,-12.1714
-553,-307,-29.1138,12.9156,0.00327449,0.000119923,0.00119307,0.00367489,-0.000280476,0.323794,0.00254857,0.0113595,671,1331,-29.1137,-12.9156
-546,-307,-29.1671,13.6479,0.00404363,-5.80972e-05,0.00166454,0.00463412,-0.000648586,0.340896,0.00332675,0.0111657,678,1331,-29.1671,-13.648
-539,-307,-29.168,14.4294,0.00517345,-0.000185958,0.00235796,0.00606316,-0.00107568,0.360808,0.00444427,0.0199218,685,1331,-29.168,-14.4294
-532,-307,-29.1277,15.2201,0,0,0,0,0,0,0,-1,692,1331,-29.1277,-15.2201
-525,-307,-13.2009,6.91309,0,0,0,0,0,0,0,-1,699,1331,-13.2009,-6.9131
-518,-307,-9.77777,-1.56653,0,0,0,0,0,0,0,-1,706,1331,-9.77777,1.56651
-511,-307,-12.5226,0.26709,0,0,0,0,0,0,0,-1,713,1331,-12.5226,-0.267038
-504,-307,-12.5913,-0.308105,0,0,0,0,0,0,0,-1,720,1331,-12.5913,0.308124
-497,-307,-13.8586,-0.115845,0,0,0,0,0,0,0,-1,727,1331,-13.8587,0.115861
-490,-307,-17.9429,0.982178,0,0,0,0,0,0,0,-1,734,1331,-17.9429,-0.982198
-483,-307,-18.1066,0.927612,0,0,0,0,0,0,0,-1,741,1331,-18.1066,-0.927609
-476,-307,-18.1288,1.1228,0,0,0,0,0,0,0,-1,748,1331,-18.1289,-1.12286
-469,-307,-18.2028,0.798584,0,0,0,0,0,0,0,-1,755,1331,-18.2027,-0.798546
-462,-307,0,0,0,0,0,0,0,0,0,-1,762,1331,0,0
-455,-307,0,0,0,0,0,0,0,0,0,-1,769,1331,0,0
-448,-307,0,0,0,0,0,0,0,0,0,-1,776,1331,0,0
-441,-307,0,0,0,0,0,0,0,0,0,-1,783,1331,0,0
-434,-307,0,0,0,0,0,0,0,0,0,-1,790,1331,0,0
-427,-307,0,0,0,0,0,0,0,0,0,-1,797,1331,0,0
-420,-307,0,0,0,0,0,0,0,0,0,-1,804,1331,0,0
-413,-307,0,0,0,0,0,0,0,0,0,-1,811,1331,0,0
-406,-307,0,0,0,0,0,0,0,0,0,-1,818,1331,0,0
-399,-307,0,0,0,0,0,0,0,0,0,-1,825,1331,0,0
-392,-307,0,0,0,0,0,0,0,0,0,-1,832,1331,0,0
-385,-307,0,0,0,0,0,0,0,0,0,-1,839,1331,0,0
-378,-307,0,0,0,0,0,0,0,0,0,-1,846,1331,0,0
-371,-307,0,0,0,0,0,0,0,0,0,-1,853,1331,0,0
-364,-307,0,0,0,0,0,0,0,0,0,-1,860,1331,0,0
-357,-307,0,0,0,0,0,0,0,0,0,-1,867,1331,0,0
-350,-307,0,0,0,0,0,0,0,0,0,-1,874,1331,0,0
-343,-307,0,0,0,0,0,0,0,0,0,-1,881,1331,0,0
-336,-307,0,0,0,0,0,0,0,0,0,-1,888,1331,0,0
-329,-307,0,0,0,0,0,0,0,0,0,-1,895,1331,0,0
-322,-307,0,0,0,0,0,0,0,0,0,-1,902,1331,0,0
-315,-307,0,0,0,0,0,0,0,0,0,-1,909,1331,0,0
-308,-307,0,0,0,0,0,0,0,0,0,-1,916,1331,0,0
-301,-307,0,0,0,0,0,0,0,0,0,-1,923,1331,0,0
-294,-307,0,0,0,0,0,0,0,0,0,-1,930,1331,0,0
-287,-307,0,0,0,0,0,0,0,0,0,-1,937,1331,0,0
-280,-307,0,0,0,0,0,0,0,0,0,-1,944,1331,0,0
-273,-307,0,0,0,0,0,0,0,0,0,-1,951,1331,0,0
-266,-307,0,0,0,0,0,0,0,0,0,-1,958,1331,0,0
-259,-307,0,0,0,0,0,0,0,0,0,-1,965,1331,0,0
-252,-307,0,0,0,0,0,0,0,0,0,-1,972,1331,0,0
-245,-307,0,0,0,0,0,0,0,0,0,-1,979,1331,0,0
-238,-307,0,0,0,0,0,0,0,0,0,-1,986,1331,0,0
-231,-307,0,0,0,0,0,0,0,0,0,-1,993,1331,0,0
-224,-307,0,0,0,0,0,0,0,0,0,-1,1000,1331,0,0
-217,-307,0,0,0,0,0,0,0,0,0,-1,1007,1331,0,0
-210,-307,0,0,0,0,0,0,0,0,0,-1,1014,1331,0,0
-203,-307,0,0,0,0,0,0,0,0,0,-1,1021,1331,0,0
-196,-307,0,0,0,0,0,0,0,0,0,-1,1028,1331,0,0
-189,-307,0,0,0,0,0,0,0,0,0,-1,1035,1331,0,0
-182,-307,0,0,0,0,0,0,0,0,0,-1,1042,1331,0,0
-175,-307,0,0,0,0,0,0,0,0,0,-1,1049,1331,0,0
-168,-307,0,0,0,0,0,0,0,0,0,-1,1056,1331,0,0
-161,-307,0,0,0,0,0,0,0,0,0,-1,1063,1331,0,0
-154,-307,0,0,0,0,0,0,0,0,0,-1,1070,1331,0,0
-147,-307,0,0,0,0,0,0,0,0,0,-1,1077,1331,0,0
-140,-307,0,0,0,0,0,0,0,0,0,-1,1084,1331,0,0
-133,-307,0,0,0,0,0,0,0,0,0,-1,1091,1331,0,0
-126,-307,0,0,0,0,0,0,0,0,0,-1,1098,1331,0,0
-119,-307,0,0,0,0,0,0,0,0,0,-1,1105,1331,0,0
-112,-307,0,0,0,0,0,0,0,0,0,-1,1112,1331,0,0
-105,-307,0,0,0,0,0,0,0,0,0,-1,1119,1331,0,0
-98,-307,0,0,0,0,0,0,0,0,0,-1,1126,1331,0,0
-91,-307,0,0,0,0,0,0,0,0,0,-1,1133,1331,0,0
-84,-307,0,0,0,0,0,0,0,0,0,-1,1140,1331,0,0
-77,-307,0,0,0,0,0,0,0,0,0,-1,1147,1331,0,0
-70,-307,0,0,0,0,0,0,0,0,0,-1,1154,1331,0,0
-63,-307,0,0,0,0,0,0,0,0,0,-1,1161,1331,0,0
-56,-307,0,0,0,0,0,0,0,0,0,-1,1168,1331,0,0
-49,-307,0,0,0,0,0,0,0,0,0,-1,1175,1331,0,0
-42,-307,0,0,0,0,0,0,0,0,0,-1,1182,1331,0,0
-35,-307,0,0,0,0,0,0,0,0,0,-1,1189,1331,0,0
-28,-307,0,0,0,0,0,0,0,0,0,-1,1196,1331,0,0
-21,-307,0,0,0,0,0,0,0,0,0,-1,1203,1331,0,0
-14,-307,0,0,0,0,0,0,0,0,0,-1,1210,1331,0,0
-7,-307,0,0,0,0,0,0,0,0,0,-1,1217,1331,0,0
0,-307,0,0,0,0,0,0,0,0,0,-1,1224,1331,0,0
7,-307,0,0,0,0,0,0,0,0,0,-1,1231,1331,0,0
14,-307,0,0,0,0,0,0,0,0,0,-1,1238,1331,0,0
21,-307,0,0,0,0,0,0,0,0,0,-1,1245,1331,0,0
28,-307,0,0,0,0,0,0,0,0,0,-1,1252,1331,0,0
35,-307,0,0,0,0,0,0,0,0,0,-1,1259,1331,0,0
42,-307,0,0,0,0,0,0,0,0,0,-1,1266,1331,0,0
49,-307,0,0,0,0,0,0,0,0,0,-1,1273,1331,0,0
56,-307,0,0,0,0,0,0,0,0,0,-1,1280,1331,0,0
63,-307,0,0,0,0,0,0,0,0,0,-1,1287,1331,0,0
70,-307,0,0,0,0,0,0,0,0,0,-1,1294,1331,0,0
77,-307,0,0,0,0,0,0,0,0,0,-1,1301,1331,0,0
84,-307,0,0,0,0,0,0,0,0,0,-1,1308,1331,0,0
91,-307,0,0,0,0,0,0,0,0,0,-1,1315,1331,0,0
98,-307,0,0,0,0,0,0,0,0,0,-1,1322,1331,0,0
105,-307,0,0,0,0,0,0,0,0,0,-1,1329,1331,0,0
112,-307,0,0,0,0,0,0,0,0,0,-1,1336,1331,0,0
119,-307,0,0,0,0,0,0,0,0,0,-1,1343,1331,0,0
126,-307,0,0,0,0,0,0,0,0,0,-1,1350,1331,0,0
133,-307,0,0,0,0,0,0,0,0,0,-1,1357,1331,0,0
140,-307,0,0,0,0,0,0,0,0,0,-1,1364,1331,0,0
147,-307,0,0,0,0,0,0,0,0,0,-1,1371,1331,0,0
154,-307,0,0,0,0,0,0,0,0,0,-1,1378,1331,0,0
161,-307,0,0,0,0,0,0,0,0,0,-1,1385,1331,0,0
168,-307,0,0,0,0,0,0,0,0,0,-1,1392,1331,0,0
175,-307,0,0,0,0,0,0,0,0,0,-1,1399,1331,0,0
182,-307,0,0,0,0,0,0,0,0,0,-1,1406,1331,0,0
189,-307,0,0,0,0,0,0,0,0,0,-1,1413,1331,0,0
196,-307,0,0,0,0,0,0,0,0,0,-1,1420,1331,0,0
203,-307,0,0,0,0,0,0,0,0,0,-1,1427,1331,0,0
210,-307,0,0,0,0,0,0,0,0,0,-1,1434,1331,0,0
217,-307,0,0,0,0,0,0,0,0,0,-1,1441,1331,0,0
224,-307,0,0,0,0,0,0,0,0,0,-1,1448,1331,0,0
231,-307,0,0,0,0,0,0,0,0,0,-1,1455,1331,0,0
238,-307,0,0,0,0,0,0,0,0,0,-1,1462,1331,0,0
245,-307,0,0,0,0,0,0,0,0,0,-1,1469,1331,0,0
252,-307,0,0,0,0,0,0,0,0,0,-1,1476,1331,0,0
259,-307,0,0,0,0,0,0,0,0,0,-1,1483,1331,0,0
266,-307,0,0,0,0,0,0,0,0,0,-1,1490,1331,0,0
273,-307,0,0,0,0,0,0,0,0,0,-1,1497,1331,0,0
280,-307,0,0,0,0,0,0,0,0,0,-1,1504,1331,0,0
287,-307,0,0,0,0,0,0,0,0,0,-1,1511,1331,0,0
294,-307,0,0,0,0,0,0,0,0,0,-1,1518,1331,0,0
301,-307,0,0,0,0,0,0,0,0,0,-1,1525,1331,0,0
308,-307,0,0,0,0,0,0,0,0,0,-1,1532,1331,0,0
315,-307,0,0,0,0,0,0,0,0,0,-1,1539,1331,0,0
322,-307,0,0,0,0,0,0,0,0,0,-1,1546,1331,0,0
329,-307,0,0,0,0,0,0,0,0,0,-1,1553,1331,0,0
336,-307,0,0,0,0,0,0,0,0,0,-1,1560,1331,0,0
343,-307,0,0,0,0,0,0,0,0,0,-1,1567,1331,0,0
350,-307,0,0,0,0,0,0,0,0,0,-1,1574,1331,0,0
357,-307,0,0,0,0,0,0,0,0,0,-1,1581,1331,0,0
364,-307,0,0,0,0,0,0,0,0,0,-1,1588,1331,0,0
371,-307,0,0,0,0,0,0,0,0,0,-1,1595,1331,0,0
378,-307,0,0,0,0,0,0,0,0,0,-1,1602,1331,0,0
385,-307,0,0,0,0,0,0,0,0,0,-1,1609,1331,0,0
392,-307,0,0,0,0,0,0,0,0,0,-1,1616,1331,0,0
399,-307,0,0,0,0,0,0,0,0,0,-1,1623,1331,0,0
406,-307,0,0,0,0,0,0,0,0,0,-1,1630,1331,0,0
413,-307,0,0,0,0,0,0,0,0,0,-1,1637,1331,0,0
420,-307,0,0,0,0,0,0,0,0,0,-1,1644,1331,0,0
427,-307,0,0,0,0,0,0,0,0,0,-1,1651,1331,0,0
434,-307,0,0,0,0,0,0,0,0,0,-1,1658,1331,0,0
441,-307,0,0,0,0,0,0,0,0,0,-1,1665,1331,0,0
448,-307,0,0,0,0,0,0,0,0,0,-1,1672,1331,0,0
455,-307,0,0,0,0,0,0,0,0,0,-1,1679,1331,0,0
462,-307,0,0,0,0,0,0,0,0,0,-1,1686,1331,0,0
469,-307,0,0,0,0,0,0,0,0,0,-1,1693,1331,0,0
476,-307,0,0,0,0,0,0,0,0,0,-1,1700,1331,0,0
483,-307,0,0,0,0,0,0,0,0,0,-1,1707,1331,0,0
490,-307,0,0,0,0,0,0,0,0,0,-1,1714,1331,0,0
497,-307,0,0,0,0,0,0,0,0,0,-1,1721,1331,0,0
504,-307,0,0,0,0,0,0,0,0,0,-1,1728,1331,0,0
511,-307,0,0,0,0,0,0,0,0,0,-1,1735,1331,0,0
518,-307,0,0,0,0,0,0,0,0,0,-1,1742,1331,0,0
525,-307,0,0,0,0,0,0,0,0,0,-1,1749,1331,0,0
532,-307,0,0,0,0,0,0,0,0,0,-1,1756,1331,0,0
539,-307,0,0,0,0,0,0,0,0,0,-1,1763,1331,0,0
546,-307,0,0,0,0,0,0,0,0,0,-1,1770,1331,0,0
553,-307,0,0,0,0,0,0,0,0,0,-1,1777,1331,0,0
560,-307,0,0,0,0,0,0,0,0,0,-1,1784,1331,0,0
567,-307,0,0,0,0,0,0,0,0,0,-1,1791,1331,0,0
574,-307,0,0,0,0,0,0,0,0,0,-1,1798,1331,0,0
581,-307,0,0,0,0,0,0,0,0,0,-1,1805,1331,0,0
588,-307,66.5917,1.60864,0,0,0,0,0,0,0,-1,1812,1331,66.5917,-1.60867
595,-307,66.708,1.85352,0,0,0,0,0,0,0,-1,1819,1331,66.708,-1.85351
602,-307,66.111,1.49976,0,0,0,0,0,0,0,-1,1826,1331,66.1109,-1.49974
609,-307,63.8848,2.78992,0,0,0,0,0,0,0,-1,1833,1331,63.8848,-2.78989
616,-307,53.2878,0.135498,0,0,0,0,0,0,0,-1,1840,1331,53.2878,-0.135477
623,-307,44.3966,2.84888,0,0,0,0,0,0,0,-1,1847,1331,44.3966,-2.84884
630,-307,29.8116,1.51184,0,0,0,0,0,0,0,-1,1854,1331,29.8116,-1.51188
637,-307,24.6407,4.09106,0,0,0,0,0,0,0,-1,1861,1331,24.6407,-4.09103
644,-307,22.6885,5.80408,0,0,0,0,0,0,0,-1,1868,1331,22.6884,-5.80408
651,-307,17.5013,5.80078,0,0,0,0,0,0,0,-1,1875,1331,17.5014,-5.80072
658,-307,37.4427,13.9775,0,0,0,0,0,0,0,-1,1882,1331,37.4427,-13.9776
665,-307,46.0391,16.2424,0,0,0,0,0,0,0,-1,1889,1331,46.039,-16.2424
672,-307,45.9269,15.5166,0.00247989,0.00221723,-0.00162609,0.00397995,0.000717174,-0.745105,0.00244949,0.0206634,1896,1331,45.9269,-15.5166
679,-307,45.879,14.7905,0.00207121,0.0011849,-0.00108165,0.00279697,0.000459141,-0.590976,0.00173201,0.0115499,1903,1331,45.879,-14.7905
686,-307,45.8236,14.0717,0.00163602,0.000312926,-0.000584295,0.00185711,9.18376e-05,-0.361735,0.00120862,0.0113887,1910,1331,45.8236,-14.0716
693,-307,45.7744,13.3679,0.0013457,-7.51537e-05,-0.00018705,0.00136991,-9.93655e-05,-0.128725,0.000948133,0.0124715,1917,1331,45.7744,-13.368
700,-307,45.7739,12.6244,0.0011618,-5.46971e-06,8.4215e-05,0.00116785,-1.15142e-05,0.0716524,0.00078243,0.0135042,1924,1331,45.7739,-12.6244
707,-307,45.7739,11.8855,0.00101504,4.86936e-05,0.000394562,0.00115567,-9.19411e-05,0.342394,0.000802851,0.0164055,1931,1331,45.7739,-11.8855
714,-307,45.7332,11.2365,0.000853431,9.2256e-05,0.000771916,0.00133348,-0.000387797,0.556365,0.00104258,0.0143104,1938,1331,45.7332,-11.2364
721,-307,45.7418,10.5446,0.000729764,0.000116524,0.00122446,0.00168542,-0.000839128,0.662715,0.00148459,0.0177031,1945,1331,45.7418,-10.5446
728,-307,45.7133,10.0023,0.000604544,0.000145116,0.00176756,0.00215726,-0.0014076,0.72078,0.00207329,0.0478881,1952,1331,45.7132,-10.0023
735,-307,45.7858,9.1875,0,0,0,0,0,0,0,-1,1959,1331,45.7858,-9.18748
742,-307,26.677,6.09192,0,0,0,0,0,0,0,-1,1966,1331,26.677,-6.0919
749,-307,26.7727,5.9032,0,0,0,0,0,0,0,-1,1973,1331,26.7727,-5.90323
756,-307,27.1556,5.74756,0,0,0,0,0,0,0,-1,1980,1331,27.1557,-5.7475
763,-307,18.7522,3.55298,0,0,0,0,0,0,0,-1,1987,1331,18.7522,-3.55301
770,-307,0,0,0,0,0,0,0,0,0,-1,1994,1331,0,0
777,-307,0,0,0,0,0,0,0,0,0,-1,2001,1331,0,0
784,-307,0,0,0,0,0,0,0,0,0,-1,2008,1331,0,0
791,-307,0,0,0,0,0,0,0,0,0,-1,2015,1331,0,0
798,-307,0,0,0,0,0,0,0,0,0,-1,2022,1331,0,0
805,-307,0,0,0,0,0,0,0,0,0,-1,2029,1331,0,0
812,-307,0,0,0,0,0,0,0,0,0,-1,2036,1331,0,0
-700,-314,0,0,0,0,0,0,0,0,0,-1,524,1338,0,0
-693,-314,0,0,0,0,0,0,0,0,0,-1,531,1338,0,0
-686,-314,0,0,0,0,0,0,0,0,0,-1,538,1338,0,0
-679,-314,0,0,0,0,0,0,0,0,0,-1,545,1338,0,0
-672,-314,0,0,0,0,0,0,0,0,0,-1,552,1338,0,0
-665,-314,0,0,0,0,0,0,0,0,0,-1,559,1338,0,0
-658,-314,0,0,0,0,0,0,0,0,0,-1,566,1338,0,0
-651,-314,0,0,0,0,0,0,0,0,0,-1,573,1338,0,0
-644,-314,-41.2806,1.17566,0,0,0,0,0,0,0,-1,580,1338,-41.2806,-1.17565
-637,-314,-58.369,7.97375,0,0,0,0,0,0,0,-1,587,1338,-58.369,-7.97376
-630,-314,-59.7463,6.72742,0,0,0,0,0,0,0,-1,594,1338,-59.7463,-6.72739
-623,-314,-13.3542,3.00903,0,0,0,0,0,0,0,-1,601,1338,-13.3542,-3.00907
-616,-314,-9.93311,1.15088,0,0,0,0,0,0,0,-1,608,1338,-9.93308,-1.15093
-609,-314,-9.4361,2.86292,0,0,0,0,0,0,0,-1,615,1338,-9.43612,-2.86286
-602,-314,-11.8027,2.42798,0,0,0,0,0,0,0,-1,622,1338,-11.8027,-2.42802
-595,-314,-28.387,8.33435,0,0,0,0,0,0,0,-1,629,1338,-28.387,-8.33433
-588,-314,-28.3085,9.14343,0.00339059,0.00302407,0.00253729,0.00575123,0.000663435,0.749347,0.00363326,0.034863,636,1338,-28.3085,-9.14338
-581,-314,-28.2137,9.93616,0.00292799,0.00221771,0.00171913,0.00432829,0.000817419,0.683541,0.00265533,0.0131981,643,1338,-28.2137,-9.9361
-574,-314,-28.2714,10.6587,0.00270228,0.00155578,0.00124684,0.00350133,0.000756726,0.569928,0.00212733,0.0135051,650,1338,-28.2714,-10.6586
-567,-314,-28.2996,11.4235,0.00267199,0.00105153,0.00102954,0.00317189,0.000551631,0.452022,0.00195681,0.0147337,657,1338,-28.2996,-11.4235
-560,-314,-28.2997,12.2089,0.00291978,0.000665825,0.00102977,0.0033194,0.000266203,0.370179,0.00212975,0.0148268,664,1338,-28.2997,-12.2088
-553,-314,-28.3625,12.9542,0.00327457,0.000327478,0.00118678,0.00369306,-9.10107e-05,0.33901,0.00249293,0.0179891,671,1338,-28.3625,-12.9542
-546,-314,-28.4395,13.7018,0.00393704,0.000107589,0.0015947,0.00451415,-0.000469519,0.347229,0.00317753,0.0181967,678,1338,-28.4395,-13.7017
-539,-314,-28.4482,14.4634,0.00491476,-5.53514e-05,0.00218608,0.00573945,-0.000880049,0.360741,0.00415087,0.0185911,685,1338,-28.4483,-14.4633
-532,-314,-28.3821,15.2015,0,0,0,0,0,0,0,-1,692,1338,-28.3821,-15.2016
-525,-314,-13.3017,7.50671,0,0,0,0,0,0,0,-1,699,1338,-13.3017,-7.50669
-518,-314,-8.52753,4.70032,0,0,0,0,0,0,0,-1,706,1338,-8.52755,-4.70034
-511,-314,-11.8597,0.384888,0,0,0,0,0,0,0,-1,713,1338,-11.8597,-0.384927
-504,-314,-11.4322,-0.187378,0,0,0,0,0,0,0,-1,720,1338,-11.4322,0.187381
-497,-314,-11.0047,-0.759644,0,0,0,0,0,0,0,-1,727,1338,-11.0047,0.759689
-490,-314,-18.5143,0.471069,0,0,0,0,0,0,0,-1,734,1338,-18.5143,-0.47103
-483,-314,-17.8528,0.577271,0,0,0,0,0,0,0,-1,741,1338,-17.8528,-0.577327
-476,-314,-17.714,0.665405,0,0,0,0,0,0,0,-1,748,1338,-17.714,-0.665388
-469,-314,-17.7246,0.794678,0,0,0,0,0,0,0,-1,755,1338,-17.7246,-0.794645
-462,-314,0,0,0,0,0,0,0,0,0,-1,762,1338,0,0
-455,-314,0,0,0,0,0,0,0,0,0,-1,769,1338,0,0
-448,-314,0,0,0,0,0,0,0,0,0,-1,776,1338,0,0
-441,-314,0,0,0,0,0,0,0,0,0,-1,783,1338,0,0
-434,-314,0,0,0,0,0,0,0,0,0,-1,790,1338,0,0
-427,-314,0,0,0,0,0,0,0,0,0,-1,797,1338,0,0
-420,-314,0,0,0,0,0,0,0,0,0,-1,804,1338,0,0
-413,-314,0,0,0,0,0,0,0,0,0,-1,811,1338,0,0
-406,-314,0,0,0,0,0,0,0,0,0,-1,818,1338,0,0
-399,-314,0,0,0,0,0,0,0,0,0,-1,825,1338,0,0
-392,-314,0,0,0,0,0,0,0,0,0,-1,832,1338,0,0
-385,-314,0,0,0,0,0,0,0,0,0,-1,839,1338,0,0
-378,-314,0,0,0,0,0,0,0,0,0,-1,846,1338,0,0
-371,-314,0,0,0,0,0,0,0,0,0,-1,853,1338,0,0
-364,-314,0,0,0,0,0,0,0,0,0,-1,860,1338,0,0
-357,-314,0,0,0,0,0,0,0,0,0,-1,867,1338,0,0
-350,-314,0,0,0,0,0,0,0,0,0,-1,874,1338,0,0
-343,-314,0,0,0,0,0,0,0,0,0,-1,881,1338,0,0
-336,-314,0,0,0,0,0,0,0,0,0,-1,888,1338,0,0
-329,-314,0,0,0,0,0,0,0,0,0,-1,895,1338,0,0
-322,-314,0,0,0,0,0,0,0,0,0,-1,902,1338,0,0
-315,-314,0,0,0,0,0,0,0,0,0,-1,909,1338,0,0
-308,-314,0,0,0,0,0,0,0,0,0,-1,916,1338,0,0
-301,-314,0,0,0,0,0,0,0,0,0,-1,923,1338,0,0
-294,-314,0,0,0,0,0,0,0,0,0,-1,930,1338,0,0
-287,-314,0,0,0,0,0,0,0,0,0,-1,937,1338,0,0
-280,-314,0,0,0,0,0,0,0,0,0,-1,944,1338,0,0
-273,-314,0,0,0,0,0,0,0,0,0,-1,951,1338,0,0
-266,-314,0,0,0,0,0,0,0,0,0,-1,958,1338,0,0
-259,-314,0,0,0,0,0,0,0,0,0,-1,965,1338,0,0
-252,-314,0,0,0,0,0,0,0,0,0,-1,972,1338,0,0
-245,-314,0,0,0,0,0,0,0,0,0,-1,979,1338,0,0
-238,-314,0,0,0,0,0,0,0,0,0,-1,986,1338,0,0
-231,-314,0,0,0,0,0,0,0,0,0,-1,993,1338,0,0
-224,-314,0,0,0,0,0,0,0,0,0,-1,1000,1338,0,0
-217,-314,0,0,0,0,0,0,0,0,0,-1,1007,1338,0,0
-210,-314,0,0,0,0,0,0,0,0,0,-1,1014,1338,0,0
-203,-314,0,0,0,0,0,0,0,0,0,-1,1021,1338,0,0
-196,-314,0,0,0,0,0,0,0,0,0,-1,1028,1338,0,0
-189,-314,0,0,0,0,0,0,0,0,0,-1,1035,1338,0,0
-182,-314,0,0,0,0,0,0,0,0,0,-1,1042,1338,0,0
-175,-314,0,0,0,0,0,0,0,0,0,-1,1049,1338,0,0
-168,-314,0,0,0,0,0,0,0,0,0,-1,1056,1338,0,0
-161,-314,0,0,0,0,0,0,0,0,0,-1,1063,1338,0,0
-154,-314,0,0,0,0,0,0,0,0,0,-1,1070,1338,0,0
-147,-314,0,0,0,0,0,0,0,0,0,-1,1077,1338,0,0
-140,-314,0,0,0,0,0,0,0,0,0,-1,1084,1338,0,0
-133,-314,0,0,0,0,0,0,0,0,0,-1,1091,1338,0,0
-126,-314,0,0,0,0,0,0,0,0,0,-1,1098,1338,0,0
-119,-314,0,0,0,0,0,0,0,0,0,-1,1105,1338,0,0
-112,-314,0,0,0,0,0,0,0,0,0,-1,1112,1338,0,0
-105,-314,0,0,0,0,0,0,0,0,0,-1,1119,1338,0,0
-98,-314,0,0,0,0,0,0,0,0,0,-1,1126,1338,0,0
-91,-314,0,0,0,0,0,0,0,0,0,-1,1133,1338,0,0
-84,-314,0,0,0,0,0,0,0,0,0,-1,1140,1338,0,0
-77,-314,0,0,0,0,0,0,0,0,0,-1,1147,1338,0,0
-70,-314,0,0,0,0,0,0,0,0,0,-1,1154,1338,0,0
-63,-314,0,0,0,0,0,0,0,0,0,-1,1161,1338,0,0
-56,-314,0,0,0,0,0,0,0,0,0,-1,1168,1338,0,0
-49,-314,0,0,0,0,0,0,0,0,0,-1,1175,1338,0,0
-42,-314,0,0,0,0,0,0,0,0,0,-1,1182,1338,0,0
-35,-314,0,0,0,0,0,0,0,0,0,-1,1189,1338,0,0
-28,-314,0,0,0,0,0,0,0,0,0,-1,1196,1338,0,0
-21,-314,0,0,0,0,0,0,0,0,0,-1,1203,1338,0,0
-14,-314,0,0,0,0,0,0,0,0,0,-1,1210,1338,0,0
-7,-314,0,0,0,0,0,0,0,0,0,-1,1217,1338,0,0
0,-314,0,0,0,0,0,0,0,0,0,-1,1224,1338,0,0
7,-314,0,0,0,0,0,0,0,0,0,-1,1231,1338,0,0
14,-314,0,0,0,0,0,0,0,0,0,-1,1238,1338,0,0
21,-314,0,0,0,0,0,0,0,0,0,-1,1245,1338,0,0
28,-314,0,0,0,0,0,0,0,0,0,-1,1252,1338,0,0
35,-314,0,0,0,0,0,0,0,0,0,-1,1259,1338,0,0
42,-314,0,0,0,0,0,0,0,0,0,-1,1266,1338,0,0
49,-314,0,0,0,0,0,0,0,0,0,-1,1273,1338,0,0
56,-314,0,0,0,0,0,0,0,0,0,-1,1280,1338,0,0
63,-314,0,0,0,0,0,0,0,0,0,-1,1287,1338,0,0
70,-314,0,0,0,0,0,0,0,0,0,-1,1294,1338,0,0
77,-314,0,0,0,0,0,0,0,0,0,-1,1301,1338,0,0
84,-314,0,0,0,0,0,0,0,0,0,-1,1308,1338,0,0
91,-314,0,0,0,0,0,0,0,0,0,-1,1315,1338,0,0
98,-314,0,0,0,0,0,0,0,0,0,-1,1322,1338,0,0
105,-314,0,0,0,0,0,0,0,0,0,-1,1329,1338,0,0
112,-314,0,0,0,0,0,0,0,0,0,-1,1336,1338,0,0
119,-314,0,0,0,0,0,0,0,0,0,-1,1343,1338,0,0
126,-314,0,0,0,0,0,0,0,0,0,-1,1350,1338,0,0
133,-314,0,0,0,0,0,0,0,0,0,-1,1357,1338,0,0
140,-314,0,0,0,0,0,0,0,0,0,-1,1364,1338,0,0
147,-314,0,0,0,0,0,0,0,0,0,-1,1371,1338,0,0
154,-314,0,0,0,0,0,0,0,0,0,-1,1378,1338,0,0
161,-314,0,0,0,0,0,0,0,0,0,-1,1385,1338,0,0
168,-314,0,0,0,0,0,0,0,0,0,-1,1392,1338,0,0
175,-314,0,0,0,0,0,0,0,0,0,-1,1399,1338,0,0
182,-314,0,0,0,0,0,0,0,0,0,-1,1406,1338,0,0
189,-314,0,0,0,0,0,0,0,0,0,-1,1413,1338,0,0
196,-314,0,0,0,0,0,0,0,0,0,-1,1420,1338,0,0
203,-314,0,0,0,0,0,0,0,0,0,-1,1427,1338,0,0
210,-314,0,0,0,0,0,0,0,0,0,-1,1434,1338,0,0
217,-314,0,0,0,0,0,0,0,0,0,-1,1441,1338,0,0
224,-314,0,0,0,0,0,0,0,0,0,-1,1448,1338,0,0
231,-314,0,0,0,0,0,0,0,0,0,-1,1455,1338,0,0
238,-314,0,0,0,0,0,0,0,0,0,-1,1462,1338,0,0
245,-314,0,0,0,0,0,0,0,0,0,-1,1469,1338,0,0
252,-314,0,0,0,0,0,0,0,0,0,-1,1476,1338,0,0
259,-314,0,0,0,0,0,0,0,0,0,-1,1483,1338,0,0
266,-314,0,0,0,0,0,0,0,0,0,-1,1490,1338,0,0
273,-314,0,0,0,0,0,0,0,0,0,-1,1497,1338,0,0
280,-314,0,0,0,0,0,0,0,0,0,-1,1504,1338,0,0
287,-314,0,0,0,0,0,0,0,0,0,-1,1511,1338,0,0
294,-314,0,0,0,0,0,0,0,0,0,-1,1518,1338,0,0
301,-314,0,0,0,0,0,0,0,0,0,-1,1525,1338,0,0
308,-314,0,0,0,0,0,0,0,0,0,-1,1532,1338,0,0
315,-314,0,0,0,0,0,0,0,0,0,-1,1539,1338,0,0
322,-314,0,0,0,0,0,0,0,0,0,-1,1546,1338,0,0
329,-314,0,0,0,0,0,0,0,0,0,-1,1553,1338,0,0
336,-314,0,0,0,0,0,0,0,0,0,-1,1560,1338,0,0
343,-314,0,0,0,0,0,0,0,0,0,-1,1567,1338,0,0
350,-314,0,0,0,0,0,0,0,0,0,-1,1574,1338,0,0
357,-314,0,0,0,0,0,0,0,0,0,-1,1581,1338,0,0
364,-314,0,0,0,0,0,0,0,0,0,-1,1588,1338,0,0
371,-314,0,0,0,0,0,0,0,0,0,-1,1595,1338,0,0
378,-314,0,0,0,0,0,0,0,0,0,-1,1602,1338,0,0
385,-314,0,0,0,0,0,0,0,0,0,-1,1609,1338,0,0
392,-314,0,0,0,0,0,0,0,0,0,-1,1616,1338,0,0
399,-314,0,0,0,0,0,0,0,0,0,-1,1623,1338,0,0
406,-314,0,0,0,0,0,0,0,0,0,-1,1630,1338,0,0
413,-314,0,0,0,0,0,0,0,0,0,-1,1637,1338,0,0
420,-314,0,0,0,0,0,0,0,0,0,-1,1644,1338,0,0
427,-314,0,0,0,0,0,0,0,0,0,-1,1651,1338,0,0
434,-314,0,0,0,0,0,0,0,0,0,-1,1658,1338,0,0
441,-314,0,0,0,0,0,0,0,0,0,-1,1665,1338,0,0
448,-314,0,0,0,0,0,0,0,0,0,-1,1672,1338,0,0
455,-314,0,0,0,0,0,0,0,0,0,-1,1679,1338,0,0
462,-314,0,0,0,0,0,0,0,0,0,-1,1686,1338,0,0
469,-314,0,0,0,0,0,0,0,0,0,-1,1693,1338,0,0
476,-314,0,0,0,0,0,0,0,0,0,-1,1700,1338,0,0
483,-314,0,0,0,0,0,0,0,0,0,-1,1707,1338,0,0
490,-314,0,0,0,0,0,0,0,0,0,-1,1714,1338,0,0
497,-314,0,0,0,0,0,0,0,0,0,-1,1721,1338,0,0
504,-314,0,0,0,0,0,0,0,0,0,-1,1728,1338,0,0
511,-314,0,0,0,0,0,0,0,0,0,-1,1735,1338,0,0
518,-314,0,0,0,0,0,0,0,0,0,-1,1742,1338,0,0
525,-314,0,0,0,0,0,0,0,0,0,-1,1749,1338,0,0
532,-314,0,0,0,0,0,0,0,0,0,-1,1756,1338,0,0
539,-314,0,0,0,0,0,0,0,0,0,-1,1763,1338,0,0
546,-314,0,0,0,0,0,0,0,0,0,-1,1770,1338,0,0
553,-314,0,0,0,0,0,0,0,0,0,-1,1777,1338,0,0
560,-314,0,0,0,0,0,0,0,0,0,-1,1784,1338,0,0
567,-314,0,0,0,0,0,0,0,0,0,-1,1791,1338,0,0
574,-314,0,0,0,0,0,0,0,0,0,-1,1798,1338,0,0
581,-314,66.1637,1.86658,0,0,0,0,0,0,0,-1,1805,1338,66.1637,-1.86663
588,-314,66.4303,1.43481,0,0,0,0,0,0,0,-1,1812,1338,66.4303,-1.43487
595,-314,66.7465,0.982788,0,0,0,0,0,0,0,-1,1819,1338,66.7464,-0.982795
602,-314,66.322,1.38416,0,0,0,0,0,0,0,-1,1826,1338,66.322,-1.3842
609,-314,60.2225,1.27014,0,0,0,0,0,0,0,-1,1833,1338,60.2225,-1.27017
616,-314,48.1149,3.005,0,0,0,0,0,0,0,-1,1840,1338,48.1149,-3.00505
623,-314,38.7728,2.71741,0,0,0,0,0,0,0,-1,1847,1338,38.7728,-2.71737
630,-314,29.4308,6.23206,0,0,0,0,0,0,0,-1,1854,1338,29.4308,-6.23202
637,-314,22.1349,5.16418,0,0,0,0,0,0,0,-1,1861,1338,22.1349,-5.16414
644,-314,18.7517,6.2605,0,0,0,0,0,0,0,-1,1868,1338,18.7517,-6.26053
651,-314,23.1317,8.005,0,0,0,0,0,0,0,-1,1875,1338,23.1317,-8.00506
658,-314,45.2466,16.9203,0,0,0,0,0,0,0,-1,1882,1338,45.2466,-16.9203
665,-314,45.1599,16.2821,0.00317691,0.000483565,-0.00121397,0.00364332,1.71614e-05,-0.36681,0.00242318,0.041111,1889,1338,45.1599,-16.2822
672,-314,45.1818,15.5999,0.00212314,0.000741808,-0.00106316,0.00270028,0.000164666,-0.49734,0.00174789,0.0143499,1896,1338,45.1817,-15.5998
679,-314,45.1581,14.8536,0.00180481,0.000359856,-0.000741103,0.00211733,4.73415e-05,-0.399062,0.00139604,0.0115859,1903,1338,45.1581,-14.8536
686,-314,45.0869,14.1127,0.001561,4.35218e-05,-0.000464499,0.00169189,-8.73705e-05,-0.27467,0.00115815,0.0139016,1910,1338,45.087,-14.1127
693,-314,45.0504,13.3757,0.00144601,-5.94722e-05,-0.000257585,0.00148886,-0.000102325,-0.164853,0.00102838,0.0131024,1917,1338,45.0504,-13.3757
700,-314,45.0537,12.6494,0.00139752,3.48962e-05,-7.87571e-05,0.00140205,3.03593e-05,-0.0575429,0.000924749,0.0144576,1924,1338,45.0537,-12.6494
707,-314,45.0582,11.9414,0.00136708,0.000118895,0.000140321,0.00138266,0.000103314,0.110581,0.000889336,0.0151121,1931,1338,45.0583,-11.9414
714,-314,45.0007,11.2637,0.00131622,0.000191328,0.000426728,0.00145978,4.77691e-05,0.324524,0.000957658,0.0127025,1938,1338,45.0007,-11.2637
721,-314,44.9725,10.6018,0.00133808,0.00020783,0.000810234,0.00176081,-0.000214894,0.48088,0.00125167,0.0260623,1945,1338,44.9726,-10.6018
728,-314,45.2589,10.2695,0,0,0,0,0,0,0,-1,1952,1338,45.2589,-10.2695
735,-314,26.3665,6.21582,0,0,0,0,0,0,0,-1,1959,1338,26.3664,-6.21581
742,-314,26.2235,6.0166,0,0,0,0,0,0,0,-1,1966,1338,26.2235,-6.01662
749,-314,26.2223,5.47046,0,0,0,0,0,0,0,-1,1973,1338,26.2223,-5.47041
756,-314,24.2521,5.93408,0,0,0,0,0,0,0,-1,1980,1338,24.252,-5.93413
763,-314,19.2207,4.07239,0,0,0,0,0,0,0,-1,1987,1338,19.2206,-4.07239
770,-314,0,0,0,0,0,0,0,0,0,-1,1994,1338,0,0
777,-314,0,0,0,0,0,0,0,0,0,-1,2001,1338,0,0
784,-314,0,0,0,0,0,0,0,0,0,-1,2008,1338,0,0
791,-314,0,0,0,0,0,0,0,0,0,-1,2015,1338,0,0
798,-314,0,0,0,0,0,0,0,0,0,-1,2022,1338,0,0
805,-314,0,0,0,0,0,0,0,0,0,-1,2029,1338,0,0
812,-314,0,0,0,0,0,0,0,0,0,-1,2036,1338,0,0
-700,-321,0,0,0,0,0,0,0,0,0,-1,524,1345,0,0
-693,-321,0,0,0,0,0,0,0,0,0,-1,531,1345,0,0
-686,-321,0,0,0,0,0,0,0,0,0,-1,538,1345,0,0
-679,-321,0,0,0,0,0,0,0,0,0,-1,545,1345,0,0
-672,-321,0,0,0,0,0,0,0,0,0,-1,552,1345,0,0
-665,-321,0,0,0,0,0,0,0,0,0,-1,559,1345,0,0
-658,-321,0,0,0,0,0,0,0,0,0,-1,566,1345,0,0
-651,-321,0,0,0,0,0,0,0,0,0,-1,573,1345,0,0
-644,-321,-58.7329,10.2313,0,0,0,0,0,0,0,-1,580,1345,-58.7329,-10.2313
-637,-321,-59.9981,9.06421,0,0,0,0,0,0,0,-1,587,1345,-59.9981,-9.06417
-630,-321,-61.377,8.07166,0,0,0,0,0,0,0,-1,594,1345,-61.3769,-8.07168
-623,-321,-13.2242,3.14148,0,0,0,0,0,0,0,-1,601,1345,-13.2243,-3.14146
-616,-321,-11.6754,3.13794,0,0,0,0,0,0,0,-1,608,1345,-11.6754,-3.13789
-609,-321,-7.95209,1.14758,0,0,0,0,0,0,0,-1,615,1345,-7.95208,-1.14757
-602,-321,-8.85791,2.50049,0,0,0,0,0,0,0,-1,622,1345,-8.85791,-2.50048
-595,-321,-19.8463,5.36584,0,0,0,0,0,0,0,-1,629,1345,-19.8462,-5.36589
-588,-321,-27.6356,9.14258,0,0,0,0,0,0,0,-1,636,1345,-27.6355,-9.14263
-581,-321,-27.4879,9.96814,0.00348241,0.00245052,0.00176704,0.00480729,0.00112564,0.643355,0.00290332,0.0150271,643,1345,-27.4878,-9.96808
-574,-321,-27.5469,10.7185,0.00306065,0.00178053,0.00130245,0.00387182,0.000969365,0.557015,0.00232641,0.0161157,650,1345,-27.5469,-10.7185
-567,-321,-27.543,11.4709,0.00288839,0.00128006,0.0010863,0.00343579,0.000732655,0.466773,0.00208957,0.0212786,657,1345,-27.543,-11.4709
-560,-321,-27.5522,12.2631,0.00299716,0.000892415,0.00107284,0.00344761,0.000441964,0.397515,0.00216616,0.023878,664,1345,-27.5523,-12.2631
-553,-321,-27.5953,12.9548,0.00322457,0.000527991,0.00118821,0.00367342,7.91386e-05,0.361185,0.002423,0.0258888,671,1345,-27.5953,-12.9548
-546,-321,-27.6743,13.719,0.00373438,0.000273876,0.00151649,0.00430489,-0.000296638,0.359828,0.00297374,0.0255305,678,1345,-27.6743,-13.719
-539,-321,-27.7219,14.4823,0.00451031,7.79417e-05,0.00199359,0.00527504,-0.000686792,0.366286,0.00376655,0.0226129,685,1345,-27.7219,-14.4823
-532,-321,-27.6039,15.2502,0.00565474,-7.07829e-05,0.00264372,0.00668873,-0.00110477,0.37282,0.00486937,0.036552,692,1345,-27.6039,-15.2502
-525,-321,-27.6013,16.0297,0,0,0,0,0,0,0,-1,699,1345,-27.6013,-16.0297
-518,-321,-10.3564,6.75696,0,0,0,0,0,0,0,-1,706,1345,-10.3564,-6.75694
-511,-321,-9.3302,5.29297,0,0,0,0,0,0,0,-1,713,1345,-9.33023,-5.29294
-504,-321,-10.4713,0.0145264,0,0,0,0,0,0,0,-1,720,1345,-10.4713,-0.0145296
-497,-321,-9.96771,0.313599,0,0,0,0,0,0,0,-1,727,1345,-9.96769,-0.313618
-490,-321,-10.7631,0.973511,0,0,0,0,0,0,0,-1,734,1345,-10.7631,-0.97353
-483,-321,-17.5908,0.2323,0,0,0,0,0,0,0,-1,741,1345,-17.5908,-0.232355
-476,-321,-17.2915,0.297363,0,0,0,0,0,0,0,-1,748,1345,-17.2915,-0.297342
-469,-321,-17.2441,0.478027,0,0,0,0,0,0,0,-1,755,1345,-17.2441,-0.477994
-462,-321,-17.1672,0.526489,0,0,0,0,0,0,0,-1,762,1345,-17.1672,-0.526533
-455,-321,0,0,0,0,0,0,0,0,0,-1,769,1345,0,0
-448,-321,0,0,0,0,0,0,0,0,0,-1,776,1345,0,0
-441,-321,0,0,0,0,0,0,0,0,0,-1,783,1345,0,0
-434,-321,0,0,0,0,0,0,0,0,0,-1,790,1345,0,0
-427,-321,0,0,0,0,0,0,0,0,0,-1,797,1345,0,0
-420,-321,0,0,0,0,0,0,0,0,0,-1,804,1345,0,0
-413,-321,0,0,0,0,0,0,0,0,0,-1,811,1345,0,0
-406,-321,0,0,0,0,0,0,0,0,0,-1,818,1345,0,0
-399,-321,0,0,0,0,0,0,0,0,0,-1,825,1345,0,0
-392,-321,0,0,0,0,0,0,0,0,0,-1,832,1345,0,0
-385,-321,0,0,0,0,0,0,0,0,0,-1,839,1345,0,0
-378,-321,0,0,0,0,0,0,0,0,0,-1,846,1345,0,0
-371,-321,0,0,0,0,0,0,0,0,0,-1,853,1345,0,0
-364,-321,0,0,0,0,0,0,0,0,0,-1,860,1345,0,0
-357,-321,0,0,0,0,0,0,0,0,0,-1,867,1345,0,0
-350,-321,0,0,0,0,0,0,0,0,0,-1,874,1345,0,0
-343,-321,0,0,0,0,0,0,0,0,0,-1,881,1345,0,0
-336,-321,0,0,0,0,0,0,0,0,0,-1,888,1345,0,0
-329,-321,0,0,0,0,0,0,0,0,0,-1,895,1345,0,0
-322,-321,0,0,0,0,0,0,0,0,0,-1,902,1345,0,0
-315,-321,0,0,0,0,0,0,0,0,0,-1,909,1345,0,0
-308,-321,0,0,0,0,0,0,0,0,0,-1,916,1345,0,0
-301,-321,0,0,0,0,0,0,0,0,0,-1,923,1345,0,0
-294,-321,0,0,0,0,0,0,0,0,0,-1,930,1345,0,0
-287,-321,0,0,0,0,0,0,0,0,0,-1,937,1345,0,0
-280,-321,0,0,0,0,0,0,0,0,0,-1,944,1345,0,0
-273,-321,0,0,0,0,0,0,0,0,0,-1,951,1345,0,0
-266,-321,0,0,0,0,0,0,0,0,0,-1,958,1345,0,0
-259,-321,0,0,0,0,0,0,0,0,0,-1,965,1345,0,0
-252,-321,0,0,0,0,0,0,0,0,0,-1,972,1345,0,0
-245,-321,0,0,0,0,0,0,0,0,0,-1,979,1345,0,0
-238,-321,0,0,0,0,0,0,0,0,0,-1,986,1345,0,0
-231,-321,0,0,0,0,0,0,0,0,0,-1,993,1345,0,0
-224,-321,0,0,0,0,0,0,0,0,0,-1,1000,1345,0,0
-217,-321,0,0,0,0,0,0,0,0,0,-1,1007,1345,0,0
-210,-321,0,0,0,0,0,0,0,0,0,-1,1014,1345,0,0
-203,-321,0,0,0,0,0,0,0,0,0,-1,1021,1345,0,0
-196,-321,0,0,0,0,0,0,0,0,0,-1,1028,1345,0,0
-189,-321,0,0,0,0,0,0,0,0,0,-1,1035,1345,0,0
-182,-321,0,0,0,0,0,0,0,0,0,-1,1042,1345,0,0
-175,-321,0,0,0,0,0,0,0,0,0,-1,1049,1345,0,0
-168,-321,0,0,0,0,0,0,0,0,0,-1,1056,1345,0,0
-161,-321,0,0,0,0,0,0,0,0,0,-1,1063,1345,0,0
-154,-321,0,0,0,0,0,0,0,0,0,-1,1070,1345,0,0
-147,-321,0,0,0,0,0,0,0,0,0,-1,1077,1345,0,0
-140,-321,0,0,0,0,0,0,0,0,0,-1,1084,1345,0,0
-133,-321,0,0,0,0,0,0,0,0,0,-1,1091,1345,0,0
-126,-321,0,0,0,0,0,0,0,0,0,-1,1098,1345,0,0
-119,-321,0,0,0,0,0,0,0,0,0,-1,1105,1345,0,0
-112,-321,0,0,0,0,0,0,0,0,0,-1,1112,1345,0,0
-105,-321,0,0,0,0,0,0,0,0,0,-1,1119,1345,0,0
-98,-321,0,0,0,0,0,0,0,0,0,-1,1126,1345,0,0
-91,-321,0,0,0,0,0,0,0,0,0,-1,1133,1345,0,0
-84,-321,0,0,0,0,0,0,0,0,0,-1,1140,1345,0,0
-77,-321,0,0,0,0,0,0,0,0,0,-1,1147,1345,0,0
-70,-321,0,0,0,0,0,0,0,0,0,-1,1154,1345,0,0
-63,-321,0,0,0,0,0,0,0,0,0,-1,1161,1345,0,0
-56,-321,0,0,0,0,0,0,0,0,0,-1,1168,1345,0,0
-49,-321,0,0,0,0,0,0,0,0,0,-1,1175,1345,0,0
-42,-321,0,0,0,0,0,0,0,0,0,-1,1182,1345,0,0
-35,-321,0,0,0,0,0,0,0,0,0,-1,1189,1345,0,0
-28,-321,0,0,0,0,0,0,0,0,0,-1,1196,1345,0,0
-21,-321,0,0,0,0,0,0,0,0,0,-1,1203,1345,0,0
-14,-321,0,0,0,0,0,0,0,0,0,-1,1210,1345,0,0
-7,-321,0,0,0,0,0,0,0,0,0,-1,1217,1345,0,0
0,-321,0,0,0,0,0,0,0,0,0,-1,1224,1345,0,0
7,-321,0,0,0,0,0,0,0,0,0,-1,1231,1345,0,0
14,-321,0,0,0,0,0,0,0,0,0,-1,1238,1345,0,0
21,-321,0,0,0,0,0,0,0,0,0,-1,1245,1345,0,0
28,-321,0,0,0,0,0,0,0,0,0,-1,1252,1345,0,0
35,-321,0,0,0,0,0,0,0,0,0,-1,1259,1345,0,0
42,-321,0,0,0,0,0,0,0,0,0,-1,1266,1345,0,0
49,-321,0,0,0,0,0,0,0,0,0,-1,1273,1345,0,0
56,-321,0,0,0,0,0,0,0,0,0,-1,1280,1345,0,0
63,-321,0,0,0,0,0,0,0,0,0,-1,1287,1345,0,0
70,-321,0,0,0,0,0,0,0,0,0,-1,1294,1345,0,0
77,-321,0,0,0,0,0,0,0,0,0,-1,1301,1345,0,0
84,-321,0,0,0,0,0,0,0,0,0,-1,1308,1345,0,0
91,-321,0,0,0,0,0,0,0,0,0,-1,1315,1345,0,0
98,-321,0,0,0,0,0,0,0,0,0,-1,1322,1345,0,0
105,-321,0,0,0,0,0,0,0,0,0,-1,1329,1345,0,0
112,-321,0,0,0,0,0,0,0,0,0,-1,1336,1345,0,0
119,-321,0,0,0,0,0,0,0,0,0,-1,1343,1345,0,0
126,-321,0,0,0,0,0,0,0,0,0,-1,1350,1345,0,0
133,-321,0,0,0,0,0,0,0,0,0,-1,1357,1345,0,0
140,-321,0,0,0,0,0,0,0,0,0,-1,1364,1345,0,0
147,-321,0,0,0,0,0,0,0,0,0,-1,1371,1345,0,0
154,-321,0,0,0,0,0,0,0,0,0,-1,1378,1345,0,0
161,-321,0,0,0,0,0,0,0,0,0,-1,1385,1345,0,0
168,-321,0,0,0,0,0,0,0,0,0,-1,1392,1345,0,0
175,-321,0,0,0,0,0,0,0,0,0,-1,1399,1345,0,0
182,-321,0,0,0,0,0,0,0,0,0,-1,1406,1345,0,0
189,-321,0,0,0,0,0,0,0,0,0,-1,1413,1345,0,0
196,-321,0,0,0,0,0,0,0,0,0,-1,1420,1345,0,0
203,-321,0,0,0,0,0,0,0,0,0,-1,1427,1345,0,0
210,-321,0,0,0,0,0,0,0,0,0,-1,1434,1345,0,0
217,-321,0,0,0,0,0,0,0,0,0,-1,1441,1345,0,0
224,-321,0,0,0,0,0,0,0,0,0,-1,1448,1345,0,0
231,-321,0,0,0,0,0,0,0,0,0,-1,1455,1345,0,0
238,-321,0,0,0,0,0,0,0,0,0,-1,1462,1345,0,0
245,-321,0,0,0,0,0,0,0,0,0,-1,1469,1345,0,0
252,-321,0,0,0,0,0,0,0,0,0,-1,1476,1345,0,0
259,-321,0,0,0,0,0,0,0,0,0,-1,1483,1345,0,0
266,-321,0,0,0,0,0,0,0,0,0,-1,1490,1345,0,0
273,-321,0,0,0,0,0,0,0,0,0,-1,1497,1345,0,0
280,-321,0,0,0,0,0,0,0,0,0,-1,1504,1345,0,0
287,-321,0,0,0,0,0,0,0,0,0,-1,1511,1345,0,0
294,-321,0,0,0,0,0,0,0,0,0,-1,1518,1345,0,0
301,-321,0,0,0,0,0,0,0,0,0,-1,1525,1345,0,0
308,-321,0,0,0,0,0,0,0,0,0,-1,1532,1345,0,0
315,-321,0,0,0,0,0,0,0,0,0,-1,1539,1345,0,0
322,-321,0,0,0,0,0,0,0,0,0,-1,1546,1345,0,0
329,-321,0,0,0,0,0,0,0,0,0,-1,1553,1345,0,0
336,-321,0,0,0,0,0,0,0,0,0,-1,1560,1345,0,0
343,-321,0,0,0,0,0,0,0,0,0,-1,1567,1345,0,0
350,-321,0,0,0,0,0,0,0,0,0,-1,1574,1345,0,0
357,-321,0,0,0,0,0,0,0,0,0,-1,1581,1345,0,0
364,-321,0,0,0,0,0,0,0,0,0,-1,1588,1345,0,0
371,-321,0,0,0,0,0,0,0,0,0,-1,1595,1345,0,0
378,-321,0,0,0,0,0,0,0,0,0,-1,1602,1345,0,0
385,-321,0,0,0,0,0,0,0,0,0,-1,1609,1345,0,0
392,-321,0,0,0,0,0,0,0,0,0,-1,1616,1345,0,0
399,-321,0,0,0,0,0,0,0,0,0,-1,1623,1345,0,0
406,-321,0,0,0,0,0,0,0,0,0,-1,1630,1345,0,0
413,-321,0,0,0,0,0,0,0,0,0,-1,1637,1345,0,0
420,-321,0,0,0,0,0,0,0,0,0,-1,1644,1345,0,0
427,-321,0,0,0,0,0,0,0,0,0,-1,1651,1345,0,0
434,-321,0,0,0,0,0,0,0,0,0,-1,1658,1345,0,0
441,-321,0,0,0,0,0,0,0,0,0,-1,1665,1345,0,0
448,-321,0,0,0,0,0,0,0,0,0,-1,1672,1345,0,0
455,-321,0,0,0,0,0,0,0,0,0,-1,1679,1345,0,0
462,-321,0,0,0,0,0,0,0,0,0,-1,1686,1345,0,0
469,-321,0,0,0,0,0,0,0,0,0,-1,1693,1345,0,0
476,-321,0,0,0,0,0,0,0,0,0,-1,1700,1345,0,0
483,-321,0,0,0,0,0,0,0,0,0,-1,1707,1345,0,0
490,-321,0,0,0,0,0,0,0,0,0,-1,1714,1345,0,0
497,-321,0,0,0,0,0,0,0,0,0,-1,1721,1345,0,0
504,-321,0,0,0,0,0,0,0,0,0,-1,1728,1345,0,0
511,-321,0,0,0,0,0,0,0,0,0,-1,1735,1345,0,0
518,-321,0,0,0,0,0,0,0,0,0,-1,1742,1345,0,0
525,-321,0,0,0,0,0,0,0,0,0,-1,1749,1345,0,0
532,-321,0,0,0,0,0,0,0,0,0,-1,1756,1345,0,0
539,-321,0,0,0,0,0,0,0,0,0,-1,1763,1345,0,0
546,-321,0,0,0,0,0,0,0,0,0,-1,1770,1345,0,0
553,-321,0,0,0,0,0,0,0,0,0,-1,1777,1345,0,0
560,-321,0,0,0,0,0,0,0,0,0,-1,1784,1345,0,0
567,-321,0,0,0,0,0,0,0,0,0,-1,1791,1345,0,0
574,-321,0,0,0,0,0,0,0,0,0,-1,1798,1345,0,0
581,-321,66.1073,1.6543,0,0,0,0,0,0,0,-1,1805,1345,66.1073,-1.65427
588,-321,66.6576,0.7948,0,0,0,0,0,0,0,-1,1812,1345,66.6575,-0.794774
595,-321,67.2585,-0.216431,0,0,0,0,0,0,0,-1,1819,1345,67.2586,0.216484
602,-321,60.3523,1.24133,0,0,0,0,0,0,0,-1,1826,1345,60.3523,-1.2413
609,-321,48.311,3.39575,0,0,0,0,0,0,0,-1,1833,1345,48.311,-3.39571
616,-321,37.8107,2.58704,0,0,0,0,0,0,0,-1,1840,1345,37.8106,-2.58705
623,-321,37.6854,3.68933,0,0,0,0,0,0,0,-1,1847,1345,37.6854,-3.68931
630,-321,23.6674,4.34106,0,0,0,0,0,0,0,-1,1854,1345,23.6674,-4.34112
637,-321,21.7925,6.79224,0,0,0,0,0,0,0,-1,1861,1345,21.7925,-6.7922
644,-321,16.8844,6.71973,0,0,0,0,0,0,0,-1,1868,1345,16.8844,-6.71971
651,-321,27.4924,10.0319,0,0,0,0,0,0,0,-1,1875,1345,27.4924,-10.0319
658,-321,44.3352,17.0469,0,0,0,0,0,0,0,-1,1882,1345,44.3352,-17.0469
665,-321,44.4218,16.3799,0.00174674,-0.00113155,-0.000239989,0.00176661,-0.00115142,-0.0826187,0.00169716,0.0284954,1889,1345,44.4218,-16.3798
672,-321,44.4623,15.6185,0.0013287,-0.000335911,-0.000433329,0.00143475,-0.000441958,-0.24001,0.00113293,0.0146218,1896,1345,44.4623,-15.6185
679,-321,44.4491,14.8761,0.00139553,-0.00017337,-0.000455222,0.00151805,-0.000295887,-0.262907,0.00112372,0.0127337,1903,1345,44.4491,-14.8761
686,-321,44.3873,14.1359,0.0014399,-7.62508e-05,-0.000440513,0.0015586,-0.000194948,-0.263201,0.00110977,0.0135681,1910,1345,44.3874,-14.1359
693,-321,44.3544,13.426,0.00147733,4.90803e-05,-0.000401679,0.00158255,-5.61364e-05,-0.256186,0.00107423,0.0129474,1917,1345,44.3544,-13.426
700,-321,44.3539,12.704,0.00150016,0.000182417,-0.000317072,0.00157248,0.000110093,-0.224262,0.00101362,0.0132377,1924,1345,44.3539,-12.7039
707,-321,44.3351,11.9828,0.00151597,0.000315359,-0.000187728,0.00154464,0.000286691,-0.151543,0.000948745,0.0159425,1931,1345,44.3351,-11.9828
714,-321,44.2834,11.2767,0.00150081,0.000451213,-3.17062e-06,0.00150082,0.000451203,-0.00302075,0.000889164,0.0148622,1938,1345,44.2834,-11.2767
721,-321,44.1936,10.5824,0.00159011,0.000496367,0.000297636,0.00166586,0.000420619,0.24921,0.00100029,0.0406611,1945,1345,44.1936,-10.5824
728,-321,44.1958,9.95752,0,0,0,0,0,0,0,-1,1952,1345,44.1958,-9.95757
735,-321,22.0081,5.65479,0,0,0,0,0,0,0,-1,1959,1345,22.008,-5.65481
742,-321,24.5398,5.05725,0,0,0,0,0,0,0,-1,1966,1345,24.5398,-5.05729
749,-321,24.0675,5.4458,0,0,0,0,0,0,0,-1,1973,1345,24.0675,-5.44581
756,-321,19.6251,4.98315,0,0,0,0,0,0,0,-1,1980,1345,19.6251,-4.98311
763,-321,19.6747,4.61438,0,0,0,0,0,0,0,-1,1987,1345,19.6747,-4.61436
770,-321,0,0,0,0,0,0,0,0,0,-1,1994,1345,0,0
777,-321,0,0,0,0,0,0,0,0,0,-1,2001,1345,0,0
784,-321,0,0,0,0,0,0,0,0,0,-1,2008,1345,0,0
791,-321,0,0,0,0,0,0,0,0,0,-1,2015,1345,0,0
798,-321,0,0,0,0,0,0,0,0,0,-1,2022,1345,0,0
805,-321,0,0,0,0,0,0,0,0,0,-1,2029,1345,0,0
812,-321,0,0,0,0,0,0,0,0,0,-1,2036,1345,0,0
-700,-328,0,0,0,0,0,0,0,0,0,-1,524,1352,0,0
-693,-328,0,0,0,0,0,0,0,0,0,-1,531,1352,0,0
-686,-328,0,0,0,0,0,0,0,0,0,-1,538,1352,0,0
-679,-328,0,0,0,0,0,0,0,0,0,-1,545,1352,0,0
-672,-328,0,0,0,0,0,0,0,0,0,-1,552,1352,0,0
-665,-328,0,0,0,0,0,0,0,0,0,-1,559,1352,0,0
-658,-328,0,0,0,0,0,0,0,0,0,-1,566,1352,0,0
-651,-328,0,0,0,0,0,0,0,0,0,-1,573,1352,0,0
-644,-328,0,0,0,0,0,0,0,0,0,-1,580,1352,0,0
-637,-328,-61.3883,10.1125,0,0,0,0,0,0,0,-1,587,1352,-61.3883,-10.1126
-630,-328,-62.8012,9.14563,0,0,0,0,0,0,0,-1,594,1352,-62.8012,-9.14564
-623,-328,-10.7739,4.55042,0,0,0,0,0,0,0,-1,601,1352,-10.7739,-4.55041
-616,-328,-8.22198,-0.25708,0,0,0,0,0,0,0,-1,608,1352,-8.22201,0.257067
-609,-328,-7.87439,0.192871,0,0,0,0,0,0,0,-1,615,1352,-7.87441,-0.192822
-602,-328,-7.63062,1.31665,0,0,0,0,0,0,0,-1,622,1352,-7.63064,-1.3166
-595,-328,-9.42639,2.93494,0,0,0,0,0,0,0,-1,629,1352,-9.42638,-2.93499
-588,-328,-26.8763,8.96472,0,0,0,0,0,0,0,-1,636,1352,-26.8763,-8.96478
-581,-328,-26.7723,9.94165,0.00456026,0.00271913,0.00187647,0.00572982,0.00154958,0.557355,0.00342236,0.0279129,643,1352,-26.7723,-9.94165
-574,-328,-26.7744,10.7634,0.00364289,0.00199126,0.00139846,0.00444117,0.00119298,0.518689,0.00265405,0.01459,650,1352,-26.7744,-10.7634
-567,-328,-26.7969,11.5247,0.00317129,0.00147247,0.00116595,0.00376442,0.000879337,0.470593,0.0022739,0.0194166,657,1352,-26.7968,-11.5246
-560,-328,-26.8135,12.2983,0.00301321,0.00105054,0.00111897,0.00352019,0.000543556,0.425418,0.00218823,0.0261969,664,1352,-26.8136,-12.2983
-553,-328,-26.8458,13.0166,0.00308217,0.000677702,0.00119893,0.00357782,0.000182058,0.39201,0.0023269,0.0278677,671,1352,-26.8458,-13.0167
-546,-328,-26.9008,13.7538,0.00344156,0.00039347,0.00144537,0.00401795,-0.000182912,0.379453,0.00274164,0.0271317,678,1352,-26.9008,-13.7538
-539,-328,-26.9633,14.5453,0.00402983,0.000162223,0.00181849,0.00475055,-0.000558501,0.377339,0.00336867,0.0227873,685,1352,-26.9632,-14.5453
-532,-328,-26.9394,15.3047,0.0048959,-2.83576e-05,0.0023278,0.0058221,-0.000954551,0.378681,0.00423559,0.0190866,692,1352,-26.9394,-15.3047
-525,-328,-26.9526,16.1284,0.00601711,-0.000355428,0.0029104,0.00714625,-0.00148457,0.37009,0.00532841,0.0341687,699,1352,-26.9526,-16.1284
-518,-328,-27.111,17.0105,0,0,0,0,0,0,0,-1,706,1352,-27.1111,-17.0105
-511,-328,-9.39868,7.16113,0,0,0,0,0,0,0,-1,713,1352,-9.39869,-7.16113
-504,-328,-8.60626,-0.905762,0,0,0,0,0,0,0,-1,720,1352,-8.60623,0.905787
-497,-328,-9.29102,-0.0517578,0,0,0,0,0,0,0,-1,727,1352,-9.29104,0.0518175
-490,-328,-10.0663,0.882813,0,0,0,0,0,0,0,-1,734,1352,-10.0663,-0.882795
-483,-328,-10.8181,1.72375,0,0,0,0,0,0,0,-1,741,1352,-10.8181,-1.72374
-476,-328,-16.8951,-0.150757,0,0,0,0,0,0,0,-1,748,1352,-16.8951,0.150795
-469,-328,-16.8412,0.00158691,0,0,0,0,0,0,0,-1,755,1352,-16.8412,-0.00161515
-462,-328,-16.3546,-0.203491,0,0,0,0,0,0,0,-1,762,1352,-16.3545,0.203532
-455,-328,0,0,0,0,0,0,0,0,0,-1,769,1352,0,0
-448,-328,0,0,0,0,0,0,0,0,0,-1,776,1352,0,0
-441,-328,0,0,0,0,0,0,0,0,0,-1,783,1352,0,0
-434,-328,0,0,0,0,0,0,0,0,0,-1,790,1352,0,0
-427,-328,0,0,0,0,0,0,0,0,0,-1,797,1352,0,0
-420,-328,0,0,0,0,0,0,0,0,0,-1,804,1352,0,0
-413,-328,0,0,0,0,0,0,0,0,0,-1,811,1352,0,0
-406,-328,0,0,0,0,0,0,0,0,0,-1,818,1352,0,0
-399,-328,0,0,0,0,0,0,0,0,0,-1,825,1352,0,0
-392,-328,0,0,0,0,0,0,0,0,0,-1,832,1352,0,0
-385,-328,0,0,0,0,0,0,0,0,0,-1,839,1352,0,0
-378,-328,0,0,0,0,0,0,0,0,0,-1,846,1352,0,0
-371,-328,0,0,0,0,0,0,0,0,0,-1,853,1352,0,0
-364,-328,0,0,0,0,0,0,0,0,0,-1,860,1352,0,0
-357,-328,0,0,0,0,0,0,0,0,0,-1,867,1352,0,0
-350,-328,0,0,0,0,0,0,0,0,0,-1,874,1352,0,0
-343,-328,0,0,0,0,0,0,0,0,0,-1,881,1352,0,0
-336,-328,0,0,0,0,0,0,0,0,0,-1,888,1352,0,0
-329,-328,0,0,0,0,0,0,0,0,0,-1,895,1352,0,0
-322,-328,0,0,0,0,0,0,0,0,0,-1,902,1352,0,0
-315,-328,0,0,0,0,0,0,0,0,0,-1,909,1352,0,0
-308,-328,0,0,0,0,0,0,0,0,0,-1,916,1352,0,0
-301,-328,0,0,0,0,0,0,0,0,0,-1,923,1352,0,0
-294,-328,0,0,0,0,0,0,0,0,0,-1,930,1352,0,0
-287,-328,0,0,0,0,0,0,0,0,0,-1,937,1352,0,0
-280,-328,0,0,0,0,0,0,0,0,0,-1,944,1352,0,0
-273,-328,0,0,0,0,0,0,0,0,0,-1,951,1352,0,0
-266,-328,0,0,0,0,0,0,0,0,0,-1,958,1352,0,0
-259,-328,0,0,0,0,0,0,0,0,0,-1,965,1352,0,0
-252,-328,0,0,0,0,0,0,0,0,0,-1,972,1352,0,0
-245,-328,0,0,0,0,0,0,0,0,0,-1,979,1352,0,0
-238,-328,0,0,0,0,0,0,0,0,0,-1,986,1352,0,0
-231,-328,0,0,0,0,0,0,0,0,0,-1,993,1352,0,0
-224,-328,0,0,0,0,0,0,0,0,0,-1,1000,1352,0,0
-217,-328,0,0,0,0,0,0,0,0,0,-1,1007,1352,0,0
-210,-328,0,0,0,0,0,0,0,0,0,-1,1014,1352,0,0
-203,-328,0,0,0,0,0,0,0,0,0,-1,1021,1352,0,0
-196,-328,0,0,0,0,0,0,0,0,0,-1,1028,1352,0,0
-189,-328,0,0,0,0,0,0,0,0,0,-1,1035,1352,0,0
-182,-328,0,0,0,0,0,0,0,0,0,-1,1042,1352,0,0
-175,-328,0,0,0,0,0,0,0,0,0,-1,1049,1352,0,0
-168,-328,0,0,0,0,0,0,0,0,0,-1,1056,1352,0,0
-161,-328,0,0,0,0,0,0,0,0,0,-1,1063,1352,0,0
-154,-328,0,0,0,0,0,0,0,0,0,-1,1070,1352,0,0
-147,-328,0,0,0,0,0,0,0,0,0,-1,1077,1352,0,0
-140,-328,0,0,0,0,0,0,0,0,0,-1,1084,1352,0,0
-133,-328,0,0,0,0,0,0,0,0,0,-1,1091,1352,0,0
-126,-328,0,0,0,0,0,0,0,0,0,-1,1098,1352,0,0
-119,-328,0,0,0,0,0,0,0,0,0,-1,1105,1352,0,0
-112,-328,0,0,0,0,0,0,0,0,0,-1,1112,1352,0,0
-105,-328,0,0,0,0,0,0,0,0,0,-1,1119,1352,0,0
-98,-328,0,0,0,0,0,0,0,0,0,-1,1126,1352,0,0
-91,-328,0,0,0,0,0,0,0,0,0,-1,1133,1352,0,0
-84,-328,0,0,0,0,0,0,0,0,0,-1,1140,1352,0,0
-77,-328,0,0,0,0,0,0,0,0,0,-1,1147,1352,0,0
-70,-328,0,0,0,0,0,0,0,0,0,-1,1154,1352,0,0
-63,-328,0,0,0,0,0,0,0,0,0,-1,1161,1352,0,0
-56,-328,0,0,0,0,0,0,0,0,0,-1,1168,1352,0,0
-49,-328,0,0,0,0,0,0,0,0,0,-1,1175,1352,0,0
-42,-328,0,0,0,0,0,0,0,0,0,-1,1182,1352,0,0
-35,-328,0,0,0,0,0,0,0,0,0,-1,1189,1352,0,0
-28,-328,0,0,0,0,0,0,0,0,0,-1,1196,1352,0,0
-21,-328,0,0,0,0,0,0,0,0,0,-1,1203,1352,0,0
-14,-328,0,0,0,0,0,0,0,0,0,-1,1210,1352,0,0
-7,-328,0,0,0,0,0,0,0,0,0,-1,1217,1352,0,0
0,-328,0,0,0,0,0,0,0,0,0,-1,1224,1352,0,0
7,-328,0,0,0,0,0,0,0,0,0,-1,1231,1352,0,0
14,-328,0,0,0,0,0,0,0,0,0,-1,1238,1352,0,0
21,-328,0,0,0,0,0,0,0,0,0,-1,1245,1352,0,0
28,-328,0,0,0,0,0,0,0,0,0,-1,1252,1352,0,0
35,-328,0,0,0,0,0,0,0,0,0,-1,1259,1352,0,0
42,-328,0,0,0,0,0,0,0,0,0,-1,1266,1352,0,0
49,-328,0,0,0,0,0,0,0,0,0,-1,1273,1352,0,0
56,-328,0,0,0,0,0,0,0,0,0,-1,1280,1352,0,0
63,-328,0,0,0,0,0,0,0,0,0,-1,1287,1352,0,0
70,-328,0,0,0,0,0,0,0,0,0,-1,1294,1352,0,0
77,-328,0,0,0,0,0,0,0,0,0,-1,1301,1352,0,0
84,-328,0,0,0,0,0,0,0,0,0,-1,1308,1352,0,0
91,-328,0,0,0,0,0,0,0,0,0,-1,1315,1352,0,0
98,-328,0,0,0,0,0,0,0,0,0,-1,1322,1352,0,0
105,-328,0,0,0,0,0,0,0,0,0,-1,1329,1352,0,0
112,-328,0,0,0,0,0,0,0,0,0,-1,1336,1352,0,0
119,-328,0,0,0,0,0,0,0,0,0,-1,1343,1352,0,0
126,-328,0,0,0,0,0,0,0,0,0,-1,1350,1352,0,0
133,-328,0,0,0,0,0,0,0,0,0,-1,1357,1352,0,0
140,-328,0,0,0,0,0,0,0,0,0,-1,1364,1352,0,0
147,-328,0,0,0,0,0,0,0,0,0,-1,1371,1352,0,0
154,-328,0,0,0,0,0,0,0,0,0,-1,1378,1352,0,0
161,-328,0,0,0,0,0,0,0,0,0,-1,1385,1352,0,0
168,-328,0,0,0,0,0,0,0,0,0,-1,1392,1352,0,0
175,-328,0,0,0,0,0,0,0,0,0,-1,1399,1352,0,0
182,-328,0,0,0,0,0,0,0,0,0,-1,1406,1352,0,0
189,-328,0,0,0,0,0,0,0,0,0,-1,1413,1352,0,0
196,-328,0,0,0,0,0,0,0,0,0,-1,1420,1352,0,0
203,-328,0,0,0,0,0,0,0,0,0,-1,1427,1352,0,0
210,-328,0,0,0,0,0,0,0,0,0,-1,1434,1352,0,0
217,-328,0,0,0,0,0,0,0,0,0,-1,1441,1352,0,0
224,-328,0,0,0,0,0,0,0,0,0,-1,1448,1352,0,0
231,-328,0,0,0,0,0,0,0,0,0,-1,1455,1352,0,0
238,-328,0,0,0,0,0,0,0,0,0,-1,1462,1352,0,0
245,-328,0,0,0,0,0,0,0,0,0,-1,1469,1352,0,0
252,-328,0,0,0,0,0,0,0,0,0,-1,1476,1352,0,0
259,-328,0,0,0,0,0,0,0,0,0,-1,1483,1352,0,0
266,-328,0,0,0,0,0,0,0,0,0,-1,1490,1352,0,0
273,-328,0,0,0,0,0,0,0,0,0,-1,1497,1352,0,0
280,-328,0,0,0,0,0,0,0,0,0,-1,1504,1352,0,0
287,-328,0,0,0,0,0,0,0,0,0,-1,1511,1352,0,0
294,-328,0,0,0,0,0,0,0,0,0,-1,1518,1352,0,0
301,-328,0,0,0,0,0,0,0,0,0,-1,1525,1352,0,0
308,-328,0,0,0,0,0,0,0,0,0,-1,1532,1352,0,0
315,-328,0,0,0,0,0,0,0,0,0,-1,1539,1352,0,0
322,-328,0,0,0,0,0,0,0,0,0,-1,1546,1352,0,0
329,-328,0,0,0,0,0,0,0,0,0,-1,1553,1352,0,0
336,-328,0,0,0,0,0,0,0,0,0,-1,1560,1352,0,0
343,-328,0,0,0,0,0,0,0,0,0,-1,1567,1352,0,0
350,-328,0,0,0,0,0,0,0,0,0,-1,1574,1352,0,0
357,-328,0,0,0,0,0,0,0,0,0,-1,1581,1352,0,0
364,-328,0,0,0,0,0,0,0,0,0,-1,1588,1352,0,0
371,-328,0,0,0,0,0,0,0,0,0,-1,1595,1352,0,0
378,-328,0,0,0,0,0,0,0,0,0,-1,1602,1352,0,0
385,-328,0,0,0,0,0,0,0,0,0,-1,1609,1352,0,0
392,-328,0,0,0,0,0,0,0,0,0,-1,1616,1352,0,0
399,-328,0,0,0,0,0,0,0,0,0,-1,1623,1352,0,0
406,-328,0,0,0,0,0,0,0,0,0,-1,1630,1352,0,0
413,-328,0,0,0,0,0,0,0,0,0,-1,1637,1352,0,0
420,-328,0,0,0,0,0,0,0,0,0,-1,1644,1352,0,0
427,-328,0,0,0,0,0,0,0,0,0,-1,1651,1352,0,0
434,-328,0,0,0,0,0,0,0,0,0,-1,1658,1352,0,0
441,-328,0,0,0,0,0,0,0,0,0,-1,1665,1352,0,0
448,-328,0,0,0,0,0,0,0,0,0,-1,1672,1352,0,0
455,-328,0,0,0,0,0,0,0,0,0,-1,1679,1352,0,0
462,-328,0,0,0,0,0,0,0,0,0,-1,1686,1352,0,0
469,-328,0,0,0,0,0,0,0,0,0,-1,1693,1352,0,0
476,-328,0,0,0,0,0,0,0,0,0,-1,1700,1352,0,0
483,-328,0,0,0,0,0,0,0,0,0,-1,1707,1352,0,0
490,-328,0,0,0,0,0,0,0,0,0,-1,1714,1352,0,0
497,-328,0,0,0,0,0,0,0,0,0,-1,1721,1352,0,0
504,-328,0,0,0,0,0,0,0,0,0,-1,1728,1352,0,0
511,-328,0,0,0,0,0,0,0,0,0,-1,1735,1352,0,0
518,-328,0,0,0,0,0,0,0,0,0,-1,1742,1352,0,0
525,-328,0,0,0,0,0,0,0,0,0,-1,1749,1352,0,0
532,-328,0,0,0,0,0,0,0,0,0,-1,1756,1352,0,0
539,-328,0,0,0,0,0,0,0,0,0,-1,1763,1352,0,0
546,-328,0,0,0,0,0,0,0,0,0,-1,1770,1352,0,0
553,-328,0,0,0,0,0,0,0,0,0,-1,1777,1352,0,0
560,-328,0,0,0,0,0,0,0,0,0,-1,1784,1352,0,0
567,-328,0,0,0,0,0,0,0,0,0,-1,1791,1352,0,0
574,-328,65.0565,3.09021,0,0,0,0,0,0,0,-1,1798,1352,65.0565,-3.09019
581,-328,66.3988,1.74048,0,0,0,0,0,0,0,-1,1805,1352,66.3989,-1.74051
588,-328,67.0304,0.506714,0,0,0,0,0,0,0,-1,1812,1352,67.0304,-0.506669
595,-328,60.5831,1.52856,0,0,0,0,0,0,0,-1,1819,1352,60.5832,-1.52861
602,-328,48.7734,3.66785,0,0,0,0,0,0,0,-1,1826,1352,48.7734,-3.66782
609,-328,37.0468,1.17407,0,0,0,0,0,0,0,-1,1833,1352,37.0468,-1.17407
616,-328,36.999,2.42859,0,0,0,0,0,0,0,-1,1840,1352,36.999,-2.42862
623,-328,34.345,5.14722,0,0,0,0,0,0,0,-1,1847,1352,34.3449,-5.14718
630,-328,22.0211,5.026,0,0,0,0,0,0,0,-1,1854,1352,22.0212,-5.02603
637,-328,21.15,5.53699,0,0,0,0,0,0,0,-1,1861,1352,21.15,-5.53704
644,-328,16.9579,6.3396,0,0,0,0,0,0,0,-1,1868,1352,16.9579,-6.33959
651,-328,36.2629,14.6906,0,0,0,0,0,0,0,-1,1875,1352,36.263,-14.6905
658,-328,43.7771,17.0524,0,0,0,0,0,0,0,-1,1882,1352,43.7771,-17.0524
665,-328,43.7847,16.3563,0.000975785,-0.000702401,-0.000130446,0.000985864,-0.00071248,-0.0771128,0.000984765,0.0154709,1889,1352,43.7847,-16.3563
672,-328,43.7465,15.6503,0.00101679,-0.0002574,-0.000343292,0.00110339,-0.000344004,-0.247117,0.000873151,0.013437,1896,1352,43.7464,-15.6503
679,-328,43.7203,14.9193,0.00124828,-0.000130732,-0.000432207,0.00137254,-0.000254997,-0.27996,0.0010108,0.0162386,1903,1352,43.7204,-14.9193
686,-328,43.6725,14.1918,0.00144744,4.55383e-06,-0.000510856,0.00160999,-0.000158002,-0.308072,0.00112969,0.0160949,1910,1352,43.6725,-14.1917
693,-328,43.6519,13.4786,0.00163686,0.000182727,-0.000581558,0.00184083,-2.12463e-05,-0.337331,0.00123436,0.0102916,1917,1352,43.6518,-13.4786
700,-328,43.6334,12.7529,0.00181385,0.000384593,-0.000631787,0.00205309,0.000145362,-0.361974,0.00132293,0.0139517,1924,1352,43.6334,-12.7529
707,-328,43.6152,12.0278,0.00194792,0.000600564,-0.000634101,0.0021994,0.000349079,-0.377573,0.00136487,0.0166498,1931,1352,43.6153,-12.0279
714,-328,43.5699,11.3007,0.00205722,0.000859788,-0.000618182,0.00231909,0.000597917,-0.400697,0.00139029,0.0173749,1938,1352,43.57,-11.3006
721,-328,43.5652,10.6389,0,0,0,0,0,0,0,-1,1945,1352,43.5652,-10.6389
728,-328,29.2787,6.74695,0,0,0,0,0,0,0,-1,1952,1352,29.2787,-6.74693
735,-328,20.8927,5.23523,0,0,0,0,0,0,0,-1,1959,1352,20.8927,-5.23528
742,-328,20.3547,4.11316,0,0,0,0,0,0,0,-1,1966,1352,20.3547,-4.11321
749,-328,20.0669,5.66321,0,0,0,0,0,0,0,-1,1973,1352,20.0669,-5.66319
756,-328,19.9543,5.50464,0,0,0,0,0,0,0,-1,1980,1352,19.9543,-5.50463
763,-328,0,0,0,0,0,0,0,0,0,-1,1987,1352,0,0
770,-328,0,0,0,0,0,0,0,0,0,-1,1994,1352,0,0
777,-328,0,0,0,0,0,0,0,0,0,-1,2001,1352,0,0
784,-328,0,0,0,0,0,0,0,0,0,-1,2008,1352,0,0
791,-328,0,0,0,0,0,0,0,0,0,-1,2015,1352,0,0
798,-328,0,0,0,0,0,0,0,0,0,-1,2022,1352,0,0
805,-328,0,0,0,0,0,0,0,0,0,-1,2029,1352,0,0
812,-328,0,0,0,0,0,0,0,0,0,-1,2036,1352,0,0
-700,-335,0,0,0,0,0,0,0,0,0,-1,524,1359,0,0
-693,-335,0,0,0,0,0,0,0,0,0,-1,531,1359,0,0
-686,-335,0,0,0,0,0,0,0,0,0,-1,538,1359,0,0
-679,-335,0,0,0,0,0,0,0,0,0,-1,545,1359,0,0
-672,-335,0,0,0,0,0,0,0,0,0,-1,552,1359,0,0
-665,-335,0,0,0,0,0,0,0,0,0,-1,559,1359,0,0
-658,-335,0,0,0,0,0,0,0,0,0,-1,566,1359,0,0
-651,-335,0,0,0,0,0,0,0,0,0,-1,573,1359,0,0
-644,-335,0,0,0,0,0,0,0,0,0,-1,580,1359,0,0
-637,-335,-62.7114,11.0491,0,0,0,0,0,0,0,-1,587,1359,-62.7114,-11.0491
-630,-335,-64.2532,9.91284,0,0,0,0,0,0,0,-1,594,1359,-64.2532,-9.91285
-623,-335,-8.43304,1.09509,0,0,0,0,0,0,0,-1,601,1359,-8.43301,-1.09507
-616,-335,-7.80927,-0.485352,0,0,0,0,0,0,0,-1,608,1359,-7.80926,0.485291
-609,-335,-7.12256,-2.03601,0,0,0,0,0,0,0,-1,615,1359,-7.12253,2.03601
-602,-335,-9.39935,2.25146,0,0,0,0,0,0,0,-1,622,1359,-9.39935,-2.25145
-595,-335,-9.54767,3.01917,0,0,0,0,0,0,0,-1,629,1359,-9.54768,-3.01911
-588,-335,-26.1543,8.95166,0,0,0,0,0,0,0,-1,636,1359,-26.1543,-8.95161
-581,-335,-25.9841,10.0619,0.00421075,0.00257529,0.00173154,0.00530793,0.0014781,0.564794,0.00316321,0.0470394,643,1359,-25.9841,-10.0619
-574,-335,-26.0096,10.7704,0.00344475,0.00197778,0.00135213,0.00424953,0.001173,0.536877,0.00253418,0.0137708,650,1359,-26.0096,-10.7703
-567,-335,-26.0067,11.5482,0.00304522,0.00152838,0.00115089,0.00366512,0.000908483,0.494065,0.00220391,0.0168401,657,1359,-26.0067,-11.5483
-560,-335,-26.0225,12.2874,0.00289016,0.00112259,0.00109518,0.00341367,0.000599073,0.445907,0.0021047,0.0249237,664,1359,-26.0225,-12.2873
-553,-335,-26.128,13.0249,0.00294142,0.00076304,0.00115953,0.00344309,0.00026137,0.408333,0.00221342,0.0291998,671,1359,-26.128,-13.0249
-546,-335,-26.1536,13.7842,0.00319766,0.000449097,0.00133498,0.00373932,-9.25619e-05,0.385447,0.0025243,0.0268799,678,1359,-26.1536,-13.7841
-539,-335,-26.1595,14.5905,0.00363796,0.000186971,0.00162321,0.00428147,-0.000456531,0.377432,0.00301802,0.022262,685,1359,-26.1595,-14.5904
-532,-335,-26.2263,15.3783,0.00430328,-2.31947e-05,0.00203114,0.00510739,-0.000827298,0.376957,0.00371155,0.0168223,692,1359,-26.2263,-15.3783
-525,-335,-26.2073,16.1451,0.0051832,-0.000299062,0.00251255,0.0061605,-0.00127636,0.370958,0.00459196,0.0131413,699,1359,-26.2074,-16.1451
-518,-335,-26.212,16.8459,0,0,0,0,0,0,0,-1,706,1359,-26.212,-16.846
-511,-335,-17.3098,11.6718,0,0,0,0,0,0,0,-1,713,1359,-17.3097,-11.6717
-504,-335,-9.35767,5.99695,0,0,0,0,0,0,0,-1,720,1359,-9.35767,-5.99694
-497,-335,-8.75024,-0.650513,0,0,0,0,0,0,0,-1,727,1359,-8.75024,0.650521
-490,-335,-9.51971,0.417603,0,0,0,0,0,0,0,-1,734,1359,-9.51974,-0.41765
-483,-335,-10.2883,1.29224,0,0,0,0,0,0,0,-1,741,1359,-10.2883,-1.2922
-476,-335,-11.9938,-0.173462,0,0,0,0,0,0,0,-1,748,1359,-11.9938,0.173429
-469,-335,-12.8704,-0.204102,0,0,0,0,0,0,0,-1,755,1359,-12.8704,0.204117
-462,-335,-13.486,0.0218506,0,0,0,0,0,0,0,-1,762,1359,-13.4859,-0.0217908
-455,-335,-14.1504,0.549561,0,0,0,0,0,0,0,-1,769,1359,-14.1504,-0.549583
-448,-335,0,0,0,0,0,0,0,0,0,-1,776,1359,0,0
-441,-335,0,0,0,0,0,0,0,0,0,-1,783,1359,0,0
-434,-335,0,0,0,0,0,0,0,0,0,-1,790,1359,0,0
-427,-335,0,0,0,0,0,0,0,0,0,-1,797,1359,0,0
-420,-335,0,0,0,0,0,0,0,0,0,-1,804,1359,0,0
-413,-335,0,0,0,0,0,0,0,0,0,-1,811,1359,0,0
-406,-335,0,0,0,0,0,0,0,0,0,-1,818,1359,0,0
-399,-335,0,0,0,0,0,0,0,0,0,-1,825,1359,0,0
-392,-335,0,0,0,0,0,0,0,0,0,-1,832,1359,0,0
-385,-335,0,0,0,0,0,0,0,0,0,-1,839,1359,0,0
-378,-335,0,0,0,0,0,0,0,0,0,-1,846,1359,0,0
-371,-335,0,0,0,0,0,0,0,0,0,-1,853,1359,0,0
-364,-335,0,0,0,0,0,0,0,0,0,-1,860,1359,0,0
-357,-335,0,0,0,0,0,0,0,0,0,-1,867,1359,0,0
-350,-335,0,0,0,0,0,0,0,0,0,-1,874,1359,0,0
-343,-335,0,0,0,0,0,0,0,0,0,-1,881,1359,0,0
-336,-335,0,0,0,0,0,0,0,0,0,-1,888,1359,0,0
-329,-335,0,0,0,0,0,0,0,0,0,-1,895,1359,0,0
-322,-335,0,0,0,0,0,0,0,0,0,-1,902,1359,0,0
-315,-335,0,0,0,0,0,0,0,0,0,-1,909,1359,0,0
-308,-335,0,0,0,0,0,0,0,0,0,-1,916,1359,0,0
-301,-335,0,0,0,0,0,0,0,0,0,-1,923,1359,0,0
-294,-335,0,0,0,0,0,0,0,0,0,-1,930,1359,0,0
-287,-335,0,0,0,0,0,0,0,0,0,-1,937,1359,0,0
-280,-335,0,0,0,0,0,0,0,0,0,-1,944,1359,0,0
-273,-335,0,0,0,0,0,0,0,0,0,-1,951,1359,0,0
-266,-335,0,0,0,0,0,0,0,0,0,-1,958,1359,0,0
-259,-335,0,0,0,0,0,0,0,0,0,-1,965,1359,0,0
-252,-335,0,0,0,0,0,0,0,0,0,-1,972,1359,0,0
-245,-335,0,0,0,0,0,0,0,0,0,-1,979,1359,0,0
-238,-335,0,0,0,0,0,0,0,0,0,-1,986,1359,0,0
-231,-335,0,0,0,0,0,0,0,0,0,-1,993,1359,0,0
-224,-335,0,0,0,0,0,0,0,0,0,-1,1000,1359,0,0
-217,-335,0,0,0,0,0,0,0,0,0,-1,1007,1359,0,0
-210,-335,0,0,0,0,0,0,0,0,0,-1,1014,1359,0,0
-203,-335,0,0,0,0,0,0,0,0,0,-1,1021,1359,0,0
-196,-335,0,0,0,0,0,0,0,0,0,-1,1028,1359,0,0
-189,-335,0,0,0,0,0,0,0,0,0,-1,1035,1359,0,0
-182,-335,0,0,0,0,0,0,0,0,0,-1,1042,1359,0,0
-175,-335,0,0,0,0,0,0,0,0,0,-1,1049,1359,0,0
-168,-335,0,0,0,0,0,0,0,0,0,-1,1056,1359,0,0
-161,-335,0,0,0,0,0,0,0,0,0,-1,1063,1359,0,0
-154,-335,0,0,0,0,0,0,0,0,0,-1,1070,1359,0,0
-147,-335,0,0,0,0,0,0,0,0,0,-1,1077,1359,0,0
-140,-335,0,0,0,0,0,0,0,0,0,-1,1084,1359,0,0
-133,-335,0,0,0,0,0,0,0,0,0,-1,1091,1359,0,0
-126,-335,0,0,0,0,0,0,0,0,0,-1,1098,1359,0,0
-119,-335,0,0,0,0,0,0,0,0,0,-1,1105,1359,0,0
-112,-335,0,0,0,0,0,0,0,0,0,-1,1112,1359,0,0
-105,-335,0,0,0,0,0,0,0,0,0,-1,1119,1359,0,0
-98,-335,0,0,0,0,0,0,0,0,0,-1,1126,1359,0,0
-91,-335,0,0,0,0,0,0,0,0,0,-1,1133,1359,0,0
-84,-335,0,0,0,0,0,0,0,0,0,-1,1140,1359,0,0
-77,-335,0,0,0,0,0,0,0,0,0,-1,1147,1359,0,0
-70,-335,0,0,0,0,0,0,0,0,0,-1,1154,1359,0,0
-63,-335,0,0,0,0,0,0,0,0,0,-1,1161,1359,0,0
-56,-335,0,0,0,0,0,0,0,0,0,-1,1168,1359,0,0
-49,-335,0,0,0,0,0,0,0,0,0,-1,1175,1359,0,0
-42,-335,0,0,0,0,0,0,0,0,0,-1,1182,1359,0,0
-35,-335,0,0,0,0,0,0,0,0,0,-1,1189,1359,0,0
-28,-335,0,0,0,0,0,0,0,0,0,-1,1196,1359,0,0
-21,-335,0,0,0,0,0,0,0,0,0,-1,1203,1359,0,0
-14,-335,0,0,0,0,0,0,0,0,0,-1,1210,1359,0,0
-7,-335,0,0,0,0,0,0,0,0,0,-1,1217,1359,0,0
0,-335,0,0,0,0,0,0,0,0,0,-1,1224,1359,0,0
7,-335,0,0,0,0,0,0,0,0,0,-1,1231,1359,0,0
14,-335,0,0,0,0,0,0,0,0,0,-1,1238,1359,0,0
21,-335,0,0,0,0,0,0,0,0,0,-1,1245,1359,0,0
28,-335,0,0,0,0,0,0,0,0,0,-1,1252,1359,0,0
35,-335,0,0,0,0,0,0,0,0,0,-1,1259,1359,0,0
42,-335,0,0,0,0,0,0,0,0,0,-1,1266,1359,0,0
49,-335,0,0,0,0,0,0,0,0,0,-1,1273,1359,0,0
56,-335,0,0,0,0,0,0,0,0,0,-1,1280,1359,0,0
63,-335,0,0,0,0,0,0,0,0,0,-1,1287,1359,0,0
70,-335,0,0,0,0,0,0,0,0,0,-1,1294,1359,0,0
77,-335,0,0,0,0,0,0,0,0,0,-1,1301,1359,0,0
84,-335,0,0,0,0,0,0,0,0,0,-1,1308,1359,0,0
91,-335,0,0,0,0,0,0,0,0,0,-1,1315,1359,0,0
98,-335,0,0,0,0,0,0,0,0,0,-1,1322,1359,0,0
105,-335,0,0,0,0,0,0,0,0,0,-1,1329,1359,0,0
112,-335,0,0,0,0,0,0,0,0,0,-1,1336,1359,0,0
119,-335,0,0,0,0,0,0,0,0,0,-1,1343,1359,0,0
126,-335,0,0,0,0,0,0,0,0,0,-1,1350,1359,0,0
133,-335,0,0,0,0,0,0,0,0,0,-1,1357,1359,0,0
140,-335,0,0,0,0,0,0,0,0,0,-1,1364,1359,0,0
147,-335,0,0,0,0,0,0,0,0,0,-1,1371,1359,0,0
154,-335,0,0,0,0,0,0,0,0,0,-1,1378,1359,0,0
161,-335,0,0,0,0,0,0,0,0,0,-1,1385,1359,0,0
168,-335,0,0,0,0,0,0,0,0,0,-1,1392,1359,0,0
175,-335,0,0,0,0,0,0,0,0,0,-1,1399,1359,0,0
182,-335,0,0,0,0,0,0,0,0,0,-1,1406,1359,0,0
189,-335,0,0,0,0,0,0,0,0,0,-1,1413,1359,0,0
196,-335,0,0,0,0,0,0,0,0,0,-1,1420,1359,0,0
203,-335,0,0,0,0,0,0,0,0,0,-1,1427,1359,0,0
210,-335,0,0,0,0,0,0,0,0,0,-1,1434,1359,0,0
217,-335,0,0,0,0,0,0,0,0,0,-1,1441,1359,0,0
224,-335,0,0,0,0,0,0,0,0,0,-1,1448,1359,0,0
231,-335,0,0,0,0,0,0,0,0,0,-1,1455,1359,0,0
238,-335,0,0,0,0,0,0,0,0,0,-1,1462,1359,0,0
245,-335,0,0,0,0,0,0,0,0,0,-1,1469,1359,0,0
252,-335,0,0,0,0,0,0,0,0,0,-1,1476,1359,0,0
259,-335,0,0,0,0,0,0,0,0,0,-1,1483,1359,0,0
266,-335,0,0,0,0,0,0,0,0,0,-1,1490,1359,0,0
273,-335,0,0,0,0,0,0,0,0,0,-1,1497,1359,0,0
280,-335,0,0,0,0,0,0,0,0,0,-1,1504,1359,0,0
287,-335,0,0,0,0,0,0,0,0,0,-1,1511,1359,0,0
294,-335,0,0,0,0,0,0,0,0,0,-1,1518,1359,0,0
301,-335,0,0,0,0,0,0,0,0,0,-1,1525,1359,0,0
308,-335,0,0,0,0,0,0,0,0,0,-1,1532,1359,0,0
315,-335,0,0,0,0,0,0,0,0,0,-1,1539,1359,0,0
322,-335,0,0,0,0,0,0,0,0,0,-1,1546,1359,0,0
329,-335,0,0,0,0,0,0,0,0,0,-1,1553,1359,0,0
336,-335,0,0,0,0,0,0,0,0,0,-1,1560,1359,0,0
343,-335,0,0,0,0,0,0,0,0,0,-1,1567,1359,0,0
350,-335,0,0,0,0,0,0,0,0,0,-1,1574,1359,0,0
357,-335,0,0,0,0,0,0,0,0,0,-1,1581,1359,0,0
364,-335,0,0,0,0,0,0,0,0,0,-1,1588,1359,0,0
371,-335,0,0,0,0,0,0,0,0,0,-1,1595,1359,0,0
378,-335,0,0,0,0,0,0,0,0,0,-1,1602,1359,0,0
385,-335,0,0,0,0,0,0,0,0,0,-1,1609,1359,0,0
392,-335,0,0,0,0,0,0,0,0,0,-1,1616,1359,0,0
399,-335,0,0,0,0,0,0,0,0,0,-1,1623,1359,0,0
406,-335,0,0,0,0,0,0,0,0,0,-1,1630,1359,0,0
413,-335,0,0,0,0,0,0,0,0,0,-1,1637,1359,0,0
420,-335,0,0,0,0,0,0,0,0,0,-1,1644,1359,0,0
427,-335,0,0,0,0,0,0,0,0,0,-1,1651,1359,0,0
434,-335,0,0,0,0,0,0,0,0,0,-1,1658,1359,0,0
441,-335,0,0,0,0,0,0,0,0,0,-1,1665,1359,0,0
448,-335,0,0,0,0,0,0,0,0,0,-1,1672,1359,0,0
455,-335,0,0,0,0,0,0,0,0,0,-1,1679,1359,0,0
462,-335,0,0,0,0,0,0,0,0,0,-1,1686,1359,0,0
469,-335,0,0,0,0,0,0,0,0,0,-1,1693,1359,0,0
476,-335,0,0,0,0,0,0,0,0,0,-1,1700,1359,0,0
483,-335,0,0,0,0,0,0,0,0,0,-1,1707,1359,0,0
490,-335,0,0,0,0,0,0,0,0,0,-1,1714,1359,0,0
497,-335,0,0,0,0,0,0,0,0,0,-1,1721,1359,0,0
504,-335,0,0,0,0,0,0,0,0,0,-1,1728,1359,0,0
511,-335,0,0,0,0,0,0,0,0,0,-1,1735,1359,0,0
518,-335,0,0,0,0,0,0,0,0,0,-1,1742,1359,0,0
525,-335,0,0,0,0,0,0,0,0,0,-1,1749,1359,0,0
532,-335,0,0,0,0,0,0,0,0,0,-1,1756,1359,0,0
539,-335,0,0,0,0,0,0,0,0,0,-1,1763,1359,0,0
546,-335,0,0,0,0,0,0,0,0,0,-1,1770,1359,0,0
553,-335,0,0,0,0,0,0,0,0,0,-1,1777,1359,0,0
560,-335,0,0,0,0,0,0,0,0,0,-1,1784,1359,0,0
567,-335,0,0,0,0,0,0,0,0,0,-1,1791,1359,0,0
574,-335,65.0712,2.80188,0,0,0,0,0,0,0,-1,1798,1359,65.0712,-2.80193
581,-335,66.5206,1.60327,0,0,0,0,0,0,0,-1,1805,1359,66.5206,-1.60333
588,-335,67.826,0.334961,0,0,0,0,0,0,0,-1,1812,1359,67.8261,-0.335018
595,-335,49.984,3.76465,0,0,0,0,0,0,0,-1,1819,1359,49.984,-3.76467
602,-335,36.5643,0.0861816,0,0,0,0,0,0,0,-1,1826,1359,36.5643,-0.0862283
609,-335,36.2933,0.993896,0,0,0,0,0,0,0,-1,1833,1359,36.2934,-0.993911
616,-335,34.6969,4.82666,0,0,0,0,0,0,0,-1,1840,1359,34.6969,-4.82667
623,-335,26.6051,6.54333,0,0,0,0,0,0,0,-1,1847,1359,26.6051,-6.54339
630,-335,19.1707,1.00952,0,0,0,0,0,0,0,-1,1854,1359,19.1707,-1.00953
637,-335,18.2009,6.65454,0,0,0,0,0,0,0,-1,1861,1359,18.2009,-6.6546
644,-335,28.1042,12.067,0,0,0,0,0,0,0,-1,1868,1359,28.1042,-12.067
651,-335,42.9625,18.0603,0,0,0,0,0,0,0,-1,1875,1359,42.9625,-18.0604
658,-335,43.0642,17.1901,-0.000342232,0.000249233,-0.000121271,0.000273132,-0.000366131,-1.37622,0.000370378,0.0395894,1882,1359,43.0642,-17.1901
665,-335,43.0609,16.3966,0.000285998,-6.16932e-05,-0.00017861,0.000361399,-0.000137094,-0.399458,0.000297359,0.0156166,1889,1359,43.0609,-16.3967
672,-335,43.0364,15.6627,0.000803292,-0.000108119,-0.000331729,0.000911245,-0.000216073,-0.314618,0.000690877,0.0191767,1896,1359,43.0363,-15.6627
679,-335,43.012,14.9702,0.0012334,-6.66514e-05,-0.000464516,0.00138231,-0.000215568,-0.310233,0.00100117,0.0170743,1903,1359,43.012,-14.9702
686,-335,42.9927,14.2362,0.00163129,3.61548e-05,-0.000613517,0.00183996,-0.000172517,-0.32785,0.001288,0.0142854,1910,1359,42.9927,-14.2363
693,-335,42.9435,13.5154,0.00201839,0.0001952,-0.000772687,0.0023018,-8.82163e-05,-0.351556,0.00156477,0.0110512,1917,1359,42.9435,-13.5153
700,-335,42.8909,12.8142,0.00238855,0.000404855,-0.000927586,0.00275471,3.86981e-05,-0.375965,0.00182371,0.0115874,1924,1359,42.8909,-12.8142
707,-335,42.8502,12.0952,0.002671,0.000648075,-0.00103263,0.00310501,0.000214065,-0.397878,0.00200247,0.0150735,1931,1359,42.8503,-12.0953
714,-335,42.85,11.2468,0.0029414,0.000992317,-0.00117038,0.00348986,0.000443861,-0.438224,0.00219364,0.0362144,1938,1359,42.85,-11.2469
721,-335,42.7585,10.2882,0,0,0,0,0,0,0,-1,1945,1359,42.7586,-10.2882
728,-335,20.8126,5.21167,0,0,0,0,0,0,0,-1,1952,1359,20.8127,-5.21172
735,-335,20.2725,5.34729,0,0,0,0,0,0,0,-1,1959,1359,20.2724,-5.34734
742,-335,19.8624,4.72229,0,0,0,0,0,0,0,-1,1966,1359,19.8624,-4.72225
749,-335,20.5887,6.05322,0,0,0,0,0,0,0,-1,1973,1359,20.5887,-6.05322
756,-335,20.7832,6.00452,0,0,0,0,0,0,0,-1,1980,1359,20.7832,-6.00447
763,-335,0,0,0,0,0,0,0,0,0,-1,1987,1359,0,0
770,-335,0,0,0,0,0,0,0,0,0,-1,1994,1359,0,0
777,-335,0,0,0,0,0,0,0,0,0,-1,2001,1359,0,0
784,-335,0,0,0,0,0,0,0,0,0,-1,2008,1359,0,0
791,-335,0,0,0,0,0,0,0,0,0,-1,2015,1359,0,0
798,-335,0,0,0,0,0,0,0,0,0,-1,2022,1359,0,0
805,-335,0,0,0,0,0,0,0,0,0,-1,2029,1359,0,0
812,-335,0,0,0,0,0,0,0,0,0,-1,2036,1359,0,0
-700,-342,0,0,0,0,0,0,0,0,0,-1,524,1366,0,0
-693,-342,0,0,0,0,0,0,0,0,0,-1,531,1366,0,0
-686,-342,0,0,0,0,0,0,0,0,0,-1,538,1366,0,0
-679,-342,0,0,0,0,0,0,0,0,0,-1,545,1366,0,0
-672,-342,0,0,0,0,0,0,0,0,0,-1,552,1366,0,0
-665,-342,0,0,0,0,0,0,0,0,0,-1,559,1366,0,0
-658,-342,0,0,0,0,0,0,0,0,0,-1,566,1366,0,0
-651,-342,0,0,0,0,0,0,0,0,0,-1,573,1366,0,0
-644,-342,0,0,0,0,0,0,0,0,0,-1,580,1366,0,0
-637,-342,-63.7546,12.2344,0,0,0,0,0,0,0,-1,587,1366,-63.7546,-12.2343
-630,-342,-8.60132,2.71777,0,0,0,0,0,0,0,-1,594,1366,-8.60135,-2.71779
-623,-342,-8.41168,0.662476,0,0,0,0,0,0,0,-1,601,1366,-8.41168,-0.662442
-616,-342,-6.625,-1.28015,0,0,0,0,0,0,0,-1,608,1366,-6.62499,1.28011
-609,-342,-7.83154,0.674561,0,0,0,0,0,0,0,-1,615,1366,-7.83155,-0.674598
-602,-342,-9.65765,2.25195,0,0,0,0,0,0,0,-1,622,1366,-9.65767,-2.25192
-595,-342,-9.47687,3.00671,0,0,0,0,0,0,0,-1,629,1366,-9.47686,-3.00668
-588,-342,-9.78467,3.57727,0,0,0,0,0,0,0,-1,636,1366,-9.78468,-3.57723
-581,-342,-25.3134,9.87854,0,0,0,0,0,0,0,-1,643,1366,-25.3133,-9.87851
-574,-342,-25.2817,10.8092,0.00388421,0.00226311,0.00158675,0.00485545,0.00129186,0.549264,0.00290377,0.0177001,650,1366,-25.2817,-10.8092
-567,-342,-25.2282,11.5874,0.0033126,0.00176447,0.00132197,0.00407045,0.00100662,0.520539,0.00244808,0.018378,657,1366,-25.2282,-11.5874
-560,-342,-25.2896,12.3071,0.00300219,0.00129816,0.00119102,0.00361457,0.000685781,0.474915,0.00221676,0.0273836,664,1366,-25.2896,-12.3071
-553,-342,-25.3874,13.0137,0.00289618,0.000884929,0.00117072,0.00343389,0.000347223,0.430556,0.00218274,0.0303426,671,1366,-25.3874,-13.0137
-546,-342,-25.372,13.7297,0.00297948,0.000534599,0.00125605,0.00350975,4.32297e-06,0.399479,0.00233839,0.0295356,678,1366,-25.372,-13.7298
-539,-342,-25.3837,14.5793,0.00323126,0.000235882,0.00143652,0.00380882,-0.00034168,0.382278,0.00266043,0.025346,685,1366,-25.3837,-14.5793
-532,-342,-25.4666,15.4276,0.00366726,7.00858e-06,0.00171906,0.00434801,-0.00067375,0.377058,0.00314739,0.0189953,692,1366,-25.4665,-15.4276
-525,-342,-25.4537,16.1975,0.00428101,-0.0002214,0.00207237,0.00508965,-0.00103004,0.37203,0.00378348,0.0136626,699,1366,-25.4537,-16.1975
-518,-342,-25.4378,16.9495,0.00512392,-0.000163812,0.00257437,0.00617023,-0.00121012,0.386041,0.00457057,0.0429415,706,1366,-25.4378,-16.9495
-511,-342,-25.4534,17.6953,0,0,0,0,0,0,0,-1,713,1366,-25.4534,-17.6953
-504,-342,-8.95709,6.5719,0,0,0,0,0,0,0,-1,720,1366,-8.95707,-6.57192
-497,-342,-8.26587,-0.943604,0,0,0,0,0,0,0,-1,727,1366,-8.26586,0.943543
-490,-342,-9.07153,-0.0227051,0,0,0,0,0,0,0,-1,734,1366,-9.07155,0.0227087
-483,-342,-9.87726,0.898071,0,0,0,0,0,0,0,-1,741,1366,-9.87724,-0.898125
-476,-342,-11.6371,-0.736328,0,0,0,0,0,0,0,-1,748,1366,-11.6371,0.736281
-469,-342,-12.6245,-0.987549,0,0,0,0,0,0,0,-1,755,1366,-12.6245,0.987553
-462,-342,-13.0912,-0.533203,0,0,0,0,0,0,0,-1,762,1366,-13.0912,0.533224
-455,-342,-13.7612,0.122925,0,0,0,0,0,0,0,-1,769,1366,-13.7612,-0.122896
-448,-342,-14.5278,0.826904,0,0,0,0,0,0,0,-1,776,1366,-14.5277,-0.826861
-441,-342,0,0,0,0,0,0,0,0,0,-1,783,1366,0,0
-434,-342,0,0,0,0,0,0,0,0,0,-1,790,1366,0,0
-427,-342,0,0,0,0,0,0,0,0,0,-1,797,1366,0,0
-420,-342,0,0,0,0,0,0,0,0,0,-1,804,1366,0,0
-413,-342,0,0,0,0,0,0,0,0,0,-1,811,1366,0,0
-406,-342,0,0,0,0,0,0,0,0,0,-1,818,1366,0,0
-399,-342,0,0,0,0,0,0,0,0,0,-1,825,1366,0,0
-392,-342,0,0,0,0,0,0,0,0,0,-1,832,1366,0,0
-385,-342,0,0,0,0,0,0,0,0,0,-1,839,1366,0,0
-378,-342,0,0,0,0,0,0,0,0,0,-1,846,1366,0,0
-371,-342,0,0,0,0,0,0,0,0,0,-1,853,1366,0,0
-364,-342,0,0,0,0,0,0,0,0,0,-1,860,1366,0,0
-357,-342,0,0,0,0,0,0,0,0,0,-1,867,1366,0,0
-350,-342,0,0,0,0,0,0,0,0,0,-1,874,1366,0,0
-343,-342,0,0,0,0,0,0,0,0,0,-1,881,1366,0,0
-336,-342,0,0,0,0,0,0,0,0,0,-1,888,1366,0,0
-329,-342,0,0,0,0,0,0,0,0,0,-1,895,1366,0,0
-322,-342,0,0,0,0,0,0,0,0,0,-1,902,1366,0,0
-315,-342,0,0,0,0,0,0,0,0,0,-1,909,1366,0,0
-308,-342,0,0,0,0,0,0,0,0,0,-1,916,1366,0,0
-301,-342,0,0,0,0,0,0,0,0,0,-1,923,1366,0,0
-294,-342,0,0,0,0,0,0,0,0,0,-1,930,1366,0,0
-287,-342,0,0,0,0,0,0,0,0,0,-1,937,1366,0,0
-280,-342,0,0,0,0,0,0,0,0,0,-1,944,1366,0,0
-273,-342,0,0,0,0,0,0,0,0,0,-1,951,1366,0,0
-266,-342,0,0,0,0,0,0,0,0,0,-1,958,1366,0,0
-259,-342,0,0,0,0,0,0,0,0,0,-1,965,1366,0,0
-252,-342,0,0,0,0,0,0,0,0,0,-1,972,1366,0,0
-245,-342,0,0,0,0,0,0,0,0,0,-1,979,1366,0,0
-238,-342,0,0,0,0,0,0,0,0,0,-1,986,1366,0,0
-231,-342,0,0,0,0,0,0,0,0,0,-1,993,1366,0,0
-224,-342,0,0,0,0,0,0,0,0,0,-1,1000,1366,0,0
-217,-342,0,0,0,0,0,0,0,0,0,-1,1007,1366,0,0
-210,-342,0,0,0,0,0,0,0,0,0,-1,1014,1366,0,0
-203,-342,0,0,0,0,0,0,0,0,0,-1,1021,1366,0,0
-196,-342,0,0,0,0,0,0,0,0,0,-1,1028,1366,0,0
-189,-342,0,0,0,0,0,0,0,0,0,-1,1035,1366,0,0
-182,-342,0,0,0,0,0,0,0,0,0,-1,1042,1366,0,0
-175,-342,0,0,0,0,0,0,0,0,0,-1,1049,1366,0,0
-168,-342,0,0,0,0,0,0,0,0,0,-1,1056,1366,0,0
-161,-342,0,0,0,0,0,0,0,0,0,-1,1063,1366,0,0
-154,-342,0,0,0,0,0,0,0,0,0,-1,1070,1366,0,0
-147,-342,0,0,0,0,0,0,0,0,0,-1,1077,1366,0,0
-140,-342,0,0,0,0,0,0,0,0,0,-1,1084,1366,0,0
-133,-342,0,0,0,0,0,0,0,0,0,-1,1091,1366,0,0
-126,-342,0,0,0,0,0,0,0,0,0,-1,1098,1366,0,0
-119,-342,0,0,0,0,0,0,0,0,0,-1,1105,1366,0,0
-112,-342,0,0,0,0,0,0,0,0,0,-1,1112,1366,0,0
-105,-342,0,0,0,0,0,0,0,0,0,-1,1119,1366,0,0
-98,-342,0,0,0,0,0,0,0,0,0,-1,1126,1366,0,0
-91,-342,0,0,0,0,0,0,0,0,0,-1,1133,1366,0,0
-84,-342,0,0,0,0,0,0,0,0,0,-1,1140,1366,0,0
-77,-342,0,0,0,0,0,0,0,0,0,-1,1147,1366,0,0
-70,-342,0,0,0,0,0,0,0,0,0,-1,1154,1366,0,0
-63,-342,0,0,0,0,0,0,0,0,0,-1,1161,1366,0,0
-56,-342,0,0,0,0,0,0,0,0,0,-1,1168,1366,0,0
-49,-342,0,0,0,0,0,0,0,0,0,-1,1175,1366,0,0
-42,-342,0,0,0,0,0,0,0,0,0,-1,1182,1366,0,0
-35,-342,0,0,0,0,0,0,0,0,0,-1,1189,1366,0,0
-28,-342,0,0,0,0,0,0,0,0,0,-1,1196,1366,0,0
-21,-342,0,0,0,0,0,0,0,0,0,-1,1203,1366,0,0
-14,-342,0,0,0,0,0,0,0,0,0,-1,1210,1366,0,0
-7,-342,0,0,0,0,0,0,0,0,0,-1,1217,1366,0,0
0,-342,0,0,0,0,0,0,0,0,0,-1,1224,1366,0,0
7,-342,0,0,0,0,0,0,0,0,0,-1,1231,1366,0,0
14,-342,0,0,0,0,0,0,0,0,0,-1,1238,1366,0,0
21,-342,0,0,0,0,0,0,0,0,0,-1,1245,1366,0,0
28,-342,0,0,0,0,0,0,0,0,0,-1,1252,1366,0,0
35,-342,0,0,0,0,0,0,0,0,0,-1,1259,1366,0,0
42,-342,0,0,0,0,0,0,0,0,0,-1,1266,1366,0,0
49,-342,0,0,0,0,0,0,0,0,0,-1,1273,1366,0,0
56,-342,0,0,0,0,0,0,0,0,0,-1,1280,1366,0,0
63,-342,0,0,0,0,0,0,0,0,0,-1,1287,1366,0,0
70,-342,0,0,0,0,0,0,0,0,0,-1,1294,1366,0,0
77,-342,0,0,0,0,0,0,0,0,0,-1,1301,1366,0,0
84,-342,0,0,0,0,0,0,0,0,0,-1,1308,1366,0,0
91,-342,0,0,0,0,0,0,0,0,0,-1,1315,1366,0,0
98,-342,0,0,0,0,0,0,0,0,0,-1,1322,1366,0,0
105,-342,0,0,0,0,0,0,0,0,0,-1,1329,1366,0,0
112,-342,0,0,0,0,0,0,0,0,0,-1,1336,1366,0,0
119,-342,0,0,0,0,0,0,0,0,0,-1,1343,1366,0,0
126,-342,0,0,0,0,0,0,0,0,0,-1,1350,1366,0,0
133,-342,0,0,0,0,0,0,0,0,0,-1,1357,1366,0,0
140,-342,0,0,0,0,0,0,0,0,0,-1,1364,1366,0,0
147,-342,0,0,0,0,0,0,0,0,0,-1,1371,1366,0,0
154,-342,0,0,0,0,0,0,0,0,0,-1,1378,1366,0,0
161,-342,0,0,0,0,0,0,0,0,0,-1,1385,1366,0,0
168,-342,0,0,0,0,0,0,0,0,0,-1,1392,1366,0,0
175,-342,0,0,0,0,0,0,0,0,0,-1,1399,1366,0,0
182,-342,0,0,0,0,0,0,0,0,0,-1,1406,1366,0,0
189,-342,0,0,0,0,0,0,0,0,0,-1,1413,1366,0,0
196,-342,0,0,0,0,0,0,0,0,0,-1,1420,1366,0,0
203,-342,0,0,0,0,0,0,0,0,0,-1,1427,1366,0,0
210,-342,0,0,0,0,0,0,0,0,0,-1,1434,1366,0,0
217,-342,0,0,0,0,0,0,0,0,0,-1,1441,1366,0,0
224,-342,0,0,0,0,0,0,0,0,0,-1,1448,1366,0,0
231,-342,0,0,0,0,0,0,0,0,0,-1,1455,1366,0,0
238,-342,0,0,0,0,0,0,0,0,0,-1,1462,1366,0,0
245,-342,0,0,0,0,0,0,0,0,0,-1,1469,1366,0,0
252,-342,0,0,0,0,0,0,0,0,0,-1,1476,1366,0,0
259,-342,0,0,0,0,0,0,0,0,0,-1,1483,1366,0,0
266,-342,0,0,0,0,0,0,0,0,0,-1,1490,1366,0,0
273,-342,0,0,0,0,0,0,0,0,0,-1,1497,1366,0,0
280,-342,0,0,0,0,0,0,0,0,0,-1,1504,1366,0,0
287,-342,0,0,0,0,0,0,0,0,0,-1,1511,1366,0,0
294,-342,0,0,0,0,0,0,0,0,0,-1,1518,1366,0,0
301,-342,0,0,0,0,0,0,0,0,0,-1,1525,1366,0,0
308,-342,0,0,0,0,0,0,0,0,0,-1,1532,1366,0,0
315,-342,0,0,0,0,0,0,0,0,0,-1,1539,1366,0,0
322,-342,0,0,0,0,0,0,0,0,0,-1,1546,1366,0,0
329,-342,0,0,0,0,0,0,0,0,0,-1,1553,1366,0,0
336,-342,0,0,0,0,0,0,0,0,0,-1,1560,1366,0,0
343,-342,0,0,0,0,0,0,0,0,0,-1,1567,1366,0,0
350,-342,0,0,0,0,0,0,0,0,0,-1,1574,1366,0,0
357,-342,0,0,0,0,0,0,0,0,0,-1,1581,1366,0,0
364,-342,0,0,0,0,0,0,0,0,0,-1,1588,1366,0,0
371,-342,0,0,0,0,0,0,0,0,0,-1,1595,1366,0,0
378,-342,0,0,0,0,0,0,0,0,0,-1,1602,1366,0,0
385,-342,0,0,0,0,0,0,0,0,0,-1,1609,1366,0,0
392,-342,0,0,0,0,0,0,0,0,0,-1,1616,1366,0,0
399,-342,0,0,0,0,0,0,0,0,0,-1,1623,1366,0,0
406,-342,0,0,0,0,0,0,0,0,0,-1,1630,1366,0,0
413,-342,0,0,0,0,0,0,0,0,0,-1,1637,1366,0,0
420,-342,0,0,0,0,0,0,0,0,0,-1,1644,1366,0,0
427,-342,0,0,0,0,0,0,0,0,0,-1,1651,1366,0,0
434,-342,0,0,0,0,0,0,0,0,0,-1,1658,1366,0,0
441,-342,0,0,0,0,0,0,0,0,0,-1,1665,1366,0,0
448,-342,0,0,0,0,0,0,0,0,0,-1,1672,1366,0,0
455,-342,0,0,0,0,0,0,0,0,0,-1,1679,1366,0,0
462,-342,0,0,0,0,0,0,0,0,0,-1,1686,1366,0,0
469,-342,0,0,0,0,0,0,0,0,0,-1,1693,1366,0,0
476,-342,0,0,0,0,0,0,0,0,0,-1,1700,1366,0,0
483,-342,0,0,0,0,0,0,0,0,0,-1,1707,1366,0,0
490,-342,0,0,0,0,0,0,0,0,0,-1,1714,1366,0,0
497,-342,0,0,0,0,0,0,0,0,0,-1,1721,1366,0,0
504,-342,0,0,0,0,0,0,0,0,0,-1,1728,1366,0,0
511,-342,0,0,0,0,0,0,0,0,0,-1,1735,1366,0,0
518,-342,0,0,0,0,0,0,0,0,0,-1,1742,1366,0,0
525,-342,0,0,0,0,0,0,0,0,0,-1,1749,1366,0,0
532,-342,0,0,0,0,0,0,0,0,0,-1,1756,1366,0,0
539,-342,0,0,0,0,0,0,0,0,0,-1,1763,1366,0,0
546,-342,0,0,0,0,0,0,0,0,0,-1,1770,1366,0,0
553,-342,0,0,0,0,0,0,0,0,0,-1,1777,1366,0,0
560,-342,0,0,0,0,0,0,0,0,0,-1,1784,1366,0,0
567,-342,64.6937,3.24878,0,0,0,0,0,0,0,-1,1791,1366,64.6938,-3.24881
574,-342,65.4669,2.18384,0,0,0,0,0,0,0,-1,1798,1366,65.4669,-2.18381
581,-342,66.542,1.36292,0,0,0,0,0,0,0,-1,1805,1366,66.542,-1.36295
588,-342,43.9108,7.22559,0,0,0,0,0,0,0,-1,1812,1366,43.9107,-7.22554
595,-342,35.7993,0.709961,0,0,0,0,0,0,0,-1,1819,1366,35.7993,-0.709913
602,-342,36.3618,3.28723,0,0,0,0,0,0,0,-1,1826,1366,36.3619,-3.28719
609,-342,35.3777,4.14978,0,0,0,0,0,0,0,-1,1833,1366,35.3777,-4.14976
616,-342,34.199,5.8158,0,0,0,0,0,0,0,-1,1840,1366,34.199,-5.81579
623,-342,26.0299,6.86865,0,0,0,0,0,0,0,-1,1847,1366,26.0299,-6.86863
630,-342,17.3431,0.773071,0,0,0,0,0,0,0,-1,1854,1366,17.3432,-0.773095
637,-342,16.196,6.76172,0,0,0,0,0,0,0,-1,1861,1366,16.1961,-6.76174
644,-342,31.8916,14.0614,0,0,0,0,0,0,0,-1,1868,1366,31.8916,-14.0613
651,-342,42.3619,17.9353,0,0,0,0,0,0,0,-1,1875,1366,42.3619,-17.9353
658,-342,42.3522,17.1869,-0.000580115,0.000540227,-0.000181228,0.000568813,-0.000608701,-1.41435,0.000679968,0.022455,1882,1366,42.3522,-17.1869
665,-342,42.3179,16.4016,0.000168071,0.000150513,-0.000213194,0.000372666,-5.40824e-05,-0.764821,0.000268295,0.0185493,1889,1366,42.3178,-16.4017
672,-342,42.302,15.7225,0.000821648,-2.62455e-05,-0.000326138,0.000932581,-0.000137179,-0.327867,0.00067213,0.014571,1896,1366,42.3021,-15.7225
679,-342,42.2859,15.0369,0.00140873,-0.000143848,-0.000450122,0.00152979,-0.000264908,-0.262732,0.00111866,0.0147133,1903,1366,42.2859,-15.0368
686,-342,42.2871,14.3103,0.00196385,-0.000181388,-0.000612979,0.00212665,-0.000344186,-0.259592,0.00154533,0.0131565,1910,1366,42.2871,-14.3103
693,-342,42.2189,13.5743,0.00249762,-0.000158121,-0.000804425,0.00272228,-0.000382777,-0.272337,0.00195498,0.0124111,1917,1366,42.2188,-13.5743
700,-342,42.1639,12.8612,0.00301118,-6.17705e-05,-0.00101757,0.00331758,-0.000368175,-0.292478,0.0023441,0.0142166,1924,1366,42.164,-12.8612
707,-342,42.1195,12.0912,0.00336567,8.02241e-05,-0.00118258,0.00374706,-0.000301165,-0.311975,0.00260424,0.0146029,1931,1366,42.1196,-12.0911
714,-342,42.1964,11.1672,0,0,0,0,0,0,0,-1,1938,1366,42.1964,-11.1673
721,-342,22.4666,6.08679,0,0,0,0,0,0,0,-1,1945,1366,22.4666,-6.08678
728,-342,19.8912,5.26636,0,0,0,0,0,0,0,-1,1952,1366,19.8913,-5.26636
735,-342,19.481,4.41968,0,0,0,0,0,0,0,-1,1959,1366,19.4809,-4.41962
742,-342,19.309,2.66943,0,0,0,0,0,0,0,-1,1966,1366,19.3089,-2.66948
749,-342,21.0934,6.47729,0,0,0,0,0,0,0,-1,1973,1366,21.0934,-6.4773
756,-342,0,0,0,0,0,0,0,0,0,-1,1980,1366,0,0
763,-342,0,0,0,0,0,0,0,0,0,-1,1987,1366,0,0
770,-342,0,0,0,0,0,0,0,0,0,-1,1994,1366,0,0
777,-342,0,0,0,0,0,0,0,0,0,-1,2001,1366,0,0
784,-342,0,0,0,0,0,0,0,0,0,-1,2008,1366,0,0
791,-342,0,0,0,0,0,0,0,0,0,-1,2015,1366,0,0
798,-342,0,0,0,0,0,0,0,0,0,-1,2022,1366,0,0
805,-342,0,0,0,0,0,0,0,0,0,-1,2029,1366,0,0
812,-342,0,0,0,0,0,0,0,0,0,-1,2036,1366,0,0
-700,-349,0,0,0,0,0,0,0,0,0,-1,524,1373,0,0
-693,-349,0,0,0,0,0,0,0,0,0,-1,531,1373,0,0
-686,-349,0,0,0,0,0,0,0,0,0,-1,538,1373,0,0
-679,-349,0,0,0,0,0,0,0,0,0,-1,545,1373,0,0
-672,-349,0,0,0,0,0,0,0,0,0,-1,552,1373,0,0
-665,-349,0,0,0,0,0,0,0,0,0,-1,559,1373,0,0
-658,-349,0,0,0,0,0,0,0,0,0,-1,566,1373,0,0
-651,-349,0,0,0,0,0,0,0,0,0,-1,573,1373,0,0
-644,-349,0,0,0,0,0,0,0,0,0,-1,580,1373,0,0
-637,-349,0,0,0,0,0,0,0,0,0,-1,587,1373,0,0
-630,-349,-7.64117,-5.06177,0,0,0,0,0,0,0,-1,594,1373,-7.64118,5.0618
-623,-349,-8.63507,0.51123,0,0,0,0,0,0,0,-1,601,1373,-8.63505,-0.511275
-616,-349,-5.2066,-0.188232,0,0,0,0,0,0,0,-1,608,1373,-5.20659,0.188211
-609,-349,-7.12073,1.37048,0,0,0,0,0,0,0,-1,615,1373,-7.12072,-1.37044
-602,-349,-9.00623,3.39587,0,0,0,0,0,0,0,-1,622,1373,-9.0062,-3.39591
-595,-349,-9.50568,2.96912,0,0,0,0,0,0,0,-1,629,1373,-9.50569,-2.96906
-588,-349,-8.60046,3.56042,0,0,0,0,0,0,0,-1,636,1373,-8.60046,-3.56047
-581,-349,-24.3761,10.0447,0,0,0,0,0,0,0,-1,643,1373,-24.3761,-10.0447
-574,-349,-24.4679,10.7627,0.00443691,0.00278559,0.00210681,0.00587408,0.00134842,0.598646,0.00355292,0.0429056,650,1373,-24.4679,-10.7627
-567,-349,-24.5505,11.6442,0.003739,0.00217713,0.00171554,0.00484299,0.00107314,0.571809,0.00293704,0.0201669,657,1373,-24.5505,-11.6442
-560,-349,-24.5766,12.4319,0.00329767,0.00161519,0.00146377,0.00414472,0.000768142,0.52459,0.00254602,0.0241446,664,1373,-24.5766,-12.4319
-553,-349,-24.5781,13.1232,0.00304736,0.00112922,0.00132568,0.00372452,0.000452058,0.472252,0.00234689,0.0286559,671,1373,-24.5781,-13.1232
-546,-349,-24.6025,13.8049,0.00295749,0.000714685,0.00128594,0.00354231,0.000129866,0.42682,0.00231947,0.0306234,678,1373,-24.6025,-13.805
-539,-349,-24.653,14.5959,0.00300951,0.000363061,0.0013346,0.00356567,-0.0001931,0.39484,0.00244403,0.0248037,685,1373,-24.653,-14.5959
-532,-349,-24.7147,15.4412,0.00320602,8.58289e-05,0.00147109,0.00379022,-0.000498372,0.378022,0.00270827,0.0173521,692,1373,-24.7146,-15.4412
-525,-349,-24.7036,16.2322,0.00354371,-0.000152507,0.00167634,0.00419072,-0.000799516,0.36835,0.00309494,0.0135578,699,1373,-24.7036,-16.2321
-518,-349,-24.727,17.0447,0.00403471,-0.000176202,0.00198649,0.00482392,-0.000965415,0.378167,0.00358139,0.0261204,706,1373,-24.727,-17.0446
-511,-349,-24.7114,17.8745,0,0,0,0,0,0,0,-1,713,1373,-24.7114,-17.8745
-504,-349,-9.60516,7.88831,0,0,0,0,0,0,0,-1,720,1373,-9.60519,-7.88825
-497,-349,-7.9339,5.58789,0,0,0,0,0,0,0,-1,727,1373,-7.93388,-5.58785
-490,-349,-8.73969,-0.503784,0,0,0,0,0,0,0,-1,734,1373,-8.73966,0.503752
-483,-349,-5.66974,3.7395,0,0,0,0,0,0,0,-1,741,1373,-5.66975,-3.73949
-476,-349,-10.8496,1.15759,0,0,0,0,0,0,0,-1,748,1373,-10.8496,-1.15756
-469,-349,-12.3314,-1.74878,0,0,0,0,0,0,0,-1,755,1373,-12.3314,1.74882
-462,-349,-12.6559,-0.995361,0,0,0,0,0,0,0,-1,762,1373,-12.656,0.995351
-455,-349,-13.2897,-0.234253,0,0,0,0,0,0,0,-1,769,1373,-13.2897,0.234261
-448,-349,-14.045,0.712891,0,0,0,0,0,0,0,-1,776,1373,-14.045,-0.712838
-441,-349,0,0,0,0,0,0,0,0,0,-1,783,1373,0,0
-434,-349,0,0,0,0,0,0,0,0,0,-1,790,1373,0,0
-427,-349,0,0,0,0,0,0,0,0,0,-1,797,1373,0,0
-420,-349,0,0,0,0,0,0,0,0,0,-1,804,1373,0,0
-413,-349,0,0,0,0,0,0,0,0,0,-1,811,1373,0,0
-406,-349,0,0,0,0,0,0,0,0,0,-1,818,1373,0,0
-399,-349,0,0,0,0,0,0,0,0,0,-1,825,1373,0,0
-392,-349,0,0,0,0,0,0,0,0,0,-1,832,1373,0,0
-385,-349,0,0,0,0,0,0,0,0,0,-1,839,1373,0,0
-378,-349,0,0,0,0,0,0,0,0,0,-1,846,1373,0,0
-371,-349,0,0,0,0,0,0,0,0,0,-1,853,1373,0,0
-364,-349,0,0,0,0,0,0,0,0,0,-1,860,1373,0,0
-357,-349,0,0,0,0,0,0,0,0,0,-1,867,1373,0,0
-350,-349,0,0,0,0,0,0,0,0,0,-1,874,1373,0,0
-343,-349,0,0,0,0,0,0,0,0,0,-1,881,1373,0,0
-336,-349,0,0,0,0,0,0,0,0,0,-1,888,1373,0,0
-329,-349,0,0,0,0,0,0,0,0,0,-1,895,1373,0,0
-322,-349,0,0,0,0,0,0,0,0,0,-1,902,1373,0,0
-315,-349,0,0,0,0,0,0,0,0,0,-1,909,1373,0,0
-308,-349,0,0,0,0,0,0,0,0,0,-1,916,1373,0,0
-301,-349,0,0,0,0,0,0,0,0,0,-1,923,1373,0,0
-294,-349,0,0,0,0,0,0,0,0,0,-1,930,1373,0,0
-287,-349,0,0,0,0,0,0,0,0,0,-1,937,1373,0,0
-280,-349,0,0,0,0,0,0,0,0,0,-1,944,1373,0,0
-273,-349,0,0,0,0,0,0,0,0,0,-1,951,1373,0,0
-266,-349,0,0,0,0,0,0,0,0,0,-1,958,1373,0,0
-259,-349,0,0,0,0,0,0,0,0,0,-1,965,1373,0,0
-252,-349,0,0,0,0,0,0,0,0,0,-1,972,1373,0,0
-245,-349,0,0,0,0,0,0,0,0,0,-1,979,1373,0,0
-238,-349,0,0,0,0,0,0,0,0,0,-1,986,1373,0,0
-231,-349,0,0,0,0,0,0,0,0,0,-1,993,1373,0,0
-224,-349,0,0,0,0,0,0,0,0,0,-1,1000,1373,0,0
-217,-349,0,0,0,0,0,0,0,0,0,-1,1007,1373,0,0
-210,-349,0,0,0,0,0,0,0,0,0,-1,1014,1373,0,0
-203,-349,0,0,0,0,0,0,0,0,0,-1,1021,1373,0,0
-196,-349,0,0,0,0,0,0,0,0,0,-1,1028,1373,0,0
-189,-349,0,0,0,0,0,0,0,0,0,-1,1035,1373,0,0
-182,-349,0,0,0,0,0,0,0,0,0,-1,1042,1373,0,0
-175,-349,0,0,0,0,0,0,0,0,0,-1,1049,1373,0,0
-168,-349,0,0,0,0,0,0,0,0,0,-1,1056,1373,0,0
-161,-349,0,0,0,0,0,0,0,0,0,-1,1063,1373,0,0
-154,-349,0,0,0,0,0,0,0,0,0,-1,1070,1373,0,0
-147,-349,0,0,0,0,0,0,0,0,0,-1,1077,1373,0,0
-140,-349,0,0,0,0,0,0,0,0,0,-1,1084,1373,0,0
-133,-349,0,0,0,0,0,0,0,0,0,-1,1091,1373,0,0
-126,-349,0,0,0,0,0,0,0,0,0,-1,1098,1373,0,0
-119,-349,0,0,0,0,0,0,0,0,0,-1,1105,1373,0,0
-112,-349,0,0,0,0,0,0,0,0,0,-1,1112,1373,0,0
-105,-349,0,0,0,0,0,0,0,0,0,-1,1119,1373,0,0
-98,-349,0,0,0,0,0,0,0,0,0,-1,1126,1373,0,0
-91,-349,0,0,0,0,0,0,0,0,0,-1,1133,1373,0,0
-84,-349,0,0,0,0,0,0,0,0,0,-1,1140,1373,0,0
-77,-349,0,0,0,0,0,0,0,0,0,-1,1147,1373,0,0
-70,-349,0,0,0,0,0,0,0,0,0,-1,1154,1373,0,0
-63,-349,0,0,0,0,0,0,0,0,0,-1,1161,1373,0,0
-56,-349,0,0,0,0,0,0,0,0,0,-1,1168,1373,0,0
-49,-349,0,0,0,0,0,0,0,0,0,-1,1175,1373,0,0
-42,-349,0,0,0,0,0,0,0,0,0,-1,1182,1373,0,0
-35,-349,0,0,0,0,0,0,0,0,0,-1,1189,1373,0,0
-28,-349,0,0,0,0,0,0,0,0,0,-1,1196,1373,0,0
-21,-349,0,0,0,0,0,0,0,0,0,-1,1203,1373,0,0
-14,-349,0,0,0,0,0,0,0,0,0,-1,1210,1373,0,0
-7,-349,0,0,0,0,0,0,0,0,0,-1,1217,1373,0,0
0,-349,0,0,0,0,0,0,0,0,0,-1,1224,1373,0,0
7,-349,0,0,0,0,0,0,0,0,0,-1,1231,1373,0,0
14,-349,0,0,0,0,0,0,0,0,0,-1,1238,1373,0,0
21,-349,0,0,0,0,0,0,0,0,0,-1,1245,1373,0,0
28,-349,0,0,0,0,0,0,0,0,0,-1,1252,1373,0,0
35,-349,0,0,0,0,0,0,0,0,0,-1,1259,1373,0,0
42,-349,0,0,0,0,0,0,0,0,0,-1,1266,1373,0,0
49,-349,0,0,0,0,0,0,0,0,0,-1,1273,1373,0,0
56,-349,0,0,0,0,0,0,0,0,0,-1,1280,1373,0,0
63,-349,0,0,0,0,0,0,0,0,0,-1,1287,1373,0,0
70,-349,0,0,0,0,0,0,0,0,0,-1,1294,1373,0,0
77,-349,0,0,0,0,0,0,0,0,0,-1,1301,1373,0,0
84,-349,0,0,0,0,0,0,0,0,0,-1,1308,1373,0,0
91,-349,0,0,0,0,0,0,0,0,0,-1,1315,1373,0,0
98,-349,0,0,0,0,0,0,0,0,0,-1,1322,1373,0,0
105,-349,0,0,0,0,0,0,0,0,0,-1,1329,1373,0,0
112,-349,0,0,0,0,0,0,0,0,0,-1,1336,1373,0,0
119,-349,0,0,0,0,0,0,0,0,0,-1,1343,1373,0,0
126,-349,0,0,0,0,0,0,0,0,0,-1,1350,1373,0,0
133,-349,0,0,0,0,0,0,0,0,0,-1,1357,1373,0,0
140,-349,0,0,0,0,0,0,0,0,0,-1,1364,1373,0,0
147,-349,0,0,0,0,0,0,0,0,0,-1,1371,1373,0,0
154,-349,0,0,0,0,0,0,0,0,0,-1,1378,1373,0,0
161,-349,0,0,0,0,0,0,0,0,0,-1,1385,1373,0,0
168,-349,0,0,0,0,0,0,0,0,0,-1,1392,1373,0,0
175,-349,0,0,0,0,0,0,0,0,0,-1,1399,1373,0,0
182,-349,0,0,0,0,0,0,0,0,0,-1,1406,1373,0,0
189,-349,0,0,0,0,0,0,0,0,0,-1,1413,1373,0,0
196,-349,0,0,0,0,0,0,0,0,0,-1,1420,1373,0,0
203,-349,0,0,0,0,0,0,0,0,0,-1,1427,1373,0,0
210,-349,0,0,0,0,0,0,0,0,0,-1,1434,1373,0,0
217,-349,0,0,0,0,0,0,0,0,0,-1,1441,1373,0,0
224,-349,0,0,0,0,0,0,0,0,0,-1,1448,1373,0,0
231,-349,0,0,0,0,0,0,0,0,0,-1,1455,1373,0,0
238,-349,0,0,0,0,0,0,0,0,0,-1,1462,1373,0,0
245,-349,0,0,0,0,0,0,0,0,0,-1,1469,1373,0,0
252,-349,0,0,0,0,0,0,0,0,0,-1,1476,1373,0,0
259,-349,0,0,0,0,0,0,0,0,0,-1,1483,1373,0,0
266,-349,0,0,0,0,0,0,0,0,0,-1,1490,1373,0,0
273,-349,0,0,0,0,0,0,0,0,0,-1,1497,1373,0,0
280,-349,0,0,0,0,0,0,0,0,0,-1,1504,1373,0,0
287,-349,0,0,0,0,0,0,0,0,0,-1,1511,1373,0,0
294,-349,0,0,0,0,0,0,0,0,0,-1,1518,1373,0,0
301,-349,0,0,0,0,0,0,0,0,0,-1,1525,1373,0,0
308,-349,0,0,0,0,0,0,0,0,0,-1,1532,1373,0,0
315,-349,0,0,0,0,0,0,0,0,0,-1,1539,1373,0,0
322,-349,0,0,0,0,0,0,0,0,0,-1,1546,1373,0,0
329,-349,0,0,0,0,0,0,0,0,0,-1,1553,1373,0,0
336,-349,0,0,0,0,0,0,0,0,0,-1,1560,1373,0,0
343,-349,0,0,0,0,0,0,0,0,0,-1,1567,1373,0,0
350,-349,0,0,0,0,0,0,0,0,0,-1,1574,1373,0,0
357,-349,0,0,0,0,0,0,0,0,0,-1,1581,1373,0,0
364,-349,0,0,0,0,0,0,0,0,0,-1,1588,1373,0,0
371,-349,0,0,0,0,0,0,0,0,0,-1,1595,1373,0,0
378,-349,0,0,0,0,0,0,0,0,0,-1,1602,1373,0,0
385,-349,0,0,0,0,0,0,0,0,0,-1,1609,1373,0,0
392,-349,0,0,0,0,0,0,0,0,0,-1,1616,1373,0,0
399,-349,0,0,0,0,0,0,0,0,0,-1,1623,1373,0,0
406,-349,0,0,0,0,0,0,0,0,0,-1,1630,1373,0,0
413,-349,0,0,0,0,0,0,0,0,0,-1,1637,1373,0,0
420,-349,0,0,0,0,0,0,0,0,0,-1,1644,1373,0,0
427,-349,0,0,0,0,0,0,0,0,0,-1,1651,1373,0,0
434,-349,0,0,0,0,0,0,0,0,0,-1,1658,1373,0,0
441,-349,0,0,0,0,0,0,0,0,0,-1,1665,1373,0,0
448,-349,0,0,0,0,0,0,0,0,0,-1,1672,1373,0,0
455,-349,0,0,0,0,0,0,0,0,0,-1,1679,1373,0,0
462,-349,0,0,0,0,0,0,0,0,0,-1,1686,1373,0,0
469,-349,0,0,0,0,0,0,0,0,0,-1,1693,1373,0,0
476,-349,0,0,0,0,0,0,0,0,0,-1,1700,1373,0,0
483,-349,0,0,0,0,0,0,0,0,0,-1,1707,1373,0,0
490,-349,0,0,0,0,0,0,0,0,0,-1,1714,1373,0,0
497,-349,0,0,0,0,0,0,0,0,0,-1,1721,1373,0,0
504,-349,0,0,0,0,0,0,0,0,0,-1,1728,1373,0,0
511,-349,0,0,0,0,0,0,0,0,0,-1,1735,1373,0,0
518,-349,0,0,0,0,0,0,0,0,0,-1,1742,1373,0,0
525,-349,0,0,0,0,0,0,0,0,0,-1,1749,1373,0,0
532,-349,0,0,0,0,0,0,0,0,0,-1,1756,1373,0,0
539,-349,0,0,0,0,0,0,0,0,0,-1,1763,1373,0,0
546,-349,0,0,0,0,0,0,0,0,0,-1,1770,1373,0,0
553,-349,0,0,0,0,0,0,0,0,0,-1,1777,1373,0,0
560,-349,63.5519,3.94397,0,0,0,0,0,0,0,-1,1784,1373,63.5519,-3.94394
567,-349,64.7863,2.54688,0,0,0,0,0,0,0,-1,1791,1373,64.7863,-2.5469
574,-349,65.8214,1.63818,0,0,0,0,0,0,0,-1,1798,1373,65.8214,-1.63813
581,-349,42.8947,6.78381,0,0,0,0,0,0,0,-1,1805,1373,42.8946,-6.78376
588,-349,44.8121,5.06213,0,0,0,0,0,0,0,-1,1812,1373,44.8121,-5.06215
595,-349,44.4338,6.14099,0,0,0,0,0,0,0,-1,1819,1373,44.4338,-6.14095
602,-349,35.6641,3.26465,0,0,0,0,0,0,0,-1,1826,1373,35.6641,-3.26468
609,-349,34.7175,4.401,0,0,0,0,0,0,0,-1,1833,1373,34.7175,-4.40096
616,-349,27.1451,6.68274,0,0,0,0,0,0,0,-1,1840,1373,27.1451,-6.6828
623,-349,18.8478,2.75769,0,0,0,0,0,0,0,-1,1847,1373,18.8478,-2.75774
630,-349,15.4948,6.47644,0,0,0,0,0,0,0,-1,1854,1373,15.4947,-6.4765
637,-349,16.5161,6.92639,0,0,0,0,0,0,0,-1,1861,1373,16.5161,-6.92636
644,-349,41.8285,18.6379,0,0,0,0,0,0,0,-1,1868,1373,41.8284,-18.6379
651,-349,41.8241,17.9109,-0.00167011,0.00123551,-0.000437909,0.00130007,-0.00173468,-1.42442,0.00175809,0.0479194,1875,1373,41.8241,-17.9108
658,-349,41.6489,17.2108,-0.000764805,0.000682606,-0.000262187,0.000728635,-0.000810835,-1.39701,0.000889235,0.0276869,1882,1373,41.6489,-17.2108
665,-349,41.5861,16.4707,0.000140464,0.00019685,-0.000224806,0.000395224,-5.79103e-05,-0.847777,0.000284756,0.0219403,1889,1373,41.586,-16.4707
672,-349,41.5732,15.7533,0.00099323,-0.000155866,-0.000238224,0.00104066,-0.000203296,-0.196527,0.00077053,0.015628,1896,1373,41.5733,-15.7533
679,-349,41.5605,15.0669,0.00182091,-0.000493961,-0.000270093,0.001852,-0.000525057,-0.114626,0.00144191,0.0159112,1903,1373,41.5606,-15.0669
686,-349,41.6029,14.3387,0.0026419,-0.00076827,-0.000344602,0.00267637,-0.000802744,-0.0997084,0.00210352,0.0175901,1910,1373,41.6029,-14.3388
693,-349,41.4868,13.6047,0.00345681,-0.000994542,-0.000450619,0.00350197,-0.0010397,-0.0998819,0.00274758,0.0192424,1917,1373,41.4868,-13.6048
700,-349,41.4313,12.8876,0.00427007,-0.00114116,-0.00060029,0.00433586,-0.00120696,-0.109166,0.00336582,0.0181994,1924,1373,41.4313,-12.8876
707,-349,41.4956,12.1129,0.00487947,-0.00125158,-0.000695543,0.00495738,-0.00132949,-0.111557,0.00382588,0.0366146,1931,1373,41.4956,-12.113
714,-349,41.5996,11.2288,0,0,0,0,0,0,0,-1,1938,1373,41.5996,-11.2287
721,-349,19.6688,5.93604,0,0,0,0,0,0,0,-1,1945,1373,19.6688,-5.93606
728,-349,18.6333,3.73218,0,0,0,0,0,0,0,-1,1952,1373,18.6333,-3.73214
735,-349,18.1918,3.39954,0,0,0,0,0,0,0,-1,1959,1373,18.1918,-3.3995
742,-349,20.7345,2.07483,0,0,0,0,0,0,0,-1,1966,1373,20.7345,-2.07485
749,-349,21.9037,1.45789,0,0,0,0,0,0,0,-1,1973,1373,21.9037,-1.45788
756,-349,0,0,0,0,0,0,0,0,0,-1,1980,1373,0,0
763,-349,0,0,0,0,0,0,0,0,0,-1,1987,1373,0,0
770,-349,0,0,0,0,0,0,0,0,0,-1,1994,1373,0,0
777,-349,0,0,0,0,0,0,0,0,0,-1,2001,1373,0,0
784,-349,0,0,0,0,0,0,0,0,0,-1,2008,1373,0,0
791,-349,0,0,0,0,0,0,0,0,0,-1,2015,1373,0,0
798,-349,0,0,0,0,0,0,0,0,0,-1,2022,1373,0,0
805,-349,0,0,0,0,0,0,0,0,0,-1,2029,1373,0,0
812,-349,0,0,0,0,0,0,0,0,0,-1,2036,1373,0,0
-700,-356,0,0,0,0,0,0,0,0,0,-1,524,1380,0,0
-693,-356,0,0,0,0,0,0,0,0,0,-1,531,1380,0,0
-686,-356,0,0,0,0,0,0,0,0,0,-1,538,1380,0,0
-679,-356,0,0,0,0,0,0,0,0,0,-1,545,1380,0,0
-672,-356,0,0,0,0,0,0,0,0,0,-1,552,1380,0,0
-665,-356,0,0,0,0,0,0,0,0,0,-1,559,1380,0,0
-658,-356,0,0,0,0,0,0,0,0,0,-1,566,1380,0,0
-651,-356,0,0,0,0,0,0,0,0,0,-1,573,1380,0,0
-644,-356,0,0,0,0,0,0,0,0,0,-1,580,1380,0,0
-637,-356,0,0,0,0,0,0,0,0,0,-1,587,1380,0,0
-630,-356,-8.23126,-5.01917,0,0,0,0,0,0,0,-1,594,1380,-8.23124,5.0192
-623,-356,-0.263855,-0.675781,0,0,0,0,0,0,0,-1,601,1380,-0.263835,0.675841
-616,-356,-8.26532,-3.43945,0,0,0,0,0,0,0,-1,608,1380,-8.2653,3.43948
-609,-356,-4.88483,0.734497,0,0,0,0,0,0,0,-1,615,1380,-4.88485,-0.734532
-602,-356,-9.06635,2.4021,0,0,0,0,0,0,0,-1,622,1380,-9.06634,-2.40206
-595,-356,-8.45703,3.61853,0,0,0,0,0,0,0,-1,629,1380,-8.45706,-3.61848
-588,-356,-9.31738,4.14258,0,0,0,0,0,0,0,-1,636,1380,-9.31736,-4.14255
-581,-356,-16.5185,7.32312,0,0,0,0,0,0,0,-1,643,1380,-16.5185,-7.32306
-574,-356,-23.6325,10.9808,0,0,0,0,0,0,0,-1,650,1380,-23.6325,-10.9809
-567,-356,-23.8259,11.6107,0.00426439,0.00270166,0.00220907,0.00582621,0.00113984,0.615412,0.00356545,0.0244507,657,1380,-23.8259,-11.6107
-560,-356,-23.7859,12.4569,0.00366174,0.00200076,0.00180519,0.00481832,0.000844188,0.569805,0.00297106,0.0199034,664,1380,-23.786,-12.4569
-553,-356,-23.8008,13.1852,0.00325356,0.00141608,0.00153455,0.00412338,0.000546264,0.515666,0.00258613,0.0218345,671,1380,-23.8008,-13.1851
-546,-356,-23.8634,13.9082,0.00298518,0.000912935,0.00136362,0.00366166,0.000236454,0.460517,0.00236623,0.0240808,678,1380,-23.8634,-13.9083
-539,-356,-23.8913,14.6781,0.0028592,0.000493155,0.00129046,0.00342684,-7.44869e-05,0.414403,0.00230979,0.0170015,685,1380,-23.8913,-14.6781
-532,-356,-23.9553,15.4932,0.00288308,0.00019497,0.00133085,0.00343049,-0.000352442,0.390231,0.00241307,0.0158555,692,1380,-23.9553,-15.4931
-525,-356,-23.9742,16.2618,0.0030431,-3.1845e-05,0.00145378,0.00362159,-0.000610335,0.378713,0.00264145,0.0133187,699,1380,-23.9742,-16.2618
-518,-356,-24.0038,17.0137,0.00335495,-7.03344e-05,0.00169139,0.00404937,-0.000764752,0.389577,0.00298731,0.0140788,706,1380,-24.0039,-17.0137
-511,-356,-24.0119,17.7927,0,0,0,0,0,0,0,-1,713,1380,-24.0119,-17.7927
-504,-356,-14.3925,12.3971,0,0,0,0,0,0,0,-1,720,1380,-14.3925,-12.3971
-497,-356,-5.68604,4.96387,0,0,0,0,0,0,0,-1,727,1380,-5.68605,-4.96385
-490,-356,-7.95288,5.5625,0,0,0,0,0,0,0,-1,734,1380,-7.95285,-5.56246
-483,-356,-7.2627,4.07446,0,0,0,0,0,0,0,-1,741,1380,-7.2627,-4.07441
-476,-356,-5.1936,4.16016,0,0,0,0,0,0,0,-1,748,1380,-5.1936,-4.16012
-469,-356,-10.0883,0.536011,0,0,0,0,0,0,0,-1,755,1380,-10.0883,-0.535989
-462,-356,-12.3481,-0.215698,0,0,0,0,0,0,0,-1,762,1380,-12.3481,0.215641
-455,-356,-13.1367,-0.264648,0,0,0,0,0,0,0,-1,769,1380,-13.1367,0.264647
-448,-356,-13.9116,-0.310181,0,0,0,0,0,0,0,-1,776,1380,-13.9115,0.310207
-441,-356,-13.1602,3.05603,0,0,0,0,0,0,0,-1,783,1380,-13.1602,-3.05609
-434,-356,0,0,0,0,0,0,0,0,0,-1,790,1380,0,0
-427,-356,0,0,0,0,0,0,0,0,0,-1,797,1380,0,0
-420,-356,0,0,0,0,0,0,0,0,0,-1,804,1380,0,0
-413,-356,0,0,0,0,0,0,0,0,0,-1,811,1380,0,0
-406,-356,0,0,0,0,0,0,0,0,0,-1,818,1380,0,0
-399,-356,0,0,0,0,0,0,0,0,0,-1,825,1380,0,0
-392,-356,0,0,0,0,0,0,0,0,0,-1,832,1380,0,0
-385,-356,0,0,0,0,0,0,0,0,0,-1,839,1380,0,0
-378,-356,0,0,0,0,0,0,0,0,0,-1,846,1380,0,0
-371,-356,0,0,0,0,0,0,0,0,0,-1,853,1380,0,0
-364,-356,0,0,0,0,0,0,0,0,0,-1,860,1380,0,0
-357,-356,0,0,0,0,0,0,0,0,0,-1,867,1380,0,0
-350,-356,0,0,0,0,0,0,0,0,0,-1,874,1380,0,0
-343,-356,0,0,0,0,0,0,0,0,0,-1,881,1380,0,0
-336,-356,0,0,0,0,0,0,0,0,0,-1,888,1380,0,0
-329,-356,0,0,0,0,0,0,0,0,0,-1,895,1380,0,0
-322,-356,0,0,0,0,0,0,0,0,0,-1,902,1380,0,0
-315,-356,0,0,0,0,0,0,0,0,0,-1,909,1380,0,0
-308,-356,0,0,0,0,0,0,0,0,0,-1,916,1380,0,0
-301,-356,0,0,0,0,0,0,0,0,0,-1,923,1380,0,0
-294,-356,0,0,0,0,0,0,0,0,0,-1,930,1380,0,0
-287,-356,0,0,0,0,0,0,0,0,0,-1,937,1380,0,0
-280,-356,0,0,0,0,0,0,0,0,0,-1,944,1380,0,0
-273,-356,0,0,0,0,0,0,0,0,0,-1,951,1380,0,0
-266,-356,0,0,0,0,0,0,0,0,0,-1,958,1380,0,0
-259,-356,0,0,0,0,0,0,0,0,0,-1,965,1380,0,0
-252,-356,0,0,0,0,0,0,0,0,0,-1,972,1380,0,0
-245,-356,0,0,0,0,0,0,0,0,0,-1,979,1380,0,0
-238,-356,0,0,0,0,0,0,0,0,0,-1,986,1380,0,0
-231,-356,0,0,0,0,0,0,0,0,0,-1,993,1380,0,0
-224,-356,0,0,0,0,0,0,0,0,0,-1,1000,1380,0,0
-217,-356,0,0,0,0,0,0,0,0,0,-1,1007,1380,0,0
-210,-356,0,0,0,0,0,0,0,0,0,-1,1014,1380,0,0
-203,-356,0,0,0,0,0,0,0,0,0,-1,1021,1380,0,0
-196,-356,0,0,0,0,0,0,0,0,0,-1,1028,1380,0,0
-189,-356,0,0,0,0,0,0,0,0,0,-1,1035,1380,0,0
-182,-356,0,0,0,0,0,0,0,0,0,-1,1042,1380,0,0
-175,-356,0,0,0,0,0,0,0,0,0,-1,1049,1380,0,0
-168,-356,0,0,0,0,0,0,0,0,0,-1,1056,1380,0,0
-161,-356,0,0,0,0,0,0,0,0,0,-1,1063,1380,0,0
-154,-356,0,0,0,0,0,0,0,0,0,-1,1070,1380,0,0
-147,-356,0,0,0,0,0,0,0,0,0,-1,1077,1380,0,0
-140,-356,0,0,0,0,0,0,0,0,0,-1,1084,1380,0,0
-133,-356,0,0,0,0,0,0,0,0,0,-1,1091,1380,0,0
-126,-356,0,0,0,0,0,0,0,0,0,-1,1098,1380,0,0
-119,-356,0,0,0,0,0,0,0,0,0,-1,1105,1380,0,0
-112,-356,0,0,0,0,0,0,0,0,0,-1,1112,1380,0,0
-105,-356,0,0,0,0,0,0,0,0,0,-1,1119,1380,0,0
-98,-356,0,0,0,0,0,0,0,0,0,-1,1126,1380,0,0
-91,-356,0,0,0,0,0,0,0,0,0,-1,1133,1380,0,0
-84,-356,0,0,0,0,0,0,0,0,0,-1,1140,1380,0,0
-77,-356,0,0,0,0,0,0,0,0,0,-1,1147,1380,0,0
-70,-356,0,0,0,0,0,0,0,0,0,-1,1154,1380,0,0
-63,-356,0,0,0,0,0,0,0,0,0,-1,1161,1380,0,0
-56,-356,0,0,0,0,0,0,0,0,0,-1,1168,1380,0,0
-49,-356,0,0,0,0,0,0,0,0,0,-1,1175,1380,0,0
-42,-356,0,0,0,0,0,0,0,0,0,-1,1182,1380,0,0
-35,-356,0,0,0,0,0,0,0,0,0,-1,1189,1380,0,0
-28,-356,0,0,0,0,0,0,0,0,0,-1,1196,1380,0,0
-21,-356,0,0,0,0,0,0,0,0,0,-1,1203,1380,0,0
-14,-356,0,0,0,0,0,0,0,0,0,-1,1210,1380,0,0
-7,-356,0,0,0,0,0,0,0,0,0,-1,1217,1380,0,0
0,-356,0,0,0,0,0,0,0,0,0,-1,1224,1380,0,0
7,-356,0,0,0,0,0,0,0,0,0,-1,1231,1380,0,0
14,-356,0,0,0,0,0,0,0,0,0,-1,1238,1380,0,0
21,-356,0,0,0,0,0,0,0,0,0,-1,1245,1380,0,0
28,-356,0,0,0,0,0,0,0,0,0,-1,1252,1380,0,0
35,-356,0,0,0,0,0,0,0,0,0,-1,1259,1380,0,0
42,-356,0,0,0,0,0,0,0,0,0,-1,1266,1380,0,0
49,-356,0,0,0,0,0,0,0,0,0,-1,1273,1380,0,0
56,-356,0,0,0,0,0,0,0,0,0,-1,1280,1380,0,0
63,-356,0,0,0,0,0,0,0,0,0,-1,1287,1380,0,0
70,-356,0,0,0,0,0,0,0,0,0,-1,1294,1380,0,0
77,-356,0,0,0,0,0,0,0,0,0,-1,1301,1380,0,0
84,-356,0,0,0,0,0,0,0,0,0,-1,1308,1380,0,0
91,-356,0,0,0,0,0,0,0,0,0,-1,1315,1380,0,0
98,-356,0,0,0,0,0,0,0,0,0,-1,1322,1380,0,0
105,-356,0,0,0,0,0,0,0,0,0,-1,1329,1380,0,0
112,-356,0,0,0,0,0,0,0,0,0,-1,1336,1380,0,0
119,-356,0,0,0,0,0,0,0,0,0,-1,1343,1380,0,0
126,-356,0,0,0,0,0,0,0,0,0,-1,1350,1380,0,0
133,-356,0,0,0,0,0,0,0,0,0,-1,1357,1380,0,0
140,-356,0,0,0,0,0,0,0,0,0,-1,1364,1380,0,0
147,-356,0,0,0,0,0,0,0,0,0,-1,1371,1380,0,0
154,-356,0,0,0,0,0,0,0,0,0,-1,1378,1380,0,0
161,-356,0,0,0,0,0,0,0,0,0,-1,1385,1380,0,0
168,-356,0,0,0,0,0,0,0,0,0,-1,1392,1380,0,0
175,-356,0,0,0,0,0,0,0,0,0,-1,1399,1380,0,0
182,-356,0,0,0,0,0,0,0,0,0,-1,1406,1380,0,0
189,-356,0,0,0,0,0,0,0,0,0,-1,1413,1380,0,0
196,-356,0,0,0,0,0,0,0,0,0,-1,1420,1380,0,0
203,-356,0,0,0,0,0,0,0,0,0,-1,1427,1380,0,0
210,-356,0,0,0,0,0,0,0,0,0,-1,1434,1380,0,0
217,-356,0,0,0,0,0,0,0,0,0,-1,1441,1380,0,0
224,-356,0,0,0,0,0,0,0,0,0,-1,1448,1380,0,0
231,-356,0,0,0,0,0,0,0,0,0,-1,1455,1380,0,0
238,-356,0,0,0,0,0,0,0,0,0,-1,1462,1380,0,0
245,-356,0,0,0,0,0,0,0,0,0,-1,1469,1380,0,0
252,-356,0,0,0,0,0,0,0,0,0,-1,1476,1380,0,0
259,-356,0,0,0,0,0,0,0,0,0,-1,1483,1380,0,0
266,-356,0,0,0,0,0,0,0,0,0,-1,1490,1380,0,0
273,-356,0,0,0,0,0,0,0,0,0,-1,1497,1380,0,0
280,-356,0,0,0,0,0,0,0,0,0,-1,1504,1380,0,0
287,-356,0,0,0,0,0,0,0,0,0,-1,1511,1380,0,0
294,-356,0,0,0,0,0,0,0,0,0,-1,1518,1380,0,0
301,-356,0,0,0,0,0,0,0,0,0,-1,1525,1380,0,0
308,-356,0,0,0,0,0,0,0,0,0,-1,1532,1380,0,0
315,-356,0,0,0,0,0,0,0,0,0,-1,1539,1380,0,0
322,-356,0,0,0,0,0,0,0,0,0,-1,1546,1380,0,0
329,-356,0,0,0,0,0,0,0,0,0,-1,1553,1380,0,0
336,-356,0,0,0,0,0,0,0,0,0,-1,1560,1380,0,0
343,-356,0,0,0,0,0,0,0,0,0,-1,1567,1380,0,0
350,-356,0,0,0,0,0,0,0,0,0,-1,1574,1380,0,0
357,-356,0,0,0,0,0,0,0,0,0,-1,1581,1380,0,0
364,-356,0,0,0,0,0,0,0,0,0,-1,1588,1380,0,0
371,-356,0,0,0,0,0,0,0,0,0,-1,1595,1380,0,0
378,-356,0,0,0,0,0,0,0,0,0,-1,1602,1380,0,0
385,-356,0,0,0,0,0,0,0,0,0,-1,1609,1380,0,0
392,-356,0,0,0,0,0,0,0,0,0,-1,1616,1380,0,0
399,-356,0,0,0,0,0,0,0,0,0,-1,1623,1380,0,0
406,-356,0,0,0,0,0,0,0,0,0,-1,1630,1380,0,0
413,-356,0,0,0,0,0,0,0,0,0,-1,1637,1380,0,0
420,-356,0,0,0,0,0,0,0,0,0,-1,1644,1380,0,0
427,-356,0,0,0,0,0,0,0,0,0,-1,1651,1380,0,0
434,-356,0,0,0,0,0,0,0,0,0,-1,1658,1380,0,0
441,-356,0,0,0,0,0,0,0,0,0,-1,1665,1380,0,0
448,-356,0,0,0,0,0,0,0,0,0,-1,1672,1380,0,0
455,-356,0,0,0,0,0,0,0,0,0,-1,1679,1380,0,0
462,-356,0,0,0,0,0,0,0,0,0,-1,1686,1380,0,0
469,-356,0,0,0,0,0,0,0,0,0,-1,1693,1380,0,0
476,-356,0,0,0,0,0,0,0,0,0,-1,1700,1380,0,0
483,-356,0,0,0,0,0,0,0,0,0,-1,1707,1380,0,0
490,-356,0,0,0,0,0,0,0,0,0,-1,1714,1380,0,0
497,-356,0,0,0,0,0,0,0,0,0,-1,1721,1380,0,0
504,-356,0,0,0,0,0,0,0,0,0,-1,1728,1380,0,0
511,-356,0,0,0,0,0,0,0,0,0,-1,1735,1380,0,0
518,-356,0,0,0,0,0,0,0,0,0,-1,1742,1380,0,0
525,-356,0,0,0,0,0,0,0,0,0,-1,1749,1380,0,0
532,-356,0,0,0,0,0,0,0,0,0,-1,1756,1380,0,0
539,-356,0,0,0,0,0,0,0,0,0,-1,1763,1380,0,0
546,-356,0,0,0,0,0,0,0,0,0,-1,1770,1380,0,0
553,-356,0,0,0,0,0,0,0,0,0,-1,1777,1380,0,0
560,-356,63.6171,3.12183,0,0,0,0,0,0,0,-1,1784,1380,63.617,-3.12183
567,-356,65.0425,1.89966,0,0,0,0,0,0,0,-1,1791,1380,65.0424,-1.8996
574,-356,45.5742,3.39575,0,0,0,0,0,0,0,-1,1798,1380,45.5742,-3.39574
581,-356,45.6708,3.64172,0,0,0,0,0,0,0,-1,1805,1380,45.6707,-3.64175
588,-356,44.4739,4.87085,0,0,0,0,0,0,0,-1,1812,1380,44.4739,-4.87086
595,-356,32.0834,5.86084,0,0,0,0,0,0,0,-1,1819,1380,32.0834,-5.86079
602,-356,30.1604,6.07104,0,0,0,0,0,0,0,-1,1826,1380,30.1604,-6.07104
609,-356,28.3435,6.48901,0,0,0,0,0,0,0,-1,1833,1380,28.3435,-6.48899
616,-356,26.9358,6.80872,0,0,0,0,0,0,0,-1,1840,1380,26.9358,-6.80877
623,-356,16.1803,1.07532,0,0,0,0,0,0,0,-1,1847,1380,16.1803,-1.07529
630,-356,16.4138,6.91553,0,0,0,0,0,0,0,-1,1854,1380,16.4138,-6.9155
637,-356,24.8021,12.0151,0,0,0,0,0,0,0,-1,1861,1380,24.8022,-12.0151
644,-356,40.955,18.799,0,0,0,0,0,0,0,-1,1868,1380,40.955,-18.7989
651,-356,41.0253,17.9661,-0.00168722,0.00114439,-0.000332284,0.00118286,-0.00172569,-1.45553,0.00168897,0.0210244,1875,1380,41.0252,-17.966
658,-356,40.9296,17.2222,-0.000677027,0.000583243,-0.000178684,0.000608087,-0.000701872,-1.43264,0.000756951,0.0154524,1882,1380,40.9296,-17.2222
665,-356,40.8939,16.5348,0.000358664,5.42618e-05,-0.000129099,0.000406042,6.88383e-06,-0.351729,0.000268429,0.0157905,1889,1380,40.8939,-16.5348
672,-356,40.859,15.8434,0.00138413,-0.000414614,-0.000111835,0.00139105,-0.000421541,-0.0618566,0.00109526,0.0162162,1896,1380,40.859,-15.8434
679,-356,40.8618,15.1113,0.00241802,-0.000895181,-0.000116136,0.00242208,-0.000899247,-0.0349953,0.00198362,0.0179723,1903,1380,40.8618,-15.1114
686,-356,40.8459,14.3533,0.00347389,-0.00133223,-0.000167521,0.00347972,-0.00133806,-0.0347995,0.0028717,0.0195433,1910,1380,40.8459,-14.3533
693,-356,40.7794,13.6357,0.00453989,-0.00173018,-0.000253114,0.00455009,-0.00174039,-0.0402812,0.00375063,0.0165034,1917,1380,40.7794,-13.6358
700,-356,40.7572,12.905,0.00563759,-0.00203131,-0.00040423,0.00565884,-0.00205255,-0.0525163,0.00461161,0.0235503,1924,1380,40.7572,-12.905
707,-356,40.8442,12.1697,0,0,0,0,0,0,0,-1,1931,1380,40.8443,-12.1697
714,-356,19.6907,5.82129,0,0,0,0,0,0,0,-1,1938,1380,19.6907,-5.82132
721,-356,17.2948,4.1958,0,0,0,0,0,0,0,-1,1945,1380,17.2948,-4.19584
728,-356,19.1846,2.31519,0,0,0,0,0,0,0,-1,1952,1380,19.1846,-2.31514
735,-356,20.0731,2.50842,0,0,0,0,0,0,0,-1,1959,1380,20.0731,-2.50844
742,-356,21.0111,2.43762,0,0,0,0,0,0,0,-1,1966,1380,21.0112,-2.43762
749,-356,22.1411,1.83276,0,0,0,0,0,0,0,-1,1973,1380,22.1411,-1.83275
756,-356,0,0,0,0,0,0,0,0,0,-1,1980,1380,0,0
763,-356,0,0,0,0,0,0,0,0,0,-1,1987,1380,0,0
770,-356,0,0,0,0,0,0,0,0,0,-1,1994,1380,0,0
777,-356,0,0,0,0,0,0,0,0,0,-1,2001,1380,0,0
784,-356,0,0,0,0,0,0,0,0,0,-1,2008,1380,0,0
791,-356,0,0,0,0,0,0,0,0,0,-1,2015,1380,0,0
798,-356,0,0,0,0,0,0,0,0,0,-1,2022,1380,0,0
805,-356,0,0,0,0,0,0,0,0,0,-1,2029,1380,0,0
812,-356,0,0,0,0,0,0,0,0,0,-1,2036,1380,0,0
-700,-363,0,0,0,0,0,0,0,0,0,-1,524,1387,0,0
-693,-363,0,0,0,0,0,0,0,0,0,-1,531,1387,0,0
-686,-363,0,0,0,0,0,0,0,0,0,-1,538,1387,0,0
-679,-363,0,0,0,0,0,0,0,0,0,-1,545,1387,0,0
-672,-363,0,0,0,0,0,0,0,0,0,-1,552,1387,0,0
-665,-363,0,0,0,0,0,0,0,0,0,-1,559,1387,0,0
-658,-363,0,0,0,0,0,0,0,0,0,-1,566,1387,0,0
-651,-363,0,0,0,0,0,0,0,0,0,-1,573,1387,0,0
-644,-363,0,0,0,0,0,0,0,0,0,-1,580,1387,0,0
-637,-363,0,0,0,0,0,0,0,0,0,-1,587,1387,0,0
-630,-363,0,0,0,0,0,0,0,0,0,-1,594,1387,0,0
-623,-363,-9.67566,-5.91846,0,0,0,0,0,0,0,-1,601,1387,-9.67563,5.91847
-616,-363,-9.02985,-2.98083,0,0,0,0,0,0,0,-1,608,1387,-9.02987,2.98079
-609,-363,-4.90265,0.195679,0,0,0,0,0,0,0,-1,615,1387,-4.90263,-0.195721
-602,-363,-9.65009,3.5321,0,0,0,0,0,0,0,-1,622,1387,-9.65007,-3.53211
-595,-363,-8.00256,3.48853,0,0,0,0,0,0,0,-1,629,1387,-8.00256,-3.48855
-588,-363,-10.8846,4.49768,0,0,0,0,0,0,0,-1,636,1387,-10.8846,-4.49773
-581,-363,-11.7469,5.15161,0,0,0,0,0,0,0,-1,643,1387,-11.747,-5.15167
-574,-363,-17.8334,8.33801,0,0,0,0,0,0,0,-1,650,1387,-17.8334,-8.33804
-567,-363,-23.1111,11.6362,0,0,0,0,0,0,0,-1,657,1387,-23.1111,-11.6362
-560,-363,-23.0291,12.4281,0.00404641,0.00241944,0.00227474,0.00564875,0.000817102,0.613677,0.00352518,0.0151837,664,1387,-23.029,-12.4281
-553,-363,-23.0674,13.2427,0.0035146,0.00172621,0.00186095,0.00468504,0.000555763,0.561433,0.00295558,0.0137717,671,1387,-23.0674,-13.2427
-546,-363,-23.1238,13.9783,0.00311093,0.00112792,0.00155287,0.00396184,0.000277013,0.501274,0.0025539,0.0144277,678,1387,-23.1238,-13.9782
-539,-363,-23.1213,14.739,0.00285134,0.000643339,0.00135127,0.00349225,2.42097e-06,0.442884,0.00232736,0.0160464,685,1387,-23.1213,-14.7391
-532,-363,-23.1776,15.5372,0.0027413,0.000317643,0.00127474,0.00328831,-0.000229358,0.405346,0.00227252,0.0141242,692,1387,-23.1776,-15.5372
-525,-363,-23.2047,16.3008,0.00276563,9.21229e-05,0.00129096,0.00328723,-0.00042948,0.383986,0.00234778,0.0125077,699,1387,-23.2046,-16.3008
-518,-363,-23.2275,17.0505,0.00292895,3.45771e-05,0.001417,0.00350716,-0.000543633,0.387429,0.0025388,0.0106069,706,1387,-23.2275,-17.0506
-511,-363,-23.2045,17.8402,0.00330247,0.000176385,0.00173615,0.00407552,-0.000596667,0.418911,0.00293618,0.0305442,713,1387,-23.2045,-17.8402
-504,-363,-23.1585,18.6559,0,0,0,0,0,0,0,-1,720,1387,-23.1585,-18.6559
-497,-363,-7.18842,7.29944,0,0,0,0,0,0,0,-1,727,1387,-7.18839,-7.29945
-490,-363,-5.42413,4.6958,0,0,0,0,0,0,0,-1,734,1387,-5.42412,-4.69583
-483,-363,-6.28375,4.1394,0,0,0,0,0,0,0,-1,741,1387,-6.28374,-4.13944
-476,-363,-5.83807,4.31018,0,0,0,0,0,0,0,-1,748,1387,-5.8381,-4.31013
-469,-363,-10.7125,0.697754,0,0,0,0,0,0,0,-1,755,1387,-10.7125,-0.697811
-462,-363,-9.55951,-0.0830078,0,0,0,0,0,0,0,-1,762,1387,-9.55949,0.0830163
-455,-363,-13.1008,-0.290894,0,0,0,0,0,0,0,-1,769,1387,-13.1008,0.290921
-448,-363,-11.7324,2.46606,0,0,0,0,0,0,0,-1,776,1387,-11.7324,-2.46605
-441,-363,-12.4464,2.5354,0,0,0,0,0,0,0,-1,783,1387,-12.4463,-2.53537
-434,-363,-13.6918,2.14661,0,0,0,0,0,0,0,-1,790,1387,-13.6918,-2.14662
-427,-363,0,0,0,0,0,0,0,0,0,-1,797,1387,0,0
-420,-363,0,0,0,0,0,0,0,0,0,-1,804,1387,0,0
-413,-363,0,0,0,0,0,0,0,0,0,-1,811,1387,0,0
-406,-363,0,0,0,0,0,0,0,0,0,-1,818,1387,0,0
-399,-363,0,0,0,0,0,0,0,0,0,-1,825,1387,0,0
-392,-363,0,0,0,0,0,0,0,0,0,-1,832,1387,0,0
-385,-363,0,0,0,0,0,0,0,0,0,-1,839,1387,0,0
-378,-363,0,0,0,0,0,0,0,0,0,-1,846,1387,0,0
-371,-363,0,0,0,0,0,0,0,0,0,-1,853,1387,0,0
-364,-363,0,0,0,0,0,0,0,0,0,-1,860,1387,0,0
-357,-363,0,0,0,0,0,0,0,0,0,-1,867,1387,0,0
-350,-363,0,0,0,0,0,0,0,0,0,-1,874,1387,0,0
-343,-363,0,0,0,0,0,0,0,0,0,-1,881,1387,0,0
-336,-363,0,0,0,0,0,0,0,0,0,-1,888,1387,0,0
-329,-363,0,0,0,0,0,0,0,0,0,-1,895,1387,0,0
-322,-363,0,0,0,0,0,0,0,0,0,-1,902,1387,0,0
-315,-363,0,0,0,0,0,0,0,0,0,-1,909,1387,0,0
-308,-363,0,0,0,0,0,0,0,0,0,-1,916,1387,0,0
-301,-363,0,0,0,0,0,0,0,0,0,-1,923,1387,0,0
-294,-363,0,0,0,0,0,0,0,0,0,-1,930,1387,0,0
-287,-363,0,0,0,0,0,0,0,0,0,-1,937,1387,0,0
-280,-363,0,0,0,0,0,0,0,0,0,-1,944,1387,0,0
-273,-363,0,0,0,0,0,0,0,0,0,-1,951,1387,0,0
-266,-363,0,0,0,0,0,0,0,0,0,-1,958,1387,0,0
-259,-363,0,0,0,0,0,0,0,0,0,-1,965,1387,0,0
-252,-363,0,0,0,0,0,0,0,0,0,-1,972,1387,0,0
-245,-363,0,0,0,0,0,0,0,0,0,-1,979,1387,0,0
-238,-363,0,0,0,0,0,0,0,0,0,-1,986,1387,0,0
-231,-363,0,0,0,0,0,0,0,0,0,-1,993,1387,0,0
-224,-363,0,0,0,0,0,0,0,0,0,-1,1000,1387,0,0
-217,-363,0,0,0,0,0,0,0,0,0,-1,1007,1387,0,0
-210,-363,0,0,0,0,0,0,0,0,0,-1,1014,1387,0,0
-203,-363,0,0,0,0,0,0,0,0,0,-1,1021,1387,0,0
-196,-363,0,0,0,0,0,0,0,0,0,-1,1028,1387,0,0
-189,-363,0,0,0,0,0,0,0,0,0,-1,1035,1387,0,0
-182,-363,0,0,0,0,0,0,0,0,0,-1,1042,1387,0,0
-175,-363,0,0,0,0,0,0,0,0,0,-1,1049,1387,0,0
-168,-363,0,0,0,0,0,0,0,0,0,-1,1056,1387,0,0
-161,-363,0,0,0,0,0,0,0,0,0,-1,1063,1387,0,0
-154,-363,0,0,0,0,0,0,0,0,0,-1,1070,1387,0,0
-147,-363,0,0,0,0,0,0,0,0,0,-1,1077,1387,0,0
-140,-363,0,0,0,0,0,0,0,0,0,-1,1084,1387,0,0
-133,-363,0,0,0,0,0,0,0,0,0,-1,1091,1387,0,0
-126,-363,0,0,0,0,0,0,0,0,0,-1,1098,1387,0,0
-119,-363,0,0,0,0,0,0,0,0,0,-1,1105,1387,0,0
-112,-363,0,0,0,0,0,0,0,0,0,-1,1112,1387,0,0
-105,-363,0,0,0,0,0,0,0,0,0,-1,1119,1387,0,0
-98,-363,0,0,0,0,0,0,0,0,0,-1,1126,1387,0,0
-91,-363,0,0,0,0,0,0,0,0,0,-1,1133,1387,0,0
-84,-363,0,0,0,0,0,0,0,0,0,-1,1140,1387,0,0
-77,-363,0,0,0,0,0,0,0,0,0,-1,1147,1387,0,0
-70,-363,0,0,0,0,0,0,0,0,0,-1,1154,1387,0,0
-63,-363,0,0,0,0,0,0,0,0,0,-1,1161,1387,0,0
-56,-363,0,0,0,0,0,0,0,0,0,-1,1168,1387,0,0
-49,-363,0,0,0,0,0,0,0,0,0,-1,1175,1387,0,0
-42,-363,0,0,0,0,0,0,0,0,0,-1,1182,1387,0,0
-35,-363,0,0,0,0,0,0,0,0,0,-1,1189,1387,0,0
-28,-363,0,0,0,0,0,0,0,0,0,-1,1196,1387,0,0
-21,-363,0,0,0,0,0,0,0,0,0,-1,1203,1387,0,0
-14,-363,0,0,0,0,0,0,0,0,0,-1,1210,1387,0,0
-7,-363,0,0,0,0,0,0,0,0,0,-1,1217,1387,0,0
0,-363,0,0,0,0,0,0,0,0,0,-1,1224,1387,0,0
7,-363,0,0,0,0,0,0,0,0,0,-1,1231,1387,0,0
14,-363,0,0,0,0,0,0,0,0,0,-1,1238,1387,0,0
21,-363,0,0,0,0,0,0,0,0,0,-1,1245,1387,0,0
28,-363,0,0,0,0,0,0,0,0,0,-1,1252,1387,0,0
35,-363,0,0,0,0,0,0,0,0,0,-1,1259,1387,0,0
42,-363,0,0,0,0,0,0,0,0,0,-1,1266,1387,0,0
49,-363,0,0,0,0,0,0,0,0,0,-1,1273,1387,0,0
56,-363,0,0,0,0,0,0,0,0,0,-1,1280,1387,0,0
63,-363,0,0,0,0,0,0,0,0,0,-1,1287,1387,0,0
70,-363,0,0,0,0,0,0,0,0,0,-1,1294,1387,0,0
77,-363,0,0,0,0,0,0,0,0,0,-1,1301,1387,0,0
84,-363,0,0,0,0,0,0,0,0,0,-1,1308,1387,0,0
91,-363,0,0,0,0,0,0,0,0,0,-1,1315,1387,0,0
98,-363,0,0,0,0,0,0,0,0,0,-1,1322,1387,0,0
105,-363,0,0,0,0,0,0,0,0,0,-1,1329,1387,0,0
112,-363,0,0,0,0,0,0,0,0,0,-1,1336,1387,0,0
119,-363,0,0,0,0,0,0,0,0,0,-1,1343,1387,0,0
126,-363,0,0,0,0,0,0,0,0,0,-1,1350,1387,0,0
133,-363,0,0,0,0,0,0,0,0,0,-1,1357,1387,0,0
140,-363,0,0,0,0,0,0,0,0,0,-1,1364,1387,0,0
147,-363,0,0,0,0,0,0,0,0,0,-1,1371,1387,0,0
154,-363,0,0,0,0,0,0,0,0,0,-1,1378,1387,0,0
161,-363,0,0,0,0,0,0,0,0,0,-1,1385,1387,0,0
168,-363,0,0,0,0,0,0,0,0,0,-1,1392,1387,0,0
175,-363,0,0,0,0,0,0,0,0,0,-1,1399,1387,0,0
182,-363,0,0,0,0,0,0,0,0,0,-1,1406,1387,0,0
189,-363,0,0,0,0,0,0,0,0,0,-1,1413,1387,0,0
196,-363,0,0,0,0,0,0,0,0,0,-1,1420,1387,0,0
203,-363,0,0,0,0,0,0,0,0,0,-1,1427,1387,0,0
210,-363,0,0,0,0,0,0,0,0,0,-1,1434,1387,0,0
217,-363,0,0,0,0,0,0,0,0,0,-1,1441,1387,0,0
224,-363,0,0,0,0,0,0,0,0,0,-1,1448,1387,0,0
231,-363,0,0,0,0,0,0,0,0,0,-1,1455,1387,0,0
238,-363,0,0,0,0,0,0,0,0,0,-1,1462,1387,0,0
245,-363,0,0,0,0,0,0,0,0,0,-1,1469,1387,0,0
252,-363,0,0,0,0,0,0,0,0,0,-1,1476,1387,0,0
259,-363,0,0,0,0,0,0,0,0,0,-1,1483,1387,0,0
266,-363,0,0,0,0,0,0,0,0,0,-1,1490,1387,0,0
273,-363,0,0,0,0,0,0,0,0,0,-1,1497,1387,0,0
280,-363,0,0,0,0,0,0,0,0,0,-1,1504,1387,0,0
287,-363,0,0,0,0,0,0,0,0,0,-1,1511,1387,0,0
294,-363,0,0,0,0,0,0,0,0,0,-1,1518,1387,0,0
301,-363,0,0,0,0,0,0,0,0,0,-1,1525,1387,0,0
308,-363,0,0,0,0,0,0,0,0,0,-1,1532,1387,0,0
315,-363,0,0,0,0,0,0,0,0,0,-1,1539,1387,0,0
322,-363,0,0,0,0,0,0,0,0,0,-1,1546,1387,0,0
329,-363,0,0,0,0,0,0,0,0,0,-1,1553,1387,0,0
336,-363,0,0,0,0,0,0,0,0,0,-1,1560,1387,0,0
343,-363,0,0,0,0,0,0,0,0,0,-1,1567,1387,0,0
350,-363,0,0,0,0,0,0,0,0,0,-1,1574,1387,0,0
357,-363,0,0,0,0,0,0,0,0,0,-1,1581,1387,0,0
364,-363,0,0,0,0,0,0,0,0,0,-1,1588,1387,0,0
371,-363,0,0,0,0,0,0,0,0,0,-1,1595,1387,0,0
378,-363,0,0,0,0,0,0,0,0,0,-1,1602,1387,0,0
385,-363,0,0,0,0,0,0,0,0,0,-1,1609,1387,0,0
392,-363,0,0,0,0,0,0,0,0,0,-1,1616,1387,0,0
399,-363,0,0,0,0,0,0,0,0,0,-1,1623,1387,0,0
406,-363,0,0,0,0,0,0,0,0,0,-1,1630,1387,0,0
413,-363,0,0,0,0,0,0,0,0,0,-1,1637,1387,0,0
420,-363,0,0,0,0,0,0,0,0,0,-1,1644,1387,0,0
427,-363,0,0,0,0,0,0,0,0,0,-1,1651,1387,0,0
434,-363,0,0,0,0,0,0,0,0,0,-1,1658,1387,0,0
441,-363,0,0,0,0,0,0,0,0,0,-1,1665,1387,0,0
448,-363,0,0,0,0,0,0,0,0,0,-1,1672,1387,0,0
455,-363,0,0,0,0,0,0,0,0,0,-1,1679,1387,0,0
462,-363,0,0,0,0,0,0,0,0,0,-1,1686,1387,0,0
469,-363,0,0,0,0,0,0,0,0,0,-1,1693,1387,0,0
476,-363,0,0,0,0,0,0,0,0,0,-1,1700,1387,0,0
483,-363,0,0,0,0,0,0,0,0,0,-1,1707,1387,0,0
490,-363,0,0,0,0,0,0,0,0,0,-1,1714,1387,0,0
497,-363,0,0,0,0,0,0,0,0,0,-1,1721,1387,0,0
504,-363,0,0,0,0,0,0,0,0,0,-1,1728,1387,0,0
511,-363,0,0,0,0,0,0,0,0,0,-1,1735,1387,0,0
518,-363,0,0,0,0,0,0,0,0,0,-1,1742,1387,0,0
525,-363,0,0,0,0,0,0,0,0,0,-1,1749,1387,0,0
532,-363,0,0,0,0,0,0,0,0,0,-1,1756,1387,0,0
539,-363,0,0,0,0,0,0,0,0,0,-1,1763,1387,0,0
546,-363,0,0,0,0,0,0,0,0,0,-1,1770,1387,0,0
553,-363,62.1395,3.42249,0,0,0,0,0,0,0,-1,1777,1387,62.1395,-3.42245
560,-363,63.2896,2.40808,0,0,0,0,0,0,0,-1,1784,1387,63.2896,-2.40811
567,-363,64.4463,1.38135,0,0,0,0,0,0,0,-1,1791,1387,64.4463,-1.38131
574,-363,45.7261,2.8075,0,0,0,0,0,0,0,-1,1798,1387,45.7261,-2.80754
581,-363,39.2413,1.97632,0,0,0,0,0,0,0,-1,1805,1387,39.2413,-1.97636
588,-363,32.5608,6.72131,0,0,0,0,0,0,0,-1,1812,1387,32.5608,-6.72131
595,-363,31.4688,6.95435,0,0,0,0,0,0,0,-1,1819,1387,31.4688,-6.95431
602,-363,25.7437,5.33667,0,0,0,0,0,0,0,-1,1826,1387,25.7437,-5.33667
609,-363,27.7048,7.06885,0,0,0,0,0,0,0,-1,1833,1387,27.7048,-7.06882
616,-363,16.229,1.08704,0,0,0,0,0,0,0,-1,1840,1387,16.229,-1.08706
623,-363,15.7283,7.16663,0,0,0,0,0,0,0,-1,1847,1387,15.7282,-7.16665
630,-363,18.3192,9.27844,0,0,0,0,0,0,0,-1,1854,1387,18.3192,-9.27843
637,-363,40.2408,19.553,0,0,0,0,0,0,0,-1,1861,1387,40.2409,-19.5529
644,-363,40.259,18.7711,-0.00218669,0.00160534,-0.000609992,0.00170105,-0.00228239,-1.41516,0.00230799,0.01896,1868,1387,40.259,-18.7711
651,-363,40.254,18.0135,-0.00135829,0.000969604,-0.000276462,0.00100199,-0.00139067,-1.4542,0.00138747,0.0113469,1875,1387,40.254,-18.0136
658,-363,40.2274,17.2478,-0.00031592,0.00039874,-0.000119263,0.000418118,-0.000335298,-1.40973,0.00043586,0.0126066,1882,1387,40.2274,-17.2478
665,-363,40.1945,16.5649,0.000790547,-0.000190956,-2.22162e-05,0.000791049,-0.000191459,-0.0226194,0.000601431,0.0135174,1889,1387,40.1944,-16.565
672,-363,40.155,15.8771,0.00196047,-0.000789175,5.27879e-05,0.00196148,-0.000790188,0.0191887,0.00163595,0.0147915,1896,1387,40.155,-15.8771
679,-363,40.1194,15.152,0.00319473,-0.00142196,9.87857e-05,0.00319685,-0.00142408,0.0213844,0.00273255,0.0153266,1903,1387,40.1194,-15.152
686,-363,40.0825,14.4128,0.00449194,-0.00206006,9.93189e-05,0.00449345,-0.00206157,0.0151539,0.00387038,0.0153636,1910,1387,40.0825,-14.4128
693,-363,40.0448,13.6654,0.00583527,-0.00267371,4.90362e-05,0.00583555,-0.00267399,0.00576261,0.00502475,0.0140597,1917,1387,40.0448,-13.6654
700,-363,40.2072,12.8778,0.00729007,-0.00318209,-0.000117963,0.0072914,-0.00318342,-0.0112626,0.00620073,0.0310042,1924,1387,40.2072,-12.8778
707,-363,40.5365,12.1158,0,0,0,0,0,0,0,-1,1931,1387,40.5366,-12.1158
714,-363,16.5782,5.3147,0,0,0,0,0,0,0,-1,1938,1387,16.5783,-5.31472
721,-363,14.4045,4.51685,0,0,0,0,0,0,0,-1,1945,1387,14.4045,-4.51685
728,-363,19.9756,0.853027,0,0,0,0,0,0,0,-1,1952,1387,19.9756,-0.853059
735,-363,21.4297,1.2981,0,0,0,0,0,0,0,-1,1959,1387,21.4297,-1.29811
742,-363,21.3621,2.79663,0,0,0,0,0,0,0,-1,1966,1387,21.362,-2.7966
749,-363,0,0,0,0,0,0,0,0,0,-1,1973,1387,0,0
756,-363,0,0,0,0,0,0,0,0,0,-1,1980,1387,0,0
763,-363,0,0,0,0,0,0,0,0,0,-1,1987,1387,0,0
770,-363,0,0,0,0,0,0,0,0,0,-1,1994,1387,0,0
777,-363,0,0,0,0,0,0,0,0,0,-1,2001,1387,0,0
784,-363,0,0,0,0,0,0,0,0,0,-1,2008,1387,0,0
791,-363,0,0,0,0,0,0,0,0,0,-1,2015,1387,0,0
798,-363,0,0,0,0,0,0,0,0,0,-1,2022,1387,0,0
805,-363,0,0,0,0,0,0,0,0,0,-1,2029,1387,0,0
812,-363,0,0,0,0,0,0,0,0,0,-1,2036,1387,0,0
-700,-370,0,0,0,0,0,0,0,0,0,-1,524,1394,0,0
-693,-370,0,0,0,0,0,0,0,0,0,-1,531,1394,0,0
-686,-370,0,0,0,0,0,0,0,0,0,-1,538,1394,0,0
-679,-370,0,0,0,0,0,0,0,0,0,-1,545,1394,0,0
-672,-370,0,0,0,0,0,0,0,0,0,-1,552,1394,0,0
-665,-370,0,0,0,0,0,0,0,0,0,-1,559,1394,0,0
-658,-370,0,0,0,0,0,0,0,0,0,-1,566,1394,0,0
-651,-370,0,0,0,0,0,0,0,0,0,-1,573,1394,0,0
-644,-370,0,0,0,0,0,0,0,0,0,-1,580,1394,0,0
-637,-370,0,0,0,0,0,0,0,0,0,-1,587,1394,0,0
-630,-370,0,0,0,0,0,0,0,0,0,-1,594,1394,0,0
-623,-370,-10.1758,-7.10486,0,0,0,0,0,0,0,-1,601,1394,-10.1758,7.10483
-616,-370,-8.85925,-1.61475,0,0,0,0,0,0,0,-1,608,1394,-8.85925,1.61476
-609,-370,-5.39325,0.0421143,0,0,0,0,0,0,0,-1,615,1394,-5.39328,-0.0421372
-602,-370,-12.3151,3.44592,0,0,0,0,0,0,0,-1,622,1394,-12.3151,-3.44595
-595,-370,-7.53284,5.44214,0,0,0,0,0,0,0,-1,629,1394,-7.53284,-5.44216
-588,-370,-11.2422,4.50598,0,0,0,0,0,0,0,-1,636,1394,-11.2422,-4.50596
-581,-370,-13.1575,5.84888,0,0,0,0,0,0,0,-1,643,1394,-13.1575,-5.84887
-574,-370,-13.0107,6.69861,0,0,0,0,0,0,0,-1,650,1394,-13.0108,-6.69866
-567,-370,-22.3099,11.5338,0,0,0,0,0,0,0,-1,657,1394,-22.3099,-11.5339
-560,-370,-22.3584,12.4186,0.00449883,0.00291826,0.0027772,0.006596,0.000821086,0.646781,0.0041508,0.0362552,664,1394,-22.3584,-12.4186
-553,-370,-22.3019,13.2683,0.00388149,0.00211282,0.00223015,0.00539624,0.000598074,0.59664,0.00341563,0.0122012,671,1394,-22.3019,-13.2684
-546,-370,-22.326,14.0155,0.00335692,0.00140983,0.00179189,0.00442265,0.000344095,0.536553,0.00284069,0.0157176,678,1394,-22.3261,-14.0155
-539,-370,-22.3246,14.8221,0.0029669,0.000855638,0.00147285,0.00372335,9.91835e-05,0.474467,0.00244984,0.0188775,685,1394,-22.3246,-14.8222
-532,-370,-22.3985,15.5958,0.00272836,0.000479578,0.00129055,0.00331563,-0.000107692,0.427048,0.00224718,0.0219515,692,1394,-22.3985,-15.5958
-525,-370,-22.4373,16.3413,0.0026242,0.000241347,0.00122192,0.00313941,-0.000273854,0.399016,0.00218994,0.0194749,699,1394,-22.4373,-16.3413
-518,-370,-22.4559,17.0688,0.00265283,0.000151206,0.00126422,0.00318044,-0.000376402,0.395364,0.00225625,0.0138423,706,1394,-22.4559,-17.0689
-511,-370,-22.4686,17.8577,0.00287901,0.000275538,0.00148243,0.00355012,-0.000395566,0.425103,0.00250902,0.0148559,713,1394,-22.4686,-17.8577
-504,-370,-22.5095,18.6383,0,0,0,0,0,0,0,-1,720,1394,-22.5095,-18.6384
-497,-370,-12.3546,11.7982,0,0,0,0,0,0,0,-1,727,1394,-12.3546,-11.7983
-490,-370,-5.30695,4.5271,0,0,0,0,0,0,0,-1,734,1394,-5.30698,-4.52704
-483,-370,-6.02997,4.59253,0,0,0,0,0,0,0,-1,741,1394,-6.02994,-4.5925
-476,-370,-6.75293,4.65796,0,0,0,0,0,0,0,-1,748,1394,-6.7529,-4.65795
-469,-370,-10.584,1.14294,0,0,0,0,0,0,0,-1,755,1394,-10.584,-1.14293
-462,-370,-9.54462,0.387207,0,0,0,0,0,0,0,-1,762,1394,-9.5446,-0.387176
-455,-370,-8.50525,-0.36853,0,0,0,0,0,0,0,-1,769,1394,-8.50523,0.368582
-448,-370,-10.9543,2.28833,0,0,0,0,0,0,0,-1,776,1394,-10.9543,-2.28835
-441,-370,-11.8699,1.8313,0,0,0,0,0,0,0,-1,783,1394,-11.8699,-1.83127
-434,-370,-12.7855,1.37415,0,0,0,0,0,0,0,-1,790,1394,-12.7855,-1.37419
-427,-370,0,0,0,0,0,0,0,0,0,-1,797,1394,0,0
-420,-370,0,0,0,0,0,0,0,0,0,-1,804,1394,0,0
-413,-370,0,0,0,0,0,0,0,0,0,-1,811,1394,0,0
-406,-370,0,0,0,0,0,0,0,0,0,-1,818,1394,0,0
-399,-370,0,0,0,0,0,0,0,0,0,-1,825,1394,0,0
-392,-370,0,0,0,0,0,0,0,0,0,-1,832,1394,0,0
-385,-370,0,0,0,0,0,0,0,0,0,-1,839,1394,0,0
-378,-370,0,0,0,0,0,0,0,0,0,-1,846,1394,0,0
-371,-370,0,0,0,0,0,0,0,0,0,-1,853,1394,0,0
-364,-370,0,0,0,0,0,0,0,0,0,-1,860,1394,0,0
-357,-370,0,0,0,0,0,0,0,0,0,-1,867,1394,0,0
-350,-370,0,0,0,0,0,0,0,0,0,-1,874,1394,0,0
-343,-370,0,0,0,0,0,0,0,0,0,-1,881,1394,0,0
-336,-370,0,0,0,0,0,0,0,0,0,-1,888,1394,0,0
-329,-370,0,0,0,0,0,0,0,0,0,-1,895,1394,0,0
-322,-370,0,0,0,0,0,0,0,0,0,-1,902,1394,0,0
-315,-370,0,0,0,0,0,0,0,0,0,-1,909,1394,0,0
-308,-370,0,0,0,0,0,0,0,0,0,-1,916,1394,0,0
-301,-370,0,0,0,0,0,0,0,0,0,-1,923,1394,0,0
-294,-370,0,0,0,0,0,0,0,0,0,-1,930,1394,0,0
-287,-370,0,0,0,0,0,0,0,0,0,-1,937,1394,0,0
-280,-370,0,0,0,0,0,0,0,0,0,-1,944,1394,0,0
-273,-370,0,0,0,0,0,0,0,0,0,-1,951,1394,0,0
-266,-370,0,0,0,0,0,0,0,0,0,-1,958,1394,0,0
-259,-370,0,0,0,0,0,0,0,0,0,-1,965,1394,0,0
-252,-370,0,0,0,0,0,0,0,0,0,-1,972,1394,0,0
-245,-370,0,0,0,0,0,0,0,0,0,-1,979,1394,0,0
-238,-370,0,0,0,0,0,0,0,0,0,-1,986,1394,0,0
-231,-370,0,0,0,0,0,0,0,0,0,-1,993,1394,0,0
-224,-370,0,0,0,0,0,0,0,0,0,-1,1000,1394,0,0
-217,-370,0,0,0,0,0,0,0,0,0,-1,1007,1394,0,0
-210,-370,0,0,0,0,0,0,0,0,0,-1,1014,1394,0,0
-203,-370,0,0,0,0,0,0,0,0,0,-1,1021,1394,0,0
-196,-370,0,0,0,0,0,0,0,0,0,-1,1028,1394,0,0
-189,-370,0,0,0,0,0,0,0,0,0,-1,1035,1394,0,0
-182,-370,0,0,0,0,0,0,0,0,0,-1,1042,1394,0,0
-175,-370,0,0,0,0,0,0,0,0,0,-1,1049,1394,0,0
-168,-370,0,0,0,0,0,0,0,0,0,-1,1056,1394,0,0
-161,-370,0,0,0,0,0,0,0,0,0,-1,1063,1394,0,0
-154,-370,0,0,0,0,0,0,0,0,0,-1,1070,1394,0,0
-147,-370,0,0,0,0,0,0,0,0,0,-1,1077,1394,0,0
-140,-370,0,0,0,0,0,0,0,0,0,-1,1084,1394,0,0
-133,-370,0,0,0,0,0,0,0,0,0,-1,1091,1394,0,0
-126,-370,0,0,0,0,0,0,0,0,0,-1,1098,1394,0,0
-119,-370,0,0,0,0,0,0,0,0,0,-1,1105,1394,0,0
-112,-370,0,0,0,0,0,0,0,0,0,-1,1112,1394,0,0
-105,-370,0,0,0,0,0,0,0,0,0,-1,1119,1394,0,0
-98,-370,0,0,0,0,0,0,0,0,0,-1,1126,1394,0,0
-91,-370,0,0,0,0,0,0,0,0,0,-1,1133,1394,0,0
-84,-370,0,0,0,0,0,0,0,0,0,-1,1140,1394,0,0
-77,-370,0,0,0,0,0,0,0,0,0,-1,1147,1394,0,0
-70,-370,0,0,0,0,0,0,0,0,0,-1,1154,1394,0,0
-63,-370,0,0,0,0,0,0,0,0,0,-1,1161,1394,0,0
-56,-370,0,0,0,0,0,0,0,0,0,-1,1168,1394,0,0
-49,-370,0,0,0,0,0,0,0,0,0,-1,1175,1394,0,0
-42,-370,0,0,0,0,0,0,0,0,0,-1,1182,1394,0,0
-35,-370,0,0,0,0,0,0,0,0,0,-1,1189,1394,0,0
-28,-370,0,0,0,0,0,0,0,0,0,-1,1196,1394,0,0
-21,-370,0,0,0,0,0,0,0,0,0,-1,1203,1394,0,0
-14,-370,0,0,0,0,0,0,0,0,0,-1,1210,1394,0,0
-7,-370,0,0,0,0,0,0,0,0,0,-1,1217,1394,0,0
0,-370,0,0,0,0,0,0,0,0,0,-1,1224,1394,0,0
7,-370,0,0,0,0,0,0,0,0,0,-1,1231,1394,0,0
14,-370,0,0,0,0,0,0,0,0,0,-1,1238,1394,0,0
21,-370,0,0,0,0,0,0,0,0,0,-1,1245,1394,0,0
28,-370,0,0,0,0,0,0,0,0,0,-1,1252,1394,0,0
35,-370,0,0,0,0,0,0,0,0,0,-1,1259,1394,0,0
42,-370,0,0,0,0,0,0,0,0,0,-1,1266,1394,0,0
49,-370,0,0,0,0,0,0,0,0,0,-1,1273,1394,0,0
56,-370,0,0,0,0,0,0,0,0,0,-1,1280,1394,0,0
63,-370,0,0,0,0,0,0,0,0,0,-1,1287,1394,0,0
70,-370,0,0,0,0,0,0,0,0,0,-1,1294,1394,0,0
77,-370,0,0,0,0,0,0,0,0,0,-1,1301,1394,0,0
84,-370,0,0,0,0,0,0,0,0,0,-1,1308,1394,0,0
91,-370,0,0,0,0,0,0,0,0,0,-1,1315,1394,0,0
98,-370,0,0,0,0,0,0,0,0,0,-1,1322,1394,0,0
105,-370,0,0,0,0,0,0,0,0,0,-1,1329,1394,0,0
112,-370,0,0,0,0,0,0,0,0,0,-1,1336,1394,0,0
119,-370,0,0,0,0,0,0,0,0,0,-1,1343,1394,0,0
126,-370,0,0,0,0,0,0,0,0,0,-1,1350,1394,0,0
133,-370,0,0,0,0,0,0,0,0,0,-1,1357,1394,0,0
140,-370,0,0,0,0,0,0,0,0,0,-1,1364,1394,0,0
147,-370,0,0,0,0,0,0,0,0,0,-1,1371,1394,0,0
154,-370,0,0,0,0,0,0,0,0,0,-1,1378,1394,0,0
161,-370,0,0,0,0,0,0,0,0,0,-1,1385,1394,0,0
168,-370,0,0,0,0,0,0,0,0,0,-1,1392,1394,0,0
175,-370,0,0,0,0,0,0,0,0,0,-1,1399,1394,0,0
182,-370,0,0,0,0,0,0,0,0,0,-1,1406,1394,0,0
189,-370,0,0,0,0,0,0,0,0,0,-1,1413,1394,0,0
196,-370,0,0,0,0,0,0,0,0,0,-1,1420,1394,0,0
203,-370,0,0,0,0,0,0,0,0,0,-1,1427,1394,0,0
210,-370,0,0,0,0,0,0,0,0,0,-1,1434,1394,0,0
217,-370,0,0,0,0,0,0,0,0,0,-1,1441,1394,0,0
224,-370,0,0,0,0,0,0,0,0,0,-1,1448,1394,0,0
231,-370,0,0,0,0,0,0,0,0,0,-1,1455,1394,0,0
238,-370,0,0,0,0,0,0,0,0,0,-1,1462,1394,0,0
245,-370,0,0,0,0,0,0,0,0,0,-1,1469,1394,0,0
252,-370,0,0,0,0,0,0,0,0,0,-1,1476,1394,0,0
259,-370,0,0,0,0,0,0,0,0,0,-1,1483,1394,0,0
266,-370,0,0,0,0,0,0,0,0,0,-1,1490,1394,0,0
273,-370,0,0,0,0,0,0,0,0,0,-1,1497,1394,0,0
280,-370,0,0,0,0,0,0,0,0,0,-1,1504,1394,0,0
287,-370,0,0,0,0,0,0,0,0,0,-1,1511,1394,0,0
294,-370,0,0,0,0,0,0,0,0,0,-1,1518,1394,0,0
301,-370,0,0,0,0,0,0,0,0,0,-1,1525,1394,0,0
308,-370,0,0,0,0,0,0,0,0,0,-1,1532,1394,0,0
315,-370,0,0,0,0,0,0,0,0,0,-1,1539,1394,0,0
322,-370,0,0,0,0,0,0,0,0,0,-1,1546,1394,0,0
329,-370,0,0,0,0,0,0,0,0,0,-1,1553,1394,0,0
336,-370,0,0,0,0,0,0,0,0,0,-1,1560,1394,0,0
343,-370,0,0,0,0,0,0,0,0,0,-1,1567,1394,0,0
350,-370,0,0,0,0,0,0,0,0,0,-1,1574,1394,0,0
357,-370,0,0,0,0,0,0,0,0,0,-1,1581,1394,0,0
364,-370,0,0,0,0,0,0,0,0,0,-1,1588,1394,0,0
371,-370,0,0,0,0,0,0,0,0,0,-1,1595,1394,0,0
378,-370,0,0,0,0,0,0,0,0,0,-1,1602,1394,0,0
385,-370,0,0,0,0,0,0,0,0,0,-1,1609,1394,0,0
392,-370,0,0,0,0,0,0,0,0,0,-1,1616,1394,0,0
399,-370,0,0,0,0,0,0,0,0,0,-1,1623,1394,0,0
406,-370,0,0,0,0,0,0,0,0,0,-1,1630,1394,0,0
413,-370,0,0,0,0,0,0,0,0,0,-1,1637,1394,0,0
420,-370,0,0,0,0,0,0,0,0,0,-1,1644,1394,0,0
427,-370,0,0,0,0,0,0,0,0,0,-1,1651,1394,0,0
434,-370,0,0,0,0,0,0,0,0,0,-1,1658,1394,0,0
441,-370,0,0,0,0,0,0,0,0,0,-1,1665,1394,0,0
448,-370,0,0,0,0,0,0,0,0,0,-1,1672,1394,0,0
455,-370,0,0,0,0,0,0,0,0,0,-1,1679,1394,0,0
462,-370,0,0,0,0,0,0,0,0,0,-1,1686,1394,0,0
469,-370,0,0,0,0,0,0,0,0,0,-1,1693,1394,0,0
476,-370,0,0,0,0,0,0,0,0,0,-1,1700,1394,0,0
483,-370,0,0,0,0,0,0,0,0,0,-1,1707,1394,0,0
490,-370,0,0,0,0,0,0,0,0,0,-1,1714,1394,0,0
497,-370,0,0,0,0,0,0,0,0,0,-1,1721,1394,0,0
504,-370,0,0,0,0,0,0,0,0,0,-1,1728,1394,0,0
511,-370,0,0,0,0,0,0,0,0,0,-1,1735,1394,0,0
518,-370,0,0,0,0,0,0,0,0,0,-1,1742,1394,0,0
525,-370,0,0,0,0,0,0,0,0,0,-1,1749,1394,0,0
532,-370,0,0,0,0,0,0,0,0,0,-1,1756,1394,0,0
539,-370,0,0,0,0,0,0,0,0,0,-1,1763,1394,0,0
546,-370,60.9257,3.80493,0,0,0,0,0,0,0,-1,1770,1394,60.9256,-3.80494
553,-370,61.9966,2.87524,0,0,0,0,0,0,0,-1,1777,1394,61.9966,-2.8753
560,-370,63.1577,1.82617,0,0,0,0,0,0,0,-1,1784,1394,63.1578,-1.82617
567,-370,46.1089,3.11719,0,0,0,0,0,0,0,-1,1791,1394,46.1089,-3.1172
574,-370,38.8953,1.49353,0,0,0,0,0,0,0,-1,1798,1394,38.8952,-1.49348
581,-370,39.178,2.86145,0,0,0,0,0,0,0,-1,1805,1394,39.1779,-2.86145
588,-370,39.2102,4.27661,0,0,0,0,0,0,0,-1,1812,1394,39.2102,-4.27657
595,-370,25.793,4.5271,0,0,0,0,0,0,0,-1,1819,1394,25.793,-4.52711
602,-370,25.1077,5.34937,0,0,0,0,0,0,0,-1,1826,1394,25.1077,-5.34932
609,-370,16.712,0.993286,0,0,0,0,0,0,0,-1,1833,1394,16.7121,-0.99323
616,-370,16.7764,7.23315,0,0,0,0,0,0,0,-1,1840,1394,16.7764,-7.23313
623,-370,17.6625,8.94263,0,0,0,0,0,0,0,-1,1847,1394,17.6624,-8.94258
630,-370,20.9681,11.1785,0,0,0,0,0,0,0,-1,1854,1394,20.9681,-11.1784
637,-370,39.5715,19.4902,0,0,0,0,0,0,0,-1,1861,1394,39.5716,-19.4902
644,-370,39.5652,18.7687,-0.00197834,0.00121708,-0.000380474,0.00126175,-0.00202302,-1.45391,0.00191337,0.0157468,1868,1394,39.5651,-18.7687
651,-370,39.5375,18.0442,-0.00105494,0.000706832,-0.000154088,0.000720207,-0.00106831,-1.48421,0.0010391,0.0137359,1875,1394,39.5375,-18.0442
658,-370,39.4974,17.3318,8.53541e-05,0.000163707,-1.96599e-05,0.000168363,8.06979e-05,-1.33824,9.72324e-05,0.0135385,1882,1394,39.4975,-17.3318
665,-370,39.4619,16.6296,0.00132844,-0.000465593,0.000103505,0.00133439,-0.000471545,0.0574399,0.0010816,0.015514,1889,1394,39.4619,-16.6296
672,-370,39.4166,15.8756,0.00269544,-0.0011996,0.000237902,0.00270992,-0.00121408,0.0607771,0.00231974,0.0163038,1896,1394,39.4166,-15.8756
679,-370,39.4277,15.1281,0.00417733,-0.00205192,0.000374236,0.00419973,-0.00207433,0.0597906,0.00369096,0.0148019,1903,1394,39.4277,-15.1281
686,-370,39.3606,14.443,0.00577768,-0.00300482,0.000487358,0.00580464,-0.00303178,0.0552658,0.00518476,0.0148977,1910,1394,39.3606,-14.443
693,-370,39.3098,13.6815,0.00746869,-0.00402562,0.000566674,0.00749656,-0.00405349,0.0491416,0.00676647,0.0151424,1917,1394,39.3098,-13.6815
700,-370,39.6776,12.8397,0,0,0,0,0,0,0,-1,1924,1394,39.6776,-12.8397
707,-370,39.2391,11.5549,0,0,0,0,0,0,0,-1,1931,1394,39.2392,-11.555
714,-370,16.9116,5.93018,0,0,0,0,0,0,0,-1,1938,1394,16.9116,-5.93014
721,-370,17.2007,4.69153,0,0,0,0,0,0,0,-1,1945,1394,17.2007,-4.69158
728,-370,20.5315,-0.313354,0,0,0,0,0,0,0,-1,1952,1394,20.5315,0.313332
735,-370,22.3652,0.233398,0,0,0,0,0,0,0,-1,1959,1394,22.3652,-0.233355
742,-370,24.1989,0.780029,0,0,0,0,0,0,0,-1,1966,1394,24.1989,-0.780041
749,-370,0,0,0,0,0,0,0,0,0,-1,1973,1394,0,0
756,-370,0,0,0,0,0,0,0,0,0,-1,1980,1394,0,0
763,-370,0,0,0,0,0,0,0,0,0,-1,1987,1394,0,0
770,-370,0,0,0,0,0,0,0,0,0,-1,1994,1394,0,0
777,-370,0,0,0,0,0,0,0,0,0,-1,2001,1394,0,0
784,-370,0,0,0,0,0,0,0,0,0,-1,2008,1394,0,0
791,-370,0,0,0,0,0,0,0,0,0,-1,2015,1394,0,0
798,-370,0,0,0,0,0,0,0,0,0,-1,2022,1394,0,0
805,-370,0,0,0,0,0,0,0,0,0,-1,2029,1394,0,0
812,-370,0,0,0,0,0,0,0,0,0,-1,2036,1394,0,0
-700,-377,0,0,0,0,0,0,0,0,0,-1,524,1401,0,0
-693,-377,0,0,0,0,0,0,0,0,0,-1,531,1401,0,0
-686,-377,0,0,0,0,0,0,0,0,0,-1,538,1401,0,0
-679,-377,0,0,0,0,0,0,0,0,0,-1,545,1401,0,0
-672,-377,0,0,0,0,0,0,0,0,0,-1,552,1401,0,0
-665,-377,0,0,0,0,0,0,0,0,0,-1,559,1401,0,0
-658,-377,0,0,0,0,0,0,0,0,0,-1,566,1401,0,0
-651,-377,0,0,0,0,0,0,0,0,0,-1,573,1401,0,0
-644,-377,0,0,0,0,0,0,0,0,0,-1,580,1401,0,0
-637,-377,0,0,0,0,0,0,0,0,0,-1,587,1401,0,0
-630,-377,0,0,0,0,0,0,0,0,0,-1,594,1401,0,0
-623,-377,0,0,0,0,0,0,0,0,0,-1,601,1401,0,0
-616,-377,-9.43915,-2.4906,0,0,0,0,0,0,0,-1,608,1401,-9.43915,2.49062
-609,-377,-7.2821,-1.35278,0,0,0,0,0,0,0,-1,615,1401,-7.28208,1.35279
-602,-377,-14.9736,3.98279,0,0,0,0,0,0,0,-1,622,1401,-14.9737,-3.98276
-595,-377,-6.9082,1.18201,0,0,0,0,0,0,0,-1,629,1401,-6.90822,-1.18204
-588,-377,-12.8003,3.44751,0,0,0,0,0,0,0,-1,636,1401,-12.8003,-3.44754
-581,-377,-11.8243,6.21521,0,0,0,0,0,0,0,-1,643,1401,-11.8244,-6.21519
-574,-377,-12.2761,6.60547,0,0,0,0,0,0,0,-1,650,1401,-12.2761,-6.60552
-567,-377,-13.4844,7.41931,0,0,0,0,0,0,0,-1,657,1401,-13.4845,-7.41926
-560,-377,-21.7115,12.3646,0,0,0,0,0,0,0,-1,664,1401,-21.7115,-12.3646
-553,-377,-21.5603,13.2517,0.00457066,0.00266649,0.00274851,0.00652732,0.000709827,0.618666,0.00413529,0.0180994,671,1401,-21.5603,-13.2517
-546,-377,-21.5853,14.1033,0.00379961,0.00182992,0.00215332,0.00518262,0.000446911,0.570919,0.00331616,0.0165397,678,1401,-21.5853,-14.1033
-539,-377,-21.5768,14.833,0.00319337,0.0011879,0.001703,0.00416692,0.000214355,0.519324,0.00270932,0.0208761,685,1401,-21.5769,-14.8331
-532,-377,-21.6433,15.5721,0.00275632,0.000727932,0.00139584,0.00346751,1.67429e-05,0.471225,0.00230611,0.0206632,692,1401,-21.6433,-15.5721
-525,-377,-21.621,16.371,0.00248208,0.000445345,0.00122641,0.00305781,-0.000130386,0.438906,0.00208336,0.0247339,699,1401,-21.621,-16.371
-518,-377,-21.694,17.1124,0.00235899,0.000291376,0.00117084,0.00288711,-0.000236745,0.423737,0.00200831,0.0166097,706,1401,-21.694,-17.1124
-511,-377,-21.7406,17.8793,0.002428,0.000350397,0.00127262,0.00303196,-0.000253564,0.443106,0.00211091,0.0121394,713,1401,-21.7406,-17.8793
-504,-377,-21.7929,18.6653,0.00276214,0.000658161,0.00160297,0.00362749,-0.000207193,0.495012,0.00249027,0.015392,720,1401,-21.7929,-18.6653
-497,-377,-21.8224,19.4291,0,0,0,0,0,0,0,-1,727,1401,-21.8224,-19.4291
-490,-377,-8.88409,10.1245,0,0,0,0,0,0,0,-1,734,1401,-8.8841,-10.1245
-483,-377,-5.6524,5.07324,0,0,0,0,0,0,0,-1,741,1401,-5.6524,-5.07325
-476,-377,-6.11682,5.10535,0,0,0,0,0,0,0,-1,748,1401,-6.11681,-5.10537
-469,-377,-10.3211,1.9281,0,0,0,0,0,0,0,-1,755,1401,-10.3211,-1.92808
-462,-377,-9.2204,1.0022,0,0,0,0,0,0,0,-1,762,1401,-9.22039,-1.00218
-455,-377,-8.11969,0.0762939,0,0,0,0,0,0,0,-1,769,1401,-8.11968,-0.0762759
-448,-377,-9.05334,0.877319,0,0,0,0,0,0,0,-1,776,1401,-9.05332,-0.877324
-441,-377,-11.212,0.763428,0,0,0,0,0,0,0,-1,783,1401,-11.212,-0.763415
-434,-377,-11.0984,0.996216,0,0,0,0,0,0,0,-1,790,1401,-11.0984,-0.996265
-427,-377,-11.1733,1.25732,0,0,0,0,0,0,0,-1,797,1401,-11.1733,-1.25732
-420,-377,0,0,0,0,0,0,0,0,0,-1,804,1401,0,0
-413,-377,0,0,0,0,0,0,0,0,0,-1,811,1401,0,0
-406,-377,0,0,0,0,0,0,0,0,0,-1,818,1401,0,0
-399,-377,0,0,0,0,0,0,0,0,0,-1,825,1401,0,0
-392,-377,0,0,0,0,0,0,0,0,0,-1,832,1401,0,0
-385,-377,0,0,0,0,0,0,0,0,0,-1,839,1401,0,0
-378,-377,0,0,0,0,0,0,0,0,0,-1,846,1401,0,0
-371,-377,0,0,0,0,0,0,0,0,0,-1,853,1401,0,0
-364,-377,0,0,0,0,0,0,0,0,0,-1,860,1401,0,0
-357,-377,0,0,0,0,0,0,0,0,0,-1,867,1401,0,0
-350,-377,0,0,0,0,0,0,0,0,0,-1,874,1401,0,0
-343,-377,0,0,0,0,0,0,0,0,0,-1,881,1401,0,0
-336,-377,0,0,0,0,0,0,0,0,0,-1,888,1401,0,0
-329,-377,0,0,0,0,0,0,0,0,0,-1,895,1401,0,0
-322,-377,0,0,0,0,0,0,0,0,0,-1,902,1401,0,0
-315,-377,0,0,0,0,0,0,0,0,0,-1,909,1401,0,0
-308,-377,0,0,0,0,0,0,0,0,0,-1,916,1401,0,0
-301,-377,0,0,0,0,0,0,0,0,0,-1,923,1401,0,0
-294,-377,0,0,0,0,0,0,0,0,0,-1,930,1401,0,0
-287,-377,0,0,0,0,0,0,0,0,0,-1,937,1401,0,0
-280,-377,0,0,0,0,0,0,0,0,0,-1,944,1401,0,0
-273,-377,0,0,0,0,0,0,0,0,0,-1,951,1401,0,0
-266,-377,0,0,0,0,0,0,0,0,0,-1,958,1401,0,0
-259,-377,0,0,0,0,0,0,0,0,0,-1,965,1401,0,0
-252,-377,0,0,0,0,0,0,0,0,0,-1,972,1401,0,0
-245,-377,0,0,0,0,0,0,0,0,0,-1,979,1401,0,0
-238,-377,0,0,0,0,0,0,0,0,0,-1,986,1401,0,0
-231,-377,0,0,0,0,0,0,0,0,0,-1,993,1401,0,0
-224,-377,0,0,0,0,0,0,0,0,0,-1,1000,1401,0,0
-217,-377,0,0,0,0,0,0,0,0,0,-1,1007,1401,0,0
-210,-377,0,0,0,0,0,0,0,0,0,-1,1014,1401,0,0
-203,-377,0,0,0,0,0,0,0,0,0,-1,1021,1401,0,0
-196,-377,0,0,0,0,0,0,0,0,0,-1,1028,1401,0,0
-189,-377,0,0,0,0,0,0,0,0,0,-1,1035,1401,0,0
-182,-377,0,0,0,0,0,0,0,0,0,-1,1042,1401,0,0
-175,-377,0,0,0,0,0,0,0,0,0,-1,1049,1401,0,0
-168,-377,0,0,0,0,0,0,0,0,0,-1,1056,1401,0,0
-161,-377,0,0,0,0,0,0,0,0,0,-1,1063,1401,0,0
-154,-377,0,0,0,0,0,0,0,0,0,-1,1070,1401,0,0
-147,-377,0,0,0,0,0,0,0,0,0,-1,1077,1401,0,0
-140,-377,0,0,0,0,0,0,0,0,0,-1,1084,1401,0,0
-133,-377,0,0,0,0,0,0,0,0,0,-1,1091,1401,0,0
-126,-377,0,0,0,0,0,0,0,0,0,-1,1098,1401,0,0
-119,-377,0,0,0,0,0,0,0,0,0,-1,1105,1401,0,0
-112,-377,0,0,0,0,0,0,0,0,0,-1,1112,1401,0,0
-105,-377,0,0,0,0,0,0,0,0,0,-1,1119,1401,0,0
-98,-377,0,0,0,0,0,0,0,0,0,-1,1126,1401,0,0
-91,-377,0,0,0,0,0,0,0,0,0,-1,1133,1401,0,0
-84,-377,0,0,0,0,0,0,0,0,0,-1,1140,1401,0,0
-77,-377,0,0,0,0,0,0,0,0,0,-1,1147,1401,0,0
-70,-377,0,0,0,0,0,0,0,0,0,-1,1154,1401,0,0
-63,-377,0,0,0,0,0,0,0,0,0,-1,1161,1401,0,0
-56,-377,0,0,0,0,0,0,0,0,0,-1,1168,1401,0,0
-49,-377,0,0,0,0,0,0,0,0,0,-1,1175,1401,0,0
-42,-377,0,0,0,0,0,0,0,0,0,-1,1182,1401,0,0
-35,-377,0,0,0,0,0,0,0,0,0,-1,1189,1401,0,0
-28,-377,0,0,0,0,0,0,0,0,0,-1,1196,1401,0,0
-21,-377,0,0,0,0,0,0,0,0,0,-1,1203,1401,0,0
-14,-377,0,0,0,0,0,0,0,0,0,-1,1210,1401,0,0
-7,-377,0,0,0,0,0,0,0,0,0,-1,1217,1401,0,0
0,-377,0,0,0,0,0,0,0,0,0,-1,1224,1401,0,0
7,-377,0,0,0,0,0,0,0,0,0,-1,1231,1401,0,0
14,-377,0,0,0,0,0,0,0,0,0,-1,1238,1401,0,0
21,-377,0,0,0,0,0,0,0,0,0,-1,1245,1401,0,0
28,-377,0,0,0,0,0,0,0,0,0,-1,1252,1401,0,0
35,-377,0,0,0,0,0,0,0,0,0,-1,1259,1401,0,0
42,-377,0,0,0,0,0,0,0,0,0,-1,1266,1401,0,0
49,-377,0,0,0,0,0,0,0,0,0,-1,1273,1401,0,0
56,-377,0,0,0,0,0,0,0,0,0,-1,1280,1401,0,0
63,-377,0,0,0,0,0,0,0,0,0,-1,1287,1401,0,0
70,-377,0,0,0,0,0,0,0,0,0,-1,1294,1401,0,0
77,-377,0,0,0,0,0,0,0,0,0,-1,1301,1401,0,0
84,-377,0,0,0,0,0,0,0,0,0,-1,1308,1401,0,0
91,-377,0,0,0,0,0,0,0,0,0,-1,1315,1401,0,0
98,-377,0,0,0,0,0,0,0,0,0,-1,1322,1401,0,0
105,-377,0,0,0,0,0,0,0,0,0,-1,1329,1401,0,0
112,-377,0,0,0,0,0,0,0,0,0,-1,1336,1401,0,0
119,-377,0,0,0,0,0,0,0,0,0,-1,1343,1401,0,0
126,-377,0,0,0,0,0,0,0,0,0,-1,1350,1401,0,0
133,-377,0,0,0,0,0,0,0,0,0,-1,1357,1401,0,0
140,-377,0,0,0,0,0,0,0,0,0,-1,1364,1401,0,0
147,-377,0,0,0,0,0,0,0,0,0,-1,1371,1401,0,0
154,-377,0,0,0,0,0,0,0,0,0,-1,1378,1401,0,0
161,-377,0,0,0,0,0,0,0,0,0,-1,1385,1401,0,0
168,-377,0,0,0,0,0,0,0,0,0,-1,1392,1401,0,0
175,-377,0,0,0,0,0,0,0,0,0,-1,1399,1401,0,0
182,-377,0,0,0,0,0,0,0,0,0,-1,1406,1401,0,0
189,-377,0,0,0,0,0,0,0,0,0,-1,1413,1401,0,0
196,-377,0,0,0,0,0,0,0,0,0,-1,1420,1401,0,0
203,-377,0,0,0,0,0,0,0,0,0,-1,1427,1401,0,0
210,-377,0,0,0,0,0,0,0,0,0,-1,1434,1401,0,0
217,-377,0,0,0,0,0,0,0,0,0,-1,1441,1401,0,0
224,-377,0,0,0,0,0,0,0,0,0,-1,1448,1401,0,0
231,-377,0,0,0,0,0,0,0,0,0,-1,1455,1401,0,0
238,-377,0,0,0,0,0,0,0,0,0,-1,1462,1401,0,0
245,-377,0,0,0,0,0,0,0,0,0,-1,1469,1401,0,0
252,-377,0,0,0,0,0,0,0,0,0,-1,1476,1401,0,0
259,-377,0,0,0,0,0,0,0,0,0,-1,1483,1401,0,0
266,-377,0,0,0,0,0,0,0,0,0,-1,1490,1401,0,0
273,-377,0,0,0,0,0,0,0,0,0,-1,1497,1401,0,0
280,-377,0,0,0,0,0,0,0,0,0,-1,1504,1401,0,0
287,-377,0,0,0,0,0,0,0,0,0,-1,1511,1401,0,0
294,-377,0,0,0,0,0,0,0,0,0,-1,1518,1401,0,0
301,-377,0,0,0,0,0,0,0,0,0,-1,1525,1401,0,0
308,-377,0,0,0,0,0,0,0,0,0,-1,1532,1401,0,0
315,-377,0,0,0,0,0,0,0,0,0,-1,1539,1401,0,0
322,-377,0,0,0,0,0,0,0,0,0,-1,1546,1401,0,0
329,-377,0,0,0,0,0,0,0,0,0,-1,1553,1401,0,0
336,-377,0,0,0,0,0,0,0,0,0,-1,1560,1401,0,0
343,-377,0,0,0,0,0,0,0,0,0,-1,1567,1401,0,0
350,-377,0,0,0,0,0,0,0,0,0,-1,1574,1401,0,0
357,-377,0,0,0,0,0,0,0,0,0,-1,1581,1401,0,0
364,-377,0,0,0,0,0,0,0,0,0,-1,1588,1401,0,0
371,-377,0,0,0,0,0,0,0,0,0,-1,1595,1401,0,0
378,-377,0,0,0,0,0,0,0,0,0,-1,1602,1401,0,0
385,-377,0,0,0,0,0,0,0,0,0,-1,1609,1401,0,0
392,-377,0,0,0,0,0,0,0,0,0,-1,1616,1401,0,0
399,-377,0,0,0,0,0,0,0,0,0,-1,1623,1401,0,0
406,-377,0,0,0,0,0,0,0,0,0,-1,1630,1401,0,0
413,-377,0,0,0,0,0,0,0,0,0,-1,1637,1401,0,0
420,-377,0,0,0,0,0,0,0,0,0,-1,1644,1401,0,0
427,-377,0,0,0,0,0,0,0,0,0,-1,1651,1401,0,0
434,-377,0,0,0,0,0,0,0,0,0,-1,1658,1401,0,0
441,-377,0,0,0,0,0,0,0,0,0,-1,1665,1401,0,0
448,-377,0,0,0,0,0,0,0,0,0,-1,1672,1401,0,0
455,-377,0,0,0,0,0,0,0,0,0,-1,1679,1401,0,0
462,-377,0,0,0,0,0,0,0,0,0,-1,1686,1401,0,0
469,-377,0,0,0,0,0,0,0,0,0,-1,1693,1401,0,0
476,-377,0,0,0,0,0,0,0,0,0,-1,1700,1401,0,0
483,-377,0,0,0,0,0,0,0,0,0,-1,1707,1401,0,0
490,-377,0,0,0,0,0,0,0,0,0,-1,1714,1401,0,0
497,-377,0,0,0,0,0,0,0,0,0,-1,1721,1401,0,0
504,-377,0,0,0,0,0,0,0,0,0,-1,1728,1401,0,0
511,-377,0,0,0,0,0,0,0,0,0,-1,1735,1401,0,0
518,-377,0,0,0,0,0,0,0,0,0,-1,1742,1401,0,0
525,-377,0,0,0,0,0,0,0,0,0,-1,1749,1401,0,0
532,-377,0,0,0,0,0,0,0,0,0,-1,1756,1401,0,0
539,-377,0,0,0,0,0,0,0,0,0,-1,1763,1401,0,0
546,-377,27.8485,2.34094,0,0,0,0,0,0,0,-1,1770,1401,27.8486,-2.34091
553,-377,61.8907,2.39148,0,0,0,0,0,0,0,-1,1777,1401,61.8908,-2.39149
560,-377,38.3577,-2.15015,0,0,0,0,0,0,0,-1,1784,1401,38.3576,2.1501
567,-377,38.4889,-0.285645,0,0,0,0,0,0,0,-1,1791,1401,38.4889,0.2857
574,-377,38.6221,1.61694,0,0,0,0,0,0,0,-1,1798,1401,38.6221,-1.61689
581,-377,39.1818,3.76367,0,0,0,0,0,0,0,-1,1805,1401,39.1818,-3.76366
588,-377,25.882,4.35217,0,0,0,0,0,0,0,-1,1812,1401,25.8819,-4.3522
595,-377,25.5392,5.11804,0,0,0,0,0,0,0,-1,1819,1401,25.5392,-5.11808
602,-377,24.816,5.79126,0,0,0,0,0,0,0,-1,1826,1401,24.816,-5.79124
609,-377,15.0223,4.76135,0,0,0,0,0,0,0,-1,1833,1401,15.0224,-4.76129
616,-377,14.1842,5.78992,0,0,0,0,0,0,0,-1,1840,1401,14.1842,-5.78987
623,-377,15.8248,8.76721,0,0,0,0,0,0,0,-1,1847,1401,15.8248,-8.76725
630,-377,37.4343,20.0704,0,0,0,0,0,0,0,-1,1854,1401,37.4344,-20.0704
637,-377,38.8967,19.5591,0,0,0,0,0,0,0,-1,1861,1401,38.8967,-19.559
644,-377,38.8474,18.8054,-0.00157763,0.000693424,-9.79654e-05,0.000697642,-0.00158184,-1.52777,0.00134866,0.0146483,1868,1401,38.8474,-18.8054
651,-377,38.788,18.061,-0.000569834,0.000319603,2.64446e-05,0.000320388,-0.000570619,1.5411,0.000521142,0.0151844,1875,1401,38.788,-18.0611
658,-377,38.7517,17.3667,0.000667845,-0.000171732,0.000130215,0.000687577,-0.000191464,0.15039,0.000533777,0.0163937,1882,1401,38.7517,-17.3666
665,-377,38.7458,16.631,0.00205174,-0.00082019,0.00027248,0.00207736,-0.000845813,0.0937624,0.0017369,0.0206144,1889,1401,38.7458,-16.631
672,-377,38.6864,15.8933,0.00363141,-0.00168224,0.000469491,0.00367257,-0.00172341,0.0874529,0.0031824,0.0205579,1896,1401,38.6864,-15.8934
679,-377,38.675,15.1548,0.00538522,-0.00276432,0.00071478,0.00544744,-0.00282654,0.0868246,0.00485621,0.0188119,1903,1401,38.675,-15.1548
686,-377,38.6272,14.4791,0.00733271,-0.00408207,0.000985983,0.00741725,-0.00416661,0.0855335,0.00677516,0.0158697,1910,1401,38.6272,-14.4791
693,-377,38.6721,13.7252,0.00943996,-0.00561366,0.00127448,0.0095471,-0.0057208,0.0838673,0.00890672,0.0233805,1917,1401,38.6721,-13.7252
700,-377,38.8846,12.8264,0,0,0,0,0,0,0,-1,1924,1401,38.8846,-12.8264
707,-377,28.6234,9.18152,0,0,0,0,0,0,0,-1,1931,1401,28.6234,-9.18151
714,-377,16.5369,5.45959,0,0,0,0,0,0,0,-1,1938,1401,16.5369,-5.4596
721,-377,17.0913,5.42529,0,0,0,0,0,0,0,-1,1945,1401,17.0914,-5.42529
728,-377,14.5396,2.79724,0,0,0,0,0,0,0,-1,1952,1401,14.5396,-2.7972
735,-377,23.2977,-0.991089,0,0,0,0,0,0,0,-1,1959,1401,23.2978,0.991076
742,-377,0,0,0,0,0,0,0,0,0,-1,1966,1401,0,0
749,-377,0,0,0,0,0,0,0,0,0,-1,1973,1401,0,0
756,-377,0,0,0,0,0,0,0,0,0,-1,1980,1401,0,0
763,-377,0,0,0,0,0,0,0,0,0,-1,1987,1401,0,0
770,-377,0,0,0,0,0,0,0,0,0,-1,1994,1401,0,0
777,-377,0,0,0,0,0,0,0,0,0,-1,2001,1401,0,0
784,-377,0,0,0,0,0,0,0,0,0,-1,2008,1401,0,0
791,-377,0,0,0,0,0,0,0,0,0,-1,2015,1401,0,0
798,-377,0,0,0,0,0,0,0,0,0,-1,2022,1401,0,0
805,-377,0,0,0,0,0,0,0,0,0,-1,2029,1401,0,0
812,-377,0,0,0,0,0,0,0,0,0,-1,2036,1401,0,0
-700,-384,0,0,0,0,0,0,0,0,0,-1,524,1408,0,0
-693,-384,0,0,0,0,0,0,0,0,0,-1,531,1408,0,0
-686,-384,0,0,0,0,0,0,0,0,0,-1,538,1408,0,0
-679,-384,0,0,0,0,0,0,0,0,0,-1,545,1408,0,0
-672,-384,0,0,0,0,0,0,0,0,0,-1,552,1408,0,0
-665,-384,0,0,0,0,0,0,0,0,0,-1,559,1408,0,0
-658,-384,0,0,0,0,0,0,0,0,0,-1,566,1408,0,0
-651,-384,0,0,0,0,0,0,0,0,0,-1,573,1408,0,0
-644,-384,0,0,0,0,0,0,0,0,0,-1,580,1408,0,0
-637,-384,0,0,0,0,0,0,0,0,0,-1,587,1408,0,0
-630,-384,0,0,0,0,0,0,0,0,0,-1,594,1408,0,0
-623,-384,0,0,0,0,0,0,0,0,0,-1,601,1408,0,0
-616,-384,-10.019,-3.36646,0,0,0,0,0,0,0,-1,608,1408,-10.019,3.36648
-609,-384,-7.72357,-2.3418,0,0,0,0,0,0,0,-1,615,1408,-7.72358,2.34182
-602,-384,-11.7632,-2.85156,0,0,0,0,0,0,0,-1,622,1408,-11.7632,2.85157
-595,-384,-10.2217,2.8855,0,0,0,0,0,0,0,-1,629,1408,-10.2218,-2.88548
-588,-384,-12.1653,2.29041,0,0,0,0,0,0,0,-1,636,1408,-12.1654,-2.29038
-581,-384,-11.9297,3.60376,0,0,0,0,0,0,0,-1,643,1408,-11.9298,-3.6038
-574,-384,-11.8677,6.02722,0,0,0,0,0,0,0,-1,650,1408,-11.8677,-6.02722
-567,-384,-12.0743,7.04639,0,0,0,0,0,0,0,-1,657,1408,-12.0743,-7.04641
-560,-384,-19.9478,11.6345,0,0,0,0,0,0,0,-1,664,1408,-19.9478,-11.6345
-553,-384,-20.7556,13.364,0,0,0,0,0,0,0,-1,671,1408,-20.7556,-13.364
-546,-384,-20.8264,14.1624,0.00419414,0.00231453,0.00258309,0.00600308,0.000505597,0.610927,0.00384462,0.0143753,678,1408,-20.8264,-14.1623
-539,-384,-20.8763,14.8939,0.00342842,0.00157007,0.00199157,0.00469691,0.000301588,0.567131,0.00303574,0.0164843,685,1408,-20.8763,-14.894
-532,-384,-20.8472,15.5931,0.00284808,0.00100412,0.00155057,0.00373008,0.000122128,0.517176,0.00244703,0.0232582,692,1408,-20.8472,-15.5932
-525,-384,-20.8694,16.4355,0.00247182,0.000660986,0.00128306,0.00313676,-3.95335e-06,0.478137,0.00209249,0.0233147,699,1408,-20.8694,-16.4356
-518,-384,-20.9435,17.1957,0.0022648,0.000450901,0.00114125,0.0028156,-9.98912e-05,0.449648,0.00191123,0.0146376,706,1408,-20.9436,-17.1956
-511,-384,-21.0003,17.9556,0.00225001,0.000451283,0.00115173,0.00281192,-0.000110632,0.453911,0.00191256,0.0115003,713,1408,-21.0003,-17.9555
-504,-384,-21.0313,18.7383,0.00248427,0.000677797,0.0013702,0.00322216,-6.00943e-05,0.493992,0.00216841,0.012703,720,1408,-21.0313,-18.7383
-497,-384,-21.0128,19.5332,0.00293576,0.00114975,0.00177606,0.00403068,5.48265e-05,0.552455,0.00266903,0.0415874,727,1408,-21.0128,-19.5332
-490,-384,-20.8593,20.4281,0,0,0,0,0,0,0,-1,734,1408,-20.8593,-20.4281
-483,-384,-6.26471,7.61194,0,0,0,0,0,0,0,-1,741,1408,-6.26469,-7.61191
-476,-384,-6.02734,5.67761,0,0,0,0,0,0,0,-1,748,1408,-6.02736,-5.6776
-469,-384,-10.206,2.63721,0,0,0,0,0,0,0,-1,755,1408,-10.206,-2.6372
-462,-384,-9.04291,1.43542,0,0,0,0,0,0,0,-1,762,1408,-9.04293,-1.43545
-455,-384,-7.87988,0.233765,0,0,0,0,0,0,0,-1,769,1408,-7.87986,-0.233709
-448,-384,-9.35529,7.19226,0,0,0,0,0,0,0,-1,776,1408,-9.35531,-7.19226
-441,-384,-10.4697,1.79004,0,0,0,0,0,0,0,-1,783,1408,-10.4697,-1.79003
-434,-384,-10.6449,0.552246,0,0,0,0,0,0,0,-1,790,1408,-10.6449,-0.552216
-427,-384,-10.968,1.10583,0,0,0,0,0,0,0,-1,797,1408,-10.968,-1.10588
-420,-384,-12.5607,4.54858,0,0,0,0,0,0,0,-1,804,1408,-12.5607,-4.54859
-413,-384,0,0,0,0,0,0,0,0,0,-1,811,1408,0,0
-406,-384,0,0,0,0,0,0,0,0,0,-1,818,1408,0,0
-399,-384,0,0,0,0,0,0,0,0,0,-1,825,1408,0,0
-392,-384,0,0,0,0,0,0,0,0,0,-1,832,1408,0,0
-385,-384,0,0,0,0,0,0,0,0,0,-1,839,1408,0,0
-378,-384,0,0,0,0,0,0,0,0,0,-1,846,1408,0,0
-371,-384,0,0,0,0,0,0,0,0,0,-1,853,1408,0,0
-364,-384,0,0,0,0,0,0,0,0,0,-1,860,1408,0,0
-357,-384,0,0,0,0,0,0,0,0,0,-1,867,1408,0,0
-350,-384,0,0,0,0,0,0,0,0,0,-1,874,1408,0,0
-343,-384,0,0,0,0,0,0,0,0,0,-1,881,1408,0,0
-336,-384,0,0,0,0,0,0,0,0,0,-1,888,1408,0,0
-329,-384,0,0,0,0,0,0,0,0,0,-1,895,1408,0,0
-322,-384,0,0,0,0,0,0,0,0,0,-1,902,1408,0,0
-315,-384,0,0,0,0,0,0,0,0,0,-1,909,1408,0,0
-308,-384,0,0,0,0,0,0,0,0,0,-1,916,1408,0,0
-301,-384,0,0,0,0,0,0,0,0,0,-1,923,1408,0,0
-294,-384,0,0,0,0,0,0,0,0,0,-1,930,1408,0,0
-287,-384,0,0,0,0,0,0,0,0,0,-1,937,1408,0,0
-280,-384,0,0,0,0,0,0,0,0,0,-1,944,1408,0,0
-273,-384,0,0,0,0,0,0,0,0,0,-1,951,1408,0,0
-266,-384,0,0,0,0,0,0,0,0,0,-1,958,1408,0,0
-259,-384,0,0,0,0,0,0,0,0,0,-1,965,1408,0,0
-252,-384,0,0,0,0,0,0,0,0,0,-1,972,1408,0,0
-245,-384,0,0,0,0,0,0,0,0,0,-1,979,1408,0,0
-238,-384,0,0,0,0,0,0,0,0,0,-1,986,1408,0,0
-231,-384,0,0,0,0,0,0,0,0,0,-1,993,1408,0,0
-224,-384,0,0,0,0,0,0,0,0,0,-1,1000,1408,0,0
-217,-384,0,0,0,0,0,0,0,0,0,-1,1007,1408,0,0
-210,-384,0,0,0,0,0,0,0,0,0,-1,1014,1408,0,0
-203,-384,0,0,0,0,0,0,0,0,0,-1,1021,1408,0,0
-196,-384,0,0,0,0,0,0,0,0,0,-1,1028,1408,0,0
-189,-384,0,0,0,0,0,0,0,0,0,-1,1035,1408,0,0
-182,-384,0,0,0,0,0,0,0,0,0,-1,1042,1408,0,0
-175,-384,0,0,0,0,0,0,0,0,0,-1,1049,1408,0,0
-168,-384,0,0,0,0,0,0,0,0,0,-1,1056,1408,0,0
-161,-384,0,0,0,0,0,0,0,0,0,-1,1063,1408,0,0
-154,-384,0,0,0,0,0,0,0,0,0,-1,1070,1408,0,0
-147,-384,0,0,0,0,0,0,0,0,0,-1,1077,1408,0,0
-140,-384,0,0,0,0,0,0,0,0,0,-1,1084,1408,0,0
-133,-384,0,0,0,0,0,0,0,0,0,-1,1091,1408,0,0
-126,-384,0,0,0,0,0,0,0,0,0,-1,1098,1408,0,0
-119,-384,0,0,0,0,0,0,0,0,0,-1,1105,1408,0,0
-112,-384,0,0,0,0,0,0,0,0,0,-1,1112,1408,0,0
-105,-384,0,0,0,0,0,0,0,0,0,-1,1119,1408,0,0
-98,-384,0,0,0,0,0,0,0,0,0,-1,1126,1408,0,0
-91,-384,0,0,0,0,0,0,0,0,0,-1,1133,1408,0,0
-84,-384,0,0,0,0,0,0,0,0,0,-1,1140,1408,0,0
-77,-384,0,0,0,0,0,0,0,0,0,-1,1147,1408,0,0
-70,-384,0,0,0,0,0,0,0,0,0,-1,1154,1408,0,0
-63,-384,0,0,0,0,0,0,0,0,0,-1,1161,1408,0,0
-56,-384,0,0,0,0,0,0,0,0,0,-1,1168,1408,0,0
-49,-384,0,0,0,0,0,0,0,0,0,-1,1175,1408,0,0
-42,-384,0,0,0,0,0,0,0,0,0,-1,1182,1408,0,0
-35,-384,0,0,0,0,0,0,0,0,0,-1,1189,1408,0,0
-28,-384,0,0,0,0,0,0,0,0,0,-1,1196,1408,0,0
-21,-384,0,0,0,0,0,0,0,0,0,-1,1203,1408,0,0
-14,-384,0,0,0,0,0,0,0,0,0,-1,1210,1408,0,0
-7,-384,0,0,0,0,0,0,0,0,0,-1,1217,1408,0,0
0,-384,0,0,0,0,0,0,0,0,0,-1,1224,1408,0,0
7,-384,0,0,0,0,0,0,0,0,0,-1,1231,1408,0,0
14,-384,0,0,0,0,0,0,0,0,0,-1,1238,1408,0,0
21,-384,0,0,0,0,0,0,0,0,0,-1,1245,1408,0,0
28,-384,0,0,0,0,0,0,0,0,0,-1,1252,1408,0,0
35,-384,0,0,0,0,0,0,0,0,0,-1,1259,1408,0,0
42,-384,0,0,0,0,0,0,0,0,0,-1,1266,1408,0,0
49,-384,0,0,0,0,0,0,0,0,0,-1,1273,1408,0,0
56,-384,0,0,0,0,0,0,0,0,0,-1,1280,1408,0,0
63,-384,0,0,0,0,0,0,0,0,0,-1,1287,1408,0,0
70,-384,0,0,0,0,0,0,0,0,0,-1,1294,1408,0,0
77,-384,0,0,0,0,0,0,0,0,0,-1,1301,1408,0,0
84,-384,0,0,0,0,0,0,0,0,0,-1,1308,1408,0,0
91,-384,0,0,0,0,0,0,0,0,0,-1,1315,1408,0,0
98,-384,0,0,0,0,0,0,0,0,0,-1,1322,1408,0,0
105,-384,0,0,0,0,0,0,0,0,0,-1,1329,1408,0,0
112,-384,0,0,0,0,0,0,0,0,0,-1,1336,1408,0,0
119,-384,0,0,0,0,0,0,0,0,0,-1,1343,1408,0,0
126,-384,0,0,0,0,0,0,0,0,0,-1,1350,1408,0,0
133,-384,0,0,0,0,0,0,0,0,0,-1,1357,1408,0,0
140,-384,0,0,0,0,0,0,0,0,0,-1,1364,1408,0,0
147,-384,0,0,0,0,0,0,0,0,0,-1,1371,1408,0,0
154,-384,0,0,0,0,0,0,0,0,0,-1,1378,1408,0,0
161,-384,0,0,0,0,0,0,0,0,0,-1,1385,1408,0,0
168,-384,0,0,0,0,0,0,0,0,0,-1,1392,1408,0,0
175,-384,0,0,0,0,0,0,0,0,0,-1,1399,1408,0,0
182,-384,0,0,0,0,0,0,0,0,0,-1,1406,1408,0,0
189,-384,0,0,0,0,0,0,0,0,0,-1,1413,1408,0,0
196,-384,0,0,0,0,0,0,0,0,0,-1,1420,1408,0,0
203,-384,0,0,0,0,0,0,0,0,0,-1,1427,1408,0,0
210,-384,0,0,0,0,0,0,0,0,0,-1,1434,1408,0,0
217,-384,0,0,0,0,0,0,0,0,0,-1,1441,1408,0,0
224,-384,0,0,0,0,0,0,0,0,0,-1,1448,1408,0,0
231,-384,0,0,0,0,0,0,0,0,0,-1,1455,1408,0,0
238,-384,0,0,0,0,0,0,0,0,0,-1,1462,1408,0,0
245,-384,0,0,0,0,0,0,0,0,0,-1,1469,1408,0,0
252,-384,0,0,0,0,0,0,0,0,0,-1,1476,1408,0,0
259,-384,0,0,0,0,0,0,0,0,0,-1,1483,1408,0,0
266,-384,0,0,0,0,0,0,0,0,0,-1,1490,1408,0,0
273,-384,0,0,0,0,0,0,0,0,0,-1,1497,1408,0,0
280,-384,0,0,0,0,0,0,0,0,0,-1,1504,1408,0,0
287,-384,0,0,0,0,0,0,0,0,0,-1,1511,1408,0,0
294,-384,0,0,0,0,0,0,0,0,0,-1,1518,1408,0,0
301,-384,0,0,0,0,0,0,0,0,0,-1,1525,1408,0,0
308,-384,0,0,0,0,0,0,0,0,0,-1,1532,1408,0,0
315,-384,0,0,0,0,0,0,0,0,0,-1,1539,1408,0,0
322,-384,0,0,0,0,0,0,0,0,0,-1,1546,1408,0,0
329,-384,0,0,0,0,0,0,0,0,0,-1,1553,1408,0,0
336,-384,0,0,0,0,0,0,0,0,0,-1,1560,1408,0,0
343,-384,0,0,0,0,0,0,0,0,0,-1,1567,1408,0,0
350,-384,0,0,0,0,0,0,0,0,0,-1,1574,1408,0,0
357,-384,0,0,0,0,0,0,0,0,0,-1,1581,1408,0,0
364,-384,0,0,0,0,0,0,0,0,0,-1,1588,1408,0,0
371,-384,0,0,0,0,0,0,0,0,0,-1,1595,1408,0,0
378,-384,0,0,0,0,0,0,0,0,0,-1,1602,1408,0,0
385,-384,0,0,0,0,0,0,0,0,0,-1,1609,1408,0,0
392,-384,0,0,0,0,0,0,0,0,0,-1,1616,1408,0,0
399,-384,0,0,0,0,0,0,0,0,0,-1,1623,1408,0,0
406,-384,0,0,0,0,0,0,0,0,0,-1,1630,1408,0,0
413,-384,0,0,0,0,0,0,0,0,0,-1,1637,1408,0,0
420,-384,0,0,0,0,0,0,0,0,0,-1,1644,1408,0,0
427,-384,0,0,0,0,0,0,0,0,0,-1,1651,1408,0,0
434,-384,0,0,0,0,0,0,0,0,0,-1,1658,1408,0,0
441,-384,0,0,0,0,0,0,0,0,0,-1,1665,1408,0,0
448,-384,0,0,0,0,0,0,0,0,0,-1,1672,1408,0,0
455,-384,0,0,0,0,0,0,0,0,0,-1,1679,1408,0,0
462,-384,0,0,0,0,0,0,0,0,0,-1,1686,1408,0,0
469,-384,0,0,0,0,0,0,0,0,0,-1,1693,1408,0,0
476,-384,0,0,0,0,0,0,0,0,0,-1,1700,1408,0,0
483,-384,0,0,0,0,0,0,0,0,0,-1,1707,1408,0,0
490,-384,0,0,0,0,0,0,0,0,0,-1,1714,1408,0,0
497,-384,0,0,0,0,0,0,0,0,0,-1,1721,1408,0,0
504,-384,0,0,0,0,0,0,0,0,0,-1,1728,1408,0,0
511,-384,0,0,0,0,0,0,0,0,0,-1,1735,1408,0,0
518,-384,0,0,0,0,0,0,0,0,0,-1,1742,1408,0,0
525,-384,0,0,0,0,0,0,0,0,0,-1,1749,1408,0,0
532,-384,0,0,0,0,0,0,0,0,0,-1,1756,1408,0,0
539,-384,27.6886,2.85803,0,0,0,0,0,0,0,-1,1763,1408,27.6886,-2.85807
546,-384,27.5044,2.9425,0,0,0,0,0,0,0,-1,1770,1408,27.5044,-2.94255
553,-384,27.3052,2.78394,0,0,0,0,0,0,0,-1,1777,1408,27.3051,-2.78394
560,-384,26.833,3.19812,0,0,0,0,0,0,0,-1,1784,1408,26.833,-3.19816
567,-384,38.2566,0.109985,0,0,0,0,0,0,0,-1,1791,1408,38.2566,-0.110044
574,-384,38.4003,2.05945,0,0,0,0,0,0,0,-1,1798,1408,38.4003,-2.05949
581,-384,25.819,3.91846,0,0,0,0,0,0,0,-1,1805,1408,25.8189,-3.91848
588,-384,23.3721,4.25439,0,0,0,0,0,0,0,-1,1812,1408,23.3721,-4.25442
595,-384,24.981,5.59595,0,0,0,0,0,0,0,-1,1819,1408,24.981,-5.59598
602,-384,20.6605,4.17261,0,0,0,0,0,0,0,-1,1826,1408,20.6606,-4.17265
609,-384,14.158,5.49475,0,0,0,0,0,0,0,-1,1833,1408,14.158,-5.49474
616,-384,14.7997,7.6908,0,0,0,0,0,0,0,-1,1840,1408,14.7996,-7.69079
623,-384,16.4293,9.58899,0,0,0,0,0,0,0,-1,1847,1408,16.4294,-9.58901
630,-384,38.0856,20.3652,0,0,0,0,0,0,0,-1,1854,1408,38.0856,-20.3653
637,-384,38.1407,19.577,-0.0012925,-0.000255987,0.000302948,-0.000173938,-0.00137455,1.3063,0.000864243,0.0255393,1861,1408,38.1407,-19.577
644,-384,38.0839,18.8739,-0.000852502,0.000295484,3.65453e-05,0.000296647,-0.000853665,1.53901,0.000689599,0.0178066,1868,1408,38.0839,-18.8739
651,-384,38.028,18.114,0.000148018,-2.89628e-05,0.000112331,0.000202527,-8.34716e-05,0.45178,0.000169823,0.0169839,1875,1408,38.028,-18.114
658,-384,37.9843,17.375,0.00140177,-0.000526328,0.000226639,0.00142806,-0.00055261,0.115449,0.00118018,0.0173485,1882,1408,37.9843,-17.3749
665,-384,38.0016,16.6725,0.00287224,-0.00122965,0.000415122,0.00291383,-0.00127123,0.0998539,0.00247751,0.0198825,1889,1408,38.0016,-16.6725
672,-384,37.9646,15.9581,0.00460877,-0.00222986,0.000710385,0.00468179,-0.00230288,0.102421,0.00410982,0.0176819,1896,1408,37.9646,-15.9581
679,-384,37.9219,15.2174,0.00659027,-0.00355895,0.00111353,0.00671101,-0.00367968,0.108004,0.00608357,0.016812,1903,1408,37.9219,-15.2174
686,-384,37.8779,14.5145,0.0088434,-0.00527772,0.00161981,0.00902682,-0.00546115,0.112757,0.00844865,0.0142707,1910,1408,37.878,-14.5145
693,-384,37.9973,13.816,0.0113234,-0.00739072,0.0022439,0.0115887,-0.00765601,0.117682,0.011188,0.0390144,1917,1408,37.9973,-13.816
700,-384,38.1862,13.1686,0,0,0,0,0,0,0,-1,1924,1408,38.1861,-13.1686
707,-384,17.0566,6.62842,0,0,0,0,0,0,0,-1,1931,1408,17.0567,-6.62848
714,-384,16.038,5.0282,0,0,0,0,0,0,0,-1,1938,1408,16.038,-5.02819
721,-384,13.8843,2.8717,0,0,0,0,0,0,0,-1,1945,1408,13.8843,-2.87171
728,-384,15.4409,6.25745,0,0,0,0,0,0,0,-1,1952,1408,15.4409,-6.2574
735,-384,16.7598,6.71289,0,0,0,0,0,0,0,-1,1959,1408,16.7598,-6.71287
742,-384,0,0,0,0,0,0,0,0,0,-1,1966,1408,0,0
749,-384,0,0,0,0,0,0,0,0,0,-1,1973,1408,0,0
756,-384,0,0,0,0,0,0,0,0,0,-1,1980,1408,0,0
763,-384,0,0,0,0,0,0,0,0,0,-1,1987,1408,0,0
770,-384,0,0,0,0,0,0,0,0,0,-1,1994,1408,0,0
777,-384,0,0,0,0,0,0,0,0,0,-1,2001,1408,0,0
784,-384,0,0,0,0,0,0,0,0,0,-1,2008,1408,0,0
791,-384,0,0,0,0,0,0,0,0,0,-1,2015,1408,0,0
798,-384,0,0,0,0,0,0,0,0,0,-1,2022,1408,0,0
805,-384,0,0,0,0,0,0,0,0,0,-1,2029,1408,0,0
812,-384,0,0,0,0,0,0,0,0,0,-1,2036,1408,0,0
-700,-391,0,0,0,0,0,0,0,0,0,-1,524,1415,0,0
-693,-391,0,0,0,0,0,0,0,0,0,-1,531,1415,0,0
-686,-391,0,0,0,0,0,0,0,0,0,-1,538,1415,0,0
-679,-391,0,0,0,0,0,0,0,0,0,-1,545,1415,0,0
-672,-391,0,0,0,0,0,0,0,0,0,-1,552,1415,0,0
-665,-391,0,0,0,0,0,0,0,0,0,-1,559,1415,0,0
-658,-391,0,0,0,0,0,0,0,0,0,-1,566,1415,0,0
-651,-391,0,0,0,0,0,0,0,0,0,-1,573,1415,0,0
-644,-391,0,0,0,0,0,0,0,0,0,-1,580,1415,0,0
-637,-391,0,0,0,0,0,0,0,0,0,-1,587,1415,0,0
-630,-391,0,0,0,0,0,0,0,0,0,-1,594,1415,0,0
-623,-391,0,0,0,0,0,0,0,0,0,-1,601,1415,0,0
-616,-391,0,0,0,0,0,0,0,0,0,-1,608,1415,0,0
-609,-391,-7.71753,-3.69763,0,0,0,0,0,0,0,-1,615,1415,-7.71751,3.69759
-602,-391,-13.9493,-4.12805,0,0,0,0,0,0,0,-1,622,1415,-13.9493,4.12803
-595,-391,-10.8315,1.76172,0,0,0,0,0,0,0,-1,629,1415,-10.8315,-1.76171
-588,-391,-10.265,2.16431,0,0,0,0,0,0,0,-1,636,1415,-10.265,-2.16431
-581,-391,-11.3325,2.44836,0,0,0,0,0,0,0,-1,643,1415,-11.3325,-2.44842
-574,-391,-11.1471,6.19983,0,0,0,0,0,0,0,-1,650,1415,-11.1471,-6.19981
-567,-391,-11.5172,6.82458,0,0,0,0,0,0,0,-1,657,1415,-11.5171,-6.82454
-560,-391,-11.2459,7.37195,0,0,0,0,0,0,0,-1,664,1415,-11.2459,-7.37191
-553,-391,-20.1442,13.3322,0,0,0,0,0,0,0,-1,671,1415,-20.1443,-13.3321
-546,-391,-20.0844,14.1602,0.00474853,0.00300688,0.00320237,0.00719637,0.000559044,0.652643,0.00462252,0.0184726,678,1415,-20.0844,-14.1602
-539,-391,-20.0515,14.9609,0.00379406,0.00210585,0.00244688,0.00553834,0.000361571,0.619304,0.0035778,0.0140182,685,1415,-20.0515,-14.9609
-532,-391,-20.0463,15.729,0.00304411,0.00137868,0.00185234,0.00424229,0.000180495,0.57416,0.00276999,0.0246514,692,1415,-20.0463,-15.729
-525,-391,-20.1148,16.5173,0.00254811,0.000933632,0.00147093,0.00341875,6.2998e-05,0.534439,0.00225846,0.0232038,699,1415,-20.1148,-16.5173
-518,-391,-20.2056,17.2661,0.00224321,0.00065,0.00123681,0.00291775,-2.45486e-05,0.499298,0.0019534,0.0155101,706,1415,-20.2056,-17.2662
-511,-391,-20.215,18.0154,0.00212102,0.000565817,0.00114133,0.00272447,-3.76322e-05,0.486362,0.00182899,0.0147271,713,1415,-20.215,-18.0154
-504,-391,-20.2498,18.7821,0.00222194,0.000689636,0.0012285,0.00290361,7.95978e-06,0.506585,0.0019331,0.0133482,720,1415,-20.2498,-18.7821
-497,-391,-20.2819,19.5399,0.00253203,0.00103781,0.00149493,0.00345615,0.000113691,0.553669,0.00226715,0.0148914,727,1415,-20.2819,-19.54
-490,-391,-20.2566,20.3339,0,0,0,0,0,0,0,-1,734,1415,-20.2566,-20.3338
-483,-391,-11.1018,12.9382,0,0,0,0,0,0,0,-1,741,1415,-11.1018,-12.9382
-476,-391,-6.05731,6.85303,0,0,0,0,0,0,0,-1,748,1415,-6.05728,-6.85304
-469,-391,-3.88953,5.0979,0,0,0,0,0,0,0,-1,755,1415,-3.88955,-5.09794
-462,-391,-8.67688,2.03125,0,0,0,0,0,0,0,-1,762,1415,-8.67685,-2.03121
-455,-391,-8.65576,6.46997,0,0,0,0,0,0,0,-1,769,1415,-8.65579,-6.46999
-448,-391,-8.39618,4.38403,0,0,0,0,0,0,0,-1,776,1415,-8.39617,-4.38405
-441,-391,-9.77704,2.5946,0,0,0,0,0,0,0,-1,783,1415,-9.77702,-2.5946
-434,-391,-11.5403,2.12878,0,0,0,0,0,0,0,-1,790,1415,-11.5403,-2.12881
-427,-391,-10.5311,2.50403,0,0,0,0,0,0,0,-1,797,1415,-10.5311,-2.504
-420,-391,-14.7087,1.24365,0,0,0,0,0,0,0,-1,804,1415,-14.7088,-1.24365
-413,-391,0,0,0,0,0,0,0,0,0,-1,811,1415,0,0
-406,-391,0,0,0,0,0,0,0,0,0,-1,818,1415,0,0
-399,-391,0,0,0,0,0,0,0,0,0,-1,825,1415,0,0
-392,-391,0,0,0,0,0,0,0,0,0,-1,832,1415,0,0
-385,-391,0,0,0,0,0,0,0,0,0,-1,839,1415,0,0
-378,-391,0,0,0,0,0,0,0,0,0,-1,846,1415,0,0
-371,-391,0,0,0,0,0,0,0,0,0,-1,853,1415,0,0
-364,-391,0,0,0,0,0,0,0,0,0,-1,860,1415,0,0
-357,-391,0,0,0,0,0,0,0,0,0,-1,867,1415,0,0
-350,-391,0,0,0,0,0,0,0,0,0,-1,874,1415,0,0
-343,-391,0,0,0,0,0,0,0,0,0,-1,881,1415,0,0
-336,-391,0,0,0,0,0,0,0,0,0,-1,888,1415,0,0
-329,-391,0,0,0,0,0,0,0,0,0,-1,895,1415,0,0
-322,-391,0,0,0,0,0,0,0,0,0,-1,902,1415,0,0
-315,-391,0,0,0,0,0,0,0,0,0,-1,909,1415,0,0
-308,-391,0,0,0,0,0,0,0,0,0,-1,916,1415,0,0
-301,-391,0,0,0,0,0,0,0,0,0,-1,923,1415,0,0
-294,-391,0,0,0,0,0,0,0,0,0,-1,930,1415,0,0
-287,-391,0,0,0,0,0,0,0,0,0,-1,937,1415,0,0
-280,-391,0,0,0,0,0,0,0,0,0,-1,944,1415,0,0
-273,-391,0,0,0,0,0,0,0,0,0,-1,951,1415,0,0
-266,-391,0,0,0,0,0,0,0,0,0,-1,958,1415,0,0
-259,-391,0,0,0,0,0,0,0,0,0,-1,965,1415,0,0
-252,-391,0,0,0,0,0,0,0,0,0,-1,972,1415,0,0
-245,-391,0,0,0,0,0,0,0,0,0,-1,979,1415,0,0
-238,-391,0,0,0,0,0,0,0,0,0,-1,986,1415,0,0
-231,-391,0,0,0,0,0,0,0,0,0,-1,993,1415,0,0
-224,-391,0,0,0,0,0,0,0,0,0,-1,1000,1415,0,0
-217,-391,0,0,0,0,0,0,0,0,0,-1,1007,1415,0,0
-210,-391,0,0,0,0,0,0,0,0,0,-1,1014,1415,0,0
-203,-391,0,0,0,0,0,0,0,0,0,-1,1021,1415,0,0
-196,-391,0,0,0,0,0,0,0,0,0,-1,1028,1415,0,0
-189,-391,0,0,0,0,0,0,0,0,0,-1,1035,1415,0,0
-182,-391,0,0,0,0,0,0,0,0,0,-1,1042,1415,0,0
-175,-391,0,0,0,0,0,0,0,0,0,-1,1049,1415,0,0
-168,-391,0,0,0,0,0,0,0,0,0,-1,1056,1415,0,0
-161,-391,0,0,0,0,0,0,0,0,0,-1,1063,1415,0,0
-154,-391,0,0,0,0,0,0,0,0,0,-1,1070,1415,0,0
-147,-391,0,0,0,0,0,0,0,0,0,-1,1077,1415,0,0
-140,-391,0,0,0,0,0,0,0,0,0,-1,1084,1415,0,0
-133,-391,0,0,0,0,0,0,0,0,0,-1,1091,1415,0,0
-126,-391,0,0,0,0,0,0,0,0,0,-1,1098,1415,0,0
-119,-391,0,0,0,0,0,0,0,0,0,-1,1105,1415,0,0
-112,-391,0,0,0,0,0,0,0,0,0,-1,1112,1415,0,0
-105,-391,0,0,0,0,0,0,0,0,0,-1,1119,1415,0,0
-98,-391,0,0,0,0,0,0,0,0,0,-1,1126,1415,0,0
-91,-391,0,0,0,0,0,0,0,0,0,-1,1133,1415,0,0
-84,-391,0,0,0,0,0,0,0,0,0,-1,1140,1415,0,0
-77,-391,0,0,0,0,0,0,0,0,0,-1,1147,1415,0,0
-70,-391,0,0,0,0,0,0,0,0,0,-1,1154,1415,0,0
-63,-391,0,0,0,0,0,0,0,0,0,-1,1161,1415,0,0
-56,-391,0,0,0,0,0,0,0,0,0,-1,1168,1415,0,0
-49,-391,0,0,0,0,0,0,0,0,0,-1,1175,1415,0,0
-42,-391,0,0,0,0,0,0,0,0,0,-1,1182,1415,0,0
-35,-391,0,0,0,0,0,0,0,0,0,-1,1189,1415,0,0
-28,-391,0,0,0,0,0,0,0,0,0,-1,1196,1415,0,0
-21,-391,0,0,0,0,0,0,0,0,0,-1,1203,1415,0,0
-14,-391,0,0,0,0,0,0,0,0,0,-1,1210,1415,0,0
-7,-391,0,0,0,0,0,0,0,0,0,-1,1217,1415,0,0
0,-391,0,0,0,0,0,0,0,0,0,-1,1224,1415,0,0
7,-391,0,0,0,0,0,0,0,0,0,-1,1231,1415,0,0
14,-391,0,0,0,0,0,0,0,0,0,-1,1238,1415,0,0
21,-391,0,0,0,0,0,0,0,0,0,-1,1245,1415,0,0
28,-391,0,0,0,0,0,0,0,0,0,-1,1252,1415,0,0
35,-391,0,0,0,0,0,0,0,0,0,-1,1259,1415,0,0
42,-391,0,0,0,0,0,0,0,0,0,-1,1266,1415,0,0
49,-391,0,0,0,0,0,0,0,0,0,-1,1273,1415,0,0
56,-391,0,0,0,0,0,0,0,0,0,-1,1280,1415,0,0
63,-391,0,0,0,0,0,0,0,0,0,-1,1287,1415,0,0
70,-391,0,0,0,0,0,0,0,0,0,-1,1294,1415,0,0
77,-391,0,0,0,0,0,0,0,0,0,-1,1301,1415,0,0
84,-391,0,0,0,0,0,0,0,0,0,-1,1308,1415,0,0
91,-391,0,0,0,0,0,0,0,0,0,-1,1315,1415,0,0
98,-391,0,0,0,0,0,0,0,0,0,-1,1322,1415,0,0
105,-391,0,0,0,0,0,0,0,0,0,-1,1329,1415,0,0
112,-391,0,0,0,0,0,0,0,0,0,-1,1336,1415,0,0
119,-391,0,0,0,0,0,0,0,0,0,-1,1343,1415,0,0
126,-391,0,0,0,0,0,0,0,0,0,-1,1350,1415,0,0
133,-391,0,0,0,0,0,0,0,0,0,-1,1357,1415,0,0
140,-391,0,0,0,0,0,0,0,0,0,-1,1364,1415,0,0
147,-391,0,0,0,0,0,0,0,0,0,-1,1371,1415,0,0
154,-391,0,0,0,0,0,0,0,0,0,-1,1378,1415,0,0
161,-391,0,0,0,0,0,0,0,0,0,-1,1385,1415,0,0
168,-391,0,0,0,0,0,0,0,0,0,-1,1392,1415,0,0
175,-391,0,0,0,0,0,0,0,0,0,-1,1399,1415,0,0
182,-391,0,0,0,0,0,0,0,0,0,-1,1406,1415,0,0
189,-391,0,0,0,0,0,0,0,0,0,-1,1413,1415,0,0
196,-391,0,0,0,0,0,0,0,0,0,-1,1420,1415,0,0
203,-391,0,0,0,0,0,0,0,0,0,-1,1427,1415,0,0
210,-391,0,0,0,0,0,0,0,0,0,-1,1434,1415,0,0
217,-391,0,0,0,0,0,0,0,0,0,-1,1441,1415,0,0
224,-391,0,0,0,0,0,0,0,0,0,-1,1448,1415,0,0
231,-391,0,0,0,0,0,0,0,0,0,-1,1455,1415,0,0
238,-391,0,0,0,0,0,0,0,0,0,-1,1462,1415,0,0
245,-391,0,0,0,0,0,0,0,0,0,-1,1469,1415,0,0
252,-391,0,0,0,0,0,0,0,0,0,-1,1476,1415,0,0
259,-391,0,0,0,0,0,0,0,0,0,-1,1483,1415,0,0
266,-391,0,0,0,0,0,0,0,0,0,-1,1490,1415,0,0
273,-391,0,0,0,0,0,0,0,0,0,-1,1497,1415,0,0
280,-391,0,0,0,0,0,0,0,0,0,-1,1504,1415,0,0
287,-391,0,0,0,0,0,0,0,0,0,-1,1511,1415,0,0
294,-391,0,0,0,0,0,0,0,0,0,-1,1518,1415,0,0
301,-391,0,0,0,0,0,0,0,0,0,-1,1525,1415,0,0
308,-391,0,0,0,0,0,0,0,0,0,-1,1532,1415,0,0
315,-391,0,0,0,0,0,0,0,0,0,-1,1539,1415,0,0
322,-391,0,0,0,0,0,0,0,0,0,-1,1546,1415,0,0
329,-391,0,0,0,0,0,0,0,0,0,-1,1553,1415,0,0
336,-391,0,0,0,0,0,0,0,0,0,-1,1560,1415,0,0
343,-391,0,0,0,0,0,0,0,0,0,-1,1567,1415,0,0
350,-391,0,0,0,0,0,0,0,0,0,-1,1574,1415,0,0
357,-391,0,0,0,0,0,0,0,0,0,-1,1581,1415,0,0
364,-391,0,0,0,0,0,0,0,0,0,-1,1588,1415,0,0
371,-391,0,0,0,0,0,0,0,0,0,-1,1595,1415,0,0
378,-391,0,0,0,0,0,0,0,0,0,-1,1602,1415,0,0
385,-391,0,0,0,0,0,0,0,0,0,-1,1609,1415,0,0
392,-391,0,0,0,0,0,0,0,0,0,-1,1616,1415,0,0
399,-391,0,0,0,0,0,0,0,0,0,-1,1623,1415,0,0
406,-391,0,0,0,0,0,0,0,0,0,-1,1630,1415,0,0
413,-391,0,0,0,0,0,0,0,0,0,-1,1637,1415,0,0
420,-391,0,0,0,0,0,0,0,0,0,-1,1644,1415,0,0
427,-391,0,0,0,0,0,0,0,0,0,-1,1651,1415,0,0
434,-391,0,0,0,0,0,0,0,0,0,-1,1658,1415,0,0
441,-391,0,0,0,0,0,0,0,0,0,-1,1665,1415,0,0
448,-391,0,0,0,0,0,0,0,0,0,-1,1672,1415,0,0
455,-391,0,0,0,0,0,0,0,0,0,-1,1679,1415,0,0
462,-391,0,0,0,0,0,0,0,0,0,-1,1686,1415,0,0
469,-391,0,0,0,0,0,0,0,0,0,-1,1693,1415,0,0
476,-391,0,0,0,0,0,0,0,0,0,-1,1700,1415,0,0
483,-391,0,0,0,0,0,0,0,0,0,-1,1707,1415,0,0
490,-391,0,0,0,0,0,0,0,0,0,-1,1714,1415,0,0
497,-391,0,0,0,0,0,0,0,0,0,-1,1721,1415,0,0
504,-391,0,0,0,0,0,0,0,0,0,-1,1728,1415,0,0
511,-391,0,0,0,0,0,0,0,0,0,-1,1735,1415,0,0
518,-391,0,0,0,0,0,0,0,0,0,-1,1742,1415,0,0
525,-391,0,0,0,0,0,0,0,0,0,-1,1749,1415,0,0
532,-391,28.5959,3.02356,0,0,0,0,0,0,0,-1,1756,1415,28.596,-3.02358
539,-391,27.5881,3.25012,0,0,0,0,0,0,0,-1,1763,1415,27.5882,-3.25016
546,-391,27.2837,3.28064,0,0,0,0,0,0,0,-1,1770,1415,27.2837,-3.28064
553,-391,32.5952,5.04553,0,0,0,0,0,0,0,-1,1777,1415,32.5952,-5.04551
560,-391,31.2947,5.67017,0,0,0,0,0,0,0,-1,1784,1415,31.2947,-5.67011
567,-391,30.1473,6.17603,0,0,0,0,0,0,0,-1,1791,1415,30.1473,-6.17602
574,-391,27.5656,5.6842,0,0,0,0,0,0,0,-1,1798,1415,27.5655,-5.68422
581,-391,25.8883,5.76123,0,0,0,0,0,0,0,-1,1805,1415,25.8883,-5.76124
588,-391,24.2717,5.47986,0,0,0,0,0,0,0,-1,1812,1415,24.2717,-5.47982
595,-391,22.8827,6.1991,0,0,0,0,0,0,0,-1,1819,1415,22.8827,-6.19909
602,-391,15.1635,5.69849,0,0,0,0,0,0,0,-1,1826,1415,15.1635,-5.69847
609,-391,14.8285,7.50476,0,0,0,0,0,0,0,-1,1833,1415,14.8285,-7.50479
616,-391,20.7952,12.0503,0,0,0,0,0,0,0,-1,1840,1415,20.7952,-12.0503
623,-391,36.6426,20.3677,0,0,0,0,0,0,0,-1,1847,1415,36.6426,-20.3676
630,-391,37.4918,20.2368,0,0,0,0,0,0,0,-1,1854,1415,37.4918,-20.2368
637,-391,37.4073,19.592,-0.000613912,-0.000334832,0.000345347,-0.000101899,-0.000846846,0.977398,0.000533849,0.0178478,1861,1415,37.4074,-19.592
644,-391,37.3534,18.8895,-0.000123424,-1.0678e-05,0.000124802,6.98925e-05,-0.000203995,0.997531,0.000164326,0.0175519,1868,1415,37.3533,-18.8896
651,-391,37.3322,18.1785,0.000872467,-0.000304221,0.000160957,0.000894087,-0.000325841,0.133521,0.000729351,0.0186204,1875,1415,37.3321,-18.1785
658,-391,37.2928,17.441,0.00219386,-0.000794165,0.000257135,0.00221583,-0.000816131,0.08522,0.00181161,0.0190238,1882,1415,37.2929,-17.4411
665,-391,37.2533,16.7225,0.00380394,-0.00154845,0.000476004,0.00384594,-0.00159045,0.0880126,0.00322749,0.0155862,1889,1415,37.2533,-16.7226
672,-391,37.2383,16.0081,0.00574078,-0.0026861,0.000866277,0.00582891,-0.00277423,0.101386,0.00507032,0.0132891,1896,1415,37.2382,-16.0081
679,-391,37.197,15.2773,0.00799683,-0.00427986,0.00144501,0.00816462,-0.00444765,0.115599,0.00738636,0.0127394,1903,1415,37.197,-15.2773
686,-391,37.1708,14.5446,0.0106087,-0.00646823,0.00224366,0.0108985,-0.00675809,0.128481,0.0102871,0.0167703,1910,1415,37.1707,-14.5446
693,-391,37.2258,14.1466,0.0135204,-0.00931512,0.0033325,0.0139968,-0.00979151,0.141991,0.0138055,0.042956,1917,1415,37.2258,-14.1466
700,-391,37.5424,13.6495,0,0,0,0,0,0,0,-1,1924,1415,37.5424,-13.6495
707,-391,12.9524,5.96851,0,0,0,0,0,0,0,-1,1931,1415,12.9524,-5.96849
714,-391,15.6875,7.67896,0,0,0,0,0,0,0,-1,1938,1415,15.6875,-7.67893
721,-391,14.1808,8.08435,0,0,0,0,0,0,0,-1,1945,1415,14.1808,-8.08439
728,-391,13.8102,7.28174,0,0,0,0,0,0,0,-1,1952,1415,13.8102,-7.28174
735,-391,0,0,0,0,0,0,0,0,0,-1,1959,1415,0,0
742,-391,0,0,0,0,0,0,0,0,0,-1,1966,1415,0,0
749,-391,0,0,0,0,0,0,0,0,0,-1,1973,1415,0,0
756,-391,0,0,0,0,0,0,0,0,0,-1,1980,1415,0,0
763,-391,0,0,0,0,0,0,0,0,0,-1,1987,1415,0,0
770,-391,0,0,0,0,0,0,0,0,0,-1,1994,1415,0,0
777,-391,0,0,0,0,0,0,0,0,0,-1,2001,1415,0,0
784,-391,0,0,0,0,0,0,0,0,0,-1,2008,1415,0,0
791,-391,0,0,0,0,0,0,0,0,0,-1,2015,1415,0,0
798,-391,0,0,0,0,0,0,0,0,0,-1,2022,1415,0,0
805,-391,0,0,0,0,0,0,0,0,0,-1,2029,1415,0,0
812,-391,0,0,0,0,0,0,0,0,0,-1,2036,1415,0,0
-700,-398,0,0,0,0,0,0,0,0,0,-1,524,1422,0,0
-693,-398,0,0,0,0,0,0,0,0,0,-1,531,1422,0,0
-686,-398,0,0,0,0,0,0,0,0,0,-1,538,1422,0,0
-679,-398,0,0,0,0,0,0,0,0,0,-1,545,1422,0,0
-672,-398,0,0,0,0,0,0,0,0,0,-1,552,1422,0,0
-665,-398,0,0,0,0,0,0,0,0,0,-1,559,1422,0,0
-658,-398,0,0,0,0,0,0,0,0,0,-1,566,1422,0,0
-651,-398,0,0,0,0,0,0,0,0,0,-1,573,1422,0,0
-644,-398,0,0,0,0,0,0,0,0,0,-1,580,1422,0,0
-637,-398,0,0,0,0,0,0,0,0,0,-1,587,1422,0,0
-630,-398,0,0,0,0,0,0,0,0,0,-1,594,1422,0,0
-623,-398,0,0,0,0,0,0,0,0,0,-1,601,1422,0,0
-616,-398,0,0,0,0,0,0,0,0,0,-1,608,1422,0,0
-609,-398,-7.47125,-4.05322,0,0,0,0,0,0,0,-1,615,1422,-7.47128,4.05317
-602,-398,-4.58868,-2.77026,0,0,0,0,0,0,0,-1,622,1422,-4.58869,2.77023
-595,-398,-12.2224,-1.82007,0,0,0,0,0,0,0,-1,629,1422,-12.2224,1.82006
-588,-398,-10.6939,1.32336,0,0,0,0,0,0,0,-1,636,1422,-10.6939,-1.32337
-581,-398,-10.433,3.1123,0,0,0,0,0,0,0,-1,643,1422,-10.433,-3.11233
-574,-398,-10.4475,5.89807,0,0,0,0,0,0,0,-1,650,1422,-10.4475,-5.89802
-567,-398,-10.4904,6.80115,0,0,0,0,0,0,0,-1,657,1422,-10.4904,-6.80115
-560,-398,-10.5333,7.70435,0,0,0,0,0,0,0,-1,664,1422,-10.5333,-7.70429
-553,-398,-19.4142,13.2046,0,0,0,0,0,0,0,-1,671,1422,-19.4142,-13.2046
-546,-398,-19.3672,14.1545,0.00525986,0.00380784,0.00390305,0.00850384,0.000563854,0.693444,0.00549093,0.0357244,678,1422,-19.3672,-14.1545
-539,-398,-19.2833,15.0038,0.0041232,0.00276801,0.00298605,0.00650757,0.000383643,0.673827,0.00421632,0.0132885,685,1422,-19.2833,-15.0038
-532,-398,-19.3063,15.7892,0.00320593,0.00186255,0.00222381,0.00485727,0.000211203,0.638732,0.00317013,0.020214,692,1422,-19.3063,-15.7892
-525,-398,-19.3693,16.54,0.0026083,0.00131334,0.00172617,0.00380443,0.000117206,0.605971,0.00249813,0.0186538,699,1422,-19.3693,-16.54
-518,-398,-19.4078,17.2916,0.00223083,0.000949026,0.00139069,0.0031212,5.86597e-05,0.569477,0.00206152,0.017956,706,1422,-19.4079,-17.2916
-511,-398,-19.4223,18.0355,0.00203105,0.000771102,0.00119282,0.00275003,5.21197e-05,0.542446,0.00181623,0.0146159,713,1422,-19.4223,-18.0356
-504,-398,-19.4638,18.8094,0.00203526,0.000790778,0.00116066,0.00272995,9.60884e-05,0.53934,0.0017888,0.0147888,720,1422,-19.4638,-18.8095
-497,-398,-19.5239,19.5623,0.00224735,0.00102143,0.00130004,0.00307169,0.000197092,0.565108,0.00198536,0.0109839,727,1422,-19.5239,-19.5622
-490,-398,-19.5597,20.3307,0.00279727,0.00149714,0.00164151,0.00391275,0.000381658,0.596864,0.00249105,0.0214681,734,1422,-19.5597,-20.3306
-483,-398,-19.5679,21.1403,0,0,0,0,0,0,0,-1,741,1422,-19.5679,-21.1402
-476,-398,-8.64392,11.9448,0,0,0,0,0,0,0,-1,748,1422,-8.6439,-11.9448
-469,-398,-8.91699,10.6276,0,0,0,0,0,0,0,-1,755,1422,-8.91697,-10.6275
-462,-398,-9.59753,9.32532,0,0,0,0,0,0,0,-1,762,1422,-9.59753,-9.32531
-455,-398,-8.08331,6.75024,0,0,0,0,0,0,0,-1,769,1422,-8.08333,-6.75022
-448,-398,-7.4505,5.25293,0,0,0,0,0,0,0,-1,776,1422,-7.4505,-5.25291
-441,-398,-7.61639,3.32141,0,0,0,0,0,0,0,-1,783,1422,-7.61637,-3.32145
-434,-398,-10.7618,3.297,0,0,0,0,0,0,0,-1,790,1422,-10.7618,-3.29704
-427,-398,-11.9061,2.24939,0,0,0,0,0,0,0,-1,797,1422,-11.9061,-2.24941
-420,-398,-13.467,2.32788,0,0,0,0,0,0,0,-1,804,1422,-13.467,-2.32787
-413,-398,-14.7983,2.15515,0,0,0,0,0,0,0,-1,811,1422,-14.7983,-2.15516
-406,-398,0,0,0,0,0,0,0,0,0,-1,818,1422,0,0
-399,-398,0,0,0,0,0,0,0,0,0,-1,825,1422,0,0
-392,-398,0,0,0,0,0,0,0,0,0,-1,832,1422,0,0
-385,-398,0,0,0,0,0,0,0,0,0,-1,839,1422,0,0
-378,-398,0,0,0,0,0,0,0,0,0,-1,846,1422,0,0
-371,-398,0,0,0,0,0,0,0,0,0,-1,853,1422,0,0
-364,-398,0,0,0,0,0,0,0,0,0,-1,860,1422,0,0
-357,-398,0,0,0,0,0,0,0,0,0,-1,867,1422,0,0
-350,-398,0,0,0,0,0,0,0,0,0,-1,874,1422,0,0
-343,-398,0,0,0,0,0,0,0,0,0,-1,881,1422,0,0
-336,-398,0,0,0,0,0,0,0,0,0,-1,888,1422,0,0
-329,-398,0,0,0,0,0,0,0,0,0,-1,895,1422,0,0
-322,-398,0,0,0,0,0,0,0,0,0,-1,902,1422,0,0
-315,-398,0,0,0,0,0,0,0,0,0,-1,909,1422,0,0
-308,-398,0,0,0,0,0,0,0,0,0,-1,916,1422,0,0
-301,-398,0,0,0,0,0,0,0,0,0,-1,923,1422,0,0
-294,-398,0,0,0,0,0,0,0,0,0,-1,930,1422,0,0
-287,-398,0,0,0,0,0,0,0,0,0,-1,937,1422,0,0
-280,-398,0,0,0,0,0,0,0,0,0,-1,944,1422,0,0
-273,-398,0,0,0,0,0,0,0,0,0,-1,951,1422,0,0
-266,-398,0,0,0,0,0,0,0,0,0,-1,958,1422,0,0
-259,-398,0,0,0,0,0,0,0,0,0,-1,965,1422,0,0
-252,-398,0,0,0,0,0,0,0,0,0,-1,972,1422,0,0
-245,-398,0,0,0,0,0,0,0,0,0,-1,979,1422,0,0
-238,-398,0,0,0,0,0,0,0,0,0,-1,986,1422,0,0
-231,-398,0,0,0,0,0,0,0,0,0,-1,993,1422,0,0
-224,-398,0,0,0,0,0,0,0,0,0,-1,1000,1422,0,0
-217,-398,0,0,0,0,0,0,0,0,0,-1,1007,1422,0,0
-210,-398,0,0,0,0,0,0,0,0,0,-1,1014,1422,0,0
-203,-398,0,0,0,0,0,0,0,0,0,-1,1021,1422,0,0
-196,-398,0,0,0,0,0,0,0,0,0,-1,1028,1422,0,0
-189,-398,0,0,0,0,0,0,0,0,0,-1,1035,1422,0,0
-182,-398,0,0,0,0,0,0,0,0,0,-1,1042,1422,0,0
-175,-398,0,0,0,0,0,0,0,0,0,-1,1049,1422,0,0
-168,-398,0,0,0,0,0,0,0,0,0,-1,1056,1422,0,0
-161,-398,0,0,0,0,0,0,0,0,0,-1,1063,1422,0,0
-154,-398,0,0,0,0,0,0,0,0,0,-1,1070,1422,0,0
-147,-398,0,0,0,0,0,0,0,0,0,-1,1077,1422,0,0
-140,-398,0,0,0,0,0,0,0,0,0,-1,1084,1422,0,0
-133,-398,0,0,0,0,0,0,0,0,0,-1,1091,1422,0,0
-126,-398,0,0,0,0,0,0,0,0,0,-1,1098,1422,0,0
-119,-398,0,0,0,0,0,0,0,0,0,-1,1105,1422,0,0
-112,-398,0,0,0,0,0,0,0,0,0,-1,1112,1422,0,0
-105,-398,0,0,0,0,0,0,0,0,0,-1,1119,1422,0,0
-98,-398,0,0,0,0,0,0,0,0,0,-1,1126,1422,0,0
-91,-398,0,0,0,0,0,0,0,0,0,-1,1133,1422,0,0
-84,-398,0,0,0,0,0,0,0,0,0,-1,1140,1422,0,0
-77,-398,0,0,0,0,0,0,0,0,0,-1,1147,1422,0,0
-70,-398,0,0,0,0,0,0,0,0,0,-1,1154,1422,0,0
-63,-398,0,0,0,0,0,0,0,0,0,-1,1161,1422,0,0
-56,-398,0,0,0,0,0,0,0,0,0,-1,1168,1422,0,0
-49,-398,0,0,0,0,0,0,0,0,0,-1,1175,1422,0,0
-42,-398,0,0,0,0,0,0,0,0,0,-1,1182,1422,0,0
-35,-398,0,0,0,0,0,0,0,0,0,-1,1189,1422,0,0
-28,-398,0,0,0,0,0,0,0,0,0,-1,1196,1422,0,0
-21,-398,0,0,0,0,0,0,0,0,0,-1,1203,1422,0,0
-14,-398,0,0,0,0,0,0,0,0,0,-1,1210,1422,0,0
-7,-398,0,0,0,0,0,0,0,0,0,-1,1217,1422,0,0
0,-398,0,0,0,0,0,0,0,0,0,-1,1224,1422,0,0
7,-398,0,0,0,0,0,0,0,0,0,-1,1231,1422,0,0
14,-398,0,0,0,0,0,0,0,0,0,-1,1238,1422,0,0
21,-398,0,0,0,0,0,0,0,0,0,-1,1245,1422,0,0
28,-398,0,0,0,0,0,0,0,0,0,-1,1252,1422,0,0
35,-398,0,0,0,0,0,0,0,0,0,-1,1259,1422,0,0
42,-398,0,0,0,0,0,0,0,0,0,-1,1266,1422,0,0
49,-398,0,0,0,0,0,0,0,0,0,-1,1273,1422,0,0
56,-398,0,0,0,0,0,0,0,0,0,-1,1280,1422,0,0
63,-398,0,0,0,0,0,0,0,0,0,-1,1287,1422,0,0
70,-398,0,0,0,0,0,0,0,0,0,-1,1294,1422,0,0
77,-398,0,0,0,0,0,0,0,0,0,-1,1301,1422,0,0
84,-398,0,0,0,0,0,0,0,0,0,-1,1308,1422,0,0
91,-398,0,0,0,0,0,0,0,0,0,-1,1315,1422,0,0
98,-398,0,0,0,0,0,0,0,0,0,-1,1322,1422,0,0
105,-398,0,0,0,0,0,0,0,0,0,-1,1329,1422,0,0
112,-398,0,0,0,0,0,0,0,0,0,-1,1336,1422,0,0
119,-398,0,0,0,0,0,0,0,0,0,-1,1343,1422,0,0
126,-398,0,0,0,0,0,0,0,0,0,-1,1350,1422,0,0
133,-398,0,0,0,0,0,0,0,0,0,-1,1357,1422,0,0
140,-398,0,0,0,0,0,0,0,0,0,-1,1364,1422,0,0
147,-398,0,0,0,0,0,0,0,0,0,-1,1371,1422,0,0
154,-398,0,0,0,0,0,0,0,0,0,-1,1378,1422,0,0
161,-398,0,0,0,0,0,0,0,0,0,-1,1385,1422,0,0
168,-398,0,0,0,0,0,0,0,0,0,-1,1392,1422,0,0
175,-398,0,0,0,0,0,0,0,0,0,-1,1399,1422,0,0
182,-398,0,0,0,0,0,0,0,0,0,-1,1406,1422,0,0
189,-398,0,0,0,0,0,0,0,0,0,-1,1413,1422,0,0
196,-398,0,0,0,0,0,0,0,0,0,-1,1420,1422,0,0
203,-398,0,0,0,0,0,0,0,0,0,-1,1427,1422,0,0
210,-398,0,0,0,0,0,0,0,0,0,-1,1434,1422,0,0
217,-398,0,0,0,0,0,0,0,0,0,-1,1441,1422,0,0
224,-398,0,0,0,0,0,0,0,0,0,-1,1448,1422,0,0
231,-398,0,0,0,0,0,0,0,0,0,-1,1455,1422,0,0
238,-398,0,0,0,0,0,0,0,0,0,-1,1462,1422,0,0
245,-398,0,0,0,0,0,0,0,0,0,-1,1469,1422,0,0
252,-398,0,0,0,0,0,0,0,0,0,-1,1476,1422,0,0
259,-398,0,0,0,0,0,0,0,0,0,-1,1483,1422,0,0
266,-398,0,0,0,0,0,0,0,0,0,-1,1490,1422,0,0
273,-398,0,0,0,0,0,0,0,0,0,-1,1497,1422,0,0
280,-398,0,0,0,0,0,0,0,0,0,-1,1504,1422,0,0
287,-398,0,0,0,0,0,0,0,0,0,-1,1511,1422,0,0
294,-398,0,0,0,0,0,0,0,0,0,-1,1518,1422,0,0
301,-398,0,0,0,0,0,0,0,0,0,-1,1525,1422,0,0
308,-398,0,0,0,0,0,0,0,0,0,-1,1532,1422,0,0
315,-398,0,0,0,0,0,0,0,0,0,-1,1539,1422,0,0
322,-398,0,0,0,0,0,0,0,0,0,-1,1546,1422,0,0
329,-398,0,0,0,0,0,0,0,0,0,-1,1553,1422,0,0
336,-398,0,0,0,0,0,0,0,0,0,-1,1560,1422,0,0
343,-398,0,0,0,0,0,0,0,0,0,-1,1567,1422,0,0
350,-398,0,0,0,0,0,0,0,0,0,-1,1574,1422,0,0
357,-398,0,0,0,0,0,0,0,0,0,-1,1581,1422,0,0
364,-398,0,0,0,0,0,0,0,0,0,-1,1588,1422,0,0
371,-398,0,0,0,0,0,0,0,0,0,-1,1595,1422,0,0
378,-398,0,0,0,0,0,0,0,0,0,-1,1602,1422,0,0
385,-398,0,0,0,0,0,0,0,0,0,-1,1609,1422,0,0
392,-398,0,0,0,0,0,0,0,0,0,-1,1616,1422,0,0
399,-398,0,0,0,0,0,0,0,0,0,-1,1623,1422,0,0
406,-398,0,0,0,0,0,0,0,0,0,-1,1630,1422,0,0
413,-398,0,0,0,0,0,0,0,0,0,-1,1637,1422,0,0
420,-398,0,0,0,0,0,0,0,0,0,-1,1644,1422,0,0
427,-398,0,0,0,0,0,0,0,0,0,-1,1651,1422,0,0
434,-398,0,0,0,0,0,0,0,0,0,-1,1658,1422,0,0
441,-398,0,0,0,0,0,0,0,0,0,-1,1665,1422,0,0
448,-398,0,0,0,0,0,0,0,0,0,-1,1672,1422,0,0
455,-398,0,0,0,0,0,0,0,0,0,-1,1679,1422,0,0
462,-398,0,0,0,0,0,0,0,0,0,-1,1686,1422,0,0
469,-398,0,0,0,0,0,0,0,0,0,-1,1693,1422,0,0
476,-398,0,0,0,0,0,0,0,0,0,-1,1700,1422,0,0
483,-398,0,0,0,0,0,0,0,0,0,-1,1707,1422,0,0
490,-398,0,0,0,0,0,0,0,0,0,-1,1714,1422,0,0
497,-398,0,0,0,0,0,0,0,0,0,-1,1721,1422,0,0
504,-398,0,0,0,0,0,0,0,0,0,-1,1728,1422,0,0
511,-398,0,0,0,0,0,0,0,0,0,-1,1735,1422,0,0
518,-398,0,0,0,0,0,0,0,0,0,-1,1742,1422,0,0
525,-398,0,0,0,0,0,0,0,0,0,-1,1749,1422,0,0
532,-398,28.4558,3.84094,0,0,0,0,0,0,0,-1,1756,1422,28.4558,-3.8409
539,-398,27.0594,3.33887,0,0,0,0,0,0,0,-1,1763,1422,27.0595,-3.3389
546,-398,31.6873,5.58582,0,0,0,0,0,0,0,-1,1770,1422,31.6872,-5.58585
553,-398,30.4392,5.92383,0,0,0,0,0,0,0,-1,1777,1422,30.4392,-5.92386
560,-398,29.1621,6.30469,0,0,0,0,0,0,0,-1,1784,1422,29.1621,-6.30469
567,-398,27.8411,6.55029,0,0,0,0,0,0,0,-1,1791,1422,27.8411,-6.55033
574,-398,26.411,6.8916,0,0,0,0,0,0,0,-1,1798,1422,26.411,-6.8916
581,-398,24.75,7.11145,0,0,0,0,0,0,0,-1,1805,1422,24.7499,-7.11142
588,-398,23.1649,7.67969,0,0,0,0,0,0,0,-1,1812,1422,23.1649,-7.67975
595,-398,21.4253,7.86023,0,0,0,0,0,0,0,-1,1819,1422,21.4253,-7.86029
602,-398,19.6857,8.04077,0,0,0,0,0,0,0,-1,1826,1422,19.6856,-8.04083
609,-398,21.1835,13.2628,0,0,0,0,0,0,0,-1,1833,1422,21.1835,-13.2628
616,-398,35.7712,21.4,0,0,0,0,0,0,0,-1,1840,1422,35.7713,-21.4
623,-398,36.7314,21.0789,0,0,0,0,0,0,0,-1,1847,1422,36.7315,-21.0789
630,-398,36.7299,20.3398,-0.000130802,-0.00035854,0.000446361,0.000215985,-0.000705327,0.66051,0.000556368,0.0144917,1854,1422,36.7298,-20.3399
637,-398,36.7058,19.6401,6.1752e-05,-0.000295633,0.00020907,0.000158089,-0.00039197,0.431789,0.000327005,0.0146358,1861,1422,36.7059,-19.6401
644,-398,36.5709,18.9343,0.000629296,-0.000196466,8.02093e-05,0.000637015,-0.000204185,0.0959387,0.000506644,0.0214055,1868,1422,36.5709,-18.9343
651,-398,36.6697,18.2355,0.00165423,-0.000453058,9.15324e-05,0.0016582,-0.000457027,0.0433272,0.00128519,0.0312031,1875,1422,36.6697,-18.2354
658,-398,36.6471,17.5162,0.00305257,-0.00092027,0.000179209,0.00306064,-0.000928337,0.0449867,0.00241022,0.0255284,1882,1422,36.6471,-17.5163
665,-398,36.5461,16.7645,0.00480513,-0.00169047,0.000421333,0.00483235,-0.00171769,0.0645041,0.00392159,0.0164494,1889,1422,36.5462,-16.7646
672,-398,36.5188,16.0493,0.00694706,-0.00292337,0.000895243,0.0070276,-0.00300391,0.0897239,0.00594497,0.0132663,1896,1422,36.5188,-16.0493
679,-398,36.4916,15.3414,0.00949702,-0.00472902,0.00163344,0.00968217,-0.00491416,0.112864,0.00857576,0.0139181,1903,1422,36.4916,-15.3414
686,-398,36.4543,14.6356,0.0125032,-0.00734383,0.00272193,0.0128698,-0.00771036,0.133853,0.0120058,0.0242332,1910,1422,36.4544,-14.6356
693,-398,36.717,14.5636,0.0159031,-0.0109048,0.00430733,0.0165781,-0.0115799,0.155462,0.0163422,0.0445626,1917,1422,36.7171,-14.5636
700,-398,37.2838,14.5767,0,0,0,0,0,0,0,-1,1924,1422,37.2839,-14.5766
707,-398,10.9731,5.479,0,0,0,0,0,0,0,-1,1931,1422,10.9732,-5.47896
714,-398,11.7313,6.17346,0,0,0,0,0,0,0,-1,1938,1422,11.7313,-6.17348
721,-398,13.9371,8.05103,0,0,0,0,0,0,0,-1,1945,1422,13.9372,-8.05102
728,-398,14.786,7.0282,0,0,0,0,0,0,0,-1,1952,1422,14.786,-7.0282
735,-398,0,0,0,0,0,0,0,0,0,-1,1959,1422,0,0
742,-398,0,0,0,0,0,0,0,0,0,-1,1966,1422,0,0
749,-398,0,0,0,0,0,0,0,0,0,-1,1973,1422,0,0
756,-398,0,0,0,0,0,0,0,0,0,-1,1980,1422,0,0
763,-398,0,0,0,0,0,0,0,0,0,-1,1987,1422,0,0
770,-398,0,0,0,0,0,0,0,0,0,-1,1994,1422,0,0
777,-398,0,0,0,0,0,0,0,0,0,-1,2001,1422,0,0
784,-398,0,0,0,0,0,0,0,0,0,-1,2008,1422,0,0
791,-398,0,0,0,0,0,0,0,0,0,-1,2015,1422,0,0
798,-398,0,0,0,0,0,0,0,0,0,-1,2022,1422,0,0
805,-398,0,0,0,0,0,0,0,0,0,-1,2029,1422,0,0
812,-398,0,0,0,0,0,0,0,0,0,-1,2036,1422,0,0
-700,-405,0,0,0,0,0,0,0,0,0,-1,524,1429,0,0
-693,-405,0,0,0,0,0,0,0,0,0,-1,531,1429,0,0
-686,-405,0,0,0,0,0,0,0,0,0,-1,538,1429,0,0
-679,-405,0,0,0,0,0,0,0,0,0,-1,545,1429,0,0
-672,-405,0,0,0,0,0,0,0,0,0,-1,552,1429,0,0
-665,-405,0,0,0,0,0,0,0,0,0,-1,559,1429,0,0
-658,-405,0,0,0,0,0,0,0,0,0,-1,566,1429,0,0
-651,-405,0,0,0,0,0,0,0,0,0,-1,573,1429,0,0
-644,-405,0,0,0,0,0,0,0,0,0,-1,580,1429,0,0
-637,-405,0,0,0,0,0,0,0,0,0,-1,587,1429,0,0
-630,-405,0,0,0,0,0,0,0,0,0,-1,594,1429,0,0
-623,-405,0,0,0,0,0,0,0,0,0,-1,601,1429,0,0
-616,-405,0,0,0,0,0,0,0,0,0,-1,608,1429,0,0
-609,-405,0,0,0,0,0,0,0,0,0,-1,615,1429,0,0
-602,-405,-5.80988,-3.46594,0,0,0,0,0,0,0,-1,622,1429,-5.80987,3.46592
-595,-405,-9.35413,2.01477,0,0,0,0,0,0,0,-1,629,1429,-9.35411,-2.01476
-588,-405,-7.35693,0.507202,0,0,0,0,0,0,0,-1,636,1429,-7.35696,-0.507187
-581,-405,-10.1284,1.62927,0,0,0,0,0,0,0,-1,643,1429,-10.1284,-1.62922
-574,-405,-9.32074,3.05896,0,0,0,0,0,0,0,-1,650,1429,-9.32077,-3.0589
-567,-405,-9.68781,6.92163,0,0,0,0,0,0,0,-1,657,1429,-9.68782,-6.92166
-560,-405,-9.28674,7.20886,0,0,0,0,0,0,0,-1,664,1429,-9.28675,-7.20885
-553,-405,-17.8088,12.9275,0,0,0,0,0,0,0,-1,671,1429,-17.8088,-12.9275
-546,-405,-18.6442,13.9968,0,0,0,0,0,0,0,-1,678,1429,-18.6441,-13.9968
-539,-405,-18.5735,14.9689,0.00450737,0.003589,0.00362877,0.00770589,0.000390483,0.722462,0.00501217,0.0151714,685,1429,-18.5735,-14.9689
-532,-405,-18.6004,15.7463,0.00339176,0.00247688,0.00268686,0.00565984,0.000208796,0.701081,0.00370559,0.0169479,692,1429,-18.6004,-15.7463
-525,-405,-18.6309,16.553,0.00268966,0.00179764,0.00206226,0.00435359,0.000133712,0.678902,0.00285886,0.0145479,699,1429,-18.6309,-16.5529
-518,-405,-18.6392,17.3352,0.00223751,0.00133231,0.0016202,0.00346714,0.00010268,0.649196,0.00227797,0.0146098,706,1429,-18.6391,-17.3352
-511,-405,-18.6642,18.0717,0.00197672,0.00103363,0.00131617,0.00290326,0.000107086,0.613385,0.00190082,0.014371,713,1429,-18.6642,-18.0716
-504,-405,-18.7017,18.834,0.00191307,0.000923453,0.00116199,0.00268121,0.00015531,0.584112,0.00173802,0.0155831,720,1429,-18.7017,-18.8339
-497,-405,-18.7505,19.6329,0.00205222,0.00102534,0.00117514,0.0028212,0.000256369,0.579438,0.00180143,0.0146388,727,1429,-18.7506,-19.6329
-490,-405,-18.8054,20.3867,0.00243707,0.00134411,0.0013665,0.00336231,0.000418865,0.595184,0.00211578,0.0133866,734,1429,-18.8054,-20.3867
-483,-405,-18.7344,21.2839,0.0029928,0.00197188,0.00170875,0.0042657,0.00069897,0.640252,0.00264182,0.0369234,741,1429,-18.7344,-21.2839
-476,-405,-18.5139,22.4442,0,0,0,0,0,0,0,-1,748,1429,-18.5139,-22.4442
-469,-405,-9.65692,12.8171,0,0,0,0,0,0,0,-1,755,1429,-9.65691,-12.8172
-462,-405,-9.14862,11.3597,0,0,0,0,0,0,0,-1,762,1429,-9.14865,-11.3597
-455,-405,-9.021,9.51111,0,0,0,0,0,0,0,-1,769,1429,-9.021,-9.51109
-448,-405,-8.4649,6.82813,0,0,0,0,0,0,0,-1,776,1429,-8.46492,-6.82817
-441,-405,-6.6712,4.23767,0,0,0,0,0,0,0,-1,783,1429,-6.67121,-4.23764
-434,-405,-9.62549,3.94189,0,0,0,0,0,0,0,-1,790,1429,-9.62546,-3.94191
-427,-405,-10.9764,3.73926,0,0,0,0,0,0,0,-1,797,1429,-10.9764,-3.73923
-420,-405,-12.1187,3.68506,0,0,0,0,0,0,0,-1,804,1429,-12.1187,-3.68512
-413,-405,-13.5353,3.75659,0,0,0,0,0,0,0,-1,811,1429,-13.5353,-3.75655
-406,-405,-14.7374,3.99817,0,0,0,0,0,0,0,-1,818,1429,-14.7374,-3.99814
-399,-405,0,0,0,0,0,0,0,0,0,-1,825,1429,0,0
-392,-405,0,0,0,0,0,0,0,0,0,-1,832,1429,0,0
-385,-405,0,0,0,0,0,0,0,0,0,-1,839,1429,0,0
-378,-405,0,0,0,0,0,0,0,0,0,-1,846,1429,0,0
-371,-405,0,0,0,0,0,0,0,0,0,-1,853,1429,0,0
-364,-405,0,0,0,0,0,0,0,0,0,-1,860,1429,0,0
-357,-405,0,0,0,0,0,0,0,0,0,-1,867,1429,0,0
-350,-405,0,0,0,0,0,0,0,0,0,-1,874,1429,0,0
-343,-405,0,0,0,0,0,0,0,0,0,-1,881,1429,0,0
-336,-405,0,0,0,0,0,0,0,0,0,-1,888,1429,0,0
-329,-405,0,0,0,0,0,0,0,0,0,-1,895,1429,0,0
-322,-405,0,0,0,0,0,0,0,0,0,-1,902,1429,0,0
-315,-405,0,0,0,0,0,0,0,0,0,-1,909,1429,0,0
-308,-405,0,0,0,0,0,0,0,0,0,-1,916,1429,0,0
-301,-405,0,0,0,0,0,0,0,0,0,-1,923,1429,0,0
-294,-405,0,0,0,0,0,0,0,0,0,-1,930,1429,0,0
-287,-405,0,0,0,0,0,0,0,0,0,-1,937,1429,0,0
-280,-405,0,0,0,0,0,0,0,0,0,-1,944,1429,0,0
-273,-405,0,0,0,0,0,0,0,0,0,-1,951,1429,0,0
-266,-405,0,0,0,0,0,0,0,0,0,-1,958,1429,0,0
-259,-405,0,0,0,0,0,0,0,0,0,-1,965,1429,0,0
-252,-405,0,0,0,0,0,0,0,0,0,-1,972,1429,0,0
-245,-405,0,0,0,0,0,0,0,0,0,-1,979,1429,0,0
-238,-405,0,0,0,0,0,0,0,0,0,-1,986,1429,0,0
-231,-405,0,0,0,0,0,0,0,0,0,-1,993,1429,0,0
-224,-405,0,0,0,0,0,0,0,0,0,-1,1000,1429,0,0
-217,-405,0,0,0,0,0,0,0,0,0,-1,1007,1429,0,0
-210,-405,0,0,0,0,0,0,0,0,0,-1,1014,1429,0,0
-203,-405,0,0,0,0,0,0,0,0,0,-1,1021,1429,0,0
-196,-405,0,0,0,0,0,0,0,0,0,-1,1028,1429,0,0
-189,-405,0,0,0,0,0,0,0,0,0,-1,1035,1429,0,0
-182,-405,0,0,0,0,0,0,0,0,0,-1,1042,1429,0,0
-175,-405,0,0,0,0,0,0,0,0,0,-1,1049,1429,0,0
-168,-405,0,0,0,0,0,0,0,0,0,-1,1056,1429,0,0
-161,-405,0,0,0,0,0,0,0,0,0,-1,1063,1429,0,0
-154,-405,0,0,0,0,0,0,0,0,0,-1,1070,1429,0,0
-147,-405,0,0,0,0,0,0,0,0,0,-1,1077,1429,0,0
-140,-405,0,0,0,0,0,0,0,0,0,-1,1084,1429,0,0
-133,-405,0,0,0,0,0,0,0,0,0,-1,1091,1429,0,0
-126,-405,0,0,0,0,0,0,0,0,0,-1,1098,1429,0,0
-119,-405,0,0,0,0,0,0,0,0,0,-1,1105,1429,0,0
-112,-405,0,0,0,0,0,0,0,0,0,-1,1112,1429,0,0
-105,-405,0,0,0,0,0,0,0,0,0,-1,1119,1429,0,0
-98,-405,0,0,0,0,0,0,0,0,0,-1,1126,1429,0,0
-91,-405,0,0,0,0,0,0,0,0,0,-1,1133,1429,0,0
-84,-405,0,0,0,0,0,0,0,0,0,-1,1140,1429,0,0
-77,-405,0,0,0,0,0,0,0,0,0,-1,1147,1429,0,0
-70,-405,0,0,0,0,0,0,0,0,0,-1,1154,1429,0,0
-63,-405,0,0,0,0,0,0,0,0,0,-1,1161,1429,0,0
-56,-405,0,0,0,0,0,0,0,0,0,-1,1168,1429,0,0
-49,-405,0,0,0,0,0,0,0,0,0,-1,1175,1429,0,0
-42,-405,0,0,0,0,0,0,0,0,0,-1,1182,1429,0,0
-35,-405,0,0,0,0,0,0,0,0,0,-1,1189,1429,0,0
-28,-405,0,0,0,0,0,0,0,0,0,-1,1196,1429,0,0
-21,-405,0,0,0,0,0,0,0,0,0,-1,1203,1429,0,0
-14,-405,0,0,0,0,0,0,0,0,0,-1,1210,1429,0,0
-7,-405,0,0,0,0,0,0,0,0,0,-1,1217,1429,0,0
0,-405,0,0,0,0,0,0,0,0,0,-1,1224,1429,0,0
7,-405,0,0,0,0,0,0,0,0,0,-1,1231,1429,0,0
14,-405,0,0,0,0,0,0,0,0,0,-1,1238,1429,0,0
21,-405,0,0,0,0,0,0,0,0,0,-1,1245,1429,0,0
28,-405,0,0,0,0,0,0,0,0,0,-1,1252,1429,0,0
35,-405,0,0,0,0,0,0,0,0,0,-1,1259,1429,0,0
42,-405,0,0,0,0,0,0,0,0,0,-1,1266,1429,0,0
49,-405,0,0,0,0,0,0,0,0,0,-1,1273,1429,0,0
56,-405,0,0,0,0,0,0,0,0,0,-1,1280,1429,0,0
63,-405,0,0,0,0,0,0,0,0,0,-1,1287,1429,0,0
70,-405,0,0,0,0,0,0,0,0,0,-1,1294,1429,0,0
77,-405,0,0,0,0,0,0,0,0,0,-1,1301,1429,0,0
84,-405,0,0,0,0,0,0,0,0,0,-1,1308,1429,0,0
91,-405,0,0,0,0,0,0,0,0,0,-1,1315,1429,0,0
98,-405,0,0,0,0,0,0,0,0,0,-1,1322,1429,0,0
105,-405,0,0,0,0,0,0,0,0,0,-1,1329,1429,0,0
112,-405,0,0,0,0,0,0,0,0,0,-1,1336,1429,0,0
119,-405,0,0,0,0,0,0,0,0,0,-1,1343,1429,0,0
126,-405,0,0,0,0,0,0,0,0,0,-1,1350,1429,0,0
133,-405,0,0,0,0,0,0,0,0,0,-1,1357,1429,0,0
140,-405,0,0,0,0,0,0,0,0,0,-1,1364,1429,0,0
147,-405,0,0,0,0,0,0,0,0,0,-1,1371,1429,0,0
154,-405,0,0,0,0,0,0,0,0,0,-1,1378,1429,0,0
161,-405,0,0,0,0,0,0,0,0,0,-1,1385,1429,0,0
168,-405,0,0,0,0,0,0,0,0,0,-1,1392,1429,0,0
175,-405,0,0,0,0,0,0,0,0,0,-1,1399,1429,0,0
182,-405,0,0,0,0,0,0,0,0,0,-1,1406,1429,0,0
189,-405,0,0,0,0,0,0,0,0,0,-1,1413,1429,0,0
196,-405,0,0,0,0,0,0,0,0,0,-1,1420,1429,0,0
203,-405,0,0,0,0,0,0,0,0,0,-1,1427,1429,0,0
210,-405,0,0,0,0,0,0,0,0,0,-1,1434,1429,0,0
217,-405,0,0,0,0,0,0,0,0,0,-1,1441,1429,0,0
224,-405,0,0,0,0,0,0,0,0,0,-1,1448,1429,0,0
231,-405,0,0,0,0,0,0,0,0,0,-1,1455,1429,0,0
238,-405,0,0,0,0,0,0,0,0,0,-1,1462,1429,0,0
245,-405,0,0,0,0,0,0,0,0,0,-1,1469,1429,0,0
252,-405,0,0,0,0,0,0,0,0,0,-1,1476,1429,0,0
259,-405,0,0,0,0,0,0,0,0,0,-1,1483,1429,0,0
266,-405,0,0,0,0,0,0,0,0,0,-1,1490,1429,0,0
273,-405,0,0,0,0,0,0,0,0,0,-1,1497,1429,0,0
280,-405,0,0,0,0,0,0,0,0,0,-1,1504,1429,0,0
287,-405,0,0,0,0,0,0,0,0,0,-1,1511,1429,0,0
294,-405,0,0,0,0,0,0,0,0,0,-1,1518,1429,0,0
301,-405,0,0,0,0,0,0,0,0,0,-1,1525,1429,0,0
308,-405,0,0,0,0,0,0,0,0,0,-1,1532,1429,0,0
315,-405,0,0,0,0,0,0,0,0,0,-1,1539,1429,0,0
322,-405,0,0,0,0,0,0,0,0,0,-1,1546,1429,0,0
329,-405,0,0,0,0,0,0,0,0,0,-1,1553,1429,0,0
336,-405,0,0,0,0,0,0,0,0,0,-1,1560,1429,0,0
343,-405,0,0,0,0,0,0,0,0,0,-1,1567,1429,0,0
350,-405,0,0,0,0,0,0,0,0,0,-1,1574,1429,0,0
357,-405,0,0,0,0,0,0,0,0,0,-1,1581,1429,0,0
364,-405,0,0,0,0,0,0,0,0,0,-1,1588,1429,0,0
371,-405,0,0,0,0,0,0,0,0,0,-1,1595,1429,0,0
378,-405,0,0,0,0,0,0,0,0,0,-1,1602,1429,0,0
385,-405,0,0,0,0,0,0,0,0,0,-1,1609,1429,0,0
392,-405,0,0,0,0,0,0,0,0,0,-1,1616,1429,0,0
399,-405,0,0,0,0,0,0,0,0,0,-1,1623,1429,0,0
406,-405,0,0,0,0,0,0,0,0,0,-1,1630,1429,0,0
413,-405,0,0,0,0,0,0,0,0,0,-1,1637,1429,0,0
420,-405,0,0,0,0,0,0,0,0,0,-1,1644,1429,0,0
427,-405,0,0,0,0,0,0,0,0,0,-1,1651,1429,0,0
434,-405,0,0,0,0,0,0,0,0,0,-1,1658,1429,0,0
441,-405,0,0,0,0,0,0,0,0,0,-1,1665,1429,0,0
448,-405,0,0,0,0,0,0,0,0,0,-1,1672,1429,0,0
455,-405,0,0,0,0,0,0,0,0,0,-1,1679,1429,0,0
462,-405,0,0,0,0,0,0,0,0,0,-1,1686,1429,0,0
469,-405,0,0,0,0,0,0,0,0,0,-1,1693,1429,0,0
476,-405,0,0,0,0,0,0,0,0,0,-1,1700,1429,0,0
483,-405,0,0,0,0,0,0,0,0,0,-1,1707,1429,0,0
490,-405,0,0,0,0,0,0,0,0,0,-1,1714,1429,0,0
497,-405,0,0,0,0,0,0,0,0,0,-1,1721,1429,0,0
504,-405,0,0,0,0,0,0,0,0,0,-1,1728,1429,0,0
511,-405,0,0,0,0,0,0,0,0,0,-1,1735,1429,0,0
518,-405,0,0,0,0,0,0,0,0,0,-1,1742,1429,0,0
525,-405,31.1563,-1.40942,0,0,0,0,0,0,0,-1,1749,1429,31.1563,1.40937
532,-405,28.156,4.8783,0,0,0,0,0,0,0,-1,1756,1429,28.1561,-4.87833
539,-405,26.5133,3.02454,0,0,0,0,0,0,0,-1,1763,1429,26.5133,-3.0246
546,-405,29.5735,6.53052,0,0,0,0,0,0,0,-1,1770,1429,29.5735,-6.53049
553,-405,28.2911,6.70654,0,0,0,0,0,0,0,-1,1777,1429,28.2912,-6.70656
560,-405,26.9299,7.08472,0,0,0,0,0,0,0,-1,1784,1429,26.9299,-7.08469
567,-405,25.804,7.14661,0,0,0,0,0,0,0,-1,1791,1429,25.8039,-7.14665
574,-405,25.1151,8.07971,0,0,0,0,0,0,0,-1,1798,1429,25.1151,-8.07965
581,-405,23.5055,8.505,0,0,0,0,0,0,0,-1,1805,1429,23.5054,-8.50501
588,-405,21.7491,8.98254,0,0,0,0,0,0,0,-1,1812,1429,21.7491,-8.98254
595,-405,21.6327,10.7795,0,0,0,0,0,0,0,-1,1819,1429,21.6327,-10.7796
602,-405,21.6461,13.9199,0,0,0,0,0,0,0,-1,1826,1429,21.6461,-13.92
609,-405,35.985,22.7773,0,0,0,0,0,0,0,-1,1833,1429,35.985,-22.7773
616,-405,36.0177,21.9722,0,0,0,0,0,0,0,-1,1840,1429,36.0177,-21.9721
623,-405,35.9989,21.2031,0.000764211,2.60668e-07,5.31692e-05,0.000767894,-3.42206e-06,0.0691533,0.000513073,0.0155873,1847,1429,35.9989,-21.2032
630,-405,35.9777,20.4342,0.000621763,-0.000150646,0.000107049,0.000636324,-0.000165207,0.135196,0.000488684,0.0109598,1854,1429,35.9777,-20.4342
637,-405,35.9434,19.7008,0.00082053,-0.000169998,-3.39526e-05,0.000821692,-0.000171161,-0.0342237,0.000612868,0.0115144,1861,1429,35.9434,-19.7008
644,-405,35.8665,18.9856,0.00146949,-0.000278768,-0.000102861,0.00147552,-0.000284799,-0.0585668,0.00109108,0.0319334,1868,1429,35.8665,-18.9856
651,-405,35.8163,18.2637,0.0025106,-0.000514997,-0.000125384,0.00251578,-0.000520184,-0.0413465,0.0018748,0.0364175,1875,1429,35.8163,-18.2637
658,-405,35.8795,17.5513,0.00394504,-0.000952378,-5.66808e-05,0.0039457,-0.000953033,-0.0115715,0.00299905,0.0256543,1882,1429,35.8795,-17.5512
665,-405,35.8014,16.8284,0.00580164,-0.00171404,0.000192997,0.00580659,-0.00171899,0.0256568,0.00455353,0.0188469,1889,1429,35.8014,-16.8284
672,-405,35.8134,16.1127,0.00809928,-0.0030003,0.000734411,0.00814766,-0.00304868,0.0657835,0.00668393,0.0226278,1896,1429,35.8133,-16.1127
679,-405,35.9198,15.3909,0.0108976,-0.00496583,0.00161613,0.0110606,-0.0051288,0.100502,0.00955381,0.0307032,1903,1429,35.9198,-15.3909
686,-405,35.9752,14.5366,0,0,0,0,0,0,0,-1,1910,1429,35.9752,-14.5366
693,-405,36.0991,14.7828,0,0,0,0,0,0,0,-1,1917,1429,36.0991,-14.7829
700,-405,9.1958,4.02026,0,0,0,0,0,0,0,-1,1924,1429,9.19579,-4.02025
707,-405,7.40308,3.83191,0,0,0,0,0,0,0,-1,1931,1429,7.40311,-3.83194
714,-405,7.33252,3.47388,0,0,0,0,0,0,0,-1,1938,1429,7.33255,-3.47383
721,-405,9.23523,0.993896,0,0,0,0,0,0,0,-1,1945,1429,9.23523,-0.993884
728,-405,0,0,0,0,0,0,0,0,0,-1,1952,1429,0,0
735,-405,0,0,0,0,0,0,0,0,0,-1,1959,1429,0,0
742,-405,0,0,0,0,0,0,0,0,0,-1,1966,1429,0,0
749,-405,0,0,0,0,0,0,0,0,0,-1,1973,1429,0,0
756,-405,0,0,0,0,0,0,0,0,0,-1,1980,1429,0,0
763,-405,0,0,0,0,0,0,0,0,0,-1,1987,1429,0,0
770,-405,0,0,0,0,0,0,0,0,0,-1,1994,1429,0,0
777,-405,0,0,0,0,0,0,0,0,0,-1,2001,1429,0,0
784,-405,0,0,0,0,0,0,0,0,0,-1,2008,1429,0,0
791,-405,0,0,0,0,0,0,0,0,0,-1,2015,1429,0,0
798,-405,0,0,0,0,0,0,0,0,0,-1,2022,1429,0,0
805,-405,0,0,0,0,0,0,0,0,0,-1,2029,1429,0,0
812,-405,0,0,0,0,0,0,0,0,0,-1,2036,1429,0,0
-700,-412,0,0,0,0,0,0,0,0,0,-1,524,1436,0,0
-693,-412,0,0,0,0,0,0,0,0,0,-1,531,1436,0,0
-686,-412,0,0,0,0,0,0,0,0,0,-1,538,1436,0,0
-679,-412,0,0,0,0,0,0,0,0,0,-1,545,1436,0,0
-672,-412,0,0,0,0,0,0,0,0,0,-1,552,1436,0,0
-665,-412,0,0,0,0,0,0,0,0,0,-1,559,1436,0,0
-658,-412,0,0,0,0,0,0,0,0,0,-1,566,1436,0,0
-651,-412,0,0,0,0,0,0,0,0,0,-1,573,1436,0,0
-644,-412,0,0,0,0,0,0,0,0,0,-1,580,1436,0,0
-637,-412,0,0,0,0,0,0,0,0,0,-1,587,1436,0,0
-630,-412,0,0,0,0,0,0,0,0,0,-1,594,1436,0,0
-623,-412,0,0,0,0,0,0,0,0,0,-1,601,1436,0,0
-616,-412,0,0,0,0,0,0,0,0,0,-1,608,1436,0,0
-609,-412,0,0,0,0,0,0,0,0,0,-1,615,1436,0,0
-602,-412,-3.72766,-3.50012,0,0,0,0,0,0,0,-1,622,1436,-3.72764,3.50017
-595,-412,-10.3706,0.65564,0,0,0,0,0,0,0,-1,629,1436,-10.3706,-0.655672
-588,-412,-8.17957,1.94934,0,0,0,0,0,0,0,-1,636,1436,-8.17956,-1.94939
-581,-412,-6.60065,-0.0554199,0,0,0,0,0,0,0,-1,643,1436,-6.60063,0.0554733
-574,-412,-8.34131,5.25012,0,0,0,0,0,0,0,-1,650,1436,-8.34129,-5.25012
-567,-412,-7.50354,3.65454,0,0,0,0,0,0,0,-1,657,1436,-7.50356,-3.65452
-560,-412,-8.52448,7.39014,0,0,0,0,0,0,0,-1,664,1436,-8.52447,-7.39019
-553,-412,-7.36761,6.54651,0,0,0,0,0,0,0,-1,671,1436,-7.36763,-6.54654
-546,-412,-17.8653,14.1239,0,0,0,0,0,0,0,-1,678,1436,-17.8653,-14.1239
-539,-412,-17.7636,14.958,0.00486735,0.00457828,0.00442347,0.00914865,0.000296989,0.769067,0.00600255,0.0307636,685,1436,-17.7636,-14.958
-532,-412,-17.8325,15.8137,0.00364793,0.00324067,0.00332783,0.00677836,0.000110245,0.754841,0.00448261,0.0165232,692,1436,-17.8325,-15.8137
-525,-412,-17.8917,16.608,0.00288962,0.0024167,0.00259179,0.00525572,5.06102e-05,0.739907,0.00348706,0.0153443,699,1436,-17.8917,-16.608
-518,-412,-17.9078,17.3794,0.00238593,0.00182848,0.00204633,0.00417243,4.19789e-05,0.717711,0.00276773,0.015559,706,1436,-17.9078,-17.3794
-511,-412,-17.9225,18.1094,0.00205555,0.00139843,0.00162949,0.00338927,6.47093e-05,0.685914,0.00223826,0.0180983,713,1436,-17.9225,-18.1094
-504,-412,-17.9719,18.874,0.00188536,0.00113891,0.00133295,0.00289635,0.000127922,0.648894,0.0018897,0.017707,720,1436,-17.9719,-18.874
-497,-412,-18.0178,19.6831,0.00189206,0.00107326,0.00118149,0.00273307,0.000232244,0.618617,0.00174978,0.0153944,727,1436,-18.0178,-19.6831
-490,-412,-18.0509,20.432,0.00206238,0.00118984,0.00117009,0.00287489,0.000377329,0.606955,0.00180402,0.0138062,734,1436,-18.0509,-20.432
-483,-412,-18.0751,21.161,0.00237254,0.00154807,0.00128292,0.00330783,0.000612777,0.629945,0.002032,0.0120565,741,1436,-18.075,-21.161
-476,-412,-18.0809,22.0145,0,0,0,0,0,0,0,-1,748,1436,-18.0809,-22.0146
-469,-412,-12.7646,18.4785,0,0,0,0,0,0,0,-1,755,1436,-12.7647,-18.4785
-462,-412,-8.94659,13.3385,0,0,0,0,0,0,0,-1,762,1436,-8.94657,-13.3385
-455,-412,-8.25006,11.2572,0,0,0,0,0,0,0,-1,769,1436,-8.25007,-11.2572
-448,-412,-7.38086,8.78186,0,0,0,0,0,0,0,-1,776,1436,-7.38088,-8.78183
-441,-412,-8.79523,9.05286,0,0,0,0,0,0,0,-1,783,1436,-8.79521,-9.0529
-434,-412,-10.6305,8.03577,0,0,0,0,0,0,0,-1,790,1436,-10.6305,-8.0358
-427,-412,-10.0004,5.15271,0,0,0,0,0,0,0,-1,797,1436,-10.0004,-5.15266
-420,-412,-10.4468,4.9043,0,0,0,0,0,0,0,-1,804,1436,-10.4468,-4.90429
-413,-412,-11.5704,4.97766,0,0,0,0,0,0,0,-1,811,1436,-11.5704,-4.97771
-406,-412,-13.1968,5.70093,0,0,0,0,0,0,0,-1,818,1436,-13.1968,-5.70096
-399,-412,-10.5506,0.771973,0,0,0,0,0,0,0,-1,825,1436,-10.5506,-0.771954
-392,-412,0,0,0,0,0,0,0,0,0,-1,832,1436,0,0
-385,-412,0,0,0,0,0,0,0,0,0,-1,839,1436,0,0
-378,-412,0,0,0,0,0,0,0,0,0,-1,846,1436,0,0
-371,-412,0,0,0,0,0,0,0,0,0,-1,853,1436,0,0
-364,-412,0,0,0,0,0,0,0,0,0,-1,860,1436,0,0
-357,-412,0,0,0,0,0,0,0,0,0,-1,867,1436,0,0
-350,-412,0,0,0,0,0,0,0,0,0,-1,874,1436,0,0
-343,-412,0,0,0,0,0,0,0,0,0,-1,881,1436,0,0
-336,-412,0,0,0,0,0,0,0,0,0,-1,888,1436,0,0
-329,-412,0,0,0,0,0,0,0,0,0,-1,895,1436,0,0
-322,-412,0,0,0,0,0,0,0,0,0,-1,902,1436,0,0
-315,-412,0,0,0,0,0,0,0,0,0,-1,909,1436,0,0
-308,-412,0,0,0,0,0,0,0,0,0,-1,916,1436,0,0
-301,-412,0,0,0,0,0,0,0,0,0,-1,923,1436,0,0
-294,-412,0,0,0,0,0,0,0,0,0,-1,930,1436,0,0
-287,-412,0,0,0,0,0,0,0,0,0,-1,937,1436,0,0
-280,-412,0,0,0,0,0,0,0,0,0,-1,944,1436,0,0
-273,-412,0,0,0,0,0,0,0,0,0,-1,951,1436,0,0
-266,-412,0,0,0,0,0,0,0,0,0,-1,958,1436,0,0
-259,-412,0,0,0,0,0,0,0,0,0,-1,965,1436,0,0
-252,-412,0,0,0,0,0,0,0,0,0,-1,972,1436,0,0
-245,-412,0,0,0,0,0,0,0,0,0,-1,979,1436,0,0
-238,-412,0,0,0,0,0,0,0,0,0,-1,986,1436,0,0
-231,-412,0,0,0,0,0,0,0,0,0,-1,993,1436,0,0
-224,-412,0,0,0,0,0,0,0,0,0,-1,1000,1436,0,0
-217,-412,0,0,0,0,0,0,0,0,0,-1,1007,1436,0,0
-210,-412,0,0,0,0,0,0,0,0,0,-1,1014,1436,0,0
-203,-412,0,0,0,0,0,0,0,0,0,-1,1021,1436,0,0
-196,-412,0,0,0,0,0,0,0,0,0,-1,1028,1436,0,0
-189,-412,0,0,0,0,0,0,0,0,0,-1,1035,1436,0,0
-182,-412,0,0,0,0,0,0,0,0,0,-1,1042,1436,0,0
-175,-412,0,0,0,0,0,0,0,0,0,-1,1049,1436,0,0
-168,-412,0,0,0,0,0,0,0,0,0,-1,1056,1436,0,0
-161,-412,0,0,0,0,0,0,0,0,0,-1,1063,1436,0,0
-154,-412,0,0,0,0,0,0,0,0,0,-1,1070,1436,0,0
-147,-412,0,0,0,0,0,0,0,0,0,-1,1077,1436,0,0
-140,-412,0,0,0,0,0,0,0,0,0,-1,1084,1436,0,0
-133,-412,0,0,0,0,0,0,0,0,0,-1,1091,1436,0,0
-126,-412,0,0,0,0,0,0,0,0,0,-1,1098,1436,0,0
-119,-412,0,0,0,0,0,0,0,0,0,-1,1105,1436,0,0
-112,-412,0,0,0,0,0,0,0,0,0,-1,1112,1436,0,0
-105,-412,0,0,0,0,0,0,0,0,0,-1,1119,1436,0,0
-98,-412,0,0,0,0,0,0,0,0,0,-1,1126,1436,0,0
-91,-412,0,0,0,0,0,0,0,0,0,-1,1133,1436,0,0
-84,-412,0,0,0,0,0,0,0,0,0,-1,1140,1436,0,0
-77,-412,0,0,0,0,0,0,0,0,0,-1,1147,1436,0,0
-70,-412,0,0,0,0,0,0,0,0,0,-1,1154,1436,0,0
-63,-412,0,0,0,0,0,0,0,0,0,-1,1161,1436,0,0
-56,-412,0,0,0,0,0,0,0,0,0,-1,1168,1436,0,0
-49,-412,0,0,0,0,0,0,0,0,0,-1,1175,1436,0,0
-42,-412,0,0,0,0,0,0,0,0,0,-1,1182,1436,0,0
-35,-412,0,0,0,0,0,0,0,0,0,-1,1189,1436,0,0
-28,-412,0,0,0,0,0,0,0,0,0,-1,1196,1436,0,0
-21,-412,0,0,0,0,0,0,0,0,0,-1,1203,1436,0,0
-14,-412,0,0,0,0,0,0,0,0,0,-1,1210,1436,0,0
-7,-412,0,0,0,0,0,0,0,0,0,-1,1217,1436,0,0
0,-412,0,0,0,0,0,0,0,0,0,-1,1224,1436,0,0
7,-412,0,0,0,0,0,0,0,0,0,-1,1231,1436,0,0
14,-412,0,0,0,0,0,0,0,0,0,-1,1238,1436,0,0
21,-412,0,0,0,0,0,0,0,0,0,-1,1245,1436,0,0
28,-412,0,0,0,0,0,0,0,0,0,-1,1252,1436,0,0
35,-412,0,0,0,0,0,0,0,0,0,-1,1259,1436,0,0
42,-412,0,0,0,0,0,0,0,0,0,-1,1266,1436,0,0
49,-412,0,0,0,0,0,0,0,0,0,-1,1273,1436,0,0
56,-412,0,0,0,0,0,0,0,0,0,-1,1280,1436,0,0
63,-412,0,0,0,0,0,0,0,0,0,-1,1287,1436,0,0
70,-412,0,0,0,0,0,0,0,0,0,-1,1294,1436,0,0
77,-412,0,0,0,0,0,0,0,0,0,-1,1301,1436,0,0
84,-412,0,0,0,0,0,0,0,0,0,-1,1308,1436,0,0
91,-412,0,0,0,0,0,0,0,0,0,-1,1315,1436,0,0
98,-412,0,0,0,0,0,0,0,0,0,-1,1322,1436,0,0
105,-412,0,0,0,0,0,0,0,0,0,-1,1329,1436,0,0
112,-412,0,0,0,0,0,0,0,0,0,-1,1336,1436,0,0
119,-412,0,0,0,0,0,0,0,0,0,-1,1343,1436,0,0
126,-412,0,0,0,0,0,0,0,0,0,-1,1350,1436,0,0
133,-412,0,0,0,0,0,0,0,0,0,-1,1357,1436,0,0
140,-412,0,0,0,0,0,0,0,0,0,-1,1364,1436,0,0
147,-412,0,0,0,0,0,0,0,0,0,-1,1371,1436,0,0
154,-412,0,0,0,0,0,0,0,0,0,-1,1378,1436,0,0
161,-412,0,0,0,0,0,0,0,0,0,-1,1385,1436,0,0
168,-412,0,0,0,0,0,0,0,0,0,-1,1392,1436,0,0
175,-412,0,0,0,0,0,0,0,0,0,-1,1399,1436,0,0
182,-412,0,0,0,0,0,0,0,0,0,-1,1406,1436,0,0
189,-412,0,0,0,0,0,0,0,0,0,-1,1413,1436,0,0
196,-412,0,0,0,0,0,0,0,0,0,-1,1420,1436,0,0
203,-412,0,0,0,0,0,0,0,0,0,-1,1427,1436,0,0
210,-412,0,0,0,0,0,0,0,0,0,-1,1434,1436,0,0
217,-412,0,0,0,0,0,0,0,0,0,-1,1441,1436,0,0
224,-412,0,0,0,0,0,0,0,0,0,-1,1448,1436,0,0
231,-412,0,0,0,0,0,0,0,0,0,-1,1455,1436,0,0
238,-412,0,0,0,0,0,0,0,0,0,-1,1462,1436,0,0
245,-412,0,0,0,0,0,0,0,0,0,-1,1469,1436,0,0
252,-412,0,0,0,0,0,0,0,0,0,-1,1476,1436,0,0
259,-412,0,0,0,0,0,0,0,0,0,-1,1483,1436,0,0
266,-412,0,0,0,0,0,0,0,0,0,-1,1490,1436,0,0
273,-412,0,0,0,0,0,0,0,0,0,-1,1497,1436,0,0
280,-412,0,0,0,0,0,0,0,0,0,-1,1504,1436,0,0
287,-412,0,0,0,0,0,0,0,0,0,-1,1511,1436,0,0
294,-412,0,0,0,0,0,0,0,0,0,-1,1518,1436,0,0
301,-412,0,0,0,0,0,0,0,0,0,-1,1525,1436,0,0
308,-412,0,0,0,0,0,0,0,0,0,-1,1532,1436,0,0
315,-412,0,0,0,0,0,0,0,0,0,-1,1539,1436,0,0
322,-412,0,0,0,0,0,0,0,0,0,-1,1546,1436,0,0
329,-412,0,0,0,0,0,0,0,0,0,-1,1553,1436,0,0
336,-412,0,0,0,0,0,0,0,0,0,-1,1560,1436,0,0
343,-412,0,0,0,0,0,0,0,0,0,-1,1567,1436,0,0
350,-412,0,0,0,0,0,0,0,0,0,-1,1574,1436,0,0
357,-412,0,0,0,0,0,0,0,0,0,-1,1581,1436,0,0
364,-412,0,0,0,0,0,0,0,0,0,-1,1588,1436,0,0
371,-412,0,0,0,0,0,0,0,0,0,-1,1595,1436,0,0
378,-412,0,0,0,0,0,0,0,0,0,-1,1602,1436,0,0
385,-412,0,0,0,0,0,0,0,0,0,-1,1609,1436,0,0
392,-412,0,0,0,0,0,0,0,0,0,-1,1616,1436,0,0
399,-412,0,0,0,0,0,0,0,0,0,-1,1623,1436,0,0
406,-412,0,0,0,0,0,0,0,0,0,-1,1630,1436,0,0
413,-412,0,0,0,0,0,0,0,0,0,-1,1637,1436,0,0
420,-412,0,0,0,0,0,0,0,0,0,-1,1644,1436,0,0
427,-412,0,0,0,0,0,0,0,0,0,-1,1651,1436,0,0
434,-412,0,0,0,0,0,0,0,0,0,-1,1658,1436,0,0
441,-412,0,0,0,0,0,0,0,0,0,-1,1665,1436,0,0
448,-412,0,0,0,0,0,0,0,0,0,-1,1672,1436,0,0
455,-412,0,0,0,0,0,0,0,0,0,-1,1679,1436,0,0
462,-412,0,0,0,0,0,0,0,0,0,-1,1686,1436,0,0
469,-412,0,0,0,0,0,0,0,0,0,-1,1693,1436,0,0
476,-412,0,0,0,0,0,0,0,0,0,-1,1700,1436,0,0
483,-412,0,0,0,0,0,0,0,0,0,-1,1707,1436,0,0
490,-412,0,0,0,0,0,0,0,0,0,-1,1714,1436,0,0
497,-412,0,0,0,0,0,0,0,0,0,-1,1721,1436,0,0
504,-412,0,0,0,0,0,0,0,0,0,-1,1728,1436,0,0
511,-412,0,0,0,0,0,0,0,0,0,-1,1735,1436,0,0
518,-412,30.1038,-2.43384,0,0,0,0,0,0,0,-1,1742,1436,30.1038,2.43383
525,-412,29.5283,-1.42493,0,0,0,0,0,0,0,-1,1749,1436,29.5283,1.42495
532,-412,28.8533,-0.386597,0,0,0,0,0,0,0,-1,1756,1436,28.8533,0.386632
539,-412,25.8654,2.74683,0,0,0,0,0,0,0,-1,1763,1436,25.8654,-2.74685
546,-412,25.4265,2.4342,0,0,0,0,0,0,0,-1,1770,1436,25.4265,-2.4342
553,-412,26.3595,7.49255,0,0,0,0,0,0,0,-1,1777,1436,26.3595,-7.4925
560,-412,24.9116,7.94324,0,0,0,0,0,0,0,-1,1784,1436,24.9116,-7.94327
567,-412,23.668,7.94531,0,0,0,0,0,0,0,-1,1791,1436,23.6679,-7.94534
574,-412,23.0142,9.17236,0,0,0,0,0,0,0,-1,1798,1436,23.0141,-9.17235
581,-412,22.2615,10.0349,0,0,0,0,0,0,0,-1,1805,1436,22.2615,-10.0349
588,-412,21.6893,10.8069,0,0,0,0,0,0,0,-1,1812,1436,21.6893,-10.8069
595,-412,21.5137,14.3157,0,0,0,0,0,0,0,-1,1819,1436,21.5137,-14.3157
602,-412,35.2911,23.4998,0,0,0,0,0,0,0,-1,1826,1436,35.2912,-23.4997
609,-412,35.33,22.657,0.00269358,0.00175244,-0.00126595,0.00357359,0.000872428,-0.607457,0.00215138,0.0469294,1833,1436,35.33,-22.657
616,-412,35.3271,21.9362,0.00170219,0.000732295,-0.000607918,0.00199489,0.000439593,-0.448725,0.0012103,0.0139242,1840,1436,35.3272,-21.9362
623,-412,35.2714,21.2338,0.00113884,0.000236057,-0.00030602,0.00123279,0.000142102,-0.297886,0.000778829,0.00951095,1847,1436,35.2714,-21.2338
630,-412,35.252,20.4805,0.00108881,2.69574e-05,-0.000236313,0.00113902,-2.32587e-05,-0.209384,0.00076722,0.0110016,1854,1436,35.252,-20.4805
637,-412,35.2255,19.7207,0.00137696,-3.32074e-05,-0.000284166,0.00143207,-8.83164e-05,-0.191555,0.000985474,0.0135519,1861,1436,35.2255,-19.7207
644,-412,35.1864,19.0099,0.00214763,-0.00027478,-0.000291423,0.00218219,-0.000309345,-0.118059,0.00156812,0.0163085,1868,1436,35.1864,-19.0099
651,-412,35.1866,18.2854,0.00326595,-0.000476742,-0.000333105,0.00329537,-0.000506158,-0.0880787,0.00238361,0.0265851,1875,1436,35.1866,-18.2854
658,-412,35.1053,17.5885,0.00480485,-0.000847133,-0.000306923,0.00482147,-0.000863751,-0.0540916,0.00353755,0.0184515,1882,1436,35.1054,-17.5885
665,-412,35.0731,16.864,0.00683636,-0.00154785,-9.44893e-05,0.00683742,-0.00154892,-0.011268,0.00515278,0.0223366,1889,1436,35.0731,-16.864
672,-412,35.1437,16.1093,0.00936178,-0.00280951,0.000440468,0.0093777,-0.00282543,0.0361261,0.00737625,0.033817,1896,1436,35.1436,-16.1093
679,-412,35.422,15.4022,0,0,0,0,0,0,0,-1,1903,1436,35.422,-15.4022
686,-412,34.9965,15.3063,0,0,0,0,0,0,0,-1,1910,1436,34.9964,-15.3063
693,-412,11.9346,6.02344,0,0,0,0,0,0,0,-1,1917,1436,11.9346,-6.02343
700,-412,8.82764,5.8844,0,0,0,0,0,0,0,-1,1924,1436,8.82761,-5.88444
707,-412,6.59998,1.68994,0,0,0,0,0,0,0,-1,1931,1436,6.60002,-1.68995
714,-412,4.77283,-2.39832,0,0,0,0,0,0,0,-1,1938,1436,4.77288,2.39835
721,-412,0,0,0,0,0,0,0,0,0,-1,1945,1436,0,0
728,-412,0,0,0,0,0,0,0,0,0,-1,1952,1436,0,0
735,-412,0,0,0,0,0,0,0,0,0,-1,1959,1436,0,0
742,-412,0,0,0,0,0,0,0,0,0,-1,1966,1436,0,0
749,-412,0,0,0,0,0,0,0,0,0,-1,1973,1436,0,0
756,-412,0,0,0,0,0,0,0,0,0,-1,1980,1436,0,0
763,-412,0,0,0,0,0,0,0,0,0,-1,1987,1436,0,0
770,-412,0,0,0,0,0,0,0,0,0,-1,1994,1436,0,0
777,-412,0,0,0,0,0,0,0,0,0,-1,2001,1436,0,0
784,-412,0,0,0,0,0,0,0,0,0,-1,2008,1436,0,0
791,-412,0,0,0,0,0,0,0,0,0,-1,2015,1436,0,0
798,-412,0,0,0,0,0,0,0,0,0,-1,2022,1436,0,0
805,-412,0,0,0,0,0,0,0,0,0,-1,2029,1436,0,0
812,-412,0,0,0,0,0,0,0,0,0,-1,2036,1436,0,0
-700,-419,0,0,0,0,0,0,0,0,0,-1,524,1443,0,0
-693,-419,0,0,0,0,0,0,0,0,0,-1,531,1443,0,0
-686,-419,0,0,0,0,0,0,0,0,0,-1,538,1443,0,0
-679,-419,0,0,0,0,0,0,0,0,0,-1,545,1443,0,0
-672,-419,0,0,0,0,0,0,0,0,0,-1,552,1443,0,0
-665,-419,0,0,0,0,0,0,0,0,0,-1,559,1443,0,0
-658,-419,0,0,0,0,0,0,0,0,0,-1,566,1443,0,0
-651,-419,0,0,0,0,0,0,0,0,0,-1,573,1443,0,0
-644,-419,0,0,0,0,0,0,0,0,0,-1,580,1443,0,0
-637,-419,0,0,0,0,0,0,0,0,0,-1,587,1443,0,0
-630,-419,0,0,0,0,0,0,0,0,0,-1,594,1443,0,0
-623,-419,0,0,0,0,0,0,0,0,0,-1,601,1443,0,0
-616,-419,0,0,0,0,0,0,0,0,0,-1,608,1443,0,0
-609,-419,0,0,0,0,0,0,0,0,0,-1,615,1443,0,0
-602,-419,0,0,0,0,0,0,0,0,0,-1,622,1443,0,0
-595,-419,-11.4904,-0.622681,0,0,0,0,0,0,0,-1,629,1443,-11.4903,0.622714
-588,-419,-9.09369,0.742432,0,0,0,0,0,0,0,-1,636,1443,-9.09366,-0.742482
-581,-419,-6.39172,2.14673,0,0,0,0,0,0,0,-1,643,1443,-6.39175,-2.14668
-574,-419,-4.09772,3.54773,0,0,0,0,0,0,0,-1,650,1443,-4.09772,-3.54767
-567,-419,-6.14038,3.22498,0,0,0,0,0,0,0,-1,657,1443,-6.14037,-3.22497
-560,-419,-4.52814,5.22253,0,0,0,0,0,0,0,-1,664,1443,-4.52816,-5.22251
-553,-419,-5.08331,6.11829,0,0,0,0,0,0,0,-1,671,1443,-5.08331,-6.1183
-546,-419,-10.3732,9.23279,0,0,0,0,0,0,0,-1,678,1443,-10.3732,-9.23275
-539,-419,-17.063,14.9762,0,0,0,0,0,0,0,-1,685,1443,-17.063,-14.9761
-532,-419,-17.1017,15.8352,0.00401449,0.00416455,0.00410414,0.00819434,-1.53077e-05,0.794538,0.00546801,0.0306092,692,1443,-17.1018,-15.8353
-525,-419,-17.1078,16.6592,0.00313356,0.00314847,0.00323426,0.00637529,-9.32585e-05,0.78655,0.00428161,0.0135393,699,1443,-17.1078,-16.6591
-518,-419,-17.1179,17.408,0.00254753,0.0024133,0.00257234,0.00505363,-9.27981e-05,0.772356,0.00340044,0.0174862,706,1443,-17.1178,-17.408
-511,-419,-17.1395,18.1779,0.00213506,0.00183264,0.00203178,0.00402125,-5.35513e-05,0.748256,0.00269886,0.0203209,713,1443,-17.1394,-18.1778
-504,-419,-17.2064,18.9442,0.0018666,0.00141703,0.00159663,0.00325419,2.94403e-05,0.715465,0.00215971,0.0195231,720,1443,-17.2064,-18.9442
-497,-419,-17.2475,19.7,0.00176183,0.00118081,0.00128945,0.00279309,0.000149544,0.674599,0.00181427,0.0137633,727,1443,-17.2475,-19.7
-490,-419,-17.2836,20.4426,0.00178953,0.0010981,0.00110574,0.00260234,0.000285294,0.633884,0.00164804,0.0118386,734,1443,-17.2836,-20.4427
-483,-419,-17.3162,21.1882,0.0019859,0.00126472,0.00108315,0.00276691,0.00048372,0.624714,0.00170638,0.010634,741,1443,-17.3162,-21.1882
-476,-419,-17.2973,22.0225,0.00228169,0.00154767,0.00121183,0.00318087,0.000648497,0.638361,0.00194087,0.0221602,748,1443,-17.2973,-22.0224
-469,-419,-17.306,22.8793,0,0,0,0,0,0,0,-1,755,1443,-17.306,-22.8792
-462,-419,-11.5347,18.1563,0,0,0,0,0,0,0,-1,762,1443,-11.5347,-18.1562
-455,-419,-7.35645,11.9451,0,0,0,0,0,0,0,-1,769,1443,-7.35646,-11.9451
-448,-419,-7.49109,9.92444,0,0,0,0,0,0,0,-1,776,1443,-7.49109,-9.92442
-441,-419,-7.65527,8.75574,0,0,0,0,0,0,0,-1,783,1443,-7.65525,-8.75568
-434,-419,-11.3724,12.3643,0,0,0,0,0,0,0,-1,790,1443,-11.3724,-12.3643
-427,-419,-8.23193,7.89404,0,0,0,0,0,0,0,-1,797,1443,-8.23193,-7.89404
-420,-419,-8.74091,6.36597,0,0,0,0,0,0,0,-1,804,1443,-8.74089,-6.366
-413,-419,-9.88391,6.53955,0,0,0,0,0,0,0,-1,811,1443,-9.8839,-6.53955
-406,-419,-10.3372,2.75195,0,0,0,0,0,0,0,-1,818,1443,-10.3372,-2.75201
-399,-419,-11.5999,1.40002,0,0,0,0,0,0,0,-1,825,1443,-11.5999,-1.39998
-392,-419,0,0,0,0,0,0,0,0,0,-1,832,1443,0,0
-385,-419,0,0,0,0,0,0,0,0,0,-1,839,1443,0,0
-378,-419,0,0,0,0,0,0,0,0,0,-1,846,1443,0,0
-371,-419,0,0,0,0,0,0,0,0,0,-1,853,1443,0,0
-364,-419,0,0,0,0,0,0,0,0,0,-1,860,1443,0,0
-357,-419,0,0,0,0,0,0,0,0,0,-1,867,1443,0,0
-350,-419,0,0,0,0,0,0,0,0,0,-1,874,1443,0,0
-343,-419,0,0,0,0,0,0,0,0,0,-1,881,1443,0,0
-336,-419,0,0,0,0,0,0,0,0,0,-1,888,1443,0,0
-329,-419,0,0,0,0,0,0,0,0,0,-1,895,1443,0,0
-322,-419,0,0,0,0,0,0,0,0,0,-1,902,1443,0,0
-315,-419,0,0,0,0,0,0,0,0,0,-1,909,1443,0,0
-308,-419,0,0,0,0,0,0,0,0,0,-1,916,1443,0,0
-301,-419,0,0,0,0,0,0,0,0,0,-1,923,1443,0,0
-294,-419,0,0,0,0,0,0,0,0,0,-1,930,1443,0,0
-287,-419,0,0,0,0,0,0,0,0,0,-1,937,1443,0,0
-280,-419,0,0,0,0,0,0,0,0,0,-1,944,1443,0,0
-273,-419,0,0,0,0,0,0,0,0,0,-1,951,1443,0,0
-266,-419,0,0,0,0,0,0,0,0,0,-1,958,1443,0,0
-259,-419,0,0,0,0,0,0,0,0,0,-1,965,1443,0,0
-252,-419,0,0,0,0,0,0,0,0,0,-1,972,1443,0,0
-245,-419,0,0,0,0,0,0,0,0,0,-1,979,1443,0,0
-238,-419,0,0,0,0,0,0,0,0,0,-1,986,1443,0,0
-231,-419,0,0,0,0,0,0,0,0,0,-1,993,1443,0,0
-224,-419,0,0,0,0,0,0,0,0,0,-1,1000,1443,0,0
-217,-419,0,0,0,0,0,0,0,0,0,-1,1007,1443,0,0
-210,-419,0,0,0,0,0,0,0,0,0,-1,1014,1443,0,0
-203,-419,0,0,0,0,0,0,0,0,0,-1,1021,1443,0,0
-196,-419,0,0,0,0,0,0,0,0,0,-1,1028,1443,0,0
-189,-419,0,0,0,0,0,0,0,0,0,-1,1035,1443,0,0
-182,-419,0,0,0,0,0,0,0,0,0,-1,1042,1443,0,0
-175,-419,0,0,0,0,0,0,0,0,0,-1,1049,1443,0,0
-168,-419,0,0,0,0,0,0,0,0,0,-1,1056,1443,0,0
-161,-419,0,0,0,0,0,0,0,0,0,-1,1063,1443,0,0
-154,-419,0,0,0,0,0,0,0,0,0,-1,1070,1443,0,0
-147,-419,0,0,0,0,0,0,0,0,0,-1,1077,1443,0,0
-140,-419,0,0,0,0,0,0,0,0,0,-1,1084,1443,0,0
-133,-419,0,0,0,0,0,0,0,0,0,-1,1091,1443,0,0
-126,-419,0,0,0,0,0,0,0,0,0,-1,1098,1443,0,0
-119,-419,0,0,0,0,0,0,0,0,0,-1,1105,1443,0,0
-112,-419,0,0,0,0,0,0,0,0,0,-1,1112,1443,0,0
-105,-419,0,0,0,0,0,0,0,0,0,-1,1119,1443,0,0
-98,-419,0,0,0,0,0,0,0,0,0,-1,1126,1443,0,0
-91,-419,0,0,0,0,0,0,0,0,0,-1,1133,1443,0,0
-84,-419,0,0,0,0,0,0,0,0,0,-1,1140,1443,0,0
-77,-419,0,0,0,0,0,0,0,0,0,-1,1147,1443,0,0
-70,-419,0,0,0,0,0,0,0,0,0,-1,1154,1443,0,0
-63,-419,0,0,0,0,0,0,0,0,0,-1,1161,1443,0,0
-56,-419,0,0,0,0,0,0,0,0,0,-1,1168,1443,0,0
-49,-419,0,0,0,0,0,0,0,0,0,-1,1175,1443,0,0
-42,-419,0,0,0,0,0,0,0,0,0,-1,1182,1443,0,0
-35,-419,0,0,0,0,0,0,0,0,0,-1,1189,1443,0,0
-28,-419,0,0,0,0,0,0,0,0,0,-1,1196,1443,0,0
-21,-419,0,0,0,0,0,0,0,0,0,-1,1203,1443,0,0
-14,-419,0,0,0,0,0,0,0,0,0,-1,1210,1443,0,0
-7,-419,0,0,0,0,0,0,0,0,0,-1,1217,1443,0,0
0,-419,0,0,0,0,0,0,0,0,0,-1,1224,1443,0,0
7,-419,0,0,0,0,0,0,0,0,0,-1,1231,1443,0,0
14,-419,0,0,0,0,0,0,0,0,0,-1,1238,1443,0,0
21,-419,0,0,0,0,0,0,0,0,0,-1,1245,1443,0,0
28,-419,0,0,0,0,0,0,0,0,0,-1,1252,1443,0,0
35,-419,0,0,0,0,0,0,0,0,0,-1,1259,1443,0,0
42,-419,0,0,0,0,0,0,0,0,0,-1,1266,1443,0,0
49,-419,0,0,0,0,0,0,0,0,0,-1,1273,1443,0,0
56,-419,0,0,0,0,0,0,0,0,0,-1,1280,1443,0,0
63,-419,0,0,0,0,0,0,0,0,0,-1,1287,1443,0,0
70,-419,0,0,0,0,0,0,0,0,0,-1,1294,1443,0,0
77,-419,0,0,0,0,0,0,0,0,0,-1,1301,1443,0,0
84,-419,0,0,0,0,0,0,0,0,0,-1,1308,1443,0,0
91,-419,0,0,0,0,0,0,0,0,0,-1,1315,1443,0,0
98,-419,0,0,0,0,0,0,0,0,0,-1,1322,1443,0,0
105,-419,0,0,0,0,0,0,0,0,0,-1,1329,1443,0,0
112,-419,0,0,0,0,0,0,0,0,0,-1,1336,1443,0,0
119,-419,0,0,0,0,0,0,0,0,0,-1,1343,1443,0,0
126,-419,0,0,0,0,0,0,0,0,0,-1,1350,1443,0,0
133,-419,0,0,0,0,0,0,0,0,0,-1,1357,1443,0,0
140,-419,0,0,0,0,0,0,0,0,0,-1,1364,1443,0,0
147,-419,0,0,0,0,0,0,0,0,0,-1,1371,1443,0,0
154,-419,0,0,0,0,0,0,0,0,0,-1,1378,1443,0,0
161,-419,0,0,0,0,0,0,0,0,0,-1,1385,1443,0,0
168,-419,0,0,0,0,0,0,0,0,0,-1,1392,1443,0,0
175,-419,0,0,0,0,0,0,0,0,0,-1,1399,1443,0,0
182,-419,0,0,0,0,0,0,0,0,0,-1,1406,1443,0,0
189,-419,0,0,0,0,0,0,0,0,0,-1,1413,1443,0,0
196,-419,0,0,0,0,0,0,0,0,0,-1,1420,1443,0,0
203,-419,0,0,0,0,0,0,0,0,0,-1,1427,1443,0,0
210,-419,0,0,0,0,0,0,0,0,0,-1,1434,1443,0,0
217,-419,0,0,0,0,0,0,0,0,0,-1,1441,1443,0,0
224,-419,0,0,0,0,0,0,0,0,0,-1,1448,1443,0,0
231,-419,0,0,0,0,0,0,0,0,0,-1,1455,1443,0,0
238,-419,0,0,0,0,0,0,0,0,0,-1,1462,1443,0,0
245,-419,0,0,0,0,0,0,0,0,0,-1,1469,1443,0,0
252,-419,0,0,0,0,0,0,0,0,0,-1,1476,1443,0,0
259,-419,0,0,0,0,0,0,0,0,0,-1,1483,1443,0,0
266,-419,0,0,0,0,0,0,0,0,0,-1,1490,1443,0,0
273,-419,0,0,0,0,0,0,0,0,0,-1,1497,1443,0,0
280,-419,0,0,0,0,0,0,0,0,0,-1,1504,1443,0,0
287,-419,0,0,0,0,0,0,0,0,0,-1,1511,1443,0,0
294,-419,0,0,0,0,0,0,0,0,0,-1,1518,1443,0,0
301,-419,0,0,0,0,0,0,0,0,0,-1,1525,1443,0,0
308,-419,0,0,0,0,0,0,0,0,0,-1,1532,1443,0,0
315,-419,0,0,0,0,0,0,0,0,0,-1,1539,1443,0,0
322,-419,0,0,0,0,0,0,0,0,0,-1,1546,1443,0,0
329,-419,0,0,0,0,0,0,0,0,0,-1,1553,1443,0,0
336,-419,0,0,0,0,0,0,0,0,0,-1,1560,1443,0,0
343,-419,0,0,0,0,0,0,0,0,0,-1,1567,1443,0,0
350,-419,0,0,0,0,0,0,0,0,0,-1,1574,1443,0,0
357,-419,0,0,0,0,0,0,0,0,0,-1,1581,1443,0,0
364,-419,0,0,0,0,0,0,0,0,0,-1,1588,1443,0,0
371,-419,0,0,0,0,0,0,0,0,0,-1,1595,1443,0,0
378,-419,0,0,0,0,0,0,0,0,0,-1,1602,1443,0,0
385,-419,0,0,0,0,0,0,0,0,0,-1,1609,1443,0,0
392,-419,0,0,0,0,0,0,0,0,0,-1,1616,1443,0,0
399,-419,0,0,0,0,0,0,0,0,0,-1,1623,1443,0,0
406,-419,0,0,0,0,0,0,0,0,0,-1,1630,1443,0,0
413,-419,0,0,0,0,0,0,0,0,0,-1,1637,1443,0,0
420,-419,0,0,0,0,0,0,0,0,0,-1,1644,1443,0,0
427,-419,0,0,0,0,0,0,0,0,0,-1,1651,1443,0,0
434,-419,0,0,0,0,0,0,0,0,0,-1,1658,1443,0,0
441,-419,0,0,0,0,0,0,0,0,0,-1,1665,1443,0,0
448,-419,0,0,0,0,0,0,0,0,0,-1,1672,1443,0,0
455,-419,0,0,0,0,0,0,0,0,0,-1,1679,1443,0,0
462,-419,0,0,0,0,0,0,0,0,0,-1,1686,1443,0,0
469,-419,0,0,0,0,0,0,0,0,0,-1,1693,1443,0,0
476,-419,0,0,0,0,0,0,0,0,0,-1,1700,1443,0,0
483,-419,0,0,0,0,0,0,0,0,0,-1,1707,1443,0,0
490,-419,0,0,0,0,0,0,0,0,0,-1,1714,1443,0,0
497,-419,0,0,0,0,0,0,0,0,0,-1,1721,1443,0,0
504,-419,0,0,0,0,0,0,0,0,0,-1,1728,1443,0,0
511,-419,20.3005,3.7959,0,0,0,0,0,0,0,-1,1735,1443,20.3005,-3.79584
518,-419,21.3154,2.03027,0,0,0,0,0,0,0,-1,1742,1443,21.3155,-2.03029
525,-419,28.3439,-1.24475,0,0,0,0,0,0,0,-1,1749,1443,28.3438,1.24471
532,-419,27.5902,-0.272583,0,0,0,0,0,0,0,-1,1756,1443,27.5902,0.272526
539,-419,26.5278,1.60583,0,0,0,0,0,0,0,-1,1763,1443,26.5279,-1.60579
546,-419,24.9509,2.77539,0,0,0,0,0,0,0,-1,1770,1443,24.9509,-2.77537
553,-419,24.118,3.75525,0,0,0,0,0,0,0,-1,1777,1443,24.1181,-3.75526
560,-419,11.8199,8.26343,0,0,0,0,0,0,0,-1,1784,1443,11.82,-8.26341
567,-419,21.5143,8.74719,0,0,0,0,0,0,0,-1,1791,1443,21.5143,-8.74722
574,-419,19.5886,6.46155,0,0,0,0,0,0,0,-1,1798,1443,19.5886,-6.46157
581,-419,20.7926,11.4265,0,0,0,0,0,0,0,-1,1805,1443,20.7926,-11.4265
588,-419,19.4242,12.5363,0,0,0,0,0,0,0,-1,1812,1443,19.4242,-12.5362
595,-419,22.9375,16.0151,0,0,0,0,0,0,0,-1,1819,1443,22.9375,-16.0152
602,-419,34.6646,23.4382,0,0,0,0,0,0,0,-1,1826,1443,34.6646,-23.4382
609,-419,34.6311,22.6636,0.00260082,0.00137573,-0.00140963,0.00352524,0.000451312,-0.580435,0.0022151,0.0259169,1833,1443,34.6312,-22.6635
616,-419,34.5863,21.9874,0.00181954,0.000703701,-0.000885562,0.00230828,0.000214961,-0.504299,0.00147244,0.0116488,1840,1443,34.5862,-21.9874
623,-419,34.5654,21.2592,0.00142126,0.000330976,-0.000581366,0.00167309,7.91457e-05,-0.408771,0.00108997,0.00989714,1847,1443,34.5654,-21.2592
630,-419,34.5549,20.5039,0.00144222,0.000118533,-0.000471741,0.00159314,-3.23814e-05,-0.309622,0.00107305,0.0116427,1854,1443,34.5549,-20.5039
637,-419,34.5149,19.7751,0.00180652,6.99633e-05,-0.000439769,0.00191154,-3.50535e-05,-0.23441,0.0012862,0.013259,1861,1443,34.5149,-19.7752
644,-419,34.4727,19.0624,0.00266707,-0.00020375,-0.000395122,0.00272046,-0.000257139,-0.134308,0.00190515,0.0126895,1868,1443,34.4727,-19.0623
651,-419,34.4214,18.3596,0.00384997,-0.000328225,-0.000447797,0.00389742,-0.000375678,-0.105577,0.00273213,0.0120577,1875,1443,34.4213,-18.3596
658,-419,34.3634,17.627,0.00550115,-0.000577576,-0.00046821,0.00553701,-0.000613428,-0.0764235,0.00391188,0.013893,1882,1443,34.3635,-17.6269
665,-419,34.3688,16.8982,0.00772524,-0.00115095,-0.000310088,0.00773606,-0.00116177,-0.0348781,0.00558506,0.0221972,1889,1443,34.3687,-16.8981
672,-419,34.4607,16.0464,0.0104993,-0.00230939,0.000187643,0.0105021,-0.00231214,0.0146455,0.00788589,0.0463808,1896,1443,34.4607,-16.0463
679,-419,34.77,15.2302,0,0,0,0,0,0,0,-1,1903,1443,34.77,-15.2302
686,-419,17.4127,8.03076,0,0,0,0,0,0,0,-1,1910,1443,17.4127,-8.03071
693,-419,8.76086,5.60535,0,0,0,0,0,0,0,-1,1917,1443,8.76091,-5.6054
700,-419,11.0498,4.85156,0,0,0,0,0,0,0,-1,1924,1443,11.0498,-4.85153
707,-419,9.5752,1.80042,0,0,0,0,0,0,0,-1,1931,1443,9.57523,-1.80037
714,-419,5.77576,-1.25061,0,0,0,0,0,0,0,-1,1938,1443,5.7757,1.25056
721,-419,0,0,0,0,0,0,0,0,0,-1,1945,1443,0,0
728,-419,0,0,0,0,0,0,0,0,0,-1,1952,1443,0,0
735,-419,0,0,0,0,0,0,0,0,0,-1,1959,1443,0,0
742,-419,0,0,0,0,0,0,0,0,0,-1,1966,1443,0,0
749,-419,0,0,0,0,0,0,0,0,0,-1,1973,1443,0,0
756,-419,0,0,0,0,0,0,0,0,0,-1,1980,1443,0,0
763,-419,0,0,0,0,0,0,0,0,0,-1,1987,1443,0,0
770,-419,0,0,0,0,0,0,0,0,0,-1,1994,1443,0,0
777,-419,0,0,0,0,0,0,0,0,0,-1,2001,1443,0,0
784,-419,0,0,0,0,0,0,0,0,0,-1,2008,1443,0,0
791,-419,0,0,0,0,0,0,0,0,0,-1,2015,1443,0,0
798,-419,0,0,0,0,0,0,0,0,0,-1,2022,1443,0,0
805,-419,0,0,0,0,0,0,0,0,0,-1,2029,1443,0,0
812,-419,0,0,0,0,0,0,0,0,0,-1,2036,1443,0,0
-700,-426,0,0,0,0,0,0,0,0,0,-1,524,1450,0,0
-693,-426,0,0,0,0,0,0,0,0,0,-1,531,1450,0,0
-686,-426,0,0,0,0,0,0,0,0,0,-1,538,1450,0,0
-679,-426,0,0,0,0,0,0,0,0,0,-1,545,1450,0,0
-672,-426,0,0,0,0,0,0,0,0,0,-1,552,1450,0,0
-665,-426,0,0,0,0,0,0,0,0,0,-1,559,1450,0,0
-658,-426,0,0,0,0,0,0,0,0,0,-1,566,1450,0,0
-651,-426,0,0,0,0,0,0,0,0,0,-1,573,1450,0,0
-644,-426,0,0,0,0,0,0,0,0,0,-1,580,1450,0,0
-637,-426,0,0,0,0,0,0,0,0,0,-1,587,1450,0,0
-630,-426,0,0,0,0,0,0,0,0,0,-1,594,1450,0,0
-623,-426,0,0,0,0,0,0,0,0,0,-1,601,1450,0,0
-616,-426,0,0,0,0,0,0,0,0,0,-1,608,1450,0,0
-609,-426,0,0,0,0,0,0,0,0,0,-1,615,1450,0,0
-602,-426,0,0,0,0,0,0,0,0,0,-1,622,1450,0,0
-595,-426,0,0,0,0,0,0,0,0,0,-1,629,1450,0,0
-588,-426,-10.184,-0.554321,0,0,0,0,0,0,0,-1,636,1450,-10.184,0.554321
-581,-426,-7.3349,1.48157,0,0,0,0,0,0,0,-1,643,1450,-7.33491,-1.48152
-574,-426,-5.02856,2.89319,0,0,0,0,0,0,0,-1,650,1450,-5.02858,-2.89319
-567,-426,-3.04797,1.72644,0,0,0,0,0,0,0,-1,657,1450,-3.04797,-1.72639
-560,-426,-5.55682,3.44397,0,0,0,0,0,0,0,-1,664,1450,-5.55684,-3.44399
-553,-426,-4.67017,6.66614,0,0,0,0,0,0,0,-1,671,1450,-4.67015,-6.66619
-546,-426,-7.58752,8.28882,0,0,0,0,0,0,0,-1,678,1450,-7.58752,-8.28878
-539,-426,-10.436,10.7441,0,0,0,0,0,0,0,-1,685,1450,-10.436,-10.7441
-532,-426,-16.3859,15.8256,0,0,0,0,0,0,0,-1,692,1450,-16.3859,-15.8255
-525,-426,-16.3555,16.6096,0.00334761,0.00398124,0.0039742,0.00765123,-0.000322385,0.825173,0.00521161,0.0246433,699,1450,-16.3556,-16.6096
-518,-426,-16.3462,17.4517,0.00274108,0.00307719,0.0031892,0.00610276,-0.000284485,0.811721,0.00416657,0.01689,706,1450,-16.3462,-17.4516
-511,-426,-16.3888,18.2332,0.00229091,0.00233804,0.00252878,0.00484337,-0.000214411,0.790057,0.0033027,0.01678,713,1450,-16.3888,-18.2331
-504,-426,-16.4456,18.9823,0.00195883,0.00176271,0.00196459,0.00382781,-0.000106261,0.760462,0.00258802,0.0158734,720,1450,-16.4456,-18.9823
-497,-426,-16.4738,19.7357,0.00175671,0.00136583,0.00151258,0.00308642,3.61175e-05,0.72115,0.00204568,0.0126878,727,1450,-16.4738,-19.7358
-490,-426,-16.5132,20.4927,0.00165574,0.00111289,0.00117443,0.0025897,0.00017893,0.671835,0.00167002,0.012803,734,1450,-16.5132,-20.4927
-483,-426,-16.5562,21.2396,0.00173695,0.00111781,0.00102419,0.00249734,0.000357421,0.638633,0.00155946,0.0129105,741,1450,-16.5561,-21.2397
-476,-426,-16.5775,21.9949,0.00195105,0.00129688,0.0010595,0.00273281,0.000515119,0.635681,0.00167675,0.00976241,748,1450,-16.5775,-21.9949
-469,-426,-16.6132,22.7484,0.00234022,0.00174855,0.00125673,0.00333546,0.000753304,0.669801,0.00201992,0.0132419,755,1450,-16.6133,-22.7484
-462,-426,-16.5422,23.5475,0,0,0,0,0,0,0,-1,762,1450,-16.5422,-23.5474
-455,-426,-10.215,17.7007,0,0,0,0,0,0,0,-1,769,1450,-10.215,-17.7007
-448,-426,-6.46545,10.1322,0,0,0,0,0,0,0,-1,776,1450,-6.46543,-10.1322
-441,-426,-10.9547,11.4747,0,0,0,0,0,0,0,-1,783,1450,-10.9546,-11.4748
-434,-426,-10.4998,13.6189,0,0,0,0,0,0,0,-1,790,1450,-10.4997,-13.6189
-427,-426,-9.36627,13.7396,0,0,0,0,0,0,0,-1,797,1450,-9.36628,-13.7396
-420,-426,-5.33765,7.95044,0,0,0,0,0,0,0,-1,804,1450,-5.33766,-7.95041
-413,-426,-10.1148,5.0415,0,0,0,0,0,0,0,-1,811,1450,-10.1148,-5.04152
-406,-426,-11.4199,3.6438,0,0,0,0,0,0,0,-1,818,1450,-11.4198,-3.64382
-399,-426,-12.7595,2.29004,0,0,0,0,0,0,0,-1,825,1450,-12.7595,-2.29003
-392,-426,-12.4147,0.537354,0,0,0,0,0,0,0,-1,832,1450,-12.4147,-0.53731
-385,-426,0,0,0,0,0,0,0,0,0,-1,839,1450,0,0
-378,-426,0,0,0,0,0,0,0,0,0,-1,846,1450,0,0
-371,-426,0,0,0,0,0,0,0,0,0,-1,853,1450,0,0
-364,-426,0,0,0,0,0,0,0,0,0,-1,860,1450,0,0
-357,-426,0,0,0,0,0,0,0,0,0,-1,867,1450,0,0
-350,-426,0,0,0,0,0,0,0,0,0,-1,874,1450,0,0
-343,-426,0,0,0,0,0,0,0,0,0,-1,881,1450,0,0
-336,-426,0,0,0,0,0,0,0,0,0,-1,888,1450,0,0
-329,-426,0,0,0,0,0,0,0,0,0,-1,895,1450,0,0
-322,-426,0,0,0,0,0,0,0,0,0,-1,902,1450,0,0
-315,-426,0,0,0,0,0,0,0,0,0,-1,909,1450,0,0
-308,-426,0,0,0,0,0,0,0,0,0,-1,916,1450,0,0
-301,-426,0,0,0,0,0,0,0,0,0,-1,923,1450,0,0
-294,-426,0,0,0,0,0,0,0,0,0,-1,930,1450,0,0
-287,-426,0,0,0,0,0,0,0,0,0,-1,937,1450,0,0
-280,-426,0,0,0,0,0,0,0,0,0,-1,944,1450,0,0
-273,-426,0,0,0,0,0,0,0,0,0,-1,951,1450,0,0
-266,-426,0,0,0,0,0,0,0,0,0,-1,958,1450,0,0
-259,-426,0,0,0,0,0,0,0,0,0,-1,965,1450,0,0
-252,-426,0,0,0,0,0,0,0,0,0,-1,972,1450,0,0
-245,-426,0,0,0,0,0,0,0,0,0,-1,979,1450,0,0
-238,-426,0,0,0,0,0,0,0,0,0,-1,986,1450,0,0
-231,-426,0,0,0,0,0,0,0,0,0,-1,993,1450,0,0
-224,-426,0,0,0,0,0,0,0,0,0,-1,1000,1450,0,0
-217,-426,0,0,0,0,0,0,0,0,0,-1,1007,1450,0,0
-210,-426,0,0,0,0,0,0,0,0,0,-1,1014,1450,0,0
-203,-426,0,0,0,0,0,0,0,0,0,-1,1021,1450,0,0
-196,-426,0,0,0,0,0,0,0,0,0,-1,1028,1450,0,0
-189,-426,0,0,0,0,0,0,0,0,0,-1,1035,1450,0,0
-182,-426,0,0,0,0,0,0,0,0,0,-1,1042,1450,0,0
-175,-426,0,0,0,0,0,0,0,0,0,-1,1049,1450,0,0
-168,-426,0,0,0,0,0,0,0,0,0,-1,1056,1450,0,0
-161,-426,0,0,0,0,0,0,0,0,0,-1,1063,1450,0,0
-154,-426,0,0,0,0,0,0,0,0,0,-1,1070,1450,0,0
-147,-426,0,0,0,0,0,0,0,0,0,-1,1077,1450,0,0
-140,-426,0,0,0,0,0,0,0,0,0,-1,1084,1450,0,0
-133,-426,0,0,0,0,0,0,0,0,0,-1,1091,1450,0,0
-126,-426,0,0,0,0,0,0,0,0,0,-1,1098,1450,0,0
-119,-426,0,0,0,0,0,0,0,0,0,-1,1105,1450,0,0
-112,-426,0,0,0,0,0,0,0,0,0,-1,1112,1450,0,0
-105,-426,0,0,0,0,0,0,0,0,0,-1,1119,1450,0,0
-98,-426,0,0,0,0,0,0,0,0,0,-1,1126,1450,0,0
-91,-426,0,0,0,0,0,0,0,0,0,-1,1133,1450,0,0
-84,-426,0,0,0,0,0,0,0,0,0,-1,1140,1450,0,0
-77,-426,0,0,0,0,0,0,0,0,0,-1,1147,1450,0,0
-70,-426,0,0,0,0,0,0,0,0,0,-1,1154,1450,0,0
-63,-426,0,0,0,0,0,0,0,0,0,-1,1161,1450,0,0
-56,-426,0,0,0,0,0,0,0,0,0,-1,1168,1450,0,0
-49,-426,0,0,0,0,0,0,0,0,0,-1,1175,1450,0,0
-42,-426,0,0,0,0,0,0,0,0,0,-1,1182,1450,0,0
-35,-426,0,0,0,0,0,0,0,0,0,-1,1189,1450,0,0
-28,-426,0,0,0,0,0,0,0,0,0,-1,1196,1450,0,0
-21,-426,0,0,0,0,0,0,0,0,0,-1,1203,1450,0,0
-14,-426,0,0,0,0,0,0,0,0,0,-1,1210,1450,0,0
-7,-426,0,0,0,0,0,0,0,0,0,-1,1217,1450,0,0
0,-426,0,0,0,0,0,0,0,0,0,-1,1224,1450,0,0
7,-426,0,0,0,0,0,0,0,0,0,-1,1231,1450,0,0
14,-426,0,0,0,0,0,0,0,0,0,-1,1238,1450,0,0
21,-426,0,0,0,0,0,0,0,0,0,-1,1245,1450,0,0
28,-426,0,0,0,0,0,0,0,0,0,-1,1252,1450,0,0
35,-426,0,0,0,0,0,0,0,0,0,-1,1259,1450,0,0
42,-426,0,0,0,0,0,0,0,0,0,-1,1266,1450,0,0
49,-426,0,0,0,0,0,0,0,0,0,-1,1273,1450,0,0
56,-426,0,0,0,0,0,0,0,0,0,-1,1280,1450,0,0
63,-426,0,0,0,0,0,0,0,0,0,-1,1287,1450,0,0
70,-426,0,0,0,0,0,0,0,0,0,-1,1294,1450,0,0
77,-426,0,0,0,0,0,0,0,0,0,-1,1301,1450,0,0
84,-426,0,0,0,0,0,0,0,0,0,-1,1308,1450,0,0
91,-426,0,0,0,0,0,0,0,0,0,-1,1315,1450,0,0
98,-426,0,0,0,0,0,0,0,0,0,-1,1322,1450,0,0
105,-426,0,0,0,0,0,0,0,0,0,-1,1329,1450,0,0
112,-426,0,0,0,0,0,0,0,0,0,-1,1336,1450,0,0
119,-426,0,0,0,0,0,0,0,0,0,-1,1343,1450,0,0
126,-426,0,0,0,0,0,0,0,0,0,-1,1350,1450,0,0
133,-426,0,0,0,0,0,0,0,0,0,-1,1357,1450,0,0
140,-426,0,0,0,0,0,0,0,0,0,-1,1364,1450,0,0
147,-426,0,0,0,0,0,0,0,0,0,-1,1371,1450,0,0
154,-426,0,0,0,0,0,0,0,0,0,-1,1378,1450,0,0
161,-426,0,0,0,0,0,0,0,0,0,-1,1385,1450,0,0
168,-426,0,0,0,0,0,0,0,0,0,-1,1392,1450,0,0
175,-426,0,0,0,0,0,0,0,0,0,-1,1399,1450,0,0
182,-426,0,0,0,0,0,0,0,0,0,-1,1406,1450,0,0
189,-426,0,0,0,0,0,0,0,0,0,-1,1413,1450,0,0
196,-426,0,0,0,0,0,0,0,0,0,-1,1420,1450,0,0
203,-426,0,0,0,0,0,0,0,0,0,-1,1427,1450,0,0
210,-426,0,0,0,0,0,0,0,0,0,-1,1434,1450,0,0
217,-426,0,0,0,0,0,0,0,0,0,-1,1441,1450,0,0
224,-426,0,0,0,0,0,0,0,0,0,-1,1448,1450,0,0
231,-426,0,0,0,0,0,0,0,0,0,-1,1455,1450,0,0
238,-426,0,0,0,0,0,0,0,0,0,-1,1462,1450,0,0
245,-426,0,0,0,0,0,0,0,0,0,-1,1469,1450,0,0
252,-426,0,0,0,0,0,0,0,0,0,-1,1476,1450,0,0
259,-426,0,0,0,0,0,0,0,0,0,-1,1483,1450,0,0
266,-426,0,0,0,0,0,0,0,0,0,-1,1490,1450,0,0
273,-426,0,0,0,0,0,0,0,0,0,-1,1497,1450,0,0
280,-426,0,0,0,0,0,0,0,0,0,-1,1504,1450,0,0
287,-426,0,0,0,0,0,0,0,0,0,-1,1511,1450,0,0
294,-426,0,0,0,0,0,0,0,0,0,-1,1518,1450,0,0
301,-426,0,0,0,0,0,0,0,0,0,-1,1525,1450,0,0
308,-426,0,0,0,0,0,0,0,0,0,-1,1532,1450,0,0
315,-426,0,0,0,0,0,0,0,0,0,-1,1539,1450,0,0
322,-426,0,0,0,0,0,0,0,0,0,-1,1546,1450,0,0
329,-426,0,0,0,0,0,0,0,0,0,-1,1553,1450,0,0
336,-426,0,0,0,0,0,0,0,0,0,-1,1560,1450,0,0
343,-426,0,0,0,0,0,0,0,0,0,-1,1567,1450,0,0
350,-426,0,0,0,0,0,0,0,0,0,-1,1574,1450,0,0
357,-426,0,0,0,0,0,0,0,0,0,-1,1581,1450,0,0
364,-426,0,0,0,0,0,0,0,0,0,-1,1588,1450,0,0
371,-426,0,0,0,0,0,0,0,0,0,-1,1595,1450,0,0
378,-426,0,0,0,0,0,0,0,0,0,-1,1602,1450,0,0
385,-426,0,0,0,0,0,0,0,0,0,-1,1609,1450,0,0
392,-426,0,0,0,0,0,0,0,0,0,-1,1616,1450,0,0
399,-426,0,0,0,0,0,0,0,0,0,-1,1623,1450,0,0
406,-426,0,0,0,0,0,0,0,0,0,-1,1630,1450,0,0
413,-426,0,0,0,0,0,0,0,0,0,-1,1637,1450,0,0
420,-426,0,0,0,0,0,0,0,0,0,-1,1644,1450,0,0
427,-426,0,0,0,0,0,0,0,0,0,-1,1651,1450,0,0
434,-426,0,0,0,0,0,0,0,0,0,-1,1658,1450,0,0
441,-426,0,0,0,0,0,0,0,0,0,-1,1665,1450,0,0
448,-426,0,0,0,0,0,0,0,0,0,-1,1672,1450,0,0
455,-426,0,0,0,0,0,0,0,0,0,-1,1679,1450,0,0
462,-426,0,0,0,0,0,0,0,0,0,-1,1686,1450,0,0
469,-426,0,0,0,0,0,0,0,0,0,-1,1693,1450,0,0
476,-426,0,0,0,0,0,0,0,0,0,-1,1700,1450,0,0
483,-426,0,0,0,0,0,0,0,0,0,-1,1707,1450,0,0
490,-426,0,0,0,0,0,0,0,0,0,-1,1714,1450,0,0
497,-426,0,0,0,0,0,0,0,0,0,-1,1721,1450,0,0
504,-426,20.6873,3.38367,0,0,0,0,0,0,0,-1,1728,1450,20.6873,-3.38361
511,-426,19.6676,3.53748,0,0,0,0,0,0,0,-1,1735,1450,19.6676,-3.53749
518,-426,18.6853,3.32288,0,0,0,0,0,0,0,-1,1742,1450,18.6853,-3.3229
525,-426,18.9552,2.71033,0,0,0,0,0,0,0,-1,1749,1450,18.9552,-2.71034
532,-426,19.4333,2.70764,0,0,0,0,0,0,0,-1,1756,1450,19.4334,-2.70764
539,-426,25.1482,2.56287,0,0,0,0,0,0,0,-1,1763,1450,25.1482,-2.56286
546,-426,24.1136,3.75659,0,0,0,0,0,0,0,-1,1770,1450,24.1136,-3.7566
553,-426,23.0791,4.95032,0,0,0,0,0,0,0,-1,1777,1450,23.0791,-4.95034
560,-426,12.9688,11.8289,0,0,0,0,0,0,0,-1,1784,1450,12.9688,-11.8288
567,-426,13.6388,11.5623,0,0,0,0,0,0,0,-1,1791,1450,13.6388,-11.5623
574,-426,14.3943,11.0286,0,0,0,0,0,0,0,-1,1798,1450,14.3942,-11.0285
581,-426,16.3879,11.4653,0,0,0,0,0,0,0,-1,1805,1450,16.3879,-11.4653
588,-426,18.1212,12.5547,0,0,0,0,0,0,0,-1,1812,1450,18.1212,-12.5547
595,-426,30.0474,21.0964,0,0,0,0,0,0,0,-1,1819,1450,30.0474,-21.0965
602,-426,33.9116,23.469,0,0,0,0,0,0,0,-1,1826,1450,33.9116,-23.4689
609,-426,33.8928,22.7401,0.00275972,0.0012337,-0.0015622,0.00373529,0.000258132,-0.558228,0.00240876,0.0140212,1833,1450,33.8928,-22.7401
616,-426,33.864,22.0083,0.00202701,0.000726718,-0.00106873,0.00262781,0.000125917,-0.512134,0.00171145,0.0143055,1840,1450,33.864,-22.0083
623,-426,33.8534,21.2863,0.0017147,0.000400971,-0.000740996,0.00204806,6.76105e-05,-0.422755,0.0013434,0.0118148,1847,1450,33.8534,-21.2862
630,-426,33.8568,20.5533,0.00177385,0.000164162,-0.000576621,0.00195909,-2.10776e-05,-0.310836,0.00131314,0.0123997,1854,1450,33.8568,-20.5533
637,-426,33.7939,19.8241,0.00216502,0.000101544,-0.000463711,0.00226443,2.12737e-06,-0.211197,0.00150891,0.0132164,1861,1450,33.794,-19.8241
644,-426,33.7144,19.1025,0.00305963,-0.000172711,-0.000356175,0.00309841,-0.000211494,-0.108458,0.00213959,0.0131085,1868,1450,33.7143,-19.1026
651,-426,33.6506,18.3911,0.00429999,-0.000218623,-0.000406858,0.00433633,-0.000254964,-0.0890857,0.00297951,0.0127676,1875,1450,33.6507,-18.3911
658,-426,33.6301,17.6235,0.00605463,-0.000331325,-0.000450861,0.0060863,-0.000363,-0.0701384,0.00418379,0.0138659,1882,1450,33.6301,-17.6235
665,-426,33.7052,16.7579,0.00848016,-0.000728811,-0.000335524,0.00849237,-0.00074102,-0.0363702,0.00592406,0.0404105,1889,1450,33.7052,-16.758
672,-426,33.9285,16.011,0,0,0,0,0,0,0,-1,1896,1450,33.9285,-16.011
679,-426,17.1522,8.15784,0,0,0,0,0,0,0,-1,1903,1450,17.1522,-8.15784
686,-426,13.5326,8.03711,0,0,0,0,0,0,0,-1,1910,1450,13.5326,-8.03717
693,-426,11.8607,6.45215,0,0,0,0,0,0,0,-1,1917,1450,11.8607,-6.45215
700,-426,9.24304,2.95447,0,0,0,0,0,0,0,-1,1924,1450,9.24305,-2.95442
707,-426,8.44519,-1.21448,0,0,0,0,0,0,0,-1,1931,1450,8.44514,1.21454
714,-426,0,0,0,0,0,0,0,0,0,-1,1938,1450,0,0
721,-426,0,0,0,0,0,0,0,0,0,-1,1945,1450,0,0
728,-426,0,0,0,0,0,0,0,0,0,-1,1952,1450,0,0
735,-426,0,0,0,0,0,0,0,0,0,-1,1959,1450,0,0
742,-426,0,0,0,0,0,0,0,0,0,-1,1966,1450,0,0
749,-426,0,0,0,0,0,0,0,0,0,-1,1973,1450,0,0
756,-426,0,0,0,0,0,0,0,0,0,-1,1980,1450,0,0
763,-426,0,0,0,0,0,0,0,0,0,-1,1987,1450,0,0
770,-426,0,0,0,0,0,0,0,0,0,-1,1994,1450,0,0
777,-426,0,0,0,0,0,0,0,0,0,-1,2001,1450,0,0
784,-426,0,0,0,0,0,0,0,0,0,-1,2008,1450,0,0
791,-426,0,0,0,0,0,0,0,0,0,-1,2015,1450,0,0
798,-426,0,0,0,0,0,0,0,0,0,-1,2022,1450,0,0
805,-426,0,0,0,0,0,0,0,0,0,-1,2029,1450,0,0
812,-426,0,0,0,0,0,0,0,0,0,-1,2036,1450,0,0
-700,-433,0,0,0,0,0,0,0,0,0,-1,524,1457,0,0
-693,-433,0,0,0,0,0,0,0,0,0,-1,531,1457,0,0
-686,-433,0,0,0,0,0,0,0,0,0,-1,538,1457,0,0
-679,-433,0,0,0,0,0,0,0,0,0,-1,545,1457,0,0
-672,-433,0,0,0,0,0,0,0,0,0,-1,552,1457,0,0
-665,-433,0,0,0,0,0,0,0,0,0,-1,559,1457,0,0
-658,-433,0,0,0,0,0,0,0,0,0,-1,566,1457,0,0
-651,-433,0,0,0,0,0,0,0,0,0,-1,573,1457,0,0
-644,-433,0,0,0,0,0,0,0,0,0,-1,580,1457,0,0
-637,-433,0,0,0,0,0,0,0,0,0,-1,587,1457,0,0
-630,-433,0,0,0,0,0,0,0,0,0,-1,594,1457,0,0
-623,-433,0,0,0,0,0,0,0,0,0,-1,601,1457,0,0
-616,-433,0,0,0,0,0,0,0,0,0,-1,608,1457,0,0
-609,-433,0,0,0,0,0,0,0,0,0,-1,615,1457,0,0
-602,-433,0,0,0,0,0,0,0,0,0,-1,622,1457,0,0
-595,-433,0,0,0,0,0,0,0,0,0,-1,629,1457,0,0
-588,-433,-10.3756,-0.467041,0,0,0,0,0,0,0,-1,636,1457,-10.3756,0.467081
-581,-433,-8.12201,0.884033,0,0,0,0,0,0,0,-1,643,1457,-8.12204,-0.884056
-574,-433,-5.86847,2.23523,0,0,0,0,0,0,0,-1,650,1457,-5.86844,-2.23519
-567,-433,-5.42255,1.16833,0,0,0,0,0,0,0,-1,657,1457,-5.42254,-1.1683
-560,-433,-6.84027,1.86414,0,0,0,0,0,0,0,-1,664,1457,-6.84026,-1.86412
-553,-433,-5.74017,1.79163,0,0,0,0,0,0,0,-1,671,1457,-5.74015,-1.79166
-546,-433,-8.12451,7.35095,0,0,0,0,0,0,0,-1,678,1457,-8.12451,-7.35097
-539,-433,-7.3136,8.75659,0,0,0,0,0,0,0,-1,685,1457,-7.31362,-8.75659
-532,-433,-14.5645,14.8475,0,0,0,0,0,0,0,-1,692,1457,-14.5645,-14.8475
-525,-433,-15.6193,16.6431,0,0,0,0,0,0,0,-1,699,1457,-15.6192,-16.643
-518,-433,-15.5936,17.5151,0.00304429,0.00392667,0.00398931,0.00749911,-0.000528158,0.840471,0.00518444,0.0167236,706,1457,-15.5936,-17.5151
-511,-433,-15.6702,18.2721,0.00254478,0.00303184,0.00317424,0.00597188,-0.000395261,0.823683,0.00411933,0.0150044,713,1457,-15.6703,-18.2721
-504,-433,-15.7045,19.0127,0.00213652,0.00229311,0.00245089,0.00466696,-0.000237321,0.801365,0.00319335,0.0131615,720,1457,-15.7045,-19.0127
-497,-433,-15.7184,19.7726,0.0018433,0.00173786,0.00184908,0.00364042,-5.92524e-05,0.771146,0.00244693,0.0146556,727,1457,-15.7184,-19.7726
-490,-433,-15.7579,20.527,0.00164068,0.00132263,0.00135923,0.00285015,0.000113156,0.727163,0.00186353,0.0169238,734,1457,-15.758,-20.5269
-483,-433,-15.8003,21.3047,0.001623,0.00115876,0.00107786,0.00249345,0.000288302,0.679341,0.00157502,0.0172751,741,1457,-15.8003,-21.3047
-476,-433,-15.8391,22.047,0.00174166,0.001205,0.00100473,0.00251327,0.000433389,0.65491,0.00155137,0.0112818,748,1457,-15.8391,-22.0469
-469,-433,-15.8792,22.8042,0.00201313,0.00146434,0.00109515,0.00286774,0.000609735,0.662648,0.00174447,0.0109556,755,1457,-15.8792,-22.8042
-462,-433,-15.9187,23.5646,0,0,0,0,0,0,0,-1,762,1457,-15.9187,-23.5645
-455,-433,-13.8576,22.7446,0,0,0,0,0,0,0,-1,769,1457,-13.8576,-22.7446
-448,-433,-6.94812,14.5563,0,0,0,0,0,0,0,-1,776,1457,-6.94809,-14.5562
-441,-433,-9.97485,14.0258,0,0,0,0,0,0,0,-1,783,1457,-9.97488,-14.0257
-434,-433,-9.41205,14.2297,0,0,0,0,0,0,0,-1,790,1457,-9.41205,-14.2297
-427,-433,-8.67419,13.6827,0,0,0,0,0,0,0,-1,797,1457,-8.67422,-13.6827
-420,-433,-5.74658,9.49121,0,0,0,0,0,0,0,-1,804,1457,-5.7466,-9.49119
-413,-433,-3.63074,5.5813,0,0,0,0,0,0,0,-1,811,1457,-3.63072,-5.58129
-406,-433,-12.3472,4.69373,0,0,0,0,0,0,0,-1,818,1457,-12.3472,-4.69374
-399,-433,-12.055,2.83594,0,0,0,0,0,0,0,-1,825,1457,-12.055,-2.83594
-392,-433,-12.9772,1.6228,0,0,0,0,0,0,0,-1,832,1457,-12.9772,-1.62282
-385,-433,-13.7999,0.514771,0,0,0,0,0,0,0,-1,839,1457,-13.7999,-0.514788
-378,-433,0,0,0,0,0,0,0,0,0,-1,846,1457,0,0
-371,-433,0,0,0,0,0,0,0,0,0,-1,853,1457,0,0
-364,-433,0,0,0,0,0,0,0,0,0,-1,860,1457,0,0
-357,-433,0,0,0,0,0,0,0,0,0,-1,867,1457,0,0
-350,-433,0,0,0,0,0,0,0,0,0,-1,874,1457,0,0
-343,-433,0,0,0,0,0,0,0,0,0,-1,881,1457,0,0
-336,-433,0,0,0,0,0,0,0,0,0,-1,888,1457,0,0
-329,-433,0,0,0,0,0,0,0,0,0,-1,895,1457,0,0
-322,-433,0,0,0,0,0,0,0,0,0,-1,902,1457,0,0
-315,-433,0,0,0,0,0,0,0,0,0,-1,909,1457,0,0
-308,-433,0,0,0,0,0,0,0,0,0,-1,916,1457,0,0
-301,-433,0,0,0,0,0,0,0,0,0,-1,923,1457,0,0
-294,-433,0,0,0,0,0,0,0,0,0,-1,930,1457,0,0
-287,-433,0,0,0,0,0,0,0,0,0,-1,937,1457,0,0
-280,-433,0,0,0,0,0,0,0,0,0,-1,944,1457,0,0
-273,-433,0,0,0,0,0,0,0,0,0,-1,951,1457,0,0
-266,-433,0,0,0,0,0,0,0,0,0,-1,958,1457,0,0
-259,-433,0,0,0,0,0,0,0,0,0,-1,965,1457,0,0
-252,-433,0,0,0,0,0,0,0,0,0,-1,972,1457,0,0
-245,-433,0,0,0,0,0,0,0,0,0,-1,979,1457,0,0
-238,-433,0,0,0,0,0,0,0,0,0,-1,986,1457,0,0
-231,-433,0,0,0,0,0,0,0,0,0,-1,993,1457,0,0
-224,-433,0,0,0,0,0,0,0,0,0,-1,1000,1457,0,0
-217,-433,0,0,0,0,0,0,0,0,0,-1,1007,1457,0,0
-210,-433,0,0,0,0,0,0,0,0,0,-1,1014,1457,0,0
-203,-433,0,0,0,0,0,0,0,0,0,-1,1021,1457,0,0
-196,-433,0,0,0,0,0,0,0,0,0,-1,1028,1457,0,0
-189,-433,0,0,0,0,0,0,0,0,0,-1,1035,1457,0,0
-182,-433,0,0,0,0,0,0,0,0,0,-1,1042,1457,0,0
-175,-433,0,0,0,0,0,0,0,0,0,-1,1049,1457,0,0
-168,-433,0,0,0,0,0,0,0,0,0,-1,1056,1457,0,0
-161,-433,0,0,0,0,0,0,0,0,0,-1,1063,1457,0,0
-154,-433,0,0,0,0,0,0,0,0,0,-1,1070,1457,0,0
-147,-433,0,0,0,0,0,0,0,0,0,-1,1077,1457,0,0
-140,-433,0,0,0,0,0,0,0,0,0,-1,1084,1457,0,0
-133,-433,0,0,0,0,0,0,0,0,0,-1,1091,1457,0,0
-126,-433,0,0,0,0,0,0,0,0,0,-1,1098,1457,0,0
-119,-433,0,0,0,0,0,0,0,0,0,-1,1105,1457,0,0
-112,-433,0,0,0,0,0,0,0,0,0,-1,1112,1457,0,0
-105,-433,0,0,0,0,0,0,0,0,0,-1,1119,1457,0,0
-98,-433,0,0,0,0,0,0,0,0,0,-1,1126,1457,0,0
-91,-433,0,0,0,0,0,0,0,0,0,-1,1133,1457,0,0
-84,-433,0,0,0,0,0,0,0,0,0,-1,1140,1457,0,0
-77,-433,0,0,0,0,0,0,0,0,0,-1,1147,1457,0,0
-70,-433,0,0,0,0,0,0,0,0,0,-1,1154,1457,0,0
-63,-433,0,0,0,0,0,0,0,0,0,-1,1161,1457,0,0
-56,-433,0,0,0,0,0,0,0,0,0,-1,1168,1457,0,0
-49,-433,0,0,0,0,0,0,0,0,0,-1,1175,1457,0,0
-42,-433,0,0,0,0,0,0,0,0,0,-1,1182,1457,0,0
-35,-433,0,0,0,0,0,0,0,0,0,-1,1189,1457,0,0
-28,-433,0,0,0,0,0,0,0,0,0,-1,1196,1457,0,0
-21,-433,0,0,0,0,0,0,0,0,0,-1,1203,1457,0,0
-14,-433,0,0,0,0,0,0,0,0,0,-1,1210,1457,0,0
-7,-433,0,0,0,0,0,0,0,0,0,-1,1217,1457,0,0
0,-433,0,0,0,0,0,0,0,0,0,-1,1224,1457,0,0
7,-433,0,0,0,0,0,0,0,0,0,-1,1231,1457,0,0
14,-433,0,0,0,0,0,0,0,0,0,-1,1238,1457,0,0
21,-433,0,0,0,0,0,0,0,0,0,-1,1245,1457,0,0
28,-433,0,0,0,0,0,0,0,0,0,-1,1252,1457,0,0
35,-433,0,0,0,0,0,0,0,0,0,-1,1259,1457,0,0
42,-433,0,0,0,0,0,0,0,0,0,-1,1266,1457,0,0
49,-433,0,0,0,0,0,0,0,0,0,-1,1273,1457,0,0
56,-433,0,0,0,0,0,0,0,0,0,-1,1280,1457,0,0
63,-433,0,0,0,0,0,0,0,0,0,-1,1287,1457,0,0
70,-433,0,0,0,0,0,0,0,0,0,-1,1294,1457,0,0
77,-433,0,0,0,0,0,0,0,0,0,-1,1301,1457,0,0
84,-433,0,0,0,0,0,0,0,0,0,-1,1308,1457,0,0
91,-433,0,0,0,0,0,0,0,0,0,-1,1315,1457,0,0
98,-433,0,0,0,0,0,0,0,0,0,-1,1322,1457,0,0
105,-433,0,0,0,0,0,0,0,0,0,-1,1329,1457,0,0
112,-433,0,0,0,0,0,0,0,0,0,-1,1336,1457,0,0
119,-433,0,0,0,0,0,0,0,0,0,-1,1343,1457,0,0
126,-433,0,0,0,0,0,0,0,0,0,-1,1350,1457,0,0
133,-433,0,0,0,0,0,0,0,0,0,-1,1357,1457,0,0
140,-433,0,0,0,0,0,0,0,0,0,-1,1364,1457,0,0
147,-433,0,0,0,0,0,0,0,0,0,-1,1371,1457,0,0
154,-433,0,0,0,0,0,0,0,0,0,-1,1378,1457,0,0
161,-433,0,0,0,0,0,0,0,0,0,-1,1385,1457,0,0
168,-433,0,0,0,0,0,0,0,0,0,-1,1392,1457,0,0
175,-433,0,0,0,0,0,0,0,0,0,-1,1399,1457,0,0
182,-433,0,0,0,0,0,0,0,0,0,-1,1406,1457,0,0
189,-433,0,0,0,0,0,0,0,0,0,-1,1413,1457,0,0
196,-433,0,0,0,0,0,0,0,0,0,-1,1420,1457,0,0
203,-433,0,0,0,0,0,0,0,0,0,-1,1427,1457,0,0
210,-433,0,0,0,0,0,0,0,0,0,-1,1434,1457,0,0
217,-433,0,0,0,0,0,0,0,0,0,-1,1441,1457,0,0
224,-433,0,0,0,0,0,0,0,0,0,-1,1448,1457,0,0
231,-433,0,0,0,0,0,0,0,0,0,-1,1455,1457,0,0
238,-433,0,0,0,0,0,0,0,0,0,-1,1462,1457,0,0
245,-433,0,0,0,0,0,0,0,0,0,-1,1469,1457,0,0
252,-433,0,0,0,0,0,0,0,0,0,-1,1476,1457,0,0
259,-433,0,0,0,0,0,0,0,0,0,-1,1483,1457,0,0
266,-433,0,0,0,0,0,0,0,0,0,-1,1490,1457,0,0
273,-433,0,0,0,0,0,0,0,0,0,-1,1497,1457,0,0
280,-433,0,0,0,0,0,0,0,0,0,-1,1504,1457,0,0
287,-433,0,0,0,0,0,0,0,0,0,-1,1511,1457,0,0
294,-433,0,0,0,0,0,0,0,0,0,-1,1518,1457,0,0
301,-433,0,0,0,0,0,0,0,0,0,-1,1525,1457,0,0
308,-433,0,0,0,0,0,0,0,0,0,-1,1532,1457,0,0
315,-433,0,0,0,0,0,0,0,0,0,-1,1539,1457,0,0
322,-433,0,0,0,0,0,0,0,0,0,-1,1546,1457,0,0
329,-433,0,0,0,0,0,0,0,0,0,-1,1553,1457,0,0
336,-433,0,0,0,0,0,0,0,0,0,-1,1560,1457,0,0
343,-433,0,0,0,0,0,0,0,0,0,-1,1567,1457,0,0
350,-433,0,0,0,0,0,0,0,0,0,-1,1574,1457,0,0
357,-433,0,0,0,0,0,0,0,0,0,-1,1581,1457,0,0
364,-433,0,0,0,0,0,0,0,0,0,-1,1588,1457,0,0
371,-433,0,0,0,0,0,0,0,0,0,-1,1595,1457,0,0
378,-433,0,0,0,0,0,0,0,0,0,-1,1602,1457,0,0
385,-433,0,0,0,0,0,0,0,0,0,-1,1609,1457,0,0
392,-433,0,0,0,0,0,0,0,0,0,-1,1616,1457,0,0
399,-433,0,0,0,0,0,0,0,0,0,-1,1623,1457,0,0
406,-433,0,0,0,0,0,0,0,0,0,-1,1630,1457,0,0
413,-433,0,0,0,0,0,0,0,0,0,-1,1637,1457,0,0
420,-433,0,0,0,0,0,0,0,0,0,-1,1644,1457,0,0
427,-433,0,0,0,0,0,0,0,0,0,-1,1651,1457,0,0
434,-433,0,0,0,0,0,0,0,0,0,-1,1658,1457,0,0
441,-433,0,0,0,0,0,0,0,0,0,-1,1665,1457,0,0
448,-433,0,0,0,0,0,0,0,0,0,-1,1672,1457,0,0
455,-433,0,0,0,0,0,0,0,0,0,-1,1679,1457,0,0
462,-433,0,0,0,0,0,0,0,0,0,-1,1686,1457,0,0
469,-433,0,0,0,0,0,0,0,0,0,-1,1693,1457,0,0
476,-433,0,0,0,0,0,0,0,0,0,-1,1700,1457,0,0
483,-433,0,0,0,0,0,0,0,0,0,-1,1707,1457,0,0
490,-433,0,0,0,0,0,0,0,0,0,-1,1714,1457,0,0
497,-433,0,0,0,0,0,0,0,0,0,-1,1721,1457,0,0
504,-433,19.9058,3.03662,0,0,0,0,0,0,0,-1,1728,1457,19.9058,-3.03656
511,-433,19.0145,3.07837,0,0,0,0,0,0,0,-1,1735,1457,19.0146,-3.07834
518,-433,18.071,3.06433,0,0,0,0,0,0,0,-1,1742,1457,18.071,-3.06432
525,-433,17.2048,3.37085,0,0,0,0,0,0,0,-1,1749,1457,17.2049,-3.37083
532,-433,16.5637,3.36646,0,0,0,0,0,0,0,-1,1756,1457,16.5637,-3.36643
539,-433,15.9193,3.30396,0,0,0,0,0,0,0,-1,1763,1457,15.9193,-3.30394
546,-433,23.1903,4.81775,0,0,0,0,0,0,0,-1,1770,1457,23.1903,-4.81775
553,-433,13.9674,11.5781,0,0,0,0,0,0,0,-1,1777,1457,13.9674,-11.5781
560,-433,13.9855,11.7341,0,0,0,0,0,0,0,-1,1784,1457,13.9855,-11.7341
567,-433,13.9264,11.3364,0,0,0,0,0,0,0,-1,1791,1457,13.9263,-11.3364
574,-433,15.5305,12.3673,0,0,0,0,0,0,0,-1,1798,1457,15.5305,-12.3673
581,-433,16.6405,12.1898,0,0,0,0,0,0,0,-1,1805,1457,16.6405,-12.1898
588,-433,26.4386,19.7478,0,0,0,0,0,0,0,-1,1812,1457,26.4386,-19.7478
595,-433,33.2825,24.3407,0,0,0,0,0,0,0,-1,1819,1457,33.2825,-24.3407
602,-433,33.202,23.5376,0.00363508,0.00157418,-0.00204649,0.00489591,0.000313354,-0.552168,0.00316466,0.0289602,1826,1457,33.202,-23.5376
609,-433,33.2021,22.7588,0.00279498,0.0010645,-0.00149137,0.00365393,0.000205555,-0.522545,0.0023704,0.0167716,1833,1457,33.2021,-22.7588
616,-433,33.1793,22.0543,0.00213409,0.00064225,-0.00102713,0.00265757,0.000118767,-0.471344,0.00173348,0.0141693,1840,1457,33.1794,-22.0543
623,-433,33.1256,21.3284,0.0018982,0.000345058,-0.000694052,0.00216315,8.01056e-05,-0.364673,0.00141615,0.0111127,1847,1457,33.1256,-21.3284
630,-433,33.1088,20.5927,0.00200098,8.96833e-05,-0.000494302,0.00212125,-3.05857e-05,-0.238673,0.00142447,0.0143407,1854,1457,33.1087,-20.5927
637,-433,33.0687,19.8702,0.00242368,1.30914e-05,-0.000341572,0.00247114,-3.43736e-05,-0.138076,0.00165901,0.0153368,1861,1457,33.0687,-19.8703
644,-433,33.0002,19.1616,0.00333599,-0.000222583,-0.00021287,0.00334868,-0.000235272,-0.0595359,0.00231487,0.0166901,1868,1457,33.0003,-19.1616
651,-433,32.946,18.4255,0.00463943,-0.000178369,-0.000290496,0.00465688,-0.000195821,-0.0600067,0.00317188,0.0137253,1875,1457,32.9461,-18.4256
658,-433,32.8595,17.6554,0.00649437,-0.000131635,-0.000375129,0.00651554,-0.000152805,-0.0563745,0.00439551,0.042163,1882,1457,32.8595,-17.6554
665,-433,33.2222,16.6383,0,0,0,0,0,0,0,-1,1889,1457,33.2222,-16.6383
672,-433,18.115,8.7207,0,0,0,0,0,0,0,-1,1896,1457,18.115,-8.72074
679,-433,17.2969,9.6355,0,0,0,0,0,0,0,-1,1903,1457,17.2968,-9.63548
686,-433,13.6356,8.61694,0,0,0,0,0,0,0,-1,1910,1457,13.6356,-8.61694
693,-433,13.4081,8.39624,0,0,0,0,0,0,0,-1,1917,1457,13.4081,-8.39624
700,-433,7.16809,-1.5166,0,0,0,0,0,0,0,-1,1924,1457,7.16806,1.51656
707,-433,8.68359,-2.82202,0,0,0,0,0,0,0,-1,1931,1457,8.68359,2.82197
714,-433,0,0,0,0,0,0,0,0,0,-1,1938,1457,0,0
721,-433,0,0,0,0,0,0,0,0,0,-1,1945,1457,0,0
728,-433,0,0,0,0,0,0,0,0,0,-1,1952,1457,0,0
735,-433,0,0,0,0,0,0,0,0,0,-1,1959,1457,0,0
742,-433,0,0,0,0,0,0,0,0,0,-1,1966,1457,0,0
749,-433,0,0,0,0,0,0,0,0,0,-1,1973,1457,0,0
756,-433,0,0,0,0,0,0,0,0,0,-1,1980,1457,0,0
763,-433,0,0,0,0,0,0,0,0,0,-1,1987,1457,0,0
770,-433,0,0,0,0,0,0,0,0,0,-1,1994,1457,0,0
777,-433,0,0,0,0,0,0,0,0,0,-1,2001,1457,0,0
784,-433,0,0,0,0,0,0,0,0,0,-1,2008,1457,0,0
791,-433,0,0,0,0,0,0,0,0,0,-1,2015,1457,0,0
798,-433,0,0,0,0,0,0,0,0,0,-1,2022,1457,0,0
805,-433,0,0,0,0,0,0,0,0,0,-1,2029,1457,0,0
812,-433,0,0,0,0,0,0,0,0,0,-1,2036,1457,0,0
-700,-440,0,0,0,0,0,0,0,0,0,-1,524,1464,0,0
-693,-440,0,0,0,0,0,0,0,0,0,-1,531,1464,0,0
-686,-440,0,0,0,0,0,0,0,0,0,-1,538,1464,0,0
-679,-440,0,0,0,0,0,0,0,0,0,-1,545,1464,0,0
-672,-440,0,0,0,0,0,0,0,0,0,-1,552,1464,0,0
-665,-440,0,0,0,0,0,0,0,0,0,-1,559,1464,0,0
-658,-440,0,0,0,0,0,0,0,0,0,-1,566,1464,0,0
-651,-440,0,0,0,0,0,0,0,0,0,-1,573,1464,0,0
-644,-440,0,0,0,0,0,0,0,0,0,-1,580,1464,0,0
-637,-440,0,0,0,0,0,0,0,0,0,-1,587,1464,0,0
-630,-440,0,0,0,0,0,0,0,0,0,-1,594,1464,0,0
-623,-440,0,0,0,0,0,0,0,0,0,-1,601,1464,0,0
-616,-440,0,0,0,0,0,0,0,0,0,-1,608,1464,0,0
-609,-440,0,0,0,0,0,0,0,0,0,-1,615,1464,0,0
-602,-440,0,0,0,0,0,0,0,0,0,-1,622,1464,0,0
-595,-440,0,0,0,0,0,0,0,0,0,-1,629,1464,0,0
-588,-440,0,0,0,0,0,0,0,0,0,-1,636,1464,0,0
-581,-440,-8.97278,0.254517,0,0,0,0,0,0,0,-1,643,1464,-8.97276,-0.254526
-574,-440,-7.00818,-0.918579,0,0,0,0,0,0,0,-1,650,1464,-7.00817,0.918538
-567,-440,-6.12152,-0.0766602,0,0,0,0,0,0,0,-1,657,1464,-6.12151,0.0767097
-560,-440,-5.46747,0.82251,0,0,0,0,0,0,0,-1,664,1464,-5.46748,-0.822551
-553,-440,-6.84729,0.0831299,0,0,0,0,0,0,0,-1,671,1464,-6.84732,-0.083136
-546,-440,-5.63446,-0.153198,0,0,0,0,0,0,0,-1,678,1464,-5.63447,0.153147
-539,-440,-6.80017,8.58252,0,0,0,0,0,0,0,-1,685,1464,-6.80015,-8.58257
-532,-440,-9.69647,11.3262,0,0,0,0,0,0,0,-1,692,1464,-9.69649,-11.3262
-525,-440,-14.9562,16.5974,0,0,0,0,0,0,0,-1,699,1464,-14.9562,-16.5974
-518,-440,-14.8988,17.4602,0.00366952,0.00511629,0.00516241,0.00960576,-0.000819942,0.855008,0.00669391,0.0297419,706,1464,-14.8988,-17.4602
-511,-440,-14.8856,18.3093,0.00304884,0.00401277,0.00412656,0.00768542,-0.000623806,0.843533,0.0053437,0.0153933,713,1464,-14.8856,-18.3093
-504,-440,-14.949,19.0918,0.00250017,0.00305224,0.00319043,0.00597855,-0.000426143,0.828551,0.00413507,0.0190212,720,1464,-14.949,-19.0918
-497,-440,-14.9959,19.8306,0.00206207,0.00228145,0.00239106,0.00456533,-0.000221809,0.80832,0.00312012,0.0224607,727,1464,-14.9959,-19.8305
-490,-440,-15.0208,20.5298,0.00171906,0.00166969,0.0017173,0.00341185,-2.3097e-05,0.778212,0.0022823,0.0238533,734,1464,-15.0208,-20.5298
-483,-440,-15.0448,21.326,0.00156561,0.00130106,0.00126739,0.00270761,0.000159066,0.733402,0.00175445,0.0209472,741,1464,-15.0448,-21.326
-476,-440,-15.0886,22.0834,0.00155953,0.00116906,0.0010507,0.00243298,0.000295616,0.693539,0.00153298,0.014035,748,1464,-15.0887,-22.0834
-469,-440,-15.1206,22.8486,0.00169316,0.00127787,0.00102103,0.00252745,0.000443582,0.685083,0.00155829,0.0132399,755,1464,-15.1206,-22.8487
-462,-440,-15.1855,23.5898,0.002027,0.00167735,0.0012903,0.00315426,0.000550088,0.718063,0.00194557,0.0183217,762,1464,-15.1855,-23.5899
-455,-440,-15.1902,24.4021,0,0,0,0,0,0,0,-1,769,1464,-15.1902,-24.4021
-448,-440,-12.8837,23.5623,0,0,0,0,0,0,0,-1,776,1464,-12.8837,-23.5623
-441,-440,-7.28583,14.7465,0,0,0,0,0,0,0,-1,783,1464,-7.28584,-14.7464
-434,-440,-8.33636,14.5024,0,0,0,0,0,0,0,-1,790,1464,-8.33638,-14.5025
-427,-440,-8.28094,14.2512,0,0,0,0,0,0,0,-1,797,1464,-8.28094,-14.2512
-420,-440,-6.86603,8.09216,0,0,0,0,0,0,0,-1,804,1464,-6.86602,-8.09222
-413,-440,-3.46796,5.72278,0,0,0,0,0,0,0,-1,811,1464,-3.46797,-5.72276
-406,-440,-5.2887,5.20264,0,0,0,0,0,0,0,-1,818,1464,-5.2887,-5.20261
-399,-440,-12.7318,3.94421,0,0,0,0,0,0,0,-1,825,1464,-12.7318,-3.94419
-392,-440,-13.5565,2.51855,0,0,0,0,0,0,0,-1,832,1464,-13.5565,-2.51861
-385,-440,-14.6741,1.39795,0,0,0,0,0,0,0,-1,839,1464,-14.6741,-1.39801
-378,-440,-15.8063,0.293457,0,0,0,0,0,0,0,-1,846,1464,-15.8063,-0.293412
-371,-440,0,0,0,0,0,0,0,0,0,-1,853,1464,0,0
-364,-440,0,0,0,0,0,0,0,0,0,-1,860,1464,0,0
-357,-440,0,0,0,0,0,0,0,0,0,-1,867,1464,0,0
-350,-440,0,0,0,0,0,0,0,0,0,-1,874,1464,0,0
-343,-440,0,0,0,0,0,0,0,0,0,-1,881,1464,0,0
-336,-440,0,0,0,0,0,0,0,0,0,-1,888,1464,0,0
-329,-440,0,0,0,0,0,0,0,0,0,-1,895,1464,0,0
-322,-440,0,0,0,0,0,0,0,0,0,-1,902,1464,0,0
-315,-440,0,0,0,0,0,0,0,0,0,-1,909,1464,0,0
-308,-440,0,0,0,0,0,0,0,0,0,-1,916,1464,0,0
-301,-440,0,0,0,0,0,0,0,0,0,-1,923,1464,0,0
-294,-440,0,0,0,0,0,0,0,0,0,-1,930,1464,0,0
-287,-440,0,0,0,0,0,0,0,0,0,-1,937,1464,0,0
-280,-440,0,0,0,0,0,0,0,0,0,-1,944,1464,0,0
-273,-440,0,0,0,0,0,0,0,0,0,-1,951,1464,0,0
-266,-440,0,0,0,0,0,0,0,0,0,-1,958,1464,0,0
-259,-440,0,0,0,0,0,0,0,0,0,-1,965,1464,0,0
-252,-440,0,0,0,0,0,0,0,0,0,-1,972,1464,0,0
-245,-440,0,0,0,0,0,0,0,0,0,-1,979,1464,0,0
-238,-440,0,0,0,0,0,0,0,0,0,-1,986,1464,0,0
-231,-440,0,0,0,0,0,0,0,0,0,-1,993,1464,0,0
-224,-440,0,0,0,0,0,0,0,0,0,-1,1000,1464,0,0
-217,-440,0,0,0,0,0,0,0,0,0,-1,1007,1464,0,0
-210,-440,0,0,0,0,0,0,0,0,0,-1,1014,1464,0,0
-203,-440,0,0,0,0,0,0,0,0,0,-1,1021,1464,0,0
-196,-440,0,0,0,0,0,0,0,0,0,-1,1028,1464,0,0
-189,-440,0,0,0,0,0,0,0,0,0,-1,1035,1464,0,0
-182,-440,0,0,0,0,0,0,0,0,0,-1,1042,1464,0,0
-175,-440,0,0,0,0,0,0,0,0,0,-1,1049,1464,0,0
-168,-440,0,0,0,0,0,0,0,0,0,-1,1056,1464,0,0
-161,-440,0,0,0,0,0,0,0,0,0,-1,1063,1464,0,0
-154,-440,0,0,0,0,0,0,0,0,0,-1,1070,1464,0,0
-147,-440,0,0,0,0,0,0,0,0,0,-1,1077,1464,0,0
-140,-440,0,0,0,0,0,0,0,0,0,-1,1084,1464,0,0
-133,-440,0,0,0,0,0,0,0,0,0,-1,1091,1464,0,0
-126,-440,0,0,0,0,0,0,0,0,0,-1,1098,1464,0,0
-119,-440,0,0,0,0,0,0,0,0,0,-1,1105,1464,0,0
-112,-440,0,0,0,0,0,0,0,0,0,-1,1112,1464,0,0
-105,-440,0,0,0,0,0,0,0,0,0,-1,1119,1464,0,0
-98,-440,0,0,0,0,0,0,0,0,0,-1,1126,1464,0,0
-91,-440,0,0,0,0,0,0,0,0,0,-1,1133,1464,0,0
-84,-440,0,0,0,0,0,0,0,0,0,-1,1140,1464,0,0
-77,-440,0,0,0,0,0,0,0,0,0,-1,1147,1464,0,0
-70,-440,0,0,0,0,0,0,0,0,0,-1,1154,1464,0,0
-63,-440,0,0,0,0,0,0,0,0,0,-1,1161,1464,0,0
-56,-440,0,0,0,0,0,0,0,0,0,-1,1168,1464,0,0
-49,-440,0,0,0,0,0,0,0,0,0,-1,1175,1464,0,0
-42,-440,0,0,0,0,0,0,0,0,0,-1,1182,1464,0,0
-35,-440,0,0,0,0,0,0,0,0,0,-1,1189,1464,0,0
-28,-440,0,0,0,0,0,0,0,0,0,-1,1196,1464,0,0
-21,-440,0,0,0,0,0,0,0,0,0,-1,1203,1464,0,0
-14,-440,0,0,0,0,0,0,0,0,0,-1,1210,1464,0,0
-7,-440,0,0,0,0,0,0,0,0,0,-1,1217,1464,0,0
0,-440,0,0,0,0,0,0,0,0,0,-1,1224,1464,0,0
7,-440,0,0,0,0,0,0,0,0,0,-1,1231,1464,0,0
14,-440,0,0,0,0,0,0,0,0,0,-1,1238,1464,0,0
21,-440,0,0,0,0,0,0,0,0,0,-1,1245,1464,0,0
28,-440,0,0,0,0,0,0,0,0,0,-1,1252,1464,0,0
35,-440,0,0,0,0,0,0,0,0,0,-1,1259,1464,0,0
42,-440,0,0,0,0,0,0,0,0,0,-1,1266,1464,0,0
49,-440,0,0,0,0,0,0,0,0,0,-1,1273,1464,0,0
56,-440,0,0,0,0,0,0,0,0,0,-1,1280,1464,0,0
63,-440,0,0,0,0,0,0,0,0,0,-1,1287,1464,0,0
70,-440,0,0,0,0,0,0,0,0,0,-1,1294,1464,0,0
77,-440,0,0,0,0,0,0,0,0,0,-1,1301,1464,0,0
84,-440,0,0,0,0,0,0,0,0,0,-1,1308,1464,0,0
91,-440,0,0,0,0,0,0,0,0,0,-1,1315,1464,0,0
98,-440,0,0,0,0,0,0,0,0,0,-1,1322,1464,0,0
105,-440,0,0,0,0,0,0,0,0,0,-1,1329,1464,0,0
112,-440,0,0,0,0,0,0,0,0,0,-1,1336,1464,0,0
119,-440,0,0,0,0,0,0,0,0,0,-1,1343,1464,0,0
126,-440,0,0,0,0,0,0,0,0,0,-1,1350,1464,0,0
133,-440,0,0,0,0,0,0,0,0,0,-1,1357,1464,0,0
140,-440,0,0,0,0,0,0,0,0,0,-1,1364,1464,0,0
147,-440,0,0,0,0,0,0,0,0,0,-1,1371,1464,0,0
154,-440,0,0,0,0,0,0,0,0,0,-1,1378,1464,0,0
161,-440,0,0,0,0,0,0,0,0,0,-1,1385,1464,0,0
168,-440,0,0,0,0,0,0,0,0,0,-1,1392,1464,0,0
175,-440,0,0,0,0,0,0,0,0,0,-1,1399,1464,0,0
182,-440,0,0,0,0,0,0,0,0,0,-1,1406,1464,0,0
189,-440,0,0,0,0,0,0,0,0,0,-1,1413,1464,0,0
196,-440,0,0,0,0,0,0,0,0,0,-1,1420,1464,0,0
203,-440,0,0,0,0,0,0,0,0,0,-1,1427,1464,0,0
210,-440,0,0,0,0,0,0,0,0,0,-1,1434,1464,0,0
217,-440,0,0,0,0,0,0,0,0,0,-1,1441,1464,0,0
224,-440,0,0,0,0,0,0,0,0,0,-1,1448,1464,0,0
231,-440,0,0,0,0,0,0,0,0,0,-1,1455,1464,0,0
238,-440,0,0,0,0,0,0,0,0,0,-1,1462,1464,0,0
245,-440,0,0,0,0,0,0,0,0,0,-1,1469,1464,0,0
252,-440,0,0,0,0,0,0,0,0,0,-1,1476,1464,0,0
259,-440,0,0,0,0,0,0,0,0,0,-1,1483,1464,0,0
266,-440,0,0,0,0,0,0,0,0,0,-1,1490,1464,0,0
273,-440,0,0,0,0,0,0,0,0,0,-1,1497,1464,0,0
280,-440,0,0,0,0,0,0,0,0,0,-1,1504,1464,0,0
287,-440,0,0,0,0,0,0,0,0,0,-1,1511,1464,0,0
294,-440,0,0,0,0,0,0,0,0,0,-1,1518,1464,0,0
301,-440,0,0,0,0,0,0,0,0,0,-1,1525,1464,0,0
308,-440,0,0,0,0,0,0,0,0,0,-1,1532,1464,0,0
315,-440,0,0,0,0,0,0,0,0,0,-1,1539,1464,0,0
322,-440,0,0,0,0,0,0,0,0,0,-1,1546,1464,0,0
329,-440,0,0,0,0,0,0,0,0,0,-1,1553,1464,0,0
336,-440,0,0,0,0,0,0,0,0,0,-1,1560,1464,0,0
343,-440,0,0,0,0,0,0,0,0,0,-1,1567,1464,0,0
350,-440,0,0,0,0,0,0,0,0,0,-1,1574,1464,0,0
357,-440,0,0,0,0,0,0,0,0,0,-1,1581,1464,0,0
364,-440,0,0,0,0,0,0,0,0,0,-1,1588,1464,0,0
371,-440,0,0,0,0,0,0,0,0,0,-1,1595,1464,0,0
378,-440,0,0,0,0,0,0,0,0,0,-1,1602,1464,0,0
385,-440,0,0,0,0,0,0,0,0,0,-1,1609,1464,0,0
392,-440,0,0,0,0,0,0,0,0,0,-1,1616,1464,0,0
399,-440,0,0,0,0,0,0,0,0,0,-1,1623,1464,0,0
406,-440,0,0,0,0,0,0,0,0,0,-1,1630,1464,0,0
413,-440,0,0,0,0,0,0,0,0,0,-1,1637,1464,0,0
420,-440,0,0,0,0,0,0,0,0,0,-1,1644,1464,0,0
427,-440,0,0,0,0,0,0,0,0,0,-1,1651,1464,0,0
434,-440,0,0,0,0,0,0,0,0,0,-1,1658,1464,0,0
441,-440,0,0,0,0,0,0,0,0,0,-1,1665,1464,0,0
448,-440,0,0,0,0,0,0,0,0,0,-1,1672,1464,0,0
455,-440,0,0,0,0,0,0,0,0,0,-1,1679,1464,0,0
462,-440,0,0,0,0,0,0,0,0,0,-1,1686,1464,0,0
469,-440,0,0,0,0,0,0,0,0,0,-1,1693,1464,0,0
476,-440,0,0,0,0,0,0,0,0,0,-1,1700,1464,0,0
483,-440,0,0,0,0,0,0,0,0,0,-1,1707,1464,0,0
490,-440,0,0,0,0,0,0,0,0,0,-1,1714,1464,0,0
497,-440,16.965,-0.528442,0,0,0,0,0,0,0,-1,1721,1464,16.965,0.528492
504,-440,15.8052,0.670166,0,0,0,0,0,0,0,-1,1728,1464,15.8052,-0.670145
511,-440,17.5754,2.77832,0,0,0,0,0,0,0,-1,1735,1464,17.5754,-2.77826
518,-440,16.9017,3.07861,0,0,0,0,0,0,0,-1,1742,1464,16.9018,-3.07859
525,-440,18.4495,12.0867,0,0,0,0,0,0,0,-1,1749,1464,18.4495,-12.0867
532,-440,15.4319,3.64392,0,0,0,0,0,0,0,-1,1756,1464,15.4318,-3.64391
539,-440,14.8214,3.41321,0,0,0,0,0,0,0,-1,1763,1464,14.8214,-3.4132
546,-440,14.8651,10.7683,0,0,0,0,0,0,0,-1,1770,1464,14.8651,-10.7683
553,-440,15.1213,11.4121,0,0,0,0,0,0,0,-1,1777,1464,15.1213,-11.4121
560,-440,17.4325,12.5394,0,0,0,0,0,0,0,-1,1784,1464,17.4325,-12.5394
567,-440,16.9025,12.4249,0,0,0,0,0,0,0,-1,1791,1464,16.9025,-12.425
574,-440,19.2841,14.8679,0,0,0,0,0,0,0,-1,1798,1464,19.2841,-14.868
581,-440,26.4432,21.3477,0,0,0,0,0,0,0,-1,1805,1464,26.4432,-21.3476
588,-440,32.3342,25.1936,0,0,0,0,0,0,0,-1,1812,1464,32.3342,-25.1936
595,-440,32.3915,24.3147,0.0044614,0.00171665,-0.0023601,0.00581913,0.000358911,-0.522049,0.00376549,0.0351703,1819,1464,32.3914,-24.3147
602,-440,32.5092,23.5039,0.00347261,0.00124711,-0.00179017,0.00446768,0.000252039,-0.507326,0.0028981,0.0198719,1826,1464,32.5091,-23.5039
609,-440,32.4766,22.814,0.00271397,0.000784561,-0.00126599,0.00334093,0.000157602,-0.459825,0.00217665,0.0164355,1833,1464,32.4766,-22.8139
616,-440,32.4333,22.1085,0.00214887,0.000450648,-0.000846919,0.00249903,0.000100483,-0.392053,0.00163356,0.0174302,1840,1464,32.4333,-22.1085
623,-440,32.4023,21.3599,0.00200195,0.000189672,-0.000518631,0.00213987,5.17487e-05,-0.259921,0.00140965,0.0140703,1847,1464,32.4023,-21.3599
630,-440,32.3579,20.6086,0.00216535,-5.70508e-05,-0.000284846,0.00220128,-9.29787e-05,-0.125469,0.00149947,0.0119887,1854,1464,32.3579,-20.6086
637,-440,32.3389,19.9332,0.00262688,-0.000123973,-0.000100426,0.00263054,-0.000127635,-0.0364428,0.00179775,0.0163772,1861,1464,32.3389,-19.9333
644,-440,32.3141,19.2325,0.00353784,-0.000252895,3.00336e-05,0.00353807,-0.000253133,0.00792223,0.00244746,0.0166098,1868,1464,32.314,-19.2325
651,-440,32.3114,18.4452,0.00489614,-7.48499e-05,-7.99752e-05,0.00489742,-7.61363e-05,-0.0160828,0.00329062,0.0226588,1875,1464,32.3115,-18.4452
658,-440,32.426,17.5493,0,0,0,0,0,0,0,-1,1882,1464,32.426,-17.5493
665,-440,24.2067,12.5813,0,0,0,0,0,0,0,-1,1889,1464,24.2067,-12.5813
672,-440,18.9385,9.6394,0,0,0,0,0,0,0,-1,1896,1464,18.9384,-9.63939
679,-440,16.9508,10.2336,0,0,0,0,0,0,0,-1,1903,1464,16.9508,-10.2337
686,-440,15.2556,8.44177,0,0,0,0,0,0,0,-1,1910,1464,15.2556,-8.44177
693,-440,9.88635,2.89795,0,0,0,0,0,0,0,-1,1917,1464,9.88638,-2.89798
700,-440,7.07825,-2.62061,0,0,0,0,0,0,0,-1,1924,1464,7.07829,2.62057
707,-440,0,0,0,0,0,0,0,0,0,-1,1931,1464,0,0
714,-440,0,0,0,0,0,0,0,0,0,-1,1938,1464,0,0
721,-440,0,0,0,0,0,0,0,0,0,-1,1945,1464,0,0
728,-440,0,0,0,0,0,0,0,0,0,-1,1952,1464,0,0
735,-440,0,0,0,0,0,0,0,0,0,-1,1959,1464,0,0
742,-440,0,0,0,0,0,0,0,0,0,-1,1966,1464,0,0
749,-440,0,0,0,0,0,0,0,0,0,-1,1973,1464,0,0
756,-440,0,0,0,0,0,0,0,0,0,-1,1980,1464,0,0
763,-440,0,0,0,0,0,0,0,0,0,-1,1987,1464,0,0
770,-440,0,0,0,0,0,0,0,0,0,-1,1994,1464,0,0
777,-440,0,0,0,0,0,0,0,0,0,-1,2001,1464,0,0
784,-440,0,0,0,0,0,0,0,0,0,-1,2008,1464,0,0
791,-440,0,0,0,0,0,0,0,0,0,-1,2015,1464,0,0
798,-440,0,0,0,0,0,0,0,0,0,-1,2022,1464,0,0
805,-440,0,0,0,0,0,0,0,0,0,-1,2029,1464,0,0
812,-440,0,0,0,0,0,0,0,0,0,-1,2036,1464,0,0
-700,-447,0,0,0,0,0,0,0,0,0,-1,524,1471,0,0
-693,-447,0,0,0,0,0,0,0,0,0,-1,531,1471,0,0
-686,-447,0,0,0,0,0,0,0,0,0,-1,538,1471,0,0
-679,-447,0,0,0,0,0,0,0,0,0,-1,545,1471,0,0
-672,-447,0,0,0,0,0,0,0,0,0,-1,552,1471,0,0
-665,-447,0,0,0,0,0,0,0,0,0,-1,559,1471,0,0
-658,-447,0,0,0,0,0,0,0,0,0,-1,566,1471,0,0
-651,-447,0,0,0,0,0,0,0,0,0,-1,573,1471,0,0
-644,-447,0,0,0,0,0,0,0,0,0,-1,580,1471,0,0
-637,-447,0,0,0,0,0,0,0,0,0,-1,587,1471,0,0
-630,-447,0,0,0,0,0,0,0,0,0,-1,594,1471,0,0
-623,-447,0,0,0,0,0,0,0,0,0,-1,601,1471,0,0
-616,-447,0,0,0,0,0,0,0,0,0,-1,608,1471,0,0
-609,-447,0,0,0,0,0,0,0,0,0,-1,615,1471,0,0
-602,-447,0,0,0,0,0,0,0,0,0,-1,622,1471,0,0
-595,-447,0,0,0,0,0,0,0,0,0,-1,629,1471,0,0
-588,-447,0,0,0,0,0,0,0,0,0,-1,636,1471,0,0
-581,-447,-7.06482,-1.50476,0,0,0,0,0,0,0,-1,643,1471,-7.0648,1.50474
-574,-447,-6.88092,-0.00585938,0,0,0,0,0,0,0,-1,650,1471,-6.88095,0.00589852
-567,-447,-6.8205,-1.32178,0,0,0,0,0,0,0,-1,657,1471,-6.82047,1.32172
-560,-447,-8.85748,2.80774,0,0,0,0,0,0,0,-1,664,1471,-8.85748,-2.80775
-553,-447,-7.60486,3.26794,0,0,0,0,0,0,0,-1,671,1471,-7.60487,-3.26799
-546,-447,-3.94501,1.8656,0,0,0,0,0,0,0,-1,678,1471,-3.945,-1.86554
-539,-447,-5.35492,4.50024,0,0,0,0,0,0,0,-1,685,1471,-5.35492,-4.50018
-532,-447,-6.12781,8.81091,0,0,0,0,0,0,0,-1,692,1471,-6.12781,-8.81094
-525,-447,-9.44501,12.098,0,0,0,0,0,0,0,-1,699,1471,-9.44502,-12.098
-518,-447,-14.1839,17.427,0,0,0,0,0,0,0,-1,706,1471,-14.1839,-17.427
-511,-447,-14.149,18.2537,0.00363205,0.00502707,0.00515435,0.0095309,-0.000871776,0.852652,0.00666356,0.0270702,713,1471,-14.149,-18.2536
-504,-447,-14.1754,19.1388,0.00296664,0.00379191,0.00400956,0.00741002,-0.00065146,0.836674,0.00517086,0.0201222,720,1471,-14.1754,-19.1388
-497,-447,-14.2693,19.9318,0.00240119,0.0027815,0.00301774,0.00561508,-0.000432383,0.816862,0.00389552,0.0246457,727,1471,-14.2694,-19.9317
-490,-447,-14.2748,20.6023,0.00194826,0.00199131,0.00218214,0.00415204,-0.000212462,0.79033,0.00284149,0.02474,734,1471,-14.2748,-20.6023
-483,-447,-14.3055,21.3452,0.00167565,0.00145568,0.00157902,0.00314851,-1.71759e-05,0.750627,0.00210476,0.0219908,741,1471,-14.3056,-21.3452
-476,-447,-14.3268,22.1191,0.00156615,0.00121204,0.00124066,0.00264233,0.000135868,0.714521,0.00171806,0.0145202,748,1471,-14.3268,-22.1191
-469,-447,-14.3523,22.8868,0.00161175,0.00126118,0.00110729,0.00255754,0.00031539,0.7069,0.00161023,0.0137036,755,1471,-14.3523,-22.8868
-462,-447,-14.3946,23.6492,0.00189449,0.00162253,0.00127057,0.00303634,0.00048068,0.732088,0.00188455,0.0139312,762,1471,-14.3946,-23.6492
-455,-447,-14.4374,24.4093,0.00241456,0.00238365,0.00177164,0.00417081,0.000627399,0.781037,0.00259679,0.0259578,769,1471,-14.4374,-24.4093
-448,-447,-14.4536,25.2411,0,0,0,0,0,0,0,-1,776,1471,-14.4536,-25.2411
-441,-447,-8.68506,19.0931,0,0,0,0,0,0,0,-1,783,1471,-8.68504,-19.0932
-434,-447,-7.43402,15.6273,0,0,0,0,0,0,0,-1,790,1471,-7.43404,-15.6274
-427,-447,-7.21832,14.691,0,0,0,0,0,0,0,-1,797,1471,-7.21834,-14.6911
-420,-447,-8.0545,12.8055,0,0,0,0,0,0,0,-1,804,1471,-8.05452,-12.8055
-413,-447,-4.27393,6.59705,0,0,0,0,0,0,0,-1,811,1471,-4.27392,-6.59707
-406,-447,-1.04279,6.18591,0,0,0,0,0,0,0,-1,818,1471,-1.04276,-6.18586
-399,-447,0.0134888,0.687622,0,0,0,0,0,0,0,-1,825,1471,0.0134841,-0.68767
-392,-447,-14.0646,3.76147,0,0,0,0,0,0,0,-1,832,1471,-14.0646,-3.7615
-385,-447,-15.1695,2.61865,0,0,0,0,0,0,0,-1,839,1471,-15.1695,-2.61871
-378,-447,-15.9424,1.49316,0,0,0,0,0,0,0,-1,846,1471,-15.9424,-1.49313
-371,-447,-17.3655,0.73291,0,0,0,0,0,0,0,-1,853,1471,-17.3655,-0.732946
-364,-447,0,0,0,0,0,0,0,0,0,-1,860,1471,0,0
-357,-447,0,0,0,0,0,0,0,0,0,-1,867,1471,0,0
-350,-447,0,0,0,0,0,0,0,0,0,-1,874,1471,0,0
-343,-447,0,0,0,0,0,0,0,0,0,-1,881,1471,0,0
-336,-447,0,0,0,0,0,0,0,0,0,-1,888,1471,0,0
-329,-447,0,0,0,0,0,0,0,0,0,-1,895,1471,0,0
-322,-447,0,0,0,0,0,0,0,0,0,-1,902,1471,0,0
-315,-447,0,0,0,0,0,0,0,0,0,-1,909,1471,0,0
-308,-447,0,0,0,0,0,0,0,0,0,-1,916,1471,0,0
-301,-447,0,0,0,0,0,0,0,0,0,-1,923,1471,0,0
-294,-447,0,0,0,0,0,0,0,0,0,-1,930,1471,0,0
-287,-447,0,0,0,0,0,0,0,0,0,-1,937,1471,0,0
-280,-447,0,0,0,0,0,0,0,0,0,-1,944,1471,0,0
-273,-447,0,0,0,0,0,0,0,0,0,-1,951,1471,0,0
-266,-447,0,0,0,0,0,0,0,0,0,-1,958,1471,0,0
-259,-447,0,0,0,0,0,0,0,0,0,-1,965,1471,0,0
-252,-447,0,0,0,0,0,0,0,0,0,-1,972,1471,0,0
-245,-447,0,0,0,0,0,0,0,0,0,-1,979,1471,0,0
-238,-447,0,0,0,0,0,0,0,0,0,-1,986,1471,0,0
-231,-447,0,0,0,0,0,0,0,0,0,-1,993,1471,0,0
-224,-447,0,0,0,0,0,0,0,0,0,-1,1000,1471,0,0
-217,-447,0,0,0,0,0,0,0,0,0,-1,1007,1471,0,0
-210,-447,0,0,0,0,0,0,0,0,0,-1,1014,1471,0,0
-203,-447,0,0,0,0,0,0,0,0,0,-1,1021,1471,0,0
-196,-447,0,0,0,0,0,0,0,0,0,-1,1028,1471,0,0
-189,-447,0,0,0,0,0,0,0,0,0,-1,1035,1471,0,0
-182,-447,0,0,0,0,0,0,0,0,0,-1,1042,1471,0,0
-175,-447,0,0,0,0,0,0,0,0,0,-1,1049,1471,0,0
-168,-447,0,0,0,0,0,0,0,0,0,-1,1056,1471,0,0
-161,-447,0,0,0,0,0,0,0,0,0,-1,1063,1471,0,0
-154,-447,0,0,0,0,0,0,0,0,0,-1,1070,1471,0,0
-147,-447,0,0,0,0,0,0,0,0,0,-1,1077,1471,0,0
-140,-447,0,0,0,0,0,0,0,0,0,-1,1084,1471,0,0
-133,-447,0,0,0,0,0,0,0,0,0,-1,1091,1471,0,0
-126,-447,0,0,0,0,0,0,0,0,0,-1,1098,1471,0,0
-119,-447,0,0,0,0,0,0,0,0,0,-1,1105,1471,0,0
-112,-447,0,0,0,0,0,0,0,0,0,-1,1112,1471,0,0
-105,-447,0,0,0,0,0,0,0,0,0,-1,1119,1471,0,0
-98,-447,0,0,0,0,0,0,0,0,0,-1,1126,1471,0,0
-91,-447,0,0,0,0,0,0,0,0,0,-1,1133,1471,0,0
-84,-447,0,0,0,0,0,0,0,0,0,-1,1140,1471,0,0
-77,-447,0,0,0,0,0,0,0,0,0,-1,1147,1471,0,0
-70,-447,0,0,0,0,0,0,0,0,0,-1,1154,1471,0,0
-63,-447,0,0,0,0,0,0,0,0,0,-1,1161,1471,0,0
-56,-447,0,0,0,0,0,0,0,0,0,-1,1168,1471,0,0
-49,-447,0,0,0,0,0,0,0,0,0,-1,1175,1471,0,0
-42,-447,0,0,0,0,0,0,0,0,0,-1,1182,1471,0,0
-35,-447,0,0,0,0,0,0,0,0,0,-1,1189,1471,0,0
-28,-447,0,0,0,0,0,0,0,0,0,-1,1196,1471,0,0
-21,-447,0,0,0,0,0,0,0,0,0,-1,1203,1471,0,0
-14,-447,0,0,0,0,0,0,0,0,0,-1,1210,1471,0,0
-7,-447,0,0,0,0,0,0,0,0,0,-1,1217,1471,0,0
0,-447,0,0,0,0,0,0,0,0,0,-1,1224,1471,0,0
7,-447,0,0,0,0,0,0,0,0,0,-1,1231,1471,0,0
14,-447,0,0,0,0,0,0,0,0,0,-1,1238,1471,0,0
21,-447,0,0,0,0,0,0,0,0,0,-1,1245,1471,0,0
28,-447,0,0,0,0,0,0,0,0,0,-1,1252,1471,0,0
35,-447,0,0,0,0,0,0,0,0,0,-1,1259,1471,0,0
42,-447,0,0,0,0,0,0,0,0,0,-1,1266,1471,0,0
49,-447,0,0,0,0,0,0,0,0,0,-1,1273,1471,0,0
56,-447,0,0,0,0,0,0,0,0,0,-1,1280,1471,0,0
63,-447,0,0,0,0,0,0,0,0,0,-1,1287,1471,0,0
70,-447,0,0,0,0,0,0,0,0,0,-1,1294,1471,0,0
77,-447,0,0,0,0,0,0,0,0,0,-1,1301,1471,0,0
84,-447,0,0,0,0,0,0,0,0,0,-1,1308,1471,0,0
91,-447,0,0,0,0,0,0,0,0,0,-1,1315,1471,0,0
98,-447,0,0,0,0,0,0,0,0,0,-1,1322,1471,0,0
105,-447,0,0,0,0,0,0,0,0,0,-1,1329,1471,0,0
112,-447,0,0,0,0,0,0,0,0,0,-1,1336,1471,0,0
119,-447,0,0,0,0,0,0,0,0,0,-1,1343,1471,0,0
126,-447,0,0,0,0,0,0,0,0,0,-1,1350,1471,0,0
133,-447,0,0,0,0,0,0,0,0,0,-1,1357,1471,0,0
140,-447,0,0,0,0,0,0,0,0,0,-1,1364,1471,0,0
147,-447,0,0,0,0,0,0,0,0,0,-1,1371,1471,0,0
154,-447,0,0,0,0,0,0,0,0,0,-1,1378,1471,0,0
161,-447,0,0,0,0,0,0,0,0,0,-1,1385,1471,0,0
168,-447,0,0,0,0,0,0,0,0,0,-1,1392,1471,0,0
175,-447,0,0,0,0,0,0,0,0,0,-1,1399,1471,0,0
182,-447,0,0,0,0,0,0,0,0,0,-1,1406,1471,0,0
189,-447,0,0,0,0,0,0,0,0,0,-1,1413,1471,0,0
196,-447,0,0,0,0,0,0,0,0,0,-1,1420,1471,0,0
203,-447,0,0,0,0,0,0,0,0,0,-1,1427,1471,0,0
210,-447,0,0,0,0,0,0,0,0,0,-1,1434,1471,0,0
217,-447,0,0,0,0,0,0,0,0,0,-1,1441,1471,0,0
224,-447,0,0,0,0,0,0,0,0,0,-1,1448,1471,0,0
231,-447,0,0,0,0,0,0,0,0,0,-1,1455,1471,0,0
238,-447,0,0,0,0,0,0,0,0,0,-1,1462,1471,0,0
245,-447,0,0,0,0,0,0,0,0,0,-1,1469,1471,0,0
252,-447,0,0,0,0,0,0,0,0,0,-1,1476,1471,0,0
259,-447,0,0,0,0,0,0,0,0,0,-1,1483,1471,0,0
266,-447,0,0,0,0,0,0,0,0,0,-1,1490,1471,0,0
273,-447,0,0,0,0,0,0,0,0,0,-1,1497,1471,0,0
280,-447,0,0,0,0,0,0,0,0,0,-1,1504,1471,0,0
287,-447,0,0,0,0,0,0,0,0,0,-1,1511,1471,0,0
294,-447,0,0,0,0,0,0,0,0,0,-1,1518,1471,0,0
301,-447,0,0,0,0,0,0,0,0,0,-1,1525,1471,0,0
308,-447,0,0,0,0,0,0,0,0,0,-1,1532,1471,0,0
315,-447,0,0,0,0,0,0,0,0,0,-1,1539,1471,0,0
322,-447,0,0,0,0,0,0,0,0,0,-1,1546,1471,0,0
329,-447,0,0,0,0,0,0,0,0,0,-1,1553,1471,0,0
336,-447,0,0,0,0,0,0,0,0,0,-1,1560,1471,0,0
343,-447,0,0,0,0,0,0,0,0,0,-1,1567,1471,0,0
350,-447,0,0,0,0,0,0,0,0,0,-1,1574,1471,0,0
357,-447,0,0,0,0,0,0,0,0,0,-1,1581,1471,0,0
364,-447,0,0,0,0,0,0,0,0,0,-1,1588,1471,0,0
371,-447,0,0,0,0,0,0,0,0,0,-1,1595,1471,0,0
378,-447,0,0,0,0,0,0,0,0,0,-1,1602,1471,0,0
385,-447,0,0,0,0,0,0,0,0,0,-1,1609,1471,0,0
392,-447,0,0,0,0,0,0,0,0,0,-1,1616,1471,0,0
399,-447,0,0,0,0,0,0,0,0,0,-1,1623,1471,0,0
406,-447,0,0,0,0,0,0,0,0,0,-1,1630,1471,0,0
413,-447,0,0,0,0,0,0,0,0,0,-1,1637,1471,0,0
420,-447,0,0,0,0,0,0,0,0,0,-1,1644,1471,0,0
427,-447,0,0,0,0,0,0,0,0,0,-1,1651,1471,0,0
434,-447,0,0,0,0,0,0,0,0,0,-1,1658,1471,0,0
441,-447,0,0,0,0,0,0,0,0,0,-1,1665,1471,0,0
448,-447,0,0,0,0,0,0,0,0,0,-1,1672,1471,0,0
455,-447,0,0,0,0,0,0,0,0,0,-1,1679,1471,0,0
462,-447,0,0,0,0,0,0,0,0,0,-1,1686,1471,0,0
469,-447,0,0,0,0,0,0,0,0,0,-1,1693,1471,0,0
476,-447,0,0,0,0,0,0,0,0,0,-1,1700,1471,0,0
483,-447,0,0,0,0,0,0,0,0,0,-1,1707,1471,0,0
490,-447,18.2214,-0.810303,0,0,0,0,0,0,0,-1,1714,1471,18.2215,0.810307
497,-447,17.0237,0.352417,0,0,0,0,0,0,0,-1,1721,1471,17.0237,-0.352442
504,-447,15.8998,1.53479,0,0,0,0,0,0,0,-1,1728,1471,15.8997,-1.53478
511,-447,14.7201,2.76111,0,0,0,0,0,0,0,-1,1735,1471,14.7201,-2.76107
518,-447,17.7618,13.2864,0,0,0,0,0,0,0,-1,1742,1471,17.7619,-13.2863
525,-447,17.1191,11.9014,0,0,0,0,0,0,0,-1,1749,1471,17.1191,-11.9013
532,-447,16.3959,10.0455,0,0,0,0,0,0,0,-1,1756,1471,16.3959,-10.0456
539,-447,14.1699,10.0204,0,0,0,0,0,0,0,-1,1763,1471,14.1699,-10.0204
546,-447,16.3715,11.8046,0,0,0,0,0,0,0,-1,1770,1471,16.3714,-11.8046
553,-447,17.5106,13.4012,0,0,0,0,0,0,0,-1,1777,1471,17.5107,-13.4012
560,-447,17.0187,13.168,0,0,0,0,0,0,0,-1,1784,1471,17.0187,-13.168
567,-447,18.9286,15.1703,0,0,0,0,0,0,0,-1,1791,1471,18.9286,-15.1703
574,-447,31.2709,26.9795,0,0,0,0,0,0,0,-1,1798,1471,31.2709,-26.9794
581,-447,31.5847,25.8553,0,0,0,0,0,0,0,-1,1805,1471,31.5847,-25.8554
588,-447,31.7736,25.0496,0.00542174,0.00156967,-0.00212123,0.00636088,0.000630533,-0.416795,0.00404682,0.0370533,1812,1471,31.7736,-25.0495
595,-447,31.7867,24.2672,0.00403985,0.00132563,-0.00185669,0.00498253,0.000382943,-0.469807,0.00320168,0.0147804,1819,1471,31.7867,-24.2672
602,-447,31.7633,23.5427,0.00318543,0.00090493,-0.00141713,0.00386409,0.000226271,-0.446623,0.00250405,0.012488,1826,1471,31.7633,-23.5428
609,-447,31.7334,22.8409,0.00256927,0.000527216,-0.000975298,0.00296023,0.000136257,-0.381248,0.00192967,0.0131668,1833,1471,31.7335,-22.841
616,-447,31.7101,22.1127,0.0021522,0.000275776,-0.000619402,0.00233822,8.97544e-05,-0.291755,0.00152977,0.0148388,1840,1471,31.7101,-22.1126
623,-447,31.6847,21.3995,0.00212801,4.33534e-05,-0.000300947,0.00217059,7.77422e-07,-0.14054,0.0014468,0.0164782,1847,1471,31.6847,-21.3996
630,-447,31.636,20.668,0.00238076,-0.000191683,-2.64378e-05,0.00238103,-0.000191955,-0.0102759,0.00165505,0.0101549,1854,1471,31.636,-20.668
637,-447,31.6268,19.9493,0.00290677,-0.000249764,0.000191526,0.00291835,-0.000261343,0.0603806,0.00203827,0.0112096,1861,1471,31.6268,-19.9493
644,-447,31.6157,19.2426,0.00384445,-0.000223112,0.000310298,0.00386799,-0.000246648,0.0757022,0.00266468,0.0124959,1868,1471,31.6157,-19.2426
651,-447,31.7345,18.3667,0,0,0,0,0,0,0,-1,1875,1471,31.7345,-18.3667
658,-447,30.2566,16.5862,0,0,0,0,0,0,0,-1,1882,1471,30.2566,-16.5862
665,-447,18.4946,9.79919,0,0,0,0,0,0,0,-1,1889,1471,18.4946,-9.79922
672,-447,18.9784,9.66077,0,0,0,0,0,0,0,-1,1896,1471,18.9784,-9.66081
679,-447,14.844,7.4248,0,0,0,0,0,0,0,-1,1903,1471,14.844,-7.42477
686,-447,9.81079,4.30859,0,0,0,0,0,0,0,-1,1910,1471,9.8108,-4.30864
693,-447,10.48,2.08643,0,0,0,0,0,0,0,-1,1917,1471,10.48,-2.08642
700,-447,0,0,0,0,0,0,0,0,0,-1,1924,1471,0,0
707,-447,0,0,0,0,0,0,0,0,0,-1,1931,1471,0,0
714,-447,0,0,0,0,0,0,0,0,0,-1,1938,1471,0,0
721,-447,0,0,0,0,0,0,0,0,0,-1,1945,1471,0,0
728,-447,0,0,0,0,0,0,0,0,0,-1,1952,1471,0,0
735,-447,0,0,0,0,0,0,0,0,0,-1,1959,1471,0,0
742,-447,0,0,0,0,0,0,0,0,0,-1,1966,1471,0,0
749,-447,0,0,0,0,0,0,0,0,0,-1,1973,1471,0,0
756,-447,0,0,0,0,0,0,0,0,0,-1,1980,1471,0,0
763,-447,0,0,0,0,0,0,0,0,0,-1,1987,1471,0,0
770,-447,0,0,0,0,0,0,0,0,0,-1,1994,1471,0,0
777,-447,0,0,0,0,0,0,0,0,0,-1,2001,1471,0,0
784,-447,0,0,0,0,0,0,0,0,0,-1,2008,1471,0,0
791,-447,0,0,0,0,0,0,0,0,0,-1,2015,1471,0,0
798,-447,0,0,0,0,0,0,0,0,0,-1,2022,1471,0,0
805,-447,0,0,0,0,0,0,0,0,0,-1,2029,1471,0,0
812,-447,0,0,0,0,0,0,0,0,0,-1,2036,1471,0,0
-700,-454,0,0,0,0,0,0,0,0,0,-1,524,1478,0,0
-693,-454,0,0,0,0,0,0,0,0,0,-1,531,1478,0,0
-686,-454,0,0,0,0,0,0,0,0,0,-1,538,1478,0,0
-679,-454,0,0,0,0,0,0,0,0,0,-1,545,1478,0,0
-672,-454,0,0,0,0,0,0,0,0,0,-1,552,1478,0,0
-665,-454,0,0,0,0,0,0,0,0,0,-1,559,1478,0,0
-658,-454,0,0,0,0,0,0,0,0,0,-1,566,1478,0,0
-651,-454,0,0,0,0,0,0,0,0,0,-1,573,1478,0,0
-644,-454,0,0,0,0,0,0,0,0,0,-1,580,1478,0,0
-637,-454,0,0,0,0,0,0,0,0,0,-1,587,1478,0,0
-630,-454,0,0,0,0,0,0,0,0,0,-1,594,1478,0,0
-623,-454,0,0,0,0,0,0,0,0,0,-1,601,1478,0,0
-616,-454,0,0,0,0,0,0,0,0,0,-1,608,1478,0,0
-609,-454,0,0,0,0,0,0,0,0,0,-1,615,1478,0,0
-602,-454,0,0,0,0,0,0,0,0,0,-1,622,1478,0,0
-595,-454,0,0,0,0,0,0,0,0,0,-1,629,1478,0,0
-588,-454,0,0,0,0,0,0,0,0,0,-1,636,1478,0,0
-581,-454,0,0,0,0,0,0,0,0,0,-1,643,1478,0,0
-574,-454,-8.4881,-0.465942,0,0,0,0,0,0,0,-1,650,1478,-8.4881,0.465885
-567,-454,-8.10046,0.922974,0,0,0,0,0,0,0,-1,657,1478,-8.10047,-0.923034
-560,-454,-10.656,3.51172,0,0,0,0,0,0,0,-1,664,1478,-10.656,-3.51176
-553,-454,-9.01129,3.95251,0,0,0,0,0,0,0,-1,671,1478,-9.0113,-3.95256
-546,-454,-9.61896,6.05237,0,0,0,0,0,0,0,-1,678,1478,-9.61897,-6.05239
-539,-454,-7.72589,4.96533,0,0,0,0,0,0,0,-1,685,1478,-7.72592,-4.96532
-532,-454,-7.03931,7.59985,0,0,0,0,0,0,0,-1,692,1478,-7.03929,-7.59981
-525,-454,-5.78723,9.677,0,0,0,0,0,0,0,-1,699,1478,-5.78722,-9.67703
-518,-454,-9.82098,13.8295,0,0,0,0,0,0,0,-1,706,1478,-9.82098,-13.8295
-511,-454,-13.4866,18.2423,0,0,0,0,0,0,0,-1,713,1478,-13.4866,-18.2423
-504,-454,-13.4191,19.1119,0.00329719,0.00441586,0.00473632,0.00862575,-0.000912706,0.844174,0.00607763,0.0207169,720,1478,-13.4191,-19.112
-497,-454,-13.4642,19.9633,0.0026137,0.0031811,0.00354006,0.00644881,-0.000654011,0.825383,0.00453296,0.0192162,727,1478,-13.4642,-19.9633
-490,-454,-13.4722,20.7184,0.00208343,0.00225454,0.00256127,0.00473168,-0.000393714,0.802093,0.00329354,0.0181357,734,1478,-13.4722,-20.7183
-483,-454,-13.5323,21.4441,0.00172504,0.00159137,0.00182704,0.00348647,-0.000170058,0.767116,0.00238302,0.0160968,741,1478,-13.5323,-21.4441
-476,-454,-13.5985,22.1501,0.00156618,0.00128044,0.00140686,0.0028374,9.20962e-06,0.734796,0.00188854,0.014294,748,1478,-13.5985,-22.1502
-469,-454,-13.6215,22.8981,0.00159605,0.00129738,0.00123334,0.00268906,0.000204367,0.72515,0.00172862,0.0109029,755,1478,-13.6215,-22.898
-462,-454,-13.6669,23.6793,0.00187723,0.00163209,0.00136163,0.00312179,0.000387525,0.74051,0.0019648,0.0117659,762,1478,-13.667,-23.6793
-455,-454,-13.6981,24.4313,0.00242569,0.00233958,0.00184183,0.00422497,0.000540299,0.773713,0.00265493,0.0129742,769,1478,-13.6981,-24.4313
-448,-454,-13.7051,25.2155,0.0034591,0.00367617,0.00294331,0.00651294,0.000622328,0.803828,0.0041501,0.0268736,776,1478,-13.7051,-25.2155
-441,-454,-13.5506,26.1438,0,0,0,0,0,0,0,-1,783,1478,-13.5506,-26.1438
-434,-454,-7.55743,19.4857,0,0,0,0,0,0,0,-1,790,1478,-7.55746,-19.4858
-427,-454,-6.00183,15.8636,0,0,0,0,0,0,0,-1,797,1478,-6.00184,-15.8637
-420,-454,-6.28088,15.2135,0,0,0,0,0,0,0,-1,804,1478,-6.28087,-15.2135
-413,-454,-5.4408,13.674,0,0,0,0,0,0,0,-1,811,1478,-5.44079,-13.6739
-406,-454,-2.38208,10.0308,0,0,0,0,0,0,0,-1,818,1478,-2.38209,-10.0308
-399,-454,-1.21033,6.95447,0,0,0,0,0,0,0,-1,825,1478,-1.21035,-6.95452
-392,-454,0.0967407,0.985474,0,0,0,0,0,0,0,-1,832,1478,0.0967364,-0.985529
-385,-454,2.38629,3.297,0,0,0,0,0,0,0,-1,839,1478,2.38629,-3.29702
-378,-454,-15.9756,2.83997,0,0,0,0,0,0,0,-1,846,1478,-15.9756,-2.83994
-371,-454,-17.2753,2.01453,0,0,0,0,0,0,0,-1,853,1478,-17.2753,-2.01455
-364,-454,1.08124,0.819458,0,0,0,0,0,0,0,-1,860,1478,1.08124,-0.819513
-357,-454,0,0,0,0,0,0,0,0,0,-1,867,1478,0,0
-350,-454,0,0,0,0,0,0,0,0,0,-1,874,1478,0,0
-343,-454,0,0,0,0,0,0,0,0,0,-1,881,1478,0,0
-336,-454,0,0,0,0,0,0,0,0,0,-1,888,1478,0,0
-329,-454,0,0,0,0,0,0,0,0,0,-1,895,1478,0,0
-322,-454,0,0,0,0,0,0,0,0,0,-1,902,1478,0,0
-315,-454,0,0,0,0,0,0,0,0,0,-1,909,1478,0,0
-308,-454,0,0,0,0,0,0,0,0,0,-1,916,1478,0,0
-301,-454,0,0,0,0,0,0,0,0,0,-1,923,1478,0,0
-294,-454,0,0,0,0,0,0,0,0,0,-1,930,1478,0,0
-287,-454,0,0,0,0,0,0,0,0,0,-1,937,1478,0,0
-280,-454,0,0,0,0,0,0,0,0,0,-1,944,1478,0,0
-273,-454,0,0,0,0,0,0,0,0,0,-1,951,1478,0,0
-266,-454,0,0,0,0,0,0,0,0,0,-1,958,1478,0,0
-259,-454,0,0,0,0,0,0,0,0,0,-1,965,1478,0,0
-252,-454,0,0,0,0,0,0,0,0,0,-1,972,1478,0,0
-245,-454,0,0,0,0,0,0,0,0,0,-1,979,1478,0,0
-238,-454,0,0,0,0,0,0,0,0,0,-1,986,1478,0,0
-231,-454,0,0,0,0,0,0,0,0,0,-1,993,1478,0,0
-224,-454,0,0,0,0,0,0,0,0,0,-1,1000,1478,0,0
-217,-454,0,0,0,0,0,0,0,0,0,-1,1007,1478,0,0
-210,-454,0,0,0,0,0,0,0,0,0,-1,1014,1478,0,0
-203,-454,0,0,0,0,0,0,0,0,0,-1,1021,1478,0,0
-196,-454,0,0,0,0,0,0,0,0,0,-1,1028,1478,0,0
-189,-454,0,0,0,0,0,0,0,0,0,-1,1035,1478,0,0
-182,-454,0,0,0,0,0,0,0,0,0,-1,1042,1478,0,0
-175,-454,0,0,0,0,0,0,0,0,0,-1,1049,1478,0,0
-168,-454,0,0,0,0,0,0,0,0,0,-1,1056,1478,0,0
-161,-454,0,0,0,0,0,0,0,0,0,-1,1063,1478,0,0
-154,-454,0,0,0,0,0,0,0,0,0,-1,1070,1478,0,0
-147,-454,0,0,0,0,0,0,0,0,0,-1,1077,1478,0,0
-140,-454,0,0,0,0,0,0,0,0,0,-1,1084,1478,0,0
-133,-454,0,0,0,0,0,0,0,0,0,-1,1091,1478,0,0
-126,-454,0,0,0,0,0,0,0,0,0,-1,1098,1478,0,0
-119,-454,0,0,0,0,0,0,0,0,0,-1,1105,1478,0,0
-112,-454,0,0,0,0,0,0,0,0,0,-1,1112,1478,0,0
-105,-454,0,0,0,0,0,0,0,0,0,-1,1119,1478,0,0
-98,-454,0,0,0,0,0,0,0,0,0,-1,1126,1478,0,0
-91,-454,0,0,0,0,0,0,0,0,0,-1,1133,1478,0,0
-84,-454,0,0,0,0,0,0,0,0,0,-1,1140,1478,0,0
-77,-454,0,0,0,0,0,0,0,0,0,-1,1147,1478,0,0
-70,-454,0,0,0,0,0,0,0,0,0,-1,1154,1478,0,0
-63,-454,0,0,0,0,0,0,0,0,0,-1,1161,1478,0,0
-56,-454,0,0,0,0,0,0,0,0,0,-1,1168,1478,0,0
-49,-454,0,0,0,0,0,0,0,0,0,-1,1175,1478,0,0
-42,-454,0,0,0,0,0,0,0,0,0,-1,1182,1478,0,0
-35,-454,0,0,0,0,0,0,0,0,0,-1,1189,1478,0,0
-28,-454,0,0,0,0,0,0,0,0,0,-1,1196,1478,0,0
-21,-454,0,0,0,0,0,0,0,0,0,-1,1203,1478,0,0
-14,-454,0,0,0,0,0,0,0,0,0,-1,1210,1478,0,0
-7,-454,0,0,0,0,0,0,0,0,0,-1,1217,1478,0,0
0,-454,0,0,0,0,0,0,0,0,0,-1,1224,1478,0,0
7,-454,0,0,0,0,0,0,0,0,0,-1,1231,1478,0,0
14,-454,0,0,0,0,0,0,0,0,0,-1,1238,1478,0,0
21,-454,0,0,0,0,0,0,0,0,0,-1,1245,1478,0,0
28,-454,0,0,0,0,0,0,0,0,0,-1,1252,1478,0,0
35,-454,0,0,0,0,0,0,0,0,0,-1,1259,1478,0,0
42,-454,0,0,0,0,0,0,0,0,0,-1,1266,1478,0,0
49,-454,0,0,0,0,0,0,0,0,0,-1,1273,1478,0,0
56,-454,0,0,0,0,0,0,0,0,0,-1,1280,1478,0,0
63,-454,0,0,0,0,0,0,0,0,0,-1,1287,1478,0,0
70,-454,0,0,0,0,0,0,0,0,0,-1,1294,1478,0,0
77,-454,0,0,0,0,0,0,0,0,0,-1,1301,1478,0,0
84,-454,0,0,0,0,0,0,0,0,0,-1,1308,1478,0,0
91,-454,0,0,0,0,0,0,0,0,0,-1,1315,1478,0,0
98,-454,0,0,0,0,0,0,0,0,0,-1,1322,1478,0,0
105,-454,0,0,0,0,0,0,0,0,0,-1,1329,1478,0,0
112,-454,0,0,0,0,0,0,0,0,0,-1,1336,1478,0,0
119,-454,0,0,0,0,0,0,0,0,0,-1,1343,1478,0,0
126,-454,0,0,0,0,0,0,0,0,0,-1,1350,1478,0,0
133,-454,0,0,0,0,0,0,0,0,0,-1,1357,1478,0,0
140,-454,0,0,0,0,0,0,0,0,0,-1,1364,1478,0,0
147,-454,0,0,0,0,0,0,0,0,0,-1,1371,1478,0,0
154,-454,0,0,0,0,0,0,0,0,0,-1,1378,1478,0,0
161,-454,0,0,0,0,0,0,0,0,0,-1,1385,1478,0,0
168,-454,0,0,0,0,0,0,0,0,0,-1,1392,1478,0,0
175,-454,0,0,0,0,0,0,0,0,0,-1,1399,1478,0,0
182,-454,0,0,0,0,0,0,0,0,0,-1,1406,1478,0,0
189,-454,0,0,0,0,0,0,0,0,0,-1,1413,1478,0,0
196,-454,0,0,0,0,0,0,0,0,0,-1,1420,1478,0,0
203,-454,0,0,0,0,0,0,0,0,0,-1,1427,1478,0,0
210,-454,0,0,0,0,0,0,0,0,0,-1,1434,1478,0,0
217,-454,0,0,0,0,0,0,0,0,0,-1,1441,1478,0,0
224,-454,0,0,0,0,0,0,0,0,0,-1,1448,1478,0,0
231,-454,0,0,0,0,0,0,0,0,0,-1,1455,1478,0,0
238,-454,0,0,0,0,0,0,0,0,0,-1,1462,1478,0,0
245,-454,0,0,0,0,0,0,0,0,0,-1,1469,1478,0,0
252,-454,0,0,0,0,0,0,0,0,0,-1,1476,1478,0,0
259,-454,0,0,0,0,0,0,0,0,0,-1,1483,1478,0,0
266,-454,0,0,0,0,0,0,0,0,0,-1,1490,1478,0,0
273,-454,0,0,0,0,0,0,0,0,0,-1,1497,1478,0,0
280,-454,0,0,0,0,0,0,0,0,0,-1,1504,1478,0,0
287,-454,0,0,0,0,0,0,0,0,0,-1,1511,1478,0,0
294,-454,0,0,0,0,0,0,0,0,0,-1,1518,1478,0,0
301,-454,0,0,0,0,0,0,0,0,0,-1,1525,1478,0,0
308,-454,0,0,0,0,0,0,0,0,0,-1,1532,1478,0,0
315,-454,0,0,0,0,0,0,0,0,0,-1,1539,1478,0,0
322,-454,0,0,0,0,0,0,0,0,0,-1,1546,1478,0,0
329,-454,0,0,0,0,0,0,0,0,0,-1,1553,1478,0,0
336,-454,0,0,0,0,0,0,0,0,0,-1,1560,1478,0,0
343,-454,0,0,0,0,0,0,0,0,0,-1,1567,1478,0,0
350,-454,0,0,0,0,0,0,0,0,0,-1,1574,1478,0,0
357,-454,0,0,0,0,0,0,0,0,0,-1,1581,1478,0,0
364,-454,0,0,0,0,0,0,0,0,0,-1,1588,1478,0,0
371,-454,0,0,0,0,0,0,0,0,0,-1,1595,1478,0,0
378,-454,0,0,0,0,0,0,0,0,0,-1,1602,1478,0,0
385,-454,0,0,0,0,0,0,0,0,0,-1,1609,1478,0,0
392,-454,0,0,0,0,0,0,0,0,0,-1,1616,1478,0,0
399,-454,0,0,0,0,0,0,0,0,0,-1,1623,1478,0,0
406,-454,0,0,0,0,0,0,0,0,0,-1,1630,1478,0,0
413,-454,0,0,0,0,0,0,0,0,0,-1,1637,1478,0,0
420,-454,0,0,0,0,0,0,0,0,0,-1,1644,1478,0,0
427,-454,0,0,0,0,0,0,0,0,0,-1,1651,1478,0,0
434,-454,0,0,0,0,0,0,0,0,0,-1,1658,1478,0,0
441,-454,0,0,0,0,0,0,0,0,0,-1,1665,1478,0,0
448,-454,0,0,0,0,0,0,0,0,0,-1,1672,1478,0,0
455,-454,0,0,0,0,0,0,0,0,0,-1,1679,1478,0,0
462,-454,0,0,0,0,0,0,0,0,0,-1,1686,1478,0,0
469,-454,0,0,0,0,0,0,0,0,0,-1,1693,1478,0,0
476,-454,0,0,0,0,0,0,0,0,0,-1,1700,1478,0,0
483,-454,14.2399,3.97498,0,0,0,0,0,0,0,-1,1707,1478,14.2399,-3.97502
490,-454,18.1821,-0.175781,0,0,0,0,0,0,0,-1,1714,1478,18.1821,0.175822
497,-454,16.8854,1.01208,0,0,0,0,0,0,0,-1,1721,1478,16.8854,-1.01209
504,-454,15.587,2.05994,0,0,0,0,0,0,0,-1,1728,1478,15.5871,-2.05998
511,-454,17.0273,14.5258,0,0,0,0,0,0,0,-1,1735,1478,17.0273,-14.5258
518,-454,16.4158,13.1039,0,0,0,0,0,0,0,-1,1742,1478,16.4157,-13.1038
525,-454,15.7842,11.6628,0,0,0,0,0,0,0,-1,1749,1478,15.7841,-11.6629
532,-454,15.1094,10.2476,0,0,0,0,0,0,0,-1,1756,1478,15.1094,-10.2475
539,-454,13.7905,10.9373,0,0,0,0,0,0,0,-1,1763,1478,13.7906,-10.9372
546,-454,16.2002,13.2458,0,0,0,0,0,0,0,-1,1770,1478,16.2002,-13.2459
553,-454,15.6747,12.1868,0,0,0,0,0,0,0,-1,1777,1478,15.6747,-12.1868
560,-454,16.3895,14.0527,0,0,0,0,0,0,0,-1,1784,1478,16.3895,-14.0528
567,-454,31.2163,27.1248,0,0,0,0,0,0,0,-1,1791,1478,31.2163,-27.1248
574,-454,31.0006,26.5693,0,0,0,0,0,0,0,-1,1798,1478,31.0006,-26.5693
581,-454,31.0948,25.7843,0.0062879,0.00146709,-0.00196253,0.0069858,0.000769186,-0.341667,0.00442316,0.0318938,1805,1478,31.0949,-25.7843
588,-454,31.1487,25.0116,0.00483106,0.00128533,-0.00173664,0.00553992,0.000576473,-0.387539,0.00351691,0.0149382,1812,1478,31.1487,-25.0116
595,-454,31.0739,24.3081,0.00368902,0.00102761,-0.00147922,0.004348,0.000368626,-0.419101,0.00278394,0.013586,1819,1478,31.0738,-24.3081
602,-454,31.033,23.5889,0.00293869,0.000659335,-0.00111693,0.00339475,0.000203271,-0.387658,0.00219855,0.0101523,1826,1478,31.0329,-23.5889
609,-454,31.0342,22.8751,0.00243601,0.00034544,-0.000723089,0.00266174,0.000119711,-0.302588,0.00173597,0.0112901,1833,1478,31.0341,-22.8751
616,-454,31.0049,22.1595,0.00213563,0.000131664,-0.000378095,0.00220459,6.27007e-05,-0.180413,0.00144928,0.0140351,1840,1478,31.0049,-22.1595
623,-454,30.9872,21.4498,0.00220461,-0.000109592,-2.01675e-05,0.00220478,-0.000109768,-0.00871378,0.00150778,0.0155447,1847,1478,30.9872,-21.4499
630,-454,30.9667,20.7378,0.00252888,-0.000361947,0.000349114,0.00257044,-0.000403511,0.118497,0.00186276,0.0157333,1854,1478,30.9667,-20.7378
637,-454,30.8802,20.0212,0.00309107,-0.000442905,0.000639333,0.00320318,-0.000555011,0.173583,0.00234248,0.0135431,1861,1478,30.8803,-20.0213
644,-454,30.953,19.2499,0.00395358,-0.000267359,0.000762076,0.00408695,-0.000400734,0.173262,0.00286756,0.0268153,1868,1478,30.953,-19.2499
651,-454,31.0728,18.4193,0,0,0,0,0,0,0,-1,1875,1478,31.0728,-18.4194
658,-454,17.2583,10.0765,0,0,0,0,0,0,0,-1,1882,1478,17.2583,-10.0765
665,-454,17.683,9.67566,0,0,0,0,0,0,0,-1,1889,1478,17.683,-9.67572
672,-454,16.5476,6.41931,0,0,0,0,0,0,0,-1,1896,1478,16.5476,-6.41929
679,-454,14.2161,5.45007,0,0,0,0,0,0,0,-1,1903,1478,14.2161,-5.45013
686,-454,10.3767,2.12842,0,0,0,0,0,0,0,-1,1910,1478,10.3767,-2.12839
693,-454,11.1857,1.48486,0,0,0,0,0,0,0,-1,1917,1478,11.1857,-1.48487
700,-454,0,0,0,0,0,0,0,0,0,-1,1924,1478,0,0
707,-454,0,0,0,0,0,0,0,0,0,-1,1931,1478,0,0
714,-454,0,0,0,0,0,0,0,0,0,-1,1938,1478,0,0
721,-454,0,0,0,0,0,0,0,0,0,-1,1945,1478,0,0
728,-454,0,0,0,0,0,0,0,0,0,-1,1952,1478,0,0
735,-454,0,0,0,0,0,0,0,0,0,-1,1959,1478,0,0
742,-454,0,0,0,0,0,0,0,0,0,-1,1966,1478,0,0
749,-454,0,0,0,0,0,0,0,0,0,-1,1973,1478,0,0
756,-454,0,0,0,0,0,0,0,0,0,-1,1980,1478,0,0
763,-454,0,0,0,0,0,0,0,0,0,-1,1987,1478,0,0
770,-454,0,0,0,0,0,0,0,0,0,-1,1994,1478,0,0
777,-454,0,0,0,0,0,0,0,0,0,-1,2001,1478,0,0
784,-454,0,0,0,0,0,0,0,0,0,-1,2008,1478,0,0
791,-454,0,0,0,0,0,0,0,0,0,-1,2015,1478,0,0
798,-454,0,0,0,0,0,0,0,0,0,-1,2022,1478,0,0
805,-454,0,0,0,0,0,0,0,0,0,-1,2029,1478,0,0
812,-454,0,0,0,0,0,0,0,0,0,-1,2036,1478,0,0
-700,-461,0,0,0,0,0,0,0,0,0,-1,524,1485,0,0
-693,-461,0,0,0,0,0,0,0,0,0,-1,531,1485,0,0
-686,-461,0,0,0,0,0,0,0,0,0,-1,538,1485,0,0
-679,-461,0,0,0,0,0,0,0,0,0,-1,545,1485,0,0
-672,-461,0,0,0,0,0,0,0,0,0,-1,552,1485,0,0
-665,-461,0,0,0,0,0,0,0,0,0,-1,559,1485,0,0
-658,-461,0,0,0,0,0,0,0,0,0,-1,566,1485,0,0
-651,-461,0,0,0,0,0,0,0,0,0,-1,573,1485,0,0
-644,-461,0,0,0,0,0,0,0,0,0,-1,580,1485,0,0
-637,-461,0,0,0,0,0,0,0,0,0,-1,587,1485,0,0
-630,-461,0,0,0,0,0,0,0,0,0,-1,594,1485,0,0
-623,-461,0,0,0,0,0,0,0,0,0,-1,601,1485,0,0
-616,-461,0,0,0,0,0,0,0,0,0,-1,608,1485,0,0
-609,-461,0,0,0,0,0,0,0,0,0,-1,615,1485,0,0
-602,-461,0,0,0,0,0,0,0,0,0,-1,622,1485,0,0
-595,-461,0,0,0,0,0,0,0,0,0,-1,629,1485,0,0
-588,-461,0,0,0,0,0,0,0,0,0,-1,636,1485,0,0
-581,-461,0,0,0,0,0,0,0,0,0,-1,643,1485,0,0
-574,-461,0,0,0,0,0,0,0,0,0,-1,650,1485,0,0
-567,-461,-9.69031,0.513306,0,0,0,0,0,0,0,-1,657,1485,-9.69032,-0.513305
-560,-461,-7.28815,1.54004,0,0,0,0,0,0,0,-1,664,1485,-7.28817,-1.54005
-553,-461,-11.9607,5.27783,0,0,0,0,0,0,0,-1,671,1485,-11.9607,-5.27778
-546,-461,-11.4215,4.44666,0,0,0,0,0,0,0,-1,678,1485,-11.4215,-4.4467
-539,-461,-9.36493,5.23438,0,0,0,0,0,0,0,-1,685,1485,-9.3649,-5.23432
-532,-461,-7.82898,6.78357,0,0,0,0,0,0,0,-1,692,1485,-7.829,-6.78363
-525,-461,-6.37878,8.75659,0,0,0,0,0,0,0,-1,699,1485,-6.3788,-8.75659
-518,-461,-6.49695,10.886,0,0,0,0,0,0,0,-1,706,1485,-6.49696,-10.8859
-511,-461,-13.0469,18.2362,0,0,0,0,0,0,0,-1,713,1485,-13.0469,-18.2363
-504,-461,-12.7878,19.046,0.00406526,0.00537035,0.0057748,0.0105294,-0.00109374,0.841659,0.0074111,0.0427272,720,1485,-12.7878,-19.046
-497,-461,-12.6877,19.9518,0.00310368,0.0038043,0.00423651,0.00770496,-0.000796974,0.826649,0.00542186,0.011642,727,1485,-12.6877,-19.9518
-490,-461,-12.7308,20.726,0.00236128,0.00266279,0.00302275,0.00553854,-0.000514469,0.810314,0.00387525,0.0126835,734,1485,-12.7308,-20.726
-483,-461,-12.7861,21.4799,0.00181654,0.00178458,0.0020731,0.00387372,-0.0002726,0.781544,0.00267798,0.0127619,741,1485,-12.7861,-21.4798
-476,-461,-12.8551,22.2054,0.00153053,0.001321,0.00150715,0.00293655,-8.50175e-05,0.750697,0.00198665,0.0116587,748,1485,-12.8551,-22.2055
-469,-461,-12.893,22.9364,0.00147525,0.00122735,0.00125041,0.00260783,9.47585e-05,0.735996,0.00170785,0.0133582,755,1485,-12.893,-22.9364
-462,-461,-12.9205,23.6995,0.0016779,0.00146459,0.001306,0.00288158,0.000260897,0.744655,0.00184027,0.0194329,762,1485,-12.9206,-23.6994
-455,-461,-12.9599,24.4377,0.00214076,0.0020519,0.00170489,0.0038018,0.000390856,0.772371,0.00241481,0.0233449,769,1485,-12.9599,-24.4378
-448,-461,-12.9589,25.196,0.00300852,0.00323856,0.00264815,0.00577419,0.000472894,0.807102,0.00370191,0.022444,776,1485,-12.9589,-25.1961
-441,-461,-12.9568,25.9841,0,0,0,0,0,0,0,-1,783,1485,-12.9568,-25.9841
-434,-461,-12.7388,26.9908,0,0,0,0,0,0,0,-1,790,1485,-12.7388,-26.9908
-427,-461,-8.26154,21.546,0,0,0,0,0,0,0,-1,797,1485,-8.26153,-21.5461
-420,-461,-5.70355,16.6116,0,0,0,0,0,0,0,-1,804,1485,-5.70353,-16.6115
-413,-461,-5.98798,16.0605,0,0,0,0,0,0,0,-1,811,1485,-5.98796,-16.0605
-406,-461,-5.52667,14.839,0,0,0,0,0,0,0,-1,818,1485,-5.52666,-14.839
-399,-461,-1.93439,9.82849,0,0,0,0,0,0,0,-1,825,1485,-1.9344,-9.82846
-392,-461,-0.357544,5.55225,0,0,0,0,0,0,0,-1,832,1485,-0.357536,-5.55228
-385,-461,1.71509,3.35254,0,0,0,0,0,0,0,-1,839,1485,1.71511,-3.35255
-378,-461,1.95996,3.01111,0,0,0,0,0,0,0,-1,846,1485,1.95993,-3.01111
-371,-461,0.702881,2.33459,0,0,0,0,0,0,0,-1,853,1485,0.702859,-2.33459
-364,-461,-1.93097,2.56458,0,0,0,0,0,0,0,-1,860,1485,-1.93095,-2.56456
-357,-461,-2.41516,3.49487,0,0,0,0,0,0,0,-1,867,1485,-2.41517,-3.49487
-350,-461,0,0,0,0,0,0,0,0,0,-1,874,1485,0,0
-343,-461,0,0,0,0,0,0,0,0,0,-1,881,1485,0,0
-336,-461,0,0,0,0,0,0,0,0,0,-1,888,1485,0,0
-329,-461,0,0,0,0,0,0,0,0,0,-1,895,1485,0,0
-322,-461,0,0,0,0,0,0,0,0,0,-1,902,1485,0,0
-315,-461,0,0,0,0,0,0,0,0,0,-1,909,1485,0,0
-308,-461,0,0,0,0,0,0,0,0,0,-1,916,1485,0,0
-301,-461,0,0,0,0,0,0,0,0,0,-1,923,1485,0,0
-294,-461,0,0,0,0,0,0,0,0,0,-1,930,1485,0,0
-287,-461,0,0,0,0,0,0,0,0,0,-1,937,1485,0,0
-280,-461,0,0,0,0,0,0,0,0,0,-1,944,1485,0,0
-273,-461,0,0,0,0,0,0,0,0,0,-1,951,1485,0,0
-266,-461,0,0,0,0,0,0,0,0,0,-1,958,1485,0,0
-259,-461,0,0,0,0,0,0,0,0,0,-1,965,1485,0,0
-252,-461,0,0,0,0,0,0,0,0,0,-1,972,1485,0,0
-245,-461,0,0,0,0,0,0,0,0,0,-1,979,1485,0,0
-238,-461,0,0,0,0,0,0,0,0,0,-1,986,1485,0,0
-231,-461,0,0,0,0,0,0,0,0,0,-1,993,1485,0,0
-224,-461,0,0,0,0,0,0,0,0,0,-1,1000,1485,0,0
-217,-461,0,0,0,0,0,0,0,0,0,-1,1007,1485,0,0
-210,-461,0,0,0,0,0,0,0,0,0,-1,1014,1485,0,0
-203,-461,0,0,0,0,0,0,0,0,0,-1,1021,1485,0,0
-196,-461,0,0,0,0,0,0,0,0,0,-1,1028,1485,0,0
-189,-461,0,0,0,0,0,0,0,0,0,-1,1035,1485,0,0
-182,-461,0,0,0,0,0,0,0,0,0,-1,1042,1485,0,0
-175,-461,0,0,0,0,0,0,0,0,0,-1,1049,1485,0,0
-168,-461,0,0,0,0,0,0,0,0,0,-1,1056,1485,0,0
-161,-461,0,0,0,0,0,0,0,0,0,-1,1063,1485,0,0
-154,-461,0,0,0,0,0,0,0,0,0,-1,1070,1485,0,0
-147,-461,0,0,0,0,0,0,0,0,0,-1,1077,1485,0,0
-140,-461,0,0,0,0,0,0,0,0,0,-1,1084,1485,0,0
-133,-461,0,0,0,0,0,0,0,0,0,-1,1091,1485,0,0
-126,-461,0,0,0,0,0,0,0,0,0,-1,1098,1485,0,0
-119,-461,0,0,0,0,0,0,0,0,0,-1,1105,1485,0,0
-112,-461,0,0,0,0,0,0,0,0,0,-1,1112,1485,0,0
-105,-461,0,0,0,0,0,0,0,0,0,-1,1119,1485,0,0
-98,-461,0,0,0,0,0,0,0,0,0,-1,1126,1485,0,0
-91,-461,0,0,0,0,0,0,0,0,0,-1,1133,1485,0,0
-84,-461,0,0,0,0,0,0,0,0,0,-1,1140,1485,0,0
-77,-461,0,0,0,0,0,0,0,0,0,-1,1147,1485,0,0
-70,-461,0,0,0,0,0,0,0,0,0,-1,1154,1485,0,0
-63,-461,0,0,0,0,0,0,0,0,0,-1,1161,1485,0,0
-56,-461,0,0,0,0,0,0,0,0,0,-1,1168,1485,0,0
-49,-461,0,0,0,0,0,0,0,0,0,-1,1175,1485,0,0
-42,-461,0,0,0,0,0,0,0,0,0,-1,1182,1485,0,0
-35,-461,0,0,0,0,0,0,0,0,0,-1,1189,1485,0,0
-28,-461,0,0,0,0,0,0,0,0,0,-1,1196,1485,0,0
-21,-461,0,0,0,0,0,0,0,0,0,-1,1203,1485,0,0
-14,-461,0,0,0,0,0,0,0,0,0,-1,1210,1485,0,0
-7,-461,0,0,0,0,0,0,0,0,0,-1,1217,1485,0,0
0,-461,0,0,0,0,0,0,0,0,0,-1,1224,1485,0,0
7,-461,0,0,0,0,0,0,0,0,0,-1,1231,1485,0,0
14,-461,0,0,0,0,0,0,0,0,0,-1,1238,1485,0,0
21,-461,0,0,0,0,0,0,0,0,0,-1,1245,1485,0,0
28,-461,0,0,0,0,0,0,0,0,0,-1,1252,1485,0,0
35,-461,0,0,0,0,0,0,0,0,0,-1,1259,1485,0,0
42,-461,0,0,0,0,0,0,0,0,0,-1,1266,1485,0,0
49,-461,0,0,0,0,0,0,0,0,0,-1,1273,1485,0,0
56,-461,0,0,0,0,0,0,0,0,0,-1,1280,1485,0,0
63,-461,0,0,0,0,0,0,0,0,0,-1,1287,1485,0,0
70,-461,0,0,0,0,0,0,0,0,0,-1,1294,1485,0,0
77,-461,0,0,0,0,0,0,0,0,0,-1,1301,1485,0,0
84,-461,0,0,0,0,0,0,0,0,0,-1,1308,1485,0,0
91,-461,0,0,0,0,0,0,0,0,0,-1,1315,1485,0,0
98,-461,0,0,0,0,0,0,0,0,0,-1,1322,1485,0,0
105,-461,0,0,0,0,0,0,0,0,0,-1,1329,1485,0,0
112,-461,0,0,0,0,0,0,0,0,0,-1,1336,1485,0,0
119,-461,0,0,0,0,0,0,0,0,0,-1,1343,1485,0,0
126,-461,0,0,0,0,0,0,0,0,0,-1,1350,1485,0,0
133,-461,0,0,0,0,0,0,0,0,0,-1,1357,1485,0,0
140,-461,0,0,0,0,0,0,0,0,0,-1,1364,1485,0,0
147,-461,0,0,0,0,0,0,0,0,0,-1,1371,1485,0,0
154,-461,0,0,0,0,0,0,0,0,0,-1,1378,1485,0,0
161,-461,0,0,0,0,0,0,0,0,0,-1,1385,1485,0,0
168,-461,0,0,0,0,0,0,0,0,0,-1,1392,1485,0,0
175,-461,0,0,0,0,0,0,0,0,0,-1,1399,1485,0,0
182,-461,0,0,0,0,0,0,0,0,0,-1,1406,1485,0,0
189,-461,0,0,0,0,0,0,0,0,0,-1,1413,1485,0,0
196,-461,0,0,0,0,0,0,0,0,0,-1,1420,1485,0,0
203,-461,0,0,0,0,0,0,0,0,0,-1,1427,1485,0,0
210,-461,0,0,0,0,0,0,0,0,0,-1,1434,1485,0,0
217,-461,0,0,0,0,0,0,0,0,0,-1,1441,1485,0,0
224,-461,0,0,0,0,0,0,0,0,0,-1,1448,1485,0,0
231,-461,0,0,0,0,0,0,0,0,0,-1,1455,1485,0,0
238,-461,0,0,0,0,0,0,0,0,0,-1,1462,1485,0,0
245,-461,0,0,0,0,0,0,0,0,0,-1,1469,1485,0,0
252,-461,0,0,0,0,0,0,0,0,0,-1,1476,1485,0,0
259,-461,0,0,0,0,0,0,0,0,0,-1,1483,1485,0,0
266,-461,0,0,0,0,0,0,0,0,0,-1,1490,1485,0,0
273,-461,0,0,0,0,0,0,0,0,0,-1,1497,1485,0,0
280,-461,0,0,0,0,0,0,0,0,0,-1,1504,1485,0,0
287,-461,0,0,0,0,0,0,0,0,0,-1,1511,1485,0,0
294,-461,0,0,0,0,0,0,0,0,0,-1,1518,1485,0,0
301,-461,0,0,0,0,0,0,0,0,0,-1,1525,1485,0,0
308,-461,0,0,0,0,0,0,0,0,0,-1,1532,1485,0,0
315,-461,0,0,0,0,0,0,0,0,0,-1,1539,1485,0,0
322,-461,0,0,0,0,0,0,0,0,0,-1,1546,1485,0,0
329,-461,0,0,0,0,0,0,0,0,0,-1,1553,1485,0,0
336,-461,0,0,0,0,0,0,0,0,0,-1,1560,1485,0,0
343,-461,0,0,0,0,0,0,0,0,0,-1,1567,1485,0,0
350,-461,0,0,0,0,0,0,0,0,0,-1,1574,1485,0,0
357,-461,0,0,0,0,0,0,0,0,0,-1,1581,1485,0,0
364,-461,0,0,0,0,0,0,0,0,0,-1,1588,1485,0,0
371,-461,0,0,0,0,0,0,0,0,0,-1,1595,1485,0,0
378,-461,0,0,0,0,0,0,0,0,0,-1,1602,1485,0,0
385,-461,0,0,0,0,0,0,0,0,0,-1,1609,1485,0,0
392,-461,0,0,0,0,0,0,0,0,0,-1,1616,1485,0,0
399,-461,0,0,0,0,0,0,0,0,0,-1,1623,1485,0,0
406,-461,0,0,0,0,0,0,0,0,0,-1,1630,1485,0,0
413,-461,0,0,0,0,0,0,0,0,0,-1,1637,1485,0,0
420,-461,0,0,0,0,0,0,0,0,0,-1,1644,1485,0,0
427,-461,0,0,0,0,0,0,0,0,0,-1,1651,1485,0,0
434,-461,0,0,0,0,0,0,0,0,0,-1,1658,1485,0,0
441,-461,0,0,0,0,0,0,0,0,0,-1,1665,1485,0,0
448,-461,0,0,0,0,0,0,0,0,0,-1,1672,1485,0,0
455,-461,0,0,0,0,0,0,0,0,0,-1,1679,1485,0,0
462,-461,0,0,0,0,0,0,0,0,0,-1,1686,1485,0,0
469,-461,0,0,0,0,0,0,0,0,0,-1,1693,1485,0,0
476,-461,14.1906,0.690552,0,0,0,0,0,0,0,-1,1700,1485,14.1906,-0.690525
483,-461,10.6361,3.09106,0,0,0,0,0,0,0,-1,1707,1485,10.6361,-3.091
490,-461,17.9972,0.665894,0,0,0,0,0,0,0,-1,1714,1485,17.9972,-0.665876
497,-461,16.6829,1.87732,0,0,0,0,0,0,0,-1,1721,1485,16.6828,-1.87736
504,-461,15.3884,3.09216,0,0,0,0,0,0,0,-1,1728,1485,15.3885,-3.09212
511,-461,15.4292,14.3512,0,0,0,0,0,0,0,-1,1735,1485,15.4292,-14.3512
518,-461,14.8081,10.0085,0,0,0,0,0,0,0,-1,1742,1485,14.8081,-10.0086
525,-461,14.0022,10.8033,0,0,0,0,0,0,0,-1,1749,1485,14.0022,-10.8033
532,-461,17.1704,14.077,0,0,0,0,0,0,0,-1,1756,1485,17.1704,-14.077
539,-461,17.0229,14.7386,0,0,0,0,0,0,0,-1,1763,1485,17.0229,-14.7387
546,-461,16.2106,14.1372,0,0,0,0,0,0,0,-1,1770,1485,16.2106,-14.1372
553,-461,25.9354,24.2889,0,0,0,0,0,0,0,-1,1777,1485,25.9354,-24.2889
560,-461,30.444,27.8711,0,0,0,0,0,0,0,-1,1784,1485,30.444,-27.8711
567,-461,30.4805,27.1115,0.00872911,0.0018762,-0.00210671,0.00932494,0.00128036,-0.275628,0.00583684,0.0340676,1791,1485,30.4805,-27.1115
574,-461,30.4957,26.4912,0.00689204,0.00156802,-0.00187531,0.00748626,0.000973796,-0.30686,0.00469999,0.0323947,1798,1485,30.4957,-26.4912
581,-461,30.4722,25.7472,0.00542559,0.00134818,-0.00165955,0.00601565,0.000758112,-0.341616,0.00378314,0.0182394,1805,1485,30.4722,-25.7472
588,-461,30.4418,25.0499,0.0042199,0.00107242,-0.00141988,0.00476577,0.000526563,-0.367023,0.00301701,0.0110243,1812,1485,30.4417,-25.0499
595,-461,30.3717,24.3641,0.00334371,0.00077406,-0.00115572,0.00378703,0.000330743,-0.366275,0.00242198,0.00897595,1819,1485,30.3717,-24.3641
602,-461,30.3304,23.6185,0.00274261,0.000427379,-0.000846685,0.0030192,0.000150787,-0.315747,0.00196447,0.00967481,1826,1485,30.3304,-23.6185
609,-461,30.3164,22.8865,0.00236613,0.000148032,-0.000486596,0.00246818,4.59802e-05,-0.20673,0.00163034,0.0109216,1833,1485,30.3164,-22.8865
616,-461,30.2952,22.1741,0.00218811,-5.61546e-05,-0.000131682,0.00219581,-6.38546e-05,-0.0584077,0.00148562,0.0130797,1840,1485,30.2952,-22.1741
623,-461,30.2964,21.4987,0.00233555,-0.000320767,0.000286176,0.00236603,-0.000351248,0.106112,0.00170653,0.0178528,1847,1485,30.2964,-21.4986
630,-461,30.2499,20.8311,0.00268047,-0.000591639,0.000778043,0.00285605,-0.000767221,0.221953,0.00220473,0.0184601,1854,1485,30.2499,-20.831
637,-461,30.177,20.0844,0.00324578,-0.000716733,0.00122984,0.00359645,-0.0010674,0.277764,0.00282156,0.0166197,1861,1485,30.1771,-20.0844
644,-461,30.2872,19.4518,0.00405027,-0.000611994,0.00158722,0.00453933,-0.00110105,0.298889,0.00345227,0.0347418,1868,1485,30.2873,-19.4518
651,-461,30.4708,18.7916,0,0,0,0,0,0,0,-1,1875,1485,30.4708,-18.7916
658,-461,16.8987,10.1084,0,0,0,0,0,0,0,-1,1882,1485,16.8986,-10.1084
665,-461,17.2638,9.81384,0,0,0,0,0,0,0,-1,1889,1485,17.2638,-9.81385
672,-461,14.4877,6.89429,0,0,0,0,0,0,0,-1,1896,1485,14.4876,-6.89431
679,-461,10.0535,2.16321,0,0,0,0,0,0,0,-1,1903,1485,10.0535,-2.16317
686,-461,10.8195,1.84192,0,0,0,0,0,0,0,-1,1910,1485,10.8194,-1.84195
693,-461,0,0,0,0,0,0,0,0,0,-1,1917,1485,0,0
700,-461,0,0,0,0,0,0,0,0,0,-1,1924,1485,0,0
707,-461,0,0,0,0,0,0,0,0,0,-1,1931,1485,0,0
714,-461,0,0,0,0,0,0,0,0,0,-1,1938,1485,0,0
721,-461,0,0,0,0,0,0,0,0,0,-1,1945,1485,0,0
728,-461,0,0,0,0,0,0,0,0,0,-1,1952,1485,0,0
735,-461,0,0,0,0,0,0,0,0,0,-1,1959,1485,0,0
742,-461,0,0,0,0,0,0,0,0,0,-1,1966,1485,0,0
749,-461,0,0,0,0,0,0,0,0,0,-1,1973,1485,0,0
756,-461,0,0,0,0,0,0,0,0,0,-1,1980,1485,0,0
763,-461,0,0,0,0,0,0,0,0,0,-1,1987,1485,0,0
770,-461,0,0,0,0,0,0,0,0,0,-1,1994,1485,0,0
777,-461,0,0,0,0,0,0,0,0,0,-1,2001,1485,0,0
784,-461,0,0,0,0,0,0,0,0,0,-1,2008,1485,0,0
791,-461,0,0,0,0,0,0,0,0,0,-1,2015,1485,0,0
798,-461,0,0,0,0,0,0,0,0,0,-1,2022,1485,0,0
805,-461,0,0,0,0,0,0,0,0,0,-1,2029,1485,0,0
812,-461,0,0,0,0,0,0,0,0,0,-1,2036,1485,0,0
-700,-468,0,0,0,0,0,0,0,0,0,-1,524,1492,0,0
-693,-468,0,0,0,0,0,0,0,0,0,-1,531,1492,0,0
-686,-468,0,0,0,0,0,0,0,0,0,-1,538,1492,0,0
-679,-468,0,0,0,0,0,0,0,0,0,-1,545,1492,0,0
-672,-468,0,0,0,0,0,0,0,0,0,-1,552,1492,0,0
-665,-468,0,0,0,0,0,0,0,0,0,-1,559,1492,0,0
-658,-468,0,0,0,0,0,0,0,0,0,-1,566,1492,0,0
-651,-468,0,0,0,0,0,0,0,0,0,-1,573,1492,0,0
-644,-468,0,0,0,0,0,0,0,0,0,-1,580,1492,0,0
-637,-468,0,0,0,0,0,0,0,0,0,-1,587,1492,0,0
-630,-468,0,0,0,0,0,0,0,0,0,-1,594,1492,0,0
-623,-468,0,0,0,0,0,0,0,0,0,-1,601,1492,0,0
-616,-468,0,0,0,0,0,0,0,0,0,-1,608,1492,0,0
-609,-468,0,0,0,0,0,0,0,0,0,-1,615,1492,0,0
-602,-468,0,0,0,0,0,0,0,0,0,-1,622,1492,0,0
-595,-468,0,0,0,0,0,0,0,0,0,-1,629,1492,0,0
-588,-468,0,0,0,0,0,0,0,0,0,-1,636,1492,0,0
-581,-468,0,0,0,0,0,0,0,0,0,-1,643,1492,0,0
-574,-468,0,0,0,0,0,0,0,0,0,-1,650,1492,0,0
-567,-468,-11.2603,1.8042,0,0,0,0,0,0,0,-1,657,1492,-11.2603,-1.80424
-560,-468,-8.77441,2.23694,0,0,0,0,0,0,0,-1,664,1492,-8.77443,-2.23692
-553,-468,-5.94061,9.26318,0,0,0,0,0,0,0,-1,671,1492,-5.94062,-9.26322
-546,-468,-10.47,5.43237,0,0,0,0,0,0,0,-1,678,1492,-10.47,-5.4324
-539,-468,-10.2468,5.45203,0,0,0,0,0,0,0,-1,685,1492,-10.2468,-5.45197
-532,-468,-8.39795,6.02783,0,0,0,0,0,0,0,-1,692,1492,-8.39793,-6.02789
-525,-468,-6.59332,7.15405,0,0,0,0,0,0,0,-1,699,1492,-6.59331,-7.15411
-518,-468,-6.33588,8.65393,0,0,0,0,0,0,0,-1,706,1492,-6.33588,-8.65397
-511,-468,-8.05835,13.8282,0,0,0,0,0,0,0,-1,713,1492,-8.05835,-13.8283
-504,-468,-12.0365,18.9531,0,0,0,0,0,0,0,-1,720,1492,-12.0365,-18.9531
-497,-468,-11.9962,19.8917,0.00334303,0.00412539,0.00485341,0.00860336,-0.00113493,0.825611,0.0061489,0.029545,727,1492,-11.9962,-19.8917
-490,-468,-11.9914,20.761,0.00243116,0.00278465,0.00346682,0.00607922,-0.00086342,0.810867,0.00436915,0.00872958,734,1492,-11.9914,-20.761
-483,-468,-12.0505,21.5083,0.00175702,0.00171769,0.00234036,0.0040778,-0.000603092,0.781197,0.00294025,0.00914459,741,1492,-12.0506,-21.5084
-476,-468,-12.0873,22.255,0.00141164,0.001152,0.00165191,0.00293883,-0.000375185,0.746186,0.0020955,0.00971948,748,1492,-12.0873,-22.2551
-469,-468,-12.1266,22.9957,0.00134064,0.00102237,0.00132833,0.00251933,-0.000156323,0.725782,0.00173401,0.013733,755,1492,-12.1267,-22.9958
-462,-468,-12.1199,23.7692,0.00153118,0.0012569,0.00131464,0.00271581,7.22694e-05,0.733427,0.00178694,0.0246997,762,1492,-12.1199,-23.7691
-455,-468,-12.1664,24.4618,0.00197457,0.00182848,0.00161934,0.00352251,0.000280541,0.762859,0.00226063,0.0265219,769,1492,-12.1665,-24.4617
-448,-468,-12.2197,25.2286,0.00275413,0.00294633,0.00238215,0.00523432,0.000466142,0.805557,0.00334501,0.0153215,776,1492,-12.2197,-25.2286
-441,-468,-12.2515,25.9761,0.00378262,0.00441915,0.00345642,0.00757193,0.000629844,0.831309,0.00485165,0.0170716,783,1492,-12.2515,-25.9761
-434,-468,-12.1953,26.8529,0.00509601,0.00626157,0.00490168,0.010615,0.000742583,0.844567,0.00684258,0.0411296,790,1492,-12.1952,-26.8529
-427,-468,-12.1722,27.7551,0,0,0,0,0,0,0,-1,797,1492,-12.1722,-27.7551
-420,-468,-7.57581,22.0538,0,0,0,0,0,0,0,-1,804,1492,-7.57582,-22.0538
-413,-468,-5.30328,17.3519,0,0,0,0,0,0,0,-1,811,1492,-5.30329,-17.352
-406,-468,-2.2356,9.396,0,0,0,0,0,0,0,-1,818,1492,-2.2356,-9.396
-399,-468,-0.940369,8.1936,0,0,0,0,0,0,0,-1,825,1492,-0.940365,-8.19357
-392,-468,-0.35144,8.14673,0,0,0,0,0,0,0,-1,832,1492,-0.351449,-8.14674
-385,-468,0.465759,5.35864,0,0,0,0,0,0,0,-1,839,1492,0.465732,-5.35864
-378,-468,1.99835,3.25391,0,0,0,0,0,0,0,-1,846,1492,1.99837,-3.2539
-371,-468,-0.31842,3.1532,0,0,0,0,0,0,0,-1,853,1492,-0.318441,-3.15324
-364,-468,-0.966736,2.14563,0,0,0,0,0,0,0,-1,860,1492,-0.966735,-2.14557
-357,-468,-3.06787,3.22742,0,0,0,0,0,0,0,-1,867,1492,-3.06784,-3.2274
-350,-468,-3.18658,4.12659,0,0,0,0,0,0,0,-1,874,1492,-3.18659,-4.12658
-343,-468,0,0,0,0,0,0,0,0,0,-1,881,1492,0,0
-336,-468,0,0,0,0,0,0,0,0,0,-1,888,1492,0,0
-329,-468,0,0,0,0,0,0,0,0,0,-1,895,1492,0,0
-322,-468,0,0,0,0,0,0,0,0,0,-1,902,1492,0,0
-315,-468,0,0,0,0,0,0,0,0,0,-1,909,1492,0,0
-308,-468,0,0,0,0,0,0,0,0,0,-1,916,1492,0,0
-301,-468,0,0,0,0,0,0,0,0,0,-1,923,1492,0,0
-294,-468,0,0,0,0,0,0,0,0,0,-1,930,1492,0,0
-287,-468,0,0,0,0,0,0,0,0,0,-1,937,1492,0,0
-280,-468,0,0,0,0,0,0,0,0,0,-1,944,1492,0,0
-273,-468,0,0,0,0,0,0,0,0,0,-1,951,1492,0,0
-266,-468,0,0,0,0,0,0,0,0,0,-1,958,1492,0,0
-259,-468,0,0,0,0,0,0,0,0,0,-1,965,1492,0,0
-252,-468,0,0,0,0,0,0,0,0,0,-1,972,1492,0,0
-245,-468,0,0,0,0,0,0,0,0,0,-1,979,1492,0,0
-238,-468,0,0,0,0,0,0,0,0,0,-1,986,1492,0,0
-231,-468,0,0,0,0,0,0,0,0,0,-1,993,1492,0,0
-224,-468,0,0,0,0,0,0,0,0,0,-1,1000,1492,0,0
-217,-468,0,0,0,0,0,0,0,0,0,-1,1007,1492,0,0
-210,-468,0,0,0,0,0,0,0,0,0,-1,1014,1492,0,0
-203,-468,0,0,0,0,0,0,0,0,0,-1,1021,1492,0,0
-196,-468,0,0,0,0,0,0,0,0,0,-1,1028,1492,0,0
-189,-468,0,0,0,0,0,0,0,0,0,-1,1035,1492,0,0
-182,-468,0,0,0,0,0,0,0,0,0,-1,1042,1492,0,0
-175,-468,0,0,0,0,0,0,0,0,0,-1,1049,1492,0,0
-168,-468,0,0,0,0,0,0,0,0,0,-1,1056,1492,0,0
-161,-468,0,0,0,0,0,0,0,0,0,-1,1063,1492,0,0
-154,-468,0,0,0,0,0,0,0,0,0,-1,1070,1492,0,0
-147,-468,0,0,0,0,0,0,0,0,0,-1,1077,1492,0,0
-140,-468,0,0,0,0,0,0,0,0,0,-1,1084,1492,0,0
-133,-468,0,0,0,0,0,0,0,0,0,-1,1091,1492,0,0
-126,-468,0,0,0,0,0,0,0,0,0,-1,1098,1492,0,0
-119,-468,0,0,0,0,0,0,0,0,0,-1,1105,1492,0,0
-112,-468,0,0,0,0,0,0,0,0,0,-1,1112,1492,0,0
-105,-468,0,0,0,0,0,0,0,0,0,-1,1119,1492,0,0
-98,-468,0,0,0,0,0,0,0,0,0,-1,1126,1492,0,0
-91,-468,0,0,0,0,0,0,0,0,0,-1,1133,1492,0,0
-84,-468,0,0,0,0,0,0,0,0,0,-1,1140,1492,0,0
-77,-468,0,0,0,0,0,0,0,0,0,-1,1147,1492,0,0
-70,-468,0,0,0,0,0,0,0,0,0,-1,1154,1492,0,0
-63,-468,0,0,0,0,0,0,0,0,0,-1,1161,1492,0,0
-56,-468,0,0,0,0,0,0,0,0,0,-1,1168,1492,0,0
-49,-468,0,0,0,0,0,0,0,0,0,-1,1175,1492,0,0
-42,-468,0,0,0,0,0,0,0,0,0,-1,1182,1492,0,0
-35,-468,0,0,0,0,0,0,0,0,0,-1,1189,1492,0,0
-28,-468,0,0,0,0,0,0,0,0,0,-1,1196,1492,0,0
-21,-468,0,0,0,0,0,0,0,0,0,-1,1203,1492,0,0
-14,-468,0,0,0,0,0,0,0,0,0,-1,1210,1492,0,0
-7,-468,0,0,0,0,0,0,0,0,0,-1,1217,1492,0,0
0,-468,0,0,0,0,0,0,0,0,0,-1,1224,1492,0,0
7,-468,0,0,0,0,0,0,0,0,0,-1,1231,1492,0,0
14,-468,0,0,0,0,0,0,0,0,0,-1,1238,1492,0,0
21,-468,0,0,0,0,0,0,0,0,0,-1,1245,1492,0,0
28,-468,0,0,0,0,0,0,0,0,0,-1,1252,1492,0,0
35,-468,0,0,0,0,0,0,0,0,0,-1,1259,1492,0,0
42,-468,0,0,0,0,0,0,0,0,0,-1,1266,1492,0,0
49,-468,0,0,0,0,0,0,0,0,0,-1,1273,1492,0,0
56,-468,0,0,0,0,0,0,0,0,0,-1,1280,1492,0,0
63,-468,0,0,0,0,0,0,0,0,0,-1,1287,1492,0,0
70,-468,0,0,0,0,0,0,0,0,0,-1,1294,1492,0,0
77,-468,0,0,0,0,0,0,0,0,0,-1,1301,1492,0,0
84,-468,0,0,0,0,0,0,0,0,0,-1,1308,1492,0,0
91,-468,0,0,0,0,0,0,0,0,0,-1,1315,1492,0,0
98,-468,0,0,0,0,0,0,0,0,0,-1,1322,1492,0,0
105,-468,0,0,0,0,0,0,0,0,0,-1,1329,1492,0,0
112,-468,0,0,0,0,0,0,0,0,0,-1,1336,1492,0,0
119,-468,0,0,0,0,0,0,0,0,0,-1,1343,1492,0,0
126,-468,0,0,0,0,0,0,0,0,0,-1,1350,1492,0,0
133,-468,0,0,0,0,0,0,0,0,0,-1,1357,1492,0,0
140,-468,0,0,0,0,0,0,0,0,0,-1,1364,1492,0,0
147,-468,0,0,0,0,0,0,0,0,0,-1,1371,1492,0,0
154,-468,0,0,0,0,0,0,0,0,0,-1,1378,1492,0,0
161,-468,0,0,0,0,0,0,0,0,0,-1,1385,1492,0,0
168,-468,0,0,0,0,0,0,0,0,0,-1,1392,1492,0,0
175,-468,0,0,0,0,0,0,0,0,0,-1,1399,1492,0,0
182,-468,0,0,0,0,0,0,0,0,0,-1,1406,1492,0,0
189,-468,0,0,0,0,0,0,0,0,0,-1,1413,1492,0,0
196,-468,0,0,0,0,0,0,0,0,0,-1,1420,1492,0,0
203,-468,0,0,0,0,0,0,0,0,0,-1,1427,1492,0,0
210,-468,0,0,0,0,0,0,0,0,0,-1,1434,1492,0,0
217,-468,0,0,0,0,0,0,0,0,0,-1,1441,1492,0,0
224,-468,0,0,0,0,0,0,0,0,0,-1,1448,1492,0,0
231,-468,0,0,0,0,0,0,0,0,0,-1,1455,1492,0,0
238,-468,0,0,0,0,0,0,0,0,0,-1,1462,1492,0,0
245,-468,0,0,0,0,0,0,0,0,0,-1,1469,1492,0,0
252,-468,0,0,0,0,0,0,0,0,0,-1,1476,1492,0,0
259,-468,0,0,0,0,0,0,0,0,0,-1,1483,1492,0,0
266,-468,0,0,0,0,0,0,0,0,0,-1,1490,1492,0,0
273,-468,0,0,0,0,0,0,0,0,0,-1,1497,1492,0,0
280,-468,0,0,0,0,0,0,0,0,0,-1,1504,1492,0,0
287,-468,0,0,0,0,0,0,0,0,0,-1,1511,1492,0,0
294,-468,0,0,0,0,0,0,0,0,0,-1,1518,1492,0,0
301,-468,0,0,0,0,0,0,0,0,0,-1,1525,1492,0,0
308,-468,0,0,0,0,0,0,0,0,0,-1,1532,1492,0,0
315,-468,0,0,0,0,0,0,0,0,0,-1,1539,1492,0,0
322,-468,0,0,0,0,0,0,0,0,0,-1,1546,1492,0,0
329,-468,0,0,0,0,0,0,0,0,0,-1,1553,1492,0,0
336,-468,0,0,0,0,0,0,0,0,0,-1,1560,1492,0,0
343,-468,0,0,0,0,0,0,0,0,0,-1,1567,1492,0,0
350,-468,0,0,0,0,0,0,0,0,0,-1,1574,1492,0,0
357,-468,0,0,0,0,0,0,0,0,0,-1,1581,1492,0,0
364,-468,0,0,0,0,0,0,0,0,0,-1,1588,1492,0,0
371,-468,0,0,0,0,0,0,0,0,0,-1,1595,1492,0,0
378,-468,0,0,0,0,0,0,0,0,0,-1,1602,1492,0,0
385,-468,0,0,0,0,0,0,0,0,0,-1,1609,1492,0,0
392,-468,0,0,0,0,0,0,0,0,0,-1,1616,1492,0,0
399,-468,0,0,0,0,0,0,0,0,0,-1,1623,1492,0,0
406,-468,0,0,0,0,0,0,0,0,0,-1,1630,1492,0,0
413,-468,0,0,0,0,0,0,0,0,0,-1,1637,1492,0,0
420,-468,0,0,0,0,0,0,0,0,0,-1,1644,1492,0,0
427,-468,0,0,0,0,0,0,0,0,0,-1,1651,1492,0,0
434,-468,0,0,0,0,0,0,0,0,0,-1,1658,1492,0,0
441,-468,0,0,0,0,0,0,0,0,0,-1,1665,1492,0,0
448,-468,0,0,0,0,0,0,0,0,0,-1,1672,1492,0,0
455,-468,0,0,0,0,0,0,0,0,0,-1,1679,1492,0,0
462,-468,0,0,0,0,0,0,0,0,0,-1,1686,1492,0,0
469,-468,15.6879,1.2677,0,0,0,0,0,0,0,-1,1693,1492,15.6879,-1.26772
476,-468,14.9318,1.61865,0,0,0,0,0,0,0,-1,1700,1492,14.9318,-1.61869
483,-468,11.265,4.64795,0,0,0,0,0,0,0,-1,1707,1492,11.265,-4.64798
490,-468,12.1316,3.51624,0,0,0,0,0,0,0,-1,1714,1492,12.1316,-3.51628
497,-468,16.5355,3.14587,0,0,0,0,0,0,0,-1,1721,1492,16.5356,-3.14583
504,-468,15.0642,4.10437,0,0,0,0,0,0,0,-1,1728,1492,15.0643,-4.10431
511,-468,15.6877,9.4801,0,0,0,0,0,0,0,-1,1735,1492,15.6878,-9.48007
518,-468,13.759,11.0887,0,0,0,0,0,0,0,-1,1742,1492,13.759,-11.0887
525,-468,16.6531,14.2238,0,0,0,0,0,0,0,-1,1749,1492,16.653,-14.2237
532,-468,16.9696,15.9641,0,0,0,0,0,0,0,-1,1756,1492,16.9696,-15.9641
539,-468,21.5308,20.7551,0,0,0,0,0,0,0,-1,1763,1492,21.5308,-20.7551
546,-468,25.5796,25.0283,0,0,0,0,0,0,0,-1,1770,1492,25.5796,-25.0284
553,-468,29.5081,28.5859,0,0,0,0,0,0,0,-1,1777,1492,29.508,-28.5859
560,-468,29.7333,27.9149,0.0100405,0.00328347,-0.00304125,0.0112077,0.00211626,-0.366456,0.00687581,0.0406036,1784,1492,29.7333,-27.915
567,-468,29.7578,27.2727,0.00772784,0.00220633,-0.00216513,0.00847558,0.00145858,-0.332533,0.0052324,0.0213338,1791,1492,29.7579,-27.2727
574,-468,29.7942,26.5183,0.00608206,0.00165422,-0.00179526,0.00671847,0.00101781,-0.340674,0.00418121,0.015955,1798,1492,29.7942,-26.5183
581,-468,29.7738,25.8027,0.00474177,0.00125147,-0.0014888,0.00529054,0.000702692,-0.353148,0.0033177,0.0161414,1805,1492,29.7738,-25.8027
588,-468,29.7019,25.0942,0.0037146,0.000888097,-0.00122502,0.00417163,0.000431068,-0.357086,0.00264912,0.0124168,1812,1492,29.7019,-25.0943
595,-468,29.6617,24.387,0.00304184,0.000544424,-0.000934637,0.00335288,0.000233383,-0.321265,0.00216166,0.0102098,1819,1492,29.6618,-24.387
602,-468,29.6331,23.6584,0.00257528,0.000207136,-0.00064786,0.00274093,4.1486e-05,-0.250325,0.00181361,0.00932066,1826,1492,29.633,-23.6585
609,-468,29.5861,22.929,0.00232212,-4.56196e-05,-0.000301194,0.00235983,-8.33331e-05,-0.124565,0.00160172,0.00998949,1833,1492,29.586,-22.9289
616,-468,29.5596,22.2164,0.00227244,-0.000251674,8.67566e-05,0.00227542,-0.000254653,0.0343172,0.00160856,0.0100443,1840,1492,29.5596,-22.2164
623,-468,29.5426,21.5344,0.00250925,-0.000548007,0.000593748,0.00262051,-0.000659269,0.185241,0.00200326,0.0120595,1847,1492,29.5427,-21.5344
630,-468,29.5176,20.8279,0.0029088,-0.000836226,0.00122892,0.00327605,-0.00120348,0.290394,0.00267694,0.0130573,1854,1492,29.5176,-20.8279
637,-468,29.4794,20.0698,0.003504,-0.00101621,0.00188761,0.00418858,-0.00170079,0.347916,0.00349989,0.0153835,1861,1492,29.4793,-20.0698
644,-468,29.4991,19.494,0.00427903,-0.00102464,0.00256213,0.00531457,-0.00206018,0.384097,0.00439384,0.0356814,1868,1492,29.4992,-19.494
651,-468,29.6801,18.892,0,0,0,0,0,0,0,-1,1875,1492,29.6801,-18.8919
658,-468,16.4969,10.0774,0,0,0,0,0,0,0,-1,1882,1492,16.497,-10.0774
665,-468,15.4673,8.59546,0,0,0,0,0,0,0,-1,1889,1492,15.4672,-8.59548
672,-468,9.96814,3.61133,0,0,0,0,0,0,0,-1,1896,1492,9.96817,-3.61139
679,-468,11.2191,1.91968,0,0,0,0,0,0,0,-1,1903,1492,11.2191,-1.91965
686,-468,11.9252,1.42285,0,0,0,0,0,0,0,-1,1910,1492,11.9252,-1.42291
693,-468,0,0,0,0,0,0,0,0,0,-1,1917,1492,0,0
700,-468,0,0,0,0,0,0,0,0,0,-1,1924,1492,0,0
707,-468,0,0,0,0,0,0,0,0,0,-1,1931,1492,0,0
714,-468,0,0,0,0,0,0,0,0,0,-1,1938,1492,0,0
721,-468,0,0,0,0,0,0,0,0,0,-1,1945,1492,0,0
728,-468,0,0,0,0,0,0,0,0,0,-1,1952,1492,0,0
735,-468,0,0,0,0,0,0,0,0,0,-1,1959,1492,0,0
742,-468,0,0,0,0,0,0,0,0,0,-1,1966,1492,0,0
749,-468,0,0,0,0,0,0,0,0,0,-1,1973,1492,0,0
756,-468,0,0,0,0,0,0,0,0,0,-1,1980,1492,0,0
763,-468,0,0,0,0,0,0,0,0,0,-1,1987,1492,0,0
770,-468,0,0,0,0,0,0,0,0,0,-1,1994,1492,0,0
777,-468,0,0,0,0,0,0,0,0,0,-1,2001,1492,0,0
784,-468,0,0,0,0,0,0,0,0,0,-1,2008,1492,0,0
791,-468,0,0,0,0,0,0,0,0,0,-1,2015,1492,0,0
798,-468,0,0,0,0,0,0,0,0,0,-1,2022,1492,0,0
805,-468,0,0,0,0,0,0,0,0,0,-1,2029,1492,0,0
812,-468,0,0,0,0,0,0,0,0,0,-1,2036,1492,0,0
-700,-475,0,0,0,0,0,0,0,0,0,-1,524,1499,0,0
-693,-475,0,0,0,0,0,0,0,0,0,-1,531,1499,0,0
-686,-475,0,0,0,0,0,0,0,0,0,-1,538,1499,0,0
-679,-475,0,0,0,0,0,0,0,0,0,-1,545,1499,0,0
-672,-475,0,0,0,0,0,0,0,0,0,-1,552,1499,0,0
-665,-475,0,0,0,0,0,0,0,0,0,-1,559,1499,0,0
-658,-475,0,0,0,0,0,0,0,0,0,-1,566,1499,0,0
-651,-475,0,0,0,0,0,0,0,0,0,-1,573,1499,0,0
-644,-475,0,0,0,0,0,0,0,0,0,-1,580,1499,0,0
-637,-475,0,0,0,0,0,0,0,0,0,-1,587,1499,0,0
-630,-475,0,0,0,0,0,0,0,0,0,-1,594,1499,0,0
-623,-475,0,0,0,0,0,0,0,0,0,-1,601,1499,0,0
-616,-475,0,0,0,0,0,0,0,0,0,-1,608,1499,0,0
-609,-475,0,0,0,0,0,0,0,0,0,-1,615,1499,0,0
-602,-475,0,0,0,0,0,0,0,0,0,-1,622,1499,0,0
-595,-475,0,0,0,0,0,0,0,0,0,-1,629,1499,0,0
-588,-475,0,0,0,0,0,0,0,0,0,-1,636,1499,0,0
-581,-475,0,0,0,0,0,0,0,0,0,-1,643,1499,0,0
-574,-475,0,0,0,0,0,0,0,0,0,-1,650,1499,0,0
-567,-475,0,0,0,0,0,0,0,0,0,-1,657,1499,0,0
-560,-475,-9.42731,9.29517,0,0,0,0,0,0,0,-1,664,1499,-9.42731,-9.29519
-553,-475,-8.15131,8.78369,0,0,0,0,0,0,0,-1,671,1499,-8.15131,-8.78367
-546,-475,-8.41254,8.20654,0,0,0,0,0,0,0,-1,678,1499,-8.41251,-8.20655
-539,-475,-4.7345,4.17419,0,0,0,0,0,0,0,-1,685,1499,-4.73449,-4.17418
-532,-475,-7.07379,4.25024,0,0,0,0,0,0,0,-1,692,1499,-7.07378,-4.2503
-525,-475,-6.13147,5.82166,0,0,0,0,0,0,0,-1,699,1499,-6.1315,-5.8216
-518,-475,-7.28784,9.31506,0,0,0,0,0,0,0,-1,706,1499,-7.28782,-9.315
-511,-475,-6.84851,12.4244,0,0,0,0,0,0,0,-1,713,1499,-6.84851,-12.4244
-504,-475,-8.80957,16.0863,0,0,0,0,0,0,0,-1,720,1499,-8.80954,-16.0862
-497,-475,-11.3164,19.8522,0,0,0,0,0,0,0,-1,727,1499,-11.3164,-19.8521
-490,-475,-11.275,20.7628,0.0026028,0.00251306,0.00399947,0.00655765,-0.00144179,0.779789,0.00492325,0.0182853,734,1499,-11.275,-20.7628
-483,-475,-11.2797,21.5762,0.00178507,0.00127381,0.00265643,0.00419814,-0.00113926,0.73743,0.00324586,0.00859572,741,1499,-11.2797,-21.5762
-476,-475,-11.316,22.3135,0.00134205,0.000637753,0.00180372,0.00282767,-0.000847868,0.688993,0.00222232,0.0107001,748,1499,-11.316,-22.3135
-469,-475,-11.3672,23.0579,0.00120021,0.000510016,0.00138633,0.00228375,-0.000573525,0.663414,0.00174537,0.014314,755,1499,-11.3672,-23.0579
-462,-475,-11.3547,23.814,0.00131581,0.000783317,0.00127772,0.00235473,-0.000255605,0.682681,0.00166159,0.0201806,762,1499,-11.3547,-23.814
-455,-475,-11.4054,24.572,0.00167212,0.00138763,0.0014676,0.00300435,5.54018e-05,0.737087,0.00198469,0.017757,769,1499,-11.4054,-24.572
-448,-475,-11.4893,25.2992,0.00230382,0.0024921,0.00204648,0.0044466,0.000349321,0.808383,0.00285509,0.015326,776,1499,-11.4893,-25.2992
-441,-475,-11.5239,26.0388,0.00313182,0.00389293,0.00288703,0.00642438,0.000600371,0.850928,0.00409748,0.0164205,783,1499,-11.5239,-26.0388
-434,-475,-11.5361,26.7478,0.00418793,0.00561202,0.00403232,0.00899468,0.000805264,0.872789,0.00574687,0.0119554,790,1499,-11.5361,-26.7478
-427,-475,-11.4778,27.641,0.00558504,0.0078984,0.00559668,0.0124567,0.00102676,0.887299,0.00798424,0.040053,797,1499,-11.4778,-27.641
-420,-475,-11.3509,28.5355,0,0,0,0,0,0,0,-1,804,1499,-11.3509,-28.5355
-413,-475,-6.46777,20.8481,0,0,0,0,0,0,0,-1,811,1499,-6.46776,-20.8481
-406,-475,-2.56116,12.4956,0,0,0,0,0,0,0,-1,818,1499,-2.56116,-12.4956
-399,-475,-1.39667,6.1615,0,0,0,0,0,0,0,-1,825,1499,-1.39664,-6.16155
-392,-475,0.217163,8.61389,0,0,0,0,0,0,0,-1,832,1499,0.217167,-8.6139
-385,-475,1.18372,2.73999,0,0,0,0,0,0,0,-1,839,1499,1.18372,-2.73995
-378,-475,1.31409,2.90149,0,0,0,0,0,0,0,-1,846,1499,1.31411,-2.90151
-371,-475,2.3476,3.31116,0,0,0,0,0,0,0,-1,853,1499,2.34761,-3.31121
-364,-475,1.04462,9.05823,0,0,0,0,0,0,0,-1,860,1499,1.04461,-9.05825
-357,-475,-0.262756,7.97205,0,0,0,0,0,0,0,-1,867,1499,-0.262784,-7.97205
-350,-475,-5.16473,-1.27881,0,0,0,0,0,0,0,-1,874,1499,-5.16474,1.27884
-343,-475,-5.76923,-0.530518,0,0,0,0,0,0,0,-1,881,1499,-5.76923,0.530526
-336,-475,0,0,0,0,0,0,0,0,0,-1,888,1499,0,0
-329,-475,0,0,0,0,0,0,0,0,0,-1,895,1499,0,0
-322,-475,0,0,0,0,0,0,0,0,0,-1,902,1499,0,0
-315,-475,0,0,0,0,0,0,0,0,0,-1,909,1499,0,0
-308,-475,0,0,0,0,0,0,0,0,0,-1,916,1499,0,0
-301,-475,0,0,0,0,0,0,0,0,0,-1,923,1499,0,0
-294,-475,0,0,0,0,0,0,0,0,0,-1,930,1499,0,0
-287,-475,0,0,0,0,0,0,0,0,0,-1,937,1499,0,0
-280,-475,0,0,0,0,0,0,0,0,0,-1,944,1499,0,0
-273,-475,0,0,0,0,0,0,0,0,0,-1,951,1499,0,0
-266,-475,0,0,0,0,0,0,0,0,0,-1,958,1499,0,0
-259,-475,0,0,0,0,0,0,0,0,0,-1,965,1499,0,0
-252,-475,0,0,0,0,0,0,0,0,0,-1,972,1499,0,0
-245,-475,0,0,0,0,0,0,0,0,0,-1,979,1499,0,0
-238,-475,0,0,0,0,0,0,0,0,0,-1,986,1499,0,0
-231,-475,0,0,0,0,0,0,0,0,0,-1,993,1499,0,0
-224,-475,0,0,0,0,0,0,0,0,0,-1,1000,1499,0,0
-217,-475,0,0,0,0,0,0,0,0,0,-1,1007,1499,0,0
-210,-475,0,0,0,0,0,0,0,0,0,-1,1014,1499,0,0
-203,-475,0,0,0,0,0,0,0,0,0,-1,1021,1499,0,0
-196,-475,0,0,0,0,0,0,0,0,0,-1,1028,1499,0,0
-189,-475,0,0,0,0,0,0,0,0,0,-1,1035,1499,0,0
-182,-475,0,0,0,0,0,0,0,0,0,-1,1042,1499,0,0
-175,-475,0,0,0,0,0,0,0,0,0,-1,1049,1499,0,0
-168,-475,0,0,0,0,0,0,0,0,0,-1,1056,1499,0,0
-161,-475,0,0,0,0,0,0,0,0,0,-1,1063,1499,0,0
-154,-475,0,0,0,0,0,0,0,0,0,-1,1070,1499,0,0
-147,-475,0,0,0,0,0,0,0,0,0,-1,1077,1499,0,0
-140,-475,0,0,0,0,0,0,0,0,0,-1,1084,1499,0,0
-133,-475,0,0,0,0,0,0,0,0,0,-1,1091,1499,0,0
-126,-475,0,0,0,0,0,0,0,0,0,-1,1098,1499,0,0
-119,-475,0,0,0,0,0,0,0,0,0,-1,1105,1499,0,0
-112,-475,0,0,0,0,0,0,0,0,0,-1,1112,1499,0,0
-105,-475,0,0,0,0,0,0,0,0,0,-1,1119,1499,0,0
-98,-475,0,0,0,0,0,0,0,0,0,-1,1126,1499,0,0
-91,-475,0,0,0,0,0,0,0,0,0,-1,1133,1499,0,0
-84,-475,0,0,0,0,0,0,0,0,0,-1,1140,1499,0,0
-77,-475,0,0,0,0,0,0,0,0,0,-1,1147,1499,0,0
-70,-475,0,0,0,0,0,0,0,0,0,-1,1154,1499,0,0
-63,-475,0,0,0,0,0,0,0,0,0,-1,1161,1499,0,0
-56,-475,0,0,0,0,0,0,0,0,0,-1,1168,1499,0,0
-49,-475,0,0,0,0,0,0,0,0,0,-1,1175,1499,0,0
-42,-475,0,0,0,0,0,0,0,0,0,-1,1182,1499,0,0
-35,-475,0,0,0,0,0,0,0,0,0,-1,1189,1499,0,0
-28,-475,0,0,0,0,0,0,0,0,0,-1,1196,1499,0,0
-21,-475,0,0,0,0,0,0,0,0,0,-1,1203,1499,0,0
-14,-475,0,0,0,0,0,0,0,0,0,-1,1210,1499,0,0
-7,-475,0,0,0,0,0,0,0,0,0,-1,1217,1499,0,0
0,-475,0,0,0,0,0,0,0,0,0,-1,1224,1499,0,0
7,-475,0,0,0,0,0,0,0,0,0,-1,1231,1499,0,0
14,-475,0,0,0,0,0,0,0,0,0,-1,1238,1499,0,0
21,-475,0,0,0,0,0,0,0,0,0,-1,1245,1499,0,0
28,-475,0,0,0,0,0,0,0,0,0,-1,1252,1499,0,0
35,-475,0,0,0,0,0,0,0,0,0,-1,1259,1499,0,0
42,-475,0,0,0,0,0,0,0,0,0,-1,1266,1499,0,0
49,-475,0,0,0,0,0,0,0,0,0,-1,1273,1499,0,0
56,-475,0,0,0,0,0,0,0,0,0,-1,1280,1499,0,0
63,-475,0,0,0,0,0,0,0,0,0,-1,1287,1499,0,0
70,-475,0,0,0,0,0,0,0,0,0,-1,1294,1499,0,0
77,-475,0,0,0,0,0,0,0,0,0,-1,1301,1499,0,0
84,-475,0,0,0,0,0,0,0,0,0,-1,1308,1499,0,0
91,-475,0,0,0,0,0,0,0,0,0,-1,1315,1499,0,0
98,-475,0,0,0,0,0,0,0,0,0,-1,1322,1499,0,0
105,-475,0,0,0,0,0,0,0,0,0,-1,1329,1499,0,0
112,-475,0,0,0,0,0,0,0,0,0,-1,1336,1499,0,0
119,-475,0,0,0,0,0,0,0,0,0,-1,1343,1499,0,0
126,-475,0,0,0,0,0,0,0,0,0,-1,1350,1499,0,0
133,-475,0,0,0,0,0,0,0,0,0,-1,1357,1499,0,0
140,-475,0,0,0,0,0,0,0,0,0,-1,1364,1499,0,0
147,-475,0,0,0,0,0,0,0,0,0,-1,1371,1499,0,0
154,-475,0,0,0,0,0,0,0,0,0,-1,1378,1499,0,0
161,-475,0,0,0,0,0,0,0,0,0,-1,1385,1499,0,0
168,-475,0,0,0,0,0,0,0,0,0,-1,1392,1499,0,0
175,-475,0,0,0,0,0,0,0,0,0,-1,1399,1499,0,0
182,-475,0,0,0,0,0,0,0,0,0,-1,1406,1499,0,0
189,-475,0,0,0,0,0,0,0,0,0,-1,1413,1499,0,0
196,-475,0,0,0,0,0,0,0,0,0,-1,1420,1499,0,0
203,-475,0,0,0,0,0,0,0,0,0,-1,1427,1499,0,0
210,-475,0,0,0,0,0,0,0,0,0,-1,1434,1499,0,0
217,-475,0,0,0,0,0,0,0,0,0,-1,1441,1499,0,0
224,-475,0,0,0,0,0,0,0,0,0,-1,1448,1499,0,0
231,-475,0,0,0,0,0,0,0,0,0,-1,1455,1499,0,0
238,-475,0,0,0,0,0,0,0,0,0,-1,1462,1499,0,0
245,-475,0,0,0,0,0,0,0,0,0,-1,1469,1499,0,0
252,-475,0,0,0,0,0,0,0,0,0,-1,1476,1499,0,0
259,-475,0,0,0,0,0,0,0,0,0,-1,1483,1499,0,0
266,-475,0,0,0,0,0,0,0,0,0,-1,1490,1499,0,0
273,-475,0,0,0,0,0,0,0,0,0,-1,1497,1499,0,0
280,-475,0,0,0,0,0,0,0,0,0,-1,1504,1499,0,0
287,-475,0,0,0,0,0,0,0,0,0,-1,1511,1499,0,0
294,-475,0,0,0,0,0,0,0,0,0,-1,1518,1499,0,0
301,-475,0,0,0,0,0,0,0,0,0,-1,1525,1499,0,0
308,-475,0,0,0,0,0,0,0,0,0,-1,1532,1499,0,0
315,-475,0,0,0,0,0,0,0,0,0,-1,1539,1499,0,0
322,-475,0,0,0,0,0,0,0,0,0,-1,1546,1499,0,0
329,-475,0,0,0,0,0,0,0,0,0,-1,1553,1499,0,0
336,-475,0,0,0,0,0,0,0,0,0,-1,1560,1499,0,0
343,-475,0,0,0,0,0,0,0,0,0,-1,1567,1499,0,0
350,-475,0,0,0,0,0,0,0,0,0,-1,1574,1499,0,0
357,-475,0,0,0,0,0,0,0,0,0,-1,1581,1499,0,0
364,-475,0,0,0,0,0,0,0,0,0,-1,1588,1499,0,0
371,-475,0,0,0,0,0,0,0,0,0,-1,1595,1499,0,0
378,-475,0,0,0,0,0,0,0,0,0,-1,1602,1499,0,0
385,-475,0,0,0,0,0,0,0,0,0,-1,1609,1499,0,0
392,-475,0,0,0,0,0,0,0,0,0,-1,1616,1499,0,0
399,-475,0,0,0,0,0,0,0,0,0,-1,1623,1499,0,0
406,-475,0,0,0,0,0,0,0,0,0,-1,1630,1499,0,0
413,-475,0,0,0,0,0,0,0,0,0,-1,1637,1499,0,0
420,-475,0,0,0,0,0,0,0,0,0,-1,1644,1499,0,0
427,-475,0,0,0,0,0,0,0,0,0,-1,1651,1499,0,0
434,-475,0,0,0,0,0,0,0,0,0,-1,1658,1499,0,0
441,-475,0,0,0,0,0,0,0,0,0,-1,1665,1499,0,0
448,-475,0,0,0,0,0,0,0,0,0,-1,1672,1499,0,0
455,-475,0,0,0,0,0,0,0,0,0,-1,1679,1499,0,0
462,-475,12.6372,0.275391,0,0,0,0,0,0,0,-1,1686,1499,12.6372,-0.27536
469,-475,15.6437,2.28296,0,0,0,0,0,0,0,-1,1693,1499,15.6437,-2.28293
476,-475,15.3302,2.71436,0,0,0,0,0,0,0,-1,1700,1499,15.3303,-2.7143
483,-475,10.7461,5.91479,0,0,0,0,0,0,0,-1,1707,1499,10.7461,-5.91476
490,-475,11.9305,4.4364,0,0,0,0,0,0,0,-1,1714,1499,11.9305,-4.43644
497,-475,15.3451,4.3479,0,0,0,0,0,0,0,-1,1721,1499,15.3451,-4.34789
504,-475,16.9646,7.71265,0,0,0,0,0,0,0,-1,1728,1499,16.9646,-7.71265
511,-475,18.941,12.7572,0,0,0,0,0,0,0,-1,1735,1499,18.941,-12.7572
518,-475,17.0021,13.8564,0,0,0,0,0,0,0,-1,1742,1499,17.0021,-13.8564
525,-475,17.5637,15.2103,0,0,0,0,0,0,0,-1,1749,1499,17.5637,-15.2103
532,-475,20.8623,20.8413,0,0,0,0,0,0,0,-1,1756,1499,20.8623,-20.8413
539,-475,20.5494,20.8519,0,0,0,0,0,0,0,-1,1763,1499,20.5494,-20.852
546,-475,20.4524,19.8799,0,0,0,0,0,0,0,-1,1770,1499,20.4524,-19.8798
553,-475,28.766,28.8895,0,0,0,0,0,0,0,-1,1777,1499,28.7659,-28.8896
560,-475,28.9113,28.0903,0.00853822,0.00335274,-0.0029597,0.00988021,0.00201075,-0.425696,0.00602937,0.0303234,1784,1499,28.9112,-28.0903
567,-475,29.1074,27.2451,0.00665831,0.00222897,-0.00210872,0.00750166,0.00138562,-0.380449,0.00460919,0.0151115,1791,1499,29.1074,-27.2452
574,-475,29.0686,26.5378,0.0052989,0.00158894,-0.00169793,0.00595866,0.000929179,-0.370613,0.00370179,0.0145812,1798,1499,29.0687,-26.5379
581,-475,29.024,25.8407,0.0041596,0.00111324,-0.00136522,0.00468188,0.000590961,-0.365383,0.00294411,0.012294,1805,1499,29.0241,-25.8407
588,-475,28.975,25.1359,0.00332233,0.000736258,-0.00111228,0.00373491,0.000323681,-0.355196,0.00238936,0.0107905,1812,1499,28.9749,-25.1359
595,-475,28.9565,24.4147,0.00283955,0.000400394,-0.000822227,0.00309083,0.000149113,-0.296596,0.00201269,0.0123887,1819,1499,28.9566,-24.4147
602,-475,28.9218,23.6752,0.00251426,0.000110956,-0.000578142,0.00264611,-2.08897e-05,-0.224216,0.00177108,0.0140625,1826,1499,28.9218,-23.6751
609,-475,28.8766,22.9839,0.00238272,-9.24198e-05,-0.000258962,0.00240952,-0.000119223,-0.103137,0.00164753,0.0132276,1833,1499,28.8766,-22.9839
616,-475,28.8331,22.29,0.00247511,-0.000306427,0.000159233,0.0024842,-0.000315513,0.0569981,0.0017707,0.0124926,1840,1499,28.8332,-22.2901
623,-475,28.8153,21.5573,0.00279647,-0.000650528,0.000768218,0.00295993,-0.000813986,0.209649,0.00229328,0.0115105,1847,1499,28.8152,-21.5573
630,-475,28.7809,20.8422,0.00321508,-0.000977227,0.00158017,0.00374396,-0.00150611,0.322978,0.00312157,0.0140868,1854,1499,28.7809,-20.8422
637,-475,28.7347,20.1329,0.00377516,-0.00126266,0.00252337,0.00482168,-0.00230918,0.393141,0.00420133,0.0241046,1861,1499,28.7347,-20.1329
644,-475,28.7021,19.5347,0.00440233,-0.00149938,0.00367572,0.00616513,-0.00326217,0.447176,0.0055282,0.0498977,1868,1499,28.7021,-19.5346
651,-475,28.8864,18.8949,0,0,0,0,0,0,0,-1,1875,1499,28.8863,-18.8949
658,-475,14.6708,8.80322,0,0,0,0,0,0,0,-1,1882,1499,14.6708,-8.8032
665,-475,9.33435,5.43335,0,0,0,0,0,0,0,-1,1889,1499,9.33439,-5.43332
672,-475,9.38635,1.10474,0,0,0,0,0,0,0,-1,1896,1499,9.38629,-1.10475
679,-475,12.2594,1.31079,0,0,0,0,0,0,0,-1,1903,1499,12.2594,-1.31077
686,-475,0,0,0,0,0,0,0,0,0,-1,1910,1499,0,0
693,-475,0,0,0,0,0,0,0,0,0,-1,1917,1499,0,0
700,-475,0,0,0,0,0,0,0,0,0,-1,1924,1499,0,0
707,-475,0,0,0,0,0,0,0,0,0,-1,1931,1499,0,0
714,-475,0,0,0,0,0,0,0,0,0,-1,1938,1499,0,0
721,-475,0,0,0,0,0,0,0,0,0,-1,1945,1499,0,0
728,-475,0,0,0,0,0,0,0,0,0,-1,1952,1499,0,0
735,-475,0,0,0,0,0,0,0,0,0,-1,1959,1499,0,0
742,-475,0,0,0,0,0,0,0,0,0,-1,1966,1499,0,0
749,-475,0,0,0,0,0,0,0,0,0,-1,1973,1499,0,0
756,-475,0,0,0,0,0,0,0,0,0,-1,1980,1499,0,0
763,-475,0,0,0,0,0,0,0,0,0,-1,1987,1499,0,0
770,-475,0,0,0,0,0,0,0,0,0,-1,1994,1499,0,0
777,-475,0,0,0,0,0,0,0,0,0,-1,2001,1499,0,0
784,-475,0,0,0,0,0,0,0,0,0,-1,2008,1499,0,0
791,-475,0,0,0,0,0,0,0,0,0,-1,2015,1499,0,0
798,-475,0,0,0,0,0,0,0,0,0,-1,2022,1499,0,0
805,-475,0,0,0,0,0,0,0,0,0,-1,2029,1499,0,0
812,-475,0,0,0,0,0,0,0,0,0,-1,2036,1499,0,0
-700,-482,0,0,0,0,0,0,0,0,0,-1,524,1506,0,0
-693,-482,0,0,0,0,0,0,0,0,0,-1,531,1506,0,0
-686,-482,0,0,0,0,0,0,0,0,0,-1,538,1506,0,0
-679,-482,0,0,0,0,0,0,0,0,0,-1,545,1506,0,0
-672,-482,0,0,0,0,0,0,0,0,0,-1,552,1506,0,0
-665,-482,0,0,0,0,0,0,0,0,0,-1,559,1506,0,0
-658,-482,0,0,0,0,0,0,0,0,0,-1,566,1506,0,0
-651,-482,0,0,0,0,0,0,0,0,0,-1,573,1506,0,0
-644,-482,0,0,0,0,0,0,0,0,0,-1,580,1506,0,0
-637,-482,0,0,0,0,0,0,0,0,0,-1,587,1506,0,0
-630,-482,0,0,0,0,0,0,0,0,0,-1,594,1506,0,0
-623,-482,0,0,0,0,0,0,0,0,0,-1,601,1506,0,0
-616,-482,0,0,0,0,0,0,0,0,0,-1,608,1506,0,0
-609,-482,0,0,0,0,0,0,0,0,0,-1,615,1506,0,0
-602,-482,0,0,0,0,0,0,0,0,0,-1,622,1506,0,0
-595,-482,0,0,0,0,0,0,0,0,0,-1,629,1506,0,0
-588,-482,0,0,0,0,0,0,0,0,0,-1,636,1506,0,0
-581,-482,0,0,0,0,0,0,0,0,0,-1,643,1506,0,0
-574,-482,0,0,0,0,0,0,0,0,0,-1,650,1506,0,0
-567,-482,0,0,0,0,0,0,0,0,0,-1,657,1506,0,0
-560,-482,0,0,0,0,0,0,0,0,0,-1,664,1506,0,0
-553,-482,-9.06055,9.34314,0,0,0,0,0,0,0,-1,671,1506,-9.06056,-9.34312
-546,-482,-4.08624,8.34241,0,0,0,0,0,0,0,-1,678,1506,-4.08624,-8.3424
-539,-482,-4.29877,2.73499,0,0,0,0,0,0,0,-1,685,1506,-4.29879,-2.73494
-532,-482,-3.63611,4.23987,0,0,0,0,0,0,0,-1,692,1506,-3.63609,-4.23983
-525,-482,-6.19116,5.24927,0,0,0,0,0,0,0,-1,699,1506,-6.19117,-5.24927
-518,-482,-5.92957,6.39807,0,0,0,0,0,0,0,-1,706,1506,-5.92958,-6.39806
-511,-482,-7.74634,11.9137,0,0,0,0,0,0,0,-1,713,1506,-7.74633,-11.9137
-504,-482,-6.42358,13.4211,0,0,0,0,0,0,0,-1,720,1506,-6.42356,-13.4212
-497,-482,-8.86163,17.7108,0,0,0,0,0,0,0,-1,727,1506,-8.86163,-17.7109
-490,-482,-10.5699,20.7281,0,0,0,0,0,0,0,-1,734,1506,-10.5699,-20.7281
-483,-482,-10.5425,21.5786,0.00219335,0.00072023,0.00361408,0.00514517,-0.00223159,0.684873,0.0043683,0.0114522,741,1506,-10.5425,-21.5786
-476,-482,-10.5594,22.35,0.00158257,-1.96633e-06,0.00250704,0.00341955,-0.00183895,0.632356,0.00308137,0.0103156,748,1506,-10.5594,-22.35
-469,-482,-10.6223,23.1133,0.00129757,-0.000160512,0.00189526,0.00259917,-0.00146212,0.60179,0.00237522,0.0129712,755,1506,-10.6222,-23.1133
-462,-482,-10.6645,23.8428,0.00126484,0.00011943,0.00157217,0.00236537,-0.000981101,0.61073,0.00198642,0.0143659,762,1506,-10.6645,-23.8428
-455,-482,-10.7028,24.5603,0.00146416,0.000732321,0.00151651,0.00265827,-0.000461793,0.667016,0.00194448,0.0137196,769,1506,-10.7028,-24.5603
-448,-482,-10.7518,25.3433,0.00190673,0.00180142,0.00179283,0.00364768,6.04732e-05,0.770718,0.00241188,0.0142082,776,1506,-10.7519,-25.3433
-441,-482,-10.7769,26.0638,0.00252188,0.00312192,0.00229205,0.00513351,0.000510298,0.850476,0.00326556,0.0132931,783,1506,-10.7769,-26.0638
-434,-482,-10.8101,26.7874,0.00333407,0.00472158,0.00304515,0.00715101,0.000904645,0.897398,0.00449623,0.0154602,790,1506,-10.8101,-26.7873
-427,-482,-10.8536,27.5807,0.00439484,0.00667266,0.00408191,0.00977157,0.00129593,0.921445,0.00612825,0.0203302,797,1506,-10.8536,-27.5807
-420,-482,-10.9116,28.4086,0,0,0,0,0,0,0,-1,804,1506,-10.9116,-28.4085
-413,-482,-6.56415,22.3163,0,0,0,0,0,0,0,-1,811,1506,-6.56417,-22.3163
-406,-482,-2.51373,12.7556,0,0,0,0,0,0,0,-1,818,1506,-2.51376,-12.7556
-399,-482,-1.3822,9.22595,0,0,0,0,0,0,0,-1,825,1506,-1.38221,-9.22598
-392,-482,-1.06836,9.22729,0,0,0,0,0,0,0,-1,832,1506,-1.06835,-9.2273
-385,-482,0.0647583,8.90649,0,0,0,0,0,0,0,-1,839,1506,0.0647778,-8.90644
-378,-482,0.215698,5.96948,0,0,0,0,0,0,0,-1,846,1506,0.215681,-5.9695
-371,-482,-0.10907,8.10437,0,0,0,0,0,0,0,-1,853,1506,-0.109063,-8.10433
-364,-482,-0.154968,10.5032,0,0,0,0,0,0,0,-1,860,1506,-0.154976,-10.5032
-357,-482,2.14807,4.60144,0,0,0,0,0,0,0,-1,867,1506,2.14807,-4.60144
-350,-482,-7.5813,-1.45935,0,0,0,0,0,0,0,-1,874,1506,-7.58133,1.45937
-343,-482,-5.80902,1.81226,0,0,0,0,0,0,0,-1,881,1506,-5.80903,-1.81221
-336,-482,2.52826,-0.390503,0,0,0,0,0,0,0,-1,888,1506,2.52826,0.390456
-329,-482,0,0,0,0,0,0,0,0,0,-1,895,1506,0,0
-322,-482,0,0,0,0,0,0,0,0,0,-1,902,1506,0,0
-315,-482,0,0,0,0,0,0,0,0,0,-1,909,1506,0,0
-308,-482,0,0,0,0,0,0,0,0,0,-1,916,1506,0,0
-301,-482,0,0,0,0,0,0,0,0,0,-1,923,1506,0,0
-294,-482,0,0,0,0,0,0,0,0,0,-1,930,1506,0,0
-287,-482,0,0,0,0,0,0,0,0,0,-1,937,1506,0,0
-280,-482,0,0,0,0,0,0,0,0,0,-1,944,1506,0,0
-273,-482,0,0,0,0,0,0,0,0,0,-1,951,1506,0,0
-266,-482,0,0,0,0,0,0,0,0,0,-1,958,1506,0,0
-259,-482,0,0,0,0,0,0,0,0,0,-1,965,1506,0,0
-252,-482,0,0,0,0,0,0,0,0,0,-1,972,1506,0,0
-245,-482,0,0,0,0,0,0,0,0,0,-1,979,1506,0,0
-238,-482,0,0,0,0,0,0,0,0,0,-1,986,1506,0,0
-231,-482,0,0,0,0,0,0,0,0,0,-1,993,1506,0,0
-224,-482,0,0,0,0,0,0,0,0,0,-1,1000,1506,0,0
-217,-482,0,0,0,0,0,0,0,0,0,-1,1007,1506,0,0
-210,-482,0,0,0,0,0,0,0,0,0,-1,1014,1506,0,0
-203,-482,0,0,0,0,0,0,0,0,0,-1,1021,1506,0,0
-196,-482,0,0,0,0,0,0,0,0,0,-1,1028,1506,0,0
-189,-482,0,0,0,0,0,0,0,0,0,-1,1035,1506,0,0
-182,-482,0,0,0,0,0,0,0,0,0,-1,1042,1506,0,0
-175,-482,0,0,0,0,0,0,0,0,0,-1,1049,1506,0,0
-168,-482,0,0,0,0,0,0,0,0,0,-1,1056,1506,0,0
-161,-482,0,0,0,0,0,0,0,0,0,-1,1063,1506,0,0
-154,-482,0,0,0,0,0,0,0,0,0,-1,1070,1506,0,0
-147,-482,0,0,0,0,0,0,0,0,0,-1,1077,1506,0,0
-140,-482,0,0,0,0,0,0,0,0,0,-1,1084,1506,0,0
-133,-482,0,0,0,0,0,0,0,0,0,-1,1091,1506,0,0
-126,-482,0,0,0,0,0,0,0,0,0,-1,1098,1506,0,0
-119,-482,0,0,0,0,0,0,0,0,0,-1,1105,1506,0,0
-112,-482,0,0,0,0,0,0,0,0,0,-1,1112,1506,0,0
-105,-482,0,0,0,0,0,0,0,0,0,-1,1119,1506,0,0
-98,-482,0,0,0,0,0,0,0,0,0,-1,1126,1506,0,0
-91,-482,0,0,0,0,0,0,0,0,0,-1,1133,1506,0,0
-84,-482,0,0,0,0,0,0,0,0,0,-1,1140,1506,0,0
-77,-482,0,0,0,0,0,0,0,0,0,-1,1147,1506,0,0
-70,-482,0,0,0,0,0,0,0,0,0,-1,1154,1506,0,0
-63,-482,0,0,0,0,0,0,0,0,0,-1,1161,1506,0,0
-56,-482,0,0,0,0,0,0,0,0,0,-1,1168,1506,0,0
-49,-482,0,0,0,0,0,0,0,0,0,-1,1175,1506,0,0
-42,-482,0,0,0,0,0,0,0,0,0,-1,1182,1506,0,0
-35,-482,0,0,0,0,0,0,0,0,0,-1,1189,1506,0,0
-28,-482,0,0,0,0,0,0,0,0,0,-1,1196,1506,0,0
-21,-482,0,0,0,0,0,0,0,0,0,-1,1203,1506,0,0
-14,-482,0,0,0,0,0,0,0,0,0,-1,1210,1506,0,0
-7,-482,0,0,0,0,0,0,0,0,0,-1,1217,1506,0,0
0,-482,0,0,0,0,0,0,0,0,0,-1,1224,1506,0,0
7,-482,0,0,0,0,0,0,0,0,0,-1,1231,1506,0,0
14,-482,0,0,0,0,0,0,0,0,0,-1,1238,1506,0,0
21,-482,0,0,0,0,0,0,0,0,0,-1,1245,1506,0,0
28,-482,0,0,0,0,0,0,0,0,0,-1,1252,1506,0,0
35,-482,0,0,0,0,0,0,0,0,0,-1,1259,1506,0,0
42,-482,0,0,0,0,0,0,0,0,0,-1,1266,1506,0,0
49,-482,0,0,0,0,0,0,0,0,0,-1,1273,1506,0,0
56,-482,0,0,0,0,0,0,0,0,0,-1,1280,1506,0,0
63,-482,0,0,0,0,0,0,0,0,0,-1,1287,1506,0,0
70,-482,0,0,0,0,0,0,0,0,0,-1,1294,1506,0,0
77,-482,0,0,0,0,0,0,0,0,0,-1,1301,1506,0,0
84,-482,0,0,0,0,0,0,0,0,0,-1,1308,1506,0,0
91,-482,0,0,0,0,0,0,0,0,0,-1,1315,1506,0,0
98,-482,0,0,0,0,0,0,0,0,0,-1,1322,1506,0,0
105,-482,0,0,0,0,0,0,0,0,0,-1,1329,1506,0,0
112,-482,0,0,0,0,0,0,0,0,0,-1,1336,1506,0,0
119,-482,0,0,0,0,0,0,0,0,0,-1,1343,1506,0,0
126,-482,0,0,0,0,0,0,0,0,0,-1,1350,1506,0,0
133,-482,0,0,0,0,0,0,0,0,0,-1,1357,1506,0,0
140,-482,0,0,0,0,0,0,0,0,0,-1,1364,1506,0,0
147,-482,0,0,0,0,0,0,0,0,0,-1,1371,1506,0,0
154,-482,0,0,0,0,0,0,0,0,0,-1,1378,1506,0,0
161,-482,0,0,0,0,0,0,0,0,0,-1,1385,1506,0,0
168,-482,0,0,0,0,0,0,0,0,0,-1,1392,1506,0,0
175,-482,0,0,0,0,0,0,0,0,0,-1,1399,1506,0,0
182,-482,0,0,0,0,0,0,0,0,0,-1,1406,1506,0,0
189,-482,0,0,0,0,0,0,0,0,0,-1,1413,1506,0,0
196,-482,0,0,0,0,0,0,0,0,0,-1,1420,1506,0,0
203,-482,0,0,0,0,0,0,0,0,0,-1,1427,1506,0,0
210,-482,0,0,0,0,0,0,0,0,0,-1,1434,1506,0,0
217,-482,0,0,0,0,0,0,0,0,0,-1,1441,1506,0,0
224,-482,0,0,0,0,0,0,0,0,0,-1,1448,1506,0,0
231,-482,0,0,0,0,0,0,0,0,0,-1,1455,1506,0,0
238,-482,0,0,0,0,0,0,0,0,0,-1,1462,1506,0,0
245,-482,0,0,0,0,0,0,0,0,0,-1,1469,1506,0,0
252,-482,0,0,0,0,0,0,0,0,0,-1,1476,1506,0,0
259,-482,0,0,0,0,0,0,0,0,0,-1,1483,1506,0,0
266,-482,0,0,0,0,0,0,0,0,0,-1,1490,1506,0,0
273,-482,0,0,0,0,0,0,0,0,0,-1,1497,1506,0,0
280,-482,0,0,0,0,0,0,0,0,0,-1,1504,1506,0,0
287,-482,0,0,0,0,0,0,0,0,0,-1,1511,1506,0,0
294,-482,0,0,0,0,0,0,0,0,0,-1,1518,1506,0,0
301,-482,0,0,0,0,0,0,0,0,0,-1,1525,1506,0,0
308,-482,0,0,0,0,0,0,0,0,0,-1,1532,1506,0,0
315,-482,0,0,0,0,0,0,0,0,0,-1,1539,1506,0,0
322,-482,0,0,0,0,0,0,0,0,0,-1,1546,1506,0,0
329,-482,0,0,0,0,0,0,0,0,0,-1,1553,1506,0,0
336,-482,0,0,0,0,0,0,0,0,0,-1,1560,1506,0,0
343,-482,0,0,0,0,0,0,0,0,0,-1,1567,1506,0,0
350,-482,0,0,0,0,0,0,0,0,0,-1,1574,1506,0,0
357,-482,0,0,0,0,0,0,0,0,0,-1,1581,1506,0,0
364,-482,0,0,0,0,0,0,0,0,0,-1,1588,1506,0,0
371,-482,0,0,0,0,0,0,0,0,0,-1,1595,1506,0,0
378,-482,0,0,0,0,0,0,0,0,0,-1,1602,1506,0,0
385,-482,0,0,0,0,0,0,0,0,0,-1,1609,1506,0,0
392,-482,0,0,0,0,0,0,0,0,0,-1,1616,1506,0,0
399,-482,0,0,0,0,0,0,0,0,0,-1,1623,1506,0,0
406,-482,0,0,0,0,0,0,0,0,0,-1,1630,1506,0,0
413,-482,0,0,0,0,0,0,0,0,0,-1,1637,1506,0,0
420,-482,0,0,0,0,0,0,0,0,0,-1,1644,1506,0,0
427,-482,0,0,0,0,0,0,0,0,0,-1,1651,1506,0,0
434,-482,0,0,0,0,0,0,0,0,0,-1,1658,1506,0,0
441,-482,0,0,0,0,0,0,0,0,0,-1,1665,1506,0,0
448,-482,4.24146,1.55383,0,0,0,0,0,0,0,-1,1672,1506,4.24149,-1.55381
455,-482,12.4122,1.09729,0,0,0,0,0,0,0,-1,1679,1506,12.4122,-1.09734
462,-482,15.0673,3.13135,0,0,0,0,0,0,0,-1,1686,1506,15.0672,-3.13134
469,-482,15.3793,3.46301,0,0,0,0,0,0,0,-1,1693,1506,15.3793,-3.46307
476,-482,8.69751,9.18738,0,0,0,0,0,0,0,-1,1700,1506,8.69753,-9.18739
483,-482,10.0902,7.17432,0,0,0,0,0,0,0,-1,1707,1506,10.0902,-7.1743
490,-482,11.6289,5.4928,0,0,0,0,0,0,0,-1,1714,1506,11.6289,-5.49283
497,-482,15.9539,7.40222,0,0,0,0,0,0,0,-1,1721,1506,15.9538,-7.40219
504,-482,20.4233,12.006,0,0,0,0,0,0,0,-1,1728,1506,20.4233,-12.006
511,-482,18.4937,12.9175,0,0,0,0,0,0,0,-1,1735,1506,18.4936,-12.9174
518,-482,16.6002,13.9679,0,0,0,0,0,0,0,-1,1742,1506,16.6003,-13.9679
525,-482,18.495,15.9618,0,0,0,0,0,0,0,-1,1749,1506,18.495,-15.9618
532,-482,19.9375,21.0775,0,0,0,0,0,0,0,-1,1756,1506,19.9375,-21.0775
539,-482,20.2291,20.5577,0,0,0,0,0,0,0,-1,1763,1506,20.2291,-20.5578
546,-482,28.2959,29.818,0,0,0,0,0,0,0,-1,1770,1506,28.2959,-29.818
553,-482,28.2451,28.8613,0,0,0,0,0,0,0,-1,1777,1506,28.2452,-28.8613
560,-482,28.3058,28.005,0.00725828,0.00326477,-0.00280589,0.00870536,0.00181769,-0.476154,0.00530257,0.0171104,1784,1506,28.3058,-28.005
567,-482,28.3818,27.252,0.00571827,0.00217157,-0.0020153,0.00662935,0.00126048,-0.424586,0.00406508,0.0161835,1791,1506,28.3818,-27.2519
574,-482,28.3512,26.5713,0.00460205,0.00149622,-0.00159768,0.00527716,0.000821099,-0.399803,0.00327886,0.0150744,1798,1506,28.3511,-26.5712
581,-482,28.3149,25.8771,0.00365814,0.00098773,-0.00127117,0.00416648,0.000479392,-0.380418,0.00263244,0.0104755,1805,1506,28.315,-25.8771
588,-482,28.2644,25.1692,0.00300909,0.000617431,-0.00105076,0.00340514,0.000221373,-0.360458,0.00220002,0.0114492,1812,1506,28.2645,-25.1692
595,-482,28.2393,24.4268,0.00271016,0.00031495,-0.000788518,0.00294643,7.86727e-05,-0.291133,0.0019386,0.0194686,1819,1506,28.2393,-24.4267
602,-482,28.2203,23.7004,0.00253973,9.68987e-05,-0.000608157,0.00268276,-4.61311e-05,-0.230988,0.00180408,0.023967,1826,1506,28.2204,-23.7004
609,-482,28.1816,23.0094,0.00253974,-4.51375e-05,-0.000343036,0.00258449,-8.98867e-05,-0.129718,0.00175372,0.0181873,1833,1506,28.1817,-23.0094
616,-482,28.1129,22.3168,0.00281311,-0.000265101,8.13896e-05,0.00281526,-0.000267251,0.026416,0.00197197,0.013318,1840,1506,28.1129,-22.3168
623,-482,28.0599,21.6185,0.00327367,-0.000620536,0.000747591,0.00341225,-0.000759123,0.183297,0.00256559,0.0183094,1847,1506,28.06,-21.6185
630,-482,28.0245,20.9434,0.00371589,-0.000959658,0.00170427,0.00427117,-0.00151493,0.314968,0.00346464,0.0399325,1854,1506,28.0245,-20.9434
637,-482,28.0126,20.1885,0,0,0,0,0,0,0,-1,1861,1506,28.0126,-20.1885
644,-482,27.8639,19.6259,0,0,0,0,0,0,0,-1,1868,1506,27.8639,-19.6259
651,-482,4.03845,7.05273,0,0,0,0,0,0,0,-1,1875,1506,4.03843,-7.05279
658,-482,10.0278,5.87903,0,0,0,0,0,0,0,-1,1882,1506,10.0279,-5.87902
665,-482,8.15198,3.22229,0,0,0,0,0,0,0,-1,1889,1506,8.15199,-3.22232
672,-482,9.87415,1.3147,0,0,0,0,0,0,0,-1,1896,1506,9.87416,-1.31473
679,-482,0,0,0,0,0,0,0,0,0,-1,1903,1506,0,0
686,-482,0,0,0,0,0,0,0,0,0,-1,1910,1506,0,0
693,-482,0,0,0,0,0,0,0,0,0,-1,1917,1506,0,0
700,-482,0,0,0,0,0,0,0,0,0,-1,1924,1506,0,0
707,-482,0,0,0,0,0,0,0,0,0,-1,1931,1506,0,0
714,-482,0,0,0,0,0,0,0,0,0,-1,1938,1506,0,0
721,-482,0,0,0,0,0,0,0,0,0,-1,1945,1506,0,0
728,-482,0,0,0,0,0,0,0,0,0,-1,1952,1506,0,0
735,-482,0,0,0,0,0,0,0,0,0,-1,1959,1506,0,0
742,-482,0,0,0,0,0,0,0,0,0,-1,1966,1506,0,0
749,-482,0,0,0,0,0,0,0,0,0,-1,1973,1506,0,0
756,-482,0,0,0,0,0,0,0,0,0,-1,1980,1506,0,0
763,-482,0,0,0,0,0,0,0,0,0,-1,1987,1506,0,0
770,-482,0,0,0,0,0,0,0,0,0,-1,1994,1506,0,0
777,-482,0,0,0,0,0,0,0,0,0,-1,2001,1506,0,0
784,-482,0,0,0,0,0,0,0,0,0,-1,2008,1506,0,0
791,-482,0,0,0,0,0,0,0,0,0,-1,2015,1506,0,0
798,-482,0,0,0,0,0,0,0,0,0,-1,2022,1506,0,0
805,-482,0,0,0,0,0,0,0,0,0,-1,2029,1506,0,0
812,-482,0,0,0,0,0,0,0,0,0,-1,2036,1506,0,0
-700,-489,0,0,0,0,0,0,0,0,0,-1,524,1513,0,0
-693,-489,0,0,0,0,0,0,0,0,0,-1,531,1513,0,0
-686,-489,0,0,0,0,0,0,0,0,0,-1,538,1513,0,0
-679,-489,0,0,0,0,0,0,0,0,0,-1,545,1513,0,0
-672,-489,0,0,0,0,0,0,0,0,0,-1,552,1513,0,0
-665,-489,0,0,0,0,0,0,0,0,0,-1,559,1513,0,0
-658,-489,0,0,0,0,0,0,0,0,0,-1,566,1513,0,0
-651,-489,0,0,0,0,0,0,0,0,0,-1,573,1513,0,0
-644,-489,0,0,0,0,0,0,0,0,0,-1,580,1513,0,0
-637,-489,0,0,0,0,0,0,0,0,0,-1,587,1513,0,0
-630,-489,0,0,0,0,0,0,0,0,0,-1,594,1513,0,0
-623,-489,0,0,0,0,0,0,0,0,0,-1,601,1513,0,0
-616,-489,0,0,0,0,0,0,0,0,0,-1,608,1513,0,0
-609,-489,0,0,0,0,0,0,0,0,0,-1,615,1513,0,0
-602,-489,0,0,0,0,0,0,0,0,0,-1,622,1513,0,0
-595,-489,0,0,0,0,0,0,0,0,0,-1,629,1513,0,0
-588,-489,0,0,0,0,0,0,0,0,0,-1,636,1513,0,0
-581,-489,0,0,0,0,0,0,0,0,0,-1,643,1513,0,0
-574,-489,0,0,0,0,0,0,0,0,0,-1,650,1513,0,0
-567,-489,0,0,0,0,0,0,0,0,0,-1,657,1513,0,0
-560,-489,0,0,0,0,0,0,0,0,0,-1,664,1513,0,0
-553,-489,-9.42206,8.5116,0,0,0,0,0,0,0,-1,671,1513,-9.42205,-8.51158
-546,-489,-7.80951,8.18506,0,0,0,0,0,0,0,-1,678,1513,-7.8095,-8.18503
-539,-489,-3.06879,2.82349,0,0,0,0,0,0,0,-1,685,1513,-3.06881,-2.82354
-532,-489,-3.14215,2.5835,0,0,0,0,0,0,0,-1,692,1513,-3.14213,-2.58353
-525,-489,-2.604,4.06274,0,0,0,0,0,0,0,-1,699,1513,-2.60399,-4.06274
-518,-489,-5.43774,7.48059,0,0,0,0,0,0,0,-1,706,1513,-5.43777,-7.48058
-511,-489,-7.52856,10.951,0,0,0,0,0,0,0,-1,713,1513,-7.52857,-10.951
-504,-489,-7.17352,12.8508,0,0,0,0,0,0,0,-1,720,1513,-7.17352,-12.8508
-497,-489,-5.51678,14.9254,0,0,0,0,0,0,0,-1,727,1513,-5.51681,-14.9254
-490,-489,-9.94708,20.6284,0,0,0,0,0,0,0,-1,734,1513,-9.94707,-20.6284
-483,-489,-9.85681,21.4785,0.00236502,-0.0001047,0.00424102,0.0055473,-0.00328698,0.64373,0.00515582,0.0319783,741,1513,-9.85684,-21.4785
-476,-489,-9.83997,22.3525,0.00161301,-0.00089724,0.00291959,0.00353583,-0.00282006,0.582392,0.00367733,0.0109293,748,1513,-9.83996,-22.3526
-469,-489,-9.87122,23.1191,0.00122209,-0.00109066,0.00217184,0.00252622,-0.00239479,0.540767,0.00284149,0.0109743,755,1513,-9.87119,-23.1192
-462,-489,-9.90564,23.8453,0.00109354,-0.000779517,0.00172172,0.00211697,-0.00180294,0.536305,0.00226558,0.0167201,762,1513,-9.90565,-23.8454
-455,-489,-9.98309,24.603,0.00120828,-0.000137093,0.00153268,0.00220939,-0.0011382,0.578607,0.00196544,0.0194253,769,1513,-9.98307,-24.6031
-448,-489,-10.0424,25.3429,0.00154996,0.000909737,0.00164707,0.00290774,-0.000448041,0.689419,0.0021038,0.0170895,776,1513,-10.0424,-25.3429
-441,-489,-10.0184,26.0834,0.0020537,0.00218358,0.00197582,0.00409553,0.000141753,0.801826,0.00268435,0.0150471,783,1513,-10.0183,-26.0834
-434,-489,-10.0876,26.8218,0.00273066,0.00369632,0.00253419,0.00579326,0.000633718,0.879533,0.00366922,0.0171839,790,1513,-10.0876,-26.8218
-427,-489,-10.1587,27.5872,0.00359522,0.0054077,0.0033089,0.00793222,0.0010707,0.91906,0.00496984,0.0190968,797,1513,-10.1587,-27.5871
-420,-489,-10.1956,28.4741,0.00461707,0.00719375,0.00425328,0.0103495,0.00146129,0.932459,0.00646785,0.0276411,804,1513,-10.1956,-28.4742
-413,-489,-10.1591,29.4517,0,0,0,0,0,0,0,-1,811,1513,-10.1591,-29.4517
-406,-489,-3.10559,15.8143,0,0,0,0,0,0,0,-1,818,1513,-3.10556,-15.8143
-399,-489,-1.41241,9.10718,0,0,0,0,0,0,0,-1,825,1513,-1.41244,-9.10722
-392,-489,-1.0368,9.30469,0,0,0,0,0,0,0,-1,832,1513,-1.03682,-9.30466
-385,-489,-1.75165,10.6559,0,0,0,0,0,0,0,-1,839,1513,-1.75165,-10.6559
-378,-489,-0.401428,9.87048,0,0,0,0,0,0,0,-1,846,1513,-0.401415,-9.87047
-371,-489,-1.11633,10.6606,0,0,0,0,0,0,0,-1,853,1513,-1.11633,-10.6606
-364,-489,-0.503113,8.98486,0,0,0,0,0,0,0,-1,860,1513,-0.503097,-8.98482
-357,-489,-0.609924,10.9606,0,0,0,0,0,0,0,-1,867,1513,-0.609947,-10.9605
-350,-489,-7.94659,-0.358887,0,0,0,0,0,0,0,-1,874,1513,-7.94657,0.358912
-343,-489,-7.49323,-0.437866,0,0,0,0,0,0,0,-1,881,1513,-7.49322,0.437823
-336,-489,-7.02332,-0.53125,0,0,0,0,0,0,0,-1,888,1513,-7.0233,0.531295
-329,-489,-13.2786,4.96082,0,0,0,0,0,0,0,-1,895,1513,-13.2785,-4.96077
-322,-489,0,0,0,0,0,0,0,0,0,-1,902,1513,0,0
-315,-489,0,0,0,0,0,0,0,0,0,-1,909,1513,0,0
-308,-489,0,0,0,0,0,0,0,0,0,-1,916,1513,0,0
-301,-489,0,0,0,0,0,0,0,0,0,-1,923,1513,0,0
-294,-489,0,0,0,0,0,0,0,0,0,-1,930,1513,0,0
-287,-489,0,0,0,0,0,0,0,0,0,-1,937,1513,0,0
-280,-489,0,0,0,0,0,0,0,0,0,-1,944,1513,0,0
-273,-489,0,0,0,0,0,0,0,0,0,-1,951,1513,0,0
-266,-489,0,0,0,0,0,0,0,0,0,-1,958,1513,0,0
-259,-489,0,0,0,0,0,0,0,0,0,-1,965,1513,0,0
-252,-489,0,0,0,0,0,0,0,0,0,-1,972,1513,0,0
-245,-489,0,0,0,0,0,0,0,0,0,-1,979,1513,0,0
-238,-489,0,0,0,0,0,0,0,0,0,-1,986,1513,0,0
-231,-489,0,0,0,0,0,0,0,0,0,-1,993,1513,0,0
-224,-489,0,0,0,0,0,0,0,0,0,-1,1000,1513,0,0
-217,-489,0,0,0,0,0,0,0,0,0,-1,1007,1513,0,0
-210,-489,0,0,0,0,0,0,0,0,0,-1,1014,1513,0,0
-203,-489,0,0,0,0,0,0,0,0,0,-1,1021,1513,0,0
-196,-489,0,0,0,0,0,0,0,0,0,-1,1028,1513,0,0
-189,-489,0,0,0,0,0,0,0,0,0,-1,1035,1513,0,0
-182,-489,0,0,0,0,0,0,0,0,0,-1,1042,1513,0,0
-175,-489,0,0,0,0,0,0,0,0,0,-1,1049,1513,0,0
-168,-489,0,0,0,0,0,0,0,0,0,-1,1056,1513,0,0
-161,-489,0,0,0,0,0,0,0,0,0,-1,1063,1513,0,0
-154,-489,0,0,0,0,0,0,0,0,0,-1,1070,1513,0,0
-147,-489,0,0,0,0,0,0,0,0,0,-1,1077,1513,0,0
-140,-489,0,0,0,0,0,0,0,0,0,-1,1084,1513,0,0
-133,-489,0,0,0,0,0,0,0,0,0,-1,1091,1513,0,0
-126,-489,0,0,0,0,0,0,0,0,0,-1,1098,1513,0,0
-119,-489,0,0,0,0,0,0,0,0,0,-1,1105,1513,0,0
-112,-489,0,0,0,0,0,0,0,0,0,-1,1112,1513,0,0
-105,-489,0,0,0,0,0,0,0,0,0,-1,1119,1513,0,0
-98,-489,0,0,0,0,0,0,0,0,0,-1,1126,1513,0,0
-91,-489,0,0,0,0,0,0,0,0,0,-1,1133,1513,0,0
-84,-489,0,0,0,0,0,0,0,0,0,-1,1140,1513,0,0
-77,-489,0,0,0,0,0,0,0,0,0,-1,1147,1513,0,0
-70,-489,0,0,0,0,0,0,0,0,0,-1,1154,1513,0,0
-63,-489,0,0,0,0,0,0,0,0,0,-1,1161,1513,0,0
-56,-489,0,0,0,0,0,0,0,0,0,-1,1168,1513,0,0
-49,-489,0,0,0,0,0,0,0,0,0,-1,1175,1513,0,0
-42,-489,0,0,0,0,0,0,0,0,0,-1,1182,1513,0,0
-35,-489,0,0,0,0,0,0,0,0,0,-1,1189,1513,0,0
-28,-489,0,0,0,0,0,0,0,0,0,-1,1196,1513,0,0
-21,-489,0,0,0,0,0,0,0,0,0,-1,1203,1513,0,0
-14,-489,0,0,0,0,0,0,0,0,0,-1,1210,1513,0,0
-7,-489,0,0,0,0,0,0,0,0,0,-1,1217,1513,0,0
0,-489,0,0,0,0,0,0,0,0,0,-1,1224,1513,0,0
7,-489,0,0,0,0,0,0,0,0,0,-1,1231,1513,0,0
14,-489,0,0,0,0,0,0,0,0,0,-1,1238,1513,0,0
21,-489,0,0,0,0,0,0,0,0,0,-1,1245,1513,0,0
28,-489,0,0,0,0,0,0,0,0,0,-1,1252,1513,0,0
35,-489,0,0,0,0,0,0,0,0,0,-1,1259,1513,0,0
42,-489,0,0,0,0,0,0,0,0,0,-1,1266,1513,0,0
49,-489,0,0,0,0,0,0,0,0,0,-1,1273,1513,0,0
56,-489,0,0,0,0,0,0,0,0,0,-1,1280,1513,0,0
63,-489,0,0,0,0,0,0,0,0,0,-1,1287,1513,0,0
70,-489,0,0,0,0,0,0,0,0,0,-1,1294,1513,0,0
77,-489,0,0,0,0,0,0,0,0,0,-1,1301,1513,0,0
84,-489,0,0,0,0,0,0,0,0,0,-1,1308,1513,0,0
91,-489,0,0,0,0,0,0,0,0,0,-1,1315,1513,0,0
98,-489,0,0,0,0,0,0,0,0,0,-1,1322,1513,0,0
105,-489,0,0,0,0,0,0,0,0,0,-1,1329,1513,0,0
112,-489,0,0,0,0,0,0,0,0,0,-1,1336,1513,0,0
119,-489,0,0,0,0,0,0,0,0,0,-1,1343,1513,0,0
126,-489,0,0,0,0,0,0,0,0,0,-1,1350,1513,0,0
133,-489,0,0,0,0,0,0,0,0,0,-1,1357,1513,0,0
140,-489,0,0,0,0,0,0,0,0,0,-1,1364,1513,0,0
147,-489,0,0,0,0,0,0,0,0,0,-1,1371,1513,0,0
154,-489,0,0,0,0,0,0,0,0,0,-1,1378,1513,0,0
161,-489,0,0,0,0,0,0,0,0,0,-1,1385,1513,0,0
168,-489,0,0,0,0,0,0,0,0,0,-1,1392,1513,0,0
175,-489,0,0,0,0,0,0,0,0,0,-1,1399,1513,0,0
182,-489,0,0,0,0,0,0,0,0,0,-1,1406,1513,0,0
189,-489,0,0,0,0,0,0,0,0,0,-1,1413,1513,0,0
196,-489,0,0,0,0,0,0,0,0,0,-1,1420,1513,0,0
203,-489,0,0,0,0,0,0,0,0,0,-1,1427,1513,0,0
210,-489,0,0,0,0,0,0,0,0,0,-1,1434,1513,0,0
217,-489,0,0,0,0,0,0,0,0,0,-1,1441,1513,0,0
224,-489,0,0,0,0,0,0,0,0,0,-1,1448,1513,0,0
231,-489,0,0,0,0,0,0,0,0,0,-1,1455,1513,0,0
238,-489,0,0,0,0,0,0,0,0,0,-1,1462,1513,0,0
245,-489,0,0,0,0,0,0,0,0,0,-1,1469,1513,0,0
252,-489,0,0,0,0,0,0,0,0,0,-1,1476,1513,0,0
259,-489,0,0,0,0,0,0,0,0,0,-1,1483,1513,0,0
266,-489,0,0,0,0,0,0,0,0,0,-1,1490,1513,0,0
273,-489,0,0,0,0,0,0,0,0,0,-1,1497,1513,0,0
280,-489,0,0,0,0,0,0,0,0,0,-1,1504,1513,0,0
287,-489,0,0,0,0,0,0,0,0,0,-1,1511,1513,0,0
294,-489,0,0,0,0,0,0,0,0,0,-1,1518,1513,0,0
301,-489,0,0,0,0,0,0,0,0,0,-1,1525,1513,0,0
308,-489,0,0,0,0,0,0,0,0,0,-1,1532,1513,0,0
315,-489,0,0,0,0,0,0,0,0,0,-1,1539,1513,0,0
322,-489,0,0,0,0,0,0,0,0,0,-1,1546,1513,0,0
329,-489,0,0,0,0,0,0,0,0,0,-1,1553,1513,0,0
336,-489,0,0,0,0,0,0,0,0,0,-1,1560,1513,0,0
343,-489,0,0,0,0,0,0,0,0,0,-1,1567,1513,0,0
350,-489,0,0,0,0,0,0,0,0,0,-1,1574,1513,0,0
357,-489,0,0,0,0,0,0,0,0,0,-1,1581,1513,0,0
364,-489,0,0,0,0,0,0,0,0,0,-1,1588,1513,0,0
371,-489,0,0,0,0,0,0,0,0,0,-1,1595,1513,0,0
378,-489,0,0,0,0,0,0,0,0,0,-1,1602,1513,0,0
385,-489,0,0,0,0,0,0,0,0,0,-1,1609,1513,0,0
392,-489,0,0,0,0,0,0,0,0,0,-1,1616,1513,0,0
399,-489,0,0,0,0,0,0,0,0,0,-1,1623,1513,0,0
406,-489,0,0,0,0,0,0,0,0,0,-1,1630,1513,0,0
413,-489,0,0,0,0,0,0,0,0,0,-1,1637,1513,0,0
420,-489,0,0,0,0,0,0,0,0,0,-1,1644,1513,0,0
427,-489,0,0,0,0,0,0,0,0,0,-1,1651,1513,0,0
434,-489,0,0,0,0,0,0,0,0,0,-1,1658,1513,0,0
441,-489,11.4602,2.56787,0,0,0,0,0,0,0,-1,1665,1513,11.4602,-2.56786
448,-489,12.4425,1.72351,0,0,0,0,0,0,0,-1,1672,1513,12.4425,-1.72349
455,-489,12.5575,1.37463,0,0,0,0,0,0,0,-1,1679,1513,12.5575,-1.37469
462,-489,14.9784,3.84888,0,0,0,0,0,0,0,-1,1686,1513,14.9784,-3.84892
469,-489,15.1367,4.53101,0,0,0,0,0,0,0,-1,1693,1513,15.1368,-4.531
476,-489,15.5536,5.09338,0,0,0,0,0,0,0,-1,1700,1513,15.5536,-5.09339
483,-489,8.96912,8.37805,0,0,0,0,0,0,0,-1,1707,1513,8.96909,-8.37809
490,-489,10.5366,7.49561,0,0,0,0,0,0,0,-1,1714,1513,10.5367,-7.49558
497,-489,14.6051,11.8397,0,0,0,0,0,0,0,-1,1721,1513,14.6051,-11.8397
504,-489,16.7527,14.1735,0,0,0,0,0,0,0,-1,1728,1513,16.7527,-14.1735
511,-489,17.83,17.7993,0,0,0,0,0,0,0,-1,1735,1513,17.83,-17.7993
518,-489,16.4751,14.3682,0,0,0,0,0,0,0,-1,1742,1513,16.4751,-14.3682
525,-489,17.2606,17.4949,0,0,0,0,0,0,0,-1,1749,1513,17.2606,-17.4949
532,-489,19.397,21.0182,0,0,0,0,0,0,0,-1,1756,1513,19.397,-21.0182
539,-489,27.4983,30.5708,0,0,0,0,0,0,0,-1,1763,1513,27.4983,-30.5708
546,-489,27.6865,29.6685,0.00944569,0.00624969,-0.00498607,0.0130836,0.0026118,-0.630323,0.00799527,0.0400239,1770,1513,27.6865,-29.6684
553,-489,27.6515,28.8165,0.00763584,0.00447583,-0.00363585,0.0100201,0.00209151,-0.580427,0.00610357,0.0224719,1777,1513,27.6515,-28.8165
560,-489,27.6667,28.0259,0.00610303,0.00307584,-0.00259609,0.00759454,0.00158433,-0.521474,0.00462625,0.0142378,1784,1513,27.6667,-28.0258
567,-489,27.6791,27.3215,0.00487595,0.00203317,-0.00188033,0.00581167,0.00109745,-0.461757,0.00356538,0.0170849,1791,1513,27.6791,-27.3216
574,-489,27.6161,26.6438,0.00398981,0.00133145,-0.00146501,0.00463875,0.000682508,-0.416985,0.00289197,0.01697,1798,1513,27.6161,-26.6439
581,-489,27.6008,25.9222,0.00324711,0.000791625,-0.00115423,0.00370447,0.000334256,-0.377273,0.00236611,0.0110901,1805,1513,27.6008,-25.9222
588,-489,27.5616,25.2085,0.0027942,0.000426494,-0.000978647,0.00314633,7.43594e-05,-0.345395,0.00207321,0.0130281,1812,1513,27.5617,-25.2085
595,-489,27.5223,24.5132,0.00268343,0.000167399,-0.000766295,0.00289844,-4.76141e-05,-0.273553,0.00194836,0.021056,1819,1513,27.5223,-24.5132
602,-489,27.4932,23.8176,0.00270016,4.39597e-05,-0.000665595,0.00285761,-0.000113493,-0.232289,0.00194401,0.02765,1826,1513,27.4931,-23.8176
609,-489,27.4612,23.0764,0.00288602,-1.49295e-05,-0.000492358,0.0029673,-9.62166e-05,-0.163621,0.00201104,0.0188291,1833,1513,27.4612,-23.0765
616,-489,27.4359,22.3391,0.00344282,-0.000168876,-0.000139271,0.00344818,-0.000174238,-0.0384848,0.00235902,0.02225,1840,1513,27.4359,-22.3391
623,-489,27.4872,21.6093,0,0,0,0,0,0,0,-1,1847,1513,27.4871,-21.6093
630,-489,27.4674,20.8639,0,0,0,0,0,0,0,-1,1854,1513,27.4674,-20.8639
637,-489,17.2048,11.8091,0,0,0,0,0,0,0,-1,1861,1513,17.2048,-11.8091
644,-489,9.67578,8.45874,0,0,0,0,0,0,0,-1,1868,1513,9.67576,-8.45879
651,-489,6.13818,6.85095,0,0,0,0,0,0,0,-1,1875,1513,6.13823,-6.85097
658,-489,5.43848,7.75513,0,0,0,0,0,0,0,-1,1882,1513,5.43844,-7.75509
665,-489,5.48438,8.59912,0,0,0,0,0,0,0,-1,1889,1513,5.48434,-8.59907
672,-489,0,0,0,0,0,0,0,0,0,-1,1896,1513,0,0
679,-489,0,0,0,0,0,0,0,0,0,-1,1903,1513,0,0
686,-489,0,0,0,0,0,0,0,0,0,-1,1910,1513,0,0
693,-489,0,0,0,0,0,0,0,0,0,-1,1917,1513,0,0
700,-489,0,0,0,0,0,0,0,0,0,-1,1924,1513,0,0
707,-489,0,0,0,0,0,0,0,0,0,-1,1931,1513,0,0
714,-489,0,0,0,0,0,0,0,0,0,-1,1938,1513,0,0
721,-489,0,0,0,0,0,0,0,0,0,-1,1945,1513,0,0
728,-489,0,0,0,0,0,0,0,0,0,-1,1952,1513,0,0
735,-489,0,0,0,0,0,0,0,0,0,-1,1959,1513,0,0
742,-489,0,0,0,0,0,0,0,0,0,-1,1966,1513,0,0
749,-489,0,0,0,0,0,0,0,0,0,-1,1973,1513,0,0
756,-489,0,0,0,0,0,0,0,0,0,-1,1980,1513,0,0
763,-489,0,0,0,0,0,0,0,0,0,-1,1987,1513,0,0
770,-489,0,0,0,0,0,0,0,0,0,-1,1994,1513,0,0
777,-489,0,0,0,0,0,0,0,0,0,-1,2001,1513,0,0
784,-489,0,0,0,0,0,0,0,0,0,-1,2008,1513,0,0
791,-489,0,0,0,0,0,0,0,0,0,-1,2015,1513,0,0
798,-489,0,0,0,0,0,0,0,0,0,-1,2022,1513,0,0
805,-489,0,0,0,0,0,0,0,0,0,-1,2029,1513,0,0
812,-489,0,0,0,0,0,0,0,0,0,-1,2036,1513,0,0
-700,-496,0,0,0,0,0,0,0,0,0,-1,524,1520,0,0
-693,-496,0,0,0,0,0,0,0,0,0,-1,531,1520,0,0
-686,-496,0,0,0,0,0,0,0,0,0,-1,538,1520,0,0
-679,-496,0,0,0,0,0,0,0,0,0,-1,545,1520,0,0
-672,-496,0,0,0,0,0,0,0,0,0,-1,552,1520,0,0
-665,-496,0,0,0,0,0,0,0,0,0,-1,559,1520,0,0
-658,-496,0,0,0,0,0,0,0,0,0,-1,566,1520,0,0
-651,-496,0,0,0,0,0,0,0,0,0,-1,573,1520,0,0
-644,-496,0,0,0,0,0,0,0,0,0,-1,580,1520,0,0
-637,-496,0,0,0,0,0,0,0,0,0,-1,587,1520,0,0
-630,-496,0,0,0,0,0,0,0,0,0,-1,594,1520,0,0
-623,-496,0,0,0,0,0,0,0,0,0,-1,601,1520,0,0
-616,-496,0,0,0,0,0,0,0,0,0,-1,608,1520,0,0
-609,-496,0,0,0,0,0,0,0,0,0,-1,615,1520,0,0
-602,-496,0,0,0,0,0,0,0,0,0,-1,622,1520,0,0
-595,-496,0,0,0,0,0,0,0,0,0,-1,629,1520,0,0
-588,-496,0,0,0,0,0,0,0,0,0,-1,636,1520,0,0
-581,-496,0,0,0,0,0,0,0,0,0,-1,643,1520,0,0
-574,-496,0,0,0,0,0,0,0,0,0,-1,650,1520,0,0
-567,-496,0,0,0,0,0,0,0,0,0,-1,657,1520,0,0
-560,-496,0,0,0,0,0,0,0,0,0,-1,664,1520,0,0
-553,-496,0,0,0,0,0,0,0,0,0,-1,671,1520,0,0
-546,-496,-8.09711,7.94836,0,0,0,0,0,0,0,-1,678,1520,-8.09712,-7.94842
-539,-496,-3.20129,1.16052,0,0,0,0,0,0,0,-1,685,1520,-3.20131,-1.16054
-532,-496,-2.98279,2.62146,0,0,0,0,0,0,0,-1,692,1520,-2.98278,-2.62151
-525,-496,-2.75201,4.08032,0,0,0,0,0,0,0,-1,699,1520,-2.75201,-4.08031
-518,-496,-2.6333,5.36072,0,0,0,0,0,0,0,-1,706,1520,-2.63328,-5.36077
-511,-496,-7.92126,9.68604,0,0,0,0,0,0,0,-1,713,1520,-7.92127,-9.68598
-504,-496,-7.51044,11.6274,0,0,0,0,0,0,0,-1,720,1520,-7.51042,-11.6275
-497,-496,-5.30933,14.4291,0,0,0,0,0,0,0,-1,727,1520,-5.30932,-14.4291
-490,-496,-8.21246,19.5051,0,0,0,0,0,0,0,-1,734,1520,-8.21243,-19.5051
-483,-496,-9.23682,21.5304,0,0,0,0,0,0,0,-1,741,1520,-9.23682,-21.5304
-476,-496,-9.1405,22.3778,0.00149771,-0.00199771,0.00340781,0.00357984,-0.00407984,0.54846,0.00442546,0.0238248,748,1520,-9.1405,-22.3778
-469,-496,-9.14136,23.1747,0.00099048,-0.00219182,0.00249578,0.00235917,-0.00356051,0.501616,0.00344111,0.0110623,755,1520,-9.14136,-23.1747
-462,-496,-9.18439,23.9138,0.000772623,-0.0018122,0.0018996,0.00177778,-0.00281735,0.486688,0.00267554,0.0151879,762,1520,-9.18437,-23.9138
-455,-496,-9.26532,24.6804,0.000810988,-0.00111564,0.00156216,0.00168297,-0.00198763,0.50911,0.00212165,0.0206377,769,1520,-9.26531,-24.6805
-448,-496,-9.30994,25.4336,0.00107824,-8.76788e-05,0.00151014,0.00211403,-0.00112347,0.601195,0.00189811,0.0199247,776,1520,-9.30992,-25.4337
-441,-496,-9.27802,26.1396,0.00152488,0.0011433,0.00168684,0.00303169,-0.00036351,0.729086,0.00215255,0.0152841,783,1520,-9.27803,-26.1397
-434,-496,-9.34003,26.8738,0.00213997,0.00256059,0.00208683,0.00444767,0.00025288,0.835619,0.00288452,0.0144139,790,1520,-9.34004,-26.8737
-427,-496,-9.39056,27.618,0.0029067,0.00405984,0.00267236,0.00621713,0.000749416,0.891646,0.00391891,0.0183787,797,1520,-9.39058,-27.618
-420,-496,-9.40167,28.361,0.00382677,0.00561131,0.00343545,0.00826847,0.00116961,0.912453,0.00516676,0.0187473,804,1520,-9.40167,-28.3609
-413,-496,-9.34406,29.147,0.00518383,0.00749054,0.00476301,0.0112378,0.00143653,0.904186,0.00706193,0.0325138,811,1520,-9.34403,-29.147
-406,-496,-9.20166,30.1444,0,0,0,0,0,0,0,-1,818,1520,-9.20164,-30.1444
-399,-496,-8.89178,31.1718,0,0,0,0,0,0,0,-1,825,1520,-8.8918,-31.1718
-392,-496,-1.49786,12.387,0,0,0,0,0,0,0,-1,832,1520,-1.49788,-12.387
-385,-496,-1.72437,11.4985,0,0,0,0,0,0,0,-1,839,1520,-1.72436,-11.4985
-378,-496,-1.45532,14.0719,0,0,0,0,0,0,0,-1,846,1520,-1.45533,-14.0719
-371,-496,0.0877075,12.5299,0,0,0,0,0,0,0,-1,853,1520,0.0876896,-12.5299
-364,-496,0.0881348,10.6422,0,0,0,0,0,0,0,-1,860,1520,0.0881368,-10.6423
-357,-496,0.323792,7.56812,0,0,0,0,0,0,0,-1,867,1520,0.323782,-7.56806
-350,-496,2.1535,7.18945,0,0,0,0,0,0,0,-1,874,1520,2.15348,-7.1894
-343,-496,-7.56244,0.335327,0,0,0,0,0,0,0,-1,881,1520,-7.56242,-0.335322
-336,-496,-3.99249,6.02222,0,0,0,0,0,0,0,-1,888,1520,-3.99246,-6.0222
-329,-496,-6.93689,-0.100342,0,0,0,0,0,0,0,-1,895,1520,-6.93686,0.1003
-322,-496,-6.17505,0.494385,0,0,0,0,0,0,0,-1,902,1520,-6.17507,-0.49437
-315,-496,-7.539,5.78638,0,0,0,0,0,0,0,-1,909,1520,-7.53898,-5.78633
-308,-496,0,0,0,0,0,0,0,0,0,-1,916,1520,0,0
-301,-496,0,0,0,0,0,0,0,0,0,-1,923,1520,0,0
-294,-496,0,0,0,0,0,0,0,0,0,-1,930,1520,0,0
-287,-496,0,0,0,0,0,0,0,0,0,-1,937,1520,0,0
-280,-496,0,0,0,0,0,0,0,0,0,-1,944,1520,0,0
-273,-496,0,0,0,0,0,0,0,0,0,-1,951,1520,0,0
-266,-496,0,0,0,0,0,0,0,0,0,-1,958,1520,0,0
-259,-496,0,0,0,0,0,0,0,0,0,-1,965,1520,0,0
-252,-496,0,0,0,0,0,0,0,0,0,-1,972,1520,0,0
-245,-496,0,0,0,0,0,0,0,0,0,-1,979,1520,0,0
-238,-496,0,0,0,0,0,0,0,0,0,-1,986,1520,0,0
-231,-496,0,0,0,0,0,0,0,0,0,-1,993,1520,0,0
-224,-496,0,0,0,0,0,0,0,0,0,-1,1000,1520,0,0
-217,-496,0,0,0,0,0,0,0,0,0,-1,1007,1520,0,0
-210,-496,0,0,0,0,0,0,0,0,0,-1,1014,1520,0,0
-203,-496,0,0,0,0,0,0,0,0,0,-1,1021,1520,0,0
-196,-496,0,0,0,0,0,0,0,0,0,-1,1028,1520,0,0
-189,-496,0,0,0,0,0,0,0,0,0,-1,1035,1520,0,0
-182,-496,0,0,0,0,0,0,0,0,0,-1,1042,1520,0,0
-175,-496,0,0,0,0,0,0,0,0,0,-1,1049,1520,0,0
-168,-496,0,0,0,0,0,0,0,0,0,-1,1056,1520,0,0
-161,-496,0,0,0,0,0,0,0,0,0,-1,1063,1520,0,0
-154,-496,0,0,0,0,0,0,0,0,0,-1,1070,1520,0,0
-147,-496,0,0,0,0,0,0,0,0,0,-1,1077,1520,0,0
-140,-496,0,0,0,0,0,0,0,0,0,-1,1084,1520,0,0
-133,-496,0,0,0,0,0,0,0,0,0,-1,1091,1520,0,0
-126,-496,0,0,0,0,0,0,0,0,0,-1,1098,1520,0,0
-119,-496,0,0,0,0,0,0,0,0,0,-1,1105,1520,0,0
-112,-496,0,0,0,0,0,0,0,0,0,-1,1112,1520,0,0
-105,-496,0,0,0,0,0,0,0,0,0,-1,1119,1520,0,0
-98,-496,0,0,0,0,0,0,0,0,0,-1,1126,1520,0,0
-91,-496,0,0,0,0,0,0,0,0,0,-1,1133,1520,0,0
-84,-496,0,0,0,0,0,0,0,0,0,-1,1140,1520,0,0
-77,-496,0,0,0,0,0,0,0,0,0,-1,1147,1520,0,0
-70,-496,0,0,0,0,0,0,0,0,0,-1,1154,1520,0,0
-63,-496,0,0,0,0,0,0,0,0,0,-1,1161,1520,0,0
-56,-496,0,0,0,0,0,0,0,0,0,-1,1168,1520,0,0
-49,-496,0,0,0,0,0,0,0,0,0,-1,1175,1520,0,0
-42,-496,0,0,0,0,0,0,0,0,0,-1,1182,1520,0,0
-35,-496,0,0,0,0,0,0,0,0,0,-1,1189,1520,0,0
-28,-496,0,0,0,0,0,0,0,0,0,-1,1196,1520,0,0
-21,-496,0,0,0,0,0,0,0,0,0,-1,1203,1520,0,0
-14,-496,0,0,0,0,0,0,0,0,0,-1,1210,1520,0,0
-7,-496,0,0,0,0,0,0,0,0,0,-1,1217,1520,0,0
0,-496,0,0,0,0,0,0,0,0,0,-1,1224,1520,0,0
7,-496,0,0,0,0,0,0,0,0,0,-1,1231,1520,0,0
14,-496,0,0,0,0,0,0,0,0,0,-1,1238,1520,0,0
21,-496,0,0,0,0,0,0,0,0,0,-1,1245,1520,0,0
28,-496,0,0,0,0,0,0,0,0,0,-1,1252,1520,0,0
35,-496,0,0,0,0,0,0,0,0,0,-1,1259,1520,0,0
42,-496,0,0,0,0,0,0,0,0,0,-1,1266,1520,0,0
49,-496,0,0,0,0,0,0,0,0,0,-1,1273,1520,0,0
56,-496,0,0,0,0,0,0,0,0,0,-1,1280,1520,0,0
63,-496,0,0,0,0,0,0,0,0,0,-1,1287,1520,0,0
70,-496,0,0,0,0,0,0,0,0,0,-1,1294,1520,0,0
77,-496,0,0,0,0,0,0,0,0,0,-1,1301,1520,0,0
84,-496,0,0,0,0,0,0,0,0,0,-1,1308,1520,0,0
91,-496,0,0,0,0,0,0,0,0,0,-1,1315,1520,0,0
98,-496,0,0,0,0,0,0,0,0,0,-1,1322,1520,0,0
105,-496,0,0,0,0,0,0,0,0,0,-1,1329,1520,0,0
112,-496,0,0,0,0,0,0,0,0,0,-1,1336,1520,0,0
119,-496,0,0,0,0,0,0,0,0,0,-1,1343,1520,0,0
126,-496,0,0,0,0,0,0,0,0,0,-1,1350,1520,0,0
133,-496,0,0,0,0,0,0,0,0,0,-1,1357,1520,0,0
140,-496,0,0,0,0,0,0,0,0,0,-1,1364,1520,0,0
147,-496,0,0,0,0,0,0,0,0,0,-1,1371,1520,0,0
154,-496,0,0,0,0,0,0,0,0,0,-1,1378,1520,0,0
161,-496,0,0,0,0,0,0,0,0,0,-1,1385,1520,0,0
168,-496,0,0,0,0,0,0,0,0,0,-1,1392,1520,0,0
175,-496,0,0,0,0,0,0,0,0,0,-1,1399,1520,0,0
182,-496,0,0,0,0,0,0,0,0,0,-1,1406,1520,0,0
189,-496,0,0,0,0,0,0,0,0,0,-1,1413,1520,0,0
196,-496,0,0,0,0,0,0,0,0,0,-1,1420,1520,0,0
203,-496,0,0,0,0,0,0,0,0,0,-1,1427,1520,0,0
210,-496,0,0,0,0,0,0,0,0,0,-1,1434,1520,0,0
217,-496,0,0,0,0,0,0,0,0,0,-1,1441,1520,0,0
224,-496,0,0,0,0,0,0,0,0,0,-1,1448,1520,0,0
231,-496,0,0,0,0,0,0,0,0,0,-1,1455,1520,0,0
238,-496,0,0,0,0,0,0,0,0,0,-1,1462,1520,0,0
245,-496,0,0,0,0,0,0,0,0,0,-1,1469,1520,0,0
252,-496,0,0,0,0,0,0,0,0,0,-1,1476,1520,0,0
259,-496,0,0,0,0,0,0,0,0,0,-1,1483,1520,0,0
266,-496,0,0,0,0,0,0,0,0,0,-1,1490,1520,0,0
273,-496,0,0,0,0,0,0,0,0,0,-1,1497,1520,0,0
280,-496,0,0,0,0,0,0,0,0,0,-1,1504,1520,0,0
287,-496,0,0,0,0,0,0,0,0,0,-1,1511,1520,0,0
294,-496,0,0,0,0,0,0,0,0,0,-1,1518,1520,0,0
301,-496,0,0,0,0,0,0,0,0,0,-1,1525,1520,0,0
308,-496,0,0,0,0,0,0,0,0,0,-1,1532,1520,0,0
315,-496,0,0,0,0,0,0,0,0,0,-1,1539,1520,0,0
322,-496,0,0,0,0,0,0,0,0,0,-1,1546,1520,0,0
329,-496,0,0,0,0,0,0,0,0,0,-1,1553,1520,0,0
336,-496,0,0,0,0,0,0,0,0,0,-1,1560,1520,0,0
343,-496,0,0,0,0,0,0,0,0,0,-1,1567,1520,0,0
350,-496,0,0,0,0,0,0,0,0,0,-1,1574,1520,0,0
357,-496,0,0,0,0,0,0,0,0,0,-1,1581,1520,0,0
364,-496,0,0,0,0,0,0,0,0,0,-1,1588,1520,0,0
371,-496,0,0,0,0,0,0,0,0,0,-1,1595,1520,0,0
378,-496,0,0,0,0,0,0,0,0,0,-1,1602,1520,0,0
385,-496,0,0,0,0,0,0,0,0,0,-1,1609,1520,0,0
392,-496,0,0,0,0,0,0,0,0,0,-1,1616,1520,0,0
399,-496,0,0,0,0,0,0,0,0,0,-1,1623,1520,0,0
406,-496,0,0,0,0,0,0,0,0,0,-1,1630,1520,0,0
413,-496,0,0,0,0,0,0,0,0,0,-1,1637,1520,0,0
420,-496,0,0,0,0,0,0,0,0,0,-1,1644,1520,0,0
427,-496,0,0,0,0,0,0,0,0,0,-1,1651,1520,0,0
434,-496,11.0457,3.37732,0,0,0,0,0,0,0,-1,1658,1520,11.0456,-3.37736
441,-496,11.788,2.75488,0,0,0,0,0,0,0,-1,1665,1520,11.7879,-2.75485
448,-496,12.2146,2.18494,0,0,0,0,0,0,0,-1,1672,1520,12.2146,-2.18489
455,-496,12.3489,1.65173,0,0,0,0,0,0,0,-1,1679,1520,12.3489,-1.65178
462,-496,12.1912,1.32361,0,0,0,0,0,0,0,-1,1686,1520,12.1911,-1.32357
469,-496,14.8138,5.77954,0,0,0,0,0,0,0,-1,1693,1520,14.8138,-5.77958
476,-496,15.2449,6.27942,0,0,0,0,0,0,0,-1,1700,1520,15.2449,-6.27936
483,-496,9.19812,6.88367,0,0,0,0,0,0,0,-1,1707,1520,9.19812,-6.88361
490,-496,10.2123,7.97144,0,0,0,0,0,0,0,-1,1714,1520,10.2122,-7.97145
497,-496,13.9297,12.2981,0,0,0,0,0,0,0,-1,1721,1520,13.9297,-12.2982
504,-496,16.3271,16.6501,0,0,0,0,0,0,0,-1,1728,1520,16.3272,-16.6502
511,-496,17.6753,18.0685,0,0,0,0,0,0,0,-1,1735,1520,17.6753,-18.0685
518,-496,17.0537,17.3118,0,0,0,0,0,0,0,-1,1742,1520,17.0538,-17.3118
525,-496,18.2721,19.3259,0,0,0,0,0,0,0,-1,1749,1520,18.2721,-19.3259
532,-496,27.1248,30.4009,0,0,0,0,0,0,0,-1,1756,1520,27.1248,-30.4009
539,-496,26.6648,30.4307,0,0,0,0,0,0,0,-1,1763,1520,26.6648,-30.4307
546,-496,26.9155,29.5387,0.00781641,0.00553632,-0.00438813,0.0112102,0.00214256,-0.658307,0.00687152,0.0219186,1770,1520,26.9155,-29.5387
553,-496,27.0002,28.7445,0.00631005,0.00398726,-0.00320519,0.00855777,0.00173954,-0.611582,0.00522281,0.0154387,1777,1520,27.0003,-28.7446
560,-496,27.0081,28.0541,0.00505697,0.00270999,-0.00227888,0.00644675,0.0013202,-0.547634,0.00393235,0.0155242,1784,1520,27.0081,-28.0541
567,-496,26.9818,27.3312,0.00411156,0.00178445,-0.00168189,0.00499315,0.000902859,-0.482793,0.00307235,0.0131723,1791,1520,26.9819,-27.3312
574,-496,26.9399,26.624,0.00345157,0.00112069,-0.00131759,0.00404519,0.000527067,-0.4233,0.0025394,0.0130546,1798,1520,26.9399,-26.624
581,-496,26.8926,25.9543,0.00292872,0.000606727,-0.00106788,0.00334515,0.000190298,-0.371821,0.00216945,0.0136565,1805,1520,26.8925,-25.9544
588,-496,26.8689,25.2606,0.00269457,0.000288032,-0.000978239,0.00304205,-5.94427e-05,-0.341304,0.00204813,0.0154055,1812,1520,26.8689,-25.2606
595,-496,26.8168,24.5688,0.00279458,0.000108833,-0.000861982,0.00304742,-0.000144014,-0.285328,0.00208128,0.0174129,1819,1520,26.8168,-24.5689
602,-496,26.7777,23.8759,0.00304169,0.000121429,-0.000876749,0.0032847,-0.000121576,-0.270378,0.00223143,0.0182486,1826,1520,26.7777,-23.8758
609,-496,26.7739,23.1107,0.00345929,0.000177267,-0.000838063,0.00366091,-2.43466e-05,-0.236085,0.00244876,0.0180371,1833,1520,26.774,-23.1107
616,-496,26.8734,22.2467,0.00439745,0.000117065,-0.000609199,0.00448247,3.20501e-05,-0.138656,0.00297769,0.0487444,1840,1520,26.8734,-22.2468
623,-496,26.8857,21.5283,0,0,0,0,0,0,0,-1,1847,1520,26.8857,-21.5283
630,-496,18.5656,13.8966,0,0,0,0,0,0,0,-1,1854,1520,18.5655,-13.8967
637,-496,14.6411,10.1016,0,0,0,0,0,0,0,-1,1861,1520,14.6411,-10.1016
644,-496,12.4537,10.087,0,0,0,0,0,0,0,-1,1868,1520,12.4537,-10.0871
651,-496,8.18506,5.47803,0,0,0,0,0,0,0,-1,1875,1520,8.18505,-5.47806
658,-496,7.79993,4.02563,0,0,0,0,0,0,0,-1,1882,1520,7.79997,-4.02568
665,-496,5.47583,7.90625,0,0,0,0,0,0,0,-1,1889,1520,5.47581,-7.90628
672,-496,0,0,0,0,0,0,0,0,0,-1,1896,1520,0,0
679,-496,0,0,0,0,0,0,0,0,0,-1,1903,1520,0,0
686,-496,0,0,0,0,0,0,0,0,0,-1,1910,1520,0,0
693,-496,0,0,0,0,0,0,0,0,0,-1,1917,1520,0,0
700,-496,0,0,0,0,0,0,0,0,0,-1,1924,1520,0,0
707,-496,0,0,0,0,0,0,0,0,0,-1,1931,1520,0,0
714,-496,0,0,0,0,0,0,0,0,0,-1,1938,1520,0,0
721,-496,0,0,0,0,0,0,0,0,0,-1,1945,1520,0,0
728,-496,0,0,0,0,0,0,0,0,0,-1,1952,1520,0,0
735,-496,0,0,0,0,0,0,0,0,0,-1,1959,1520,0,0
742,-496,0,0,0,0,0,0,0,0,0,-1,1966,1520,0,0
749,-496,0,0,0,0,0,0,0,0,0,-1,1973,1520,0,0
756,-496,0,0,0,0,0,0,0,0,0,-1,1980,1520,0,0
763,-496,0,0,0,0,0,0,0,0,0,-1,1987,1520,0,0
770,-496,0,0,0,0,0,0,0,0,0,-1,1994,1520,0,0
777,-496,0,0,0,0,0,0,0,0,0,-1,2001,1520,0,0
784,-496,0,0,0,0,0,0,0,0,0,-1,2008,1520,0,0
791,-496,0,0,0,0,0,0,0,0,0,-1,2015,1520,0,0
798,-496,0,0,0,0,0,0,0,0,0,-1,2022,1520,0,0
805,-496,0,0,0,0,0,0,0,0,0,-1,2029,1520,0,0
812,-496,0,0,0,0,0,0,0,0,0,-1,2036,1520,0,0
-700,-503,0,0,0,0,0,0,0,0,0,-1,524,1527,0,0
-693,-503,0,0,0,0,0,0,0,0,0,-1,531,1527,0,0
-686,-503,0,0,0,0,0,0,0,0,0,-1,538,1527,0,0
-679,-503,0,0,0,0,0,0,0,0,0,-1,545,1527,0,0
-672,-503,0,0,0,0,0,0,0,0,0,-1,552,1527,0,0
-665,-503,0,0,0,0,0,0,0,0,0,-1,559,1527,0,0
-658,-503,0,0,0,0,0,0,0,0,0,-1,566,1527,0,0
-651,-503,0,0,0,0,0,0,0,0,0,-1,573,1527,0,0
-644,-503,0,0,0,0,0,0,0,0,0,-1,580,1527,0,0
-637,-503,0,0,0,0,0,0,0,0,0,-1,587,1527,0,0
-630,-503,0,0,0,0,0,0,0,0,0,-1,594,1527,0,0
-623,-503,0,0,0,0,0,0,0,0,0,-1,601,1527,0,0
-616,-503,0,0,0,0,0,0,0,0,0,-1,608,1527,0,0
-609,-503,0,0,0,0,0,0,0,0,0,-1,615,1527,0,0
-602,-503,0,0,0,0,0,0,0,0,0,-1,622,1527,0,0
-595,-503,0,0,0,0,0,0,0,0,0,-1,629,1527,0,0
-588,-503,0,0,0,0,0,0,0,0,0,-1,636,1527,0,0
-581,-503,0,0,0,0,0,0,0,0,0,-1,643,1527,0,0
-574,-503,0,0,0,0,0,0,0,0,0,-1,650,1527,0,0
-567,-503,0,0,0,0,0,0,0,0,0,-1,657,1527,0,0
-560,-503,0,0,0,0,0,0,0,0,0,-1,664,1527,0,0
-553,-503,0,0,0,0,0,0,0,0,0,-1,671,1527,0,0
-546,-503,0,0,0,0,0,0,0,0,0,-1,678,1527,0,0
-539,-503,3.50177,4.26428,0,0,0,0,0,0,0,-1,685,1527,3.50177,-4.26424
-532,-503,-3.13196,1.05298,0,0,0,0,0,0,0,-1,692,1527,-3.13194,-1.05299
-525,-503,-2.94293,2.59314,0,0,0,0,0,0,0,-1,699,1527,-2.94296,-2.59314
-518,-503,-2.7395,4.05872,0,0,0,0,0,0,0,-1,706,1527,-2.73948,-4.05871
-511,-503,-1.60022,7.23877,0,0,0,0,0,0,0,-1,713,1527,-1.60023,-7.23872
-504,-503,-8.1402,10.1541,0,0,0,0,0,0,0,-1,720,1527,-8.14017,-10.1541
-497,-503,-4.51758,14.0781,0,0,0,0,0,0,0,-1,727,1527,-4.5176,-14.0782
-490,-503,-4.24194,16.1982,0,0,0,0,0,0,0,-1,734,1527,-4.24196,-16.1982
-483,-503,-8.422,21.7767,0,0,0,0,0,0,0,-1,741,1527,-8.42202,-21.7768
-476,-503,-8.27551,22.5848,0.0015165,-0.00315259,0.00419477,0.0039826,-0.0056187,0.531474,0.00557008,0.0425049,748,1527,-8.27549,-22.5848
-469,-503,-8.41736,23.214,0.000803693,-0.00331172,0.00303936,0.00241639,-0.00492442,0.48783,0.00431988,0.0156495,755,1527,-8.41736,-23.2139
-462,-503,-8.46332,23.9816,0.00042415,-0.00285075,0.00222238,0.00154718,-0.00397378,0.467899,0.00328855,0.011189,762,1527,-8.4633,-23.9816
-455,-503,-8.50409,24.7245,0.000341161,-0.00207547,0.00169521,0.00121461,-0.00294893,0.475771,0.00247236,0.0179279,769,1527,-8.5041,-24.7245
-448,-503,-8.50653,25.4816,0.000505773,-0.00106791,0.00144045,0.00136027,-0.00192242,0.535419,0.0019045,0.018246,776,1527,-8.50652,-25.4816
-441,-503,-8.5191,26.1962,0.000883313,0.000111437,0.00144241,0.00199053,-0.000995776,0.654678,0.00175574,0.0140845,783,1527,-8.51908,-26.1961
-434,-503,-8.57904,26.8966,0.00143431,0.00141371,0.00166683,0.00309087,-0.000242854,0.782309,0.00214612,0.0114134,790,1527,-8.57907,-26.8966
-427,-503,-8.6441,27.6053,0.00211835,0.00270899,0.00205987,0.0044946,0.00033274,0.856597,0.00289187,0.0177059,797,1527,-8.64413,-27.6054
-420,-503,-8.62354,28.355,0.00296228,0.00404314,0.00264196,0.00619938,0.000806044,0.886284,0.00389216,0.0180404,804,1527,-8.62352,-28.355
-413,-503,-8.64752,29.1243,0.00414486,0.00552551,0.00362422,0.00852457,0.0011458,0.879508,0.00534223,0.0161969,811,1527,-8.64751,-29.1243
-406,-503,-8.66968,29.8395,0.00538844,0.00680912,0.00472614,0.010878,0.00131956,0.85999,0.00685462,0.0265973,818,1527,-8.66971,-29.8395
-399,-503,-8.5661,30.7699,0.00669833,0.0079271,0.00612513,0.0134686,0.00115685,0.835384,0.00861936,0.0454339,825,1527,-8.56608,-30.7699
-392,-503,-8.24097,31.9279,0,0,0,0,0,0,0,-1,832,1527,-8.24099,-31.9278
-385,-503,-2.00403,14.1218,0,0,0,0,0,0,0,-1,839,1527,-2.00403,-14.1218
-378,-503,-2.07043,13.8632,0,0,0,0,0,0,0,-1,846,1527,-2.07043,-13.8631
-371,-503,-1.67285,13.8081,0,0,0,0,0,0,0,-1,853,1527,-1.67285,-13.8081
-364,-503,0.181396,12.3768,0,0,0,0,0,0,0,-1,860,1527,0.18138,-12.3768
-357,-503,0.558533,9.25452,0,0,0,0,0,0,0,-1,867,1527,0.558542,-9.25446
-350,-503,0.219971,6.84827,0,0,0,0,0,0,0,-1,874,1527,0.21996,-6.84831
-343,-503,-3.5802,4.43274,0,0,0,0,0,0,0,-1,881,1527,-3.58018,-4.43276
-336,-503,-3.2384,6.40637,0,0,0,0,0,0,0,-1,888,1527,-3.2384,-6.40643
-329,-503,-1.70691,11.886,0,0,0,0,0,0,0,-1,895,1527,-1.70689,-11.886
-322,-503,-3.31317,8.81519,0,0,0,0,0,0,0,-1,902,1527,-3.31315,-8.81524
-315,-503,-3.90265,7.73853,0,0,0,0,0,0,0,-1,909,1527,-3.90264,-7.73854
-308,-503,-1.70264,7.35413,0,0,0,0,0,0,0,-1,916,1527,-1.70262,-7.35416
-301,-503,0,0,0,0,0,0,0,0,0,-1,923,1527,0,0
-294,-503,0,0,0,0,0,0,0,0,0,-1,930,1527,0,0
-287,-503,0,0,0,0,0,0,0,0,0,-1,937,1527,0,0
-280,-503,0,0,0,0,0,0,0,0,0,-1,944,1527,0,0
-273,-503,0,0,0,0,0,0,0,0,0,-1,951,1527,0,0
-266,-503,0,0,0,0,0,0,0,0,0,-1,958,1527,0,0
-259,-503,0,0,0,0,0,0,0,0,0,-1,965,1527,0,0
-252,-503,0,0,0,0,0,0,0,0,0,-1,972,1527,0,0
-245,-503,0,0,0,0,0,0,0,0,0,-1,979,1527,0,0
-238,-503,0,0,0,0,0,0,0,0,0,-1,986,1527,0,0
-231,-503,0,0,0,0,0,0,0,0,0,-1,993,1527,0,0
-224,-503,0,0,0,0,0,0,0,0,0,-1,1000,1527,0,0
-217,-503,0,0,0,0,0,0,0,0,0,-1,1007,1527,0,0
-210,-503,0,0,0,0,0,0,0,0,0,-1,1014,1527,0,0
-203,-503,0,0,0,0,0,0,0,0,0,-1,1021,1527,0,0
-196,-503,0,0,0,0,0,0,0,0,0,-1,1028,1527,0,0
-189,-503,0,0,0,0,0,0,0,0,0,-1,1035,1527,0,0
-182,-503,0,0,0,0,0,0,0,0,0,-1,1042,1527,0,0
-175,-503,0,0,0,0,0,0,0,0,0,-1,1049,1527,0,0
-168,-503,0,0,0,0,0,0,0,0,0,-1,1056,1527,0,0
-161,-503,0,0,0,0,0,0,0,0,0,-1,1063,1527,0,0
-154,-503,0,0,0,0,0,0,0,0,0,-1,1070,1527,0,0
-147,-503,0,0,0,0,0,0,0,0,0,-1,1077,1527,0,0
-140,-503,0,0,0,0,0,0,0,0,0,-1,1084,1527,0,0
-133,-503,0,0,0,0,0,0,0,0,0,-1,1091,1527,0,0
-126,-503,0,0,0,0,0,0,0,0,0,-1,1098,1527,0,0
-119,-503,0,0,0,0,0,0,0,0,0,-1,1105,1527,0,0
-112,-503,0,0,0,0,0,0,0,0,0,-1,1112,1527,0,0
-105,-503,0,0,0,0,0,0,0,0,0,-1,1119,1527,0,0
-98,-503,0,0,0,0,0,0,0,0,0,-1,1126,1527,0,0
-91,-503,0,0,0,0,0,0,0,0,0,-1,1133,1527,0,0
-84,-503,0,0,0,0,0,0,0,0,0,-1,1140,1527,0,0
-77,-503,0,0,0,0,0,0,0,0,0,-1,1147,1527,0,0
-70,-503,0,0,0,0,0,0,0,0,0,-1,1154,1527,0,0
-63,-503,0,0,0,0,0,0,0,0,0,-1,1161,1527,0,0
-56,-503,0,0,0,0,0,0,0,0,0,-1,1168,1527,0,0
-49,-503,0,0,0,0,0,0,0,0,0,-1,1175,1527,0,0
-42,-503,0,0,0,0,0,0,0,0,0,-1,1182,1527,0,0
-35,-503,0,0,0,0,0,0,0,0,0,-1,1189,1527,0,0
-28,-503,0,0,0,0,0,0,0,0,0,-1,1196,1527,0,0
-21,-503,0,0,0,0,0,0,0,0,0,-1,1203,1527,0,0
-14,-503,0,0,0,0,0,0,0,0,0,-1,1210,1527,0,0
-7,-503,0,0,0,0,0,0,0,0,0,-1,1217,1527,0,0
0,-503,0,0,0,0,0,0,0,0,0,-1,1224,1527,0,0
7,-503,0,0,0,0,0,0,0,0,0,-1,1231,1527,0,0
14,-503,0,0,0,0,0,0,0,0,0,-1,1238,1527,0,0
21,-503,0,0,0,0,0,0,0,0,0,-1,1245,1527,0,0
28,-503,0,0,0,0,0,0,0,0,0,-1,1252,1527,0,0
35,-503,0,0,0,0,0,0,0,0,0,-1,1259,1527,0,0
42,-503,0,0,0,0,0,0,0,0,0,-1,1266,1527,0,0
49,-503,0,0,0,0,0,0,0,0,0,-1,1273,1527,0,0
56,-503,0,0,0,0,0,0,0,0,0,-1,1280,1527,0,0
63,-503,0,0,0,0,0,0,0,0,0,-1,1287,1527,0,0
70,-503,0,0,0,0,0,0,0,0,0,-1,1294,1527,0,0
77,-503,0,0,0,0,0,0,0,0,0,-1,1301,1527,0,0
84,-503,0,0,0,0,0,0,0,0,0,-1,1308,1527,0,0
91,-503,0,0,0,0,0,0,0,0,0,-1,1315,1527,0,0
98,-503,0,0,0,0,0,0,0,0,0,-1,1322,1527,0,0
105,-503,0,0,0,0,0,0,0,0,0,-1,1329,1527,0,0
112,-503,0,0,0,0,0,0,0,0,0,-1,1336,1527,0,0
119,-503,0,0,0,0,0,0,0,0,0,-1,1343,1527,0,0
126,-503,0,0,0,0,0,0,0,0,0,-1,1350,1527,0,0
133,-503,0,0,0,0,0,0,0,0,0,-1,1357,1527,0,0
140,-503,0,0,0,0,0,0,0,0,0,-1,1364,1527,0,0
147,-503,0,0,0,0,0,0,0,0,0,-1,1371,1527,0,0
154,-503,0,0,0,0,0,0,0,0,0,-1,1378,1527,0,0
161,-503,0,0,0,0,0,0,0,0,0,-1,1385,1527,0,0
168,-503,0,0,0,0,0,0,0,0,0,-1,1392,1527,0,0
175,-503,0,0,0,0,0,0,0,0,0,-1,1399,1527,0,0
182,-503,0,0,0,0,0,0,0,0,0,-1,1406,1527,0,0
189,-503,0,0,0,0,0,0,0,0,0,-1,1413,1527,0,0
196,-503,0,0,0,0,0,0,0,0,0,-1,1420,1527,0,0
203,-503,0,0,0,0,0,0,0,0,0,-1,1427,1527,0,0
210,-503,0,0,0,0,0,0,0,0,0,-1,1434,1527,0,0
217,-503,0,0,0,0,0,0,0,0,0,-1,1441,1527,0,0
224,-503,0,0,0,0,0,0,0,0,0,-1,1448,1527,0,0
231,-503,0,0,0,0,0,0,0,0,0,-1,1455,1527,0,0
238,-503,0,0,0,0,0,0,0,0,0,-1,1462,1527,0,0
245,-503,0,0,0,0,0,0,0,0,0,-1,1469,1527,0,0
252,-503,0,0,0,0,0,0,0,0,0,-1,1476,1527,0,0
259,-503,0,0,0,0,0,0,0,0,0,-1,1483,1527,0,0
266,-503,0,0,0,0,0,0,0,0,0,-1,1490,1527,0,0
273,-503,0,0,0,0,0,0,0,0,0,-1,1497,1527,0,0
280,-503,0,0,0,0,0,0,0,0,0,-1,1504,1527,0,0
287,-503,0,0,0,0,0,0,0,0,0,-1,1511,1527,0,0
294,-503,0,0,0,0,0,0,0,0,0,-1,1518,1527,0,0
301,-503,0,0,0,0,0,0,0,0,0,-1,1525,1527,0,0
308,-503,0,0,0,0,0,0,0,0,0,-1,1532,1527,0,0
315,-503,0,0,0,0,0,0,0,0,0,-1,1539,1527,0,0
322,-503,0,0,0,0,0,0,0,0,0,-1,1546,1527,0,0
329,-503,0,0,0,0,0,0,0,0,0,-1,1553,1527,0,0
336,-503,0,0,0,0,0,0,0,0,0,-1,1560,1527,0,0
343,-503,0,0,0,0,0,0,0,0,0,-1,1567,1527,0,0
350,-503,0,0,0,0,0,0,0,0,0,-1,1574,1527,0,0
357,-503,0,0,0,0,0,0,0,0,0,-1,1581,1527,0,0
364,-503,0,0,0,0,0,0,0,0,0,-1,1588,1527,0,0
371,-503,0,0,0,0,0,0,0,0,0,-1,1595,1527,0,0
378,-503,0,0,0,0,0,0,0,0,0,-1,1602,1527,0,0
385,-503,0,0,0,0,0,0,0,0,0,-1,1609,1527,0,0
392,-503,0,0,0,0,0,0,0,0,0,-1,1616,1527,0,0
399,-503,0,0,0,0,0,0,0,0,0,-1,1623,1527,0,0
406,-503,0,0,0,0,0,0,0,0,0,-1,1630,1527,0,0
413,-503,0,0,0,0,0,0,0,0,0,-1,1637,1527,0,0
420,-503,0,0,0,0,0,0,0,0,0,-1,1644,1527,0,0
427,-503,10.5968,4.9856,0,0,0,0,0,0,0,-1,1651,1527,10.5969,-4.98563
434,-503,11.4329,3.97217,0,0,0,0,0,0,0,-1,1658,1527,11.4328,-3.97222
441,-503,12.0957,2.96509,0,0,0,0,0,0,0,-1,1665,1527,12.0957,-2.96512
448,-503,12.3259,2.53894,0,0,0,0,0,0,0,-1,1672,1527,12.326,-2.53895
455,-503,12.1669,2.18762,0,0,0,0,0,0,0,-1,1679,1527,12.1668,-2.18767
462,-503,11.59,2.60791,0,0,0,0,0,0,0,-1,1686,1527,11.5899,-2.60794
469,-503,11.1625,1.61853,0,0,0,0,0,0,0,-1,1693,1527,11.1625,-1.61856
476,-503,9.07703,5.81042,0,0,0,0,0,0,0,-1,1700,1527,9.07699,-5.81047
483,-503,9.74414,6.92432,0,0,0,0,0,0,0,-1,1707,1527,9.74417,-6.9243
490,-503,10.5033,10.1071,0,0,0,0,0,0,0,-1,1714,1527,10.5032,-10.107
497,-503,15.0057,17.9476,0,0,0,0,0,0,0,-1,1721,1527,15.0058,-17.9476
504,-503,16.4764,18.4486,0,0,0,0,0,0,0,-1,1728,1527,16.4764,-18.4486
511,-503,16.8276,18.3271,0,0,0,0,0,0,0,-1,1735,1527,16.8276,-18.3272
518,-503,17.2533,18.2738,0,0,0,0,0,0,0,-1,1742,1527,17.2533,-18.2738
525,-503,21.2887,26.5785,0,0,0,0,0,0,0,-1,1749,1527,21.2887,-26.5785
532,-503,26.225,31.0835,0,0,0,0,0,0,0,-1,1756,1527,26.225,-31.0835
539,-503,26.2404,30.3021,0.00801767,0.00627158,-0.00493497,0.0121562,0.00213302,-0.697849,0.00749501,0.0307948,1763,1527,26.2404,-30.3022
546,-503,26.2871,29.4703,0.00640761,0.00475744,-0.00371827,0.00939124,0.00177381,-0.676217,0.00576131,0.0140555,1770,1527,26.2871,-29.4703
553,-503,26.3091,28.7799,0.00518772,0.00340449,-0.00272913,0.00716719,0.00142502,-0.627512,0.00438106,0.0149274,1777,1527,26.3091,-28.7799
560,-503,26.2682,28.0869,0.00419419,0.00224193,-0.00193374,0.00538421,0.00105192,-0.551663,0.00329528,0.0148011,1784,1527,26.2681,-28.0869
567,-503,26.2605,27.3544,0.00350336,0.00143391,-0.00146131,0.00425919,0.000678081,-0.477334,0.00264259,0.0133697,1791,1527,26.2605,-27.3544
574,-503,26.2378,26.6512,0.00306031,0.000826008,-0.00116264,0.00355554,0.000330779,-0.402676,0.00226815,0.0132684,1798,1527,26.2378,-26.6512
581,-503,26.1869,25.9784,0.00276393,0.000364525,-0.000988529,0.00311873,9.7251e-06,-0.344596,0.00207592,0.0142796,1805,1527,26.1869,-25.9784
588,-503,26.1481,25.3236,0.00275109,0.0001185,-0.000997703,0.00308648,-0.000216884,-0.324289,0.00213362,0.0172122,1812,1527,26.148,-25.3236
595,-503,26.1268,24.5978,0.00305485,4.48073e-05,-0.00100639,0.00336033,-0.000260671,-0.2947,0.00233197,0.0131621,1819,1527,26.1268,-24.5978
602,-503,26.1456,23.8228,0.00354223,0.000230679,-0.00117626,0.00391751,-0.000144601,-0.308836,0.00266118,0.0231825,1826,1527,26.1457,-23.8228
609,-503,26.139,23.0774,0,0,0,0,0,0,0,-1,1833,1527,26.139,-23.0774
616,-503,26.3145,22.3207,0,0,0,0,0,0,0,-1,1840,1527,26.3145,-22.3207
623,-503,18.7351,15.5999,0,0,0,0,0,0,0,-1,1847,1527,18.7351,-15.5999
630,-503,20.6721,13.9077,0,0,0,0,0,0,0,-1,1854,1527,20.6721,-13.9077
637,-503,14.5564,9.20496,0,0,0,0,0,0,0,-1,1861,1527,14.5564,-9.2049
644,-503,11.4802,7.57214,0,0,0,0,0,0,0,-1,1868,1527,11.4802,-7.57215
651,-503,11.5718,6.5448,0,0,0,0,0,0,0,-1,1875,1527,11.5718,-6.54476
658,-503,8.25635,3.10498,0,0,0,0,0,0,0,-1,1882,1527,8.2563,-3.10493
665,-503,0,0,0,0,0,0,0,0,0,-1,1889,1527,0,0
672,-503,0,0,0,0,0,0,0,0,0,-1,1896,1527,0,0
679,-503,0,0,0,0,0,0,0,0,0,-1,1903,1527,0,0
686,-503,0,0,0,0,0,0,0,0,0,-1,1910,1527,0,0
693,-503,0,0,0,0,0,0,0,0,0,-1,1917,1527,0,0
700,-503,0,0,0,0,0,0,0,0,0,-1,1924,1527,0,0
707,-503,0,0,0,0,0,0,0,0,0,-1,1931,1527,0,0
714,-503,0,0,0,0,0,0,0,0,0,-1,1938,1527,0,0
721,-503,0,0,0,0,0,0,0,0,0,-1,1945,1527,0,0
728,-503,0,0,0,0,0,0,0,0,0,-1,1952,1527,0,0
735,-503,0,0,0,0,0,0,0,0,0,-1,1959,1527,0,0
742,-503,0,0,0,0,0,0,0,0,0,-1,1966,1527,0,0
749,-503,0,0,0,0,0,0,0,0,0,-1,1973,1527,0,0
756,-503,0,0,0,0,0,0,0,0,0,-1,1980,1527,0,0
763,-503,0,0,0,0,0,0,0,0,0,-1,1987,1527,0,0
770,-503,0,0,0,0,0,0,0,0,0,-1,1994,1527,0,0
777,-503,0,0,0,0,0,0,0,0,0,-1,2001,1527,0,0
784,-503,0,0,0,0,0,0,0,0,0,-1,2008,1527,0,0
791,-503,0,0,0,0,0,0,0,0,0,-1,2015,1527,0,0
798,-503,0,0,0,0,0,0,0,0,0,-1,2022,1527,0,0
805,-503,0,0,0,0,0,0,0,0,0,-1,2029,1527,0,0
812,-503,0,0,0,0,0,0,0,0,0,-1,2036,1527,0,0
-700,-510,0,0,0,0,0,0,0,0,0,-1,524,1534,0,0
-693,-510,0,0,0,0,0,0,0,0,0,-1,531,1534,0,0
-686,-510,0,0,0,0,0,0,0,0,0,-1,538,1534,0,0
-679,-510,0,0,0,0,0,0,0,0,0,-1,545,1534,0,0
-672,-510,0,0,0,0,0,0,0,0,0,-1,552,1534,0,0
-665,-510,0,0,0,0,0,0,0,0,0,-1,559,1534,0,0
-658,-510,0,0,0,0,0,0,0,0,0,-1,566,1534,0,0
-651,-510,0,0,0,0,0,0,0,0,0,-1,573,1534,0,0
-644,-510,0,0,0,0,0,0,0,0,0,-1,580,1534,0,0
-637,-510,0,0,0,0,0,0,0,0,0,-1,587,1534,0,0
-630,-510,0,0,0,0,0,0,0,0,0,-1,594,1534,0,0
-623,-510,0,0,0,0,0,0,0,0,0,-1,601,1534,0,0
-616,-510,0,0,0,0,0,0,0,0,0,-1,608,1534,0,0
-609,-510,0,0,0,0,0,0,0,0,0,-1,615,1534,0,0
-602,-510,0,0,0,0,0,0,0,0,0,-1,622,1534,0,0
-595,-510,0,0,0,0,0,0,0,0,0,-1,629,1534,0,0
-588,-510,0,0,0,0,0,0,0,0,0,-1,636,1534,0,0
-581,-510,0,0,0,0,0,0,0,0,0,-1,643,1534,0,0
-574,-510,0,0,0,0,0,0,0,0,0,-1,650,1534,0,0
-567,-510,0,0,0,0,0,0,0,0,0,-1,657,1534,0,0
-560,-510,0,0,0,0,0,0,0,0,0,-1,664,1534,0,0
-553,-510,0,0,0,0,0,0,0,0,0,-1,671,1534,0,0
-546,-510,0,0,0,0,0,0,0,0,0,-1,678,1534,0,0
-539,-510,0,0,0,0,0,0,0,0,0,-1,685,1534,0,0
-532,-510,-3.95129,4.52014,0,0,0,0,0,0,0,-1,692,1534,-3.95131,-4.5202
-525,-510,-2.77411,0.316772,0,0,0,0,0,0,0,-1,699,1534,-2.77409,-0.3168
-518,-510,-2.86847,2.71423,0,0,0,0,0,0,0,-1,706,1534,-2.86849,-2.71424
-511,-510,-2.28571,4.48083,0,0,0,0,0,0,0,-1,713,1534,-2.28571,-4.48086
-504,-510,-4.86731,10.8224,0,0,0,0,0,0,0,-1,720,1534,-4.8673,-10.8224
-497,-510,-3.42352,15.5178,0,0,0,0,0,0,0,-1,727,1534,-3.42352,-15.5178
-490,-510,-5.9472,18.5184,0,0,0,0,0,0,0,-1,734,1534,-5.94718,-18.5185
-483,-510,-6.79639,20.8453,0,0,0,0,0,0,0,-1,741,1534,-6.79638,-20.8454
-476,-510,-7.74188,22.4949,0,0,0,0,0,0,0,-1,748,1534,-7.74187,-22.4949
-469,-510,-7.67828,23.2698,0.000784954,-0.00468557,0.00387235,0.00279066,-0.00669127,0.477908,0.00562668,0.021467,755,1534,-7.67828,-23.2697
-462,-510,-7.70612,23.9924,0.000184864,-0.00411432,0.00275817,0.00153216,-0.00546162,0.454386,0.00424499,0.0118168,762,1534,-7.70611,-23.9925
-455,-510,-7.74268,24.7574,-6.52334e-05,-0.00323433,0.00197777,0.000884458,-0.00418402,0.447668,0.00312616,0.0147784,769,1534,-7.74266,-24.7575
-448,-510,-7.73816,25.5068,-3.6004e-05,-0.00219679,0.00148084,0.000716668,-0.00294946,0.470245,0.00224368,0.0143971,776,1534,-7.73818,-25.5068
-441,-510,-7.78156,26.2212,0.000248197,-0.00100538,0.00128487,0.001051,-0.00180819,0.558468,0.00166994,0.014267,783,1534,-7.78153,-26.2212
-434,-510,-7.85547,26.9313,0.00070981,0.000256968,0.00132288,0.0018255,-0.000858723,0.70064,0.00158289,0.0146961,790,1534,-7.85545,-26.9312
-427,-510,-7.92029,27.6338,0.0012933,0.00145046,0.00152963,0.00290353,-0.00015977,0.81106,0.00199108,0.0226003,797,1534,-7.92028,-27.6337
-420,-510,-7.93097,28.397,0.00204226,0.00267075,0.00194264,0.0043244,0.00038861,0.865585,0.00276252,0.021603,804,1534,-7.93099,-28.3969
-413,-510,-7.94891,29.1542,0.00303885,0.0039273,0.00263469,0.00615495,0.000811201,0.868916,0.00386141,0.0112863,811,1534,-7.94891,-29.1541
-406,-510,-8.01019,29.8525,0.00410448,0.00506608,0.00345801,0.00807656,0.001094,0.854475,0.00505929,0.0107973,818,1534,-8.01018,-29.8525
-399,-510,-8.04022,30.5574,0.00520046,0.00609912,0.00450069,0.0101729,0.00112672,0.835151,0.00643927,0.0159436,825,1534,-8.04022,-30.5573
-392,-510,-7.96423,31.2751,0,0,0,0,0,0,0,-1,832,1534,-7.96426,-31.2752
-385,-510,-7.23199,31.704,0,0,0,0,0,0,0,-1,839,1534,-7.23198,-31.704
-378,-510,-1.78308,13.8044,0,0,0,0,0,0,0,-1,846,1534,-1.78309,-13.8044
-371,-510,-1.74982,13.8027,0,0,0,0,0,0,0,-1,853,1534,-1.74981,-13.8028
-364,-510,-1.3479,13.7771,0,0,0,0,0,0,0,-1,860,1534,-1.34791,-13.7771
-357,-510,-0.254395,8.89575,0,0,0,0,0,0,0,-1,867,1534,-0.254397,-8.89569
-350,-510,0.471191,6.06458,0,0,0,0,0,0,0,-1,874,1534,0.47118,-6.06453
-343,-510,-6.96869,26.3074,0,0,0,0,0,0,0,-1,881,1534,-6.9687,-26.3074
-336,-510,-5.60437,29.5996,0,0,0,0,0,0,0,-1,888,1534,-5.60435,-29.5996
-329,-510,-4.87781,20.6893,0,0,0,0,0,0,0,-1,895,1534,-4.87782,-20.6894
-322,-510,-0.251526,11.973,0,0,0,0,0,0,0,-1,902,1534,-0.251497,-11.9731
-315,-510,-1.73047,10.9796,0,0,0,0,0,0,0,-1,909,1534,-1.73049,-10.9796
-308,-510,-2.05328,9.72034,0,0,0,0,0,0,0,-1,916,1534,-2.05327,-9.72036
-301,-510,-1.85437,11.5869,0,0,0,0,0,0,0,-1,923,1534,-1.85437,-11.5869
-294,-510,0,0,0,0,0,0,0,0,0,-1,930,1534,0,0
-287,-510,0,0,0,0,0,0,0,0,0,-1,937,1534,0,0
-280,-510,0,0,0,0,0,0,0,0,0,-1,944,1534,0,0
-273,-510,0,0,0,0,0,0,0,0,0,-1,951,1534,0,0
-266,-510,0,0,0,0,0,0,0,0,0,-1,958,1534,0,0
-259,-510,0,0,0,0,0,0,0,0,0,-1,965,1534,0,0
-252,-510,0,0,0,0,0,0,0,0,0,-1,972,1534,0,0
-245,-510,0,0,0,0,0,0,0,0,0,-1,979,1534,0,0
-238,-510,0,0,0,0,0,0,0,0,0,-1,986,1534,0,0
-231,-510,0,0,0,0,0,0,0,0,0,-1,993,1534,0,0
-224,-510,0,0,0,0,0,0,0,0,0,-1,1000,1534,0,0
-217,-510,0,0,0,0,0,0,0,0,0,-1,1007,1534,0,0
-210,-510,0,0,0,0,0,0,0,0,0,-1,1014,1534,0,0
-203,-510,0,0,0,0,0,0,0,0,0,-1,1021,1534,0,0
-196,-510,0,0,0,0,0,0,0,0,0,-1,1028,1534,0,0
-189,-510,0,0,0,0,0,0,0,0,0,-1,1035,1534,0,0
-182,-510,0,0,0,0,0,0,0,0,0,-1,1042,1534,0,0
-175,-510,0,0,0,0,0,0,0,0,0,-1,1049,1534,0,0
-168,-510,0,0,0,0,0,0,0,0,0,-1,1056,1534,0,0
-161,-510,0,0,0,0,0,0,0,0,0,-1,1063,1534,0,0
-154,-510,0,0,0,0,0,0,0,0,0,-1,1070,1534,0,0
-147,-510,0,0,0,0,0,0,0,0,0,-1,1077,1534,0,0
-140,-510,0,0,0,0,0,0,0,0,0,-1,1084,1534,0,0
-133,-510,0,0,0,0,0,0,0,0,0,-1,1091,1534,0,0
-126,-510,0,0,0,0,0,0,0,0,0,-1,1098,1534,0,0
-119,-510,0,0,0,0,0,0,0,0,0,-1,1105,1534,0,0
-112,-510,0,0,0,0,0,0,0,0,0,-1,1112,1534,0,0
-105,-510,0,0,0,0,0,0,0,0,0,-1,1119,1534,0,0
-98,-510,0,0,0,0,0,0,0,0,0,-1,1126,1534,0,0
-91,-510,0,0,0,0,0,0,0,0,0,-1,1133,1534,0,0
-84,-510,0,0,0,0,0,0,0,0,0,-1,1140,1534,0,0
-77,-510,0,0,0,0,0,0,0,0,0,-1,1147,1534,0,0
-70,-510,0,0,0,0,0,0,0,0,0,-1,1154,1534,0,0
-63,-510,0,0,0,0,0,0,0,0,0,-1,1161,1534,0,0
-56,-510,0,0,0,0,0,0,0,0,0,-1,1168,1534,0,0
-49,-510,0,0,0,0,0,0,0,0,0,-1,1175,1534,0,0
-42,-510,0,0,0,0,0,0,0,0,0,-1,1182,1534,0,0
-35,-510,0,0,0,0,0,0,0,0,0,-1,1189,1534,0,0
-28,-510,0,0,0,0,0,0,0,0,0,-1,1196,1534,0,0
-21,-510,0,0,0,0,0,0,0,0,0,-1,1203,1534,0,0
-14,-510,0,0,0,0,0,0,0,0,0,-1,1210,1534,0,0
-7,-510,0,0,0,0,0,0,0,0,0,-1,1217,1534,0,0
0,-510,0,0,0,0,0,0,0,0,0,-1,1224,1534,0,0
7,-510,0,0,0,0,0,0,0,0,0,-1,1231,1534,0,0
14,-510,0,0,0,0,0,0,0,0,0,-1,1238,1534,0,0
21,-510,0,0,0,0,0,0,0,0,0,-1,1245,1534,0,0
28,-510,0,0,0,0,0,0,0,0,0,-1,1252,1534,0,0
35,-510,0,0,0,0,0,0,0,0,0,-1,1259,1534,0,0
42,-510,0,0,0,0,0,0,0,0,0,-1,1266,1534,0,0
49,-510,0,0,0,0,0,0,0,0,0,-1,1273,1534,0,0
56,-510,0,0,0,0,0,0,0,0,0,-1,1280,1534,0,0
63,-510,0,0,0,0,0,0,0,0,0,-1,1287,1534,0,0
70,-510,0,0,0,0,0,0,0,0,0,-1,1294,1534,0,0
77,-510,0,0,0,0,0,0,0,0,0,-1,1301,1534,0,0
84,-510,0,0,0,0,0,0,0,0,0,-1,1308,1534,0,0
91,-510,0,0,0,0,0,0,0,0,0,-1,1315,1534,0,0
98,-510,0,0,0,0,0,0,0,0,0,-1,1322,1534,0,0
105,-510,0,0,0,0,0,0,0,0,0,-1,1329,1534,0,0
112,-510,0,0,0,0,0,0,0,0,0,-1,1336,1534,0,0
119,-510,0,0,0,0,0,0,0,0,0,-1,1343,1534,0,0
126,-510,0,0,0,0,0,0,0,0,0,-1,1350,1534,0,0
133,-510,0,0,0,0,0,0,0,0,0,-1,1357,1534,0,0
140,-510,0,0,0,0,0,0,0,0,0,-1,1364,1534,0,0
147,-510,0,0,0,0,0,0,0,0,0,-1,1371,1534,0,0
154,-510,0,0,0,0,0,0,0,0,0,-1,1378,1534,0,0
161,-510,0,0,0,0,0,0,0,0,0,-1,1385,1534,0,0
168,-510,0,0,0,0,0,0,0,0,0,-1,1392,1534,0,0
175,-510,0,0,0,0,0,0,0,0,0,-1,1399,1534,0,0
182,-510,0,0,0,0,0,0,0,0,0,-1,1406,1534,0,0
189,-510,0,0,0,0,0,0,0,0,0,-1,1413,1534,0,0
196,-510,0,0,0,0,0,0,0,0,0,-1,1420,1534,0,0
203,-510,0,0,0,0,0,0,0,0,0,-1,1427,1534,0,0
210,-510,0,0,0,0,0,0,0,0,0,-1,1434,1534,0,0
217,-510,0,0,0,0,0,0,0,0,0,-1,1441,1534,0,0
224,-510,0,0,0,0,0,0,0,0,0,-1,1448,1534,0,0
231,-510,0,0,0,0,0,0,0,0,0,-1,1455,1534,0,0
238,-510,0,0,0,0,0,0,0,0,0,-1,1462,1534,0,0
245,-510,0,0,0,0,0,0,0,0,0,-1,1469,1534,0,0
252,-510,0,0,0,0,0,0,0,0,0,-1,1476,1534,0,0
259,-510,0,0,0,0,0,0,0,0,0,-1,1483,1534,0,0
266,-510,0,0,0,0,0,0,0,0,0,-1,1490,1534,0,0
273,-510,0,0,0,0,0,0,0,0,0,-1,1497,1534,0,0
280,-510,0,0,0,0,0,0,0,0,0,-1,1504,1534,0,0
287,-510,0,0,0,0,0,0,0,0,0,-1,1511,1534,0,0
294,-510,0,0,0,0,0,0,0,0,0,-1,1518,1534,0,0
301,-510,0,0,0,0,0,0,0,0,0,-1,1525,1534,0,0
308,-510,0,0,0,0,0,0,0,0,0,-1,1532,1534,0,0
315,-510,0,0,0,0,0,0,0,0,0,-1,1539,1534,0,0
322,-510,0,0,0,0,0,0,0,0,0,-1,1546,1534,0,0
329,-510,0,0,0,0,0,0,0,0,0,-1,1553,1534,0,0
336,-510,0,0,0,0,0,0,0,0,0,-1,1560,1534,0,0
343,-510,0,0,0,0,0,0,0,0,0,-1,1567,1534,0,0
350,-510,0,0,0,0,0,0,0,0,0,-1,1574,1534,0,0
357,-510,0,0,0,0,0,0,0,0,0,-1,1581,1534,0,0
364,-510,0,0,0,0,0,0,0,0,0,-1,1588,1534,0,0
371,-510,0,0,0,0,0,0,0,0,0,-1,1595,1534,0,0
378,-510,0,0,0,0,0,0,0,0,0,-1,1602,1534,0,0
385,-510,0,0,0,0,0,0,0,0,0,-1,1609,1534,0,0
392,-510,0,0,0,0,0,0,0,0,0,-1,1616,1534,0,0
399,-510,0,0,0,0,0,0,0,0,0,-1,1623,1534,0,0
406,-510,0,0,0,0,0,0,0,0,0,-1,1630,1534,0,0
413,-510,0,0,0,0,0,0,0,0,0,-1,1637,1534,0,0
420,-510,14.1888,6.71936,0,0,0,0,0,0,0,-1,1644,1534,14.1889,-6.71939
427,-510,10.2134,5.59485,0,0,0,0,0,0,0,-1,1651,1534,10.2134,-5.59485
434,-510,11.8219,4.07898,0,0,0,0,0,0,0,-1,1658,1534,11.8219,-4.07895
441,-510,12.6812,3.02991,0,0,0,0,0,0,0,-1,1665,1534,12.6811,-3.0299
448,-510,13.2379,2.2804,0,0,0,0,0,0,0,-1,1672,1534,13.2379,-2.28037
455,-510,9.76892,2.20642,0,0,0,0,0,0,0,-1,1679,1534,9.76894,-2.20647
462,-510,9.84692,2.49182,0,0,0,0,0,0,0,-1,1686,1534,9.84695,-2.49185
469,-510,16.6072,7.26941,0,0,0,0,0,0,0,-1,1693,1534,16.6072,-7.26945
476,-510,15.9199,7.8645,0,0,0,0,0,0,0,-1,1700,1534,15.9199,-7.86455
483,-510,13.0833,8.10938,0,0,0,0,0,0,0,-1,1707,1534,13.0833,-8.10932
490,-510,13.0841,15.3286,0,0,0,0,0,0,0,-1,1714,1534,13.0841,-15.3286
497,-510,15.5652,18.823,0,0,0,0,0,0,0,-1,1721,1534,15.5652,-18.823
504,-510,15.998,18.7478,0,0,0,0,0,0,0,-1,1728,1534,15.998,-18.7478
511,-510,15.9443,18.0476,0,0,0,0,0,0,0,-1,1735,1534,15.9443,-18.0476
518,-510,21.5343,27.1368,0,0,0,0,0,0,0,-1,1742,1534,21.5342,-27.1368
525,-510,25.2373,31.9067,0,0,0,0,0,0,0,-1,1749,1534,25.2373,-31.9067
532,-510,25.6111,30.9894,0.00787005,0.0071277,-0.00543886,0.0129504,0.00204737,-0.751328,0.00803851,0.0289834,1756,1534,25.611,-30.9894
539,-510,25.6772,30.1732,0.00634396,0.0053336,-0.00413274,0.0100023,0.00167528,-0.724581,0.00618585,0.0138966,1763,1534,25.6772,-30.1732
546,-510,25.6283,29.531,0.00513382,0.00393207,-0.00308404,0.00767497,0.00139092,-0.689187,0.0047218,0.013786,1770,1534,25.6283,-29.5311
553,-510,25.5917,28.8309,0.00419878,0.00269258,-0.00220688,0.00577752,0.00111383,-0.620969,0.00353931,0.0145899,1777,1534,25.5917,-28.8309
560,-510,25.5459,28.1045,0.00345868,0.00159203,-0.00148057,0.00427555,0.000775158,-0.504167,0.00263033,0.0149328,1784,1534,25.5459,-28.1044
567,-510,25.5275,27.3882,0.00300722,0.000852634,-0.00107663,0.00345298,0.000406873,-0.392545,0.00217906,0.0138024,1791,1534,25.5274,-27.3882
574,-510,25.5042,26.7002,0.00277065,0.000279417,-0.000814379,0.00301324,3.68217e-05,-0.28952,0.00199667,0.0147343,1798,1534,25.5042,-26.7002
581,-510,25.4677,26.0511,0.00271477,-0.00012919,-0.000710327,0.00288231,-0.000296735,-0.231638,0.0020277,0.0135467,1805,1534,25.4677,-26.0512
588,-510,25.4298,25.3601,0.00294442,-0.000285459,-0.000819185,0.0031403,-0.000481346,-0.234717,0.00227105,0.0135435,1812,1534,25.4298,-25.3601
595,-510,25.5259,24.5255,0.00345454,-0.000209549,-0.000965857,0.00369355,-0.000448559,-0.242586,0.00262469,0.0201347,1819,1534,25.5259,-24.5256
602,-510,25.5728,23.734,0,0,0,0,0,0,0,-1,1826,1534,25.5727,-23.7341
609,-510,21.259,19.222,0,0,0,0,0,0,0,-1,1833,1534,21.259,-19.222
616,-510,18.7024,16.2474,0,0,0,0,0,0,0,-1,1840,1534,18.7024,-16.2474
623,-510,19.6013,14.6211,0,0,0,0,0,0,0,-1,1847,1534,19.6013,-14.6211
630,-510,13.7461,9.30334,0,0,0,0,0,0,0,-1,1854,1534,13.7461,-9.30335
637,-510,11.0155,7.38464,0,0,0,0,0,0,0,-1,1861,1534,11.0155,-7.38463
644,-510,11.5809,7.17126,0,0,0,0,0,0,0,-1,1868,1534,11.5809,-7.17123
651,-510,8.70471,3.5061,0,0,0,0,0,0,0,-1,1875,1534,8.70475,-3.50611
658,-510,0,0,0,0,0,0,0,0,0,-1,1882,1534,0,0
665,-510,0,0,0,0,0,0,0,0,0,-1,1889,1534,0,0
672,-510,0,0,0,0,0,0,0,0,0,-1,1896,1534,0,0
679,-510,0,0,0,0,0,0,0,0,0,-1,1903,1534,0,0
686,-510,0,0,0,0,0,0,0,0,0,-1,1910,1534,0,0
693,-510,0,0,0,0,0,0,0,0,0,-1,1917,1534,0,0
700,-510,0,0,0,0,0,0,0,0,0,-1,1924,1534,0,0
707,-510,0,0,0,0,0,0,0,0,0,-1,1931,1534,0,0
714,-510,0,0,0,0,0,0,0,0,0,-1,1938,1534,0,0
721,-510,0,0,0,0,0,0,0,0,0,-1,1945,1534,0,0
728,-510,0,0,0,0,0,0,0,0,0,-1,1952,1534,0,0
735,-510,0,0,0,0,0,0,0,0,0,-1,1959,1534,0,0
742,-510,0,0,0,0,0,0,0,0,0,-1,1966,1534,0,0
749,-510,0,0,0,0,0,0,0,0,0,-1,1973,1534,0,0
756,-510,0,0,0,0,0,0,0,0,0,-1,1980,1534,0,0
763,-510,0,0,0,0,0,0,0,0,0,-1,1987,1534,0,0
770,-510,0,0,0,0,0,0,0,0,0,-1,1994,1534,0,0
777,-510,0,0,0,0,0,0,0,0,0,-1,2001,1534,0,0
784,-510,0,0,0,0,0,0,0,0,0,-1,2008,1534,0,0
791,-510,0,0,0,0,0,0,0,0,0,-1,2015,1534,0,0
798,-510,0,0,0,0,0,0,0,0,0,-1,2022,1534,0,0
805,-510,0,0,0,0,0,0,0,0,0,-1,2029,1534,0,0
812,-510,0,0,0,0,0,0,0,0,0,-1,2036,1534,0,0
-700,-517,0,0,0,0,0,0,0,0,0,-1,524,1541,0,0
-693,-517,0,0,0,0,0,0,0,0,0,-1,531,1541,0,0
-686,-517,0,0,0,0,0,0,0,0,0,-1,538,1541,0,0
-679,-517,0,0,0,0,0,0,0,0,0,-1,545,1541,0,0
-672,-517,0,0,0,0,0,0,0,0,0,-1,552,1541,0,0
-665,-517,0,0,0,0,0,0,0,0,0,-1,559,1541,0,0
-658,-517,0,0,0,0,0,0,0,0,0,-1,566,1541,0,0
-651,-517,0,0,0,0,0,0,0,0,0,-1,573,1541,0,0
-644,-517,0,0,0,0,0,0,0,0,0,-1,580,1541,0,0
-637,-517,0,0,0,0,0,0,0,0,0,-1,587,1541,0,0
-630,-517,0,0,0,0,0,0,0,0,0,-1,594,1541,0,0
-623,-517,0,0,0,0,0,0,0,0,0,-1,601,1541,0,0
-616,-517,0,0,0,0,0,0,0,0,0,-1,608,1541,0,0
-609,-517,0,0,0,0,0,0,0,0,0,-1,615,1541,0,0
-602,-517,0,0,0,0,0,0,0,0,0,-1,622,1541,0,0
-595,-517,0,0,0,0,0,0,0,0,0,-1,629,1541,0,0
-588,-517,0,0,0,0,0,0,0,0,0,-1,636,1541,0,0
-581,-517,0,0,0,0,0,0,0,0,0,-1,643,1541,0,0
-574,-517,0,0,0,0,0,0,0,0,0,-1,650,1541,0,0
-567,-517,0,0,0,0,0,0,0,0,0,-1,657,1541,0,0
-560,-517,0,0,0,0,0,0,0,0,0,-1,664,1541,0,0
-553,-517,0,0,0,0,0,0,0,0,0,-1,671,1541,0,0
-546,-517,0,0,0,0,0,0,0,0,0,-1,678,1541,0,0
-539,-517,0,0,0,0,0,0,0,0,0,-1,685,1541,0,0
-532,-517,0,0,0,0,0,0,0,0,0,-1,692,1541,0,0
-525,-517,-3.62903,4.3606,0,0,0,0,0,0,0,-1,699,1541,-3.62904,-4.36056
-518,-517,-1.664,2.27209,0,0,0,0,0,0,0,-1,706,1541,-1.66399,-2.27207
-511,-517,-0.999146,5.52063,0,0,0,0,0,0,0,-1,713,1541,-0.999126,-5.52059
-504,-517,-1.06946,8.67432,0,0,0,0,0,0,0,-1,720,1541,-1.06947,-8.6743
-497,-517,-5.43036,17.4033,0,0,0,0,0,0,0,-1,727,1541,-5.43033,-17.4034
-490,-517,-6.20526,19.4496,0,0,0,0,0,0,0,-1,734,1541,-6.20526,-19.4495
-483,-517,-6.2254,20.368,0,0,0,0,0,0,0,-1,741,1541,-6.22542,-20.368
-476,-517,-6.71118,22.46,0,0,0,0,0,0,0,-1,748,1541,-6.71118,-22.46
-469,-517,-6.84521,23.3162,0.000699616,-0.00615666,0.00487179,0.00322853,-0.00868558,0.478806,0.00711506,0.0256219,755,1541,-6.84523,-23.3162
-462,-517,-7.00232,24.0133,-0.000129245,-0.00540453,0.00341717,0.00154984,-0.00708362,0.456719,0.00531489,0.0255002,762,1541,-7.00234,-24.0133
-455,-517,-7.01801,24.7902,-0.000551234,-0.00435751,0.00235319,0.000572086,-0.00548082,0.445372,0.00385874,0.0167605,769,1541,-7.01803,-24.7902
-448,-517,-7.02283,25.5525,-0.00064118,-0.00325137,0.00159359,0.000113529,-0.00400607,0.442299,0.00270935,0.0141914,776,1541,-7.02283,-25.5525
-441,-517,-7.06482,26.2703,-0.000435824,-0.00201497,0.00119778,0.000209212,-0.00266,0.493992,0.00184703,0.0123178,783,1541,-7.0648,-26.2703
-434,-517,-7.10229,26.9851,-4.18423e-05,-0.000764091,0.00106091,0.000717722,-0.00152365,0.621354,0.00132165,0.0143514,790,1541,-7.10231,-26.9851
-427,-517,-7.16016,27.6953,0.000474555,0.000368356,0.00110941,0.00153214,-0.000689225,0.761485,0.00131292,0.0143747,797,1541,-7.16018,-27.6954
-420,-517,-7.19275,28.4458,0.0011578,0.00149197,0.00137341,0.00270842,-5.86438e-05,0.845929,0.00182548,0.030471,804,1541,-7.19273,-28.4458
-413,-517,-7.27997,29.1497,0.00199439,0.00254577,0.0018058,0.0040968,0.00044336,0.861147,0.00259606,0.0166472,811,1541,-7.28,-29.1497
-406,-517,-7.28796,29.8868,0.00292587,0.00356252,0.00240592,0.00567108,0.000817307,0.85117,0.00353988,0.0115273,818,1541,-7.28796,-29.8869
-399,-517,-7.30072,30.6124,0.00387707,0.00449888,0.00317268,0.00737585,0.0010001,0.834239,0.00462009,0.0114701,825,1541,-7.30075,-30.6124
-392,-517,-7.31744,31.3448,0.00481353,0.00554499,0.00379808,0.00899491,0.00136361,0.833396,0.00559771,0.0193935,832,1541,-7.31743,-31.3448
-385,-517,-7.26294,32.1508,0,0,0,0,0,0,0,-1,839,1541,-7.26296,-32.1507
-378,-517,-6.61444,32.6315,0,0,0,0,0,0,0,-1,846,1541,-6.61445,-32.6315
-371,-517,-1.37585,13.2646,0,0,0,0,0,0,0,-1,853,1541,-1.37586,-13.2647
-364,-517,-1.26245,12.6289,0,0,0,0,0,0,0,-1,860,1541,-1.26243,-12.6289
-357,-517,-1.23889,12.979,0,0,0,0,0,0,0,-1,867,1541,-1.23891,-12.979
-350,-517,-5.40198,23.8954,0,0,0,0,0,0,0,-1,874,1541,-5.40196,-23.8954
-343,-517,-5.45844,29.2598,0,0,0,0,0,0,0,-1,881,1541,-5.45842,-29.2598
-336,-517,-4.53223,29.6708,0,0,0,0,0,0,0,-1,888,1541,-4.53221,-29.6708
-329,-517,-3.60602,30.0817,0,0,0,0,0,0,0,-1,895,1541,-3.60601,-30.0817
-322,-517,-4.21246,19.5819,0,0,0,0,0,0,0,-1,902,1541,-4.21244,-19.5819
-315,-517,-0.987976,7.29749,0,0,0,0,0,0,0,-1,909,1541,-0.987993,-7.29743
-308,-517,3.27911,17.621,0,0,0,0,0,0,0,-1,916,1541,3.27913,-17.621
-301,-517,-1.69141,8.87488,0,0,0,0,0,0,0,-1,923,1541,-1.69141,-8.87485
-294,-517,-1.72583,9.92566,0,0,0,0,0,0,0,-1,930,1541,-1.72584,-9.92571
-287,-517,-3.09045,12.1472,0,0,0,0,0,0,0,-1,937,1541,-3.09043,-12.1472
-280,-517,0,0,0,0,0,0,0,0,0,-1,944,1541,0,0
-273,-517,0,0,0,0,0,0,0,0,0,-1,951,1541,0,0
-266,-517,0,0,0,0,0,0,0,0,0,-1,958,1541,0,0
-259,-517,0,0,0,0,0,0,0,0,0,-1,965,1541,0,0
-252,-517,0,0,0,0,0,0,0,0,0,-1,972,1541,0,0
-245,-517,0,0,0,0,0,0,0,0,0,-1,979,1541,0,0
-238,-517,0,0,0,0,0,0,0,0,0,-1,986,1541,0,0
-231,-517,0,0,0,0,0,0,0,0,0,-1,993,1541,0,0
-224,-517,0,0,0,0,0,0,0,0,0,-1,1000,1541,0,0
-217,-517,0,0,0,0,0,0,0,0,0,-1,1007,1541,0,0
-210,-517,0,0,0,0,0,0,0,0,0,-1,1014,1541,0,0
-203,-517,0,0,0,0,0,0,0,0,0,-1,1021,1541,0,0
-196,-517,0,0,0,0,0,0,0,0,0,-1,1028,1541,0,0
-189,-517,0,0,0,0,0,0,0,0,0,-1,1035,1541,0,0
-182,-517,0,0,0,0,0,0,0,0,0,-1,1042,1541,0,0
-175,-517,0,0,0,0,0,0,0,0,0,-1,1049,1541,0,0
-168,-517,0,0,0,0,0,0,0,0,0,-1,1056,1541,0,0
-161,-517,0,0,0,0,0,0,0,0,0,-1,1063,1541,0,0
-154,-517,0,0,0,0,0,0,0,0,0,-1,1070,1541,0,0
-147,-517,0,0,0,0,0,0,0,0,0,-1,1077,1541,0,0
-140,-517,0,0,0,0,0,0,0,0,0,-1,1084,1541,0,0
-133,-517,0,0,0,0,0,0,0,0,0,-1,1091,1541,0,0
-126,-517,0,0,0,0,0,0,0,0,0,-1,1098,1541,0,0
-119,-517,0,0,0,0,0,0,0,0,0,-1,1105,1541,0,0
-112,-517,0,0,0,0,0,0,0,0,0,-1,1112,1541,0,0
-105,-517,0,0,0,0,0,0,0,0,0,-1,1119,1541,0,0
-98,-517,0,0,0,0,0,0,0,0,0,-1,1126,1541,0,0
-91,-517,0,0,0,0,0,0,0,0,0,-1,1133,1541,0,0
-84,-517,0,0,0,0,0,0,0,0,0,-1,1140,1541,0,0
-77,-517,0,0,0,0,0,0,0,0,0,-1,1147,1541,0,0
-70,-517,0,0,0,0,0,0,0,0,0,-1,1154,1541,0,0
-63,-517,0,0,0,0,0,0,0,0,0,-1,1161,1541,0,0
-56,-517,0,0,0,0,0,0,0,0,0,-1,1168,1541,0,0
-49,-517,0,0,0,0,0,0,0,0,0,-1,1175,1541,0,0
-42,-517,0,0,0,0,0,0,0,0,0,-1,1182,1541,0,0
-35,-517,0,0,0,0,0,0,0,0,0,-1,1189,1541,0,0
-28,-517,0,0,0,0,0,0,0,0,0,-1,1196,1541,0,0
-21,-517,0,0,0,0,0,0,0,0,0,-1,1203,1541,0,0
-14,-517,0,0,0,0,0,0,0,0,0,-1,1210,1541,0,0
-7,-517,0,0,0,0,0,0,0,0,0,-1,1217,1541,0,0
0,-517,0,0,0,0,0,0,0,0,0,-1,1224,1541,0,0
7,-517,0,0,0,0,0,0,0,0,0,-1,1231,1541,0,0
14,-517,0,0,0,0,0,0,0,0,0,-1,1238,1541,0,0
21,-517,0,0,0,0,0,0,0,0,0,-1,1245,1541,0,0
28,-517,0,0,0,0,0,0,0,0,0,-1,1252,1541,0,0
35,-517,0,0,0,0,0,0,0,0,0,-1,1259,1541,0,0
42,-517,0,0,0,0,0,0,0,0,0,-1,1266,1541,0,0
49,-517,0,0,0,0,0,0,0,0,0,-1,1273,1541,0,0
56,-517,0,0,0,0,0,0,0,0,0,-1,1280,1541,0,0
63,-517,0,0,0,0,0,0,0,0,0,-1,1287,1541,0,0
70,-517,0,0,0,0,0,0,0,0,0,-1,1294,1541,0,0
77,-517,0,0,0,0,0,0,0,0,0,-1,1301,1541,0,0
84,-517,0,0,0,0,0,0,0,0,0,-1,1308,1541,0,0
91,-517,0,0,0,0,0,0,0,0,0,-1,1315,1541,0,0
98,-517,0,0,0,0,0,0,0,0,0,-1,1322,1541,0,0
105,-517,0,0,0,0,0,0,0,0,0,-1,1329,1541,0,0
112,-517,0,0,0,0,0,0,0,0,0,-1,1336,1541,0,0
119,-517,0,0,0,0,0,0,0,0,0,-1,1343,1541,0,0
126,-517,0,0,0,0,0,0,0,0,0,-1,1350,1541,0,0
133,-517,0,0,0,0,0,0,0,0,0,-1,1357,1541,0,0
140,-517,0,0,0,0,0,0,0,0,0,-1,1364,1541,0,0
147,-517,0,0,0,0,0,0,0,0,0,-1,1371,1541,0,0
154,-517,0,0,0,0,0,0,0,0,0,-1,1378,1541,0,0
161,-517,0,0,0,0,0,0,0,0,0,-1,1385,1541,0,0
168,-517,0,0,0,0,0,0,0,0,0,-1,1392,1541,0,0
175,-517,0,0,0,0,0,0,0,0,0,-1,1399,1541,0,0
182,-517,0,0,0,0,0,0,0,0,0,-1,1406,1541,0,0
189,-517,0,0,0,0,0,0,0,0,0,-1,1413,1541,0,0
196,-517,0,0,0,0,0,0,0,0,0,-1,1420,1541,0,0
203,-517,0,0,0,0,0,0,0,0,0,-1,1427,1541,0,0
210,-517,0,0,0,0,0,0,0,0,0,-1,1434,1541,0,0
217,-517,0,0,0,0,0,0,0,0,0,-1,1441,1541,0,0
224,-517,0,0,0,0,0,0,0,0,0,-1,1448,1541,0,0
231,-517,0,0,0,0,0,0,0,0,0,-1,1455,1541,0,0
238,-517,0,0,0,0,0,0,0,0,0,-1,1462,1541,0,0
245,-517,0,0,0,0,0,0,0,0,0,-1,1469,1541,0,0
252,-517,0,0,0,0,0,0,0,0,0,-1,1476,1541,0,0
259,-517,0,0,0,0,0,0,0,0,0,-1,1483,1541,0,0
266,-517,0,0,0,0,0,0,0,0,0,-1,1490,1541,0,0
273,-517,0,0,0,0,0,0,0,0,0,-1,1497,1541,0,0
280,-517,0,0,0,0,0,0,0,0,0,-1,1504,1541,0,0
287,-517,0,0,0,0,0,0,0,0,0,-1,1511,1541,0,0
294,-517,0,0,0,0,0,0,0,0,0,-1,1518,1541,0,0
301,-517,0,0,0,0,0,0,0,0,0,-1,1525,1541,0,0
308,-517,0,0,0,0,0,0,0,0,0,-1,1532,1541,0,0
315,-517,0,0,0,0,0,0,0,0,0,-1,1539,1541,0,0
322,-517,0,0,0,0,0,0,0,0,0,-1,1546,1541,0,0
329,-517,0,0,0,0,0,0,0,0,0,-1,1553,1541,0,0
336,-517,0,0,0,0,0,0,0,0,0,-1,1560,1541,0,0
343,-517,0,0,0,0,0,0,0,0,0,-1,1567,1541,0,0
350,-517,0,0,0,0,0,0,0,0,0,-1,1574,1541,0,0
357,-517,0,0,0,0,0,0,0,0,0,-1,1581,1541,0,0
364,-517,0,0,0,0,0,0,0,0,0,-1,1588,1541,0,0
371,-517,0,0,0,0,0,0,0,0,0,-1,1595,1541,0,0
378,-517,0,0,0,0,0,0,0,0,0,-1,1602,1541,0,0
385,-517,0,0,0,0,0,0,0,0,0,-1,1609,1541,0,0
392,-517,0,0,0,0,0,0,0,0,0,-1,1616,1541,0,0
399,-517,0,0,0,0,0,0,0,0,0,-1,1623,1541,0,0
406,-517,13.1395,7.01978,0,0,0,0,0,0,0,-1,1630,1541,13.1396,-7.01981
413,-517,12.8859,6.31592,0,0,0,0,0,0,0,-1,1637,1541,12.8858,-6.31588
420,-517,12.4789,6.20337,0,0,0,0,0,0,0,-1,1644,1541,12.4789,-6.20333
427,-517,11.647,4.66516,0,0,0,0,0,0,0,-1,1651,1541,11.647,-4.66519
434,-517,12.3719,3.92773,0,0,0,0,0,0,0,-1,1658,1541,12.3719,-3.92776
441,-517,13.146,3.14124,0,0,0,0,0,0,0,-1,1665,1541,13.146,-3.14121
448,-517,13.8861,2.36682,0,0,0,0,0,0,0,-1,1672,1541,13.8861,-2.36684
455,-517,13.6012,4.06335,0,0,0,0,0,0,0,-1,1679,1541,13.6012,-4.06335
462,-517,14.8956,7.0752,0,0,0,0,0,0,0,-1,1686,1541,14.8956,-7.07525
469,-517,13.6292,6.87744,0,0,0,0,0,0,0,-1,1693,1541,13.6292,-6.87739
476,-517,17.1632,14.1487,0,0,0,0,0,0,0,-1,1700,1541,17.1632,-14.1487
483,-517,16.5157,15.0776,0,0,0,0,0,0,0,-1,1707,1541,16.5157,-15.0777
490,-517,15.5439,18.0258,0,0,0,0,0,0,0,-1,1714,1541,15.5439,-18.0258
497,-517,16.0292,18.7786,0,0,0,0,0,0,0,-1,1721,1541,16.0291,-18.7786
504,-517,17.3815,22.3873,0,0,0,0,0,0,0,-1,1728,1541,17.3814,-22.3873
511,-517,16.9674,21.8491,0,0,0,0,0,0,0,-1,1735,1541,16.9674,-21.8491
518,-517,24.5925,32.3972,0,0,0,0,0,0,0,-1,1742,1541,24.5925,-32.3972
525,-517,24.8309,31.668,0.00786982,0.00756146,-0.00569574,0.0134135,0.00201782,-0.771867,0.00835136,0.0269678,1749,1541,24.831,-31.668
532,-517,25.0142,30.8715,0.0063215,0.00592744,-0.0044679,0.0105967,0.00165222,-0.763363,0.00658321,0.0129205,1756,1541,25.0142,-30.8714
539,-517,25.0098,30.1921,0.00509123,0.00442009,-0.00338695,0.00815919,0.00135213,-0.736021,0.00504946,0.0138742,1763,1541,25.0097,-30.1921
546,-517,24.975,29.5421,0.00410489,0.00310712,-0.00246216,0.00611819,0.00109381,-0.685441,0.00376749,0.0151653,1770,1541,24.9749,-29.5421
553,-517,24.9116,28.8474,0.0033178,0.00193298,-0.00165274,0.00441731,0.000833466,-0.587032,0.00271011,0.0190612,1777,1541,24.9116,-28.8474
560,-517,24.8832,28.158,0.00271633,0.000852322,-0.000957471,0.00312051,0.000448145,-0.399437,0.00194822,0.0185528,1784,1541,24.8831,-28.1579
567,-517,24.8694,27.4628,0.00239888,0.000108633,-0.000563063,0.00252983,-2.23108e-05,-0.228495,0.00169404,0.0141565,1791,1541,24.8694,-27.4627
574,-517,24.8359,26.75,0.00228608,-0.000500414,-0.000284437,0.00231482,-0.000529152,-0.100693,0.00174653,0.0151202,1798,1541,24.836,-26.75
581,-517,24.7725,26.0587,0.00242608,-0.000927279,-0.000206134,0.0024387,-0.000939902,-0.0611638,0.0020136,0.0167008,1805,1541,24.7724,-26.0587
588,-517,24.7412,25.3615,0.00287837,-0.00106849,-0.000368392,0.00291246,-0.00110258,-0.0922758,0.00239531,0.0180624,1812,1541,24.7413,-25.3615
595,-517,24.7704,24.7068,0.00355977,-0.000900886,-0.000646091,0.00365147,-0.000992582,-0.140983,0.00282393,0.0433939,1819,1541,24.7704,-24.7068
602,-517,25.0411,23.7869,0,0,0,0,0,0,0,-1,1826,1541,25.0411,-23.7869
609,-517,12.6417,10.8751,0,0,0,0,0,0,0,-1,1833,1541,12.6417,-10.8751
616,-517,14.205,10.3193,0,0,0,0,0,0,0,-1,1840,1541,14.205,-10.3194
623,-517,12.578,10.0779,0,0,0,0,0,0,0,-1,1847,1541,12.578,-10.0779
630,-517,11.7035,7.47815,0,0,0,0,0,0,0,-1,1854,1541,11.7035,-7.47812
637,-517,11.5172,5.79822,0,0,0,0,0,0,0,-1,1861,1541,11.5173,-5.79825
644,-517,11.4232,3.30579,0,0,0,0,0,0,0,-1,1868,1541,11.4232,-3.30574
651,-517,0,0,0,0,0,0,0,0,0,-1,1875,1541,0,0
658,-517,0,0,0,0,0,0,0,0,0,-1,1882,1541,0,0
665,-517,0,0,0,0,0,0,0,0,0,-1,1889,1541,0,0
672,-517,0,0,0,0,0,0,0,0,0,-1,1896,1541,0,0
679,-517,0,0,0,0,0,0,0,0,0,-1,1903,1541,0,0
686,-517,0,0,0,0,0,0,0,0,0,-1,1910,1541,0,0
693,-517,0,0,0,0,0,0,0,0,0,-1,1917,1541,0,0
700,-517,0,0,0,0,0,0,0,0,0,-1,1924,1541,0,0
707,-517,0,0,0,0,0,0,0,0,0,-1,1931,1541,0,0
714,-517,0,0,0,0,0,0,0,0,0,-1,1938,1541,0,0
721,-517,0,0,0,0,0,0,0,0,0,-1,1945,1541,0,0
728,-517,0,0,0,0,0,0,0,0,0,-1,1952,1541,0,0
735,-517,0,0,0,0,0,0,0,0,0,-1,1959,1541,0,0
742,-517,0,0,0,0,0,0,0,0,0,-1,1966,1541,0,0
749,-517,0,0,0,0,0,0,0,0,0,-1,1973,1541,0,0
756,-517,0,0,0,0,0,0,0,0,0,-1,1980,1541,0,0
763,-517,0,0,0,0,0,0,0,0,0,-1,1987,1541,0,0
770,-517,0,0,0,0,0,0,0,0,0,-1,1994,1541,0,0
777,-517,0,0,0,0,0,0,0,0,0,-1,2001,1541,0,0
784,-517,0,0,0,0,0,0,0,0,0,-1,2008,1541,0,0
791,-517,0,0,0,0,0,0,0,0,0,-1,2015,1541,0,0
798,-517,0,0,0,0,0,0,0,0,0,-1,2022,1541,0,0
805,-517,0,0,0,0,0,0,0,0,0,-1,2029,1541,0,0
812,-517,0,0,0,0,0,0,0,0,0,-1,2036,1541,0,0
-700,-524,0,0,0,0,0,0,0,0,0,-1,524,1548,0,0
-693,-524,0,0,0,0,0,0,0,0,0,-1,531,1548,0,0
-686,-524,0,0,0,0,0,0,0,0,0,-1,538,1548,0,0
-679,-524,0,0,0,0,0,0,0,0,0,-1,545,1548,0,0
-672,-524,0,0,0,0,0,0,0,0,0,-1,552,1548,0,0
-665,-524,0,0,0,0,0,0,0,0,0,-1,559,1548,0,0
-658,-524,0,0,0,0,0,0,0,0,0,-1,566,1548,0,0
-651,-524,0,0,0,0,0,0,0,0,0,-1,573,1548,0,0
-644,-524,0,0,0,0,0,0,0,0,0,-1,580,1548,0,0
-637,-524,0,0,0,0,0,0,0,0,0,-1,587,1548,0,0
-630,-524,0,0,0,0,0,0,0,0,0,-1,594,1548,0,0
-623,-524,0,0,0,0,0,0,0,0,0,-1,601,1548,0,0
-616,-524,0,0,0,0,0,0,0,0,0,-1,608,1548,0,0
-609,-524,0,0,0,0,0,0,0,0,0,-1,615,1548,0,0
-602,-524,0,0,0,0,0,0,0,0,0,-1,622,1548,0,0
-595,-524,0,0,0,0,0,0,0,0,0,-1,629,1548,0,0
-588,-524,0,0,0,0,0,0,0,0,0,-1,636,1548,0,0
-581,-524,0,0,0,0,0,0,0,0,0,-1,643,1548,0,0
-574,-524,0,0,0,0,0,0,0,0,0,-1,650,1548,0,0
-567,-524,0,0,0,0,0,0,0,0,0,-1,657,1548,0,0
-560,-524,0,0,0,0,0,0,0,0,0,-1,664,1548,0,0
-553,-524,0,0,0,0,0,0,0,0,0,-1,671,1548,0,0
-546,-524,0,0,0,0,0,0,0,0,0,-1,678,1548,0,0
-539,-524,0,0,0,0,0,0,0,0,0,-1,685,1548,0,0
-532,-524,0,0,0,0,0,0,0,0,0,-1,692,1548,0,0
-525,-524,-0.215515,3.97131,0,0,0,0,0,0,0,-1,699,1548,-0.215501,-3.97136
-518,-524,-0.806274,4.35632,0,0,0,0,0,0,0,-1,706,1548,-0.806259,-4.35633
-511,-524,-1.08301,4.29004,0,0,0,0,0,0,0,-1,713,1548,-1.08301,-4.29006
-504,-524,-1.28821,3.98145,0,0,0,0,0,0,0,-1,720,1548,-1.28822,-3.98151
-497,-524,-0.328491,8.63416,0,0,0,0,0,0,0,-1,727,1548,-0.328487,-8.63411
-490,-524,-6.65582,19.3033,0,0,0,0,0,0,0,-1,734,1548,-6.65583,-19.3034
-483,-524,-6.52136,21.6803,0,0,0,0,0,0,0,-1,741,1548,-6.52139,-21.6802
-476,-524,-6.40228,22.757,0,0,0,0,0,0,0,-1,748,1548,-6.40227,-22.757
-469,-524,-6.27856,23.5612,0.000836418,-0.00748976,0.00636503,0.00427891,-0.0109323,0.495787,0.00905788,0.0406277,755,1548,-6.27853,-23.5611
-462,-524,-6.23499,24.3113,-0.000399328,-0.006549,0.00436286,0.00186336,-0.00881169,0.478437,0.00658407,0.0369755,762,1548,-6.23501,-24.3113
-455,-524,-6.37622,24.8546,-0.00108712,-0.0052945,0.00290084,0.000392543,-0.00677416,0.471678,0.00465248,0.0319426,769,1548,-6.37624,-24.8546
-448,-524,-6.32996,25.5929,-0.00135157,-0.00412567,0.00179459,-0.000470484,-0.00500675,0.456398,0.00319258,0.0154065,776,1548,-6.32994,-25.5929
-441,-524,-6.34949,26.314,-0.00122106,-0.00283171,0.00117849,-0.000599021,-0.00345375,0.485665,0.00213108,0.0113624,783,1548,-6.34949,-26.314
-434,-524,-6.35345,27.0284,-0.000871632,-0.00158298,0.000866857,-0.000290319,-0.00216429,0.59072,0.00135648,0.0136238,790,1548,-6.35346,-27.0285
-427,-524,-6.40552,27.7388,-0.00038422,-0.000489022,0.000775326,0.000340474,-0.00121372,0.751657,0.000943343,0.0162209,797,1548,-6.40552,-27.7387
-420,-524,-6.4671,28.4706,0.000274216,0.000553132,0.000910608,0.0013349,-0.000507552,0.861382,0.00109891,0.0410223,804,1548,-6.4671,-28.4705
-413,-524,-6.55493,29.2032,0.000997091,0.00143901,0.00111839,0.00235806,7.80374e-05,0.882926,0.00154668,0.0381218,811,1548,-6.55496,-29.2033
-406,-524,-6.54132,29.9229,0.00186141,0.00236328,0.00154571,0.00367829,0.0005464,0.865867,0.00229188,0.013536,818,1548,-6.54131,-29.9228
-399,-524,-6.56982,30.6313,0.00275009,0.00322537,0.00210468,0.00510579,0.000869675,0.841615,0.00315419,0.010226,825,1548,-6.56981,-30.6313
-392,-524,-6.60608,31.3267,0.00355783,0.00403821,0.00255457,0.00636386,0.00123218,0.832272,0.00389733,0.0108198,832,1548,-6.60607,-31.3266
-385,-524,-6.6474,32.0724,0.00420804,0.00509031,0.00293557,0.00761771,0.00168064,0.859976,0.00462127,0.0171451,839,1548,-6.64742,-32.0724
-378,-524,-6.67499,32.8687,0,0,0,0,0,0,0,-1,846,1548,-6.67497,-32.8686
-371,-524,-4.20789,29.1592,0,0,0,0,0,0,0,-1,853,1548,-4.2079,-29.1592
-364,-524,-0.712097,14.9871,0,0,0,0,0,0,0,-1,860,1548,-0.712116,-14.9871
-357,-524,-1.34052,14.7448,0,0,0,0,0,0,0,-1,867,1548,-1.34054,-14.7447
-350,-524,-4.31909,25.032,0,0,0,0,0,0,0,-1,874,1548,-4.31906,-25.0319
-343,-524,-3.69696,28.6923,0,0,0,0,0,0,0,-1,881,1548,-3.69694,-28.6922
-336,-524,-3.4873,29.655,0,0,0,0,0,0,0,-1,888,1548,-3.48728,-29.6551
-329,-524,-3.21936,30.5509,0,0,0,0,0,0,0,-1,895,1548,-3.21933,-30.5509
-322,-524,-4.31378,25.6389,0,0,0,0,0,0,0,-1,902,1548,-4.31379,-25.639
-315,-524,-1.90839,19.4824,0,0,0,0,0,0,0,-1,909,1548,-1.90838,-19.4824
-308,-524,-2.36938,19.3059,0,0,0,0,0,0,0,-1,916,1548,-2.3694,-19.3058
-301,-524,2.72394,17.7618,0,0,0,0,0,0,0,-1,923,1548,2.72396,-17.7619
-294,-524,-1.52515,9.05408,0,0,0,0,0,0,0,-1,930,1548,-1.52512,-9.05411
-287,-524,-0.962219,10.3199,0,0,0,0,0,0,0,-1,937,1548,-0.962241,-10.32
-280,-524,-1.36255,10.3859,0,0,0,0,0,0,0,-1,944,1548,-1.36253,-10.3859
-273,-524,0,0,0,0,0,0,0,0,0,-1,951,1548,0,0
-266,-524,0,0,0,0,0,0,0,0,0,-1,958,1548,0,0
-259,-524,0,0,0,0,0,0,0,0,0,-1,965,1548,0,0
-252,-524,0,0,0,0,0,0,0,0,0,-1,972,1548,0,0
-245,-524,0,0,0,0,0,0,0,0,0,-1,979,1548,0,0
-238,-524,0,0,0,0,0,0,0,0,0,-1,986,1548,0,0
-231,-524,0,0,0,0,0,0,0,0,0,-1,993,1548,0,0
-224,-524,0,0,0,0,0,0,0,0,0,-1,1000,1548,0,0
-217,-524,0,0,0,0,0,0,0,0,0,-1,1007,1548,0,0
-210,-524,0,0,0,0,0,0,0,0,0,-1,1014,1548,0,0
-203,-524,0,0,0,0,0,0,0,0,0,-1,1021,1548,0,0
-196,-524,0,0,0,0,0,0,0,0,0,-1,1028,1548,0,0
-189,-524,0,0,0,0,0,0,0,0,0,-1,1035,1548,0,0
-182,-524,0,0,0,0,0,0,0,0,0,-1,1042,1548,0,0
-175,-524,0,0,0,0,0,0,0,0,0,-1,1049,1548,0,0
-168,-524,0,0,0,0,0,0,0,0,0,-1,1056,1548,0,0
-161,-524,0,0,0,0,0,0,0,0,0,-1,1063,1548,0,0
-154,-524,0,0,0,0,0,0,0,0,0,-1,1070,1548,0,0
-147,-524,0,0,0,0,0,0,0,0,0,-1,1077,1548,0,0
-140,-524,0,0,0,0,0,0,0,0,0,-1,1084,1548,0,0
-133,-524,0,0,0,0,0,0,0,0,0,-1,1091,1548,0,0
-126,-524,0,0,0,0,0,0,0,0,0,-1,1098,1548,0,0
-119,-524,0,0,0,0,0,0,0,0,0,-1,1105,1548,0,0
-112,-524,0,0,0,0,0,0,0,0,0,-1,1112,1548,0,0
-105,-524,0,0,0,0,0,0,0,0,0,-1,1119,1548,0,0
-98,-524,0,0,0,0,0,0,0,0,0,-1,1126,1548,0,0
-91,-524,0,0,0,0,0,0,0,0,0,-1,1133,1548,0,0
-84,-524,0,0,0,0,0,0,0,0,0,-1,1140,1548,0,0
-77,-524,0,0,0,0,0,0,0,0,0,-1,1147,1548,0,0
-70,-524,0,0,0,0,0,0,0,0,0,-1,1154,1548,0,0
-63,-524,0,0,0,0,0,0,0,0,0,-1,1161,1548,0,0
-56,-524,0,0,0,0,0,0,0,0,0,-1,1168,1548,0,0
-49,-524,0,0,0,0,0,0,0,0,0,-1,1175,1548,0,0
-42,-524,0,0,0,0,0,0,0,0,0,-1,1182,1548,0,0
-35,-524,0,0,0,0,0,0,0,0,0,-1,1189,1548,0,0
-28,-524,0,0,0,0,0,0,0,0,0,-1,1196,1548,0,0
-21,-524,0,0,0,0,0,0,0,0,0,-1,1203,1548,0,0
-14,-524,0,0,0,0,0,0,0,0,0,-1,1210,1548,0,0
-7,-524,0,0,0,0,0,0,0,0,0,-1,1217,1548,0,0
0,-524,0,0,0,0,0,0,0,0,0,-1,1224,1548,0,0
7,-524,0,0,0,0,0,0,0,0,0,-1,1231,1548,0,0
14,-524,0,0,0,0,0,0,0,0,0,-1,1238,1548,0,0
21,-524,0,0,0,0,0,0,0,0,0,-1,1245,1548,0,0
28,-524,0,0,0,0,0,0,0,0,0,-1,1252,1548,0,0
35,-524,0,0,0,0,0,0,0,0,0,-1,1259,1548,0,0
42,-524,0,0,0,0,0,0,0,0,0,-1,1266,1548,0,0
49,-524,0,0,0,0,0,0,0,0,0,-1,1273,1548,0,0
56,-524,0,0,0,0,0,0,0,0,0,-1,1280,1548,0,0
63,-524,0,0,0,0,0,0,0,0,0,-1,1287,1548,0,0
70,-524,0,0,0,0,0,0,0,0,0,-1,1294,1548,0,0
77,-524,0,0,0,0,0,0,0,0,0,-1,1301,1548,0,0
84,-524,0,0,0,0,0,0,0,0,0,-1,1308,1548,0,0
91,-524,0,0,0,0,0,0,0,0,0,-1,1315,1548,0,0
98,-524,0,0,0,0,0,0,0,0,0,-1,1322,1548,0,0
105,-524,0,0,0,0,0,0,0,0,0,-1,1329,1548,0,0
112,-524,0,0,0,0,0,0,0,0,0,-1,1336,1548,0,0
119,-524,0,0,0,0,0,0,0,0,0,-1,1343,1548,0,0
126,-524,0,0,0,0,0,0,0,0,0,-1,1350,1548,0,0
133,-524,0,0,0,0,0,0,0,0,0,-1,1357,1548,0,0
140,-524,0,0,0,0,0,0,0,0,0,-1,1364,1548,0,0
147,-524,0,0,0,0,0,0,0,0,0,-1,1371,1548,0,0
154,-524,0,0,0,0,0,0,0,0,0,-1,1378,1548,0,0
161,-524,0,0,0,0,0,0,0,0,0,-1,1385,1548,0,0
168,-524,0,0,0,0,0,0,0,0,0,-1,1392,1548,0,0
175,-524,0,0,0,0,0,0,0,0,0,-1,1399,1548,0,0
182,-524,0,0,0,0,0,0,0,0,0,-1,1406,1548,0,0
189,-524,0,0,0,0,0,0,0,0,0,-1,1413,1548,0,0
196,-524,0,0,0,0,0,0,0,0,0,-1,1420,1548,0,0
203,-524,0,0,0,0,0,0,0,0,0,-1,1427,1548,0,0
210,-524,0,0,0,0,0,0,0,0,0,-1,1434,1548,0,0
217,-524,0,0,0,0,0,0,0,0,0,-1,1441,1548,0,0
224,-524,0,0,0,0,0,0,0,0,0,-1,1448,1548,0,0
231,-524,0,0,0,0,0,0,0,0,0,-1,1455,1548,0,0
238,-524,0,0,0,0,0,0,0,0,0,-1,1462,1548,0,0
245,-524,0,0,0,0,0,0,0,0,0,-1,1469,1548,0,0
252,-524,0,0,0,0,0,0,0,0,0,-1,1476,1548,0,0
259,-524,0,0,0,0,0,0,0,0,0,-1,1483,1548,0,0
266,-524,0,0,0,0,0,0,0,0,0,-1,1490,1548,0,0
273,-524,0,0,0,0,0,0,0,0,0,-1,1497,1548,0,0
280,-524,0,0,0,0,0,0,0,0,0,-1,1504,1548,0,0
287,-524,0,0,0,0,0,0,0,0,0,-1,1511,1548,0,0
294,-524,0,0,0,0,0,0,0,0,0,-1,1518,1548,0,0
301,-524,0,0,0,0,0,0,0,0,0,-1,1525,1548,0,0
308,-524,0,0,0,0,0,0,0,0,0,-1,1532,1548,0,0
315,-524,0,0,0,0,0,0,0,0,0,-1,1539,1548,0,0
322,-524,0,0,0,0,0,0,0,0,0,-1,1546,1548,0,0
329,-524,0,0,0,0,0,0,0,0,0,-1,1553,1548,0,0
336,-524,0,0,0,0,0,0,0,0,0,-1,1560,1548,0,0
343,-524,0,0,0,0,0,0,0,0,0,-1,1567,1548,0,0
350,-524,0,0,0,0,0,0,0,0,0,-1,1574,1548,0,0
357,-524,0,0,0,0,0,0,0,0,0,-1,1581,1548,0,0
364,-524,0,0,0,0,0,0,0,0,0,-1,1588,1548,0,0
371,-524,0,0,0,0,0,0,0,0,0,-1,1595,1548,0,0
378,-524,0,0,0,0,0,0,0,0,0,-1,1602,1548,0,0
385,-524,0,0,0,0,0,0,0,0,0,-1,1609,1548,0,0
392,-524,0,0,0,0,0,0,0,0,0,-1,1616,1548,0,0
399,-524,8.81848,5.05774,0,0,0,0,0,0,0,-1,1623,1548,8.81843,-5.05769
406,-524,8.64294,6.06799,0,0,0,0,0,0,0,-1,1630,1548,8.6429,-6.06805
413,-524,11.677,6.41858,0,0,0,0,0,0,0,-1,1637,1548,11.677,-6.41864
420,-524,11.4913,6.36401,0,0,0,0,0,0,0,-1,1644,1548,11.4913,-6.36402
427,-524,7.68335,6.17249,0,0,0,0,0,0,0,-1,1651,1548,7.68341,-6.17245
434,-524,10.432,11.6801,0,0,0,0,0,0,0,-1,1658,1548,10.432,-11.68
441,-524,8.78552,4.12305,0,0,0,0,0,0,0,-1,1665,1548,8.78553,-4.12301
448,-524,14.1854,4.78674,0,0,0,0,0,0,0,-1,1672,1548,14.1854,-4.78674
455,-524,12.4784,3.65576,0,0,0,0,0,0,0,-1,1679,1548,12.4784,-3.65572
462,-524,14.7551,9.29395,0,0,0,0,0,0,0,-1,1686,1548,14.7552,-9.29397
469,-524,16.3314,14.3779,0,0,0,0,0,0,0,-1,1693,1548,16.3314,-14.3779
476,-524,15.9106,15.1875,0,0,0,0,0,0,0,-1,1700,1548,15.9107,-15.1876
483,-524,15.2776,16.2268,0,0,0,0,0,0,0,-1,1707,1548,15.2776,-16.2269
490,-524,15.2563,18.5848,0,0,0,0,0,0,0,-1,1714,1548,15.2564,-18.5848
497,-524,17.5173,22.6123,0,0,0,0,0,0,0,-1,1721,1548,17.5174,-22.6123
504,-524,23.9667,34.088,0,0,0,0,0,0,0,-1,1728,1548,23.9667,-34.088
511,-524,24.3594,33.1036,0,0,0,0,0,0,0,-1,1735,1548,24.3594,-33.1036
518,-524,24.4017,32.2732,0.00748144,0.0075926,-0.00562628,0.0131636,0.00191046,-0.790337,0.0082133,0.0282642,1742,1548,24.4017,-32.2732
525,-524,24.3374,31.6108,0.00609782,0.00606123,-0.00449541,0.010575,0.00158408,-0.783363,0.00658576,0.0148426,1749,1548,24.3374,-31.6108
532,-524,24.3348,30.9172,0.00484195,0.00465514,-0.0034763,0.0082261,0.001271,-0.771967,0.00511333,0.0113133,1756,1548,24.3348,-30.9173
539,-524,24.2938,30.2295,0.00386641,0.0033783,-0.00257461,0.00620851,0.0010362,-0.738142,0.00384049,0.012113,1763,1548,24.2939,-30.2295
546,-524,24.2538,29.592,0.00309237,0.0021522,-0.00175564,0.00443977,0.000804805,-0.654589,0.00273139,0.0161874,1770,1548,24.2538,-29.592
553,-524,24.2263,28.9247,0.0024743,0.00104237,-0.00101232,0.00299825,0.000518416,-0.477609,0.0018504,0.0268966,1777,1548,24.2263,-28.9247
560,-524,24.2231,28.2014,0.0020447,-3.6376e-06,-0.000353976,0.00210415,-6.30834e-05,-0.166385,0.00142426,0.0349585,1784,1548,24.2231,-28.2014
567,-524,24.1713,27.496,0.00189096,-0.000758369,4.66602e-05,0.00189179,-0.000759191,0.0176048,0.00157642,0.0194264,1791,1548,24.1713,-27.4959
574,-524,24.1416,26.7874,0.00192878,-0.00141757,0.000364331,0.00196798,-0.00145677,0.107201,0.00198461,0.0146328,1798,1548,24.1416,-26.7873
581,-524,24.1053,26.0635,0.00230195,-0.00188741,0.000441161,0.0023479,-0.00193336,0.103788,0.00247565,0.0168249,1805,1548,24.1053,-26.0635
588,-524,24.1339,25.374,0.00303719,-0.00204069,0.000252582,0.00304973,-0.00205322,0.0495784,0.00296486,0.0292697,1812,1548,24.1339,-25.3741
595,-524,24.3453,24.8734,0,0,0,0,0,0,0,-1,1819,1548,24.3453,-24.8734
602,-524,13.837,12.0682,0,0,0,0,0,0,0,-1,1826,1548,13.837,-12.0683
609,-524,13.0056,10.5138,0,0,0,0,0,0,0,-1,1833,1548,13.0056,-10.5138
616,-524,11.6941,8.65515,0,0,0,0,0,0,0,-1,1840,1548,11.6941,-8.65514
623,-524,9.38452,5.15356,0,0,0,0,0,0,0,-1,1847,1548,9.38456,-5.15359
630,-524,11.0541,3.57434,0,0,0,0,0,0,0,-1,1854,1548,11.0541,-3.57438
637,-524,11.6067,3.20728,0,0,0,0,0,0,0,-1,1861,1548,11.6067,-3.20724
644,-524,12.2134,0.727173,0,0,0,0,0,0,0,-1,1868,1548,12.2134,-0.727222
651,-524,0,0,0,0,0,0,0,0,0,-1,1875,1548,0,0
658,-524,0,0,0,0,0,0,0,0,0,-1,1882,1548,0,0
665,-524,0,0,0,0,0,0,0,0,0,-1,1889,1548,0,0
672,-524,0,0,0,0,0,0,0,0,0,-1,1896,1548,0,0
679,-524,0,0,0,0,0,0,0,0,0,-1,1903,1548,0,0
686,-524,0,0,0,0,0,0,0,0,0,-1,1910,1548,0,0
693,-524,0,0,0,0,0,0,0,0,0,-1,1917,1548,0,0
700,-524,0,0,0,0,0,0,0,0,0,-1,1924,1548,0,0
707,-524,0,0,0,0,0,0,0,0,0,-1,1931,1548,0,0
714,-524,0,0,0,0,0,0,0,0,0,-1,1938,1548,0,0
721,-524,0,0,0,0,0,0,0,0,0,-1,1945,1548,0,0
728,-524,0,0,0,0,0,0,0,0,0,-1,1952,1548,0,0
735,-524,0,0,0,0,0,0,0,0,0,-1,1959,1548,0,0
742,-524,0,0,0,0,0,0,0,0,0,-1,1966,1548,0,0
749,-524,0,0,0,0,0,0,0,0,0,-1,1973,1548,0,0
756,-524,0,0,0,0,0,0,0,0,0,-1,1980,1548,0,0
763,-524,0,0,0,0,0,0,0,0,0,-1,1987,1548,0,0
770,-524,0,0,0,0,0,0,0,0,0,-1,1994,1548,0,0
777,-524,0,0,0,0,0,0,0,0,0,-1,2001,1548,0,0
784,-524,0,0,0,0,0,0,0,0,0,-1,2008,1548,0,0
791,-524,0,0,0,0,0,0,0,0,0,-1,2015,1548,0,0
798,-524,0,0,0,0,0,0,0,0,0,-1,2022,1548,0,0
805,-524,0,0,0,0,0,0,0,0,0,-1,2029,1548,0,0
812,-524,0,0,0,0,0,0,0,0,0,-1,2036,1548,0,0
-700,-531,0,0,0,0,0,0,0,0,0,-1,524,1555,0,0
-693,-531,0,0,0,0,0,0,0,0,0,-1,531,1555,0,0
-686,-531,0,0,0,0,0,0,0,0,0,-1,538,1555,0,0
-679,-531,0,0,0,0,0,0,0,0,0,-1,545,1555,0,0
-672,-531,0,0,0,0,0,0,0,0,0,-1,552,1555,0,0
-665,-531,0,0,0,0,0,0,0,0,0,-1,559,1555,0,0
-658,-531,0,0,0,0,0,0,0,0,0,-1,566,1555,0,0
-651,-531,0,0,0,0,0,0,0,0,0,-1,573,1555,0,0
-644,-531,0,0,0,0,0,0,0,0,0,-1,580,1555,0,0
-637,-531,0,0,0,0,0,0,0,0,0,-1,587,1555,0,0
-630,-531,0,0,0,0,0,0,0,0,0,-1,594,1555,0,0
-623,-531,0,0,0,0,0,0,0,0,0,-1,601,1555,0,0
-616,-531,0,0,0,0,0,0,0,0,0,-1,608,1555,0,0
-609,-531,0,0,0,0,0,0,0,0,0,-1,615,1555,0,0
-602,-531,0,0,0,0,0,0,0,0,0,-1,622,1555,0,0
-595,-531,0,0,0,0,0,0,0,0,0,-1,629,1555,0,0
-588,-531,0,0,0,0,0,0,0,0,0,-1,636,1555,0,0
-581,-531,0,0,0,0,0,0,0,0,0,-1,643,1555,0,0
-574,-531,0,0,0,0,0,0,0,0,0,-1,650,1555,0,0
-567,-531,0,0,0,0,0,0,0,0,0,-1,657,1555,0,0
-560,-531,0,0,0,0,0,0,0,0,0,-1,664,1555,0,0
-553,-531,0,0,0,0,0,0,0,0,0,-1,671,1555,0,0
-546,-531,0,0,0,0,0,0,0,0,0,-1,678,1555,0,0
-539,-531,0,0,0,0,0,0,0,0,0,-1,685,1555,0,0
-532,-531,0,0,0,0,0,0,0,0,0,-1,692,1555,0,0
-525,-531,0,0,0,0,0,0,0,0,0,-1,699,1555,0,0
-518,-531,-1.63983,4.03821,0,0,0,0,0,0,0,-1,706,1555,-1.63982,-4.03821
-511,-531,-2.9682,8.07483,0,0,0,0,0,0,0,-1,713,1555,-2.9682,-8.07479
-504,-531,-2.95978,0.557861,0,0,0,0,0,0,0,-1,720,1555,-2.95978,-0.557917
-497,-531,-2.46039,8.07422,0,0,0,0,0,0,0,-1,727,1555,-2.46039,-8.07423
-490,-531,-0.423462,7.92065,0,0,0,0,0,0,0,-1,734,1555,-0.42344,-7.92066
-483,-531,-7.50745,20.1915,0,0,0,0,0,0,0,-1,741,1555,-7.50744,-20.1915
-476,-531,-6.0484,23.1376,0,0,0,0,0,0,0,-1,748,1555,-6.04837,-23.1376
-469,-531,-5.84656,23.3983,0.00092913,-0.00842939,0.00832615,0.0058008,-0.0133011,0.529395,0.0113083,0.0478879,755,1555,-5.84656,-23.3983
-462,-531,-5.62689,24.4337,-0.000793549,-0.00736593,0.00555817,0.00237722,-0.0105367,0.518423,0.00793644,0.0455383,762,1555,-5.62689,-24.4338
-455,-531,-5.78552,25.2767,-0.00177039,-0.00594938,0.0035782,0.000283727,-0.00800349,0.52113,0.00543271,0.0469299,769,1555,-5.7855,-25.2767
-448,-531,-5.36487,25.4574,0,0,0,0,0,0,0,-1,776,1555,-5.36486,-25.4574
-441,-531,-5.65936,26.3119,-0.00211268,-0.00345446,0.0012042,-0.0014051,-0.00416205,0.531249,0.00244485,0.0134328,783,1555,-5.65937,-26.3119
-434,-531,-5.68829,27.0649,-0.00176272,-0.00221164,0.000730003,-0.00122345,-0.00275091,0.636245,0.00159147,0.0130576,790,1555,-5.68829,-27.065
-427,-531,-5.71747,27.8038,-0.00125635,-0.00114579,0.000527078,-0.000671099,-0.00173104,0.837647,0.00100778,0.015621,797,1555,-5.71744,-27.8039
-420,-531,-5.82178,28.5016,-0.000586877,-0.000170802,0.000563536,0.00022187,-0.000979549,0.962221,0.000738189,0.0363373,804,1555,-5.82179,-28.5016
-413,-531,-5.82904,29.2799,5.59998e-05,0.000585451,0.000592938,0.000970075,-0.000328624,0.995353,0.000779695,0.0338097,811,1555,-5.82906,-29.2799
-406,-531,-5.8208,29.9856,0.000892168,0.0014555,0.000910025,0.00212645,0.000221218,0.935481,0.00134995,0.0135558,818,1555,-5.82083,-29.9856
-399,-531,-5.85522,30.673,0.00176305,0.00228423,0.00133866,0.00338743,0.000659849,0.881529,0.00207363,0.0146503,825,1555,-5.85521,-30.673
-392,-531,-5.88513,31.3878,0.00251401,0.00295441,0.00168787,0.00443639,0.00103204,0.850262,0.00268064,0.0183188,832,1555,-5.88515,-31.3878
-385,-531,-5.93115,32.0928,0.00319116,0.00380381,0.00195538,0.00547671,0.00151825,0.863095,0.00326493,0.0151775,839,1555,-5.93114,-32.0927
-378,-531,-5.98047,32.7324,0.00399457,0.00453215,0.00212676,0.00640704,0.00211968,0.848256,0.00376901,0.0191931,846,1555,-5.98045,-32.7324
-371,-531,-6.00653,33.5057,0,0,0,0,0,0,0,-1,853,1555,-6.00655,-33.5058
-364,-531,-5.75781,34.4648,0,0,0,0,0,0,0,-1,860,1555,-5.7578,-34.4648
-357,-531,-4.29193,31.5354,0,0,0,0,0,0,0,-1,867,1555,-4.29191,-31.5354
-350,-531,-3.16101,27.5791,0,0,0,0,0,0,0,-1,874,1555,-3.16099,-27.5791
-343,-531,-2.90552,28.561,0,0,0,0,0,0,0,-1,881,1555,-2.90549,-28.5611
-336,-531,-2.6698,29.5398,0,0,0,0,0,0,0,-1,888,1555,-2.66983,-29.5398
-329,-531,-2.45148,30.4781,0,0,0,0,0,0,0,-1,895,1555,-2.45148,-30.4781
-322,-531,-3.25092,28.4921,0,0,0,0,0,0,0,-1,902,1555,-3.25092,-28.4921
-315,-531,-5.51929,31.7814,0,0,0,0,0,0,0,-1,909,1555,-5.51928,-31.7813
-308,-531,-1.66455,19.0624,0,0,0,0,0,0,0,-1,916,1555,-1.66455,-19.0623
-301,-531,-2.02405,18.8912,0,0,0,0,0,0,0,-1,923,1555,-2.02407,-18.8913
-294,-531,-1.3244,8.1825,0,0,0,0,0,0,0,-1,930,1555,-1.3244,-8.18251
-287,-531,-1.78192,10.1661,0,0,0,0,0,0,0,-1,937,1555,-1.78192,-10.1661
-280,-531,-2.14508,10.3945,0,0,0,0,0,0,0,-1,944,1555,-2.14506,-10.3945
-273,-531,-2.50818,10.6229,0,0,0,0,0,0,0,-1,951,1555,-2.5082,-10.6229
-266,-531,-4.97742,17.9215,0,0,0,0,0,0,0,-1,958,1555,-4.97744,-17.9215
-259,-531,0,0,0,0,0,0,0,0,0,-1,965,1555,0,0
-252,-531,0,0,0,0,0,0,0,0,0,-1,972,1555,0,0
-245,-531,0,0,0,0,0,0,0,0,0,-1,979,1555,0,0
-238,-531,0,0,0,0,0,0,0,0,0,-1,986,1555,0,0
-231,-531,0,0,0,0,0,0,0,0,0,-1,993,1555,0,0
-224,-531,0,0,0,0,0,0,0,0,0,-1,1000,1555,0,0
-217,-531,0,0,0,0,0,0,0,0,0,-1,1007,1555,0,0
-210,-531,0,0,0,0,0,0,0,0,0,-1,1014,1555,0,0
-203,-531,0,0,0,0,0,0,0,0,0,-1,1021,1555,0,0
-196,-531,0,0,0,0,0,0,0,0,0,-1,1028,1555,0,0
-189,-531,0,0,0,0,0,0,0,0,0,-1,1035,1555,0,0
-182,-531,0,0,0,0,0,0,0,0,0,-1,1042,1555,0,0
-175,-531,0,0,0,0,0,0,0,0,0,-1,1049,1555,0,0
-168,-531,0,0,0,0,0,0,0,0,0,-1,1056,1555,0,0
-161,-531,0,0,0,0,0,0,0,0,0,-1,1063,1555,0,0
-154,-531,0,0,0,0,0,0,0,0,0,-1,1070,1555,0,0
-147,-531,0,0,0,0,0,0,0,0,0,-1,1077,1555,0,0
-140,-531,0,0,0,0,0,0,0,0,0,-1,1084,1555,0,0
-133,-531,0,0,0,0,0,0,0,0,0,-1,1091,1555,0,0
-126,-531,0,0,0,0,0,0,0,0,0,-1,1098,1555,0,0
-119,-531,0,0,0,0,0,0,0,0,0,-1,1105,1555,0,0
-112,-531,0,0,0,0,0,0,0,0,0,-1,1112,1555,0,0
-105,-531,0,0,0,0,0,0,0,0,0,-1,1119,1555,0,0
-98,-531,0,0,0,0,0,0,0,0,0,-1,1126,1555,0,0
-91,-531,0,0,0,0,0,0,0,0,0,-1,1133,1555,0,0
-84,-531,0,0,0,0,0,0,0,0,0,-1,1140,1555,0,0
-77,-531,0,0,0,0,0,0,0,0,0,-1,1147,1555,0,0
-70,-531,0,0,0,0,0,0,0,0,0,-1,1154,1555,0,0
-63,-531,0,0,0,0,0,0,0,0,0,-1,1161,1555,0,0
-56,-531,0,0,0,0,0,0,0,0,0,-1,1168,1555,0,0
-49,-531,0,0,0,0,0,0,0,0,0,-1,1175,1555,0,0
-42,-531,0,0,0,0,0,0,0,0,0,-1,1182,1555,0,0
-35,-531,0,0,0,0,0,0,0,0,0,-1,1189,1555,0,0
-28,-531,0,0,0,0,0,0,0,0,0,-1,1196,1555,0,0
-21,-531,0,0,0,0,0,0,0,0,0,-1,1203,1555,0,0
-14,-531,0,0,0,0,0,0,0,0,0,-1,1210,1555,0,0
-7,-531,0,0,0,0,0,0,0,0,0,-1,1217,1555,0,0
0,-531,0,0,0,0,0,0,0,0,0,-1,1224,1555,0,0
7,-531,0,0,0,0,0,0,0,0,0,-1,1231,1555,0,0
14,-531,0,0,0,0,0,0,0,0,0,-1,1238,1555,0,0
21,-531,0,0,0,0,0,0,0,0,0,-1,1245,1555,0,0
28,-531,0,0,0,0,0,0,0,0,0,-1,1252,1555,0,0
35,-531,0,0,0,0,0,0,0,0,0,-1,1259,1555,0,0
42,-531,0,0,0,0,0,0,0,0,0,-1,1266,1555,0,0
49,-531,0,0,0,0,0,0,0,0,0,-1,1273,1555,0,0
56,-531,0,0,0,0,0,0,0,0,0,-1,1280,1555,0,0
63,-531,0,0,0,0,0,0,0,0,0,-1,1287,1555,0,0
70,-531,0,0,0,0,0,0,0,0,0,-1,1294,1555,0,0
77,-531,0,0,0,0,0,0,0,0,0,-1,1301,1555,0,0
84,-531,0,0,0,0,0,0,0,0,0,-1,1308,1555,0,0
91,-531,0,0,0,0,0,0,0,0,0,-1,1315,1555,0,0
98,-531,0,0,0,0,0,0,0,0,0,-1,1322,1555,0,0
105,-531,0,0,0,0,0,0,0,0,0,-1,1329,1555,0,0
112,-531,0,0,0,0,0,0,0,0,0,-1,1336,1555,0,0
119,-531,0,0,0,0,0,0,0,0,0,-1,1343,1555,0,0
126,-531,0,0,0,0,0,0,0,0,0,-1,1350,1555,0,0
133,-531,0,0,0,0,0,0,0,0,0,-1,1357,1555,0,0
140,-531,0,0,0,0,0,0,0,0,0,-1,1364,1555,0,0
147,-531,0,0,0,0,0,0,0,0,0,-1,1371,1555,0,0
154,-531,0,0,0,0,0,0,0,0,0,-1,1378,1555,0,0
161,-531,0,0,0,0,0,0,0,0,0,-1,1385,1555,0,0
168,-531,0,0,0,0,0,0,0,0,0,-1,1392,1555,0,0
175,-531,0,0,0,0,0,0,0,0,0,-1,1399,1555,0,0
182,-531,0,0,0,0,0,0,0,0,0,-1,1406,1555,0,0
189,-531,0,0,0,0,0,0,0,0,0,-1,1413,1555,0,0
196,-531,0,0,0,0,0,0,0,0,0,-1,1420,1555,0,0
203,-531,0,0,0,0,0,0,0,0,0,-1,1427,1555,0,0
210,-531,0,0,0,0,0,0,0,0,0,-1,1434,1555,0,0
217,-531,0,0,0,0,0,0,0,0,0,-1,1441,1555,0,0
224,-531,0,0,0,0,0,0,0,0,0,-1,1448,1555,0,0
231,-531,0,0,0,0,0,0,0,0,0,-1,1455,1555,0,0
238,-531,0,0,0,0,0,0,0,0,0,-1,1462,1555,0,0
245,-531,0,0,0,0,0,0,0,0,0,-1,1469,1555,0,0
252,-531,0,0,0,0,0,0,0,0,0,-1,1476,1555,0,0
259,-531,0,0,0,0,0,0,0,0,0,-1,1483,1555,0,0
266,-531,0,0,0,0,0,0,0,0,0,-1,1490,1555,0,0
273,-531,0,0,0,0,0,0,0,0,0,-1,1497,1555,0,0
280,-531,0,0,0,0,0,0,0,0,0,-1,1504,1555,0,0
287,-531,0,0,0,0,0,0,0,0,0,-1,1511,1555,0,0
294,-531,0,0,0,0,0,0,0,0,0,-1,1518,1555,0,0
301,-531,0,0,0,0,0,0,0,0,0,-1,1525,1555,0,0
308,-531,0,0,0,0,0,0,0,0,0,-1,1532,1555,0,0
315,-531,0,0,0,0,0,0,0,0,0,-1,1539,1555,0,0
322,-531,0,0,0,0,0,0,0,0,0,-1,1546,1555,0,0
329,-531,0,0,0,0,0,0,0,0,0,-1,1553,1555,0,0
336,-531,0,0,0,0,0,0,0,0,0,-1,1560,1555,0,0
343,-531,0,0,0,0,0,0,0,0,0,-1,1567,1555,0,0
350,-531,0,0,0,0,0,0,0,0,0,-1,1574,1555,0,0
357,-531,0,0,0,0,0,0,0,0,0,-1,1581,1555,0,0
364,-531,0,0,0,0,0,0,0,0,0,-1,1588,1555,0,0
371,-531,0,0,0,0,0,0,0,0,0,-1,1595,1555,0,0
378,-531,0,0,0,0,0,0,0,0,0,-1,1602,1555,0,0
385,-531,3.48169,1.78625,0,0,0,0,0,0,0,-1,1609,1555,3.48165,-1.78624
392,-531,10.8781,9.09204,0,0,0,0,0,0,0,-1,1616,1555,10.8781,-9.09205
399,-531,8.26306,5.29602,0,0,0,0,0,0,0,-1,1623,1555,8.26302,-5.29607
406,-531,8.26147,5.42712,0,0,0,0,0,0,0,-1,1630,1555,8.26145,-5.42716
413,-531,8.20618,5.75012,0,0,0,0,0,0,0,-1,1637,1555,8.20619,-5.75017
420,-531,7.64868,7.09558,0,0,0,0,0,0,0,-1,1644,1555,7.64867,-7.09564
427,-531,9.93054,11.8412,0,0,0,0,0,0,0,-1,1651,1555,9.93059,-11.8412
434,-531,10.244,11.7072,0,0,0,0,0,0,0,-1,1658,1555,10.244,-11.7071
441,-531,11.4528,12.9397,0,0,0,0,0,0,0,-1,1665,1555,11.4528,-12.9397
448,-531,11.928,18.8029,0,0,0,0,0,0,0,-1,1672,1555,11.928,-18.8028
455,-531,14.4877,9.67065,0,0,0,0,0,0,0,-1,1679,1555,14.4876,-9.67066
462,-531,13.5253,12.2002,0,0,0,0,0,0,0,-1,1686,1555,13.5252,-12.2002
469,-531,15.5087,15.7894,0,0,0,0,0,0,0,-1,1693,1555,15.5086,-15.7895
476,-531,14.6582,16.2264,0,0,0,0,0,0,0,-1,1700,1555,14.6582,-16.2264
483,-531,14.755,18.5994,0,0,0,0,0,0,0,-1,1707,1555,14.7551,-18.5994
490,-531,16.9362,25.4943,0,0,0,0,0,0,0,-1,1714,1555,16.9362,-25.4942
497,-531,23.4396,34.796,0,0,0,0,0,0,0,-1,1721,1555,23.4395,-34.796
504,-531,23.5712,33.8363,0.00832932,0.00970565,-0.00675776,0.0158102,0.00222477,-0.83614,0.00988237,0.0408366,1728,1555,23.5711,-33.8363
511,-531,23.6831,33.0347,0.00693884,0.00776699,-0.00552224,0.0128907,0.00181517,-0.82282,0.00805716,0.0170261,1735,1555,23.6831,-33.0347
518,-531,23.6914,32.3068,0.00564649,0.00588172,-0.00422732,0.00999306,0.00153515,-0.799306,0.00621386,0.0152962,1742,1555,23.6914,-32.3067
525,-531,23.6647,31.6425,0.00448901,0.00451802,-0.00327468,0.00777823,0.0012288,-0.787613,0.00482829,0.0149292,1749,1555,23.6647,-31.6424
532,-531,23.6647,30.9635,0.00345706,0.0032441,-0.00241106,0.00576399,0.000937166,-0.76333,0.0035715,0.012062,1756,1555,23.6646,-30.9635
539,-531,23.6094,30.3009,0.00267701,0.00212268,-0.0016463,0.00406932,0.000730371,-0.702002,0.00250516,0.0134868,1763,1555,23.6094,-30.3009
546,-531,23.5333,29.6321,0.00207767,0.000957607,-0.000907872,0.00258435,0.000450931,-0.509035,0.00159399,0.0158797,1770,1555,23.5334,-29.6321
553,-531,23.5604,29.0051,0.00161719,-0.000102758,-0.000217324,0.00164422,-0.000129793,-0.123764,0.00114188,0.0317935,1777,1555,23.5604,-29.0051
560,-531,23.5203,28.2854,0.00136491,-0.00110225,0.000400229,0.00142821,-0.00116555,0.156865,0.00150007,0.037639,1784,1555,23.5202,-28.2854
567,-531,23.4286,27.5349,0.0013901,-0.00186395,0.000811864,0.00158141,-0.00205526,0.231418,0.00210556,0.021419,1791,1555,23.4286,-27.5349
574,-531,23.4015,26.8221,0.00160486,-0.00256057,0.0011769,0.00191438,-0.00287009,0.257174,0.00278063,0.0163239,1798,1555,23.4015,-26.8222
581,-531,23.442,26.0784,0.00228254,-0.00302374,0.00124272,0.00255916,-0.00330036,0.219024,0.00339201,0.0276984,1805,1555,23.442,-26.0783
588,-531,23.4128,25.3258,0.0034351,-0.00312122,0.000996778,0.00358329,-0.00326941,0.147592,0.00395779,0.0448779,1812,1555,23.4128,-25.3258
595,-531,23.245,24.5483,0,0,0,0,0,0,0,-1,1819,1555,23.245,-24.5483
602,-531,13.701,11.8346,0,0,0,0,0,0,0,-1,1826,1555,13.701,-11.8347
609,-531,10.9072,8.50903,0,0,0,0,0,0,0,-1,1833,1555,10.9073,-8.50902
616,-531,10.5723,7.17859,0,0,0,0,0,0,0,-1,1840,1555,10.5723,-7.17855
623,-531,10.0674,5.08984,0,0,0,0,0,0,0,-1,1847,1555,10.0674,-5.08981
630,-531,11.672,3.18909,0,0,0,0,0,0,0,-1,1854,1555,11.672,-3.18904
637,-531,13.2546,1.38965,0,0,0,0,0,0,0,-1,1861,1555,13.2547,-1.3896
644,-531,0,0,0,0,0,0,0,0,0,-1,1868,1555,0,0
651,-531,0,0,0,0,0,0,0,0,0,-1,1875,1555,0,0
658,-531,0,0,0,0,0,0,0,0,0,-1,1882,1555,0,0
665,-531,0,0,0,0,0,0,0,0,0,-1,1889,1555,0,0
672,-531,0,0,0,0,0,0,0,0,0,-1,1896,1555,0,0
679,-531,0,0,0,0,0,0,0,0,0,-1,1903,1555,0,0
686,-531,0,0,0,0,0,0,0,0,0,-1,1910,1555,0,0
693,-531,0,0,0,0,0,0,0,0,0,-1,1917,1555,0,0
700,-531,0,0,0,0,0,0,0,0,0,-1,1924,1555,0,0
707,-531,0,0,0,0,0,0,0,0,0,-1,1931,1555,0,0
714,-531,0,0,0,0,0,0,0,0,0,-1,1938,1555,0,0
721,-531,0,0,0,0,0,0,0,0,0,-1,1945,1555,0,0
728,-531,0,0,0,0,0,0,0,0,0,-1,1952,1555,0,0
735,-531,0,0,0,0,0,0,0,0,0,-1,1959,1555,0,0
742,-531,0,0,0,0,0,0,0,0,0,-1,1966,1555,0,0
749,-531,0,0,0,0,0,0,0,0,0,-1,1973,1555,0,0
756,-531,0,0,0,0,0,0,0,0,0,-1,1980,1555,0,0
763,-531,0,0,0,0,0,0,0,0,0,-1,1987,1555,0,0
770,-531,0,0,0,0,0,0,0,0,0,-1,1994,1555,0,0
777,-531,0,0,0,0,0,0,0,0,0,-1,2001,1555,0,0
784,-531,0,0,0,0,0,0,0,0,0,-1,2008,1555,0,0
791,-531,0,0,0,0,0,0,0,0,0,-1,2015,1555,0,0
798,-531,0,0,0,0,0,0,0,0,0,-1,2022,1555,0,0
805,-531,0,0,0,0,0,0,0,0,0,-1,2029,1555,0,0
812,-531,0,0,0,0,0,0,0,0,0,-1,2036,1555,0,0
-700,-538,0,0,0,0,0,0,0,0,0,-1,524,1562,0,0
-693,-538,0,0,0,0,0,0,0,0,0,-1,531,1562,0,0
-686,-538,0,0,0,0,0,0,0,0,0,-1,538,1562,0,0
-679,-538,0,0,0,0,0,0,0,0,0,-1,545,1562,0,0
-672,-538,0,0,0,0,0,0,0,0,0,-1,552,1562,0,0
-665,-538,0,0,0,0,0,0,0,0,0,-1,559,1562,0,0
-658,-538,0,0,0,0,0,0,0,0,0,-1,566,1562,0,0
-651,-538,0,0,0,0,0,0,0,0,0,-1,573,1562,0,0
-644,-538,0,0,0,0,0,0,0,0,0,-1,580,1562,0,0
-637,-538,0,0,0,0,0,0,0,0,0,-1,587,1562,0,0
-630,-538,0,0,0,0,0,0,0,0,0,-1,594,1562,0,0
-623,-538,0,0,0,0,0,0,0,0,0,-1,601,1562,0,0
-616,-538,0,0,0,0,0,0,0,0,0,-1,608,1562,0,0
-609,-538,0,0,0,0,0,0,0,0,0,-1,615,1562,0,0
-602,-538,0,0,0,0,0,0,0,0,0,-1,622,1562,0,0
-595,-538,0,0,0,0,0,0,0,0,0,-1,629,1562,0,0
-588,-538,0,0,0,0,0,0,0,0,0,-1,636,1562,0,0
-581,-538,0,0,0,0,0,0,0,0,0,-1,643,1562,0,0
-574,-538,0,0,0,0,0,0,0,0,0,-1,650,1562,0,0
-567,-538,0,0,0,0,0,0,0,0,0,-1,657,1562,0,0
-560,-538,0,0,0,0,0,0,0,0,0,-1,664,1562,0,0
-553,-538,0,0,0,0,0,0,0,0,0,-1,671,1562,0,0
-546,-538,0,0,0,0,0,0,0,0,0,-1,678,1562,0,0
-539,-538,0,0,0,0,0,0,0,0,0,-1,685,1562,0,0
-532,-538,0,0,0,0,0,0,0,0,0,-1,692,1562,0,0
-525,-538,0,0,0,0,0,0,0,0,0,-1,699,1562,0,0
-518,-538,0,0,0,0,0,0,0,0,0,-1,706,1562,0,0
-511,-538,-2.6582,-1.54321,0,0,0,0,0,0,0,-1,713,1562,-2.65821,1.54327
-504,-538,-2.66455,-0.71167,0,0,0,0,0,0,0,-1,720,1562,-2.66456,0.711667
-497,-538,-0.763855,6.77747,0,0,0,0,0,0,0,-1,727,1562,-0.76385,-6.77743
-490,-538,-2.70453,8.01465,0,0,0,0,0,0,0,-1,734,1562,-2.70451,-8.0147
-483,-538,-0.933533,7.84644,0,0,0,0,0,0,0,-1,741,1562,-0.933548,-7.84638
-476,-538,-3.29962,15.8307,0,0,0,0,0,0,0,-1,748,1562,-3.29962,-15.8306
-469,-538,-5.47272,23.3447,0,0,0,0,0,0,0,-1,755,1562,-5.47271,-23.3448
-462,-538,-4.89667,24.5604,0,0,0,0,0,0,0,-1,762,1562,-4.89667,-24.5605
-455,-538,-5.2746,25.5011,0,0,0,0,0,0,0,-1,769,1562,-5.27459,-25.501
-448,-538,-4.7879,25.8268,0,0,0,0,0,0,0,-1,776,1562,-4.78788,-25.8268
-441,-538,-4.89667,26.4999,-0.00321548,-0.00377138,0.00120666,-0.00225517,-0.00473169,0.6722,0.00273284,0.0291522,783,1562,-4.89668,-26.4999
-434,-538,-5.00684,27.0999,-0.00275959,-0.00260501,0.000620907,-0.0020566,-0.003308,0.847318,0.00192864,0.0147798,790,1562,-5.00687,-27.0999
-427,-538,-5.04553,27.8676,-0.00213643,-0.00157149,0.000372053,-0.00138683,-0.00232109,1.11009,0.00134855,0.0139655,797,1562,-5.04554,-27.8676
-420,-538,-5.06964,28.5483,-0.00138038,-0.000666504,0.000360765,-0.000515941,-0.00153094,1.17543,0.000899406,0.0179308,804,1562,-5.06967,-28.5484
-413,-538,-5.08014,29.2623,-0.00076082,-2.84003e-05,0.000263665,5.66427e-05,-0.000845863,1.25879,0.000583706,0.0183542,811,1562,-5.08015,-29.2623
-406,-538,-5.10657,29.9885,8.84642e-05,0.000784329,0.000516137,0.00105885,-0.000186061,1.08197,0.000775401,0.0155724,818,1562,-5.10658,-29.9885
-399,-538,-5.13593,30.7235,0.000969661,0.00157093,0.000863121,0.00218428,0.000356318,0.952984,0.00135314,0.0151186,825,1562,-5.13594,-30.7235
-392,-538,-5.16687,31.441,0.00168942,0.00214041,0.00115662,0.00309331,0.000736519,0.881672,0.0018658,0.0164386,832,1562,-5.16685,-31.441
-385,-538,-5.2215,32.1417,0.00238379,0.00284553,0.00136395,0.00399801,0.00123131,0.869237,0.00236431,0.0132346,839,1562,-5.22149,-32.1418
-378,-538,-5.25922,32.8202,0.00312727,0.00351613,0.00149582,0.0048301,0.0018133,0.850029,0.00281737,0.0103327,846,1562,-5.25923,-32.8202
-371,-538,-5.30927,33.494,0.00410184,0.00455225,0.00186817,0.00620875,0.00244535,0.845383,0.00361145,0.0150482,853,1562,-5.30924,-33.4941
-364,-538,-5.2381,34.291,0.00537678,0.00580694,0.00240657,0.00800802,0.0031757,0.829965,0.00465629,0.0222332,860,1562,-5.2381,-34.291
-357,-538,-5.08069,35.1576,0,0,0,0,0,0,0,-1,867,1562,-5.08071,-35.1575
-350,-538,-4.95905,36.2883,0,0,0,0,0,0,0,-1,874,1562,-4.95906,-36.2883
-343,-538,-2.47339,28.3082,0,0,0,0,0,0,0,-1,881,1562,-2.47341,-28.3083
-336,-538,-2.40161,28.5409,0,0,0,0,0,0,0,-1,888,1562,-2.40163,-28.541
-329,-538,-2.57159,28.4905,0,0,0,0,0,0,0,-1,895,1562,-2.57161,-28.4905
-322,-538,-2.83783,28.2308,0,0,0,0,0,0,0,-1,902,1562,-2.83783,-28.2308
-315,-538,-2.91827,27.7609,0,0,0,0,0,0,0,-1,909,1562,-2.91829,-27.7608
-308,-538,-4.37433,31.7996,0,0,0,0,0,0,0,-1,916,1562,-4.3743,-31.7995
-301,-538,-0.452393,18.5101,0,0,0,0,0,0,0,-1,923,1562,-0.452367,-18.5102
-294,-538,1.23138,14.0757,0,0,0,0,0,0,0,-1,930,1562,1.23137,-14.0757
-287,-538,-2.60419,10.2361,0,0,0,0,0,0,0,-1,937,1562,-2.6042,-10.2361
-280,-538,-2.93475,10.5106,0,0,0,0,0,0,0,-1,944,1562,-2.93475,-10.5106
-273,-538,-3.26532,10.785,0,0,0,0,0,0,0,-1,951,1562,-3.26531,-10.785
-266,-538,-5.03412,15.9951,0,0,0,0,0,0,0,-1,958,1562,-5.03409,-15.9951
-259,-538,-5.89642,16.5184,0,0,0,0,0,0,0,-1,965,1562,-5.89644,-16.5184
-252,-538,0,0,0,0,0,0,0,0,0,-1,972,1562,0,0
-245,-538,0,0,0,0,0,0,0,0,0,-1,979,1562,0,0
-238,-538,0,0,0,0,0,0,0,0,0,-1,986,1562,0,0
-231,-538,0,0,0,0,0,0,0,0,0,-1,993,1562,0,0
-224,-538,0,0,0,0,0,0,0,0,0,-1,1000,1562,0,0
-217,-538,0,0,0,0,0,0,0,0,0,-1,1007,1562,0,0
-210,-538,0,0,0,0,0,0,0,0,0,-1,1014,1562,0,0
-203,-538,0,0,0,0,0,0,0,0,0,-1,1021,1562,0,0
-196,-538,0,0,0,0,0,0,0,0,0,-1,1028,1562,0,0
-189,-538,0,0,0,0,0,0,0,0,0,-1,1035,1562,0,0
-182,-538,0,0,0,0,0,0,0,0,0,-1,1042,1562,0,0
-175,-538,0,0,0,0,0,0,0,0,0,-1,1049,1562,0,0
-168,-538,0,0,0,0,0,0,0,0,0,-1,1056,1562,0,0
-161,-538,0,0,0,0,0,0,0,0,0,-1,1063,1562,0,0
-154,-538,0,0,0,0,0,0,0,0,0,-1,1070,1562,0,0
-147,-538,0,0,0,0,0,0,0,0,0,-1,1077,1562,0,0
-140,-538,0,0,0,0,0,0,0,0,0,-1,1084,1562,0,0
-133,-538,0,0,0,0,0,0,0,0,0,-1,1091,1562,0,0
-126,-538,0,0,0,0,0,0,0,0,0,-1,1098,1562,0,0
-119,-538,0,0,0,0,0,0,0,0,0,-1,1105,1562,0,0
-112,-538,0,0,0,0,0,0,0,0,0,-1,1112,1562,0,0
-105,-538,0,0,0,0,0,0,0,0,0,-1,1119,1562,0,0
-98,-538,0,0,0,0,0,0,0,0,0,-1,1126,1562,0,0
-91,-538,0,0,0,0,0,0,0,0,0,-1,1133,1562,0,0
-84,-538,0,0,0,0,0,0,0,0,0,-1,1140,1562,0,0
-77,-538,0,0,0,0,0,0,0,0,0,-1,1147,1562,0,0
-70,-538,0,0,0,0,0,0,0,0,0,-1,1154,1562,0,0
-63,-538,0,0,0,0,0,0,0,0,0,-1,1161,1562,0,0
-56,-538,0,0,0,0,0,0,0,0,0,-1,1168,1562,0,0
-49,-538,0,0,0,0,0,0,0,0,0,-1,1175,1562,0,0
-42,-538,0,0,0,0,0,0,0,0,0,-1,1182,1562,0,0
-35,-538,0,0,0,0,0,0,0,0,0,-1,1189,1562,0,0
-28,-538,0,0,0,0,0,0,0,0,0,-1,1196,1562,0,0
-21,-538,0,0,0,0,0,0,0,0,0,-1,1203,1562,0,0
-14,-538,0,0,0,0,0,0,0,0,0,-1,1210,1562,0,0
-7,-538,0,0,0,0,0,0,0,0,0,-1,1217,1562,0,0
0,-538,0,0,0,0,0,0,0,0,0,-1,1224,1562,0,0
7,-538,0,0,0,0,0,0,0,0,0,-1,1231,1562,0,0
14,-538,0,0,0,0,0,0,0,0,0,-1,1238,1562,0,0
21,-538,0,0,0,0,0,0,0,0,0,-1,1245,1562,0,0
28,-538,0,0,0,0,0,0,0,0,0,-1,1252,1562,0,0
35,-538,0,0,0,0,0,0,0,0,0,-1,1259,1562,0,0
42,-538,0,0,0,0,0,0,0,0,0,-1,1266,1562,0,0
49,-538,0,0,0,0,0,0,0,0,0,-1,1273,1562,0,0
56,-538,0,0,0,0,0,0,0,0,0,-1,1280,1562,0,0
63,-538,0,0,0,0,0,0,0,0,0,-1,1287,1562,0,0
70,-538,0,0,0,0,0,0,0,0,0,-1,1294,1562,0,0
77,-538,0,0,0,0,0,0,0,0,0,-1,1301,1562,0,0
84,-538,0,0,0,0,0,0,0,0,0,-1,1308,1562,0,0
91,-538,0,0,0,0,0,0,0,0,0,-1,1315,1562,0,0
98,-538,0,0,0,0,0,0,0,0,0,-1,1322,1562,0,0
105,-538,0,0,0,0,0,0,0,0,0,-1,1329,1562,0,0
112,-538,0,0,0,0,0,0,0,0,0,-1,1336,1562,0,0
119,-538,0,0,0,0,0,0,0,0,0,-1,1343,1562,0,0
126,-538,0,0,0,0,0,0,0,0,0,-1,1350,1562,0,0
133,-538,0,0,0,0,0,0,0,0,0,-1,1357,1562,0,0
140,-538,0,0,0,0,0,0,0,0,0,-1,1364,1562,0,0
147,-538,0,0,0,0,0,0,0,0,0,-1,1371,1562,0,0
154,-538,0,0,0,0,0,0,0,0,0,-1,1378,1562,0,0
161,-538,0,0,0,0,0,0,0,0,0,-1,1385,1562,0,0
168,-538,0,0,0,0,0,0,0,0,0,-1,1392,1562,0,0
175,-538,0,0,0,0,0,0,0,0,0,-1,1399,1562,0,0
182,-538,0,0,0,0,0,0,0,0,0,-1,1406,1562,0,0
189,-538,0,0,0,0,0,0,0,0,0,-1,1413,1562,0,0
196,-538,0,0,0,0,0,0,0,0,0,-1,1420,1562,0,0
203,-538,0,0,0,0,0,0,0,0,0,-1,1427,1562,0,0
210,-538,0,0,0,0,0,0,0,0,0,-1,1434,1562,0,0
217,-538,0,0,0,0,0,0,0,0,0,-1,1441,1562,0,0
224,-538,0,0,0,0,0,0,0,0,0,-1,1448,1562,0,0
231,-538,0,0,0,0,0,0,0,0,0,-1,1455,1562,0,0
238,-538,0,0,0,0,0,0,0,0,0,-1,1462,1562,0,0
245,-538,0,0,0,0,0,0,0,0,0,-1,1469,1562,0,0
252,-538,0,0,0,0,0,0,0,0,0,-1,1476,1562,0,0
259,-538,0,0,0,0,0,0,0,0,0,-1,1483,1562,0,0
266,-538,0,0,0,0,0,0,0,0,0,-1,1490,1562,0,0
273,-538,0,0,0,0,0,0,0,0,0,-1,1497,1562,0,0
280,-538,0,0,0,0,0,0,0,0,0,-1,1504,1562,0,0
287,-538,0,0,0,0,0,0,0,0,0,-1,1511,1562,0,0
294,-538,0,0,0,0,0,0,0,0,0,-1,1518,1562,0,0
301,-538,0,0,0,0,0,0,0,0,0,-1,1525,1562,0,0
308,-538,0,0,0,0,0,0,0,0,0,-1,1532,1562,0,0
315,-538,0,0,0,0,0,0,0,0,0,-1,1539,1562,0,0
322,-538,0,0,0,0,0,0,0,0,0,-1,1546,1562,0,0
329,-538,0,0,0,0,0,0,0,0,0,-1,1553,1562,0,0
336,-538,0,0,0,0,0,0,0,0,0,-1,1560,1562,0,0
343,-538,0,0,0,0,0,0,0,0,0,-1,1567,1562,0,0
350,-538,0,0,0,0,0,0,0,0,0,-1,1574,1562,0,0
357,-538,0,0,0,0,0,0,0,0,0,-1,1581,1562,0,0
364,-538,0,0,0,0,0,0,0,0,0,-1,1588,1562,0,0
371,-538,0,0,0,0,0,0,0,0,0,-1,1595,1562,0,0
378,-538,9.65479,5.82434,0,0,0,0,0,0,0,-1,1602,1562,9.6548,-5.82439
385,-538,10.5449,7.9502,0,0,0,0,0,0,0,-1,1609,1562,10.5449,-7.95014
392,-538,8.20361,7.07214,0,0,0,0,0,0,0,-1,1616,1562,8.20362,-7.07211
399,-538,7.85425,4.70508,0,0,0,0,0,0,0,-1,1623,1562,7.85425,-4.70512
406,-538,7.77734,4.96094,0,0,0,0,0,0,0,-1,1630,1562,7.77729,-4.96097
413,-538,13.0446,13.1765,0,0,0,0,0,0,0,-1,1637,1562,13.0446,-13.1765
420,-538,9.96216,12.7653,0,0,0,0,0,0,0,-1,1644,1562,9.96221,-12.7653
427,-538,10.1732,14.5863,0,0,0,0,0,0,0,-1,1651,1562,10.1732,-14.5863
434,-538,9.64331,14.7745,0,0,0,0,0,0,0,-1,1658,1562,9.64326,-14.7746
441,-538,11.5039,20.5195,0,0,0,0,0,0,0,-1,1665,1562,11.5039,-20.5195
448,-538,12.8766,22.4932,0,0,0,0,0,0,0,-1,1672,1562,12.8766,-22.4932
455,-538,12.5693,17.4128,0,0,0,0,0,0,0,-1,1679,1562,12.5694,-17.4128
462,-538,12.1389,17.017,0,0,0,0,0,0,0,-1,1686,1562,12.1389,-17.017
469,-538,14.3802,16.6945,0,0,0,0,0,0,0,-1,1693,1562,14.3803,-16.6945
476,-538,13.724,19.0608,0,0,0,0,0,0,0,-1,1700,1562,13.724,-19.0608
483,-538,17.088,25.2936,0,0,0,0,0,0,0,-1,1707,1562,17.088,-25.2936
490,-538,22.8478,35.2565,0,0,0,0,0,0,0,-1,1714,1562,22.8477,-35.2565
497,-538,23.0654,34.3787,0,0,0,0,0,0,0,-1,1721,1562,23.0654,-34.3786
504,-538,23.0504,33.6729,0.00640586,0.00770445,-0.00534062,0.0124351,0.00167521,-0.84589,0.00779192,0.0175243,1728,1562,23.0505,-33.6729
511,-538,23.0076,33.0181,0.00525625,0.00600165,-0.00422057,0.00986594,0.00139196,-0.829437,0.0061659,0.0105443,1735,1562,23.0075,-33.0181
518,-538,22.9908,32.3365,0.00417886,0.00429636,-0.00307728,0.00731546,0.00115976,-0.794942,0.00454003,0.0113804,1742,1562,22.9909,-32.3365
525,-538,22.9629,31.6663,0.0032423,0.00309645,-0.00223975,0.00541031,0.000928435,-0.769124,0.00334068,0.0133295,1749,1562,22.9629,-31.6662
532,-538,22.9578,31.0192,0.00242027,0.00193546,-0.00147078,0.00366849,0.000687246,-0.703726,0.00225181,0.0156405,1756,1562,22.9577,-31.0191
539,-538,22.9103,30.3615,0.00180164,0.000923346,-0.000781033,0.00225852,0.000466466,-0.529293,0.00137679,0.0181754,1763,1562,22.9103,-30.3614
546,-538,22.8535,29.6577,0.00132635,-0.000206898,-7.36567e-05,0.00132988,-0.000210428,-0.0478925,0.000964414,0.0171705,1770,1562,22.8535,-29.6577
553,-538,22.8418,28.9576,0.000961879,-0.0012592,0.000611862,0.00111928,-0.0014166,0.25179,0.00146744,0.0274632,1777,1562,22.8419,-28.9577
560,-538,22.7633,28.3263,0.00080974,-0.00225345,0.00123602,0.00124627,-0.00268999,0.339501,0.00232299,0.0325421,1784,1562,22.7633,-28.3262
567,-538,22.7092,27.64,0.000918124,-0.00309355,0.00172513,0.00155793,-0.00373336,0.355151,0.00313981,0.0245638,1791,1562,22.7092,-27.64
574,-538,22.6249,26.8862,0.00119845,-0.00390452,0.00220094,0.00201656,-0.00472264,0.355884,0.00399407,0.0317054,1798,1562,22.6248,-26.8862
581,-538,22.6697,26.2026,0.00207567,-0.00443087,0.00229875,0.00280586,-0.00516107,0.307569,0.00466623,0.048318,1805,1562,22.6696,-26.2026
588,-538,22.985,25.5052,0,0,0,0,0,0,0,-1,1812,1562,22.9849,-25.5052
595,-538,15.9808,16.0894,0,0,0,0,0,0,0,-1,1819,1562,15.9808,-16.0893
602,-538,10.314,8.94238,0,0,0,0,0,0,0,-1,1826,1562,10.314,-8.94238
609,-538,10.1046,7.05713,0,0,0,0,0,0,0,-1,1833,1562,10.1046,-7.05719
616,-538,9.92249,5.43506,0,0,0,0,0,0,0,-1,1840,1562,9.92254,-5.43507
623,-538,11.1711,4.31604,0,0,0,0,0,0,0,-1,1847,1562,11.1711,-4.316
630,-538,12.6112,2.61633,0,0,0,0,0,0,0,-1,1854,1562,12.6112,-2.61637
637,-538,0,0,0,0,0,0,0,0,0,-1,1861,1562,0,0
644,-538,0,0,0,0,0,0,0,0,0,-1,1868,1562,0,0
651,-538,0,0,0,0,0,0,0,0,0,-1,1875,1562,0,0
658,-538,0,0,0,0,0,0,0,0,0,-1,1882,1562,0,0
665,-538,0,0,0,0,0,0,0,0,0,-1,1889,1562,0,0
672,-538,0,0,0,0,0,0,0,0,0,-1,1896,1562,0,0
679,-538,0,0,0,0,0,0,0,0,0,-1,1903,1562,0,0
686,-538,0,0,0,0,0,0,0,0,0,-1,1910,1562,0,0
693,-538,0,0,0,0,0,0,0,0,0,-1,1917,1562,0,0
700,-538,0,0,0,0,0,0,0,0,0,-1,1924,1562,0,0
707,-538,0,0,0,0,0,0,0,0,0,-1,1931,1562,0,0
714,-538,0,0,0,0,0,0,0,0,0,-1,1938,1562,0,0
721,-538,0,0,0,0,0,0,0,0,0,-1,1945,1562,0,0
728,-538,0,0,0,0,0,0,0,0,0,-1,1952,1562,0,0
735,-538,0,0,0,0,0,0,0,0,0,-1,1959,1562,0,0
742,-538,0,0,0,0,0,0,0,0,0,-1,1966,1562,0,0
749,-538,0,0,0,0,0,0,0,0,0,-1,1973,1562,0,0
756,-538,0,0,0,0,0,0,0,0,0,-1,1980,1562,0,0
763,-538,0,0,0,0,0,0,0,0,0,-1,1987,1562,0,0
770,-538,0,0,0,0,0,0,0,0,0,-1,1994,1562,0,0
777,-538,0,0,0,0,0,0,0,0,0,-1,2001,1562,0,0
784,-538,0,0,0,0,0,0,0,0,0,-1,2008,1562,0,0
791,-538,0,0,0,0,0,0,0,0,0,-1,2015,1562,0,0
798,-538,0,0,0,0,0,0,0,0,0,-1,2022,1562,0,0
805,-538,0,0,0,0,0,0,0,0,0,-1,2029,1562,0,0
812,-538,0,0,0,0,0,0,0,0,0,-1,2036,1562,0,0
-700,-545,0,0,0,0,0,0,0,0,0,-1,524,1569,0,0
-693,-545,0,0,0,0,0,0,0,0,0,-1,531,1569,0,0
-686,-545,0,0,0,0,0,0,0,0,0,-1,538,1569,0,0
-679,-545,0,0,0,0,0,0,0,0,0,-1,545,1569,0,0
-672,-545,0,0,0,0,0,0,0,0,0,-1,552,1569,0,0
-665,-545,0,0,0,0,0,0,0,0,0,-1,559,1569,0,0
-658,-545,0,0,0,0,0,0,0,0,0,-1,566,1569,0,0
-651,-545,0,0,0,0,0,0,0,0,0,-1,573,1569,0,0
-644,-545,0,0,0,0,0,0,0,0,0,-1,580,1569,0,0
-637,-545,0,0,0,0,0,0,0,0,0,-1,587,1569,0,0
-630,-545,0,0,0,0,0,0,0,0,0,-1,594,1569,0,0
-623,-545,0,0,0,0,0,0,0,0,0,-1,601,1569,0,0
-616,-545,0,0,0,0,0,0,0,0,0,-1,608,1569,0,0
-609,-545,0,0,0,0,0,0,0,0,0,-1,615,1569,0,0
-602,-545,0,0,0,0,0,0,0,0,0,-1,622,1569,0,0
-595,-545,0,0,0,0,0,0,0,0,0,-1,629,1569,0,0
-588,-545,0,0,0,0,0,0,0,0,0,-1,636,1569,0,0
-581,-545,0,0,0,0,0,0,0,0,0,-1,643,1569,0,0
-574,-545,0,0,0,0,0,0,0,0,0,-1,650,1569,0,0
-567,-545,0,0,0,0,0,0,0,0,0,-1,657,1569,0,0
-560,-545,0,0,0,0,0,0,0,0,0,-1,664,1569,0,0
-553,-545,0,0,0,0,0,0,0,0,0,-1,671,1569,0,0
-546,-545,0,0,0,0,0,0,0,0,0,-1,678,1569,0,0
-539,-545,0,0,0,0,0,0,0,0,0,-1,685,1569,0,0
-532,-545,0,0,0,0,0,0,0,0,0,-1,692,1569,0,0
-525,-545,0,0,0,0,0,0,0,0,0,-1,699,1569,0,0
-518,-545,0,0,0,0,0,0,0,0,0,-1,706,1569,0,0
-511,-545,0,0,0,0,0,0,0,0,0,-1,713,1569,0,0
-504,-545,-3.55237,-2.5354,0,0,0,0,0,0,0,-1,720,1569,-3.55236,2.53545
-497,-545,2.26575,5.69214,0,0,0,0,0,0,0,-1,727,1569,2.26573,-5.6922
-490,-545,-2.17334,7.81396,0,0,0,0,0,0,0,-1,734,1569,-2.17334,-7.81399
-483,-545,-1.88336,5.8446,0,0,0,0,0,0,0,-1,741,1569,-1.88334,-5.84466
-476,-545,-1.13147,6.5741,0,0,0,0,0,0,0,-1,748,1569,-1.13149,-6.57405
-469,-545,-1.03412,15.8353,0,0,0,0,0,0,0,-1,755,1569,-1.03414,-15.8353
-462,-545,-4.09772,21.0458,0,0,0,0,0,0,0,-1,762,1569,-4.0977,-21.0458
-455,-545,-4.84271,25.6355,0,0,0,0,0,0,0,-1,769,1569,-4.84269,-25.6355
-448,-545,-3.92749,25.5662,0,0,0,0,0,0,0,-1,776,1569,-3.9275,-25.5661
-441,-545,-4.03131,26.6254,-0.00458239,-0.00359146,0.0012057,-0.0027834,-0.00539046,0.980348,0.00311274,0.0344096,783,1569,-4.03129,-26.6254
-434,-545,-4.37494,27.2047,-0.003949,-0.00269532,0.000483174,-0.00253071,-0.00411361,1.24245,0.00239591,0.0311143,790,1569,-4.37492,-27.2047
-427,-545,-4.34296,27.9003,-0.00312942,-0.00177722,0.000203607,-0.00174722,-0.00315941,1.42454,0.0018275,0.0224267,797,1569,-4.34297,-27.9003
-420,-545,-4.30072,28.5524,-0.00222582,-0.000988946,0.000163783,-0.000967626,-0.00224714,1.44135,0.00130154,0.0246208,804,1569,-4.30073,-28.5523
-413,-545,-4.33618,29.2485,-0.00158301,-0.000502293,-3.03824e-05,-0.000501439,-0.00158386,-1.54271,0.000934726,0.024337,811,1569,-4.33618,-29.2486
-406,-545,-4.38342,30.0021,-0.000688999,0.000203706,0.000183425,0.000239925,-0.000725218,1.37585,0.000580231,0.0189272,818,1569,-4.38345,-30.0021
-399,-545,-4.40417,30.7306,0.00022705,0.000902352,0.000482281,0.00115343,-2.40296e-05,1.0908,0.000777088,0.0126694,825,1569,-4.40419,-30.7306
-392,-545,-4.44928,31.428,0.000959919,0.00138243,0.000768837,0.0019685,0.000373841,0.919474,0.00120717,0.0125222,832,1569,-4.44927,-31.428
-385,-545,-4.50067,32.1445,0.00170703,0.00197035,0.000984155,0.00283161,0.000845768,0.851894,0.00167842,0.0105919,839,1569,-4.50069,-32.1446
-378,-545,-4.55072,32.86,0.00244039,0.00261938,0.00115616,0.0036895,0.00137027,0.824023,0.0021535,0.0121197,846,1569,-4.55074,-32.86
-371,-545,-4.58948,33.5901,0.00331101,0.00350798,0.0014842,0.00489696,0.00192203,0.818528,0.00284896,0.0161341,853,1569,-4.5895,-33.5901
-364,-545,-4.60431,34.2458,0.00441498,0.00470952,0.00196615,0.0065339,0.00259059,0.822779,0.0037992,0.0115976,860,1569,-4.60429,-34.2458
-357,-545,-4.54932,35.0693,0.00566555,0.00616495,0.00257195,0.00849929,0.00333121,0.833789,0.00494512,0.0227491,867,1569,-4.5493,-35.0693
-350,-545,-4.46588,35.8512,0.00712789,0.00803304,0.00340556,0.011016,0.00414497,0.851458,0.00642465,0.0409027,874,1569,-4.4659,-35.8512
-343,-545,-4.46759,36.7949,0,0,0,0,0,0,0,-1,881,1569,-4.4676,-36.7949
-336,-545,-4.2146,36.9165,0,0,0,0,0,0,0,-1,888,1569,-4.21457,-36.9165
-329,-545,-2.03595,27.8694,0,0,0,0,0,0,0,-1,895,1569,-2.03592,-27.8694
-322,-545,-2.42474,27.9695,0,0,0,0,0,0,0,-1,902,1569,-2.42474,-27.9695
-315,-545,-2.52954,30.1711,0,0,0,0,0,0,0,-1,909,1569,-2.52951,-30.1712
-308,-545,-1.54358,21.4457,0,0,0,0,0,0,0,-1,916,1569,-1.54357,-21.4457
-301,-545,1.52191,17.5009,0,0,0,0,0,0,0,-1,923,1569,1.52192,-17.5008
-294,-545,-2.69287,8.42102,0,0,0,0,0,0,0,-1,930,1569,-2.69287,-8.42097
-287,-545,-3.47784,9.96021,0,0,0,0,0,0,0,-1,937,1569,-3.47785,-9.96021
-280,-545,-3.7879,10.5448,0,0,0,0,0,0,0,-1,944,1569,-3.78793,-10.5448
-273,-545,-5.10333,12.864,0,0,0,0,0,0,0,-1,951,1569,-5.10331,-12.864
-266,-545,-5.78955,13.3704,0,0,0,0,0,0,0,-1,958,1569,-5.78952,-13.3703
-259,-545,-6.32184,13.8101,0,0,0,0,0,0,0,-1,965,1569,-6.32182,-13.81
-252,-545,0.369263,7.54053,0,0,0,0,0,0,0,-1,972,1569,0.369276,-7.54056
-245,-545,-0.236633,6.65564,0,0,0,0,0,0,0,-1,979,1569,-0.236605,-6.65566
-238,-545,0,0,0,0,0,0,0,0,0,-1,986,1569,0,0
-231,-545,0,0,0,0,0,0,0,0,0,-1,993,1569,0,0
-224,-545,0,0,0,0,0,0,0,0,0,-1,1000,1569,0,0
-217,-545,0,0,0,0,0,0,0,0,0,-1,1007,1569,0,0
-210,-545,0,0,0,0,0,0,0,0,0,-1,1014,1569,0,0
-203,-545,0,0,0,0,0,0,0,0,0,-1,1021,1569,0,0
-196,-545,0,0,0,0,0,0,0,0,0,-1,1028,1569,0,0
-189,-545,0,0,0,0,0,0,0,0,0,-1,1035,1569,0,0
-182,-545,0,0,0,0,0,0,0,0,0,-1,1042,1569,0,0
-175,-545,0,0,0,0,0,0,0,0,0,-1,1049,1569,0,0
-168,-545,0,0,0,0,0,0,0,0,0,-1,1056,1569,0,0
-161,-545,0,0,0,0,0,0,0,0,0,-1,1063,1569,0,0
-154,-545,0,0,0,0,0,0,0,0,0,-1,1070,1569,0,0
-147,-545,0,0,0,0,0,0,0,0,0,-1,1077,1569,0,0
-140,-545,0,0,0,0,0,0,0,0,0,-1,1084,1569,0,0
-133,-545,0,0,0,0,0,0,0,0,0,-1,1091,1569,0,0
-126,-545,0,0,0,0,0,0,0,0,0,-1,1098,1569,0,0
-119,-545,0,0,0,0,0,0,0,0,0,-1,1105,1569,0,0
-112,-545,0,0,0,0,0,0,0,0,0,-1,1112,1569,0,0
-105,-545,0,0,0,0,0,0,0,0,0,-1,1119,1569,0,0
-98,-545,0,0,0,0,0,0,0,0,0,-1,1126,1569,0,0
-91,-545,0,0,0,0,0,0,0,0,0,-1,1133,1569,0,0
-84,-545,0,0,0,0,0,0,0,0,0,-1,1140,1569,0,0
-77,-545,0,0,0,0,0,0,0,0,0,-1,1147,1569,0,0
-70,-545,0,0,0,0,0,0,0,0,0,-1,1154,1569,0,0
-63,-545,0,0,0,0,0,0,0,0,0,-1,1161,1569,0,0
-56,-545,0,0,0,0,0,0,0,0,0,-1,1168,1569,0,0
-49,-545,0,0,0,0,0,0,0,0,0,-1,1175,1569,0,0
-42,-545,0,0,0,0,0,0,0,0,0,-1,1182,1569,0,0
-35,-545,0,0,0,0,0,0,0,0,0,-1,1189,1569,0,0
-28,-545,0,0,0,0,0,0,0,0,0,-1,1196,1569,0,0
-21,-545,0,0,0,0,0,0,0,0,0,-1,1203,1569,0,0
-14,-545,0,0,0,0,0,0,0,0,0,-1,1210,1569,0,0
-7,-545,0,0,0,0,0,0,0,0,0,-1,1217,1569,0,0
0,-545,0,0,0,0,0,0,0,0,0,-1,1224,1569,0,0
7,-545,0,0,0,0,0,0,0,0,0,-1,1231,1569,0,0
14,-545,0,0,0,0,0,0,0,0,0,-1,1238,1569,0,0
21,-545,0,0,0,0,0,0,0,0,0,-1,1245,1569,0,0
28,-545,0,0,0,0,0,0,0,0,0,-1,1252,1569,0,0
35,-545,0,0,0,0,0,0,0,0,0,-1,1259,1569,0,0
42,-545,0,0,0,0,0,0,0,0,0,-1,1266,1569,0,0
49,-545,0,0,0,0,0,0,0,0,0,-1,1273,1569,0,0
56,-545,0,0,0,0,0,0,0,0,0,-1,1280,1569,0,0
63,-545,0,0,0,0,0,0,0,0,0,-1,1287,1569,0,0
70,-545,0,0,0,0,0,0,0,0,0,-1,1294,1569,0,0
77,-545,0,0,0,0,0,0,0,0,0,-1,1301,1569,0,0
84,-545,0,0,0,0,0,0,0,0,0,-1,1308,1569,0,0
91,-545,0,0,0,0,0,0,0,0,0,-1,1315,1569,0,0
98,-545,0,0,0,0,0,0,0,0,0,-1,1322,1569,0,0
105,-545,0,0,0,0,0,0,0,0,0,-1,1329,1569,0,0
112,-545,0,0,0,0,0,0,0,0,0,-1,1336,1569,0,0
119,-545,0,0,0,0,0,0,0,0,0,-1,1343,1569,0,0
126,-545,0,0,0,0,0,0,0,0,0,-1,1350,1569,0,0
133,-545,0,0,0,0,0,0,0,0,0,-1,1357,1569,0,0
140,-545,0,0,0,0,0,0,0,0,0,-1,1364,1569,0,0
147,-545,0,0,0,0,0,0,0,0,0,-1,1371,1569,0,0
154,-545,0,0,0,0,0,0,0,0,0,-1,1378,1569,0,0
161,-545,0,0,0,0,0,0,0,0,0,-1,1385,1569,0,0
168,-545,0,0,0,0,0,0,0,0,0,-1,1392,1569,0,0
175,-545,0,0,0,0,0,0,0,0,0,-1,1399,1569,0,0
182,-545,0,0,0,0,0,0,0,0,0,-1,1406,1569,0,0
189,-545,0,0,0,0,0,0,0,0,0,-1,1413,1569,0,0
196,-545,0,0,0,0,0,0,0,0,0,-1,1420,1569,0,0
203,-545,0,0,0,0,0,0,0,0,0,-1,1427,1569,0,0
210,-545,0,0,0,0,0,0,0,0,0,-1,1434,1569,0,0
217,-545,0,0,0,0,0,0,0,0,0,-1,1441,1569,0,0
224,-545,0,0,0,0,0,0,0,0,0,-1,1448,1569,0,0
231,-545,0,0,0,0,0,0,0,0,0,-1,1455,1569,0,0
238,-545,0,0,0,0,0,0,0,0,0,-1,1462,1569,0,0
245,-545,0,0,0,0,0,0,0,0,0,-1,1469,1569,0,0
252,-545,0,0,0,0,0,0,0,0,0,-1,1476,1569,0,0
259,-545,0,0,0,0,0,0,0,0,0,-1,1483,1569,0,0
266,-545,0,0,0,0,0,0,0,0,0,-1,1490,1569,0,0
273,-545,0,0,0,0,0,0,0,0,0,-1,1497,1569,0,0
280,-545,0,0,0,0,0,0,0,0,0,-1,1504,1569,0,0
287,-545,0,0,0,0,0,0,0,0,0,-1,1511,1569,0,0
294,-545,0,0,0,0,0,0,0,0,0,-1,1518,1569,0,0
301,-545,0,0,0,0,0,0,0,0,0,-1,1525,1569,0,0
308,-545,0,0,0,0,0,0,0,0,0,-1,1532,1569,0,0
315,-545,0,0,0,0,0,0,0,0,0,-1,1539,1569,0,0
322,-545,0,0,0,0,0,0,0,0,0,-1,1546,1569,0,0
329,-545,0,0,0,0,0,0,0,0,0,-1,1553,1569,0,0
336,-545,0,0,0,0,0,0,0,0,0,-1,1560,1569,0,0
343,-545,0,0,0,0,0,0,0,0,0,-1,1567,1569,0,0
350,-545,0,0,0,0,0,0,0,0,0,-1,1574,1569,0,0
357,-545,0,0,0,0,0,0,0,0,0,-1,1581,1569,0,0
364,-545,7.19495,4.88098,0,0,0,0,0,0,0,-1,1588,1569,7.19497,-4.88095
371,-545,7.82324,3.84302,0,0,0,0,0,0,0,-1,1595,1569,7.82324,-3.84307
378,-545,7.65674,5.52673,0,0,0,0,0,0,0,-1,1602,1569,7.6567,-5.52667
385,-545,8.58447,1.16125,0,0,0,0,0,0,0,-1,1609,1569,8.5845,-1.1612
392,-545,12.5654,3.89526,0,0,0,0,0,0,0,-1,1616,1569,12.5655,-3.89532
399,-545,11.5869,5.6333,0,0,0,0,0,0,0,-1,1623,1569,11.5869,-5.63326
406,-545,11.234,6.36414,0,0,0,0,0,0,0,-1,1630,1569,11.234,-6.3641
413,-545,12.1521,13.4817,0,0,0,0,0,0,0,-1,1637,1569,12.1521,-13.4817
420,-545,11.1954,13.6047,0,0,0,0,0,0,0,-1,1644,1569,11.1954,-13.6047
427,-545,9.61072,14.9135,0,0,0,0,0,0,0,-1,1651,1569,9.61076,-14.9134
434,-545,13.1598,23.9921,0,0,0,0,0,0,0,-1,1658,1569,13.1598,-23.992
441,-545,12.2833,22.2238,0,0,0,0,0,0,0,-1,1665,1569,12.2833,-22.2237
448,-545,13.0082,21.941,0,0,0,0,0,0,0,-1,1672,1569,13.0082,-21.941
455,-545,13.733,21.6583,0,0,0,0,0,0,0,-1,1679,1569,13.733,-21.6583
462,-545,12.449,20.7413,0,0,0,0,0,0,0,-1,1686,1569,12.4489,-20.7413
469,-545,12.7837,17.7919,0,0,0,0,0,0,0,-1,1693,1569,12.7837,-17.7919
476,-545,15.7562,24.8708,0,0,0,0,0,0,0,-1,1700,1569,15.7563,-24.8709
483,-545,22.3053,35.8673,0,0,0,0,0,0,0,-1,1707,1569,22.3053,-35.8673
490,-545,22.3418,35.1101,0.00792776,0.0112338,-0.00760311,0.0173615,0.00180004,-0.892438,0.0110234,0.0294294,1714,1569,22.3417,-35.1101
497,-545,22.3516,34.424,0.00640337,0.0082541,-0.00560622,0.0130108,0.00164666,-0.867191,0.00818042,0.0236512,1721,1569,22.3515,-34.424
504,-545,22.4064,33.7214,0.00505868,0.00592595,-0.00413187,0.00964687,0.00133775,-0.837681,0.00603496,0.0165286,1728,1569,22.4064,-33.7214
511,-545,22.3672,33.0406,0.00402055,0.00441027,-0.00310983,0.00733134,0.00109949,-0.816687,0.00456541,0.0118572,1735,1569,22.3672,-33.0406
518,-545,22.3356,32.3643,0.00305487,0.00287838,-0.00209972,0.00506819,0.000865055,-0.764397,0.00313054,0.0135018,1742,1569,22.3356,-32.3642
525,-545,22.276,31.6967,0.00223385,0.00181592,-0.0013446,0.00338562,0.000664151,-0.70831,0.0020715,0.014312,1749,1569,22.276,-31.6967
532,-545,22.231,31.0442,0.00152819,0.000751047,-0.000632292,0.00188176,0.000397473,-0.509876,0.00114525,0.0150039,1756,1569,22.2309,-31.0442
539,-545,22.199,30.3722,0.000988897,-0.00018356,2.77532e-05,0.000989554,-0.000184217,0.0236533,0.000728909,0.0177805,1763,1569,22.199,-30.3722
546,-545,22.1631,29.6681,0.000568096,-0.00128828,0.000743626,0.00082924,-0.00154943,0.337723,0.00139415,0.0187538,1770,1569,22.1631,-29.6681
553,-545,22.161,28.9508,0.000234507,-0.00235702,0.00146754,0.000896469,-0.00301898,0.423741,0.00236872,0.0267036,1777,1569,22.1611,-28.9508
560,-545,22.1664,28.2833,0.000107734,-0.00337868,0.00215152,0.00113361,-0.00440455,0.444926,0.00337824,0.0307014,1784,1569,22.1663,-28.2834
567,-545,22.1567,27.583,0,0,0,0,0,0,0,-1,1791,1569,22.1567,-27.583
574,-545,22.1003,26.7483,0,0,0,0,0,0,0,-1,1798,1569,22.1003,-26.7483
581,-545,22.0441,26.1688,0,0,0,0,0,0,0,-1,1805,1569,22.0441,-26.1688
588,-545,15.4786,16.7035,0,0,0,0,0,0,0,-1,1812,1569,15.4786,-16.7035
595,-545,10.2859,9.11218,0,0,0,0,0,0,0,-1,1819,1569,10.2858,-9.11215
602,-545,8.82117,6.32214,0,0,0,0,0,0,0,-1,1826,1569,8.82121,-6.32217
609,-545,10.2406,5.22351,0,0,0,0,0,0,0,-1,1833,1569,10.2406,-5.22353
616,-545,11.701,3.93188,0,0,0,0,0,0,0,-1,1840,1569,11.701,-3.93191
623,-545,13.2139,2.32043,0,0,0,0,0,0,0,-1,1847,1569,13.2139,-2.32042
630,-545,0,0,0,0,0,0,0,0,0,-1,1854,1569,0,0
637,-545,0,0,0,0,0,0,0,0,0,-1,1861,1569,0,0
644,-545,0,0,0,0,0,0,0,0,0,-1,1868,1569,0,0
651,-545,0,0,0,0,0,0,0,0,0,-1,1875,1569,0,0
658,-545,0,0,0,0,0,0,0,0,0,-1,1882,1569,0,0
665,-545,0,0,0,0,0,0,0,0,0,-1,1889,1569,0,0
672,-545,0,0,0,0,0,0,0,0,0,-1,1896,1569,0,0
679,-545,0,0,0,0,0,0,0,0,0,-1,1903,1569,0,0
686,-545,0,0,0,0,0,0,0,0,0,-1,1910,1569,0,0
693,-545,0,0,0,0,0,0,0,0,0,-1,1917,1569,0,0
700,-545,0,0,0,0,0,0,0,0,0,-1,1924,1569,0,0
707,-545,0,0,0,0,0,0,0,0,0,-1,1931,1569,0,0
714,-545,0,0,0,0,0,0,0,0,0,-1,1938,1569,0,0
721,-545,0,0,0,0,0,0,0,0,0,-1,1945,1569,0,0
728,-545,0,0,0,0,0,0,0,0,0,-1,1952,1569,0,0
735,-545,0,0,0,0,0,0,0,0,0,-1,1959,1569,0,0
742,-545,0,0,0,0,0,0,0,0,0,-1,1966,1569,0,0
749,-545,0,0,0,0,0,0,0,0,0,-1,1973,1569,0,0
756,-545,0,0,0,0,0,0,0,0,0,-1,1980,1569,0,0
763,-545,0,0,0,0,0,0,0,0,0,-1,1987,1569,0,0
770,-545,0,0,0,0,0,0,0,0,0,-1,1994,1569,0,0
777,-545,0,0,0,0,0,0,0,0,0,-1,2001,1569,0,0
784,-545,0,0,0,0,0,0,0,0,0,-1,2008,1569,0,0
791,-545,0,0,0,0,0,0,0,0,0,-1,2015,1569,0,0
798,-545,0,0,0,0,0,0,0,0,0,-1,2022,1569,0,0
805,-545,0,0,0,0,0,0,0,0,0,-1,2029,1569,0,0
812,-545,0,0,0,0,0,0,0,0,0,-1,2036,1569,0,0
-700,-552,0,0,0,0,0,0,0,0,0,-1,524,1576,0,0
-693,-552,0,0,0,0,0,0,0,0,0,-1,531,1576,0,0
-686,-552,0,0,0,0,0,0,0,0,0,-1,538,1576,0,0
-679,-552,0,0,0,0,0,0,0,0,0,-1,545,1576,0,0
-672,-552,0,0,0,0,0,0,0,0,0,-1,552,1576,0,0
-665,-552,0,0,0,0,0,0,0,0,0,-1,559,1576,0,0
-658,-552,0,0,0,0,0,0,0,0,0,-1,566,1576,0,0
-651,-552,0,0,0,0,0,0,0,0,0,-1,573,1576,0,0
-644,-552,0,0,0,0,0,0,0,0,0,-1,580,1576,0,0
-637,-552,0,0,0,0,0,0,0,0,0,-1,587,1576,0,0
-630,-552,0,0,0,0,0,0,0,0,0,-1,594,1576,0,0
-623,-552,0,0,0,0,0,0,0,0,0,-1,601,1576,0,0
-616,-552,0,0,0,0,0,0,0,0,0,-1,608,1576,0,0
-609,-552,0,0,0,0,0,0,0,0,0,-1,615,1576,0,0
-602,-552,0,0,0,0,0,0,0,0,0,-1,622,1576,0,0
-595,-552,0,0,0,0,0,0,0,0,0,-1,629,1576,0,0
-588,-552,0,0,0,0,0,0,0,0,0,-1,636,1576,0,0
-581,-552,0,0,0,0,0,0,0,0,0,-1,643,1576,0,0
-574,-552,0,0,0,0,0,0,0,0,0,-1,650,1576,0,0
-567,-552,0,0,0,0,0,0,0,0,0,-1,657,1576,0,0
-560,-552,0,0,0,0,0,0,0,0,0,-1,664,1576,0,0
-553,-552,0,0,0,0,0,0,0,0,0,-1,671,1576,0,0
-546,-552,0,0,0,0,0,0,0,0,0,-1,678,1576,0,0
-539,-552,0,0,0,0,0,0,0,0,0,-1,685,1576,0,0
-532,-552,0,0,0,0,0,0,0,0,0,-1,692,1576,0,0
-525,-552,0,0,0,0,0,0,0,0,0,-1,699,1576,0,0
-518,-552,0,0,0,0,0,0,0,0,0,-1,706,1576,0,0
-511,-552,0,0,0,0,0,0,0,0,0,-1,713,1576,0,0
-504,-552,0,0,0,0,0,0,0,0,0,-1,720,1576,0,0
-497,-552,1.51282,3.96924,0,0,0,0,0,0,0,-1,727,1576,1.5128,-3.96924
-490,-552,-3.82312,6.32104,0,0,0,0,0,0,0,-1,734,1576,-3.82314,-6.3211
-483,-552,-3.50586,6.47986,0,0,0,0,0,0,0,-1,741,1576,-3.50587,-6.47983
-476,-552,-1.95129,4.43054,0,0,0,0,0,0,0,-1,748,1576,-1.95128,-4.43054
-469,-552,-1.40491,7.9895,0,0,0,0,0,0,0,-1,755,1576,-1.40491,-7.98947
-462,-552,0.0459595,16.3469,0,0,0,0,0,0,0,-1,762,1576,0.0459611,-16.3469
-455,-552,-3.21484,22.3766,0,0,0,0,0,0,0,-1,769,1576,-3.21487,-22.3766
-448,-552,-3.13776,25.2072,0,0,0,0,0,0,0,-1,776,1576,-3.13773,-25.2072
-441,-552,-3.22278,26.4778,-0.00595604,-0.00278114,0.00109763,-0.00243862,-0.00629857,1.26832,0.00366721,0.048341,783,1576,-3.22275,-26.4778
-434,-552,-3.34436,27.3783,-0.00509928,-0.00230331,0.0003325,-0.00226431,-0.00513828,1.45404,0.00297354,0.0433334,790,1576,-3.34436,-27.3783
-427,-552,-3.66602,27.8109,-0.00405008,-0.00165167,4.7128e-05,-0.00165074,-0.00405101,1.55116,0.00235216,0.0383559,797,1576,-3.66603,-27.8109
-420,-552,-3.63348,28.6345,-0.00298912,-0.00101046,1.79101e-05,-0.0010103,-0.00298928,1.56175,0.00175581,0.0247609,804,1576,-3.63346,-28.6345
-413,-552,-3.633,29.3141,-0.00232339,-0.000693981,-0.000221897,-0.000664304,-0.00235307,-1.43784,0.0014008,0.0189638,811,1576,-3.63298,-29.3141
-406,-552,-3.68927,30.0466,-0.00139279,-0.000143612,-2.09031e-05,-0.000143262,-0.00139314,-1.55407,0.000884878,0.0150783,818,1576,-3.68927,-30.0466
-399,-552,-3.71313,30.7581,-0.000453753,0.000408682,0.000236704,0.000469376,-0.000514448,1.31979,0.00056821,0.0143849,825,1576,-3.71311,-30.758
-392,-552,-3.7597,31.4584,0.000288655,0.00076943,0.000512927,0.00109551,-3.74205e-05,1.00453,0.000743125,0.0156438,832,1576,-3.75973,-31.4583
-385,-552,-3.79944,32.1825,0.00106989,0.00120584,0.000724376,0.00186542,0.000410307,0.832182,0.00113191,0.0146406,839,1576,-3.79943,-32.1825
-378,-552,-3.85834,32.8612,0.00178652,0.00177948,0.000912591,0.00269559,0.000870399,0.783469,0.00158851,0.0162002,846,1576,-3.85836,-32.8612
-371,-552,-3.88556,33.5909,0.0025618,0.00247257,0.0011698,0.00368784,0.00134653,0.766337,0.00215484,0.0201278,853,1576,-3.88559,-33.5909
-364,-552,-3.89514,34.2869,0.00352031,0.00349835,0.0015673,0.00507667,0.00194199,0.781896,0.00295785,0.0153359,860,1576,-3.89515,-34.2869
-357,-552,-3.8996,34.9498,0.00459009,0.00468847,0.0020704,0.00671027,0.0025683,0.797275,0.00390952,0.0109475,867,1576,-3.89959,-34.9498
-350,-552,-3.90112,35.6902,0.00582952,0.00611693,0.00272388,0.00870088,0.00324556,0.811752,0.00507717,0.0159306,874,1576,-3.90112,-35.6901
-343,-552,-3.90991,36.3613,0.00721084,0.00764327,0.00354312,0.0109768,0.00387735,0.815872,0.0064278,0.0262333,881,1576,-3.90989,-36.3614
-336,-552,-3.86285,36.8638,0,0,0,0,0,0,0,-1,888,1576,-3.86283,-36.8638
-329,-552,-3.68982,37.6417,0,0,0,0,0,0,0,-1,895,1576,-3.68984,-37.6417
-322,-552,-1.23962,28.5371,0,0,0,0,0,0,0,-1,902,1576,-1.23964,-28.5371
-315,-552,-0.605347,28.994,0,0,0,0,0,0,0,-1,909,1576,-0.605331,-28.9941
-308,-552,-1.01624,30.3169,0,0,0,0,0,0,0,-1,916,1576,-1.01624,-30.3169
-301,-552,1.39453,18.4995,0,0,0,0,0,0,0,-1,923,1576,1.3945,-18.4995
-294,-552,0.842163,13.7863,0,0,0,0,0,0,0,-1,930,1576,0.842149,-13.7863
-287,-552,-0.663757,13.3474,0,0,0,0,0,0,0,-1,937,1576,-0.663744,-13.3474
-280,-552,-5.47241,8.96765,0,0,0,0,0,0,0,-1,944,1576,-5.47239,-8.96766
-273,-552,1.64587,10.6685,0,0,0,0,0,0,0,-1,951,1576,1.6459,-10.6685
-266,-552,-1.32678,8.05688,0,0,0,0,0,0,0,-1,958,1576,-1.32677,-8.05683
-259,-552,-5.54321,8.31213,0,0,0,0,0,0,0,-1,965,1576,-5.54324,-8.31214
-252,-552,-1.93445,7.81543,0,0,0,0,0,0,0,-1,972,1576,-1.93445,-7.81546
-245,-552,-2.53613,6.92212,0,0,0,0,0,0,0,-1,979,1576,-2.53614,-6.92216
-238,-552,-6.5365,2.81885,0,0,0,0,0,0,0,-1,986,1576,-6.53649,-2.8188
-231,-552,-4.32239,4.34583,0,0,0,0,0,0,0,-1,993,1576,-4.32239,-4.34587
-224,-552,0,0,0,0,0,0,0,0,0,-1,1000,1576,0,0
-217,-552,0,0,0,0,0,0,0,0,0,-1,1007,1576,0,0
-210,-552,0,0,0,0,0,0,0,0,0,-1,1014,1576,0,0
-203,-552,0,0,0,0,0,0,0,0,0,-1,1021,1576,0,0
-196,-552,0,0,0,0,0,0,0,0,0,-1,1028,1576,0,0
-189,-552,0,0,0,0,0,0,0,0,0,-1,1035,1576,0,0
-182,-552,0,0,0,0,0,0,0,0,0,-1,1042,1576,0,0
-175,-552,0,0,0,0,0,0,0,0,0,-1,1049,1576,0,0
-168,-552,0,0,0,0,0,0,0,0,0,-1,1056,1576,0,0
-161,-552,0,0,0,0,0,0,0,0,0,-1,1063,1576,0,0
-154,-552,0,0,0,0,0,0,0,0,0,-1,1070,1576,0,0
-147,-552,0,0,0,0,0,0,0,0,0,-1,1077,1576,0,0
-140,-552,0,0,0,0,0,0,0,0,0,-1,1084,1576,0,0
-133,-552,0,0,0,0,0,0,0,0,0,-1,1091,1576,0,0
-126,-552,0,0,0,0,0,0,0,0,0,-1,1098,1576,0,0
-119,-552,0,0,0,0,0,0,0,0,0,-1,1105,1576,0,0
-112,-552,0,0,0,0,0,0,0,0,0,-1,1112,1576,0,0
-105,-552,0,0,0,0,0,0,0,0,0,-1,1119,1576,0,0
-98,-552,0,0,0,0,0,0,0,0,0,-1,1126,1576,0,0
-91,-552,0,0,0,0,0,0,0,0,0,-1,1133,1576,0,0
-84,-552,0,0,0,0,0,0,0,0,0,-1,1140,1576,0,0
-77,-552,0,0,0,0,0,0,0,0,0,-1,1147,1576,0,0
-70,-552,0,0,0,0,0,0,0,0,0,-1,1154,1576,0,0
-63,-552,0,0,0,0,0,0,0,0,0,-1,1161,1576,0,0
-56,-552,0,0,0,0,0,0,0,0,0,-1,1168,1576,0,0
-49,-552,0,0,0,0,0,0,0,0,0,-1,1175,1576,0,0
-42,-552,0,0,0,0,0,0,0,0,0,-1,1182,1576,0,0
-35,-552,0,0,0,0,0,0,0,0,0,-1,1189,1576,0,0
-28,-552,0,0,0,0,0,0,0,0,0,-1,1196,1576,0,0
-21,-552,0,0,0,0,0,0,0,0,0,-1,1203,1576,0,0
-14,-552,0,0,0,0,0,0,0,0,0,-1,1210,1576,0,0
-7,-552,0,0,0,0,0,0,0,0,0,-1,1217,1576,0,0
0,-552,0,0,0,0,0,0,0,0,0,-1,1224,1576,0,0
7,-552,0,0,0,0,0,0,0,0,0,-1,1231,1576,0,0
14,-552,0,0,0,0,0,0,0,0,0,-1,1238,1576,0,0
21,-552,0,0,0,0,0,0,0,0,0,-1,1245,1576,0,0
28,-552,0,0,0,0,0,0,0,0,0,-1,1252,1576,0,0
35,-552,0,0,0,0,0,0,0,0,0,-1,1259,1576,0,0
42,-552,0,0,0,0,0,0,0,0,0,-1,1266,1576,0,0
49,-552,0,0,0,0,0,0,0,0,0,-1,1273,1576,0,0
56,-552,0,0,0,0,0,0,0,0,0,-1,1280,1576,0,0
63,-552,0,0,0,0,0,0,0,0,0,-1,1287,1576,0,0
70,-552,0,0,0,0,0,0,0,0,0,-1,1294,1576,0,0
77,-552,0,0,0,0,0,0,0,0,0,-1,1301,1576,0,0
84,-552,0,0,0,0,0,0,0,0,0,-1,1308,1576,0,0
91,-552,0,0,0,0,0,0,0,0,0,-1,1315,1576,0,0
98,-552,0,0,0,0,0,0,0,0,0,-1,1322,1576,0,0
105,-552,0,0,0,0,0,0,0,0,0,-1,1329,1576,0,0
112,-552,0,0,0,0,0,0,0,0,0,-1,1336,1576,0,0
119,-552,0,0,0,0,0,0,0,0,0,-1,1343,1576,0,0
126,-552,0,0,0,0,0,0,0,0,0,-1,1350,1576,0,0
133,-552,0,0,0,0,0,0,0,0,0,-1,1357,1576,0,0
140,-552,0,0,0,0,0,0,0,0,0,-1,1364,1576,0,0
147,-552,0,0,0,0,0,0,0,0,0,-1,1371,1576,0,0
154,-552,0,0,0,0,0,0,0,0,0,-1,1378,1576,0,0
161,-552,0,0,0,0,0,0,0,0,0,-1,1385,1576,0,0
168,-552,0,0,0,0,0,0,0,0,0,-1,1392,1576,0,0
175,-552,0,0,0,0,0,0,0,0,0,-1,1399,1576,0,0
182,-552,0,0,0,0,0,0,0,0,0,-1,1406,1576,0,0
189,-552,0,0,0,0,0,0,0,0,0,-1,1413,1576,0,0
196,-552,0,0,0,0,0,0,0,0,0,-1,1420,1576,0,0
203,-552,0,0,0,0,0,0,0,0,0,-1,1427,1576,0,0
210,-552,0,0,0,0,0,0,0,0,0,-1,1434,1576,0,0
217,-552,0,0,0,0,0,0,0,0,0,-1,1441,1576,0,0
224,-552,0,0,0,0,0,0,0,0,0,-1,1448,1576,0,0
231,-552,0,0,0,0,0,0,0,0,0,-1,1455,1576,0,0
238,-552,0,0,0,0,0,0,0,0,0,-1,1462,1576,0,0
245,-552,0,0,0,0,0,0,0,0,0,-1,1469,1576,0,0
252,-552,0,0,0,0,0,0,0,0,0,-1,1476,1576,0,0
259,-552,0,0,0,0,0,0,0,0,0,-1,1483,1576,0,0
266,-552,0,0,0,0,0,0,0,0,0,-1,1490,1576,0,0
273,-552,0,0,0,0,0,0,0,0,0,-1,1497,1576,0,0
280,-552,0,0,0,0,0,0,0,0,0,-1,1504,1576,0,0
287,-552,0,0,0,0,0,0,0,0,0,-1,1511,1576,0,0
294,-552,0,0,0,0,0,0,0,0,0,-1,1518,1576,0,0
301,-552,0,0,0,0,0,0,0,0,0,-1,1525,1576,0,0
308,-552,0,0,0,0,0,0,0,0,0,-1,1532,1576,0,0
315,-552,0,0,0,0,0,0,0,0,0,-1,1539,1576,0,0
322,-552,0,0,0,0,0,0,0,0,0,-1,1546,1576,0,0
329,-552,0,0,0,0,0,0,0,0,0,-1,1553,1576,0,0
336,-552,0,0,0,0,0,0,0,0,0,-1,1560,1576,0,0
343,-552,0,0,0,0,0,0,0,0,0,-1,1567,1576,0,0
350,-552,4.97876,4.09888,0,0,0,0,0,0,0,-1,1574,1576,4.97875,-4.09883
357,-552,5.18469,4.10706,0,0,0,0,0,0,0,-1,1581,1576,5.1847,-4.10702
364,-552,5.80872,5.07031,0,0,0,0,0,0,0,-1,1588,1576,5.80874,-5.07037
371,-552,7.10657,5.64783,0,0,0,0,0,0,0,-1,1595,1576,7.10651,-5.64786
378,-552,6.44446,4.91492,0,0,0,0,0,0,0,-1,1602,1576,6.44448,-4.91496
385,-552,12.8276,3.16504,0,0,0,0,0,0,0,-1,1609,1576,12.8276,-3.16503
392,-552,12.1301,4.3363,0,0,0,0,0,0,0,-1,1616,1576,12.1302,-4.33631
399,-552,11.3486,5.6012,0,0,0,0,0,0,0,-1,1623,1576,11.3486,-5.60115
406,-552,10.7863,6.42542,0,0,0,0,0,0,0,-1,1630,1576,10.7863,-6.42536
413,-552,8.39307,10.365,0,0,0,0,0,0,0,-1,1637,1576,8.3931,-10.365
420,-552,10.2306,12.7225,0,0,0,0,0,0,0,-1,1644,1576,10.2305,-12.7226
427,-552,9.73267,14.783,0,0,0,0,0,0,0,-1,1651,1576,9.73269,-14.783
434,-552,12.0377,20.1364,0,0,0,0,0,0,0,-1,1658,1576,12.0377,-20.1364
441,-552,12.4963,21.5277,0,0,0,0,0,0,0,-1,1665,1576,12.4964,-21.5277
448,-552,12.9141,21.5482,0,0,0,0,0,0,0,-1,1672,1576,12.9141,-21.5482
455,-552,13.3318,21.5687,0,0,0,0,0,0,0,-1,1679,1576,13.3317,-21.5687
462,-552,12.745,20.5947,0,0,0,0,0,0,0,-1,1686,1576,12.745,-20.5947
469,-552,17.7067,29.6902,0,0,0,0,0,0,0,-1,1693,1576,17.7067,-29.6902
476,-552,21.564,36.667,0,0,0,0,0,0,0,-1,1700,1576,21.564,-36.667
483,-552,21.8169,35.7384,0,0,0,0,0,0,0,-1,1707,1576,21.8169,-35.7384
490,-552,21.746,35.0439,0.00634431,0.00930197,-0.00604064,0.0140422,0.00160411,-0.905444,0.00887519,0.0156711,1714,1576,21.746,-35.044
497,-552,21.7848,34.3805,0.00503646,0.00670447,-0.00440362,0.0103524,0.00138856,-0.878985,0.00648844,0.022857,1721,1576,21.7848,-34.3805
504,-552,21.7224,33.7378,0.00384921,0.00456479,-0.00315798,0.00738518,0.00102882,-0.841807,0.00461887,0.024326,1728,1576,21.7224,-33.7378
511,-552,21.6823,33.0548,0.00288401,0.00311209,-0.00220196,0.00520296,0.000793133,-0.81127,0.00323682,0.0175461,1735,1576,21.6822,-33.0548
518,-552,21.6759,32.3743,0.00200326,0.00166828,-0.00129912,0.00314565,0.000525894,-0.721288,0.00194564,0.0151376,1742,1576,21.6759,-32.3743
525,-552,21.6117,31.7106,0.00126621,0.000639876,-0.000598536,0.00162856,0.000277529,-0.544373,0.00100604,0.0148057,1749,1576,21.6118,-31.7106
532,-552,21.5762,31.0459,0.000655244,-0.000416692,9.01013e-05,0.000662764,-0.000424212,0.0832762,0.000632584,0.0154327,1756,1576,21.5762,-31.0458
539,-552,21.5586,30.363,0.000176747,-0.00136943,0.000767235,0.000492839,-0.00168552,0.390799,0.00131902,0.018961,1763,1576,21.5586,-30.3631
546,-552,21.5044,29.6793,-0.000199389,-0.0025231,0.00154689,0.000573377,-0.00329587,0.463298,0.0024112,0.0231765,1770,1576,21.5043,-29.6794
553,-552,21.5022,28.9301,-0.000514023,-0.00369841,0.00238544,0.000761776,-0.00497421,0.491121,0.00359706,0.0270762,1777,1576,21.5022,-28.9301
560,-552,21.5944,28.1229,0,0,0,0,0,0,0,-1,1784,1576,21.5944,-28.1229
567,-552,20.6783,26.0908,0,0,0,0,0,0,0,-1,1791,1576,20.6784,-26.0908
574,-552,12.8835,14.8463,0,0,0,0,0,0,0,-1,1798,1576,12.8836,-14.8463
581,-552,9.74841,9.98645,0,0,0,0,0,0,0,-1,1805,1576,9.74847,-9.9864
588,-552,10.5619,9.34924,0,0,0,0,0,0,0,-1,1812,1576,10.5619,-9.34921
595,-552,5.36194,6.62744,0,0,0,0,0,0,0,-1,1819,1576,5.36193,-6.62742
602,-552,10.6863,4.31616,0,0,0,0,0,0,0,-1,1826,1576,10.6862,-4.31619
609,-552,12.146,3.18286,0,0,0,0,0,0,0,-1,1833,1576,12.1459,-3.18281
616,-552,13.8762,2.08167,0,0,0,0,0,0,0,-1,1840,1576,13.8763,-2.08167
623,-552,0,0,0,0,0,0,0,0,0,-1,1847,1576,0,0
630,-552,0,0,0,0,0,0,0,0,0,-1,1854,1576,0,0
637,-552,0,0,0,0,0,0,0,0,0,-1,1861,1576,0,0
644,-552,0,0,0,0,0,0,0,0,0,-1,1868,1576,0,0
651,-552,0,0,0,0,0,0,0,0,0,-1,1875,1576,0,0
658,-552,0,0,0,0,0,0,0,0,0,-1,1882,1576,0,0
665,-552,0,0,0,0,0,0,0,0,0,-1,1889,1576,0,0
672,-552,0,0,0,0,0,0,0,0,0,-1,1896,1576,0,0
679,-552,0,0,0,0,0,0,0,0,0,-1,1903,1576,0,0
686,-552,0,0,0,0,0,0,0,0,0,-1,1910,1576,0,0
693,-552,0,0,0,0,0,0,0,0,0,-1,1917,1576,0,0
700,-552,0,0,0,0,0,0,0,0,0,-1,1924,1576,0,0
707,-552,0,0,0,0,0,0,0,0,0,-1,1931,1576,0,0
714,-552,0,0,0,0,0,0,0,0,0,-1,1938,1576,0,0
721,-552,0,0,0,0,0,0,0,0,0,-1,1945,1576,0,0
728,-552,0,0,0,0,0,0,0,0,0,-1,1952,1576,0,0
735,-552,0,0,0,0,0,0,0,0,0,-1,1959,1576,0,0
742,-552,0,0,0,0,0,0,0,0,0,-1,1966,1576,0,0
749,-552,0,0,0,0,0,0,0,0,0,-1,1973,1576,0,0
756,-552,0,0,0,0,0,0,0,0,0,-1,1980,1576,0,0
763,-552,0,0,0,0,0,0,0,0,0,-1,1987,1576,0,0
770,-552,0,0,0,0,0,0,0,0,0,-1,1994,1576,0,0
777,-552,0,0,0,0,0,0,0,0,0,-1,2001,1576,0,0
784,-552,0,0,0,0,0,0,0,0,0,-1,2008,1576,0,0
791,-552,0,0,0,0,0,0,0,0,0,-1,2015,1576,0,0
798,-552,0,0,0,0,0,0,0,0,0,-1,2022,1576,0,0
805,-552,0,0,0,0,0,0,0,0,0,-1,2029,1576,0,0
812,-552,0,0,0,0,0,0,0,0,0,-1,2036,1576,0,0
-700,-559,0,0,0,0,0,0,0,0,0,-1,524,1583,0,0
-693,-559,0,0,0,0,0,0,0,0,0,-1,531,1583,0,0
-686,-559,0,0,0,0,0,0,0,0,0,-1,538,1583,0,0
-679,-559,0,0,0,0,0,0,0,0,0,-1,545,1583,0,0
-672,-559,0,0,0,0,0,0,0,0,0,-1,552,1583,0,0
-665,-559,0,0,0,0,0,0,0,0,0,-1,559,1583,0,0
-658,-559,0,0,0,0,0,0,0,0,0,-1,566,1583,0,0
-651,-559,0,0,0,0,0,0,0,0,0,-1,573,1583,0,0
-644,-559,0,0,0,0,0,0,0,0,0,-1,580,1583,0,0
-637,-559,0,0,0,0,0,0,0,0,0,-1,587,1583,0,0
-630,-559,0,0,0,0,0,0,0,0,0,-1,594,1583,0,0
-623,-559,0,0,0,0,0,0,0,0,0,-1,601,1583,0,0
-616,-559,0,0,0,0,0,0,0,0,0,-1,608,1583,0,0
-609,-559,0,0,0,0,0,0,0,0,0,-1,615,1583,0,0
-602,-559,0,0,0,0,0,0,0,0,0,-1,622,1583,0,0
-595,-559,0,0,0,0,0,0,0,0,0,-1,629,1583,0,0
-588,-559,0,0,0,0,0,0,0,0,0,-1,636,1583,0,0
-581,-559,0,0,0,0,0,0,0,0,0,-1,643,1583,0,0
-574,-559,0,0,0,0,0,0,0,0,0,-1,650,1583,0,0
-567,-559,0,0,0,0,0,0,0,0,0,-1,657,1583,0,0
-560,-559,0,0,0,0,0,0,0,0,0,-1,664,1583,0,0
-553,-559,0,0,0,0,0,0,0,0,0,-1,671,1583,0,0
-546,-559,0,0,0,0,0,0,0,0,0,-1,678,1583,0,0
-539,-559,0,0,0,0,0,0,0,0,0,-1,685,1583,0,0
-532,-559,0,0,0,0,0,0,0,0,0,-1,692,1583,0,0
-525,-559,0,0,0,0,0,0,0,0,0,-1,699,1583,0,0
-518,-559,0,0,0,0,0,0,0,0,0,-1,706,1583,0,0
-511,-559,0,0,0,0,0,0,0,0,0,-1,713,1583,0,0
-504,-559,0,0,0,0,0,0,0,0,0,-1,720,1583,0,0
-497,-559,0,0,0,0,0,0,0,0,0,-1,727,1583,0,0
-490,-559,-5.49835,4.47424,0,0,0,0,0,0,0,-1,734,1583,-5.49833,-4.4743
-483,-559,-5.24078,4.74561,0,0,0,0,0,0,0,-1,741,1583,-5.24079,-4.74563
-476,-559,-4.98022,4.99316,0,0,0,0,0,0,0,-1,748,1583,-4.98024,-4.99321
-469,-559,-4.6424,5.38062,0,0,0,0,0,0,0,-1,755,1583,-4.64237,-5.38058
-462,-559,-0.161865,6.49438,0,0,0,0,0,0,0,-1,762,1583,-0.161835,-6.49444
-455,-559,1.08826,7.02527,0,0,0,0,0,0,0,-1,769,1583,1.08823,-7.02529
-448,-559,-2.86023,20.0852,0,0,0,0,0,0,0,-1,776,1583,-2.86025,-20.0852
-441,-559,-2.49536,26.2144,0,0,0,0,0,0,0,-1,783,1583,-2.49536,-26.2144
-434,-559,-2.17523,27.3201,0,0,0,0,0,0,0,-1,790,1583,-2.17524,-27.3201
-427,-559,-2.88275,27.6697,0,0,0,0,0,0,0,-1,797,1583,-2.88277,-27.6697
-420,-559,-2.93848,28.546,0,0,0,0,0,0,0,-1,804,1583,-2.93845,-28.546
-413,-559,-2.97626,29.3789,-0.00294828,-0.000681879,-0.000160839,-0.000670522,-0.00295964,-1.5003,0.0017919,0.0189908,811,1583,-2.97628,-29.3789
-406,-559,-2.99188,30.1111,-0.00201585,-0.000378568,-2.62498e-05,-0.000378147,-0.00201627,-1.55477,0.00123754,0.011242,818,1583,-2.99186,-30.1111
-399,-559,-3.01294,30.8364,-0.0010872,-6.31749e-05,0.000132878,-4.62136e-05,-0.00110416,1.44384,0.000721199,0.0137176,825,1583,-3.01291,-30.8364
-392,-559,-3.04865,31.5272,-0.000354587,0.000153528,0.00035841,0.000338791,-0.00053985,1.09372,0.000511692,0.0168594,832,1583,-3.04865,-31.5273
-385,-559,-3.1001,32.222,0.000434374,0.000442194,0.000531217,0.000969515,-9.29472e-05,0.789078,0.000679448,0.0166291,839,1583,-3.10011,-32.2221
-378,-559,-3.15131,32.9164,0.0011274,0.000958954,0.000700234,0.00174846,0.000337896,0.725547,0.00107093,0.0152782,846,1583,-3.15131,-32.9164
-371,-559,-3.19928,33.6274,0.00183166,0.00151027,0.000864954,0.00255072,0.000791208,0.693554,0.00150761,0.0234234,853,1583,-3.1993,-33.6274
-364,-559,-3.19885,34.2858,0.00268584,0.00239298,0.00116251,0.00371111,0.00136772,0.722748,0.00216715,0.0208417,860,1583,-3.19885,-34.2858
-357,-559,-3.21368,34.96,0.00363351,0.00340138,0.00154773,0.00506952,0.00196537,0.747973,0.0029514,0.0126859,867,1583,-3.2137,-34.96
-350,-559,-3.24493,35.6254,0.00476311,0.00453783,0.00204298,0.00669655,0.00260439,0.757859,0.00389793,0.0107312,874,1583,-3.24491,-35.6254
-343,-559,-3.27551,36.3018,0.00601577,0.00585853,0.00273136,0.00866965,0.00320466,0.77101,0.00506181,0.0115771,881,1583,-3.27553,-36.3017
-336,-559,-3.24457,37.0056,0,0,0,0,0,0,0,-1,888,1583,-3.24455,-37.0056
-329,-559,-3.28156,37.828,0,0,0,0,0,0,0,-1,895,1583,-3.28156,-37.828
-322,-559,-3.07751,39.0713,0,0,0,0,0,0,0,-1,902,1583,-3.07751,-39.0713
-315,-559,-0.659607,29.1698,0,0,0,0,0,0,0,-1,909,1583,-0.659577,-29.1698
-308,-559,-0.755493,30.4624,0,0,0,0,0,0,0,-1,916,1583,-0.755509,-30.4625
-301,-559,-1.22174,31.0372,0,0,0,0,0,0,0,-1,923,1583,-1.22176,-31.0372
-294,-559,0.945129,18.5165,0,0,0,0,0,0,0,-1,930,1583,0.945117,-18.5165
-287,-559,-0.11792,15.4912,0,0,0,0,0,0,0,-1,937,1583,-0.117939,-15.4912
-280,-559,0.191467,13.5093,0,0,0,0,0,0,0,-1,944,1583,0.191441,-13.5093
-273,-559,2.12836,10.3059,0,0,0,0,0,0,0,-1,951,1583,2.12839,-10.3059
-266,-559,-0.597046,6.68933,0,0,0,0,0,0,0,-1,958,1583,-0.597031,-6.68937
-259,-559,-7.00311,8.62756,0,0,0,0,0,0,0,-1,965,1583,-7.00312,-8.6275
-252,-559,-9.4483,2.87805,0,0,0,0,0,0,0,-1,972,1583,-9.44829,-2.87805
-245,-559,-4.80804,7.1803,0,0,0,0,0,0,0,-1,979,1583,-4.80804,-7.18027
-238,-559,-8.45764,2.54858,0,0,0,0,0,0,0,-1,986,1583,-8.45763,-2.54862
-231,-559,-5.86914,4.34021,0,0,0,0,0,0,0,-1,993,1583,-5.86914,-4.34019
-224,-559,-3.30505,6.22864,0,0,0,0,0,0,0,-1,1000,1583,-3.30505,-6.22859
-217,-559,0,0,0,0,0,0,0,0,0,-1,1007,1583,0,0
-210,-559,0,0,0,0,0,0,0,0,0,-1,1014,1583,0,0
-203,-559,0,0,0,0,0,0,0,0,0,-1,1021,1583,0,0
-196,-559,0,0,0,0,0,0,0,0,0,-1,1028,1583,0,0
-189,-559,0,0,0,0,0,0,0,0,0,-1,1035,1583,0,0
-182,-559,0,0,0,0,0,0,0,0,0,-1,1042,1583,0,0
-175,-559,0,0,0,0,0,0,0,0,0,-1,1049,1583,0,0
-168,-559,0,0,0,0,0,0,0,0,0,-1,1056,1583,0,0
-161,-559,0,0,0,0,0,0,0,0,0,-1,1063,1583,0,0
-154,-559,0,0,0,0,0,0,0,0,0,-1,1070,1583,0,0
-147,-559,0,0,0,0,0,0,0,0,0,-1,1077,1583,0,0
-140,-559,0,0,0,0,0,0,0,0,0,-1,1084,1583,0,0
-133,-559,0,0,0,0,0,0,0,0,0,-1,1091,1583,0,0
-126,-559,0,0,0,0,0,0,0,0,0,-1,1098,1583,0,0
-119,-559,0,0,0,0,0,0,0,0,0,-1,1105,1583,0,0
-112,-559,0,0,0,0,0,0,0,0,0,-1,1112,1583,0,0
-105,-559,0,0,0,0,0,0,0,0,0,-1,1119,1583,0,0
-98,-559,0,0,0,0,0,0,0,0,0,-1,1126,1583,0,0
-91,-559,0,0,0,0,0,0,0,0,0,-1,1133,1583,0,0
-84,-559,0,0,0,0,0,0,0,0,0,-1,1140,1583,0,0
-77,-559,0,0,0,0,0,0,0,0,0,-1,1147,1583,0,0
-70,-559,0,0,0,0,0,0,0,0,0,-1,1154,1583,0,0
-63,-559,0,0,0,0,0,0,0,0,0,-1,1161,1583,0,0
-56,-559,0,0,0,0,0,0,0,0,0,-1,1168,1583,0,0
-49,-559,0,0,0,0,0,0,0,0,0,-1,1175,1583,0,0
-42,-559,0,0,0,0,0,0,0,0,0,-1,1182,1583,0,0
-35,-559,0,0,0,0,0,0,0,0,0,-1,1189,1583,0,0
-28,-559,0,0,0,0,0,0,0,0,0,-1,1196,1583,0,0
-21,-559,0,0,0,0,0,0,0,0,0,-1,1203,1583,0,0
-14,-559,0,0,0,0,0,0,0,0,0,-1,1210,1583,0,0
-7,-559,0,0,0,0,0,0,0,0,0,-1,1217,1583,0,0
0,-559,0,0,0,0,0,0,0,0,0,-1,1224,1583,0,0
7,-559,0,0,0,0,0,0,0,0,0,-1,1231,1583,0,0
14,-559,0,0,0,0,0,0,0,0,0,-1,1238,1583,0,0
21,-559,0,0,0,0,0,0,0,0,0,-1,1245,1583,0,0
28,-559,0,0,0,0,0,0,0,0,0,-1,1252,1583,0,0
35,-559,0,0,0,0,0,0,0,0,0,-1,1259,1583,0,0
42,-559,0,0,0,0,0,0,0,0,0,-1,1266,1583,0,0
49,-559,0,0,0,0,0,0,0,0,0,-1,1273,1583,0,0
56,-559,0,0,0,0,0,0,0,0,0,-1,1280,1583,0,0
63,-559,0,0,0,0,0,0,0,0,0,-1,1287,1583,0,0
70,-559,0,0,0,0,0,0,0,0,0,-1,1294,1583,0,0
77,-559,0,0,0,0,0,0,0,0,0,-1,1301,1583,0,0
84,-559,0,0,0,0,0,0,0,0,0,-1,1308,1583,0,0
91,-559,0,0,0,0,0,0,0,0,0,-1,1315,1583,0,0
98,-559,0,0,0,0,0,0,0,0,0,-1,1322,1583,0,0
105,-559,0,0,0,0,0,0,0,0,0,-1,1329,1583,0,0
112,-559,0,0,0,0,0,0,0,0,0,-1,1336,1583,0,0
119,-559,0,0,0,0,0,0,0,0,0,-1,1343,1583,0,0
126,-559,0,0,0,0,0,0,0,0,0,-1,1350,1583,0,0
133,-559,0,0,0,0,0,0,0,0,0,-1,1357,1583,0,0
140,-559,0,0,0,0,0,0,0,0,0,-1,1364,1583,0,0
147,-559,0,0,0,0,0,0,0,0,0,-1,1371,1583,0,0
154,-559,0,0,0,0,0,0,0,0,0,-1,1378,1583,0,0
161,-559,0,0,0,0,0,0,0,0,0,-1,1385,1583,0,0
168,-559,0,0,0,0,0,0,0,0,0,-1,1392,1583,0,0
175,-559,0,0,0,0,0,0,0,0,0,-1,1399,1583,0,0
182,-559,0,0,0,0,0,0,0,0,0,-1,1406,1583,0,0
189,-559,0,0,0,0,0,0,0,0,0,-1,1413,1583,0,0
196,-559,0,0,0,0,0,0,0,0,0,-1,1420,1583,0,0
203,-559,0,0,0,0,0,0,0,0,0,-1,1427,1583,0,0
210,-559,0,0,0,0,0,0,0,0,0,-1,1434,1583,0,0
217,-559,0,0,0,0,0,0,0,0,0,-1,1441,1583,0,0
224,-559,0,0,0,0,0,0,0,0,0,-1,1448,1583,0,0
231,-559,0,0,0,0,0,0,0,0,0,-1,1455,1583,0,0
238,-559,0,0,0,0,0,0,0,0,0,-1,1462,1583,0,0
245,-559,0,0,0,0,0,0,0,0,0,-1,1469,1583,0,0
252,-559,0,0,0,0,0,0,0,0,0,-1,1476,1583,0,0
259,-559,0,0,0,0,0,0,0,0,0,-1,1483,1583,0,0
266,-559,0,0,0,0,0,0,0,0,0,-1,1490,1583,0,0
273,-559,0,0,0,0,0,0,0,0,0,-1,1497,1583,0,0
280,-559,0,0,0,0,0,0,0,0,0,-1,1504,1583,0,0
287,-559,0,0,0,0,0,0,0,0,0,-1,1511,1583,0,0
294,-559,0,0,0,0,0,0,0,0,0,-1,1518,1583,0,0
301,-559,0,0,0,0,0,0,0,0,0,-1,1525,1583,0,0
308,-559,0,0,0,0,0,0,0,0,0,-1,1532,1583,0,0
315,-559,0,0,0,0,0,0,0,0,0,-1,1539,1583,0,0
322,-559,0,0,0,0,0,0,0,0,0,-1,1546,1583,0,0
329,-559,0,0,0,0,0,0,0,0,0,-1,1553,1583,0,0
336,-559,5.97668,3.09827,0,0,0,0,0,0,0,-1,1560,1583,5.97667,-3.09824
343,-559,5.44824,2.88696,0,0,0,0,0,0,0,-1,1567,1583,5.44819,-2.88693
350,-559,4.69775,3.27051,0,0,0,0,0,0,0,-1,1574,1583,4.69771,-3.27048
357,-559,3.88025,3.60999,0,0,0,0,0,0,0,-1,1581,1583,3.88027,-3.60998
364,-559,5.00928,5.32605,0,0,0,0,0,0,0,-1,1588,1583,5.00928,-5.32607
371,-559,1.84436,2.52441,0,0,0,0,0,0,0,-1,1595,1583,1.84441,-2.52447
378,-559,6.34753,1.53137,0,0,0,0,0,0,0,-1,1602,1583,6.34752,-1.53139
385,-559,6.95911,1.48181,0,0,0,0,0,0,0,-1,1609,1583,6.95916,-1.48175
392,-559,11.6949,4.77734,0,0,0,0,0,0,0,-1,1616,1583,11.6949,-4.77731
399,-559,11.1104,5.56909,0,0,0,0,0,0,0,-1,1623,1583,11.1103,-5.56905
406,-559,10.3385,6.48657,0,0,0,0,0,0,0,-1,1630,1583,10.3385,-6.48661
413,-559,9.76147,6.97571,0,0,0,0,0,0,0,-1,1637,1583,9.76143,-6.97574
420,-559,7.77124,10.5851,0,0,0,0,0,0,0,-1,1644,1583,7.77128,-10.585
427,-559,10.1022,12.5565,0,0,0,0,0,0,0,-1,1651,1583,10.1021,-12.5565
434,-559,9.62769,14.6309,0,0,0,0,0,0,0,-1,1658,1583,9.62771,-14.6309
441,-559,12.6149,21.3678,0,0,0,0,0,0,0,-1,1665,1583,12.6149,-21.3678
448,-559,13.7046,22.6677,0,0,0,0,0,0,0,-1,1672,1583,13.7046,-22.6677
455,-559,13.9427,23.0509,0,0,0,0,0,0,0,-1,1679,1583,13.9427,-23.0509
462,-559,20.8401,38.4436,0,0,0,0,0,0,0,-1,1686,1583,20.8401,-38.4436
469,-559,20.7827,37.3291,0,0,0,0,0,0,0,-1,1693,1583,20.7828,-37.3291
476,-559,21.0502,36.5054,0.00681119,0.0139688,-0.00818678,0.0193249,0.00145518,-0.991455,0.0124266,0.0273384,1700,1583,21.0502,-36.5054
483,-559,21.1367,35.7219,0.00580199,0.0105222,-0.00633896,0.0149261,0.00139801,-0.963605,0.00951903,0.0143756,1707,1583,21.1368,-35.722
490,-559,21.1201,35.051,0.0048895,0.00736105,-0.0047096,0.0109943,0.00125624,-0.913703,0.00694875,0.0161338,1714,1583,21.1201,-35.051
497,-559,21.0957,34.4231,0.00380725,0.005165,-0.0033666,0.00792049,0.00105176,-0.884888,0.004967,0.0194673,1721,1583,21.0957,-34.4231
504,-559,21.0378,33.7716,0.00279479,0.0032677,-0.00232261,0.00536586,0.000696629,-0.836126,0.00336912,0.0246375,1728,1583,21.0379,-33.7716
511,-559,20.9989,33.0907,0.00192314,0.00191827,-0.00142489,0.0033456,0.000495819,-0.784543,0.00208487,0.0215449,1735,1583,20.9989,-33.0908
518,-559,21.006,32.4136,0.00114435,0.000615629,-0.000623109,0.00155686,0.000203122,-0.584775,0.000977261,0.0135817,1742,1583,21.0059,-32.4136
525,-559,20.9673,31.7487,0.000487912,-0.000366112,3.576e-05,0.000489407,-0.000367607,0.0417749,0.00049646,0.0127447,1749,1583,20.9673,-31.7487
532,-559,20.9406,31.0847,-4.67914e-05,-0.001416,0.000718259,0.000260864,-0.00172366,0.404692,0.0012452,0.0146948,1756,1583,20.9405,-31.0847
539,-559,20.9152,30.421,-0.00050507,-0.00243348,0.00144244,0.000265751,-0.0032043,0.490778,0.00223007,0.019179,1763,1583,20.9152,-30.421
546,-559,20.8405,29.7251,-0.000900177,-0.0036968,0.00233,0.000418896,-0.00501587,0.515139,0.00349193,0.0175302,1770,1583,20.8405,-29.7251
553,-559,20.8876,28.979,-0.00128666,-0.00508252,0.0033541,0.000669256,-0.00703844,0.527932,0.00493054,0.0225997,1777,1583,20.8876,-28.979
560,-559,20.8976,28.5127,-0.00149776,-0.00648116,0.00442263,0.00108678,-0.00906571,0.528863,0.00643672,0.0457885,1784,1583,20.8976,-28.5127
567,-559,20.8907,27.7942,0,0,0,0,0,0,0,-1,1791,1583,20.8907,-27.7942
574,-559,10.5109,10.7317,0,0,0,0,0,0,0,-1,1798,1583,10.5108,-10.7317
581,-559,5.97095,5.96179,0,0,0,0,0,0,0,-1,1805,1583,5.97093,-5.96181
588,-559,5.79102,5.89954,0,0,0,0,0,0,0,-1,1812,1583,5.79098,-5.89949
595,-559,5.79089,6.24231,0,0,0,0,0,0,0,-1,1819,1583,5.7909,-6.24227
602,-559,12.478,2.35669,0,0,0,0,0,0,0,-1,1826,1583,12.4781,-2.35675
609,-559,14.0479,1.22681,0,0,0,0,0,0,0,-1,1833,1583,14.0479,-1.22681
616,-559,0,0,0,0,0,0,0,0,0,-1,1840,1583,0,0
623,-559,0,0,0,0,0,0,0,0,0,-1,1847,1583,0,0
630,-559,0,0,0,0,0,0,0,0,0,-1,1854,1583,0,0
637,-559,0,0,0,0,0,0,0,0,0,-1,1861,1583,0,0
644,-559,0,0,0,0,0,0,0,0,0,-1,1868,1583,0,0
651,-559,0,0,0,0,0,0,0,0,0,-1,1875,1583,0,0
658,-559,0,0,0,0,0,0,0,0,0,-1,1882,1583,0,0
665,-559,0,0,0,0,0,0,0,0,0,-1,1889,1583,0,0
672,-559,0,0,0,0,0,0,0,0,0,-1,1896,1583,0,0
679,-559,0,0,0,0,0,0,0,0,0,-1,1903,1583,0,0
686,-559,0,0,0,0,0,0,0,0,0,-1,1910,1583,0,0
693,-559,0,0,0,0,0,0,0,0,0,-1,1917,1583,0,0
700,-559,0,0,0,0,0,0,0,0,0,-1,1924,1583,0,0
707,-559,0,0,0,0,0,0,0,0,0,-1,1931,1583,0,0
714,-559,0,0,0,0,0,0,0,0,0,-1,1938,1583,0,0
721,-559,0,0,0,0,0,0,0,0,0,-1,1945,1583,0,0
728,-559,0,0,0,0,0,0,0,0,0,-1,1952,1583,0,0
735,-559,0,0,0,0,0,0,0,0,0,-1,1959,1583,0,0
742,-559,0,0,0,0,0,0,0,0,0,-1,1966,1583,0,0
749,-559,0,0,0,0,0,0,0,0,0,-1,1973,1583,0,0
756,-559,0,0,0,0,0,0,0,0,0,-1,1980,1583,0,0
763,-559,0,0,0,0,0,0,0,0,0,-1,1987,1583,0,0
770,-559,0,0,0,0,0,0,0,0,0,-1,1994,1583,0,0
777,-559,0,0,0,0,0,0,0,0,0,-1,2001,1583,0,0
784,-559,0,0,0,0,0,0,0,0,0,-1,2008,1583,0,0
791,-559,0,0,0,0,0,0,0,0,0,-1,2015,1583,0,0
798,-559,0,0,0,0,0,0,0,0,0,-1,2022,1583,0,0
805,-559,0,0,0,0,0,0,0,0,0,-1,2029,1583,0,0
812,-559,0,0,0,0,0,0,0,0,0,-1,2036,1583,0,0
-700,-566,0,0,0,0,0,0,0,0,0,-1,524,1590,0,0
-693,-566,0,0,0,0,0,0,0,0,0,-1,531,1590,0,0
-686,-566,0,0,0,0,0,0,0,0,0,-1,538,1590,0,0
-679,-566,0,0,0,0,0,0,0,0,0,-1,545,1590,0,0
-672,-566,0,0,0,0,0,0,0,0,0,-1,552,1590,0,0
-665,-566,0,0,0,0,0,0,0,0,0,-1,559,1590,0,0
-658,-566,0,0,0,0,0,0,0,0,0,-1,566,1590,0,0
-651,-566,0,0,0,0,0,0,0,0,0,-1,573,1590,0,0
-644,-566,0,0,0,0,0,0,0,0,0,-1,580,1590,0,0
-637,-566,0,0,0,0,0,0,0,0,0,-1,587,1590,0,0
-630,-566,0,0,0,0,0,0,0,0,0,-1,594,1590,0,0
-623,-566,0,0,0,0,0,0,0,0,0,-1,601,1590,0,0
-616,-566,0,0,0,0,0,0,0,0,0,-1,608,1590,0,0
-609,-566,0,0,0,0,0,0,0,0,0,-1,615,1590,0,0
-602,-566,0,0,0,0,0,0,0,0,0,-1,622,1590,0,0
-595,-566,0,0,0,0,0,0,0,0,0,-1,629,1590,0,0
-588,-566,0,0,0,0,0,0,0,0,0,-1,636,1590,0,0
-581,-566,0,0,0,0,0,0,0,0,0,-1,643,1590,0,0
-574,-566,0,0,0,0,0,0,0,0,0,-1,650,1590,0,0
-567,-566,0,0,0,0,0,0,0,0,0,-1,657,1590,0,0
-560,-566,0,0,0,0,0,0,0,0,0,-1,664,1590,0,0
-553,-566,0,0,0,0,0,0,0,0,0,-1,671,1590,0,0
-546,-566,0,0,0,0,0,0,0,0,0,-1,678,1590,0,0
-539,-566,0,0,0,0,0,0,0,0,0,-1,685,1590,0,0
-532,-566,0,0,0,0,0,0,0,0,0,-1,692,1590,0,0
-525,-566,0,0,0,0,0,0,0,0,0,-1,699,1590,0,0
-518,-566,0,0,0,0,0,0,0,0,0,-1,706,1590,0,0
-511,-566,0,0,0,0,0,0,0,0,0,-1,713,1590,0,0
-504,-566,0,0,0,0,0,0,0,0,0,-1,720,1590,0,0
-497,-566,0,0,0,0,0,0,0,0,0,-1,727,1590,0,0
-490,-566,0,0,0,0,0,0,0,0,0,-1,734,1590,0,0
-483,-566,-7.17084,2.78613,0,0,0,0,0,0,0,-1,741,1590,-7.17083,-2.78618
-476,-566,-7.13971,2.87183,0,0,0,0,0,0,0,-1,748,1590,-7.13971,-2.87184
-469,-566,-6.43829,3.2998,0,0,0,0,0,0,0,-1,755,1590,-6.43829,-3.2998
-462,-566,-0.459106,3.89343,0,0,0,0,0,0,0,-1,762,1590,-0.459095,-3.89341
-455,-566,0.280212,4.74023,0,0,0,0,0,0,0,-1,769,1590,0.280207,-4.74023
-448,-566,0.436951,5.51306,0,0,0,0,0,0,0,-1,776,1590,0.436971,-5.51301
-441,-566,-0.440735,12.4063,0,0,0,0,0,0,0,-1,783,1590,-0.440753,-12.4062
-434,-566,-1.51245,27.6411,0,0,0,0,0,0,0,-1,790,1590,-1.51248,-27.6411
-427,-566,-1.97162,28.549,0,0,0,0,0,0,0,-1,797,1590,-1.9716,-28.549
-420,-566,-2.40302,28.5901,0,0,0,0,0,0,0,-1,804,1590,-2.40304,-28.5901
-413,-566,-2.27393,29.4156,-0.00365099,-0.000687073,-0.00016805,-0.000677576,-0.00366048,-1.51434,0.00224875,0.0338419,811,1590,-2.2739,-29.4156
-406,-566,-2.28369,30.1375,-0.00261787,-0.000625602,-3.56198e-05,-0.000624966,-0.00261851,-1.55292,0.00157913,0.0143395,818,1590,-2.28372,-30.1374
-399,-566,-2.3186,30.856,-0.00164761,-0.000537893,6.0752e-05,-0.000534577,-0.00165093,1.51627,0.000972691,0.0107542,825,1590,-2.31861,-30.856
-392,-566,-2.36206,31.5411,-0.000877594,-0.000435396,0.000281391,-0.000298633,-0.00101436,1.11839,0.000601916,0.0138614,832,1590,-2.36204,-31.5412
-385,-566,-2.39319,32.2548,-6.41166e-05,-0.000251337,0.000455192,0.000306991,-0.000622445,0.683987,0.000546816,0.0161351,839,1590,-2.39319,-32.2548
-378,-566,-2.43707,32.9907,0.000603965,0.000238169,0.000628868,0.00107599,-0.000233858,0.643883,0.00080666,0.0157269,846,1590,-2.43708,-32.9907
-371,-566,-2.49823,33.678,0.00122762,0.000685524,0.000730499,0.00173574,0.000177408,0.607748,0.00110279,0.0231574,853,1590,-2.49825,-33.6779
-364,-566,-2.49127,34.3209,0.00195987,0.00144257,0.000960334,0.00269577,0.000706663,0.653853,0.00161405,0.0238415,860,1590,-2.49125,-34.3209
-357,-566,-2.52856,34.9728,0.00277575,0.00230875,0.00127038,0.00383392,0.00125059,0.694511,0.00225765,0.0188396,867,1590,-2.52856,-34.9728
-350,-566,-2.56097,35.6721,0.00376516,0.00323473,0.00165519,0.00517625,0.00182365,0.705957,0.00303165,0.0215893,874,1590,-2.561,-35.6721
-343,-566,-2.55792,36.3677,0.00483799,0.00435558,0.00221732,0.00682718,0.00236639,0.731221,0.00400302,0.0268203,881,1590,-2.55791,-36.3676
-336,-566,-2.70593,37.0378,0.00605925,0.0057706,0.00305949,0.00897782,0.00285204,0.76183,0.00529697,0.0298452,888,1590,-2.70594,-37.0379
-329,-566,-2.61774,37.6129,0.00742478,0.00717111,0.00395781,0.0112578,0.00333811,0.769381,0.00667669,0.0286625,895,1590,-2.61773,-37.6129
-322,-566,-2.54279,38.4589,0.00960007,0.00909926,0.00522697,0.0145826,0.0041167,0.761464,0.00868122,0.0389117,902,1590,-2.54276,-38.4589
-315,-566,-2.44989,39.5001,0,0,0,0,0,0,0,-1,909,1590,-2.44987,-39.5001
-308,-566,-0.127258,29.7607,0,0,0,0,0,0,0,-1,916,1590,-0.12725,-29.7608
-301,-566,0.424011,30.6545,0,0,0,0,0,0,0,-1,923,1590,0.424036,-30.6546
-294,-566,-2.56561,41.4967,0,0,0,0,0,0,0,-1,930,1590,-2.56559,-41.4967
-287,-566,1.25391,23.4589,0,0,0,0,0,0,0,-1,937,1590,1.2539,-23.4589
-280,-566,1.59406,17.8762,0,0,0,0,0,0,0,-1,944,1590,1.59405,-17.8762
-273,-566,0.49762,11.2427,0,0,0,0,0,0,0,-1,951,1590,0.497591,-11.2426
-266,-566,0.392151,6.90295,0,0,0,0,0,0,0,-1,958,1590,0.392151,-6.90294
-259,-566,0.343628,6.47437,0,0,0,0,0,0,0,-1,965,1590,0.34363,-6.47438
-252,-566,-7.68311,1.01343,0,0,0,0,0,0,0,-1,972,1590,-7.68308,-1.01348
-245,-566,-11.1835,1.97522,0,0,0,0,0,0,0,-1,979,1590,-11.1835,-1.97527
-238,-566,-10.4883,2.40491,0,0,0,0,0,0,0,-1,986,1590,-10.4883,-2.40487
-231,-566,-7.41827,4.22803,0,0,0,0,0,0,0,-1,993,1590,-7.41827,-4.22803
-224,-566,-4.67188,6.30859,0,0,0,0,0,0,0,-1,1000,1590,-4.67185,-6.30853
-217,-566,-2.82867,7.52527,0,0,0,0,0,0,0,-1,1007,1590,-2.82869,-7.52531
-210,-566,-1.03436,8.67737,0,0,0,0,0,0,0,-1,1014,1590,-1.03439,-8.67733
-203,-566,0,0,0,0,0,0,0,0,0,-1,1021,1590,0,0
-196,-566,0,0,0,0,0,0,0,0,0,-1,1028,1590,0,0
-189,-566,0,0,0,0,0,0,0,0,0,-1,1035,1590,0,0
-182,-566,0,0,0,0,0,0,0,0,0,-1,1042,1590,0,0
-175,-566,0,0,0,0,0,0,0,0,0,-1,1049,1590,0,0
-168,-566,0,0,0,0,0,0,0,0,0,-1,1056,1590,0,0
-161,-566,0,0,0,0,0,0,0,0,0,-1,1063,1590,0,0
-154,-566,0,0,0,0,0,0,0,0,0,-1,1070,1590,0,0
-147,-566,0,0,0,0,0,0,0,0,0,-1,1077,1590,0,0
-140,-566,0,0,0,0,0,0,0,0,0,-1,1084,1590,0,0
-133,-566,0,0,0,0,0,0,0,0,0,-1,1091,1590,0,0
-126,-566,0,0,0,0,0,0,0,0,0,-1,1098,1590,0,0
-119,-566,0,0,0,0,0,0,0,0,0,-1,1105,1590,0,0
-112,-566,0,0,0,0,0,0,0,0,0,-1,1112,1590,0,0
-105,-566,0,0,0,0,0,0,0,0,0,-1,1119,1590,0,0
-98,-566,0,0,0,0,0,0,0,0,0,-1,1126,1590,0,0
-91,-566,0,0,0,0,0,0,0,0,0,-1,1133,1590,0,0
-84,-566,0,0,0,0,0,0,0,0,0,-1,1140,1590,0,0
-77,-566,0,0,0,0,0,0,0,0,0,-1,1147,1590,0,0
-70,-566,0,0,0,0,0,0,0,0,0,-1,1154,1590,0,0
-63,-566,0,0,0,0,0,0,0,0,0,-1,1161,1590,0,0
-56,-566,0,0,0,0,0,0,0,0,0,-1,1168,1590,0,0
-49,-566,0,0,0,0,0,0,0,0,0,-1,1175,1590,0,0
-42,-566,0,0,0,0,0,0,0,0,0,-1,1182,1590,0,0
-35,-566,0,0,0,0,0,0,0,0,0,-1,1189,1590,0,0
-28,-566,0,0,0,0,0,0,0,0,0,-1,1196,1590,0,0
-21,-566,0,0,0,0,0,0,0,0,0,-1,1203,1590,0,0
-14,-566,0,0,0,0,0,0,0,0,0,-1,1210,1590,0,0
-7,-566,0,0,0,0,0,0,0,0,0,-1,1217,1590,0,0
0,-566,0,0,0,0,0,0,0,0,0,-1,1224,1590,0,0
7,-566,0,0,0,0,0,0,0,0,0,-1,1231,1590,0,0
14,-566,0,0,0,0,0,0,0,0,0,-1,1238,1590,0,0
21,-566,0,0,0,0,0,0,0,0,0,-1,1245,1590,0,0
28,-566,0,0,0,0,0,0,0,0,0,-1,1252,1590,0,0
35,-566,0,0,0,0,0,0,0,0,0,-1,1259,1590,0,0
42,-566,0,0,0,0,0,0,0,0,0,-1,1266,1590,0,0
49,-566,0,0,0,0,0,0,0,0,0,-1,1273,1590,0,0
56,-566,0,0,0,0,0,0,0,0,0,-1,1280,1590,0,0
63,-566,0,0,0,0,0,0,0,0,0,-1,1287,1590,0,0
70,-566,0,0,0,0,0,0,0,0,0,-1,1294,1590,0,0
77,-566,0,0,0,0,0,0,0,0,0,-1,1301,1590,0,0
84,-566,0,0,0,0,0,0,0,0,0,-1,1308,1590,0,0
91,-566,0,0,0,0,0,0,0,0,0,-1,1315,1590,0,0
98,-566,0,0,0,0,0,0,0,0,0,-1,1322,1590,0,0
105,-566,0,0,0,0,0,0,0,0,0,-1,1329,1590,0,0
112,-566,0,0,0,0,0,0,0,0,0,-1,1336,1590,0,0
119,-566,0,0,0,0,0,0,0,0,0,-1,1343,1590,0,0
126,-566,0,0,0,0,0,0,0,0,0,-1,1350,1590,0,0
133,-566,0,0,0,0,0,0,0,0,0,-1,1357,1590,0,0
140,-566,0,0,0,0,0,0,0,0,0,-1,1364,1590,0,0
147,-566,0,0,0,0,0,0,0,0,0,-1,1371,1590,0,0
154,-566,0,0,0,0,0,0,0,0,0,-1,1378,1590,0,0
161,-566,0,0,0,0,0,0,0,0,0,-1,1385,1590,0,0
168,-566,0,0,0,0,0,0,0,0,0,-1,1392,1590,0,0
175,-566,0,0,0,0,0,0,0,0,0,-1,1399,1590,0,0
182,-566,0,0,0,0,0,0,0,0,0,-1,1406,1590,0,0
189,-566,0,0,0,0,0,0,0,0,0,-1,1413,1590,0,0
196,-566,0,0,0,0,0,0,0,0,0,-1,1420,1590,0,0
203,-566,0,0,0,0,0,0,0,0,0,-1,1427,1590,0,0
210,-566,0,0,0,0,0,0,0,0,0,-1,1434,1590,0,0
217,-566,0,0,0,0,0,0,0,0,0,-1,1441,1590,0,0
224,-566,0,0,0,0,0,0,0,0,0,-1,1448,1590,0,0
231,-566,0,0,0,0,0,0,0,0,0,-1,1455,1590,0,0
238,-566,0,0,0,0,0,0,0,0,0,-1,1462,1590,0,0
245,-566,0,0,0,0,0,0,0,0,0,-1,1469,1590,0,0
252,-566,0,0,0,0,0,0,0,0,0,-1,1476,1590,0,0
259,-566,0,0,0,0,0,0,0,0,0,-1,1483,1590,0,0
266,-566,0,0,0,0,0,0,0,0,0,-1,1490,1590,0,0
273,-566,0,0,0,0,0,0,0,0,0,-1,1497,1590,0,0
280,-566,0,0,0,0,0,0,0,0,0,-1,1504,1590,0,0
287,-566,0,0,0,0,0,0,0,0,0,-1,1511,1590,0,0
294,-566,0,0,0,0,0,0,0,0,0,-1,1518,1590,0,0
301,-566,0,0,0,0,0,0,0,0,0,-1,1525,1590,0,0
308,-566,0,0,0,0,0,0,0,0,0,-1,1532,1590,0,0
315,-566,0,0,0,0,0,0,0,0,0,-1,1539,1590,0,0
322,-566,6.07983,4.44873,0,0,0,0,0,0,0,-1,1546,1590,6.07983,-4.44873
329,-566,5.77026,3.47534,0,0,0,0,0,0,0,-1,1553,1590,5.77026,-3.47535
336,-566,5.41138,2.62915,0,0,0,0,0,0,0,-1,1560,1590,5.41138,-2.62909
343,-566,4.81873,1.79089,0,0,0,0,0,0,0,-1,1567,1590,4.81878,-1.79095
350,-566,4.41663,2.44214,0,0,0,0,0,0,0,-1,1574,1590,4.41666,-2.44214
357,-566,6.34058,5.18579,0,0,0,0,0,0,0,-1,1581,1590,6.34059,-5.1858
364,-566,6.06262,4.20251,0,0,0,0,0,0,0,-1,1588,1590,6.06259,-4.20246
371,-566,5.78455,3.21912,0,0,0,0,0,0,0,-1,1595,1590,5.7846,-3.21912
378,-566,5.7439,0.695557,0,0,0,0,0,0,0,-1,1602,1590,5.74392,-0.695531
385,-566,5.67615,-0.573975,0,0,0,0,0,0,0,-1,1609,1590,5.67612,0.573956
392,-566,5.78638,1.82434,0,0,0,0,0,0,0,-1,1616,1590,5.78637,-1.82439
399,-566,18.6853,38.6455,0,0,0,0,0,0,0,-1,1623,1590,18.6853,-38.6456
406,-566,4.30359,5.26868,0,0,0,0,0,0,0,-1,1630,1590,4.30364,-5.26867
413,-566,4.27124,5.79492,0,0,0,0,0,0,0,-1,1637,1590,4.27123,-5.7949
420,-566,18.0121,32.5314,0,0,0,0,0,0,0,-1,1644,1590,18.0121,-32.5313
427,-566,19.4491,36.9315,0,0,0,0,0,0,0,-1,1651,1590,19.4491,-36.9315
434,-566,19.338,36.7385,0,0,0,0,0,0,0,-1,1658,1590,19.338,-36.7386
441,-566,15.5841,27.5869,0,0,0,0,0,0,0,-1,1665,1590,15.5842,-27.587
448,-566,20.5094,39.9998,0,0,0,0,0,0,0,-1,1672,1590,20.5094,-39.9998
455,-566,20.1335,38.9607,0,0,0,0,0,0,0,-1,1679,1590,20.1335,-38.9607
462,-566,20.2856,38.0944,0.00672105,0.0184391,-0.00990207,0.0240857,0.00107445,-1.05254,0.0157112,0.0459245,1686,1590,20.2856,-38.0944
469,-566,20.3671,37.1508,0.006055,0.0145348,-0.0080564,0.0193988,0.00119091,-1.02762,0.0125544,0.0208873,1693,1590,20.367,-37.1507
476,-566,20.459,36.4139,0.00523935,0.0111669,-0.00644473,0.0152967,0.00110958,-1.00092,0.00984879,0.0120526,1700,1590,20.4589,-36.4139
483,-566,20.4528,35.7509,0.00440781,0.00828947,-0.00496124,0.011676,0.00102128,-0.971846,0.00746689,0.0116414,1707,1590,20.4528,-35.7509
490,-566,20.4297,35.0945,0.00366211,0.00559847,-0.00362649,0.0083838,0.000876781,-0.915842,0.00532107,0.0131698,1714,1590,20.4297,-35.0945
497,-566,20.4487,34.4501,0.00276924,0.00377204,-0.00253973,0.00585939,0.000681889,-0.882856,0.00369997,0.0166556,1721,1590,20.4487,-34.4501
504,-566,20.4094,33.8096,0.00190075,0.00211509,-0.00166357,0.00367494,0.000340902,-0.817564,0.0023446,0.0212323,1728,1590,20.4094,-33.8096
511,-566,20.3701,33.147,0.00110257,0.000863474,-0.000810789,0.00180258,0.000163469,-0.712202,0.0011511,0.0206818,1735,1590,20.3701,-33.147
518,-566,20.333,32.4855,0.000410179,-0.00028615,-9.29882e-05,0.000422383,-0.000298353,-0.130495,0.000418166,0.0118164,1742,1590,20.3331,-32.4855
525,-566,20.2908,31.8096,-0.000191451,-0.00123631,0.000552148,4.6252e-05,-0.00147401,0.406524,0.000998448,0.011134,1749,1590,20.2907,-31.8095
532,-566,20.2573,31.1299,-0.00068541,-0.00229647,0.0012702,1.3149e-05,-0.00299503,0.502813,0.00200108,0.0137069,1756,1590,20.2573,-31.1299
539,-566,20.2184,30.4346,-0.00118261,-0.00344157,0.00209948,7.19263e-05,-0.00469611,0.538613,0.00315499,0.0203621,1763,1590,20.2184,-30.4346
546,-566,20.2764,29.6678,-0.00168777,-0.00486248,0.00315791,0.000259293,-0.00680954,0.552511,0.00462854,0.0262181,1770,1590,20.2764,-29.6678
553,-566,20.2798,29.2129,-0.00223657,-0.00648985,0.00441718,0.000539248,-0.00926567,0.56105,0.00636449,0.0370218,1777,1590,20.2798,-29.2129
560,-566,20.0256,28.7739,-0.00269881,-0.00823722,0.00581122,0.000969279,-0.0119053,0.563051,0.0082789,0.0415527,1784,1590,20.0257,-28.7739
567,-566,19.885,28.1648,0,0,0,0,0,0,0,-1,1791,1590,19.8851,-28.1648
574,-566,7.99548,3.14514,0,0,0,0,0,0,0,-1,1798,1590,7.99543,-3.14511
581,-566,2.54102,5.1311,0,0,0,0,0,0,0,-1,1805,1590,2.54099,-5.13111
588,-566,-1.91321,8.39197,0,0,0,0,0,0,0,-1,1812,1590,-1.91316,-8.39199
595,-566,9.0271,4.66467,0,0,0,0,0,0,0,-1,1819,1590,9.02705,-4.66468
602,-566,9.953,3.54895,0,0,0,0,0,0,0,-1,1826,1590,9.953,-3.54898
609,-566,0,0,0,0,0,0,0,0,0,-1,1833,1590,0,0
616,-566,0,0,0,0,0,0,0,0,0,-1,1840,1590,0,0
623,-566,0,0,0,0,0,0,0,0,0,-1,1847,1590,0,0
630,-566,0,0,0,0,0,0,0,0,0,-1,1854,1590,0,0
637,-566,0,0,0,0,0,0,0,0,0,-1,1861,1590,0,0
644,-566,0,0,0,0,0,0,0,0,0,-1,1868,1590,0,0
651,-566,0,0,0,0,0,0,0,0,0,-1,1875,1590,0,0
658,-566,0,0,0,0,0,0,0,0,0,-1,1882,1590,0,0
665,-566,0,0,0,0,0,0,0,0,0,-1,1889,1590,0,0
672,-566,0,0,0,0,0,0,0,0,0,-1,1896,1590,0,0
679,-566,0,0,0,0,0,0,0,0,0,-1,1903,1590,0,0
686,-566,0,0,0,0,0,0,0,0,0,-1,1910,1590,0,0
693,-566,0,0,0,0,0,0,0,0,0,-1,1917,1590,0,0
700,-566,0,0,0,0,0,0,0,0,0,-1,1924,1590,0,0
707,-566,0,0,0,0,0,0,0,0,0,-1,1931,1590,0,0
714,-566,0,0,0,0,0,0,0,0,0,-1,1938,1590,0,0
721,-566,0,0,0,0,0,0,0,0,0,-1,1945,1590,0,0
728,-566,0,0,0,0,0,0,0,0,0,-1,1952,1590,0,0
735,-566,0,0,0,0,0,0,0,0,0,-1,1959,1590,0,0
742,-566,0,0,0,0,0,0,0,0,0,-1,1966,1590,0,0
749,-566,0,0,0,0,0,0,0,0,0,-1,1973,1590,0,0
756,-566,0,0,0,0,0,0,0,0,0,-1,1980,1590,0,0
763,-566,0,0,0,0,0,0,0,0,0,-1,1987,1590,0,0
770,-566,0,0,0,0,0,0,0,0,0,-1,1994,1590,0,0
777,-566,0,0,0,0,0,0,0,0,0,-1,2001,1590,0,0
784,-566,0,0,0,0,0,0,0,0,0,-1,2008,1590,0,0
791,-566,0,0,0,0,0,0,0,0,0,-1,2015,1590,0,0
798,-566,0,0,0,0,0,0,0,0,0,-1,2022,1590,0,0
805,-566,0,0,0,0,0,0,0,0,0,-1,2029,1590,0,0
812,-566,0,0,0,0,0,0,0,0,0,-1,2036,1590,0,0
-700,-573,0,0,0,0,0,0,0,0,0,-1,524,1597,0,0
-693,-573,0,0,0,0,0,0,0,0,0,-1,531,1597,0,0
-686,-573,0,0,0,0,0,0,0,0,0,-1,538,1597,0,0
-679,-573,0,0,0,0,0,0,0,0,0,-1,545,1597,0,0
-672,-573,0,0,0,0,0,0,0,0,0,-1,552,1597,0,0
-665,-573,0,0,0,0,0,0,0,0,0,-1,559,1597,0,0
-658,-573,0,0,0,0,0,0,0,0,0,-1,566,1597,0,0
-651,-573,0,0,0,0,0,0,0,0,0,-1,573,1597,0,0
-644,-573,0,0,0,0,0,0,0,0,0,-1,580,1597,0,0
-637,-573,0,0,0,0,0,0,0,0,0,-1,587,1597,0,0
-630,-573,0,0,0,0,0,0,0,0,0,-1,594,1597,0,0
-623,-573,0,0,0,0,0,0,0,0,0,-1,601,1597,0,0
-616,-573,0,0,0,0,0,0,0,0,0,-1,608,1597,0,0
-609,-573,0,0,0,0,0,0,0,0,0,-1,615,1597,0,0
-602,-573,0,0,0,0,0,0,0,0,0,-1,622,1597,0,0
-595,-573,0,0,0,0,0,0,0,0,0,-1,629,1597,0,0
-588,-573,0,0,0,0,0,0,0,0,0,-1,636,1597,0,0
-581,-573,0,0,0,0,0,0,0,0,0,-1,643,1597,0,0
-574,-573,0,0,0,0,0,0,0,0,0,-1,650,1597,0,0
-567,-573,0,0,0,0,0,0,0,0,0,-1,657,1597,0,0
-560,-573,0,0,0,0,0,0,0,0,0,-1,664,1597,0,0
-553,-573,0,0,0,0,0,0,0,0,0,-1,671,1597,0,0
-546,-573,0,0,0,0,0,0,0,0,0,-1,678,1597,0,0
-539,-573,0,0,0,0,0,0,0,0,0,-1,685,1597,0,0
-532,-573,0,0,0,0,0,0,0,0,0,-1,692,1597,0,0
-525,-573,0,0,0,0,0,0,0,0,0,-1,699,1597,0,0
-518,-573,0,0,0,0,0,0,0,0,0,-1,706,1597,0,0
-511,-573,0,0,0,0,0,0,0,0,0,-1,713,1597,0,0
-504,-573,0,0,0,0,0,0,0,0,0,-1,720,1597,0,0
-497,-573,0,0,0,0,0,0,0,0,0,-1,727,1597,0,0
-490,-573,0,0,0,0,0,0,0,0,0,-1,734,1597,0,0
-483,-573,0,0,0,0,0,0,0,0,0,-1,741,1597,0,0
-476,-573,-9.3327,0.972778,0,0,0,0,0,0,0,-1,748,1597,-9.33268,-0.972776
-469,-573,-1.41681,1.13379,0,0,0,0,0,0,0,-1,755,1597,-1.41681,-1.13382
-462,-573,-0.748535,2.02588,0,0,0,0,0,0,0,-1,762,1597,-0.748533,-2.02584
-455,-573,-0.112976,2.70703,0,0,0,0,0,0,0,-1,769,1597,-0.112988,-2.70697
-448,-573,-1.26172,3.33252,0,0,0,0,0,0,0,-1,776,1597,-1.26173,-3.33248
-441,-573,0.108582,5.06726,0,0,0,0,0,0,0,-1,783,1597,0.108584,-5.06721
-434,-573,1.61768,7.05444,0,0,0,0,0,0,0,-1,790,1597,1.61767,-7.05446
-427,-573,-1.37927,24.4124,0,0,0,0,0,0,0,-1,797,1597,-1.37928,-24.4124
-420,-573,-0.844177,27.3821,0,0,0,0,0,0,0,-1,804,1597,-0.84419,-27.382
-413,-573,-1.59619,29.1656,0,0,0,0,0,0,0,-1,811,1597,-1.59616,-29.1657
-406,-573,-1.57819,30.0592,-0.00322573,-0.00102465,-0.000123718,-0.00101772,-0.00323266,-1.51482,0.00190856,0.042159,818,1597,-1.5782,-30.0592
-399,-573,-1.64636,30.8621,-0.00230715,-0.00111036,-6.31744e-05,-0.00110703,-0.00231047,-1.5182,0.00133434,0.0163912,825,1597,-1.64638,-30.862
-392,-573,-1.66486,31.5909,-0.00153091,-0.0010673,0.000183051,-0.00100374,-0.00159447,1.23659,0.000930805,0.0131568,832,1597,-1.66488,-31.591
-385,-573,-1.72498,32.2866,-0.000704163,-0.000931757,0.00038126,-0.00042008,-0.00121584,0.640369,0.000713048,0.0149756,839,1597,-1.725,-32.2866
-378,-573,-1.78802,32.9802,-6.90164e-05,-0.000426375,0.000569227,0.000348916,-0.000844307,0.633319,0.000708422,0.015383,846,1597,-1.78805,-32.9802
-371,-573,-1.79144,33.6991,0.000484617,-3.54223e-05,0.000624201,0.000900791,-0.000451596,0.588047,0.000795028,0.0168012,853,1597,-1.79141,-33.6991
-364,-573,-1.79285,34.3584,0.00112343,0.000617436,0.00079479,0.00170452,3.63485e-05,0.631309,0.00112443,0.0200289,860,1597,-1.79282,-34.3584
-357,-573,-1.80908,34.998,0.00186238,0.00136377,0.0010397,0.00268224,0.000543903,0.667726,0.00163725,0.0229987,867,1597,-1.80907,-34.9981
-350,-573,-1.8454,35.7477,0.00277707,0.00211909,0.00133345,0.00382151,0.00107465,0.664452,0.00227567,0.0174873,874,1597,-1.84538,-35.7477
-343,-573,-1.82855,36.4451,0.00375177,0.0030516,0.00177731,0.00521315,0.00159023,0.688155,0.00308514,0.0222283,881,1597,-1.82854,-36.445
-336,-573,-1.91888,37.1055,0.00483518,0.00425467,0.00246128,0.00702326,0.00206659,0.726705,0.00416774,0.0180973,888,1597,-1.91891,-37.1055
-329,-573,-1.93048,37.7316,0.0060141,0.00545167,0.0031692,0.00891454,0.00255123,0.741147,0.00530135,0.0190666,895,1597,-1.93051,-37.7316
-322,-573,-1.96478,38.415,0.00784289,0.00701145,0.00415268,0.0116006,0.00325373,0.73551,0.00690943,0.0176245,902,1597,-1.96479,-38.4151
-315,-573,-1.82104,39.2854,0.0102129,0.00921519,0.00583844,0.0155738,0.00385434,0.742779,0.00936593,0.0396112,909,1597,-1.82102,-39.2854
-308,-573,-1.83899,40.3608,0,0,0,0,0,0,0,-1,916,1597,-1.83899,-40.3609
-301,-573,-1.6983,40.7665,0,0,0,0,0,0,0,-1,923,1597,-1.69831,-40.7665
-294,-573,-1.86401,40.9286,0,0,0,0,0,0,0,-1,930,1597,-1.86399,-40.9286
-287,-573,-1.95471,41.8563,0,0,0,0,0,0,0,-1,937,1597,-1.95473,-41.8563
-280,-573,1.19684,26.4906,0,0,0,0,0,0,0,-1,944,1597,1.19685,-26.4906
-273,-573,2.24805,25.4375,0,0,0,0,0,0,0,-1,951,1597,2.24803,-25.4374
-266,-573,1.31116,7.1814,0,0,0,0,0,0,0,-1,958,1597,1.31118,-7.18142
-259,-573,1.2514,6.70959,0,0,0,0,0,0,0,-1,965,1597,1.25137,-6.70965
-252,-573,2.07874,5.27161,0,0,0,0,0,0,0,-1,972,1597,2.07875,-5.27157
-245,-573,-10.2592,1.09827,0,0,0,0,0,0,0,-1,979,1597,-10.2592,-1.09823
-238,-573,-11.5463,4.44141,0,0,0,0,0,0,0,-1,986,1597,-11.5463,-4.44146
-231,-573,-9.23431,4.14539,0,0,0,0,0,0,0,-1,993,1597,-9.23431,-4.14534
-224,-573,-6.70044,7.40857,0,0,0,0,0,0,0,-1,1000,1597,-6.70045,-7.40851
-217,-573,-4.25824,8.59119,0,0,0,0,0,0,0,-1,1007,1597,-4.25824,-8.59122
-210,-573,-2.39661,9.73914,0,0,0,0,0,0,0,-1,1014,1597,-2.39658,-9.73915
-203,-573,-0.557373,10.9005,0,0,0,0,0,0,0,-1,1021,1597,-0.557387,-10.9006
-196,-573,-1.65344,9.02246,0,0,0,0,0,0,0,-1,1028,1597,-1.65349,-9.02241
-189,-573,-6.12915,6.66882,0,0,0,0,0,0,0,-1,1035,1597,-6.12913,-6.66884
-182,-573,0,0,0,0,0,0,0,0,0,-1,1042,1597,0,0
-175,-573,0,0,0,0,0,0,0,0,0,-1,1049,1597,0,0
-168,-573,0,0,0,0,0,0,0,0,0,-1,1056,1597,0,0
-161,-573,0,0,0,0,0,0,0,0,0,-1,1063,1597,0,0
-154,-573,0,0,0,0,0,0,0,0,0,-1,1070,1597,0,0
-147,-573,0,0,0,0,0,0,0,0,0,-1,1077,1597,0,0
-140,-573,0,0,0,0,0,0,0,0,0,-1,1084,1597,0,0
-133,-573,0,0,0,0,0,0,0,0,0,-1,1091,1597,0,0
-126,-573,0,0,0,0,0,0,0,0,0,-1,1098,1597,0,0
-119,-573,0,0,0,0,0,0,0,0,0,-1,1105,1597,0,0
-112,-573,0,0,0,0,0,0,0,0,0,-1,1112,1597,0,0
-105,-573,0,0,0,0,0,0,0,0,0,-1,1119,1597,0,0
-98,-573,0,0,0,0,0,0,0,0,0,-1,1126,1597,0,0
-91,-573,0,0,0,0,0,0,0,0,0,-1,1133,1597,0,0
-84,-573,0,0,0,0,0,0,0,0,0,-1,1140,1597,0,0
-77,-573,0,0,0,0,0,0,0,0,0,-1,1147,1597,0,0
-70,-573,0,0,0,0,0,0,0,0,0,-1,1154,1597,0,0
-63,-573,0,0,0,0,0,0,0,0,0,-1,1161,1597,0,0
-56,-573,0,0,0,0,0,0,0,0,0,-1,1168,1597,0,0
-49,-573,0,0,0,0,0,0,0,0,0,-1,1175,1597,0,0
-42,-573,0,0,0,0,0,0,0,0,0,-1,1182,1597,0,0
-35,-573,0,0,0,0,0,0,0,0,0,-1,1189,1597,0,0
-28,-573,0,0,0,0,0,0,0,0,0,-1,1196,1597,0,0
-21,-573,0,0,0,0,0,0,0,0,0,-1,1203,1597,0,0
-14,-573,0,0,0,0,0,0,0,0,0,-1,1210,1597,0,0
-7,-573,0,0,0,0,0,0,0,0,0,-1,1217,1597,0,0
0,-573,0,0,0,0,0,0,0,0,0,-1,1224,1597,0,0
7,-573,0,0,0,0,0,0,0,0,0,-1,1231,1597,0,0
14,-573,0,0,0,0,0,0,0,0,0,-1,1238,1597,0,0
21,-573,0,0,0,0,0,0,0,0,0,-1,1245,1597,0,0
28,-573,0,0,0,0,0,0,0,0,0,-1,1252,1597,0,0
35,-573,0,0,0,0,0,0,0,0,0,-1,1259,1597,0,0
42,-573,0,0,0,0,0,0,0,0,0,-1,1266,1597,0,0
49,-573,0,0,0,0,0,0,0,0,0,-1,1273,1597,0,0
56,-573,0,0,0,0,0,0,0,0,0,-1,1280,1597,0,0
63,-573,0,0,0,0,0,0,0,0,0,-1,1287,1597,0,0
70,-573,0,0,0,0,0,0,0,0,0,-1,1294,1597,0,0
77,-573,0,0,0,0,0,0,0,0,0,-1,1301,1597,0,0
84,-573,0,0,0,0,0,0,0,0,0,-1,1308,1597,0,0
91,-573,0,0,0,0,0,0,0,0,0,-1,1315,1597,0,0
98,-573,0,0,0,0,0,0,0,0,0,-1,1322,1597,0,0
105,-573,0,0,0,0,0,0,0,0,0,-1,1329,1597,0,0
112,-573,0,0,0,0,0,0,0,0,0,-1,1336,1597,0,0
119,-573,0,0,0,0,0,0,0,0,0,-1,1343,1597,0,0
126,-573,0,0,0,0,0,0,0,0,0,-1,1350,1597,0,0
133,-573,0,0,0,0,0,0,0,0,0,-1,1357,1597,0,0
140,-573,0,0,0,0,0,0,0,0,0,-1,1364,1597,0,0
147,-573,0,0,0,0,0,0,0,0,0,-1,1371,1597,0,0
154,-573,0,0,0,0,0,0,0,0,0,-1,1378,1597,0,0
161,-573,0,0,0,0,0,0,0,0,0,-1,1385,1597,0,0
168,-573,0,0,0,0,0,0,0,0,0,-1,1392,1597,0,0
175,-573,0,0,0,0,0,0,0,0,0,-1,1399,1597,0,0
182,-573,0,0,0,0,0,0,0,0,0,-1,1406,1597,0,0
189,-573,0,0,0,0,0,0,0,0,0,-1,1413,1597,0,0
196,-573,0,0,0,0,0,0,0,0,0,-1,1420,1597,0,0
203,-573,0,0,0,0,0,0,0,0,0,-1,1427,1597,0,0
210,-573,0,0,0,0,0,0,0,0,0,-1,1434,1597,0,0
217,-573,0,0,0,0,0,0,0,0,0,-1,1441,1597,0,0
224,-573,0,0,0,0,0,0,0,0,0,-1,1448,1597,0,0
231,-573,0,0,0,0,0,0,0,0,0,-1,1455,1597,0,0
238,-573,0,0,0,0,0,0,0,0,0,-1,1462,1597,0,0
245,-573,0,0,0,0,0,0,0,0,0,-1,1469,1597,0,0
252,-573,0,0,0,0,0,0,0,0,0,-1,1476,1597,0,0
259,-573,0,0,0,0,0,0,0,0,0,-1,1483,1597,0,0
266,-573,0,0,0,0,0,0,0,0,0,-1,1490,1597,0,0
273,-573,0,0,0,0,0,0,0,0,0,-1,1497,1597,0,0
280,-573,0,0,0,0,0,0,0,0,0,-1,1504,1597,0,0
287,-573,0,0,0,0,0,0,0,0,0,-1,1511,1597,0,0
294,-573,0,0,0,0,0,0,0,0,0,-1,1518,1597,0,0
301,-573,0,0,0,0,0,0,0,0,0,-1,1525,1597,0,0
308,-573,5.93042,9.71143,0,0,0,0,0,0,0,-1,1532,1597,5.93046,-9.71144
315,-573,4.34204,11.719,0,0,0,0,0,0,0,-1,1539,1597,4.34205,-11.719
322,-573,10.3269,7.77563,0,0,0,0,0,0,0,-1,1546,1597,10.327,-7.77565
329,-573,4.99573,3.80273,0,0,0,0,0,0,0,-1,1553,1597,4.9957,-3.80273
336,-573,4.85693,2.53455,0,0,0,0,0,0,0,-1,1560,1597,4.8569,-2.53459
343,-573,5.5946,2.15894,0,0,0,0,0,0,0,-1,1567,1597,5.59456,-2.1589
350,-573,2.53748,1.56433,0,0,0,0,0,0,0,-1,1574,1597,2.53753,-1.5643
357,-573,7.40247,4.03613,0,0,0,0,0,0,0,-1,1581,1597,7.40244,-4.03614
364,-573,7.14551,3.02087,0,0,0,0,0,0,0,-1,1588,1597,7.14556,-3.02084
371,-573,6.88867,2.00549,0,0,0,0,0,0,0,-1,1595,1597,6.88868,-2.00553
378,-573,8.62012,6.09106,0,0,0,0,0,0,0,-1,1602,1597,8.62012,-6.09103
385,-573,6.54346,-0.951904,0,0,0,0,0,0,0,-1,1609,1597,6.54349,0.951901
392,-573,17.5164,38.3645,0,0,0,0,0,0,0,-1,1616,1597,17.5164,-38.3645
399,-573,20.5255,42.9893,0,0,0,0,0,0,0,-1,1623,1597,20.5255,-42.9893
406,-573,20.1974,42.8452,0,0,0,0,0,0,0,-1,1630,1597,20.1974,-42.8453
413,-573,18.702,40.8951,0,0,0,0,0,0,0,-1,1637,1597,18.702,-40.8951
420,-573,18.8063,37.0011,0,0,0,0,0,0,0,-1,1644,1597,18.8063,-37.0011
427,-573,20.4286,42.2079,0,0,0,0,0,0,0,-1,1651,1597,20.4285,-42.2079
434,-573,19.9692,41.4705,0,0,0,0,0,0,0,-1,1658,1597,19.9692,-41.4705
441,-573,19.6373,40.3292,0,0,0,0,0,0,0,-1,1665,1597,19.6374,-40.3292
448,-573,19.7667,39.3977,0.00220893,0.0190869,-0.00732261,0.021821,-0.00052513,-1.21345,0.0147255,0.0426233,1672,1597,19.7667,-39.3977
455,-573,19.7878,38.5123,0.0041878,0.0174495,-0.00780305,0.0210586,0.000578753,-1.13758,0.0138502,0.0314443,1679,1597,19.7879,-38.5123
462,-573,19.8918,37.6648,0.00498138,0.0145145,-0.00761812,0.0187343,0.000761502,-1.06494,0.0122436,0.0219034,1686,1597,19.8918,-37.6648
469,-573,19.8506,37.0529,0.00454261,0.0114044,-0.00627564,0.0151258,0.00082126,-1.03555,0.00982155,0.0155804,1693,1597,19.8506,-37.0529
476,-573,19.828,36.4296,0.00389516,0.00869594,-0.00500968,0.0118506,0.000740483,-1.00881,0.00766551,0.0147713,1700,1597,19.828,-36.4296
483,-573,19.8394,35.7925,0.00322078,0.00629057,-0.00382853,0.00888043,0.000630926,-0.976043,0.00572158,0.0135127,1707,1597,19.8393,-35.7925
490,-573,19.7905,35.1388,0.00260981,0.00402034,-0.00274724,0.0061514,0.000478745,-0.911044,0.00395103,0.0143954,1714,1597,19.7905,-35.1388
497,-573,19.7914,34.4547,0.00186854,0.0024962,-0.00187328,0.00408175,0.000282985,-0.868393,0.00263192,0.021682,1721,1597,19.7914,-34.4547
504,-573,19.7515,33.8081,0.00112222,0.00106537,-0.00113985,0.002234,-4.64148e-05,-0.772931,0.00150505,0.0195215,1728,1597,19.7515,-33.8082
511,-573,19.7153,33.1514,0.00038647,-9.87968e-05,-0.000331578,0.000554707,-0.000267034,-0.469537,0.000484026,0.0210287,1735,1597,19.7153,-33.1514
518,-573,19.6492,32.5126,-0.000224876,-0.00109085,0.000308694,-0.000126102,-0.00118962,0.30968,0.000754567,0.0152167,1742,1597,19.6492,-32.5126
525,-573,19.6418,31.8301,-0.000779475,-0.00202894,0.000960104,-0.000258743,-0.00254967,0.496967,0.00162043,0.0164669,1749,1597,19.6418,-31.8301
532,-573,19.6348,31.1183,-0.00124219,-0.0031271,0.00175382,-0.000193644,-0.00417564,0.53885,0.00272151,0.0179872,1756,1597,19.6348,-31.1183
539,-573,19.5764,30.3911,0,0,0,0,0,0,0,-1,1763,1597,19.5765,-30.3912
546,-573,19.7051,29.6481,0,0,0,0,0,0,0,-1,1770,1597,19.7051,-29.648
553,-573,19.51,29.4169,0,0,0,0,0,0,0,-1,1777,1597,19.5101,-29.4169
560,-573,19.3348,28.9695,0,0,0,0,0,0,0,-1,1784,1597,19.3348,-28.9695
567,-573,19.0273,28.3853,0,0,0,0,0,0,0,-1,1791,1597,19.0273,-28.3852
574,-573,0.83374,5.7041,0,0,0,0,0,0,0,-1,1798,1597,0.833718,-5.70405
581,-573,-0.224854,7.41602,0,0,0,0,0,0,0,-1,1805,1597,-0.224904,-7.41596
588,-573,-0.134033,7.67065,0,0,0,0,0,0,0,-1,1812,1597,-0.134037,-7.67063
595,-573,-0.0825195,8.35083,0,0,0,0,0,0,0,-1,1819,1597,-0.0824684,-8.35088
602,-573,0,0,0,0,0,0,0,0,0,-1,1826,1597,0,0
609,-573,0,0,0,0,0,0,0,0,0,-1,1833,1597,0,0
616,-573,0,0,0,0,0,0,0,0,0,-1,1840,1597,0,0
623,-573,0,0,0,0,0,0,0,0,0,-1,1847,1597,0,0
630,-573,0,0,0,0,0,0,0,0,0,-1,1854,1597,0,0
637,-573,0,0,0,0,0,0,0,0,0,-1,1861,1597,0,0
644,-573,0,0,0,0,0,0,0,0,0,-1,1868,1597,0,0
651,-573,0,0,0,0,0,0,0,0,0,-1,1875,1597,0,0
658,-573,0,0,0,0,0,0,0,0,0,-1,1882,1597,0,0
665,-573,0,0,0,0,0,0,0,0,0,-1,1889,1597,0,0
672,-573,0,0,0,0,0,0,0,0,0,-1,1896,1597,0,0
679,-573,0,0,0,0,0,0,0,0,0,-1,1903,1597,0,0
686,-573,0,0,0,0,0,0,0,0,0,-1,1910,1597,0,0
693,-573,0,0,0,0,0,0,0,0,0,-1,1917,1597,0,0
700,-573,0,0,0,0,0,0,0,0,0,-1,1924,1597,0,0
707,-573,0,0,0,0,0,0,0,0,0,-1,1931,1597,0,0
714,-573,0,0,0,0,0,0,0,0,0,-1,1938,1597,0,0
721,-573,0,0,0,0,0,0,0,0,0,-1,1945,1597,0,0
728,-573,0,0,0,0,0,0,0,0,0,-1,1952,1597,0,0
735,-573,0,0,0,0,0,0,0,0,0,-1,1959,1597,0,0
742,-573,0,0,0,0,0,0,0,0,0,-1,1966,1597,0,0
749,-573,0,0,0,0,0,0,0,0,0,-1,1973,1597,0,0
756,-573,0,0,0,0,0,0,0,0,0,-1,1980,1597,0,0
763,-573,0,0,0,0,0,0,0,0,0,-1,1987,1597,0,0
770,-573,0,0,0,0,0,0,0,0,0,-1,1994,1597,0,0
777,-573,0,0,0,0,0,0,0,0,0,-1,2001,1597,0,0
784,-573,0,0,0,0,0,0,0,0,0,-1,2008,1597,0,0
791,-573,0,0,0,0,0,0,0,0,0,-1,2015,1597,0,0
798,-573,0,0,0,0,0,0,0,0,0,-1,2022,1597,0,0
805,-573,0,0,0,0,0,0,0,0,0,-1,2029,1597,0,0
812,-573,0,0,0,0,0,0,0,0,0,-1,2036,1597,0,0
-700,-580,0,0,0,0,0,0,0,0,0,-1,524,1604,0,0
-693,-580,0,0,0,0,0,0,0,0,0,-1,531,1604,0,0
-686,-580,0,0,0,0,0,0,0,0,0,-1,538,1604,0,0
-679,-580,0,0,0,0,0,0,0,0,0,-1,545,1604,0,0
-672,-580,0,0,0,0,0,0,0,0,0,-1,552,1604,0,0
-665,-580,0,0,0,0,0,0,0,0,0,-1,559,1604,0,0
-658,-580,0,0,0,0,0,0,0,0,0,-1,566,1604,0,0
-651,-580,0,0,0,0,0,0,0,0,0,-1,573,1604,0,0
-644,-580,0,0,0,0,0,0,0,0,0,-1,580,1604,0,0
-637,-580,0,0,0,0,0,0,0,0,0,-1,587,1604,0,0
-630,-580,0,0,0,0,0,0,0,0,0,-1,594,1604,0,0
-623,-580,0,0,0,0,0,0,0,0,0,-1,601,1604,0,0
-616,-580,0,0,0,0,0,0,0,0,0,-1,608,1604,0,0
-609,-580,0,0,0,0,0,0,0,0,0,-1,615,1604,0,0
-602,-580,0,0,0,0,0,0,0,0,0,-1,622,1604,0,0
-595,-580,0,0,0,0,0,0,0,0,0,-1,629,1604,0,0
-588,-580,0,0,0,0,0,0,0,0,0,-1,636,1604,0,0
-581,-580,0,0,0,0,0,0,0,0,0,-1,643,1604,0,0
-574,-580,0,0,0,0,0,0,0,0,0,-1,650,1604,0,0
-567,-580,0,0,0,0,0,0,0,0,0,-1,657,1604,0,0
-560,-580,0,0,0,0,0,0,0,0,0,-1,664,1604,0,0
-553,-580,0,0,0,0,0,0,0,0,0,-1,671,1604,0,0
-546,-580,0,0,0,0,0,0,0,0,0,-1,678,1604,0,0
-539,-580,0,0,0,0,0,0,0,0,0,-1,685,1604,0,0
-532,-580,0,0,0,0,0,0,0,0,0,-1,692,1604,0,0
-525,-580,0,0,0,0,0,0,0,0,0,-1,699,1604,0,0
-518,-580,0,0,0,0,0,0,0,0,0,-1,706,1604,0,0
-511,-580,0,0,0,0,0,0,0,0,0,-1,713,1604,0,0
-504,-580,0,0,0,0,0,0,0,0,0,-1,720,1604,0,0
-497,-580,0,0,0,0,0,0,0,0,0,-1,727,1604,0,0
-490,-580,0,0,0,0,0,0,0,0,0,-1,734,1604,0,0
-483,-580,0,0,0,0,0,0,0,0,0,-1,741,1604,0,0
-476,-580,0,0,0,0,0,0,0,0,0,-1,748,1604,0,0
-469,-580,-1.69189,-0.38916,0,0,0,0,0,0,0,-1,755,1604,-1.69192,0.389188
-462,-580,-0.859863,0.675293,0,0,0,0,0,0,0,-1,762,1604,-0.859834,-0.675245
-455,-580,-0.730164,0.651978,0,0,0,0,0,0,0,-1,769,1604,-0.730153,-0.651957
-448,-580,-3.31891,2.07544,0,0,0,0,0,0,0,-1,776,1604,-3.3189,-2.07539
-441,-580,-1.63843,3.9469,0,0,0,0,0,0,0,-1,783,1604,-1.63842,-3.94695
-434,-580,0.23291,5.97876,0,0,0,0,0,0,0,-1,790,1604,0.232901,-5.97878
-427,-580,1.62756,8.05493,0,0,0,0,0,0,0,-1,797,1604,1.62758,-8.05488
-420,-580,0.986572,11.2383,0,0,0,0,0,0,0,-1,804,1604,0.986544,-11.2382
-413,-580,0.922913,21.5701,0,0,0,0,0,0,0,-1,811,1604,0.922905,-21.5701
-406,-580,-0.903198,30.0189,0,0,0,0,0,0,0,-1,818,1604,-0.903228,-30.0189
-399,-580,-0.923645,30.8917,-0.00305681,-0.00191642,-0.000307097,-0.00183898,-0.00313425,-1.32378,0.00181861,0.041482,825,1604,-0.923618,-30.8917
-392,-580,-0.996033,31.6368,-0.00219325,-0.0018231,5.28509e-06,-0.00182302,-0.00219333,1.55652,0.00135575,0.01969,832,1604,-0.996011,-31.6368
-385,-580,-1.0578,32.328,-0.00131371,-0.00164826,0.000272674,-0.00116109,-0.00180088,0.510272,0.00105416,0.0131344,839,1604,-1.05781,-32.328
-378,-580,-1.10876,33.0087,-0.000692299,-0.00106664,0.000499218,-0.000346318,-0.00141262,0.606044,0.000850156,0.0156806,846,1604,-1.10875,-33.0087
-371,-580,-1.12445,33.733,-0.0001988,-0.000671308,0.00053714,0.000151747,-0.00102186,0.578213,0.000737045,0.0142083,853,1604,-1.12446,-33.733
-364,-580,-1.12164,34.4016,0.000350447,-8.67959e-05,0.000670545,0.00083711,-0.000573458,0.627814,0.00081912,0.0193742,860,1604,-1.12164,-34.4016
-357,-580,-1.14423,35.0588,0.001011,0.000570232,0.000868901,0.00168703,-0.000105799,0.661201,0.00116156,0.0140384,867,1604,-1.14423,-35.0589
-350,-580,-1.18665,35.7743,0.0018292,0.00120384,0.00109401,0.00265434,0.000378705,0.646202,0.0016578,0.010824,874,1604,-1.18663,-35.7743
-343,-580,-1.1861,36.4662,0.00267969,0.00199463,0.00143695,0.00381437,0.000859948,0.668397,0.00231025,0.0119864,881,1604,-1.18607,-36.4662
-336,-580,-1.2016,37.0865,0.00359986,0.00301644,0.0019727,0.00530231,0.00131399,0.711994,0.00318844,0.0212731,888,1604,-1.20162,-37.0866
-329,-580,-1.2453,37.7793,0.00457209,0.00405592,0.00251653,0.00684374,0.00178428,0.734299,0.00409928,0.0189869,895,1604,-1.24531,-37.7793
-322,-580,-1.28827,38.4684,0.00606189,0.00533473,0.00326002,0.00897854,0.00241808,0.729864,0.00536451,0.0206948,902,1604,-1.28827,-38.4684
-315,-580,-1.25195,39.0997,0.0079811,0.00711125,0.00458195,0.0121487,0.00294363,0.738079,0.00731802,0.023109,909,1604,-1.25195,-39.0997
-308,-580,-1.18445,39.9152,0.0098259,0.00873604,0.00581416,0.0151206,0.00344133,0.738672,0.00915158,0.0343071,916,1604,-1.18444,-39.9151
-301,-580,-1.13574,40.468,0.0122944,0.0104822,0.00744791,0.0188911,0.00388548,0.724869,0.0115195,0.031817,923,1604,-1.13573,-40.4681
-294,-580,-1.0506,41.2433,0,0,0,0,0,0,0,-1,930,1604,-1.05063,-41.2433
-287,-580,-1.03204,42.2034,0,0,0,0,0,0,0,-1,937,1604,-1.03201,-42.2034
-280,-580,-0.839722,43.4652,0,0,0,0,0,0,0,-1,944,1604,-0.839747,-43.4652
-273,-580,-0.602966,43.8085,0,0,0,0,0,0,0,-1,951,1604,-0.602942,-43.8085
-266,-580,1.71777,25.6515,0,0,0,0,0,0,0,-1,958,1604,1.71775,-25.6515
-259,-580,1.31091,9.11536,0,0,0,0,0,0,0,-1,965,1604,1.31092,-9.11539
-252,-580,1.07629,7.74097,0,0,0,0,0,0,0,-1,972,1604,1.07627,-7.74101
-245,-580,3.80304,9.16028,0,0,0,0,0,0,0,-1,979,1604,3.80306,-9.16034
-238,-580,-10.3588,1.57556,0,0,0,0,0,0,0,-1,986,1604,-10.3588,-1.5755
-231,-580,-10.576,6.43787,0,0,0,0,0,0,0,-1,993,1604,-10.576,-6.43783
-224,-580,-8.27435,7.58972,0,0,0,0,0,0,0,-1,1000,1604,-8.27435,-7.5897
-217,-580,-5.85632,9.51221,0,0,0,0,0,0,0,-1,1007,1604,-5.85632,-9.5122
-210,-580,-3.6684,11.1569,0,0,0,0,0,0,0,-1,1014,1604,-3.66839,-11.1569
-203,-580,-1.92474,12.7845,0,0,0,0,0,0,0,-1,1021,1604,-1.92477,-12.7845
-196,-580,-2.28552,10.3289,0,0,0,0,0,0,0,-1,1028,1604,-2.28552,-10.3288
-189,-580,-4.58252,7.59058,0,0,0,0,0,0,0,-1,1035,1604,-4.58256,-7.59057
-182,-580,-5.45874,7.65942,0,0,0,0,0,0,0,-1,1042,1604,-5.45876,-7.65939
-175,-580,-6.38977,7.55005,0,0,0,0,0,0,0,-1,1049,1604,-6.38981,-7.5501
-168,-580,0,0,0,0,0,0,0,0,0,-1,1056,1604,0,0
-161,-580,0,0,0,0,0,0,0,0,0,-1,1063,1604,0,0
-154,-580,0,0,0,0,0,0,0,0,0,-1,1070,1604,0,0
-147,-580,0,0,0,0,0,0,0,0,0,-1,1077,1604,0,0
-140,-580,0,0,0,0,0,0,0,0,0,-1,1084,1604,0,0
-133,-580,0,0,0,0,0,0,0,0,0,-1,1091,1604,0,0
-126,-580,0,0,0,0,0,0,0,0,0,-1,1098,1604,0,0
-119,-580,0,0,0,0,0,0,0,0,0,-1,1105,1604,0,0
-112,-580,0,0,0,0,0,0,0,0,0,-1,1112,1604,0,0
-105,-580,0,0,0,0,0,0,0,0,0,-1,1119,1604,0,0
-98,-580,0,0,0,0,0,0,0,0,0,-1,1126,1604,0,0
-91,-580,0,0,0,0,0,0,0,0,0,-1,1133,1604,0,0
-84,-580,0,0,0,0,0,0,0,0,0,-1,1140,1604,0,0
-77,-580,0,0,0,0,0,0,0,0,0,-1,1147,1604,0,0
-70,-580,0,0,0,0,0,0,0,0,0,-1,1154,1604,0,0
-63,-580,0,0,0,0,0,0,0,0,0,-1,1161,1604,0,0
-56,-580,0,0,0,0,0,0,0,0,0,-1,1168,1604,0,0
-49,-580,0,0,0,0,0,0,0,0,0,-1,1175,1604,0,0
-42,-580,0,0,0,0,0,0,0,0,0,-1,1182,1604,0,0
-35,-580,0,0,0,0,0,0,0,0,0,-1,1189,1604,0,0
-28,-580,0,0,0,0,0,0,0,0,0,-1,1196,1604,0,0
-21,-580,0,0,0,0,0,0,0,0,0,-1,1203,1604,0,0
-14,-580,0,0,0,0,0,0,0,0,0,-1,1210,1604,0,0
-7,-580,0,0,0,0,0,0,0,0,0,-1,1217,1604,0,0
0,-580,0,0,0,0,0,0,0,0,0,-1,1224,1604,0,0
7,-580,0,0,0,0,0,0,0,0,0,-1,1231,1604,0,0
14,-580,0,0,0,0,0,0,0,0,0,-1,1238,1604,0,0
21,-580,0,0,0,0,0,0,0,0,0,-1,1245,1604,0,0
28,-580,0,0,0,0,0,0,0,0,0,-1,1252,1604,0,0
35,-580,0,0,0,0,0,0,0,0,0,-1,1259,1604,0,0
42,-580,0,0,0,0,0,0,0,0,0,-1,1266,1604,0,0
49,-580,0,0,0,0,0,0,0,0,0,-1,1273,1604,0,0
56,-580,0,0,0,0,0,0,0,0,0,-1,1280,1604,0,0
63,-580,0,0,0,0,0,0,0,0,0,-1,1287,1604,0,0
70,-580,0,0,0,0,0,0,0,0,0,-1,1294,1604,0,0
77,-580,0,0,0,0,0,0,0,0,0,-1,1301,1604,0,0
84,-580,0,0,0,0,0,0,0,0,0,-1,1308,1604,0,0
91,-580,0,0,0,0,0,0,0,0,0,-1,1315,1604,0,0
98,-580,0,0,0,0,0,0,0,0,0,-1,1322,1604,0,0
105,-580,0,0,0,0,0,0,0,0,0,-1,1329,1604,0,0
112,-580,0,0,0,0,0,0,0,0,0,-1,1336,1604,0,0
119,-580,0,0,0,0,0,0,0,0,0,-1,1343,1604,0,0
126,-580,0,0,0,0,0,0,0,0,0,-1,1350,1604,0,0
133,-580,0,0,0,0,0,0,0,0,0,-1,1357,1604,0,0
140,-580,0,0,0,0,0,0,0,0,0,-1,1364,1604,0,0
147,-580,0,0,0,0,0,0,0,0,0,-1,1371,1604,0,0
154,-580,0,0,0,0,0,0,0,0,0,-1,1378,1604,0,0
161,-580,0,0,0,0,0,0,0,0,0,-1,1385,1604,0,0
168,-580,0,0,0,0,0,0,0,0,0,-1,1392,1604,0,0
175,-580,0,0,0,0,0,0,0,0,0,-1,1399,1604,0,0
182,-580,0,0,0,0,0,0,0,0,0,-1,1406,1604,0,0
189,-580,0,0,0,0,0,0,0,0,0,-1,1413,1604,0,0
196,-580,0,0,0,0,0,0,0,0,0,-1,1420,1604,0,0
203,-580,0,0,0,0,0,0,0,0,0,-1,1427,1604,0,0
210,-580,0,0,0,0,0,0,0,0,0,-1,1434,1604,0,0
217,-580,0,0,0,0,0,0,0,0,0,-1,1441,1604,0,0
224,-580,0,0,0,0,0,0,0,0,0,-1,1448,1604,0,0
231,-580,0,0,0,0,0,0,0,0,0,-1,1455,1604,0,0
238,-580,0,0,0,0,0,0,0,0,0,-1,1462,1604,0,0
245,-580,0,0,0,0,0,0,0,0,0,-1,1469,1604,0,0
252,-580,0,0,0,0,0,0,0,0,0,-1,1476,1604,0,0
259,-580,0,0,0,0,0,0,0,0,0,-1,1483,1604,0,0
266,-580,0,0,0,0,0,0,0,0,0,-1,1490,1604,0,0
273,-580,0,0,0,0,0,0,0,0,0,-1,1497,1604,0,0
280,-580,0,0,0,0,0,0,0,0,0,-1,1504,1604,0,0
287,-580,0,0,0,0,0,0,0,0,0,-1,1511,1604,0,0
294,-580,4.0437,0.177368,0,0,0,0,0,0,0,-1,1518,1604,4.04369,-0.177371
301,-580,7.55164,8.05798,0,0,0,0,0,0,0,-1,1525,1604,7.55158,-8.05802
308,-580,5.9126,9.99341,0,0,0,0,0,0,0,-1,1532,1604,5.91255,-9.99337
315,-580,4.27356,11.9287,0,0,0,0,0,0,0,-1,1539,1604,4.27352,-11.9287
322,-580,10.2366,7.50281,0,0,0,0,0,0,0,-1,1546,1604,10.2366,-7.50282
329,-580,10.5962,8.69641,0,0,0,0,0,0,0,-1,1553,1604,10.5962,-8.69642
336,-580,3.66431,1.58862,0,0,0,0,0,0,0,-1,1560,1604,3.6643,-1.58864
343,-580,3.32227,1.39636,0,0,0,0,0,0,0,-1,1567,1604,3.32222,-1.39633
350,-580,8.71277,4.0564,0,0,0,0,0,0,0,-1,1574,1604,8.71271,-4.05638
357,-580,8.52332,3.08154,0,0,0,0,0,0,0,-1,1581,1604,8.52332,-3.08157
364,-580,8.25818,2.07605,0,0,0,0,0,0,0,-1,1588,1604,8.25812,-2.07608
371,-580,7.42114,7.14282,0,0,0,0,0,0,0,-1,1595,1604,7.42119,-7.14281
378,-580,7.9718,6.6731,0,0,0,0,0,0,0,-1,1602,1604,7.9718,-6.67307
385,-580,8.52246,6.20337,0,0,0,0,0,0,0,-1,1609,1604,8.52241,-6.20334
392,-580,19.1649,43.3333,0,0,0,0,0,0,0,-1,1616,1604,19.1649,-43.3333
399,-580,19.8997,43.1477,-0.0207776,0.0213163,0.0109203,0.0239806,-0.023442,1.33149,0.0273801,0.0488953,1623,1604,19.8997,-43.1478
406,-580,19.6561,42.9316,-0.0165343,0.0207508,0.00729407,0.022127,-0.0179104,1.38432,0.0231583,0.0461286,1630,1604,19.6562,-42.9316
413,-580,19.0011,42.2596,0,0,0,0,0,0,0,-1,1637,1604,19.0011,-42.2597
420,-580,19.0864,41.7352,0,0,0,0,0,0,0,-1,1644,1604,19.0865,-41.7352
427,-580,19.1641,41.2637,0,0,0,0,0,0,0,-1,1651,1604,19.164,-41.2636
434,-580,19.3584,40.662,-0.00188911,0.0190555,-0.00403629,0.0198064,-0.00264003,-1.38686,0.0141665,0.0457587,1658,1604,19.3585,-40.662
441,-580,19.1139,39.7316,0.000160972,0.0169292,-0.00503179,0.0183233,-0.00123307,-1.30053,0.0126466,0.0264403,1665,1604,19.1139,-39.7316
448,-580,19.2212,38.964,0.00163145,0.0146842,-0.00542444,0.0166441,-0.000328529,-1.22407,0.0112072,0.017632,1672,1604,19.2212,-38.964
455,-580,19.288,38.3444,0.0031673,0.0133618,-0.00587245,0.0160406,0.000488449,-1.14282,0.0105347,0.0199558,1679,1604,19.2879,-38.3444
462,-580,19.2297,37.6926,0.00375508,0.0110256,-0.0057955,0.0142316,0.000549088,-1.06551,0.00931012,0.0209139,1686,1604,19.2298,-37.6926
469,-580,19.1915,37.0525,0.00342849,0.00856662,-0.00484513,0.0114817,0.000513454,-1.02917,0.00748916,0.0182797,1693,1604,19.1915,-37.0524
476,-580,19.1788,36.4336,0.00291911,0.00642059,-0.00388201,0.00892838,0.000411322,-0.997236,0.00581999,0.0148106,1700,1604,19.1788,-36.4336
483,-580,19.1667,35.8058,0.00235994,0.00444803,-0.00296163,0.00654426,0.000263718,-0.954859,0.00427764,0.0142417,1707,1604,19.1668,-35.8058
490,-580,19.1136,35.1914,0.00182839,0.00258754,-0.00210021,0.0043422,7.37275e-05,-0.874799,0.00287054,0.0187026,1714,1604,19.1137,-35.1914
497,-580,19.0786,34.5114,0.00118819,0.00133528,-0.00140388,0.00266754,-0.000144067,-0.811568,0.00182827,0.0145409,1721,1604,19.0786,-34.5114
504,-580,19.0433,33.8312,0.000520822,0.000132133,-0.000781655,0.00113193,-0.000478976,-0.663553,0.000955185,0.017932,1728,1604,19.0433,-33.8312
511,-580,19.0204,33.2126,-0.000201262,-0.000949654,-2.40821e-06,-0.000201254,-0.000949662,-0.0032178,0.000577826,0.0192908,1735,1604,19.0204,-33.2127
518,-580,18.988,32.5465,-0.000806279,-0.00179648,0.000593287,-0.000528649,-0.00207411,0.437683,0.00124453,0.0173032,1742,1604,18.988,-32.5465
525,-580,18.9749,31.8484,-0.00142113,-0.00276764,0.00131806,-0.000614331,-0.00357445,0.549276,0.00220688,0.02254,1749,1604,18.9749,-31.8484
532,-580,18.9048,31.2029,-0.00199789,-0.00396318,0.00227316,-0.000504076,-0.00545699,0.581388,0.00348215,0.0440451,1756,1604,18.9047,-31.2029
539,-580,18.9758,30.4904,0,0,0,0,0,0,0,-1,1763,1604,18.9758,-30.4903
546,-580,18.7954,28.1775,0,0,0,0,0,0,0,-1,1770,1604,18.7954,-28.1775
553,-580,17.1749,26.6359,0,0,0,0,0,0,0,-1,1777,1604,17.1749,-26.6358
560,-580,18.844,29.1804,0,0,0,0,0,0,0,-1,1784,1604,18.844,-29.1804
567,-580,3.87708,4.0647,0,0,0,0,0,0,0,-1,1791,1604,3.87711,-4.06471
574,-580,2.31653,5.62952,0,0,0,0,0,0,0,-1,1798,1604,2.31654,-5.62947
581,-580,1.60876,6.67664,0,0,0,0,0,0,0,-1,1805,1604,1.60873,-6.67667
588,-580,1.38684,7.14441,0,0,0,0,0,0,0,-1,1812,1604,1.38689,-7.14443
595,-580,0,0,0,0,0,0,0,0,0,-1,1819,1604,0,0
602,-580,0,0,0,0,0,0,0,0,0,-1,1826,1604,0,0
609,-580,0,0,0,0,0,0,0,0,0,-1,1833,1604,0,0
616,-580,0,0,0,0,0,0,0,0,0,-1,1840,1604,0,0
623,-580,0,0,0,0,0,0,0,0,0,-1,1847,1604,0,0
630,-580,0,0,0,0,0,0,0,0,0,-1,1854,1604,0,0
637,-580,0,0,0,0,0,0,0,0,0,-1,1861,1604,0,0
644,-580,0,0,0,0,0,0,0,0,0,-1,1868,1604,0,0
651,-580,0,0,0,0,0,0,0,0,0,-1,1875,1604,0,0
658,-580,0,0,0,0,0,0,0,0,0,-1,1882,1604,0,0
665,-580,0,0,0,0,0,0,0,0,0,-1,1889,1604,0,0
672,-580,0,0,0,0,0,0,0,0,0,-1,1896,1604,0,0
679,-580,0,0,0,0,0,0,0,0,0,-1,1903,1604,0,0
686,-580,0,0,0,0,0,0,0,0,0,-1,1910,1604,0,0
693,-580,0,0,0,0,0,0,0,0,0,-1,1917,1604,0,0
700,-580,0,0,0,0,0,0,0,0,0,-1,1924,1604,0,0
707,-580,0,0,0,0,0,0,0,0,0,-1,1931,1604,0,0
714,-580,0,0,0,0,0,0,0,0,0,-1,1938,1604,0,0
721,-580,0,0,0,0,0,0,0,0,0,-1,1945,1604,0,0
728,-580,0,0,0,0,0,0,0,0,0,-1,1952,1604,0,0
735,-580,0,0,0,0,0,0,0,0,0,-1,1959,1604,0,0
742,-580,0,0,0,0,0,0,0,0,0,-1,1966,1604,0,0
749,-580,0,0,0,0,0,0,0,0,0,-1,1973,1604,0,0
756,-580,0,0,0,0,0,0,0,0,0,-1,1980,1604,0,0
763,-580,0,0,0,0,0,0,0,0,0,-1,1987,1604,0,0
770,-580,0,0,0,0,0,0,0,0,0,-1,1994,1604,0,0
777,-580,0,0,0,0,0,0,0,0,0,-1,2001,1604,0,0
784,-580,0,0,0,0,0,0,0,0,0,-1,2008,1604,0,0
791,-580,0,0,0,0,0,0,0,0,0,-1,2015,1604,0,0
798,-580,0,0,0,0,0,0,0,0,0,-1,2022,1604,0,0
805,-580,0,0,0,0,0,0,0,0,0,-1,2029,1604,0,0
812,-580,0,0,0,0,0,0,0,0,0,-1,2036,1604,0,0
-700,-587,0,0,0,0,0,0,0,0,0,-1,524,1611,0,0
-693,-587,0,0,0,0,0,0,0,0,0,-1,531,1611,0,0
-686,-587,0,0,0,0,0,0,0,0,0,-1,538,1611,0,0
-679,-587,0,0,0,0,0,0,0,0,0,-1,545,1611,0,0
-672,-587,0,0,0,0,0,0,0,0,0,-1,552,1611,0,0
-665,-587,0,0,0,0,0,0,0,0,0,-1,559,1611,0,0
-658,-587,0,0,0,0,0,0,0,0,0,-1,566,1611,0,0
-651,-587,0,0,0,0,0,0,0,0,0,-1,573,1611,0,0
-644,-587,0,0,0,0,0,0,0,0,0,-1,580,1611,0,0
-637,-587,0,0,0,0,0,0,0,0,0,-1,587,1611,0,0
-630,-587,0,0,0,0,0,0,0,0,0,-1,594,1611,0,0
-623,-587,0,0,0,0,0,0,0,0,0,-1,601,1611,0,0
-616,-587,0,0,0,0,0,0,0,0,0,-1,608,1611,0,0
-609,-587,0,0,0,0,0,0,0,0,0,-1,615,1611,0,0
-602,-587,0,0,0,0,0,0,0,0,0,-1,622,1611,0,0
-595,-587,0,0,0,0,0,0,0,0,0,-1,629,1611,0,0
-588,-587,0,0,0,0,0,0,0,0,0,-1,636,1611,0,0
-581,-587,0,0,0,0,0,0,0,0,0,-1,643,1611,0,0
-574,-587,0,0,0,0,0,0,0,0,0,-1,650,1611,0,0
-567,-587,0,0,0,0,0,0,0,0,0,-1,657,1611,0,0
-560,-587,0,0,0,0,0,0,0,0,0,-1,664,1611,0,0
-553,-587,0,0,0,0,0,0,0,0,0,-1,671,1611,0,0
-546,-587,0,0,0,0,0,0,0,0,0,-1,678,1611,0,0
-539,-587,0,0,0,0,0,0,0,0,0,-1,685,1611,0,0
-532,-587,0,0,0,0,0,0,0,0,0,-1,692,1611,0,0
-525,-587,0,0,0,0,0,0,0,0,0,-1,699,1611,0,0
-518,-587,0,0,0,0,0,0,0,0,0,-1,706,1611,0,0
-511,-587,0,0,0,0,0,0,0,0,0,-1,713,1611,0,0
-504,-587,0,0,0,0,0,0,0,0,0,-1,720,1611,0,0
-497,-587,0,0,0,0,0,0,0,0,0,-1,727,1611,0,0
-490,-587,0,0,0,0,0,0,0,0,0,-1,734,1611,0,0
-483,-587,0,0,0,0,0,0,0,0,0,-1,741,1611,0,0
-476,-587,0,0,0,0,0,0,0,0,0,-1,748,1611,0,0
-469,-587,0,0,0,0,0,0,0,0,0,-1,755,1611,0,0
-462,-587,-0.714355,-0.418457,0,0,0,0,0,0,0,-1,762,1611,-0.714359,0.418483
-455,-587,-0.619812,-0.522461,0,0,0,0,0,0,0,-1,769,1611,-0.619802,0.522515
-448,-587,-0.461731,-0.686523,0,0,0,0,0,0,0,-1,776,1611,-0.461739,0.686559
-441,-587,-3.56555,2.72253,0,0,0,0,0,0,0,-1,783,1611,-3.56555,-2.72259
-434,-587,-1.77319,4.76318,0,0,0,0,0,0,0,-1,790,1611,-1.77318,-4.76323
-427,-587,0.0346069,6.92944,0,0,0,0,0,0,0,-1,797,1611,0.034587,-6.92941
-420,-587,-0.647156,10.1157,0,0,0,0,0,0,0,-1,804,1611,-0.647128,-10.1158
-413,-587,2.13971,10.3901,0,0,0,0,0,0,0,-1,811,1611,2.13971,-10.3902
-406,-587,2.2525,19.7814,0,0,0,0,0,0,0,-1,818,1611,2.25253,-19.7814
-399,-587,-0.302368,30.8136,0,0,0,0,0,0,0,-1,825,1611,-0.302347,-30.8136
-392,-587,-0.411011,31.5497,0,0,0,0,0,0,0,-1,832,1611,-0.41103,-31.5497
-385,-587,-0.435547,32.3048,-0.0020054,-0.00264494,6.636e-05,-0.00199858,-0.00265175,0.102309,0.00159532,0.0269905,839,1611,-0.435547,-32.3048
-378,-587,-0.447083,33.0552,-0.00135508,-0.00192874,0.00039636,-0.00115265,-0.00213117,0.472185,0.0012318,0.0147578,846,1611,-0.447059,-33.0551
-371,-587,-0.472351,33.7782,-0.000885661,-0.00148011,0.000469327,-0.000627358,-0.00173841,0.503125,0.00101654,0.0145099,853,1611,-0.472367,-33.7782
-364,-587,-0.459717,34.4508,-0.000385278,-0.000928805,0.000601192,2.72098e-06,-0.0013168,0.573123,0.000878778,0.0174784,860,1611,-0.459696,-34.4508
-357,-587,-0.497253,35.0779,0.000235691,-0.000312323,0.000780623,0.000789,-0.000865632,0.616611,0.000955644,0.0165204,867,1611,-0.497278,-35.0778
-350,-587,-0.534973,35.8002,0.000984703,0.000274695,0.00096445,0.00165741,-0.000398013,0.609049,0.00125876,0.0102018,874,1611,-0.535,-35.8002
-343,-587,-0.56543,36.4744,0.00174573,0.0010044,0.00122789,0.00265768,9.24442e-05,0.638814,0.00174179,0.0135344,881,1611,-0.565429,-36.4743
-336,-587,-0.588257,37.1108,0.00253774,0.00193048,0.00162967,0.00389182,0.000576395,0.693297,0.00242536,0.0137028,888,1611,-0.588234,-37.1108
-329,-587,-0.619873,37.7856,0.00334967,0.00291231,0.00203346,0.00517617,0.00108581,0.731834,0.00315182,0.0153085,895,1611,-0.6199,-37.7857
-322,-587,-0.620728,38.4702,0.00454315,0.00401971,0.00257214,0.00686684,0.00169601,0.734697,0.00413031,0.0182056,902,1611,-0.620702,-38.4703
-315,-587,-0.639587,39.0923,0.00608252,0.00548803,0.00357431,0.00937193,0.00219863,0.743913,0.00565927,0.0149731,909,1611,-0.639608,-39.0923
-308,-587,-0.675659,39.7466,0.00758261,0.00681496,0.00447112,0.0116863,0.00271122,0.742581,0.0070628,0.0157665,916,1611,-0.675645,-39.7466
-301,-587,-0.616577,40.4252,0.00957488,0.00821878,0.00566507,0.0146023,0.00319132,0.725837,0.00886471,0.0159955,923,1611,-0.616601,-40.4252
-294,-587,-0.545044,41.0909,0.0118457,0.009808,0.00700011,0.0179007,0.00375297,0.713132,0.0109003,0.0236261,930,1611,-0.54502,-41.091
-287,-587,-0.584717,41.8215,0.0149944,0.0119201,0.00885022,0.02244,0.00447453,0.699413,0.013714,0.0361548,937,1611,-0.584723,-41.8215
-280,-587,-0.419128,42.8645,0,0,0,0,0,0,0,-1,944,1611,-0.419132,-42.8645
-273,-587,-0.274231,43.465,0,0,0,0,0,0,0,-1,951,1611,-0.274244,-43.465
-266,-587,-0.190063,43.8904,0,0,0,0,0,0,0,-1,958,1611,-0.19006,-43.8904
-259,-587,0.069519,44.2048,0,0,0,0,0,0,0,-1,965,1611,0.069495,-44.2048
-252,-587,1.30188,10.3103,0,0,0,0,0,0,0,-1,972,1611,1.30188,-10.3104
-245,-587,1.52075,27.4791,0,0,0,0,0,0,0,-1,979,1611,1.52076,-27.4791
-238,-587,2.87799,9.53821,0,0,0,0,0,0,0,-1,986,1611,2.87797,-9.53823
-231,-587,2.49548,9.14465,0,0,0,0,0,0,0,-1,993,1611,2.49551,-9.14468
-224,-587,-9.72528,9.21069,0,0,0,0,0,0,0,-1,1000,1611,-9.72529,-9.21072
-217,-587,-7.07495,10.7847,0,0,0,0,0,0,0,-1,1007,1611,-7.07495,-10.7847
-210,-587,-4.72308,12.5889,0,0,0,0,0,0,0,-1,1014,1611,-4.72307,-12.5888
-203,-587,-3.2583,13.7289,0,0,0,0,0,0,0,-1,1021,1611,-3.25828,-13.7289
-196,-587,-1.953,14.8145,0,0,0,0,0,0,0,-1,1028,1611,-1.95302,-14.8144
-189,-587,-3.04138,8.66638,0,0,0,0,0,0,0,-1,1035,1611,-3.04136,-8.66635
-182,-587,-3.97095,9.7146,0,0,0,0,0,0,0,-1,1042,1611,-3.97093,-9.71461
-175,-587,-4.80969,8.37878,0,0,0,0,0,0,0,-1,1049,1611,-4.80964,-8.37883
-168,-587,-5.91394,8.72546,0,0,0,0,0,0,0,-1,1056,1611,-5.91398,-8.72542
-161,-587,-7.06946,8.88501,0,0,0,0,0,0,0,-1,1063,1611,-7.06947,-8.885
-154,-587,-2.24731,6.56519,0,0,0,0,0,0,0,-1,1070,1611,-2.24728,-6.56517
-147,-587,0,0,0,0,0,0,0,0,0,-1,1077,1611,0,0
-140,-587,0,0,0,0,0,0,0,0,0,-1,1084,1611,0,0
-133,-587,0,0,0,0,0,0,0,0,0,-1,1091,1611,0,0
-126,-587,0,0,0,0,0,0,0,0,0,-1,1098,1611,0,0
-119,-587,0,0,0,0,0,0,0,0,0,-1,1105,1611,0,0
-112,-587,0,0,0,0,0,0,0,0,0,-1,1112,1611,0,0
-105,-587,0,0,0,0,0,0,0,0,0,-1,1119,1611,0,0
-98,-587,0,0,0,0,0,0,0,0,0,-1,1126,1611,0,0
-91,-587,0,0,0,0,0,0,0,0,0,-1,1133,1611,0,0
-84,-587,0,0,0,0,0,0,0,0,0,-1,1140,1611,0,0
-77,-587,0,0,0,0,0,0,0,0,0,-1,1147,1611,0,0
-70,-587,0,0,0,0,0,0,0,0,0,-1,1154,1611,0,0
-63,-587,0,0,0,0,0,0,0,0,0,-1,1161,1611,0,0
-56,-587,0,0,0,0,0,0,0,0,0,-1,1168,1611,0,0
-49,-587,0,0,0,0,0,0,0,0,0,-1,1175,1611,0,0
-42,-587,0,0,0,0,0,0,0,0,0,-1,1182,1611,0,0
-35,-587,0,0,0,0,0,0,0,0,0,-1,1189,1611,0,0
-28,-587,0,0,0,0,0,0,0,0,0,-1,1196,1611,0,0
-21,-587,0,0,0,0,0,0,0,0,0,-1,1203,1611,0,0
-14,-587,0,0,0,0,0,0,0,0,0,-1,1210,1611,0,0
-7,-587,0,0,0,0,0,0,0,0,0,-1,1217,1611,0,0
0,-587,0,0,0,0,0,0,0,0,0,-1,1224,1611,0,0
7,-587,0,0,0,0,0,0,0,0,0,-1,1231,1611,0,0
14,-587,0,0,0,0,0,0,0,0,0,-1,1238,1611,0,0
21,-587,0,0,0,0,0,0,0,0,0,-1,1245,1611,0,0
28,-587,0,0,0,0,0,0,0,0,0,-1,1252,1611,0,0
35,-587,0,0,0,0,0,0,0,0,0,-1,1259,1611,0,0
42,-587,0,0,0,0,0,0,0,0,0,-1,1266,1611,0,0
49,-587,0,0,0,0,0,0,0,0,0,-1,1273,1611,0,0
56,-587,0,0,0,0,0,0,0,0,0,-1,1280,1611,0,0
63,-587,0,0,0,0,0,0,0,0,0,-1,1287,1611,0,0
70,-587,0,0,0,0,0,0,0,0,0,-1,1294,1611,0,0
77,-587,0,0,0,0,0,0,0,0,0,-1,1301,1611,0,0
84,-587,0,0,0,0,0,0,0,0,0,-1,1308,1611,0,0
91,-587,0,0,0,0,0,0,0,0,0,-1,1315,1611,0,0
98,-587,0,0,0,0,0,0,0,0,0,-1,1322,1611,0,0
105,-587,0,0,0,0,0,0,0,0,0,-1,1329,1611,0,0
112,-587,0,0,0,0,0,0,0,0,0,-1,1336,1611,0,0
119,-587,0,0,0,0,0,0,0,0,0,-1,1343,1611,0,0
126,-587,0,0,0,0,0,0,0,0,0,-1,1350,1611,0,0
133,-587,0,0,0,0,0,0,0,0,0,-1,1357,1611,0,0
140,-587,0,0,0,0,0,0,0,0,0,-1,1364,1611,0,0
147,-587,0,0,0,0,0,0,0,0,0,-1,1371,1611,0,0
154,-587,0,0,0,0,0,0,0,0,0,-1,1378,1611,0,0
161,-587,0,0,0,0,0,0,0,0,0,-1,1385,1611,0,0
168,-587,0,0,0,0,0,0,0,0,0,-1,1392,1611,0,0
175,-587,0,0,0,0,0,0,0,0,0,-1,1399,1611,0,0
182,-587,0,0,0,0,0,0,0,0,0,-1,1406,1611,0,0
189,-587,0,0,0,0,0,0,0,0,0,-1,1413,1611,0,0
196,-587,0,0,0,0,0,0,0,0,0,-1,1420,1611,0,0
203,-587,0,0,0,0,0,0,0,0,0,-1,1427,1611,0,0
210,-587,0,0,0,0,0,0,0,0,0,-1,1434,1611,0,0
217,-587,0,0,0,0,0,0,0,0,0,-1,1441,1611,0,0
224,-587,0,0,0,0,0,0,0,0,0,-1,1448,1611,0,0
231,-587,0,0,0,0,0,0,0,0,0,-1,1455,1611,0,0
238,-587,0,0,0,0,0,0,0,0,0,-1,1462,1611,0,0
245,-587,0,0,0,0,0,0,0,0,0,-1,1469,1611,0,0
252,-587,0,0,0,0,0,0,0,0,0,-1,1476,1611,0,0
259,-587,0,0,0,0,0,0,0,0,0,-1,1483,1611,0,0
266,-587,0,0,0,0,0,0,0,0,0,-1,1490,1611,0,0
273,-587,10.2936,6.35083,0,0,0,0,0,0,0,-1,1497,1611,10.2936,-6.35087
280,-587,2.09204,1.1217,0,0,0,0,0,0,0,-1,1504,1611,2.092,-1.12176
287,-587,3.2865,0.671509,0,0,0,0,0,0,0,-1,1511,1611,3.28656,-0.671538
294,-587,4.24646,1.58765,0,0,0,0,0,0,0,-1,1518,1611,4.24648,-1.58761
301,-587,7.60474,8.37085,0,0,0,0,0,0,0,-1,1525,1611,7.60478,-8.37084
308,-587,5.99316,10.2291,0,0,0,0,0,0,0,-1,1532,1611,5.99315,-10.2291
315,-587,4.34558,12.3289,0,0,0,0,0,0,0,-1,1539,1611,4.34556,-12.3288
322,-587,10.4526,6.38245,0,0,0,0,0,0,0,-1,1546,1611,10.4526,-6.38245
329,-587,10.7738,8.42444,0,0,0,0,0,0,0,-1,1553,1611,10.7738,-8.42438
336,-587,7.5531,5.96619,0,0,0,0,0,0,0,-1,1560,1611,7.55311,-5.96617
343,-587,9.57495,4.38391,0,0,0,0,0,0,0,-1,1567,1611,9.57494,-4.38397
350,-587,9.50378,3.45093,0,0,0,0,0,0,0,-1,1574,1611,9.50376,-3.4509
357,-587,9.40027,2.50806,0,0,0,0,0,0,0,-1,1581,1611,9.40022,-2.50803
364,-587,9.26477,1.34131,0,0,0,0,0,0,0,-1,1588,1611,9.26479,-1.34126
371,-587,6.98926,7.87561,0,0,0,0,0,0,0,-1,1595,1611,6.98928,-7.87564
378,-587,9.25146,13.8358,0,0,0,0,0,0,0,-1,1602,1611,9.2515,-13.8359
385,-587,16.5306,40.6755,0,0,0,0,0,0,0,-1,1609,1611,16.5307,-40.6755
392,-587,19.5024,43.9824,0,0,0,0,0,0,0,-1,1616,1611,19.5024,-43.9824
399,-587,19.2388,43.4675,-0.0138296,0.0203461,0.00699783,0.0217235,-0.015207,1.37645,0.0214322,0.0495266,1623,1611,19.2388,-43.4675
406,-587,18.7719,42.9082,-0.0110439,0.0187348,0.00473944,0.0194709,-0.01178,1.41671,0.0182239,0.040517,1630,1611,18.7719,-42.9082
413,-587,18.6339,42.3276,-0.00807652,0.0179049,0.00215878,0.0180831,-0.00825466,1.48846,0.015555,0.034708,1637,1611,18.6339,-42.3276
420,-587,18.6229,41.5852,-0.00544286,0.0169102,2.2291e-05,0.0169102,-0.00544288,1.5698,0.0134598,0.0362135,1644,1611,18.6229,-41.5851
427,-587,18.6422,41.0004,-0.00318455,0.0157659,-0.00155729,0.0158931,-0.00331167,-1.48935,0.0118545,0.0297839,1651,1611,18.6422,-41.0004
434,-587,18.6335,40.213,-0.00131136,0.0145336,-0.0027872,0.0150095,-0.00178735,-1.40165,0.0106522,0.0222129,1658,1611,18.6335,-40.213
441,-587,18.6173,39.4877,0.000174744,0.0127524,-0.00364178,0.0137308,-0.000803608,-1.30835,0.00943313,0.0256002,1665,1611,18.6173,-39.4877
448,-587,18.6425,39.0237,0.0012919,0.0109296,-0.00403231,0.0123941,-0.000172628,-1.22241,0.00832089,0.0168257,1672,1611,18.6424,-39.0237
455,-587,18.6494,38.3942,0.00241745,0.00983908,-0.00440147,0.0118853,0.000371265,-1.13563,0.0078027,0.014795,1679,1611,18.6494,-38.3942
462,-587,18.5895,37.7371,0.00280764,0.00799887,-0.00436881,0.010485,0.000321551,-1.05344,0.00688529,0.0171568,1686,1611,18.5895,-37.7371
469,-587,18.5471,37.116,0.00253999,0.00605533,-0.00369048,0.00838533,0.000209987,-1.00764,0.00552156,0.0151853,1693,1611,18.5471,-37.116
476,-587,18.5326,36.4918,0.00213419,0.00438195,-0.00296417,0.00642815,8.79872e-05,-0.966602,0.00425641,0.0109446,1700,1611,18.5326,-36.4919
483,-587,18.4808,35.8385,0.00166948,0.00278471,-0.00225973,0.00455461,-0.000100416,-0.906362,0.00307043,0.014267,1707,1611,18.4809,-35.8385
490,-587,18.4434,35.1951,0.00119482,0.00131067,-0.00159382,0.00284762,-0.00034213,-0.803562,0.00202213,0.0172029,1714,1611,18.4434,-35.1951
497,-587,18.4178,34.547,0.000640135,0.000300203,-0.00105889,0.00154261,-0.000602272,-0.70582,0.0012774,0.0135393,1721,1611,18.4179,-34.547
504,-587,18.3632,33.924,5.855e-05,-0.00066833,-0.000550436,0.000354707,-0.000964487,-0.493615,0.000788293,0.012886,1728,1611,18.3631,-33.924
511,-587,18.3484,33.277,-0.000623245,-0.00164543,0.000166902,-0.000596683,-0.001672,0.15782,0.000978422,0.0153368,1735,1611,18.3484,-33.2769
518,-587,18.3596,32.5852,-0.00121099,-0.00234151,0.0006946,-0.000880711,-0.00267179,0.443852,0.00157212,0.0157273,1742,1611,18.3597,-32.5853
525,-587,18.4009,31.9901,-0.00191001,-0.00332753,0.00150649,-0.00095388,-0.00428366,0.565525,0.00259688,0.0290214,1749,1611,18.4009,-31.9901
532,-587,18.3676,31.2506,0,0,0,0,0,0,0,-1,1756,1611,18.3675,-31.2506
539,-587,19.5343,30.6699,0,0,0,0,0,0,0,-1,1763,1611,19.5343,-30.6699
546,-587,17.6716,25.2673,0,0,0,0,0,0,0,-1,1770,1611,17.6716,-25.2674
553,-587,7.5813,8.45068,0,0,0,0,0,0,0,-1,1777,1611,7.58125,-8.45068
560,-587,4.21179,5.23547,0,0,0,0,0,0,0,-1,1784,1611,4.21185,-5.23553
567,-587,4.03711,5.46387,0,0,0,0,0,0,0,-1,1791,1611,4.03715,-5.46382
574,-587,3.83142,5.68884,0,0,0,0,0,0,0,-1,1798,1611,3.83141,-5.68881
581,-587,3.47168,6.00977,0,0,0,0,0,0,0,-1,1805,1611,3.47167,-6.00983
588,-587,0,0,0,0,0,0,0,0,0,-1,1812,1611,0,0
595,-587,0,0,0,0,0,0,0,0,0,-1,1819,1611,0,0
602,-587,0,0,0,0,0,0,0,0,0,-1,1826,1611,0,0
609,-587,0,0,0,0,0,0,0,0,0,-1,1833,1611,0,0
616,-587,0,0,0,0,0,0,0,0,0,-1,1840,1611,0,0
623,-587,0,0,0,0,0,0,0,0,0,-1,1847,1611,0,0
630,-587,0,0,0,0,0,0,0,0,0,-1,1854,1611,0,0
637,-587,0,0,0,0,0,0,0,0,0,-1,1861,1611,0,0
644,-587,0,0,0,0,0,0,0,0,0,-1,1868,1611,0,0
651,-587,0,0,0,0,0,0,0,0,0,-1,1875,1611,0,0
658,-587,0,0,0,0,0,0,0,0,0,-1,1882,1611,0,0
665,-587,0,0,0,0,0,0,0,0,0,-1,1889,1611,0,0
672,-587,0,0,0,0,0,0,0,0,0,-1,1896,1611,0,0
679,-587,0,0,0,0,0,0,0,0,0,-1,1903,1611,0,0
686,-587,0,0,0,0,0,0,0,0,0,-1,1910,1611,0,0
693,-587,0,0,0,0,0,0,0,0,0,-1,1917,1611,0,0
700,-587,0,0,0,0,0,0,0,0,0,-1,1924,1611,0,0
707,-587,0,0,0,0,0,0,0,0,0,-1,1931,1611,0,0
714,-587,0,0,0,0,0,0,0,0,0,-1,1938,1611,0,0
721,-587,0,0,0,0,0,0,0,0,0,-1,1945,1611,0,0
728,-587,0,0,0,0,0,0,0,0,0,-1,1952,1611,0,0
735,-587,0,0,0,0,0,0,0,0,0,-1,1959,1611,0,0
742,-587,0,0,0,0,0,0,0,0,0,-1,1966,1611,0,0
749,-587,0,0,0,0,0,0,0,0,0,-1,1973,1611,0,0
756,-587,0,0,0,0,0,0,0,0,0,-1,1980,1611,0,0
763,-587,0,0,0,0,0,0,0,0,0,-1,1987,1611,0,0
770,-587,0,0,0,0,0,0,0,0,0,-1,1994,1611,0,0
777,-587,0,0,0,0,0,0,0,0,0,-1,2001,1611,0,0
784,-587,0,0,0,0,0,0,0,0,0,-1,2008,1611,0,0
791,-587,0,0,0,0,0,0,0,0,0,-1,2015,1611,0,0
798,-587,0,0,0,0,0,0,0,0,0,-1,2022,1611,0,0
805,-587,0,0,0,0,0,0,0,0,0,-1,2029,1611,0,0
812,-587,0,0,0,0,0,0,0,0,0,-1,2036,1611,0,0
-700,-594,0,0,0,0,0,0,0,0,0,-1,524,1618,0,0
-693,-594,0,0,0,0,0,0,0,0,0,-1,531,1618,0,0
-686,-594,0,0,0,0,0,0,0,0,0,-1,538,1618,0,0
-679,-594,0,0,0,0,0,0,0,0,0,-1,545,1618,0,0
-672,-594,0,0,0,0,0,0,0,0,0,-1,552,1618,0,0
-665,-594,0,0,0,0,0,0,0,0,0,-1,559,1618,0,0
-658,-594,0,0,0,0,0,0,0,0,0,-1,566,1618,0,0
-651,-594,0,0,0,0,0,0,0,0,0,-1,573,1618,0,0
-644,-594,0,0,0,0,0,0,0,0,0,-1,580,1618,0,0
-637,-594,0,0,0,0,0,0,0,0,0,-1,587,1618,0,0
-630,-594,0,0,0,0,0,0,0,0,0,-1,594,1618,0,0
-623,-594,0,0,0,0,0,0,0,0,0,-1,601,1618,0,0
-616,-594,0,0,0,0,0,0,0,0,0,-1,608,1618,0,0
-609,-594,0,0,0,0,0,0,0,0,0,-1,615,1618,0,0
-602,-594,0,0,0,0,0,0,0,0,0,-1,622,1618,0,0
-595,-594,0,0,0,0,0,0,0,0,0,-1,629,1618,0,0
-588,-594,0,0,0,0,0,0,0,0,0,-1,636,1618,0,0
-581,-594,0,0,0,0,0,0,0,0,0,-1,643,1618,0,0
-574,-594,0,0,0,0,0,0,0,0,0,-1,650,1618,0,0
-567,-594,0,0,0,0,0,0,0,0,0,-1,657,1618,0,0
-560,-594,0,0,0,0,0,0,0,0,0,-1,664,1618,0,0
-553,-594,0,0,0,0,0,0,0,0,0,-1,671,1618,0,0
-546,-594,0,0,0,0,0,0,0,0,0,-1,678,1618,0,0
-539,-594,0,0,0,0,0,0,0,0,0,-1,685,1618,0,0
-532,-594,0,0,0,0,0,0,0,0,0,-1,692,1618,0,0
-525,-594,0,0,0,0,0,0,0,0,0,-1,699,1618,0,0
-518,-594,0,0,0,0,0,0,0,0,0,-1,706,1618,0,0
-511,-594,0,0,0,0,0,0,0,0,0,-1,713,1618,0,0
-504,-594,0,0,0,0,0,0,0,0,0,-1,720,1618,0,0
-497,-594,0,0,0,0,0,0,0,0,0,-1,727,1618,0,0
-490,-594,0,0,0,0,0,0,0,0,0,-1,734,1618,0,0
-483,-594,0,0,0,0,0,0,0,0,0,-1,741,1618,0,0
-476,-594,0,0,0,0,0,0,0,0,0,-1,748,1618,0,0
-469,-594,0,0,0,0,0,0,0,0,0,-1,755,1618,0,0
-462,-594,0,0,0,0,0,0,0,0,0,-1,762,1618,0,0
-455,-594,-0.509216,-1.58411,0,0,0,0,0,0,0,-1,769,1618,-0.509245,1.58415
-448,-594,-7.71887,-0.0559082,0,0,0,0,0,0,0,-1,776,1618,-7.71885,0.055939
-441,-594,-5.78473,1.18298,0,0,0,0,0,0,0,-1,783,1618,-5.78474,-1.18295
-434,-594,-3.93628,3.06213,0,0,0,0,0,0,0,-1,790,1618,-3.93631,-3.06208
-427,-594,-3.97693,6.77759,0,0,0,0,0,0,0,-1,797,1618,-3.97695,-6.77764
-420,-594,-2.53046,7.71606,0,0,0,0,0,0,0,-1,804,1618,-2.53047,-7.71609
-413,-594,-0.860413,8.00391,0,0,0,0,0,0,0,-1,811,1618,-0.860423,-8.00389
-406,-594,2.45746,13.6218,0,0,0,0,0,0,0,-1,818,1618,2.45747,-13.6218
-399,-594,1.30414,24.9963,0,0,0,0,0,0,0,-1,825,1618,1.30415,-24.9963
-392,-594,0.381836,32.1057,0,0,0,0,0,0,0,-1,832,1618,0.381844,-32.1057
-385,-594,0.299255,32.6033,-0.00279941,-0.00427613,-0.000124626,-0.00278896,-0.00428657,-0.0836058,0.00251201,0.0417704,839,1618,0.299238,-32.6033
-378,-594,0.190247,33.0728,-0.00211916,-0.00342471,0.000261514,-0.00206872,-0.00347514,0.19052,0.00201848,0.0192051,846,1618,0.190233,-33.0728
-371,-594,0.216125,33.813,-0.00168227,-0.00291433,0.000356754,-0.00158642,-0.00301018,0.262461,0.00173877,0.0133513,853,1618,0.216111,-33.813
-364,-594,0.216797,34.4899,-0.00121399,-0.0023545,0.000476351,-0.00104121,-0.00252728,0.347958,0.00146664,0.0108827,860,1618,0.216808,-34.4899
-357,-594,0.186462,35.1552,-0.000603985,-0.00171456,0.000636332,-0.000314724,-0.00200382,0.426653,0.00124431,0.0108661,867,1618,0.186439,-35.1552
-350,-594,0.130432,35.8363,0.000111001,-0.00108647,0.000795293,0.000507743,-0.00148321,0.462738,0.00119458,0.0156713,874,1618,0.130435,-35.8362
-343,-594,0.0820923,36.506,0.000838955,-0.000315205,0.00100502,0.00142079,-0.000897042,0.524783,0.00134954,0.0185095,881,1618,0.0820903,-36.506
-336,-594,0.0344849,37.1644,0.00156993,0.000627072,0.0013103,0.00249103,-0.000294028,0.612715,0.00176687,0.016016,888,1618,0.0344998,-37.1644
-329,-594,0.0251465,37.8271,0.00230001,0.00166165,0.00163076,0.00364254,0.000319128,0.688758,0.00232928,0.0152094,895,1618,0.025159,-37.8271
-322,-594,0.0509033,38.5032,0.00328753,0.00272827,0.00204175,0.00506871,0.000947095,0.717344,0.00311186,0.0168762,902,1618,0.0509084,-38.5032
-315,-594,0.0350342,39.1128,0.0045402,0.0040086,0.00280279,0.00708976,0.00145904,0.738122,0.00432303,0.0173171,909,1618,0.035048,-39.1129
-308,-594,-0.00549316,39.761,0.00579216,0.0051597,0.00346702,0.00895734,0.00199452,0.739919,0.00543022,0.0159573,916,1618,-0.00546438,-39.761
-301,-594,-0.0342407,40.3611,0.00740695,0.006319,0.00434129,0.0112382,0.00248774,0.723071,0.00681595,0.0128589,923,1618,-0.0342697,-40.3611
-294,-594,0.00280762,40.9886,0.00918957,0.0075548,0.00529868,0.0137335,0.00301083,0.70887,0.00833535,0.0134359,930,1618,0.00278903,-40.9887
-287,-594,-0.0581665,41.6179,0.0115551,0.00907394,0.006581,0.0170114,0.00361762,0.692236,0.0103481,0.0198273,937,1618,-0.0581612,-41.6179
-280,-594,-0.098938,42.3378,0,0,0,0,0,0,0,-1,944,1618,-0.0989557,-42.3378
-273,-594,0.0228882,43.0387,0.0176525,0.0120076,0.0095193,0.024759,0.00490112,0.641276,0.0151391,0.0291395,951,1618,0.0229186,-43.0386
-266,-594,0.457153,43.816,0.021116,0.0131447,0.01108,0.0289054,0.00535527,0.612746,0.0177564,0.0367289,958,1618,0.45713,-43.816
-259,-594,0.636841,44.4978,0,0,0,0,0,0,0,-1,965,1618,0.636817,-44.4978
-252,-594,0.953491,44.1974,0,0,0,0,0,0,0,-1,972,1618,0.953496,-44.1973
-245,-594,2.27759,35.1766,0,0,0,0,0,0,0,-1,979,1618,2.27756,-35.1766
-238,-594,2.09015,28.0121,0,0,0,0,0,0,0,-1,986,1618,2.09012,-28.0121
-231,-594,1.93774,9.35388,0,0,0,0,0,0,0,-1,993,1618,1.93776,-9.35393
-224,-594,1.81824,8.62744,0,0,0,0,0,0,0,-1,1000,1618,1.81822,-8.62745
-217,-594,-8.24066,12.0752,0,0,0,0,0,0,0,-1,1007,1618,-8.24068,-12.0751
-210,-594,-5.61438,14.2119,0,0,0,0,0,0,0,-1,1014,1618,-5.6144,-14.212
-203,-594,-3.94507,15.5768,0,0,0,0,0,0,0,-1,1021,1618,-3.94506,-15.5768
-196,-594,2.78613,10.5815,0,0,0,0,0,0,0,-1,1028,1618,2.78612,-10.5815
-189,-594,2.60913,9.48865,0,0,0,0,0,0,0,-1,1035,1618,2.6091,-9.48871
-182,-594,1.2395,9.38806,0,0,0,0,0,0,0,-1,1042,1618,1.23951,-9.38804
-175,-594,0.234863,8.73792,0,0,0,0,0,0,0,-1,1049,1618,0.234812,-8.73786
-168,-594,-0.495483,8.46289,0,0,0,0,0,0,0,-1,1056,1618,-0.495513,-8.46285
-161,-594,-1.39734,8.28699,0,0,0,0,0,0,0,-1,1063,1618,-1.39729,-8.28699
-154,-594,-0.000854492,7.68445,0,0,0,0,0,0,0,-1,1070,1618,-0.000805755,-7.6845
-147,-594,0.348267,9.3385,0,0,0,0,0,0,0,-1,1077,1618,0.348237,-9.33849
-140,-594,0.675171,11.5884,0,0,0,0,0,0,0,-1,1084,1618,0.675204,-11.5884
-133,-594,0,0,0,0,0,0,0,0,0,-1,1091,1618,0,0
-126,-594,0,0,0,0,0,0,0,0,0,-1,1098,1618,0,0
-119,-594,0,0,0,0,0,0,0,0,0,-1,1105,1618,0,0
-112,-594,0,0,0,0,0,0,0,0,0,-1,1112,1618,0,0
-105,-594,0,0,0,0,0,0,0,0,0,-1,1119,1618,0,0
-98,-594,0,0,0,0,0,0,0,0,0,-1,1126,1618,0,0
-91,-594,0,0,0,0,0,0,0,0,0,-1,1133,1618,0,0
-84,-594,0,0,0,0,0,0,0,0,0,-1,1140,1618,0,0
-77,-594,0,0,0,0,0,0,0,0,0,-1,1147,1618,0,0
-70,-594,0,0,0,0,0,0,0,0,0,-1,1154,1618,0,0
-63,-594,0,0,0,0,0,0,0,0,0,-1,1161,1618,0,0
-56,-594,0,0,0,0,0,0,0,0,0,-1,1168,1618,0,0
-49,-594,0,0,0,0,0,0,0,0,0,-1,1175,1618,0,0
-42,-594,0,0,0,0,0,0,0,0,0,-1,1182,1618,0,0
-35,-594,0,0,0,0,0,0,0,0,0,-1,1189,1618,0,0
-28,-594,0,0,0,0,0,0,0,0,0,-1,1196,1618,0,0
-21,-594,0,0,0,0,0,0,0,0,0,-1,1203,1618,0,0
-14,-594,0,0,0,0,0,0,0,0,0,-1,1210,1618,0,0
-7,-594,0,0,0,0,0,0,0,0,0,-1,1217,1618,0,0
0,-594,0,0,0,0,0,0,0,0,0,-1,1224,1618,0,0
7,-594,0,0,0,0,0,0,0,0,0,-1,1231,1618,0,0
14,-594,0,0,0,0,0,0,0,0,0,-1,1238,1618,0,0
21,-594,0,0,0,0,0,0,0,0,0,-1,1245,1618,0,0
28,-594,0,0,0,0,0,0,0,0,0,-1,1252,1618,0,0
35,-594,0,0,0,0,0,0,0,0,0,-1,1259,1618,0,0
42,-594,0,0,0,0,0,0,0,0,0,-1,1266,1618,0,0
49,-594,0,0,0,0,0,0,0,0,0,-1,1273,1618,0,0
56,-594,0,0,0,0,0,0,0,0,0,-1,1280,1618,0,0
63,-594,0,0,0,0,0,0,0,0,0,-1,1287,1618,0,0
70,-594,0,0,0,0,0,0,0,0,0,-1,1294,1618,0,0
77,-594,0,0,0,0,0,0,0,0,0,-1,1301,1618,0,0
84,-594,0,0,0,0,0,0,0,0,0,-1,1308,1618,0,0
91,-594,0,0,0,0,0,0,0,0,0,-1,1315,1618,0,0
98,-594,0,0,0,0,0,0,0,0,0,-1,1322,1618,0,0
105,-594,0,0,0,0,0,0,0,0,0,-1,1329,1618,0,0
112,-594,0,0,0,0,0,0,0,0,0,-1,1336,1618,0,0
119,-594,0,0,0,0,0,0,0,0,0,-1,1343,1618,0,0
126,-594,0,0,0,0,0,0,0,0,0,-1,1350,1618,0,0
133,-594,0,0,0,0,0,0,0,0,0,-1,1357,1618,0,0
140,-594,0,0,0,0,0,0,0,0,0,-1,1364,1618,0,0
147,-594,0,0,0,0,0,0,0,0,0,-1,1371,1618,0,0
154,-594,0,0,0,0,0,0,0,0,0,-1,1378,1618,0,0
161,-594,0,0,0,0,0,0,0,0,0,-1,1385,1618,0,0
168,-594,0,0,0,0,0,0,0,0,0,-1,1392,1618,0,0
175,-594,0,0,0,0,0,0,0,0,0,-1,1399,1618,0,0
182,-594,0,0,0,0,0,0,0,0,0,-1,1406,1618,0,0
189,-594,0,0,0,0,0,0,0,0,0,-1,1413,1618,0,0
196,-594,0,0,0,0,0,0,0,0,0,-1,1420,1618,0,0
203,-594,0,0,0,0,0,0,0,0,0,-1,1427,1618,0,0
210,-594,0,0,0,0,0,0,0,0,0,-1,1434,1618,0,0
217,-594,0,0,0,0,0,0,0,0,0,-1,1441,1618,0,0
224,-594,0,0,0,0,0,0,0,0,0,-1,1448,1618,0,0
231,-594,0,0,0,0,0,0,0,0,0,-1,1455,1618,0,0
238,-594,0,0,0,0,0,0,0,0,0,-1,1462,1618,0,0
245,-594,0,0,0,0,0,0,0,0,0,-1,1469,1618,0,0
252,-594,3.03674,1.20996,0,0,0,0,0,0,0,-1,1476,1618,3.0368,-1.20999
259,-594,4.79834,1.53113,0,0,0,0,0,0,0,-1,1483,1618,4.79837,-1.53118
266,-594,3.71606,2.68152,0,0,0,0,0,0,0,-1,1490,1618,3.71609,-2.68149
273,-594,9.7655,6.33557,0,0,0,0,0,0,0,-1,1497,1618,9.76555,-6.33554
280,-594,3.13281,0.911255,0,0,0,0,0,0,0,-1,1504,1618,3.13277,-0.911207
287,-594,4.42749,1.51563,0,0,0,0,0,0,0,-1,1511,1618,4.42747,-1.51564
294,-594,5.36475,3.34937,0,0,0,0,0,0,0,-1,1518,1618,5.36475,-3.3494
301,-594,7.97144,9.04333,0,0,0,0,0,0,0,-1,1525,1618,7.9714,-9.04328
308,-594,6.30347,10.4633,0,0,0,0,0,0,0,-1,1532,1618,6.30351,-10.4633
315,-594,4.62012,11.934,0,0,0,0,0,0,0,-1,1539,1618,4.62006,-11.934
322,-594,2.91528,13.3134,0,0,0,0,0,0,0,-1,1546,1618,2.91523,-13.3133
329,-594,4.19861,9.77258,0,0,0,0,0,0,0,-1,1553,1618,4.19865,-9.77264
336,-594,10.1353,4.66528,0,0,0,0,0,0,0,-1,1560,1618,10.1353,-4.66533
343,-594,10.5729,3.71228,0,0,0,0,0,0,0,-1,1567,1618,10.5729,-3.71232
350,-594,10.219,2.98792,0,0,0,0,0,0,0,-1,1574,1618,10.219,-2.98797
357,-594,9.83154,1.96326,0,0,0,0,0,0,0,-1,1581,1618,9.8315,-1.96321
364,-594,9.74939,0.700562,0,0,0,0,0,0,0,-1,1588,1618,9.74939,-0.700615
371,-594,8.54297,14.3988,0,0,0,0,0,0,0,-1,1595,1618,8.54296,-14.3989
378,-594,17.493,44.5687,0,0,0,0,0,0,0,-1,1602,1618,17.493,-44.5687
385,-594,18.418,45.2924,0,0,0,0,0,0,0,-1,1609,1618,18.418,-45.2923
392,-594,18.1145,43.9164,0,0,0,0,0,0,0,-1,1616,1618,18.1144,-43.9164
399,-594,18.1421,43.3635,-0.00870595,0.0183079,0.00422494,0.0189532,-0.00935131,1.41922,0.0166521,0.0434048,1623,1618,18.1421,-43.3635
406,-594,18.0375,42.7843,-0.00694763,0.0162643,0.00288588,0.0166177,-0.00730104,1.44894,0.0141544,0.0266186,1630,1618,18.0375,-42.7843
413,-594,18.0358,42.2096,-0.0050643,0.0147278,0.0013321,0.0148171,-0.00515355,1.50389,0.0119716,0.0190723,1637,1618,18.0358,-42.2096
420,-594,18.0657,41.5912,-0.00338401,0.0133987,-2.51213e-05,0.0133987,-0.00338405,-1.5693,0.0102484,0.015695,1644,1618,18.0657,-41.5912
427,-594,18.0643,40.9595,-0.0019366,0.0120825,-0.00106362,0.0121627,-0.00201683,-1.4955,0.00885763,0.0136741,1651,1618,18.0644,-40.9595
434,-594,18.0127,40.3228,-0.000672321,0.0109375,-0.00197104,0.011263,-0.000997824,-1.40713,0.00786241,0.0196906,1658,1618,18.0128,-40.3227
441,-594,17.9818,39.6698,0.000375121,0.00942565,-0.00268535,0.0101624,-0.000361658,-1.30302,0.00689867,0.0186214,1665,1618,17.9818,-39.6698
448,-594,18.0082,39.0453,0.00118927,0.00793616,-0.00305662,0.00911497,1.04583e-05,-1.20271,0.00607316,0.0191012,1672,1618,18.0082,-39.0453
455,-594,17.98,38.3896,0.00198092,0.00702691,-0.00336993,0.00871366,0.00029417,-1.10673,0.00571357,0.0137852,1679,1618,17.9799,-38.3897
462,-594,17.9594,37.7521,0.00218971,0.00557131,-0.00336245,0.00764413,0.000116887,-1.01836,0.00505758,0.0134161,1686,1618,17.9593,-37.7521
469,-594,17.9318,37.1606,0.00193614,0.00402944,-0.00289636,0.00606246,-9.68783e-05,-0.958781,0.00407432,0.0121258,1693,1618,17.9318,-37.1607
476,-594,17.8958,36.53,0.00159087,0.00273589,-0.00236371,0.00459544,-0.000268677,-0.904215,0.003157,0.0128737,1700,1618,17.8958,-36.53
483,-594,17.8682,35.8705,0.00118052,0.00145241,-0.00184189,0.00316336,-0.000530431,-0.822234,0.00230614,0.015597,1707,1618,17.8681,-35.8705
490,-594,17.8204,35.2194,0.000713389,0.000326182,-0.00134443,0.00187808,-0.000838514,-0.713888,0.00160625,0.0140918,1714,1618,17.8204,-35.2194
497,-594,17.7963,34.5674,0.000194136,-0.000497184,-0.00093117,0.000841732,-0.00114478,-0.607676,0.00115135,0.0110357,1721,1618,17.7962,-34.5674
504,-594,17.7651,33.9221,-0.000337997,-0.00125913,-0.000497387,-0.000120687,-0.00147644,-0.411909,0.00094663,0.0114757,1728,1618,17.7652,-33.9221
511,-594,17.7493,33.2356,-0.00103415,-0.00216456,0.000190621,-0.00100288,-0.00219584,0.162641,0.00126935,0.0166505,1735,1618,17.7493,-33.2355
518,-594,17.6785,32.5724,-0.00170923,-0.00282289,0.000736198,-0.00134299,-0.00318912,0.461619,0.00184886,0.0235695,1742,1618,17.6785,-32.5724
525,-594,17.5686,31.902,-0.00263603,-0.00385107,0.00172028,-0.00141914,-0.00506795,0.615657,0.0030189,0.0420205,1749,1618,17.5686,-31.902
532,-594,17.5887,31.2372,0,0,0,0,0,0,0,-1,1756,1618,17.5888,-31.2372
539,-594,21.0237,24.9617,0,0,0,0,0,0,0,-1,1763,1618,21.0237,-24.9616
546,-594,7.48645,8.54785,0,0,0,0,0,0,0,-1,1770,1618,7.48639,-8.54789
553,-594,3.69714,5.68762,0,0,0,0,0,0,0,-1,1777,1618,3.69715,-5.68764
560,-594,6.06616,4.44482,0,0,0,0,0,0,0,-1,1784,1618,6.06621,-4.44477
567,-594,5.97266,4.73303,0,0,0,0,0,0,0,-1,1791,1618,5.97271,-4.73309
574,-594,5.9906,4.96326,0,0,0,0,0,0,0,-1,1798,1618,5.99065,-4.96326
581,-594,0,0,0,0,0,0,0,0,0,-1,1805,1618,0,0
588,-594,0,0,0,0,0,0,0,0,0,-1,1812,1618,0,0
595,-594,0,0,0,0,0,0,0,0,0,-1,1819,1618,0,0
602,-594,0,0,0,0,0,0,0,0,0,-1,1826,1618,0,0
609,-594,0,0,0,0,0,0,0,0,0,-1,1833,1618,0,0
616,-594,0,0,0,0,0,0,0,0,0,-1,1840,1618,0,0
623,-594,0,0,0,0,0,0,0,0,0,-1,1847,1618,0,0
630,-594,0,0,0,0,0,0,0,0,0,-1,1854,1618,0,0
637,-594,0,0,0,0,0,0,0,0,0,-1,1861,1618,0,0
644,-594,0,0,0,0,0,0,0,0,0,-1,1868,1618,0,0
651,-594,0,0,0,0,0,0,0,0,0,-1,1875,1618,0,0
658,-594,0,0,0,0,0,0,0,0,0,-1,1882,1618,0,0
665,-594,0,0,0,0,0,0,0,0,0,-1,1889,1618,0,0
672,-594,0,0,0,0,0,0,0,0,0,-1,1896,1618,0,0
679,-594,0,0,0,0,0,0,0,0,0,-1,1903,1618,0,0
686,-594,0,0,0,0,0,0,0,0,0,-1,1910,1618,0,0
693,-594,0,0,0,0,0,0,0,0,0,-1,1917,1618,0,0
700,-594,0,0,0,0,0,0,0,0,0,-1,1924,1618,0,0
707,-594,0,0,0,0,0,0,0,0,0,-1,1931,1618,0,0
714,-594,0,0,0,0,0,0,0,0,0,-1,1938,1618,0,0
721,-594,0,0,0,0,0,0,0,0,0,-1,1945,1618,0,0
728,-594,0,0,0,0,0,0,0,0,0,-1,1952,1618,0,0
735,-594,0,0,0,0,0,0,0,0,0,-1,1959,1618,0,0
742,-594,0,0,0,0,0,0,0,0,0,-1,1966,1618,0,0
749,-594,0,0,0,0,0,0,0,0,0,-1,1973,1618,0,0
756,-594,0,0,0,0,0,0,0,0,0,-1,1980,1618,0,0
763,-594,0,0,0,0,0,0,0,0,0,-1,1987,1618,0,0
770,-594,0,0,0,0,0,0,0,0,0,-1,1994,1618,0,0
777,-594,0,0,0,0,0,0,0,0,0,-1,2001,1618,0,0
784,-594,0,0,0,0,0,0,0,0,0,-1,2008,1618,0,0
791,-594,0,0,0,0,0,0,0,0,0,-1,2015,1618,0,0
798,-594,0,0,0,0,0,0,0,0,0,-1,2022,1618,0,0
805,-594,0,0,0,0,0,0,0,0,0,-1,2029,1618,0,0
812,-594,0,0,0,0,0,0,0,0,0,-1,2036,1618,0,0
-700,-601,0,0,0,0,0,0,0,0,0,-1,524,1625,0,0
-693,-601,0,0,0,0,0,0,0,0,0,-1,531,1625,0,0
-686,-601,0,0,0,0,0,0,0,0,0,-1,538,1625,0,0
-679,-601,0,0,0,0,0,0,0,0,0,-1,545,1625,0,0
-672,-601,0,0,0,0,0,0,0,0,0,-1,552,1625,0,0
-665,-601,0,0,0,0,0,0,0,0,0,-1,559,1625,0,0
-658,-601,0,0,0,0,0,0,0,0,0,-1,566,1625,0,0
-651,-601,0,0,0,0,0,0,0,0,0,-1,573,1625,0,0
-644,-601,0,0,0,0,0,0,0,0,0,-1,580,1625,0,0
-637,-601,0,0,0,0,0,0,0,0,0,-1,587,1625,0,0
-630,-601,0,0,0,0,0,0,0,0,0,-1,594,1625,0,0
-623,-601,0,0,0,0,0,0,0,0,0,-1,601,1625,0,0
-616,-601,0,0,0,0,0,0,0,0,0,-1,608,1625,0,0
-609,-601,0,0,0,0,0,0,0,0,0,-1,615,1625,0,0
-602,-601,0,0,0,0,0,0,0,0,0,-1,622,1625,0,0
-595,-601,0,0,0,0,0,0,0,0,0,-1,629,1625,0,0
-588,-601,0,0,0,0,0,0,0,0,0,-1,636,1625,0,0
-581,-601,0,0,0,0,0,0,0,0,0,-1,643,1625,0,0
-574,-601,0,0,0,0,0,0,0,0,0,-1,650,1625,0,0
-567,-601,0,0,0,0,0,0,0,0,0,-1,657,1625,0,0
-560,-601,0,0,0,0,0,0,0,0,0,-1,664,1625,0,0
-553,-601,0,0,0,0,0,0,0,0,0,-1,671,1625,0,0
-546,-601,0,0,0,0,0,0,0,0,0,-1,678,1625,0,0
-539,-601,0,0,0,0,0,0,0,0,0,-1,685,1625,0,0
-532,-601,0,0,0,0,0,0,0,0,0,-1,692,1625,0,0
-525,-601,0,0,0,0,0,0,0,0,0,-1,699,1625,0,0
-518,-601,0,0,0,0,0,0,0,0,0,-1,706,1625,0,0
-511,-601,0,0,0,0,0,0,0,0,0,-1,713,1625,0,0
-504,-601,0,0,0,0,0,0,0,0,0,-1,720,1625,0,0
-497,-601,0,0,0,0,0,0,0,0,0,-1,727,1625,0,0
-490,-601,0,0,0,0,0,0,0,0,0,-1,734,1625,0,0
-483,-601,0,0,0,0,0,0,0,0,0,-1,741,1625,0,0
-476,-601,0,0,0,0,0,0,0,0,0,-1,748,1625,0,0
-469,-601,0,0,0,0,0,0,0,0,0,-1,755,1625,0,0
-462,-601,0,0,0,0,0,0,0,0,0,-1,762,1625,0,0
-455,-601,0,0,0,0,0,0,0,0,0,-1,769,1625,0,0
-448,-601,-7.07623,2.7616,0,0,0,0,0,0,0,-1,776,1625,-7.07626,-2.76161
-441,-601,-6.06689,3.33447,0,0,0,0,0,0,0,-1,783,1625,-6.06691,-3.33448
-434,-601,-5.02655,3.8468,0,0,0,0,0,0,0,-1,790,1625,-5.02657,-3.84674
-427,-601,-5.78601,4.2406,0,0,0,0,0,0,0,-1,797,1625,-5.786,-4.24058
-420,-601,-5.5191,5.60364,0,0,0,0,0,0,0,-1,804,1625,-5.51907,-5.60368
-413,-601,-4.30756,5.86047,0,0,0,0,0,0,0,-1,811,1625,-4.30757,-5.86046
-406,-601,-1.67493,7.20422,0,0,0,0,0,0,0,-1,818,1625,-1.67493,-7.20428
-399,-601,1.40094,15.3108,0,0,0,0,0,0,0,-1,825,1625,1.40096,-15.3107
-392,-601,0.678833,30.98,0,0,0,0,0,0,0,-1,832,1625,0.678827,-30.98
-385,-601,1.03455,33.0237,0,0,0,0,0,0,0,-1,839,1625,1.03457,-33.0237
-378,-601,0.921692,33.2174,-0.00283796,-0.0045964,0.000248583,-0.00280349,-0.00463087,0.13777,0.00269336,0.0465323,846,1625,0.921713,-33.2174
-371,-601,0.901611,33.7634,-0.00247903,-0.00409046,0.000285239,-0.00243003,-0.00413946,0.170125,0.00240196,0.0245979,853,1625,0.901593,-33.7635
-364,-601,0.879883,34.4773,-0.00205016,-0.00354017,0.000342423,-0.00197523,-0.0036151,0.215414,0.00209017,0.0128861,860,1625,0.879858,-34.4773
-357,-601,0.813965,35.1747,-0.00144782,-0.00291684,0.000462344,-0.00131442,-0.00305024,0.2809,0.00176665,0.0106843,867,1625,0.813976,-35.1747
-350,-601,0.80127,35.894,-0.00077054,-0.00229071,0.000584503,-0.000571785,-0.00248946,0.327775,0.00150568,0.0221951,874,1625,0.80124,-35.8941
-343,-601,0.746033,36.5934,-6.46014e-05,-0.00152932,0.000733984,0.000239902,-0.00183382,0.393254,0.00130986,0.0249874,881,1625,0.74605,-36.5934
-336,-601,0.658447,37.2493,0.0006309,-0.000627785,0.000949916,0.00114104,-0.00113792,0.492833,0.00131576,0.0222703,888,1625,0.658464,-37.2493
-329,-601,0.681885,37.91,0.0013191,0.00039806,0.00121196,0.00215509,-0.000437927,0.603834,0.00160277,0.0180066,895,1625,0.681886,-37.91
-322,-601,0.707092,38.5348,0.00215939,0.00139165,0.00153632,0.00335908,0.000191969,0.662974,0.00217822,0.0129186,902,1625,0.707084,-38.5348
-315,-601,0.682312,39.1205,0.00320213,0.00249762,0.0021133,0.00499233,0.000707425,0.702815,0.00311927,0.0137994,909,1625,0.682292,-39.1204
-308,-601,0.640564,39.746,0.0042803,0.0034946,0.00261314,0.00652996,0.00124494,0.710788,0.00400338,0.0128122,916,1625,0.640559,-39.746
-301,-601,0.624878,40.3883,0.00562965,0.00447172,0.00327338,0.00837487,0.0017265,0.697868,0.00510599,0.0108038,923,1625,0.624881,-40.3883
-294,-601,0.603394,41.0184,0.00707932,0.00545776,0.00398397,0.0103342,0.0022029,0.685014,0.00628518,0.0109941,930,1625,0.603374,-41.0184
-287,-601,0.556274,41.6782,0.00889517,0.00663594,0.00486192,0.012757,0.00277413,0.671254,0.0077473,0.0113129,937,1625,0.556296,-41.6782
-280,-601,0.557739,42.3123,0.011066,0.00772983,0.00590294,0.015532,0.00326382,0.647695,0.00945639,0.0126889,944,1625,0.557736,-42.3122
-273,-601,0.55304,42.955,0.0134653,0.00876939,0.00685444,0.0183628,0.00387191,0.62039,0.011177,0.0130933,951,1625,0.553034,-42.955
-266,-601,0.611572,43.5991,0.0160129,0.00948401,0.00790588,0.0213018,0.00419511,0.589604,0.0130299,0.0154596,958,1625,0.611587,-43.5992
-259,-601,0.674622,44.1344,0.0187426,0.0103358,0.00889945,0.0243814,0.00469705,0.564767,0.0149368,0.0287177,965,1625,0.674615,-44.1344
-252,-601,0.710693,44.6831,0,0,0,0,0,0,0,-1,972,1625,0.710666,-44.6831
-245,-601,1.50519,45.4071,0,0,0,0,0,0,0,-1,979,1625,1.50518,-45.4071
-238,-601,2.75482,35.777,0,0,0,0,0,0,0,-1,986,1625,2.75481,-35.777
-231,-601,2.66772,13.7051,0,0,0,0,0,0,0,-1,993,1625,2.6677,-13.7051
-224,-601,-0.0305176,9.13684,0,0,0,0,0,0,0,-1,1000,1625,-0.030498,-9.13681
-217,-601,3.39429,10.3898,0,0,0,0,0,0,0,-1,1007,1625,3.39431,-10.3898
-210,-601,-6.53699,15.7931,0,0,0,0,0,0,0,-1,1014,1625,-6.53697,-15.7931
-203,-601,2.69348,15.9099,0,0,0,0,0,0,0,-1,1021,1625,2.69351,-15.91
-196,-601,2.66992,16.1815,0,0,0,0,0,0,0,-1,1028,1625,2.66995,-16.1815
-189,-601,2.849,16.6105,0,0,0,0,0,0,0,-1,1035,1625,2.84902,-16.6104
-182,-601,1.82153,13.9752,0,0,0,0,0,0,0,-1,1042,1625,1.82155,-13.9752
-175,-601,0.544922,9.28687,0,0,0,0,0,0,0,-1,1049,1625,0.544879,-9.28685
-168,-601,-0.247559,8.97461,0,0,0,0,0,0,0,-1,1056,1625,-0.247598,-8.97466
-161,-601,-1.16833,8.80078,0,0,0,0,0,0,0,-1,1063,1625,-1.16837,-8.80081
-154,-601,1.12756,7.94861,0,0,0,0,0,0,0,-1,1070,1625,1.12762,-7.94855
-147,-601,1.35352,9.55432,0,0,0,0,0,0,0,-1,1077,1625,1.35351,-9.55429
-140,-601,1.72437,11.1498,0,0,0,0,0,0,0,-1,1084,1625,1.72432,-11.1498
-133,-601,2.13281,12.8347,0,0,0,0,0,0,0,-1,1091,1625,2.13287,-12.8348
-126,-601,3.09534,15.427,0,0,0,0,0,0,0,-1,1098,1625,3.0953,-15.4271
-119,-601,1.22485,9.43457,0,0,0,0,0,0,0,-1,1105,1625,1.22489,-9.43456
-112,-601,0,0,0,0,0,0,0,0,0,-1,1112,1625,0,0
-105,-601,0,0,0,0,0,0,0,0,0,-1,1119,1625,0,0
-98,-601,0,0,0,0,0,0,0,0,0,-1,1126,1625,0,0
-91,-601,0,0,0,0,0,0,0,0,0,-1,1133,1625,0,0
-84,-601,0,0,0,0,0,0,0,0,0,-1,1140,1625,0,0
-77,-601,0,0,0,0,0,0,0,0,0,-1,1147,1625,0,0
-70,-601,0,0,0,0,0,0,0,0,0,-1,1154,1625,0,0
-63,-601,0,0,0,0,0,0,0,0,0,-1,1161,1625,0,0
-56,-601,0,0,0,0,0,0,0,0,0,-1,1168,1625,0,0
-49,-601,0,0,0,0,0,0,0,0,0,-1,1175,1625,0,0
-42,-601,0,0,0,0,0,0,0,0,0,-1,1182,1625,0,0
-35,-601,0,0,0,0,0,0,0,0,0,-1,1189,1625,0,0
-28,-601,0,0,0,0,0,0,0,0,0,-1,1196,1625,0,0
-21,-601,0,0,0,0,0,0,0,0,0,-1,1203,1625,0,0
-14,-601,0,0,0,0,0,0,0,0,0,-1,1210,1625,0,0
-7,-601,0,0,0,0,0,0,0,0,0,-1,1217,1625,0,0
0,-601,0,0,0,0,0,0,0,0,0,-1,1224,1625,0,0
7,-601,0,0,0,0,0,0,0,0,0,-1,1231,1625,0,0
14,-601,0,0,0,0,0,0,0,0,0,-1,1238,1625,0,0
21,-601,0,0,0,0,0,0,0,0,0,-1,1245,1625,0,0
28,-601,0,0,0,0,0,0,0,0,0,-1,1252,1625,0,0
35,-601,0,0,0,0,0,0,0,0,0,-1,1259,1625,0,0
42,-601,0,0,0,0,0,0,0,0,0,-1,1266,1625,0,0
49,-601,0,0,0,0,0,0,0,0,0,-1,1273,1625,0,0
56,-601,0,0,0,0,0,0,0,0,0,-1,1280,1625,0,0
63,-601,0,0,0,0,0,0,0,0,0,-1,1287,1625,0,0
70,-601,0,0,0,0,0,0,0,0,0,-1,1294,1625,0,0
77,-601,0,0,0,0,0,0,0,0,0,-1,1301,1625,0,0
84,-601,0,0,0,0,0,0,0,0,0,-1,1308,1625,0,0
91,-601,0,0,0,0,0,0,0,0,0,-1,1315,1625,0,0
98,-601,0,0,0,0,0,0,0,0,0,-1,1322,1625,0,0
105,-601,0,0,0,0,0,0,0,0,0,-1,1329,1625,0,0
112,-601,0,0,0,0,0,0,0,0,0,-1,1336,1625,0,0
119,-601,0,0,0,0,0,0,0,0,0,-1,1343,1625,0,0
126,-601,0,0,0,0,0,0,0,0,0,-1,1350,1625,0,0
133,-601,0,0,0,0,0,0,0,0,0,-1,1357,1625,0,0
140,-601,0,0,0,0,0,0,0,0,0,-1,1364,1625,0,0
147,-601,0,0,0,0,0,0,0,0,0,-1,1371,1625,0,0
154,-601,0,0,0,0,0,0,0,0,0,-1,1378,1625,0,0
161,-601,0,0,0,0,0,0,0,0,0,-1,1385,1625,0,0
168,-601,0,0,0,0,0,0,0,0,0,-1,1392,1625,0,0
175,-601,0,0,0,0,0,0,0,0,0,-1,1399,1625,0,0
182,-601,0,0,0,0,0,0,0,0,0,-1,1406,1625,0,0
189,-601,0,0,0,0,0,0,0,0,0,-1,1413,1625,0,0
196,-601,0,0,0,0,0,0,0,0,0,-1,1420,1625,0,0
203,-601,0,0,0,0,0,0,0,0,0,-1,1427,1625,0,0
210,-601,0,0,0,0,0,0,0,0,0,-1,1434,1625,0,0
217,-601,0,0,0,0,0,0,0,0,0,-1,1441,1625,0,0
224,-601,0,0,0,0,0,0,0,0,0,-1,1448,1625,0,0
231,-601,-0.0371094,0.525879,0,0,0,0,0,0,0,-1,1455,1625,-0.0371518,-0.525824
238,-601,2.03369,-1.32861,0,0,0,0,0,0,0,-1,1462,1625,2.03364,1.32858
245,-601,2.71375,2.44983,0,0,0,0,0,0,0,-1,1469,1625,2.71371,-2.44979
252,-601,4.66943,2.28381,0,0,0,0,0,0,0,-1,1476,1625,4.66947,-2.28376
259,-601,6.42712,2.61987,0,0,0,0,0,0,0,-1,1483,1625,6.42711,-2.61985
266,-601,6.75317,1.68701,0,0,0,0,0,0,0,-1,1490,1625,6.75323,-1.687
273,-601,5.4314,2.92053,0,0,0,0,0,0,0,-1,1497,1625,5.43144,-2.92051
280,-601,4.64722,1.17786,0,0,0,0,0,0,0,-1,1504,1625,4.64722,-1.1779
287,-601,5.32532,2.6217,0,0,0,0,0,0,0,-1,1511,1625,5.32535,-2.62171
294,-601,5.97693,4.22693,0,0,0,0,0,0,0,-1,1518,1625,5.97697,-4.22694
301,-601,7.28162,9.50024,0,0,0,0,0,0,0,-1,1525,1625,7.28162,-9.50025
308,-601,6.53528,10.3927,0,0,0,0,0,0,0,-1,1532,1625,6.53529,-10.3927
315,-601,4.88013,11.7184,0,0,0,0,0,0,0,-1,1539,1625,4.88015,-11.7184
322,-601,3.38098,12.7864,0,0,0,0,0,0,0,-1,1546,1625,3.38104,-12.7864
329,-601,1.8772,13.8768,0,0,0,0,0,0,0,-1,1553,1625,1.87716,-13.8768
336,-601,4.67847,9.53308,0,0,0,0,0,0,0,-1,1560,1625,4.67848,-9.53309
343,-601,11.1404,3.14575,0,0,0,0,0,0,0,-1,1567,1625,11.1404,-3.1458
350,-601,10.9462,2.37769,0,0,0,0,0,0,0,-1,1574,1625,10.9461,-2.37764
357,-601,10.7518,1.6095,0,0,0,0,0,0,0,-1,1581,1625,10.7518,-1.60948
364,-601,5.33643,9.74426,0,0,0,0,0,0,0,-1,1588,1625,5.33637,-9.74429
371,-601,16.9723,46.8265,0,0,0,0,0,0,0,-1,1595,1625,16.9723,-46.8266
378,-601,17.5413,45.2716,0,0,0,0,0,0,0,-1,1602,1625,17.5412,-45.2716
385,-601,17.7207,44.9504,-0.00625768,0.0212364,0.00277797,0.0215143,-0.00653556,1.4711,0.0169468,0.0455992,1609,1625,17.7207,-44.9504
392,-601,17.717,44.3947,-0.00591097,0.0180413,0.00279921,0.0183641,-0.00623375,1.45599,0.014766,0.0402965,1616,1625,17.717,-44.3946
399,-601,17.4048,43.3799,-0.00507937,0.0156399,0.0023232,0.0158972,-0.00533667,1.46049,0.0127548,0.0216636,1623,1625,17.4048,-43.3799
406,-601,17.4552,42.7222,-0.00408147,0.0135777,0.00158678,0.0137191,-0.00422292,1.48189,0.0108317,0.0143586,1630,1625,17.4551,-42.7222
413,-601,17.4348,42.1305,-0.0029651,0.0118682,0.000689443,0.0119002,-0.00299708,1.52445,0.00909854,0.0135827,1637,1625,17.4349,-42.1305
420,-601,17.4524,41.5082,-0.00193344,0.0104584,-0.000151537,0.0104603,-0.00193529,-1.55857,0.0077001,0.0115004,1644,1625,17.4524,-41.5082
427,-601,17.4353,40.9015,-0.00103938,0.00912327,-0.000819738,0.00918897,-0.00110508,-1.49082,0.0065256,0.0151918,1651,1625,17.4353,-40.9015
434,-601,17.3962,40.276,-0.000204213,0.00809482,-0.00148929,0.00835398,-0.000463378,-1.3985,0.00573003,0.0162068,1658,1625,17.3962,-40.276
441,-601,17.3818,39.656,0.000528205,0.00681736,-0.00207542,0.0074405,-9.49386e-05,-1.27911,0.00499228,0.018805,1665,1625,17.3818,-39.6561
448,-601,17.3856,39.0526,0.00111853,0.00560009,-0.00241147,0.00665116,6.74524e-05,-1.15976,0.0044118,0.0160596,1672,1625,17.3856,-39.0527
455,-601,17.3804,38.391,0.00164101,0.00481501,-0.00266151,0.00632676,0.000129261,-1.05424,0.00417542,0.0144611,1679,1625,17.3804,-38.391
462,-601,17.3442,37.7711,0.00171576,0.003639,-0.00265024,0.00549669,-0.000141926,-0.959433,0.00371267,0.0126127,1686,1625,17.3442,-37.7712
469,-601,17.3136,37.1927,0.00149027,0.00238459,-0.0023373,0.00431712,-0.000442259,-0.879914,0.00303626,0.011886,1693,1625,17.3136,-37.1927
476,-601,17.2712,36.559,0.00121628,0.00136836,-0.00195488,0.00324868,-0.000664044,-0.804838,0.00241773,0.0136161,1700,1625,17.2713,-36.5589
483,-601,17.22,35.9058,0.000871014,0.00032903,-0.00158881,0.00221178,-0.00101173,-0.700929,0.0019036,0.0155135,1707,1625,17.22,-35.9058
490,-601,17.1865,35.2595,0.000413862,-0.000490976,-0.00125156,0.00129227,-0.00136938,-0.611964,0.00153692,0.0129808,1714,1625,17.1865,-35.2595
497,-601,17.1755,34.6051,-6.28723e-05,-0.00115271,-0.000969486,0.000504342,-0.00171992,-0.529367,0.00134659,0.0120797,1721,1625,17.1755,-34.6051
504,-601,17.212,33.9364,-0.000523995,-0.00167453,-0.000644007,-0.000235737,-0.00196279,-0.420857,0.00123746,0.0224825,1728,1625,17.2121,-33.9364
511,-601,17.0981,33.3833,-0.00125028,-0.00248861,-1.82374e-05,-0.00125001,-0.00248888,-0.0147232,0.00143696,0.0362707,1735,1625,17.0981,-33.3833
518,-601,16.9792,32.7616,-0.0020716,-0.003107,0.000503391,-0.00186721,-0.00331139,0.385693,0.00191703,0.0445873,1742,1625,16.9792,-32.7616
525,-601,16.9033,32.1454,0,0,0,0,0,0,0,-1,1749,1625,16.9033,-32.1454
532,-601,16.3573,21.5406,0,0,0,0,0,0,0,-1,1756,1625,16.3573,-21.5406
539,-601,7.77112,11.4299,0,0,0,0,0,0,0,-1,1763,1625,7.77116,-11.4299
546,-601,6.56873,3.62354,0,0,0,0,0,0,0,-1,1770,1625,6.56867,-3.62352
553,-601,7.03015,4.25049,0,0,0,0,0,0,0,-1,1777,1625,7.03011,-4.25048
560,-601,7.50745,4.83374,0,0,0,0,0,0,0,-1,1784,1625,7.50744,-4.83376
567,-601,7.82043,3.83301,0,0,0,0,0,0,0,-1,1791,1625,7.82041,-3.83303
574,-601,0,0,0,0,0,0,0,0,0,-1,1798,1625,0,0
581,-601,0,0,0,0,0,0,0,0,0,-1,1805,1625,0,0
588,-601,0,0,0,0,0,0,0,0,0,-1,1812,1625,0,0
595,-601,0,0,0,0,0,0,0,0,0,-1,1819,1625,0,0
602,-601,0,0,0,0,0,0,0,0,0,-1,1826,1625,0,0
609,-601,0,0,0,0,0,0,0,0,0,-1,1833,1625,0,0
616,-601,0,0,0,0,0,0,0,0,0,-1,1840,1625,0,0
623,-601,0,0,0,0,0,0,0,0,0,-1,1847,1625,0,0
630,-601,0,0,0,0,0,0,0,0,0,-1,1854,1625,0,0
637,-601,0,0,0,0,0,0,0,0,0,-1,1861,1625,0,0
644,-601,0,0,0,0,0,0,0,0,0,-1,1868,1625,0,0
651,-601,0,0,0,0,0,0,0,0,0,-1,1875,1625,0,0
658,-601,0,0,0,0,0,0,0,0,0,-1,1882,1625,0,0
665,-601,0,0,0,0,0,0,0,0,0,-1,1889,1625,0,0
672,-601,0,0,0,0,0,0,0,0,0,-1,1896,1625,0,0
679,-601,0,0,0,0,0,0,0,0,0,-1,1903,1625,0,0
686,-601,0,0,0,0,0,0,0,0,0,-1,1910,1625,0,0
693,-601,0,0,0,0,0,0,0,0,0,-1,1917,1625,0,0
700,-601,0,0,0,0,0,0,0,0,0,-1,1924,1625,0,0
707,-601,0,0,0,0,0,0,0,0,0,-1,1931,1625,0,0
714,-601,0,0,0,0,0,0,0,0,0,-1,1938,1625,0,0
721,-601,0,0,0,0,0,0,0,0,0,-1,1945,1625,0,0
728,-601,0,0,0,0,0,0,0,0,0,-1,1952,1625,0,0
735,-601,0,0,0,0,0,0,0,0,0,-1,1959,1625,0,0
742,-601,0,0,0,0,0,0,0,0,0,-1,1966,1625,0,0
749,-601,0,0,0,0,0,0,0,0,0,-1,1973,1625,0,0
756,-601,0,0,0,0,0,0,0,0,0,-1,1980,1625,0,0
763,-601,0,0,0,0,0,0,0,0,0,-1,1987,1625,0,0
770,-601,0,0,0,0,0,0,0,0,0,-1,1994,1625,0,0
777,-601,0,0,0,0,0,0,0,0,0,-1,2001,1625,0,0
784,-601,0,0,0,0,0,0,0,0,0,-1,2008,1625,0,0
791,-601,0,0,0,0,0,0,0,0,0,-1,2015,1625,0,0
798,-601,0,0,0,0,0,0,0,0,0,-1,2022,1625,0,0
805,-601,0,0,0,0,0,0,0,0,0,-1,2029,1625,0,0
812,-601,0,0,0,0,0,0,0,0,0,-1,2036,1625,0,0
-700,-608,0,0,0,0,0,0,0,0,0,-1,524,1632,0,0
-693,-608,0,0,0,0,0,0,0,0,0,-1,531,1632,0,0
-686,-608,0,0,0,0,0,0,0,0,0,-1,538,1632,0,0
-679,-608,0,0,0,0,0,0,0,0,0,-1,545,1632,0,0
-672,-608,0,0,0,0,0,0,0,0,0,-1,552,1632,0,0
-665,-608,0,0,0,0,0,0,0,0,0,-1,559,1632,0,0
-658,-608,0,0,0,0,0,0,0,0,0,-1,566,1632,0,0
-651,-608,0,0,0,0,0,0,0,0,0,-1,573,1632,0,0
-644,-608,0,0,0,0,0,0,0,0,0,-1,580,1632,0,0
-637,-608,0,0,0,0,0,0,0,0,0,-1,587,1632,0,0
-630,-608,0,0,0,0,0,0,0,0,0,-1,594,1632,0,0
-623,-608,0,0,0,0,0,0,0,0,0,-1,601,1632,0,0
-616,-608,0,0,0,0,0,0,0,0,0,-1,608,1632,0,0
-609,-608,0,0,0,0,0,0,0,0,0,-1,615,1632,0,0
-602,-608,0,0,0,0,0,0,0,0,0,-1,622,1632,0,0
-595,-608,0,0,0,0,0,0,0,0,0,-1,629,1632,0,0
-588,-608,0,0,0,0,0,0,0,0,0,-1,636,1632,0,0
-581,-608,0,0,0,0,0,0,0,0,0,-1,643,1632,0,0
-574,-608,0,0,0,0,0,0,0,0,0,-1,650,1632,0,0
-567,-608,0,0,0,0,0,0,0,0,0,-1,657,1632,0,0
-560,-608,0,0,0,0,0,0,0,0,0,-1,664,1632,0,0
-553,-608,0,0,0,0,0,0,0,0,0,-1,671,1632,0,0
-546,-608,0,0,0,0,0,0,0,0,0,-1,678,1632,0,0
-539,-608,0,0,0,0,0,0,0,0,0,-1,685,1632,0,0
-532,-608,0,0,0,0,0,0,0,0,0,-1,692,1632,0,0
-525,-608,0,0,0,0,0,0,0,0,0,-1,699,1632,0,0
-518,-608,0,0,0,0,0,0,0,0,0,-1,706,1632,0,0
-511,-608,0,0,0,0,0,0,0,0,0,-1,713,1632,0,0
-504,-608,0,0,0,0,0,0,0,0,0,-1,720,1632,0,0
-497,-608,0,0,0,0,0,0,0,0,0,-1,727,1632,0,0
-490,-608,0,0,0,0,0,0,0,0,0,-1,734,1632,0,0
-483,-608,0,0,0,0,0,0,0,0,0,-1,741,1632,0,0
-476,-608,0,0,0,0,0,0,0,0,0,-1,748,1632,0,0
-469,-608,0,0,0,0,0,0,0,0,0,-1,755,1632,0,0
-462,-608,0,0,0,0,0,0,0,0,0,-1,762,1632,0,0
-455,-608,0,0,0,0,0,0,0,0,0,-1,769,1632,0,0
-448,-608,0,0,0,0,0,0,0,0,0,-1,776,1632,0,0
-441,-608,-7.34601,2.78052,0,0,0,0,0,0,0,-1,783,1632,-7.346,-2.78056
-434,-608,-6.34558,3.27405,0,0,0,0,0,0,0,-1,790,1632,-6.34555,-3.27406
-427,-608,-7.74335,4.17688,0,0,0,0,0,0,0,-1,797,1632,-7.74334,-4.17693
-420,-608,-6.82794,4.34839,0,0,0,0,0,0,0,-1,804,1632,-6.82794,-4.34838
-413,-608,-5.41919,5.66138,0,0,0,0,0,0,0,-1,811,1632,-5.41917,-5.66133
-406,-608,-4.79681,4.98999,0,0,0,0,0,0,0,-1,818,1632,-4.79684,-4.98997
-399,-608,-2.60645,6.34167,0,0,0,0,0,0,0,-1,825,1632,-2.60643,-6.34169
-392,-608,2.08356,15.437,0,0,0,0,0,0,0,-1,832,1632,2.08354,-15.437
-385,-608,1.51526,31.5153,0,0,0,0,0,0,0,-1,839,1632,1.51527,-31.5153
-378,-608,1.66779,33.2322,0,0,0,0,0,0,0,-1,846,1632,1.66778,-33.2322
-371,-608,1.60986,33.5663,0,0,0,0,0,0,0,-1,853,1632,1.60985,-33.5663
-364,-608,1.6098,34.4187,-0.00294241,-0.0050154,0.000204718,-0.00292239,-0.00503543,0.0975,0.0029197,0.0275591,860,1632,1.60978,-34.4186
-357,-608,1.45227,35.1627,-0.00226525,-0.00437683,0.000349509,-0.00220891,-0.00443318,0.159843,0.0025595,0.0179361,867,1632,1.45224,-35.1628
-350,-608,1.44873,35.8922,-0.00157956,-0.00368801,0.000484205,-0.00147368,-0.00379389,0.21528,0.00220851,0.020727,874,1632,1.44871,-35.8922
-343,-608,1.41956,36.6001,-0.000857424,-0.00288155,0.00060597,-0.000689881,-0.0030491,0.269749,0.00184625,0.0263622,881,1632,1.41957,-36.6001
-336,-608,1.36328,37.282,-0.000173444,-0.00196707,0.000745998,9.627e-05,-0.00223679,0.346926,0.00152429,0.018694,888,1632,1.36328,-37.282
-329,-608,1.32294,37.955,0.000485286,-0.000900224,0.000951837,0.000969775,-0.00138471,0.470825,0.00136638,0.0172101,895,1632,1.32294,-37.9549
-322,-608,1.31335,38.5701,0.00119066,8.8322e-05,0.00118583,0.00194716,-0.000668172,0.567853,0.00156899,0.0170043,902,1632,1.31334,-38.57
-315,-608,1.29828,39.1563,0.00204523,0.00111021,0.00158386,0.00322914,-7.37e-05,0.641887,0.00217774,0.0164689,909,1632,1.29829,-39.1562
-308,-608,1.24921,39.8048,0.00296734,0.00204625,0.00193184,0.00449278,0.000520815,0.668384,0.00283756,0.0166169,916,1632,1.2492,-39.8048
-301,-608,1.24402,40.442,0.00408165,0.00292866,0.0024027,0.00597605,0.00103426,0.667656,0.00368795,0.0118646,923,1632,1.24403,-40.442
-294,-608,1.23389,41.0594,0.00527225,0.00376898,0.00291299,0.00752901,0.00151222,0.659138,0.0045989,0.0109756,930,1632,1.23387,-41.0595
-287,-608,1.19403,41.6891,0.00669419,0.00476738,0.00349653,0.00935761,0.00210396,0.650968,0.00566876,0.0101332,937,1632,1.19404,-41.6891
-280,-608,1.19391,42.3087,0.00836907,0.00569049,0.0042164,0.0114538,0.00260579,0.631619,0.00693246,0.00910645,944,1632,1.19389,-42.3087
-273,-608,1.15869,42.9381,0.010204,0.00645585,0.00486003,0.0135388,0.00312109,0.601377,0.00818627,0.0107501,951,1632,1.15868,-42.9382
-266,-608,1.17261,43.5712,0.0121353,0.00695482,0.00560321,0.015718,0.00337212,0.568888,0.0095551,0.0115633,958,1632,1.17261,-43.5711
-259,-608,1.23633,44.1743,0.0141919,0.00762852,0.00626989,0.017987,0.00383342,0.544301,0.0109397,0.0162325,965,1632,1.2363,-44.1743
-252,-608,1.3609,44.7557,0.0164823,0.00830499,0.00697486,0.0204785,0.00430872,0.520294,0.0124668,0.030624,972,1632,1.36092,-44.7557
-245,-608,1.72034,45.4742,0,0,0,0,0,0,0,-1,979,1632,1.72034,-45.4742
-238,-608,2.0177,46.2063,0,0,0,0,0,0,0,-1,986,1632,2.01769,-46.2063
-231,-608,1.6626,46.9142,0,0,0,0,0,0,0,-1,993,1632,1.66257,-46.9141
-224,-608,2.51642,15.3452,0,0,0,0,0,0,0,-1,1000,1632,2.5164,-15.3452
-217,-608,1.04419,12.8451,0,0,0,0,0,0,0,-1,1007,1632,1.04418,-12.8451
-210,-608,2.75903,15.9414,0,0,0,0,0,0,0,-1,1014,1632,2.75903,-15.9414
-203,-608,2.76776,16.217,0,0,0,0,0,0,0,-1,1021,1632,2.76773,-16.217
-196,-608,1.53955,18.6058,0,0,0,0,0,0,0,-1,1028,1632,1.53959,-18.6058
-189,-608,1.37634,19.119,0,0,0,0,0,0,0,-1,1035,1632,1.37634,-19.1191
-182,-608,2.89221,16.7092,0,0,0,0,0,0,0,-1,1042,1632,2.89224,-16.7093
-175,-608,0.219116,15.1643,0,0,0,0,0,0,0,-1,1049,1632,0.219173,-15.1644
-168,-608,0.000366211,9.48645,0,0,0,0,0,0,0,-1,1056,1632,0.000317105,-9.48648
-161,-608,2.27832,15.4423,0,0,0,0,0,0,0,-1,1063,1632,2.27826,-15.4423
-154,-608,1.3999,16.4037,0,0,0,0,0,0,0,-1,1070,1632,1.39987,-16.4037
-147,-608,2.4386,9.50317,0,0,0,0,0,0,0,-1,1077,1632,2.43858,-9.50313
-140,-608,2.60132,10.8401,0,0,0,0,0,0,0,-1,1084,1632,2.60134,-10.8401
-133,-608,3.2312,12.4738,0,0,0,0,0,0,0,-1,1091,1632,3.23116,-12.4738
-126,-608,3.76465,13.9644,0,0,0,0,0,0,0,-1,1098,1632,3.76466,-13.9644
-119,-608,4.28906,15.4196,0,0,0,0,0,0,0,-1,1105,1632,4.28911,-15.4195
-112,-608,0.745117,10.5587,0,0,0,0,0,0,0,-1,1112,1632,0.745145,-10.5587
-105,-608,-0.252319,1.42419,0,0,0,0,0,0,0,-1,1119,1632,-0.252331,-1.42418
-98,-608,-2.8595,3.0863,0,0,0,0,0,0,0,-1,1126,1632,-2.85948,-3.08625
-91,-608,-3.71948,1.73608,0,0,0,0,0,0,0,-1,1133,1632,-3.7195,-1.73607
-84,-608,0,0,0,0,0,0,0,0,0,-1,1140,1632,0,0
-77,-608,0,0,0,0,0,0,0,0,0,-1,1147,1632,0,0
-70,-608,0,0,0,0,0,0,0,0,0,-1,1154,1632,0,0
-63,-608,0,0,0,0,0,0,0,0,0,-1,1161,1632,0,0
-56,-608,0,0,0,0,0,0,0,0,0,-1,1168,1632,0,0
-49,-608,0,0,0,0,0,0,0,0,0,-1,1175,1632,0,0
-42,-608,0,0,0,0,0,0,0,0,0,-1,1182,1632,0,0
-35,-608,0,0,0,0,0,0,0,0,0,-1,1189,1632,0,0
-28,-608,0,0,0,0,0,0,0,0,0,-1,1196,1632,0,0
-21,-608,0,0,0,0,0,0,0,0,0,-1,1203,1632,0,0
-14,-608,0,0,0,0,0,0,0,0,0,-1,1210,1632,0,0
-7,-608,0,0,0,0,0,0,0,0,0,-1,1217,1632,0,0
0,-608,0,0,0,0,0,0,0,0,0,-1,1224,1632,0,0
7,-608,0,0,0,0,0,0,0,0,0,-1,1231,1632,0,0
14,-608,0,0,0,0,0,0,0,0,0,-1,1238,1632,0,0
21,-608,0,0,0,0,0,0,0,0,0,-1,1245,1632,0,0
28,-608,0,0,0,0,0,0,0,0,0,-1,1252,1632,0,0
35,-608,0,0,0,0,0,0,0,0,0,-1,1259,1632,0,0
42,-608,0,0,0,0,0,0,0,0,0,-1,1266,1632,0,0
49,-608,0,0,0,0,0,0,0,0,0,-1,1273,1632,0,0
56,-608,0,0,0,0,0,0,0,0,0,-1,1280,1632,0,0
63,-608,0,0,0,0,0,0,0,0,0,-1,1287,1632,0,0
70,-608,0,0,0,0,0,0,0,0,0,-1,1294,1632,0,0
77,-608,0,0,0,0,0,0,0,0,0,-1,1301,1632,0,0
84,-608,0,0,0,0,0,0,0,0,0,-1,1308,1632,0,0
91,-608,0,0,0,0,0,0,0,0,0,-1,1315,1632,0,0
98,-608,0,0,0,0,0,0,0,0,0,-1,1322,1632,0,0
105,-608,0,0,0,0,0,0,0,0,0,-1,1329,1632,0,0
112,-608,0,0,0,0,0,0,0,0,0,-1,1336,1632,0,0
119,-608,0,0,0,0,0,0,0,0,0,-1,1343,1632,0,0
126,-608,0,0,0,0,0,0,0,0,0,-1,1350,1632,0,0
133,-608,0,0,0,0,0,0,0,0,0,-1,1357,1632,0,0
140,-608,0,0,0,0,0,0,0,0,0,-1,1364,1632,0,0
147,-608,0,0,0,0,0,0,0,0,0,-1,1371,1632,0,0
154,-608,0,0,0,0,0,0,0,0,0,-1,1378,1632,0,0
161,-608,0,0,0,0,0,0,0,0,0,-1,1385,1632,0,0
168,-608,0,0,0,0,0,0,0,0,0,-1,1392,1632,0,0
175,-608,0,0,0,0,0,0,0,0,0,-1,1399,1632,0,0
182,-608,0,0,0,0,0,0,0,0,0,-1,1406,1632,0,0
189,-608,0,0,0,0,0,0,0,0,0,-1,1413,1632,0,0
196,-608,0,0,0,0,0,0,0,0,0,-1,1420,1632,0,0
203,-608,0,0,0,0,0,0,0,0,0,-1,1427,1632,0,0
210,-608,5.7157,-0.333008,0,0,0,0,0,0,0,-1,1434,1632,5.71566,0.333004
217,-608,4.49402,-0.831787,0,0,0,0,0,0,0,-1,1441,1632,4.49396,0.831738
224,-608,4.18018,-1.11792,0,0,0,0,0,0,0,-1,1448,1632,4.1802,1.11796
231,-608,0.361816,0.825195,0,0,0,0,0,0,0,-1,1455,1632,0.36185,-0.825226
238,-608,2.85388,-0.28833,0,0,0,0,0,0,0,-1,1462,1632,2.85391,0.288282
245,-608,3.87537,4.02173,0,0,0,0,0,0,0,-1,1469,1632,3.87538,-4.02168
252,-608,5.66956,3.5282,0,0,0,0,0,0,0,-1,1476,1632,5.6696,-3.52815
259,-608,7.47437,3.07178,0,0,0,0,0,0,0,-1,1483,1632,7.4744,-3.07172
266,-608,9.46936,2.34766,0,0,0,0,0,0,0,-1,1490,1632,9.46932,-2.34764
273,-608,6.03003,3.34241,0,0,0,0,0,0,0,-1,1497,1632,6.02997,-3.34245
280,-608,5.72461,2.0769,0,0,0,0,0,0,0,-1,1504,1632,5.72457,-2.07688
287,-608,6.20581,3.59338,0,0,0,0,0,0,0,-1,1511,1632,6.20585,-3.59341
294,-608,6.94922,5.17151,0,0,0,0,0,0,0,-1,1518,1632,6.94925,-5.17151
301,-608,7.60083,6.68018,0,0,0,0,0,0,0,-1,1525,1632,7.60086,-6.68013
308,-608,7.64746,9.93848,0,0,0,0,0,0,0,-1,1532,1632,7.64745,-9.93842
315,-608,5.30688,11.2054,0,0,0,0,0,0,0,-1,1539,1632,5.30694,-11.2054
322,-608,5.32617,13.7581,0,0,0,0,0,0,0,-1,1546,1632,5.32613,-13.758
329,-608,7.12231,13.9607,0,0,0,0,0,0,0,-1,1553,1632,7.12231,-13.9607
336,-608,5.48633,7.82446,0,0,0,0,0,0,0,-1,1560,1632,5.48634,-7.82446
343,-608,5.47192,5.61047,0,0,0,0,0,0,0,-1,1567,1632,5.47192,-5.61045
350,-608,11.6957,1.71387,0,0,0,0,0,0,0,-1,1574,1632,11.6957,-1.71388
357,-608,3.77002,5.10046,0,0,0,0,0,0,0,-1,1581,1632,3.77002,-5.10043
364,-608,16.1387,47.463,0,0,0,0,0,0,0,-1,1588,1632,16.1386,-47.463
371,-608,16.4626,46.5306,0,0,0,0,0,0,0,-1,1595,1632,16.4626,-46.5306
378,-608,16.7866,45.5983,0,0,0,0,0,0,0,-1,1602,1632,16.7866,-45.5982
385,-608,16.9327,44.6051,-0.00301911,0.0177397,0.00105569,0.0177932,-0.00307266,1.52012,0.0130079,0.0324228,1609,1632,16.9327,-44.6051
392,-608,16.8165,43.9786,-0.00302994,0.0150206,0.00128178,0.0151112,-0.0031205,1.50026,0.0112594,0.023456,1616,1632,16.8165,-43.9787
399,-608,16.8287,43.3015,-0.00267386,0.012862,0.00111555,0.0129417,-0.00275356,1.49948,0.00967715,0.0112651,1623,1632,16.8288,-43.3015
406,-608,16.86,42.6879,-0.00215879,0.0109705,0.000723314,0.0110102,-0.00219852,1.51593,0.00817216,0.009962,1630,1632,16.86,-42.6879
413,-608,16.8566,42.0923,-0.00153295,0.0093254,0.000217263,0.00932974,-0.00153729,1.5508,0.00679051,0.0112325,1637,1632,16.8566,-42.0922
420,-608,16.8105,41.5012,-0.000920562,0.00798337,-0.000303965,0.00799373,-0.000930927,-1.53671,0.00566502,0.0189091,1644,1632,16.8105,-41.5012
427,-608,16.7998,40.9092,-0.000383392,0.00673143,-0.000739425,0.00680746,-0.000459426,-1.46833,0.00469894,0.019358,1651,1632,16.7998,-40.9092
434,-608,16.7744,40.309,0.000161833,0.00584377,-0.00124564,0.00610485,-9.92492e-05,-1.36419,0.00410339,0.0153374,1658,1632,16.7745,-40.309
441,-608,16.7661,39.6899,0.000672308,0.0047924,-0.00172942,0.00542209,4.26176e-05,-1.22161,0.00360061,0.0144738,1665,1632,16.7661,-39.69
448,-608,16.7701,39.1034,0.00110546,0.00382907,-0.00204332,0.00492281,1.17247e-05,-1.07933,0.00327797,0.0157003,1672,1632,16.7701,-39.1034
455,-608,16.7842,38.446,0.00142992,0.00315733,-0.0022511,0.00470473,-0.00011748,-0.968578,0.00317637,0.0125973,1679,1632,16.7841,-38.4461
462,-608,16.7373,37.8167,0.00142143,0.00222406,-0.00224556,0.00410389,-0.000458389,-0.873822,0.00290082,0.0125798,1686,1632,16.7374,-37.8166
469,-608,16.6707,37.2191,0.00124304,0.00120843,-0.00206356,0.00328936,-0.000837898,-0.781206,0.0025191,0.00959232,1693,1632,16.6707,-37.2191
476,-608,16.6152,36.5925,0.00105321,0.000410727,-0.00180774,0.00256803,-0.00110409,-0.697465,0.00217553,0.00891935,1700,1632,16.6152,-36.5925
483,-608,16.5979,35.9436,0.000777398,-0.000432121,-0.00157295,0.00185784,-0.00151256,-0.601872,0.0019493,0.00791737,1707,1632,16.5979,-35.9436
490,-608,16.6044,35.2909,0.000319432,-0.00100069,-0.00137247,0.00118231,-0.00186357,-0.561261,0.00177314,0.0111359,1714,1632,16.6043,-35.2909
497,-608,16.6238,34.609,-0.000122083,-0.00153749,-0.00119322,0.000557523,-0.0022171,-0.517732,0.00169475,0.0280231,1721,1632,16.6237,-34.6091
504,-608,16.7786,33.8297,0,0,0,0,0,0,0,-1,1728,1632,16.7786,-33.8297
511,-608,16.4241,33.5918,0,0,0,0,0,0,0,-1,1735,1632,16.4241,-33.5917
518,-608,16.4044,32.9167,0,0,0,0,0,0,0,-1,1742,1632,16.4045,-32.9167
525,-608,11.2109,16.2579,0,0,0,0,0,0,0,-1,1749,1632,11.2109,-16.2579
532,-608,8.27917,11.6693,0,0,0,0,0,0,0,-1,1756,1632,8.27919,-11.6694
539,-608,9.40796,1.43457,0,0,0,0,0,0,0,-1,1763,1632,9.40801,-1.43463
546,-608,9.94031,2.1134,0,0,0,0,0,0,0,-1,1770,1632,9.94031,-2.11346
553,-608,10.363,2.81335,0,0,0,0,0,0,0,-1,1777,1632,10.3631,-2.81333
560,-608,9.23999,4.5636,0,0,0,0,0,0,0,-1,1784,1632,9.24,-4.56354
567,-608,0,0,0,0,0,0,0,0,0,-1,1791,1632,0,0
574,-608,0,0,0,0,0,0,0,0,0,-1,1798,1632,0,0
581,-608,0,0,0,0,0,0,0,0,0,-1,1805,1632,0,0
588,-608,0,0,0,0,0,0,0,0,0,-1,1812,1632,0,0
595,-608,0,0,0,0,0,0,0,0,0,-1,1819,1632,0,0
602,-608,0,0,0,0,0,0,0,0,0,-1,1826,1632,0,0
609,-608,0,0,0,0,0,0,0,0,0,-1,1833,1632,0,0
616,-608,0,0,0,0,0,0,0,0,0,-1,1840,1632,0,0
623,-608,0,0,0,0,0,0,0,0,0,-1,1847,1632,0,0
630,-608,0,0,0,0,0,0,0,0,0,-1,1854,1632,0,0
637,-608,0,0,0,0,0,0,0,0,0,-1,1861,1632,0,0
644,-608,0,0,0,0,0,0,0,0,0,-1,1868,1632,0,0
651,-608,0,0,0,0,0,0,0,0,0,-1,1875,1632,0,0
658,-608,0,0,0,0,0,0,0,0,0,-1,1882,1632,0,0
665,-608,0,0,0,0,0,0,0,0,0,-1,1889,1632,0,0
672,-608,0,0,0,0,0,0,0,0,0,-1,1896,1632,0,0
679,-608,0,0,0,0,0,0,0,0,0,-1,1903,1632,0,0
686,-608,0,0,0,0,0,0,0,0,0,-1,1910,1632,0,0
693,-608,0,0,0,0,0,0,0,0,0,-1,1917,1632,0,0
700,-608,0,0,0,0,0,0,0,0,0,-1,1924,1632,0,0
707,-608,0,0,0,0,0,0,0,0,0,-1,1931,1632,0,0
714,-608,0,0,0,0,0,0,0,0,0,-1,1938,1632,0,0
721,-608,0,0,0,0,0,0,0,0,0,-1,1945,1632,0,0
728,-608,0,0,0,0,0,0,0,0,0,-1,1952,1632,0,0
735,-608,0,0,0,0,0,0,0,0,0,-1,1959,1632,0,0
742,-608,0,0,0,0,0,0,0,0,0,-1,1966,1632,0,0
749,-608,0,0,0,0,0,0,0,0,0,-1,1973,1632,0,0
756,-608,0,0,0,0,0,0,0,0,0,-1,1980,1632,0,0
763,-608,0,0,0,0,0,0,0,0,0,-1,1987,1632,0,0
770,-608,0,0,0,0,0,0,0,0,0,-1,1994,1632,0,0
777,-608,0,0,0,0,0,0,0,0,0,-1,2001,1632,0,0
784,-608,0,0,0,0,0,0,0,0,0,-1,2008,1632,0,0
791,-608,0,0,0,0,0,0,0,0,0,-1,2015,1632,0,0
798,-608,0,0,0,0,0,0,0,0,0,-1,2022,1632,0,0
805,-608,0,0,0,0,0,0,0,0,0,-1,2029,1632,0,0
812,-608,0,0,0,0,0,0,0,0,0,-1,2036,1632,0,0
-700,-615,0,0,0,0,0,0,0,0,0,-1,524,1639,0,0
-693,-615,0,0,0,0,0,0,0,0,0,-1,531,1639,0,0
-686,-615,0,0,0,0,0,0,0,0,0,-1,538,1639,0,0
-679,-615,0,0,0,0,0,0,0,0,0,-1,545,1639,0,0
-672,-615,0,0,0,0,0,0,0,0,0,-1,552,1639,0,0
-665,-615,0,0,0,0,0,0,0,0,0,-1,559,1639,0,0
-658,-615,0,0,0,0,0,0,0,0,0,-1,566,1639,0,0
-651,-615,0,0,0,0,0,0,0,0,0,-1,573,1639,0,0
-644,-615,0,0,0,0,0,0,0,0,0,-1,580,1639,0,0
-637,-615,0,0,0,0,0,0,0,0,0,-1,587,1639,0,0
-630,-615,0,0,0,0,0,0,0,0,0,-1,594,1639,0,0
-623,-615,0,0,0,0,0,0,0,0,0,-1,601,1639,0,0
-616,-615,0,0,0,0,0,0,0,0,0,-1,608,1639,0,0
-609,-615,0,0,0,0,0,0,0,0,0,-1,615,1639,0,0
-602,-615,0,0,0,0,0,0,0,0,0,-1,622,1639,0,0
-595,-615,0,0,0,0,0,0,0,0,0,-1,629,1639,0,0
-588,-615,0,0,0,0,0,0,0,0,0,-1,636,1639,0,0
-581,-615,0,0,0,0,0,0,0,0,0,-1,643,1639,0,0
-574,-615,0,0,0,0,0,0,0,0,0,-1,650,1639,0,0
-567,-615,0,0,0,0,0,0,0,0,0,-1,657,1639,0,0
-560,-615,0,0,0,0,0,0,0,0,0,-1,664,1639,0,0
-553,-615,0,0,0,0,0,0,0,0,0,-1,671,1639,0,0
-546,-615,0,0,0,0,0,0,0,0,0,-1,678,1639,0,0
-539,-615,0,0,0,0,0,0,0,0,0,-1,685,1639,0,0
-532,-615,0,0,0,0,0,0,0,0,0,-1,692,1639,0,0
-525,-615,0,0,0,0,0,0,0,0,0,-1,699,1639,0,0
-518,-615,0,0,0,0,0,0,0,0,0,-1,706,1639,0,0
-511,-615,0,0,0,0,0,0,0,0,0,-1,713,1639,0,0
-504,-615,0,0,0,0,0,0,0,0,0,-1,720,1639,0,0
-497,-615,0,0,0,0,0,0,0,0,0,-1,727,1639,0,0
-490,-615,0,0,0,0,0,0,0,0,0,-1,734,1639,0,0
-483,-615,0,0,0,0,0,0,0,0,0,-1,741,1639,0,0
-476,-615,0,0,0,0,0,0,0,0,0,-1,748,1639,0,0
-469,-615,0,0,0,0,0,0,0,0,0,-1,755,1639,0,0
-462,-615,0,0,0,0,0,0,0,0,0,-1,762,1639,0,0
-455,-615,0,0,0,0,0,0,0,0,0,-1,769,1639,0,0
-448,-615,0,0,0,0,0,0,0,0,0,-1,776,1639,0,0
-441,-615,0,0,0,0,0,0,0,0,0,-1,783,1639,0,0
-434,-615,-7.64508,2.98596,0,0,0,0,0,0,0,-1,790,1639,-7.64505,-2.98594
-427,-615,-9.0011,2.89404,0,0,0,0,0,0,0,-1,797,1639,-9.00107,-2.89399
-420,-615,-8.07568,3.0752,0,0,0,0,0,0,0,-1,804,1639,-8.07569,-3.07514
-413,-615,-7.09149,3.396,0,0,0,0,0,0,0,-1,811,1639,-7.09147,-3.39599
-406,-615,-6.21368,3.7312,0,0,0,0,0,0,0,-1,818,1639,-6.21366,-3.73114
-399,-615,-4.84875,3.91907,0,0,0,0,0,0,0,-1,825,1639,-4.84877,-3.91901
-392,-615,1.7395,13.3127,0,0,0,0,0,0,0,-1,832,1639,1.73953,-13.3128
-385,-615,3.42297,14.9401,0,0,0,0,0,0,0,-1,839,1639,3.42296,-14.94
-378,-615,2.58099,32.7034,0,0,0,0,0,0,0,-1,846,1639,2.581,-32.7033
-371,-615,2.47424,33.7521,0,0,0,0,0,0,0,-1,853,1639,2.47426,-33.752
-364,-615,2.21277,34.6632,0,0,0,0,0,0,0,-1,860,1639,2.21279,-34.6632
-357,-615,2.04089,35.2397,0,0,0,0,0,0,0,-1,867,1639,2.04087,-35.2397
-350,-615,2.07892,36.022,-0.00237998,-0.00546676,0.00037009,-0.00233623,-0.00551051,0.117674,0.00319373,0.0323064,874,1639,2.07893,-36.022
-343,-615,2.01337,36.6066,-0.00159081,-0.00447987,0.000483604,-0.00151201,-0.00455867,0.161527,0.0026812,0.020982,881,1639,2.01334,-36.6065
-336,-615,2.01331,37.259,-0.00088494,-0.00344175,0.000560623,-0.000767417,-0.00355928,0.206639,0.00216291,0.0110085,888,1639,2.01328,-37.259
-329,-615,1.9729,37.9325,-0.000234521,-0.0022529,0.000713147,-7.9755e-06,-0.00247945,0.307588,0.00165031,0.0113907,895,1639,1.97289,-37.9324
-322,-615,1.96338,38.5931,0.000360418,-0.00119155,0.000866424,0.000747552,-0.00157868,0.420204,0.00137133,0.013166,902,1639,1.96339,-38.5931
-315,-615,1.93298,39.2485,0.00105053,-0.000177331,0.00111104,0.00170598,-0.000832784,0.532991,0.00149438,0.0161863,909,1639,1.93298,-39.2485
-308,-615,1.84833,39.9041,0.00183276,0.000766943,0.00134873,0.00275004,-0.000150339,0.597252,0.00188547,0.0238796,916,1639,1.84831,-39.9041
-301,-615,1.87201,40.4871,0.00273528,0.00160966,0.00168137,0.00394553,0.000399405,0.623893,0.00250784,0.0138445,923,1639,1.87199,-40.487
-294,-615,1.86932,41.0878,0.00371069,0.00235922,0.00205205,0.00519541,0.000874506,0.626341,0.00321203,0.0103016,930,1639,1.86932,-41.0878
-287,-615,1.81812,41.708,0.00481844,0.00325077,0.00244731,0.00660437,0.00146484,0.630418,0.00400495,0.0077035,937,1639,1.8181,-41.708
-280,-615,1.80103,42.3337,0.00610116,0.00407547,0.00295719,0.00821415,0.00196248,0.620408,0.00495327,0.0103703,944,1639,1.80101,-42.3337
-273,-615,1.76801,42.9493,0.00750788,0.00466402,0.00341907,0.00978891,0.00238299,0.588337,0.00589442,0.0131441,951,1639,1.76801,-42.9494
-266,-615,1.7467,43.551,0.0089977,0.00504042,0.00397599,0.0114602,0.00257794,0.554516,0.00694223,0.0136653,958,1639,1.74672,-43.551
-259,-615,1.77917,44.1385,0.010572,0.00557277,0.00444454,0.0131716,0.00297317,0.52924,0.00797691,0.0143998,965,1639,1.77917,-44.1385
-252,-615,1.78418,44.7942,0.0122825,0.00612044,0.00492511,0.0150109,0.00339205,0.50589,0.00909007,0.0184342,972,1639,1.78419,-44.7942
-245,-615,1.93549,45.5414,0,0,0,0,0,0,0,-1,979,1639,1.9355,-45.5414
-238,-615,1.90552,46.1456,0.0157772,0.0066476,0.00617154,0.0188887,0.00353612,0.466974,0.0115949,0.0412425,986,1639,1.9055,-46.1456
-231,-615,2.05652,46.698,0.0175788,0.0068051,0.00704968,0.0210642,0.00331975,0.459157,0.0130774,0.0488058,993,1639,2.05651,-46.698
-224,-615,2.10858,47.5845,0,0,0,0,0,0,0,-1,1000,1639,2.10857,-47.5845
-217,-615,2.76367,47.4586,0,0,0,0,0,0,0,-1,1007,1639,2.7637,-47.4586
-210,-615,2.48901,18.9324,0,0,0,0,0,0,0,-1,1014,1639,2.48902,-18.9323
-203,-615,2.13684,18.6173,0,0,0,0,0,0,0,-1,1021,1639,2.13683,-18.6173
-196,-615,4.27161,21.3264,0,0,0,0,0,0,0,-1,1028,1639,4.27165,-21.3264
-189,-615,1.8269,19.6761,0,0,0,0,0,0,0,-1,1035,1639,1.82691,-19.6761
-182,-615,1.87402,50.2983,0,0,0,0,0,0,0,-1,1042,1639,1.87402,-50.2984
-175,-615,2.25159,49.2682,0,0,0,0,0,0,0,-1,1049,1639,2.25158,-49.2682
-168,-615,3.85754,15.472,0,0,0,0,0,0,0,-1,1056,1639,3.85757,-15.472
-161,-615,2.14307,46.5156,0,0,0,0,0,0,0,-1,1063,1639,2.14303,-46.5156
-154,-615,1.37329,47.9545,0,0,0,0,0,0,0,-1,1070,1639,1.37327,-47.9545
-147,-615,0.0180664,48.1396,0,0,0,0,0,0,0,-1,1077,1639,0.0180157,-48.1397
-140,-615,3.73401,10.2349,0,0,0,0,0,0,0,-1,1084,1639,3.73402,-10.2348
-133,-615,2.6178,17.45,0,0,0,0,0,0,0,-1,1091,1639,2.61776,-17.4499
-126,-615,4.43408,12.5017,0,0,0,0,0,0,0,-1,1098,1639,4.43403,-12.5018
-119,-615,4.82983,13.9279,0,0,0,0,0,0,0,-1,1105,1639,4.82986,-13.9278
-112,-615,3.65698,14.4874,0,0,0,0,0,0,0,-1,1112,1639,3.65695,-14.4875
-105,-615,0.958496,2.45398,0,0,0,0,0,0,0,-1,1119,1639,0.958452,-2.45398
-98,-615,-0.647705,2.12109,0,0,0,0,0,0,0,-1,1126,1639,-0.647756,-2.12105
-91,-615,-3.07983,2.97375,0,0,0,0,0,0,0,-1,1133,1639,-3.07989,-2.97376
-84,-615,-2.46509,0.703247,0,0,0,0,0,0,0,-1,1140,1639,-2.46505,-0.703273
-77,-615,-3.17859,1.23755,0,0,0,0,0,0,0,-1,1147,1639,-3.17865,-1.23752
-70,-615,-4.03943,1.43335,0,0,0,0,0,0,0,-1,1154,1639,-4.03942,-1.43339
-63,-615,-4.8877,1.45544,0,0,0,0,0,0,0,-1,1161,1639,-4.88766,-1.45549
-56,-615,0,0,0,0,0,0,0,0,0,-1,1168,1639,0,0
-49,-615,0,0,0,0,0,0,0,0,0,-1,1175,1639,0,0
-42,-615,0,0,0,0,0,0,0,0,0,-1,1182,1639,0,0
-35,-615,0,0,0,0,0,0,0,0,0,-1,1189,1639,0,0
-28,-615,0,0,0,0,0,0,0,0,0,-1,1196,1639,0,0
-21,-615,0,0,0,0,0,0,0,0,0,-1,1203,1639,0,0
-14,-615,0,0,0,0,0,0,0,0,0,-1,1210,1639,0,0
-7,-615,0,0,0,0,0,0,0,0,0,-1,1217,1639,0,0
0,-615,0,0,0,0,0,0,0,0,0,-1,1224,1639,0,0
7,-615,0,0,0,0,0,0,0,0,0,-1,1231,1639,0,0
14,-615,0,0,0,0,0,0,0,0,0,-1,1238,1639,0,0
21,-615,0,0,0,0,0,0,0,0,0,-1,1245,1639,0,0
28,-615,0,0,0,0,0,0,0,0,0,-1,1252,1639,0,0
35,-615,0,0,0,0,0,0,0,0,0,-1,1259,1639,0,0
42,-615,0,0,0,0,0,0,0,0,0,-1,1266,1639,0,0
49,-615,0,0,0,0,0,0,0,0,0,-1,1273,1639,0,0
56,-615,0,0,0,0,0,0,0,0,0,-1,1280,1639,0,0
63,-615,0,0,0,0,0,0,0,0,0,-1,1287,1639,0,0
70,-615,0,0,0,0,0,0,0,0,0,-1,1294,1639,0,0
77,-615,0,0,0,0,0,0,0,0,0,-1,1301,1639,0,0
84,-615,0,0,0,0,0,0,0,0,0,-1,1308,1639,0,0
91,-615,0,0,0,0,0,0,0,0,0,-1,1315,1639,0,0
98,-615,0,0,0,0,0,0,0,0,0,-1,1322,1639,0,0
105,-615,0,0,0,0,0,0,0,0,0,-1,1329,1639,0,0
112,-615,0,0,0,0,0,0,0,0,0,-1,1336,1639,0,0
119,-615,0,0,0,0,0,0,0,0,0,-1,1343,1639,0,0
126,-615,0,0,0,0,0,0,0,0,0,-1,1350,1639,0,0
133,-615,0,0,0,0,0,0,0,0,0,-1,1357,1639,0,0
140,-615,0,0,0,0,0,0,0,0,0,-1,1364,1639,0,0
147,-615,0,0,0,0,0,0,0,0,0,-1,1371,1639,0,0
154,-615,0,0,0,0,0,0,0,0,0,-1,1378,1639,0,0
161,-615,0,0,0,0,0,0,0,0,0,-1,1385,1639,0,0
168,-615,0,0,0,0,0,0,0,0,0,-1,1392,1639,0,0
175,-615,5.39648,-2.00879,0,0,0,0,0,0,0,-1,1399,1639,5.3965,2.00881
182,-615,5.65393,-1.51025,0,0,0,0,0,0,0,-1,1406,1639,5.65388,1.51028
189,-615,5.58972,-1.35608,0,0,0,0,0,0,0,-1,1413,1639,5.58967,1.35607
196,-615,5.49915,-0.693604,0,0,0,0,0,0,0,-1,1420,1639,5.4991,0.693602
203,-615,5.33411,-0.226685,0,0,0,0,0,0,0,-1,1427,1639,5.33414,0.226689
210,-615,5.60278,0.108276,0,0,0,0,0,0,0,-1,1434,1639,5.60284,-0.10831
217,-615,6.26331,-0.307373,0,0,0,0,0,0,0,-1,1441,1639,6.26331,0.307372
224,-615,5.45422,-0.333984,0,0,0,0,0,0,0,-1,1448,1639,5.45422,0.333992
231,-615,4.92542,1.80298,0,0,0,0,0,0,0,-1,1455,1639,4.92537,-1.80297
238,-615,4.76355,1.96729,0,0,0,0,0,0,0,-1,1462,1639,4.76357,-1.96734
245,-615,4.08643,3.15906,0,0,0,0,0,0,0,-1,1469,1639,4.08638,-3.159
252,-615,6.37805,3.73889,0,0,0,0,0,0,0,-1,1476,1639,6.37806,-3.73891
259,-615,8.35974,3.16443,0,0,0,0,0,0,0,-1,1483,1639,8.35975,-3.16444
266,-615,10.3414,2.58997,0,0,0,0,0,0,0,-1,1490,1639,10.3414,-2.58996
273,-615,6.57043,1.84766,0,0,0,0,0,0,0,-1,1497,1639,6.5704,-1.84771
280,-615,7.10449,3.23438,0,0,0,0,0,0,0,-1,1504,1639,7.10447,-3.23435
287,-615,7.35779,4.68542,0,0,0,0,0,0,0,-1,1511,1639,7.35776,-4.68546
294,-615,7.63733,6.29114,0,0,0,0,0,0,0,-1,1518,1639,7.63735,-6.29109
301,-615,8.47925,11.452,0,0,0,0,0,0,0,-1,1525,1639,8.47922,-11.452
308,-615,6.8114,10.9059,0,0,0,0,0,0,0,-1,1532,1639,6.81137,-10.9058
315,-615,5.1427,14.7251,0,0,0,0,0,0,0,-1,1539,1639,5.14269,-14.7251
322,-615,7.17981,17.6864,0,0,0,0,0,0,0,-1,1546,1639,7.17985,-17.6864
329,-615,7.62134,20.4354,0,0,0,0,0,0,0,-1,1553,1639,7.62139,-20.4354
336,-615,6.45007,14.1138,0,0,0,0,0,0,0,-1,1560,1639,6.45011,-14.1138
343,-615,2.40491,6.50134,0,0,0,0,0,0,0,-1,1567,1639,2.40489,-6.50137
350,-615,15.046,46.4662,0,0,0,0,0,0,0,-1,1574,1639,15.046,-46.4662
357,-615,16.2205,47.2754,0,0,0,0,0,0,0,-1,1581,1639,16.2204,-47.2754
364,-615,16.0795,46.6483,0,0,0,0,0,0,0,-1,1588,1639,16.0794,-46.6483
371,-615,16.0833,46.0522,-0.000135279,0.0196343,-0.0012708,0.0197156,-0.000216632,-1.50687,0.0132166,0.0378913,1595,1639,16.0833,-46.0522
378,-615,16.2411,45.0851,-0.000590221,0.0168036,-0.000461132,0.0168159,-0.000602436,-1.54431,0.0114167,0.0202592,1602,1639,16.2411,-45.085
385,-615,16.241,44.4363,-0.00103156,0.0142759,8.25099e-05,0.0142763,-0.001032,1.56541,0.00987953,0.0133584,1609,1639,16.241,-44.4363
392,-615,16.261,43.873,-0.00121489,0.01206,0.000355797,0.0120695,-0.00122442,1.54402,0.00848397,0.0112217,1616,1639,16.261,-43.873
399,-615,16.2531,43.2908,-0.00112504,0.0102337,0.000321595,0.0102428,-0.00113414,1.54251,0.00723625,0.0115708,1623,1639,16.2531,-43.2908
406,-615,16.2478,42.7218,-0.000890634,0.00860492,0.000104865,0.00860608,-0.000891792,1.55975,0.00605657,0.010994,1630,1639,16.2478,-42.7218
413,-615,16.2538,42.1461,-0.000552944,0.00715985,-0.000187783,0.00716442,-0.000557513,-1.54647,0.00497254,0.0124058,1637,1639,16.2538,-42.1461
420,-615,16.2435,41.5306,-0.000181925,0.00597634,-0.000529005,0.00602145,-0.000227036,-1.48573,0.00409208,0.0136231,1644,1639,16.2436,-41.5307
427,-615,16.2168,40.9176,0.000147221,0.00487772,-0.000830161,0.00501917,5.76535e-06,-1.40202,0.00334419,0.0146873,1651,1639,16.2168,-40.9176
434,-615,16.1943,40.3229,0.000518268,0.0041549,-0.00123195,0.00453294,0.000140232,-1.27306,0.00297632,0.0142947,1658,1639,16.1944,-40.3229
441,-615,16.1691,39.7327,0.000898791,0.00333395,-0.00163775,0.00415714,7.56022e-05,-1.10504,0.00274657,0.0151883,1665,1639,16.1691,-39.7327
448,-615,16.1584,39.127,0.00123557,0.0026175,-0.00193651,0.00398262,-0.000129553,-0.956763,0.0026993,0.0153457,1672,1639,16.1584,-39.1269
455,-615,16.1466,38.5048,0.00142719,0.00206526,-0.0021195,0.00388961,-0.000397154,-0.860099,0.00273508,0.0147931,1679,1639,16.1466,-38.5048
462,-615,16.1058,37.8928,0.00139053,0.0013488,-0.00212616,0.00349593,-0.000756597,-0.780491,0.0026195,0.0160492,1686,1639,16.1058,-37.8928
469,-615,16.0496,37.2505,0.00128432,0.000540579,-0.0020539,0.00299975,-0.00117485,-0.69584,0.00248578,0.0134402,1693,1639,16.0495,-37.2505
476,-615,16.0216,36.594,0.00121099,-9.47344e-05,-0.00191189,0.00257841,-0.00146216,-0.620868,0.00236231,0.0117585,1700,1639,16.0216,-36.594
483,-615,16.0465,35.8615,0.00105466,-0.000778946,-0.00180502,0.00216236,-0.00188665,-0.550417,0.0023395,0.0285058,1707,1639,16.0465,-35.8614
490,-615,16.0397,35.267,0.000506559,-0.00115919,-0.00174554,0.00160774,-0.00226038,-0.5628,0.00224383,0.0483552,1714,1639,16.0397,-35.267
497,-615,15.8983,34.6216,0,0,0,0,0,0,0,-1,1721,1639,15.8983,-34.6216
504,-615,15.389,31.2102,0,0,0,0,0,0,0,-1,1728,1639,15.389,-31.2102
511,-615,15.2349,30.2052,0,0,0,0,0,0,0,-1,1735,1639,15.2348,-30.2052
518,-615,13.2416,9.81812,0,0,0,0,0,0,0,-1,1742,1639,13.2416,-9.81813
525,-615,4.37524,3.90491,0,0,0,0,0,0,0,-1,1749,1639,4.37518,-3.90495
532,-615,7.3645,0.848145,0,0,0,0,0,0,0,-1,1756,1639,7.36451,-0.848093
539,-615,12.8112,-0.0476074,0,0,0,0,0,0,0,-1,1763,1639,12.8111,0.0475553
546,-615,8.33813,2.94556,0,0,0,0,0,0,0,-1,1770,1639,8.33813,-2.9455
553,-615,5.82532,-2.04199,0,0,0,0,0,0,0,-1,1777,1639,5.82534,2.04195
560,-615,0,0,0,0,0,0,0,0,0,-1,1784,1639,0,0
567,-615,0,0,0,0,0,0,0,0,0,-1,1791,1639,0,0
574,-615,0,0,0,0,0,0,0,0,0,-1,1798,1639,0,0
581,-615,0,0,0,0,0,0,0,0,0,-1,1805,1639,0,0
588,-615,0,0,0,0,0,0,0,0,0,-1,1812,1639,0,0
595,-615,0,0,0,0,0,0,0,0,0,-1,1819,1639,0,0
602,-615,0,0,0,0,0,0,0,0,0,-1,1826,1639,0,0
609,-615,0,0,0,0,0,0,0,0,0,-1,1833,1639,0,0
616,-615,0,0,0,0,0,0,0,0,0,-1,1840,1639,0,0
623,-615,0,0,0,0,0,0,0,0,0,-1,1847,1639,0,0
630,-615,0,0,0,0,0,0,0,0,0,-1,1854,1639,0,0
637,-615,0,0,0,0,0,0,0,0,0,-1,1861,1639,0,0
644,-615,0,0,0,0,0,0,0,0,0,-1,1868,1639,0,0
651,-615,0,0,0,0,0,0,0,0,0,-1,1875,1639,0,0
658,-615,0,0,0,0,0,0,0,0,0,-1,1882,1639,0,0
665,-615,0,0,0,0,0,0,0,0,0,-1,1889,1639,0,0
672,-615,0,0,0,0,0,0,0,0,0,-1,1896,1639,0,0
679,-615,0,0,0,0,0,0,0,0,0,-1,1903,1639,0,0
686,-615,0,0,0,0,0,0,0,0,0,-1,1910,1639,0,0
693,-615,0,0,0,0,0,0,0,0,0,-1,1917,1639,0,0
700,-615,0,0,0,0,0,0,0,0,0,-1,1924,1639,0,0
707,-615,0,0,0,0,0,0,0,0,0,-1,1931,1639,0,0
714,-615,0,0,0,0,0,0,0,0,0,-1,1938,1639,0,0
721,-615,0,0,0,0,0,0,0,0,0,-1,1945,1639,0,0
728,-615,0,0,0,0,0,0,0,0,0,-1,1952,1639,0,0
735,-615,0,0,0,0,0,0,0,0,0,-1,1959,1639,0,0
742,-615,0,0,0,0,0,0,0,0,0,-1,1966,1639,0,0
749,-615,0,0,0,0,0,0,0,0,0,-1,1973,1639,0,0
756,-615,0,0,0,0,0,0,0,0,0,-1,1980,1639,0,0
763,-615,0,0,0,0,0,0,0,0,0,-1,1987,1639,0,0
770,-615,0,0,0,0,0,0,0,0,0,-1,1994,1639,0,0
777,-615,0,0,0,0,0,0,0,0,0,-1,2001,1639,0,0
784,-615,0,0,0,0,0,0,0,0,0,-1,2008,1639,0,0
791,-615,0,0,0,0,0,0,0,0,0,-1,2015,1639,0,0
798,-615,0,0,0,0,0,0,0,0,0,-1,2022,1639,0,0
805,-615,0,0,0,0,0,0,0,0,0,-1,2029,1639,0,0
812,-615,0,0,0,0,0,0,0,0,0,-1,2036,1639,0,0
-700,-622,0,0,0,0,0,0,0,0,0,-1,524,1646,0,0
-693,-622,0,0,0,0,0,0,0,0,0,-1,531,1646,0,0
-686,-622,0,0,0,0,0,0,0,0,0,-1,538,1646,0,0
-679,-622,0,0,0,0,0,0,0,0,0,-1,545,1646,0,0
-672,-622,0,0,0,0,0,0,0,0,0,-1,552,1646,0,0
-665,-622,0,0,0,0,0,0,0,0,0,-1,559,1646,0,0
-658,-622,0,0,0,0,0,0,0,0,0,-1,566,1646,0,0
-651,-622,0,0,0,0,0,0,0,0,0,-1,573,1646,0,0
-644,-622,0,0,0,0,0,0,0,0,0,-1,580,1646,0,0
-637,-622,0,0,0,0,0,0,0,0,0,-1,587,1646,0,0
-630,-622,0,0,0,0,0,0,0,0,0,-1,594,1646,0,0
-623,-622,0,0,0,0,0,0,0,0,0,-1,601,1646,0,0
-616,-622,0,0,0,0,0,0,0,0,0,-1,608,1646,0,0
-609,-622,0,0,0,0,0,0,0,0,0,-1,615,1646,0,0
-602,-622,0,0,0,0,0,0,0,0,0,-1,622,1646,0,0
-595,-622,0,0,0,0,0,0,0,0,0,-1,629,1646,0,0
-588,-622,0,0,0,0,0,0,0,0,0,-1,636,1646,0,0
-581,-622,0,0,0,0,0,0,0,0,0,-1,643,1646,0,0
-574,-622,0,0,0,0,0,0,0,0,0,-1,650,1646,0,0
-567,-622,0,0,0,0,0,0,0,0,0,-1,657,1646,0,0
-560,-622,0,0,0,0,0,0,0,0,0,-1,664,1646,0,0
-553,-622,0,0,0,0,0,0,0,0,0,-1,671,1646,0,0
-546,-622,0,0,0,0,0,0,0,0,0,-1,678,1646,0,0
-539,-622,0,0,0,0,0,0,0,0,0,-1,685,1646,0,0
-532,-622,0,0,0,0,0,0,0,0,0,-1,692,1646,0,0
-525,-622,0,0,0,0,0,0,0,0,0,-1,699,1646,0,0
-518,-622,0,0,0,0,0,0,0,0,0,-1,706,1646,0,0
-511,-622,0,0,0,0,0,0,0,0,0,-1,713,1646,0,0
-504,-622,0,0,0,0,0,0,0,0,0,-1,720,1646,0,0
-497,-622,0,0,0,0,0,0,0,0,0,-1,727,1646,0,0
-490,-622,0,0,0,0,0,0,0,0,0,-1,734,1646,0,0
-483,-622,0,0,0,0,0,0,0,0,0,-1,741,1646,0,0
-476,-622,0,0,0,0,0,0,0,0,0,-1,748,1646,0,0
-469,-622,0,0,0,0,0,0,0,0,0,-1,755,1646,0,0
-462,-622,0,0,0,0,0,0,0,0,0,-1,762,1646,0,0
-455,-622,0,0,0,0,0,0,0,0,0,-1,769,1646,0,0
-448,-622,0,0,0,0,0,0,0,0,0,-1,776,1646,0,0
-441,-622,0,0,0,0,0,0,0,0,0,-1,783,1646,0,0
-434,-622,0,0,0,0,0,0,0,0,0,-1,790,1646,0,0
-427,-622,-7.62891,3.48096,0,0,0,0,0,0,0,-1,797,1646,-7.62892,-3.48092
-420,-622,-9.35791,1.77185,0,0,0,0,0,0,0,-1,804,1646,-9.35789,-1.77183
-413,-622,-8.46075,1.96777,0,0,0,0,0,0,0,-1,811,1646,-8.46074,-1.96774
-406,-622,-4.44318,2.16858,0,0,0,0,0,0,0,-1,818,1646,-4.44315,-2.16859
-399,-622,-7.06976,1.51001,0,0,0,0,0,0,0,-1,825,1646,-7.06976,-1.51005
-392,-622,3.89551,5.85376,0,0,0,0,0,0,0,-1,832,1646,3.8955,-5.85379
-385,-622,2.00543,14.0448,0,0,0,0,0,0,0,-1,839,1646,2.00544,-14.0448
-378,-622,1.49036,15.3436,0,0,0,0,0,0,0,-1,846,1646,1.49033,-15.3436
-371,-622,2.49225,33.3936,0,0,0,0,0,0,0,-1,853,1646,2.49222,-33.3936
-364,-622,2.65521,34.6584,0,0,0,0,0,0,0,-1,860,1646,2.65523,-34.6585
-357,-622,3.03217,35.1378,0,0,0,0,0,0,0,-1,867,1646,3.03218,-35.1378
-350,-622,2.84961,35.9872,-0.00311089,-0.00799985,0.000203122,-0.00310247,-0.00800828,0.0414518,0.00466249,0.044764,874,1646,2.8496,-35.9872
-343,-622,2.59039,36.6997,-0.00225092,-0.00659124,0.000326962,-0.00222643,-0.00661574,0.0747689,0.00388704,0.025654,881,1646,2.5904,-36.6997
-336,-622,2.64545,37.2859,-0.00147787,-0.00522634,0.000355279,-0.00144449,-0.00525971,0.0936683,0.00313784,0.0094822,888,1646,2.64544,-37.2859
-329,-622,2.60364,37.939,-0.00081631,-0.00380746,0.000416821,-0.000759311,-0.00386446,0.135902,0.0023642,0.00873415,895,1646,2.60362,-37.939
-322,-622,2.59351,38.6058,-0.000323252,-0.00254663,0.000485568,-0.000221834,-0.00264805,0.205905,0.00169626,0.0107277,902,1646,2.5935,-38.6058
-315,-622,2.55029,39.2627,0.000217107,-0.00143905,0.000589911,0.000405743,-0.00162769,0.309495,0.00124265,0.0149147,909,1646,2.55032,-39.2627
-308,-622,2.52057,39.8768,0.000870274,-0.000417766,0.000742437,0.00120909,-0.000756585,0.428132,0.00114487,0.0151078,916,1646,2.52055,-39.8768
-301,-622,2.51648,40.4751,0.0015882,0.000449127,0.000974249,0.00214718,-0.000109845,0.520892,0.00146943,0.0141831,923,1646,2.51647,-40.4751
-294,-622,2.47534,41.1099,0.00239169,0.00116974,0.00125556,0.00317704,0.000384387,0.558956,0.00200223,0.0105795,930,1646,2.47532,-41.1099
-287,-622,2.43799,41.723,0.00325064,0.00201449,0.00153748,0.00428963,0.000975496,0.594281,0.00259641,0.00779738,937,1646,2.43798,-41.723
-280,-622,2.42157,42.3276,0.00421733,0.00279006,0.00192214,0.00555404,0.00145336,0.607649,0.00332583,0.00976498,944,1646,2.42159,-42.3276
-273,-622,2.41016,42.926,0.00530231,0.00326366,0.00230414,0.00680252,0.00176344,0.577146,0.00407639,0.0160944,951,1646,2.41017,-42.926
-266,-622,2.36786,43.5449,0.00648356,0.00358468,0.00278325,0.00817217,0.00189607,0.545335,0.00493894,0.0159006,958,1646,2.36784,-43.5449
-259,-622,2.37787,44.1791,0.0077167,0.00400656,0.00315501,0.0095216,0.00220167,0.519633,0.00575595,0.013099,965,1646,2.3779,-44.1791
-252,-622,2.36743,44.7349,0.00903236,0.00445705,0.00351104,0.0109353,0.00255414,0.496663,0.0066055,0.0133828,972,1646,2.36745,-44.7349
-245,-622,2.4079,45.3217,0.0103372,0.0048294,0.00390683,0.0123632,0.00280342,0.478397,0.00748475,0.0129499,979,1646,2.40789,-45.3216
-238,-622,2.40851,45.8949,0.0117367,0.0048769,0.00439656,0.013883,0.0027306,0.454144,0.00849274,0.0158273,986,1646,2.40849,-45.8949
-231,-622,2.47943,46.5596,0.0132169,0.00508456,0.00507357,0.0156527,0.00264882,0.447587,0.00967382,0.0253072,993,1646,2.47946,-46.5596
-224,-622,2.58728,47.0098,0.0144098,0.00533141,0.00566782,0.0171321,0.00260917,0.447762,0.0106586,0.0380019,1000,1646,2.58727,-47.0097
-217,-622,2.80786,47.4943,0.0151343,0.0054168,0.00633329,0.0182579,0.00229321,0.458195,0.0114841,0.0464588,1007,1646,2.80788,-47.4943
-210,-622,2.95697,48.3899,0,0,0,0,0,0,0,-1,1014,1646,2.957,-48.3899
-203,-622,4.21375,20.9574,0,0,0,0,0,0,0,-1,1021,1646,4.21375,-20.9574
-196,-622,4.18518,21.2491,0,0,0,0,0,0,0,-1,1028,1646,4.18521,-21.2491
-189,-622,2.91577,49.3859,0,0,0,0,0,0,0,-1,1035,1646,2.9158,-49.3859
-182,-622,3.00281,50.8746,0,0,0,0,0,0,0,-1,1042,1646,3.0028,-50.8747
-175,-622,2.70886,51.1761,0,0,0,0,0,0,0,-1,1049,1646,2.70886,-51.1761
-168,-622,2.20667,49.605,0,0,0,0,0,0,0,-1,1056,1646,2.20671,-49.605
-161,-622,2.91394,48.1183,0,0,0,0,0,0,0,-1,1063,1646,2.91396,-48.1183
-154,-622,3.18774,47.9808,0,0,0,0,0,0,0,-1,1070,1646,3.1878,-47.9808
-147,-622,1.85205,49.8027,0,0,0,0,0,0,0,-1,1077,1646,1.85208,-49.8027
-140,-622,0.546997,48.6783,0,0,0,0,0,0,0,-1,1084,1646,0.547022,-48.6784
-133,-622,3.09644,17.677,0,0,0,0,0,0,0,-1,1091,1646,3.09638,-17.677
-126,-622,3.5061,19.5251,0,0,0,0,0,0,0,-1,1098,1646,3.50616,-19.5252
-119,-622,4.06384,13.1715,0,0,0,0,0,0,0,-1,1105,1646,4.06379,-13.1716
-112,-622,4.33276,14.6605,0,0,0,0,0,0,0,-1,1112,1646,4.33281,-14.6605
-105,-622,0.306519,4.38159,0,0,0,0,0,0,0,-1,1119,1646,0.306536,-4.38159
-98,-622,-0.510376,3.5033,0,0,0,0,0,0,0,-1,1126,1646,-0.510393,-3.50324
-91,-622,-1.146,0.975952,0,0,0,0,0,0,0,-1,1133,1646,-1.14599,-0.97597
-84,-622,-2.04895,1.31787,0,0,0,0,0,0,0,-1,1140,1646,-2.0489,-1.31781
-77,-622,-1.80627,0.332275,0,0,0,0,0,0,0,-1,1147,1646,-1.80622,-0.33223
-70,-622,-3.65588,2.28149,0,0,0,0,0,0,0,-1,1154,1646,-3.65589,-2.28155
-63,-622,-2.49683,1.27087,0,0,0,0,0,0,0,-1,1161,1646,-2.49679,-1.27093
-56,-622,-2.44238,-0.575562,0,0,0,0,0,0,0,-1,1168,1646,-2.44242,0.575508
-49,-622,-2.41089,1.38818,0,0,0,0,0,0,0,-1,1175,1646,-2.41088,-1.38815
-42,-622,-2.71497,2.85242,0,0,0,0,0,0,0,-1,1182,1646,-2.71491,-2.85247
-35,-622,-3.0177,4.25842,0,0,0,0,0,0,0,-1,1189,1646,-3.01773,-4.25838
-28,-622,-0.896606,0.678833,0,0,0,0,0,0,0,-1,1196,1646,-0.89661,-0.678835
-21,-622,16.4141,36.2849,0,0,0,0,0,0,0,-1,1203,1646,16.4141,-36.285
-14,-622,22.5557,61.7714,0,0,0,0,0,0,0,-1,1210,1646,22.5557,-61.7714
-7,-622,2.05774,47.2183,0,0,0,0,0,0,0,-1,1217,1646,2.05772,-47.2183
0,-622,0,0,0,0,0,0,0,0,0,-1,1224,1646,0,0
7,-622,0,0,0,0,0,0,0,0,0,-1,1231,1646,0,0
14,-622,0,0,0,0,0,0,0,0,0,-1,1238,1646,0,0
21,-622,0,0,0,0,0,0,0,0,0,-1,1245,1646,0,0
28,-622,0,0,0,0,0,0,0,0,0,-1,1252,1646,0,0
35,-622,0,0,0,0,0,0,0,0,0,-1,1259,1646,0,0
42,-622,0,0,0,0,0,0,0,0,0,-1,1266,1646,0,0
49,-622,0,0,0,0,0,0,0,0,0,-1,1273,1646,0,0
56,-622,0,0,0,0,0,0,0,0,0,-1,1280,1646,0,0
63,-622,0,0,0,0,0,0,0,0,0,-1,1287,1646,0,0
70,-622,0,0,0,0,0,0,0,0,0,-1,1294,1646,0,0
77,-622,0,0,0,0,0,0,0,0,0,-1,1301,1646,0,0
84,-622,0,0,0,0,0,0,0,0,0,-1,1308,1646,0,0
91,-622,0,0,0,0,0,0,0,0,0,-1,1315,1646,0,0
98,-622,0,0,0,0,0,0,0,0,0,-1,1322,1646,0,0
105,-622,0,0,0,0,0,0,0,0,0,-1,1329,1646,0,0
112,-622,0,0,0,0,0,0,0,0,0,-1,1336,1646,0,0
119,-622,0,0,0,0,0,0,0,0,0,-1,1343,1646,0,0
126,-622,12.4758,54.5256,0,0,0,0,0,0,0,-1,1350,1646,12.4759,-54.5256
133,-622,12.723,54.2915,0,0,0,0,0,0,0,-1,1357,1646,12.723,-54.2915
140,-622,13.0311,52.5823,0.0863147,-0.0137692,-0.0714201,0.12348,-0.0509341,-0.47981,0.103561,0.0455869,1364,1646,13.0311,-52.5822
147,-622,13.4269,51.0204,0,0,0,0,0,0,0,-1,1371,1646,13.4268,-51.0204
154,-622,13.7296,49.3832,0,0,0,0,0,0,0,-1,1378,1646,13.7297,-49.3832
161,-622,10.6884,6.46448,0,0,0,0,0,0,0,-1,1385,1646,10.6883,-6.46442
168,-622,12.2402,5.18091,0,0,0,0,0,0,0,-1,1392,1646,12.2403,-5.1809
175,-622,5.64355,-1.77075,0,0,0,0,0,0,0,-1,1399,1646,5.64351,1.77077
182,-622,5.88586,-1.32251,0,0,0,0,0,0,0,-1,1406,1646,5.88587,1.32256
189,-622,5.97986,-1.18005,0,0,0,0,0,0,0,-1,1413,1646,5.97986,1.18003
196,-622,5.85022,-0.244507,0,0,0,0,0,0,0,-1,1420,1646,5.85026,0.244478
203,-622,5.25159,0.138794,0,0,0,0,0,0,0,-1,1427,1646,5.25162,-0.138822
210,-622,6.66833,0.0397949,0,0,0,0,0,0,0,-1,1434,1646,6.6684,-0.0398278
217,-622,6.12061,0.0506592,0,0,0,0,0,0,0,-1,1441,1646,6.12058,-0.0507181
224,-622,5.57275,0.0616455,0,0,0,0,0,0,0,-1,1448,1646,5.57276,-0.0616084
231,-622,5.31348,1.3949,0,0,0,0,0,0,0,-1,1455,1646,5.31342,-1.39495
238,-622,3.76477,2.90686,0,0,0,0,0,0,0,-1,1462,1646,3.7648,-2.90686
245,-622,5.13794,2.67993,0,0,0,0,0,0,0,-1,1469,1646,5.13796,-2.67992
252,-622,6.66528,2.53992,0,0,0,0,0,0,0,-1,1476,1646,6.66522,-2.53991
259,-622,8.93787,3.31458,0,0,0,0,0,0,0,-1,1483,1646,8.93791,-3.31454
266,-622,5.72644,3.11926,0,0,0,0,0,0,0,-1,1490,1646,5.72647,-3.1192
273,-622,7.28076,3.61218,0,0,0,0,0,0,0,-1,1497,1646,7.28071,-3.61212
280,-622,8.43127,4.4447,0,0,0,0,0,0,0,-1,1504,1646,8.43123,-4.44467
287,-622,8.60315,5.94617,0,0,0,0,0,0,0,-1,1511,1646,8.60319,-5.94622
294,-622,7.62756,11.5143,0,0,0,0,0,0,0,-1,1518,1646,7.62762,-11.5143
301,-622,7.36548,11.6569,0,0,0,0,0,0,0,-1,1525,1646,7.36549,-11.6569
308,-622,7.10339,11.7994,0,0,0,0,0,0,0,-1,1532,1646,7.10335,-11.7995
315,-622,8.28687,16.5842,0,0,0,0,0,0,0,-1,1539,1646,8.28689,-16.5843
322,-622,7.43689,20.5786,0,0,0,0,0,0,0,-1,1546,1646,7.43685,-20.5786
329,-622,9.76477,26.4202,0,0,0,0,0,0,0,-1,1553,1646,9.7648,-26.4202
336,-622,10.4526,28.8552,0,0,0,0,0,0,0,-1,1560,1646,10.4526,-28.8552
343,-622,15.5519,47.8259,0,0,0,0,0,0,0,-1,1567,1646,15.5519,-47.826
350,-622,15.8442,47.3656,0,0,0,0,0,0,0,-1,1574,1646,15.8443,-47.3656
357,-622,15.7267,47.0084,0.00266544,0.0201275,-0.00332883,0.0207406,0.00205238,-1.38867,0.0131962,0.042523,1581,1646,15.7266,-47.0084
364,-622,15.6262,46.3827,0.00159262,0.0177155,-0.00231768,0.018042,0.00126606,-1.43082,0.011629,0.0337355,1588,1646,15.6262,-46.3827
371,-622,15.6541,45.7025,0.00105392,0.015262,-0.00146886,0.0154123,0.000903659,-1.46885,0.00998727,0.0207961,1595,1646,15.6541,-45.7026
378,-622,15.6873,45.0575,0.000578947,0.0131268,-0.000868317,0.0131867,0.000519145,-1.50203,0.00862326,0.0129593,1602,1646,15.6873,-45.0575
385,-622,15.6917,44.4414,0.000151484,0.0111505,-0.000451076,0.011169,0.000133016,-1.52988,0.00740207,0.0108563,1609,1646,15.6917,-44.4414
392,-622,15.6649,43.895,-9.09818e-05,0.00939959,-0.000237437,0.00940552,-9.69181e-05,-1.5458,0.0063029,0.0109476,1616,1646,15.6649,-43.8951
399,-622,15.6376,43.3223,-0.000133946,0.00791723,-0.00026459,0.00792591,-0.000142632,-1.53798,0.00533212,0.0108332,1623,1646,15.6376,-43.3223
406,-622,15.6383,42.7286,-5.09867e-05,0.00657411,-0.000428849,0.00660175,-7.86311e-05,-1.50642,0.00442761,0.0136439,1630,1646,15.6383,-42.7286
413,-622,15.6477,42.1501,0.000105888,0.00535985,-0.0006105,0.00542985,3.58815e-05,-1.45662,0.003608,0.0154075,1637,1646,15.6478,-42.1501
420,-622,15.64,41.5897,0.000319503,0.00436446,-0.000853689,0.00453725,0.000146713,-1.37109,0.00297713,0.0156319,1644,1646,15.6401,-41.5898
427,-622,15.6189,40.9479,0.00052954,0.00344937,-0.00109325,0.00381333,0.000165573,-1.24942,0.00248887,0.0126664,1651,1646,15.6188,-40.9479
434,-622,15.5956,40.3307,0.000787209,0.0028791,-0.00142189,0.00359831,6.80011e-05,-1.10251,0.00237653,0.0135957,1658,1646,15.5956,-40.3306
441,-622,15.5555,39.7606,0.0010718,0.00228434,-0.00175924,0.00353885,-0.000182709,-0.951335,0.00242243,0.0158469,1665,1646,15.5555,-39.7606
448,-622,15.5295,39.161,0.00133901,0.00181803,-0.00204591,0.0036384,-0.000481362,-0.843668,0.00260094,0.0149695,1672,1646,15.5295,-39.161
455,-622,15.501,38.5137,0.00145092,0.00142477,-0.0022385,0.00367638,-0.00080069,-0.782478,0.00275685,0.0170085,1679,1646,15.501,-38.5137
462,-622,15.4801,37.8942,0.00145051,0.000975511,-0.00231424,0.00353941,-0.00111338,-0.734264,0.00280537,0.0181179,1686,1646,15.4801,-37.8941
469,-622,15.4333,37.2723,0.00148536,0.000449263,-0.00239564,0.00341833,-0.0014837,-0.678914,0.00290273,0.0185361,1693,1646,15.4334,-37.2724
476,-622,15.5515,36.6321,0.00161637,5.83072e-05,-0.00243655,0.00339539,-0.00172072,-0.630671,0.00300607,0.0358642,1700,1646,15.5516,-36.6321
483,-622,15.6761,35.874,0,0,0,0,0,0,0,-1,1707,1646,15.6762,-35.874
490,-622,15.511,35.3286,0,0,0,0,0,0,0,-1,1714,1646,15.511,-35.3286
497,-622,14.9666,32.1024,0,0,0,0,0,0,0,-1,1721,1646,14.9665,-32.1024
504,-622,10.8306,19.8021,0,0,0,0,0,0,0,-1,1728,1646,10.8306,-19.8022
511,-622,5.29004,4.14587,0,0,0,0,0,0,0,-1,1735,1646,5.29008,-4.14589
518,-622,5.6001,1.55359,0,0,0,0,0,0,0,-1,1742,1646,5.60015,-1.5536
525,-622,5.83093,2.01807,0,0,0,0,0,0,0,-1,1749,1646,5.83097,-2.01802
532,-622,5.44202,0.57373,0,0,0,0,0,0,0,-1,1756,1646,5.44196,-0.573705
539,-622,9.32129,1.06116,0,0,0,0,0,0,0,-1,1763,1646,9.32131,-1.0612
546,-622,6.50977,-3.45618,0,0,0,0,0,0,0,-1,1770,1646,6.50981,3.4562
553,-622,0,0,0,0,0,0,0,0,0,-1,1777,1646,0,0
560,-622,0,0,0,0,0,0,0,0,0,-1,1784,1646,0,0
567,-622,0,0,0,0,0,0,0,0,0,-1,1791,1646,0,0
574,-622,0,0,0,0,0,0,0,0,0,-1,1798,1646,0,0
581,-622,0,0,0,0,0,0,0,0,0,-1,1805,1646,0,0
588,-622,0,0,0,0,0,0,0,0,0,-1,1812,1646,0,0
595,-622,0,0,0,0,0,0,0,0,0,-1,1819,1646,0,0
602,-622,0,0,0,0,0,0,0,0,0,-1,1826,1646,0,0
609,-622,0,0,0,0,0,0,0,0,0,-1,1833,1646,0,0
616,-622,0,0,0,0,0,0,0,0,0,-1,1840,1646,0,0
623,-622,0,0,0,0,0,0,0,0,0,-1,1847,1646,0,0
630,-622,0,0,0,0,0,0,0,0,0,-1,1854,1646,0,0
637,-622,0,0,0,0,0,0,0,0,0,-1,1861,1646,0,0
644,-622,0,0,0,0,0,0,0,0,0,-1,1868,1646,0,0
651,-622,0,0,0,0,0,0,0,0,0,-1,1875,1646,0,0
658,-622,0,0,0,0,0,0,0,0,0,-1,1882,1646,0,0
665,-622,0,0,0,0,0,0,0,0,0,-1,1889,1646,0,0
672,-622,0,0,0,0,0,0,0,0,0,-1,1896,1646,0,0
679,-622,0,0,0,0,0,0,0,0,0,-1,1903,1646,0,0
686,-622,0,0,0,0,0,0,0,0,0,-1,1910,1646,0,0
693,-622,0,0,0,0,0,0,0,0,0,-1,1917,1646,0,0
700,-622,0,0,0,0,0,0,0,0,0,-1,1924,1646,0,0
707,-622,0,0,0,0,0,0,0,0,0,-1,1931,1646,0,0
714,-622,0,0,0,0,0,0,0,0,0,-1,1938,1646,0,0
721,-622,0,0,0,0,0,0,0,0,0,-1,1945,1646,0,0
728,-622,0,0,0,0,0,0,0,0,0,-1,1952,1646,0,0
735,-622,0,0,0,0,0,0,0,0,0,-1,1959,1646,0,0
742,-622,0,0,0,0,0,0,0,0,0,-1,1966,1646,0,0
749,-622,0,0,0,0,0,0,0,0,0,-1,1973,1646,0,0
756,-622,0,0,0,0,0,0,0,0,0,-1,1980,1646,0,0
763,-622,0,0,0,0,0,0,0,0,0,-1,1987,1646,0,0
770,-622,0,0,0,0,0,0,0,0,0,-1,1994,1646,0,0
777,-622,0,0,0,0,0,0,0,0,0,-1,2001,1646,0,0
784,-622,0,0,0,0,0,0,0,0,0,-1,2008,1646,0,0
791,-622,0,0,0,0,0,0,0,0,0,-1,2015,1646,0,0
798,-622,0,0,0,0,0,0,0,0,0,-1,2022,1646,0,0
805,-622,0,0,0,0,0,0,0,0,0,-1,2029,1646,0,0
812,-622,0,0,0,0,0,0,0,0,0,-1,2036,1646,0,0
-700,-629,0,0,0,0,0,0,0,0,0,-1,524,1653,0,0
-693,-629,0,0,0,0,0,0,0,0,0,-1,531,1653,0,0
-686,-629,0,0,0,0,0,0,0,0,0,-1,538,1653,0,0
-679,-629,0,0,0,0,0,0,0,0,0,-1,545,1653,0,0
-672,-629,0,0,0,0,0,0,0,0,0,-1,552,1653,0,0
-665,-629,0,0,0,0,0,0,0,0,0,-1,559,1653,0,0
-658,-629,0,0,0,0,0,0,0,0,0,-1,566,1653,0,0
-651,-629,0,0,0,0,0,0,0,0,0,-1,573,1653,0,0
-644,-629,0,0,0,0,0,0,0,0,0,-1,580,1653,0,0
-637,-629,0,0,0,0,0,0,0,0,0,-1,587,1653,0,0
-630,-629,0,0,0,0,0,0,0,0,0,-1,594,1653,0,0
-623,-629,0,0,0,0,0,0,0,0,0,-1,601,1653,0,0
-616,-629,0,0,0,0,0,0,0,0,0,-1,608,1653,0,0
-609,-629,0,0,0,0,0,0,0,0,0,-1,615,1653,0,0
-602,-629,0,0,0,0,0,0,0,0,0,-1,622,1653,0,0
-595,-629,0,0,0,0,0,0,0,0,0,-1,629,1653,0,0
-588,-629,0,0,0,0,0,0,0,0,0,-1,636,1653,0,0
-581,-629,0,0,0,0,0,0,0,0,0,-1,643,1653,0,0
-574,-629,0,0,0,0,0,0,0,0,0,-1,650,1653,0,0
-567,-629,0,0,0,0,0,0,0,0,0,-1,657,1653,0,0
-560,-629,0,0,0,0,0,0,0,0,0,-1,664,1653,0,0
-553,-629,0,0,0,0,0,0,0,0,0,-1,671,1653,0,0
-546,-629,0,0,0,0,0,0,0,0,0,-1,678,1653,0,0
-539,-629,0,0,0,0,0,0,0,0,0,-1,685,1653,0,0
-532,-629,0,0,0,0,0,0,0,0,0,-1,692,1653,0,0
-525,-629,0,0,0,0,0,0,0,0,0,-1,699,1653,0,0
-518,-629,0,0,0,0,0,0,0,0,0,-1,706,1653,0,0
-511,-629,0,0,0,0,0,0,0,0,0,-1,713,1653,0,0
-504,-629,0,0,0,0,0,0,0,0,0,-1,720,1653,0,0
-497,-629,0,0,0,0,0,0,0,0,0,-1,727,1653,0,0
-490,-629,0,0,0,0,0,0,0,0,0,-1,734,1653,0,0
-483,-629,0,0,0,0,0,0,0,0,0,-1,741,1653,0,0
-476,-629,0,0,0,0,0,0,0,0,0,-1,748,1653,0,0
-469,-629,0,0,0,0,0,0,0,0,0,-1,755,1653,0,0
-462,-629,0,0,0,0,0,0,0,0,0,-1,762,1653,0,0
-455,-629,0,0,0,0,0,0,0,0,0,-1,769,1653,0,0
-448,-629,0,0,0,0,0,0,0,0,0,-1,776,1653,0,0
-441,-629,0,0,0,0,0,0,0,0,0,-1,783,1653,0,0
-434,-629,0,0,0,0,0,0,0,0,0,-1,790,1653,0,0
-427,-629,0,0,0,0,0,0,0,0,0,-1,797,1653,0,0
-420,-629,-3.87103,3.37634,0,0,0,0,0,0,0,-1,804,1653,-3.87101,-3.37633
-413,-629,-5.69751,1.33582,0,0,0,0,0,0,0,-1,811,1653,-5.69754,-1.3358
-406,-629,2.85406,6.01501,0,0,0,0,0,0,0,-1,818,1653,2.85405,-6.01507
-399,-629,-0.455627,10.8687,0,0,0,0,0,0,0,-1,825,1653,-0.455625,-10.8687
-392,-629,1.15369,11.1295,0,0,0,0,0,0,0,-1,832,1653,1.1537,-11.1295
-385,-629,1.81976,11.6935,0,0,0,0,0,0,0,-1,839,1653,1.81975,-11.6935
-378,-629,2.19452,14.7941,0,0,0,0,0,0,0,-1,846,1653,2.19451,-14.7941
-371,-629,3.60114,14.7299,0,0,0,0,0,0,0,-1,853,1653,3.60113,-14.7299
-364,-629,3.26898,21.0801,0,0,0,0,0,0,0,-1,860,1653,3.26895,-21.08
-357,-629,4.38782,16.3444,0,0,0,0,0,0,0,-1,867,1653,4.38783,-16.3443
-350,-629,3.63727,35.8987,0,0,0,0,0,0,0,-1,874,1653,3.63729,-35.8987
-343,-629,3.23578,36.6763,-0.00281956,-0.00922323,0.000162274,-0.00281545,-0.00922734,0.0253192,0.00546062,0.0380091,881,1653,3.23581,-36.6763
-336,-629,3.26068,37.3453,-0.00198389,-0.00737343,0.000138845,-0.00198032,-0.00737701,0.0257392,0.00440873,0.0181868,888,1653,3.26068,-37.3454
-329,-629,3.24182,37.9967,-0.00152749,-0.00566648,-5.46544e-05,-0.00152677,-0.0056672,-0.0132017,0.00338596,0.0118166,895,1653,3.24183,-37.9967
-322,-629,3.21411,38.637,-0.00128537,-0.00408739,-0.000133708,-0.00127901,-0.00409376,-0.0475743,0.00241833,0.0124269,902,1653,3.21408,-38.637
-315,-629,3.15234,39.2865,-0.000993466,-0.00279012,-0.000178938,-0.000975818,-0.00280777,-0.0983084,0.00164599,0.0162933,909,1653,3.15236,-39.2865
-308,-629,3.12677,39.9143,-0.000544715,-0.00163652,-0.00010955,-0.000533832,-0.0016474,-0.0990231,0.000970562,0.0132198,916,1653,3.12676,-39.9143
-301,-629,3.12946,40.5522,-3.26563e-05,-0.000684392,3.51088e-05,-3.07704e-05,-0.000686278,0.0536626,0.000447615,0.0116179,923,1653,3.12945,-40.5523
-294,-629,3.10419,41.1617,0.000625582,6.87665e-05,0.000261963,0.000729451,-3.51025e-05,0.377488,0.000498413,0.0123629,930,1653,3.10418,-41.1617
-287,-629,3.05945,41.774,0.00132544,0.000919166,0.000487988,0.00165088,0.000593723,0.588169,0.000965575,0.00969357,937,1653,3.05942,-41.774
-280,-629,3.0401,42.3809,0.00212525,0.00169064,0.000831628,0.0027675,0.0010484,0.657606,0.00161338,0.0104932,944,1653,3.04012,-42.3809
-273,-629,3.01965,42.9701,0.00308478,0.00210907,0.00122607,0.00391648,0.00127736,0.596051,0.00230629,0.0145622,951,1653,3.01964,-42.97
-266,-629,2.99036,43.5811,0.00419456,0.00241168,0.00171299,0.00523418,0.00137205,0.545482,0.00313387,0.0147638,958,1653,2.99038,-43.5811
-259,-629,2.98444,44.2252,0.0053569,0.00275767,0.00210152,0.00652819,0.00158638,0.508473,0.00393151,0.0151633,965,1653,2.98444,-44.2252
-252,-629,2.97864,44.7822,0.00654402,0.00313074,0.00243385,0.00780996,0.00186479,0.47963,0.00470975,0.0118162,972,1653,2.97864,-44.7823
-245,-629,2.98291,45.348,0.00770402,0.00344406,0.00276309,0.00906281,0.00208527,0.457036,0.00548065,0.00909643,979,1653,2.98292,-45.348
-238,-629,2.98285,45.9119,0.00890958,0.0034997,0.00315115,0.0103575,0.00205176,0.430723,0.00633287,0.0117642,986,1653,2.98287,-45.9119
-231,-629,2.95007,46.4717,0.0101177,0.00374246,0.00368275,0.0118008,0.00205941,0.428669,0.00727849,0.0167588,993,1653,2.95009,-46.4716
-224,-629,3.03461,47.1241,0.0109334,0.0039674,0.00398557,0.0127434,0.00215738,0.426294,0.0078756,0.0199201,1000,1653,3.0346,-47.1242
-217,-629,2.99194,47.6135,0.0114667,0.00416611,0.00439845,0.0135323,0.00210055,0.439041,0.00840925,0.0313963,1007,1653,2.99196,-47.6135
-210,-629,2.82721,48.5532,0,0,0,0,0,0,0,-1,1014,1653,2.82722,-48.5533
-203,-629,3.28735,49.3026,0,0,0,0,0,0,0,-1,1021,1653,3.28735,-49.3026
-196,-629,3.55798,49.3329,0,0,0,0,0,0,0,-1,1028,1653,3.55804,-49.3329
-189,-629,3.23706,49.9122,0,0,0,0,0,0,0,-1,1035,1653,3.23701,-49.9123
-182,-629,3.45642,50.6844,0,0,0,0,0,0,0,-1,1042,1653,3.45638,-50.6844
-175,-629,3.67578,51.4565,0,0,0,0,0,0,0,-1,1049,1653,3.67575,-51.4565
-168,-629,3.59424,51.299,0,0,0,0,0,0,0,-1,1056,1653,3.59418,-51.299
-161,-629,2.8009,51.8738,0,0,0,0,0,0,0,-1,1063,1653,2.80091,-51.8738
-154,-629,4.26489,47.3336,0,0,0,0,0,0,0,-1,1070,1653,4.26491,-47.3336
-147,-629,4.43958,47.1637,0,0,0,0,0,0,0,-1,1077,1653,4.43951,-47.1637
-140,-629,2.10181,41.6577,0,0,0,0,0,0,0,-1,1084,1653,2.10175,-41.6577
-133,-629,3.41248,17.6686,0,0,0,0,0,0,0,-1,1091,1653,3.41243,-17.6686
-126,-629,4.01025,19.5328,0,0,0,0,0,0,0,-1,1098,1653,4.01022,-19.5328
-119,-629,4.94177,13.5525,0,0,0,0,0,0,0,-1,1105,1653,4.94172,-13.5525
-112,-629,5.63123,15.9187,0,0,0,0,0,0,0,-1,1112,1653,5.63118,-15.9187
-105,-629,2.15881,4.38342,0,0,0,0,0,0,0,-1,1119,1653,2.15878,-4.38347
-98,-629,0.825806,4.19385,0,0,0,0,0,0,0,-1,1126,1653,0.825779,-4.1939
-91,-629,-0.452271,3.64465,0,0,0,0,0,0,0,-1,1133,1653,-0.452278,-3.6446
-84,-629,-2.6084,0.466797,0,0,0,0,0,0,0,-1,1140,1653,-2.6084,-0.466786
-77,-629,-3.50903,2.10706,0,0,0,0,0,0,0,-1,1147,1653,-3.509,-2.10707
-70,-629,-1.20886,2.52502,0,0,0,0,0,0,0,-1,1154,1653,-1.20886,-2.525
-63,-629,-0.960693,4.30212,0,0,0,0,0,0,0,-1,1161,1653,-0.960691,-4.30215
-56,-629,-1.31934,5.64343,0,0,0,0,0,0,0,-1,1168,1653,-1.31928,-5.6434
-49,-629,-2.15662,2.57458,0,0,0,0,0,0,0,-1,1175,1653,-2.15656,-2.57459
-42,-629,-2.46326,3.91467,0,0,0,0,0,0,0,-1,1182,1653,-2.4633,-3.91466
-35,-629,-2.67261,5.24292,0,0,0,0,0,0,0,-1,1189,1653,-2.67257,-5.24298
-28,-629,-0.402954,-0.866577,0,0,0,0,0,0,0,-1,1196,1653,-0.402943,0.866612
-21,-629,3.45508,27.0596,0,0,0,0,0,0,0,-1,1203,1653,3.45508,-27.0596
-14,-629,2.62427,49.126,0,0,0,0,0,0,0,-1,1210,1653,2.62426,-49.126
-7,-629,10.2762,61.0944,0,0,0,0,0,0,0,-1,1217,1653,10.2763,-61.0944
0,-629,11.1472,61.3528,0,0,0,0,0,0,0,-1,1224,1653,11.1472,-61.3528
7,-629,11.9143,61.6862,0,0,0,0,0,0,0,-1,1231,1653,11.9143,-61.6861
14,-629,12.965,62.1135,0,0,0,0,0,0,0,-1,1238,1653,12.965,-62.1135
21,-629,13.361,62.418,0,0,0,0,0,0,0,-1,1245,1653,13.3609,-62.418
28,-629,13.7992,63.6351,0.11282,0.0737041,0.0302014,0.129243,0.0572809,0.498061,0.0747788,0.0485409,1252,1653,13.7992,-63.6351
35,-629,15.5369,64.3225,0,0,0,0,0,0,0,-1,1259,1653,15.5368,-64.3225
42,-629,17.3096,64.9608,0,0,0,0,0,0,0,-1,1266,1653,17.3095,-64.9608
49,-629,11.9828,64.4868,0,0,0,0,0,0,0,-1,1273,1653,11.9827,-64.4868
56,-629,12.0938,63.3351,0.0501832,-0.051234,-0.0539424,0.0735093,-0.0745602,-0.408145,0.0854887,0.0465649,1280,1653,12.0938,-63.335
63,-629,12.1027,61.9612,0.0338448,-0.0751142,-0.0685451,0.0669235,-0.108193,-0.449618,0.102035,0.0457192,1287,1653,12.1026,-61.9612
70,-629,11.6274,60.0255,0.0179204,-0.0896746,-0.079286,0.0599375,-0.131692,-0.487315,0.113193,0.046716,1294,1653,11.6275,-60.0255
77,-629,11.3988,58.5399,0.00720244,-0.0941701,-0.0795404,0.0508336,-0.137801,-0.501722,0.112701,0.0478158,1301,1653,11.3988,-58.5399
84,-629,11.4359,56.8231,0,0,0,0,0,0,0,-1,1308,1653,11.4359,-56.8231
91,-629,11.2091,55.3354,0,0,0,0,0,0,0,-1,1315,1653,11.2091,-55.3355
98,-629,10.9513,53.8799,0.0174182,-0.0782871,-0.0720636,0.0560701,-0.116939,-0.49231,0.101927,0.0460211,1322,1653,10.9513,-53.8799
105,-629,10.7408,52.9065,0,0,0,0,0,0,0,-1,1329,1653,10.7408,-52.9065
112,-629,11.1531,55.9253,0.0321913,-0.059737,-0.0697784,0.0697839,-0.0973296,-0.494159,0.0969189,0.0471193,1336,1653,11.1531,-55.9253
119,-629,11.6591,55.37,0,0,0,0,0,0,0,-1,1343,1653,11.6591,-55.37
126,-629,12.006,54.4513,0.0515489,-0.033903,-0.0687005,0.0897257,-0.0720799,-0.507209,0.0936035,0.0449117,1350,1653,12.0059,-54.4513
133,-629,12.1389,53.734,0,0,0,0,0,0,0,-1,1357,1653,12.139,-53.734
140,-629,12.0541,52.722,0,0,0,0,0,0,0,-1,1364,1653,12.0541,-52.722
147,-629,12.1537,51.5215,0,0,0,0,0,0,0,-1,1371,1653,12.1537,-51.5215
154,-629,6.41516,53.151,0,0,0,0,0,0,0,-1,1378,1653,6.41517,-53.151
161,-629,10.5461,6.83752,0,0,0,0,0,0,0,-1,1385,1653,10.5461,-6.83758
168,-629,12.0059,5.56348,0,0,0,0,0,0,0,-1,1392,1653,12.0059,-5.56352
175,-629,5.84485,-1.78845,0,0,0,0,0,0,0,-1,1399,1653,5.84479,1.7884
182,-629,5.99036,-1.27783,0,0,0,0,0,0,0,-1,1406,1653,5.99041,1.27778
189,-629,5.97668,-0.748535,0,0,0,0,0,0,0,-1,1413,1653,5.97671,0.748544
196,-629,4.52869,9.24695,0,0,0,0,0,0,0,-1,1420,1653,4.52869,-9.2469
203,-629,3.75085,6.88037,0,0,0,0,0,0,0,-1,1427,1653,3.75087,-6.88032
210,-629,3.5907,6.52637,0,0,0,0,0,0,0,-1,1434,1653,3.59067,-6.52642
217,-629,2.4585,4.84448,0,0,0,0,0,0,0,-1,1441,1653,2.45855,-4.84448
224,-629,1.31982,3.68481,0,0,0,0,0,0,0,-1,1448,1653,1.31986,-3.68487
231,-629,3.63025,1.73499,0,0,0,0,0,0,0,-1,1455,1653,3.6303,-1.735
238,-629,4.26428,2.11255,0,0,0,0,0,0,0,-1,1462,1653,4.26429,-2.11253
245,-629,5.61816,1.95361,0,0,0,0,0,0,0,-1,1469,1653,5.61815,-1.95359
252,-629,7.27136,2.18982,0,0,0,0,0,0,0,-1,1476,1653,7.27131,-2.18985
259,-629,8.67334,2.18628,0,0,0,0,0,0,0,-1,1483,1653,8.6733,-2.18633
266,-629,6.86475,3.72058,0,0,0,0,0,0,0,-1,1490,1653,6.86479,-3.72063
273,-629,7.9021,3.8717,0,0,0,0,0,0,0,-1,1497,1653,7.90205,-3.87171
280,-629,9.70837,4.39087,0,0,0,0,0,0,0,-1,1504,1653,9.7084,-4.39082
287,-629,9.82947,7.19348,0,0,0,0,0,0,0,-1,1511,1653,9.8295,-7.19347
294,-629,6.56555,11.6359,0,0,0,0,0,0,0,-1,1518,1653,6.5656,-11.6358
301,-629,13.903,44.4862,0,0,0,0,0,0,0,-1,1525,1653,13.903,-44.4862
308,-629,6.08264,12.1423,0,0,0,0,0,0,0,-1,1532,1653,6.08263,-12.1423
315,-629,6.82043,18.2764,0,0,0,0,0,0,0,-1,1539,1653,6.82049,-18.2764
322,-629,14.1931,43.8071,0,0,0,0,0,0,0,-1,1546,1653,14.1931,-43.8071
329,-629,14.8894,49.0634,0,0,0,0,0,0,0,-1,1553,1653,14.8895,-49.0634
336,-629,14.7566,48.4508,0,0,0,0,0,0,0,-1,1560,1653,14.7566,-48.4509
343,-629,15.0295,47.8759,0,0,0,0,0,0,0,-1,1567,1653,15.0295,-47.8759
350,-629,15.1906,47.3065,0.00491365,0.0179239,-0.00425664,0.0191928,0.00364474,-1.28108,0.0117699,0.0301494,1574,1653,15.1906,-47.3066
357,-629,15.1829,46.7225,0.00297517,0.015191,-0.00275889,0.0157852,0.00238099,-1.35867,0.00982641,0.0173174,1581,1653,15.1828,-46.7225
364,-629,15.1246,46.1761,0.00198456,0.0133327,-0.00200724,0.0136773,0.00163999,-1.40079,0.00862368,0.0154234,1588,1653,15.1247,-46.1762
371,-629,15.0975,45.6229,0.00150273,0.0115307,-0.00144533,0.0117348,0.00129857,-1.43047,0.00742829,0.01252,1595,1653,15.0975,-45.6229
378,-629,15.1011,45.0383,0.00109979,0.00995331,-0.00107645,0.0100823,0.00097079,-1.45153,0.00642245,0.0109935,1602,1653,15.101,-45.0383
385,-629,15.099,44.474,0.00078947,0.00846288,-0.000834784,0.00855264,0.000699705,-1.46368,0.00548343,0.0127947,1609,1653,15.099,-44.474
392,-629,15.0775,43.9204,0.000595368,0.00713275,-0.000743354,0.00721621,0.000511908,-1.45899,0.00464957,0.011134,1616,1653,15.0775,-43.9204
399,-629,15.0604,43.3351,0.000533338,0.00595398,-0.000816255,0.00607423,0.000413092,-1.42453,0.00391905,0.0109613,1623,1653,15.0604,-43.3351
406,-629,15.0751,42.7479,0.000568966,0.00488031,-0.000977008,0.00509138,0.000357896,-1.35803,0.00328146,0.0142069,1630,1653,15.0751,-42.748
413,-629,15.043,42.1801,0.000662027,0.0039494,-0.00114035,0.00430625,0.000305186,-1.26753,0.0027747,0.0242613,1637,1653,15.043,-42.18
420,-629,14.9984,41.6163,0.000825195,0.00317158,-0.0013619,0.00379593,0.000200848,-1.14095,0.0024664,0.023743,1644,1653,14.9984,-41.6163
427,-629,15.0034,41.0133,0.00100395,0.00247717,-0.00159706,0.0034993,-1.81869e-05,-1.00148,0.00233895,0.0162782,1651,1653,15.0034,-41.0133
434,-629,14.9977,40.4025,0.00121275,0.00207862,-0.0018923,0.00358688,-0.000295508,-0.897855,0.00249559,0.0141442,1658,1653,14.9977,-40.4024
441,-629,14.9608,39.7979,0.00144246,0.00174464,-0.00219227,0.00379102,-0.000603915,-0.819803,0.00275084,0.0167655,1665,1653,14.9608,-39.7978
448,-629,14.9319,39.1615,0.00166984,0.0015758,-0.00248742,0.00411068,-0.00086504,-0.775948,0.0030697,0.015933,1672,1653,14.9319,-39.1616
455,-629,14.9056,38.5187,0.00175163,0.00143892,-0.00272881,0.00432856,-0.00113801,-0.756781,0.0033305,0.0158708,1679,1653,14.9057,-38.5187
462,-629,14.9076,37.9431,0.00179933,0.00136354,-0.00290971,0.00449929,-0.00133643,-0.748025,0.00353036,0.019777,1686,1653,14.9076,-37.9431
469,-629,14.8856,37.303,0.00191691,0.00120738,-0.00311918,0.00470144,-0.00157714,-0.728773,0.00377157,0.0294054,1693,1653,14.8857,-37.303
476,-629,14.9777,36.6499,0,0,0,0,0,0,0,-1,1700,1653,14.9777,-36.6499
483,-629,14.0381,30.967,0,0,0,0,0,0,0,-1,1707,1653,14.0381,-30.9671
490,-629,13.9072,28.8588,0,0,0,0,0,0,0,-1,1714,1653,13.9072,-28.8587
497,-629,10.3662,19.8605,0,0,0,0,0,0,0,-1,1721,1653,10.3662,-19.8605
504,-629,7.89453,15.5316,0,0,0,0,0,0,0,-1,1728,1653,7.89447,-15.5316
511,-629,6.29138,3.40295,0,0,0,0,0,0,0,-1,1735,1653,6.29137,-3.403
518,-629,5.84387,1.41858,0,0,0,0,0,0,0,-1,1742,1653,5.84391,-1.4186
525,-629,6.4729,1.02319,0,0,0,0,0,0,0,-1,1749,1653,6.47284,-1.02316
532,-629,6.86511,0.903687,0,0,0,0,0,0,0,-1,1756,1653,6.86514,-0.903691
539,-629,6.60803,0.746704,0,0,0,0,0,0,0,-1,1763,1653,6.60809,-0.746691
546,-629,0,0,0,0,0,0,0,0,0,-1,1770,1653,0,0
553,-629,0,0,0,0,0,0,0,0,0,-1,1777,1653,0,0
560,-629,0,0,0,0,0,0,0,0,0,-1,1784,1653,0,0
567,-629,0,0,0,0,0,0,0,0,0,-1,1791,1653,0,0
574,-629,0,0,0,0,0,0,0,0,0,-1,1798,1653,0,0
581,-629,0,0,0,0,0,0,0,0,0,-1,1805,1653,0,0
588,-629,0,0,0,0,0,0,0,0,0,-1,1812,1653,0,0
595,-629,0,0,0,0,0,0,0,0,0,-1,1819,1653,0,0
602,-629,0,0,0,0,0,0,0,0,0,-1,1826,1653,0,0
609,-629,0,0,0,0,0,0,0,0,0,-1,1833,1653,0,0
616,-629,0,0,0,0,0,0,0,0,0,-1,1840,1653,0,0
623,-629,0,0,0,0,0,0,0,0,0,-1,1847,1653,0,0
630,-629,0,0,0,0,0,0,0,0,0,-1,1854,1653,0,0
637,-629,0,0,0,0,0,0,0,0,0,-1,1861,1653,0,0
644,-629,0,0,0,0,0,0,0,0,0,-1,1868,1653,0,0
651,-629,0,0,0,0,0,0,0,0,0,-1,1875,1653,0,0
658,-629,0,0,0,0,0,0,0,0,0,-1,1882,1653,0,0
665,-629,0,0,0,0,0,0,0,0,0,-1,1889,1653,0,0
672,-629,0,0,0,0,0,0,0,0,0,-1,1896,1653,0,0
679,-629,0,0,0,0,0,0,0,0,0,-1,1903,1653,0,0
686,-629,0,0,0,0,0,0,0,0,0,-1,1910,1653,0,0
693,-629,0,0,0,0,0,0,0,0,0,-1,1917,1653,0,0
700,-629,0,0,0,0,0,0,0,0,0,-1,1924,1653,0,0
707,-629,0,0,0,0,0,0,0,0,0,-1,1931,1653,0,0
714,-629,0,0,0,0,0,0,0,0,0,-1,1938,1653,0,0
721,-629,0,0,0,0,0,0,0,0,0,-1,1945,1653,0,0
728,-629,0,0,0,0,0,0,0,0,0,-1,1952,1653,0,0
735,-629,0,0,0,0,0,0,0,0,0,-1,1959,1653,0,0
742,-629,0,0,0,0,0,0,0,0,0,-1,1966,1653,0,0
749,-629,0,0,0,0,0,0,0,0,0,-1,1973,1653,0,0
756,-629,0,0,0,0,0,0,0,0,0,-1,1980,1653,0,0
763,-629,0,0,0,0,0,0,0,0,0,-1,1987,1653,0,0
770,-629,0,0,0,0,0,0,0,0,0,-1,1994,1653,0,0
777,-629,0,0,0,0,0,0,0,0,0,-1,2001,1653,0,0
784,-629,0,0,0,0,0,0,0,0,0,-1,2008,1653,0,0
791,-629,0,0,0,0,0,0,0,0,0,-1,2015,1653,0,0
798,-629,0,0,0,0,0,0,0,0,0,-1,2022,1653,0,0
805,-629,0,0,0,0,0,0,0,0,0,-1,2029,1653,0,0
812,-629,0,0,0,0,0,0,0,0,0,-1,2036,1653,0,0
-700,-636,0,0,0,0,0,0,0,0,0,-1,524,1660,0,0
-693,-636,0,0,0,0,0,0,0,0,0,-1,531,1660,0,0
-686,-636,0,0,0,0,0,0,0,0,0,-1,538,1660,0,0
-679,-636,0,0,0,0,0,0,0,0,0,-1,545,1660,0,0
-672,-636,0,0,0,0,0,0,0,0,0,-1,552,1660,0,0
-665,-636,0,0,0,0,0,0,0,0,0,-1,559,1660,0,0
-658,-636,0,0,0,0,0,0,0,0,0,-1,566,1660,0,0
-651,-636,0,0,0,0,0,0,0,0,0,-1,573,1660,0,0
-644,-636,0,0,0,0,0,0,0,0,0,-1,580,1660,0,0
-637,-636,0,0,0,0,0,0,0,0,0,-1,587,1660,0,0
-630,-636,0,0,0,0,0,0,0,0,0,-1,594,1660,0,0
-623,-636,0,0,0,0,0,0,0,0,0,-1,601,1660,0,0
-616,-636,0,0,0,0,0,0,0,0,0,-1,608,1660,0,0
-609,-636,0,0,0,0,0,0,0,0,0,-1,615,1660,0,0
-602,-636,0,0,0,0,0,0,0,0,0,-1,622,1660,0,0
-595,-636,0,0,0,0,0,0,0,0,0,-1,629,1660,0,0
-588,-636,0,0,0,0,0,0,0,0,0,-1,636,1660,0,0
-581,-636,0,0,0,0,0,0,0,0,0,-1,643,1660,0,0
-574,-636,0,0,0,0,0,0,0,0,0,-1,650,1660,0,0
-567,-636,0,0,0,0,0,0,0,0,0,-1,657,1660,0,0
-560,-636,0,0,0,0,0,0,0,0,0,-1,664,1660,0,0
-553,-636,0,0,0,0,0,0,0,0,0,-1,671,1660,0,0
-546,-636,0,0,0,0,0,0,0,0,0,-1,678,1660,0,0
-539,-636,0,0,0,0,0,0,0,0,0,-1,685,1660,0,0
-532,-636,0,0,0,0,0,0,0,0,0,-1,692,1660,0,0
-525,-636,0,0,0,0,0,0,0,0,0,-1,699,1660,0,0
-518,-636,0,0,0,0,0,0,0,0,0,-1,706,1660,0,0
-511,-636,0,0,0,0,0,0,0,0,0,-1,713,1660,0,0
-504,-636,0,0,0,0,0,0,0,0,0,-1,720,1660,0,0
-497,-636,0,0,0,0,0,0,0,0,0,-1,727,1660,0,0
-490,-636,0,0,0,0,0,0,0,0,0,-1,734,1660,0,0
-483,-636,0,0,0,0,0,0,0,0,0,-1,741,1660,0,0
-476,-636,0,0,0,0,0,0,0,0,0,-1,748,1660,0,0
-469,-636,0,0,0,0,0,0,0,0,0,-1,755,1660,0,0
-462,-636,0,0,0,0,0,0,0,0,0,-1,762,1660,0,0
-455,-636,0,0,0,0,0,0,0,0,0,-1,769,1660,0,0
-448,-636,0,0,0,0,0,0,0,0,0,-1,776,1660,0,0
-441,-636,0,0,0,0,0,0,0,0,0,-1,783,1660,0,0
-434,-636,0,0,0,0,0,0,0,0,0,-1,790,1660,0,0
-427,-636,0,0,0,0,0,0,0,0,0,-1,797,1660,0,0
-420,-636,0,0,0,0,0,0,0,0,0,-1,804,1660,0,0
-413,-636,0,0,0,0,0,0,0,0,0,-1,811,1660,0,0
-406,-636,-0.591125,10.6943,0,0,0,0,0,0,0,-1,818,1660,-0.59115,-10.6943
-399,-636,0.0766602,11.2408,0,0,0,0,0,0,0,-1,825,1660,0.076685,-11.2409
-392,-636,0.75946,11.9233,0,0,0,0,0,0,0,-1,832,1660,0.759481,-11.9233
-385,-636,1.68878,12.517,0,0,0,0,0,0,0,-1,839,1660,1.6888,-12.5169
-378,-636,2.22107,13.0013,0,0,0,0,0,0,0,-1,846,1660,2.22107,-13.0014
-371,-636,2.52185,11.9684,0,0,0,0,0,0,0,-1,853,1660,2.52184,-11.9684
-364,-636,4.51947,14.8503,0,0,0,0,0,0,0,-1,860,1660,4.51949,-14.8504
-357,-636,4.55682,15.8809,0,0,0,0,0,0,0,-1,867,1660,4.55681,-15.8808
-350,-636,3.67798,35.933,0,0,0,0,0,0,0,-1,874,1660,3.678,-35.933
-343,-636,3.81,36.6373,-0.00336748,-0.0125089,-6.17233e-05,-0.00336706,-0.0125093,-0.00675162,0.00747443,0.0477854,881,1660,3.80997,-36.6373
-336,-636,3.81116,37.3281,-0.00241378,-0.00990305,-0.000124038,-0.00241173,-0.0099051,-0.016556,0.0059643,0.0324442,888,1660,3.81114,-37.3281
-329,-636,3.83875,38.0436,-0.00211256,-0.00773411,-0.000567073,-0.00205593,-0.00779075,-0.0995387,0.00466216,0.0185315,895,1660,3.83875,-38.0436
-322,-636,3.82678,38.6559,-0.00207619,-0.00570064,-0.000763612,-0.00192188,-0.00585495,-0.199394,0.0034462,0.012484,902,1660,3.8268,-38.6559
-315,-636,3.78247,39.2904,-0.0019893,-0.00411651,-0.000914675,-0.00165009,-0.00445572,-0.355128,0.00260119,0.0142963,909,1660,3.78249,-39.2905
-308,-636,3.74542,39.9431,-0.00169769,-0.00279061,-0.000897847,-0.00119308,-0.00329522,-0.512027,0.00192648,0.0122511,916,1660,3.74543,-39.9431
-301,-636,3.72845,40.5848,-0.00134837,-0.00170787,-0.000810551,-0.000697874,-0.00235836,-0.676282,0.0013989,0.0111838,923,1660,3.72845,-40.5848
-294,-636,3.71759,41.2246,-0.000809202,-0.000863716,-0.000615538,-0.000220317,-0.0014526,-0.763272,0.000903955,0.0146041,930,1660,3.71756,-41.2247
-287,-636,3.67133,41.8213,-0.000253884,4.71874e-05,-0.00043645,0.000358333,-0.000565029,-0.951464,0.000537537,0.0139082,937,1660,3.67134,-41.8213
-280,-636,3.63416,42.4152,0.000368218,0.000845357,-0.00013719,0.00088199,0.000331584,-1.30986,0.000514415,0.0136885,944,1660,3.63413,-42.4151
-273,-636,3.6167,43.016,0.00116825,0.00124521,0.000259086,0.00146866,0.000944801,0.859115,0.000859461,0.0133103,951,1660,3.61673,-43.016
-266,-636,3.60754,43.627,0.00215713,0.00155806,0.000736965,0.00265311,0.00106208,0.592375,0.00154189,0.0135831,958,1660,3.60752,-43.6269
-259,-636,3.60168,44.2427,0.00318453,0.00183264,0.00112593,0.00382183,0.00119534,0.515063,0.00225751,0.0151457,965,1660,3.60169,-44.2426
-252,-636,3.58215,44.8036,0.00421277,0.00214906,0.00145424,0.00496404,0.00139779,0.476845,0.00295573,0.0118537,972,1660,3.58215,-44.8036
-245,-636,3.56879,45.3829,0.00521876,0.00240103,0.00175608,0.00606128,0.00155852,0.447334,0.00363449,0.0113728,979,1660,3.5688,-45.383
-238,-636,3.56696,45.9496,0.00625506,0.00243369,0.00210224,0.00718517,0.00150357,0.416548,0.00437589,0.0128985,986,1660,3.56695,-45.9496
-231,-636,3.56335,46.512,0.00726329,0.00264061,0.00256677,0.00840602,0.00149788,0.418857,0.00517746,0.0117071,993,1660,3.56335,-46.5119
-224,-636,3.56488,47.0668,0.00798311,0.00284391,0.00285966,0.00925805,0.00156897,0.419387,0.00572121,0.0100159,1000,1660,3.5649,-47.0668
-217,-636,3.54193,47.673,0.00850052,0.00298156,0.00315779,0.00993465,0.00154744,0.426305,0.00617229,0.0177657,1007,1660,3.54192,-47.673
-210,-636,3.5318,48.2115,0.009588,0.00303685,0.00316138,0.0108647,0.00176009,0.383829,0.00673359,0.0297073,1014,1660,3.53178,-48.2115
-203,-636,3.5929,48.7994,0.0113937,0.00325433,0.0037152,0.0128345,0.00181357,0.369946,0.00802044,0.032928,1021,1660,3.59293,-48.7994
-196,-636,3.77393,49.2198,0.0130662,0.00396809,0.00448282,0.0149038,0.00213048,0.389032,0.00930736,0.0328367,1028,1660,3.77395,-49.2199
-189,-636,3.81519,49.6053,0.0148196,0.00508805,0.00507891,0.0169874,0.00292026,0.403413,0.0104879,0.0295169,1035,1660,3.81523,-49.6053
-182,-636,3.87427,50.4314,0.0164091,0.00601099,0.00530691,0.0186393,0.00378081,0.397832,0.0113773,0.0416468,1042,1660,3.87424,-50.4313
-175,-636,4.0188,51.0636,0,0,0,0,0,0,0,-1,1049,1660,4.01876,-51.0636
-168,-636,3.19312,51.5205,0,0,0,0,0,0,0,-1,1056,1660,3.19316,-51.5205
-161,-636,3.41394,51.743,0,0,0,0,0,0,0,-1,1063,1660,3.41398,-51.743
-154,-636,3.63477,51.9656,0,0,0,0,0,0,0,-1,1070,1660,3.63481,-51.9655
-147,-636,2.90784,51.7357,0,0,0,0,0,0,0,-1,1077,1660,2.90779,-51.7357
-140,-636,3.4729,27.1271,0,0,0,0,0,0,0,-1,1084,1660,3.47287,-27.1271
-133,-636,1.87109,53.1626,0,0,0,0,0,0,0,-1,1091,1660,1.87115,-53.1626
-126,-636,3.79028,18.2225,0,0,0,0,0,0,0,-1,1098,1660,3.79025,-18.2226
-119,-636,1.8667,13.8916,0,0,0,0,0,0,0,-1,1105,1660,1.86668,-13.8916
-112,-636,-1.24963,9.7998,0,0,0,0,0,0,0,-1,1112,1660,-1.24968,-9.79978
-105,-636,3.51624,4.72791,0,0,0,0,0,0,0,-1,1119,1660,3.51618,-4.7279
-98,-636,1.54504,5.11914,0,0,0,0,0,0,0,-1,1126,1660,1.54503,-5.11912
-91,-636,-1.87964,-2.25012,0,0,0,0,0,0,0,-1,1133,1660,-1.87966,2.25016
-84,-636,-2.84143,0.133667,0,0,0,0,0,0,0,-1,1140,1660,-2.84144,-0.133701
-77,-636,-3.57349,2.45935,0,0,0,0,0,0,0,-1,1147,1660,-3.57345,-2.45939
-70,-636,-4.23682,4.82312,0,0,0,0,0,0,0,-1,1154,1660,-4.23681,-4.82307
-63,-636,-2.21033,6.97168,0,0,0,0,0,0,0,-1,1161,1660,-2.21034,-6.97165
-56,-636,-2.51917,8.80359,0,0,0,0,0,0,0,-1,1168,1660,-2.51916,-8.80361
-49,-636,-3.13,10.4113,0,0,0,0,0,0,0,-1,1175,1660,-3.12996,-10.4112
-42,-636,-2.27771,4.90173,0,0,0,0,0,0,0,-1,1182,1660,-2.27775,-4.90173
-35,-636,-2.27698,5.89685,0,0,0,0,0,0,0,-1,1189,1660,-2.27695,-5.89686
-28,-636,-1.70654,4.83936,0,0,0,0,0,0,0,-1,1196,1660,-1.70656,-4.8393
-21,-636,4.24683,27.7834,0,0,0,0,0,0,0,-1,1203,1660,4.24687,-27.7835
-14,-636,-0.462646,46.4132,0,0,0,0,0,0,0,-1,1210,1660,-0.462615,-46.4132
-7,-636,9.86804,60.3265,0,0,0,0,0,0,0,-1,1217,1660,9.86806,-60.3266
0,-636,10.6887,60.5758,0.0997163,0.118538,0.0773461,0.187043,0.0312104,0.845935,0.115704,0.0474846,1224,1660,10.6887,-60.5759
7,-636,11.2305,61.0258,0.114194,0.121163,0.0794149,0.19717,0.038187,0.807322,0.120747,0.0460389,1231,1660,11.2304,-61.0258
14,-636,12.0768,61.4309,0.121035,0.109966,0.069107,0.184828,0.046172,0.745441,0.111075,0.0455957,1238,1660,12.0768,-61.431
21,-636,12.6715,61.8187,0,0,0,0,0,0,0,-1,1245,1660,12.6716,-61.8188
28,-636,13.4174,62.3723,0,0,0,0,0,0,0,-1,1252,1660,13.4174,-62.3723
35,-636,15.1233,62.5989,0,0,0,0,0,0,0,-1,1259,1660,15.1233,-62.5989
42,-636,11.7089,66.9559,0,0,0,0,0,0,0,-1,1266,1660,11.7088,-66.9559
49,-636,11.6398,65.4185,0.0718591,-0.0204858,-0.0242964,0.0778614,-0.0264881,-0.242197,0.0626327,0.0475601,1273,1660,11.6398,-65.4184
56,-636,11.7158,63.856,0.0554806,-0.0435079,-0.0412304,0.0704039,-0.0584313,-0.347281,0.07449,0.0451746,1280,1660,11.7158,-63.8559
63,-636,11.65,62.3234,0.0397678,-0.062732,-0.0544455,0.0632899,-0.0862542,-0.407811,0.086678,0.044271,1287,1660,11.6501,-62.3234
70,-636,11.4042,60.8473,0.0230663,-0.0757441,-0.0653212,0.0555619,-0.10824,-0.461624,0.0961872,0.0472402,1294,1660,11.4042,-60.8473
77,-636,11.2418,59.3684,0.00939485,-0.0810966,-0.0685478,0.046283,-0.117985,-0.49369,0.0978053,0.0480262,1301,1660,11.2418,-59.3684
84,-636,11.3428,59.7477,0,0,0,0,0,0,0,-1,1308,1660,11.3427,-59.7477
91,-636,11.0896,56.1179,0,0,0,0,0,0,0,-1,1315,1660,11.0896,-56.1179
98,-636,11.0807,54.8342,0,0,0,0,0,0,0,-1,1322,1660,11.0807,-54.8343
105,-636,11.5303,58.208,0,0,0,0,0,0,0,-1,1329,1660,11.5302,-58.208
112,-636,11.7124,57.2893,0,0,0,0,0,0,0,-1,1336,1660,11.7124,-57.2893
119,-636,11.2349,56.6047,0,0,0,0,0,0,0,-1,1343,1660,11.2349,-56.6047
126,-636,11.3965,54.5779,0,0,0,0,0,0,0,-1,1350,1660,11.3965,-54.5779
133,-636,11.5005,52.8398,0,0,0,0,0,0,0,-1,1357,1660,11.5005,-52.8398
140,-636,11.2946,52.6581,0,0,0,0,0,0,0,-1,1364,1660,11.2945,-52.6581
147,-636,11.3446,50.9232,0,0,0,0,0,0,0,-1,1371,1660,11.3446,-50.9233
154,-636,10.8972,57.1741,0,0,0,0,0,0,0,-1,1378,1660,10.8973,-57.1741
161,-636,10.2961,7.13025,0,0,0,0,0,0,0,-1,1385,1660,10.2961,-7.13021
168,-636,11.7659,5.83899,0,0,0,0,0,0,0,-1,1392,1660,11.7658,-5.83899
175,-636,5.94592,-1.72888,0,0,0,0,0,0,0,-1,1399,1660,5.94598,1.72886
182,-636,5.93994,-1.11938,0,0,0,0,0,0,0,-1,1406,1660,5.93998,1.11936
189,-636,5.32544,11.9595,0,0,0,0,0,0,0,-1,1413,1660,5.32542,-11.9595
196,-636,5.3623,9.38025,0,0,0,0,0,0,0,-1,1420,1660,5.36225,-9.38027
203,-636,5.18542,9.02429,0,0,0,0,0,0,0,-1,1427,1660,5.18547,-9.0243
210,-636,4.09167,7.17041,0,0,0,0,0,0,0,-1,1434,1660,4.09173,-7.17041
217,-636,2.94897,5.28992,0,0,0,0,0,0,0,-1,1441,1660,2.94899,-5.28991
224,-636,1.49194,3.63916,0,0,0,0,0,0,0,-1,1448,1660,1.49197,-3.63918
231,-636,0.17749,2.24854,0,0,0,0,0,0,0,-1,1455,1660,0.177501,-2.24855
238,-636,-0.764648,1.00598,0,0,0,0,0,0,0,-1,1462,1660,-0.764704,-1.00595
245,-636,6.21204,1.18005,0,0,0,0,0,0,0,-1,1469,1660,6.21206,-1.18001
252,-636,7.70251,0.865723,0,0,0,0,0,0,0,-1,1476,1660,7.7025,-0.865692
259,-636,9.03601,0.787231,0,0,0,0,0,0,0,-1,1483,1660,9.03598,-0.787243
266,-636,10.1071,3.24109,0,0,0,0,0,0,0,-1,1490,1660,10.1071,-3.24103
273,-636,8.48535,5.02466,0,0,0,0,0,0,0,-1,1497,1660,8.48533,-5.02472
280,-636,11.908,32.0698,0,0,0,0,0,0,0,-1,1504,1660,11.9079,-32.0698
287,-636,12.1218,36.4158,0,0,0,0,0,0,0,-1,1511,1660,12.1218,-36.4158
294,-636,13.3706,44.9711,0,0,0,0,0,0,0,-1,1518,1660,13.3706,-44.9711
301,-636,13.9392,51.7219,0,0,0,0,0,0,0,-1,1525,1660,13.9392,-51.7219
308,-636,14.4454,50.7351,0,0,0,0,0,0,0,-1,1532,1660,14.4454,-50.7352
315,-636,14.318,50.1923,0,0,0,0,0,0,0,-1,1539,1660,14.318,-50.1923
322,-636,14.3981,49.5018,0,0,0,0,0,0,0,-1,1546,1660,14.3981,-49.5019
329,-636,14.4155,49.0255,0.00972958,0.0180866,-0.0065179,0.0216504,0.00616581,-1.07044,0.01288,0.0389713,1553,1660,14.4155,-49.0255
336,-636,14.3491,48.4291,0.00779728,0.0164282,-0.00519578,0.018867,0.00535853,-1.13195,0.0112265,0.0302568,1560,1660,14.3491,-48.4291
343,-636,14.516,47.8298,0.00604525,0.0150792,-0.00418297,0.0167185,0.0044059,-1.19728,0.0100058,0.0238038,1567,1660,14.516,-47.8298
350,-636,14.5376,47.262,0.00443137,0.0132962,-0.00330595,0.0143933,0.00333426,-1.25037,0.00869975,0.0125427,1574,1660,14.5377,-47.262
357,-636,14.5577,46.6956,0.00300885,0.0113296,-0.00238937,0.0119669,0.00237154,-1.31014,0.00731667,0.0113187,1581,1660,14.5578,-46.6956
364,-636,14.5659,46.1487,0.0022256,0.010006,-0.00194667,0.0104659,0.00176573,-1.33881,0.00646952,0.0117893,1588,1660,14.5659,-46.1486
371,-636,14.5609,45.6179,0.00183725,0.00872755,-0.00164263,0.00909912,0.00146569,-1.34834,0.00564134,0.0100535,1595,1660,14.5609,-45.618
378,-636,14.5494,45.0499,0.00151529,0.00758969,-0.00147563,0.00792919,0.00117579,-1.34466,0.00494105,0.0101969,1602,1660,14.5495,-45.0499
385,-636,14.5377,44.4839,0.00133163,0.00645736,-0.00137725,0.00680398,0.000985006,-1.32424,0.00424591,0.0161687,1609,1660,14.5377,-44.4839
392,-636,14.5114,43.9271,0.00118201,0.00543072,-0.0013722,0.00583536,0.000777366,-1.28404,0.00365875,0.0171234,1616,1660,14.5114,-43.9271
399,-636,14.4983,43.3552,0.00110645,0.00449887,-0.00148751,0.00505872,0.000546599,-1.21083,0.00320585,0.0130126,1623,1660,14.4983,-43.3552
406,-636,14.4938,42.8051,0.0011066,0.00364107,-0.00165169,0.00445565,0.000292016,-1.11262,0.00287804,0.0152354,1630,1660,14.4938,-42.805
413,-636,14.4705,42.2083,0.00114782,0.00297311,-0.00180784,0.00408561,3.53171e-05,-1.01915,0.00271204,0.0248244,1637,1660,14.4704,-42.2083
420,-636,14.4358,41.6163,0.00126417,0.00240514,-0.00201785,0.0039316,-0.000262292,-0.923162,0.00271273,0.0256134,1644,1660,14.4358,-41.6163
427,-636,14.4143,41.0518,0.00141357,0.00196541,-0.00225817,0.00396445,-0.000585478,-0.846191,0.00285819,0.0168575,1651,1660,14.4143,-41.0517
434,-636,14.4003,40.4336,0.00157747,0.00178242,-0.00253207,0.00421409,-0.000854204,-0.805623,0.00313318,0.0159104,1658,1660,14.4002,-40.4336
441,-636,14.3787,39.8103,0.00174211,0.00177275,-0.00280597,0.00456344,-0.00104858,-0.788128,0.00344542,0.0134723,1665,1660,14.3787,-39.8103
448,-636,14.3713,39.1838,0.00191544,0.0019708,-0.00311592,0.00505916,-0.00117293,-0.78984,0.00382419,0.0153031,1672,1660,14.3713,-39.1839
455,-636,14.3491,38.5664,0.00201496,0.00226606,-0.00347147,0.00561425,-0.00133323,-0.803474,0.00425741,0.0172192,1679,1660,14.3491,-38.5664
462,-636,14.2759,37.9452,0.00214438,0.00264884,-0.00384381,0.00624869,-0.00145547,-0.818161,0.00472625,0.0228268,1686,1660,14.2758,-37.9451
469,-636,14.365,37.3077,0.00230303,0.00295493,-0.0041465,0.00678828,-0.00153031,-0.824622,0.00511254,0.0421273,1693,1660,14.365,-37.3078
476,-636,14.5511,36.6947,0,0,0,0,0,0,0,-1,1700,1660,14.5511,-36.6947
483,-636,11.3833,24.3958,0,0,0,0,0,0,0,-1,1707,1660,11.3833,-24.3957
490,-636,10.8951,23.9569,0,0,0,0,0,0,0,-1,1714,1660,10.8951,-23.9569
497,-636,9.55579,18.0111,0,0,0,0,0,0,0,-1,1721,1660,9.55574,-18.0111
504,-636,6.26428,19.4268,0,0,0,0,0,0,0,-1,1728,1660,6.26433,-19.4268
511,-636,5.65466,9.23218,0,0,0,0,0,0,0,-1,1735,1660,5.65461,-9.23216
518,-636,6.72791,1.07605,0,0,0,0,0,0,0,-1,1742,1660,6.7279,-1.0761
525,-636,7.04309,0.93335,0,0,0,0,0,0,0,-1,1749,1660,7.04308,-0.933298
532,-636,0,0,0,0,0,0,0,0,0,-1,1756,1660,0,0
539,-636,0,0,0,0,0,0,0,0,0,-1,1763,1660,0,0
546,-636,0,0,0,0,0,0,0,0,0,-1,1770,1660,0,0
553,-636,0,0,0,0,0,0,0,0,0,-1,1777,1660,0,0
560,-636,0,0,0,0,0,0,0,0,0,-1,1784,1660,0,0
567,-636,0,0,0,0,0,0,0,0,0,-1,1791,1660,0,0
574,-636,0,0,0,0,0,0,0,0,0,-1,1798,1660,0,0
581,-636,0,0,0,0,0,0,0,0,0,-1,1805,1660,0,0
588,-636,0,0,0,0,0,0,0,0,0,-1,1812,1660,0,0
595,-636,0,0,0,0,0,0,0,0,0,-1,1819,1660,0,0
602,-636,0,0,0,0,0,0,0,0,0,-1,1826,1660,0,0
609,-636,0,0,0,0,0,0,0,0,0,-1,1833,1660,0,0
616,-636,0,0,0,0,0,0,0,0,0,-1,1840,1660,0,0
623,-636,0,0,0,0,0,0,0,0,0,-1,1847,1660,0,0
630,-636,0,0,0,0,0,0,0,0,0,-1,1854,1660,0,0
637,-636,0,0,0,0,0,0,0,0,0,-1,1861,1660,0,0
644,-636,0,0,0,0,0,0,0,0,0,-1,1868,1660,0,0
651,-636,0,0,0,0,0,0,0,0,0,-1,1875,1660,0,0
658,-636,0,0,0,0,0,0,0,0,0,-1,1882,1660,0,0
665,-636,0,0,0,0,0,0,0,0,0,-1,1889,1660,0,0
672,-636,0,0,0,0,0,0,0,0,0,-1,1896,1660,0,0
679,-636,0,0,0,0,0,0,0,0,0,-1,1903,1660,0,0
686,-636,0,0,0,0,0,0,0,0,0,-1,1910,1660,0,0
693,-636,0,0,0,0,0,0,0,0,0,-1,1917,1660,0,0
700,-636,0,0,0,0,0,0,0,0,0,-1,1924,1660,0,0
707,-636,0,0,0,0,0,0,0,0,0,-1,1931,1660,0,0
714,-636,0,0,0,0,0,0,0,0,0,-1,1938,1660,0,0
721,-636,0,0,0,0,0,0,0,0,0,-1,1945,1660,0,0
728,-636,0,0,0,0,0,0,0,0,0,-1,1952,1660,0,0
735,-636,0,0,0,0,0,0,0,0,0,-1,1959,1660,0,0
742,-636,0,0,0,0,0,0,0,0,0,-1,1966,1660,0,0
749,-636,0,0,0,0,0,0,0,0,0,-1,1973,1660,0,0
756,-636,0,0,0,0,0,0,0,0,0,-1,1980,1660,0,0
763,-636,0,0,0,0,0,0,0,0,0,-1,1987,1660,0,0
770,-636,0,0,0,0,0,0,0,0,0,-1,1994,1660,0,0
777,-636,0,0,0,0,0,0,0,0,0,-1,2001,1660,0,0
784,-636,0,0,0,0,0,0,0,0,0,-1,2008,1660,0,0
791,-636,0,0,0,0,0,0,0,0,0,-1,2015,1660,0,0
798,-636,0,0,0,0,0,0,0,0,0,-1,2022,1660,0,0
805,-636,0,0,0,0,0,0,0,0,0,-1,2029,1660,0,0
812,-636,0,0,0,0,0,0,0,0,0,-1,2036,1660,0,0
-700,-643,0,0,0,0,0,0,0,0,0,-1,524,1667,0,0
-693,-643,0,0,0,0,0,0,0,0,0,-1,531,1667,0,0
-686,-643,0,0,0,0,0,0,0,0,0,-1,538,1667,0,0
-679,-643,0,0,0,0,0,0,0,0,0,-1,545,1667,0,0
-672,-643,0,0,0,0,0,0,0,0,0,-1,552,1667,0,0
-665,-643,0,0,0,0,0,0,0,0,0,-1,559,1667,0,0
-658,-643,0,0,0,0,0,0,0,0,0,-1,566,1667,0,0
-651,-643,0,0,0,0,0,0,0,0,0,-1,573,1667,0,0
-644,-643,0,0,0,0,0,0,0,0,0,-1,580,1667,0,0
-637,-643,0,0,0,0,0,0,0,0,0,-1,587,1667,0,0
-630,-643,0,0,0,0,0,0,0,0,0,-1,594,1667,0,0
-623,-643,0,0,0,0,0,0,0,0,0,-1,601,1667,0,0
-616,-643,0,0,0,0,0,0,0,0,0,-1,608,1667,0,0
-609,-643,0,0,0,0,0,0,0,0,0,-1,615,1667,0,0
-602,-643,0,0,0,0,0,0,0,0,0,-1,622,1667,0,0
-595,-643,0,0,0,0,0,0,0,0,0,-1,629,1667,0,0
-588,-643,0,0,0,0,0,0,0,0,0,-1,636,1667,0,0
-581,-643,0,0,0,0,0,0,0,0,0,-1,643,1667,0,0
-574,-643,0,0,0,0,0,0,0,0,0,-1,650,1667,0,0
-567,-643,0,0,0,0,0,0,0,0,0,-1,657,1667,0,0
-560,-643,0,0,0,0,0,0,0,0,0,-1,664,1667,0,0
-553,-643,0,0,0,0,0,0,0,0,0,-1,671,1667,0,0
-546,-643,0,0,0,0,0,0,0,0,0,-1,678,1667,0,0
-539,-643,0,0,0,0,0,0,0,0,0,-1,685,1667,0,0
-532,-643,0,0,0,0,0,0,0,0,0,-1,692,1667,0,0
-525,-643,0,0,0,0,0,0,0,0,0,-1,699,1667,0,0
-518,-643,0,0,0,0,0,0,0,0,0,-1,706,1667,0,0
-511,-643,0,0,0,0,0,0,0,0,0,-1,713,1667,0,0
-504,-643,0,0,0,0,0,0,0,0,0,-1,720,1667,0,0
-497,-643,0,0,0,0,0,0,0,0,0,-1,727,1667,0,0
-490,-643,0,0,0,0,0,0,0,0,0,-1,734,1667,0,0
-483,-643,0,0,0,0,0,0,0,0,0,-1,741,1667,0,0
-476,-643,0,0,0,0,0,0,0,0,0,-1,748,1667,0,0
-469,-643,0,0,0,0,0,0,0,0,0,-1,755,1667,0,0
-462,-643,0,0,0,0,0,0,0,0,0,-1,762,1667,0,0
-455,-643,0,0,0,0,0,0,0,0,0,-1,769,1667,0,0
-448,-643,0,0,0,0,0,0,0,0,0,-1,776,1667,0,0
-441,-643,0,0,0,0,0,0,0,0,0,-1,783,1667,0,0
-434,-643,0,0,0,0,0,0,0,0,0,-1,790,1667,0,0
-427,-643,0,0,0,0,0,0,0,0,0,-1,797,1667,0,0
-420,-643,0,0,0,0,0,0,0,0,0,-1,804,1667,0,0
-413,-643,0,0,0,0,0,0,0,0,0,-1,811,1667,0,0
-406,-643,0,0,0,0,0,0,0,0,0,-1,818,1667,0,0
-399,-643,0.589417,11.6465,0,0,0,0,0,0,0,-1,825,1667,0.58939,-11.6465
-392,-643,0.865295,12.6523,0,0,0,0,0,0,0,-1,832,1667,0.865315,-12.6523
-385,-643,1.72968,13.2692,0,0,0,0,0,0,0,-1,839,1667,1.72967,-13.2692
-378,-643,2.66522,13.8193,0,0,0,0,0,0,0,-1,846,1667,2.66524,-13.8193
-371,-643,0.466125,3.35095,0,0,0,0,0,0,0,-1,853,1667,0.466148,-3.351
-364,-643,1.69513,9.922,0,0,0,0,0,0,0,-1,860,1667,1.69511,-9.92205
-357,-643,1.14227,10.8429,0,0,0,0,0,0,0,-1,867,1667,1.14228,-10.8429
-350,-643,4.48804,36.1799,0,0,0,0,0,0,0,-1,874,1667,4.48801,-36.1799
-343,-643,4.51654,37.0381,-0.00402015,-0.0168263,-0.000399587,-0.0040077,-0.0168387,-0.0311624,0.010157,0.048754,881,1667,4.51652,-37.0381
-336,-643,4.33447,37.8344,-0.00277782,-0.012959,-0.000351634,-0.00276569,-0.0129711,-0.034483,0.00788879,0.0468801,888,1667,4.33447,-37.8343
-329,-643,4.47791,38.1794,-0.00273841,-0.0101107,-0.00120412,-0.00254672,-0.0103024,-0.157867,0.00619634,0.0414802,895,1667,4.47792,-38.1794
-322,-643,4.46832,38.757,-0.0029816,-0.00738194,-0.00155217,-0.00248919,-0.00787434,-0.307196,0.00464761,0.0289432,902,1667,4.46835,-38.757
-315,-643,4.37598,39.3247,-0.00313438,-0.0053757,-0.00181019,-0.00212604,-0.00638404,-0.508232,0.00375371,0.0201129,909,1667,4.376,-39.3247
-308,-643,4.37543,39.9342,-0.00301751,-0.00382174,-0.00183723,-0.0015389,-0.00530034,-0.677662,0.00314855,0.0136385,916,1667,4.3754,-39.9342
-301,-643,4.34558,40.574,-0.00282592,-0.00258799,-0.00179994,-0.000903081,-0.00451082,-0.818397,0.00275596,0.0141332,923,1667,4.34556,-40.574
-294,-643,4.31763,41.22,-0.00234719,-0.00157817,-0.0016161,-0.000301463,-0.0036239,-0.90219,0.00232198,0.0135701,930,1667,4.31766,-41.22
-287,-643,4.28015,41.829,-0.00187372,-0.000537497,-0.00145095,0.000391772,-0.00280299,-1.00116,0.002012,0.011612,937,1667,4.28017,-41.829
-280,-643,4.24316,42.441,-0.00137715,0.00037703,-0.00114148,0.000939473,-0.0019396,-1.11298,0.00169533,0.0154082,944,1667,4.24319,-42.4411
-273,-643,4.21979,43.0466,-0.000677853,0.000811841,-0.000693872,0.00108496,-0.000950973,-1.19581,0.00117629,0.0130229,951,1667,4.21981,-43.0466
-266,-643,4.19849,43.6547,0.000259529,0.00119276,-0.000170428,0.00122291,0.000229379,-1.3957,0.000750586,0.012322,958,1667,4.1985,-43.6547
-259,-643,4.18628,44.2418,0.0012206,0.0014437,0.000268356,0.00162277,0.00104153,0.982373,0.000949384,0.0128863,965,1667,4.18629,-44.2418
-252,-643,4.17487,44.8323,0.00216718,0.001728,0.000638524,0.00262281,0.00127236,0.619782,0.00151451,0.0145284,972,1667,4.17485,-44.8322
-245,-643,4.13422,45.4047,0.0031025,0.00193342,0.000964553,0.00364581,0.00139011,0.51298,0.00212459,0.0127504,979,1667,4.13419,-45.4047
-238,-643,4.14136,45.9526,0.00404187,0.00192554,0.00130249,0.00466185,0.00130555,0.444264,0.00277697,0.016011,986,1667,4.14134,-45.9526
-231,-643,4.11877,46.5453,0.00493097,0.00204297,0.00173196,0.00574192,0.00123202,0.437911,0.00349052,0.0114539,993,1667,4.11876,-46.5453
-224,-643,4.12372,47.075,0.00563384,0.00213613,0.00204047,0.00657237,0.0011976,0.431102,0.00404196,0.00968207,1000,1667,4.12372,-47.0749
-217,-643,4.11945,47.5665,0.0061692,0.00209723,0.00224113,0.00716107,0.00110536,0.416663,0.00445158,0.00921783,1007,1667,4.11947,-47.5665
-210,-643,4.10449,48.1447,0.00714529,0.00207109,0.00219902,0.00796565,0.00125073,0.357067,0.00494652,0.0122416,1014,1667,4.1045,-48.1447
-203,-643,4.10571,48.7655,0.00861527,0.00217361,0.002533,0.00949197,0.0012969,0.33321,0.00594304,0.0166298,1021,1667,4.10567,-48.7655
-196,-643,4.12744,49.2628,0.00998579,0.00271205,0.00308164,0.0111158,0.00158202,0.351472,0.00694355,0.017226,1028,1667,4.1275,-49.2628
-189,-643,4.23462,49.7399,0.011364,0.00371723,0.00346494,0.0127005,0.00238076,0.368128,0.00779555,0.0170628,1035,1667,4.23462,-49.7399
-182,-643,4.31421,50.3165,0.0125608,0.00471476,0.00352693,0.0139131,0.00336244,0.36614,0.00838251,0.0250716,1042,1667,4.31423,-50.3166
-175,-643,4.31873,50.8657,0.0140817,0.00599843,0.00379788,0.0155861,0.00449401,0.377158,0.00926353,0.0386321,1049,1667,4.31877,-50.8657
-168,-643,3.92993,51.3773,0,0,0,0,0,0,0,-1,1056,1667,3.92989,-51.3774
-161,-643,4.09094,51.6339,0.0173675,0.0103785,0.0041784,0.0193201,0.00842593,0.437148,0.0111847,0.0448946,1063,1667,4.09091,-51.634
-154,-643,4.53223,52.078,0.0187481,0.0128558,0.0043294,0.0210387,0.0105652,0.486642,0.0121467,0.0455224,1070,1667,4.53221,-52.0781
-147,-643,4.92603,52.5577,0,0,0,0,0,0,0,-1,1077,1667,4.92603,-52.5578
-140,-643,2.88684,53.5577,0,0,0,0,0,0,0,-1,1084,1667,2.88688,-53.5578
-133,-643,2.90088,53.454,0,0,0,0,0,0,0,-1,1091,1667,2.90084,-53.454
-126,-643,2.91479,53.3503,0,0,0,0,0,0,0,-1,1098,1667,2.9148,-53.3503
-119,-643,3.76282,14.1458,0,0,0,0,0,0,0,-1,1105,1667,3.76283,-14.1458
-112,-643,3.81458,16.2069,0,0,0,0,0,0,0,-1,1112,1667,3.81463,-16.2069
-105,-643,-2.23413,10.0996,0,0,0,0,0,0,0,-1,1119,1667,-2.23415,-10.0996
-98,-643,3.11035,4.68066,0,0,0,0,0,0,0,-1,1126,1667,3.11041,-4.68071
-91,-643,-1.74146,-2.5885,0,0,0,0,0,0,0,-1,1133,1667,-1.74146,2.58856
-84,-643,-3.07446,-0.199341,0,0,0,0,0,0,0,-1,1140,1667,-3.07449,0.199383
-77,-643,-3.63794,2.81165,0,0,0,0,0,0,0,-1,1147,1667,-3.63791,-2.8117
-70,-643,-3.36938,4.45203,0,0,0,0,0,0,0,-1,1154,1667,-3.36941,-4.452
-63,-643,-3.67822,6.26855,0,0,0,0,0,0,0,-1,1161,1667,-3.67823,-6.26856
-56,-643,-3.95142,8.1073,0,0,0,0,0,0,0,-1,1168,1667,-3.95139,-8.10732
-49,-643,-4.23535,9.90552,0,0,0,0,0,0,0,-1,1175,1667,-4.23537,-9.90557
-42,-643,-4.25195,10.7059,0,0,0,0,0,0,0,-1,1182,1667,-4.25192,-10.706
-35,-643,-4.10986,11.6588,0,0,0,0,0,0,0,-1,1189,1667,-4.10982,-11.6589
-28,-643,-1.38513,5.604,0,0,0,0,0,0,0,-1,1196,1667,-1.3851,-5.60403
-21,-643,1.61011,23.1276,0,0,0,0,0,0,0,-1,1203,1667,1.61011,-23.1275
-14,-643,6.16138,56.0734,0,0,0,0,0,0,0,-1,1210,1667,6.16137,-56.0733
-7,-643,9.43713,59.3275,0,0,0,0,0,0,0,-1,1217,1667,9.43714,-59.3275
0,-643,10.0825,59.7869,0.0951326,0.0900051,0.0727944,0.165408,0.0197293,0.767796,0.10432,0.04722,1224,1667,10.0825,-59.7869
7,-643,10.7305,60.2762,0.109769,0.0939228,0.0754675,0.177728,0.0259635,0.733098,0.110849,0.0435815,1231,1667,10.7305,-60.2763
14,-643,11.3425,60.931,0.118552,0.0857286,0.0679368,0.172031,0.0322493,0.666882,0.105592,0.0430565,1238,1667,11.3426,-60.931
21,-643,12.2087,61.0485,0.119566,0.0681819,0.0544586,0.154089,0.0336592,0.564993,0.0935469,0.0452129,1245,1667,12.2087,-61.0485
28,-643,13.1504,60.9934,0.11427,0.0469404,0.0379782,0.131356,0.0298542,0.422765,0.0795102,0.0453075,1252,1667,13.1504,-60.9935
35,-643,14.2894,61.199,0,0,0,0,0,0,0,-1,1259,1667,14.2894,-61.1989
42,-643,10.892,67.9779,0,0,0,0,0,0,0,-1,1266,1667,10.8919,-67.9779
49,-643,11.0056,66.2959,0,0,0,0,0,0,0,-1,1273,1667,11.0057,-66.2958
56,-643,11.6566,64.3414,0,0,0,0,0,0,0,-1,1280,1667,11.6567,-64.3414
63,-643,11.563,63.0112,0.0468996,-0.0479064,-0.0399187,0.0614688,-0.0624755,-0.349949,0.07156,0.046629,1287,1667,11.563,-63.0112
70,-643,11.4362,61.7328,0.0301626,-0.0602435,-0.0514506,0.0534466,-0.0835276,-0.424974,0.0797152,0.0465374,1294,1667,11.4362,-61.7328
77,-643,11.2743,60.3313,0,0,0,0,0,0,0,-1,1301,1667,11.2743,-60.3313
84,-643,11.2394,60.015,0.00102716,-0.0722631,-0.062833,0.0371202,-0.108356,-0.521405,0.0872829,0.0479193,1308,1667,11.2394,-60.015
91,-643,10.0427,59.4777,0,0,0,0,0,0,0,-1,1315,1667,10.0428,-59.4776
98,-643,11.3019,59.1462,0,0,0,0,0,0,0,-1,1322,1667,11.3019,-59.1463
105,-643,11.2993,58.4122,0.00703772,-0.0490717,-0.0621265,0.0471503,-0.0891842,-0.573317,0.0799501,0.0467921,1329,1667,11.2993,-58.4123
112,-643,11.2001,57.636,0.0151679,-0.0397681,-0.062203,0.0556978,-0.0802979,-0.577481,0.0789442,0.0466036,1336,1667,11.2,-57.636
119,-643,10.8699,56.4069,0.0268317,-0.0290106,-0.0636102,0.0683789,-0.0705578,-0.578588,0.0802184,0.0451364,1343,1667,10.8699,-56.4069
126,-643,10.7827,54.3809,0,0,0,0,0,0,0,-1,1350,1667,10.7827,-54.3809
133,-643,10.757,52.41,0,0,0,0,0,0,0,-1,1357,1667,10.757,-52.4101
140,-643,10.5094,52.59,0.0785583,0.0150784,-0.0837726,0.136402,-0.0427656,-0.604313,0.108049,0.042112,1364,1667,10.5094,-52.59
147,-643,10.6536,50.6689,0.0944325,0.0295954,-0.0928429,0.160354,-0.0363261,-0.617428,0.120845,0.0442409,1371,1667,10.6536,-50.669
154,-643,10.7736,48.6791,0,0,0,0,0,0,0,-1,1378,1667,10.7735,-48.6791
161,-643,5.57935,26.2754,0,0,0,0,0,0,0,-1,1385,1667,5.57931,-26.2754
168,-643,10.5563,10.9818,0,0,0,0,0,0,0,-1,1392,1667,10.5562,-10.9819
175,-643,5.88525,-1.1698,0,0,0,0,0,0,0,-1,1399,1667,5.88526,1.16977
182,-643,5.80945,-0.418701,0,0,0,0,0,0,0,-1,1406,1667,5.80949,0.418712
189,-643,5.42297,12.9208,0,0,0,0,0,0,0,-1,1413,1667,5.42298,-12.9208
196,-643,5.51953,11.2415,0,0,0,0,0,0,0,-1,1420,1667,5.51948,-11.2414
203,-643,5.60828,9.82153,0,0,0,0,0,0,0,-1,1427,1667,5.60833,-9.82148
210,-643,4.73218,7.58728,0,0,0,0,0,0,0,-1,1434,1667,4.73222,-7.58728
217,-643,3.8031,5.28955,0,0,0,0,0,0,0,-1,1441,1667,3.80305,-5.28955
224,-643,2.96436,2.97095,0,0,0,0,0,0,0,-1,1448,1667,2.96432,-2.97095
231,-643,2.13403,1.08472,0,0,0,0,0,0,0,-1,1455,1667,2.13403,-1.08467
238,-643,1.18152,-0.261963,0,0,0,0,0,0,0,-1,1462,1667,1.18152,0.26192
245,-643,-0.157471,-1.79016,0,0,0,0,0,0,0,-1,1469,1667,-0.157517,1.7901
252,-643,8.08789,0.0202637,0,0,0,0,0,0,0,-1,1476,1667,8.08791,-0.0203056
259,-643,9.02979,-0.46936,0,0,0,0,0,0,0,-1,1483,1667,9.02974,0.46933
266,-643,4.55066,5.17554,0,0,0,0,0,0,0,-1,1490,1667,4.55063,-5.17556
273,-643,10.74,31.432,0,0,0,0,0,0,0,-1,1497,1667,10.7399,-31.4319
280,-643,12.1675,42.5023,0,0,0,0,0,0,0,-1,1504,1667,12.1675,-42.5023
287,-643,12.9725,46.299,0,0,0,0,0,0,0,-1,1511,1667,12.9725,-46.299
294,-643,13.498,51.3862,0,0,0,0,0,0,0,-1,1518,1667,13.498,-51.3862
301,-643,13.5809,51.2748,0.0171284,0.0189745,-0.00812961,0.0262333,0.00986957,-0.841927,0.0152997,0.0407483,1525,1667,13.5809,-51.2748
308,-643,13.9419,50.4794,0.0143159,0.0175352,-0.00697211,0.023081,0.00877005,-0.898844,0.0134532,0.0376224,1532,1667,13.9418,-50.4794
315,-643,13.9095,49.9744,0.0117634,0.0158239,-0.00597991,0.0201088,0.00747849,-0.949047,0.0117361,0.0296398,1539,1667,13.9096,-49.9744
322,-643,13.9546,49.3948,0.00979191,0.0146756,-0.00536889,0.0181318,0.00633565,-0.998823,0.0106255,0.0191216,1546,1667,13.9546,-49.3948
329,-643,13.9667,48.8142,0.00807238,0.0130605,-0.00466015,0.015852,0.00528087,-1.0311,0.00932052,0.0139169,1553,1667,13.9667,-48.8142
336,-643,13.9674,48.3025,0.00650615,0.0118306,-0.00379091,0.0138007,0.00453605,-1.09152,0.00812224,0.0124143,1560,1667,13.9674,-48.3024
343,-643,13.9851,47.8018,0.00505079,0.010831,-0.00310755,0.0121847,0.00369713,-1.15998,0.00721379,0.0137775,1567,1667,13.9851,-47.8017
350,-643,14.0133,47.2504,0.00384897,0.00964243,-0.00258006,0.0106248,0.00286656,-1.20698,0.00634727,0.012828,1574,1667,14.0133,-47.2504
357,-643,14.0065,46.7212,0.00276558,0.00820808,-0.00199262,0.00885963,0.00211403,-1.25478,0.00534301,0.0113843,1581,1667,14.0065,-46.7212
364,-643,14.0159,46.1793,0.00216782,0.00728608,-0.00177976,0.00784411,0.00160978,-1.26696,0.00478396,0.0108655,1588,1667,14.0158,-46.1793
371,-643,14.016,45.657,0.00186824,0.00641376,-0.0016715,0.00696223,0.00131977,-1.25373,0.0042701,0.00888668,1595,1667,14.016,-45.657
378,-643,13.9963,45.1067,0.00163121,0.00561244,-0.00166126,0.00621457,0.00102908,-1.22307,0.00384619,0.0105875,1602,1667,13.9964,-45.1067
385,-643,13.9794,44.5291,0.00157368,0.00481426,-0.00171106,0.00555046,0.000837472,-1.16448,0.00345515,0.0171179,1609,1667,13.9793,-44.529
392,-643,13.9633,43.9666,0.00149455,0.00407955,-0.0018362,0.00503253,0.000541568,-1.09207,0.00318986,0.0179428,1616,1667,13.9632,-43.9666
399,-643,13.9335,43.4185,0.00145457,0.00341361,-0.00205036,0.00470641,0.000161766,-1.00824,0.0030851,0.0154784,1623,1667,13.9335,-43.4184
406,-643,13.9215,42.829,0.00146511,0.00280623,-0.00229002,0.00452185,-0.000250503,-0.927826,0.00310144,0.014674,1630,1667,13.9215,-42.829
413,-643,13.9182,42.2256,0.00149655,0.00243564,-0.00252121,0.00453066,-0.000598467,-0.877463,0.00323841,0.0208731,1637,1667,13.9182,-42.2256
420,-643,13.8845,41.6464,0.0016099,0.00211902,-0.00280885,0.00468482,-0.000955906,-0.830589,0.00348582,0.0198042,1644,1667,13.8845,-41.6463
427,-643,13.834,41.0658,0.00177303,0.00201156,-0.00313705,0.00503161,-0.00124702,-0.804399,0.00383821,0.0161912,1651,1667,13.834,-41.0658
434,-643,13.8221,40.4496,0.00194156,0.00208716,-0.00345285,0.00546798,-0.00143926,-0.795939,0.00420793,0.0166997,1658,1667,13.8222,-40.4496
441,-643,13.8024,39.8334,0.00208867,0.00241735,-0.00373282,0.00598944,-0.00148342,-0.807397,0.00456843,0.0163929,1665,1667,13.8023,-39.8334
448,-643,13.7819,39.2134,0.00225739,0.00296595,-0.00404722,0.00667436,-0.00145103,-0.829055,0.00500388,0.0218766,1672,1667,13.7818,-39.2134
455,-643,13.631,38.6354,0.00252957,0.00359337,-0.00447449,0.00756747,-0.00144452,-0.844557,0.00558906,0.0295963,1679,1667,13.631,-38.6353
462,-643,13.5472,37.7706,0.00284753,0.00426158,-0.00490864,0.00851385,-0.00140474,-0.856925,0.00619744,0.0463436,1686,1667,13.5472,-37.7707
469,-643,13.9176,37.3101,0,0,0,0,0,0,0,-1,1693,1667,13.9175,-37.31
476,-643,10.5598,24.5066,0,0,0,0,0,0,0,-1,1700,1667,10.5598,-24.5065
483,-643,10.4502,24.3062,0,0,0,0,0,0,0,-1,1707,1667,10.4502,-24.3062
490,-643,10.6885,24.1522,0,0,0,0,0,0,0,-1,1714,1667,10.6884,-24.1522
497,-643,10.9073,23.9465,0,0,0,0,0,0,0,-1,1721,1667,10.9074,-23.9465
504,-643,8.05591,19.0656,0,0,0,0,0,0,0,-1,1728,1667,8.0559,-19.0655
511,-643,7.74719,18.1564,0,0,0,0,0,0,0,-1,1735,1667,7.74724,-18.1563
518,-643,7.40564,0.922607,0,0,0,0,0,0,0,-1,1742,1667,7.4057,-0.922598
525,-643,0,0,0,0,0,0,0,0,0,-1,1749,1667,0,0
532,-643,0,0,0,0,0,0,0,0,0,-1,1756,1667,0,0
539,-643,0,0,0,0,0,0,0,0,0,-1,1763,1667,0,0
546,-643,0,0,0,0,0,0,0,0,0,-1,1770,1667,0,0
553,-643,0,0,0,0,0,0,0,0,0,-1,1777,1667,0,0
560,-643,0,0,0,0,0,0,0,0,0,-1,1784,1667,0,0
567,-643,0,0,0,0,0,0,0,0,0,-1,1791,1667,0,0
574,-643,0,0,0,0,0,0,0,0,0,-1,1798,1667,0,0
581,-643,0,0,0,0,0,0,0,0,0,-1,1805,1667,0,0
588,-643,0,0,0,0,0,0,0,0,0,-1,1812,1667,0,0
595,-643,0,0,0,0,0,0,0,0,0,-1,1819,1667,0,0
602,-643,0,0,0,0,0,0,0,0,0,-1,1826,1667,0,0
609,-643,0,0,0,0,0,0,0,0,0,-1,1833,1667,0,0
616,-643,0,0,0,0,0,0,0,0,0,-1,1840,1667,0,0
623,-643,0,0,0,0,0,0,0,0,0,-1,1847,1667,0,0
630,-643,0,0,0,0,0,0,0,0,0,-1,1854,1667,0,0
637,-643,0,0,0,0,0,0,0,0,0,-1,1861,1667,0,0
644,-643,0,0,0,0,0,0,0,0,0,-1,1868,1667,0,0
651,-643,0,0,0,0,0,0,0,0,0,-1,1875,1667,0,0
658,-643,0,0,0,0,0,0,0,0,0,-1,1882,1667,0,0
665,-643,0,0,0,0,0,0,0,0,0,-1,1889,1667,0,0
672,-643,0,0,0,0,0,0,0,0,0,-1,1896,1667,0,0
679,-643,0,0,0,0,0,0,0,0,0,-1,1903,1667,0,0
686,-643,0,0,0,0,0,0,0,0,0,-1,1910,1667,0,0
693,-643,0,0,0,0,0,0,0,0,0,-1,1917,1667,0,0
700,-643,0,0,0,0,0,0,0,0,0,-1,1924,1667,0,0
707,-643,0,0,0,0,0,0,0,0,0,-1,1931,1667,0,0
714,-643,0,0,0,0,0,0,0,0,0,-1,1938,1667,0,0
721,-643,0,0,0,0,0,0,0,0,0,-1,1945,1667,0,0
728,-643,0,0,0,0,0,0,0,0,0,-1,1952,1667,0,0
735,-643,0,0,0,0,0,0,0,0,0,-1,1959,1667,0,0
742,-643,0,0,0,0,0,0,0,0,0,-1,1966,1667,0,0
749,-643,0,0,0,0,0,0,0,0,0,-1,1973,1667,0,0
756,-643,0,0,0,0,0,0,0,0,0,-1,1980,1667,0,0
763,-643,0,0,0,0,0,0,0,0,0,-1,1987,1667,0,0
770,-643,0,0,0,0,0,0,0,0,0,-1,1994,1667,0,0
777,-643,0,0,0,0,0,0,0,0,0,-1,2001,1667,0,0
784,-643,0,0,0,0,0,0,0,0,0,-1,2008,1667,0,0
791,-643,0,0,0,0,0,0,0,0,0,-1,2015,1667,0,0
798,-643,0,0,0,0,0,0,0,0,0,-1,2022,1667,0,0
805,-643,0,0,0,0,0,0,0,0,0,-1,2029,1667,0,0
812,-643,0,0,0,0,0,0,0,0,0,-1,2036,1667,0,0
-700,-650,0,0,0,0,0,0,0,0,0,-1,524,1674,0,0
-693,-650,0,0,0,0,0,0,0,0,0,-1,531,1674,0,0
-686,-650,0,0,0,0,0,0,0,0,0,-1,538,1674,0,0
-679,-650,0,0,0,0,0,0,0,0,0,-1,545,1674,0,0
-672,-650,0,0,0,0,0,0,0,0,0,-1,552,1674,0,0
-665,-650,0,0,0,0,0,0,0,0,0,-1,559,1674,0,0
-658,-650,0,0,0,0,0,0,0,0,0,-1,566,1674,0,0
-651,-650,0,0,0,0,0,0,0,0,0,-1,573,1674,0,0
-644,-650,0,0,0,0,0,0,0,0,0,-1,580,1674,0,0
-637,-650,0,0,0,0,0,0,0,0,0,-1,587,1674,0,0
-630,-650,0,0,0,0,0,0,0,0,0,-1,594,1674,0,0
-623,-650,0,0,0,0,0,0,0,0,0,-1,601,1674,0,0
-616,-650,0,0,0,0,0,0,0,0,0,-1,608,1674,0,0
-609,-650,0,0,0,0,0,0,0,0,0,-1,615,1674,0,0
-602,-650,0,0,0,0,0,0,0,0,0,-1,622,1674,0,0
-595,-650,0,0,0,0,0,0,0,0,0,-1,629,1674,0,0
-588,-650,0,0,0,0,0,0,0,0,0,-1,636,1674,0,0
-581,-650,0,0,0,0,0,0,0,0,0,-1,643,1674,0,0
-574,-650,0,0,0,0,0,0,0,0,0,-1,650,1674,0,0
-567,-650,0,0,0,0,0,0,0,0,0,-1,657,1674,0,0
-560,-650,0,0,0,0,0,0,0,0,0,-1,664,1674,0,0
-553,-650,0,0,0,0,0,0,0,0,0,-1,671,1674,0,0
-546,-650,0,0,0,0,0,0,0,0,0,-1,678,1674,0,0
-539,-650,0,0,0,0,0,0,0,0,0,-1,685,1674,0,0
-532,-650,0,0,0,0,0,0,0,0,0,-1,692,1674,0,0
-525,-650,0,0,0,0,0,0,0,0,0,-1,699,1674,0,0
-518,-650,0,0,0,0,0,0,0,0,0,-1,706,1674,0,0
-511,-650,0,0,0,0,0,0,0,0,0,-1,713,1674,0,0
-504,-650,0,0,0,0,0,0,0,0,0,-1,720,1674,0,0
-497,-650,0,0,0,0,0,0,0,0,0,-1,727,1674,0,0
-490,-650,0,0,0,0,0,0,0,0,0,-1,734,1674,0,0
-483,-650,0,0,0,0,0,0,0,0,0,-1,741,1674,0,0
-476,-650,0,0,0,0,0,0,0,0,0,-1,748,1674,0,0
-469,-650,0,0,0,0,0,0,0,0,0,-1,755,1674,0,0
-462,-650,0,0,0,0,0,0,0,0,0,-1,762,1674,0,0
-455,-650,0,0,0,0,0,0,0,0,0,-1,769,1674,0,0
-448,-650,0,0,0,0,0,0,0,0,0,-1,776,1674,0,0
-441,-650,0,0,0,0,0,0,0,0,0,-1,783,1674,0,0
-434,-650,0,0,0,0,0,0,0,0,0,-1,790,1674,0,0
-427,-650,0,0,0,0,0,0,0,0,0,-1,797,1674,0,0
-420,-650,0,0,0,0,0,0,0,0,0,-1,804,1674,0,0
-413,-650,0,0,0,0,0,0,0,0,0,-1,811,1674,0,0
-406,-650,0,0,0,0,0,0,0,0,0,-1,818,1674,0,0
-399,-650,0,0,0,0,0,0,0,0,0,-1,825,1674,0,0
-392,-650,5.44415,6.85669,0,0,0,0,0,0,0,-1,832,1674,5.44414,-6.85674
-385,-650,1.74451,14.0183,0,0,0,0,0,0,0,-1,839,1674,1.74453,-14.0183
-378,-650,0.997986,4.11108,0,0,0,0,0,0,0,-1,846,1674,0.998006,-4.11113
-371,-650,-1.80096,3.78625,0,0,0,0,0,0,0,-1,853,1674,-1.80094,-3.78625
-364,-650,-2.95679,2.57507,0,0,0,0,0,0,0,-1,860,1674,-2.95681,-2.57506
-357,-650,5.76074,34.531,0,0,0,0,0,0,0,-1,867,1674,5.76077,-34.531
-350,-650,5.11011,35.4972,0,0,0,0,0,0,0,-1,874,1674,5.1101,-35.4971
-343,-650,5.20538,37.4165,0,0,0,0,0,0,0,-1,881,1674,5.20538,-37.4166
-336,-650,4.75696,38.2585,0,0,0,0,0,0,0,-1,888,1674,4.75693,-38.2585
-329,-650,5.22394,38.4087,0,0,0,0,0,0,0,-1,895,1674,5.22395,-38.4087
-322,-650,5.10736,38.931,-0.00416756,-0.00946053,-0.00296484,-0.00283986,-0.0107882,-0.421036,0.00645717,0.0485634,902,1674,5.10735,-38.931
-315,-650,4.94891,39.2465,-0.00441166,-0.00674854,-0.00312473,-0.00224406,-0.00891615,-0.606481,0.00535517,0.0426716,909,1674,4.94894,-39.2464
-308,-650,5.00848,39.8549,-0.00446053,-0.00484791,-0.00310369,-0.00154449,-0.00776395,-0.754235,0.00474567,0.0244954,916,1674,5.00847,-39.8549
-301,-650,4.98407,40.604,-0.00441241,-0.00337048,-0.00304121,-0.000805935,-0.00697695,-0.870226,0.00440728,0.0130051,923,1674,4.98406,-40.6041
-294,-650,4.93433,41.2297,-0.00400238,-0.00214328,-0.00280585,-0.000117009,-0.00602865,-0.945354,0.00398067,0.0104022,930,1674,4.93434,-41.2298
-287,-650,4.88208,41.856,-0.00361934,-0.000966741,-0.00260352,0.000628839,-0.00521492,-1.02098,0.00370406,0.0135143,937,1674,4.88211,-41.856
-280,-650,4.84552,42.4559,-0.00326384,0.00020534,-0.00212849,0.00121653,-0.00427502,-1.12729,0.00333043,0.0160916,944,1674,4.84551,-42.4559
-273,-650,4.81952,43.0895,-0.00266704,0.000698067,-0.00152322,0.00128513,-0.00325411,-1.20293,0.00270167,0.0154524,951,1674,4.81954,-43.0895
-266,-650,4.77362,43.6742,-0.00176586,0.00115402,-0.00088385,0.00140072,-0.00201256,-1.29861,0.00198118,0.0116858,958,1674,4.77364,-43.6741
-259,-650,4.76178,44.2356,-0.00083479,0.00141652,-0.000336135,0.00146564,-0.000883906,-1.4257,0.0013703,0.0149788,965,1674,4.76176,-44.2356
-252,-650,4.73291,44.83,8.64563e-05,0.00171283,0.000131137,0.00172333,7.59504e-05,1.49085,0.00112443,0.0147632,972,1674,4.7329,-44.83
-245,-650,4.70258,45.3981,0.00101722,0.00192938,0.000521588,0.00216617,0.000780434,1.14465,0.00126681,0.0124704,979,1674,4.7026,-45.398
-238,-650,4.68109,45.9841,0.00194248,0.00193687,0.000873088,0.00281277,0.00106658,0.783794,0.00163968,0.01315,986,1674,4.68107,-45.9841
-231,-650,4.64111,46.6028,0.00279163,0.00200203,0.00126118,0.00371836,0.00107529,0.633711,0.00220949,0.0177944,993,1674,4.64111,-46.6028
-224,-650,4.64496,47.1477,0.00357318,0.00204647,0.0015994,0.00458205,0.00103759,0.562747,0.00277429,0.0146873,1000,1674,4.64498,-47.1477
-217,-650,4.67035,47.615,0.00421203,0.0018796,0.00170393,0.00511062,0.000981006,0.485299,0.00313172,0.0101937,1007,1674,4.67037,-47.615
-210,-650,4.67596,48.1376,0.00514128,0.00178115,0.00161237,0.00578981,0.00113262,0.382421,0.0035432,0.0098948,1014,1674,4.67595,-48.1375
-203,-650,4.71594,48.6797,0.00634529,0.00176586,0.00175552,0.00694082,0.00117033,0.327052,0.00429064,0.0150857,1021,1674,4.71592,-48.6797
-196,-650,4.70496,49.1864,0.00746549,0.00210117,0.0021056,0.00819325,0.00137341,0.332776,0.00506679,0.0144574,1028,1674,4.70496,-49.1864
-189,-650,4.68152,49.7091,0.00851019,0.00282823,0.00230758,0.00932928,0.00200915,0.341083,0.00566973,0.0118834,1035,1674,4.68149,-49.7091
-182,-650,4.75256,50.293,0.00941359,0.00363636,0.00225265,0.0101881,0.00286185,0.331162,0.00606743,0.0117412,1042,1674,4.75253,-50.293
-175,-650,4.74927,50.7289,0.0105938,0.00482994,0.00250365,0.0115294,0.0038943,0.357638,0.0067723,0.0194153,1049,1674,4.74932,-50.7289
-168,-650,4.70447,51.196,0.0118091,0.00645247,0.00278491,0.0129946,0.00526696,0.402455,0.00754712,0.0262152,1056,1674,4.70444,-51.196
-161,-650,4.68921,51.6292,0.0130157,0.00831223,0.00280754,0.0143263,0.0070016,0.436757,0.00827202,0.0338072,1063,1674,4.68922,-51.6291
-154,-650,4.83789,52.0353,0.0140375,0.0103733,0.00288544,0.0156233,0.00878745,0.50254,0.00904356,0.0352033,1070,1674,4.83795,-52.0353
-147,-650,5.04236,52.7971,0.0146982,0.0128712,0.00293226,0.016856,0.0107134,0.634393,0.00985035,0.0461434,1077,1674,5.04235,-52.7971
-140,-650,5.18115,53.5527,0,0,0,0,0,0,0,-1,1084,1674,5.18116,-53.5527
-133,-650,3.94995,53.7451,0,0,0,0,0,0,0,-1,1091,1674,3.94993,-53.7451
-126,-650,3.95898,53.8031,0,0,0,0,0,0,0,-1,1098,1674,3.95901,-53.8031
-119,-650,5.16663,20.6232,0,0,0,0,0,0,0,-1,1105,1674,5.16665,-20.6232
-112,-650,3.86292,14.4513,0,0,0,0,0,0,0,-1,1112,1674,3.8629,-14.4513
-105,-650,7.92102,38.1313,0,0,0,0,0,0,0,-1,1119,1674,7.92104,-38.1314
-98,-650,3.3761,6.78003,0,0,0,0,0,0,0,-1,1126,1674,3.37611,-6.78009
-91,-650,3.66809,7.04443,0,0,0,0,0,0,0,-1,1133,1674,3.66806,-7.04439
-84,-650,-3.82666,-1.59521,0,0,0,0,0,0,0,-1,1140,1674,-3.82661,1.59517
-77,-650,-4.70557,1.90198,0,0,0,0,0,0,0,-1,1147,1674,-4.7056,-1.90194
-70,-650,-4.88171,3.81653,0,0,0,0,0,0,0,-1,1154,1674,-4.88176,-3.81651
-63,-650,-5.14612,5.56543,0,0,0,0,0,0,0,-1,1161,1674,-5.14612,-5.56547
-56,-650,-5.38367,7.41101,0,0,0,0,0,0,0,-1,1168,1674,-5.38361,-7.41102
-49,-650,-5.11316,8.23706,0,0,0,0,0,0,0,-1,1175,1674,-5.11317,-8.23708
-42,-650,-4.99487,9.6792,0,0,0,0,0,0,0,-1,1182,1674,-4.99484,-9.67921
-35,-650,-4.77771,11.3369,0,0,0,0,0,0,0,-1,1189,1674,-4.77769,-11.3369
-28,-650,-4.1936,13.1501,0,0,0,0,0,0,0,-1,1196,1674,-4.19358,-13.1501
-21,-650,7.52466,48.5822,0,0,0,0,0,0,0,-1,1203,1674,7.52469,-48.5821
-14,-650,7.34265,59.3594,0,0,0,0,0,0,0,-1,1210,1674,7.34261,-59.3594
-7,-650,9.14673,58.3368,0,0,0,0,0,0,0,-1,1217,1674,9.14678,-58.3368
0,-650,9.8208,58.8695,0.0896046,0.0704481,0.0652442,0.14597,0.0140828,0.712516,0.0929752,0.0451263,1224,1674,9.82077,-58.8695
7,-650,9.6355,59.3812,0.101043,0.0729301,0.0671073,0.15555,0.0184229,0.682159,0.0981373,0.0429224,1231,1674,9.63554,-59.3812
14,-650,10.7194,60.2125,0.109133,0.066705,0.0614961,0.152971,0.0228665,0.619308,0.0952776,0.0434442,1238,1674,10.7194,-60.2126
21,-650,11.675,60.2219,0.110545,0.0529995,0.0503007,0.139721,0.0238239,0.525602,0.0863092,0.0443695,1245,1674,11.6751,-60.222
28,-650,12.4746,59.8778,0.105424,0.0361112,0.0361757,0.120865,0.0206702,0.403423,0.0746466,0.0436776,1252,1674,12.4746,-59.8778
35,-650,13.4556,59.799,0,0,0,0,0,0,0,-1,1259,1674,13.4556,-59.799
42,-650,10.2512,68.7303,0.0841225,0.0018092,0.00634661,0.0846089,0.00132273,0.0765006,0.0559703,0.0455155,1266,1674,10.2513,-68.7303
49,-650,10.4535,67.0688,0.0709611,-0.0125436,-0.00709993,0.0715604,-0.013143,-0.0842188,0.0526378,0.0452005,1273,1674,10.4535,-67.0689
56,-650,11.7728,65.2694,0.0592802,-0.0250778,-0.0192373,0.06346,-0.0292576,-0.213952,0.0547311,0.047282,1280,1674,11.7728,-65.2694
63,-650,11.6681,63.974,0.0468459,-0.0370419,-0.0301147,0.0565371,-0.0467331,-0.311344,0.0597126,0.0499423,1287,1674,11.6681,-63.9739
70,-650,11.6935,62.6119,0.0317606,-0.0479582,-0.0408493,0.0489751,-0.0651728,-0.398831,0.0661241,0.0492335,1294,1674,11.6934,-62.612
77,-650,11.5677,61.2214,0.0176215,-0.0551218,-0.0486101,0.0419609,-0.0794612,-0.464213,0.0712088,0.0465887,1301,1674,11.5677,-61.2214
84,-650,11.2511,60.3663,0.00428136,-0.0610189,-0.0542599,0.0349571,-0.0916947,-0.514551,0.0755286,0.0498327,1308,1674,11.2512,-60.3663
91,-650,11.1534,60.0123,0,0,0,0,0,0,0,-1,1315,1674,11.1534,-60.0123
98,-650,11.073,59.3621,-0.000343886,-0.0497613,-0.0572354,0.0372885,-0.0873937,-0.581631,0.0738975,0.0477298,1322,1674,11.073,-59.3621
105,-650,11.0586,58.5784,0.00326133,-0.042655,-0.0563717,0.0411706,-0.0805643,-0.592022,0.0714999,0.047509,1329,1674,11.0586,-58.5783
112,-650,10.7849,57.7631,0.010761,-0.034592,-0.0564364,0.0489063,-0.0727373,-0.594367,0.0706788,0.0455086,1336,1674,10.7849,-57.7631
119,-650,10.6674,56.5513,0.0222401,-0.025365,-0.0580071,0.0611383,-0.0642632,-0.590705,0.072408,0.0450273,1343,1674,10.6674,-56.5513
126,-650,10.3961,55.3666,0,0,0,0,0,0,0,-1,1350,1674,10.3961,-55.3665
133,-650,8.93079,55.2572,0,0,0,0,0,0,0,-1,1357,1674,8.93083,-55.2572
140,-650,9.61731,52.6073,0.0629294,0.00808183,-0.0725988,0.113111,-0.0421002,-0.604811,0.0926849,0.0461967,1364,1674,9.61736,-52.6073
147,-650,10.2286,50.1327,0.071492,0.0172873,-0.0770468,0.126064,-0.0372849,-0.616275,0.0988437,0.0492474,1371,1674,10.2286,-50.1327
154,-650,10.8048,47.7006,0,0,0,0,0,0,0,-1,1378,1674,10.8048,-47.7005
161,-650,4.09106,30.3021,0,0,0,0,0,0,0,-1,1385,1674,4.09104,-30.3021
168,-650,11.2113,7.87231,0,0,0,0,0,0,0,-1,1392,1674,11.2113,-7.87236
175,-650,5.62537,-0.230713,0,0,0,0,0,0,0,-1,1399,1674,5.62538,0.230745
182,-650,5.56006,0.421631,0,0,0,0,0,0,0,-1,1406,1674,5.56,-0.421652
189,-650,4.81543,11.0654,0,0,0,0,0,0,0,-1,1413,1674,4.81542,-11.0654
196,-650,5.39575,11.9077,0,0,0,0,0,0,0,-1,1420,1674,5.39575,-11.9078
203,-650,3.93628,11.8215,0,0,0,0,0,0,0,-1,1427,1674,3.93624,-11.8216
210,-650,5.40955,8.08594,0,0,0,0,0,0,0,-1,1434,1674,5.40958,-8.086
217,-650,5.12451,4.69739,0,0,0,0,0,0,0,-1,1441,1674,5.12451,-4.69738
224,-650,4.79041,1.45813,0,0,0,0,0,0,0,-1,1448,1674,4.79046,-1.45816
231,-650,4.04102,-0.642212,0,0,0,0,0,0,0,-1,1455,1674,4.04101,0.642209
238,-650,3.23022,-1.43396,0,0,0,0,0,0,0,-1,1462,1674,3.23023,1.43394
245,-650,1.65894,-2.55042,0,0,0,0,0,0,0,-1,1469,1674,1.65889,2.55036
252,-650,8.75342,0.355103,0,0,0,0,0,0,0,-1,1476,1674,8.75337,-0.355147
259,-650,5.61255,3.17566,0,0,0,0,0,0,0,-1,1483,1674,5.61257,-3.17572
266,-650,4.00403,6.10229,0,0,0,0,0,0,0,-1,1490,1674,4.00401,-6.10225
273,-650,11.9524,42.7109,0,0,0,0,0,0,0,-1,1497,1674,11.9524,-42.7109
280,-650,12.3011,46.7283,0,0,0,0,0,0,0,-1,1504,1674,12.3011,-46.7283
287,-650,13.1542,51.6666,0,0,0,0,0,0,0,-1,1511,1674,13.1542,-51.6667
294,-650,13.2059,51.3146,0.0151317,0.0142162,-0.00656703,0.0212569,0.00809095,-0.750603,0.0123887,0.0420639,1518,1674,13.2059,-51.3146
301,-650,13.3132,50.7924,0.0133999,0.0130437,-0.00572984,0.0189544,0.00748921,-0.769862,0.0110233,0.0332179,1525,1674,13.3133,-50.7924
308,-650,13.4226,50.3403,0.0114226,0.0120485,-0.00494987,0.0166953,0.00677581,-0.816971,0.00969584,0.0211441,1532,1674,13.4226,-50.3403
315,-650,13.4796,49.8336,0.00954797,0.0108815,-0.00427596,0.0145424,0.00588713,-0.862745,0.00844661,0.012462,1539,1674,13.4796,-49.8336
322,-650,13.4532,49.3235,0.00795887,0.0101856,-0.00382274,0.0130538,0.00509067,-0.927104,0.00759721,0.0116706,1546,1674,13.4532,-49.3235
329,-650,13.474,48.7654,0.00653295,0.00918519,-0.00334582,0.0114581,0.00426003,-0.974077,0.00668745,0.016994,1553,1674,13.474,-48.7653
336,-650,13.486,48.2806,0.0052495,0.00840861,-0.00278373,0.0100297,0.00362841,-1.04346,0.00586396,0.0151241,1560,1674,13.4859,-48.2806
343,-650,13.4844,47.775,0.00402739,0.00781074,-0.00235107,0.00893668,0.00290146,-1.12417,0.00526427,0.0141558,1567,1674,13.4844,-47.775
350,-650,13.4901,47.2582,0.00301572,0.00708069,-0.00206824,0.00794796,0.00214845,-1.17374,0.0047474,0.0156955,1574,1674,13.4901,-47.2582
357,-650,13.467,46.7318,0.00213444,0.00611576,-0.00173633,0.0067666,0.00148359,-1.21216,0.00410685,0.0134617,1581,1674,13.467,-46.7318
364,-650,13.4681,46.1924,0.00166769,0.00554088,-0.00173776,0.00620625,0.00100232,-1.20513,0.00384716,0.00986881,1588,1674,13.4682,-46.1924
371,-650,13.4515,45.6549,0.00142946,0.00498835,-0.00182035,0.00575451,0.000663302,-1.17242,0.00363546,0.0120436,1595,1674,13.4515,-45.6549
378,-650,13.42,45.1082,0.00126908,0.00443534,-0.00196914,0.00537883,0.000325595,-1.12398,0.00348243,0.0131076,1602,1674,13.42,-45.1082
385,-650,13.4075,44.5444,0.00135899,0.00390823,-0.00217734,0.0051566,0.000110624,-1.05021,0.00340146,0.0140076,1609,1674,13.4075,-44.5444
392,-650,13.3953,43.9952,0.00139885,0.00339919,-0.00245414,0.00504914,-0.000251099,-0.978895,0.00345284,0.0177209,1616,1674,13.3952,-43.9952
399,-650,13.3728,43.4397,0.00147592,0.00292594,-0.0027897,0.0050833,-0.000681445,-0.912529,0.00363736,0.016641,1623,1674,13.3728,-43.4398
406,-650,13.3553,42.8586,0.00160953,0.00252679,-0.00311841,0.00522011,-0.0010838,-0.85841,0.00389197,0.0161105,1630,1674,13.3554,-42.8587
413,-650,13.3447,42.2758,0.00176003,0.00241146,-0.00344586,0.00554697,-0.00137547,-0.83252,0.00423165,0.0170728,1637,1674,13.3447,-42.2758
420,-650,13.3003,41.6989,0.00200705,0.00231712,-0.00384193,0.00600714,-0.00168298,-0.805564,0.004668,0.0170344,1644,1674,13.3003,-41.6988
427,-650,13.2542,41.1003,0.00229831,0.00258548,-0.00427837,0.00672267,-0.00183888,-0.802172,0.00520419,0.0148482,1651,1674,13.2542,-41.1003
434,-650,13.2139,40.4989,0.00258062,0.00294466,-0.00464621,0.00741241,-0.00188713,-0.804976,0.0056762,0.0192492,1658,1674,13.2139,-40.4989
441,-650,13.2177,39.8625,0.00280259,0.0036361,-0.00493105,0.00816797,-0.00172928,-0.827556,0.00610395,0.0344874,1665,1674,13.2177,-39.8625
448,-650,13.1504,39.3085,0.00304246,0.00453698,-0.00522877,0.00907162,-0.00149218,-0.856374,0.0066016,0.0455585,1672,1674,13.1504,-39.3085
455,-650,13.121,38.7781,0,0,0,0,0,0,0,-1,1679,1674,13.121,-38.7781
462,-650,12.8401,37.5743,0,0,0,0,0,0,0,-1,1686,1674,12.8401,-37.5743
469,-650,11.3628,29.8889,0,0,0,0,0,0,0,-1,1693,1674,11.3628,-29.8889
476,-650,10.9189,27.1289,0,0,0,0,0,0,0,-1,1700,1674,10.919,-27.1289
483,-650,10.2426,24.5127,0,0,0,0,0,0,0,-1,1707,1674,10.2425,-24.5127
490,-650,10.4818,24.3475,0,0,0,0,0,0,0,-1,1714,1674,10.4818,-24.3475
497,-650,10.4985,20.1362,0,0,0,0,0,0,0,-1,1721,1674,10.4986,-20.1362
504,-650,9.69458,18.7721,0,0,0,0,0,0,0,-1,1728,1674,9.6946,-18.772
511,-650,9.37158,17.7506,0,0,0,0,0,0,0,-1,1735,1674,9.37159,-17.7506
518,-650,0,0,0,0,0,0,0,0,0,-1,1742,1674,0,0
525,-650,0,0,0,0,0,0,0,0,0,-1,1749,1674,0,0
532,-650,0,0,0,0,0,0,0,0,0,-1,1756,1674,0,0
539,-650,0,0,0,0,0,0,0,0,0,-1,1763,1674,0,0
546,-650,0,0,0,0,0,0,0,0,0,-1,1770,1674,0,0
553,-650,0,0,0,0,0,0,0,0,0,-1,1777,1674,0,0
560,-650,0,0,0,0,0,0,0,0,0,-1,1784,1674,0,0
567,-650,0,0,0,0,0,0,0,0,0,-1,1791,1674,0,0
574,-650,0,0,0,0,0,0,0,0,0,-1,1798,1674,0,0
581,-650,0,0,0,0,0,0,0,0,0,-1,1805,1674,0,0
588,-650,0,0,0,0,0,0,0,0,0,-1,1812,1674,0,0
595,-650,0,0,0,0,0,0,0,0,0,-1,1819,1674,0,0
602,-650,0,0,0,0,0,0,0,0,0,-1,1826,1674,0,0
609,-650,0,0,0,0,0,0,0,0,0,-1,1833,1674,0,0
616,-650,0,0,0,0,0,0,0,0,0,-1,1840,1674,0,0
623,-650,0,0,0,0,0,0,0,0,0,-1,1847,1674,0,0
630,-650,0,0,0,0,0,0,0,0,0,-1,1854,1674,0,0
637,-650,0,0,0,0,0,0,0,0,0,-1,1861,1674,0,0
644,-650,0,0,0,0,0,0,0,0,0,-1,1868,1674,0,0
651,-650,0,0,0,0,0,0,0,0,0,-1,1875,1674,0,0
658,-650,0,0,0,0,0,0,0,0,0,-1,1882,1674,0,0
665,-650,0,0,0,0,0,0,0,0,0,-1,1889,1674,0,0
672,-650,0,0,0,0,0,0,0,0,0,-1,1896,1674,0,0
679,-650,0,0,0,0,0,0,0,0,0,-1,1903,1674,0,0
686,-650,0,0,0,0,0,0,0,0,0,-1,1910,1674,0,0
693,-650,0,0,0,0,0,0,0,0,0,-1,1917,1674,0,0
700,-650,0,0,0,0,0,0,0,0,0,-1,1924,1674,0,0
707,-650,0,0,0,0,0,0,0,0,0,-1,1931,1674,0,0
714,-650,0,0,0,0,0,0,0,0,0,-1,1938,1674,0,0
721,-650,0,0,0,0,0,0,0,0,0,-1,1945,1674,0,0
728,-650,0,0,0,0,0,0,0,0,0,-1,1952,1674,0,0
735,-650,0,0,0,0,0,0,0,0,0,-1,1959,1674,0,0
742,-650,0,0,0,0,0,0,0,0,0,-1,1966,1674,0,0
749,-650,0,0,0,0,0,0,0,0,0,-1,1973,1674,0,0
756,-650,0,0,0,0,0,0,0,0,0,-1,1980,1674,0,0
763,-650,0,0,0,0,0,0,0,0,0,-1,1987,1674,0,0
770,-650,0,0,0,0,0,0,0,0,0,-1,1994,1674,0,0
777,-650,0,0,0,0,0,0,0,0,0,-1,2001,1674,0,0
784,-650,0,0,0,0,0,0,0,0,0,-1,2008,1674,0,0
791,-650,0,0,0,0,0,0,0,0,0,-1,2015,1674,0,0
798,-650,0,0,0,0,0,0,0,0,0,-1,2022,1674,0,0
805,-650,0,0,0,0,0,0,0,0,0,-1,2029,1674,0,0
812,-650,0,0,0,0,0,0,0,0,0,-1,2036,1674,0,0
-700,-657,0,0,0,0,0,0,0,0,0,-1,524,1681,0,0
-693,-657,0,0,0,0,0,0,0,0,0,-1,531,1681,0,0
-686,-657,0,0,0,0,0,0,0,0,0,-1,538,1681,0,0
-679,-657,0,0,0,0,0,0,0,0,0,-1,545,1681,0,0
-672,-657,0,0,0,0,0,0,0,0,0,-1,552,1681,0,0
-665,-657,0,0,0,0,0,0,0,0,0,-1,559,1681,0,0
-658,-657,0,0,0,0,0,0,0,0,0,-1,566,1681,0,0
-651,-657,0,0,0,0,0,0,0,0,0,-1,573,1681,0,0
-644,-657,0,0,0,0,0,0,0,0,0,-1,580,1681,0,0
-637,-657,0,0,0,0,0,0,0,0,0,-1,587,1681,0,0
-630,-657,0,0,0,0,0,0,0,0,0,-1,594,1681,0,0
-623,-657,0,0,0,0,0,0,0,0,0,-1,601,1681,0,0
-616,-657,0,0,0,0,0,0,0,0,0,-1,608,1681,0,0
-609,-657,0,0,0,0,0,0,0,0,0,-1,615,1681,0,0
-602,-657,0,0,0,0,0,0,0,0,0,-1,622,1681,0,0
-595,-657,0,0,0,0,0,0,0,0,0,-1,629,1681,0,0
-588,-657,0,0,0,0,0,0,0,0,0,-1,636,1681,0,0
-581,-657,0,0,0,0,0,0,0,0,0,-1,643,1681,0,0
-574,-657,0,0,0,0,0,0,0,0,0,-1,650,1681,0,0
-567,-657,0,0,0,0,0,0,0,0,0,-1,657,1681,0,0
-560,-657,0,0,0,0,0,0,0,0,0,-1,664,1681,0,0
-553,-657,0,0,0,0,0,0,0,0,0,-1,671,1681,0,0
-546,-657,0,0,0,0,0,0,0,0,0,-1,678,1681,0,0
-539,-657,0,0,0,0,0,0,0,0,0,-1,685,1681,0,0
-532,-657,0,0,0,0,0,0,0,0,0,-1,692,1681,0,0
-525,-657,0,0,0,0,0,0,0,0,0,-1,699,1681,0,0
-518,-657,0,0,0,0,0,0,0,0,0,-1,706,1681,0,0
-511,-657,0,0,0,0,0,0,0,0,0,-1,713,1681,0,0
-504,-657,0,0,0,0,0,0,0,0,0,-1,720,1681,0,0
-497,-657,0,0,0,0,0,0,0,0,0,-1,727,1681,0,0
-490,-657,0,0,0,0,0,0,0,0,0,-1,734,1681,0,0
-483,-657,0,0,0,0,0,0,0,0,0,-1,741,1681,0,0
-476,-657,0,0,0,0,0,0,0,0,0,-1,748,1681,0,0
-469,-657,0,0,0,0,0,0,0,0,0,-1,755,1681,0,0
-462,-657,0,0,0,0,0,0,0,0,0,-1,762,1681,0,0
-455,-657,0,0,0,0,0,0,0,0,0,-1,769,1681,0,0
-448,-657,0,0,0,0,0,0,0,0,0,-1,776,1681,0,0
-441,-657,0,0,0,0,0,0,0,0,0,-1,783,1681,0,0
-434,-657,0,0,0,0,0,0,0,0,0,-1,790,1681,0,0
-427,-657,0,0,0,0,0,0,0,0,0,-1,797,1681,0,0
-420,-657,0,0,0,0,0,0,0,0,0,-1,804,1681,0,0
-413,-657,0,0,0,0,0,0,0,0,0,-1,811,1681,0,0
-406,-657,0,0,0,0,0,0,0,0,0,-1,818,1681,0,0
-399,-657,0,0,0,0,0,0,0,0,0,-1,825,1681,0,0
-392,-657,0,0,0,0,0,0,0,0,0,-1,832,1681,0,0
-385,-657,1.09814,6.18896,0,0,0,0,0,0,0,-1,839,1681,1.09814,-6.18894
-378,-657,0.31488,4.46753,0,0,0,0,0,0,0,-1,846,1681,0.31487,-4.46755
-371,-657,-0.519043,2.69421,0,0,0,0,0,0,0,-1,853,1681,-0.519064,-2.69422
-364,-657,-3.42017,4.18323,0,0,0,0,0,0,0,-1,860,1681,-3.42019,-4.18319
-357,-657,5.03418,34.7598,0,0,0,0,0,0,0,-1,867,1681,5.03417,-34.7597
-350,-657,4.23431,35.8203,0,0,0,0,0,0,0,-1,874,1681,4.23429,-35.8203
-343,-657,3.60156,36.754,0,0,0,0,0,0,0,-1,881,1681,3.60154,-36.754
-336,-657,3.91907,37.433,0,0,0,0,0,0,0,-1,888,1681,3.91905,-37.433
-329,-657,5.72626,37.2405,0,0,0,0,0,0,0,-1,895,1681,5.72626,-37.2405
-322,-657,5.72296,39.0482,0,0,0,0,0,0,0,-1,902,1681,5.72295,-39.0482
-315,-657,5.67548,39.085,0,0,0,0,0,0,0,-1,909,1681,5.67549,-39.0849
-308,-657,5.74719,39.3555,0,0,0,0,0,0,0,-1,916,1681,5.74718,-39.3555
-301,-657,5.61627,40.6074,-0.00674325,-0.00436353,-0.0049623,-0.000450431,-0.0106563,-0.903067,0.00695895,0.0303417,923,1681,5.61629,-40.6074
-294,-657,5.51495,41.2816,-0.00621969,-0.00273049,-0.00453448,0.000383429,-0.00933361,-0.96904,0.00635407,0.0159177,930,1681,5.51498,-41.2817
-287,-657,5.45032,41.9052,-0.00574082,-0.00127638,-0.00415336,0.00120661,-0.00822381,-1.03198,0.00592583,0.0117773,937,1681,5.45031,-41.9051
-280,-657,5.40906,42.4841,-0.00532942,0.000228996,-0.0033857,0.00183008,-0.00693051,-1.12907,0.00533602,0.0149569,944,1681,5.40909,-42.4841
-273,-657,5.39551,43.0885,-0.00460535,0.000803648,-0.0024754,0.00176547,-0.00556717,-1.2002,0.0044191,0.0116614,951,1681,5.39553,-43.0885
-266,-657,5.35785,43.6782,-0.00353786,0.00130141,-0.00161928,0.00179326,-0.00402971,-1.27591,0.00344355,0.0153488,958,1681,5.35782,-43.6783
-259,-657,5.35486,44.262,-0.00249353,0.00156338,-0.000910722,0.00175844,-0.00268859,-1.3598,0.00258615,0.018436,965,1681,5.35488,-44.262
-252,-657,5.2926,44.8488,-0.00150632,0.00186816,-0.000289479,0.00189281,-0.00153097,-1.48584,0.0019804,0.0138911,972,1681,5.29258,-44.8488
-245,-657,5.2583,45.4379,-0.000529954,0.00209552,0.000216022,0.00211318,-0.000547609,1.48925,0.00162242,0.0162608,979,1681,5.25829,-45.4379
-238,-657,5.27203,46.0251,0.000390285,0.00213248,0.00062826,0.0023354,0.000187361,1.25838,0.00149839,0.0205788,986,1681,5.27202,-46.0252
-231,-657,5.24048,46.5782,0.00119254,0.00217066,0.00102902,0.00282092,0.000542279,1.00723,0.00172845,0.0207096,993,1681,5.2405,-46.5783
-224,-657,5.20734,47.1354,0.00202622,0.00222164,0.00146658,0.00359377,0.000654095,0.818662,0.00221031,0.0166115,1000,1681,5.20734,-47.1354
-217,-657,5.20941,47.691,0.00266187,0.00197858,0.00153584,0.0038936,0.000746846,0.675956,0.00238607,0.0105023,1007,1681,5.20938,-47.691
-210,-657,5.21527,48.207,0.00345175,0.00182095,0.00141364,0.0042683,0.0010044,0.523802,0.00257683,0.0110046,1014,1681,5.2153,-48.207
-203,-657,5.22559,48.7181,0.0044204,0.0017313,0.00144971,0.00505308,0.00109861,0.411506,0.00306878,0.0139311,1021,1681,5.22553,-48.7182
-196,-657,5.20239,49.2162,0.00532475,0.00188788,0.0016604,0.00599586,0.00121677,0.384112,0.00365971,0.0147587,1028,1681,5.20233,-49.2162
-189,-657,5.19812,49.7322,0.00612511,0.00233874,0.00173582,0.00680044,0.00166342,0.371032,0.00409341,0.0103544,1035,1681,5.19815,-49.7321
-182,-657,5.21179,50.2584,0.00684363,0.0029004,0.00160077,0.00741165,0.00233238,0.340981,0.00437598,0.00879111,1042,1681,5.21183,-50.2584
-175,-657,5.22766,50.7396,0.00781799,0.00373274,0.00170703,0.00843737,0.00311336,0.348068,0.00492674,0.0120586,1049,1681,5.22766,-50.7396
-168,-657,5.19604,51.2177,0.00879888,0.00502959,0.00189914,0.0095898,0.00423868,0.394614,0.00554908,0.0153979,1056,1681,5.1961,-51.2176
-161,-657,5.21313,51.7181,0.00973986,0.00641403,0.00189499,0.0105981,0.00555578,0.425268,0.00612122,0.0155017,1063,1681,5.21308,-51.7182
-154,-657,5.28931,52.153,0.0105407,0.0080153,0.00188235,0.0115447,0.00701137,0.489962,0.00671631,0.0162853,1070,1681,5.28931,-52.1529
-147,-657,5.31384,52.6135,0.0110805,0.00996426,0.00190232,0.0125049,0.00853986,0.642711,0.00737898,0.0260342,1077,1681,5.31384,-52.6136
-140,-657,5.24561,53.328,0.0113259,0.0120531,0.0018256,0.013551,0.00982806,0.883688,0.00808399,0.0359006,1084,1681,5.24562,-53.328
-133,-657,4.96704,53.6493,0.0113237,0.0144172,0.00168497,0.0151577,0.0105832,1.15673,0.00897758,0.0416035,1091,1681,4.96698,-53.6492
-126,-657,5.21973,54.2838,0,0,0,0,0,0,0,-1,1098,1681,5.21971,-54.2838
-119,-657,5.64758,54.4952,0,0,0,0,0,0,0,-1,1105,1681,5.64753,-54.4952
-112,-657,6.24219,42.9092,0,0,0,0,0,0,0,-1,1112,1681,6.24217,-42.9092
-105,-657,7.37256,41.0361,0,0,0,0,0,0,0,-1,1119,1681,7.37254,-41.0362
-98,-657,8.14404,38.4435,0,0,0,0,0,0,0,-1,1126,1681,8.14405,-38.4435
-91,-657,3.6521,16.6017,0,0,0,0,0,0,0,-1,1133,1681,3.65215,-16.6017
-84,-657,4.08008,10.4579,0,0,0,0,0,0,0,-1,1140,1681,4.08006,-10.4579
-77,-657,-5.29846,0.396606,0,0,0,0,0,0,0,-1,1147,1681,-5.29842,-0.396573
-70,-657,-4.14893,2.14575,0,0,0,0,0,0,0,-1,1154,1681,-4.14893,-2.1458
-63,-657,-4.1239,3.177,0,0,0,0,0,0,0,-1,1161,1681,-4.12391,-3.17698
-56,-657,-6.40576,5.73987,0,0,0,0,0,0,0,-1,1168,1681,-6.40577,-5.7399
-49,-657,-5.98462,7.54053,0,0,0,0,0,0,0,-1,1175,1681,-5.98466,-7.5405
-42,-657,-5.71948,9.28955,0,0,0,0,0,0,0,-1,1182,1681,-5.71951,-9.2895
-35,-657,-5.44556,11.015,0,0,0,0,0,0,0,-1,1189,1681,-5.44555,-11.015
-28,-657,-1.3446,8.92847,0,0,0,0,0,0,0,-1,1196,1681,-1.34459,-8.92848
-21,-657,7.01123,59.7748,0,0,0,0,0,0,0,-1,1203,1681,7.01125,-59.7748
-14,-657,7.53259,59.6926,0,0,0,0,0,0,0,-1,1210,1681,7.53263,-59.6926
-7,-657,7.97241,59.5931,0.0736789,0.0500572,0.0528994,0.11607,0.00766619,0.675564,0.0749553,0.0468899,1217,1681,7.97247,-59.5931
0,-657,8.67896,59.3882,0.0815634,0.0550381,0.0570951,0.126916,0.00968544,0.671277,0.0815741,0.0459314,1224,1681,8.679,-59.3882
7,-657,9.1925,59.2512,0.0902834,0.0564937,0.058015,0.133814,0.0129636,0.643709,0.0852171,0.0452394,1231,1681,9.19255,-59.2512
14,-657,9.57813,59.2238,0.0969732,0.0520139,0.0538479,0.132845,0.0161418,0.587662,0.0837034,0.0439784,1238,1681,9.57811,-59.2238
21,-657,10.8632,59.4294,0.098412,0.0417634,0.044888,0.123165,0.0170104,0.503947,0.0770682,0.0437054,1245,1681,10.8632,-59.4295
28,-657,11.5928,59.2058,0.0938168,0.028559,0.0331056,0.10767,0.0147054,0.396324,0.0674152,0.0434142,1252,1681,11.5928,-59.2058
35,-657,12.1525,59.0131,0.0849346,0.0149226,0.0208802,0.0906889,0.00916823,0.268912,0.0576467,0.043562,1259,1681,12.1524,-59.0131
42,-657,9.72241,69.4155,0.0752201,0.00128299,0.00784204,0.0760427,0.000460386,0.104514,0.0505424,0.0461845,1266,1681,9.72245,-69.4156
49,-657,9.67261,67.4314,0.0641114,-0.00960994,-0.00350008,0.0642771,-0.00977574,-0.0473352,0.0464542,0.0450258,1273,1681,9.67265,-67.4314
56,-657,11.792,65.8053,0.0542386,-0.0195024,-0.0137869,0.0567319,-0.0219958,-0.178915,0.0469051,0.0457059,1280,1681,11.792,-65.8052
63,-657,11.8193,64.8542,0,0,0,0,0,0,0,-1,1287,1681,11.8193,-64.8542
70,-657,12.1737,62.7858,0,0,0,0,0,0,0,-1,1294,1681,12.1737,-62.7858
77,-657,11.7052,61.8754,0.017765,-0.0455084,-0.0405558,0.0375642,-0.0653076,-0.45416,0.0601087,0.0466166,1301,1681,11.7053,-61.8754
84,-657,11.1313,60.942,0.00602275,-0.0513405,-0.0461229,0.0316546,-0.0769723,-0.507232,0.0645094,0.0481641,1308,1681,11.1313,-60.942
91,-657,10.91,60.2,0.000205787,-0.0487951,-0.0490392,0.0305243,-0.0791136,-0.553731,0.0653387,0.0483567,1315,1681,10.91,-60.1999
98,-657,10.8365,59.533,-0.000916836,-0.0430483,-0.0502455,0.0325003,-0.0764654,-0.5869,0.0645958,0.047477,1322,1681,10.8366,-59.533
105,-657,10.7842,58.7954,0.00168838,-0.0375161,-0.0494815,0.0353089,-0.0711366,-0.596805,0.062606,0.0493644,1329,1681,10.7842,-58.7954
112,-657,10.4944,58.0807,0.00795946,-0.0310593,-0.0494797,0.0416371,-0.0647369,-0.597611,0.0618959,0.0483252,1336,1681,10.4943,-58.0806
119,-657,10.4064,56.8408,0.0180178,-0.0236577,-0.0509136,0.0521928,-0.0578328,-0.591159,0.0635512,0.0485301,1343,1681,10.4064,-56.8408
126,-657,10.2411,55.6626,0,0,0,0,0,0,0,-1,1350,1681,10.2411,-55.6626
133,-657,10.1287,54.5275,0,0,0,0,0,0,0,-1,1357,1681,10.1286,-54.5274
140,-657,10.3799,58.425,0,0,0,0,0,0,0,-1,1364,1681,10.3798,-58.425
147,-657,9.34412,50.1898,0,0,0,0,0,0,0,-1,1371,1681,9.34415,-50.1899
154,-657,13.7589,55.1967,0,0,0,0,0,0,0,-1,1378,1681,13.759,-55.1967
161,-657,4.2926,24.9226,0,0,0,0,0,0,0,-1,1385,1681,4.29264,-24.9226
168,-657,5.21643,0.70105,0,0,0,0,0,0,0,-1,1392,1681,5.21648,-0.7011
175,-657,5.52771,0.649048,0,0,0,0,0,0,0,-1,1399,1681,5.52774,-0.649019
182,-657,5.73999,1.02612,0,0,0,0,0,0,0,-1,1406,1681,5.73995,-1.02611
189,-657,5.92126,1.44116,0,0,0,0,0,0,0,-1,1413,1681,5.92126,-1.44115
196,-657,4.92834,9.59021,0,0,0,0,0,0,0,-1,1420,1681,4.9284,-9.59018
203,-657,6.26343,5.16492,0,0,0,0,0,0,0,-1,1427,1681,6.26345,-5.16488
210,-657,3.9856,5.28088,0,0,0,0,0,0,0,-1,1434,1681,3.98555,-5.28084
217,-657,3.95178,5.2843,0,0,0,0,0,0,0,-1,1441,1681,3.95174,-5.28431
224,-657,6.66736,-0.250244,0,0,0,0,0,0,0,-1,1448,1681,6.66737,0.250229
231,-657,6.85498,-1.70752,0,0,0,0,0,0,0,-1,1455,1681,6.855,1.70758
238,-657,5.34143,-2.89819,0,0,0,0,0,0,0,-1,1462,1681,5.34143,2.89813
245,-657,8.66003,-0.102783,0,0,0,0,0,0,0,-1,1469,1681,8.66,0.102824
252,-657,4.78955,0.623779,0,0,0,0,0,0,0,-1,1476,1681,4.7895,-0.623826
259,-657,2.61523,4.31909,0,0,0,0,0,0,0,-1,1483,1681,2.61523,-4.31908
266,-657,5.35437,11.4742,0,0,0,0,0,0,0,-1,1490,1681,5.35441,-11.4742
273,-657,11.9164,46.0638,0,0,0,0,0,0,0,-1,1497,1681,11.9164,-46.0638
280,-657,12.6523,52.2235,0,0,0,0,0,0,0,-1,1504,1681,12.6523,-52.2235
287,-657,12.6669,51.6799,0.0127217,0.00992486,-0.0048164,0.0163386,0.00630796,-0.644112,0.00951434,0.0406861,1511,1681,12.6669,-51.68
294,-657,12.7925,51.2502,0.0116743,0.00934029,-0.00458741,0.0152408,0.00577377,-0.660843,0.008885,0.0324919,1518,1681,12.7925,-51.2502
301,-657,12.9005,50.8441,0.0103068,0.00862056,-0.00408181,0.0136317,0.00529571,-0.683551,0.00793523,0.0251114,1525,1681,12.9005,-50.8442
308,-657,12.9335,50.3439,0.0088621,0.00817585,-0.00361532,0.0121505,0.00488741,-0.738085,0.00705967,0.0168304,1532,1681,12.9335,-50.3439
315,-657,12.9585,49.8174,0.00744329,0.00764148,-0.00317932,0.0107232,0.00436153,-0.800978,0.00622687,0.0122143,1539,1681,12.9584,-49.8173
322,-657,12.9656,49.3071,0.00615048,0.00736718,-0.00284614,0.00966926,0.0038484,-0.890687,0.00562113,0.0141865,1546,1681,12.9656,-49.3072
329,-657,12.9723,48.8125,0.004968,0.00687777,-0.00252374,0.00862123,0.00322454,-0.966255,0.00502985,0.0204765,1553,1681,12.9723,-48.8125
336,-657,12.9724,48.2841,0.00392901,0.00644384,-0.00216912,0.00769365,0.0026792,-1.04807,0.00450962,0.0179042,1560,1681,12.9725,-48.284
343,-657,12.9596,47.7808,0.00294834,0.00610923,-0.00190672,0.00700535,0.00205222,-1.13145,0.00415853,0.0136633,1567,1681,12.9595,-47.7807
350,-657,12.9374,47.2992,0.00213285,0.00566092,-0.00174518,0.00637831,0.00141546,-1.18078,0.00386771,0.0149128,1574,1681,12.9373,-47.2991
357,-657,12.9369,46.7579,0.00147724,0.00499237,-0.00158651,0.00560252,0.000867097,-1.20365,0.00348216,0.0142056,1581,1681,12.9368,-46.7579
364,-657,12.9491,46.2012,0.0011893,0.00460874,-0.00175286,0.00534763,0.000450419,-1.17187,0.00342483,0.0107882,1588,1681,12.9491,-46.2012
371,-657,12.9342,45.6815,0.00104834,0.00424451,-0.00199441,0.00520211,9.07353e-05,-1.12316,0.00343823,0.015547,1595,1681,12.9342,-45.6815
378,-657,12.8792,45.1279,0.000984575,0.00384584,-0.00229122,0.00511639,-0.000285975,-1.06448,0.00351014,0.0152335,1602,1681,12.8791,-45.128
385,-657,12.8298,44.5653,0.00123994,0.00352917,-0.00266594,0.00528583,-0.000516716,-0.988172,0.00370814,0.0128599,1609,1681,12.8298,-44.5653
392,-657,12.8022,44.0256,0.00142956,0.00321256,-0.00312592,0.00557161,-0.000929502,-0.924309,0.00405987,0.0130029,1616,1681,12.8023,-44.0256
399,-657,12.8102,43.4497,0.00163251,0.00291595,-0.00365533,0.00598546,-0.001437,-0.872291,0.00454566,0.0124545,1623,1681,12.8102,-43.4496
406,-657,12.8021,42.8799,0.00187544,0.0027736,-0.00415248,0.00650121,-0.00185218,-0.839262,0.00506569,0.014404,1630,1681,12.8021,-42.8798
413,-657,12.7744,42.2957,0.00219203,0.00300788,-0.00464576,0.00726358,-0.00206368,-0.829189,0.00565717,0.0152224,1637,1681,12.7744,-42.2956
420,-657,12.7499,41.6715,0.00262543,0.00324233,-0.00522295,0.00816593,-0.00229817,-0.814892,0.00635018,0.0173259,1644,1681,12.7499,-41.6716
427,-657,12.6769,41.0537,0.00310481,0.00401254,-0.00583695,0.00941325,-0.00229589,-0.824199,0.00716449,0.0214878,1651,1681,12.6769,-41.0538
434,-657,12.6898,40.4055,0.00356812,0.00477326,-0.00632085,0.0105202,-0.00217881,-0.83292,0.00784129,0.0302319,1658,1681,12.6898,-40.4055
441,-657,12.6254,39.8715,0,0,0,0,0,0,0,-1,1665,1681,12.6254,-39.8715
448,-657,12.4852,39.3821,0,0,0,0,0,0,0,-1,1672,1681,12.4852,-39.3821
455,-657,12.0571,37.8945,0,0,0,0,0,0,0,-1,1679,1681,12.0572,-37.8945
462,-657,10.2832,30.1719,0,0,0,0,0,0,0,-1,1686,1681,10.2831,-30.1718
469,-657,9.22205,26.4175,0,0,0,0,0,0,0,-1,1693,1681,9.2221,-26.4175
476,-657,8.9519,20.5712,0,0,0,0,0,0,0,-1,1700,1681,8.95194,-20.5712
483,-657,10.0663,21.8628,0,0,0,0,0,0,0,-1,1707,1681,10.0663,-21.8628
490,-657,11.6039,21.2185,0,0,0,0,0,0,0,-1,1714,1681,11.6038,-21.2185
497,-657,9.20862,17.8127,0,0,0,0,0,0,0,-1,1721,1681,9.2086,-17.8127
504,-657,0,0,0,0,0,0,0,0,0,-1,1728,1681,0,0
511,-657,0,0,0,0,0,0,0,0,0,-1,1735,1681,0,0
518,-657,0,0,0,0,0,0,0,0,0,-1,1742,1681,0,0
525,-657,0,0,0,0,0,0,0,0,0,-1,1749,1681,0,0
532,-657,0,0,0,0,0,0,0,0,0,-1,1756,1681,0,0
539,-657,0,0,0,0,0,0,0,0,0,-1,1763,1681,0,0
546,-657,0,0,0,0,0,0,0,0,0,-1,1770,1681,0,0
553,-657,0,0,0,0,0,0,0,0,0,-1,1777,1681,0,0
560,-657,0,0,0,0,0,0,0,0,0,-1,1784,1681,0,0
567,-657,0,0,0,0,0,0,0,0,0,-1,1791,1681,0,0
574,-657,0,0,0,0,0,0,0,0,0,-1,1798,1681,0,0
581,-657,0,0,0,0,0,0,0,0,0,-1,1805,1681,0,0
588,-657,0,0,0,0,0,0,0,0,0,-1,1812,1681,0,0
595,-657,0,0,0,0,0,0,0,0,0,-1,1819,1681,0,0
602,-657,0,0,0,0,0,0,0,0,0,-1,1826,1681,0,0
609,-657,0,0,0,0,0,0,0,0,0,-1,1833,1681,0,0
616,-657,0,0,0,0,0,0,0,0,0,-1,1840,1681,0,0
623,-657,0,0,0,0,0,0,0,0,0,-1,1847,1681,0,0
630,-657,0,0,0,0,0,0,0,0,0,-1,1854,1681,0,0
637,-657,0,0,0,0,0,0,0,0,0,-1,1861,1681,0,0
644,-657,0,0,0,0,0,0,0,0,0,-1,1868,1681,0,0
651,-657,0,0,0,0,0,0,0,0,0,-1,1875,1681,0,0
658,-657,0,0,0,0,0,0,0,0,0,-1,1882,1681,0,0
665,-657,0,0,0,0,0,0,0,0,0,-1,1889,1681,0,0
672,-657,0,0,0,0,0,0,0,0,0,-1,1896,1681,0,0
679,-657,0,0,0,0,0,0,0,0,0,-1,1903,1681,0,0
686,-657,0,0,0,0,0,0,0,0,0,-1,1910,1681,0,0
693,-657,0,0,0,0,0,0,0,0,0,-1,1917,1681,0,0
700,-657,0,0,0,0,0,0,0,0,0,-1,1924,1681,0,0
707,-657,0,0,0,0,0,0,0,0,0,-1,1931,1681,0,0
714,-657,0,0,0,0,0,0,0,0,0,-1,1938,1681,0,0
721,-657,0,0,0,0,0,0,0,0,0,-1,1945,1681,0,0
728,-657,0,0,0,0,0,0,0,0,0,-1,1952,1681,0,0
735,-657,0,0,0,0,0,0,0,0,0,-1,1959,1681,0,0
742,-657,0,0,0,0,0,0,0,0,0,-1,1966,1681,0,0
749,-657,0,0,0,0,0,0,0,0,0,-1,1973,1681,0,0
756,-657,0,0,0,0,0,0,0,0,0,-1,1980,1681,0,0
763,-657,0,0,0,0,0,0,0,0,0,-1,1987,1681,0,0
770,-657,0,0,0,0,0,0,0,0,0,-1,1994,1681,0,0
777,-657,0,0,0,0,0,0,0,0,0,-1,2001,1681,0,0
784,-657,0,0,0,0,0,0,0,0,0,-1,2008,1681,0,0
791,-657,0,0,0,0,0,0,0,0,0,-1,2015,1681,0,0
798,-657,0,0,0,0,0,0,0,0,0,-1,2022,1681,0,0
805,-657,0,0,0,0,0,0,0,0,0,-1,2029,1681,0,0
812,-657,0,0,0,0,0,0,0,0,0,-1,2036,1681,0,0
-700,-664,0,0,0,0,0,0,0,0,0,-1,524,1688,0,0
-693,-664,0,0,0,0,0,0,0,0,0,-1,531,1688,0,0
-686,-664,0,0,0,0,0,0,0,0,0,-1,538,1688,0,0
-679,-664,0,0,0,0,0,0,0,0,0,-1,545,1688,0,0
-672,-664,0,0,0,0,0,0,0,0,0,-1,552,1688,0,0
-665,-664,0,0,0,0,0,0,0,0,0,-1,559,1688,0,0
-658,-664,0,0,0,0,0,0,0,0,0,-1,566,1688,0,0
-651,-664,0,0,0,0,0,0,0,0,0,-1,573,1688,0,0
-644,-664,0,0,0,0,0,0,0,0,0,-1,580,1688,0,0
-637,-664,0,0,0,0,0,0,0,0,0,-1,587,1688,0,0
-630,-664,0,0,0,0,0,0,0,0,0,-1,594,1688,0,0
-623,-664,0,0,0,0,0,0,0,0,0,-1,601,1688,0,0
-616,-664,0,0,0,0,0,0,0,0,0,-1,608,1688,0,0
-609,-664,0,0,0,0,0,0,0,0,0,-1,615,1688,0,0
-602,-664,0,0,0,0,0,0,0,0,0,-1,622,1688,0,0
-595,-664,0,0,0,0,0,0,0,0,0,-1,629,1688,0,0
-588,-664,0,0,0,0,0,0,0,0,0,-1,636,1688,0,0
-581,-664,0,0,0,0,0,0,0,0,0,-1,643,1688,0,0
-574,-664,0,0,0,0,0,0,0,0,0,-1,650,1688,0,0
-567,-664,0,0,0,0,0,0,0,0,0,-1,657,1688,0,0
-560,-664,0,0,0,0,0,0,0,0,0,-1,664,1688,0,0
-553,-664,0,0,0,0,0,0,0,0,0,-1,671,1688,0,0
-546,-664,0,0,0,0,0,0,0,0,0,-1,678,1688,0,0
-539,-664,0,0,0,0,0,0,0,0,0,-1,685,1688,0,0
-532,-664,0,0,0,0,0,0,0,0,0,-1,692,1688,0,0
-525,-664,0,0,0,0,0,0,0,0,0,-1,699,1688,0,0
-518,-664,0,0,0,0,0,0,0,0,0,-1,706,1688,0,0
-511,-664,0,0,0,0,0,0,0,0,0,-1,713,1688,0,0
-504,-664,0,0,0,0,0,0,0,0,0,-1,720,1688,0,0
-497,-664,0,0,0,0,0,0,0,0,0,-1,727,1688,0,0
-490,-664,0,0,0,0,0,0,0,0,0,-1,734,1688,0,0
-483,-664,0,0,0,0,0,0,0,0,0,-1,741,1688,0,0
-476,-664,0,0,0,0,0,0,0,0,0,-1,748,1688,0,0
-469,-664,0,0,0,0,0,0,0,0,0,-1,755,1688,0,0
-462,-664,0,0,0,0,0,0,0,0,0,-1,762,1688,0,0
-455,-664,0,0,0,0,0,0,0,0,0,-1,769,1688,0,0
-448,-664,0,0,0,0,0,0,0,0,0,-1,776,1688,0,0
-441,-664,0,0,0,0,0,0,0,0,0,-1,783,1688,0,0
-434,-664,0,0,0,0,0,0,0,0,0,-1,790,1688,0,0
-427,-664,0,0,0,0,0,0,0,0,0,-1,797,1688,0,0
-420,-664,0,0,0,0,0,0,0,0,0,-1,804,1688,0,0
-413,-664,0,0,0,0,0,0,0,0,0,-1,811,1688,0,0
-406,-664,0,0,0,0,0,0,0,0,0,-1,818,1688,0,0
-399,-664,0,0,0,0,0,0,0,0,0,-1,825,1688,0,0
-392,-664,0,0,0,0,0,0,0,0,0,-1,832,1688,0,0
-385,-664,0,0,0,0,0,0,0,0,0,-1,839,1688,0,0
-378,-664,0,0,0,0,0,0,0,0,0,-1,846,1688,0,0
-371,-664,-1.61676,5.92737,0,0,0,0,0,0,0,-1,853,1688,-1.61675,-5.92735
-364,-664,-3.901,5.87024,0,0,0,0,0,0,0,-1,860,1688,-3.90097,-5.87027
-357,-664,-4.81012,4.53479,0,0,0,0,0,0,0,-1,867,1688,-4.81012,-4.5348
-350,-664,3.26105,36.0225,0,0,0,0,0,0,0,-1,874,1688,3.26104,-36.0224
-343,-664,5.2652,32.889,0,0,0,0,0,0,0,-1,881,1688,5.26517,-32.889
-336,-664,5.38037,33.5928,0,0,0,0,0,0,0,-1,888,1688,5.38037,-33.5927
-329,-664,5.87378,36.1255,0,0,0,0,0,0,0,-1,895,1688,5.87375,-36.1255
-322,-664,6.23047,38.4762,0,0,0,0,0,0,0,-1,902,1688,6.23048,-38.4762
-315,-664,6.5484,38.6835,0,0,0,0,0,0,0,-1,909,1688,6.54839,-38.6835
-308,-664,7.04388,38.9812,0,0,0,0,0,0,0,-1,916,1688,7.04387,-38.9812
-301,-664,6.25604,40.5819,0,0,0,0,0,0,0,-1,923,1688,6.25605,-40.5819
-294,-664,6.0614,41.2942,-0.00906547,-0.0034931,-0.00705946,0.0013101,-0.0138687,-0.973352,0.00971198,0.0401522,930,1688,6.06141,-41.2941
-287,-664,6.04095,41.9449,-0.0083422,-0.00158259,-0.00631786,0.00220269,-0.0121275,-1.03101,0.00891044,0.0282929,937,1688,6.04097,-41.9449
-280,-664,5.98029,42.5272,-0.00775558,0.000496389,-0.00500969,0.00286046,-0.0101196,-1.12988,0.00787503,0.0188398,944,1688,5.98031,-42.5272
-273,-664,5.96588,43.1187,-0.00680492,0.00125985,-0.00361761,0.00264477,-0.00818985,-1.20518,0.00652274,0.0157766,951,1688,5.96588,-43.1187
-266,-664,5.93793,43.7117,-0.00548917,0.00187918,-0.0024134,0.00259928,-0.00620927,-1.28083,0.00522604,0.0226987,958,1688,5.93792,-43.7116
-259,-664,5.90247,44.3063,-0.00426236,0.00221533,-0.00143555,0.00251921,-0.00456625,-1.36219,0.00414731,0.0185791,965,1688,5.90248,-44.3063
-252,-664,5.87976,44.9192,-0.0031485,0.00256639,-0.000577487,0.00262416,-0.00320627,-1.47109,0.00337178,0.0171139,972,1688,5.87973,-44.9192
-245,-664,5.82617,45.5066,-0.00209749,0.00281686,9.65699e-05,0.00281876,-0.00209939,1.55116,0.0028496,0.0220164,979,1688,5.8262,-45.5066
-238,-664,5.85156,46.0396,-0.00115803,0.00287654,0.000599996,0.00296388,-0.00124537,1.42625,0.00249681,0.0247553,986,1688,5.85155,-46.0396
-231,-664,5.8244,46.5603,-0.000372393,0.0028403,0.00102465,0.00313928,-0.000671372,1.28689,0.00234885,0.0203669,993,1688,5.82443,-46.5603
-224,-664,5.78149,47.1431,0.000566644,0.00282547,0.00157819,0.00363674,-0.000244625,1.09597,0.00251001,0.0142379,1000,1688,5.7815,-47.1431
-217,-664,5.75067,47.7155,0.00124172,0.00241876,0.0016077,0.00354228,0.000118204,0.960855,0.00232312,0.010728,1007,1688,5.75067,-47.7155
-210,-664,5.72937,48.2358,0.00193138,0.00211242,0.0014346,0.00345936,0.000584447,0.816904,0.00213821,0.0117522,1014,1688,5.72934,-48.2359
-203,-664,5.71436,48.7522,0.00272216,0.00190682,0.00137307,0.0037468,0.000882178,0.64109,0.0022619,0.0147814,1021,1688,5.71441,-48.7523
-196,-664,5.70361,49.2457,0.0034801,0.00185255,0.00145367,0.00433227,0.00100038,0.530227,0.0026192,0.015429,1028,1688,5.7036,-49.2457
-189,-664,5.68787,49.7632,0.00411591,0.00202422,0.00141915,0.00483296,0.00130718,0.467849,0.00288665,0.0102385,1035,1688,5.68787,-49.7632
-182,-664,5.70349,50.2747,0.00472853,0.00234889,0.00122404,0.00524574,0.00183168,0.399788,0.00307422,0.0102792,1042,1688,5.70345,-50.2746
-175,-664,5.72681,50.7322,0.00558052,0.0028681,0.00120185,0.00603643,0.0024122,0.362564,0.00350847,0.0140293,1049,1688,5.72685,-50.7322
-168,-664,5.72668,51.1881,0.0063933,0.00394228,0.00130325,0.00695674,0.00337885,0.408066,0.00401702,0.0143865,1056,1688,5.72668,-51.1881
-161,-664,5.70239,51.6528,0.00713911,0.00502925,0.00128328,0.00774541,0.00442295,0.441376,0.00448684,0.0113362,1063,1688,5.7024,-51.6529
-154,-664,5.76404,52.1188,0.00781295,0.00626782,0.00124714,0.00850742,0.00557334,0.508091,0.00498993,0.0122708,1070,1688,5.7641,-52.1188
-147,-664,5.77917,52.5724,0.00832346,0.00773497,0.00122357,0.00928767,0.00677077,0.667398,0.00554655,0.0166821,1077,1688,5.77918,-52.5724
-140,-664,5.80823,53.0504,0.00861431,0.00930839,0.00112494,0.0101386,0.0077841,0.935014,0.00612694,0.0189187,1084,1688,5.8082,-53.0504
-133,-664,5.74915,53.4998,0.00874071,0.0111083,0.00100544,0.0114777,0.00837136,1.21875,0.00685511,0.0212849,1091,1688,5.74916,-53.4997
-126,-664,5.83606,54.0347,0.00880393,0.0124537,0.000719662,0.0125905,0.00866715,1.38298,0.00743911,0.039384,1098,1688,5.83609,-54.0347
-119,-664,6.00317,54.6785,0,0,0,0,0,0,0,-1,1105,1688,6.00313,-54.6784
-112,-664,6.3916,51.1235,0,0,0,0,0,0,0,-1,1112,1688,6.39161,-51.1236
-105,-664,6.87256,43.2527,0,0,0,0,0,0,0,-1,1119,1688,6.87258,-43.2527
-98,-664,7.69324,41.3359,0,0,0,0,0,0,0,-1,1126,1688,7.69321,-41.3359
-91,-664,5.41931,25.6302,0,0,0,0,0,0,0,-1,1133,1688,5.41932,-25.6302
-84,-664,3.48389,16.6913,0,0,0,0,0,0,0,-1,1140,1688,3.4839,-16.6913
-77,-664,4.52014,11.2122,0,0,0,0,0,0,0,-1,1147,1688,4.5202,-11.2122
-70,-664,4.20374,8.24524,0,0,0,0,0,0,0,-1,1154,1688,4.20379,-8.24519
-63,-664,-4.677,2.40503,0,0,0,0,0,0,0,-1,1161,1688,-4.67702,-2.40498
-56,-664,-4.66504,3.32727,0,0,0,0,0,0,0,-1,1168,1688,-4.6651,-3.32724
-49,-664,-2.54297,3.31848,0,0,0,0,0,0,0,-1,1175,1688,-2.54297,-3.31852
-42,-664,-0.359253,4.38684,0,0,0,0,0,0,0,-1,1182,1688,-0.359261,-4.38685
-35,-664,-0.705566,3.55017,0,0,0,0,0,0,0,-1,1189,1688,-0.705567,-3.55023
-28,-664,-1.54236,10.2538,0,0,0,0,0,0,0,-1,1196,1688,-1.54236,-10.2538
-21,-664,6.33118,57.7296,0,0,0,0,0,0,0,-1,1203,1688,6.33116,-57.7296
-14,-664,6.98279,60.1672,0,0,0,0,0,0,0,-1,1210,1688,6.98276,-60.1672
-7,-664,7.44409,59.8621,0,0,0,0,0,0,0,-1,1217,1688,7.44403,-59.8621
0,-664,8.29041,58.2666,0,0,0,0,0,0,0,-1,1224,1688,8.29044,-58.2666
7,-664,8.56238,59.0785,0.0786078,0.0432783,0.0491482,0.113169,0.00871671,0.612878,0.0727151,0.0463919,1231,1688,8.56236,-59.0785
14,-664,9.45386,58.7299,0.0839746,0.040306,0.0461441,0.113189,0.0110912,0.564418,0.0720477,0.0419904,1238,1688,9.45386,-58.7299
21,-664,10.3971,58.6068,0.0853621,0.0329925,0.0392167,0.106332,0.0120223,0.491041,0.06724,0.0444883,1245,1688,10.397,-58.6068
28,-664,11.2169,58.6038,0,0,0,0,0,0,0,-1,1252,1688,11.2169,-58.6038
35,-664,11.3339,57.9315,0,0,0,0,0,0,0,-1,1259,1688,11.3339,-57.9316
42,-664,9.19153,70.1184,0,0,0,0,0,0,0,-1,1266,1688,9.19153,-70.1183
49,-664,9.02686,67.8342,0,0,0,0,0,0,0,-1,1273,1688,9.02683,-67.8343
56,-664,12.2389,66.4053,0,0,0,0,0,0,0,-1,1280,1688,12.2389,-66.4053
63,-664,12.0221,65.527,0,0,0,0,0,0,0,-1,1287,1688,12.0221,-65.527
70,-664,12.1963,63.2401,0,0,0,0,0,0,0,-1,1294,1688,12.1963,-63.2402
77,-664,11.6011,62.291,0.0166282,-0.0374014,-0.0336525,0.0327677,-0.0535409,-0.447188,0.0503091,0.0455358,1301,1688,11.601,-62.2911
84,-664,10.9912,61.4541,0.00675034,-0.0427421,-0.0387037,0.0279427,-0.0639345,-0.500963,0.0543851,0.0473107,1308,1688,10.9913,-61.4541
91,-664,11.153,60.5387,0.00111318,-0.0411444,-0.0418096,0.0268295,-0.0668608,-0.551436,0.0557137,0.0426569,1315,1688,11.1529,-60.5387
98,-664,10.3151,59.549,-0.000544301,-0.0368742,-0.0430669,0.0280317,-0.0654503,-0.585826,0.0553943,0.0491592,1322,1688,10.3151,-59.5489
105,-664,10.4803,58.8287,0.00126593,-0.0328569,-0.0423901,0.0298993,-0.0614902,-0.594074,0.0538043,0.0487208,1329,1688,10.4803,-58.8288
112,-664,10.2605,58.3208,0.00612716,-0.0280293,-0.0422867,0.0346541,-0.0565562,-0.59348,0.053164,0.0442347,1336,1688,10.2605,-58.3208
119,-664,9.68225,57.8457,0,0,0,0,0,0,0,-1,1343,1688,9.6822,-57.8458
126,-664,10.0183,55.9265,0,0,0,0,0,0,0,-1,1350,1688,10.0183,-55.9265
133,-664,9.98718,58.6561,0,0,0,0,0,0,0,-1,1357,1688,9.98719,-58.6561
140,-664,10.4817,57.9497,0,0,0,0,0,0,0,-1,1364,1688,10.4817,-57.9497
147,-664,10.9763,57.2432,0,0,0,0,0,0,0,-1,1371,1688,10.9763,-57.2432
154,-664,13.0916,56.0908,0,0,0,0,0,0,0,-1,1378,1688,13.0915,-56.0908
161,-664,4.60132,1.56238,0,0,0,0,0,0,0,-1,1385,1688,4.60134,-1.56233
168,-664,5.172,1.25488,0,0,0,0,0,0,0,-1,1392,1688,5.17203,-1.25484
175,-664,5.58313,1.16467,0,0,0,0,0,0,0,-1,1399,1688,5.58317,-1.16466
182,-664,5.74268,1.41113,0,0,0,0,0,0,0,-1,1406,1688,5.74263,-1.41115
189,-664,5.87744,1.87061,0,0,0,0,0,0,0,-1,1413,1688,5.87745,-1.87065
196,-664,6.7594,5.97473,0,0,0,0,0,0,0,-1,1420,1688,6.75943,-5.97478
203,-664,5.38452,5.22034,0,0,0,0,0,0,0,-1,1427,1688,5.38453,-5.2203
210,-664,5.25549,6.45715,0,0,0,0,0,0,0,-1,1434,1688,5.25549,-6.45721
217,-664,5.72009,6.73975,0,0,0,0,0,0,0,-1,1441,1688,5.72014,-6.73972
224,-664,5.05725,7.42908,0,0,0,0,0,0,0,-1,1448,1688,5.05723,-7.42912
231,-664,5.13318,7.60864,0,0,0,0,0,0,0,-1,1455,1688,5.13313,-7.60862
238,-664,4.23193,6.45471,0,0,0,0,0,0,0,-1,1462,1688,4.23197,-6.45476
245,-664,4.42004,6.80896,0,0,0,0,0,0,0,-1,1469,1688,4.4201,-6.80901
252,-664,3.67346,6.85461,0,0,0,0,0,0,0,-1,1476,1688,3.6734,-6.85462
259,-664,4.55823,11.7435,0,0,0,0,0,0,0,-1,1483,1688,4.55826,-11.7435
266,-664,12.0146,52.6356,0,0,0,0,0,0,0,-1,1490,1688,12.0146,-52.6356
273,-664,12.317,52.4689,0,0,0,0,0,0,0,-1,1497,1688,12.317,-52.4688
280,-664,12.274,52.188,0.0104552,0.00663774,-0.00346462,0.0125021,0.00459087,-0.533621,0.00730246,0.0333349,1504,1688,12.2741,-52.188
287,-664,12.202,51.731,0.00973841,0.00661863,-0.00340368,0.0119226,0.00443442,-0.570533,0.00695839,0.0302687,1511,1688,12.202,-51.7309
294,-664,12.349,51.2584,0.00889464,0.00637023,-0.00328815,0.0111545,0.00411034,-0.602138,0.0065139,0.0220467,1518,1688,12.349,-51.2584
301,-664,12.4415,50.7643,0.00779984,0.00602229,-0.00297105,0.0100122,0.00380992,-0.640061,0.0058353,0.0138704,1525,1688,12.4415,-50.7643
308,-664,12.4722,50.2925,0.00664967,0.00592439,-0.00268834,0.00899972,0.00357433,-0.718356,0.0052325,0.0123871,1532,1688,12.4721,-50.2924
315,-664,12.4738,49.8185,0.00551,0.0058101,-0.00239562,0.00806036,0.00325974,-0.816675,0.00468191,0.012599,1539,1688,12.4738,-49.8184
322,-664,12.4821,49.345,0.00443078,0.00581448,-0.0021454,0.00737683,0.00286843,-0.941374,0.00429395,0.0157626,1546,1688,12.482,-49.345
329,-664,12.4771,48.8593,0.00343949,0.00566857,-0.0019339,0.0067861,0.00232195,-1.04681,0.0039825,0.0180645,1553,1688,12.4771,-48.8593
336,-664,12.4572,48.3304,0.00260544,0.00550414,-0.00171881,0.0063031,0.00180647,-1.13567,0.00374795,0.0148296,1560,1688,12.4572,-48.3305
343,-664,12.4181,47.8229,0.00181973,0.00541085,-0.00159746,0.0060186,0.00121198,-1.20726,0.00367563,0.0121429,1567,1688,12.4181,-47.8228
350,-664,12.3921,47.3344,0.00116746,0.00517957,-0.00155682,0.00571279,0.00063424,-1.24081,0.00361571,0.0139498,1574,1688,12.3921,-47.3344
357,-664,12.402,46.7667,0.00073149,0.00476829,-0.00157184,0.00530813,0.000191644,-1.23997,0.00347664,0.012834,1581,1688,12.402,-46.7667
364,-664,12.4238,46.2001,0.000631957,0.00455871,-0.00192114,0.00534226,-0.000151601,-1.18353,0.0036131,0.0109451,1588,1688,12.4238,-46.2
371,-664,12.4126,45.7032,0.000591915,0.00437515,-0.00233502,0.00548861,-0.000521549,-1.12584,0.00384473,0.0139646,1595,1688,12.4125,-45.7032
378,-664,12.3621,45.1624,0.000633402,0.00412225,-0.00279634,0.00567367,-0.00091801,-1.06428,0.00412266,0.0133092,1602,1688,12.3621,-45.1623
385,-664,12.2854,44.5986,0.00106777,0.00400179,-0.00335766,0.00619893,-0.00112937,-0.991358,0.00455598,0.0140122,1609,1688,12.2855,-44.5986
392,-664,12.2145,44.0743,0.00143986,0.00385839,-0.00403054,0.00685717,-0.00155891,-0.931138,0.00517003,0.0170443,1616,1688,12.2144,-44.0744
399,-664,12.2402,43.5051,0.00182985,0.0037107,-0.00478712,0.00764889,-0.00210834,-0.882387,0.00592836,0.0139873,1623,1688,12.2402,-43.5052
406,-664,12.2548,42.9032,0.00226935,0.00378968,-0.00548971,0.00857161,-0.00251257,-0.854196,0.0067106,0.0129966,1630,1688,12.2548,-42.9032
413,-664,12.2277,42.282,0.0028551,0.00430486,-0.00619472,0.00981697,-0.00265701,-0.843641,0.00758702,0.0139346,1637,1688,12.2277,-42.2819
420,-664,12.2256,41.6528,0.00359056,0.00480514,-0.00700851,0.0112326,-0.00283693,-0.828616,0.00859163,0.0303933,1644,1688,12.2255,-41.6528
427,-664,12.0995,41.0443,0.00435836,0.00609681,-0.00784294,0.0131185,-0.00266337,-0.840587,0.00975544,0.0466589,1651,1688,12.0995,-41.0443
434,-664,12.0337,40.3323,0.00511319,0.00727308,-0.00848474,0.0147463,-0.00236006,-0.848698,0.0107046,0.0454652,1658,1688,12.0337,-40.3322
441,-664,12.7036,39.4603,0,0,0,0,0,0,0,-1,1665,1688,12.7036,-39.4603
448,-664,13.4644,38.7773,0,0,0,0,0,0,0,-1,1672,1688,13.4644,-38.7774
455,-664,12.1709,39.3733,0,0,0,0,0,0,0,-1,1679,1688,12.1708,-39.3733
462,-664,4.3147,4.25439,0,0,0,0,0,0,0,-1,1686,1688,4.31467,-4.25435
469,-664,6.05469,7.49341,0,0,0,0,0,0,0,-1,1693,1688,6.05474,-7.49339
476,-664,10.2377,22.7128,0,0,0,0,0,0,0,-1,1700,1688,10.2377,-22.7128
483,-664,8.41895,10.9768,0,0,0,0,0,0,0,-1,1707,1688,8.41897,-10.9769
490,-664,3.90771,13.2842,0,0,0,0,0,0,0,-1,1714,1688,3.90776,-13.2841
497,-664,0,0,0,0,0,0,0,0,0,-1,1721,1688,0,0
504,-664,0,0,0,0,0,0,0,0,0,-1,1728,1688,0,0
511,-664,0,0,0,0,0,0,0,0,0,-1,1735,1688,0,0
518,-664,0,0,0,0,0,0,0,0,0,-1,1742,1688,0,0
525,-664,0,0,0,0,0,0,0,0,0,-1,1749,1688,0,0
532,-664,0,0,0,0,0,0,0,0,0,-1,1756,1688,0,0
539,-664,0,0,0,0,0,0,0,0,0,-1,1763,1688,0,0
546,-664,0,0,0,0,0,0,0,0,0,-1,1770,1688,0,0
553,-664,0,0,0,0,0,0,0,0,0,-1,1777,1688,0,0
560,-664,0,0,0,0,0,0,0,0,0,-1,1784,1688,0,0
567,-664,0,0,0,0,0,0,0,0,0,-1,1791,1688,0,0
574,-664,0,0,0,0,0,0,0,0,0,-1,1798,1688,0,0
581,-664,0,0,0,0,0,0,0,0,0,-1,1805,1688,0,0
588,-664,0,0,0,0,0,0,0,0,0,-1,1812,1688,0,0
595,-664,0,0,0,0,0,0,0,0,0,-1,1819,1688,0,0
602,-664,0,0,0,0,0,0,0,0,0,-1,1826,1688,0,0
609,-664,0,0,0,0,0,0,0,0,0,-1,1833,1688,0,0
616,-664,0,0,0,0,0,0,0,0,0,-1,1840,1688,0,0
623,-664,0,0,0,0,0,0,0,0,0,-1,1847,1688,0,0
630,-664,0,0,0,0,0,0,0,0,0,-1,1854,1688,0,0
637,-664,0,0,0,0,0,0,0,0,0,-1,1861,1688,0,0
644,-664,0,0,0,0,0,0,0,0,0,-1,1868,1688,0,0
651,-664,0,0,0,0,0,0,0,0,0,-1,1875,1688,0,0
658,-664,0,0,0,0,0,0,0,0,0,-1,1882,1688,0,0
665,-664,0,0,0,0,0,0,0,0,0,-1,1889,1688,0,0
672,-664,0,0,0,0,0,0,0,0,0,-1,1896,1688,0,0
679,-664,0,0,0,0,0,0,0,0,0,-1,1903,1688,0,0
686,-664,0,0,0,0,0,0,0,0,0,-1,1910,1688,0,0
693,-664,0,0,0,0,0,0,0,0,0,-1,1917,1688,0,0
700,-664,0,0,0,0,0,0,0,0,0,-1,1924,1688,0,0
707,-664,0,0,0,0,0,0,0,0,0,-1,1931,1688,0,0
714,-664,0,0,0,0,0,0,0,0,0,-1,1938,1688,0,0
721,-664,0,0,0,0,0,0,0,0,0,-1,1945,1688,0,0
728,-664,0,0,0,0,0,0,0,0,0,-1,1952,1688,0,0
735,-664,0,0,0,0,0,0,0,0,0,-1,1959,1688,0,0
742,-664,0,0,0,0,0,0,0,0,0,-1,1966,1688,0,0
749,-664,0,0,0,0,0,0,0,0,0,-1,1973,1688,0,0
756,-664,0,0,0,0,0,0,0,0,0,-1,1980,1688,0,0
763,-664,0,0,0,0,0,0,0,0,0,-1,1987,1688,0,0
770,-664,0,0,0,0,0,0,0,0,0,-1,1994,1688,0,0
777,-664,0,0,0,0,0,0,0,0,0,-1,2001,1688,0,0
784,-664,0,0,0,0,0,0,0,0,0,-1,2008,1688,0,0
791,-664,0,0,0,0,0,0,0,0,0,-1,2015,1688,0,0
798,-664,0,0,0,0,0,0,0,0,0,-1,2022,1688,0,0
805,-664,0,0,0,0,0,0,0,0,0,-1,2029,1688,0,0
812,-664,0,0,0,0,0,0,0,0,0,-1,2036,1688,0,0
-700,-671,0,0,0,0,0,0,0,0,0,-1,524,1695,0,0
-693,-671,0,0,0,0,0,0,0,0,0,-1,531,1695,0,0
-686,-671,0,0,0,0,0,0,0,0,0,-1,538,1695,0,0
-679,-671,0,0,0,0,0,0,0,0,0,-1,545,1695,0,0
-672,-671,0,0,0,0,0,0,0,0,0,-1,552,1695,0,0
-665,-671,0,0,0,0,0,0,0,0,0,-1,559,1695,0,0
-658,-671,0,0,0,0,0,0,0,0,0,-1,566,1695,0,0
-651,-671,0,0,0,0,0,0,0,0,0,-1,573,1695,0,0
-644,-671,0,0,0,0,0,0,0,0,0,-1,580,1695,0,0
-637,-671,0,0,0,0,0,0,0,0,0,-1,587,1695,0,0
-630,-671,0,0,0,0,0,0,0,0,0,-1,594,1695,0,0
-623,-671,0,0,0,0,0,0,0,0,0,-1,601,1695,0,0
-616,-671,0,0,0,0,0,0,0,0,0,-1,608,1695,0,0
-609,-671,0,0,0,0,0,0,0,0,0,-1,615,1695,0,0
-602,-671,0,0,0,0,0,0,0,0,0,-1,622,1695,0,0
-595,-671,0,0,0,0,0,0,0,0,0,-1,629,1695,0,0
-588,-671,0,0,0,0,0,0,0,0,0,-1,636,1695,0,0
-581,-671,0,0,0,0,0,0,0,0,0,-1,643,1695,0,0
-574,-671,0,0,0,0,0,0,0,0,0,-1,650,1695,0,0
-567,-671,0,0,0,0,0,0,0,0,0,-1,657,1695,0,0
-560,-671,0,0,0,0,0,0,0,0,0,-1,664,1695,0,0
-553,-671,0,0,0,0,0,0,0,0,0,-1,671,1695,0,0
-546,-671,0,0,0,0,0,0,0,0,0,-1,678,1695,0,0
-539,-671,0,0,0,0,0,0,0,0,0,-1,685,1695,0,0
-532,-671,0,0,0,0,0,0,0,0,0,-1,692,1695,0,0
-525,-671,0,0,0,0,0,0,0,0,0,-1,699,1695,0,0
-518,-671,0,0,0,0,0,0,0,0,0,-1,706,1695,0,0
-511,-671,0,0,0,0,0,0,0,0,0,-1,713,1695,0,0
-504,-671,0,0,0,0,0,0,0,0,0,-1,720,1695,0,0
-497,-671,0,0,0,0,0,0,0,0,0,-1,727,1695,0,0
-490,-671,0,0,0,0,0,0,0,0,0,-1,734,1695,0,0
-483,-671,0,0,0,0,0,0,0,0,0,-1,741,1695,0,0
-476,-671,0,0,0,0,0,0,0,0,0,-1,748,1695,0,0
-469,-671,0,0,0,0,0,0,0,0,0,-1,755,1695,0,0
-462,-671,0,0,0,0,0,0,0,0,0,-1,762,1695,0,0
-455,-671,0,0,0,0,0,0,0,0,0,-1,769,1695,0,0
-448,-671,0,0,0,0,0,0,0,0,0,-1,776,1695,0,0
-441,-671,0,0,0,0,0,0,0,0,0,-1,783,1695,0,0
-434,-671,0,0,0,0,0,0,0,0,0,-1,790,1695,0,0
-427,-671,0,0,0,0,0,0,0,0,0,-1,797,1695,0,0
-420,-671,0,0,0,0,0,0,0,0,0,-1,804,1695,0,0
-413,-671,0,0,0,0,0,0,0,0,0,-1,811,1695,0,0
-406,-671,0,0,0,0,0,0,0,0,0,-1,818,1695,0,0
-399,-671,0,0,0,0,0,0,0,0,0,-1,825,1695,0,0
-392,-671,0,0,0,0,0,0,0,0,0,-1,832,1695,0,0
-385,-671,0,0,0,0,0,0,0,0,0,-1,839,1695,0,0
-378,-671,0,0,0,0,0,0,0,0,0,-1,846,1695,0,0
-371,-671,0,0,0,0,0,0,0,0,0,-1,853,1695,0,0
-364,-671,-4.18738,7.51416,0,0,0,0,0,0,0,-1,860,1695,-4.18739,-7.51419
-357,-671,-5.02393,6.07129,0,0,0,0,0,0,0,-1,867,1695,-5.0239,-6.07135
-350,-671,6.93323,33.8943,0,0,0,0,0,0,0,-1,874,1695,6.93325,-33.8943
-343,-671,6.16626,32.3158,0,0,0,0,0,0,0,-1,881,1695,6.16623,-32.3158
-336,-671,5.67371,33.653,0,0,0,0,0,0,0,-1,888,1695,5.67369,-33.653
-329,-671,6.14716,34.5975,0,0,0,0,0,0,0,-1,895,1695,6.14716,-34.5976
-322,-671,5.20728,38.0814,0,0,0,0,0,0,0,-1,902,1695,5.20728,-38.0814
-315,-671,7.39471,38.3342,0,0,0,0,0,0,0,-1,909,1695,7.3947,-38.3342
-308,-671,7.68097,38.6931,0,0,0,0,0,0,0,-1,916,1695,7.68094,-38.6931
-301,-671,7.83002,38.85,0,0,0,0,0,0,0,-1,923,1695,7.83001,-38.85
-294,-671,6.59082,41.3051,0,0,0,0,0,0,0,-1,930,1695,6.59083,-41.3051
-287,-671,6.66046,41.9884,-0.0118974,-0.00161938,-0.00938619,0.00394254,-0.0174593,-1.03586,0.0131522,0.0443732,937,1695,6.66049,-41.9885
-280,-671,6.82751,42.5841,-0.0108449,0.00137361,-0.00715428,0.00467216,-0.0141435,-1.13878,0.0113127,0.0363848,944,1695,6.8275,-42.5841
-273,-671,6.729,43.1332,-0.00939558,0.00236173,-0.00498126,0.00418837,-0.0112222,-1.21932,0.00920105,0.0329899,951,1695,6.729,-43.1332
-266,-671,6.56769,43.7671,-0.00760436,0.00306955,-0.00324211,0.00397714,-0.00851195,-1.29785,0.00736732,0.0237629,958,1695,6.5677,-43.7671
-259,-671,6.46576,44.3279,-0.00603315,0.00346275,-0.00187721,0.00382038,-0.00639078,-1.38254,0.00595735,0.0217512,965,1695,6.46576,-44.3279
-252,-671,6.40051,44.9617,-0.00468114,0.00381784,-0.000691981,0.00387381,-0.00473712,-1.49009,0.00497984,0.0177246,972,1695,6.40049,-44.9617
-245,-671,6.40753,45.5212,-0.00348681,0.00401262,0.000198017,0.00401784,-0.00349203,1.54442,0.00433937,0.0205076,979,1695,6.40752,-45.5212
-238,-671,6.40674,46.0483,-0.00249499,0.0039958,0.000809371,0.0040952,-0.00259439,1.44859,0.0038945,0.0213022,986,1695,6.40676,-46.0484
-231,-671,6.37097,46.5979,-0.00177378,0.00375715,0.00124569,0.00402476,-0.00204139,1.35918,0.00356415,0.0164376,993,1695,6.37097,-46.5979
-224,-671,6.31671,47.1501,-0.000762426,0.00355585,0.00190711,0.0042775,-0.00148407,1.20905,0.00345431,0.0124728,1000,1695,6.31673,-47.1501
-217,-671,6.28406,47.6875,-8.02623e-05,0.00289753,0.00188089,0.0038075,-0.000990234,1.12019,0.00292483,0.0120644,1007,1695,6.28405,-47.6874
-210,-671,6.25684,48.2535,0.000480052,0.00238458,0.00164506,0.00333311,-0.000468478,1.04776,0.00239356,0.0120514,1014,1695,6.25684,-48.2535
-203,-671,6.22217,48.755,0.00108255,0.00204624,0.00149131,0.00313161,-2.82261e-06,0.941656,0.00208868,0.0205673,1021,1695,6.22212,-48.7549
-196,-671,6.2157,49.2583,0.00167954,0.00179719,0.0014508,0.00319036,0.000286376,0.80566,0.00203817,0.0175398,1028,1695,6.21567,-49.2583
-189,-671,6.20557,49.8148,0.00219664,0.0017246,0.00133576,0.00331707,0.00060417,0.697954,0.00204003,0.0121642,1035,1695,6.20557,-49.8148
-182,-671,6.18811,50.299,0.00277034,0.0018739,0.00111247,0.00352149,0.00112275,0.593895,0.00207714,0.00986919,1042,1695,6.18805,-50.299
-175,-671,6.19067,50.7588,0.00357847,0.00214693,0.000989546,0.00408398,0.00164142,0.47229,0.00237296,0.0132189,1049,1695,6.19069,-50.7588
-168,-671,6.19019,51.2026,0.00431339,0.00308179,0.00102633,0.00489448,0.0025007,0.515189,0.00282606,0.0140018,1056,1695,6.19013,-51.2027
-161,-671,6.18286,51.662,0.00497386,0.00398777,0.00100682,0.00560188,0.00335976,0.55771,0.00325563,0.00997944,1063,1695,6.18289,-51.662
-154,-671,6.20142,52.1339,0.00561988,0.00496393,0.000964675,0.00631081,0.004273,0.621537,0.00371895,0.00945514,1070,1695,6.2014,-52.1339
-147,-671,6.23474,52.6144,0.0061682,0.00606014,0.000900295,0.00701608,0.00521225,0.755428,0.00420705,0.0107023,1077,1695,6.23471,-52.6144
-140,-671,6.27161,53.0187,0.00655083,0.00716205,0.0007644,0.00767967,0.00603321,0.975567,0.00466876,0.0136798,1084,1695,6.2716,-53.0186
-133,-671,6.27722,53.3873,0.00681312,0.00837714,0.000623549,0.0085953,0.00659495,1.23423,0.00519346,0.0202956,1091,1695,6.27718,-53.3873
-126,-671,6.32715,53.9429,0.00692421,0.00919496,0.000352749,0.00924849,0.00687068,1.42018,0.00554567,0.0349901,1098,1695,6.32721,-53.9429
-119,-671,6.4126,54.6493,0,0,0,0,0,0,0,-1,1105,1695,6.41264,-54.6493
-112,-671,6.58704,44.6255,0,0,0,0,0,0,0,-1,1112,1695,6.58701,-44.6255
-105,-671,7.33252,41.3418,0,0,0,0,0,0,0,-1,1119,1695,7.33247,-41.3418
-98,-671,6.34534,45.6299,0,0,0,0,0,0,0,-1,1126,1695,6.34533,-45.6299
-91,-671,6.40063,38.2443,0,0,0,0,0,0,0,-1,1133,1695,6.40059,-38.2442
-84,-671,5.4209,26.2415,0,0,0,0,0,0,0,-1,1140,1695,5.42096,-26.2414
-77,-671,4.31763,16.489,0,0,0,0,0,0,0,-1,1147,1695,4.31757,-16.489
-70,-671,3.06067,10.7737,0,0,0,0,0,0,0,-1,1154,1695,3.0607,-10.7737
-63,-671,2.94592,6.90198,0,0,0,0,0,0,0,-1,1161,1695,2.94594,-6.90198
-56,-671,-3.07678,2.87976,0,0,0,0,0,0,0,-1,1168,1695,-3.07675,-2.87979
-49,-671,-1.05957,4.76917,0,0,0,0,0,0,0,-1,1175,1695,-1.05958,-4.76921
-42,-671,0.539307,3.7865,0,0,0,0,0,0,0,-1,1182,1695,0.539266,-3.78648
-35,-671,-0.272461,0.347534,0,0,0,0,0,0,0,-1,1189,1695,-0.272434,-0.347569
-28,-671,-10.4878,17.2009,0,0,0,0,0,0,0,-1,1196,1695,-10.4878,-17.2009
-21,-671,7.74463,56.662,0,0,0,0,0,0,0,-1,1203,1695,7.74468,-56.662
-14,-671,7.81421,57.6765,0,0,0,0,0,0,0,-1,1210,1695,7.81423,-57.6765
-7,-671,8.11084,58.1788,0,0,0,0,0,0,0,-1,1217,1695,8.1109,-58.1788
0,-671,8.35095,58.3723,0.0611484,0.0317557,0.0407402,0.0897619,0.00314217,0.612296,0.0588218,0.047403,1224,1695,8.35097,-58.3724
7,-671,8.26917,58.9102,0.0665594,0.0325693,0.0407509,0.0937172,0.00541153,0.587841,0.0607546,0.0485983,1231,1695,8.26914,-58.9101
14,-671,8.08411,59.4952,0,0,0,0,0,0,0,-1,1238,1695,8.08409,-59.4952
21,-671,8.26318,60.2136,0.0722082,0.0259036,0.0335798,0.0898435,0.00826827,0.483585,0.0573387,0.0472738,1245,1695,8.26317,-60.2137
28,-671,8.43066,60.733,0.0691766,0.0184383,0.0260147,0.0801442,0.00747075,0.398981,0.0511215,0.0471035,1252,1695,8.43068,-60.733
35,-671,8.5824,61.1864,0,0,0,0,0,0,0,-1,1259,1695,8.58246,-61.1864
42,-671,5.43079,50.3588,0,0,0,0,0,0,0,-1,1266,1695,5.43077,-50.3588
49,-671,13.7578,68.1101,0,0,0,0,0,0,0,-1,1273,1695,13.7578,-68.11
56,-671,13.0382,67.2953,0,0,0,0,0,0,0,-1,1280,1695,13.0382,-67.2953
63,-671,13.6052,64.8884,0,0,0,0,0,0,0,-1,1287,1695,13.6052,-64.8885
70,-671,12.3403,63.7466,0.0236731,-0.0251712,-0.0213664,0.0317003,-0.0331984,-0.35938,0.0374726,0.047514,1294,1695,12.3404,-63.7465
77,-671,11.3149,62.4475,0.0148485,-0.0303619,-0.0276364,0.0279472,-0.0434605,-0.442603,0.0415503,0.0454705,1301,1695,11.315,-62.4475
84,-671,10.6003,61.595,0.00683717,-0.0350122,-0.031984,0.0241331,-0.0523082,-0.495728,0.0451216,0.0461354,1308,1695,10.6004,-61.595
91,-671,10.1642,60.2057,0,0,0,0,0,0,0,-1,1315,1695,10.1642,-60.2057
98,-671,10.0814,59.6487,0.000259694,-0.0310803,-0.0360761,0.0239221,-0.0547427,-0.580513,0.0465646,0.0439079,1322,1695,10.0815,-59.6486
105,-671,10.0437,59.0927,0.00149153,-0.0283886,-0.0354789,0.0250476,-0.0519447,-0.586118,0.0453467,0.0426898,1329,1695,10.0437,-59.0926
112,-671,9.96216,58.5314,0.00503537,-0.0250315,-0.0352583,0.0283315,-0.0483276,-0.583879,0.0447582,0.040904,1336,1695,9.96216,-58.5314
119,-671,9.74683,58.0464,0.0113613,-0.0210274,-0.0360852,0.0347195,-0.0443855,-0.574478,0.0457848,0.0468741,1343,1695,9.74678,-58.0464
126,-671,9.79395,57.6519,0,0,0,0,0,0,0,-1,1350,1695,9.79395,-57.6519
133,-671,10.0813,57.4797,0,0,0,0,0,0,0,-1,1357,1695,10.0814,-57.4797
140,-671,10.5455,57.3843,0.0302881,-0.00538511,-0.0422106,0.0582759,-0.0333729,-0.585496,0.0535607,0.0491682,1364,1695,10.5456,-57.3842
147,-671,11.1302,56.554,0,0,0,0,0,0,0,-1,1371,1695,11.1303,-56.5539
154,-671,11.5029,55.7073,0,0,0,0,0,0,0,-1,1378,1695,11.503,-55.7072
161,-671,4.49292,4.91272,0,0,0,0,0,0,0,-1,1385,1695,4.49297,-4.91273
168,-671,5.17639,6.1416,0,0,0,0,0,0,0,-1,1392,1695,5.1764,-6.14164
175,-671,5.6731,1.64685,0,0,0,0,0,0,0,-1,1399,1695,5.67313,-1.64691
182,-671,5.56812,1.71692,0,0,0,0,0,0,0,-1,1406,1695,5.56809,-1.71686
189,-671,6.98315,6.36169,0,0,0,0,0,0,0,-1,1413,1695,6.98312,-6.36175
196,-671,5.38123,5.69775,0,0,0,0,0,0,0,-1,1420,1695,5.38125,-5.69769
203,-671,5.95117,8.11658,0,0,0,0,0,0,0,-1,1427,1695,5.9512,-8.11662
210,-671,4.73596,8.39624,0,0,0,0,0,0,0,-1,1434,1695,4.736,-8.39618
217,-671,5.37097,11.863,0,0,0,0,0,0,0,-1,1441,1695,5.37094,-11.863
224,-671,5.08167,13.6694,0,0,0,0,0,0,0,-1,1448,1695,5.08165,-13.6695
231,-671,5.66663,15.3348,0,0,0,0,0,0,0,-1,1455,1695,5.66667,-15.3349
238,-671,6.32959,16.2036,0,0,0,0,0,0,0,-1,1462,1695,6.32961,-16.2037
245,-671,11.7701,54.4105,0,0,0,0,0,0,0,-1,1469,1695,11.7702,-54.4106
252,-671,11.8276,53.8671,0,0,0,0,0,0,0,-1,1476,1695,11.8277,-53.867
259,-671,11.8322,53.5332,0,0,0,0,0,0,0,-1,1483,1695,11.8322,-53.5332
266,-671,11.8247,52.9664,0.00819032,0.00395819,-0.00220215,0.0091283,0.00302021,-0.402666,0.0053698,0.0382397,1490,1695,11.8247,-52.9665
273,-671,11.9115,52.5815,0.00799313,0.00419746,-0.0023506,0.00911641,0.00307418,-0.445784,0.00535554,0.0115691,1497,1695,11.9115,-52.5815
280,-671,11.8982,52.1709,0.00755567,0.00442982,-0.00243841,0.00888905,0.00309644,-0.500401,0.00521019,0.00989867,1504,1695,11.8982,-52.1709
287,-671,11.8898,51.6531,0.0070059,0.00450295,-0.00245396,0.00850907,0.00299977,-0.549597,0.00498342,0.0120602,1511,1695,11.8898,-51.653
294,-671,11.9113,51.1752,0.0063533,0.0044492,-0.0023961,0.00797956,0.00282294,-0.596295,0.00467222,0.012463,1518,1695,11.9113,-51.1752
301,-671,11.9385,50.7512,0.00550728,0.00434209,-0.00220115,0.00720163,0.00264774,-0.656026,0.00420613,0.011524,1525,1695,11.9385,-50.7512
308,-671,11.9711,50.3002,0.00459655,0.00450229,-0.00204395,0.00659392,0.00250493,-0.773871,0.00384344,0.0124526,1532,1695,11.9711,-50.3002
315,-671,11.9971,49.8446,0.00368547,0.00474756,-0.00185181,0.00614297,0.00229007,-0.925036,0.0035847,0.0136369,1539,1695,11.997,-49.8445
322,-671,11.9824,49.3873,0.00278655,0.00498869,-0.00164568,0.00586767,0.00190757,-1.08023,0.0034561,0.0152382,1546,1695,11.9824,-49.3873
329,-671,11.9427,48.8953,0.00195854,0.00516709,-0.00150653,0.00576357,0.00136206,-1.1938,0.00347842,0.0144991,1553,1695,11.9427,-48.8953
336,-671,11.9324,48.3762,0.00127758,0.00531899,-0.00139638,0.00575453,0.00084204,-1.26845,0.00358876,0.0122374,1560,1695,11.9323,-48.3762
343,-671,11.9583,47.8142,0.000645678,0.00552998,-0.00139005,0.00589787,0.000277787,-1.31207,0.00384266,0.0128719,1567,1695,11.9583,-47.8142
350,-671,11.9227,47.3312,0.000126896,0.00555846,-0.00145649,0.00592437,-0.000239016,-1.32466,0.00403161,0.0126735,1574,1695,11.9227,-47.3312
357,-671,11.8906,46.7528,-9.77022e-05,0.00544479,-0.00164336,0.00589542,-0.000548326,-1.30317,0.00412522,0.0111505,1581,1695,11.8906,-46.7528
364,-671,11.8776,46.2068,4.18394e-06,0.00544912,-0.00219135,0.00622149,-0.000768179,-1.23193,0.004426,0.0124158,1588,1695,11.8776,-46.2068
371,-671,11.8412,45.7224,9.84241e-05,0.00546511,-0.00280594,0.00666424,-0.00110071,-1.16693,0.00485153,0.0142785,1595,1695,11.8411,-45.7224
378,-671,11.8109,45.1816,0.000295391,0.00535941,-0.00347803,0.00712947,-0.00147466,-1.10003,0.00531319,0.0123102,1602,1695,11.8109,-45.1816
385,-671,11.7623,44.5984,0.000972535,0.00541699,-0.00428767,0.00802409,-0.00163456,-1.02448,0.00596932,0.0140734,1609,1695,11.7623,-44.5983
392,-671,11.7018,44.0789,0.0016241,0.00540605,-0.00525684,0.00910169,-0.00207153,-0.958051,0.00686331,0.0189895,1616,1695,11.7017,-44.0789
399,-671,11.6832,43.5428,0.00230758,0.00532858,-0.00635264,0.0103478,-0.00271167,-0.902118,0.00795797,0.0153615,1623,1695,11.6833,-43.5428
406,-671,11.733,42.9279,0.00305591,0.00556399,-0.00736637,0.0117823,-0.0031624,-0.869709,0.00909417,0.0207573,1630,1695,11.733,-42.9279
413,-671,11.7371,42.3409,0.00408535,0.0062789,-0.00838293,0.0136365,-0.00327225,-0.850446,0.0103555,0.0327445,1637,1695,11.7371,-42.341
420,-671,11.72,41.522,0.00531159,0.00696953,-0.00954504,0.0157215,-0.00344041,-0.828713,0.0117963,0.0499076,1644,1695,11.7199,-41.522
427,-671,11.6929,40.7004,0,0,0,0,0,0,0,-1,1651,1695,11.6929,-40.7004
434,-671,11.4739,40.4331,0,0,0,0,0,0,0,-1,1658,1695,11.4739,-40.4331
441,-671,12.0238,39.3538,0,0,0,0,0,0,0,-1,1665,1695,12.0239,-39.3537
448,-671,11.6979,39.1995,0,0,0,0,0,0,0,-1,1672,1695,11.6979,-39.1994
455,-671,11.5221,39.0929,0,0,0,0,0,0,0,-1,1679,1695,11.5221,-39.0929
462,-671,5.86255,4.47961,0,0,0,0,0,0,0,-1,1686,1695,5.8625,-4.4796
469,-671,3.71301,3.76978,0,0,0,0,0,0,0,-1,1693,1695,3.71297,-3.76974
476,-671,3.75574,3.18848,0,0,0,0,0,0,0,-1,1700,1695,3.7558,-3.18847
483,-671,7.81824,12.1041,0,0,0,0,0,0,0,-1,1707,1695,7.81826,-12.1041
490,-671,0,0,0,0,0,0,0,0,0,-1,1714,1695,0,0
497,-671,0,0,0,0,0,0,0,0,0,-1,1721,1695,0,0
504,-671,0,0,0,0,0,0,0,0,0,-1,1728,1695,0,0
511,-671,0,0,0,0,0,0,0,0,0,-1,1735,1695,0,0
518,-671,0,0,0,0,0,0,0,0,0,-1,1742,1695,0,0
525,-671,0,0,0,0,0,0,0,0,0,-1,1749,1695,0,0
532,-671,0,0,0,0,0,0,0,0,0,-1,1756,1695,0,0
539,-671,0,0,0,0,0,0,0,0,0,-1,1763,1695,0,0
546,-671,0,0,0,0,0,0,0,0,0,-1,1770,1695,0,0
553,-671,0,0,0,0,0,0,0,0,0,-1,1777,1695,0,0
560,-671,0,0,0,0,0,0,0,0,0,-1,1784,1695,0,0
567,-671,0,0,0,0,0,0,0,0,0,-1,1791,1695,0,0
574,-671,0,0,0,0,0,0,0,0,0,-1,1798,1695,0,0
581,-671,0,0,0,0,0,0,0,0,0,-1,1805,1695,0,0
588,-671,0,0,0,0,0,0,0,0,0,-1,1812,1695,0,0
595,-671,0,0,0,0,0,0,0,0,0,-1,1819,1695,0,0
602,-671,0,0,0,0,0,0,0,0,0,-1,1826,1695,0,0
609,-671,0,0,0,0,0,0,0,0,0,-1,1833,1695,0,0
616,-671,0,0,0,0,0,0,0,0,0,-1,1840,1695,0,0
623,-671,0,0,0,0,0,0,0,0,0,-1,1847,1695,0,0
630,-671,0,0,0,0,0,0,0,0,0,-1,1854,1695,0,0
637,-671,0,0,0,0,0,0,0,0,0,-1,1861,1695,0,0
644,-671,0,0,0,0,0,0,0,0,0,-1,1868,1695,0,0
651,-671,0,0,0,0,0,0,0,0,0,-1,1875,1695,0,0
658,-671,0,0,0,0,0,0,0,0,0,-1,1882,1695,0,0
665,-671,0,0,0,0,0,0,0,0,0,-1,1889,1695,0,0
672,-671,0,0,0,0,0,0,0,0,0,-1,1896,1695,0,0
679,-671,0,0,0,0,0,0,0,0,0,-1,1903,1695,0,0
686,-671,0,0,0,0,0,0,0,0,0,-1,1910,1695,0,0
693,-671,0,0,0,0,0,0,0,0,0,-1,1917,1695,0,0
700,-671,0,0,0,0,0,0,0,0,0,-1,1924,1695,0,0
707,-671,0,0,0,0,0,0,0,0,0,-1,1931,1695,0,0
714,-671,0,0,0,0,0,0,0,0,0,-1,1938,1695,0,0
721,-671,0,0,0,0,0,0,0,0,0,-1,1945,1695,0,0
728,-671,0,0,0,0,0,0,0,0,0,-1,1952,1695,0,0
735,-671,0,0,0,0,0,0,0,0,0,-1,1959,1695,0,0
742,-671,0,0,0,0,0,0,0,0,0,-1,1966,1695,0,0
749,-671,0,0,0,0,0,0,0,0,0,-1,1973,1695,0,0
756,-671,0,0,0,0,0,0,0,0,0,-1,1980,1695,0,0
763,-671,0,0,0,0,0,0,0,0,0,-1,1987,1695,0,0
770,-671,0,0,0,0,0,0,0,0,0,-1,1994,1695,0,0
777,-671,0,0,0,0,0,0,0,0,0,-1,2001,1695,0,0
784,-671,0,0,0,0,0,0,0,0,0,-1,2008,1695,0,0
791,-671,0,0,0,0,0,0,0,0,0,-1,2015,1695,0,0
798,-671,0,0,0,0,0,0,0,0,0,-1,2022,1695,0,0
805,-671,0,0,0,0,0,0,0,0,0,-1,2029,1695,0,0
812,-671,0,0,0,0,0,0,0,0,0,-1,2036,1695,0,0
-700,-678,0,0,0,0,0,0,0,0,0,-1,524,1702,0,0
-693,-678,0,0,0,0,0,0,0,0,0,-1,531,1702,0,0
-686,-678,0,0,0,0,0,0,0,0,0,-1,538,1702,0,0
-679,-678,0,0,0,0,0,0,0,0,0,-1,545,1702,0,0
-672,-678,0,0,0,0,0,0,0,0,0,-1,552,1702,0,0
-665,-678,0,0,0,0,0,0,0,0,0,-1,559,1702,0,0
-658,-678,0,0,0,0,0,0,0,0,0,-1,566,1702,0,0
-651,-678,0,0,0,0,0,0,0,0,0,-1,573,1702,0,0
-644,-678,0,0,0,0,0,0,0,0,0,-1,580,1702,0,0
-637,-678,0,0,0,0,0,0,0,0,0,-1,587,1702,0,0
-630,-678,0,0,0,0,0,0,0,0,0,-1,594,1702,0,0
-623,-678,0,0,0,0,0,0,0,0,0,-1,601,1702,0,0
-616,-678,0,0,0,0,0,0,0,0,0,-1,608,1702,0,0
-609,-678,0,0,0,0,0,0,0,0,0,-1,615,1702,0,0
-602,-678,0,0,0,0,0,0,0,0,0,-1,622,1702,0,0
-595,-678,0,0,0,0,0,0,0,0,0,-1,629,1702,0,0
-588,-678,0,0,0,0,0,0,0,0,0,-1,636,1702,0,0
-581,-678,0,0,0,0,0,0,0,0,0,-1,643,1702,0,0
-574,-678,0,0,0,0,0,0,0,0,0,-1,650,1702,0,0
-567,-678,0,0,0,0,0,0,0,0,0,-1,657,1702,0,0
-560,-678,0,0,0,0,0,0,0,0,0,-1,664,1702,0,0
-553,-678,0,0,0,0,0,0,0,0,0,-1,671,1702,0,0
-546,-678,0,0,0,0,0,0,0,0,0,-1,678,1702,0,0
-539,-678,0,0,0,0,0,0,0,0,0,-1,685,1702,0,0
-532,-678,0,0,0,0,0,0,0,0,0,-1,692,1702,0,0
-525,-678,0,0,0,0,0,0,0,0,0,-1,699,1702,0,0
-518,-678,0,0,0,0,0,0,0,0,0,-1,706,1702,0,0
-511,-678,0,0,0,0,0,0,0,0,0,-1,713,1702,0,0
-504,-678,0,0,0,0,0,0,0,0,0,-1,720,1702,0,0
-497,-678,0,0,0,0,0,0,0,0,0,-1,727,1702,0,0
-490,-678,0,0,0,0,0,0,0,0,0,-1,734,1702,0,0
-483,-678,0,0,0,0,0,0,0,0,0,-1,741,1702,0,0
-476,-678,0,0,0,0,0,0,0,0,0,-1,748,1702,0,0
-469,-678,0,0,0,0,0,0,0,0,0,-1,755,1702,0,0
-462,-678,0,0,0,0,0,0,0,0,0,-1,762,1702,0,0
-455,-678,0,0,0,0,0,0,0,0,0,-1,769,1702,0,0
-448,-678,0,0,0,0,0,0,0,0,0,-1,776,1702,0,0
-441,-678,0,0,0,0,0,0,0,0,0,-1,783,1702,0,0
-434,-678,0,0,0,0,0,0,0,0,0,-1,790,1702,0,0
-427,-678,0,0,0,0,0,0,0,0,0,-1,797,1702,0,0
-420,-678,0,0,0,0,0,0,0,0,0,-1,804,1702,0,0
-413,-678,0,0,0,0,0,0,0,0,0,-1,811,1702,0,0
-406,-678,0,0,0,0,0,0,0,0,0,-1,818,1702,0,0
-399,-678,0,0,0,0,0,0,0,0,0,-1,825,1702,0,0
-392,-678,0,0,0,0,0,0,0,0,0,-1,832,1702,0,0
-385,-678,0,0,0,0,0,0,0,0,0,-1,839,1702,0,0
-378,-678,0,0,0,0,0,0,0,0,0,-1,846,1702,0,0
-371,-678,0,0,0,0,0,0,0,0,0,-1,853,1702,0,0
-364,-678,0,0,0,0,0,0,0,0,0,-1,860,1702,0,0
-357,-678,0,0,0,0,0,0,0,0,0,-1,867,1702,0,0
-350,-678,-5.79944,6.11865,0,0,0,0,0,0,0,-1,874,1702,-5.79942,-6.11864
-343,-678,8.79578,34.4388,0,0,0,0,0,0,0,-1,881,1702,8.79579,-34.4388
-336,-678,9.06317,34.813,0,0,0,0,0,0,0,-1,888,1702,9.06318,-34.8129
-329,-678,8.68359,35.6151,0,0,0,0,0,0,0,-1,895,1702,8.68362,-35.6152
-322,-678,8.50494,35.5048,0,0,0,0,0,0,0,-1,902,1702,8.50495,-35.5047
-315,-678,8.47589,38.7944,0,0,0,0,0,0,0,-1,909,1702,8.47588,-38.7944
-308,-678,8.36566,38.293,0,0,0,0,0,0,0,-1,916,1702,8.36564,-38.2929
-301,-678,8.58862,40.748,0,0,0,0,0,0,0,-1,923,1702,8.5886,-40.748
-294,-678,6.85248,41.5947,0,0,0,0,0,0,0,-1,930,1702,6.85248,-41.5947
-287,-678,7.28754,42.0217,0,0,0,0,0,0,0,-1,937,1702,7.28751,-42.0218
-280,-678,8.25696,43.1796,-0.0148956,0.00286099,-0.0101172,0.0074431,-0.0194777,-1.14553,0.016052,0.043664,944,1702,8.25694,-43.1795
-273,-678,7.40826,43.0343,-0.0125408,0.00411874,-0.00672838,0.00649673,-0.0149188,-1.23107,0.012679,0.0445,951,1702,7.40828,-43.0344
-266,-678,7.17261,43.7352,-0.00992826,0.00488169,-0.00414548,0.0059631,-0.0110097,-1.31562,0.00994257,0.0374365,958,1702,7.17261,-43.7353
-259,-678,6.94849,44.4052,-0.00780678,0.00536444,-0.00221478,0.00572688,-0.00816922,-1.40858,0.00806412,0.0231041,965,1702,6.94851,-44.4051
-252,-678,6.95697,44.9714,-0.00608625,0.00572559,-0.000567027,0.00575275,-0.0061134,-1.52294,0.00685198,0.0182902,972,1702,6.95697,-44.9714
-245,-678,6.96814,45.5337,-0.00468779,0.00583047,0.000601411,0.00586475,-0.00472207,1.51387,0.00612416,0.019379,979,1702,6.96816,-45.5337
-238,-678,6.92493,46.0795,-0.0036242,0.0056844,0.00133169,0.00587116,-0.00381096,1.43146,0.005632,0.0158706,986,1702,6.92496,-46.0794
-231,-678,6.85846,46.6399,-0.00295778,0.00517739,0.0017577,0.00554092,-0.00332131,1.36685,0.00516983,0.0131408,993,1702,6.85845,-46.64
-224,-678,6.82007,47.1674,-0.00187957,0.00473238,0.00248613,0.00556286,-0.00271005,1.2484,0.00487011,0.0132526,1000,1702,6.82009,-47.1674
-217,-678,6.8017,47.7094,-0.00121841,0.00377878,0.00236446,0.00472019,-0.00215982,1.19189,0.00406283,0.0139853,1007,1702,6.80167,-47.7093
-210,-678,6.77161,48.3013,-0.000810302,0.0030133,0.0020303,0.00389025,-0.00168725,1.16307,0.00330284,0.0147462,1014,1702,6.7716,-48.3013
-203,-678,6.75232,48.7993,-0.000412373,0.00252204,0.0017704,0.00335418,-0.00124451,1.13141,0.00274661,0.0197202,1021,1702,6.75238,-48.7993
-196,-678,6.73608,49.3005,1.38809e-05,0.00206809,0.00160541,0.00294684,-0.000864872,1.06998,0.00230752,0.0199788,1028,1702,6.73603,-49.3005
-189,-678,6.7041,49.8341,0.000416043,0.00175225,0.00142626,0.00265913,-0.000490841,1.00443,0.00195699,0.0109812,1035,1702,6.70409,-49.8341
-182,-678,6.69385,50.3164,0.000949744,0.00170412,0.0011963,0.00258128,7.25834e-05,0.938114,0.00169718,0.00983594,1042,1702,6.69388,-50.3164
-175,-678,6.66541,50.8038,0.00171969,0.00171734,0.000989778,0.00270829,0.000728737,0.784805,0.00161827,0.0112136,1049,1702,6.66543,-50.8038
-168,-678,6.65369,51.2651,0.00240451,0.0025164,0.000985312,0.00344736,0.00147356,0.813757,0.00199731,0.0105872,1056,1702,6.65365,-51.2652
-161,-678,6.65112,51.7,0.00301561,0.00326731,0.000999115,0.00414847,0.00213445,0.848048,0.00239546,0.00937353,1063,1702,6.65115,-51.7
-154,-678,6.66101,52.168,0.00365576,0.00400443,0.00097862,0.00482412,0.00283607,0.873546,0.00279952,0.00886401,1070,1702,6.66104,-52.1679
-147,-678,6.66431,52.6304,0.00425445,0.00476109,0.00088852,0.00543169,0.00358384,0.924265,0.00318893,0.0108938,1077,1702,6.66425,-52.6304
-140,-678,6.69458,53.0404,0.00472349,0.00544908,0.000721091,0.0058935,0.00427907,1.01847,0.00351663,0.011548,1084,1702,6.69454,-53.0404
-133,-678,6.71606,53.4279,0.00509414,0.00616028,0.000548462,0.00639204,0.00486237,1.17098,0.00385402,0.0126077,1091,1702,6.71602,-53.4279
-126,-678,6.73926,53.8792,0.00533374,0.00653339,0.000271731,0.00659207,0.00527506,1.35812,0.00402813,0.016252,1098,1702,6.73931,-53.8791
-119,-678,6.81702,54.6698,0.00573017,0.00650224,9.23008e-05,0.00651312,0.00571929,1.45345,0.00410315,0.0492391,1105,1702,6.81707,-54.6698
-112,-678,6.89355,55.397,0,0,0,0,0,0,0,-1,1112,1702,6.8935,-55.397
-105,-678,6.80127,55.0985,0,0,0,0,0,0,0,-1,1119,1702,6.80125,-55.0985
-98,-678,6.85413,55.5342,0,0,0,0,0,0,0,-1,1126,1702,6.85413,-55.5342
-91,-678,6.96313,55.7183,0,0,0,0,0,0,0,-1,1133,1702,6.96316,-55.7183
-84,-678,6.58545,36.5073,0,0,0,0,0,0,0,-1,1140,1702,6.58544,-36.5073
-77,-678,5.95154,29.1879,0,0,0,0,0,0,0,-1,1147,1702,5.95156,-29.1878
-70,-678,4.75891,19.6552,0,0,0,0,0,0,0,-1,1154,1702,4.75895,-19.6551
-63,-678,3.41687,11.0365,0,0,0,0,0,0,0,-1,1161,1702,3.41682,-11.0365
-56,-678,1.72388,6.13159,0,0,0,0,0,0,0,-1,1168,1702,1.72388,-6.13157
-49,-678,-0.241699,5.29895,0,0,0,0,0,0,0,-1,1175,1702,-0.241682,-5.29897
-42,-678,0.297119,3.90649,0,0,0,0,0,0,0,-1,1182,1702,0.297139,-3.90655
-35,-678,0.498413,3.64038,0,0,0,0,0,0,0,-1,1189,1702,0.498471,-3.64038
-28,-678,0.132446,3.55994,0,0,0,0,0,0,0,-1,1196,1702,0.132432,-3.55993
-21,-678,7.57532,57.8702,0,0,0,0,0,0,0,-1,1203,1702,7.5753,-57.8702
-14,-678,7.98682,57.9434,0.043996,0.0201561,0.030137,0.0644848,-0.000332676,0.597077,0.0431012,0.0442143,1210,1702,7.98687,-57.9433
-7,-678,8.18408,58.2686,0.0468252,0.0214287,0.0317845,0.0683541,-0.000100214,0.595356,0.0456028,0.0465558,1217,1702,8.18412,-58.2686
0,-678,8.39343,58.5339,0.050174,0.0229749,0.0328701,0.0721468,0.00100209,0.589253,0.0477674,0.044577,1224,1702,8.3934,-58.5339
7,-678,8.41943,59.0392,0.0545787,0.0238334,0.032886,0.0755077,0.00290443,0.566762,0.0493988,0.0472338,1231,1702,8.41941,-59.0392
14,-678,8.17896,59.3721,0,0,0,0,0,0,0,-1,1238,1702,8.17898,-59.3721
21,-678,8.12183,59.7242,0.0593559,0.0199864,0.0280499,0.073939,0.00540328,0.47944,0.0475939,0.0435984,1245,1702,8.1218,-59.7242
28,-678,8.22986,60.1464,0.0571705,0.0147135,0.0223142,0.0667409,0.00514303,0.405164,0.0428825,0.0441441,1252,1702,8.22982,-60.1463
35,-678,8.05078,59.9541,0,0,0,0,0,0,0,-1,1259,1702,8.05074,-59.9541
42,-678,7.91064,59.6514,0,0,0,0,0,0,0,-1,1266,1702,7.91063,-59.6514
49,-678,16.0029,66.2085,0,0,0,0,0,0,0,-1,1273,1702,16.003,-66.2085
56,-678,14.5315,65.5421,0,0,0,0,0,0,0,-1,1280,1702,14.5314,-65.5421
63,-678,13.2037,64.7007,0,0,0,0,0,0,0,-1,1287,1702,13.2037,-64.7007
70,-678,11.8293,63.6904,0,0,0,0,0,0,0,-1,1294,1702,11.8293,-63.6904
77,-678,11.0052,62.5166,0,0,0,0,0,0,0,-1,1301,1702,11.0052,-62.5166
84,-678,10.2408,61.6488,0,0,0,0,0,0,0,-1,1308,1702,10.2409,-61.6488
91,-678,9.78345,60.8654,0,0,0,0,0,0,0,-1,1315,1702,9.78339,-60.8654
98,-678,9.71472,59.8027,0,0,0,0,0,0,0,-1,1322,1702,9.71474,-59.8027
105,-678,9.9176,59.2344,0,0,0,0,0,0,0,-1,1329,1702,9.91762,-59.2343
112,-678,9.87866,58.7633,0.00427846,-0.0220005,-0.0287564,0.022755,-0.0404771,-0.5711,0.0369819,0.0416995,1336,1702,9.8787,-58.7633
119,-678,9.88586,58.3148,0.00886924,-0.0193261,-0.0293241,0.0273084,-0.0377653,-0.561332,0.0377317,0.0433737,1343,1702,9.88581,-58.3148
126,-678,10.0453,57.8118,0.0137105,-0.015984,-0.030362,0.0326611,-0.0349346,-0.557992,0.0390337,0.0448473,1350,1702,10.0453,-57.8118
133,-678,10.2852,57.4535,0,0,0,0,0,0,0,-1,1357,1702,10.2851,-57.4534
140,-678,10.446,57.1479,0,0,0,0,0,0,0,-1,1364,1702,10.4461,-57.1479
147,-678,10.6184,56.8413,0,0,0,0,0,0,0,-1,1371,1702,10.6184,-56.8413
154,-678,10.3881,54.8787,0,0,0,0,0,0,0,-1,1378,1702,10.3881,-54.8787
161,-678,8.81226,34.8624,0,0,0,0,0,0,0,-1,1385,1702,8.81229,-34.8624
168,-678,4.21863,5.25781,0,0,0,0,0,0,0,-1,1392,1702,4.21865,-5.25781
175,-678,5.21899,5.9635,0,0,0,0,0,0,0,-1,1399,1702,5.21894,-5.96346
182,-678,7.31262,6.75122,0,0,0,0,0,0,0,-1,1406,1702,7.3126,-6.75123
189,-678,5.96021,6.36853,0,0,0,0,0,0,0,-1,1413,1702,5.96018,-6.36851
196,-678,5.01599,8.15771,0,0,0,0,0,0,0,-1,1420,1702,5.01596,-8.15767
203,-678,4.64771,13.0559,0,0,0,0,0,0,0,-1,1427,1702,4.64766,-13.0559
210,-678,5.6532,18.5957,0,0,0,0,0,0,0,-1,1434,1702,5.65318,-18.5958
217,-678,6.88049,23.4835,0,0,0,0,0,0,0,-1,1441,1702,6.88047,-23.4835
224,-678,8.521,32.0977,0,0,0,0,0,0,0,-1,1448,1702,8.52098,-32.0977
231,-678,9.96838,42.3734,0,0,0,0,0,0,0,-1,1455,1702,9.96844,-42.3734
238,-678,11.2462,54.8384,0,0,0,0,0,0,0,-1,1462,1702,11.2463,-54.8384
245,-678,11.3632,54.3611,0.00632313,0.00096527,-0.000191265,0.00632995,0.000958451,-0.0356376,0.00393954,0.0393625,1469,1702,11.3632,-54.361
252,-678,11.427,53.8597,0.00649468,0.00202389,-0.000891388,0.00666585,0.00185272,-0.189719,0.00397303,0.0222929,1476,1702,11.427,-53.8597
259,-678,11.4531,53.469,0.0063805,0.00237973,-0.00131829,0.00677582,0.0019844,-0.291343,0.00402236,0.0175167,1483,1702,11.4531,-53.469
266,-678,11.4791,53.0474,0.006078,0.00270012,-0.00163466,0.00673951,0.00203861,-0.384533,0.00399098,0.0130342,1490,1702,11.4791,-53.0474
273,-678,11.4852,52.6213,0.00577544,0.00293174,-0.00178539,0.00663597,0.00207121,-0.449132,0.00392041,0.0118702,1497,1702,11.4853,-52.6214
280,-678,11.4725,52.1963,0.00529292,0.00310775,-0.00187677,0.00637197,0.00202869,-0.521798,0.00375889,0.0123578,1504,1702,11.4726,-52.1963
287,-678,11.5051,51.7214,0.00471408,0.00319178,-0.00189028,0.0059907,0.00191516,-0.593997,0.00353291,0.0119846,1511,1702,11.5051,-51.7214
294,-678,11.4939,51.239,0.00409503,0.00325987,-0.00181384,0.00553873,0.00181617,-0.672259,0.00326032,0.0124432,1518,1702,11.4939,-51.239
301,-678,11.4685,50.7854,0.00338268,0.00333322,-0.001674,0.00503213,0.00168377,-0.778012,0.00295781,0.0122954,1525,1702,11.4686,-50.7854
308,-678,11.4834,50.312,0.0026277,0.00370082,-0.00158893,0.00484134,0.00148719,-0.94823,0.00286359,0.0141906,1532,1702,11.4834,-50.312
315,-678,11.4957,49.8468,0.00188659,0.00427889,-0.00146023,0.00497034,0.00119514,-1.12855,0.00299573,0.0152598,1539,1702,11.4958,-49.8468
322,-678,11.4657,49.4093,0.00116396,0.00480581,-0.00131986,0.00523384,0.000735932,-1.2572,0.00327162,0.0175625,1546,1702,11.4657,-49.4093
329,-678,11.4186,48.9126,0.000515212,0.00534889,-0.00126007,0.00565765,0.000206453,-1.3305,0.00370487,0.0161882,1553,1702,11.4185,-48.9126
336,-678,11.4023,48.3846,1.43328e-05,0.00590496,-0.00126871,0.00616659,-0.0002473,-1.36743,0.00419593,0.0146585,1560,1702,11.4023,-48.3847
343,-678,11.4265,47.8517,-0.000467435,0.00649865,-0.00138466,0.00676379,-0.000732573,-1.3816,0.00477216,0.0149981,1567,1702,11.4265,-47.8517
350,-678,11.4257,47.3184,-0.000858035,0.00687345,-0.00156343,0.00717763,-0.00116222,-1.37864,0.00521584,0.0142709,1574,1702,11.4257,-47.3184
357,-678,11.3805,46.7878,-0.00088163,0.00714209,-0.00192572,0.00758034,-0.00131988,-1.34703,0.00554612,0.0104282,1581,1702,11.3805,-46.7879
364,-678,11.3529,46.2598,-0.000581611,0.00744389,-0.00268553,0.00825961,-0.00139734,-1.2759,0.00602643,0.012105,1588,1702,11.3529,-46.2598
371,-678,11.3073,45.7516,-0.000362122,0.00772342,-0.00351287,0.00903641,-0.00167512,-1.21311,0.00665331,0.0129245,1595,1702,11.3072,-45.7516
378,-678,11.2622,45.1971,-1.72116e-05,0.00780665,-0.00441386,0.00979263,-0.00200319,-1.14799,0.00728849,0.0133042,1602,1702,11.2622,-45.1971
385,-678,11.2386,44.6555,0.000905568,0.00806048,-0.00549933,0.0110436,-0.00207752,-1.07377,0.00814371,0.0131987,1609,1702,11.2387,-44.6555
392,-678,11.2832,44.139,0.0018763,0.00816051,-0.00681036,0.0125187,-0.00248184,-1.00153,0.00928429,0.0218367,1616,1702,11.2832,-44.1391
399,-678,11.2449,43.5571,0.00289899,0.00806545,-0.00833159,0.0142051,-0.00324065,-0.935725,0.0107149,0.0340642,1623,1702,11.2448,-43.5571
406,-678,11.2012,42.932,0.00400343,0.00839323,-0.00973144,0.0161742,-0.00377757,-0.896316,0.0122379,0.0428515,1630,1702,11.2012,-42.932
413,-678,11.4297,42.1616,0.00565843,0.00905488,-0.011074,0.0185601,-0.00384684,-0.861481,0.0138351,0.0490293,1637,1702,11.4296,-42.1616
420,-678,11.8551,41.2942,0,0,0,0,0,0,0,-1,1644,1702,11.8551,-41.2942
427,-678,10.0541,38.9548,0,0,0,0,0,0,0,-1,1651,1702,10.0541,-38.9548
434,-678,10.1094,38.722,0,0,0,0,0,0,0,-1,1658,1702,10.1094,-38.7221
441,-678,11.6007,39.4658,0,0,0,0,0,0,0,-1,1665,1702,11.6007,-39.4658
448,-678,11.344,38.9084,0,0,0,0,0,0,0,-1,1672,1702,11.344,-38.9084
455,-678,5.44678,5.54297,0,0,0,0,0,0,0,-1,1679,1702,5.44676,-5.54294
462,-678,3.86792,2.87402,0,0,0,0,0,0,0,-1,1686,1702,3.86796,-2.87406
469,-678,2.26587,1.98755,0,0,0,0,0,0,0,-1,1693,1702,2.26592,-1.98755
476,-678,0,0,0,0,0,0,0,0,0,-1,1700,1702,0,0
483,-678,0,0,0,0,0,0,0,0,0,-1,1707,1702,0,0
490,-678,0,0,0,0,0,0,0,0,0,-1,1714,1702,0,0
497,-678,0,0,0,0,0,0,0,0,0,-1,1721,1702,0,0
504,-678,0,0,0,0,0,0,0,0,0,-1,1728,1702,0,0
511,-678,0,0,0,0,0,0,0,0,0,-1,1735,1702,0,0
518,-678,0,0,0,0,0,0,0,0,0,-1,1742,1702,0,0
525,-678,0,0,0,0,0,0,0,0,0,-1,1749,1702,0,0
532,-678,0,0,0,0,0,0,0,0,0,-1,1756,1702,0,0
539,-678,0,0,0,0,0,0,0,0,0,-1,1763,1702,0,0
546,-678,0,0,0,0,0,0,0,0,0,-1,1770,1702,0,0
553,-678,0,0,0,0,0,0,0,0,0,-1,1777,1702,0,0
560,-678,0,0,0,0,0,0,0,0,0,-1,1784,1702,0,0
567,-678,0,0,0,0,0,0,0,0,0,-1,1791,1702,0,0
574,-678,0,0,0,0,0,0,0,0,0,-1,1798,1702,0,0
581,-678,0,0,0,0,0,0,0,0,0,-1,1805,1702,0,0
588,-678,0,0,0,0,0,0,0,0,0,-1,1812,1702,0,0
595,-678,0,0,0,0,0,0,0,0,0,-1,1819,1702,0,0
602,-678,0,0,0,0,0,0,0,0,0,-1,1826,1702,0,0
609,-678,0,0,0,0,0,0,0,0,0,-1,1833,1702,0,0
616,-678,0,0,0,0,0,0,0,0,0,-1,1840,1702,0,0
623,-678,0,0,0,0,0,0,0,0,0,-1,1847,1702,0,0
630,-678,0,0,0,0,0,0,0,0,0,-1,1854,1702,0,0
637,-678,0,0,0,0,0,0,0,0,0,-1,1861,1702,0,0
644,-678,0,0,0,0,0,0,0,0,0,-1,1868,1702,0,0
651,-678,0,0,0,0,0,0,0,0,0,-1,1875,1702,0,0
658,-678,0,0,0,0,0,0,0,0,0,-1,1882,1702,0,0
665,-678,0,0,0,0,0,0,0,0,0,-1,1889,1702,0,0
672,-678,0,0,0,0,0,0,0,0,0,-1,1896,1702,0,0
679,-678,0,0,0,0,0,0,0,0,0,-1,1903,1702,0,0
686,-678,0,0,0,0,0,0,0,0,0,-1,1910,1702,0,0
693,-678,0,0,0,0,0,0,0,0,0,-1,1917,1702,0,0
700,-678,0,0,0,0,0,0,0,0,0,-1,1924,1702,0,0
707,-678,0,0,0,0,0,0,0,0,0,-1,1931,1702,0,0
714,-678,0,0,0,0,0,0,0,0,0,-1,1938,1702,0,0
721,-678,0,0,0,0,0,0,0,0,0,-1,1945,1702,0,0
728,-678,0,0,0,0,0,0,0,0,0,-1,1952,1702,0,0
735,-678,0,0,0,0,0,0,0,0,0,-1,1959,1702,0,0
742,-678,0,0,0,0,0,0,0,0,0,-1,1966,1702,0,0
749,-678,0,0,0,0,0,0,0,0,0,-1,1973,1702,0,0
756,-678,0,0,0,0,0,0,0,0,0,-1,1980,1702,0,0
763,-678,0,0,0,0,0,0,0,0,0,-1,1987,1702,0,0
770,-678,0,0,0,0,0,0,0,0,0,-1,1994,1702,0,0
777,-678,0,0,0,0,0,0,0,0,0,-1,2001,1702,0,0
784,-678,0,0,0,0,0,0,0,0,0,-1,2008,1702,0,0
791,-678,0,0,0,0,0,0,0,0,0,-1,2015,1702,0,0
798,-678,0,0,0,0,0,0,0,0,0,-1,2022,1702,0,0
805,-678,0,0,0,0,0,0,0,0,0,-1,2029,1702,0,0
812,-678,0,0,0,0,0,0,0,0,0,-1,2036,1702,0,0
-700,-685,0,0,0,0,0,0,0,0,0,-1,524,1709,0,0
-693,-685,0,0,0,0,0,0,0,0,0,-1,531,1709,0,0
-686,-685,0,0,0,0,0,0,0,0,0,-1,538,1709,0,0
-679,-685,0,0,0,0,0,0,0,0,0,-1,545,1709,0,0
-672,-685,0,0,0,0,0,0,0,0,0,-1,552,1709,0,0
-665,-685,0,0,0,0,0,0,0,0,0,-1,559,1709,0,0
-658,-685,0,0,0,0,0,0,0,0,0,-1,566,1709,0,0
-651,-685,0,0,0,0,0,0,0,0,0,-1,573,1709,0,0
-644,-685,0,0,0,0,0,0,0,0,0,-1,580,1709,0,0
-637,-685,0,0,0,0,0,0,0,0,0,-1,587,1709,0,0
-630,-685,0,0,0,0,0,0,0,0,0,-1,594,1709,0,0
-623,-685,0,0,0,0,0,0,0,0,0,-1,601,1709,0,0
-616,-685,0,0,0,0,0,0,0,0,0,-1,608,1709,0,0
-609,-685,0,0,0,0,0,0,0,0,0,-1,615,1709,0,0
-602,-685,0,0,0,0,0,0,0,0,0,-1,622,1709,0,0
-595,-685,0,0,0,0,0,0,0,0,0,-1,629,1709,0,0
-588,-685,0,0,0,0,0,0,0,0,0,-1,636,1709,0,0
-581,-685,0,0,0,0,0,0,0,0,0,-1,643,1709,0,0
-574,-685,0,0,0,0,0,0,0,0,0,-1,650,1709,0,0
-567,-685,0,0,0,0,0,0,0,0,0,-1,657,1709,0,0
-560,-685,0,0,0,0,0,0,0,0,0,-1,664,1709,0,0
-553,-685,0,0,0,0,0,0,0,0,0,-1,671,1709,0,0
-546,-685,0,0,0,0,0,0,0,0,0,-1,678,1709,0,0
-539,-685,0,0,0,0,0,0,0,0,0,-1,685,1709,0,0
-532,-685,0,0,0,0,0,0,0,0,0,-1,692,1709,0,0
-525,-685,0,0,0,0,0,0,0,0,0,-1,699,1709,0,0
-518,-685,0,0,0,0,0,0,0,0,0,-1,706,1709,0,0
-511,-685,0,0,0,0,0,0,0,0,0,-1,713,1709,0,0
-504,-685,0,0,0,0,0,0,0,0,0,-1,720,1709,0,0
-497,-685,0,0,0,0,0,0,0,0,0,-1,727,1709,0,0
-490,-685,0,0,0,0,0,0,0,0,0,-1,734,1709,0,0
-483,-685,0,0,0,0,0,0,0,0,0,-1,741,1709,0,0
-476,-685,0,0,0,0,0,0,0,0,0,-1,748,1709,0,0
-469,-685,0,0,0,0,0,0,0,0,0,-1,755,1709,0,0
-462,-685,0,0,0,0,0,0,0,0,0,-1,762,1709,0,0
-455,-685,0,0,0,0,0,0,0,0,0,-1,769,1709,0,0
-448,-685,0,0,0,0,0,0,0,0,0,-1,776,1709,0,0
-441,-685,0,0,0,0,0,0,0,0,0,-1,783,1709,0,0
-434,-685,0,0,0,0,0,0,0,0,0,-1,790,1709,0,0
-427,-685,0,0,0,0,0,0,0,0,0,-1,797,1709,0,0
-420,-685,0,0,0,0,0,0,0,0,0,-1,804,1709,0,0
-413,-685,0,0,0,0,0,0,0,0,0,-1,811,1709,0,0
-406,-685,0,0,0,0,0,0,0,0,0,-1,818,1709,0,0
-399,-685,0,0,0,0,0,0,0,0,0,-1,825,1709,0,0
-392,-685,0,0,0,0,0,0,0,0,0,-1,832,1709,0,0
-385,-685,0,0,0,0,0,0,0,0,0,-1,839,1709,0,0
-378,-685,0,0,0,0,0,0,0,0,0,-1,846,1709,0,0
-371,-685,0,0,0,0,0,0,0,0,0,-1,853,1709,0,0
-364,-685,0,0,0,0,0,0,0,0,0,-1,860,1709,0,0
-357,-685,0,0,0,0,0,0,0,0,0,-1,867,1709,0,0
-350,-685,0,0,0,0,0,0,0,0,0,-1,874,1709,0,0
-343,-685,-5.98505,6.56335,0,0,0,0,0,0,0,-1,881,1709,-5.98505,-6.56329
-336,-685,-6.51312,5.10571,0,0,0,0,0,0,0,-1,888,1709,-6.51311,-5.10575
-329,-685,9.98907,36.2474,0,0,0,0,0,0,0,-1,895,1709,9.98909,-36.2475
-322,-685,3.83191,16.7219,0,0,0,0,0,0,0,-1,902,1709,3.8319,-16.7219
-315,-685,5.15784,21.4388,0,0,0,0,0,0,0,-1,909,1709,5.15783,-21.4389
-308,-685,9.87054,40.5947,0,0,0,0,0,0,0,-1,916,1709,9.87052,-40.5947
-301,-685,10.3791,40.9833,0,0,0,0,0,0,0,-1,923,1709,10.3791,-40.9833
-294,-685,10.7231,42.4034,0,0,0,0,0,0,0,-1,930,1709,10.7231,-42.4034
-287,-685,10.2596,42.9369,0,0,0,0,0,0,0,-1,937,1709,10.2596,-42.9369
-280,-685,9.60223,43.4923,0,0,0,0,0,0,0,-1,944,1709,9.60225,-43.4923
-273,-685,8.03345,42.9617,0,0,0,0,0,0,0,-1,951,1709,8.03343,-42.9616
-266,-685,7.76862,43.7343,0,0,0,0,0,0,0,-1,958,1709,7.76859,-43.7343
-259,-685,7.47101,44.5388,-0.00984206,0.00795102,-0.00242852,0.00827653,-0.0101676,-1.43756,0.0106673,0.0431431,965,1709,7.47103,-44.5389
-252,-685,7.49261,44.9135,-0.00757508,0.00828616,-0.000175815,0.00828811,-0.00757703,-1.55971,0.00916281,0.0398784,972,1709,7.4926,-44.9135
-245,-685,7.49353,45.5061,-0.005865,0.0082318,0.00132754,0.00835573,-0.00598893,1.47771,0.00831938,0.0386361,979,1709,7.49354,-45.5062
-238,-685,7.46655,46.1321,-0.00465872,0.00787039,0.00218558,0.0082407,-0.00502903,1.40296,0.00773572,0.0291922,986,1709,7.46654,-46.1321
-231,-685,7.3822,46.7231,-0.00402526,0.00697351,0.00256991,0.00754435,-0.0045961,1.35222,0.00707785,0.0179177,993,1709,7.38221,-46.7231
-224,-685,7.34015,47.2122,-0.00285827,0.00616872,0.00333051,0.0072645,-0.00395405,1.25294,0.00657036,0.015566,1000,1709,7.34017,-47.2122
-217,-685,7.31653,47.7511,-0.00221265,0.00484028,0.00308137,0.00599685,-0.00336922,1.21173,0.00547798,0.0118918,1007,1709,7.31651,-47.7511
-210,-685,7.29419,48.3214,-0.00195805,0.00376217,0.00262377,0.00478335,-0.00297923,1.19963,0.0045219,0.0160238,1014,1709,7.29416,-48.3214
-203,-685,7.27307,48.834,-0.00175607,0.00307966,0.00224146,0.0039588,-0.00263521,1.19702,0.00383253,0.0175436,1021,1709,7.27302,-48.834
-196,-685,7.23877,49.3472,-0.00149372,0.00239947,0.00194572,0.00320516,-0.00229941,1.17821,0.00319238,0.0154802,1028,1709,7.23873,-49.3472
-189,-685,7.20471,49.8153,-0.00120223,0.00183763,0.00169817,0.00259673,-0.00196133,1.15043,0.00264011,0.0103827,1035,1709,7.20477,-49.8153
-182,-685,7.17554,50.3129,-0.000711705,0.00159264,0.00145298,0.00229482,-0.00141389,1.12062,0.00216127,0.0139015,1042,1709,7.1756,-50.3129
-175,-685,7.14941,50.821,1.77505e-05,0.0013517,0.00115209,0.00201596,-0.000646505,1.04779,0.00160352,0.0142762,1049,1709,7.14936,-50.821
-168,-685,7.13379,51.297,0.000644518,0.00205612,0.00110575,0.00266213,3.85077e-05,1.06945,0.00176206,0.0109722,1056,1709,7.13375,-51.297
-161,-685,7.13672,51.7557,0.00119922,0.00271724,0.00114734,0.0033339,0.000582552,1.07762,0.00205611,0.0116493,1063,1709,7.13668,-51.7558
-154,-685,7.13843,52.2068,0.00184807,0.00327681,0.00116302,0.00392733,0.00119755,1.06081,0.00232426,0.0110172,1070,1709,7.13843,-52.2068
-147,-685,7.11536,52.6373,0.00249951,0.00379667,0.00106129,0.00439188,0.00190431,1.05968,0.00254309,0.01011,1077,1709,7.11532,-52.6373
-140,-685,7.10193,53.0375,0.00304783,0.00423292,0.00088966,0.0047093,0.00257145,1.07918,0.00272276,0.0118754,1084,1709,7.10194,-53.0375
-133,-685,7.13135,53.4459,0.00350737,0.00467459,0.000720527,0.00501821,0.00316375,1.1258,0.00292995,0.0112688,1091,1709,7.13133,-53.4459
-126,-685,7.16052,53.8728,0.00385067,0.00489559,0.000480193,0.00508274,0.00366352,1.19916,0.00302838,0.00960694,1098,1709,7.1605,-53.8728
-119,-685,7.19348,54.2988,0.00427467,0.0048099,0.000296788,0.00494191,0.00414266,1.15227,0.00306315,0.0136593,1105,1709,7.19353,-54.2988
-112,-685,7.20325,54.6685,0.00465584,0.00458654,8.37035e-05,0.00471178,0.0045306,0.589157,0.00308257,0.0142656,1112,1709,7.20325,-54.6685
-105,-685,7.20032,55.0197,0.00466584,0.00413207,-0.000115147,0.00468962,0.00410829,-0.203661,0.00295178,0.0165849,1119,1709,7.20028,-55.0197
-98,-685,7.28662,55.3297,0.004549,0.00365882,-0.000564077,0.00482245,0.00338538,-0.45138,0.00285898,0.0238997,1126,1709,7.28664,-55.3298
-91,-685,7.26917,55.583,0.00487241,0.00285467,-0.00130872,0.00551598,0.0022111,-0.457032,0.00320545,0.0456593,1133,1709,7.26912,-55.583
-84,-685,7.26306,55.9994,0,0,0,0,0,0,0,-1,1140,1709,7.26309,-55.9994
-77,-685,7.33728,56.4355,0,0,0,0,0,0,0,-1,1147,1709,7.33733,-56.4356
-70,-685,7.49622,56.7686,0,0,0,0,0,0,0,-1,1154,1709,7.49623,-56.7685
-63,-685,6.03015,29.7728,0,0,0,0,0,0,0,-1,1161,1709,6.0302,-29.7728
-56,-685,3.93909,15.8704,0,0,0,0,0,0,0,-1,1168,1709,3.93905,-15.8704
-49,-685,3.07471,9.86011,0,0,0,0,0,0,0,-1,1175,1709,3.07467,-9.86009
-42,-685,2.70618,7.54504,0,0,0,0,0,0,0,-1,1182,1709,2.7062,-7.54504
-35,-685,2.95264,7.91516,0,0,0,0,0,0,0,-1,1189,1709,2.95262,-7.91517
-28,-685,8.11353,52.4509,0,0,0,0,0,0,0,-1,1196,1709,8.1135,-52.451
-21,-685,7.97473,58.1753,0,0,0,0,0,0,0,-1,1203,1709,7.97475,-58.1753
-14,-685,8.07153,58.254,0.033688,0.0129776,0.0228073,0.0483808,-0.00171521,0.572297,0.0328405,0.0324869,1210,1709,8.07149,-58.254
-7,-685,8.15186,58.4596,0.0363248,0.0140579,0.0245026,0.0521048,-0.00172208,0.572154,0.0353246,0.046079,1217,1709,8.15191,-58.4596
0,-685,8.06238,58.653,0,0,0,0,0,0,0,-1,1224,1709,8.06238,-58.6529
7,-685,8.12769,58.8505,0,0,0,0,0,0,0,-1,1231,1709,8.12765,-58.8504
14,-685,8.27393,59.2489,0,0,0,0,0,0,0,-1,1238,1709,8.27388,-59.2489
21,-685,8.67371,59.4207,0,0,0,0,0,0,0,-1,1245,1709,8.67373,-59.4207
28,-685,8.71094,59.1582,0,0,0,0,0,0,0,-1,1252,1709,8.71098,-59.1582
35,-685,8.75037,59.277,0,0,0,0,0,0,0,-1,1259,1709,8.75034,-59.277
42,-685,8.90015,59.6531,0,0,0,0,0,0,0,-1,1266,1709,8.90018,-59.6531
49,-685,9.09534,59.7274,0,0,0,0,0,0,0,-1,1273,1709,9.09533,-59.7275
56,-685,13.948,65.3591,0,0,0,0,0,0,0,-1,1280,1709,13.948,-65.3592
63,-685,12.6644,64.5419,0,0,0,0,0,0,0,-1,1287,1709,12.6645,-64.5418
70,-685,9.33289,59.8354,0,0,0,0,0,0,0,-1,1294,1709,9.33287,-59.8354
77,-685,9.64722,59.6558,0,0,0,0,0,0,0,-1,1301,1709,9.64722,-59.6557
84,-685,9.22375,58.4044,0,0,0,0,0,0,0,-1,1308,1709,9.22371,-58.4044
91,-685,10.0275,60.73,0,0,0,0,0,0,0,-1,1315,1709,10.0275,-60.73
98,-685,9.57263,59.4373,0.00166692,-0.0198946,-0.0233429,0.0165983,-0.0348261,-0.569069,0.0303052,0.0417414,1322,1709,9.57268,-59.4372
105,-685,10.0748,58.4871,0.00216569,-0.0189922,-0.0229796,0.0168845,-0.033711,-0.569679,0.0297449,0.0446169,1329,1709,10.0748,-58.4871
112,-685,9.77783,58.9186,0,0,0,0,0,0,0,-1,1336,1709,9.77777,-58.9186
119,-685,9.96338,58.5111,0.00714193,-0.0159313,-0.0229788,0.0213175,-0.0301069,-0.552752,0.0298341,0.0447391,1343,1709,9.96342,-58.5111
126,-685,10.1133,58.0187,0.010677,-0.013774,-0.0235407,0.0249775,-0.0280745,-0.5459,0.0306469,0.0479209,1350,1709,10.1133,-58.0187
133,-685,10.1852,58.3036,0,0,0,0,0,0,0,-1,1357,1709,10.1852,-58.3036
140,-685,10.6425,57.1099,0,0,0,0,0,0,0,-1,1364,1709,10.6425,-57.1099
147,-685,10.2471,57.4418,0,0,0,0,0,0,0,-1,1371,1709,10.2471,-57.4417
154,-685,10.0796,56.0078,0,0,0,0,0,0,0,-1,1378,1709,10.0796,-56.0079
161,-685,10.4932,55.8827,0,0,0,0,0,0,0,-1,1385,1709,10.4932,-55.8827
168,-685,4.37524,10.8778,0,0,0,0,0,0,0,-1,1392,1709,4.37525,-10.8778
175,-685,3.97522,8.94324,0,0,0,0,0,0,0,-1,1399,1709,3.97519,-8.94328
182,-685,3.98218,9.19739,0,0,0,0,0,0,0,-1,1406,1709,3.98221,-9.1974
189,-685,4.53479,15.2343,0,0,0,0,0,0,0,-1,1413,1709,4.53474,-15.2343
196,-685,10.705,56.8871,0,0,0,0,0,0,0,-1,1420,1709,10.7049,-56.8871
203,-685,10.7941,56.4017,0,0,0,0,0,0,0,-1,1427,1709,10.7941,-56.4017
210,-685,11.0277,56.005,0,0,0,0,0,0,0,-1,1434,1709,11.0278,-56.005
217,-685,10.9159,55.5239,0,0,0,0,0,0,0,-1,1441,1709,10.9159,-55.524
224,-685,10.8286,55.2535,0,0,0,0,0,0,0,-1,1448,1709,10.8286,-55.2536
231,-685,10.8403,55.2792,0,0,0,0,0,0,0,-1,1455,1709,10.8403,-55.2792
238,-685,11.0177,54.6205,0.0049161,0.000673541,0.000167019,0.00492267,0.000666976,0.0392864,0.00308359,0.0354044,1462,1709,11.0176,-54.6205
245,-685,10.9867,54.2017,0.00465467,0.000938267,-0.000192251,0.00466459,0.000928348,-0.0515468,0.00285111,0.0208753,1469,1709,10.9867,-54.2017
252,-685,11.0219,53.8573,0.00458704,0.00159481,-0.000710932,0.00474736,0.00143448,-0.2218,0.0028115,0.0156694,1476,1709,11.0218,-53.8572
259,-685,11.0488,53.4709,0.00436217,0.00183091,-0.00106006,0.00474747,0.00144562,-0.348619,0.00280992,0.0117276,1483,1709,11.0489,-53.471
266,-685,11.0673,53.0552,0.00401923,0.00202094,-0.00131733,0.00467346,0.00136671,-0.46095,0.00277463,0.0130961,1490,1709,11.0672,-53.0552
273,-685,11.0544,52.6089,0.00366668,0.00218125,-0.00144813,0.00455145,0.00129648,-0.548449,0.00270766,0.0160723,1497,1709,11.0545,-52.6089
280,-685,11.0449,52.1652,0.00317261,0.00228566,-0.00153441,0.00432635,0.00113192,-0.644723,0.0025907,0.0178401,1504,1709,11.045,-52.1651
287,-685,11.0488,51.7382,0.00258387,0.00238431,-0.00154604,0.00403335,0.000934829,-0.753173,0.00243779,0.0128421,1511,1709,11.0488,-51.7381
294,-685,11.0381,51.2832,0.00200598,0.00260072,-0.00144045,0.00377418,0.000832523,-0.88719,0.00228963,0.010632,1518,1709,11.0381,-51.2832
301,-685,11.0251,50.8229,0.00143034,0.00288135,-0.00134335,0.00368258,0.000629107,-1.03299,0.00227454,0.0134891,1525,1709,11.0251,-50.8229
308,-685,11.0286,50.3433,0.000780087,0.00351275,-0.00131913,0.00404562,0.00024722,-1.18689,0.00261857,0.0155097,1532,1709,11.0285,-50.3432
315,-685,11.032,49.8699,0.000157182,0.004479,-0.00124663,0.00481281,-0.000176624,-1.30917,0.003269,0.0144189,1539,1709,11.032,-49.8699
322,-685,10.967,49.3875,-0.000426586,0.00536541,-0.00116762,0.00559193,-0.000653108,-1.37917,0.00396363,0.0234956,1546,1709,10.9671,-49.3874
329,-685,10.9382,48.8926,-0.000932112,0.00634489,-0.00117156,0.00652885,-0.00111608,-1.41504,0.00476833,0.0214967,1553,1709,10.9382,-48.8926
336,-685,10.9188,48.3721,-0.0012883,0.00739565,-0.00128431,0.00758161,-0.00147426,-1.427,0.00561077,0.0144,1560,1709,10.9188,-48.3721
343,-685,10.899,47.8612,-0.00164744,0.00846894,-0.00150592,0.00868835,-0.00186685,-1.42612,0.00650444,0.0135838,1567,1709,10.8991,-47.8612
350,-685,10.8723,47.3577,-0.0019311,0.00929381,-0.00177362,0.00956739,-0.00220468,-1.41775,0.00722614,0.0140736,1574,1709,10.8723,-47.3576
357,-685,10.8553,46.8384,-0.00175634,0.0100404,-0.00229377,0.0104707,-0.00218665,-1.38535,0.00781206,0.0110508,1581,1709,10.8553,-46.8384
364,-685,10.8282,46.3258,-0.00124664,0.0107225,-0.00325514,0.0115505,-0.00207463,-1.32171,0.00847693,0.0128928,1588,1709,10.8283,-46.3258
371,-685,10.8309,45.8008,-0.000891772,0.0113207,-0.00428596,0.0126747,-0.00224581,-1.2648,0.00928933,0.0230254,1595,1709,10.8309,-45.8008
378,-685,10.8508,45.2119,-0.000380978,0.0116206,-0.00542201,0.0137073,-0.00246769,-1.20341,0.0100621,0.0255319,1602,1709,10.8508,-45.2119
385,-685,10.8064,44.6362,0.000821657,0.0120815,-0.00680923,0.0152868,-0.00238367,-1.13084,0.0110716,0.0355003,1609,1709,10.8064,-44.6362
392,-685,10.916,43.9836,0.00219823,0.0122601,-0.00852219,0.0171255,-0.00266721,-1.05204,0.012402,0.0351041,1616,1709,10.9161,-43.9836
399,-685,10.7987,43.5646,0.00364112,0.0120242,-0.0106102,0.0192408,-0.00357544,-0.973514,0.0141702,0.0421605,1623,1709,10.7987,-43.5645
406,-685,10.6392,42.9783,0,0,0,0,0,0,0,-1,1630,1709,10.6392,-42.9783
413,-685,10.8662,42.3104,0,0,0,0,0,0,0,-1,1637,1709,10.8662,-42.3105
420,-685,10.3047,40.3569,0,0,0,0,0,0,0,-1,1644,1709,10.3047,-40.3569
427,-685,10.7286,38.6702,0,0,0,0,0,0,0,-1,1651,1709,10.7286,-38.6702
434,-685,4.87769,8.91418,0,0,0,0,0,0,0,-1,1658,1709,4.87768,-8.91413
441,-685,5.62,8.75549,0,0,0,0,0,0,0,-1,1665,1709,5.61996,-8.75545
448,-685,6.4043,8.58972,0,0,0,0,0,0,0,-1,1672,1709,6.40435,-8.58971
455,-685,2.31958,4.09802,0,0,0,0,0,0,0,-1,1679,1709,2.31957,-4.09803
462,-685,0,0,0,0,0,0,0,0,0,-1,1686,1709,0,0
469,-685,0,0,0,0,0,0,0,0,0,-1,1693,1709,0,0
476,-685,0,0,0,0,0,0,0,0,0,-1,1700,1709,0,0
483,-685,0,0,0,0,0,0,0,0,0,-1,1707,1709,0,0
490,-685,0,0,0,0,0,0,0,0,0,-1,1714,1709,0,0
497,-685,0,0,0,0,0,0,0,0,0,-1,1721,1709,0,0
504,-685,0,0,0,0,0,0,0,0,0,-1,1728,1709,0,0
511,-685,0,0,0,0,0,0,0,0,0,-1,1735,1709,0,0
518,-685,0,0,0,0,0,0,0,0,0,-1,1742,1709,0,0
525,-685,0,0,0,0,0,0,0,0,0,-1,1749,1709,0,0
532,-685,0,0,0,0,0,0,0,0,0,-1,1756,1709,0,0
539,-685,0,0,0,0,0,0,0,0,0,-1,1763,1709,0,0
546,-685,0,0,0,0,0,0,0,0,0,-1,1770,1709,0,0
553,-685,0,0,0,0,0,0,0,0,0,-1,1777,1709,0,0
560,-685,0,0,0,0,0,0,0,0,0,-1,1784,1709,0,0
567,-685,0,0,0,0,0,0,0,0,0,-1,1791,1709,0,0
574,-685,0,0,0,0,0,0,0,0,0,-1,1798,1709,0,0
581,-685,0,0,0,0,0,0,0,0,0,-1,1805,1709,0,0
588,-685,0,0,0,0,0,0,0,0,0,-1,1812,1709,0,0
595,-685,0,0,0,0,0,0,0,0,0,-1,1819,1709,0,0
602,-685,0,0,0,0,0,0,0,0,0,-1,1826,1709,0,0
609,-685,0,0,0,0,0,0,0,0,0,-1,1833,1709,0,0
616,-685,0,0,0,0,0,0,0,0,0,-1,1840,1709,0,0
623,-685,0,0,0,0,0,0,0,0,0,-1,1847,1709,0,0
630,-685,0,0,0,0,0,0,0,0,0,-1,1854,1709,0,0
637,-685,0,0,0,0,0,0,0,0,0,-1,1861,1709,0,0
644,-685,0,0,0,0,0,0,0,0,0,-1,1868,1709,0,0
651,-685,0,0,0,0,0,0,0,0,0,-1,1875,1709,0,0
658,-685,0,0,0,0,0,0,0,0,0,-1,1882,1709,0,0
665,-685,0,0,0,0,0,0,0,0,0,-1,1889,1709,0,0
672,-685,0,0,0,0,0,0,0,0,0,-1,1896,1709,0,0
679,-685,0,0,0,0,0,0,0,0,0,-1,1903,1709,0,0
686,-685,0,0,0,0,0,0,0,0,0,-1,1910,1709,0,0
693,-685,0,0,0,0,0,0,0,0,0,-1,1917,1709,0,0
700,-685,0,0,0,0,0,0,0,0,0,-1,1924,1709,0,0
707,-685,0,0,0,0,0,0,0,0,0,-1,1931,1709,0,0
714,-685,0,0,0,0,0,0,0,0,0,-1,1938,1709,0,0
721,-685,0,0,0,0,0,0,0,0,0,-1,1945,1709,0,0
728,-685,0,0,0,0,0,0,0,0,0,-1,1952,1709,0,0
735,-685,0,0,0,0,0,0,0,0,0,-1,1959,1709,0,0
742,-685,0,0,0,0,0,0,0,0,0,-1,1966,1709,0,0
749,-685,0,0,0,0,0,0,0,0,0,-1,1973,1709,0,0
756,-685,0,0,0,0,0,0,0,0,0,-1,1980,1709,0,0
763,-685,0,0,0,0,0,0,0,0,0,-1,1987,1709,0,0
770,-685,0,0,0,0,0,0,0,0,0,-1,1994,1709,0,0
777,-685,0,0,0,0,0,0,0,0,0,-1,2001,1709,0,0
784,-685,0,0,0,0,0,0,0,0,0,-1,2008,1709,0,0
791,-685,0,0,0,0,0,0,0,0,0,-1,2015,1709,0,0
798,-685,0,0,0,0,0,0,0,0,0,-1,2022,1709,0,0
805,-685,0,0,0,0,0,0,0,0,0,-1,2029,1709,0,0
812,-685,0,0,0,0,0,0,0,0,0,-1,2036,1709,0,0
-700,-692,0,0,0,0,0,0,0,0,0,-1,524,1716,0,0
-693,-692,0,0,0,0,0,0,0,0,0,-1,531,1716,0,0
-686,-692,0,0,0,0,0,0,0,0,0,-1,538,1716,0,0
-679,-692,0,0,0,0,0,0,0,0,0,-1,545,1716,0,0
-672,-692,0,0,0,0,0,0,0,0,0,-1,552,1716,0,0
-665,-692,0,0,0,0,0,0,0,0,0,-1,559,1716,0,0
-658,-692,0,0,0,0,0,0,0,0,0,-1,566,1716,0,0
-651,-692,0,0,0,0,0,0,0,0,0,-1,573,1716,0,0
-644,-692,0,0,0,0,0,0,0,0,0,-1,580,1716,0,0
-637,-692,0,0,0,0,0,0,0,0,0,-1,587,1716,0,0
-630,-692,0,0,0,0,0,0,0,0,0,-1,594,1716,0,0
-623,-692,0,0,0,0,0,0,0,0,0,-1,601,1716,0,0
-616,-692,0,0,0,0,0,0,0,0,0,-1,608,1716,0,0
-609,-692,0,0,0,0,0,0,0,0,0,-1,615,1716,0,0
-602,-692,0,0,0,0,0,0,0,0,0,-1,622,1716,0,0
-595,-692,0,0,0,0,0,0,0,0,0,-1,629,1716,0,0
-588,-692,0,0,0,0,0,0,0,0,0,-1,636,1716,0,0
-581,-692,0,0,0,0,0,0,0,0,0,-1,643,1716,0,0
-574,-692,0,0,0,0,0,0,0,0,0,-1,650,1716,0,0
-567,-692,0,0,0,0,0,0,0,0,0,-1,657,1716,0,0
-560,-692,0,0,0,0,0,0,0,0,0,-1,664,1716,0,0
-553,-692,0,0,0,0,0,0,0,0,0,-1,671,1716,0,0
-546,-692,0,0,0,0,0,0,0,0,0,-1,678,1716,0,0
-539,-692,0,0,0,0,0,0,0,0,0,-1,685,1716,0,0
-532,-692,0,0,0,0,0,0,0,0,0,-1,692,1716,0,0
-525,-692,0,0,0,0,0,0,0,0,0,-1,699,1716,0,0
-518,-692,0,0,0,0,0,0,0,0,0,-1,706,1716,0,0
-511,-692,0,0,0,0,0,0,0,0,0,-1,713,1716,0,0
-504,-692,0,0,0,0,0,0,0,0,0,-1,720,1716,0,0
-497,-692,0,0,0,0,0,0,0,0,0,-1,727,1716,0,0
-490,-692,0,0,0,0,0,0,0,0,0,-1,734,1716,0,0
-483,-692,0,0,0,0,0,0,0,0,0,-1,741,1716,0,0
-476,-692,0,0,0,0,0,0,0,0,0,-1,748,1716,0,0
-469,-692,0,0,0,0,0,0,0,0,0,-1,755,1716,0,0
-462,-692,0,0,0,0,0,0,0,0,0,-1,762,1716,0,0
-455,-692,0,0,0,0,0,0,0,0,0,-1,769,1716,0,0
-448,-692,0,0,0,0,0,0,0,0,0,-1,776,1716,0,0
-441,-692,0,0,0,0,0,0,0,0,0,-1,783,1716,0,0
-434,-692,0,0,0,0,0,0,0,0,0,-1,790,1716,0,0
-427,-692,0,0,0,0,0,0,0,0,0,-1,797,1716,0,0
-420,-692,0,0,0,0,0,0,0,0,0,-1,804,1716,0,0
-413,-692,0,0,0,0,0,0,0,0,0,-1,811,1716,0,0
-406,-692,0,0,0,0,0,0,0,0,0,-1,818,1716,0,0
-399,-692,0,0,0,0,0,0,0,0,0,-1,825,1716,0,0
-392,-692,0,0,0,0,0,0,0,0,0,-1,832,1716,0,0
-385,-692,0,0,0,0,0,0,0,0,0,-1,839,1716,0,0
-378,-692,0,0,0,0,0,0,0,0,0,-1,846,1716,0,0
-371,-692,0,0,0,0,0,0,0,0,0,-1,853,1716,0,0
-364,-692,0,0,0,0,0,0,0,0,0,-1,860,1716,0,0
-357,-692,0,0,0,0,0,0,0,0,0,-1,867,1716,0,0
-350,-692,0,0,0,0,0,0,0,0,0,-1,874,1716,0,0
-343,-692,0,0,0,0,0,0,0,0,0,-1,881,1716,0,0
-336,-692,0,0,0,0,0,0,0,0,0,-1,888,1716,0,0
-329,-692,3.03107,4.10266,0,0,0,0,0,0,0,-1,895,1716,3.03105,-4.10267
-322,-692,4.43713,18.5242,0,0,0,0,0,0,0,-1,902,1716,4.43711,-18.5241
-315,-692,5.38965,17.975,0,0,0,0,0,0,0,-1,909,1716,5.38963,-17.975
-308,-692,5.86938,17.4392,0,0,0,0,0,0,0,-1,916,1716,5.86937,-17.4392
-301,-692,12.015,41.2892,0,0,0,0,0,0,0,-1,923,1716,12.015,-41.2892
-294,-692,8.41125,35.4742,0,0,0,0,0,0,0,-1,930,1716,8.41125,-35.4742
-287,-692,11.6848,42.9779,0,0,0,0,0,0,0,-1,937,1716,11.6847,-42.9779
-280,-692,10.809,43.7076,0,0,0,0,0,0,0,-1,944,1716,10.809,-43.7076
-273,-692,10.3146,44.2233,0,0,0,0,0,0,0,-1,951,1716,10.3146,-44.2232
-266,-692,7.96649,42.6498,0,0,0,0,0,0,0,-1,958,1716,7.96652,-42.6498
-259,-692,8.05951,44.7164,0,0,0,0,0,0,0,-1,965,1716,8.05954,-44.7165
-252,-692,7.99982,44.8303,0,0,0,0,0,0,0,-1,972,1716,7.99982,-44.8303
-245,-692,8.08453,45.1566,-0.0068329,0.0115883,0.00241623,0.0118999,-0.00714456,1.44252,0.011109,0.0488257,979,1716,8.08453,-45.1567
-238,-692,8.22546,45.7711,-0.00546393,0.0108091,0.00342524,0.0115007,-0.00615551,1.37157,0.0103484,0.0466569,986,1716,8.22544,-45.7711
-231,-692,8.10791,46.7079,-0.00492139,0.00933237,0.00375716,0.0102621,-0.0058511,1.32822,0.00941843,0.0404331,993,1716,8.10788,-46.7079
-224,-692,7.85846,47.2886,-0.00371285,0.00795503,0.00449835,0.00948791,-0.00524573,1.24237,0.0086232,0.0196651,1000,1716,7.85848,-47.2886
-217,-692,7.80469,47.7784,-0.00314681,0.00610465,0.00405965,0.00763344,-0.0046756,1.21064,0.0071747,0.0129041,1007,1716,7.80469,-47.7784
-210,-692,7.78015,48.3011,-0.00310385,0.00461525,0.00342759,0.00591753,-0.00440613,1.2077,0.00598162,0.0142114,1014,1716,7.78018,-48.3011
-203,-692,7.76233,48.8225,-0.00312334,0.00370079,0.00289079,0.00476073,-0.00418328,1.21936,0.00516742,0.0173334,1021,1716,7.76227,-48.8225
-196,-692,7.71362,49.361,-0.00302835,0.00278976,0.00245003,0.00368403,-0.00392262,1.22082,0.00439242,0.0201077,1028,1716,7.71362,-49.3609
-189,-692,7.65918,49.8198,-0.00283487,0.00200862,0.00212682,0.00280995,-0.00363619,1.21047,0.00373186,0.0103052,1035,1716,7.65916,-49.8198
-182,-692,7.63208,50.3215,-0.0023724,0.00160622,0.0018567,0.00233806,-0.00310424,1.19533,0.00315248,0.0146999,1042,1716,7.63202,-50.3215
-175,-692,7.60217,50.8364,-0.00166685,0.00113927,0.00145219,0.00175548,-0.00228305,1.1695,0.00233827,0.0154177,1049,1716,7.6022,-50.8365
-168,-692,7.60449,51.3125,-0.00107864,0.00177541,0.00135548,0.00231656,-0.0016198,1.19095,0.00228449,0.0119285,1056,1716,7.6045,-51.3125
-161,-692,7.61536,51.7787,-0.00055071,0.00240097,0.00142466,0.00297641,-0.00112615,1.18692,0.0024476,0.0137269,1063,1716,7.61531,-51.7787
-154,-692,7.5929,52.2412,0.000121626,0.00282818,0.00148587,0.00348467,-0.000534862,1.15476,0.00252039,0.0147268,1070,1716,7.59289,-52.2412
-147,-692,7.5625,52.6553,0.000834622,0.00315703,0.00137559,0.00379601,0.000195646,1.13594,0.00246804,0.0151124,1077,1716,7.56252,-52.6553
-140,-692,7.52722,53.0635,0.00145933,0.00339115,0.00120286,0.00396792,0.000882556,1.12368,0.00240567,0.0115327,1084,1716,7.52724,-53.0635
-133,-692,7.53406,53.4692,0.00199144,0.00361269,0.00103681,0.00411815,0.00148597,1.11718,0.00240812,0.0102243,1091,1716,7.53409,-53.4692
-126,-692,7.56189,53.885,0.00242803,0.00373698,0.0008364,0.00414453,0.00202048,1.11739,0.0023931,0.00818884,1098,1716,7.56189,-53.885
-119,-692,7.55957,54.3008,0.00285297,0.00362828,0.000631658,0.00398176,0.0024995,1.06062,0.00232374,0.0120165,1105,1716,7.55956,-54.3008
-112,-692,7.58997,54.6653,0.00324419,0.00341209,0.000444514,0.00378051,0.00287577,0.878726,0.00227942,0.0119195,1112,1716,7.58993,-54.6653
-105,-692,7.60803,55.0249,0.00341001,0.00298618,0.000237176,0.00351615,0.00288004,0.420795,0.00216347,0.017609,1119,1716,7.60808,-55.025
-98,-692,7.66431,55.3539,0.00350441,0.00251185,-0.00010862,0.00351616,0.0025001,-0.107735,0.00208946,0.0200538,1126,1716,7.66426,-55.3539
-91,-692,7.65198,55.6907,0.00385957,0.00190467,-0.000627046,0.00404341,0.00172083,-0.285192,0.00234306,0.0212264,1133,1716,7.65202,-55.6907
-84,-692,7.7085,56.0183,0.00460661,0.00125319,-0.000888722,0.00482757,0.00103223,-0.243695,0.00293544,0.0246077,1140,1716,7.70845,-56.0183
-77,-692,7.69507,56.3912,0.00543142,0.000594482,-0.00092979,0.005604,0.000421908,-0.183516,0.0036036,0.0197661,1147,1716,7.69512,-56.3912
-70,-692,7.76855,56.6853,0.00570744,-0.000285782,-0.00153989,0.00607995,-0.000658289,-0.237344,0.0042896,0.03487,1154,1716,7.7686,-56.6853
-63,-692,7.81091,56.9014,0,0,0,0,0,0,0,-1,1161,1716,7.81096,-56.9014
-56,-692,7.80469,57.16,0,0,0,0,0,0,0,-1,1168,1716,7.80465,-57.1601
-49,-692,7.79333,57.4856,0,0,0,0,0,0,0,-1,1175,1716,7.79337,-57.4856
-42,-692,7.83472,57.9794,0,0,0,0,0,0,0,-1,1182,1716,7.83471,-57.9794
-35,-692,8.08105,58.2855,0,0,0,0,0,0,0,-1,1189,1716,8.08105,-58.2855
-28,-692,8.19238,58.2949,0,0,0,0,0,0,0,-1,1196,1716,8.19238,-58.295
-21,-692,8.14417,58.2571,0.0220087,0.00484445,0.0135065,0.029429,-0.00257589,0.502375,0.0205319,0.0365766,1203,1716,8.14422,-58.257
-14,-692,8.23914,58.407,0.024533,0.00648448,0.0158289,0.0337293,-0.00271185,0.526321,0.0234425,0.0187308,1210,1716,8.23912,-58.407
-7,-692,8.25964,58.6079,0.0269644,0.00757994,0.0175282,0.0373016,-0.00275728,0.532846,0.0258359,0.0174055,1217,1716,8.25967,-58.608
0,-692,8.28394,58.7626,0.0293857,0.0090957,0.0186138,0.0404397,-0.00195824,0.53589,0.0276357,0.0241244,1224,1716,8.28394,-58.7626
7,-692,8.40479,58.8566,0.0325329,0.0104014,0.0192481,0.0436694,-0.000735104,0.524518,0.029361,0.0317903,1231,1716,8.40477,-58.8566
14,-692,8.54553,59.1626,0.0351716,0.0110985,0.0195676,0.0461083,0.000161875,0.509664,0.0306851,0.0337377,1238,1716,8.54555,-59.1626
21,-692,8.65247,59.2745,0.036752,0.0109091,0.018591,0.046471,0.00119019,0.481704,0.0305917,0.0314714,1245,1716,8.65253,-59.2745
28,-692,8.729,59.1687,0.0364024,0.00934305,0.0162478,0.0440161,0.00172932,0.438214,0.0287849,0.0334096,1252,1716,8.72904,-59.1687
35,-692,8.79053,59.2826,0.0342728,0.00665104,0.0129215,0.0393751,0.00154879,0.376071,0.0257493,0.0326861,1259,1716,8.79057,-59.2826
42,-692,8.90491,59.4802,0.0318634,0.00376553,0.00900624,0.0345023,0.0011266,0.285033,0.0226354,0.0312924,1266,1716,8.90492,-59.4803
49,-692,9.01941,59.5428,0.0282564,0.00118517,0.00453342,0.0289954,0.00044616,0.161591,0.0191833,0.0398342,1273,1716,9.01944,-59.5429
56,-692,9.11584,59.6041,0,0,0,0,0,0,0,-1,1280,1716,9.11584,-59.6041
63,-692,9.09924,59.4401,0,0,0,0,0,0,0,-1,1287,1716,9.09921,-59.44
70,-692,9.21313,59.5677,0.0138658,-0.00962666,-0.00841521,0.0165691,-0.01233,-0.31083,0.0167446,0.0412136,1294,1716,9.21318,-59.5677
77,-692,9.42615,59.4911,0.00926418,-0.0127305,-0.0122895,0.0147585,-0.0182248,-0.420416,0.0190779,0.0467841,1301,1716,9.42618,-59.4911
84,-692,9.57129,59.4614,0,0,0,0,0,0,0,-1,1308,1716,9.57135,-59.4614
91,-692,9.49036,59.222,0,0,0,0,0,0,0,-1,1315,1716,9.49033,-59.222
98,-692,9.58154,58.9646,0.00254392,-0.0151542,-0.0174173,0.0132312,-0.0258414,-0.550359,0.0229469,0.0364936,1322,1716,9.58149,-58.9646
105,-692,9.6499,58.8047,0.00298688,-0.0149901,-0.0171417,0.0133538,-0.025357,-0.543925,0.022705,0.0474033,1329,1716,9.64996,-58.8047
112,-692,9.76526,58.9706,0,0,0,0,0,0,0,-1,1336,1716,9.7653,-58.9706
119,-692,9.77698,58.7904,0.00643717,-0.0134939,-0.0168738,0.0160685,-0.0231252,-0.518662,0.0227504,0.0403118,1343,1716,9.77703,-58.7904
126,-692,9.84766,58.5798,0.00886917,-0.0123053,-0.0169919,0.0183023,-0.0217384,-0.506791,0.0231459,0.0392618,1350,1716,9.84771,-58.5799
133,-692,9.9801,58.4674,0.011366,-0.0105507,-0.0172185,0.0208175,-0.0200022,-0.502011,0.0235688,0.03054,1357,1716,9.98014,-58.4674
140,-692,10.0247,58.442,0.0137709,-0.00840063,-0.0175066,0.0234065,-0.0180362,-0.50315,0.0239938,0.0359787,1364,1716,10.0246,-58.442
147,-692,10.0593,57.6066,0,0,0,0,0,0,0,-1,1371,1716,10.0593,-57.6066
154,-692,9.92883,56.0276,0,0,0,0,0,0,0,-1,1378,1716,9.92887,-56.0276
161,-692,10.0072,57.8062,0,0,0,0,0,0,0,-1,1385,1716,10.0072,-57.8061
168,-692,10.3193,57.7589,0,0,0,0,0,0,0,-1,1392,1716,10.3194,-57.7589
175,-692,10.4407,57.4694,0,0,0,0,0,0,0,-1,1399,1716,10.4407,-57.4693
182,-692,10.394,57.1849,0,0,0,0,0,0,0,-1,1406,1716,10.394,-57.1849
189,-692,10.4683,56.9343,0,0,0,0,0,0,0,-1,1413,1716,10.4682,-56.9344
196,-692,10.4287,56.6107,0.00914806,0.00268245,-0.0022582,0.00985867,0.00197184,-0.304868,0.00602372,0.0382728,1420,1716,10.4287,-56.6107
203,-692,10.4998,56.3256,0.00577824,0.000677005,0.00189707,0.00640638,4.8863e-05,0.31975,0.00425473,0.0255985,1427,1716,10.4998,-56.3256
210,-692,10.6029,56.0177,0.00520175,0.000594432,0.0015658,0.00568351,0.000112672,0.298485,0.00375201,0.0210824,1434,1716,10.6029,-56.0177
217,-692,10.5656,55.6367,0.00466025,0.000425036,0.00125322,0.0050033,8.19885e-05,0.267187,0.00330854,0.0197402,1441,1716,10.5655,-55.6368
224,-692,10.5614,55.3303,0.00420478,0.000475082,0.000895987,0.00440885,0.000271005,0.223947,0.00285319,0.016045,1448,1716,10.5614,-55.3304
231,-692,10.5743,55.0013,0.00374801,0.000771221,0.00037169,0.00379371,0.000725512,0.12236,0.00232534,0.0133176,1455,1716,10.5743,-55.0014
238,-692,10.6299,54.5758,0.00338891,0.000909159,-4.24326e-05,0.00338964,0.000908433,-0.0171049,0.00202601,0.0182412,1462,1716,10.6299,-54.5758
245,-692,10.6221,54.188,0.0030764,0.00111372,-0.000358965,0.00313999,0.00105012,-0.175336,0.00184571,0.0212059,1469,1716,10.6221,-54.1879
252,-692,10.6178,53.8595,0.00283503,0.00150122,-0.00073259,0.00315881,0.00117744,-0.416148,0.00184332,0.0204394,1476,1716,10.6177,-53.8596
259,-692,10.6288,53.4908,0.00250976,0.00164714,-0.000995222,0.00316311,0.000993785,-0.580925,0.00186779,0.0111169,1483,1716,10.6288,-53.4909
266,-692,10.6238,53.0743,0.0021266,0.00173143,-0.00119501,0.00314025,0.000717784,-0.703468,0.00189998,0.0108748,1490,1716,10.6238,-53.0743
273,-692,10.615,52.6346,0.00173193,0.00183396,-0.00130618,0.00309012,0.000475771,-0.804915,0.00192123,0.0161327,1497,1716,10.615,-52.6346
280,-692,10.6063,52.1638,0.00122622,0.00187383,-0.00138118,0.00296866,0.000131398,-0.900539,0.00193679,0.0153436,1504,1716,10.6063,-52.1638
287,-692,10.5967,51.741,0.000610097,0.0020003,-0.0013838,0.00285377,-0.000243373,-1.01815,0.00198861,0.0116169,1511,1716,10.5966,-51.741
294,-692,10.5906,51.3251,5.07763e-05,0.00239324,-0.00123457,0.00292376,-0.00047974,-1.16494,0.00212719,0.0116824,1518,1716,10.5906,-51.3251
301,-692,10.592,50.8627,-0.000411742,0.00291433,-0.00115733,0.00327739,-0.000774811,-1.26681,0.00248381,0.0152124,1525,1716,10.592,-50.8627
308,-692,10.5675,50.394,-0.000997246,0.00385627,-0.0011755,0.00412598,-0.00126696,-1.34525,0.0032562,0.0187986,1532,1716,10.5675,-50.394
315,-692,10.553,49.9036,-0.00154539,0.00526588,-0.00114803,0.00545417,-0.00173368,-1.40823,0.00433125,0.0176996,1539,1716,10.553,-49.9036
322,-692,10.4889,49.4031,-0.00202344,0.00659282,-0.00112313,0.00673682,-0.00216743,-1.44328,0.00536176,0.0221943,1546,1716,10.4889,-49.4031
329,-692,10.4475,48.8845,-0.00240208,0.00812163,-0.00118014,0.00825235,-0.00253279,-1.46048,0.00651214,0.0185514,1553,1716,10.4476,-48.8845
336,-692,10.4501,48.3721,-0.0026148,0.00983341,-0.00140327,0.00998964,-0.00277103,-1.45992,0.00775036,0.0126302,1560,1716,10.4501,-48.372
343,-692,10.415,47.8998,-0.00286686,0.0115546,-0.00172938,0.0117591,-0.00307134,-1.4531,0.00903882,0.0138639,1567,1716,10.415,-47.8998
350,-692,10.3649,47.4347,-0.00304285,0.0130178,-0.00208316,0.0132836,-0.00330865,-1.44389,0.0101402,0.0179683,1574,1716,10.3649,-47.4347
357,-692,10.3048,46.8031,-0.00263185,0.0144257,-0.00277831,0.0148669,-0.00307297,-1.41334,0.0110785,0.028317,1581,1716,10.3049,-46.8031
364,-692,10.243,46.1423,-0.00185569,0.0156428,-0.00397333,0.0165027,-0.00271564,-1.35765,0.0120098,0.03564,1588,1716,10.243,-46.1423
371,-692,10.3569,45.8176,0,0,0,0,0,0,0,-1,1595,1716,10.357,-45.8176
378,-692,10.3984,45.2468,0,0,0,0,0,0,0,-1,1602,1716,10.3984,-45.2468
385,-692,10.3489,44.6573,0,0,0,0,0,0,0,-1,1609,1716,10.3488,-44.6573
392,-692,10.4966,43.8119,0,0,0,0,0,0,0,-1,1616,1716,10.4966,-43.8119
399,-692,10.3528,43.595,0,0,0,0,0,0,0,-1,1623,1716,10.3528,-43.5949
406,-692,11.3221,42.7773,0,0,0,0,0,0,0,-1,1630,1716,11.3222,-42.7773
413,-692,11.4845,42.9004,0,0,0,0,0,0,0,-1,1637,1716,11.4845,-42.9004
420,-692,9.65894,40.2512,0,0,0,0,0,0,0,-1,1644,1716,9.65889,-40.2513
427,-692,3.79578,8.60339,0,0,0,0,0,0,0,-1,1651,1716,3.79577,-8.6034
434,-692,4.78516,8.64636,0,0,0,0,0,0,0,-1,1658,1716,4.78512,-8.64634
441,-692,5.8208,8.74036,0,0,0,0,0,0,0,-1,1665,1716,5.82084,-8.7404
448,-692,6.73792,8.51013,0,0,0,0,0,0,0,-1,1672,1716,6.73793,-8.5101
455,-692,0,0,0,0,0,0,0,0,0,-1,1679,1716,0,0
462,-692,0,0,0,0,0,0,0,0,0,-1,1686,1716,0,0
469,-692,0,0,0,0,0,0,0,0,0,-1,1693,1716,0,0
476,-692,0,0,0,0,0,0,0,0,0,-1,1700,1716,0,0
483,-692,0,0,0,0,0,0,0,0,0,-1,1707,1716,0,0
490,-692,0,0,0,0,0,0,0,0,0,-1,1714,1716,0,0
497,-692,0,0,0,0,0,0,0,0,0,-1,1721,1716,0,0
504,-692,0,0,0,0,0,0,0,0,0,-1,1728,1716,0,0
511,-692,0,0,0,0,0,0,0,0,0,-1,1735,1716,0,0
518,-692,0,0,0,0,0,0,0,0,0,-1,1742,1716,0,0
525,-692,0,0,0,0,0,0,0,0,0,-1,1749,1716,0,0
532,-692,0,0,0,0,0,0,0,0,0,-1,1756,1716,0,0
539,-692,0,0,0,0,0,0,0,0,0,-1,1763,1716,0,0
546,-692,0,0,0,0,0,0,0,0,0,-1,1770,1716,0,0
553,-692,0,0,0,0,0,0,0,0,0,-1,1777,1716,0,0
560,-692,0,0,0,0,0,0,0,0,0,-1,1784,1716,0,0
567,-692,0,0,0,0,0,0,0,0,0,-1,1791,1716,0,0
574,-692,0,0,0,0,0,0,0,0,0,-1,1798,1716,0,0
581,-692,0,0,0,0,0,0,0,0,0,-1,1805,1716,0,0
588,-692,0,0,0,0,0,0,0,0,0,-1,1812,1716,0,0
595,-692,0,0,0,0,0,0,0,0,0,-1,1819,1716,0,0
602,-692,0,0,0,0,0,0,0,0,0,-1,1826,1716,0,0
609,-692,0,0,0,0,0,0,0,0,0,-1,1833,1716,0,0
616,-692,0,0,0,0,0,0,0,0,0,-1,1840,1716,0,0
623,-692,0,0,0,0,0,0,0,0,0,-1,1847,1716,0,0
630,-692,0,0,0,0,0,0,0,0,0,-1,1854,1716,0,0
637,-692,0,0,0,0,0,0,0,0,0,-1,1861,1716,0,0
644,-692,0,0,0,0,0,0,0,0,0,-1,1868,1716,0,0
651,-692,0,0,0,0,0,0,0,0,0,-1,1875,1716,0,0
658,-692,0,0,0,0,0,0,0,0,0,-1,1882,1716,0,0
665,-692,0,0,0,0,0,0,0,0,0,-1,1889,1716,0,0
672,-692,0,0,0,0,0,0,0,0,0,-1,1896,1716,0,0
679,-692,0,0,0,0,0,0,0,0,0,-1,1903,1716,0,0
686,-692,0,0,0,0,0,0,0,0,0,-1,1910,1716,0,0
693,-692,0,0,0,0,0,0,0,0,0,-1,1917,1716,0,0
700,-692,0,0,0,0,0,0,0,0,0,-1,1924,1716,0,0
707,-692,0,0,0,0,0,0,0,0,0,-1,1931,1716,0,0
714,-692,0,0,0,0,0,0,0,0,0,-1,1938,1716,0,0
721,-692,0,0,0,0,0,0,0,0,0,-1,1945,1716,0,0
728,-692,0,0,0,0,0,0,0,0,0,-1,1952,1716,0,0
735,-692,0,0,0,0,0,0,0,0,0,-1,1959,1716,0,0
742,-692,0,0,0,0,0,0,0,0,0,-1,1966,1716,0,0
749,-692,0,0,0,0,0,0,0,0,0,-1,1973,1716,0,0
756,-692,0,0,0,0,0,0,0,0,0,-1,1980,1716,0,0
763,-692,0,0,0,0,0,0,0,0,0,-1,1987,1716,0,0
770,-692,0,0,0,0,0,0,0,0,0,-1,1994,1716,0,0
777,-692,0,0,0,0,0,0,0,0,0,-1,2001,1716,0,0
784,-692,0,0,0,0,0,0,0,0,0,-1,2008,1716,0,0
791,-692,0,0,0,0,0,0,0,0,0,-1,2015,1716,0,0
798,-692,0,0,0,0,0,0,0,0,0,-1,2022,1716,0,0
805,-692,0,0,0,0,0,0,0,0,0,-1,2029,1716,0,0
812,-692,0,0,0,0,0,0,0,0,0,-1,2036,1716,0,0
-700,-699,0,0,0,0,0,0,0,0,0,-1,524,1723,0,0
-693,-699,0,0,0,0,0,0,0,0,0,-1,531,1723,0,0
-686,-699,0,0,0,0,0,0,0,0,0,-1,538,1723,0,0
-679,-699,0,0,0,0,0,0,0,0,0,-1,545,1723,0,0
-672,-699,0,0,0,0,0,0,0,0,0,-1,552,1723,0,0
-665,-699,0,0,0,0,0,0,0,0,0,-1,559,1723,0,0
-658,-699,0,0,0,0,0,0,0,0,0,-1,566,1723,0,0
-651,-699,0,0,0,0,0,0,0,0,0,-1,573,1723,0,0
-644,-699,0,0,0,0,0,0,0,0,0,-1,580,1723,0,0
-637,-699,0,0,0,0,0,0,0,0,0,-1,587,1723,0,0
-630,-699,0,0,0,0,0,0,0,0,0,-1,594,1723,0,0
-623,-699,0,0,0,0,0,0,0,0,0,-1,601,1723,0,0
-616,-699,0,0,0,0,0,0,0,0,0,-1,608,1723,0,0
-609,-699,0,0,0,0,0,0,0,0,0,-1,615,1723,0,0
-602,-699,0,0,0,0,0,0,0,0,0,-1,622,1723,0,0
-595,-699,0,0,0,0,0,0,0,0,0,-1,629,1723,0,0
-588,-699,0,0,0,0,0,0,0,0,0,-1,636,1723,0,0
-581,-699,0,0,0,0,0,0,0,0,0,-1,643,1723,0,0
-574,-699,0,0,0,0,0,0,0,0,0,-1,650,1723,0,0
-567,-699,0,0,0,0,0,0,0,0,0,-1,657,1723,0,0
-560,-699,0,0,0,0,0,0,0,0,0,-1,664,1723,0,0
-553,-699,0,0,0,0,0,0,0,0,0,-1,671,1723,0,0
-546,-699,0,0,0,0,0,0,0,0,0,-1,678,1723,0,0
-539,-699,0,0,0,0,0,0,0,0,0,-1,685,1723,0,0
-532,-699,0,0,0,0,0,0,0,0,0,-1,692,1723,0,0
-525,-699,0,0,0,0,0,0,0,0,0,-1,699,1723,0,0
-518,-699,0,0,0,0,0,0,0,0,0,-1,706,1723,0,0
-511,-699,0,0,0,0,0,0,0,0,0,-1,713,1723,0,0
-504,-699,0,0,0,0,0,0,0,0,0,-1,720,1723,0,0
-497,-699,0,0,0,0,0,0,0,0,0,-1,727,1723,0,0
-490,-699,0,0,0,0,0,0,0,0,0,-1,734,1723,0,0
-483,-699,0,0,0,0,0,0,0,0,0,-1,741,1723,0,0
-476,-699,0,0,0,0,0,0,0,0,0,-1,748,1723,0,0
-469,-699,0,0,0,0,0,0,0,0,0,-1,755,1723,0,0
-462,-699,0,0,0,0,0,0,0,0,0,-1,762,1723,0,0
-455,-699,0,0,0,0,0,0,0,0,0,-1,769,1723,0,0
-448,-699,0,0,0,0,0,0,0,0,0,-1,776,1723,0,0
-441,-699,0,0,0,0,0,0,0,0,0,-1,783,1723,0,0
-434,-699,0,0,0,0,0,0,0,0,0,-1,790,1723,0,0
-427,-699,0,0,0,0,0,0,0,0,0,-1,797,1723,0,0
-420,-699,0,0,0,0,0,0,0,0,0,-1,804,1723,0,0
-413,-699,0,0,0,0,0,0,0,0,0,-1,811,1723,0,0
-406,-699,0,0,0,0,0,0,0,0,0,-1,818,1723,0,0
-399,-699,0,0,0,0,0,0,0,0,0,-1,825,1723,0,0
-392,-699,0,0,0,0,0,0,0,0,0,-1,832,1723,0,0
-385,-699,0,0,0,0,0,0,0,0,0,-1,839,1723,0,0
-378,-699,0,0,0,0,0,0,0,0,0,-1,846,1723,0,0
-371,-699,0,0,0,0,0,0,0,0,0,-1,853,1723,0,0
-364,-699,0,0,0,0,0,0,0,0,0,-1,860,1723,0,0
-357,-699,0,0,0,0,0,0,0,0,0,-1,867,1723,0,0
-350,-699,0,0,0,0,0,0,0,0,0,-1,874,1723,0,0
-343,-699,0,0,0,0,0,0,0,0,0,-1,881,1723,0,0
-336,-699,0,0,0,0,0,0,0,0,0,-1,888,1723,0,0
-329,-699,0,0,0,0,0,0,0,0,0,-1,895,1723,0,0
-322,-699,0,0,0,0,0,0,0,0,0,-1,902,1723,0,0
-315,-699,6.20001,19.5193,0,0,0,0,0,0,0,-1,909,1723,6.20001,-19.5193
-308,-699,6.98151,18.9218,0,0,0,0,0,0,0,-1,916,1723,6.98151,-18.9217
-301,-699,4.72729,12.8752,0,0,0,0,0,0,0,-1,923,1723,4.72732,-12.8752
-294,-699,6.90332,19.8601,0,0,0,0,0,0,0,-1,930,1723,6.90332,-19.8601
-287,-699,9.0968,36.3315,0,0,0,0,0,0,0,-1,937,1723,9.09678,-36.3315
-280,-699,11.921,44.2709,0,0,0,0,0,0,0,-1,944,1723,11.9209,-44.2709
-273,-699,10.2987,33.8755,0,0,0,0,0,0,0,-1,951,1723,10.2987,-33.8755
-266,-699,6.81915,20.8951,0,0,0,0,0,0,0,-1,958,1723,6.81914,-20.8952
-259,-699,5.39758,14.5466,0,0,0,0,0,0,0,-1,965,1723,5.39759,-14.5466
-252,-699,8.3866,31.6284,0,0,0,0,0,0,0,-1,972,1723,8.38657,-31.6284
-245,-699,8.77527,44.9578,0,0,0,0,0,0,0,-1,979,1723,8.77526,-44.9578
-238,-699,8.92041,45.4763,0,0,0,0,0,0,0,-1,986,1723,8.92043,-45.4763
-231,-699,8.59973,45.8488,-0.00568775,0.0122872,0.0053215,0.0137445,-0.00714504,1.3035,0.0122596,0.0456103,993,1723,8.5997,-45.8487
-224,-699,8.29425,47.321,-0.00451039,0.0101873,0.00597589,0.0123103,-0.00663344,1.22943,0.0110997,0.0383742,1000,1723,8.29423,-47.321
-217,-699,8.25372,47.8125,-0.00408493,0.00766938,0.00527241,0.00968774,-0.00610329,1.20519,0.00919492,0.0240641,1007,1723,8.25371,-47.8125
-210,-699,8.25513,48.2518,-0.00421673,0.00568761,0.00441527,0.00737009,-0.00589921,1.20672,0.00767671,0.0189785,1014,1723,8.25514,-48.2518
-203,-699,8.27661,48.8132,-0.00441139,0.00451047,0.00372615,0.00586195,-0.00576287,1.22285,0.00671168,0.0241966,1021,1723,8.27661,-48.8132
-196,-699,8.22632,49.3833,-0.00448456,0.00334084,0.0031489,0.00445057,-0.00559429,1.23197,0.00581192,0.0198227,1028,1723,8.22626,-49.3834
-189,-699,8.14429,49.8657,-0.00438178,0.00234362,0.00276926,0.00333713,-0.00537529,1.22634,0.00507579,0.0103063,1035,1723,8.14427,-49.8658
-182,-699,8.10474,50.3522,-0.00395401,0.00180153,0.00248765,0.0027277,-0.00488018,1.21439,0.00445062,0.0138123,1042,1723,8.10473,-50.3522
-175,-699,8.09363,50.8657,-0.00328898,0.00112614,0.00199038,0.00189094,-0.00405378,1.20394,0.00350709,0.0158973,1049,1723,8.09361,-50.8658
-168,-699,8.08142,51.3259,-0.00275879,0.00169403,0.001843,0.00235787,-0.00342263,1.22507,0.0033562,0.0160859,1056,1723,8.08137,-51.3259
-161,-699,8.06042,51.7753,-0.00227639,0.00231439,0.00193892,0.0030237,-0.0029857,1.22009,0.00346955,0.0136731,1063,1723,8.06039,-51.7752
-154,-699,8.03882,52.2457,-0.00160422,0.00264674,0.00204099,0.003468,-0.00242549,1.18824,0.0034203,0.0136775,1070,1723,8.03884,-52.2457
-147,-699,7.99292,52.6624,-0.000860584,0.0028308,0.00191027,0.00364136,-0.00167115,1.1695,0.0031367,0.0164679,1077,1723,7.99293,-52.6623
-140,-699,7.94128,53.0612,-0.000186289,0.00292102,0.00172108,0.00368598,-0.00095125,1.15256,0.00282824,0.0114668,1084,1723,7.94123,-53.0612
-133,-699,7.95496,53.4979,0.000396207,0.00298971,0.00153378,0.00370145,-0.000315534,1.13632,0.00257925,0.00979439,1091,1723,7.95495,-53.498
-126,-699,7.97754,53.8918,0.000915184,0.00305466,0.00133838,0.00369828,0.000271566,1.12255,0.00238017,0.0120988,1098,1723,7.9776,-53.8919
-119,-699,7.99316,54.2948,0.00132881,0.00295589,0.00110202,0.00351213,0.000772566,1.10336,0.0021311,0.0176019,1105,1723,7.99314,-54.2947
-112,-699,7.95166,54.6899,0.00172207,0.00277246,0.000933919,0.00331873,0.0011758,1.04154,0.001943,0.0118602,1112,1723,7.95162,-54.6899
-105,-699,7.95447,55.0607,0.00203809,0.00239109,0.000717595,0.00295357,0.0014756,0.905985,0.00170524,0.0128299,1119,1723,7.95451,-55.0607
-98,-699,7.99133,55.3984,0.00231675,0.00193758,0.000457471,0.00262237,0.00163197,0.58896,0.00152905,0.01533,1126,1723,7.9913,-55.3985
-91,-699,8.01416,55.7108,0.00267797,0.00149903,9.00478e-05,0.00268481,0.00149219,0.075794,0.00155329,0.0227934,1133,1723,8.01416,-55.7109
-84,-699,8.05481,56.0447,0.003211,0.00108874,-0.000162082,0.00322331,0.00107643,-0.0757867,0.00189488,0.0290582,1140,1723,8.05479,-56.0447
-77,-699,8.04248,56.3666,0.00375753,0.000688857,-0.000299494,0.00378649,0.000659901,-0.0963852,0.00233564,0.0188651,1147,1723,8.04246,-56.3666
-70,-699,8.047,56.6809,0.00406531,0.000140185,-0.000739271,0.00419993,5.56582e-06,-0.180124,0.0027981,0.0176775,1154,1723,8.04696,-56.6809
-63,-699,8.07727,56.975,0.00476399,-0.00179453,-0.000594784,0.00481749,-0.00184803,-0.0897135,0.0039736,0.0153342,1161,1723,8.07724,-56.975
-56,-699,8.07129,57.2322,0.00628301,-0.00290275,0.00037611,0.00629838,-0.00291812,0.0408537,0.00543914,0.0118053,1168,1723,8.07135,-57.2322
-49,-699,8.06946,57.5211,0.00707955,-0.00375076,0.00217466,0.0074999,-0.0041711,0.190937,0.006829,0.0263295,1175,1723,8.0695,-57.5211
-42,-699,8.12048,57.8669,0.00853963,-0.00325533,0.00389289,0.00970861,-0.00442432,0.291719,0.0083476,0.0305758,1182,1723,8.12052,-57.867
-35,-699,8.22339,58.0934,0.0108866,-0.00195227,0.00517769,0.0127145,-0.00378011,0.339365,0.00997795,0.0275472,1189,1723,8.22339,-58.0934
-28,-699,8.31213,58.2104,0.0129678,-0.00101257,0.00689311,0.0157948,-0.00383959,0.389203,0.012016,0.0217265,1196,1723,8.31209,-58.2104
-21,-699,8.32788,58.3082,0.0143244,0.00029469,0.00801552,0.0179612,-0.00334205,0.425937,0.0132296,0.0149237,1203,1723,8.32788,-58.3083
-14,-699,8.36682,58.5026,0.0162803,0.00137147,0.00989235,0.0212125,-0.00356067,0.462512,0.0154658,0.013196,1210,1723,8.36678,-58.5025
-7,-699,8.42004,58.7015,0.018238,0.00217118,0.0113778,0.0241326,-0.00372342,0.478007,0.0174623,0.00987052,1217,1723,8.4201,-58.7015
0,-699,8.49915,58.8523,0.0201506,0.00337102,0.0123784,0.0267146,-0.0031929,0.487571,0.0189638,0.013512,1224,1723,8.49914,-58.8523
7,-699,8.6344,58.8995,0.022559,0.0044458,0.0130298,0.0293705,-0.00236571,0.481693,0.0204147,0.0233996,1231,1723,8.63441,-58.8995
14,-699,8.68213,59.0472,0.0246195,0.00527009,0.0135987,0.0316339,-0.00174427,0.476216,0.0216941,0.0230277,1238,1723,8.68217,-59.0472
21,-699,8.6499,59.1595,0.0259537,0.00567096,0.0132783,0.0325204,-0.000895759,0.459275,0.0219849,0.0181006,1245,1723,8.64991,-59.1595
28,-699,8.75,59.1958,0.0259041,0.00507749,0.0118838,0.0312915,-0.000309867,0.425626,0.020965,0.0176055,1252,1723,8.74997,-59.1958
35,-699,8.83057,59.3035,0.0249604,0.00379238,0.00985309,0.0288368,-8.40658e-05,0.374825,0.0192526,0.0157893,1259,1723,8.83057,-59.3035
42,-699,8.91345,59.3895,0.0236014,0.00230331,0.00727765,0.0258507,5.40521e-05,0.299751,0.0172158,0.0146056,1266,1723,8.91349,-59.3896
49,-699,8.96838,59.4336,0.0212772,0.000905354,0.00402373,0.0220432,0.000139407,0.188107,0.0146492,0.0166664,1273,1723,8.96834,-59.4336
56,-699,9.04004,59.4636,0.0186802,-0.00136789,0.000788085,0.0187111,-0.00139882,0.0392291,0.0129655,0.0170682,1280,1723,9.04003,-59.4636
63,-699,9.10718,59.4388,0.0151376,-0.00380714,-0.00249491,0.0154607,-0.00413019,-0.128769,0.0119247,0.0154167,1287,1723,9.10719,-59.4389
70,-699,9.16235,59.4475,0.0113221,-0.00649655,-0.00548671,0.0128761,-0.00805049,-0.275992,0.0121886,0.013019,1294,1723,9.16238,-59.4476
77,-699,9.23682,59.416,0.00823377,-0.00878911,-0.00837998,0.0116667,-0.0122221,-0.388808,0.0137934,0.0130835,1301,1723,9.23687,-59.416
84,-699,9.32239,59.366,0.00599957,-0.0107577,-0.0100614,0.0107142,-0.0154723,-0.438202,0.0152018,0.0161255,1308,1723,9.32239,-59.3659
91,-699,9.39099,59.307,0.00441662,-0.0113241,-0.0115362,0.0105114,-0.0174189,-0.486048,0.0162891,0.0153377,1315,1723,9.39096,-59.307
98,-699,9.4491,59.2222,0.00372274,-0.0115038,-0.012152,0.0104494,-0.0182305,-0.505558,0.0167603,0.0129468,1322,1723,9.44905,-59.2222
105,-699,9.50928,59.1576,0.00394613,-0.0118485,-0.011914,0.0103426,-0.0182449,-0.492717,0.0167139,0.0181334,1329,1723,9.50933,-59.1576
112,-699,9.5708,59.0988,0.00455608,-0.0118344,-0.0115205,0.0104988,-0.0177772,-0.476241,0.0165045,0.0242114,1336,1723,9.57085,-59.0988
119,-699,9.59314,58.951,0.00601745,-0.0115981,-0.0113093,0.0115442,-0.0171248,-0.454557,0.0166563,0.0174525,1343,1723,9.59313,-58.951
126,-699,9.68335,58.7823,0.00756047,-0.0111556,-0.0110225,0.0126616,-0.0162568,-0.433442,0.016739,0.0184193,1350,1723,9.68332,-58.7824
133,-699,9.8042,58.6464,0.00917253,-0.010131,-0.0106921,0.0139248,-0.0148833,-0.418245,0.0166354,0.0162452,1357,1723,9.80418,-58.6464
140,-699,9.87854,58.4945,0.0105244,-0.00873581,-0.0103375,0.0150224,-0.0132338,-0.410404,0.0163246,0.0185797,1364,1723,9.87853,-58.4945
147,-699,9.94934,58.1423,0.0112495,-0.00720987,-0.0096367,0.0153635,-0.0113238,-0.403484,0.0154667,0.0460195,1371,1723,9.94936,-58.1423
154,-699,9.69299,57.8889,0,0,0,0,0,0,0,-1,1378,1723,9.693,-57.8889
161,-699,9.92737,57.9418,0.0119293,-0.00415648,-0.00791255,0.015169,-0.00739617,-0.388615,0.0132831,0.0306817,1385,1723,9.92735,-57.9418
168,-699,10.0295,57.7139,0.0124927,-0.0024909,-0.00654049,0.014946,-0.0049442,-0.358854,0.0119578,0.0120071,1392,1723,10.0295,-57.7139
175,-699,10.0839,57.4723,0.0123901,-0.000456323,-0.00431356,0.0137041,-0.00177032,-0.29569,0.00977976,0.0190309,1399,1723,10.0839,-57.4723
182,-699,10.1023,57.2102,0.0106888,0.00125082,-0.00283078,0.0114727,0.000466886,-0.270162,0.0074977,0.020195,1406,1723,10.1023,-57.2103
189,-699,10.0972,56.9171,0.00876026,0.00145838,-0.0018655,0.00920925,0.00100939,-0.23619,0.00583223,0.017709,1413,1723,10.0971,-56.9171
196,-699,10.1417,56.6283,0.00575749,0.00116186,1.79614e-05,0.00575756,0.00116179,0.00390829,0.00351569,0.0172154,1420,1723,10.1418,-56.6283
203,-699,10.1688,56.3309,0.00413434,0.000871534,0.00117881,0.00451566,0.000490212,0.312858,0.00286107,0.0140343,1427,1723,10.1688,-56.3309
210,-699,10.1995,56.0342,0.0036333,0.000866762,0.000902517,0.00390169,0.000598375,0.289048,0.00242639,0.0138819,1434,1723,10.1995,-56.0342
217,-699,10.202,55.7136,0.00314452,0.000841236,0.00064619,0.00331342,0.000672332,0.255664,0.00202244,0.0145704,1441,1723,10.202,-55.7137
224,-699,10.2052,55.3684,0.00270937,0.000952205,0.000321864,0.00276647,0.000895104,0.17558,0.00163004,0.0163732,1448,1723,10.2052,-55.3684
231,-699,10.2263,55.0187,0.00225636,0.00117608,-6.90698e-05,0.00226076,0.00117168,-0.0635919,0.00130554,0.0128452,1455,1723,10.2263,-55.0187
238,-699,10.2231,54.6194,0.00189037,0.0013168,-0.000389346,0.00208715,0.00112002,-0.46797,0.00120609,0.0107516,1462,1723,10.2231,-54.6194
245,-699,10.2191,54.2449,0.00154947,0.00147481,-0.000661011,0.0021742,0.000850076,-0.757194,0.00126518,0.0127167,1469,1723,10.2192,-54.2448
252,-699,10.2156,53.8978,0.00114214,0.00162499,-0.000889856,0.00230559,0.000461542,-0.917864,0.00140865,0.011754,1476,1723,10.2156,-53.8979
259,-699,10.1995,53.524,0.000710346,0.00168422,-0.00105302,0.00235743,3.71337e-05,-1.00197,0.00155939,0.0117902,1483,1723,10.1995,-53.5241
266,-699,10.1777,53.1107,0.000286102,0.00166839,-0.00118796,0.00235163,-0.000397137,-1.04886,0.00171553,0.0132365,1490,1723,10.1777,-53.1108
273,-699,10.1772,52.6597,-0.000141004,0.00172387,-0.00127819,0.00237359,-0.00079072,-1.10052,0.00190158,0.0132015,1497,1723,10.1772,-52.6596
280,-699,10.1743,52.1962,-0.00066811,0.00175903,-0.00135775,0.00236651,-0.0012756,-1.15009,0.00213399,0.013784,1504,1723,10.1743,-52.1962
287,-699,10.1488,51.7373,-0.00130662,0.0019861,-0.00138196,0.00248924,-0.00180975,-1.22164,0.00249233,0.0114455,1511,1723,10.1488,-51.7373
294,-699,10.1477,51.3114,-0.00183305,0.00264998,-0.00121189,0.00295661,-0.00213969,-1.32298,0.00295492,0.0118138,1518,1723,10.1477,-51.3115
301,-699,10.1517,50.8779,-0.00215839,0.0035297,-0.00117366,0.00376235,-0.00239105,-1.3751,0.00358195,0.0138961,1525,1723,10.1518,-50.8779
308,-699,10.1224,50.4092,-0.00266253,0.00491253,-0.00125352,0.00511457,-0.00286457,-1.41099,0.00466741,0.0189183,1532,1723,10.1224,-50.4091
315,-699,10.0853,49.9153,-0.00312794,0.00690909,-0.00128956,0.00707213,-0.00329098,-1.44504,0.00611445,0.0208656,1539,1723,10.0853,-49.9152
322,-699,10.0504,49.4359,-0.0034904,0.00886021,-0.00133295,0.00900243,-0.00363262,-1.4645,0.00751124,0.0197943,1546,1723,10.0504,-49.4359
329,-699,10.0031,48.9425,-0.00372315,0.0111524,-0.00143801,0.0112902,-0.00386088,-1.47531,0.00909125,0.0155559,1553,1723,10.0031,-48.9425
336,-699,9.94714,48.4491,-0.00376735,0.0138035,-0.00178068,0.0139821,-0.003946,-1.47081,0.010878,0.0171618,1560,1723,9.94712,-48.4492
343,-699,9.9541,47.9508,-0.00393362,0.0164194,-0.00218972,0.0166523,-0.00416654,-1.46482,0.0127199,0.0275771,1567,1723,9.95411,-47.9508
350,-699,9.8822,47.3209,-0.00402198,0.0187776,-0.0025906,0.0190683,-0.00431263,-1.45907,0.0143671,0.0433858,1574,1723,9.88224,-47.3209
357,-699,9.7074,46.4523,-0.00346146,0.0209009,-0.00335787,0.0213552,-0.0039158,-1.43631,0.0157057,0.0489938,1581,1723,9.70737,-46.4523
364,-699,9.54749,45.7385,-0.00244403,0.0227751,-0.00476343,0.0236448,-0.00331377,-1.3902,0.0169759,0.0453814,1588,1723,9.54751,-45.7385
371,-699,9.44458,45.1477,0,0,0,0,0,0,0,-1,1595,1723,9.4446,-45.1478
378,-699,9.82141,45.4562,0,0,0,0,0,0,0,-1,1602,1723,9.82138,-45.4562
385,-699,8.04944,42.8464,0,0,0,0,0,0,0,-1,1609,1723,8.04943,-42.8464
392,-699,8.04492,42.0624,0,0,0,0,0,0,0,-1,1616,1723,8.04492,-42.0623
399,-699,8.49963,41.4828,0,0,0,0,0,0,0,-1,1623,1723,8.49961,-41.4828
406,-699,11.7264,44.1525,0,0,0,0,0,0,0,-1,1630,1723,11.7264,-44.1525
413,-699,12.3215,44.3011,0,0,0,0,0,0,0,-1,1637,1723,12.3215,-44.3011
420,-699,8.41907,38.2246,0,0,0,0,0,0,0,-1,1644,1723,8.41902,-38.2247
427,-699,2.98743,11.8593,0,0,0,0,0,0,0,-1,1651,1723,2.98746,-11.8592
434,-699,4.66455,8.90222,0,0,0,0,0,0,0,-1,1658,1723,4.66456,-8.90223
441,-699,0,0,0,0,0,0,0,0,0,-1,1665,1723,0,0
448,-699,0,0,0,0,0,0,0,0,0,-1,1672,1723,0,0
455,-699,0,0,0,0,0,0,0,0,0,-1,1679,1723,0,0
462,-699,0,0,0,0,0,0,0,0,0,-1,1686,1723,0,0
469,-699,0,0,0,0,0,0,0,0,0,-1,1693,1723,0,0
476,-699,0,0,0,0,0,0,0,0,0,-1,1700,1723,0,0
483,-699,0,0,0,0,0,0,0,0,0,-1,1707,1723,0,0
490,-699,0,0,0,0,0,0,0,0,0,-1,1714,1723,0,0
497,-699,0,0,0,0,0,0,0,0,0,-1,1721,1723,0,0
504,-699,0,0,0,0,0,0,0,0,0,-1,1728,1723,0,0
511,-699,0,0,0,0,0,0,0,0,0,-1,1735,1723,0,0
518,-699,0,0,0,0,0,0,0,0,0,-1,1742,1723,0,0
525,-699,0,0,0,0,0,0,0,0,0,-1,1749,1723,0,0
532,-699,0,0,0,0,0,0,0,0,0,-1,1756,1723,0,0
539,-699,0,0,0,0,0,0,0,0,0,-1,1763,1723,0,0
546,-699,0,0,0,0,0,0,0,0,0,-1,1770,1723,0,0
553,-699,0,0,0,0,0,0,0,0,0,-1,1777,1723,0,0
560,-699,0,0,0,0,0,0,0,0,0,-1,1784,1723,0,0
567,-699,0,0,0,0,0,0,0,0,0,-1,1791,1723,0,0
574,-699,0,0,0,0,0,0,0,0,0,-1,1798,1723,0,0
581,-699,0,0,0,0,0,0,0,0,0,-1,1805,1723,0,0
588,-699,0,0,0,0,0,0,0,0,0,-1,1812,1723,0,0
595,-699,0,0,0,0,0,0,0,0,0,-1,1819,1723,0,0
602,-699,0,0,0,0,0,0,0,0,0,-1,1826,1723,0,0
609,-699,0,0,0,0,0,0,0,0,0,-1,1833,1723,0,0
616,-699,0,0,0,0,0,0,0,0,0,-1,1840,1723,0,0
623,-699,0,0,0,0,0,0,0,0,0,-1,1847,1723,0,0
630,-699,0,0,0,0,0,0,0,0,0,-1,1854,1723,0,0
637,-699,0,0,0,0,0,0,0,0,0,-1,1861,1723,0,0
644,-699,0,0,0,0,0,0,0,0,0,-1,1868,1723,0,0
651,-699,0,0,0,0,0,0,0,0,0,-1,1875,1723,0,0
658,-699,0,0,0,0,0,0,0,0,0,-1,1882,1723,0,0
665,-699,0,0,0,0,0,0,0,0,0,-1,1889,1723,0,0
672,-699,0,0,0,0,0,0,0,0,0,-1,1896,1723,0,0
679,-699,0,0,0,0,0,0,0,0,0,-1,1903,1723,0,0
686,-699,0,0,0,0,0,0,0,0,0,-1,1910,1723,0,0
693,-699,0,0,0,0,0,0,0,0,0,-1,1917,1723,0,0
700,-699,0,0,0,0,0,0,0,0,0,-1,1924,1723,0,0
707,-699,0,0,0,0,0,0,0,0,0,-1,1931,1723,0,0
714,-699,0,0,0,0,0,0,0,0,0,-1,1938,1723,0,0
721,-699,0,0,0,0,0,0,0,0,0,-1,1945,1723,0,0
728,-699,0,0,0,0,0,0,0,0,0,-1,1952,1723,0,0
735,-699,0,0,0,0,0,0,0,0,0,-1,1959,1723,0,0
742,-699,0,0,0,0,0,0,0,0,0,-1,1966,1723,0,0
749,-699,0,0,0,0,0,0,0,0,0,-1,1973,1723,0,0
756,-699,0,0,0,0,0,0,0,0,0,-1,1980,1723,0,0
763,-699,0,0,0,0,0,0,0,0,0,-1,1987,1723,0,0
770,-699,0,0,0,0,0,0,0,0,0,-1,1994,1723,0,0
777,-699,0,0,0,0,0,0,0,0,0,-1,2001,1723,0,0
784,-699,0,0,0,0,0,0,0,0,0,-1,2008,1723,0,0
791,-699,0,0,0,0,0,0,0,0,0,-1,2015,1723,0,0
798,-699,0,0,0,0,0,0,0,0,0,-1,2022,1723,0,0
805,-699,0,0,0,0,0,0,0,0,0,-1,2029,1723,0,0
812,-699,0,0,0,0,0,0,0,0,0,-1,2036,1723,0,0
-700,-706,0,0,0,0,0,0,0,0,0,-1,524,1730,0,0
-693,-706,0,0,0,0,0,0,0,0,0,-1,531,1730,0,0
-686,-706,0,0,0,0,0,0,0,0,0,-1,538,1730,0,0
-679,-706,0,0,0,0,0,0,0,0,0,-1,545,1730,0,0
-672,-706,0,0,0,0,0,0,0,0,0,-1,552,1730,0,0
-665,-706,0,0,0,0,0,0,0,0,0,-1,559,1730,0,0
-658,-706,0,0,0,0,0,0,0,0,0,-1,566,1730,0,0
-651,-706,0,0,0,0,0,0,0,0,0,-1,573,1730,0,0
-644,-706,0,0,0,0,0,0,0,0,0,-1,580,1730,0,0
-637,-706,0,0,0,0,0,0,0,0,0,-1,587,1730,0,0
-630,-706,0,0,0,0,0,0,0,0,0,-1,594,1730,0,0
-623,-706,0,0,0,0,0,0,0,0,0,-1,601,1730,0,0
-616,-706,0,0,0,0,0,0,0,0,0,-1,608,1730,0,0
-609,-706,0,0,0,0,0,0,0,0,0,-1,615,1730,0,0
-602,-706,0,0,0,0,0,0,0,0,0,-1,622,1730,0,0
-595,-706,0,0,0,0,0,0,0,0,0,-1,629,1730,0,0
-588,-706,0,0,0,0,0,0,0,0,0,-1,636,1730,0,0
-581,-706,0,0,0,0,0,0,0,0,0,-1,643,1730,0,0
-574,-706,0,0,0,0,0,0,0,0,0,-1,650,1730,0,0
-567,-706,0,0,0,0,0,0,0,0,0,-1,657,1730,0,0
-560,-706,0,0,0,0,0,0,0,0,0,-1,664,1730,0,0
-553,-706,0,0,0,0,0,0,0,0,0,-1,671,1730,0,0
-546,-706,0,0,0,0,0,0,0,0,0,-1,678,1730,0,0
-539,-706,0,0,0,0,0,0,0,0,0,-1,685,1730,0,0
-532,-706,0,0,0,0,0,0,0,0,0,-1,692,1730,0,0
-525,-706,0,0,0,0,0,0,0,0,0,-1,699,1730,0,0
-518,-706,0,0,0,0,0,0,0,0,0,-1,706,1730,0,0
-511,-706,0,0,0,0,0,0,0,0,0,-1,713,1730,0,0
-504,-706,0,0,0,0,0,0,0,0,0,-1,720,1730,0,0
-497,-706,0,0,0,0,0,0,0,0,0,-1,727,1730,0,0
-490,-706,0,0,0,0,0,0,0,0,0,-1,734,1730,0,0
-483,-706,0,0,0,0,0,0,0,0,0,-1,741,1730,0,0
-476,-706,0,0,0,0,0,0,0,0,0,-1,748,1730,0,0
-469,-706,0,0,0,0,0,0,0,0,0,-1,755,1730,0,0
-462,-706,0,0,0,0,0,0,0,0,0,-1,762,1730,0,0
-455,-706,0,0,0,0,0,0,0,0,0,-1,769,1730,0,0
-448,-706,0,0,0,0,0,0,0,0,0,-1,776,1730,0,0
-441,-706,0,0,0,0,0,0,0,0,0,-1,783,1730,0,0
-434,-706,0,0,0,0,0,0,0,0,0,-1,790,1730,0,0
-427,-706,0,0,0,0,0,0,0,0,0,-1,797,1730,0,0
-420,-706,0,0,0,0,0,0,0,0,0,-1,804,1730,0,0
-413,-706,0,0,0,0,0,0,0,0,0,-1,811,1730,0,0
-406,-706,0,0,0,0,0,0,0,0,0,-1,818,1730,0,0
-399,-706,0,0,0,0,0,0,0,0,0,-1,825,1730,0,0
-392,-706,0,0,0,0,0,0,0,0,0,-1,832,1730,0,0
-385,-706,0,0,0,0,0,0,0,0,0,-1,839,1730,0,0
-378,-706,0,0,0,0,0,0,0,0,0,-1,846,1730,0,0
-371,-706,0,0,0,0,0,0,0,0,0,-1,853,1730,0,0
-364,-706,0,0,0,0,0,0,0,0,0,-1,860,1730,0,0
-357,-706,0,0,0,0,0,0,0,0,0,-1,867,1730,0,0
-350,-706,0,0,0,0,0,0,0,0,0,-1,874,1730,0,0
-343,-706,0,0,0,0,0,0,0,0,0,-1,881,1730,0,0
-336,-706,0,0,0,0,0,0,0,0,0,-1,888,1730,0,0
-329,-706,0,0,0,0,0,0,0,0,0,-1,895,1730,0,0
-322,-706,0,0,0,0,0,0,0,0,0,-1,902,1730,0,0
-315,-706,0,0,0,0,0,0,0,0,0,-1,909,1730,0,0
-308,-706,5.08191,14.6245,0,0,0,0,0,0,0,-1,916,1730,5.08188,-14.6245
-301,-706,7.45007,21.1975,0,0,0,0,0,0,0,-1,923,1730,7.45005,-21.1976
-294,-706,11.8603,21.026,0,0,0,0,0,0,0,-1,930,1730,11.8603,-21.026
-287,-706,10.3292,20.8425,0,0,0,0,0,0,0,-1,937,1730,10.3292,-20.8425
-280,-706,7.9162,21.8951,0,0,0,0,0,0,0,-1,944,1730,7.9162,-21.8952
-273,-706,7.38953,20.6355,0,0,0,0,0,0,0,-1,951,1730,7.38955,-20.6355
-266,-706,9.66724,22.8231,0,0,0,0,0,0,0,-1,958,1730,9.66722,-22.8231
-259,-706,3.47852,20.7363,0,0,0,0,0,0,0,-1,965,1730,3.47851,-20.7364
-252,-706,3.84259,20.1979,0,0,0,0,0,0,0,-1,972,1730,3.84256,-20.1979
-245,-706,4.698,19.2992,0,0,0,0,0,0,0,-1,979,1730,4.69799,-19.2991
-238,-706,8.12567,36.8694,0,0,0,0,0,0,0,-1,986,1730,8.12568,-36.8694
-231,-706,9.24677,44.9952,0,0,0,0,0,0,0,-1,993,1730,9.24678,-44.9952
-224,-706,8.74933,47.4333,-0.00528311,0.0125238,0.00766706,0.01537,-0.00812935,1.21534,0.0137804,0.0450998,1000,1730,8.74931,-47.4333
-217,-706,8.83234,48.2063,-0.00514425,0.00926324,0.00661292,0.0118383,-0.00771929,1.19947,0.0113747,0.037525,1007,1730,8.83231,-48.2063
-210,-706,9.01068,48.4161,-0.00558068,0.00674512,0.00548099,0.0088298,-0.00766536,1.20735,0.00953139,0.0396638,1014,1730,9.01066,-48.4161
-203,-706,8.76709,48.7457,-0.0059726,0.00533021,0.00466343,0.00700588,-0.00764826,1.22584,0.00846328,0.031825,1021,1730,8.76713,-48.7457
-196,-706,8.74255,49.2865,-0.00614653,0.00399089,0.0040345,0.00540053,-0.00755617,1.23466,0.00751498,0.0248813,1028,1730,8.74261,-49.2865
-189,-706,8.60876,49.8577,-0.00607173,0.0028401,0.00363464,0.00413446,-0.0073661,1.22868,0.00672666,0.0215678,1035,1730,8.60874,-49.8577
-182,-706,8.54089,50.3749,-0.00560463,0.00222466,0.00336425,0.00347167,-0.00685164,1.21583,0.00606572,0.0173245,1042,1730,8.54083,-50.3749
-175,-706,8.55078,50.8663,-0.00490914,0.00139226,0.00278871,0.00244916,-0.00596603,1.20853,0.00499794,0.017304,1049,1730,8.55078,-50.8664
-168,-706,8.53369,51.3293,-0.00436457,0.00190783,0.0025919,0.00284026,-0.00529699,1.22547,0.00476888,0.0168148,1056,1730,8.53369,-51.3294
-161,-706,8.49402,51.7972,-0.00385155,0.00255839,0.00270904,0.00354993,-0.00484309,1.21993,0.00486485,0.0134102,1063,1730,8.49407,-51.7973
-154,-706,8.45679,52.2729,-0.00312022,0.00283216,0.00283767,0.00396816,-0.00425621,1.19001,0.00474931,0.0129276,1070,1730,8.45683,-52.273
-147,-706,8.40515,52.6609,-0.00231109,0.00290318,0.00266686,0.00402556,-0.00343348,1.17243,0.004311,0.0123748,1077,1730,8.4052,-52.6609
-140,-706,8.37695,53.0918,-0.00158165,0.00288458,0.00244146,0.00396017,-0.00265724,1.15583,0.00384517,0.0119985,1084,1730,8.37696,-53.0917
-133,-706,8.36743,53.5034,-0.000965227,0.00283644,0.00220962,0.00385032,-0.00197911,1.14061,0.00342294,0.0102146,1091,1730,8.36738,-53.5034
-126,-706,8.37305,53.8898,-0.000375661,0.00286642,0.00200117,0.00382074,-0.00132998,1.12582,0.00308749,0.0154826,1098,1730,8.37305,-53.8897
-119,-706,8.36108,54.275,-4.35699e-07,0.00277898,0.00170686,0.00359033,-0.000811788,1.12706,0.00270506,0.0191572,1105,1730,8.36114,-54.275
-112,-706,8.349,54.6929,0.000360414,0.00264848,0.00155077,0.00343154,-0.000422649,1.1032,0.0024408,0.0131243,1112,1730,8.34905,-54.6928
-105,-706,8.31763,55.075,0.000703941,0.0023218,0.00133977,0.00307791,-5.2168e-05,1.057,0.00206955,0.0100589,1119,1730,8.31769,-55.0749
-98,-706,8.33777,55.405,0.00102362,0.00189063,0.00112753,0.00266511,0.000249129,0.968924,0.0016998,0.0121773,1126,1730,8.33775,-55.405
-91,-706,8.36182,55.7494,0.00139762,0.00159496,0.000876963,0.00237879,0.000613794,0.841419,0.00142599,0.0162223,1133,1730,8.36183,-55.7494
-84,-706,8.35059,56.0872,0.00177877,0.00132225,0.000632833,0.00222325,0.00087777,0.612315,0.00129303,0.0195064,1140,1730,8.3506,-56.0871
-77,-706,8.3291,56.3767,0.00214564,0.00106026,0.000448782,0.00230716,0.000898737,0.345483,0.00134283,0.0178396,1147,1730,8.32908,-56.3767
-70,-706,8.32446,56.7017,0.00244917,0.000705144,0.000101757,0.00245509,0.000699227,0.0580835,0.00146055,0.017781,1154,1730,8.32447,-56.7016
-63,-706,8.34229,56.9952,0.00299373,-0.000393211,6.41469e-05,0.00299495,-0.000394425,0.0189304,0.00214026,0.0133464,1161,1730,8.34226,-56.9953
-56,-706,8.33459,57.2578,0.00393442,-0.00110765,0.000481523,0.00397999,-0.00115322,0.0943645,0.00310985,0.013893,1168,1730,8.33454,-57.2578
-49,-706,8.34229,57.5474,0.00465019,-0.00188239,0.00111996,0.00483686,-0.00206906,0.165161,0.00409249,0.0159973,1175,1730,8.34225,-57.5474
-42,-706,8.39307,57.8035,0.00552564,-0.0020831,0.00183256,0.00594401,-0.00250147,0.22445,0.0050092,0.0209654,1182,1730,8.39304,-57.8034
-35,-706,8.41614,57.9789,0.00682289,-0.001883,0.00236706,0.00742486,-0.00248496,0.249029,0.00595367,0.0183433,1189,1730,8.41618,-57.9788
-28,-706,8.46265,58.1655,0.00809142,-0.00174569,0.00338261,0.0091423,-0.00279658,0.30122,0.00721017,0.0120241,1196,1730,8.46267,-58.1655
-21,-706,8.49329,58.3431,0.00895591,-0.00131473,0.00412841,0.0104096,-0.00276844,0.338565,0.00802338,0.0129979,1203,1730,8.49323,-58.3431
-14,-706,8.53845,58.5277,0.0102582,-0.000883749,0.00538965,0.0124386,-0.00306417,0.384428,0.00948033,0.012457,1210,1730,8.53847,-58.5278
-7,-706,8.59839,58.7161,0.0115959,-0.000459992,0.00656659,0.0144817,-0.00334587,0.414071,0.0109417,0.00931368,1217,1730,8.59836,-58.716
0,-706,8.66479,58.8763,0.0128515,0.000350751,0.007502,0.0163657,-0.00316347,0.438081,0.0121035,0.0137048,1224,1730,8.66474,-58.8764
7,-706,8.6792,59.0078,0.0144398,0.00119337,0.00831142,0.0184443,-0.00281104,0.448979,0.0133323,0.0167758,1231,1730,8.67926,-59.0078
14,-706,8.70032,59.1012,0.0158319,0.00202434,0.00913935,0.0203819,-0.0025257,0.461928,0.0145033,0.016417,1238,1730,8.70028,-59.1011
21,-706,8.75769,59.1926,0.0167506,0.00277789,0.00943366,0.0215032,-0.0019747,0.466676,0.015037,0.0130286,1245,1730,8.75772,-59.1927
28,-706,8.82837,59.274,0.0168485,0.00298959,0.00903608,0.0213062,-0.00146814,0.458294,0.014718,0.0132258,1252,1730,8.82835,-59.274
35,-706,8.85999,59.3652,0.0164111,0.00277855,0.0081874,0.0202482,-0.00105859,0.438266,0.0138652,0.0150886,1259,1730,8.86003,-59.3652
42,-706,8.91638,59.4188,0.015598,0.00239397,0.00684213,0.0185039,-0.000511982,0.401629,0.0125101,0.0122531,1266,1730,8.91637,-59.4189
49,-706,8.96558,59.4584,0.0141942,0.00196164,0.00477166,0.0158353,0.000320497,0.331262,0.0104517,0.0145428,1273,1730,8.96558,-59.4584
56,-706,9.0332,59.4719,0.0125506,0.000621669,0.00263587,0.0131071,6.51921e-05,0.208061,0.00871639,0.0151963,1280,1730,9.03318,-59.4719
63,-706,9.10425,59.4492,0.0102628,-0.000904071,0.00034925,0.0102738,-0.000914983,0.0312347,0.00717364,0.013355,1287,1730,9.10427,-59.4492
70,-706,9.13818,59.4493,0.00789053,-0.00282073,-0.00187645,0.00820974,-0.00313995,-0.168502,0.00676715,0.0134727,1294,1730,9.13822,-59.4493
77,-706,9.18604,59.4377,0.00604318,-0.00460675,-0.00414081,0.0074637,-0.00602727,-0.330473,0.00780372,0.0113713,1301,1730,9.18607,-59.4378
84,-706,9.25342,59.4034,0.00483856,-0.00621322,-0.00549742,0.00710736,-0.00848201,-0.391408,0.00901219,0.00974513,1308,1730,9.2534,-59.4035
91,-706,9.28284,59.3693,0.00386644,-0.00704695,-0.00673606,0.00707866,-0.0102592,-0.444972,0.010066,0.0110005,1315,1730,9.28282,-59.3693
98,-706,9.32861,59.3025,0.0034277,-0.0077827,-0.00726655,0.0069997,-0.0113547,-0.456879,0.0106959,0.0153891,1322,1730,9.32865,-59.3025
105,-706,9.39331,59.2484,0.00363286,-0.0084943,-0.00714758,0.00694237,-0.0118038,-0.433633,0.0109438,0.0182611,1329,1730,9.39325,-59.2484
112,-706,9.39465,59.1615,0.00393578,-0.00888885,-0.00682899,0.00689112,-0.0118442,-0.408428,0.0109421,0.0168153,1336,1730,9.39465,-59.1615
119,-706,9.42358,59.0497,0.00464831,-0.00909625,-0.00650779,0.00724068,-0.0116886,-0.379082,0.0110289,0.0139591,1343,1730,9.42354,-59.0497
126,-706,9.49768,58.8829,0.00537219,-0.00910209,-0.00602904,0.00755447,-0.0112844,-0.347291,0.0109474,0.0153075,1350,1730,9.49772,-58.8829
133,-706,9.58984,58.6935,0.00606715,-0.00855644,-0.00543919,0.00786837,-0.0103577,-0.31979,0.0105555,0.0126227,1357,1730,9.58986,-58.6935
140,-706,9.63,58.4862,0.00652549,-0.00762142,-0.0047957,0.00799794,-0.00909387,-0.297899,0.00987472,0.0129254,1364,1730,9.63,-58.4863
147,-706,9.69153,58.2943,0.00663097,-0.00646452,-0.00401767,0.00776532,-0.00759887,-0.275179,0.0088707,0.0248475,1371,1730,9.69149,-58.2943
154,-706,9.74292,58.1669,0.00649901,-0.00560379,-0.00315617,0.00727263,-0.00637741,-0.240374,0.0078865,0.0237502,1378,1730,9.74288,-58.1669
161,-706,9.72522,57.9344,0.00621429,-0.0039386,-0.0024676,0.00678226,-0.00450656,-0.226228,0.0065616,0.0115871,1385,1730,9.72526,-57.9345
168,-706,9.7467,57.692,0.00622106,-0.0026371,-0.00159577,0.00649976,-0.0029158,-0.172908,0.0055658,0.0113107,1392,1730,9.74669,-57.692
175,-706,9.79504,57.4498,0.0058608,-0.00111958,-0.000383739,0.00588183,-0.00114061,-0.054754,0.00435154,0.0112409,1399,1730,9.79503,-57.4499
182,-706,9.80908,57.1753,0.00490753,0.000259821,0.000234804,0.00491936,0.000247989,0.0503495,0.00320011,0.0117661,1406,1730,9.80909,-57.1753
189,-706,9.82202,56.8977,0.00403099,0.000687367,0.000276483,0.0040537,0.000664659,0.0819478,0.00251042,0.0156178,1413,1730,9.82201,-56.8977
196,-706,9.85107,56.6013,0.00296851,0.000802028,0.00054046,0.00309585,0.000674687,0.231395,0.00187981,0.0132998,1420,1730,9.85104,-56.6014
203,-706,9.85168,56.313,0.00251907,0.00114378,0.000396035,0.00262496,0.00103789,0.261265,0.00152654,0.0139905,1427,1730,9.85165,-56.313
210,-706,9.85095,56.0214,0.00211227,0.00128063,0.0001425,0.002136,0.00125689,0.165077,0.00123964,0.0126267,1434,1730,9.85092,-56.0214
217,-706,9.83826,55.7295,0.00170277,0.00141727,-9.00842e-05,0.00172882,0.00139122,-0.281473,0.00105812,0.0131033,1441,1730,9.83829,-55.7295
224,-706,9.80725,55.3915,0.00128275,0.00160273,-0.00038177,0.00185668,0.0010288,-0.98382,0.00107404,0.018576,1448,1730,9.80729,-55.3914
231,-706,9.84302,55.0085,0.000787431,0.00175712,-0.00063831,0.00207385,0.000470707,-1.1102,0.00125543,0.0139092,1455,1730,9.84301,-55.0086
238,-706,9.85388,54.6392,0.000410272,0.00189381,-0.00086467,0.00229128,1.27977e-05,-1.13992,0.00152327,0.00910489,1462,1730,9.85387,-54.6391
245,-706,9.85205,54.2567,4.88958e-05,0.00201004,-0.00108603,0.00249268,-0.000433742,-1.1526,0.00182364,0.0120378,1469,1730,9.85205,-54.2567
252,-706,9.84595,53.8756,-0.000426205,0.00208631,-0.00124957,0.00260194,-0.000941844,-1.17943,0.00211952,0.0123871,1476,1730,9.84596,-53.8756
259,-706,9.82288,53.4949,-0.000931657,0.00211833,-0.00132983,0.00261671,-0.00143004,-1.21223,0.00236964,0.0133205,1483,1730,9.82292,-53.4948
266,-706,9.78198,53.1019,-0.00139709,0.00205381,-0.00141218,0.00255802,-0.00190131,-1.22785,0.00258389,0.0134318,1490,1730,9.78197,-53.1019
273,-706,9.75403,52.6672,-0.00184996,0.00209675,-0.00148943,0.00259574,-0.00234895,-1.24752,0.00285601,0.0133209,1497,1730,9.75402,-52.6673
280,-706,9.7323,52.2065,-0.00240232,0.00216367,-0.00157427,0.00265384,-0.00289248,-1.26895,0.00320315,0.0118724,1504,1730,9.73236,-52.2065
287,-706,9.69946,51.766,-0.00308476,0.00252419,-0.00161652,0.00295672,-0.00351729,-1.30935,0.00374244,0.0123476,1511,1730,9.6995,-51.7659
294,-706,9.70825,51.3398,-0.00361209,0.00350121,-0.00140667,0.00376928,-0.00388016,-1.38248,0.00441656,0.0111964,1518,1730,9.70831,-51.3399
301,-706,9.69348,50.8876,-0.00382466,0.00479953,-0.00137397,0.00501313,-0.00403827,-1.41657,0.00523592,0.0107616,1525,1730,9.69346,-50.8875
308,-706,9.65234,50.4119,-0.00428533,0.0066879,-0.00147212,0.00688196,-0.00447939,-1.43973,0.00660819,0.0145487,1532,1730,9.65238,-50.4119
315,-706,9.62585,49.9103,-0.00471007,0.00935819,-0.00153084,0.00952284,-0.00487472,-1.46365,0.0084556,0.0266332,1539,1730,9.62582,-49.9103
322,-706,9.62109,49.3751,-0.00499689,0.0120737,-0.00159815,0.012222,-0.00514522,-1.47825,0.0103007,0.0279039,1546,1730,9.62108,-49.3751
329,-706,9.55603,48.8862,-0.0050937,0.0153289,-0.00169452,0.0154685,-0.00523334,-1.48857,0.0124296,0.0251923,1553,1730,9.55601,-48.8863
336,-706,9.33691,48.2755,-0.00494714,0.0192458,-0.00213744,0.0194332,-0.00513453,-1.48335,0.0149636,0.0413182,1560,1730,9.33693,-48.2755
343,-706,9.04236,47.5601,-0.00507202,0.0230647,-0.00257016,0.0232975,-0.00530487,-1.48045,0.017569,0.0449649,1567,1730,9.04241,-47.5601
350,-706,9.29297,47.0928,-0.0051437,0.0265824,-0.00291421,0.0268478,-0.00540917,-1.47995,0.0199476,0.0495982,1574,1730,9.29295,-47.0927
357,-706,9.13074,46.4432,0,0,0,0,0,0,0,-1,1581,1730,9.13076,-46.4432
364,-706,8.76831,45.4982,0,0,0,0,0,0,0,-1,1588,1730,8.76832,-45.4982
371,-706,8.00464,44.9037,0,0,0,0,0,0,0,-1,1595,1730,8.00467,-44.9037
378,-706,7.63867,44.0519,0,0,0,0,0,0,0,-1,1602,1730,7.63863,-44.0519
385,-706,7.3186,43.2451,0,0,0,0,0,0,0,-1,1609,1730,7.31862,-43.2451
392,-706,7.33728,42.4652,0,0,0,0,0,0,0,-1,1616,1730,7.3373,-42.4651
399,-706,7.51855,41.7692,0,0,0,0,0,0,0,-1,1623,1730,7.51855,-41.7691
406,-706,7.46301,40.9797,0,0,0,0,0,0,0,-1,1630,1730,7.46301,-40.9797
413,-706,8.43433,40.3345,0,0,0,0,0,0,0,-1,1637,1730,8.43428,-40.3344
420,-706,8.0636,39.6101,0,0,0,0,0,0,0,-1,1644,1730,8.06362,-39.6101
427,-706,0,0,0,0,0,0,0,0,0,-1,1651,1730,0,0
434,-706,0,0,0,0,0,0,0,0,0,-1,1658,1730,0,0
441,-706,0,0,0,0,0,0,0,0,0,-1,1665,1730,0,0
448,-706,0,0,0,0,0,0,0,0,0,-1,1672,1730,0,0
455,-706,0,0,0,0,0,0,0,0,0,-1,1679,1730,0,0
462,-706,0,0,0,0,0,0,0,0,0,-1,1686,1730,0,0
469,-706,0,0,0,0,0,0,0,0,0,-1,1693,1730,0,0
476,-706,0,0,0,0,0,0,0,0,0,-1,1700,1730,0,0
483,-706,0,0,0,0,0,0,0,0,0,-1,1707,1730,0,0
490,-706,0,0,0,0,0,0,0,0,0,-1,1714,1730,0,0
497,-706,0,0,0,0,0,0,0,0,0,-1,1721,1730,0,0
504,-706,0,0,0,0,0,0,0,0,0,-1,1728,1730,0,0
511,-706,0,0,0,0,0,0,0,0,0,-1,1735,1730,0,0
518,-706,0,0,0,0,0,0,0,0,0,-1,1742,1730,0,0
525,-706,0,0,0,0,0,0,0,0,0,-1,1749,1730,0,0
532,-706,0,0,0,0,0,0,0,0,0,-1,1756,1730,0,0
539,-706,0,0,0,0,0,0,0,0,0,-1,1763,1730,0,0
546,-706,0,0,0,0,0,0,0,0,0,-1,1770,1730,0,0
553,-706,0,0,0,0,0,0,0,0,0,-1,1777,1730,0,0
560,-706,0,0,0,0,0,0,0,0,0,-1,1784,1730,0,0
567,-706,0,0,0,0,0,0,0,0,0,-1,1791,1730,0,0
574,-706,0,0,0,0,0,0,0,0,0,-1,1798,1730,0,0
581,-706,0,0,0,0,0,0,0,0,0,-1,1805,1730,0,0
588,-706,0,0,0,0,0,0,0,0,0,-1,1812,1730,0,0
595,-706,0,0,0,0,0,0,0,0,0,-1,1819,1730,0,0
602,-706,0,0,0,0,0,0,0,0,0,-1,1826,1730,0,0
609,-706,0,0,0,0,0,0,0,0,0,-1,1833,1730,0,0
616,-706,0,0,0,0,0,0,0,0,0,-1,1840,1730,0,0
623,-706,0,0,0,0,0,0,0,0,0,-1,1847,1730,0,0
630,-706,0,0,0,0,0,0,0,0,0,-1,1854,1730,0,0
637,-706,0,0,0,0,0,0,0,0,0,-1,1861,1730,0,0
644,-706,0,0,0,0,0,0,0,0,0,-1,1868,1730,0,0
651,-706,0,0,0,0,0,0,0,0,0,-1,1875,1730,0,0
658,-706,0,0,0,0,0,0,0,0,0,-1,1882,1730,0,0
665,-706,0,0,0,0,0,0,0,0,0,-1,1889,1730,0,0
672,-706,0,0,0,0,0,0,0,0,0,-1,1896,1730,0,0
679,-706,0,0,0,0,0,0,0,0,0,-1,1903,1730,0,0
686,-706,0,0,0,0,0,0,0,0,0,-1,1910,1730,0,0
693,-706,0,0,0,0,0,0,0,0,0,-1,1917,1730,0,0
700,-706,0,0,0,0,0,0,0,0,0,-1,1924,1730,0,0
707,-706,0,0,0,0,0,0,0,0,0,-1,1931,1730,0,0
714,-706,0,0,0,0,0,0,0,0,0,-1,1938,1730,0,0
721,-706,0,0,0,0,0,0,0,0,0,-1,1945,1730,0,0
728,-706,0,0,0,0,0,0,0,0,0,-1,1952,1730,0,0
735,-706,0,0,0,0,0,0,0,0,0,-1,1959,1730,0,0
742,-706,0,0,0,0,0,0,0,0,0,-1,1966,1730,0,0
749,-706,0,0,0,0,0,0,0,0,0,-1,1973,1730,0,0
756,-706,0,0,0,0,0,0,0,0,0,-1,1980,1730,0,0
763,-706,0,0,0,0,0,0,0,0,0,-1,1987,1730,0,0
770,-706,0,0,0,0,0,0,0,0,0,-1,1994,1730,0,0
777,-706,0,0,0,0,0,0,0,0,0,-1,2001,1730,0,0
784,-706,0,0,0,0,0,0,0,0,0,-1,2008,1730,0,0
791,-706,0,0,0,0,0,0,0,0,0,-1,2015,1730,0,0
798,-706,0,0,0,0,0,0,0,0,0,-1,2022,1730,0,0
805,-706,0,0,0,0,0,0,0,0,0,-1,2029,1730,0,0
812,-706,0,0,0,0,0,0,0,0,0,-1,2036,1730,0,0
-700,-713,0,0,0,0,0,0,0,0,0,-1,524,1737,0,0
-693,-713,0,0,0,0,0,0,0,0,0,-1,531,1737,0,0
-686,-713,0,0,0,0,0,0,0,0,0,-1,538,1737,0,0
-679,-713,0,0,0,0,0,0,0,0,0,-1,545,1737,0,0
-672,-713,0,0,0,0,0,0,0,0,0,-1,552,1737,0,0
-665,-713,0,0,0,0,0,0,0,0,0,-1,559,1737,0,0
-658,-713,0,0,0,0,0,0,0,0,0,-1,566,1737,0,0
-651,-713,0,0,0,0,0,0,0,0,0,-1,573,1737,0,0
-644,-713,0,0,0,0,0,0,0,0,0,-1,580,1737,0,0
-637,-713,0,0,0,0,0,0,0,0,0,-1,587,1737,0,0
-630,-713,0,0,0,0,0,0,0,0,0,-1,594,1737,0,0
-623,-713,0,0,0,0,0,0,0,0,0,-1,601,1737,0,0
-616,-713,0,0,0,0,0,0,0,0,0,-1,608,1737,0,0
-609,-713,0,0,0,0,0,0,0,0,0,-1,615,1737,0,0
-602,-713,0,0,0,0,0,0,0,0,0,-1,622,1737,0,0
-595,-713,0,0,0,0,0,0,0,0,0,-1,629,1737,0,0
-588,-713,0,0,0,0,0,0,0,0,0,-1,636,1737,0,0
-581,-713,0,0,0,0,0,0,0,0,0,-1,643,1737,0,0
-574,-713,0,0,0,0,0,0,0,0,0,-1,650,1737,0,0
-567,-713,0,0,0,0,0,0,0,0,0,-1,657,1737,0,0
-560,-713,0,0,0,0,0,0,0,0,0,-1,664,1737,0,0
-553,-713,0,0,0,0,0,0,0,0,0,-1,671,1737,0,0
-546,-713,0,0,0,0,0,0,0,0,0,-1,678,1737,0,0
-539,-713,0,0,0,0,0,0,0,0,0,-1,685,1737,0,0
-532,-713,0,0,0,0,0,0,0,0,0,-1,692,1737,0,0
-525,-713,0,0,0,0,0,0,0,0,0,-1,699,1737,0,0
-518,-713,0,0,0,0,0,0,0,0,0,-1,706,1737,0,0
-511,-713,0,0,0,0,0,0,0,0,0,-1,713,1737,0,0
-504,-713,0,0,0,0,0,0,0,0,0,-1,720,1737,0,0
-497,-713,0,0,0,0,0,0,0,0,0,-1,727,1737,0,0
-490,-713,0,0,0,0,0,0,0,0,0,-1,734,1737,0,0
-483,-713,0,0,0,0,0,0,0,0,0,-1,741,1737,0,0
-476,-713,0,0,0,0,0,0,0,0,0,-1,748,1737,0,0
-469,-713,0,0,0,0,0,0,0,0,0,-1,755,1737,0,0
-462,-713,0,0,0,0,0,0,0,0,0,-1,762,1737,0,0
-455,-713,0,0,0,0,0,0,0,0,0,-1,769,1737,0,0
-448,-713,0,0,0,0,0,0,0,0,0,-1,776,1737,0,0
-441,-713,0,0,0,0,0,0,0,0,0,-1,783,1737,0,0
-434,-713,0,0,0,0,0,0,0,0,0,-1,790,1737,0,0
-427,-713,0,0,0,0,0,0,0,0,0,-1,797,1737,0,0
-420,-713,0,0,0,0,0,0,0,0,0,-1,804,1737,0,0
-413,-713,0,0,0,0,0,0,0,0,0,-1,811,1737,0,0
-406,-713,0,0,0,0,0,0,0,0,0,-1,818,1737,0,0
-399,-713,0,0,0,0,0,0,0,0,0,-1,825,1737,0,0
-392,-713,0,0,0,0,0,0,0,0,0,-1,832,1737,0,0
-385,-713,0,0,0,0,0,0,0,0,0,-1,839,1737,0,0
-378,-713,0,0,0,0,0,0,0,0,0,-1,846,1737,0,0
-371,-713,0,0,0,0,0,0,0,0,0,-1,853,1737,0,0
-364,-713,0,0,0,0,0,0,0,0,0,-1,860,1737,0,0
-357,-713,0,0,0,0,0,0,0,0,0,-1,867,1737,0,0
-350,-713,0,0,0,0,0,0,0,0,0,-1,874,1737,0,0
-343,-713,0,0,0,0,0,0,0,0,0,-1,881,1737,0,0
-336,-713,0,0,0,0,0,0,0,0,0,-1,888,1737,0,0
-329,-713,0,0,0,0,0,0,0,0,0,-1,895,1737,0,0
-322,-713,0,0,0,0,0,0,0,0,0,-1,902,1737,0,0
-315,-713,0,0,0,0,0,0,0,0,0,-1,909,1737,0,0
-308,-713,0,0,0,0,0,0,0,0,0,-1,916,1737,0,0
-301,-713,0,0,0,0,0,0,0,0,0,-1,923,1737,0,0
-294,-713,7.17883,22.0453,0,0,0,0,0,0,0,-1,930,1737,7.17881,-22.0453
-287,-713,11.8916,21.5834,0,0,0,0,0,0,0,-1,937,1737,11.8916,-21.5833
-280,-713,10.2786,21.3551,0,0,0,0,0,0,0,-1,944,1737,10.2787,-21.3551
-273,-713,11.1981,23.8683,0,0,0,0,0,0,0,-1,951,1737,11.198,-23.8683
-266,-713,3.17981,19.8851,0,0,0,0,0,0,0,-1,958,1737,3.17983,-19.8851
-259,-713,3.5921,19.6868,0,0,0,0,0,0,0,-1,965,1737,3.59207,-19.6868
-252,-713,4.55469,20.5758,0,0,0,0,0,0,0,-1,972,1737,4.55466,-20.5758
-245,-713,3.89014,25.9825,0,0,0,0,0,0,0,-1,979,1737,3.89013,-25.9826
-238,-713,6.62506,30.5463,0,0,0,0,0,0,0,-1,986,1737,6.62509,-30.5462
-231,-713,9.22864,47.2107,0,0,0,0,0,0,0,-1,993,1737,9.22866,-47.2107
-224,-713,9.27545,47.6686,0,0,0,0,0,0,0,-1,1000,1737,9.27548,-47.6686
-217,-713,9.52948,48.5394,0,0,0,0,0,0,0,-1,1007,1737,9.52946,-48.5394
-210,-713,9.80896,48.6536,0,0,0,0,0,0,0,-1,1014,1737,9.80896,-48.6536
-203,-713,9.29211,48.7266,0,0,0,0,0,0,0,-1,1021,1737,9.2921,-48.7266
-196,-713,9.22546,49.1677,-0.00824908,0.00447315,0.00503639,0.00622554,-0.0100015,1.23595,0.00945284,0.0489312,1028,1737,9.22544,-49.1677
-189,-713,9.0719,49.6648,-0.00823718,0.0034234,0.00466234,0.00505834,-0.00987213,1.23352,0.00876818,0.0428933,1035,1737,9.07195,-49.6648
-182,-713,8.97351,50.1765,-0.00778301,0.00292708,0.00438617,0.00449411,-0.00935003,1.22766,0.00815516,0.028943,1042,1737,8.9735,-50.1765
-175,-713,8.97473,50.7537,-0.00702488,0.0020425,0.00375636,0.00339648,-0.00837885,1.22484,0.00699841,0.0255622,1049,1737,8.97472,-50.7537
-168,-713,9.04419,51.2671,-0.00642485,0.00255466,0.00352324,0.00377201,-0.00764221,1.23812,0.00671509,0.0288394,1056,1737,9.04425,-51.2671
-161,-713,8.91772,51.8116,-0.00581436,0.00330307,0.0036798,0.00460292,-0.00711421,1.23124,0.00681648,0.0130868,1063,1737,8.91769,-51.8117
-154,-713,8.85193,52.2306,-0.00495193,0.00357169,0.00385125,0.00505402,-0.00643427,1.20338,0.0066487,0.0113104,1070,1737,8.85193,-52.2305
-147,-713,8.81262,52.6678,-0.00401075,0.00356491,0.00365076,0.00503785,-0.00548369,1.18731,0.00607643,0.0185003,1077,1737,8.81263,-52.6678
-140,-713,8.80872,53.1348,-0.00317627,0.0034658,0.00339254,0.00489225,-0.00460271,1.17277,0.00548277,0.019413,1084,1737,8.80868,-53.1348
-133,-713,8.75574,53.528,-0.00249086,0.00331624,0.00311244,0.00466921,-0.00384382,1.16074,0.00492269,0.0140655,1091,1737,8.75572,-53.528
-126,-713,8.73926,53.8839,-0.00179218,0.00331594,0.00288692,0.00461642,-0.00309267,1.14755,0.00447973,0.0206529,1098,1737,8.73931,-53.8839
-119,-713,8.73206,54.2473,-0.00142759,0.00322054,0.00252127,0.00432548,-0.00253253,1.15776,0.00400432,0.0266817,1105,1737,8.73206,-54.2473
-112,-713,8.69983,54.6954,-0.00106167,0.00314297,0.0023782,0.00421485,-0.00213355,1.14735,0.00373033,0.014193,1112,1737,8.69988,-54.6954
-105,-713,8.69592,55.0629,-0.000669654,0.0028479,0.00217691,0.00388773,-0.00170949,1.12518,0.00331212,0.0113599,1119,1737,8.69596,-55.0629
-98,-713,8.6908,55.4044,-0.000312529,0.0024099,0.0019776,0.00344948,-0.00135211,1.08682,0.00285899,0.0109334,1126,1737,8.69084,-55.4044
-91,-713,8.66199,55.7557,6.40675e-05,0.00216129,0.00175455,0.0031567,-0.000931344,1.05474,0.00247405,0.0106719,1133,1737,8.66198,-55.7557
-84,-713,8.63,56.0996,0.000352032,0.00191434,0.00151683,0.00283935,-0.000572972,1.02318,0.00210998,0.0101345,1140,1737,8.62999,-56.0996
-77,-713,8.62268,56.4089,0.000601152,0.00168501,0.00130844,0.00255931,-0.000273149,0.981733,0.00180416,0.0141404,1147,1737,8.62271,-56.4089
-70,-713,8.62891,56.703,0.000886137,0.00142141,0.000999938,0.00218891,0.000118639,0.91616,0.00142138,0.0153105,1154,1737,8.62896,-56.7031
-63,-713,8.6272,57.0012,0.00129033,0.000897335,0.000820397,0.00193743,0.000250231,0.667855,0.00121682,0.0132297,1161,1737,8.62721,-57.0012
-56,-713,8.63672,57.265,0.00178451,0.000460282,0.000815489,0.00217284,7.19605e-05,0.444413,0.00142518,0.0141802,1168,1737,8.63671,-57.265
-49,-713,8.60852,57.5297,0.00215538,-3.12384e-05,0.000851228,0.00244768,-0.000323539,0.330771,0.00174963,0.0171702,1175,1737,8.60858,-57.5297
-42,-713,8.63293,57.7729,0.00261172,-0.000368845,0.00105158,0.00294538,-0.000702504,0.307245,0.00223486,0.0196906,1182,1737,8.63292,-57.773
-35,-713,8.65552,57.9683,0.00325317,-0.000620687,0.00121674,0.00360363,-0.000971149,0.280442,0.0027832,0.0157673,1189,1737,8.65552,-57.9683
-28,-713,8.67188,58.2051,0.00390781,-0.000900295,0.00168461,0.00443929,-0.00143178,0.30561,0.0035348,0.0138339,1196,1737,8.67183,-58.2051
-21,-713,8.67712,58.3717,0.00439587,-0.00102001,0.00210127,0.0051155,-0.00173964,0.329957,0.00411468,0.0105837,1203,1737,8.67711,-58.3717
-14,-713,8.6991,58.5486,0.00484055,-0.00117958,0.00251983,0.00575604,-0.00209507,0.348489,0.00469424,0.0120756,1210,1737,8.69907,-58.5485
-7,-713,8.75928,58.735,0.00521879,-0.00119062,0.00290041,0.00633641,-0.00230825,0.367798,0.00516846,0.00973335,1217,1737,8.7593,-58.735
0,-713,8.80579,58.8851,0.0055718,-0.000867953,0.00330993,0.00696963,-0.00226578,0.399594,0.00555783,0.0147435,1224,1737,8.80582,-58.8852
7,-713,8.79504,59.0111,0.00585487,-0.000445696,0.00365296,0.00752831,-0.00211914,0.429576,0.00585453,0.0178453,1231,1737,8.79499,-59.0111
14,-713,8.79553,59.1364,0.00605272,-2.74492e-05,0.00388346,0.00794451,-0.00191924,0.453307,0.00603862,0.0127253,1238,1737,8.79547,-59.1364
21,-713,8.86499,59.2255,0.00599368,0.000473039,0.00380559,0.00793462,-0.0014679,0.471635,0.00584086,0.0111005,1245,1737,8.86493,-59.2255
28,-713,8.89063,59.3094,0.00568589,0.000835433,0.00347986,0.00750226,-0.000980936,0.481066,0.0053585,0.0113836,1252,1737,8.89058,-59.3094
35,-713,8.91479,59.391,0.00517132,0.00101993,0.00295788,0.00670915,-0.000517894,0.479448,0.00465501,0.0114374,1259,1737,8.91476,-59.3909
42,-713,8.9696,59.4402,0.00452596,0.00116267,0.00224479,0.00564913,3.94993e-05,0.463925,0.00375299,0.0108645,1266,1737,8.96956,-59.4402
49,-713,9.00684,59.4397,0.00398306,0.00123057,0.00116879,0.00441239,0.000801235,0.352034,0.00271423,0.013239,1273,1737,9.00678,-59.4397
56,-713,9.04541,59.4382,0.00360364,0.000554393,0.000228072,0.0036206,0.000537429,0.0742458,0.00225603,0.015768,1280,1737,9.0454,-59.4383
63,-713,9.08301,59.4645,0.00291933,-0.000159611,-0.00080641,0.00311775,-0.000358032,-0.241262,0.00220754,0.0152631,1287,1737,9.08301,-59.4644
70,-713,9.11243,59.4744,0.0024524,-0.00120327,-0.00177135,0.00316989,-0.00192076,-0.384852,0.00296844,0.0131831,1294,1737,9.11243,-59.4743
77,-713,9.16248,59.4659,0.0022887,-0.00234304,-0.00288294,0.00367074,-0.00372508,-0.447023,0.00427002,0.0123835,1301,1737,9.16251,-59.4659
84,-713,9.20142,59.4486,0.00242468,-0.00341084,-0.00342283,0.00400459,-0.00499076,-0.432443,0.00520386,0.0128047,1308,1737,9.20146,-59.4486
91,-713,9.21155,59.3901,0.00279928,-0.00400449,-0.00371137,0.00443198,-0.00563719,-0.414439,0.00582731,0.0131808,1315,1737,9.21156,-59.3902
98,-713,9.22876,59.3057,0.00318349,-0.00482513,-0.00386317,0.00474322,-0.00638486,-0.38373,0.00644807,0.0130491,1322,1737,9.22875,-59.3056
105,-713,9.27283,59.2347,0.00357344,-0.00553161,-0.00388254,0.00500419,-0.00696236,-0.353068,0.00693966,0.0152026,1329,1737,9.27285,-59.2347
112,-713,9.29236,59.1589,0.00397632,-0.00598901,-0.00378012,0.00524796,-0.00726064,-0.324508,0.00725294,0.0146457,1336,1737,9.29235,-59.1589
119,-713,9.32239,59.0704,0.0043005,-0.0062397,-0.00357498,0.00539863,-0.00733783,-0.298025,0.00738176,0.0148893,1343,1737,9.32242,-59.0704
126,-713,9.35413,58.9269,0.00462283,-0.00633067,-0.00325651,0.00551787,-0.0072257,-0.268222,0.00737949,0.0144789,1350,1737,9.35417,-58.9268
133,-713,9.3822,58.7262,0.00482943,-0.00599699,-0.00290654,0.00556039,-0.00672794,-0.246378,0.00710534,0.0127523,1357,1737,9.38216,-58.7263
140,-713,9.43982,58.5223,0.00486257,-0.00531657,-0.00250733,0.00544666,-0.00590066,-0.228872,0.00655313,0.0141958,1364,1737,9.43985,-58.5224
147,-713,9.4425,58.3093,0.0046618,-0.00444089,-0.00207842,0.00511391,-0.004893,-0.21419,0.00577796,0.0156869,1371,1737,9.44251,-58.3094
154,-713,9.4613,58.1692,0.00428571,-0.00367552,-0.00156159,0.00458106,-0.00397087,-0.186925,0.00494165,0.0150916,1378,1737,9.46124,-58.1692
161,-713,9.48608,57.9231,0.00380963,-0.0024053,-0.00120858,0.00403639,-0.00263205,-0.185463,0.00387838,0.0113478,1385,1737,9.48613,-57.9231
168,-713,9.50037,57.6772,0.00348873,-0.00151937,-0.000810889,0.00361675,-0.00164739,-0.156587,0.00310934,0.0114733,1392,1737,9.50037,-57.6772
175,-713,9.51489,57.4387,0.0030164,-0.000564265,-0.000313653,0.00304367,-0.000591532,-0.086716,0.00225233,0.014659,1399,1737,9.51484,-57.4388
182,-713,9.52112,57.1764,0.00238395,0.000301761,-8.03686e-05,0.00238705,0.000298664,-0.0385218,0.00150174,0.0131731,1406,1737,9.5211,-57.1764
189,-713,9.53528,56.9009,0.00185038,0.000712278,-0.000177242,0.00187735,0.000685314,-0.150972,0.00109697,0.0126612,1413,1737,9.53533,-56.9009
196,-713,9.55774,56.6014,0.00128428,0.00101001,-0.000245718,0.00142854,0.000865751,-0.53088,0.000830928,0.0139634,1420,1737,9.5577,-56.6014
203,-713,9.55103,56.3081,0.000918693,0.00145351,-0.00043908,0.0017002,0.000672002,-1.05891,0.000988766,0.018983,1427,1737,9.55097,-56.3081
210,-713,9.5332,56.0055,0.000641699,0.00181748,-0.000711292,0.00215238,0.000306793,-1.13075,0.00134438,0.015199,1434,1737,9.5332,-56.0054
217,-713,9.54065,55.6913,0.000328055,0.00213348,-0.000944393,0.0025372,-7.5666e-05,-1.16682,0.00171724,0.0119173,1441,1737,9.54063,-55.6913
224,-713,9.49939,55.3881,-8.18809e-05,0.00241073,-0.00120586,0.0028986,-0.000569756,-1.18634,0.00214766,0.0126777,1448,1737,9.49936,-55.3881
231,-713,9.50439,55.0291,-0.000660901,0.00250243,-0.00132587,0.00298464,-0.00114311,-1.22197,0.00246095,0.0118181,1455,1737,9.50444,-55.0291
238,-713,9.49268,54.6554,-0.00105749,0.0026348,-0.00145887,0.00314164,-0.00156433,-1.23642,0.0027674,0.00891209,1462,1737,9.49264,-54.6554
245,-713,9.47949,54.2729,-0.00142282,0.00273326,-0.00163572,0.00329981,-0.00198936,-1.23737,0.00308479,0.0118739,1469,1737,9.47954,-54.2729
252,-713,9.46899,53.8625,-0.00195951,0.00277683,-0.00173855,0.00334648,-0.00252916,-1.25416,0.00340323,0.0132506,1476,1737,9.46896,-53.8625
259,-713,9.44775,53.4548,-0.00254206,0.00279111,-0.00172422,0.00329999,-0.00305094,-1.2838,0.00366765,0.0137396,1483,1737,9.44781,-53.4548
266,-713,9.3949,53.0765,-0.0030579,0.00268137,-0.00173934,0.00316734,-0.00354388,-1.29834,0.00387676,0.012761,1490,1737,9.39487,-53.0765
273,-713,9.35962,52.6835,-0.0035384,0.00270528,-0.00178964,0.00318186,-0.00401499,-1.31053,0.00416437,0.0100886,1497,1737,9.35967,-52.6835
280,-713,9.32056,52.2432,-0.00411186,0.00278864,-0.00186034,0.00325823,-0.00458144,-1.32354,0.00454768,0.010993,1504,1737,9.32053,-52.2431
287,-713,9.3114,51.7968,-0.00483788,0.00326919,-0.00190297,0.00369365,-0.00526234,-1.35134,0.00519712,0.0121877,1511,1737,9.31138,-51.7967
294,-713,9.33411,51.3531,-0.00537425,0.00455909,-0.00163022,0.00481979,-0.00563495,-1.41222,0.00604216,0.0193379,1518,1737,9.33414,-51.3531
301,-713,9.19531,50.8229,-0.00546584,0.00630862,-0.00156714,0.00651363,-0.00567085,-1.44072,0.00704032,0.030337,1525,1737,9.19534,-50.8229
308,-713,9.02759,50.312,-0.0058797,0.00875994,-0.00164567,0.00894265,-0.00606242,-1.46022,0.00871622,0.0445436,1532,1737,9.02762,-50.312
315,-713,8.93835,49.801,0,0,0,0,0,0,0,-1,1539,1737,8.93841,-49.801
322,-713,9.07678,49.2333,0,0,0,0,0,0,0,-1,1546,1737,9.07678,-49.2333
329,-713,9.09814,48.7144,0,0,0,0,0,0,0,-1,1553,1737,9.0982,-48.7143
336,-713,8.88086,48.1267,0,0,0,0,0,0,0,-1,1560,1737,8.88084,-48.1267
343,-713,7.81042,47.2822,0,0,0,0,0,0,0,-1,1567,1737,7.81042,-47.2823
350,-713,8.53723,47.0834,0,0,0,0,0,0,0,-1,1574,1737,8.53719,-47.0834
357,-713,8.01538,45.3817,0,0,0,0,0,0,0,-1,1581,1737,8.01534,-45.3818
364,-713,7.52661,46.5348,0,0,0,0,0,0,0,-1,1588,1737,7.52664,-46.5347
371,-713,7.3302,45.0861,0,0,0,0,0,0,0,-1,1595,1737,7.33021,-45.0861
378,-713,6.73975,44.3853,0,0,0,0,0,0,0,-1,1602,1737,6.7397,-44.3853
385,-713,6.58777,43.6438,0,0,0,0,0,0,0,-1,1609,1737,6.58781,-43.6438
392,-713,6.62964,42.8679,0,0,0,0,0,0,0,-1,1616,1737,6.62968,-42.868
399,-713,6.53748,42.0555,0,0,0,0,0,0,0,-1,1623,1737,6.53749,-42.0555
406,-713,2.49878,27.8931,0,0,0,0,0,0,0,-1,1630,1737,2.49884,-27.893
413,-713,1.36597,29.459,0,0,0,0,0,0,0,-1,1637,1737,1.36593,-29.459
420,-713,0,0,0,0,0,0,0,0,0,-1,1644,1737,0,0
427,-713,0,0,0,0,0,0,0,0,0,-1,1651,1737,0,0
434,-713,0,0,0,0,0,0,0,0,0,-1,1658,1737,0,0
441,-713,0,0,0,0,0,0,0,0,0,-1,1665,1737,0,0
448,-713,0,0,0,0,0,0,0,0,0,-1,1672,1737,0,0
455,-713,0,0,0,0,0,0,0,0,0,-1,1679,1737,0,0
462,-713,0,0,0,0,0,0,0,0,0,-1,1686,1737,0,0
469,-713,0,0,0,0,0,0,0,0,0,-1,1693,1737,0,0
476,-713,0,0,0,0,0,0,0,0,0,-1,1700,1737,0,0
483,-713,0,0,0,0,0,0,0,0,0,-1,1707,1737,0,0
490,-713,0,0,0,0,0,0,0,0,0,-1,1714,1737,0,0
497,-713,0,0,0,0,0,0,0,0,0,-1,1721,1737,0,0
504,-713,0,0,0,0,0,0,0,0,0,-1,1728,1737,0,0
511,-713,0,0,0,0,0,0,0,0,0,-1,1735,1737,0,0
518,-713,0,0,0,0,0,0,0,0,0,-1,1742,1737,0,0
525,-713,0,0,0,0,0,0,0,0,0,-1,1749,1737,0,0
532,-713,0,0,0,0,0,0,0,0,0,-1,1756,1737,0,0
539,-713,0,0,0,0,0,0,0,0,0,-1,1763,1737,0,0
546,-713,0,0,0,0,0,0,0,0,0,-1,1770,1737,0,0
553,-713,0,0,0,0,0,0,0,0,0,-1,1777,1737,0,0
560,-713,0,0,0,0,0,0,0,0,0,-1,1784,1737,0,0
567,-713,0,0,0,0,0,0,0,0,0,-1,1791,1737,0,0
574,-713,0,0,0,0,0,0,0,0,0,-1,1798,1737,0,0
581,-713,0,0,0,0,0,0,0,0,0,-1,1805,1737,0,0
588,-713,0,0,0,0,0,0,0,0,0,-1,1812,1737,0,0
595,-713,0,0,0,0,0,0,0,0,0,-1,1819,1737,0,0
602,-713,0,0,0,0,0,0,0,0,0,-1,1826,1737,0,0
609,-713,0,0,0,0,0,0,0,0,0,-1,1833,1737,0,0
616,-713,0,0,0,0,0,0,0,0,0,-1,1840,1737,0,0
623,-713,0,0,0,0,0,0,0,0,0,-1,1847,1737,0,0
630,-713,0,0,0,0,0,0,0,0,0,-1,1854,1737,0,0
637,-713,0,0,0,0,0,0,0,0,0,-1,1861,1737,0,0
644,-713,0,0,0,0,0,0,0,0,0,-1,1868,1737,0,0
651,-713,0,0,0,0,0,0,0,0,0,-1,1875,1737,0,0
658,-713,0,0,0,0,0,0,0,0,0,-1,1882,1737,0,0
665,-713,0,0,0,0,0,0,0,0,0,-1,1889,1737,0,0
672,-713,0,0,0,0,0,0,0,0,0,-1,1896,1737,0,0
679,-713,0,0,0,0,0,0,0,0,0,-1,1903,1737,0,0
686,-713,0,0,0,0,0,0,0,0,0,-1,1910,1737,0,0
693,-713,0,0,0,0,0,0,0,0,0,-1,1917,1737,0,0
700,-713,0,0,0,0,0,0,0,0,0,-1,1924,1737,0,0
707,-713,0,0,0,0,0,0,0,0,0,-1,1931,1737,0,0
714,-713,0,0,0,0,0,0,0,0,0,-1,1938,1737,0,0
721,-713,0,0,0,0,0,0,0,0,0,-1,1945,1737,0,0
728,-713,0,0,0,0,0,0,0,0,0,-1,1952,1737,0,0
735,-713,0,0,0,0,0,0,0,0,0,-1,1959,1737,0,0
742,-713,0,0,0,0,0,0,0,0,0,-1,1966,1737,0,0
749,-713,0,0,0,0,0,0,0,0,0,-1,1973,1737,0,0
756,-713,0,0,0,0,0,0,0,0,0,-1,1980,1737,0,0
763,-713,0,0,0,0,0,0,0,0,0,-1,1987,1737,0,0
770,-713,0,0,0,0,0,0,0,0,0,-1,1994,1737,0,0
777,-713,0,0,0,0,0,0,0,0,0,-1,2001,1737,0,0
784,-713,0,0,0,0,0,0,0,0,0,-1,2008,1737,0,0
791,-713,0,0,0,0,0,0,0,0,0,-1,2015,1737,0,0
798,-713,0,0,0,0,0,0,0,0,0,-1,2022,1737,0,0
805,-713,0,0,0,0,0,0,0,0,0,-1,2029,1737,0,0
812,-713,0,0,0,0,0,0,0,0,0,-1,2036,1737,0,0
-700,-720,0,0,0,0,0,0,0,0,0,-1,524,1744,0,0
-693,-720,0,0,0,0,0,0,0,0,0,-1,531,1744,0,0
-686,-720,0,0,0,0,0,0,0,0,0,-1,538,1744,0,0
-679,-720,0,0,0,0,0,0,0,0,0,-1,545,1744,0,0
-672,-720,0,0,0,0,0,0,0,0,0,-1,552,1744,0,0
-665,-720,0,0,0,0,0,0,0,0,0,-1,559,1744,0,0
-658,-720,0,0,0,0,0,0,0,0,0,-1,566,1744,0,0
-651,-720,0,0,0,0,0,0,0,0,0,-1,573,1744,0,0
-644,-720,0,0,0,0,0,0,0,0,0,-1,580,1744,0,0
-637,-720,0,0,0,0,0,0,0,0,0,-1,587,1744,0,0
-630,-720,0,0,0,0,0,0,0,0,0,-1,594,1744,0,0
-623,-720,0,0,0,0,0,0,0,0,0,-1,601,1744,0,0
-616,-720,0,0,0,0,0,0,0,0,0,-1,608,1744,0,0
-609,-720,0,0,0,0,0,0,0,0,0,-1,615,1744,0,0
-602,-720,0,0,0,0,0,0,0,0,0,-1,622,1744,0,0
-595,-720,0,0,0,0,0,0,0,0,0,-1,629,1744,0,0
-588,-720,0,0,0,0,0,0,0,0,0,-1,636,1744,0,0
-581,-720,0,0,0,0,0,0,0,0,0,-1,643,1744,0,0
-574,-720,0,0,0,0,0,0,0,0,0,-1,650,1744,0,0
-567,-720,0,0,0,0,0,0,0,0,0,-1,657,1744,0,0
-560,-720,0,0,0,0,0,0,0,0,0,-1,664,1744,0,0
-553,-720,0,0,0,0,0,0,0,0,0,-1,671,1744,0,0
-546,-720,0,0,0,0,0,0,0,0,0,-1,678,1744,0,0
-539,-720,0,0,0,0,0,0,0,0,0,-1,685,1744,0,0
-532,-720,0,0,0,0,0,0,0,0,0,-1,692,1744,0,0
-525,-720,0,0,0,0,0,0,0,0,0,-1,699,1744,0,0
-518,-720,0,0,0,0,0,0,0,0,0,-1,706,1744,0,0
-511,-720,0,0,0,0,0,0,0,0,0,-1,713,1744,0,0
-504,-720,0,0,0,0,0,0,0,0,0,-1,720,1744,0,0
-497,-720,0,0,0,0,0,0,0,0,0,-1,727,1744,0,0
-490,-720,0,0,0,0,0,0,0,0,0,-1,734,1744,0,0
-483,-720,0,0,0,0,0,0,0,0,0,-1,741,1744,0,0
-476,-720,0,0,0,0,0,0,0,0,0,-1,748,1744,0,0
-469,-720,0,0,0,0,0,0,0,0,0,-1,755,1744,0,0
-462,-720,0,0,0,0,0,0,0,0,0,-1,762,1744,0,0
-455,-720,0,0,0,0,0,0,0,0,0,-1,769,1744,0,0
-448,-720,0,0,0,0,0,0,0,0,0,-1,776,1744,0,0
-441,-720,0,0,0,0,0,0,0,0,0,-1,783,1744,0,0
-434,-720,0,0,0,0,0,0,0,0,0,-1,790,1744,0,0
-427,-720,0,0,0,0,0,0,0,0,0,-1,797,1744,0,0
-420,-720,0,0,0,0,0,0,0,0,0,-1,804,1744,0,0
-413,-720,0,0,0,0,0,0,0,0,0,-1,811,1744,0,0
-406,-720,0,0,0,0,0,0,0,0,0,-1,818,1744,0,0
-399,-720,0,0,0,0,0,0,0,0,0,-1,825,1744,0,0
-392,-720,0,0,0,0,0,0,0,0,0,-1,832,1744,0,0
-385,-720,0,0,0,0,0,0,0,0,0,-1,839,1744,0,0
-378,-720,0,0,0,0,0,0,0,0,0,-1,846,1744,0,0
-371,-720,0,0,0,0,0,0,0,0,0,-1,853,1744,0,0
-364,-720,0,0,0,0,0,0,0,0,0,-1,860,1744,0,0
-357,-720,0,0,0,0,0,0,0,0,0,-1,867,1744,0,0
-350,-720,0,0,0,0,0,0,0,0,0,-1,874,1744,0,0
-343,-720,0,0,0,0,0,0,0,0,0,-1,881,1744,0,0
-336,-720,0,0,0,0,0,0,0,0,0,-1,888,1744,0,0
-329,-720,0,0,0,0,0,0,0,0,0,-1,895,1744,0,0
-322,-720,0,0,0,0,0,0,0,0,0,-1,902,1744,0,0
-315,-720,0,0,0,0,0,0,0,0,0,-1,909,1744,0,0
-308,-720,0,0,0,0,0,0,0,0,0,-1,916,1744,0,0
-301,-720,0,0,0,0,0,0,0,0,0,-1,923,1744,0,0
-294,-720,0,0,0,0,0,0,0,0,0,-1,930,1744,0,0
-287,-720,0,0,0,0,0,0,0,0,0,-1,937,1744,0,0
-280,-720,6.46796,22.6417,0,0,0,0,0,0,0,-1,944,1744,6.46793,-22.6417
-273,-720,8.54633,13.262,0,0,0,0,0,0,0,-1,951,1744,8.54636,-13.2619
-266,-720,7.28027,13.3165,0,0,0,0,0,0,0,-1,958,1744,7.28026,-13.3166
-259,-720,3.70563,18.6372,0,0,0,0,0,0,0,-1,965,1744,3.70564,-18.6372
-252,-720,4.00989,18.5059,0,0,0,0,0,0,0,-1,972,1744,4.00988,-18.5058
-245,-720,7.05634,33.8489,0,0,0,0,0,0,0,-1,979,1744,7.05634,-33.8489
-238,-720,5.02216,24.1455,0,0,0,0,0,0,0,-1,986,1744,5.02217,-24.1455
-231,-720,10.0776,46.4656,0,0,0,0,0,0,0,-1,993,1744,10.0776,-46.4655
-224,-720,9.78308,47.9088,0,0,0,0,0,0,0,-1,1000,1744,9.78308,-47.9088
-217,-720,10.4755,46.8452,0,0,0,0,0,0,0,-1,1007,1744,10.4755,-46.8452
-210,-720,8.74036,38.6686,0,0,0,0,0,0,0,-1,1014,1744,8.74035,-38.6686
-203,-720,10.1962,49.0282,0,0,0,0,0,0,0,-1,1021,1744,10.1962,-49.0282
-196,-720,9.70947,49.1754,0,0,0,0,0,0,0,-1,1028,1744,9.70948,-49.1755
-189,-720,9.57544,49.6829,0,0,0,0,0,0,0,-1,1035,1744,9.57541,-49.6828
-182,-720,9.69507,50.3613,-0.0103449,0.00385093,0.00555622,0.005767,-0.012261,1.23872,0.0106312,0.0457644,1042,1744,9.69508,-50.3613
-175,-720,9.26355,50.9834,-0.00945082,0.00310649,0.00492881,0.00480998,-0.0111543,1.23803,0.00945649,0.0446306,1049,1744,9.26355,-50.9834
-168,-720,9.37659,51.3698,-0.008733,0.00368447,0.00466884,0.00524403,-0.0102926,1.24841,0.00912655,0.0431226,1056,1744,9.37653,-51.3697
-161,-720,9.2561,51.8202,-0.00796231,0.00463139,0.00486826,0.00629383,-0.00962475,1.24173,0.00925742,0.0284228,1063,1744,9.25613,-51.8201
-154,-720,9.27368,52.2562,-0.00692605,0.00499245,0.00507971,0.00686366,-0.00879726,1.21785,0.00906478,0.0205383,1070,1744,9.27372,-52.2563
-147,-720,9.23145,52.75,-0.00582951,0.00498405,0.00484045,0.00683421,-0.00767967,1.2057,0.00838433,0.0216015,1077,1744,9.23148,-52.75
-140,-720,9.20032,53.1998,-0.00488152,0.00486092,0.00453521,0.00664529,-0.00666589,1.19595,0.00768521,0.0205448,1084,1744,9.20036,-53.1999
-133,-720,9.13147,53.5531,-0.00413353,0.00464133,0.00418735,0.00631884,-0.00581103,1.18976,0.00700523,0.0172562,1091,1744,9.13151,-53.5532
-126,-720,9.10486,53.953,-0.00331625,0.004611,0.00393082,0.00622964,-0.00493489,1.18017,0.00646028,0.0166907,1098,1744,9.10489,-53.953
-119,-720,9.07385,54.3346,-0.00296121,0.00446983,0.00347415,0.00584104,-0.00433242,1.19488,0.00589514,0.015005,1105,1744,9.07391,-54.3346
-112,-720,9.03943,54.7017,-0.002577,0.00443133,0.00334591,0.0057722,-0.00391786,1.18965,0.0056286,0.0135845,1112,1744,9.03944,-54.7016
-105,-720,9.02661,55.0634,-0.00213025,0.00411239,0.00315212,0.00542712,-0.00344498,1.17564,0.00516475,0.0133213,1119,1744,9.02661,-55.0634
-98,-720,9.01672,55.4019,-0.00172734,0.00360035,0.00295122,0.00491215,-0.00303914,1.15253,0.00463294,0.0106966,1126,1744,9.01668,-55.4019
-91,-720,8.98157,55.7566,-0.00132513,0.0033075,0.00272833,0.00457017,-0.00258779,1.13735,0.00418514,0.0095936,1133,1744,8.98154,-55.7566
-84,-720,8.94385,56.1014,-0.00107884,0.00290926,0.00248158,0.00409868,-0.00226826,1.12385,0.00372624,0.010647,1140,1744,8.9439,-56.1014
-77,-720,8.92798,56.4346,-0.000872796,0.0025503,0.00227552,0.0036861,-0.00200859,1.10784,0.00333504,0.0146174,1147,1744,8.92795,-56.4346
-70,-720,8.90894,56.729,-0.000624764,0.00227109,0.00195546,0.00325634,-0.00161001,1.10408,0.00286268,0.0128232,1154,1744,8.9089,-56.729
-63,-720,8.88989,57.0071,-0.000341088,0.0021165,0.0016765,0.0029663,-0.00119089,1.10165,0.00247204,0.0123115,1161,1744,8.88991,-57.0071
-56,-720,8.90393,57.2703,2.00542e-05,0.00181041,0.0014371,0.00260834,-0.000777873,1.06394,0.00204803,0.0144931,1168,1744,8.90398,-57.2703
-49,-720,8.88464,57.5232,0.000398135,0.00136858,0.00121148,0.0021884,-0.000421681,0.975876,0.00161792,0.019368,1175,1744,8.88464,-57.5232
-42,-720,8.88647,57.738,0.00078059,0.000949796,0.00111026,0.00197867,-0.000248288,0.823425,0.00140919,0.0211342,1182,1744,8.88642,-57.7381
-35,-720,8.91162,57.9608,0.00117059,0.000477516,0.00111277,0.00198953,-0.000341429,0.634449,0.00145359,0.0188009,1189,1744,8.9116,-57.9609
-28,-720,8.89758,58.202,0.00151971,1.62876e-05,0.00120782,0.00219063,-0.000654636,0.507045,0.00172066,0.0112318,1196,1744,8.89763,-58.202
-21,-720,8.88623,58.4084,0.00180856,-0.000401503,0.00141615,0.0024998,-0.00109274,0.45409,0.00212652,0.00990466,1203,1744,8.88626,-58.4085
-14,-720,8.88611,58.5663,0.00204523,-0.000739619,0.00164601,0.00280877,-0.00150316,0.434332,0.00252725,0.012375,1210,1744,8.88612,-58.5663
-7,-720,8.91614,58.7588,0.00221552,-0.0010043,0.00182919,0.00304235,-0.00183114,0.424536,0.00284253,0.0126136,1217,1744,8.91611,-58.7588
0,-720,8.92883,58.9225,0.00237368,-0.000940412,0.00205703,0.00335807,-0.0019248,0.446339,0.00308726,0.0131992,1224,1744,8.92878,-58.9225
7,-720,8.9231,59.0377,0.00248485,-0.000753496,0.00224025,0.00362981,-0.00189846,0.472477,0.0032435,0.0149319,1231,1744,8.92312,-59.0378
14,-720,8.93896,59.1578,0.00255662,-0.000548132,0.0023389,0.00381143,-0.00180294,0.492417,0.00330988,0.0136127,1238,1744,8.93901,-59.1578
21,-720,8.97241,59.2554,0.00253121,-0.000227818,0.00222207,0.00376716,-0.00146377,0.507603,0.00311615,0.011097,1245,1744,8.97243,-59.2554
28,-720,8.97156,59.3263,0.0025286,0.000111381,0.00202166,0.00367538,-0.00103539,0.515986,0.00285858,0.01125,1252,1744,8.9716,-59.3263
35,-720,8.98865,59.4078,0.00244034,0.000364888,0.00171989,0.00341132,-0.000606087,0.513951,0.00250084,0.0114968,1259,1744,8.9887,-59.4078
42,-720,9.01721,59.4656,0.00227334,0.000618466,0.00135451,0.00303315,-0.000141342,0.511209,0.00207082,0.011794,1266,1744,9.01715,-59.4655
49,-720,9.03345,59.4615,0.00222949,0.00080547,0.000765484,0.00256291,0.00047205,0.410787,0.00157502,0.013501,1273,1744,9.03347,-59.4615
56,-720,9.05432,59.4796,0.00229471,0.000511992,0.000281608,0.00233814,0.000468566,0.153004,0.00142842,0.0129748,1280,1744,9.05436,-59.4797
63,-720,9.06848,59.504,0.00222839,0.00024199,-0.000249993,0.00225937,0.00021101,-0.123292,0.00144107,0.0142561,1287,1744,9.06854,-59.504
70,-720,9.10583,59.5017,0.00221122,-0.000289366,-0.00079936,0.00244491,-0.000523056,-0.284421,0.00182939,0.0140682,1294,1744,9.1059,-59.5017
77,-720,9.12512,59.4803,0.00231893,-0.00104458,-0.00139306,0.00282096,-0.00154661,-0.345891,0.00255715,0.0157521,1301,1744,9.12514,-59.4803
84,-720,9.14771,59.4122,0.00241906,-0.00174679,-0.00172776,0.00304237,-0.00237011,-0.346232,0.00313292,0.0153524,1308,1744,9.14771,-59.4122
91,-720,9.16589,59.3401,0.00261044,-0.00220545,-0.0019167,0.00328015,-0.00287516,-0.336146,0.00355633,0.0147892,1315,1744,9.16588,-59.3401
98,-720,9.14185,59.3003,0.00280387,-0.00285489,-0.00202375,0.00345313,-0.00350415,-0.310448,0.00401683,0.0137283,1322,1744,9.14186,-59.3003
105,-720,9.16089,59.228,0.00294121,-0.00340539,-0.00202125,0.00353026,-0.00399444,-0.283576,0.00434714,0.0127672,1329,1744,9.1609,-59.228
112,-720,9.18921,59.1399,0.00306514,-0.00378038,-0.00195583,0.00358454,-0.00429977,-0.25957,0.00455825,0.0116802,1336,1744,9.18921,-59.1399
119,-720,9.20947,59.0496,0.00311481,-0.0040051,-0.00182509,0.00355539,-0.00444568,-0.236866,0.00462894,0.0120148,1343,1744,9.20942,-59.0496
126,-720,9.22607,58.8906,0.00315825,-0.00412351,-0.0016043,0.00349604,-0.00446129,-0.20752,0.00460542,0.0115672,1350,1744,9.22604,-58.8906
133,-720,9.24414,58.7279,0.00303587,-0.00395344,-0.00142094,0.00331371,-0.00423127,-0.193093,0.00436682,0.0128348,1357,1744,9.24414,-58.7279
140,-720,9.28748,58.5702,0.00282063,-0.00349964,-0.00120092,0.00304113,-0.00372014,-0.181582,0.00391017,0.0204286,1364,1744,9.28742,-58.5702
147,-720,9.27893,58.37,0.00249323,-0.00291199,-0.00100085,0.0026726,-0.00309136,-0.177333,0.00333075,0.0215632,1371,1744,9.27891,-58.37
154,-720,9.24902,58.1582,0.00206177,-0.00229986,-0.000746863,0.00218612,-0.00242421,-0.164975,0.00266295,0.0141816,1378,1744,9.24899,-58.1582
161,-720,9.28662,57.9226,0.0015972,-0.00143368,-0.000608585,0.00171484,-0.00155132,-0.190938,0.0018865,0.0106296,1385,1744,9.28656,-57.9227
168,-720,9.28015,57.7014,0.00116993,-0.000856084,-0.000477711,0.00127692,-0.000963073,-0.220326,0.00129748,0.0108002,1392,1744,9.28011,-57.7014
175,-720,9.25171,57.4459,0.000717847,-0.000291474,-0.000403884,0.000859564,-0.000433192,-0.337465,0.000759784,0.0169547,1399,1744,9.25167,-57.446
182,-720,9.245,57.1842,0.000311428,0.000180405,-0.000486564,0.000736871,-0.000245038,-0.71848,0.000590135,0.0165943,1406,1744,9.24494,-57.1842
189,-720,9.26367,56.9214,3.41186e-05,0.000646878,-0.000718371,0.00112148,-0.000440479,-0.986965,0.000929926,0.0138207,1413,1744,9.26369,-56.9214
196,-720,9.271,56.6266,-0.000269853,0.00115196,-0.00106146,0.00171859,-0.000836482,-1.08046,0.00150419,0.015103,1420,1744,9.27096,-56.6266
203,-720,9.22302,56.3197,-0.000660168,0.00179967,-0.00132109,0.00237474,-0.00123523,-1.16024,0.00211854,0.0171346,1427,1744,9.22303,-56.3197
210,-720,9.21509,56.0294,-0.000782581,0.00245636,-0.0016475,0.00314707,-0.0014733,-1.17381,0.00272529,0.0148485,1434,1744,9.21503,-56.0294
217,-720,9.20618,55.6801,-0.000984351,0.00297276,-0.00190779,0.00374272,-0.00175431,-1.1872,0.00324218,0.014808,1441,1744,9.20612,-55.6801
224,-720,9.18201,55.34,-0.00138904,0.00336117,-0.00214312,0.00418514,-0.00221301,-1.20375,0.00375201,0.011394,1448,1744,9.18197,-55.3399
231,-720,9.1731,55.0034,-0.00210207,0.00340452,-0.00213064,0.00413265,-0.00283019,-1.2415,0.00404337,0.0115523,1455,1744,9.17315,-55.0034
238,-720,9.14624,54.6459,-0.00253406,0.00354647,-0.00218029,0.00424744,-0.00323504,-1.25973,0.00433317,0.00997025,1462,1744,9.14622,-54.6459
245,-720,9.11487,54.2931,-0.00290737,0.00365034,-0.00231679,0.00438625,-0.00364328,-1.26323,0.00464247,0.0123561,1469,1744,9.11487,-54.293
252,-720,9.09814,53.8903,-0.00352462,0.00368037,-0.0023602,0.00438467,-0.00422892,-1.2808,0.00497333,0.0128689,1476,1744,9.09815,-53.8903
259,-720,9.06421,53.4911,-0.00421616,0.00368375,-0.00224966,0.00427946,-0.00481187,-1.31194,0.00525188,0.0117545,1483,1744,9.0642,-53.4911
266,-720,9.02039,53.089,-0.00482161,0.00352996,-0.00219022,0.0040695,-0.00536115,-1.32927,0.00546178,0.00911078,1490,1744,9.02039,-53.089
273,-720,8.96667,52.6705,-0.00536282,0.0035309,-0.00220992,0.00404975,-0.00588168,-1.34019,0.00576634,0.013152,1497,1744,8.96671,-52.6705
280,-720,8.8894,52.2319,-0.00598749,0.003634,-0.002263,0.00413969,-0.00649317,-1.35095,0.00618881,0.0178045,1504,1744,8.88939,-52.2319
287,-720,8.89868,51.7576,-0.00678871,0.00425311,-0.00231077,0.00471718,-0.00725279,-1.3726,0.00696236,0.0293378,1511,1744,8.89867,-51.7575
294,-720,8.99194,51.2742,-0.00737641,0.00590446,-0.0019776,0.00619268,-0.00766463,-1.42607,0.00801555,0.0459949,1518,1744,8.99192,-51.2741
301,-720,8.72449,50.723,0,0,0,0,0,0,0,-1,1525,1744,8.72445,-50.7231
308,-720,8.52124,50.2847,0,0,0,0,0,0,0,-1,1532,1744,8.52124,-50.2847
315,-720,8.66516,48.6633,0,0,0,0,0,0,0,-1,1539,1744,8.6651,-48.6633
322,-720,8.98181,43.5223,0,0,0,0,0,0,0,-1,1546,1744,8.98176,-43.5223
329,-720,9.15906,34.7668,0,0,0,0,0,0,0,-1,1553,1744,9.1591,-34.7669
336,-720,6.14148,26.5682,0,0,0,0,0,0,0,-1,1560,1744,6.14151,-26.5683
343,-720,6.78552,21.3625,0,0,0,0,0,0,0,-1,1567,1744,6.78551,-21.3625
350,-720,4.0741,11.1836,0,0,0,0,0,0,0,-1,1574,1744,4.07412,-11.1836
357,-720,6.90833,21.4504,0,0,0,0,0,0,0,-1,1581,1744,6.90827,-21.4505
364,-720,6.59497,44.1384,0,0,0,0,0,0,0,-1,1588,1744,6.59492,-44.1385
371,-720,6.67773,45.2386,0,0,0,0,0,0,0,-1,1595,1744,6.67779,-45.2386
378,-720,3.88257,25.5404,0,0,0,0,0,0,0,-1,1602,1744,3.88262,-25.5404
385,-720,4.672,37.3854,0,0,0,0,0,0,0,-1,1609,1744,4.67202,-37.3854
392,-720,4.89319,36.2684,0,0,0,0,0,0,0,-1,1616,1744,4.89323,-36.2684
399,-720,2.37317,24.7166,0,0,0,0,0,0,0,-1,1623,1744,2.37317,-24.7166
406,-720,0,0,0,0,0,0,0,0,0,-1,1630,1744,0,0
413,-720,0,0,0,0,0,0,0,0,0,-1,1637,1744,0,0
420,-720,0,0,0,0,0,0,0,0,0,-1,1644,1744,0,0
427,-720,0,0,0,0,0,0,0,0,0,-1,1651,1744,0,0
434,-720,0,0,0,0,0,0,0,0,0,-1,1658,1744,0,0
441,-720,0,0,0,0,0,0,0,0,0,-1,1665,1744,0,0
448,-720,0,0,0,0,0,0,0,0,0,-1,1672,1744,0,0
455,-720,0,0,0,0,0,0,0,0,0,-1,1679,1744,0,0
462,-720,0,0,0,0,0,0,0,0,0,-1,1686,1744,0,0
469,-720,0,0,0,0,0,0,0,0,0,-1,1693,1744,0,0
476,-720,0,0,0,0,0,0,0,0,0,-1,1700,1744,0,0
483,-720,0,0,0,0,0,0,0,0,0,-1,1707,1744,0,0
490,-720,0,0,0,0,0,0,0,0,0,-1,1714,1744,0,0
497,-720,0,0,0,0,0,0,0,0,0,-1,1721,1744,0,0
504,-720,0,0,0,0,0,0,0,0,0,-1,1728,1744,0,0
511,-720,0,0,0,0,0,0,0,0,0,-1,1735,1744,0,0
518,-720,0,0,0,0,0,0,0,0,0,-1,1742,1744,0,0
525,-720,0,0,0,0,0,0,0,0,0,-1,1749,1744,0,0
532,-720,0,0,0,0,0,0,0,0,0,-1,1756,1744,0,0
539,-720,0,0,0,0,0,0,0,0,0,-1,1763,1744,0,0
546,-720,0,0,0,0,0,0,0,0,0,-1,1770,1744,0,0
553,-720,0,0,0,0,0,0,0,0,0,-1,1777,1744,0,0
560,-720,0,0,0,0,0,0,0,0,0,-1,1784,1744,0,0
567,-720,0,0,0,0,0,0,0,0,0,-1,1791,1744,0,0
574,-720,0,0,0,0,0,0,0,0,0,-1,1798,1744,0,0
581,-720,0,0,0,0,0,0,0,0,0,-1,1805,1744,0,0
588,-720,0,0,0,0,0,0,0,0,0,-1,1812,1744,0,0
595,-720,0,0,0,0,0,0,0,0,0,-1,1819,1744,0,0
602,-720,0,0,0,0,0,0,0,0,0,-1,1826,1744,0,0
609,-720,0,0,0,0,0,0,0,0,0,-1,1833,1744,0,0
616,-720,0,0,0,0,0,0,0,0,0,-1,1840,1744,0,0
623,-720,0,0,0,0,0,0,0,0,0,-1,1847,1744,0,0
630,-720,0,0,0,0,0,0,0,0,0,-1,1854,1744,0,0
637,-720,0,0,0,0,0,0,0,0,0,-1,1861,1744,0,0
644,-720,0,0,0,0,0,0,0,0,0,-1,1868,1744,0,0
651,-720,0,0,0,0,0,0,0,0,0,-1,1875,1744,0,0
658,-720,0,0,0,0,0,0,0,0,0,-1,1882,1744,0,0
665,-720,0,0,0,0,0,0,0,0,0,-1,1889,1744,0,0
672,-720,0,0,0,0,0,0,0,0,0,-1,1896,1744,0,0
679,-720,0,0,0,0,0,0,0,0,0,-1,1903,1744,0,0
686,-720,0,0,0,0,0,0,0,0,0,-1,1910,1744,0,0
693,-720,0,0,0,0,0,0,0,0,0,-1,1917,1744,0,0
700,-720,0,0,0,0,0,0,0,0,0,-1,1924,1744,0,0
707,-720,0,0,0,0,0,0,0,0,0,-1,1931,1744,0,0
714,-720,0,0,0,0,0,0,0,0,0,-1,1938,1744,0,0
721,-720,0,0,0,0,0,0,0,0,0,-1,1945,1744,0,0
728,-720,0,0,0,0,0,0,0,0,0,-1,1952,1744,0,0
735,-720,0,0,0,0,0,0,0,0,0,-1,1959,1744,0,0
742,-720,0,0,0,0,0,0,0,0,0,-1,1966,1744,0,0
749,-720,0,0,0,0,0,0,0,0,0,-1,1973,1744,0,0
756,-720,0,0,0,0,0,0,0,0,0,-1,1980,1744,0,0
763,-720,0,0,0,0,0,0,0,0,0,-1,1987,1744,0,0
770,-720,0,0,0,0,0,0,0,0,0,-1,1994,1744,0,0
777,-720,0,0,0,0,0,0,0,0,0,-1,2001,1744,0,0
784,-720,0,0,0,0,0,0,0,0,0,-1,2008,1744,0,0
791,-720,0,0,0,0,0,0,0,0,0,-1,2015,1744,0,0
798,-720,0,0,0,0,0,0,0,0,0,-1,2022,1744,0,0
805,-720,0,0,0,0,0,0,0,0,0,-1,2029,1744,0,0
812,-720,0,0,0,0,0,0,0,0,0,-1,2036,1744,0,0
-700,-727,0,0,0,0,0,0,0,0,0,-1,524,1751,0,0
-693,-727,0,0,0,0,0,0,0,0,0,-1,531,1751,0,0
-686,-727,0,0,0,0,0,0,0,0,0,-1,538,1751,0,0
-679,-727,0,0,0,0,0,0,0,0,0,-1,545,1751,0,0
-672,-727,0,0,0,0,0,0,0,0,0,-1,552,1751,0,0
-665,-727,0,0,0,0,0,0,0,0,0,-1,559,1751,0,0
-658,-727,0,0,0,0,0,0,0,0,0,-1,566,1751,0,0
-651,-727,0,0,0,0,0,0,0,0,0,-1,573,1751,0,0
-644,-727,0,0,0,0,0,0,0,0,0,-1,580,1751,0,0
-637,-727,0,0,0,0,0,0,0,0,0,-1,587,1751,0,0
-630,-727,0,0,0,0,0,0,0,0,0,-1,594,1751,0,0
-623,-727,0,0,0,0,0,0,0,0,0,-1,601,1751,0,0
-616,-727,0,0,0,0,0,0,0,0,0,-1,608,1751,0,0
-609,-727,0,0,0,0,0,0,0,0,0,-1,615,1751,0,0
-602,-727,0,0,0,0,0,0,0,0,0,-1,622,1751,0,0
-595,-727,0,0,0,0,0,0,0,0,0,-1,629,1751,0,0
-588,-727,0,0,0,0,0,0,0,0,0,-1,636,1751,0,0
-581,-727,0,0,0,0,0,0,0,0,0,-1,643,1751,0,0
-574,-727,0,0,0,0,0,0,0,0,0,-1,650,1751,0,0
-567,-727,0,0,0,0,0,0,0,0,0,-1,657,1751,0,0
-560,-727,0,0,0,0,0,0,0,0,0,-1,664,1751,0,0
-553,-727,0,0,0,0,0,0,0,0,0,-1,671,1751,0,0
-546,-727,0,0,0,0,0,0,0,0,0,-1,678,1751,0,0
-539,-727,0,0,0,0,0,0,0,0,0,-1,685,1751,0,0
-532,-727,0,0,0,0,0,0,0,0,0,-1,692,1751,0,0
-525,-727,0,0,0,0,0,0,0,0,0,-1,699,1751,0,0
-518,-727,0,0,0,0,0,0,0,0,0,-1,706,1751,0,0
-511,-727,0,0,0,0,0,0,0,0,0,-1,713,1751,0,0
-504,-727,0,0,0,0,0,0,0,0,0,-1,720,1751,0,0
-497,-727,0,0,0,0,0,0,0,0,0,-1,727,1751,0,0
-490,-727,0,0,0,0,0,0,0,0,0,-1,734,1751,0,0
-483,-727,0,0,0,0,0,0,0,0,0,-1,741,1751,0,0
-476,-727,0,0,0,0,0,0,0,0,0,-1,748,1751,0,0
-469,-727,0,0,0,0,0,0,0,0,0,-1,755,1751,0,0
-462,-727,0,0,0,0,0,0,0,0,0,-1,762,1751,0,0
-455,-727,0,0,0,0,0,0,0,0,0,-1,769,1751,0,0
-448,-727,0,0,0,0,0,0,0,0,0,-1,776,1751,0,0
-441,-727,0,0,0,0,0,0,0,0,0,-1,783,1751,0,0
-434,-727,0,0,0,0,0,0,0,0,0,-1,790,1751,0,0
-427,-727,0,0,0,0,0,0,0,0,0,-1,797,1751,0,0
-420,-727,0,0,0,0,0,0,0,0,0,-1,804,1751,0,0
-413,-727,0,0,0,0,0,0,0,0,0,-1,811,1751,0,0
-406,-727,0,0,0,0,0,0,0,0,0,-1,818,1751,0,0
-399,-727,0,0,0,0,0,0,0,0,0,-1,825,1751,0,0
-392,-727,0,0,0,0,0,0,0,0,0,-1,832,1751,0,0
-385,-727,0,0,0,0,0,0,0,0,0,-1,839,1751,0,0
-378,-727,0,0,0,0,0,0,0,0,0,-1,846,1751,0,0
-371,-727,0,0,0,0,0,0,0,0,0,-1,853,1751,0,0
-364,-727,0,0,0,0,0,0,0,0,0,-1,860,1751,0,0
-357,-727,0,0,0,0,0,0,0,0,0,-1,867,1751,0,0
-350,-727,0,0,0,0,0,0,0,0,0,-1,874,1751,0,0
-343,-727,0,0,0,0,0,0,0,0,0,-1,881,1751,0,0
-336,-727,0,0,0,0,0,0,0,0,0,-1,888,1751,0,0
-329,-727,0,0,0,0,0,0,0,0,0,-1,895,1751,0,0
-322,-727,0,0,0,0,0,0,0,0,0,-1,902,1751,0,0
-315,-727,0,0,0,0,0,0,0,0,0,-1,909,1751,0,0
-308,-727,0,0,0,0,0,0,0,0,0,-1,916,1751,0,0
-301,-727,0,0,0,0,0,0,0,0,0,-1,923,1751,0,0
-294,-727,0,0,0,0,0,0,0,0,0,-1,930,1751,0,0
-287,-727,0,0,0,0,0,0,0,0,0,-1,937,1751,0,0
-280,-727,0,0,0,0,0,0,0,0,0,-1,944,1751,0,0
-273,-727,0,0,0,0,0,0,0,0,0,-1,951,1751,0,0
-266,-727,4.24805,7.61145,0,0,0,0,0,0,0,-1,958,1751,4.24802,-7.6115
-259,-727,3.65228,5.4082,0,0,0,0,0,0,0,-1,965,1751,3.65229,-5.40818
-252,-727,5.8797,32.9292,0,0,0,0,0,0,0,-1,972,1751,5.87972,-32.9292
-245,-727,6.59198,32.2588,0,0,0,0,0,0,0,-1,979,1751,6.59195,-32.2587
-238,-727,6.6189,30.4597,0,0,0,0,0,0,0,-1,986,1751,6.61889,-30.4598
-231,-727,6.70105,28.9473,0,0,0,0,0,0,0,-1,993,1751,6.70103,-28.9472
-224,-727,10.7735,47.245,0,0,0,0,0,0,0,-1,1000,1751,10.7735,-47.245
-217,-727,9.07013,38.8207,0,0,0,0,0,0,0,-1,1007,1751,9.07015,-38.8207
-210,-727,5.0921,32.4524,0,0,0,0,0,0,0,-1,1014,1751,5.09209,-32.4523
-203,-727,14.1763,48.6819,0,0,0,0,0,0,0,-1,1021,1751,14.1763,-48.6819
-196,-727,13.0454,48.5956,0,0,0,0,0,0,0,-1,1028,1751,13.0455,-48.5955
-189,-727,10.3168,48.1697,0,0,0,0,0,0,0,-1,1035,1751,10.3168,-48.1697
-182,-727,10.2543,50.6671,0,0,0,0,0,0,0,-1,1042,1751,10.2543,-50.6671
-175,-727,9.58044,51.283,0,0,0,0,0,0,0,-1,1049,1751,9.58044,-51.283
-168,-727,9.66052,51.562,0,0,0,0,0,0,0,-1,1056,1751,9.66052,-51.562
-161,-727,9.56213,51.9694,0,0,0,0,0,0,0,-1,1063,1751,9.56208,-51.9693
-154,-727,9.65857,52.0938,-0.00904726,0.00676071,0.00666792,0.00919762,-0.0114842,1.22041,0.0119649,0.049716,1070,1751,9.65853,-52.0937
-147,-727,9.53735,52.6108,-0.00772087,0.00686144,0.00638051,0.00925904,-0.0101185,1.21135,0.0111913,0.0468198,1077,1751,9.5374,-52.6108
-140,-727,9.44849,52.9805,-0.00661648,0.00679257,0.00600803,0.00909066,-0.00891456,1.20546,0.0103955,0.0335217,1084,1751,9.44854,-52.9804
-133,-727,9.53162,53.4113,-0.00578125,0.00654445,0.00556941,0.00868817,-0.00792496,1.20337,0.00959497,0.0268097,1091,1751,9.53161,-53.4112
-126,-727,9.43213,53.8954,-0.00481607,0.00648007,0.0052633,0.0085523,-0.0068883,1.19572,0.00893187,0.0186758,1098,1751,9.43213,-53.8953
-119,-727,9.40186,54.3506,-0.00445556,0.0062547,0.00469101,0.00801877,-0.00621963,1.2111,0.00824239,0.0149116,1105,1751,9.4018,-54.3505
-112,-727,9.36292,54.625,-0.00402665,0.00628,0.00457596,0.00801842,-0.00576507,1.20773,0.00799328,0.0221564,1112,1751,9.36293,-54.625
-105,-727,9.26965,54.9795,-0.00351306,0.00591195,0.00437674,0.0076309,-0.00523201,1.19656,0.00746933,0.023574,1119,1751,9.26963,-54.9795
-98,-727,9.31067,55.4099,-0.00305952,0.00528311,0.00414134,0.00698977,-0.00476617,1.1799,0.00682765,0.0146902,1126,1751,9.31071,-55.4099
-91,-727,9.30115,55.7406,-0.00262896,0.00489083,0.00389061,0.00654145,-0.00427957,1.16956,0.00629285,0.012548,1133,1751,9.30114,-55.7406
-84,-727,9.25403,56.0803,-0.00242711,0.00424555,0.00360212,0.00581904,-0.0040006,1.15895,0.00570168,0.0123895,1140,1751,9.25402,-56.0803
-77,-727,9.21606,56.4073,-0.0022773,0.00364519,0.00335568,0.00515938,-0.00379149,1.14692,0.00518787,0.0133978,1147,1751,9.21608,-56.4074
-70,-727,9.18982,56.724,-0.00208587,0.0032371,0.00296868,0.00456267,-0.00341143,1.15084,0.00461982,0.0142329,1154,1751,9.18984,-56.724
-63,-727,9.16174,57.0179,-0.000771107,0.00345768,0.00302668,0.00503537,-0.00234879,1.09029,0.00435629,0.0118334,1161,1751,9.16179,-57.0179
-56,-727,9.13855,57.283,0.000117922,0.00281266,0.00278079,0.00455531,-0.00162472,1.01099,0.00369935,0.0120589,1168,1751,9.13851,-57.283
-49,-727,9.12244,57.5272,0.000720739,0.00219751,0.00249618,0.00406222,-0.00114397,0.929201,0.00315928,0.0140999,1175,1751,9.12242,-57.5272
-42,-727,9.12024,57.7549,0.00132968,0.00165399,0.00222496,0.0037227,-0.000739029,0.821774,0.00276131,0.0176671,1182,1751,9.12028,-57.7549
-35,-727,9.09412,57.9686,0.00186868,0.00103203,0.00206636,0.00355863,-0.000657923,0.685526,0.00261942,0.0158702,1189,1751,9.09408,-57.9686
-28,-727,9.06946,58.1862,0.00235844,0.000497051,0.00186038,0.00350794,-0.000652452,0.553467,0.00258372,0.00935587,1196,1751,9.06948,-58.1861
-21,-727,9.04712,58.4067,0.00279206,-3.94798e-05,0.00177169,0.00364417,-0.000891594,0.448301,0.00277481,0.0115075,1203,1751,9.04712,-58.4068
-14,-727,9.0658,58.5708,0.00307104,-0.000445705,0.00171772,0.00377081,-0.00114547,0.386852,0.00297026,0.0127237,1210,1751,9.06579,-58.5708
-7,-727,9.08228,58.7629,0.003259,-0.00081865,0.0015762,0.00379723,-0.00135688,0.329058,0.00308491,0.0156893,1217,1751,9.08225,-58.7629
0,-727,9.05188,58.9189,0.00335843,-0.00085147,0.00146356,0.00381723,-0.00131027,0.303781,0.00307605,0.0153351,1224,1751,9.05191,-58.9189
7,-727,9.04285,59.0239,0.00331217,-0.00073907,0.00133905,0.00371476,-0.00114166,0.292055,0.00293211,0.0137679,1231,1751,9.0429,-59.024
14,-727,9.0647,59.131,0.00315912,-0.000607682,0.00117665,0.00349646,-0.000945026,0.27921,0.00270165,0.0141479,1238,1751,9.06465,-59.131
21,-727,9.06641,59.2543,0.00296311,-0.00037625,0.000929336,0.00320432,-0.000617459,0.253947,0.00236901,0.0127465,1245,1751,9.06645,-59.2542
28,-727,9.07019,59.3258,0.00281784,-9.37805e-05,0.000725017,0.00298839,-0.000264326,0.231029,0.00208596,0.0117843,1252,1751,9.07013,-59.3259
35,-727,9.09277,59.3984,0.00264317,0.000117552,0.000514028,0.00274378,1.69417e-05,0.193285,0.00182357,0.012818,1259,1751,9.09279,-59.3985
42,-727,9.07605,59.4396,0.00226377,0.000276599,0.000242507,0.00229293,0.000247432,0.119696,0.00145318,0.01284,1266,1751,9.07601,-59.4395
49,-727,9.05823,59.4666,0.00207036,0.00045554,-7.85824e-05,0.00207417,0.000451725,-0.0485105,0.00125951,0.011177,1273,1751,9.05824,-59.4666
56,-727,9.04578,59.5229,0.00203982,0.000330171,-0.00027505,0.00208298,0.00028701,-0.15565,0.00130356,0.00982952,1280,1751,9.04581,-59.523
63,-727,9.05762,59.5253,0.00191903,0.000261517,-0.000460597,0.00203842,0.000142124,-0.253631,0.00131414,0.0121966,1287,1751,9.05761,-59.5252
70,-727,9.09692,59.4952,0.00191169,3.97189e-05,-0.00066796,0.00212559,-0.000174183,-0.309913,0.00147854,0.0144026,1294,1751,9.09694,-59.4953
77,-727,9.10193,59.4935,0.00194604,-0.000411152,-0.00088853,0.00224345,-0.000708555,-0.322992,0.00177948,0.0166486,1301,1751,9.1019,-59.4935
84,-727,9.10938,59.3817,0.00187335,-0.000780305,-0.00102203,0.00222135,-0.0011283,-0.328177,0.00196794,0.0169993,1308,1751,9.10935,-59.3817
91,-727,9.10889,59.2828,0.00188571,-0.00110117,-0.0010849,0.00223818,-0.00145363,-0.314127,0.00214745,0.0179704,1315,1751,9.10889,-59.2829
98,-727,9.07935,59.2666,0.00192452,-0.00156552,-0.00113502,0.00226117,-0.00190218,-0.288341,0.00240669,0.0155958,1322,1751,9.07929,-59.2665
105,-727,9.0813,59.2125,0.00186479,-0.00193977,-0.00108383,0.00215188,-0.00222686,-0.25894,0.00252819,0.0143147,1329,1751,9.0813,-59.2126
112,-727,9.09814,59.1301,0.00182079,-0.00220632,-0.00102118,0.00206493,-0.00245047,-0.234676,0.00261013,0.0126677,1336,1751,9.09814,-59.1301
119,-727,9.09717,59.0372,0.00170829,-0.00237331,-0.000910403,0.00190215,-0.00256717,-0.209803,0.00258987,0.0104778,1343,1751,9.09723,-59.0373
126,-727,9.11597,58.8755,0.00155385,-0.00248299,-0.000731183,0.0016822,-0.00261134,-0.173775,0.00249815,0.0105332,1350,1751,9.11598,-58.8754
133,-727,9.12,58.7454,0.00127337,-0.00241653,-0.000617963,0.00137411,-0.00251727,-0.161602,0.00227878,0.0156231,1357,1751,9.11996,-58.7454
140,-727,9.13904,58.6178,0.000930173,-0.00213402,-0.000489019,0.00100632,-0.00221017,-0.154481,0.0018999,0.0226672,1364,1751,9.139,-58.6178
147,-727,9.12146,58.3813,0.000622593,-0.00176572,-0.000388699,0.000684262,-0.00182739,-0.157342,0.00149933,0.0193237,1371,1751,9.12144,-58.3814
154,-727,9.08533,58.1334,0.000271179,-0.00130111,-0.00031577,0.000332226,-0.00136216,-0.190972,0.00103675,0.0126024,1378,1751,9.08535,-58.1334
161,-727,9.06982,57.931,-0.000128918,-0.000772701,-0.000368974,3.88393e-05,-0.000940458,-0.426722,0.000640311,0.0101325,1385,1751,9.06986,-57.9311
168,-727,9.03113,57.7224,-0.000542733,-0.000411952,-0.000459163,-1.35469e-05,-0.000941138,-0.856129,0.000622959,0.0122147,1392,1751,9.03116,-57.7224
175,-727,9.01086,57.4708,-0.00101922,-0.000144928,-0.000710206,0.000251886,-0.00141603,-1.06127,0.00103822,0.0179782,1399,1751,9.01087,-57.4708
182,-727,9.01416,57.2021,-0.00135584,-7.91632e-05,-0.000999482,0.000468433,-0.00190343,-1.06958,0.00145054,0.0204178,1406,1751,9.0142,-57.2022
189,-727,8.98767,56.9186,-0.00139791,0.000506961,-0.00137485,0.00122705,-0.002118,-1.08832,0.00195397,0.0129926,1413,1751,8.98768,-56.9185
196,-727,8.96912,56.6339,-0.00169935,0.00119771,-0.00188995,0.00213039,-0.00263203,-1.11237,0.00275467,0.0149719,1420,1751,8.96909,-56.634
203,-727,8.92004,56.3164,-0.00222979,0.00215504,-0.00223167,0.00309105,-0.0031658,-1.17366,0.00361248,0.017291,1427,1751,8.92008,-56.3164
210,-727,8.90588,56.0183,-0.0021638,0.00318081,-0.00265607,0.00427625,-0.00325924,-1.17962,0.0043638,0.0172883,1434,1751,8.90591,-56.0184
217,-727,8.87292,55.7008,-0.00222454,0.00390503,-0.00298195,0.00511634,-0.00343585,-1.18495,0.00496928,0.0138039,1441,1751,8.87289,-55.7008
224,-727,8.84277,55.3264,-0.0026161,0.00441294,-0.00320157,0.00565256,-0.00385573,-1.20138,0.00552219,0.0143689,1448,1751,8.84279,-55.3264
231,-727,8.82605,54.9919,-0.00348981,0.00441369,-0.00306488,0.00546292,-0.00453904,-1.24096,0.00578284,0.0121013,1455,1751,8.82606,-54.9919
238,-727,8.82373,54.5422,-0.00397282,0.00457429,-0.00305483,0.00555386,-0.00495238,-1.26049,0.00606909,0.0187034,1462,1751,8.82372,-54.5423
245,-727,8.84375,54.182,-0.0043708,0.00468885,-0.00315961,0.00568192,-0.00536388,-1.26627,0.00637818,0.0264764,1469,1751,8.84379,-54.182
252,-727,8.79309,53.8105,-0.00509182,0.00469534,-0.00314248,0.00561746,-0.00601393,-1.28537,0.00671668,0.0265742,1476,1751,8.79313,-53.8106
259,-727,8.71606,53.4054,-0.00592508,0.0046548,-0.00292524,0.00540973,-0.00668002,-1.31823,0.00699285,0.0228609,1483,1751,8.71609,-53.4054
266,-727,8.68652,53.0642,-0.00666816,0.00441296,-0.00276672,0.00506535,-0.00732054,-1.33923,0.0071904,0.0215079,1490,1751,8.68655,-53.0642
273,-727,8.66772,52.6885,-0.00731721,0.00433341,-0.00273197,0.00494222,-0.00792602,-1.35153,0.00749576,0.0328305,1497,1751,8.66768,-52.6884
280,-727,8.37842,52.3733,-0.00803179,0.00439932,-0.00273593,0.00497482,-0.00860729,-1.36347,0.00793457,0.0496277,1504,1751,8.37845,-52.3733
287,-727,8.46375,51.7412,0,0,0,0,0,0,0,-1,1511,1751,8.46378,-51.7412
294,-727,8.60767,51.1592,0,0,0,0,0,0,0,-1,1518,1751,8.60768,-51.1592
301,-727,8.44385,46.1619,0,0,0,0,0,0,0,-1,1525,1751,8.4439,-46.1619
308,-727,8.77002,44.8007,0,0,0,0,0,0,0,-1,1532,1751,8.76996,-44.8006
315,-727,8.10571,41.24,0,0,0,0,0,0,0,-1,1539,1751,8.10567,-41.2399
322,-727,8.24133,40.2081,0,0,0,0,0,0,0,-1,1546,1751,8.24136,-40.2082
329,-727,5.54419,31.0325,0,0,0,0,0,0,0,-1,1553,1751,5.54425,-31.0325
336,-727,5.55823,20.2439,0,0,0,0,0,0,0,-1,1560,1751,5.55829,-20.2438
343,-727,2.41699,8.72095,0,0,0,0,0,0,0,-1,1567,1751,2.41702,-8.72098
350,-727,3.89783,7.50195,0,0,0,0,0,0,0,-1,1574,1751,3.89782,-7.50193
357,-727,4.48462,10.2948,0,0,0,0,0,0,0,-1,1581,1751,4.48464,-10.2948
364,-727,6.96729,17.2365,0,0,0,0,0,0,0,-1,1588,1751,6.96732,-17.2365
371,-727,5.04565,23.2227,0,0,0,0,0,0,0,-1,1595,1751,5.04564,-23.2227
378,-727,4.56726,23.0574,0,0,0,0,0,0,0,-1,1602,1751,4.56727,-23.0574
385,-727,3.52307,22.6431,0,0,0,0,0,0,0,-1,1609,1751,3.52303,-22.643
392,-727,0,0,0,0,0,0,0,0,0,-1,1616,1751,0,0
399,-727,0,0,0,0,0,0,0,0,0,-1,1623,1751,0,0
406,-727,0,0,0,0,0,0,0,0,0,-1,1630,1751,0,0
413,-727,0,0,0,0,0,0,0,0,0,-1,1637,1751,0,0
420,-727,0,0,0,0,0,0,0,0,0,-1,1644,1751,0,0
427,-727,0,0,0,0,0,0,0,0,0,-1,1651,1751,0,0
434,-727,0,0,0,0,0,0,0,0,0,-1,1658,1751,0,0
441,-727,0,0,0,0,0,0,0,0,0,-1,1665,1751,0,0
448,-727,0,0,0,0,0,0,0,0,0,-1,1672,1751,0,0
455,-727,0,0,0,0,0,0,0,0,0,-1,1679,1751,0,0
462,-727,0,0,0,0,0,0,0,0,0,-1,1686,1751,0,0
469,-727,0,0,0,0,0,0,0,0,0,-1,1693,1751,0,0
476,-727,0,0,0,0,0,0,0,0,0,-1,1700,1751,0,0
483,-727,0,0,0,0,0,0,0,0,0,-1,1707,1751,0,0
490,-727,0,0,0,0,0,0,0,0,0,-1,1714,1751,0,0
497,-727,0,0,0,0,0,0,0,0,0,-1,1721,1751,0,0
504,-727,0,0,0,0,0,0,0,0,0,-1,1728,1751,0,0
511,-727,0,0,0,0,0,0,0,0,0,-1,1735,1751,0,0
518,-727,0,0,0,0,0,0,0,0,0,-1,1742,1751,0,0
525,-727,0,0,0,0,0,0,0,0,0,-1,1749,1751,0,0
532,-727,0,0,0,0,0,0,0,0,0,-1,1756,1751,0,0
539,-727,0,0,0,0,0,0,0,0,0,-1,1763,1751,0,0
546,-727,0,0,0,0,0,0,0,0,0,-1,1770,1751,0,0
553,-727,0,0,0,0,0,0,0,0,0,-1,1777,1751,0,0
560,-727,0,0,0,0,0,0,0,0,0,-1,1784,1751,0,0
567,-727,0,0,0,0,0,0,0,0,0,-1,1791,1751,0,0
574,-727,0,0,0,0,0,0,0,0,0,-1,1798,1751,0,0
581,-727,0,0,0,0,0,0,0,0,0,-1,1805,1751,0,0
588,-727,0,0,0,0,0,0,0,0,0,-1,1812,1751,0,0
595,-727,0,0,0,0,0,0,0,0,0,-1,1819,1751,0,0
602,-727,0,0,0,0,0,0,0,0,0,-1,1826,1751,0,0
609,-727,0,0,0,0,0,0,0,0,0,-1,1833,1751,0,0
616,-727,0,0,0,0,0,0,0,0,0,-1,1840,1751,0,0
623,-727,0,0,0,0,0,0,0,0,0,-1,1847,1751,0,0
630,-727,0,0,0,0,0,0,0,0,0,-1,1854,1751,0,0
637,-727,0,0,0,0,0,0,0,0,0,-1,1861,1751,0,0
644,-727,0,0,0,0,0,0,0,0,0,-1,1868,1751,0,0
651,-727,0,0,0,0,0,0,0,0,0,-1,1875,1751,0,0
658,-727,0,0,0,0,0,0,0,0,0,-1,1882,1751,0,0
665,-727,0,0,0,0,0,0,0,0,0,-1,1889,1751,0,0
672,-727,0,0,0,0,0,0,0,0,0,-1,1896,1751,0,0
679,-727,0,0,0,0,0,0,0,0,0,-1,1903,1751,0,0
686,-727,0,0,0,0,0,0,0,0,0,-1,1910,1751,0,0
693,-727,0,0,0,0,0,0,0,0,0,-1,1917,1751,0,0
700,-727,0,0,0,0,0,0,0,0,0,-1,1924,1751,0,0
707,-727,0,0,0,0,0,0,0,0,0,-1,1931,1751,0,0
714,-727,0,0,0,0,0,0,0,0,0,-1,1938,1751,0,0
721,-727,0,0,0,0,0,0,0,0,0,-1,1945,1751,0,0
728,-727,0,0,0,0,0,0,0,0,0,-1,1952,1751,0,0
735,-727,0,0,0,0,0,0,0,0,0,-1,1959,1751,0,0
742,-727,0,0,0,0,0,0,0,0,0,-1,1966,1751,0,0
749,-727,0,0,0,0,0,0,0,0,0,-1,1973,1751,0,0
756,-727,0,0,0,0,0,0,0,0,0,-1,1980,1751,0,0
763,-727,0,0,0,0,0,0,0,0,0,-1,1987,1751,0,0
770,-727,0,0,0,0,0,0,0,0,0,-1,1994,1751,0,0
777,-727,0,0,0,0,0,0,0,0,0,-1,2001,1751,0,0
784,-727,0,0,0,0,0,0,0,0,0,-1,2008,1751,0,0
791,-727,0,0,0,0,0,0,0,0,0,-1,2015,1751,0,0
798,-727,0,0,0,0,0,0,0,0,0,-1,2022,1751,0,0
805,-727,0,0,0,0,0,0,0,0,0,-1,2029,1751,0,0
812,-727,0,0,0,0,0,0,0,0,0,-1,2036,1751,0,0
-700,-734,0,0,0,0,0,0,0,0,0,-1,524,1758,0,0
-693,-734,0,0,0,0,0,0,0,0,0,-1,531,1758,0,0
-686,-734,0,0,0,0,0,0,0,0,0,-1,538,1758,0,0
-679,-734,0,0,0,0,0,0,0,0,0,-1,545,1758,0,0
-672,-734,0,0,0,0,0,0,0,0,0,-1,552,1758,0,0
-665,-734,0,0,0,0,0,0,0,0,0,-1,559,1758,0,0
-658,-734,0,0,0,0,0,0,0,0,0,-1,566,1758,0,0
-651,-734,0,0,0,0,0,0,0,0,0,-1,573,1758,0,0
-644,-734,0,0,0,0,0,0,0,0,0,-1,580,1758,0,0
-637,-734,0,0,0,0,0,0,0,0,0,-1,587,1758,0,0
-630,-734,0,0,0,0,0,0,0,0,0,-1,594,1758,0,0
-623,-734,0,0,0,0,0,0,0,0,0,-1,601,1758,0,0
-616,-734,0,0,0,0,0,0,0,0,0,-1,608,1758,0,0
-609,-734,0,0,0,0,0,0,0,0,0,-1,615,1758,0,0
-602,-734,0,0,0,0,0,0,0,0,0,-1,622,1758,0,0
-595,-734,0,0,0,0,0,0,0,0,0,-1,629,1758,0,0
-588,-734,0,0,0,0,0,0,0,0,0,-1,636,1758,0,0
-581,-734,0,0,0,0,0,0,0,0,0,-1,643,1758,0,0
-574,-734,0,0,0,0,0,0,0,0,0,-1,650,1758,0,0
-567,-734,0,0,0,0,0,0,0,0,0,-1,657,1758,0,0
-560,-734,0,0,0,0,0,0,0,0,0,-1,664,1758,0,0
-553,-734,0,0,0,0,0,0,0,0,0,-1,671,1758,0,0
-546,-734,0,0,0,0,0,0,0,0,0,-1,678,1758,0,0
-539,-734,0,0,0,0,0,0,0,0,0,-1,685,1758,0,0
-532,-734,0,0,0,0,0,0,0,0,0,-1,692,1758,0,0
-525,-734,0,0,0,0,0,0,0,0,0,-1,699,1758,0,0
-518,-734,0,0,0,0,0,0,0,0,0,-1,706,1758,0,0
-511,-734,0,0,0,0,0,0,0,0,0,-1,713,1758,0,0
-504,-734,0,0,0,0,0,0,0,0,0,-1,720,1758,0,0
-497,-734,0,0,0,0,0,0,0,0,0,-1,727,1758,0,0
-490,-734,0,0,0,0,0,0,0,0,0,-1,734,1758,0,0
-483,-734,0,0,0,0,0,0,0,0,0,-1,741,1758,0,0
-476,-734,0,0,0,0,0,0,0,0,0,-1,748,1758,0,0
-469,-734,0,0,0,0,0,0,0,0,0,-1,755,1758,0,0
-462,-734,0,0,0,0,0,0,0,0,0,-1,762,1758,0,0
-455,-734,0,0,0,0,0,0,0,0,0,-1,769,1758,0,0
-448,-734,0,0,0,0,0,0,0,0,0,-1,776,1758,0,0
-441,-734,0,0,0,0,0,0,0,0,0,-1,783,1758,0,0
-434,-734,0,0,0,0,0,0,0,0,0,-1,790,1758,0,0
-427,-734,0,0,0,0,0,0,0,0,0,-1,797,1758,0,0
-420,-734,0,0,0,0,0,0,0,0,0,-1,804,1758,0,0
-413,-734,0,0,0,0,0,0,0,0,0,-1,811,1758,0,0
-406,-734,0,0,0,0,0,0,0,0,0,-1,818,1758,0,0
-399,-734,0,0,0,0,0,0,0,0,0,-1,825,1758,0,0
-392,-734,0,0,0,0,0,0,0,0,0,-1,832,1758,0,0
-385,-734,0,0,0,0,0,0,0,0,0,-1,839,1758,0,0
-378,-734,0,0,0,0,0,0,0,0,0,-1,846,1758,0,0
-371,-734,0,0,0,0,0,0,0,0,0,-1,853,1758,0,0
-364,-734,0,0,0,0,0,0,0,0,0,-1,860,1758,0,0
-357,-734,0,0,0,0,0,0,0,0,0,-1,867,1758,0,0
-350,-734,0,0,0,0,0,0,0,0,0,-1,874,1758,0,0
-343,-734,0,0,0,0,0,0,0,0,0,-1,881,1758,0,0
-336,-734,0,0,0,0,0,0,0,0,0,-1,888,1758,0,0
-329,-734,0,0,0,0,0,0,0,0,0,-1,895,1758,0,0
-322,-734,0,0,0,0,0,0,0,0,0,-1,902,1758,0,0
-315,-734,0,0,0,0,0,0,0,0,0,-1,909,1758,0,0
-308,-734,0,0,0,0,0,0,0,0,0,-1,916,1758,0,0
-301,-734,0,0,0,0,0,0,0,0,0,-1,923,1758,0,0
-294,-734,0,0,0,0,0,0,0,0,0,-1,930,1758,0,0
-287,-734,0,0,0,0,0,0,0,0,0,-1,937,1758,0,0
-280,-734,0,0,0,0,0,0,0,0,0,-1,944,1758,0,0
-273,-734,0,0,0,0,0,0,0,0,0,-1,951,1758,0,0
-266,-734,0,0,0,0,0,0,0,0,0,-1,958,1758,0,0
-259,-734,0,0,0,0,0,0,0,0,0,-1,965,1758,0,0
-252,-734,5.73883,31.5245,0,0,0,0,0,0,0,-1,972,1758,5.73884,-31.5246
-245,-734,6.32513,30.9761,0,0,0,0,0,0,0,-1,979,1758,6.32511,-30.9761
-238,-734,6.82385,30.0449,0,0,0,0,0,0,0,-1,986,1758,6.82387,-30.0449
-231,-734,7.1958,29.1666,0,0,0,0,0,0,0,-1,993,1758,7.19578,-29.1666
-224,-734,7.36169,28.5652,0,0,0,0,0,0,0,-1,1000,1758,7.36172,-28.5651
-217,-734,7.45984,28.4386,0,0,0,0,0,0,0,-1,1007,1758,7.45986,-28.4386
-210,-734,7.45483,28.4388,0,0,0,0,0,0,0,-1,1014,1758,7.45482,-28.4388
-203,-734,14.3309,49.7766,0,0,0,0,0,0,0,-1,1021,1758,14.3309,-49.7766
-196,-734,13.0366,49.6821,0,0,0,0,0,0,0,-1,1028,1758,13.0366,-49.6822
-189,-734,11.8075,49.2727,0,0,0,0,0,0,0,-1,1035,1758,11.8075,-49.2728
-182,-734,10.8073,48.8035,0,0,0,0,0,0,0,-1,1042,1758,10.8072,-48.8035
-175,-734,9.90186,48.634,0,0,0,0,0,0,0,-1,1049,1758,9.90187,-48.6341
-168,-734,8.91504,48.7642,0,0,0,0,0,0,0,-1,1056,1758,8.91505,-48.7641
-161,-734,10.4485,52.0808,0,0,0,0,0,0,0,-1,1063,1758,10.4485,-52.0808
-154,-734,10.0388,52.1855,0,0,0,0,0,0,0,-1,1070,1758,10.0388,-52.1855
-147,-734,10.0234,52.7238,0,0,0,0,0,0,0,-1,1077,1758,10.0234,-52.7238
-140,-734,9.8645,53.0531,0,0,0,0,0,0,0,-1,1084,1758,9.86446,-53.0531
-133,-734,9.83887,53.444,0,0,0,0,0,0,0,-1,1091,1758,9.83881,-53.444
-126,-734,9.74597,53.8206,0,0,0,0,0,0,0,-1,1098,1758,9.74602,-53.8206
-119,-734,9.71533,54.2568,0,0,0,0,0,0,0,-1,1105,1758,9.71533,-54.2568
-112,-734,9.63574,54.5339,0,0,0,0,0,0,0,-1,1112,1758,9.63568,-54.534
-105,-734,9.45129,54.8179,0,0,0,0,0,0,0,-1,1119,1758,9.45131,-54.8179
-98,-734,9.57446,55.3928,0,0,0,0,0,0,0,-1,1126,1758,9.57451,-55.3928
-91,-734,9.61389,55.7181,0,0,0,0,0,0,0,-1,1133,1758,9.61388,-55.7181
-84,-734,9.54626,56.0474,0,0,0,0,0,0,0,-1,1140,1758,9.54621,-56.0474
-77,-734,9.50183,56.4199,0,0,0,0,0,0,0,-1,1147,1758,9.50188,-56.4199
-70,-734,9.48547,56.7336,0,0,0,0,0,0,0,-1,1154,1758,9.48545,-56.7336
-63,-734,9.33679,56.7909,0.00230066,0.00494609,0.00592356,0.00969281,-0.00244607,0.895245,0.007413,0.0363207,1161,1758,9.33679,-56.7909
-56,-734,9.38123,57.2366,0.00530012,0.0034315,0.00610591,0.0105428,-0.00181118,0.709478,0.00770355,0.0183489,1168,1758,9.38122,-57.2365
-49,-734,9.35254,57.5382,0.0064208,0.00238005,0.0058587,0.0105977,-0.00179686,0.619358,0.00773399,0.0144397,1175,1758,9.35255,-57.5382
-42,-734,9.31506,57.7721,0.00725664,0.00162289,0.00542236,0.0105501,-0.00167062,0.545838,0.00765134,0.0159924,1182,1758,9.31502,-57.7721
-35,-734,9.29993,57.9795,0.00796748,0.00102345,0.00482182,0.0104373,-0.00144633,0.473366,0.00748699,0.016097,1189,1758,9.29992,-57.9794
-28,-734,9.25623,58.1864,0.00846846,0.000681844,0.00412678,0.0102486,-0.00109831,0.407251,0.00722639,0.0103829,1196,1758,9.25617,-58.1864
-21,-734,9.27576,58.3806,0.00871289,0.000260481,0.00352102,0.00998745,-0.00101408,0.347312,0.00702078,0.016546,1203,1758,9.27579,-58.3806
-14,-734,9.24963,58.5925,0.00862924,-0.000111542,0.002991,0.00955473,-0.00103703,0.300082,0.00674214,0.0170873,1210,1758,9.24964,-58.5926
-7,-734,9.24463,58.749,0.00840173,-0.000490728,0.00235403,0.00898645,-0.00107544,0.243462,0.00637973,0.0177629,1217,1758,9.24458,-58.749
0,-734,9.19824,58.875,0.00800929,-0.000534641,0.0017563,0.00835623,-0.00088158,0.195029,0.00588673,0.017001,1224,1758,9.19828,-58.875
7,-734,9.17236,59.0072,0.00742918,-0.00042758,0.00120653,0.00761029,-0.000608687,0.148993,0.00528811,0.0126248,1231,1758,9.17234,-59.0072
14,-734,9.16272,59.1339,0.00672714,-0.000309453,0.000688104,0.0067938,-0.00037611,0.0965704,0.00465963,0.0137985,1238,1758,9.16274,-59.1339
21,-734,9.11938,59.2311,0.00591997,-0.000101774,0.000144277,0.00592342,-0.000105229,0.023941,0.00398449,0.0125768,1245,1758,9.11934,-59.2311
28,-734,9.1228,59.3218,0.00514367,0.000134975,-0.000231112,0.00515432,0.000124333,-0.0460118,0.00339553,0.0122823,1252,1758,9.12283,-59.3218
35,-734,9.13696,59.4193,0.00432801,0.000286588,-0.000542409,0.00439954,0.000215056,-0.131122,0.00286403,0.0154483,1259,1758,9.1369,-59.4193
42,-734,9.14294,59.46,0.00306085,0.000311043,-0.000994826,0.00338302,-1.11202e-05,-0.313182,0.00225906,0.0128102,1266,1758,9.14291,-59.46
49,-734,9.10535,59.4762,0.00214123,0.000467239,-0.00127659,0.00283075,-0.000222282,-0.495231,0.00196546,0.0107034,1273,1758,9.10532,-59.4762
56,-734,9.07312,59.5123,0.00156588,0.000418879,-0.00139539,0.00250102,-0.000516269,-0.590424,0.00186343,0.00966727,1280,1758,9.07313,-59.5124
63,-734,9.06897,59.4988,0.000914257,0.000421606,-0.00142459,0.00211367,-0.000777802,-0.69979,0.00172776,0.0122658,1287,1758,9.06902,-59.4988
70,-734,9.06311,59.4854,0.000480268,0.000301927,-0.00135132,0.00174536,-0.000963164,-0.752452,0.00158535,0.0127689,1294,1758,9.06317,-59.4853
77,-734,9.05945,59.5126,0.000153412,4.23139e-05,-0.00129162,0.00139068,-0.00119495,-0.763908,0.00149424,0.0169697,1301,1758,9.05944,-59.5125
84,-734,9.04834,59.4297,-0.000218411,-0.00015734,-0.00123344,0.00104594,-0.00142169,-0.797774,0.00143018,0.01712,1308,1758,9.04833,-59.4296
91,-734,9.04785,59.3492,-0.000208823,-0.000330415,-0.00114499,0.000876989,-0.00141623,-0.758874,0.00133613,0.0194673,1315,1758,9.04783,-59.3493
98,-734,9.0238,59.2965,-0.000126568,-0.000635376,-0.00107336,0.000722125,-0.00148407,-0.669037,0.00129882,0.0147194,1322,1758,9.02385,-59.2965
105,-734,9.02783,59.2063,-0.000171873,-0.000858488,-0.000900505,0.000448546,-0.00147891,-0.603283,0.00116461,0.0155414,1329,1758,9.02779,-59.2063
112,-734,9.03979,59.1047,-0.000142138,-0.00103349,-0.000758749,0.000292144,-0.00146777,-0.519852,0.00108904,0.0145336,1336,1758,9.03978,-59.1047
119,-734,9.00024,58.9875,-0.00016471,-0.00115103,-0.000603764,0.000121706,-0.00143744,-0.442945,0.00100133,0.0157465,1343,1758,9.00021,-58.9876
126,-734,8.98242,58.8247,-0.000182742,-0.00127511,-0.000382014,-6.2404e-05,-0.00139545,-0.305169,0.000910213,0.0166076,1350,1758,8.98238,-58.8247
133,-734,8.95227,58.6906,-0.000373463,-0.00130102,-0.000313094,-0.000277672,-0.00139681,-0.296906,0.000853837,0.0159017,1357,1758,8.95229,-58.6906
140,-734,8.94128,58.5664,-0.000656664,-0.00119683,-0.000251344,-0.000557805,-0.00129569,-0.374736,0.000750473,0.0207786,1364,1758,8.94125,-58.5664
147,-734,8.91455,58.3358,-0.000841676,-0.00105774,-0.000226924,-0.00069838,-0.00120103,-0.563238,0.00069648,0.0142039,1371,1758,8.91453,-58.3358
154,-734,8.87268,58.1438,-0.00104242,-0.00077639,-0.000276478,-0.000602596,-0.00121622,-1.00961,0.000702194,0.0102974,1378,1758,8.87263,-58.1438
161,-734,8.85156,57.9435,-0.00137407,-0.000564237,-0.000467973,-0.000350319,-0.00158799,-1.14204,0.000963358,0.00952831,1385,1758,8.85155,-57.9434
168,-734,8.79211,57.7087,-0.00178624,-0.000383016,-0.000674655,-0.000111274,-0.00205798,-1.18789,0.00133644,0.0140618,1392,1758,8.79215,-57.7088
175,-734,8.77222,57.4731,-0.00235415,-0.000348533,-0.00110799,0.000143069,-0.00284575,-1.1532,0.00194661,0.0176715,1399,1758,8.7722,-57.4732
182,-734,8.79285,57.1844,-0.00276117,-0.000619844,-0.00146383,0.000123082,-0.0035041,-1.10115,0.00237815,0.0172188,1406,1758,8.7928,-57.1844
189,-734,8.74304,56.908,-0.00260511,0.00014599,-0.00197198,0.00117478,-0.00363389,-1.08994,0.00289477,0.0129059,1413,1758,8.74302,-56.908
196,-734,8.69519,56.6306,-0.00295511,0.00112098,-0.00273046,0.00249014,-0.00432426,-1.106,0.00398152,0.0153683,1420,1758,8.69522,-56.6307
203,-734,8.70459,56.2881,-0.0037919,0.00255208,-0.00319245,0.00388045,-0.00512027,-1.17649,0.00521298,0.0220726,1427,1758,8.7046,-56.2881
210,-734,8.69763,55.963,-0.00347012,0.00409887,-0.0038135,0.00568701,-0.00505826,-1.17619,0.00620732,0.0377497,1434,1758,8.69763,-55.9631
217,-734,8.58801,55.672,0,0,0,0,0,0,0,-1,1441,1758,8.58803,-55.6719
224,-734,8.52344,55.4012,0,0,0,0,0,0,0,-1,1448,1758,8.52345,-55.4013
231,-734,8.4519,54.9902,0,0,0,0,0,0,0,-1,1455,1758,8.45192,-54.9902
238,-734,8.48022,54.3856,0,0,0,0,0,0,0,-1,1462,1758,8.48028,-54.3856
245,-734,8.61426,53.8418,0,0,0,0,0,0,0,-1,1469,1758,8.61428,-53.8418
252,-734,8.51636,53.5094,0,0,0,0,0,0,0,-1,1476,1758,8.51641,-53.5094
259,-734,8.43066,53.2939,0,0,0,0,0,0,0,-1,1483,1758,8.43067,-53.2939
266,-734,8.34619,53.0375,0,0,0,0,0,0,0,-1,1490,1758,8.34623,-53.0374
273,-734,8.40161,52.7556,0,0,0,0,0,0,0,-1,1497,1758,8.40167,-52.7557
280,-734,7.90149,52.7294,0,0,0,0,0,0,0,-1,1504,1758,7.90153,-52.7294
287,-734,7.56177,50.5933,0,0,0,0,0,0,0,-1,1511,1758,7.56172,-50.5933
294,-734,7.42676,47.7545,0,0,0,0,0,0,0,-1,1518,1758,7.4268,-47.7545
301,-734,7.21814,42.6078,0,0,0,0,0,0,0,-1,1525,1758,7.21809,-42.6078
308,-734,8.0509,41.5156,0,0,0,0,0,0,0,-1,1532,1758,8.05087,-41.5157
315,-734,7.93787,40.8274,0,0,0,0,0,0,0,-1,1539,1758,7.93784,-40.8273
322,-734,7.82483,40.139,0,0,0,0,0,0,0,-1,1546,1758,7.82481,-40.139
329,-734,5.73267,19.656,0,0,0,0,0,0,0,-1,1553,1758,5.73262,-19.656
336,-734,6.71375,23.7469,0,0,0,0,0,0,0,-1,1560,1758,6.71372,-23.7469
343,-734,5.54968,5.14221,0,0,0,0,0,0,0,-1,1567,1758,5.54973,-5.14225
350,-734,5.07397,6.73242,0,0,0,0,0,0,0,-1,1574,1758,5.07402,-6.73243
357,-734,5.05542,7.19189,0,0,0,0,0,0,0,-1,1581,1758,5.05541,-7.19184
364,-734,4.43896,10.4904,0,0,0,0,0,0,0,-1,1588,1758,4.43893,-10.4904
371,-734,7.36975,17.4751,0,0,0,0,0,0,0,-1,1595,1758,7.36972,-17.4752
378,-734,0,0,0,0,0,0,0,0,0,-1,1602,1758,0,0
385,-734,0,0,0,0,0,0,0,0,0,-1,1609,1758,0,0
392,-734,0,0,0,0,0,0,0,0,0,-1,1616,1758,0,0
399,-734,0,0,0,0,0,0,0,0,0,-1,1623,1758,0,0
406,-734,0,0,0,0,0,0,0,0,0,-1,1630,1758,0,0
413,-734,0,0,0,0,0,0,0,0,0,-1,1637,1758,0,0
420,-734,0,0,0,0,0,0,0,0,0,-1,1644,1758,0,0
427,-734,0,0,0,0,0,0,0,0,0,-1,1651,1758,0,0
434,-734,0,0,0,0,0,0,0,0,0,-1,1658,1758,0,0
441,-734,0,0,0,0,0,0,0,0,0,-1,1665,1758,0,0
448,-734,0,0,0,0,0,0,0,0,0,-1,1672,1758,0,0
455,-734,0,0,0,0,0,0,0,0,0,-1,1679,1758,0,0
462,-734,0,0,0,0,0,0,0,0,0,-1,1686,1758,0,0
469,-734,0,0,0,0,0,0,0,0,0,-1,1693,1758,0,0
476,-734,0,0,0,0,0,0,0,0,0,-1,1700,1758,0,0
483,-734,0,0,0,0,0,0,0,0,0,-1,1707,1758,0,0
490,-734,0,0,0,0,0,0,0,0,0,-1,1714,1758,0,0
497,-734,0,0,0,0,0,0,0,0,0,-1,1721,1758,0,0
504,-734,0,0,0,0,0,0,0,0,0,-1,1728,1758,0,0
511,-734,0,0,0,0,0,0,0,0,0,-1,1735,1758,0,0
518,-734,0,0,0,0,0,0,0,0,0,-1,1742,1758,0,0
525,-734,0,0,0,0,0,0,0,0,0,-1,1749,1758,0,0
532,-734,0,0,0,0,0,0,0,0,0,-1,1756,1758,0,0
539,-734,0,0,0,0,0,0,0,0,0,-1,1763,1758,0,0
546,-734,0,0,0,0,0,0,0,0,0,-1,1770,1758,0,0
553,-734,0,0,0,0,0,0,0,0,0,-1,1777,1758,0,0
560,-734,0,0,0,0,0,0,0,0,0,-1,1784,1758,0,0
567,-734,0,0,0,0,0,0,0,0,0,-1,1791,1758,0,0
574,-734,0,0,0,0,0,0,0,0,0,-1,1798,1758,0,0
581,-734,0,0,0,0,0,0,0,0,0,-1,1805,1758,0,0
588,-734,0,0,0,0,0,0,0,0,0,-1,1812,1758,0,0
595,-734,0,0,0,0,0,0,0,0,0,-1,1819,1758,0,0
602,-734,0,0,0,0,0,0,0,0,0,-1,1826,1758,0,0
609,-734,0,0,0,0,0,0,0,0,0,-1,1833,1758,0,0
616,-734,0,0,0,0,0,0,0,0,0,-1,1840,1758,0,0
623,-734,0,0,0,0,0,0,0,0,0,-1,1847,1758,0,0
630,-734,0,0,0,0,0,0,0,0,0,-1,1854,1758,0,0
637,-734,0,0,0,0,0,0,0,0,0,-1,1861,1758,0,0
644,-734,0,0,0,0,0,0,0,0,0,-1,1868,1758,0,0
651,-734,0,0,0,0,0,0,0,0,0,-1,1875,1758,0,0
658,-734,0,0,0,0,0,0,0,0,0,-1,1882,1758,0,0
665,-734,0,0,0,0,0,0,0,0,0,-1,1889,1758,0,0
672,-734,0,0,0,0,0,0,0,0,0,-1,1896,1758,0,0
679,-734,0,0,0,0,0,0,0,0,0,-1,1903,1758,0,0
686,-734,0,0,0,0,0,0,0,0,0,-1,1910,1758,0,0
693,-734,0,0,0,0,0,0,0,0,0,-1,1917,1758,0,0
700,-734,0,0,0,0,0,0,0,0,0,-1,1924,1758,0,0
707,-734,0,0,0,0,0,0,0,0,0,-1,1931,1758,0,0
714,-734,0,0,0,0,0,0,0,0,0,-1,1938,1758,0,0
721,-734,0,0,0,0,0,0,0,0,0,-1,1945,1758,0,0
728,-734,0,0,0,0,0,0,0,0,0,-1,1952,1758,0,0
735,-734,0,0,0,0,0,0,0,0,0,-1,1959,1758,0,0
742,-734,0,0,0,0,0,0,0,0,0,-1,1966,1758,0,0
749,-734,0,0,0,0,0,0,0,0,0,-1,1973,1758,0,0
756,-734,0,0,0,0,0,0,0,0,0,-1,1980,1758,0,0
763,-734,0,0,0,0,0,0,0,0,0,-1,1987,1758,0,0
770,-734,0,0,0,0,0,0,0,0,0,-1,1994,1758,0,0
777,-734,0,0,0,0,0,0,0,0,0,-1,2001,1758,0,0
784,-734,0,0,0,0,0,0,0,0,0,-1,2008,1758,0,0
791,-734,0,0,0,0,0,0,0,0,0,-1,2015,1758,0,0
798,-734,0,0,0,0,0,0,0,0,0,-1,2022,1758,0,0
805,-734,0,0,0,0,0,0,0,0,0,-1,2029,1758,0,0
812,-734,0,0,0,0,0,0,0,0,0,-1,2036,1758,0,0
-700,-741,0,0,0,0,0,0,0,0,0,-1,524,1765,0,0
-693,-741,0,0,0,0,0,0,0,0,0,-1,531,1765,0,0
-686,-741,0,0,0,0,0,0,0,0,0,-1,538,1765,0,0
-679,-741,0,0,0,0,0,0,0,0,0,-1,545,1765,0,0
-672,-741,0,0,0,0,0,0,0,0,0,-1,552,1765,0,0
-665,-741,0,0,0,0,0,0,0,0,0,-1,559,1765,0,0
-658,-741,0,0,0,0,0,0,0,0,0,-1,566,1765,0,0
-651,-741,0,0,0,0,0,0,0,0,0,-1,573,1765,0,0
-644,-741,0,0,0,0,0,0,0,0,0,-1,580,1765,0,0
-637,-741,0,0,0,0,0,0,0,0,0,-1,587,1765,0,0
-630,-741,0,0,0,0,0,0,0,0,0,-1,594,1765,0,0
-623,-741,0,0,0,0,0,0,0,0,0,-1,601,1765,0,0
-616,-741,0,0,0,0,0,0,0,0,0,-1,608,1765,0,0
-609,-741,0,0,0,0,0,0,0,0,0,-1,615,1765,0,0
-602,-741,0,0,0,0,0,0,0,0,0,-1,622,1765,0,0
-595,-741,0,0,0,0,0,0,0,0,0,-1,629,1765,0,0
-588,-741,0,0,0,0,0,0,0,0,0,-1,636,1765,0,0
-581,-741,0,0,0,0,0,0,0,0,0,-1,643,1765,0,0
-574,-741,0,0,0,0,0,0,0,0,0,-1,650,1765,0,0
-567,-741,0,0,0,0,0,0,0,0,0,-1,657,1765,0,0
-560,-741,0,0,0,0,0,0,0,0,0,-1,664,1765,0,0
-553,-741,0,0,0,0,0,0,0,0,0,-1,671,1765,0,0
-546,-741,0,0,0,0,0,0,0,0,0,-1,678,1765,0,0
-539,-741,0,0,0,0,0,0,0,0,0,-1,685,1765,0,0
-532,-741,0,0,0,0,0,0,0,0,0,-1,692,1765,0,0
-525,-741,0,0,0,0,0,0,0,0,0,-1,699,1765,0,0
-518,-741,0,0,0,0,0,0,0,0,0,-1,706,1765,0,0
-511,-741,0,0,0,0,0,0,0,0,0,-1,713,1765,0,0
-504,-741,0,0,0,0,0,0,0,0,0,-1,720,1765,0,0
-497,-741,0,0,0,0,0,0,0,0,0,-1,727,1765,0,0
-490,-741,0,0,0,0,0,0,0,0,0,-1,734,1765,0,0
-483,-741,0,0,0,0,0,0,0,0,0,-1,741,1765,0,0
-476,-741,0,0,0,0,0,0,0,0,0,-1,748,1765,0,0
-469,-741,0,0,0,0,0,0,0,0,0,-1,755,1765,0,0
-462,-741,0,0,0,0,0,0,0,0,0,-1,762,1765,0,0
-455,-741,0,0,0,0,0,0,0,0,0,-1,769,1765,0,0
-448,-741,0,0,0,0,0,0,0,0,0,-1,776,1765,0,0
-441,-741,0,0,0,0,0,0,0,0,0,-1,783,1765,0,0
-434,-741,0,0,0,0,0,0,0,0,0,-1,790,1765,0,0
-427,-741,0,0,0,0,0,0,0,0,0,-1,797,1765,0,0
-420,-741,0,0,0,0,0,0,0,0,0,-1,804,1765,0,0
-413,-741,0,0,0,0,0,0,0,0,0,-1,811,1765,0,0
-406,-741,0,0,0,0,0,0,0,0,0,-1,818,1765,0,0
-399,-741,0,0,0,0,0,0,0,0,0,-1,825,1765,0,0
-392,-741,0,0,0,0,0,0,0,0,0,-1,832,1765,0,0
-385,-741,0,0,0,0,0,0,0,0,0,-1,839,1765,0,0
-378,-741,0,0,0,0,0,0,0,0,0,-1,846,1765,0,0
-371,-741,0,0,0,0,0,0,0,0,0,-1,853,1765,0,0
-364,-741,0,0,0,0,0,0,0,0,0,-1,860,1765,0,0
-357,-741,0,0,0,0,0,0,0,0,0,-1,867,1765,0,0
-350,-741,0,0,0,0,0,0,0,0,0,-1,874,1765,0,0
-343,-741,0,0,0,0,0,0,0,0,0,-1,881,1765,0,0
-336,-741,0,0,0,0,0,0,0,0,0,-1,888,1765,0,0
-329,-741,0,0,0,0,0,0,0,0,0,-1,895,1765,0,0
-322,-741,0,0,0,0,0,0,0,0,0,-1,902,1765,0,0
-315,-741,0,0,0,0,0,0,0,0,0,-1,909,1765,0,0
-308,-741,0,0,0,0,0,0,0,0,0,-1,916,1765,0,0
-301,-741,0,0,0,0,0,0,0,0,0,-1,923,1765,0,0
-294,-741,0,0,0,0,0,0,0,0,0,-1,930,1765,0,0
-287,-741,0,0,0,0,0,0,0,0,0,-1,937,1765,0,0
-280,-741,0,0,0,0,0,0,0,0,0,-1,944,1765,0,0
-273,-741,0,0,0,0,0,0,0,0,0,-1,951,1765,0,0
-266,-741,0,0,0,0,0,0,0,0,0,-1,958,1765,0,0
-259,-741,0,0,0,0,0,0,0,0,0,-1,965,1765,0,0
-252,-741,0,0,0,0,0,0,0,0,0,-1,972,1765,0,0
-245,-741,0,0,0,0,0,0,0,0,0,-1,979,1765,0,0
-238,-741,7.13855,29.8348,0,0,0,0,0,0,0,-1,986,1765,7.13856,-29.8348
-231,-741,7.74182,29.3066,0,0,0,0,0,0,0,-1,993,1765,7.74183,-29.3066
-224,-741,7.80078,29.0964,0,0,0,0,0,0,0,-1,1000,1765,7.80079,-29.0964
-217,-741,8.15863,29.113,0,0,0,0,0,0,0,-1,1007,1765,8.15863,-29.1131
-210,-741,8.37024,29.3896,0,0,0,0,0,0,0,-1,1014,1765,8.37022,-29.3896
-203,-741,7.703,44.0701,0,0,0,0,0,0,0,-1,1021,1765,7.70306,-44.0701
-196,-741,13.1698,50.7012,0,0,0,0,0,0,0,-1,1028,1765,13.1698,-50.7012
-189,-741,12.3024,50.0712,0,0,0,0,0,0,0,-1,1035,1765,12.3023,-50.0712
-182,-741,11.3236,49.675,0,0,0,0,0,0,0,-1,1042,1765,11.3236,-49.675
-175,-741,10.1451,49.7836,0,0,0,0,0,0,0,-1,1049,1765,10.1451,-49.7836
-168,-741,9.26172,49.837,0,0,0,0,0,0,0,-1,1056,1765,9.26167,-49.837
-161,-741,8.42102,49.8832,0,0,0,0,0,0,0,-1,1063,1765,8.42099,-49.8832
-154,-741,10.5177,48.0798,0,0,0,0,0,0,0,-1,1070,1765,10.5177,-48.0798
-147,-741,10.9515,48.8568,0,0,0,0,0,0,0,-1,1077,1765,10.9515,-48.8569
-140,-741,10.5068,51.2876,0,0,0,0,0,0,0,-1,1084,1765,10.5068,-51.2876
-133,-741,10.5951,53.1439,0,0,0,0,0,0,0,-1,1091,1765,10.5951,-53.1439
-126,-741,9.89746,52.7167,0,0,0,0,0,0,0,-1,1098,1765,9.8975,-52.7167
-119,-741,9.33801,50.1482,0,0,0,0,0,0,0,-1,1105,1765,9.33802,-50.1482
-112,-741,9.6283,47.2815,0,0,0,0,0,0,0,-1,1112,1765,9.62827,-47.2815
-105,-741,9.61792,45.9158,0,0,0,0,0,0,0,-1,1119,1765,9.61797,-45.9158
-98,-741,9.19971,40.25,0,0,0,0,0,0,0,-1,1126,1765,9.19971,-40.25
-91,-741,8.40002,36.3687,0,0,0,0,0,0,0,-1,1133,1765,8.40002,-36.3687
-84,-741,7.8877,35.0892,0,0,0,0,0,0,0,-1,1140,1765,7.88776,-35.0892
-77,-741,7.73303,34.1174,0,0,0,0,0,0,0,-1,1147,1765,7.73304,-34.1174
-70,-741,7.5437,32.0275,0,0,0,0,0,0,0,-1,1154,1765,7.5437,-32.0275
-63,-741,9.35046,56.4066,0,0,0,0,0,0,0,-1,1161,1765,9.3505,-56.4066
-56,-741,9.67297,57.1401,0,0,0,0,0,0,0,-1,1168,1765,9.67296,-57.1402
-49,-741,9.59546,57.5977,0,0,0,0,0,0,0,-1,1175,1765,9.59546,-57.5977
-42,-741,9.5144,57.85,0,0,0,0,0,0,0,-1,1182,1765,9.51441,-57.8499
-35,-741,9.51062,57.9966,0.0147495,0.000685048,0.00742277,0.0179422,-0.00250768,0.406205,0.012879,0.0246402,1189,1765,9.51066,-57.9966
-28,-741,9.46655,58.1982,0.0150519,0.000797484,0.00604374,0.0172694,-0.00142004,0.351661,0.0120143,0.0152897,1196,1765,9.4666,-58.1982
-21,-741,9.45544,58.3862,0.0149505,0.000607047,0.00492108,0.0164765,-0.000918967,0.300695,0.0113031,0.0196465,1203,1765,9.4555,-58.3862
-14,-741,9.4126,58.5847,0.014334,0.00136542,0.00343304,0.0151867,0.000512696,0.243461,0.00995797,0.0198833,1210,1765,9.41263,-58.5847
-7,-741,9.39026,58.7268,0.0135635,0.00162738,0.00206881,0.0139119,0.00127897,0.166842,0.00887902,0.0157659,1217,1765,9.39023,-58.7268
0,-741,9.35828,58.8395,0.0126189,0.00231859,0.000711274,0.0126678,0.00226971,0.0686192,0.00779952,0.0151736,1224,1765,9.35829,-58.8395
7,-741,9.31067,58.9701,0.0115202,0.00316327,-0.000542383,0.0115552,0.00312822,-0.0645416,0.00690126,0.0169008,1231,1765,9.31062,-58.9701
14,-741,9.26001,59.1195,0.0103104,0.00401356,-0.0017225,0.0107508,0.00357317,-0.250307,0.00632218,0.0164947,1238,1765,9.26002,-59.1196
21,-741,9.20898,59.2264,0.008933,0.00480679,-0.00283398,0.0103753,0.0033645,-0.470766,0.00611225,0.0138896,1245,1765,9.20893,-59.2265
28,-741,9.1759,59.337,0.00764963,0.00515572,-0.00357605,0.0101899,0.00261546,-0.617642,0.00611095,0.0144813,1252,1765,9.17585,-59.3371
35,-741,9.17773,59.4,0.00633888,0.00506855,-0.00399964,0.00975348,0.00165396,-0.706653,0.00602713,0.01591,1259,1765,9.17777,-59.4
42,-741,9.16565,59.4426,0.00432628,0.00459196,-0.00454065,0.00900172,-8.3474e-05,-0.800022,0.00602916,0.0155803,1266,1765,9.16564,-59.4426
49,-741,9.12964,59.4781,0.0027018,0.00404409,-0.00465711,0.00807816,-0.00133227,-0.856962,0.00588006,0.0107359,1273,1765,9.12963,-59.4782
56,-741,9.09412,59.5055,0.00161415,0.00324081,-0.00450279,0.00700314,-0.00214817,-0.874749,0.0055258,0.0108719,1280,1765,9.0941,-59.5055
63,-741,9.06641,59.489,0.000494648,0.00222447,-0.00410099,0.00555076,-0.00283164,-0.889327,0.00492372,0.014572,1287,1765,9.06643,-59.489
70,-741,9.03528,59.495,-0.000373117,0.000996838,-0.00335413,0.00373522,-0.00311149,-0.886123,0.00395841,0.0165933,1294,1765,9.03531,-59.495
77,-741,9.00562,59.5078,-0.0010763,-0.000145731,-0.00273414,0.00216243,-0.00338446,-0.869678,0.00322831,0.0142841,1301,1765,9.00561,-59.5079
84,-741,8.98218,59.4581,-0.00174753,-0.000960101,-0.00227369,0.000953705,-0.00366134,-0.871129,0.00281321,0.0167206,1308,1765,8.98219,-59.4581
91,-741,8.95703,59.3903,-0.00181336,-0.002018,-0.00157288,-0.000339475,-0.00349188,-0.752918,0.00222342,0.0143673,1315,1765,8.95707,-59.3903
98,-741,8.92883,59.3044,-0.00174866,-0.00234321,-0.00131432,-0.000698411,-0.00339345,-0.674178,0.00206917,0.0108387,1322,1765,8.92886,-59.3045
105,-741,8.92505,59.1722,-0.00182637,-0.00245066,-0.000984252,-0.00110595,-0.00317108,-0.631847,0.00185853,0.0109755,1329,1765,8.92502,-59.1722
112,-741,8.94067,59.0594,-0.00173107,-0.0023221,-0.000795397,-0.00117806,-0.0028751,-0.607535,0.00166893,0.011871,1336,1765,8.94063,-59.0595
119,-741,8.87195,58.9238,-0.00164258,-0.00210045,-0.000623522,-0.00120729,-0.00253574,-0.609456,0.00146457,0.0153661,1343,1765,8.872,-58.9238
126,-741,8.8385,58.7704,-0.00147259,-0.00194044,-0.000376591,-0.00126319,-0.00214984,-0.507483,0.00124754,0.0203099,1350,1765,8.83845,-58.7704
133,-741,8.80273,58.6475,-0.00160037,-0.00161979,-0.000312882,-0.00129705,-0.00192312,-0.769888,0.00113261,0.0160972,1357,1765,8.80268,-58.6475
140,-741,8.75989,58.4934,-0.00178079,-0.00132714,-0.000348679,-0.001138,-0.00196993,-1.07377,0.00114191,0.012913,1364,1765,8.75992,-58.4934
147,-741,8.72632,58.3071,-0.00170715,-0.00111349,-0.000437025,-0.000882025,-0.00193862,-1.08371,0.00112077,0.0114291,1371,1765,8.72635,-58.3071
154,-741,8.68726,58.1423,-0.00166218,-0.000863119,-0.000460587,-0.000652923,-0.00187237,-1.14266,0.00109739,0.00952973,1378,1765,8.68722,-58.1423
161,-741,8.65759,57.9319,-0.00202898,-0.000889376,-0.000709738,-0.000549011,-0.00236934,-1.12363,0.00143208,0.0115031,1385,1765,8.65756,-57.9319
168,-741,8.61182,57.717,-0.0024718,-0.000854387,-0.000997221,-0.000379172,-0.00294702,-1.12609,0.00185128,0.0255458,1392,1765,8.61178,-57.7171
175,-741,8.55664,57.5306,0,0,0,0,0,0,0,-1,1399,1765,8.55662,-57.5306
182,-741,8.56726,57.1799,0,0,0,0,0,0,0,-1,1406,1765,8.56724,-57.18
189,-741,8.48291,56.9358,0,0,0,0,0,0,0,-1,1413,1765,8.48289,-56.9358
196,-741,8.43896,56.657,0,0,0,0,0,0,0,-1,1420,1765,8.43893,-56.657
203,-741,8.44482,56.2336,0,0,0,0,0,0,0,-1,1427,1765,8.44484,-56.2336
210,-741,8.36499,55.6813,0,0,0,0,0,0,0,-1,1434,1765,8.36495,-55.6812
217,-741,8.4032,40.1213,0,0,0,0,0,0,0,-1,1441,1765,8.40325,-40.1214
224,-741,8.0719,38.4249,0,0,0,0,0,0,0,-1,1448,1765,8.07187,-38.4249
231,-741,7.95923,39.0671,0,0,0,0,0,0,0,-1,1455,1765,7.9592,-39.0671
238,-741,7.96619,42.4865,0,0,0,0,0,0,0,-1,1462,1765,7.96621,-42.4864
245,-741,8.53577,45.7744,0,0,0,0,0,0,0,-1,1469,1765,8.53581,-45.7744
252,-741,8.59167,47.473,0,0,0,0,0,0,0,-1,1476,1765,8.59162,-47.473
259,-741,8.47412,48.5269,0,0,0,0,0,0,0,-1,1483,1765,8.47412,-48.5269
266,-741,8.50134,48.3838,0,0,0,0,0,0,0,-1,1490,1765,8.50132,-48.3838
273,-741,8.81421,49.1227,0,0,0,0,0,0,0,-1,1497,1765,8.81426,-49.1227
280,-741,7.33093,51.4729,0,0,0,0,0,0,0,-1,1504,1765,7.33092,-51.4729
287,-741,7.52783,49.7068,0,0,0,0,0,0,0,-1,1511,1765,7.52783,-49.7068
294,-741,5.91187,43.7742,0,0,0,0,0,0,0,-1,1518,1765,5.91188,-43.7742
301,-741,6.20667,38.5165,0,0,0,0,0,0,0,-1,1525,1765,6.20667,-38.5165
308,-741,7.99036,42.5969,0,0,0,0,0,0,0,-1,1532,1765,7.99037,-42.5969
315,-741,7.83838,41.6693,0,0,0,0,0,0,0,-1,1539,1765,7.83835,-41.6694
322,-741,7.68628,40.7418,0,0,0,0,0,0,0,-1,1546,1765,7.68633,-40.7418
329,-741,4.74414,17.928,0,0,0,0,0,0,0,-1,1553,1765,4.74414,-17.928
336,-741,5.74304,22.0945,0,0,0,0,0,0,0,-1,1560,1765,5.74306,-22.0945
343,-741,7.09888,26.501,0,0,0,0,0,0,0,-1,1567,1765,7.09885,-26.501
350,-741,4.90369,5.44666,0,0,0,0,0,0,0,-1,1574,1765,4.90368,-5.44664
357,-741,4.02063,5.16626,0,0,0,0,0,0,0,-1,1581,1765,4.02058,-5.1662
364,-741,0,0,0,0,0,0,0,0,0,-1,1588,1765,0,0
371,-741,0,0,0,0,0,0,0,0,0,-1,1595,1765,0,0
378,-741,0,0,0,0,0,0,0,0,0,-1,1602,1765,0,0
385,-741,0,0,0,0,0,0,0,0,0,-1,1609,1765,0,0
392,-741,0,0,0,0,0,0,0,0,0,-1,1616,1765,0,0
399,-741,0,0,0,0,0,0,0,0,0,-1,1623,1765,0,0
406,-741,0,0,0,0,0,0,0,0,0,-1,1630,1765,0,0
413,-741,0,0,0,0,0,0,0,0,0,-1,1637,1765,0,0
420,-741,0,0,0,0,0,0,0,0,0,-1,1644,1765,0,0
427,-741,0,0,0,0,0,0,0,0,0,-1,1651,1765,0,0
434,-741,0,0,0,0,0,0,0,0,0,-1,1658,1765,0,0
441,-741,0,0,0,0,0,0,0,0,0,-1,1665,1765,0,0
448,-741,0,0,0,0,0,0,0,0,0,-1,1672,1765,0,0
455,-741,0,0,0,0,0,0,0,0,0,-1,1679,1765,0,0
462,-741,0,0,0,0,0,0,0,0,0,-1,1686,1765,0,0
469,-741,0,0,0,0,0,0,0,0,0,-1,1693,1765,0,0
476,-741,0,0,0,0,0,0,0,0,0,-1,1700,1765,0,0
483,-741,0,0,0,0,0,0,0,0,0,-1,1707,1765,0,0
490,-741,0,0,0,0,0,0,0,0,0,-1,1714,1765,0,0
497,-741,0,0,0,0,0,0,0,0,0,-1,1721,1765,0,0
504,-741,0,0,0,0,0,0,0,0,0,-1,1728,1765,0,0
511,-741,0,0,0,0,0,0,0,0,0,-1,1735,1765,0,0
518,-741,0,0,0,0,0,0,0,0,0,-1,1742,1765,0,0
525,-741,0,0,0,0,0,0,0,0,0,-1,1749,1765,0,0
532,-741,0,0,0,0,0,0,0,0,0,-1,1756,1765,0,0
539,-741,0,0,0,0,0,0,0,0,0,-1,1763,1765,0,0
546,-741,0,0,0,0,0,0,0,0,0,-1,1770,1765,0,0
553,-741,0,0,0,0,0,0,0,0,0,-1,1777,1765,0,0
560,-741,0,0,0,0,0,0,0,0,0,-1,1784,1765,0,0
567,-741,0,0,0,0,0,0,0,0,0,-1,1791,1765,0,0
574,-741,0,0,0,0,0,0,0,0,0,-1,1798,1765,0,0
581,-741,0,0,0,0,0,0,0,0,0,-1,1805,1765,0,0
588,-741,0,0,0,0,0,0,0,0,0,-1,1812,1765,0,0
595,-741,0,0,0,0,0,0,0,0,0,-1,1819,1765,0,0
602,-741,0,0,0,0,0,0,0,0,0,-1,1826,1765,0,0
609,-741,0,0,0,0,0,0,0,0,0,-1,1833,1765,0,0
616,-741,0,0,0,0,0,0,0,0,0,-1,1840,1765,0,0
623,-741,0,0,0,0,0,0,0,0,0,-1,1847,1765,0,0
630,-741,0,0,0,0,0,0,0,0,0,-1,1854,1765,0,0
637,-741,0,0,0,0,0,0,0,0,0,-1,1861,1765,0,0
644,-741,0,0,0,0,0,0,0,0,0,-1,1868,1765,0,0
651,-741,0,0,0,0,0,0,0,0,0,-1,1875,1765,0,0
658,-741,0,0,0,0,0,0,0,0,0,-1,1882,1765,0,0
665,-741,0,0,0,0,0,0,0,0,0,-1,1889,1765,0,0
672,-741,0,0,0,0,0,0,0,0,0,-1,1896,1765,0,0
679,-741,0,0,0,0,0,0,0,0,0,-1,1903,1765,0,0
686,-741,0,0,0,0,0,0,0,0,0,-1,1910,1765,0,0
693,-741,0,0,0,0,0,0,0,0,0,-1,1917,1765,0,0
700,-741,0,0,0,0,0,0,0,0,0,-1,1924,1765,0,0
707,-741,0,0,0,0,0,0,0,0,0,-1,1931,1765,0,0
714,-741,0,0,0,0,0,0,0,0,0,-1,1938,1765,0,0
721,-741,0,0,0,0,0,0,0,0,0,-1,1945,1765,0,0
728,-741,0,0,0,0,0,0,0,0,0,-1,1952,1765,0,0
735,-741,0,0,0,0,0,0,0,0,0,-1,1959,1765,0,0
742,-741,0,0,0,0,0,0,0,0,0,-1,1966,1765,0,0
749,-741,0,0,0,0,0,0,0,0,0,-1,1973,1765,0,0
756,-741,0,0,0,0,0,0,0,0,0,-1,1980,1765,0,0
763,-741,0,0,0,0,0,0,0,0,0,-1,1987,1765,0,0
770,-741,0,0,0,0,0,0,0,0,0,-1,1994,1765,0,0
777,-741,0,0,0,0,0,0,0,0,0,-1,2001,1765,0,0
784,-741,0,0,0,0,0,0,0,0,0,-1,2008,1765,0,0
791,-741,0,0,0,0,0,0,0,0,0,-1,2015,1765,0,0
798,-741,0,0,0,0,0,0,0,0,0,-1,2022,1765,0,0
805,-741,0,0,0,0,0,0,0,0,0,-1,2029,1765,0,0
812,-741,0,0,0,0,0,0,0,0,0,-1,2036,1765,0,0
-700,-748,0,0,0,0,0,0,0,0,0,-1,524,1772,0,0
-693,-748,0,0,0,0,0,0,0,0,0,-1,531,1772,0,0
-686,-748,0,0,0,0,0,0,0,0,0,-1,538,1772,0,0
-679,-748,0,0,0,0,0,0,0,0,0,-1,545,1772,0,0
-672,-748,0,0,0,0,0,0,0,0,0,-1,552,1772,0,0
-665,-748,0,0,0,0,0,0,0,0,0,-1,559,1772,0,0
-658,-748,0,0,0,0,0,0,0,0,0,-1,566,1772,0,0
-651,-748,0,0,0,0,0,0,0,0,0,-1,573,1772,0,0
-644,-748,0,0,0,0,0,0,0,0,0,-1,580,1772,0,0
-637,-748,0,0,0,0,0,0,0,0,0,-1,587,1772,0,0
-630,-748,0,0,0,0,0,0,0,0,0,-1,594,1772,0,0
-623,-748,0,0,0,0,0,0,0,0,0,-1,601,1772,0,0
-616,-748,0,0,0,0,0,0,0,0,0,-1,608,1772,0,0
-609,-748,0,0,0,0,0,0,0,0,0,-1,615,1772,0,0
-602,-748,0,0,0,0,0,0,0,0,0,-1,622,1772,0,0
-595,-748,0,0,0,0,0,0,0,0,0,-1,629,1772,0,0
-588,-748,0,0,0,0,0,0,0,0,0,-1,636,1772,0,0
-581,-748,0,0,0,0,0,0,0,0,0,-1,643,1772,0,0
-574,-748,0,0,0,0,0,0,0,0,0,-1,650,1772,0,0
-567,-748,0,0,0,0,0,0,0,0,0,-1,657,1772,0,0
-560,-748,0,0,0,0,0,0,0,0,0,-1,664,1772,0,0
-553,-748,0,0,0,0,0,0,0,0,0,-1,671,1772,0,0
-546,-748,0,0,0,0,0,0,0,0,0,-1,678,1772,0,0
-539,-748,0,0,0,0,0,0,0,0,0,-1,685,1772,0,0
-532,-748,0,0,0,0,0,0,0,0,0,-1,692,1772,0,0
-525,-748,0,0,0,0,0,0,0,0,0,-1,699,1772,0,0
-518,-748,0,0,0,0,0,0,0,0,0,-1,706,1772,0,0
-511,-748,0,0,0,0,0,0,0,0,0,-1,713,1772,0,0
-504,-748,0,0,0,0,0,0,0,0,0,-1,720,1772,0,0
-497,-748,0,0,0,0,0,0,0,0,0,-1,727,1772,0,0
-490,-748,0,0,0,0,0,0,0,0,0,-1,734,1772,0,0
-483,-748,0,0,0,0,0,0,0,0,0,-1,741,1772,0,0
-476,-748,0,0,0,0,0,0,0,0,0,-1,748,1772,0,0
-469,-748,0,0,0,0,0,0,0,0,0,-1,755,1772,0,0
-462,-748,0,0,0,0,0,0,0,0,0,-1,762,1772,0,0
-455,-748,0,0,0,0,0,0,0,0,0,-1,769,1772,0,0
-448,-748,0,0,0,0,0,0,0,0,0,-1,776,1772,0,0
-441,-748,0,0,0,0,0,0,0,0,0,-1,783,1772,0,0
-434,-748,0,0,0,0,0,0,0,0,0,-1,790,1772,0,0
-427,-748,0,0,0,0,0,0,0,0,0,-1,797,1772,0,0
-420,-748,0,0,0,0,0,0,0,0,0,-1,804,1772,0,0
-413,-748,0,0,0,0,0,0,0,0,0,-1,811,1772,0,0
-406,-748,0,0,0,0,0,0,0,0,0,-1,818,1772,0,0
-399,-748,0,0,0,0,0,0,0,0,0,-1,825,1772,0,0
-392,-748,0,0,0,0,0,0,0,0,0,-1,832,1772,0,0
-385,-748,0,0,0,0,0,0,0,0,0,-1,839,1772,0,0
-378,-748,0,0,0,0,0,0,0,0,0,-1,846,1772,0,0
-371,-748,0,0,0,0,0,0,0,0,0,-1,853,1772,0,0
-364,-748,0,0,0,0,0,0,0,0,0,-1,860,1772,0,0
-357,-748,0,0,0,0,0,0,0,0,0,-1,867,1772,0,0
-350,-748,0,0,0,0,0,0,0,0,0,-1,874,1772,0,0
-343,-748,0,0,0,0,0,0,0,0,0,-1,881,1772,0,0
-336,-748,0,0,0,0,0,0,0,0,0,-1,888,1772,0,0
-329,-748,0,0,0,0,0,0,0,0,0,-1,895,1772,0,0
-322,-748,0,0,0,0,0,0,0,0,0,-1,902,1772,0,0
-315,-748,0,0,0,0,0,0,0,0,0,-1,909,1772,0,0
-308,-748,0,0,0,0,0,0,0,0,0,-1,916,1772,0,0
-301,-748,0,0,0,0,0,0,0,0,0,-1,923,1772,0,0
-294,-748,0,0,0,0,0,0,0,0,0,-1,930,1772,0,0
-287,-748,0,0,0,0,0,0,0,0,0,-1,937,1772,0,0
-280,-748,0,0,0,0,0,0,0,0,0,-1,944,1772,0,0
-273,-748,0,0,0,0,0,0,0,0,0,-1,951,1772,0,0
-266,-748,0,0,0,0,0,0,0,0,0,-1,958,1772,0,0
-259,-748,0,0,0,0,0,0,0,0,0,-1,965,1772,0,0
-252,-748,0,0,0,0,0,0,0,0,0,-1,972,1772,0,0
-245,-748,0,0,0,0,0,0,0,0,0,-1,979,1772,0,0
-238,-748,0,0,0,0,0,0,0,0,0,-1,986,1772,0,0
-231,-748,0,0,0,0,0,0,0,0,0,-1,993,1772,0,0
-224,-748,0,0,0,0,0,0,0,0,0,-1,1000,1772,0,0
-217,-748,8.97742,29.9884,0,0,0,0,0,0,0,-1,1007,1772,8.97744,-29.9884
-210,-748,8.8941,30.14,0,0,0,0,0,0,0,-1,1014,1772,8.8941,-30.14
-203,-748,7.88,43.3942,0,0,0,0,0,0,0,-1,1021,1772,7.87999,-43.3941
-196,-748,7.95483,43.9952,0,0,0,0,0,0,0,-1,1028,1772,7.95478,-43.9953
-189,-748,8.18359,44.5873,0,0,0,0,0,0,0,-1,1035,1772,8.18358,-44.5873
-182,-748,8.49304,45.5183,0,0,0,0,0,0,0,-1,1042,1772,8.49308,-45.5183
-175,-748,10.4392,50.6167,0,0,0,0,0,0,0,-1,1049,1772,10.4392,-50.6167
-168,-748,9.54541,50.6587,0,0,0,0,0,0,0,-1,1056,1772,9.54547,-50.6586
-161,-748,10.7574,47.7889,0,0,0,0,0,0,0,-1,1063,1772,10.7574,-47.7889
-154,-748,11.4552,48.7113,0,0,0,0,0,0,0,-1,1070,1772,11.4552,-48.7113
-147,-748,11.7789,49.4792,0,0,0,0,0,0,0,-1,1077,1772,11.7789,-49.4793
-140,-748,10.4108,44.9001,0,0,0,0,0,0,0,-1,1084,1772,10.4107,-44.9001
-133,-748,7.44727,22.0308,0,0,0,0,0,0,0,-1,1091,1772,7.44728,-22.0308
-126,-748,5.98035,22.6067,0,0,0,0,0,0,0,-1,1098,1772,5.9803,-22.6067
-119,-748,6.63342,26.309,0,0,0,0,0,0,0,-1,1105,1772,6.6334,-26.3089
-112,-748,6.91333,24.923,0,0,0,0,0,0,0,-1,1112,1772,6.91339,-24.923
-105,-748,6.83313,25.0537,0,0,0,0,0,0,0,-1,1119,1772,6.83311,-25.0537
-98,-748,8.13623,30.8743,0,0,0,0,0,0,0,-1,1126,1772,8.13628,-30.8742
-91,-748,4.85352,15.3033,0,0,0,0,0,0,0,-1,1133,1772,4.85351,-15.3033
-84,-748,-0.192017,7.26196,0,0,0,0,0,0,0,-1,1140,1772,-0.192047,-7.26201
-77,-748,4.42615,13.5537,0,0,0,0,0,0,0,-1,1147,1772,4.4261,-13.5538
-70,-748,4.46191,13.7446,0,0,0,0,0,0,0,-1,1154,1772,4.4619,-13.7446
-63,-748,4.49768,13.9355,0,0,0,0,0,0,0,-1,1161,1772,4.49769,-13.9355
-56,-748,3.05762,7.87817,0,0,0,0,0,0,0,-1,1168,1772,3.05768,-7.87822
-49,-748,3.04102,7.82471,0,0,0,0,0,0,0,-1,1175,1772,3.04096,-7.82468
-42,-748,0.793457,14.9474,0,0,0,0,0,0,0,-1,1182,1772,0.793413,-14.9474
-35,-748,9.75122,57.9617,0,0,0,0,0,0,0,-1,1189,1772,9.75122,-57.9617
-28,-748,9.67969,58.2158,0.0253582,0.00141573,0.00861372,0.0281351,-0.00136114,0.311858,0.0192265,0.048945,1196,1772,9.67973,-58.2159
-21,-748,9.60083,58.4189,0.0244161,0.00153951,0.00671952,0.0262438,-0.000288189,0.265573,0.0175927,0.023737,1203,1772,9.60087,-58.4189
-14,-748,9.54504,58.5419,0.0220785,0.00361287,0.00441169,0.0230784,0.002613,0.222876,0.0145928,0.0178574,1210,1772,9.54505,-58.5419
-7,-748,9.5387,58.6957,0.0197638,0.00470933,0.00229308,0.0201053,0.0043678,0.147853,0.0122109,0.0173792,1217,1772,9.53868,-58.6957
0,-748,9.46765,58.8116,0.0174531,0.00631841,0.000133707,0.0174547,0.0063168,0.0120058,0.0102048,0.0166967,1224,1772,9.46771,-58.8117
7,-748,9.40381,58.9127,0.0150853,0.0080671,-0.00179396,0.0155173,0.00763513,-0.236294,0.0089593,0.0156545,1231,1772,9.40385,-58.9127
14,-748,9.35352,59.0812,0.0126971,0.0098303,-0.00355294,0.0150949,0.00743252,-0.593661,0.0087154,0.017477,1238,1772,9.35354,-59.0811
21,-748,9.31616,59.2111,0.0102165,0.0113699,-0.00513049,0.015956,0.00563042,-0.841366,0.00934422,0.0131346,1245,1772,9.31614,-59.2111
28,-748,9.25415,59.323,0.00798444,0.0116452,-0.00615542,0.0162366,0.00339301,-0.929914,0.00988936,0.0132583,1252,1772,9.25411,-59.323
35,-748,9.21497,59.3754,0.00591801,0.0110118,-0.00666843,0.0156031,0.00132664,-0.967815,0.00998928,0.0138173,1259,1772,9.215,-59.3754
42,-748,9.18518,59.4203,0.00298611,0.00971655,-0.00733342,0.01442,-0.00171736,-1.00051,0.0102339,0.0140508,1266,1772,9.18517,-59.4202
49,-748,9.15576,59.4431,0.000723329,0.00808953,-0.00741275,0.0126838,-0.00387089,-1.01596,0.00999909,0.0111344,1273,1772,9.15572,-59.4431
56,-748,9.09619,59.491,-0.000718507,0.00604668,-0.0071604,0.0105833,-0.00525509,-1.00606,0.00931515,0.0114074,1280,1772,9.09617,-59.4909
63,-748,9.04211,59.4834,-0.00208752,0.00346041,-0.00655038,0.00779998,-0.00642709,-0.98569,0.00822674,0.012697,1287,1772,9.04212,-59.4834
70,-748,9.00781,59.4816,-0.00305105,0.000492305,-0.00537636,0.00438138,-0.00694013,-0.944561,0.00659189,0.0148545,1294,1772,9.00781,-59.4815
77,-748,8.97559,59.4725,-0.00381444,-0.00207853,-0.00442225,0.00156014,-0.00745311,-0.882301,0.0055622,0.0141354,1301,1772,8.97561,-59.4726
84,-748,8.92737,59.4501,-0.00446078,-0.00388298,-0.00376315,-0.000397657,-0.00794611,-0.823708,0.00516995,0.0157773,1308,1772,8.92739,-59.4501
91,-748,8.88708,59.4009,-0.00395382,-0.00613275,-0.00284555,-0.0019963,-0.00809027,-0.602573,0.00486653,0.0127941,1315,1772,8.88707,-59.4008
98,-748,8.84473,59.3029,-0.00359325,-0.00667418,-0.00246053,-0.00223074,-0.00803669,-0.505714,0.00479058,0.0116752,1322,1772,8.84471,-59.3029
105,-748,8.82983,59.1583,-0.00362039,-0.0067537,-0.00190144,-0.00272333,-0.00765076,-0.440817,0.00447785,0.012224,1329,1772,8.82986,-59.1583
112,-748,8.81177,59.0405,-0.00334908,-0.00615701,-0.00159935,-0.00262489,-0.00688119,-0.425181,0.0040099,0.0154659,1336,1772,8.81174,-59.0405
119,-748,8.75159,58.9352,-0.00303266,-0.00538004,-0.00130946,-0.00244787,-0.00596483,-0.420012,0.00346218,0.014766,1343,1772,8.75162,-58.9352
126,-748,8.69165,58.8052,-0.00258358,-0.00471432,-0.000911907,-0.0022466,-0.0050513,-0.35397,0.0029223,0.0165749,1350,1772,8.6917,-58.8052
133,-748,8.63989,58.6628,-0.00250262,-0.00362364,-0.000658767,-0.00219817,-0.00392809,-0.432904,0.00227325,0.0100144,1357,1772,8.63983,-58.6629
140,-748,8.59753,58.4948,-0.0024403,-0.00270678,-0.000622288,-0.00193715,-0.00320993,-0.679933,0.00186644,0.0135459,1364,1772,8.59755,-58.4948
147,-748,8.58997,58.3058,-0.00198386,-0.00210934,-0.000662667,-0.00138097,-0.00271223,-0.7382,0.00156599,0.01529,1371,1772,8.58997,-58.3058
154,-748,8.50818,58.12,-0.00156712,-0.00161527,-0.000522337,-0.0010683,-0.00211409,-0.762366,0.00122059,0.0131767,1378,1772,8.50819,-58.12
161,-748,8.44055,57.9535,-0.00194538,-0.00183524,-0.000815162,-0.00107329,-0.00270733,-0.819125,0.00157421,0.0198992,1385,1772,8.44059,-57.9535
168,-748,8.44299,57.762,0,0,0,0,0,0,0,-1,1392,1772,8.44304,-57.7619
175,-748,11.6235,16.8242,0,0,0,0,0,0,0,-1,1399,1772,11.6236,-16.8242
182,-748,7.62476,10.3058,0,0,0,0,0,0,0,-1,1406,1772,7.62476,-10.3058
189,-748,6.15857,6.95898,0,0,0,0,0,0,0,-1,1413,1772,6.15862,-6.95896
196,-748,3.9425,8.46021,0,0,0,0,0,0,0,-1,1420,1772,3.9425,-8.46026
203,-748,3.9668,12.9835,0,0,0,0,0,0,0,-1,1427,1772,3.96678,-12.9836
210,-748,4.71472,16.8318,0,0,0,0,0,0,0,-1,1434,1772,4.71471,-16.8317
217,-748,5.38452,21.5551,0,0,0,0,0,0,0,-1,1441,1772,5.38455,-21.555
224,-748,6.14258,25.2345,0,0,0,0,0,0,0,-1,1448,1772,6.14263,-25.2345
231,-748,6.46045,29.7867,0,0,0,0,0,0,0,-1,1455,1772,6.46049,-29.7867
238,-748,7.41565,32.8574,0,0,0,0,0,0,0,-1,1462,1772,7.41562,-32.8574
245,-748,7.84912,32.0914,0,0,0,0,0,0,0,-1,1469,1772,7.84914,-32.0914
252,-748,7.57336,29.4369,0,0,0,0,0,0,0,-1,1476,1772,7.57337,-29.4369
259,-748,9.47351,46.1896,0,0,0,0,0,0,0,-1,1483,1772,9.4735,-46.1895
266,-748,8.36536,48.6908,0,0,0,0,0,0,0,-1,1490,1772,8.36541,-48.6909
273,-748,7.31421,46.6743,0,0,0,0,0,0,0,-1,1497,1772,7.31415,-46.6743
280,-748,8.76538,40.4501,0,0,0,0,0,0,0,-1,1504,1772,8.76537,-40.45
287,-748,14.161,8.32813,0,0,0,0,0,0,0,-1,1511,1772,14.161,-8.32808
294,-748,6.38525,32.4724,0,0,0,0,0,0,0,-1,1518,1772,6.38521,-32.4725
301,-748,5.40393,38.9807,0,0,0,0,0,0,0,-1,1525,1772,5.40397,-38.9807
308,-748,5.95227,37.1827,0,0,0,0,0,0,0,-1,1532,1772,5.95229,-37.1827
315,-748,7.71741,42.637,0,0,0,0,0,0,0,-1,1539,1772,7.71738,-42.637
322,-748,4.26538,29.0557,0,0,0,0,0,0,0,-1,1546,1772,4.26537,-29.0556
329,-748,3.87256,16.1473,0,0,0,0,0,0,0,-1,1553,1772,3.87259,-16.1474
336,-748,4.81006,19.6141,0,0,0,0,0,0,0,-1,1560,1772,4.81011,-19.6141
343,-748,0,0,0,0,0,0,0,0,0,-1,1567,1772,0,0
350,-748,0,0,0,0,0,0,0,0,0,-1,1574,1772,0,0
357,-748,0,0,0,0,0,0,0,0,0,-1,1581,1772,0,0
364,-748,0,0,0,0,0,0,0,0,0,-1,1588,1772,0,0
371,-748,0,0,0,0,0,0,0,0,0,-1,1595,1772,0,0
378,-748,0,0,0,0,0,0,0,0,0,-1,1602,1772,0,0
385,-748,0,0,0,0,0,0,0,0,0,-1,1609,1772,0,0
392,-748,0,0,0,0,0,0,0,0,0,-1,1616,1772,0,0
399,-748,0,0,0,0,0,0,0,0,0,-1,1623,1772,0,0
406,-748,0,0,0,0,0,0,0,0,0,-1,1630,1772,0,0
413,-748,0,0,0,0,0,0,0,0,0,-1,1637,1772,0,0
420,-748,0,0,0,0,0,0,0,0,0,-1,1644,1772,0,0
427,-748,0,0,0,0,0,0,0,0,0,-1,1651,1772,0,0
434,-748,0,0,0,0,0,0,0,0,0,-1,1658,1772,0,0
441,-748,0,0,0,0,0,0,0,0,0,-1,1665,1772,0,0
448,-748,0,0,0,0,0,0,0,0,0,-1,1672,1772,0,0
455,-748,0,0,0,0,0,0,0,0,0,-1,1679,1772,0,0
462,-748,0,0,0,0,0,0,0,0,0,-1,1686,1772,0,0
469,-748,0,0,0,0,0,0,0,0,0,-1,1693,1772,0,0
476,-748,0,0,0,0,0,0,0,0,0,-1,1700,1772,0,0
483,-748,0,0,0,0,0,0,0,0,0,-1,1707,1772,0,0
490,-748,0,0,0,0,0,0,0,0,0,-1,1714,1772,0,0
497,-748,0,0,0,0,0,0,0,0,0,-1,1721,1772,0,0
504,-748,0,0,0,0,0,0,0,0,0,-1,1728,1772,0,0
511,-748,0,0,0,0,0,0,0,0,0,-1,1735,1772,0,0
518,-748,0,0,0,0,0,0,0,0,0,-1,1742,1772,0,0
525,-748,0,0,0,0,0,0,0,0,0,-1,1749,1772,0,0
532,-748,0,0,0,0,0,0,0,0,0,-1,1756,1772,0,0
539,-748,0,0,0,0,0,0,0,0,0,-1,1763,1772,0,0
546,-748,0,0,0,0,0,0,0,0,0,-1,1770,1772,0,0
553,-748,0,0,0,0,0,0,0,0,0,-1,1777,1772,0,0
560,-748,0,0,0,0,0,0,0,0,0,-1,1784,1772,0,0
567,-748,0,0,0,0,0,0,0,0,0,-1,1791,1772,0,0
574,-748,0,0,0,0,0,0,0,0,0,-1,1798,1772,0,0
581,-748,0,0,0,0,0,0,0,0,0,-1,1805,1772,0,0
588,-748,0,0,0,0,0,0,0,0,0,-1,1812,1772,0,0
595,-748,0,0,0,0,0,0,0,0,0,-1,1819,1772,0,0
602,-748,0,0,0,0,0,0,0,0,0,-1,1826,1772,0,0
609,-748,0,0,0,0,0,0,0,0,0,-1,1833,1772,0,0
616,-748,0,0,0,0,0,0,0,0,0,-1,1840,1772,0,0
623,-748,0,0,0,0,0,0,0,0,0,-1,1847,1772,0,0
630,-748,0,0,0,0,0,0,0,0,0,-1,1854,1772,0,0
637,-748,0,0,0,0,0,0,0,0,0,-1,1861,1772,0,0
644,-748,0,0,0,0,0,0,0,0,0,-1,1868,1772,0,0
651,-748,0,0,0,0,0,0,0,0,0,-1,1875,1772,0,0
658,-748,0,0,0,0,0,0,0,0,0,-1,1882,1772,0,0
665,-748,0,0,0,0,0,0,0,0,0,-1,1889,1772,0,0
672,-748,0,0,0,0,0,0,0,0,0,-1,1896,1772,0,0
679,-748,0,0,0,0,0,0,0,0,0,-1,1903,1772,0,0
686,-748,0,0,0,0,0,0,0,0,0,-1,1910,1772,0,0
693,-748,0,0,0,0,0,0,0,0,0,-1,1917,1772,0,0
700,-748,0,0,0,0,0,0,0,0,0,-1,1924,1772,0,0
707,-748,0,0,0,0,0,0,0,0,0,-1,1931,1772,0,0
714,-748,0,0,0,0,0,0,0,0,0,-1,1938,1772,0,0
721,-748,0,0,0,0,0,0,0,0,0,-1,1945,1772,0,0
728,-748,0,0,0,0,0,0,0,0,0,-1,1952,1772,0,0
735,-748,0,0,0,0,0,0,0,0,0,-1,1959,1772,0,0
742,-748,0,0,0,0,0,0,0,0,0,-1,1966,1772,0,0
749,-748,0,0,0,0,0,0,0,0,0,-1,1973,1772,0,0
756,-748,0,0,0,0,0,0,0,0,0,-1,1980,1772,0,0
763,-748,0,0,0,0,0,0,0,0,0,-1,1987,1772,0,0
770,-748,0,0,0,0,0,0,0,0,0,-1,1994,1772,0,0
777,-748,0,0,0,0,0,0,0,0,0,-1,2001,1772,0,0
784,-748,0,0,0,0,0,0,0,0,0,-1,2008,1772,0,0
791,-748,0,0,0,0,0,0,0,0,0,-1,2015,1772,0,0
798,-748,0,0,0,0,0,0,0,0,0,-1,2022,1772,0,0
805,-748,0,0,0,0,0,0,0,0,0,-1,2029,1772,0,0
812,-748,0,0,0,0,0,0,0,0,0,-1,2036,1772,0,0
-700,-755,0,0,0,0,0,0,0,0,0,-1,524,1779,0,0
-693,-755,0,0,0,0,0,0,0,0,0,-1,531,1779,0,0
-686,-755,0,0,0,0,0,0,0,0,0,-1,538,1779,0,0
-679,-755,0,0,0,0,0,0,0,0,0,-1,545,1779,0,0
-672,-755,0,0,0,0,0,0,0,0,0,-1,552,1779,0,0
-665,-755,0,0,0,0,0,0,0,0,0,-1,559,1779,0,0
-658,-755,0,0,0,0,0,0,0,0,0,-1,566,1779,0,0
-651,-755,0,0,0,0,0,0,0,0,0,-1,573,1779,0,0
-644,-755,0,0,0,0,0,0,0,0,0,-1,580,1779,0,0
-637,-755,0,0,0,0,0,0,0,0,0,-1,587,1779,0,0
-630,-755,0,0,0,0,0,0,0,0,0,-1,594,1779,0,0
-623,-755,0,0,0,0,0,0,0,0,0,-1,601,1779,0,0
-616,-755,0,0,0,0,0,0,0,0,0,-1,608,1779,0,0
-609,-755,0,0,0,0,0,0,0,0,0,-1,615,1779,0,0
-602,-755,0,0,0,0,0,0,0,0,0,-1,622,1779,0,0
-595,-755,0,0,0,0,0,0,0,0,0,-1,629,1779,0,0
-588,-755,0,0,0,0,0,0,0,0,0,-1,636,1779,0,0
-581,-755,0,0,0,0,0,0,0,0,0,-1,643,1779,0,0
-574,-755,0,0,0,0,0,0,0,0,0,-1,650,1779,0,0
-567,-755,0,0,0,0,0,0,0,0,0,-1,657,1779,0,0
-560,-755,0,0,0,0,0,0,0,0,0,-1,664,1779,0,0
-553,-755,0,0,0,0,0,0,0,0,0,-1,671,1779,0,0
-546,-755,0,0,0,0,0,0,0,0,0,-1,678,1779,0,0
-539,-755,0,0,0,0,0,0,0,0,0,-1,685,1779,0,0
-532,-755,0,0,0,0,0,0,0,0,0,-1,692,1779,0,0
-525,-755,0,0,0,0,0,0,0,0,0,-1,699,1779,0,0
-518,-755,0,0,0,0,0,0,0,0,0,-1,706,1779,0,0
-511,-755,0,0,0,0,0,0,0,0,0,-1,713,1779,0,0
-504,-755,0,0,0,0,0,0,0,0,0,-1,720,1779,0,0
-497,-755,0,0,0,0,0,0,0,0,0,-1,727,1779,0,0
-490,-755,0,0,0,0,0,0,0,0,0,-1,734,1779,0,0
-483,-755,0,0,0,0,0,0,0,0,0,-1,741,1779,0,0
-476,-755,0,0,0,0,0,0,0,0,0,-1,748,1779,0,0
-469,-755,0,0,0,0,0,0,0,0,0,-1,755,1779,0,0
-462,-755,0,0,0,0,0,0,0,0,0,-1,762,1779,0,0
-455,-755,0,0,0,0,0,0,0,0,0,-1,769,1779,0,0
-448,-755,0,0,0,0,0,0,0,0,0,-1,776,1779,0,0
-441,-755,0,0,0,0,0,0,0,0,0,-1,783,1779,0,0
-434,-755,0,0,0,0,0,0,0,0,0,-1,790,1779,0,0
-427,-755,0,0,0,0,0,0,0,0,0,-1,797,1779,0,0
-420,-755,0,0,0,0,0,0,0,0,0,-1,804,1779,0,0
-413,-755,0,0,0,0,0,0,0,0,0,-1,811,1779,0,0
-406,-755,0,0,0,0,0,0,0,0,0,-1,818,1779,0,0
-399,-755,0,0,0,0,0,0,0,0,0,-1,825,1779,0,0
-392,-755,0,0,0,0,0,0,0,0,0,-1,832,1779,0,0
-385,-755,0,0,0,0,0,0,0,0,0,-1,839,1779,0,0
-378,-755,0,0,0,0,0,0,0,0,0,-1,846,1779,0,0
-371,-755,0,0,0,0,0,0,0,0,0,-1,853,1779,0,0
-364,-755,0,0,0,0,0,0,0,0,0,-1,860,1779,0,0
-357,-755,0,0,0,0,0,0,0,0,0,-1,867,1779,0,0
-350,-755,0,0,0,0,0,0,0,0,0,-1,874,1779,0,0
-343,-755,0,0,0,0,0,0,0,0,0,-1,881,1779,0,0
-336,-755,0,0,0,0,0,0,0,0,0,-1,888,1779,0,0
-329,-755,0,0,0,0,0,0,0,0,0,-1,895,1779,0,0
-322,-755,0,0,0,0,0,0,0,0,0,-1,902,1779,0,0
-315,-755,0,0,0,0,0,0,0,0,0,-1,909,1779,0,0
-308,-755,0,0,0,0,0,0,0,0,0,-1,916,1779,0,0
-301,-755,0,0,0,0,0,0,0,0,0,-1,923,1779,0,0
-294,-755,0,0,0,0,0,0,0,0,0,-1,930,1779,0,0
-287,-755,0,0,0,0,0,0,0,0,0,-1,937,1779,0,0
-280,-755,0,0,0,0,0,0,0,0,0,-1,944,1779,0,0
-273,-755,0,0,0,0,0,0,0,0,0,-1,951,1779,0,0
-266,-755,0,0,0,0,0,0,0,0,0,-1,958,1779,0,0
-259,-755,0,0,0,0,0,0,0,0,0,-1,965,1779,0,0
-252,-755,0,0,0,0,0,0,0,0,0,-1,972,1779,0,0
-245,-755,0,0,0,0,0,0,0,0,0,-1,979,1779,0,0
-238,-755,0,0,0,0,0,0,0,0,0,-1,986,1779,0,0
-231,-755,0,0,0,0,0,0,0,0,0,-1,993,1779,0,0
-224,-755,0,0,0,0,0,0,0,0,0,-1,1000,1779,0,0
-217,-755,0,0,0,0,0,0,0,0,0,-1,1007,1779,0,0
-210,-755,0,0,0,0,0,0,0,0,0,-1,1014,1779,0,0
-203,-755,8.97363,30.5414,0,0,0,0,0,0,0,-1,1021,1779,8.97362,-30.5414
-196,-755,8.08667,43.2203,0,0,0,0,0,0,0,-1,1028,1779,8.08666,-43.2204
-189,-755,0.725098,39.8892,0,0,0,0,0,0,0,-1,1035,1779,0.725055,-39.8891
-182,-755,1.80835,40.9692,0,0,0,0,0,0,0,-1,1042,1779,1.80838,-40.9692
-175,-755,3.04749,41.9612,0,0,0,0,0,0,0,-1,1049,1779,3.0475,-41.9612
-168,-755,4.8302,42.7631,0,0,0,0,0,0,0,-1,1056,1779,4.8302,-42.7631
-161,-755,6.46777,44.0007,0,0,0,0,0,0,0,-1,1063,1779,6.46773,-44.0007
-154,-755,7.71094,44.9023,0,0,0,0,0,0,0,-1,1070,1779,7.71089,-44.9023
-147,-755,-6.45593,10.2422,0,0,0,0,0,0,0,-1,1077,1779,-6.45594,-10.2422
-140,-755,1.33521,21.3856,0,0,0,0,0,0,0,-1,1084,1779,1.33522,-21.3857
-133,-755,2.89417,21.0964,0,0,0,0,0,0,0,-1,1091,1779,2.89422,-21.0964
-126,-755,3.26404,20.9304,0,0,0,0,0,0,0,-1,1098,1779,3.26399,-20.9305
-119,-755,5.17761,21.9325,0,0,0,0,0,0,0,-1,1105,1779,5.17761,-21.9325
-112,-755,5.40247,24.5646,0,0,0,0,0,0,0,-1,1112,1779,5.40244,-24.5646
-105,-755,7.01294,20.1539,0,0,0,0,0,0,0,-1,1119,1779,7.01295,-20.154
-98,-755,5.50708,16.9628,0,0,0,0,0,0,0,-1,1126,1779,5.5071,-16.9628
-91,-755,5.51025,12.0438,0,0,0,0,0,0,0,-1,1133,1779,5.51022,-12.0439
-84,-755,0.169312,8.66443,0,0,0,0,0,0,0,-1,1140,1779,0.16932,-8.66446
-77,-755,-0.0491943,6.87439,0,0,0,0,0,0,0,-1,1147,1779,-0.0491385,-6.87443
-70,-755,4.5686,13.2169,0,0,0,0,0,0,0,-1,1154,1779,4.56865,-13.2169
-63,-755,-1.36316,7.3147,0,0,0,0,0,0,0,-1,1161,1779,-1.36312,-7.31473
-56,-755,0.0483398,5.06079,0,0,0,0,0,0,0,-1,1168,1779,0.0483138,-5.06084
-49,-755,-1.32263,5.33716,0,0,0,0,0,0,0,-1,1175,1779,-1.32264,-5.33718
-42,-755,-2.03613,4.01672,0,0,0,0,0,0,0,-1,1182,1779,-2.0361,-4.01671
-35,-755,-2.72498,2.37476,0,0,0,0,0,0,0,-1,1189,1779,-2.72502,-2.37473
-28,-755,9.77271,58.2778,0,0,0,0,0,0,0,-1,1196,1779,9.77274,-58.2778
-21,-755,9.72986,58.3698,0,0,0,0,0,0,0,-1,1203,1779,9.72992,-58.3697
-14,-755,9.70581,58.4769,0.033446,0.00494509,0.00663202,0.0349137,0.00347743,0.217789,0.0222076,0.0345781,1210,1779,9.70587,-58.4769
-7,-755,9.61047,58.6105,0.0291855,0.00709287,0.00341446,0.0297011,0.0065772,0.149894,0.0180132,0.0257062,1217,1779,9.61053,-58.6105
0,-755,9.55676,58.774,0.0252082,0.00984707,0.000221896,0.0252114,0.00984387,0.0144413,0.0146718,0.0163684,1224,1779,9.55671,-58.774
7,-755,9.4906,58.9008,0.0213116,0.0127979,-0.00261392,0.0220501,0.0120595,-0.275344,0.0127493,0.0146295,1231,1779,9.49065,-58.9007
14,-755,9.47473,59.0646,0.0175058,0.0157649,-0.00513376,0.0218424,0.0114283,-0.701422,0.0126152,0.0130135,1238,1779,9.47473,-59.0646
21,-755,9.35986,59.2233,0.0137188,0.0183112,-0.00730798,0.0236752,0.00835475,-0.937615,0.0138647,0.0173864,1245,1779,9.35985,-59.2233
28,-755,9.29773,59.2733,0.0103123,0.0184171,-0.00864767,0.0239148,0.00481461,-1.00451,0.0146053,0.0215586,1252,1779,9.29775,-59.2733
35,-755,9.28198,59.3588,0.00723499,0.0170439,-0.00923799,0.0225986,0.00168027,-1.02943,0.014538,0.0224095,1259,1779,9.28199,-59.3588
42,-755,9.23779,59.3922,0.00316365,0.01485,-0.0100325,0.0206169,-0.00260322,-1.0491,0.0146894,0.0158619,1266,1779,9.23783,-59.3922
49,-755,9.20178,59.3805,6.95171e-05,0.0121333,-0.0100921,0.0178586,-0.00565588,-1.05476,0.0141724,0.0108149,1273,1779,9.20183,-59.3805
56,-755,9.11523,59.4435,-0.00192138,0.00873798,-0.00974543,0.0145159,-0.00769931,-1.03562,0.0130257,0.0102297,1280,1779,9.11522,-59.4435
63,-755,9.05896,59.4746,-0.00377322,0.00442336,-0.00892652,0.0101474,-0.00949729,-1.0006,0.011344,0.0106993,1287,1779,9.05893,-59.4746
70,-755,9.03101,59.4423,-0.00507147,-0.000395703,-0.00735952,0.00498834,-0.0104555,-0.939191,0.00910084,0.0152051,1294,1779,9.03105,-59.4423
77,-755,8.96313,59.3994,-0.00608575,-0.00453913,-0.00610281,0.000839171,-0.0114641,-0.848419,0.00793723,0.0145997,1301,1779,8.96315,-59.3994
84,-755,8.89978,59.3945,-0.0068547,-0.00752115,-0.00524879,-0.00192857,-0.0124473,-0.753698,0.00773588,0.0154424,1308,1779,8.89978,-59.3945
91,-755,8.86499,59.3247,-0.00599514,-0.0111161,-0.00427188,-0.00357516,-0.0135361,-0.515416,0.00809976,0.0153829,1315,1779,8.86502,-59.3247
98,-755,8.78857,59.2643,-0.00540166,-0.0122019,-0.00363782,-0.00382236,-0.0137812,-0.40958,0.00821529,0.0157211,1322,1779,8.78861,-59.2642
105,-755,8.73328,59.1537,-0.00534255,-0.0123242,-0.00286917,-0.00431475,-0.013352,-0.343981,0.00786787,0.0187907,1329,1779,8.73332,-59.1537
112,-755,8.67529,59.0237,-0.00482942,-0.0112796,-0.00245397,-0.00400195,-0.012107,-0.325222,0.00712255,0.0249401,1336,1779,8.67524,-59.0236
119,-755,8.6311,58.9087,-0.00418812,-0.00995093,-0.00205042,-0.00353304,-0.010606,-0.309235,0.00623603,0.0255027,1343,1779,8.63107,-58.9087
126,-755,8.64966,58.87,-0.00333962,-0.00874647,-0.00152027,-0.00294147,-0.00914462,-0.256138,0.00539043,0.0286841,1350,1779,8.64964,-58.87
133,-755,8.50562,58.7061,-0.00285124,-0.00666959,-0.00106391,-0.00257482,-0.00694602,-0.254201,0.00405474,0.0282819,1357,1779,8.50561,-58.7061
140,-755,8.30835,58.5735,-0.00227904,-0.00482722,-0.000961827,-0.00195675,-0.00514951,-0.323319,0.00300148,0.035166,1364,1779,8.30829,-58.5735
147,-755,8.46265,58.3759,-0.00120835,-0.00372418,-0.00102914,-0.000841001,-0.00409153,-0.342849,0.00249505,0.0388357,1371,1779,8.46261,-58.3759
154,-755,8.30823,58.2784,-8.35032e-05,-0.00276268,-0.000728287,0.00010167,-0.00294785,-0.248983,0.00199999,0.0372239,1378,1779,8.30822,-58.2784
161,-755,8.07837,58.1702,0,0,0,0,0,0,0,-1,1385,1779,8.07831,-58.1702
168,-755,3.98181,7.35901,0,0,0,0,0,0,0,-1,1392,1779,3.98184,-7.35904
175,-755,8.17065,1.34363,0,0,0,0,0,0,0,-1,1399,1779,8.1706,-1.34368
182,-755,8.09216,2.96924,0,0,0,0,0,0,0,-1,1406,1779,8.09213,-2.9693
189,-755,8.04419,4.68042,0,0,0,0,0,0,0,-1,1413,1779,8.04419,-4.68046
196,-755,7.74841,7.4541,0,0,0,0,0,0,0,-1,1420,1779,7.74842,-7.45405
203,-755,4.80554,6.88696,0,0,0,0,0,0,0,-1,1427,1779,4.80554,-6.88697
210,-755,25.1694,7.35693,0,0,0,0,0,0,0,-1,1434,1779,25.1694,-7.35688
217,-755,5.01648,16.411,0,0,0,0,0,0,0,-1,1441,1779,5.01646,-16.411
224,-755,5.18103,22.6283,0,0,0,0,0,0,0,-1,1448,1779,5.18101,-22.6283
231,-755,5.7489,30.15,0,0,0,0,0,0,0,-1,1455,1779,5.74885,-30.15
238,-755,6.56323,29.2726,0,0,0,0,0,0,0,-1,1462,1779,6.56327,-29.2726
245,-755,8.29639,28.2113,0,0,0,0,0,0,0,-1,1469,1779,8.29639,-28.2113
252,-755,6.8877,28.8699,0,0,0,0,0,0,0,-1,1476,1779,6.88774,-28.8698
259,-755,6.42676,30.8574,0,0,0,0,0,0,0,-1,1483,1779,6.42677,-30.8575
266,-755,17.255,7.86096,0,0,0,0,0,0,0,-1,1490,1779,17.255,-7.86092
273,-755,15.7932,7.59778,0,0,0,0,0,0,0,-1,1497,1779,15.7932,-7.59777
280,-755,14.6255,7.34802,0,0,0,0,0,0,0,-1,1504,1779,14.6254,-7.34806
287,-755,13.8279,7.83105,0,0,0,0,0,0,0,-1,1511,1779,13.8279,-7.83104
294,-755,12.5695,7.96814,0,0,0,0,0,0,0,-1,1518,1779,12.5694,-7.9682
301,-755,11.2659,8.27087,0,0,0,0,0,0,0,-1,1525,1779,11.2658,-8.27087
308,-755,5.17737,37.2896,0,0,0,0,0,0,0,-1,1532,1779,5.17742,-37.2896
315,-755,0.828613,31.032,0,0,0,0,0,0,0,-1,1539,1779,0.828668,-31.032
322,-755,0,0,0,0,0,0,0,0,0,-1,1546,1779,0,0
329,-755,0,0,0,0,0,0,0,0,0,-1,1553,1779,0,0
336,-755,0,0,0,0,0,0,0,0,0,-1,1560,1779,0,0
343,-755,0,0,0,0,0,0,0,0,0,-1,1567,1779,0,0
350,-755,0,0,0,0,0,0,0,0,0,-1,1574,1779,0,0
357,-755,0,0,0,0,0,0,0,0,0,-1,1581,1779,0,0
364,-755,0,0,0,0,0,0,0,0,0,-1,1588,1779,0,0
371,-755,0,0,0,0,0,0,0,0,0,-1,1595,1779,0,0
378,-755,0,0,0,0,0,0,0,0,0,-1,1602,1779,0,0
385,-755,0,0,0,0,0,0,0,0,0,-1,1609,1779,0,0
392,-755,0,0,0,0,0,0,0,0,0,-1,1616,1779,0,0
399,-755,0,0,0,0,0,0,0,0,0,-1,1623,1779,0,0
406,-755,0,0,0,0,0,0,0,0,0,-1,1630,1779,0,0
413,-755,0,0,0,0,0,0,0,0,0,-1,1637,1779,0,0
420,-755,0,0,0,0,0,0,0,0,0,-1,1644,1779,0,0
427,-755,0,0,0,0,0,0,0,0,0,-1,1651,1779,0,0
434,-755,0,0,0,0,0,0,0,0,0,-1,1658,1779,0,0
441,-755,0,0,0,0,0,0,0,0,0,-1,1665,1779,0,0
448,-755,0,0,0,0,0,0,0,0,0,-1,1672,1779,0,0
455,-755,0,0,0,0,0,0,0,0,0,-1,1679,1779,0,0
462,-755,0,0,0,0,0,0,0,0,0,-1,1686,1779,0,0
469,-755,0,0,0,0,0,0,0,0,0,-1,1693,1779,0,0
476,-755,0,0,0,0,0,0,0,0,0,-1,1700,1779,0,0
483,-755,0,0,0,0,0,0,0,0,0,-1,1707,1779,0,0
490,-755,0,0,0,0,0,0,0,0,0,-1,1714,1779,0,0
497,-755,0,0,0,0,0,0,0,0,0,-1,1721,1779,0,0
504,-755,0,0,0,0,0,0,0,0,0,-1,1728,1779,0,0
511,-755,0,0,0,0,0,0,0,0,0,-1,1735,1779,0,0
518,-755,0,0,0,0,0,0,0,0,0,-1,1742,1779,0,0
525,-755,0,0,0,0,0,0,0,0,0,-1,1749,1779,0,0
532,-755,0,0,0,0,0,0,0,0,0,-1,1756,1779,0,0
539,-755,0,0,0,0,0,0,0,0,0,-1,1763,1779,0,0
546,-755,0,0,0,0,0,0,0,0,0,-1,1770,1779,0,0
553,-755,0,0,0,0,0,0,0,0,0,-1,1777,1779,0,0
560,-755,0,0,0,0,0,0,0,0,0,-1,1784,1779,0,0
567,-755,0,0,0,0,0,0,0,0,0,-1,1791,1779,0,0
574,-755,0,0,0,0,0,0,0,0,0,-1,1798,1779,0,0
581,-755,0,0,0,0,0,0,0,0,0,-1,1805,1779,0,0
588,-755,0,0,0,0,0,0,0,0,0,-1,1812,1779,0,0
595,-755,0,0,0,0,0,0,0,0,0,-1,1819,1779,0,0
602,-755,0,0,0,0,0,0,0,0,0,-1,1826,1779,0,0
609,-755,0,0,0,0,0,0,0,0,0,-1,1833,1779,0,0
616,-755,0,0,0,0,0,0,0,0,0,-1,1840,1779,0,0
623,-755,0,0,0,0,0,0,0,0,0,-1,1847,1779,0,0
630,-755,0,0,0,0,0,0,0,0,0,-1,1854,1779,0,0
637,-755,0,0,0,0,0,0,0,0,0,-1,1861,1779,0,0
644,-755,0,0,0,0,0,0,0,0,0,-1,1868,1779,0,0
651,-755,0,0,0,0,0,0,0,0,0,-1,1875,1779,0,0
658,-755,0,0,0,0,0,0,0,0,0,-1,1882,1779,0,0
665,-755,0,0,0,0,0,0,0,0,0,-1,1889,1779,0,0
672,-755,0,0,0,0,0,0,0,0,0,-1,1896,1779,0,0
679,-755,0,0,0,0,0,0,0,0,0,-1,1903,1779,0,0
686,-755,0,0,0,0,0,0,0,0,0,-1,1910,1779,0,0
693,-755,0,0,0,0,0,0,0,0,0,-1,1917,1779,0,0
700,-755,0,0,0,0,0,0,0,0,0,-1,1924,1779,0,0
707,-755,0,0,0,0,0,0,0,0,0,-1,1931,1779,0,0
714,-755,0,0,0,0,0,0,0,0,0,-1,1938,1779,0,0
721,-755,0,0,0,0,0,0,0,0,0,-1,1945,1779,0,0
728,-755,0,0,0,0,0,0,0,0,0,-1,1952,1779,0,0
735,-755,0,0,0,0,0,0,0,0,0,-1,1959,1779,0,0
742,-755,0,0,0,0,0,0,0,0,0,-1,1966,1779,0,0
749,-755,0,0,0,0,0,0,0,0,0,-1,1973,1779,0,0
756,-755,0,0,0,0,0,0,0,0,0,-1,1980,1779,0,0
763,-755,0,0,0,0,0,0,0,0,0,-1,1987,1779,0,0
770,-755,0,0,0,0,0,0,0,0,0,-1,1994,1779,0,0
777,-755,0,0,0,0,0,0,0,0,0,-1,2001,1779,0,0
784,-755,0,0,0,0,0,0,0,0,0,-1,2008,1779,0,0
791,-755,0,0,0,0,0,0,0,0,0,-1,2015,1779,0,0
798,-755,0,0,0,0,0,0,0,0,0,-1,2022,1779,0,0
805,-755,0,0,0,0,0,0,0,0,0,-1,2029,1779,0,0
812,-755,0,0,0,0,0,0,0,0,0,-1,2036,1779,0,0
-700,-762,0,0,0,0,0,0,0,0,0,-1,524,1786,0,0
-693,-762,0,0,0,0,0,0,0,0,0,-1,531,1786,0,0
-686,-762,0,0,0,0,0,0,0,0,0,-1,538,1786,0,0
-679,-762,0,0,0,0,0,0,0,0,0,-1,545,1786,0,0
-672,-762,0,0,0,0,0,0,0,0,0,-1,552,1786,0,0
-665,-762,0,0,0,0,0,0,0,0,0,-1,559,1786,0,0
-658,-762,0,0,0,0,0,0,0,0,0,-1,566,1786,0,0
-651,-762,0,0,0,0,0,0,0,0,0,-1,573,1786,0,0
-644,-762,0,0,0,0,0,0,0,0,0,-1,580,1786,0,0
-637,-762,0,0,0,0,0,0,0,0,0,-1,587,1786,0,0
-630,-762,0,0,0,0,0,0,0,0,0,-1,594,1786,0,0
-623,-762,0,0,0,0,0,0,0,0,0,-1,601,1786,0,0
-616,-762,0,0,0,0,0,0,0,0,0,-1,608,1786,0,0
-609,-762,0,0,0,0,0,0,0,0,0,-1,615,1786,0,0
-602,-762,0,0,0,0,0,0,0,0,0,-1,622,1786,0,0
-595,-762,0,0,0,0,0,0,0,0,0,-1,629,1786,0,0
-588,-762,0,0,0,0,0,0,0,0,0,-1,636,1786,0,0
-581,-762,0,0,0,0,0,0,0,0,0,-1,643,1786,0,0
-574,-762,0,0,0,0,0,0,0,0,0,-1,650,1786,0,0
-567,-762,0,0,0,0,0,0,0,0,0,-1,657,1786,0,0
-560,-762,0,0,0,0,0,0,0,0,0,-1,664,1786,0,0
-553,-762,0,0,0,0,0,0,0,0,0,-1,671,1786,0,0
-546,-762,0,0,0,0,0,0,0,0,0,-1,678,1786,0,0
-539,-762,0,0,0,0,0,0,0,0,0,-1,685,1786,0,0
-532,-762,0,0,0,0,0,0,0,0,0,-1,692,1786,0,0
-525,-762,0,0,0,0,0,0,0,0,0,-1,699,1786,0,0
-518,-762,0,0,0,0,0,0,0,0,0,-1,706,1786,0,0
-511,-762,0,0,0,0,0,0,0,0,0,-1,713,1786,0,0
-504,-762,0,0,0,0,0,0,0,0,0,-1,720,1786,0,0
-497,-762,0,0,0,0,0,0,0,0,0,-1,727,1786,0,0
-490,-762,0,0,0,0,0,0,0,0,0,-1,734,1786,0,0
-483,-762,0,0,0,0,0,0,0,0,0,-1,741,1786,0,0
-476,-762,0,0,0,0,0,0,0,0,0,-1,748,1786,0,0
-469,-762,0,0,0,0,0,0,0,0,0,-1,755,1786,0,0
-462,-762,0,0,0,0,0,0,0,0,0,-1,762,1786,0,0
-455,-762,0,0,0,0,0,0,0,0,0,-1,769,1786,0,0
-448,-762,0,0,0,0,0,0,0,0,0,-1,776,1786,0,0
-441,-762,0,0,0,0,0,0,0,0,0,-1,783,1786,0,0
-434,-762,0,0,0,0,0,0,0,0,0,-1,790,1786,0,0
-427,-762,0,0,0,0,0,0,0,0,0,-1,797,1786,0,0
-420,-762,0,0,0,0,0,0,0,0,0,-1,804,1786,0,0
-413,-762,0,0,0,0,0,0,0,0,0,-1,811,1786,0,0
-406,-762,0,0,0,0,0,0,0,0,0,-1,818,1786,0,0
-399,-762,0,0,0,0,0,0,0,0,0,-1,825,1786,0,0
-392,-762,0,0,0,0,0,0,0,0,0,-1,832,1786,0,0
-385,-762,0,0,0,0,0,0,0,0,0,-1,839,1786,0,0
-378,-762,0,0,0,0,0,0,0,0,0,-1,846,1786,0,0
-371,-762,0,0,0,0,0,0,0,0,0,-1,853,1786,0,0
-364,-762,0,0,0,0,0,0,0,0,0,-1,860,1786,0,0
-357,-762,0,0,0,0,0,0,0,0,0,-1,867,1786,0,0
-350,-762,0,0,0,0,0,0,0,0,0,-1,874,1786,0,0
-343,-762,0,0,0,0,0,0,0,0,0,-1,881,1786,0,0
-336,-762,0,0,0,0,0,0,0,0,0,-1,888,1786,0,0
-329,-762,0,0,0,0,0,0,0,0,0,-1,895,1786,0,0
-322,-762,0,0,0,0,0,0,0,0,0,-1,902,1786,0,0
-315,-762,0,0,0,0,0,0,0,0,0,-1,909,1786,0,0
-308,-762,0,0,0,0,0,0,0,0,0,-1,916,1786,0,0
-301,-762,0,0,0,0,0,0,0,0,0,-1,923,1786,0,0
-294,-762,0,0,0,0,0,0,0,0,0,-1,930,1786,0,0
-287,-762,0,0,0,0,0,0,0,0,0,-1,937,1786,0,0
-280,-762,0,0,0,0,0,0,0,0,0,-1,944,1786,0,0
-273,-762,0,0,0,0,0,0,0,0,0,-1,951,1786,0,0
-266,-762,0,0,0,0,0,0,0,0,0,-1,958,1786,0,0
-259,-762,0,0,0,0,0,0,0,0,0,-1,965,1786,0,0
-252,-762,0,0,0,0,0,0,0,0,0,-1,972,1786,0,0
-245,-762,0,0,0,0,0,0,0,0,0,-1,979,1786,0,0
-238,-762,0,0,0,0,0,0,0,0,0,-1,986,1786,0,0
-231,-762,0,0,0,0,0,0,0,0,0,-1,993,1786,0,0
-224,-762,0,0,0,0,0,0,0,0,0,-1,1000,1786,0,0
-217,-762,0,0,0,0,0,0,0,0,0,-1,1007,1786,0,0
-210,-762,0,0,0,0,0,0,0,0,0,-1,1014,1786,0,0
-203,-762,0,0,0,0,0,0,0,0,0,-1,1021,1786,0,0
-196,-762,0,0,0,0,0,0,0,0,0,-1,1028,1786,0,0
-189,-762,0,0,0,0,0,0,0,0,0,-1,1035,1786,0,0
-182,-762,4.44226,13.2462,0,0,0,0,0,0,0,-1,1042,1786,4.44227,-13.2462
-175,-762,1.14465,40.1932,0,0,0,0,0,0,0,-1,1049,1786,1.1447,-40.1932
-168,-762,3.26794,41.3881,0,0,0,0,0,0,0,-1,1056,1786,3.26794,-41.388
-161,-762,-3.29077,11.9508,0,0,0,0,0,0,0,-1,1063,1786,-3.29076,-11.9508
-154,-762,-4.55823,11.1176,0,0,0,0,0,0,0,-1,1070,1786,-4.55828,-11.1175
-147,-762,-6.52454,9.41418,0,0,0,0,0,0,0,-1,1077,1786,-6.52458,-9.41419
-140,-762,4.99792,5.28589,0,0,0,0,0,0,0,-1,1084,1786,4.99793,-5.28587
-133,-762,0.689819,19.2172,0,0,0,0,0,0,0,-1,1091,1786,0.689867,-19.2171
-126,-762,1.48743,19.9288,0,0,0,0,0,0,0,-1,1098,1786,1.48738,-19.9289
-119,-762,2.65637,20.208,0,0,0,0,0,0,0,-1,1105,1786,2.65632,-20.208
-112,-762,6.84705,25.5554,0,0,0,0,0,0,0,-1,1112,1786,6.84706,-25.5554
-105,-762,5.57947,21.618,0,0,0,0,0,0,0,-1,1119,1786,5.57948,-21.618
-98,-762,5.0636,17.9901,0,0,0,0,0,0,0,-1,1126,1786,5.06361,-17.9901
-91,-762,4.54773,14.3622,0,0,0,0,0,0,0,-1,1133,1786,4.54774,-14.3622
-84,-762,3.96375,10.4547,0,0,0,0,0,0,0,-1,1140,1786,3.96371,-10.4548
-77,-762,0.305054,8.49365,0,0,0,0,0,0,0,-1,1147,1786,0.305008,-8.49362
-70,-762,0.183716,6.74622,0,0,0,0,0,0,0,-1,1154,1786,0.183696,-6.74621
-63,-762,-0.883057,9.08813,0,0,0,0,0,0,0,-1,1161,1786,-0.88311,-9.08808
-56,-762,-0.578979,5.10254,0,0,0,0,0,0,0,-1,1168,1786,-0.578951,-5.10249
-49,-762,-2.04541,3.66321,0,0,0,0,0,0,0,-1,1175,1786,-2.0454,-3.66319
-42,-762,-2.23462,3.474,0,0,0,0,0,0,0,-1,1182,1786,-2.23459,-3.47399
-35,-762,-3.28992,1.68164,0,0,0,0,0,0,0,-1,1189,1786,-3.28998,-1.68164
-28,-762,-3.75378,1.37769,0,0,0,0,0,0,0,-1,1196,1786,-3.75373,-1.37767
-21,-762,9.78564,58.3785,0,0,0,0,0,0,0,-1,1203,1786,9.78562,-58.3785
-14,-762,9.57959,58.3922,0.0484956,0.00635827,0.00947498,0.0505281,0.00432577,0.21131,0.03234,0.0481469,1210,1786,9.5796,-58.3922
-7,-762,9.61353,58.5062,0.0416439,0.00995953,0.00466545,0.0423166,0.00928683,0.1432,0.0256814,0.0494821,1217,1786,9.61353,-58.5062
0,-762,9.6543,58.8303,0.0353659,0.0144619,-7.55305e-05,0.0353662,0.0144617,-0.00361315,0.0205313,0.0383413,1224,1786,9.65427,-58.8303
7,-762,9.67029,58.9575,0.0293776,0.019227,-0.00426441,0.0309313,0.0176733,-0.349398,0.0179187,0.0236551,1231,1786,9.6703,-58.9575
14,-762,9.66089,59.3466,0.0236484,0.0239646,-0.00789085,0.0316989,0.0159141,-0.795413,0.0183014,0.038499,1238,1786,9.66085,-59.3466
21,-762,9.39343,59.2739,0.0181218,0.0280023,-0.0109038,0.0350328,0.0110913,-0.998103,0.0206748,0.0485795,1245,1786,9.39349,-59.274
28,-762,9.14954,59.442,0.0132847,0.027955,-0.012628,0.0352236,0.00601606,-1.04851,0.0217561,0.04894,1252,1786,9.14951,-59.442
35,-762,9.29541,59.334,0,0,0,0,0,0,0,-1,1259,1786,9.29536,-59.3339
42,-762,9.20093,59.3806,0,0,0,0,0,0,0,-1,1266,1786,9.20097,-59.3807
49,-762,9.20898,59.4099,-0.000449289,0.0179944,-0.014021,0.0255544,-0.00800929,-1.07629,0.0202413,0.0474289,1273,1786,9.20903,-59.4099
56,-762,9.22437,59.4684,-0.00304918,0.0127482,-0.0134335,0.020433,-0.010734,-1.05117,0.0182824,0.0326571,1280,1786,9.22432,-59.4684
63,-762,9.15686,59.4999,-0.00542474,0.00603338,-0.012202,0.0137843,-0.0131757,-1.00488,0.0155667,0.0302782,1287,1786,9.15688,-59.4998
70,-762,9.05811,59.4855,-0.00708683,-0.00137229,-0.0100022,0.00617274,-0.0146319,-0.924525,0.0123381,0.0332436,1294,1786,9.05809,-59.4854
77,-762,8.94629,59.3081,-0.00838114,-0.00776769,-0.00824923,0.000180509,-0.0163293,-0.803981,0.0109469,0.0415135,1301,1786,8.94625,-59.3081
84,-762,9.09241,59.3743,-0.00924482,-0.0124918,-0.00705901,-0.003625,-0.0181116,-0.672371,0.0110658,0.0487729,1308,1786,9.09239,-59.3742
91,-762,8.92371,59.1891,0,0,0,0,0,0,0,-1,1315,1786,8.92376,-59.1891
98,-762,8.65002,59.1825,0,0,0,0,0,0,0,-1,1322,1786,8.65006,-59.1825
105,-762,8.60132,59.1982,0,0,0,0,0,0,0,-1,1329,1786,8.60126,-59.1982
112,-762,8.43579,58.8783,0,0,0,0,0,0,0,-1,1336,1786,8.43574,-58.8783
119,-762,8.4635,58.8397,-0.00499061,-0.0166361,-0.00295415,-0.00428409,-0.0173426,-0.234753,0.0104312,0.049128,1343,1786,8.46345,-58.8398
126,-762,8.48328,58.9839,-0.00363067,-0.0146805,-0.00233609,-0.00315708,-0.0151541,-0.200015,0.00923207,0.0494452,1350,1786,8.48333,-58.9839
133,-762,8.3125,58.842,-0.00260729,-0.0112605,-0.0016448,-0.0023052,-0.0115626,-0.181644,0.00706646,0.047474,1357,1786,8.3125,-58.8421
140,-762,8.07532,58.642,-0.00127619,-0.00801974,-0.00149022,-0.000961553,-0.00833437,-0.208077,0.00526508,0.0446776,1364,1786,8.07536,-58.6419
147,-762,8.48633,58.5833,0.000804719,-0.00584121,-0.00160984,0.00117414,-0.00621063,-0.225569,0.00458222,0.0429325,1371,1786,8.4863,-58.5832
154,-762,8.96765,58.4132,0,0,0,0,0,0,0,-1,1378,1786,8.96768,-58.4132
161,-762,8.65051,34.8102,0,0,0,0,0,0,0,-1,1385,1786,8.65054,-34.8101
168,-762,8.19287,0.880615,0,0,0,0,0,0,0,-1,1392,1786,8.19291,-0.880603
175,-762,8.33997,1.95947,0,0,0,0,0,0,0,-1,1399,1786,8.33997,-1.95942
182,-762,8.28418,3.56482,0,0,0,0,0,0,0,-1,1406,1786,8.28415,-3.56485
189,-762,8.21179,5.23389,0,0,0,0,0,0,0,-1,1413,1786,8.21183,-5.23383
196,-762,8.05969,6.95483,0,0,0,0,0,0,0,-1,1420,1786,8.05972,-6.9548
203,-762,24.0077,7.10425,0,0,0,0,0,0,0,-1,1427,1786,24.0077,-7.10426
210,-762,23.8073,7.6499,0,0,0,0,0,0,0,-1,1434,1786,23.8073,-7.64987
217,-762,23.3193,8.24426,0,0,0,0,0,0,0,-1,1441,1786,23.3194,-8.2442
224,-762,2.65149,20.6106,0,0,0,0,0,0,0,-1,1448,1786,2.65153,-20.6106
231,-762,5.46655,23.521,0,0,0,0,0,0,0,-1,1455,1786,5.46653,-23.521
238,-762,5.35632,29.7203,0,0,0,0,0,0,0,-1,1462,1786,5.35629,-29.7203
245,-762,6.93054,27.8312,0,0,0,0,0,0,0,-1,1469,1786,6.93058,-27.8312
252,-762,6.20215,28.3027,0,0,0,0,0,0,0,-1,1476,1786,6.20211,-28.3027
259,-762,5.46472,28.8762,0,0,0,0,0,0,0,-1,1483,1786,5.46476,-28.8762
266,-762,16.451,7.67773,0,0,0,0,0,0,0,-1,1490,1786,16.4511,-7.67773
273,-762,15.287,7.5304,0,0,0,0,0,0,0,-1,1497,1786,15.2869,-7.53044
280,-762,14.1501,7.38379,0,0,0,0,0,0,0,-1,1504,1786,14.1502,-7.38376
287,-762,12.6891,7.99133,0,0,0,0,0,0,0,-1,1511,1786,12.6891,-7.99135
294,-762,12.6959,8.30371,0,0,0,0,0,0,0,-1,1518,1786,12.6959,-8.30368
301,-762,11.4222,8.84143,0,0,0,0,0,0,0,-1,1525,1786,11.4223,-8.84149
308,-762,0,0,0,0,0,0,0,0,0,-1,1532,1786,0,0
315,-762,0,0,0,0,0,0,0,0,0,-1,1539,1786,0,0
322,-762,0,0,0,0,0,0,0,0,0,-1,1546,1786,0,0
329,-762,0,0,0,0,0,0,0,0,0,-1,1553,1786,0,0
336,-762,0,0,0,0,0,0,0,0,0,-1,1560,1786,0,0
343,-762,0,0,0,0,0,0,0,0,0,-1,1567,1786,0,0
350,-762,0,0,0,0,0,0,0,0,0,-1,1574,1786,0,0
357,-762,0,0,0,0,0,0,0,0,0,-1,1581,1786,0,0
364,-762,0,0,0,0,0,0,0,0,0,-1,1588,1786,0,0
371,-762,0,0,0,0,0,0,0,0,0,-1,1595,1786,0,0
378,-762,0,0,0,0,0,0,0,0,0,-1,1602,1786,0,0
385,-762,0,0,0,0,0,0,0,0,0,-1,1609,1786,0,0
392,-762,0,0,0,0,0,0,0,0,0,-1,1616,1786,0,0
399,-762,0,0,0,0,0,0,0,0,0,-1,1623,1786,0,0
406,-762,0,0,0,0,0,0,0,0,0,-1,1630,1786,0,0
413,-762,0,0,0,0,0,0,0,0,0,-1,1637,1786,0,0
420,-762,0,0,0,0,0,0,0,0,0,-1,1644,1786,0,0
427,-762,0,0,0,0,0,0,0,0,0,-1,1651,1786,0,0
434,-762,0,0,0,0,0,0,0,0,0,-1,1658,1786,0,0
441,-762,0,0,0,0,0,0,0,0,0,-1,1665,1786,0,0
448,-762,0,0,0,0,0,0,0,0,0,-1,1672,1786,0,0
455,-762,0,0,0,0,0,0,0,0,0,-1,1679,1786,0,0
462,-762,0,0,0,0,0,0,0,0,0,-1,1686,1786,0,0
469,-762,0,0,0,0,0,0,0,0,0,-1,1693,1786,0,0
476,-762,0,0,0,0,0,0,0,0,0,-1,1700,1786,0,0
483,-762,0,0,0,0,0,0,0,0,0,-1,1707,1786,0,0
490,-762,0,0,0,0,0,0,0,0,0,-1,1714,1786,0,0
497,-762,0,0,0,0,0,0,0,0,0,-1,1721,1786,0,0
504,-762,0,0,0,0,0,0,0,0,0,-1,1728,1786,0,0
511,-762,0,0,0,0,0,0,0,0,0,-1,1735,1786,0,0
518,-762,0,0,0,0,0,0,0,0,0,-1,1742,1786,0,0
525,-762,0,0,0,0,0,0,0,0,0,-1,1749,1786,0,0
532,-762,0,0,0,0,0,0,0,0,0,-1,1756,1786,0,0
539,-762,0,0,0,0,0,0,0,0,0,-1,1763,1786,0,0
546,-762,0,0,0,0,0,0,0,0,0,-1,1770,1786,0,0
553,-762,0,0,0,0,0,0,0,0,0,-1,1777,1786,0,0
560,-762,0,0,0,0,0,0,0,0,0,-1,1784,1786,0,0
567,-762,0,0,0,0,0,0,0,0,0,-1,1791,1786,0,0
574,-762,0,0,0,0,0,0,0,0,0,-1,1798,1786,0,0
581,-762,0,0,0,0,0,0,0,0,0,-1,1805,1786,0,0
588,-762,0,0,0,0,0,0,0,0,0,-1,1812,1786,0,0
595,-762,0,0,0,0,0,0,0,0,0,-1,1819,1786,0,0
602,-762,0,0,0,0,0,0,0,0,0,-1,1826,1786,0,0
609,-762,0,0,0,0,0,0,0,0,0,-1,1833,1786,0,0
616,-762,0,0,0,0,0,0,0,0,0,-1,1840,1786,0,0
623,-762,0,0,0,0,0,0,0,0,0,-1,1847,1786,0,0
630,-762,0,0,0,0,0,0,0,0,0,-1,1854,1786,0,0
637,-762,0,0,0,0,0,0,0,0,0,-1,1861,1786,0,0
644,-762,0,0,0,0,0,0,0,0,0,-1,1868,1786,0,0
651,-762,0,0,0,0,0,0,0,0,0,-1,1875,1786,0,0
658,-762,0,0,0,0,0,0,0,0,0,-1,1882,1786,0,0
665,-762,0,0,0,0,0,0,0,0,0,-1,1889,1786,0,0
672,-762,0,0,0,0,0,0,0,0,0,-1,1896,1786,0,0
679,-762,0,0,0,0,0,0,0,0,0,-1,1903,1786,0,0
686,-762,0,0,0,0,0,0,0,0,0,-1,1910,1786,0,0
693,-762,0,0,0,0,0,0,0,0,0,-1,1917,1786,0,0
700,-762,0,0,0,0,0,0,0,0,0,-1,1924,1786,0,0
707,-762,0,0,0,0,0,0,0,0,0,-1,1931,1786,0,0
714,-762,0,0,0,0,0,0,0,0,0,-1,1938,1786,0,0
721,-762,0,0,0,0,0,0,0,0,0,-1,1945,1786,0,0
728,-762,0,0,0,0,0,0,0,0,0,-1,1952,1786,0,0
735,-762,0,0,0,0,0,0,0,0,0,-1,1959,1786,0,0
742,-762,0,0,0,0,0,0,0,0,0,-1,1966,1786,0,0
749,-762,0,0,0,0,0,0,0,0,0,-1,1973,1786,0,0
756,-762,0,0,0,0,0,0,0,0,0,-1,1980,1786,0,0
763,-762,0,0,0,0,0,0,0,0,0,-1,1987,1786,0,0
770,-762,0,0,0,0,0,0,0,0,0,-1,1994,1786,0,0
777,-762,0,0,0,0,0,0,0,0,0,-1,2001,1786,0,0
784,-762,0,0,0,0,0,0,0,0,0,-1,2008,1786,0,0
791,-762,0,0,0,0,0,0,0,0,0,-1,2015,1786,0,0
798,-762,0,0,0,0,0,0,0,0,0,-1,2022,1786,0,0
805,-762,0,0,0,0,0,0,0,0,0,-1,2029,1786,0,0
812,-762,0,0,0,0,0,0,0,0,0,-1,2036,1786,0,0
-700,-769,0,0,0,0,0,0,0,0,0,-1,524,1793,0,0
-693,-769,0,0,0,0,0,0,0,0,0,-1,531,1793,0,0
-686,-769,0,0,0,0,0,0,0,0,0,-1,538,1793,0,0
-679,-769,0,0,0,0,0,0,0,0,0,-1,545,1793,0,0
-672,-769,0,0,0,0,0,0,0,0,0,-1,552,1793,0,0
-665,-769,0,0,0,0,0,0,0,0,0,-1,559,1793,0,0
-658,-769,0,0,0,0,0,0,0,0,0,-1,566,1793,0,0
-651,-769,0,0,0,0,0,0,0,0,0,-1,573,1793,0,0
-644,-769,0,0,0,0,0,0,0,0,0,-1,580,1793,0,0
-637,-769,0,0,0,0,0,0,0,0,0,-1,587,1793,0,0
-630,-769,0,0,0,0,0,0,0,0,0,-1,594,1793,0,0
-623,-769,0,0,0,0,0,0,0,0,0,-1,601,1793,0,0
-616,-769,0,0,0,0,0,0,0,0,0,-1,608,1793,0,0
-609,-769,0,0,0,0,0,0,0,0,0,-1,615,1793,0,0
-602,-769,0,0,0,0,0,0,0,0,0,-1,622,1793,0,0
-595,-769,0,0,0,0,0,0,0,0,0,-1,629,1793,0,0
-588,-769,0,0,0,0,0,0,0,0,0,-1,636,1793,0,0
-581,-769,0,0,0,0,0,0,0,0,0,-1,643,1793,0,0
-574,-769,0,0,0,0,0,0,0,0,0,-1,650,1793,0,0
-567,-769,0,0,0,0,0,0,0,0,0,-1,657,1793,0,0
-560,-769,0,0,0,0,0,0,0,0,0,-1,664,1793,0,0
-553,-769,0,0,0,0,0,0,0,0,0,-1,671,1793,0,0
-546,-769,0,0,0,0,0,0,0,0,0,-1,678,1793,0,0
-539,-769,0,0,0,0,0,0,0,0,0,-1,685,1793,0,0
-532,-769,0,0,0,0,0,0,0,0,0,-1,692,1793,0,0
-525,-769,0,0,0,0,0,0,0,0,0,-1,699,1793,0,0
-518,-769,0,0,0,0,0,0,0,0,0,-1,706,1793,0,0
-511,-769,0,0,0,0,0,0,0,0,0,-1,713,1793,0,0
-504,-769,0,0,0,0,0,0,0,0,0,-1,720,1793,0,0
-497,-769,0,0,0,0,0,0,0,0,0,-1,727,1793,0,0
-490,-769,0,0,0,0,0,0,0,0,0,-1,734,1793,0,0
-483,-769,0,0,0,0,0,0,0,0,0,-1,741,1793,0,0
-476,-769,0,0,0,0,0,0,0,0,0,-1,748,1793,0,0
-469,-769,0,0,0,0,0,0,0,0,0,-1,755,1793,0,0
-462,-769,0,0,0,0,0,0,0,0,0,-1,762,1793,0,0
-455,-769,0,0,0,0,0,0,0,0,0,-1,769,1793,0,0
-448,-769,0,0,0,0,0,0,0,0,0,-1,776,1793,0,0
-441,-769,0,0,0,0,0,0,0,0,0,-1,783,1793,0,0
-434,-769,0,0,0,0,0,0,0,0,0,-1,790,1793,0,0
-427,-769,0,0,0,0,0,0,0,0,0,-1,797,1793,0,0
-420,-769,0,0,0,0,0,0,0,0,0,-1,804,1793,0,0
-413,-769,0,0,0,0,0,0,0,0,0,-1,811,1793,0,0
-406,-769,0,0,0,0,0,0,0,0,0,-1,818,1793,0,0
-399,-769,0,0,0,0,0,0,0,0,0,-1,825,1793,0,0
-392,-769,0,0,0,0,0,0,0,0,0,-1,832,1793,0,0
-385,-769,0,0,0,0,0,0,0,0,0,-1,839,1793,0,0
-378,-769,0,0,0,0,0,0,0,0,0,-1,846,1793,0,0
-371,-769,0,0,0,0,0,0,0,0,0,-1,853,1793,0,0
-364,-769,0,0,0,0,0,0,0,0,0,-1,860,1793,0,0
-357,-769,0,0,0,0,0,0,0,0,0,-1,867,1793,0,0
-350,-769,0,0,0,0,0,0,0,0,0,-1,874,1793,0,0
-343,-769,0,0,0,0,0,0,0,0,0,-1,881,1793,0,0
-336,-769,0,0,0,0,0,0,0,0,0,-1,888,1793,0,0
-329,-769,0,0,0,0,0,0,0,0,0,-1,895,1793,0,0
-322,-769,0,0,0,0,0,0,0,0,0,-1,902,1793,0,0
-315,-769,0,0,0,0,0,0,0,0,0,-1,909,1793,0,0
-308,-769,0,0,0,0,0,0,0,0,0,-1,916,1793,0,0
-301,-769,0,0,0,0,0,0,0,0,0,-1,923,1793,0,0
-294,-769,0,0,0,0,0,0,0,0,0,-1,930,1793,0,0
-287,-769,0,0,0,0,0,0,0,0,0,-1,937,1793,0,0
-280,-769,0,0,0,0,0,0,0,0,0,-1,944,1793,0,0
-273,-769,0,0,0,0,0,0,0,0,0,-1,951,1793,0,0
-266,-769,0,0,0,0,0,0,0,0,0,-1,958,1793,0,0
-259,-769,0,0,0,0,0,0,0,0,0,-1,965,1793,0,0
-252,-769,0,0,0,0,0,0,0,0,0,-1,972,1793,0,0
-245,-769,0,0,0,0,0,0,0,0,0,-1,979,1793,0,0
-238,-769,0,0,0,0,0,0,0,0,0,-1,986,1793,0,0
-231,-769,0,0,0,0,0,0,0,0,0,-1,993,1793,0,0
-224,-769,0,0,0,0,0,0,0,0,0,-1,1000,1793,0,0
-217,-769,0,0,0,0,0,0,0,0,0,-1,1007,1793,0,0
-210,-769,0,0,0,0,0,0,0,0,0,-1,1014,1793,0,0
-203,-769,0,0,0,0,0,0,0,0,0,-1,1021,1793,0,0
-196,-769,0,0,0,0,0,0,0,0,0,-1,1028,1793,0,0
-189,-769,0,0,0,0,0,0,0,0,0,-1,1035,1793,0,0
-182,-769,0,0,0,0,0,0,0,0,0,-1,1042,1793,0,0
-175,-769,0,0,0,0,0,0,0,0,0,-1,1049,1793,0,0
-168,-769,0,0,0,0,0,0,0,0,0,-1,1056,1793,0,0
-161,-769,-3.61145,12.4761,0,0,0,0,0,0,0,-1,1063,1793,-3.6114,-12.476
-154,-769,-0.813232,5.32874,0,0,0,0,0,0,0,-1,1070,1793,-0.813269,-5.32872
-147,-769,4.26587,4.7002,0,0,0,0,0,0,0,-1,1077,1793,4.26593,-4.70022
-140,-769,4.10376,5.28589,0,0,0,0,0,0,0,-1,1084,1793,4.10371,-5.28584
-133,-769,6.422,8.21777,0,0,0,0,0,0,0,-1,1091,1793,6.42198,-8.21773
-126,-769,-0.352295,19.326,0,0,0,0,0,0,0,-1,1098,1793,-0.352235,-19.326
-119,-769,6.01685,16.2577,0,0,0,0,0,0,0,-1,1105,1793,6.01689,-16.2576
-112,-769,5.76416,27.2615,0,0,0,0,0,0,0,-1,1112,1793,5.7642,-27.2615
-105,-769,4.97009,22.8479,0,0,0,0,0,0,0,-1,1119,1793,4.97006,-22.8479
-98,-769,4.69373,18.9142,0,0,0,0,0,0,0,-1,1126,1793,4.69376,-18.9142
-91,-769,4.41748,14.9805,0,0,0,0,0,0,0,-1,1133,1793,4.41746,-14.9805
-84,-769,3.2207,12.4565,0,0,0,0,0,0,0,-1,1140,1793,3.22066,-12.4565
-77,-769,2.48816,8.98486,0,0,0,0,0,0,0,-1,1147,1793,2.48815,-8.98489
-70,-769,1.04944,11.9852,0,0,0,0,0,0,0,-1,1154,1793,1.04947,-11.9852
-63,-769,-2.39709,9.60339,0,0,0,0,0,0,0,-1,1161,1793,-2.39706,-9.6034
-56,-769,-5.84363,7.22156,0,0,0,0,0,0,0,-1,1168,1793,-5.84359,-7.22157
-49,-769,-2.41443,3.95471,0,0,0,0,0,0,0,-1,1175,1793,-2.41446,-3.95471
-42,-769,-3.1991,2.64941,0,0,0,0,0,0,0,-1,1182,1793,-3.19914,-2.64944
-35,-769,-3.50183,1.73389,0,0,0,0,0,0,0,-1,1189,1793,-3.50189,-1.7339
-28,-769,-3.96985,1.14075,0,0,0,0,0,0,0,-1,1196,1793,-3.96985,-1.14078
-21,-769,8.51636,58.248,0,0,0,0,0,0,0,-1,1203,1793,8.51634,-58.248
-14,-769,9.28455,58.3851,0,0,0,0,0,0,0,-1,1210,1793,9.28454,-58.3852
-7,-769,9.61304,58.354,0,0,0,0,0,0,0,-1,1217,1793,9.61306,-58.354
0,-769,9.69507,58.8589,0.0474309,0.0203571,-0.000388051,0.0474365,0.0203515,-0.0143291,0.0274793,0.0481144,1224,1793,9.69502,-58.8588
7,-769,10.0087,59.1432,0.03858,0.0276877,-0.00634166,0.0414931,0.0247746,-0.430612,0.0241061,0.0435061,1231,1793,10.0087,-59.1432
14,-769,9.88794,59.6147,0,0,0,0,0,0,0,-1,1238,1793,9.88793,-59.6147
21,-769,9.48303,59.2479,0,0,0,0,0,0,0,-1,1245,1793,9.48308,-59.248
28,-769,9.0072,59.4812,0,0,0,0,0,0,0,-1,1252,1793,9.00717,-59.4812
35,-769,9.31323,59.6995,0,0,0,0,0,0,0,-1,1259,1793,9.31324,-59.6995
42,-769,9.2688,59.608,0.0033856,0.0316305,-0.0188314,0.0410467,-0.00603058,-1.10713,0.0295803,0.0491759,1266,1793,9.26881,-59.6081
49,-769,9.28186,59.5057,-0.00165244,0.0253659,-0.0185462,0.0348014,-0.011088,-1.10017,0.0276483,0.0471411,1273,1793,9.2819,-59.5058
56,-769,9.23633,59.3789,-0.00485652,0.0176187,-0.0176409,0.0272972,-0.0145351,-1.069,0.0245237,0.0473972,1280,1793,9.23637,-59.3789
63,-769,9.0647,59.4758,0,0,0,0,0,0,0,-1,1287,1793,9.06466,-59.4759
70,-769,9.4126,59.4298,-0.00970525,-0.00309817,-0.0129889,0.00700074,-0.0198041,-0.909925,0.0160535,0.0479607,1294,1793,9.41258,-59.4298
77,-769,9.0603,59.038,-0.0112414,-0.0124905,-0.0106847,-0.00116295,-0.0225689,-0.756206,0.0146736,0.0491281,1301,1793,9.0603,-59.0379
84,-769,9.39319,59.5717,-0.0120895,-0.0196273,-0.00911677,-0.00599328,-0.0257235,-0.589395,0.0155413,0.0456701,1308,1793,9.39319,-59.5717
91,-769,9.20129,59.6685,-0.0100775,-0.027983,-0.00770133,-0.00722087,-0.0308397,-0.355199,0.0186254,0.0430584,1315,1793,9.20134,-59.6684
98,-769,8.88586,59.4927,-0.00883928,-0.0309058,-0.00657013,-0.00703123,-0.0327139,-0.268546,0.0198843,0.0458015,1322,1793,8.88591,-59.4927
105,-769,8.15393,58.8022,0,0,0,0,0,0,0,-1,1329,1793,8.15399,-58.8023
112,-769,8.23279,58.8088,0,0,0,0,0,0,0,-1,1336,1793,8.23283,-58.8088
119,-769,8.35376,58.7706,-0.00577795,-0.0262692,-0.0041938,-0.00495286,-0.0270943,-0.19426,0.0166592,0.0457204,1343,1793,8.35379,-58.7707
126,-769,8.33752,58.9042,-0.00375269,-0.0232769,-0.00359767,-0.00311086,-0.0239187,-0.176545,0.0150166,0.0470426,1350,1793,8.33756,-58.9042
133,-769,8.10742,58.8767,0,0,0,0,0,0,0,-1,1357,1793,8.10746,-58.8767
140,-769,7.88098,58.6638,0,0,0,0,0,0,0,-1,1364,1793,7.881,-58.6639
147,-769,8.19604,58.6968,0,0,0,0,0,0,0,-1,1371,1793,8.19608,-58.6968
154,-769,7.29382,55.4241,0,0,0,0,0,0,0,-1,1378,1793,7.29384,-55.4241
161,-769,6.57019,1.53223,0,0,0,0,0,0,0,-1,1385,1793,6.57019,-1.53226
168,-769,8.27637,0.756958,0,0,0,0,0,0,0,-1,1392,1793,8.27639,-0.756944
175,-769,8.47144,2.41174,0,0,0,0,0,0,0,-1,1399,1793,8.47147,-2.4118
182,-769,8.41479,4.05994,0,0,0,0,0,0,0,-1,1406,1793,8.41479,-4.05997
189,-769,8.25049,5.68433,0,0,0,0,0,0,0,-1,1413,1793,8.25054,-5.68428
196,-769,7.97729,7.42847,0,0,0,0,0,0,0,-1,1420,1793,7.9773,-7.42848
203,-769,22.0977,6.73889,0,0,0,0,0,0,0,-1,1427,1793,22.0977,-6.7389
210,-769,22.1115,7.77246,0,0,0,0,0,0,0,-1,1434,1793,22.1115,-7.77248
217,-769,22.4723,8.79102,0,0,0,0,0,0,0,-1,1441,1793,22.4723,-8.79099
224,-769,22.1348,9.35278,0,0,0,0,0,0,0,-1,1448,1793,22.1348,-9.35283
231,-769,3.13318,19.7184,0,0,0,0,0,0,0,-1,1455,1793,3.13323,-19.7184
238,-769,5.74512,18.6597,0,0,0,0,0,0,0,-1,1462,1793,5.74512,-18.6596
245,-769,5.80798,22.87,0,0,0,0,0,0,0,-1,1469,1793,5.80796,-22.87
252,-769,6.20837,28.394,0,0,0,0,0,0,0,-1,1476,1793,6.20833,-28.3941
259,-769,10.974,17.7698,0,0,0,0,0,0,0,-1,1483,1793,10.974,-17.7698
266,-769,15.8488,7.3905,0,0,0,0,0,0,0,-1,1490,1793,15.8488,-7.39046
273,-769,14.8075,7.56152,0,0,0,0,0,0,0,-1,1497,1793,14.8075,-7.56152
280,-769,13.6519,7.43054,0,0,0,0,0,0,0,-1,1504,1793,13.6518,-7.43058
287,-769,0,0,0,0,0,0,0,0,0,-1,1511,1793,0,0
294,-769,0,0,0,0,0,0,0,0,0,-1,1518,1793,0,0
301,-769,0,0,0,0,0,0,0,0,0,-1,1525,1793,0,0
308,-769,0,0,0,0,0,0,0,0,0,-1,1532,1793,0,0
315,-769,0,0,0,0,0,0,0,0,0,-1,1539,1793,0,0
322,-769,0,0,0,0,0,0,0,0,0,-1,1546,1793,0,0
329,-769,0,0,0,0,0,0,0,0,0,-1,1553,1793,0,0
336,-769,0,0,0,0,0,0,0,0,0,-1,1560,1793,0,0
343,-769,0,0,0,0,0,0,0,0,0,-1,1567,1793,0,0
350,-769,0,0,0,0,0,0,0,0,0,-1,1574,1793,0,0
357,-769,0,0,0,0,0,0,0,0,0,-1,1581,1793,0,0
364,-769,0,0,0,0,0,0,0,0,0,-1,1588,1793,0,0
371,-769,0,0,0,0,0,0,0,0,0,-1,1595,1793,0,0
378,-769,0,0,0,0,0,0,0,0,0,-1,1602,1793,0,0
385,-769,0,0,0,0,0,0,0,0,0,-1,1609,1793,0,0
392,-769,0,0,0,0,0,0,0,0,0,-1,1616,1793,0,0
399,-769,0,0,0,0,0,0,0,0,0,-1,1623,1793,0,0
406,-769,0,0,0,0,0,0,0,0,0,-1,1630,1793,0,0
413,-769,0,0,0,0,0,0,0,0,0,-1,1637,1793,0,0
420,-769,0,0,0,0,0,0,0,0,0,-1,1644,1793,0,0
427,-769,0,0,0,0,0,0,0,0,0,-1,1651,1793,0,0
434,-769,0,0,0,0,0,0,0,0,0,-1,1658,1793,0,0
441,-769,0,0,0,0,0,0,0,0,0,-1,1665,1793,0,0
448,-769,0,0,0,0,0,0,0,0,0,-1,1672,1793,0,0
455,-769,0,0,0,0,0,0,0,0,0,-1,1679,1793,0,0
462,-769,0,0,0,0,0,0,0,0,0,-1,1686,1793,0,0
469,-769,0,0,0,0,0,0,0,0,0,-1,1693,1793,0,0
476,-769,0,0,0,0,0,0,0,0,0,-1,1700,1793,0,0
483,-769,0,0,0,0,0,0,0,0,0,-1,1707,1793,0,0
490,-769,0,0,0,0,0,0,0,0,0,-1,1714,1793,0,0
497,-769,0,0,0,0,0,0,0,0,0,-1,1721,1793,0,0
504,-769,0,0,0,0,0,0,0,0,0,-1,1728,1793,0,0
511,-769,0,0,0,0,0,0,0,0,0,-1,1735,1793,0,0
518,-769,0,0,0,0,0,0,0,0,0,-1,1742,1793,0,0
525,-769,0,0,0,0,0,0,0,0,0,-1,1749,1793,0,0
532,-769,0,0,0,0,0,0,0,0,0,-1,1756,1793,0,0
539,-769,0,0,0,0,0,0,0,0,0,-1,1763,1793,0,0
546,-769,0,0,0,0,0,0,0,0,0,-1,1770,1793,0,0
553,-769,0,0,0,0,0,0,0,0,0,-1,1777,1793,0,0
560,-769,0,0,0,0,0,0,0,0,0,-1,1784,1793,0,0
567,-769,0,0,0,0,0,0,0,0,0,-1,1791,1793,0,0
574,-769,0,0,0,0,0,0,0,0,0,-1,1798,1793,0,0
581,-769,0,0,0,0,0,0,0,0,0,-1,1805,1793,0,0
588,-769,0,0,0,0,0,0,0,0,0,-1,1812,1793,0,0
595,-769,0,0,0,0,0,0,0,0,0,-1,1819,1793,0,0
602,-769,0,0,0,0,0,0,0,0,0,-1,1826,1793,0,0
609,-769,0,0,0,0,0,0,0,0,0,-1,1833,1793,0,0
616,-769,0,0,0,0,0,0,0,0,0,-1,1840,1793,0,0
623,-769,0,0,0,0,0,0,0,0,0,-1,1847,1793,0,0
630,-769,0,0,0,0,0,0,0,0,0,-1,1854,1793,0,0
637,-769,0,0,0,0,0,0,0,0,0,-1,1861,1793,0,0
644,-769,0,0,0,0,0,0,0,0,0,-1,1868,1793,0,0
651,-769,0,0,0,0,0,0,0,0,0,-1,1875,1793,0,0
658,-769,0,0,0,0,0,0,0,0,0,-1,1882,1793,0,0
665,-769,0,0,0,0,0,0,0,0,0,-1,1889,1793,0,0
672,-769,0,0,0,0,0,0,0,0,0,-1,1896,1793,0,0
679,-769,0,0,0,0,0,0,0,0,0,-1,1903,1793,0,0
686,-769,0,0,0,0,0,0,0,0,0,-1,1910,1793,0,0
693,-769,0,0,0,0,0,0,0,0,0,-1,1917,1793,0,0
700,-769,0,0,0,0,0,0,0,0,0,-1,1924,1793,0,0
707,-769,0,0,0,0,0,0,0,0,0,-1,1931,1793,0,0
714,-769,0,0,0,0,0,0,0,0,0,-1,1938,1793,0,0
721,-769,0,0,0,0,0,0,0,0,0,-1,1945,1793,0,0
728,-769,0,0,0,0,0,0,0,0,0,-1,1952,1793,0,0
735,-769,0,0,0,0,0,0,0,0,0,-1,1959,1793,0,0
742,-769,0,0,0,0,0,0,0,0,0,-1,1966,1793,0,0
749,-769,0,0,0,0,0,0,0,0,0,-1,1973,1793,0,0
756,-769,0,0,0,0,0,0,0,0,0,-1,1980,1793,0,0
763,-769,0,0,0,0,0,0,0,0,0,-1,1987,1793,0,0
770,-769,0,0,0,0,0,0,0,0,0,-1,1994,1793,0,0
777,-769,0,0,0,0,0,0,0,0,0,-1,2001,1793,0,0
784,-769,0,0,0,0,0,0,0,0,0,-1,2008,1793,0,0
791,-769,0,0,0,0,0,0,0,0,0,-1,2015,1793,0,0
798,-769,0,0,0,0,0,0,0,0,0,-1,2022,1793,0,0
805,-769,0,0,0,0,0,0,0,0,0,-1,2029,1793,0,0
812,-769,0,0,0,0,0,0,0,0,0,-1,2036,1793,0,0
-700,-776,0,0,0,0,0,0,0,0,0,-1,524,1800,0,0
-693,-776,0,0,0,0,0,0,0,0,0,-1,531,1800,0,0
-686,-776,0,0,0,0,0,0,0,0,0,-1,538,1800,0,0
-679,-776,0,0,0,0,0,0,0,0,0,-1,545,1800,0,0
-672,-776,0,0,0,0,0,0,0,0,0,-1,552,1800,0,0
-665,-776,0,0,0,0,0,0,0,0,0,-1,559,1800,0,0
-658,-776,0,0,0,0,0,0,0,0,0,-1,566,1800,0,0
-651,-776,0,0,0,0,0,0,0,0,0,-1,573,1800,0,0
-644,-776,0,0,0,0,0,0,0,0,0,-1,580,1800,0,0
-637,-776,0,0,0,0,0,0,0,0,0,-1,587,1800,0,0
-630,-776,0,0,0,0,0,0,0,0,0,-1,594,1800,0,0
-623,-776,0,0,0,0,0,0,0,0,0,-1,601,1800,0,0
-616,-776,0,0,0,0,0,0,0,0,0,-1,608,1800,0,0
-609,-776,0,0,0,0,0,0,0,0,0,-1,615,1800,0,0
-602,-776,0,0,0,0,0,0,0,0,0,-1,622,1800,0,0
-595,-776,0,0,0,0,0,0,0,0,0,-1,629,1800,0,0
-588,-776,0,0,0,0,0,0,0,0,0,-1,636,1800,0,0
-581,-776,0,0,0,0,0,0,0,0,0,-1,643,1800,0,0
-574,-776,0,0,0,0,0,0,0,0,0,-1,650,1800,0,0
-567,-776,0,0,0,0,0,0,0,0,0,-1,657,1800,0,0
-560,-776,0,0,0,0,0,0,0,0,0,-1,664,1800,0,0
-553,-776,0,0,0,0,0,0,0,0,0,-1,671,1800,0,0
-546,-776,0,0,0,0,0,0,0,0,0,-1,678,1800,0,0
-539,-776,0,0,0,0,0,0,0,0,0,-1,685,1800,0,0
-532,-776,0,0,0,0,0,0,0,0,0,-1,692,1800,0,0
-525,-776,0,0,0,0,0,0,0,0,0,-1,699,1800,0,0
-518,-776,0,0,0,0,0,0,0,0,0,-1,706,1800,0,0
-511,-776,0,0,0,0,0,0,0,0,0,-1,713,1800,0,0
-504,-776,0,0,0,0,0,0,0,0,0,-1,720,1800,0,0
-497,-776,0,0,0,0,0,0,0,0,0,-1,727,1800,0,0
-490,-776,0,0,0,0,0,0,0,0,0,-1,734,1800,0,0
-483,-776,0,0,0,0,0,0,0,0,0,-1,741,1800,0,0
-476,-776,0,0,0,0,0,0,0,0,0,-1,748,1800,0,0
-469,-776,0,0,0,0,0,0,0,0,0,-1,755,1800,0,0
-462,-776,0,0,0,0,0,0,0,0,0,-1,762,1800,0,0
-455,-776,0,0,0,0,0,0,0,0,0,-1,769,1800,0,0
-448,-776,0,0,0,0,0,0,0,0,0,-1,776,1800,0,0
-441,-776,0,0,0,0,0,0,0,0,0,-1,783,1800,0,0
-434,-776,0,0,0,0,0,0,0,0,0,-1,790,1800,0,0
-427,-776,0,0,0,0,0,0,0,0,0,-1,797,1800,0,0
-420,-776,0,0,0,0,0,0,0,0,0,-1,804,1800,0,0
-413,-776,0,0,0,0,0,0,0,0,0,-1,811,1800,0,0
-406,-776,0,0,0,0,0,0,0,0,0,-1,818,1800,0,0
-399,-776,0,0,0,0,0,0,0,0,0,-1,825,1800,0,0
-392,-776,0,0,0,0,0,0,0,0,0,-1,832,1800,0,0
-385,-776,0,0,0,0,0,0,0,0,0,-1,839,1800,0,0
-378,-776,0,0,0,0,0,0,0,0,0,-1,846,1800,0,0
-371,-776,0,0,0,0,0,0,0,0,0,-1,853,1800,0,0
-364,-776,0,0,0,0,0,0,0,0,0,-1,860,1800,0,0
-357,-776,0,0,0,0,0,0,0,0,0,-1,867,1800,0,0
-350,-776,0,0,0,0,0,0,0,0,0,-1,874,1800,0,0
-343,-776,0,0,0,0,0,0,0,0,0,-1,881,1800,0,0
-336,-776,0,0,0,0,0,0,0,0,0,-1,888,1800,0,0
-329,-776,0,0,0,0,0,0,0,0,0,-1,895,1800,0,0
-322,-776,0,0,0,0,0,0,0,0,0,-1,902,1800,0,0
-315,-776,0,0,0,0,0,0,0,0,0,-1,909,1800,0,0
-308,-776,0,0,0,0,0,0,0,0,0,-1,916,1800,0,0
-301,-776,0,0,0,0,0,0,0,0,0,-1,923,1800,0,0
-294,-776,0,0,0,0,0,0,0,0,0,-1,930,1800,0,0
-287,-776,0,0,0,0,0,0,0,0,0,-1,937,1800,0,0
-280,-776,0,0,0,0,0,0,0,0,0,-1,944,1800,0,0
-273,-776,0,0,0,0,0,0,0,0,0,-1,951,1800,0,0
-266,-776,0,0,0,0,0,0,0,0,0,-1,958,1800,0,0
-259,-776,0,0,0,0,0,0,0,0,0,-1,965,1800,0,0
-252,-776,0,0,0,0,0,0,0,0,0,-1,972,1800,0,0
-245,-776,0,0,0,0,0,0,0,0,0,-1,979,1800,0,0
-238,-776,0,0,0,0,0,0,0,0,0,-1,986,1800,0,0
-231,-776,0,0,0,0,0,0,0,0,0,-1,993,1800,0,0
-224,-776,0,0,0,0,0,0,0,0,0,-1,1000,1800,0,0
-217,-776,0,0,0,0,0,0,0,0,0,-1,1007,1800,0,0
-210,-776,0,0,0,0,0,0,0,0,0,-1,1014,1800,0,0
-203,-776,0,0,0,0,0,0,0,0,0,-1,1021,1800,0,0
-196,-776,0,0,0,0,0,0,0,0,0,-1,1028,1800,0,0
-189,-776,0,0,0,0,0,0,0,0,0,-1,1035,1800,0,0
-182,-776,0,0,0,0,0,0,0,0,0,-1,1042,1800,0,0
-175,-776,0,0,0,0,0,0,0,0,0,-1,1049,1800,0,0
-168,-776,0,0,0,0,0,0,0,0,0,-1,1056,1800,0,0
-161,-776,0,0,0,0,0,0,0,0,0,-1,1063,1800,0,0
-154,-776,0,0,0,0,0,0,0,0,0,-1,1070,1800,0,0
-147,-776,0,0,0,0,0,0,0,0,0,-1,1077,1800,0,0
-140,-776,2.98499,5.20911,0,0,0,0,0,0,0,-1,1084,1800,2.98493,-5.2091
-133,-776,6.72363,9.35828,0,0,0,0,0,0,0,-1,1091,1800,6.72358,-9.35824
-126,-776,6.55029,13.7832,0,0,0,0,0,0,0,-1,1098,1800,6.55029,-13.7832
-119,-776,5.72107,13.7787,0,0,0,0,0,0,0,-1,1105,1800,5.72106,-13.7787
-112,-776,6.84998,20.4421,0,0,0,0,0,0,0,-1,1112,1800,6.84993,-20.4421
-105,-776,4.46863,24.6742,0,0,0,0,0,0,0,-1,1119,1800,4.46868,-24.6742
-98,-776,4.31616,19.7659,0,0,0,0,0,0,0,-1,1126,1800,4.31619,-19.7659
-91,-776,3.30225,18.134,0,0,0,0,0,0,0,-1,1133,1800,3.30222,-18.134
-84,-776,2.67932,14.3162,0,0,0,0,0,0,0,-1,1140,1800,2.67926,-14.3161
-77,-776,0.580078,11.1272,0,0,0,0,0,0,0,-1,1147,1800,0.58002,-11.1272
-70,-776,-0.562866,12.3163,0,0,0,0,0,0,0,-1,1154,1800,-0.562897,-12.3163
-63,-776,-3.96106,9.97656,0,0,0,0,0,0,0,-1,1161,1800,-3.961,-9.97654
-56,-776,-7.35913,7.63672,0,0,0,0,0,0,0,-1,1168,1800,-7.3591,-7.63676
-49,-776,-7.62952,3.1908,0,0,0,0,0,0,0,-1,1175,1800,-7.62955,-3.19076
-42,-776,-3.41272,3.0249,0,0,0,0,0,0,0,-1,1182,1800,-3.41269,-3.02488
-35,-776,-3.71753,1.63635,0,0,0,0,0,0,0,-1,1189,1800,-3.71755,-1.63631
-28,-776,-4.03979,0.716064,0,0,0,0,0,0,0,-1,1196,1800,-4.03977,-0.716055
-21,-776,7.11768,58.079,0,0,0,0,0,0,0,-1,1203,1800,7.11766,-58.079
-14,-776,8.46777,58.1067,0.0895468,0.00778363,0.0192786,0.0938644,0.00346599,0.220324,0.0614535,0.046386,1210,1800,8.4678,-58.1066
-7,-776,9.89575,58.1853,0.0746831,0.0169053,0.00898262,0.0760474,0.015541,0.15073,0.0463938,0.0496432,1217,1800,9.89575,-58.1853
0,-776,10.0366,58.9679,0.0609044,0.0277445,-0.000662724,0.0609176,0.0277312,-0.0199751,0.0352178,0.0473365,1224,1800,10.0366,-58.9679
7,-776,10.2946,59.2632,0.0482441,0.0385512,-0.00880631,0.0534495,0.0333459,-0.533847,0.0311732,0.0468124,1231,1800,10.2946,-59.2632
14,-776,10.7869,59.5326,0.0365548,0.0488197,-0.0153909,0.0592549,0.0261195,-0.974981,0.0342907,0.0435943,1238,1800,10.7869,-59.5326
21,-776,11.4928,59.511,0.0258162,0.0575315,-0.0204872,0.0675812,0.0157665,-1.11475,0.0408264,0.0418802,1245,1800,11.4928,-59.511
28,-776,12.5507,59.3746,0.0172369,0.0564755,-0.0229434,0.0670442,0.00666812,-1.13913,0.0426476,0.0418948,1252,1800,12.5506,-59.3747
35,-776,13.5082,59.3779,0,0,0,0,0,0,0,-1,1259,1800,13.5082,-59.378
42,-776,9.22717,59.6249,0.0018222,0.043239,-0.0240112,0.0542383,-0.00917707,-1.14124,0.0395742,0.0482433,1266,1800,9.22714,-59.6248
49,-776,9.47131,59.4698,-0.00411775,0.0342768,-0.0234439,0.0453805,-0.0152215,-1.12847,0.0364042,0.0462759,1273,1800,9.47127,-59.4698
56,-776,9.56445,59.3669,0,0,0,0,0,0,0,-1,1280,1800,9.56442,-59.367
63,-776,9.39075,58.0887,0,0,0,0,0,0,0,-1,1287,1800,9.39077,-58.0887
70,-776,9.76465,59.0515,0,0,0,0,0,0,0,-1,1294,1800,9.76463,-59.0516
77,-776,9.51489,59.4263,-0.014937,-0.0189838,-0.0133256,-0.0034821,-0.0304387,-0.710051,0.0192371,0.0482466,1301,1800,9.51492,-59.4262
84,-776,9.42102,59.6302,-0.0155869,-0.029323,-0.0113731,-0.00916902,-0.0357409,-0.513761,0.0214349,0.0480776,1308,1800,9.42106,-59.6302
91,-776,9.26709,59.7739,-0.0127872,-0.0410993,-0.00990362,-0.00966684,-0.0442197,-0.30523,0.0268441,0.0445101,1315,1800,9.26706,-59.7739
98,-776,8.97656,59.5404,-0.0111386,-0.0455048,-0.00847324,-0.009163,-0.0474804,-0.229062,0.0290844,0.0448804,1322,1800,8.97653,-59.5404
105,-776,8.61829,59.4087,0,0,0,0,0,0,0,-1,1329,1800,8.61827,-59.4087
112,-776,8.10498,58.8668,0,0,0,0,0,0,0,-1,1336,1800,8.10503,-58.8668
119,-776,8.24316,58.7864,-0.00676629,-0.0394205,-0.00588984,-0.00573641,-0.0404503,-0.173106,0.0252727,0.0464978,1343,1800,8.24321,-58.7864
126,-776,8.63098,58.5077,-0.0039056,-0.0351747,-0.00549785,-0.00296711,-0.0361132,-0.169071,0.0231499,0.0493324,1350,1800,8.63095,-58.5077
133,-776,8.80945,58.4182,0,0,0,0,0,0,0,-1,1357,1800,8.80941,-58.4182
140,-776,9.03052,60.3544,0,0,0,0,0,0,0,-1,1364,1800,9.03056,-60.3543
147,-776,5.7168,55.2931,0,0,0,0,0,0,0,-1,1371,1800,5.71682,-55.2931
154,-776,38.4338,21.854,0,0,0,0,0,0,0,-1,1378,1800,38.4339,-21.854
161,-776,6.50293,1.1731,0,0,0,0,0,0,0,-1,1385,1800,6.5029,-1.17313
168,-776,8.44971,1.22913,0,0,0,0,0,0,0,-1,1392,1800,8.44974,-1.22915
175,-776,8.61523,2.87061,0,0,0,0,0,0,0,-1,1399,1800,8.6152,-2.87063
182,-776,8.54065,4.60645,0,0,0,0,0,0,0,-1,1406,1800,8.5407,-4.60643
189,-776,8.35303,6.28223,0,0,0,0,0,0,0,-1,1413,1800,8.35297,-6.28225
196,-776,8.0387,8.21704,0,0,0,0,0,0,0,-1,1420,1800,8.03865,-8.217
203,-776,7.91736,9.79919,0,0,0,0,0,0,0,-1,1427,1800,7.91735,-9.79922
210,-776,20.2479,7.85718,0,0,0,0,0,0,0,-1,1434,1800,20.248,-7.85719
217,-776,21.5171,9.3418,0,0,0,0,0,0,0,-1,1441,1800,21.5171,-9.34182
224,-776,3.09253,14.9313,0,0,0,0,0,0,0,-1,1448,1800,3.09254,-14.9313
231,-776,20.8671,9.21057,0,0,0,0,0,0,0,-1,1455,1800,20.867,-9.21054
238,-776,20.7511,9.05847,0,0,0,0,0,0,0,-1,1462,1800,20.7511,-9.05848
245,-776,3.80823,15.4108,0,0,0,0,0,0,0,-1,1469,1800,3.80826,-15.4108
252,-776,8.57837,20.2009,0,0,0,0,0,0,0,-1,1476,1800,8.57841,-20.2009
259,-776,14.1882,7.69055,0,0,0,0,0,0,0,-1,1483,1800,14.1882,-7.69061
266,-776,0,0,0,0,0,0,0,0,0,-1,1490,1800,0,0
273,-776,0,0,0,0,0,0,0,0,0,-1,1497,1800,0,0
280,-776,0,0,0,0,0,0,0,0,0,-1,1504,1800,0,0
287,-776,0,0,0,0,0,0,0,0,0,-1,1511,1800,0,0
294,-776,0,0,0,0,0,0,0,0,0,-1,1518,1800,0,0
301,-776,0,0,0,0,0,0,0,0,0,-1,1525,1800,0,0
308,-776,0,0,0,0,0,0,0,0,0,-1,1532,1800,0,0
315,-776,0,0,0,0,0,0,0,0,0,-1,1539,1800,0,0
322,-776,0,0,0,0,0,0,0,0,0,-1,1546,1800,0,0
329,-776,0,0,0,0,0,0,0,0,0,-1,1553,1800,0,0
336,-776,0,0,0,0,0,0,0,0,0,-1,1560,1800,0,0
343,-776,0,0,0,0,0,0,0,0,0,-1,1567,1800,0,0
350,-776,0,0,0,0,0,0,0,0,0,-1,1574,1800,0,0
357,-776,0,0,0,0,0,0,0,0,0,-1,1581,1800,0,0
364,-776,0,0,0,0,0,0,0,0,0,-1,1588,1800,0,0
371,-776,0,0,0,0,0,0,0,0,0,-1,1595,1800,0,0
378,-776,0,0,0,0,0,0,0,0,0,-1,1602,1800,0,0
385,-776,0,0,0,0,0,0,0,0,0,-1,1609,1800,0,0
392,-776,0,0,0,0,0,0,0,0,0,-1,1616,1800,0,0
399,-776,0,0,0,0,0,0,0,0,0,-1,1623,1800,0,0
406,-776,0,0,0,0,0,0,0,0,0,-1,1630,1800,0,0
413,-776,0,0,0,0,0,0,0,0,0,-1,1637,1800,0,0
420,-776,0,0,0,0,0,0,0,0,0,-1,1644,1800,0,0
427,-776,0,0,0,0,0,0,0,0,0,-1,1651,1800,0,0
434,-776,0,0,0,0,0,0,0,0,0,-1,1658,1800,0,0
441,-776,0,0,0,0,0,0,0,0,0,-1,1665,1800,0,0
448,-776,0,0,0,0,0,0,0,0,0,-1,1672,1800,0,0
455,-776,0,0,0,0,0,0,0,0,0,-1,1679,1800,0,0
462,-776,0,0,0,0,0,0,0,0,0,-1,1686,1800,0,0
469,-776,0,0,0,0,0,0,0,0,0,-1,1693,1800,0,0
476,-776,0,0,0,0,0,0,0,0,0,-1,1700,1800,0,0
483,-776,0,0,0,0,0,0,0,0,0,-1,1707,1800,0,0
490,-776,0,0,0,0,0,0,0,0,0,-1,1714,1800,0,0
497,-776,0,0,0,0,0,0,0,0,0,-1,1721,1800,0,0
504,-776,0,0,0,0,0,0,0,0,0,-1,1728,1800,0,0
511,-776,0,0,0,0,0,0,0,0,0,-1,1735,1800,0,0
518,-776,0,0,0,0,0,0,0,0,0,-1,1742,1800,0,0
525,-776,0,0,0,0,0,0,0,0,0,-1,1749,1800,0,0
532,-776,0,0,0,0,0,0,0,0,0,-1,1756,1800,0,0
539,-776,0,0,0,0,0,0,0,0,0,-1,1763,1800,0,0
546,-776,0,0,0,0,0,0,0,0,0,-1,1770,1800,0,0
553,-776,0,0,0,0,0,0,0,0,0,-1,1777,1800,0,0
560,-776,0,0,0,0,0,0,0,0,0,-1,1784,1800,0,0
567,-776,0,0,0,0,0,0,0,0,0,-1,1791,1800,0,0
574,-776,0,0,0,0,0,0,0,0,0,-1,1798,1800,0,0
581,-776,0,0,0,0,0,0,0,0,0,-1,1805,1800,0,0
588,-776,0,0,0,0,0,0,0,0,0,-1,1812,1800,0,0
595,-776,0,0,0,0,0,0,0,0,0,-1,1819,1800,0,0
602,-776,0,0,0,0,0,0,0,0,0,-1,1826,1800,0,0
609,-776,0,0,0,0,0,0,0,0,0,-1,1833,1800,0,0
616,-776,0,0,0,0,0,0,0,0,0,-1,1840,1800,0,0
623,-776,0,0,0,0,0,0,0,0,0,-1,1847,1800,0,0
630,-776,0,0,0,0,0,0,0,0,0,-1,1854,1800,0,0
637,-776,0,0,0,0,0,0,0,0,0,-1,1861,1800,0,0
644,-776,0,0,0,0,0,0,0,0,0,-1,1868,1800,0,0
651,-776,0,0,0,0,0,0,0,0,0,-1,1875,1800,0,0
658,-776,0,0,0,0,0,0,0,0,0,-1,1882,1800,0,0
665,-776,0,0,0,0,0,0,0,0,0,-1,1889,1800,0,0
672,-776,0,0,0,0,0,0,0,0,0,-1,1896,1800,0,0
679,-776,0,0,0,0,0,0,0,0,0,-1,1903,1800,0,0
686,-776,0,0,0,0,0,0,0,0,0,-1,1910,1800,0,0
693,-776,0,0,0,0,0,0,0,0,0,-1,1917,1800,0,0
700,-776,0,0,0,0,0,0,0,0,0,-1,1924,1800,0,0
707,-776,0,0,0,0,0,0,0,0,0,-1,1931,1800,0,0
714,-776,0,0,0,0,0,0,0,0,0,-1,1938,1800,0,0
721,-776,0,0,0,0,0,0,0,0,0,-1,1945,1800,0,0
728,-776,0,0,0,0,0,0,0,0,0,-1,1952,1800,0,0
735,-776,0,0,0,0,0,0,0,0,0,-1,1959,1800,0,0
742,-776,0,0,0,0,0,0,0,0,0,-1,1966,1800,0,0
749,-776,0,0,0,0,0,0,0,0,0,-1,1973,1800,0,0
756,-776,0,0,0,0,0,0,0,0,0,-1,1980,1800,0,0
763,-776,0,0,0,0,0,0,0,0,0,-1,1987,1800,0,0
770,-776,0,0,0,0,0,0,0,0,0,-1,1994,1800,0,0
777,-776,0,0,0,0,0,0,0,0,0,-1,2001,1800,0,0
784,-776,0,0,0,0,0,0,0,0,0,-1,2008,1800,0,0
791,-776,0,0,0,0,0,0,0,0,0,-1,2015,1800,0,0
798,-776,0,0,0,0,0,0,0,0,0,-1,2022,1800,0,0
805,-776,0,0,0,0,0,0,0,0,0,-1,2029,1800,0,0
812,-776,0,0,0,0,0,0,0,0,0,-1,2036,1800,0,0
-700,-783,0,0,0,0,0,0,0,0,0,-1,524,1807,0,0
-693,-783,0,0,0,0,0,0,0,0,0,-1,531,1807,0,0
-686,-783,0,0,0,0,0,0,0,0,0,-1,538,1807,0,0
-679,-783,0,0,0,0,0,0,0,0,0,-1,545,1807,0,0
-672,-783,0,0,0,0,0,0,0,0,0,-1,552,1807,0,0
-665,-783,0,0,0,0,0,0,0,0,0,-1,559,1807,0,0
-658,-783,0,0,0,0,0,0,0,0,0,-1,566,1807,0,0
-651,-783,0,0,0,0,0,0,0,0,0,-1,573,1807,0,0
-644,-783,0,0,0,0,0,0,0,0,0,-1,580,1807,0,0
-637,-783,0,0,0,0,0,0,0,0,0,-1,587,1807,0,0
-630,-783,0,0,0,0,0,0,0,0,0,-1,594,1807,0,0
-623,-783,0,0,0,0,0,0,0,0,0,-1,601,1807,0,0
-616,-783,0,0,0,0,0,0,0,0,0,-1,608,1807,0,0
-609,-783,0,0,0,0,0,0,0,0,0,-1,615,1807,0,0
-602,-783,0,0,0,0,0,0,0,0,0,-1,622,1807,0,0
-595,-783,0,0,0,0,0,0,0,0,0,-1,629,1807,0,0
-588,-783,0,0,0,0,0,0,0,0,0,-1,636,1807,0,0
-581,-783,0,0,0,0,0,0,0,0,0,-1,643,1807,0,0
-574,-783,0,0,0,0,0,0,0,0,0,-1,650,1807,0,0
-567,-783,0,0,0,0,0,0,0,0,0,-1,657,1807,0,0
-560,-783,0,0,0,0,0,0,0,0,0,-1,664,1807,0,0
-553,-783,0,0,0,0,0,0,0,0,0,-1,671,1807,0,0
-546,-783,0,0,0,0,0,0,0,0,0,-1,678,1807,0,0
-539,-783,0,0,0,0,0,0,0,0,0,-1,685,1807,0,0
-532,-783,0,0,0,0,0,0,0,0,0,-1,692,1807,0,0
-525,-783,0,0,0,0,0,0,0,0,0,-1,699,1807,0,0
-518,-783,0,0,0,0,0,0,0,0,0,-1,706,1807,0,0
-511,-783,0,0,0,0,0,0,0,0,0,-1,713,1807,0,0
-504,-783,0,0,0,0,0,0,0,0,0,-1,720,1807,0,0
-497,-783,0,0,0,0,0,0,0,0,0,-1,727,1807,0,0
-490,-783,0,0,0,0,0,0,0,0,0,-1,734,1807,0,0
-483,-783,0,0,0,0,0,0,0,0,0,-1,741,1807,0,0
-476,-783,0,0,0,0,0,0,0,0,0,-1,748,1807,0,0
-469,-783,0,0,0,0,0,0,0,0,0,-1,755,1807,0,0
-462,-783,0,0,0,0,0,0,0,0,0,-1,762,1807,0,0
-455,-783,0,0,0,0,0,0,0,0,0,-1,769,1807,0,0
-448,-783,0,0,0,0,0,0,0,0,0,-1,776,1807,0,0
-441,-783,0,0,0,0,0,0,0,0,0,-1,783,1807,0,0
-434,-783,0,0,0,0,0,0,0,0,0,-1,790,1807,0,0
-427,-783,0,0,0,0,0,0,0,0,0,-1,797,1807,0,0
-420,-783,0,0,0,0,0,0,0,0,0,-1,804,1807,0,0
-413,-783,0,0,0,0,0,0,0,0,0,-1,811,1807,0,0
-406,-783,0,0,0,0,0,0,0,0,0,-1,818,1807,0,0
-399,-783,0,0,0,0,0,0,0,0,0,-1,825,1807,0,0
-392,-783,0,0,0,0,0,0,0,0,0,-1,832,1807,0,0
-385,-783,0,0,0,0,0,0,0,0,0,-1,839,1807,0,0
-378,-783,0,0,0,0,0,0,0,0,0,-1,846,1807,0,0
-371,-783,0,0,0,0,0,0,0,0,0,-1,853,1807,0,0
-364,-783,0,0,0,0,0,0,0,0,0,-1,860,1807,0,0
-357,-783,0,0,0,0,0,0,0,0,0,-1,867,1807,0,0
-350,-783,0,0,0,0,0,0,0,0,0,-1,874,1807,0,0
-343,-783,0,0,0,0,0,0,0,0,0,-1,881,1807,0,0
-336,-783,0,0,0,0,0,0,0,0,0,-1,888,1807,0,0
-329,-783,0,0,0,0,0,0,0,0,0,-1,895,1807,0,0
-322,-783,0,0,0,0,0,0,0,0,0,-1,902,1807,0,0
-315,-783,0,0,0,0,0,0,0,0,0,-1,909,1807,0,0
-308,-783,0,0,0,0,0,0,0,0,0,-1,916,1807,0,0
-301,-783,0,0,0,0,0,0,0,0,0,-1,923,1807,0,0
-294,-783,0,0,0,0,0,0,0,0,0,-1,930,1807,0,0
-287,-783,0,0,0,0,0,0,0,0,0,-1,937,1807,0,0
-280,-783,0,0,0,0,0,0,0,0,0,-1,944,1807,0,0
-273,-783,0,0,0,0,0,0,0,0,0,-1,951,1807,0,0
-266,-783,0,0,0,0,0,0,0,0,0,-1,958,1807,0,0
-259,-783,0,0,0,0,0,0,0,0,0,-1,965,1807,0,0
-252,-783,0,0,0,0,0,0,0,0,0,-1,972,1807,0,0
-245,-783,0,0,0,0,0,0,0,0,0,-1,979,1807,0,0
-238,-783,0,0,0,0,0,0,0,0,0,-1,986,1807,0,0
-231,-783,0,0,0,0,0,0,0,0,0,-1,993,1807,0,0
-224,-783,0,0,0,0,0,0,0,0,0,-1,1000,1807,0,0
-217,-783,0,0,0,0,0,0,0,0,0,-1,1007,1807,0,0
-210,-783,0,0,0,0,0,0,0,0,0,-1,1014,1807,0,0
-203,-783,0,0,0,0,0,0,0,0,0,-1,1021,1807,0,0
-196,-783,0,0,0,0,0,0,0,0,0,-1,1028,1807,0,0
-189,-783,0,0,0,0,0,0,0,0,0,-1,1035,1807,0,0
-182,-783,0,0,0,0,0,0,0,0,0,-1,1042,1807,0,0
-175,-783,0,0,0,0,0,0,0,0,0,-1,1049,1807,0,0
-168,-783,0,0,0,0,0,0,0,0,0,-1,1056,1807,0,0
-161,-783,0,0,0,0,0,0,0,0,0,-1,1063,1807,0,0
-154,-783,0,0,0,0,0,0,0,0,0,-1,1070,1807,0,0
-147,-783,0,0,0,0,0,0,0,0,0,-1,1077,1807,0,0
-140,-783,0,0,0,0,0,0,0,0,0,-1,1084,1807,0,0
-133,-783,0,0,0,0,0,0,0,0,0,-1,1091,1807,0,0
-126,-783,0,0,0,0,0,0,0,0,0,-1,1098,1807,0,0
-119,-783,0,0,0,0,0,0,0,0,0,-1,1105,1807,0,0
-112,-783,5.33936,14.7699,0,0,0,0,0,0,0,-1,1112,1807,5.33931,-14.7699
-105,-783,6.44263,21.2224,0,0,0,0,0,0,0,-1,1119,1807,6.44263,-21.2224
-98,-783,5.54773,20.5695,0,0,0,0,0,0,0,-1,1126,1807,5.54772,-20.5695
-91,-783,2.6106,20.2491,0,0,0,0,0,0,0,-1,1133,1807,2.61056,-20.2492
-84,-783,-0.0491943,14.5743,0,0,0,0,0,0,0,-1,1140,1807,-0.0491562,-14.5743
-77,-783,0.332764,12.7788,0,0,0,0,0,0,0,-1,1147,1807,0.332743,-12.7788
-70,-783,-1.93176,5.12817,0,0,0,0,0,0,0,-1,1154,1807,-1.93171,-5.12813
-63,-783,-5.31702,10.54,0,0,0,0,0,0,0,-1,1161,1807,-5.31703,-10.54
-56,-783,-6.26135,6.9679,0,0,0,0,0,0,0,-1,1168,1807,-6.26136,-6.96785
-49,-783,-3.17688,4.59705,0,0,0,0,0,0,0,-1,1175,1807,-3.17685,-4.5971
-42,-783,-3.72876,3.1405,0,0,0,0,0,0,0,-1,1182,1807,-3.72874,-3.14055
-35,-783,-3.97046,1.59399,0,0,0,0,0,0,0,-1,1189,1807,-3.97041,-1.59401
-28,-783,-4.12195,0.270386,0,0,0,0,0,0,0,-1,1196,1807,-4.12197,-0.270408
-21,-783,6.06958,57.9203,0,0,0,0,0,0,0,-1,1203,1807,6.06953,-57.9203
-14,-783,7.5094,57.8845,0.1158,0.00625839,0.0274787,0.122306,-0.000248231,0.232505,0.0816205,0.045794,1210,1807,7.5094,-57.8846
-7,-783,9.80762,58.9958,0.0946342,0.0208389,0.0124626,0.096682,0.018791,0.162865,0.0591937,0.0478784,1217,1807,9.80767,-58.9959
0,-783,10.0457,59.3064,0.0749354,0.0370429,-0.000795842,0.0749521,0.0370262,-0.0209903,0.0432747,0.0441874,1224,1807,10.0457,-59.3064
7,-783,10.3529,59.4722,0.0573501,0.0523377,-0.0115088,0.0666224,0.0430654,-0.67819,0.0390103,0.0464835,1231,1807,10.353,-59.4722
14,-783,10.8947,59.5386,0.0414489,0.0664021,-0.0198189,0.0773446,0.0305064,-1.06632,0.0449855,0.0481609,1238,1807,10.8946,-59.5385
21,-783,12.3042,59.1318,0.0270904,0.0783167,-0.0260251,0.0892184,0.0161887,-1.17411,0.0548844,0.0481772,1245,1807,12.3042,-59.1319
28,-783,13.2286,59.0854,0.0162857,0.0761596,-0.028743,0.0877242,0.00472112,-1.18827,0.0569743,0.048345,1252,1807,13.2286,-59.0854
35,-783,14.1697,59.0311,0,0,0,0,0,0,0,-1,1259,1807,14.1697,-59.0312
42,-783,9.31128,59.4597,0,0,0,0,0,0,0,-1,1266,1807,9.31123,-59.4597
49,-783,9.76086,59.3893,0,0,0,0,0,0,0,-1,1273,1807,9.76081,-59.3893
56,-783,2.16602,52.9591,0,0,0,0,0,0,0,-1,1280,1807,2.16606,-52.9591
63,-783,9.26465,59.032,0,0,0,0,0,0,0,-1,1287,1807,9.26466,-59.032
70,-783,9.23596,59.2603,0,0,0,0,0,0,0,-1,1294,1807,9.23598,-59.2603
77,-783,9.25818,59.4745,-0.0197778,-0.0276418,-0.0160416,-0.0071933,-0.0402263,-0.665211,0.0247704,0.0467002,1301,1807,9.25817,-59.4745
84,-783,9.35327,59.6238,-0.019961,-0.0421156,-0.0137466,-0.013384,-0.0486926,-0.446258,0.0290471,0.0473141,1308,1807,9.35326,-59.6238
91,-783,9.28674,59.7433,0,0,0,0,0,0,0,-1,1315,1807,9.28673,-59.7433
98,-783,9.10559,59.9507,0,0,0,0,0,0,0,-1,1322,1807,9.10564,-59.9507
105,-783,8.55078,59.7845,0,0,0,0,0,0,0,-1,1329,1807,8.55079,-59.7845
112,-783,8.28418,58.7405,0,0,0,0,0,0,0,-1,1336,1807,8.28414,-58.7405
119,-783,8.33398,58.7339,0,0,0,0,0,0,0,-1,1343,1807,8.33404,-58.7338
126,-783,8.51025,58.5503,0,0,0,0,0,0,0,-1,1350,1807,8.51022,-58.5503
133,-783,8.63928,58.7917,0,0,0,0,0,0,0,-1,1357,1807,8.63924,-58.7918
140,-783,11.7107,59.1392,0,0,0,0,0,0,0,-1,1364,1807,11.7107,-59.1392
147,-783,15.1754,55.6388,0,0,0,0,0,0,0,-1,1371,1807,15.1754,-55.6388
154,-783,38.2109,17.545,0,0,0,0,0,0,0,-1,1378,1807,38.2109,-17.545
161,-783,39.5087,17.5449,0,0,0,0,0,0,0,-1,1385,1807,39.5087,-17.545
168,-783,8.62561,1.79944,0,0,0,0,0,0,0,-1,1392,1807,8.62561,-1.79946
175,-783,8.78699,3.40857,0,0,0,0,0,0,0,-1,1399,1807,8.78697,-3.40854
182,-783,8.70984,5.14661,0,0,0,0,0,0,0,-1,1406,1807,8.70989,-5.14666
189,-783,8.55762,6.79871,0,0,0,0,0,0,0,-1,1413,1807,8.55766,-6.79872
196,-783,8.25488,8.66626,0,0,0,0,0,0,0,-1,1420,1807,8.25492,-8.66628
203,-783,7.86755,10.5735,0,0,0,0,0,0,0,-1,1427,1807,7.8676,-10.5734
210,-783,5.6969,8.99231,0,0,0,0,0,0,0,-1,1434,1807,5.69693,-8.99234
217,-783,5.28503,3.80872,0,0,0,0,0,0,0,-1,1441,1807,5.285,-3.80868
224,-783,3.22571,6.62903,0,0,0,0,0,0,0,-1,1448,1807,3.2257,-6.62907
231,-783,4.27942,4.56262,0,0,0,0,0,0,0,-1,1455,1807,4.27948,-4.56267
238,-783,0,0,0,0,0,0,0,0,0,-1,1462,1807,0,0
245,-783,0,0,0,0,0,0,0,0,0,-1,1469,1807,0,0
252,-783,0,0,0,0,0,0,0,0,0,-1,1476,1807,0,0
259,-783,0,0,0,0,0,0,0,0,0,-1,1483,1807,0,0
266,-783,0,0,0,0,0,0,0,0,0,-1,1490,1807,0,0
273,-783,0,0,0,0,0,0,0,0,0,-1,1497,1807,0,0
280,-783,0,0,0,0,0,0,0,0,0,-1,1504,1807,0,0
287,-783,0,0,0,0,0,0,0,0,0,-1,1511,1807,0,0
294,-783,0,0,0,0,0,0,0,0,0,-1,1518,1807,0,0
301,-783,0,0,0,0,0,0,0,0,0,-1,1525,1807,0,0
308,-783,0,0,0,0,0,0,0,0,0,-1,1532,1807,0,0
315,-783,0,0,0,0,0,0,0,0,0,-1,1539,1807,0,0
322,-783,0,0,0,0,0,0,0,0,0,-1,1546,1807,0,0
329,-783,0,0,0,0,0,0,0,0,0,-1,1553,1807,0,0
336,-783,0,0,0,0,0,0,0,0,0,-1,1560,1807,0,0
343,-783,0,0,0,0,0,0,0,0,0,-1,1567,1807,0,0
350,-783,0,0,0,0,0,0,0,0,0,-1,1574,1807,0,0
357,-783,0,0,0,0,0,0,0,0,0,-1,1581,1807,0,0
364,-783,0,0,0,0,0,0,0,0,0,-1,1588,1807,0,0
371,-783,0,0,0,0,0,0,0,0,0,-1,1595,1807,0,0
378,-783,0,0,0,0,0,0,0,0,0,-1,1602,1807,0,0
385,-783,0,0,0,0,0,0,0,0,0,-1,1609,1807,0,0
392,-783,0,0,0,0,0,0,0,0,0,-1,1616,1807,0,0
399,-783,0,0,0,0,0,0,0,0,0,-1,1623,1807,0,0
406,-783,0,0,0,0,0,0,0,0,0,-1,1630,1807,0,0
413,-783,0,0,0,0,0,0,0,0,0,-1,1637,1807,0,0
420,-783,0,0,0,0,0,0,0,0,0,-1,1644,1807,0,0
427,-783,0,0,0,0,0,0,0,0,0,-1,1651,1807,0,0
434,-783,0,0,0,0,0,0,0,0,0,-1,1658,1807,0,0
441,-783,0,0,0,0,0,0,0,0,0,-1,1665,1807,0,0
448,-783,0,0,0,0,0,0,0,0,0,-1,1672,1807,0,0
455,-783,0,0,0,0,0,0,0,0,0,-1,1679,1807,0,0
462,-783,0,0,0,0,0,0,0,0,0,-1,1686,1807,0,0
469,-783,0,0,0,0,0,0,0,0,0,-1,1693,1807,0,0
476,-783,0,0,0,0,0,0,0,0,0,-1,1700,1807,0,0
483,-783,0,0,0,0,0,0,0,0,0,-1,1707,1807,0,0
490,-783,0,0,0,0,0,0,0,0,0,-1,1714,1807,0,0
497,-783,0,0,0,0,0,0,0,0,0,-1,1721,1807,0,0
504,-783,0,0,0,0,0,0,0,0,0,-1,1728,1807,0,0
511,-783,0,0,0,0,0,0,0,0,0,-1,1735,1807,0,0
518,-783,0,0,0,0,0,0,0,0,0,-1,1742,1807,0,0
525,-783,0,0,0,0,0,0,0,0,0,-1,1749,1807,0,0
532,-783,0,0,0,0,0,0,0,0,0,-1,1756,1807,0,0
539,-783,0,0,0,0,0,0,0,0,0,-1,1763,1807,0,0
546,-783,0,0,0,0,0,0,0,0,0,-1,1770,1807,0,0
553,-783,0,0,0,0,0,0,0,0,0,-1,1777,1807,0,0
560,-783,0,0,0,0,0,0,0,0,0,-1,1784,1807,0,0
567,-783,0,0,0,0,0,0,0,0,0,-1,1791,1807,0,0
574,-783,0,0,0,0,0,0,0,0,0,-1,1798,1807,0,0
581,-783,0,0,0,0,0,0,0,0,0,-1,1805,1807,0,0
588,-783,0,0,0,0,0,0,0,0,0,-1,1812,1807,0,0
595,-783,0,0,0,0,0,0,0,0,0,-1,1819,1807,0,0
602,-783,0,0,0,0,0,0,0,0,0,-1,1826,1807,0,0
609,-783,0,0,0,0,0,0,0,0,0,-1,1833,1807,0,0
616,-783,0,0,0,0,0,0,0,0,0,-1,1840,1807,0,0
623,-783,0,0,0,0,0,0,0,0,0,-1,1847,1807,0,0
630,-783,0,0,0,0,0,0,0,0,0,-1,1854,1807,0,0
637,-783,0,0,0,0,0,0,0,0,0,-1,1861,1807,0,0
644,-783,0,0,0,0,0,0,0,0,0,-1,1868,1807,0,0
651,-783,0,0,0,0,0,0,0,0,0,-1,1875,1807,0,0
658,-783,0,0,0,0,0,0,0,0,0,-1,1882,1807,0,0
665,-783,0,0,0,0,0,0,0,0,0,-1,1889,1807,0,0
672,-783,0,0,0,0,0,0,0,0,0,-1,1896,1807,0,0
679,-783,0,0,0,0,0,0,0,0,0,-1,1903,1807,0,0
686,-783,0,0,0,0,0,0,0,0,0,-1,1910,1807,0,0
693,-783,0,0,0,0,0,0,0,0,0,-1,1917,1807,0,0
700,-783,0,0,0,0,0,0,0,0,0,-1,1924,1807,0,0
707,-783,0,0,0,0,0,0,0,0,0,-1,1931,1807,0,0
714,-783,0,0,0,0,0,0,0,0,0,-1,1938,1807,0,0
721,-783,0,0,0,0,0,0,0,0,0,-1,1945,1807,0,0
728,-783,0,0,0,0,0,0,0,0,0,-1,1952,1807,0,0
735,-783,0,0,0,0,0,0,0,0,0,-1,1959,1807,0,0
742,-783,0,0,0,0,0,0,0,0,0,-1,1966,1807,0,0
749,-783,0,0,0,0,0,0,0,0,0,-1,1973,1807,0,0
756,-783,0,0,0,0,0,0,0,0,0,-1,1980,1807,0,0
763,-783,0,0,0,0,0,0,0,0,0,-1,1987,1807,0,0
770,-783,0,0,0,0,0,0,0,0,0,-1,1994,1807,0,0
777,-783,0,0,0,0,0,0,0,0,0,-1,2001,1807,0,0
784,-783,0,0,0,0,0,0,0,0,0,-1,2008,1807,0,0
791,-783,0,0,0,0,0,0,0,0,0,-1,2015,1807,0,0
798,-783,0,0,0,0,0,0,0,0,0,-1,2022,1807,0,0
805,-783,0,0,0,0,0,0,0,0,0,-1,2029,1807,0,0
812,-783,0,0,0,0,0,0,0,0,0,-1,2036,1807,0,0
-700,-790,0,0,0,0,0,0,0,0,0,-1,524,1814,0,0
-693,-790,0,0,0,0,0,0,0,0,0,-1,531,1814,0,0
-686,-790,0,0,0,0,0,0,0,0,0,-1,538,1814,0,0
-679,-790,0,0,0,0,0,0,0,0,0,-1,545,1814,0,0
-672,-790,0,0,0,0,0,0,0,0,0,-1,552,1814,0,0
-665,-790,0,0,0,0,0,0,0,0,0,-1,559,1814,0,0
-658,-790,0,0,0,0,0,0,0,0,0,-1,566,1814,0,0
-651,-790,0,0,0,0,0,0,0,0,0,-1,573,1814,0,0
-644,-790,0,0,0,0,0,0,0,0,0,-1,580,1814,0,0
-637,-790,0,0,0,0,0,0,0,0,0,-1,587,1814,0,0
-630,-790,0,0,0,0,0,0,0,0,0,-1,594,1814,0,0
-623,-790,0,0,0,0,0,0,0,0,0,-1,601,1814,0,0
-616,-790,0,0,0,0,0,0,0,0,0,-1,608,1814,0,0
-609,-790,0,0,0,0,0,0,0,0,0,-1,615,1814,0,0
-602,-790,0,0,0,0,0,0,0,0,0,-1,622,1814,0,0
-595,-790,0,0,0,0,0,0,0,0,0,-1,629,1814,0,0
-588,-790,0,0,0,0,0,0,0,0,0,-1,636,1814,0,0
-581,-790,0,0,0,0,0,0,0,0,0,-1,643,1814,0,0
-574,-790,0,0,0,0,0,0,0,0,0,-1,650,1814,0,0
-567,-790,0,0,0,0,0,0,0,0,0,-1,657,1814,0,0
-560,-790,0,0,0,0,0,0,0,0,0,-1,664,1814,0,0
-553,-790,0,0,0,0,0,0,0,0,0,-1,671,1814,0,0
-546,-790,0,0,0,0,0,0,0,0,0,-1,678,1814,0,0
-539,-790,0,0,0,0,0,0,0,0,0,-1,685,1814,0,0
-532,-790,0,0,0,0,0,0,0,0,0,-1,692,1814,0,0
-525,-790,0,0,0,0,0,0,0,0,0,-1,699,1814,0,0
-518,-790,0,0,0,0,0,0,0,0,0,-1,706,1814,0,0
-511,-790,0,0,0,0,0,0,0,0,0,-1,713,1814,0,0
-504,-790,0,0,0,0,0,0,0,0,0,-1,720,1814,0,0
-497,-790,0,0,0,0,0,0,0,0,0,-1,727,1814,0,0
-490,-790,0,0,0,0,0,0,0,0,0,-1,734,1814,0,0
-483,-790,0,0,0,0,0,0,0,0,0,-1,741,1814,0,0
-476,-790,0,0,0,0,0,0,0,0,0,-1,748,1814,0,0
-469,-790,0,0,0,0,0,0,0,0,0,-1,755,1814,0,0
-462,-790,0,0,0,0,0,0,0,0,0,-1,762,1814,0,0
-455,-790,0,0,0,0,0,0,0,0,0,-1,769,1814,0,0
-448,-790,0,0,0,0,0,0,0,0,0,-1,776,1814,0,0
-441,-790,0,0,0,0,0,0,0,0,0,-1,783,1814,0,0
-434,-790,0,0,0,0,0,0,0,0,0,-1,790,1814,0,0
-427,-790,0,0,0,0,0,0,0,0,0,-1,797,1814,0,0
-420,-790,0,0,0,0,0,0,0,0,0,-1,804,1814,0,0
-413,-790,0,0,0,0,0,0,0,0,0,-1,811,1814,0,0
-406,-790,0,0,0,0,0,0,0,0,0,-1,818,1814,0,0
-399,-790,0,0,0,0,0,0,0,0,0,-1,825,1814,0,0
-392,-790,0,0,0,0,0,0,0,0,0,-1,832,1814,0,0
-385,-790,0,0,0,0,0,0,0,0,0,-1,839,1814,0,0
-378,-790,0,0,0,0,0,0,0,0,0,-1,846,1814,0,0
-371,-790,0,0,0,0,0,0,0,0,0,-1,853,1814,0,0
-364,-790,0,0,0,0,0,0,0,0,0,-1,860,1814,0,0
-357,-790,0,0,0,0,0,0,0,0,0,-1,867,1814,0,0
-350,-790,0,0,0,0,0,0,0,0,0,-1,874,1814,0,0
-343,-790,0,0,0,0,0,0,0,0,0,-1,881,1814,0,0
-336,-790,0,0,0,0,0,0,0,0,0,-1,888,1814,0,0
-329,-790,0,0,0,0,0,0,0,0,0,-1,895,1814,0,0
-322,-790,0,0,0,0,0,0,0,0,0,-1,902,1814,0,0
-315,-790,0,0,0,0,0,0,0,0,0,-1,909,1814,0,0
-308,-790,0,0,0,0,0,0,0,0,0,-1,916,1814,0,0
-301,-790,0,0,0,0,0,0,0,0,0,-1,923,1814,0,0
-294,-790,0,0,0,0,0,0,0,0,0,-1,930,1814,0,0
-287,-790,0,0,0,0,0,0,0,0,0,-1,937,1814,0,0
-280,-790,0,0,0,0,0,0,0,0,0,-1,944,1814,0,0
-273,-790,0,0,0,0,0,0,0,0,0,-1,951,1814,0,0
-266,-790,0,0,0,0,0,0,0,0,0,-1,958,1814,0,0
-259,-790,0,0,0,0,0,0,0,0,0,-1,965,1814,0,0
-252,-790,0,0,0,0,0,0,0,0,0,-1,972,1814,0,0
-245,-790,0,0,0,0,0,0,0,0,0,-1,979,1814,0,0
-238,-790,0,0,0,0,0,0,0,0,0,-1,986,1814,0,0
-231,-790,0,0,0,0,0,0,0,0,0,-1,993,1814,0,0
-224,-790,0,0,0,0,0,0,0,0,0,-1,1000,1814,0,0
-217,-790,0,0,0,0,0,0,0,0,0,-1,1007,1814,0,0
-210,-790,0,0,0,0,0,0,0,0,0,-1,1014,1814,0,0
-203,-790,0,0,0,0,0,0,0,0,0,-1,1021,1814,0,0
-196,-790,0,0,0,0,0,0,0,0,0,-1,1028,1814,0,0
-189,-790,0,0,0,0,0,0,0,0,0,-1,1035,1814,0,0
-182,-790,0,0,0,0,0,0,0,0,0,-1,1042,1814,0,0
-175,-790,0,0,0,0,0,0,0,0,0,-1,1049,1814,0,0
-168,-790,0,0,0,0,0,0,0,0,0,-1,1056,1814,0,0
-161,-790,0,0,0,0,0,0,0,0,0,-1,1063,1814,0,0
-154,-790,0,0,0,0,0,0,0,0,0,-1,1070,1814,0,0
-147,-790,0,0,0,0,0,0,0,0,0,-1,1077,1814,0,0
-140,-790,0,0,0,0,0,0,0,0,0,-1,1084,1814,0,0
-133,-790,0,0,0,0,0,0,0,0,0,-1,1091,1814,0,0
-126,-790,0,0,0,0,0,0,0,0,0,-1,1098,1814,0,0
-119,-790,0,0,0,0,0,0,0,0,0,-1,1105,1814,0,0
-112,-790,0,0,0,0,0,0,0,0,0,-1,1112,1814,0,0
-105,-790,0,0,0,0,0,0,0,0,0,-1,1119,1814,0,0
-98,-790,0,0,0,0,0,0,0,0,0,-1,1126,1814,0,0
-91,-790,0,0,0,0,0,0,0,0,0,-1,1133,1814,0,0
-84,-790,0,0,0,0,0,0,0,0,0,-1,1140,1814,0,0
-77,-790,-0.969238,5.30847,0,0,0,0,0,0,0,-1,1147,1814,-0.969277,-5.3085
-70,-790,-1.23169,4.98914,0,0,0,0,0,0,0,-1,1154,1814,-1.23163,-4.98916
-63,-790,-1.69128,4.32263,0,0,0,0,0,0,0,-1,1161,1814,-1.69128,-4.32258
-56,-790,-2.24756,3.75305,0,0,0,0,0,0,0,-1,1168,1814,-2.24758,-3.75302
-49,-790,-3.11011,3.35779,0,0,0,0,0,0,0,-1,1175,1814,-3.11006,-3.35781
-42,-790,0.593262,1.19165,0,0,0,0,0,0,0,-1,1182,1814,0.593225,-1.19165
-35,-790,0.307129,-0.20105,0,0,0,0,0,0,0,-1,1189,1814,0.307178,0.201006
-28,-790,-2.78467,0.785156,0,0,0,0,0,0,0,-1,1196,1814,-2.78471,-0.785183
-21,-790,11.5181,59.9904,0,0,0,0,0,0,0,-1,1203,1814,11.5181,-59.9904
-14,-790,9.8175,58.9298,0,0,0,0,0,0,0,-1,1210,1814,9.81752,-58.9298
-7,-790,9.96289,59.1808,0.115694,0.0252721,0.0170896,0.118816,0.02215,0.180697,0.0729572,0.0491702,1217,1814,9.96285,-59.1808
0,-790,10.1379,59.5078,0.0879224,0.0489923,-0.000655921,0.0879335,0.0489812,-0.0168423,0.0508783,0.0479902,1224,1814,10.138,-59.5078
7,-790,10.4663,59.6738,0,0,0,0,0,0,0,-1,1231,1814,10.4663,-59.6738
14,-790,12.5525,58.7437,0.0433486,0.0881199,-0.0241581,0.0986695,0.032799,-1.15907,0.0580237,0.0425034,1238,1814,12.5525,-58.7436
21,-790,12.7789,58.2014,0.0247262,0.103672,-0.0313603,0.114613,0.0137849,-1.23511,0.0722532,0.0459635,1245,1814,12.779,-58.2015
28,-790,13.8213,58.6964,0,0,0,0,0,0,0,-1,1252,1814,13.8213,-58.6964
35,-790,9.84082,59.6859,0.0017438,0.0878511,-0.034032,0.0996773,-0.0100824,-1.23635,0.0700546,0.0467237,1259,1814,9.84076,-59.686
42,-790,9.69629,59.0126,-0.0089546,0.0732691,-0.03399,0.0855005,-0.021186,-1.22537,0.0652196,0.0436438,1266,1814,9.69634,-59.0126
49,-790,9.66187,58.3539,-0.0158709,0.0564417,-0.0327276,0.069054,-0.0284832,-1.20296,0.0579142,0.0443011,1273,1814,9.66188,-58.3539
56,-790,9.84265,57.7308,0,0,0,0,0,0,0,-1,1280,1814,9.84265,-57.7308
63,-790,11.554,61.868,0,0,0,0,0,0,0,-1,1287,1814,11.554,-61.8681
70,-790,9.24414,59.3208,0,0,0,0,0,0,0,-1,1294,1814,9.24413,-59.3208
77,-790,9.21252,59.6326,-0.0261525,-0.0390539,-0.0186145,-0.0129026,-0.0523038,-0.618603,0.0314629,0.0429643,1301,1814,9.21258,-59.6326
84,-790,9.85486,59.5022,-0.0254944,-0.0587656,-0.0160893,-0.0189867,-0.0652733,-0.384354,0.0387686,0.0438532,1308,1814,9.85482,-59.5022
91,-790,9.72986,60.9524,-0.0208816,-0.0791127,-0.0152959,-0.0171082,-0.0828861,-0.241862,0.0505294,0.0456867,1315,1814,9.72983,-60.9524
98,-790,9.26257,60.8239,-0.0184013,-0.0877297,-0.0131548,-0.0159891,-0.0901418,-0.181351,0.0555374,0.0446721,1322,1814,9.26262,-60.8238
105,-790,8.72302,60.726,0,0,0,0,0,0,0,-1,1329,1814,8.72301,-60.726
112,-790,9.46411,61.0569,0,0,0,0,0,0,0,-1,1336,1814,9.46417,-61.0569
119,-790,8.23608,58.806,0,0,0,0,0,0,0,-1,1343,1814,8.23613,-58.8061
126,-790,6.89526,58.5216,0,0,0,0,0,0,0,-1,1350,1814,6.8953,-58.5217
133,-790,8.22229,58.9509,0,0,0,0,0,0,0,-1,1357,1814,8.22229,-58.9509
140,-790,10.1876,59.4359,0,0,0,0,0,0,0,-1,1364,1814,10.1876,-59.4359
147,-790,11.0602,59.7607,0,0,0,0,0,0,0,-1,1371,1814,11.0602,-59.7608
154,-790,40.215,13.2396,0,0,0,0,0,0,0,-1,1378,1814,40.2149,-13.2396
161,-790,39.3429,13.0336,0,0,0,0,0,0,0,-1,1385,1814,39.3429,-13.0336
168,-790,7.04077,2.23279,0,0,0,0,0,0,0,-1,1392,1814,7.04082,-2.23275
175,-790,9.03918,3.98535,0,0,0,0,0,0,0,-1,1399,1814,9.0392,-3.98535
182,-790,8.96997,5.67896,0,0,0,0,0,0,0,-1,1406,1814,8.97001,-5.6789
189,-790,8.59729,6.86975,0,0,0,0,0,0,0,-1,1413,1814,8.59728,-6.86972
196,-790,8.21924,9.29053,0,0,0,0,0,0,0,-1,1420,1814,8.21924,-9.29048
203,-790,0,0,0,0,0,0,0,0,0,-1,1427,1814,0,0
210,-790,0,0,0,0,0,0,0,0,0,-1,1434,1814,0,0
217,-790,0,0,0,0,0,0,0,0,0,-1,1441,1814,0,0
224,-790,0,0,0,0,0,0,0,0,0,-1,1448,1814,0,0
231,-790,0,0,0,0,0,0,0,0,0,-1,1455,1814,0,0
238,-790,0,0,0,0,0,0,0,0,0,-1,1462,1814,0,0
245,-790,0,0,0,0,0,0,0,0,0,-1,1469,1814,0,0
252,-790,0,0,0,0,0,0,0,0,0,-1,1476,1814,0,0
259,-790,0,0,0,0,0,0,0,0,0,-1,1483,1814,0,0
266,-790,0,0,0,0,0,0,0,0,0,-1,1490,1814,0,0
273,-790,0,0,0,0,0,0,0,0,0,-1,1497,1814,0,0
280,-790,0,0,0,0,0,0,0,0,0,-1,1504,1814,0,0
287,-790,0,0,0,0,0,0,0,0,0,-1,1511,1814,0,0
294,-790,0,0,0,0,0,0,0,0,0,-1,1518,1814,0,0
301,-790,0,0,0,0,0,0,0,0,0,-1,1525,1814,0,0
308,-790,0,0,0,0,0,0,0,0,0,-1,1532,1814,0,0
315,-790,0,0,0,0,0,0,0,0,0,-1,1539,1814,0,0
322,-790,0,0,0,0,0,0,0,0,0,-1,1546,1814,0,0
329,-790,0,0,0,0,0,0,0,0,0,-1,1553,1814,0,0
336,-790,0,0,0,0,0,0,0,0,0,-1,1560,1814,0,0
343,-790,0,0,0,0,0,0,0,0,0,-1,1567,1814,0,0
350,-790,0,0,0,0,0,0,0,0,0,-1,1574,1814,0,0
357,-790,0,0,0,0,0,0,0,0,0,-1,1581,1814,0,0
364,-790,0,0,0,0,0,0,0,0,0,-1,1588,1814,0,0
371,-790,0,0,0,0,0,0,0,0,0,-1,1595,1814,0,0
378,-790,0,0,0,0,0,0,0,0,0,-1,1602,1814,0,0
385,-790,0,0,0,0,0,0,0,0,0,-1,1609,1814,0,0
392,-790,0,0,0,0,0,0,0,0,0,-1,1616,1814,0,0
399,-790,0,0,0,0,0,0,0,0,0,-1,1623,1814,0,0
406,-790,0,0,0,0,0,0,0,0,0,-1,1630,1814,0,0
413,-790,0,0,0,0,0,0,0,0,0,-1,1637,1814,0,0
420,-790,0,0,0,0,0,0,0,0,0,-1,1644,1814,0,0
427,-790,0,0,0,0,0,0,0,0,0,-1,1651,1814,0,0
434,-790,0,0,0,0,0,0,0,0,0,-1,1658,1814,0,0
441,-790,0,0,0,0,0,0,0,0,0,-1,1665,1814,0,0
448,-790,0,0,0,0,0,0,0,0,0,-1,1672,1814,0,0
455,-790,0,0,0,0,0,0,0,0,0,-1,1679,1814,0,0
462,-790,0,0,0,0,0,0,0,0,0,-1,1686,1814,0,0
469,-790,0,0,0,0,0,0,0,0,0,-1,1693,1814,0,0
476,-790,0,0,0,0,0,0,0,0,0,-1,1700,1814,0,0
483,-790,0,0,0,0,0,0,0,0,0,-1,1707,1814,0,0
490,-790,0,0,0,0,0,0,0,0,0,-1,1714,1814,0,0
497,-790,0,0,0,0,0,0,0,0,0,-1,1721,1814,0,0
504,-790,0,0,0,0,0,0,0,0,0,-1,1728,1814,0,0
511,-790,0,0,0,0,0,0,0,0,0,-1,1735,1814,0,0
518,-790,0,0,0,0,0,0,0,0,0,-1,1742,1814,0,0
525,-790,0,0,0,0,0,0,0,0,0,-1,1749,1814,0,0
532,-790,0,0,0,0,0,0,0,0,0,-1,1756,1814,0,0
539,-790,0,0,0,0,0,0,0,0,0,-1,1763,1814,0,0
546,-790,0,0,0,0,0,0,0,0,0,-1,1770,1814,0,0
553,-790,0,0,0,0,0,0,0,0,0,-1,1777,1814,0,0
560,-790,0,0,0,0,0,0,0,0,0,-1,1784,1814,0,0
567,-790,0,0,0,0,0,0,0,0,0,-1,1791,1814,0,0
574,-790,0,0,0,0,0,0,0,0,0,-1,1798,1814,0,0
581,-790,0,0,0,0,0,0,0,0,0,-1,1805,1814,0,0
588,-790,0,0,0,0,0,0,0,0,0,-1,1812,1814,0,0
595,-790,0,0,0,0,0,0,0,0,0,-1,1819,1814,0,0
602,-790,0,0,0,0,0,0,0,0,0,-1,1826,1814,0,0
609,-790,0,0,0,0,0,0,0,0,0,-1,1833,1814,0,0
616,-790,0,0,0,0,0,0,0,0,0,-1,1840,1814,0,0
623,-790,0,0,0,0,0,0,0,0,0,-1,1847,1814,0,0
630,-790,0,0,0,0,0,0,0,0,0,-1,1854,1814,0,0
637,-790,0,0,0,0,0,0,0,0,0,-1,1861,1814,0,0
644,-790,0,0,0,0,0,0,0,0,0,-1,1868,1814,0,0
651,-790,0,0,0,0,0,0,0,0,0,-1,1875,1814,0,0
658,-790,0,0,0,0,0,0,0,0,0,-1,1882,1814,0,0
665,-790,0,0,0,0,0,0,0,0,0,-1,1889,1814,0,0
672,-790,0,0,0,0,0,0,0,0,0,-1,1896,1814,0,0
679,-790,0,0,0,0,0,0,0,0,0,-1,1903,1814,0,0
686,-790,0,0,0,0,0,0,0,0,0,-1,1910,1814,0,0
693,-790,0,0,0,0,0,0,0,0,0,-1,1917,1814,0,0
700,-790,0,0,0,0,0,0,0,0,0,-1,1924,1814,0,0
707,-790,0,0,0,0,0,0,0,0,0,-1,1931,1814,0,0
714,-790,0,0,0,0,0,0,0,0,0,-1,1938,1814,0,0
721,-790,0,0,0,0,0,0,0,0,0,-1,1945,1814,0,0
728,-790,0,0,0,0,0,0,0,0,0,-1,1952,1814,0,0
735,-790,0,0,0,0,0,0,0,0,0,-1,1959,1814,0,0
742,-790,0,0,0,0,0,0,0,0,0,-1,1966,1814,0,0
749,-790,0,0,0,0,0,0,0,0,0,-1,1973,1814,0,0
756,-790,0,0,0,0,0,0,0,0,0,-1,1980,1814,0,0
763,-790,0,0,0,0,0,0,0,0,0,-1,1987,1814,0,0
770,-790,0,0,0,0,0,0,0,0,0,-1,1994,1814,0,0
777,-790,0,0,0,0,0,0,0,0,0,-1,2001,1814,0,0
784,-790,0,0,0,0,0,0,0,0,0,-1,2008,1814,0,0
791,-790,0,0,0,0,0,0,0,0,0,-1,2015,1814,0,0
798,-790,0,0,0,0,0,0,0,0,0,-1,2022,1814,0,0
805,-790,0,0,0,0,0,0,0,0,0,-1,2029,1814,0,0
812,-790,0,0,0,0,0,0,0,0,0,-1,2036,1814,0,0
-700,-797,0,0,0,0,0,0,0,0,0,-1,524,1821,0,0
-693,-797,0,0,0,0,0,0,0,0,0,-1,531,1821,0,0
-686,-797,0,0,0,0,0,0,0,0,0,-1,538,1821,0,0
-679,-797,0,0,0,0,0,0,0,0,0,-1,545,1821,0,0
-672,-797,0,0,0,0,0,0,0,0,0,-1,552,1821,0,0
-665,-797,0,0,0,0,0,0,0,0,0,-1,559,1821,0,0
-658,-797,0,0,0,0,0,0,0,0,0,-1,566,1821,0,0
-651,-797,0,0,0,0,0,0,0,0,0,-1,573,1821,0,0
-644,-797,0,0,0,0,0,0,0,0,0,-1,580,1821,0,0
-637,-797,0,0,0,0,0,0,0,0,0,-1,587,1821,0,0
-630,-797,0,0,0,0,0,0,0,0,0,-1,594,1821,0,0
-623,-797,0,0,0,0,0,0,0,0,0,-1,601,1821,0,0
-616,-797,0,0,0,0,0,0,0,0,0,-1,608,1821,0,0
-609,-797,0,0,0,0,0,0,0,0,0,-1,615,1821,0,0
-602,-797,0,0,0,0,0,0,0,0,0,-1,622,1821,0,0
-595,-797,0,0,0,0,0,0,0,0,0,-1,629,1821,0,0
-588,-797,0,0,0,0,0,0,0,0,0,-1,636,1821,0,0
-581,-797,0,0,0,0,0,0,0,0,0,-1,643,1821,0,0
-574,-797,0,0,0,0,0,0,0,0,0,-1,650,1821,0,0
-567,-797,0,0,0,0,0,0,0,0,0,-1,657,1821,0,0
-560,-797,0,0,0,0,0,0,0,0,0,-1,664,1821,0,0
-553,-797,0,0,0,0,0,0,0,0,0,-1,671,1821,0,0
-546,-797,0,0,0,0,0,0,0,0,0,-1,678,1821,0,0
-539,-797,0,0,0,0,0,0,0,0,0,-1,685,1821,0,0
-532,-797,0,0,0,0,0,0,0,0,0,-1,692,1821,0,0
-525,-797,0,0,0,0,0,0,0,0,0,-1,699,1821,0,0
-518,-797,0,0,0,0,0,0,0,0,0,-1,706,1821,0,0
-511,-797,0,0,0,0,0,0,0,0,0,-1,713,1821,0,0
-504,-797,0,0,0,0,0,0,0,0,0,-1,720,1821,0,0
-497,-797,0,0,0,0,0,0,0,0,0,-1,727,1821,0,0
-490,-797,0,0,0,0,0,0,0,0,0,-1,734,1821,0,0
-483,-797,0,0,0,0,0,0,0,0,0,-1,741,1821,0,0
-476,-797,0,0,0,0,0,0,0,0,0,-1,748,1821,0,0
-469,-797,0,0,0,0,0,0,0,0,0,-1,755,1821,0,0
-462,-797,0,0,0,0,0,0,0,0,0,-1,762,1821,0,0
-455,-797,0,0,0,0,0,0,0,0,0,-1,769,1821,0,0
-448,-797,0,0,0,0,0,0,0,0,0,-1,776,1821,0,0
-441,-797,0,0,0,0,0,0,0,0,0,-1,783,1821,0,0
-434,-797,0,0,0,0,0,0,0,0,0,-1,790,1821,0,0
-427,-797,0,0,0,0,0,0,0,0,0,-1,797,1821,0,0
-420,-797,0,0,0,0,0,0,0,0,0,-1,804,1821,0,0
-413,-797,0,0,0,0,0,0,0,0,0,-1,811,1821,0,0
-406,-797,0,0,0,0,0,0,0,0,0,-1,818,1821,0,0
-399,-797,0,0,0,0,0,0,0,0,0,-1,825,1821,0,0
-392,-797,0,0,0,0,0,0,0,0,0,-1,832,1821,0,0
-385,-797,0,0,0,0,0,0,0,0,0,-1,839,1821,0,0
-378,-797,0,0,0,0,0,0,0,0,0,-1,846,1821,0,0
-371,-797,0,0,0,0,0,0,0,0,0,-1,853,1821,0,0
-364,-797,0,0,0,0,0,0,0,0,0,-1,860,1821,0,0
-357,-797,0,0,0,0,0,0,0,0,0,-1,867,1821,0,0
-350,-797,0,0,0,0,0,0,0,0,0,-1,874,1821,0,0
-343,-797,0,0,0,0,0,0,0,0,0,-1,881,1821,0,0
-336,-797,0,0,0,0,0,0,0,0,0,-1,888,1821,0,0
-329,-797,0,0,0,0,0,0,0,0,0,-1,895,1821,0,0
-322,-797,0,0,0,0,0,0,0,0,0,-1,902,1821,0,0
-315,-797,0,0,0,0,0,0,0,0,0,-1,909,1821,0,0
-308,-797,0,0,0,0,0,0,0,0,0,-1,916,1821,0,0
-301,-797,0,0,0,0,0,0,0,0,0,-1,923,1821,0,0
-294,-797,0,0,0,0,0,0,0,0,0,-1,930,1821,0,0
-287,-797,0,0,0,0,0,0,0,0,0,-1,937,1821,0,0
-280,-797,0,0,0,0,0,0,0,0,0,-1,944,1821,0,0
-273,-797,0,0,0,0,0,0,0,0,0,-1,951,1821,0,0
-266,-797,0,0,0,0,0,0,0,0,0,-1,958,1821,0,0
-259,-797,0,0,0,0,0,0,0,0,0,-1,965,1821,0,0
-252,-797,0,0,0,0,0,0,0,0,0,-1,972,1821,0,0
-245,-797,0,0,0,0,0,0,0,0,0,-1,979,1821,0,0
-238,-797,0,0,0,0,0,0,0,0,0,-1,986,1821,0,0
-231,-797,0,0,0,0,0,0,0,0,0,-1,993,1821,0,0
-224,-797,0,0,0,0,0,0,0,0,0,-1,1000,1821,0,0
-217,-797,0,0,0,0,0,0,0,0,0,-1,1007,1821,0,0
-210,-797,0,0,0,0,0,0,0,0,0,-1,1014,1821,0,0
-203,-797,0,0,0,0,0,0,0,0,0,-1,1021,1821,0,0
-196,-797,0,0,0,0,0,0,0,0,0,-1,1028,1821,0,0
-189,-797,0,0,0,0,0,0,0,0,0,-1,1035,1821,0,0
-182,-797,0,0,0,0,0,0,0,0,0,-1,1042,1821,0,0
-175,-797,0,0,0,0,0,0,0,0,0,-1,1049,1821,0,0
-168,-797,0,0,0,0,0,0,0,0,0,-1,1056,1821,0,0
-161,-797,0,0,0,0,0,0,0,0,0,-1,1063,1821,0,0
-154,-797,0,0,0,0,0,0,0,0,0,-1,1070,1821,0,0
-147,-797,0,0,0,0,0,0,0,0,0,-1,1077,1821,0,0
-140,-797,0,0,0,0,0,0,0,0,0,-1,1084,1821,0,0
-133,-797,0,0,0,0,0,0,0,0,0,-1,1091,1821,0,0
-126,-797,0,0,0,0,0,0,0,0,0,-1,1098,1821,0,0
-119,-797,0,0,0,0,0,0,0,0,0,-1,1105,1821,0,0
-112,-797,0,0,0,0,0,0,0,0,0,-1,1112,1821,0,0
-105,-797,0,0,0,0,0,0,0,0,0,-1,1119,1821,0,0
-98,-797,0,0,0,0,0,0,0,0,0,-1,1126,1821,0,0
-91,-797,0,0,0,0,0,0,0,0,0,-1,1133,1821,0,0
-84,-797,0,0,0,0,0,0,0,0,0,-1,1140,1821,0,0
-77,-797,0,0,0,0,0,0,0,0,0,-1,1147,1821,0,0
-70,-797,0,0,0,0,0,0,0,0,0,-1,1154,1821,0,0
-63,-797,0,0,0,0,0,0,0,0,0,-1,1161,1821,0,0
-56,-797,0,0,0,0,0,0,0,0,0,-1,1168,1821,0,0
-49,-797,0,0,0,0,0,0,0,0,0,-1,1175,1821,0,0
-42,-797,0.579834,0.692871,0,0,0,0,0,0,0,-1,1182,1821,0.579856,-0.692816
-35,-797,-0.185425,5.55396,0,0,0,0,0,0,0,-1,1189,1821,-0.18542,-5.55396
-28,-797,-0.310181,4.71509,0,0,0,0,0,0,0,-1,1196,1821,-0.310228,-4.71503
-21,-797,8.5199,54.9666,0,0,0,0,0,0,0,-1,1203,1821,8.51988,-54.9665
-14,-797,9.21265,56.4213,0,0,0,0,0,0,0,-1,1210,1821,9.21262,-56.4213
-7,-797,10.1039,59.3492,0,0,0,0,0,0,0,-1,1217,1821,10.1039,-59.3492
0,-797,10.2921,59.671,0,0,0,0,0,0,0,-1,1224,1821,10.2921,-59.671
7,-797,13.2191,58.2253,0,0,0,0,0,0,0,-1,1231,1821,13.2191,-58.2253
14,-797,13.6178,57.7097,0.0394344,0.114759,-0.0274754,0.123716,0.0304776,-1.25567,0.0744283,0.0426267,1238,1821,13.6177,-57.7097
21,-797,13.45,57.4081,0.0162411,0.134065,-0.0353739,0.14387,0.00643671,-1.30042,0.0938411,0.0440237,1245,1821,13.45,-57.4081
28,-797,13.7937,56.9153,0,0,0,0,0,0,0,-1,1252,1821,13.7936,-56.9152
35,-797,14.5713,56.4801,-0.00991224,0.111406,-0.0377376,0.122187,-0.020693,-1.29253,0.0891596,0.0482484,1259,1821,14.5713,-56.4801
42,-797,9.95862,58.2046,-0.0209835,0.0918565,-0.0372134,0.103024,-0.0321509,-1.27926,0.0815405,0.0458036,1266,1821,9.9586,-58.2046
49,-797,9.92957,57.5719,-0.0275117,0.0694439,-0.0356414,0.0811359,-0.0392036,-1.25381,0.0708701,0.0463284,1273,1821,9.92955,-57.5719
56,-797,9.90515,56.9493,0,0,0,0,0,0,0,-1,1280,1821,9.9051,-56.9494
63,-797,11.2745,63.0248,0,0,0,0,0,0,0,-1,1287,1821,11.2745,-63.0248
70,-797,10.8511,62.746,0,0,0,0,0,0,0,-1,1294,1821,10.8511,-62.746
77,-797,10.4619,62.5403,-0.034678,-0.0540222,-0.0206975,-0.0215042,-0.067196,-0.566822,0.0396245,0.0440901,1301,1821,10.4619,-62.5403
84,-797,10.0922,62.3253,-0.0326544,-0.080289,-0.0181693,-0.0265153,-0.0864282,-0.325841,0.0511261,0.0456204,1308,1821,10.0922,-62.3253
91,-797,9.65308,61.9938,-0.0271578,-0.105325,-0.0183937,-0.0230458,-0.109437,-0.219937,0.066618,0.0462509,1315,1821,9.65312,-61.9938
98,-797,9.34045,61.6635,-0.0244104,-0.116583,-0.0158004,-0.021777,-0.119216,-0.165143,0.0733049,0.0445484,1322,1821,9.34042,-61.6635
105,-797,9.14856,61.6014,0,0,0,0,0,0,0,-1,1329,1821,9.14852,-61.6014
112,-797,9.42212,61.4897,0,0,0,0,0,0,0,-1,1336,1821,9.42218,-61.4898
119,-797,9.71423,61.1503,0,0,0,0,0,0,0,-1,1343,1821,9.71417,-61.1503
126,-797,6.04431,58.7643,0,0,0,0,0,0,0,-1,1350,1821,6.04426,-58.7642
133,-797,7.61987,59.363,0,0,0,0,0,0,0,-1,1357,1821,7.61987,-59.3631
140,-797,8.73914,59.8988,0,0,0,0,0,0,0,-1,1364,1821,8.73916,-59.8988
147,-797,9.60864,60.3313,0,0,0,0,0,0,0,-1,1371,1821,9.60868,-60.3313
154,-797,40.2623,8.88733,0,0,0,0,0,0,0,-1,1378,1821,40.2623,-8.88731
161,-797,42.2798,8.17371,0,0,0,0,0,0,0,-1,1385,1821,42.2798,-8.17367
168,-797,0,0,0,0,0,0,0,0,0,-1,1392,1821,0,0
175,-797,0,0,0,0,0,0,0,0,0,-1,1399,1821,0,0
182,-797,0,0,0,0,0,0,0,0,0,-1,1406,1821,0,0
189,-797,0,0,0,0,0,0,0,0,0,-1,1413,1821,0,0
196,-797,0,0,0,0,0,0,0,0,0,-1,1420,1821,0,0
203,-797,0,0,0,0,0,0,0,0,0,-1,1427,1821,0,0
210,-797,0,0,0,0,0,0,0,0,0,-1,1434,1821,0,0
217,-797,0,0,0,0,0,0,0,0,0,-1,1441,1821,0,0
224,-797,0,0,0,0,0,0,0,0,0,-1,1448,1821,0,0
231,-797,0,0,0,0,0,0,0,0,0,-1,1455,1821,0,0
238,-797,0,0,0,0,0,0,0,0,0,-1,1462,1821,0,0
245,-797,0,0,0,0,0,0,0,0,0,-1,1469,1821,0,0
252,-797,0,0,0,0,0,0,0,0,0,-1,1476,1821,0,0
259,-797,0,0,0,0,0,0,0,0,0,-1,1483,1821,0,0
266,-797,0,0,0,0,0,0,0,0,0,-1,1490,1821,0,0
273,-797,0,0,0,0,0,0,0,0,0,-1,1497,1821,0,0
280,-797,0,0,0,0,0,0,0,0,0,-1,1504,1821,0,0
287,-797,0,0,0,0,0,0,0,0,0,-1,1511,1821,0,0
294,-797,0,0,0,0,0,0,0,0,0,-1,1518,1821,0,0
301,-797,0,0,0,0,0,0,0,0,0,-1,1525,1821,0,0
308,-797,0,0,0,0,0,0,0,0,0,-1,1532,1821,0,0
315,-797,0,0,0,0,0,0,0,0,0,-1,1539,1821,0,0
322,-797,0,0,0,0,0,0,0,0,0,-1,1546,1821,0,0
329,-797,0,0,0,0,0,0,0,0,0,-1,1553,1821,0,0
336,-797,0,0,0,0,0,0,0,0,0,-1,1560,1821,0,0
343,-797,0,0,0,0,0,0,0,0,0,-1,1567,1821,0,0
350,-797,0,0,0,0,0,0,0,0,0,-1,1574,1821,0,0
357,-797,0,0,0,0,0,0,0,0,0,-1,1581,1821,0,0
364,-797,0,0,0,0,0,0,0,0,0,-1,1588,1821,0,0
371,-797,0,0,0,0,0,0,0,0,0,-1,1595,1821,0,0
378,-797,0,0,0,0,0,0,0,0,0,-1,1602,1821,0,0
385,-797,0,0,0,0,0,0,0,0,0,-1,1609,1821,0,0
392,-797,0,0,0,0,0,0,0,0,0,-1,1616,1821,0,0
399,-797,0,0,0,0,0,0,0,0,0,-1,1623,1821,0,0
406,-797,0,0,0,0,0,0,0,0,0,-1,1630,1821,0,0
413,-797,0,0,0,0,0,0,0,0,0,-1,1637,1821,0,0
420,-797,0,0,0,0,0,0,0,0,0,-1,1644,1821,0,0
427,-797,0,0,0,0,0,0,0,0,0,-1,1651,1821,0,0
434,-797,0,0,0,0,0,0,0,0,0,-1,1658,1821,0,0
441,-797,0,0,0,0,0,0,0,0,0,-1,1665,1821,0,0
448,-797,0,0,0,0,0,0,0,0,0,-1,1672,1821,0,0
455,-797,0,0,0,0,0,0,0,0,0,-1,1679,1821,0,0
462,-797,0,0,0,0,0,0,0,0,0,-1,1686,1821,0,0
469,-797,0,0,0,0,0,0,0,0,0,-1,1693,1821,0,0
476,-797,0,0,0,0,0,0,0,0,0,-1,1700,1821,0,0
483,-797,0,0,0,0,0,0,0,0,0,-1,1707,1821,0,0
490,-797,0,0,0,0,0,0,0,0,0,-1,1714,1821,0,0
497,-797,0,0,0,0,0,0,0,0,0,-1,1721,1821,0,0
504,-797,0,0,0,0,0,0,0,0,0,-1,1728,1821,0,0
511,-797,0,0,0,0,0,0,0,0,0,-1,1735,1821,0,0
518,-797,0,0,0,0,0,0,0,0,0,-1,1742,1821,0,0
525,-797,0,0,0,0,0,0,0,0,0,-1,1749,1821,0,0
532,-797,0,0,0,0,0,0,0,0,0,-1,1756,1821,0,0
539,-797,0,0,0,0,0,0,0,0,0,-1,1763,1821,0,0
546,-797,0,0,0,0,0,0,0,0,0,-1,1770,1821,0,0
553,-797,0,0,0,0,0,0,0,0,0,-1,1777,1821,0,0
560,-797,0,0,0,0,0,0,0,0,0,-1,1784,1821,0,0
567,-797,0,0,0,0,0,0,0,0,0,-1,1791,1821,0,0
574,-797,0,0,0,0,0,0,0,0,0,-1,1798,1821,0,0
581,-797,0,0,0,0,0,0,0,0,0,-1,1805,1821,0,0
588,-797,0,0,0,0,0,0,0,0,0,-1,1812,1821,0,0
595,-797,0,0,0,0,0,0,0,0,0,-1,1819,1821,0,0
602,-797,0,0,0,0,0,0,0,0,0,-1,1826,1821,0,0
609,-797,0,0,0,0,0,0,0,0,0,-1,1833,1821,0,0
616,-797,0,0,0,0,0,0,0,0,0,-1,1840,1821,0,0
623,-797,0,0,0,0,0,0,0,0,0,-1,1847,1821,0,0
630,-797,0,0,0,0,0,0,0,0,0,-1,1854,1821,0,0
637,-797,0,0,0,0,0,0,0,0,0,-1,1861,1821,0,0
644,-797,0,0,0,0,0,0,0,0,0,-1,1868,1821,0,0
651,-797,0,0,0,0,0,0,0,0,0,-1,1875,1821,0,0
658,-797,0,0,0,0,0,0,0,0,0,-1,1882,1821,0,0
665,-797,0,0,0,0,0,0,0,0,0,-1,1889,1821,0,0
672,-797,0,0,0,0,0,0,0,0,0,-1,1896,1821,0,0
679,-797,0,0,0,0,0,0,0,0,0,-1,1903,1821,0,0
686,-797,0,0,0,0,0,0,0,0,0,-1,1910,1821,0,0
693,-797,0,0,0,0,0,0,0,0,0,-1,1917,1821,0,0
700,-797,0,0,0,0,0,0,0,0,0,-1,1924,1821,0,0
707,-797,0,0,0,0,0,0,0,0,0,-1,1931,1821,0,0
714,-797,0,0,0,0,0,0,0,0,0,-1,1938,1821,0,0
721,-797,0,0,0,0,0,0,0,0,0,-1,1945,1821,0,0
728,-797,0,0,0,0,0,0,0,0,0,-1,1952,1821,0,0
735,-797,0,0,0,0,0,0,0,0,0,-1,1959,1821,0,0
742,-797,0,0,0,0,0,0,0,0,0,-1,1966,1821,0,0
749,-797,0,0,0,0,0,0,0,0,0,-1,1973,1821,0,0
756,-797,0,0,0,0,0,0,0,0,0,-1,1980,1821,0,0
763,-797,0,0,0,0,0,0,0,0,0,-1,1987,1821,0,0
770,-797,0,0,0,0,0,0,0,0,0,-1,1994,1821,0,0
777,-797,0,0,0,0,0,0,0,0,0,-1,2001,1821,0,0
784,-797,0,0,0,0,0,0,0,0,0,-1,2008,1821,0,0
791,-797,0,0,0,0,0,0,0,0,0,-1,2015,1821,0,0
798,-797,0,0,0,0,0,0,0,0,0,-1,2022,1821,0,0
805,-797,0,0,0,0,0,0,0,0,0,-1,2029,1821,0,0
812,-797,0,0,0,0,0,0,0,0,0,-1,2036,1821,0,0
-700,-804,0,0,0,0,0,0,0,0,0,-1,524,1828,0,0
-693,-804,0,0,0,0,0,0,0,0,0,-1,531,1828,0,0
-686,-804,0,0,0,0,0,0,0,0,0,-1,538,1828,0,0
-679,-804,0,0,0,0,0,0,0,0,0,-1,545,1828,0,0
-672,-804,0,0,0,0,0,0,0,0,0,-1,552,1828,0,0
-665,-804,0,0,0,0,0,0,0,0,0,-1,559,1828,0,0
-658,-804,0,0,0,0,0,0,0,0,0,-1,566,1828,0,0
-651,-804,0,0,0,0,0,0,0,0,0,-1,573,1828,0,0
-644,-804,0,0,0,0,0,0,0,0,0,-1,580,1828,0,0
-637,-804,0,0,0,0,0,0,0,0,0,-1,587,1828,0,0
-630,-804,0,0,0,0,0,0,0,0,0,-1,594,1828,0,0
-623,-804,0,0,0,0,0,0,0,0,0,-1,601,1828,0,0
-616,-804,0,0,0,0,0,0,0,0,0,-1,608,1828,0,0
-609,-804,0,0,0,0,0,0,0,0,0,-1,615,1828,0,0
-602,-804,0,0,0,0,0,0,0,0,0,-1,622,1828,0,0
-595,-804,0,0,0,0,0,0,0,0,0,-1,629,1828,0,0
-588,-804,0,0,0,0,0,0,0,0,0,-1,636,1828,0,0
-581,-804,0,0,0,0,0,0,0,0,0,-1,643,1828,0,0
-574,-804,0,0,0,0,0,0,0,0,0,-1,650,1828,0,0
-567,-804,0,0,0,0,0,0,0,0,0,-1,657,1828,0,0
-560,-804,0,0,0,0,0,0,0,0,0,-1,664,1828,0,0
-553,-804,0,0,0,0,0,0,0,0,0,-1,671,1828,0,0
-546,-804,0,0,0,0,0,0,0,0,0,-1,678,1828,0,0
-539,-804,0,0,0,0,0,0,0,0,0,-1,685,1828,0,0
-532,-804,0,0,0,0,0,0,0,0,0,-1,692,1828,0,0
-525,-804,0,0,0,0,0,0,0,0,0,-1,699,1828,0,0
-518,-804,0,0,0,0,0,0,0,0,0,-1,706,1828,0,0
-511,-804,0,0,0,0,0,0,0,0,0,-1,713,1828,0,0
-504,-804,0,0,0,0,0,0,0,0,0,-1,720,1828,0,0
-497,-804,0,0,0,0,0,0,0,0,0,-1,727,1828,0,0
-490,-804,0,0,0,0,0,0,0,0,0,-1,734,1828,0,0
-483,-804,0,0,0,0,0,0,0,0,0,-1,741,1828,0,0
-476,-804,0,0,0,0,0,0,0,0,0,-1,748,1828,0,0
-469,-804,0,0,0,0,0,0,0,0,0,-1,755,1828,0,0
-462,-804,0,0,0,0,0,0,0,0,0,-1,762,1828,0,0
-455,-804,0,0,0,0,0,0,0,0,0,-1,769,1828,0,0
-448,-804,0,0,0,0,0,0,0,0,0,-1,776,1828,0,0
-441,-804,0,0,0,0,0,0,0,0,0,-1,783,1828,0,0
-434,-804,0,0,0,0,0,0,0,0,0,-1,790,1828,0,0
-427,-804,0,0,0,0,0,0,0,0,0,-1,797,1828,0,0
-420,-804,0,0,0,0,0,0,0,0,0,-1,804,1828,0,0
-413,-804,0,0,0,0,0,0,0,0,0,-1,811,1828,0,0
-406,-804,0,0,0,0,0,0,0,0,0,-1,818,1828,0,0
-399,-804,0,0,0,0,0,0,0,0,0,-1,825,1828,0,0
-392,-804,0,0,0,0,0,0,0,0,0,-1,832,1828,0,0
-385,-804,0,0,0,0,0,0,0,0,0,-1,839,1828,0,0
-378,-804,0,0,0,0,0,0,0,0,0,-1,846,1828,0,0
-371,-804,0,0,0,0,0,0,0,0,0,-1,853,1828,0,0
-364,-804,0,0,0,0,0,0,0,0,0,-1,860,1828,0,0
-357,-804,0,0,0,0,0,0,0,0,0,-1,867,1828,0,0
-350,-804,0,0,0,0,0,0,0,0,0,-1,874,1828,0,0
-343,-804,0,0,0,0,0,0,0,0,0,-1,881,1828,0,0
-336,-804,0,0,0,0,0,0,0,0,0,-1,888,1828,0,0
-329,-804,0,0,0,0,0,0,0,0,0,-1,895,1828,0,0
-322,-804,0,0,0,0,0,0,0,0,0,-1,902,1828,0,0
-315,-804,0,0,0,0,0,0,0,0,0,-1,909,1828,0,0
-308,-804,0,0,0,0,0,0,0,0,0,-1,916,1828,0,0
-301,-804,0,0,0,0,0,0,0,0,0,-1,923,1828,0,0
-294,-804,0,0,0,0,0,0,0,0,0,-1,930,1828,0,0
-287,-804,0,0,0,0,0,0,0,0,0,-1,937,1828,0,0
-280,-804,0,0,0,0,0,0,0,0,0,-1,944,1828,0,0
-273,-804,0,0,0,0,0,0,0,0,0,-1,951,1828,0,0
-266,-804,0,0,0,0,0,0,0,0,0,-1,958,1828,0,0
-259,-804,0,0,0,0,0,0,0,0,0,-1,965,1828,0,0
-252,-804,0,0,0,0,0,0,0,0,0,-1,972,1828,0,0
-245,-804,0,0,0,0,0,0,0,0,0,-1,979,1828,0,0
-238,-804,0,0,0,0,0,0,0,0,0,-1,986,1828,0,0
-231,-804,0,0,0,0,0,0,0,0,0,-1,993,1828,0,0
-224,-804,0,0,0,0,0,0,0,0,0,-1,1000,1828,0,0
-217,-804,0,0,0,0,0,0,0,0,0,-1,1007,1828,0,0
-210,-804,0,0,0,0,0,0,0,0,0,-1,1014,1828,0,0
-203,-804,0,0,0,0,0,0,0,0,0,-1,1021,1828,0,0
-196,-804,0,0,0,0,0,0,0,0,0,-1,1028,1828,0,0
-189,-804,0,0,0,0,0,0,0,0,0,-1,1035,1828,0,0
-182,-804,0,0,0,0,0,0,0,0,0,-1,1042,1828,0,0
-175,-804,0,0,0,0,0,0,0,0,0,-1,1049,1828,0,0
-168,-804,0,0,0,0,0,0,0,0,0,-1,1056,1828,0,0
-161,-804,0,0,0,0,0,0,0,0,0,-1,1063,1828,0,0
-154,-804,0,0,0,0,0,0,0,0,0,-1,1070,1828,0,0
-147,-804,0,0,0,0,0,0,0,0,0,-1,1077,1828,0,0
-140,-804,0,0,0,0,0,0,0,0,0,-1,1084,1828,0,0
-133,-804,0,0,0,0,0,0,0,0,0,-1,1091,1828,0,0
-126,-804,0,0,0,0,0,0,0,0,0,-1,1098,1828,0,0
-119,-804,0,0,0,0,0,0,0,0,0,-1,1105,1828,0,0
-112,-804,0,0,0,0,0,0,0,0,0,-1,1112,1828,0,0
-105,-804,0,0,0,0,0,0,0,0,0,-1,1119,1828,0,0
-98,-804,0,0,0,0,0,0,0,0,0,-1,1126,1828,0,0
-91,-804,0,0,0,0,0,0,0,0,0,-1,1133,1828,0,0
-84,-804,0,0,0,0,0,0,0,0,0,-1,1140,1828,0,0
-77,-804,0,0,0,0,0,0,0,0,0,-1,1147,1828,0,0
-70,-804,0,0,0,0,0,0,0,0,0,-1,1154,1828,0,0
-63,-804,0,0,0,0,0,0,0,0,0,-1,1161,1828,0,0
-56,-804,0,0,0,0,0,0,0,0,0,-1,1168,1828,0,0
-49,-804,0,0,0,0,0,0,0,0,0,-1,1175,1828,0,0
-42,-804,0,0,0,0,0,0,0,0,0,-1,1182,1828,0,0
-35,-804,0,0,0,0,0,0,0,0,0,-1,1189,1828,0,0
-28,-804,0,0,0,0,0,0,0,0,0,-1,1196,1828,0,0
-21,-804,0,0,0,0,0,0,0,0,0,-1,1203,1828,0,0
-14,-804,0,0,0,0,0,0,0,0,0,-1,1210,1828,0,0
-7,-804,0,0,0,0,0,0,0,0,0,-1,1217,1828,0,0
0,-804,0,0,0,0,0,0,0,0,0,-1,1224,1828,0,0
7,-804,0,0,0,0,0,0,0,0,0,-1,1231,1828,0,0
14,-804,0,0,0,0,0,0,0,0,0,-1,1238,1828,0,0
21,-804,0,0,0,0,0,0,0,0,0,-1,1245,1828,0,0
28,-804,0,0,0,0,0,0,0,0,0,-1,1252,1828,0,0
35,-804,10.8595,57.7485,-0.0310295,0.138985,-0.0380003,0.147092,-0.0391365,-1.36061,0.113381,0.0453579,1259,1828,10.8595,-57.7485
42,-804,10.6239,57.2631,-0.0412532,0.113207,-0.0370362,0.121629,-0.0496745,-1.34722,0.101769,0.0461496,1266,1828,10.624,-57.263
49,-804,10.4706,56.8254,0,0,0,0,0,0,0,-1,1273,1828,10.4706,-56.8254
56,-804,11.6957,64.257,0,0,0,0,0,0,0,-1,1280,1828,11.6957,-64.2569
63,-804,11.4276,63.9231,0,0,0,0,0,0,0,-1,1287,1828,11.4276,-63.9231
70,-804,11.0343,63.645,0,0,0,0,0,0,0,-1,1294,1828,11.0343,-63.645
77,-804,10.6,63.4364,-0.0465501,-0.0737778,-0.0217388,-0.0345142,-0.0858138,-0.50565,0.0498595,0.0462124,1301,1828,10.6,-63.4364
84,-804,10.1741,63.1782,-0.0423669,-0.108227,-0.0196773,-0.0369356,-0.113658,-0.269309,0.0669471,0.0440132,1308,1828,10.1741,-63.1782
91,-804,0,0,0,0,0,0,0,0,0,-1,1315,1828,0,0
98,-804,0,0,0,0,0,0,0,0,0,-1,1322,1828,0,0
105,-804,0,0,0,0,0,0,0,0,0,-1,1329,1828,0,0
112,-804,0,0,0,0,0,0,0,0,0,-1,1336,1828,0,0
119,-804,0,0,0,0,0,0,0,0,0,-1,1343,1828,0,0
126,-804,0,0,0,0,0,0,0,0,0,-1,1350,1828,0,0
133,-804,0,0,0,0,0,0,0,0,0,-1,1357,1828,0,0
140,-804,0,0,0,0,0,0,0,0,0,-1,1364,1828,0,0
147,-804,0,0,0,0,0,0,0,0,0,-1,1371,1828,0,0
154,-804,0,0,0,0,0,0,0,0,0,-1,1378,1828,0,0
161,-804,0,0,0,0,0,0,0,0,0,-1,1385,1828,0,0
168,-804,0,0,0,0,0,0,0,0,0,-1,1392,1828,0,0
175,-804,0,0,0,0,0,0,0,0,0,-1,1399,1828,0,0
182,-804,0,0,0,0,0,0,0,0,0,-1,1406,1828,0,0
189,-804,0,0,0,0,0,0,0,0,0,-1,1413,1828,0,0
196,-804,0,0,0,0,0,0,0,0,0,-1,1420,1828,0,0
203,-804,0,0,0,0,0,0,0,0,0,-1,1427,1828,0,0
210,-804,0,0,0,0,0,0,0,0,0,-1,1434,1828,0,0
217,-804,0,0,0,0,0,0,0,0,0,-1,1441,1828,0,0
224,-804,0,0,0,0,0,0,0,0,0,-1,1448,1828,0,0
231,-804,0,0,0,0,0,0,0,0,0,-1,1455,1828,0,0
238,-804,0,0,0,0,0,0,0,0,0,-1,1462,1828,0,0
245,-804,0,0,0,0,0,0,0,0,0,-1,1469,1828,0,0
252,-804,0,0,0,0,0,0,0,0,0,-1,1476,1828,0,0
259,-804,0,0,0,0,0,0,0,0,0,-1,1483,1828,0,0
266,-804,0,0,0,0,0,0,0,0,0,-1,1490,1828,0,0
273,-804,0,0,0,0,0,0,0,0,0,-1,1497,1828,0,0
280,-804,0,0,0,0,0,0,0,0,0,-1,1504,1828,0,0
287,-804,0,0,0,0,0,0,0,0,0,-1,1511,1828,0,0
294,-804,0,0,0,0,0,0,0,0,0,-1,1518,1828,0,0
301,-804,0,0,0,0,0,0,0,0,0,-1,1525,1828,0,0
308,-804,0,0,0,0,0,0,0,0,0,-1,1532,1828,0,0
315,-804,0,0,0,0,0,0,0,0,0,-1,1539,1828,0,0
322,-804,0,0,0,0,0,0,0,0,0,-1,1546,1828,0,0
329,-804,0,0,0,0,0,0,0,0,0,-1,1553,1828,0,0
336,-804,0,0,0,0,0,0,0,0,0,-1,1560,1828,0,0
343,-804,0,0,0,0,0,0,0,0,0,-1,1567,1828,0,0
350,-804,0,0,0,0,0,0,0,0,0,-1,1574,1828,0,0
357,-804,0,0,0,0,0,0,0,0,0,-1,1581,1828,0,0
364,-804,0,0,0,0,0,0,0,0,0,-1,1588,1828,0,0
371,-804,0,0,0,0,0,0,0,0,0,-1,1595,1828,0,0
378,-804,0,0,0,0,0,0,0,0,0,-1,1602,1828,0,0
385,-804,0,0,0,0,0,0,0,0,0,-1,1609,1828,0,0
392,-804,0,0,0,0,0,0,0,0,0,-1,1616,1828,0,0
399,-804,0,0,0,0,0,0,0,0,0,-1,1623,1828,0,0
406,-804,0,0,0,0,0,0,0,0,0,-1,1630,1828,0,0
413,-804,0,0,0,0,0,0,0,0,0,-1,1637,1828,0,0
420,-804,0,0,0,0,0,0,0,0,0,-1,1644,1828,0,0
427,-804,0,0,0,0,0,0,0,0,0,-1,1651,1828,0,0
434,-804,0,0,0,0,0,0,0,0,0,-1,1658,1828,0,0
441,-804,0,0,0,0,0,0,0,0,0,-1,1665,1828,0,0
448,-804,0,0,0,0,0,0,0,0,0,-1,1672,1828,0,0
455,-804,0,0,0,0,0,0,0,0,0,-1,1679,1828,0,0
462,-804,0,0,0,0,0,0,0,0,0,-1,1686,1828,0,0
469,-804,0,0,0,0,0,0,0,0,0,-1,1693,1828,0,0
476,-804,0,0,0,0,0,0,0,0,0,-1,1700,1828,0,0
483,-804,0,0,0,0,0,0,0,0,0,-1,1707,1828,0,0
490,-804,0,0,0,0,0,0,0,0,0,-1,1714,1828,0,0
497,-804,0,0,0,0,0,0,0,0,0,-1,1721,1828,0,0
504,-804,0,0,0,0,0,0,0,0,0,-1,1728,1828,0,0
511,-804,0,0,0,0,0,0,0,0,0,-1,1735,1828,0,0
518,-804,0,0,0,0,0,0,0,0,0,-1,1742,1828,0,0
525,-804,0,0,0,0,0,0,0,0,0,-1,1749,1828,0,0
532,-804,0,0,0,0,0,0,0,0,0,-1,1756,1828,0,0
539,-804,0,0,0,0,0,0,0,0,0,-1,1763,1828,0,0
546,-804,0,0,0,0,0,0,0,0,0,-1,1770,1828,0,0
553,-804,0,0,0,0,0,0,0,0,0,-1,1777,1828,0,0
560,-804,0,0,0,0,0,0,0,0,0,-1,1784,1828,0,0
567,-804,0,0,0,0,0,0,0,0,0,-1,1791,1828,0,0
574,-804,0,0,0,0,0,0,0,0,0,-1,1798,1828,0,0
581,-804,0,0,0,0,0,0,0,0,0,-1,1805,1828,0,0
588,-804,0,0,0,0,0,0,0,0,0,-1,1812,1828,0,0
595,-804,0,0,0,0,0,0,0,0,0,-1,1819,1828,0,0
602,-804,0,0,0,0,0,0,0,0,0,-1,1826,1828,0,0
609,-804,0,0,0,0,0,0,0,0,0,-1,1833,1828,0,0
616,-804,0,0,0,0,0,0,0,0,0,-1,1840,1828,0,0
623,-804,0,0,0,0,0,0,0,0,0,-1,1847,1828,0,0
630,-804,0,0,0,0,0,0,0,0,0,-1,1854,1828,0,0
637,-804,0,0,0,0,0,0,0,0,0,-1,1861,1828,0,0
644,-804,0,0,0,0,0,0,0,0,0,-1,1868,1828,0,0
651,-804,0,0,0,0,0,0,0,0,0,-1,1875,1828,0,0
658,-804,0,0,0,0,0,0,0,0,0,-1,1882,1828,0,0
665,-804,0,0,0,0,0,0,0,0,0,-1,1889,1828,0,0
672,-804,0,0,0,0,0,0,0,0,0,-1,1896,1828,0,0
679,-804,0,0,0,0,0,0,0,0,0,-1,1903,1828,0,0
686,-804,0,0,0,0,0,0,0,0,0,-1,1910,1828,0,0
693,-804,0,0,0,0,0,0,0,0,0,-1,1917,1828,0,0
700,-804,0,0,0,0,0,0,0,0,0,-1,1924,1828,0,0
707,-804,0,0,0,0,0,0,0,0,0,-1,1931,1828,0,0
714,-804,0,0,0,0,0,0,0,0,0,-1,1938,1828,0,0
721,-804,0,0,0,0,0,0,0,0,0,-1,1945,1828,0,0
728,-804,0,0,0,0,0,0,0,0,0,-1,1952,1828,0,0
735,-804,0,0,0,0,0,0,0,0,0,-1,1959,1828,0,0
742,-804,0,0,0,0,0,0,0,0,0,-1,1966,1828,0,0
749,-804,0,0,0,0,0,0,0,0,0,-1,1973,1828,0,0
756,-804,0,0,0,0,0,0,0,0,0,-1,1980,1828,0,0
763,-804,0,0,0,0,0,0,0,0,0,-1,1987,1828,0,0
770,-804,0,0,0,0,0,0,0,0,0,-1,1994,1828,0,0
777,-804,0,0,0,0,0,0,0,0,0,-1,2001,1828,0,0
784,-804,0,0,0,0,0,0,0,0,0,-1,2008,1828,0,0
791,-804,0,0,0,0,0,0,0,0,0,-1,2015,1828,0,0
798,-804,0,0,0,0,0,0,0,0,0,-1,2022,1828,0,0
805,-804,0,0,0,0,0,0,0,0,0,-1,2029,1828,0,0
812,-804,0,0,0,0,0,0,0,0,0,-1,2036,1828,0,0

