 "x_c",  "y_c",  "u_c",  "v_c",  "exx",  "eyy",  "exy",  "e1",  "e2",  "gamma",  "e_vonmises",  "sigma",  "x",  "y",  "u",  "v"
-700,715,0,0,0,0,0,0,0,0,0,-1,524,309,0,0
-693,715,0,0,0,0,0,0,0,0,0,-1,531,309,0,0
-686,715,0,0,0,0,0,0,0,0,0,-1,538,309,0,0
-679,715,0,0,0,0,0,0,0,0,0,-1,545,309,0,0
-672,715,0,0,0,0,0,0,0,0,0,-1,552,309,0,0
-665,715,0,0,0,0,0,0,0,0,0,-1,559,309,0,0
-658,715,0,0,0,0,0,0,0,0,0,-1,566,309,0,0
-651,715,0,0,0,0,0,0,0,0,0,-1,573,309,0,0
-644,715,0,0,0,0,0,0,0,0,0,-1,580,309,0,0
-637,715,0,0,0,0,0,0,0,0,0,-1,587,309,0,0
-630,715,0,0,0,0,0,0,0,0,0,-1,594,309,0,0
-623,715,0,0,0,0,0,0,0,0,0,-1,601,309,0,0
-616,715,0,0,0,0,0,0,0,0,0,-1,608,309,0,0
-609,715,0,0,0,0,0,0,0,0,0,-1,615,309,0,0
-602,715,0,0,0,0,0,0,0,0,0,-1,622,309,0,0
-595,715,0,0,0,0,0,0,0,0,0,-1,629,309,0,0
-588,715,0,0,0,0,0,0,0,0,0,-1,636,309,0,0
-581,715,0,0,0,0,0,0,0,0,0,-1,643,309,0,0
-574,715,0,0,0,0,0,0,0,0,0,-1,650,309,0,0
-567,715,0,0,0,0,0,0,0,0,0,-1,657,309,0,0
-560,715,0,0,0,0,0,0,0,0,0,-1,664,309,0,0
-553,715,0,0,0,0,0,0,0,0,0,-1,671,309,0,0
-546,715,0,0,0,0,0,0,0,0,0,-1,678,309,0,0
-539,715,0,0,0,0,0,0,0,0,0,-1,685,309,0,0
-532,715,0,0,0,0,0,0,0,0,0,-1,692,309,0,0
-525,715,0,0,0,0,0,0,0,0,0,-1,699,309,0,0
-518,715,0,0,0,0,0,0,0,0,0,-1,706,309,0,0
-511,715,0,0,0,0,0,0,0,0,0,-1,713,309,0,0
-504,715,0,0,0,0,0,0,0,0,0,-1,720,309,0,0
-497,715,0,0,0,0,0,0,0,0,0,-1,727,309,0,0
-490,715,0,0,0,0,0,0,0,0,0,-1,734,309,0,0
-483,715,0,0,0,0,0,0,0,0,0,-1,741,309,0,0
-476,715,0,0,0,0,0,0,0,0,0,-1,748,309,0,0
-469,715,0,0,0,0,0,0,0,0,0,-1,755,309,0,0
-462,715,0,0,0,0,0,0,0,0,0,-1,762,309,0,0
-455,715,0,0,0,0,0,0,0,0,0,-1,769,309,0,0
-448,715,0,0,0,0,0,0,0,0,0,-1,776,309,0,0
-441,715,0,0,0,0,0,0,0,0,0,-1,783,309,0,0
-434,715,0,0,0,0,0,0,0,0,0,-1,790,309,0,0
-427,715,0,0,0,0,0,0,0,0,0,-1,797,309,0,0
-420,715,0,0,0,0,0,0,0,0,0,-1,804,309,0,0
-413,715,0,0,0,0,0,0,0,0,0,-1,811,309,0,0
-406,715,0,0,0,0,0,0,0,0,0,-1,818,309,0,0
-399,715,0,0,0,0,0,0,0,0,0,-1,825,309,0,0
-392,715,0,0,0,0,0,0,0,0,0,-1,832,309,0,0
-385,715,0,0,0,0,0,0,0,0,0,-1,839,309,0,0
-378,715,0,0,0,0,0,0,0,0,0,-1,846,309,0,0
-371,715,0,0,0,0,0,0,0,0,0,-1,853,309,0,0
-364,715,0,0,0,0,0,0,0,0,0,-1,860,309,0,0
-357,715,0,0,0,0,0,0,0,0,0,-1,867,309,0,0
-350,715,0,0,0,0,0,0,0,0,0,-1,874,309,0,0
-343,715,0,0,0,0,0,0,0,0,0,-1,881,309,0,0
-336,715,0,0,0,0,0,0,0,0,0,-1,888,309,0,0
-329,715,0,0,0,0,0,0,0,0,0,-1,895,309,0,0
-322,715,0,0,0,0,0,0,0,0,0,-1,902,309,0,0
-315,715,0,0,0,0,0,0,0,0,0,-1,909,309,0,0
-308,715,0,0,0,0,0,0,0,0,0,-1,916,309,0,0
-301,715,0,0,0,0,0,0,0,0,0,-1,923,309,0,0
-294,715,0,0,0,0,0,0,0,0,0,-1,930,309,0,0
-287,715,0,0,0,0,0,0,0,0,0,-1,937,309,0,0
-280,715,0,0,0,0,0,0,0,0,0,-1,944,309,0,0
-273,715,0,0,0,0,0,0,0,0,0,-1,951,309,0,0
-266,715,0,0,0,0,0,0,0,0,0,-1,958,309,0,0
-259,715,0,0,0,0,0,0,0,0,0,-1,965,309,0,0
-252,715,0,0,0,0,0,0,0,0,0,-1,972,309,0,0
-245,715,0,0,0,0,0,0,0,0,0,-1,979,309,0,0
-238,715,0,0,0,0,0,0,0,0,0,-1,986,309,0,0
-231,715,0,0,0,0,0,0,0,0,0,-1,993,309,0,0
-224,715,0,0,0,0,0,0,0,0,0,-1,1000,309,0,0
-217,715,0,0,0,0,0,0,0,0,0,-1,1007,309,0,0
-210,715,0,0,0,0,0,0,0,0,0,-1,1014,309,0,0
-203,715,0,0,0,0,0,0,0,0,0,-1,1021,309,0,0
-196,715,0,0,0,0,0,0,0,0,0,-1,1028,309,0,0
-189,715,0,0,0,0,0,0,0,0,0,-1,1035,309,0,0
-182,715,0,0,0,0,0,0,0,0,0,-1,1042,309,0,0
-175,715,0,0,0,0,0,0,0,0,0,-1,1049,309,0,0
-168,715,0,0,0,0,0,0,0,0,0,-1,1056,309,0,0
-161,715,0,0,0,0,0,0,0,0,0,-1,1063,309,0,0
-154,715,0,0,0,0,0,0,0,0,0,-1,1070,309,0,0
-147,715,0,0,0,0,0,0,0,0,0,-1,1077,309,0,0
-140,715,0,0,0,0,0,0,0,0,0,-1,1084,309,0,0
-133,715,0,0,0,0,0,0,0,0,0,-1,1091,309,0,0
-126,715,0,0,0,0,0,0,0,0,0,-1,1098,309,0,0
-119,715,0,0,0,0,0,0,0,0,0,-1,1105,309,0,0
-112,715,0,0,0,0,0,0,0,0,0,-1,1112,309,0,0
-105,715,0,0,0,0,0,0,0,0,0,-1,1119,309,0,0
-98,715,0,0,0,0,0,0,0,0,0,-1,1126,309,0,0
-91,715,0,0,0,0,0,0,0,0,0,-1,1133,309,0,0
-84,715,0,0,0,0,0,0,0,0,0,-1,1140,309,0,0
-77,715,0,0,0,0,0,0,0,0,0,-1,1147,309,0,0
-70,715,0,0,0,0,0,0,0,0,0,-1,1154,309,0,0
-63,715,0,0,0,0,0,0,0,0,0,-1,1161,309,0,0
-56,715,0,0,0,0,0,0,0,0,0,-1,1168,309,0,0
-49,715,0,0,0,0,0,0,0,0,0,-1,1175,309,0,0
-42,715,0,0,0,0,0,0,0,0,0,-1,1182,309,0,0
-35,715,0,0,0,0,0,0,0,0,0,-1,1189,309,0,0
-28,715,0,0,0,0,0,0,0,0,0,-1,1196,309,0,0
-21,715,0,0,0,0,0,0,0,0,0,-1,1203,309,0,0
-14,715,0,0,0,0,0,0,0,0,0,-1,1210,309,0,0
-7,715,0,0,0,0,0,0,0,0,0,-1,1217,309,0,0
0,715,0,0,0,0,0,0,0,0,0,-1,1224,309,0,0
7,715,0,0,0,0,0,0,0,0,0,-1,1231,309,0,0
14,715,0,0,0,0,0,0,0,0,0,-1,1238,309,0,0
21,715,0,0,0,0,0,0,0,0,0,-1,1245,309,0,0
28,715,0,0,0,0,0,0,0,0,0,-1,1252,309,0,0
35,715,0,0,0,0,0,0,0,0,0,-1,1259,309,0,0
42,715,0,0,0,0,0,0,0,0,0,-1,1266,309,0,0
49,715,0,0,0,0,0,0,0,0,0,-1,1273,309,0,0
56,715,0,0,0,0,0,0,0,0,0,-1,1280,309,0,0
63,715,7.70715,-35.4562,-0.0333414,0.0759321,0.0693421,0.109576,-0.0669855,1.11907,0.102922,0.044462,1287,309,7.70712,35.4562
70,715,7.28406,-34.7033,-0.0519493,0.0823655,0.0830502,0.122014,-0.0915975,1.12539,0.123745,0.0436288,1294,309,7.28401,34.7033
77,715,0,0,0,0,0,0,0,0,0,-1,1301,309,0,0
84,715,0,0,0,0,0,0,0,0,0,-1,1308,309,0,0
91,715,0,0,0,0,0,0,0,0,0,-1,1315,309,0,0
98,715,0,0,0,0,0,0,0,0,0,-1,1322,309,0,0
105,715,0,0,0,0,0,0,0,0,0,-1,1329,309,0,0
112,715,0,0,0,0,0,0,0,0,0,-1,1336,309,0,0
119,715,0,0,0,0,0,0,0,0,0,-1,1343,309,0,0
126,715,0,0,0,0,0,0,0,0,0,-1,1350,309,0,0
133,715,0,0,0,0,0,0,0,0,0,-1,1357,309,0,0
140,715,0,0,0,0,0,0,0,0,0,-1,1364,309,0,0
147,715,0,0,0,0,0,0,0,0,0,-1,1371,309,0,0
154,715,0,0,0,0,0,0,0,0,0,-1,1378,309,0,0
161,715,0,0,0,0,0,0,0,0,0,-1,1385,309,0,0
168,715,0,0,0,0,0,0,0,0,0,-1,1392,309,0,0
175,715,0,0,0,0,0,0,0,0,0,-1,1399,309,0,0
182,715,0,0,0,0,0,0,0,0,0,-1,1406,309,0,0
189,715,0,0,0,0,0,0,0,0,0,-1,1413,309,0,0
196,715,0,0,0,0,0,0,0,0,0,-1,1420,309,0,0
203,715,0,0,0,0,0,0,0,0,0,-1,1427,309,0,0
210,715,0,0,0,0,0,0,0,0,0,-1,1434,309,0,0
217,715,0,0,0,0,0,0,0,0,0,-1,1441,309,0,0
224,715,0,0,0,0,0,0,0,0,0,-1,1448,309,0,0
231,715,0,0,0,0,0,0,0,0,0,-1,1455,309,0,0
238,715,0,0,0,0,0,0,0,0,0,-1,1462,309,0,0
245,715,0,0,0,0,0,0,0,0,0,-1,1469,309,0,0
252,715,0,0,0,0,0,0,0,0,0,-1,1476,309,0,0
259,715,0,0,0,0,0,0,0,0,0,-1,1483,309,0,0
266,715,0,0,0,0,0,0,0,0,0,-1,1490,309,0,0
273,715,0,0,0,0,0,0,0,0,0,-1,1497,309,0,0
280,715,0,0,0,0,0,0,0,0,0,-1,1504,309,0,0
287,715,0,0,0,0,0,0,0,0,0,-1,1511,309,0,0
294,715,0,0,0,0,0,0,0,0,0,-1,1518,309,0,0
301,715,0,0,0,0,0,0,0,0,0,-1,1525,309,0,0
308,715,0,0,0,0,0,0,0,0,0,-1,1532,309,0,0
315,715,0,0,0,0,0,0,0,0,0,-1,1539,309,0,0
322,715,0,0,0,0,0,0,0,0,0,-1,1546,309,0,0
329,715,0,0,0,0,0,0,0,0,0,-1,1553,309,0,0
336,715,0,0,0,0,0,0,0,0,0,-1,1560,309,0,0
343,715,0,0,0,0,0,0,0,0,0,-1,1567,309,0,0
350,715,0,0,0,0,0,0,0,0,0,-1,1574,309,0,0
357,715,0,0,0,0,0,0,0,0,0,-1,1581,309,0,0
364,715,0,0,0,0,0,0,0,0,0,-1,1588,309,0,0
371,715,0,0,0,0,0,0,0,0,0,-1,1595,309,0,0
378,715,0,0,0,0,0,0,0,0,0,-1,1602,309,0,0
385,715,0,0,0,0,0,0,0,0,0,-1,1609,309,0,0
392,715,0,0,0,0,0,0,0,0,0,-1,1616,309,0,0
399,715,0,0,0,0,0,0,0,0,0,-1,1623,309,0,0
406,715,0,0,0,0,0,0,0,0,0,-1,1630,309,0,0
413,715,0,0,0,0,0,0,0,0,0,-1,1637,309,0,0
420,715,0,0,0,0,0,0,0,0,0,-1,1644,309,0,0
427,715,0,0,0,0,0,0,0,0,0,-1,1651,309,0,0
434,715,0,0,0,0,0,0,0,0,0,-1,1658,309,0,0
441,715,0,0,0,0,0,0,0,0,0,-1,1665,309,0,0
448,715,0,0,0,0,0,0,0,0,0,-1,1672,309,0,0
455,715,0,0,0,0,0,0,0,0,0,-1,1679,309,0,0
462,715,0,0,0,0,0,0,0,0,0,-1,1686,309,0,0
469,715,0,0,0,0,0,0,0,0,0,-1,1693,309,0,0
476,715,0,0,0,0,0,0,0,0,0,-1,1700,309,0,0
483,715,0,0,0,0,0,0,0,0,0,-1,1707,309,0,0
490,715,0,0,0,0,0,0,0,0,0,-1,1714,309,0,0
497,715,0,0,0,0,0,0,0,0,0,-1,1721,309,0,0
504,715,0,0,0,0,0,0,0,0,0,-1,1728,309,0,0
511,715,0,0,0,0,0,0,0,0,0,-1,1735,309,0,0
518,715,0,0,0,0,0,0,0,0,0,-1,1742,309,0,0
525,715,0,0,0,0,0,0,0,0,0,-1,1749,309,0,0
532,715,0,0,0,0,0,0,0,0,0,-1,1756,309,0,0
539,715,0,0,0,0,0,0,0,0,0,-1,1763,309,0,0
546,715,0,0,0,0,0,0,0,0,0,-1,1770,309,0,0
553,715,0,0,0,0,0,0,0,0,0,-1,1777,309,0,0
560,715,0,0,0,0,0,0,0,0,0,-1,1784,309,0,0
567,715,0,0,0,0,0,0,0,0,0,-1,1791,309,0,0
574,715,0,0,0,0,0,0,0,0,0,-1,1798,309,0,0
581,715,0,0,0,0,0,0,0,0,0,-1,1805,309,0,0
588,715,0,0,0,0,0,0,0,0,0,-1,1812,309,0,0
595,715,0,0,0,0,0,0,0,0,0,-1,1819,309,0,0
602,715,0,0,0,0,0,0,0,0,0,-1,1826,309,0,0
609,715,0,0,0,0,0,0,0,0,0,-1,1833,309,0,0
616,715,0,0,0,0,0,0,0,0,0,-1,1840,309,0,0
623,715,0,0,0,0,0,0,0,0,0,-1,1847,309,0,0
630,715,0,0,0,0,0,0,0,0,0,-1,1854,309,0,0
637,715,0,0,0,0,0,0,0,0,0,-1,1861,309,0,0
644,715,0,0,0,0,0,0,0,0,0,-1,1868,309,0,0
651,715,0,0,0,0,0,0,0,0,0,-1,1875,309,0,0
658,715,0,0,0,0,0,0,0,0,0,-1,1882,309,0,0
665,715,0,0,0,0,0,0,0,0,0,-1,1889,309,0,0
672,715,0,0,0,0,0,0,0,0,0,-1,1896,309,0,0
679,715,0,0,0,0,0,0,0,0,0,-1,1903,309,0,0
686,715,0,0,0,0,0,0,0,0,0,-1,1910,309,0,0
693,715,0,0,0,0,0,0,0,0,0,-1,1917,309,0,0
700,715,0,0,0,0,0,0,0,0,0,-1,1924,309,0,0
707,715,0,0,0,0,0,0,0,0,0,-1,1931,309,0,0
714,715,0,0,0,0,0,0,0,0,0,-1,1938,309,0,0
721,715,0,0,0,0,0,0,0,0,0,-1,1945,309,0,0
728,715,0,0,0,0,0,0,0,0,0,-1,1952,309,0,0
735,715,0,0,0,0,0,0,0,0,0,-1,1959,309,0,0
742,715,0,0,0,0,0,0,0,0,0,-1,1966,309,0,0
749,715,0,0,0,0,0,0,0,0,0,-1,1973,309,0,0
756,715,0,0,0,0,0,0,0,0,0,-1,1980,309,0,0
763,715,0,0,0,0,0,0,0,0,0,-1,1987,309,0,0
770,715,0,0,0,0,0,0,0,0,0,-1,1994,309,0,0
777,715,0,0,0,0,0,0,0,0,0,-1,2001,309,0,0
784,715,0,0,0,0,0,0,0,0,0,-1,2008,309,0,0
791,715,0,0,0,0,0,0,0,0,0,-1,2015,309,0,0
798,715,0,0,0,0,0,0,0,0,0,-1,2022,309,0,0
805,715,0,0,0,0,0,0,0,0,0,-1,2029,309,0,0
812,715,0,0,0,0,0,0,0,0,0,-1,2036,309,0,0
-700,708,0,0,0,0,0,0,0,0,0,-1,524,316,0,0
-693,708,0,0,0,0,0,0,0,0,0,-1,531,316,0,0
-686,708,0,0,0,0,0,0,0,0,0,-1,538,316,0,0
-679,708,0,0,0,0,0,0,0,0,0,-1,545,316,0,0
-672,708,0,0,0,0,0,0,0,0,0,-1,552,316,0,0
-665,708,0,0,0,0,0,0,0,0,0,-1,559,316,0,0
-658,708,0,0,0,0,0,0,0,0,0,-1,566,316,0,0
-651,708,0,0,0,0,0,0,0,0,0,-1,573,316,0,0
-644,708,0,0,0,0,0,0,0,0,0,-1,580,316,0,0
-637,708,0,0,0,0,0,0,0,0,0,-1,587,316,0,0
-630,708,0,0,0,0,0,0,0,0,0,-1,594,316,0,0
-623,708,0,0,0,0,0,0,0,0,0,-1,601,316,0,0
-616,708,0,0,0,0,0,0,0,0,0,-1,608,316,0,0
-609,708,0,0,0,0,0,0,0,0,0,-1,615,316,0,0
-602,708,0,0,0,0,0,0,0,0,0,-1,622,316,0,0
-595,708,0,0,0,0,0,0,0,0,0,-1,629,316,0,0
-588,708,0,0,0,0,0,0,0,0,0,-1,636,316,0,0
-581,708,0,0,0,0,0,0,0,0,0,-1,643,316,0,0
-574,708,0,0,0,0,0,0,0,0,0,-1,650,316,0,0
-567,708,0,0,0,0,0,0,0,0,0,-1,657,316,0,0
-560,708,0,0,0,0,0,0,0,0,0,-1,664,316,0,0
-553,708,0,0,0,0,0,0,0,0,0,-1,671,316,0,0
-546,708,0,0,0,0,0,0,0,0,0,-1,678,316,0,0
-539,708,0,0,0,0,0,0,0,0,0,-1,685,316,0,0
-532,708,0,0,0,0,0,0,0,0,0,-1,692,316,0,0
-525,708,0,0,0,0,0,0,0,0,0,-1,699,316,0,0
-518,708,0,0,0,0,0,0,0,0,0,-1,706,316,0,0
-511,708,0,0,0,0,0,0,0,0,0,-1,713,316,0,0
-504,708,0,0,0,0,0,0,0,0,0,-1,720,316,0,0
-497,708,0,0,0,0,0,0,0,0,0,-1,727,316,0,0
-490,708,0,0,0,0,0,0,0,0,0,-1,734,316,0,0
-483,708,0,0,0,0,0,0,0,0,0,-1,741,316,0,0
-476,708,0,0,0,0,0,0,0,0,0,-1,748,316,0,0
-469,708,0,0,0,0,0,0,0,0,0,-1,755,316,0,0
-462,708,0,0,0,0,0,0,0,0,0,-1,762,316,0,0
-455,708,0,0,0,0,0,0,0,0,0,-1,769,316,0,0
-448,708,0,0,0,0,0,0,0,0,0,-1,776,316,0,0
-441,708,0,0,0,0,0,0,0,0,0,-1,783,316,0,0
-434,708,0,0,0,0,0,0,0,0,0,-1,790,316,0,0
-427,708,0,0,0,0,0,0,0,0,0,-1,797,316,0,0
-420,708,0,0,0,0,0,0,0,0,0,-1,804,316,0,0
-413,708,0,0,0,0,0,0,0,0,0,-1,811,316,0,0
-406,708,0,0,0,0,0,0,0,0,0,-1,818,316,0,0
-399,708,0,0,0,0,0,0,0,0,0,-1,825,316,0,0
-392,708,0,0,0,0,0,0,0,0,0,-1,832,316,0,0
-385,708,0,0,0,0,0,0,0,0,0,-1,839,316,0,0
-378,708,0,0,0,0,0,0,0,0,0,-1,846,316,0,0
-371,708,0,0,0,0,0,0,0,0,0,-1,853,316,0,0
-364,708,0,0,0,0,0,0,0,0,0,-1,860,316,0,0
-357,708,0,0,0,0,0,0,0,0,0,-1,867,316,0,0
-350,708,0,0,0,0,0,0,0,0,0,-1,874,316,0,0
-343,708,0,0,0,0,0,0,0,0,0,-1,881,316,0,0
-336,708,0,0,0,0,0,0,0,0,0,-1,888,316,0,0
-329,708,0,0,0,0,0,0,0,0,0,-1,895,316,0,0
-322,708,0,0,0,0,0,0,0,0,0,-1,902,316,0,0
-315,708,0,0,0,0,0,0,0,0,0,-1,909,316,0,0
-308,708,0,0,0,0,0,0,0,0,0,-1,916,316,0,0
-301,708,0,0,0,0,0,0,0,0,0,-1,923,316,0,0
-294,708,0,0,0,0,0,0,0,0,0,-1,930,316,0,0
-287,708,0,0,0,0,0,0,0,0,0,-1,937,316,0,0
-280,708,0,0,0,0,0,0,0,0,0,-1,944,316,0,0
-273,708,0,0,0,0,0,0,0,0,0,-1,951,316,0,0
-266,708,0,0,0,0,0,0,0,0,0,-1,958,316,0,0
-259,708,0,0,0,0,0,0,0,0,0,-1,965,316,0,0
-252,708,0,0,0,0,0,0,0,0,0,-1,972,316,0,0
-245,708,0,0,0,0,0,0,0,0,0,-1,979,316,0,0
-238,708,0,0,0,0,0,0,0,0,0,-1,986,316,0,0
-231,708,0,0,0,0,0,0,0,0,0,-1,993,316,0,0
-224,708,0,0,0,0,0,0,0,0,0,-1,1000,316,0,0
-217,708,0,0,0,0,0,0,0,0,0,-1,1007,316,0,0
-210,708,0,0,0,0,0,0,0,0,0,-1,1014,316,0,0
-203,708,0,0,0,0,0,0,0,0,0,-1,1021,316,0,0
-196,708,0,0,0,0,0,0,0,0,0,-1,1028,316,0,0
-189,708,0,0,0,0,0,0,0,0,0,-1,1035,316,0,0
-182,708,0,0,0,0,0,0,0,0,0,-1,1042,316,0,0
-175,708,0,0,0,0,0,0,0,0,0,-1,1049,316,0,0
-168,708,0,0,0,0,0,0,0,0,0,-1,1056,316,0,0
-161,708,0,0,0,0,0,0,0,0,0,-1,1063,316,0,0
-154,708,0,0,0,0,0,0,0,0,0,-1,1070,316,0,0
-147,708,0,0,0,0,0,0,0,0,0,-1,1077,316,0,0
-140,708,0,0,0,0,0,0,0,0,0,-1,1084,316,0,0
-133,708,0,0,0,0,0,0,0,0,0,-1,1091,316,0,0
-126,708,0,0,0,0,0,0,0,0,0,-1,1098,316,0,0
-119,708,0,0,0,0,0,0,0,0,0,-1,1105,316,0,0
-112,708,0,0,0,0,0,0,0,0,0,-1,1112,316,0,0
-105,708,0,0,0,0,0,0,0,0,0,-1,1119,316,0,0
-98,708,0,0,0,0,0,0,0,0,0,-1,1126,316,0,0
-91,708,0,0,0,0,0,0,0,0,0,-1,1133,316,0,0
-84,708,0,0,0,0,0,0,0,0,0,-1,1140,316,0,0
-77,708,0,0,0,0,0,0,0,0,0,-1,1147,316,0,0
-70,708,0,0,0,0,0,0,0,0,0,-1,1154,316,0,0
-63,708,0,0,0,0,0,0,0,0,0,-1,1161,316,0,0
-56,708,0,0,0,0,0,0,0,0,0,-1,1168,316,0,0
-49,708,0,0,0,0,0,0,0,0,0,-1,1175,316,0,0
-42,708,0,0,0,0,0,0,0,0,0,-1,1182,316,0,0
-35,708,-2.71204,-6.31558,0,0,0,0,0,0,0,-1,1189,316,-2.712,6.3156
-28,708,-2.92371,-5.53253,0,0,0,0,0,0,0,-1,1196,316,-2.92375,5.53254
-21,708,-0.417969,-24.5911,0,0,0,0,0,0,0,-1,1203,316,-0.418022,24.5911
-14,708,4.09412,-32.2086,0,0,0,0,0,0,0,-1,1210,316,4.09411,32.2087
-7,708,4.0614,-32.9884,0.0292054,-0.0249721,-0.0379823,0.0487692,-0.0445359,-0.475635,0.0538882,0.0487783,1217,316,4.06138,32.9884
0,708,3.92554,-33.7483,0.0443511,-0.012526,-0.0303255,0.0574864,-0.0256613,-0.408749,0.0491635,0.0479131,1224,316,3.92551,33.7483
7,708,3.65881,-34.2921,0.0496145,-0.00101468,-0.0224121,0.0581101,-0.0095103,-0.362329,0.0422683,0.0442484,1231,316,3.65884,34.2921
14,708,3.57227,-34.3813,0.046195,0.0114171,-0.0127611,0.050375,0.0072371,-0.316547,0.0314498,0.0450489,1238,316,3.57221,34.3813
21,708,9.18091,-40.7095,0,0,0,0,0,0,0,-1,1245,316,9.18093,40.7095
28,708,8.96863,-39.6974,0.027177,0.0328261,0.00751048,0.0380256,0.0219775,0.965256,0.0220429,0.0437821,1252,316,8.96869,39.6973
35,708,8.63013,-38.6844,0.0133387,0.0412327,0.0180462,0.0500932,0.00447817,1.11438,0.0320073,0.0415632,1259,316,8.63016,38.6844
42,708,8.41333,-37.7615,0,0,0,0,0,0,0,-1,1266,316,8.41333,37.7615
49,708,8.30566,-37.1408,-0.0096415,0.0486624,0.041351,0.0701044,-0.0310835,1.09243,0.0598513,0.0426301,1273,316,8.30564,37.1408
56,708,8.03223,-36.7809,-0.0176874,0.0569015,0.0514698,0.0831682,-0.0439541,1.09892,0.074549,0.0438286,1280,316,8.03224,36.7809
63,708,7.43945,-36.0313,-0.02399,0.0630008,0.0613106,0.0946774,-0.0556667,1.09391,0.0877698,0.0443668,1287,316,7.43947,36.0313
70,708,6.94238,-35.3218,-0.038408,0.0689486,0.0732457,0.106079,-0.0755388,1.10162,0.10535,0.0446151,1294,316,6.94236,35.3218
77,708,6.47009,-34.5833,0,0,0,0,0,0,0,-1,1301,316,6.47009,34.5833
84,708,6.00659,-33.7129,-0.0341071,0.0702171,0.0845205,0.117376,-0.0812657,1.06187,0.115316,0.0461205,1308,316,6.00659,33.7128
91,708,5.51147,-32.9366,-0.0290179,0.0732238,0.0899414,0.125557,-0.0813514,1.04382,0.120364,0.0469353,1315,316,5.51146,32.9366
98,708,4.82996,-32.253,0,0,0,0,0,0,0,-1,1322,316,4.82995,32.253
105,708,5.04504,-29.6402,-0.0151436,0.0883482,0.0941808,0.144062,-0.0708577,1.0366,0.126461,0.0490719,1329,316,5.04499,29.6402
112,708,4.88916,-29.7896,-0.00856667,0.0959147,0.0920613,0.149525,-0.0621767,1.04347,0.125646,0.0450544,1336,316,4.88911,29.7896
119,708,4.9707,-28.7906,-0.00369792,0.102092,0.0859745,0.15014,-0.051746,1.06117,0.121085,0.0420865,1343,316,4.97074,28.7906
126,708,5.29407,-27.9893,-0.0013224,0.10806,0.0773074,0.148066,-0.0413285,1.09325,0.11499,0.0464616,1350,316,5.29405,27.9893
133,708,5.42957,-26.9315,0,0,0,0,0,0,0,-1,1357,316,5.42959,26.9315
140,708,1.21277,-31.2864,0,0,0,0,0,0,0,-1,1364,316,1.2128,31.2864
147,708,1.2666,-30.4515,0,0,0,0,0,0,0,-1,1371,316,1.26664,30.4515
154,708,0,0,0,0,0,0,0,0,0,-1,1378,316,0,0
161,708,0,0,0,0,0,0,0,0,0,-1,1385,316,0,0
168,708,0,0,0,0,0,0,0,0,0,-1,1392,316,0,0
175,708,0,0,0,0,0,0,0,0,0,-1,1399,316,0,0
182,708,0,0,0,0,0,0,0,0,0,-1,1406,316,0,0
189,708,0,0,0,0,0,0,0,0,0,-1,1413,316,0,0
196,708,0,0,0,0,0,0,0,0,0,-1,1420,316,0,0
203,708,0,0,0,0,0,0,0,0,0,-1,1427,316,0,0
210,708,0,0,0,0,0,0,0,0,0,-1,1434,316,0,0
217,708,0,0,0,0,0,0,0,0,0,-1,1441,316,0,0
224,708,0,0,0,0,0,0,0,0,0,-1,1448,316,0,0
231,708,0,0,0,0,0,0,0,0,0,-1,1455,316,0,0
238,708,0,0,0,0,0,0,0,0,0,-1,1462,316,0,0
245,708,0,0,0,0,0,0,0,0,0,-1,1469,316,0,0
252,708,0,0,0,0,0,0,0,0,0,-1,1476,316,0,0
259,708,0,0,0,0,0,0,0,0,0,-1,1483,316,0,0
266,708,0,0,0,0,0,0,0,0,0,-1,1490,316,0,0
273,708,0,0,0,0,0,0,0,0,0,-1,1497,316,0,0
280,708,0,0,0,0,0,0,0,0,0,-1,1504,316,0,0
287,708,0,0,0,0,0,0,0,0,0,-1,1511,316,0,0
294,708,0,0,0,0,0,0,0,0,0,-1,1518,316,0,0
301,708,0,0,0,0,0,0,0,0,0,-1,1525,316,0,0
308,708,0,0,0,0,0,0,0,0,0,-1,1532,316,0,0
315,708,0,0,0,0,0,0,0,0,0,-1,1539,316,0,0
322,708,0,0,0,0,0,0,0,0,0,-1,1546,316,0,0
329,708,0,0,0,0,0,0,0,0,0,-1,1553,316,0,0
336,708,0,0,0,0,0,0,0,0,0,-1,1560,316,0,0
343,708,0,0,0,0,0,0,0,0,0,-1,1567,316,0,0
350,708,0,0,0,0,0,0,0,0,0,-1,1574,316,0,0
357,708,0,0,0,0,0,0,0,0,0,-1,1581,316,0,0
364,708,0,0,0,0,0,0,0,0,0,-1,1588,316,0,0
371,708,0,0,0,0,0,0,0,0,0,-1,1595,316,0,0
378,708,0,0,0,0,0,0,0,0,0,-1,1602,316,0,0
385,708,0,0,0,0,0,0,0,0,0,-1,1609,316,0,0
392,708,0,0,0,0,0,0,0,0,0,-1,1616,316,0,0
399,708,0,0,0,0,0,0,0,0,0,-1,1623,316,0,0
406,708,0,0,0,0,0,0,0,0,0,-1,1630,316,0,0
413,708,0,0,0,0,0,0,0,0,0,-1,1637,316,0,0
420,708,0,0,0,0,0,0,0,0,0,-1,1644,316,0,0
427,708,0,0,0,0,0,0,0,0,0,-1,1651,316,0,0
434,708,0,0,0,0,0,0,0,0,0,-1,1658,316,0,0
441,708,0,0,0,0,0,0,0,0,0,-1,1665,316,0,0
448,708,0,0,0,0,0,0,0,0,0,-1,1672,316,0,0
455,708,0,0,0,0,0,0,0,0,0,-1,1679,316,0,0
462,708,0,0,0,0,0,0,0,0,0,-1,1686,316,0,0
469,708,0,0,0,0,0,0,0,0,0,-1,1693,316,0,0
476,708,0,0,0,0,0,0,0,0,0,-1,1700,316,0,0
483,708,0,0,0,0,0,0,0,0,0,-1,1707,316,0,0
490,708,0,0,0,0,0,0,0,0,0,-1,1714,316,0,0
497,708,0,0,0,0,0,0,0,0,0,-1,1721,316,0,0
504,708,0,0,0,0,0,0,0,0,0,-1,1728,316,0,0
511,708,0,0,0,0,0,0,0,0,0,-1,1735,316,0,0
518,708,0,0,0,0,0,0,0,0,0,-1,1742,316,0,0
525,708,0,0,0,0,0,0,0,0,0,-1,1749,316,0,0
532,708,0,0,0,0,0,0,0,0,0,-1,1756,316,0,0
539,708,0,0,0,0,0,0,0,0,0,-1,1763,316,0,0
546,708,0,0,0,0,0,0,0,0,0,-1,1770,316,0,0
553,708,0,0,0,0,0,0,0,0,0,-1,1777,316,0,0
560,708,0,0,0,0,0,0,0,0,0,-1,1784,316,0,0
567,708,0,0,0,0,0,0,0,0,0,-1,1791,316,0,0
574,708,0,0,0,0,0,0,0,0,0,-1,1798,316,0,0
581,708,0,0,0,0,0,0,0,0,0,-1,1805,316,0,0
588,708,0,0,0,0,0,0,0,0,0,-1,1812,316,0,0
595,708,0,0,0,0,0,0,0,0,0,-1,1819,316,0,0
602,708,0,0,0,0,0,0,0,0,0,-1,1826,316,0,0
609,708,0,0,0,0,0,0,0,0,0,-1,1833,316,0,0
616,708,0,0,0,0,0,0,0,0,0,-1,1840,316,0,0
623,708,0,0,0,0,0,0,0,0,0,-1,1847,316,0,0
630,708,0,0,0,0,0,0,0,0,0,-1,1854,316,0,0
637,708,0,0,0,0,0,0,0,0,0,-1,1861,316,0,0
644,708,0,0,0,0,0,0,0,0,0,-1,1868,316,0,0
651,708,0,0,0,0,0,0,0,0,0,-1,1875,316,0,0
658,708,0,0,0,0,0,0,0,0,0,-1,1882,316,0,0
665,708,0,0,0,0,0,0,0,0,0,-1,1889,316,0,0
672,708,0,0,0,0,0,0,0,0,0,-1,1896,316,0,0
679,708,0,0,0,0,0,0,0,0,0,-1,1903,316,0,0
686,708,0,0,0,0,0,0,0,0,0,-1,1910,316,0,0
693,708,0,0,0,0,0,0,0,0,0,-1,1917,316,0,0
700,708,0,0,0,0,0,0,0,0,0,-1,1924,316,0,0
707,708,0,0,0,0,0,0,0,0,0,-1,1931,316,0,0
714,708,0,0,0,0,0,0,0,0,0,-1,1938,316,0,0
721,708,0,0,0,0,0,0,0,0,0,-1,1945,316,0,0
728,708,0,0,0,0,0,0,0,0,0,-1,1952,316,0,0
735,708,0,0,0,0,0,0,0,0,0,-1,1959,316,0,0
742,708,0,0,0,0,0,0,0,0,0,-1,1966,316,0,0
749,708,0,0,0,0,0,0,0,0,0,-1,1973,316,0,0
756,708,0,0,0,0,0,0,0,0,0,-1,1980,316,0,0
763,708,0,0,0,0,0,0,0,0,0,-1,1987,316,0,0
770,708,0,0,0,0,0,0,0,0,0,-1,1994,316,0,0
777,708,0,0,0,0,0,0,0,0,0,-1,2001,316,0,0
784,708,0,0,0,0,0,0,0,0,0,-1,2008,316,0,0
791,708,0,0,0,0,0,0,0,0,0,-1,2015,316,0,0
798,708,0,0,0,0,0,0,0,0,0,-1,2022,316,0,0
805,708,0,0,0,0,0,0,0,0,0,-1,2029,316,0,0
812,708,0,0,0,0,0,0,0,0,0,-1,2036,316,0,0
-700,701,0,0,0,0,0,0,0,0,0,-1,524,323,0,0
-693,701,0,0,0,0,0,0,0,0,0,-1,531,323,0,0
-686,701,0,0,0,0,0,0,0,0,0,-1,538,323,0,0
-679,701,0,0,0,0,0,0,0,0,0,-1,545,323,0,0
-672,701,0,0,0,0,0,0,0,0,0,-1,552,323,0,0
-665,701,0,0,0,0,0,0,0,0,0,-1,559,323,0,0
-658,701,0,0,0,0,0,0,0,0,0,-1,566,323,0,0
-651,701,0,0,0,0,0,0,0,0,0,-1,573,323,0,0
-644,701,0,0,0,0,0,0,0,0,0,-1,580,323,0,0
-637,701,0,0,0,0,0,0,0,0,0,-1,587,323,0,0
-630,701,0,0,0,0,0,0,0,0,0,-1,594,323,0,0
-623,701,0,0,0,0,0,0,0,0,0,-1,601,323,0,0
-616,701,0,0,0,0,0,0,0,0,0,-1,608,323,0,0
-609,701,0,0,0,0,0,0,0,0,0,-1,615,323,0,0
-602,701,0,0,0,0,0,0,0,0,0,-1,622,323,0,0
-595,701,0,0,0,0,0,0,0,0,0,-1,629,323,0,0
-588,701,0,0,0,0,0,0,0,0,0,-1,636,323,0,0
-581,701,0,0,0,0,0,0,0,0,0,-1,643,323,0,0
-574,701,0,0,0,0,0,0,0,0,0,-1,650,323,0,0
-567,701,0,0,0,0,0,0,0,0,0,-1,657,323,0,0
-560,701,0,0,0,0,0,0,0,0,0,-1,664,323,0,0
-553,701,0,0,0,0,0,0,0,0,0,-1,671,323,0,0
-546,701,0,0,0,0,0,0,0,0,0,-1,678,323,0,0
-539,701,0,0,0,0,0,0,0,0,0,-1,685,323,0,0
-532,701,0,0,0,0,0,0,0,0,0,-1,692,323,0,0
-525,701,0,0,0,0,0,0,0,0,0,-1,699,323,0,0
-518,701,0,0,0,0,0,0,0,0,0,-1,706,323,0,0
-511,701,0,0,0,0,0,0,0,0,0,-1,713,323,0,0
-504,701,0,0,0,0,0,0,0,0,0,-1,720,323,0,0
-497,701,0,0,0,0,0,0,0,0,0,-1,727,323,0,0
-490,701,0,0,0,0,0,0,0,0,0,-1,734,323,0,0
-483,701,0,0,0,0,0,0,0,0,0,-1,741,323,0,0
-476,701,0,0,0,0,0,0,0,0,0,-1,748,323,0,0
-469,701,0,0,0,0,0,0,0,0,0,-1,755,323,0,0
-462,701,0,0,0,0,0,0,0,0,0,-1,762,323,0,0
-455,701,0,0,0,0,0,0,0,0,0,-1,769,323,0,0
-448,701,0,0,0,0,0,0,0,0,0,-1,776,323,0,0
-441,701,0,0,0,0,0,0,0,0,0,-1,783,323,0,0
-434,701,0,0,0,0,0,0,0,0,0,-1,790,323,0,0
-427,701,0,0,0,0,0,0,0,0,0,-1,797,323,0,0
-420,701,0,0,0,0,0,0,0,0,0,-1,804,323,0,0
-413,701,0,0,0,0,0,0,0,0,0,-1,811,323,0,0
-406,701,0,0,0,0,0,0,0,0,0,-1,818,323,0,0
-399,701,0,0,0,0,0,0,0,0,0,-1,825,323,0,0
-392,701,0,0,0,0,0,0,0,0,0,-1,832,323,0,0
-385,701,0,0,0,0,0,0,0,0,0,-1,839,323,0,0
-378,701,0,0,0,0,0,0,0,0,0,-1,846,323,0,0
-371,701,0,0,0,0,0,0,0,0,0,-1,853,323,0,0
-364,701,0,0,0,0,0,0,0,0,0,-1,860,323,0,0
-357,701,0,0,0,0,0,0,0,0,0,-1,867,323,0,0
-350,701,0,0,0,0,0,0,0,0,0,-1,874,323,0,0
-343,701,0,0,0,0,0,0,0,0,0,-1,881,323,0,0
-336,701,0,0,0,0,0,0,0,0,0,-1,888,323,0,0
-329,701,0,0,0,0,0,0,0,0,0,-1,895,323,0,0
-322,701,0,0,0,0,0,0,0,0,0,-1,902,323,0,0
-315,701,0,0,0,0,0,0,0,0,0,-1,909,323,0,0
-308,701,0,0,0,0,0,0,0,0,0,-1,916,323,0,0
-301,701,0,0,0,0,0,0,0,0,0,-1,923,323,0,0
-294,701,0,0,0,0,0,0,0,0,0,-1,930,323,0,0
-287,701,0,0,0,0,0,0,0,0,0,-1,937,323,0,0
-280,701,0,0,0,0,0,0,0,0,0,-1,944,323,0,0
-273,701,0,0,0,0,0,0,0,0,0,-1,951,323,0,0
-266,701,0,0,0,0,0,0,0,0,0,-1,958,323,0,0
-259,701,0,0,0,0,0,0,0,0,0,-1,965,323,0,0
-252,701,0,0,0,0,0,0,0,0,0,-1,972,323,0,0
-245,701,0,0,0,0,0,0,0,0,0,-1,979,323,0,0
-238,701,0,0,0,0,0,0,0,0,0,-1,986,323,0,0
-231,701,0,0,0,0,0,0,0,0,0,-1,993,323,0,0
-224,701,0,0,0,0,0,0,0,0,0,-1,1000,323,0,0
-217,701,0,0,0,0,0,0,0,0,0,-1,1007,323,0,0
-210,701,0,0,0,0,0,0,0,0,0,-1,1014,323,0,0
-203,701,0,0,0,0,0,0,0,0,0,-1,1021,323,0,0
-196,701,0,0,0,0,0,0,0,0,0,-1,1028,323,0,0
-189,701,0,0,0,0,0,0,0,0,0,-1,1035,323,0,0
-182,701,0,0,0,0,0,0,0,0,0,-1,1042,323,0,0
-175,701,0,0,0,0,0,0,0,0,0,-1,1049,323,0,0
-168,701,0,0,0,0,0,0,0,0,0,-1,1056,323,0,0
-161,701,0,0,0,0,0,0,0,0,0,-1,1063,323,0,0
-154,701,0,0,0,0,0,0,0,0,0,-1,1070,323,0,0
-147,701,0,0,0,0,0,0,0,0,0,-1,1077,323,0,0
-140,701,0,0,0,0,0,0,0,0,0,-1,1084,323,0,0
-133,701,0,0,0,0,0,0,0,0,0,-1,1091,323,0,0
-126,701,0,0,0,0,0,0,0,0,0,-1,1098,323,0,0
-119,701,0,0,0,0,0,0,0,0,0,-1,1105,323,0,0
-112,701,0,0,0,0,0,0,0,0,0,-1,1112,323,0,0
-105,701,0,0,0,0,0,0,0,0,0,-1,1119,323,0,0
-98,701,0,0,0,0,0,0,0,0,0,-1,1126,323,0,0
-91,701,0,0,0,0,0,0,0,0,0,-1,1133,323,0,0
-84,701,0,0,0,0,0,0,0,0,0,-1,1140,323,0,0
-77,701,0,0,0,0,0,0,0,0,0,-1,1147,323,0,0
-70,701,-11.9647,-28.192,0,0,0,0,0,0,0,-1,1154,323,-11.9647,28.1919
-63,701,-18.3169,-21.2322,0,0,0,0,0,0,0,-1,1161,323,-18.3169,21.2322
-56,701,-0.420166,-0.101776,0,0,0,0,0,0,0,-1,1168,323,-0.420119,0.101777
-49,701,-1.09021,-0.155762,0,0,0,0,0,0,0,-1,1175,323,-1.09024,0.155768
-42,701,-0.210327,-0.299133,0,0,0,0,0,0,0,-1,1182,323,-0.210379,0.29914
-35,701,-2.9635,-7.98676,0,0,0,0,0,0,0,-1,1189,323,-2.9635,7.98676
-28,701,-6.64417,-5.4917,0,0,0,0,0,0,0,-1,1196,323,-6.64411,5.4917
-21,701,2.10144,-27.7141,0,0,0,0,0,0,0,-1,1203,323,2.1014,27.7141
-14,701,3.29272,-32.3512,0,0,0,0,0,0,0,-1,1210,323,3.29267,32.3512
-7,701,3.43726,-32.9821,0.0208573,-0.0210555,-0.0323799,0.0384707,-0.0386689,-0.498195,0.0445366,0.0493737,1217,323,3.43727,32.9821
0,701,3.50708,-33.6154,0.0319281,-0.0122294,-0.026375,0.0442458,-0.0245471,-0.436917,0.0402567,0.0464612,1224,323,3.50711,33.6155
7,701,3.47046,-34.059,0.0364384,-0.00326785,-0.0199297,0.044716,-0.0115455,-0.393662,0.0343129,0.0428781,1231,323,3.47047,34.059
14,701,3.53516,-34.1973,0.0351832,0.00726635,-0.0120044,0.0396353,0.00281434,-0.355139,0.0255371,0.0460311,1238,323,3.53522,34.1973
21,701,3.62695,-34.3069,0,0,0,0,0,0,0,-1,1245,323,3.62695,34.3069
28,701,9.5094,-40.9433,0.0220501,0.0265004,0.00479961,0.0295656,0.0189849,1.00245,0.017298,0.0436393,1252,323,9.50935,40.9433
35,701,9.42847,-39.5761,0.0111658,0.0344826,0.0136916,0.0408069,0.00484144,1.13808,0.025743,0.0424654,1259,323,9.42845,39.5761
42,701,8.54126,-37.7739,0,0,0,0,0,0,0,-1,1266,323,8.54129,37.7739
49,701,8.40613,-37.0263,-0.00694289,0.0405093,0.0346298,0.0587611,-0.0251947,1.08574,0.0497466,0.0466129,1273,323,8.40616,37.0263
56,701,8.07666,-36.6255,-0.0129232,0.0475164,0.0436014,0.0703468,-0.0357535,1.08844,0.0623329,0.0447078,1280,323,8.07664,36.6254
63,701,7.18298,-36.6058,0,0,0,0,0,0,0,-1,1287,323,7.18295,36.6058
70,701,6.47974,-35.4442,0,0,0,0,0,0,0,-1,1294,323,6.47969,35.4442
77,701,5.96399,-35.0403,0,0,0,0,0,0,0,-1,1301,323,5.96402,35.0404
84,701,5.66333,-34.1197,-0.0254218,0.0585365,0.0725576,0.100384,-0.067269,1.04765,0.0974217,0.0460732,1308,323,5.66327,34.1197
91,701,5.21814,-33.424,-0.0211249,0.0608337,0.0770741,0.107145,-0.0674366,1.02974,0.10166,0.0446588,1315,323,5.21819,33.424
98,701,4.80896,-32.7783,-0.0152344,0.0666173,0.0792188,0.114857,-0.0634744,1.02382,0.104375,0.0479885,1322,323,4.80892,32.7783
105,701,4.75342,-30.9913,-0.00983191,0.0734129,0.0801955,0.122144,-0.0585629,1.02477,0.106462,0.0465707,1329,323,4.75341,30.9913
112,701,4.45142,-30.4046,-0.00456012,0.0802552,0.0783925,0.126975,-0.0512804,1.03334,0.105964,0.0439988,1336,323,4.45147,30.4046
119,701,4.55005,-29.3043,-0.00108863,0.0860021,0.0731196,0.127561,-0.0426472,1.05396,0.102265,0.0417289,1343,323,4.55009,29.3043
126,701,4.69812,-28.0567,0.000459485,0.0918189,0.0660691,0.126462,-0.0341837,1.08786,0.0977164,0.0484739,1350,323,4.69809,28.0567
133,701,3.9115,-29.3841,-4.99072e-05,0.0963063,0.05805,0.123566,-0.0273101,1.13176,0.0928299,0.0465843,1357,323,3.91153,29.3841
140,701,4.27795,-29.3825,0,0,0,0,0,0,0,-1,1364,323,4.278,29.3825
147,701,5.51965,-29.97,0,0,0,0,0,0,0,-1,1371,323,5.51962,29.97
154,701,1.7135,-30.1893,0,0,0,0,0,0,0,-1,1378,323,1.71354,30.1893
161,701,-0.549072,-35.8157,0,0,0,0,0,0,0,-1,1385,323,-0.549096,35.8157
168,701,30.7272,1.76184,0,0,0,0,0,0,0,-1,1392,323,30.7272,-1.76184
175,701,31.5035,2.25711,0,0,0,0,0,0,0,-1,1399,323,31.5036,-2.25712
182,701,8.80652,5.42807,0,0,0,0,0,0,0,-1,1406,323,8.8065,-5.42808
189,701,8.58081,4.24493,0,0,0,0,0,0,0,-1,1413,323,8.58082,-4.24494
196,701,0,0,0,0,0,0,0,0,0,-1,1420,323,0,0
203,701,0,0,0,0,0,0,0,0,0,-1,1427,323,0,0
210,701,0,0,0,0,0,0,0,0,0,-1,1434,323,0,0
217,701,0,0,0,0,0,0,0,0,0,-1,1441,323,0,0
224,701,0,0,0,0,0,0,0,0,0,-1,1448,323,0,0
231,701,0,0,0,0,0,0,0,0,0,-1,1455,323,0,0
238,701,0,0,0,0,0,0,0,0,0,-1,1462,323,0,0
245,701,0,0,0,0,0,0,0,0,0,-1,1469,323,0,0
252,701,0,0,0,0,0,0,0,0,0,-1,1476,323,0,0
259,701,0,0,0,0,0,0,0,0,0,-1,1483,323,0,0
266,701,0,0,0,0,0,0,0,0,0,-1,1490,323,0,0
273,701,0,0,0,0,0,0,0,0,0,-1,1497,323,0,0
280,701,0,0,0,0,0,0,0,0,0,-1,1504,323,0,0
287,701,0,0,0,0,0,0,0,0,0,-1,1511,323,0,0
294,701,0,0,0,0,0,0,0,0,0,-1,1518,323,0,0
301,701,0,0,0,0,0,0,0,0,0,-1,1525,323,0,0
308,701,0,0,0,0,0,0,0,0,0,-1,1532,323,0,0
315,701,0,0,0,0,0,0,0,0,0,-1,1539,323,0,0
322,701,0,0,0,0,0,0,0,0,0,-1,1546,323,0,0
329,701,0,0,0,0,0,0,0,0,0,-1,1553,323,0,0
336,701,0,0,0,0,0,0,0,0,0,-1,1560,323,0,0
343,701,0,0,0,0,0,0,0,0,0,-1,1567,323,0,0
350,701,0,0,0,0,0,0,0,0,0,-1,1574,323,0,0
357,701,0,0,0,0,0,0,0,0,0,-1,1581,323,0,0
364,701,0,0,0,0,0,0,0,0,0,-1,1588,323,0,0
371,701,0,0,0,0,0,0,0,0,0,-1,1595,323,0,0
378,701,0,0,0,0,0,0,0,0,0,-1,1602,323,0,0
385,701,0,0,0,0,0,0,0,0,0,-1,1609,323,0,0
392,701,0,0,0,0,0,0,0,0,0,-1,1616,323,0,0
399,701,0,0,0,0,0,0,0,0,0,-1,1623,323,0,0
406,701,0,0,0,0,0,0,0,0,0,-1,1630,323,0,0
413,701,0,0,0,0,0,0,0,0,0,-1,1637,323,0,0
420,701,0,0,0,0,0,0,0,0,0,-1,1644,323,0,0
427,701,0,0,0,0,0,0,0,0,0,-1,1651,323,0,0
434,701,0,0,0,0,0,0,0,0,0,-1,1658,323,0,0
441,701,0,0,0,0,0,0,0,0,0,-1,1665,323,0,0
448,701,0,0,0,0,0,0,0,0,0,-1,1672,323,0,0
455,701,0,0,0,0,0,0,0,0,0,-1,1679,323,0,0
462,701,0,0,0,0,0,0,0,0,0,-1,1686,323,0,0
469,701,0,0,0,0,0,0,0,0,0,-1,1693,323,0,0
476,701,0,0,0,0,0,0,0,0,0,-1,1700,323,0,0
483,701,0,0,0,0,0,0,0,0,0,-1,1707,323,0,0
490,701,0,0,0,0,0,0,0,0,0,-1,1714,323,0,0
497,701,0,0,0,0,0,0,0,0,0,-1,1721,323,0,0
504,701,0,0,0,0,0,0,0,0,0,-1,1728,323,0,0
511,701,0,0,0,0,0,0,0,0,0,-1,1735,323,0,0
518,701,0,0,0,0,0,0,0,0,0,-1,1742,323,0,0
525,701,0,0,0,0,0,0,0,0,0,-1,1749,323,0,0
532,701,0,0,0,0,0,0,0,0,0,-1,1756,323,0,0
539,701,0,0,0,0,0,0,0,0,0,-1,1763,323,0,0
546,701,0,0,0,0,0,0,0,0,0,-1,1770,323,0,0
553,701,0,0,0,0,0,0,0,0,0,-1,1777,323,0,0
560,701,0,0,0,0,0,0,0,0,0,-1,1784,323,0,0
567,701,0,0,0,0,0,0,0,0,0,-1,1791,323,0,0
574,701,0,0,0,0,0,0,0,0,0,-1,1798,323,0,0
581,701,0,0,0,0,0,0,0,0,0,-1,1805,323,0,0
588,701,0,0,0,0,0,0,0,0,0,-1,1812,323,0,0
595,701,0,0,0,0,0,0,0,0,0,-1,1819,323,0,0
602,701,0,0,0,0,0,0,0,0,0,-1,1826,323,0,0
609,701,0,0,0,0,0,0,0,0,0,-1,1833,323,0,0
616,701,0,0,0,0,0,0,0,0,0,-1,1840,323,0,0
623,701,0,0,0,0,0,0,0,0,0,-1,1847,323,0,0
630,701,0,0,0,0,0,0,0,0,0,-1,1854,323,0,0
637,701,0,0,0,0,0,0,0,0,0,-1,1861,323,0,0
644,701,0,0,0,0,0,0,0,0,0,-1,1868,323,0,0
651,701,0,0,0,0,0,0,0,0,0,-1,1875,323,0,0
658,701,0,0,0,0,0,0,0,0,0,-1,1882,323,0,0
665,701,0,0,0,0,0,0,0,0,0,-1,1889,323,0,0
672,701,0,0,0,0,0,0,0,0,0,-1,1896,323,0,0
679,701,0,0,0,0,0,0,0,0,0,-1,1903,323,0,0
686,701,0,0,0,0,0,0,0,0,0,-1,1910,323,0,0
693,701,0,0,0,0,0,0,0,0,0,-1,1917,323,0,0
700,701,0,0,0,0,0,0,0,0,0,-1,1924,323,0,0
707,701,0,0,0,0,0,0,0,0,0,-1,1931,323,0,0
714,701,0,0,0,0,0,0,0,0,0,-1,1938,323,0,0
721,701,0,0,0,0,0,0,0,0,0,-1,1945,323,0,0
728,701,0,0,0,0,0,0,0,0,0,-1,1952,323,0,0
735,701,0,0,0,0,0,0,0,0,0,-1,1959,323,0,0
742,701,0,0,0,0,0,0,0,0,0,-1,1966,323,0,0
749,701,0,0,0,0,0,0,0,0,0,-1,1973,323,0,0
756,701,0,0,0,0,0,0,0,0,0,-1,1980,323,0,0
763,701,0,0,0,0,0,0,0,0,0,-1,1987,323,0,0
770,701,0,0,0,0,0,0,0,0,0,-1,1994,323,0,0
777,701,0,0,0,0,0,0,0,0,0,-1,2001,323,0,0
784,701,0,0,0,0,0,0,0,0,0,-1,2008,323,0,0
791,701,0,0,0,0,0,0,0,0,0,-1,2015,323,0,0
798,701,0,0,0,0,0,0,0,0,0,-1,2022,323,0,0
805,701,0,0,0,0,0,0,0,0,0,-1,2029,323,0,0
812,701,0,0,0,0,0,0,0,0,0,-1,2036,323,0,0
-700,694,0,0,0,0,0,0,0,0,0,-1,524,330,0,0
-693,694,0,0,0,0,0,0,0,0,0,-1,531,330,0,0
-686,694,0,0,0,0,0,0,0,0,0,-1,538,330,0,0
-679,694,0,0,0,0,0,0,0,0,0,-1,545,330,0,0
-672,694,0,0,0,0,0,0,0,0,0,-1,552,330,0,0
-665,694,0,0,0,0,0,0,0,0,0,-1,559,330,0,0
-658,694,0,0,0,0,0,0,0,0,0,-1,566,330,0,0
-651,694,0,0,0,0,0,0,0,0,0,-1,573,330,0,0
-644,694,0,0,0,0,0,0,0,0,0,-1,580,330,0,0
-637,694,0,0,0,0,0,0,0,0,0,-1,587,330,0,0
-630,694,0,0,0,0,0,0,0,0,0,-1,594,330,0,0
-623,694,0,0,0,0,0,0,0,0,0,-1,601,330,0,0
-616,694,0,0,0,0,0,0,0,0,0,-1,608,330,0,0
-609,694,0,0,0,0,0,0,0,0,0,-1,615,330,0,0
-602,694,0,0,0,0,0,0,0,0,0,-1,622,330,0,0
-595,694,0,0,0,0,0,0,0,0,0,-1,629,330,0,0
-588,694,0,0,0,0,0,0,0,0,0,-1,636,330,0,0
-581,694,0,0,0,0,0,0,0,0,0,-1,643,330,0,0
-574,694,0,0,0,0,0,0,0,0,0,-1,650,330,0,0
-567,694,0,0,0,0,0,0,0,0,0,-1,657,330,0,0
-560,694,0,0,0,0,0,0,0,0,0,-1,664,330,0,0
-553,694,0,0,0,0,0,0,0,0,0,-1,671,330,0,0
-546,694,0,0,0,0,0,0,0,0,0,-1,678,330,0,0
-539,694,0,0,0,0,0,0,0,0,0,-1,685,330,0,0
-532,694,0,0,0,0,0,0,0,0,0,-1,692,330,0,0
-525,694,0,0,0,0,0,0,0,0,0,-1,699,330,0,0
-518,694,0,0,0,0,0,0,0,0,0,-1,706,330,0,0
-511,694,0,0,0,0,0,0,0,0,0,-1,713,330,0,0
-504,694,0,0,0,0,0,0,0,0,0,-1,720,330,0,0
-497,694,0,0,0,0,0,0,0,0,0,-1,727,330,0,0
-490,694,0,0,0,0,0,0,0,0,0,-1,734,330,0,0
-483,694,0,0,0,0,0,0,0,0,0,-1,741,330,0,0
-476,694,0,0,0,0,0,0,0,0,0,-1,748,330,0,0
-469,694,0,0,0,0,0,0,0,0,0,-1,755,330,0,0
-462,694,0,0,0,0,0,0,0,0,0,-1,762,330,0,0
-455,694,0,0,0,0,0,0,0,0,0,-1,769,330,0,0
-448,694,0,0,0,0,0,0,0,0,0,-1,776,330,0,0
-441,694,0,0,0,0,0,0,0,0,0,-1,783,330,0,0
-434,694,0,0,0,0,0,0,0,0,0,-1,790,330,0,0
-427,694,0,0,0,0,0,0,0,0,0,-1,797,330,0,0
-420,694,0,0,0,0,0,0,0,0,0,-1,804,330,0,0
-413,694,0,0,0,0,0,0,0,0,0,-1,811,330,0,0
-406,694,0,0,0,0,0,0,0,0,0,-1,818,330,0,0
-399,694,0,0,0,0,0,0,0,0,0,-1,825,330,0,0
-392,694,0,0,0,0,0,0,0,0,0,-1,832,330,0,0
-385,694,0,0,0,0,0,0,0,0,0,-1,839,330,0,0
-378,694,0,0,0,0,0,0,0,0,0,-1,846,330,0,0
-371,694,0,0,0,0,0,0,0,0,0,-1,853,330,0,0
-364,694,0,0,0,0,0,0,0,0,0,-1,860,330,0,0
-357,694,0,0,0,0,0,0,0,0,0,-1,867,330,0,0
-350,694,0,0,0,0,0,0,0,0,0,-1,874,330,0,0
-343,694,0,0,0,0,0,0,0,0,0,-1,881,330,0,0
-336,694,0,0,0,0,0,0,0,0,0,-1,888,330,0,0
-329,694,0,0,0,0,0,0,0,0,0,-1,895,330,0,0
-322,694,0,0,0,0,0,0,0,0,0,-1,902,330,0,0
-315,694,0,0,0,0,0,0,0,0,0,-1,909,330,0,0
-308,694,0,0,0,0,0,0,0,0,0,-1,916,330,0,0
-301,694,0,0,0,0,0,0,0,0,0,-1,923,330,0,0
-294,694,0,0,0,0,0,0,0,0,0,-1,930,330,0,0
-287,694,0,0,0,0,0,0,0,0,0,-1,937,330,0,0
-280,694,0,0,0,0,0,0,0,0,0,-1,944,330,0,0
-273,694,0,0,0,0,0,0,0,0,0,-1,951,330,0,0
-266,694,0,0,0,0,0,0,0,0,0,-1,958,330,0,0
-259,694,0,0,0,0,0,0,0,0,0,-1,965,330,0,0
-252,694,0,0,0,0,0,0,0,0,0,-1,972,330,0,0
-245,694,0,0,0,0,0,0,0,0,0,-1,979,330,0,0
-238,694,0,0,0,0,0,0,0,0,0,-1,986,330,0,0
-231,694,0,0,0,0,0,0,0,0,0,-1,993,330,0,0
-224,694,0,0,0,0,0,0,0,0,0,-1,1000,330,0,0
-217,694,0,0,0,0,0,0,0,0,0,-1,1007,330,0,0
-210,694,0,0,0,0,0,0,0,0,0,-1,1014,330,0,0
-203,694,0,0,0,0,0,0,0,0,0,-1,1021,330,0,0
-196,694,0,0,0,0,0,0,0,0,0,-1,1028,330,0,0
-189,694,0,0,0,0,0,0,0,0,0,-1,1035,330,0,0
-182,694,0,0,0,0,0,0,0,0,0,-1,1042,330,0,0
-175,694,0,0,0,0,0,0,0,0,0,-1,1049,330,0,0
-168,694,0,0,0,0,0,0,0,0,0,-1,1056,330,0,0
-161,694,0,0,0,0,0,0,0,0,0,-1,1063,330,0,0
-154,694,0,0,0,0,0,0,0,0,0,-1,1070,330,0,0
-147,694,0,0,0,0,0,0,0,0,0,-1,1077,330,0,0
-140,694,0,0,0,0,0,0,0,0,0,-1,1084,330,0,0
-133,694,0,0,0,0,0,0,0,0,0,-1,1091,330,0,0
-126,694,0,0,0,0,0,0,0,0,0,-1,1098,330,0,0
-119,694,0,0,0,0,0,0,0,0,0,-1,1105,330,0,0
-112,694,0,0,0,0,0,0,0,0,0,-1,1112,330,0,0
-105,694,2.5188,-19.3963,0,0,0,0,0,0,0,-1,1119,330,2.51882,19.3963
-98,694,1.34875,-10.1051,0,0,0,0,0,0,0,-1,1126,330,1.34874,10.1051
-91,694,7.12927,-43.3935,0,0,0,0,0,0,0,-1,1133,330,7.12929,43.3935
-84,694,1.07324,-37.1586,0,0,0,0,0,0,0,-1,1140,330,1.07323,37.1586
-77,694,-5.02612,-31.0246,0,0,0,0,0,0,0,-1,1147,330,-5.02613,31.0246
-70,694,-11.1091,-23.8819,0,0,0,0,0,0,0,-1,1154,330,-11.1091,23.8819
-63,694,-17.3901,-16.7162,0,0,0,0,0,0,0,-1,1161,330,-17.3901,16.7162
-56,694,-6.50623,-0.649139,0,0,0,0,0,0,0,-1,1168,330,-6.5062,0.649126
-49,694,-1.11426,0.0341797,0,0,0,0,0,0,0,-1,1175,330,-1.11424,-0.0341846
-42,694,-0.346313,-0.709595,0,0,0,0,0,0,0,-1,1182,330,-0.346298,0.709581
-35,694,-0.459106,-1.24713,0,0,0,0,0,0,0,-1,1189,330,-0.459142,1.24714
-28,694,-6.48413,-3.95972,0,0,0,0,0,0,0,-1,1196,330,-6.48414,3.9597
-21,694,2.97803,-27.7982,0,0,0,0,0,0,0,-1,1203,330,2.97802,27.7981
-14,694,4.19983,-31.0791,0,0,0,0,0,0,0,-1,1210,330,4.19984,31.0791
-7,694,3.73828,-33.2018,0.0151019,-0.0164247,-0.0269459,0.0305566,-0.0318794,-0.520741,0.0360501,0.0445709,1217,330,3.73834,33.2018
0,694,3.41992,-33.2195,0.0229025,-0.0102021,-0.0223072,0.0341277,-0.0214273,-0.466212,0.0323529,0.0449072,1224,330,3.41993,33.2194
7,694,3.42773,-33.7335,0.0264351,-0.00338078,-0.017191,0.0342818,-0.0112276,-0.428202,0.0273756,0.04534,1231,330,3.42774,33.7335
14,694,3.38232,-34.0226,0.0263247,0.00515907,-0.0108792,0.0309193,0.000564535,-0.399602,0.0204273,0.0469219,1238,330,3.38226,34.0225
21,694,3.31848,-34.2686,0,0,0,0,0,0,0,-1,1245,330,3.31854,34.2686
28,694,10.6942,-41.6575,0,0,0,0,0,0,0,-1,1252,330,10.6942,41.6575
35,694,9.96814,-40.7939,0,0,0,0,0,0,0,-1,1259,330,9.96816,40.7939
42,694,9.24219,-39.9302,0,0,0,0,0,0,0,-1,1266,330,9.24215,39.9302
49,694,8.74841,-37.0975,0,0,0,0,0,0,0,-1,1273,330,8.74847,37.0975
56,694,8.46729,-36.5832,-0.00928624,0.0394901,0.0357735,0.0583977,-0.0281938,1.08458,0.0509973,0.0455166,1280,330,8.46729,36.5832
63,694,7.36389,-36.076,0,0,0,0,0,0,0,-1,1287,330,7.3639,36.076
70,694,6.17944,-35.757,0,0,0,0,0,0,0,-1,1294,330,6.17942,35.757
77,694,5.68237,-35.8037,0,0,0,0,0,0,0,-1,1301,330,5.68239,35.8037
84,694,5.46106,-34.8723,-0.0186684,0.0486503,0.0605277,0.0842481,-0.0542663,1.03915,0.0805934,0.0444851,1308,330,5.4611,34.8723
91,694,5.11938,-33.9863,-0.0151542,0.0505037,0.0641085,0.0897,-0.0543505,1.02203,0.0839982,0.0457008,1315,330,5.11939,33.9863
98,694,4.77832,-33.297,-0.0104973,0.0551138,0.0656208,0.0956723,-0.0510558,1.01719,0.0860091,0.0451268,1322,330,4.77837,33.297
105,694,4.34741,-32.4565,-0.00630414,0.0607411,0.0661903,0.101414,-0.0469767,1.0198,0.0875737,0.0426458,1329,330,4.34743,32.4565
112,694,3.9635,-31.0898,-0.00221956,0.0666483,0.0646359,0.10545,-0.0410215,1.03014,0.0872499,0.0430204,1336,330,3.96354,31.0897
119,694,4.17651,-30.0522,0.000173038,0.0716663,0.0602434,0.10597,-0.0341309,1.05316,0.0843576,0.0440831,1343,330,4.17653,30.0522
126,694,3.21082,-29.677,0.0011738,0.0768464,0.0546411,0.105472,-0.0274522,1.08822,0.0810308,0.0476493,1350,330,3.21082,29.677
133,694,3.59827,-29.5589,0.000611186,0.0810693,0.0484681,0.103829,-0.0221481,1.13179,0.0776617,0.0445332,1357,330,3.59822,29.5589
140,694,4.06677,-29.5047,0,0,0,0,0,0,0,-1,1364,330,4.06677,29.5047
147,694,5.11707,-29.5462,0,0,0,0,0,0,0,-1,1371,330,5.11704,29.5462
154,694,6.12305,-29.4879,0,0,0,0,0,0,0,-1,1378,330,6.12305,29.488
161,694,3.92969,-26.2193,0,0,0,0,0,0,0,-1,1385,330,3.92966,26.2193
168,694,30.451,0.196686,0,0,0,0,0,0,0,-1,1392,330,30.4511,-0.196674
175,694,31.0701,0.869873,0,0,0,0,0,0,0,-1,1399,330,31.07,-0.869874
182,694,8.29028,5.75238,0,0,0,0,0,0,0,-1,1406,330,8.29034,-5.75237
189,694,7.9801,4.46118,0,0,0,0,0,0,0,-1,1413,330,7.9801,-4.46118
196,694,7.39331,3.32632,0,0,0,0,0,0,0,-1,1420,330,7.39329,-3.32633
203,694,7.04492,2.20529,0,0,0,0,0,0,0,-1,1427,330,7.04496,-2.20529
210,694,6.44714,0.646912,0,0,0,0,0,0,0,-1,1434,330,6.44717,-0.646903
217,694,7.12061,-0.644958,0,0,0,0,0,0,0,-1,1441,330,7.12059,0.644961
224,694,6.74011,-1.70544,0,0,0,0,0,0,0,-1,1448,330,6.74013,1.70546
231,694,0,0,0,0,0,0,0,0,0,-1,1455,330,0,0
238,694,0,0,0,0,0,0,0,0,0,-1,1462,330,0,0
245,694,0,0,0,0,0,0,0,0,0,-1,1469,330,0,0
252,694,0,0,0,0,0,0,0,0,0,-1,1476,330,0,0
259,694,0,0,0,0,0,0,0,0,0,-1,1483,330,0,0
266,694,0,0,0,0,0,0,0,0,0,-1,1490,330,0,0
273,694,0,0,0,0,0,0,0,0,0,-1,1497,330,0,0
280,694,0,0,0,0,0,0,0,0,0,-1,1504,330,0,0
287,694,0,0,0,0,0,0,0,0,0,-1,1511,330,0,0
294,694,0,0,0,0,0,0,0,0,0,-1,1518,330,0,0
301,694,0,0,0,0,0,0,0,0,0,-1,1525,330,0,0
308,694,0,0,0,0,0,0,0,0,0,-1,1532,330,0,0
315,694,0,0,0,0,0,0,0,0,0,-1,1539,330,0,0
322,694,0,0,0,0,0,0,0,0,0,-1,1546,330,0,0
329,694,0,0,0,0,0,0,0,0,0,-1,1553,330,0,0
336,694,0,0,0,0,0,0,0,0,0,-1,1560,330,0,0
343,694,0,0,0,0,0,0,0,0,0,-1,1567,330,0,0
350,694,0,0,0,0,0,0,0,0,0,-1,1574,330,0,0
357,694,0,0,0,0,0,0,0,0,0,-1,1581,330,0,0
364,694,0,0,0,0,0,0,0,0,0,-1,1588,330,0,0
371,694,0,0,0,0,0,0,0,0,0,-1,1595,330,0,0
378,694,0,0,0,0,0,0,0,0,0,-1,1602,330,0,0
385,694,0,0,0,0,0,0,0,0,0,-1,1609,330,0,0
392,694,0,0,0,0,0,0,0,0,0,-1,1616,330,0,0
399,694,0,0,0,0,0,0,0,0,0,-1,1623,330,0,0
406,694,0,0,0,0,0,0,0,0,0,-1,1630,330,0,0
413,694,0,0,0,0,0,0,0,0,0,-1,1637,330,0,0
420,694,0,0,0,0,0,0,0,0,0,-1,1644,330,0,0
427,694,0,0,0,0,0,0,0,0,0,-1,1651,330,0,0
434,694,0,0,0,0,0,0,0,0,0,-1,1658,330,0,0
441,694,0,0,0,0,0,0,0,0,0,-1,1665,330,0,0
448,694,0,0,0,0,0,0,0,0,0,-1,1672,330,0,0
455,694,0,0,0,0,0,0,0,0,0,-1,1679,330,0,0
462,694,0,0,0,0,0,0,0,0,0,-1,1686,330,0,0
469,694,0,0,0,0,0,0,0,0,0,-1,1693,330,0,0
476,694,0,0,0,0,0,0,0,0,0,-1,1700,330,0,0
483,694,0,0,0,0,0,0,0,0,0,-1,1707,330,0,0
490,694,0,0,0,0,0,0,0,0,0,-1,1714,330,0,0
497,694,0,0,0,0,0,0,0,0,0,-1,1721,330,0,0
504,694,0,0,0,0,0,0,0,0,0,-1,1728,330,0,0
511,694,0,0,0,0,0,0,0,0,0,-1,1735,330,0,0
518,694,0,0,0,0,0,0,0,0,0,-1,1742,330,0,0
525,694,0,0,0,0,0,0,0,0,0,-1,1749,330,0,0
532,694,0,0,0,0,0,0,0,0,0,-1,1756,330,0,0
539,694,0,0,0,0,0,0,0,0,0,-1,1763,330,0,0
546,694,0,0,0,0,0,0,0,0,0,-1,1770,330,0,0
553,694,0,0,0,0,0,0,0,0,0,-1,1777,330,0,0
560,694,0,0,0,0,0,0,0,0,0,-1,1784,330,0,0
567,694,0,0,0,0,0,0,0,0,0,-1,1791,330,0,0
574,694,0,0,0,0,0,0,0,0,0,-1,1798,330,0,0
581,694,0,0,0,0,0,0,0,0,0,-1,1805,330,0,0
588,694,0,0,0,0,0,0,0,0,0,-1,1812,330,0,0
595,694,0,0,0,0,0,0,0,0,0,-1,1819,330,0,0
602,694,0,0,0,0,0,0,0,0,0,-1,1826,330,0,0
609,694,0,0,0,0,0,0,0,0,0,-1,1833,330,0,0
616,694,0,0,0,0,0,0,0,0,0,-1,1840,330,0,0
623,694,0,0,0,0,0,0,0,0,0,-1,1847,330,0,0
630,694,0,0,0,0,0,0,0,0,0,-1,1854,330,0,0
637,694,0,0,0,0,0,0,0,0,0,-1,1861,330,0,0
644,694,0,0,0,0,0,0,0,0,0,-1,1868,330,0,0
651,694,0,0,0,0,0,0,0,0,0,-1,1875,330,0,0
658,694,0,0,0,0,0,0,0,0,0,-1,1882,330,0,0
665,694,0,0,0,0,0,0,0,0,0,-1,1889,330,0,0
672,694,0,0,0,0,0,0,0,0,0,-1,1896,330,0,0
679,694,0,0,0,0,0,0,0,0,0,-1,1903,330,0,0
686,694,0,0,0,0,0,0,0,0,0,-1,1910,330,0,0
693,694,0,0,0,0,0,0,0,0,0,-1,1917,330,0,0
700,694,0,0,0,0,0,0,0,0,0,-1,1924,330,0,0
707,694,0,0,0,0,0,0,0,0,0,-1,1931,330,0,0
714,694,0,0,0,0,0,0,0,0,0,-1,1938,330,0,0
721,694,0,0,0,0,0,0,0,0,0,-1,1945,330,0,0
728,694,0,0,0,0,0,0,0,0,0,-1,1952,330,0,0
735,694,0,0,0,0,0,0,0,0,0,-1,1959,330,0,0
742,694,0,0,0,0,0,0,0,0,0,-1,1966,330,0,0
749,694,0,0,0,0,0,0,0,0,0,-1,1973,330,0,0
756,694,0,0,0,0,0,0,0,0,0,-1,1980,330,0,0
763,694,0,0,0,0,0,0,0,0,0,-1,1987,330,0,0
770,694,0,0,0,0,0,0,0,0,0,-1,1994,330,0,0
777,694,0,0,0,0,0,0,0,0,0,-1,2001,330,0,0
784,694,0,0,0,0,0,0,0,0,0,-1,2008,330,0,0
791,694,0,0,0,0,0,0,0,0,0,-1,2015,330,0,0
798,694,0,0,0,0,0,0,0,0,0,-1,2022,330,0,0
805,694,0,0,0,0,0,0,0,0,0,-1,2029,330,0,0
812,694,0,0,0,0,0,0,0,0,0,-1,2036,330,0,0
-700,687,0,0,0,0,0,0,0,0,0,-1,524,337,0,0
-693,687,0,0,0,0,0,0,0,0,0,-1,531,337,0,0
-686,687,0,0,0,0,0,0,0,0,0,-1,538,337,0,0
-679,687,0,0,0,0,0,0,0,0,0,-1,545,337,0,0
-672,687,0,0,0,0,0,0,0,0,0,-1,552,337,0,0
-665,687,0,0,0,0,0,0,0,0,0,-1,559,337,0,0
-658,687,0,0,0,0,0,0,0,0,0,-1,566,337,0,0
-651,687,0,0,0,0,0,0,0,0,0,-1,573,337,0,0
-644,687,0,0,0,0,0,0,0,0,0,-1,580,337,0,0
-637,687,0,0,0,0,0,0,0,0,0,-1,587,337,0,0
-630,687,0,0,0,0,0,0,0,0,0,-1,594,337,0,0
-623,687,0,0,0,0,0,0,0,0,0,-1,601,337,0,0
-616,687,0,0,0,0,0,0,0,0,0,-1,608,337,0,0
-609,687,0,0,0,0,0,0,0,0,0,-1,615,337,0,0
-602,687,0,0,0,0,0,0,0,0,0,-1,622,337,0,0
-595,687,0,0,0,0,0,0,0,0,0,-1,629,337,0,0
-588,687,0,0,0,0,0,0,0,0,0,-1,636,337,0,0
-581,687,0,0,0,0,0,0,0,0,0,-1,643,337,0,0
-574,687,0,0,0,0,0,0,0,0,0,-1,650,337,0,0
-567,687,0,0,0,0,0,0,0,0,0,-1,657,337,0,0
-560,687,0,0,0,0,0,0,0,0,0,-1,664,337,0,0
-553,687,0,0,0,0,0,0,0,0,0,-1,671,337,0,0
-546,687,0,0,0,0,0,0,0,0,0,-1,678,337,0,0
-539,687,0,0,0,0,0,0,0,0,0,-1,685,337,0,0
-532,687,0,0,0,0,0,0,0,0,0,-1,692,337,0,0
-525,687,0,0,0,0,0,0,0,0,0,-1,699,337,0,0
-518,687,0,0,0,0,0,0,0,0,0,-1,706,337,0,0
-511,687,0,0,0,0,0,0,0,0,0,-1,713,337,0,0
-504,687,0,0,0,0,0,0,0,0,0,-1,720,337,0,0
-497,687,0,0,0,0,0,0,0,0,0,-1,727,337,0,0
-490,687,0,0,0,0,0,0,0,0,0,-1,734,337,0,0
-483,687,0,0,0,0,0,0,0,0,0,-1,741,337,0,0
-476,687,0,0,0,0,0,0,0,0,0,-1,748,337,0,0
-469,687,0,0,0,0,0,0,0,0,0,-1,755,337,0,0
-462,687,0,0,0,0,0,0,0,0,0,-1,762,337,0,0
-455,687,0,0,0,0,0,0,0,0,0,-1,769,337,0,0
-448,687,0,0,0,0,0,0,0,0,0,-1,776,337,0,0
-441,687,0,0,0,0,0,0,0,0,0,-1,783,337,0,0
-434,687,0,0,0,0,0,0,0,0,0,-1,790,337,0,0
-427,687,0,0,0,0,0,0,0,0,0,-1,797,337,0,0
-420,687,0,0,0,0,0,0,0,0,0,-1,804,337,0,0
-413,687,0,0,0,0,0,0,0,0,0,-1,811,337,0,0
-406,687,0,0,0,0,0,0,0,0,0,-1,818,337,0,0
-399,687,0,0,0,0,0,0,0,0,0,-1,825,337,0,0
-392,687,0,0,0,0,0,0,0,0,0,-1,832,337,0,0
-385,687,0,0,0,0,0,0,0,0,0,-1,839,337,0,0
-378,687,0,0,0,0,0,0,0,0,0,-1,846,337,0,0
-371,687,0,0,0,0,0,0,0,0,0,-1,853,337,0,0
-364,687,0,0,0,0,0,0,0,0,0,-1,860,337,0,0
-357,687,0,0,0,0,0,0,0,0,0,-1,867,337,0,0
-350,687,0,0,0,0,0,0,0,0,0,-1,874,337,0,0
-343,687,0,0,0,0,0,0,0,0,0,-1,881,337,0,0
-336,687,0,0,0,0,0,0,0,0,0,-1,888,337,0,0
-329,687,0,0,0,0,0,0,0,0,0,-1,895,337,0,0
-322,687,0,0,0,0,0,0,0,0,0,-1,902,337,0,0
-315,687,0,0,0,0,0,0,0,0,0,-1,909,337,0,0
-308,687,0,0,0,0,0,0,0,0,0,-1,916,337,0,0
-301,687,0,0,0,0,0,0,0,0,0,-1,923,337,0,0
-294,687,0,0,0,0,0,0,0,0,0,-1,930,337,0,0
-287,687,0,0,0,0,0,0,0,0,0,-1,937,337,0,0
-280,687,0,0,0,0,0,0,0,0,0,-1,944,337,0,0
-273,687,0,0,0,0,0,0,0,0,0,-1,951,337,0,0
-266,687,0,0,0,0,0,0,0,0,0,-1,958,337,0,0
-259,687,0,0,0,0,0,0,0,0,0,-1,965,337,0,0
-252,687,0,0,0,0,0,0,0,0,0,-1,972,337,0,0
-245,687,0,0,0,0,0,0,0,0,0,-1,979,337,0,0
-238,687,0,0,0,0,0,0,0,0,0,-1,986,337,0,0
-231,687,0,0,0,0,0,0,0,0,0,-1,993,337,0,0
-224,687,0,0,0,0,0,0,0,0,0,-1,1000,337,0,0
-217,687,0,0,0,0,0,0,0,0,0,-1,1007,337,0,0
-210,687,0,0,0,0,0,0,0,0,0,-1,1014,337,0,0
-203,687,0,0,0,0,0,0,0,0,0,-1,1021,337,0,0
-196,687,0,0,0,0,0,0,0,0,0,-1,1028,337,0,0
-189,687,0,0,0,0,0,0,0,0,0,-1,1035,337,0,0
-182,687,0,0,0,0,0,0,0,0,0,-1,1042,337,0,0
-175,687,0,0,0,0,0,0,0,0,0,-1,1049,337,0,0
-168,687,0,0,0,0,0,0,0,0,0,-1,1056,337,0,0
-161,687,0,0,0,0,0,0,0,0,0,-1,1063,337,0,0
-154,687,0,0,0,0,0,0,0,0,0,-1,1070,337,0,0
-147,687,0,0,0,0,0,0,0,0,0,-1,1077,337,0,0
-140,687,0,0,0,0,0,0,0,0,0,-1,1084,337,0,0
-133,687,8.91333,-31.2697,0,0,0,0,0,0,0,-1,1091,337,8.9133,31.2697
-126,687,8.39832,-30.65,-0.0388895,0.0270797,0.0858569,0.08607,-0.0978799,0.968796,0.106276,0.0435246,1098,337,8.39825,30.65
-119,687,7.87073,-30.0923,-0.0511639,0.03523,0.0939664,0.0954528,-0.111387,1.00085,0.119537,0.0451852,1105,337,7.87072,30.0923
-112,687,7.4259,-29.1291,-0.0554048,0.0335918,0.0992824,0.0978919,-0.119705,0.996076,0.12584,0.0493425,1112,337,7.42595,29.129
-105,687,7.16797,-27.6494,0,0,0,0,0,0,0,-1,1119,337,7.16803,27.6494
-98,687,13.5825,-44.6227,0,0,0,0,0,0,0,-1,1126,337,13.5825,44.6227
-91,687,7.73694,-38.4884,0,0,0,0,0,0,0,-1,1133,337,7.73693,38.4884
-84,687,1.797,-32.6166,0,0,0,0,0,0,0,-1,1140,337,1.79697,32.6166
-77,687,-4.23816,-26.3512,0,0,0,0,0,0,0,-1,1147,337,-4.23819,26.3512
-70,687,-10.2548,-19.4462,0,0,0,0,0,0,0,-1,1154,337,-10.2548,19.4462
-63,687,-16.4756,-12.504,0,0,0,0,0,0,0,-1,1161,337,-16.4756,12.504
-56,687,-18.104,7.81931,0,0,0,0,0,0,0,-1,1168,337,-18.104,-7.81931
-49,687,-15.6449,-9.94391,0,0,0,0,0,0,0,-1,1175,337,-15.6449,9.94392
-42,687,-4.2019,-0.405609,0,0,0,0,0,0,0,-1,1182,337,-4.20192,0.405614
-35,687,-4.42273,-0.688171,0,0,0,0,0,0,0,-1,1189,337,-4.42276,0.688178
-28,687,-1.14038,-1.39072,0,0,0,0,0,0,0,-1,1196,337,-1.14035,1.3907
-21,687,4.54163,-30.8383,0,0,0,0,0,0,0,-1,1203,337,4.54167,30.8383
-14,687,4.40955,-31.2002,0.00380498,-0.0151523,-0.0248739,0.020945,-0.0322923,-0.603358,0.0309684,0.0485667,1210,337,4.40957,31.2002
-7,687,3.55212,-32.5673,0.0105246,-0.0120696,-0.0220049,0.0239629,-0.0255079,-0.548247,0.0285666,0.0447315,1217,337,3.55208,32.5673
0,687,3.48218,-32.892,0.0160358,-0.00759587,-0.0184437,0.0261239,-0.017684,-0.500513,0.0254485,0.0463864,1224,337,3.4822,32.892
7,687,3.43176,-33.1642,0.0187124,-0.00245011,-0.0144596,0.0260488,-0.0097865,-0.469529,0.0213878,0.0479521,1231,337,3.43173,33.1642
14,687,3.36792,-33.4105,0.0191805,0.00427837,-0.00955624,0.0238472,-0.000388319,-0.454276,0.0160292,0.0484109,1238,337,3.3679,33.4105
21,687,3.76563,-31.3688,0.0171408,0.0111797,-0.0042129,0.0193209,0.00899963,-0.477535,0.0111636,0.0444716,1245,337,3.76568,31.3688
28,687,4.5658,-31.4268,0.0137377,0.0176452,0.000851378,0.0178226,0.0135602,1.36532,0.0107465,0.0454621,1252,337,4.56581,31.4268
35,687,10.3134,-41.6729,0,0,0,0,0,0,0,-1,1259,337,10.3133,41.6729
42,687,6.11853,-31.7249,0,0,0,0,0,0,0,-1,1266,337,6.11858,31.7249
49,687,4.14539,-31.6793,0,0,0,0,0,0,0,-1,1273,337,4.14536,31.6793
56,687,8.80957,-36.7139,0,0,0,0,0,0,0,-1,1280,337,8.80959,36.7139
63,687,7.11743,-36.4848,0,0,0,0,0,0,0,-1,1287,337,7.11748,36.4848
70,687,6.22852,-35.4262,0,0,0,0,0,0,0,-1,1294,337,6.22857,35.4262
77,687,5.2229,-36.1002,0,0,0,0,0,0,0,-1,1301,337,5.22291,36.1002
84,687,0.664551,-30.8092,0,0,0,0,0,0,0,-1,1308,337,0.664535,30.8092
91,687,1.14746,-30.8273,-0.0106613,0.0416437,0.0517254,0.0734522,-0.0424698,1.01946,0.0677197,0.0488057,1315,337,1.14741,30.8273
98,687,1.62183,-30.7886,-0.00713024,0.0452713,0.0527394,0.0779596,-0.0398185,1.01594,0.0691775,0.0476682,1322,337,1.62181,30.7886
105,687,2.05054,-30.8869,-0.00399004,0.049831,0.0529923,0.0823541,-0.0365132,1.02034,0.0703086,0.0433838,1329,337,2.05056,30.8869
112,687,3.35083,-31.3457,-0.000929421,0.0547574,0.0516631,0.0856024,-0.0317745,1.03255,0.0701027,0.0429333,1336,337,3.35082,31.3457
119,687,3.70386,-30.5518,0.000656615,0.0589409,0.0481141,0.0860503,-0.0264528,1.05769,0.0679237,0.0448893,1343,337,3.70382,30.5519
126,687,3.44043,-30.3184,0.0012839,0.063267,0.0437243,0.0858692,-0.0213183,1.0937,0.0655187,0.0484228,1350,337,3.44041,30.3184
133,687,3.47546,-30.0442,0.000753489,0.0669066,0.0389792,0.0849519,-0.0172917,1.13723,0.0631921,0.0489036,1357,337,3.47548,30.0442
140,687,3.6908,-29.888,0,0,0,0,0,0,0,-1,1364,337,3.69076,29.888
147,687,4.70361,-29.0571,0,0,0,0,0,0,0,-1,1371,337,4.70357,29.0571
154,687,2.73926,-30.4198,0,0,0,0,0,0,0,-1,1378,337,2.73926,30.4198
161,687,29.3895,-1.90628,0,0,0,0,0,0,0,-1,1385,337,29.3895,1.90628
168,687,29.8564,-1.19434,0,0,0,0,0,0,0,-1,1392,337,29.8564,1.19434
175,687,30.3419,-0.453583,0,0,0,0,0,0,0,-1,1399,337,30.3419,0.45357
182,687,6.67249,0.289917,0,0,0,0,0,0,0,-1,1406,337,6.67247,-0.289916
189,687,7.76062,4.53635,0,0,0,0,0,0,0,-1,1413,337,7.76064,-4.53636
196,687,6.99048,3.2966,0,0,0,0,0,0,0,-1,1420,337,6.99046,-3.2966
203,687,6.36499,2.1445,0,0,0,0,0,0,0,-1,1427,337,6.36499,-2.14451
210,687,6.68066,0.674652,0,0,0,0,0,0,0,-1,1434,337,6.68062,-0.674655
217,687,5.99683,-0.630493,0,0,0,0,0,0,0,-1,1441,337,5.99684,0.630497
224,687,5.52917,0.524902,0,0,0,0,0,0,0,-1,1448,337,5.5292,-0.524915
231,687,5.85583,-1.73651,0,0,0,0,0,0,0,-1,1455,337,5.85577,1.73651
238,687,5.96582,-2.96774,0,0,0,0,0,0,0,-1,1462,337,5.96577,2.96773
245,687,1.28259,2.32211,0,0,0,0,0,0,0,-1,1469,337,1.28258,-2.32211
252,687,1.97278,3.88422,0,0,0,0,0,0,0,-1,1476,337,1.97281,-3.88421
259,687,0,0,0,0,0,0,0,0,0,-1,1483,337,0,0
266,687,0,0,0,0,0,0,0,0,0,-1,1490,337,0,0
273,687,0,0,0,0,0,0,0,0,0,-1,1497,337,0,0
280,687,0,0,0,0,0,0,0,0,0,-1,1504,337,0,0
287,687,0,0,0,0,0,0,0,0,0,-1,1511,337,0,0
294,687,0,0,0,0,0,0,0,0,0,-1,1518,337,0,0
301,687,0,0,0,0,0,0,0,0,0,-1,1525,337,0,0
308,687,0,0,0,0,0,0,0,0,0,-1,1532,337,0,0
315,687,0,0,0,0,0,0,0,0,0,-1,1539,337,0,0
322,687,0,0,0,0,0,0,0,0,0,-1,1546,337,0,0
329,687,0,0,0,0,0,0,0,0,0,-1,1553,337,0,0
336,687,0,0,0,0,0,0,0,0,0,-1,1560,337,0,0
343,687,0,0,0,0,0,0,0,0,0,-1,1567,337,0,0
350,687,0,0,0,0,0,0,0,0,0,-1,1574,337,0,0
357,687,0,0,0,0,0,0,0,0,0,-1,1581,337,0,0
364,687,0,0,0,0,0,0,0,0,0,-1,1588,337,0,0
371,687,0,0,0,0,0,0,0,0,0,-1,1595,337,0,0
378,687,0,0,0,0,0,0,0,0,0,-1,1602,337,0,0
385,687,0,0,0,0,0,0,0,0,0,-1,1609,337,0,0
392,687,0,0,0,0,0,0,0,0,0,-1,1616,337,0,0
399,687,0,0,0,0,0,0,0,0,0,-1,1623,337,0,0
406,687,0,0,0,0,0,0,0,0,0,-1,1630,337,0,0
413,687,0,0,0,0,0,0,0,0,0,-1,1637,337,0,0
420,687,0,0,0,0,0,0,0,0,0,-1,1644,337,0,0
427,687,0,0,0,0,0,0,0,0,0,-1,1651,337,0,0
434,687,0,0,0,0,0,0,0,0,0,-1,1658,337,0,0
441,687,0,0,0,0,0,0,0,0,0,-1,1665,337,0,0
448,687,0,0,0,0,0,0,0,0,0,-1,1672,337,0,0
455,687,0,0,0,0,0,0,0,0,0,-1,1679,337,0,0
462,687,0,0,0,0,0,0,0,0,0,-1,1686,337,0,0
469,687,0,0,0,0,0,0,0,0,0,-1,1693,337,0,0
476,687,0,0,0,0,0,0,0,0,0,-1,1700,337,0,0
483,687,0,0,0,0,0,0,0,0,0,-1,1707,337,0,0
490,687,0,0,0,0,0,0,0,0,0,-1,1714,337,0,0
497,687,0,0,0,0,0,0,0,0,0,-1,1721,337,0,0
504,687,0,0,0,0,0,0,0,0,0,-1,1728,337,0,0
511,687,0,0,0,0,0,0,0,0,0,-1,1735,337,0,0
518,687,0,0,0,0,0,0,0,0,0,-1,1742,337,0,0
525,687,0,0,0,0,0,0,0,0,0,-1,1749,337,0,0
532,687,0,0,0,0,0,0,0,0,0,-1,1756,337,0,0
539,687,0,0,0,0,0,0,0,0,0,-1,1763,337,0,0
546,687,0,0,0,0,0,0,0,0,0,-1,1770,337,0,0
553,687,0,0,0,0,0,0,0,0,0,-1,1777,337,0,0
560,687,0,0,0,0,0,0,0,0,0,-1,1784,337,0,0
567,687,0,0,0,0,0,0,0,0,0,-1,1791,337,0,0
574,687,0,0,0,0,0,0,0,0,0,-1,1798,337,0,0
581,687,0,0,0,0,0,0,0,0,0,-1,1805,337,0,0
588,687,0,0,0,0,0,0,0,0,0,-1,1812,337,0,0
595,687,0,0,0,0,0,0,0,0,0,-1,1819,337,0,0
602,687,0,0,0,0,0,0,0,0,0,-1,1826,337,0,0
609,687,0,0,0,0,0,0,0,0,0,-1,1833,337,0,0
616,687,0,0,0,0,0,0,0,0,0,-1,1840,337,0,0
623,687,0,0,0,0,0,0,0,0,0,-1,1847,337,0,0
630,687,0,0,0,0,0,0,0,0,0,-1,1854,337,0,0
637,687,0,0,0,0,0,0,0,0,0,-1,1861,337,0,0
644,687,0,0,0,0,0,0,0,0,0,-1,1868,337,0,0
651,687,0,0,0,0,0,0,0,0,0,-1,1875,337,0,0
658,687,0,0,0,0,0,0,0,0,0,-1,1882,337,0,0
665,687,0,0,0,0,0,0,0,0,0,-1,1889,337,0,0
672,687,0,0,0,0,0,0,0,0,0,-1,1896,337,0,0
679,687,0,0,0,0,0,0,0,0,0,-1,1903,337,0,0
686,687,0,0,0,0,0,0,0,0,0,-1,1910,337,0,0
693,687,0,0,0,0,0,0,0,0,0,-1,1917,337,0,0
700,687,0,0,0,0,0,0,0,0,0,-1,1924,337,0,0
707,687,0,0,0,0,0,0,0,0,0,-1,1931,337,0,0
714,687,0,0,0,0,0,0,0,0,0,-1,1938,337,0,0
721,687,0,0,0,0,0,0,0,0,0,-1,1945,337,0,0
728,687,0,0,0,0,0,0,0,0,0,-1,1952,337,0,0
735,687,0,0,0,0,0,0,0,0,0,-1,1959,337,0,0
742,687,0,0,0,0,0,0,0,0,0,-1,1966,337,0,0
749,687,0,0,0,0,0,0,0,0,0,-1,1973,337,0,0
756,687,0,0,0,0,0,0,0,0,0,-1,1980,337,0,0
763,687,0,0,0,0,0,0,0,0,0,-1,1987,337,0,0
770,687,0,0,0,0,0,0,0,0,0,-1,1994,337,0,0
777,687,0,0,0,0,0,0,0,0,0,-1,2001,337,0,0
784,687,0,0,0,0,0,0,0,0,0,-1,2008,337,0,0
791,687,0,0,0,0,0,0,0,0,0,-1,2015,337,0,0
798,687,0,0,0,0,0,0,0,0,0,-1,2022,337,0,0
805,687,0,0,0,0,0,0,0,0,0,-1,2029,337,0,0
812,687,0,0,0,0,0,0,0,0,0,-1,2036,337,0,0
-700,680,0,0,0,0,0,0,0,0,0,-1,524,344,0,0
-693,680,0,0,0,0,0,0,0,0,0,-1,531,344,0,0
-686,680,0,0,0,0,0,0,0,0,0,-1,538,344,0,0
-679,680,0,0,0,0,0,0,0,0,0,-1,545,344,0,0
-672,680,0,0,0,0,0,0,0,0,0,-1,552,344,0,0
-665,680,0,0,0,0,0,0,0,0,0,-1,559,344,0,0
-658,680,0,0,0,0,0,0,0,0,0,-1,566,344,0,0
-651,680,0,0,0,0,0,0,0,0,0,-1,573,344,0,0
-644,680,0,0,0,0,0,0,0,0,0,-1,580,344,0,0
-637,680,0,0,0,0,0,0,0,0,0,-1,587,344,0,0
-630,680,0,0,0,0,0,0,0,0,0,-1,594,344,0,0
-623,680,0,0,0,0,0,0,0,0,0,-1,601,344,0,0
-616,680,0,0,0,0,0,0,0,0,0,-1,608,344,0,0
-609,680,0,0,0,0,0,0,0,0,0,-1,615,344,0,0
-602,680,0,0,0,0,0,0,0,0,0,-1,622,344,0,0
-595,680,0,0,0,0,0,0,0,0,0,-1,629,344,0,0
-588,680,0,0,0,0,0,0,0,0,0,-1,636,344,0,0
-581,680,0,0,0,0,0,0,0,0,0,-1,643,344,0,0
-574,680,0,0,0,0,0,0,0,0,0,-1,650,344,0,0
-567,680,0,0,0,0,0,0,0,0,0,-1,657,344,0,0
-560,680,0,0,0,0,0,0,0,0,0,-1,664,344,0,0
-553,680,0,0,0,0,0,0,0,0,0,-1,671,344,0,0
-546,680,0,0,0,0,0,0,0,0,0,-1,678,344,0,0
-539,680,0,0,0,0,0,0,0,0,0,-1,685,344,0,0
-532,680,0,0,0,0,0,0,0,0,0,-1,692,344,0,0
-525,680,0,0,0,0,0,0,0,0,0,-1,699,344,0,0
-518,680,0,0,0,0,0,0,0,0,0,-1,706,344,0,0
-511,680,0,0,0,0,0,0,0,0,0,-1,713,344,0,0
-504,680,0,0,0,0,0,0,0,0,0,-1,720,344,0,0
-497,680,0,0,0,0,0,0,0,0,0,-1,727,344,0,0
-490,680,0,0,0,0,0,0,0,0,0,-1,734,344,0,0
-483,680,0,0,0,0,0,0,0,0,0,-1,741,344,0,0
-476,680,0,0,0,0,0,0,0,0,0,-1,748,344,0,0
-469,680,0,0,0,0,0,0,0,0,0,-1,755,344,0,0
-462,680,0,0,0,0,0,0,0,0,0,-1,762,344,0,0
-455,680,0,0,0,0,0,0,0,0,0,-1,769,344,0,0
-448,680,0,0,0,0,0,0,0,0,0,-1,776,344,0,0
-441,680,0,0,0,0,0,0,0,0,0,-1,783,344,0,0
-434,680,0,0,0,0,0,0,0,0,0,-1,790,344,0,0
-427,680,0,0,0,0,0,0,0,0,0,-1,797,344,0,0
-420,680,0,0,0,0,0,0,0,0,0,-1,804,344,0,0
-413,680,0,0,0,0,0,0,0,0,0,-1,811,344,0,0
-406,680,0,0,0,0,0,0,0,0,0,-1,818,344,0,0
-399,680,0,0,0,0,0,0,0,0,0,-1,825,344,0,0
-392,680,0,0,0,0,0,0,0,0,0,-1,832,344,0,0
-385,680,0,0,0,0,0,0,0,0,0,-1,839,344,0,0
-378,680,0,0,0,0,0,0,0,0,0,-1,846,344,0,0
-371,680,0,0,0,0,0,0,0,0,0,-1,853,344,0,0
-364,680,0,0,0,0,0,0,0,0,0,-1,860,344,0,0
-357,680,0,0,0,0,0,0,0,0,0,-1,867,344,0,0
-350,680,0,0,0,0,0,0,0,0,0,-1,874,344,0,0
-343,680,0,0,0,0,0,0,0,0,0,-1,881,344,0,0
-336,680,0,0,0,0,0,0,0,0,0,-1,888,344,0,0
-329,680,0,0,0,0,0,0,0,0,0,-1,895,344,0,0
-322,680,0,0,0,0,0,0,0,0,0,-1,902,344,0,0
-315,680,0,0,0,0,0,0,0,0,0,-1,909,344,0,0
-308,680,0,0,0,0,0,0,0,0,0,-1,916,344,0,0
-301,680,0,0,0,0,0,0,0,0,0,-1,923,344,0,0
-294,680,0,0,0,0,0,0,0,0,0,-1,930,344,0,0
-287,680,0,0,0,0,0,0,0,0,0,-1,937,344,0,0
-280,680,0,0,0,0,0,0,0,0,0,-1,944,344,0,0
-273,680,0,0,0,0,0,0,0,0,0,-1,951,344,0,0
-266,680,0,0,0,0,0,0,0,0,0,-1,958,344,0,0
-259,680,0,0,0,0,0,0,0,0,0,-1,965,344,0,0
-252,680,0,0,0,0,0,0,0,0,0,-1,972,344,0,0
-245,680,0,0,0,0,0,0,0,0,0,-1,979,344,0,0
-238,680,0,0,0,0,0,0,0,0,0,-1,986,344,0,0
-231,680,0,0,0,0,0,0,0,0,0,-1,993,344,0,0
-224,680,0,0,0,0,0,0,0,0,0,-1,1000,344,0,0
-217,680,0,0,0,0,0,0,0,0,0,-1,1007,344,0,0
-210,680,0,0,0,0,0,0,0,0,0,-1,1014,344,0,0
-203,680,0,0,0,0,0,0,0,0,0,-1,1021,344,0,0
-196,680,0,0,0,0,0,0,0,0,0,-1,1028,344,0,0
-189,680,0,0,0,0,0,0,0,0,0,-1,1035,344,0,0
-182,680,0,0,0,0,0,0,0,0,0,-1,1042,344,0,0
-175,680,0,0,0,0,0,0,0,0,0,-1,1049,344,0,0
-168,680,0,0,0,0,0,0,0,0,0,-1,1056,344,0,0
-161,680,0,0,0,0,0,0,0,0,0,-1,1063,344,0,0
-154,680,2.25244,-29.1442,0,0,0,0,0,0,0,-1,1070,344,2.25241,29.1442
-147,680,6.2019,-29.6775,0,0,0,0,0,0,0,-1,1077,344,6.20187,29.6775
-140,680,6.18481,-29.4831,0,0,0,0,0,0,0,-1,1084,344,6.18484,29.4831
-133,680,8.21497,-32.3661,0,0,0,0,0,0,0,-1,1091,344,8.21494,32.3661
-126,680,7.89758,-31.2177,-0.0259194,0.0228146,0.0648741,0.0677469,-0.0708517,0.965049,0.0800267,0.0433941,1098,344,7.89753,31.2177
-119,680,7.46069,-30.3088,-0.0371863,0.0305554,0.0721597,0.0763982,-0.083029,1.00483,0.0920718,0.0423109,1105,344,7.46072,30.3088
-112,680,7.00574,-29.0869,-0.0426619,0.0317713,0.0773036,0.0803505,-0.0912411,1.00974,0.099135,0.0415384,1112,344,7.00576,29.0869
-105,680,6.64587,-27.5396,0,0,0,0,0,0,0,-1,1119,344,6.64587,27.5396
-98,680,14.1224,-39.1392,0,0,0,0,0,0,0,-1,1126,344,14.1225,39.1392
-91,680,8.3208,-33.7806,0,0,0,0,0,0,0,-1,1133,344,8.32075,33.7806
-84,680,2.49768,-28.4062,0,0,0,0,0,0,0,-1,1140,344,2.49767,28.4062
-77,680,-3.48523,-21.6401,0,0,0,0,0,0,0,-1,1147,344,-3.48523,21.6402
-70,680,-9.48633,-14.8963,0,0,0,0,0,0,0,-1,1154,344,-9.48631,14.8963
-63,680,-15.4189,-2.22992,0,0,0,0,0,0,0,-1,1161,344,-15.419,2.22992
-56,680,-6.96912,-8.83356,0,0,0,0,0,0,0,-1,1168,344,-6.96907,8.83354
-49,680,-6.7677,-2.24063,0,0,0,0,0,0,0,-1,1175,344,-6.76772,2.24063
-42,680,-1.02368,0.618805,0,0,0,0,0,0,0,-1,1182,344,-1.0237,-0.618797
-35,680,-0.947876,-0.942719,0,0,0,0,0,0,0,-1,1189,344,-0.947842,0.942731
-28,680,-1.46118,-1.10574,0,0,0,0,0,0,0,-1,1196,344,-1.4612,1.10575
-21,680,4.9071,-31.1046,0,0,0,0,0,0,0,-1,1203,344,4.90708,31.1046
-14,680,4.64209,-31.3618,0,0,0,0,0,0,0,-1,1210,344,4.64206,31.3618
-7,680,4.37708,-31.6191,0,0,0,0,0,0,0,-1,1217,344,4.37705,31.6191
0,680,3.76331,-32.654,0,0,0,0,0,0,0,-1,1224,344,3.76336,32.654
7,680,3.68323,-32.9812,0,0,0,0,0,0,0,-1,1231,344,3.68326,32.9812
14,680,3.87964,-32.5318,0.0134852,0.00409051,-0.008119,0.0181678,-0.000592075,-0.523144,0.012314,0.0473496,1238,344,3.87966,32.5318
21,680,4.62512,-31.2507,0.0124113,0.00950176,-0.00410905,0.0153155,0.00659754,-0.615265,0.0088706,0.0459486,1245,344,4.62516,31.2507
28,680,4.66553,-31.7521,0.0103063,0.0146213,-0.000300621,0.0146421,0.0102854,-1.50157,0.00868156,0.0489937,1252,344,4.66556,31.7521
35,680,4.86365,-31.9807,0.00608924,0.0196498,0.00406774,0.0207764,0.00496265,1.30061,0.0125287,0.0490397,1259,344,4.86361,31.9807
42,680,4.90161,-32.0063,0,0,0,0,0,0,0,-1,1266,344,4.90165,32.0063
49,680,4.28284,-31.9171,-0.00187307,0.0229742,0.0163054,0.0310496,-0.00994852,1.11095,0.0246932,0.0452167,1273,344,4.28289,31.9172
56,680,4.38623,-31.8138,-0.00444589,0.0266292,0.0215965,0.0376967,-0.0155133,1.09723,0.0315982,0.0435028,1280,344,4.38622,31.8138
63,680,4.60547,-31.5337,-0.00600723,0.0288961,0.0270505,0.0436359,-0.020747,1.07188,0.0379464,0.0414473,1287,344,4.6055,31.5337
70,680,6.51025,-35.1498,0,0,0,0,0,0,0,-1,1294,344,6.51023,35.1498
77,680,5.63489,-36.1472,0,0,0,0,0,0,0,-1,1301,344,5.6349,36.1472
84,680,1.58728,-30.9754,0,0,0,0,0,0,0,-1,1308,344,1.58729,30.9754
91,680,2.0498,-31.3026,0,0,0,0,0,0,0,-1,1315,344,2.04977,31.3026
98,680,3.46411,-32.4588,0,0,0,0,0,0,0,-1,1322,344,3.4641,32.4588
105,680,2.48962,-31.4911,-0.00253586,0.0404228,0.0410761,0.0652966,-0.0274096,1.0263,0.0549937,0.0407743,1329,344,2.48964,31.4911
112,680,3.14636,-31.3116,-0.00032058,0.0444063,0.0399674,0.0678415,-0.0237558,1.04047,0.0548875,0.0434376,1336,344,3.14638,31.3116
119,680,3.62671,-31.0436,0.00068114,0.0477568,0.0371834,0.0682263,-0.0197883,1.06757,0.0533187,0.0462636,1343,344,3.6267,31.0436
126,680,3.72253,-30.9249,0.00104884,0.0511845,0.0337917,0.0681913,-0.0159579,1.10453,0.0516092,0.0474887,1350,344,3.72252,30.9249
133,680,3.64636,-30.5953,0.000574801,0.054111,0.0301556,0.0676652,-0.0129794,1.14838,0.0500013,0.0476526,1357,344,3.64641,30.5953
140,680,3.81042,-30.486,0,0,0,0,0,0,0,-1,1364,344,3.81037,30.486
147,680,3.09143,-30.8095,0,0,0,0,0,0,0,-1,1371,344,3.09139,30.8095
154,680,3.03979,-30.6626,0,0,0,0,0,0,0,-1,1378,344,3.03982,30.6626
161,680,3.14954,-30.3982,0,0,0,0,0,0,0,-1,1385,344,3.14952,30.3982
168,680,29.4142,-2.51651,0,0,0,0,0,0,0,-1,1392,344,29.4142,2.51652
175,680,6.66541,0.942078,0,0,0,0,0,0,0,-1,1399,344,6.66538,-0.942088
182,680,6.52917,0.532379,0,0,0,0,0,0,0,-1,1406,344,6.52922,-0.532385
189,680,7.55884,4.77695,0,0,0,0,0,0,0,-1,1413,344,7.55886,-4.77694
196,680,6.55627,3.35254,0,0,0,0,0,0,0,-1,1420,344,6.55622,-3.35255
203,680,5.7334,1.90753,0,0,0,0,0,0,0,-1,1427,344,5.73341,-1.90754
210,680,5.27515,0.493622,0,0,0,0,0,0,0,-1,1434,344,5.27514,-0.493632
217,680,6.56384,-0.374176,0,0,0,0,0,0,0,-1,1441,344,6.56379,0.374176
224,680,3.9491,-0.640228,0,0,0,0,0,0,0,-1,1448,344,3.94908,0.64024
231,680,4.24866,-1.96881,0,0,0,0,0,0,0,-1,1455,344,4.2486,1.96882
238,680,4.29333,-3.23984,0,0,0,0,0,0,0,-1,1462,344,4.29332,3.23984
245,680,2.44397,0.985382,0,0,0,0,0,0,0,-1,1469,344,2.44402,-0.985394
252,680,3.07349,2.18951,0,0,0,0,0,0,0,-1,1476,344,3.0735,-2.18952
259,680,2.82971,1.30682,0,0,0,0,0,0,0,-1,1483,344,2.82972,-1.30684
266,680,2.67554,1.44067,0,0,0,0,0,0,0,-1,1490,344,2.67551,-1.44066
273,680,2.46411,1.54666,0,0,0,0,0,0,0,-1,1497,344,2.46407,-1.54666
280,680,0,0,0,0,0,0,0,0,0,-1,1504,344,0,0
287,680,0,0,0,0,0,0,0,0,0,-1,1511,344,0,0
294,680,0,0,0,0,0,0,0,0,0,-1,1518,344,0,0
301,680,0,0,0,0,0,0,0,0,0,-1,1525,344,0,0
308,680,0,0,0,0,0,0,0,0,0,-1,1532,344,0,0
315,680,0,0,0,0,0,0,0,0,0,-1,1539,344,0,0
322,680,0,0,0,0,0,0,0,0,0,-1,1546,344,0,0
329,680,0,0,0,0,0,0,0,0,0,-1,1553,344,0,0
336,680,0,0,0,0,0,0,0,0,0,-1,1560,344,0,0
343,680,0,0,0,0,0,0,0,0,0,-1,1567,344,0,0
350,680,0,0,0,0,0,0,0,0,0,-1,1574,344,0,0
357,680,0,0,0,0,0,0,0,0,0,-1,1581,344,0,0
364,680,0,0,0,0,0,0,0,0,0,-1,1588,344,0,0
371,680,0,0,0,0,0,0,0,0,0,-1,1595,344,0,0
378,680,0,0,0,0,0,0,0,0,0,-1,1602,344,0,0
385,680,0,0,0,0,0,0,0,0,0,-1,1609,344,0,0
392,680,0,0,0,0,0,0,0,0,0,-1,1616,344,0,0
399,680,0,0,0,0,0,0,0,0,0,-1,1623,344,0,0
406,680,0,0,0,0,0,0,0,0,0,-1,1630,344,0,0
413,680,0,0,0,0,0,0,0,0,0,-1,1637,344,0,0
420,680,0,0,0,0,0,0,0,0,0,-1,1644,344,0,0
427,680,0,0,0,0,0,0,0,0,0,-1,1651,344,0,0
434,680,0,0,0,0,0,0,0,0,0,-1,1658,344,0,0
441,680,0,0,0,0,0,0,0,0,0,-1,1665,344,0,0
448,680,0,0,0,0,0,0,0,0,0,-1,1672,344,0,0
455,680,0,0,0,0,0,0,0,0,0,-1,1679,344,0,0
462,680,0,0,0,0,0,0,0,0,0,-1,1686,344,0,0
469,680,0,0,0,0,0,0,0,0,0,-1,1693,344,0,0
476,680,0,0,0,0,0,0,0,0,0,-1,1700,344,0,0
483,680,0,0,0,0,0,0,0,0,0,-1,1707,344,0,0
490,680,0,0,0,0,0,0,0,0,0,-1,1714,344,0,0
497,680,0,0,0,0,0,0,0,0,0,-1,1721,344,0,0
504,680,0,0,0,0,0,0,0,0,0,-1,1728,344,0,0
511,680,0,0,0,0,0,0,0,0,0,-1,1735,344,0,0
518,680,0,0,0,0,0,0,0,0,0,-1,1742,344,0,0
525,680,0,0,0,0,0,0,0,0,0,-1,1749,344,0,0
532,680,0,0,0,0,0,0,0,0,0,-1,1756,344,0,0
539,680,0,0,0,0,0,0,0,0,0,-1,1763,344,0,0
546,680,0,0,0,0,0,0,0,0,0,-1,1770,344,0,0
553,680,0,0,0,0,0,0,0,0,0,-1,1777,344,0,0
560,680,0,0,0,0,0,0,0,0,0,-1,1784,344,0,0
567,680,0,0,0,0,0,0,0,0,0,-1,1791,344,0,0
574,680,0,0,0,0,0,0,0,0,0,-1,1798,344,0,0
581,680,0,0,0,0,0,0,0,0,0,-1,1805,344,0,0
588,680,0,0,0,0,0,0,0,0,0,-1,1812,344,0,0
595,680,0,0,0,0,0,0,0,0,0,-1,1819,344,0,0
602,680,0,0,0,0,0,0,0,0,0,-1,1826,344,0,0
609,680,0,0,0,0,0,0,0,0,0,-1,1833,344,0,0
616,680,0,0,0,0,0,0,0,0,0,-1,1840,344,0,0
623,680,0,0,0,0,0,0,0,0,0,-1,1847,344,0,0
630,680,0,0,0,0,0,0,0,0,0,-1,1854,344,0,0
637,680,0,0,0,0,0,0,0,0,0,-1,1861,344,0,0
644,680,0,0,0,0,0,0,0,0,0,-1,1868,344,0,0
651,680,0,0,0,0,0,0,0,0,0,-1,1875,344,0,0
658,680,0,0,0,0,0,0,0,0,0,-1,1882,344,0,0
665,680,0,0,0,0,0,0,0,0,0,-1,1889,344,0,0
672,680,0,0,0,0,0,0,0,0,0,-1,1896,344,0,0
679,680,0,0,0,0,0,0,0,0,0,-1,1903,344,0,0
686,680,0,0,0,0,0,0,0,0,0,-1,1910,344,0,0
693,680,0,0,0,0,0,0,0,0,0,-1,1917,344,0,0
700,680,0,0,0,0,0,0,0,0,0,-1,1924,344,0,0
707,680,0,0,0,0,0,0,0,0,0,-1,1931,344,0,0
714,680,0,0,0,0,0,0,0,0,0,-1,1938,344,0,0
721,680,0,0,0,0,0,0,0,0,0,-1,1945,344,0,0
728,680,0,0,0,0,0,0,0,0,0,-1,1952,344,0,0
735,680,0,0,0,0,0,0,0,0,0,-1,1959,344,0,0
742,680,0,0,0,0,0,0,0,0,0,-1,1966,344,0,0
749,680,0,0,0,0,0,0,0,0,0,-1,1973,344,0,0
756,680,0,0,0,0,0,0,0,0,0,-1,1980,344,0,0
763,680,0,0,0,0,0,0,0,0,0,-1,1987,344,0,0
770,680,0,0,0,0,0,0,0,0,0,-1,1994,344,0,0
777,680,0,0,0,0,0,0,0,0,0,-1,2001,344,0,0
784,680,0,0,0,0,0,0,0,0,0,-1,2008,344,0,0
791,680,0,0,0,0,0,0,0,0,0,-1,2015,344,0,0
798,680,0,0,0,0,0,0,0,0,0,-1,2022,344,0,0
805,680,0,0,0,0,0,0,0,0,0,-1,2029,344,0,0
812,680,0,0,0,0,0,0,0,0,0,-1,2036,344,0,0
-700,673,0,0,0,0,0,0,0,0,0,-1,524,351,0,0
-693,673,0,0,0,0,0,0,0,0,0,-1,531,351,0,0
-686,673,0,0,0,0,0,0,0,0,0,-1,538,351,0,0
-679,673,0,0,0,0,0,0,0,0,0,-1,545,351,0,0
-672,673,0,0,0,0,0,0,0,0,0,-1,552,351,0,0
-665,673,0,0,0,0,0,0,0,0,0,-1,559,351,0,0
-658,673,0,0,0,0,0,0,0,0,0,-1,566,351,0,0
-651,673,0,0,0,0,0,0,0,0,0,-1,573,351,0,0
-644,673,0,0,0,0,0,0,0,0,0,-1,580,351,0,0
-637,673,0,0,0,0,0,0,0,0,0,-1,587,351,0,0
-630,673,0,0,0,0,0,0,0,0,0,-1,594,351,0,0
-623,673,0,0,0,0,0,0,0,0,0,-1,601,351,0,0
-616,673,0,0,0,0,0,0,0,0,0,-1,608,351,0,0
-609,673,0,0,0,0,0,0,0,0,0,-1,615,351,0,0
-602,673,0,0,0,0,0,0,0,0,0,-1,622,351,0,0
-595,673,0,0,0,0,0,0,0,0,0,-1,629,351,0,0
-588,673,0,0,0,0,0,0,0,0,0,-1,636,351,0,0
-581,673,0,0,0,0,0,0,0,0,0,-1,643,351,0,0
-574,673,0,0,0,0,0,0,0,0,0,-1,650,351,0,0
-567,673,0,0,0,0,0,0,0,0,0,-1,657,351,0,0
-560,673,0,0,0,0,0,0,0,0,0,-1,664,351,0,0
-553,673,0,0,0,0,0,0,0,0,0,-1,671,351,0,0
-546,673,0,0,0,0,0,0,0,0,0,-1,678,351,0,0
-539,673,0,0,0,0,0,0,0,0,0,-1,685,351,0,0
-532,673,0,0,0,0,0,0,0,0,0,-1,692,351,0,0
-525,673,0,0,0,0,0,0,0,0,0,-1,699,351,0,0
-518,673,0,0,0,0,0,0,0,0,0,-1,706,351,0,0
-511,673,0,0,0,0,0,0,0,0,0,-1,713,351,0,0
-504,673,0,0,0,0,0,0,0,0,0,-1,720,351,0,0
-497,673,0,0,0,0,0,0,0,0,0,-1,727,351,0,0
-490,673,0,0,0,0,0,0,0,0,0,-1,734,351,0,0
-483,673,0,0,0,0,0,0,0,0,0,-1,741,351,0,0
-476,673,0,0,0,0,0,0,0,0,0,-1,748,351,0,0
-469,673,0,0,0,0,0,0,0,0,0,-1,755,351,0,0
-462,673,0,0,0,0,0,0,0,0,0,-1,762,351,0,0
-455,673,0,0,0,0,0,0,0,0,0,-1,769,351,0,0
-448,673,0,0,0,0,0,0,0,0,0,-1,776,351,0,0
-441,673,0,0,0,0,0,0,0,0,0,-1,783,351,0,0
-434,673,0,0,0,0,0,0,0,0,0,-1,790,351,0,0
-427,673,0,0,0,0,0,0,0,0,0,-1,797,351,0,0
-420,673,0,0,0,0,0,0,0,0,0,-1,804,351,0,0
-413,673,0,0,0,0,0,0,0,0,0,-1,811,351,0,0
-406,673,0,0,0,0,0,0,0,0,0,-1,818,351,0,0
-399,673,0,0,0,0,0,0,0,0,0,-1,825,351,0,0
-392,673,0,0,0,0,0,0,0,0,0,-1,832,351,0,0
-385,673,0,0,0,0,0,0,0,0,0,-1,839,351,0,0
-378,673,0,0,0,0,0,0,0,0,0,-1,846,351,0,0
-371,673,0,0,0,0,0,0,0,0,0,-1,853,351,0,0
-364,673,0,0,0,0,0,0,0,0,0,-1,860,351,0,0
-357,673,0,0,0,0,0,0,0,0,0,-1,867,351,0,0
-350,673,0,0,0,0,0,0,0,0,0,-1,874,351,0,0
-343,673,0,0,0,0,0,0,0,0,0,-1,881,351,0,0
-336,673,0,0,0,0,0,0,0,0,0,-1,888,351,0,0
-329,673,0,0,0,0,0,0,0,0,0,-1,895,351,0,0
-322,673,0,0,0,0,0,0,0,0,0,-1,902,351,0,0
-315,673,0,0,0,0,0,0,0,0,0,-1,909,351,0,0
-308,673,0,0,0,0,0,0,0,0,0,-1,916,351,0,0
-301,673,0,0,0,0,0,0,0,0,0,-1,923,351,0,0
-294,673,0,0,0,0,0,0,0,0,0,-1,930,351,0,0
-287,673,0,0,0,0,0,0,0,0,0,-1,937,351,0,0
-280,673,0,0,0,0,0,0,0,0,0,-1,944,351,0,0
-273,673,0,0,0,0,0,0,0,0,0,-1,951,351,0,0
-266,673,0,0,0,0,0,0,0,0,0,-1,958,351,0,0
-259,673,0,0,0,0,0,0,0,0,0,-1,965,351,0,0
-252,673,0,0,0,0,0,0,0,0,0,-1,972,351,0,0
-245,673,0,0,0,0,0,0,0,0,0,-1,979,351,0,0
-238,673,0,0,0,0,0,0,0,0,0,-1,986,351,0,0
-231,673,0,0,0,0,0,0,0,0,0,-1,993,351,0,0
-224,673,0,0,0,0,0,0,0,0,0,-1,1000,351,0,0
-217,673,0,0,0,0,0,0,0,0,0,-1,1007,351,0,0
-210,673,0,0,0,0,0,0,0,0,0,-1,1014,351,0,0
-203,673,0,0,0,0,0,0,0,0,0,-1,1021,351,0,0
-196,673,0,0,0,0,0,0,0,0,0,-1,1028,351,0,0
-189,673,0,0,0,0,0,0,0,0,0,-1,1035,351,0,0
-182,673,0,0,0,0,0,0,0,0,0,-1,1042,351,0,0
-175,673,6.34473,-28.0434,0,0,0,0,0,0,0,-1,1049,351,6.34475,28.0434
-168,673,5.15417,-31.5307,0,0,0,0,0,0,0,-1,1056,351,5.1542,31.5307
-161,673,5.92847,-32.7654,0,0,0,0,0,0,0,-1,1063,351,5.92847,32.7654
-154,673,3.24011,-29.6611,0,0,0,0,0,0,0,-1,1070,351,3.24009,29.6611
-147,673,4.22852,-30.2793,0,0,0,0,0,0,0,-1,1077,351,4.22851,30.2793
-140,673,6.37207,-28.7709,0,0,0,0,0,0,0,-1,1084,351,6.37201,28.7709
-133,673,6.2334,-28.6302,0,0,0,0,0,0,0,-1,1091,351,6.2334,28.6302
-126,673,7.40039,-31.1807,0,0,0,0,0,0,0,-1,1098,351,7.40044,31.1807
-119,673,7.0835,-30.4893,0,0,0,0,0,0,0,-1,1105,351,7.08348,30.4893
-112,673,6.71057,-28.9168,0,0,0,0,0,0,0,-1,1112,351,6.71053,28.9168
-105,673,6.33752,-27.3443,0,0,0,0,0,0,0,-1,1119,351,6.33757,27.3443
-98,673,14.6038,-34.1646,0,0,0,0,0,0,0,-1,1126,351,14.6038,34.1646
-91,673,8.87854,-29.3053,0,0,0,0,0,0,0,-1,1133,351,8.87848,29.3053
-84,673,3.21765,-23.7196,0,0,0,0,0,0,0,-1,1140,351,3.21768,23.7196
-77,673,-2.745,-17.165,0,0,0,0,0,0,0,-1,1147,351,-2.74502,17.165
-70,673,-8.71216,-10.3058,0,0,0,0,0,0,0,-1,1154,351,-8.71218,10.3058
-63,673,-12.606,-3.97971,0,0,0,0,0,0,0,-1,1161,351,-12.606,3.97969
-56,673,-18.0282,2.79053,0,0,0,0,0,0,0,-1,1168,351,-18.0283,-2.79052
-49,673,-0.926758,-0.115448,0,0,0,0,0,0,0,-1,1175,351,-0.926732,0.115444
-42,673,-1.15015,0.289917,0,0,0,0,0,0,0,-1,1182,351,-1.15017,-0.289932
-35,673,-0.919556,-1.00711,0,0,0,0,0,0,0,-1,1189,351,-0.919514,1.00711
-28,673,3.19104,-25.0986,0,0,0,0,0,0,0,-1,1196,351,3.19099,25.0986
-21,673,4.96973,-31.3603,0,0,0,0,0,0,0,-1,1203,351,4.96975,31.3603
-14,673,4.79468,-31.5386,0.000695119,-0.0063954,-0.0150997,0.0126601,-0.0183604,-0.670091,0.0180102,0.0428673,1210,351,4.79473,31.5386
-7,673,4.57593,-31.8164,0.00398332,-0.00483265,-0.0136038,0.0138755,-0.0147248,-0.628723,0.0165148,0.040574,1217,351,4.57595,31.8164
0,673,4.39111,-32.1363,0.00677321,-0.00252696,-0.0116533,0.0146699,-0.0104237,-0.59556,0.0145567,0.0447783,1224,351,4.39109,32.1363
7,673,4.34167,-32.1269,0,0,0,0,0,0,0,-1,1231,351,4.34165,32.1269
14,673,4.69666,-31.7166,0.00906988,0.00418716,-0.00666593,0.0137275,-0.000470417,-0.609862,0.00931241,0.0421029,1238,351,4.69666,31.7166
21,673,4.68262,-31.9263,0.00859674,0.00830214,-0.00373867,0.012191,0.00470787,-0.765709,0.00709901,0.0297631,1245,351,4.68258,31.9263
28,673,4.71228,-32.0039,0.00738465,0.012214,-0.000959374,0.0123976,0.00720104,-1.3817,0.00718889,0.021912,1252,351,4.71233,32.0039
35,673,4.6825,-32.0171,0.00459147,0.0161429,0.00223976,0.0165619,0.0041724,1.38583,0.00994661,0.0318695,1259,351,4.68246,32.0171
42,673,4.50989,-32.07,0.0017456,0.0180178,0.00663528,0.0203804,-0.000617015,1.22872,0.0137972,0.0319066,1266,351,4.50989,32.07
49,673,4.4325,-32.073,-0.00106757,0.0187554,0.0116489,0.0241388,-0.00645096,1.13789,0.0186192,0.0191781,1273,351,4.43252,32.073
56,673,4.40808,-32.0346,-0.0029524,0.0214961,0.0157458,0.0292058,-0.0106621,1.11547,0.0238333,0.0165948,1280,351,4.40806,32.0346
63,673,4.48242,-31.9469,-0.00401943,0.0230844,0.0200307,0.0337169,-0.0146519,1.08281,0.0286397,0.0206045,1287,351,4.48239,31.9469
70,673,4.45569,-31.8896,-0.00703308,0.0254794,0.0244668,0.0385982,-0.0201518,1.07862,0.0344721,0.0322732,1294,351,4.45573,31.8895
77,673,4.67847,-31.7823,0,0,0,0,0,0,0,-1,1301,351,4.67846,31.7823
84,673,4.35547,-32.0992,-0.00649682,0.0261403,0.0289099,0.0430193,-0.0233758,1.04234,0.0388885,0.0458946,1308,351,4.35548,32.0992
91,673,4.13721,-32.4727,-0.00500873,0.0273012,0.0303499,0.0455279,-0.0232355,1.02997,0.04039,0.0488045,1315,351,4.13717,32.4727
98,673,3.78259,-32.3539,-0.00323261,0.0294906,0.0307821,0.0479893,-0.0217313,1.02967,0.0411938,0.0470139,1322,351,3.78261,32.3539
105,673,3.48206,-32.1322,-0.00166436,0.0323267,0.0307145,0.0504343,-0.0197719,1.0381,0.0418024,0.0417278,1329,351,3.48203,32.1322
112,673,3.40808,-31.7884,0,0,0,0,0,0,0,-1,1336,351,3.40813,31.7884
119,673,3.92065,-31.1409,0,0,0,0,0,0,0,-1,1343,351,3.92066,31.1409
126,673,3.828,-31.0948,0.000662866,0.0407035,0.0251514,0.0528298,-0.0114635,1.12154,0.039598,0.0462632,1350,351,3.82797,31.0948
133,673,3.82739,-31.0749,0.000244827,0.0429402,0.0224068,0.0525407,-0.00935564,1.166,0.0385262,0.045617,1357,351,3.82739,31.0749
140,673,3.63647,-30.8781,-4.95071e-05,0.0441221,0.0197372,0.0516562,-0.00758365,1.20615,0.0372238,0.0440501,1364,351,3.63649,30.8781
147,673,3.39771,-31.0593,-0.000693705,0.0448736,0.0168363,0.0504194,-0.00623947,1.2526,0.0358741,0.0425286,1371,351,3.39776,31.0593
154,673,3.3689,-30.769,-0.00156217,0.0447933,0.0140288,0.0487083,-0.00547713,1.29865,0.0344434,0.0404636,1378,351,3.36893,30.769
161,673,3.39197,-30.4312,0,0,0,0,0,0,0,-1,1385,351,3.392,30.4312
168,673,6.87061,1.83954,0,0,0,0,0,0,0,-1,1392,351,6.87063,-1.83953
175,673,6.6228,1.1459,0,0,0,0,0,0,0,-1,1399,351,6.62276,-1.14591
182,673,6.37244,0.796112,0,0,0,0,0,0,0,-1,1406,351,6.3724,-0.796102
189,673,6.12097,0.265472,0,0,0,0,0,0,0,-1,1413,351,6.121,-0.265482
196,673,6.02173,3.12717,0,0,0,0,0,0,0,-1,1420,351,6.02176,-3.12717
203,673,5.04456,1.6351,0,0,0,0,0,0,0,-1,1427,351,5.04455,-1.63509
210,673,4.79224,0.447479,0,0,0,0,0,0,0,-1,1434,351,4.79229,-0.447469
217,673,2.01648,0.972687,0,0,0,0,0,0,0,-1,1441,351,2.01644,-0.972691
224,673,2.3689,-1.80539,0,0,0,0,0,0,0,-1,1448,351,2.36896,1.80539
231,673,2.65857,-2.18497,0,0,0,0,0,0,0,-1,1455,351,2.65852,2.18496
238,673,3.77844,-2.06088,0,0,0,0,0,0,0,-1,1462,351,3.77839,2.06088
245,673,3.5376,-0.190399,0,0,0,0,0,0,0,-1,1469,351,3.53759,0.1904
252,673,3.80518,0.55603,0,0,0,0,0,0,0,-1,1476,351,3.80519,-0.556022
259,673,3.88562,1.29617,0,0,0,0,0,0,0,-1,1483,351,3.88562,-1.29618
266,673,4.22424,2.04834,0,0,0,0,0,0,0,-1,1490,351,4.22429,-2.04834
273,673,6.07886,0.385895,0,0,0,0,0,0,0,-1,1497,351,6.0789,-0.385906
280,673,6.97534,-0.0820007,0,0,0,0,0,0,0,-1,1504,351,6.97536,0.0820122
287,673,7.66968,-0.348541,0,0,0,0,0,0,0,-1,1511,351,7.66969,0.348534
294,673,8.20996,0.28537,0,0,0,0,0,0,0,-1,1518,351,8.20993,-0.28536
301,673,0,0,0,0,0,0,0,0,0,-1,1525,351,0,0
308,673,0,0,0,0,0,0,0,0,0,-1,1532,351,0,0
315,673,0,0,0,0,0,0,0,0,0,-1,1539,351,0,0
322,673,0,0,0,0,0,0,0,0,0,-1,1546,351,0,0
329,673,0,0,0,0,0,0,0,0,0,-1,1553,351,0,0
336,673,0,0,0,0,0,0,0,0,0,-1,1560,351,0,0
343,673,0,0,0,0,0,0,0,0,0,-1,1567,351,0,0
350,673,0,0,0,0,0,0,0,0,0,-1,1574,351,0,0
357,673,0,0,0,0,0,0,0,0,0,-1,1581,351,0,0
364,673,0,0,0,0,0,0,0,0,0,-1,1588,351,0,0
371,673,0,0,0,0,0,0,0,0,0,-1,1595,351,0,0
378,673,0,0,0,0,0,0,0,0,0,-1,1602,351,0,0
385,673,0,0,0,0,0,0,0,0,0,-1,1609,351,0,0
392,673,0,0,0,0,0,0,0,0,0,-1,1616,351,0,0
399,673,0,0,0,0,0,0,0,0,0,-1,1623,351,0,0
406,673,0,0,0,0,0,0,0,0,0,-1,1630,351,0,0
413,673,0,0,0,0,0,0,0,0,0,-1,1637,351,0,0
420,673,0,0,0,0,0,0,0,0,0,-1,1644,351,0,0
427,673,0,0,0,0,0,0,0,0,0,-1,1651,351,0,0
434,673,0,0,0,0,0,0,0,0,0,-1,1658,351,0,0
441,673,0,0,0,0,0,0,0,0,0,-1,1665,351,0,0
448,673,0,0,0,0,0,0,0,0,0,-1,1672,351,0,0
455,673,0,0,0,0,0,0,0,0,0,-1,1679,351,0,0
462,673,0,0,0,0,0,0,0,0,0,-1,1686,351,0,0
469,673,0,0,0,0,0,0,0,0,0,-1,1693,351,0,0
476,673,0,0,0,0,0,0,0,0,0,-1,1700,351,0,0
483,673,0,0,0,0,0,0,0,0,0,-1,1707,351,0,0
490,673,0,0,0,0,0,0,0,0,0,-1,1714,351,0,0
497,673,0,0,0,0,0,0,0,0,0,-1,1721,351,0,0
504,673,0,0,0,0,0,0,0,0,0,-1,1728,351,0,0
511,673,0,0,0,0,0,0,0,0,0,-1,1735,351,0,0
518,673,0,0,0,0,0,0,0,0,0,-1,1742,351,0,0
525,673,0,0,0,0,0,0,0,0,0,-1,1749,351,0,0
532,673,0,0,0,0,0,0,0,0,0,-1,1756,351,0,0
539,673,0,0,0,0,0,0,0,0,0,-1,1763,351,0,0
546,673,0,0,0,0,0,0,0,0,0,-1,1770,351,0,0
553,673,0,0,0,0,0,0,0,0,0,-1,1777,351,0,0
560,673,0,0,0,0,0,0,0,0,0,-1,1784,351,0,0
567,673,0,0,0,0,0,0,0,0,0,-1,1791,351,0,0
574,673,0,0,0,0,0,0,0,0,0,-1,1798,351,0,0
581,673,0,0,0,0,0,0,0,0,0,-1,1805,351,0,0
588,673,0,0,0,0,0,0,0,0,0,-1,1812,351,0,0
595,673,0,0,0,0,0,0,0,0,0,-1,1819,351,0,0
602,673,0,0,0,0,0,0,0,0,0,-1,1826,351,0,0
609,673,0,0,0,0,0,0,0,0,0,-1,1833,351,0,0
616,673,0,0,0,0,0,0,0,0,0,-1,1840,351,0,0
623,673,0,0,0,0,0,0,0,0,0,-1,1847,351,0,0
630,673,0,0,0,0,0,0,0,0,0,-1,1854,351,0,0
637,673,0,0,0,0,0,0,0,0,0,-1,1861,351,0,0
644,673,0,0,0,0,0,0,0,0,0,-1,1868,351,0,0
651,673,0,0,0,0,0,0,0,0,0,-1,1875,351,0,0
658,673,0,0,0,0,0,0,0,0,0,-1,1882,351,0,0
665,673,0,0,0,0,0,0,0,0,0,-1,1889,351,0,0
672,673,0,0,0,0,0,0,0,0,0,-1,1896,351,0,0
679,673,0,0,0,0,0,0,0,0,0,-1,1903,351,0,0
686,673,0,0,0,0,0,0,0,0,0,-1,1910,351,0,0
693,673,0,0,0,0,0,0,0,0,0,-1,1917,351,0,0
700,673,0,0,0,0,0,0,0,0,0,-1,1924,351,0,0
707,673,0,0,0,0,0,0,0,0,0,-1,1931,351,0,0
714,673,0,0,0,0,0,0,0,0,0,-1,1938,351,0,0
721,673,0,0,0,0,0,0,0,0,0,-1,1945,351,0,0
728,673,0,0,0,0,0,0,0,0,0,-1,1952,351,0,0
735,673,0,0,0,0,0,0,0,0,0,-1,1959,351,0,0
742,673,0,0,0,0,0,0,0,0,0,-1,1966,351,0,0
749,673,0,0,0,0,0,0,0,0,0,-1,1973,351,0,0
756,673,0,0,0,0,0,0,0,0,0,-1,1980,351,0,0
763,673,0,0,0,0,0,0,0,0,0,-1,1987,351,0,0
770,673,0,0,0,0,0,0,0,0,0,-1,1994,351,0,0
777,673,0,0,0,0,0,0,0,0,0,-1,2001,351,0,0
784,673,0,0,0,0,0,0,0,0,0,-1,2008,351,0,0
791,673,0,0,0,0,0,0,0,0,0,-1,2015,351,0,0
798,673,0,0,0,0,0,0,0,0,0,-1,2022,351,0,0
805,673,0,0,0,0,0,0,0,0,0,-1,2029,351,0,0
812,673,0,0,0,0,0,0,0,0,0,-1,2036,351,0,0
-700,666,0,0,0,0,0,0,0,0,0,-1,524,358,0,0
-693,666,0,0,0,0,0,0,0,0,0,-1,531,358,0,0
-686,666,0,0,0,0,0,0,0,0,0,-1,538,358,0,0
-679,666,0,0,0,0,0,0,0,0,0,-1,545,358,0,0
-672,666,0,0,0,0,0,0,0,0,0,-1,552,358,0,0
-665,666,0,0,0,0,0,0,0,0,0,-1,559,358,0,0
-658,666,0,0,0,0,0,0,0,0,0,-1,566,358,0,0
-651,666,0,0,0,0,0,0,0,0,0,-1,573,358,0,0
-644,666,0,0,0,0,0,0,0,0,0,-1,580,358,0,0
-637,666,0,0,0,0,0,0,0,0,0,-1,587,358,0,0
-630,666,0,0,0,0,0,0,0,0,0,-1,594,358,0,0
-623,666,0,0,0,0,0,0,0,0,0,-1,601,358,0,0
-616,666,0,0,0,0,0,0,0,0,0,-1,608,358,0,0
-609,666,0,0,0,0,0,0,0,0,0,-1,615,358,0,0
-602,666,0,0,0,0,0,0,0,0,0,-1,622,358,0,0
-595,666,0,0,0,0,0,0,0,0,0,-1,629,358,0,0
-588,666,0,0,0,0,0,0,0,0,0,-1,636,358,0,0
-581,666,0,0,0,0,0,0,0,0,0,-1,643,358,0,0
-574,666,0,0,0,0,0,0,0,0,0,-1,650,358,0,0
-567,666,0,0,0,0,0,0,0,0,0,-1,657,358,0,0
-560,666,0,0,0,0,0,0,0,0,0,-1,664,358,0,0
-553,666,0,0,0,0,0,0,0,0,0,-1,671,358,0,0
-546,666,0,0,0,0,0,0,0,0,0,-1,678,358,0,0
-539,666,0,0,0,0,0,0,0,0,0,-1,685,358,0,0
-532,666,0,0,0,0,0,0,0,0,0,-1,692,358,0,0
-525,666,0,0,0,0,0,0,0,0,0,-1,699,358,0,0
-518,666,0,0,0,0,0,0,0,0,0,-1,706,358,0,0
-511,666,0,0,0,0,0,0,0,0,0,-1,713,358,0,0
-504,666,0,0,0,0,0,0,0,0,0,-1,720,358,0,0
-497,666,0,0,0,0,0,0,0,0,0,-1,727,358,0,0
-490,666,0,0,0,0,0,0,0,0,0,-1,734,358,0,0
-483,666,0,0,0,0,0,0,0,0,0,-1,741,358,0,0
-476,666,0,0,0,0,0,0,0,0,0,-1,748,358,0,0
-469,666,0,0,0,0,0,0,0,0,0,-1,755,358,0,0
-462,666,0,0,0,0,0,0,0,0,0,-1,762,358,0,0
-455,666,0,0,0,0,0,0,0,0,0,-1,769,358,0,0
-448,666,0,0,0,0,0,0,0,0,0,-1,776,358,0,0
-441,666,0,0,0,0,0,0,0,0,0,-1,783,358,0,0
-434,666,0,0,0,0,0,0,0,0,0,-1,790,358,0,0
-427,666,0,0,0,0,0,0,0,0,0,-1,797,358,0,0
-420,666,0,0,0,0,0,0,0,0,0,-1,804,358,0,0
-413,666,0,0,0,0,0,0,0,0,0,-1,811,358,0,0
-406,666,0,0,0,0,0,0,0,0,0,-1,818,358,0,0
-399,666,0,0,0,0,0,0,0,0,0,-1,825,358,0,0
-392,666,0,0,0,0,0,0,0,0,0,-1,832,358,0,0
-385,666,0,0,0,0,0,0,0,0,0,-1,839,358,0,0
-378,666,0,0,0,0,0,0,0,0,0,-1,846,358,0,0
-371,666,0,0,0,0,0,0,0,0,0,-1,853,358,0,0
-364,666,0,0,0,0,0,0,0,0,0,-1,860,358,0,0
-357,666,0,0,0,0,0,0,0,0,0,-1,867,358,0,0
-350,666,0,0,0,0,0,0,0,0,0,-1,874,358,0,0
-343,666,0,0,0,0,0,0,0,0,0,-1,881,358,0,0
-336,666,0,0,0,0,0,0,0,0,0,-1,888,358,0,0
-329,666,0,0,0,0,0,0,0,0,0,-1,895,358,0,0
-322,666,0,0,0,0,0,0,0,0,0,-1,902,358,0,0
-315,666,0,0,0,0,0,0,0,0,0,-1,909,358,0,0
-308,666,0,0,0,0,0,0,0,0,0,-1,916,358,0,0
-301,666,0,0,0,0,0,0,0,0,0,-1,923,358,0,0
-294,666,0,0,0,0,0,0,0,0,0,-1,930,358,0,0
-287,666,0,0,0,0,0,0,0,0,0,-1,937,358,0,0
-280,666,0,0,0,0,0,0,0,0,0,-1,944,358,0,0
-273,666,0,0,0,0,0,0,0,0,0,-1,951,358,0,0
-266,666,0,0,0,0,0,0,0,0,0,-1,958,358,0,0
-259,666,0,0,0,0,0,0,0,0,0,-1,965,358,0,0
-252,666,0,0,0,0,0,0,0,0,0,-1,972,358,0,0
-245,666,0,0,0,0,0,0,0,0,0,-1,979,358,0,0
-238,666,0,0,0,0,0,0,0,0,0,-1,986,358,0,0
-231,666,0,0,0,0,0,0,0,0,0,-1,993,358,0,0
-224,666,0,0,0,0,0,0,0,0,0,-1,1000,358,0,0
-217,666,0,0,0,0,0,0,0,0,0,-1,1007,358,0,0
-210,666,0,0,0,0,0,0,0,0,0,-1,1014,358,0,0
-203,666,0,0,0,0,0,0,0,0,0,-1,1021,358,0,0
-196,666,6.83093,-24.8537,0,0,0,0,0,0,0,-1,1028,358,6.8309,24.8537
-189,666,1.64697,-28.3105,0,0,0,0,0,0,0,-1,1035,358,1.647,28.3105
-182,666,2.87427,-28.7542,0,0,0,0,0,0,0,-1,1042,358,2.87421,28.7543
-175,666,4.34656,-29.3856,0,0,0,0,0,0,0,-1,1049,358,4.34661,29.3856
-168,666,5.18152,-30.6476,0.128448,-0.0998728,-0.0408809,0.135547,-0.106972,-0.171937,0.140342,0.0451744,1056,358,5.1815,30.6476
-161,666,6.05518,-31.9077,0,0,0,0,0,0,0,-1,1063,358,6.0552,31.9077
-154,666,6.87476,-33.0443,0,0,0,0,0,0,0,-1,1070,358,6.87473,33.0443
-147,666,5.6886,-28.8461,0,0,0,0,0,0,0,-1,1077,358,5.68864,28.8461
-140,666,4.94458,-27.6314,0,0,0,0,0,0,0,-1,1084,358,4.9446,27.6314
-133,666,5.11292,-27.7423,0,0,0,0,0,0,0,-1,1091,358,5.11292,27.7423
-126,666,5.75012,-28.5608,0,0,0,0,0,0,0,-1,1098,358,5.75016,28.5608
-119,666,6.70325,-30.3599,0,0,0,0,0,0,0,-1,1105,358,6.70326,30.3599
-112,666,6.33838,-29.0027,0,0,0,0,0,0,0,-1,1112,358,6.33834,29.0026
-105,666,5.97339,-27.6454,0,0,0,0,0,0,0,-1,1119,358,5.97342,27.6454
-98,666,3.5968,-23.5447,0,0,0,0,0,0,0,-1,1126,358,3.59686,23.5447
-91,666,9.5127,-25.1347,0,0,0,0,0,0,0,-1,1133,358,9.51269,25.1347
-84,666,4.03943,-19.3453,0,0,0,0,0,0,0,-1,1140,358,4.03941,19.3453
-77,666,-1.9137,-12.9077,0,0,0,0,0,0,0,-1,1147,358,-1.91368,12.9077
-70,666,-6.32251,-7.67145,0,0,0,0,0,0,0,-1,1154,358,-6.3225,7.67145
-63,666,-11.7778,-0.975189,0,0,0,0,0,0,0,-1,1161,358,-11.7778,0.97519
-56,666,0.424683,-2.04132,0,0,0,0,0,0,0,-1,1168,358,0.424665,2.04132
-49,666,0.754395,-2.23169,0,0,0,0,0,0,0,-1,1175,358,0.754383,2.23169
-42,666,1.34473,-3.53897,0,0,0,0,0,0,0,-1,1182,358,1.34476,3.53896
-35,666,4.7323,-31.6143,0,0,0,0,0,0,0,-1,1189,358,4.73229,31.6143
-28,666,4.93054,-31.6013,0,0,0,0,0,0,0,-1,1196,358,4.93051,31.6012
-21,666,4.87378,-31.5817,-0.00249895,-0.00429202,-0.0121658,0.00880328,-0.0155942,-0.748618,0.0142666,0.0343354,1203,358,4.87381,31.5817
-14,666,4.77795,-31.7115,-0.000394284,-0.00323834,-0.0112149,0.00948842,-0.013121,-0.722336,0.0131096,0.0272902,1210,358,4.77797,31.7115
-7,666,4.74292,-31.8141,0.00190774,-0.0021942,-0.0102039,0.0102648,-0.0105512,-0.686221,0.0120185,0.0176612,1217,358,4.74289,31.8141
0,666,4.74963,-31.9268,0.00391039,-0.000599881,-0.00884145,0.0107798,-0.00746927,-0.660529,0.0105937,0.0130137,1224,358,4.74961,31.9268
7,666,4.67578,-31.9751,0.00506647,0.00143011,-0.00724785,0.0107207,-0.00422413,-0.662505,0.00889601,0.0181464,1231,358,4.67581,31.9751
14,666,4.63208,-31.9966,0.00580995,0.00425767,-0.00528156,0.0103721,-0.000304468,-0.712444,0.00701842,0.0182211,1238,358,4.63203,31.9966
21,666,4.59717,-32.1347,0.0056845,0.00728819,-0.00320393,0.00978908,0.0031836,-0.908014,0.00576568,0.0139554,1245,358,4.59715,32.1347
28,666,4.55457,-32.2247,0.00505367,0.01017,-0.00123339,0.0104518,0.00477186,-1.34617,0.00604192,0.0147822,1252,358,4.5546,32.2247
35,666,4.56226,-32.1991,0.00330724,0.0131017,0.0010224,0.0132073,0.00320166,1.46789,0.00795539,0.0138926,1259,358,4.56223,32.1991
42,666,4.50623,-32.2319,0.00145408,0.0145125,0.00422996,0.015763,0.000203629,1.28336,0.0104414,0.0137082,1266,358,4.50628,32.2319
49,666,4.4447,-32.2632,-0.000543369,0.0150727,0.00792001,0.0183864,-0.00385702,1.17454,0.0137251,0.0116055,1273,358,4.44474,32.2632
56,666,4.4082,-32.276,-0.00187862,0.0170382,0.0109303,0.0220343,-0.00687468,1.14207,0.0174388,0.0136718,1280,358,4.40826,32.276
63,666,4.37378,-32.3226,-0.00258995,0.018084,0.0141283,0.0252531,-0.00975905,1.10122,0.0208637,0.0160446,1287,358,4.37372,32.3226
70,666,4.38135,-32.2739,-0.00462885,0.019841,0.0174422,0.0289116,-0.0136994,1.09125,0.0251186,0.0159758,1294,358,4.38139,32.2739
77,666,4.35278,-32.1769,-0.00475443,0.0204069,0.0195264,0.0310546,-0.0154021,1.07157,0.0273245,0.0211051,1301,358,4.35276,32.1769
84,666,4.36694,-32.181,-0.00434661,0.0204945,0.0208614,0.0323529,-0.016205,1.05391,0.028547,0.0283128,1308,358,4.36692,32.181
91,666,4.29565,-32.1957,-0.00334323,0.0214935,0.0218615,0.0342176,-0.0160673,1.04369,0.0296557,0.0228122,1315,358,4.29566,32.1957
98,666,4.14575,-32.1396,-0.00217377,0.023175,0.0221474,0.0360182,-0.0150169,1.04529,0.0302853,0.0194606,1322,358,4.14581,32.1395
105,666,4.02637,-32.04,-0.00113343,0.0253623,0.022038,0.0378279,-0.013599,1.05603,0.0307701,0.0219423,1329,358,4.02638,32.04
112,666,4.08765,-31.7549,-9.77722e-05,0.0277907,0.0213607,0.0393557,-0.0116627,1.07457,0.0308681,0.0465949,1336,358,4.0877,31.755
119,666,4.06738,-31.5374,0.000227002,0.0297884,0.0198275,0.0397382,-0.00972284,1.10569,0.0302583,0.049434,1343,358,4.06734,31.5374
126,666,3.93921,-31.5397,0.000297466,0.0317346,0.0179605,0.0398835,-0.00785137,1.14486,0.0295558,0.0301086,1350,358,3.93916,31.5397
133,666,3.93945,-31.4646,-6.07075e-05,0.0333787,0.0159607,0.0397737,-0.00645576,1.18971,0.028909,0.0274693,1357,358,3.93949,31.4646
140,666,3.85864,-31.4318,-0.000290243,0.0341766,0.0139957,0.0391438,-0.00525748,1.22975,0.0280133,0.0250384,1364,358,3.8587,31.4318
147,666,3.71997,-31.2989,-0.000801306,0.0348289,0.0117481,0.0383538,-0.00432621,1.2793,0.0271265,0.0226487,1371,358,3.71996,31.2989
154,666,3.75293,-30.9993,-0.00146658,0.0349222,0.00947518,0.0372416,-0.00378596,1.33073,0.0261811,0.0204644,1378,358,3.75298,30.9993
161,666,3.82483,-30.8096,-0.00243139,0.0328744,0.00783338,0.0345344,-0.00409136,1.36198,0.0245008,0.0272077,1385,358,3.82486,30.8096
168,666,3.8501,-30.6307,0,0,0,0,0,0,0,-1,1392,358,3.85013,30.6307
175,666,3.8855,-30.7632,0,0,0,0,0,0,0,-1,1399,358,3.88555,30.7632
182,666,2.60876,-5.17068,0,0,0,0,0,0,0,-1,1406,358,2.6088,5.17068
189,666,2.46973,-5.49979,0,0,0,0,0,0,0,-1,1413,358,2.46975,5.49979
196,666,2.32458,-5.23651,0,0,0,0,0,0,0,-1,1420,358,2.32461,5.23653
203,666,2.28064,-3.88004,0,0,0,0,0,0,0,-1,1427,358,2.28059,3.88003
210,666,3.02576,-5.83548,0,0,0,0,0,0,0,-1,1434,358,3.02581,5.83547
217,666,2.30444,-5.36011,0,0,0,0,0,0,0,-1,1441,358,2.30447,5.3601
224,666,1.82324,-6.03101,0,0,0,0,0,0,0,-1,1448,358,1.82322,6.031
231,666,2.29797,-10.1093,0,0,0,0,0,0,0,-1,1455,358,2.29801,10.1093
238,666,2.52429,-6.10568,0,0,0,0,0,0,0,-1,1462,358,2.52423,6.10567
245,666,4.53345,-1.38205,0,0,0,0,0,0,0,-1,1469,358,4.53349,1.38204
252,666,4.77405,-0.246979,0,0,0,0,0,0,0,-1,1476,358,4.77405,0.246993
259,666,4.83655,1.14087,0,0,0,0,0,0,0,-1,1483,358,4.83652,-1.14087
266,666,6.14148,0.749512,0,0,0,0,0,0,0,-1,1490,358,6.14144,-0.749519
273,666,2.61304,-1.53772,0,0,0,0,0,0,0,-1,1497,358,2.613,1.53773
280,666,8.70898,-0.836975,0,0,0,0,0,0,0,-1,1504,358,8.70894,0.836988
287,666,-7.06934,-20.3464,0,0,0,0,0,0,0,-1,1511,358,-7.06933,20.3464
294,666,-5.98657,-22.7841,0,0,0,0,0,0,0,-1,1518,358,-5.98659,22.7842
301,666,-6.94861,-23.4221,0,0,0,0,0,0,0,-1,1525,358,-6.94857,23.4221
308,666,1.08496,-1.87576,0,0,0,0,0,0,0,-1,1532,358,1.08491,1.87575
315,666,1.76294,-0.284027,0,0,0,0,0,0,0,-1,1539,358,1.76291,0.284016
322,666,0,0,0,0,0,0,0,0,0,-1,1546,358,0,0
329,666,0,0,0,0,0,0,0,0,0,-1,1553,358,0,0
336,666,0,0,0,0,0,0,0,0,0,-1,1560,358,0,0
343,666,0,0,0,0,0,0,0,0,0,-1,1567,358,0,0
350,666,0,0,0,0,0,0,0,0,0,-1,1574,358,0,0
357,666,0,0,0,0,0,0,0,0,0,-1,1581,358,0,0
364,666,0,0,0,0,0,0,0,0,0,-1,1588,358,0,0
371,666,0,0,0,0,0,0,0,0,0,-1,1595,358,0,0
378,666,0,0,0,0,0,0,0,0,0,-1,1602,358,0,0
385,666,0,0,0,0,0,0,0,0,0,-1,1609,358,0,0
392,666,0,0,0,0,0,0,0,0,0,-1,1616,358,0,0
399,666,0,0,0,0,0,0,0,0,0,-1,1623,358,0,0
406,666,0,0,0,0,0,0,0,0,0,-1,1630,358,0,0
413,666,0,0,0,0,0,0,0,0,0,-1,1637,358,0,0
420,666,0,0,0,0,0,0,0,0,0,-1,1644,358,0,0
427,666,0,0,0,0,0,0,0,0,0,-1,1651,358,0,0
434,666,0,0,0,0,0,0,0,0,0,-1,1658,358,0,0
441,666,0,0,0,0,0,0,0,0,0,-1,1665,358,0,0
448,666,0,0,0,0,0,0,0,0,0,-1,1672,358,0,0
455,666,0,0,0,0,0,0,0,0,0,-1,1679,358,0,0
462,666,0,0,0,0,0,0,0,0,0,-1,1686,358,0,0
469,666,0,0,0,0,0,0,0,0,0,-1,1693,358,0,0
476,666,0,0,0,0,0,0,0,0,0,-1,1700,358,0,0
483,666,0,0,0,0,0,0,0,0,0,-1,1707,358,0,0
490,666,0,0,0,0,0,0,0,0,0,-1,1714,358,0,0
497,666,0,0,0,0,0,0,0,0,0,-1,1721,358,0,0
504,666,0,0,0,0,0,0,0,0,0,-1,1728,358,0,0
511,666,0,0,0,0,0,0,0,0,0,-1,1735,358,0,0
518,666,0,0,0,0,0,0,0,0,0,-1,1742,358,0,0
525,666,0,0,0,0,0,0,0,0,0,-1,1749,358,0,0
532,666,0,0,0,0,0,0,0,0,0,-1,1756,358,0,0
539,666,0,0,0,0,0,0,0,0,0,-1,1763,358,0,0
546,666,0,0,0,0,0,0,0,0,0,-1,1770,358,0,0
553,666,0,0,0,0,0,0,0,0,0,-1,1777,358,0,0
560,666,0,0,0,0,0,0,0,0,0,-1,1784,358,0,0
567,666,0,0,0,0,0,0,0,0,0,-1,1791,358,0,0
574,666,0,0,0,0,0,0,0,0,0,-1,1798,358,0,0
581,666,0,0,0,0,0,0,0,0,0,-1,1805,358,0,0
588,666,0,0,0,0,0,0,0,0,0,-1,1812,358,0,0
595,666,0,0,0,0,0,0,0,0,0,-1,1819,358,0,0
602,666,0,0,0,0,0,0,0,0,0,-1,1826,358,0,0
609,666,0,0,0,0,0,0,0,0,0,-1,1833,358,0,0
616,666,0,0,0,0,0,0,0,0,0,-1,1840,358,0,0
623,666,0,0,0,0,0,0,0,0,0,-1,1847,358,0,0
630,666,0,0,0,0,0,0,0,0,0,-1,1854,358,0,0
637,666,0,0,0,0,0,0,0,0,0,-1,1861,358,0,0
644,666,0,0,0,0,0,0,0,0,0,-1,1868,358,0,0
651,666,0,0,0,0,0,0,0,0,0,-1,1875,358,0,0
658,666,0,0,0,0,0,0,0,0,0,-1,1882,358,0,0
665,666,0,0,0,0,0,0,0,0,0,-1,1889,358,0,0
672,666,0,0,0,0,0,0,0,0,0,-1,1896,358,0,0
679,666,0,0,0,0,0,0,0,0,0,-1,1903,358,0,0
686,666,0,0,0,0,0,0,0,0,0,-1,1910,358,0,0
693,666,0,0,0,0,0,0,0,0,0,-1,1917,358,0,0
700,666,0,0,0,0,0,0,0,0,0,-1,1924,358,0,0
707,666,0,0,0,0,0,0,0,0,0,-1,1931,358,0,0
714,666,0,0,0,0,0,0,0,0,0,-1,1938,358,0,0
721,666,0,0,0,0,0,0,0,0,0,-1,1945,358,0,0
728,666,0,0,0,0,0,0,0,0,0,-1,1952,358,0,0
735,666,0,0,0,0,0,0,0,0,0,-1,1959,358,0,0
742,666,0,0,0,0,0,0,0,0,0,-1,1966,358,0,0
749,666,0,0,0,0,0,0,0,0,0,-1,1973,358,0,0
756,666,0,0,0,0,0,0,0,0,0,-1,1980,358,0,0
763,666,0,0,0,0,0,0,0,0,0,-1,1987,358,0,0
770,666,0,0,0,0,0,0,0,0,0,-1,1994,358,0,0
777,666,0,0,0,0,0,0,0,0,0,-1,2001,358,0,0
784,666,0,0,0,0,0,0,0,0,0,-1,2008,358,0,0
791,666,0,0,0,0,0,0,0,0,0,-1,2015,358,0,0
798,666,0,0,0,0,0,0,0,0,0,-1,2022,358,0,0
805,666,0,0,0,0,0,0,0,0,0,-1,2029,358,0,0
812,666,0,0,0,0,0,0,0,0,0,-1,2036,358,0,0
-700,659,0,0,0,0,0,0,0,0,0,-1,524,365,0,0
-693,659,0,0,0,0,0,0,0,0,0,-1,531,365,0,0
-686,659,0,0,0,0,0,0,0,0,0,-1,538,365,0,0
-679,659,0,0,0,0,0,0,0,0,0,-1,545,365,0,0
-672,659,0,0,0,0,0,0,0,0,0,-1,552,365,0,0
-665,659,0,0,0,0,0,0,0,0,0,-1,559,365,0,0
-658,659,0,0,0,0,0,0,0,0,0,-1,566,365,0,0
-651,659,0,0,0,0,0,0,0,0,0,-1,573,365,0,0
-644,659,0,0,0,0,0,0,0,0,0,-1,580,365,0,0
-637,659,0,0,0,0,0,0,0,0,0,-1,587,365,0,0
-630,659,0,0,0,0,0,0,0,0,0,-1,594,365,0,0
-623,659,0,0,0,0,0,0,0,0,0,-1,601,365,0,0
-616,659,0,0,0,0,0,0,0,0,0,-1,608,365,0,0
-609,659,0,0,0,0,0,0,0,0,0,-1,615,365,0,0
-602,659,0,0,0,0,0,0,0,0,0,-1,622,365,0,0
-595,659,0,0,0,0,0,0,0,0,0,-1,629,365,0,0
-588,659,0,0,0,0,0,0,0,0,0,-1,636,365,0,0
-581,659,0,0,0,0,0,0,0,0,0,-1,643,365,0,0
-574,659,0,0,0,0,0,0,0,0,0,-1,650,365,0,0
-567,659,0,0,0,0,0,0,0,0,0,-1,657,365,0,0
-560,659,0,0,0,0,0,0,0,0,0,-1,664,365,0,0
-553,659,0,0,0,0,0,0,0,0,0,-1,671,365,0,0
-546,659,0,0,0,0,0,0,0,0,0,-1,678,365,0,0
-539,659,0,0,0,0,0,0,0,0,0,-1,685,365,0,0
-532,659,0,0,0,0,0,0,0,0,0,-1,692,365,0,0
-525,659,0,0,0,0,0,0,0,0,0,-1,699,365,0,0
-518,659,0,0,0,0,0,0,0,0,0,-1,706,365,0,0
-511,659,0,0,0,0,0,0,0,0,0,-1,713,365,0,0
-504,659,0,0,0,0,0,0,0,0,0,-1,720,365,0,0
-497,659,0,0,0,0,0,0,0,0,0,-1,727,365,0,0
-490,659,0,0,0,0,0,0,0,0,0,-1,734,365,0,0
-483,659,0,0,0,0,0,0,0,0,0,-1,741,365,0,0
-476,659,0,0,0,0,0,0,0,0,0,-1,748,365,0,0
-469,659,0,0,0,0,0,0,0,0,0,-1,755,365,0,0
-462,659,0,0,0,0,0,0,0,0,0,-1,762,365,0,0
-455,659,0,0,0,0,0,0,0,0,0,-1,769,365,0,0
-448,659,0,0,0,0,0,0,0,0,0,-1,776,365,0,0
-441,659,0,0,0,0,0,0,0,0,0,-1,783,365,0,0
-434,659,0,0,0,0,0,0,0,0,0,-1,790,365,0,0
-427,659,0,0,0,0,0,0,0,0,0,-1,797,365,0,0
-420,659,0,0,0,0,0,0,0,0,0,-1,804,365,0,0
-413,659,0,0,0,0,0,0,0,0,0,-1,811,365,0,0
-406,659,0,0,0,0,0,0,0,0,0,-1,818,365,0,0
-399,659,0,0,0,0,0,0,0,0,0,-1,825,365,0,0
-392,659,0,0,0,0,0,0,0,0,0,-1,832,365,0,0
-385,659,0,0,0,0,0,0,0,0,0,-1,839,365,0,0
-378,659,0,0,0,0,0,0,0,0,0,-1,846,365,0,0
-371,659,0,0,0,0,0,0,0,0,0,-1,853,365,0,0
-364,659,0,0,0,0,0,0,0,0,0,-1,860,365,0,0
-357,659,0,0,0,0,0,0,0,0,0,-1,867,365,0,0
-350,659,0,0,0,0,0,0,0,0,0,-1,874,365,0,0
-343,659,0,0,0,0,0,0,0,0,0,-1,881,365,0,0
-336,659,0,0,0,0,0,0,0,0,0,-1,888,365,0,0
-329,659,0,0,0,0,0,0,0,0,0,-1,895,365,0,0
-322,659,0,0,0,0,0,0,0,0,0,-1,902,365,0,0
-315,659,0,0,0,0,0,0,0,0,0,-1,909,365,0,0
-308,659,0,0,0,0,0,0,0,0,0,-1,916,365,0,0
-301,659,0,0,0,0,0,0,0,0,0,-1,923,365,0,0
-294,659,0,0,0,0,0,0,0,0,0,-1,930,365,0,0
-287,659,0,0,0,0,0,0,0,0,0,-1,937,365,0,0
-280,659,0,0,0,0,0,0,0,0,0,-1,944,365,0,0
-273,659,0,0,0,0,0,0,0,0,0,-1,951,365,0,0
-266,659,0,0,0,0,0,0,0,0,0,-1,958,365,0,0
-259,659,0,0,0,0,0,0,0,0,0,-1,965,365,0,0
-252,659,0,0,0,0,0,0,0,0,0,-1,972,365,0,0
-245,659,0,0,0,0,0,0,0,0,0,-1,979,365,0,0
-238,659,0,0,0,0,0,0,0,0,0,-1,986,365,0,0
-231,659,0,0,0,0,0,0,0,0,0,-1,993,365,0,0
-224,659,0,0,0,0,0,0,0,0,0,-1,1000,365,0,0
-217,659,1.58905,-25.7653,0,0,0,0,0,0,0,-1,1007,365,1.58908,25.7652
-210,659,2.664,-25.0039,0,0,0,0,0,0,0,-1,1014,365,2.664,25.0039
-203,659,3.64746,-23.8298,0,0,0,0,0,0,0,-1,1021,365,3.64742,23.8298
-196,659,4.5022,-23.0318,0,0,0,0,0,0,0,-1,1028,365,4.50215,23.0318
-189,659,1.69055,-26.9917,0,0,0,0,0,0,0,-1,1035,365,1.69058,26.9917
-182,659,2.86572,-27.5772,0.157867,-0.121876,-0.0621286,0.171044,-0.135054,-0.209003,0.177133,0.0405311,1042,365,2.86572,27.5772
-175,659,4.15869,-28.4581,0.131349,-0.100303,-0.0494362,0.141458,-0.110412,-0.201704,0.145785,0.0437154,1049,365,4.15869,28.4581
-168,659,5.06995,-29.6031,0.104799,-0.0793956,-0.0363104,0.111699,-0.0862951,-0.187774,0.114625,0.0435176,1056,365,5.06999,29.603
-161,659,5.87061,-30.7495,0,0,0,0,0,0,0,-1,1063,365,5.87064,30.7495
-154,659,6.34753,-28.7462,0,0,0,0,0,0,0,-1,1070,365,6.34752,28.7462
-147,659,5.67029,-28.2706,0,0,0,0,0,0,0,-1,1077,365,5.67027,28.2706
-140,659,4.95569,-27.5779,0.0226182,-0.00862304,0.00492455,0.023376,-0.00938092,0.152699,0.0194791,0.0434529,1084,365,4.95563,27.5779
-133,659,5.00781,-27.7851,0.00954008,0.00285072,0.0119802,0.0186338,-0.00624295,0.649273,0.0149447,0.044296,1091,365,5.00787,27.7851
-126,659,5.39832,-28.2242,-0.00196569,0.0122129,0.0183385,0.0247847,-0.0145375,0.969841,0.0229582,0.0417751,1098,365,5.39835,28.2242
-119,659,5.85803,-29.6404,0,0,0,0,0,0,0,-1,1105,365,5.85806,29.6404
-112,659,5.69592,-29.1647,0,0,0,0,0,0,0,-1,1112,365,5.69596,29.1647
-105,659,5.24524,-28.6101,0,0,0,0,0,0,0,-1,1119,365,5.24525,28.6101
-98,659,4.68042,-26.2438,0,0,0,0,0,0,0,-1,1126,365,4.68041,26.2438
-91,659,4.20776,-20.8654,0,0,0,0,0,0,0,-1,1133,365,4.20777,20.8654
-84,659,2.8584,-17.8303,0,0,0,0,0,0,0,-1,1140,365,2.85836,17.8303
-77,659,2.80139,-15.3457,0,0,0,0,0,0,0,-1,1147,365,2.80139,15.3457
-70,659,2.9353,-12.7028,0,0,0,0,0,0,0,-1,1154,365,2.93533,12.7028
-63,659,2.11267,-9.7796,0,0,0,0,0,0,0,-1,1161,365,2.11266,9.7796
-56,659,2.11182,-9.91541,0,0,0,0,0,0,0,-1,1168,365,2.11178,9.91541
-49,659,4.89111,-31.0938,0,0,0,0,0,0,0,-1,1175,365,4.89115,31.0938
-42,659,4.87732,-31.29,0,0,0,0,0,0,0,-1,1182,365,4.87737,31.29
-35,659,4.80444,-31.4962,-0.00584067,-0.00186205,-0.00892493,0.00529259,-0.0129953,-0.895053,0.0108662,0.0432841,1189,365,4.80445,31.4962
-28,659,4.83777,-31.5808,-0.00421292,-0.00229598,-0.00901404,0.00581041,-0.0123193,-0.838365,0.0106897,0.0157434,1196,365,4.83782,31.5808
-21,659,4.80701,-31.7092,-0.00253536,-0.00154838,-0.00862325,0.00659549,-0.0106792,-0.813981,0.010066,0.0123442,1203,365,4.80701,31.7092
-14,659,4.72974,-31.8369,-0.00101041,-0.000947629,-0.00801009,0.00703113,-0.00898917,-0.787358,0.00927233,0.00977186,1210,365,4.72978,31.8369
-7,659,4.68237,-31.9402,0.000607006,-0.000378281,-0.00736575,0.00749657,-0.00726785,-0.752006,0.00852458,0.00922733,1217,365,4.68242,31.9402
0,659,4.67798,-32.0303,0.00205625,0.000594226,-0.00646214,0.00782859,-0.00517811,-0.729076,0.00756122,0.0084349,1224,365,4.67796,32.0303
7,659,4.66614,-32.1074,0.00295428,0.00192861,-0.0053814,0.00784723,-0.00296433,-0.737893,0.00645077,0.00859219,1231,365,4.66615,32.1074
14,659,4.6145,-32.16,0.00365811,0.00381595,-0.0040777,0.0078155,-0.000341433,-0.795074,0.00532779,0.0113336,1238,365,4.61446,32.16
21,659,4.5741,-32.23,0.00378444,0.00587855,-0.00272444,0.00775021,0.00191278,-0.968856,0.00466191,0.0117937,1245,365,4.57405,32.23
28,659,4.53015,-32.292,0.00355994,0.00787702,-0.00142537,0.00830518,0.00313179,-1.27899,0.00484305,0.0109966,1252,365,4.53021,32.292
35,659,4.51404,-32.3206,0.00257593,0.00994591,5.45202e-05,0.00994631,0.00257553,1.5634,0.00596082,0.0117193,1259,365,4.514,32.3206
42,659,4.48291,-32.3587,0.00146086,0.0109303,0.00226081,0.0114423,0.000948786,1.34805,0.00733245,0.012274,1266,365,4.48293,32.3587
49,659,4.44458,-32.3752,0.000123212,0.011311,0.00483109,0.0131084,-0.00167417,1.21462,0.0093471,0.0122231,1273,365,4.44455,32.3752
56,659,4.3938,-32.3739,-0.00076922,0.0126701,0.00692217,0.0155978,-0.00369685,1.17068,0.011825,0.0153318,1280,365,4.3938,32.3739
63,659,4.3811,-32.3922,-0.00122265,0.0133366,0.00920316,0.0177912,-0.00567721,1.12001,0.0141384,0.0156147,1287,365,4.38105,32.3922
70,659,4.34082,-32.3752,-0.00260166,0.0146183,0.011604,0.0204577,-0.00844104,1.10457,0.0171588,0.0171871,1294,365,4.34083,32.3752
77,659,4.28577,-32.351,-0.00277533,0.0150671,0.0131812,0.0220623,-0.00977053,1.0829,0.0188299,0.0185076,1301,365,4.28578,32.351
84,659,4.25598,-32.3441,-0.00253964,0.0152829,0.0141931,0.0231304,-0.0103871,1.06572,0.0198121,0.0137049,1308,365,4.25602,32.3441
91,659,4.21179,-32.2943,-0.00193544,0.0161622,0.0148813,0.0245299,-0.0103031,1.05856,0.0206624,0.0112468,1315,365,4.21182,32.2944
98,659,4.19287,-32.2214,-0.00124319,0.0174675,0.0150841,0.0258618,-0.00963756,1.06297,0.0211971,0.00825091,1322,365,4.1929,32.2214
105,659,4.16394,-32.1208,-0.000619219,0.0191442,0.0149852,0.0272126,-0.00868758,1.07689,0.0216272,0.00998977,1329,365,4.16392,32.1208
112,659,4.13379,-32.0354,1.5045e-05,0.0209926,0.014503,0.0284022,-0.00739455,1.09847,0.0218213,0.0138095,1336,365,4.13378,32.0354
119,659,4.09717,-31.9272,0.000114789,0.0225049,0.0134496,0.0288091,-0.00618935,1.13248,0.0215673,0.0150803,1343,365,4.09713,31.9273
126,659,4.06641,-31.7906,7.55032e-05,0.0239472,0.0121696,0.0290573,-0.00503459,1.17325,0.0212495,0.0134977,1350,365,4.0664,31.7906
133,659,4.02332,-31.6726,-0.000219874,0.0251569,0.0107961,0.0291284,-0.00419132,1.2183,0.0209562,0.0128347,1357,365,4.02337,31.6726
140,659,3.9801,-31.5692,-0.00040836,0.0257455,0.00944082,0.0287973,-0.00346014,1.25815,0.0204494,0.00978689,1364,365,3.9801,31.5692
147,659,3.94116,-31.4342,-0.000805861,0.0263373,0.00783959,0.0284388,-0.00290741,1.30889,0.0199989,0.00866458,1371,365,3.94115,31.4342
154,659,3.90063,-31.2506,-0.00130383,0.0265475,0.00620069,0.0278656,-0.00262194,1.36134,0.0195099,0.00964732,1378,365,3.90065,31.2506
161,659,3.88977,-31.07,-0.0021622,0.0250934,0.0051632,0.0260388,-0.00310751,1.38972,0.0184823,0.011103,1385,365,3.88978,31.07
168,659,3.87549,-30.8878,-0.00343359,0.0238483,0.00373474,0.0243504,-0.00393561,1.43718,0.017692,0.0189326,1392,365,3.87551,30.8878
175,659,3.86816,-30.7206,-0.00426767,0.0212197,0.00202095,0.0213789,-0.00442692,1.49216,0.0159346,0.0421939,1399,365,3.86813,30.7206
182,659,3.73804,-30.5996,0,0,0,0,0,0,0,-1,1406,365,3.73805,30.5996
189,659,3.78235,-30.2519,0,0,0,0,0,0,0,-1,1413,365,3.78232,30.2519
196,659,2.41248,-13.4371,0,0,0,0,0,0,0,-1,1420,365,2.41243,13.4371
203,659,2.38623,-12.2163,0,0,0,0,0,0,0,-1,1427,365,2.38617,12.2163
210,659,2.20789,-13.9792,0,0,0,0,0,0,0,-1,1434,365,2.20794,13.9792
217,659,2.24121,-13.487,0,0,0,0,0,0,0,-1,1441,365,2.24116,13.487
224,659,2.3479,-15.2926,0,0,0,0,0,0,0,-1,1448,365,2.34793,15.2926
231,659,2.47974,-17.8629,0,0,0,0,0,0,0,-1,1455,365,2.47976,17.8628
238,659,3.57886,-21.1258,0,0,0,0,0,0,0,-1,1462,365,3.57889,21.1258
245,659,3.29883,-25.0283,0,0,0,0,0,0,0,-1,1469,365,3.29889,25.0283
252,659,2.81909,-24.1604,0,0,0,0,0,0,0,-1,1476,365,2.81905,24.1604
259,659,2.33069,-3.36703,0,0,0,0,0,0,0,-1,1483,365,2.33073,3.36702
266,659,1.72681,-17.183,0,0,0,0,0,0,0,-1,1490,365,1.72683,17.183
273,659,3.23767,-26.5354,0,0,0,0,0,0,0,-1,1497,365,3.23766,26.5354
280,659,-6.90784,-17.1906,0,0,0,0,0,0,0,-1,1504,365,-6.90789,17.1906
287,659,-5.92737,-19.4511,0,0,0,0,0,0,0,-1,1511,365,-5.92734,19.4511
294,659,-4.90845,-21.6836,0,0,0,0,0,0,0,-1,1518,365,-4.90846,21.6836
301,659,-4.74207,-23.313,0,0,0,0,0,0,0,-1,1525,365,-4.74206,23.313
308,659,-3.77832,-24.1487,0,0,0,0,0,0,0,-1,1532,365,-3.77827,24.1487
315,659,2.17102,-2.98474,0,0,0,0,0,0,0,-1,1539,365,2.171,2.98473
322,659,0.382813,-2.2424,0,0,0,0,0,0,0,-1,1546,365,0.382801,2.2424
329,659,0.604004,-1.75998,0,0,0,0,0,0,0,-1,1553,365,0.603966,1.75998
336,659,4.55933,-25.2647,0,0,0,0,0,0,0,-1,1560,365,4.55935,25.2647
343,659,0,0,0,0,0,0,0,0,0,-1,1567,365,0,0
350,659,0,0,0,0,0,0,0,0,0,-1,1574,365,0,0
357,659,0,0,0,0,0,0,0,0,0,-1,1581,365,0,0
364,659,0,0,0,0,0,0,0,0,0,-1,1588,365,0,0
371,659,0,0,0,0,0,0,0,0,0,-1,1595,365,0,0
378,659,0,0,0,0,0,0,0,0,0,-1,1602,365,0,0
385,659,0,0,0,0,0,0,0,0,0,-1,1609,365,0,0
392,659,0,0,0,0,0,0,0,0,0,-1,1616,365,0,0
399,659,0,0,0,0,0,0,0,0,0,-1,1623,365,0,0
406,659,0,0,0,0,0,0,0,0,0,-1,1630,365,0,0
413,659,0,0,0,0,0,0,0,0,0,-1,1637,365,0,0
420,659,0,0,0,0,0,0,0,0,0,-1,1644,365,0,0
427,659,0,0,0,0,0,0,0,0,0,-1,1651,365,0,0
434,659,0,0,0,0,0,0,0,0,0,-1,1658,365,0,0
441,659,0,0,0,0,0,0,0,0,0,-1,1665,365,0,0
448,659,0,0,0,0,0,0,0,0,0,-1,1672,365,0,0
455,659,0,0,0,0,0,0,0,0,0,-1,1679,365,0,0
462,659,0,0,0,0,0,0,0,0,0,-1,1686,365,0,0
469,659,0,0,0,0,0,0,0,0,0,-1,1693,365,0,0
476,659,0,0,0,0,0,0,0,0,0,-1,1700,365,0,0
483,659,0,0,0,0,0,0,0,0,0,-1,1707,365,0,0
490,659,0,0,0,0,0,0,0,0,0,-1,1714,365,0,0
497,659,0,0,0,0,0,0,0,0,0,-1,1721,365,0,0
504,659,0,0,0,0,0,0,0,0,0,-1,1728,365,0,0
511,659,0,0,0,0,0,0,0,0,0,-1,1735,365,0,0
518,659,0,0,0,0,0,0,0,0,0,-1,1742,365,0,0
525,659,0,0,0,0,0,0,0,0,0,-1,1749,365,0,0
532,659,0,0,0,0,0,0,0,0,0,-1,1756,365,0,0
539,659,0,0,0,0,0,0,0,0,0,-1,1763,365,0,0
546,659,0,0,0,0,0,0,0,0,0,-1,1770,365,0,0
553,659,0,0,0,0,0,0,0,0,0,-1,1777,365,0,0
560,659,0,0,0,0,0,0,0,0,0,-1,1784,365,0,0
567,659,0,0,0,0,0,0,0,0,0,-1,1791,365,0,0
574,659,0,0,0,0,0,0,0,0,0,-1,1798,365,0,0
581,659,0,0,0,0,0,0,0,0,0,-1,1805,365,0,0
588,659,0,0,0,0,0,0,0,0,0,-1,1812,365,0,0
595,659,0,0,0,0,0,0,0,0,0,-1,1819,365,0,0
602,659,0,0,0,0,0,0,0,0,0,-1,1826,365,0,0
609,659,0,0,0,0,0,0,0,0,0,-1,1833,365,0,0
616,659,0,0,0,0,0,0,0,0,0,-1,1840,365,0,0
623,659,0,0,0,0,0,0,0,0,0,-1,1847,365,0,0
630,659,0,0,0,0,0,0,0,0,0,-1,1854,365,0,0
637,659,0,0,0,0,0,0,0,0,0,-1,1861,365,0,0
644,659,0,0,0,0,0,0,0,0,0,-1,1868,365,0,0
651,659,0,0,0,0,0,0,0,0,0,-1,1875,365,0,0
658,659,0,0,0,0,0,0,0,0,0,-1,1882,365,0,0
665,659,0,0,0,0,0,0,0,0,0,-1,1889,365,0,0
672,659,0,0,0,0,0,0,0,0,0,-1,1896,365,0,0
679,659,0,0,0,0,0,0,0,0,0,-1,1903,365,0,0
686,659,0,0,0,0,0,0,0,0,0,-1,1910,365,0,0
693,659,0,0,0,0,0,0,0,0,0,-1,1917,365,0,0
700,659,0,0,0,0,0,0,0,0,0,-1,1924,365,0,0
707,659,0,0,0,0,0,0,0,0,0,-1,1931,365,0,0
714,659,0,0,0,0,0,0,0,0,0,-1,1938,365,0,0
721,659,0,0,0,0,0,0,0,0,0,-1,1945,365,0,0
728,659,0,0,0,0,0,0,0,0,0,-1,1952,365,0,0
735,659,0,0,0,0,0,0,0,0,0,-1,1959,365,0,0
742,659,0,0,0,0,0,0,0,0,0,-1,1966,365,0,0
749,659,0,0,0,0,0,0,0,0,0,-1,1973,365,0,0
756,659,0,0,0,0,0,0,0,0,0,-1,1980,365,0,0
763,659,0,0,0,0,0,0,0,0,0,-1,1987,365,0,0
770,659,0,0,0,0,0,0,0,0,0,-1,1994,365,0,0
777,659,0,0,0,0,0,0,0,0,0,-1,2001,365,0,0
784,659,0,0,0,0,0,0,0,0,0,-1,2008,365,0,0
791,659,0,0,0,0,0,0,0,0,0,-1,2015,365,0,0
798,659,0,0,0,0,0,0,0,0,0,-1,2022,365,0,0
805,659,0,0,0,0,0,0,0,0,0,-1,2029,365,0,0
812,659,0,0,0,0,0,0,0,0,0,-1,2036,365,0,0
-700,652,0,0,0,0,0,0,0,0,0,-1,524,372,0,0
-693,652,0,0,0,0,0,0,0,0,0,-1,531,372,0,0
-686,652,0,0,0,0,0,0,0,0,0,-1,538,372,0,0
-679,652,0,0,0,0,0,0,0,0,0,-1,545,372,0,0
-672,652,0,0,0,0,0,0,0,0,0,-1,552,372,0,0
-665,652,0,0,0,0,0,0,0,0,0,-1,559,372,0,0
-658,652,0,0,0,0,0,0,0,0,0,-1,566,372,0,0
-651,652,0,0,0,0,0,0,0,0,0,-1,573,372,0,0
-644,652,0,0,0,0,0,0,0,0,0,-1,580,372,0,0
-637,652,0,0,0,0,0,0,0,0,0,-1,587,372,0,0
-630,652,0,0,0,0,0,0,0,0,0,-1,594,372,0,0
-623,652,0,0,0,0,0,0,0,0,0,-1,601,372,0,0
-616,652,0,0,0,0,0,0,0,0,0,-1,608,372,0,0
-609,652,0,0,0,0,0,0,0,0,0,-1,615,372,0,0
-602,652,0,0,0,0,0,0,0,0,0,-1,622,372,0,0
-595,652,0,0,0,0,0,0,0,0,0,-1,629,372,0,0
-588,652,0,0,0,0,0,0,0,0,0,-1,636,372,0,0
-581,652,0,0,0,0,0,0,0,0,0,-1,643,372,0,0
-574,652,0,0,0,0,0,0,0,0,0,-1,650,372,0,0
-567,652,0,0,0,0,0,0,0,0,0,-1,657,372,0,0
-560,652,0,0,0,0,0,0,0,0,0,-1,664,372,0,0
-553,652,0,0,0,0,0,0,0,0,0,-1,671,372,0,0
-546,652,0,0,0,0,0,0,0,0,0,-1,678,372,0,0
-539,652,0,0,0,0,0,0,0,0,0,-1,685,372,0,0
-532,652,0,0,0,0,0,0,0,0,0,-1,692,372,0,0
-525,652,0,0,0,0,0,0,0,0,0,-1,699,372,0,0
-518,652,0,0,0,0,0,0,0,0,0,-1,706,372,0,0
-511,652,0,0,0,0,0,0,0,0,0,-1,713,372,0,0
-504,652,0,0,0,0,0,0,0,0,0,-1,720,372,0,0
-497,652,0,0,0,0,0,0,0,0,0,-1,727,372,0,0
-490,652,0,0,0,0,0,0,0,0,0,-1,734,372,0,0
-483,652,0,0,0,0,0,0,0,0,0,-1,741,372,0,0
-476,652,0,0,0,0,0,0,0,0,0,-1,748,372,0,0
-469,652,0,0,0,0,0,0,0,0,0,-1,755,372,0,0
-462,652,0,0,0,0,0,0,0,0,0,-1,762,372,0,0
-455,652,0,0,0,0,0,0,0,0,0,-1,769,372,0,0
-448,652,0,0,0,0,0,0,0,0,0,-1,776,372,0,0
-441,652,0,0,0,0,0,0,0,0,0,-1,783,372,0,0
-434,652,0,0,0,0,0,0,0,0,0,-1,790,372,0,0
-427,652,0,0,0,0,0,0,0,0,0,-1,797,372,0,0
-420,652,0,0,0,0,0,0,0,0,0,-1,804,372,0,0
-413,652,0,0,0,0,0,0,0,0,0,-1,811,372,0,0
-406,652,0,0,0,0,0,0,0,0,0,-1,818,372,0,0
-399,652,0,0,0,0,0,0,0,0,0,-1,825,372,0,0
-392,652,0,0,0,0,0,0,0,0,0,-1,832,372,0,0
-385,652,0,0,0,0,0,0,0,0,0,-1,839,372,0,0
-378,652,0,0,0,0,0,0,0,0,0,-1,846,372,0,0
-371,652,0,0,0,0,0,0,0,0,0,-1,853,372,0,0
-364,652,0,0,0,0,0,0,0,0,0,-1,860,372,0,0
-357,652,0,0,0,0,0,0,0,0,0,-1,867,372,0,0
-350,652,0,0,0,0,0,0,0,0,0,-1,874,372,0,0
-343,652,0,0,0,0,0,0,0,0,0,-1,881,372,0,0
-336,652,0,0,0,0,0,0,0,0,0,-1,888,372,0,0
-329,652,0,0,0,0,0,0,0,0,0,-1,895,372,0,0
-322,652,0,0,0,0,0,0,0,0,0,-1,902,372,0,0
-315,652,0,0,0,0,0,0,0,0,0,-1,909,372,0,0
-308,652,0,0,0,0,0,0,0,0,0,-1,916,372,0,0
-301,652,0,0,0,0,0,0,0,0,0,-1,923,372,0,0
-294,652,0,0,0,0,0,0,0,0,0,-1,930,372,0,0
-287,652,0,0,0,0,0,0,0,0,0,-1,937,372,0,0
-280,652,0,0,0,0,0,0,0,0,0,-1,944,372,0,0
-273,652,0,0,0,0,0,0,0,0,0,-1,951,372,0,0
-266,652,0,0,0,0,0,0,0,0,0,-1,958,372,0,0
-259,652,0,0,0,0,0,0,0,0,0,-1,965,372,0,0
-252,652,0,0,0,0,0,0,0,0,0,-1,972,372,0,0
-245,652,0,0,0,0,0,0,0,0,0,-1,979,372,0,0
-238,652,0,0,0,0,0,0,0,0,0,-1,986,372,0,0
-231,652,8.68457,-21.315,0,0,0,0,0,0,0,-1,993,372,8.68455,21.315
-224,652,9.47449,-18.002,0,0,0,0,0,0,0,-1,1000,372,9.47449,18.002
-217,652,1.80139,-26.709,0,0,0,0,0,0,0,-1,1007,372,1.80137,26.709
-210,652,2.70807,-25.7509,0,0,0,0,0,0,0,-1,1014,372,2.70809,25.7509
-203,652,3.66467,-24.6504,0,0,0,0,0,0,0,-1,1021,372,3.66463,24.6504
-196,652,4.50012,-23.3835,0,0,0,0,0,0,0,-1,1028,372,4.50007,23.3835
-189,652,2.43188,-26.0271,0,0,0,0,0,0,0,-1,1035,372,2.43189,26.0271
-182,652,3.18262,-26.595,0.119471,-0.0878481,-0.0485499,0.130278,-0.0986543,-0.219008,0.132593,0.0421534,1042,372,3.18263,26.595
-175,652,4.18445,-27.3658,0.100783,-0.0737916,-0.0396834,0.10938,-0.0823888,-0.213349,0.111083,0.0424235,1049,372,4.1845,27.3658
-168,652,5.02197,-28.4073,0.0814713,-0.0595617,-0.0303381,0.0877206,-0.0658109,-0.203144,0.0889418,0.041449,1056,372,5.02202,28.4073
-161,652,5.776,-29.5175,0,0,0,0,0,0,0,-1,1063,372,5.77596,29.5175
-154,652,5.58569,-27.489,0,0,0,0,0,0,0,-1,1070,372,5.58571,27.489
-147,652,5.69165,-27.7643,0,0,0,0,0,0,0,-1,1077,372,5.69169,27.7643
-140,652,5.0918,-27.7937,0.0202335,-0.00655545,-0.000638828,0.0202487,-0.00657068,-0.0238287,0.0161415,0.0411572,1084,372,5.09183,27.7937
-133,652,4.90344,-27.8743,0.0102654,0.00234895,0.00460743,0.0123814,0.00023298,0.430522,0.00817771,0.0420616,1091,372,4.90346,27.8743
-126,652,5.18213,-28.2178,0.00118955,0.00985418,0.00943812,0.0159068,-0.00486308,1.00056,0.0125438,0.0414959,1098,372,5.18217,28.2178
-119,652,5.13403,-28.6274,-0.00507882,0.0149515,0.0127535,0.0211522,-0.0112796,1.11825,0.0190115,0.0358926,1105,372,5.13397,28.6274
-112,652,5.1521,-29.0343,-0.00976963,0.0188288,0.0155083,0.025624,-0.0165648,1.15783,0.0245442,0.0309293,1112,372,5.15212,29.0343
-105,652,5.04907,-29.0257,-0.0100476,0.0178386,0.0157777,0.0249513,-0.0171603,1.14727,0.0244515,0.0399121,1119,372,5.04907,29.0257
-98,652,5.06299,-29.2327,0,0,0,0,0,0,0,-1,1126,372,5.06304,29.2327
-91,652,5.08752,-29.4389,0,0,0,0,0,0,0,-1,1133,372,5.08754,29.4389
-84,652,5.02087,-29.8244,0,0,0,0,0,0,0,-1,1140,372,5.02082,29.8244
-77,652,4.88501,-30.2809,0,0,0,0,0,0,0,-1,1147,372,4.88501,30.2809
-70,652,4.88135,-30.5482,0,0,0,0,0,0,0,-1,1154,372,4.88139,30.5482
-63,652,4.88611,-30.7235,0,0,0,0,0,0,0,-1,1161,372,4.88617,30.7235
-56,652,4.76929,-30.9062,0,0,0,0,0,0,0,-1,1168,372,4.76925,30.9062
-49,652,4.80493,-31.1386,-0.00728438,0.00379263,-0.00528619,0.00591042,-0.00940217,-1.18975,0.00891701,0.0379783,1175,372,4.80496,31.1386
-42,652,4.72937,-31.2646,-0.00708724,0.00210237,-0.005647,0.00478773,-0.0097726,-1.12691,0.00856906,0.0117473,1182,372,4.72937,31.2646
-35,652,4.72461,-31.4223,-0.00606117,0.000286357,-0.00561326,0.00356096,-0.00933577,-1.04269,0.00769072,0.00953827,1189,372,4.72462,31.4223
-28,652,4.70813,-31.5842,-0.00498596,-8.01791e-05,-0.00566543,0.00364057,-0.00870671,-0.989694,0.00732599,0.0077928,1196,372,4.70813,31.5842
-21,652,4.66333,-31.7285,-0.00381203,7.2611e-05,-0.00549904,0.00396227,-0.00770169,-0.955164,0.00684858,0.00802262,1203,372,4.66334,31.7285
-14,652,4.63489,-31.8489,-0.00278611,9.29351e-05,-0.00513481,0.00398618,-0.00667936,-0.922063,0.00622285,0.0101844,1210,372,4.63486,31.8489
-7,652,4.6012,-31.9699,-0.00172558,0.000136209,-0.00473052,0.00402656,-0.00561592,-0.882549,0.00559224,0.0126269,1217,372,4.60124,31.9699
0,652,4.58215,-32.0628,-0.000658178,0.00048488,-0.00417747,0.00412973,-0.00430303,-0.853382,0.004869,0.0121239,1224,372,4.58219,32.0628
7,652,4.56079,-32.0947,0.000119089,0.00116172,-0.00351118,0.00419007,-0.00290927,-0.859096,0.00412098,0.0130336,1231,372,4.56085,32.0947
14,652,4.54907,-32.1895,0.000846432,0.00225644,-0.0027001,0.00434206,-0.00123919,-0.913099,0.00338426,0.011428,1238,372,4.54911,32.1895
21,652,4.51489,-32.2828,0.00121852,0.00357599,-0.00188685,0.00462204,0.000172479,-1.06459,0.0030255,0.0104685,1245,372,4.51484,32.2828
28,652,4.49426,-32.3362,0.00139318,0.00492648,-0.00110861,0.00524551,0.00107415,-1.29059,0.00319963,0.00982528,1252,372,4.49423,32.3362
35,652,4.45935,-32.3565,0.00114496,0.00638989,-0.000282074,0.00640502,0.00112983,-1.51722,0.00394767,0.0101909,1259,372,4.45935,32.3565
42,652,4.42578,-32.3881,0.000800899,0.00709902,0.00106704,0.00727489,0.000625031,1.40745,0.00465559,0.0118482,1266,372,4.4258,32.3881
49,652,4.44116,-32.4112,0.000186947,0.00740942,0.00269523,0.00830432,-0.000707956,1.25022,0.00578665,0.0145894,1273,372,4.44119,32.4112
56,652,4.41602,-32.4043,-0.000141648,0.00825924,0.0039638,0.00983421,-0.00171662,1.19259,0.00719692,0.0154008,1280,372,4.41603,32.4043
63,652,4.38464,-32.4108,-0.000217097,0.00861331,0.00538498,0.0111617,-0.00276552,1.12878,0.00851405,0.0174326,1287,372,4.38459,32.4108
70,652,4.35925,-32.3867,-0.000642879,0.0094587,0.0068029,0.0128808,-0.00406498,1.10472,0.0102154,0.0162417,1294,372,4.3592,32.3867
77,652,4.29321,-32.3914,-0.000915411,0.00979322,0.00785527,0.0139454,-0.00506762,1.08454,0.0113691,0.0165848,1301,372,4.29319,32.3914
84,652,4.302,-32.363,-0.000896972,0.0100973,0.00853419,0.0147516,-0.00555124,1.07152,0.0121164,0.0144185,1308,372,4.30204,32.363
91,652,4.26453,-32.3456,-0.000678638,0.010794,0.00892466,0.0156669,-0.0055515,1.07103,0.012706,0.0172663,1315,372,4.26454,32.3456
98,652,4.25403,-32.2633,-0.000413879,0.01165,0.00905294,0.0164964,-0.00526037,1.07927,0.0131078,0.01388,1322,372,4.25398,32.2633
105,652,4.24292,-32.1464,-0.000162109,0.0127889,0.00896583,0.0173732,-0.00474637,1.09815,0.0134464,0.0113596,1329,372,4.24286,32.1464
112,652,4.21765,-32.0734,0.000129294,0.014126,0.00864848,0.018253,-0.0039977,1.12556,0.0136971,0.00973214,1336,372,4.21759,32.0734
119,652,4.19202,-31.9737,5.55737e-05,0.0153092,0.00798643,0.0187255,-0.00336078,1.16658,0.0137416,0.0103235,1343,372,4.19203,31.9737
126,652,4.15881,-31.8361,-6.54162e-05,0.0164714,0.00715915,0.0191401,-0.0027341,1.21399,0.0137623,0.0126958,1350,372,4.15886,31.8361
133,652,4.11987,-31.7192,-0.000326704,0.0175243,0.00625967,0.0195005,-0.00230295,1.26499,0.013832,0.0130354,1357,372,4.11984,31.7192
140,652,4.09924,-31.6143,-0.000526448,0.0181532,0.00540508,0.0196044,-0.00197769,1.30849,0.0137763,0.00962752,1364,372,4.09923,31.6143
147,652,4.08984,-31.4666,-0.000862822,0.0188751,0.00438017,0.0198034,-0.00179119,1.36194,0.013838,0.00921795,1371,372,4.08979,31.4666
154,652,4.06299,-31.2991,-0.00120852,0.0193274,0.0033295,0.0198538,-0.00173484,1.41401,0.0138504,0.0091945,1378,372,4.06294,31.2991
161,652,4.03088,-31.1205,-0.00191551,0.0186612,0.00282268,0.0190414,-0.0022957,1.43691,0.0135246,0.0105319,1385,372,4.03085,31.1205
168,652,4.01172,-30.9389,-0.00286384,0.0178729,0.00213831,0.0180911,-0.00308204,1.4691,0.0132085,0.0120104,1392,372,4.01167,30.9389
175,652,3.98499,-30.7388,-0.00334972,0.0160032,0.0014761,0.0161152,-0.00346166,1.49511,0.012064,0.0123673,1399,372,3.98494,30.7388
182,652,3.93567,-30.5611,-0.0034005,0.0132095,0.00137129,0.0133219,-0.00351295,1.48898,0.0102548,0.0175459,1406,372,3.93571,30.5611
189,652,3.94312,-30.3569,-0.00351697,0.0110845,0.00178518,0.0112996,-0.00373206,1.45089,0.00903767,0.0291341,1413,372,3.94314,30.3569
196,652,3.93176,-30.1236,0,0,0,0,0,0,0,-1,1420,372,3.93177,30.1236
203,652,3.85278,-29.8652,0,0,0,0,0,0,0,-1,1427,372,3.85282,29.8652
210,652,3.91223,-29.5397,0,0,0,0,0,0,0,-1,1434,372,3.91228,29.5397
217,652,3.86694,-29.3608,0,0,0,0,0,0,0,-1,1441,372,3.86697,29.3608
224,652,3.67932,-29.1947,0,0,0,0,0,0,0,-1,1448,372,3.67937,29.1947
231,652,3.74207,-28.5814,0,0,0,0,0,0,0,-1,1455,372,3.74204,28.5814
238,652,3.78748,-28.2408,0,0,0,0,0,0,0,-1,1462,372,3.78751,28.2408
245,652,3.69409,-28.1736,0,0,0,0,0,0,0,-1,1469,372,3.69414,28.1736
252,652,3.72522,-27.7934,0,0,0,0,0,0,0,-1,1476,372,3.72524,27.7934
259,652,3.16565,-27.2732,0,0,0,0,0,0,0,-1,1483,372,3.16571,27.2732
266,652,3.1908,-27.1033,0,0,0,0,0,0,0,-1,1490,372,3.19083,27.1033
273,652,3.3877,-26.8919,0,0,0,0,0,0,0,-1,1497,372,3.38774,26.8919
280,652,3.43091,-26.5216,0,0,0,0,0,0,0,-1,1504,372,3.43093,26.5216
287,652,-4.71191,-19.5709,0,0,0,0,0,0,0,-1,1511,372,-4.71192,19.5709
294,652,-3.86414,-20.5635,0,0,0,0,0,0,0,-1,1518,372,-3.86419,20.5635
301,652,-2.35486,-21.8877,0,0,0,0,0,0,0,-1,1525,372,-2.35492,21.8877
308,652,-0.845703,-23.2118,0,0,0,0,0,0,0,-1,1532,372,-0.845646,23.2118
315,652,1.57373,-26.1443,0,0,0,0,0,0,0,-1,1539,372,1.5737,26.1442
322,652,1.47742,-24.1089,0,0,0,0,0,0,0,-1,1546,372,1.47736,24.1089
329,652,3.6593,-22.1693,0,0,0,0,0,0,0,-1,1553,372,3.65935,22.1693
336,652,3.52173,-24.2133,0,0,0,0,0,0,0,-1,1560,372,3.52174,24.2133
343,652,4.85767,-24.4762,0,0,0,0,0,0,0,-1,1567,372,4.85772,24.4762
350,652,5.28394,-25.6715,0,0,0,0,0,0,0,-1,1574,372,5.28393,25.6715
357,652,0,0,0,0,0,0,0,0,0,-1,1581,372,0,0
364,652,0,0,0,0,0,0,0,0,0,-1,1588,372,0,0
371,652,0,0,0,0,0,0,0,0,0,-1,1595,372,0,0
378,652,0,0,0,0,0,0,0,0,0,-1,1602,372,0,0
385,652,0,0,0,0,0,0,0,0,0,-1,1609,372,0,0
392,652,0,0,0,0,0,0,0,0,0,-1,1616,372,0,0
399,652,0,0,0,0,0,0,0,0,0,-1,1623,372,0,0
406,652,0,0,0,0,0,0,0,0,0,-1,1630,372,0,0
413,652,0,0,0,0,0,0,0,0,0,-1,1637,372,0,0
420,652,0,0,0,0,0,0,0,0,0,-1,1644,372,0,0
427,652,0,0,0,0,0,0,0,0,0,-1,1651,372,0,0
434,652,0,0,0,0,0,0,0,0,0,-1,1658,372,0,0
441,652,0,0,0,0,0,0,0,0,0,-1,1665,372,0,0
448,652,0,0,0,0,0,0,0,0,0,-1,1672,372,0,0
455,652,0,0,0,0,0,0,0,0,0,-1,1679,372,0,0
462,652,0,0,0,0,0,0,0,0,0,-1,1686,372,0,0
469,652,0,0,0,0,0,0,0,0,0,-1,1693,372,0,0
476,652,0,0,0,0,0,0,0,0,0,-1,1700,372,0,0
483,652,0,0,0,0,0,0,0,0,0,-1,1707,372,0,0
490,652,0,0,0,0,0,0,0,0,0,-1,1714,372,0,0
497,652,0,0,0,0,0,0,0,0,0,-1,1721,372,0,0
504,652,0,0,0,0,0,0,0,0,0,-1,1728,372,0,0
511,652,0,0,0,0,0,0,0,0,0,-1,1735,372,0,0
518,652,0,0,0,0,0,0,0,0,0,-1,1742,372,0,0
525,652,0,0,0,0,0,0,0,0,0,-1,1749,372,0,0
532,652,0,0,0,0,0,0,0,0,0,-1,1756,372,0,0
539,652,0,0,0,0,0,0,0,0,0,-1,1763,372,0,0
546,652,0,0,0,0,0,0,0,0,0,-1,1770,372,0,0
553,652,0,0,0,0,0,0,0,0,0,-1,1777,372,0,0
560,652,0,0,0,0,0,0,0,0,0,-1,1784,372,0,0
567,652,0,0,0,0,0,0,0,0,0,-1,1791,372,0,0
574,652,0,0,0,0,0,0,0,0,0,-1,1798,372,0,0
581,652,0,0,0,0,0,0,0,0,0,-1,1805,372,0,0
588,652,0,0,0,0,0,0,0,0,0,-1,1812,372,0,0
595,652,0,0,0,0,0,0,0,0,0,-1,1819,372,0,0
602,652,0,0,0,0,0,0,0,0,0,-1,1826,372,0,0
609,652,0,0,0,0,0,0,0,0,0,-1,1833,372,0,0
616,652,0,0,0,0,0,0,0,0,0,-1,1840,372,0,0
623,652,0,0,0,0,0,0,0,0,0,-1,1847,372,0,0
630,652,0,0,0,0,0,0,0,0,0,-1,1854,372,0,0
637,652,0,0,0,0,0,0,0,0,0,-1,1861,372,0,0
644,652,0,0,0,0,0,0,0,0,0,-1,1868,372,0,0
651,652,0,0,0,0,0,0,0,0,0,-1,1875,372,0,0
658,652,0,0,0,0,0,0,0,0,0,-1,1882,372,0,0
665,652,0,0,0,0,0,0,0,0,0,-1,1889,372,0,0
672,652,0,0,0,0,0,0,0,0,0,-1,1896,372,0,0
679,652,0,0,0,0,0,0,0,0,0,-1,1903,372,0,0
686,652,0,0,0,0,0,0,0,0,0,-1,1910,372,0,0
693,652,0,0,0,0,0,0,0,0,0,-1,1917,372,0,0
700,652,0,0,0,0,0,0,0,0,0,-1,1924,372,0,0
707,652,0,0,0,0,0,0,0,0,0,-1,1931,372,0,0
714,652,0,0,0,0,0,0,0,0,0,-1,1938,372,0,0
721,652,0,0,0,0,0,0,0,0,0,-1,1945,372,0,0
728,652,0,0,0,0,0,0,0,0,0,-1,1952,372,0,0
735,652,0,0,0,0,0,0,0,0,0,-1,1959,372,0,0
742,652,0,0,0,0,0,0,0,0,0,-1,1966,372,0,0
749,652,0,0,0,0,0,0,0,0,0,-1,1973,372,0,0
756,652,0,0,0,0,0,0,0,0,0,-1,1980,372,0,0
763,652,0,0,0,0,0,0,0,0,0,-1,1987,372,0,0
770,652,0,0,0,0,0,0,0,0,0,-1,1994,372,0,0
777,652,0,0,0,0,0,0,0,0,0,-1,2001,372,0,0
784,652,0,0,0,0,0,0,0,0,0,-1,2008,372,0,0
791,652,0,0,0,0,0,0,0,0,0,-1,2015,372,0,0
798,652,0,0,0,0,0,0,0,0,0,-1,2022,372,0,0
805,652,0,0,0,0,0,0,0,0,0,-1,2029,372,0,0
812,652,0,0,0,0,0,0,0,0,0,-1,2036,372,0,0
-700,645,0,0,0,0,0,0,0,0,0,-1,524,379,0,0
-693,645,0,0,0,0,0,0,0,0,0,-1,531,379,0,0
-686,645,0,0,0,0,0,0,0,0,0,-1,538,379,0,0
-679,645,0,0,0,0,0,0,0,0,0,-1,545,379,0,0
-672,645,0,0,0,0,0,0,0,0,0,-1,552,379,0,0
-665,645,0,0,0,0,0,0,0,0,0,-1,559,379,0,0
-658,645,0,0,0,0,0,0,0,0,0,-1,566,379,0,0
-651,645,0,0,0,0,0,0,0,0,0,-1,573,379,0,0
-644,645,0,0,0,0,0,0,0,0,0,-1,580,379,0,0
-637,645,0,0,0,0,0,0,0,0,0,-1,587,379,0,0
-630,645,0,0,0,0,0,0,0,0,0,-1,594,379,0,0
-623,645,0,0,0,0,0,0,0,0,0,-1,601,379,0,0
-616,645,0,0,0,0,0,0,0,0,0,-1,608,379,0,0
-609,645,0,0,0,0,0,0,0,0,0,-1,615,379,0,0
-602,645,0,0,0,0,0,0,0,0,0,-1,622,379,0,0
-595,645,0,0,0,0,0,0,0,0,0,-1,629,379,0,0
-588,645,0,0,0,0,0,0,0,0,0,-1,636,379,0,0
-581,645,0,0,0,0,0,0,0,0,0,-1,643,379,0,0
-574,645,0,0,0,0,0,0,0,0,0,-1,650,379,0,0
-567,645,0,0,0,0,0,0,0,0,0,-1,657,379,0,0
-560,645,0,0,0,0,0,0,0,0,0,-1,664,379,0,0
-553,645,0,0,0,0,0,0,0,0,0,-1,671,379,0,0
-546,645,0,0,0,0,0,0,0,0,0,-1,678,379,0,0
-539,645,0,0,0,0,0,0,0,0,0,-1,685,379,0,0
-532,645,0,0,0,0,0,0,0,0,0,-1,692,379,0,0
-525,645,0,0,0,0,0,0,0,0,0,-1,699,379,0,0
-518,645,0,0,0,0,0,0,0,0,0,-1,706,379,0,0
-511,645,0,0,0,0,0,0,0,0,0,-1,713,379,0,0
-504,645,0,0,0,0,0,0,0,0,0,-1,720,379,0,0
-497,645,0,0,0,0,0,0,0,0,0,-1,727,379,0,0
-490,645,0,0,0,0,0,0,0,0,0,-1,734,379,0,0
-483,645,0,0,0,0,0,0,0,0,0,-1,741,379,0,0
-476,645,0,0,0,0,0,0,0,0,0,-1,748,379,0,0
-469,645,0,0,0,0,0,0,0,0,0,-1,755,379,0,0
-462,645,0,0,0,0,0,0,0,0,0,-1,762,379,0,0
-455,645,0,0,0,0,0,0,0,0,0,-1,769,379,0,0
-448,645,0,0,0,0,0,0,0,0,0,-1,776,379,0,0
-441,645,0,0,0,0,0,0,0,0,0,-1,783,379,0,0
-434,645,0,0,0,0,0,0,0,0,0,-1,790,379,0,0
-427,645,0,0,0,0,0,0,0,0,0,-1,797,379,0,0
-420,645,0,0,0,0,0,0,0,0,0,-1,804,379,0,0
-413,645,0,0,0,0,0,0,0,0,0,-1,811,379,0,0
-406,645,0,0,0,0,0,0,0,0,0,-1,818,379,0,0
-399,645,0,0,0,0,0,0,0,0,0,-1,825,379,0,0
-392,645,0,0,0,0,0,0,0,0,0,-1,832,379,0,0
-385,645,0,0,0,0,0,0,0,0,0,-1,839,379,0,0
-378,645,0,0,0,0,0,0,0,0,0,-1,846,379,0,0
-371,645,0,0,0,0,0,0,0,0,0,-1,853,379,0,0
-364,645,0,0,0,0,0,0,0,0,0,-1,860,379,0,0
-357,645,0,0,0,0,0,0,0,0,0,-1,867,379,0,0
-350,645,0,0,0,0,0,0,0,0,0,-1,874,379,0,0
-343,645,0,0,0,0,0,0,0,0,0,-1,881,379,0,0
-336,645,0,0,0,0,0,0,0,0,0,-1,888,379,0,0
-329,645,0,0,0,0,0,0,0,0,0,-1,895,379,0,0
-322,645,0,0,0,0,0,0,0,0,0,-1,902,379,0,0
-315,645,0,0,0,0,0,0,0,0,0,-1,909,379,0,0
-308,645,0,0,0,0,0,0,0,0,0,-1,916,379,0,0
-301,645,0,0,0,0,0,0,0,0,0,-1,923,379,0,0
-294,645,0,0,0,0,0,0,0,0,0,-1,930,379,0,0
-287,645,0,0,0,0,0,0,0,0,0,-1,937,379,0,0
-280,645,0,0,0,0,0,0,0,0,0,-1,944,379,0,0
-273,645,0,0,0,0,0,0,0,0,0,-1,951,379,0,0
-266,645,0,0,0,0,0,0,0,0,0,-1,958,379,0,0
-259,645,0,0,0,0,0,0,0,0,0,-1,965,379,0,0
-252,645,2.95691,-26.9133,-0.0594565,-0.113316,-0.0311749,-0.0451905,-0.127582,-0.429166,0.0746957,0.0452779,972,379,2.9569,26.9133
-245,645,2.73169,-27.0215,-0.0572595,-0.0964445,-0.0299461,-0.041066,-0.112638,-0.495716,0.0658218,0.0404683,979,379,2.73172,27.0215
-238,645,2.6665,-26.9464,-0.0542142,-0.0814948,-0.029356,-0.0354842,-0.100225,-0.567913,0.0586808,0.0418468,986,379,2.66649,26.9464
-231,645,1.89801,-26.437,0,0,0,0,0,0,0,-1,993,379,1.89804,26.437
-224,645,9.92029,-21.3227,0,0,0,0,0,0,0,-1,1000,379,9.92026,21.3227
-217,645,8.09961,-19.0991,0,0,0,0,0,0,0,-1,1007,379,8.0996,19.0991
-210,645,3.58685,-26.664,0,0,0,0,0,0,0,-1,1014,379,3.58685,26.664
-203,645,3.70166,-25.3203,0,0,0,0,0,0,0,-1,1021,379,3.70166,25.3203
-196,645,3.98962,-24.5246,0,0,0,0,0,0,0,-1,1028,379,3.98963,24.5246
-189,645,3.8988,-23.8797,0,0,0,0,0,0,0,-1,1035,379,3.89886,23.8797
-182,645,2.88086,-25.8119,0,0,0,0,0,0,0,-1,1042,379,2.88087,25.8119
-175,645,3.94922,-26.6189,0.0741837,-0.0512095,-0.0307833,0.0813331,-0.058359,-0.228206,0.0810141,0.0450416,1049,379,3.94927,26.6189
-168,645,4.81592,-27.4202,0.0604255,-0.0420532,-0.0241407,0.0658275,-0.0474552,-0.220146,0.0656899,0.0436627,1056,379,4.81596,27.4202
-161,645,5.17419,-27.2369,0,0,0,0,0,0,0,-1,1063,379,5.17425,27.2369
-154,645,5.2229,-27.3708,0.0358252,-0.021633,-0.0126587,0.0384905,-0.0242982,-0.207514,0.0365584,0.044387,1070,379,5.22286,27.3708
-147,645,5.29321,-27.6407,0.0255131,-0.0124476,-0.00783792,0.0270678,-0.0140023,-0.19581,0.0241084,0.0398187,1077,379,5.29319,27.6407
-140,645,4.97729,-27.8012,0.0166165,-0.00429414,-0.0034872,0.0171827,-0.00486035,-0.160965,0.013373,0.0398816,1084,379,4.97731,27.8012
-133,645,4.81982,-28.1278,0.00937088,0.00227109,0.00023714,0.0093788,0.00226318,0.0333514,0.00565127,0.0421707,1091,379,4.81979,28.1278
-126,645,4.95996,-28.4193,0.00253516,0.00800107,0.00372883,0.00989123,0.000645003,1.10164,0.00639001,0.0325785,1098,379,4.95997,28.4193
-119,645,4.91284,-28.7992,-0.00229555,0.0120486,0.00612011,0.0143049,-0.00455185,1.21759,0.011362,0.0191631,1105,379,4.91283,28.7992
-112,645,4.87537,-29.1172,-0.00599084,0.0152815,0.00816284,0.0180528,-0.00876214,1.2435,0.0157883,0.0129631,1112,379,4.87532,29.1172
-105,645,4.85083,-29.3286,-0.00613886,0.014478,0.00828103,0.0173923,-0.0090531,1.23241,0.0155192,0.0165761,1119,379,4.85083,29.3287
-98,645,4.79993,-29.5151,-0.00623952,0.0133364,0.00801186,0.0161973,-0.00910043,1.22782,0.014796,0.0244827,1126,379,4.79998,29.5151
-91,645,4.8158,-29.7912,-0.00606081,0.0121148,0.00734073,0.0147092,-0.00865524,1.23107,0.0136396,0.0347041,1133,379,4.81584,29.7912
-84,645,4.85852,-30.0899,-0.0055225,0.0104603,0.00667722,0.0128827,-0.00794493,1.22277,0.012137,0.0401734,1140,379,4.8585,30.0899
-77,645,4.75781,-30.4069,-0.00551534,0.00885885,0.00580284,0.010909,-0.00756552,1.23118,0.0107244,0.0269045,1147,379,4.75784,30.4069
-70,645,4.68774,-30.5875,-0.00540583,0.00699212,0.00370234,0.00801358,-0.00642728,1.3016,0.00835419,0.0136218,1154,379,4.6877,30.5875
-63,645,4.68164,-30.7652,-0.0051364,0.00618801,0.000463162,0.00620692,-0.00515531,1.52999,0.00656935,0.0113462,1161,379,4.68159,30.7652
-56,645,4.65649,-30.9389,-0.00499669,0.00530237,-0.0023155,0.005799,-0.00549333,-1.35951,0.00652043,0.0128372,1168,379,4.65654,30.9389
-49,645,4.63013,-31.119,-0.00497163,0.00346654,-0.00314884,0.00451204,-0.00601713,-1.25022,0.00609969,0.0106366,1175,379,4.63018,31.119
-42,645,4.59619,-31.2812,-0.00485617,0.00239167,-0.00337053,0.00371681,-0.00618131,-1.1962,0.00577343,0.00982675,1182,379,4.59614,31.2812
-35,645,4.58386,-31.4619,-0.00417535,0.00111718,-0.00339821,0.00277795,-0.00583611,-1.11621,0.00507673,0.00971766,1189,379,4.58382,31.4619
-28,645,4.56067,-31.639,-0.00340309,0.000787287,-0.00345985,0.0027369,-0.0053527,-1.05765,0.00475122,0.00824639,1196,379,4.56067,31.639
-21,645,4.52063,-31.7536,-0.00256602,0.000590654,-0.00346966,0.0028241,-0.00479947,-0.998857,0.00445045,0.0100887,1203,379,4.52066,31.7536
-14,645,4.51587,-31.877,-0.00185244,0.000222544,-0.00334839,0.0026905,-0.00432039,-0.935631,0.00408403,0.0100289,1210,379,4.51592,31.877
-7,645,4.51831,-32.0119,-0.00110027,-9.23644e-05,-0.00319424,0.00263743,-0.00383006,-0.863638,0.00375511,0.0132495,1217,379,4.51832,32.0119
0,645,4.51794,-32.0681,-0.000300547,-0.000207591,-0.00297091,0.0027172,-0.00322534,-0.79322,0.00343511,0.0249021,1224,379,4.51792,32.0681
7,645,4.49084,-32.1421,0.000324656,-7.45933e-05,-0.00266108,0.00279359,-0.00254353,-0.74796,0.00308251,0.017514,1231,379,4.4909,32.1421
14,645,4.48621,-32.2081,0.000896667,0.000384885,-0.00221084,0.00286638,-0.00158483,-0.727783,0.00260517,0.0163784,1238,379,4.48615,32.2081
21,645,4.45093,-32.2994,0.00122138,0.00108191,-0.00172949,0.00288254,-0.000579252,-0.765248,0.00214106,0.010766,1245,379,4.4509,32.2994
28,645,4.44629,-32.3629,0.00143291,0.00187712,-0.00125903,0.00293348,0.00037655,-0.872704,0.00184301,0.0094707,1252,379,4.44634,32.363
35,645,4.41663,-32.3854,0.00139831,0.00280306,-0.00077893,0.00314952,0.00105184,-1.15228,0.00185149,0.00873244,1259,379,4.41661,32.3854
42,645,4.39905,-32.4209,0.0012691,0.00330723,4.94239e-05,0.00330843,0.0012679,1.54657,0.00192741,0.00908401,1266,379,4.39903,32.4209
49,645,4.42883,-32.4505,0.000909805,0.00359338,0.000999462,0.00392471,0.000578476,1.25069,0.00244655,0.012708,1273,379,4.42882,32.4505
56,645,4.427,-32.4367,0.000705738,0.00410326,0.00163386,0.00476147,4.75317e-05,1.18783,0.00315859,0.0122676,1280,379,4.42697,32.4367
63,645,4.40479,-32.4533,0.000661997,0.00426651,0.00236754,0.00543972,-0.000511212,1.11072,0.00380834,0.0119126,1287,379,4.40479,32.4533
70,645,4.36987,-32.4437,0.000360015,0.00474571,0.00308593,0.00633856,-0.00123284,1.0943,0.00469097,0.0159075,1294,379,4.36983,32.4437
77,645,4.33557,-32.424,0.000173614,0.00489323,0.00360264,0.00684012,-0.00177328,1.07535,0.00525193,0.0185765,1301,379,4.33559,32.424
84,645,4.37219,-32.3745,0.00020774,0.00520052,0.00397088,0.00739453,-0.00198627,1.06602,0.00570815,0.0141101,1308,379,4.37223,32.3745
91,645,4.34644,-32.3467,0.000265755,0.0056525,0.00410572,0.00786944,-0.00195119,1.07569,0.00600333,0.0158392,1315,379,4.34648,32.3467
98,645,4.32336,-32.2646,0.00034602,0.00602062,0.00414368,0.00820531,-0.00183867,1.0856,0.00617502,0.0139726,1322,379,4.32332,32.2646
105,645,4.31824,-32.1651,0.000494109,0.00659118,0.00406217,0.0086215,-0.00153621,1.1073,0.00632226,0.0106081,1329,379,4.31828,32.1651
112,645,4.29724,-32.0846,0.000691377,0.0074115,0.00388387,0.00918705,-0.00108417,1.142,0.00651622,0.00923548,1336,379,4.29726,32.0846
119,645,4.28491,-31.9839,0.000665918,0.00821405,0.00354424,0.00961736,-0.000737393,1.19379,0.00667097,0.00903685,1343,379,4.28489,31.9839
126,645,4.26416,-31.8569,0.000601425,0.00909715,0.00312123,0.0101206,-0.000421996,1.25395,0.00689202,0.0120153,1350,379,4.2642,31.8569
133,645,4.25964,-31.7396,0.00041492,0.00999293,0.00268854,0.010696,-0.000288144,1.31502,0.00722863,0.0132021,1357,379,4.25965,31.7396
140,645,4.26306,-31.6265,0.000233825,0.0106725,0.0023303,0.0111691,-0.000262761,1.36084,0.00753517,0.0123461,1364,379,4.26306,31.6265
147,645,4.22156,-31.4919,-4.44948e-05,0.0114878,0.00187228,0.0117841,-0.000340846,1.41382,0.00797213,0.0129923,1371,379,4.22154,31.4918
154,645,4.20618,-31.3414,-0.000320318,0.0121513,0.00144197,0.0123159,-0.000484867,1.45717,0.00837688,0.0121109,1378,379,4.20618,31.3414
161,645,4.20142,-31.1619,-0.000876401,0.0121871,0.00145295,0.0123468,-0.00103605,1.46136,0.00859737,0.0138811,1385,379,4.20144,31.1619
168,645,4.19116,-30.9675,-0.00161373,0.0119998,0.00130079,0.012123,-0.00173691,1.47638,0.00871883,0.0163132,1392,379,4.19116,30.9675
175,645,4.19202,-30.7777,-0.00200999,0.0110569,0.00121042,0.011168,-0.00212116,1.4792,0.00824388,0.0142184,1399,379,4.19199,30.7777
182,645,4.14502,-30.5854,-0.00223912,0.00965823,0.00139027,0.00981853,-0.00239942,1.456,0.00747498,0.010368,1406,379,4.14505,30.5854
189,645,4.13123,-30.3529,-0.00258019,0.00839593,0.00156192,0.00861386,-0.00279813,1.43216,0.00686799,0.0112219,1413,379,4.13123,30.3529
196,645,4.08618,-30.1485,-0.0025078,0.00727324,0.00195382,0.00764908,-0.00288364,1.38075,0.00628512,0.0115075,1420,379,4.08619,30.1485
203,645,4.03369,-29.9003,-0.00268035,0.00659274,0.00238782,0.00717148,-0.00325909,1.33301,0.00616169,0.0117594,1427,379,4.03372,29.9003
210,645,4.06152,-29.5925,-0.00325034,0.00621476,0.00239334,0.00678552,-0.0038211,1.33669,0.00620295,0.0200345,1434,379,4.0615,29.5925
217,645,4.04785,-29.3982,-0.00366511,0.00629635,0.00208081,0.00671353,-0.00408229,1.37293,0.00629438,0.0338623,1441,379,4.0478,29.3982
224,645,3.89844,-29.3042,-0.00358861,0.00703289,0.00195671,0.00738189,-0.00393761,1.39429,0.0066354,0.0397391,1448,379,3.89846,29.3042
231,645,3.84314,-28.9971,-0.00345561,0.00801016,0.00200408,0.00835036,-0.00379581,1.40265,0.00717505,0.035941,1455,379,3.84308,28.9971
238,645,3.8894,-28.5487,-0.00313027,0.00957482,0.00242519,0.010022,-0.00357746,1.38845,0.00814022,0.0195017,1462,379,3.8894,28.5487
245,645,3.88745,-28.2686,-0.0029588,0.0111422,0.00265135,0.0116243,-0.00344084,1.39095,0.00911556,0.0147804,1469,379,3.8875,28.2687
252,645,3.89624,-27.8387,-0.00247176,0.0128107,0.00301548,0.0133842,-0.00304524,1.38286,0.0100922,0.0259378,1476,379,3.8962,27.8387
259,645,3.69653,-27.4634,-0.00171684,0.0148007,0.00369202,0.0155884,-0.00250452,1.3606,0.0113198,0.0426659,1483,379,3.69659,27.4634
266,645,3.61621,-27.2586,-0.000792873,0.0169937,0.00467662,0.0181483,-0.00194754,1.32874,0.0127976,0.0310549,1490,379,3.61617,27.2586
273,645,3.71155,-27.0013,0.00033348,0.0191916,0.00588764,0.0208788,-0.00135373,1.29171,0.0143917,0.0246174,1497,379,3.71161,27.0012
280,645,3.76672,-26.7747,0,0,0,0,0,0,0,-1,1504,379,3.76677,26.7747
287,645,3.97241,-25.9937,0,0,0,0,0,0,0,-1,1511,379,3.97235,25.9937
294,645,3.34473,-26.0204,0,0,0,0,0,0,0,-1,1518,379,3.34476,26.0204
301,645,0.0322266,-20.4623,0,0,0,0,0,0,0,-1,1525,379,0.0322246,20.4623
308,645,3.44702,-25.8757,0,0,0,0,0,0,0,-1,1532,379,3.44706,25.8757
315,645,3.20813,-23.5737,0,0,0,0,0,0,0,-1,1539,379,3.20809,23.5737
322,645,2.67651,-22.614,0,0,0,0,0,0,0,-1,1546,379,2.67648,22.6139
329,645,2.50452,-24.1977,0,0,0,0,0,0,0,-1,1553,379,2.50451,24.1976
336,645,3.82068,-23.5129,0,0,0,0,0,0,0,-1,1560,379,3.82071,23.5129
343,645,4.77185,-23.7191,0,0,0,0,0,0,0,-1,1567,379,4.77184,23.7191
350,645,4.76404,-22.1987,0,0,0,0,0,0,0,-1,1574,379,4.76399,22.1987
357,645,4.61316,-21.967,0,0,0,0,0,0,0,-1,1581,379,4.61316,21.967
364,645,-0.0794678,-3.22021,0,0,0,0,0,0,0,-1,1588,379,-0.0794987,3.22021
371,645,0,0,0,0,0,0,0,0,0,-1,1595,379,0,0
378,645,0,0,0,0,0,0,0,0,0,-1,1602,379,0,0
385,645,0,0,0,0,0,0,0,0,0,-1,1609,379,0,0
392,645,0,0,0,0,0,0,0,0,0,-1,1616,379,0,0
399,645,0,0,0,0,0,0,0,0,0,-1,1623,379,0,0
406,645,0,0,0,0,0,0,0,0,0,-1,1630,379,0,0
413,645,0,0,0,0,0,0,0,0,0,-1,1637,379,0,0
420,645,0,0,0,0,0,0,0,0,0,-1,1644,379,0,0
427,645,0,0,0,0,0,0,0,0,0,-1,1651,379,0,0
434,645,0,0,0,0,0,0,0,0,0,-1,1658,379,0,0
441,645,0,0,0,0,0,0,0,0,0,-1,1665,379,0,0
448,645,0,0,0,0,0,0,0,0,0,-1,1672,379,0,0
455,645,0,0,0,0,0,0,0,0,0,-1,1679,379,0,0
462,645,0,0,0,0,0,0,0,0,0,-1,1686,379,0,0
469,645,0,0,0,0,0,0,0,0,0,-1,1693,379,0,0
476,645,0,0,0,0,0,0,0,0,0,-1,1700,379,0,0
483,645,0,0,0,0,0,0,0,0,0,-1,1707,379,0,0
490,645,0,0,0,0,0,0,0,0,0,-1,1714,379,0,0
497,645,0,0,0,0,0,0,0,0,0,-1,1721,379,0,0
504,645,0,0,0,0,0,0,0,0,0,-1,1728,379,0,0
511,645,0,0,0,0,0,0,0,0,0,-1,1735,379,0,0
518,645,0,0,0,0,0,0,0,0,0,-1,1742,379,0,0
525,645,0,0,0,0,0,0,0,0,0,-1,1749,379,0,0
532,645,0,0,0,0,0,0,0,0,0,-1,1756,379,0,0
539,645,0,0,0,0,0,0,0,0,0,-1,1763,379,0,0
546,645,0,0,0,0,0,0,0,0,0,-1,1770,379,0,0
553,645,0,0,0,0,0,0,0,0,0,-1,1777,379,0,0
560,645,0,0,0,0,0,0,0,0,0,-1,1784,379,0,0
567,645,0,0,0,0,0,0,0,0,0,-1,1791,379,0,0
574,645,0,0,0,0,0,0,0,0,0,-1,1798,379,0,0
581,645,0,0,0,0,0,0,0,0,0,-1,1805,379,0,0
588,645,0,0,0,0,0,0,0,0,0,-1,1812,379,0,0
595,645,0,0,0,0,0,0,0,0,0,-1,1819,379,0,0
602,645,0,0,0,0,0,0,0,0,0,-1,1826,379,0,0
609,645,0,0,0,0,0,0,0,0,0,-1,1833,379,0,0
616,645,0,0,0,0,0,0,0,0,0,-1,1840,379,0,0
623,645,0,0,0,0,0,0,0,0,0,-1,1847,379,0,0
630,645,0,0,0,0,0,0,0,0,0,-1,1854,379,0,0
637,645,0,0,0,0,0,0,0,0,0,-1,1861,379,0,0
644,645,0,0,0,0,0,0,0,0,0,-1,1868,379,0,0
651,645,0,0,0,0,0,0,0,0,0,-1,1875,379,0,0
658,645,0,0,0,0,0,0,0,0,0,-1,1882,379,0,0
665,645,0,0,0,0,0,0,0,0,0,-1,1889,379,0,0
672,645,0,0,0,0,0,0,0,0,0,-1,1896,379,0,0
679,645,0,0,0,0,0,0,0,0,0,-1,1903,379,0,0
686,645,0,0,0,0,0,0,0,0,0,-1,1910,379,0,0
693,645,0,0,0,0,0,0,0,0,0,-1,1917,379,0,0
700,645,0,0,0,0,0,0,0,0,0,-1,1924,379,0,0
707,645,0,0,0,0,0,0,0,0,0,-1,1931,379,0,0
714,645,0,0,0,0,0,0,0,0,0,-1,1938,379,0,0
721,645,0,0,0,0,0,0,0,0,0,-1,1945,379,0,0
728,645,0,0,0,0,0,0,0,0,0,-1,1952,379,0,0
735,645,0,0,0,0,0,0,0,0,0,-1,1959,379,0,0
742,645,0,0,0,0,0,0,0,0,0,-1,1966,379,0,0
749,645,0,0,0,0,0,0,0,0,0,-1,1973,379,0,0
756,645,0,0,0,0,0,0,0,0,0,-1,1980,379,0,0
763,645,0,0,0,0,0,0,0,0,0,-1,1987,379,0,0
770,645,0,0,0,0,0,0,0,0,0,-1,1994,379,0,0
777,645,0,0,0,0,0,0,0,0,0,-1,2001,379,0,0
784,645,0,0,0,0,0,0,0,0,0,-1,2008,379,0,0
791,645,0,0,0,0,0,0,0,0,0,-1,2015,379,0,0
798,645,0,0,0,0,0,0,0,0,0,-1,2022,379,0,0
805,645,0,0,0,0,0,0,0,0,0,-1,2029,379,0,0
812,645,0,0,0,0,0,0,0,0,0,-1,2036,379,0,0
-700,638,0,0,0,0,0,0,0,0,0,-1,524,386,0,0
-693,638,0,0,0,0,0,0,0,0,0,-1,531,386,0,0
-686,638,0,0,0,0,0,0,0,0,0,-1,538,386,0,0
-679,638,0,0,0,0,0,0,0,0,0,-1,545,386,0,0
-672,638,0,0,0,0,0,0,0,0,0,-1,552,386,0,0
-665,638,0,0,0,0,0,0,0,0,0,-1,559,386,0,0
-658,638,0,0,0,0,0,0,0,0,0,-1,566,386,0,0
-651,638,0,0,0,0,0,0,0,0,0,-1,573,386,0,0
-644,638,0,0,0,0,0,0,0,0,0,-1,580,386,0,0
-637,638,0,0,0,0,0,0,0,0,0,-1,587,386,0,0
-630,638,0,0,0,0,0,0,0,0,0,-1,594,386,0,0
-623,638,0,0,0,0,0,0,0,0,0,-1,601,386,0,0
-616,638,0,0,0,0,0,0,0,0,0,-1,608,386,0,0
-609,638,0,0,0,0,0,0,0,0,0,-1,615,386,0,0
-602,638,0,0,0,0,0,0,0,0,0,-1,622,386,0,0
-595,638,0,0,0,0,0,0,0,0,0,-1,629,386,0,0
-588,638,0,0,0,0,0,0,0,0,0,-1,636,386,0,0
-581,638,0,0,0,0,0,0,0,0,0,-1,643,386,0,0
-574,638,0,0,0,0,0,0,0,0,0,-1,650,386,0,0
-567,638,0,0,0,0,0,0,0,0,0,-1,657,386,0,0
-560,638,0,0,0,0,0,0,0,0,0,-1,664,386,0,0
-553,638,0,0,0,0,0,0,0,0,0,-1,671,386,0,0
-546,638,0,0,0,0,0,0,0,0,0,-1,678,386,0,0
-539,638,0,0,0,0,0,0,0,0,0,-1,685,386,0,0
-532,638,0,0,0,0,0,0,0,0,0,-1,692,386,0,0
-525,638,0,0,0,0,0,0,0,0,0,-1,699,386,0,0
-518,638,0,0,0,0,0,0,0,0,0,-1,706,386,0,0
-511,638,0,0,0,0,0,0,0,0,0,-1,713,386,0,0
-504,638,0,0,0,0,0,0,0,0,0,-1,720,386,0,0
-497,638,0,0,0,0,0,0,0,0,0,-1,727,386,0,0
-490,638,0,0,0,0,0,0,0,0,0,-1,734,386,0,0
-483,638,0,0,0,0,0,0,0,0,0,-1,741,386,0,0
-476,638,0,0,0,0,0,0,0,0,0,-1,748,386,0,0
-469,638,0,0,0,0,0,0,0,0,0,-1,755,386,0,0
-462,638,0,0,0,0,0,0,0,0,0,-1,762,386,0,0
-455,638,0,0,0,0,0,0,0,0,0,-1,769,386,0,0
-448,638,0,0,0,0,0,0,0,0,0,-1,776,386,0,0
-441,638,0,0,0,0,0,0,0,0,0,-1,783,386,0,0
-434,638,0,0,0,0,0,0,0,0,0,-1,790,386,0,0
-427,638,0,0,0,0,0,0,0,0,0,-1,797,386,0,0
-420,638,0,0,0,0,0,0,0,0,0,-1,804,386,0,0
-413,638,0,0,0,0,0,0,0,0,0,-1,811,386,0,0
-406,638,0,0,0,0,0,0,0,0,0,-1,818,386,0,0
-399,638,0,0,0,0,0,0,0,0,0,-1,825,386,0,0
-392,638,0,0,0,0,0,0,0,0,0,-1,832,386,0,0
-385,638,0,0,0,0,0,0,0,0,0,-1,839,386,0,0
-378,638,0,0,0,0,0,0,0,0,0,-1,846,386,0,0
-371,638,0,0,0,0,0,0,0,0,0,-1,853,386,0,0
-364,638,0,0,0,0,0,0,0,0,0,-1,860,386,0,0
-357,638,0,0,0,0,0,0,0,0,0,-1,867,386,0,0
-350,638,0,0,0,0,0,0,0,0,0,-1,874,386,0,0
-343,638,0,0,0,0,0,0,0,0,0,-1,881,386,0,0
-336,638,0,0,0,0,0,0,0,0,0,-1,888,386,0,0
-329,638,0,0,0,0,0,0,0,0,0,-1,895,386,0,0
-322,638,0,0,0,0,0,0,0,0,0,-1,902,386,0,0
-315,638,0,0,0,0,0,0,0,0,0,-1,909,386,0,0
-308,638,0,0,0,0,0,0,0,0,0,-1,916,386,0,0
-301,638,0,0,0,0,0,0,0,0,0,-1,923,386,0,0
-294,638,0,0,0,0,0,0,0,0,0,-1,930,386,0,0
-287,638,0,0,0,0,0,0,0,0,0,-1,937,386,0,0
-280,638,0,0,0,0,0,0,0,0,0,-1,944,386,0,0
-273,638,0,0,0,0,0,0,0,0,0,-1,951,386,0,0
-266,638,4.3515,-26.0477,-0.0473128,-0.123436,-0.0351883,-0.033539,-0.13721,-0.373097,0.0825954,0.0441376,958,386,4.3515,26.0477
-259,638,4.19092,-26.3311,0,0,0,0,0,0,0,-1,965,386,4.19089,26.3311
-252,638,3.76526,-26.4697,-0.0507256,-0.100598,-0.0232425,-0.0415733,-0.109751,-0.375128,0.063982,0.0431244,972,386,3.76525,26.4697
-245,638,3.35309,-26.4681,-0.049051,-0.0874402,-0.0209621,-0.039823,-0.0966681,-0.414693,0.0560991,0.0424166,979,386,3.35311,26.4681
-238,638,2.93518,-26.3649,-0.0460914,-0.0738984,-0.0201161,-0.0355416,-0.0844483,-0.483013,0.0489593,0.0465869,986,386,2.93516,26.3649
-231,638,2.36829,-26.0088,0,0,0,0,0,0,0,-1,993,386,2.3683,26.0088
-224,638,1.80823,-25.8195,0,0,0,0,0,0,0,-1,1000,386,1.8082,25.8196
-217,638,3.34961,-27.6036,0,0,0,0,0,0,0,-1,1007,386,3.3496,27.6036
-210,638,3.4826,-26.5204,0,0,0,0,0,0,0,-1,1014,386,3.48262,26.5204
-203,638,3.61267,-25.3666,0,0,0,0,0,0,0,-1,1021,386,3.61262,25.3666
-196,638,3.92346,-24.3737,0,0,0,0,0,0,0,-1,1028,386,3.92344,24.3737
-189,638,4.1333,-23.6895,0,0,0,0,0,0,0,-1,1035,386,4.13334,23.6895
-182,638,4.18262,-25.9996,0,0,0,0,0,0,0,-1,1042,386,4.18259,25.9996
-175,638,5.28918,-26.3053,0,0,0,0,0,0,0,-1,1049,386,5.28913,26.3053
-168,638,4.77747,-26.7479,0.042728,-0.0276971,-0.0184398,0.0472641,-0.0322331,-0.241202,0.0461704,0.0391949,1056,386,4.77745,26.7479
-161,638,4.85193,-27.1802,0.0338182,-0.0210759,-0.0142826,0.0373119,-0.0245696,-0.239906,0.0359789,0.0348232,1063,386,4.85196,27.1802
-154,638,4.87903,-27.4189,0.0258996,-0.0141109,-0.0106697,0.028567,-0.0167783,-0.244983,0.0264734,0.028537,1070,386,4.879,27.4189
-147,638,4.85046,-27.6521,0.0188142,-0.00789601,-0.00740411,0.0207293,-0.00981112,-0.253109,0.0180042,0.0229901,1077,386,4.85047,27.6521
-140,638,4.77649,-27.9608,0.0126921,-0.00226186,-0.00444705,0.0139146,-0.00348439,-0.268282,0.01063,0.0199879,1084,386,4.77647,27.9608
-133,638,4.71741,-28.3654,0.00763261,0.0023475,-0.0018798,0.00823301,0.0017471,-0.309153,0.00500892,0.0174611,1091,386,4.71743,28.3655
-126,638,4.70447,-28.6294,0.00270796,0.00650568,0.000544959,0.00658233,0.00263131,1.43106,0.00382569,0.016039,1098,386,4.70442,28.6294
-119,638,4.67712,-28.9179,-0.000808419,0.0095247,0.00219368,0.00997112,-0.00125484,1.37003,0.00710274,0.0156952,1105,386,4.67713,28.9179
-112,638,4.66748,-29.1986,-0.00349215,0.0119655,0.00362876,0.012775,-0.00430163,1.35132,0.0102558,0.0144047,1112,386,4.66746,29.1986
-105,638,4.65479,-29.4552,-0.00354907,0.0113134,0.00368303,0.012176,-0.00441168,1.34073,0.00992046,0.0163354,1119,386,4.65479,29.4552
-98,638,4.61658,-29.7036,-0.00361581,0.0103842,0.00352206,0.0112204,-0.00445194,1.33771,0.00932544,0.0164549,1126,386,4.61662,29.7037
-91,638,4.54822,-29.9574,-0.00347735,0.00938273,0.00314497,0.0101106,-0.00420526,1.34335,0.00849646,0.0132535,1133,386,4.54825,29.9574
-84,638,4.53625,-30.1858,-0.00310869,0.00805853,0.00289594,0.00876485,-0.00381501,1.33157,0.00744804,0.0145614,1140,386,4.53621,30.1858
-77,638,4.51123,-30.3982,-0.00315811,0.00676434,0.0025508,0.00738168,-0.00377545,1.33335,0.00655277,0.0116121,1147,386,4.51122,30.3982
-70,638,4.49341,-30.606,-0.00319617,0.00542816,0.00153283,0.00569249,-0.0034605,1.40003,0.0053366,0.0109807,1154,386,4.49341,30.606
-63,638,4.48523,-30.8158,-0.00299021,0.00465453,1.92528e-05,0.00465458,-0.00299026,1.56828,0.00444848,0.0113829,1161,386,4.48527,30.8158
-56,638,4.4989,-30.9876,-0.00278942,0.00399554,-0.00130412,0.00423757,-0.00303145,-1.3873,0.00421598,0.0156824,1168,386,4.49886,30.9876
-49,638,4.46973,-31.1625,-0.00264962,0.00282254,-0.00172053,0.00331854,-0.00314562,-1.29012,0.00373253,0.0130272,1175,386,4.46979,31.1625
-42,638,4.44971,-31.3169,-0.00247507,0.00211127,-0.00176824,0.00271384,-0.00307764,-1.24237,0.00334591,0.0110476,1182,386,4.44973,31.3169
-35,638,4.44092,-31.4877,-0.00199387,0.00124596,-0.00176784,0.00202383,-0.00277175,-1.15628,0.00277993,0.0103842,1189,386,4.44089,31.4877
-28,638,4.42944,-31.6486,-0.00144979,0.000877404,-0.00180912,0.00186482,-0.00243721,-1.07118,0.00249109,0.0104341,1196,386,4.4295,31.6486
-21,638,4.38879,-31.7612,-0.0008645,0.000492568,-0.00182342,0.00175961,-0.00213154,-0.963521,0.00224997,0.0120327,1203,386,4.38883,31.7612
-14,638,4.38257,-31.8957,-0.000324356,-2.44629e-05,-0.00180573,0.00163753,-0.00198635,-0.826823,0.00209548,0.0123017,1210,386,4.38255,31.8957
-7,638,4.40735,-32.0483,0.000280426,-0.000535028,-0.00180902,0.0017271,-0.0019817,-0.674558,0.00214296,0.0178418,1217,386,4.40739,32.0483
0,638,4.40332,-32.0784,0.000894805,-0.000916804,-0.00175409,0.00196316,-0.00198516,-0.547059,0.00227957,0.0329548,1224,386,4.4033,32.0784
7,638,4.37415,-32.1564,0.0014325,-0.00113767,-0.00163465,0.00222672,-0.00193189,-0.452278,0.00240298,0.0242197,1231,386,4.37416,32.1564
14,638,4.38513,-32.2417,0.00186205,-0.00117154,-0.00135103,0.0023765,-0.00168599,-0.36383,0.00235675,0.0129565,1238,386,4.38518,32.2417
21,638,4.3739,-32.3091,0.00210491,-0.00101919,-0.000992054,0.00239331,-0.00130759,-0.282914,0.00216715,0.0111581,1245,386,4.37395,32.3091
28,638,4.38867,-32.376,0.00227308,-0.000738707,-0.000655036,0.00240938,-0.000875004,-0.205147,0.001964,0.0090431,1252,386,4.38868,32.376
35,638,4.38611,-32.4106,0.00233483,-0.000358125,-0.000263774,0.00236042,-0.000383719,-0.096725,0.00171588,0.0104502,1259,386,4.38612,32.4106
42,638,4.39563,-32.456,0.00232836,-8.51933e-05,0.000311533,0.00236792,-0.000124757,0.126319,0.0016218,0.00972723,1266,386,4.39561,32.456
49,638,4.42139,-32.4564,0.00218751,0.000113051,0.0009532,0.00255898,-0.000258419,0.371604,0.00179833,0.00865141,1273,386,4.42136,32.4564
56,638,4.41528,-32.4526,0.00209081,0.000453432,0.00126065,0.00277528,-0.000231041,0.497416,0.00193181,0.0115306,1280,386,4.41523,32.4526
63,638,4.40381,-32.4823,0.00207356,0.000522762,0.00159577,0.00307234,-0.000476021,0.559242,0.00222395,0.0140949,1287,386,4.4038,32.4823
70,638,4.38147,-32.4748,0.00188184,0.00081227,0.001918,0.00333822,-0.000644109,0.649439,0.00246836,0.0183787,1294,386,4.38149,32.4748
77,638,4.36633,-32.4386,0.00179642,0.000915534,0.00206744,0.00346981,-0.000757857,0.680448,0.00260286,0.0189099,1301,386,4.36633,32.4386
84,638,4.42517,-32.3743,0.00180638,0.00120323,0.00211102,0.00363726,-0.000627646,0.71445,0.00265887,0.0138025,1308,386,4.42519,32.3743
91,638,4.4325,-32.3084,0.0017335,0.00150291,0.00199629,0.00361782,-0.00038141,0.756554,0.00254855,0.0148796,1315,386,4.43249,32.3084
98,638,4.40698,-32.2491,0.00165718,0.00155614,0.0017989,0.00340626,-0.000192947,0.77136,0.00233781,0.0140579,1322,386,4.40701,32.2491
105,638,4.39124,-32.1674,0.00170386,0.0016911,0.00146028,0.00315777,0.000237185,0.783214,0.00203074,0.0110266,1329,386,4.39122,32.1674
112,638,4.37964,-32.0816,0.0017563,0.00202677,0.00110779,0.00300755,0.000775518,0.846135,0.00180301,0.0106418,1336,386,4.37967,32.0816
119,638,4.38721,-31.9873,0.00168255,0.00241628,0.000680045,0.00282211,0.00127673,1.03276,0.0016318,0.0119962,1343,386,4.38726,31.9873
126,638,4.39136,-31.8586,0.00157567,0.00290582,0.000285426,0.00296448,0.00151701,1.3681,0.0017117,0.0161719,1350,386,4.39135,31.8585
133,638,4.38562,-31.7201,0.00136822,0.00346239,2.16759e-05,0.00346262,0.00136799,1.56045,0.00201376,0.0169416,1357,386,4.38557,31.7201
140,638,4.37891,-31.6281,0.00113701,0.00399534,-0.000146404,0.00400282,0.00112954,-1.51975,0.002383,0.0169135,1364,386,4.37896,31.6282
147,638,4.3385,-31.5313,0.00087163,0.00466208,-0.000262845,0.00468022,0.00085349,-1.50189,0.00287815,0.0184567,1371,386,4.3385,31.5312
154,638,4.33105,-31.3993,0.000612585,0.00534568,-0.000302753,0.00536496,0.000593298,-1.50718,0.0033962,0.0167147,1378,386,4.331,31.3993
161,638,4.36499,-31.1982,0.000177969,0.00581558,1.17361e-05,0.00581561,0.000177945,1.56871,0.00381914,0.0187636,1385,386,4.36498,31.1982
168,638,4.37122,-30.9748,-0.000408509,0.00623651,0.000201045,0.00624259,-0.000414586,1.54058,0.00430658,0.0234363,1392,386,4.37124,30.9748
175,638,4.37732,-30.7918,-0.000883372,0.00623746,0.000416466,0.00626173,-0.000907646,1.51258,0.0045076,0.0193987,1399,386,4.37735,30.7918
182,638,4.33606,-30.5978,-0.00125224,0.0060018,0.000762187,0.00608102,-0.00133146,1.46723,0.00456305,0.0128386,1406,386,4.33602,30.5978
189,638,4.29907,-30.3934,-0.00151503,0.00567618,0.00106088,0.00582942,-0.00166827,1.42734,0.00454559,0.0110603,1413,386,4.29906,30.3934
196,638,4.27722,-30.1695,-0.00158634,0.00527022,0.00141491,0.00555072,-0.00186684,1.37509,0.00445511,0.0135372,1420,386,4.27725,30.1695
203,638,4.24927,-29.9584,-0.00178109,0.00502045,0.00175,0.0054443,-0.00220495,1.33317,0.00454638,0.0197468,1427,386,4.24928,29.9584
210,638,4.25317,-29.7231,-0.00221727,0.00490939,0.00177639,0.00532762,-0.0026355,1.33957,0.00468427,0.0161084,1434,386,4.25315,29.723
217,638,4.22705,-29.4651,-0.00249771,0.00503755,0.00159976,0.00536311,-0.00282328,1.37003,0.00480164,0.012023,1441,386,4.22707,29.4651
224,638,4.20105,-29.1785,-0.00248714,0.00562918,0.00155999,0.00591869,-0.00277665,1.3873,0.00512834,0.0104965,1448,386,4.20104,29.1785
231,638,4.15491,-28.8857,-0.00242633,0.00637134,0.00166737,0.00667674,-0.00273174,1.38964,0.00558889,0.0114378,1455,386,4.15494,28.8857
238,638,4.12988,-28.6176,-0.00223583,0.00757185,0.00206027,0.00798706,-0.00265105,1.37193,0.00639428,0.0128034,1462,386,4.12992,28.6176
245,638,4.12927,-28.3295,-0.00216802,0.00873623,0.00229615,0.00920001,-0.0026318,1.37149,0.00717338,0.0148828,1469,386,4.12931,28.3295
252,638,4.12488,-28.0186,-0.00186543,0.00999368,0.00263439,0.0105525,-0.0024243,1.36175,0.00796704,0.0184991,1476,386,4.12494,28.0186
259,638,4.09229,-27.7363,-0.00136203,0.0115134,0.0032307,0.0122786,-0.0021272,1.33824,0.00897916,0.0182007,1483,386,4.09225,27.7363
266,638,4.01904,-27.3921,-0.000752572,0.0131697,0.00405376,0.014264,-0.0018469,1.30713,0.0101809,0.0121767,1490,386,4.01909,27.3921
273,638,4.00781,-27.0937,-2.51902e-05,0.014797,0.00501508,0.0163344,-0.00156258,1.27334,0.011446,0.0105662,1497,386,4.00785,27.0937
280,638,4.0459,-26.7272,0.00129907,0.0168175,0.00616759,0.0189701,-0.000853557,1.23499,0.0129407,0.0209514,1504,386,4.04593,26.7272
287,638,4.15576,-26.166,0.00289283,0.0187912,0.00751048,0.0217781,-9.4017e-05,1.19228,0.0145502,0.0401731,1511,386,4.15571,26.166
294,638,4.17773,-25.7177,0,0,0,0,0,0,0,-1,1518,386,4.17776,25.7177
301,638,3.74487,-25.5244,0,0,0,0,0,0,0,-1,1525,386,3.74488,25.5244
308,638,4.16772,-24.8323,0,0,0,0,0,0,0,-1,1532,386,4.16771,24.8323
315,638,4.29907,-24.4886,0,0,0,0,0,0,0,-1,1539,386,4.29904,24.4886
322,638,3.88831,-24.5719,0,0,0,0,0,0,0,-1,1546,386,3.88835,24.5719
329,638,3.74329,-24.1778,0,0,0,0,0,0,0,-1,1553,386,3.74331,24.1778
336,638,3.83008,-23.7432,0,0,0,0,0,0,0,-1,1560,386,3.83005,23.7432
343,638,4.81348,-22.8303,0,0,0,0,0,0,0,-1,1567,386,4.81344,22.8303
350,638,5.91162,-19.0222,0,0,0,0,0,0,0,-1,1574,386,5.91165,19.0222
357,638,0.387329,-3.01077,0,0,0,0,0,0,0,-1,1581,386,0.387332,3.01077
364,638,3.78149,-6.45215,0,0,0,0,0,0,0,-1,1588,386,3.78155,6.45216
371,638,4.18604,-6.71164,0,0,0,0,0,0,0,-1,1595,386,4.18598,6.71164
378,638,4.59045,-6.97113,0,0,0,0,0,0,0,-1,1602,386,4.5904,6.97112
385,638,0,0,0,0,0,0,0,0,0,-1,1609,386,0,0
392,638,0,0,0,0,0,0,0,0,0,-1,1616,386,0,0
399,638,0,0,0,0,0,0,0,0,0,-1,1623,386,0,0
406,638,0,0,0,0,0,0,0,0,0,-1,1630,386,0,0
413,638,0,0,0,0,0,0,0,0,0,-1,1637,386,0,0
420,638,0,0,0,0,0,0,0,0,0,-1,1644,386,0,0
427,638,0,0,0,0,0,0,0,0,0,-1,1651,386,0,0
434,638,0,0,0,0,0,0,0,0,0,-1,1658,386,0,0
441,638,0,0,0,0,0,0,0,0,0,-1,1665,386,0,0
448,638,0,0,0,0,0,0,0,0,0,-1,1672,386,0,0
455,638,0,0,0,0,0,0,0,0,0,-1,1679,386,0,0
462,638,0,0,0,0,0,0,0,0,0,-1,1686,386,0,0
469,638,0,0,0,0,0,0,0,0,0,-1,1693,386,0,0
476,638,0,0,0,0,0,0,0,0,0,-1,1700,386,0,0
483,638,0,0,0,0,0,0,0,0,0,-1,1707,386,0,0
490,638,0,0,0,0,0,0,0,0,0,-1,1714,386,0,0
497,638,0,0,0,0,0,0,0,0,0,-1,1721,386,0,0
504,638,0,0,0,0,0,0,0,0,0,-1,1728,386,0,0
511,638,0,0,0,0,0,0,0,0,0,-1,1735,386,0,0
518,638,0,0,0,0,0,0,0,0,0,-1,1742,386,0,0
525,638,0,0,0,0,0,0,0,0,0,-1,1749,386,0,0
532,638,0,0,0,0,0,0,0,0,0,-1,1756,386,0,0
539,638,0,0,0,0,0,0,0,0,0,-1,1763,386,0,0
546,638,0,0,0,0,0,0,0,0,0,-1,1770,386,0,0
553,638,0,0,0,0,0,0,0,0,0,-1,1777,386,0,0
560,638,0,0,0,0,0,0,0,0,0,-1,1784,386,0,0
567,638,0,0,0,0,0,0,0,0,0,-1,1791,386,0,0
574,638,0,0,0,0,0,0,0,0,0,-1,1798,386,0,0
581,638,0,0,0,0,0,0,0,0,0,-1,1805,386,0,0
588,638,0,0,0,0,0,0,0,0,0,-1,1812,386,0,0
595,638,0,0,0,0,0,0,0,0,0,-1,1819,386,0,0
602,638,0,0,0,0,0,0,0,0,0,-1,1826,386,0,0
609,638,0,0,0,0,0,0,0,0,0,-1,1833,386,0,0
616,638,0,0,0,0,0,0,0,0,0,-1,1840,386,0,0
623,638,0,0,0,0,0,0,0,0,0,-1,1847,386,0,0
630,638,0,0,0,0,0,0,0,0,0,-1,1854,386,0,0
637,638,0,0,0,0,0,0,0,0,0,-1,1861,386,0,0
644,638,0,0,0,0,0,0,0,0,0,-1,1868,386,0,0
651,638,0,0,0,0,0,0,0,0,0,-1,1875,386,0,0
658,638,0,0,0,0,0,0,0,0,0,-1,1882,386,0,0
665,638,0,0,0,0,0,0,0,0,0,-1,1889,386,0,0
672,638,0,0,0,0,0,0,0,0,0,-1,1896,386,0,0
679,638,0,0,0,0,0,0,0,0,0,-1,1903,386,0,0
686,638,0,0,0,0,0,0,0,0,0,-1,1910,386,0,0
693,638,0,0,0,0,0,0,0,0,0,-1,1917,386,0,0
700,638,0,0,0,0,0,0,0,0,0,-1,1924,386,0,0
707,638,0,0,0,0,0,0,0,0,0,-1,1931,386,0,0
714,638,0,0,0,0,0,0,0,0,0,-1,1938,386,0,0
721,638,0,0,0,0,0,0,0,0,0,-1,1945,386,0,0
728,638,0,0,0,0,0,0,0,0,0,-1,1952,386,0,0
735,638,0,0,0,0,0,0,0,0,0,-1,1959,386,0,0
742,638,0,0,0,0,0,0,0,0,0,-1,1966,386,0,0
749,638,0,0,0,0,0,0,0,0,0,-1,1973,386,0,0
756,638,0,0,0,0,0,0,0,0,0,-1,1980,386,0,0
763,638,0,0,0,0,0,0,0,0,0,-1,1987,386,0,0
770,638,0,0,0,0,0,0,0,0,0,-1,1994,386,0,0
777,638,0,0,0,0,0,0,0,0,0,-1,2001,386,0,0
784,638,0,0,0,0,0,0,0,0,0,-1,2008,386,0,0
791,638,0,0,0,0,0,0,0,0,0,-1,2015,386,0,0
798,638,0,0,0,0,0,0,0,0,0,-1,2022,386,0,0
805,638,0,0,0,0,0,0,0,0,0,-1,2029,386,0,0
812,638,0,0,0,0,0,0,0,0,0,-1,2036,386,0,0
-700,631,0,0,0,0,0,0,0,0,0,-1,524,393,0,0
-693,631,0,0,0,0,0,0,0,0,0,-1,531,393,0,0
-686,631,0,0,0,0,0,0,0,0,0,-1,538,393,0,0
-679,631,0,0,0,0,0,0,0,0,0,-1,545,393,0,0
-672,631,0,0,0,0,0,0,0,0,0,-1,552,393,0,0
-665,631,0,0,0,0,0,0,0,0,0,-1,559,393,0,0
-658,631,0,0,0,0,0,0,0,0,0,-1,566,393,0,0
-651,631,0,0,0,0,0,0,0,0,0,-1,573,393,0,0
-644,631,0,0,0,0,0,0,0,0,0,-1,580,393,0,0
-637,631,0,0,0,0,0,0,0,0,0,-1,587,393,0,0
-630,631,0,0,0,0,0,0,0,0,0,-1,594,393,0,0
-623,631,0,0,0,0,0,0,0,0,0,-1,601,393,0,0
-616,631,0,0,0,0,0,0,0,0,0,-1,608,393,0,0
-609,631,0,0,0,0,0,0,0,0,0,-1,615,393,0,0
-602,631,0,0,0,0,0,0,0,0,0,-1,622,393,0,0
-595,631,0,0,0,0,0,0,0,0,0,-1,629,393,0,0
-588,631,0,0,0,0,0,0,0,0,0,-1,636,393,0,0
-581,631,0,0,0,0,0,0,0,0,0,-1,643,393,0,0
-574,631,0,0,0,0,0,0,0,0,0,-1,650,393,0,0
-567,631,0,0,0,0,0,0,0,0,0,-1,657,393,0,0
-560,631,0,0,0,0,0,0,0,0,0,-1,664,393,0,0
-553,631,0,0,0,0,0,0,0,0,0,-1,671,393,0,0
-546,631,0,0,0,0,0,0,0,0,0,-1,678,393,0,0
-539,631,0,0,0,0,0,0,0,0,0,-1,685,393,0,0
-532,631,0,0,0,0,0,0,0,0,0,-1,692,393,0,0
-525,631,0,0,0,0,0,0,0,0,0,-1,699,393,0,0
-518,631,0,0,0,0,0,0,0,0,0,-1,706,393,0,0
-511,631,0,0,0,0,0,0,0,0,0,-1,713,393,0,0
-504,631,0,0,0,0,0,0,0,0,0,-1,720,393,0,0
-497,631,0,0,0,0,0,0,0,0,0,-1,727,393,0,0
-490,631,0,0,0,0,0,0,0,0,0,-1,734,393,0,0
-483,631,0,0,0,0,0,0,0,0,0,-1,741,393,0,0
-476,631,0,0,0,0,0,0,0,0,0,-1,748,393,0,0
-469,631,0,0,0,0,0,0,0,0,0,-1,755,393,0,0
-462,631,0,0,0,0,0,0,0,0,0,-1,762,393,0,0
-455,631,0,0,0,0,0,0,0,0,0,-1,769,393,0,0
-448,631,0,0,0,0,0,0,0,0,0,-1,776,393,0,0
-441,631,0,0,0,0,0,0,0,0,0,-1,783,393,0,0
-434,631,0,0,0,0,0,0,0,0,0,-1,790,393,0,0
-427,631,0,0,0,0,0,0,0,0,0,-1,797,393,0,0
-420,631,0,0,0,0,0,0,0,0,0,-1,804,393,0,0
-413,631,0,0,0,0,0,0,0,0,0,-1,811,393,0,0
-406,631,0,0,0,0,0,0,0,0,0,-1,818,393,0,0
-399,631,0,0,0,0,0,0,0,0,0,-1,825,393,0,0
-392,631,0,0,0,0,0,0,0,0,0,-1,832,393,0,0
-385,631,0,0,0,0,0,0,0,0,0,-1,839,393,0,0
-378,631,0,0,0,0,0,0,0,0,0,-1,846,393,0,0
-371,631,0,0,0,0,0,0,0,0,0,-1,853,393,0,0
-364,631,0,0,0,0,0,0,0,0,0,-1,860,393,0,0
-357,631,0,0,0,0,0,0,0,0,0,-1,867,393,0,0
-350,631,0,0,0,0,0,0,0,0,0,-1,874,393,0,0
-343,631,0,0,0,0,0,0,0,0,0,-1,881,393,0,0
-336,631,0,0,0,0,0,0,0,0,0,-1,888,393,0,0
-329,631,0,0,0,0,0,0,0,0,0,-1,895,393,0,0
-322,631,0,0,0,0,0,0,0,0,0,-1,902,393,0,0
-315,631,0,0,0,0,0,0,0,0,0,-1,909,393,0,0
-308,631,0,0,0,0,0,0,0,0,0,-1,916,393,0,0
-301,631,0,0,0,0,0,0,0,0,0,-1,923,393,0,0
-294,631,0,0,0,0,0,0,0,0,0,-1,930,393,0,0
-287,631,0,0,0,0,0,0,0,0,0,-1,937,393,0,0
-280,631,1.55042,-14.0146,0,0,0,0,0,0,0,-1,944,393,1.55041,14.0146
-273,631,3.38184,-23.9561,0,0,0,0,0,0,0,-1,951,393,3.38186,23.9561
-266,631,4.62512,-24.2785,0,0,0,0,0,0,0,-1,958,393,4.62511,24.2785
-259,631,4.8363,-25.6252,0,0,0,0,0,0,0,-1,965,393,4.83632,25.6252
-252,631,5.01581,-26.2312,0,0,0,0,0,0,0,-1,972,393,5.0158,26.2312
-245,631,4.06909,-25.853,-0.0399374,-0.0744317,-0.0150803,-0.0342743,-0.0800948,-0.359235,0.0464026,0.0449676,979,393,4.06911,25.853
-238,631,3.05438,-25.4099,-0.0372037,-0.0627305,-0.0139931,-0.0310275,-0.0689067,-0.415663,0.0398488,0.0497279,986,393,3.0544,25.4099
-231,631,2.14966,-25.2306,0,0,0,0,0,0,0,-1,993,393,2.14968,25.2306
-224,631,6.83575,-19.7909,0,0,0,0,0,0,0,-1,1000,393,6.83575,19.7909
-217,631,5.05188,-18.3867,0,0,0,0,0,0,0,-1,1007,393,5.0519,18.3866
-210,631,3.37842,-26.3769,0,0,0,0,0,0,0,-1,1014,393,3.37839,26.3769
-203,631,5.03845,-24.6826,0,0,0,0,0,0,0,-1,1021,393,5.0384,24.6826
-196,631,4.82898,-25.08,0,0,0,0,0,0,0,-1,1028,393,4.82893,25.08
-189,631,4.40381,-25.2565,0,0,0,0,0,0,0,-1,1035,393,4.40379,25.2565
-182,631,4.56885,-25.7723,0,0,0,0,0,0,0,-1,1042,393,4.5688,25.7723
-175,631,4.88464,-26.3948,0.0354629,-0.0197847,-0.0171421,0.0403495,-0.0246713,-0.277698,0.0379018,0.0384591,1049,393,4.8846,26.3948
-168,631,4.62,-26.8203,0.0292924,-0.0171232,-0.0139817,0.0331786,-0.0210095,-0.271112,0.0315474,0.0208059,1056,393,4.62003,26.8203
-161,631,4.55872,-27.1898,0.0236702,-0.0132512,-0.0114427,0.0269289,-0.0165099,-0.277441,0.0253187,0.0101236,1063,393,4.55866,27.1898
-154,631,4.54968,-27.5207,0.0185796,-0.00886186,-0.00912435,0.0213365,-0.0116188,-0.293426,0.0193005,0.00978672,1070,393,4.54967,27.5207
-147,631,4.53064,-27.8063,0.0140125,-0.00494236,-0.00707537,0.0163623,-0.00729212,-0.320644,0.0139875,0.0107433,1077,393,4.53065,27.8063
-140,631,4.48938,-28.1112,0.0100146,-0.00123794,-0.00520483,0.0120529,-0.00327621,-0.373254,0.00932126,0.0104712,1084,393,4.48935,28.1112
-133,631,4.44568,-28.4134,0.00663362,0.00187305,-0.00354383,0.00852236,-1.56802e-05,-0.489669,0.00568681,0.00887976,1091,393,4.44572,28.4133
-126,631,4.4408,-28.6734,0.00320782,0.00480984,-0.00195828,0.00612459,0.00189306,-0.979535,0.00362093,0.0132372,1098,393,4.4408,28.6734
-119,631,4.43738,-28.9369,0.000733508,0.00701529,-0.000876313,0.00713525,0.000613553,-1.43476,0.00456608,0.0164556,1105,393,4.43732,28.9369
-112,631,4.43384,-29.2132,-0.00114932,0.00880971,0.000115704,0.00881105,-0.00115066,1.55918,0.00629275,0.0152815,1112,393,4.43379,29.2132
-105,631,4.4585,-29.4739,-0.00118874,0.00830387,0.000210889,0.00830856,-0.00119342,1.54859,0.00597669,0.0202576,1119,393,4.45851,29.4739
-98,631,4.40845,-29.7186,-0.00127901,0.00757236,0.000219797,0.00757782,-0.00128447,1.54598,0.00552998,0.0171272,1126,393,4.40849,29.7186
-91,631,4.34814,-29.9547,-0.00122646,0.0067793,0.000142465,0.00678184,-0.001229,1.55301,0.00498168,0.0179568,1133,393,4.34812,29.9547
-84,631,4.33081,-30.1826,-0.00101747,0.00574979,0.000215193,0.00575663,-0.0010243,1.53904,0.00422082,0.0170505,1140,393,4.33079,30.1827
-77,631,4.30774,-30.4051,-0.00109529,0.00474976,0.000273319,0.00476251,-0.00110804,1.52417,0.00360163,0.0111868,1147,393,4.30772,30.4051
-70,631,4.30774,-30.6075,-0.00122397,0.00387295,8.12908e-05,0.00387424,-0.00122526,1.55485,0.00307376,0.0118953,1154,393,4.30771,30.6075
-63,631,4.30798,-30.8244,-0.00100983,0.00317293,-0.000156179,0.00317875,-0.00101565,-1.53353,0.0025267,0.0126316,1161,393,4.30802,30.8244
-56,631,4.29651,-31.0231,-0.000794545,0.00261386,-0.000418418,0.00266447,-0.000845159,-1.45042,0.00211509,0.0143114,1168,393,4.29645,31.0231
-49,631,4.29395,-31.1884,-0.000573256,0.00177772,-0.000474928,0.00187003,-0.000665573,-1.37881,0.00151799,0.0115239,1175,393,4.29389,31.1884
-42,631,4.28467,-31.3393,-0.000263026,0.00119355,-0.0003964,0.00129444,-0.000363916,-1.32157,0.00100644,0.00890382,1182,393,4.28466,31.3393
-35,631,4.27795,-31.4836,0.000139082,0.000521841,-0.0003572,0.0007357,-7.47767e-05,-1.03133,0.000517197,0.00958831,1189,393,4.27793,31.4837
-28,631,4.29138,-31.6265,0.000522176,5.01827e-05,-0.000338069,0.000698472,-0.000126113,-0.480683,0.000512881,0.0130232,1196,393,4.29144,31.6265
-21,631,4.27686,-31.7645,0.000863499,-0.000597448,-0.000332809,0.000935742,-0.000669691,-0.213753,0.00093113,0.0117637,1203,393,4.27688,31.7645
-14,631,4.26392,-31.8959,0.00123668,-0.00126853,-0.000429531,0.00130828,-0.00134013,-0.165173,0.0015291,0.0143879,1210,393,4.26386,31.8959
-7,631,4.28113,-32.0488,0.00168275,-0.00194431,-0.000592314,0.00177703,-0.00203858,-0.157843,0.00220467,0.0219732,1217,393,4.28112,32.0488
0,631,4.23828,-32.1404,0.00205373,-0.00249738,-0.000700985,0.00215925,-0.00260291,-0.149413,0.00275341,0.0233175,1224,393,4.23827,32.1403
7,631,4.23828,-32.1941,0.0022481,-0.00297097,-0.000720921,0.00234585,-0.00306872,-0.134771,0.00313537,0.0182309,1231,393,4.23823,32.1941
14,631,4.28711,-32.2686,0.00232389,-0.00338898,-0.000534122,0.0023734,-0.00343849,-0.0924271,0.00337422,0.00998229,1238,393,4.28707,32.2686
21,631,4.31848,-32.3307,0.00231627,-0.00367925,-0.000219056,0.00232426,-0.00368725,-0.0364718,0.00350036,0.0132825,1245,393,4.31847,32.3307
28,631,4.3197,-32.3742,0.00230639,-0.00380129,0.000163496,0.00231077,-0.00380566,0.0267434,0.0035663,0.0156214,1252,393,4.3197,32.3742
35,631,4.33606,-32.4142,0.0023087,-0.00380773,0.000724542,0.00239336,-0.00389239,0.116314,0.00366331,0.0143177,1259,393,4.3361,32.4142
42,631,4.38025,-32.4499,0.00229047,-0.00374195,0.00144278,0.00261778,-0.00406926,0.223086,0.00389096,0.0123514,1266,393,4.38021,32.4499
49,631,4.38989,-32.4622,0.00229202,-0.00360263,0.00224478,0.00304952,-0.00436013,0.325452,0.00430022,0.0108936,1273,393,4.38993,32.4622
56,631,4.39575,-32.4836,0.00237993,-0.00335284,0.00273864,0.00347792,-0.00445083,0.381306,0.00458914,0.0126002,1280,393,4.39575,32.4836
63,631,4.38916,-32.5263,0.00253905,-0.00298673,0.00322819,0.00402525,-0.00447293,0.431454,0.00490869,0.0155052,1287,393,4.38913,32.5263
70,631,4.40356,-32.4841,0.00250827,-0.00264321,0.00369322,0.00443523,-0.00457017,0.480901,0.00519946,0.0156716,1294,393,4.40362,32.4841
77,631,4.40942,-32.4406,0.002686,-0.0023196,0.00386365,0.00478665,-0.00442026,0.497991,0.00531701,0.0158181,1301,393,4.40938,32.4406
84,631,4.44751,-32.3992,0.00291665,-0.00179898,0.00382792,0.00505464,-0.00393697,0.509365,0.00520466,0.0134146,1308,393,4.44746,32.3992
91,631,4.46362,-32.3337,0.00293306,-0.00140273,0.00364408,0.00500534,-0.00347502,0.517065,0.00492264,0.0159041,1315,393,4.46367,32.3337
98,631,4.46484,-32.2695,0.00290913,-0.00147832,0.00319554,0.00459147,-0.00316066,0.484595,0.00450103,0.0139057,1322,393,4.46481,32.2695
105,631,4.45813,-32.1791,0.00301751,-0.0016379,0.0024394,0.00406158,-0.00268197,0.404413,0.00392046,0.012004,1329,393,4.45807,32.1791
112,631,4.46216,-32.0886,0.00317434,-0.00168836,0.00163452,0.00367269,-0.00218671,0.295935,0.00341899,0.012609,1336,393,4.46216,32.0886
119,631,4.46826,-32.0033,0.00312522,-0.00171702,0.00074611,0.00323757,-0.00182937,0.149467,0.00296282,0.0126625,1343,393,4.46831,32.0033
126,631,4.47144,-31.8441,0.00298652,-0.00174221,-4.25427e-05,0.0029869,-0.00174259,-0.00899567,0.0027619,0.0175242,1350,393,4.47146,31.8441
133,631,4.48242,-31.7132,0.00276201,-0.00178353,-0.000631936,0.00284823,-0.00186975,-0.135598,0.00274339,0.0191689,1357,393,4.48244,31.7132
140,631,4.47632,-31.6445,0.00253311,-0.00172778,-0.00106809,0.00278586,-0.00198053,-0.232362,0.00276494,0.0201277,1364,393,4.47637,31.6445
147,631,4.45081,-31.5257,0.00233132,-0.00147218,-0.0013176,0.00274317,-0.00188403,-0.302951,0.00268682,0.0231893,1371,393,4.45077,31.5257
154,631,4.47168,-31.3876,0.002139,-0.00102026,-0.00136606,0.00264775,-0.00152901,-0.35651,0.00244012,0.022204,1378,393,4.47167,31.3876
161,631,4.53027,-31.1811,0.00185777,-0.000358981,-0.00108285,0.00229893,-0.000800143,-0.386876,0.00185769,0.0243322,1385,393,4.53023,31.1811
168,631,4.54626,-30.9454,0.00141564,0.000366958,-0.000850144,0.00189014,-0.00010754,-0.50907,0.00129742,0.0282383,1392,393,4.54632,30.9454
175,631,4.52197,-30.7871,0.000984667,0.0011686,-0.000585704,0.00166951,0.000483753,-0.863271,0.000991891,0.0209937,1399,393,4.52194,30.7871
182,631,4.50513,-30.6205,0.000476088,0.00179763,-0.000173193,0.00181995,0.000453767,-1.44263,0.00109388,0.011448,1406,393,4.5051,30.6205
189,631,4.50146,-30.4083,6.62535e-05,0.00238936,0.000245764,0.00241507,4.05384e-05,1.46654,0.00159671,0.0107743,1413,393,4.50149,30.4083
196,631,4.48816,-30.1969,-0.000187533,0.00276955,0.0006535,0.00290753,-0.000325515,1.36271,0.00205547,0.0116417,1420,393,4.48817,30.1969
203,631,4.49915,-29.9765,-0.000518855,0.00324585,0.00103529,0.00351177,-0.000784777,1.31937,0.00264191,0.0136353,1427,393,4.49912,29.9765
210,631,4.48999,-29.7397,-0.000984972,0.0036121,0.00120971,0.003911,-0.00128387,1.32857,0.00312449,0.0153407,1434,393,4.49003,29.7396
217,631,4.47351,-29.522,-0.00128613,0.00391659,0.00119237,0.00417684,-0.00154638,1.3559,0.00341866,0.0165518,1441,393,4.47356,29.522
224,631,4.44775,-29.2364,-0.00134536,0.004435,0.00124761,0.00469278,-0.00160314,1.36704,0.00377803,0.0134746,1448,393,4.44773,29.2364
231,631,4.41003,-28.919,-0.00135974,0.00503279,0.00141373,0.00533148,-0.00165843,1.36258,0.00421727,0.0114155,1455,393,4.41001,28.919
238,631,4.39465,-28.6344,-0.00128876,0.00596064,0.00176945,0.00636948,-0.00169759,1.34373,0.00491098,0.0175301,1462,393,4.39469,28.6344
245,631,4.41101,-28.3524,-0.00130399,0.00684202,0.0019946,0.00730419,-0.00176616,1.3431,0.00555261,0.0188359,1469,393,4.41102,28.3524
252,631,4.40137,-28.0744,-0.00114695,0.00779868,0.00228467,0.0083484,-0.00169666,1.33467,0.00620891,0.0182242,1476,393,4.40142,28.0744
259,631,4.35474,-27.7632,-0.000843669,0.00895339,0.00277866,0.0096866,-0.00157688,1.3128,0.00704246,0.0135498,1483,393,4.35477,27.7632
266,631,4.34302,-27.4427,-0.000470251,0.0101933,0.00343692,0.0112051,-0.001482,1.28451,0.00800987,0.0113146,1490,393,4.34308,27.4427
273,631,4.32861,-27.1307,-2.78727e-05,0.0113905,0.00417864,0.0127563,-0.0013937,1.25488,0.00900481,0.0139864,1497,393,4.32867,27.1307
280,631,4.31506,-26.794,0.000862861,0.0128679,0.00505476,0.0147127,-0.000981966,1.22085,0.0101517,0.012848,1504,393,4.31504,26.794
287,631,4.26843,-26.4464,0.00198103,0.0143763,0.00610914,0.0168811,-0.000523769,1.18169,0.0114326,0.0134977,1511,393,4.26849,26.4464
294,631,4.20447,-26.0558,0.00298227,0.0157193,0.00715565,0.01893,-0.000228425,1.14903,0.0126968,0.017481,1518,393,4.20442,26.0558
301,631,4.12097,-25.6186,0.00421288,0.0170923,0.0082669,0.0211317,0.000173504,1.11629,0.0140303,0.0256029,1525,393,4.12091,25.6186
308,631,4.33472,-25.0717,0.0057563,0.0184554,0.00937947,0.0234324,0.00077928,1.08295,0.0153684,0.0352143,1532,393,4.33469,25.0717
315,631,4.42041,-24.7003,0.00752468,0.0196805,0.0106518,0.0258664,0.00133879,1.04466,0.0168158,0.0425745,1539,393,4.42043,24.7003
322,631,4.34912,-24.3847,0,0,0,0,0,0,0,-1,1546,393,4.34908,24.3847
329,631,4.03503,-24.0416,0.0106658,0.0222751,0.0127517,0.0304811,0.00245974,0.998985,0.0195525,0.0461477,1553,393,4.03503,24.0416
336,631,4.22693,-23.5378,0.0119717,0.0229849,0.0131116,0.0316993,0.00325726,0.984202,0.0201351,0.0430765,1560,393,4.2269,23.5379
343,631,4.50684,-22.8119,0,0,0,0,0,0,0,-1,1567,393,4.50689,22.8119
350,631,2.1344,-9.23401,0,0,0,0,0,0,0,-1,1574,393,2.13439,9.23401
357,631,2.6449,-9.60303,0,0,0,0,0,0,0,-1,1581,393,2.64491,9.60304
364,631,3.39136,-5.7594,0,0,0,0,0,0,0,-1,1588,393,3.39137,5.75939
371,631,3.72839,-6.0574,0,0,0,0,0,0,0,-1,1595,393,3.72845,6.05742
378,631,4.06555,-6.35544,0,0,0,0,0,0,0,-1,1602,393,4.06553,6.35544
385,631,3.90442,-3.58298,0,0,0,0,0,0,0,-1,1609,393,3.90437,3.58299
392,631,0.352295,-2.21301,0,0,0,0,0,0,0,-1,1616,393,0.352345,2.213
399,631,0,0,0,0,0,0,0,0,0,-1,1623,393,0,0
406,631,0,0,0,0,0,0,0,0,0,-1,1630,393,0,0
413,631,0,0,0,0,0,0,0,0,0,-1,1637,393,0,0
420,631,0,0,0,0,0,0,0,0,0,-1,1644,393,0,0
427,631,0,0,0,0,0,0,0,0,0,-1,1651,393,0,0
434,631,0,0,0,0,0,0,0,0,0,-1,1658,393,0,0
441,631,0,0,0,0,0,0,0,0,0,-1,1665,393,0,0
448,631,0,0,0,0,0,0,0,0,0,-1,1672,393,0,0
455,631,0,0,0,0,0,0,0,0,0,-1,1679,393,0,0
462,631,0,0,0,0,0,0,0,0,0,-1,1686,393,0,0
469,631,0,0,0,0,0,0,0,0,0,-1,1693,393,0,0
476,631,0,0,0,0,0,0,0,0,0,-1,1700,393,0,0
483,631,0,0,0,0,0,0,0,0,0,-1,1707,393,0,0
490,631,0,0,0,0,0,0,0,0,0,-1,1714,393,0,0
497,631,0,0,0,0,0,0,0,0,0,-1,1721,393,0,0
504,631,0,0,0,0,0,0,0,0,0,-1,1728,393,0,0
511,631,0,0,0,0,0,0,0,0,0,-1,1735,393,0,0
518,631,0,0,0,0,0,0,0,0,0,-1,1742,393,0,0
525,631,0,0,0,0,0,0,0,0,0,-1,1749,393,0,0
532,631,0,0,0,0,0,0,0,0,0,-1,1756,393,0,0
539,631,0,0,0,0,0,0,0,0,0,-1,1763,393,0,0
546,631,0,0,0,0,0,0,0,0,0,-1,1770,393,0,0
553,631,0,0,0,0,0,0,0,0,0,-1,1777,393,0,0
560,631,0,0,0,0,0,0,0,0,0,-1,1784,393,0,0
567,631,0,0,0,0,0,0,0,0,0,-1,1791,393,0,0
574,631,0,0,0,0,0,0,0,0,0,-1,1798,393,0,0
581,631,0,0,0,0,0,0,0,0,0,-1,1805,393,0,0
588,631,0,0,0,0,0,0,0,0,0,-1,1812,393,0,0
595,631,0,0,0,0,0,0,0,0,0,-1,1819,393,0,0
602,631,0,0,0,0,0,0,0,0,0,-1,1826,393,0,0
609,631,0,0,0,0,0,0,0,0,0,-1,1833,393,0,0
616,631,0,0,0,0,0,0,0,0,0,-1,1840,393,0,0
623,631,0,0,0,0,0,0,0,0,0,-1,1847,393,0,0
630,631,0,0,0,0,0,0,0,0,0,-1,1854,393,0,0
637,631,0,0,0,0,0,0,0,0,0,-1,1861,393,0,0
644,631,0,0,0,0,0,0,0,0,0,-1,1868,393,0,0
651,631,0,0,0,0,0,0,0,0,0,-1,1875,393,0,0
658,631,0,0,0,0,0,0,0,0,0,-1,1882,393,0,0
665,631,0,0,0,0,0,0,0,0,0,-1,1889,393,0,0
672,631,0,0,0,0,0,0,0,0,0,-1,1896,393,0,0
679,631,0,0,0,0,0,0,0,0,0,-1,1903,393,0,0
686,631,0,0,0,0,0,0,0,0,0,-1,1910,393,0,0
693,631,0,0,0,0,0,0,0,0,0,-1,1917,393,0,0
700,631,0,0,0,0,0,0,0,0,0,-1,1924,393,0,0
707,631,0,0,0,0,0,0,0,0,0,-1,1931,393,0,0
714,631,0,0,0,0,0,0,0,0,0,-1,1938,393,0,0
721,631,0,0,0,0,0,0,0,0,0,-1,1945,393,0,0
728,631,0,0,0,0,0,0,0,0,0,-1,1952,393,0,0
735,631,0,0,0,0,0,0,0,0,0,-1,1959,393,0,0
742,631,0,0,0,0,0,0,0,0,0,-1,1966,393,0,0
749,631,0,0,0,0,0,0,0,0,0,-1,1973,393,0,0
756,631,0,0,0,0,0,0,0,0,0,-1,1980,393,0,0
763,631,0,0,0,0,0,0,0,0,0,-1,1987,393,0,0
770,631,0,0,0,0,0,0,0,0,0,-1,1994,393,0,0
777,631,0,0,0,0,0,0,0,0,0,-1,2001,393,0,0
784,631,0,0,0,0,0,0,0,0,0,-1,2008,393,0,0
791,631,0,0,0,0,0,0,0,0,0,-1,2015,393,0,0
798,631,0,0,0,0,0,0,0,0,0,-1,2022,393,0,0
805,631,0,0,0,0,0,0,0,0,0,-1,2029,393,0,0
812,631,0,0,0,0,0,0,0,0,0,-1,2036,393,0,0
-700,624,0,0,0,0,0,0,0,0,0,-1,524,400,0,0
-693,624,0,0,0,0,0,0,0,0,0,-1,531,400,0,0
-686,624,0,0,0,0,0,0,0,0,0,-1,538,400,0,0
-679,624,0,0,0,0,0,0,0,0,0,-1,545,400,0,0
-672,624,0,0,0,0,0,0,0,0,0,-1,552,400,0,0
-665,624,0,0,0,0,0,0,0,0,0,-1,559,400,0,0
-658,624,0,0,0,0,0,0,0,0,0,-1,566,400,0,0
-651,624,0,0,0,0,0,0,0,0,0,-1,573,400,0,0
-644,624,0,0,0,0,0,0,0,0,0,-1,580,400,0,0
-637,624,0,0,0,0,0,0,0,0,0,-1,587,400,0,0
-630,624,0,0,0,0,0,0,0,0,0,-1,594,400,0,0
-623,624,0,0,0,0,0,0,0,0,0,-1,601,400,0,0
-616,624,0,0,0,0,0,0,0,0,0,-1,608,400,0,0
-609,624,0,0,0,0,0,0,0,0,0,-1,615,400,0,0
-602,624,0,0,0,0,0,0,0,0,0,-1,622,400,0,0
-595,624,0,0,0,0,0,0,0,0,0,-1,629,400,0,0
-588,624,0,0,0,0,0,0,0,0,0,-1,636,400,0,0
-581,624,0,0,0,0,0,0,0,0,0,-1,643,400,0,0
-574,624,0,0,0,0,0,0,0,0,0,-1,650,400,0,0
-567,624,0,0,0,0,0,0,0,0,0,-1,657,400,0,0
-560,624,0,0,0,0,0,0,0,0,0,-1,664,400,0,0
-553,624,0,0,0,0,0,0,0,0,0,-1,671,400,0,0
-546,624,0,0,0,0,0,0,0,0,0,-1,678,400,0,0
-539,624,0,0,0,0,0,0,0,0,0,-1,685,400,0,0
-532,624,0,0,0,0,0,0,0,0,0,-1,692,400,0,0
-525,624,0,0,0,0,0,0,0,0,0,-1,699,400,0,0
-518,624,0,0,0,0,0,0,0,0,0,-1,706,400,0,0
-511,624,0,0,0,0,0,0,0,0,0,-1,713,400,0,0
-504,624,0,0,0,0,0,0,0,0,0,-1,720,400,0,0
-497,624,0,0,0,0,0,0,0,0,0,-1,727,400,0,0
-490,624,0,0,0,0,0,0,0,0,0,-1,734,400,0,0
-483,624,0,0,0,0,0,0,0,0,0,-1,741,400,0,0
-476,624,0,0,0,0,0,0,0,0,0,-1,748,400,0,0
-469,624,0,0,0,0,0,0,0,0,0,-1,755,400,0,0
-462,624,0,0,0,0,0,0,0,0,0,-1,762,400,0,0
-455,624,0,0,0,0,0,0,0,0,0,-1,769,400,0,0
-448,624,0,0,0,0,0,0,0,0,0,-1,776,400,0,0
-441,624,0,0,0,0,0,0,0,0,0,-1,783,400,0,0
-434,624,0,0,0,0,0,0,0,0,0,-1,790,400,0,0
-427,624,0,0,0,0,0,0,0,0,0,-1,797,400,0,0
-420,624,0,0,0,0,0,0,0,0,0,-1,804,400,0,0
-413,624,0,0,0,0,0,0,0,0,0,-1,811,400,0,0
-406,624,0,0,0,0,0,0,0,0,0,-1,818,400,0,0
-399,624,0,0,0,0,0,0,0,0,0,-1,825,400,0,0
-392,624,0,0,0,0,0,0,0,0,0,-1,832,400,0,0
-385,624,0,0,0,0,0,0,0,0,0,-1,839,400,0,0
-378,624,0,0,0,0,0,0,0,0,0,-1,846,400,0,0
-371,624,0,0,0,0,0,0,0,0,0,-1,853,400,0,0
-364,624,0,0,0,0,0,0,0,0,0,-1,860,400,0,0
-357,624,0,0,0,0,0,0,0,0,0,-1,867,400,0,0
-350,624,0,0,0,0,0,0,0,0,0,-1,874,400,0,0
-343,624,0,0,0,0,0,0,0,0,0,-1,881,400,0,0
-336,624,0,0,0,0,0,0,0,0,0,-1,888,400,0,0
-329,624,0,0,0,0,0,0,0,0,0,-1,895,400,0,0
-322,624,0,0,0,0,0,0,0,0,0,-1,902,400,0,0
-315,624,0,0,0,0,0,0,0,0,0,-1,909,400,0,0
-308,624,0,0,0,0,0,0,0,0,0,-1,916,400,0,0
-301,624,0,0,0,0,0,0,0,0,0,-1,923,400,0,0
-294,624,10.6271,-28.4093,0,0,0,0,0,0,0,-1,930,400,10.6271,28.4093
-287,624,0.12146,-15.0862,0,0,0,0,0,0,0,-1,937,400,0.121451,15.0862
-280,624,1.51831,-12.2324,0,0,0,0,0,0,0,-1,944,400,1.51834,12.2324
-273,624,-0.136536,-19.7625,0,0,0,0,0,0,0,-1,951,400,-0.136554,19.7626
-266,624,4.78094,-22.7993,0,0,0,0,0,0,0,-1,958,400,4.78096,22.7993
-259,624,4.19537,-21.6596,0,0,0,0,0,0,0,-1,965,400,4.19537,21.6596
-252,624,5.96722,-26.0497,0,0,0,0,0,0,0,-1,972,400,5.96722,26.0497
-245,624,4.72278,-25.3516,0,0,0,0,0,0,0,-1,979,400,4.72279,25.3516
-238,624,4.08038,-25.0565,0,0,0,0,0,0,0,-1,986,400,4.0804,25.0565
-231,624,4.95148,-20.7456,0,0,0,0,0,0,0,-1,993,400,4.95146,20.7456
-224,624,3.2287,-22.9566,0,0,0,0,0,0,0,-1,1000,400,3.22873,22.9566
-217,624,4.79291,-24.1332,0,0,0,0,0,0,0,-1,1007,400,4.79289,24.1332
-210,624,4.57703,-24.7069,0,0,0,0,0,0,0,-1,1014,400,4.57705,24.7069
-203,624,4.57434,-24.8485,0.0138705,-0.0229126,-0.0135028,0.018295,-0.0273371,-0.316651,0.0265176,0.048711,1021,400,4.57438,24.8485
-196,624,4.49268,-25.2468,0.0187782,-0.0193835,-0.0130187,0.0227964,-0.0234017,-0.29937,0.0266732,0.0419713,1028,400,4.49273,25.2468
-189,624,4.22729,-25.5717,0.0233325,-0.0143852,-0.013783,0.0278323,-0.018885,-0.315567,0.0271366,0.0399433,1035,400,4.22727,25.5718
-182,624,4.32336,-26.0355,0.0259576,-0.0106995,-0.0140877,0.0307461,-0.0154881,-0.327656,0.0271735,0.0339702,1042,400,4.32331,26.0355
-175,624,4.42969,-26.5203,0.0229351,-0.0103808,-0.0123354,0.0270051,-0.0144508,-0.3187,0.0242977,0.0222265,1049,400,4.42974,26.5203
-168,624,4.31213,-26.8748,0.019038,-0.00954751,-0.010205,0.0223073,-0.0128168,-0.310029,0.0205241,0.0143546,1056,400,4.31211,26.8748
-161,624,4.27747,-27.2142,0.0156313,-0.00758588,-0.00870425,0.0185322,-0.0104867,-0.32169,0.0169673,0.0102983,1063,400,4.27751,27.2142
-154,624,4.26404,-27.5262,0.0125224,-0.00508562,-0.0072508,0.0151238,-0.00768709,-0.344477,0.0134012,0.00915233,1070,400,4.26398,27.5262
-147,624,4.2489,-27.8318,0.0096965,-0.00283988,-0.0059956,0.0121023,-0.00524564,-0.381587,0.0102733,0.0110709,1077,400,4.24887,27.8318
-140,624,4.20764,-28.1339,0.00719607,-0.000597516,-0.00484302,0.00951537,-0.00291682,-0.446622,0.00750717,0.0108195,1084,400,4.20763,28.1339
-133,624,4.18652,-28.4272,0.00503808,0.00133006,-0.00379007,0.00740331,-0.00103517,-0.557923,0.00531431,0.0114837,1091,400,4.1865,28.4272
-126,624,4.16724,-28.6748,0.0028021,0.00322718,-0.00279435,0.00581706,0.000212218,-0.823355,0.00380927,0.0130377,1098,400,4.16725,28.6748
-119,624,4.15344,-28.9416,0.00121868,0.00466742,-0.00210195,0.00566181,0.00022429,-1.12892,0.00370204,0.0156086,1105,400,4.1534,28.9416
-112,624,4.16211,-29.2069,7.72932e-05,0.00578224,-0.00143334,0.00612211,-0.000262579,-1.33798,0.00417169,0.0182777,1112,400,4.16217,29.2069
-105,624,4.19678,-29.4824,6.79875e-05,0.00539414,-0.0012632,0.00567855,-0.00021642,-1.34934,0.00385986,0.0137625,1119,400,4.19682,29.4824
-98,624,4.14124,-29.7258,6.74419e-06,0.00484074,-0.00110558,0.0050816,-0.00023411,-1.35629,0.0034684,0.0138308,1126,400,4.14127,29.7258
-91,624,4.12683,-29.9474,4.90238e-05,0.00425407,-0.000970104,0.00446709,-0.000163988,-1.35465,0.0030342,0.020727,1133,400,4.12681,29.9474
-84,624,4.13867,-30.1764,0.000203001,0.00352092,-0.000744188,0.00368019,4.37294e-05,-1.35996,0.00243901,0.0195036,1140,400,4.13869,30.1764
-77,624,4.12524,-30.4072,0.00024771,0.00283724,-0.000515238,0.00293599,0.000148959,-1.38143,0.00190961,0.013568,1147,400,4.12529,30.4072
-70,624,4.12549,-30.5843,0.000314205,0.00230998,-0.000349498,0.00236941,0.000254772,-1.40235,0.0015019,0.0138043,1154,400,4.1255,30.5843
-63,624,4.13879,-30.7978,0.00054487,0.00173368,-0.000197286,0.00176556,0.000512985,-1.41056,0.00104874,0.0146938,1161,400,4.13874,30.7977
-56,624,4.11414,-31.0213,0.000773356,0.00113056,-7.50958e-05,0.00114571,0.000758211,-1.37179,0.000672919,0.0125052,1168,400,4.11408,31.0213
-49,624,4.13245,-31.1918,0.00101976,0.000405647,6.35157e-05,0.00102626,0.000399146,0.101988,0.000597364,0.0106905,1175,400,4.13246,31.1918
-42,624,4.13843,-31.3382,0.00156309,-0.000262424,0.000227576,0.00159103,-0.000290367,0.122173,0.00116955,0.00941798,1182,400,4.13841,31.3382
-35,624,4.13232,-31.4927,0.00207335,-0.0010085,0.000337018,0.00210977,-0.00104492,0.107661,0.00185563,0.0142682,1189,400,4.13237,31.4927
-28,624,4.125,-31.6537,0.0024143,-0.0016632,0.000350682,0.00244424,-0.00169314,0.0851706,0.00240181,0.0197865,1196,400,4.12506,31.6537
-21,624,4.15735,-31.7803,0.00254024,-0.00259003,0.000245556,0.00255197,-0.00260176,0.0477188,0.00297555,0.0141971,1203,400,4.15737,31.7803
-14,624,4.16394,-31.8929,0.00271594,-0.00341096,-5.14438e-05,0.00271637,-0.00341139,-0.00839559,0.00354545,0.0144779,1210,400,4.16395,31.8929
-7,624,4.1748,-31.9929,0.00300639,-0.00426285,-0.000417606,0.0030303,-0.00428676,-0.0571976,0.00424521,0.0193172,1217,400,4.17485,31.9929
0,624,4.19629,-32.1017,0.0031269,-0.00491257,-0.000719544,0.00319079,-0.00497647,-0.0885635,0.00475279,0.0204021,1224,400,4.19631,32.1017
7,624,4.18445,-32.1886,0.0029886,-0.0055466,-0.000878602,0.0030781,-0.0056361,-0.10152,0.00510289,0.0150124,1231,400,4.1845,32.1886
14,624,4.24438,-32.2911,0.00270319,-0.00624922,-0.000703945,0.00275821,-0.00630424,-0.0779931,0.00536406,0.0120075,1238,400,4.2444,32.2911
21,624,4.26575,-32.3317,0.00241238,-0.00685424,-0.000327534,0.00242395,-0.00686581,-0.0352869,0.00556406,0.0139434,1245,400,4.26576,32.3317
28,624,4.26624,-32.3801,0.00215789,-0.00721399,0.000248922,0.0021645,-0.0072206,0.0265356,0.00567454,0.013197,1252,400,4.26624,32.3801
35,624,4.26086,-32.4215,0.00205437,-0.00747784,0.00109669,0.00217892,-0.00760239,0.113083,0.00592955,0.016331,1259,400,4.26082,32.4215
42,624,4.30542,-32.4534,0.00205977,-0.0076126,0.00222254,0.00254603,-0.00809885,0.21539,0.0064185,0.0185673,1266,400,4.30537,32.4534
49,624,4.3595,-32.4584,0.00221772,-0.00765247,0.00354013,0.00335615,-0.0087909,0.311134,0.0072433,0.0192236,1273,400,4.35945,32.4584
56,624,4.38147,-32.473,0.0028804,-0.00757876,0.00452976,0.00456943,-0.00926779,0.356907,0.00814099,0.0187759,1280,400,4.38141,32.473
63,624,4.40527,-32.4818,0.00351601,-0.00692273,0.00556562,0.00592671,-0.00933343,0.408746,0.00888333,0.0156912,1287,400,4.40521,32.4818
70,624,4.42578,-32.4819,0.00378438,-0.00658971,0.00673098,0.00709506,-0.0099004,0.457113,0.00985679,0.01452,1294,400,4.42583,32.4819
77,624,4.44202,-32.4365,0.00452104,-0.00608979,0.00740219,0.00832276,-0.00989151,0.474463,0.010529,0.0140962,1301,400,4.44198,32.4365
84,624,4.47034,-32.4036,0.00530893,-0.00535366,0.00774095,0.00937683,-0.00942157,0.483843,0.0108533,0.0127557,1308,400,4.47029,32.4036
91,624,4.50317,-32.3452,0.00575218,-0.00478873,0.00784275,0.00993087,-0.00896743,0.48955,0.0109157,0.0131389,1315,400,4.50319,32.3452
98,624,4.51599,-32.2929,0.00596825,-0.00485096,0.00738493,0.00971293,-0.00859564,0.469288,0.010577,0.013036,1322,400,4.51598,32.2929
105,624,4.53528,-32.2249,0.00624554,-0.00518803,0.00636287,0.00908257,-0.00802506,0.419416,0.00988338,0.0141348,1329,400,4.53532,32.2249
112,624,4.55847,-32.1483,0.00648832,-0.00545935,0.00509922,0.0083687,-0.00733974,0.353288,0.00907575,0.014338,1336,400,4.55851,32.1483
119,624,4.55225,-32.0359,0.00640928,-0.00570742,0.00359322,0.00739471,-0.00669285,0.267666,0.00813682,0.0152224,1343,400,4.55226,32.0359
126,624,4.54089,-31.8529,0.00610491,-0.00609346,0.00214157,0.00646997,-0.00645851,0.168838,0.00746426,0.0189695,1350,400,4.54095,31.8529
133,624,4.60181,-31.7362,0.00566548,-0.00666969,0.000846822,0.00572334,-0.00672755,0.0682245,0.00719632,0.0194064,1357,400,4.60178,31.7362
140,624,4.62134,-31.6309,0.00516816,-0.00705617,-0.000229044,0.00517245,-0.00706046,-0.018728,0.00709066,0.019031,1364,400,4.6213,31.6309
147,624,4.62195,-31.4813,0.00474779,-0.00718702,-0.0010781,0.00484439,-0.00728362,-0.089368,0.00704916,0.0220635,1371,400,4.62191,31.4813
154,624,4.68127,-31.3518,0.00440326,-0.00693651,-0.00164909,0.00463822,-0.00717146,-0.141521,0.00687041,0.0239252,1378,400,4.68124,31.3518
161,624,4.70654,-31.1779,0.00384688,-0.00625327,-0.00171514,0.00413019,-0.00653658,-0.163702,0.00621048,0.0240483,1385,400,4.70658,31.1778
168,624,4.71582,-30.9888,0.00341405,-0.00566021,-0.0017938,0.00375578,-0.00600194,-0.18825,0.00568316,0.0240691,1392,400,4.71583,30.9888
175,624,4.71008,-30.8426,0.00327724,-0.00423362,-0.00188794,0.00372509,-0.00468148,-0.232912,0.00486399,0.0176234,1399,400,4.7101,30.8426
182,624,4.71228,-30.6525,0.00264971,-0.00287798,-0.00138656,0.00297801,-0.00320629,-0.232495,0.00357132,0.0107923,1406,400,4.71227,30.6525
189,624,4.7157,-30.4333,0.00207054,-0.00146494,-0.000836876,0.00225863,-0.00165303,-0.221077,0.0022674,0.0107151,1413,400,4.71573,30.4333
196,624,4.70715,-30.2122,0.00161932,-0.000283147,-0.000313449,0.00166963,-0.00033346,-0.159157,0.00123929,0.0118106,1420,400,4.7072,30.2122
203,624,4.73047,-29.9829,0.00103576,0.00116882,0.000216052,0.00132835,0.000876224,0.934758,0.000779844,0.0143983,1427,400,4.73045,29.9829
210,624,4.72766,-29.7463,0.000374816,0.00225232,0.000638191,0.00244871,0.000178428,1.27227,0.00157637,0.0177795,1434,400,4.72768,29.7463
217,624,4.70862,-29.4983,-8.75785e-05,0.00294165,0.000808549,0.00314395,-0.000289883,1.32562,0.00219897,0.0213331,1441,400,4.70868,29.4983
224,624,4.70447,-29.2169,-0.000236569,0.00346936,0.000962493,0.00370443,-0.000471635,1.33126,0.00264091,0.0170019,1448,400,4.70452,29.2169
231,624,4.68982,-28.9462,-0.000347725,0.00401526,0.00118898,0.00431824,-0.000650701,1.32129,0.00311844,0.0121078,1455,400,4.68985,28.9462
238,624,4.66589,-28.6817,-0.000392307,0.0047602,0.00151361,0.00517194,-0.000804045,1.3052,0.00374486,0.0171095,1462,400,4.66594,28.6817
245,624,4.6748,-28.4124,-0.000480133,0.00546244,0.00172319,0.00592596,-0.000943659,1.30802,0.00429985,0.0175873,1469,400,4.67479,28.4124
252,624,4.67407,-28.1057,-0.000446152,0.00621746,0.00196055,0.00675149,-0.00098018,1.30486,0.00486077,0.0131411,1476,400,4.67405,28.1057
259,624,4.64392,-27.7883,-0.000314846,0.00710812,0.00235002,0.00778955,-0.000996278,1.28857,0.00555499,0.00952796,1483,400,4.64394,27.7883
266,624,4.62891,-27.4548,-0.00013055,0.00804847,0.00285791,0.00894812,-0.0010302,1.26582,0.00633679,0.0130633,1490,400,4.62891,27.4548
273,624,4.60962,-27.1404,0.000101392,0.00896116,0.00342252,0.0101293,-0.00106672,1.24189,0.00713505,0.0162324,1497,400,4.60956,27.1404
280,624,4.59045,-26.8397,0.000666415,0.0100667,0.00408505,0.0115938,-0.000860718,1.21305,0.00803151,0.0151385,1504,400,4.59048,26.8397
287,624,4.55798,-26.5143,0.00143645,0.0112484,0.00491549,0.0132872,-0.000602404,1.17761,0.00906563,0.0115586,1511,400,4.55804,26.5143
294,624,4.52307,-26.1618,0.00209303,0.0122785,0.00571437,0.0148401,-0.000468653,1.14937,0.0100533,0.00975942,1518,400,4.52302,26.1618
301,624,4.49548,-25.754,0.0029075,0.0133345,0.00656614,0.0165052,-0.000263192,1.12093,0.0110923,0.0109529,1525,400,4.49545,25.754
308,624,4.48706,-25.344,0.00393596,0.0143952,0.00742979,0.0182514,7.98451e-05,1.09206,0.012141,0.0148977,1532,400,4.48708,25.344
315,624,4.50635,-24.97,0.0050999,0.0153584,0.00837543,0.0200504,0.0004079,1.06015,0.0132331,0.0183736,1539,400,4.50629,24.97
322,624,4.49023,-24.5986,0.00615355,0.0164125,0.00927283,0.02188,0.000685995,1.03804,0.0143635,0.0300516,1546,400,4.49026,24.5986
329,624,4.48193,-24.1474,0.00702613,0.0172427,0.00992482,0.0232967,0.000972128,1.02307,0.0152174,0.0455828,1553,400,4.48192,24.1474
336,624,4.56104,-23.6646,0.00770008,0.0177487,0.0102314,0.0241228,0.00132596,1.01364,0.0156586,0.0422435,1560,400,4.56101,23.6646
343,624,4.68689,-23.1777,0,0,0,0,0,0,0,-1,1567,400,4.68683,23.1777
350,624,1.99194,-7.29742,0,0,0,0,0,0,0,-1,1574,400,1.99198,7.29741
357,624,2.64075,-3.13092,0,0,0,0,0,0,0,-1,1581,400,2.64076,3.13091
364,624,3.16565,-4.9458,0,0,0,0,0,0,0,-1,1588,400,3.16564,4.94579
371,624,3.37561,-5.23529,0,0,0,0,0,0,0,-1,1595,400,3.37563,5.23529
378,624,1.50439,-5.22165,0,0,0,0,0,0,0,-1,1602,400,1.50438,5.22164
385,624,1.2301,-10.5866,0,0,0,0,0,0,0,-1,1609,400,1.2301,10.5866
392,624,4.26819,-5.14236,0,0,0,0,0,0,0,-1,1616,400,4.26818,5.14236
399,624,2.22168,-9.19293,0,0,0,0,0,0,0,-1,1623,400,2.22173,9.19294
406,624,2.68213,-9.91171,0,0,0,0,0,0,0,-1,1630,400,2.68213,9.91171
413,624,0,0,0,0,0,0,0,0,0,-1,1637,400,0,0
420,624,0,0,0,0,0,0,0,0,0,-1,1644,400,0,0
427,624,0,0,0,0,0,0,0,0,0,-1,1651,400,0,0
434,624,0,0,0,0,0,0,0,0,0,-1,1658,400,0,0
441,624,0,0,0,0,0,0,0,0,0,-1,1665,400,0,0
448,624,0,0,0,0,0,0,0,0,0,-1,1672,400,0,0
455,624,0,0,0,0,0,0,0,0,0,-1,1679,400,0,0
462,624,0,0,0,0,0,0,0,0,0,-1,1686,400,0,0
469,624,0,0,0,0,0,0,0,0,0,-1,1693,400,0,0
476,624,0,0,0,0,0,0,0,0,0,-1,1700,400,0,0
483,624,0,0,0,0,0,0,0,0,0,-1,1707,400,0,0
490,624,0,0,0,0,0,0,0,0,0,-1,1714,400,0,0
497,624,0,0,0,0,0,0,0,0,0,-1,1721,400,0,0
504,624,0,0,0,0,0,0,0,0,0,-1,1728,400,0,0
511,624,0,0,0,0,0,0,0,0,0,-1,1735,400,0,0
518,624,0,0,0,0,0,0,0,0,0,-1,1742,400,0,0
525,624,0,0,0,0,0,0,0,0,0,-1,1749,400,0,0
532,624,0,0,0,0,0,0,0,0,0,-1,1756,400,0,0
539,624,0,0,0,0,0,0,0,0,0,-1,1763,400,0,0
546,624,0,0,0,0,0,0,0,0,0,-1,1770,400,0,0
553,624,0,0,0,0,0,0,0,0,0,-1,1777,400,0,0
560,624,0,0,0,0,0,0,0,0,0,-1,1784,400,0,0
567,624,0,0,0,0,0,0,0,0,0,-1,1791,400,0,0
574,624,0,0,0,0,0,0,0,0,0,-1,1798,400,0,0
581,624,0,0,0,0,0,0,0,0,0,-1,1805,400,0,0
588,624,0,0,0,0,0,0,0,0,0,-1,1812,400,0,0
595,624,0,0,0,0,0,0,0,0,0,-1,1819,400,0,0
602,624,0,0,0,0,0,0,0,0,0,-1,1826,400,0,0
609,624,0,0,0,0,0,0,0,0,0,-1,1833,400,0,0
616,624,0,0,0,0,0,0,0,0,0,-1,1840,400,0,0
623,624,0,0,0,0,0,0,0,0,0,-1,1847,400,0,0
630,624,0,0,0,0,0,0,0,0,0,-1,1854,400,0,0
637,624,0,0,0,0,0,0,0,0,0,-1,1861,400,0,0
644,624,0,0,0,0,0,0,0,0,0,-1,1868,400,0,0
651,624,0,0,0,0,0,0,0,0,0,-1,1875,400,0,0
658,624,0,0,0,0,0,0,0,0,0,-1,1882,400,0,0
665,624,0,0,0,0,0,0,0,0,0,-1,1889,400,0,0
672,624,0,0,0,0,0,0,0,0,0,-1,1896,400,0,0
679,624,0,0,0,0,0,0,0,0,0,-1,1903,400,0,0
686,624,0,0,0,0,0,0,0,0,0,-1,1910,400,0,0
693,624,0,0,0,0,0,0,0,0,0,-1,1917,400,0,0
700,624,0,0,0,0,0,0,0,0,0,-1,1924,400,0,0
707,624,0,0,0,0,0,0,0,0,0,-1,1931,400,0,0
714,624,0,0,0,0,0,0,0,0,0,-1,1938,400,0,0
721,624,0,0,0,0,0,0,0,0,0,-1,1945,400,0,0
728,624,0,0,0,0,0,0,0,0,0,-1,1952,400,0,0
735,624,0,0,0,0,0,0,0,0,0,-1,1959,400,0,0
742,624,0,0,0,0,0,0,0,0,0,-1,1966,400,0,0
749,624,0,0,0,0,0,0,0,0,0,-1,1973,400,0,0
756,624,0,0,0,0,0,0,0,0,0,-1,1980,400,0,0
763,624,0,0,0,0,0,0,0,0,0,-1,1987,400,0,0
770,624,0,0,0,0,0,0,0,0,0,-1,1994,400,0,0
777,624,0,0,0,0,0,0,0,0,0,-1,2001,400,0,0
784,624,0,0,0,0,0,0,0,0,0,-1,2008,400,0,0
791,624,0,0,0,0,0,0,0,0,0,-1,2015,400,0,0
798,624,0,0,0,0,0,0,0,0,0,-1,2022,400,0,0
805,624,0,0,0,0,0,0,0,0,0,-1,2029,400,0,0
812,624,0,0,0,0,0,0,0,0,0,-1,2036,400,0,0
-700,617,0,0,0,0,0,0,0,0,0,-1,524,407,0,0
-693,617,0,0,0,0,0,0,0,0,0,-1,531,407,0,0
-686,617,0,0,0,0,0,0,0,0,0,-1,538,407,0,0
-679,617,0,0,0,0,0,0,0,0,0,-1,545,407,0,0
-672,617,0,0,0,0,0,0,0,0,0,-1,552,407,0,0
-665,617,0,0,0,0,0,0,0,0,0,-1,559,407,0,0
-658,617,0,0,0,0,0,0,0,0,0,-1,566,407,0,0
-651,617,0,0,0,0,0,0,0,0,0,-1,573,407,0,0
-644,617,0,0,0,0,0,0,0,0,0,-1,580,407,0,0
-637,617,0,0,0,0,0,0,0,0,0,-1,587,407,0,0
-630,617,0,0,0,0,0,0,0,0,0,-1,594,407,0,0
-623,617,0,0,0,0,0,0,0,0,0,-1,601,407,0,0
-616,617,0,0,0,0,0,0,0,0,0,-1,608,407,0,0
-609,617,0,0,0,0,0,0,0,0,0,-1,615,407,0,0
-602,617,0,0,0,0,0,0,0,0,0,-1,622,407,0,0
-595,617,0,0,0,0,0,0,0,0,0,-1,629,407,0,0
-588,617,0,0,0,0,0,0,0,0,0,-1,636,407,0,0
-581,617,0,0,0,0,0,0,0,0,0,-1,643,407,0,0
-574,617,0,0,0,0,0,0,0,0,0,-1,650,407,0,0
-567,617,0,0,0,0,0,0,0,0,0,-1,657,407,0,0
-560,617,0,0,0,0,0,0,0,0,0,-1,664,407,0,0
-553,617,0,0,0,0,0,0,0,0,0,-1,671,407,0,0
-546,617,0,0,0,0,0,0,0,0,0,-1,678,407,0,0
-539,617,0,0,0,0,0,0,0,0,0,-1,685,407,0,0
-532,617,0,0,0,0,0,0,0,0,0,-1,692,407,0,0
-525,617,0,0,0,0,0,0,0,0,0,-1,699,407,0,0
-518,617,0,0,0,0,0,0,0,0,0,-1,706,407,0,0
-511,617,0,0,0,0,0,0,0,0,0,-1,713,407,0,0
-504,617,0,0,0,0,0,0,0,0,0,-1,720,407,0,0
-497,617,0,0,0,0,0,0,0,0,0,-1,727,407,0,0
-490,617,0,0,0,0,0,0,0,0,0,-1,734,407,0,0
-483,617,0,0,0,0,0,0,0,0,0,-1,741,407,0,0
-476,617,0,0,0,0,0,0,0,0,0,-1,748,407,0,0
-469,617,0,0,0,0,0,0,0,0,0,-1,755,407,0,0
-462,617,0,0,0,0,0,0,0,0,0,-1,762,407,0,0
-455,617,0,0,0,0,0,0,0,0,0,-1,769,407,0,0
-448,617,0,0,0,0,0,0,0,0,0,-1,776,407,0,0
-441,617,0,0,0,0,0,0,0,0,0,-1,783,407,0,0
-434,617,0,0,0,0,0,0,0,0,0,-1,790,407,0,0
-427,617,0,0,0,0,0,0,0,0,0,-1,797,407,0,0
-420,617,0,0,0,0,0,0,0,0,0,-1,804,407,0,0
-413,617,0,0,0,0,0,0,0,0,0,-1,811,407,0,0
-406,617,0,0,0,0,0,0,0,0,0,-1,818,407,0,0
-399,617,0,0,0,0,0,0,0,0,0,-1,825,407,0,0
-392,617,0,0,0,0,0,0,0,0,0,-1,832,407,0,0
-385,617,0,0,0,0,0,0,0,0,0,-1,839,407,0,0
-378,617,0,0,0,0,0,0,0,0,0,-1,846,407,0,0
-371,617,0,0,0,0,0,0,0,0,0,-1,853,407,0,0
-364,617,0,0,0,0,0,0,0,0,0,-1,860,407,0,0
-357,617,0,0,0,0,0,0,0,0,0,-1,867,407,0,0
-350,617,0,0,0,0,0,0,0,0,0,-1,874,407,0,0
-343,617,0,0,0,0,0,0,0,0,0,-1,881,407,0,0
-336,617,0,0,0,0,0,0,0,0,0,-1,888,407,0,0
-329,617,0,0,0,0,0,0,0,0,0,-1,895,407,0,0
-322,617,0,0,0,0,0,0,0,0,0,-1,902,407,0,0
-315,617,0,0,0,0,0,0,0,0,0,-1,909,407,0,0
-308,617,0,0,0,0,0,0,0,0,0,-1,916,407,0,0
-301,617,6.8504,-26.4473,0,0,0,0,0,0,0,-1,923,407,6.85041,26.4473
-294,617,8.41962,-26.4389,0,0,0,0,0,0,0,-1,930,407,8.41964,26.4389
-287,617,9.90497,-26.4554,0,0,0,0,0,0,0,-1,937,407,9.90498,26.4554
-280,617,10.8925,-26.4269,0,0,0,0,0,0,0,-1,944,407,10.8924,26.4269
-273,617,2.42114,-9.26978,0,0,0,0,0,0,0,-1,951,407,2.42112,9.26979
-266,617,1.25659,-18.489,0,0,0,0,0,0,0,-1,958,407,1.25662,18.489
-259,617,2.80859,-20.0673,0,0,0,0,0,0,0,-1,965,407,2.80857,20.0673
-252,617,6.30573,-25.6465,0,0,0,0,0,0,0,-1,972,407,6.30575,25.6465
-245,617,5.1767,-24.8565,-0.0227637,-0.0469048,-0.00759049,-0.0205754,-0.0490931,-0.280679,0.0284673,0.0410498,979,407,5.17671,24.8565
-238,617,4.2309,-24.2819,-0.0208289,-0.0389399,-0.00650068,-0.0187372,-0.0410317,-0.31131,0.0237193,0.0489069,986,407,4.23092,24.2819
-231,617,3.40619,-23.6563,0,0,0,0,0,0,0,-1,993,407,3.40617,23.6562
-224,617,3.44086,-23.3628,-0.00899893,-0.0250779,-0.00758354,-0.00598656,-0.0280902,-0.378112,0.0170846,0.0494108,1000,407,3.44085,23.3627
-217,617,4.29645,-24.2422,-0.00178286,-0.0211207,-0.00869372,0.00155086,-0.0244544,-0.36617,0.0168437,0.042542,1007,407,4.29644,24.2422
-210,617,4.2066,-24.7805,0.00345581,-0.0158574,-0.00912236,0.0070833,-0.0194849,-0.378478,0.0158865,0.0285794,1014,407,4.2066,24.7805
-203,617,4.15686,-25.1391,0.00774431,-0.0128229,-0.00932614,0.0113434,-0.016422,-0.368306,0.0161195,0.0212256,1021,407,4.15686,25.1391
-196,617,4.11621,-25.471,0.0108684,-0.0098737,-0.00897605,0.0142134,-0.0132186,-0.356709,0.0158413,0.0160048,1028,407,4.11626,25.4711
-189,617,4.03674,-25.8526,0.0140117,-0.00619527,-0.00959808,0.0178439,-0.0100275,-0.379875,0.0163011,0.0143733,1035,407,4.03677,25.8526
-182,617,4.03601,-26.2174,0.0159331,-0.00389337,-0.00974652,0.0199219,-0.00788218,-0.388459,0.0165468,0.016257,1042,407,4.03606,26.2174
-175,617,4.03516,-26.5317,0.0141693,-0.00443295,-0.00846891,0.0174472,-0.00771091,-0.369301,0.0148832,0.0147846,1049,407,4.03515,26.5317
-168,617,4.00891,-26.8885,0.0116161,-0.00458579,-0.00684662,0.0141218,-0.00709152,-0.35084,0.0124697,0.0110055,1056,407,4.0089,26.8885
-161,617,3.97803,-27.2392,0.00949851,-0.00381297,-0.00579894,0.0116704,-0.00598484,-0.358356,0.0103679,0.0109968,1063,407,3.97808,27.2392
-154,617,3.95239,-27.5521,0.00762721,-0.00259033,-0.00478779,0.00952005,-0.00448316,-0.376488,0.00825725,0.01072,1070,407,3.95245,27.5521
-147,617,3.94568,-27.8669,0.00589845,-0.00150259,-0.00391034,0.00758167,-0.00318581,-0.40648,0.00638696,0.0154757,1077,407,3.94566,27.8669
-140,617,3.94165,-28.1822,0.00436453,-0.000330883,-0.00309811,0.00590399,-0.00187034,-0.461165,0.00468557,0.012585,1084,407,3.94164,28.1822
-133,617,3.92712,-28.4408,0.00303432,0.000681072,-0.00234565,0.00448192,-0.000766524,-0.552927,0.00327351,0.014548,1091,407,3.92718,28.4408
-126,617,3.90674,-28.6823,0.00169935,0.00170855,-0.00168715,0.00339111,1.68011e-05,-0.786761,0.00225516,0.0134361,1098,407,3.90677,28.6823
-119,617,3.87512,-28.9702,0.000851275,0.00244978,-0.00124451,0.00312959,0.000171472,-1.07084,0.00203165,0.0135734,1105,407,3.87514,28.9703
-112,617,3.89209,-29.224,0.000378927,0.0029093,-0.000866297,0.00317747,0.000110762,-1.2706,0.00208237,0.0158396,1112,407,3.89206,29.224
-105,617,3.89429,-29.4738,0.000468872,0.00260062,-0.00077619,0.00285329,0.000216202,-1.25609,0.00183438,0.0160995,1119,407,3.89432,29.4738
-98,617,3.89819,-29.7199,0.000541043,0.00219326,-0.000682477,0.0024387,0.000295597,-1.22556,0.00153678,0.0133237,1126,407,3.89819,29.7199
-91,617,3.90698,-29.9331,0.000688453,0.00180549,-0.000616263,0.00207867,0.000415273,-1.15354,0.00127019,0.0197022,1133,407,3.90694,29.9331
-84,617,3.91406,-30.1692,0.000900909,0.0013584,-0.000502955,0.00168218,0.000577126,-0.998819,0.000987024,0.0193019,1140,407,3.9141,30.1692
-77,617,3.92114,-30.4049,0.00117331,0.000990046,-0.000373153,0.00146592,0.00069744,-0.664998,0.00084668,0.0139571,1147,407,3.92112,30.4049
-70,617,3.94995,-30.5941,0.00168237,0.000812371,-0.000242329,0.00174531,0.000749427,-0.254132,0.001011,0.0146823,1154,407,3.94993,30.5941
-63,617,3.96936,-30.7939,0.0020331,0.000353398,-2.34186e-05,0.00203343,0.000353071,-0.0139385,0.0012546,0.015753,1161,407,3.96931,30.7939
-56,617,3.94519,-31.015,0.00232532,-0.000263384,0.000227275,0.00234512,-0.000283186,0.0869089,0.00166585,0.0119014,1168,407,3.9452,31.015
-49,617,3.95435,-31.192,0.00256355,-0.000971198,0.000481606,0.002628,-0.00103564,0.133019,0.00218078,0.00992968,1175,407,3.95439,31.192
-42,617,3.98254,-31.3594,0.00397656,-0.0017677,0.000821048,0.00409161,-0.00188275,0.13922,0.00352701,0.0108234,1182,407,3.98253,31.3594
-35,617,4.01477,-31.5038,0.00533375,-0.00276495,0.000973422,0.00544911,-0.00288031,0.117957,0.00488463,0.0163134,1189,407,4.01472,31.5038
-28,617,4.01355,-31.6431,0.00586882,-0.00344587,0.000665549,0.00591613,-0.00349318,0.0709711,0.00549218,0.020016,1196,407,4.01351,31.6431
-21,617,4.04407,-31.7704,0.00560734,-0.00453107,0.000236031,0.00561283,-0.00453657,0.0232641,0.00587073,0.0141279,1203,407,4.04406,31.7704
-14,617,4.04639,-31.8642,0.00575187,-0.00544238,-0.000294836,0.00575963,-0.00545014,-0.0263138,0.00647279,0.0154221,1210,407,4.04637,31.8642
-7,617,4.05713,-31.939,0.00605466,-0.0065185,-0.00088724,0.00611696,-0.0065808,-0.0701032,0.00733269,0.0189369,1217,407,4.0571,31.939
0,617,4.10156,-32.0502,0.00606597,-0.00726766,-0.00143015,0.00621764,-0.00741933,-0.105658,0.00788349,0.0155804,1224,407,4.1016,32.0502
7,617,4.15002,-32.1942,0.00563759,-0.0080858,-0.00174335,0.00585559,-0.0083038,-0.124403,0.00821556,0.0115628,1231,407,4.15003,32.1942
14,617,4.17773,-32.2692,0.00497691,-0.00908508,-0.00160936,0.00515874,-0.00926692,-0.11251,0.00844049,0.0135462,1238,407,4.17772,32.2692
21,617,4.20215,-32.3141,0.0043216,-0.0100385,-0.00120436,0.0044219,-0.0101388,-0.0830951,0.00861993,0.0127001,1245,407,4.20218,32.3141
28,617,4.23682,-32.3944,0.00369741,-0.0106921,-0.000465287,0.00371244,-0.0107072,-0.0322901,0.0086455,0.0108158,1252,407,4.23684,32.3944
35,617,4.21912,-32.4512,0.00332745,-0.0112534,0.000717141,0.00336264,-0.0112886,0.049026,0.00886188,0.0137357,1259,407,4.2191,32.4512
42,617,4.29724,-32.4406,0.00340783,-0.0115033,0.00246095,0.00380349,-0.0118989,0.159411,0.00945887,0.0212529,1266,407,4.2973,32.4406
49,617,4.33997,-32.448,0.00396472,-0.0115399,0.00459614,0.00522478,-0.0128,0.267582,0.0107086,0.0208467,1273,407,4.33994,32.448
56,617,4.36426,-32.4567,0.00562332,-0.0113562,0.00640969,0.00777123,-0.0135042,0.323343,0.0124311,0.0144879,1280,407,4.36431,32.4567
63,617,4.40222,-32.4556,0.00717928,-0.0101299,0.00851601,0.0106665,-0.0136172,0.388663,0.0140547,0.0109141,1287,407,4.40216,32.4556
70,617,4.42578,-32.4508,0.00816185,-0.009496,0.0109556,0.0134033,-0.0147375,0.44624,0.0162532,0.0164828,1294,407,4.42574,32.4508
77,617,4.48755,-32.4083,0.0100625,-0.00860064,0.012784,0.0165584,-0.0150965,0.470128,0.0182825,0.0142896,1301,407,4.48753,32.4083
84,617,4.53186,-32.39,0.0121608,-0.00738784,0.0141156,0.0195559,-0.0147829,0.482578,0.0198892,0.0106935,1308,407,4.53184,32.39
91,617,4.55945,-32.3434,0.0134806,-0.00638781,0.0150002,0.021538,-0.0144451,0.492922,0.020909,0.0107749,1315,407,4.55939,32.3434
98,617,4.60571,-32.2865,0.0142137,-0.00620972,0.015074,0.0222093,-0.0142053,0.487687,0.0211926,0.0120198,1322,407,4.60575,32.2865
105,617,4.63538,-32.2049,0.0147513,-0.00663777,0.0142407,0.021866,-0.0137525,0.463333,0.0207414,0.0131756,1329,407,4.63532,32.2049
112,617,4.66431,-32.1365,0.0149964,-0.00714527,0.0126714,0.0207519,-0.0129008,0.426355,0.0196049,0.0158167,1336,407,4.66433,32.1365
119,617,4.65955,-32.0428,0.0146341,-0.00771583,0.0106388,0.0188884,-0.0119702,0.380412,0.0179649,0.0194297,1343,407,4.6596,32.0428
126,617,4.64587,-31.8996,0.013772,-0.00862219,0.00849559,0.0166302,-0.0114803,0.324533,0.0163201,0.022164,1350,407,4.64584,31.8996
133,617,4.69238,-31.7755,0.0125893,-0.00994088,0.00631802,0.0142401,-0.0115917,0.255567,0.0149401,0.0195152,1357,407,4.69239,31.7755
140,617,4.76428,-31.658,0.0112869,-0.0110157,0.00430761,0.0120899,-0.0118188,0.184315,0.013804,0.0170463,1364,407,4.76428,31.658
147,617,4.81091,-31.4895,0.00997707,-0.0118596,0.0024241,0.0102429,-0.0121254,0.109239,0.0129296,0.0194876,1371,407,4.81091,31.4895
154,617,4.8457,-31.3683,0.0088491,-0.0121374,0.000864745,0.00888467,-0.012173,0.0411119,0.012207,0.0209508,1378,407,4.84568,31.3683
161,617,4.8783,-31.2329,0.00738216,-0.0117673,2.30174e-05,0.00738219,-0.0117674,0.00120198,0.0111522,0.0229387,1385,407,4.87825,31.2329
168,617,4.90259,-31.0798,0.00647539,-0.0116736,-0.00101632,0.00653212,-0.0117303,-0.0557663,0.0106853,0.0222791,1392,407,4.90255,31.0798
175,617,4.88904,-30.9016,0.00645292,-0.0098351,-0.00212231,0.00672491,-0.0101071,-0.127464,0.00978314,0.0178144,1399,407,4.88901,30.9016
182,617,4.91504,-30.6642,0.00559127,-0.0078367,-0.00174076,0.00581326,-0.0080587,-0.126844,0.00804388,0.0116181,1406,407,4.91506,30.6642
189,617,4.9198,-30.4387,0.0047342,-0.0056752,-0.00127151,0.00488727,-0.00582826,-0.119804,0.00619456,0.0112611,1413,407,4.91983,30.4387
196,617,4.91248,-30.2112,0.00398014,-0.00370332,-0.000803624,0.0040633,-0.00378647,-0.103105,0.004533,0.0148163,1420,407,4.91249,30.2112
203,617,4.9292,-30.0016,0.00293449,-0.00114074,-0.000415998,0.00297652,-0.00118277,-0.100696,0.00247468,0.015115,1427,407,4.92924,30.0016
210,617,4.94849,-29.741,0.00184919,0.000860202,7.32194e-05,0.00185458,0.00085481,0.0735003,0.00107183,0.0146124,1434,407,4.94846,29.741
217,617,4.9375,-29.466,0.00111857,0.00208881,0.000450588,0.00226579,0.000941597,1.19654,0.00131436,0.020304,1441,407,4.93745,29.466
224,617,4.94678,-29.2337,0.000873734,0.00267699,0.000706079,0.00292056,0.000630164,1.23862,0.00177468,0.0193249,1448,407,4.94678,29.2337
231,617,4.97107,-28.9849,0.000661368,0.00322058,0.000995964,0.0035625,0.000319451,1.2401,0.002276,0.0138795,1455,407,4.97111,28.9849
238,617,4.96448,-28.7167,0.000518257,0.00382947,0.00129813,0.00427771,7.00129e-05,1.23832,0.00282876,0.0149384,1462,407,4.96445,28.7167
245,617,4.96448,-28.4447,0.00037566,0.00438064,0.00148337,0.00487021,-0.000113911,1.25201,0.00328543,0.0126633,1469,407,4.96444,28.4447
252,617,4.95557,-28.1203,0.000309422,0.0049531,0.00166299,0.00548721,-0.000224694,1.26003,0.00373529,0.0137423,1476,407,4.95556,28.1203
259,617,4.94128,-27.7896,0.000293019,0.00559463,0.00194378,0.00623093,-0.000343281,1.25444,0.00427298,0.0119228,1483,407,4.94123,27.7896
266,617,4.91003,-27.466,0.000322578,0.00625602,0.00230578,0.0070467,-0.0004681,1.24045,0.00486135,0.0137865,1490,407,4.91001,27.466
273,617,4.89954,-27.1448,0.000397063,0.0069242,0.00271473,0.00790571,-0.000584443,1.22387,0.00547569,0.0144455,1497,407,4.89956,27.1448
280,617,4.88977,-26.8426,0.000704221,0.00771683,0.00319656,0.00895522,-0.000534171,1.20119,0.00615594,0.0130876,1504,407,4.88975,26.8426
287,617,4.86511,-26.5038,0.00120389,0.00863547,0.00384083,0.0102638,-0.00042439,1.16982,0.00698826,0.0124209,1511,407,4.86515,26.5037
294,617,4.85278,-26.1575,0.00161538,0.00943023,0.00444957,0.0114445,-0.000398905,1.14571,0.00776606,0.0100246,1518,407,4.85276,26.1575
301,617,4.83179,-25.7923,0.00213267,0.0102666,0.00511151,0.0127317,-0.000332425,1.12144,0.00860073,0.0081176,1525,407,4.83181,25.7923
308,617,4.8136,-25.4261,0.00280179,0.0111166,0.00579802,0.0140937,-0.000175294,1.09643,0.00945479,0.00831266,1532,407,4.81366,25.4262
315,617,4.80383,-25.0717,0.00354897,0.0119049,0.00651764,0.0154687,-1.48313e-05,1.07042,0.0103174,0.00928122,1539,407,4.80383,25.0717
322,617,4.76636,-24.6873,0.00418724,0.0127338,0.0071938,0.0168278,9.32105e-05,1.0534,0.0111876,0.0137265,1546,407,4.76634,24.6873
329,617,4.75098,-24.2983,0.00464478,0.0133428,0.00769846,0.0178358,0.00015184,1.04251,0.0118402,0.0158169,1553,407,4.75099,24.2983
336,617,4.80591,-23.8091,0.00491007,0.0137129,0.00796081,0.018408,0.000214942,1.03793,0.012201,0.0268841,1560,407,4.80592,23.8091
343,617,4.68115,-23.4257,0,0,0,0,0,0,0,-1,1567,407,4.68117,23.4257
350,617,4.73792,-22.9148,0,0,0,0,0,0,0,-1,1574,407,4.73788,22.9148
357,617,2.1748,-7.16504,0,0,0,0,0,0,0,-1,1581,407,2.1748,7.16505
364,617,2.30127,-7.60257,0,0,0,0,0,0,0,-1,1588,407,2.30125,7.60258
371,617,2.60266,-6.20667,0,0,0,0,0,0,0,-1,1595,407,2.60261,6.20668
378,617,1.56921,-10.3601,0,0,0,0,0,0,0,-1,1602,407,1.56918,10.3601
385,617,1.74146,-10.3561,0,0,0,0,0,0,0,-1,1609,407,1.7414,10.3561
392,617,1.96936,-5.10449,0,0,0,0,0,0,0,-1,1616,407,1.96931,5.10451
399,617,2.48889,-5.81256,0,0,0,0,0,0,0,-1,1623,407,2.48888,5.81255
406,617,3.01465,-6.51642,0,0,0,0,0,0,0,-1,1630,407,3.01461,6.51643
413,617,3.6427,-7.2074,0,0,0,0,0,0,0,-1,1637,407,3.64274,7.20739
420,617,3.42737,-4.47391,0,0,0,0,0,0,0,-1,1644,407,3.42737,4.47391
427,617,0,0,0,0,0,0,0,0,0,-1,1651,407,0,0
434,617,0,0,0,0,0,0,0,0,0,-1,1658,407,0,0
441,617,0,0,0,0,0,0,0,0,0,-1,1665,407,0,0
448,617,0,0,0,0,0,0,0,0,0,-1,1672,407,0,0
455,617,0,0,0,0,0,0,0,0,0,-1,1679,407,0,0
462,617,0,0,0,0,0,0,0,0,0,-1,1686,407,0,0
469,617,0,0,0,0,0,0,0,0,0,-1,1693,407,0,0
476,617,0,0,0,0,0,0,0,0,0,-1,1700,407,0,0
483,617,0,0,0,0,0,0,0,0,0,-1,1707,407,0,0
490,617,0,0,0,0,0,0,0,0,0,-1,1714,407,0,0
497,617,0,0,0,0,0,0,0,0,0,-1,1721,407,0,0
504,617,0,0,0,0,0,0,0,0,0,-1,1728,407,0,0
511,617,0,0,0,0,0,0,0,0,0,-1,1735,407,0,0
518,617,0,0,0,0,0,0,0,0,0,-1,1742,407,0,0
525,617,0,0,0,0,0,0,0,0,0,-1,1749,407,0,0
532,617,0,0,0,0,0,0,0,0,0,-1,1756,407,0,0
539,617,0,0,0,0,0,0,0,0,0,-1,1763,407,0,0
546,617,0,0,0,0,0,0,0,0,0,-1,1770,407,0,0
553,617,0,0,0,0,0,0,0,0,0,-1,1777,407,0,0
560,617,0,0,0,0,0,0,0,0,0,-1,1784,407,0,0
567,617,0,0,0,0,0,0,0,0,0,-1,1791,407,0,0
574,617,0,0,0,0,0,0,0,0,0,-1,1798,407,0,0
581,617,0,0,0,0,0,0,0,0,0,-1,1805,407,0,0
588,617,0,0,0,0,0,0,0,0,0,-1,1812,407,0,0
595,617,0,0,0,0,0,0,0,0,0,-1,1819,407,0,0
602,617,0,0,0,0,0,0,0,0,0,-1,1826,407,0,0
609,617,0,0,0,0,0,0,0,0,0,-1,1833,407,0,0
616,617,0,0,0,0,0,0,0,0,0,-1,1840,407,0,0
623,617,0,0,0,0,0,0,0,0,0,-1,1847,407,0,0
630,617,0,0,0,0,0,0,0,0,0,-1,1854,407,0,0
637,617,0,0,0,0,0,0,0,0,0,-1,1861,407,0,0
644,617,0,0,0,0,0,0,0,0,0,-1,1868,407,0,0
651,617,0,0,0,0,0,0,0,0,0,-1,1875,407,0,0
658,617,0,0,0,0,0,0,0,0,0,-1,1882,407,0,0
665,617,0,0,0,0,0,0,0,0,0,-1,1889,407,0,0
672,617,0,0,0,0,0,0,0,0,0,-1,1896,407,0,0
679,617,0,0,0,0,0,0,0,0,0,-1,1903,407,0,0
686,617,0,0,0,0,0,0,0,0,0,-1,1910,407,0,0
693,617,0,0,0,0,0,0,0,0,0,-1,1917,407,0,0
700,617,0,0,0,0,0,0,0,0,0,-1,1924,407,0,0
707,617,0,0,0,0,0,0,0,0,0,-1,1931,407,0,0
714,617,0,0,0,0,0,0,0,0,0,-1,1938,407,0,0
721,617,0,0,0,0,0,0,0,0,0,-1,1945,407,0,0
728,617,0,0,0,0,0,0,0,0,0,-1,1952,407,0,0
735,617,0,0,0,0,0,0,0,0,0,-1,1959,407,0,0
742,617,0,0,0,0,0,0,0,0,0,-1,1966,407,0,0
749,617,0,0,0,0,0,0,0,0,0,-1,1973,407,0,0
756,617,0,0,0,0,0,0,0,0,0,-1,1980,407,0,0
763,617,0,0,0,0,0,0,0,0,0,-1,1987,407,0,0
770,617,0,0,0,0,0,0,0,0,0,-1,1994,407,0,0
777,617,0,0,0,0,0,0,0,0,0,-1,2001,407,0,0
784,617,0,0,0,0,0,0,0,0,0,-1,2008,407,0,0
791,617,0,0,0,0,0,0,0,0,0,-1,2015,407,0,0
798,617,0,0,0,0,0,0,0,0,0,-1,2022,407,0,0
805,617,0,0,0,0,0,0,0,0,0,-1,2029,407,0,0
812,617,0,0,0,0,0,0,0,0,0,-1,2036,407,0,0
-700,610,0,0,0,0,0,0,0,0,0,-1,524,414,0,0
-693,610,0,0,0,0,0,0,0,0,0,-1,531,414,0,0
-686,610,0,0,0,0,0,0,0,0,0,-1,538,414,0,0
-679,610,0,0,0,0,0,0,0,0,0,-1,545,414,0,0
-672,610,0,0,0,0,0,0,0,0,0,-1,552,414,0,0
-665,610,0,0,0,0,0,0,0,0,0,-1,559,414,0,0
-658,610,0,0,0,0,0,0,0,0,0,-1,566,414,0,0
-651,610,0,0,0,0,0,0,0,0,0,-1,573,414,0,0
-644,610,0,0,0,0,0,0,0,0,0,-1,580,414,0,0
-637,610,0,0,0,0,0,0,0,0,0,-1,587,414,0,0
-630,610,0,0,0,0,0,0,0,0,0,-1,594,414,0,0
-623,610,0,0,0,0,0,0,0,0,0,-1,601,414,0,0
-616,610,0,0,0,0,0,0,0,0,0,-1,608,414,0,0
-609,610,0,0,0,0,0,0,0,0,0,-1,615,414,0,0
-602,610,0,0,0,0,0,0,0,0,0,-1,622,414,0,0
-595,610,0,0,0,0,0,0,0,0,0,-1,629,414,0,0
-588,610,0,0,0,0,0,0,0,0,0,-1,636,414,0,0
-581,610,0,0,0,0,0,0,0,0,0,-1,643,414,0,0
-574,610,0,0,0,0,0,0,0,0,0,-1,650,414,0,0
-567,610,0,0,0,0,0,0,0,0,0,-1,657,414,0,0
-560,610,0,0,0,0,0,0,0,0,0,-1,664,414,0,0
-553,610,0,0,0,0,0,0,0,0,0,-1,671,414,0,0
-546,610,0,0,0,0,0,0,0,0,0,-1,678,414,0,0
-539,610,0,0,0,0,0,0,0,0,0,-1,685,414,0,0
-532,610,0,0,0,0,0,0,0,0,0,-1,692,414,0,0
-525,610,0,0,0,0,0,0,0,0,0,-1,699,414,0,0
-518,610,0,0,0,0,0,0,0,0,0,-1,706,414,0,0
-511,610,0,0,0,0,0,0,0,0,0,-1,713,414,0,0
-504,610,0,0,0,0,0,0,0,0,0,-1,720,414,0,0
-497,610,0,0,0,0,0,0,0,0,0,-1,727,414,0,0
-490,610,0,0,0,0,0,0,0,0,0,-1,734,414,0,0
-483,610,0,0,0,0,0,0,0,0,0,-1,741,414,0,0
-476,610,0,0,0,0,0,0,0,0,0,-1,748,414,0,0
-469,610,0,0,0,0,0,0,0,0,0,-1,755,414,0,0
-462,610,0,0,0,0,0,0,0,0,0,-1,762,414,0,0
-455,610,0,0,0,0,0,0,0,0,0,-1,769,414,0,0
-448,610,0,0,0,0,0,0,0,0,0,-1,776,414,0,0
-441,610,0,0,0,0,0,0,0,0,0,-1,783,414,0,0
-434,610,0,0,0,0,0,0,0,0,0,-1,790,414,0,0
-427,610,0,0,0,0,0,0,0,0,0,-1,797,414,0,0
-420,610,0,0,0,0,0,0,0,0,0,-1,804,414,0,0
-413,610,0,0,0,0,0,0,0,0,0,-1,811,414,0,0
-406,610,0,0,0,0,0,0,0,0,0,-1,818,414,0,0
-399,610,0,0,0,0,0,0,0,0,0,-1,825,414,0,0
-392,610,0,0,0,0,0,0,0,0,0,-1,832,414,0,0
-385,610,0,0,0,0,0,0,0,0,0,-1,839,414,0,0
-378,610,0,0,0,0,0,0,0,0,0,-1,846,414,0,0
-371,610,0,0,0,0,0,0,0,0,0,-1,853,414,0,0
-364,610,0,0,0,0,0,0,0,0,0,-1,860,414,0,0
-357,610,0,0,0,0,0,0,0,0,0,-1,867,414,0,0
-350,610,0,0,0,0,0,0,0,0,0,-1,874,414,0,0
-343,610,0,0,0,0,0,0,0,0,0,-1,881,414,0,0
-336,610,0,0,0,0,0,0,0,0,0,-1,888,414,0,0
-329,610,0,0,0,0,0,0,0,0,0,-1,895,414,0,0
-322,610,0,0,0,0,0,0,0,0,0,-1,902,414,0,0
-315,610,8.08594,-20.6403,0,0,0,0,0,0,0,-1,909,414,8.08595,20.6403
-308,610,3.97559,-24.1635,0,0,0,0,0,0,0,-1,916,414,3.97556,24.1635
-301,610,4.95953,-24.3575,0,0,0,0,0,0,0,-1,923,414,4.95952,24.3575
-294,610,6.20813,-24.3114,0,0,0,0,0,0,0,-1,930,414,6.20815,24.3114
-287,610,7.50171,-24.324,0,0,0,0,0,0,0,-1,937,414,7.50172,24.324
-280,610,8.79181,-24.2909,0,0,0,0,0,0,0,-1,944,414,8.79181,24.2909
-273,610,10.1611,-24.5126,0,0,0,0,0,0,0,-1,951,414,10.1611,24.5126
-266,610,4.5285,-20.0554,0,0,0,0,0,0,0,-1,958,414,4.52852,20.0554
-259,610,3.6272,-23.1905,0,0,0,0,0,0,0,-1,965,414,3.62718,23.1905
-252,610,3.51263,-23.4322,-0.0166083,-0.039802,-0.00703706,-0.0146402,-0.0417701,-0.272705,0.0244727,0.0437194,972,414,3.51265,23.4322
-245,610,3.95422,-23.4711,-0.0155598,-0.0345064,-0.00544087,-0.0141086,-0.0359577,-0.260668,0.0209199,0.0432655,979,414,3.9542,23.4711
-238,610,4.11182,-23.7553,-0.0141985,-0.0284194,-0.00442694,-0.012933,-0.0296849,-0.278434,0.0171858,0.044968,986,414,4.1118,23.7553
-231,610,3.65857,-23.3237,-0.0108288,-0.0220621,-0.00463048,-0.00916619,-0.0237248,-0.344727,0.0138149,0.037853,993,414,3.65854,23.3237
-224,610,3.77716,-23.8999,-0.00656766,-0.0166864,-0.00508005,-0.00445736,-0.0187967,-0.39372,0.0113412,0.0266236,1000,414,3.77714,23.8999
-217,610,3.85162,-24.4026,-0.00221607,-0.0127895,-0.00579757,0.000343313,-0.0153489,-0.415727,0.0103489,0.017846,1007,414,3.85162,24.4026
-210,610,3.83124,-24.8263,0.00109522,-0.00848037,-0.00608286,0.0040485,-0.0114336,-0.451987,0.00927141,0.0121165,1014,414,3.83123,24.8263
-203,610,3.80933,-25.2023,0.00378197,-0.00608155,-0.00619235,0.00676649,-0.00906607,-0.449119,0.00917302,0.0139945,1021,414,3.80928,25.2023
-196,610,3.78918,-25.5672,0.00560198,-0.00375633,-0.00591656,0.00846605,-0.0066204,-0.450828,0.00873186,0.013858,1028,414,3.78914,25.5672
-189,610,3.77466,-25.9195,0.0076677,-0.00116926,-0.00638121,0.0110108,-0.00451241,-0.482588,0.00922041,0.0113556,1035,414,3.77464,25.9195
-182,610,3.7478,-26.2388,0.00900876,0.00012942,-0.00638752,0.012348,-0.0032098,-0.481699,0.00948472,0.0121559,1042,414,3.74786,26.2388
-175,610,3.72546,-26.5524,0.00797985,-0.00089314,-0.00541517,0.0105438,-0.00345711,-0.442207,0.00842154,0.0126676,1049,414,3.72548,26.5524
-168,610,3.69031,-26.8925,0.00632234,-0.00160919,-0.00415721,0.00810198,-0.00338883,-0.404481,0.0068177,0.0118833,1056,414,3.69029,26.8925
-161,610,3.6731,-27.273,0.0050666,-0.00161001,-0.00341464,0.00650365,-0.00304706,-0.398351,0.0056332,0.0115925,1063,414,3.67309,27.273
-154,610,3.67737,-27.598,0.00404917,-0.00128078,-0.0027168,0.00518986,-0.00242147,-0.397514,0.00449025,0.0139934,1070,414,3.67738,27.5979
-147,610,3.68518,-27.8899,0.00311735,-0.00102675,-0.00211936,0.00400926,-0.00191866,-0.398342,0.00349272,0.0158678,1077,414,3.68518,27.8898
-140,610,3.67981,-28.1684,0.00231641,-0.000665725,-0.00157776,0.00299619,-0.00134551,-0.406819,0.00256636,0.0126351,1084,414,3.67981,28.1684
-133,610,3.66638,-28.4238,0.00163966,-0.000373506,-0.00108068,0.00210992,-0.000843772,-0.410442,0.00175677,0.014352,1091,414,3.66635,28.4238
-126,610,3.65149,-28.6898,0.00102513,-4.51559e-05,-0.000701846,0.00137258,-0.000392604,-0.459679,0.0010702,0.0131323,1098,414,3.65151,28.6898
-119,610,3.63672,-28.9646,0.000767824,0.000133694,-0.000475038,0.00102189,-0.000120373,-0.491125,0.000724724,0.0113105,1105,414,3.63669,28.9646
-112,610,3.6532,-29.2149,0.000806487,9.67162e-05,-0.000345641,0.000946992,-4.37885e-05,-0.386101,0.000646419,0.0192978,1112,414,3.65315,29.2149
-105,610,3.65979,-29.4689,0.000979591,-0.000114317,-0.000338182,0.0010757,-0.000210422,-0.276883,0.00079659,0.018981,1119,414,3.65977,29.4689
-98,610,3.67346,-29.7075,0.00116655,-0.000362803,-0.000303122,0.00122444,-0.000420691,-0.188702,0.000986881,0.0130666,1126,414,3.67352,29.7075
-91,610,3.68311,-29.9352,0.00140529,-0.000536893,-0.000304641,0.00145195,-0.000583557,-0.151994,0.00121032,0.0141166,1133,414,3.68313,29.9352
-84,610,3.69153,-30.1774,0.00166896,-0.000712379,-0.000282161,0.00170194,-0.000745355,-0.116342,0.00144848,0.0144467,1140,414,3.69153,30.1774
-77,610,3.69885,-30.4243,0.0021286,-0.000780873,-0.000231915,0.00214697,-0.000799243,-0.0790452,0.00175932,0.0115771,1147,414,3.69888,30.4243
-70,610,3.73755,-30.6302,0.00305236,-0.000558978,-0.000134566,0.00305737,-0.000563986,-0.0371933,0.00224993,0.0141788,1154,414,3.73756,30.6302
-63,610,3.76343,-30.8225,0.00352128,-0.000894042,0.000138254,0.0035256,-0.000898367,0.0312715,0.00270014,0.0128096,1161,414,3.76346,30.8225
-56,610,3.77124,-31.0107,0.00388796,-0.0015259,0.00049094,0.00393212,-0.00157006,0.089707,0.0032728,0.0103101,1168,414,3.77121,31.0107
-49,610,3.78333,-31.1793,0.00412365,-0.00226169,0.000830033,0.00422978,-0.00236782,0.127175,0.00385936,0.0110874,1175,414,3.78337,31.1793
-42,610,3.79712,-31.3473,0.00669999,-0.00313992,0.0014167,0.0068999,-0.00333983,0.140183,0.00602983,0.0149544,1182,414,3.79708,31.3473
-35,610,3.84167,-31.4915,0.00900352,-0.00432885,0.00159771,0.00919231,-0.00451764,0.117618,0.00806736,0.0150576,1189,414,3.84166,31.4915
-28,610,3.88794,-31.6323,0.00959364,-0.00496306,0.000898352,0.00964887,-0.00501829,0.0614034,0.00860761,0.0134079,1196,414,3.88788,31.6323
-21,610,3.92114,-31.7404,0.00766729,-0.00616649,0.000641428,0.00769697,-0.00619617,0.0462345,0.00803679,0.0113674,1203,414,3.92115,31.7404
-14,610,3.94238,-31.8367,0.00716242,-0.00712973,8.71779e-05,0.00716296,-0.00713026,0.0060994,0.0082522,0.0128152,1210,414,3.94238,31.8367
-7,610,3.97473,-31.9181,0.00736253,-0.0084871,-0.000689119,0.00739244,-0.00851701,-0.0433694,0.00919297,0.0144775,1217,414,3.97471,31.9181
0,610,4.01404,-32.045,0.0072181,-0.00936788,-0.00146968,0.00734732,-0.0094971,-0.087699,0.00975149,0.0100992,1224,414,4.01404,32.045
7,610,4.05322,-32.1657,0.00627126,-0.0104224,-0.0017672,0.00645628,-0.0106074,-0.10432,0.00994842,0.0116022,1231,414,4.05325,32.1657
14,610,4.14233,-32.2066,0.00504909,-0.00979527,-0.00176173,0.00525531,-0.0100015,-0.116524,0.00894946,0.0158524,1238,414,4.14236,32.2066
21,610,4.19519,-32.2314,0.00411868,-0.00836993,-0.00223916,0.00450802,-0.00875927,-0.172155,0.00778985,0.0146463,1245,414,4.1952,32.2314
28,610,4.18262,-32.3276,0.00330735,-0.00534632,-0.00269307,0.004077,-0.00611597,-0.278367,0.00592403,0.0146082,1252,414,4.18261,32.3276
35,610,4.29639,-32.3778,0.00283376,-0.00291428,-0.00226138,0.00361676,-0.00369729,-0.333331,0.00422286,0.018121,1259,414,4.29644,32.3778
42,610,4.3175,-32.3759,0.00331013,0.000379391,-0.00114721,0.00370578,-1.6258e-05,-0.332107,0.00247596,0.0168261,1266,414,4.31751,32.3759
49,610,4.32751,-32.4399,0.0046158,0.00406125,0.000474396,0.00488801,0.00378904,0.520934,0.00296112,0.0162347,1273,414,4.32747,32.44
56,610,4.37427,-32.4361,0.00739073,0.00753693,0.00179218,0.0092575,0.00567016,0.805781,0.00538972,0.0146301,1280,414,4.37429,32.4361
63,610,4.34998,-32.3927,0.0100004,0.0115191,0.00378215,0.0146174,0.00690215,0.884467,0.00844372,0.0201368,1287,414,4.34993,32.3927
70,610,4.41016,-32.3267,0.0117901,0.0132054,0.00671354,0.0192485,0.00574699,0.837907,0.0114097,0.0280624,1294,414,4.4101,32.3267
77,610,4.55542,-32.3294,0.0148714,0.0147958,0.00913363,0.0239673,0.00569989,0.78333,0.0144578,0.0336691,1301,414,4.55543,32.3294
84,610,4.63342,-32.357,0.0185171,0.0154653,0.0113514,0.0284447,0.0055377,0.718587,0.0174133,0.0321111,1308,414,4.63345,32.357
91,610,4.68616,-32.3349,0.0208507,0.0150057,0.013529,0.0317692,0.0040872,0.679022,0.0199571,0.0274181,1315,414,4.68613,32.3349
98,610,4.77307,-32.293,0.0220523,0.0123552,0.0152606,0.0332161,0.00119145,0.631583,0.0217578,0.0249735,1322,414,4.77302,32.293
105,610,4.77966,-32.1868,0.0229209,0.00814418,0.016137,0.0332806,-0.00221545,0.570716,0.0229612,0.0199674,1329,414,4.77969,32.1868
112,610,4.76794,-32.1086,0.0235641,0.00365524,0.0158992,0.032368,-0.00514867,0.505705,0.0234838,0.0136562,1336,414,4.76792,32.1087
119,610,4.78259,-32.0294,0.0233649,-0.00217458,0.0150737,0.0303507,-0.0091604,0.433978,0.0238803,0.0193117,1343,414,4.78258,32.0294
126,610,4.85181,-31.9011,0.0221161,-0.00752586,0.0144426,0.0279893,-0.0133991,0.386233,0.0243855,0.026843,1350,414,4.85186,31.9011
133,610,4.86743,-31.7719,0.0203847,-0.0126167,0.0131219,0.0249661,-0.0171982,0.335913,0.0244809,0.021656,1357,414,4.86738,31.7719
140,610,4.9209,-31.6498,0.0184979,-0.0142889,0.0105684,0.0216092,-0.0174002,0.28631,0.0225657,0.0176074,1364,414,4.92085,31.6498
147,610,4.91724,-31.4841,0.0164823,-0.0157841,0.0080631,0.018385,-0.0176868,0.231737,0.0208273,0.0183118,1371,414,4.91718,31.4841
154,610,4.94885,-31.3429,0.0147577,-0.0165455,0.00586523,0.0158206,-0.0176084,0.17927,0.0193094,0.022123,1378,414,4.94883,31.3429
161,610,5.00977,-31.1846,0.012639,-0.0164074,0.00462494,0.0133576,-0.0171261,0.154149,0.0176445,0.0264476,1385,414,5.00979,31.1846
168,610,5.04492,-31.0123,0.0114265,-0.0168642,0.0028773,0.0117162,-0.0171539,0.100336,0.0167664,0.0272646,1392,414,5.04496,31.0123
175,610,5.0697,-30.8518,0.0116103,-0.0147128,0.000808,0.0116351,-0.0147376,0.030657,0.0152613,0.0223291,1399,414,5.06966,30.8518
182,610,5.11304,-30.6476,0.0103546,-0.0122409,0.000788442,0.0103821,-0.0122684,0.0348372,0.0130924,0.0153003,1406,414,5.11301,30.6476
189,610,5.14014,-30.4274,0.0089981,-0.00952596,0.000771173,0.00903015,-0.00955801,0.0415351,0.0107333,0.0134791,1413,414,5.14013,30.4274
196,610,5.14941,-30.2092,0.00769642,-0.00698623,0.000724015,0.00773203,-0.00702185,0.049152,0.00852145,0.0131982,1420,414,5.14943,30.2092
203,610,5.15186,-29.997,0.0057772,-0.00343304,0.000254623,0.00578424,-0.00344007,0.0276175,0.00538268,0.0137384,1427,414,5.15183,29.9971
210,610,5.1637,-29.773,0.00376557,-0.000370533,0.000150112,0.00377101,-0.000375974,0.0362295,0.00264824,0.0108825,1434,414,5.16365,29.773
217,610,5.1936,-29.4947,0.00232518,0.00138932,0.000124217,0.00234138,0.00137311,0.129737,0.00135852,0.0168598,1441,414,5.19358,29.4947
224,610,5.22217,-29.2511,0.00197893,0.00208966,0.000483351,0.00252081,0.00154779,0.842421,0.00146795,0.0193181,1448,414,5.22214,29.2511
231,610,5.22327,-29.0009,0.00166247,0.0026784,0.000840718,0.00315269,0.00118817,1.05715,0.00183851,0.0153234,1455,414,5.2233,29.0009
238,610,5.22546,-28.7049,0.00143753,0.00319457,0.00112944,0.00374693,0.000885165,1.11594,0.0022614,0.0114012,1462,414,5.22541,28.7049
245,610,5.2533,-28.4103,0.00125531,0.00362154,0.0012846,0.00418484,0.000692016,1.15755,0.00259022,0.0123206,1469,414,5.25332,28.4103
252,610,5.26074,-28.1109,0.00112902,0.00399371,0.00140337,0.00456663,0.0005561,1.18321,0.00287702,0.0142873,1476,414,5.26077,28.1109
259,610,5.24304,-27.7903,0.000999409,0.00436988,0.00156563,0.00498491,0.000384383,1.19649,0.00320284,0.0124522,1483,414,5.24309,27.7902
266,610,5.21863,-27.4766,0.000906693,0.00474311,0.00177651,0.00543938,0.000210421,1.19726,0.00355819,0.0128338,1490,414,5.21867,27.4766
273,610,5.21045,-27.163,0.000862798,0.0051745,0.00203829,0.00598552,5.1775e-05,1.19211,0.0039732,0.0103854,1497,414,5.21042,27.163
280,610,5.2085,-26.8361,0.00095829,0.00565843,0.00235738,0.00663703,-2.03112e-05,1.17732,0.00443147,0.00986762,1504,414,5.20854,26.8361
287,610,5.17712,-26.482,0.00123354,0.00632697,0.0028369,0.00759257,-3.20582e-05,1.15117,0.00507243,0.0131415,1511,414,5.17708,26.482
294,610,5.18127,-26.1453,0.00145035,0.00691373,0.00329096,0.00845901,-9.49395e-05,1.1318,0.00567125,0.011403,1518,414,5.18123,26.1453
301,610,5.17664,-25.829,0.00172912,0.00757521,0.00380683,0.00945177,-0.000147437,1.11281,0.0063509,0.0107727,1525,414,5.17666,25.829
308,610,5.17615,-25.4589,0.00211924,0.00825907,0.00436065,0.010522,-0.000143729,1.0921,0.00706309,0.0123688,1532,414,5.1761,25.4589
315,610,5.1438,-25.0956,0.00254697,0.00892508,0.00492076,0.0115998,-0.000127758,1.07291,0.00777614,0.0122394,1539,414,5.14383,25.0957
322,610,5.10193,-24.704,0.00286711,0.0096181,0.00544937,0.0126527,-0.000167511,1.06269,0.00849153,0.0129192,1546,414,5.10194,24.704
329,610,5.07898,-24.3239,0.00302215,0.0101167,0.00586174,0.0134209,-0.000282085,1.0575,0.00904278,0.0118939,1553,414,5.07898,24.3239
336,610,5.07739,-23.93,0.0030154,0.0104365,0.00609888,0.0138649,-0.000412986,1.05869,0.00938397,0.0098337,1560,414,5.0774,23.93
343,610,5.05859,-23.5251,0.00296125,0.0107168,0.00631545,0.01425,-0.000571913,1.06073,0.00969624,0.0195087,1567,414,5.05863,23.5252
350,610,5.06665,-23.1155,0,0,0,0,0,0,0,-1,1574,414,5.06665,23.1155
357,610,5.08691,-22.5071,0,0,0,0,0,0,0,-1,1581,414,5.08696,22.5071
364,610,4.34302,-15.9496,0,0,0,0,0,0,0,-1,1588,414,4.34299,15.9496
371,610,3.54138,-13.3788,0,0,0,0,0,0,0,-1,1595,414,3.54137,13.3788
378,610,3.5752,-12.1958,0,0,0,0,0,0,0,-1,1602,414,3.57517,12.1958
385,610,2.57104,-10.3878,0,0,0,0,0,0,0,-1,1609,414,2.57109,10.3878
392,610,1.99744,-1.83582,0,0,0,0,0,0,0,-1,1616,414,1.99741,1.8358
399,610,2.77136,-2.60333,0,0,0,0,0,0,0,-1,1623,414,2.77133,2.60332
406,610,3.54529,-3.37085,0,0,0,0,0,0,0,-1,1630,414,3.54525,3.37084
413,610,3.01929,-3.20306,0,0,0,0,0,0,0,-1,1637,414,3.01929,3.20306
420,610,4.78149,-3.64041,0,0,0,0,0,0,0,-1,1644,414,4.78152,3.64042
427,610,5.20764,-4.67545,0,0,0,0,0,0,0,-1,1651,414,5.20759,4.67545
434,610,5.39233,-5.45441,0,0,0,0,0,0,0,-1,1658,414,5.39228,5.4544
441,610,0,0,0,0,0,0,0,0,0,-1,1665,414,0,0
448,610,0,0,0,0,0,0,0,0,0,-1,1672,414,0,0
455,610,0,0,0,0,0,0,0,0,0,-1,1679,414,0,0
462,610,0,0,0,0,0,0,0,0,0,-1,1686,414,0,0
469,610,0,0,0,0,0,0,0,0,0,-1,1693,414,0,0
476,610,0,0,0,0,0,0,0,0,0,-1,1700,414,0,0
483,610,0,0,0,0,0,0,0,0,0,-1,1707,414,0,0
490,610,0,0,0,0,0,0,0,0,0,-1,1714,414,0,0
497,610,0,0,0,0,0,0,0,0,0,-1,1721,414,0,0
504,610,0,0,0,0,0,0,0,0,0,-1,1728,414,0,0
511,610,0,0,0,0,0,0,0,0,0,-1,1735,414,0,0
518,610,0,0,0,0,0,0,0,0,0,-1,1742,414,0,0
525,610,0,0,0,0,0,0,0,0,0,-1,1749,414,0,0
532,610,0,0,0,0,0,0,0,0,0,-1,1756,414,0,0
539,610,0,0,0,0,0,0,0,0,0,-1,1763,414,0,0
546,610,0,0,0,0,0,0,0,0,0,-1,1770,414,0,0
553,610,0,0,0,0,0,0,0,0,0,-1,1777,414,0,0
560,610,0,0,0,0,0,0,0,0,0,-1,1784,414,0,0
567,610,0,0,0,0,0,0,0,0,0,-1,1791,414,0,0
574,610,0,0,0,0,0,0,0,0,0,-1,1798,414,0,0
581,610,0,0,0,0,0,0,0,0,0,-1,1805,414,0,0
588,610,0,0,0,0,0,0,0,0,0,-1,1812,414,0,0
595,610,0,0,0,0,0,0,0,0,0,-1,1819,414,0,0
602,610,0,0,0,0,0,0,0,0,0,-1,1826,414,0,0
609,610,0,0,0,0,0,0,0,0,0,-1,1833,414,0,0
616,610,0,0,0,0,0,0,0,0,0,-1,1840,414,0,0
623,610,0,0,0,0,0,0,0,0,0,-1,1847,414,0,0
630,610,0,0,0,0,0,0,0,0,0,-1,1854,414,0,0
637,610,0,0,0,0,0,0,0,0,0,-1,1861,414,0,0
644,610,0,0,0,0,0,0,0,0,0,-1,1868,414,0,0
651,610,0,0,0,0,0,0,0,0,0,-1,1875,414,0,0
658,610,0,0,0,0,0,0,0,0,0,-1,1882,414,0,0
665,610,0,0,0,0,0,0,0,0,0,-1,1889,414,0,0
672,610,0,0,0,0,0,0,0,0,0,-1,1896,414,0,0
679,610,0,0,0,0,0,0,0,0,0,-1,1903,414,0,0
686,610,0,0,0,0,0,0,0,0,0,-1,1910,414,0,0
693,610,0,0,0,0,0,0,0,0,0,-1,1917,414,0,0
700,610,0,0,0,0,0,0,0,0,0,-1,1924,414,0,0
707,610,0,0,0,0,0,0,0,0,0,-1,1931,414,0,0
714,610,0,0,0,0,0,0,0,0,0,-1,1938,414,0,0
721,610,0,0,0,0,0,0,0,0,0,-1,1945,414,0,0
728,610,0,0,0,0,0,0,0,0,0,-1,1952,414,0,0
735,610,0,0,0,0,0,0,0,0,0,-1,1959,414,0,0
742,610,0,0,0,0,0,0,0,0,0,-1,1966,414,0,0
749,610,0,0,0,0,0,0,0,0,0,-1,1973,414,0,0
756,610,0,0,0,0,0,0,0,0,0,-1,1980,414,0,0
763,610,0,0,0,0,0,0,0,0,0,-1,1987,414,0,0
770,610,0,0,0,0,0,0,0,0,0,-1,1994,414,0,0
777,610,0,0,0,0,0,0,0,0,0,-1,2001,414,0,0
784,610,0,0,0,0,0,0,0,0,0,-1,2008,414,0,0
791,610,0,0,0,0,0,0,0,0,0,-1,2015,414,0,0
798,610,0,0,0,0,0,0,0,0,0,-1,2022,414,0,0
805,610,0,0,0,0,0,0,0,0,0,-1,2029,414,0,0
812,610,0,0,0,0,0,0,0,0,0,-1,2036,414,0,0
-700,603,0,0,0,0,0,0,0,0,0,-1,524,421,0,0
-693,603,0,0,0,0,0,0,0,0,0,-1,531,421,0,0
-686,603,0,0,0,0,0,0,0,0,0,-1,538,421,0,0
-679,603,0,0,0,0,0,0,0,0,0,-1,545,421,0,0
-672,603,0,0,0,0,0,0,0,0,0,-1,552,421,0,0
-665,603,0,0,0,0,0,0,0,0,0,-1,559,421,0,0
-658,603,0,0,0,0,0,0,0,0,0,-1,566,421,0,0
-651,603,0,0,0,0,0,0,0,0,0,-1,573,421,0,0
-644,603,0,0,0,0,0,0,0,0,0,-1,580,421,0,0
-637,603,0,0,0,0,0,0,0,0,0,-1,587,421,0,0
-630,603,0,0,0,0,0,0,0,0,0,-1,594,421,0,0
-623,603,0,0,0,0,0,0,0,0,0,-1,601,421,0,0
-616,603,0,0,0,0,0,0,0,0,0,-1,608,421,0,0
-609,603,0,0,0,0,0,0,0,0,0,-1,615,421,0,0
-602,603,0,0,0,0,0,0,0,0,0,-1,622,421,0,0
-595,603,0,0,0,0,0,0,0,0,0,-1,629,421,0,0
-588,603,0,0,0,0,0,0,0,0,0,-1,636,421,0,0
-581,603,0,0,0,0,0,0,0,0,0,-1,643,421,0,0
-574,603,0,0,0,0,0,0,0,0,0,-1,650,421,0,0
-567,603,0,0,0,0,0,0,0,0,0,-1,657,421,0,0
-560,603,0,0,0,0,0,0,0,0,0,-1,664,421,0,0
-553,603,0,0,0,0,0,0,0,0,0,-1,671,421,0,0
-546,603,0,0,0,0,0,0,0,0,0,-1,678,421,0,0
-539,603,0,0,0,0,0,0,0,0,0,-1,685,421,0,0
-532,603,0,0,0,0,0,0,0,0,0,-1,692,421,0,0
-525,603,0,0,0,0,0,0,0,0,0,-1,699,421,0,0
-518,603,0,0,0,0,0,0,0,0,0,-1,706,421,0,0
-511,603,0,0,0,0,0,0,0,0,0,-1,713,421,0,0
-504,603,0,0,0,0,0,0,0,0,0,-1,720,421,0,0
-497,603,0,0,0,0,0,0,0,0,0,-1,727,421,0,0
-490,603,0,0,0,0,0,0,0,0,0,-1,734,421,0,0
-483,603,0,0,0,0,0,0,0,0,0,-1,741,421,0,0
-476,603,0,0,0,0,0,0,0,0,0,-1,748,421,0,0
-469,603,0,0,0,0,0,0,0,0,0,-1,755,421,0,0
-462,603,0,0,0,0,0,0,0,0,0,-1,762,421,0,0
-455,603,0,0,0,0,0,0,0,0,0,-1,769,421,0,0
-448,603,0,0,0,0,0,0,0,0,0,-1,776,421,0,0
-441,603,0,0,0,0,0,0,0,0,0,-1,783,421,0,0
-434,603,0,0,0,0,0,0,0,0,0,-1,790,421,0,0
-427,603,0,0,0,0,0,0,0,0,0,-1,797,421,0,0
-420,603,0,0,0,0,0,0,0,0,0,-1,804,421,0,0
-413,603,0,0,0,0,0,0,0,0,0,-1,811,421,0,0
-406,603,0,0,0,0,0,0,0,0,0,-1,818,421,0,0
-399,603,0,0,0,0,0,0,0,0,0,-1,825,421,0,0
-392,603,0,0,0,0,0,0,0,0,0,-1,832,421,0,0
-385,603,0,0,0,0,0,0,0,0,0,-1,839,421,0,0
-378,603,0,0,0,0,0,0,0,0,0,-1,846,421,0,0
-371,603,0,0,0,0,0,0,0,0,0,-1,853,421,0,0
-364,603,0,0,0,0,0,0,0,0,0,-1,860,421,0,0
-357,603,0,0,0,0,0,0,0,0,0,-1,867,421,0,0
-350,603,0,0,0,0,0,0,0,0,0,-1,874,421,0,0
-343,603,0,0,0,0,0,0,0,0,0,-1,881,421,0,0
-336,603,0,0,0,0,0,0,0,0,0,-1,888,421,0,0
-329,603,4.09686,-17.9702,0,0,0,0,0,0,0,-1,895,421,4.09687,17.9702
-322,603,5.98431,-20.9071,0,0,0,0,0,0,0,-1,902,421,5.98431,20.9071
-315,603,5.99744,-20.4501,0,0,0,0,0,0,0,-1,909,421,5.99745,20.4501
-308,603,5.92249,-20.778,0,0,0,0,0,0,0,-1,916,421,5.92248,20.778
-301,603,2.87506,-22.5246,0,0,0,0,0,0,0,-1,923,421,2.87504,22.5246
-294,603,3.98431,-22.4698,0,0,0,0,0,0,0,-1,930,421,3.98428,22.4697
-287,603,5.09351,-22.4149,0,0,0,0,0,0,0,-1,937,421,5.09353,22.4149
-280,603,6.69116,-22.1548,0,0,0,0,0,0,0,-1,944,421,6.69119,22.1548
-273,603,3.44464,-21.6282,0,0,0,0,0,0,0,-1,951,421,3.44465,21.6282
-266,603,3.27728,-21.9338,0,0,0,0,0,0,0,-1,958,421,3.2773,21.9338
-259,603,3.21814,-21.9012,0,0,0,0,0,0,0,-1,965,421,3.21815,21.9012
-252,603,3.43561,-22.9072,-0.0104214,-0.0276687,-0.00542791,-0.0088554,-0.0292347,-0.280887,0.0173103,0.0394082,972,421,3.43562,22.9072
-245,603,3.61206,-23.012,-0.00977873,-0.0239718,-0.00407574,-0.0086916,-0.025059,-0.260664,0.0146923,0.0317202,979,421,3.61207,23.012
-238,603,3.58649,-23.2556,-0.00896704,-0.0196862,-0.00312283,-0.00812362,-0.0205296,-0.263788,0.0119384,0.0209893,986,421,3.5865,23.2557
-231,603,3.53705,-23.6653,-0.0072025,-0.0147481,-0.00304295,-0.00612828,-0.0158223,-0.339361,0.00921201,0.0132844,993,421,3.53702,23.6653
-224,603,3.51538,-24.0866,-0.0049409,-0.0103376,-0.00321012,-0.00344569,-0.0118328,-0.435899,0.00702744,0.0139753,1000,421,3.51537,24.0866
-217,603,3.495,-24.4565,-0.00264023,-0.00692702,-0.00356459,-0.000624239,-0.008943,-0.51471,0.0057652,0.0130635,1007,421,3.49499,24.4565
-210,603,3.48956,-24.8497,-0.000830516,-0.00353676,-0.00365663,0.00171532,-0.0060826,-0.608188,0.00473164,0.0111611,1014,421,3.48959,24.8497
-203,603,3.48145,-25.2458,0.000623661,-0.00168588,-0.00362474,0.00327313,-0.00433535,-0.631191,0.00440701,0.016103,1021,421,3.48145,25.2458
-196,603,3.48608,-25.6195,0.00148745,9.38251e-05,-0.00334451,0.00420696,-0.00262569,-0.682695,0.00397989,0.0178498,1028,421,3.48606,25.6195
-189,603,3.46924,-25.9298,0.00272896,0.00180064,-0.0036154,0.00590987,-0.00138027,-0.721556,0.00447159,0.0151714,1035,421,3.46924,25.9299
-182,603,3.44531,-26.2511,0.00363359,0.00233123,-0.00349999,0.00654246,-0.000577644,-0.693424,0.00456638,0.0112299,1042,421,3.44534,26.2511
-175,603,3.41479,-26.5627,0.00311801,0.000978168,-0.00275877,0.00500707,-0.000910891,-0.600415,0.00367946,0.0121224,1049,421,3.4148,26.5627
-168,603,3.38037,-26.8868,0.00221581,-0.000146882,-0.001828,0.00321097,-0.00114204,-0.498531,0.00260611,0.0153113,1056,421,3.38033,26.8868
-161,603,3.35437,-27.2521,0.00168471,-0.00075492,-0.00135092,0.00228504,-0.00135525,-0.418177,0.00212445,0.0144837,1063,421,3.35432,27.2521
-154,603,3.37463,-27.5816,0.00137247,-0.00112658,-0.000928296,0.00167956,-0.00143367,-0.319477,0.00179929,0.012884,1070,421,3.37468,27.5816
-147,603,3.40308,-27.89,0.00110271,-0.00150151,-0.000582119,0.0012269,-0.00162571,-0.210203,0.00165231,0.0144823,1077,421,3.40308,27.89
-140,603,3.41492,-28.1531,0.000904665,-0.00177176,-0.000286413,0.000934972,-0.00180206,-0.105423,0.00160644,0.012425,1084,421,3.41498,28.1531
-133,603,3.39136,-28.4078,0.000764874,-0.00202983,-2.42166e-05,0.000765084,-0.00203004,-0.0086643,0.00166794,0.0123871,1091,421,3.39133,28.4078
-126,603,3.37439,-28.6687,0.000717866,-0.00223253,0.000124924,0.000723146,-0.00223781,0.0422406,0.00178251,0.0111734,1098,421,3.37445,28.6687
-119,603,3.40173,-28.9428,0.000897484,-0.00243987,0.000176567,0.000906799,-0.00244919,0.0527101,0.00200463,0.0112474,1105,421,3.40178,28.9428
-112,603,3.42773,-29.2359,0.00126759,-0.00272663,0.000112839,0.00127077,-0.00272981,0.0282207,0.00236039,0.0162775,1112,421,3.42771,29.2359
-105,603,3.44409,-29.5023,0.00158029,-0.00283474,1.07902e-05,0.00158031,-0.00283477,0.00244395,0.00258312,0.0155842,1119,421,3.44404,29.5023
-98,603,3.42407,-29.7082,0.00193647,-0.00292177,-2.57245e-05,0.0019366,-0.0029219,-0.00529484,0.00282422,0.0125851,1126,421,3.42405,29.7082
-91,603,3.43225,-29.9273,0.00230591,-0.00287126,-0.000108302,0.00230817,-0.00287353,-0.0209069,0.00299759,0.00931182,1133,421,3.43223,29.9273
-84,603,3.45898,-30.1792,0.00260779,-0.00280918,-0.000124018,0.00261063,-0.00281202,-0.0228784,0.00313149,0.0101832,1140,421,3.459,30.1792
-77,603,3.50439,-30.4643,0.00315824,-0.002597,-0.000111107,0.00316038,-0.00259915,-0.0192958,0.00333053,0.0167733,1147,421,3.50443,30.4643
-70,603,3.55078,-30.7446,0,0,0,0,0,0,0,-1,1154,421,3.55072,30.7446
-63,603,3.53882,-30.8105,0,0,0,0,0,0,0,-1,1161,421,3.53877,30.8105
-56,603,3.57605,-30.9974,0,0,0,0,0,0,0,-1,1168,421,3.5761,30.9974
-49,603,3.62659,-31.1602,0,0,0,0,0,0,0,-1,1175,421,3.62654,31.1602
-42,603,3.62695,-31.3002,0,0,0,0,0,0,0,-1,1182,421,3.62701,31.3002
-35,603,3.60059,-31.4129,0.0137457,-0.00601675,0.000903669,0.0137869,-0.00605798,0.0455998,0.0117435,0.0426718,1189,421,3.60062,31.4129
-28,603,3.60901,-31.533,0.014218,-0.00640922,-0.000381118,0.0142251,-0.00641626,-0.018468,0.0121982,0.0267712,1196,421,3.60899,31.533
-21,603,3.72034,-31.6583,0.011626,-0.00756928,0.00106864,0.0116853,-0.00762859,0.0554437,0.0112326,0.0236379,1203,421,3.72038,31.6583
-14,603,3.87781,-31.749,0.0113135,-0.00842682,0.000599381,0.0113317,-0.008445,0.0303261,0.0114585,0.0218769,1210,421,3.87783,31.749
-7,603,3.93396,-31.8399,0.0118705,-0.00989295,-0.000160203,0.0118717,-0.00989413,-0.0073606,0.0125838,0.0237599,1217,421,3.93395,31.8399
0,603,3.93433,-31.9771,0.0120039,-0.0108658,-0.00102004,0.0120493,-0.0109112,-0.0444846,0.0132617,0.0275285,1224,421,3.93431,31.977
7,603,3.95239,-31.9627,0.0112045,-0.0121231,-0.00133302,0.0112804,-0.012199,-0.0568968,0.0135593,0.0366694,1231,421,3.95234,31.9627
14,603,4.14136,-31.8504,0.010075,-0.00899412,-0.00245356,0.0103856,-0.00930475,-0.125935,0.011374,0.038518,1238,421,4.1413,31.8504
21,603,4.14136,-31.932,0.00929671,-0.00411776,-0.00467608,0.0107658,-0.00558687,-0.304412,0.00959777,0.0303718,1245,421,4.14141,31.932
28,603,4.15076,-31.9433,0.00867224,0.00407715,-0.00750857,0.0142269,-0.00147753,-0.636927,0.0100135,0.0325516,1252,421,4.1508,31.9433
35,603,4.19824,-31.8514,0.00837319,0.0110586,-0.00907778,0.0188925,0.000539361,-0.858822,0.0124191,0.0413747,1259,421,4.19819,31.8514
42,603,4.26392,-32.1267,0.0093797,0.0193474,-0.00978869,0.0253479,0.00337914,-1.02087,0.0158924,0.0381617,1266,421,4.26394,32.1267
49,603,4.34521,-32.2939,0.0114081,0.0280085,-0.00972199,0.0324915,0.0069251,-1.13873,0.0197614,0.0195462,1273,421,4.34526,32.2939
56,603,4.28882,-32.2134,0.0152217,0.0356372,-0.00951603,0.0393849,0.011474,-1.19563,0.0233896,0.0370818,1280,421,4.28882,32.2134
63,603,4.25281,-32.2568,0,0,0,0,0,0,0,-1,1287,421,4.25286,32.2568
70,603,4.32751,-32.1867,0,0,0,0,0,0,0,-1,1294,421,4.32756,32.1867
77,603,4.62512,-32.2522,0,0,0,0,0,0,0,-1,1301,421,4.6251,32.2522
84,603,4.72546,-32.3156,0,0,0,0,0,0,0,-1,1308,421,4.72545,32.3156
91,603,4.81604,-32.3205,0,0,0,0,0,0,0,-1,1315,421,4.816,32.3205
98,603,4.96802,-32.371,0,0,0,0,0,0,0,-1,1322,421,4.96805,32.371
105,603,5.14844,-32.0234,0.0338292,0.0280147,0.01539,0.0465841,0.0152598,0.692045,0.0274232,0.0478728,1329,421,5.14849,32.0234
112,603,5.00464,-31.872,0.0341828,0.0183955,0.0179239,0.0458742,0.00670408,0.577979,0.0286111,0.039017,1336,421,5.00458,31.872
119,603,5.05823,-31.7873,0.0336483,0.00566669,0.0202938,0.0443067,-0.0049917,0.483606,0.0313345,0.0401276,1343,421,5.0582,31.7873
126,603,5.22119,-31.5883,0.0318281,-0.00544526,0.022315,0.0422652,-0.0158824,0.437489,0.0347042,0.0477848,1350,421,5.22116,31.5882
133,603,5.20361,-31.4502,0.029429,-0.0152487,0.0227809,0.0389961,-0.0248159,0.397597,0.0371438,0.0413742,1357,421,5.20359,31.4502
140,603,5.20703,-31.3516,0.0268732,-0.0173685,0.0198416,0.034468,-0.0249633,0.365568,0.0344586,0.0277946,1364,421,5.20701,31.3516
147,603,5.10022,-31.2953,0.0241348,-0.0193421,0.0169219,0.0299447,-0.0251519,0.330725,0.0318501,0.0217601,1371,421,5.10022,31.2954
154,603,5.09485,-31.2345,0.0217706,-0.0204195,0.0142299,0.0261215,-0.0247703,0.296724,0.0293858,0.029083,1378,421,5.09484,31.2345
161,603,5.20483,-31.1035,0.0189021,-0.0204126,0.0125196,0.0225504,-0.0240608,0.283553,0.0269157,0.0318094,1385,421,5.20483,31.1036
168,603,5.25256,-30.9308,0.0171956,-0.0212889,0.0100743,0.0196732,-0.0237666,0.241155,0.0251171,0.0326525,1392,421,5.25258,30.9308
175,603,5.44275,-30.7793,0.0172797,-0.0190067,0.0071691,0.0186447,-0.0203717,0.188155,0.0225335,0.0358146,1399,421,5.44274,30.7793
182,603,5.51099,-30.5948,0.0155345,-0.016112,0.00648163,0.0168105,-0.0173881,0.194389,0.0197455,0.0416147,1406,421,5.51096,30.5949
189,603,5.49475,-30.3491,0.0137046,-0.0128989,0.00534626,0.0147387,-0.0139331,0.191081,0.0165559,0.036504,1413,421,5.49481,30.3491
196,603,5.40125,-30.1058,0.0119187,-0.010062,0.00395799,0.0126097,-0.010753,0.172837,0.0135026,0.0270398,1420,421,5.40129,30.1058
203,603,5.38855,-29.9346,0.00910933,-0.00564135,0.00236754,0.00948002,-0.00601203,0.155308,0.00901873,0.0160574,1427,421,5.38856,29.9346
210,603,5.41553,-29.7928,0.00598399,-0.00129802,0.000976921,0.00611277,-0.0014268,0.131068,0.00462474,0.0126416,1434,421,5.41555,29.7928
217,603,5.43518,-29.5056,0.00353031,0.000882177,-0.000159328,0.00353986,0.000872625,-0.0598783,0.00212949,0.013663,1441,421,5.4352,29.5057
224,603,5.4906,-29.2323,0.00307314,0.00174189,0.000301036,0.00313805,0.00167698,0.212366,0.00181318,0.0167818,1448,421,5.49064,29.2323
231,603,5.49304,-28.9644,0.00264905,0.00242024,0.000729682,0.00327324,0.00179605,0.707636,0.00189279,0.0147021,1455,421,5.493,28.9644
238,603,5.50159,-28.6822,0.00236185,0.00288359,0.00101662,0.00367227,0.00157316,0.910991,0.00212742,0.0111583,1462,421,5.50155,28.6822
245,603,5.51062,-28.3985,0.00215611,0.00319888,0.00113499,0.00392651,0.00142848,1.00071,0.00229483,0.0118645,1469,421,5.51057,28.3985
252,603,5.52686,-28.1042,0.0019893,0.00336658,0.00118987,0.00405272,0.00130316,1.04772,0.00238899,0.0107002,1476,421,5.52684,28.1042
259,603,5.53247,-27.7997,0.00176699,0.00346956,0.00123222,0.00411595,0.00112059,1.08768,0.00245714,0.0102675,1483,421,5.53252,27.7997
266,603,5.52026,-27.4832,0.00157712,0.00354719,0.00129621,0.00419017,0.000934136,1.11031,0.00253999,0.0119195,1490,421,5.52026,27.4832
273,603,5.52026,-27.1523,0.00144658,0.00373545,0.00142183,0.00441621,0.000765822,1.12426,0.00272497,0.0112656,1497,421,5.5203,27.1523
280,603,5.54248,-26.8301,0.0013633,0.00387369,0.00157602,0.00463328,0.000603705,1.12168,0.00290858,0.0130102,1504,421,5.54252,26.8301
287,603,5.53833,-26.4884,0.0014535,0.0042775,0.00189602,0.00522953,0.000501471,1.10545,0.0033318,0.0118275,1511,421,5.53836,26.4884
294,603,5.50439,-26.152,0.0015267,0.00466009,0.00220901,0.00580158,0.000385206,1.09384,0.00374592,0.00965533,1518,421,5.50435,26.152
301,603,5.49048,-25.8282,0.00163176,0.00516142,0.00260088,0.00653971,0.000253468,1.08349,0.00427782,0.0113216,1525,421,5.49045,25.8282
308,603,5.51526,-25.4519,0.00182899,0.00569353,0.00304548,0.00736801,0.000154507,1.06809,0.00486132,0.0158458,1532,421,5.51525,25.4519
315,603,5.49329,-25.0833,0.00204268,0.006262,0.00348931,0.00822983,7.48509e-05,1.0573,0.00546178,0.0144915,1539,421,5.49325,25.0833
322,603,5.46704,-24.7231,0.0021602,0.00687274,0.00392647,0.00909569,-6.2739e-05,1.05564,0.00608481,0.0145652,1546,421,5.46701,24.7231
329,603,5.44031,-24.337,0.00214154,0.00733459,0.00430049,0.00976162,-0.000285499,1.05699,0.00660497,0.0103216,1553,421,5.44027,24.337
336,603,5.41895,-23.9623,0.00199459,0.00766396,0.00455304,0.0101926,-0.000534086,1.06383,0.00697993,0.00830531,1560,421,5.41896,23.9623
343,603,5.41248,-23.5678,0.00180965,0.00799765,0.00479449,0.0106098,-0.000802482,1.07194,0.00735529,0.0107235,1567,421,5.4125,23.5678
350,603,5.39648,-23.1561,0.00157251,0.00866857,0.00512512,0.011354,-0.00111287,1.08816,0.00796621,0.0209097,1574,421,5.39651,23.1561
357,603,5.41675,-22.6395,0.00113741,0.00910647,0.00547943,0.0118969,-0.00165306,1.09977,0.00853584,0.0342064,1581,421,5.41676,22.6395
364,603,5.45532,-22.0941,0,0,0,0,0,0,0,-1,1588,421,5.45533,22.0941
371,603,5.32886,-21.684,0,0,0,0,0,0,0,-1,1595,421,5.32891,21.684
378,603,5.18262,-21.5745,0,0,0,0,0,0,0,-1,1602,421,5.18262,21.5745
385,603,4.94373,-20.9968,0,0,0,0,0,0,0,-1,1609,421,4.94376,20.9968
392,603,4.90527,-19.605,0,0,0,0,0,0,0,-1,1616,421,4.90526,19.605
399,603,2.94299,0.638214,0,0,0,0,0,0,0,-1,1623,421,2.94293,-0.638215
406,603,3.01917,-2.37219,0,0,0,0,0,0,0,-1,1630,421,3.01915,2.37219
413,603,2.38928,-2.41275,0,0,0,0,0,0,0,-1,1637,421,2.38926,2.41274
420,603,2.74866,-2.30066,0,0,0,0,0,0,0,-1,1644,421,2.74867,2.30065
427,603,7.11548,-3.35352,0,0,0,0,0,0,0,-1,1651,421,7.11549,3.35351
434,603,7.32153,-4.50525,0,0,0,0,0,0,0,-1,1658,421,7.32149,4.50525
441,603,3.18213,-0.250946,0,0,0,0,0,0,0,-1,1665,421,3.18212,0.250944
448,603,2.95667,-0.066925,0,0,0,0,0,0,0,-1,1672,421,2.95662,0.0669226
455,603,0,0,0,0,0,0,0,0,0,-1,1679,421,0,0
462,603,0,0,0,0,0,0,0,0,0,-1,1686,421,0,0
469,603,0,0,0,0,0,0,0,0,0,-1,1693,421,0,0
476,603,0,0,0,0,0,0,0,0,0,-1,1700,421,0,0
483,603,0,0,0,0,0,0,0,0,0,-1,1707,421,0,0
490,603,0,0,0,0,0,0,0,0,0,-1,1714,421,0,0
497,603,0,0,0,0,0,0,0,0,0,-1,1721,421,0,0
504,603,0,0,0,0,0,0,0,0,0,-1,1728,421,0,0
511,603,0,0,0,0,0,0,0,0,0,-1,1735,421,0,0
518,603,0,0,0,0,0,0,0,0,0,-1,1742,421,0,0
525,603,0,0,0,0,0,0,0,0,0,-1,1749,421,0,0
532,603,0,0,0,0,0,0,0,0,0,-1,1756,421,0,0
539,603,0,0,0,0,0,0,0,0,0,-1,1763,421,0,0
546,603,0,0,0,0,0,0,0,0,0,-1,1770,421,0,0
553,603,0,0,0,0,0,0,0,0,0,-1,1777,421,0,0
560,603,0,0,0,0,0,0,0,0,0,-1,1784,421,0,0
567,603,0,0,0,0,0,0,0,0,0,-1,1791,421,0,0
574,603,0,0,0,0,0,0,0,0,0,-1,1798,421,0,0
581,603,0,0,0,0,0,0,0,0,0,-1,1805,421,0,0
588,603,0,0,0,0,0,0,0,0,0,-1,1812,421,0,0
595,603,0,0,0,0,0,0,0,0,0,-1,1819,421,0,0
602,603,0,0,0,0,0,0,0,0,0,-1,1826,421,0,0
609,603,0,0,0,0,0,0,0,0,0,-1,1833,421,0,0
616,603,0,0,0,0,0,0,0,0,0,-1,1840,421,0,0
623,603,0,0,0,0,0,0,0,0,0,-1,1847,421,0,0
630,603,0,0,0,0,0,0,0,0,0,-1,1854,421,0,0
637,603,0,0,0,0,0,0,0,0,0,-1,1861,421,0,0
644,603,0,0,0,0,0,0,0,0,0,-1,1868,421,0,0
651,603,0,0,0,0,0,0,0,0,0,-1,1875,421,0,0
658,603,0,0,0,0,0,0,0,0,0,-1,1882,421,0,0
665,603,0,0,0,0,0,0,0,0,0,-1,1889,421,0,0
672,603,0,0,0,0,0,0,0,0,0,-1,1896,421,0,0
679,603,0,0,0,0,0,0,0,0,0,-1,1903,421,0,0
686,603,0,0,0,0,0,0,0,0,0,-1,1910,421,0,0
693,603,0,0,0,0,0,0,0,0,0,-1,1917,421,0,0
700,603,0,0,0,0,0,0,0,0,0,-1,1924,421,0,0
707,603,0,0,0,0,0,0,0,0,0,-1,1931,421,0,0
714,603,0,0,0,0,0,0,0,0,0,-1,1938,421,0,0
721,603,0,0,0,0,0,0,0,0,0,-1,1945,421,0,0
728,603,0,0,0,0,0,0,0,0,0,-1,1952,421,0,0
735,603,0,0,0,0,0,0,0,0,0,-1,1959,421,0,0
742,603,0,0,0,0,0,0,0,0,0,-1,1966,421,0,0
749,603,0,0,0,0,0,0,0,0,0,-1,1973,421,0,0
756,603,0,0,0,0,0,0,0,0,0,-1,1980,421,0,0
763,603,0,0,0,0,0,0,0,0,0,-1,1987,421,0,0
770,603,0,0,0,0,0,0,0,0,0,-1,1994,421,0,0
777,603,0,0,0,0,0,0,0,0,0,-1,2001,421,0,0
784,603,0,0,0,0,0,0,0,0,0,-1,2008,421,0,0
791,603,0,0,0,0,0,0,0,0,0,-1,2015,421,0,0
798,603,0,0,0,0,0,0,0,0,0,-1,2022,421,0,0
805,603,0,0,0,0,0,0,0,0,0,-1,2029,421,0,0
812,603,0,0,0,0,0,0,0,0,0,-1,2036,421,0,0
-700,596,0,0,0,0,0,0,0,0,0,-1,524,428,0,0
-693,596,0,0,0,0,0,0,0,0,0,-1,531,428,0,0
-686,596,0,0,0,0,0,0,0,0,0,-1,538,428,0,0
-679,596,0,0,0,0,0,0,0,0,0,-1,545,428,0,0
-672,596,0,0,0,0,0,0,0,0,0,-1,552,428,0,0
-665,596,0,0,0,0,0,0,0,0,0,-1,559,428,0,0
-658,596,0,0,0,0,0,0,0,0,0,-1,566,428,0,0
-651,596,0,0,0,0,0,0,0,0,0,-1,573,428,0,0
-644,596,0,0,0,0,0,0,0,0,0,-1,580,428,0,0
-637,596,0,0,0,0,0,0,0,0,0,-1,587,428,0,0
-630,596,0,0,0,0,0,0,0,0,0,-1,594,428,0,0
-623,596,0,0,0,0,0,0,0,0,0,-1,601,428,0,0
-616,596,0,0,0,0,0,0,0,0,0,-1,608,428,0,0
-609,596,0,0,0,0,0,0,0,0,0,-1,615,428,0,0
-602,596,0,0,0,0,0,0,0,0,0,-1,622,428,0,0
-595,596,0,0,0,0,0,0,0,0,0,-1,629,428,0,0
-588,596,0,0,0,0,0,0,0,0,0,-1,636,428,0,0
-581,596,0,0,0,0,0,0,0,0,0,-1,643,428,0,0
-574,596,0,0,0,0,0,0,0,0,0,-1,650,428,0,0
-567,596,0,0,0,0,0,0,0,0,0,-1,657,428,0,0
-560,596,0,0,0,0,0,0,0,0,0,-1,664,428,0,0
-553,596,0,0,0,0,0,0,0,0,0,-1,671,428,0,0
-546,596,0,0,0,0,0,0,0,0,0,-1,678,428,0,0
-539,596,0,0,0,0,0,0,0,0,0,-1,685,428,0,0
-532,596,0,0,0,0,0,0,0,0,0,-1,692,428,0,0
-525,596,0,0,0,0,0,0,0,0,0,-1,699,428,0,0
-518,596,0,0,0,0,0,0,0,0,0,-1,706,428,0,0
-511,596,0,0,0,0,0,0,0,0,0,-1,713,428,0,0
-504,596,0,0,0,0,0,0,0,0,0,-1,720,428,0,0
-497,596,0,0,0,0,0,0,0,0,0,-1,727,428,0,0
-490,596,0,0,0,0,0,0,0,0,0,-1,734,428,0,0
-483,596,0,0,0,0,0,0,0,0,0,-1,741,428,0,0
-476,596,0,0,0,0,0,0,0,0,0,-1,748,428,0,0
-469,596,0,0,0,0,0,0,0,0,0,-1,755,428,0,0
-462,596,0,0,0,0,0,0,0,0,0,-1,762,428,0,0
-455,596,0,0,0,0,0,0,0,0,0,-1,769,428,0,0
-448,596,0,0,0,0,0,0,0,0,0,-1,776,428,0,0
-441,596,0,0,0,0,0,0,0,0,0,-1,783,428,0,0
-434,596,0,0,0,0,0,0,0,0,0,-1,790,428,0,0
-427,596,0,0,0,0,0,0,0,0,0,-1,797,428,0,0
-420,596,0,0,0,0,0,0,0,0,0,-1,804,428,0,0
-413,596,0,0,0,0,0,0,0,0,0,-1,811,428,0,0
-406,596,0,0,0,0,0,0,0,0,0,-1,818,428,0,0
-399,596,0,0,0,0,0,0,0,0,0,-1,825,428,0,0
-392,596,0,0,0,0,0,0,0,0,0,-1,832,428,0,0
-385,596,0,0,0,0,0,0,0,0,0,-1,839,428,0,0
-378,596,0,0,0,0,0,0,0,0,0,-1,846,428,0,0
-371,596,0,0,0,0,0,0,0,0,0,-1,853,428,0,0
-364,596,0,0,0,0,0,0,0,0,0,-1,860,428,0,0
-357,596,0,0,0,0,0,0,0,0,0,-1,867,428,0,0
-350,596,0,0,0,0,0,0,0,0,0,-1,874,428,0,0
-343,596,0,0,0,0,0,0,0,0,0,-1,881,428,0,0
-336,596,-0.98291,-20.0836,0,0,0,0,0,0,0,-1,888,428,-0.982933,20.0836
-329,596,4.43048,-20.1666,0,0,0,0,0,0,0,-1,895,428,4.43045,20.1666
-322,596,4.29657,-19.996,0,0,0,0,0,0,0,-1,902,428,4.29655,19.996
-315,596,4.20044,-19.8317,0,0,0,0,0,0,0,-1,909,428,4.20045,19.8317
-308,596,0.254761,-20.841,0,0,0,0,0,0,0,-1,916,428,0.254731,20.841
-301,596,0.962402,-20.7614,0,0,0,0,0,0,0,-1,923,428,0.962388,20.7615
-294,596,2.56714,-19.2596,0,0,0,0,0,0,0,-1,930,428,2.56715,19.2596
-287,596,3.16656,-20.662,0,0,0,0,0,0,0,-1,937,428,3.16655,20.662
-280,596,3.16583,-21.1357,0,0,0,0,0,0,0,-1,944,428,3.16583,21.1357
-273,596,3.1792,-21.4984,-0.00465408,-0.0179322,-0.0115941,0.00206727,-0.0246536,-0.525375,0.0171664,0.0443943,951,428,3.17918,21.4984
-266,596,3.08765,-21.8282,-0.00511522,-0.0199086,-0.00843656,-0.001292,-0.0237318,-0.42549,0.0154086,0.0412233,958,428,3.08762,21.8282
-259,596,3.0354,-22.0048,-0.00589498,-0.0196492,-0.00607231,-0.0035978,-0.0219464,-0.361664,0.0135913,0.0350046,965,428,3.03543,22.0048
-252,596,3.19525,-22.5201,-0.00585967,-0.018029,-0.00442665,-0.00441981,-0.0194688,-0.314476,0.0117855,0.0176804,972,428,3.19527,22.5201
-245,596,3.21893,-22.9494,-0.00556281,-0.0158009,-0.00323108,-0.00462839,-0.0167353,-0.281519,0.00997854,0.0136988,979,428,3.21893,22.9494
-238,596,3.22144,-23.3384,-0.00518469,-0.0131361,-0.00229177,-0.00457145,-0.0137493,-0.26146,0.00808532,0.0119904,986,428,3.22145,23.3384
-231,596,3.19031,-23.7337,-0.00429522,-0.00963196,-0.0020174,-0.00361843,-0.0103087,-0.323678,0.0060392,0.0130325,993,428,3.19029,23.7337
-224,596,3.16785,-24.1231,-0.00313438,-0.00641481,-0.00197541,-0.002207,-0.0073422,-0.438921,0.00434994,0.0145289,1000,428,3.16785,24.1231
-217,596,3.14978,-24.5,-0.00201115,-0.0038018,-0.00205265,-0.000667063,-0.00514589,-0.579746,0.00323127,0.015799,1007,428,3.14976,24.5
-210,596,3.15967,-24.8832,-0.00108544,-0.00141252,-0.00198497,0.000742712,-0.00324068,-0.744297,0.0024459,0.012801,1014,428,3.15969,24.8832
-203,596,3.15527,-25.246,-0.000377069,-0.000163528,-0.00184184,0.00157463,-0.00211523,-0.814351,0.00213795,0.0147069,1021,428,3.15525,25.246
-196,596,3.14648,-25.5883,-5.97746e-05,0.00101649,-0.00155474,0.00212359,-0.00116688,-0.952007,0.00192633,0.0152129,1028,428,3.14651,25.5883
-189,596,3.11365,-25.9143,0.000622921,0.00196394,-0.00166072,0.0030844,-0.000497538,-0.977265,0.0022406,0.0134015,1035,428,3.1136,25.9143
-182,596,3.10364,-26.2441,0.00119046,0.00191569,-0.00145516,0.00305274,5.34172e-05,-0.907507,0.00201759,0.012175,1042,428,3.10365,26.2441
-175,596,3.11182,-26.5703,0.000935186,0.000472913,-0.000881746,0.00161559,-0.000207488,-0.657215,0.00115246,0.0152854,1049,428,3.11187,26.5703
-168,596,3.09912,-26.9085,0.000523106,-0.000800079,-0.000222656,0.000559568,-0.000836541,-0.162319,0.000811314,0.0180299,1056,428,3.0991,26.9085
-161,596,3.07275,-27.2525,0.000403064,-0.00171713,6.14331e-05,0.000404843,-0.00171891,0.0289429,0.00130204,0.0153402,1063,428,3.07272,27.2525
-154,596,3.07007,-27.5538,0.000455619,-0.00248687,0.000282537,0.000482503,-0.00251375,0.0948647,0.00185768,0.0124651,1070,428,3.07004,27.5538
-147,596,3.10364,-27.8418,0.000521948,-0.0031683,0.000445811,0.000575042,-0.00322139,0.118536,0.00236272,0.0135261,1077,428,3.10362,27.8418
-140,596,3.12061,-28.1125,0.000612337,-0.00383276,0.000593549,0.000690229,-0.00391065,0.130484,0.00286503,0.0141989,1084,428,3.12066,28.1125
-133,596,3.11707,-28.3907,0.000719221,-0.00443073,0.00070827,0.000814853,-0.00452636,0.13421,0.00332267,0.0141553,1091,428,3.11704,28.3907
-126,596,3.10864,-28.6617,0.00088287,-0.00490678,0.000748091,0.000977969,-0.00500188,0.126445,0.00370387,0.0112641,1098,428,3.10859,28.6617
-119,596,3.1604,-28.9539,0.0012017,-0.00527895,0.000708301,0.00127821,-0.00535546,0.107602,0.00406394,0.014328,1105,428,3.16041,28.9539
-112,596,3.15479,-29.2175,0.00164941,-0.00559522,0.00052262,0.00168692,-0.00563273,0.0716444,0.00442595,0.0163635,1112,428,3.15474,29.2175
-105,596,3.15552,-29.4897,0.00202357,-0.005525,0.000328275,0.00203782,-0.00553924,0.0433792,0.00452764,0.0159073,1119,428,3.15555,29.4897
-98,596,3.19006,-29.691,0.00249128,-0.00535407,0.000251054,0.00249931,-0.00536209,0.0319568,0.00463801,0.0113252,1126,428,3.19007,29.691
-91,596,3.19543,-30,0.00295388,-0.00497705,0.00011116,0.00295544,-0.0049786,0.0140124,0.0046301,0.0255615,1133,428,3.19542,30
-84,596,3.21399,-30.1891,0,0,0,0,0,0,0,-1,1140,428,3.21397,30.1891
-77,596,3.33472,-30.535,0,0,0,0,0,0,0,-1,1147,428,3.33472,30.535
-70,596,3.49646,-30.8503,0,0,0,0,0,0,0,-1,1154,428,3.49649,30.8502
-63,596,1.95569,-12.2758,0,0,0,0,0,0,0,-1,1161,428,1.95563,12.2759
-56,596,1.60107,-10.5827,0,0,0,0,0,0,0,-1,1168,428,1.60108,10.5827
-49,596,1.59473,-10.0393,0,0,0,0,0,0,0,-1,1175,428,1.59472,10.0393
-42,596,1.99585,-6.6246,0,0,0,0,0,0,0,-1,1182,428,1.99586,6.62459
-35,596,3.19629,-31.2104,0,0,0,0,0,0,0,-1,1189,428,3.19628,31.2104
-28,596,3.29419,-31.4067,0,0,0,0,0,0,0,-1,1196,428,3.29417,31.4068
-21,596,3.49231,-31.5228,0,0,0,0,0,0,0,-1,1203,428,3.49228,31.5228
-14,596,3.68018,-31.5647,0,0,0,0,0,0,0,-1,1210,428,3.68018,31.5647
-7,596,3.8894,-31.6631,0,0,0,0,0,0,0,-1,1217,428,3.88937,31.6632
0,596,4.58118,-31.8809,0,0,0,0,0,0,0,-1,1224,428,4.58123,31.8809
7,596,4.53821,-31.6089,0,0,0,0,0,0,0,-1,1231,428,4.53822,31.6089
14,596,4.1781,-31.3992,0,0,0,0,0,0,0,-1,1238,428,4.17812,31.3992
21,596,4.10156,-31.4787,0,0,0,0,0,0,0,-1,1245,428,4.10158,31.4787
28,596,4.06177,-31.2542,0.0119803,0.0113775,-0.0114449,0.0231278,0.000230024,-0.772233,0.0153425,0.0478403,1252,428,4.06175,31.2542
35,596,3.93933,-31.2633,0.011479,0.0226521,-0.014483,0.0325887,0.00154239,-0.969471,0.0212303,0.0476198,1259,428,3.93929,31.2633
42,596,4.22644,-31.8444,0.0128201,0.0355076,-0.0163769,0.0440858,0.00424196,-1.08829,0.0280835,0.048986,1266,428,4.22647,31.8444
49,596,4.2937,-32.1447,0,0,0,0,0,0,0,-1,1273,428,4.29367,32.1447
56,596,5.54285,-32.1246,0,0,0,0,0,0,0,-1,1280,428,5.54283,32.1246
63,596,5.74622,-32.5401,0,0,0,0,0,0,0,-1,1287,428,5.74619,32.5401
70,596,5.65002,-32.897,0,0,0,0,0,0,0,-1,1294,428,5.65008,32.897
77,596,6.01099,-38.2136,0,0,0,0,0,0,0,-1,1301,428,6.01094,38.2136
84,596,6.57129,-32.8525,0,0,0,0,0,0,0,-1,1308,428,6.57125,32.8525
91,596,7.13965,-33.318,0,0,0,0,0,0,0,-1,1315,428,7.1397,33.318
98,596,7.77197,-34.0011,0,0,0,0,0,0,0,-1,1322,428,7.772,34.0011
105,596,5.48059,-31.9035,0,0,0,0,0,0,0,-1,1329,428,5.48063,31.9035
112,596,5.31921,-31.3013,0.045684,0.0272512,0.0238592,0.062045,0.0108902,0.601085,0.0382535,0.0456852,1336,428,5.31921,31.3013
119,596,5.48328,-31.0203,0.0448304,0.00962802,0.0281111,0.060396,-0.00593756,0.505692,0.042382,0.0475041,1343,428,5.48322,31.0203
126,596,5.63611,-31.1091,0,0,0,0,0,0,0,-1,1350,428,5.63611,31.1091
133,596,5.56238,-31.0031,0,0,0,0,0,0,0,-1,1357,428,5.56239,31.0031
140,596,3.86157,-30.0156,0,0,0,0,0,0,0,-1,1364,428,3.86155,30.0156
147,596,5.1781,-30.5367,0.0323194,-0.0229919,0.0268755,0.0432271,-0.0338996,0.385547,0.0446375,0.0493103,1371,428,5.17806,30.5367
154,596,5.38062,-30.6923,0.0294124,-0.0243092,0.0240944,0.0386354,-0.0335323,0.36558,0.0417007,0.0485569,1378,428,5.38065,30.6923
161,596,5.46814,-30.8712,0,0,0,0,0,0,0,-1,1385,428,5.46809,30.8711
168,596,5.57947,-30.6017,0,0,0,0,0,0,0,-1,1392,428,5.57942,30.6016
175,596,5.77771,-30.4624,0,0,0,0,0,0,0,-1,1399,428,5.77776,30.4624
182,596,5.86584,-30.4798,0,0,0,0,0,0,0,-1,1406,428,5.86578,30.4798
189,596,5.76587,-30.2737,0,0,0,0,0,0,0,-1,1413,428,5.76589,30.2737
196,596,5.69678,-29.8536,0,0,0,0,0,0,0,-1,1420,428,5.69682,29.8536
203,596,5.60852,-29.8842,0,0,0,0,0,0,0,-1,1427,428,5.60856,29.8842
210,596,5.62134,-29.7856,0,0,0,0,0,0,0,-1,1434,428,5.62136,29.7856
217,596,5.66724,-29.4554,0,0,0,0,0,0,0,-1,1441,428,5.66729,29.4554
224,596,5.69043,-29.3959,0.00415381,0.00167454,0.000165675,0.00416483,0.00166351,0.0664305,0.00242073,0.0421431,1448,428,5.6904,29.3959
231,596,5.80908,-28.9788,0.00361652,0.00248021,0.00066961,0.00392653,0.00217019,0.433591,0.00227118,0.0167232,1455,428,5.80902,28.9788
238,596,5.80457,-28.6805,0.00328702,0.00292478,0.000969125,0.00409181,0.00212,0.693018,0.00236292,0.0147161,1462,428,5.80451,28.6805
245,596,5.8186,-28.4005,0.00307367,0.0031254,0.00104221,0.00414207,0.002057,0.797803,0.00239144,0.0134421,1469,428,5.81861,28.4006
252,596,5.82886,-28.1065,0.0028991,0.00304957,0.001031,0.00400807,0.00194059,0.82182,0.00231445,0.0104278,1476,428,5.82887,28.1065
259,596,5.83264,-27.7895,0.00261232,0.00284843,0.000948332,0.00368603,0.00177472,0.847325,0.00212862,0.0088819,1483,428,5.83263,27.7895
266,596,5.82861,-27.472,0.00235212,0.00260943,0.000865528,0.00335581,0.00160574,0.859179,0.00193808,0.0103356,1490,428,5.82865,27.472
273,596,5.82861,-27.145,0.00216396,0.00254297,0.000863293,0.00323731,0.00146962,0.89344,0.0018717,0.0122925,1497,428,5.82866,27.145
280,596,5.84875,-26.8409,0.00193727,0.0023269,0.000866004,0.00301973,0.00124444,0.896034,0.0017524,0.0132392,1504,428,5.8487,26.8409
287,596,5.86719,-26.519,0.00187462,0.00245749,0.00103938,0.00324552,0.00108659,0.922086,0.00190759,0.0114756,1511,428,5.86715,26.519
294,596,5.82458,-26.1609,0.0018166,0.00266158,0.00122582,0.00353568,0.000942502,0.951354,0.00211418,0.00888145,1518,428,5.82455,26.161
301,596,5.82507,-25.8203,0.00176586,0.00303132,0.00151297,0.00403854,0.000758639,0.983449,0.00247849,0.0098265,1525,428,5.82504,25.8203
308,596,5.85303,-25.4576,0.00179889,0.00341919,0.0018591,0.00463699,0.000581088,0.990879,0.00291699,0.0148066,1532,428,5.85306,25.4576
315,596,5.82971,-25.0687,0.00183273,0.00390356,0.00220656,0.00530556,0.000430729,1.00477,0.00340256,0.0153423,1539,428,5.82975,25.0687
322,596,5.82898,-24.7101,0.00178567,0.00445492,0.00257046,0.00601658,0.000224009,1.02485,0.00393851,0.0126881,1546,428,5.82893,24.7101
329,596,5.80579,-24.3415,0.00164337,0.00490904,0.00291246,0.00661516,-6.2742e-05,1.04089,0.00443117,0.00970176,1553,428,5.80584,24.3415
336,596,5.77881,-23.982,0.00142011,0.00526422,0.00317042,0.00704971,-0.000365381,1.0579,0.00482621,0.00877556,1560,428,5.77878,23.982
343,596,5.77539,-23.596,0.00117643,0.00563868,0.00341251,0.0074847,-0.000669594,1.07492,0.00522731,0.010843,1567,428,5.77537,23.596
350,596,5.77246,-23.1681,0.000912049,0.00629039,0.00372767,0.00819765,-0.000995208,1.09787,0.00582524,0.0109551,1574,428,5.77248,23.1681
357,596,5.75012,-22.7513,0.000502628,0.00675138,0.0040641,0.00875328,-0.00149927,1.1131,0.00639413,0.00904647,1581,428,5.75016,22.7513
364,596,5.72522,-22.3061,-0.000188853,0.00741633,0.00423745,0.00930722,-0.00207974,1.15108,0.00700179,0.0153121,1588,428,5.72524,22.3061
371,596,5.71619,-21.918,-0.000923616,0.00809469,0.00437336,0.00986716,-0.00269608,1.18574,0.00763711,0.0234071,1595,428,5.71614,21.918
378,596,5.63245,-21.6049,-0.00171069,0.00927799,0.004569,0.0109295,-0.00336222,1.22394,0.00862829,0.0317287,1602,428,5.63244,21.6049
385,596,5.50525,-21.1071,-0.00303336,0.0101254,0.00450146,0.0115179,-0.00442589,1.27078,0.00950386,0.0436577,1609,428,5.5052,21.1071
392,596,5.38538,-20.657,0,0,0,0,0,0,0,-1,1616,428,5.38533,20.6571
399,596,5.44983,-19.618,0,0,0,0,0,0,0,-1,1623,428,5.44979,19.618
406,596,3.60034,-10.1525,0,0,0,0,0,0,0,-1,1630,428,3.60028,10.1525
413,596,3.39124,-2.63528,0,0,0,0,0,0,0,-1,1637,428,3.39122,2.6353
420,596,2.6344,-3.06308,0,0,0,0,0,0,0,-1,1644,428,2.63439,3.06308
427,596,2.99329,-1.90512,0,0,0,0,0,0,0,-1,1651,428,2.99327,1.90512
434,596,3.80896,-0.253998,0,0,0,0,0,0,0,-1,1658,428,3.80902,0.254004
441,596,3.86401,-0.131622,0,0,0,0,0,0,0,-1,1665,428,3.86406,0.131613
448,596,1.0769,0.0083313,0,0,0,0,0,0,0,-1,1672,428,1.07684,-0.00832231
455,596,2.00769,-1.43329,0,0,0,0,0,0,0,-1,1679,428,2.00765,1.4333
462,596,0,0,0,0,0,0,0,0,0,-1,1686,428,0,0
469,596,0,0,0,0,0,0,0,0,0,-1,1693,428,0,0
476,596,0,0,0,0,0,0,0,0,0,-1,1700,428,0,0
483,596,0,0,0,0,0,0,0,0,0,-1,1707,428,0,0
490,596,0,0,0,0,0,0,0,0,0,-1,1714,428,0,0
497,596,0,0,0,0,0,0,0,0,0,-1,1721,428,0,0
504,596,0,0,0,0,0,0,0,0,0,-1,1728,428,0,0
511,596,0,0,0,0,0,0,0,0,0,-1,1735,428,0,0
518,596,0,0,0,0,0,0,0,0,0,-1,1742,428,0,0
525,596,0,0,0,0,0,0,0,0,0,-1,1749,428,0,0
532,596,0,0,0,0,0,0,0,0,0,-1,1756,428,0,0
539,596,0,0,0,0,0,0,0,0,0,-1,1763,428,0,0
546,596,0,0,0,0,0,0,0,0,0,-1,1770,428,0,0
553,596,0,0,0,0,0,0,0,0,0,-1,1777,428,0,0
560,596,0,0,0,0,0,0,0,0,0,-1,1784,428,0,0
567,596,0,0,0,0,0,0,0,0,0,-1,1791,428,0,0
574,596,0,0,0,0,0,0,0,0,0,-1,1798,428,0,0
581,596,0,0,0,0,0,0,0,0,0,-1,1805,428,0,0
588,596,0,0,0,0,0,0,0,0,0,-1,1812,428,0,0
595,596,0,0,0,0,0,0,0,0,0,-1,1819,428,0,0
602,596,0,0,0,0,0,0,0,0,0,-1,1826,428,0,0
609,596,0,0,0,0,0,0,0,0,0,-1,1833,428,0,0
616,596,0,0,0,0,0,0,0,0,0,-1,1840,428,0,0
623,596,0,0,0,0,0,0,0,0,0,-1,1847,428,0,0
630,596,0,0,0,0,0,0,0,0,0,-1,1854,428,0,0
637,596,0,0,0,0,0,0,0,0,0,-1,1861,428,0,0
644,596,0,0,0,0,0,0,0,0,0,-1,1868,428,0,0
651,596,0,0,0,0,0,0,0,0,0,-1,1875,428,0,0
658,596,0,0,0,0,0,0,0,0,0,-1,1882,428,0,0
665,596,0,0,0,0,0,0,0,0,0,-1,1889,428,0,0
672,596,0,0,0,0,0,0,0,0,0,-1,1896,428,0,0
679,596,0,0,0,0,0,0,0,0,0,-1,1903,428,0,0
686,596,0,0,0,0,0,0,0,0,0,-1,1910,428,0,0
693,596,0,0,0,0,0,0,0,0,0,-1,1917,428,0,0
700,596,0,0,0,0,0,0,0,0,0,-1,1924,428,0,0
707,596,0,0,0,0,0,0,0,0,0,-1,1931,428,0,0
714,596,0,0,0,0,0,0,0,0,0,-1,1938,428,0,0
721,596,0,0,0,0,0,0,0,0,0,-1,1945,428,0,0
728,596,0,0,0,0,0,0,0,0,0,-1,1952,428,0,0
735,596,0,0,0,0,0,0,0,0,0,-1,1959,428,0,0
742,596,0,0,0,0,0,0,0,0,0,-1,1966,428,0,0
749,596,0,0,0,0,0,0,0,0,0,-1,1973,428,0,0
756,596,0,0,0,0,0,0,0,0,0,-1,1980,428,0,0
763,596,0,0,0,0,0,0,0,0,0,-1,1987,428,0,0
770,596,0,0,0,0,0,0,0,0,0,-1,1994,428,0,0
777,596,0,0,0,0,0,0,0,0,0,-1,2001,428,0,0
784,596,0,0,0,0,0,0,0,0,0,-1,2008,428,0,0
791,596,0,0,0,0,0,0,0,0,0,-1,2015,428,0,0
798,596,0,0,0,0,0,0,0,0,0,-1,2022,428,0,0
805,596,0,0,0,0,0,0,0,0,0,-1,2029,428,0,0
812,596,0,0,0,0,0,0,0,0,0,-1,2036,428,0,0
-700,589,0,0,0,0,0,0,0,0,0,-1,524,435,0,0
-693,589,0,0,0,0,0,0,0,0,0,-1,531,435,0,0
-686,589,0,0,0,0,0,0,0,0,0,-1,538,435,0,0
-679,589,0,0,0,0,0,0,0,0,0,-1,545,435,0,0
-672,589,0,0,0,0,0,0,0,0,0,-1,552,435,0,0
-665,589,0,0,0,0,0,0,0,0,0,-1,559,435,0,0
-658,589,0,0,0,0,0,0,0,0,0,-1,566,435,0,0
-651,589,0,0,0,0,0,0,0,0,0,-1,573,435,0,0
-644,589,0,0,0,0,0,0,0,0,0,-1,580,435,0,0
-637,589,0,0,0,0,0,0,0,0,0,-1,587,435,0,0
-630,589,0,0,0,0,0,0,0,0,0,-1,594,435,0,0
-623,589,0,0,0,0,0,0,0,0,0,-1,601,435,0,0
-616,589,0,0,0,0,0,0,0,0,0,-1,608,435,0,0
-609,589,0,0,0,0,0,0,0,0,0,-1,615,435,0,0
-602,589,0,0,0,0,0,0,0,0,0,-1,622,435,0,0
-595,589,0,0,0,0,0,0,0,0,0,-1,629,435,0,0
-588,589,0,0,0,0,0,0,0,0,0,-1,636,435,0,0
-581,589,0,0,0,0,0,0,0,0,0,-1,643,435,0,0
-574,589,0,0,0,0,0,0,0,0,0,-1,650,435,0,0
-567,589,0,0,0,0,0,0,0,0,0,-1,657,435,0,0
-560,589,0,0,0,0,0,0,0,0,0,-1,664,435,0,0
-553,589,0,0,0,0,0,0,0,0,0,-1,671,435,0,0
-546,589,0,0,0,0,0,0,0,0,0,-1,678,435,0,0
-539,589,0,0,0,0,0,0,0,0,0,-1,685,435,0,0
-532,589,0,0,0,0,0,0,0,0,0,-1,692,435,0,0
-525,589,0,0,0,0,0,0,0,0,0,-1,699,435,0,0
-518,589,0,0,0,0,0,0,0,0,0,-1,706,435,0,0
-511,589,0,0,0,0,0,0,0,0,0,-1,713,435,0,0
-504,589,0,0,0,0,0,0,0,0,0,-1,720,435,0,0
-497,589,0,0,0,0,0,0,0,0,0,-1,727,435,0,0
-490,589,0,0,0,0,0,0,0,0,0,-1,734,435,0,0
-483,589,0,0,0,0,0,0,0,0,0,-1,741,435,0,0
-476,589,0,0,0,0,0,0,0,0,0,-1,748,435,0,0
-469,589,0,0,0,0,0,0,0,0,0,-1,755,435,0,0
-462,589,0,0,0,0,0,0,0,0,0,-1,762,435,0,0
-455,589,0,0,0,0,0,0,0,0,0,-1,769,435,0,0
-448,589,0,0,0,0,0,0,0,0,0,-1,776,435,0,0
-441,589,0,0,0,0,0,0,0,0,0,-1,783,435,0,0
-434,589,0,0,0,0,0,0,0,0,0,-1,790,435,0,0
-427,589,0,0,0,0,0,0,0,0,0,-1,797,435,0,0
-420,589,0,0,0,0,0,0,0,0,0,-1,804,435,0,0
-413,589,0,0,0,0,0,0,0,0,0,-1,811,435,0,0
-406,589,0,0,0,0,0,0,0,0,0,-1,818,435,0,0
-399,589,0,0,0,0,0,0,0,0,0,-1,825,435,0,0
-392,589,0,0,0,0,0,0,0,0,0,-1,832,435,0,0
-385,589,0,0,0,0,0,0,0,0,0,-1,839,435,0,0
-378,589,0,0,0,0,0,0,0,0,0,-1,846,435,0,0
-371,589,0,0,0,0,0,0,0,0,0,-1,853,435,0,0
-364,589,0,0,0,0,0,0,0,0,0,-1,860,435,0,0
-357,589,0,0,0,0,0,0,0,0,0,-1,867,435,0,0
-350,589,-0.799927,-20.664,0,0,0,0,0,0,0,-1,874,435,-0.799952,20.664
-343,589,-0.370911,-19.1543,0,0,0,0,0,0,0,-1,881,435,-0.370922,19.1543
-336,589,-0.836914,-18.9103,0,0,0,0,0,0,0,-1,888,435,-0.836925,18.9103
-329,589,2.58252,-16.902,0,0,0,0,0,0,0,-1,895,435,2.58251,16.902
-322,589,3.07397,-18.5277,0,0,0,0,0,0,0,-1,902,435,3.07397,18.5277
-315,589,3.29584,-19.3962,0,0,0,0,0,0,0,-1,909,435,3.29582,19.3962
-308,589,2.48431,-17.8482,0,0,0,0,0,0,0,-1,916,435,2.4843,17.8482
-301,589,2.58289,-19.0644,0,0,0,0,0,0,0,-1,923,435,2.58291,19.0643
-294,589,2.54895,-19.3016,-0.00126974,0.00195281,-0.0162019,0.0166233,-0.0159403,-0.83496,0.018802,0.0452215,930,435,2.54894,19.3016
-287,589,2.90619,-20.4548,-0.00265451,-0.00415951,-0.012698,0.00931323,-0.0161273,-0.755802,0.0148627,0.0461514,937,435,2.90617,20.4548
-280,589,2.9057,-20.936,-0.0028988,-0.00750325,-0.0100925,0.00515071,-0.0155528,-0.673261,0.0124459,0.0332624,944,435,2.90572,20.936
-273,589,2.92822,-21.3537,-0.00152377,-0.00882541,-0.00905092,0.0045849,-0.0149341,-0.593696,0.0117855,0.0190543,951,435,2.9282,21.3537
-266,589,2.91425,-21.7388,-0.00190136,-0.0110545,-0.00645778,0.00143712,-0.0143929,-0.477132,0.0101084,0.0172648,958,435,2.91427,21.7388
-259,589,2.88013,-22.1232,-0.00266458,-0.0114076,-0.00451383,-0.000752396,-0.0133198,-0.400708,0.00863997,0.0149182,965,435,2.88012,22.1232
-252,589,2.87915,-22.5828,-0.00276082,-0.0107678,-0.00315156,-0.00166919,-0.0118595,-0.333444,0.00741282,0.0101804,972,435,2.87916,22.5828
-245,589,2.88684,-22.9798,-0.00267909,-0.00965654,-0.00212593,-0.00208238,-0.0102533,-0.273641,0.00625795,0.010902,979,435,2.88682,22.9798
-238,589,2.86597,-23.3671,-0.00256812,-0.00824978,-0.00126302,-0.0023,-0.0085179,-0.209175,0.00508826,0.0151708,986,435,2.86594,23.3671
-231,589,2.84235,-23.7306,-0.00202927,-0.00609118,-0.000984811,-0.0018031,-0.00631735,-0.225748,0.00375762,0.0155398,993,435,2.84234,23.7306
-224,589,2.81952,-24.1091,-0.00141298,-0.00408706,-0.000885607,-0.00114628,-0.00435376,-0.292509,0.00260585,0.015661,1000,435,2.81952,24.1091
-217,589,2.80743,-24.5075,-0.000882581,-0.00246276,-0.00084921,-0.000512756,-0.00283258,-0.410724,0.0017428,0.0165417,1007,435,2.80744,24.5075
-210,589,2.81091,-24.8786,-0.000408989,-0.00114282,-0.000725095,3.67399e-05,-0.00158855,-0.551171,0.00107149,0.0151966,1014,435,2.81092,24.8786
-203,589,2.80164,-25.2238,-9.61379e-05,-0.000605944,-0.000568429,0.000271925,-0.000974007,-0.574623,0.000756451,0.0109571,1021,435,2.80163,25.2239
-196,589,2.79004,-25.561,-2.90916e-05,-0.00013539,-0.000339762,0.000261653,-0.000426135,-0.707811,0.000400862,0.0131538,1028,435,2.79,25.561
-189,589,2.78259,-25.9143,0.000310417,6.22852e-05,-0.000327916,0.000536952,-0.00016425,-0.604548,0.000423472,0.0176961,1035,435,2.78262,25.9143
-182,589,2.75916,-26.2251,0.000631714,-0.000462185,-4.9976e-05,0.000633992,-0.000464463,-0.0455596,0.000636706,0.013245,1042,435,2.75911,26.2251
-175,589,2.78088,-26.5379,0.000453212,-0.00186157,0.000413859,0.000524981,-0.00193334,0.171706,0.00149493,0.0170869,1049,435,2.78091,26.5379
-168,589,2.79224,-26.9111,0.000325636,-0.003079,0.000859946,0.000530513,-0.00328388,0.233884,0.00238583,0.0139782,1056,435,2.79224,26.9111
-161,589,2.78528,-27.2371,0.000358247,-0.00404646,0.00104162,0.000592148,-0.00428036,0.220891,0.00307005,0.0120814,1063,435,2.7853,27.2371
-154,589,2.77637,-27.5139,0.00047566,-0.00493451,0.00117167,0.000718507,-0.00517736,0.204371,0.00371431,0.012523,1070,435,2.77642,27.5139
-147,589,2.81042,-27.806,0.000629797,-0.00570093,0.00124115,0.00086443,-0.00593556,0.18684,0.00427442,0.0132352,1077,435,2.81047,27.806
-140,589,2.82214,-28.0884,0.000767228,-0.00655107,0.00131573,0.000996591,-0.00678043,0.172589,0.00488648,0.0142088,1084,435,2.8222,28.0884
-133,589,2.82922,-28.3563,0.00089937,-0.0073043,0.00134524,0.00111433,-0.00751926,0.158454,0.00542258,0.0133941,1091,435,2.82919,28.3563
-126,589,2.85217,-28.6508,0.00109512,-0.00792551,0.00133025,0.0012872,-0.00811759,0.143402,0.00588788,0.0112835,1098,435,2.85214,28.6508
-119,589,2.87646,-28.9199,0.00132268,-0.00828531,0.00123563,0.00147905,-0.00844168,0.125876,0.00618008,0.0180785,1105,435,2.87645,28.9199
-112,589,2.88269,-29.1621,0.00163939,-0.00845382,0.000938814,0.00172597,-0.0085404,0.0919632,0.00634763,0.0190448,1112,435,2.88272,29.1621
-105,589,2.88086,-29.4468,0.00205078,-0.00810561,0.000607567,0.002087,-0.00814182,0.0595382,0.00624097,0.0205249,1119,435,2.88092,29.4468
-98,589,2.9624,-29.7433,0.00259304,-0.00755555,0.000442785,0.00261232,-0.00757483,0.0435199,0.00610974,0.0361959,1126,435,2.96238,29.7433
-91,589,3.03149,-30.2328,0,0,0,0,0,0,0,-1,1133,435,3.03149,30.2328
-84,589,2.76538,-22.6013,0,0,0,0,0,0,0,-1,1140,435,2.76539,22.6014
-77,589,2.18152,-14.8023,0,0,0,0,0,0,0,-1,1147,435,2.18155,14.8023
-70,589,1.48267,-9.90961,0,0,0,0,0,0,0,-1,1154,435,1.48264,9.9096
-63,589,0.880127,-5.50586,0,0,0,0,0,0,0,-1,1161,435,0.880186,5.50587
-56,589,-2.78052,-7.28082,0,0,0,0,0,0,0,-1,1168,435,-2.78053,7.28082
-49,589,-0.525757,-2.76703,0,0,0,0,0,0,0,-1,1175,435,-0.525771,2.76702
-42,589,-2.7738,-2.87921,0,0,0,0,0,0,0,-1,1182,435,-2.77383,2.87922
-35,589,-2.55225,-3.27551,0,0,0,0,0,0,0,-1,1189,435,-2.55223,3.27552
-28,589,-0.0632324,-3.42938,0,0,0,0,0,0,0,-1,1196,435,-0.063241,3.42938
-21,589,3.26758,-31.112,0,0,0,0,0,0,0,-1,1203,435,3.26758,31.112
-14,589,3.5553,-31.472,0,0,0,0,0,0,0,-1,1210,435,3.55532,31.472
-7,589,3.84302,-31.832,0,0,0,0,0,0,0,-1,1217,435,3.84307,31.832
0,589,4.98547,-32.0344,0,0,0,0,0,0,0,-1,1224,435,4.98549,32.0344
7,589,5.08374,-31.5833,0.0210656,-0.0140528,-0.00228115,0.0212131,-0.0142003,-0.0645944,0.0205792,0.0456766,1231,435,5.08378,31.5833
14,589,5.33716,-31.2093,0.0188981,-0.00725966,-0.0046607,0.0197037,-0.00806527,-0.171161,0.0164951,0.0478439,1238,435,5.33719,31.2093
21,589,5.69055,-30.835,0.0173067,0.00364487,-0.00950821,0.0221834,-0.00123179,-0.473906,0.0152162,0.0461046,1245,435,5.69054,30.835
28,589,4.00012,-30.7972,0,0,0,0,0,0,0,-1,1252,435,4.00006,30.7972
35,589,4.05957,-31.2175,0.0154824,0.039372,-0.021791,0.0522773,0.00257721,-1.03611,0.034025,0.0473849,1259,435,4.05961,31.2175
42,589,4.22473,-31.5108,0.0173016,0.0585948,-0.0257062,0.0709192,0.00497719,-1.12374,0.0457108,0.0475291,1266,435,4.22475,31.5108
49,589,4.38977,-31.4518,0.0208639,0.0776769,-0.0280536,0.0891946,0.00934635,-1.18122,0.0566054,0.0450563,1273,435,4.38973,31.4518
56,589,4.40173,-31.469,0.0275567,0.0927215,-0.028757,0.103597,0.0166813,-1.20924,0.0642303,0.0405235,1280,435,4.40168,31.469
63,589,4.25684,-31.8081,0.0337044,0.103821,-0.0260997,0.11247,0.025056,-1.25082,0.0681802,0.039489,1287,435,4.25679,31.8081
70,589,4.12183,-32.1902,0.0378159,0.10638,-0.020049,0.111813,0.0323837,-1.3062,0.0664324,0.0414843,1294,435,4.12181,32.1902
77,589,3.97107,-32.5034,0,0,0,0,0,0,0,-1,1301,435,3.97106,32.5034
84,589,5.00464,-32.4034,0.051316,0.101477,-0.00619689,0.102231,0.0505618,-1.44968,0.0590241,0.042125,1308,435,5.00467,32.4035
91,589,5.53577,-32.8194,0.0554628,0.0916097,0.00391224,0.0920283,0.0550442,1.46421,0.0534725,0.044936,1315,435,5.53581,32.8194
98,589,6.13342,-33.5695,0.0574234,0.0780129,0.0133727,0.0845945,0.0508418,1.11343,0.0491717,0.0447995,1322,435,6.13344,33.5695
105,589,6.57239,-34.2559,0,0,0,0,0,0,0,-1,1329,435,6.5724,34.2559
112,589,5.47693,-31.0663,0,0,0,0,0,0,0,-1,1336,435,5.47688,31.0663
119,589,5.55457,-30.6586,0.057101,0.0171599,0.0361995,0.0784732,-0.00421233,0.533331,0.0537746,0.0409746,1343,435,5.55457,30.6586
126,589,5.12292,-30.0429,0,0,0,0,0,0,0,-1,1350,435,5.12291,30.0429
133,589,3.67993,-29.2756,0,0,0,0,0,0,0,-1,1357,435,3.67988,29.2756
140,589,4.56335,-29.4741,0,0,0,0,0,0,0,-1,1364,435,4.5634,29.474
147,589,5.5105,-29.9848,0.0410584,-0.0261282,0.0383737,0.0584656,-0.0435354,0.425863,0.0591002,0.0450636,1371,435,5.51053,29.9848
154,589,5.76758,-30.2112,0.0375893,-0.0276877,0.0355816,0.0532345,-0.043333,0.414256,0.0558509,0.0429213,1378,435,5.76754,30.2112
161,589,6.19287,-30.3484,0.0336445,-0.0276849,0.033718,0.0485565,-0.0425969,0.416394,0.0526649,0.0492595,1385,435,6.19287,30.3483
168,589,6.73853,-30.19,0,0,0,0,0,0,0,-1,1392,435,6.73852,30.19
175,589,8.66992,-7.65527,0,0,0,0,0,0,0,-1,1399,435,8.66994,7.65528
182,589,3.8136,-2.45389,0,0,0,0,0,0,0,-1,1406,435,3.81363,2.4539
189,589,3.69983,-3.68149,0,0,0,0,0,0,0,-1,1413,435,3.69987,3.68147
196,589,3.31055,-5.31677,0,0,0,0,0,0,0,-1,1420,435,3.31059,5.31678
203,589,2.72559,-8.84338,0,0,0,0,0,0,0,-1,1427,435,2.72558,8.84338
210,589,3.62378,-14.4032,0,0,0,0,0,0,0,-1,1434,435,3.62378,14.4032
217,589,4.65601,-22.3745,0,0,0,0,0,0,0,-1,1441,435,4.65607,22.3745
224,589,6.12439,-29.7506,0,0,0,0,0,0,0,-1,1448,435,6.12444,29.7506
231,589,6.09155,-29.1676,0,0,0,0,0,0,0,-1,1455,435,6.09153,29.1676
238,589,6.06213,-28.7577,0.00418977,0.00392411,0.0010036,0.00506929,0.00304459,0.719605,0.00294644,0.0437389,1462,435,6.06218,28.7577
245,589,6.10425,-28.3737,0.00401243,0.0038961,0.000979913,0.0049359,0.00297263,0.755755,0.00286954,0.0274594,1469,435,6.10421,28.3737
252,589,6.13989,-28.082,0.00388685,0.00337513,0.000877135,0.00454468,0.0027173,0.643485,0.00264059,0.0137749,1476,435,6.13986,28.082
259,589,6.14807,-27.7906,0.00356839,0.00269755,0.000648375,0.00391398,0.00235196,0.489709,0.00227503,0.00954506,1483,435,6.14802,27.7906
266,589,6.15967,-27.4673,0.00326286,0.00201539,0.00042132,0.00339182,0.00188643,0.29704,0.00196239,0.00997245,1490,435,6.15972,27.4674
273,589,6.16638,-27.1593,0.00304029,0.00161179,0.000314081,0.0031063,0.00154578,0.207142,0.00179343,0.0119301,1497,435,6.16634,27.1593
280,589,6.17432,-26.8613,0.00268956,0.000961221,0.000188639,0.00270991,0.000940872,0.107459,0.00158873,0.0121598,1504,435,6.17436,26.8613
287,589,6.17883,-26.5374,0.00249451,0.000779989,0.000242685,0.0025282,0.0007463,0.137938,0.00149992,0.0108285,1511,435,6.17887,26.5374
294,589,6.17078,-26.1602,0.002325,0.000796257,0.00032856,0.00239262,0.000728633,0.202983,0.00141613,0.00965215,1518,435,6.17073,26.1601
301,589,6.17737,-25.7999,0.00213908,0.00104088,0.000529631,0.00235288,0.000827076,0.383677,0.00137826,0.0102705,1525,435,6.17736,25.7999
308,589,6.19348,-25.4484,0.00200035,0.00127519,0.000772677,0.00249129,0.000784249,0.566023,0.00147087,0.0103647,1532,435,6.19348,25.4484
315,589,6.19592,-25.0879,0.00185213,0.00168607,0.0010205,0.00279297,0.00074523,0.744808,0.00166995,0.0100683,1539,435,6.19598,25.0879
322,589,6.21118,-24.719,0.0016527,0.00220404,0.00131543,0.00327238,0.00058436,0.888687,0.00201524,0.0103158,1546,435,6.21121,24.719
329,589,6.19067,-24.3415,0.00140667,0.00269153,0.0016344,0.00380523,0.000292975,0.972656,0.00244502,0.00938751,1553,435,6.19062,24.3415
336,589,6.17419,-23.9839,0.00112289,0.00312278,0.00191017,0.0042789,-3.32429e-05,1.02653,0.00286375,0.00916526,1560,435,6.17416,23.9839
343,589,6.1615,-23.6116,0.000838427,0.00358779,0.00217005,0.00478193,-0.000355715,1.06774,0.0033129,0.0103705,1567,435,6.16146,23.6116
350,589,6.13672,-23.1968,0.000573176,0.00429375,0.00250663,0.00555498,-0.00068805,1.10463,0.00395268,0.0151342,1574,435,6.13673,23.1968
357,589,6.12402,-22.7574,0.000214458,0.00487205,0.00287228,0.00624099,-0.00115449,1.12604,0.0045941,0.0130664,1581,435,6.12404,22.7574
364,589,6.12231,-22.3401,-0.000316965,0.005625,0.00313023,0.00696969,-0.00166166,1.16505,0.0052881,0.0110601,1588,435,6.12232,22.3401
371,589,6.09912,-21.9347,-0.000855021,0.00637008,0.00335973,0.00769092,-0.00217586,1.19622,0.00598587,0.0106912,1595,435,6.09908,21.9347
378,589,6.07825,-21.5179,-0.00143447,0.00743695,0.00359856,0.00871309,-0.0027106,1.23001,0.00689228,0.012338,1602,435,6.07829,21.5179
385,589,6.05554,-21.0555,-0.00231148,0.0082685,0.00359483,0.00937435,-0.00341734,1.27236,0.00764757,0.0162511,1609,435,6.0555,21.0555
392,589,6.01404,-20.5062,-0.00316157,0.00925081,0.00355697,0.0101979,-0.00410863,1.31058,0.00850559,0.0201894,1616,435,6.01402,20.5062
399,589,5.98218,-19.9318,-0.00316282,0.0106126,0.00389313,0.0116368,-0.00418694,1.31357,0.0094673,0.0313989,1623,435,5.98219,19.9318
406,589,5.96924,-19.5092,0,0,0,0,0,0,0,-1,1630,435,5.96919,19.5092
413,589,5.61377,-19.0606,0,0,0,0,0,0,0,-1,1637,435,5.61372,19.0606
420,589,2.79724,-5.79956,0,0,0,0,0,0,0,-1,1644,435,2.7973,5.79955
427,589,5.32166,-18.5201,0,0,0,0,0,0,0,-1,1651,435,5.32167,18.5201
434,589,2.52734,-2.73029,0,0,0,0,0,0,0,-1,1658,435,2.52736,2.73029
441,589,3.17639,-2.02435,0,0,0,0,0,0,0,-1,1665,435,3.17643,2.02435
448,589,0.453735,-3.2868,0,0,0,0,0,0,0,-1,1672,435,0.453701,3.28681
455,589,0.664307,-3.46848,0,0,0,0,0,0,0,-1,1679,435,0.66425,3.46846
462,589,3.46716,-4.41891,0,0,0,0,0,0,0,-1,1686,435,3.4672,4.41891
469,589,0.0238037,-3.81497,0,0,0,0,0,0,0,-1,1693,435,0.0237965,3.81498
476,589,0,0,0,0,0,0,0,0,0,-1,1700,435,0,0
483,589,0,0,0,0,0,0,0,0,0,-1,1707,435,0,0
490,589,0,0,0,0,0,0,0,0,0,-1,1714,435,0,0
497,589,0,0,0,0,0,0,0,0,0,-1,1721,435,0,0
504,589,0,0,0,0,0,0,0,0,0,-1,1728,435,0,0
511,589,0,0,0,0,0,0,0,0,0,-1,1735,435,0,0
518,589,0,0,0,0,0,0,0,0,0,-1,1742,435,0,0
525,589,0,0,0,0,0,0,0,0,0,-1,1749,435,0,0
532,589,0,0,0,0,0,0,0,0,0,-1,1756,435,0,0
539,589,0,0,0,0,0,0,0,0,0,-1,1763,435,0,0
546,589,0,0,0,0,0,0,0,0,0,-1,1770,435,0,0
553,589,0,0,0,0,0,0,0,0,0,-1,1777,435,0,0
560,589,0,0,0,0,0,0,0,0,0,-1,1784,435,0,0
567,589,0,0,0,0,0,0,0,0,0,-1,1791,435,0,0
574,589,0,0,0,0,0,0,0,0,0,-1,1798,435,0,0
581,589,0,0,0,0,0,0,0,0,0,-1,1805,435,0,0
588,589,0,0,0,0,0,0,0,0,0,-1,1812,435,0,0
595,589,0,0,0,0,0,0,0,0,0,-1,1819,435,0,0
602,589,0,0,0,0,0,0,0,0,0,-1,1826,435,0,0
609,589,0,0,0,0,0,0,0,0,0,-1,1833,435,0,0
616,589,0,0,0,0,0,0,0,0,0,-1,1840,435,0,0
623,589,0,0,0,0,0,0,0,0,0,-1,1847,435,0,0
630,589,0,0,0,0,0,0,0,0,0,-1,1854,435,0,0
637,589,0,0,0,0,0,0,0,0,0,-1,1861,435,0,0
644,589,0,0,0,0,0,0,0,0,0,-1,1868,435,0,0
651,589,0,0,0,0,0,0,0,0,0,-1,1875,435,0,0
658,589,0,0,0,0,0,0,0,0,0,-1,1882,435,0,0
665,589,0,0,0,0,0,0,0,0,0,-1,1889,435,0,0
672,589,0,0,0,0,0,0,0,0,0,-1,1896,435,0,0
679,589,0,0,0,0,0,0,0,0,0,-1,1903,435,0,0
686,589,0,0,0,0,0,0,0,0,0,-1,1910,435,0,0
693,589,0,0,0,0,0,0,0,0,0,-1,1917,435,0,0
700,589,0,0,0,0,0,0,0,0,0,-1,1924,435,0,0
707,589,0,0,0,0,0,0,0,0,0,-1,1931,435,0,0
714,589,0,0,0,0,0,0,0,0,0,-1,1938,435,0,0
721,589,0,0,0,0,0,0,0,0,0,-1,1945,435,0,0
728,589,0,0,0,0,0,0,0,0,0,-1,1952,435,0,0
735,589,0,0,0,0,0,0,0,0,0,-1,1959,435,0,0
742,589,0,0,0,0,0,0,0,0,0,-1,1966,435,0,0
749,589,0,0,0,0,0,0,0,0,0,-1,1973,435,0,0
756,589,0,0,0,0,0,0,0,0,0,-1,1980,435,0,0
763,589,0,0,0,0,0,0,0,0,0,-1,1987,435,0,0
770,589,0,0,0,0,0,0,0,0,0,-1,1994,435,0,0
777,589,0,0,0,0,0,0,0,0,0,-1,2001,435,0,0
784,589,0,0,0,0,0,0,0,0,0,-1,2008,435,0,0
791,589,0,0,0,0,0,0,0,0,0,-1,2015,435,0,0
798,589,0,0,0,0,0,0,0,0,0,-1,2022,435,0,0
805,589,0,0,0,0,0,0,0,0,0,-1,2029,435,0,0
812,589,0,0,0,0,0,0,0,0,0,-1,2036,435,0,0
-700,582,0,0,0,0,0,0,0,0,0,-1,524,442,0,0
-693,582,0,0,0,0,0,0,0,0,0,-1,531,442,0,0
-686,582,0,0,0,0,0,0,0,0,0,-1,538,442,0,0
-679,582,0,0,0,0,0,0,0,0,0,-1,545,442,0,0
-672,582,0,0,0,0,0,0,0,0,0,-1,552,442,0,0
-665,582,0,0,0,0,0,0,0,0,0,-1,559,442,0,0
-658,582,0,0,0,0,0,0,0,0,0,-1,566,442,0,0
-651,582,0,0,0,0,0,0,0,0,0,-1,573,442,0,0
-644,582,0,0,0,0,0,0,0,0,0,-1,580,442,0,0
-637,582,0,0,0,0,0,0,0,0,0,-1,587,442,0,0
-630,582,0,0,0,0,0,0,0,0,0,-1,594,442,0,0
-623,582,0,0,0,0,0,0,0,0,0,-1,601,442,0,0
-616,582,0,0,0,0,0,0,0,0,0,-1,608,442,0,0
-609,582,0,0,0,0,0,0,0,0,0,-1,615,442,0,0
-602,582,0,0,0,0,0,0,0,0,0,-1,622,442,0,0
-595,582,0,0,0,0,0,0,0,0,0,-1,629,442,0,0
-588,582,0,0,0,0,0,0,0,0,0,-1,636,442,0,0
-581,582,0,0,0,0,0,0,0,0,0,-1,643,442,0,0
-574,582,0,0,0,0,0,0,0,0,0,-1,650,442,0,0
-567,582,0,0,0,0,0,0,0,0,0,-1,657,442,0,0
-560,582,0,0,0,0,0,0,0,0,0,-1,664,442,0,0
-553,582,0,0,0,0,0,0,0,0,0,-1,671,442,0,0
-546,582,0,0,0,0,0,0,0,0,0,-1,678,442,0,0
-539,582,0,0,0,0,0,0,0,0,0,-1,685,442,0,0
-532,582,0,0,0,0,0,0,0,0,0,-1,692,442,0,0
-525,582,0,0,0,0,0,0,0,0,0,-1,699,442,0,0
-518,582,0,0,0,0,0,0,0,0,0,-1,706,442,0,0
-511,582,0,0,0,0,0,0,0,0,0,-1,713,442,0,0
-504,582,0,0,0,0,0,0,0,0,0,-1,720,442,0,0
-497,582,0,0,0,0,0,0,0,0,0,-1,727,442,0,0
-490,582,0,0,0,0,0,0,0,0,0,-1,734,442,0,0
-483,582,0,0,0,0,0,0,0,0,0,-1,741,442,0,0
-476,582,0,0,0,0,0,0,0,0,0,-1,748,442,0,0
-469,582,0,0,0,0,0,0,0,0,0,-1,755,442,0,0
-462,582,0,0,0,0,0,0,0,0,0,-1,762,442,0,0
-455,582,0,0,0,0,0,0,0,0,0,-1,769,442,0,0
-448,582,0,0,0,0,0,0,0,0,0,-1,776,442,0,0
-441,582,0,0,0,0,0,0,0,0,0,-1,783,442,0,0
-434,582,0,0,0,0,0,0,0,0,0,-1,790,442,0,0
-427,582,0,0,0,0,0,0,0,0,0,-1,797,442,0,0
-420,582,0,0,0,0,0,0,0,0,0,-1,804,442,0,0
-413,582,0,0,0,0,0,0,0,0,0,-1,811,442,0,0
-406,582,0,0,0,0,0,0,0,0,0,-1,818,442,0,0
-399,582,0,0,0,0,0,0,0,0,0,-1,825,442,0,0
-392,582,0,0,0,0,0,0,0,0,0,-1,832,442,0,0
-385,582,0,0,0,0,0,0,0,0,0,-1,839,442,0,0
-378,582,0,0,0,0,0,0,0,0,0,-1,846,442,0,0
-371,582,0,0,0,0,0,0,0,0,0,-1,853,442,0,0
-364,582,0,0,0,0,0,0,0,0,0,-1,860,442,0,0
-357,582,-1.4903,-21.5295,0,0,0,0,0,0,0,-1,867,442,-1.49031,21.5295
-350,582,-0.880859,-19.7966,0,0,0,0,0,0,0,-1,874,442,-0.880885,19.7966
-343,582,-0.208557,-18.0078,0,0,0,0,0,0,0,-1,881,442,-0.208576,18.0078
-336,582,-0.167114,-18.7637,0,0,0,0,0,0,0,-1,888,442,-0.167108,18.7637
-329,582,3.59625,-18.4753,0,0,0,0,0,0,0,-1,895,442,3.59627,18.4753
-322,582,2.6767,-16.6871,0,0,0,0,0,0,0,-1,902,442,2.6767,16.6871
-315,582,2.83551,-18.0237,0,0,0,0,0,0,0,-1,909,442,2.83552,18.0238
-308,582,2.39453,-18.4373,0,0,0,0,0,0,0,-1,916,442,2.39451,18.4373
-301,582,2.49054,-19.1898,-0.00155472,0.014173,-0.0151061,0.0233396,-0.0107213,-1.02538,0.0201098,0.0468196,923,442,2.49055,19.1898
-294,582,2.57214,-19.6826,-0.000399301,0.00829337,-0.0125501,0.0172284,-0.00933438,-0.952094,0.0155602,0.04389,930,442,2.57215,19.6826
-287,582,2.64093,-20.2914,-0.000619031,0.003483,-0.0100339,0.0116733,-0.00880936,-0.886214,0.0118642,0.0341039,937,442,2.64096,20.2914
-280,582,2.62769,-20.8222,-0.000508726,0.000432366,-0.00802364,0.00799925,-0.0080756,-0.814687,0.00928085,0.0168024,944,442,2.6277,20.8222
-273,582,2.60443,-21.2798,0.000801851,-0.00115308,-0.00723167,0.00712181,-0.00747304,-0.718223,0.00842716,0.0108299,951,442,2.60445,21.2798
-266,582,2.57159,-21.7296,0.000579532,-0.00370089,-0.00509861,0.00396891,-0.00709026,-0.586685,0.00646923,0.0104694,958,442,2.57161,21.7296
-259,582,2.53809,-22.1635,-6.34973e-05,-0.00473257,-0.00348273,0.00179475,-0.00659082,-0.490135,0.00509853,0.00876473,965,442,2.53806,22.1635
-252,582,2.52252,-22.5868,-0.000220788,-0.00507003,-0.0023153,0.000707115,-0.00599794,-0.381169,0.00425396,0.00830185,972,442,2.52252,22.5868
-245,582,2.5293,-22.9745,-0.000290129,-0.00501625,-0.00140141,9.41744e-05,-0.00540055,-0.267646,0.00363217,0.0126451,979,442,2.52933,22.9745
-238,582,2.50854,-23.3441,-0.000374238,-0.00475768,-0.00058897,-0.000296481,-0.00483544,-0.131261,0.00312949,0.01744,986,442,2.50856,23.3441
-231,582,2.47699,-23.7154,-0.000134014,-0.00384646,-0.00026646,-0.000114986,-0.00386549,-0.0712877,0.00253953,0.0133974,993,442,2.47701,23.7154
-224,582,2.46753,-24.1007,0.000167088,-0.00307085,-7.9369e-05,0.000169032,-0.00307279,-0.0244926,0.00210713,0.010375,1000,442,2.46755,24.1007
-217,582,2.4549,-24.4758,0.000383698,-0.00249851,9.35361e-05,0.000386731,-0.00250154,0.0324075,0.00181042,0.0121438,1007,442,2.45491,24.4758
-210,582,2.44733,-24.8429,0.000563299,-0.00225995,0.000315447,0.000598115,-0.00229477,0.109926,0.00176336,0.0128398,1014,442,2.44733,24.8429
-203,582,2.45972,-25.214,0.000660234,-0.00236872,0.000530427,0.000750435,-0.00245893,0.168443,0.00193847,0.0104297,1021,442,2.45969,25.2139
-196,582,2.45288,-25.5848,0.000631385,-0.0025219,0.000792874,0.000819523,-0.00271004,0.232977,0.00213301,0.0162493,1028,442,2.45288,25.5848
-189,582,2.44165,-25.9269,0.00075026,-0.00290107,0.000942316,0.000979105,-0.00312992,0.238242,0.00247831,0.0237783,1035,442,2.44168,25.9269
-182,582,2.41882,-26.2504,0.000881434,-0.00371707,0.00128193,0.00121465,-0.00405029,0.254307,0.00318328,0.0162046,1042,442,2.41883,26.2504
-175,582,2.42529,-26.5464,0.000655984,-0.00504191,0.00165722,0.00110292,-0.00548885,0.263425,0.00407691,0.0139446,1049,442,2.42524,26.5464
-168,582,2.44202,-26.8946,0.000651146,-0.00611909,0.00191205,0.00115382,-0.00662177,0.257083,0.00484513,0.0114231,1056,442,2.44199,26.8946
-161,582,2.45593,-27.2132,0.000661092,-0.00701893,0.00200873,0.00115475,-0.00751258,0.24098,0.00543436,0.0125923,1063,442,2.4559,27.2132
-154,582,2.46667,-27.4908,0.000658358,-0.00788123,0.00205693,0.00112798,-0.00835085,0.224466,0.0059788,0.0127422,1070,442,2.46669,27.4908
-147,582,2.50146,-27.7893,0.000713756,-0.00855616,0.0020268,0.00113753,-0.00897993,0.206115,0.00639958,0.0127409,1077,442,2.50149,27.7893
-140,582,2.50378,-28.0659,0.000721926,-0.00948985,0.00203658,0.0011131,-0.00988103,0.189765,0.006988,0.0134113,1084,442,2.50384,28.0659
-133,582,2.54932,-28.3364,0.00070505,-0.0103176,0.00198988,0.00105328,-0.0106658,0.173244,0.00748639,0.015459,1091,442,2.54935,28.3364
-126,582,2.57275,-28.5522,0.000792,-0.0110896,0.00194298,0.00110166,-0.0113993,0.158045,0.00799208,0.0139377,1098,442,2.5728,28.5522
-119,582,2.55188,-28.7239,0.000892095,-0.0115357,0.00178163,0.00114246,-0.011786,0.139614,0.00826455,0.0183575,1105,442,2.55185,28.7239
-112,582,2.53137,-29.0241,0.00108217,-0.011623,0.00136604,0.00122738,-0.0117682,0.105906,0.00828496,0.0278998,1112,442,2.5314,29.0241
-105,582,2.6012,-29.425,0.00144504,-0.0110196,0.000870721,0.00150557,-0.0110801,0.0694062,0.00793634,0.0426842,1119,442,2.60115,29.425
-98,582,2.61182,-29.8732,0,0,0,0,0,0,0,-1,1126,442,2.61178,29.8732
-91,582,2.16492,-24.1119,0,0,0,0,0,0,0,-1,1133,442,2.16496,24.1119
-84,582,2.10278,-16.7533,0,0,0,0,0,0,0,-1,1140,442,2.10279,16.7533
-77,582,2.30212,-11.4907,0,0,0,0,0,0,0,-1,1147,442,2.30207,11.4907
-70,582,1.49255,-6.36548,0,0,0,0,0,0,0,-1,1154,442,1.49251,6.36549
-63,582,-4.62915,-4.0347,0,0,0,0,0,0,0,-1,1161,442,-4.6292,4.03471
-56,582,-5.81714,-5.24149,0,0,0,0,0,0,0,-1,1168,442,-5.81718,5.24149
-49,582,-3.88672,-10.1064,0,0,0,0,0,0,0,-1,1175,442,-3.88678,10.1064
-42,582,-0.948975,1.13968,0,0,0,0,0,0,0,-1,1182,442,-0.949003,-1.13969
-35,582,-2.58435,-3.86911,0,0,0,0,0,0,0,-1,1189,442,-2.58437,3.86912
-28,582,-0.825317,-3.45941,0,0,0,0,0,0,0,-1,1196,442,-0.825377,3.45942
-21,582,3.25647,-30.8743,0,0,0,0,0,0,0,-1,1203,442,3.25646,30.8743
-14,582,3.5188,-31.2458,0,0,0,0,0,0,0,-1,1210,442,3.51884,31.2458
-7,582,3.78125,-31.6174,0,0,0,0,0,0,0,-1,1217,442,3.78122,31.6174
0,582,5.35632,-32.0998,0,0,0,0,0,0,0,-1,1224,442,5.35631,32.0998
7,582,5.48657,-31.6793,0.0275828,-0.0145094,-0.00232635,0.027711,-0.0146376,-0.0550446,0.0248353,0.048691,1231,442,5.48661,31.6793
14,582,5.646,-31.2484,0.024971,-0.00554596,-0.00552827,0.0259416,-0.00651656,-0.173799,0.0198269,0.0491273,1238,442,5.64594,31.2484
21,582,5.77649,-30.7751,0.0230243,0.00975786,-0.0122727,0.0303416,0.00244053,-0.537643,0.0194653,0.0474847,1245,442,5.7765,30.7751
28,582,4.19299,-30.9178,0,0,0,0,0,0,0,-1,1252,442,4.193,30.9178
35,582,4.28418,-31.137,0.0210291,0.0619719,-0.0314261,0.0790062,0.0039948,-1.07408,0.0513909,0.0487378,1259,442,4.2842,31.137
42,582,4.27039,-31.2768,0.023444,0.0899156,-0.0384939,0.107536,0.00582316,-1.14151,0.0698308,0.0470487,1266,442,4.27039,31.2768
49,582,4.30444,-31.2772,0.0279598,0.116968,-0.0433661,0.134603,0.0103251,-1.18457,0.0864992,0.0457872,1273,442,4.30439,31.2772
56,582,3.90063,-31.2283,0.0361477,0.137592,-0.0453275,0.154894,0.0188455,-1.20615,0.0975894,0.0439841,1280,442,3.90059,31.2283
63,582,2.78101,-31.0836,0.0436517,0.151431,-0.0424232,0.166126,0.0289569,-1.23734,0.102471,0.0416497,1287,442,2.78104,31.0836
70,582,2.60437,-31.4854,0.0488185,0.154029,-0.0349942,0.164605,0.0382422,-1.27729,0.0994706,0.0422461,1294,442,2.60432,31.4854
77,582,2.96558,-31.791,0.0567065,0.152092,-0.0262482,0.158838,0.0499606,-1.31924,0.0937843,0.0430315,1301,442,2.96555,31.7909
84,582,3.43286,-31.987,0.0649428,0.143405,-0.0162602,0.146641,0.0617065,-1.37434,0.0850168,0.0457408,1308,442,3.4328,31.987
91,582,3.80212,-32.401,0.0696236,0.12768,-0.00207756,0.127754,0.0695493,-1.53507,0.0738558,0.0472027,1315,442,3.8021,32.401
98,582,4.36536,-33.058,0.0717802,0.108333,0.0111656,0.111474,0.0686394,1.29659,0.0649317,0.044737,1322,442,4.36538,33.058
105,582,4.44153,-33.7536,0.0724279,0.0845315,0.0236532,0.102895,0.0540646,0.910639,0.059432,0.0433677,1329,442,4.44152,33.7536
112,582,5.92688,-32.0732,0.0721301,0.0587812,0.0341051,0.100208,0.0307035,0.688768,0.059283,0.0426563,1336,442,5.92691,32.0732
119,582,5.26367,-30.671,0.0702571,0.0258986,0.0447857,0.0980547,-0.00189895,0.555486,0.0660119,0.0426845,1343,442,5.26368,30.671
126,582,4.82092,-29.7996,0,0,0,0,0,0,0,-1,1350,442,4.82086,29.7996
133,582,4.38782,-28.7442,0,0,0,0,0,0,0,-1,1357,442,4.38778,28.7442
140,582,5.09912,-28.9637,0,0,0,0,0,0,0,-1,1364,442,5.09918,28.9637
147,582,5.50415,-29.1733,0.0497948,-0.0290551,0.0514191,0.0751637,-0.054424,0.458335,0.0751362,0.0499884,1371,442,5.50413,29.1733
154,582,5.87952,-29.571,0.0457679,-0.0306552,0.0488484,0.0695748,-0.0544621,0.453487,0.0717897,0.0464615,1378,442,5.8795,29.571
161,582,6.21033,-29.8394,0.0418296,-0.0302572,0.0472375,0.0652043,-0.0536319,0.459506,0.0687185,0.0499029,1385,442,6.21029,29.8393
168,582,6.72119,-30.1363,0,0,0,0,0,0,0,-1,1392,442,6.72121,30.1363
175,582,6.50549,-2.00424,0,0,0,0,0,0,0,-1,1399,442,6.50546,2.00425
182,582,5.18958,-2.18652,0,0,0,0,0,0,0,-1,1406,442,5.1896,2.18652
189,582,6.19751,-0.880951,0,0,0,0,0,0,0,-1,1413,442,6.19754,0.88096
196,582,4.87354,-2.22327,0,0,0,0,0,0,0,-1,1420,442,4.87348,2.22325
203,582,3.11401,-4.48257,0,0,0,0,0,0,0,-1,1427,442,3.11404,4.48259
210,582,2.93115,-11.0731,0,0,0,0,0,0,0,-1,1434,442,2.93113,11.0731
217,582,4.94092,-16.5476,0,0,0,0,0,0,0,-1,1441,442,4.94087,16.5476
224,582,5.21008,-20.9908,0,0,0,0,0,0,0,-1,1448,442,5.21006,20.9908
231,582,5.70032,-25.622,0,0,0,0,0,0,0,-1,1455,442,5.70026,25.6221
238,582,6.30249,-29.0007,0,0,0,0,0,0,0,-1,1462,442,6.30251,29.0007
245,582,6.48071,-28.6486,0,0,0,0,0,0,0,-1,1469,442,6.48075,28.6486
252,582,6.48572,-28.1932,0.00521408,0.00445309,0.00108074,0.00597935,0.00368783,0.61614,0.00348341,0.0346096,1476,442,6.48576,28.1932
259,582,6.42334,-27.8912,0.00487707,0.00308404,0.000649265,0.00508748,0.00287363,0.313395,0.00294548,0.0265715,1483,442,6.42329,27.8912
266,582,6.44592,-27.5666,0.00451539,0.00180805,0.000217355,0.00453273,0.00179071,0.0796041,0.00263612,0.0194809,1490,442,6.44588,27.5666
273,582,6.51379,-27.2063,0.00424577,0.000975049,-4.10332e-05,0.00424629,0.000974534,-0.012543,0.0025684,0.0159099,1497,442,6.51385,27.2063
280,582,6.50781,-26.896,0.00374228,-0.000211778,-0.000347831,0.00377264,-0.000242143,-0.0870771,0.00259957,0.0123177,1504,442,6.50779,26.896
287,582,6.51489,-26.5312,0.00338485,-0.000752423,-0.000457744,0.00343489,-0.000802462,-0.108885,0.00259904,0.010311,1511,442,6.51489,26.5312
294,582,6.53601,-26.1569,0.00307023,-0.000930235,-0.000504441,0.00313286,-0.000992863,-0.12352,0.0024865,0.00869546,1518,442,6.53596,26.1569
301,582,6.55212,-25.7935,0.00273175,-0.000809303,-0.000405246,0.00277753,-0.000855088,-0.112504,0.00219301,0.00999785,1525,442,6.55216,25.7935
308,582,6.57239,-25.4417,0.00242436,-0.00073162,-0.000274139,0.002448,-0.000755256,-0.0860051,0.00193356,0.0130619,1532,442,6.57233,25.4418
315,582,6.56213,-25.0895,0.00206965,-0.00041251,-0.000130654,0.00207651,-0.000419368,-0.0524442,0.00154324,0.0127193,1539,442,6.56215,25.0895
322,582,6.56433,-24.7217,0.00169641,8.89302e-05,0.000113729,0.00170441,8.09238e-05,0.0702833,0.00111028,0.00955292,1546,442,6.56438,24.7217
329,582,6.55334,-24.3392,0.00134396,0.000633664,0.000426762,0.00154402,0.000433604,0.438365,0.000919547,0.00932463,1553,442,6.55333,24.3392
336,582,6.54016,-23.9588,0.00100762,0.00115417,0.000721311,0.00180592,0.000355875,0.836016,0.0011046,0.010047,1560,442,6.54021,23.9588
343,582,6.53796,-23.5636,0.000684579,0.00171527,0.00100139,0.00232615,7.37044e-05,1.02304,0.00152679,0.012846,1567,442,6.53802,23.5636
350,582,6.53003,-23.1641,0.00041253,0.00245887,0.00135823,0.00313619,-0.000264789,1.10821,0.00218441,0.0158669,1574,442,6.53008,23.1641
357,582,6.51611,-22.7486,8.91969e-05,0.00312782,0.00174825,0.00392469,-0.000707667,1.14312,0.00288146,0.01372,1581,442,6.51613,22.7486
364,582,6.50513,-22.3459,-0.000309531,0.00391932,0.00208171,0.0047721,-0.00116231,1.18199,0.00363138,0.0105956,1588,442,6.50508,22.3459
371,582,6.48926,-21.9376,-0.000686563,0.00468318,0.00239362,0.00559525,-0.00159862,1.20674,0.00436181,0.013336,1595,442,6.48923,21.9376
378,582,6.46863,-21.533,-0.00109752,0.00564158,0.00268473,0.00658036,-0.00203629,1.23441,0.0052003,0.0154758,1602,442,6.46866,21.533
385,582,6.46045,-21.106,-0.00167027,0.00644794,0.00276623,0.0073009,-0.00252323,1.2717,0.0058913,0.0123431,1609,442,6.46049,21.106
392,582,6.41602,-20.643,-0.00216076,0.00728192,0.00284839,0.0080746,-0.00295344,1.29937,0.00659191,0.0106988,1616,442,6.416,20.643
399,582,6.38416,-20.2263,-0.00206552,0.00825946,0.00318625,0.00916356,-0.00296962,1.29431,0.00730302,0.0166077,1623,442,6.38418,20.2263
406,582,6.38879,-19.6628,-0.00152647,0.00886939,0.00382197,0.0101233,-0.00278036,1.25379,0.00784169,0.0295104,1630,442,6.38875,19.6629
413,582,6.25085,-19.0854,-0.00133116,0.00902047,0.00423089,0.0105297,-0.00284036,1.22816,0.00813361,0.0473046,1637,442,6.25079,19.0854
420,582,6.15234,-18.5365,0,0,0,0,0,0,0,-1,1644,442,6.15238,18.5365
427,582,6.02979,-18.4086,0,0,0,0,0,0,0,-1,1651,442,6.02983,18.4086
434,582,5.93884,-17.9298,0,0,0,0,0,0,0,-1,1658,442,5.93879,17.9298
441,582,4.53979,-12.7726,0,0,0,0,0,0,0,-1,1665,442,4.53983,12.7726
448,582,7.56775,-17.0696,0,0,0,0,0,0,0,-1,1672,442,7.5678,17.0696
455,582,5.33899,-16.08,0,0,0,0,0,0,0,-1,1679,442,5.33894,16.08
462,582,4.80444,-16.4417,0,0,0,0,0,0,0,-1,1686,442,4.80439,16.4417
469,582,5.90674,-15.9182,0,0,0,0,0,0,0,-1,1693,442,5.90676,15.9182
476,582,1.93579,-8.53891,0,0,0,0,0,0,0,-1,1700,442,1.93579,8.53892
483,582,0,0,0,0,0,0,0,0,0,-1,1707,442,0,0
490,582,0,0,0,0,0,0,0,0,0,-1,1714,442,0,0
497,582,0,0,0,0,0,0,0,0,0,-1,1721,442,0,0
504,582,0,0,0,0,0,0,0,0,0,-1,1728,442,0,0
511,582,0,0,0,0,0,0,0,0,0,-1,1735,442,0,0
518,582,0,0,0,0,0,0,0,0,0,-1,1742,442,0,0
525,582,0,0,0,0,0,0,0,0,0,-1,1749,442,0,0
532,582,0,0,0,0,0,0,0,0,0,-1,1756,442,0,0
539,582,0,0,0,0,0,0,0,0,0,-1,1763,442,0,0
546,582,0,0,0,0,0,0,0,0,0,-1,1770,442,0,0
553,582,0,0,0,0,0,0,0,0,0,-1,1777,442,0,0
560,582,0,0,0,0,0,0,0,0,0,-1,1784,442,0,0
567,582,0,0,0,0,0,0,0,0,0,-1,1791,442,0,0
574,582,0,0,0,0,0,0,0,0,0,-1,1798,442,0,0
581,582,0,0,0,0,0,0,0,0,0,-1,1805,442,0,0
588,582,0,0,0,0,0,0,0,0,0,-1,1812,442,0,0
595,582,0,0,0,0,0,0,0,0,0,-1,1819,442,0,0
602,582,0,0,0,0,0,0,0,0,0,-1,1826,442,0,0
609,582,0,0,0,0,0,0,0,0,0,-1,1833,442,0,0
616,582,0,0,0,0,0,0,0,0,0,-1,1840,442,0,0
623,582,0,0,0,0,0,0,0,0,0,-1,1847,442,0,0
630,582,0,0,0,0,0,0,0,0,0,-1,1854,442,0,0
637,582,0,0,0,0,0,0,0,0,0,-1,1861,442,0,0
644,582,0,0,0,0,0,0,0,0,0,-1,1868,442,0,0
651,582,0,0,0,0,0,0,0,0,0,-1,1875,442,0,0
658,582,0,0,0,0,0,0,0,0,0,-1,1882,442,0,0
665,582,0,0,0,0,0,0,0,0,0,-1,1889,442,0,0
672,582,0,0,0,0,0,0,0,0,0,-1,1896,442,0,0
679,582,0,0,0,0,0,0,0,0,0,-1,1903,442,0,0
686,582,0,0,0,0,0,0,0,0,0,-1,1910,442,0,0
693,582,0,0,0,0,0,0,0,0,0,-1,1917,442,0,0
700,582,0,0,0,0,0,0,0,0,0,-1,1924,442,0,0
707,582,0,0,0,0,0,0,0,0,0,-1,1931,442,0,0
714,582,0,0,0,0,0,0,0,0,0,-1,1938,442,0,0
721,582,0,0,0,0,0,0,0,0,0,-1,1945,442,0,0
728,582,0,0,0,0,0,0,0,0,0,-1,1952,442,0,0
735,582,0,0,0,0,0,0,0,0,0,-1,1959,442,0,0
742,582,0,0,0,0,0,0,0,0,0,-1,1966,442,0,0
749,582,0,0,0,0,0,0,0,0,0,-1,1973,442,0,0
756,582,0,0,0,0,0,0,0,0,0,-1,1980,442,0,0
763,582,0,0,0,0,0,0,0,0,0,-1,1987,442,0,0
770,582,0,0,0,0,0,0,0,0,0,-1,1994,442,0,0
777,582,0,0,0,0,0,0,0,0,0,-1,2001,442,0,0
784,582,0,0,0,0,0,0,0,0,0,-1,2008,442,0,0
791,582,0,0,0,0,0,0,0,0,0,-1,2015,442,0,0
798,582,0,0,0,0,0,0,0,0,0,-1,2022,442,0,0
805,582,0,0,0,0,0,0,0,0,0,-1,2029,442,0,0
812,582,0,0,0,0,0,0,0,0,0,-1,2036,442,0,0
-700,575,0,0,0,0,0,0,0,0,0,-1,524,449,0,0
-693,575,0,0,0,0,0,0,0,0,0,-1,531,449,0,0
-686,575,0,0,0,0,0,0,0,0,0,-1,538,449,0,0
-679,575,0,0,0,0,0,0,0,0,0,-1,545,449,0,0
-672,575,0,0,0,0,0,0,0,0,0,-1,552,449,0,0
-665,575,0,0,0,0,0,0,0,0,0,-1,559,449,0,0
-658,575,0,0,0,0,0,0,0,0,0,-1,566,449,0,0
-651,575,0,0,0,0,0,0,0,0,0,-1,573,449,0,0
-644,575,0,0,0,0,0,0,0,0,0,-1,580,449,0,0
-637,575,0,0,0,0,0,0,0,0,0,-1,587,449,0,0
-630,575,0,0,0,0,0,0,0,0,0,-1,594,449,0,0
-623,575,0,0,0,0,0,0,0,0,0,-1,601,449,0,0
-616,575,0,0,0,0,0,0,0,0,0,-1,608,449,0,0
-609,575,0,0,0,0,0,0,0,0,0,-1,615,449,0,0
-602,575,0,0,0,0,0,0,0,0,0,-1,622,449,0,0
-595,575,0,0,0,0,0,0,0,0,0,-1,629,449,0,0
-588,575,0,0,0,0,0,0,0,0,0,-1,636,449,0,0
-581,575,0,0,0,0,0,0,0,0,0,-1,643,449,0,0
-574,575,0,0,0,0,0,0,0,0,0,-1,650,449,0,0
-567,575,0,0,0,0,0,0,0,0,0,-1,657,449,0,0
-560,575,0,0,0,0,0,0,0,0,0,-1,664,449,0,0
-553,575,0,0,0,0,0,0,0,0,0,-1,671,449,0,0
-546,575,0,0,0,0,0,0,0,0,0,-1,678,449,0,0
-539,575,0,0,0,0,0,0,0,0,0,-1,685,449,0,0
-532,575,0,0,0,0,0,0,0,0,0,-1,692,449,0,0
-525,575,0,0,0,0,0,0,0,0,0,-1,699,449,0,0
-518,575,0,0,0,0,0,0,0,0,0,-1,706,449,0,0
-511,575,0,0,0,0,0,0,0,0,0,-1,713,449,0,0
-504,575,0,0,0,0,0,0,0,0,0,-1,720,449,0,0
-497,575,0,0,0,0,0,0,0,0,0,-1,727,449,0,0
-490,575,0,0,0,0,0,0,0,0,0,-1,734,449,0,0
-483,575,0,0,0,0,0,0,0,0,0,-1,741,449,0,0
-476,575,0,0,0,0,0,0,0,0,0,-1,748,449,0,0
-469,575,0,0,0,0,0,0,0,0,0,-1,755,449,0,0
-462,575,0,0,0,0,0,0,0,0,0,-1,762,449,0,0
-455,575,0,0,0,0,0,0,0,0,0,-1,769,449,0,0
-448,575,0,0,0,0,0,0,0,0,0,-1,776,449,0,0
-441,575,0,0,0,0,0,0,0,0,0,-1,783,449,0,0
-434,575,0,0,0,0,0,0,0,0,0,-1,790,449,0,0
-427,575,0,0,0,0,0,0,0,0,0,-1,797,449,0,0
-420,575,0,0,0,0,0,0,0,0,0,-1,804,449,0,0
-413,575,0,0,0,0,0,0,0,0,0,-1,811,449,0,0
-406,575,0,0,0,0,0,0,0,0,0,-1,818,449,0,0
-399,575,0,0,0,0,0,0,0,0,0,-1,825,449,0,0
-392,575,0,0,0,0,0,0,0,0,0,-1,832,449,0,0
-385,575,0,0,0,0,0,0,0,0,0,-1,839,449,0,0
-378,575,0,0,0,0,0,0,0,0,0,-1,846,449,0,0
-371,575,0.56897,-3.52304,0,0,0,0,0,0,0,-1,853,449,0.568955,3.52306
-364,575,1.49805,-4.67191,0,0,0,0,0,0,0,-1,860,449,1.49803,4.6719
-357,575,3.15521,-8.29892,0,0,0,0,0,0,0,-1,867,449,3.15521,8.29891
-350,575,-0.825928,-18.5347,0,0,0,0,0,0,0,-1,874,449,-0.825948,18.5347
-343,575,0.465393,-16.3569,0,0,0,0,0,0,0,-1,881,449,0.465397,16.3569
-336,575,3.1994,-17.5725,0,0,0,0,0,0,0,-1,888,449,3.19941,17.5725
-329,575,3.02509,-18.2505,-0.0209302,0.020782,-0.0065128,0.0217752,-0.0219234,-1.41946,0.0252295,0.0498541,895,449,3.02507,18.2504
-322,575,1.63257,-17.5036,-0.0145411,0.0194571,-0.00891376,0.0216524,-0.0167364,-1.32932,0.0222242,0.0477507,902,449,1.6326,17.5036
-315,575,2.32227,-18.3799,-0.00949815,0.0175666,-0.0104891,0.0211558,-0.0130873,-1.24111,0.0199524,0.0444936,909,449,2.32225,18.3799
-308,575,2.3847,-18.8906,-0.00562665,0.0155451,-0.0113542,0.0204827,-0.0105642,-1.1606,0.0182273,0.0444431,916,449,2.38469,18.8906
-301,575,2.37354,-19.4294,-0.00236489,0.0122563,-0.011219,0.0183364,-0.00844501,-1.07416,0.0158099,0.0351092,923,449,2.37352,19.4294
-294,575,2.30902,-19.9275,-0.000657524,0.00836747,-0.00977628,0.0146224,-0.00691249,-1.00162,0.012696,0.0243242,930,449,2.30903,19.9275
-287,575,2.25793,-20.4116,-3.53494e-05,0.00503048,-0.00816007,0.0110417,-0.00604658,-0.935885,0.0100054,0.0163634,937,449,2.25792,20.4116
-280,575,2.23572,-20.8868,0.000419243,0.00260936,-0.00672791,0.00833075,-0.00530215,-0.866072,0.00793543,0.0126337,944,449,2.23573,20.8868
-273,575,2.21979,-21.3326,0.0016742,0.00120515,-0.00611467,0.00755884,-0.00467949,-0.76623,0.00713069,0.0112115,951,449,2.2198,21.3325
-266,575,2.20935,-21.773,0.00167717,-0.00109413,-0.00438189,0.00488727,-0.00430423,-0.632262,0.00531028,0.0124618,958,449,2.20938,21.773
-259,575,2.17395,-22.1862,0.00128629,-0.00224524,-0.00300389,0.00300496,-0.00396391,-0.519688,0.00403616,0.0121295,965,449,2.17396,22.1862
-252,575,2.13562,-22.5788,0.00119248,-0.00300065,-0.00191335,0.00193431,-0.00374248,-0.369869,0.00333246,0.011122,972,449,2.13563,22.5788
-245,575,2.11957,-22.9713,0.00109703,-0.00345805,-0.00100476,0.00130882,-0.00366984,-0.207739,0.00298022,0.0150278,979,449,2.11954,22.9712
-238,575,2.1261,-23.3437,0.00095532,-0.00383126,-0.00016451,0.000960967,-0.00383691,-0.034315,0.00293125,0.0151892,986,449,2.12612,23.3437
-231,575,2.11664,-23.7097,0.00102051,-0.00372235,0.000293721,0.00103863,-0.00374047,0.0616152,0.00290248,0.0124732,993,449,2.11661,23.7097
-224,575,2.09882,-24.0982,0.00112553,-0.00377291,0.00065944,0.00121275,-0.00386013,0.131504,0.00305889,0.012506,1000,449,2.09883,24.0982
-217,575,2.09778,-24.4819,0.00115263,-0.00396063,0.00102645,0.00135099,-0.00415899,0.190894,0.00331603,0.0109157,1007,449,2.09775,24.4819
-210,575,2.11584,-24.8466,0.00115626,-0.0044036,0.00141777,0.00149692,-0.00474426,0.235808,0.00376242,0.00916851,1014,449,2.11586,24.8466
-203,575,2.12158,-25.2059,0.00113088,-0.00500387,0.00171967,0.00158004,-0.00545304,0.255484,0.00426084,0.0116788,1021,449,2.12158,25.2059
-196,575,2.12109,-25.5779,0.00110058,-0.00561613,0.00205516,0.00167951,-0.00619506,0.274581,0.00478907,0.0163238,1028,449,2.12108,25.5779
-189,575,2.09521,-25.9237,0.00112821,-0.00633917,0.00232017,0.00179038,-0.00700134,0.278008,0.00536488,0.0181657,1035,449,2.09526,25.9237
-182,575,2.06958,-26.2343,0.00114297,-0.00727935,0.00270086,0.00193466,-0.00807104,0.285138,0.00612823,0.0157494,1042,449,2.06953,26.2343
-175,575,2.10046,-26.5497,0.000763985,-0.00854736,0.00300781,0.00165108,-0.00943445,0.286798,0.0069061,0.0121173,1049,449,2.10042,26.5497
-168,575,2.08936,-26.8739,0.000772064,-0.00947577,0.00308253,0.00162782,-0.0103315,0.270796,0.00748949,0.0106804,1056,449,2.08936,26.8739
-161,575,2.10718,-27.1748,0.000652809,-0.0102612,0.00308841,0.00146615,-0.0110746,0.257504,0.00791714,0.0162005,1063,449,2.1072,27.1748
-154,575,2.14099,-27.4525,0.000407497,-0.0110536,0.00304342,0.00116552,-0.0118116,0.244103,0.00829029,0.0205234,1070,449,2.14104,27.4525
-147,575,2.203,-27.7072,0.000258448,-0.0115691,0.00287713,0.000921193,-0.0122319,0.2264,0.00847834,0.0194842,1077,449,2.20295,27.7072
-140,575,2.14661,-27.9323,2.98161e-05,-0.012643,0.00281514,0.000627028,-0.0132402,0.209044,0.00904307,0.0251031,1084,449,2.14666,27.9323
-133,575,2.20557,-28.1142,-0.000265569,-0.0136267,0.00269593,0.000257894,-0.0141501,0.191781,0.00952054,0.0315637,1091,449,2.20558,28.1142
-126,575,2.23682,-28.1319,-0.000400765,-0.0147362,0.00265708,7.58772e-05,-0.0152129,0.177498,0.0101673,0.0346842,1098,449,2.23676,28.1319
-119,575,2.52222,-28.6742,0,0,0,0,0,0,0,-1,1105,449,2.52226,28.6742
-112,575,2.4823,-29.1115,0,0,0,0,0,0,0,-1,1112,449,2.48234,29.1114
-105,575,2.37329,-29.3591,0,0,0,0,0,0,0,-1,1119,449,2.3733,29.3591
-98,575,1.521,-25.6961,0,0,0,0,0,0,0,-1,1126,449,1.52105,25.6961
-91,575,1.60803,-16.4247,0,0,0,0,0,0,0,-1,1133,449,1.60802,16.4247
-84,575,1.16553,-11.9056,0,0,0,0,0,0,0,-1,1140,449,1.16558,11.9056
-77,575,0.205078,-11.2584,0,0,0,0,0,0,0,-1,1147,449,0.205117,11.2584
-70,575,-4.2467,-1.78738,0,0,0,0,0,0,0,-1,1154,449,-4.24674,1.78739
-63,575,-4.52209,-3.48798,0,0,0,0,0,0,0,-1,1161,449,-4.5221,3.48796
-56,575,-5.5968,-5.4928,0,0,0,0,0,0,0,-1,1168,449,-5.59683,5.49281
-49,575,-5.96863,-7.17612,0,0,0,0,0,0,0,-1,1175,449,-5.96868,7.1761
-42,575,-0.830322,0.773499,0,0,0,0,0,0,0,-1,1182,449,-0.83038,-0.77351
-35,575,-0.62085,0.205139,0,0,0,0,0,0,0,-1,1189,449,-0.620855,-0.205126
-28,575,0.49292,-3.87988,0,0,0,0,0,0,0,-1,1196,449,0.492941,3.87989
-21,575,3.53979,-31.2318,0,0,0,0,0,0,0,-1,1203,449,3.53976,31.2318
-14,575,3.37097,-31.3309,0,0,0,0,0,0,0,-1,1210,449,3.37099,31.3309
-7,575,4.07507,-32.4538,0,0,0,0,0,0,0,-1,1217,449,4.07511,32.4538
0,575,4.80298,-32.0874,0,0,0,0,0,0,0,-1,1224,449,4.80296,32.0874
7,575,5.62183,-31.6843,0.0355016,-0.0149117,-0.00220057,0.0355975,-0.0150076,-0.0435401,0.0300121,0.0454129,1231,449,5.62183,31.6843
14,575,6.078,-31.2361,0.0326233,-0.00368267,-0.00616377,0.0336412,-0.00470057,-0.163666,0.0241473,0.0447491,1238,449,6.078,31.2361
21,575,5.87781,-30.6425,0.0305081,0.0173782,-0.0152391,0.0405361,0.00735014,-0.582013,0.0249378,0.045195,1245,449,5.87778,30.6425
28,575,5.1687,-31.0098,0.0292313,0.0534454,-0.0297018,0.0734129,0.00926378,-0.978928,0.0461649,0.0454591,1252,449,5.16874,31.0098
35,575,4.45215,-31.2389,0.0288441,0.0918859,-0.0439709,0.114467,0.00626321,-1.09637,0.0743115,0.0438675,1259,449,4.45211,31.2388
42,575,4.50305,-31.261,0.0320329,0.131463,-0.0556784,0.156392,0.00710436,-1.14984,0.101975,0.0451296,1266,449,4.50304,31.261
49,575,4.60632,-31.3337,0.0375897,0.16904,-0.0644385,0.195359,0.0112708,-1.18304,0.12665,0.0448939,1273,449,4.60635,31.3337
56,575,1.45544,-30.0288,0,0,0,0,0,0,0,-1,1280,449,1.45542,30.0288
63,575,1.32739,-30.3714,0.055935,0.214136,-0.065697,0.23786,0.0322105,-1.22425,0.149002,0.0471163,1287,449,1.3274,30.3714
70,575,1.20276,-30.7965,0.062282,0.216672,-0.0568744,0.235361,0.043593,-1.25331,0.144584,0.0451117,1294,449,1.20275,30.7965
77,575,0.876831,-31.3939,0.0713414,0.211251,-0.0452395,0.224605,0.0579878,-1.28377,0.134636,0.0478113,1301,449,0.876826,31.3939
84,575,0.570679,-31.9072,0,0,0,0,0,0,0,-1,1308,449,0.570692,31.9072
91,575,2.12549,-32.0865,0,0,0,0,0,0,0,-1,1315,449,2.12551,32.0865
98,575,2.70959,-32.5783,0,0,0,0,0,0,0,-1,1322,449,2.70954,32.5783
105,575,5.02051,-33.2458,0.0878247,0.11323,0.0232682,0.127037,0.0740175,1.03525,0.073678,0.0407789,1329,449,5.02052,33.2458
112,575,7.30481,-33.8949,0.086863,0.0787563,0.038262,0.121286,0.0443336,0.732627,0.0708635,0.0445669,1336,449,7.30475,33.8949
119,575,5.14392,-30.4967,0.0840185,0.0355473,0.0535684,0.118579,0.000987224,0.572964,0.0787254,0.0446823,1343,449,5.14386,30.4967
126,575,4.49292,-29.1383,0,0,0,0,0,0,0,-1,1350,449,4.49296,29.1383
133,575,2.11987,-30.662,0,0,0,0,0,0,0,-1,1357,449,2.11984,30.662
140,575,6.28857,-28.9594,0,0,0,0,0,0,0,-1,1364,449,6.28861,28.9594
147,575,5.37939,-28.6134,0,0,0,0,0,0,0,-1,1371,449,5.37935,28.6134
154,575,5.8678,-28.9127,0,0,0,0,0,0,0,-1,1378,449,5.8678,28.9127
161,575,6.20544,-29.0361,0,0,0,0,0,0,0,-1,1385,449,6.20541,29.0361
168,575,7.08777,-29.2379,0,0,0,0,0,0,0,-1,1392,449,7.08772,29.2379
175,575,4.32617,1.93634,0,0,0,0,0,0,0,-1,1399,449,4.32612,-1.93634
182,575,6.3147,-2.88345,0,0,0,0,0,0,0,-1,1406,449,6.31466,2.88346
189,575,6.10449,-1.30817,0,0,0,0,0,0,0,-1,1413,449,6.10455,1.30817
196,575,5.79895,0.818359,0,0,0,0,0,0,0,-1,1420,449,5.79895,-0.81837
203,575,3.29724,-1.46378,0,0,0,0,0,0,0,-1,1427,449,3.29722,1.46377
210,575,2.32739,-7.74503,0,0,0,0,0,0,0,-1,1434,449,2.32741,7.74502
217,575,3.33618,-11.5521,0,0,0,0,0,0,0,-1,1441,449,3.3362,11.5521
224,575,5.51709,-16.3903,0,0,0,0,0,0,0,-1,1448,449,5.51713,16.3903
231,575,5.48572,-20.4595,0,0,0,0,0,0,0,-1,1455,449,5.48571,20.4595
238,575,5.33484,-22.3575,0,0,0,0,0,0,0,-1,1462,449,5.33478,22.3575
245,575,5.59741,-23.513,0,0,0,0,0,0,0,-1,1469,449,5.5974,23.513
252,575,6.80774,-28.4757,0,0,0,0,0,0,0,-1,1476,449,6.80771,28.4757
259,575,6.72937,-28.1764,0,0,0,0,0,0,0,-1,1483,449,6.7294,28.1764
266,575,6.72998,-27.7946,0,0,0,0,0,0,0,-1,1490,449,6.73003,27.7946
273,575,6.79028,-27.2952,0,0,0,0,0,0,0,-1,1497,449,6.79029,27.2952
280,575,6.80615,-26.9207,0,0,0,0,0,0,0,-1,1504,449,6.80618,26.9208
287,575,6.78589,-26.5626,0.00483098,-0.0019845,-0.000938959,0.00495797,-0.0021115,-0.134433,0.00419039,0.0268775,1511,449,6.78594,26.5626
294,575,6.87805,-26.1752,0.00435018,-0.00236651,-0.00114219,0.00453909,-0.00255543,-0.163917,0.00414906,0.0118245,1518,449,6.87801,26.1752
301,575,6.92334,-25.8163,0.00381718,-0.00239241,-0.00116698,0.00402925,-0.00260448,-0.179764,0.00385932,0.00982518,1525,449,6.92334,25.8163
308,575,6.95435,-25.4591,0.00326205,-0.00253066,-0.00118738,0.00349599,-0.0027646,-0.194531,0.00362277,0.0107028,1532,449,6.95433,25.4591
315,575,6.93005,-25.101,0.00261528,-0.00234582,-0.00117078,0.0028777,-0.00260824,-0.220492,0.00316858,0.0105592,1539,449,6.93002,25.101
322,575,6.93726,-24.7235,0.00198726,-0.00188685,-0.000992384,0.00222667,-0.00212626,-0.236726,0.00251339,0.00943942,1546,449,6.93723,24.7235
329,575,6.92615,-24.3395,0.00144782,-0.0013014,-0.000703052,0.00161717,-0.00147076,-0.236385,0.00178349,0.010075,1553,449,6.92619,24.3395
336,575,6.90918,-23.9517,0.000980187,-0.000708401,-0.000410498,0.00107469,-0.000802904,-0.226274,0.00108781,0.0123045,1560,449,6.90915,23.9517
343,575,6.93823,-23.5411,0.000539297,-7.7156e-05,-0.000135894,0.000567925,-0.000105784,-0.207627,0.00041836,0.0125394,1567,449,6.93824,23.5411
350,575,6.92542,-23.134,0.000213727,0.000697562,0.000244888,0.000799874,0.000111415,1.17505,0.000500264,0.0113749,1574,449,6.92539,23.134
357,575,6.90247,-22.7397,-0.000102369,0.00144838,0.000657029,0.00168932,-0.000343308,1.21931,0.00125638,0.0107253,1581,449,6.90246,22.7397
364,575,6.89429,-22.3468,-0.000385771,0.00226597,0.00106328,0.00263966,-0.000759457,1.23283,0.00206013,0.0101038,1588,449,6.89431,22.3468
371,575,6.91125,-21.933,-0.000616663,0.0030404,0.00144911,0.00354499,-0.00112125,1.23572,0.00281259,0.0176479,1595,449,6.91121,21.9331
378,575,6.8761,-21.5177,-0.000875006,0.00390446,0.00178379,0.0044968,-0.00146734,1.25019,0.00358841,0.0179743,1602,449,6.87606,21.5177
385,575,6.85681,-21.0875,-0.00118357,0.00470271,0.00194252,0.00528597,-0.00176683,1.2791,0.00423753,0.0117136,1609,449,6.85678,21.0875
392,575,6.83594,-20.6599,-0.00139979,0.00543129,0.00211096,0.00603098,-0.00199948,1.29401,0.00482721,0.00957928,1616,449,6.83595,20.6599
399,575,6.80029,-20.2744,-0.00123552,0.00616532,0.00245202,0.00690399,-0.00197419,1.27819,0.00538278,0.00976156,1623,449,6.8003,20.2744
406,575,6.7832,-19.7929,-0.000728907,0.0065897,0.00304546,0.00769121,-0.00183042,1.22375,0.00583412,0.0110526,1630,449,6.78326,19.7929
413,575,6.77466,-19.2981,-0.000540746,0.00667027,0.00348487,0.00807914,-0.00194962,1.1866,0.00614002,0.0135023,1637,449,6.77462,19.2981
420,575,6.73499,-18.8278,-0.000219135,0.00663687,0.00359543,0.00817659,-0.00175886,1.16618,0.00612215,0.0136495,1644,449,6.73493,18.8278
427,575,6.68237,-18.3391,0.00016621,0.00514173,0.00386847,0.00725332,-0.00194538,1.07115,0.00559784,0.0170573,1651,449,6.68234,18.3391
434,575,6.59521,-17.9755,-0.000895659,0.00295085,0.00217134,0.00392823,-0.00187303,1.14784,0.0034187,0.0299738,1658,449,6.59527,17.9755
441,575,6.57104,-17.6454,0,0,0,0,0,0,0,-1,1665,449,6.57108,17.6454
448,575,7.50708,-16.9856,0,0,0,0,0,0,0,-1,1672,449,7.50709,16.9856
455,575,7.61572,-16.4214,0,0,0,0,0,0,0,-1,1679,449,7.61566,16.4214
462,575,5.95728,-16.3292,0,0,0,0,0,0,0,-1,1686,449,5.95725,16.3292
469,575,6.55884,-15.8135,0,0,0,0,0,0,0,-1,1693,449,6.55881,15.8135
476,575,6.77588,-15.1698,0,0,0,0,0,0,0,-1,1700,449,6.77589,15.1698
483,575,6.57288,-15.8891,-0.0236251,-0.0274738,-0.0219652,-0.00350012,-0.0475988,-0.741706,0.0306325,0.0475242,1707,449,6.57284,15.8891
490,575,5.84216,-16.4164,0,0,0,0,0,0,0,-1,1714,449,5.84215,16.4164
497,575,0,0,0,0,0,0,0,0,0,-1,1721,449,0,0
504,575,0,0,0,0,0,0,0,0,0,-1,1728,449,0,0
511,575,0,0,0,0,0,0,0,0,0,-1,1735,449,0,0
518,575,0,0,0,0,0,0,0,0,0,-1,1742,449,0,0
525,575,0,0,0,0,0,0,0,0,0,-1,1749,449,0,0
532,575,0,0,0,0,0,0,0,0,0,-1,1756,449,0,0
539,575,0,0,0,0,0,0,0,0,0,-1,1763,449,0,0
546,575,0,0,0,0,0,0,0,0,0,-1,1770,449,0,0
553,575,0,0,0,0,0,0,0,0,0,-1,1777,449,0,0
560,575,0,0,0,0,0,0,0,0,0,-1,1784,449,0,0
567,575,0,0,0,0,0,0,0,0,0,-1,1791,449,0,0
574,575,0,0,0,0,0,0,0,0,0,-1,1798,449,0,0
581,575,0,0,0,0,0,0,0,0,0,-1,1805,449,0,0
588,575,0,0,0,0,0,0,0,0,0,-1,1812,449,0,0
595,575,0,0,0,0,0,0,0,0,0,-1,1819,449,0,0
602,575,0,0,0,0,0,0,0,0,0,-1,1826,449,0,0
609,575,0,0,0,0,0,0,0,0,0,-1,1833,449,0,0
616,575,0,0,0,0,0,0,0,0,0,-1,1840,449,0,0
623,575,0,0,0,0,0,0,0,0,0,-1,1847,449,0,0
630,575,0,0,0,0,0,0,0,0,0,-1,1854,449,0,0
637,575,0,0,0,0,0,0,0,0,0,-1,1861,449,0,0
644,575,0,0,0,0,0,0,0,0,0,-1,1868,449,0,0
651,575,0,0,0,0,0,0,0,0,0,-1,1875,449,0,0
658,575,0,0,0,0,0,0,0,0,0,-1,1882,449,0,0
665,575,0,0,0,0,0,0,0,0,0,-1,1889,449,0,0
672,575,0,0,0,0,0,0,0,0,0,-1,1896,449,0,0
679,575,0,0,0,0,0,0,0,0,0,-1,1903,449,0,0
686,575,0,0,0,0,0,0,0,0,0,-1,1910,449,0,0
693,575,0,0,0,0,0,0,0,0,0,-1,1917,449,0,0
700,575,0,0,0,0,0,0,0,0,0,-1,1924,449,0,0
707,575,0,0,0,0,0,0,0,0,0,-1,1931,449,0,0
714,575,0,0,0,0,0,0,0,0,0,-1,1938,449,0,0
721,575,0,0,0,0,0,0,0,0,0,-1,1945,449,0,0
728,575,0,0,0,0,0,0,0,0,0,-1,1952,449,0,0
735,575,0,0,0,0,0,0,0,0,0,-1,1959,449,0,0
742,575,0,0,0,0,0,0,0,0,0,-1,1966,449,0,0
749,575,0,0,0,0,0,0,0,0,0,-1,1973,449,0,0
756,575,0,0,0,0,0,0,0,0,0,-1,1980,449,0,0
763,575,0,0,0,0,0,0,0,0,0,-1,1987,449,0,0
770,575,0,0,0,0,0,0,0,0,0,-1,1994,449,0,0
777,575,0,0,0,0,0,0,0,0,0,-1,2001,449,0,0
784,575,0,0,0,0,0,0,0,0,0,-1,2008,449,0,0
791,575,0,0,0,0,0,0,0,0,0,-1,2015,449,0,0
798,575,0,0,0,0,0,0,0,0,0,-1,2022,449,0,0
805,575,0,0,0,0,0,0,0,0,0,-1,2029,449,0,0
812,575,0,0,0,0,0,0,0,0,0,-1,2036,449,0,0
-700,568,0,0,0,0,0,0,0,0,0,-1,524,456,0,0
-693,568,0,0,0,0,0,0,0,0,0,-1,531,456,0,0
-686,568,0,0,0,0,0,0,0,0,0,-1,538,456,0,0
-679,568,0,0,0,0,0,0,0,0,0,-1,545,456,0,0
-672,568,0,0,0,0,0,0,0,0,0,-1,552,456,0,0
-665,568,0,0,0,0,0,0,0,0,0,-1,559,456,0,0
-658,568,0,0,0,0,0,0,0,0,0,-1,566,456,0,0
-651,568,0,0,0,0,0,0,0,0,0,-1,573,456,0,0
-644,568,0,0,0,0,0,0,0,0,0,-1,580,456,0,0
-637,568,0,0,0,0,0,0,0,0,0,-1,587,456,0,0
-630,568,0,0,0,0,0,0,0,0,0,-1,594,456,0,0
-623,568,0,0,0,0,0,0,0,0,0,-1,601,456,0,0
-616,568,0,0,0,0,0,0,0,0,0,-1,608,456,0,0
-609,568,0,0,0,0,0,0,0,0,0,-1,615,456,0,0
-602,568,0,0,0,0,0,0,0,0,0,-1,622,456,0,0
-595,568,0,0,0,0,0,0,0,0,0,-1,629,456,0,0
-588,568,0,0,0,0,0,0,0,0,0,-1,636,456,0,0
-581,568,0,0,0,0,0,0,0,0,0,-1,643,456,0,0
-574,568,0,0,0,0,0,0,0,0,0,-1,650,456,0,0
-567,568,0,0,0,0,0,0,0,0,0,-1,657,456,0,0
-560,568,0,0,0,0,0,0,0,0,0,-1,664,456,0,0
-553,568,0,0,0,0,0,0,0,0,0,-1,671,456,0,0
-546,568,0,0,0,0,0,0,0,0,0,-1,678,456,0,0
-539,568,0,0,0,0,0,0,0,0,0,-1,685,456,0,0
-532,568,0,0,0,0,0,0,0,0,0,-1,692,456,0,0
-525,568,0,0,0,0,0,0,0,0,0,-1,699,456,0,0
-518,568,0,0,0,0,0,0,0,0,0,-1,706,456,0,0
-511,568,0,0,0,0,0,0,0,0,0,-1,713,456,0,0
-504,568,0,0,0,0,0,0,0,0,0,-1,720,456,0,0
-497,568,0,0,0,0,0,0,0,0,0,-1,727,456,0,0
-490,568,0,0,0,0,0,0,0,0,0,-1,734,456,0,0
-483,568,0,0,0,0,0,0,0,0,0,-1,741,456,0,0
-476,568,0,0,0,0,0,0,0,0,0,-1,748,456,0,0
-469,568,0,0,0,0,0,0,0,0,0,-1,755,456,0,0
-462,568,0,0,0,0,0,0,0,0,0,-1,762,456,0,0
-455,568,0,0,0,0,0,0,0,0,0,-1,769,456,0,0
-448,568,0,0,0,0,0,0,0,0,0,-1,776,456,0,0
-441,568,0,0,0,0,0,0,0,0,0,-1,783,456,0,0
-434,568,0,0,0,0,0,0,0,0,0,-1,790,456,0,0
-427,568,0,0,0,0,0,0,0,0,0,-1,797,456,0,0
-420,568,0,0,0,0,0,0,0,0,0,-1,804,456,0,0
-413,568,0,0,0,0,0,0,0,0,0,-1,811,456,0,0
-406,568,0,0,0,0,0,0,0,0,0,-1,818,456,0,0
-399,568,0,0,0,0,0,0,0,0,0,-1,825,456,0,0
-392,568,0,0,0,0,0,0,0,0,0,-1,832,456,0,0
-385,568,0,0,0,0,0,0,0,0,0,-1,839,456,0,0
-378,568,0.321777,-7.29929,0,0,0,0,0,0,0,-1,846,456,0.321806,7.29927
-371,568,1.09595,-7.46707,0,0,0,0,0,0,0,-1,853,456,1.09597,7.46707
-364,568,1.87787,-7.61115,0,0,0,0,0,0,0,-1,860,456,1.87784,7.61116
-357,568,2.14166,-7.67645,0,0,0,0,0,0,0,-1,867,456,2.14167,7.67646
-350,568,2.7467,-11.2507,0,0,0,0,0,0,0,-1,874,456,2.7467,11.2507
-343,568,2.16516,-11.3762,0,0,0,0,0,0,0,-1,881,456,2.16514,11.3762
-336,568,2.56818,-17.5269,0,0,0,0,0,0,0,-1,888,456,2.5682,17.5269
-329,568,2.49713,-17.8954,-0.015608,0.0166758,-0.00508103,0.0174566,-0.0163888,-1.41832,0.0195438,0.0471277,895,456,2.49714,17.8954
-322,568,2.43579,-18.2439,-0.0112675,0.0155852,-0.00658129,0.0171115,-0.0127937,-1.34292,0.0173257,0.0427043,902,456,2.43576,18.2439
-315,568,2.23401,-18.4347,-0.00771618,0.0141206,-0.00759199,0.0165007,-0.0100963,-1.267,0.0155035,0.0363023,909,456,2.234,18.4346
-308,568,1.97992,-19.0887,-0.00493554,0.0125705,-0.00817989,0.0157977,-0.00816276,-1.19501,0.0140657,0.0303935,916,456,1.9799,19.0887
-301,568,1.93573,-19.5851,-0.00254251,0.0101488,-0.00813847,0.0141231,-0.00651684,-1.11652,0.0121832,0.0184615,923,456,1.93572,19.5851
-294,568,1.89294,-19.9955,-0.0010942,0.00730945,-0.00724761,0.0114852,-0.00526991,-1.0481,0.00989291,0.0128266,930,456,1.89293,19.9956
-287,568,1.86469,-20.4519,-0.000396886,0.00478117,-0.00613956,0.00885527,-0.00447099,-0.984932,0.00783149,0.0104389,937,456,1.86466,20.4519
-280,568,1.84668,-20.913,0.000117078,0.00281029,-0.00511621,0.00675414,-0.00382678,-0.914081,0.00618633,0.0103908,944,456,1.84668,20.913
-273,568,1.83636,-21.3574,0.00116163,0.00154368,-0.0046252,0.00598179,-0.00327649,-0.806037,0.0054208,0.011957,951,456,1.83637,21.3574
-266,568,1.81116,-21.7819,0.00125399,-0.000493791,-0.00324582,0.0037415,-0.0029813,-0.653898,0.00388968,0.0115339,958,456,1.81116,21.7819
-259,568,1.78345,-22.1805,0.00106801,-0.00168851,-0.00210656,0.00220713,-0.00282763,-0.495713,0.00291416,0.0123744,965,456,1.78348,22.1805
-252,568,1.75671,-22.5707,0.00108943,-0.00274427,-0.001123,0.00139416,-0.00304901,-0.264977,0.0026239,0.0126061,972,456,1.75669,22.5707
-245,568,1.74127,-22.9458,0.00110191,-0.00355908,-0.000267225,0.00111718,-0.00357435,-0.0570828,0.00282978,0.0141293,979,456,1.74128,22.9458
-238,568,1.75446,-23.3235,0.001095,-0.00439393,0.00055113,0.00114979,-0.00444872,0.0990897,0.00341423,0.012991,986,456,1.75444,23.3234
-231,568,1.74835,-23.7101,0.00121596,-0.00490344,0.00110096,0.00140801,-0.00509549,0.1727,0.00395087,0.0119055,993,456,1.74838,23.7101
-224,568,1.73157,-24.0889,0.00133695,-0.00556521,0.00161378,0.00169562,-0.00592389,0.218703,0.00461939,0.0140169,1000,456,1.73156,24.0889
-217,568,1.72821,-24.4639,0.00137315,-0.00631115,0.00214362,0.00193069,-0.00686868,0.254452,0.00534031,0.0123378,1007,456,1.72822,24.4639
-210,568,1.7312,-24.8368,0.00139107,-0.00725264,0.00268451,0.00215694,-0.00801852,0.277912,0.00619119,0.0111511,1014,456,1.73123,24.8368
-203,568,1.74957,-25.1918,0.00136894,-0.00815589,0.00306077,0.0022677,-0.00905465,0.285611,0.00691736,0.0100739,1021,456,1.74959,25.1918
-196,568,1.7804,-25.5263,0.00140027,-0.00907476,0.00346928,0.00244507,-0.0101196,0.292518,0.00769204,0.0140473,1028,456,1.78037,25.5263
-189,568,1.75806,-25.8683,0.00139682,-0.00999933,0.00383734,0.00256848,-0.011171,0.29634,0.00843486,0.0147021,1035,456,1.75812,25.8683
-182,568,1.75037,-26.2165,0.00129405,-0.0110179,0.00427443,0.00263252,-0.0123564,0.303463,0.00924095,0.0159155,1042,456,1.75031,26.2165
-175,568,1.77844,-26.5215,0.000691234,-0.0122481,0.00452911,0.002119,-0.0136759,0.305381,0.00989945,0.014827,1049,456,1.77843,26.5215
-168,568,1.76819,-26.7497,0.000666555,-0.0130321,0.00441583,0.00196664,-0.0143322,0.286324,0.0102733,0.0208423,1056,456,1.76824,26.7497
-161,568,1.67651,-27.0267,0,0,0,0,0,0,0,-1,1063,456,1.67648,27.0267
-154,568,1.99744,-27.4796,-0.000239164,-0.0144088,0.0041525,0.000888078,-0.015536,0.265073,0.0106657,0.0460935,1070,456,1.99749,27.4796
-147,568,1.97363,-27.6638,-0.000670742,-0.0147606,0.00377833,0.000278503,-0.0157098,0.24614,0.0105673,0.0489302,1077,456,1.97363,27.6638
-140,568,2.03137,-27.8865,-0.00120467,-0.0161408,0.00362506,-0.000371344,-0.0169741,0.225953,0.0111944,0.0463034,1084,456,2.03131,27.8865
-133,568,1.94214,-28.2365,0,0,0,0,0,0,0,-1,1091,456,1.94212,28.2365
-126,568,1.97083,-27.6984,-0.00254931,-0.0192256,0.00354725,-0.00182613,-0.0199488,0.201116,0.0127342,0.0462488,1098,456,1.97084,27.6984
-119,568,1.4624,-27.9276,0,0,0,0,0,0,0,-1,1105,456,1.46237,27.9276
-112,568,2.42847,-29.0731,0,0,0,0,0,0,0,-1,1112,456,2.42843,29.0731
-105,568,2.02454,-25.038,0,0,0,0,0,0,0,-1,1119,456,2.02459,25.038
-98,568,1.58618,-14.7874,0,0,0,0,0,0,0,-1,1126,456,1.58617,14.7874
-91,568,1.11621,-11.1853,0,0,0,0,0,0,0,-1,1133,456,1.11626,11.1853
-84,568,0.461792,-9.7959,0,0,0,0,0,0,0,-1,1140,456,0.461793,9.7959
-77,568,-1.13806,-8.57822,0,0,0,0,0,0,0,-1,1147,456,-1.13807,8.57821
-70,568,-4.09766,-1.42911,0,0,0,0,0,0,0,-1,1154,456,-4.09767,1.4291
-63,568,-5.92273,-3.70752,0,0,0,0,0,0,0,-1,1161,456,-5.92272,3.70751
-56,568,-5.24158,-6.01385,0,0,0,0,0,0,0,-1,1168,456,-5.24161,6.01386
-49,568,-5.24365,-8.33557,0,0,0,0,0,0,0,-1,1175,456,-5.24371,8.33557
-42,568,-0.664795,0.521973,0,0,0,0,0,0,0,-1,1182,456,-0.664829,-0.521984
-35,568,-0.153076,-1.67731,0,0,0,0,0,0,0,-1,1189,456,-0.153068,1.67731
-28,568,1.25439,-4.48798,0,0,0,0,0,0,0,-1,1196,456,1.2544,4.48797
-21,568,2.46057,-27.761,0,0,0,0,0,0,0,-1,1203,456,2.46053,27.761
-14,568,3.11609,-31.277,0,0,0,0,0,0,0,-1,1210,456,3.11608,31.277
-7,568,1.72388,-29.9531,0,0,0,0,0,0,0,-1,1217,456,1.72384,29.9531
0,568,4.64099,-31.8315,0,0,0,0,0,0,0,-1,1224,456,4.64093,31.8315
7,568,5.52698,-31.4853,0.0448349,-0.0154991,-0.00195612,0.0448983,-0.0155625,-0.0323762,0.0362508,0.0452358,1231,456,5.52697,31.4853
14,568,6.79565,-31.058,0.0421372,-0.00157608,-0.00659561,0.0431107,-0.00254957,-0.146539,0.0296269,0.043725,1238,456,6.79571,31.058
21,568,8.02637,-30.5441,0.0403567,0.0274162,-0.018707,0.0536808,0.0140922,-0.618901,0.0321368,0.0430278,1245,456,8.02634,30.5441
28,568,6.10938,-31.1248,0.0397393,0.0770963,-0.0390717,0.101725,0.0151109,-1.00837,0.0633828,0.0431301,1252,456,6.10938,31.1248
35,568,4.77991,-31.5284,0,0,0,0,0,0,0,-1,1259,456,4.77985,31.5284
42,568,4.24792,-30.7317,0.04429,0.18621,-0.0786943,0.221213,0.00928723,-1.15228,0.144479,0.0410263,1266,456,4.24788,30.7317
49,568,4.7218,-31.2398,0.0509925,0.237546,-0.0932106,0.276136,0.0124029,-1.17828,0.180099,0.0464131,1273,456,4.72177,31.2398
56,568,-1.03979,-29.3222,0,0,0,0,0,0,0,-1,1280,456,-1.03982,29.3222
63,568,-0.304932,-29.4608,0,0,0,0,0,0,0,-1,1287,456,-0.304989,29.4608
70,568,-0.0877686,-29.8852,0,0,0,0,0,0,0,-1,1294,456,-0.0878174,29.8852
77,568,-0.354614,-30.4173,0,0,0,0,0,0,0,-1,1301,456,-0.354598,30.4173
84,568,-0.734497,-31.6649,0,0,0,0,0,0,0,-1,1308,456,-0.734549,31.6649
91,568,0.293945,-32.1399,0.102951,0.230083,-0.0294756,0.236585,0.0964496,-1.3537,0.137366,0.0416006,1315,456,0.293988,32.1399
98,568,1.5249,-32.7452,0.104803,0.19138,-0.00416609,0.19158,0.104603,-1.52282,0.110765,0.042449,1322,456,1.52495,32.7452
105,568,3.23193,-33.5165,0.104255,0.147738,0.0197521,0.155371,0.0966223,1.20205,0.0905874,0.0452555,1329,456,3.23188,33.5165
112,568,5.31885,-34.2452,0.102286,0.101992,0.0407679,0.142907,0.061371,0.783599,0.0827809,0.0464476,1336,456,5.31887,34.2452
119,568,5.09863,-30.4283,0.0980852,0.0460399,0.0620252,0.139325,0.00479965,0.586776,0.0913258,0.0446699,1343,456,5.09868,30.4283
126,568,4.50562,-29.1658,0,0,0,0,0,0,0,-1,1350,456,4.50564,29.1658
133,568,1.52808,-29.9447,0,0,0,0,0,0,0,-1,1357,456,1.52805,29.9447
140,568,2.7981,-36.1523,0,0,0,0,0,0,0,-1,1364,456,2.79815,36.1523
147,568,3.1167,-35.6621,0.0650943,-0.0346719,0.0807127,0.110095,-0.0796722,0.508611,0.11003,0.0433528,1371,456,3.11665,35.6621
154,568,3.54468,-35.1344,0.0596468,-0.0356031,0.0789671,0.104239,-0.080195,0.514051,0.106784,0.042707,1378,456,3.54472,35.1344
161,568,6.04272,-28.4072,0,0,0,0,0,0,0,-1,1385,456,6.04277,28.4072
168,568,4.17395,-32.3794,0,0,0,0,0,0,0,-1,1392,456,4.174,32.3794
175,568,10.5151,0.747498,0,0,0,0,0,0,0,-1,1399,456,10.5152,-0.747501
182,568,6.35095,-3.63361,0,0,0,0,0,0,0,-1,1406,456,6.35093,3.63359
189,568,6.17493,-1.70911,0,0,0,0,0,0,0,-1,1413,456,6.17497,1.70911
196,568,6.04724,0.200836,0,0,0,0,0,0,0,-1,1420,456,6.04724,-0.200835
203,568,5.9281,2.08649,0,0,0,0,0,0,0,-1,1427,456,5.92812,-2.08648
210,568,1.46216,-2.50446,0,0,0,0,0,0,0,-1,1434,456,1.46219,2.50446
217,568,2.62366,-7.86703,0,0,0,0,0,0,0,-1,1441,456,2.62365,7.86704
224,568,3.43494,-12.1555,0,0,0,0,0,0,0,-1,1448,456,3.43492,12.1555
231,568,4.38245,-9.3205,0,0,0,0,0,0,0,-1,1455,456,4.38244,9.32048
238,568,5.88879,-20.7448,0,0,0,0,0,0,0,-1,1462,456,5.88876,20.7449
245,568,3.34387,-10.6774,0,0,0,0,0,0,0,-1,1469,456,3.34389,10.6774
252,568,3.56946,-9.28928,0,0,0,0,0,0,0,-1,1476,456,3.56948,9.28928
259,568,3.38843,-8.73068,0,0,0,0,0,0,0,-1,1483,456,3.38842,8.73068
266,568,3.104,-9.16876,0,0,0,0,0,0,0,-1,1490,456,3.10397,9.16876
273,568,3.77869,-13.1147,0,0,0,0,0,0,0,-1,1497,456,3.77869,13.1147
280,568,4.40002,-14.9322,0,0,0,0,0,0,0,-1,1504,456,4.4,14.9322
287,568,7.07837,-26.5233,0,0,0,0,0,0,0,-1,1511,456,7.0784,26.5233
294,568,7.25476,-26.0555,0.00577235,-0.00387537,-0.00171642,0.00606862,-0.00417164,-0.170924,0.00594593,0.0384484,1518,456,7.25475,26.0555
301,568,7.27673,-25.7571,0.00505427,-0.0039355,-0.00184591,0.00541854,-0.00429977,-0.194835,0.00562325,0.0211002,1525,456,7.27675,25.7572
308,568,7.30908,-25.4199,0.00424053,-0.00423981,-0.00202713,0.00470018,-0.00469946,-0.222978,0.00542688,0.0137191,1532,456,7.30912,25.4199
315,568,7.30579,-25.0871,0.00328763,-0.00414892,-0.00214681,0.00386288,-0.00472417,-0.261805,0.00496604,0.00808896,1539,456,7.30583,25.0871
322,568,7.31396,-24.7207,0.00242524,-0.00368947,-0.00202686,0.00303607,-0.0043003,-0.292712,0.00425657,0.00957863,1546,456,7.31401,24.7207
329,568,7.32605,-24.326,0.00173691,-0.00303685,-0.00175808,0.0023145,-0.00361444,-0.317422,0.00345039,0.0105928,1553,456,7.32607,24.326
336,568,7.31726,-23.9286,0.00116632,-0.00236877,-0.00147474,0.00170074,-0.0029032,-0.347668,0.00268814,0.0115529,1560,456,7.31721,23.9286
343,568,7.34277,-23.5297,0.000627548,-0.00169304,-0.00121473,0.00114709,-0.00221258,-0.404158,0.00197196,0.0118127,1567,456,7.34283,23.5297
350,568,7.32092,-23.1465,0.000252347,-0.000913276,-0.000817424,0.000673453,-0.00133438,-0.475704,0.00117997,0.00983532,1574,456,7.32092,23.1464
357,568,7.2981,-22.7453,-7.05751e-05,-9.98342e-05,-0.00038661,0.000301682,-0.000472091,-0.766487,0.000450335,0.00876933,1581,456,7.29816,22.7453
364,568,7.31433,-22.3556,-0.000279486,0.000714505,7.8775e-05,0.000720709,-0.00028569,1.4922,0.000598866,0.0110149,1588,456,7.31436,22.3556
371,568,7.33704,-21.9306,-0.000410559,0.00148789,0.000529099,0.00162539,-0.000548061,1.31654,0.00130522,0.0197286,1595,456,7.33705,21.9306
378,568,7.30688,-21.5038,-0.000557077,0.00230314,0.000923852,0.00257559,-0.000829529,1.28402,0.00205029,0.0179373,1602,456,7.30692,21.5037
385,568,7.26343,-21.0907,-0.000723255,0.00313587,0.00118236,0.00346931,-0.0010567,1.29592,0.00273404,0.00909297,1609,456,7.26343,21.0907
392,568,7.23608,-20.6794,-0.000819003,0.00381563,0.00143051,0.00422161,-0.00122498,1.29427,0.00329942,0.0106522,1616,456,7.23604,20.6794
399,568,7.18884,-20.2979,-0.000648991,0.00441868,0.00178845,0.00498628,-0.00121659,1.26348,0.00379528,0.0169541,1623,456,7.18887,20.2979
406,568,7.22266,-19.8163,-0.000232618,0.00477787,0.00234729,0.0057057,-0.00116045,1.19437,0.00424384,0.0147163,1630,456,7.22264,19.8163
413,568,7.2207,-19.3125,-9.35074e-05,0.00488702,0.00281299,0.00615366,-0.00136015,1.14771,0.004623,0.0115714,1637,456,7.22074,19.3125
420,568,7.19214,-18.8467,0.000104318,0.00488219,0.00301093,0.00633678,-0.00135027,1.12076,0.00473917,0.0101837,1644,456,7.19214,18.8467
427,568,7.15967,-18.3672,0.000312839,0.00373593,0.00332411,0.00576325,-0.00171448,1.02314,0.0045233,0.0124609,1651,456,7.15972,18.3672
434,568,7.18298,-17.8965,-0.000426178,0.00209851,0.00226981,0.00343338,-0.00176106,1.03917,0.00305038,0.0197575,1658,456,7.18296,17.8964
441,568,7.17053,-17.5244,-0.000723109,0.000357559,0.0017356,0.00163499,-0.00200054,0.936305,0.00210251,0.0307173,1665,456,7.17056,17.5244
448,568,7.40845,-16.978,-0.00164088,-0.00210029,0.000693923,-0.00113963,-0.00260154,0.625561,0.00150584,0.0424082,1672,456,7.40851,16.978
455,568,7.75012,-16.5666,-0.00319189,-0.00528204,-0.000904906,-0.00285456,-0.00561937,-0.35682,0.00324448,0.0482767,1679,456,7.75008,16.5666
462,568,8.30347,-16.045,0,0,0,0,0,0,0,-1,1686,456,8.30342,16.045
469,568,6.97192,-15.4566,-0.008367,-0.0125879,-0.00596661,-0.0041486,-0.0168063,-0.61541,0.0101092,0.0460261,1693,456,6.97192,15.4566
476,568,7.06641,-15.4848,-0.0122805,-0.0167123,-0.00959093,-0.00465285,-0.02434,-0.671869,0.0149196,0.0475832,1700,456,7.06643,15.4848
483,568,7.03247,-15.6246,-0.0169242,-0.0215788,-0.0139662,-0.00509265,-0.0334103,-0.702837,0.020785,0.0474953,1707,456,7.03251,15.6246
490,568,7.13123,-15.6385,0,0,0,0,0,0,0,-1,1714,456,7.13125,15.6386
497,568,5.27844,-10.0788,0,0,0,0,0,0,0,-1,1721,456,5.27847,10.0788
504,568,0,0,0,0,0,0,0,0,0,-1,1728,456,0,0
511,568,0,0,0,0,0,0,0,0,0,-1,1735,456,0,0
518,568,0,0,0,0,0,0,0,0,0,-1,1742,456,0,0
525,568,0,0,0,0,0,0,0,0,0,-1,1749,456,0,0
532,568,0,0,0,0,0,0,0,0,0,-1,1756,456,0,0
539,568,0,0,0,0,0,0,0,0,0,-1,1763,456,0,0
546,568,0,0,0,0,0,0,0,0,0,-1,1770,456,0,0
553,568,0,0,0,0,0,0,0,0,0,-1,1777,456,0,0
560,568,0,0,0,0,0,0,0,0,0,-1,1784,456,0,0
567,568,0,0,0,0,0,0,0,0,0,-1,1791,456,0,0
574,568,0,0,0,0,0,0,0,0,0,-1,1798,456,0,0
581,568,0,0,0,0,0,0,0,0,0,-1,1805,456,0,0
588,568,0,0,0,0,0,0,0,0,0,-1,1812,456,0,0
595,568,0,0,0,0,0,0,0,0,0,-1,1819,456,0,0
602,568,0,0,0,0,0,0,0,0,0,-1,1826,456,0,0
609,568,0,0,0,0,0,0,0,0,0,-1,1833,456,0,0
616,568,0,0,0,0,0,0,0,0,0,-1,1840,456,0,0
623,568,0,0,0,0,0,0,0,0,0,-1,1847,456,0,0
630,568,0,0,0,0,0,0,0,0,0,-1,1854,456,0,0
637,568,0,0,0,0,0,0,0,0,0,-1,1861,456,0,0
644,568,0,0,0,0,0,0,0,0,0,-1,1868,456,0,0
651,568,0,0,0,0,0,0,0,0,0,-1,1875,456,0,0
658,568,0,0,0,0,0,0,0,0,0,-1,1882,456,0,0
665,568,0,0,0,0,0,0,0,0,0,-1,1889,456,0,0
672,568,0,0,0,0,0,0,0,0,0,-1,1896,456,0,0
679,568,0,0,0,0,0,0,0,0,0,-1,1903,456,0,0
686,568,0,0,0,0,0,0,0,0,0,-1,1910,456,0,0
693,568,0,0,0,0,0,0,0,0,0,-1,1917,456,0,0
700,568,0,0,0,0,0,0,0,0,0,-1,1924,456,0,0
707,568,0,0,0,0,0,0,0,0,0,-1,1931,456,0,0
714,568,0,0,0,0,0,0,0,0,0,-1,1938,456,0,0
721,568,0,0,0,0,0,0,0,0,0,-1,1945,456,0,0
728,568,0,0,0,0,0,0,0,0,0,-1,1952,456,0,0
735,568,0,0,0,0,0,0,0,0,0,-1,1959,456,0,0
742,568,0,0,0,0,0,0,0,0,0,-1,1966,456,0,0
749,568,0,0,0,0,0,0,0,0,0,-1,1973,456,0,0
756,568,0,0,0,0,0,0,0,0,0,-1,1980,456,0,0
763,568,0,0,0,0,0,0,0,0,0,-1,1987,456,0,0
770,568,0,0,0,0,0,0,0,0,0,-1,1994,456,0,0
777,568,0,0,0,0,0,0,0,0,0,-1,2001,456,0,0
784,568,0,0,0,0,0,0,0,0,0,-1,2008,456,0,0
791,568,0,0,0,0,0,0,0,0,0,-1,2015,456,0,0
798,568,0,0,0,0,0,0,0,0,0,-1,2022,456,0,0
805,568,0,0,0,0,0,0,0,0,0,-1,2029,456,0,0
812,568,0,0,0,0,0,0,0,0,0,-1,2036,456,0,0
-700,561,0,0,0,0,0,0,0,0,0,-1,524,463,0,0
-693,561,0,0,0,0,0,0,0,0,0,-1,531,463,0,0
-686,561,0,0,0,0,0,0,0,0,0,-1,538,463,0,0
-679,561,0,0,0,0,0,0,0,0,0,-1,545,463,0,0
-672,561,0,0,0,0,0,0,0,0,0,-1,552,463,0,0
-665,561,0,0,0,0,0,0,0,0,0,-1,559,463,0,0
-658,561,0,0,0,0,0,0,0,0,0,-1,566,463,0,0
-651,561,0,0,0,0,0,0,0,0,0,-1,573,463,0,0
-644,561,0,0,0,0,0,0,0,0,0,-1,580,463,0,0
-637,561,0,0,0,0,0,0,0,0,0,-1,587,463,0,0
-630,561,0,0,0,0,0,0,0,0,0,-1,594,463,0,0
-623,561,0,0,0,0,0,0,0,0,0,-1,601,463,0,0
-616,561,0,0,0,0,0,0,0,0,0,-1,608,463,0,0
-609,561,0,0,0,0,0,0,0,0,0,-1,615,463,0,0
-602,561,0,0,0,0,0,0,0,0,0,-1,622,463,0,0
-595,561,0,0,0,0,0,0,0,0,0,-1,629,463,0,0
-588,561,0,0,0,0,0,0,0,0,0,-1,636,463,0,0
-581,561,0,0,0,0,0,0,0,0,0,-1,643,463,0,0
-574,561,0,0,0,0,0,0,0,0,0,-1,650,463,0,0
-567,561,0,0,0,0,0,0,0,0,0,-1,657,463,0,0
-560,561,0,0,0,0,0,0,0,0,0,-1,664,463,0,0
-553,561,0,0,0,0,0,0,0,0,0,-1,671,463,0,0
-546,561,0,0,0,0,0,0,0,0,0,-1,678,463,0,0
-539,561,0,0,0,0,0,0,0,0,0,-1,685,463,0,0
-532,561,0,0,0,0,0,0,0,0,0,-1,692,463,0,0
-525,561,0,0,0,0,0,0,0,0,0,-1,699,463,0,0
-518,561,0,0,0,0,0,0,0,0,0,-1,706,463,0,0
-511,561,0,0,0,0,0,0,0,0,0,-1,713,463,0,0
-504,561,0,0,0,0,0,0,0,0,0,-1,720,463,0,0
-497,561,0,0,0,0,0,0,0,0,0,-1,727,463,0,0
-490,561,0,0,0,0,0,0,0,0,0,-1,734,463,0,0
-483,561,0,0,0,0,0,0,0,0,0,-1,741,463,0,0
-476,561,0,0,0,0,0,0,0,0,0,-1,748,463,0,0
-469,561,0,0,0,0,0,0,0,0,0,-1,755,463,0,0
-462,561,0,0,0,0,0,0,0,0,0,-1,762,463,0,0
-455,561,0,0,0,0,0,0,0,0,0,-1,769,463,0,0
-448,561,0,0,0,0,0,0,0,0,0,-1,776,463,0,0
-441,561,0,0,0,0,0,0,0,0,0,-1,783,463,0,0
-434,561,0,0,0,0,0,0,0,0,0,-1,790,463,0,0
-427,561,0,0,0,0,0,0,0,0,0,-1,797,463,0,0
-420,561,0,0,0,0,0,0,0,0,0,-1,804,463,0,0
-413,561,0,0,0,0,0,0,0,0,0,-1,811,463,0,0
-406,561,0,0,0,0,0,0,0,0,0,-1,818,463,0,0
-399,561,0,0,0,0,0,0,0,0,0,-1,825,463,0,0
-392,561,4.92407,-2.54578,0,0,0,0,0,0,0,-1,832,463,4.92408,2.54576
-385,561,5.55634,-1.02338,0,0,0,0,0,0,0,-1,839,463,5.55634,1.02338
-378,561,0.160522,-4.51785,0,0,0,0,0,0,0,-1,846,463,0.160542,4.51785
-371,561,1.06299,-7.56818,0,0,0,0,0,0,0,-1,853,463,1.06297,7.56817
-364,561,1.45264,-7.57684,0,0,0,0,0,0,0,-1,860,463,1.45264,7.57684
-357,561,0.948242,-12.2803,0,0,0,0,0,0,0,-1,867,463,0.948262,12.2803
-350,561,1.33124,-11.9406,0,0,0,0,0,0,0,-1,874,463,1.33127,11.9406
-343,561,1.13214,-14.1837,0,0,0,0,0,0,0,-1,881,463,1.13217,14.1837
-336,561,1.87268,-17.2078,0,0,0,0,0,0,0,-1,888,463,1.87266,17.2078
-329,561,1.77228,-17.8079,-0.0113537,0.01325,-0.004074,0.0139071,-0.0120107,-1.4109,0.014977,0.0414468,895,463,1.77226,17.8079
-322,561,1.59369,-18.1193,-0.00852283,0.0123459,-0.00491413,0.0134452,-0.0096221,-1.35072,0.0133787,0.0346205,902,463,1.59368,18.1193
-315,561,1.6076,-18.534,-0.00609196,0.0112116,-0.00548291,0.0128026,-0.00768301,-1.28837,0.0119499,0.0225129,909,463,1.60759,18.534
-308,561,1.56451,-19.0537,-0.00411303,0.00999545,-0.00581506,0.0120833,-0.00620084,-1.22609,0.0107369,0.0177038,916,463,1.56454,19.0537
-301,561,1.51965,-19.6127,-0.00236978,0.00814103,-0.00574715,0.0106734,-0.00490213,-1.15577,0.00919599,0.0132789,923,463,1.51963,19.6127
-294,561,1.48535,-20.0499,-0.00108471,0.00610606,-0.00522492,0.00885311,-0.00383177,-1.08675,0.00751245,0.0116601,930,463,1.48533,20.0499
-287,561,1.45874,-20.4684,-0.000283512,0.00422745,-0.00448066,0.00698829,-0.00304435,-1.01857,0.00593966,0.00990445,937,463,1.45875,20.4685
-280,561,1.41864,-20.8811,0.000281896,0.00264302,-0.00374637,0.00539044,-0.00246552,-0.938034,0.00463925,0.0120454,944,463,1.41864,20.8811
-273,561,1.401,-21.314,0.00108418,0.00147081,-0.00327953,0.00456272,-0.00200773,-0.814837,0.00388788,0.0150529,951,463,1.401,21.314
-266,561,1.40204,-21.7427,0.00120976,-0.000335902,-0.00216278,0.00273364,-0.00185978,-0.613802,0.00266796,0.0100973,958,463,1.40206,21.7427
-259,561,1.38165,-22.1392,0.00117598,-0.00159632,-0.00119101,0.00161737,-0.00203772,-0.354913,0.00211491,0.0108431,965,463,1.38162,22.1392
-252,561,1.37329,-22.534,0.00123267,-0.0029304,-0.000253049,0.00124799,-0.00294572,-0.0604874,0.0024865,0.014329,972,463,1.37331,22.534
-245,561,1.35754,-22.9268,0.00125391,-0.00409433,0.000606609,0.00132185,-0.00416227,0.111535,0.00330479,0.0160215,979,463,1.35754,22.9267
-238,561,1.3717,-23.3162,0.00129155,-0.0053859,0.00144822,0.00159212,-0.00568647,0.204636,0.00441836,0.0132214,986,463,1.37173,23.3161
-231,561,1.35754,-23.7096,0.0014088,-0.00651323,0.00211462,0.00193791,-0.00704235,0.245183,0.00545681,0.0116592,993,463,1.35754,23.7096
-224,561,1.35376,-24.0903,0.00149877,-0.00780382,0.00280273,0.00227793,-0.00858297,0.271153,0.00661338,0.0119165,1000,463,1.35377,24.0903
-217,561,1.35889,-24.4534,0.00154887,-0.00912296,0.00349802,0.00259325,-0.0101673,0.290138,0.00778791,0.0123979,1007,463,1.35888,24.4534
-210,561,1.36499,-24.8185,0.00161611,-0.0106096,0.00418867,0.00291351,-0.011907,0.30037,0.00906658,0.0121117,1014,463,1.36498,24.8185
-203,561,1.3927,-25.1597,0.00166274,-0.0118587,0.00462801,0.00309505,-0.013291,0.300138,0.0100525,0.0137618,1021,463,1.3927,25.1597
-196,561,1.36279,-25.4661,0.00184091,-0.0131185,0.00509063,0.00340889,-0.0146865,0.298791,0.0111031,0.0152232,1028,463,1.3628,25.4661
-189,561,1.37549,-25.7856,0.00202709,-0.0140415,0.00540613,0.00367661,-0.015691,0.296147,0.0118774,0.018689,1035,463,1.37547,25.7856
-182,561,1.44348,-26.1162,0.00197827,-0.0150887,0.0058576,0.00379523,-0.0169057,0.300779,0.0127256,0.0230971,1042,463,1.44351,26.1162
-175,561,1.36548,-26.4067,0.000987806,-0.0163875,0.00611058,0.00292157,-0.0183213,0.30649,0.0132955,0.0353638,1049,463,1.36553,26.4067
-168,561,1.31567,-26.7627,0.0005041,-0.0172334,0.00600714,0.00234705,-0.0190763,0.297678,0.0135677,0.0481121,1056,463,1.31567,26.7627
-161,561,2.10876,-27.1248,0,0,0,0,0,0,0,-1,1063,463,2.10881,27.1248
-154,561,2.32983,-27.4306,0,0,0,0,0,0,0,-1,1070,463,2.32978,27.4306
-147,561,1.70471,-27.6643,0,0,0,0,0,0,0,-1,1077,463,1.70475,27.6643
-140,561,1.97791,-27.7735,0,0,0,0,0,0,0,-1,1084,463,1.97794,27.7735
-133,561,2.53076,-26.5784,0,0,0,0,0,0,0,-1,1091,463,2.53081,26.5784
-126,561,1.57788,-27.5258,0,0,0,0,0,0,0,-1,1098,463,1.57794,27.5258
-119,561,0.625122,-28.4731,0,0,0,0,0,0,0,-1,1105,463,0.625072,28.4731
-112,561,0.793579,-25.7806,0,0,0,0,0,0,0,-1,1112,463,0.793536,25.7806
-105,561,0.530518,-13.5379,0,0,0,0,0,0,0,-1,1119,463,0.530477,13.5379
-98,561,1.5387,-7.54352,0,0,0,0,0,0,0,-1,1126,463,1.53871,7.54351
-91,561,1.29553,-6.57968,0,0,0,0,0,0,0,-1,1133,463,1.29549,6.5797
-84,561,1.23364,-5.84555,0,0,0,0,0,0,0,-1,1140,463,1.23363,5.84556
-77,561,-2.36023,1.00204,0,0,0,0,0,0,0,-1,1147,463,-2.3602,-1.00205
-70,561,-3.90015,-1.41541,0,0,0,0,0,0,0,-1,1154,463,-3.90009,1.4154
-63,561,-6.95691,-4.02756,0,0,0,0,0,0,0,-1,1161,463,-6.95696,4.02756
-56,561,-5.37988,-6.66855,0,0,0,0,0,0,0,-1,1168,463,-5.37988,6.66854
-49,561,-5.7439,-9.11029,0,0,0,0,0,0,0,-1,1175,463,-5.74387,9.1103
-42,561,-1.72644,-5.63065,0,0,0,0,0,0,0,-1,1182,463,-1.72648,5.63064
-35,561,-1.65674,-4.87994,0,0,0,0,0,0,0,-1,1189,463,-1.6567,4.87993
-28,561,-1.91418,-3.86896,0,0,0,0,0,0,0,-1,1196,463,-1.91414,3.86895
-21,561,2.08118,-27.1563,0,0,0,0,0,0,0,-1,1203,463,2.08119,27.1563
-14,561,0.906006,-28.408,0,0,0,0,0,0,0,-1,1210,463,0.906035,28.408
-7,561,1.2644,-29.7228,0,0,0,0,0,0,0,-1,1217,463,1.26446,29.7228
0,561,1.62292,-31.0375,0,0,0,0,0,0,0,-1,1224,463,1.62289,31.0375
7,561,5.56201,-31.233,0,0,0,0,0,0,0,-1,1231,463,5.56205,31.233
14,561,6.93884,-30.5931,0,0,0,0,0,0,0,-1,1238,463,6.93887,30.5931
21,561,8.00476,-30.1322,0,0,0,0,0,0,0,-1,1245,463,8.00473,30.1322
28,561,6.98376,-31.0708,0.0547165,0.110445,-0.0520819,0.141648,0.0235135,-1.03103,0.0876517,0.0422683,1252,463,6.98373,31.0708
35,561,3.026,-28.9153,0.0564763,0.185382,-0.0829658,0.225989,0.0158697,-1.11563,0.145658,0.0394135,1259,463,3.02602,28.9153
42,561,4.09155,-29.8697,0.0622382,0.258883,-0.109927,0.308044,0.0130779,-1.15027,0.201145,0.0436769,1266,463,4.09152,29.8697
49,561,4.92542,-31.094,0.0702683,0.328048,-0.132798,0.38422,0.0140964,-1.17063,0.25158,0.0462279,1273,463,4.92538,31.094
56,561,5.92554,-32.1719,0.0813189,0.379733,-0.145955,0.43925,0.0218019,-1.18361,0.285843,0.0442445,1280,463,5.92555,32.1719
63,561,-2.14197,-28.6222,0.0916951,0.406594,-0.145991,0.463862,0.034427,-1.19697,0.298429,0.0436419,1287,463,-2.14201,28.6222
70,561,-1.63403,-28.9706,0.10046,0.408501,-0.13496,0.459264,0.0496962,-1.21103,0.291029,0.0476978,1294,463,-1.63409,28.9706
77,561,-1.03186,-29.1677,0.110057,0.388783,-0.115013,0.430114,0.0687267,-1.22581,0.266801,0.0491112,1301,463,-1.03187,29.1677
84,561,-2.60974,-31.6964,0,0,0,0,0,0,0,-1,1308,463,-2.60969,31.6964
91,561,-1.5564,-32.1978,0.122107,0.304754,-0.057842,0.321531,0.10533,-1.2885,0.189279,0.0420133,1315,463,-1.55641,32.1978
98,561,-0.332153,-32.9395,0.123136,0.24987,-0.022644,0.253795,0.119212,-1.39919,0.146618,0.0451581,1322,463,-0.332189,32.9395
105,561,1.51282,-33.7577,0,0,0,0,0,0,0,-1,1329,463,1.51284,33.7577
112,561,3.32678,-34.6234,0,0,0,0,0,0,0,-1,1336,463,3.32679,34.6234
119,561,4.92432,-30.4448,0,0,0,0,0,0,0,-1,1343,463,4.92427,30.4448
126,561,1.87195,-34.9863,0,0,0,0,0,0,0,-1,1350,463,1.87198,34.9863
133,561,2.60547,-35.391,0,0,0,0,0,0,0,-1,1357,463,2.60542,35.391
140,561,3.70483,-34.7141,0,0,0,0,0,0,0,-1,1364,463,3.70482,34.7141
147,561,1.87915,-35.4816,0.0705972,-0.0372274,0.0963587,0.1271,-0.0937303,0.530346,0.127981,0.0443908,1371,463,1.8792,35.4816
154,561,2.47546,-34.8987,0.0640116,-0.0373065,0.09524,0.121227,-0.0945224,0.540974,0.124881,0.0425914,1378,463,2.47541,34.8986
161,561,3.10608,-34.3023,0.0633231,-0.0332211,0.0943544,0.121037,-0.0909346,0.548954,0.122792,0.0491969,1385,463,3.10613,34.3023
168,561,3.78113,-33.7118,0,0,0,0,0,0,0,-1,1392,463,3.78116,33.7118
175,561,10.4185,0.276398,0,0,0,0,0,0,0,-1,1399,463,10.4185,-0.276394
182,561,6.45703,-4.02127,0,0,0,0,0,0,0,-1,1406,463,6.45704,4.02127
189,561,6.50854,-2.08685,0,0,0,0,0,0,0,-1,1413,463,6.50851,2.08686
196,561,6.44775,-0.27182,0,0,0,0,0,0,0,-1,1420,463,6.44773,0.271814
203,561,6.18591,1.1301,0,0,0,0,0,0,0,-1,1427,463,6.18592,-1.13009
210,561,5.68713,2.68427,0,0,0,0,0,0,0,-1,1434,463,5.6871,-2.68425
217,561,3.61743,-7.33582,0,0,0,0,0,0,0,-1,1441,463,3.61738,7.33581
224,561,4.27466,-8.59171,0,0,0,0,0,0,0,-1,1448,463,4.27466,8.59171
231,561,4.93188,-9.8476,0,0,0,0,0,0,0,-1,1455,463,4.93193,9.84761
238,561,2.18018,-5.18359,0,0,0,0,0,0,0,-1,1462,463,2.18023,5.18359
245,561,3.07568,-3.50238,0,0,0,0,0,0,0,-1,1469,463,3.0757,3.50238
252,561,3.47412,-3.71109,0,0,0,0,0,0,0,-1,1476,463,3.47413,3.71109
259,561,3.42212,-3.2334,0,0,0,0,0,0,0,-1,1483,463,3.42214,3.2334
266,561,4.44373,-5.90027,0,0,0,0,0,0,0,-1,1490,463,4.44372,5.90026
273,561,2.59485,-3.65268,0,0,0,0,0,0,0,-1,1497,463,2.5948,3.65268
280,561,3.10767,-6.38235,0,0,0,0,0,0,0,-1,1504,463,3.10766,6.38235
287,561,4.91809,-14.429,0,0,0,0,0,0,0,-1,1511,463,4.9181,14.429
294,561,7.43164,-25.9854,0,0,0,0,0,0,0,-1,1518,463,7.43163,25.9854
301,561,7.51013,-25.5646,0.00644668,-0.00597687,-0.00262132,0.00697712,-0.00650731,-0.19966,0.00778681,0.0436825,1525,463,7.51018,25.5646
308,561,7.67493,-25.2976,0.00527063,-0.00629815,-0.00295654,0.00598242,-0.00700994,-0.236254,0.00750896,0.0324525,1532,463,7.67498,25.2976
315,561,7.70215,-25.0318,0.00390624,-0.00617858,-0.00320367,0.00483789,-0.00711023,-0.283002,0.00693971,0.0190171,1539,463,7.70218,25.0318
322,561,7.71887,-24.7495,0.00277163,-0.00559602,-0.00310624,0.00379867,-0.00662306,-0.319323,0.0060902,0.0197762,1546,463,7.7189,24.7495
329,561,7.71643,-24.3263,0.00193577,-0.00479009,-0.00282833,0.00296701,-0.00582133,-0.349632,0.00516239,0.0147736,1553,463,7.71646,24.3263
336,561,7.73169,-23.9166,0.00126649,-0.00399955,-0.00254077,0.00229247,-0.00502553,-0.383784,0.00432215,0.0110288,1560,463,7.73167,23.9166
343,561,7.72949,-23.5367,0.000631657,-0.00324866,-0.00228298,0.00168753,-0.00430453,-0.433198,0.0035678,0.0107825,1567,463,7.72945,23.5367
350,561,7.71033,-23.1418,0.000212586,-0.00245638,-0.00186022,0.00116748,-0.00341128,-0.474251,0.00274732,0.00983806,1574,463,7.71031,23.1418
357,561,7.70569,-22.7332,-0.000111859,-0.00158501,-0.00140928,0.000741722,-0.00243859,-0.544591,0.0019213,0.00952977,1581,463,7.70564,22.7331
364,561,7.71704,-22.3539,-0.000242826,-0.000783771,-0.000887676,0.000414669,-0.00144127,-0.637518,0.00112484,0.00903569,1588,463,7.71702,22.3539
371,561,7.7063,-21.9438,-0.000270103,3.03652e-06,-0.000372107,0.000262844,-0.000529911,-0.961275,0.000466274,0.0143076,1595,463,7.70629,21.9438
378,561,7.69275,-21.5118,-0.000304063,0.000812317,9.19445e-05,0.000819839,-0.000311585,1.48917,0.00067484,0.0112527,1602,463,7.69276,21.5118
385,561,7.68384,-21.076,-0.00034338,0.00171512,0.000463577,0.0018147,-0.000442961,1.3592,0.00138134,0.00986959,1609,463,7.68388,21.076
392,561,7.66211,-20.6283,-0.000351347,0.00239769,0.000791574,0.00260933,-0.000562984,1.30954,0.00195443,0.0136663,1616,463,7.6621,20.6283
399,561,7.68774,-20.2262,-0.000185186,0.00295275,0.00117479,0.00334383,-0.000576267,1.24944,0.00244406,0.0209149,1623,463,7.68777,20.2262
406,561,7.6842,-19.7896,0.00013996,0.00333021,0.00169946,0.00406587,-0.000595703,1.16227,0.00292941,0.0187337,1630,463,7.68419,19.7896
413,561,7.66089,-19.3062,0.000246126,0.00353185,0.00218041,0.00461904,-0.000841064,1.10826,0.00339462,0.0159255,1637,463,7.6609,19.3062
420,561,7.62476,-18.8489,0.000363452,0.00360578,0.00244779,0.00492057,-0.000951344,1.07788,0.00363919,0.0128066,1644,463,7.62476,18.8489
427,561,7.61523,-18.3719,0.00045081,0.00279024,0.00277526,0.00463222,-0.00139117,0.984841,0.00364155,0.0105664,1651,463,7.61527,18.3719
434,561,7.62402,-17.9002,-6.94855e-05,0.00160757,0.0021666,0.00309225,-0.00155416,0.970034,0.00273116,0.0137981,1658,463,7.62406,17.9002
441,561,7.61389,-17.4708,-0.000334988,0.000293861,0.00192763,0.00193254,-0.00197367,0.866243,0.00225529,0.0172955,1665,463,7.61383,17.4708
448,561,7.60278,-16.9802,-0.00103454,-0.0014929,0.00135989,0.00011535,-0.00264279,0.701919,0.00180154,0.0213076,1672,463,7.60281,16.9802
455,561,7.70032,-16.5255,-0.00216726,-0.00378213,0.000397903,-0.00207454,-0.00387485,0.228935,0.00223901,0.0381138,1679,463,7.70031,16.5255
462,561,7.63086,-16.0507,-0.00372633,-0.00632064,-0.00100271,-0.00338397,-0.00666301,-0.329032,0.00384705,0.0394385,1686,463,7.63091,16.0507
469,561,7.3894,-15.541,-0.00579446,-0.0093411,-0.00280112,-0.00425252,-0.010883,-0.503206,0.00633312,0.0255694,1693,463,7.38946,15.541
476,561,7.16992,-15.0956,-0.00853778,-0.0126091,-0.00520371,-0.00498572,-0.0161611,-0.598954,0.00955602,0.0432897,1700,463,7.16989,15.0956
483,561,6.92615,-14.6304,0,0,0,0,0,0,0,-1,1707,463,6.92612,14.6304
490,561,6.1084,-11.0669,0,0,0,0,0,0,0,-1,1714,463,6.10843,11.0669
497,561,7.77515,-8.73441,0,0,0,0,0,0,0,-1,1721,463,7.77516,8.73441
504,561,10.0769,-0.811401,0,0,0,0,0,0,0,-1,1728,463,10.0769,0.8114
511,561,0,0,0,0,0,0,0,0,0,-1,1735,463,0,0
518,561,0,0,0,0,0,0,0,0,0,-1,1742,463,0,0
525,561,0,0,0,0,0,0,0,0,0,-1,1749,463,0,0
532,561,0,0,0,0,0,0,0,0,0,-1,1756,463,0,0
539,561,0,0,0,0,0,0,0,0,0,-1,1763,463,0,0
546,561,0,0,0,0,0,0,0,0,0,-1,1770,463,0,0
553,561,0,0,0,0,0,0,0,0,0,-1,1777,463,0,0
560,561,0,0,0,0,0,0,0,0,0,-1,1784,463,0,0
567,561,0,0,0,0,0,0,0,0,0,-1,1791,463,0,0
574,561,0,0,0,0,0,0,0,0,0,-1,1798,463,0,0
581,561,0,0,0,0,0,0,0,0,0,-1,1805,463,0,0
588,561,0,0,0,0,0,0,0,0,0,-1,1812,463,0,0
595,561,0,0,0,0,0,0,0,0,0,-1,1819,463,0,0
602,561,0,0,0,0,0,0,0,0,0,-1,1826,463,0,0
609,561,0,0,0,0,0,0,0,0,0,-1,1833,463,0,0
616,561,0,0,0,0,0,0,0,0,0,-1,1840,463,0,0
623,561,0,0,0,0,0,0,0,0,0,-1,1847,463,0,0
630,561,0,0,0,0,0,0,0,0,0,-1,1854,463,0,0
637,561,0,0,0,0,0,0,0,0,0,-1,1861,463,0,0
644,561,0,0,0,0,0,0,0,0,0,-1,1868,463,0,0
651,561,0,0,0,0,0,0,0,0,0,-1,1875,463,0,0
658,561,0,0,0,0,0,0,0,0,0,-1,1882,463,0,0
665,561,0,0,0,0,0,0,0,0,0,-1,1889,463,0,0
672,561,0,0,0,0,0,0,0,0,0,-1,1896,463,0,0
679,561,0,0,0,0,0,0,0,0,0,-1,1903,463,0,0
686,561,0,0,0,0,0,0,0,0,0,-1,1910,463,0,0
693,561,0,0,0,0,0,0,0,0,0,-1,1917,463,0,0
700,561,0,0,0,0,0,0,0,0,0,-1,1924,463,0,0
707,561,0,0,0,0,0,0,0,0,0,-1,1931,463,0,0
714,561,0,0,0,0,0,0,0,0,0,-1,1938,463,0,0
721,561,0,0,0,0,0,0,0,0,0,-1,1945,463,0,0
728,561,0,0,0,0,0,0,0,0,0,-1,1952,463,0,0
735,561,0,0,0,0,0,0,0,0,0,-1,1959,463,0,0
742,561,0,0,0,0,0,0,0,0,0,-1,1966,463,0,0
749,561,0,0,0,0,0,0,0,0,0,-1,1973,463,0,0
756,561,0,0,0,0,0,0,0,0,0,-1,1980,463,0,0
763,561,0,0,0,0,0,0,0,0,0,-1,1987,463,0,0
770,561,0,0,0,0,0,0,0,0,0,-1,1994,463,0,0
777,561,0,0,0,0,0,0,0,0,0,-1,2001,463,0,0
784,561,0,0,0,0,0,0,0,0,0,-1,2008,463,0,0
791,561,0,0,0,0,0,0,0,0,0,-1,2015,463,0,0
798,561,0,0,0,0,0,0,0,0,0,-1,2022,463,0,0
805,561,0,0,0,0,0,0,0,0,0,-1,2029,463,0,0
812,561,0,0,0,0,0,0,0,0,0,-1,2036,463,0,0
-700,554,0,0,0,0,0,0,0,0,0,-1,524,470,0,0
-693,554,0,0,0,0,0,0,0,0,0,-1,531,470,0,0
-686,554,0,0,0,0,0,0,0,0,0,-1,538,470,0,0
-679,554,0,0,0,0,0,0,0,0,0,-1,545,470,0,0
-672,554,0,0,0,0,0,0,0,0,0,-1,552,470,0,0
-665,554,0,0,0,0,0,0,0,0,0,-1,559,470,0,0
-658,554,0,0,0,0,0,0,0,0,0,-1,566,470,0,0
-651,554,0,0,0,0,0,0,0,0,0,-1,573,470,0,0
-644,554,0,0,0,0,0,0,0,0,0,-1,580,470,0,0
-637,554,0,0,0,0,0,0,0,0,0,-1,587,470,0,0
-630,554,0,0,0,0,0,0,0,0,0,-1,594,470,0,0
-623,554,0,0,0,0,0,0,0,0,0,-1,601,470,0,0
-616,554,0,0,0,0,0,0,0,0,0,-1,608,470,0,0
-609,554,0,0,0,0,0,0,0,0,0,-1,615,470,0,0
-602,554,0,0,0,0,0,0,0,0,0,-1,622,470,0,0
-595,554,0,0,0,0,0,0,0,0,0,-1,629,470,0,0
-588,554,0,0,0,0,0,0,0,0,0,-1,636,470,0,0
-581,554,0,0,0,0,0,0,0,0,0,-1,643,470,0,0
-574,554,0,0,0,0,0,0,0,0,0,-1,650,470,0,0
-567,554,0,0,0,0,0,0,0,0,0,-1,657,470,0,0
-560,554,0,0,0,0,0,0,0,0,0,-1,664,470,0,0
-553,554,0,0,0,0,0,0,0,0,0,-1,671,470,0,0
-546,554,0,0,0,0,0,0,0,0,0,-1,678,470,0,0
-539,554,0,0,0,0,0,0,0,0,0,-1,685,470,0,0
-532,554,0,0,0,0,0,0,0,0,0,-1,692,470,0,0
-525,554,0,0,0,0,0,0,0,0,0,-1,699,470,0,0
-518,554,0,0,0,0,0,0,0,0,0,-1,706,470,0,0
-511,554,0,0,0,0,0,0,0,0,0,-1,713,470,0,0
-504,554,0,0,0,0,0,0,0,0,0,-1,720,470,0,0
-497,554,0,0,0,0,0,0,0,0,0,-1,727,470,0,0
-490,554,0,0,0,0,0,0,0,0,0,-1,734,470,0,0
-483,554,0,0,0,0,0,0,0,0,0,-1,741,470,0,0
-476,554,0,0,0,0,0,0,0,0,0,-1,748,470,0,0
-469,554,0,0,0,0,0,0,0,0,0,-1,755,470,0,0
-462,554,0,0,0,0,0,0,0,0,0,-1,762,470,0,0
-455,554,0,0,0,0,0,0,0,0,0,-1,769,470,0,0
-448,554,0,0,0,0,0,0,0,0,0,-1,776,470,0,0
-441,554,0,0,0,0,0,0,0,0,0,-1,783,470,0,0
-434,554,0,0,0,0,0,0,0,0,0,-1,790,470,0,0
-427,554,0,0,0,0,0,0,0,0,0,-1,797,470,0,0
-420,554,0,0,0,0,0,0,0,0,0,-1,804,470,0,0
-413,554,0,0,0,0,0,0,0,0,0,-1,811,470,0,0
-406,554,0,0,0,0,0,0,0,0,0,-1,818,470,0,0
-399,554,-1.32275,-3.95142,0,0,0,0,0,0,0,-1,825,470,-1.32275,3.95141
-392,554,-1.35632,-3.7406,0,0,0,0,0,0,0,-1,832,470,-1.35632,3.7406
-385,554,-0.849243,-4.14447,0,0,0,0,0,0,0,-1,839,470,-0.849262,4.14446
-378,554,-0.982666,-4.55084,0,0,0,0,0,0,0,-1,846,470,-0.982671,4.55084
-371,554,-1.74542,-4.63467,0,0,0,0,0,0,0,-1,853,470,-1.74541,4.63468
-364,554,1.04883,-7.68756,0,0,0,0,0,0,0,-1,860,470,1.0488,7.68757
-357,554,1.06714,-11.5403,0,0,0,0,0,0,0,-1,867,470,1.06715,11.5403
-350,554,0.835327,-15.9311,0,0,0,0,0,0,0,-1,874,470,0.8353,15.9311
-343,554,1.4364,-17.0069,0,0,0,0,0,0,0,-1,881,470,1.43642,17.0069
-336,554,1.3197,-17.2971,-0.00999142,0.0108642,-0.00281511,0.0112375,-0.0103647,-1.43896,0.0124754,0.0407162,888,470,1.31973,17.297
-329,554,1.16675,-17.769,-0.0081045,0.0104231,-0.00328512,0.0109883,-0.00866974,-1.4004,0.0113759,0.0199064,895,470,1.16677,17.769
-322,554,1.10522,-18.2634,-0.0062427,0.00964162,-0.00368925,0.0104567,-0.00705773,-1.35337,0.0101752,0.0130702,902,470,1.10522,18.2634
-315,554,1.10211,-18.7106,-0.0045748,0.00872622,-0.00393318,0.00980224,-0.00565081,-1.30376,0.0090285,0.0124478,909,470,1.10212,18.7106
-308,554,1.08459,-19.1524,-0.00317663,0.00773492,-0.00404602,0.00907147,-0.00451319,-1.25174,0.00798893,0.0125149,916,470,1.08461,19.1524
-301,554,1.10022,-19.6082,-0.00197707,0.00630556,-0.00390385,0.00785551,-0.00352703,-1.19285,0.00672824,0.0129124,923,470,1.10021,19.6082
-294,554,1.07275,-20.0406,-0.00106648,0.00468715,-0.00345076,0.00630298,-0.0026823,-1.13287,0.00532619,0.0119602,930,470,1.07275,20.0406
-287,554,1.03027,-20.4656,-0.000434183,0.00321143,-0.00284464,0.00476718,-0.00198993,-1.07033,0.00400955,0.0117571,937,470,1.03028,20.4656
-280,554,0.999329,-20.8875,3.25357e-05,0.001851,-0.00224262,0.00336169,-0.00147816,-0.977989,0.00286395,0.0114612,944,470,0.999299,20.8875
-273,554,0.987122,-21.3258,0.000604333,0.000721986,-0.0017502,0.00241435,-0.00108803,-0.802198,0.00206987,0.0146475,951,470,0.987099,21.3258
-266,554,0.98175,-21.7401,0.000754797,-0.000927688,-0.000811642,0.00108251,-0.0012554,-0.383746,0.00135102,0.0124389,958,470,0.981734,21.7401
-259,554,0.962036,-22.0882,0.00087819,-0.00231041,4.57362e-05,0.000878846,-0.00231107,0.0143397,0.00190257,0.0123853,965,470,0.962037,22.0882
-252,554,0.953796,-22.4807,0.00103684,-0.00394476,0.000964328,0.001217,-0.00412492,0.184693,0.00323289,0.0138042,972,470,0.953811,22.4807
-245,554,0.942627,-22.8963,0.00118123,-0.00546666,0.00183399,0.00165362,-0.00593904,0.252093,0.0046105,0.0152455,979,470,0.942649,22.8963
-238,554,0.949768,-23.3077,0.00140555,-0.00719608,0.00268074,0.00217261,-0.00796314,0.278691,0.00616198,0.0121906,986,470,0.949752,23.3077
-231,554,0.950256,-23.6971,0.00168079,-0.00892522,0.00343874,0.00269813,-0.00994256,0.287643,0.00768724,0.0110028,993,470,0.950257,23.6971
-224,554,0.972046,-24.0624,0.00187481,-0.0108475,0.00428712,0.00318462,-0.0121573,0.296514,0.00934902,0.0107778,1000,470,0.972055,24.0624
-217,554,0.987244,-24.4252,0.00202038,-0.0127741,0.0051523,0.00363787,-0.0143916,0.304192,0.0110092,0.010972,1007,470,0.987271,24.4252
-210,554,1.00446,-24.8004,0.00217218,-0.0148839,0.00601753,0.00408149,-0.0167932,0.307243,0.0127752,0.0145682,1014,470,1.00445,24.8004
-203,554,1.01331,-25.1106,0.00225012,-0.0165552,0.00655487,0.00430941,-0.0186145,0.304398,0.0140679,0.0258301,1021,470,1.01329,25.1106
-196,554,0.926636,-25.2654,0.00240901,-0.0181051,0.00708603,0.00461867,-0.0203148,0.302277,0.0153166,0.0319094,1028,470,0.926609,25.2654
-189,554,0.922241,-25.482,0.00256081,-0.0189637,0.00733093,0.00482041,-0.0212233,0.298988,0.0159996,0.038478,1035,470,0.922221,25.482
-182,554,1.10559,-25.9996,0,0,0,0,0,0,0,-1,1042,470,1.10561,25.9996
-175,554,0.930542,-26.2894,0,0,0,0,0,0,0,-1,1049,470,0.930497,26.2894
-168,554,0.854004,-26.728,0,0,0,0,0,0,0,-1,1056,470,0.854063,26.728
-161,554,2.62341,-27.2382,0,0,0,0,0,0,0,-1,1063,470,2.6234,27.2382
-154,554,2.70959,-27.3832,0,0,0,0,0,0,0,-1,1070,470,2.70955,27.3832
-147,554,2.79565,-27.5283,0,0,0,0,0,0,0,-1,1077,470,2.7957,27.5283
-140,554,3.14563,-26.981,0,0,0,0,0,0,0,-1,1084,470,3.14569,26.981
-133,554,1.24866,-27.4076,0,0,0,0,0,0,0,-1,1091,470,1.24861,27.4076
-126,554,1.02307,-27.4019,0,0,0,0,0,0,0,-1,1098,470,1.02311,27.4019
-119,554,1.11841,-25.5079,0,0,0,0,0,0,0,-1,1105,470,1.11838,25.5079
-112,554,1.03162,-24.5784,0,0,0,0,0,0,0,-1,1112,470,1.03156,24.5784
-105,554,0.608765,-21.0475,0,0,0,0,0,0,0,-1,1119,470,0.608728,21.0475
-98,554,1.51929,-7.3624,0,0,0,0,0,0,0,-1,1126,470,1.51928,7.36241
-91,554,1.41089,-6.5864,0,0,0,0,0,0,0,-1,1133,470,1.41093,6.58638
-84,554,1.62305,-5.87186,0,0,0,0,0,0,0,-1,1140,470,1.62299,5.87186
-77,554,-2.56958,1.33258,0,0,0,0,0,0,0,-1,1147,470,-2.56959,-1.33257
-70,554,-3.68164,-1.18332,0,0,0,0,0,0,0,-1,1154,470,-3.68158,1.18331
-63,554,-4.86853,-3.88708,0,0,0,0,0,0,0,-1,1161,470,-4.86853,3.88708
-56,554,-5.69958,-6.45422,0,0,0,0,0,0,0,-1,1168,470,-5.69955,6.45422
-49,554,-6.23645,-8.8569,0,0,0,0,0,0,0,-1,1175,470,-6.23643,8.85689
-42,554,-6.62524,-11.5382,0,0,0,0,0,0,0,-1,1182,470,-6.62522,11.5382
-35,554,-2.40173,-4.59482,0,0,0,0,0,0,0,-1,1189,470,-2.40169,4.59481
-28,554,-0.760132,-1.65555,0,0,0,0,0,0,0,-1,1196,470,-0.760095,1.65556
-21,554,-3.67993,-29.2879,0,0,0,0,0,0,0,-1,1203,470,-3.67987,29.2879
-14,554,0.485718,-28.1467,0,0,0,0,0,0,0,-1,1210,470,0.485696,28.1467
-7,554,0.746704,-29.567,0.0737718,-0.0182701,-0.0141615,0.0759014,-0.0203997,-0.149262,0.0585967,0.047345,1217,470,0.746725,29.5671
0,554,0.780151,-31.0208,0.0693006,-0.018774,-0.00542917,0.069634,-0.0191074,-0.0613334,0.0539321,0.0499479,1224,470,0.780094,31.0208
7,554,0.826538,-32.5853,0,0,0,0,0,0,0,-1,1231,470,0.82659,32.5853
14,554,7.01648,-30.1295,0,0,0,0,0,0,0,-1,1238,470,7.01654,30.1295
21,554,-0.110962,-26.2279,0,0,0,0,0,0,0,-1,1245,470,-0.111001,26.2279
28,554,1.32263,-27.492,0.0772014,0.160598,-0.0721608,0.202242,0.0355574,-1.04739,0.124677,0.0448326,1252,470,1.32265,27.492
35,554,2.87891,-28.703,0.0816372,0.260618,-0.115261,0.317051,0.0252042,-1.1155,0.203487,0.0401288,1259,470,2.87896,28.703
42,554,4.00415,-29.7805,0.0896423,0.356715,-0.15363,0.426732,0.0196245,-1.14317,0.278178,0.0449378,1266,470,4.00418,29.7805
49,554,5.01514,-30.9308,0.0994127,0.448977,-0.188701,0.531405,0.0169852,-1.15896,0.348746,0.0477183,1273,470,5.01519,30.9308
56,554,6.14893,-31.8445,0.109844,0.520591,-0.21138,0.609938,0.0204975,-1.17089,0.399968,0.0425985,1280,470,6.14894,31.8445
63,554,7.68457,-32.4279,0.119635,0.555807,-0.216142,0.64477,0.0306724,-1.18034,0.419996,0.0396965,1287,470,7.68454,32.428
70,554,8.94409,-32.9105,0.129103,0.556644,-0.204964,0.639029,0.0467184,-1.18861,0.411332,0.0400138,1294,470,8.9441,32.9105
77,554,9.93115,-33.6341,0.136629,0.523944,-0.179554,0.594375,0.0661979,-1.19698,0.376131,0.0440221,1301,470,9.93109,33.6341
84,554,-4.41516,-31.7252,0,0,0,0,0,0,0,-1,1308,470,-4.41521,31.7252
91,554,-3.396,-32.1908,0.142645,0.40658,-0.107279,0.444684,0.104541,-1.22951,0.268481,0.0426298,1315,470,-3.39595,32.1908
98,554,-2.45764,-32.5491,0.141912,0.327614,-0.0572751,0.343858,0.125668,-1.29444,0.200908,0.0454016,1322,470,-2.45759,32.5491
105,554,-1.71167,-32.7891,0.138256,0.243831,-0.00959039,0.244695,0.137391,-1.48094,0.14163,0.047684,1329,470,-1.71163,32.7891
112,554,-0.919189,-33.0099,0.132872,0.162617,0.0316759,0.182738,0.112751,1.00488,0.106462,0.0455726,1336,470,-0.919157,33.0098
119,554,-0.113525,-33.4335,0.124641,0.0700258,0.0718539,0.174202,0.0204655,0.603805,0.109949,0.043356,1343,470,-0.113501,33.4335
126,554,0.819092,-34.1183,0.112176,0.0050914,0.101059,0.173,-0.0557329,0.541792,0.137723,0.0432732,1350,470,0.819063,34.1184
133,554,1.48279,-34.5612,0.0986203,-0.0329183,0.115244,0.165542,-0.0998396,0.526102,0.154775,0.0473212,1357,470,1.48274,34.5612
140,554,1.75989,-34.0755,0.0849324,-0.0375832,0.113077,0.152279,-0.10493,0.537161,0.149336,0.0495474,1364,470,1.75984,34.0755
147,554,1.69482,-34.127,0,0,0,0,0,0,0,-1,1371,470,1.69487,34.127
154,554,1.33459,-34.288,0.0651133,-0.0387783,0.111817,0.136461,-0.110127,0.56795,0.142638,0.0457096,1378,470,1.33455,34.288
161,554,1.58655,-34.4199,0.0664483,-0.0327338,0.111056,0.138482,-0.104768,0.57541,0.140889,0.0488813,1385,470,1.58656,34.4199
168,554,1.83154,-34.5717,0,0,0,0,0,0,0,-1,1392,470,1.83154,34.5716
175,554,10.663,0.286957,0,0,0,0,0,0,0,-1,1399,470,10.663,-0.286966
182,554,6.71106,-4.50217,0,0,0,0,0,0,0,-1,1406,470,6.71107,4.50215
189,554,6.90479,-2.50348,0,0,0,0,0,0,0,-1,1413,470,6.90477,2.50348
196,554,6.96216,-0.740906,0,0,0,0,0,0,0,-1,1420,470,6.96214,0.740912
203,554,6.43518,0.414154,0,0,0,0,0,0,0,-1,1427,470,6.43523,-0.414141
210,554,6.21167,1.96707,0,0,0,0,0,0,0,-1,1434,470,6.21165,-1.96706
217,554,5.64551,3.4989,0,0,0,0,0,0,0,-1,1441,470,5.64555,-3.49891
224,554,4.85144,-8.85172,0,0,0,0,0,0,0,-1,1448,470,4.85146,8.85173
231,554,3.25073,-5.29642,0,0,0,0,0,0,0,-1,1455,470,3.25078,5.29642
238,554,4.28625,-3.25253,0,0,0,0,0,0,0,-1,1462,470,4.28622,3.25252
245,554,4.0752,-2.90033,0,0,0,0,0,0,0,-1,1469,470,4.07515,2.90032
252,554,3.52112,-0.934998,0,0,0,0,0,0,0,-1,1476,470,3.52113,0.934996
259,554,3.96448,-2.16425,0,0,0,0,0,0,0,-1,1483,470,3.96446,2.16424
266,554,3.0592,-2.71716,0,0,0,0,0,0,0,-1,1490,470,3.05923,2.71718
273,554,2.58521,-3.06876,0,0,0,0,0,0,0,-1,1497,470,2.58524,3.06874
280,554,2.83301,-0.991699,0,0,0,0,0,0,0,-1,1504,470,2.83303,0.991704
287,554,3.54126,-4.12277,0,0,0,0,0,0,0,-1,1511,470,3.54123,4.12277
294,554,3.62036,-8.50146,0,0,0,0,0,0,0,-1,1518,470,3.62031,8.50145
301,554,7.70215,-25.1208,0,0,0,0,0,0,0,-1,1525,470,7.70217,25.1208
308,554,8.05798,-25.2045,0,0,0,0,0,0,0,-1,1532,470,8.058,25.2045
315,554,8.12598,-24.9932,0,0,0,0,0,0,0,-1,1539,470,8.12598,24.9932
322,554,8.02527,-24.4138,0,0,0,0,0,0,0,-1,1546,470,8.02533,24.4138
329,554,8.10828,-24.0596,0.00183479,-0.00682813,-0.00409674,0.00346528,-0.00845862,-0.378778,0.00708262,0.0431996,1553,470,8.10833,24.0596
336,554,8.08252,-23.883,0.00110299,-0.00583172,-0.00375556,0.00274707,-0.0074758,-0.412639,0.00610903,0.0252779,1560,470,8.08247,23.883
343,554,8.10254,-23.5515,0.000402788,-0.00493335,-0.00345334,0.00209868,-0.00662924,-0.456492,0.0052605,0.0140572,1567,470,8.10251,23.5515
350,554,8.14099,-23.1255,-2.48696e-05,-0.00408073,-0.00296444,0.00153891,-0.00564451,-0.485416,0.00436731,0.0104551,1574,470,8.14097,23.1255
357,554,8.15149,-22.7137,-0.000309512,-0.00311645,-0.0024623,0.00112121,-0.00454717,-0.52637,0.00346617,0.0112107,1581,470,8.1515,22.7137
364,554,8.13708,-22.33,-0.000333089,-0.00229348,-0.00186366,0.000792425,-0.003419,-0.543301,0.00258429,0.00846435,1588,470,8.13702,22.33
371,554,8.12415,-21.9194,-0.000236962,-0.00145561,-0.00126877,0.000561217,-0.00225379,-0.561538,0.00172038,0.00779912,1595,470,8.12419,21.9194
378,554,8.11475,-21.4818,-0.000148076,-0.000579956,-0.000709338,0.000377462,-0.00110549,-0.637643,0.000889914,0.0104253,1602,470,8.11472,21.4818
385,554,8.11792,-21.0577,-6.40101e-05,0.000440363,-0.000202587,0.000511657,-0.000135304,-1.23241,0.000394027,0.00987504,1609,470,8.1179,21.0577
392,554,8.12256,-20.6247,4.89776e-07,0.00117895,0.000212195,0.001216,-3.65537e-05,1.39797,0.00082312,0.0126179,1616,470,8.12254,20.6247
399,554,8.12817,-20.1768,0.00015678,0.00175272,0.00063197,0.00197266,-6.3161e-05,1.23588,0.00133666,0.0179905,1623,470,8.12812,20.1768
406,554,8.09692,-19.7521,0.000391533,0.00220672,0.00112634,0.00274563,-0.000147376,1.12453,0.00188147,0.0170969,1630,470,8.09688,19.7521
413,554,8.08289,-19.2891,0.000478364,0.00254141,0.00161562,0.00342672,-0.000406946,1.06951,0.00243151,0.0151214,1637,470,8.08291,19.2891
420,554,8.06421,-18.8449,0.000546122,0.00272236,0.00193785,0.00385669,-0.000588204,1.04122,0.00278795,0.0155786,1644,470,8.06419,18.8449
427,554,8.0636,-18.3762,0.000548744,0.00221056,0.00225988,0.00378745,-0.00102814,0.961566,0.00292847,0.0114813,1651,470,8.06366,18.3762
434,554,8.04456,-17.9225,0.000182759,0.0013999,0.00196594,0.00284931,-0.00126665,0.935499,0.0024342,0.0103528,1658,470,8.04451,17.9225
441,554,8.03992,-17.4712,-5.02149e-05,0.000420998,0.00191429,0.00211412,-0.00174334,0.846629,0.00223053,0.011766,1665,470,8.03986,17.4712
448,554,8.02368,-16.9557,-0.000576412,-0.00088798,0.00165118,0.000926317,-0.00239071,0.738364,0.00197632,0.0149858,1672,470,8.02372,16.9557
455,554,7.98608,-16.4915,-0.00138551,-0.002556,0.00111225,-0.000713932,-0.00322758,0.543212,0.00195763,0.0165896,1679,470,7.98608,16.4915
462,554,7.92017,-16.0515,-0.00243986,-0.00449765,0.000286943,-0.0024006,-0.00453692,0.135987,0.00262087,0.0194534,1686,470,7.92011,16.0515
469,554,7.84619,-15.5385,-0.00386009,-0.00681415,-0.000767311,-0.00367268,-0.00700157,-0.239561,0.00404398,0.0242197,1693,470,7.84619,15.5385
476,554,7.71399,-14.8744,-0.0057407,-0.00932736,-0.00221379,-0.00468502,-0.010383,-0.444972,0.00600416,0.0434869,1700,470,7.71402,14.8744
483,554,7.57312,-14.2246,0,0,0,0,0,0,0,-1,1707,470,7.57314,14.2246
490,554,7.31543,-3.51794,0,0,0,0,0,0,0,-1,1714,470,7.3154,3.51794
497,554,10.9613,1.60983,0,0,0,0,0,0,0,-1,1721,470,10.9613,-1.60982
504,554,2.13257,-3.81628,0,0,0,0,0,0,0,-1,1728,470,2.1326,3.8163
511,554,1.31396,-4.02713,0,0,0,0,0,0,0,-1,1735,470,1.31398,4.02712
518,554,5.04236,-5.9472,0,0,0,0,0,0,0,-1,1742,470,5.04231,5.94721
525,554,0,0,0,0,0,0,0,0,0,-1,1749,470,0,0
532,554,0,0,0,0,0,0,0,0,0,-1,1756,470,0,0
539,554,0,0,0,0,0,0,0,0,0,-1,1763,470,0,0
546,554,0,0,0,0,0,0,0,0,0,-1,1770,470,0,0
553,554,0,0,0,0,0,0,0,0,0,-1,1777,470,0,0
560,554,0,0,0,0,0,0,0,0,0,-1,1784,470,0,0
567,554,0,0,0,0,0,0,0,0,0,-1,1791,470,0,0
574,554,0,0,0,0,0,0,0,0,0,-1,1798,470,0,0
581,554,0,0,0,0,0,0,0,0,0,-1,1805,470,0,0
588,554,0,0,0,0,0,0,0,0,0,-1,1812,470,0,0
595,554,0,0,0,0,0,0,0,0,0,-1,1819,470,0,0
602,554,0,0,0,0,0,0,0,0,0,-1,1826,470,0,0
609,554,0,0,0,0,0,0,0,0,0,-1,1833,470,0,0
616,554,0,0,0,0,0,0,0,0,0,-1,1840,470,0,0
623,554,0,0,0,0,0,0,0,0,0,-1,1847,470,0,0
630,554,0,0,0,0,0,0,0,0,0,-1,1854,470,0,0
637,554,0,0,0,0,0,0,0,0,0,-1,1861,470,0,0
644,554,0,0,0,0,0,0,0,0,0,-1,1868,470,0,0
651,554,0,0,0,0,0,0,0,0,0,-1,1875,470,0,0
658,554,0,0,0,0,0,0,0,0,0,-1,1882,470,0,0
665,554,0,0,0,0,0,0,0,0,0,-1,1889,470,0,0
672,554,0,0,0,0,0,0,0,0,0,-1,1896,470,0,0
679,554,0,0,0,0,0,0,0,0,0,-1,1903,470,0,0
686,554,0,0,0,0,0,0,0,0,0,-1,1910,470,0,0
693,554,0,0,0,0,0,0,0,0,0,-1,1917,470,0,0
700,554,0,0,0,0,0,0,0,0,0,-1,1924,470,0,0
707,554,0,0,0,0,0,0,0,0,0,-1,1931,470,0,0
714,554,0,0,0,0,0,0,0,0,0,-1,1938,470,0,0
721,554,0,0,0,0,0,0,0,0,0,-1,1945,470,0,0
728,554,0,0,0,0,0,0,0,0,0,-1,1952,470,0,0
735,554,0,0,0,0,0,0,0,0,0,-1,1959,470,0,0
742,554,0,0,0,0,0,0,0,0,0,-1,1966,470,0,0
749,554,0,0,0,0,0,0,0,0,0,-1,1973,470,0,0
756,554,0,0,0,0,0,0,0,0,0,-1,1980,470,0,0
763,554,0,0,0,0,0,0,0,0,0,-1,1987,470,0,0
770,554,0,0,0,0,0,0,0,0,0,-1,1994,470,0,0
777,554,0,0,0,0,0,0,0,0,0,-1,2001,470,0,0
784,554,0,0,0,0,0,0,0,0,0,-1,2008,470,0,0
791,554,0,0,0,0,0,0,0,0,0,-1,2015,470,0,0
798,554,0,0,0,0,0,0,0,0,0,-1,2022,470,0,0
805,554,0,0,0,0,0,0,0,0,0,-1,2029,470,0,0
812,554,0,0,0,0,0,0,0,0,0,-1,2036,470,0,0
-700,547,0,0,0,0,0,0,0,0,0,-1,524,477,0,0
-693,547,0,0,0,0,0,0,0,0,0,-1,531,477,0,0
-686,547,0,0,0,0,0,0,0,0,0,-1,538,477,0,0
-679,547,0,0,0,0,0,0,0,0,0,-1,545,477,0,0
-672,547,0,0,0,0,0,0,0,0,0,-1,552,477,0,0
-665,547,0,0,0,0,0,0,0,0,0,-1,559,477,0,0
-658,547,0,0,0,0,0,0,0,0,0,-1,566,477,0,0
-651,547,0,0,0,0,0,0,0,0,0,-1,573,477,0,0
-644,547,0,0,0,0,0,0,0,0,0,-1,580,477,0,0
-637,547,0,0,0,0,0,0,0,0,0,-1,587,477,0,0
-630,547,0,0,0,0,0,0,0,0,0,-1,594,477,0,0
-623,547,0,0,0,0,0,0,0,0,0,-1,601,477,0,0
-616,547,0,0,0,0,0,0,0,0,0,-1,608,477,0,0
-609,547,0,0,0,0,0,0,0,0,0,-1,615,477,0,0
-602,547,0,0,0,0,0,0,0,0,0,-1,622,477,0,0
-595,547,0,0,0,0,0,0,0,0,0,-1,629,477,0,0
-588,547,0,0,0,0,0,0,0,0,0,-1,636,477,0,0
-581,547,0,0,0,0,0,0,0,0,0,-1,643,477,0,0
-574,547,0,0,0,0,0,0,0,0,0,-1,650,477,0,0
-567,547,0,0,0,0,0,0,0,0,0,-1,657,477,0,0
-560,547,0,0,0,0,0,0,0,0,0,-1,664,477,0,0
-553,547,0,0,0,0,0,0,0,0,0,-1,671,477,0,0
-546,547,0,0,0,0,0,0,0,0,0,-1,678,477,0,0
-539,547,0,0,0,0,0,0,0,0,0,-1,685,477,0,0
-532,547,0,0,0,0,0,0,0,0,0,-1,692,477,0,0
-525,547,0,0,0,0,0,0,0,0,0,-1,699,477,0,0
-518,547,0,0,0,0,0,0,0,0,0,-1,706,477,0,0
-511,547,0,0,0,0,0,0,0,0,0,-1,713,477,0,0
-504,547,0,0,0,0,0,0,0,0,0,-1,720,477,0,0
-497,547,0,0,0,0,0,0,0,0,0,-1,727,477,0,0
-490,547,0,0,0,0,0,0,0,0,0,-1,734,477,0,0
-483,547,0,0,0,0,0,0,0,0,0,-1,741,477,0,0
-476,547,0,0,0,0,0,0,0,0,0,-1,748,477,0,0
-469,547,0,0,0,0,0,0,0,0,0,-1,755,477,0,0
-462,547,0,0,0,0,0,0,0,0,0,-1,762,477,0,0
-455,547,0,0,0,0,0,0,0,0,0,-1,769,477,0,0
-448,547,0,0,0,0,0,0,0,0,0,-1,776,477,0,0
-441,547,0,0,0,0,0,0,0,0,0,-1,783,477,0,0
-434,547,0,0,0,0,0,0,0,0,0,-1,790,477,0,0
-427,547,0,0,0,0,0,0,0,0,0,-1,797,477,0,0
-420,547,0,0,0,0,0,0,0,0,0,-1,804,477,0,0
-413,547,0,0,0,0,0,0,0,0,0,-1,811,477,0,0
-406,547,0.144592,-11.0292,0,0,0,0,0,0,0,-1,818,477,0.144583,11.0292
-399,547,0.775513,-10.0294,0,0,0,0,0,0,0,-1,825,477,0.775482,10.0295
-392,547,-1.52271,-4.41675,0,0,0,0,0,0,0,-1,832,477,-1.52273,4.41674
-385,547,-1.73743,-4.6431,0,0,0,0,0,0,0,-1,839,477,-1.73743,4.64308
-378,547,-2.41339,-4.60071,0,0,0,0,0,0,0,-1,846,477,-2.41337,4.60071
-371,547,1.64569,-11.1445,0,0,0,0,0,0,0,-1,853,477,1.64569,11.1445
-364,547,0.271729,-4.58582,0,0,0,0,0,0,0,-1,860,477,0.271753,4.5858
-357,547,0.575989,-15.8035,0,0,0,0,0,0,0,-1,867,477,0.575992,15.8035
-350,547,0.653687,-16.1522,0,0,0,0,0,0,0,-1,874,477,0.653675,16.1522
-343,547,0.656433,-16.7183,-0.00748382,0.00876629,-0.00248988,0.00913924,-0.00785677,-1.42212,0.00982195,0.0443553,881,477,0.656449,16.7183
-336,547,0.740356,-17.3097,-0.00675938,0.00846591,-0.00254578,0.00888031,-0.00717378,-1.40943,0.00928627,0.0182892,888,477,0.740367,17.3097
-329,547,0.709045,-17.7885,-0.00559005,0.00800559,-0.00266664,0.00850991,-0.00609438,-1.38388,0.00847015,0.0105634,895,477,0.709047,17.7885
-322,547,0.694153,-18.2621,-0.00434944,0.00732046,-0.00277914,0.0079485,-0.00497748,-1.34855,0.00752824,0.0115845,902,477,0.694175,18.2622
-315,547,0.664795,-18.7292,-0.00318899,0.00656841,-0.00278958,0.00730962,-0.00393021,-1.31109,0.00658637,0.0106501,909,477,0.664778,18.7292
-308,547,0.666077,-19.1628,-0.00218993,0.00574444,-0.00273009,0.00659306,-0.00303855,-1.26943,0.00568564,0.0115783,916,477,0.666105,19.1628
-301,547,0.670288,-19.6166,-0.00133577,0.00457103,-0.00249272,0.00548237,-0.00224711,-1.22029,0.00459108,0.0113624,923,477,0.670264,19.6166
-294,547,0.628784,-20.0353,-0.000668891,0.0031371,-0.00200236,0.0039965,-0.00152829,-1.16538,0.00329414,0.00983546,930,477,0.628782,20.0353
-287,547,0.601379,-20.4549,-0.000168461,0.00185622,-0.0014214,0.00258894,-0.000901172,-1.09484,0.00209208,0.0109188,937,477,0.601358,20.4549
-280,547,0.605469,-20.882,0.00019549,0.000608373,-0.000833919,0.00126102,-0.00045716,-0.906737,0.00102755,0.0128584,944,477,0.605452,20.8821
-273,547,0.590149,-21.3007,0.000550889,-0.000559742,-0.000246444,0.000603118,-0.000611971,-0.208839,0.000701538,0.0119982,951,477,0.590136,21.3007
-266,547,0.567932,-21.7093,0.000701556,-0.00213641,0.000610086,0.00082715,-0.002262,0.203026,0.00184654,0.0116135,958,477,0.567909,21.7093
-259,547,0.555481,-22.0876,0.000939365,-0.00369092,0.0014261,0.00134335,-0.0040949,0.276047,0.003271,0.0109015,965,477,0.555465,22.0876
-252,547,0.568726,-22.4894,0.00113897,-0.00565464,0.00237793,0.00188859,-0.00640426,0.30538,0.00501891,0.0107879,972,477,0.568722,22.4894
-245,547,0.572937,-22.9086,0.00133727,-0.00755806,0.0033017,0.00242882,-0.00864961,0.319292,0.00672387,0.0121199,979,477,0.572917,22.9086
-238,547,0.56488,-23.2937,0.00170486,-0.0097327,0.00416702,0.00306198,-0.0110898,0.31485,0.00859759,0.00914064,986,477,0.564872,23.2937
-231,547,0.568604,-23.6717,0.00210068,-0.0120859,0.00502045,0.00369759,-0.0136828,0.307962,0.0105722,0.00870924,993,477,0.568575,23.6717
-224,547,0.584778,-24.0218,0.00236034,-0.014705,0.00604707,0.00428585,-0.0166305,0.30827,0.0127579,0.01164,1000,477,0.58476,24.0218
-217,547,0.599609,-24.3821,0.00258932,-0.0173512,0.00710537,0.00486211,-0.019624,0.309585,0.0149689,0.0194909,1007,477,0.599583,24.3821
-210,547,0.612427,-24.6146,0.00282093,-0.020263,0.00818431,0.00542816,-0.0228703,0.3084,0.0173418,0.035586,1014,477,0.612396,24.6146
-203,547,0.632202,-24.5159,0.00291786,-0.0225487,0.00887578,0.00570604,-0.0253369,0.304373,0.0190799,0.0457479,1021,477,0.632187,24.5159
-196,547,0.619141,-24.4735,0,0,0,0,0,0,0,-1,1028,477,0.619104,24.4735
-189,547,0.476563,-25.1862,0,0,0,0,0,0,0,-1,1035,477,0.476531,25.1862
-182,547,-0.0454102,-23.1846,0,0,0,0,0,0,0,-1,1042,477,-0.0454543,23.1846
-175,547,-0.350098,-12.3584,0,0,0,0,0,0,0,-1,1049,477,-0.350098,12.3584
-168,547,1.12463,-8.66785,0,0,0,0,0,0,0,-1,1056,477,1.12461,8.66786
-161,547,1.57947,-26.2864,0,0,0,0,0,0,0,-1,1063,477,1.57942,26.2864
-154,547,2.91882,-27.4394,0,0,0,0,0,0,0,-1,1070,477,2.91887,27.4394
-147,547,3.69434,-26.413,0,0,0,0,0,0,0,-1,1077,477,3.69437,26.413
-140,547,1.55676,-22.5229,0,0,0,0,0,0,0,-1,1084,477,1.5568,22.5229
-133,547,2.31665,-17.9421,0,0,0,0,0,0,0,-1,1091,477,2.31667,17.9421
-126,547,0.969604,-25.8804,0,0,0,0,0,0,0,-1,1098,477,0.969571,25.8804
-119,547,0.967651,-24.9351,0,0,0,0,0,0,0,-1,1105,477,0.967657,24.9351
-112,547,1.15674,-22.2276,0,0,0,0,0,0,0,-1,1112,477,1.15677,22.2276
-105,547,0.966797,-20.5777,0,0,0,0,0,0,0,-1,1119,477,0.966804,20.5777
-98,547,0.70166,-18.9755,0,0,0,0,0,0,0,-1,1126,477,0.701713,18.9755
-91,547,1.37805,-7.12024,0,0,0,0,0,0,0,-1,1133,477,1.37804,7.12025
-84,547,1.94202,-6.66241,0,0,0,0,0,0,0,-1,1140,477,1.94201,6.66241
-77,547,-2.28357,1.8588,0,0,0,0,0,0,0,-1,1147,477,-2.28356,-1.85879
-70,547,-3.70178,-0.874908,0,0,0,0,0,0,0,-1,1154,477,-3.70182,0.874918
-63,547,-5.12012,-3.60861,0,0,0,0,0,0,0,-1,1161,477,-5.12009,3.60862
-56,547,-6.01917,-6.2399,0,0,0,0,0,0,0,-1,1168,477,-6.01921,6.23991
-49,547,-6.729,-8.60349,0,0,0,0,0,0,0,-1,1175,477,-6.72899,8.60348
-42,547,-2.41736,-5.53012,0,0,0,0,0,0,0,-1,1182,477,-2.41734,5.53011
-35,547,-2.96838,-4.45734,0,0,0,0,0,0,0,-1,1189,477,-2.96839,4.45734
-28,547,-0.869141,-1.29901,0,0,0,0,0,0,0,-1,1196,477,-0.869135,1.29901
-21,547,-1.33704,-26.4691,0,0,0,0,0,0,0,-1,1203,477,-1.33706,26.4691
-14,547,-0.803955,-27.9193,0,0,0,0,0,0,0,-1,1210,477,-0.803989,27.9194
-7,547,-0.206421,-29.3541,0.0852422,-0.0246274,-0.0186626,0.0883257,-0.0277109,-0.163745,0.0699743,0.0474485,1217,477,-0.206458,29.3541
0,547,0.234009,-30.7831,0.0840891,-0.0265,-0.00424888,0.0842521,-0.026663,-0.038345,0.0668522,0.0496462,1224,477,0.234021,30.7831
7,547,0.0206299,-32.4293,0,0,0,0,0,0,0,-1,1231,477,0.0206863,32.4293
14,547,0,0,0,0,0,0,0,0,0,-1,1238,477,0,0
21,547,0,0,0,0,0,0,0,0,0,-1,1245,477,0,0
28,547,0,0,0,0,0,0,0,0,0,-1,1252,477,0,0
35,547,0,0,0,0,0,0,0,0,0,-1,1259,477,0,0
42,547,0,0,0,0,0,0,0,0,0,-1,1266,477,0,0
49,547,0,0,0,0,0,0,0,0,0,-1,1273,477,0,0
56,547,0,0,0,0,0,0,0,0,0,-1,1280,477,0,0
63,547,0,0,0,0,0,0,0,0,0,-1,1287,477,0,0
70,547,0,0,0,0,0,0,0,0,0,-1,1294,477,0,0
77,547,0,0,0,0,0,0,0,0,0,-1,1301,477,0,0
84,547,0,0,0,0,0,0,0,0,0,-1,1308,477,0,0
91,547,0,0,0,0,0,0,0,0,0,-1,1315,477,0,0
98,547,0,0,0,0,0,0,0,0,0,-1,1322,477,0,0
105,547,-3.80994,-32.0827,0.152298,0.318989,-0.0518255,0.333788,0.137499,-1.29264,0.193706,0.0456298,1329,477,-3.80988,32.0827
112,547,-2.71704,-32.5026,0.145183,0.210413,0.00570668,0.210909,0.144688,1.48419,0.124546,0.0437814,1336,477,-2.71705,32.5026
119,547,-0.893311,-33.1932,0.13459,0.0875271,0.0621029,0.17747,0.0446471,0.6043,0.106595,0.0412936,1343,477,-0.893325,33.1932
126,547,-0.0749512,-33.3667,0.119166,0.00349547,0.102931,0.179398,-0.0567358,0.529437,0.142331,0.0428324,1350,477,-0.0749237,33.3667
133,547,-0.147461,-33.6309,0.102559,-0.0418218,0.123278,0.173229,-0.112491,0.520519,0.166198,0.0433007,1357,477,-0.147416,33.6309
140,547,-0.15979,-33.6241,0.0856444,-0.0453518,0.123045,0.159538,-0.119245,0.540817,0.161515,0.0430915,1364,477,-0.159788,33.6242
147,547,0.0297852,-33.5936,0,0,0,0,0,0,0,-1,1371,477,0.0297693,33.5936
154,547,0.026123,-33.7544,0,0,0,0,0,0,0,-1,1378,477,0.0261271,33.7544
161,547,0.0715332,-33.9922,0,0,0,0,0,0,0,-1,1385,477,0.0715296,33.9922
168,547,-0.464355,-30.7631,0,0,0,0,0,0,0,-1,1392,477,-0.464348,30.7631
175,547,3.35034,-0.26532,0,0,0,0,0,0,0,-1,1399,477,3.3503,0.265306
182,547,4.26038,3.72672,0,0,0,0,0,0,0,-1,1406,477,4.26039,-3.7267
189,547,3.40454,1.28671,0,0,0,0,0,0,0,-1,1413,477,3.40457,-1.28673
196,547,3.53931,1.87793,0,0,0,0,0,0,0,-1,1420,477,3.53928,-1.87794
203,547,6.49414,-0.425842,0,0,0,0,0,0,0,-1,1427,477,6.4941,0.425844
210,547,4.82092,0.53595,0,0,0,0,0,0,0,-1,1434,477,4.82096,-0.535942
217,547,4.68579,0.480072,0,0,0,0,0,0,0,-1,1441,477,4.68577,-0.480069
224,547,4.55615,0.739807,0,0,0,0,0,0,0,-1,1448,477,4.55613,-0.73981
231,547,5.90869,-3.57721,0,0,0,0,0,0,0,-1,1455,477,5.90871,3.57722
238,547,5.50049,-3.15356,0,0,0,0,0,0,0,-1,1462,477,5.50045,3.15356
245,547,5.13708,-2.65213,0,0,0,0,0,0,0,-1,1469,477,5.13708,2.65212
252,547,3.73511,-0.645233,0,0,0,0,0,0,0,-1,1476,477,3.73515,0.645237
259,547,5.86816,-3.20816,0,0,0,0,0,0,0,-1,1483,477,5.86815,3.20816
266,547,5.40222,-2.45731,0,0,0,0,0,0,0,-1,1490,477,5.40221,2.45732
273,547,3.05737,0.495789,0,0,0,0,0,0,0,-1,1497,477,3.05742,-0.49578
280,547,2.0885,1.47797,0,0,0,0,0,0,0,-1,1504,477,2.08848,-1.47795
287,547,2.31177,-2.21716,0,0,0,0,0,0,0,-1,1511,477,2.31174,2.21717
294,547,2.4823,-3.03659,0,0,0,0,0,0,0,-1,1518,477,2.48229,3.0366
301,547,4.72119,-3.93454,0,0,0,0,0,0,0,-1,1525,477,4.72119,3.93453
308,547,4.07471,-5.42175,0,0,0,0,0,0,0,-1,1532,477,4.07468,5.42174
315,547,3.58496,-6.62112,0,0,0,0,0,0,0,-1,1539,477,3.58497,6.62113
322,547,5.73926,-14.1878,0,0,0,0,0,0,0,-1,1546,477,5.73926,14.1878
329,547,8.37463,-23.9511,0,0,0,0,0,0,0,-1,1553,477,8.37464,23.9511
336,547,8.57324,-24.0723,0,0,0,0,0,0,0,-1,1560,477,8.57319,24.0723
343,547,8.65356,-23.6293,-0.00010192,-0.00682541,-0.00472826,0.00233787,-0.0092652,-0.476367,0.00708584,0.0458287,1567,477,8.65352,23.6293
350,547,8.57556,-23.1472,-0.000509388,-0.00585459,-0.00414164,0.0017471,-0.00811108,-0.498866,0.0060741,0.0270808,1574,477,8.57556,23.1472
357,547,8.56934,-22.7285,-0.000707602,-0.00474903,-0.00356356,0.00136829,-0.00682493,-0.527479,0.005068,0.0152463,1581,477,8.56933,22.7286
364,547,8.5481,-22.3125,-0.000588146,-0.00385386,-0.00287332,0.00108387,-0.00552587,-0.527013,0.00409332,0.00943811,1588,477,8.54811,22.3125
371,547,8.54199,-21.8985,-0.000341096,-0.00290519,-0.00218543,0.000910577,-0.00415686,-0.520131,0.00311939,0.00896463,1595,477,8.54194,21.8985
378,547,8.54248,-21.4892,-0.000110223,-0.00190523,-0.00151792,0.000755675,-0.00277113,-0.518409,0.00214417,0.0110325,1602,477,8.54245,21.4892
385,547,8.54358,-21.0711,0.000128191,-0.000720553,-0.000848253,0.000652305,-0.00124467,-0.553459,0.00111287,0.0111892,1609,477,8.54356,21.0711
392,547,8.54932,-20.6329,0.000283484,9.9384e-05,-0.000334299,0.000538174,-0.000155306,-0.651052,0.000420229,0.011621,1616,477,8.5493,20.6329
399,547,8.52295,-20.1797,0.000438794,0.000738128,0.000133794,0.000789212,0.00038771,1.20607,0.000455675,0.0132877,1623,477,8.5229,20.1797
406,547,8.51245,-19.7298,0.00060431,0.00130214,0.000609167,0.00165524,0.00025121,1.04548,0.00103002,0.0134291,1630,477,8.51241,19.7298
413,547,8.52856,-19.2829,0.000699772,0.00179457,0.00111392,0.00248832,6.01844e-06,1.01378,0.00165688,0.0131389,1637,477,8.52857,19.2829
420,547,8.51587,-18.8701,0.000748007,0.00209387,0.00148866,0.00305463,-0.000212754,0.997672,0.00211092,0.0148518,1644,477,8.51581,18.8701
427,547,8.50696,-18.383,0.000690564,0.00184912,0.00180125,0.00316195,-0.000622265,0.940974,0.00234309,0.0140474,1651,477,8.50693,18.383
434,547,8.47095,-17.9194,0.000421904,0.00133832,0.00173214,0.00267183,-0.000911606,0.914703,0.00215049,0.0097342,1658,477,8.47099,17.9194
441,547,8.45093,-17.4972,0.000208297,0.00062801,0.0018015,0.00223184,-0.00139553,0.843382,0.00211273,0.0105153,1665,477,8.45089,17.4972
448,547,8.43286,-16.9998,-0.000193812,-0.000328852,0.00173453,0.00147451,-0.00199718,0.765945,0.00201194,0.0112064,1672,477,8.43289,16.9998
455,547,8.42615,-16.5272,-0.000776048,-0.00154519,0.00147393,0.00036265,-0.00268389,0.657785,0.00192158,0.0111656,1679,477,8.42616,16.5272
462,547,8.37097,-16.0465,-0.00148051,-0.00302588,0.00104076,-0.000956957,-0.00354943,0.46608,0.00212054,0.0116842,1686,477,8.37097,16.0465
469,547,8.30481,-15.5268,-0.0024579,-0.00479694,0.000501338,-0.00235498,-0.00489987,0.202487,0.00282965,0.0193039,1693,477,8.30478,15.5268
476,547,8.30298,-14.8849,-0.00377194,-0.00669712,-0.000287291,-0.00374399,-0.00672507,-0.0969787,0.00389104,0.0346821,1700,477,8.30304,14.8849
483,547,8.276,-14.6352,0,0,0,0,0,0,0,-1,1707,477,8.27596,14.6352
490,547,3.65271,-3.71707,0,0,0,0,0,0,0,-1,1714,477,3.65277,3.71708
497,547,2.55481,-3.81421,0,0,0,0,0,0,0,-1,1721,477,2.55476,3.8142
504,547,4.01953,-2.22714,0,0,0,0,0,0,0,-1,1728,477,4.0195,2.22713
511,547,5.2146,-6.9552,0,0,0,0,0,0,0,-1,1735,477,5.21464,6.95521
518,547,5.24243,-6.56122,0,0,0,0,0,0,0,-1,1742,477,5.24241,6.56121
525,547,5.89368,-5.49866,0,0,0,0,0,0,0,-1,1749,477,5.89372,5.49866
532,547,0,0,0,0,0,0,0,0,0,-1,1756,477,0,0
539,547,0,0,0,0,0,0,0,0,0,-1,1763,477,0,0
546,547,0,0,0,0,0,0,0,0,0,-1,1770,477,0,0
553,547,0,0,0,0,0,0,0,0,0,-1,1777,477,0,0
560,547,0,0,0,0,0,0,0,0,0,-1,1784,477,0,0
567,547,0,0,0,0,0,0,0,0,0,-1,1791,477,0,0
574,547,0,0,0,0,0,0,0,0,0,-1,1798,477,0,0
581,547,0,0,0,0,0,0,0,0,0,-1,1805,477,0,0
588,547,0,0,0,0,0,0,0,0,0,-1,1812,477,0,0
595,547,0,0,0,0,0,0,0,0,0,-1,1819,477,0,0
602,547,0,0,0,0,0,0,0,0,0,-1,1826,477,0,0
609,547,0,0,0,0,0,0,0,0,0,-1,1833,477,0,0
616,547,0,0,0,0,0,0,0,0,0,-1,1840,477,0,0
623,547,0,0,0,0,0,0,0,0,0,-1,1847,477,0,0
630,547,0,0,0,0,0,0,0,0,0,-1,1854,477,0,0
637,547,0,0,0,0,0,0,0,0,0,-1,1861,477,0,0
644,547,0,0,0,0,0,0,0,0,0,-1,1868,477,0,0
651,547,0,0,0,0,0,0,0,0,0,-1,1875,477,0,0
658,547,0,0,0,0,0,0,0,0,0,-1,1882,477,0,0
665,547,0,0,0,0,0,0,0,0,0,-1,1889,477,0,0
672,547,0,0,0,0,0,0,0,0,0,-1,1896,477,0,0
679,547,0,0,0,0,0,0,0,0,0,-1,1903,477,0,0
686,547,0,0,0,0,0,0,0,0,0,-1,1910,477,0,0
693,547,0,0,0,0,0,0,0,0,0,-1,1917,477,0,0
700,547,0,0,0,0,0,0,0,0,0,-1,1924,477,0,0
707,547,0,0,0,0,0,0,0,0,0,-1,1931,477,0,0
714,547,0,0,0,0,0,0,0,0,0,-1,1938,477,0,0
721,547,0,0,0,0,0,0,0,0,0,-1,1945,477,0,0
728,547,0,0,0,0,0,0,0,0,0,-1,1952,477,0,0
735,547,0,0,0,0,0,0,0,0,0,-1,1959,477,0,0
742,547,0,0,0,0,0,0,0,0,0,-1,1966,477,0,0
749,547,0,0,0,0,0,0,0,0,0,-1,1973,477,0,0
756,547,0,0,0,0,0,0,0,0,0,-1,1980,477,0,0
763,547,0,0,0,0,0,0,0,0,0,-1,1987,477,0,0
770,547,0,0,0,0,0,0,0,0,0,-1,1994,477,0,0
777,547,0,0,0,0,0,0,0,0,0,-1,2001,477,0,0
784,547,0,0,0,0,0,0,0,0,0,-1,2008,477,0,0
791,547,0,0,0,0,0,0,0,0,0,-1,2015,477,0,0
798,547,0,0,0,0,0,0,0,0,0,-1,2022,477,0,0
805,547,0,0,0,0,0,0,0,0,0,-1,2029,477,0,0
812,547,0,0,0,0,0,0,0,0,0,-1,2036,477,0,0
-700,540,0,0,0,0,0,0,0,0,0,-1,524,484,0,0
-693,540,0,0,0,0,0,0,0,0,0,-1,531,484,0,0
-686,540,0,0,0,0,0,0,0,0,0,-1,538,484,0,0
-679,540,0,0,0,0,0,0,0,0,0,-1,545,484,0,0
-672,540,0,0,0,0,0,0,0,0,0,-1,552,484,0,0
-665,540,0,0,0,0,0,0,0,0,0,-1,559,484,0,0
-658,540,0,0,0,0,0,0,0,0,0,-1,566,484,0,0
-651,540,0,0,0,0,0,0,0,0,0,-1,573,484,0,0
-644,540,0,0,0,0,0,0,0,0,0,-1,580,484,0,0
-637,540,0,0,0,0,0,0,0,0,0,-1,587,484,0,0
-630,540,0,0,0,0,0,0,0,0,0,-1,594,484,0,0
-623,540,0,0,0,0,0,0,0,0,0,-1,601,484,0,0
-616,540,0,0,0,0,0,0,0,0,0,-1,608,484,0,0
-609,540,0,0,0,0,0,0,0,0,0,-1,615,484,0,0
-602,540,0,0,0,0,0,0,0,0,0,-1,622,484,0,0
-595,540,0,0,0,0,0,0,0,0,0,-1,629,484,0,0
-588,540,0,0,0,0,0,0,0,0,0,-1,636,484,0,0
-581,540,0,0,0,0,0,0,0,0,0,-1,643,484,0,0
-574,540,0,0,0,0,0,0,0,0,0,-1,650,484,0,0
-567,540,0,0,0,0,0,0,0,0,0,-1,657,484,0,0
-560,540,0,0,0,0,0,0,0,0,0,-1,664,484,0,0
-553,540,0,0,0,0,0,0,0,0,0,-1,671,484,0,0
-546,540,0,0,0,0,0,0,0,0,0,-1,678,484,0,0
-539,540,0,0,0,0,0,0,0,0,0,-1,685,484,0,0
-532,540,0,0,0,0,0,0,0,0,0,-1,692,484,0,0
-525,540,0,0,0,0,0,0,0,0,0,-1,699,484,0,0
-518,540,0,0,0,0,0,0,0,0,0,-1,706,484,0,0
-511,540,0,0,0,0,0,0,0,0,0,-1,713,484,0,0
-504,540,0,0,0,0,0,0,0,0,0,-1,720,484,0,0
-497,540,0,0,0,0,0,0,0,0,0,-1,727,484,0,0
-490,540,0,0,0,0,0,0,0,0,0,-1,734,484,0,0
-483,540,0,0,0,0,0,0,0,0,0,-1,741,484,0,0
-476,540,0,0,0,0,0,0,0,0,0,-1,748,484,0,0
-469,540,0,0,0,0,0,0,0,0,0,-1,755,484,0,0
-462,540,0,0,0,0,0,0,0,0,0,-1,762,484,0,0
-455,540,0,0,0,0,0,0,0,0,0,-1,769,484,0,0
-448,540,0,0,0,0,0,0,0,0,0,-1,776,484,0,0
-441,540,0,0,0,0,0,0,0,0,0,-1,783,484,0,0
-434,540,0,0,0,0,0,0,0,0,0,-1,790,484,0,0
-427,540,0,0,0,0,0,0,0,0,0,-1,797,484,0,0
-420,540,0.227051,-10.0402,0,0,0,0,0,0,0,-1,804,484,0.227063,10.0402
-413,540,-1.12311,-11.6776,0,0,0,0,0,0,0,-1,811,484,-1.12312,11.6776
-406,540,-0.518372,-11.5288,0,0,0,0,0,0,0,-1,818,484,-0.518402,11.5288
-399,540,0.0863037,-11.3801,0,0,0,0,0,0,0,-1,825,484,0.0863201,11.3801
-392,540,-0.517395,-10.6735,0,0,0,0,0,0,0,-1,832,484,-0.517377,10.6735
-385,540,-2.29407,-5.03418,0,0,0,0,0,0,0,-1,839,484,-2.29408,5.03418
-378,540,1.06445,-10.5824,0,0,0,0,0,0,0,-1,846,484,1.06446,10.5824
-371,540,1.14825,-10.7452,0,0,0,0,0,0,0,-1,853,484,1.14827,10.7452
-364,540,0.385742,-15.619,0,0,0,0,0,0,0,-1,860,484,0.385712,15.619
-357,540,0.404907,-15.5183,0,0,0,0,0,0,0,-1,867,484,0.404901,15.5183
-350,540,0.349121,-16.0979,-0.00358256,0.007158,-0.00308204,0.00797957,-0.00440412,-1.31029,0.00724838,0.0354003,874,484,0.349097,16.0979
-343,540,0.323608,-16.7784,-0.00453999,0.00684674,-0.00251413,0.00737714,-0.00507039,-1.36288,0.0072276,0.0188026,881,484,0.323611,16.7784
-336,540,0.289734,-17.369,-0.00433259,0.00645682,-0.00228406,0.00692043,-0.00479619,-1.37054,0.00680155,0.0122053,888,484,0.289732,17.3691
-329,540,0.257385,-17.8274,-0.00361591,0.00597379,-0.00217972,0.00644599,-0.00408811,-1.35746,0.00613244,0.0102836,895,484,0.257389,17.8274
-322,540,0.240723,-18.286,-0.00279066,0.00536528,-0.00208776,0.00586864,-0.00329403,-1.33421,0.00535923,0.0145477,902,484,0.240742,18.286
-315,540,0.226074,-18.7195,-0.00198317,0.00473592,-0.0019212,0.00524646,-0.00249371,-1.31106,0.00456202,0.0130263,909,484,0.226068,18.7195
-308,540,0.213257,-19.1549,-0.00127561,0.00402589,-0.00171415,0.00453185,-0.00178156,-1.28378,0.00375857,0.0125782,916,484,0.213229,19.1549
-301,540,0.193726,-19.5774,-0.000671735,0.00299126,-0.00136456,0.00344371,-0.00112418,-1.25063,0.00274827,0.0135897,923,484,0.193721,19.5774
-294,540,0.181213,-19.9994,-0.000193512,0.00163065,-0.000792468,0.00192683,-0.000489692,-1.21313,0.00147513,0.0118289,930,484,0.181188,19.9994
-287,540,0.196655,-20.4404,0.00020123,0.000421466,-0.000181584,0.000523712,9.89829e-05,-1.05796,0.000321271,0.00800154,937,484,0.196664,20.4404
-280,540,0.193298,-20.8728,0.000470289,-0.000797224,0.000447277,0.000612228,-0.000939163,0.307289,0.000902302,0.00962774,944,484,0.193299,20.8728
-273,540,0.184326,-21.2868,0.000621517,-0.00208053,0.00117653,0.001062,-0.00252101,0.358236,0.00212505,0.0117048,951,484,0.184303,21.2868
-266,540,0.184021,-21.7008,0.000756132,-0.0036744,0.00201657,0.00153652,-0.00445479,0.36924,0.00359326,0.0121764,958,484,0.184033,21.7008
-259,540,0.168701,-22.1059,0.00109484,-0.00545833,0.00283682,0.00215226,-0.00651574,0.356794,0.00521155,0.0116743,965,484,0.168703,22.1059
-252,540,0.173462,-22.4831,0.00131156,-0.00780593,0.00385165,0.00272084,-0.00921522,0.350761,0.0072233,0.0117059,972,484,0.173482,22.4831
-245,540,0.17511,-22.8842,0.00154389,-0.0101636,0.00485842,0.00329741,-0.0119171,0.346374,0.00924208,0.012231,979,484,0.175112,22.8842
-238,540,0.163574,-23.2577,0.00204535,-0.0128699,0.0057692,0.0040164,-0.014841,0.329216,0.0114696,0.0102722,986,484,0.163551,23.2577
-231,540,0.202148,-23.6178,0.00256732,-0.0159694,0.00674313,0.00476074,-0.0181628,0.314487,0.0139685,0.0143303,993,484,0.202128,23.6178
-224,540,0.196167,-23.9415,0.00289421,-0.0194701,0.00800455,0.0054639,-0.0220398,0.310636,0.0168131,0.0255373,1000,484,0.196196,23.9415
-217,540,0.160034,-24.0743,0.00326611,-0.0229623,0.00930211,0.0062302,-0.0259264,0.308476,0.0196923,0.0385611,1007,484,0.160005,24.0743
-210,540,0.339966,-24.3446,0.0036493,-0.02689,0.0106613,0.00700288,-0.0302436,0.304758,0.0228571,0.0463056,1014,484,0.339959,24.3446
-203,540,0.272461,-24.723,0,0,0,0,0,0,0,-1,1021,484,0.272477,24.723
-196,540,0.0651855,-23.9781,0,0,0,0,0,0,0,-1,1028,484,0.0652419,23.9781
-189,540,-0.726807,-22.826,0,0,0,0,0,0,0,-1,1035,484,-0.72684,22.8259
-182,540,0.109375,-15.2948,0,0,0,0,0,0,0,-1,1042,484,0.109331,15.2948
-175,540,1.73413,-10.728,0,0,0,0,0,0,0,-1,1049,484,1.73414,10.728
-168,540,1.18164,-7.65347,0,0,0,0,0,0,0,-1,1056,484,1.18163,7.65347
-161,540,-0.405884,-9.86481,0,0,0,0,0,0,0,-1,1063,484,-0.405886,9.8648
-154,540,1.96863,-22.0727,0,0,0,0,0,0,0,-1,1070,484,1.96859,22.0727
-147,540,1.32764,-21.9952,0,0,0,0,0,0,0,-1,1077,484,1.32762,21.9952
-140,540,1.40735,-15.6289,0,0,0,0,0,0,0,-1,1084,484,1.4073,15.6289
-133,540,2.28345,-17.6413,0,0,0,0,0,0,0,-1,1091,484,2.2835,17.6413
-126,540,1.25293,-23.9108,0,0,0,0,0,0,0,-1,1098,484,1.25288,23.9108
-119,540,1.55969,-23.0125,0,0,0,0,0,0,0,-1,1105,484,1.55968,23.0125
-112,540,1.4801,-21.6515,0,0,0,0,0,0,0,-1,1112,484,1.4801,21.6515
-105,540,1.30078,-19.8938,0,0,0,0,0,0,0,-1,1119,484,1.30077,19.8938
-98,540,1.08105,-18.1304,0,0,0,0,0,0,0,-1,1126,484,1.08101,18.1304
-91,540,1.56519,-7.48666,0,0,0,0,0,0,0,-1,1133,484,1.56514,7.48667
-84,540,-0.945923,4.43073,0,0,0,0,0,0,0,-1,1140,484,-0.945891,-4.43074
-77,540,-2.28894,2.14368,0,0,0,0,0,0,0,-1,1147,484,-2.28894,-2.14368
-70,540,-3.75244,-0.452576,0,0,0,0,0,0,0,-1,1154,484,-3.75244,0.452576
-63,540,-5.26257,-3.04767,0,0,0,0,0,0,0,-1,1161,484,-5.26262,3.04766
-56,540,-5.19055,-6.12595,0,0,0,0,0,0,0,-1,1168,484,-5.19057,6.12595
-49,540,-5.63867,-8.52298,0,0,0,0,0,0,0,-1,1175,484,-5.63871,8.52298
-42,540,0,0,0,0,0,0,0,0,0,-1,1182,484,0,0
-35,540,0,0,0,0,0,0,0,0,0,-1,1189,484,0,0
-28,540,0,0,0,0,0,0,0,0,0,-1,1196,484,0,0
-21,540,0,0,0,0,0,0,0,0,0,-1,1203,484,0,0
-14,540,0,0,0,0,0,0,0,0,0,-1,1210,484,0,0
-7,540,0,0,0,0,0,0,0,0,0,-1,1217,484,0,0
0,540,0,0,0,0,0,0,0,0,0,-1,1224,484,0,0
7,540,0,0,0,0,0,0,0,0,0,-1,1231,484,0,0
14,540,0,0,0,0,0,0,0,0,0,-1,1238,484,0,0
21,540,0,0,0,0,0,0,0,0,0,-1,1245,484,0,0
28,540,0,0,0,0,0,0,0,0,0,-1,1252,484,0,0
35,540,0,0,0,0,0,0,0,0,0,-1,1259,484,0,0
42,540,0,0,0,0,0,0,0,0,0,-1,1266,484,0,0
49,540,0,0,0,0,0,0,0,0,0,-1,1273,484,0,0
56,540,0,0,0,0,0,0,0,0,0,-1,1280,484,0,0
63,540,0,0,0,0,0,0,0,0,0,-1,1287,484,0,0
70,540,0,0,0,0,0,0,0,0,0,-1,1294,484,0,0
77,540,0,0,0,0,0,0,0,0,0,-1,1301,484,0,0
84,540,0,0,0,0,0,0,0,0,0,-1,1308,484,0,0
91,540,0,0,0,0,0,0,0,0,0,-1,1315,484,0,0
98,540,0,0,0,0,0,0,0,0,0,-1,1322,484,0,0
105,540,0,0,0,0,0,0,0,0,0,-1,1329,484,0,0
112,540,0,0,0,0,0,0,0,0,0,-1,1336,484,0,0
119,540,0,0,0,0,0,0,0,0,0,-1,1343,484,0,0
126,540,0,0,0,0,0,0,0,0,0,-1,1350,484,0,0
133,540,0,0,0,0,0,0,0,0,0,-1,1357,484,0,0
140,540,0,0,0,0,0,0,0,0,0,-1,1364,484,0,0
147,540,0,0,0,0,0,0,0,0,0,-1,1371,484,0,0
154,540,0,0,0,0,0,0,0,0,0,-1,1378,484,0,0
161,540,0,0,0,0,0,0,0,0,0,-1,1385,484,0,0
168,540,3.05078,-0.0010376,0,0,0,0,0,0,0,-1,1392,484,3.05084,0.00102554
175,540,3.37708,0.617035,0,0,0,0,0,0,0,-1,1399,484,3.37707,-0.617046
182,540,3.32678,1.23267,0,0,0,0,0,0,0,-1,1406,484,3.32678,-1.23266
189,540,3.5813,2.15619,0,0,0,0,0,0,0,-1,1413,484,3.58129,-2.1562
196,540,1.84448,-0.801483,0,0,0,0,0,0,0,-1,1420,484,1.84446,0.80148
203,540,4.14648,0.702087,0,0,0,0,0,0,0,-1,1427,484,4.14645,-0.702089
210,540,4.50671,-0.56076,0,0,0,0,0,0,0,-1,1434,484,4.50667,0.560771
217,540,5.00452,-0.278717,0,0,0,0,0,0,0,-1,1441,484,5.00452,0.278709
224,540,6.44458,-2.83527,0,0,0,0,0,0,0,-1,1448,484,6.44457,2.83525
231,540,6.9231,-3.10504,0,0,0,0,0,0,0,-1,1455,484,6.92307,3.10505
238,540,6.4823,-2.58365,0,0,0,0,0,0,0,-1,1462,484,6.48225,2.58363
245,540,6.02087,-1.97916,0,0,0,0,0,0,0,-1,1469,484,6.02088,1.97915
252,540,6.50647,-3.56006,0,0,0,0,0,0,0,-1,1476,484,6.50649,3.56006
259,540,6.01941,-2.798,0,0,0,0,0,0,0,-1,1483,484,6.01941,2.79801
266,540,5.5332,-2.02853,0,0,0,0,0,0,0,-1,1490,484,5.53323,2.02855
273,540,5.06787,-1.28137,0,0,0,0,0,0,0,-1,1497,484,5.06786,1.28136
280,540,1.62903,-2.14609,0,0,0,0,0,0,0,-1,1504,484,1.62906,2.1461
287,540,1.97156,-2.45053,0,0,0,0,0,0,0,-1,1511,484,1.97159,2.45053
294,540,2.44165,-2.6185,0,0,0,0,0,0,0,-1,1518,484,2.44167,2.6185
301,540,4.36169,-2.54272,0,0,0,0,0,0,0,-1,1525,484,4.36165,2.54272
308,540,4.2019,-4.30469,0,0,0,0,0,0,0,-1,1532,484,4.20193,4.3047
315,540,4.45923,-5.32101,0,0,0,0,0,0,0,-1,1539,484,4.45923,5.32103
322,540,4.71655,-6.33737,0,0,0,0,0,0,0,-1,1546,484,4.71653,6.33736
329,540,5.8949,-12.9383,0,0,0,0,0,0,0,-1,1553,484,5.89492,12.9383
336,540,7.16467,-17.7826,0,0,0,0,0,0,0,-1,1560,484,7.16469,17.7826
343,540,9.24622,-23.8068,0,0,0,0,0,0,0,-1,1567,484,9.24621,23.8068
350,540,8.93982,-23.2092,0,0,0,0,0,0,0,-1,1574,484,8.93979,23.2092
357,540,9.07849,-22.4989,-0.0016828,-0.00680567,-0.0049881,0.00136309,-0.00985155,-0.5482,0.00706603,0.0385471,1581,484,9.07852,22.4989
364,540,8.93323,-22.2424,-0.00127942,-0.00570955,-0.00410994,0.00117436,-0.00816333,-0.538237,0.00587294,0.0213189,1588,484,8.93328,22.2424
371,540,8.93274,-21.8795,-0.000760181,-0.00450515,-0.00324342,0.00111246,-0.00637779,-0.52361,0.00466709,0.0142135,1595,484,8.93272,21.8795
378,540,8.96826,-21.4789,-0.000292199,-0.0032313,-0.0023867,0.00104109,-0.00456459,-0.509448,0.00344296,0.0121626,1602,484,8.96826,21.4789
385,540,8.97339,-21.0659,0.000166546,-0.00178916,-0.00149607,0.000975988,-0.0025986,-0.495942,0.00213349,0.0135432,1609,484,8.97345,21.0659
392,540,8.95667,-20.6205,0.000433193,-0.000879605,-0.000896612,0.000887998,-0.00133441,-0.469429,0.00129171,0.012444,1616,484,8.95661,20.6205
399,540,8.95154,-20.1851,0.000604984,-0.000128648,-0.000384641,0.000769678,-0.000293342,-0.404557,0.000633941,0.0164536,1623,484,8.95152,20.1851
406,540,8.95874,-19.7406,0.000733894,0.000575409,7.17565e-05,0.000761555,0.000547748,0.367932,0.000453556,0.0176141,1630,484,8.95873,19.7406
413,540,8.95557,-19.2628,0.00086924,0.00121709,0.000580242,0.00164891,0.000437416,0.931009,0.000986347,0.0137958,1637,484,8.95559,19.2628
420,540,8.96936,-18.8286,0.000935597,0.00162227,0.000999428,0.00233569,0.000222178,0.95085,0.00148861,0.012479,1644,484,8.9694,18.8286
427,540,8.94141,-18.3604,0.000847979,0.00158272,0.00129707,0.00256344,-0.000132742,0.9234,0.00175489,0.012981,1651,484,8.94141,18.3604
434,540,8.92761,-17.9096,0.000640613,0.00128658,0.00138532,0.00238607,-0.000458881,0.899925,0.00176369,0.0155902,1658,484,8.92757,17.9096
441,540,8.94263,-17.4456,0.000448606,0.000778797,0.00153728,0.00215982,-0.000932417,0.83889,0.00183158,0.0195794,1665,484,8.94269,17.4457
448,540,8.90527,-17.0063,0.000158219,7.99477e-05,0.0016103,0.00172986,-0.0014917,0.773249,0.00186166,0.0119026,1672,484,8.90531,17.0063
455,540,8.88684,-16.5254,-0.000247751,-0.000805167,0.00154916,0.00104757,-0.00210049,0.696395,0.00185111,0.0103741,1679,484,8.88686,16.5254
462,540,8.83459,-16.0276,-0.00070087,-0.00192877,0.00139472,0.000209048,-0.00283868,0.578063,0.00196585,0.010584,1686,484,8.83462,16.0277
469,540,8.7832,-15.5291,-0.00136555,-0.00327834,0.00121495,-0.00077572,-0.00386816,0.451959,0.00236303,0.0131879,1693,484,8.78319,15.5291
476,540,8.77393,-15.0452,-0.00228823,-0.00469806,0.000879926,-0.00200113,-0.00498515,0.31538,0.00289676,0.0179938,1700,484,8.77398,15.0452
483,540,8.81445,-14.5644,-0.00335345,-0.00638676,0.000445466,-0.00328938,-0.00645083,0.142841,0.00372463,0.0331536,1707,484,8.81448,14.5644
490,540,8.97058,-13.9778,0,0,0,0,0,0,0,-1,1714,484,8.97056,13.9778
497,540,9.04736,-13.5586,0,0,0,0,0,0,0,-1,1721,484,9.04739,13.5586
504,540,5.52747,-4.4433,0,0,0,0,0,0,0,-1,1728,484,5.5275,4.44329
511,540,5.82471,-6.83521,0,0,0,0,0,0,0,-1,1735,484,5.82465,6.83522
518,540,9.98181,-12.4608,0,0,0,0,0,0,0,-1,1742,484,9.98187,12.4608
525,540,8.45044,-12.0836,0,0,0,0,0,0,0,-1,1749,484,8.45049,12.0836
532,540,2.84265,-1.07925,0,0,0,0,0,0,0,-1,1756,484,2.84269,1.07927
539,540,0,0,0,0,0,0,0,0,0,-1,1763,484,0,0
546,540,0,0,0,0,0,0,0,0,0,-1,1770,484,0,0
553,540,0,0,0,0,0,0,0,0,0,-1,1777,484,0,0
560,540,0,0,0,0,0,0,0,0,0,-1,1784,484,0,0
567,540,0,0,0,0,0,0,0,0,0,-1,1791,484,0,0
574,540,0,0,0,0,0,0,0,0,0,-1,1798,484,0,0
581,540,0,0,0,0,0,0,0,0,0,-1,1805,484,0,0
588,540,0,0,0,0,0,0,0,0,0,-1,1812,484,0,0
595,540,0,0,0,0,0,0,0,0,0,-1,1819,484,0,0
602,540,0,0,0,0,0,0,0,0,0,-1,1826,484,0,0
609,540,0,0,0,0,0,0,0,0,0,-1,1833,484,0,0
616,540,0,0,0,0,0,0,0,0,0,-1,1840,484,0,0
623,540,0,0,0,0,0,0,0,0,0,-1,1847,484,0,0
630,540,0,0,0,0,0,0,0,0,0,-1,1854,484,0,0
637,540,0,0,0,0,0,0,0,0,0,-1,1861,484,0,0
644,540,0,0,0,0,0,0,0,0,0,-1,1868,484,0,0
651,540,0,0,0,0,0,0,0,0,0,-1,1875,484,0,0
658,540,0,0,0,0,0,0,0,0,0,-1,1882,484,0,0
665,540,0,0,0,0,0,0,0,0,0,-1,1889,484,0,0
672,540,0,0,0,0,0,0,0,0,0,-1,1896,484,0,0
679,540,0,0,0,0,0,0,0,0,0,-1,1903,484,0,0
686,540,0,0,0,0,0,0,0,0,0,-1,1910,484,0,0
693,540,0,0,0,0,0,0,0,0,0,-1,1917,484,0,0
700,540,0,0,0,0,0,0,0,0,0,-1,1924,484,0,0
707,540,0,0,0,0,0,0,0,0,0,-1,1931,484,0,0
714,540,0,0,0,0,0,0,0,0,0,-1,1938,484,0,0
721,540,0,0,0,0,0,0,0,0,0,-1,1945,484,0,0
728,540,0,0,0,0,0,0,0,0,0,-1,1952,484,0,0
735,540,0,0,0,0,0,0,0,0,0,-1,1959,484,0,0
742,540,0,0,0,0,0,0,0,0,0,-1,1966,484,0,0
749,540,0,0,0,0,0,0,0,0,0,-1,1973,484,0,0
756,540,0,0,0,0,0,0,0,0,0,-1,1980,484,0,0
763,540,0,0,0,0,0,0,0,0,0,-1,1987,484,0,0
770,540,0,0,0,0,0,0,0,0,0,-1,1994,484,0,0
777,540,0,0,0,0,0,0,0,0,0,-1,2001,484,0,0
784,540,0,0,0,0,0,0,0,0,0,-1,2008,484,0,0
791,540,0,0,0,0,0,0,0,0,0,-1,2015,484,0,0
798,540,0,0,0,0,0,0,0,0,0,-1,2022,484,0,0
805,540,0,0,0,0,0,0,0,0,0,-1,2029,484,0,0
812,540,0,0,0,0,0,0,0,0,0,-1,2036,484,0,0
-700,533,0,0,0,0,0,0,0,0,0,-1,524,491,0,0
-693,533,0,0,0,0,0,0,0,0,0,-1,531,491,0,0
-686,533,0,0,0,0,0,0,0,0,0,-1,538,491,0,0
-679,533,0,0,0,0,0,0,0,0,0,-1,545,491,0,0
-672,533,0,0,0,0,0,0,0,0,0,-1,552,491,0,0
-665,533,0,0,0,0,0,0,0,0,0,-1,559,491,0,0
-658,533,0,0,0,0,0,0,0,0,0,-1,566,491,0,0
-651,533,0,0,0,0,0,0,0,0,0,-1,573,491,0,0
-644,533,0,0,0,0,0,0,0,0,0,-1,580,491,0,0
-637,533,0,0,0,0,0,0,0,0,0,-1,587,491,0,0
-630,533,0,0,0,0,0,0,0,0,0,-1,594,491,0,0
-623,533,0,0,0,0,0,0,0,0,0,-1,601,491,0,0
-616,533,0,0,0,0,0,0,0,0,0,-1,608,491,0,0
-609,533,0,0,0,0,0,0,0,0,0,-1,615,491,0,0
-602,533,0,0,0,0,0,0,0,0,0,-1,622,491,0,0
-595,533,0,0,0,0,0,0,0,0,0,-1,629,491,0,0
-588,533,0,0,0,0,0,0,0,0,0,-1,636,491,0,0
-581,533,0,0,0,0,0,0,0,0,0,-1,643,491,0,0
-574,533,0,0,0,0,0,0,0,0,0,-1,650,491,0,0
-567,533,0,0,0,0,0,0,0,0,0,-1,657,491,0,0
-560,533,0,0,0,0,0,0,0,0,0,-1,664,491,0,0
-553,533,0,0,0,0,0,0,0,0,0,-1,671,491,0,0
-546,533,0,0,0,0,0,0,0,0,0,-1,678,491,0,0
-539,533,0,0,0,0,0,0,0,0,0,-1,685,491,0,0
-532,533,0,0,0,0,0,0,0,0,0,-1,692,491,0,0
-525,533,0,0,0,0,0,0,0,0,0,-1,699,491,0,0
-518,533,0,0,0,0,0,0,0,0,0,-1,706,491,0,0
-511,533,0,0,0,0,0,0,0,0,0,-1,713,491,0,0
-504,533,0,0,0,0,0,0,0,0,0,-1,720,491,0,0
-497,533,0,0,0,0,0,0,0,0,0,-1,727,491,0,0
-490,533,0,0,0,0,0,0,0,0,0,-1,734,491,0,0
-483,533,0,0,0,0,0,0,0,0,0,-1,741,491,0,0
-476,533,0,0,0,0,0,0,0,0,0,-1,748,491,0,0
-469,533,0,0,0,0,0,0,0,0,0,-1,755,491,0,0
-462,533,0,0,0,0,0,0,0,0,0,-1,762,491,0,0
-455,533,0,0,0,0,0,0,0,0,0,-1,769,491,0,0
-448,533,0,0,0,0,0,0,0,0,0,-1,776,491,0,0
-441,533,0,0,0,0,0,0,0,0,0,-1,783,491,0,0
-434,533,0,0,0,0,0,0,0,0,0,-1,790,491,0,0
-427,533,0.559814,-4.40222,0,0,0,0,0,0,0,-1,797,491,0.559816,4.40222
-420,533,-0.194275,-9.77838,0,0,0,0,0,0,0,-1,804,491,-0.194288,9.77838
-413,533,-1.32666,-12.065,0,0,0,0,0,0,0,-1,811,491,-1.32665,12.065
-406,533,-0.890869,-12.2537,0,0,0,0,0,0,0,-1,818,491,-0.89084,12.2537
-399,533,-0.455017,-12.4423,0,0,0,0,0,0,0,-1,825,491,-0.455032,12.4423
-392,533,-1.89661,-10.3905,0,0,0,0,0,0,0,-1,832,491,-1.89661,10.3905
-385,533,-1.69116,-6.64645,0,0,0,0,0,0,0,-1,839,491,-1.69115,6.64645
-378,533,0.0107422,-15.0494,0,0,0,0,0,0,0,-1,846,491,0.0107296,15.0494
-371,533,-0.154541,-15.1916,0,0,0,0,0,0,0,-1,853,491,-0.154514,15.1916
-364,533,-0.103149,-15.5302,0.00245871,0.0074806,-0.0057595,0.0112527,-0.00131339,-0.990959,0.00797573,0.0416176,860,491,-0.103133,15.5302
-357,533,-0.0754395,-15.837,0.000116193,0.00663649,-0.00433472,0.00880021,-0.00204753,-1.10782,0.00665515,0.0239875,867,491,-0.0754174,15.837
-350,533,-0.0612183,-16.3625,-0.00139098,0.00562721,-0.00313186,0.00682155,-0.00258531,-1.20647,0.00561162,0.0146253,874,491,-0.0612178,16.3625
-343,533,-0.103455,-16.8899,-0.00264788,0.00510387,-0.00225728,0.00571327,-0.00325728,-1.30711,0.00524345,0.0127698,881,491,-0.103482,16.8899
-336,533,-0.151978,-17.3763,-0.00274955,0.00469606,-0.00182865,0.00512093,-0.00317442,-1.3425,0.00483308,0.0152001,888,491,-0.152001,17.3763
-329,533,-0.174683,-17.8063,-0.00229682,0.00423172,-0.00157647,0.00459246,-0.00265756,-1.34584,0.0042352,0.0138835,895,491,-0.174656,17.8063
-322,533,-0.19104,-18.2613,-0.00173435,0.00367947,-0.00134509,0.00399525,-0.00205012,-1.34021,0.00355001,0.011786,902,491,-0.191034,18.2613
-315,533,-0.201294,-18.7045,-0.00115065,0.00313628,-0.00105688,0.00338268,-0.00139704,-1.34175,0.00283784,0.0125626,909,491,-0.201297,18.7045
-308,533,-0.218445,-19.1403,-0.000607699,0.00251146,-0.00075428,0.00268429,-0.000780525,-1.34556,0.00209865,0.0118449,916,491,-0.218437,19.1403
-301,533,-0.24939,-19.5608,-0.000134181,0.00156038,-0.000347371,0.00162883,-0.000202625,-1.37626,0.00115934,0.0134072,923,491,-0.249383,19.5608
-294,533,-0.228943,-19.9844,0.000256067,0.000225454,0.000252905,0.000494128,-1.26074e-05,0.755174,0.0003337,0.0120946,930,491,-0.228923,19.9844
-287,533,-0.210266,-20.4264,0.000640965,-0.000966917,0.000839016,0.000999035,-0.00132499,0.403372,0.00134617,0.00893069,937,491,-0.210237,20.4264
-280,533,-0.224854,-20.8676,0.000903509,-0.00222255,0.00146807,0.00148484,-0.00280388,0.377039,0.00251483,0.00873837,944,491,-0.224832,20.8676
-273,533,-0.238159,-21.2699,0.000937148,-0.00368734,0.00229651,0.0018838,-0.004634,0.390992,0.00387311,0.0121486,951,491,-0.238186,21.2699
-266,533,-0.228516,-21.6767,0.00109427,-0.00538429,0.00311211,0.002347,-0.00663702,0.382689,0.00538044,0.0113746,958,491,-0.228505,21.6767
-259,533,-0.238464,-22.0799,0.00155061,-0.00748452,0.0039489,0.00303323,-0.00896714,0.359166,0.00720523,0.0120288,965,491,-0.238437,22.0799
-252,533,-0.231873,-22.4412,0.001767,-0.0103312,0.00506942,0.00361034,-0.0121745,0.348756,0.00955006,0.013367,972,491,-0.231866,22.4411
-245,533,-0.246826,-22.8038,0.00198706,-0.013318,0.00624676,0.00421296,-0.0155439,0.342301,0.0120157,0.018527,979,491,-0.246848,22.8038
-238,533,-0.178284,-23.1313,0.00246398,-0.0168044,0.0074316,0.00499721,-0.0193376,0.328521,0.0148406,0.0266462,986,491,-0.178263,23.1313
-231,533,-0.0516968,-23.4801,0,0,0,0,0,0,0,-1,993,491,-0.0516701,23.4801
-224,533,-0.161804,-23.9321,0,0,0,0,0,0,0,-1,1000,491,-0.161786,23.9321
-217,533,-0.0684814,-23.7787,0,0,0,0,0,0,0,-1,1007,491,-0.0684979,23.7788
-210,533,0.284668,-24.2421,0,0,0,0,0,0,0,-1,1014,491,0.28466,24.2421
-203,533,-0.495544,-25.0083,0,0,0,0,0,0,0,-1,1021,491,-0.495529,25.0083
-196,533,0.688354,-19.5743,0,0,0,0,0,0,0,-1,1028,491,0.688406,19.5743
-189,533,-0.169189,-15.0303,0,0,0,0,0,0,0,-1,1035,491,-0.169241,15.0303
-182,533,1.26123,-11.4969,0,0,0,0,0,0,0,-1,1042,491,1.26128,11.4969
-175,533,0.937744,-7.36966,0,0,0,0,0,0,0,-1,1049,491,0.937769,7.36965
-168,533,2.64807,-2.7543,0,0,0,0,0,0,0,-1,1056,491,2.64812,2.7543
-161,533,1.91833,-1.76553,0,0,0,0,0,0,0,-1,1063,491,1.91836,1.76554
-154,533,0.376709,-11.0633,0,0,0,0,0,0,0,-1,1070,491,0.376715,11.0632
-147,533,0.383789,-12.1586,0,0,0,0,0,0,0,-1,1077,491,0.383829,12.1586
-140,533,1.14001,-15.4608,0,0,0,0,0,0,0,-1,1084,491,1.14005,15.4608
-133,533,0.189941,-16.0795,0,0,0,0,0,0,0,-1,1091,491,0.18994,16.0795
-126,533,2.89612,-2.59003,0,0,0,0,0,0,0,-1,1098,491,2.89608,2.59003
-119,533,1.78284,-22.5394,0,0,0,0,0,0,0,-1,1105,491,1.78279,22.5394
-112,533,1.83862,-21.2401,0,0,0,0,0,0,0,-1,1112,491,1.83859,21.24
-105,533,1.67554,-19.4018,0,0,0,0,0,0,0,-1,1119,491,1.6755,19.4018
-98,533,-1.39392,-5.16367,0,0,0,0,0,0,0,-1,1126,491,-1.39394,5.16367
-91,533,0.367432,4.49753,0,0,0,0,0,0,0,-1,1133,491,0.367468,-4.49754
-84,533,-0.88623,3.03604,0,0,0,0,0,0,0,-1,1140,491,-0.886288,-3.03605
-77,533,0,0,0,0,0,0,0,0,0,-1,1147,491,0,0
-70,533,0,0,0,0,0,0,0,0,0,-1,1154,491,0,0
-63,533,0,0,0,0,0,0,0,0,0,-1,1161,491,0,0
-56,533,0,0,0,0,0,0,0,0,0,-1,1168,491,0,0
-49,533,0,0,0,0,0,0,0,0,0,-1,1175,491,0,0
-42,533,0,0,0,0,0,0,0,0,0,-1,1182,491,0,0
-35,533,0,0,0,0,0,0,0,0,0,-1,1189,491,0,0
-28,533,0,0,0,0,0,0,0,0,0,-1,1196,491,0,0
-21,533,0,0,0,0,0,0,0,0,0,-1,1203,491,0,0
-14,533,0,0,0,0,0,0,0,0,0,-1,1210,491,0,0
-7,533,0,0,0,0,0,0,0,0,0,-1,1217,491,0,0
0,533,0,0,0,0,0,0,0,0,0,-1,1224,491,0,0
7,533,0,0,0,0,0,0,0,0,0,-1,1231,491,0,0
14,533,0,0,0,0,0,0,0,0,0,-1,1238,491,0,0
21,533,0,0,0,0,0,0,0,0,0,-1,1245,491,0,0
28,533,0,0,0,0,0,0,0,0,0,-1,1252,491,0,0
35,533,0,0,0,0,0,0,0,0,0,-1,1259,491,0,0
42,533,0,0,0,0,0,0,0,0,0,-1,1266,491,0,0
49,533,0,0,0,0,0,0,0,0,0,-1,1273,491,0,0
56,533,0,0,0,0,0,0,0,0,0,-1,1280,491,0,0
63,533,0,0,0,0,0,0,0,0,0,-1,1287,491,0,0
70,533,0,0,0,0,0,0,0,0,0,-1,1294,491,0,0
77,533,0,0,0,0,0,0,0,0,0,-1,1301,491,0,0
84,533,0,0,0,0,0,0,0,0,0,-1,1308,491,0,0
91,533,0,0,0,0,0,0,0,0,0,-1,1315,491,0,0
98,533,0,0,0,0,0,0,0,0,0,-1,1322,491,0,0
105,533,0,0,0,0,0,0,0,0,0,-1,1329,491,0,0
112,533,0,0,0,0,0,0,0,0,0,-1,1336,491,0,0
119,533,0,0,0,0,0,0,0,0,0,-1,1343,491,0,0
126,533,0,0,0,0,0,0,0,0,0,-1,1350,491,0,0
133,533,0,0,0,0,0,0,0,0,0,-1,1357,491,0,0
140,533,0,0,0,0,0,0,0,0,0,-1,1364,491,0,0
147,533,0,0,0,0,0,0,0,0,0,-1,1371,491,0,0
154,533,0,0,0,0,0,0,0,0,0,-1,1378,491,0,0
161,533,0,0,0,0,0,0,0,0,0,-1,1385,491,0,0
168,533,0,0,0,0,0,0,0,0,0,-1,1392,491,0,0
175,533,0,0,0,0,0,0,0,0,0,-1,1399,491,0,0
182,533,0,0,0,0,0,0,0,0,0,-1,1406,491,0,0
189,533,0,0,0,0,0,0,0,0,0,-1,1413,491,0,0
196,533,0,0,0,0,0,0,0,0,0,-1,1420,491,0,0
203,533,3.7887,1.16193,0,0,0,0,0,0,0,-1,1427,491,3.78872,-1.16193
210,533,5.09558,-0.216034,0,0,0,0,0,0,0,-1,1434,491,5.09559,0.216028
217,533,6.91614,-2.46814,0,0,0,0,0,0,0,-1,1441,491,6.91618,2.46814
224,533,7.23621,-2.1857,0,0,0,0,0,0,0,-1,1448,491,7.23621,2.1857
231,533,7.23474,-1.92282,0,0,0,0,0,0,0,-1,1455,491,7.2347,1.92282
238,533,7.23535,-1.67258,0,0,0,0,0,0,0,-1,1462,491,7.23539,1.67258
245,533,6.86682,-1.2301,0,0,0,0,0,0,0,-1,1469,491,6.86686,1.23011
252,533,6.63354,-3.07825,0,0,0,0,0,0,0,-1,1476,491,6.6335,3.07824
259,533,6.16431,-2.35037,0,0,0,0,0,0,0,-1,1483,491,6.1643,2.35037
266,533,5.68884,-1.6214,0,0,0,0,0,0,0,-1,1490,491,5.68885,1.6214
273,533,5.21399,-0.864227,0,0,0,0,0,0,0,-1,1497,491,5.21403,0.864227
280,533,1.41089,-1.97946,0,0,0,0,0,0,0,-1,1504,491,1.41087,1.97946
287,533,1.6814,-2.44443,0,0,0,0,0,0,0,-1,1511,491,1.6814,2.44444
294,533,2.2384,-2.57626,0,0,0,0,0,0,0,-1,1518,491,2.23839,2.57625
301,533,3.39941,-4.0817,0,0,0,0,0,0,0,-1,1525,491,3.3994,4.08171
308,533,4.13733,-4.14752,0,0,0,0,0,0,0,-1,1532,491,4.13727,4.14752
315,533,4.80762,-5.29349,0,0,0,0,0,0,0,-1,1539,491,4.80762,5.29347
322,533,5.47803,-6.43942,0,0,0,0,0,0,0,-1,1546,491,5.47798,6.43943
329,533,3.88477,-3.86301,0,0,0,0,0,0,0,-1,1553,491,3.88475,3.86299
336,533,6.70923,-13.2003,0,0,0,0,0,0,0,-1,1560,491,6.70926,13.2004
343,533,7.06677,-17.1133,0,0,0,0,0,0,0,-1,1567,491,7.06673,17.1133
350,533,8.65698,-20.3847,0,0,0,0,0,0,0,-1,1574,491,8.65697,20.3848
357,533,9.54309,-22.2611,0,0,0,0,0,0,0,-1,1581,491,9.54308,22.2611
364,533,9.45483,-22.0383,-0.00224411,-0.00747082,-0.00533923,0.00108702,-0.010802,-0.557807,0.00758964,0.0420711,1588,491,9.45487,22.0383
371,533,9.29822,-21.8044,-0.00136445,-0.00586587,-0.00424575,0.00119026,-0.00842058,-0.541676,0.00604963,0.0359541,1595,491,9.29825,21.8044
378,533,9.31482,-21.4156,-0.000607794,-0.00420298,-0.00315853,0.00122884,-0.00603962,-0.526695,0.0044924,0.0268647,1602,491,9.31481,21.4156
385,533,9.43201,-21.0167,0.000112737,-0.00249031,-0.00201881,0.00121321,-0.00359078,-0.499079,0.00288459,0.02242,1609,491,9.43204,21.0167
392,533,9.40662,-20.6185,0.000504036,-0.00153193,-0.00134942,0.00117638,-0.00220427,-0.462247,0.00198167,0.0131917,1616,491,9.40661,20.6185
399,533,9.41101,-20.215,0.00070098,-0.000717458,-0.00081745,0.00107399,-0.00109047,-0.428087,0.00124966,0.0119412,1623,491,9.411,20.215
406,533,9.40723,-19.7573,0.000829562,0.000104008,-0.000379995,0.000992146,-5.85756e-05,-0.404287,0.000681795,0.0145112,1630,491,9.40717,19.7573
413,533,9.40149,-19.2617,0.00104045,0.000841437,0.000126241,0.00110168,0.0007802,0.45164,0.000654178,0.0124843,1637,491,9.40144,19.2618
420,533,9.40942,-18.8246,0.0011566,0.00131321,0.000578642,0.00181882,0.000650986,0.852655,0.00106413,0.0119232,1644,491,9.40937,18.8246
427,533,9.40234,-18.3508,0.00106396,0.00141925,0.000857174,0.00211699,0.000366217,0.887574,0.00130648,0.0133442,1651,491,9.40233,18.3508
434,533,9.38428,-17.9055,0.000896344,0.00128225,0.00104744,0.00215436,2.42267e-05,0.876483,0.00142824,0.0136247,1658,491,9.38429,17.9054
441,533,9.40686,-17.4306,0.000723226,0.000931459,0.00124518,0.00207687,-0.000422181,0.827109,0.00154466,0.0159664,1665,491,9.40687,17.4306
448,533,9.38892,-16.9963,0.000507786,0.000418585,0.00139996,0.00186385,-0.00093748,0.769474,0.00164656,0.0172185,1672,491,9.38886,16.9963
455,533,9.33606,-16.5248,0.000210879,-0.000224223,0.00145479,0.00146429,-0.00147764,0.711178,0.00169853,0.0164021,1679,491,9.33607,16.5248
462,533,9.28931,-15.9839,-9.39067e-05,-0.00109818,0.00145362,0.00094186,-0.00213395,0.619095,0.00181973,0.0151318,1686,491,9.28926,15.9839
469,533,9.27905,-15.528,-0.000571958,-0.0021575,0.00146942,0.00030491,-0.00303436,0.538021,0.00213183,0.0100115,1693,491,9.27911,15.5281
476,533,9.28674,-15.0238,-0.0012698,-0.00324746,0.00138647,-0.000555664,-0.0039616,0.475633,0.00247671,0.0110161,1700,491,9.28679,15.0238
483,533,9.32642,-14.5014,-0.00206273,-0.00454481,0.00123535,-0.0015527,-0.00505485,0.39155,0.00298989,0.0177947,1707,491,9.32641,14.5014
490,533,9.41882,-14.1541,-0.00301999,-0.0061226,0.00115885,-0.00263494,-0.00650765,0.320793,0.00377978,0.0427674,1714,491,9.41877,14.1541
497,533,9.39172,-13.6803,-0.00429701,-0.00809655,0.000985881,-0.00405644,-0.00833713,0.239346,0.00481402,0.0495599,1721,491,9.39168,13.6803
504,533,9.16992,-13.0918,0,0,0,0,0,0,0,-1,1728,491,9.16989,13.0918
511,533,9.6604,-12.7529,0,0,0,0,0,0,0,-1,1735,491,9.6604,12.7529
518,533,9.76636,-12.2793,0,0,0,0,0,0,0,-1,1742,491,9.76631,12.2793
525,533,10.2653,-11.1067,0,0,0,0,0,0,0,-1,1749,491,10.2653,11.1067
532,533,8.92249,-11.2121,0,0,0,0,0,0,0,-1,1756,491,8.92243,11.2121
539,533,3.61609,1.62427,0,0,0,0,0,0,0,-1,1763,491,3.61606,-1.62426
546,533,3.59607,1.65799,0,0,0,0,0,0,0,-1,1770,491,3.59605,-1.658
553,533,0,0,0,0,0,0,0,0,0,-1,1777,491,0,0
560,533,0,0,0,0,0,0,0,0,0,-1,1784,491,0,0
567,533,0,0,0,0,0,0,0,0,0,-1,1791,491,0,0
574,533,0,0,0,0,0,0,0,0,0,-1,1798,491,0,0
581,533,0,0,0,0,0,0,0,0,0,-1,1805,491,0,0
588,533,0,0,0,0,0,0,0,0,0,-1,1812,491,0,0
595,533,0,0,0,0,0,0,0,0,0,-1,1819,491,0,0
602,533,0,0,0,0,0,0,0,0,0,-1,1826,491,0,0
609,533,0,0,0,0,0,0,0,0,0,-1,1833,491,0,0
616,533,0,0,0,0,0,0,0,0,0,-1,1840,491,0,0
623,533,0,0,0,0,0,0,0,0,0,-1,1847,491,0,0
630,533,0,0,0,0,0,0,0,0,0,-1,1854,491,0,0
637,533,0,0,0,0,0,0,0,0,0,-1,1861,491,0,0
644,533,0,0,0,0,0,0,0,0,0,-1,1868,491,0,0
651,533,0,0,0,0,0,0,0,0,0,-1,1875,491,0,0
658,533,0,0,0,0,0,0,0,0,0,-1,1882,491,0,0
665,533,0,0,0,0,0,0,0,0,0,-1,1889,491,0,0
672,533,0,0,0,0,0,0,0,0,0,-1,1896,491,0,0
679,533,0,0,0,0,0,0,0,0,0,-1,1903,491,0,0
686,533,0,0,0,0,0,0,0,0,0,-1,1910,491,0,0
693,533,0,0,0,0,0,0,0,0,0,-1,1917,491,0,0
700,533,0,0,0,0,0,0,0,0,0,-1,1924,491,0,0
707,533,0,0,0,0,0,0,0,0,0,-1,1931,491,0,0
714,533,0,0,0,0,0,0,0,0,0,-1,1938,491,0,0
721,533,0,0,0,0,0,0,0,0,0,-1,1945,491,0,0
728,533,0,0,0,0,0,0,0,0,0,-1,1952,491,0,0
735,533,0,0,0,0,0,0,0,0,0,-1,1959,491,0,0
742,533,0,0,0,0,0,0,0,0,0,-1,1966,491,0,0
749,533,0,0,0,0,0,0,0,0,0,-1,1973,491,0,0
756,533,0,0,0,0,0,0,0,0,0,-1,1980,491,0,0
763,533,0,0,0,0,0,0,0,0,0,-1,1987,491,0,0
770,533,0,0,0,0,0,0,0,0,0,-1,1994,491,0,0
777,533,0,0,0,0,0,0,0,0,0,-1,2001,491,0,0
784,533,0,0,0,0,0,0,0,0,0,-1,2008,491,0,0
791,533,0,0,0,0,0,0,0,0,0,-1,2015,491,0,0
798,533,0,0,0,0,0,0,0,0,0,-1,2022,491,0,0
805,533,0,0,0,0,0,0,0,0,0,-1,2029,491,0,0
812,533,0,0,0,0,0,0,0,0,0,-1,2036,491,0,0
-700,526,0,0,0,0,0,0,0,0,0,-1,524,498,0,0
-693,526,0,0,0,0,0,0,0,0,0,-1,531,498,0,0
-686,526,0,0,0,0,0,0,0,0,0,-1,538,498,0,0
-679,526,0,0,0,0,0,0,0,0,0,-1,545,498,0,0
-672,526,0,0,0,0,0,0,0,0,0,-1,552,498,0,0
-665,526,0,0,0,0,0,0,0,0,0,-1,559,498,0,0
-658,526,0,0,0,0,0,0,0,0,0,-1,566,498,0,0
-651,526,0,0,0,0,0,0,0,0,0,-1,573,498,0,0
-644,526,0,0,0,0,0,0,0,0,0,-1,580,498,0,0
-637,526,0,0,0,0,0,0,0,0,0,-1,587,498,0,0
-630,526,0,0,0,0,0,0,0,0,0,-1,594,498,0,0
-623,526,0,0,0,0,0,0,0,0,0,-1,601,498,0,0
-616,526,0,0,0,0,0,0,0,0,0,-1,608,498,0,0
-609,526,0,0,0,0,0,0,0,0,0,-1,615,498,0,0
-602,526,0,0,0,0,0,0,0,0,0,-1,622,498,0,0
-595,526,0,0,0,0,0,0,0,0,0,-1,629,498,0,0
-588,526,0,0,0,0,0,0,0,0,0,-1,636,498,0,0
-581,526,0,0,0,0,0,0,0,0,0,-1,643,498,0,0
-574,526,0,0,0,0,0,0,0,0,0,-1,650,498,0,0
-567,526,0,0,0,0,0,0,0,0,0,-1,657,498,0,0
-560,526,0,0,0,0,0,0,0,0,0,-1,664,498,0,0
-553,526,0,0,0,0,0,0,0,0,0,-1,671,498,0,0
-546,526,0,0,0,0,0,0,0,0,0,-1,678,498,0,0
-539,526,0,0,0,0,0,0,0,0,0,-1,685,498,0,0
-532,526,0,0,0,0,0,0,0,0,0,-1,692,498,0,0
-525,526,0,0,0,0,0,0,0,0,0,-1,699,498,0,0
-518,526,0,0,0,0,0,0,0,0,0,-1,706,498,0,0
-511,526,0,0,0,0,0,0,0,0,0,-1,713,498,0,0
-504,526,0,0,0,0,0,0,0,0,0,-1,720,498,0,0
-497,526,0,0,0,0,0,0,0,0,0,-1,727,498,0,0
-490,526,0,0,0,0,0,0,0,0,0,-1,734,498,0,0
-483,526,0,0,0,0,0,0,0,0,0,-1,741,498,0,0
-476,526,0,0,0,0,0,0,0,0,0,-1,748,498,0,0
-469,526,0,0,0,0,0,0,0,0,0,-1,755,498,0,0
-462,526,0,0,0,0,0,0,0,0,0,-1,762,498,0,0
-455,526,0,0,0,0,0,0,0,0,0,-1,769,498,0,0
-448,526,0,0,0,0,0,0,0,0,0,-1,776,498,0,0
-441,526,0,0,0,0,0,0,0,0,0,-1,783,498,0,0
-434,526,-0.153564,-5.96649,0,0,0,0,0,0,0,-1,790,498,-0.153589,5.9665
-427,526,1.23206,-4.59808,0,0,0,0,0,0,0,-1,797,498,1.23208,4.59809
-420,526,0.923462,-10.1938,0,0,0,0,0,0,0,-1,804,498,0.92349,10.1938
-413,526,-1.71814,-12.3744,0,0,0,0,0,0,0,-1,811,498,-1.71813,12.3744
-406,526,-1.29816,-12.5131,0,0,0,0,0,0,0,-1,818,498,-1.29816,12.5131
-399,526,-0.878174,-12.6518,0,0,0,0,0,0,0,-1,825,498,-0.878176,12.6518
-392,526,-2.27356,-11.5593,0,0,0,0,0,0,0,-1,832,498,-2.27357,11.5593
-385,526,-0.382996,-13.9703,0,0,0,0,0,0,0,-1,839,498,-0.382993,13.9703
-378,526,-0.396851,-14.5405,0,0,0,0,0,0,0,-1,846,498,-0.396854,14.5406
-371,526,-0.485901,-14.9158,0.00615816,0.00759985,-0.0073812,0.0142953,-0.000537312,-0.834074,0.00971427,0.0328259,853,498,-0.485904,14.9159
-364,526,-0.534058,-15.383,0.00333453,0.00631387,-0.00553897,0.01056,-0.000911594,-0.916761,0.0073627,0.0179201,860,498,-0.534069,15.383
-357,526,-0.522217,-15.8858,0.0013032,0.00535981,-0.00414808,0.00794893,-0.00128592,-1.01279,0.00577584,0.0124216,867,498,-0.522221,15.8858
-350,526,-0.525696,-16.3665,-8.36198e-05,0.00423749,-0.00290823,0.00569989,-0.00154602,-1.10487,0.00440661,0.0120694,874,498,-0.525675,16.3664
-343,526,-0.562256,-16.8485,-0.00130687,0.00361597,-0.00197527,0.00431054,-0.00200144,-1.23267,0.00372462,0.0159211,881,498,-0.562281,16.8485
-336,526,-0.604736,-17.3224,-0.00147364,0.00318217,-0.00149133,0.0036189,-0.00191037,-1.28592,0.00324273,0.0154901,888,498,-0.60473,17.3224
-329,526,-0.613525,-17.7767,-0.00110773,0.00272352,-0.00119335,0.00306482,-0.00144903,-1.29223,0.00266114,0.0147894,895,498,-0.613545,17.7767
-322,526,-0.621277,-18.2108,-0.000658941,0.00220406,-0.000909704,0.00246866,-0.000923541,-1.28774,0.00202508,0.0102993,902,498,-0.621265,18.2107
-315,526,-0.633728,-18.6846,-0.000184148,0.00171405,-0.000571571,0.00187287,-0.000342967,-1.29977,0.00137721,0.00919364,909,498,-0.633745,18.6846
-308,526,-0.643982,-19.1533,0.00028094,0.00115195,-0.000224205,0.00120628,0.000226616,-1.33308,0.0007403,0.00851707,916,498,-0.643973,19.1533
-301,526,-0.671265,-19.5726,0.000679004,0.000278831,0.000213375,0.000771431,0.000186405,0.408764,0.000464784,0.00990892,923,498,-0.671245,19.5726
-294,526,-0.646484,-19.9755,0.000994607,-0.00102657,0.000835712,0.00129539,-0.00132736,0.345481,0.00151428,0.00917566,930,498,-0.646486,19.9755
-287,526,-0.655396,-20.3822,0.00134837,-0.00220232,0.00141595,0.00184388,-0.00269783,0.336627,0.00263756,0.00927013,937,498,-0.655395,20.3822
-280,526,-0.680603,-20.8145,0.00155355,-0.00351025,0.00210821,0.00231635,-0.00427306,0.34717,0.0038599,0.0125086,944,498,-0.680623,20.8145
-273,526,-0.679749,-21.2505,0.00142926,-0.00516868,0.00309222,0.0026519,-0.00639132,0.37653,0.00536784,0.0107144,951,498,-0.679749,21.2505
-266,526,-0.682007,-21.659,0.0015467,-0.00701189,0.00397584,0.00310862,-0.00857381,0.374328,0.00698654,0.0107878,958,498,-0.681982,21.659
-259,526,-0.645142,-22.0219,0.00206595,-0.00949438,0.00492767,0.00388133,-0.0113098,0.352976,0.00911341,0.0220403,965,498,-0.645116,22.0219
-252,526,-0.670105,-22.2004,0.00219561,-0.0129789,0.00627548,0.00445457,-0.0152379,0.345526,0.0119241,0.0349061,972,498,-0.670118,22.2003
-245,526,-0.776245,-22.3445,0.00225653,-0.016864,0.00783841,0.00505908,-0.0196666,0.343377,0.0150829,0.0436847,979,498,-0.776225,22.3445
-238,526,-0.540283,-22.9818,0,0,0,0,0,0,0,-1,986,498,-0.540256,22.9818
-231,526,0.0314331,-22.8536,0,0,0,0,0,0,0,-1,993,498,0.0314631,22.8536
-224,526,-0.292603,-23.2656,0,0,0,0,0,0,0,-1,1000,498,-0.292617,23.2656
-217,526,0.00238037,-23.7004,0,0,0,0,0,0,0,-1,1007,498,0.00235469,23.7004
-210,526,-0.297424,-24.0909,0,0,0,0,0,0,0,-1,1014,498,-0.297426,24.0909
-203,526,-0.659302,-18.8818,0,0,0,0,0,0,0,-1,1021,498,-0.659273,18.8818
-196,526,-0.328247,-12.179,0,0,0,0,0,0,0,-1,1028,498,-0.328238,12.179
-189,526,0.401245,-5.96826,0,0,0,0,0,0,0,-1,1035,498,0.401197,5.96826
-182,526,1.7323,-2.99405,0,0,0,0,0,0,0,-1,1042,498,1.73226,2.99404
-175,526,2.27637,-2.07983,0,0,0,0,0,0,0,-1,1049,498,2.27639,2.07984
-168,526,2.12036,-1.66049,0,0,0,0,0,0,0,-1,1056,498,2.12035,1.66048
-161,526,2.09082,-1.20572,0,0,0,0,0,0,0,-1,1063,498,2.09086,1.2057
-154,526,-1.3446,-5.37799,0,0,0,0,0,0,0,-1,1070,498,-1.34457,5.37799
-147,526,-0.472656,-6.64996,0,0,0,0,0,0,0,-1,1077,498,-0.472659,6.64997
-140,526,0.422852,-8.03339,0,0,0,0,0,0,0,-1,1084,498,0.422844,8.0334
-133,526,1.09583,-9.2215,0,0,0,0,0,0,0,-1,1091,498,1.09581,9.2215
-126,526,3.42529,-2.36053,0,0,0,0,0,0,0,-1,1098,498,3.42523,2.36052
-119,526,2.7771,-0.764099,0,0,0,0,0,0,0,-1,1105,498,2.7771,0.764107
-112,526,2.57715,-1.1893,0,0,0,0,0,0,0,-1,1112,498,2.57718,1.1893
-105,526,0,0,0,0,0,0,0,0,0,-1,1119,498,0,0
-98,526,0,0,0,0,0,0,0,0,0,-1,1126,498,0,0
-91,526,0,0,0,0,0,0,0,0,0,-1,1133,498,0,0
-84,526,0,0,0,0,0,0,0,0,0,-1,1140,498,0,0
-77,526,0,0,0,0,0,0,0,0,0,-1,1147,498,0,0
-70,526,0,0,0,0,0,0,0,0,0,-1,1154,498,0,0
-63,526,0,0,0,0,0,0,0,0,0,-1,1161,498,0,0
-56,526,0,0,0,0,0,0,0,0,0,-1,1168,498,0,0
-49,526,0,0,0,0,0,0,0,0,0,-1,1175,498,0,0
-42,526,0,0,0,0,0,0,0,0,0,-1,1182,498,0,0
-35,526,0,0,0,0,0,0,0,0,0,-1,1189,498,0,0
-28,526,0,0,0,0,0,0,0,0,0,-1,1196,498,0,0
-21,526,0,0,0,0,0,0,0,0,0,-1,1203,498,0,0
-14,526,0,0,0,0,0,0,0,0,0,-1,1210,498,0,0
-7,526,0,0,0,0,0,0,0,0,0,-1,1217,498,0,0
0,526,0,0,0,0,0,0,0,0,0,-1,1224,498,0,0
7,526,0,0,0,0,0,0,0,0,0,-1,1231,498,0,0
14,526,0,0,0,0,0,0,0,0,0,-1,1238,498,0,0
21,526,0,0,0,0,0,0,0,0,0,-1,1245,498,0,0
28,526,0,0,0,0,0,0,0,0,0,-1,1252,498,0,0
35,526,0,0,0,0,0,0,0,0,0,-1,1259,498,0,0
42,526,0,0,0,0,0,0,0,0,0,-1,1266,498,0,0
49,526,0,0,0,0,0,0,0,0,0,-1,1273,498,0,0
56,526,0,0,0,0,0,0,0,0,0,-1,1280,498,0,0
63,526,0,0,0,0,0,0,0,0,0,-1,1287,498,0,0
70,526,0,0,0,0,0,0,0,0,0,-1,1294,498,0,0
77,526,0,0,0,0,0,0,0,0,0,-1,1301,498,0,0
84,526,0,0,0,0,0,0,0,0,0,-1,1308,498,0,0
91,526,0,0,0,0,0,0,0,0,0,-1,1315,498,0,0
98,526,0,0,0,0,0,0,0,0,0,-1,1322,498,0,0
105,526,0,0,0,0,0,0,0,0,0,-1,1329,498,0,0
112,526,0,0,0,0,0,0,0,0,0,-1,1336,498,0,0
119,526,0,0,0,0,0,0,0,0,0,-1,1343,498,0,0
126,526,0,0,0,0,0,0,0,0,0,-1,1350,498,0,0
133,526,0,0,0,0,0,0,0,0,0,-1,1357,498,0,0
140,526,0,0,0,0,0,0,0,0,0,-1,1364,498,0,0
147,526,0,0,0,0,0,0,0,0,0,-1,1371,498,0,0
154,526,0,0,0,0,0,0,0,0,0,-1,1378,498,0,0
161,526,0,0,0,0,0,0,0,0,0,-1,1385,498,0,0
168,526,0,0,0,0,0,0,0,0,0,-1,1392,498,0,0
175,526,0,0,0,0,0,0,0,0,0,-1,1399,498,0,0
182,526,0,0,0,0,0,0,0,0,0,-1,1406,498,0,0
189,526,0,0,0,0,0,0,0,0,0,-1,1413,498,0,0
196,526,0,0,0,0,0,0,0,0,0,-1,1420,498,0,0
203,526,0,0,0,0,0,0,0,0,0,-1,1427,498,0,0
210,526,0,0,0,0,0,0,0,0,0,-1,1434,498,0,0
217,526,0,0,0,0,0,0,0,0,0,-1,1441,498,0,0
224,526,0,0,0,0,0,0,0,0,0,-1,1448,498,0,0
231,526,7.93237,-1.30618,0,0,0,0,0,0,0,-1,1455,498,7.93238,1.30618
238,526,7.97717,-1.08197,0,0,0,0,0,0,0,-1,1462,498,7.97723,1.08196
245,526,7.2793,-0.792938,0,0,0,0,0,0,0,-1,1469,498,7.27931,0.792926
252,526,6.73523,-2.23608,0,0,0,0,0,0,0,-1,1476,498,6.73525,2.23608
259,526,6.22949,-1.84967,0,0,0,0,0,0,0,-1,1483,498,6.22953,1.84968
266,526,5.72375,-1.46329,0,0,0,0,0,0,0,-1,1490,498,5.72381,1.46328
273,526,4.33984,0.49173,0,0,0,0,0,0,0,-1,1497,498,4.33979,-0.491727
280,526,1.4585,-1.59897,0,0,0,0,0,0,0,-1,1504,498,1.45846,1.59895
287,526,1.46411,-2.40134,0,0,0,0,0,0,0,-1,1511,498,1.46406,2.40133
294,526,5.57471,-4.59085,0,0,0,0,0,0,0,-1,1518,498,5.57466,4.59084
301,526,4.42786,-3.99677,0,0,0,0,0,0,0,-1,1525,498,4.42788,3.99676
308,526,5.79529,-4.19366,0,0,0,0,0,0,0,-1,1532,498,5.79528,4.19368
315,526,5.09851,-5.20068,0,0,0,0,0,0,0,-1,1539,498,5.09851,5.20068
322,526,5.50708,-4.72348,0,0,0,0,0,0,0,-1,1546,498,5.50713,4.72347
329,526,3.88672,-4.345,0,0,0,0,0,0,0,-1,1553,498,3.88674,4.34501
336,526,4.97876,-2.23828,0,0,0,0,0,0,0,-1,1560,498,4.97877,2.23828
343,526,3.31665,-2.69696,0,0,0,0,0,0,0,-1,1567,498,3.31667,2.69696
350,526,6.06287,-6.12015,0,0,0,0,0,0,0,-1,1574,498,6.06286,6.12014
357,526,5.79736,-7.7854,0,0,0,0,0,0,0,-1,1581,498,5.79734,7.78539
364,526,9.92993,-22.0049,0,0,0,0,0,0,0,-1,1588,498,9.92996,22.0049
371,526,9.70618,-22.0275,0,0,0,0,0,0,0,-1,1595,498,9.70623,22.0275
378,526,9.61633,-21.6606,0,0,0,0,0,0,0,-1,1602,498,9.61639,21.6607
385,526,9.88782,-21.2689,0,0,0,0,0,0,0,-1,1609,498,9.88781,21.2688
392,526,9.92773,-20.6445,0.000382183,-0.00172432,-0.00169228,0.00132221,-0.00266435,-0.507039,0.00234472,0.0442475,1616,498,9.92773,20.6445
399,526,9.828,-20.2056,0.000660469,-0.000895559,-0.00115015,0.00127103,-0.00150612,-0.488027,0.00160531,0.0236151,1623,498,9.82806,20.2056
406,526,9.8645,-19.7281,0.000860425,-4.08643e-05,-0.000745521,0.00128092,-0.000461358,-0.513549,0.00104234,0.0120744,1630,498,9.86451,19.7282
413,526,9.85339,-19.2729,0.00120357,0.000700438,-0.000259754,0.0013136,0.000590399,-0.400707,0.000759701,0.0121102,1637,498,9.85337,19.2729
420,526,9.84814,-18.8324,0.00139783,0.00115264,0.000197546,0.00150773,0.00104274,0.507683,0.000891536,0.0124427,1644,498,9.84809,18.8324
427,526,9.85474,-18.3633,0.00131791,0.00131059,0.000441918,0.00175618,0.000872315,0.781261,0.00101394,0.0135768,1651,498,9.8547,18.3633
434,526,9.83264,-17.8837,0.00116248,0.00125551,0.000683979,0.00189456,0.000523439,0.819349,0.00112973,0.0128288,1658,498,9.83262,17.8836
441,526,9.82251,-17.4182,0.000991665,0.00101271,0.000901304,0.00190355,0.000100822,0.791235,0.0012368,0.0120073,1665,498,9.82255,17.4181
448,526,9.81665,-16.9764,0.00082551,0.000630315,0.00110064,0.00183287,-0.000377049,0.741177,0.00136507,0.0114097,1672,498,9.81659,16.9764
455,526,9.79834,-16.5217,0.000594169,0.000169646,0.00122326,0.00162345,-0.00085963,0.699493,0.00145604,0.0142323,1679,498,9.79834,16.5217
462,526,9.78003,-16.0027,0.000373052,-0.000470854,0.00132109,0.00133794,-0.00143574,0.63082,0.00160172,0.0102542,1686,498,9.78,16.0027
469,526,9.77124,-15.5308,1.15707e-05,-0.00126486,0.00145796,0.000964885,-0.00221818,0.579089,0.00188463,0.00803051,1693,498,9.77122,15.5308
476,526,9.75183,-15.0424,-0.000542418,-0.00208703,0.0015286,0.000397901,-0.00302735,0.551485,0.0021631,0.010052,1700,498,9.75183,15.0423
483,526,9.76111,-14.5119,-0.00116761,-0.00307667,0.00153742,-0.000312502,-0.00393178,0.507588,0.00252347,0.0126983,1707,498,9.76108,14.5119
490,526,9.83936,-13.9479,-0.00194985,-0.00428287,0.00160997,-0.00112821,-0.00510451,0.471891,0.00309623,0.0241164,1714,498,9.83936,13.9479
497,526,9.78394,-13.6297,-0.00300263,-0.00576153,0.00162812,-0.00224815,-0.00651601,0.433945,0.00382178,0.0294098,1721,498,9.78392,13.6297
504,526,9.76013,-13.1185,-0.00446619,-0.00730654,0.00162334,-0.00372949,-0.00804324,0.426026,0.00464785,0.0339234,1728,498,9.76011,13.1185
511,526,9.88062,-12.6986,-0.0063316,-0.00890828,0.00166109,-0.00551779,-0.00972209,0.455557,0.0056301,0.0429027,1735,498,9.88065,12.6986
518,526,9.9209,-12.1962,-0.00844685,-0.0107124,0.00177344,-0.00747527,-0.0116839,0.50119,0.00683304,0.0456374,1742,498,9.92095,12.1962
525,526,9.76721,-11.875,0,0,0,0,0,0,0,-1,1749,498,9.76723,11.875
532,526,9.36365,-11.4988,0,0,0,0,0,0,0,-1,1756,498,9.36367,11.4988
539,526,3.29407,0.932312,0,0,0,0,0,0,0,-1,1763,498,3.2941,-0.93232
546,526,3.36731,1.07721,0,0,0,0,0,0,0,-1,1770,498,3.36735,-1.07719
553,526,3.40796,1.37137,0,0,0,0,0,0,0,-1,1777,498,3.40792,-1.37138
560,526,0,0,0,0,0,0,0,0,0,-1,1784,498,0,0
567,526,0,0,0,0,0,0,0,0,0,-1,1791,498,0,0
574,526,0,0,0,0,0,0,0,0,0,-1,1798,498,0,0
581,526,0,0,0,0,0,0,0,0,0,-1,1805,498,0,0
588,526,0,0,0,0,0,0,0,0,0,-1,1812,498,0,0
595,526,0,0,0,0,0,0,0,0,0,-1,1819,498,0,0
602,526,0,0,0,0,0,0,0,0,0,-1,1826,498,0,0
609,526,0,0,0,0,0,0,0,0,0,-1,1833,498,0,0
616,526,0,0,0,0,0,0,0,0,0,-1,1840,498,0,0
623,526,0,0,0,0,0,0,0,0,0,-1,1847,498,0,0
630,526,0,0,0,0,0,0,0,0,0,-1,1854,498,0,0
637,526,0,0,0,0,0,0,0,0,0,-1,1861,498,0,0
644,526,0,0,0,0,0,0,0,0,0,-1,1868,498,0,0
651,526,0,0,0,0,0,0,0,0,0,-1,1875,498,0,0
658,526,0,0,0,0,0,0,0,0,0,-1,1882,498,0,0
665,526,0,0,0,0,0,0,0,0,0,-1,1889,498,0,0
672,526,0,0,0,0,0,0,0,0,0,-1,1896,498,0,0
679,526,0,0,0,0,0,0,0,0,0,-1,1903,498,0,0
686,526,0,0,0,0,0,0,0,0,0,-1,1910,498,0,0
693,526,0,0,0,0,0,0,0,0,0,-1,1917,498,0,0
700,526,0,0,0,0,0,0,0,0,0,-1,1924,498,0,0
707,526,0,0,0,0,0,0,0,0,0,-1,1931,498,0,0
714,526,0,0,0,0,0,0,0,0,0,-1,1938,498,0,0
721,526,0,0,0,0,0,0,0,0,0,-1,1945,498,0,0
728,526,0,0,0,0,0,0,0,0,0,-1,1952,498,0,0
735,526,0,0,0,0,0,0,0,0,0,-1,1959,498,0,0
742,526,0,0,0,0,0,0,0,0,0,-1,1966,498,0,0
749,526,0,0,0,0,0,0,0,0,0,-1,1973,498,0,0
756,526,0,0,0,0,0,0,0,0,0,-1,1980,498,0,0
763,526,0,0,0,0,0,0,0,0,0,-1,1987,498,0,0
770,526,0,0,0,0,0,0,0,0,0,-1,1994,498,0,0
777,526,0,0,0,0,0,0,0,0,0,-1,2001,498,0,0
784,526,0,0,0,0,0,0,0,0,0,-1,2008,498,0,0
791,526,0,0,0,0,0,0,0,0,0,-1,2015,498,0,0
798,526,0,0,0,0,0,0,0,0,0,-1,2022,498,0,0
805,526,0,0,0,0,0,0,0,0,0,-1,2029,498,0,0
812,526,0,0,0,0,0,0,0,0,0,-1,2036,498,0,0
-700,519,0,0,0,0,0,0,0,0,0,-1,524,505,0,0
-693,519,0,0,0,0,0,0,0,0,0,-1,531,505,0,0
-686,519,0,0,0,0,0,0,0,0,0,-1,538,505,0,0
-679,519,0,0,0,0,0,0,0,0,0,-1,545,505,0,0
-672,519,0,0,0,0,0,0,0,0,0,-1,552,505,0,0
-665,519,0,0,0,0,0,0,0,0,0,-1,559,505,0,0
-658,519,0,0,0,0,0,0,0,0,0,-1,566,505,0,0
-651,519,0,0,0,0,0,0,0,0,0,-1,573,505,0,0
-644,519,0,0,0,0,0,0,0,0,0,-1,580,505,0,0
-637,519,0,0,0,0,0,0,0,0,0,-1,587,505,0,0
-630,519,0,0,0,0,0,0,0,0,0,-1,594,505,0,0
-623,519,0,0,0,0,0,0,0,0,0,-1,601,505,0,0
-616,519,0,0,0,0,0,0,0,0,0,-1,608,505,0,0
-609,519,0,0,0,0,0,0,0,0,0,-1,615,505,0,0
-602,519,0,0,0,0,0,0,0,0,0,-1,622,505,0,0
-595,519,0,0,0,0,0,0,0,0,0,-1,629,505,0,0
-588,519,0,0,0,0,0,0,0,0,0,-1,636,505,0,0
-581,519,0,0,0,0,0,0,0,0,0,-1,643,505,0,0
-574,519,0,0,0,0,0,0,0,0,0,-1,650,505,0,0
-567,519,0,0,0,0,0,0,0,0,0,-1,657,505,0,0
-560,519,0,0,0,0,0,0,0,0,0,-1,664,505,0,0
-553,519,0,0,0,0,0,0,0,0,0,-1,671,505,0,0
-546,519,0,0,0,0,0,0,0,0,0,-1,678,505,0,0
-539,519,0,0,0,0,0,0,0,0,0,-1,685,505,0,0
-532,519,0,0,0,0,0,0,0,0,0,-1,692,505,0,0
-525,519,0,0,0,0,0,0,0,0,0,-1,699,505,0,0
-518,519,0,0,0,0,0,0,0,0,0,-1,706,505,0,0
-511,519,0,0,0,0,0,0,0,0,0,-1,713,505,0,0
-504,519,0,0,0,0,0,0,0,0,0,-1,720,505,0,0
-497,519,0,0,0,0,0,0,0,0,0,-1,727,505,0,0
-490,519,0,0,0,0,0,0,0,0,0,-1,734,505,0,0
-483,519,0,0,0,0,0,0,0,0,0,-1,741,505,0,0
-476,519,0,0,0,0,0,0,0,0,0,-1,748,505,0,0
-469,519,0,0,0,0,0,0,0,0,0,-1,755,505,0,0
-462,519,0,0,0,0,0,0,0,0,0,-1,762,505,0,0
-455,519,0,0,0,0,0,0,0,0,0,-1,769,505,0,0
-448,519,0,0,0,0,0,0,0,0,0,-1,776,505,0,0
-441,519,1.34839,-5.29346,0,0,0,0,0,0,0,-1,783,505,1.3484,5.29347
-434,519,0.949585,-5.77313,0,0,0,0,0,0,0,-1,790,505,0.949598,5.77315
-427,519,-0.0523682,-9.31567,0,0,0,0,0,0,0,-1,797,505,-0.0523854,9.31568
-420,519,-1.04669,-9.8855,0,0,0,0,0,0,0,-1,804,505,-1.04669,9.88547
-413,519,-2.14728,-12.5604,0,0,0,0,0,0,0,-1,811,505,-2.14725,12.5604
-406,519,-0.983887,-11.4449,0,0,0,0,0,0,0,-1,818,505,-0.983898,11.4449
-399,519,-0.944031,-12.1539,0,0,0,0,0,0,0,-1,825,505,-0.944052,12.1539
-392,519,-0.74646,-13.2907,0,0,0,0,0,0,0,-1,832,505,-0.746476,13.2907
-385,519,-1.19983,-13.8001,0,0,0,0,0,0,0,-1,839,505,-1.19984,13.8001
-378,519,-0.804443,-14.0317,0,0,0,0,0,0,0,-1,846,505,-0.804437,14.0317
-371,519,-0.93042,-14.789,0.00665173,0.00658934,-0.00697647,0.0135971,-0.000356002,-0.783163,0.00918568,0.0163105,853,505,-0.930447,14.789
-364,519,-0.964417,-15.3803,0.00420224,0.00516939,-0.00519162,0.00989991,-0.000528285,-0.831837,0.00678289,0.0105386,860,505,-0.964438,15.3803
-357,519,-0.958496,-15.893,0.00248256,0.00411996,-0.00385516,0.00724239,-0.000639872,-0.890026,0.00505507,0.0100001,867,505,-0.958506,15.893
-350,519,-0.972656,-16.357,0.00127474,0.00294805,-0.00264192,0.00488263,-0.000659838,-0.938744,0.00349586,0.0120493,874,505,-0.972669,16.357
-343,519,-1.0293,-16.8029,0.000140137,0.0022834,-0.00170841,0.00322847,-0.000804926,-1.06551,0.00246483,0.0148816,881,505,-1.02928,16.8029
-336,519,-1.07623,-17.2672,-9.11012e-05,0.00182339,-0.0011961,0.00239813,-0.000665838,-1.12286,0.00186084,0.015634,888,505,-1.07624,17.2672
-329,519,-1.07159,-17.7497,0.000147895,0.00137549,-0.000875777,0.00183115,-0.000307762,-1.09105,0.00133523,0.0138316,895,505,-1.07157,17.7497
-322,519,-1.06372,-18.2124,0.0004297,0.00090965,-0.000572433,0.00129037,4.89759e-05,-0.983881,0.000844398,0.0112194,902,505,-1.06373,18.2124
-315,519,-1.07068,-18.6892,0.000745506,0.000500758,-0.000230981,0.000884528,0.000361737,-0.541797,0.000513497,0.00938181,909,505,-1.07068,18.6892
-308,519,-1.09094,-19.1565,0.00109388,4.4559e-05,0.000111495,0.0011056,3.28429e-05,0.104697,0.000726363,0.00821394,916,505,-1.09092,19.1565
-301,519,-1.10419,-19.5616,0.00139215,-0.000683507,0.000533256,0.00152113,-0.00081249,0.237321,0.00136787,0.0127267,923,505,-1.10418,19.5616
-294,519,-1.10162,-19.9352,0.00160701,-0.00188981,0.00113948,0.00194555,-0.00222835,0.288793,0.00241165,0.0145283,930,505,-1.10164,19.9352
-287,519,-1.12482,-20.3774,0.00190392,-0.00299584,0.00168862,0.0024295,-0.00352142,0.301743,0.00345499,0.0108525,937,505,-1.12483,20.3774
-280,519,-1.14417,-20.8165,0.00205339,-0.00433339,0.00245646,0.00288889,-0.00516888,0.327848,0.00471383,0.0167192,944,505,-1.14414,20.8164
-273,519,-1.11267,-21.2501,0.00204479,-0.00608911,0.00349919,0.00334295,-0.00738727,0.355249,0.00634008,0.0298874,951,505,-1.11265,21.2501
-266,519,-1.1759,-21.6688,0.00214517,-0.0083565,0.00466155,0.00391583,-0.0101272,0.363009,0.00836791,0.0443985,958,505,-1.17592,21.6688
-259,519,-1.04236,-22.0742,0,0,0,0,0,0,0,-1,965,505,-1.04234,22.0742
-252,519,-1.13977,-21.9458,0,0,0,0,0,0,0,-1,972,505,-1.13974,21.9458
-245,519,-1.15643,-21.7659,0,0,0,0,0,0,0,-1,979,505,-1.1564,21.7659
-238,519,0.523621,-16.4753,0,0,0,0,0,0,0,-1,986,505,0.523651,16.4753
-231,519,0.337585,-11.2798,0,0,0,0,0,0,0,-1,993,505,0.337568,11.2798
-224,519,-0.0494995,-7.97394,0,0,0,0,0,0,0,-1,1000,505,-0.0495123,7.97392
-217,519,-0.283691,-23.8409,0,0,0,0,0,0,0,-1,1007,505,-0.283683,23.8409
-210,519,-2.14398,-4.74774,0,0,0,0,0,0,0,-1,1014,505,-2.14397,4.74775
-203,519,-0.513611,-5.39017,0,0,0,0,0,0,0,-1,1021,505,-0.513585,5.39017
-196,519,-0.374023,-5.41635,0,0,0,0,0,0,0,-1,1028,505,-0.374047,5.41635
-189,519,-0.234497,-5.44254,0,0,0,0,0,0,0,-1,1035,505,-0.234508,5.44253
-182,519,2.76697,-1.19659,0,0,0,0,0,0,0,-1,1042,505,2.76696,1.19661
-175,519,2.31323,-0.960938,0,0,0,0,0,0,0,-1,1049,505,2.31319,0.960941
-168,519,2.01074,-0.721405,0,0,0,0,0,0,0,-1,1056,505,2.01072,0.721407
-161,519,2.32056,-0.522339,0,0,0,0,0,0,0,-1,1063,505,2.32057,0.522328
-154,519,2.55566,0.116669,0,0,0,0,0,0,0,-1,1070,505,2.55563,-0.116661
-147,519,-0.55127,-6.14001,0,0,0,0,0,0,0,-1,1077,505,-0.551252,6.14001
-140,519,0.240601,-7.53503,0,0,0,0,0,0,0,-1,1084,505,0.240653,7.53501
-133,519,2.70911,-4.4516,0,0,0,0,0,0,0,-1,1091,505,2.70915,4.45161
-126,519,0,0,0,0,0,0,0,0,0,-1,1098,505,0,0
-119,519,0,0,0,0,0,0,0,0,0,-1,1105,505,0,0
-112,519,0,0,0,0,0,0,0,0,0,-1,1112,505,0,0
-105,519,0,0,0,0,0,0,0,0,0,-1,1119,505,0,0
-98,519,0,0,0,0,0,0,0,0,0,-1,1126,505,0,0
-91,519,0,0,0,0,0,0,0,0,0,-1,1133,505,0,0
-84,519,0,0,0,0,0,0,0,0,0,-1,1140,505,0,0
-77,519,0,0,0,0,0,0,0,0,0,-1,1147,505,0,0
-70,519,0,0,0,0,0,0,0,0,0,-1,1154,505,0,0
-63,519,0,0,0,0,0,0,0,0,0,-1,1161,505,0,0
-56,519,0,0,0,0,0,0,0,0,0,-1,1168,505,0,0
-49,519,0,0,0,0,0,0,0,0,0,-1,1175,505,0,0
-42,519,0,0,0,0,0,0,0,0,0,-1,1182,505,0,0
-35,519,0,0,0,0,0,0,0,0,0,-1,1189,505,0,0
-28,519,0,0,0,0,0,0,0,0,0,-1,1196,505,0,0
-21,519,0,0,0,0,0,0,0,0,0,-1,1203,505,0,0
-14,519,0,0,0,0,0,0,0,0,0,-1,1210,505,0,0
-7,519,0,0,0,0,0,0,0,0,0,-1,1217,505,0,0
0,519,0,0,0,0,0,0,0,0,0,-1,1224,505,0,0
7,519,0,0,0,0,0,0,0,0,0,-1,1231,505,0,0
14,519,0,0,0,0,0,0,0,0,0,-1,1238,505,0,0
21,519,0,0,0,0,0,0,0,0,0,-1,1245,505,0,0
28,519,0,0,0,0,0,0,0,0,0,-1,1252,505,0,0
35,519,0,0,0,0,0,0,0,0,0,-1,1259,505,0,0
42,519,0,0,0,0,0,0,0,0,0,-1,1266,505,0,0
49,519,0,0,0,0,0,0,0,0,0,-1,1273,505,0,0
56,519,0,0,0,0,0,0,0,0,0,-1,1280,505,0,0
63,519,0,0,0,0,0,0,0,0,0,-1,1287,505,0,0
70,519,0,0,0,0,0,0,0,0,0,-1,1294,505,0,0
77,519,0,0,0,0,0,0,0,0,0,-1,1301,505,0,0
84,519,0,0,0,0,0,0,0,0,0,-1,1308,505,0,0
91,519,0,0,0,0,0,0,0,0,0,-1,1315,505,0,0
98,519,0,0,0,0,0,0,0,0,0,-1,1322,505,0,0
105,519,0,0,0,0,0,0,0,0,0,-1,1329,505,0,0
112,519,0,0,0,0,0,0,0,0,0,-1,1336,505,0,0
119,519,0,0,0,0,0,0,0,0,0,-1,1343,505,0,0
126,519,0,0,0,0,0,0,0,0,0,-1,1350,505,0,0
133,519,0,0,0,0,0,0,0,0,0,-1,1357,505,0,0
140,519,0,0,0,0,0,0,0,0,0,-1,1364,505,0,0
147,519,0,0,0,0,0,0,0,0,0,-1,1371,505,0,0
154,519,0,0,0,0,0,0,0,0,0,-1,1378,505,0,0
161,519,0,0,0,0,0,0,0,0,0,-1,1385,505,0,0
168,519,0,0,0,0,0,0,0,0,0,-1,1392,505,0,0
175,519,0,0,0,0,0,0,0,0,0,-1,1399,505,0,0
182,519,0,0,0,0,0,0,0,0,0,-1,1406,505,0,0
189,519,0,0,0,0,0,0,0,0,0,-1,1413,505,0,0
196,519,0,0,0,0,0,0,0,0,0,-1,1420,505,0,0
203,519,0,0,0,0,0,0,0,0,0,-1,1427,505,0,0
210,519,0,0,0,0,0,0,0,0,0,-1,1434,505,0,0
217,519,0,0,0,0,0,0,0,0,0,-1,1441,505,0,0
224,519,0,0,0,0,0,0,0,0,0,-1,1448,505,0,0
231,519,0,0,0,0,0,0,0,0,0,-1,1455,505,0,0
238,519,0,0,0,0,0,0,0,0,0,-1,1462,505,0,0
245,519,0,0,0,0,0,0,0,0,0,-1,1469,505,0,0
252,519,5.26208,0.0938416,0,0,0,0,0,0,0,-1,1476,505,5.26207,-0.0938493
259,519,6.14246,-1.36441,0,0,0,0,0,0,0,-1,1483,505,6.14241,1.36441
266,519,5.31909,-0.400787,0,0,0,0,0,0,0,-1,1490,505,5.31912,0.400773
273,519,4.02393,0.325531,0,0,0,0,0,0,0,-1,1497,505,4.0239,-0.325522
280,519,4.68848,0.53006,0,0,0,0,0,0,0,-1,1504,505,4.68842,-0.530073
287,519,7.9519,-3.80801,0,0,0,0,0,0,0,-1,1511,505,7.95193,3.808
294,519,6.92273,-3.38889,0,0,0,0,0,0,0,-1,1518,505,6.92268,3.38888
301,519,5.35669,-2.92661,0,0,0,0,0,0,0,-1,1525,505,5.35675,2.9266
308,519,7.37549,-5.64529,0,0,0,0,0,0,0,-1,1532,505,7.3755,5.64529
315,519,6.30029,-4.53754,0,0,0,0,0,0,0,-1,1539,505,6.30024,4.53753
322,519,5.84302,-5.45117,0,0,0,0,0,0,0,-1,1546,505,5.84303,5.45116
329,519,4.92407,0.62384,0,0,0,0,0,0,0,-1,1553,505,4.92403,-0.623832
336,519,3.10095,-0.329285,0,0,0,0,0,0,0,-1,1560,505,3.1009,0.329283
343,519,2.49146,-2.31119,0,0,0,0,0,0,0,-1,1567,505,2.49145,2.31119
350,519,3.47729,-2.22516,0,0,0,0,0,0,0,-1,1574,505,3.47726,2.22515
357,519,4.51917,-4.51691,0,0,0,0,0,0,0,-1,1581,505,4.51914,4.51691
364,519,3.54626,-7.20673,0,0,0,0,0,0,0,-1,1588,505,3.54622,7.20675
371,519,5.349,-8.20068,0,0,0,0,0,0,0,-1,1595,505,5.34898,8.20068
378,519,6.36597,-10.0967,0,0,0,0,0,0,0,-1,1602,505,6.36597,10.0967
385,519,6.24756,-9.72186,0,0,0,0,0,0,0,-1,1609,505,6.24752,9.72183
392,519,10.1755,-20.9206,0,0,0,0,0,0,0,-1,1616,505,10.1755,20.9206
399,519,10.188,-20.2007,0,0,0,0,0,0,0,-1,1623,505,10.188,20.2007
406,519,10.2794,-19.7225,0.000802464,-9.05029e-05,-0.00123958,0.00167352,-0.000961558,-0.612537,0.00153976,0.0360747,1630,505,10.2794,19.7225
413,519,10.3396,-19.2773,0.00132913,0.000678638,-0.000717591,0.00179174,0.000216024,-0.572624,0.00112939,0.0157903,1637,505,10.3396,19.2773
420,519,10.3151,-18.8182,0.00163392,0.00111628,-0.000205255,0.00170543,0.00104477,-0.335239,0.000992919,0.0156099,1644,505,10.3151,18.8182
427,519,10.3243,-18.3818,0.00161356,0.00129136,6.02158e-05,0.00162444,0.00128048,0.178852,0.000988461,0.0146229,1651,505,10.3244,18.3818
434,519,10.3153,-17.8954,0.00141415,0.00125413,0.000315774,0.00165989,0.00100838,0.661318,0.000965693,0.0133051,1658,505,10.3153,17.8955
441,519,10.2913,-17.4029,0.00126935,0.00109306,0.000571315,0.00175928,0.000603127,0.70886,0.00103231,0.0129003,1665,505,10.2913,17.4029
448,519,10.2806,-16.9393,0.00118557,0.000809274,0.000826301,0.00184487,0.00014997,0.673458,0.0011831,0.0101309,1672,505,10.2806,16.9392
455,519,10.2732,-16.4822,0.00104798,0.000493917,0.00101896,0.0018269,-0.000284999,0.652668,0.0013232,0.0115538,1679,505,10.2732,16.4822
462,519,10.2594,-16.0007,0.000932514,5.98596e-05,0.00120752,0.00178012,-0.000787747,0.612027,0.00151901,0.0101219,1686,505,10.2594,16.0007
469,519,10.2629,-15.5179,0.000719279,-0.000508393,0.00145439,0.00168407,-0.00147318,0.585711,0.00182419,0.0107709,1693,505,10.2629,15.5179
476,519,10.2428,-15.019,0.000323059,-0.00109372,0.00166468,0.00142381,-0.00219447,0.584234,0.00210475,0.0132573,1700,505,10.2428,15.019
483,519,10.2202,-14.5299,-0.000142093,-0.00181682,0.00180498,0.0010103,-0.00296921,0.568214,0.00238856,0.0149884,1707,505,10.2202,14.5299
490,519,10.207,-13.9917,-0.00077318,-0.00271371,0.00197839,0.000460065,-0.00394695,0.557417,0.0027973,0.0130529,1714,505,10.207,13.9917
497,519,10.184,-13.5314,-0.00163372,-0.00378135,0.00213847,-0.000314596,-0.00510047,0.552718,0.00330045,0.0158324,1721,505,10.184,13.5314
504,519,10.1478,-13.0003,-0.00285746,-0.00490442,0.00224003,-0.00141817,-0.00634371,0.571108,0.00384461,0.0158842,1728,505,10.1478,13.0003
511,519,10.1525,-12.4806,-0.00446446,-0.00605547,0.00232027,-0.00280711,-0.00771282,0.620253,0.00450761,0.0217233,1735,505,10.1525,12.4806
518,519,10.046,-12.1127,-0.00640023,-0.0073735,0.00234405,-0.00449283,-0.00928089,0.68305,0.00535923,0.0402896,1742,505,10.046,12.1128
525,519,10.0144,-11.7879,0,0,0,0,0,0,0,-1,1749,505,10.0145,11.7879
532,519,3.5155,-2.86511,0,0,0,0,0,0,0,-1,1756,505,3.51554,2.8651
539,519,3.30005,0.0229797,0,0,0,0,0,0,0,-1,1763,505,3.30008,-0.0229869
546,519,4.62024,-2.89774,0,0,0,0,0,0,0,-1,1770,505,4.62023,2.89775
553,519,4.14136,0.0667419,0,0,0,0,0,0,0,-1,1777,505,4.14141,-0.0667503
560,519,3.77856,0.279724,0,0,0,0,0,0,0,-1,1784,505,3.77861,-0.279731
567,519,0,0,0,0,0,0,0,0,0,-1,1791,505,0,0
574,519,0,0,0,0,0,0,0,0,0,-1,1798,505,0,0
581,519,0,0,0,0,0,0,0,0,0,-1,1805,505,0,0
588,519,0,0,0,0,0,0,0,0,0,-1,1812,505,0,0
595,519,0,0,0,0,0,0,0,0,0,-1,1819,505,0,0
602,519,0,0,0,0,0,0,0,0,0,-1,1826,505,0,0
609,519,0,0,0,0,0,0,0,0,0,-1,1833,505,0,0
616,519,0,0,0,0,0,0,0,0,0,-1,1840,505,0,0
623,519,0,0,0,0,0,0,0,0,0,-1,1847,505,0,0
630,519,0,0,0,0,0,0,0,0,0,-1,1854,505,0,0
637,519,0,0,0,0,0,0,0,0,0,-1,1861,505,0,0
644,519,0,0,0,0,0,0,0,0,0,-1,1868,505,0,0
651,519,0,0,0,0,0,0,0,0,0,-1,1875,505,0,0
658,519,0,0,0,0,0,0,0,0,0,-1,1882,505,0,0
665,519,0,0,0,0,0,0,0,0,0,-1,1889,505,0,0
672,519,0,0,0,0,0,0,0,0,0,-1,1896,505,0,0
679,519,0,0,0,0,0,0,0,0,0,-1,1903,505,0,0
686,519,0,0,0,0,0,0,0,0,0,-1,1910,505,0,0
693,519,0,0,0,0,0,0,0,0,0,-1,1917,505,0,0
700,519,0,0,0,0,0,0,0,0,0,-1,1924,505,0,0
707,519,0,0,0,0,0,0,0,0,0,-1,1931,505,0,0
714,519,0,0,0,0,0,0,0,0,0,-1,1938,505,0,0
721,519,0,0,0,0,0,0,0,0,0,-1,1945,505,0,0
728,519,0,0,0,0,0,0,0,0,0,-1,1952,505,0,0
735,519,0,0,0,0,0,0,0,0,0,-1,1959,505,0,0
742,519,0,0,0,0,0,0,0,0,0,-1,1966,505,0,0
749,519,0,0,0,0,0,0,0,0,0,-1,1973,505,0,0
756,519,0,0,0,0,0,0,0,0,0,-1,1980,505,0,0
763,519,0,0,0,0,0,0,0,0,0,-1,1987,505,0,0
770,519,0,0,0,0,0,0,0,0,0,-1,1994,505,0,0
777,519,0,0,0,0,0,0,0,0,0,-1,2001,505,0,0
784,519,0,0,0,0,0,0,0,0,0,-1,2008,505,0,0
791,519,0,0,0,0,0,0,0,0,0,-1,2015,505,0,0
798,519,0,0,0,0,0,0,0,0,0,-1,2022,505,0,0
805,519,0,0,0,0,0,0,0,0,0,-1,2029,505,0,0
812,519,0,0,0,0,0,0,0,0,0,-1,2036,505,0,0
-700,512,0,0,0,0,0,0,0,0,0,-1,524,512,0,0
-693,512,0,0,0,0,0,0,0,0,0,-1,531,512,0,0
-686,512,0,0,0,0,0,0,0,0,0,-1,538,512,0,0
-679,512,0,0,0,0,0,0,0,0,0,-1,545,512,0,0
-672,512,0,0,0,0,0,0,0,0,0,-1,552,512,0,0
-665,512,0,0,0,0,0,0,0,0,0,-1,559,512,0,0
-658,512,0,0,0,0,0,0,0,0,0,-1,566,512,0,0
-651,512,0,0,0,0,0,0,0,0,0,-1,573,512,0,0
-644,512,0,0,0,0,0,0,0,0,0,-1,580,512,0,0
-637,512,0,0,0,0,0,0,0,0,0,-1,587,512,0,0
-630,512,0,0,0,0,0,0,0,0,0,-1,594,512,0,0
-623,512,0,0,0,0,0,0,0,0,0,-1,601,512,0,0
-616,512,0,0,0,0,0,0,0,0,0,-1,608,512,0,0
-609,512,0,0,0,0,0,0,0,0,0,-1,615,512,0,0
-602,512,0,0,0,0,0,0,0,0,0,-1,622,512,0,0
-595,512,0,0,0,0,0,0,0,0,0,-1,629,512,0,0
-588,512,0,0,0,0,0,0,0,0,0,-1,636,512,0,0
-581,512,0,0,0,0,0,0,0,0,0,-1,643,512,0,0
-574,512,0,0,0,0,0,0,0,0,0,-1,650,512,0,0
-567,512,0,0,0,0,0,0,0,0,0,-1,657,512,0,0
-560,512,0,0,0,0,0,0,0,0,0,-1,664,512,0,0
-553,512,0,0,0,0,0,0,0,0,0,-1,671,512,0,0
-546,512,0,0,0,0,0,0,0,0,0,-1,678,512,0,0
-539,512,0,0,0,0,0,0,0,0,0,-1,685,512,0,0
-532,512,0,0,0,0,0,0,0,0,0,-1,692,512,0,0
-525,512,0,0,0,0,0,0,0,0,0,-1,699,512,0,0
-518,512,0,0,0,0,0,0,0,0,0,-1,706,512,0,0
-511,512,0,0,0,0,0,0,0,0,0,-1,713,512,0,0
-504,512,0,0,0,0,0,0,0,0,0,-1,720,512,0,0
-497,512,0,0,0,0,0,0,0,0,0,-1,727,512,0,0
-490,512,0,0,0,0,0,0,0,0,0,-1,734,512,0,0
-483,512,0,0,0,0,0,0,0,0,0,-1,741,512,0,0
-476,512,0,0,0,0,0,0,0,0,0,-1,748,512,0,0
-469,512,0,0,0,0,0,0,0,0,0,-1,755,512,0,0
-462,512,0,0,0,0,0,0,0,0,0,-1,762,512,0,0
-455,512,0,0,0,0,0,0,0,0,0,-1,769,512,0,0
-448,512,1.96283,-4.15674,0,0,0,0,0,0,0,-1,776,512,1.96285,4.15677
-441,512,1.78198,-4.88824,0,0,0,0,0,0,0,-1,783,512,1.78201,4.88826
-434,512,0.0726929,-9.85822,0,0,0,0,0,0,0,-1,790,512,0.0727008,9.85819
-427,512,-0.384583,-9.94824,0,0,0,0,0,0,0,-1,797,512,-0.384552,9.94823
-420,512,-2.54126,-12.1921,0,0,0,0,0,0,0,-1,804,512,-2.54126,12.1921
-413,512,-2.42139,-11.0782,0,0,0,0,0,0,0,-1,811,512,-2.42136,11.0782
-406,512,-2.16052,-11.8353,0,0,0,0,0,0,0,-1,818,512,-2.16052,11.8353
-399,512,-1.69867,-12.4365,0.0210322,0.0169443,-0.0168538,0.0359656,0.00201092,-0.725055,0.0233356,0.0487983,825,512,-1.69865,12.4365
-392,512,-1.34027,-13.3268,0.0159134,0.0130514,-0.0134799,0.0280381,0.000926755,-0.732517,0.0183909,0.0378838,832,512,-1.34027,13.3268
-385,512,-1.36554,-13.8969,0.0116523,0.00990255,-0.0104302,0.0212443,0.000310599,-0.743556,0.0140605,0.0183791,839,512,-1.36555,13.8969
-378,512,-1.38904,-14.3653,0.00837488,0.00752736,-0.00804003,0.0160023,-0.000100073,-0.75907,0.0107017,0.013966,846,512,-1.38906,14.3653
-371,512,-1.40466,-14.8799,0.00587268,0.00565293,-0.00612127,0.0118851,-0.000359447,-0.776424,0.00804587,0.0117479,853,512,-1.40468,14.8799
-364,512,-1.4248,-15.4304,0.00393606,0.00418839,-0.00453641,0.00860039,-0.00047594,-0.799301,0.00589864,0.00937267,860,512,-1.4248,15.4304
-357,512,-1.41949,-15.9095,0.00258357,0.00313219,-0.00332018,0.00618937,-0.000473609,-0.826615,0.00429283,0.0101004,867,512,-1.41947,15.9095
-350,512,-1.43555,-16.3763,0.00164648,0.00199424,-0.00223489,0.004062,-0.000421287,-0.824221,0.0028588,0.0107976,874,512,-1.43556,16.3763
-343,512,-1.49963,-16.8333,0.000749303,0.00134194,-0.00139685,0.00247356,-0.00038231,-0.889916,0.00179013,0.0124918,881,512,-1.49963,16.8333
-336,512,-1.52411,-17.2965,0.000612633,0.000883105,-0.000928446,0.00168611,-0.000190375,-0.857719,0.00119261,0.0146902,888,512,-1.52412,17.2965
-329,512,-1.49072,-17.7636,0.000876837,0.000453473,-0.000638786,0.0013381,-7.79156e-06,-0.625402,0.000894676,0.0161523,895,512,-1.4907,17.7636
-322,512,-1.50476,-18.2295,0.00114256,3.23794e-05,-0.00035686,0.00124738,-7.24351e-05,-0.285679,0.000856751,0.0129799,902,512,-1.50475,18.2295
-315,512,-1.52985,-18.6793,0.00141809,-0.000327111,-4.30559e-05,0.00141916,-0.000328173,-0.024651,0.00107237,0.011061,909,512,-1.52984,18.6793
-308,512,-1.54907,-19.1219,0.00174262,-0.000726678,0.000282196,0.00177446,-0.000758517,0.112352,0.00150111,0.0110092,916,512,-1.54905,19.1219
-301,512,-1.55048,-19.5453,0.00199028,-0.00135173,0.000698758,0.0021305,-0.00149195,0.198034,0.00210222,0.0155109,923,512,-1.55049,19.5453
-294,512,-1.54376,-19.9543,0.00208488,-0.0025102,0.00132031,0.00243723,-0.00286255,0.260791,0.00306311,0.015621,930,512,-1.54373,19.9544
-287,512,-1.63977,-20.3306,0.00229462,-0.00361615,0.00186109,0.00283179,-0.00415333,0.280996,0.00405685,0.0240599,937,512,-1.63975,20.3306
-280,512,-1.52393,-20.7933,0.00235175,-0.00509493,0.00276658,0.00326708,-0.00601026,0.319515,0.00543376,0.0400347,944,512,-1.52393,20.7933
-273,512,-1.42883,-21.2773,0,0,0,0,0,0,0,-1,951,512,-1.42886,21.2773
-266,512,-1.60486,-21.7341,0,0,0,0,0,0,0,-1,958,512,-1.60484,21.734
-259,512,-0.525452,-14.0815,0,0,0,0,0,0,0,-1,965,512,-0.525475,14.0815
-252,512,1.45941,-3.43475,0,0,0,0,0,0,0,-1,972,512,1.45938,3.43475
-245,512,4.12927,-11.272,0,0,0,0,0,0,0,-1,979,512,4.1293,11.272
-238,512,0.227051,-8.92969,0,0,0,0,0,0,0,-1,986,512,0.227073,8.92968
-231,512,-2.54437,-10.169,0,0,0,0,0,0,0,-1,993,512,-2.54439,10.169
-224,512,-4.84601,-7.52783,0,0,0,0,0,0,0,-1,1000,512,-4.84602,7.52786
-217,512,-7.37274,-3.89563,0,0,0,0,0,0,0,-1,1007,512,-7.37274,3.89561
-210,512,-3.76642,-1.94702,0,0,0,0,0,0,0,-1,1014,512,-3.76641,1.94702
-203,512,-2.48328,-5.19061,0,0,0,0,0,0,0,-1,1021,512,-2.48328,5.19059
-196,512,-1.14929,-4.63202,0,0,0,0,0,0,0,-1,1028,512,-1.14934,4.632
-189,512,0.197998,4.55505,0,0,0,0,0,0,0,-1,1035,512,0.197996,-4.55506
-182,512,2.73938,0.0778503,0,0,0,0,0,0,0,-1,1042,512,2.73944,-0.077852
-175,512,2.29565,0.209808,0,0,0,0,0,0,0,-1,1049,512,2.29565,-0.209813
-168,512,2.09399,-0.302856,0,0,0,0,0,0,0,-1,1056,512,2.09403,0.302826
-161,512,2.76636,0.0921021,0,0,0,0,0,0,0,-1,1063,512,2.76633,-0.0921104
-154,512,3.41382,0.466187,0,0,0,0,0,0,0,-1,1070,512,3.41382,-0.466178
-147,512,0,0,0,0,0,0,0,0,0,-1,1077,512,0,0
-140,512,0,0,0,0,0,0,0,0,0,-1,1084,512,0,0
-133,512,0,0,0,0,0,0,0,0,0,-1,1091,512,0,0
-126,512,0,0,0,0,0,0,0,0,0,-1,1098,512,0,0
-119,512,0,0,0,0,0,0,0,0,0,-1,1105,512,0,0
-112,512,0,0,0,0,0,0,0,0,0,-1,1112,512,0,0
-105,512,0,0,0,0,0,0,0,0,0,-1,1119,512,0,0
-98,512,0,0,0,0,0,0,0,0,0,-1,1126,512,0,0
-91,512,0,0,0,0,0,0,0,0,0,-1,1133,512,0,0
-84,512,0,0,0,0,0,0,0,0,0,-1,1140,512,0,0
-77,512,0,0,0,0,0,0,0,0,0,-1,1147,512,0,0
-70,512,0,0,0,0,0,0,0,0,0,-1,1154,512,0,0
-63,512,0,0,0,0,0,0,0,0,0,-1,1161,512,0,0
-56,512,0,0,0,0,0,0,0,0,0,-1,1168,512,0,0
-49,512,0,0,0,0,0,0,0,0,0,-1,1175,512,0,0
-42,512,0,0,0,0,0,0,0,0,0,-1,1182,512,0,0
-35,512,0,0,0,0,0,0,0,0,0,-1,1189,512,0,0
-28,512,0,0,0,0,0,0,0,0,0,-1,1196,512,0,0
-21,512,0,0,0,0,0,0,0,0,0,-1,1203,512,0,0
-14,512,0,0,0,0,0,0,0,0,0,-1,1210,512,0,0
-7,512,0,0,0,0,0,0,0,0,0,-1,1217,512,0,0
0,512,0,0,0,0,0,0,0,0,0,-1,1224,512,0,0
7,512,0,0,0,0,0,0,0,0,0,-1,1231,512,0,0
14,512,0,0,0,0,0,0,0,0,0,-1,1238,512,0,0
21,512,0,0,0,0,0,0,0,0,0,-1,1245,512,0,0
28,512,0,0,0,0,0,0,0,0,0,-1,1252,512,0,0
35,512,0,0,0,0,0,0,0,0,0,-1,1259,512,0,0
42,512,0,0,0,0,0,0,0,0,0,-1,1266,512,0,0
49,512,0,0,0,0,0,0,0,0,0,-1,1273,512,0,0
56,512,0,0,0,0,0,0,0,0,0,-1,1280,512,0,0
63,512,0,0,0,0,0,0,0,0,0,-1,1287,512,0,0
70,512,0,0,0,0,0,0,0,0,0,-1,1294,512,0,0
77,512,0,0,0,0,0,0,0,0,0,-1,1301,512,0,0
84,512,0,0,0,0,0,0,0,0,0,-1,1308,512,0,0
91,512,0,0,0,0,0,0,0,0,0,-1,1315,512,0,0
98,512,0,0,0,0,0,0,0,0,0,-1,1322,512,0,0
105,512,0,0,0,0,0,0,0,0,0,-1,1329,512,0,0
112,512,0,0,0,0,0,0,0,0,0,-1,1336,512,0,0
119,512,0,0,0,0,0,0,0,0,0,-1,1343,512,0,0
126,512,0,0,0,0,0,0,0,0,0,-1,1350,512,0,0
133,512,0,0,0,0,0,0,0,0,0,-1,1357,512,0,0
140,512,0,0,0,0,0,0,0,0,0,-1,1364,512,0,0
147,512,0,0,0,0,0,0,0,0,0,-1,1371,512,0,0
154,512,0,0,0,0,0,0,0,0,0,-1,1378,512,0,0
161,512,0,0,0,0,0,0,0,0,0,-1,1385,512,0,0
168,512,0,0,0,0,0,0,0,0,0,-1,1392,512,0,0
175,512,0,0,0,0,0,0,0,0,0,-1,1399,512,0,0
182,512,0,0,0,0,0,0,0,0,0,-1,1406,512,0,0
189,512,0,0,0,0,0,0,0,0,0,-1,1413,512,0,0
196,512,0,0,0,0,0,0,0,0,0,-1,1420,512,0,0
203,512,0,0,0,0,0,0,0,0,0,-1,1427,512,0,0
210,512,0,0,0,0,0,0,0,0,0,-1,1434,512,0,0
217,512,0,0,0,0,0,0,0,0,0,-1,1441,512,0,0
224,512,0,0,0,0,0,0,0,0,0,-1,1448,512,0,0
231,512,0,0,0,0,0,0,0,0,0,-1,1455,512,0,0
238,512,0,0,0,0,0,0,0,0,0,-1,1462,512,0,0
245,512,0,0,0,0,0,0,0,0,0,-1,1469,512,0,0
252,512,0,0,0,0,0,0,0,0,0,-1,1476,512,0,0
259,512,0,0,0,0,0,0,0,0,0,-1,1483,512,0,0
266,512,0,0,0,0,0,0,0,0,0,-1,1490,512,0,0
273,512,4.00745,0.618622,0,0,0,0,0,0,0,-1,1497,512,4.00747,-0.618611
280,512,4.49609,0.649841,0,0,0,0,0,0,0,-1,1504,512,4.49612,-0.649834
287,512,4.77234,0.458069,0,0,0,0,0,0,0,-1,1511,512,4.77233,-0.458083
294,512,8.54956,-2.36273,0,0,0,0,0,0,0,-1,1518,512,8.54952,2.36274
301,512,6.302,-1.69092,0,0,0,0,0,0,0,-1,1525,512,6.30196,1.69093
308,512,8.2439,-6.22754,0,0,0,0,0,0,0,-1,1532,512,8.24394,6.22757
315,512,7.53687,-6.04211,0,0,0,0,0,0,0,-1,1539,512,7.53691,6.04211
322,512,6.82983,-5.85663,0,0,0,0,0,0,0,-1,1546,512,6.82988,5.85666
329,512,4.38147,-0.329651,0,0,0,0,0,0,0,-1,1553,512,4.38144,0.329662
336,512,4.41467,-0.741455,0,0,0,0,0,0,0,-1,1560,512,4.41467,0.741442
343,512,4.44727,-1.21667,0,0,0,0,0,0,0,-1,1567,512,4.44732,1.21666
350,512,4.55469,-1.65082,0,0,0,0,0,0,0,-1,1574,512,4.5547,1.65083
357,512,5.79993,-2.67456,0,0,0,0,0,0,0,-1,1581,512,5.79991,2.67454
364,512,5.18298,-6.80133,0,0,0,0,0,0,0,-1,1588,512,5.18296,6.80132
371,512,5.28467,-7.69269,0,0,0,0,0,0,0,-1,1595,512,5.28464,7.69269
378,512,6.29407,-9.88055,0,0,0,0,0,0,0,-1,1602,512,6.29412,9.88057
385,512,6.45569,-9.32233,0,0,0,0,0,0,0,-1,1609,512,6.45565,9.3223
392,512,6.35522,-8.98425,0,0,0,0,0,0,0,-1,1616,512,6.35526,8.98422
399,512,7.5304,-12.1449,0,0,0,0,0,0,0,-1,1623,512,7.53042,12.1449
406,512,10.7679,-19.8054,0,0,0,0,0,0,0,-1,1630,512,10.768,19.8053
413,512,10.8372,-19.3143,0,0,0,0,0,0,0,-1,1637,512,10.8372,19.3143
420,512,10.8046,-18.8502,0.00252532,0.00101211,-0.000531365,0.00269327,0.000844165,-0.306135,0.00159063,0.0256165,1644,512,10.8046,18.8502
427,512,10.8052,-18.3662,0.00238847,0.00114545,-0.000312624,0.00246267,0.00107125,-0.233025,0.00142582,0.0159663,1651,512,10.8052,18.3662
434,512,10.7924,-17.8966,0.00197047,0.00111421,-0.000126583,0.0019888,0.00109589,-0.143737,0.00115022,0.0121474,1658,512,10.7924,17.8966
441,512,10.7786,-17.4146,0.00164362,0.00105607,0.000121058,0.00166758,0.0010321,0.195437,0.000971813,0.0138593,1665,512,10.7785,17.4145
448,512,10.7479,-16.956,0.00144244,0.000886232,0.000388587,0.00164219,0.000686486,0.474811,0.000952356,0.00968968,1672,512,10.7479,16.956
455,512,10.7383,-16.4662,0.00119788,0.000714466,0.000607851,0.00161032,0.000302029,0.596162,0.000988373,0.00929419,1679,512,10.7383,16.4662
462,512,10.7295,-15.971,0.000997016,0.000472949,0.000841732,0.00161656,-0.000146592,0.634501,0.00112974,0.00945838,1686,512,10.7295,15.971
469,512,10.7185,-15.4821,0.000766512,0.000104016,0.00115269,0.0016346,-0.000764073,0.645483,0.00141495,0.0108925,1693,512,10.7185,15.482
476,512,10.6888,-14.999,0.000380101,-0.000283208,0.00144524,0.00153125,-0.00143436,0.672611,0.0017125,0.0137215,1700,512,10.6889,14.999
483,512,10.6825,-14.4977,-6.1891e-05,-0.000795321,0.00165644,0.00126794,-0.00212515,0.676461,0.00197973,0.0128153,1707,512,10.6824,14.4977
490,512,10.6968,-14.004,-0.000661809,-0.00144931,0.00186674,0.000852261,-0.00296338,0.681458,0.00231262,0.0102959,1714,512,10.6968,14.004
497,512,10.6809,-13.4944,-0.00143179,-0.00219617,0.00208326,0.000304057,-0.00393201,0.694678,0.00272834,0.0114309,1721,512,10.6809,13.4944
504,512,10.6343,-12.9648,-0.00248372,-0.00301403,0.00222303,-0.000510089,-0.00498766,0.72604,0.00316879,0.0128907,1728,512,10.6343,12.9648
511,512,10.5986,-12.435,-0.00387712,-0.00383602,0.00230941,-0.00154706,-0.00616607,0.789847,0.00370432,0.0143077,1735,512,10.5986,12.435
518,512,10.6237,-11.9514,-0.00566756,-0.00477072,0.002251,-0.00292391,-0.00751437,0.883715,0.00437384,0.0178781,1742,512,10.6237,11.9514
525,512,10.4117,-11.394,-0.00799814,-0.00577982,0.00201771,-0.0045865,-0.00919146,1.03671,0.00530669,0.0419935,1749,512,10.4117,11.394
532,512,10.3573,-10.6274,0,0,0,0,0,0,0,-1,1756,512,10.3573,10.6275
539,512,7.05908,-7.00647,0,0,0,0,0,0,0,-1,1763,512,7.05909,7.00647
546,512,2.77551,-0.66449,0,0,0,0,0,0,0,-1,1770,512,2.77548,0.664503
553,512,3.927,-0.448853,0,0,0,0,0,0,0,-1,1777,512,3.92704,0.448843
560,512,3.55762,-0.201233,0,0,0,0,0,0,0,-1,1784,512,3.55768,0.201259
567,512,3.09045,0.191193,0,0,0,0,0,0,0,-1,1791,512,3.09045,-0.191203
574,512,0,0,0,0,0,0,0,0,0,-1,1798,512,0,0
581,512,0,0,0,0,0,0,0,0,0,-1,1805,512,0,0
588,512,0,0,0,0,0,0,0,0,0,-1,1812,512,0,0
595,512,0,0,0,0,0,0,0,0,0,-1,1819,512,0,0
602,512,0,0,0,0,0,0,0,0,0,-1,1826,512,0,0
609,512,0,0,0,0,0,0,0,0,0,-1,1833,512,0,0
616,512,0,0,0,0,0,0,0,0,0,-1,1840,512,0,0
623,512,0,0,0,0,0,0,0,0,0,-1,1847,512,0,0
630,512,0,0,0,0,0,0,0,0,0,-1,1854,512,0,0
637,512,0,0,0,0,0,0,0,0,0,-1,1861,512,0,0
644,512,0,0,0,0,0,0,0,0,0,-1,1868,512,0,0
651,512,0,0,0,0,0,0,0,0,0,-1,1875,512,0,0
658,512,0,0,0,0,0,0,0,0,0,-1,1882,512,0,0
665,512,0,0,0,0,0,0,0,0,0,-1,1889,512,0,0
672,512,0,0,0,0,0,0,0,0,0,-1,1896,512,0,0
679,512,0,0,0,0,0,0,0,0,0,-1,1903,512,0,0
686,512,0,0,0,0,0,0,0,0,0,-1,1910,512,0,0
693,512,0,0,0,0,0,0,0,0,0,-1,1917,512,0,0
700,512,0,0,0,0,0,0,0,0,0,-1,1924,512,0,0
707,512,0,0,0,0,0,0,0,0,0,-1,1931,512,0,0
714,512,0,0,0,0,0,0,0,0,0,-1,1938,512,0,0
721,512,0,0,0,0,0,0,0,0,0,-1,1945,512,0,0
728,512,0,0,0,0,0,0,0,0,0,-1,1952,512,0,0
735,512,0,0,0,0,0,0,0,0,0,-1,1959,512,0,0
742,512,0,0,0,0,0,0,0,0,0,-1,1966,512,0,0
749,512,0,0,0,0,0,0,0,0,0,-1,1973,512,0,0
756,512,0,0,0,0,0,0,0,0,0,-1,1980,512,0,0
763,512,0,0,0,0,0,0,0,0,0,-1,1987,512,0,0
770,512,0,0,0,0,0,0,0,0,0,-1,1994,512,0,0
777,512,0,0,0,0,0,0,0,0,0,-1,2001,512,0,0
784,512,0,0,0,0,0,0,0,0,0,-1,2008,512,0,0
791,512,0,0,0,0,0,0,0,0,0,-1,2015,512,0,0
798,512,0,0,0,0,0,0,0,0,0,-1,2022,512,0,0
805,512,0,0,0,0,0,0,0,0,0,-1,2029,512,0,0
812,512,0,0,0,0,0,0,0,0,0,-1,2036,512,0,0
-700,505,0,0,0,0,0,0,0,0,0,-1,524,519,0,0
-693,505,0,0,0,0,0,0,0,0,0,-1,531,519,0,0
-686,505,0,0,0,0,0,0,0,0,0,-1,538,519,0,0
-679,505,0,0,0,0,0,0,0,0,0,-1,545,519,0,0
-672,505,0,0,0,0,0,0,0,0,0,-1,552,519,0,0
-665,505,0,0,0,0,0,0,0,0,0,-1,559,519,0,0
-658,505,0,0,0,0,0,0,0,0,0,-1,566,519,0,0
-651,505,0,0,0,0,0,0,0,0,0,-1,573,519,0,0
-644,505,0,0,0,0,0,0,0,0,0,-1,580,519,0,0
-637,505,0,0,0,0,0,0,0,0,0,-1,587,519,0,0
-630,505,0,0,0,0,0,0,0,0,0,-1,594,519,0,0
-623,505,0,0,0,0,0,0,0,0,0,-1,601,519,0,0
-616,505,0,0,0,0,0,0,0,0,0,-1,608,519,0,0
-609,505,0,0,0,0,0,0,0,0,0,-1,615,519,0,0
-602,505,0,0,0,0,0,0,0,0,0,-1,622,519,0,0
-595,505,0,0,0,0,0,0,0,0,0,-1,629,519,0,0
-588,505,0,0,0,0,0,0,0,0,0,-1,636,519,0,0
-581,505,0,0,0,0,0,0,0,0,0,-1,643,519,0,0
-574,505,0,0,0,0,0,0,0,0,0,-1,650,519,0,0
-567,505,0,0,0,0,0,0,0,0,0,-1,657,519,0,0
-560,505,0,0,0,0,0,0,0,0,0,-1,664,519,0,0
-553,505,0,0,0,0,0,0,0,0,0,-1,671,519,0,0
-546,505,0,0,0,0,0,0,0,0,0,-1,678,519,0,0
-539,505,0,0,0,0,0,0,0,0,0,-1,685,519,0,0
-532,505,0,0,0,0,0,0,0,0,0,-1,692,519,0,0
-525,505,0,0,0,0,0,0,0,0,0,-1,699,519,0,0
-518,505,0,0,0,0,0,0,0,0,0,-1,706,519,0,0
-511,505,0,0,0,0,0,0,0,0,0,-1,713,519,0,0
-504,505,0,0,0,0,0,0,0,0,0,-1,720,519,0,0
-497,505,0,0,0,0,0,0,0,0,0,-1,727,519,0,0
-490,505,0,0,0,0,0,0,0,0,0,-1,734,519,0,0
-483,505,0,0,0,0,0,0,0,0,0,-1,741,519,0,0
-476,505,0,0,0,0,0,0,0,0,0,-1,748,519,0,0
-469,505,0,0,0,0,0,0,0,0,0,-1,755,519,0,0
-462,505,0,0,0,0,0,0,0,0,0,-1,762,519,0,0
-455,505,2.72137,-3.26379,0,0,0,0,0,0,0,-1,769,519,2.72135,3.26377
-448,505,2.51111,-3.94989,0,0,0,0,0,0,0,-1,776,519,2.51112,3.94986
-441,505,2.80212,-6.8902,0,0,0,0,0,0,0,-1,783,519,2.80209,6.89019
-434,505,-0.155212,-10.6374,0,0,0,0,0,0,0,-1,790,519,-0.155194,10.6374
-427,505,-0.474426,-10.4702,0,0,0,0,0,0,0,-1,797,519,-0.474433,10.4702
-420,505,-0.922546,-10.1928,0,0,0,0,0,0,0,-1,804,519,-0.92257,10.1928
-413,505,-2.85608,-12.5858,0,0,0,0,0,0,0,-1,811,519,-2.8561,12.5858
-406,505,-3.33716,-12.2258,0,0,0,0,0,0,0,-1,818,519,-3.33714,12.2258
-399,505,-2.41138,-12.3636,0.0158595,0.0149471,-0.013828,0.0292389,0.00156774,-0.76891,0.0189916,0.0471813,825,519,-2.41139,12.3637
-392,505,-1.8158,-13.3447,0.0123368,0.0115124,-0.011172,0.0231042,0.000745045,-0.766958,0.0151605,0.0216373,832,519,-1.81578,13.3447
-385,505,-1.83875,-13.9159,0.00931879,0.00866591,-0.008725,0.0177235,0.000261241,-0.7667,0.0117295,0.00966606,839,519,-1.83875,13.9159
-378,505,-1.87152,-14.403,0.00698358,0.0064938,-0.00680955,0.0135526,-7.5263e-05,-0.767424,0.00906028,0.0114582,846,519,-1.87151,14.403
-371,505,-1.88177,-14.9004,0.00508883,0.00471019,-0.00521624,0.0101192,-0.000320164,-0.767259,0.00685534,0.0141171,853,519,-1.88179,14.9004
-364,505,-1.90796,-15.4139,0.00355834,0.00324918,-0.00383936,0.00724623,-0.00043871,-0.765279,0.0049835,0.0147155,860,519,-1.90796,15.4139
-357,505,-1.87665,-15.9044,0.0025158,0.00222146,-0.00276514,0.00513768,-0.000400427,-0.758812,0.0035661,0.0119051,867,519,-1.87664,15.9044
-350,505,-1.90576,-16.3608,0.00183126,0.00117171,-0.00183122,0.00336217,-0.000359191,-0.696311,0.00237027,0.0114609,874,519,-1.90575,16.3608
-343,505,-1.94403,-16.8331,0.00119569,0.000561303,-0.0011149,0.00203764,-0.000280648,-0.646808,0.00146099,0.00973248,881,519,-1.94403,16.8331
-336,505,-1.96509,-17.2878,0.00116398,0.000114445,-0.000690452,0.00150645,-0.000228027,-0.460452,0.0010883,0.0128042,888,519,-1.96509,17.2879
-329,505,-1.95313,-17.731,0.00145149,-0.000297005,-0.000406351,0.00154132,-0.000386827,-0.217546,0.00117785,0.0176567,895,519,-1.95313,17.731
-322,505,-1.95093,-18.2205,0.00171486,-0.000681759,-0.000108932,0.0017198,-0.0006867,-0.0453278,0.00143143,0.018965,902,519,-1.95093,18.2205
-315,505,-1.97491,-18.6749,0.00197399,-0.00101594,0.000217371,0.00198971,-0.00103166,0.0721952,0.00177338,0.0144179,909,519,-1.97493,18.6749
-308,505,-1.99805,-19.0869,0.00231711,-0.00140121,0.000567728,0.00240186,-0.00148596,0.148187,0.0022653,0.0121535,916,519,-1.99803,19.0869
-301,505,-1.98376,-19.534,0.002569,-0.0019438,0.00103437,0.00279479,-0.00216958,0.214915,0.00287375,0.0171389,923,519,-1.98376,19.534
-294,505,-1.98938,-19.972,0,0,0,0,0,0,0,-1,930,519,-1.98936,19.972
-287,505,-2.07422,-20.4236,0,0,0,0,0,0,0,-1,937,519,-2.07421,20.4237
-280,505,-1.89417,-20.9919,0,0,0,0,0,0,0,-1,944,519,-1.89417,20.9919
-273,505,-0.0680542,-9.44867,0,0,0,0,0,0,0,-1,951,519,-0.0680462,9.44866
-266,505,-0.036377,-9.07922,0,0,0,0,0,0,0,-1,958,519,-0.0364055,9.0792
-259,505,0.10321,-6.69824,0,0,0,0,0,0,0,-1,965,519,0.103235,6.69826
-252,505,6.82312,-15.6972,0,0,0,0,0,0,0,-1,972,519,6.82314,15.6972
-245,505,4.26727,-12.9861,0,0,0,0,0,0,0,-1,979,519,4.2673,12.9861
-238,505,1.67432,-11.2307,0,0,0,0,0,0,0,-1,986,519,1.67429,11.2307
-231,505,-0.958435,-8.3075,0,0,0,0,0,0,0,-1,993,519,-0.958421,8.30751
-224,505,-3.69653,-5.12732,0,0,0,0,0,0,0,-1,1000,519,-3.69653,5.12733
-217,505,-6.34302,-1.65533,0,0,0,0,0,0,0,-1,1007,519,-6.34299,1.65535
-210,505,-3.06128,-0.396301,0,0,0,0,0,0,0,-1,1014,519,-3.06129,0.396294
-203,505,-4.26465,2.03607,0,0,0,0,0,0,0,-1,1021,519,-4.26462,-2.03606
-196,505,-5.47595,4.27295,0,0,0,0,0,0,0,-1,1028,519,-5.47597,-4.27292
-189,505,1.51526,5.56207,0,0,0,0,0,0,0,-1,1035,519,1.51523,-5.56209
-182,505,2.97815,7.5097,0,0,0,0,0,0,0,-1,1042,519,2.97812,-7.5097
-175,505,-2.38416,-2.17548,0,0,0,0,0,0,0,-1,1049,519,-2.38411,2.1755
-168,505,0,0,0,0,0,0,0,0,0,-1,1056,519,0,0
-161,505,0,0,0,0,0,0,0,0,0,-1,1063,519,0,0
-154,505,0,0,0,0,0,0,0,0,0,-1,1070,519,0,0
-147,505,0,0,0,0,0,0,0,0,0,-1,1077,519,0,0
-140,505,0,0,0,0,0,0,0,0,0,-1,1084,519,0,0
-133,505,0,0,0,0,0,0,0,0,0,-1,1091,519,0,0
-126,505,0,0,0,0,0,0,0,0,0,-1,1098,519,0,0
-119,505,0,0,0,0,0,0,0,0,0,-1,1105,519,0,0
-112,505,0,0,0,0,0,0,0,0,0,-1,1112,519,0,0
-105,505,0,0,0,0,0,0,0,0,0,-1,1119,519,0,0
-98,505,0,0,0,0,0,0,0,0,0,-1,1126,519,0,0
-91,505,0,0,0,0,0,0,0,0,0,-1,1133,519,0,0
-84,505,0,0,0,0,0,0,0,0,0,-1,1140,519,0,0
-77,505,0,0,0,0,0,0,0,0,0,-1,1147,519,0,0
-70,505,0,0,0,0,0,0,0,0,0,-1,1154,519,0,0
-63,505,0,0,0,0,0,0,0,0,0,-1,1161,519,0,0
-56,505,0,0,0,0,0,0,0,0,0,-1,1168,519,0,0
-49,505,0,0,0,0,0,0,0,0,0,-1,1175,519,0,0
-42,505,0,0,0,0,0,0,0,0,0,-1,1182,519,0,0
-35,505,0,0,0,0,0,0,0,0,0,-1,1189,519,0,0
-28,505,0,0,0,0,0,0,0,0,0,-1,1196,519,0,0
-21,505,0,0,0,0,0,0,0,0,0,-1,1203,519,0,0
-14,505,0,0,0,0,0,0,0,0,0,-1,1210,519,0,0
-7,505,0,0,0,0,0,0,0,0,0,-1,1217,519,0,0
0,505,0,0,0,0,0,0,0,0,0,-1,1224,519,0,0
7,505,0,0,0,0,0,0,0,0,0,-1,1231,519,0,0
14,505,0,0,0,0,0,0,0,0,0,-1,1238,519,0,0
21,505,0,0,0,0,0,0,0,0,0,-1,1245,519,0,0
28,505,0,0,0,0,0,0,0,0,0,-1,1252,519,0,0
35,505,0,0,0,0,0,0,0,0,0,-1,1259,519,0,0
42,505,0,0,0,0,0,0,0,0,0,-1,1266,519,0,0
49,505,0,0,0,0,0,0,0,0,0,-1,1273,519,0,0
56,505,0,0,0,0,0,0,0,0,0,-1,1280,519,0,0
63,505,0,0,0,0,0,0,0,0,0,-1,1287,519,0,0
70,505,0,0,0,0,0,0,0,0,0,-1,1294,519,0,0
77,505,0,0,0,0,0,0,0,0,0,-1,1301,519,0,0
84,505,0,0,0,0,0,0,0,0,0,-1,1308,519,0,0
91,505,0,0,0,0,0,0,0,0,0,-1,1315,519,0,0
98,505,0,0,0,0,0,0,0,0,0,-1,1322,519,0,0
105,505,0,0,0,0,0,0,0,0,0,-1,1329,519,0,0
112,505,0,0,0,0,0,0,0,0,0,-1,1336,519,0,0
119,505,0,0,0,0,0,0,0,0,0,-1,1343,519,0,0
126,505,0,0,0,0,0,0,0,0,0,-1,1350,519,0,0
133,505,0,0,0,0,0,0,0,0,0,-1,1357,519,0,0
140,505,0,0,0,0,0,0,0,0,0,-1,1364,519,0,0
147,505,0,0,0,0,0,0,0,0,0,-1,1371,519,0,0
154,505,0,0,0,0,0,0,0,0,0,-1,1378,519,0,0
161,505,0,0,0,0,0,0,0,0,0,-1,1385,519,0,0
168,505,0,0,0,0,0,0,0,0,0,-1,1392,519,0,0
175,505,0,0,0,0,0,0,0,0,0,-1,1399,519,0,0
182,505,0,0,0,0,0,0,0,0,0,-1,1406,519,0,0
189,505,0,0,0,0,0,0,0,0,0,-1,1413,519,0,0
196,505,0,0,0,0,0,0,0,0,0,-1,1420,519,0,0
203,505,0,0,0,0,0,0,0,0,0,-1,1427,519,0,0
210,505,0,0,0,0,0,0,0,0,0,-1,1434,519,0,0
217,505,0,0,0,0,0,0,0,0,0,-1,1441,519,0,0
224,505,0,0,0,0,0,0,0,0,0,-1,1448,519,0,0
231,505,0,0,0,0,0,0,0,0,0,-1,1455,519,0,0
238,505,0,0,0,0,0,0,0,0,0,-1,1462,519,0,0
245,505,0,0,0,0,0,0,0,0,0,-1,1469,519,0,0
252,505,0,0,0,0,0,0,0,0,0,-1,1476,519,0,0
259,505,0,0,0,0,0,0,0,0,0,-1,1483,519,0,0
266,505,0,0,0,0,0,0,0,0,0,-1,1490,519,0,0
273,505,0,0,0,0,0,0,0,0,0,-1,1497,519,0,0
280,505,0,0,0,0,0,0,0,0,0,-1,1504,519,0,0
287,505,4.39478,0.499512,0,0,0,0,0,0,0,-1,1511,519,4.39476,-0.499506
294,505,4.88867,0.0822754,0,0,0,0,0,0,0,-1,1518,519,4.88871,-0.0822748
301,505,4.82153,-0.0704346,0,0,0,0,0,0,0,-1,1525,519,4.82156,0.0704312
308,505,4.67761,-0.29187,0,0,0,0,0,0,0,-1,1532,519,4.67762,0.291845
315,505,8.44055,-6.54352,0,0,0,0,0,0,0,-1,1539,519,8.44059,6.54349
322,505,4.78955,-0.594116,0,0,0,0,0,0,0,-1,1546,519,4.78957,0.594096
329,505,5.16321,0.434631,0,0,0,0,0,0,0,-1,1553,519,5.16316,-0.434614
336,505,4.94495,-0.920471,0,0,0,0,0,0,0,-1,1560,519,4.945,0.920495
343,505,5.01855,-1.4823,0,0,0,0,0,0,0,-1,1567,519,5.01851,1.48227
350,505,5.33154,-1.77838,0,0,0,0,0,0,0,-1,1574,519,5.33152,1.77838
357,505,5.56567,-1.9425,0,0,0,0,0,0,0,-1,1581,519,5.56562,1.94248
364,505,5.85205,-2.6579,0,0,0,0,0,0,0,-1,1588,519,5.85211,2.65788
371,505,5.88477,-7.00922,0,0,0,0,0,0,0,-1,1595,519,5.88473,7.00924
378,505,5.44104,-7.10162,0,0,0,0,0,0,0,-1,1602,519,5.44099,7.10162
385,505,6.64661,-8.65015,0,0,0,0,0,0,0,-1,1609,519,6.64662,8.65014
392,505,6.34558,-8.3429,0,0,0,0,0,0,0,-1,1616,519,6.34554,8.34288
399,505,7.45898,-9.70386,0,0,0,0,0,0,0,-1,1623,519,7.45899,9.70388
406,505,7.08679,-9.4928,0,0,0,0,0,0,0,-1,1630,519,7.08678,9.49278
413,505,8.4032,-14.0308,0,0,0,0,0,0,0,-1,1637,519,8.4032,14.0308
420,505,11.2075,-19.0032,0,0,0,0,0,0,0,-1,1644,519,11.2075,19.0032
427,505,11.2594,-18.4596,0.00279738,0.000838803,-0.00043425,0.00288934,0.00074684,-0.20869,0.00173182,0.02871,1651,519,11.2594,18.4596
434,505,11.2361,-17.9087,0.00228692,0.000854278,-0.000319337,0.00235488,0.000786322,-0.209678,0.00138437,0.012222,1658,519,11.2361,17.9087
441,505,11.2471,-17.3854,0.00192434,0.000899349,-0.000146065,0.00194475,0.00087894,-0.138822,0.00112453,0.0111731,1665,519,11.247,17.3854
448,505,11.2302,-16.9213,0.00175049,0.000850775,5.52919e-05,0.00175388,0.000847389,0.0611481,0.00101279,0.0106834,1672,519,11.2302,16.9213
455,505,11.208,-16.4415,0.00153361,0.000805523,0.000205494,0.00158761,0.00075153,0.256943,0.000917039,0.0112056,1679,519,11.208,16.4415
462,505,11.1854,-15.9421,0.00135047,0.000718988,0.000372245,0.00152284,0.000546611,0.433673,0.000890801,0.0111139,1686,519,11.1854,15.9422
469,505,11.1943,-15.4608,0.00118562,0.00050466,0.000632499,0.00156346,0.000126821,0.538488,0.00100271,0.010222,1693,519,11.1943,15.4608
476,505,11.1663,-14.9879,0.000876312,0.000247278,0.000898143,0.00151342,-0.000389826,0.616978,0.00116091,0.0109604,1700,519,11.1663,14.9878
483,505,11.1687,-14.5049,0.000487872,-0.000127726,0.00108581,0.00130867,-0.000948523,0.647285,0.00130871,0.0120934,1707,519,11.1687,14.5049
490,505,11.1752,-14.0001,-7.83703e-05,-0.000606583,0.00125787,0.000942823,-0.00162778,0.68192,0.0015016,0.011664,1714,519,11.1752,14.0001
497,505,11.1705,-13.504,-0.000789768,-0.00111172,0.00147208,0.000530111,-0.0024316,0.730938,0.00182364,0.0118836,1721,519,11.1705,13.504
504,505,11.1353,-12.9722,-0.00174329,-0.00172591,0.00159747,-0.0001371,-0.00333209,0.788117,0.00217714,0.0128073,1728,519,11.1352,12.9722
511,505,11.1121,-12.4493,-0.00301147,-0.00232599,0.00165988,-0.000973831,-0.00436363,0.88721,0.00264493,0.0146581,1735,519,11.112,12.4493
518,505,11.1486,-11.9379,-0.00464871,-0.00296805,0.00156296,-0.00203384,-0.00558292,1.03206,0.00326263,0.0206549,1742,519,11.1485,11.9379
525,505,10.9523,-11.3705,-0.00667052,-0.00368549,0.0012709,-0.0032177,-0.00713831,1.21811,0.00412796,0.0314338,1749,519,10.9522,11.3705
532,505,10.8752,-10.5463,0,0,0,0,0,0,0,-1,1756,519,10.8752,10.5463
539,505,7.90369,-7.11932,0,0,0,0,0,0,0,-1,1763,519,7.90373,7.11932
546,505,7.94946,-6.64539,0,0,0,0,0,0,0,-1,1770,519,7.94947,6.64539
553,505,2.82837,0.162659,0,0,0,0,0,0,0,-1,1777,519,2.82841,-0.162672
560,505,3.66223,-0.479797,0,0,0,0,0,0,0,-1,1784,519,3.66219,0.47982
567,505,4.65271,-0.950256,0,0,0,0,0,0,0,-1,1791,519,4.65274,0.95028
574,505,5.54443,-1.19977,0,0,0,0,0,0,0,-1,1798,519,5.54443,1.19974
581,505,0,0,0,0,0,0,0,0,0,-1,1805,519,0,0
588,505,0,0,0,0,0,0,0,0,0,-1,1812,519,0,0
595,505,0,0,0,0,0,0,0,0,0,-1,1819,519,0,0
602,505,0,0,0,0,0,0,0,0,0,-1,1826,519,0,0
609,505,0,0,0,0,0,0,0,0,0,-1,1833,519,0,0
616,505,0,0,0,0,0,0,0,0,0,-1,1840,519,0,0
623,505,0,0,0,0,0,0,0,0,0,-1,1847,519,0,0
630,505,0,0,0,0,0,0,0,0,0,-1,1854,519,0,0
637,505,0,0,0,0,0,0,0,0,0,-1,1861,519,0,0
644,505,0,0,0,0,0,0,0,0,0,-1,1868,519,0,0
651,505,0,0,0,0,0,0,0,0,0,-1,1875,519,0,0
658,505,0,0,0,0,0,0,0,0,0,-1,1882,519,0,0
665,505,0,0,0,0,0,0,0,0,0,-1,1889,519,0,0
672,505,0,0,0,0,0,0,0,0,0,-1,1896,519,0,0
679,505,0,0,0,0,0,0,0,0,0,-1,1903,519,0,0
686,505,0,0,0,0,0,0,0,0,0,-1,1910,519,0,0
693,505,0,0,0,0,0,0,0,0,0,-1,1917,519,0,0
700,505,0,0,0,0,0,0,0,0,0,-1,1924,519,0,0
707,505,0,0,0,0,0,0,0,0,0,-1,1931,519,0,0
714,505,0,0,0,0,0,0,0,0,0,-1,1938,519,0,0
721,505,0,0,0,0,0,0,0,0,0,-1,1945,519,0,0
728,505,0,0,0,0,0,0,0,0,0,-1,1952,519,0,0
735,505,0,0,0,0,0,0,0,0,0,-1,1959,519,0,0
742,505,0,0,0,0,0,0,0,0,0,-1,1966,519,0,0
749,505,0,0,0,0,0,0,0,0,0,-1,1973,519,0,0
756,505,0,0,0,0,0,0,0,0,0,-1,1980,519,0,0
763,505,0,0,0,0,0,0,0,0,0,-1,1987,519,0,0
770,505,0,0,0,0,0,0,0,0,0,-1,1994,519,0,0
777,505,0,0,0,0,0,0,0,0,0,-1,2001,519,0,0
784,505,0,0,0,0,0,0,0,0,0,-1,2008,519,0,0
791,505,0,0,0,0,0,0,0,0,0,-1,2015,519,0,0
798,505,0,0,0,0,0,0,0,0,0,-1,2022,519,0,0
805,505,0,0,0,0,0,0,0,0,0,-1,2029,519,0,0
812,505,0,0,0,0,0,0,0,0,0,-1,2036,519,0,0
-700,498,0,0,0,0,0,0,0,0,0,-1,524,526,0,0
-693,498,0,0,0,0,0,0,0,0,0,-1,531,526,0,0
-686,498,0,0,0,0,0,0,0,0,0,-1,538,526,0,0
-679,498,0,0,0,0,0,0,0,0,0,-1,545,526,0,0
-672,498,0,0,0,0,0,0,0,0,0,-1,552,526,0,0
-665,498,0,0,0,0,0,0,0,0,0,-1,559,526,0,0
-658,498,0,0,0,0,0,0,0,0,0,-1,566,526,0,0
-651,498,0,0,0,0,0,0,0,0,0,-1,573,526,0,0
-644,498,0,0,0,0,0,0,0,0,0,-1,580,526,0,0
-637,498,0,0,0,0,0,0,0,0,0,-1,587,526,0,0
-630,498,0,0,0,0,0,0,0,0,0,-1,594,526,0,0
-623,498,0,0,0,0,0,0,0,0,0,-1,601,526,0,0
-616,498,0,0,0,0,0,0,0,0,0,-1,608,526,0,0
-609,498,0,0,0,0,0,0,0,0,0,-1,615,526,0,0
-602,498,0,0,0,0,0,0,0,0,0,-1,622,526,0,0
-595,498,0,0,0,0,0,0,0,0,0,-1,629,526,0,0
-588,498,0,0,0,0,0,0,0,0,0,-1,636,526,0,0
-581,498,0,0,0,0,0,0,0,0,0,-1,643,526,0,0
-574,498,0,0,0,0,0,0,0,0,0,-1,650,526,0,0
-567,498,0,0,0,0,0,0,0,0,0,-1,657,526,0,0
-560,498,0,0,0,0,0,0,0,0,0,-1,664,526,0,0
-553,498,0,0,0,0,0,0,0,0,0,-1,671,526,0,0
-546,498,0,0,0,0,0,0,0,0,0,-1,678,526,0,0
-539,498,0,0,0,0,0,0,0,0,0,-1,685,526,0,0
-532,498,0,0,0,0,0,0,0,0,0,-1,692,526,0,0
-525,498,0,0,0,0,0,0,0,0,0,-1,699,526,0,0
-518,498,0,0,0,0,0,0,0,0,0,-1,706,526,0,0
-511,498,0,0,0,0,0,0,0,0,0,-1,713,526,0,0
-504,498,0,0,0,0,0,0,0,0,0,-1,720,526,0,0
-497,498,0,0,0,0,0,0,0,0,0,-1,727,526,0,0
-490,498,0,0,0,0,0,0,0,0,0,-1,734,526,0,0
-483,498,0,0,0,0,0,0,0,0,0,-1,741,526,0,0
-476,498,0,0,0,0,0,0,0,0,0,-1,748,526,0,0
-469,498,0,0,0,0,0,0,0,0,0,-1,755,526,0,0
-462,498,6.81024,1.15515,0,0,0,0,0,0,0,-1,762,526,6.81026,-1.15514
-455,498,3.25757,-3.0592,0,0,0,0,0,0,0,-1,769,526,3.25754,3.05921
-448,498,3.05939,-3.74298,0,0,0,0,0,0,0,-1,776,526,3.05939,3.74296
-441,498,2.77191,-6.08209,0,0,0,0,0,0,0,-1,783,526,2.77189,6.08207
-434,498,2.10681,-6.95929,0,0,0,0,0,0,0,-1,790,526,2.10682,6.9593
-427,498,-0.368042,-10.7726,0,0,0,0,0,0,0,-1,797,526,-0.36807,10.7726
-420,498,-1.05035,-10.5142,0,0,0,0,0,0,0,-1,804,526,-1.05034,10.5142
-413,498,-2.64111,-10.9224,0,0,0,0,0,0,0,-1,811,526,-2.64113,10.9224
-406,498,-2.48279,-11.7934,0.0140112,0.0159665,-0.0130403,0.0280658,0.00191189,-0.822815,0.0181069,0.0485488,818,526,-2.48276,11.7934
-399,498,-2.29175,-12.8171,0.0116097,0.012633,-0.0109232,0.0230565,0.00118622,-0.808801,0.0149912,0.0258955,825,526,-2.29172,12.8172
-392,498,-2.3045,-13.4092,0.00929461,0.00973986,-0.00890283,0.0184228,0.000611623,-0.797899,0.0120832,0.0124677,832,526,-2.30453,13.4092
-385,498,-2.32233,-13.9099,0.00727819,0.0072797,-0.00702305,0.014302,0.000255895,-0.785452,0.00945052,0.0087989,839,526,-2.32231,13.9099
-378,498,-2.32721,-14.3933,0.00567403,0.00535691,-0.00550125,0.011019,1.19284e-05,-0.770991,0.00734203,0.0104534,846,526,-2.32719,14.3933
-371,498,-2.3446,-14.8846,0.00428342,0.00371804,-0.00417925,0.00818953,-0.000188066,-0.751629,0.00552344,0.0156755,853,526,-2.34462,14.8846
-364,498,-2.38141,-15.3944,0.00311107,0.00232946,-0.00299394,0.00573961,-0.000299078,-0.7205,0.00392989,0.0156698,860,526,-2.3814,15.3944
-357,498,-2.3465,-15.8919,0.00234335,0.00136107,-0.00206444,0.00397427,-0.000269847,-0.668616,0.00274389,0.0112769,867,526,-2.3465,15.8919
-350,498,-2.37244,-16.3429,0.0018964,0.000446678,-0.00130053,0.00266043,-0.000317359,-0.531162,0.00188832,0.0113167,874,526,-2.37241,16.3429
-343,498,-2.38263,-16.8077,0.00155087,-9.33094e-05,-0.000735911,0.00183214,-0.000374577,-0.36507,0.00136354,0.0115141,881,526,-2.38262,16.8077
-336,498,-2.40265,-17.2738,0.00164458,-0.00051529,-0.000376556,0.00170835,-0.000579057,-0.167751,0.00137324,0.0142684,888,526,-2.40263,17.2738
-329,498,-2.38263,-17.7242,0.00196049,-0.000900995,-0.000116175,0.0019652,-0.000905703,-0.0405106,0.00169472,0.0208589,895,526,-2.38265,17.7242
-322,498,-2.40356,-18.1888,0.00223726,-0.00123882,0.000168666,0.00224543,-0.00124698,0.0483703,0.00204363,0.0216255,902,526,-2.40356,18.1889
-315,498,-2.45386,-18.6412,0.00250766,-0.00154218,0.000467089,0.00256083,-0.00159536,0.113352,0.00242106,0.0172482,909,526,-2.45383,18.6412
-308,498,-2.43695,-19.0786,0.00293559,-0.00193119,0.000778604,0.00305712,-0.00205272,0.154836,0.0029691,0.020607,916,526,-2.43692,19.0785
-301,498,-2.32001,-19.5529,0.00323267,-0.00235856,0.00125631,0.00350198,-0.00262787,0.211171,0.00355105,0.0400738,923,526,-2.32003,19.5529
-294,498,-2.2179,-20.0303,0,0,0,0,0,0,0,-1,930,526,-2.2179,20.0303
-287,498,-0.91394,-13.4327,0,0,0,0,0,0,0,-1,937,526,-0.913935,13.4327
-280,498,-0.341614,-8.66608,0,0,0,0,0,0,0,-1,944,526,-0.341589,8.66606
-273,498,-0.988892,-8.62921,0,0,0,0,0,0,0,-1,951,526,-0.988906,8.62922
-266,498,0.362488,-6.33545,0,0,0,0,0,0,0,-1,958,526,0.362478,6.33547
-259,498,10.9454,-17.3615,0,0,0,0,0,0,0,-1,965,526,10.9454,17.3614
-252,498,8.56586,-14.6886,0,0,0,0,0,0,0,-1,972,526,8.56584,14.6886
-245,498,5.97382,-11.928,0,0,0,0,0,0,0,-1,979,526,5.97381,11.928
-238,498,2.24841,-13.8145,0,0,0,0,0,0,0,-1,986,526,2.24838,13.8145
-231,498,0.665894,-10.4898,0,0,0,0,0,0,0,-1,993,526,0.665863,10.4898
-224,498,-2.11243,-4.76312,0,0,0,0,0,0,0,-1,1000,526,-2.11245,4.76314
-217,498,-3.82239,-1.42841,0,0,0,0,0,0,0,-1,1007,526,-3.82241,1.42843
-210,498,-1.80591,-0.358215,0,0,0,0,0,0,0,-1,1014,526,-1.8059,0.3582
-203,498,-3.17316,1.06641,0,0,0,0,0,0,0,-1,1021,526,-3.17313,-1.0664
-196,498,-0.103271,5.40527,0,0,0,0,0,0,0,-1,1028,526,-0.103285,-5.40528
-189,498,3.00256,6.47137,0,0,0,0,0,0,0,-1,1035,526,3.00256,-6.47139
-182,498,0,0,0,0,0,0,0,0,0,-1,1042,526,0,0
-175,498,0,0,0,0,0,0,0,0,0,-1,1049,526,0,0
-168,498,0,0,0,0,0,0,0,0,0,-1,1056,526,0,0
-161,498,0,0,0,0,0,0,0,0,0,-1,1063,526,0,0
-154,498,0,0,0,0,0,0,0,0,0,-1,1070,526,0,0
-147,498,0,0,0,0,0,0,0,0,0,-1,1077,526,0,0
-140,498,0,0,0,0,0,0,0,0,0,-1,1084,526,0,0
-133,498,0,0,0,0,0,0,0,0,0,-1,1091,526,0,0
-126,498,0,0,0,0,0,0,0,0,0,-1,1098,526,0,0
-119,498,0,0,0,0,0,0,0,0,0,-1,1105,526,0,0
-112,498,0,0,0,0,0,0,0,0,0,-1,1112,526,0,0
-105,498,0,0,0,0,0,0,0,0,0,-1,1119,526,0,0
-98,498,0,0,0,0,0,0,0,0,0,-1,1126,526,0,0
-91,498,0,0,0,0,0,0,0,0,0,-1,1133,526,0,0
-84,498,0,0,0,0,0,0,0,0,0,-1,1140,526,0,0
-77,498,0,0,0,0,0,0,0,0,0,-1,1147,526,0,0
-70,498,0,0,0,0,0,0,0,0,0,-1,1154,526,0,0
-63,498,0,0,0,0,0,0,0,0,0,-1,1161,526,0,0
-56,498,0,0,0,0,0,0,0,0,0,-1,1168,526,0,0
-49,498,0,0,0,0,0,0,0,0,0,-1,1175,526,0,0
-42,498,0,0,0,0,0,0,0,0,0,-1,1182,526,0,0
-35,498,0,0,0,0,0,0,0,0,0,-1,1189,526,0,0
-28,498,0,0,0,0,0,0,0,0,0,-1,1196,526,0,0
-21,498,0,0,0,0,0,0,0,0,0,-1,1203,526,0,0
-14,498,0,0,0,0,0,0,0,0,0,-1,1210,526,0,0
-7,498,0,0,0,0,0,0,0,0,0,-1,1217,526,0,0
0,498,0,0,0,0,0,0,0,0,0,-1,1224,526,0,0
7,498,0,0,0,0,0,0,0,0,0,-1,1231,526,0,0
14,498,0,0,0,0,0,0,0,0,0,-1,1238,526,0,0
21,498,0,0,0,0,0,0,0,0,0,-1,1245,526,0,0
28,498,0,0,0,0,0,0,0,0,0,-1,1252,526,0,0
35,498,0,0,0,0,0,0,0,0,0,-1,1259,526,0,0
42,498,0,0,0,0,0,0,0,0,0,-1,1266,526,0,0
49,498,0,0,0,0,0,0,0,0,0,-1,1273,526,0,0
56,498,0,0,0,0,0,0,0,0,0,-1,1280,526,0,0
63,498,0,0,0,0,0,0,0,0,0,-1,1287,526,0,0
70,498,0,0,0,0,0,0,0,0,0,-1,1294,526,0,0
77,498,0,0,0,0,0,0,0,0,0,-1,1301,526,0,0
84,498,0,0,0,0,0,0,0,0,0,-1,1308,526,0,0
91,498,0,0,0,0,0,0,0,0,0,-1,1315,526,0,0
98,498,0,0,0,0,0,0,0,0,0,-1,1322,526,0,0
105,498,0,0,0,0,0,0,0,0,0,-1,1329,526,0,0
112,498,0,0,0,0,0,0,0,0,0,-1,1336,526,0,0
119,498,0,0,0,0,0,0,0,0,0,-1,1343,526,0,0
126,498,0,0,0,0,0,0,0,0,0,-1,1350,526,0,0
133,498,0,0,0,0,0,0,0,0,0,-1,1357,526,0,0
140,498,0,0,0,0,0,0,0,0,0,-1,1364,526,0,0
147,498,0,0,0,0,0,0,0,0,0,-1,1371,526,0,0
154,498,0,0,0,0,0,0,0,0,0,-1,1378,526,0,0
161,498,0,0,0,0,0,0,0,0,0,-1,1385,526,0,0
168,498,0,0,0,0,0,0,0,0,0,-1,1392,526,0,0
175,498,0,0,0,0,0,0,0,0,0,-1,1399,526,0,0
182,498,0,0,0,0,0,0,0,0,0,-1,1406,526,0,0
189,498,0,0,0,0,0,0,0,0,0,-1,1413,526,0,0
196,498,0,0,0,0,0,0,0,0,0,-1,1420,526,0,0
203,498,0,0,0,0,0,0,0,0,0,-1,1427,526,0,0
210,498,0,0,0,0,0,0,0,0,0,-1,1434,526,0,0
217,498,0,0,0,0,0,0,0,0,0,-1,1441,526,0,0
224,498,0,0,0,0,0,0,0,0,0,-1,1448,526,0,0
231,498,0,0,0,0,0,0,0,0,0,-1,1455,526,0,0
238,498,0,0,0,0,0,0,0,0,0,-1,1462,526,0,0
245,498,0,0,0,0,0,0,0,0,0,-1,1469,526,0,0
252,498,0,0,0,0,0,0,0,0,0,-1,1476,526,0,0
259,498,0,0,0,0,0,0,0,0,0,-1,1483,526,0,0
266,498,0,0,0,0,0,0,0,0,0,-1,1490,526,0,0
273,498,0,0,0,0,0,0,0,0,0,-1,1497,526,0,0
280,498,0,0,0,0,0,0,0,0,0,-1,1504,526,0,0
287,498,0,0,0,0,0,0,0,0,0,-1,1511,526,0,0
294,498,0,0,0,0,0,0,0,0,0,-1,1518,526,0,0
301,498,0,0,0,0,0,0,0,0,0,-1,1525,526,0,0
308,498,4.77942,-0.293884,0,0,0,0,0,0,0,-1,1532,526,4.77939,0.293899
315,498,4.56091,-0.564148,0,0,0,0,0,0,0,-1,1539,526,4.56097,0.564142
322,498,4.52344,-0.447266,0,0,0,0,0,0,0,-1,1546,526,4.52341,0.447295
329,498,4.63232,-0.156982,0,0,0,0,0,0,0,-1,1553,526,4.63238,0.156991
336,498,5.22644,0.0925903,0,0,0,0,0,0,0,-1,1560,526,5.22648,-0.0926188
343,498,6.22607,-1.67615,0,0,0,0,0,0,0,-1,1567,526,6.22605,1.67617
350,498,6.19373,-1.59906,0,0,0,0,0,0,0,-1,1574,526,6.19367,1.59906
357,498,6.21472,-1.58929,0,0,0,0,0,0,0,-1,1581,526,6.21476,1.58927
364,498,5.73547,-1.2019,0,0,0,0,0,0,0,-1,1588,526,5.73547,1.20192
371,498,3.27087,-4.55334,0,0,0,0,0,0,0,-1,1595,526,3.27089,4.55332
378,498,8.42944,-4.70624,0,0,0,0,0,0,0,-1,1602,526,8.42942,4.70624
385,498,4.7793,-5.15314,0,0,0,0,0,0,0,-1,1609,526,4.77935,5.15311
392,498,9.12439,-8.57953,0,0,0,0,0,0,0,-1,1616,526,9.12443,8.57955
399,498,7.98938,-9.46021,0,0,0,0,0,0,0,-1,1623,526,7.98936,9.4602
406,498,7.58081,-9.26819,0,0,0,0,0,0,0,-1,1630,526,7.58085,9.26817
413,498,7.17236,-9.07611,0,0,0,0,0,0,0,-1,1637,526,7.17234,9.07614
420,498,11.4314,-16.1147,0,0,0,0,0,0,0,-1,1644,526,11.4313,16.1147
427,498,11.6019,-18.5035,0,0,0,0,0,0,0,-1,1651,526,11.6019,18.5035
434,498,11.6307,-17.8955,0.00258342,0.000579884,-0.000464906,0.00268604,0.000477262,-0.217253,0.00165471,0.0339519,1658,526,11.6308,17.8955
441,498,11.7188,-17.3826,0.0021636,0.000728805,-0.000340769,0.00224042,0.000651984,-0.221728,0.00133064,0.0124165,1665,526,11.7187,17.3826
448,498,11.7239,-16.8943,0.00200037,0.00079928,-0.000184783,0.00202816,0.000771495,-0.14925,0.00118207,0.0106876,1672,526,11.7239,16.8944
455,498,11.6956,-16.4188,0.0018008,0.000889813,-6.68675e-05,0.00180569,0.000884931,-0.0728802,0.00104258,0.0156325,1679,526,11.6955,16.4188
462,498,11.7054,-15.9492,0.00161395,0.000937698,5.5526e-05,0.00161848,0.000933169,0.0813823,0.000938073,0.0174457,1686,526,11.7055,15.9492
469,498,11.709,-15.4772,0.00149952,0.000846767,0.000274205,0.00159941,0.000746868,0.349376,0.000924094,0.0135826,1693,526,11.7089,15.4772
476,498,11.6859,-14.9886,0.00126166,0.000676239,0.000521851,0.00156729,0.000370613,0.529808,0.000945842,0.00982808,1700,526,11.6859,14.9886
483,498,11.6578,-14.4929,0.000915441,0.000397402,0.000699175,0.00140203,-8.91901e-05,0.608004,0.000965793,0.00837824,1707,526,11.6579,14.4929
490,498,11.6459,-13.9935,0.000379163,5.26552e-05,0.000843069,0.00107464,-0.000642821,0.689761,0.00100197,0.0106137,1714,526,11.6459,13.9936
497,498,11.6559,-13.4809,-0.000269347,-0.000262585,0.00105834,0.000792376,-0.00132431,0.786996,0.00123486,0.0124518,1721,526,11.6559,13.4809
504,498,11.6261,-12.9692,-0.00112625,-0.000734897,0.00116308,0.000248852,-0.00211,0.868737,0.00149653,0.0143222,1728,526,11.6261,12.9692
511,498,11.5981,-12.4531,-0.00226976,-0.00119308,0.00118938,-0.000425887,-0.00303696,0.997915,0.00189867,0.0154253,1735,526,11.5982,12.4531
518,498,11.6361,-11.9205,-0.00373256,-0.0016471,0.00107588,-0.00119156,-0.00418809,1.17027,0.00249173,0.0160046,1742,526,11.6361,11.9205
525,498,11.5426,-11.4036,-0.00543764,-0.00218461,0.000801982,-0.00199764,-0.00562461,1.34175,0.00329247,0.0259009,1749,526,11.5426,11.4037
532,498,11.3381,-10.9105,-0.00738829,-0.0026878,0.000432895,-0.00264827,-0.00742782,1.47972,0.0043469,0.0436258,1756,526,11.3382,10.9105
539,498,11.3459,-10.4257,0,0,0,0,0,0,0,-1,1763,526,11.3459,10.4257
546,498,10.2014,-8.47589,0,0,0,0,0,0,0,-1,1770,526,10.2014,8.47589
553,498,5.93958,-1.71448,0,0,0,0,0,0,0,-1,1777,526,5.93956,1.71447
560,498,3.69385,-0.615112,0,0,0,0,0,0,0,-1,1784,526,3.69381,0.615118
567,498,5.12695,-0.581604,0,0,0,0,0,0,0,-1,1791,526,5.12699,0.58159
574,498,3.88,0.0286255,0,0,0,0,0,0,0,-1,1798,526,3.87999,-0.0286535
581,498,10.8722,2.58551,0,0,0,0,0,0,0,-1,1805,526,10.8723,-2.58551
588,498,0,0,0,0,0,0,0,0,0,-1,1812,526,0,0
595,498,0,0,0,0,0,0,0,0,0,-1,1819,526,0,0
602,498,0,0,0,0,0,0,0,0,0,-1,1826,526,0,0
609,498,0,0,0,0,0,0,0,0,0,-1,1833,526,0,0
616,498,0,0,0,0,0,0,0,0,0,-1,1840,526,0,0
623,498,0,0,0,0,0,0,0,0,0,-1,1847,526,0,0
630,498,0,0,0,0,0,0,0,0,0,-1,1854,526,0,0
637,498,0,0,0,0,0,0,0,0,0,-1,1861,526,0,0
644,498,0,0,0,0,0,0,0,0,0,-1,1868,526,0,0
651,498,0,0,0,0,0,0,0,0,0,-1,1875,526,0,0
658,498,0,0,0,0,0,0,0,0,0,-1,1882,526,0,0
665,498,0,0,0,0,0,0,0,0,0,-1,1889,526,0,0
672,498,0,0,0,0,0,0,0,0,0,-1,1896,526,0,0
679,498,0,0,0,0,0,0,0,0,0,-1,1903,526,0,0
686,498,0,0,0,0,0,0,0,0,0,-1,1910,526,0,0
693,498,0,0,0,0,0,0,0,0,0,-1,1917,526,0,0
700,498,0,0,0,0,0,0,0,0,0,-1,1924,526,0,0
707,498,0,0,0,0,0,0,0,0,0,-1,1931,526,0,0
714,498,0,0,0,0,0,0,0,0,0,-1,1938,526,0,0
721,498,0,0,0,0,0,0,0,0,0,-1,1945,526,0,0
728,498,0,0,0,0,0,0,0,0,0,-1,1952,526,0,0
735,498,0,0,0,0,0,0,0,0,0,-1,1959,526,0,0
742,498,0,0,0,0,0,0,0,0,0,-1,1966,526,0,0
749,498,0,0,0,0,0,0,0,0,0,-1,1973,526,0,0
756,498,0,0,0,0,0,0,0,0,0,-1,1980,526,0,0
763,498,0,0,0,0,0,0,0,0,0,-1,1987,526,0,0
770,498,0,0,0,0,0,0,0,0,0,-1,1994,526,0,0
777,498,0,0,0,0,0,0,0,0,0,-1,2001,526,0,0
784,498,0,0,0,0,0,0,0,0,0,-1,2008,526,0,0
791,498,0,0,0,0,0,0,0,0,0,-1,2015,526,0,0
798,498,0,0,0,0,0,0,0,0,0,-1,2022,526,0,0
805,498,0,0,0,0,0,0,0,0,0,-1,2029,526,0,0
812,498,0,0,0,0,0,0,0,0,0,-1,2036,526,0,0
-700,491,0,0,0,0,0,0,0,0,0,-1,524,533,0,0
-693,491,0,0,0,0,0,0,0,0,0,-1,531,533,0,0
-686,491,0,0,0,0,0,0,0,0,0,-1,538,533,0,0
-679,491,0,0,0,0,0,0,0,0,0,-1,545,533,0,0
-672,491,0,0,0,0,0,0,0,0,0,-1,552,533,0,0
-665,491,0,0,0,0,0,0,0,0,0,-1,559,533,0,0
-658,491,0,0,0,0,0,0,0,0,0,-1,566,533,0,0
-651,491,0,0,0,0,0,0,0,0,0,-1,573,533,0,0
-644,491,0,0,0,0,0,0,0,0,0,-1,580,533,0,0
-637,491,0,0,0,0,0,0,0,0,0,-1,587,533,0,0
-630,491,0,0,0,0,0,0,0,0,0,-1,594,533,0,0
-623,491,0,0,0,0,0,0,0,0,0,-1,601,533,0,0
-616,491,0,0,0,0,0,0,0,0,0,-1,608,533,0,0
-609,491,0,0,0,0,0,0,0,0,0,-1,615,533,0,0
-602,491,0,0,0,0,0,0,0,0,0,-1,622,533,0,0
-595,491,0,0,0,0,0,0,0,0,0,-1,629,533,0,0
-588,491,0,0,0,0,0,0,0,0,0,-1,636,533,0,0
-581,491,0,0,0,0,0,0,0,0,0,-1,643,533,0,0
-574,491,0,0,0,0,0,0,0,0,0,-1,650,533,0,0
-567,491,0,0,0,0,0,0,0,0,0,-1,657,533,0,0
-560,491,0,0,0,0,0,0,0,0,0,-1,664,533,0,0
-553,491,0,0,0,0,0,0,0,0,0,-1,671,533,0,0
-546,491,0,0,0,0,0,0,0,0,0,-1,678,533,0,0
-539,491,0,0,0,0,0,0,0,0,0,-1,685,533,0,0
-532,491,0,0,0,0,0,0,0,0,0,-1,692,533,0,0
-525,491,0,0,0,0,0,0,0,0,0,-1,699,533,0,0
-518,491,0,0,0,0,0,0,0,0,0,-1,706,533,0,0
-511,491,0,0,0,0,0,0,0,0,0,-1,713,533,0,0
-504,491,0,0,0,0,0,0,0,0,0,-1,720,533,0,0
-497,491,0,0,0,0,0,0,0,0,0,-1,727,533,0,0
-490,491,0,0,0,0,0,0,0,0,0,-1,734,533,0,0
-483,491,0,0,0,0,0,0,0,0,0,-1,741,533,0,0
-476,491,0,0,0,0,0,0,0,0,0,-1,748,533,0,0
-469,491,-5.85913,4.55011,0,0,0,0,0,0,0,-1,755,533,-5.8591,-4.55009
-462,491,-9.93713,4.90381,0,0,0,0,0,0,0,-1,762,533,-9.93716,-4.9038
-455,491,1.9494,-0.27887,0,0,0,0,0,0,0,-1,769,533,1.94941,0.27885
-448,491,2.68909,-1.8999,0,0,0,0,0,0,0,-1,776,533,2.6891,1.89988
-441,491,3.46069,-3.51855,0,0,0,0,0,0,0,-1,783,533,3.46071,3.51854
-434,491,2.67145,-7.44061,0,0,0,0,0,0,0,-1,790,533,2.67146,7.44061
-427,491,2.27136,-8.34546,0,0,0,0,0,0,0,-1,797,533,2.27136,8.34546
-420,491,-1.52142,-8.1123,0,0,0,0,0,0,0,-1,804,533,-1.52142,8.11228
-413,491,-2.73688,-11.925,0,0,0,0,0,0,0,-1,811,533,-2.73688,11.925
-406,491,-2.74438,-12.377,0.00956452,0.0130119,-0.00984868,0.0212866,0.00128982,-0.872029,0.0137812,0.026002,818,533,-2.74437,12.377
-399,491,-2.73712,-12.9371,0.00816072,0.0103535,-0.00834002,0.0176689,0.00084532,-0.850753,0.0115078,0.0113956,825,533,-2.73715,12.9371
-392,491,-2.78436,-13.4385,0.00674076,0.00794792,-0.00682735,0.0141983,0.000490365,-0.829486,0.0093064,0.0100722,832,533,-2.78434,13.4385
-385,491,-2.79413,-13.9085,0.00546588,0.00585827,-0.00539519,0.0110608,0.000263313,-0.803573,0.0072877,0.00906156,839,533,-2.79411,13.9085
-378,491,-2.78809,-14.3805,0.00443351,0.00417798,-0.00419647,0.00850415,0.000107334,-0.77018,0.005634,0.0131117,846,533,-2.78807,14.3805
-371,491,-2.81598,-14.8763,0.0034756,0.00270491,-0.00311192,0.00622594,-4.54378e-05,-0.723797,0.00416586,0.0136354,853,533,-2.81598,14.8763
-364,491,-2.84174,-15.3725,0.00263627,0.00143052,-0.00210948,0.00422733,-0.000160547,-0.646212,0.00287323,0.0128708,860,533,-2.84171,15.3725
-357,491,-2.83466,-15.8516,0.00214029,0.000547176,-0.00133103,0.0028949,-0.00020744,-0.515758,0.00200267,0.0119341,867,533,-2.83468,15.8516
-350,491,-2.84595,-16.304,0.00195448,-0.000185654,-0.000767104,0.00220103,-0.000432208,-0.310981,0.00163063,0.0146571,874,533,-2.84597,16.304
-343,491,-2.83057,-16.7586,0.00197101,-0.000623646,-0.000403296,0.00203225,-0.000684886,-0.150698,0.00163176,0.0240323,881,533,-2.83057,16.7586
-336,491,-2.84314,-17.2258,0.00227383,-0.0010073,-0.00015339,0.00228099,-0.00101445,-0.0466136,0.0019489,0.0248838,888,533,-2.84314,17.2258
-329,491,-2.85925,-17.6967,0.00269462,-0.00136595,4.34853e-05,0.00269509,-0.00136641,0.0107075,0.00238637,0.0259121,895,533,-2.85926,17.6967
-322,491,-2.86163,-18.1495,0.00307072,-0.00164975,0.000272728,0.00308642,-0.00166546,0.0575206,0.00278409,0.0229371,902,533,-2.86165,18.1495
-315,491,-2.94348,-18.554,0.00343907,-0.00195697,0.000500357,0.00348507,-0.00200297,0.0916853,0.00320681,0.0214336,909,533,-2.94346,18.554
-308,491,-2.86157,-19.1631,0,0,0,0,0,0,0,-1,916,533,-2.86159,19.1631
-301,491,-2.74841,-19.9695,0,0,0,0,0,0,0,-1,923,533,-2.7484,19.9695
-294,491,-0.777283,-8.60913,0,0,0,0,0,0,0,-1,930,533,-0.777288,8.6091
-287,491,-0.26123,-8.69055,0,0,0,0,0,0,0,-1,937,533,-0.261204,8.69053
-280,491,0.2948,-5.99219,0,0,0,0,0,0,0,-1,944,533,0.294811,5.99221
-273,491,0.369995,-5.33691,0,0,0,0,0,0,0,-1,951,533,0.369985,5.33693
-266,491,1.1167,-5.0321,0,0,0,0,0,0,0,-1,958,533,1.11668,5.0321
-259,491,12.0862,-16.9615,0,0,0,0,0,0,0,-1,965,533,12.0862,16.9615
-252,491,9.72443,-13.8417,0,0,0,0,0,0,0,-1,972,533,9.72444,13.8418
-245,491,5.27258,-14.3619,0,0,0,0,0,0,0,-1,979,533,5.27255,14.3619
-238,491,3.65381,-11.1472,0,0,0,0,0,0,0,-1,986,533,3.6538,11.1472
-231,491,2.17719,-7.86835,0,0,0,0,0,0,0,-1,993,533,2.17719,7.86832
-224,491,0.554626,-4.61725,0,0,0,0,0,0,0,-1,1000,533,0.554608,4.61727
-217,491,-2.92743,-1.0766,0,0,0,0,0,0,0,-1,1007,533,-2.92743,1.07659
-210,491,-0.92395,0.374512,0,0,0,0,0,0,0,-1,1014,533,-0.923959,-0.374531
-203,491,0.417419,4.77161,0,0,0,0,0,0,0,-1,1021,533,0.417446,-4.77162
-196,491,0,0,0,0,0,0,0,0,0,-1,1028,533,0,0
-189,491,0,0,0,0,0,0,0,0,0,-1,1035,533,0,0
-182,491,0,0,0,0,0,0,0,0,0,-1,1042,533,0,0
-175,491,0,0,0,0,0,0,0,0,0,-1,1049,533,0,0
-168,491,0,0,0,0,0,0,0,0,0,-1,1056,533,0,0
-161,491,0,0,0,0,0,0,0,0,0,-1,1063,533,0,0
-154,491,0,0,0,0,0,0,0,0,0,-1,1070,533,0,0
-147,491,0,0,0,0,0,0,0,0,0,-1,1077,533,0,0
-140,491,0,0,0,0,0,0,0,0,0,-1,1084,533,0,0
-133,491,0,0,0,0,0,0,0,0,0,-1,1091,533,0,0
-126,491,0,0,0,0,0,0,0,0,0,-1,1098,533,0,0
-119,491,0,0,0,0,0,0,0,0,0,-1,1105,533,0,0
-112,491,0,0,0,0,0,0,0,0,0,-1,1112,533,0,0
-105,491,0,0,0,0,0,0,0,0,0,-1,1119,533,0,0
-98,491,0,0,0,0,0,0,0,0,0,-1,1126,533,0,0
-91,491,0,0,0,0,0,0,0,0,0,-1,1133,533,0,0
-84,491,0,0,0,0,0,0,0,0,0,-1,1140,533,0,0
-77,491,0,0,0,0,0,0,0,0,0,-1,1147,533,0,0
-70,491,0,0,0,0,0,0,0,0,0,-1,1154,533,0,0
-63,491,0,0,0,0,0,0,0,0,0,-1,1161,533,0,0
-56,491,0,0,0,0,0,0,0,0,0,-1,1168,533,0,0
-49,491,0,0,0,0,0,0,0,0,0,-1,1175,533,0,0
-42,491,0,0,0,0,0,0,0,0,0,-1,1182,533,0,0
-35,491,0,0,0,0,0,0,0,0,0,-1,1189,533,0,0
-28,491,0,0,0,0,0,0,0,0,0,-1,1196,533,0,0
-21,491,0,0,0,0,0,0,0,0,0,-1,1203,533,0,0
-14,491,0,0,0,0,0,0,0,0,0,-1,1210,533,0,0
-7,491,0,0,0,0,0,0,0,0,0,-1,1217,533,0,0
0,491,0,0,0,0,0,0,0,0,0,-1,1224,533,0,0
7,491,0,0,0,0,0,0,0,0,0,-1,1231,533,0,0
14,491,0,0,0,0,0,0,0,0,0,-1,1238,533,0,0
21,491,0,0,0,0,0,0,0,0,0,-1,1245,533,0,0
28,491,0,0,0,0,0,0,0,0,0,-1,1252,533,0,0
35,491,0,0,0,0,0,0,0,0,0,-1,1259,533,0,0
42,491,0,0,0,0,0,0,0,0,0,-1,1266,533,0,0
49,491,0,0,0,0,0,0,0,0,0,-1,1273,533,0,0
56,491,0,0,0,0,0,0,0,0,0,-1,1280,533,0,0
63,491,0,0,0,0,0,0,0,0,0,-1,1287,533,0,0
70,491,0,0,0,0,0,0,0,0,0,-1,1294,533,0,0
77,491,0,0,0,0,0,0,0,0,0,-1,1301,533,0,0
84,491,0,0,0,0,0,0,0,0,0,-1,1308,533,0,0
91,491,0,0,0,0,0,0,0,0,0,-1,1315,533,0,0
98,491,0,0,0,0,0,0,0,0,0,-1,1322,533,0,0
105,491,0,0,0,0,0,0,0,0,0,-1,1329,533,0,0
112,491,0,0,0,0,0,0,0,0,0,-1,1336,533,0,0
119,491,0,0,0,0,0,0,0,0,0,-1,1343,533,0,0
126,491,0,0,0,0,0,0,0,0,0,-1,1350,533,0,0
133,491,0,0,0,0,0,0,0,0,0,-1,1357,533,0,0
140,491,0,0,0,0,0,0,0,0,0,-1,1364,533,0,0
147,491,0,0,0,0,0,0,0,0,0,-1,1371,533,0,0
154,491,0,0,0,0,0,0,0,0,0,-1,1378,533,0,0
161,491,0,0,0,0,0,0,0,0,0,-1,1385,533,0,0
168,491,0,0,0,0,0,0,0,0,0,-1,1392,533,0,0
175,491,0,0,0,0,0,0,0,0,0,-1,1399,533,0,0
182,491,0,0,0,0,0,0,0,0,0,-1,1406,533,0,0
189,491,0,0,0,0,0,0,0,0,0,-1,1413,533,0,0
196,491,0,0,0,0,0,0,0,0,0,-1,1420,533,0,0
203,491,0,0,0,0,0,0,0,0,0,-1,1427,533,0,0
210,491,0,0,0,0,0,0,0,0,0,-1,1434,533,0,0
217,491,0,0,0,0,0,0,0,0,0,-1,1441,533,0,0
224,491,0,0,0,0,0,0,0,0,0,-1,1448,533,0,0
231,491,0,0,0,0,0,0,0,0,0,-1,1455,533,0,0
238,491,0,0,0,0,0,0,0,0,0,-1,1462,533,0,0
245,491,0,0,0,0,0,0,0,0,0,-1,1469,533,0,0
252,491,0,0,0,0,0,0,0,0,0,-1,1476,533,0,0
259,491,0,0,0,0,0,0,0,0,0,-1,1483,533,0,0
266,491,0,0,0,0,0,0,0,0,0,-1,1490,533,0,0
273,491,0,0,0,0,0,0,0,0,0,-1,1497,533,0,0
280,491,0,0,0,0,0,0,0,0,0,-1,1504,533,0,0
287,491,0,0,0,0,0,0,0,0,0,-1,1511,533,0,0
294,491,0,0,0,0,0,0,0,0,0,-1,1518,533,0,0
301,491,0,0,0,0,0,0,0,0,0,-1,1525,533,0,0
308,491,0,0,0,0,0,0,0,0,0,-1,1532,533,0,0
315,491,0,0,0,0,0,0,0,0,0,-1,1539,533,0,0
322,491,4.26331,-0.734314,0,0,0,0,0,0,0,-1,1546,533,4.26326,0.734324
329,491,4.25354,-0.783752,0,0,0,0,0,0,0,-1,1553,533,4.25359,0.783734
336,491,4.81604,-0.722107,0,0,0,0,0,0,0,-1,1560,533,4.81605,0.722115
343,491,6.14478,-1.44281,0,0,0,0,0,0,0,-1,1567,533,6.14474,1.44281
350,491,6.36353,-1.30792,0,0,0,0,0,0,0,-1,1574,533,6.36352,1.3079
357,491,6.69482,-1.06018,0,0,0,0,0,0,0,-1,1581,533,6.69489,1.06018
364,491,8.01086,-1.69604,0,0,0,0,0,0,0,-1,1588,533,8.01087,1.69607
371,491,8.2135,-0.539307,0,0,0,0,0,0,0,-1,1595,533,8.21348,0.53929
378,491,13.3589,2.17267,0,0,0,0,0,0,0,-1,1602,533,13.3589,-2.17264
385,491,8.08228,-4.95471,0,0,0,0,0,0,0,-1,1609,533,8.08227,4.95474
392,491,2.88721,-4.30988,0,0,0,0,0,0,0,-1,1616,533,2.88716,4.30986
399,491,8.95862,-8.55518,0,0,0,0,0,0,0,-1,1623,533,8.95864,8.55516
406,491,8.16541,-9.00806,0,0,0,0,0,0,0,-1,1630,533,8.16535,9.00807
413,491,5.31848,-3.7124,0,0,0,0,0,0,0,-1,1637,533,5.31849,3.7124
420,491,4.86389,-3.95892,0,0,0,0,0,0,0,-1,1644,533,4.86387,3.95893
427,491,11.5096,-15.2742,0,0,0,0,0,0,0,-1,1651,533,11.5096,15.2742
434,491,12.0995,-17.8588,0,0,0,0,0,0,0,-1,1658,533,12.0995,17.8588
441,491,12.2383,-17.1133,0.00250906,0.000680539,-0.00051927,0.00264624,0.000543366,-0.258266,0.00161382,0.0459348,1665,533,12.2382,17.1133
448,491,12.1838,-16.9136,0.0023199,0.000893786,-0.000380114,0.00241489,0.000798798,-0.244878,0.0014206,0.0276759,1672,533,12.1839,16.9136
455,491,12.1671,-16.3945,0.00210693,0.00110633,-0.000276712,0.00217836,0.0010349,-0.252605,0.0012582,0.0157606,1679,533,12.1671,16.3946
462,491,12.2084,-15.9267,0.00190143,0.00124517,-0.00017459,0.00194499,0.00120161,-0.244487,0.00113328,0.0167282,1686,533,12.2084,15.9267
469,491,12.2051,-15.4624,0.00182255,0.00122345,9.8306e-06,0.00182271,0.00122329,0.0164032,0.00107269,0.0152667,1693,533,12.205,15.4624
476,491,12.1821,-14.9595,0.00165366,0.00107647,0.000246249,0.00174444,0.000985689,0.353194,0.00100999,0.00992784,1700,533,12.1822,14.9595
483,491,12.1547,-14.4556,0.00135131,0.00083752,0.000428234,0.00159379,0.000595036,0.515227,0.000929966,0.0113536,1707,533,12.1547,14.4556
490,491,12.1437,-13.9922,0.000854467,0.000577772,0.000555787,0.00128887,0.000143372,0.663417,0.000815665,0.0105528,1714,533,12.1437,13.9922
497,491,12.1514,-13.4836,0.000277427,0.000392504,0.000777149,0.00111424,-0.00044431,0.82235,0.000927126,0.01226,1721,533,12.1514,13.4836
504,491,12.14,-12.9586,-0.000475698,5.97906e-06,0.000872451,0.000670223,-0.00113994,0.920068,0.00105676,0.013568,1728,533,12.14,12.9586
511,491,12.1024,-12.4516,-0.00148793,-0.000368594,0.000883237,0.000117365,-0.00197389,1.0678,0.00135674,0.0124789,1735,533,12.1025,12.4516
518,491,12.0966,-11.9401,-0.002779,-0.000697824,0.000777859,-0.000439224,-0.0030376,1.24984,0.00189569,0.0100141,1742,533,12.0966,11.9401
525,491,12.1079,-11.4114,-0.00419839,-0.00110587,0.00055274,-0.00101005,-0.00429421,1.39914,0.00259256,0.0103502,1749,533,12.1079,11.4114
532,491,12.0909,-10.8943,-0.00576645,-0.00142513,0.000269499,-0.00140847,-0.00578311,1.50903,0.0034822,0.0224507,1756,533,12.091,10.8944
539,491,11.9358,-10.4697,-0.00752439,-0.00172517,-0.00020283,-0.00171808,-0.00753147,-1.53588,0.00455754,0.0391513,1763,533,11.9357,10.4697
546,491,11.6443,-9.82227,0,0,0,0,0,0,0,-1,1770,533,11.6443,9.82226
553,491,10.5021,-7.77869,0,0,0,0,0,0,0,-1,1777,533,10.502,7.77871
560,491,6.28455,-1.43585,0,0,0,0,0,0,0,-1,1784,533,6.28458,1.43586
567,491,5.67651,-1.3562,0,0,0,0,0,0,0,-1,1791,533,5.67649,1.3562
574,491,8.0719,1.58325,0,0,0,0,0,0,0,-1,1798,533,8.07195,-1.58326
581,491,9.44812,1.60931,0,0,0,0,0,0,0,-1,1805,533,9.44808,-1.60933
588,491,11.0497,1.54962,0,0,0,0,0,0,0,-1,1812,533,11.0496,-1.54963
595,491,0,0,0,0,0,0,0,0,0,-1,1819,533,0,0
602,491,0,0,0,0,0,0,0,0,0,-1,1826,533,0,0
609,491,0,0,0,0,0,0,0,0,0,-1,1833,533,0,0
616,491,0,0,0,0,0,0,0,0,0,-1,1840,533,0,0
623,491,0,0,0,0,0,0,0,0,0,-1,1847,533,0,0
630,491,0,0,0,0,0,0,0,0,0,-1,1854,533,0,0
637,491,0,0,0,0,0,0,0,0,0,-1,1861,533,0,0
644,491,0,0,0,0,0,0,0,0,0,-1,1868,533,0,0
651,491,0,0,0,0,0,0,0,0,0,-1,1875,533,0,0
658,491,0,0,0,0,0,0,0,0,0,-1,1882,533,0,0
665,491,0,0,0,0,0,0,0,0,0,-1,1889,533,0,0
672,491,0,0,0,0,0,0,0,0,0,-1,1896,533,0,0
679,491,0,0,0,0,0,0,0,0,0,-1,1903,533,0,0
686,491,0,0,0,0,0,0,0,0,0,-1,1910,533,0,0
693,491,0,0,0,0,0,0,0,0,0,-1,1917,533,0,0
700,491,0,0,0,0,0,0,0,0,0,-1,1924,533,0,0
707,491,0,0,0,0,0,0,0,0,0,-1,1931,533,0,0
714,491,0,0,0,0,0,0,0,0,0,-1,1938,533,0,0
721,491,0,0,0,0,0,0,0,0,0,-1,1945,533,0,0
728,491,0,0,0,0,0,0,0,0,0,-1,1952,533,0,0
735,491,0,0,0,0,0,0,0,0,0,-1,1959,533,0,0
742,491,0,0,0,0,0,0,0,0,0,-1,1966,533,0,0
749,491,0,0,0,0,0,0,0,0,0,-1,1973,533,0,0
756,491,0,0,0,0,0,0,0,0,0,-1,1980,533,0,0
763,491,0,0,0,0,0,0,0,0,0,-1,1987,533,0,0
770,491,0,0,0,0,0,0,0,0,0,-1,1994,533,0,0
777,491,0,0,0,0,0,0,0,0,0,-1,2001,533,0,0
784,491,0,0,0,0,0,0,0,0,0,-1,2008,533,0,0
791,491,0,0,0,0,0,0,0,0,0,-1,2015,533,0,0
798,491,0,0,0,0,0,0,0,0,0,-1,2022,533,0,0
805,491,0,0,0,0,0,0,0,0,0,-1,2029,533,0,0
812,491,0,0,0,0,0,0,0,0,0,-1,2036,533,0,0
-700,484,0,0,0,0,0,0,0,0,0,-1,524,540,0,0
-693,484,0,0,0,0,0,0,0,0,0,-1,531,540,0,0
-686,484,0,0,0,0,0,0,0,0,0,-1,538,540,0,0
-679,484,0,0,0,0,0,0,0,0,0,-1,545,540,0,0
-672,484,0,0,0,0,0,0,0,0,0,-1,552,540,0,0
-665,484,0,0,0,0,0,0,0,0,0,-1,559,540,0,0
-658,484,0,0,0,0,0,0,0,0,0,-1,566,540,0,0
-651,484,0,0,0,0,0,0,0,0,0,-1,573,540,0,0
-644,484,0,0,0,0,0,0,0,0,0,-1,580,540,0,0
-637,484,0,0,0,0,0,0,0,0,0,-1,587,540,0,0
-630,484,0,0,0,0,0,0,0,0,0,-1,594,540,0,0
-623,484,0,0,0,0,0,0,0,0,0,-1,601,540,0,0
-616,484,0,0,0,0,0,0,0,0,0,-1,608,540,0,0
-609,484,0,0,0,0,0,0,0,0,0,-1,615,540,0,0
-602,484,0,0,0,0,0,0,0,0,0,-1,622,540,0,0
-595,484,0,0,0,0,0,0,0,0,0,-1,629,540,0,0
-588,484,0,0,0,0,0,0,0,0,0,-1,636,540,0,0
-581,484,0,0,0,0,0,0,0,0,0,-1,643,540,0,0
-574,484,0,0,0,0,0,0,0,0,0,-1,650,540,0,0
-567,484,0,0,0,0,0,0,0,0,0,-1,657,540,0,0
-560,484,0,0,0,0,0,0,0,0,0,-1,664,540,0,0
-553,484,0,0,0,0,0,0,0,0,0,-1,671,540,0,0
-546,484,0,0,0,0,0,0,0,0,0,-1,678,540,0,0
-539,484,0,0,0,0,0,0,0,0,0,-1,685,540,0,0
-532,484,0,0,0,0,0,0,0,0,0,-1,692,540,0,0
-525,484,0,0,0,0,0,0,0,0,0,-1,699,540,0,0
-518,484,0,0,0,0,0,0,0,0,0,-1,706,540,0,0
-511,484,0,0,0,0,0,0,0,0,0,-1,713,540,0,0
-504,484,0,0,0,0,0,0,0,0,0,-1,720,540,0,0
-497,484,0,0,0,0,0,0,0,0,0,-1,727,540,0,0
-490,484,0,0,0,0,0,0,0,0,0,-1,734,540,0,0
-483,484,0,0,0,0,0,0,0,0,0,-1,741,540,0,0
-476,484,-8.46552,1.44702,0,0,0,0,0,0,0,-1,748,540,-8.46554,-1.44702
-469,484,-7.82343,1.70355,0,0,0,0,0,0,0,-1,755,540,-7.82345,-1.70355
-462,484,-8.36987,3.08612,0,0,0,0,0,0,0,-1,762,540,-8.36988,-3.0861
-455,484,-6.77197,2.07092,0,0,0,0,0,0,0,-1,769,540,-6.77197,-2.07094
-448,484,3.54895,-1.40106,0,0,0,0,0,0,0,-1,776,540,3.54897,1.40106
-441,484,4.28906,-3.05884,0,0,0,0,0,0,0,-1,783,540,4.28905,3.05883
-434,484,-2.17548,-5.07245,0,0,0,0,0,0,0,-1,790,540,-2.17546,5.07243
-427,484,-3.14014,-10.4336,0,0,0,0,0,0,0,-1,797,540,-3.14012,10.4336
-420,484,-3.13916,-10.7044,0,0,0,0,0,0,0,-1,804,540,-3.13914,10.7044
-413,484,-3.11145,-11.7957,0.00669696,0.0124926,-0.00817989,0.0182728,0.000916781,-0.955632,0.0118881,0.0314579,811,540,-3.11146,11.7957
-406,484,-3.17529,-12.3991,0.00631992,0.0102933,-0.00727266,0.0158457,0.000767474,-0.918731,0.0103175,0.0164048,818,540,-3.17529,12.3991
-399,484,-3.24915,-12.9303,0.00559946,0.00814629,-0.00616314,0.0131662,0.000579561,-0.887274,0.00859079,0.0159651,825,540,-3.24914,12.9303
-392,484,-3.25146,-13.406,0.00480469,0.0061474,-0.00501003,0.0105309,0.000421232,-0.852002,0.00688446,0.0172643,832,540,-3.25147,13.406
-385,484,-3.2691,-13.9011,0.0040686,0.00438191,-0.00390366,0.00813206,0.000318451,-0.805452,0.0053184,0.0128212,839,540,-3.26908,13.901
-378,484,-3.26868,-14.3848,0.00346039,0.00292609,-0.00294458,0.00614991,0.000236562,-0.740159,0.00402341,0.0147212,846,540,-3.26866,14.3848
-371,484,-3.28784,-14.8525,0.00284525,0.00162738,-0.00204672,0.0043717,0.000100931,-0.64081,0.00288141,0.0164221,853,540,-3.28787,14.8525
-364,484,-3.31842,-15.3225,0.00228885,0.000505506,-0.00120969,0.00289998,-0.000105632,-0.467799,0.00196948,0.0116293,860,540,-3.31839,15.3225
-357,484,-3.32867,-15.808,0.00202894,-0.00025691,-0.000584728,0.00216983,-0.000397802,-0.236445,0.00159577,0.0126378,867,540,-3.32868,15.8081
-350,484,-3.32806,-16.2629,0.00208054,-0.000736071,-0.00025123,0.00210277,-0.000758304,-0.0882673,0.00171156,0.0150408,874,540,-3.32804,16.2629
-343,484,-3.29364,-16.7482,0.00246373,-0.000995106,-0.000143083,0.00246964,-0.00100102,-0.0412734,0.00206272,0.0238849,881,540,-3.29367,16.7482
-336,484,-3.30585,-17.2015,0.00298286,-0.00126961,-5.85816e-05,0.00298367,-0.00127042,-0.0137724,0.00252162,0.0277102,888,540,-3.30584,17.2015
-329,484,-3.34827,-17.6364,0.00350295,-0.00153308,8.18995e-06,0.00350296,-0.00153309,0.00162627,0.00298079,0.0373208,895,540,-3.34825,17.6364
-322,484,-3.27655,-18.2031,0,0,0,0,0,0,0,-1,902,540,-3.27653,18.2031
-315,484,-3.21533,-18.6061,0,0,0,0,0,0,0,-1,909,540,-3.21534,18.6061
-308,484,-1.32623,-8.9317,0,0,0,0,0,0,0,-1,916,540,-1.32626,8.93173
-301,484,-1.33453,-6.52667,0,0,0,0,0,0,0,-1,923,540,-1.33454,6.5267
-294,484,-1.61224,-8.17059,0,0,0,0,0,0,0,-1,930,540,-1.61227,8.17058
-287,484,-0.715759,-5.62103,0,0,0,0,0,0,0,-1,937,540,-0.715772,5.62105
-280,484,2.66742,-1.6795,0,0,0,0,0,0,0,-1,944,540,2.6674,1.67949
-273,484,2.53125,-2.22296,0,0,0,0,0,0,0,-1,951,540,2.53128,2.22295
-266,484,2.6778,-2.72058,0,0,0,0,0,0,0,-1,958,540,2.6778,2.72061
-259,484,2.41718,-2.59894,0,0,0,0,0,0,0,-1,965,540,2.41717,2.59892
-252,484,10.6069,-11.696,0,0,0,0,0,0,0,-1,972,540,10.6069,11.696
-245,484,6.34106,-11.6107,0,0,0,0,0,0,0,-1,979,540,6.34104,11.6107
-238,484,4.89319,-8.54059,0,0,0,0,0,0,0,-1,986,540,4.89321,8.5406
-231,484,3.47675,-5.22064,0,0,0,0,0,0,0,-1,993,540,3.47676,5.22067
-224,484,1.71344,-2.03473,0,0,0,0,0,0,0,-1,1000,540,1.71342,2.03472
-217,484,-0.745056,1.17358,0,0,0,0,0,0,0,-1,1007,540,-0.745043,-1.17359
-210,484,0,0,0,0,0,0,0,0,0,-1,1014,540,0,0
-203,484,0,0,0,0,0,0,0,0,0,-1,1021,540,0,0
-196,484,0,0,0,0,0,0,0,0,0,-1,1028,540,0,0
-189,484,0,0,0,0,0,0,0,0,0,-1,1035,540,0,0
-182,484,0,0,0,0,0,0,0,0,0,-1,1042,540,0,0
-175,484,0,0,0,0,0,0,0,0,0,-1,1049,540,0,0
-168,484,0,0,0,0,0,0,0,0,0,-1,1056,540,0,0
-161,484,0,0,0,0,0,0,0,0,0,-1,1063,540,0,0
-154,484,0,0,0,0,0,0,0,0,0,-1,1070,540,0,0
-147,484,0,0,0,0,0,0,0,0,0,-1,1077,540,0,0
-140,484,0,0,0,0,0,0,0,0,0,-1,1084,540,0,0
-133,484,0,0,0,0,0,0,0,0,0,-1,1091,540,0,0
-126,484,0,0,0,0,0,0,0,0,0,-1,1098,540,0,0
-119,484,0,0,0,0,0,0,0,0,0,-1,1105,540,0,0
-112,484,0,0,0,0,0,0,0,0,0,-1,1112,540,0,0
-105,484,0,0,0,0,0,0,0,0,0,-1,1119,540,0,0
-98,484,0,0,0,0,0,0,0,0,0,-1,1126,540,0,0
-91,484,0,0,0,0,0,0,0,0,0,-1,1133,540,0,0
-84,484,0,0,0,0,0,0,0,0,0,-1,1140,540,0,0
-77,484,0,0,0,0,0,0,0,0,0,-1,1147,540,0,0
-70,484,0,0,0,0,0,0,0,0,0,-1,1154,540,0,0
-63,484,0,0,0,0,0,0,0,0,0,-1,1161,540,0,0
-56,484,0,0,0,0,0,0,0,0,0,-1,1168,540,0,0
-49,484,0,0,0,0,0,0,0,0,0,-1,1175,540,0,0
-42,484,0,0,0,0,0,0,0,0,0,-1,1182,540,0,0
-35,484,0,0,0,0,0,0,0,0,0,-1,1189,540,0,0
-28,484,0,0,0,0,0,0,0,0,0,-1,1196,540,0,0
-21,484,0,0,0,0,0,0,0,0,0,-1,1203,540,0,0
-14,484,0,0,0,0,0,0,0,0,0,-1,1210,540,0,0
-7,484,0,0,0,0,0,0,0,0,0,-1,1217,540,0,0
0,484,0,0,0,0,0,0,0,0,0,-1,1224,540,0,0
7,484,0,0,0,0,0,0,0,0,0,-1,1231,540,0,0
14,484,0,0,0,0,0,0,0,0,0,-1,1238,540,0,0
21,484,0,0,0,0,0,0,0,0,0,-1,1245,540,0,0
28,484,0,0,0,0,0,0,0,0,0,-1,1252,540,0,0
35,484,0,0,0,0,0,0,0,0,0,-1,1259,540,0,0
42,484,0,0,0,0,0,0,0,0,0,-1,1266,540,0,0
49,484,0,0,0,0,0,0,0,0,0,-1,1273,540,0,0
56,484,0,0,0,0,0,0,0,0,0,-1,1280,540,0,0
63,484,0,0,0,0,0,0,0,0,0,-1,1287,540,0,0
70,484,0,0,0,0,0,0,0,0,0,-1,1294,540,0,0
77,484,0,0,0,0,0,0,0,0,0,-1,1301,540,0,0
84,484,0,0,0,0,0,0,0,0,0,-1,1308,540,0,0
91,484,0,0,0,0,0,0,0,0,0,-1,1315,540,0,0
98,484,0,0,0,0,0,0,0,0,0,-1,1322,540,0,0
105,484,0,0,0,0,0,0,0,0,0,-1,1329,540,0,0
112,484,0,0,0,0,0,0,0,0,0,-1,1336,540,0,0
119,484,0,0,0,0,0,0,0,0,0,-1,1343,540,0,0
126,484,0,0,0,0,0,0,0,0,0,-1,1350,540,0,0
133,484,0,0,0,0,0,0,0,0,0,-1,1357,540,0,0
140,484,0,0,0,0,0,0,0,0,0,-1,1364,540,0,0
147,484,0,0,0,0,0,0,0,0,0,-1,1371,540,0,0
154,484,0,0,0,0,0,0,0,0,0,-1,1378,540,0,0
161,484,0,0,0,0,0,0,0,0,0,-1,1385,540,0,0
168,484,0,0,0,0,0,0,0,0,0,-1,1392,540,0,0
175,484,0,0,0,0,0,0,0,0,0,-1,1399,540,0,0
182,484,0,0,0,0,0,0,0,0,0,-1,1406,540,0,0
189,484,0,0,0,0,0,0,0,0,0,-1,1413,540,0,0
196,484,0,0,0,0,0,0,0,0,0,-1,1420,540,0,0
203,484,0,0,0,0,0,0,0,0,0,-1,1427,540,0,0
210,484,0,0,0,0,0,0,0,0,0,-1,1434,540,0,0
217,484,0,0,0,0,0,0,0,0,0,-1,1441,540,0,0
224,484,0,0,0,0,0,0,0,0,0,-1,1448,540,0,0
231,484,0,0,0,0,0,0,0,0,0,-1,1455,540,0,0
238,484,0,0,0,0,0,0,0,0,0,-1,1462,540,0,0
245,484,0,0,0,0,0,0,0,0,0,-1,1469,540,0,0
252,484,0,0,0,0,0,0,0,0,0,-1,1476,540,0,0
259,484,0,0,0,0,0,0,0,0,0,-1,1483,540,0,0
266,484,0,0,0,0,0,0,0,0,0,-1,1490,540,0,0
273,484,0,0,0,0,0,0,0,0,0,-1,1497,540,0,0
280,484,0,0,0,0,0,0,0,0,0,-1,1504,540,0,0
287,484,0,0,0,0,0,0,0,0,0,-1,1511,540,0,0
294,484,0,0,0,0,0,0,0,0,0,-1,1518,540,0,0
301,484,0,0,0,0,0,0,0,0,0,-1,1525,540,0,0
308,484,0,0,0,0,0,0,0,0,0,-1,1532,540,0,0
315,484,0,0,0,0,0,0,0,0,0,-1,1539,540,0,0
322,484,0,0,0,0,0,0,0,0,0,-1,1546,540,0,0
329,484,0,0,0,0,0,0,0,0,0,-1,1553,540,0,0
336,484,4.38708,-1.64136,0,0,0,0,0,0,0,-1,1560,540,4.38704,1.64138
343,484,7.57996,-1.05457,0,0,0,0,0,0,0,-1,1567,540,7.57995,1.05454
350,484,8.10425,-1.18878,0,0,0,0,0,0,0,-1,1574,540,8.1043,1.18877
357,484,7.74902,-3.80286,0,0,0,0,0,0,0,-1,1581,540,7.74901,3.80287
364,484,6.31262,-3.87213,0,0,0,0,0,0,0,-1,1588,540,6.31263,3.87215
371,484,7.21008,0.973511,0,0,0,0,0,0,0,-1,1595,540,7.21014,-0.973541
378,484,11.0563,1.5014,0,0,0,0,0,0,0,-1,1602,540,11.0563,-1.5014
385,484,14.3469,2.5545,0,0,0,0,0,0,0,-1,1609,540,14.3469,-2.55453
392,484,7.39453,-4.95026,0,0,0,0,0,0,0,-1,1616,540,7.39448,4.95023
399,484,7.14417,-2.5639,0,0,0,0,0,0,0,-1,1623,540,7.14417,2.56391
406,484,7.88953,-2.47321,0,0,0,0,0,0,0,-1,1630,540,7.88954,2.47323
413,484,4.4895,-1.08673,0,0,0,0,0,0,0,-1,1637,540,4.48952,1.08674
420,484,4.50012,-2.11255,0,0,0,0,0,0,0,-1,1644,540,4.50012,2.11256
427,484,5.28601,-3.54053,0,0,0,0,0,0,0,-1,1651,540,5.28599,3.54051
434,484,11.1488,-13.5359,0,0,0,0,0,0,0,-1,1658,540,11.1489,13.5359
441,484,12.6456,-16.7674,0,0,0,0,0,0,0,-1,1665,540,12.6456,16.7674
448,484,12.6006,-17.0432,0,0,0,0,0,0,0,-1,1672,540,12.6006,17.0432
455,484,12.6609,-16.521,0.00250861,0.00136361,-0.000555801,0.00273403,0.0011382,-0.3853,0.00158585,0.048019,1679,540,12.6609,16.521
462,484,12.6926,-15.9118,0.00227476,0.00160102,-0.000418087,0.0024748,0.00140098,-0.446284,0.00143298,0.0205478,1686,540,12.6926,15.9118
469,484,12.6926,-15.446,0.0022074,0.0016411,-0.000224,0.00228529,0.00156321,-0.334649,0.00134887,0.0180758,1693,540,12.6927,15.4461
476,484,12.676,-14.9348,0.00210624,0.00148724,3.64301e-05,0.00210838,0.0014851,0.0585836,0.00125071,0.0151077,1700,540,12.6761,14.9347
483,484,12.6685,-14.4456,0.00184994,0.00125722,0.00025652,0.00194554,0.00116162,0.356731,0.00113029,0.0115088,1707,540,12.6684,14.4456
490,484,12.657,-13.9934,0.00139235,0.00105591,0.000393301,0.0016519,0.000796365,0.583312,0.000953928,0.0119531,1714,540,12.657,13.9934
497,484,12.6375,-13.478,0.000873815,0.000954229,0.000632303,0.0015476,0.000280442,0.81715,0.000952122,0.0139897,1721,540,12.6374,13.478
504,484,12.6241,-12.9288,0.000206317,0.000601659,0.000726047,0.00115646,-0.000348486,0.918305,0.000909666,0.0158912,1728,540,12.6241,12.9288
511,484,12.6367,-12.408,-0.000687902,0.000258078,0.00073115,0.000655893,-0.00108572,1.0725,0.00101567,0.0195311,1735,540,12.6367,12.408
518,484,12.6177,-11.9384,-0.0018141,2.26002e-07,0.00064308,0.000205041,-0.00201892,1.26246,0.00141924,0.01681,1742,540,12.6177,11.9384
525,484,12.5975,-11.4319,-0.00298862,-0.000334074,0.000459961,-0.000256635,-0.00306606,1.404,0.00196409,0.0141888,1749,540,12.5975,11.4319
532,484,12.5912,-10.8926,-0.00425878,-0.000558555,0.000230288,-0.000544277,-0.00427306,1.50888,0.00268573,0.0159943,1756,540,12.5911,10.8926
539,484,12.5367,-10.3216,-0.00566088,-0.00079925,-0.000138291,-0.000795319,-0.00566481,-1.54238,0.00354133,0.0347538,1763,540,12.5367,10.3216
546,484,12.4586,-9.6532,0,0,0,0,0,0,0,-1,1770,540,12.4586,9.65321
553,484,12.4246,-8.96423,0,0,0,0,0,0,0,-1,1777,540,12.4246,8.96422
560,484,10.0549,-5.47931,0,0,0,0,0,0,0,-1,1784,540,10.055,5.47928
567,484,7.78223,-1.38312,0,0,0,0,0,0,0,-1,1791,540,7.78224,1.38311
574,484,5.74463,1.50922,0,0,0,0,0,0,0,-1,1798,540,5.74463,-1.50924
581,484,10.34,2.9491,0,0,0,0,0,0,0,-1,1805,540,10.34,-2.94912
588,484,10.6669,2.88568,0,0,0,0,0,0,0,-1,1812,540,10.6669,-2.88567
595,484,10.7233,1.04767,0,0,0,0,0,0,0,-1,1819,540,10.7233,-1.04766
602,484,0,0,0,0,0,0,0,0,0,-1,1826,540,0,0
609,484,0,0,0,0,0,0,0,0,0,-1,1833,540,0,0
616,484,0,0,0,0,0,0,0,0,0,-1,1840,540,0,0
623,484,0,0,0,0,0,0,0,0,0,-1,1847,540,0,0
630,484,0,0,0,0,0,0,0,0,0,-1,1854,540,0,0
637,484,0,0,0,0,0,0,0,0,0,-1,1861,540,0,0
644,484,0,0,0,0,0,0,0,0,0,-1,1868,540,0,0
651,484,0,0,0,0,0,0,0,0,0,-1,1875,540,0,0
658,484,0,0,0,0,0,0,0,0,0,-1,1882,540,0,0
665,484,0,0,0,0,0,0,0,0,0,-1,1889,540,0,0
672,484,0,0,0,0,0,0,0,0,0,-1,1896,540,0,0
679,484,0,0,0,0,0,0,0,0,0,-1,1903,540,0,0
686,484,0,0,0,0,0,0,0,0,0,-1,1910,540,0,0
693,484,0,0,0,0,0,0,0,0,0,-1,1917,540,0,0
700,484,0,0,0,0,0,0,0,0,0,-1,1924,540,0,0
707,484,0,0,0,0,0,0,0,0,0,-1,1931,540,0,0
714,484,0,0,0,0,0,0,0,0,0,-1,1938,540,0,0
721,484,0,0,0,0,0,0,0,0,0,-1,1945,540,0,0
728,484,0,0,0,0,0,0,0,0,0,-1,1952,540,0,0
735,484,0,0,0,0,0,0,0,0,0,-1,1959,540,0,0
742,484,0,0,0,0,0,0,0,0,0,-1,1966,540,0,0
749,484,0,0,0,0,0,0,0,0,0,-1,1973,540,0,0
756,484,0,0,0,0,0,0,0,0,0,-1,1980,540,0,0
763,484,0,0,0,0,0,0,0,0,0,-1,1987,540,0,0
770,484,0,0,0,0,0,0,0,0,0,-1,1994,540,0,0
777,484,0,0,0,0,0,0,0,0,0,-1,2001,540,0,0
784,484,0,0,0,0,0,0,0,0,0,-1,2008,540,0,0
791,484,0,0,0,0,0,0,0,0,0,-1,2015,540,0,0
798,484,0,0,0,0,0,0,0,0,0,-1,2022,540,0,0
805,484,0,0,0,0,0,0,0,0,0,-1,2029,540,0,0
812,484,0,0,0,0,0,0,0,0,0,-1,2036,540,0,0
-700,477,0,0,0,0,0,0,0,0,0,-1,524,547,0,0
-693,477,0,0,0,0,0,0,0,0,0,-1,531,547,0,0
-686,477,0,0,0,0,0,0,0,0,0,-1,538,547,0,0
-679,477,0,0,0,0,0,0,0,0,0,-1,545,547,0,0
-672,477,0,0,0,0,0,0,0,0,0,-1,552,547,0,0
-665,477,0,0,0,0,0,0,0,0,0,-1,559,547,0,0
-658,477,0,0,0,0,0,0,0,0,0,-1,566,547,0,0
-651,477,0,0,0,0,0,0,0,0,0,-1,573,547,0,0
-644,477,0,0,0,0,0,0,0,0,0,-1,580,547,0,0
-637,477,0,0,0,0,0,0,0,0,0,-1,587,547,0,0
-630,477,0,0,0,0,0,0,0,0,0,-1,594,547,0,0
-623,477,0,0,0,0,0,0,0,0,0,-1,601,547,0,0
-616,477,0,0,0,0,0,0,0,0,0,-1,608,547,0,0
-609,477,0,0,0,0,0,0,0,0,0,-1,615,547,0,0
-602,477,0,0,0,0,0,0,0,0,0,-1,622,547,0,0
-595,477,0,0,0,0,0,0,0,0,0,-1,629,547,0,0
-588,477,0,0,0,0,0,0,0,0,0,-1,636,547,0,0
-581,477,0,0,0,0,0,0,0,0,0,-1,643,547,0,0
-574,477,0,0,0,0,0,0,0,0,0,-1,650,547,0,0
-567,477,0,0,0,0,0,0,0,0,0,-1,657,547,0,0
-560,477,0,0,0,0,0,0,0,0,0,-1,664,547,0,0
-553,477,0,0,0,0,0,0,0,0,0,-1,671,547,0,0
-546,477,0,0,0,0,0,0,0,0,0,-1,678,547,0,0
-539,477,0,0,0,0,0,0,0,0,0,-1,685,547,0,0
-532,477,0,0,0,0,0,0,0,0,0,-1,692,547,0,0
-525,477,0,0,0,0,0,0,0,0,0,-1,699,547,0,0
-518,477,0,0,0,0,0,0,0,0,0,-1,706,547,0,0
-511,477,0,0,0,0,0,0,0,0,0,-1,713,547,0,0
-504,477,0,0,0,0,0,0,0,0,0,-1,720,547,0,0
-497,477,0,0,0,0,0,0,0,0,0,-1,727,547,0,0
-490,477,0,0,0,0,0,0,0,0,0,-1,734,547,0,0
-483,477,-7.73151,-0.224182,0,0,0,0,0,0,0,-1,741,547,-7.73152,0.224176
-476,477,-6.25806,-0.310547,0,0,0,0,0,0,0,-1,748,547,-6.25804,0.310549
-469,477,-7.26617,0.525085,0,0,0,0,0,0,0,-1,755,547,-7.2662,-0.525111
-462,477,-6.65143,1.06042,0,0,0,0,0,0,0,-1,762,547,-6.65143,-1.06043
-455,477,-5.31757,0.429016,0,0,0,0,0,0,0,-1,769,547,-5.31756,-0.42902
-448,477,-4.0697,0.273376,0,0,0,0,0,0,0,-1,776,547,-4.06971,-0.273363
-441,477,-2.47504,-4.76971,0,0,0,0,0,0,0,-1,783,547,-2.47505,4.76973
-434,477,-3.41101,-10.3862,0,0,0,0,0,0,0,-1,790,547,-3.411,10.3862
-427,477,-3.60559,-10.7155,0.00343332,0.0137121,-0.00673853,0.0170474,9.79817e-05,-1.11118,0.0113324,0.0414958,797,547,-3.60558,10.7155
-420,477,-3.67743,-11.0677,0.003888,0.0116877,-0.00638212,0.0152672,0.000308525,-1.05965,0.0100768,0.0336765,804,547,-3.67745,11.0677
-413,477,-3.65521,-11.8015,0.00411402,0.00961052,-0.00586131,0.0133359,0.000388641,-1.00462,0.00876393,0.0205745,811,547,-3.65523,11.8015
-406,477,-3.71814,-12.3894,0.00407887,0.00790474,-0.00522163,0.0115528,0.000430806,-0.96098,0.00756236,0.0119287,818,547,-3.71811,12.3894
-399,477,-3.72003,-12.9043,0.0037674,0.0061957,-0.00440288,0.00954877,0.000414334,-0.919936,0.00623233,0.0192477,825,547,-3.72004,12.9043
-392,477,-3.73834,-13.3965,0.00338207,0.00455408,-0.00352998,0.00754637,0.00038978,-0.867652,0.00490615,0.0168373,832,547,-3.73834,13.3965
-385,477,-3.7428,-13.8744,0.00301726,0.0030861,-0.0026848,0.0057367,0.000366657,-0.791809,0.0037083,0.0138385,839,547,-3.74279,13.8744
-378,477,-3.75128,-14.3727,0.0027077,0.00183939,-0.00191497,0.00423712,0.000309974,-0.673925,0.0027273,0.0132365,846,547,-3.75128,14.3727
-371,477,-3.76709,-14.8216,0.00235769,0.000714707,-0.00116494,0.00296165,0.000110742,-0.478301,0.00193858,0.0138268,853,547,-3.76709,14.8216
-364,477,-3.78699,-15.2886,0.00204363,-0.000250118,-0.000461656,0.00213306,-0.000339547,-0.191345,0.00154769,0.0135311,860,547,-3.787,15.2885
-357,477,-3.80908,-15.777,0.0019951,-0.00091574,5.0933e-05,0.00199599,-0.000916631,0.0174906,0.00171966,0.0109927,867,547,-3.80908,15.777
-350,477,-3.8067,-16.2428,0.00227659,-0.00116441,0.00019751,0.00228789,-0.00117571,0.057149,0.00203378,0.0103406,874,547,-3.80668,16.2428
-343,477,-3.74237,-16.7379,0.00305765,-0.00129724,9.82505e-05,0.00305987,-0.00129945,0.0225457,0.00258436,0.019874,881,547,-3.74239,16.7379
-336,477,-3.65607,-17.2215,0.00385244,-0.00151944,7.38123e-05,0.00385345,-0.00152045,0.013737,0.0031986,0.0370928,888,547,-3.65607,17.2215
-329,477,-3.49628,-17.6566,0,0,0,0,0,0,0,-1,895,547,-3.49626,17.6566
-322,477,-2.04822,-12.0026,0,0,0,0,0,0,0,-1,902,547,-2.04819,12.0026
-315,477,-1.67358,-9.15253,0,0,0,0,0,0,0,-1,909,547,-1.67356,9.15253
-308,477,-1.30127,-6.55188,0,0,0,0,0,0,0,-1,916,547,-1.30128,6.55185
-301,477,-1.21185,-6.28351,0,0,0,0,0,0,0,-1,923,547,-1.21184,6.28352
-294,477,-0.352905,3.27142,0,0,0,0,0,0,0,-1,930,547,-0.35292,-3.27144
-287,477,3.54364,2.15399,0,0,0,0,0,0,0,-1,937,547,3.54362,-2.15396
-280,477,1.97308,-0.954163,0,0,0,0,0,0,0,-1,944,547,1.9731,0.954178
-273,477,2.11621,-3.76709,0,0,0,0,0,0,0,-1,951,547,2.11619,3.76706
-266,477,2.04669,-3.42389,0,0,0,0,0,0,0,-1,958,547,2.04671,3.42391
-259,477,-1.33478,-3.41205,0,0,0,0,0,0,0,-1,965,547,-1.3348,3.41206
-252,477,0.597168,-5.32922,0,0,0,0,0,0,0,-1,972,547,0.597144,5.32924
-245,477,8.2309,-8.48492,0,0,0,0,0,0,0,-1,979,547,8.23091,8.48494
-238,477,6.60938,-5.64063,0,0,0,0,0,0,0,-1,986,547,6.60938,5.64063
-231,477,4.71716,-2.52484,0,0,0,0,0,0,0,-1,993,547,4.71716,2.52483
-224,477,0,0,0,0,0,0,0,0,0,-1,1000,547,0,0
-217,477,0,0,0,0,0,0,0,0,0,-1,1007,547,0,0
-210,477,0,0,0,0,0,0,0,0,0,-1,1014,547,0,0
-203,477,0,0,0,0,0,0,0,0,0,-1,1021,547,0,0
-196,477,0,0,0,0,0,0,0,0,0,-1,1028,547,0,0
-189,477,0,0,0,0,0,0,0,0,0,-1,1035,547,0,0
-182,477,0,0,0,0,0,0,0,0,0,-1,1042,547,0,0
-175,477,0,0,0,0,0,0,0,0,0,-1,1049,547,0,0
-168,477,0,0,0,0,0,0,0,0,0,-1,1056,547,0,0
-161,477,0,0,0,0,0,0,0,0,0,-1,1063,547,0,0
-154,477,0,0,0,0,0,0,0,0,0,-1,1070,547,0,0
-147,477,0,0,0,0,0,0,0,0,0,-1,1077,547,0,0
-140,477,0,0,0,0,0,0,0,0,0,-1,1084,547,0,0
-133,477,0,0,0,0,0,0,0,0,0,-1,1091,547,0,0
-126,477,0,0,0,0,0,0,0,0,0,-1,1098,547,0,0
-119,477,0,0,0,0,0,0,0,0,0,-1,1105,547,0,0
-112,477,0,0,0,0,0,0,0,0,0,-1,1112,547,0,0
-105,477,0,0,0,0,0,0,0,0,0,-1,1119,547,0,0
-98,477,0,0,0,0,0,0,0,0,0,-1,1126,547,0,0
-91,477,0,0,0,0,0,0,0,0,0,-1,1133,547,0,0
-84,477,0,0,0,0,0,0,0,0,0,-1,1140,547,0,0
-77,477,0,0,0,0,0,0,0,0,0,-1,1147,547,0,0
-70,477,0,0,0,0,0,0,0,0,0,-1,1154,547,0,0
-63,477,0,0,0,0,0,0,0,0,0,-1,1161,547,0,0
-56,477,0,0,0,0,0,0,0,0,0,-1,1168,547,0,0
-49,477,0,0,0,0,0,0,0,0,0,-1,1175,547,0,0
-42,477,0,0,0,0,0,0,0,0,0,-1,1182,547,0,0
-35,477,0,0,0,0,0,0,0,0,0,-1,1189,547,0,0
-28,477,0,0,0,0,0,0,0,0,0,-1,1196,547,0,0
-21,477,0,0,0,0,0,0,0,0,0,-1,1203,547,0,0
-14,477,0,0,0,0,0,0,0,0,0,-1,1210,547,0,0
-7,477,0,0,0,0,0,0,0,0,0,-1,1217,547,0,0
0,477,0,0,0,0,0,0,0,0,0,-1,1224,547,0,0
7,477,0,0,0,0,0,0,0,0,0,-1,1231,547,0,0
14,477,0,0,0,0,0,0,0,0,0,-1,1238,547,0,0
21,477,0,0,0,0,0,0,0,0,0,-1,1245,547,0,0
28,477,0,0,0,0,0,0,0,0,0,-1,1252,547,0,0
35,477,0,0,0,0,0,0,0,0,0,-1,1259,547,0,0
42,477,0,0,0,0,0,0,0,0,0,-1,1266,547,0,0
49,477,0,0,0,0,0,0,0,0,0,-1,1273,547,0,0
56,477,0,0,0,0,0,0,0,0,0,-1,1280,547,0,0
63,477,0,0,0,0,0,0,0,0,0,-1,1287,547,0,0
70,477,0,0,0,0,0,0,0,0,0,-1,1294,547,0,0
77,477,0,0,0,0,0,0,0,0,0,-1,1301,547,0,0
84,477,0,0,0,0,0,0,0,0,0,-1,1308,547,0,0
91,477,0,0,0,0,0,0,0,0,0,-1,1315,547,0,0
98,477,0,0,0,0,0,0,0,0,0,-1,1322,547,0,0
105,477,0,0,0,0,0,0,0,0,0,-1,1329,547,0,0
112,477,0,0,0,0,0,0,0,0,0,-1,1336,547,0,0
119,477,0,0,0,0,0,0,0,0,0,-1,1343,547,0,0
126,477,0,0,0,0,0,0,0,0,0,-1,1350,547,0,0
133,477,0,0,0,0,0,0,0,0,0,-1,1357,547,0,0
140,477,0,0,0,0,0,0,0,0,0,-1,1364,547,0,0
147,477,0,0,0,0,0,0,0,0,0,-1,1371,547,0,0
154,477,0,0,0,0,0,0,0,0,0,-1,1378,547,0,0
161,477,0,0,0,0,0,0,0,0,0,-1,1385,547,0,0
168,477,0,0,0,0,0,0,0,0,0,-1,1392,547,0,0
175,477,0,0,0,0,0,0,0,0,0,-1,1399,547,0,0
182,477,0,0,0,0,0,0,0,0,0,-1,1406,547,0,0
189,477,0,0,0,0,0,0,0,0,0,-1,1413,547,0,0
196,477,0,0,0,0,0,0,0,0,0,-1,1420,547,0,0
203,477,0,0,0,0,0,0,0,0,0,-1,1427,547,0,0
210,477,0,0,0,0,0,0,0,0,0,-1,1434,547,0,0
217,477,0,0,0,0,0,0,0,0,0,-1,1441,547,0,0
224,477,0,0,0,0,0,0,0,0,0,-1,1448,547,0,0
231,477,0,0,0,0,0,0,0,0,0,-1,1455,547,0,0
238,477,0,0,0,0,0,0,0,0,0,-1,1462,547,0,0
245,477,0,0,0,0,0,0,0,0,0,-1,1469,547,0,0
252,477,0,0,0,0,0,0,0,0,0,-1,1476,547,0,0
259,477,0,0,0,0,0,0,0,0,0,-1,1483,547,0,0
266,477,0,0,0,0,0,0,0,0,0,-1,1490,547,0,0
273,477,0,0,0,0,0,0,0,0,0,-1,1497,547,0,0
280,477,0,0,0,0,0,0,0,0,0,-1,1504,547,0,0
287,477,0,0,0,0,0,0,0,0,0,-1,1511,547,0,0
294,477,0,0,0,0,0,0,0,0,0,-1,1518,547,0,0
301,477,0,0,0,0,0,0,0,0,0,-1,1525,547,0,0
308,477,0,0,0,0,0,0,0,0,0,-1,1532,547,0,0
315,477,0,0,0,0,0,0,0,0,0,-1,1539,547,0,0
322,477,0,0,0,0,0,0,0,0,0,-1,1546,547,0,0
329,477,0,0,0,0,0,0,0,0,0,-1,1553,547,0,0
336,477,0,0,0,0,0,0,0,0,0,-1,1560,547,0,0
343,477,0,0,0,0,0,0,0,0,0,-1,1567,547,0,0
350,477,1.7699,-3.32275,0,0,0,0,0,0,0,-1,1574,547,1.7699,3.32272
357,477,3.073,-4.83313,0,0,0,0,0,0,0,-1,1581,547,3.07303,4.83316
364,477,4.30127,-4.22864,0,0,0,0,0,0,0,-1,1588,547,4.30125,4.22865
371,477,4.57703,0.283264,0,0,0,0,0,0,0,-1,1595,547,4.57706,-0.283262
378,477,8.57947,1.05969,0,0,0,0,0,0,0,-1,1602,547,8.5795,-1.05972
385,477,12.3726,2.02356,0,0,0,0,0,0,0,-1,1609,547,12.3725,-2.02355
392,477,16.4678,2.76843,0,0,0,0,0,0,0,-1,1616,547,16.4678,-2.76845
399,477,8.00037,-2.29523,0,0,0,0,0,0,0,-1,1623,547,8.00031,2.2952
406,477,4.82495,2.7475,0,0,0,0,0,0,0,-1,1630,547,4.825,-2.74752
413,477,4.88171,-0.336426,0,0,0,0,0,0,0,-1,1637,547,4.88169,0.336398
420,477,3.34875,0.102722,0,0,0,0,0,0,0,-1,1644,547,3.34871,-0.1027
427,477,1.66772,-0.373108,0,0,0,0,0,0,0,-1,1651,547,1.66768,0.373104
434,477,3.76978,-2.30798,0,0,0,0,0,0,0,-1,1658,547,3.76974,2.30801
441,477,4.05444,-2.80402,0,0,0,0,0,0,0,-1,1665,547,4.05444,2.804
448,477,10.4247,-11.7421,0,0,0,0,0,0,0,-1,1672,547,10.4247,11.7421
455,477,13.3054,-16.8109,0,0,0,0,0,0,0,-1,1679,547,13.3054,16.8109
462,477,13.1669,-16.0096,0,0,0,0,0,0,0,-1,1686,547,13.1669,16.0096
469,477,13.2056,-15.4221,0.00278313,0.00189366,-0.000397855,0.00293512,0.00174167,-0.364907,0.00170442,0.037524,1693,547,13.2056,15.4221
476,477,13.1588,-14.9767,0.00273008,0.00175245,-0.000111731,0.00274269,0.00173985,-0.112357,0.00160244,0.0197336,1700,547,13.1588,14.9767
483,477,13.1841,-14.4455,0.00251141,0.00155681,0.000165262,0.00253921,0.00152901,0.166663,0.00147618,0.0110256,1707,547,13.184,14.4455
490,477,13.1423,-13.9695,0.00207413,0.00143766,0.000320796,0.00220776,0.00130403,0.394702,0.00128162,0.0109896,1714,547,13.1424,13.9696
497,477,13.1251,-13.4424,0.00158118,0.00142056,0.000577935,0.00208436,0.000917382,0.716363,0.00120628,0.0123867,1721,547,13.1251,13.4425
504,477,13.1136,-12.9041,0.000963078,0.00108937,0.000670485,0.00169967,0.000352771,0.832349,0.00103575,0.0172225,1728,547,13.1136,12.9041
511,477,13.1586,-12.4512,0.000151684,0.000757513,0.000670379,0.00119024,-0.000281041,0.997596,0.000901888,0.0239691,1735,547,13.1586,12.4512
518,477,13.1526,-11.958,-0.000846496,0.000544877,0.000601368,0.000768769,-0.00107039,1.21439,0.00106659,0.0219048,1742,547,13.1526,11.958
525,477,13.1038,-11.4186,-0.00184684,0.000251942,0.000457067,0.000347161,-0.00194205,1.36541,0.00142459,0.0179406,1749,547,13.1038,11.4187
532,477,13.0637,-10.876,-0.00292282,5.75738e-05,0.000271297,8.20678e-05,-0.00294731,1.48076,0.00199279,0.0193296,1756,547,13.0638,10.876
539,477,13.0441,-10.2894,-0.00408145,-0.00016129,-8.89472e-06,-0.00016127,-0.00408147,-1.56853,0.00266885,0.0168625,1763,547,13.0441,10.2894
546,477,12.98,-9.8313,-0.00536978,-0.00043888,-0.000412605,-0.000404592,-0.00540406,-1.48789,0.0034757,0.0342934,1770,547,12.98,9.83132
553,477,12.9026,-9.19385,-0.00675729,-0.000511651,-0.000809444,-0.000408451,-0.00686049,-1.44399,0.00444377,0.0485602,1777,547,12.9026,9.19383
560,477,12.9518,-8.26862,0,0,0,0,0,0,0,-1,1784,547,12.9517,8.26862
567,477,13.1385,-8.07288,0,0,0,0,0,0,0,-1,1791,547,13.1385,8.0729
574,477,6.82593,-0.916992,0,0,0,0,0,0,0,-1,1798,547,6.82598,0.916977
581,477,9.29321,-0.557007,0,0,0,0,0,0,0,-1,1805,547,9.29324,0.55703
588,477,9.75195,0.422729,0,0,0,0,0,0,0,-1,1812,547,9.75198,-0.42273
595,477,9.89172,1.21326,0,0,0,0,0,0,0,-1,1819,547,9.89174,-1.21328
602,477,6.5271,-0.964417,0,0,0,0,0,0,0,-1,1826,547,6.52706,0.964427
609,477,0,0,0,0,0,0,0,0,0,-1,1833,547,0,0
616,477,0,0,0,0,0,0,0,0,0,-1,1840,547,0,0
623,477,0,0,0,0,0,0,0,0,0,-1,1847,547,0,0
630,477,0,0,0,0,0,0,0,0,0,-1,1854,547,0,0
637,477,0,0,0,0,0,0,0,0,0,-1,1861,547,0,0
644,477,0,0,0,0,0,0,0,0,0,-1,1868,547,0,0
651,477,0,0,0,0,0,0,0,0,0,-1,1875,547,0,0
658,477,0,0,0,0,0,0,0,0,0,-1,1882,547,0,0
665,477,0,0,0,0,0,0,0,0,0,-1,1889,547,0,0
672,477,0,0,0,0,0,0,0,0,0,-1,1896,547,0,0
679,477,0,0,0,0,0,0,0,0,0,-1,1903,547,0,0
686,477,0,0,0,0,0,0,0,0,0,-1,1910,547,0,0
693,477,0,0,0,0,0,0,0,0,0,-1,1917,547,0,0
700,477,0,0,0,0,0,0,0,0,0,-1,1924,547,0,0
707,477,0,0,0,0,0,0,0,0,0,-1,1931,547,0,0
714,477,0,0,0,0,0,0,0,0,0,-1,1938,547,0,0
721,477,0,0,0,0,0,0,0,0,0,-1,1945,547,0,0
728,477,0,0,0,0,0,0,0,0,0,-1,1952,547,0,0
735,477,0,0,0,0,0,0,0,0,0,-1,1959,547,0,0
742,477,0,0,0,0,0,0,0,0,0,-1,1966,547,0,0
749,477,0,0,0,0,0,0,0,0,0,-1,1973,547,0,0
756,477,0,0,0,0,0,0,0,0,0,-1,1980,547,0,0
763,477,0,0,0,0,0,0,0,0,0,-1,1987,547,0,0
770,477,0,0,0,0,0,0,0,0,0,-1,1994,547,0,0
777,477,0,0,0,0,0,0,0,0,0,-1,2001,547,0,0
784,477,0,0,0,0,0,0,0,0,0,-1,2008,547,0,0
791,477,0,0,0,0,0,0,0,0,0,-1,2015,547,0,0
798,477,0,0,0,0,0,0,0,0,0,-1,2022,547,0,0
805,477,0,0,0,0,0,0,0,0,0,-1,2029,547,0,0
812,477,0,0,0,0,0,0,0,0,0,-1,2036,547,0,0
-700,470,0,0,0,0,0,0,0,0,0,-1,524,554,0,0
-693,470,0,0,0,0,0,0,0,0,0,-1,531,554,0,0
-686,470,0,0,0,0,0,0,0,0,0,-1,538,554,0,0
-679,470,0,0,0,0,0,0,0,0,0,-1,545,554,0,0
-672,470,0,0,0,0,0,0,0,0,0,-1,552,554,0,0
-665,470,0,0,0,0,0,0,0,0,0,-1,559,554,0,0
-658,470,0,0,0,0,0,0,0,0,0,-1,566,554,0,0
-651,470,0,0,0,0,0,0,0,0,0,-1,573,554,0,0
-644,470,0,0,0,0,0,0,0,0,0,-1,580,554,0,0
-637,470,0,0,0,0,0,0,0,0,0,-1,587,554,0,0
-630,470,0,0,0,0,0,0,0,0,0,-1,594,554,0,0
-623,470,0,0,0,0,0,0,0,0,0,-1,601,554,0,0
-616,470,0,0,0,0,0,0,0,0,0,-1,608,554,0,0
-609,470,0,0,0,0,0,0,0,0,0,-1,615,554,0,0
-602,470,0,0,0,0,0,0,0,0,0,-1,622,554,0,0
-595,470,0,0,0,0,0,0,0,0,0,-1,629,554,0,0
-588,470,0,0,0,0,0,0,0,0,0,-1,636,554,0,0
-581,470,0,0,0,0,0,0,0,0,0,-1,643,554,0,0
-574,470,0,0,0,0,0,0,0,0,0,-1,650,554,0,0
-567,470,0,0,0,0,0,0,0,0,0,-1,657,554,0,0
-560,470,0,0,0,0,0,0,0,0,0,-1,664,554,0,0
-553,470,0,0,0,0,0,0,0,0,0,-1,671,554,0,0
-546,470,0,0,0,0,0,0,0,0,0,-1,678,554,0,0
-539,470,0,0,0,0,0,0,0,0,0,-1,685,554,0,0
-532,470,0,0,0,0,0,0,0,0,0,-1,692,554,0,0
-525,470,0,0,0,0,0,0,0,0,0,-1,699,554,0,0
-518,470,0,0,0,0,0,0,0,0,0,-1,706,554,0,0
-511,470,0,0,0,0,0,0,0,0,0,-1,713,554,0,0
-504,470,0,0,0,0,0,0,0,0,0,-1,720,554,0,0
-497,470,0,0,0,0,0,0,0,0,0,-1,727,554,0,0
-490,470,-9.13263,-1.03125,0,0,0,0,0,0,0,-1,734,554,-9.1326,1.03127
-483,470,-7.68677,-1.03955,0,0,0,0,0,0,0,-1,741,554,-7.68678,1.03958
-476,470,-6.17969,-1.03394,0,0,0,0,0,0,0,-1,748,554,-6.17971,1.03395
-469,470,-6.23016,-0.651855,0,0,0,0,0,0,0,-1,755,554,-6.23014,0.651829
-462,470,-4.87915,-1.03705,0,0,0,0,0,0,0,-1,762,554,-4.87914,1.03702
-455,470,-4.14777,-1.37079,0,0,0,0,0,0,0,-1,769,554,-4.14779,1.37078
-448,470,-2.9314,-5.74518,0,0,0,0,0,0,0,-1,776,554,-2.93137,5.74518
-441,470,-3.90472,-9.7345,0,0,0,0,0,0,0,-1,783,554,-3.90474,9.73451
-434,470,-3.92938,-10.3734,0.00105731,0.0117096,-0.00500404,0.0136915,-0.000924638,-1.19368,0.00945099,0.0460784,790,554,-3.92941,10.3734
-427,470,-4.1701,-10.7885,0.00172421,0.0103046,-0.00480289,0.0124544,-0.000425585,-1.14994,0.00844839,0.0213851,797,554,-4.17012,10.7885
-420,470,-4.15405,-11.3221,0.00221309,0.00882489,-0.0045289,0.0111261,-8.81441e-05,-1.10067,0.00744697,0.0157114,804,554,-4.15404,11.3221
-413,470,-4.1712,-11.8685,0.00249798,0.0071798,-0.00407946,0.00954227,0.000135501,-1.04588,0.00631683,0.0147828,811,554,-4.17119,11.8685
-406,470,-4.20245,-12.3668,0.0025952,0.00583801,-0.00356333,0.00813149,0.000301723,-0.99891,0.00532327,0.0116264,818,554,-4.20243,12.3668
-399,470,-4.20801,-12.8758,0.00250205,0.00448114,-0.00291733,0.00657218,0.000411012,-0.948907,0.00425108,0.0146955,825,554,-4.20801,12.8758
-392,470,-4.20654,-13.3694,0.0023606,0.00312738,-0.00222004,0.0049969,0.00049109,-0.870902,0.00318023,0.0139148,832,554,-4.20654,13.3694
-385,470,-4.22626,-13.8525,0.00223011,0.00190091,-0.0015485,0.00362273,0.000508291,-0.732449,0.00226482,0.0105571,839,554,-4.22624,13.8525
-378,470,-4.24139,-14.3553,0.0021061,0.000817298,-0.000902061,0.00257029,0.000353112,-0.475246,0.00160879,0.0152136,846,554,-4.2414,14.3553
-371,470,-4.24841,-14.8228,0.0019391,-0.000166975,-0.000258189,0.00197029,-0.000198164,-0.120221,0.00138432,0.0140319,853,554,-4.24842,14.8228
-364,470,-4.26831,-15.2767,0.00181353,-0.000995224,0.000325736,0.00185081,-0.00103251,0.113957,0.00168688,0.0147539,860,554,-4.26831,15.2767
-357,470,-4.2951,-15.7463,0.00193082,-0.00161224,0.00072627,0.00207391,-0.00175534,0.194535,0.00221337,0.0145688,867,554,-4.29512,15.7463
-350,470,-4.27039,-16.2352,0.00240407,-0.00168727,0.000676033,0.00251288,-0.00179608,0.159586,0.00249923,0.0112196,874,554,-4.2704,16.2352
-343,470,-4.18195,-16.7023,0.0035962,-0.00174874,0.00031873,0.00361514,-0.00176768,0.0593518,0.0031682,0.0375749,881,554,-4.18194,16.7023
-336,470,-4.16028,-17.2485,0,0,0,0,0,0,0,-1,888,554,-4.16025,17.2485
-329,470,-2.78516,-12.3594,0,0,0,0,0,0,0,-1,895,554,-2.78517,12.3594
-322,470,-2.30829,-11.4527,0,0,0,0,0,0,0,-1,902,554,-2.30827,11.4527
-315,470,-1.04797,-8.29529,0,0,0,0,0,0,0,-1,909,554,-1.04797,8.29526
-308,470,-1.39368,-6.68152,0,0,0,0,0,0,0,-1,916,554,-1.39369,6.68149
-301,470,-0.0340576,3.34888,0,0,0,0,0,0,0,-1,923,554,-0.0340496,-3.3489
-294,470,-1.18378,3.22266,0,0,0,0,0,0,0,-1,930,554,-1.18376,-3.22268
-287,470,-2.15454,3.2204,0,0,0,0,0,0,0,-1,937,554,-2.15452,-3.22037
-280,470,-3.00537,3.099,0,0,0,0,0,0,0,-1,944,554,-3.00536,-3.09898
-273,470,-12.3932,3.65009,0,0,0,0,0,0,0,-1,951,554,-12.3932,-3.65011
-266,470,-11.5706,1.16028,0,0,0,0,0,0,0,-1,958,554,-11.5706,-1.16031
-259,470,-7.50415,-2.77167,0,0,0,0,0,0,0,-1,965,554,-7.50413,2.7717
-252,470,-0.371155,-5.87823,0,0,0,0,0,0,0,-1,972,554,-0.37114,5.87821
-245,470,1.33221,-6.81122,0,0,0,0,0,0,0,-1,979,554,1.33223,6.8112
-238,470,0,0,0,0,0,0,0,0,0,-1,986,554,0,0
-231,470,0,0,0,0,0,0,0,0,0,-1,993,554,0,0
-224,470,0,0,0,0,0,0,0,0,0,-1,1000,554,0,0
-217,470,0,0,0,0,0,0,0,0,0,-1,1007,554,0,0
-210,470,0,0,0,0,0,0,0,0,0,-1,1014,554,0,0
-203,470,0,0,0,0,0,0,0,0,0,-1,1021,554,0,0
-196,470,0,0,0,0,0,0,0,0,0,-1,1028,554,0,0
-189,470,0,0,0,0,0,0,0,0,0,-1,1035,554,0,0
-182,470,0,0,0,0,0,0,0,0,0,-1,1042,554,0,0
-175,470,0,0,0,0,0,0,0,0,0,-1,1049,554,0,0
-168,470,0,0,0,0,0,0,0,0,0,-1,1056,554,0,0
-161,470,0,0,0,0,0,0,0,0,0,-1,1063,554,0,0
-154,470,0,0,0,0,0,0,0,0,0,-1,1070,554,0,0
-147,470,0,0,0,0,0,0,0,0,0,-1,1077,554,0,0
-140,470,0,0,0,0,0,0,0,0,0,-1,1084,554,0,0
-133,470,0,0,0,0,0,0,0,0,0,-1,1091,554,0,0
-126,470,0,0,0,0,0,0,0,0,0,-1,1098,554,0,0
-119,470,0,0,0,0,0,0,0,0,0,-1,1105,554,0,0
-112,470,0,0,0,0,0,0,0,0,0,-1,1112,554,0,0
-105,470,0,0,0,0,0,0,0,0,0,-1,1119,554,0,0
-98,470,0,0,0,0,0,0,0,0,0,-1,1126,554,0,0
-91,470,0,0,0,0,0,0,0,0,0,-1,1133,554,0,0
-84,470,0,0,0,0,0,0,0,0,0,-1,1140,554,0,0
-77,470,0,0,0,0,0,0,0,0,0,-1,1147,554,0,0
-70,470,0,0,0,0,0,0,0,0,0,-1,1154,554,0,0
-63,470,0,0,0,0,0,0,0,0,0,-1,1161,554,0,0
-56,470,0,0,0,0,0,0,0,0,0,-1,1168,554,0,0
-49,470,0,0,0,0,0,0,0,0,0,-1,1175,554,0,0
-42,470,0,0,0,0,0,0,0,0,0,-1,1182,554,0,0
-35,470,0,0,0,0,0,0,0,0,0,-1,1189,554,0,0
-28,470,0,0,0,0,0,0,0,0,0,-1,1196,554,0,0
-21,470,0,0,0,0,0,0,0,0,0,-1,1203,554,0,0
-14,470,0,0,0,0,0,0,0,0,0,-1,1210,554,0,0
-7,470,0,0,0,0,0,0,0,0,0,-1,1217,554,0,0
0,470,0,0,0,0,0,0,0,0,0,-1,1224,554,0,0
7,470,0,0,0,0,0,0,0,0,0,-1,1231,554,0,0
14,470,0,0,0,0,0,0,0,0,0,-1,1238,554,0,0
21,470,0,0,0,0,0,0,0,0,0,-1,1245,554,0,0
28,470,0,0,0,0,0,0,0,0,0,-1,1252,554,0,0
35,470,0,0,0,0,0,0,0,0,0,-1,1259,554,0,0
42,470,0,0,0,0,0,0,0,0,0,-1,1266,554,0,0
49,470,0,0,0,0,0,0,0,0,0,-1,1273,554,0,0
56,470,0,0,0,0,0,0,0,0,0,-1,1280,554,0,0
63,470,0,0,0,0,0,0,0,0,0,-1,1287,554,0,0
70,470,0,0,0,0,0,0,0,0,0,-1,1294,554,0,0
77,470,0,0,0,0,0,0,0,0,0,-1,1301,554,0,0
84,470,0,0,0,0,0,0,0,0,0,-1,1308,554,0,0
91,470,0,0,0,0,0,0,0,0,0,-1,1315,554,0,0
98,470,0,0,0,0,0,0,0,0,0,-1,1322,554,0,0
105,470,0,0,0,0,0,0,0,0,0,-1,1329,554,0,0
112,470,0,0,0,0,0,0,0,0,0,-1,1336,554,0,0
119,470,0,0,0,0,0,0,0,0,0,-1,1343,554,0,0
126,470,0,0,0,0,0,0,0,0,0,-1,1350,554,0,0
133,470,0,0,0,0,0,0,0,0,0,-1,1357,554,0,0
140,470,0,0,0,0,0,0,0,0,0,-1,1364,554,0,0
147,470,0,0,0,0,0,0,0,0,0,-1,1371,554,0,0
154,470,0,0,0,0,0,0,0,0,0,-1,1378,554,0,0
161,470,0,0,0,0,0,0,0,0,0,-1,1385,554,0,0
168,470,0,0,0,0,0,0,0,0,0,-1,1392,554,0,0
175,470,0,0,0,0,0,0,0,0,0,-1,1399,554,0,0
182,470,0,0,0,0,0,0,0,0,0,-1,1406,554,0,0
189,470,0,0,0,0,0,0,0,0,0,-1,1413,554,0,0
196,470,0,0,0,0,0,0,0,0,0,-1,1420,554,0,0
203,470,0,0,0,0,0,0,0,0,0,-1,1427,554,0,0
210,470,0,0,0,0,0,0,0,0,0,-1,1434,554,0,0
217,470,0,0,0,0,0,0,0,0,0,-1,1441,554,0,0
224,470,0,0,0,0,0,0,0,0,0,-1,1448,554,0,0
231,470,0,0,0,0,0,0,0,0,0,-1,1455,554,0,0
238,470,0,0,0,0,0,0,0,0,0,-1,1462,554,0,0
245,470,0,0,0,0,0,0,0,0,0,-1,1469,554,0,0
252,470,0,0,0,0,0,0,0,0,0,-1,1476,554,0,0
259,470,0,0,0,0,0,0,0,0,0,-1,1483,554,0,0
266,470,0,0,0,0,0,0,0,0,0,-1,1490,554,0,0
273,470,0,0,0,0,0,0,0,0,0,-1,1497,554,0,0
280,470,0,0,0,0,0,0,0,0,0,-1,1504,554,0,0
287,470,0,0,0,0,0,0,0,0,0,-1,1511,554,0,0
294,470,0,0,0,0,0,0,0,0,0,-1,1518,554,0,0
301,470,0,0,0,0,0,0,0,0,0,-1,1525,554,0,0
308,470,0,0,0,0,0,0,0,0,0,-1,1532,554,0,0
315,470,0,0,0,0,0,0,0,0,0,-1,1539,554,0,0
322,470,0,0,0,0,0,0,0,0,0,-1,1546,554,0,0
329,470,0,0,0,0,0,0,0,0,0,-1,1553,554,0,0
336,470,0,0,0,0,0,0,0,0,0,-1,1560,554,0,0
343,470,0,0,0,0,0,0,0,0,0,-1,1567,554,0,0
350,470,0,0,0,0,0,0,0,0,0,-1,1574,554,0,0
357,470,0,0,0,0,0,0,0,0,0,-1,1581,554,0,0
364,470,1.33423,0.293335,0,0,0,0,0,0,0,-1,1588,554,1.33422,-0.293348
371,470,2.22498,-0.0305176,0,0,0,0,0,0,0,-1,1595,554,2.22494,0.0305046
378,470,6.27051,0.710083,0,0,0,0,0,0,0,-1,1602,554,6.27054,-0.710093
385,470,10.3657,1.47296,0,0,0,0,0,0,0,-1,1609,554,10.3657,-1.47299
392,470,15.3881,3.01935,0,0,0,0,0,0,0,-1,1616,554,15.388,-3.01937
399,470,18.4479,2.93793,0,0,0,0,0,0,0,-1,1623,554,18.4479,-2.93792
406,470,15.1896,1.36676,0,0,0,0,0,0,0,-1,1630,554,15.1896,-1.36679
413,470,6.55383,1.99207,0,0,0,0,0,0,0,-1,1637,554,6.5538,-1.99208
420,470,4.47095,0.845703,0,0,0,0,0,0,0,-1,1644,554,4.47098,-0.845718
427,470,3.51038,1.19684,0,0,0,0,0,0,0,-1,1651,554,3.51039,-1.19684
434,470,3.31775,-1.37427,0,0,0,0,0,0,0,-1,1658,554,3.31781,1.37426
441,470,2.55457,-2.05902,0,0,0,0,0,0,0,-1,1665,554,2.55461,2.05904
448,470,3.27258,-2.64032,0,0,0,0,0,0,0,-1,1672,554,3.27257,2.64029
455,470,10.3658,-9.82233,0,0,0,0,0,0,0,-1,1679,554,10.3659,9.82233
462,470,11.0651,-11.9958,0,0,0,0,0,0,0,-1,1686,554,11.0651,11.9958
469,470,13.5182,-15.5968,0,0,0,0,0,0,0,-1,1693,554,13.5182,15.5968
476,470,13.5935,-14.9675,0.00360719,0.00169832,5.11457e-05,0.00360856,0.00169695,0.0267682,0.00208463,0.0457307,1700,554,13.5935,14.9675
483,470,13.6903,-14.4265,0.00346516,0.00156689,0.000369201,0.00353444,0.00149761,0.185488,0.00204851,0.0159609,1707,554,13.6903,14.4265
490,470,13.6349,-13.9373,0.00303635,0.00159012,0.000504061,0.00319469,0.00143178,0.304379,0.00184776,0.011717,1714,554,13.6348,13.9373
497,470,13.6156,-13.429,0.00251837,0.00168594,0.000726489,0.00293943,0.00126489,0.525267,0.00170256,0.0121535,1721,554,13.6156,13.4289
504,470,13.6412,-12.9556,0.00188687,0.0014079,0.000763591,0.00244765,0.000847118,0.633442,0.00143529,0.0184271,1728,554,13.6412,12.9556
511,470,13.6549,-12.5176,0.00109552,0.00112384,0.000706799,0.00181662,0.00040274,0.795412,0.00110165,0.0262186,1735,554,13.6549,12.5176
518,470,13.6427,-12.0187,0.000161626,0.000983826,0.000614105,0.00131173,-0.000166279,1.08035,0.000934856,0.0254902,1742,554,13.6427,12.0187
525,470,13.6254,-11.4128,-0.000756024,0.000753014,0.000465798,0.000885211,-0.000888222,1.29426,0.00102389,0.0152568,1749,554,13.6253,11.4128
532,470,13.5747,-10.8397,-0.00174122,0.000589807,0.000277306,0.000622342,-0.00177375,1.454,0.00143564,0.0134627,1756,554,13.5747,10.8397
539,470,13.5707,-10.3248,-0.00276785,0.000389313,3.64828e-05,0.000389734,-0.00276827,1.55924,0.0019882,0.0165381,1763,554,13.5707,10.3248
546,470,13.558,-9.80292,-0.00390221,9.87041e-05,-0.000320194,0.000124167,-0.00392767,-1.49144,0.0026608,0.0144767,1770,554,13.558,9.80292
553,470,13.5568,-9.22186,-0.00516488,1.01702e-05,-0.000642136,8.86577e-05,-0.00524337,-1.44917,0.0035255,0.0203061,1777,554,13.5567,9.22184
560,470,13.5532,-8.62238,-0.00663384,0.000714475,-0.000834961,0.000808154,-0.00672752,-1.45907,0.00477724,0.0346044,1784,554,13.5532,8.6224
567,470,13.3988,-8.15265,-0.00822951,0.00116084,-0.00110626,0.0012894,-0.00835808,-1.4551,0.00604784,0.0272815,1791,554,13.3988,8.15264
574,470,13.4384,-7.42645,0,0,0,0,0,0,0,-1,1798,554,13.4384,7.42643
581,470,8.24646,-4.06317,0,0,0,0,0,0,0,-1,1805,554,8.24648,4.06318
588,470,11.1803,1.74927,0,0,0,0,0,0,0,-1,1812,554,11.1803,-1.74926
595,470,4.72192,3.44116,0,0,0,0,0,0,0,-1,1819,554,4.72191,-3.44116
602,470,14.4307,2.76141,0,0,0,0,0,0,0,-1,1826,554,14.4306,-2.76139
609,470,20.9181,4.41058,0,0,0,0,0,0,0,-1,1833,554,20.9181,-4.4106
616,470,0,0,0,0,0,0,0,0,0,-1,1840,554,0,0
623,470,0,0,0,0,0,0,0,0,0,-1,1847,554,0,0
630,470,0,0,0,0,0,0,0,0,0,-1,1854,554,0,0
637,470,0,0,0,0,0,0,0,0,0,-1,1861,554,0,0
644,470,0,0,0,0,0,0,0,0,0,-1,1868,554,0,0
651,470,0,0,0,0,0,0,0,0,0,-1,1875,554,0,0
658,470,0,0,0,0,0,0,0,0,0,-1,1882,554,0,0
665,470,0,0,0,0,0,0,0,0,0,-1,1889,554,0,0
672,470,0,0,0,0,0,0,0,0,0,-1,1896,554,0,0
679,470,0,0,0,0,0,0,0,0,0,-1,1903,554,0,0
686,470,0,0,0,0,0,0,0,0,0,-1,1910,554,0,0
693,470,0,0,0,0,0,0,0,0,0,-1,1917,554,0,0
700,470,0,0,0,0,0,0,0,0,0,-1,1924,554,0,0
707,470,0,0,0,0,0,0,0,0,0,-1,1931,554,0,0
714,470,0,0,0,0,0,0,0,0,0,-1,1938,554,0,0
721,470,0,0,0,0,0,0,0,0,0,-1,1945,554,0,0
728,470,0,0,0,0,0,0,0,0,0,-1,1952,554,0,0
735,470,0,0,0,0,0,0,0,0,0,-1,1959,554,0,0
742,470,0,0,0,0,0,0,0,0,0,-1,1966,554,0,0
749,470,0,0,0,0,0,0,0,0,0,-1,1973,554,0,0
756,470,0,0,0,0,0,0,0,0,0,-1,1980,554,0,0
763,470,0,0,0,0,0,0,0,0,0,-1,1987,554,0,0
770,470,0,0,0,0,0,0,0,0,0,-1,1994,554,0,0
777,470,0,0,0,0,0,0,0,0,0,-1,2001,554,0,0
784,470,0,0,0,0,0,0,0,0,0,-1,2008,554,0,0
791,470,0,0,0,0,0,0,0,0,0,-1,2015,554,0,0
798,470,0,0,0,0,0,0,0,0,0,-1,2022,554,0,0
805,470,0,0,0,0,0,0,0,0,0,-1,2029,554,0,0
812,470,0,0,0,0,0,0,0,0,0,-1,2036,554,0,0
-700,463,0,0,0,0,0,0,0,0,0,-1,524,561,0,0
-693,463,0,0,0,0,0,0,0,0,0,-1,531,561,0,0
-686,463,0,0,0,0,0,0,0,0,0,-1,538,561,0,0
-679,463,0,0,0,0,0,0,0,0,0,-1,545,561,0,0
-672,463,0,0,0,0,0,0,0,0,0,-1,552,561,0,0
-665,463,0,0,0,0,0,0,0,0,0,-1,559,561,0,0
-658,463,0,0,0,0,0,0,0,0,0,-1,566,561,0,0
-651,463,0,0,0,0,0,0,0,0,0,-1,573,561,0,0
-644,463,0,0,0,0,0,0,0,0,0,-1,580,561,0,0
-637,463,0,0,0,0,0,0,0,0,0,-1,587,561,0,0
-630,463,0,0,0,0,0,0,0,0,0,-1,594,561,0,0
-623,463,0,0,0,0,0,0,0,0,0,-1,601,561,0,0
-616,463,0,0,0,0,0,0,0,0,0,-1,608,561,0,0
-609,463,0,0,0,0,0,0,0,0,0,-1,615,561,0,0
-602,463,0,0,0,0,0,0,0,0,0,-1,622,561,0,0
-595,463,0,0,0,0,0,0,0,0,0,-1,629,561,0,0
-588,463,0,0,0,0,0,0,0,0,0,-1,636,561,0,0
-581,463,0,0,0,0,0,0,0,0,0,-1,643,561,0,0
-574,463,0,0,0,0,0,0,0,0,0,-1,650,561,0,0
-567,463,0,0,0,0,0,0,0,0,0,-1,657,561,0,0
-560,463,0,0,0,0,0,0,0,0,0,-1,664,561,0,0
-553,463,0,0,0,0,0,0,0,0,0,-1,671,561,0,0
-546,463,0,0,0,0,0,0,0,0,0,-1,678,561,0,0
-539,463,0,0,0,0,0,0,0,0,0,-1,685,561,0,0
-532,463,0,0,0,0,0,0,0,0,0,-1,692,561,0,0
-525,463,0,0,0,0,0,0,0,0,0,-1,699,561,0,0
-518,463,0,0,0,0,0,0,0,0,0,-1,706,561,0,0
-511,463,0,0,0,0,0,0,0,0,0,-1,713,561,0,0
-504,463,0,0,0,0,0,0,0,0,0,-1,720,561,0,0
-497,463,-9.81451,-1.67126,0,0,0,0,0,0,0,-1,727,561,-9.81452,1.67127
-490,463,-8.57043,-1.58942,0,0,0,0,0,0,0,-1,734,561,-8.57045,1.58944
-483,463,-7.29224,-1.7226,0,0,0,0,0,0,0,-1,741,561,-7.29226,1.72261
-476,463,-5.77704,-1.7312,0,0,0,0,0,0,0,-1,748,561,-5.77703,1.73121
-469,463,-5.14545,-2.138,0,0,0,0,0,0,0,-1,755,561,-5.14546,2.13799
-462,463,-3.13672,-3.07977,0,0,0,0,0,0,0,-1,762,561,-3.13672,3.07974
-455,463,-2.91406,-5.61798,0,0,0,0,0,0,0,-1,769,561,-2.91406,5.61801
-448,463,-4.00177,-8.54681,0,0,0,0,0,0,0,-1,776,561,-4.00175,8.54683
-441,463,-4.70972,-9.63318,0,0,0,0,0,0,0,-1,783,561,-4.70972,9.63317
-434,463,-4.61255,-10.325,0.00030548,0.00886915,-0.00375543,0.0102827,-0.00110807,-1.2108,0.00725276,0.0245696,790,561,-4.61253,10.3249
-427,463,-4.62848,-10.8329,0.000813955,0.0076873,-0.00345622,0.00912465,-0.000623403,-1.17668,0.00630119,0.0101274,797,561,-4.62849,10.8329
-420,463,-4.62555,-11.33,0.00123277,0.00648779,-0.00314914,0.00796161,-0.000241049,-1.13307,0.00538988,0.0103521,804,561,-4.62557,11.33
-413,463,-4.64813,-11.8466,0.00147837,0.00507836,-0.00267844,0.00650544,5.12861e-05,-1.08125,0.00431997,0.0100572,811,561,-4.64812,11.8465
-406,463,-4.68121,-12.3516,0.00160937,0.00395813,-0.00220361,0.00528076,0.000286739,-1.03022,0.00342893,0.00966208,818,561,-4.68123,12.3516
-399,463,-4.69781,-12.8494,0.00163072,0.00282332,-0.00164852,0.00398006,0.000473966,-0.958936,0.00251035,0.0105882,825,561,-4.69783,12.8494
-392,463,-4.70947,-13.3428,0.00163797,0.00166344,-0.00105807,0.00270885,0.00059256,-0.791415,0.00164436,0.0103977,832,561,-4.70949,13.3428
-385,463,-4.72534,-13.853,0.0016621,0.000617641,-0.000504111,0.00186572,0.000414026,-0.383873,0.00113134,0.0114641,839,561,-4.72535,13.853
-378,463,-4.73706,-14.3507,0.00165893,-0.000336771,6.2537e-05,0.00166088,-0.000338729,0.031295,0.00123574,0.0123156,846,561,-4.73708,14.3507
-371,463,-4.74536,-14.8439,0.001632,-0.0011808,0.000623867,0.00176416,-0.00131296,0.208756,0.00178293,0.0122106,853,561,-4.74536,14.8439
-364,463,-4.73816,-15.2766,0.00167423,-0.00183084,0.00108959,0.00198533,-0.00214194,0.278119,0.00238345,0.0147964,860,561,-4.73814,15.2766
-357,463,-4.76849,-15.7083,0.00193262,-0.00234896,0.00136992,0.00233342,-0.00274976,0.284625,0.00293805,0.0204192,867,561,-4.76849,15.7082
-350,463,-4.69214,-16.2448,0.0025827,-0.00214921,0.00108861,0.00282113,-0.00238764,0.215616,0.00301075,0.0349846,874,561,-4.69215,16.2448
-343,463,-4.48431,-16.6115,0,0,0,0,0,0,0,-1,881,561,-4.48432,16.6115
-336,463,-2.94928,-12.2127,0,0,0,0,0,0,0,-1,888,561,-2.94925,12.2127
-329,463,-2.64307,-12.7037,0,0,0,0,0,0,0,-1,895,561,-2.64307,12.7038
-322,463,-1.82898,-9.11957,0,0,0,0,0,0,0,-1,902,561,-1.829,9.11957
-315,463,-0.944763,-5.96234,0,0,0,0,0,0,0,-1,909,561,-0.94479,5.96237
-308,463,-1.1535,-3.17889,0,0,0,0,0,0,0,-1,916,561,-1.15352,3.17889
-301,463,-1.50366,-3.15338,0,0,0,0,0,0,0,-1,923,561,-1.50364,3.15341
-294,463,-2.35889,-3.93463,0,0,0,0,0,0,0,-1,930,561,-2.35886,3.93465
-287,463,-2.80322,2.73999,0,0,0,0,0,0,0,-1,937,561,-2.80322,-2.74
-280,463,-12.864,5.25146,0,0,0,0,0,0,0,-1,944,561,-12.864,-5.25149
-273,463,-12.4598,3.39178,0,0,0,0,0,0,0,-1,951,561,-12.4598,-3.3918
-266,463,-8.78101,-3.7356,0,0,0,0,0,0,0,-1,958,561,-8.78098,3.73562
-259,463,-6.23285,-5.68842,0,0,0,0,0,0,0,-1,965,561,-6.23288,5.68843
-252,463,0,0,0,0,0,0,0,0,0,-1,972,561,0,0
-245,463,0,0,0,0,0,0,0,0,0,-1,979,561,0,0
-238,463,0,0,0,0,0,0,0,0,0,-1,986,561,0,0
-231,463,0,0,0,0,0,0,0,0,0,-1,993,561,0,0
-224,463,0,0,0,0,0,0,0,0,0,-1,1000,561,0,0
-217,463,0,0,0,0,0,0,0,0,0,-1,1007,561,0,0
-210,463,0,0,0,0,0,0,0,0,0,-1,1014,561,0,0
-203,463,0,0,0,0,0,0,0,0,0,-1,1021,561,0,0
-196,463,0,0,0,0,0,0,0,0,0,-1,1028,561,0,0
-189,463,0,0,0,0,0,0,0,0,0,-1,1035,561,0,0
-182,463,0,0,0,0,0,0,0,0,0,-1,1042,561,0,0
-175,463,0,0,0,0,0,0,0,0,0,-1,1049,561,0,0
-168,463,0,0,0,0,0,0,0,0,0,-1,1056,561,0,0
-161,463,0,0,0,0,0,0,0,0,0,-1,1063,561,0,0
-154,463,0,0,0,0,0,0,0,0,0,-1,1070,561,0,0
-147,463,0,0,0,0,0,0,0,0,0,-1,1077,561,0,0
-140,463,0,0,0,0,0,0,0,0,0,-1,1084,561,0,0
-133,463,0,0,0,0,0,0,0,0,0,-1,1091,561,0,0
-126,463,0,0,0,0,0,0,0,0,0,-1,1098,561,0,0
-119,463,0,0,0,0,0,0,0,0,0,-1,1105,561,0,0
-112,463,0,0,0,0,0,0,0,0,0,-1,1112,561,0,0
-105,463,0,0,0,0,0,0,0,0,0,-1,1119,561,0,0
-98,463,0,0,0,0,0,0,0,0,0,-1,1126,561,0,0
-91,463,0,0,0,0,0,0,0,0,0,-1,1133,561,0,0
-84,463,0,0,0,0,0,0,0,0,0,-1,1140,561,0,0
-77,463,0,0,0,0,0,0,0,0,0,-1,1147,561,0,0
-70,463,0,0,0,0,0,0,0,0,0,-1,1154,561,0,0
-63,463,0,0,0,0,0,0,0,0,0,-1,1161,561,0,0
-56,463,0,0,0,0,0,0,0,0,0,-1,1168,561,0,0
-49,463,0,0,0,0,0,0,0,0,0,-1,1175,561,0,0
-42,463,0,0,0,0,0,0,0,0,0,-1,1182,561,0,0
-35,463,0,0,0,0,0,0,0,0,0,-1,1189,561,0,0
-28,463,0,0,0,0,0,0,0,0,0,-1,1196,561,0,0
-21,463,0,0,0,0,0,0,0,0,0,-1,1203,561,0,0
-14,463,0,0,0,0,0,0,0,0,0,-1,1210,561,0,0
-7,463,0,0,0,0,0,0,0,0,0,-1,1217,561,0,0
0,463,0,0,0,0,0,0,0,0,0,-1,1224,561,0,0
7,463,0,0,0,0,0,0,0,0,0,-1,1231,561,0,0
14,463,0,0,0,0,0,0,0,0,0,-1,1238,561,0,0
21,463,0,0,0,0,0,0,0,0,0,-1,1245,561,0,0
28,463,0,0,0,0,0,0,0,0,0,-1,1252,561,0,0
35,463,0,0,0,0,0,0,0,0,0,-1,1259,561,0,0
42,463,0,0,0,0,0,0,0,0,0,-1,1266,561,0,0
49,463,0,0,0,0,0,0,0,0,0,-1,1273,561,0,0
56,463,0,0,0,0,0,0,0,0,0,-1,1280,561,0,0
63,463,0,0,0,0,0,0,0,0,0,-1,1287,561,0,0
70,463,0,0,0,0,0,0,0,0,0,-1,1294,561,0,0
77,463,0,0,0,0,0,0,0,0,0,-1,1301,561,0,0
84,463,0,0,0,0,0,0,0,0,0,-1,1308,561,0,0
91,463,0,0,0,0,0,0,0,0,0,-1,1315,561,0,0
98,463,0,0,0,0,0,0,0,0,0,-1,1322,561,0,0
105,463,0,0,0,0,0,0,0,0,0,-1,1329,561,0,0
112,463,0,0,0,0,0,0,0,0,0,-1,1336,561,0,0
119,463,0,0,0,0,0,0,0,0,0,-1,1343,561,0,0
126,463,0,0,0,0,0,0,0,0,0,-1,1350,561,0,0
133,463,0,0,0,0,0,0,0,0,0,-1,1357,561,0,0
140,463,0,0,0,0,0,0,0,0,0,-1,1364,561,0,0
147,463,0,0,0,0,0,0,0,0,0,-1,1371,561,0,0
154,463,0,0,0,0,0,0,0,0,0,-1,1378,561,0,0
161,463,0,0,0,0,0,0,0,0,0,-1,1385,561,0,0
168,463,0,0,0,0,0,0,0,0,0,-1,1392,561,0,0
175,463,0,0,0,0,0,0,0,0,0,-1,1399,561,0,0
182,463,0,0,0,0,0,0,0,0,0,-1,1406,561,0,0
189,463,0,0,0,0,0,0,0,0,0,-1,1413,561,0,0
196,463,0,0,0,0,0,0,0,0,0,-1,1420,561,0,0
203,463,0,0,0,0,0,0,0,0,0,-1,1427,561,0,0
210,463,0,0,0,0,0,0,0,0,0,-1,1434,561,0,0
217,463,0,0,0,0,0,0,0,0,0,-1,1441,561,0,0
224,463,0,0,0,0,0,0,0,0,0,-1,1448,561,0,0
231,463,0,0,0,0,0,0,0,0,0,-1,1455,561,0,0
238,463,0,0,0,0,0,0,0,0,0,-1,1462,561,0,0
245,463,0,0,0,0,0,0,0,0,0,-1,1469,561,0,0
252,463,0,0,0,0,0,0,0,0,0,-1,1476,561,0,0
259,463,0,0,0,0,0,0,0,0,0,-1,1483,561,0,0
266,463,0,0,0,0,0,0,0,0,0,-1,1490,561,0,0
273,463,0,0,0,0,0,0,0,0,0,-1,1497,561,0,0
280,463,0,0,0,0,0,0,0,0,0,-1,1504,561,0,0
287,463,0,0,0,0,0,0,0,0,0,-1,1511,561,0,0
294,463,0,0,0,0,0,0,0,0,0,-1,1518,561,0,0
301,463,0,0,0,0,0,0,0,0,0,-1,1525,561,0,0
308,463,0,0,0,0,0,0,0,0,0,-1,1532,561,0,0
315,463,0,0,0,0,0,0,0,0,0,-1,1539,561,0,0
322,463,0,0,0,0,0,0,0,0,0,-1,1546,561,0,0
329,463,0,0,0,0,0,0,0,0,0,-1,1553,561,0,0
336,463,0,0,0,0,0,0,0,0,0,-1,1560,561,0,0
343,463,0,0,0,0,0,0,0,0,0,-1,1567,561,0,0
350,463,0,0,0,0,0,0,0,0,0,-1,1574,561,0,0
357,463,0,0,0,0,0,0,0,0,0,-1,1581,561,0,0
364,463,0,0,0,0,0,0,0,0,0,-1,1588,561,0,0
371,463,1.75842,0.152588,0,0,0,0,0,0,0,-1,1595,561,1.75844,-0.152558
378,463,4.58813,-0.0444336,0,0,0,0,0,0,0,-1,1602,561,4.58809,0.0444505
385,463,8.88574,1.65057,0,0,0,0,0,0,0,-1,1609,561,8.88575,-1.65055
392,463,14.0912,2.50513,0,0,0,0,0,0,0,-1,1616,561,14.0912,-2.5051
399,463,21.4769,2.7002,0,0,0,0,0,0,0,-1,1623,561,21.477,-2.70017
406,463,26.2987,4.32318,0,0,0,0,0,0,0,-1,1630,561,26.2987,-4.3232
413,463,26.5011,2.65222,0,0,0,0,0,0,0,-1,1637,561,26.5011,-2.65224
420,463,8.849,2.26611,0,0,0,0,0,0,0,-1,1644,561,8.84899,-2.26613
427,463,5.12207,1.69183,0,0,0,0,0,0,0,-1,1651,561,5.12206,-1.69184
434,463,4.59814,1.81995,0,0,0,0,0,0,0,-1,1658,561,4.59812,-1.81994
441,463,1.76392,-5.99225,0,0,0,0,0,0,0,-1,1665,561,1.7639,5.99225
448,463,2.49939,-4.30536,0,0,0,0,0,0,0,-1,1672,561,2.49941,4.30536
455,463,4.40295,-3.02557,0,0,0,0,0,0,0,-1,1679,561,4.40299,3.02558
462,463,5.38293,-4.06445,0,0,0,0,0,0,0,-1,1686,561,5.38289,4.06444
469,463,5.94373,-4.50647,0,0,0,0,0,0,0,-1,1693,561,5.94368,4.50646
476,463,13.9569,-15.2584,0,0,0,0,0,0,0,-1,1700,561,13.9569,15.2584
483,463,14.1761,-14.5087,0,0,0,0,0,0,0,-1,1707,561,14.1761,14.5087
490,463,14.1558,-13.9384,0.00395654,0.00165898,0.00085183,0.00423791,0.00137762,0.319022,0.00249617,0.0231679,1714,561,14.1557,13.9384
497,463,14.1523,-13.403,0.00344946,0.00183284,0.00103928,0.00395776,0.00132454,0.454883,0.00232628,0.0133016,1721,561,14.1523,13.403
504,463,14.1691,-12.913,0.00282664,0.00157149,0.00102578,0.0034016,0.000996537,0.510872,0.00201926,0.0155693,1728,561,14.169,12.913
511,463,14.1487,-12.4885,0.00208207,0.00130082,0.000925794,0.00269628,0.00068662,0.585762,0.00161796,0.0217498,1735,561,14.1487,12.4885
518,463,14.1694,-11.9485,0.00124069,0.00119998,0.000834016,0.0020546,0.000386068,0.773197,0.0012609,0.0226218,1742,561,14.1694,11.9485
525,463,14.1329,-11.4051,0.000407537,0.00101552,0.000699887,0.00147458,-5.15259e-05,0.990277,0.00100067,0.0173443,1749,561,14.1329,11.4051
532,463,14.1222,-10.8397,-0.000494542,0.000863933,0.00051438,0.00103672,-0.000667332,1.24672,0.000991512,0.0159456,1756,561,14.1222,10.8397
539,463,14.1029,-10.2758,-0.00141178,0.000667021,0.000302436,0.000710127,-0.00145488,1.42922,0.00127438,0.0179277,1763,561,14.1029,10.2758
546,463,14.0636,-9.77069,-0.0024168,0.000372209,-1.84699e-05,0.000372331,-0.00241693,-1.56417,0.00174866,0.0136981,1770,561,14.0636,9.77069
553,463,14.0601,-9.23755,-0.00355222,0.000239265,-0.000295651,0.000262181,-0.00357514,-1.49344,0.00247545,0.0107964,1777,561,14.06,9.23753
560,463,14.0771,-8.5921,-0.00491589,0.000958527,-0.000414524,0.000987633,-0.004945,-1.5007,0.00367044,0.0180284,1784,561,14.0771,8.5921
567,463,13.9459,-8.07379,-0.00637433,0.00142821,-0.000574184,0.00147023,-0.00641635,-1.49773,0.00484262,0.0250247,1791,561,13.9459,8.07377
574,463,13.7332,-7.72192,0,0,0,0,0,0,0,-1,1798,561,13.7331,7.72193
581,463,9.4939,-3.88245,0,0,0,0,0,0,0,-1,1805,561,9.49392,3.88245
588,463,1.97424,2.16016,0,0,0,0,0,0,0,-1,1812,561,1.97422,-2.16013
595,463,9.98657,2.99854,0,0,0,0,0,0,0,-1,1819,561,9.98662,-2.99856
602,463,17.2202,4.91302,0,0,0,0,0,0,0,-1,1826,561,17.2202,-4.91305
609,463,17.96,4.03131,0,0,0,0,0,0,0,-1,1833,561,17.96,-4.03132
616,463,20.8352,3.15131,0,0,0,0,0,0,0,-1,1840,561,20.8352,-3.1513
623,463,0,0,0,0,0,0,0,0,0,-1,1847,561,0,0
630,463,0,0,0,0,0,0,0,0,0,-1,1854,561,0,0
637,463,0,0,0,0,0,0,0,0,0,-1,1861,561,0,0
644,463,0,0,0,0,0,0,0,0,0,-1,1868,561,0,0
651,463,0,0,0,0,0,0,0,0,0,-1,1875,561,0,0
658,463,0,0,0,0,0,0,0,0,0,-1,1882,561,0,0
665,463,0,0,0,0,0,0,0,0,0,-1,1889,561,0,0
672,463,0,0,0,0,0,0,0,0,0,-1,1896,561,0,0
679,463,0,0,0,0,0,0,0,0,0,-1,1903,561,0,0
686,463,0,0,0,0,0,0,0,0,0,-1,1910,561,0,0
693,463,0,0,0,0,0,0,0,0,0,-1,1917,561,0,0
700,463,0,0,0,0,0,0,0,0,0,-1,1924,561,0,0
707,463,0,0,0,0,0,0,0,0,0,-1,1931,561,0,0
714,463,0,0,0,0,0,0,0,0,0,-1,1938,561,0,0
721,463,0,0,0,0,0,0,0,0,0,-1,1945,561,0,0
728,463,0,0,0,0,0,0,0,0,0,-1,1952,561,0,0
735,463,0,0,0,0,0,0,0,0,0,-1,1959,561,0,0
742,463,0,0,0,0,0,0,0,0,0,-1,1966,561,0,0
749,463,0,0,0,0,0,0,0,0,0,-1,1973,561,0,0
756,463,0,0,0,0,0,0,0,0,0,-1,1980,561,0,0
763,463,0,0,0,0,0,0,0,0,0,-1,1987,561,0,0
770,463,0,0,0,0,0,0,0,0,0,-1,1994,561,0,0
777,463,0,0,0,0,0,0,0,0,0,-1,2001,561,0,0
784,463,0,0,0,0,0,0,0,0,0,-1,2008,561,0,0
791,463,0,0,0,0,0,0,0,0,0,-1,2015,561,0,0
798,463,0,0,0,0,0,0,0,0,0,-1,2022,561,0,0
805,463,0,0,0,0,0,0,0,0,0,-1,2029,561,0,0
812,463,0,0,0,0,0,0,0,0,0,-1,2036,561,0,0
-700,456,0,0,0,0,0,0,0,0,0,-1,524,568,0,0
-693,456,0,0,0,0,0,0,0,0,0,-1,531,568,0,0
-686,456,0,0,0,0,0,0,0,0,0,-1,538,568,0,0
-679,456,0,0,0,0,0,0,0,0,0,-1,545,568,0,0
-672,456,0,0,0,0,0,0,0,0,0,-1,552,568,0,0
-665,456,0,0,0,0,0,0,0,0,0,-1,559,568,0,0
-658,456,0,0,0,0,0,0,0,0,0,-1,566,568,0,0
-651,456,0,0,0,0,0,0,0,0,0,-1,573,568,0,0
-644,456,0,0,0,0,0,0,0,0,0,-1,580,568,0,0
-637,456,0,0,0,0,0,0,0,0,0,-1,587,568,0,0
-630,456,0,0,0,0,0,0,0,0,0,-1,594,568,0,0
-623,456,0,0,0,0,0,0,0,0,0,-1,601,568,0,0
-616,456,0,0,0,0,0,0,0,0,0,-1,608,568,0,0
-609,456,0,0,0,0,0,0,0,0,0,-1,615,568,0,0
-602,456,0,0,0,0,0,0,0,0,0,-1,622,568,0,0
-595,456,0,0,0,0,0,0,0,0,0,-1,629,568,0,0
-588,456,0,0,0,0,0,0,0,0,0,-1,636,568,0,0
-581,456,0,0,0,0,0,0,0,0,0,-1,643,568,0,0
-574,456,0,0,0,0,0,0,0,0,0,-1,650,568,0,0
-567,456,0,0,0,0,0,0,0,0,0,-1,657,568,0,0
-560,456,0,0,0,0,0,0,0,0,0,-1,664,568,0,0
-553,456,0,0,0,0,0,0,0,0,0,-1,671,568,0,0
-546,456,0,0,0,0,0,0,0,0,0,-1,678,568,0,0
-539,456,0,0,0,0,0,0,0,0,0,-1,685,568,0,0
-532,456,0,0,0,0,0,0,0,0,0,-1,692,568,0,0
-525,456,0,0,0,0,0,0,0,0,0,-1,699,568,0,0
-518,456,0,0,0,0,0,0,0,0,0,-1,706,568,0,0
-511,456,0,0,0,0,0,0,0,0,0,-1,713,568,0,0
-504,456,-10.3994,-2.34839,0,0,0,0,0,0,0,-1,720,568,-10.3994,2.3484
-497,456,-9.21375,-2.38068,0,0,0,0,0,0,0,-1,727,568,-9.21372,2.38069
-490,456,-8.09058,-2.31824,0,0,0,0,0,0,0,-1,734,568,-8.09057,2.31821
-483,456,-6.66119,-2.24329,0,0,0,0,0,0,0,-1,741,568,-6.66121,2.24331
-476,456,-5.1499,-2.21185,0,0,0,0,0,0,0,-1,748,568,-5.14992,2.21184
-469,456,-2.81238,-3.51501,0,0,0,0,0,0,0,-1,755,568,-2.81237,3.51501
-462,456,-4.2431,-5.27478,0,0,0,0,0,0,0,-1,762,568,-4.24312,5.27476
-455,456,-4.98468,-7.85901,0,0,0,0,0,0,0,-1,769,568,-4.98465,7.85899
-448,456,-4.93982,-8.93964,0,0,0,0,0,0,0,-1,776,568,-4.93979,8.93963
-441,456,-5.06183,-9.75146,-0.000644601,0.0079245,-0.00329452,0.00904469,-0.00176479,-1.24304,0.00669603,0.0281114,783,568,-5.06181,9.75144
-434,456,-5.12628,-10.3119,-0.000258742,0.00675008,-0.00283722,0.00775462,-0.00126329,-1.23051,0.00563822,0.0148998,790,568,-5.12627,10.3119
-427,456,-5.12152,-10.824,0.000108683,0.0056775,-0.00244781,0.00660047,-0.00081429,-1.21022,0.00469534,0.00844547,797,568,-5.12152,10.824
-420,456,-5.12628,-11.324,0.000459384,0.00461914,-0.00208406,0.00548361,-0.000405088,-1.1776,0.00379798,0.00911953,804,568,-5.12626,11.3239
-413,456,-5.14429,-11.8273,0.000665997,0.00334728,-0.00156892,0.00407033,-5.70538e-05,-1.13895,0.00273277,0.0086717,811,568,-5.14431,11.8273
-406,456,-5.18384,-12.3234,0.000821932,0.00234465,-0.00109641,0.00291813,0.000248456,-1.08888,0.00186812,0.00904201,818,568,-5.18383,12.3234
-399,456,-5.2049,-12.817,0.000943391,0.0013332,-0.000587959,0.00175772,0.000518873,-0.945444,0.00104281,0.0104675,825,568,-5.20492,12.8169
-392,456,-5.20715,-13.3142,0.00109455,0.00028682,-6.3609e-05,0.00109953,0.000281841,-0.0781087,0.000659462,0.0101071,832,568,-5.20716,13.3142
-385,456,-5.21277,-13.8181,0.00128134,-0.000645858,0.000413542,0.00136633,-0.000730849,0.202696,0.0012292,0.0105456,839,568,-5.21278,13.8181
-378,456,-5.22449,-14.3242,0.00142156,-0.00152606,0.000941512,0.00169662,-0.00180112,0.284241,0.00201972,0.0112209,846,568,-5.22451,14.3242
-371,456,-5.23853,-14.8141,0.00157807,-0.00225728,0.00145474,0.00206742,-0.00274663,0.324491,0.0027886,0.0118971,853,568,-5.23853,14.8141
-364,456,-5.2309,-15.2494,0.00185133,-0.00271129,0.00182345,0.00249053,-0.00335049,0.337157,0.00338447,0.0191499,860,568,-5.23091,15.2494
-357,456,-5.21844,-15.7609,0,0,0,0,0,0,0,-1,867,568,-5.21845,15.7609
-350,456,-5.04169,-16.4564,0,0,0,0,0,0,0,-1,874,568,-5.04171,16.4564
-343,456,-3.39081,-12.0217,0,0,0,0,0,0,0,-1,881,568,-3.39078,12.0217
-336,456,-3.04517,-12.4623,0,0,0,0,0,0,0,-1,888,568,-3.04519,12.4624
-329,456,-1.06183,-10.7184,0,0,0,0,0,0,0,-1,895,568,-1.06184,10.7184
-322,456,-0.662537,-7.66632,0,0,0,0,0,0,0,-1,902,568,-0.662564,7.66633
-315,456,-0.675476,-3.38397,0,0,0,0,0,0,0,-1,909,568,-0.675473,3.38399
-308,456,-1.1618,-3.15314,0,0,0,0,0,0,0,-1,916,568,-1.16178,3.15314
-301,456,-1.83551,-3.26447,0,0,0,0,0,0,0,-1,923,568,-1.8355,3.26449
-294,456,-2.93414,-3.35449,0,0,0,0,0,0,0,-1,930,568,-2.93413,3.35451
-287,456,-3.7569,-3.53101,0,0,0,0,0,0,0,-1,937,568,-3.75692,3.53101
-280,456,-13.072,4.52856,0,0,0,0,0,0,0,-1,944,568,-13.072,-4.52855
-273,456,-8.76031,-5.4386,0,0,0,0,0,0,0,-1,951,568,-8.7603,5.43861
-266,456,-5.77264,-8.03845,0,0,0,0,0,0,0,-1,958,568,-5.77262,8.03846
-259,456,0,0,0,0,0,0,0,0,0,-1,965,568,0,0
-252,456,0,0,0,0,0,0,0,0,0,-1,972,568,0,0
-245,456,0,0,0,0,0,0,0,0,0,-1,979,568,0,0
-238,456,0,0,0,0,0,0,0,0,0,-1,986,568,0,0
-231,456,0,0,0,0,0,0,0,0,0,-1,993,568,0,0
-224,456,0,0,0,0,0,0,0,0,0,-1,1000,568,0,0
-217,456,0,0,0,0,0,0,0,0,0,-1,1007,568,0,0
-210,456,0,0,0,0,0,0,0,0,0,-1,1014,568,0,0
-203,456,0,0,0,0,0,0,0,0,0,-1,1021,568,0,0
-196,456,0,0,0,0,0,0,0,0,0,-1,1028,568,0,0
-189,456,0,0,0,0,0,0,0,0,0,-1,1035,568,0,0
-182,456,0,0,0,0,0,0,0,0,0,-1,1042,568,0,0
-175,456,0,0,0,0,0,0,0,0,0,-1,1049,568,0,0
-168,456,0,0,0,0,0,0,0,0,0,-1,1056,568,0,0
-161,456,0,0,0,0,0,0,0,0,0,-1,1063,568,0,0
-154,456,0,0,0,0,0,0,0,0,0,-1,1070,568,0,0
-147,456,0,0,0,0,0,0,0,0,0,-1,1077,568,0,0
-140,456,0,0,0,0,0,0,0,0,0,-1,1084,568,0,0
-133,456,0,0,0,0,0,0,0,0,0,-1,1091,568,0,0
-126,456,0,0,0,0,0,0,0,0,0,-1,1098,568,0,0
-119,456,0,0,0,0,0,0,0,0,0,-1,1105,568,0,0
-112,456,0,0,0,0,0,0,0,0,0,-1,1112,568,0,0
-105,456,0,0,0,0,0,0,0,0,0,-1,1119,568,0,0
-98,456,0,0,0,0,0,0,0,0,0,-1,1126,568,0,0
-91,456,0,0,0,0,0,0,0,0,0,-1,1133,568,0,0
-84,456,0,0,0,0,0,0,0,0,0,-1,1140,568,0,0
-77,456,0,0,0,0,0,0,0,0,0,-1,1147,568,0,0
-70,456,0,0,0,0,0,0,0,0,0,-1,1154,568,0,0
-63,456,0,0,0,0,0,0,0,0,0,-1,1161,568,0,0
-56,456,0,0,0,0,0,0,0,0,0,-1,1168,568,0,0
-49,456,0,0,0,0,0,0,0,0,0,-1,1175,568,0,0
-42,456,0,0,0,0,0,0,0,0,0,-1,1182,568,0,0
-35,456,0,0,0,0,0,0,0,0,0,-1,1189,568,0,0
-28,456,0,0,0,0,0,0,0,0,0,-1,1196,568,0,0
-21,456,0,0,0,0,0,0,0,0,0,-1,1203,568,0,0
-14,456,0,0,0,0,0,0,0,0,0,-1,1210,568,0,0
-7,456,0,0,0,0,0,0,0,0,0,-1,1217,568,0,0
0,456,0,0,0,0,0,0,0,0,0,-1,1224,568,0,0
7,456,0,0,0,0,0,0,0,0,0,-1,1231,568,0,0
14,456,0,0,0,0,0,0,0,0,0,-1,1238,568,0,0
21,456,0,0,0,0,0,0,0,0,0,-1,1245,568,0,0
28,456,0,0,0,0,0,0,0,0,0,-1,1252,568,0,0
35,456,0,0,0,0,0,0,0,0,0,-1,1259,568,0,0
42,456,0,0,0,0,0,0,0,0,0,-1,1266,568,0,0
49,456,0,0,0,0,0,0,0,0,0,-1,1273,568,0,0
56,456,0,0,0,0,0,0,0,0,0,-1,1280,568,0,0
63,456,0,0,0,0,0,0,0,0,0,-1,1287,568,0,0
70,456,0,0,0,0,0,0,0,0,0,-1,1294,568,0,0
77,456,0,0,0,0,0,0,0,0,0,-1,1301,568,0,0
84,456,0,0,0,0,0,0,0,0,0,-1,1308,568,0,0
91,456,0,0,0,0,0,0,0,0,0,-1,1315,568,0,0
98,456,0,0,0,0,0,0,0,0,0,-1,1322,568,0,0
105,456,0,0,0,0,0,0,0,0,0,-1,1329,568,0,0
112,456,0,0,0,0,0,0,0,0,0,-1,1336,568,0,0
119,456,0,0,0,0,0,0,0,0,0,-1,1343,568,0,0
126,456,0,0,0,0,0,0,0,0,0,-1,1350,568,0,0
133,456,0,0,0,0,0,0,0,0,0,-1,1357,568,0,0
140,456,0,0,0,0,0,0,0,0,0,-1,1364,568,0,0
147,456,0,0,0,0,0,0,0,0,0,-1,1371,568,0,0
154,456,0,0,0,0,0,0,0,0,0,-1,1378,568,0,0
161,456,0,0,0,0,0,0,0,0,0,-1,1385,568,0,0
168,456,0,0,0,0,0,0,0,0,0,-1,1392,568,0,0
175,456,0,0,0,0,0,0,0,0,0,-1,1399,568,0,0
182,456,0,0,0,0,0,0,0,0,0,-1,1406,568,0,0
189,456,0,0,0,0,0,0,0,0,0,-1,1413,568,0,0
196,456,0,0,0,0,0,0,0,0,0,-1,1420,568,0,0
203,456,0,0,0,0,0,0,0,0,0,-1,1427,568,0,0
210,456,0,0,0,0,0,0,0,0,0,-1,1434,568,0,0
217,456,0,0,0,0,0,0,0,0,0,-1,1441,568,0,0
224,456,0,0,0,0,0,0,0,0,0,-1,1448,568,0,0
231,456,0,0,0,0,0,0,0,0,0,-1,1455,568,0,0
238,456,0,0,0,0,0,0,0,0,0,-1,1462,568,0,0
245,456,0,0,0,0,0,0,0,0,0,-1,1469,568,0,0
252,456,0,0,0,0,0,0,0,0,0,-1,1476,568,0,0
259,456,0,0,0,0,0,0,0,0,0,-1,1483,568,0,0
266,456,0,0,0,0,0,0,0,0,0,-1,1490,568,0,0
273,456,0,0,0,0,0,0,0,0,0,-1,1497,568,0,0
280,456,0,0,0,0,0,0,0,0,0,-1,1504,568,0,0
287,456,0,0,0,0,0,0,0,0,0,-1,1511,568,0,0
294,456,0,0,0,0,0,0,0,0,0,-1,1518,568,0,0
301,456,0,0,0,0,0,0,0,0,0,-1,1525,568,0,0
308,456,0,0,0,0,0,0,0,0,0,-1,1532,568,0,0
315,456,0,0,0,0,0,0,0,0,0,-1,1539,568,0,0
322,456,0,0,0,0,0,0,0,0,0,-1,1546,568,0,0
329,456,0,0,0,0,0,0,0,0,0,-1,1553,568,0,0
336,456,0,0,0,0,0,0,0,0,0,-1,1560,568,0,0
343,456,0,0,0,0,0,0,0,0,0,-1,1567,568,0,0
350,456,0,0,0,0,0,0,0,0,0,-1,1574,568,0,0
357,456,0,0,0,0,0,0,0,0,0,-1,1581,568,0,0
364,456,0,0,0,0,0,0,0,0,0,-1,1588,568,0,0
371,456,0,0,0,0,0,0,0,0,0,-1,1595,568,0,0
378,456,0,0,0,0,0,0,0,0,0,-1,1602,568,0,0
385,456,5.66284,0.660645,0,0,0,0,0,0,0,-1,1609,568,5.66285,-0.660615
392,456,17.5027,4.32971,0,0,0,0,0,0,0,-1,1616,568,17.5026,-4.32971
399,456,24.1917,5.99652,0,0,0,0,0,0,0,-1,1623,568,24.1916,-5.99651
406,456,24.446,4.53003,0,0,0,0,0,0,0,-1,1630,568,24.446,-4.53005
413,456,24.9418,2.90521,0,0,0,0,0,0,0,-1,1637,568,24.9418,-2.90524
420,456,25.3048,1.04712,0,0,0,0,0,0,0,-1,1644,568,25.3048,-1.04713
427,456,6.21375,2.02905,0,0,0,0,0,0,0,-1,1651,568,6.21372,-2.02904
434,456,3.0719,-4.86285,0,0,0,0,0,0,0,-1,1658,568,3.07184,4.86287
441,456,2.90344,-4.70459,0,0,0,0,0,0,0,-1,1665,568,2.90346,4.7046
448,456,3.06995,-4.93689,0,0,0,0,0,0,0,-1,1672,568,3.06991,4.93687
455,456,3.46582,-3.43701,0,0,0,0,0,0,0,-1,1679,568,3.46585,3.43698
462,456,4.68445,-4.45831,0,0,0,0,0,0,0,-1,1686,568,4.68439,4.45833
469,456,4.93201,-2.289,0,0,0,0,0,0,0,-1,1693,568,4.93197,2.28903
476,456,4.8363,-2.79364,0,0,0,0,0,0,0,-1,1700,568,4.83636,2.79363
483,456,12.8522,-13.692,0,0,0,0,0,0,0,-1,1707,568,12.8522,13.6919
490,456,14.5923,-14.0611,0,0,0,0,0,0,0,-1,1714,568,14.5923,14.0611
497,456,14.6993,-13.4517,0.0043147,0.00206143,0.0014195,0.00500032,0.00137581,0.44996,0.00298266,0.0429352,1721,568,14.6994,13.4517
504,456,14.6559,-12.8808,0.00367111,0.00173483,0.00134623,0.00436118,0.00104477,0.473668,0.00262932,0.0121969,1728,568,14.6558,12.8808
511,456,14.6713,-12.3996,0.00296314,0.00140815,0.00119334,0.00360991,0.000761368,0.496673,0.00219724,0.0136227,1735,568,14.6712,12.3996
518,456,14.6635,-11.9114,0.00221318,0.00129061,0.00109892,0.0029437,0.000560088,0.586685,0.00180497,0.016448,1742,568,14.6634,11.9114
525,456,14.6437,-11.3854,0.00144598,0.0011292,0.000971452,0.00227187,0.000303311,0.704587,0.00142428,0.0157505,1749,568,14.6437,11.3854
532,456,14.64,-10.8143,0.000610196,0.000969907,0.000779838,0.00159036,-1.02575e-05,0.898732,0.00106368,0.0165024,1756,568,14.64,10.8143
539,456,14.6136,-10.2441,-0.000214155,0.000773687,0.000583841,0.00104451,-0.000484975,1.13648,0.000902528,0.0204633,1763,568,14.6136,10.2441
546,456,14.5764,-9.7298,-0.0011105,0.000487981,0.000291285,0.000539406,-0.00116193,1.39605,0.00100394,0.0222783,1770,568,14.5764,9.72979
553,456,14.5586,-9.20148,-0.00214461,0.000355955,5.74784e-05,0.000357275,-0.00214593,1.54783,0.00156338,0.0137465,1777,568,14.5586,9.20145
560,456,14.5544,-8.6925,-0.00341797,0.00111803,5.73883e-06,0.00111804,-0.00341798,1.56953,0.00272878,0.0104766,1784,568,14.5544,8.69253
567,456,14.5491,-8.13147,-0.00472311,0.00170952,-2.56141e-05,0.00170962,-0.00472321,-1.56681,0.00384745,0.0167565,1791,568,14.5491,8.13147
574,456,14.5112,-7.76001,-0.00643522,0.00283136,1.7375e-05,0.00283139,-0.00643525,1.56892,0.0054833,0.0471051,1798,568,14.5113,7.76001
581,456,14.5505,-7.31927,0,0,0,0,0,0,0,-1,1805,568,14.5506,7.31929
588,456,5.23901,-0.0901489,0,0,0,0,0,0,0,-1,1812,568,5.23906,0.0901656
595,456,6.90063,3.14886,0,0,0,0,0,0,0,-1,1819,568,6.90066,-3.14887
602,456,16.894,4.10938,0,0,0,0,0,0,0,-1,1826,568,16.8941,-4.1094
609,456,14.9966,3.5708,0,0,0,0,0,0,0,-1,1833,568,14.9966,-3.57083
616,456,17.7407,2.6579,0,0,0,0,0,0,0,-1,1840,568,17.7408,-2.6579
623,456,20.6838,1.7121,0,0,0,0,0,0,0,-1,1847,568,20.6838,-1.71208
630,456,0,0,0,0,0,0,0,0,0,-1,1854,568,0,0
637,456,0,0,0,0,0,0,0,0,0,-1,1861,568,0,0
644,456,0,0,0,0,0,0,0,0,0,-1,1868,568,0,0
651,456,0,0,0,0,0,0,0,0,0,-1,1875,568,0,0
658,456,0,0,0,0,0,0,0,0,0,-1,1882,568,0,0
665,456,0,0,0,0,0,0,0,0,0,-1,1889,568,0,0
672,456,0,0,0,0,0,0,0,0,0,-1,1896,568,0,0
679,456,0,0,0,0,0,0,0,0,0,-1,1903,568,0,0
686,456,0,0,0,0,0,0,0,0,0,-1,1910,568,0,0
693,456,0,0,0,0,0,0,0,0,0,-1,1917,568,0,0
700,456,0,0,0,0,0,0,0,0,0,-1,1924,568,0,0
707,456,0,0,0,0,0,0,0,0,0,-1,1931,568,0,0
714,456,0,0,0,0,0,0,0,0,0,-1,1938,568,0,0
721,456,0,0,0,0,0,0,0,0,0,-1,1945,568,0,0
728,456,0,0,0,0,0,0,0,0,0,-1,1952,568,0,0
735,456,0,0,0,0,0,0,0,0,0,-1,1959,568,0,0
742,456,0,0,0,0,0,0,0,0,0,-1,1966,568,0,0
749,456,0,0,0,0,0,0,0,0,0,-1,1973,568,0,0
756,456,0,0,0,0,0,0,0,0,0,-1,1980,568,0,0
763,456,0,0,0,0,0,0,0,0,0,-1,1987,568,0,0
770,456,0,0,0,0,0,0,0,0,0,-1,1994,568,0,0
777,456,0,0,0,0,0,0,0,0,0,-1,2001,568,0,0
784,456,0,0,0,0,0,0,0,0,0,-1,2008,568,0,0
791,456,0,0,0,0,0,0,0,0,0,-1,2015,568,0,0
798,456,0,0,0,0,0,0,0,0,0,-1,2022,568,0,0
805,456,0,0,0,0,0,0,0,0,0,-1,2029,568,0,0
812,456,0,0,0,0,0,0,0,0,0,-1,2036,568,0,0
-700,449,0,0,0,0,0,0,0,0,0,-1,524,575,0,0
-693,449,0,0,0,0,0,0,0,0,0,-1,531,575,0,0
-686,449,0,0,0,0,0,0,0,0,0,-1,538,575,0,0
-679,449,0,0,0,0,0,0,0,0,0,-1,545,575,0,0
-672,449,0,0,0,0,0,0,0,0,0,-1,552,575,0,0
-665,449,0,0,0,0,0,0,0,0,0,-1,559,575,0,0
-658,449,0,0,0,0,0,0,0,0,0,-1,566,575,0,0
-651,449,0,0,0,0,0,0,0,0,0,-1,573,575,0,0
-644,449,0,0,0,0,0,0,0,0,0,-1,580,575,0,0
-637,449,0,0,0,0,0,0,0,0,0,-1,587,575,0,0
-630,449,0,0,0,0,0,0,0,0,0,-1,594,575,0,0
-623,449,0,0,0,0,0,0,0,0,0,-1,601,575,0,0
-616,449,0,0,0,0,0,0,0,0,0,-1,608,575,0,0
-609,449,0,0,0,0,0,0,0,0,0,-1,615,575,0,0
-602,449,0,0,0,0,0,0,0,0,0,-1,622,575,0,0
-595,449,0,0,0,0,0,0,0,0,0,-1,629,575,0,0
-588,449,0,0,0,0,0,0,0,0,0,-1,636,575,0,0
-581,449,0,0,0,0,0,0,0,0,0,-1,643,575,0,0
-574,449,0,0,0,0,0,0,0,0,0,-1,650,575,0,0
-567,449,0,0,0,0,0,0,0,0,0,-1,657,575,0,0
-560,449,0,0,0,0,0,0,0,0,0,-1,664,575,0,0
-553,449,0,0,0,0,0,0,0,0,0,-1,671,575,0,0
-546,449,0,0,0,0,0,0,0,0,0,-1,678,575,0,0
-539,449,0,0,0,0,0,0,0,0,0,-1,685,575,0,0
-532,449,0,0,0,0,0,0,0,0,0,-1,692,575,0,0
-525,449,0,0,0,0,0,0,0,0,0,-1,699,575,0,0
-518,449,0,0,0,0,0,0,0,0,0,-1,706,575,0,0
-511,449,-0.941345,-4.4519,0,0,0,0,0,0,0,-1,713,575,-0.941356,4.45191
-504,449,-14.1078,0.318237,0,0,0,0,0,0,0,-1,720,575,-14.1078,-0.318231
-497,449,-8.61292,-3.09009,0,0,0,0,0,0,0,-1,727,575,-8.61291,3.09011
-490,449,-7.50995,-2.96252,0,0,0,0,0,0,0,-1,734,575,-7.50995,2.96251
-483,449,-5.77789,-2.50061,0,0,0,0,0,0,0,-1,741,575,-5.77792,2.50059
-476,449,-4.1723,-2.07739,0,0,0,0,0,0,0,-1,748,575,-4.17228,2.0774
-469,449,-4.02954,-4.56329,0,0,0,0,0,0,0,-1,755,575,-4.02951,4.56329
-462,449,-5.26154,-7.61505,0,0,0,0,0,0,0,-1,762,575,-5.26153,7.61507
-455,449,-5.79858,-8.50537,0,0,0,0,0,0,0,-1,769,575,-5.79859,8.50537
-448,449,-5.56738,-9.19904,-0.00110474,0.00699843,-0.00309493,0.00804527,-0.00215157,-1.24463,0.00620629,0.0370138,776,575,-5.56738,9.19902
-441,449,-5.55353,-9.84381,-0.000738698,0.00582868,-0.00252026,0.00668436,-0.00159437,-1.24349,0.00507193,0.0180672,783,575,-5.55355,9.84379
-434,449,-5.61566,-10.2988,-0.000518846,0.00480953,-0.00199019,0.00547081,-0.00118013,-1.25,0.00409763,0.0130343,790,575,-5.61569,10.2988
-427,449,-5.63654,-10.7904,-0.000281713,0.00381976,-0.00152558,0.00432498,-0.000786935,-1.251,0.00317828,0.012892,797,575,-5.63652,10.7904
-420,449,-5.64148,-11.3132,-9.64437e-06,0.00287815,-0.00111986,0.00326152,-0.000393018,-1.24096,0.00231649,0.0126556,804,575,-5.64148,11.3133
-413,449,-5.64392,-11.8163,0.000147433,0.00174222,-0.000574386,0.00192756,-3.79016e-05,-1.25868,0.00129786,0.0105931,811,575,-5.64394,11.8164
-406,449,-5.67218,-12.3105,0.000311637,0.000849613,-0.000105401,0.000869527,0.000291724,-1.38407,0.000510998,0.0101102,818,575,-5.6722,12.3105
-399,449,-5.69946,-12.7988,0.000522278,-4.00558e-05,0.000352227,0.000691799,-0.000209576,0.44856,0.000544668,0.00938461,825,575,-5.69948,12.7988
-392,449,-5.69238,-13.2947,0.000820202,-0.00095664,0.000797692,0.00112577,-0.00126221,0.36582,0.00137945,0.00970704,832,575,-5.69238,13.2947
-385,449,-5.69836,-13.7891,0.00119114,-0.00175988,0.00117945,0.00160461,-0.00217334,0.337172,0.00218942,0.0105713,839,575,-5.69838,13.7891
-378,449,-5.72516,-14.2839,0.0015242,-0.00255247,0.00164562,0.00210558,-0.00313384,0.339598,0.00304434,0.0100066,846,575,-5.72516,14.284
-371,449,-5.71979,-14.7783,0.00194195,-0.00315425,0.00207837,0.00268208,-0.00389438,0.342107,0.00381836,0.0139657,853,575,-5.7198,14.7782
-364,449,-5.78363,-15.2642,0.00255983,-0.00339044,0.00229941,0.00334484,-0.00417546,0.328991,0.00435067,0.0465042,860,575,-5.78363,15.2642
-357,449,-5.88049,-15.8704,0,0,0,0,0,0,0,-1,867,575,-5.88051,15.8704
-350,449,-2.8764,-9.90204,0,0,0,0,0,0,0,-1,874,575,-2.87638,9.90203
-343,449,-2.98492,-9.2254,0,0,0,0,0,0,0,-1,881,575,-2.98491,9.22541
-336,449,-1.29523,-9.54626,0,0,0,0,0,0,0,-1,888,575,-1.29525,9.54626
-329,449,-0.733398,-7.78937,0,0,0,0,0,0,0,-1,895,575,-0.733398,7.78937
-322,449,-0.628845,-3.16669,0,0,0,0,0,0,0,-1,902,575,-0.628861,3.16667
-315,449,-0.540344,-3.21918,0,0,0,0,0,0,0,-1,909,575,-0.540336,3.21917
-308,449,-1.04413,-2.99341,0,0,0,0,0,0,0,-1,916,575,-1.04415,2.99338
-301,449,-1.58691,-2.80725,0,0,0,0,0,0,0,-1,923,575,-1.58692,2.80728
-294,449,-3.71118,-2.76086,0,0,0,0,0,0,0,-1,930,575,-3.71119,2.76087
-287,449,-4.4082,-2.69525,0,0,0,0,0,0,0,-1,937,575,-4.40822,2.69526
-280,449,-3.00708,-8.11707,0,0,0,0,0,0,0,-1,944,575,-3.00708,8.1171
-273,449,0,0,0,0,0,0,0,0,0,-1,951,575,0,0
-266,449,0,0,0,0,0,0,0,0,0,-1,958,575,0,0
-259,449,0,0,0,0,0,0,0,0,0,-1,965,575,0,0
-252,449,0,0,0,0,0,0,0,0,0,-1,972,575,0,0
-245,449,0,0,0,0,0,0,0,0,0,-1,979,575,0,0
-238,449,0,0,0,0,0,0,0,0,0,-1,986,575,0,0
-231,449,0,0,0,0,0,0,0,0,0,-1,993,575,0,0
-224,449,0,0,0,0,0,0,0,0,0,-1,1000,575,0,0
-217,449,0,0,0,0,0,0,0,0,0,-1,1007,575,0,0
-210,449,0,0,0,0,0,0,0,0,0,-1,1014,575,0,0
-203,449,0,0,0,0,0,0,0,0,0,-1,1021,575,0,0
-196,449,0,0,0,0,0,0,0,0,0,-1,1028,575,0,0
-189,449,0,0,0,0,0,0,0,0,0,-1,1035,575,0,0
-182,449,0,0,0,0,0,0,0,0,0,-1,1042,575,0,0
-175,449,0,0,0,0,0,0,0,0,0,-1,1049,575,0,0
-168,449,0,0,0,0,0,0,0,0,0,-1,1056,575,0,0
-161,449,0,0,0,0,0,0,0,0,0,-1,1063,575,0,0
-154,449,0,0,0,0,0,0,0,0,0,-1,1070,575,0,0
-147,449,0,0,0,0,0,0,0,0,0,-1,1077,575,0,0
-140,449,0,0,0,0,0,0,0,0,0,-1,1084,575,0,0
-133,449,0,0,0,0,0,0,0,0,0,-1,1091,575,0,0
-126,449,0,0,0,0,0,0,0,0,0,-1,1098,575,0,0
-119,449,0,0,0,0,0,0,0,0,0,-1,1105,575,0,0
-112,449,0,0,0,0,0,0,0,0,0,-1,1112,575,0,0
-105,449,0,0,0,0,0,0,0,0,0,-1,1119,575,0,0
-98,449,0,0,0,0,0,0,0,0,0,-1,1126,575,0,0
-91,449,0,0,0,0,0,0,0,0,0,-1,1133,575,0,0
-84,449,0,0,0,0,0,0,0,0,0,-1,1140,575,0,0
-77,449,0,0,0,0,0,0,0,0,0,-1,1147,575,0,0
-70,449,0,0,0,0,0,0,0,0,0,-1,1154,575,0,0
-63,449,0,0,0,0,0,0,0,0,0,-1,1161,575,0,0
-56,449,0,0,0,0,0,0,0,0,0,-1,1168,575,0,0
-49,449,0,0,0,0,0,0,0,0,0,-1,1175,575,0,0
-42,449,0,0,0,0,0,0,0,0,0,-1,1182,575,0,0
-35,449,0,0,0,0,0,0,0,0,0,-1,1189,575,0,0
-28,449,0,0,0,0,0,0,0,0,0,-1,1196,575,0,0
-21,449,0,0,0,0,0,0,0,0,0,-1,1203,575,0,0
-14,449,0,0,0,0,0,0,0,0,0,-1,1210,575,0,0
-7,449,0,0,0,0,0,0,0,0,0,-1,1217,575,0,0
0,449,0,0,0,0,0,0,0,0,0,-1,1224,575,0,0
7,449,0,0,0,0,0,0,0,0,0,-1,1231,575,0,0
14,449,0,0,0,0,0,0,0,0,0,-1,1238,575,0,0
21,449,0,0,0,0,0,0,0,0,0,-1,1245,575,0,0
28,449,0,0,0,0,0,0,0,0,0,-1,1252,575,0,0
35,449,0,0,0,0,0,0,0,0,0,-1,1259,575,0,0
42,449,0,0,0,0,0,0,0,0,0,-1,1266,575,0,0
49,449,0,0,0,0,0,0,0,0,0,-1,1273,575,0,0
56,449,0,0,0,0,0,0,0,0,0,-1,1280,575,0,0
63,449,0,0,0,0,0,0,0,0,0,-1,1287,575,0,0
70,449,0,0,0,0,0,0,0,0,0,-1,1294,575,0,0
77,449,0,0,0,0,0,0,0,0,0,-1,1301,575,0,0
84,449,0,0,0,0,0,0,0,0,0,-1,1308,575,0,0
91,449,0,0,0,0,0,0,0,0,0,-1,1315,575,0,0
98,449,0,0,0,0,0,0,0,0,0,-1,1322,575,0,0
105,449,0,0,0,0,0,0,0,0,0,-1,1329,575,0,0
112,449,0,0,0,0,0,0,0,0,0,-1,1336,575,0,0
119,449,0,0,0,0,0,0,0,0,0,-1,1343,575,0,0
126,449,0,0,0,0,0,0,0,0,0,-1,1350,575,0,0
133,449,0,0,0,0,0,0,0,0,0,-1,1357,575,0,0
140,449,0,0,0,0,0,0,0,0,0,-1,1364,575,0,0
147,449,0,0,0,0,0,0,0,0,0,-1,1371,575,0,0
154,449,0,0,0,0,0,0,0,0,0,-1,1378,575,0,0
161,449,0,0,0,0,0,0,0,0,0,-1,1385,575,0,0
168,449,0,0,0,0,0,0,0,0,0,-1,1392,575,0,0
175,449,0,0,0,0,0,0,0,0,0,-1,1399,575,0,0
182,449,0,0,0,0,0,0,0,0,0,-1,1406,575,0,0
189,449,0,0,0,0,0,0,0,0,0,-1,1413,575,0,0
196,449,0,0,0,0,0,0,0,0,0,-1,1420,575,0,0
203,449,0,0,0,0,0,0,0,0,0,-1,1427,575,0,0
210,449,0,0,0,0,0,0,0,0,0,-1,1434,575,0,0
217,449,0,0,0,0,0,0,0,0,0,-1,1441,575,0,0
224,449,0,0,0,0,0,0,0,0,0,-1,1448,575,0,0
231,449,0,0,0,0,0,0,0,0,0,-1,1455,575,0,0
238,449,0,0,0,0,0,0,0,0,0,-1,1462,575,0,0
245,449,0,0,0,0,0,0,0,0,0,-1,1469,575,0,0
252,449,0,0,0,0,0,0,0,0,0,-1,1476,575,0,0
259,449,0,0,0,0,0,0,0,0,0,-1,1483,575,0,0
266,449,0,0,0,0,0,0,0,0,0,-1,1490,575,0,0
273,449,0,0,0,0,0,0,0,0,0,-1,1497,575,0,0
280,449,0,0,0,0,0,0,0,0,0,-1,1504,575,0,0
287,449,0,0,0,0,0,0,0,0,0,-1,1511,575,0,0
294,449,0,0,0,0,0,0,0,0,0,-1,1518,575,0,0
301,449,0,0,0,0,0,0,0,0,0,-1,1525,575,0,0
308,449,0,0,0,0,0,0,0,0,0,-1,1532,575,0,0
315,449,0,0,0,0,0,0,0,0,0,-1,1539,575,0,0
322,449,0,0,0,0,0,0,0,0,0,-1,1546,575,0,0
329,449,0,0,0,0,0,0,0,0,0,-1,1553,575,0,0
336,449,0,0,0,0,0,0,0,0,0,-1,1560,575,0,0
343,449,0,0,0,0,0,0,0,0,0,-1,1567,575,0,0
350,449,0,0,0,0,0,0,0,0,0,-1,1574,575,0,0
357,449,0,0,0,0,0,0,0,0,0,-1,1581,575,0,0
364,449,0,0,0,0,0,0,0,0,0,-1,1588,575,0,0
371,449,0,0,0,0,0,0,0,0,0,-1,1595,575,0,0
378,449,0,0,0,0,0,0,0,0,0,-1,1602,575,0,0
385,449,0,0,0,0,0,0,0,0,0,-1,1609,575,0,0
392,449,7.95471,3.66217,0,0,0,0,0,0,0,-1,1616,575,7.95471,-3.66218
399,449,19.9791,5.565,0,0,0,0,0,0,0,-1,1623,575,19.9791,-5.56499
406,449,24.9847,4.55969,0,0,0,0,0,0,0,-1,1630,575,24.9848,-4.55968
413,449,30.4159,3.15027,0,0,0,0,0,0,0,-1,1637,575,30.4159,-3.15028
420,449,23.9675,1.29718,0,0,0,0,0,0,0,-1,1644,575,23.9675,-1.29721
427,449,24.4276,-0.596558,0,0,0,0,0,0,0,-1,1651,575,24.4277,0.596569
434,449,25.61,-2.96594,0,0,0,0,0,0,0,-1,1658,575,25.61,2.96595
441,449,3.89856,-6.06458,0,0,0,0,0,0,0,-1,1665,575,3.89855,6.06459
448,449,4.03198,-5.18207,0,0,0,0,0,0,0,-1,1672,575,4.03197,5.18207
455,449,4.21948,-4.09467,0,0,0,0,0,0,0,-1,1679,575,4.21952,4.09465
462,449,4.23181,-2.96924,0,0,0,0,0,0,0,-1,1686,575,4.23185,2.96926
469,449,4.51672,-2.95135,0,0,0,0,0,0,0,-1,1693,575,4.51672,2.95135
476,449,4.71838,-1.86688,0,0,0,0,0,0,0,-1,1700,575,4.71842,1.86689
483,449,4.87878,-1.73126,0,0,0,0,0,0,0,-1,1707,575,4.87875,1.73128
490,449,5.73279,-2.74573,0,0,0,0,0,0,0,-1,1714,575,5.73282,2.74575
497,449,15.123,-13.6115,0,0,0,0,0,0,0,-1,1721,575,15.123,13.6115
504,449,15.1226,-12.9503,0.00453824,0.0020775,0.00181131,0.00549754,0.0011182,0.487059,0.00335499,0.0481883,1728,575,15.1226,12.9503
511,449,15.1726,-12.3749,0.00384396,0.00163595,0.00157078,0.0046599,0.00082001,0.479085,0.00287255,0.0112829,1735,575,15.1726,12.3749
518,449,15.1797,-11.8699,0.0031653,0.0014471,0.00144792,0.0039898,0.000622599,0.517646,0.00247854,0.0127405,1742,575,15.1796,11.87
525,449,15.1584,-11.3469,0.00241947,0.00128563,0.00130114,0.00327183,0.000433268,0.579944,0.0020521,0.0129512,1749,575,15.1585,11.3469
532,449,15.1305,-10.8054,0.00160506,0.00108717,0.00107574,0.00245258,0.000239651,0.667289,0.00156131,0.0113316,1756,575,15.1306,10.8054
539,449,15.0879,-10.2675,0.000828363,0.000872498,0.000869787,0.0017205,-1.96366e-05,0.798081,0.0011536,0.0135971,1763,575,15.0879,10.2675
546,449,15.0779,-9.71942,-8.98429e-06,0.000583242,0.000582134,0.000940247,-0.000365989,1.02068,0.000778069,0.023446,1770,575,15.0779,9.71942
553,449,15.0778,-9.21277,-0.000995896,0.000433324,0.000356484,0.000517306,-0.00107988,1.33943,0.000941008,0.017188,1777,575,15.0778,9.21275
560,449,15.0983,-8.72186,-0.00223606,0.00118095,0.000314732,0.0012097,-0.0022648,1.47971,0.0020366,0.0143627,1784,575,15.0983,8.72184
567,449,15.0681,-8.17853,-0.00348473,0.00183657,0.000323436,0.00185616,-0.00350432,1.51031,0.00314326,0.00990197,1791,575,15.0681,8.17852
574,449,15.0625,-7.60004,-0.00507836,0.00300867,0.000419206,0.00303034,-0.00510003,1.51914,0.0047445,0.0225249,1798,575,15.0624,7.60005
581,449,15.0757,-6.93915,0,0,0,0,0,0,0,-1,1805,575,15.0757,6.93914
588,449,12.3274,-4.5672,0,0,0,0,0,0,0,-1,1812,575,12.3274,4.5672
595,449,11.2511,-2.25397,0,0,0,0,0,0,0,-1,1819,575,11.2511,2.25397
602,449,9.46167,4.17444,0,0,0,0,0,0,0,-1,1826,575,9.46164,-4.17442
609,449,12.2028,3.18652,0,0,0,0,0,0,0,-1,1833,575,12.2027,-3.18655
616,449,14.9438,2.19867,0,0,0,0,0,0,0,-1,1840,575,14.9438,-2.19867
623,449,9.83789,-0.0820313,0,0,0,0,0,0,0,-1,1847,575,9.83794,0.0820443
630,449,8.90686,4.99329,0,0,0,0,0,0,0,-1,1854,575,8.90685,-4.99327
637,449,0,0,0,0,0,0,0,0,0,-1,1861,575,0,0
644,449,0,0,0,0,0,0,0,0,0,-1,1868,575,0,0
651,449,0,0,0,0,0,0,0,0,0,-1,1875,575,0,0
658,449,0,0,0,0,0,0,0,0,0,-1,1882,575,0,0
665,449,0,0,0,0,0,0,0,0,0,-1,1889,575,0,0
672,449,0,0,0,0,0,0,0,0,0,-1,1896,575,0,0
679,449,0,0,0,0,0,0,0,0,0,-1,1903,575,0,0
686,449,0,0,0,0,0,0,0,0,0,-1,1910,575,0,0
693,449,0,0,0,0,0,0,0,0,0,-1,1917,575,0,0
700,449,0,0,0,0,0,0,0,0,0,-1,1924,575,0,0
707,449,0,0,0,0,0,0,0,0,0,-1,1931,575,0,0
714,449,0,0,0,0,0,0,0,0,0,-1,1938,575,0,0
721,449,0,0,0,0,0,0,0,0,0,-1,1945,575,0,0
728,449,0,0,0,0,0,0,0,0,0,-1,1952,575,0,0
735,449,0,0,0,0,0,0,0,0,0,-1,1959,575,0,0
742,449,0,0,0,0,0,0,0,0,0,-1,1966,575,0,0
749,449,0,0,0,0,0,0,0,0,0,-1,1973,575,0,0
756,449,0,0,0,0,0,0,0,0,0,-1,1980,575,0,0
763,449,0,0,0,0,0,0,0,0,0,-1,1987,575,0,0
770,449,0,0,0,0,0,0,0,0,0,-1,1994,575,0,0
777,449,0,0,0,0,0,0,0,0,0,-1,2001,575,0,0
784,449,0,0,0,0,0,0,0,0,0,-1,2008,575,0,0
791,449,0,0,0,0,0,0,0,0,0,-1,2015,575,0,0
798,449,0,0,0,0,0,0,0,0,0,-1,2022,575,0,0
805,449,0,0,0,0,0,0,0,0,0,-1,2029,575,0,0
812,449,0,0,0,0,0,0,0,0,0,-1,2036,575,0,0
-700,442,0,0,0,0,0,0,0,0,0,-1,524,582,0,0
-693,442,0,0,0,0,0,0,0,0,0,-1,531,582,0,0
-686,442,0,0,0,0,0,0,0,0,0,-1,538,582,0,0
-679,442,0,0,0,0,0,0,0,0,0,-1,545,582,0,0
-672,442,0,0,0,0,0,0,0,0,0,-1,552,582,0,0
-665,442,0,0,0,0,0,0,0,0,0,-1,559,582,0,0
-658,442,0,0,0,0,0,0,0,0,0,-1,566,582,0,0
-651,442,0,0,0,0,0,0,0,0,0,-1,573,582,0,0
-644,442,0,0,0,0,0,0,0,0,0,-1,580,582,0,0
-637,442,0,0,0,0,0,0,0,0,0,-1,587,582,0,0
-630,442,0,0,0,0,0,0,0,0,0,-1,594,582,0,0
-623,442,0,0,0,0,0,0,0,0,0,-1,601,582,0,0
-616,442,0,0,0,0,0,0,0,0,0,-1,608,582,0,0
-609,442,0,0,0,0,0,0,0,0,0,-1,615,582,0,0
-602,442,0,0,0,0,0,0,0,0,0,-1,622,582,0,0
-595,442,0,0,0,0,0,0,0,0,0,-1,629,582,0,0
-588,442,0,0,0,0,0,0,0,0,0,-1,636,582,0,0
-581,442,0,0,0,0,0,0,0,0,0,-1,643,582,0,0
-574,442,0,0,0,0,0,0,0,0,0,-1,650,582,0,0
-567,442,0,0,0,0,0,0,0,0,0,-1,657,582,0,0
-560,442,0,0,0,0,0,0,0,0,0,-1,664,582,0,0
-553,442,0,0,0,0,0,0,0,0,0,-1,671,582,0,0
-546,442,0,0,0,0,0,0,0,0,0,-1,678,582,0,0
-539,442,0,0,0,0,0,0,0,0,0,-1,685,582,0,0
-532,442,0,0,0,0,0,0,0,0,0,-1,692,582,0,0
-525,442,0,0,0,0,0,0,0,0,0,-1,699,582,0,0
-518,442,-0.493774,-5.72943,0,0,0,0,0,0,0,-1,706,582,-0.493791,5.72946
-511,442,-1.33008,-6.18512,0,0,0,0,0,0,0,-1,713,582,-1.33006,6.18511
-504,442,-3.20807,-6.34082,0,0,0,0,0,0,0,-1,720,582,-3.2081,6.34083
-497,442,-13.6886,-0.250122,0,0,0,0,0,0,0,-1,727,582,-13.6886,0.250143
-490,442,-9.09039,-3.64862,0,0,0,0,0,0,0,-1,734,582,-9.09037,3.64861
-483,442,-7.36499,-1.01892,0,0,0,0,0,0,0,-1,741,582,-7.365,1.01895
-476,442,-4.62225,-3.47467,0,0,0,0,0,0,0,-1,748,582,-4.62225,3.47465
-469,442,-6.09027,-6.90546,0,0,0,0,0,0,0,-1,755,582,-6.09029,6.90547
-462,442,-6.30493,-8.01581,0,0,0,0,0,0,0,-1,762,582,-6.30493,8.01583
-455,442,-6.17114,-8.70868,-0.0010284,0.00626479,-0.00305763,0.00737706,-0.00214067,-1.22191,0.00576562,0.0416357,769,582,-6.17112,8.7087
-448,442,-6.05853,-9.26111,-0.000743459,0.00511037,-0.00242009,0.00598131,-0.00161439,-1.22535,0.00462065,0.0173895,776,582,-6.05855,9.26111
-441,442,-6.09827,-9.78357,-0.00051942,0.00397307,-0.00178663,0.00459696,-0.00114331,-1.23484,0.0035084,0.0143555,783,582,-6.09824,9.78355
-434,442,-6.11133,-10.2762,-0.000395273,0.00303965,-0.00121606,0.00342659,-0.000782207,-1.26274,0.00258488,0.0138347,790,582,-6.11132,10.2762
-427,442,-6.13654,-10.7805,-0.000230865,0.00209556,-0.000708234,0.0022942,-0.000429511,-1.29734,0.00169092,0.0133044,797,582,-6.13652,10.7805
-420,442,-6.14722,-11.3136,-1.08821e-05,0.00123979,-0.000282757,0.00130075,-7.1838e-05,-1.35847,0.000892074,0.0132915,804,582,-6.14724,11.3136
-413,442,-6.15405,-11.8144,9.66937e-05,0.000244114,0.000263983,0.000444485,-0.000103677,0.921543,0.000336253,0.0116668,811,582,-6.15406,11.8144
-406,442,-6.17926,-12.3072,0.000227186,-0.000528391,0.000711382,0.000654872,-0.000956077,0.541304,0.000935485,0.0102729,818,582,-6.17924,12.3072
-399,442,-6.18762,-12.7944,0.00044653,-0.00126773,0.00109976,0.000983728,-0.00180493,0.454379,0.00163314,0.00881066,825,582,-6.1876,12.7944
-392,442,-6.19434,-13.2792,0.000778191,-0.00199249,0.00144497,0.00139463,-0.00260893,0.403232,0.00234663,0.0103916,832,582,-6.19432,13.2792
-385,442,-6.20526,-13.7596,0.00118854,-0.0025888,0.00170939,0.00184724,-0.00324749,0.367807,0.00297825,0.0124802,839,582,-6.20525,13.7596
-378,442,-6.18884,-14.2574,0.00154982,-0.00320717,0.00208904,0.00233698,-0.00399432,0.360349,0.00369689,0.0145935,846,582,-6.18881,14.2574
-371,442,-6.1402,-14.7562,0.00207525,-0.00357016,0.00240856,0.00296318,-0.00445809,0.353197,0.00431356,0.0426798,853,582,-6.1402,14.7561
-364,442,-6.00311,-15.2401,0,0,0,0,0,0,0,-1,860,582,-6.00311,15.2401
-357,442,-4.9115,-11.2649,0,0,0,0,0,0,0,-1,867,582,-4.91147,11.2649
-350,442,-1.75372,-6.27618,0,0,0,0,0,0,0,-1,874,582,-1.75371,6.27618
-343,442,-1.4599,-4.63605,0,0,0,0,0,0,0,-1,881,582,-1.4599,4.63607
-336,442,-1.4054,-2.64313,0,0,0,0,0,0,0,-1,888,582,-1.40539,2.64315
-329,442,-0.952576,-2.76923,0,0,0,0,0,0,0,-1,895,582,-0.952571,2.7692
-322,442,-0.972534,-2.63208,0,0,0,0,0,0,0,-1,902,582,-0.972512,2.6321
-315,442,-0.445557,-2.89764,0,0,0,0,0,0,0,-1,909,582,-0.445582,2.89765
-308,442,-0.654175,-3.07831,0,0,0,0,0,0,0,-1,916,582,-0.654145,3.07832
-301,442,-1.37427,-2.41455,0,0,0,0,0,0,0,-1,923,582,-1.37425,2.41453
-294,442,-2.99963,-2.07855,0,0,0,0,0,0,0,-1,930,582,-2.99964,2.07857
-287,442,-5.62799,-2.76422,0,0,0,0,0,0,0,-1,937,582,-5.628,2.76424
-280,442,0,0,0,0,0,0,0,0,0,-1,944,582,0,0
-273,442,0,0,0,0,0,0,0,0,0,-1,951,582,0,0
-266,442,0,0,0,0,0,0,0,0,0,-1,958,582,0,0
-259,442,0,0,0,0,0,0,0,0,0,-1,965,582,0,0
-252,442,0,0,0,0,0,0,0,0,0,-1,972,582,0,0
-245,442,0,0,0,0,0,0,0,0,0,-1,979,582,0,0
-238,442,0,0,0,0,0,0,0,0,0,-1,986,582,0,0
-231,442,0,0,0,0,0,0,0,0,0,-1,993,582,0,0
-224,442,0,0,0,0,0,0,0,0,0,-1,1000,582,0,0
-217,442,0,0,0,0,0,0,0,0,0,-1,1007,582,0,0
-210,442,0,0,0,0,0,0,0,0,0,-1,1014,582,0,0
-203,442,0,0,0,0,0,0,0,0,0,-1,1021,582,0,0
-196,442,0,0,0,0,0,0,0,0,0,-1,1028,582,0,0
-189,442,0,0,0,0,0,0,0,0,0,-1,1035,582,0,0
-182,442,0,0,0,0,0,0,0,0,0,-1,1042,582,0,0
-175,442,0,0,0,0,0,0,0,0,0,-1,1049,582,0,0
-168,442,0,0,0,0,0,0,0,0,0,-1,1056,582,0,0
-161,442,0,0,0,0,0,0,0,0,0,-1,1063,582,0,0
-154,442,0,0,0,0,0,0,0,0,0,-1,1070,582,0,0
-147,442,0,0,0,0,0,0,0,0,0,-1,1077,582,0,0
-140,442,0,0,0,0,0,0,0,0,0,-1,1084,582,0,0
-133,442,0,0,0,0,0,0,0,0,0,-1,1091,582,0,0
-126,442,0,0,0,0,0,0,0,0,0,-1,1098,582,0,0
-119,442,0,0,0,0,0,0,0,0,0,-1,1105,582,0,0
-112,442,0,0,0,0,0,0,0,0,0,-1,1112,582,0,0
-105,442,0,0,0,0,0,0,0,0,0,-1,1119,582,0,0
-98,442,0,0,0,0,0,0,0,0,0,-1,1126,582,0,0
-91,442,0,0,0,0,0,0,0,0,0,-1,1133,582,0,0
-84,442,0,0,0,0,0,0,0,0,0,-1,1140,582,0,0
-77,442,0,0,0,0,0,0,0,0,0,-1,1147,582,0,0
-70,442,0,0,0,0,0,0,0,0,0,-1,1154,582,0,0
-63,442,0,0,0,0,0,0,0,0,0,-1,1161,582,0,0
-56,442,0,0,0,0,0,0,0,0,0,-1,1168,582,0,0
-49,442,0,0,0,0,0,0,0,0,0,-1,1175,582,0,0
-42,442,0,0,0,0,0,0,0,0,0,-1,1182,582,0,0
-35,442,0,0,0,0,0,0,0,0,0,-1,1189,582,0,0
-28,442,0,0,0,0,0,0,0,0,0,-1,1196,582,0,0
-21,442,0,0,0,0,0,0,0,0,0,-1,1203,582,0,0
-14,442,0,0,0,0,0,0,0,0,0,-1,1210,582,0,0
-7,442,0,0,0,0,0,0,0,0,0,-1,1217,582,0,0
0,442,0,0,0,0,0,0,0,0,0,-1,1224,582,0,0
7,442,0,0,0,0,0,0,0,0,0,-1,1231,582,0,0
14,442,0,0,0,0,0,0,0,0,0,-1,1238,582,0,0
21,442,0,0,0,0,0,0,0,0,0,-1,1245,582,0,0
28,442,0,0,0,0,0,0,0,0,0,-1,1252,582,0,0
35,442,0,0,0,0,0,0,0,0,0,-1,1259,582,0,0
42,442,0,0,0,0,0,0,0,0,0,-1,1266,582,0,0
49,442,0,0,0,0,0,0,0,0,0,-1,1273,582,0,0
56,442,0,0,0,0,0,0,0,0,0,-1,1280,582,0,0
63,442,0,0,0,0,0,0,0,0,0,-1,1287,582,0,0
70,442,0,0,0,0,0,0,0,0,0,-1,1294,582,0,0
77,442,0,0,0,0,0,0,0,0,0,-1,1301,582,0,0
84,442,0,0,0,0,0,0,0,0,0,-1,1308,582,0,0
91,442,0,0,0,0,0,0,0,0,0,-1,1315,582,0,0
98,442,0,0,0,0,0,0,0,0,0,-1,1322,582,0,0
105,442,0,0,0,0,0,0,0,0,0,-1,1329,582,0,0
112,442,0,0,0,0,0,0,0,0,0,-1,1336,582,0,0
119,442,0,0,0,0,0,0,0,0,0,-1,1343,582,0,0
126,442,0,0,0,0,0,0,0,0,0,-1,1350,582,0,0
133,442,0,0,0,0,0,0,0,0,0,-1,1357,582,0,0
140,442,0,0,0,0,0,0,0,0,0,-1,1364,582,0,0
147,442,0,0,0,0,0,0,0,0,0,-1,1371,582,0,0
154,442,0,0,0,0,0,0,0,0,0,-1,1378,582,0,0
161,442,0,0,0,0,0,0,0,0,0,-1,1385,582,0,0
168,442,0,0,0,0,0,0,0,0,0,-1,1392,582,0,0
175,442,0,0,0,0,0,0,0,0,0,-1,1399,582,0,0
182,442,0,0,0,0,0,0,0,0,0,-1,1406,582,0,0
189,442,0,0,0,0,0,0,0,0,0,-1,1413,582,0,0
196,442,0,0,0,0,0,0,0,0,0,-1,1420,582,0,0
203,442,0,0,0,0,0,0,0,0,0,-1,1427,582,0,0
210,442,0,0,0,0,0,0,0,0,0,-1,1434,582,0,0
217,442,0,0,0,0,0,0,0,0,0,-1,1441,582,0,0
224,442,0,0,0,0,0,0,0,0,0,-1,1448,582,0,0
231,442,0,0,0,0,0,0,0,0,0,-1,1455,582,0,0
238,442,0,0,0,0,0,0,0,0,0,-1,1462,582,0,0
245,442,0,0,0,0,0,0,0,0,0,-1,1469,582,0,0
252,442,0,0,0,0,0,0,0,0,0,-1,1476,582,0,0
259,442,0,0,0,0,0,0,0,0,0,-1,1483,582,0,0
266,442,0,0,0,0,0,0,0,0,0,-1,1490,582,0,0
273,442,0,0,0,0,0,0,0,0,0,-1,1497,582,0,0
280,442,0,0,0,0,0,0,0,0,0,-1,1504,582,0,0
287,442,0,0,0,0,0,0,0,0,0,-1,1511,582,0,0
294,442,0,0,0,0,0,0,0,0,0,-1,1518,582,0,0
301,442,0,0,0,0,0,0,0,0,0,-1,1525,582,0,0
308,442,0,0,0,0,0,0,0,0,0,-1,1532,582,0,0
315,442,0,0,0,0,0,0,0,0,0,-1,1539,582,0,0
322,442,0,0,0,0,0,0,0,0,0,-1,1546,582,0,0
329,442,0,0,0,0,0,0,0,0,0,-1,1553,582,0,0
336,442,0,0,0,0,0,0,0,0,0,-1,1560,582,0,0
343,442,0,0,0,0,0,0,0,0,0,-1,1567,582,0,0
350,442,0,0,0,0,0,0,0,0,0,-1,1574,582,0,0
357,442,0,0,0,0,0,0,0,0,0,-1,1581,582,0,0
364,442,0,0,0,0,0,0,0,0,0,-1,1588,582,0,0
371,442,0,0,0,0,0,0,0,0,0,-1,1595,582,0,0
378,442,0,0,0,0,0,0,0,0,0,-1,1602,582,0,0
385,442,0,0,0,0,0,0,0,0,0,-1,1609,582,0,0
392,442,0,0,0,0,0,0,0,0,0,-1,1616,582,0,0
399,442,0,0,0,0,0,0,0,0,0,-1,1623,582,0,0
406,442,17.6321,4.08295,0,0,0,0,0,0,0,-1,1630,582,17.6321,-4.08293
413,442,25.4768,2.74445,0,0,0,0,0,0,0,-1,1637,582,25.4768,-2.74444
420,442,22.7478,1.55011,0,0,0,0,0,0,0,-1,1644,582,22.7478,-1.55009
427,442,23.2969,-0.456787,0,0,0,0,0,0,0,-1,1651,582,23.2968,0.456769
434,442,23.9512,-2.49365,0,0,0,0,0,0,0,-1,1658,582,23.9512,2.49366
441,442,24.8251,-4.43958,0,0,0,0,0,0,0,-1,1665,582,24.8251,4.43956
448,442,4.7749,-5.88562,0,0,0,0,0,0,0,-1,1672,582,4.7749,5.8856
455,442,4.87024,-4.60687,0,0,0,0,0,0,0,-1,1679,582,4.87019,4.60686
462,442,5.02307,-3.72821,0,0,0,0,0,0,0,-1,1686,582,5.02311,3.7282
469,442,5.12976,-2.98834,0,0,0,0,0,0,0,-1,1693,582,5.12971,2.98834
476,442,5.4624,1.76947,0,0,0,0,0,0,0,-1,1700,582,5.46234,-1.76944
483,442,5.98486,1.87042,0,0,0,0,0,0,0,-1,1707,582,5.98492,-1.87045
490,442,5.04407,-2.35834,0,0,0,0,0,0,0,-1,1714,582,5.04411,2.35837
497,442,6.20984,-3.07831,0,0,0,0,0,0,0,-1,1721,582,6.2098,3.07833
504,442,15.4819,-13.0021,0,0,0,0,0,0,0,-1,1728,582,15.482,13.0021
511,442,15.6462,-12.3688,0.00462178,0.00208306,0.00191799,0.00565241,0.00105243,0.493079,0.00347106,0.0314331,1735,582,15.6462,12.3688
518,442,15.6971,-11.8183,0.00402121,0.00177021,0.0018017,0.00502006,0.000771357,0.506211,0.00312152,0.0113797,1742,582,15.6971,11.8183
525,442,15.6721,-11.3114,0.00328145,0.00158525,0.00165705,0.00429483,0.000571876,0.548871,0.00269291,0.0105134,1749,582,15.6721,11.3114
532,442,15.6545,-10.7886,0.00247333,0.0013139,0.00140861,0.00341686,0.000370376,0.590186,0.00216503,0.0111937,1756,582,15.6545,10.7886
539,442,15.6349,-10.2426,0.00173499,0.00106229,0.00119604,0.00264107,0.000156206,0.648328,0.00171102,0.0117772,1763,582,15.6349,10.2426
546,442,15.6346,-9.70685,0.00095501,0.000761092,0.000916318,0.00177948,-6.33826e-05,0.732688,0.00120801,0.0151546,1770,582,15.6346,9.70685
553,442,15.6068,-9.19421,2.11916e-05,0.000565759,0.00068451,0.00103015,-0.000443201,0.974693,0.000872851,0.0166993,1777,582,15.6068,9.19424
560,442,15.6085,-8.67853,-0.00116649,0.00121857,0.000616901,0.00136869,-0.0013166,1.3321,0.00155045,0.0154189,1784,582,15.6085,8.67855
567,442,15.5812,-8.1488,-0.00234877,0.00187001,0.000623023,0.00196009,-0.00243885,1.4272,0.00254474,0.010352,1791,582,15.5811,8.14878
574,442,15.5702,-7.61591,-0.00378616,0.00302199,0.000735854,0.00310061,-0.00386479,1.46435,0.00402953,0.0124899,1798,582,15.5702,7.6159
581,442,15.6063,-6.99438,-0.00556244,0.00489345,0.00104566,0.004997,-0.00566599,1.47209,0.00616032,0.0260124,1805,582,15.6063,6.99441
588,442,15.7195,-6.42896,0,0,0,0,0,0,0,-1,1812,582,15.7194,6.42898
595,442,15.4569,-6.10553,0,0,0,0,0,0,0,-1,1819,582,15.4569,6.10554
602,442,11.4385,-1.74512,0,0,0,0,0,0,0,-1,1826,582,11.4385,1.74509
609,442,12.761,2.97223,0,0,0,0,0,0,0,-1,1833,582,12.761,-2.97221
616,442,9.78345,-0.103394,0,0,0,0,0,0,0,-1,1840,582,9.78341,0.103424
623,442,9.23828,0.326721,0,0,0,0,0,0,0,-1,1847,582,9.23829,-0.326727
630,442,7.74304,2.3924,0,0,0,0,0,0,0,-1,1854,582,7.7431,-2.39238
637,442,5.87805,1.84027,0,0,0,0,0,0,0,-1,1861,582,5.87807,-1.84025
644,442,0,0,0,0,0,0,0,0,0,-1,1868,582,0,0
651,442,0,0,0,0,0,0,0,0,0,-1,1875,582,0,0
658,442,0,0,0,0,0,0,0,0,0,-1,1882,582,0,0
665,442,0,0,0,0,0,0,0,0,0,-1,1889,582,0,0
672,442,0,0,0,0,0,0,0,0,0,-1,1896,582,0,0
679,442,0,0,0,0,0,0,0,0,0,-1,1903,582,0,0
686,442,0,0,0,0,0,0,0,0,0,-1,1910,582,0,0
693,442,0,0,0,0,0,0,0,0,0,-1,1917,582,0,0
700,442,0,0,0,0,0,0,0,0,0,-1,1924,582,0,0
707,442,0,0,0,0,0,0,0,0,0,-1,1931,582,0,0
714,442,0,0,0,0,0,0,0,0,0,-1,1938,582,0,0
721,442,0,0,0,0,0,0,0,0,0,-1,1945,582,0,0
728,442,0,0,0,0,0,0,0,0,0,-1,1952,582,0,0
735,442,0,0,0,0,0,0,0,0,0,-1,1959,582,0,0
742,442,0,0,0,0,0,0,0,0,0,-1,1966,582,0,0
749,442,0,0,0,0,0,0,0,0,0,-1,1973,582,0,0
756,442,0,0,0,0,0,0,0,0,0,-1,1980,582,0,0
763,442,0,0,0,0,0,0,0,0,0,-1,1987,582,0,0
770,442,0,0,0,0,0,0,0,0,0,-1,1994,582,0,0
777,442,0,0,0,0,0,0,0,0,0,-1,2001,582,0,0
784,442,0,0,0,0,0,0,0,0,0,-1,2008,582,0,0
791,442,0,0,0,0,0,0,0,0,0,-1,2015,582,0,0
798,442,0,0,0,0,0,0,0,0,0,-1,2022,582,0,0
805,442,0,0,0,0,0,0,0,0,0,-1,2029,582,0,0
812,442,0,0,0,0,0,0,0,0,0,-1,2036,582,0,0
-700,435,0,0,0,0,0,0,0,0,0,-1,524,589,0,0
-693,435,0,0,0,0,0,0,0,0,0,-1,531,589,0,0
-686,435,0,0,0,0,0,0,0,0,0,-1,538,589,0,0
-679,435,0,0,0,0,0,0,0,0,0,-1,545,589,0,0
-672,435,0,0,0,0,0,0,0,0,0,-1,552,589,0,0
-665,435,0,0,0,0,0,0,0,0,0,-1,559,589,0,0
-658,435,0,0,0,0,0,0,0,0,0,-1,566,589,0,0
-651,435,0,0,0,0,0,0,0,0,0,-1,573,589,0,0
-644,435,0,0,0,0,0,0,0,0,0,-1,580,589,0,0
-637,435,0,0,0,0,0,0,0,0,0,-1,587,589,0,0
-630,435,0,0,0,0,0,0,0,0,0,-1,594,589,0,0
-623,435,0,0,0,0,0,0,0,0,0,-1,601,589,0,0
-616,435,0,0,0,0,0,0,0,0,0,-1,608,589,0,0
-609,435,0,0,0,0,0,0,0,0,0,-1,615,589,0,0
-602,435,0,0,0,0,0,0,0,0,0,-1,622,589,0,0
-595,435,0,0,0,0,0,0,0,0,0,-1,629,589,0,0
-588,435,0,0,0,0,0,0,0,0,0,-1,636,589,0,0
-581,435,0,0,0,0,0,0,0,0,0,-1,643,589,0,0
-574,435,0,0,0,0,0,0,0,0,0,-1,650,589,0,0
-567,435,0,0,0,0,0,0,0,0,0,-1,657,589,0,0
-560,435,0,0,0,0,0,0,0,0,0,-1,664,589,0,0
-553,435,0,0,0,0,0,0,0,0,0,-1,671,589,0,0
-546,435,0,0,0,0,0,0,0,0,0,-1,678,589,0,0
-539,435,0,0,0,0,0,0,0,0,0,-1,685,589,0,0
-532,435,0,0,0,0,0,0,0,0,0,-1,692,589,0,0
-525,435,-10.0776,10.0547,0,0,0,0,0,0,0,-1,699,589,-10.0776,-10.0547
-518,435,-1.83093,-5.82367,0,0,0,0,0,0,0,-1,706,589,-1.83093,5.8237
-511,435,-2.45154,-5.33118,0,0,0,0,0,0,0,-1,713,589,-2.45151,5.33115
-504,435,-3.07208,-4.83862,0,0,0,0,0,0,0,-1,720,589,-3.0721,4.8386
-497,435,-6.31012,-5.84698,0,0,0,0,0,0,0,-1,727,589,-6.31012,5.84697
-490,435,-5.81903,-0.458679,0,0,0,0,0,0,0,-1,734,589,-5.81902,0.458684
-483,435,-6.96503,-3.01624,0,0,0,0,0,0,0,-1,741,589,-6.96505,3.01623
-476,435,-6.54877,-6.38617,0,0,0,0,0,0,0,-1,748,589,-6.54878,6.38617
-469,435,-6.49475,-7.23334,-0.00123547,0.00760408,-0.0038924,0.00907372,-0.00270511,-1.20978,0.00712415,0.035339,755,589,-6.49476,7.23335
-462,435,-6.47205,-8.1449,-0.000916965,0.00609999,-0.00320677,0.0073447,-0.00216167,-1.20055,0.00575401,0.021842,762,589,-6.47203,8.14489
-455,435,-6.59534,-8.66785,-0.000648104,0.00494828,-0.00258738,0.00596118,-0.001661,-1.19766,0.00462823,0.0201028,769,589,-6.59534,8.66782
-448,435,-6.60095,-9.25745,-0.00038154,0.00379761,-0.00197957,0.0045864,-0.00117033,-1.19161,0.0035133,0.0132647,776,589,-6.60094,9.25744
-441,435,-6.61322,-9.75879,-0.000205429,0.00271824,-0.00136499,0.00325645,-0.000743635,-1.19522,0.00245665,0.0112747,783,589,-6.61325,9.75877
-434,435,-6.62512,-10.2382,-0.000123599,0.00185702,-0.000804791,0.0021428,-0.000409377,-1.22959,0.00158274,0.012757,790,589,-6.6251,10.2382
-427,435,-6.64264,-10.7717,-2.34106e-06,0.000936765,-0.000279141,0.00101347,-7.90478e-05,-1.30262,0.000703479,0.0103516,797,589,-6.64262,10.7717
-420,435,-6.64587,-11.29,0.000164857,0.000113335,0.000178379,0.000319326,-4.11339e-05,0.713685,0.000227837,0.0104759,804,589,-6.64586,11.2901
-413,435,-6.65906,-11.796,0.00020395,-0.000798864,0.000758672,0.000611935,-0.00120685,0.493398,0.00106864,0.0111172,811,589,-6.65903,11.796
-406,435,-6.67145,-12.2899,0.000247715,-0.00155654,0.00126451,0.000898915,-0.00220774,0.47556,0.00184593,0.0108536,818,589,-6.67148,12.2898
-399,435,-6.67761,-12.7707,0.000394224,-0.00227749,0.00169946,0.00122001,-0.00310327,0.452311,0.00257377,0.00906931,825,589,-6.67761,12.7707
-392,435,-6.70813,-13.2729,0.000658046,-0.00295343,0.00209156,0.00161552,-0.00391091,0.429303,0.00328114,0.0103411,832,589,-6.70813,13.2729
-385,435,-6.69653,-13.7647,0.000980363,-0.00350628,0.00242017,0.002037,-0.00456292,0.411651,0.00390238,0.0184606,839,589,-6.69655,13.7647
-378,435,-6.69153,-14.1406,0.00122107,-0.00413969,0.00292703,0.00250957,-0.00542818,0.414679,0.00468499,0.0392838,846,589,-6.69153,14.1406
-371,435,-6.58881,-14.7137,0,0,0,0,0,0,0,-1,853,589,-6.58881,14.7137
-364,435,-5.62848,-11.5937,0,0,0,0,0,0,0,-1,860,589,-5.62847,11.5937
-357,435,-5.57343,-10.9666,0,0,0,0,0,0,0,-1,867,589,-5.57342,10.9666
-350,435,-0.86676,-3.69836,0,0,0,0,0,0,0,-1,874,589,-0.866784,3.69834
-343,435,-1.60706,-2.36835,0,0,0,0,0,0,0,-1,881,589,-1.60706,2.36838
-336,435,-2.07263,-1.94012,0,0,0,0,0,0,0,-1,888,589,-2.07265,1.94014
-329,435,-2.55963,-1.5517,0,0,0,0,0,0,0,-1,895,589,-2.5596,1.55168
-322,435,-3.08545,-1.55255,0,0,0,0,0,0,0,-1,902,589,-3.08544,1.55254
-315,435,-0.404297,-2.63763,0,0,0,0,0,0,0,-1,909,589,-0.404276,2.63761
-308,435,-1.70056,-1.90369,0,0,0,0,0,0,0,-1,916,589,-1.70056,1.90367
-301,435,-1.25232,-2.05511,0,0,0,0,0,0,0,-1,923,589,-1.25234,2.05514
-294,435,-1.79974,-1.97321,0,0,0,0,0,0,0,-1,930,589,-1.79973,1.97322
-287,435,0,0,0,0,0,0,0,0,0,-1,937,589,0,0
-280,435,0,0,0,0,0,0,0,0,0,-1,944,589,0,0
-273,435,0,0,0,0,0,0,0,0,0,-1,951,589,0,0
-266,435,0,0,0,0,0,0,0,0,0,-1,958,589,0,0
-259,435,0,0,0,0,0,0,0,0,0,-1,965,589,0,0
-252,435,0,0,0,0,0,0,0,0,0,-1,972,589,0,0
-245,435,0,0,0,0,0,0,0,0,0,-1,979,589,0,0
-238,435,0,0,0,0,0,0,0,0,0,-1,986,589,0,0
-231,435,0,0,0,0,0,0,0,0,0,-1,993,589,0,0
-224,435,0,0,0,0,0,0,0,0,0,-1,1000,589,0,0
-217,435,0,0,0,0,0,0,0,0,0,-1,1007,589,0,0
-210,435,0,0,0,0,0,0,0,0,0,-1,1014,589,0,0
-203,435,0,0,0,0,0,0,0,0,0,-1,1021,589,0,0
-196,435,0,0,0,0,0,0,0,0,0,-1,1028,589,0,0
-189,435,0,0,0,0,0,0,0,0,0,-1,1035,589,0,0
-182,435,0,0,0,0,0,0,0,0,0,-1,1042,589,0,0
-175,435,0,0,0,0,0,0,0,0,0,-1,1049,589,0,0
-168,435,0,0,0,0,0,0,0,0,0,-1,1056,589,0,0
-161,435,0,0,0,0,0,0,0,0,0,-1,1063,589,0,0
-154,435,0,0,0,0,0,0,0,0,0,-1,1070,589,0,0
-147,435,0,0,0,0,0,0,0,0,0,-1,1077,589,0,0
-140,435,0,0,0,0,0,0,0,0,0,-1,1084,589,0,0
-133,435,0,0,0,0,0,0,0,0,0,-1,1091,589,0,0
-126,435,0,0,0,0,0,0,0,0,0,-1,1098,589,0,0
-119,435,0,0,0,0,0,0,0,0,0,-1,1105,589,0,0
-112,435,0,0,0,0,0,0,0,0,0,-1,1112,589,0,0
-105,435,0,0,0,0,0,0,0,0,0,-1,1119,589,0,0
-98,435,0,0,0,0,0,0,0,0,0,-1,1126,589,0,0
-91,435,0,0,0,0,0,0,0,0,0,-1,1133,589,0,0
-84,435,0,0,0,0,0,0,0,0,0,-1,1140,589,0,0
-77,435,0,0,0,0,0,0,0,0,0,-1,1147,589,0,0
-70,435,0,0,0,0,0,0,0,0,0,-1,1154,589,0,0
-63,435,0,0,0,0,0,0,0,0,0,-1,1161,589,0,0
-56,435,0,0,0,0,0,0,0,0,0,-1,1168,589,0,0
-49,435,0,0,0,0,0,0,0,0,0,-1,1175,589,0,0
-42,435,0,0,0,0,0,0,0,0,0,-1,1182,589,0,0
-35,435,0,0,0,0,0,0,0,0,0,-1,1189,589,0,0
-28,435,0,0,0,0,0,0,0,0,0,-1,1196,589,0,0
-21,435,0,0,0,0,0,0,0,0,0,-1,1203,589,0,0
-14,435,0,0,0,0,0,0,0,0,0,-1,1210,589,0,0
-7,435,0,0,0,0,0,0,0,0,0,-1,1217,589,0,0
0,435,0,0,0,0,0,0,0,0,0,-1,1224,589,0,0
7,435,0,0,0,0,0,0,0,0,0,-1,1231,589,0,0
14,435,0,0,0,0,0,0,0,0,0,-1,1238,589,0,0
21,435,0,0,0,0,0,0,0,0,0,-1,1245,589,0,0
28,435,0,0,0,0,0,0,0,0,0,-1,1252,589,0,0
35,435,0,0,0,0,0,0,0,0,0,-1,1259,589,0,0
42,435,0,0,0,0,0,0,0,0,0,-1,1266,589,0,0
49,435,0,0,0,0,0,0,0,0,0,-1,1273,589,0,0
56,435,0,0,0,0,0,0,0,0,0,-1,1280,589,0,0
63,435,0,0,0,0,0,0,0,0,0,-1,1287,589,0,0
70,435,0,0,0,0,0,0,0,0,0,-1,1294,589,0,0
77,435,0,0,0,0,0,0,0,0,0,-1,1301,589,0,0
84,435,0,0,0,0,0,0,0,0,0,-1,1308,589,0,0
91,435,0,0,0,0,0,0,0,0,0,-1,1315,589,0,0
98,435,0,0,0,0,0,0,0,0,0,-1,1322,589,0,0
105,435,0,0,0,0,0,0,0,0,0,-1,1329,589,0,0
112,435,0,0,0,0,0,0,0,0,0,-1,1336,589,0,0
119,435,0,0,0,0,0,0,0,0,0,-1,1343,589,0,0
126,435,0,0,0,0,0,0,0,0,0,-1,1350,589,0,0
133,435,0,0,0,0,0,0,0,0,0,-1,1357,589,0,0
140,435,0,0,0,0,0,0,0,0,0,-1,1364,589,0,0
147,435,0,0,0,0,0,0,0,0,0,-1,1371,589,0,0
154,435,0,0,0,0,0,0,0,0,0,-1,1378,589,0,0
161,435,0,0,0,0,0,0,0,0,0,-1,1385,589,0,0
168,435,0,0,0,0,0,0,0,0,0,-1,1392,589,0,0
175,435,0,0,0,0,0,0,0,0,0,-1,1399,589,0,0
182,435,0,0,0,0,0,0,0,0,0,-1,1406,589,0,0
189,435,0,0,0,0,0,0,0,0,0,-1,1413,589,0,0
196,435,0,0,0,0,0,0,0,0,0,-1,1420,589,0,0
203,435,0,0,0,0,0,0,0,0,0,-1,1427,589,0,0
210,435,0,0,0,0,0,0,0,0,0,-1,1434,589,0,0
217,435,0,0,0,0,0,0,0,0,0,-1,1441,589,0,0
224,435,0,0,0,0,0,0,0,0,0,-1,1448,589,0,0
231,435,0,0,0,0,0,0,0,0,0,-1,1455,589,0,0
238,435,0,0,0,0,0,0,0,0,0,-1,1462,589,0,0
245,435,0,0,0,0,0,0,0,0,0,-1,1469,589,0,0
252,435,0,0,0,0,0,0,0,0,0,-1,1476,589,0,0
259,435,0,0,0,0,0,0,0,0,0,-1,1483,589,0,0
266,435,0,0,0,0,0,0,0,0,0,-1,1490,589,0,0
273,435,0,0,0,0,0,0,0,0,0,-1,1497,589,0,0
280,435,0,0,0,0,0,0,0,0,0,-1,1504,589,0,0
287,435,0,0,0,0,0,0,0,0,0,-1,1511,589,0,0
294,435,0,0,0,0,0,0,0,0,0,-1,1518,589,0,0
301,435,0,0,0,0,0,0,0,0,0,-1,1525,589,0,0
308,435,0,0,0,0,0,0,0,0,0,-1,1532,589,0,0
315,435,0,0,0,0,0,0,0,0,0,-1,1539,589,0,0
322,435,0,0,0,0,0,0,0,0,0,-1,1546,589,0,0
329,435,0,0,0,0,0,0,0,0,0,-1,1553,589,0,0
336,435,0,0,0,0,0,0,0,0,0,-1,1560,589,0,0
343,435,0,0,0,0,0,0,0,0,0,-1,1567,589,0,0
350,435,0,0,0,0,0,0,0,0,0,-1,1574,589,0,0
357,435,0,0,0,0,0,0,0,0,0,-1,1581,589,0,0
364,435,0,0,0,0,0,0,0,0,0,-1,1588,589,0,0
371,435,0,0,0,0,0,0,0,0,0,-1,1595,589,0,0
378,435,0,0,0,0,0,0,0,0,0,-1,1602,589,0,0
385,435,0,0,0,0,0,0,0,0,0,-1,1609,589,0,0
392,435,0,0,0,0,0,0,0,0,0,-1,1616,589,0,0
399,435,0,0,0,0,0,0,0,0,0,-1,1623,589,0,0
406,435,0,0,0,0,0,0,0,0,0,-1,1630,589,0,0
413,435,20.4565,3.49835,0,0,0,0,0,0,0,-1,1637,589,20.4565,-3.49836
420,435,21.4015,1.49609,0,0,0,0,0,0,0,-1,1644,589,21.4015,-1.49609
427,435,22.0464,-0.373962,0,0,0,0,0,0,0,-1,1651,589,22.0464,0.373972
434,435,22.1863,-1.54407,0,0,0,0,0,0,0,-1,1658,589,22.1862,1.54405
441,435,22.3992,-2.38287,0,0,0,0,0,0,0,-1,1665,589,22.3992,2.38289
448,435,7.4585,-0.00292969,0,0,0,0,0,0,0,-1,1672,589,7.45848,0.00294131
455,435,5.49915,-5.047,0,0,0,0,0,0,0,-1,1679,589,5.49914,5.04703
462,435,5.60669,-4.71466,0,0,0,0,0,0,0,-1,1686,589,5.60675,4.71469
469,435,5.87708,1.22351,0,0,0,0,0,0,0,-1,1693,589,5.87703,-1.22351
476,435,6.14136,1.37714,0,0,0,0,0,0,0,-1,1700,589,6.14138,-1.37712
483,435,6.49243,1.36169,0,0,0,0,0,0,0,-1,1707,589,6.49242,-1.36171
490,435,4.38391,-1.36218,0,0,0,0,0,0,0,-1,1714,589,4.38389,1.3622
497,435,7.23499,-3.64551,0,0,0,0,0,0,0,-1,1721,589,7.23495,3.64551
504,435,7.31189,-3.75909,0,0,0,0,0,0,0,-1,1728,589,7.31184,3.75911
511,435,16.1339,-12.397,0,0,0,0,0,0,0,-1,1735,589,16.1339,12.397
518,435,16.2389,-11.8292,0.00498508,0.0021158,0.00218534,0.00616461,0.000936261,0.494938,0.00383593,0.0280845,1742,589,16.2389,11.8292
525,435,16.1938,-11.2846,0.00417847,0.001923,0.00203293,0.00537552,0.000725958,0.532163,0.00336787,0.0126557,1749,589,16.1938,11.2846
532,435,16.196,-10.7464,0.00331899,0.00158276,0.00174185,0.00439707,0.00050468,0.55422,0.00277847,0.0141191,1756,589,16.1961,10.7464
539,435,16.2063,-10.2103,0.00257875,0.00131199,0.00150496,0.00357818,0.000312557,0.586218,0.0022884,0.0152504,1763,589,16.2063,10.2102
546,435,16.1698,-9.68201,0.00182787,0.00101608,0.00122681,0.00271419,0.000129765,0.625639,0.00176779,0.0146737,1770,589,16.1698,9.68198
553,435,16.1318,-9.16699,0.000933676,0.000773122,0.000973488,0.00183019,-0.000123393,0.74426,0.00126327,0.0104855,1777,589,16.1319,9.16699
560,435,16.1117,-8.63385,-0.000201564,0.00126889,0.000859054,0.00166438,-0.000597059,1.13934,0.00135325,0.00936716,1784,589,16.1116,8.63384
567,435,16.1042,-8.09131,-0.00134451,0.00188597,0.000844589,0.00209346,-0.00155199,1.3299,0.00211243,0.00861807,1791,589,16.1042,8.0913
574,435,16.0881,-7.5697,-0.00266097,0.00297319,0.000950033,0.00312907,-0.00281686,1.40816,0.00343446,0.00965631,1798,589,16.0881,7.5697
581,435,16.0588,-7.04553,-0.00421706,0.00470849,0.00125111,0.00488055,-0.00438912,1.43413,0.00535435,0.0173751,1805,589,16.0589,7.04551
588,435,16.0437,-6.53583,-0.00600072,0.00743116,0.00187258,0.00768733,-0.0062569,1.43484,0.00806481,0.0388562,1812,589,16.0437,6.53585
595,435,15.8816,-6.03534,-0.008161,0.0115603,0.00291478,0.0119821,-0.00858278,1.42709,0.0119271,0.0442661,1819,589,15.8816,6.03535
602,435,15.6473,-4.87134,0,0,0,0,0,0,0,-1,1826,589,15.6473,4.87132
609,435,15.2611,-3.42242,0,0,0,0,0,0,0,-1,1833,589,15.2611,3.42242
616,435,5.05151,-2.75269,0,0,0,0,0,0,0,-1,1840,589,5.05157,2.7527
623,435,11.7588,3.9704,0,0,0,0,0,0,0,-1,1847,589,11.7587,-3.97043
630,435,4.72742,-0.87561,0,0,0,0,0,0,0,-1,1854,589,4.7274,0.875636
637,435,5.05286,1.48792,0,0,0,0,0,0,0,-1,1861,589,5.05291,-1.48792
644,435,0,0,0,0,0,0,0,0,0,-1,1868,589,0,0
651,435,0,0,0,0,0,0,0,0,0,-1,1875,589,0,0
658,435,0,0,0,0,0,0,0,0,0,-1,1882,589,0,0
665,435,0,0,0,0,0,0,0,0,0,-1,1889,589,0,0
672,435,0,0,0,0,0,0,0,0,0,-1,1896,589,0,0
679,435,0,0,0,0,0,0,0,0,0,-1,1903,589,0,0
686,435,0,0,0,0,0,0,0,0,0,-1,1910,589,0,0
693,435,0,0,0,0,0,0,0,0,0,-1,1917,589,0,0
700,435,0,0,0,0,0,0,0,0,0,-1,1924,589,0,0
707,435,0,0,0,0,0,0,0,0,0,-1,1931,589,0,0
714,435,0,0,0,0,0,0,0,0,0,-1,1938,589,0,0
721,435,0,0,0,0,0,0,0,0,0,-1,1945,589,0,0
728,435,0,0,0,0,0,0,0,0,0,-1,1952,589,0,0
735,435,0,0,0,0,0,0,0,0,0,-1,1959,589,0,0
742,435,0,0,0,0,0,0,0,0,0,-1,1966,589,0,0
749,435,0,0,0,0,0,0,0,0,0,-1,1973,589,0,0
756,435,0,0,0,0,0,0,0,0,0,-1,1980,589,0,0
763,435,0,0,0,0,0,0,0,0,0,-1,1987,589,0,0
770,435,0,0,0,0,0,0,0,0,0,-1,1994,589,0,0
777,435,0,0,0,0,0,0,0,0,0,-1,2001,589,0,0
784,435,0,0,0,0,0,0,0,0,0,-1,2008,589,0,0
791,435,0,0,0,0,0,0,0,0,0,-1,2015,589,0,0
798,435,0,0,0,0,0,0,0,0,0,-1,2022,589,0,0
805,435,0,0,0,0,0,0,0,0,0,-1,2029,589,0,0
812,435,0,0,0,0,0,0,0,0,0,-1,2036,589,0,0
-700,428,0,0,0,0,0,0,0,0,0,-1,524,596,0,0
-693,428,0,0,0,0,0,0,0,0,0,-1,531,596,0,0
-686,428,0,0,0,0,0,0,0,0,0,-1,538,596,0,0
-679,428,0,0,0,0,0,0,0,0,0,-1,545,596,0,0
-672,428,0,0,0,0,0,0,0,0,0,-1,552,596,0,0
-665,428,0,0,0,0,0,0,0,0,0,-1,559,596,0,0
-658,428,0,0,0,0,0,0,0,0,0,-1,566,596,0,0
-651,428,0,0,0,0,0,0,0,0,0,-1,573,596,0,0
-644,428,0,0,0,0,0,0,0,0,0,-1,580,596,0,0
-637,428,0,0,0,0,0,0,0,0,0,-1,587,596,0,0
-630,428,0,0,0,0,0,0,0,0,0,-1,594,596,0,0
-623,428,0,0,0,0,0,0,0,0,0,-1,601,596,0,0
-616,428,0,0,0,0,0,0,0,0,0,-1,608,596,0,0
-609,428,0,0,0,0,0,0,0,0,0,-1,615,596,0,0
-602,428,0,0,0,0,0,0,0,0,0,-1,622,596,0,0
-595,428,0,0,0,0,0,0,0,0,0,-1,629,596,0,0
-588,428,0,0,0,0,0,0,0,0,0,-1,636,596,0,0
-581,428,0,0,0,0,0,0,0,0,0,-1,643,596,0,0
-574,428,0,0,0,0,0,0,0,0,0,-1,650,596,0,0
-567,428,0,0,0,0,0,0,0,0,0,-1,657,596,0,0
-560,428,0,0,0,0,0,0,0,0,0,-1,664,596,0,0
-553,428,0,0,0,0,0,0,0,0,0,-1,671,596,0,0
-546,428,0,0,0,0,0,0,0,0,0,-1,678,596,0,0
-539,428,0,0,0,0,0,0,0,0,0,-1,685,596,0,0
-532,428,0,0,0,0,0,0,0,0,0,-1,692,596,0,0
-525,428,-9.59918,7.58618,0,0,0,0,0,0,0,-1,699,596,-9.59918,-7.5862
-518,428,-2.92285,-4.81854,0,0,0,0,0,0,0,-1,706,596,-2.92285,4.81856
-511,428,-3.68811,-4.79474,0,0,0,0,0,0,0,-1,713,596,-3.68811,4.79474
-504,428,-4.45337,-4.77094,0,0,0,0,0,0,0,-1,720,596,-4.45337,4.77092
-497,428,-2.98108,-3.77502,0,0,0,0,0,0,0,-1,727,596,-2.98106,3.77505
-490,428,-6.39044,-2.80481,0,0,0,0,0,0,0,-1,734,596,-6.39047,2.80483
-483,428,-7.62341,-5.64526,0,0,0,0,0,0,0,-1,741,596,-7.62344,5.64525
-476,428,-7.00311,-6.98395,0,0,0,0,0,0,0,-1,748,596,-7.00309,6.98396
-469,428,-6.93835,-7.5686,-0.00101349,0.00619573,-0.00309414,0.00734159,-0.00215935,-1.21613,0.00575093,0.0244344,755,596,-6.93834,7.56862
-462,428,-7.02991,-8.05695,-0.000661844,0.00487604,-0.00258138,0.00589268,-0.00167848,-1.19562,0.00459138,0.0242692,762,596,-7.02989,8.05697
-455,428,-7.08795,-8.65588,-0.000342405,0.0038368,-0.0021007,0.0047102,-0.00121581,-1.17677,0.00361422,0.0143435,769,596,-7.08798,8.65587
-448,428,-7.11481,-9.21112,-7.71581e-05,0.00274064,-0.001551,0.00342712,-0.000763638,-1.15411,0.00257728,0.0111539,776,596,-7.11483,9.21113
-441,428,-7.1319,-9.72308,5.80639e-05,0.00172926,-0.000959548,0.00216605,-0.000378719,-1.14363,0.00158542,0.0126394,783,596,-7.13191,9.7231
-434,428,-7.13727,-10.2461,0.000105364,0.000923912,-0.000406535,0.00109151,-6.22286e-05,-1.17978,0.000749275,0.00967892,790,596,-7.13727,10.2461
-427,428,-7.14185,-10.7526,0.000179724,1.10957e-05,0.000138603,0.000257644,-6.68236e-05,0.512143,0.000197835,0.0106363,797,596,-7.14183,10.7525
-420,428,-7.14142,-11.2413,0.000274349,-0.000826003,0.000643475,0.000570786,-0.00112244,0.431701,0.000994729,0.0114241,804,596,-7.14144,11.2412
-413,428,-7.15656,-11.7491,0.00022445,-0.00170281,0.00126817,0.000853562,-0.00233192,0.460507,0.00190401,0.0133457,811,596,-7.15653,11.7491
-406,428,-7.16974,-12.2493,0.000148166,-0.00254088,0.00186032,0.00109897,-0.00349169,0.472487,0.00276782,0.0151838,818,596,-7.16973,12.2493
-399,428,-7.17029,-12.7401,0.000172587,-0.00336916,0.00237899,0.00136745,-0.00456402,0.465451,0.00358648,0.0138771,825,596,-7.17027,12.7401
-392,428,-7.17645,-13.2857,0.000304172,-0.00414434,0.00287285,0.00171318,-0.00555334,0.455983,0.00438627,0.0232867,832,596,-7.17642,13.2857
-385,428,-7.17389,-13.7939,0,0,0,0,0,0,0,-1,839,596,-7.17388,13.7939
-378,428,-7.297,-14.0851,0,0,0,0,0,0,0,-1,846,596,-7.297,14.0851
-371,428,-5.96155,-11.0703,0,0,0,0,0,0,0,-1,853,596,-5.96154,11.0702
-364,428,-6.33643,-10.7223,0,0,0,0,0,0,0,-1,860,596,-6.33645,10.7223
-357,428,-3.20996,-4.70966,0,0,0,0,0,0,0,-1,867,596,-3.20997,4.70965
-350,428,-1.62793,-3.94055,0,0,0,0,0,0,0,-1,874,596,-1.62794,3.94055
-343,428,-0.0567017,-4.80994,0,0,0,0,0,0,0,-1,881,596,-0.0567096,4.80996
-336,428,-3.29175,-1.39569,0,0,0,0,0,0,0,-1,888,596,-3.29172,1.39568
-329,428,-3.71564,-0.791321,0,0,0,0,0,0,0,-1,895,596,-3.71564,0.791299
-322,428,-5.52863,-3.59827,0,0,0,0,0,0,0,-1,902,596,-5.52865,3.59829
-315,428,-4.57172,-1.22052,0,0,0,0,0,0,0,-1,909,596,-4.57171,1.22052
-308,428,-5.94324,-0.810791,0,0,0,0,0,0,0,-1,916,596,-5.94321,0.810803
-301,428,0,0,0,0,0,0,0,0,0,-1,923,596,0,0
-294,428,0,0,0,0,0,0,0,0,0,-1,930,596,0,0
-287,428,0,0,0,0,0,0,0,0,0,-1,937,596,0,0
-280,428,0,0,0,0,0,0,0,0,0,-1,944,596,0,0
-273,428,0,0,0,0,0,0,0,0,0,-1,951,596,0,0
-266,428,0,0,0,0,0,0,0,0,0,-1,958,596,0,0
-259,428,0,0,0,0,0,0,0,0,0,-1,965,596,0,0
-252,428,0,0,0,0,0,0,0,0,0,-1,972,596,0,0
-245,428,0,0,0,0,0,0,0,0,0,-1,979,596,0,0
-238,428,0,0,0,0,0,0,0,0,0,-1,986,596,0,0
-231,428,0,0,0,0,0,0,0,0,0,-1,993,596,0,0
-224,428,0,0,0,0,0,0,0,0,0,-1,1000,596,0,0
-217,428,0,0,0,0,0,0,0,0,0,-1,1007,596,0,0
-210,428,0,0,0,0,0,0,0,0,0,-1,1014,596,0,0
-203,428,0,0,0,0,0,0,0,0,0,-1,1021,596,0,0
-196,428,0,0,0,0,0,0,0,0,0,-1,1028,596,0,0
-189,428,0,0,0,0,0,0,0,0,0,-1,1035,596,0,0
-182,428,0,0,0,0,0,0,0,0,0,-1,1042,596,0,0
-175,428,0,0,0,0,0,0,0,0,0,-1,1049,596,0,0
-168,428,0,0,0,0,0,0,0,0,0,-1,1056,596,0,0
-161,428,0,0,0,0,0,0,0,0,0,-1,1063,596,0,0
-154,428,0,0,0,0,0,0,0,0,0,-1,1070,596,0,0
-147,428,0,0,0,0,0,0,0,0,0,-1,1077,596,0,0
-140,428,0,0,0,0,0,0,0,0,0,-1,1084,596,0,0
-133,428,0,0,0,0,0,0,0,0,0,-1,1091,596,0,0
-126,428,0,0,0,0,0,0,0,0,0,-1,1098,596,0,0
-119,428,0,0,0,0,0,0,0,0,0,-1,1105,596,0,0
-112,428,0,0,0,0,0,0,0,0,0,-1,1112,596,0,0
-105,428,0,0,0,0,0,0,0,0,0,-1,1119,596,0,0
-98,428,0,0,0,0,0,0,0,0,0,-1,1126,596,0,0
-91,428,0,0,0,0,0,0,0,0,0,-1,1133,596,0,0
-84,428,0,0,0,0,0,0,0,0,0,-1,1140,596,0,0
-77,428,0,0,0,0,0,0,0,0,0,-1,1147,596,0,0
-70,428,0,0,0,0,0,0,0,0,0,-1,1154,596,0,0
-63,428,0,0,0,0,0,0,0,0,0,-1,1161,596,0,0
-56,428,0,0,0,0,0,0,0,0,0,-1,1168,596,0,0
-49,428,0,0,0,0,0,0,0,0,0,-1,1175,596,0,0
-42,428,0,0,0,0,0,0,0,0,0,-1,1182,596,0,0
-35,428,0,0,0,0,0,0,0,0,0,-1,1189,596,0,0
-28,428,0,0,0,0,0,0,0,0,0,-1,1196,596,0,0
-21,428,0,0,0,0,0,0,0,0,0,-1,1203,596,0,0
-14,428,0,0,0,0,0,0,0,0,0,-1,1210,596,0,0
-7,428,0,0,0,0,0,0,0,0,0,-1,1217,596,0,0
0,428,0,0,0,0,0,0,0,0,0,-1,1224,596,0,0
7,428,0,0,0,0,0,0,0,0,0,-1,1231,596,0,0
14,428,0,0,0,0,0,0,0,0,0,-1,1238,596,0,0
21,428,0,0,0,0,0,0,0,0,0,-1,1245,596,0,0
28,428,0,0,0,0,0,0,0,0,0,-1,1252,596,0,0
35,428,0,0,0,0,0,0,0,0,0,-1,1259,596,0,0
42,428,0,0,0,0,0,0,0,0,0,-1,1266,596,0,0
49,428,0,0,0,0,0,0,0,0,0,-1,1273,596,0,0
56,428,0,0,0,0,0,0,0,0,0,-1,1280,596,0,0
63,428,0,0,0,0,0,0,0,0,0,-1,1287,596,0,0
70,428,0,0,0,0,0,0,0,0,0,-1,1294,596,0,0
77,428,0,0,0,0,0,0,0,0,0,-1,1301,596,0,0
84,428,0,0,0,0,0,0,0,0,0,-1,1308,596,0,0
91,428,0,0,0,0,0,0,0,0,0,-1,1315,596,0,0
98,428,0,0,0,0,0,0,0,0,0,-1,1322,596,0,0
105,428,0,0,0,0,0,0,0,0,0,-1,1329,596,0,0
112,428,0,0,0,0,0,0,0,0,0,-1,1336,596,0,0
119,428,0,0,0,0,0,0,0,0,0,-1,1343,596,0,0
126,428,0,0,0,0,0,0,0,0,0,-1,1350,596,0,0
133,428,0,0,0,0,0,0,0,0,0,-1,1357,596,0,0
140,428,0,0,0,0,0,0,0,0,0,-1,1364,596,0,0
147,428,0,0,0,0,0,0,0,0,0,-1,1371,596,0,0
154,428,0,0,0,0,0,0,0,0,0,-1,1378,596,0,0
161,428,0,0,0,0,0,0,0,0,0,-1,1385,596,0,0
168,428,0,0,0,0,0,0,0,0,0,-1,1392,596,0,0
175,428,0,0,0,0,0,0,0,0,0,-1,1399,596,0,0
182,428,0,0,0,0,0,0,0,0,0,-1,1406,596,0,0
189,428,0,0,0,0,0,0,0,0,0,-1,1413,596,0,0
196,428,0,0,0,0,0,0,0,0,0,-1,1420,596,0,0
203,428,0,0,0,0,0,0,0,0,0,-1,1427,596,0,0
210,428,0,0,0,0,0,0,0,0,0,-1,1434,596,0,0
217,428,0,0,0,0,0,0,0,0,0,-1,1441,596,0,0
224,428,0,0,0,0,0,0,0,0,0,-1,1448,596,0,0
231,428,0,0,0,0,0,0,0,0,0,-1,1455,596,0,0
238,428,0,0,0,0,0,0,0,0,0,-1,1462,596,0,0
245,428,0,0,0,0,0,0,0,0,0,-1,1469,596,0,0
252,428,0,0,0,0,0,0,0,0,0,-1,1476,596,0,0
259,428,0,0,0,0,0,0,0,0,0,-1,1483,596,0,0
266,428,0,0,0,0,0,0,0,0,0,-1,1490,596,0,0
273,428,0,0,0,0,0,0,0,0,0,-1,1497,596,0,0
280,428,0,0,0,0,0,0,0,0,0,-1,1504,596,0,0
287,428,0,0,0,0,0,0,0,0,0,-1,1511,596,0,0
294,428,0,0,0,0,0,0,0,0,0,-1,1518,596,0,0
301,428,0,0,0,0,0,0,0,0,0,-1,1525,596,0,0
308,428,0,0,0,0,0,0,0,0,0,-1,1532,596,0,0
315,428,0,0,0,0,0,0,0,0,0,-1,1539,596,0,0
322,428,0,0,0,0,0,0,0,0,0,-1,1546,596,0,0
329,428,0,0,0,0,0,0,0,0,0,-1,1553,596,0,0
336,428,0,0,0,0,0,0,0,0,0,-1,1560,596,0,0
343,428,0,0,0,0,0,0,0,0,0,-1,1567,596,0,0
350,428,0,0,0,0,0,0,0,0,0,-1,1574,596,0,0
357,428,0,0,0,0,0,0,0,0,0,-1,1581,596,0,0
364,428,0,0,0,0,0,0,0,0,0,-1,1588,596,0,0
371,428,0,0,0,0,0,0,0,0,0,-1,1595,596,0,0
378,428,0,0,0,0,0,0,0,0,0,-1,1602,596,0,0
385,428,0,0,0,0,0,0,0,0,0,-1,1609,596,0,0
392,428,0,0,0,0,0,0,0,0,0,-1,1616,596,0,0
399,428,0,0,0,0,0,0,0,0,0,-1,1623,596,0,0
406,428,0,0,0,0,0,0,0,0,0,-1,1630,596,0,0
413,428,0,0,0,0,0,0,0,0,0,-1,1637,596,0,0
420,428,19.8469,1.3399,0,0,0,0,0,0,0,-1,1644,596,19.8469,-1.33992
427,428,20.7299,-0.225281,0,0,0,0,0,0,0,-1,1651,596,20.7299,0.225262
434,428,19.8915,-0.583069,0,0,0,0,0,0,0,-1,1658,596,19.8915,0.583075
441,428,8.17993,0.607483,0,0,0,0,0,0,0,-1,1665,596,8.17997,-0.607513
448,428,7.84338,-0.385986,0,0,0,0,0,0,0,-1,1672,596,7.84336,0.385978
455,428,6.64038,2.1123,0,0,0,0,0,0,0,-1,1679,596,6.64037,-2.11229
462,428,4.84106,4.12341,0,0,0,0,0,0,0,-1,1686,596,4.84107,-4.12339
469,428,7.83789,3.10083,0,0,0,0,0,0,0,-1,1693,596,7.83785,-3.10086
476,428,7.61255,1.73956,0,0,0,0,0,0,0,-1,1700,596,7.61252,-1.73958
483,428,7.22766,1.05121,0,0,0,0,0,0,0,-1,1707,596,7.2277,-1.05121
490,428,5.4071,-3.2793,0,0,0,0,0,0,0,-1,1714,596,5.40707,3.27929
497,428,7.84106,-3.65491,0,0,0,0,0,0,0,-1,1721,596,7.84107,3.65491
504,428,6.92139,-2.83356,0,0,0,0,0,0,0,-1,1728,596,6.92137,2.83353
511,428,7.88501,-3.78723,0,0,0,0,0,0,0,-1,1735,596,7.88502,3.78722
518,428,16.7306,-11.9081,0,0,0,0,0,0,0,-1,1742,596,16.7306,11.9081
525,428,16.6962,-11.2521,0,0,0,0,0,0,0,-1,1749,596,16.6961,11.2522
532,428,16.7042,-10.7099,0.0043739,0.00188654,0.00216795,0.00562956,0.000630867,0.524982,0.00356143,0.0219865,1756,596,16.7042,10.7099
539,428,16.7521,-10.1937,0.00357286,0.00157265,0.0018382,0.00466541,0.000480101,0.53626,0.00296323,0.0207098,1763,596,16.752,10.1936
546,428,16.7056,-9.69275,0.00280018,0.00126089,0.00151733,0.0037319,0.000329165,0.550689,0.00238579,0.0168366,1770,596,16.7056,9.69276
553,428,16.6604,-9.16406,0.00190793,0.000938028,0.00119766,0.0027151,0.000130863,0.593029,0.00176806,0.0112778,1777,596,16.6604,9.16404
560,428,16.6699,-8.61719,0.000799482,0.00119476,0.00100155,0.00201799,-2.3746e-05,0.882813,0.00135331,0.0113862,1784,596,16.67,8.6172
567,428,16.6578,-8.07684,-0.000345127,0.00174383,0.00094661,0.00210896,-0.00071026,1.20265,0.00169314,0.0103043,1791,596,16.6578,8.07687
574,428,16.6311,-7.56134,-0.00160173,0.00272551,0.0010278,0.00295722,-0.00183345,1.34906,0.00279115,0.0122206,1798,596,16.6311,7.56137
581,428,16.5946,-7.01703,-0.00302815,0.00428395,0.00131043,0.0045117,-0.00325591,1.39871,0.00450412,0.0110866,1805,596,16.5946,7.01701
588,428,16.5685,-6.44904,-0.00462143,0.00665824,0.00186436,0.0069584,-0.00492159,1.41117,0.00689244,0.0164641,1812,596,16.5685,6.44904
595,428,16.5558,-5.86542,-0.00642526,0.0101138,0.00278598,0.0105705,-0.00688195,1.40832,0.0101509,0.0206068,1819,596,16.5557,5.86539
602,428,16.3524,-5.28033,-0.00857363,0.0147062,0.00404358,0.0153885,-0.00925598,1.40362,0.0143746,0.0349427,1826,596,16.3524,5.28034
609,428,16.0044,-4.14441,-0.0108568,0.0207599,0.00583474,0.0218023,-0.0118992,1.39401,0.0197356,0.0495059,1833,596,16.0044,4.14444
616,428,15.7817,-3.09558,0,0,0,0,0,0,0,-1,1840,596,15.7817,3.09556
623,428,9.53577,1.12518,0,0,0,0,0,0,0,-1,1847,596,9.5358,-1.1252
630,428,7.07996,6.88562,0,0,0,0,0,0,0,-1,1854,596,7.0799,-6.88565
637,428,3.95435,1.90857,0,0,0,0,0,0,0,-1,1861,596,3.95439,-1.90858
644,428,5.75476,0.888977,0,0,0,0,0,0,0,-1,1868,596,5.75472,-0.888955
651,428,0,0,0,0,0,0,0,0,0,-1,1875,596,0,0
658,428,0,0,0,0,0,0,0,0,0,-1,1882,596,0,0
665,428,0,0,0,0,0,0,0,0,0,-1,1889,596,0,0
672,428,0,0,0,0,0,0,0,0,0,-1,1896,596,0,0
679,428,0,0,0,0,0,0,0,0,0,-1,1903,596,0,0
686,428,0,0,0,0,0,0,0,0,0,-1,1910,596,0,0
693,428,0,0,0,0,0,0,0,0,0,-1,1917,596,0,0
700,428,0,0,0,0,0,0,0,0,0,-1,1924,596,0,0
707,428,0,0,0,0,0,0,0,0,0,-1,1931,596,0,0
714,428,0,0,0,0,0,0,0,0,0,-1,1938,596,0,0
721,428,0,0,0,0,0,0,0,0,0,-1,1945,596,0,0
728,428,0,0,0,0,0,0,0,0,0,-1,1952,596,0,0
735,428,0,0,0,0,0,0,0,0,0,-1,1959,596,0,0
742,428,0,0,0,0,0,0,0,0,0,-1,1966,596,0,0
749,428,0,0,0,0,0,0,0,0,0,-1,1973,596,0,0
756,428,0,0,0,0,0,0,0,0,0,-1,1980,596,0,0
763,428,0,0,0,0,0,0,0,0,0,-1,1987,596,0,0
770,428,0,0,0,0,0,0,0,0,0,-1,1994,596,0,0
777,428,0,0,0,0,0,0,0,0,0,-1,2001,596,0,0
784,428,0,0,0,0,0,0,0,0,0,-1,2008,596,0,0
791,428,0,0,0,0,0,0,0,0,0,-1,2015,596,0,0
798,428,0,0,0,0,0,0,0,0,0,-1,2022,596,0,0
805,428,0,0,0,0,0,0,0,0,0,-1,2029,596,0,0
812,428,0,0,0,0,0,0,0,0,0,-1,2036,596,0,0
-700,421,0,0,0,0,0,0,0,0,0,-1,524,603,0,0
-693,421,0,0,0,0,0,0,0,0,0,-1,531,603,0,0
-686,421,0,0,0,0,0,0,0,0,0,-1,538,603,0,0
-679,421,0,0,0,0,0,0,0,0,0,-1,545,603,0,0
-672,421,0,0,0,0,0,0,0,0,0,-1,552,603,0,0
-665,421,0,0,0,0,0,0,0,0,0,-1,559,603,0,0
-658,421,0,0,0,0,0,0,0,0,0,-1,566,603,0,0
-651,421,0,0,0,0,0,0,0,0,0,-1,573,603,0,0
-644,421,0,0,0,0,0,0,0,0,0,-1,580,603,0,0
-637,421,0,0,0,0,0,0,0,0,0,-1,587,603,0,0
-630,421,0,0,0,0,0,0,0,0,0,-1,594,603,0,0
-623,421,0,0,0,0,0,0,0,0,0,-1,601,603,0,0
-616,421,0,0,0,0,0,0,0,0,0,-1,608,603,0,0
-609,421,0,0,0,0,0,0,0,0,0,-1,615,603,0,0
-602,421,0,0,0,0,0,0,0,0,0,-1,622,603,0,0
-595,421,0,0,0,0,0,0,0,0,0,-1,629,603,0,0
-588,421,0,0,0,0,0,0,0,0,0,-1,636,603,0,0
-581,421,0,0,0,0,0,0,0,0,0,-1,643,603,0,0
-574,421,0,0,0,0,0,0,0,0,0,-1,650,603,0,0
-567,421,0,0,0,0,0,0,0,0,0,-1,657,603,0,0
-560,421,0,0,0,0,0,0,0,0,0,-1,664,603,0,0
-553,421,0,0,0,0,0,0,0,0,0,-1,671,603,0,0
-546,421,0,0,0,0,0,0,0,0,0,-1,678,603,0,0
-539,421,0,0,0,0,0,0,0,0,0,-1,685,603,0,0
-532,421,-8.97382,6.95636,0,0,0,0,0,0,0,-1,692,603,-8.97384,-6.95634
-525,421,-2.11481,-8.04272,0,0,0,0,0,0,0,-1,699,603,-2.11483,8.0427
-518,421,-3.05908,-5.07233,0,0,0,0,0,0,0,-1,706,603,-3.0591,5.07235
-511,421,-4.63525,-4.08447,0,0,0,0,0,0,0,-1,713,603,-4.63524,4.08449
-504,421,-5.17029,-4.94458,0,0,0,0,0,0,0,-1,720,603,-5.17029,4.9446
-497,421,-6.63141,-2.32501,0,0,0,0,0,0,0,-1,727,603,-6.6314,2.32498
-490,421,-6.7616,-4.14783,0,0,0,0,0,0,0,-1,734,603,-6.76159,4.1478
-483,421,-7.33374,-6.73053,0,0,0,0,0,0,0,-1,741,603,-7.33376,6.73055
-476,421,-7.43567,-7.18445,-0.000899696,0.00622748,-0.00292574,0.00727465,-0.00194687,-1.22709,0.00561243,0.0356696,748,603,-7.43565,7.18448
-469,421,-7.56616,-7.56854,-0.000652247,0.00485602,-0.00250359,0.00582388,-0.0016201,-1.20191,0.00452045,0.0253821,755,603,-7.56618,7.56852
-462,421,-7.58893,-8.13562,-0.000355828,0.00370299,-0.00209302,0.00458892,-0.00124176,-1.17038,0.00354642,0.020139,762,603,-7.58895,8.1356
-455,421,-7.59705,-8.6546,-6.68097e-05,0.00276248,-0.00170126,0.00356042,-0.000864745,-1.13223,0.00270827,0.018426,769,603,-7.59704,8.65458
-448,421,-7.61597,-9.17303,0.000158325,0.00172899,-0.00118064,0.00236163,-0.000474318,-1.07888,0.00175404,0.0185351,776,603,-7.61598,9.17305
-441,421,-7.62372,-9.72369,0.000241592,0.00077745,-0.000594311,0.00116144,-0.000142393,-0.997167,0.000825857,0.0136639,783,603,-7.62371,9.72372
-434,421,-7.64697,-10.2396,0.000250408,1.80878e-05,-3.18006e-05,0.000254682,1.38135e-05,-0.133609,0.000165376,0.00964503,790,603,-7.64697,10.2395
-427,421,-7.63934,-10.7338,0.000267332,-0.000877631,0.000552311,0.000490327,-0.00110063,0.383734,0.000940795,0.0098629,797,603,-7.63931,10.7338
-420,421,-7.64606,-11.2162,0.00026647,-0.00173097,0.00113893,0.000782545,-0.00224705,0.425448,0.00181598,0.0116951,804,603,-7.64605,11.2162
-413,421,-7.66425,-11.7015,0.000109458,-0.00255232,0.00183712,0.00104711,-0.00348997,0.471927,0.00274313,0.0139395,811,603,-7.66425,11.7015
-406,421,-7.70605,-12.2391,-0.000108514,-0.00346942,0.00255677,0.0012706,-0.00484854,0.494668,0.00372877,0.0191893,818,603,-7.70603,12.2391
-399,421,-7.65546,-12.8268,-0.000236207,-0.00441599,0.00320899,0.00150342,-0.00615562,0.496767,0.00468598,0.027823,825,603,-7.65543,12.8268
-392,421,-7.79047,-13.2061,-0.000288611,-0.00531961,0.00387894,0.00181908,-0.0074273,0.497737,0.00565625,0.0463856,832,603,-7.79047,13.2061
-385,421,-7.9071,-13.8181,0,0,0,0,0,0,0,-1,839,603,-7.90712,13.8181
-378,421,-4.94733,-8.87909,0,0,0,0,0,0,0,-1,846,603,-4.94731,8.87906
-371,421,-5.65082,-7.01849,0,0,0,0,0,0,0,-1,853,603,-5.65082,7.0185
-364,421,-5.94189,-7.09875,0,0,0,0,0,0,0,-1,860,603,-5.94192,7.09878
-357,421,-7.62531,-8.26337,0,0,0,0,0,0,0,-1,867,603,-7.62532,8.26337
-350,421,-5.38019,-3.75024,0,0,0,0,0,0,0,-1,874,603,-5.38017,3.75026
-343,421,-6.22797,-2.57123,0,0,0,0,0,0,0,-1,881,603,-6.22798,2.57121
-336,421,-6.22882,-2.59369,0,0,0,0,0,0,0,-1,888,603,-6.22883,2.5937
-329,421,-4.50134,-1.49469,0,0,0,0,0,0,0,-1,895,603,-4.50137,1.49468
-322,421,-7.55817,1.13263,0,0,0,0,0,0,0,-1,902,603,-7.55818,-1.13263
-315,421,-4.47821,-1.26733,0,0,0,0,0,0,0,-1,909,603,-4.47824,1.26732
-308,421,0,0,0,0,0,0,0,0,0,-1,916,603,0,0
-301,421,0,0,0,0,0,0,0,0,0,-1,923,603,0,0
-294,421,0,0,0,0,0,0,0,0,0,-1,930,603,0,0
-287,421,0,0,0,0,0,0,0,0,0,-1,937,603,0,0
-280,421,0,0,0,0,0,0,0,0,0,-1,944,603,0,0
-273,421,0,0,0,0,0,0,0,0,0,-1,951,603,0,0
-266,421,0,0,0,0,0,0,0,0,0,-1,958,603,0,0
-259,421,0,0,0,0,0,0,0,0,0,-1,965,603,0,0
-252,421,0,0,0,0,0,0,0,0,0,-1,972,603,0,0
-245,421,0,0,0,0,0,0,0,0,0,-1,979,603,0,0
-238,421,0,0,0,0,0,0,0,0,0,-1,986,603,0,0
-231,421,0,0,0,0,0,0,0,0,0,-1,993,603,0,0
-224,421,0,0,0,0,0,0,0,0,0,-1,1000,603,0,0
-217,421,0,0,0,0,0,0,0,0,0,-1,1007,603,0,0
-210,421,0,0,0,0,0,0,0,0,0,-1,1014,603,0,0
-203,421,0,0,0,0,0,0,0,0,0,-1,1021,603,0,0
-196,421,0,0,0,0,0,0,0,0,0,-1,1028,603,0,0
-189,421,0,0,0,0,0,0,0,0,0,-1,1035,603,0,0
-182,421,0,0,0,0,0,0,0,0,0,-1,1042,603,0,0
-175,421,0,0,0,0,0,0,0,0,0,-1,1049,603,0,0
-168,421,0,0,0,0,0,0,0,0,0,-1,1056,603,0,0
-161,421,0,0,0,0,0,0,0,0,0,-1,1063,603,0,0
-154,421,0,0,0,0,0,0,0,0,0,-1,1070,603,0,0
-147,421,0,0,0,0,0,0,0,0,0,-1,1077,603,0,0
-140,421,0,0,0,0,0,0,0,0,0,-1,1084,603,0,0
-133,421,0,0,0,0,0,0,0,0,0,-1,1091,603,0,0
-126,421,0,0,0,0,0,0,0,0,0,-1,1098,603,0,0
-119,421,0,0,0,0,0,0,0,0,0,-1,1105,603,0,0
-112,421,0,0,0,0,0,0,0,0,0,-1,1112,603,0,0
-105,421,0,0,0,0,0,0,0,0,0,-1,1119,603,0,0
-98,421,0,0,0,0,0,0,0,0,0,-1,1126,603,0,0
-91,421,0,0,0,0,0,0,0,0,0,-1,1133,603,0,0
-84,421,0,0,0,0,0,0,0,0,0,-1,1140,603,0,0
-77,421,0,0,0,0,0,0,0,0,0,-1,1147,603,0,0
-70,421,0,0,0,0,0,0,0,0,0,-1,1154,603,0,0
-63,421,0,0,0,0,0,0,0,0,0,-1,1161,603,0,0
-56,421,0,0,0,0,0,0,0,0,0,-1,1168,603,0,0
-49,421,0,0,0,0,0,0,0,0,0,-1,1175,603,0,0
-42,421,0,0,0,0,0,0,0,0,0,-1,1182,603,0,0
-35,421,0,0,0,0,0,0,0,0,0,-1,1189,603,0,0
-28,421,0,0,0,0,0,0,0,0,0,-1,1196,603,0,0
-21,421,0,0,0,0,0,0,0,0,0,-1,1203,603,0,0
-14,421,0,0,0,0,0,0,0,0,0,-1,1210,603,0,0
-7,421,0,0,0,0,0,0,0,0,0,-1,1217,603,0,0
0,421,0,0,0,0,0,0,0,0,0,-1,1224,603,0,0
7,421,0,0,0,0,0,0,0,0,0,-1,1231,603,0,0
14,421,0,0,0,0,0,0,0,0,0,-1,1238,603,0,0
21,421,0,0,0,0,0,0,0,0,0,-1,1245,603,0,0
28,421,0,0,0,0,0,0,0,0,0,-1,1252,603,0,0
35,421,0,0,0,0,0,0,0,0,0,-1,1259,603,0,0
42,421,0,0,0,0,0,0,0,0,0,-1,1266,603,0,0
49,421,0,0,0,0,0,0,0,0,0,-1,1273,603,0,0
56,421,0,0,0,0,0,0,0,0,0,-1,1280,603,0,0
63,421,0,0,0,0,0,0,0,0,0,-1,1287,603,0,0
70,421,0,0,0,0,0,0,0,0,0,-1,1294,603,0,0
77,421,0,0,0,0,0,0,0,0,0,-1,1301,603,0,0
84,421,0,0,0,0,0,0,0,0,0,-1,1308,603,0,0
91,421,0,0,0,0,0,0,0,0,0,-1,1315,603,0,0
98,421,0,0,0,0,0,0,0,0,0,-1,1322,603,0,0
105,421,0,0,0,0,0,0,0,0,0,-1,1329,603,0,0
112,421,0,0,0,0,0,0,0,0,0,-1,1336,603,0,0
119,421,0,0,0,0,0,0,0,0,0,-1,1343,603,0,0
126,421,0,0,0,0,0,0,0,0,0,-1,1350,603,0,0
133,421,0,0,0,0,0,0,0,0,0,-1,1357,603,0,0
140,421,0,0,0,0,0,0,0,0,0,-1,1364,603,0,0
147,421,0,0,0,0,0,0,0,0,0,-1,1371,603,0,0
154,421,0,0,0,0,0,0,0,0,0,-1,1378,603,0,0
161,421,0,0,0,0,0,0,0,0,0,-1,1385,603,0,0
168,421,0,0,0,0,0,0,0,0,0,-1,1392,603,0,0
175,421,0,0,0,0,0,0,0,0,0,-1,1399,603,0,0
182,421,0,0,0,0,0,0,0,0,0,-1,1406,603,0,0
189,421,0,0,0,0,0,0,0,0,0,-1,1413,603,0,0
196,421,0,0,0,0,0,0,0,0,0,-1,1420,603,0,0
203,421,0,0,0,0,0,0,0,0,0,-1,1427,603,0,0
210,421,0,0,0,0,0,0,0,0,0,-1,1434,603,0,0
217,421,0,0,0,0,0,0,0,0,0,-1,1441,603,0,0
224,421,0,0,0,0,0,0,0,0,0,-1,1448,603,0,0
231,421,0,0,0,0,0,0,0,0,0,-1,1455,603,0,0
238,421,0,0,0,0,0,0,0,0,0,-1,1462,603,0,0
245,421,0,0,0,0,0,0,0,0,0,-1,1469,603,0,0
252,421,0,0,0,0,0,0,0,0,0,-1,1476,603,0,0
259,421,0,0,0,0,0,0,0,0,0,-1,1483,603,0,0
266,421,0,0,0,0,0,0,0,0,0,-1,1490,603,0,0
273,421,0,0,0,0,0,0,0,0,0,-1,1497,603,0,0
280,421,0,0,0,0,0,0,0,0,0,-1,1504,603,0,0
287,421,0,0,0,0,0,0,0,0,0,-1,1511,603,0,0
294,421,0,0,0,0,0,0,0,0,0,-1,1518,603,0,0
301,421,0,0,0,0,0,0,0,0,0,-1,1525,603,0,0
308,421,0,0,0,0,0,0,0,0,0,-1,1532,603,0,0
315,421,0,0,0,0,0,0,0,0,0,-1,1539,603,0,0
322,421,0,0,0,0,0,0,0,0,0,-1,1546,603,0,0
329,421,0,0,0,0,0,0,0,0,0,-1,1553,603,0,0
336,421,0,0,0,0,0,0,0,0,0,-1,1560,603,0,0
343,421,0,0,0,0,0,0,0,0,0,-1,1567,603,0,0
350,421,0,0,0,0,0,0,0,0,0,-1,1574,603,0,0
357,421,0,0,0,0,0,0,0,0,0,-1,1581,603,0,0
364,421,0,0,0,0,0,0,0,0,0,-1,1588,603,0,0
371,421,0,0,0,0,0,0,0,0,0,-1,1595,603,0,0
378,421,0,0,0,0,0,0,0,0,0,-1,1602,603,0,0
385,421,0,0,0,0,0,0,0,0,0,-1,1609,603,0,0
392,421,0,0,0,0,0,0,0,0,0,-1,1616,603,0,0
399,421,0,0,0,0,0,0,0,0,0,-1,1623,603,0,0
406,421,0,0,0,0,0,0,0,0,0,-1,1630,603,0,0
413,421,0,0,0,0,0,0,0,0,0,-1,1637,603,0,0
420,421,0,0,0,0,0,0,0,0,0,-1,1644,603,0,0
427,421,0,0,0,0,0,0,0,0,0,-1,1651,603,0,0
434,421,3.68176,-0.0327759,0,0,0,0,0,0,0,-1,1658,603,3.6818,0.0328037
441,421,8.06689,0.527832,0,0,0,0,0,0,0,-1,1665,603,8.06693,-0.527851
448,421,6.93921,0.802246,0,0,0,0,0,0,0,-1,1672,603,6.93923,-0.802251
455,421,7.29456,2.14825,0,0,0,0,0,0,0,-1,1679,603,7.29461,-2.14827
462,421,7.86902,3.53174,0,0,0,0,0,0,0,-1,1686,603,7.869,-3.53173
469,421,8.06604,2.81213,0,0,0,0,0,0,0,-1,1693,603,8.06606,-2.81212
476,421,8.26306,2.09253,0,0,0,0,0,0,0,-1,1700,603,8.26312,-2.09251
483,421,8.05322,0.798096,0,0,0,0,0,0,0,-1,1707,603,8.05323,-0.7981
490,421,7.51233,0.213074,0,0,0,0,0,0,0,-1,1714,603,7.51235,-0.213043
497,421,7.49634,-2.86688,0,0,0,0,0,0,0,-1,1721,603,7.4963,2.86688
504,421,6.90491,-2.18671,0,0,0,0,0,0,0,-1,1728,603,6.90491,2.18669
511,421,6.31348,-1.50653,0,0,0,0,0,0,0,-1,1735,603,6.31353,1.5065
518,421,6.27588,-2.49878,0,0,0,0,0,0,0,-1,1742,603,6.2759,2.4988
525,421,16.9447,-11.5006,0,0,0,0,0,0,0,-1,1749,603,16.9447,11.5006
532,421,17.1108,-10.7623,0.00537282,0.00230927,0.00264035,0.00689355,0.000788541,0.522553,0.00435671,0.0433291,1756,603,17.1108,10.7623
539,421,17.256,-10.2026,0.00448977,0.00189369,0.00219353,0.00574055,0.000642908,0.518229,0.00363175,0.0219661,1763,603,17.2559,10.2026
546,421,17.2281,-9.68658,0.00369397,0.00151694,0.00181503,0.00472187,0.000489045,0.515289,0.00299822,0.013137,1770,603,17.2282,9.6866
553,421,17.2029,-9.133,0.00281767,0.00106416,0.00140554,0.00359749,0.000284346,0.506535,0.00230939,0.011867,1777,603,17.2028,9.13297
560,421,17.2014,-8.58197,0.00175934,0.000996658,0.00110644,0.00254831,0.000207682,0.619446,0.00163405,0.0137627,1784,603,17.2015,8.58197
567,421,17.1929,-8.06708,0.000635546,0.00143644,0.00100008,0.00211327,-4.12816e-05,0.97583,0.00142281,0.0160348,1791,603,17.1929,8.06707
574,421,17.1667,-7.5351,-0.000534388,0.00228126,0.00105147,0.00263058,-0.000883709,1.25005,0.00211088,0.0174957,1798,603,17.1667,7.53512
581,421,17.1379,-6.98218,-0.00180356,0.00363537,0.00130007,0.00393015,-0.00209834,1.34782,0.0035337,0.0151783,1805,603,17.1379,6.98219
588,421,17.1078,-6.4563,-0.00315877,0.00565821,0.00178555,0.00600608,-0.00350664,1.37838,0.00555501,0.0113169,1812,603,17.1078,6.45631
595,421,17.1287,-5.91443,-0.00452124,0.00855137,0.00264079,0.00906468,-0.00503455,1.37881,0.0082503,0.0167466,1819,603,17.1287,5.91441
602,421,17.0459,-5.47394,-0.00601397,0.0123039,0.00378704,0.013056,-0.00676602,1.37476,0.0116347,0.0222433,1826,603,17.0459,5.47396
609,421,16.8551,-4.70801,-0.00741047,0.0171029,0.00539094,0.0182361,-0.00854365,1.36361,0.0157952,0.0326441,1833,603,16.8552,4.708
616,421,16.8267,-3.78546,0,0,0,0,0,0,0,-1,1840,603,16.8267,3.78547
623,421,6.19885,0.376648,0,0,0,0,0,0,0,-1,1847,603,6.19881,-0.376624
630,421,6.54993,0.778748,0,0,0,0,0,0,0,-1,1854,603,6.54991,-0.778744
637,421,3.74512,1.65405,0,0,0,0,0,0,0,-1,1861,603,3.74517,-1.65407
644,421,3.58081,0.354675,0,0,0,0,0,0,0,-1,1868,603,3.58082,-0.354704
651,421,3.28687,3.66351,0,0,0,0,0,0,0,-1,1875,603,3.28688,-3.66353
658,421,0,0,0,0,0,0,0,0,0,-1,1882,603,0,0
665,421,0,0,0,0,0,0,0,0,0,-1,1889,603,0,0
672,421,0,0,0,0,0,0,0,0,0,-1,1896,603,0,0
679,421,0,0,0,0,0,0,0,0,0,-1,1903,603,0,0
686,421,0,0,0,0,0,0,0,0,0,-1,1910,603,0,0
693,421,0,0,0,0,0,0,0,0,0,-1,1917,603,0,0
700,421,0,0,0,0,0,0,0,0,0,-1,1924,603,0,0
707,421,0,0,0,0,0,0,0,0,0,-1,1931,603,0,0
714,421,0,0,0,0,0,0,0,0,0,-1,1938,603,0,0
721,421,0,0,0,0,0,0,0,0,0,-1,1945,603,0,0
728,421,0,0,0,0,0,0,0,0,0,-1,1952,603,0,0
735,421,0,0,0,0,0,0,0,0,0,-1,1959,603,0,0
742,421,0,0,0,0,0,0,0,0,0,-1,1966,603,0,0
749,421,0,0,0,0,0,0,0,0,0,-1,1973,603,0,0
756,421,0,0,0,0,0,0,0,0,0,-1,1980,603,0,0
763,421,0,0,0,0,0,0,0,0,0,-1,1987,603,0,0
770,421,0,0,0,0,0,0,0,0,0,-1,1994,603,0,0
777,421,0,0,0,0,0,0,0,0,0,-1,2001,603,0,0
784,421,0,0,0,0,0,0,0,0,0,-1,2008,603,0,0
791,421,0,0,0,0,0,0,0,0,0,-1,2015,603,0,0
798,421,0,0,0,0,0,0,0,0,0,-1,2022,603,0,0
805,421,0,0,0,0,0,0,0,0,0,-1,2029,603,0,0
812,421,0,0,0,0,0,0,0,0,0,-1,2036,603,0,0
-700,414,0,0,0,0,0,0,0,0,0,-1,524,610,0,0
-693,414,0,0,0,0,0,0,0,0,0,-1,531,610,0,0
-686,414,0,0,0,0,0,0,0,0,0,-1,538,610,0,0
-679,414,0,0,0,0,0,0,0,0,0,-1,545,610,0,0
-672,414,0,0,0,0,0,0,0,0,0,-1,552,610,0,0
-665,414,0,0,0,0,0,0,0,0,0,-1,559,610,0,0
-658,414,0,0,0,0,0,0,0,0,0,-1,566,610,0,0
-651,414,0,0,0,0,0,0,0,0,0,-1,573,610,0,0
-644,414,0,0,0,0,0,0,0,0,0,-1,580,610,0,0
-637,414,0,0,0,0,0,0,0,0,0,-1,587,610,0,0
-630,414,0,0,0,0,0,0,0,0,0,-1,594,610,0,0
-623,414,0,0,0,0,0,0,0,0,0,-1,601,610,0,0
-616,414,0,0,0,0,0,0,0,0,0,-1,608,610,0,0
-609,414,0,0,0,0,0,0,0,0,0,-1,615,610,0,0
-602,414,0,0,0,0,0,0,0,0,0,-1,622,610,0,0
-595,414,0,0,0,0,0,0,0,0,0,-1,629,610,0,0
-588,414,0,0,0,0,0,0,0,0,0,-1,636,610,0,0
-581,414,0,0,0,0,0,0,0,0,0,-1,643,610,0,0
-574,414,0,0,0,0,0,0,0,0,0,-1,650,610,0,0
-567,414,0,0,0,0,0,0,0,0,0,-1,657,610,0,0
-560,414,0,0,0,0,0,0,0,0,0,-1,664,610,0,0
-553,414,0,0,0,0,0,0,0,0,0,-1,671,610,0,0
-546,414,0,0,0,0,0,0,0,0,0,-1,678,610,0,0
-539,414,-7.50146,5.65619,0,0,0,0,0,0,0,-1,685,610,-7.50149,-5.65617
-532,414,-8.15204,4.01605,0,0,0,0,0,0,0,-1,692,610,-8.15206,-4.01606
-525,414,-3.47137,-3.27924,0,0,0,0,0,0,0,-1,699,610,-3.47136,3.27922
-518,414,-4.12909,-4.36908,0,0,0,0,0,0,0,-1,706,610,-4.12909,4.36909
-511,414,-3.92542,-4.97021,0,0,0,0,0,0,0,-1,713,610,-3.92542,4.97023
-504,414,-1.62408,-3.64496,0,0,0,0,0,0,0,-1,720,610,-1.62406,3.64499
-497,414,-8.38855,-5.28534,0,0,0,0,0,0,0,-1,727,610,-8.38855,5.28534
-490,414,-8.24585,-5.99725,0,0,0,0,0,0,0,-1,734,610,-8.24584,5.99728
-483,414,-7.84827,-6.6037,0,0,0,0,0,0,0,-1,741,610,-7.84828,6.60368
-476,414,-8.04419,-7.11749,-0.000528547,0.00501704,-0.00234318,0.00587452,-0.00138602,-1.21999,0.00445088,0.0218478,748,610,-8.04419,7.11749
-469,414,-8.12201,-7.59357,-0.000276137,0.00382801,-0.0020248,0.00465879,-0.00110691,-1.18144,0.00353311,0.0141396,755,610,-8.122,7.59356
-462,414,-8.11499,-8.1134,5.88529e-06,0.00282746,-0.00170239,0.00362765,-0.000794313,-1.1314,0.00272212,0.0225628,762,610,-8.11501,8.11342
-455,414,-8.13062,-8.63879,0.000280803,0.00197432,-0.00138167,0.00274806,-0.00049294,-1.06031,0.00201654,0.0248688,769,610,-8.1306,8.63877
-448,414,-8.13287,-9.18707,0.000478397,0.00100143,-0.000892359,0.0016698,-0.000189978,-0.927937,0.00118163,0.0252735,776,610,-8.13289,9.1871
-441,414,-8.12494,-9.72821,0.000515282,0.000105587,-0.000316912,0.000687788,-6.69196e-05,-0.498483,0.000482382,0.0174701,783,610,-8.12493,9.72822
-434,414,-8.14899,-10.2214,0.000477641,-0.000637608,0.000258538,0.000534661,-0.000694628,0.21707,0.00071173,0.00954153,790,610,-8.149,10.2214
-427,414,-8.14581,-10.7115,0.000402218,-0.00154587,0.00089679,0.000752181,-0.00189584,0.372063,0.00157565,0.0104117,797,610,-8.14582,10.7115
-420,414,-8.15381,-11.2054,0.000238225,-0.00247933,0.00160285,0.000980734,-0.00322183,0.433812,0.00253875,0.0103106,804,610,-8.15378,11.2054
-413,414,-8.18567,-11.7115,-0.000103375,-0.00330656,0.00241482,0.0011927,-0.00460263,0.492586,0.00353373,0.0110166,811,610,-8.18568,11.7116
-406,414,-8.18652,-12.2943,-0.00055853,-0.00440451,0.00332109,0.00135613,-0.00631917,0.522972,0.00473007,0.0236609,818,610,-8.18652,12.2943
-399,414,-8.26166,-12.6238,-0.000974975,-0.00560929,0.00420554,0.00150951,-0.00809378,0.533601,0.00596305,0.0483321,825,610,-8.26169,12.6239
-392,414,-8.2901,-13.2586,0,0,0,0,0,0,0,-1,832,610,-8.29013,13.2586
-385,414,-8.14691,-13.0653,0,0,0,0,0,0,0,-1,839,610,-8.14692,13.0653
-378,414,-8.04907,-11.3331,0,0,0,0,0,0,0,-1,846,610,-8.04905,11.3331
-371,414,-5.20886,-8.05151,0,0,0,0,0,0,0,-1,853,610,-5.20887,8.05153
-364,414,-6.76282,-6.58759,0,0,0,0,0,0,0,-1,860,610,-6.7628,6.58756
-357,414,-9.08685,-8.86188,0,0,0,0,0,0,0,-1,867,610,-9.08688,8.86187
-350,414,-6.4502,-2.41821,0,0,0,0,0,0,0,-1,874,610,-6.45021,2.41822
-343,414,-6.80249,-2.32117,0,0,0,0,0,0,0,-1,881,610,-6.80252,2.32116
-336,414,-7.11017,-2.52026,0,0,0,0,0,0,0,-1,888,610,-7.11016,2.52026
-329,414,-7.59747,-2.70313,0,0,0,0,0,0,0,-1,895,610,-7.59747,2.70315
-322,414,-4.42236,-1.29163,0,0,0,0,0,0,0,-1,902,610,-4.42238,1.2916
-315,414,0,0,0,0,0,0,0,0,0,-1,909,610,0,0
-308,414,0,0,0,0,0,0,0,0,0,-1,916,610,0,0
-301,414,0,0,0,0,0,0,0,0,0,-1,923,610,0,0
-294,414,0,0,0,0,0,0,0,0,0,-1,930,610,0,0
-287,414,0,0,0,0,0,0,0,0,0,-1,937,610,0,0
-280,414,0,0,0,0,0,0,0,0,0,-1,944,610,0,0
-273,414,0,0,0,0,0,0,0,0,0,-1,951,610,0,0
-266,414,0,0,0,0,0,0,0,0,0,-1,958,610,0,0
-259,414,0,0,0,0,0,0,0,0,0,-1,965,610,0,0
-252,414,0,0,0,0,0,0,0,0,0,-1,972,610,0,0
-245,414,0,0,0,0,0,0,0,0,0,-1,979,610,0,0
-238,414,0,0,0,0,0,0,0,0,0,-1,986,610,0,0
-231,414,0,0,0,0,0,0,0,0,0,-1,993,610,0,0
-224,414,0,0,0,0,0,0,0,0,0,-1,1000,610,0,0
-217,414,0,0,0,0,0,0,0,0,0,-1,1007,610,0,0
-210,414,0,0,0,0,0,0,0,0,0,-1,1014,610,0,0
-203,414,0,0,0,0,0,0,0,0,0,-1,1021,610,0,0
-196,414,0,0,0,0,0,0,0,0,0,-1,1028,610,0,0
-189,414,0,0,0,0,0,0,0,0,0,-1,1035,610,0,0
-182,414,0,0,0,0,0,0,0,0,0,-1,1042,610,0,0
-175,414,0,0,0,0,0,0,0,0,0,-1,1049,610,0,0
-168,414,0,0,0,0,0,0,0,0,0,-1,1056,610,0,0
-161,414,0,0,0,0,0,0,0,0,0,-1,1063,610,0,0
-154,414,0,0,0,0,0,0,0,0,0,-1,1070,610,0,0
-147,414,0,0,0,0,0,0,0,0,0,-1,1077,610,0,0
-140,414,0,0,0,0,0,0,0,0,0,-1,1084,610,0,0
-133,414,0,0,0,0,0,0,0,0,0,-1,1091,610,0,0
-126,414,0,0,0,0,0,0,0,0,0,-1,1098,610,0,0
-119,414,0,0,0,0,0,0,0,0,0,-1,1105,610,0,0
-112,414,0,0,0,0,0,0,0,0,0,-1,1112,610,0,0
-105,414,0,0,0,0,0,0,0,0,0,-1,1119,610,0,0
-98,414,0,0,0,0,0,0,0,0,0,-1,1126,610,0,0
-91,414,0,0,0,0,0,0,0,0,0,-1,1133,610,0,0
-84,414,0,0,0,0,0,0,0,0,0,-1,1140,610,0,0
-77,414,0,0,0,0,0,0,0,0,0,-1,1147,610,0,0
-70,414,0,0,0,0,0,0,0,0,0,-1,1154,610,0,0
-63,414,0,0,0,0,0,0,0,0,0,-1,1161,610,0,0
-56,414,0,0,0,0,0,0,0,0,0,-1,1168,610,0,0
-49,414,0,0,0,0,0,0,0,0,0,-1,1175,610,0,0
-42,414,0,0,0,0,0,0,0,0,0,-1,1182,610,0,0
-35,414,0,0,0,0,0,0,0,0,0,-1,1189,610,0,0
-28,414,0,0,0,0,0,0,0,0,0,-1,1196,610,0,0
-21,414,0,0,0,0,0,0,0,0,0,-1,1203,610,0,0
-14,414,0,0,0,0,0,0,0,0,0,-1,1210,610,0,0
-7,414,0,0,0,0,0,0,0,0,0,-1,1217,610,0,0
0,414,0,0,0,0,0,0,0,0,0,-1,1224,610,0,0
7,414,0,0,0,0,0,0,0,0,0,-1,1231,610,0,0
14,414,0,0,0,0,0,0,0,0,0,-1,1238,610,0,0
21,414,0,0,0,0,0,0,0,0,0,-1,1245,610,0,0
28,414,0,0,0,0,0,0,0,0,0,-1,1252,610,0,0
35,414,0,0,0,0,0,0,0,0,0,-1,1259,610,0,0
42,414,0,0,0,0,0,0,0,0,0,-1,1266,610,0,0
49,414,0,0,0,0,0,0,0,0,0,-1,1273,610,0,0
56,414,0,0,0,0,0,0,0,0,0,-1,1280,610,0,0
63,414,0,0,0,0,0,0,0,0,0,-1,1287,610,0,0
70,414,0,0,0,0,0,0,0,0,0,-1,1294,610,0,0
77,414,0,0,0,0,0,0,0,0,0,-1,1301,610,0,0
84,414,0,0,0,0,0,0,0,0,0,-1,1308,610,0,0
91,414,0,0,0,0,0,0,0,0,0,-1,1315,610,0,0
98,414,0,0,0,0,0,0,0,0,0,-1,1322,610,0,0
105,414,0,0,0,0,0,0,0,0,0,-1,1329,610,0,0
112,414,0,0,0,0,0,0,0,0,0,-1,1336,610,0,0
119,414,0,0,0,0,0,0,0,0,0,-1,1343,610,0,0
126,414,0,0,0,0,0,0,0,0,0,-1,1350,610,0,0
133,414,0,0,0,0,0,0,0,0,0,-1,1357,610,0,0
140,414,0,0,0,0,0,0,0,0,0,-1,1364,610,0,0
147,414,0,0,0,0,0,0,0,0,0,-1,1371,610,0,0
154,414,0,0,0,0,0,0,0,0,0,-1,1378,610,0,0
161,414,0,0,0,0,0,0,0,0,0,-1,1385,610,0,0
168,414,0,0,0,0,0,0,0,0,0,-1,1392,610,0,0
175,414,0,0,0,0,0,0,0,0,0,-1,1399,610,0,0
182,414,0,0,0,0,0,0,0,0,0,-1,1406,610,0,0
189,414,0,0,0,0,0,0,0,0,0,-1,1413,610,0,0
196,414,0,0,0,0,0,0,0,0,0,-1,1420,610,0,0
203,414,0,0,0,0,0,0,0,0,0,-1,1427,610,0,0
210,414,0,0,0,0,0,0,0,0,0,-1,1434,610,0,0
217,414,0,0,0,0,0,0,0,0,0,-1,1441,610,0,0
224,414,0,0,0,0,0,0,0,0,0,-1,1448,610,0,0
231,414,0,0,0,0,0,0,0,0,0,-1,1455,610,0,0
238,414,0,0,0,0,0,0,0,0,0,-1,1462,610,0,0
245,414,0,0,0,0,0,0,0,0,0,-1,1469,610,0,0
252,414,0,0,0,0,0,0,0,0,0,-1,1476,610,0,0
259,414,0,0,0,0,0,0,0,0,0,-1,1483,610,0,0
266,414,0,0,0,0,0,0,0,0,0,-1,1490,610,0,0
273,414,0,0,0,0,0,0,0,0,0,-1,1497,610,0,0
280,414,0,0,0,0,0,0,0,0,0,-1,1504,610,0,0
287,414,0,0,0,0,0,0,0,0,0,-1,1511,610,0,0
294,414,0,0,0,0,0,0,0,0,0,-1,1518,610,0,0
301,414,0,0,0,0,0,0,0,0,0,-1,1525,610,0,0
308,414,0,0,0,0,0,0,0,0,0,-1,1532,610,0,0
315,414,0,0,0,0,0,0,0,0,0,-1,1539,610,0,0
322,414,0,0,0,0,0,0,0,0,0,-1,1546,610,0,0
329,414,0,0,0,0,0,0,0,0,0,-1,1553,610,0,0
336,414,0,0,0,0,0,0,0,0,0,-1,1560,610,0,0
343,414,0,0,0,0,0,0,0,0,0,-1,1567,610,0,0
350,414,0,0,0,0,0,0,0,0,0,-1,1574,610,0,0
357,414,0,0,0,0,0,0,0,0,0,-1,1581,610,0,0
364,414,0,0,0,0,0,0,0,0,0,-1,1588,610,0,0
371,414,0,0,0,0,0,0,0,0,0,-1,1595,610,0,0
378,414,0,0,0,0,0,0,0,0,0,-1,1602,610,0,0
385,414,0,0,0,0,0,0,0,0,0,-1,1609,610,0,0
392,414,0,0,0,0,0,0,0,0,0,-1,1616,610,0,0
399,414,0,0,0,0,0,0,0,0,0,-1,1623,610,0,0
406,414,0,0,0,0,0,0,0,0,0,-1,1630,610,0,0
413,414,0,0,0,0,0,0,0,0,0,-1,1637,610,0,0
420,414,0,0,0,0,0,0,0,0,0,-1,1644,610,0,0
427,414,0,0,0,0,0,0,0,0,0,-1,1651,610,0,0
434,414,0,0,0,0,0,0,0,0,0,-1,1658,610,0,0
441,414,7.84375,0.584412,0,0,0,0,0,0,0,-1,1665,610,7.84379,-0.584394
448,414,7.40808,1.25446,0,0,0,0,0,0,0,-1,1672,610,7.40807,-1.25446
455,414,6.3512,1.73846,0,0,0,0,0,0,0,-1,1679,610,6.3512,-1.73847
462,414,8.18103,3.22113,0,0,0,0,0,0,0,-1,1686,610,8.18108,-3.22112
469,414,8.38513,2.49579,0,0,0,0,0,0,0,-1,1693,610,8.38516,-2.49576
476,414,8.64099,1.71161,0,0,0,0,0,0,0,-1,1700,610,8.64097,-1.71164
483,414,8.62744,0.687622,0,0,0,0,0,0,0,-1,1707,610,8.62749,-0.687615
490,414,8.38831,-0.0302734,0,0,0,0,0,0,0,-1,1714,610,8.38835,0.0302913
497,414,4.71094,-0.110046,0,0,0,0,0,0,0,-1,1721,610,4.71089,0.110024
504,414,7.19568,-1.43835,0,0,0,0,0,0,0,-1,1728,610,7.19563,1.43836
511,414,5.94153,-1.28772,0,0,0,0,0,0,0,-1,1735,610,5.94151,1.28769
518,414,4.53381,-0.0996704,0,0,0,0,0,0,0,-1,1742,610,4.53378,0.0996819
525,414,6.18811,-1.64056,0,0,0,0,0,0,0,-1,1749,610,6.18814,1.64055
532,414,17.6293,-10.9598,0,0,0,0,0,0,0,-1,1756,610,17.6292,10.9598
539,414,17.7235,-10.2982,0.00555624,0.00227424,0.00268082,0.00705844,0.00077204,0.510754,0.00447055,0.0456884,1763,610,17.7235,10.2982
546,414,17.7457,-9.64447,0.00469552,0.00182925,0.0022146,0.00590025,0.000624522,0.49822,0.00374274,0.0136938,1770,610,17.7458,9.64445
553,414,17.7467,-9.11517,0.00381718,0.00122692,0.00168333,0.00464596,0.000398146,0.457502,0.00297349,0.0117578,1777,610,17.7467,9.11519
560,414,17.735,-8.57684,0.00279768,0.000777571,0.00125548,0.00339897,0.00017628,0.446653,0.00220957,0.0140204,1784,610,17.7349,8.57683
567,414,17.7307,-8.04272,0.00166905,0.00109167,0.00107711,0.00249549,0.000265229,0.654463,0.00158267,0.02383,1791,610,17.7307,8.04275
574,414,17.6942,-7.51343,0.00055453,0.00179217,0.00107819,0.0024165,-6.98074e-05,1.04592,0.00163477,0.0208843,1798,610,17.6942,7.5134
581,414,17.6869,-6.97192,-0.000605131,0.00294427,0.00126973,0.00335171,-0.00101258,1.26028,0.00263761,0.0164139,1805,610,17.6869,6.97192
588,414,17.6448,-6.45667,-0.00180444,0.00464021,0.00165949,0.00504243,-0.00220665,1.33301,0.00429068,0.0157805,1812,610,17.6447,6.45665
595,414,17.6183,-5.87952,-0.00289917,0.00703916,0.00239212,0.00758496,-0.00344497,1.34647,0.00651595,0.0206318,1819,610,17.6183,5.8795
602,414,17.6083,-5.33667,-0.00399269,0.0101044,0.00337868,0.0108724,-0.00476063,1.3473,0.00925278,0.023666,1826,610,17.6083,5.33666
609,414,17.6344,-4.79504,0,0,0,0,0,0,0,-1,1833,610,17.6344,4.79505
616,414,17.8549,-4.02441,0,0,0,0,0,0,0,-1,1840,610,17.8549,4.0244
623,414,9.6969,0.0378418,0,0,0,0,0,0,0,-1,1847,610,9.69685,-0.0378644
630,414,5.47144,0.499329,0,0,0,0,0,0,0,-1,1854,610,5.47142,-0.499303
637,414,8.36707,4.16278,0,0,0,0,0,0,0,-1,1861,610,8.36709,-4.16278
644,414,5.87073,1.51422,0,0,0,0,0,0,0,-1,1868,610,5.87076,-1.51424
651,414,3.6377,0.820557,0,0,0,0,0,0,0,-1,1875,610,3.6377,-0.820543
658,414,2.29761,3.87323,0,0,0,0,0,0,0,-1,1882,610,2.29758,-3.87325
665,414,0,0,0,0,0,0,0,0,0,-1,1889,610,0,0
672,414,0,0,0,0,0,0,0,0,0,-1,1896,610,0,0
679,414,0,0,0,0,0,0,0,0,0,-1,1903,610,0,0
686,414,0,0,0,0,0,0,0,0,0,-1,1910,610,0,0
693,414,0,0,0,0,0,0,0,0,0,-1,1917,610,0,0
700,414,0,0,0,0,0,0,0,0,0,-1,1924,610,0,0
707,414,0,0,0,0,0,0,0,0,0,-1,1931,610,0,0
714,414,0,0,0,0,0,0,0,0,0,-1,1938,610,0,0
721,414,0,0,0,0,0,0,0,0,0,-1,1945,610,0,0
728,414,0,0,0,0,0,0,0,0,0,-1,1952,610,0,0
735,414,0,0,0,0,0,0,0,0,0,-1,1959,610,0,0
742,414,0,0,0,0,0,0,0,0,0,-1,1966,610,0,0
749,414,0,0,0,0,0,0,0,0,0,-1,1973,610,0,0
756,414,0,0,0,0,0,0,0,0,0,-1,1980,610,0,0
763,414,0,0,0,0,0,0,0,0,0,-1,1987,610,0,0
770,414,0,0,0,0,0,0,0,0,0,-1,1994,610,0,0
777,414,0,0,0,0,0,0,0,0,0,-1,2001,610,0,0
784,414,0,0,0,0,0,0,0,0,0,-1,2008,610,0,0
791,414,0,0,0,0,0,0,0,0,0,-1,2015,610,0,0
798,414,0,0,0,0,0,0,0,0,0,-1,2022,610,0,0
805,414,0,0,0,0,0,0,0,0,0,-1,2029,610,0,0
812,414,0,0,0,0,0,0,0,0,0,-1,2036,610,0,0
-700,407,0,0,0,0,0,0,0,0,0,-1,524,617,0,0
-693,407,0,0,0,0,0,0,0,0,0,-1,531,617,0,0
-686,407,0,0,0,0,0,0,0,0,0,-1,538,617,0,0
-679,407,0,0,0,0,0,0,0,0,0,-1,545,617,0,0
-672,407,0,0,0,0,0,0,0,0,0,-1,552,617,0,0
-665,407,0,0,0,0,0,0,0,0,0,-1,559,617,0,0
-658,407,0,0,0,0,0,0,0,0,0,-1,566,617,0,0
-651,407,0,0,0,0,0,0,0,0,0,-1,573,617,0,0
-644,407,0,0,0,0,0,0,0,0,0,-1,580,617,0,0
-637,407,0,0,0,0,0,0,0,0,0,-1,587,617,0,0
-630,407,0,0,0,0,0,0,0,0,0,-1,594,617,0,0
-623,407,0,0,0,0,0,0,0,0,0,-1,601,617,0,0
-616,407,0,0,0,0,0,0,0,0,0,-1,608,617,0,0
-609,407,0,0,0,0,0,0,0,0,0,-1,615,617,0,0
-602,407,0,0,0,0,0,0,0,0,0,-1,622,617,0,0
-595,407,0,0,0,0,0,0,0,0,0,-1,629,617,0,0
-588,407,0,0,0,0,0,0,0,0,0,-1,636,617,0,0
-581,407,0,0,0,0,0,0,0,0,0,-1,643,617,0,0
-574,407,0,0,0,0,0,0,0,0,0,-1,650,617,0,0
-567,407,0,0,0,0,0,0,0,0,0,-1,657,617,0,0
-560,407,0,0,0,0,0,0,0,0,0,-1,664,617,0,0
-553,407,0,0,0,0,0,0,0,0,0,-1,671,617,0,0
-546,407,-8.54517,-0.658142,0,0,0,0,0,0,0,-1,678,617,-8.54515,0.658112
-539,407,-6.09442,-1.01154,0,0,0,0,0,0,0,-1,685,617,-6.09441,1.01155
-532,407,-7.75665,1.62152,0,0,0,0,0,0,0,-1,692,617,-7.75667,-1.62154
-525,407,-3.78247,-2.67639,0,0,0,0,0,0,0,-1,699,617,-3.78246,2.67638
-518,407,-5.013,-5.87323,0,0,0,0,0,0,0,-1,706,617,-5.013,5.87324
-511,407,-4.26392,-4.37659,0,0,0,0,0,0,0,-1,713,617,-4.26393,4.37658
-504,407,-8.18164,-6.6806,0,0,0,0,0,0,0,-1,720,617,-8.18165,6.6806
-497,407,-8.63531,-5.53522,0,0,0,0,0,0,0,-1,727,617,-8.63534,5.53522
-490,407,-8.5567,-6.02252,-0.000396722,0.00701124,-0.00262862,0.00784919,-0.00123467,-1.2622,0.00568918,0.0450569,734,617,-8.55669,6.02255
-483,407,-8.46533,-6.526,-0.000418033,0.00535145,-0.00221091,0.00610125,-0.00116783,-1.24383,0.00450749,0.0277926,741,617,-8.46531,6.52601
-476,407,-8.53821,-7.03571,-0.000294543,0.00406748,-0.00188348,0.00476819,-0.000995255,-1.21463,0.00355726,0.0159395,748,617,-8.53821,7.03573
-469,407,-8.60052,-7.55109,-4.17148e-05,0.00301937,-0.00162408,0.00372046,-0.00074281,-1.16328,0.00276142,0.0134882,755,617,-8.60053,7.55111
-462,407,-8.65295,-8.06677,0.000228141,0.00213398,-0.00135302,0.00283596,-0.000473844,-1.0922,0.00206678,0.0207088,762,617,-8.65298,8.06676
-455,407,-8.67255,-8.63361,0.000499577,0.0013424,-0.00107812,0.00207855,-0.000236569,-0.971705,0.00147091,0.0230378,769,617,-8.67257,8.63361
-448,407,-8.64917,-9.18628,0.000690284,0.00042183,-0.000615859,0.00118637,-7.42599e-05,-0.6781,0.000816795,0.0201552,776,617,-8.6492,9.18631
-441,407,-8.6496,-9.68097,0.000719152,-0.000423462,-5.96893e-05,0.000722262,-0.000426572,-0.0520504,0.000670562,0.0144834,783,617,-8.64961,9.68099
-434,407,-8.68524,-10.1773,0.000688248,-0.00117778,0.000519649,0.0008232,-0.00131273,0.254085,0.00124393,0.0104144,790,617,-8.68523,10.1773
-427,407,-8.67206,-10.6832,0.000574662,-0.00212211,0.00120651,0.00103564,-0.00258309,0.364961,0.00215201,0.0107071,797,617,-8.67208,10.6832
-420,407,-8.66187,-11.1926,0.000282838,-0.00318914,0.00203743,0.00122356,-0.00412985,0.432557,0.00323906,0.0103805,804,617,-8.66189,11.1926
-413,407,-8.66968,-11.687,-0.000207963,-0.00408569,0.0029688,0.00139901,-0.00569266,0.496129,0.00433732,0.0131212,811,617,-8.66967,11.687
-406,407,-8.73694,-12.0272,-0.000903829,-0.00548075,0.00408778,0.00149247,-0.00787705,0.530219,0.00581308,0.0369584,818,617,-8.73694,12.0272
-399,407,-8.58862,-12.382,0,0,0,0,0,0,0,-1,825,617,-8.58865,12.3819
-392,407,-8.33612,-12.195,0,0,0,0,0,0,0,-1,832,617,-8.33611,12.195
-385,407,-7.65765,-10.7744,0,0,0,0,0,0,0,-1,839,617,-7.65767,10.7744
-378,407,-6.08655,-7.42291,0,0,0,0,0,0,0,-1,846,617,-6.08652,7.42292
-371,407,-7.4007,-5.79449,0,0,0,0,0,0,0,-1,853,617,-7.40072,5.79447
-364,407,-10.0638,-6.6228,0,0,0,0,0,0,0,-1,860,617,-10.0639,6.62279
-357,407,-6.64447,-1.83337,0,0,0,0,0,0,0,-1,867,617,-6.64446,1.8334
-350,407,-7.03351,-1.77551,0,0,0,0,0,0,0,-1,874,617,-7.03349,1.77551
-343,407,-7.40967,-1.95026,0,0,0,0,0,0,0,-1,881,617,-7.40969,1.95026
-336,407,-8.10229,-2.40662,0,0,0,0,0,0,0,-1,888,617,-8.10229,2.40664
-329,407,-8.81232,-2.76331,0,0,0,0,0,0,0,-1,895,617,-8.81235,2.76331
-322,407,0,0,0,0,0,0,0,0,0,-1,902,617,0,0
-315,407,0,0,0,0,0,0,0,0,0,-1,909,617,0,0
-308,407,0,0,0,0,0,0,0,0,0,-1,916,617,0,0
-301,407,0,0,0,0,0,0,0,0,0,-1,923,617,0,0
-294,407,0,0,0,0,0,0,0,0,0,-1,930,617,0,0
-287,407,0,0,0,0,0,0,0,0,0,-1,937,617,0,0
-280,407,0,0,0,0,0,0,0,0,0,-1,944,617,0,0
-273,407,0,0,0,0,0,0,0,0,0,-1,951,617,0,0
-266,407,0,0,0,0,0,0,0,0,0,-1,958,617,0,0
-259,407,0,0,0,0,0,0,0,0,0,-1,965,617,0,0
-252,407,0,0,0,0,0,0,0,0,0,-1,972,617,0,0
-245,407,0,0,0,0,0,0,0,0,0,-1,979,617,0,0
-238,407,0,0,0,0,0,0,0,0,0,-1,986,617,0,0
-231,407,0,0,0,0,0,0,0,0,0,-1,993,617,0,0
-224,407,0,0,0,0,0,0,0,0,0,-1,1000,617,0,0
-217,407,0,0,0,0,0,0,0,0,0,-1,1007,617,0,0
-210,407,0,0,0,0,0,0,0,0,0,-1,1014,617,0,0
-203,407,0,0,0,0,0,0,0,0,0,-1,1021,617,0,0
-196,407,0,0,0,0,0,0,0,0,0,-1,1028,617,0,0
-189,407,0,0,0,0,0,0,0,0,0,-1,1035,617,0,0
-182,407,0,0,0,0,0,0,0,0,0,-1,1042,617,0,0
-175,407,0,0,0,0,0,0,0,0,0,-1,1049,617,0,0
-168,407,0,0,0,0,0,0,0,0,0,-1,1056,617,0,0
-161,407,0,0,0,0,0,0,0,0,0,-1,1063,617,0,0
-154,407,0,0,0,0,0,0,0,0,0,-1,1070,617,0,0
-147,407,0,0,0,0,0,0,0,0,0,-1,1077,617,0,0
-140,407,0,0,0,0,0,0,0,0,0,-1,1084,617,0,0
-133,407,0,0,0,0,0,0,0,0,0,-1,1091,617,0,0
-126,407,0,0,0,0,0,0,0,0,0,-1,1098,617,0,0
-119,407,0,0,0,0,0,0,0,0,0,-1,1105,617,0,0
-112,407,0,0,0,0,0,0,0,0,0,-1,1112,617,0,0
-105,407,0,0,0,0,0,0,0,0,0,-1,1119,617,0,0
-98,407,0,0,0,0,0,0,0,0,0,-1,1126,617,0,0
-91,407,0,0,0,0,0,0,0,0,0,-1,1133,617,0,0
-84,407,0,0,0,0,0,0,0,0,0,-1,1140,617,0,0
-77,407,0,0,0,0,0,0,0,0,0,-1,1147,617,0,0
-70,407,0,0,0,0,0,0,0,0,0,-1,1154,617,0,0
-63,407,0,0,0,0,0,0,0,0,0,-1,1161,617,0,0
-56,407,0,0,0,0,0,0,0,0,0,-1,1168,617,0,0
-49,407,0,0,0,0,0,0,0,0,0,-1,1175,617,0,0
-42,407,0,0,0,0,0,0,0,0,0,-1,1182,617,0,0
-35,407,0,0,0,0,0,0,0,0,0,-1,1189,617,0,0
-28,407,0,0,0,0,0,0,0,0,0,-1,1196,617,0,0
-21,407,0,0,0,0,0,0,0,0,0,-1,1203,617,0,0
-14,407,0,0,0,0,0,0,0,0,0,-1,1210,617,0,0
-7,407,0,0,0,0,0,0,0,0,0,-1,1217,617,0,0
0,407,0,0,0,0,0,0,0,0,0,-1,1224,617,0,0
7,407,0,0,0,0,0,0,0,0,0,-1,1231,617,0,0
14,407,0,0,0,0,0,0,0,0,0,-1,1238,617,0,0
21,407,0,0,0,0,0,0,0,0,0,-1,1245,617,0,0
28,407,0,0,0,0,0,0,0,0,0,-1,1252,617,0,0
35,407,0,0,0,0,0,0,0,0,0,-1,1259,617,0,0
42,407,0,0,0,0,0,0,0,0,0,-1,1266,617,0,0
49,407,0,0,0,0,0,0,0,0,0,-1,1273,617,0,0
56,407,0,0,0,0,0,0,0,0,0,-1,1280,617,0,0
63,407,0,0,0,0,0,0,0,0,0,-1,1287,617,0,0
70,407,0,0,0,0,0,0,0,0,0,-1,1294,617,0,0
77,407,0,0,0,0,0,0,0,0,0,-1,1301,617,0,0
84,407,0,0,0,0,0,0,0,0,0,-1,1308,617,0,0
91,407,0,0,0,0,0,0,0,0,0,-1,1315,617,0,0
98,407,0,0,0,0,0,0,0,0,0,-1,1322,617,0,0
105,407,0,0,0,0,0,0,0,0,0,-1,1329,617,0,0
112,407,0,0,0,0,0,0,0,0,0,-1,1336,617,0,0
119,407,0,0,0,0,0,0,0,0,0,-1,1343,617,0,0
126,407,0,0,0,0,0,0,0,0,0,-1,1350,617,0,0
133,407,0,0,0,0,0,0,0,0,0,-1,1357,617,0,0
140,407,0,0,0,0,0,0,0,0,0,-1,1364,617,0,0
147,407,0,0,0,0,0,0,0,0,0,-1,1371,617,0,0
154,407,0,0,0,0,0,0,0,0,0,-1,1378,617,0,0
161,407,0,0,0,0,0,0,0,0,0,-1,1385,617,0,0
168,407,0,0,0,0,0,0,0,0,0,-1,1392,617,0,0
175,407,0,0,0,0,0,0,0,0,0,-1,1399,617,0,0
182,407,0,0,0,0,0,0,0,0,0,-1,1406,617,0,0
189,407,0,0,0,0,0,0,0,0,0,-1,1413,617,0,0
196,407,0,0,0,0,0,0,0,0,0,-1,1420,617,0,0
203,407,0,0,0,0,0,0,0,0,0,-1,1427,617,0,0
210,407,0,0,0,0,0,0,0,0,0,-1,1434,617,0,0
217,407,0,0,0,0,0,0,0,0,0,-1,1441,617,0,0
224,407,0,0,0,0,0,0,0,0,0,-1,1448,617,0,0
231,407,0,0,0,0,0,0,0,0,0,-1,1455,617,0,0
238,407,0,0,0,0,0,0,0,0,0,-1,1462,617,0,0
245,407,0,0,0,0,0,0,0,0,0,-1,1469,617,0,0
252,407,0,0,0,0,0,0,0,0,0,-1,1476,617,0,0
259,407,0,0,0,0,0,0,0,0,0,-1,1483,617,0,0
266,407,0,0,0,0,0,0,0,0,0,-1,1490,617,0,0
273,407,0,0,0,0,0,0,0,0,0,-1,1497,617,0,0
280,407,0,0,0,0,0,0,0,0,0,-1,1504,617,0,0
287,407,0,0,0,0,0,0,0,0,0,-1,1511,617,0,0
294,407,0,0,0,0,0,0,0,0,0,-1,1518,617,0,0
301,407,0,0,0,0,0,0,0,0,0,-1,1525,617,0,0
308,407,0,0,0,0,0,0,0,0,0,-1,1532,617,0,0
315,407,0,0,0,0,0,0,0,0,0,-1,1539,617,0,0
322,407,0,0,0,0,0,0,0,0,0,-1,1546,617,0,0
329,407,0,0,0,0,0,0,0,0,0,-1,1553,617,0,0
336,407,0,0,0,0,0,0,0,0,0,-1,1560,617,0,0
343,407,0,0,0,0,0,0,0,0,0,-1,1567,617,0,0
350,407,0,0,0,0,0,0,0,0,0,-1,1574,617,0,0
357,407,0,0,0,0,0,0,0,0,0,-1,1581,617,0,0
364,407,0,0,0,0,0,0,0,0,0,-1,1588,617,0,0
371,407,0,0,0,0,0,0,0,0,0,-1,1595,617,0,0
378,407,0,0,0,0,0,0,0,0,0,-1,1602,617,0,0
385,407,0,0,0,0,0,0,0,0,0,-1,1609,617,0,0
392,407,0,0,0,0,0,0,0,0,0,-1,1616,617,0,0
399,407,0,0,0,0,0,0,0,0,0,-1,1623,617,0,0
406,407,0,0,0,0,0,0,0,0,0,-1,1630,617,0,0
413,407,0,0,0,0,0,0,0,0,0,-1,1637,617,0,0
420,407,0,0,0,0,0,0,0,0,0,-1,1644,617,0,0
427,407,0,0,0,0,0,0,0,0,0,-1,1651,617,0,0
434,407,0,0,0,0,0,0,0,0,0,-1,1658,617,0,0
441,407,0,0,0,0,0,0,0,0,0,-1,1665,617,0,0
448,407,7.02893,2.13843,0,0,0,0,0,0,0,-1,1672,617,7.02899,-2.13844
455,407,7.55237,2.29242,0,0,0,0,0,0,0,-1,1679,617,7.55236,-2.29244
462,407,8.2926,2.46173,0,0,0,0,0,0,0,-1,1686,617,8.29261,-2.46174
469,407,8.71509,2.22681,0,0,0,0,0,0,0,-1,1693,617,8.71511,-2.22681
476,407,8.89917,1.47766,0,0,0,0,0,0,0,-1,1700,617,8.89914,-1.47768
483,407,9.02612,0.682983,0,0,0,0,0,0,0,-1,1707,617,9.02608,-0.683004
490,407,9.12659,0.000671387,0,0,0,0,0,0,0,-1,1714,617,9.12653,-0.000675931
497,407,7.76819,0.855835,0,0,0,0,0,0,0,-1,1721,617,7.7682,-0.855865
504,407,4.69336,0.160706,0,0,0,0,0,0,0,-1,1728,617,4.69337,-0.1607
511,407,4.07104,-0.00140381,0,0,0,0,0,0,0,-1,1735,617,4.07109,0.00141425
518,407,6.09534,1.9411,0,0,0,0,0,0,0,-1,1742,617,6.09532,-1.94113
525,407,5.72534,-1.35986,0,0,0,0,0,0,0,-1,1749,617,5.72529,1.35988
532,407,18.3367,-10.2233,0,0,0,0,0,0,0,-1,1756,617,18.3367,10.2234
539,407,18.1394,-10.377,0,0,0,0,0,0,0,-1,1763,617,18.1395,10.377
546,407,18.2798,-9.62744,0.00581824,0.00222778,0.00271407,0.00727709,0.000768932,0.493206,0.00461648,0.0199473,1770,617,18.2798,9.62743
553,407,18.2627,-9.10834,0.00489021,0.00143516,0.00199808,0.00580402,0.000521343,0.428946,0.0037078,0.0147224,1777,617,18.2628,9.10836
560,407,18.2753,-8.5578,0.00386575,0.000535136,0.00139499,0.00437282,2.80596e-05,0.348649,0.00290591,0.0160285,1784,617,18.2752,8.55782
567,407,18.2343,-8.04156,0.0026869,0.000687458,0.00110933,0.00318052,0.000193843,0.418661,0.00205878,0.0296333,1791,617,18.2342,8.04159
574,407,18.2122,-7.49658,0.00158561,0.00122561,0.00103775,0.00245885,0.000352365,0.699528,0.00153532,0.0248902,1798,617,18.2121,7.49656
581,407,18.2098,-6.93439,0.00049189,0.00217411,0.00115866,0.00276476,-9.87678e-05,1.09936,0.00187697,0.0177594,1805,617,18.2098,6.9344
588,407,18.1779,-6.42242,-0.000588032,0.00356775,0.00145945,0.00402908,-0.00104936,1.26464,0.0030957,0.0128278,1812,617,18.1778,6.42241
595,407,18.1772,-5.90729,-0.00146128,0.00551978,0.00208477,0.00609497,-0.00203647,1.30159,0.00488572,0.0245577,1819,617,18.1772,5.90731
602,407,18.1693,-5.30981,-0.00219813,0.00798672,0.00296207,0.00878553,-0.00299694,1.30738,0.00707097,0.0193903,1826,617,18.1693,5.30982
609,407,18.1293,-4.75775,-0.00269842,0.0110038,0.0041487,0.0121621,-0.00385664,1.29855,0.00965388,0.0149994,1833,617,18.1293,4.75777
616,407,18.1653,-4.07233,-0.00282768,0.0146583,0.00569219,0.016348,-0.00451738,1.28224,0.0126757,0.028027,1840,617,18.1653,4.07231
623,407,18.399,-3.28094,0,0,0,0,0,0,0,-1,1847,617,18.399,3.28096
630,407,7.06177,0.814575,0,0,0,0,0,0,0,-1,1854,617,7.06178,-0.814579
637,407,8.90479,0.219421,0,0,0,0,0,0,0,-1,1861,617,8.90474,-0.219401
644,407,5.09766,2.27747,0,0,0,0,0,0,0,-1,1868,617,5.09764,-2.27746
651,407,7.37524,0.0513916,0,0,0,0,0,0,0,-1,1875,617,7.3752,-0.0513923
658,407,3.76685,0.594177,0,0,0,0,0,0,0,-1,1882,617,3.76683,-0.594184
665,407,5.76123,0.375061,0,0,0,0,0,0,0,-1,1889,617,5.76118,-0.37509
672,407,0,0,0,0,0,0,0,0,0,-1,1896,617,0,0
679,407,0,0,0,0,0,0,0,0,0,-1,1903,617,0,0
686,407,0,0,0,0,0,0,0,0,0,-1,1910,617,0,0
693,407,0,0,0,0,0,0,0,0,0,-1,1917,617,0,0
700,407,0,0,0,0,0,0,0,0,0,-1,1924,617,0,0
707,407,0,0,0,0,0,0,0,0,0,-1,1931,617,0,0
714,407,0,0,0,0,0,0,0,0,0,-1,1938,617,0,0
721,407,0,0,0,0,0,0,0,0,0,-1,1945,617,0,0
728,407,0,0,0,0,0,0,0,0,0,-1,1952,617,0,0
735,407,0,0,0,0,0,0,0,0,0,-1,1959,617,0,0
742,407,0,0,0,0,0,0,0,0,0,-1,1966,617,0,0
749,407,0,0,0,0,0,0,0,0,0,-1,1973,617,0,0
756,407,0,0,0,0,0,0,0,0,0,-1,1980,617,0,0
763,407,0,0,0,0,0,0,0,0,0,-1,1987,617,0,0
770,407,0,0,0,0,0,0,0,0,0,-1,1994,617,0,0
777,407,0,0,0,0,0,0,0,0,0,-1,2001,617,0,0
784,407,0,0,0,0,0,0,0,0,0,-1,2008,617,0,0
791,407,0,0,0,0,0,0,0,0,0,-1,2015,617,0,0
798,407,0,0,0,0,0,0,0,0,0,-1,2022,617,0,0
805,407,0,0,0,0,0,0,0,0,0,-1,2029,617,0,0
812,407,0,0,0,0,0,0,0,0,0,-1,2036,617,0,0
-700,400,0,0,0,0,0,0,0,0,0,-1,524,624,0,0
-693,400,0,0,0,0,0,0,0,0,0,-1,531,624,0,0
-686,400,0,0,0,0,0,0,0,0,0,-1,538,624,0,0
-679,400,0,0,0,0,0,0,0,0,0,-1,545,624,0,0
-672,400,0,0,0,0,0,0,0,0,0,-1,552,624,0,0
-665,400,0,0,0,0,0,0,0,0,0,-1,559,624,0,0
-658,400,0,0,0,0,0,0,0,0,0,-1,566,624,0,0
-651,400,0,0,0,0,0,0,0,0,0,-1,573,624,0,0
-644,400,0,0,0,0,0,0,0,0,0,-1,580,624,0,0
-637,400,0,0,0,0,0,0,0,0,0,-1,587,624,0,0
-630,400,0,0,0,0,0,0,0,0,0,-1,594,624,0,0
-623,400,0,0,0,0,0,0,0,0,0,-1,601,624,0,0
-616,400,0,0,0,0,0,0,0,0,0,-1,608,624,0,0
-609,400,0,0,0,0,0,0,0,0,0,-1,615,624,0,0
-602,400,0,0,0,0,0,0,0,0,0,-1,622,624,0,0
-595,400,0,0,0,0,0,0,0,0,0,-1,629,624,0,0
-588,400,0,0,0,0,0,0,0,0,0,-1,636,624,0,0
-581,400,0,0,0,0,0,0,0,0,0,-1,643,624,0,0
-574,400,0,0,0,0,0,0,0,0,0,-1,650,624,0,0
-567,400,0,0,0,0,0,0,0,0,0,-1,657,624,0,0
-560,400,0,0,0,0,0,0,0,0,0,-1,664,624,0,0
-553,400,0,0,0,0,0,0,0,0,0,-1,671,624,0,0
-546,400,-8.41174,-1.4599,0,0,0,0,0,0,0,-1,678,624,-8.41173,1.45989
-539,400,-5.69104,-1.7337,0,0,0,0,0,0,0,-1,685,624,-5.69103,1.7337
-532,400,-3.03632,-2.03912,0,0,0,0,0,0,0,-1,692,624,-3.03632,2.03909
-525,400,-6.20813,-7.04071,0,0,0,0,0,0,0,-1,699,624,-6.20814,7.04071
-518,400,-5.26544,-1.58661,0,0,0,0,0,0,0,-1,706,624,-5.26544,1.58658
-511,400,-8.98914,-6.17444,0,0,0,0,0,0,0,-1,713,624,-8.98911,6.17446
-504,400,-9.13159,-5.28796,0,0,0,0,0,0,0,-1,720,624,-9.13157,5.28797
-497,400,-9.19,-5.31592,0,0,0,0,0,0,0,-1,727,624,-9.18999,5.31591
-490,400,-9.04858,-5.92303,-0.000138438,0.00569077,-0.0021596,0.00640367,-0.000851338,-1.25195,0.00457935,0.0270893,734,624,-9.0486,5.92302
-483,400,-9.0531,-6.51343,-0.000119452,0.0043161,-0.00179302,0.00495024,-0.000753595,-1.23085,0.00357791,0.0168382,741,624,-9.05311,6.51343
-476,400,-9.06274,-7.01947,7.63333e-06,0.00320079,-0.00148787,0.00378659,-0.000578175,-1.19571,0.00273755,0.0138018,748,624,-9.06277,7.01945
-469,400,-9.0882,-7.53943,0.000252037,0.00233885,-0.0013033,0.00296496,-0.000374073,-1.12295,0.0021124,0.0154885,755,624,-9.08818,7.53942
-462,400,-9.12177,-8.08093,0.000508614,0.00154959,-0.00108964,0.00223667,-0.000178469,-1.00821,0.00155402,0.0200994,762,624,-9.12177,8.08093
-455,400,-9.15112,-8.61694,0.000768497,0.000812503,-0.000856938,0.00164772,-6.67205e-05,-0.798234,0.00112138,0.0215966,769,624,-9.15115,8.61695
-448,400,-9.15411,-9.16583,0.000948769,-4.23418e-05,-0.000434048,0.00111198,-0.000205553,-0.359665,0.000818487,0.016126,776,624,-9.1541,9.16584
-441,400,-9.16089,-9.63464,0.000975336,-0.000816471,8.03473e-05,0.000978932,-0.000820067,0.0447218,0.00104,0.014147,783,624,-9.16092,9.63463
-434,400,-9.18933,-10.1354,0.000960616,-0.00158292,0.000645385,0.001115,-0.00173731,0.234803,0.0016598,0.0114,790,624,-9.18935,10.1354
-427,400,-9.1991,-10.6458,0.00081031,-0.00255314,0.00137469,0.00130067,-0.00304351,0.342639,0.00257452,0.0102909,797,624,-9.19908,10.6458
-420,400,-9.15985,-11.1841,0.00036293,-0.00376218,0.00233952,0.00141927,-0.00481852,0.424116,0.00377543,0.0150481,804,624,-9.15985,11.1841
-413,400,-9.21649,-11.6101,-0.000331295,-0.00474717,0.00340709,0.00152072,-0.00659919,0.497899,0.00498431,0.0344566,811,624,-9.21651,11.6101
-406,400,-9.28223,-11.9949,0,0,0,0,0,0,0,-1,818,624,-9.28222,11.9949
-399,400,-9.54022,-12.2183,0,0,0,0,0,0,0,-1,825,624,-9.5402,12.2183
-392,400,-4.92285,-6.63354,0,0,0,0,0,0,0,-1,832,624,-4.92285,6.63354
-385,400,-3.68738,-5.04205,0,0,0,0,0,0,0,-1,839,624,-3.68736,5.04207
-378,400,-6.84064,-1.28662,0,0,0,0,0,0,0,-1,846,624,-6.84062,1.28662
-371,400,-6.98865,-1.2572,0,0,0,0,0,0,0,-1,853,624,-6.98865,1.25721
-364,400,-6.97247,-1.24133,0,0,0,0,0,0,0,-1,860,624,-6.97249,1.24135
-357,400,-7.18329,-1.23218,0,0,0,0,0,0,0,-1,867,624,-7.18327,1.2322
-350,400,-7.40186,-1.19409,0,0,0,0,0,0,0,-1,874,624,-7.40187,1.19407
-343,400,-8.09357,-1.51147,0,0,0,0,0,0,0,-1,881,624,-8.09355,1.51148
-336,400,0,0,0,0,0,0,0,0,0,-1,888,624,0,0
-329,400,0,0,0,0,0,0,0,0,0,-1,895,624,0,0
-322,400,0,0,0,0,0,0,0,0,0,-1,902,624,0,0
-315,400,0,0,0,0,0,0,0,0,0,-1,909,624,0,0
-308,400,0,0,0,0,0,0,0,0,0,-1,916,624,0,0
-301,400,0,0,0,0,0,0,0,0,0,-1,923,624,0,0
-294,400,0,0,0,0,0,0,0,0,0,-1,930,624,0,0
-287,400,0,0,0,0,0,0,0,0,0,-1,937,624,0,0
-280,400,0,0,0,0,0,0,0,0,0,-1,944,624,0,0
-273,400,0,0,0,0,0,0,0,0,0,-1,951,624,0,0
-266,400,0,0,0,0,0,0,0,0,0,-1,958,624,0,0
-259,400,0,0,0,0,0,0,0,0,0,-1,965,624,0,0
-252,400,0,0,0,0,0,0,0,0,0,-1,972,624,0,0
-245,400,0,0,0,0,0,0,0,0,0,-1,979,624,0,0
-238,400,0,0,0,0,0,0,0,0,0,-1,986,624,0,0
-231,400,0,0,0,0,0,0,0,0,0,-1,993,624,0,0
-224,400,0,0,0,0,0,0,0,0,0,-1,1000,624,0,0
-217,400,0,0,0,0,0,0,0,0,0,-1,1007,624,0,0
-210,400,0,0,0,0,0,0,0,0,0,-1,1014,624,0,0
-203,400,0,0,0,0,0,0,0,0,0,-1,1021,624,0,0
-196,400,0,0,0,0,0,0,0,0,0,-1,1028,624,0,0
-189,400,0,0,0,0,0,0,0,0,0,-1,1035,624,0,0
-182,400,0,0,0,0,0,0,0,0,0,-1,1042,624,0,0
-175,400,0,0,0,0,0,0,0,0,0,-1,1049,624,0,0
-168,400,0,0,0,0,0,0,0,0,0,-1,1056,624,0,0
-161,400,0,0,0,0,0,0,0,0,0,-1,1063,624,0,0
-154,400,0,0,0,0,0,0,0,0,0,-1,1070,624,0,0
-147,400,0,0,0,0,0,0,0,0,0,-1,1077,624,0,0
-140,400,0,0,0,0,0,0,0,0,0,-1,1084,624,0,0
-133,400,0,0,0,0,0,0,0,0,0,-1,1091,624,0,0
-126,400,0,0,0,0,0,0,0,0,0,-1,1098,624,0,0
-119,400,0,0,0,0,0,0,0,0,0,-1,1105,624,0,0
-112,400,0,0,0,0,0,0,0,0,0,-1,1112,624,0,0
-105,400,0,0,0,0,0,0,0,0,0,-1,1119,624,0,0
-98,400,0,0,0,0,0,0,0,0,0,-1,1126,624,0,0
-91,400,0,0,0,0,0,0,0,0,0,-1,1133,624,0,0
-84,400,0,0,0,0,0,0,0,0,0,-1,1140,624,0,0
-77,400,0,0,0,0,0,0,0,0,0,-1,1147,624,0,0
-70,400,0,0,0,0,0,0,0,0,0,-1,1154,624,0,0
-63,400,0,0,0,0,0,0,0,0,0,-1,1161,624,0,0
-56,400,0,0,0,0,0,0,0,0,0,-1,1168,624,0,0
-49,400,0,0,0,0,0,0,0,0,0,-1,1175,624,0,0
-42,400,0,0,0,0,0,0,0,0,0,-1,1182,624,0,0
-35,400,0,0,0,0,0,0,0,0,0,-1,1189,624,0,0
-28,400,0,0,0,0,0,0,0,0,0,-1,1196,624,0,0
-21,400,0,0,0,0,0,0,0,0,0,-1,1203,624,0,0
-14,400,0,0,0,0,0,0,0,0,0,-1,1210,624,0,0
-7,400,0,0,0,0,0,0,0,0,0,-1,1217,624,0,0
0,400,0,0,0,0,0,0,0,0,0,-1,1224,624,0,0
7,400,0,0,0,0,0,0,0,0,0,-1,1231,624,0,0
14,400,0,0,0,0,0,0,0,0,0,-1,1238,624,0,0
21,400,0,0,0,0,0,0,0,0,0,-1,1245,624,0,0
28,400,0,0,0,0,0,0,0,0,0,-1,1252,624,0,0
35,400,0,0,0,0,0,0,0,0,0,-1,1259,624,0,0
42,400,0,0,0,0,0,0,0,0,0,-1,1266,624,0,0
49,400,0,0,0,0,0,0,0,0,0,-1,1273,624,0,0
56,400,0,0,0,0,0,0,0,0,0,-1,1280,624,0,0
63,400,0,0,0,0,0,0,0,0,0,-1,1287,624,0,0
70,400,0,0,0,0,0,0,0,0,0,-1,1294,624,0,0
77,400,0,0,0,0,0,0,0,0,0,-1,1301,624,0,0
84,400,0,0,0,0,0,0,0,0,0,-1,1308,624,0,0
91,400,0,0,0,0,0,0,0,0,0,-1,1315,624,0,0
98,400,0,0,0,0,0,0,0,0,0,-1,1322,624,0,0
105,400,0,0,0,0,0,0,0,0,0,-1,1329,624,0,0
112,400,0,0,0,0,0,0,0,0,0,-1,1336,624,0,0
119,400,0,0,0,0,0,0,0,0,0,-1,1343,624,0,0
126,400,0,0,0,0,0,0,0,0,0,-1,1350,624,0,0
133,400,0,0,0,0,0,0,0,0,0,-1,1357,624,0,0
140,400,0,0,0,0,0,0,0,0,0,-1,1364,624,0,0
147,400,0,0,0,0,0,0,0,0,0,-1,1371,624,0,0
154,400,0,0,0,0,0,0,0,0,0,-1,1378,624,0,0
161,400,0,0,0,0,0,0,0,0,0,-1,1385,624,0,0
168,400,0,0,0,0,0,0,0,0,0,-1,1392,624,0,0
175,400,0,0,0,0,0,0,0,0,0,-1,1399,624,0,0
182,400,0,0,0,0,0,0,0,0,0,-1,1406,624,0,0
189,400,0,0,0,0,0,0,0,0,0,-1,1413,624,0,0
196,400,0,0,0,0,0,0,0,0,0,-1,1420,624,0,0
203,400,0,0,0,0,0,0,0,0,0,-1,1427,624,0,0
210,400,0,0,0,0,0,0,0,0,0,-1,1434,624,0,0
217,400,0,0,0,0,0,0,0,0,0,-1,1441,624,0,0
224,400,0,0,0,0,0,0,0,0,0,-1,1448,624,0,0
231,400,0,0,0,0,0,0,0,0,0,-1,1455,624,0,0
238,400,0,0,0,0,0,0,0,0,0,-1,1462,624,0,0
245,400,0,0,0,0,0,0,0,0,0,-1,1469,624,0,0
252,400,0,0,0,0,0,0,0,0,0,-1,1476,624,0,0
259,400,0,0,0,0,0,0,0,0,0,-1,1483,624,0,0
266,400,0,0,0,0,0,0,0,0,0,-1,1490,624,0,0
273,400,0,0,0,0,0,0,0,0,0,-1,1497,624,0,0
280,400,0,0,0,0,0,0,0,0,0,-1,1504,624,0,0
287,400,0,0,0,0,0,0,0,0,0,-1,1511,624,0,0
294,400,0,0,0,0,0,0,0,0,0,-1,1518,624,0,0
301,400,0,0,0,0,0,0,0,0,0,-1,1525,624,0,0
308,400,0,0,0,0,0,0,0,0,0,-1,1532,624,0,0
315,400,0,0,0,0,0,0,0,0,0,-1,1539,624,0,0
322,400,0,0,0,0,0,0,0,0,0,-1,1546,624,0,0
329,400,0,0,0,0,0,0,0,0,0,-1,1553,624,0,0
336,400,0,0,0,0,0,0,0,0,0,-1,1560,624,0,0
343,400,0,0,0,0,0,0,0,0,0,-1,1567,624,0,0
350,400,0,0,0,0,0,0,0,0,0,-1,1574,624,0,0
357,400,0,0,0,0,0,0,0,0,0,-1,1581,624,0,0
364,400,0,0,0,0,0,0,0,0,0,-1,1588,624,0,0
371,400,0,0,0,0,0,0,0,0,0,-1,1595,624,0,0
378,400,0,0,0,0,0,0,0,0,0,-1,1602,624,0,0
385,400,0,0,0,0,0,0,0,0,0,-1,1609,624,0,0
392,400,0,0,0,0,0,0,0,0,0,-1,1616,624,0,0
399,400,0,0,0,0,0,0,0,0,0,-1,1623,624,0,0
406,400,0,0,0,0,0,0,0,0,0,-1,1630,624,0,0
413,400,0,0,0,0,0,0,0,0,0,-1,1637,624,0,0
420,400,0,0,0,0,0,0,0,0,0,-1,1644,624,0,0
427,400,0,0,0,0,0,0,0,0,0,-1,1651,624,0,0
434,400,0,0,0,0,0,0,0,0,0,-1,1658,624,0,0
441,400,0,0,0,0,0,0,0,0,0,-1,1665,624,0,0
448,400,0,0,0,0,0,0,0,0,0,-1,1672,624,0,0
455,400,8.91309,2.75885,0,0,0,0,0,0,0,-1,1679,624,8.91312,-2.75885
462,400,8.90356,2.37878,0,0,0,0,0,0,0,-1,1686,624,8.90353,-2.37878
469,400,9.14429,1.76849,0,0,0,0,0,0,0,-1,1693,624,9.14432,-1.76847
476,400,9.23254,1.25995,0,0,0,0,0,0,0,-1,1700,624,9.23252,-1.25994
483,400,9.59766,0.562439,0,0,0,0,0,0,0,-1,1707,624,9.59771,-0.56242
490,400,9.92578,-0.213745,0,0,0,0,0,0,0,-1,1714,624,9.92579,0.21376
497,400,9.19141,0.175232,0,0,0,0,0,0,0,-1,1721,624,9.19138,-0.175209
504,400,9.23438,0.00823975,0,0,0,0,0,0,0,-1,1728,624,9.23436,-0.00823766
511,400,6.16687,3.3501,0,0,0,0,0,0,0,-1,1735,624,6.16682,-3.35007
518,400,6.55237,1.74994,0,0,0,0,0,0,0,-1,1742,624,6.55236,-1.74993
525,400,6.99731,1.08783,0,0,0,0,0,0,0,-1,1749,624,6.99736,-1.08785
532,400,6.96582,-1.74982,0,0,0,0,0,0,0,-1,1756,624,6.96585,1.74983
539,400,16.0278,-8.40637,0,0,0,0,0,0,0,-1,1763,624,16.0278,8.40635
546,400,18.6514,-9.68402,0,0,0,0,0,0,0,-1,1770,624,18.6514,9.68402
553,400,18.7319,-9.09851,0.00621289,0.00159935,0.00223846,0.00712045,0.000691789,0.385186,0.00453399,0.0333537,1777,624,18.7319,9.09851
560,400,18.7876,-8.53381,0.00509364,0.00027016,0.00150767,0.00552611,-0.000162313,0.279349,0.00373935,0.0151151,1784,624,18.7876,8.53384
567,400,18.7939,-8.01111,0.00378057,0.000287888,0.00113998,0.00411972,-5.12593e-05,0.289164,0.00276372,0.0185424,1791,624,18.794,8.0111
574,400,18.769,-7.4696,0.00261675,0.000702177,0.00101664,0.00305587,0.000263059,0.407728,0.00195547,0.0197468,1798,624,18.769,7.46961
581,400,18.7151,-6.9231,0.00151541,0.00148797,0.00107969,0.00258147,0.000421912,0.779045,0.00159901,0.0195296,1805,624,18.7151,6.92309
588,400,18.7032,-6.36945,0.000485873,0.00262817,0.00130613,0.0032462,-0.000132162,1.12883,0.00220951,0.0163025,1812,624,18.7033,6.36946
595,400,18.7141,-5.84326,-0.000266067,0.00420317,0.00182827,0.00485578,-0.000918675,1.22794,0.00358289,0.0153512,1819,624,18.7141,5.84326
602,400,18.7059,-5.31738,-0.00080922,0.00616801,0.00258729,0.00702272,-0.00166393,1.25173,0.00532385,0.0142351,1826,624,18.7059,5.31737
609,400,18.6329,-4.75549,-0.001173,0.00848486,0.00356036,0.00965549,-0.00234364,1.25313,0.00734394,0.0132464,1833,624,18.6329,4.7555
616,400,18.6172,-4.18109,-0.00114204,0.0112278,0.00484256,0.0128981,-0.00281228,1.23866,0.00967339,0.0167593,1840,624,18.6172,4.18112
623,400,18.6499,-3.58783,0,0,0,0,0,0,0,-1,1847,624,18.6499,3.58781
630,400,11.9432,0.09021,0,0,0,0,0,0,0,-1,1854,624,11.9432,-0.0902007
637,400,6.92896,1.01917,0,0,0,0,0,0,0,-1,1861,624,6.92899,-1.01918
644,400,8.65381,1.4599,0,0,0,0,0,0,0,-1,1868,624,8.65379,-1.45991
651,400,7.90601,0.424072,0,0,0,0,0,0,0,-1,1875,624,7.90598,-0.424097
658,400,8.69031,1.0484,0,0,0,0,0,0,0,-1,1882,624,8.6903,-1.0484
665,400,5.98438,0.522522,0,0,0,0,0,0,0,-1,1889,624,5.98442,-0.522552
672,400,0,0,0,0,0,0,0,0,0,-1,1896,624,0,0
679,400,0,0,0,0,0,0,0,0,0,-1,1903,624,0,0
686,400,0,0,0,0,0,0,0,0,0,-1,1910,624,0,0
693,400,0,0,0,0,0,0,0,0,0,-1,1917,624,0,0
700,400,0,0,0,0,0,0,0,0,0,-1,1924,624,0,0
707,400,0,0,0,0,0,0,0,0,0,-1,1931,624,0,0
714,400,0,0,0,0,0,0,0,0,0,-1,1938,624,0,0
721,400,0,0,0,0,0,0,0,0,0,-1,1945,624,0,0
728,400,0,0,0,0,0,0,0,0,0,-1,1952,624,0,0
735,400,0,0,0,0,0,0,0,0,0,-1,1959,624,0,0
742,400,0,0,0,0,0,0,0,0,0,-1,1966,624,0,0
749,400,0,0,0,0,0,0,0,0,0,-1,1973,624,0,0
756,400,0,0,0,0,0,0,0,0,0,-1,1980,624,0,0
763,400,0,0,0,0,0,0,0,0,0,-1,1987,624,0,0
770,400,0,0,0,0,0,0,0,0,0,-1,1994,624,0,0
777,400,0,0,0,0,0,0,0,0,0,-1,2001,624,0,0
784,400,0,0,0,0,0,0,0,0,0,-1,2008,624,0,0
791,400,0,0,0,0,0,0,0,0,0,-1,2015,624,0,0
798,400,0,0,0,0,0,0,0,0,0,-1,2022,624,0,0
805,400,0,0,0,0,0,0,0,0,0,-1,2029,624,0,0
812,400,0,0,0,0,0,0,0,0,0,-1,2036,624,0,0
-700,393,0,0,0,0,0,0,0,0,0,-1,524,631,0,0
-693,393,0,0,0,0,0,0,0,0,0,-1,531,631,0,0
-686,393,0,0,0,0,0,0,0,0,0,-1,538,631,0,0
-679,393,0,0,0,0,0,0,0,0,0,-1,545,631,0,0
-672,393,0,0,0,0,0,0,0,0,0,-1,552,631,0,0
-665,393,0,0,0,0,0,0,0,0,0,-1,559,631,0,0
-658,393,0,0,0,0,0,0,0,0,0,-1,566,631,0,0
-651,393,0,0,0,0,0,0,0,0,0,-1,573,631,0,0
-644,393,0,0,0,0,0,0,0,0,0,-1,580,631,0,0
-637,393,0,0,0,0,0,0,0,0,0,-1,587,631,0,0
-630,393,0,0,0,0,0,0,0,0,0,-1,594,631,0,0
-623,393,0,0,0,0,0,0,0,0,0,-1,601,631,0,0
-616,393,0,0,0,0,0,0,0,0,0,-1,608,631,0,0
-609,393,0,0,0,0,0,0,0,0,0,-1,615,631,0,0
-602,393,0,0,0,0,0,0,0,0,0,-1,622,631,0,0
-595,393,0,0,0,0,0,0,0,0,0,-1,629,631,0,0
-588,393,0,0,0,0,0,0,0,0,0,-1,636,631,0,0
-581,393,0,0,0,0,0,0,0,0,0,-1,643,631,0,0
-574,393,0,0,0,0,0,0,0,0,0,-1,650,631,0,0
-567,393,0,0,0,0,0,0,0,0,0,-1,657,631,0,0
-560,393,0,0,0,0,0,0,0,0,0,-1,664,631,0,0
-553,393,-2.35107,3.92633,0,0,0,0,0,0,0,-1,671,631,-2.35108,-3.92634
-546,393,-1.78778,2.4856,0,0,0,0,0,0,0,-1,678,631,-1.78778,-2.48557
-539,393,-5.2113,-2.20245,0,0,0,0,0,0,0,-1,685,631,-5.21128,2.20247
-532,393,-2.83643,-2.01624,0,0,0,0,0,0,0,-1,692,631,-2.83642,2.01626
-525,393,-5.9505,-0.952698,0,0,0,0,0,0,0,-1,699,631,-5.95053,0.95268
-518,393,-5.80219,-1.57739,0,0,0,0,0,0,0,-1,706,631,-5.80219,1.57738
-511,393,-6.15527,-2.09906,0,0,0,0,0,0,0,-1,713,631,-6.15526,2.09903
-504,393,-9.87323,-4.30029,0,0,0,0,0,0,0,-1,720,631,-9.87326,4.30028
-497,393,-9.60089,-5.17621,-0.000240105,0.0057561,-0.0019955,0.00635948,-0.00084348,-1.27717,0.00454697,0.0348427,727,631,-9.60089,5.17622
-490,393,-9.55872,-5.95276,-8.71639e-05,0.00454025,-0.0016753,0.0050831,-0.000630008,-1.25744,0.00361707,0.0175358,734,631,-9.55873,5.95273
-483,393,-9.54041,-6.4964,5.50231e-05,0.00344993,-0.00141166,0.00396022,-0.000455267,-1.22393,0.00280425,0.018841,741,631,-9.54041,6.49638
-476,393,-9.54938,-7.00073,0.000278915,0.00252654,-0.00119003,0.00303953,-0.00023408,-1.16379,0.00210872,0.0158042,748,631,-9.54938,7.00071
-469,393,-9.5741,-7.52588,0.000543188,0.0018351,-0.00107233,0.002441,-6.27111e-05,-1.05649,0.00164864,0.0127523,755,631,-9.57409,7.52588
-462,393,-9.60553,-8.09375,0.000802692,0.00115362,-0.000912988,0.00190785,4.84614e-05,-0.880335,0.00125606,0.0152583,762,631,-9.60554,8.09375
-455,393,-9.65045,-8.62366,0.00107123,0.000479403,-0.000726535,0.0015598,-9.1698e-06,-0.592009,0.00104294,0.015184,769,631,-9.65043,8.62366
-448,393,-9.66602,-9.15723,0.00126383,-0.000285035,-0.000363968,0.00134509,-0.000366301,-0.219673,0.00104055,0.0145155,776,631,-9.66599,9.15724
-441,393,-9.67664,-9.6496,0.0013284,-0.00096443,7.83224e-05,0.00133107,-0.000967103,0.0341068,0.00133238,0.0127587,783,631,-9.67664,9.6496
-434,393,-9.69336,-10.1089,0.00138018,-0.00175165,0.000602407,0.00149206,-0.00186353,0.183624,0.0019413,0.011725,790,631,-9.69337,10.1089
-427,393,-9.65259,-10.6349,0.00123206,-0.00275452,0.00136583,0.00165511,-0.00317757,0.300366,0.00283593,0.0209283,797,631,-9.65256,10.6349
-420,393,-9.70227,-11.1133,0.000645467,-0.00413987,0.00248268,0.00170078,-0.00519518,0.401929,0.00414827,0.0464223,804,631,-9.70226,11.1133
-413,393,-10.0039,-11.6058,0,0,0,0,0,0,0,-1,811,631,-10.0039,11.6059
-406,393,-10.2997,-11.8004,0,0,0,0,0,0,0,-1,818,631,-10.2997,11.8004
-399,393,-5.07343,-5.92365,0,0,0,0,0,0,0,-1,825,631,-5.07344,5.92364
-392,393,-2.08063,-3.02386,0,0,0,0,0,0,0,-1,832,631,-2.08063,3.02384
-385,393,-3.16931,-0.624756,0,0,0,0,0,0,0,-1,839,631,-3.16928,0.624764
-378,393,-7.33081,-0.872314,0,0,0,0,0,0,0,-1,846,631,-7.33081,0.872325
-371,393,-7.47858,-0.811096,0,0,0,0,0,0,0,-1,853,631,-7.47859,0.811075
-364,393,-7.64917,-0.662415,0,0,0,0,0,0,0,-1,860,631,-7.64917,0.662406
-357,393,-8.09686,-0.726013,0,0,0,0,0,0,0,-1,867,631,-8.09689,0.726029
-350,393,-8.38788,-0.511841,0,0,0,0,0,0,0,-1,874,631,-8.38785,0.511811
-343,393,0,0,0,0,0,0,0,0,0,-1,881,631,0,0
-336,393,0,0,0,0,0,0,0,0,0,-1,888,631,0,0
-329,393,0,0,0,0,0,0,0,0,0,-1,895,631,0,0
-322,393,0,0,0,0,0,0,0,0,0,-1,902,631,0,0
-315,393,0,0,0,0,0,0,0,0,0,-1,909,631,0,0
-308,393,0,0,0,0,0,0,0,0,0,-1,916,631,0,0
-301,393,0,0,0,0,0,0,0,0,0,-1,923,631,0,0
-294,393,0,0,0,0,0,0,0,0,0,-1,930,631,0,0
-287,393,0,0,0,0,0,0,0,0,0,-1,937,631,0,0
-280,393,0,0,0,0,0,0,0,0,0,-1,944,631,0,0
-273,393,0,0,0,0,0,0,0,0,0,-1,951,631,0,0
-266,393,0,0,0,0,0,0,0,0,0,-1,958,631,0,0
-259,393,0,0,0,0,0,0,0,0,0,-1,965,631,0,0
-252,393,0,0,0,0,0,0,0,0,0,-1,972,631,0,0
-245,393,0,0,0,0,0,0,0,0,0,-1,979,631,0,0
-238,393,0,0,0,0,0,0,0,0,0,-1,986,631,0,0
-231,393,0,0,0,0,0,0,0,0,0,-1,993,631,0,0
-224,393,0,0,0,0,0,0,0,0,0,-1,1000,631,0,0
-217,393,0,0,0,0,0,0,0,0,0,-1,1007,631,0,0
-210,393,0,0,0,0,0,0,0,0,0,-1,1014,631,0,0
-203,393,0,0,0,0,0,0,0,0,0,-1,1021,631,0,0
-196,393,0,0,0,0,0,0,0,0,0,-1,1028,631,0,0
-189,393,0,0,0,0,0,0,0,0,0,-1,1035,631,0,0
-182,393,0,0,0,0,0,0,0,0,0,-1,1042,631,0,0
-175,393,0,0,0,0,0,0,0,0,0,-1,1049,631,0,0
-168,393,0,0,0,0,0,0,0,0,0,-1,1056,631,0,0
-161,393,0,0,0,0,0,0,0,0,0,-1,1063,631,0,0
-154,393,0,0,0,0,0,0,0,0,0,-1,1070,631,0,0
-147,393,0,0,0,0,0,0,0,0,0,-1,1077,631,0,0
-140,393,0,0,0,0,0,0,0,0,0,-1,1084,631,0,0
-133,393,0,0,0,0,0,0,0,0,0,-1,1091,631,0,0
-126,393,0,0,0,0,0,0,0,0,0,-1,1098,631,0,0
-119,393,0,0,0,0,0,0,0,0,0,-1,1105,631,0,0
-112,393,0,0,0,0,0,0,0,0,0,-1,1112,631,0,0
-105,393,0,0,0,0,0,0,0,0,0,-1,1119,631,0,0
-98,393,0,0,0,0,0,0,0,0,0,-1,1126,631,0,0
-91,393,0,0,0,0,0,0,0,0,0,-1,1133,631,0,0
-84,393,0,0,0,0,0,0,0,0,0,-1,1140,631,0,0
-77,393,0,0,0,0,0,0,0,0,0,-1,1147,631,0,0
-70,393,0,0,0,0,0,0,0,0,0,-1,1154,631,0,0
-63,393,0,0,0,0,0,0,0,0,0,-1,1161,631,0,0
-56,393,0,0,0,0,0,0,0,0,0,-1,1168,631,0,0
-49,393,0,0,0,0,0,0,0,0,0,-1,1175,631,0,0
-42,393,0,0,0,0,0,0,0,0,0,-1,1182,631,0,0
-35,393,0,0,0,0,0,0,0,0,0,-1,1189,631,0,0
-28,393,0,0,0,0,0,0,0,0,0,-1,1196,631,0,0
-21,393,0,0,0,0,0,0,0,0,0,-1,1203,631,0,0
-14,393,0,0,0,0,0,0,0,0,0,-1,1210,631,0,0
-7,393,0,0,0,0,0,0,0,0,0,-1,1217,631,0,0
0,393,0,0,0,0,0,0,0,0,0,-1,1224,631,0,0
7,393,0,0,0,0,0,0,0,0,0,-1,1231,631,0,0
14,393,0,0,0,0,0,0,0,0,0,-1,1238,631,0,0
21,393,0,0,0,0,0,0,0,0,0,-1,1245,631,0,0
28,393,0,0,0,0,0,0,0,0,0,-1,1252,631,0,0
35,393,0,0,0,0,0,0,0,0,0,-1,1259,631,0,0
42,393,0,0,0,0,0,0,0,0,0,-1,1266,631,0,0
49,393,0,0,0,0,0,0,0,0,0,-1,1273,631,0,0
56,393,0,0,0,0,0,0,0,0,0,-1,1280,631,0,0
63,393,0,0,0,0,0,0,0,0,0,-1,1287,631,0,0
70,393,0,0,0,0,0,0,0,0,0,-1,1294,631,0,0
77,393,0,0,0,0,0,0,0,0,0,-1,1301,631,0,0
84,393,0,0,0,0,0,0,0,0,0,-1,1308,631,0,0
91,393,0,0,0,0,0,0,0,0,0,-1,1315,631,0,0
98,393,0,0,0,0,0,0,0,0,0,-1,1322,631,0,0
105,393,0,0,0,0,0,0,0,0,0,-1,1329,631,0,0
112,393,0,0,0,0,0,0,0,0,0,-1,1336,631,0,0
119,393,0,0,0,0,0,0,0,0,0,-1,1343,631,0,0
126,393,0,0,0,0,0,0,0,0,0,-1,1350,631,0,0
133,393,0,0,0,0,0,0,0,0,0,-1,1357,631,0,0
140,393,0,0,0,0,0,0,0,0,0,-1,1364,631,0,0
147,393,0,0,0,0,0,0,0,0,0,-1,1371,631,0,0
154,393,0,0,0,0,0,0,0,0,0,-1,1378,631,0,0
161,393,0,0,0,0,0,0,0,0,0,-1,1385,631,0,0
168,393,0,0,0,0,0,0,0,0,0,-1,1392,631,0,0
175,393,0,0,0,0,0,0,0,0,0,-1,1399,631,0,0
182,393,0,0,0,0,0,0,0,0,0,-1,1406,631,0,0
189,393,0,0,0,0,0,0,0,0,0,-1,1413,631,0,0
196,393,0,0,0,0,0,0,0,0,0,-1,1420,631,0,0
203,393,0,0,0,0,0,0,0,0,0,-1,1427,631,0,0
210,393,0,0,0,0,0,0,0,0,0,-1,1434,631,0,0
217,393,0,0,0,0,0,0,0,0,0,-1,1441,631,0,0
224,393,0,0,0,0,0,0,0,0,0,-1,1448,631,0,0
231,393,0,0,0,0,0,0,0,0,0,-1,1455,631,0,0
238,393,0,0,0,0,0,0,0,0,0,-1,1462,631,0,0
245,393,0,0,0,0,0,0,0,0,0,-1,1469,631,0,0
252,393,0,0,0,0,0,0,0,0,0,-1,1476,631,0,0
259,393,0,0,0,0,0,0,0,0,0,-1,1483,631,0,0
266,393,0,0,0,0,0,0,0,0,0,-1,1490,631,0,0
273,393,0,0,0,0,0,0,0,0,0,-1,1497,631,0,0
280,393,0,0,0,0,0,0,0,0,0,-1,1504,631,0,0
287,393,0,0,0,0,0,0,0,0,0,-1,1511,631,0,0
294,393,0,0,0,0,0,0,0,0,0,-1,1518,631,0,0
301,393,0,0,0,0,0,0,0,0,0,-1,1525,631,0,0
308,393,0,0,0,0,0,0,0,0,0,-1,1532,631,0,0
315,393,0,0,0,0,0,0,0,0,0,-1,1539,631,0,0
322,393,0,0,0,0,0,0,0,0,0,-1,1546,631,0,0
329,393,0,0,0,0,0,0,0,0,0,-1,1553,631,0,0
336,393,0,0,0,0,0,0,0,0,0,-1,1560,631,0,0
343,393,0,0,0,0,0,0,0,0,0,-1,1567,631,0,0
350,393,0,0,0,0,0,0,0,0,0,-1,1574,631,0,0
357,393,0,0,0,0,0,0,0,0,0,-1,1581,631,0,0
364,393,0,0,0,0,0,0,0,0,0,-1,1588,631,0,0
371,393,0,0,0,0,0,0,0,0,0,-1,1595,631,0,0
378,393,0,0,0,0,0,0,0,0,0,-1,1602,631,0,0
385,393,0,0,0,0,0,0,0,0,0,-1,1609,631,0,0
392,393,0,0,0,0,0,0,0,0,0,-1,1616,631,0,0
399,393,0,0,0,0,0,0,0,0,0,-1,1623,631,0,0
406,393,0,0,0,0,0,0,0,0,0,-1,1630,631,0,0
413,393,0,0,0,0,0,0,0,0,0,-1,1637,631,0,0
420,393,0,0,0,0,0,0,0,0,0,-1,1644,631,0,0
427,393,0,0,0,0,0,0,0,0,0,-1,1651,631,0,0
434,393,0,0,0,0,0,0,0,0,0,-1,1658,631,0,0
441,393,0,0,0,0,0,0,0,0,0,-1,1665,631,0,0
448,393,0,0,0,0,0,0,0,0,0,-1,1672,631,0,0
455,393,0,0,0,0,0,0,0,0,0,-1,1679,631,0,0
462,393,8.51099,1.89502,0,0,0,0,0,0,0,-1,1686,631,8.51103,-1.89504
469,393,9.39465,1.51703,0,0,0,0,0,0,0,-1,1693,631,9.39465,-1.51703
476,393,9.95569,1.185,0,0,0,0,0,0,0,-1,1700,631,9.95575,-1.18497
483,393,10.5267,0.887329,0,0,0,0,0,0,0,-1,1707,631,10.5267,-0.887321
490,393,10.9303,0.761414,0,0,0,0,0,0,0,-1,1714,631,10.9303,-0.761386
497,393,8.32153,1.88104,0,0,0,0,0,0,0,-1,1721,631,8.32148,-1.88103
504,393,9.46985,1.78711,0,0,0,0,0,0,0,-1,1728,631,9.46986,-1.78713
511,393,9.66565,-0.375977,0,0,0,0,0,0,0,-1,1735,631,9.66571,0.375949
518,393,7.01599,1.62482,0,0,0,0,0,0,0,-1,1742,631,7.01597,-1.62483
525,393,7.88245,-1.13422,0,0,0,0,0,0,0,-1,1749,631,7.88246,1.13423
532,393,7.06335,-1.18103,0,0,0,0,0,0,0,-1,1756,631,7.06332,1.18101
539,393,9.91626,-2.46301,0,0,0,0,0,0,0,-1,1763,631,9.91625,2.46302
546,393,16.4094,-8.04651,0,0,0,0,0,0,0,-1,1770,631,16.4094,8.04649
553,393,19.1489,-9.11908,0,0,0,0,0,0,0,-1,1777,631,19.1489,9.11905
560,393,19.3112,-8.57135,0.00639504,-5.68185e-05,0.00167401,0.00680352,-0.000465299,0.239336,0.00469847,0.032269,1784,631,19.3111,8.57137
567,393,19.3105,-7.98376,0.00486849,-0.000157666,0.00117515,0.00512968,-0.00041885,0.218702,0.00356761,0.0155303,1791,631,19.3105,7.98378
574,393,19.3154,-7.45508,0.0035733,0.000146267,0.00095675,0.00382231,-0.000102743,0.254617,0.00258314,0.0159874,1798,631,19.3155,7.45508
581,393,19.2579,-6.9079,0.00240301,0.000791183,0.000929059,0.00282699,0.000367199,0.42813,0.00177497,0.0160518,1805,631,19.258,6.90788
588,393,19.2384,-6.34412,0.00137769,0.0017146,0.00106863,0.00262797,0.000464321,0.863574,0.00161955,0.0180091,1812,631,19.2384,6.34412
595,393,19.2639,-5.83618,0.000689472,0.00298335,0.00148549,0.00371315,-4.03296e-05,1.11414,0.00248899,0.0151663,1819,631,19.2639,5.83618
602,393,19.2494,-5.2818,0.000275227,0.00456381,0.00213934,0.0054485,-0.000609465,1.17868,0.0038516,0.0167667,1826,631,19.2494,5.28179
609,393,19.2053,-4.71991,4.40325e-05,0.00638441,0.00296087,0.00755206,-0.00112362,1.19516,0.005448,0.0154932,1833,631,19.2053,4.71988
616,393,19.1818,-4.19061,0.00021878,0.00850307,0.00406079,0.0101616,-0.00143971,1.18306,0.00730174,0.0148146,1840,631,19.1817,4.19061
623,393,19.2108,-3.56299,0.00102649,0.0108532,0.00553495,0.013341,-0.00146129,1.14839,0.00941894,0.0303295,1847,631,19.2108,3.56296
630,393,19.2695,-2.81622,0,0,0,0,0,0,0,-1,1854,631,19.2696,2.81623
637,393,11.4626,0.608887,0,0,0,0,0,0,0,-1,1861,631,11.4627,-0.608904
644,393,8.97583,1.30585,0,0,0,0,0,0,0,-1,1868,631,8.97586,-1.30584
651,393,11.348,0.53302,0,0,0,0,0,0,0,-1,1875,631,11.348,-0.53305
658,393,9.21338,1.50836,0,0,0,0,0,0,0,-1,1882,631,9.21338,-1.50834
665,393,6.1001,2.32129,0,0,0,0,0,0,0,-1,1889,631,6.10012,-2.3213
672,393,7.14575,2.43225,0,0,0,0,0,0,0,-1,1896,631,7.14572,-2.43222
679,393,0,0,0,0,0,0,0,0,0,-1,1903,631,0,0
686,393,0,0,0,0,0,0,0,0,0,-1,1910,631,0,0
693,393,0,0,0,0,0,0,0,0,0,-1,1917,631,0,0
700,393,0,0,0,0,0,0,0,0,0,-1,1924,631,0,0
707,393,0,0,0,0,0,0,0,0,0,-1,1931,631,0,0
714,393,0,0,0,0,0,0,0,0,0,-1,1938,631,0,0
721,393,0,0,0,0,0,0,0,0,0,-1,1945,631,0,0
728,393,0,0,0,0,0,0,0,0,0,-1,1952,631,0,0
735,393,0,0,0,0,0,0,0,0,0,-1,1959,631,0,0
742,393,0,0,0,0,0,0,0,0,0,-1,1966,631,0,0
749,393,0,0,0,0,0,0,0,0,0,-1,1973,631,0,0
756,393,0,0,0,0,0,0,0,0,0,-1,1980,631,0,0
763,393,0,0,0,0,0,0,0,0,0,-1,1987,631,0,0
770,393,0,0,0,0,0,0,0,0,0,-1,1994,631,0,0
777,393,0,0,0,0,0,0,0,0,0,-1,2001,631,0,0
784,393,0,0,0,0,0,0,0,0,0,-1,2008,631,0,0
791,393,0,0,0,0,0,0,0,0,0,-1,2015,631,0,0
798,393,0,0,0,0,0,0,0,0,0,-1,2022,631,0,0
805,393,0,0,0,0,0,0,0,0,0,-1,2029,631,0,0
812,393,0,0,0,0,0,0,0,0,0,-1,2036,631,0,0
-700,386,0,0,0,0,0,0,0,0,0,-1,524,638,0,0
-693,386,0,0,0,0,0,0,0,0,0,-1,531,638,0,0
-686,386,0,0,0,0,0,0,0,0,0,-1,538,638,0,0
-679,386,0,0,0,0,0,0,0,0,0,-1,545,638,0,0
-672,386,0,0,0,0,0,0,0,0,0,-1,552,638,0,0
-665,386,0,0,0,0,0,0,0,0,0,-1,559,638,0,0
-658,386,0,0,0,0,0,0,0,0,0,-1,566,638,0,0
-651,386,0,0,0,0,0,0,0,0,0,-1,573,638,0,0
-644,386,0,0,0,0,0,0,0,0,0,-1,580,638,0,0
-637,386,0,0,0,0,0,0,0,0,0,-1,587,638,0,0
-630,386,0,0,0,0,0,0,0,0,0,-1,594,638,0,0
-623,386,0,0,0,0,0,0,0,0,0,-1,601,638,0,0
-616,386,0,0,0,0,0,0,0,0,0,-1,608,638,0,0
-609,386,0,0,0,0,0,0,0,0,0,-1,615,638,0,0
-602,386,0,0,0,0,0,0,0,0,0,-1,622,638,0,0
-595,386,0,0,0,0,0,0,0,0,0,-1,629,638,0,0
-588,386,0,0,0,0,0,0,0,0,0,-1,636,638,0,0
-581,386,0,0,0,0,0,0,0,0,0,-1,643,638,0,0
-574,386,0,0,0,0,0,0,0,0,0,-1,650,638,0,0
-567,386,0,0,0,0,0,0,0,0,0,-1,657,638,0,0
-560,386,-3.97229,-5.13898,0,0,0,0,0,0,0,-1,664,638,-3.97232,5.13897
-553,386,-4.94244,-5.54309,0,0,0,0,0,0,0,-1,671,638,-4.94242,5.5431
-546,386,-1.78668,1.72827,0,0,0,0,0,0,0,-1,678,638,-1.78668,-1.72829
-539,386,-0.879456,-2.90009,0,0,0,0,0,0,0,-1,685,638,-0.879442,2.90008
-532,386,-5.4884,1.73328,0,0,0,0,0,0,0,-1,692,638,-5.4884,-1.73325
-525,386,-6.64148,-1.50604,0,0,0,0,0,0,0,-1,699,638,-6.64149,1.50603
-518,386,-7.68927,-2.40173,0,0,0,0,0,0,0,-1,706,638,-7.68929,2.4017
-511,386,-9.82495,-4.34442,0,0,0,0,0,0,0,-1,713,638,-9.82498,4.34441
-504,386,-10.039,-4.70227,0.000283447,0.00612289,-0.0025582,0.00708507,-0.000678731,-1.21105,0.00496511,0.0358718,720,638,-10.039,4.70226
-497,386,-10.129,-5.42432,0.000133959,0.00475122,-0.00185136,0.00540186,-0.000516683,-1.23284,0.00378524,0.0173429,727,638,-10.129,5.42433
-490,386,-10.0865,-6.0047,-1.80438e-05,0.00357009,-0.00126563,0.00397158,-0.000419541,-1.26361,0.00279807,0.0122927,734,638,-10.0865,6.00468
-483,386,-10.0585,-6.55438,0.000221861,0.00276302,-0.0011285,0.00319182,-0.000206939,-1.20767,0.00220011,0.0158963,741,638,-10.0585,6.55441
-476,386,-10.0568,-7.05762,0.000527186,0.00205363,-0.00101482,0.0025602,2.0618e-05,-1.10781,0.00169997,0.0150207,748,638,-10.0568,7.05762
-469,386,-10.1002,-7.53107,0.00083452,0.00153176,-0.000983954,0.00222703,0.000139252,-0.95565,0.00144051,0.0115463,755,638,-10.1001,7.53109
-462,386,-10.1283,-8.06653,0.00113654,0.000980372,-0.000904664,0.00196648,0.000150428,-0.742349,0.00126383,0.0116293,762,638,-10.1283,8.06656
-455,386,-10.1586,-8.58215,0.00145091,0.000382503,-0.000774482,0.00185756,-2.41413e-05,-0.483489,0.0012465,0.0134521,769,638,-10.1586,8.58213
-448,386,-10.1718,-9.10596,0.0016981,-0.000260826,-0.000495635,0.00181637,-0.000379089,-0.234229,0.00135507,0.0132597,776,638,-10.1718,9.10597
-441,386,-10.1909,-9.61493,0.00186953,-0.000819779,-0.000159966,0.00187901,-0.000829261,-0.0592041,0.0016023,0.0130461,783,638,-10.1909,9.61491
-434,386,-10.1417,-10.1552,0.00207804,-0.00164521,0.000301059,0.00210223,-0.00166939,0.0801651,0.00218232,0.0358521,790,638,-10.1417,10.1552
-427,386,-10.0906,-10.6743,0,0,0,0,0,0,0,-1,797,638,-10.0906,10.6742
-420,386,-10.225,-11.1224,0,0,0,0,0,0,0,-1,804,638,-10.225,11.1224
-413,386,-5.45691,-5.35785,0,0,0,0,0,0,0,-1,811,638,-5.45691,5.35783
-406,386,-4.51135,-4.10999,0,0,0,0,0,0,0,-1,818,638,-4.51135,4.10996
-399,386,-3.57117,-3.42126,0,0,0,0,0,0,0,-1,825,638,-3.57116,3.42129
-392,386,-4.00977,0.403625,0,0,0,0,0,0,0,-1,832,638,-4.0098,-0.403616
-385,386,-3.2406,-0.118469,0,0,0,0,0,0,0,-1,839,638,-3.24058,0.118485
-378,386,-2.55243,-1.22748,0,0,0,0,0,0,0,-1,846,638,-2.55243,1.22748
-371,386,-7.95807,-0.330261,0,0,0,0,0,0,0,-1,853,638,-7.95806,0.330284
-364,386,-8.90637,-0.665955,0,0,0,0,0,0,0,-1,860,638,-8.90635,0.665951
-357,386,-9.10364,-0.388733,0,0,0,0,0,0,0,-1,867,638,-9.10364,0.388744
-350,386,0,0,0,0,0,0,0,0,0,-1,874,638,0,0
-343,386,0,0,0,0,0,0,0,0,0,-1,881,638,0,0
-336,386,0,0,0,0,0,0,0,0,0,-1,888,638,0,0
-329,386,0,0,0,0,0,0,0,0,0,-1,895,638,0,0
-322,386,0,0,0,0,0,0,0,0,0,-1,902,638,0,0
-315,386,0,0,0,0,0,0,0,0,0,-1,909,638,0,0
-308,386,0,0,0,0,0,0,0,0,0,-1,916,638,0,0
-301,386,0,0,0,0,0,0,0,0,0,-1,923,638,0,0
-294,386,0,0,0,0,0,0,0,0,0,-1,930,638,0,0
-287,386,0,0,0,0,0,0,0,0,0,-1,937,638,0,0
-280,386,0,0,0,0,0,0,0,0,0,-1,944,638,0,0
-273,386,0,0,0,0,0,0,0,0,0,-1,951,638,0,0
-266,386,0,0,0,0,0,0,0,0,0,-1,958,638,0,0
-259,386,0,0,0,0,0,0,0,0,0,-1,965,638,0,0
-252,386,0,0,0,0,0,0,0,0,0,-1,972,638,0,0
-245,386,0,0,0,0,0,0,0,0,0,-1,979,638,0,0
-238,386,0,0,0,0,0,0,0,0,0,-1,986,638,0,0
-231,386,0,0,0,0,0,0,0,0,0,-1,993,638,0,0
-224,386,0,0,0,0,0,0,0,0,0,-1,1000,638,0,0
-217,386,0,0,0,0,0,0,0,0,0,-1,1007,638,0,0
-210,386,0,0,0,0,0,0,0,0,0,-1,1014,638,0,0
-203,386,0,0,0,0,0,0,0,0,0,-1,1021,638,0,0
-196,386,0,0,0,0,0,0,0,0,0,-1,1028,638,0,0
-189,386,0,0,0,0,0,0,0,0,0,-1,1035,638,0,0
-182,386,0,0,0,0,0,0,0,0,0,-1,1042,638,0,0
-175,386,0,0,0,0,0,0,0,0,0,-1,1049,638,0,0
-168,386,0,0,0,0,0,0,0,0,0,-1,1056,638,0,0
-161,386,0,0,0,0,0,0,0,0,0,-1,1063,638,0,0
-154,386,0,0,0,0,0,0,0,0,0,-1,1070,638,0,0
-147,386,0,0,0,0,0,0,0,0,0,-1,1077,638,0,0
-140,386,0,0,0,0,0,0,0,0,0,-1,1084,638,0,0
-133,386,0,0,0,0,0,0,0,0,0,-1,1091,638,0,0
-126,386,0,0,0,0,0,0,0,0,0,-1,1098,638,0,0
-119,386,0,0,0,0,0,0,0,0,0,-1,1105,638,0,0
-112,386,0,0,0,0,0,0,0,0,0,-1,1112,638,0,0
-105,386,0,0,0,0,0,0,0,0,0,-1,1119,638,0,0
-98,386,0,0,0,0,0,0,0,0,0,-1,1126,638,0,0
-91,386,0,0,0,0,0,0,0,0,0,-1,1133,638,0,0
-84,386,0,0,0,0,0,0,0,0,0,-1,1140,638,0,0
-77,386,0,0,0,0,0,0,0,0,0,-1,1147,638,0,0
-70,386,0,0,0,0,0,0,0,0,0,-1,1154,638,0,0
-63,386,0,0,0,0,0,0,0,0,0,-1,1161,638,0,0
-56,386,0,0,0,0,0,0,0,0,0,-1,1168,638,0,0
-49,386,0,0,0,0,0,0,0,0,0,-1,1175,638,0,0
-42,386,0,0,0,0,0,0,0,0,0,-1,1182,638,0,0
-35,386,0,0,0,0,0,0,0,0,0,-1,1189,638,0,0
-28,386,0,0,0,0,0,0,0,0,0,-1,1196,638,0,0
-21,386,0,0,0,0,0,0,0,0,0,-1,1203,638,0,0
-14,386,0,0,0,0,0,0,0,0,0,-1,1210,638,0,0
-7,386,0,0,0,0,0,0,0,0,0,-1,1217,638,0,0
0,386,0,0,0,0,0,0,0,0,0,-1,1224,638,0,0
7,386,0,0,0,0,0,0,0,0,0,-1,1231,638,0,0
14,386,0,0,0,0,0,0,0,0,0,-1,1238,638,0,0
21,386,0,0,0,0,0,0,0,0,0,-1,1245,638,0,0
28,386,0,0,0,0,0,0,0,0,0,-1,1252,638,0,0
35,386,0,0,0,0,0,0,0,0,0,-1,1259,638,0,0
42,386,0,0,0,0,0,0,0,0,0,-1,1266,638,0,0
49,386,0,0,0,0,0,0,0,0,0,-1,1273,638,0,0
56,386,0,0,0,0,0,0,0,0,0,-1,1280,638,0,0
63,386,0,0,0,0,0,0,0,0,0,-1,1287,638,0,0
70,386,0,0,0,0,0,0,0,0,0,-1,1294,638,0,0
77,386,0,0,0,0,0,0,0,0,0,-1,1301,638,0,0
84,386,0,0,0,0,0,0,0,0,0,-1,1308,638,0,0
91,386,0,0,0,0,0,0,0,0,0,-1,1315,638,0,0
98,386,0,0,0,0,0,0,0,0,0,-1,1322,638,0,0
105,386,0,0,0,0,0,0,0,0,0,-1,1329,638,0,0
112,386,0,0,0,0,0,0,0,0,0,-1,1336,638,0,0
119,386,0,0,0,0,0,0,0,0,0,-1,1343,638,0,0
126,386,0,0,0,0,0,0,0,0,0,-1,1350,638,0,0
133,386,0,0,0,0,0,0,0,0,0,-1,1357,638,0,0
140,386,0,0,0,0,0,0,0,0,0,-1,1364,638,0,0
147,386,0,0,0,0,0,0,0,0,0,-1,1371,638,0,0
154,386,0,0,0,0,0,0,0,0,0,-1,1378,638,0,0
161,386,0,0,0,0,0,0,0,0,0,-1,1385,638,0,0
168,386,0,0,0,0,0,0,0,0,0,-1,1392,638,0,0
175,386,0,0,0,0,0,0,0,0,0,-1,1399,638,0,0
182,386,0,0,0,0,0,0,0,0,0,-1,1406,638,0,0
189,386,0,0,0,0,0,0,0,0,0,-1,1413,638,0,0
196,386,0,0,0,0,0,0,0,0,0,-1,1420,638,0,0
203,386,0,0,0,0,0,0,0,0,0,-1,1427,638,0,0
210,386,0,0,0,0,0,0,0,0,0,-1,1434,638,0,0
217,386,0,0,0,0,0,0,0,0,0,-1,1441,638,0,0
224,386,0,0,0,0,0,0,0,0,0,-1,1448,638,0,0
231,386,0,0,0,0,0,0,0,0,0,-1,1455,638,0,0
238,386,0,0,0,0,0,0,0,0,0,-1,1462,638,0,0
245,386,0,0,0,0,0,0,0,0,0,-1,1469,638,0,0
252,386,0,0,0,0,0,0,0,0,0,-1,1476,638,0,0
259,386,0,0,0,0,0,0,0,0,0,-1,1483,638,0,0
266,386,0,0,0,0,0,0,0,0,0,-1,1490,638,0,0
273,386,0,0,0,0,0,0,0,0,0,-1,1497,638,0,0
280,386,0,0,0,0,0,0,0,0,0,-1,1504,638,0,0
287,386,0,0,0,0,0,0,0,0,0,-1,1511,638,0,0
294,386,0,0,0,0,0,0,0,0,0,-1,1518,638,0,0
301,386,0,0,0,0,0,0,0,0,0,-1,1525,638,0,0
308,386,0,0,0,0,0,0,0,0,0,-1,1532,638,0,0
315,386,0,0,0,0,0,0,0,0,0,-1,1539,638,0,0
322,386,0,0,0,0,0,0,0,0,0,-1,1546,638,0,0
329,386,0,0,0,0,0,0,0,0,0,-1,1553,638,0,0
336,386,0,0,0,0,0,0,0,0,0,-1,1560,638,0,0
343,386,0,0,0,0,0,0,0,0,0,-1,1567,638,0,0
350,386,0,0,0,0,0,0,0,0,0,-1,1574,638,0,0
357,386,0,0,0,0,0,0,0,0,0,-1,1581,638,0,0
364,386,0,0,0,0,0,0,0,0,0,-1,1588,638,0,0
371,386,0,0,0,0,0,0,0,0,0,-1,1595,638,0,0
378,386,0,0,0,0,0,0,0,0,0,-1,1602,638,0,0
385,386,0,0,0,0,0,0,0,0,0,-1,1609,638,0,0
392,386,0,0,0,0,0,0,0,0,0,-1,1616,638,0,0
399,386,0,0,0,0,0,0,0,0,0,-1,1623,638,0,0
406,386,0,0,0,0,0,0,0,0,0,-1,1630,638,0,0
413,386,0,0,0,0,0,0,0,0,0,-1,1637,638,0,0
420,386,0,0,0,0,0,0,0,0,0,-1,1644,638,0,0
427,386,0,0,0,0,0,0,0,0,0,-1,1651,638,0,0
434,386,0,0,0,0,0,0,0,0,0,-1,1658,638,0,0
441,386,0,0,0,0,0,0,0,0,0,-1,1665,638,0,0
448,386,0,0,0,0,0,0,0,0,0,-1,1672,638,0,0
455,386,0,0,0,0,0,0,0,0,0,-1,1679,638,0,0
462,386,0,0,0,0,0,0,0,0,0,-1,1686,638,0,0
469,386,9.84692,1.55804,0,0,0,0,0,0,0,-1,1693,638,9.84691,-1.55807
476,386,10.6145,0.986511,0,0,0,0,0,0,0,-1,1700,638,10.6145,-0.986529
483,386,11.4113,0.732971,0,0,0,0,0,0,0,-1,1707,638,11.4112,-0.732958
490,386,7.79785,1.79572,0,0,0,0,0,0,0,-1,1714,638,7.79788,-1.7957
497,386,8.96362,1.77081,0,0,0,0,0,0,0,-1,1721,638,8.96357,-1.77081
504,386,10.0555,1.69427,0,0,0,0,0,0,0,-1,1728,638,10.0555,-1.69426
511,386,11.2172,1.534,0,0,0,0,0,0,0,-1,1735,638,11.2172,-1.53398
518,386,7.41553,1.75238,0,0,0,0,0,0,0,-1,1742,638,7.41547,-1.75238
525,386,8.82422,-1.1449,0,0,0,0,0,0,0,-1,1749,638,8.82426,1.14492
532,386,10.6432,0.617371,0,0,0,0,0,0,0,-1,1756,638,10.6432,-0.617359
539,386,9.62061,-0.393616,0,0,0,0,0,0,0,-1,1763,638,9.62059,0.393634
546,386,10.7963,-2.854,0,0,0,0,0,0,0,-1,1770,638,10.7962,2.854
553,386,16.9939,-7.27942,0,0,0,0,0,0,0,-1,1777,638,16.9939,7.27944
560,386,19.7524,-8.76471,0,0,0,0,0,0,0,-1,1784,638,19.7524,8.76473
567,386,19.7756,-7.96252,0.00602537,-0.000525293,0.00130255,0.00627487,-0.000774792,0.189255,0.00446398,0.0258197,1791,638,19.7756,7.96252
574,386,19.849,-7.41479,0.00451195,-0.000308348,0.000957745,0.00469527,-0.000491671,0.189123,0.00330628,0.0144232,1798,638,19.849,7.41481
581,386,19.8086,-6.901,0.00319668,0.00021811,0.000812792,0.00340403,1.07507e-05,0.249791,0.00226578,0.0139587,1805,638,19.8086,6.901
588,386,19.8209,-6.35718,0.0021115,0.000948119,0.000852378,0.00256175,0.000497863,0.48598,0.00156845,0.0129784,1812,638,19.821,6.35718
595,386,19.8037,-5.83575,0.00140801,0.00195396,0.00114903,0.002862,0.000499976,0.902021,0.00176511,0.0140789,1819,638,19.8037,5.83574
602,386,19.7662,-5.27124,0.0010373,0.00322601,0.0016923,0.00414697,0.000116342,1.07241,0.00272669,0.0158288,1826,638,19.7663,5.27122
609,386,19.771,-4.71271,0.000855532,0.00466856,0.00237368,0.00580657,-0.000282478,1.12374,0.00396856,0.0152631,1833,638,19.7711,4.71273
616,386,19.7491,-4.18549,0.00107286,0.00630848,0.00330235,0.00790475,-0.000523404,1.12054,0.00545268,0.0119393,1840,638,19.7492,4.18547
623,386,19.7065,-3.64063,0.00179215,0.00806973,0.00449493,0.0104133,-0.000551425,1.09019,0.00713312,0.0107046,1847,638,19.7065,3.64062
630,386,19.8159,-3.05438,0.00286874,0.00996168,0.00587226,0.0132753,-0.000444885,1.05705,0.00900216,0.0358847,1854,638,19.816,3.05437
637,386,20.0044,-2.44702,0,0,0,0,0,0,0,-1,1861,638,20.0044,2.447
644,386,11.6521,0.723328,0,0,0,0,0,0,0,-1,1868,638,11.6521,-0.723355
651,386,9.3866,1.31097,0,0,0,0,0,0,0,-1,1875,638,9.3866,-1.31095
658,386,12.0731,-0.00415039,0,0,0,0,0,0,0,-1,1882,638,12.0731,0.00412803
665,386,6.33167,1.78601,0,0,0,0,0,0,0,-1,1889,638,6.33171,-1.78601
672,386,7.23352,2.14435,0,0,0,0,0,0,0,-1,1896,638,7.23353,-2.14433
679,386,8.07764,2.57104,0,0,0,0,0,0,0,-1,1903,638,8.07758,-2.57103
686,386,0,0,0,0,0,0,0,0,0,-1,1910,638,0,0
693,386,0,0,0,0,0,0,0,0,0,-1,1917,638,0,0
700,386,0,0,0,0,0,0,0,0,0,-1,1924,638,0,0
707,386,0,0,0,0,0,0,0,0,0,-1,1931,638,0,0
714,386,0,0,0,0,0,0,0,0,0,-1,1938,638,0,0
721,386,0,0,0,0,0,0,0,0,0,-1,1945,638,0,0
728,386,0,0,0,0,0,0,0,0,0,-1,1952,638,0,0
735,386,0,0,0,0,0,0,0,0,0,-1,1959,638,0,0
742,386,0,0,0,0,0,0,0,0,0,-1,1966,638,0,0
749,386,0,0,0,0,0,0,0,0,0,-1,1973,638,0,0
756,386,0,0,0,0,0,0,0,0,0,-1,1980,638,0,0
763,386,0,0,0,0,0,0,0,0,0,-1,1987,638,0,0
770,386,0,0,0,0,0,0,0,0,0,-1,1994,638,0,0
777,386,0,0,0,0,0,0,0,0,0,-1,2001,638,0,0
784,386,0,0,0,0,0,0,0,0,0,-1,2008,638,0,0
791,386,0,0,0,0,0,0,0,0,0,-1,2015,638,0,0
798,386,0,0,0,0,0,0,0,0,0,-1,2022,638,0,0
805,386,0,0,0,0,0,0,0,0,0,-1,2029,638,0,0
812,386,0,0,0,0,0,0,0,0,0,-1,2036,638,0,0
-700,379,0,0,0,0,0,0,0,0,0,-1,524,645,0,0
-693,379,0,0,0,0,0,0,0,0,0,-1,531,645,0,0
-686,379,0,0,0,0,0,0,0,0,0,-1,538,645,0,0
-679,379,0,0,0,0,0,0,0,0,0,-1,545,645,0,0
-672,379,0,0,0,0,0,0,0,0,0,-1,552,645,0,0
-665,379,0,0,0,0,0,0,0,0,0,-1,559,645,0,0
-658,379,0,0,0,0,0,0,0,0,0,-1,566,645,0,0
-651,379,0,0,0,0,0,0,0,0,0,-1,573,645,0,0
-644,379,0,0,0,0,0,0,0,0,0,-1,580,645,0,0
-637,379,0,0,0,0,0,0,0,0,0,-1,587,645,0,0
-630,379,0,0,0,0,0,0,0,0,0,-1,594,645,0,0
-623,379,0,0,0,0,0,0,0,0,0,-1,601,645,0,0
-616,379,0,0,0,0,0,0,0,0,0,-1,608,645,0,0
-609,379,0,0,0,0,0,0,0,0,0,-1,615,645,0,0
-602,379,0,0,0,0,0,0,0,0,0,-1,622,645,0,0
-595,379,0,0,0,0,0,0,0,0,0,-1,629,645,0,0
-588,379,0,0,0,0,0,0,0,0,0,-1,636,645,0,0
-581,379,0,0,0,0,0,0,0,0,0,-1,643,645,0,0
-574,379,0,0,0,0,0,0,0,0,0,-1,650,645,0,0
-567,379,-8.78058,0.59668,0,0,0,0,0,0,0,-1,657,645,-8.7806,-0.596692
-560,379,-9.53485,-0.211304,0,0,0,0,0,0,0,-1,664,645,-9.53487,0.211282
-553,379,-5.17108,-4.53119,0,0,0,0,0,0,0,-1,671,645,-5.17106,4.53117
-546,379,-6.23053,-4.92102,0,0,0,0,0,0,0,-1,678,645,-6.23054,4.92105
-539,379,-0.71698,-2.19427,0,0,0,0,0,0,0,-1,685,645,-0.716959,2.19427
-532,379,-7.69611,0.217224,0,0,0,0,0,0,0,-1,692,645,-7.69614,-0.217204
-525,379,-7.09833,-1.13043,0,0,0,0,0,0,0,-1,699,645,-7.0983,1.13041
-518,379,-10.5613,-3.82849,0,0,0,0,0,0,0,-1,706,645,-10.5613,3.82849
-511,379,-10.3922,-4.49774,0.000922399,0.00620156,-0.00320884,0.00771698,-0.000593022,-1.12958,0.00535329,0.0467716,713,645,-10.3922,4.49775
-504,379,-10.5389,-4.96167,0.000470058,0.004783,-0.00205634,0.00560628,-0.000353221,-1.18998,0.00386065,0.0249176,720,645,-10.5389,4.96169
-497,379,-10.5997,-5.44293,0.0003425,0.00365234,-0.00139858,0.00416417,-0.000169324,-1.21997,0.00283424,0.0128186,727,645,-10.5998,5.44294
-490,379,-10.6058,-5.98615,0.000178776,0.0026427,-0.000832746,0.00289775,-7.6271e-05,-1.2736,0.00195775,0.0114563,734,645,-10.6058,5.98615
-483,379,-10.5986,-6.52368,0.000487233,0.00205823,-0.000800441,0.00239421,0.000151254,-1.17339,0.00154819,0.0129743,741,645,-10.5986,6.52369
-476,379,-10.6,-7.00116,0.00084924,0.00154099,-0.000796685,0.00206364,0.00032659,-0.990193,0.00128085,0.0128148,748,645,-10.6,7.00113
-469,379,-10.6341,-7.48444,0.00119829,0.0011974,-0.00088264,0.00208048,0.000315205,-0.785145,0.00129477,0.0119859,755,645,-10.6341,7.48441
-462,379,-10.6659,-8.03204,0.00154892,0.000816191,-0.000934888,0.00218667,0.000178445,-0.598654,0.00140209,0.0098591,762,645,-10.6659,8.03206
-455,379,-10.6949,-8.54974,0.00190719,0.000348634,-0.000918484,0.00233244,-7.66156e-05,-0.433604,0.00158112,0.0100749,769,645,-10.695,8.54973
-448,379,-10.6914,-9.02905,0.00220653,-7.14687e-05,-0.000817026,0.00246926,-0.000334201,-0.311128,0.00176813,0.0122735,776,645,-10.6914,9.02908
-441,379,-10.6754,-9.58893,0.00249399,-0.000396942,-0.00070663,0.00265747,-0.000560419,-0.227348,0.001985,0.0230216,783,645,-10.6754,9.58895
-434,379,-10.4928,-10.2309,0,0,0,0,0,0,0,-1,790,645,-10.4928,10.2309
-427,379,-4.16113,-4.13452,0,0,0,0,0,0,0,-1,797,645,-4.16116,4.1345
-420,379,-4.63953,-3.46869,0,0,0,0,0,0,0,-1,804,645,-4.63953,3.46872
-413,379,-4.62543,-3.7912,0,0,0,0,0,0,0,-1,811,645,-4.62541,3.79123
-406,379,-4.64063,-4.38489,0,0,0,0,0,0,0,-1,818,645,-4.64065,4.3849
-399,379,-2.93536,-1.40118,0,0,0,0,0,0,0,-1,825,645,-2.93534,1.40119
-392,379,-4.16711,-0.466003,0,0,0,0,0,0,0,-1,832,645,-4.16714,0.465992
-385,379,-3.51862,0.441101,0,0,0,0,0,0,0,-1,839,645,-3.51859,-0.441072
-378,379,-5.3504,0.212219,0,0,0,0,0,0,0,-1,846,645,-5.35038,-0.212241
-371,379,-4.32092,-0.186707,0,0,0,0,0,0,0,-1,853,645,-4.3209,0.186707
-364,379,-3.40887,-0.549805,0,0,0,0,0,0,0,-1,860,645,-3.4089,0.549802
-357,379,0,0,0,0,0,0,0,0,0,-1,867,645,0,0
-350,379,0,0,0,0,0,0,0,0,0,-1,874,645,0,0
-343,379,0,0,0,0,0,0,0,0,0,-1,881,645,0,0
-336,379,0,0,0,0,0,0,0,0,0,-1,888,645,0,0
-329,379,0,0,0,0,0,0,0,0,0,-1,895,645,0,0
-322,379,0,0,0,0,0,0,0,0,0,-1,902,645,0,0
-315,379,0,0,0,0,0,0,0,0,0,-1,909,645,0,0
-308,379,0,0,0,0,0,0,0,0,0,-1,916,645,0,0
-301,379,0,0,0,0,0,0,0,0,0,-1,923,645,0,0
-294,379,0,0,0,0,0,0,0,0,0,-1,930,645,0,0
-287,379,0,0,0,0,0,0,0,0,0,-1,937,645,0,0
-280,379,0,0,0,0,0,0,0,0,0,-1,944,645,0,0
-273,379,0,0,0,0,0,0,0,0,0,-1,951,645,0,0
-266,379,0,0,0,0,0,0,0,0,0,-1,958,645,0,0
-259,379,0,0,0,0,0,0,0,0,0,-1,965,645,0,0
-252,379,0,0,0,0,0,0,0,0,0,-1,972,645,0,0
-245,379,0,0,0,0,0,0,0,0,0,-1,979,645,0,0
-238,379,0,0,0,0,0,0,0,0,0,-1,986,645,0,0
-231,379,0,0,0,0,0,0,0,0,0,-1,993,645,0,0
-224,379,0,0,0,0,0,0,0,0,0,-1,1000,645,0,0
-217,379,0,0,0,0,0,0,0,0,0,-1,1007,645,0,0
-210,379,0,0,0,0,0,0,0,0,0,-1,1014,645,0,0
-203,379,0,0,0,0,0,0,0,0,0,-1,1021,645,0,0
-196,379,0,0,0,0,0,0,0,0,0,-1,1028,645,0,0
-189,379,0,0,0,0,0,0,0,0,0,-1,1035,645,0,0
-182,379,0,0,0,0,0,0,0,0,0,-1,1042,645,0,0
-175,379,0,0,0,0,0,0,0,0,0,-1,1049,645,0,0
-168,379,0,0,0,0,0,0,0,0,0,-1,1056,645,0,0
-161,379,0,0,0,0,0,0,0,0,0,-1,1063,645,0,0
-154,379,0,0,0,0,0,0,0,0,0,-1,1070,645,0,0
-147,379,0,0,0,0,0,0,0,0,0,-1,1077,645,0,0
-140,379,0,0,0,0,0,0,0,0,0,-1,1084,645,0,0
-133,379,0,0,0,0,0,0,0,0,0,-1,1091,645,0,0
-126,379,0,0,0,0,0,0,0,0,0,-1,1098,645,0,0
-119,379,0,0,0,0,0,0,0,0,0,-1,1105,645,0,0
-112,379,0,0,0,0,0,0,0,0,0,-1,1112,645,0,0
-105,379,0,0,0,0,0,0,0,0,0,-1,1119,645,0,0
-98,379,0,0,0,0,0,0,0,0,0,-1,1126,645,0,0
-91,379,0,0,0,0,0,0,0,0,0,-1,1133,645,0,0
-84,379,0,0,0,0,0,0,0,0,0,-1,1140,645,0,0
-77,379,0,0,0,0,0,0,0,0,0,-1,1147,645,0,0
-70,379,0,0,0,0,0,0,0,0,0,-1,1154,645,0,0
-63,379,0,0,0,0,0,0,0,0,0,-1,1161,645,0,0
-56,379,0,0,0,0,0,0,0,0,0,-1,1168,645,0,0
-49,379,0,0,0,0,0,0,0,0,0,-1,1175,645,0,0
-42,379,0,0,0,0,0,0,0,0,0,-1,1182,645,0,0
-35,379,0,0,0,0,0,0,0,0,0,-1,1189,645,0,0
-28,379,0,0,0,0,0,0,0,0,0,-1,1196,645,0,0
-21,379,0,0,0,0,0,0,0,0,0,-1,1203,645,0,0
-14,379,0,0,0,0,0,0,0,0,0,-1,1210,645,0,0
-7,379,0,0,0,0,0,0,0,0,0,-1,1217,645,0,0
0,379,0,0,0,0,0,0,0,0,0,-1,1224,645,0,0
7,379,0,0,0,0,0,0,0,0,0,-1,1231,645,0,0
14,379,0,0,0,0,0,0,0,0,0,-1,1238,645,0,0
21,379,0,0,0,0,0,0,0,0,0,-1,1245,645,0,0
28,379,0,0,0,0,0,0,0,0,0,-1,1252,645,0,0
35,379,0,0,0,0,0,0,0,0,0,-1,1259,645,0,0
42,379,0,0,0,0,0,0,0,0,0,-1,1266,645,0,0
49,379,0,0,0,0,0,0,0,0,0,-1,1273,645,0,0
56,379,0,0,0,0,0,0,0,0,0,-1,1280,645,0,0
63,379,0,0,0,0,0,0,0,0,0,-1,1287,645,0,0
70,379,0,0,0,0,0,0,0,0,0,-1,1294,645,0,0
77,379,0,0,0,0,0,0,0,0,0,-1,1301,645,0,0
84,379,0,0,0,0,0,0,0,0,0,-1,1308,645,0,0
91,379,0,0,0,0,0,0,0,0,0,-1,1315,645,0,0
98,379,0,0,0,0,0,0,0,0,0,-1,1322,645,0,0
105,379,0,0,0,0,0,0,0,0,0,-1,1329,645,0,0
112,379,0,0,0,0,0,0,0,0,0,-1,1336,645,0,0
119,379,0,0,0,0,0,0,0,0,0,-1,1343,645,0,0
126,379,0,0,0,0,0,0,0,0,0,-1,1350,645,0,0
133,379,0,0,0,0,0,0,0,0,0,-1,1357,645,0,0
140,379,0,0,0,0,0,0,0,0,0,-1,1364,645,0,0
147,379,0,0,0,0,0,0,0,0,0,-1,1371,645,0,0
154,379,0,0,0,0,0,0,0,0,0,-1,1378,645,0,0
161,379,0,0,0,0,0,0,0,0,0,-1,1385,645,0,0
168,379,0,0,0,0,0,0,0,0,0,-1,1392,645,0,0
175,379,0,0,0,0,0,0,0,0,0,-1,1399,645,0,0
182,379,0,0,0,0,0,0,0,0,0,-1,1406,645,0,0
189,379,0,0,0,0,0,0,0,0,0,-1,1413,645,0,0
196,379,0,0,0,0,0,0,0,0,0,-1,1420,645,0,0
203,379,0,0,0,0,0,0,0,0,0,-1,1427,645,0,0
210,379,0,0,0,0,0,0,0,0,0,-1,1434,645,0,0
217,379,0,0,0,0,0,0,0,0,0,-1,1441,645,0,0
224,379,0,0,0,0,0,0,0,0,0,-1,1448,645,0,0
231,379,0,0,0,0,0,0,0,0,0,-1,1455,645,0,0
238,379,0,0,0,0,0,0,0,0,0,-1,1462,645,0,0
245,379,0,0,0,0,0,0,0,0,0,-1,1469,645,0,0
252,379,0,0,0,0,0,0,0,0,0,-1,1476,645,0,0
259,379,0,0,0,0,0,0,0,0,0,-1,1483,645,0,0
266,379,0,0,0,0,0,0,0,0,0,-1,1490,645,0,0
273,379,0,0,0,0,0,0,0,0,0,-1,1497,645,0,0
280,379,0,0,0,0,0,0,0,0,0,-1,1504,645,0,0
287,379,0,0,0,0,0,0,0,0,0,-1,1511,645,0,0
294,379,0,0,0,0,0,0,0,0,0,-1,1518,645,0,0
301,379,0,0,0,0,0,0,0,0,0,-1,1525,645,0,0
308,379,0,0,0,0,0,0,0,0,0,-1,1532,645,0,0
315,379,0,0,0,0,0,0,0,0,0,-1,1539,645,0,0
322,379,0,0,0,0,0,0,0,0,0,-1,1546,645,0,0
329,379,0,0,0,0,0,0,0,0,0,-1,1553,645,0,0
336,379,0,0,0,0,0,0,0,0,0,-1,1560,645,0,0
343,379,0,0,0,0,0,0,0,0,0,-1,1567,645,0,0
350,379,0,0,0,0,0,0,0,0,0,-1,1574,645,0,0
357,379,0,0,0,0,0,0,0,0,0,-1,1581,645,0,0
364,379,0,0,0,0,0,0,0,0,0,-1,1588,645,0,0
371,379,0,0,0,0,0,0,0,0,0,-1,1595,645,0,0
378,379,0,0,0,0,0,0,0,0,0,-1,1602,645,0,0
385,379,0,0,0,0,0,0,0,0,0,-1,1609,645,0,0
392,379,0,0,0,0,0,0,0,0,0,-1,1616,645,0,0
399,379,0,0,0,0,0,0,0,0,0,-1,1623,645,0,0
406,379,0,0,0,0,0,0,0,0,0,-1,1630,645,0,0
413,379,0,0,0,0,0,0,0,0,0,-1,1637,645,0,0
420,379,0,0,0,0,0,0,0,0,0,-1,1644,645,0,0
427,379,0,0,0,0,0,0,0,0,0,-1,1651,645,0,0
434,379,0,0,0,0,0,0,0,0,0,-1,1658,645,0,0
441,379,0,0,0,0,0,0,0,0,0,-1,1665,645,0,0
448,379,0,0,0,0,0,0,0,0,0,-1,1672,645,0,0
455,379,0,0,0,0,0,0,0,0,0,-1,1679,645,0,0
462,379,0,0,0,0,0,0,0,0,0,-1,1686,645,0,0
469,379,0,0,0,0,0,0,0,0,0,-1,1693,645,0,0
476,379,11.1787,0.830383,0,0,0,0,0,0,0,-1,1700,645,11.1787,-0.830365
483,379,7.4231,1.54321,0,0,0,0,0,0,0,-1,1707,645,7.42314,-1.54324
490,379,8.52881,1.56677,0,0,0,0,0,0,0,-1,1714,645,8.52878,-1.56677
497,379,9.63599,1.49573,0,0,0,0,0,0,0,-1,1721,645,9.63604,-1.4957
504,379,10.0833,1.35229,0,0,0,0,0,0,0,-1,1728,645,10.0832,-1.35227
511,379,8.14343,1.59912,0,0,0,0,0,0,0,-1,1735,645,8.14347,-1.59912
518,379,12.7955,-0.324097,0,0,0,0,0,0,0,-1,1742,645,12.7955,0.324101
525,379,6.03711,1.10352,0,0,0,0,0,0,0,-1,1749,645,6.03711,-1.10351
532,379,8.70947,0.887817,0,0,0,0,0,0,0,-1,1756,645,8.70953,-0.887808
539,379,9.87097,0.111389,0,0,0,0,0,0,0,-1,1763,645,9.87095,-0.111395
546,379,8.42383,-0.730652,0,0,0,0,0,0,0,-1,1770,645,8.42378,0.730638
553,379,19.2905,-7.67834,0,0,0,0,0,0,0,-1,1777,645,19.2905,7.67837
560,379,20.0652,-8.46729,0,0,0,0,0,0,0,-1,1784,645,20.0652,8.46728
567,379,20.215,-7.91827,0.00710514,-0.00105187,0.00134058,0.00731982,-0.00126654,0.158785,0.00535224,0.0330332,1791,645,20.215,7.91824
574,379,20.3914,-7.39954,0.00535901,-0.000785721,0.000941322,0.00549998,-0.00092669,0.148651,0.00401139,0.0131264,1798,645,20.3913,7.39956
581,379,20.374,-6.87427,0.00391949,-0.000255399,0.000740383,0.0040469,-0.000382812,0.170421,0.00283417,0.0142878,1805,645,20.374,6.87428
588,379,20.3851,-6.32947,0.00278638,0.0003856,0.000731344,0.00299162,0.000180359,0.273598,0.0019371,0.0170812,1812,645,20.3851,6.32949
595,379,20.3446,-5.81989,0.00204655,0.00122816,0.000933874,0.00265694,0.000617769,0.578913,0.00160549,0.0144636,1819,645,20.3446,5.81991
602,379,20.295,-5.28607,0.00168093,0.00229831,0.00138738,0.00341093,0.000568315,0.894863,0.00211018,0.0143803,1826,645,20.295,5.28609
609,379,20.2881,-4.74158,0.0014984,0.00346761,0.00195108,0.00466845,0.000297565,1.01908,0.003018,0.0156006,1833,645,20.2881,4.74158
616,379,20.2571,-4.19916,0.00168097,0.00474804,0.00272331,0.0063399,8.91064e-05,1.04183,0.00419722,0.0129753,1840,645,20.2571,4.19914
623,379,20.2505,-3.61395,0.00218377,0.00607521,0.00367091,0.00828418,-2.51955e-05,1.02909,0.0055312,0.0117343,1847,645,20.2505,3.61393
630,379,20.2168,-3.07153,0.00284596,0.0074194,0.00472198,0.0103792,-0.000113861,1.01089,0.00695774,0.013802,1854,645,20.2168,3.07155
637,379,20.2196,-2.43262,0.00363259,0.00887251,0.00593021,0.0127357,-0.000230631,0.993405,0.0085684,0.0388788,1861,645,20.2196,2.43264
644,379,20.4026,-1.69287,0,0,0,0,0,0,0,-1,1868,645,20.4026,1.69285
651,379,12.9515,0.220825,0,0,0,0,0,0,0,-1,1875,645,12.9515,-0.220814
658,379,13.7498,0.37439,0,0,0,0,0,0,0,-1,1882,645,13.7498,-0.374371
665,379,11.9719,0.353333,0,0,0,0,0,0,0,-1,1889,645,11.9719,-0.353321
672,379,7.57605,2.15326,0,0,0,0,0,0,0,-1,1896,645,7.57599,-2.15326
679,379,8.55078,2.50409,0,0,0,0,0,0,0,-1,1903,645,8.55073,-2.50406
686,379,0,0,0,0,0,0,0,0,0,-1,1910,645,0,0
693,379,0,0,0,0,0,0,0,0,0,-1,1917,645,0,0
700,379,0,0,0,0,0,0,0,0,0,-1,1924,645,0,0
707,379,0,0,0,0,0,0,0,0,0,-1,1931,645,0,0
714,379,0,0,0,0,0,0,0,0,0,-1,1938,645,0,0
721,379,0,0,0,0,0,0,0,0,0,-1,1945,645,0,0
728,379,0,0,0,0,0,0,0,0,0,-1,1952,645,0,0
735,379,0,0,0,0,0,0,0,0,0,-1,1959,645,0,0
742,379,0,0,0,0,0,0,0,0,0,-1,1966,645,0,0
749,379,0,0,0,0,0,0,0,0,0,-1,1973,645,0,0
756,379,0,0,0,0,0,0,0,0,0,-1,1980,645,0,0
763,379,0,0,0,0,0,0,0,0,0,-1,1987,645,0,0
770,379,0,0,0,0,0,0,0,0,0,-1,1994,645,0,0
777,379,0,0,0,0,0,0,0,0,0,-1,2001,645,0,0
784,379,0,0,0,0,0,0,0,0,0,-1,2008,645,0,0
791,379,0,0,0,0,0,0,0,0,0,-1,2015,645,0,0
798,379,0,0,0,0,0,0,0,0,0,-1,2022,645,0,0
805,379,0,0,0,0,0,0,0,0,0,-1,2029,645,0,0
812,379,0,0,0,0,0,0,0,0,0,-1,2036,645,0,0
-700,372,0,0,0,0,0,0,0,0,0,-1,524,652,0,0
-693,372,0,0,0,0,0,0,0,0,0,-1,531,652,0,0
-686,372,0,0,0,0,0,0,0,0,0,-1,538,652,0,0
-679,372,0,0,0,0,0,0,0,0,0,-1,545,652,0,0
-672,372,0,0,0,0,0,0,0,0,0,-1,552,652,0,0
-665,372,0,0,0,0,0,0,0,0,0,-1,559,652,0,0
-658,372,0,0,0,0,0,0,0,0,0,-1,566,652,0,0
-651,372,0,0,0,0,0,0,0,0,0,-1,573,652,0,0
-644,372,0,0,0,0,0,0,0,0,0,-1,580,652,0,0
-637,372,0,0,0,0,0,0,0,0,0,-1,587,652,0,0
-630,372,0,0,0,0,0,0,0,0,0,-1,594,652,0,0
-623,372,0,0,0,0,0,0,0,0,0,-1,601,652,0,0
-616,372,0,0,0,0,0,0,0,0,0,-1,608,652,0,0
-609,372,0,0,0,0,0,0,0,0,0,-1,615,652,0,0
-602,372,0,0,0,0,0,0,0,0,0,-1,622,652,0,0
-595,372,0,0,0,0,0,0,0,0,0,-1,629,652,0,0
-588,372,0,0,0,0,0,0,0,0,0,-1,636,652,0,0
-581,372,0,0,0,0,0,0,0,0,0,-1,643,652,0,0
-574,372,0,0,0,0,0,0,0,0,0,-1,650,652,0,0
-567,372,-7.93744,0.73407,0,0,0,0,0,0,0,-1,657,652,-7.93741,-0.734076
-560,372,-8.78552,-0.158203,0,0,0,0,0,0,0,-1,664,652,-8.78552,0.158216
-553,372,-7.95551,1.61694,0,0,0,0,0,0,0,-1,671,652,-7.95552,-1.61697
-546,372,-4.2403,-3.75372,0,0,0,0,0,0,0,-1,678,652,-4.24028,3.75369
-539,372,-7.92285,-0.0650024,0,0,0,0,0,0,0,-1,685,652,-7.92287,0.0649772
-532,372,-8.59589,-0.419556,0,0,0,0,0,0,0,-1,692,652,-8.59591,0.419539
-525,372,-8.03674,-1.36804,0,0,0,0,0,0,0,-1,699,652,-8.03676,1.36806
-518,372,-11.1232,-3.77307,0,0,0,0,0,0,0,-1,706,652,-11.1233,3.77309
-511,372,-11.0754,-4.41412,0.00118666,0.00488792,-0.00283727,0.00642476,-0.000350179,-1.07438,0.00440454,0.0306379,713,652,-11.0754,4.41412
-504,372,-11.0889,-4.89362,0.000744777,0.00370723,-0.00179912,0.00455643,-0.000104419,-1.12979,0.00307302,0.0150423,720,652,-11.0889,4.89361
-497,372,-11.0821,-5.42957,0.000642672,0.00282571,-0.00122149,0.00337232,9.60652e-05,-1.15003,0.00221689,0.0112987,727,652,-11.0821,5.42956
-490,372,-11.118,-5.95374,0.000468714,0.00196125,-0.000697491,0.00223646,0.000193508,-1.19498,0.00143084,0.0124519,734,652,-11.118,5.95375
-483,372,-11.13,-6.47107,0.000827614,0.00155172,-0.000739395,0.00201295,0.000366389,-1.01307,0.00123804,0.0124793,741,652,-11.13,6.47105
-476,372,-11.1085,-6.95667,0.0012266,0.0012042,-0.000807917,0.00202339,0.000407405,-0.778464,0.00123572,0.0131544,748,652,-11.1084,6.95664
-469,372,-11.1459,-7.45435,0.00159567,0.00101132,-0.000959926,0.0023069,0.000300087,-0.637665,0.0014483,0.0112901,755,652,-11.1459,7.45434
-462,372,-11.1777,-8.00867,0.00197071,0.000793719,-0.00108609,0.0026175,0.000146931,-0.537118,0.00169814,0.0105537,762,652,-11.1777,8.00864
-455,372,-11.2072,-8.53015,0.00234771,0.000455952,-0.00111607,0.00286481,-6.11435e-05,-0.433875,0.00193057,0.0102905,769,652,-11.2072,8.53013
-448,372,-11.2054,-9.01331,0.00266985,0.000294827,-0.00114029,0.00312868,-0.000164002,-0.382557,0.00214254,0.0123746,776,652,-11.2055,9.01328
-441,372,-11.1589,-9.57513,0,0,0,0,0,0,0,-1,783,652,-11.1589,9.57514
-434,372,-9.86865,-9.68494,0,0,0,0,0,0,0,-1,790,652,-9.86863,9.68492
-427,372,-4.54248,-3.56268,0,0,0,0,0,0,0,-1,797,652,-4.54247,3.56266
-420,372,-4.66168,-2.93597,0,0,0,0,0,0,0,-1,804,652,-4.66166,2.93599
-413,372,-4.74762,-3.29541,0,0,0,0,0,0,0,-1,811,652,-4.74763,3.29542
-406,372,-0.885437,-0.583923,0,0,0,0,0,0,0,-1,818,652,-0.885437,0.5839
-399,372,-3.97357,-0.825012,0,0,0,0,0,0,0,-1,825,652,-3.97359,0.825037
-392,372,-7.64337,0.173035,0,0,0,0,0,0,0,-1,832,652,-7.64337,-0.173019
-385,372,-6.48871,-0.0271606,0,0,0,0,0,0,0,-1,839,652,-6.48874,0.0271353
-378,372,-5.33044,-0.242432,0,0,0,0,0,0,0,-1,846,652,-5.33042,0.242457
-371,372,-4.40802,-0.495667,0,0,0,0,0,0,0,-1,853,652,-4.40802,0.495661
-364,372,0,0,0,0,0,0,0,0,0,-1,860,652,0,0
-357,372,0,0,0,0,0,0,0,0,0,-1,867,652,0,0
-350,372,0,0,0,0,0,0,0,0,0,-1,874,652,0,0
-343,372,0,0,0,0,0,0,0,0,0,-1,881,652,0,0
-336,372,0,0,0,0,0,0,0,0,0,-1,888,652,0,0
-329,372,0,0,0,0,0,0,0,0,0,-1,895,652,0,0
-322,372,0,0,0,0,0,0,0,0,0,-1,902,652,0,0
-315,372,0,0,0,0,0,0,0,0,0,-1,909,652,0,0
-308,372,0,0,0,0,0,0,0,0,0,-1,916,652,0,0
-301,372,0,0,0,0,0,0,0,0,0,-1,923,652,0,0
-294,372,0,0,0,0,0,0,0,0,0,-1,930,652,0,0
-287,372,0,0,0,0,0,0,0,0,0,-1,937,652,0,0
-280,372,0,0,0,0,0,0,0,0,0,-1,944,652,0,0
-273,372,0,0,0,0,0,0,0,0,0,-1,951,652,0,0
-266,372,0,0,0,0,0,0,0,0,0,-1,958,652,0,0
-259,372,0,0,0,0,0,0,0,0,0,-1,965,652,0,0
-252,372,0,0,0,0,0,0,0,0,0,-1,972,652,0,0
-245,372,0,0,0,0,0,0,0,0,0,-1,979,652,0,0
-238,372,0,0,0,0,0,0,0,0,0,-1,986,652,0,0
-231,372,0,0,0,0,0,0,0,0,0,-1,993,652,0,0
-224,372,0,0,0,0,0,0,0,0,0,-1,1000,652,0,0
-217,372,0,0,0,0,0,0,0,0,0,-1,1007,652,0,0
-210,372,0,0,0,0,0,0,0,0,0,-1,1014,652,0,0
-203,372,0,0,0,0,0,0,0,0,0,-1,1021,652,0,0
-196,372,0,0,0,0,0,0,0,0,0,-1,1028,652,0,0
-189,372,0,0,0,0,0,0,0,0,0,-1,1035,652,0,0
-182,372,0,0,0,0,0,0,0,0,0,-1,1042,652,0,0
-175,372,0,0,0,0,0,0,0,0,0,-1,1049,652,0,0
-168,372,0,0,0,0,0,0,0,0,0,-1,1056,652,0,0
-161,372,0,0,0,0,0,0,0,0,0,-1,1063,652,0,0
-154,372,0,0,0,0,0,0,0,0,0,-1,1070,652,0,0
-147,372,0,0,0,0,0,0,0,0,0,-1,1077,652,0,0
-140,372,0,0,0,0,0,0,0,0,0,-1,1084,652,0,0
-133,372,0,0,0,0,0,0,0,0,0,-1,1091,652,0,0
-126,372,0,0,0,0,0,0,0,0,0,-1,1098,652,0,0
-119,372,0,0,0,0,0,0,0,0,0,-1,1105,652,0,0
-112,372,0,0,0,0,0,0,0,0,0,-1,1112,652,0,0
-105,372,0,0,0,0,0,0,0,0,0,-1,1119,652,0,0
-98,372,0,0,0,0,0,0,0,0,0,-1,1126,652,0,0
-91,372,0,0,0,0,0,0,0,0,0,-1,1133,652,0,0
-84,372,0,0,0,0,0,0,0,0,0,-1,1140,652,0,0
-77,372,0,0,0,0,0,0,0,0,0,-1,1147,652,0,0
-70,372,0,0,0,0,0,0,0,0,0,-1,1154,652,0,0
-63,372,0,0,0,0,0,0,0,0,0,-1,1161,652,0,0
-56,372,0,0,0,0,0,0,0,0,0,-1,1168,652,0,0
-49,372,0,0,0,0,0,0,0,0,0,-1,1175,652,0,0
-42,372,0,0,0,0,0,0,0,0,0,-1,1182,652,0,0
-35,372,0,0,0,0,0,0,0,0,0,-1,1189,652,0,0
-28,372,0,0,0,0,0,0,0,0,0,-1,1196,652,0,0
-21,372,0,0,0,0,0,0,0,0,0,-1,1203,652,0,0
-14,372,0,0,0,0,0,0,0,0,0,-1,1210,652,0,0
-7,372,0,0,0,0,0,0,0,0,0,-1,1217,652,0,0
0,372,0,0,0,0,0,0,0,0,0,-1,1224,652,0,0
7,372,0,0,0,0,0,0,0,0,0,-1,1231,652,0,0
14,372,0,0,0,0,0,0,0,0,0,-1,1238,652,0,0
21,372,0,0,0,0,0,0,0,0,0,-1,1245,652,0,0
28,372,0,0,0,0,0,0,0,0,0,-1,1252,652,0,0
35,372,0,0,0,0,0,0,0,0,0,-1,1259,652,0,0
42,372,0,0,0,0,0,0,0,0,0,-1,1266,652,0,0
49,372,0,0,0,0,0,0,0,0,0,-1,1273,652,0,0
56,372,0,0,0,0,0,0,0,0,0,-1,1280,652,0,0
63,372,0,0,0,0,0,0,0,0,0,-1,1287,652,0,0
70,372,0,0,0,0,0,0,0,0,0,-1,1294,652,0,0
77,372,0,0,0,0,0,0,0,0,0,-1,1301,652,0,0
84,372,0,0,0,0,0,0,0,0,0,-1,1308,652,0,0
91,372,0,0,0,0,0,0,0,0,0,-1,1315,652,0,0
98,372,0,0,0,0,0,0,0,0,0,-1,1322,652,0,0
105,372,0,0,0,0,0,0,0,0,0,-1,1329,652,0,0
112,372,0,0,0,0,0,0,0,0,0,-1,1336,652,0,0
119,372,0,0,0,0,0,0,0,0,0,-1,1343,652,0,0
126,372,0,0,0,0,0,0,0,0,0,-1,1350,652,0,0
133,372,0,0,0,0,0,0,0,0,0,-1,1357,652,0,0
140,372,0,0,0,0,0,0,0,0,0,-1,1364,652,0,0
147,372,0,0,0,0,0,0,0,0,0,-1,1371,652,0,0
154,372,0,0,0,0,0,0,0,0,0,-1,1378,652,0,0
161,372,0,0,0,0,0,0,0,0,0,-1,1385,652,0,0
168,372,0,0,0,0,0,0,0,0,0,-1,1392,652,0,0
175,372,0,0,0,0,0,0,0,0,0,-1,1399,652,0,0
182,372,0,0,0,0,0,0,0,0,0,-1,1406,652,0,0
189,372,0,0,0,0,0,0,0,0,0,-1,1413,652,0,0
196,372,0,0,0,0,0,0,0,0,0,-1,1420,652,0,0
203,372,0,0,0,0,0,0,0,0,0,-1,1427,652,0,0
210,372,0,0,0,0,0,0,0,0,0,-1,1434,652,0,0
217,372,0,0,0,0,0,0,0,0,0,-1,1441,652,0,0
224,372,0,0,0,0,0,0,0,0,0,-1,1448,652,0,0
231,372,0,0,0,0,0,0,0,0,0,-1,1455,652,0,0
238,372,0,0,0,0,0,0,0,0,0,-1,1462,652,0,0
245,372,0,0,0,0,0,0,0,0,0,-1,1469,652,0,0
252,372,0,0,0,0,0,0,0,0,0,-1,1476,652,0,0
259,372,0,0,0,0,0,0,0,0,0,-1,1483,652,0,0
266,372,0,0,0,0,0,0,0,0,0,-1,1490,652,0,0
273,372,0,0,0,0,0,0,0,0,0,-1,1497,652,0,0
280,372,0,0,0,0,0,0,0,0,0,-1,1504,652,0,0
287,372,0,0,0,0,0,0,0,0,0,-1,1511,652,0,0
294,372,0,0,0,0,0,0,0,0,0,-1,1518,652,0,0
301,372,0,0,0,0,0,0,0,0,0,-1,1525,652,0,0
308,372,0,0,0,0,0,0,0,0,0,-1,1532,652,0,0
315,372,0,0,0,0,0,0,0,0,0,-1,1539,652,0,0
322,372,0,0,0,0,0,0,0,0,0,-1,1546,652,0,0
329,372,0,0,0,0,0,0,0,0,0,-1,1553,652,0,0
336,372,0,0,0,0,0,0,0,0,0,-1,1560,652,0,0
343,372,0,0,0,0,0,0,0,0,0,-1,1567,652,0,0
350,372,0,0,0,0,0,0,0,0,0,-1,1574,652,0,0
357,372,0,0,0,0,0,0,0,0,0,-1,1581,652,0,0
364,372,0,0,0,0,0,0,0,0,0,-1,1588,652,0,0
371,372,0,0,0,0,0,0,0,0,0,-1,1595,652,0,0
378,372,0,0,0,0,0,0,0,0,0,-1,1602,652,0,0
385,372,0,0,0,0,0,0,0,0,0,-1,1609,652,0,0
392,372,0,0,0,0,0,0,0,0,0,-1,1616,652,0,0
399,372,0,0,0,0,0,0,0,0,0,-1,1623,652,0,0
406,372,0,0,0,0,0,0,0,0,0,-1,1630,652,0,0
413,372,0,0,0,0,0,0,0,0,0,-1,1637,652,0,0
420,372,0,0,0,0,0,0,0,0,0,-1,1644,652,0,0
427,372,0,0,0,0,0,0,0,0,0,-1,1651,652,0,0
434,372,0,0,0,0,0,0,0,0,0,-1,1658,652,0,0
441,372,0,0,0,0,0,0,0,0,0,-1,1665,652,0,0
448,372,0,0,0,0,0,0,0,0,0,-1,1672,652,0,0
455,372,0,0,0,0,0,0,0,0,0,-1,1679,652,0,0
462,372,0,0,0,0,0,0,0,0,0,-1,1686,652,0,0
469,372,0,0,0,0,0,0,0,0,0,-1,1693,652,0,0
476,372,0,0,0,0,0,0,0,0,0,-1,1700,652,0,0
483,372,8.74182,1.53125,0,0,0,0,0,0,0,-1,1707,652,8.74186,-1.53126
490,372,9.78455,1.67096,0,0,0,0,0,0,0,-1,1714,652,9.7846,-1.67093
497,372,9.97644,1.46069,0,0,0,0,0,0,0,-1,1721,652,9.97647,-1.46071
504,372,10.1216,1.28375,0,0,0,0,0,0,0,-1,1728,652,10.1216,-1.28376
511,372,11.7367,-0.0272217,0,0,0,0,0,0,0,-1,1735,652,11.7367,0.0272326
518,372,12.0657,-0.0995483,0,0,0,0,0,0,0,-1,1742,652,12.0657,0.0995285
525,372,12.3947,-0.171814,0,0,0,0,0,0,0,-1,1749,652,12.3946,0.171824
532,372,9.36597,1.72034,0,0,0,0,0,0,0,-1,1756,652,9.36597,-1.72036
539,372,7.82886,-0.0865479,0,0,0,0,0,0,0,-1,1763,652,7.82882,0.0865771
546,372,10.953,-0.187195,0,0,0,0,0,0,0,-1,1770,652,10.953,0.187181
553,372,14.1201,-4.83234,0,0,0,0,0,0,0,-1,1777,652,14.1201,4.83235
560,372,20.1057,-8.06934,0,0,0,0,0,0,0,-1,1784,652,20.1058,8.06936
567,372,20.6228,-7.88342,0,0,0,0,0,0,0,-1,1791,652,20.6228,7.88342
574,372,20.9323,-7.32025,0.00573448,-0.000385195,0.0012691,0.00598722,-0.000637942,0.196583,0.00422023,0.0304417,1798,652,20.9322,7.32023
581,372,20.9136,-6.85718,0.00421011,-6.88807e-05,0.000897458,0.00439071,-0.000249487,0.19859,0.00301375,0.0185454,1805,652,20.9136,6.85718
588,372,20.8885,-6.32648,0.00307556,0.000256232,0.000735036,0.00325568,7.61065e-05,0.240321,0.00214554,0.0168215,1812,652,20.8886,6.32649
595,372,20.8677,-5.79803,0.00233885,0.000715007,0.000730698,0.00261924,0.000434621,0.366396,0.00162083,0.0143516,1819,652,20.8676,5.79805
602,372,20.8751,-5.26672,0.00203199,0.00141399,0.00101178,0.0027809,0.000665083,0.637196,0.0016768,0.0139791,1826,652,20.8751,5.26671
609,372,20.8069,-4.74091,0.00192639,0.00219388,0.00141432,0.00348076,0.000639509,0.83254,0.00213944,0.0150309,1833,652,20.8069,4.74088
616,372,20.7878,-4.17603,0.00214018,0.00306366,0.00200915,0.00466344,0.000540392,0.898346,0.0029454,0.0147726,1840,652,20.7878,4.17605
623,372,20.8076,-3.57922,0.00253797,0.00399404,0.00274548,0.00610637,0.00042563,0.915003,0.00393672,0.0121012,1847,652,20.8076,3.57921
630,372,20.781,-3.04724,0.00300324,0.00492827,0.00356568,0.00765906,0.000272449,0.917226,0.00501769,0.0166517,1854,652,20.781,3.04727
637,372,20.7852,-2.53174,0.00355555,0.00595257,0.00452046,0.0094307,7.74176e-05,0.914982,0.00626149,0.0255985,1861,652,20.7852,2.53171
644,372,20.9163,-1.77606,0.00404088,0.00706221,0.00560787,0.0113593,-0.000256238,0.916966,0.00765973,0.0494498,1868,652,20.9163,1.77605
651,372,21.3998,-0.888,0,0,0,0,0,0,0,-1,1875,652,21.3998,0.887992
658,372,14.157,0.280273,0,0,0,0,0,0,0,-1,1882,652,14.157,-0.280264
665,372,15.2286,0.463867,0,0,0,0,0,0,0,-1,1889,652,15.2287,-0.463854
672,372,9.34106,1.48444,0,0,0,0,0,0,0,-1,1896,652,9.34109,-1.48444
679,372,10.7308,2.32391,0,0,0,0,0,0,0,-1,1903,652,10.7309,-2.3239
686,372,11.6295,2.52997,0,0,0,0,0,0,0,-1,1910,652,11.6296,-2.52996
693,372,0,0,0,0,0,0,0,0,0,-1,1917,652,0,0
700,372,0,0,0,0,0,0,0,0,0,-1,1924,652,0,0
707,372,0,0,0,0,0,0,0,0,0,-1,1931,652,0,0
714,372,0,0,0,0,0,0,0,0,0,-1,1938,652,0,0
721,372,0,0,0,0,0,0,0,0,0,-1,1945,652,0,0
728,372,0,0,0,0,0,0,0,0,0,-1,1952,652,0,0
735,372,0,0,0,0,0,0,0,0,0,-1,1959,652,0,0
742,372,0,0,0,0,0,0,0,0,0,-1,1966,652,0,0
749,372,0,0,0,0,0,0,0,0,0,-1,1973,652,0,0
756,372,0,0,0,0,0,0,0,0,0,-1,1980,652,0,0
763,372,0,0,0,0,0,0,0,0,0,-1,1987,652,0,0
770,372,0,0,0,0,0,0,0,0,0,-1,1994,652,0,0
777,372,0,0,0,0,0,0,0,0,0,-1,2001,652,0,0
784,372,0,0,0,0,0,0,0,0,0,-1,2008,652,0,0
791,372,0,0,0,0,0,0,0,0,0,-1,2015,652,0,0
798,372,0,0,0,0,0,0,0,0,0,-1,2022,652,0,0
805,372,0,0,0,0,0,0,0,0,0,-1,2029,652,0,0
812,372,0,0,0,0,0,0,0,0,0,-1,2036,652,0,0
-700,365,0,0,0,0,0,0,0,0,0,-1,524,659,0,0
-693,365,0,0,0,0,0,0,0,0,0,-1,531,659,0,0
-686,365,0,0,0,0,0,0,0,0,0,-1,538,659,0,0
-679,365,0,0,0,0,0,0,0,0,0,-1,545,659,0,0
-672,365,0,0,0,0,0,0,0,0,0,-1,552,659,0,0
-665,365,0,0,0,0,0,0,0,0,0,-1,559,659,0,0
-658,365,0,0,0,0,0,0,0,0,0,-1,566,659,0,0
-651,365,0,0,0,0,0,0,0,0,0,-1,573,659,0,0
-644,365,0,0,0,0,0,0,0,0,0,-1,580,659,0,0
-637,365,0,0,0,0,0,0,0,0,0,-1,587,659,0,0
-630,365,0,0,0,0,0,0,0,0,0,-1,594,659,0,0
-623,365,0,0,0,0,0,0,0,0,0,-1,601,659,0,0
-616,365,0,0,0,0,0,0,0,0,0,-1,608,659,0,0
-609,365,0,0,0,0,0,0,0,0,0,-1,615,659,0,0
-602,365,0,0,0,0,0,0,0,0,0,-1,622,659,0,0
-595,365,0,0,0,0,0,0,0,0,0,-1,629,659,0,0
-588,365,0,0,0,0,0,0,0,0,0,-1,636,659,0,0
-581,365,0,0,0,0,0,0,0,0,0,-1,643,659,0,0
-574,365,-7.69281,1.59015,0,0,0,0,0,0,0,-1,650,659,-7.69282,-1.59018
-567,365,-8.2583,1.72638,0,0,0,0,0,0,0,-1,657,659,-8.25827,-1.72637
-560,365,-7.17767,0.275757,0,0,0,0,0,0,0,-1,664,659,-7.17768,-0.27577
-553,365,-10.0349,-0.169617,0,0,0,0,0,0,0,-1,671,659,-10.0349,0.169593
-546,365,-10.6303,-1.51642,0,0,0,0,0,0,0,-1,678,659,-10.6303,1.5164
-539,365,-8.38599,1.52936,0,0,0,0,0,0,0,-1,685,659,-8.38598,-1.52935
-532,365,-8.52863,0.166504,0,0,0,0,0,0,0,-1,692,659,-8.52863,-0.166501
-525,365,-9.28229,-2.62726,0,0,0,0,0,0,0,-1,699,659,-9.28227,2.62724
-518,365,-11.6423,-3.75305,0,0,0,0,0,0,0,-1,706,659,-11.6423,3.75306
-511,365,-11.6083,-4.35797,0.00128764,0.00392534,-0.00256044,0.00548663,-0.000273651,-1.02322,0.00375229,0.0312135,713,659,-11.6083,4.358
-504,365,-11.5787,-4.87726,0.000936141,0.00291904,-0.00162556,0.00383164,2.35378e-05,-1.05924,0.00254662,0.0130002,720,659,-11.5787,4.87726
-497,365,-11.5936,-5.40869,0.000929532,0.0022258,-0.00112487,0.0028759,0.000279433,-1.04676,0.00183124,0.0126737,727,659,-11.5936,5.40871
-490,365,-11.6353,-5.93951,0.000769855,0.00148769,-0.000645792,0.0018676,0.000389942,-1.03903,0.00113759,0.013943,734,659,-11.6353,5.93952
-483,365,-11.6597,-6.45496,0.00115785,0.00122521,-0.000750279,0.00194257,0.000440497,-0.807828,0.00117604,0.0133279,741,659,-11.6597,6.45493
-476,365,-11.6085,-6.95526,0.00158083,0.00103114,-0.000889549,0.00223703,0.000374943,-0.635565,0.00138341,0.0160188,748,659,-11.6085,6.95526
-469,365,-11.6467,-7.46381,0.00196856,0.000952394,-0.00109274,0.00266556,0.000255394,-0.567784,0.00169832,0.0159392,755,659,-11.6467,7.46381
-462,365,-11.6936,-7.98108,0.0023787,0.000880946,-0.00127706,0.00311026,0.000149385,-0.520216,0.00202555,0.0150254,762,659,-11.6936,7.9811
-455,365,-11.7123,-8.50348,0.00279018,0.000647946,-0.00132131,0.00341999,1.81398e-05,-0.444797,0.00227397,0.0161857,769,659,-11.7123,8.50351
-448,365,-11.6335,-9.08466,0.00317451,0.000788492,-0.00146986,0.00387458,8.84212e-05,-0.444496,0.00255409,0.0342002,776,659,-11.6335,9.08463
-441,365,-11.4088,-9.75171,0,0,0,0,0,0,0,-1,783,659,-11.4088,9.75171
-434,365,-5.45056,-3.98041,0,0,0,0,0,0,0,-1,790,659,-5.45055,3.98042
-427,365,-5.05377,-4.74689,0,0,0,0,0,0,0,-1,797,659,-5.05376,4.7469
-420,365,-4.58813,-3.16376,0,0,0,0,0,0,0,-1,804,659,-4.58816,3.16374
-413,365,0.141357,0.672729,0,0,0,0,0,0,0,-1,811,659,0.141365,-0.672714
-406,365,-1.75067,-0.934448,0,0,0,0,0,0,0,-1,818,659,-1.7507,0.934424
-399,365,-4.10242,-1.25439,0,0,0,0,0,0,0,-1,825,659,-4.10244,1.25438
-392,365,-7.46545,-0.779724,0,0,0,0,0,0,0,-1,832,659,-7.46543,0.779744
-385,365,-6.27875,-0.887573,0,0,0,0,0,0,0,-1,839,659,-6.27874,0.887545
-378,365,-5.34503,-0.263306,0,0,0,0,0,0,0,-1,846,659,-5.34504,0.263275
-371,365,0,0,0,0,0,0,0,0,0,-1,853,659,0,0
-364,365,0,0,0,0,0,0,0,0,0,-1,860,659,0,0
-357,365,0,0,0,0,0,0,0,0,0,-1,867,659,0,0
-350,365,0,0,0,0,0,0,0,0,0,-1,874,659,0,0
-343,365,0,0,0,0,0,0,0,0,0,-1,881,659,0,0
-336,365,0,0,0,0,0,0,0,0,0,-1,888,659,0,0
-329,365,0,0,0,0,0,0,0,0,0,-1,895,659,0,0
-322,365,0,0,0,0,0,0,0,0,0,-1,902,659,0,0
-315,365,0,0,0,0,0,0,0,0,0,-1,909,659,0,0
-308,365,0,0,0,0,0,0,0,0,0,-1,916,659,0,0
-301,365,0,0,0,0,0,0,0,0,0,-1,923,659,0,0
-294,365,0,0,0,0,0,0,0,0,0,-1,930,659,0,0
-287,365,0,0,0,0,0,0,0,0,0,-1,937,659,0,0
-280,365,0,0,0,0,0,0,0,0,0,-1,944,659,0,0
-273,365,0,0,0,0,0,0,0,0,0,-1,951,659,0,0
-266,365,0,0,0,0,0,0,0,0,0,-1,958,659,0,0
-259,365,0,0,0,0,0,0,0,0,0,-1,965,659,0,0
-252,365,0,0,0,0,0,0,0,0,0,-1,972,659,0,0
-245,365,0,0,0,0,0,0,0,0,0,-1,979,659,0,0
-238,365,0,0,0,0,0,0,0,0,0,-1,986,659,0,0
-231,365,0,0,0,0,0,0,0,0,0,-1,993,659,0,0
-224,365,0,0,0,0,0,0,0,0,0,-1,1000,659,0,0
-217,365,0,0,0,0,0,0,0,0,0,-1,1007,659,0,0
-210,365,0,0,0,0,0,0,0,0,0,-1,1014,659,0,0
-203,365,0,0,0,0,0,0,0,0,0,-1,1021,659,0,0
-196,365,0,0,0,0,0,0,0,0,0,-1,1028,659,0,0
-189,365,0,0,0,0,0,0,0,0,0,-1,1035,659,0,0
-182,365,0,0,0,0,0,0,0,0,0,-1,1042,659,0,0
-175,365,0,0,0,0,0,0,0,0,0,-1,1049,659,0,0
-168,365,0,0,0,0,0,0,0,0,0,-1,1056,659,0,0
-161,365,0,0,0,0,0,0,0,0,0,-1,1063,659,0,0
-154,365,0,0,0,0,0,0,0,0,0,-1,1070,659,0,0
-147,365,0,0,0,0,0,0,0,0,0,-1,1077,659,0,0
-140,365,0,0,0,0,0,0,0,0,0,-1,1084,659,0,0
-133,365,0,0,0,0,0,0,0,0,0,-1,1091,659,0,0
-126,365,0,0,0,0,0,0,0,0,0,-1,1098,659,0,0
-119,365,0,0,0,0,0,0,0,0,0,-1,1105,659,0,0
-112,365,0,0,0,0,0,0,0,0,0,-1,1112,659,0,0
-105,365,0,0,0,0,0,0,0,0,0,-1,1119,659,0,0
-98,365,0,0,0,0,0,0,0,0,0,-1,1126,659,0,0
-91,365,0,0,0,0,0,0,0,0,0,-1,1133,659,0,0
-84,365,0,0,0,0,0,0,0,0,0,-1,1140,659,0,0
-77,365,0,0,0,0,0,0,0,0,0,-1,1147,659,0,0
-70,365,0,0,0,0,0,0,0,0,0,-1,1154,659,0,0
-63,365,0,0,0,0,0,0,0,0,0,-1,1161,659,0,0
-56,365,0,0,0,0,0,0,0,0,0,-1,1168,659,0,0
-49,365,0,0,0,0,0,0,0,0,0,-1,1175,659,0,0
-42,365,0,0,0,0,0,0,0,0,0,-1,1182,659,0,0
-35,365,0,0,0,0,0,0,0,0,0,-1,1189,659,0,0
-28,365,0,0,0,0,0,0,0,0,0,-1,1196,659,0,0
-21,365,0,0,0,0,0,0,0,0,0,-1,1203,659,0,0
-14,365,0,0,0,0,0,0,0,0,0,-1,1210,659,0,0
-7,365,0,0,0,0,0,0,0,0,0,-1,1217,659,0,0
0,365,0,0,0,0,0,0,0,0,0,-1,1224,659,0,0
7,365,0,0,0,0,0,0,0,0,0,-1,1231,659,0,0
14,365,0,0,0,0,0,0,0,0,0,-1,1238,659,0,0
21,365,0,0,0,0,0,0,0,0,0,-1,1245,659,0,0
28,365,0,0,0,0,0,0,0,0,0,-1,1252,659,0,0
35,365,0,0,0,0,0,0,0,0,0,-1,1259,659,0,0
42,365,0,0,0,0,0,0,0,0,0,-1,1266,659,0,0
49,365,0,0,0,0,0,0,0,0,0,-1,1273,659,0,0
56,365,0,0,0,0,0,0,0,0,0,-1,1280,659,0,0
63,365,0,0,0,0,0,0,0,0,0,-1,1287,659,0,0
70,365,0,0,0,0,0,0,0,0,0,-1,1294,659,0,0
77,365,0,0,0,0,0,0,0,0,0,-1,1301,659,0,0
84,365,0,0,0,0,0,0,0,0,0,-1,1308,659,0,0
91,365,0,0,0,0,0,0,0,0,0,-1,1315,659,0,0
98,365,0,0,0,0,0,0,0,0,0,-1,1322,659,0,0
105,365,0,0,0,0,0,0,0,0,0,-1,1329,659,0,0
112,365,0,0,0,0,0,0,0,0,0,-1,1336,659,0,0
119,365,0,0,0,0,0,0,0,0,0,-1,1343,659,0,0
126,365,0,0,0,0,0,0,0,0,0,-1,1350,659,0,0
133,365,0,0,0,0,0,0,0,0,0,-1,1357,659,0,0
140,365,0,0,0,0,0,0,0,0,0,-1,1364,659,0,0
147,365,0,0,0,0,0,0,0,0,0,-1,1371,659,0,0
154,365,0,0,0,0,0,0,0,0,0,-1,1378,659,0,0
161,365,0,0,0,0,0,0,0,0,0,-1,1385,659,0,0
168,365,0,0,0,0,0,0,0,0,0,-1,1392,659,0,0
175,365,0,0,0,0,0,0,0,0,0,-1,1399,659,0,0
182,365,0,0,0,0,0,0,0,0,0,-1,1406,659,0,0
189,365,0,0,0,0,0,0,0,0,0,-1,1413,659,0,0
196,365,0,0,0,0,0,0,0,0,0,-1,1420,659,0,0
203,365,0,0,0,0,0,0,0,0,0,-1,1427,659,0,0
210,365,0,0,0,0,0,0,0,0,0,-1,1434,659,0,0
217,365,0,0,0,0,0,0,0,0,0,-1,1441,659,0,0
224,365,0,0,0,0,0,0,0,0,0,-1,1448,659,0,0
231,365,0,0,0,0,0,0,0,0,0,-1,1455,659,0,0
238,365,0,0,0,0,0,0,0,0,0,-1,1462,659,0,0
245,365,0,0,0,0,0,0,0,0,0,-1,1469,659,0,0
252,365,0,0,0,0,0,0,0,0,0,-1,1476,659,0,0
259,365,0,0,0,0,0,0,0,0,0,-1,1483,659,0,0
266,365,0,0,0,0,0,0,0,0,0,-1,1490,659,0,0
273,365,0,0,0,0,0,0,0,0,0,-1,1497,659,0,0
280,365,0,0,0,0,0,0,0,0,0,-1,1504,659,0,0
287,365,0,0,0,0,0,0,0,0,0,-1,1511,659,0,0
294,365,0,0,0,0,0,0,0,0,0,-1,1518,659,0,0
301,365,0,0,0,0,0,0,0,0,0,-1,1525,659,0,0
308,365,0,0,0,0,0,0,0,0,0,-1,1532,659,0,0
315,365,0,0,0,0,0,0,0,0,0,-1,1539,659,0,0
322,365,0,0,0,0,0,0,0,0,0,-1,1546,659,0,0
329,365,0,0,0,0,0,0,0,0,0,-1,1553,659,0,0
336,365,0,0,0,0,0,0,0,0,0,-1,1560,659,0,0
343,365,0,0,0,0,0,0,0,0,0,-1,1567,659,0,0
350,365,0,0,0,0,0,0,0,0,0,-1,1574,659,0,0
357,365,0,0,0,0,0,0,0,0,0,-1,1581,659,0,0
364,365,0,0,0,0,0,0,0,0,0,-1,1588,659,0,0
371,365,0,0,0,0,0,0,0,0,0,-1,1595,659,0,0
378,365,0,0,0,0,0,0,0,0,0,-1,1602,659,0,0
385,365,0,0,0,0,0,0,0,0,0,-1,1609,659,0,0
392,365,0,0,0,0,0,0,0,0,0,-1,1616,659,0,0
399,365,0,0,0,0,0,0,0,0,0,-1,1623,659,0,0
406,365,0,0,0,0,0,0,0,0,0,-1,1630,659,0,0
413,365,0,0,0,0,0,0,0,0,0,-1,1637,659,0,0
420,365,0,0,0,0,0,0,0,0,0,-1,1644,659,0,0
427,365,0,0,0,0,0,0,0,0,0,-1,1651,659,0,0
434,365,0,0,0,0,0,0,0,0,0,-1,1658,659,0,0
441,365,0,0,0,0,0,0,0,0,0,-1,1665,659,0,0
448,365,0,0,0,0,0,0,0,0,0,-1,1672,659,0,0
455,365,0,0,0,0,0,0,0,0,0,-1,1679,659,0,0
462,365,0,0,0,0,0,0,0,0,0,-1,1686,659,0,0
469,365,0,0,0,0,0,0,0,0,0,-1,1693,659,0,0
476,365,0,0,0,0,0,0,0,0,0,-1,1700,659,0,0
483,365,0,0,0,0,0,0,0,0,0,-1,1707,659,0,0
490,365,8.39551,0.471252,0,0,0,0,0,0,0,-1,1714,659,8.39551,-0.471241
497,365,9.89233,1.35394,0,0,0,0,0,0,0,-1,1721,659,9.89237,-1.35396
504,365,10.1414,1.18005,0,0,0,0,0,0,0,-1,1728,659,10.1413,-1.18004
511,365,10.5151,0.993896,0,0,0,0,0,0,0,-1,1735,659,10.5152,-0.993894
518,365,11.2029,0.398132,0,0,0,0,0,0,0,-1,1742,659,11.2029,-0.398136
525,365,15.5748,3.85303,0,0,0,0,0,0,0,-1,1749,659,15.5748,-3.85303
532,365,11.2446,1.00629,0,0,0,0,0,0,0,-1,1756,659,11.2446,-1.00631
539,365,12.6301,1.03204,0,0,0,0,0,0,0,-1,1763,659,12.6302,-1.03204
546,365,11.647,0.84198,0,0,0,0,0,0,0,-1,1770,659,11.6469,-0.841955
553,365,12.028,-0.558899,0,0,0,0,0,0,0,-1,1777,659,12.028,0.558873
560,365,14.5372,-4.55548,0,0,0,0,0,0,0,-1,1784,659,14.5373,4.55547
567,365,20.5676,-7.53888,0,0,0,0,0,0,0,-1,1791,659,20.5676,7.53887
574,365,21.6249,-7.24573,0,0,0,0,0,0,0,-1,1798,659,21.6249,7.24571
581,365,21.4415,-6.78345,0,0,0,0,0,0,0,-1,1805,659,21.4416,6.78343
588,365,21.3843,-6.35828,0.00325987,0.000519723,0.000672079,0.00341584,0.000363759,0.228026,0.00216618,0.0205993,1812,659,21.3843,6.35828
595,365,21.4183,-5.76898,0.00242342,0.000606622,0.000553061,0.00257854,0.000451506,0.273444,0.00159004,0.0134396,1819,659,21.4183,5.76898
602,365,21.4027,-5.20392,0.00206645,0.000984294,0.000748913,0.0024493,0.000601449,0.472568,0.00147387,0.0142532,1826,659,21.4027,5.20394
609,365,21.3342,-4.65222,0.00195905,0.00145564,0.00108661,0.00282273,0.000591962,0.671584,0.00171882,0.0157633,1833,659,21.3342,4.6522
616,365,21.3395,-4.09521,0.00211858,0.00201426,0.00158025,0.00364753,0.000485315,0.7689,0.00228714,0.0172918,1840,659,21.3395,4.09518
623,365,21.3589,-3.56458,0.0023744,0.0026531,0.00217711,0.00469531,0.00033219,0.817358,0.00302556,0.0114609,1847,659,21.3588,3.56456
630,365,21.3307,-3.03973,0.00262215,0.00330093,0.00282942,0.00581124,0.000111838,0.845088,0.00383742,0.0162329,1854,659,21.3307,3.03974
637,365,21.3123,-2.52405,0.00284493,0.00397664,0.00353175,0.00698758,-0.000166005,0.864833,0.00471469,0.0231375,1861,659,21.3122,2.52408
644,365,21.3094,-1.96661,0.00293532,0.00469973,0.00428936,0.00819667,-0.000561623,0.886821,0.00566095,0.0206634,1868,659,21.3094,1.96659
651,365,21.4215,-1.29346,0,0,0,0,0,0,0,-1,1875,659,21.4215,1.29345
658,365,20.9567,-0.394592,0,0,0,0,0,0,0,-1,1882,659,20.9567,0.394603
665,365,14.0961,0.769043,0,0,0,0,0,0,0,-1,1889,659,14.0961,-0.769063
672,365,10.0579,2.15088,0,0,0,0,0,0,0,-1,1896,659,10.0579,-2.15088
679,365,10.9718,2.19208,0,0,0,0,0,0,0,-1,1903,659,10.9718,-2.19211
686,365,12.2134,2.17108,0,0,0,0,0,0,0,-1,1910,659,12.2134,-2.17109
693,365,13.7141,1.98279,0,0,0,0,0,0,0,-1,1917,659,13.7141,-1.98278
700,365,0,0,0,0,0,0,0,0,0,-1,1924,659,0,0
707,365,0,0,0,0,0,0,0,0,0,-1,1931,659,0,0
714,365,0,0,0,0,0,0,0,0,0,-1,1938,659,0,0
721,365,0,0,0,0,0,0,0,0,0,-1,1945,659,0,0
728,365,0,0,0,0,0,0,0,0,0,-1,1952,659,0,0
735,365,0,0,0,0,0,0,0,0,0,-1,1959,659,0,0
742,365,0,0,0,0,0,0,0,0,0,-1,1966,659,0,0
749,365,0,0,0,0,0,0,0,0,0,-1,1973,659,0,0
756,365,0,0,0,0,0,0,0,0,0,-1,1980,659,0,0
763,365,0,0,0,0,0,0,0,0,0,-1,1987,659,0,0
770,365,0,0,0,0,0,0,0,0,0,-1,1994,659,0,0
777,365,0,0,0,0,0,0,0,0,0,-1,2001,659,0,0
784,365,0,0,0,0,0,0,0,0,0,-1,2008,659,0,0
791,365,0,0,0,0,0,0,0,0,0,-1,2015,659,0,0
798,365,0,0,0,0,0,0,0,0,0,-1,2022,659,0,0
805,365,0,0,0,0,0,0,0,0,0,-1,2029,659,0,0
812,365,0,0,0,0,0,0,0,0,0,-1,2036,659,0,0
-700,358,0,0,0,0,0,0,0,0,0,-1,524,666,0,0
-693,358,0,0,0,0,0,0,0,0,0,-1,531,666,0,0
-686,358,0,0,0,0,0,0,0,0,0,-1,538,666,0,0
-679,358,0,0,0,0,0,0,0,0,0,-1,545,666,0,0
-672,358,0,0,0,0,0,0,0,0,0,-1,552,666,0,0
-665,358,0,0,0,0,0,0,0,0,0,-1,559,666,0,0
-658,358,0,0,0,0,0,0,0,0,0,-1,566,666,0,0
-651,358,0,0,0,0,0,0,0,0,0,-1,573,666,0,0
-644,358,0,0,0,0,0,0,0,0,0,-1,580,666,0,0
-637,358,0,0,0,0,0,0,0,0,0,-1,587,666,0,0
-630,358,0,0,0,0,0,0,0,0,0,-1,594,666,0,0
-623,358,0,0,0,0,0,0,0,0,0,-1,601,666,0,0
-616,358,0,0,0,0,0,0,0,0,0,-1,608,666,0,0
-609,358,0,0,0,0,0,0,0,0,0,-1,615,666,0,0
-602,358,0,0,0,0,0,0,0,0,0,-1,622,666,0,0
-595,358,0,0,0,0,0,0,0,0,0,-1,629,666,0,0
-588,358,0,0,0,0,0,0,0,0,0,-1,636,666,0,0
-581,358,-8.31616,1.61993,0,0,0,0,0,0,0,-1,643,666,-8.31614,-1.61993
-574,358,-8.22406,1.75385,0,0,0,0,0,0,0,-1,650,666,-8.22408,-1.75383
-567,358,-8.14215,1.91577,0,0,0,0,0,0,0,-1,657,666,-8.14214,-1.91579
-560,358,-10.6086,2.18872,0,0,0,0,0,0,0,-1,664,666,-10.6086,-2.18873
-553,358,-13.4767,1.09552,0,0,0,0,0,0,0,-1,671,666,-13.4767,-1.09551
-546,358,-13.3743,-0.185059,0,0,0,0,0,0,0,-1,678,666,-13.3743,0.185037
-539,358,-9.43884,-2.04785,0,0,0,0,0,0,0,-1,685,666,-9.43884,2.04785
-532,358,-12.4141,-2.36572,0,0,0,0,0,0,0,-1,692,666,-12.4141,2.3657
-525,358,-12.0878,-3.43555,0,0,0,0,0,0,0,-1,699,666,-12.0878,3.43554
-518,358,-12.0862,-3.69873,0,0,0,0,0,0,0,-1,706,666,-12.0862,3.69874
-511,358,-12.1186,-4.32318,0.00137901,0.00311721,-0.00222594,0.0046377,-0.000141477,-0.971519,0.00314002,0.0168264,713,666,-12.1186,4.32317
-504,358,-12.123,-4.82697,0.00109204,0.00225361,-0.00137874,0.0031689,0.000176747,-0.984741,0.00205622,0.0118473,720,666,-12.123,4.82699
-497,358,-12.118,-5.38232,0.00114816,0.00171202,-0.000949736,0.00242079,0.000439394,-0.929679,0.00148916,0.0110116,727,666,-12.118,5.38231
-490,358,-12.1299,-5.90143,0.00103558,0.00110676,-0.000539264,0.00161161,0.000530734,-0.818347,0.000948361,0.0108361,734,666,-12.1299,5.9014
-483,358,-12.1699,-6.40179,0.00145922,0.000981492,-0.000711379,0.00197077,0.000469947,-0.623423,0.00118858,0.0103033,741,666,-12.1699,6.40177
-476,358,-12.1454,-6.89917,0.0019168,0.000945148,-0.000950836,0.00249873,0.00036321,-0.549216,0.00155892,0.0130886,748,666,-12.1454,6.89917
-469,358,-12.1983,-7.42743,0.00235031,0.000957524,-0.00123533,0.00307201,0.000235819,-0.528736,0.0019741,0.0161903,755,666,-12.1983,7.42743
-462,358,-12.2483,-7.96014,0.00283044,0.00103607,-0.00151812,0.00369667,0.000169844,-0.518516,0.00240983,0.0173867,762,666,-12.2483,7.96012
-455,358,-12.1584,-8.50745,0.00334776,0.00095071,-0.00165056,0.00418904,0.00010943,-0.471373,0.00275694,0.0375331,769,666,-12.1584,8.50746
-448,358,-11.9944,-9.28784,0,0,0,0,0,0,0,-1,776,666,-11.9944,9.28786
-441,358,-5.56293,-3.98041,0,0,0,0,0,0,0,-1,783,666,-5.56291,3.98043
-434,358,-5.21558,-4.43127,0,0,0,0,0,0,0,-1,790,666,-5.21559,4.43125
-427,358,-3.56189,-3.15729,0,0,0,0,0,0,0,-1,797,666,-3.56192,3.15729
-420,358,0.200195,1.08234,0,0,0,0,0,0,0,-1,804,666,0.200174,-1.08231
-413,358,0.0325317,0.161072,0,0,0,0,0,0,0,-1,811,666,0.0325501,-0.161098
-406,358,-3.85846,0.753113,0,0,0,0,0,0,0,-1,818,666,-3.85846,-0.753129
-399,358,-1.31213,0.190735,0,0,0,0,0,0,0,-1,825,666,-1.31215,-0.190763
-392,358,-3.73914,-0.832214,0,0,0,0,0,0,0,-1,832,666,-3.73915,0.832202
-385,358,-5.95178,-1.69141,0,0,0,0,0,0,0,-1,839,666,-5.9518,1.69143
-378,358,0,0,0,0,0,0,0,0,0,-1,846,666,0,0
-371,358,0,0,0,0,0,0,0,0,0,-1,853,666,0,0
-364,358,0,0,0,0,0,0,0,0,0,-1,860,666,0,0
-357,358,0,0,0,0,0,0,0,0,0,-1,867,666,0,0
-350,358,0,0,0,0,0,0,0,0,0,-1,874,666,0,0
-343,358,0,0,0,0,0,0,0,0,0,-1,881,666,0,0
-336,358,0,0,0,0,0,0,0,0,0,-1,888,666,0,0
-329,358,0,0,0,0,0,0,0,0,0,-1,895,666,0,0
-322,358,0,0,0,0,0,0,0,0,0,-1,902,666,0,0
-315,358,0,0,0,0,0,0,0,0,0,-1,909,666,0,0
-308,358,0,0,0,0,0,0,0,0,0,-1,916,666,0,0
-301,358,0,0,0,0,0,0,0,0,0,-1,923,666,0,0
-294,358,0,0,0,0,0,0,0,0,0,-1,930,666,0,0
-287,358,0,0,0,0,0,0,0,0,0,-1,937,666,0,0
-280,358,0,0,0,0,0,0,0,0,0,-1,944,666,0,0
-273,358,0,0,0,0,0,0,0,0,0,-1,951,666,0,0
-266,358,0,0,0,0,0,0,0,0,0,-1,958,666,0,0
-259,358,0,0,0,0,0,0,0,0,0,-1,965,666,0,0
-252,358,0,0,0,0,0,0,0,0,0,-1,972,666,0,0
-245,358,0,0,0,0,0,0,0,0,0,-1,979,666,0,0
-238,358,0,0,0,0,0,0,0,0,0,-1,986,666,0,0
-231,358,0,0,0,0,0,0,0,0,0,-1,993,666,0,0
-224,358,0,0,0,0,0,0,0,0,0,-1,1000,666,0,0
-217,358,0,0,0,0,0,0,0,0,0,-1,1007,666,0,0
-210,358,0,0,0,0,0,0,0,0,0,-1,1014,666,0,0
-203,358,0,0,0,0,0,0,0,0,0,-1,1021,666,0,0
-196,358,0,0,0,0,0,0,0,0,0,-1,1028,666,0,0
-189,358,0,0,0,0,0,0,0,0,0,-1,1035,666,0,0
-182,358,0,0,0,0,0,0,0,0,0,-1,1042,666,0,0
-175,358,0,0,0,0,0,0,0,0,0,-1,1049,666,0,0
-168,358,0,0,0,0,0,0,0,0,0,-1,1056,666,0,0
-161,358,0,0,0,0,0,0,0,0,0,-1,1063,666,0,0
-154,358,0,0,0,0,0,0,0,0,0,-1,1070,666,0,0
-147,358,0,0,0,0,0,0,0,0,0,-1,1077,666,0,0
-140,358,0,0,0,0,0,0,0,0,0,-1,1084,666,0,0
-133,358,0,0,0,0,0,0,0,0,0,-1,1091,666,0,0
-126,358,0,0,0,0,0,0,0,0,0,-1,1098,666,0,0
-119,358,0,0,0,0,0,0,0,0,0,-1,1105,666,0,0
-112,358,0,0,0,0,0,0,0,0,0,-1,1112,666,0,0
-105,358,0,0,0,0,0,0,0,0,0,-1,1119,666,0,0
-98,358,0,0,0,0,0,0,0,0,0,-1,1126,666,0,0
-91,358,0,0,0,0,0,0,0,0,0,-1,1133,666,0,0
-84,358,0,0,0,0,0,0,0,0,0,-1,1140,666,0,0
-77,358,0,0,0,0,0,0,0,0,0,-1,1147,666,0,0
-70,358,0,0,0,0,0,0,0,0,0,-1,1154,666,0,0
-63,358,0,0,0,0,0,0,0,0,0,-1,1161,666,0,0
-56,358,0,0,0,0,0,0,0,0,0,-1,1168,666,0,0
-49,358,0,0,0,0,0,0,0,0,0,-1,1175,666,0,0
-42,358,0,0,0,0,0,0,0,0,0,-1,1182,666,0,0
-35,358,0,0,0,0,0,0,0,0,0,-1,1189,666,0,0
-28,358,0,0,0,0,0,0,0,0,0,-1,1196,666,0,0
-21,358,0,0,0,0,0,0,0,0,0,-1,1203,666,0,0
-14,358,0,0,0,0,0,0,0,0,0,-1,1210,666,0,0
-7,358,0,0,0,0,0,0,0,0,0,-1,1217,666,0,0
0,358,0,0,0,0,0,0,0,0,0,-1,1224,666,0,0
7,358,0,0,0,0,0,0,0,0,0,-1,1231,666,0,0
14,358,0,0,0,0,0,0,0,0,0,-1,1238,666,0,0
21,358,0,0,0,0,0,0,0,0,0,-1,1245,666,0,0
28,358,0,0,0,0,0,0,0,0,0,-1,1252,666,0,0
35,358,0,0,0,0,0,0,0,0,0,-1,1259,666,0,0
42,358,0,0,0,0,0,0,0,0,0,-1,1266,666,0,0
49,358,0,0,0,0,0,0,0,0,0,-1,1273,666,0,0
56,358,0,0,0,0,0,0,0,0,0,-1,1280,666,0,0
63,358,0,0,0,0,0,0,0,0,0,-1,1287,666,0,0
70,358,0,0,0,0,0,0,0,0,0,-1,1294,666,0,0
77,358,0,0,0,0,0,0,0,0,0,-1,1301,666,0,0
84,358,0,0,0,0,0,0,0,0,0,-1,1308,666,0,0
91,358,0,0,0,0,0,0,0,0,0,-1,1315,666,0,0
98,358,0,0,0,0,0,0,0,0,0,-1,1322,666,0,0
105,358,0,0,0,0,0,0,0,0,0,-1,1329,666,0,0
112,358,0,0,0,0,0,0,0,0,0,-1,1336,666,0,0
119,358,0,0,0,0,0,0,0,0,0,-1,1343,666,0,0
126,358,0,0,0,0,0,0,0,0,0,-1,1350,666,0,0
133,358,0,0,0,0,0,0,0,0,0,-1,1357,666,0,0
140,358,0,0,0,0,0,0,0,0,0,-1,1364,666,0,0
147,358,0,0,0,0,0,0,0,0,0,-1,1371,666,0,0
154,358,0,0,0,0,0,0,0,0,0,-1,1378,666,0,0
161,358,0,0,0,0,0,0,0,0,0,-1,1385,666,0,0
168,358,0,0,0,0,0,0,0,0,0,-1,1392,666,0,0
175,358,0,0,0,0,0,0,0,0,0,-1,1399,666,0,0
182,358,0,0,0,0,0,0,0,0,0,-1,1406,666,0,0
189,358,0,0,0,0,0,0,0,0,0,-1,1413,666,0,0
196,358,0,0,0,0,0,0,0,0,0,-1,1420,666,0,0
203,358,0,0,0,0,0,0,0,0,0,-1,1427,666,0,0
210,358,0,0,0,0,0,0,0,0,0,-1,1434,666,0,0
217,358,0,0,0,0,0,0,0,0,0,-1,1441,666,0,0
224,358,0,0,0,0,0,0,0,0,0,-1,1448,666,0,0
231,358,0,0,0,0,0,0,0,0,0,-1,1455,666,0,0
238,358,0,0,0,0,0,0,0,0,0,-1,1462,666,0,0
245,358,0,0,0,0,0,0,0,0,0,-1,1469,666,0,0
252,358,0,0,0,0,0,0,0,0,0,-1,1476,666,0,0
259,358,0,0,0,0,0,0,0,0,0,-1,1483,666,0,0
266,358,0,0,0,0,0,0,0,0,0,-1,1490,666,0,0
273,358,0,0,0,0,0,0,0,0,0,-1,1497,666,0,0
280,358,0,0,0,0,0,0,0,0,0,-1,1504,666,0,0
287,358,0,0,0,0,0,0,0,0,0,-1,1511,666,0,0
294,358,0,0,0,0,0,0,0,0,0,-1,1518,666,0,0
301,358,0,0,0,0,0,0,0,0,0,-1,1525,666,0,0
308,358,0,0,0,0,0,0,0,0,0,-1,1532,666,0,0
315,358,0,0,0,0,0,0,0,0,0,-1,1539,666,0,0
322,358,0,0,0,0,0,0,0,0,0,-1,1546,666,0,0
329,358,0,0,0,0,0,0,0,0,0,-1,1553,666,0,0
336,358,0,0,0,0,0,0,0,0,0,-1,1560,666,0,0
343,358,0,0,0,0,0,0,0,0,0,-1,1567,666,0,0
350,358,0,0,0,0,0,0,0,0,0,-1,1574,666,0,0
357,358,0,0,0,0,0,0,0,0,0,-1,1581,666,0,0
364,358,0,0,0,0,0,0,0,0,0,-1,1588,666,0,0
371,358,0,0,0,0,0,0,0,0,0,-1,1595,666,0,0
378,358,0,0,0,0,0,0,0,0,0,-1,1602,666,0,0
385,358,0,0,0,0,0,0,0,0,0,-1,1609,666,0,0
392,358,0,0,0,0,0,0,0,0,0,-1,1616,666,0,0
399,358,0,0,0,0,0,0,0,0,0,-1,1623,666,0,0
406,358,0,0,0,0,0,0,0,0,0,-1,1630,666,0,0
413,358,0,0,0,0,0,0,0,0,0,-1,1637,666,0,0
420,358,0,0,0,0,0,0,0,0,0,-1,1644,666,0,0
427,358,0,0,0,0,0,0,0,0,0,-1,1651,666,0,0
434,358,0,0,0,0,0,0,0,0,0,-1,1658,666,0,0
441,358,0,0,0,0,0,0,0,0,0,-1,1665,666,0,0
448,358,0,0,0,0,0,0,0,0,0,-1,1672,666,0,0
455,358,0,0,0,0,0,0,0,0,0,-1,1679,666,0,0
462,358,0,0,0,0,0,0,0,0,0,-1,1686,666,0,0
469,358,0,0,0,0,0,0,0,0,0,-1,1693,666,0,0
476,358,0,0,0,0,0,0,0,0,0,-1,1700,666,0,0
483,358,0,0,0,0,0,0,0,0,0,-1,1707,666,0,0
490,358,0,0,0,0,0,0,0,0,0,-1,1714,666,0,0
497,358,8.57239,1.1322,0,0,0,0,0,0,0,-1,1721,666,8.57234,-1.13219
504,358,10.5972,0.832947,0,0,0,0,0,0,0,-1,1728,666,10.5972,-0.832968
511,358,10.6873,0.868469,0,0,0,0,0,0,0,-1,1735,666,10.6872,-0.868484
518,358,16.5884,2.34894,0,0,0,0,0,0,0,-1,1742,666,16.5884,-2.34894
525,358,15.7626,3.65344,0,0,0,0,0,0,0,-1,1749,666,15.7626,-3.65342
532,358,14.9368,4.95789,0,0,0,0,0,0,0,-1,1756,666,14.9367,-4.9579
539,358,15.1597,3.42694,0,0,0,0,0,0,0,-1,1763,666,15.1597,-3.42692
546,358,12.3792,1.53558,0,0,0,0,0,0,0,-1,1770,666,12.3792,-1.5356
553,358,11.6584,1.26172,0,0,0,0,0,0,0,-1,1777,666,11.6585,-1.26175
560,358,10.8234,1.43042,0,0,0,0,0,0,0,-1,1784,666,10.8233,-1.43041
567,358,10.1333,-0.955139,0,0,0,0,0,0,0,-1,1791,666,10.1333,0.955132
574,358,14.7886,-2.69293,0,0,0,0,0,0,0,-1,1798,666,14.7885,2.6929
581,358,20.1738,-6.76135,0,0,0,0,0,0,0,-1,1805,666,20.1738,6.76137
588,358,21.8555,-6.39215,0,0,0,0,0,0,0,-1,1812,666,21.8555,6.39218
595,358,21.9431,-5.73981,0.00255634,0.000470934,0.000486106,0.00266409,0.00036319,0.218121,0.00166823,0.0154246,1819,666,21.9431,5.73983
602,358,21.9127,-5.15967,0.00205784,0.000760589,0.000564665,0.00226919,0.000549237,0.358153,0.001367,0.0124293,1826,666,21.9127,5.15967
609,358,21.8619,-4.63269,0.00188749,0.0011296,0.000819481,0.0024114,0.000605691,0.568832,0.00144855,0.0162874,1833,666,21.8619,4.63271
616,358,21.856,-4.09802,0.00192895,0.00155018,0.00119296,0.00294747,0.000531661,0.706678,0.00181392,0.0160813,1840,666,21.856,4.09802
623,358,21.8811,-3.57184,0.00202485,0.00202899,0.00164725,0.00367418,0.000379667,0.786026,0.00233321,0.0141606,1847,666,21.8811,3.57183
630,358,21.8619,-3.05682,0.00207596,0.00248899,0.00214087,0.00443328,0.000131669,0.833481,0.00291262,0.0188301,1854,666,21.862,3.05681
637,358,21.8059,-2.54742,0.00204581,0.00291916,0.00263365,0.00515209,-0.000187117,0.867554,0.00349877,0.0264259,1861,666,21.8059,2.54743
644,358,21.8217,-2.0097,0.00185858,0.00334708,0.00313455,0.00582453,-0.000618862,0.901957,0.00410488,0.0206692,1868,666,21.8217,2.00969
651,358,21.9399,-1.33649,0.00135737,0.00374284,0.00360803,0.00635017,-0.00124996,0.945032,0.00470576,0.0326429,1875,666,21.94,1.33649
658,358,21.9528,-0.560852,0,0,0,0,0,0,0,-1,1882,666,21.9528,0.560859
665,358,20.9856,-0.249023,0,0,0,0,0,0,0,-1,1889,666,20.9856,0.249049
672,358,12.4299,1.47272,0,0,0,0,0,0,0,-1,1896,666,12.4299,-1.4727
679,358,12.1294,2.19702,0,0,0,0,0,0,0,-1,1903,666,12.1294,-2.19703
686,358,11.9557,2.2002,0,0,0,0,0,0,0,-1,1910,666,11.9557,-2.20021
693,358,13.188,2.52203,0,0,0,0,0,0,0,-1,1917,666,13.188,-2.52202
700,358,0,0,0,0,0,0,0,0,0,-1,1924,666,0,0
707,358,0,0,0,0,0,0,0,0,0,-1,1931,666,0,0
714,358,0,0,0,0,0,0,0,0,0,-1,1938,666,0,0
721,358,0,0,0,0,0,0,0,0,0,-1,1945,666,0,0
728,358,0,0,0,0,0,0,0,0,0,-1,1952,666,0,0
735,358,0,0,0,0,0,0,0,0,0,-1,1959,666,0,0
742,358,0,0,0,0,0,0,0,0,0,-1,1966,666,0,0
749,358,0,0,0,0,0,0,0,0,0,-1,1973,666,0,0
756,358,0,0,0,0,0,0,0,0,0,-1,1980,666,0,0
763,358,0,0,0,0,0,0,0,0,0,-1,1987,666,0,0
770,358,0,0,0,0,0,0,0,0,0,-1,1994,666,0,0
777,358,0,0,0,0,0,0,0,0,0,-1,2001,666,0,0
784,358,0,0,0,0,0,0,0,0,0,-1,2008,666,0,0
791,358,0,0,0,0,0,0,0,0,0,-1,2015,666,0,0
798,358,0,0,0,0,0,0,0,0,0,-1,2022,666,0,0
805,358,0,0,0,0,0,0,0,0,0,-1,2029,666,0,0
812,358,0,0,0,0,0,0,0,0,0,-1,2036,666,0,0
-700,351,0,0,0,0,0,0,0,0,0,-1,524,673,0,0
-693,351,0,0,0,0,0,0,0,0,0,-1,531,673,0,0
-686,351,0,0,0,0,0,0,0,0,0,-1,538,673,0,0
-679,351,0,0,0,0,0,0,0,0,0,-1,545,673,0,0
-672,351,0,0,0,0,0,0,0,0,0,-1,552,673,0,0
-665,351,0,0,0,0,0,0,0,0,0,-1,559,673,0,0
-658,351,0,0,0,0,0,0,0,0,0,-1,566,673,0,0
-651,351,0,0,0,0,0,0,0,0,0,-1,573,673,0,0
-644,351,0,0,0,0,0,0,0,0,0,-1,580,673,0,0
-637,351,0,0,0,0,0,0,0,0,0,-1,587,673,0,0
-630,351,0,0,0,0,0,0,0,0,0,-1,594,673,0,0
-623,351,0,0,0,0,0,0,0,0,0,-1,601,673,0,0
-616,351,0,0,0,0,0,0,0,0,0,-1,608,673,0,0
-609,351,0,0,0,0,0,0,0,0,0,-1,615,673,0,0
-602,351,0,0,0,0,0,0,0,0,0,-1,622,673,0,0
-595,351,0,0,0,0,0,0,0,0,0,-1,629,673,0,0
-588,351,0,0,0,0,0,0,0,0,0,-1,636,673,0,0
-581,351,-9.0647,1.71906,0,0,0,0,0,0,0,-1,643,673,-9.06472,-1.71908
-574,351,-8.23584,2.64764,0,0,0,0,0,0,0,-1,650,673,-8.23584,-2.64764
-567,351,-10.8027,4.56836,0,0,0,0,0,0,0,-1,657,673,-10.8027,-4.56839
-560,351,-14.2001,2.17084,0,0,0,0,0,0,0,-1,664,673,-14.2002,-2.17086
-553,351,-13.4979,0.779541,0,0,0,0,0,0,0,-1,671,673,-13.4978,-0.779519
-546,351,-13.8917,0.78717,0,0,0,0,0,0,0,-1,678,673,-13.8917,-0.787156
-539,351,-12.8123,-1.46393,0,0,0,0,0,0,0,-1,685,673,-12.8123,1.46395
-532,351,-12.591,-2.64349,0.00502075,0.00752307,-0.00806337,0.0144318,-0.00188796,-0.862367,0.0103083,0.0457528,692,673,-12.591,2.6435
-525,351,-12.5518,-3.42822,0.00313781,0.00529416,-0.00518346,0.00951039,-0.00107842,-0.887937,0.0067286,0.0443927,699,673,-12.5518,3.42823
-518,351,-12.6224,-3.75513,0.00203247,0.00354428,-0.00317109,0.00604831,-0.000471566,-0.902402,0.00419824,0.0178663,706,673,-12.6225,3.75514
-511,351,-12.6118,-4.28662,0.00142622,0.00246255,-0.00191546,0.00392869,-3.99163e-05,-0.917495,0.00263253,0.0112448,713,673,-12.6118,4.28663
-504,351,-12.6456,-4.81805,0.00117564,0.00170345,-0.0011472,0.00261671,0.000262387,-0.898453,0.00166392,0.0103907,720,673,-12.6456,4.81805
-497,351,-12.6585,-5.34833,0.00126243,0.00126647,-0.000774123,0.00203858,0.000490325,-0.786701,0.00122867,0.0104294,727,673,-12.6585,5.34835
-490,351,-12.6655,-5.85901,0.00123765,0.000797289,-0.000464729,0.00153172,0.000503221,-0.564169,0.000901507,0.0100144,734,673,-12.6655,5.85899
-483,351,-12.6856,-6.35999,0.00170663,0.000786311,-0.000694806,0.00207984,0.000413103,-0.492916,0.00127143,0.0117174,741,673,-12.6856,6.36
-476,351,-12.7047,-6.86694,0.00220609,0.000910633,-0.00104498,0.00278781,0.000328913,-0.507956,0.00175918,0.0112134,748,673,-12.7047,6.86695
-469,351,-12.7294,-7.38776,0.00270982,0.000999663,-0.00142627,0.00351769,0.000191789,-0.515365,0.00228388,0.0129272,755,673,-12.7293,7.38775
-462,351,-12.7405,-7.96484,0.00330963,0.00127255,-0.00186885,0.00441947,0.000162705,-0.535896,0.0028936,0.0268397,762,673,-12.7406,7.96482
-455,351,-12.5,-8.61395,0,0,0,0,0,0,0,-1,769,673,-12.5,8.61397
-448,351,-6.61456,-4.38654,0,0,0,0,0,0,0,-1,776,673,-6.61456,4.38654
-441,351,-4.31567,-2.3009,0,0,0,0,0,0,0,-1,783,673,-4.31565,2.30089
-434,351,-3.81708,-2.28003,0,0,0,0,0,0,0,-1,790,673,-3.81706,2.28006
-427,351,-2.05157,-2.7785,0,0,0,0,0,0,0,-1,797,673,-2.05157,2.77848
-420,351,-1.06989,-2.43665,0,0,0,0,0,0,0,-1,804,673,-1.06991,2.43663
-413,351,-0.392334,-2.06671,0,0,0,0,0,0,0,-1,811,673,-0.392363,2.06672
-406,351,-1.86316,-2.58105,0,0,0,0,0,0,0,-1,818,673,-1.86313,2.58106
-399,351,1.00952,-1.53455,0,0,0,0,0,0,0,-1,825,673,1.00954,1.53457
-392,351,-1.02197,0.877136,0,0,0,0,0,0,0,-1,832,673,-1.02195,-0.877143
-385,351,-1.47205,1.04437,0,0,0,0,0,0,0,-1,839,673,-1.47207,-1.04435
-378,351,0,0,0,0,0,0,0,0,0,-1,846,673,0,0
-371,351,0,0,0,0,0,0,0,0,0,-1,853,673,0,0
-364,351,0,0,0,0,0,0,0,0,0,-1,860,673,0,0
-357,351,0,0,0,0,0,0,0,0,0,-1,867,673,0,0
-350,351,0,0,0,0,0,0,0,0,0,-1,874,673,0,0
-343,351,0,0,0,0,0,0,0,0,0,-1,881,673,0,0
-336,351,0,0,0,0,0,0,0,0,0,-1,888,673,0,0
-329,351,0,0,0,0,0,0,0,0,0,-1,895,673,0,0
-322,351,0,0,0,0,0,0,0,0,0,-1,902,673,0,0
-315,351,0,0,0,0,0,0,0,0,0,-1,909,673,0,0
-308,351,0,0,0,0,0,0,0,0,0,-1,916,673,0,0
-301,351,0,0,0,0,0,0,0,0,0,-1,923,673,0,0
-294,351,0,0,0,0,0,0,0,0,0,-1,930,673,0,0
-287,351,0,0,0,0,0,0,0,0,0,-1,937,673,0,0
-280,351,0,0,0,0,0,0,0,0,0,-1,944,673,0,0
-273,351,0,0,0,0,0,0,0,0,0,-1,951,673,0,0
-266,351,0,0,0,0,0,0,0,0,0,-1,958,673,0,0
-259,351,0,0,0,0,0,0,0,0,0,-1,965,673,0,0
-252,351,0,0,0,0,0,0,0,0,0,-1,972,673,0,0
-245,351,0,0,0,0,0,0,0,0,0,-1,979,673,0,0
-238,351,0,0,0,0,0,0,0,0,0,-1,986,673,0,0
-231,351,0,0,0,0,0,0,0,0,0,-1,993,673,0,0
-224,351,0,0,0,0,0,0,0,0,0,-1,1000,673,0,0
-217,351,0,0,0,0,0,0,0,0,0,-1,1007,673,0,0
-210,351,0,0,0,0,0,0,0,0,0,-1,1014,673,0,0
-203,351,0,0,0,0,0,0,0,0,0,-1,1021,673,0,0
-196,351,0,0,0,0,0,0,0,0,0,-1,1028,673,0,0
-189,351,0,0,0,0,0,0,0,0,0,-1,1035,673,0,0
-182,351,0,0,0,0,0,0,0,0,0,-1,1042,673,0,0
-175,351,0,0,0,0,0,0,0,0,0,-1,1049,673,0,0
-168,351,0,0,0,0,0,0,0,0,0,-1,1056,673,0,0
-161,351,0,0,0,0,0,0,0,0,0,-1,1063,673,0,0
-154,351,0,0,0,0,0,0,0,0,0,-1,1070,673,0,0
-147,351,0,0,0,0,0,0,0,0,0,-1,1077,673,0,0
-140,351,0,0,0,0,0,0,0,0,0,-1,1084,673,0,0
-133,351,0,0,0,0,0,0,0,0,0,-1,1091,673,0,0
-126,351,0,0,0,0,0,0,0,0,0,-1,1098,673,0,0
-119,351,0,0,0,0,0,0,0,0,0,-1,1105,673,0,0
-112,351,0,0,0,0,0,0,0,0,0,-1,1112,673,0,0
-105,351,0,0,0,0,0,0,0,0,0,-1,1119,673,0,0
-98,351,0,0,0,0,0,0,0,0,0,-1,1126,673,0,0
-91,351,0,0,0,0,0,0,0,0,0,-1,1133,673,0,0
-84,351,0,0,0,0,0,0,0,0,0,-1,1140,673,0,0
-77,351,0,0,0,0,0,0,0,0,0,-1,1147,673,0,0
-70,351,0,0,0,0,0,0,0,0,0,-1,1154,673,0,0
-63,351,0,0,0,0,0,0,0,0,0,-1,1161,673,0,0
-56,351,0,0,0,0,0,0,0,0,0,-1,1168,673,0,0
-49,351,0,0,0,0,0,0,0,0,0,-1,1175,673,0,0
-42,351,0,0,0,0,0,0,0,0,0,-1,1182,673,0,0
-35,351,0,0,0,0,0,0,0,0,0,-1,1189,673,0,0
-28,351,0,0,0,0,0,0,0,0,0,-1,1196,673,0,0
-21,351,0,0,0,0,0,0,0,0,0,-1,1203,673,0,0
-14,351,0,0,0,0,0,0,0,0,0,-1,1210,673,0,0
-7,351,0,0,0,0,0,0,0,0,0,-1,1217,673,0,0
0,351,0,0,0,0,0,0,0,0,0,-1,1224,673,0,0
7,351,0,0,0,0,0,0,0,0,0,-1,1231,673,0,0
14,351,0,0,0,0,0,0,0,0,0,-1,1238,673,0,0
21,351,0,0,0,0,0,0,0,0,0,-1,1245,673,0,0
28,351,0,0,0,0,0,0,0,0,0,-1,1252,673,0,0
35,351,0,0,0,0,0,0,0,0,0,-1,1259,673,0,0
42,351,0,0,0,0,0,0,0,0,0,-1,1266,673,0,0
49,351,0,0,0,0,0,0,0,0,0,-1,1273,673,0,0
56,351,0,0,0,0,0,0,0,0,0,-1,1280,673,0,0
63,351,0,0,0,0,0,0,0,0,0,-1,1287,673,0,0
70,351,0,0,0,0,0,0,0,0,0,-1,1294,673,0,0
77,351,0,0,0,0,0,0,0,0,0,-1,1301,673,0,0
84,351,0,0,0,0,0,0,0,0,0,-1,1308,673,0,0
91,351,0,0,0,0,0,0,0,0,0,-1,1315,673,0,0
98,351,0,0,0,0,0,0,0,0,0,-1,1322,673,0,0
105,351,0,0,0,0,0,0,0,0,0,-1,1329,673,0,0
112,351,0,0,0,0,0,0,0,0,0,-1,1336,673,0,0
119,351,0,0,0,0,0,0,0,0,0,-1,1343,673,0,0
126,351,0,0,0,0,0,0,0,0,0,-1,1350,673,0,0
133,351,0,0,0,0,0,0,0,0,0,-1,1357,673,0,0
140,351,0,0,0,0,0,0,0,0,0,-1,1364,673,0,0
147,351,0,0,0,0,0,0,0,0,0,-1,1371,673,0,0
154,351,0,0,0,0,0,0,0,0,0,-1,1378,673,0,0
161,351,0,0,0,0,0,0,0,0,0,-1,1385,673,0,0
168,351,0,0,0,0,0,0,0,0,0,-1,1392,673,0,0
175,351,0,0,0,0,0,0,0,0,0,-1,1399,673,0,0
182,351,0,0,0,0,0,0,0,0,0,-1,1406,673,0,0
189,351,0,0,0,0,0,0,0,0,0,-1,1413,673,0,0
196,351,0,0,0,0,0,0,0,0,0,-1,1420,673,0,0
203,351,0,0,0,0,0,0,0,0,0,-1,1427,673,0,0
210,351,0,0,0,0,0,0,0,0,0,-1,1434,673,0,0
217,351,0,0,0,0,0,0,0,0,0,-1,1441,673,0,0
224,351,0,0,0,0,0,0,0,0,0,-1,1448,673,0,0
231,351,0,0,0,0,0,0,0,0,0,-1,1455,673,0,0
238,351,0,0,0,0,0,0,0,0,0,-1,1462,673,0,0
245,351,0,0,0,0,0,0,0,0,0,-1,1469,673,0,0
252,351,0,0,0,0,0,0,0,0,0,-1,1476,673,0,0
259,351,0,0,0,0,0,0,0,0,0,-1,1483,673,0,0
266,351,0,0,0,0,0,0,0,0,0,-1,1490,673,0,0
273,351,0,0,0,0,0,0,0,0,0,-1,1497,673,0,0
280,351,0,0,0,0,0,0,0,0,0,-1,1504,673,0,0
287,351,0,0,0,0,0,0,0,0,0,-1,1511,673,0,0
294,351,0,0,0,0,0,0,0,0,0,-1,1518,673,0,0
301,351,0,0,0,0,0,0,0,0,0,-1,1525,673,0,0
308,351,0,0,0,0,0,0,0,0,0,-1,1532,673,0,0
315,351,0,0,0,0,0,0,0,0,0,-1,1539,673,0,0
322,351,0,0,0,0,0,0,0,0,0,-1,1546,673,0,0
329,351,0,0,0,0,0,0,0,0,0,-1,1553,673,0,0
336,351,0,0,0,0,0,0,0,0,0,-1,1560,673,0,0
343,351,0,0,0,0,0,0,0,0,0,-1,1567,673,0,0
350,351,0,0,0,0,0,0,0,0,0,-1,1574,673,0,0
357,351,0,0,0,0,0,0,0,0,0,-1,1581,673,0,0
364,351,0,0,0,0,0,0,0,0,0,-1,1588,673,0,0
371,351,0,0,0,0,0,0,0,0,0,-1,1595,673,0,0
378,351,0,0,0,0,0,0,0,0,0,-1,1602,673,0,0
385,351,0,0,0,0,0,0,0,0,0,-1,1609,673,0,0
392,351,0,0,0,0,0,0,0,0,0,-1,1616,673,0,0
399,351,0,0,0,0,0,0,0,0,0,-1,1623,673,0,0
406,351,0,0,0,0,0,0,0,0,0,-1,1630,673,0,0
413,351,0,0,0,0,0,0,0,0,0,-1,1637,673,0,0
420,351,0,0,0,0,0,0,0,0,0,-1,1644,673,0,0
427,351,0,0,0,0,0,0,0,0,0,-1,1651,673,0,0
434,351,0,0,0,0,0,0,0,0,0,-1,1658,673,0,0
441,351,0,0,0,0,0,0,0,0,0,-1,1665,673,0,0
448,351,0,0,0,0,0,0,0,0,0,-1,1672,673,0,0
455,351,0,0,0,0,0,0,0,0,0,-1,1679,673,0,0
462,351,0,0,0,0,0,0,0,0,0,-1,1686,673,0,0
469,351,0,0,0,0,0,0,0,0,0,-1,1693,673,0,0
476,351,0,0,0,0,0,0,0,0,0,-1,1700,673,0,0
483,351,0,0,0,0,0,0,0,0,0,-1,1707,673,0,0
490,351,0,0,0,0,0,0,0,0,0,-1,1714,673,0,0
497,351,0,0,0,0,0,0,0,0,0,-1,1721,673,0,0
504,351,10.8842,1.61615,0,0,0,0,0,0,0,-1,1728,673,10.8842,-1.61618
511,351,15.4548,0.0236816,0,0,0,0,0,0,0,-1,1735,673,15.4549,-0.0236664
518,351,16.7448,2.49268,0,0,0,0,0,0,0,-1,1742,673,16.7448,-2.49269
525,351,16.0701,3.43225,0,0,0,0,0,0,0,-1,1749,673,16.07,-3.43227
532,351,32.3822,3.03021,0,0,0,0,0,0,0,-1,1756,673,32.3822,-3.03019
539,351,15.3387,3.54486,0,0,0,0,0,0,0,-1,1763,673,15.3387,-3.54485
546,351,13.9387,4.59357,0,0,0,0,0,0,0,-1,1770,673,13.9388,-4.59359
553,351,12.0682,2.02832,0,0,0,0,0,0,0,-1,1777,673,12.0683,-2.02831
560,351,12.0173,0.55304,0,0,0,0,0,0,0,-1,1784,673,12.0174,-0.553028
567,351,10.7827,0.130188,0,0,0,0,0,0,0,-1,1791,673,10.7827,-0.130183
574,351,13.405,-1.09204,0,0,0,0,0,0,0,-1,1798,673,13.405,1.09207
581,351,15.2351,-3.06049,0,0,0,0,0,0,0,-1,1805,673,15.2351,3.06046
588,351,22.2556,-6.4093,0,0,0,0,0,0,0,-1,1812,673,22.2556,6.40927
595,351,22.4297,-5.81561,0.00266188,0.000476725,0.000602735,0.00281711,0.000321499,0.252059,0.00178061,0.0371761,1819,673,22.4297,5.81563
602,351,22.4827,-5.19934,0.00198154,0.000622725,0.000478947,0.00213339,0.000470878,0.307019,0.00129418,0.0188287,1826,673,22.4827,5.19936
609,351,22.4761,-4.66791,0.00176692,0.000851887,0.00062124,0.00208093,0.000537872,0.46801,0.00124728,0.0175886,1833,673,22.4761,4.66792
616,351,22.4169,-4.12299,0.00170666,0.00112211,0.000858896,0.00232165,0.000507122,0.621401,0.00140947,0.0150972,1840,673,22.4169,4.12299
623,351,22.4202,-3.57214,0.00169881,0.00145502,0.00118116,0.00276435,0.000389484,0.733982,0.00172776,0.0161394,1847,673,22.4201,3.57215
630,351,22.3933,-3.07721,0.00164018,0.00176348,0.00154515,0.00324821,0.000155449,0.805337,0.00211556,0.0265705,1854,673,22.3933,3.07718
637,351,22.3456,-2.5387,0.0014656,0.00202827,0.00188007,0.00364794,-0.000154062,0.859668,0.0024849,0.0301269,1861,673,22.3456,2.53867
644,351,22.3655,-1.97662,0.0011222,0.0022651,0.00220055,0.00396719,-0.000579882,0.912435,0.00285776,0.0224114,1868,673,22.3655,1.9766
651,351,22.3757,-1.37091,0.000467603,0.00245409,0.00246023,0.004114,-0.00119231,0.977253,0.00321467,0.017125,1875,673,22.3757,1.37091
658,351,22.3335,-0.784363,-0.00069398,0.00247874,0.00251218,0.00386351,-0.00207875,1.06702,0.00348196,0.0333383,1882,673,22.3336,0.784371
665,351,21.8921,-0.485596,0,0,0,0,0,0,0,-1,1889,673,21.8921,0.485612
672,351,21.601,0.0530396,0,0,0,0,0,0,0,-1,1896,673,21.6009,-0.0530684
679,351,14.1252,1.85681,0,0,0,0,0,0,0,-1,1903,673,14.1253,-1.85682
686,351,13.0294,2.1189,0,0,0,0,0,0,0,-1,1910,673,13.0294,-2.11892
693,351,13.5187,2.34595,0,0,0,0,0,0,0,-1,1917,673,13.5187,-2.34596
700,351,14.5629,-2.40173,0,0,0,0,0,0,0,-1,1924,673,14.5629,2.40172
707,351,0,0,0,0,0,0,0,0,0,-1,1931,673,0,0
714,351,0,0,0,0,0,0,0,0,0,-1,1938,673,0,0
721,351,0,0,0,0,0,0,0,0,0,-1,1945,673,0,0
728,351,0,0,0,0,0,0,0,0,0,-1,1952,673,0,0
735,351,0,0,0,0,0,0,0,0,0,-1,1959,673,0,0
742,351,0,0,0,0,0,0,0,0,0,-1,1966,673,0,0
749,351,0,0,0,0,0,0,0,0,0,-1,1973,673,0,0
756,351,0,0,0,0,0,0,0,0,0,-1,1980,673,0,0
763,351,0,0,0,0,0,0,0,0,0,-1,1987,673,0,0
770,351,0,0,0,0,0,0,0,0,0,-1,1994,673,0,0
777,351,0,0,0,0,0,0,0,0,0,-1,2001,673,0,0
784,351,0,0,0,0,0,0,0,0,0,-1,2008,673,0,0
791,351,0,0,0,0,0,0,0,0,0,-1,2015,673,0,0
798,351,0,0,0,0,0,0,0,0,0,-1,2022,673,0,0
805,351,0,0,0,0,0,0,0,0,0,-1,2029,673,0,0
812,351,0,0,0,0,0,0,0,0,0,-1,2036,673,0,0
-700,344,0,0,0,0,0,0,0,0,0,-1,524,680,0,0
-693,344,0,0,0,0,0,0,0,0,0,-1,531,680,0,0
-686,344,0,0,0,0,0,0,0,0,0,-1,538,680,0,0
-679,344,0,0,0,0,0,0,0,0,0,-1,545,680,0,0
-672,344,0,0,0,0,0,0,0,0,0,-1,552,680,0,0
-665,344,0,0,0,0,0,0,0,0,0,-1,559,680,0,0
-658,344,0,0,0,0,0,0,0,0,0,-1,566,680,0,0
-651,344,0,0,0,0,0,0,0,0,0,-1,573,680,0,0
-644,344,0,0,0,0,0,0,0,0,0,-1,580,680,0,0
-637,344,0,0,0,0,0,0,0,0,0,-1,587,680,0,0
-630,344,0,0,0,0,0,0,0,0,0,-1,594,680,0,0
-623,344,0,0,0,0,0,0,0,0,0,-1,601,680,0,0
-616,344,0,0,0,0,0,0,0,0,0,-1,608,680,0,0
-609,344,0,0,0,0,0,0,0,0,0,-1,615,680,0,0
-602,344,0,0,0,0,0,0,0,0,0,-1,622,680,0,0
-595,344,0,0,0,0,0,0,0,0,0,-1,629,680,0,0
-588,344,-9.27826,1.47302,0,0,0,0,0,0,0,-1,636,680,-9.27829,-1.473
-581,344,-10.0098,1.71753,0,0,0,0,0,0,0,-1,643,680,-10.0098,-1.7175
-574,344,-10.2208,3.04871,0,0,0,0,0,0,0,-1,650,680,-10.2208,-3.04869
-567,344,-14.3779,2.29016,0,0,0,0,0,0,0,-1,657,680,-14.3779,-2.29014
-560,344,-14.1238,1.8374,0,0,0,0,0,0,0,-1,664,680,-14.1238,-1.83743
-553,344,-14.4848,1.73047,0,0,0,0,0,0,0,-1,671,680,-14.4848,-1.73047
-546,344,-14.4814,-0.572021,0,0,0,0,0,0,0,-1,678,680,-14.4814,0.572036
-539,344,-13.2481,-1.9223,0,0,0,0,0,0,0,-1,685,680,-13.2481,1.92229
-532,344,-12.9792,-2.78607,0.0044585,0.00618074,-0.00665848,0.0120335,-0.00139431,-0.849705,0.00852523,0.0356713,692,680,-12.9792,2.78607
-525,344,-13.1843,-3.16827,0.00293158,0.00427621,-0.00429435,0.00795055,-0.000742761,-0.863047,0.0055645,0.0345189,699,680,-13.1843,3.16827
-518,344,-13.14,-3.78143,0.00198151,0.00278416,-0.00260706,0.0050206,-0.000254931,-0.861767,0.0034352,0.0194458,706,680,-13.14,3.78143
-511,344,-13.1652,-4.30908,0.00144637,0.00180102,-0.00151289,0.00314694,0.000100448,-0.843737,0.00206529,0.0168347,713,680,-13.1652,4.30906
-504,344,-13.1725,-4.8338,0.00124318,0.00110365,-0.000844473,0.00202076,0.000326065,-0.744183,0.00125271,0.0172533,720,680,-13.1725,4.8338
-497,344,-13.1788,-5.35516,0.00134979,0.000734009,-0.000537084,0.00166097,0.000422823,-0.525135,0.000996732,0.0151191,727,680,-13.1788,5.35517
-490,344,-13.2096,-5.86877,0.0014396,0.000414052,-0.000382077,0.00156629,0.000287358,-0.320185,0.000962812,0.013807,734,680,-13.2096,5.86875
-483,344,-13.1981,-6.36694,0.00192495,0.00050385,-0.000675937,0.0021951,0.000233701,-0.380219,0.00139205,0.0136321,741,680,-13.1981,6.36692
-476,344,-13.2026,-6.86896,0.00243105,0.00080759,-0.00116122,0.00303613,0.000202519,-0.480359,0.00196007,0.0140993,748,680,-13.2026,6.86897
-469,344,-13.213,-7.4043,0.00298988,0.00100174,-0.00168257,0.00395009,4.15274e-05,-0.518584,0.00261966,0.0171603,755,680,-13.2129,7.40427
-462,344,-13.2264,-7.94501,0,0,0,0,0,0,0,-1,762,680,-13.2265,7.94501
-455,344,-12.1653,-7.99176,0,0,0,0,0,0,0,-1,769,680,-12.1653,7.99174
-448,344,-5.67657,-2.72864,0,0,0,0,0,0,0,-1,776,680,-5.6766,2.72863
-441,344,-5.09229,-2.34167,0,0,0,0,0,0,0,-1,783,680,-5.09229,2.34168
-434,344,-4.28778,-2.08807,0,0,0,0,0,0,0,-1,790,680,-4.28778,2.08809
-427,344,-3.06506,-1.45404,0,0,0,0,0,0,0,-1,797,680,-3.06505,1.45402
-420,344,-1.96582,-1.57574,0,0,0,0,0,0,0,-1,804,680,-1.96579,1.57574
-413,344,-0.817993,-1.4751,0,0,0,0,0,0,0,-1,811,680,-0.818017,1.47511
-406,344,-0.00714111,-1.25189,0,0,0,0,0,0,0,-1,818,680,-0.00714956,1.25191
-399,344,0.240051,-1.75769,0,0,0,0,0,0,0,-1,825,680,0.240079,1.75767
-392,344,1.11353,-2.05615,0,0,0,0,0,0,0,-1,832,680,1.11351,2.05616
-385,344,0,0,0,0,0,0,0,0,0,-1,839,680,0,0
-378,344,0,0,0,0,0,0,0,0,0,-1,846,680,0,0
-371,344,0,0,0,0,0,0,0,0,0,-1,853,680,0,0
-364,344,0,0,0,0,0,0,0,0,0,-1,860,680,0,0
-357,344,0,0,0,0,0,0,0,0,0,-1,867,680,0,0
-350,344,0,0,0,0,0,0,0,0,0,-1,874,680,0,0
-343,344,0,0,0,0,0,0,0,0,0,-1,881,680,0,0
-336,344,0,0,0,0,0,0,0,0,0,-1,888,680,0,0
-329,344,0,0,0,0,0,0,0,0,0,-1,895,680,0,0
-322,344,0,0,0,0,0,0,0,0,0,-1,902,680,0,0
-315,344,0,0,0,0,0,0,0,0,0,-1,909,680,0,0
-308,344,0,0,0,0,0,0,0,0,0,-1,916,680,0,0
-301,344,0,0,0,0,0,0,0,0,0,-1,923,680,0,0
-294,344,0,0,0,0,0,0,0,0,0,-1,930,680,0,0
-287,344,0,0,0,0,0,0,0,0,0,-1,937,680,0,0
-280,344,0,0,0,0,0,0,0,0,0,-1,944,680,0,0
-273,344,0,0,0,0,0,0,0,0,0,-1,951,680,0,0
-266,344,0,0,0,0,0,0,0,0,0,-1,958,680,0,0
-259,344,0,0,0,0,0,0,0,0,0,-1,965,680,0,0
-252,344,0,0,0,0,0,0,0,0,0,-1,972,680,0,0
-245,344,0,0,0,0,0,0,0,0,0,-1,979,680,0,0
-238,344,0,0,0,0,0,0,0,0,0,-1,986,680,0,0
-231,344,0,0,0,0,0,0,0,0,0,-1,993,680,0,0
-224,344,0,0,0,0,0,0,0,0,0,-1,1000,680,0,0
-217,344,0,0,0,0,0,0,0,0,0,-1,1007,680,0,0
-210,344,0,0,0,0,0,0,0,0,0,-1,1014,680,0,0
-203,344,0,0,0,0,0,0,0,0,0,-1,1021,680,0,0
-196,344,0,0,0,0,0,0,0,0,0,-1,1028,680,0,0
-189,344,0,0,0,0,0,0,0,0,0,-1,1035,680,0,0
-182,344,0,0,0,0,0,0,0,0,0,-1,1042,680,0,0
-175,344,0,0,0,0,0,0,0,0,0,-1,1049,680,0,0
-168,344,0,0,0,0,0,0,0,0,0,-1,1056,680,0,0
-161,344,0,0,0,0,0,0,0,0,0,-1,1063,680,0,0
-154,344,0,0,0,0,0,0,0,0,0,-1,1070,680,0,0
-147,344,0,0,0,0,0,0,0,0,0,-1,1077,680,0,0
-140,344,0,0,0,0,0,0,0,0,0,-1,1084,680,0,0
-133,344,0,0,0,0,0,0,0,0,0,-1,1091,680,0,0
-126,344,0,0,0,0,0,0,0,0,0,-1,1098,680,0,0
-119,344,0,0,0,0,0,0,0,0,0,-1,1105,680,0,0
-112,344,0,0,0,0,0,0,0,0,0,-1,1112,680,0,0
-105,344,0,0,0,0,0,0,0,0,0,-1,1119,680,0,0
-98,344,0,0,0,0,0,0,0,0,0,-1,1126,680,0,0
-91,344,0,0,0,0,0,0,0,0,0,-1,1133,680,0,0
-84,344,0,0,0,0,0,0,0,0,0,-1,1140,680,0,0
-77,344,0,0,0,0,0,0,0,0,0,-1,1147,680,0,0
-70,344,0,0,0,0,0,0,0,0,0,-1,1154,680,0,0
-63,344,0,0,0,0,0,0,0,0,0,-1,1161,680,0,0
-56,344,0,0,0,0,0,0,0,0,0,-1,1168,680,0,0
-49,344,0,0,0,0,0,0,0,0,0,-1,1175,680,0,0
-42,344,0,0,0,0,0,0,0,0,0,-1,1182,680,0,0
-35,344,0,0,0,0,0,0,0,0,0,-1,1189,680,0,0
-28,344,0,0,0,0,0,0,0,0,0,-1,1196,680,0,0
-21,344,0,0,0,0,0,0,0,0,0,-1,1203,680,0,0
-14,344,0,0,0,0,0,0,0,0,0,-1,1210,680,0,0
-7,344,0,0,0,0,0,0,0,0,0,-1,1217,680,0,0
0,344,0,0,0,0,0,0,0,0,0,-1,1224,680,0,0
7,344,0,0,0,0,0,0,0,0,0,-1,1231,680,0,0
14,344,0,0,0,0,0,0,0,0,0,-1,1238,680,0,0
21,344,0,0,0,0,0,0,0,0,0,-1,1245,680,0,0
28,344,0,0,0,0,0,0,0,0,0,-1,1252,680,0,0
35,344,0,0,0,0,0,0,0,0,0,-1,1259,680,0,0
42,344,0,0,0,0,0,0,0,0,0,-1,1266,680,0,0
49,344,0,0,0,0,0,0,0,0,0,-1,1273,680,0,0
56,344,0,0,0,0,0,0,0,0,0,-1,1280,680,0,0
63,344,0,0,0,0,0,0,0,0,0,-1,1287,680,0,0
70,344,0,0,0,0,0,0,0,0,0,-1,1294,680,0,0
77,344,0,0,0,0,0,0,0,0,0,-1,1301,680,0,0
84,344,0,0,0,0,0,0,0,0,0,-1,1308,680,0,0
91,344,0,0,0,0,0,0,0,0,0,-1,1315,680,0,0
98,344,0,0,0,0,0,0,0,0,0,-1,1322,680,0,0
105,344,0,0,0,0,0,0,0,0,0,-1,1329,680,0,0
112,344,0,0,0,0,0,0,0,0,0,-1,1336,680,0,0
119,344,0,0,0,0,0,0,0,0,0,-1,1343,680,0,0
126,344,0,0,0,0,0,0,0,0,0,-1,1350,680,0,0
133,344,0,0,0,0,0,0,0,0,0,-1,1357,680,0,0
140,344,0,0,0,0,0,0,0,0,0,-1,1364,680,0,0
147,344,0,0,0,0,0,0,0,0,0,-1,1371,680,0,0
154,344,0,0,0,0,0,0,0,0,0,-1,1378,680,0,0
161,344,0,0,0,0,0,0,0,0,0,-1,1385,680,0,0
168,344,0,0,0,0,0,0,0,0,0,-1,1392,680,0,0
175,344,0,0,0,0,0,0,0,0,0,-1,1399,680,0,0
182,344,0,0,0,0,0,0,0,0,0,-1,1406,680,0,0
189,344,0,0,0,0,0,0,0,0,0,-1,1413,680,0,0
196,344,0,0,0,0,0,0,0,0,0,-1,1420,680,0,0
203,344,0,0,0,0,0,0,0,0,0,-1,1427,680,0,0
210,344,0,0,0,0,0,0,0,0,0,-1,1434,680,0,0
217,344,0,0,0,0,0,0,0,0,0,-1,1441,680,0,0
224,344,0,0,0,0,0,0,0,0,0,-1,1448,680,0,0
231,344,0,0,0,0,0,0,0,0,0,-1,1455,680,0,0
238,344,0,0,0,0,0,0,0,0,0,-1,1462,680,0,0
245,344,0,0,0,0,0,0,0,0,0,-1,1469,680,0,0
252,344,0,0,0,0,0,0,0,0,0,-1,1476,680,0,0
259,344,0,0,0,0,0,0,0,0,0,-1,1483,680,0,0
266,344,0,0,0,0,0,0,0,0,0,-1,1490,680,0,0
273,344,0,0,0,0,0,0,0,0,0,-1,1497,680,0,0
280,344,0,0,0,0,0,0,0,0,0,-1,1504,680,0,0
287,344,0,0,0,0,0,0,0,0,0,-1,1511,680,0,0
294,344,0,0,0,0,0,0,0,0,0,-1,1518,680,0,0
301,344,0,0,0,0,0,0,0,0,0,-1,1525,680,0,0
308,344,0,0,0,0,0,0,0,0,0,-1,1532,680,0,0
315,344,0,0,0,0,0,0,0,0,0,-1,1539,680,0,0
322,344,0,0,0,0,0,0,0,0,0,-1,1546,680,0,0
329,344,0,0,0,0,0,0,0,0,0,-1,1553,680,0,0
336,344,0,0,0,0,0,0,0,0,0,-1,1560,680,0,0
343,344,0,0,0,0,0,0,0,0,0,-1,1567,680,0,0
350,344,0,0,0,0,0,0,0,0,0,-1,1574,680,0,0
357,344,0,0,0,0,0,0,0,0,0,-1,1581,680,0,0
364,344,0,0,0,0,0,0,0,0,0,-1,1588,680,0,0
371,344,0,0,0,0,0,0,0,0,0,-1,1595,680,0,0
378,344,0,0,0,0,0,0,0,0,0,-1,1602,680,0,0
385,344,0,0,0,0,0,0,0,0,0,-1,1609,680,0,0
392,344,0,0,0,0,0,0,0,0,0,-1,1616,680,0,0
399,344,0,0,0,0,0,0,0,0,0,-1,1623,680,0,0
406,344,0,0,0,0,0,0,0,0,0,-1,1630,680,0,0
413,344,0,0,0,0,0,0,0,0,0,-1,1637,680,0,0
420,344,0,0,0,0,0,0,0,0,0,-1,1644,680,0,0
427,344,0,0,0,0,0,0,0,0,0,-1,1651,680,0,0
434,344,0,0,0,0,0,0,0,0,0,-1,1658,680,0,0
441,344,0,0,0,0,0,0,0,0,0,-1,1665,680,0,0
448,344,0,0,0,0,0,0,0,0,0,-1,1672,680,0,0
455,344,0,0,0,0,0,0,0,0,0,-1,1679,680,0,0
462,344,0,0,0,0,0,0,0,0,0,-1,1686,680,0,0
469,344,0,0,0,0,0,0,0,0,0,-1,1693,680,0,0
476,344,0,0,0,0,0,0,0,0,0,-1,1700,680,0,0
483,344,0,0,0,0,0,0,0,0,0,-1,1707,680,0,0
490,344,0,0,0,0,0,0,0,0,0,-1,1714,680,0,0
497,344,0,0,0,0,0,0,0,0,0,-1,1721,680,0,0
504,344,0,0,0,0,0,0,0,0,0,-1,1728,680,0,0
511,344,15.4819,0.452637,0,0,0,0,0,0,0,-1,1735,680,15.4819,-0.452656
518,344,17.1357,2.31207,0,0,0,0,0,0,0,-1,1742,680,17.1358,-2.31207
525,344,31.5201,2.6217,0,0,0,0,0,0,0,-1,1749,680,31.5201,-2.62168
532,344,31.9766,2.61047,0,0,0,0,0,0,0,-1,1756,680,31.9765,-2.6105
539,344,32.4379,2.65314,0,0,0,0,0,0,0,-1,1763,680,32.4378,-2.65316
546,344,14.6722,4.30243,0,0,0,0,0,0,0,-1,1770,680,14.6722,-4.30241
553,344,14.8136,4.35681,0,0,0,0,0,0,0,-1,1777,680,14.8136,-4.35679
560,344,11.9363,2.14185,0,0,0,0,0,0,0,-1,1784,680,11.9362,-2.14182
567,344,11.397,0.925842,0,0,0,0,0,0,0,-1,1791,680,11.397,-0.92583
574,344,10.0004,0.504639,0,0,0,0,0,0,0,-1,1798,680,10.0004,-0.504645
581,344,13.6709,-0.969604,0,0,0,0,0,0,0,-1,1805,680,13.6709,0.969629
588,344,16.1447,-3.15948,0,0,0,0,0,0,0,-1,1812,680,16.1447,3.15946
595,344,22.8352,-5.85815,0,0,0,0,0,0,0,-1,1819,680,22.8352,5.85818
602,344,23.0483,-5.20618,0.00176579,0.000608315,0.000434952,0.00191101,0.000463091,0.322247,0.00115113,0.0449589,1826,680,23.0483,5.20616
609,344,23.0278,-4.63385,0.00159637,0.000703428,0.000517973,0.00183373,0.000466062,0.429701,0.00110054,0.0155765,1833,680,23.0278,4.63385
616,344,22.9777,-4.09229,0.00148463,0.000841738,0.000660095,0.00189738,0.000428981,0.558815,0.00114894,0.0222235,1840,680,22.9777,4.09231
623,344,22.983,-3.55164,0.00143496,0.00104496,0.00088852,0.00214963,0.000330295,0.677379,0.00133666,0.0207067,1847,680,22.983,3.55161
630,344,22.9348,-3.06104,0.0013339,0.00122388,0.00115833,0.00243853,0.000119256,0.761671,0.00158743,0.0259971,1854,680,22.9348,3.06103
637,344,22.9161,-2.52069,0.00107204,0.00135388,0.00137381,0.00259398,-0.000168058,0.836507,0.00178797,0.0235382,1861,680,22.9161,2.52067
644,344,22.9183,-1.93964,0.000639969,0.00144142,0.00155526,0.00264675,-0.000565363,0.911484,0.00198004,0.0165209,1868,680,22.9183,1.93964
651,344,22.902,-1.36877,-8.78463e-05,0.00148055,0.00165918,0.00253152,-0.00113882,1.00616,0.00216933,0.0119443,1875,680,22.902,1.36879
658,344,22.9155,-0.753906,-0.00125182,0.00139817,0.00159619,0.00214765,-0.0020013,1.13181,0.00239589,0.0228774,1882,680,22.9155,0.753927
665,344,22.7987,-0.722168,0,0,0,0,0,0,0,-1,1889,680,22.7987,0.722175
672,344,22.847,0.140625,0,0,0,0,0,0,0,-1,1896,680,22.847,-0.140605
679,344,23.399,0.345093,0,0,0,0,0,0,0,-1,1903,680,23.399,-0.345087
686,344,15.024,1.82709,0,0,0,0,0,0,0,-1,1910,680,15.024,-1.82706
693,344,12.4362,-1.42346,0,0,0,0,0,0,0,-1,1917,680,12.4361,1.42348
700,344,17.5396,2.61206,0,0,0,0,0,0,0,-1,1924,680,17.5396,-2.61204
707,344,18.5829,3.29352,0,0,0,0,0,0,0,-1,1931,680,18.5828,-3.2935
714,344,0,0,0,0,0,0,0,0,0,-1,1938,680,0,0
721,344,0,0,0,0,0,0,0,0,0,-1,1945,680,0,0
728,344,0,0,0,0,0,0,0,0,0,-1,1952,680,0,0
735,344,0,0,0,0,0,0,0,0,0,-1,1959,680,0,0
742,344,0,0,0,0,0,0,0,0,0,-1,1966,680,0,0
749,344,0,0,0,0,0,0,0,0,0,-1,1973,680,0,0
756,344,0,0,0,0,0,0,0,0,0,-1,1980,680,0,0
763,344,0,0,0,0,0,0,0,0,0,-1,1987,680,0,0
770,344,0,0,0,0,0,0,0,0,0,-1,1994,680,0,0
777,344,0,0,0,0,0,0,0,0,0,-1,2001,680,0,0
784,344,0,0,0,0,0,0,0,0,0,-1,2008,680,0,0
791,344,0,0,0,0,0,0,0,0,0,-1,2015,680,0,0
798,344,0,0,0,0,0,0,0,0,0,-1,2022,680,0,0
805,344,0,0,0,0,0,0,0,0,0,-1,2029,680,0,0
812,344,0,0,0,0,0,0,0,0,0,-1,2036,680,0,0
-700,337,0,0,0,0,0,0,0,0,0,-1,524,687,0,0
-693,337,0,0,0,0,0,0,0,0,0,-1,531,687,0,0
-686,337,0,0,0,0,0,0,0,0,0,-1,538,687,0,0
-679,337,0,0,0,0,0,0,0,0,0,-1,545,687,0,0
-672,337,0,0,0,0,0,0,0,0,0,-1,552,687,0,0
-665,337,0,0,0,0,0,0,0,0,0,-1,559,687,0,0
-658,337,0,0,0,0,0,0,0,0,0,-1,566,687,0,0
-651,337,0,0,0,0,0,0,0,0,0,-1,573,687,0,0
-644,337,0,0,0,0,0,0,0,0,0,-1,580,687,0,0
-637,337,0,0,0,0,0,0,0,0,0,-1,587,687,0,0
-630,337,0,0,0,0,0,0,0,0,0,-1,594,687,0,0
-623,337,0,0,0,0,0,0,0,0,0,-1,601,687,0,0
-616,337,0,0,0,0,0,0,0,0,0,-1,608,687,0,0
-609,337,0,0,0,0,0,0,0,0,0,-1,615,687,0,0
-602,337,0,0,0,0,0,0,0,0,0,-1,622,687,0,0
-595,337,0,0,0,0,0,0,0,0,0,-1,629,687,0,0
-588,337,-10.8413,1.27863,0,0,0,0,0,0,0,-1,636,687,-10.8413,-1.27861
-581,337,-11.2157,1.31567,0,0,0,0,0,0,0,-1,643,687,-11.2157,-1.3157
-574,337,-6.03339,2.0321,0,0,0,0,0,0,0,-1,650,687,-6.03337,-2.03213
-567,337,-13.8102,1.56787,0,0,0,0,0,0,0,-1,657,687,-13.8102,-1.56789
-560,337,-15.5435,2.34247,0,0,0,0,0,0,0,-1,664,687,-15.5435,-2.34247
-553,337,-14.8145,0.479492,0,0,0,0,0,0,0,-1,671,687,-14.8145,-0.479499
-546,337,-14.3174,-0.884399,0.00726387,0.00875051,-0.0107599,0.0187928,-0.00277838,-0.819885,0.0135499,0.0485645,678,687,-14.3174,0.884373
-539,337,-13.6154,-2.07275,0,0,0,0,0,0,0,-1,685,687,-13.6153,2.07277
-532,337,-13.5927,-2.71033,0.00346171,0.00464405,-0.00519433,0.00928074,-0.00117498,-0.84206,0.0066137,0.0257286,692,687,-13.5926,2.71034
-525,337,-13.6792,-3.24554,0.00238612,0.00308668,-0.00331408,0.00606894,-0.000596141,-0.83805,0.00425861,0.0166036,699,687,-13.6792,3.24554
-518,337,-13.6792,-3.77979,0.00168598,0.00187977,-0.00193562,0.00372092,-0.000155163,-0.810407,0.00253391,0.0238844,706,687,-13.6792,3.7798
-511,337,-13.7339,-4.28467,0.00132086,0.00104475,-0.0010109,0.00220309,0.00016252,-0.717534,0.00141766,0.0247656,713,687,-13.7339,4.28469
-504,337,-13.7298,-4.83453,0.00133241,0.000514296,-0.000422132,0.00151116,0.000335541,-0.400564,0.000916309,0.0247744,720,687,-13.7298,4.83452
-497,337,-13.6914,-5.35156,0.00200852,0.000445161,-6.69376e-05,0.00201138,0.0004423,-0.0427124,0.0012205,0.0176225,727,687,-13.6914,5.35154
-490,337,-13.7279,-5.85559,0.00306625,0.000624624,9.11996e-05,0.00306965,0.000621222,0.0372827,0.001874,0.0144283,734,687,-13.7279,5.85562
-483,337,-13.7157,-6.37189,0.00491558,0.0013179,3.08628e-05,0.00491584,0.00131763,0.00857768,0.00293821,0.0144993,741,687,-13.7157,6.37187
-476,337,-13.7198,-6.9118,0.00758353,0.00256005,-9.26935e-05,0.00758524,0.00255834,-0.0184437,0.00445597,0.0149096,748,687,-13.7198,6.91182
-469,337,-13.706,-7.5592,0.0114141,0.00401317,-2.42929e-05,0.0114142,0.00401309,-0.00328237,0.00668605,0.0468252,755,687,-13.706,7.55921
-462,337,-13.3365,-8.1001,0,0,0,0,0,0,0,-1,762,687,-13.3365,8.10013
-455,337,-6.00574,-3.12933,0,0,0,0,0,0,0,-1,769,687,-6.00576,3.12934
-448,337,-5.30627,-2.07202,0,0,0,0,0,0,0,-1,776,687,-5.30628,2.07205
-441,337,-4.24762,-1.49597,0,0,0,0,0,0,0,-1,783,687,-4.24762,1.49598
-434,337,-6.86908,1.37531,0,0,0,0,0,0,0,-1,790,687,-6.86908,-1.3753
-427,337,-9.92004,2.487,0,0,0,0,0,0,0,-1,797,687,-9.92002,-2.48701
-420,337,-2.95996,-1.76697,0,0,0,0,0,0,0,-1,804,687,-2.95998,1.76696
-413,337,-1.29169,-1.99487,0,0,0,0,0,0,0,-1,811,687,-1.29171,1.9949
-406,337,-1.02356,-1.89563,0,0,0,0,0,0,0,-1,818,687,-1.02357,1.89564
-399,337,-0.472839,-2.21338,0,0,0,0,0,0,0,-1,825,687,-0.472837,2.2134
-392,337,0,0,0,0,0,0,0,0,0,-1,832,687,0,0
-385,337,0,0,0,0,0,0,0,0,0,-1,839,687,0,0
-378,337,0,0,0,0,0,0,0,0,0,-1,846,687,0,0
-371,337,0,0,0,0,0,0,0,0,0,-1,853,687,0,0
-364,337,0,0,0,0,0,0,0,0,0,-1,860,687,0,0
-357,337,0,0,0,0,0,0,0,0,0,-1,867,687,0,0
-350,337,0,0,0,0,0,0,0,0,0,-1,874,687,0,0
-343,337,0,0,0,0,0,0,0,0,0,-1,881,687,0,0
-336,337,0,0,0,0,0,0,0,0,0,-1,888,687,0,0
-329,337,0,0,0,0,0,0,0,0,0,-1,895,687,0,0
-322,337,0,0,0,0,0,0,0,0,0,-1,902,687,0,0
-315,337,0,0,0,0,0,0,0,0,0,-1,909,687,0,0
-308,337,0,0,0,0,0,0,0,0,0,-1,916,687,0,0
-301,337,0,0,0,0,0,0,0,0,0,-1,923,687,0,0
-294,337,0,0,0,0,0,0,0,0,0,-1,930,687,0,0
-287,337,0,0,0,0,0,0,0,0,0,-1,937,687,0,0
-280,337,0,0,0,0,0,0,0,0,0,-1,944,687,0,0
-273,337,0,0,0,0,0,0,0,0,0,-1,951,687,0,0
-266,337,0,0,0,0,0,0,0,0,0,-1,958,687,0,0
-259,337,0,0,0,0,0,0,0,0,0,-1,965,687,0,0
-252,337,0,0,0,0,0,0,0,0,0,-1,972,687,0,0
-245,337,0,0,0,0,0,0,0,0,0,-1,979,687,0,0
-238,337,0,0,0,0,0,0,0,0,0,-1,986,687,0,0
-231,337,0,0,0,0,0,0,0,0,0,-1,993,687,0,0
-224,337,0,0,0,0,0,0,0,0,0,-1,1000,687,0,0
-217,337,0,0,0,0,0,0,0,0,0,-1,1007,687,0,0
-210,337,0,0,0,0,0,0,0,0,0,-1,1014,687,0,0
-203,337,0,0,0,0,0,0,0,0,0,-1,1021,687,0,0
-196,337,0,0,0,0,0,0,0,0,0,-1,1028,687,0,0
-189,337,0,0,0,0,0,0,0,0,0,-1,1035,687,0,0
-182,337,0,0,0,0,0,0,0,0,0,-1,1042,687,0,0
-175,337,0,0,0,0,0,0,0,0,0,-1,1049,687,0,0
-168,337,0,0,0,0,0,0,0,0,0,-1,1056,687,0,0
-161,337,0,0,0,0,0,0,0,0,0,-1,1063,687,0,0
-154,337,0,0,0,0,0,0,0,0,0,-1,1070,687,0,0
-147,337,0,0,0,0,0,0,0,0,0,-1,1077,687,0,0
-140,337,0,0,0,0,0,0,0,0,0,-1,1084,687,0,0
-133,337,0,0,0,0,0,0,0,0,0,-1,1091,687,0,0
-126,337,0,0,0,0,0,0,0,0,0,-1,1098,687,0,0
-119,337,0,0,0,0,0,0,0,0,0,-1,1105,687,0,0
-112,337,0,0,0,0,0,0,0,0,0,-1,1112,687,0,0
-105,337,0,0,0,0,0,0,0,0,0,-1,1119,687,0,0
-98,337,0,0,0,0,0,0,0,0,0,-1,1126,687,0,0
-91,337,0,0,0,0,0,0,0,0,0,-1,1133,687,0,0
-84,337,0,0,0,0,0,0,0,0,0,-1,1140,687,0,0
-77,337,0,0,0,0,0,0,0,0,0,-1,1147,687,0,0
-70,337,0,0,0,0,0,0,0,0,0,-1,1154,687,0,0
-63,337,0,0,0,0,0,0,0,0,0,-1,1161,687,0,0
-56,337,0,0,0,0,0,0,0,0,0,-1,1168,687,0,0
-49,337,0,0,0,0,0,0,0,0,0,-1,1175,687,0,0
-42,337,0,0,0,0,0,0,0,0,0,-1,1182,687,0,0
-35,337,0,0,0,0,0,0,0,0,0,-1,1189,687,0,0
-28,337,0,0,0,0,0,0,0,0,0,-1,1196,687,0,0
-21,337,0,0,0,0,0,0,0,0,0,-1,1203,687,0,0
-14,337,0,0,0,0,0,0,0,0,0,-1,1210,687,0,0
-7,337,0,0,0,0,0,0,0,0,0,-1,1217,687,0,0
0,337,0,0,0,0,0,0,0,0,0,-1,1224,687,0,0
7,337,0,0,0,0,0,0,0,0,0,-1,1231,687,0,0
14,337,0,0,0,0,0,0,0,0,0,-1,1238,687,0,0
21,337,0,0,0,0,0,0,0,0,0,-1,1245,687,0,0
28,337,0,0,0,0,0,0,0,0,0,-1,1252,687,0,0
35,337,0,0,0,0,0,0,0,0,0,-1,1259,687,0,0
42,337,0,0,0,0,0,0,0,0,0,-1,1266,687,0,0
49,337,0,0,0,0,0,0,0,0,0,-1,1273,687,0,0
56,337,0,0,0,0,0,0,0,0,0,-1,1280,687,0,0
63,337,0,0,0,0,0,0,0,0,0,-1,1287,687,0,0
70,337,0,0,0,0,0,0,0,0,0,-1,1294,687,0,0
77,337,0,0,0,0,0,0,0,0,0,-1,1301,687,0,0
84,337,0,0,0,0,0,0,0,0,0,-1,1308,687,0,0
91,337,0,0,0,0,0,0,0,0,0,-1,1315,687,0,0
98,337,0,0,0,0,0,0,0,0,0,-1,1322,687,0,0
105,337,0,0,0,0,0,0,0,0,0,-1,1329,687,0,0
112,337,0,0,0,0,0,0,0,0,0,-1,1336,687,0,0
119,337,0,0,0,0,0,0,0,0,0,-1,1343,687,0,0
126,337,0,0,0,0,0,0,0,0,0,-1,1350,687,0,0
133,337,0,0,0,0,0,0,0,0,0,-1,1357,687,0,0
140,337,0,0,0,0,0,0,0,0,0,-1,1364,687,0,0
147,337,0,0,0,0,0,0,0,0,0,-1,1371,687,0,0
154,337,0,0,0,0,0,0,0,0,0,-1,1378,687,0,0
161,337,0,0,0,0,0,0,0,0,0,-1,1385,687,0,0
168,337,0,0,0,0,0,0,0,0,0,-1,1392,687,0,0
175,337,0,0,0,0,0,0,0,0,0,-1,1399,687,0,0
182,337,0,0,0,0,0,0,0,0,0,-1,1406,687,0,0
189,337,0,0,0,0,0,0,0,0,0,-1,1413,687,0,0
196,337,0,0,0,0,0,0,0,0,0,-1,1420,687,0,0
203,337,0,0,0,0,0,0,0,0,0,-1,1427,687,0,0
210,337,0,0,0,0,0,0,0,0,0,-1,1434,687,0,0
217,337,0,0,0,0,0,0,0,0,0,-1,1441,687,0,0
224,337,0,0,0,0,0,0,0,0,0,-1,1448,687,0,0
231,337,0,0,0,0,0,0,0,0,0,-1,1455,687,0,0
238,337,0,0,0,0,0,0,0,0,0,-1,1462,687,0,0
245,337,0,0,0,0,0,0,0,0,0,-1,1469,687,0,0
252,337,0,0,0,0,0,0,0,0,0,-1,1476,687,0,0
259,337,0,0,0,0,0,0,0,0,0,-1,1483,687,0,0
266,337,0,0,0,0,0,0,0,0,0,-1,1490,687,0,0
273,337,0,0,0,0,0,0,0,0,0,-1,1497,687,0,0
280,337,0,0,0,0,0,0,0,0,0,-1,1504,687,0,0
287,337,0,0,0,0,0,0,0,0,0,-1,1511,687,0,0
294,337,0,0,0,0,0,0,0,0,0,-1,1518,687,0,0
301,337,0,0,0,0,0,0,0,0,0,-1,1525,687,0,0
308,337,0,0,0,0,0,0,0,0,0,-1,1532,687,0,0
315,337,0,0,0,0,0,0,0,0,0,-1,1539,687,0,0
322,337,0,0,0,0,0,0,0,0,0,-1,1546,687,0,0
329,337,0,0,0,0,0,0,0,0,0,-1,1553,687,0,0
336,337,0,0,0,0,0,0,0,0,0,-1,1560,687,0,0
343,337,0,0,0,0,0,0,0,0,0,-1,1567,687,0,0
350,337,0,0,0,0,0,0,0,0,0,-1,1574,687,0,0
357,337,0,0,0,0,0,0,0,0,0,-1,1581,687,0,0
364,337,0,0,0,0,0,0,0,0,0,-1,1588,687,0,0
371,337,0,0,0,0,0,0,0,0,0,-1,1595,687,0,0
378,337,0,0,0,0,0,0,0,0,0,-1,1602,687,0,0
385,337,0,0,0,0,0,0,0,0,0,-1,1609,687,0,0
392,337,0,0,0,0,0,0,0,0,0,-1,1616,687,0,0
399,337,0,0,0,0,0,0,0,0,0,-1,1623,687,0,0
406,337,0,0,0,0,0,0,0,0,0,-1,1630,687,0,0
413,337,0,0,0,0,0,0,0,0,0,-1,1637,687,0,0
420,337,0,0,0,0,0,0,0,0,0,-1,1644,687,0,0
427,337,0,0,0,0,0,0,0,0,0,-1,1651,687,0,0
434,337,0,0,0,0,0,0,0,0,0,-1,1658,687,0,0
441,337,0,0,0,0,0,0,0,0,0,-1,1665,687,0,0
448,337,0,0,0,0,0,0,0,0,0,-1,1672,687,0,0
455,337,0,0,0,0,0,0,0,0,0,-1,1679,687,0,0
462,337,0,0,0,0,0,0,0,0,0,-1,1686,687,0,0
469,337,0,0,0,0,0,0,0,0,0,-1,1693,687,0,0
476,337,0,0,0,0,0,0,0,0,0,-1,1700,687,0,0
483,337,0,0,0,0,0,0,0,0,0,-1,1707,687,0,0
490,337,0,0,0,0,0,0,0,0,0,-1,1714,687,0,0
497,337,0,0,0,0,0,0,0,0,0,-1,1721,687,0,0
504,337,0,0,0,0,0,0,0,0,0,-1,1728,687,0,0
511,337,0,0,0,0,0,0,0,0,0,-1,1735,687,0,0
518,337,18.0369,1.64581,0,0,0,0,0,0,0,-1,1742,687,18.0368,-1.64581
525,337,31.0717,2.13745,0,0,0,0,0,0,0,-1,1749,687,31.0717,-2.13747
532,337,31.5126,2.13904,0,0,0,0,0,0,0,-1,1756,687,31.5125,-2.13905
539,337,31.9684,2.15594,0,0,0,0,0,0,0,-1,1763,687,31.9684,-2.15596
546,337,32.3584,1.43719,0,0,0,0,0,0,0,-1,1770,687,32.3585,-1.43722
553,337,32.1809,1.36395,0,0,0,0,0,0,0,-1,1777,687,32.181,-1.36396
560,337,18.4053,3.62793,0,0,0,0,0,0,0,-1,1784,687,18.4052,-3.6279
567,337,11.9288,1.38776,0,0,0,0,0,0,0,-1,1791,687,11.9288,-1.38777
574,337,10.704,1.19476,0,0,0,0,0,0,0,-1,1798,687,10.704,-1.19478
581,337,8.50427,0.561768,0,0,0,0,0,0,0,-1,1805,687,8.5043,-0.561754
588,337,8.5885,-0.0536499,0,0,0,0,0,0,0,-1,1812,687,8.58844,0.0536788
595,337,13.8816,-1.70703,0,0,0,0,0,0,0,-1,1819,687,13.8816,1.70702
602,337,23.5123,-5.25098,0,0,0,0,0,0,0,-1,1826,687,23.5124,5.25099
609,337,23.5491,-4.5719,0.00288544,0.000428195,0.000814953,0.00313115,0.000182483,0.292837,0.00202934,0.027883,1833,687,23.5491,4.57192
616,337,23.5225,-4.04663,0.00203393,0.000552891,0.000714799,0.00232264,0.000264185,0.383863,0.00146831,0.0164245,1840,687,23.5225,4.04663
623,337,23.5212,-3.52167,0.00145338,0.000724809,0.000766516,0.00193777,0.000240417,0.563574,0.00121963,0.0149883,1847,687,23.5213,3.52167
630,337,23.4834,-2.99823,0.00114116,0.00081061,0.000876889,0.00186821,8.35572e-05,0.692251,0.00121858,0.0187779,1854,687,23.4834,2.99821
637,337,23.4877,-2.4491,0.000800225,0.000849183,0.00100209,0.00182709,-0.000177685,0.79761,0.0012814,0.0168627,1861,687,23.4876,2.44912
644,337,23.4664,-1.87708,0.000294425,0.000854759,0.00109598,0.00170582,-0.000556631,0.910534,0.00136123,0.0114696,1868,687,23.4664,1.87708
651,337,23.4385,-1.34192,-0.000484297,0.000872112,0.0011298,0.00151164,-0.00112382,1.05571,0.00152707,0.00983215,1875,687,23.4385,1.34194
658,337,23.448,-0.79364,-0.00162633,0.000797573,0.00103945,0.00118227,-0.00201103,1.21633,0.00186423,0.0108205,1882,687,23.448,0.79365
665,337,23.4614,-0.246338,-0.00324888,0.000610792,0.000801926,0.000770777,-0.00340886,1.37388,0.00256835,0.0144759,1889,687,23.4614,0.246318
672,337,23.4375,0.245178,-0.00553368,0.00026164,0.0002484,0.000272267,-0.00554431,1.52804,0.00379022,0.0313718,1896,687,23.4375,-0.245203
679,337,23.1414,0.851929,0,0,0,0,0,0,0,-1,1903,687,23.1414,-0.851909
686,337,18.5614,1.68597,0,0,0,0,0,0,0,-1,1910,687,18.5614,-1.68598
693,337,16.5415,2.21411,0,0,0,0,0,0,0,-1,1917,687,16.5415,-2.2141
700,337,17.2661,2.44379,0,0,0,0,0,0,0,-1,1924,687,17.2661,-2.44378
707,337,17.3544,5.61853,0,0,0,0,0,0,0,-1,1931,687,17.3543,-5.61851
714,337,0,0,0,0,0,0,0,0,0,-1,1938,687,0,0
721,337,0,0,0,0,0,0,0,0,0,-1,1945,687,0,0
728,337,0,0,0,0,0,0,0,0,0,-1,1952,687,0,0
735,337,0,0,0,0,0,0,0,0,0,-1,1959,687,0,0
742,337,0,0,0,0,0,0,0,0,0,-1,1966,687,0,0
749,337,0,0,0,0,0,0,0,0,0,-1,1973,687,0,0
756,337,0,0,0,0,0,0,0,0,0,-1,1980,687,0,0
763,337,0,0,0,0,0,0,0,0,0,-1,1987,687,0,0
770,337,0,0,0,0,0,0,0,0,0,-1,1994,687,0,0
777,337,0,0,0,0,0,0,0,0,0,-1,2001,687,0,0
784,337,0,0,0,0,0,0,0,0,0,-1,2008,687,0,0
791,337,0,0,0,0,0,0,0,0,0,-1,2015,687,0,0
798,337,0,0,0,0,0,0,0,0,0,-1,2022,687,0,0
805,337,0,0,0,0,0,0,0,0,0,-1,2029,687,0,0
812,337,0,0,0,0,0,0,0,0,0,-1,2036,687,0,0
-700,330,0,0,0,0,0,0,0,0,0,-1,524,694,0,0
-693,330,0,0,0,0,0,0,0,0,0,-1,531,694,0,0
-686,330,0,0,0,0,0,0,0,0,0,-1,538,694,0,0
-679,330,0,0,0,0,0,0,0,0,0,-1,545,694,0,0
-672,330,0,0,0,0,0,0,0,0,0,-1,552,694,0,0
-665,330,0,0,0,0,0,0,0,0,0,-1,559,694,0,0
-658,330,0,0,0,0,0,0,0,0,0,-1,566,694,0,0
-651,330,0,0,0,0,0,0,0,0,0,-1,573,694,0,0
-644,330,0,0,0,0,0,0,0,0,0,-1,580,694,0,0
-637,330,0,0,0,0,0,0,0,0,0,-1,587,694,0,0
-630,330,0,0,0,0,0,0,0,0,0,-1,594,694,0,0
-623,330,0,0,0,0,0,0,0,0,0,-1,601,694,0,0
-616,330,0,0,0,0,0,0,0,0,0,-1,608,694,0,0
-609,330,0,0,0,0,0,0,0,0,0,-1,615,694,0,0
-602,330,0,0,0,0,0,0,0,0,0,-1,622,694,0,0
-595,330,-4.67883,1.65515,0,0,0,0,0,0,0,-1,629,694,-4.67881,-1.65515
-588,330,-8.5047,2.67346,0,0,0,0,0,0,0,-1,636,694,-8.50469,-2.67348
-581,330,-12.4227,0.947083,0,0,0,0,0,0,0,-1,643,694,-12.4227,-0.947109
-574,330,-9.02118,1.87952,0,0,0,0,0,0,0,-1,650,694,-9.02115,-1.87953
-567,330,-8.35577,0.909973,0,0,0,0,0,0,0,-1,657,694,-8.35575,-0.909945
-560,330,-13.1036,-0.584656,0,0,0,0,0,0,0,-1,664,694,-13.1035,0.584658
-553,330,-14.0664,-0.757385,0,0,0,0,0,0,0,-1,671,694,-14.0664,0.757385
-546,330,-14.0161,-1.47772,0,0,0,0,0,0,0,-1,678,694,-14.0161,1.47772
-539,330,-14.1995,-2.09241,0,0,0,0,0,0,0,-1,685,694,-14.1995,2.0924
-532,330,-14.192,-2.6864,0.0025253,0.00324227,-0.00376911,0.0066699,-0.000902333,-0.832811,0.00477588,0.0139885,692,694,-14.192,2.6864
-525,330,-14.1833,-3.25763,0.00188273,0.00202231,-0.00234726,0.00430082,-0.000395773,-0.800259,0.00300783,0.0109916,699,694,-14.1833,3.25763
-518,330,-14.1816,-3.74255,0.00147508,0.00110503,-0.00128715,0.00259044,-1.03273e-05,-0.714014,0.00173041,0.0153044,706,694,-14.1817,3.74257
-511,330,-14.2289,-4.25647,0.00127979,0.000462321,-0.000552087,0.00155798,0.000184132,-0.466752,0.000983039,0.0211303,713,694,-14.2289,4.25646
-504,330,-14.2122,-4.81256,0.00170451,0.000226642,-2.69738e-05,0.00170501,0.00022615,-0.0182437,0.00106929,0.0199789,720,694,-14.2122,4.81259
-497,330,-14.2234,-5.30811,0.00315982,0.000637031,0.000486398,0.00325035,0.000546501,0.184017,0.00200966,0.0148813,727,694,-14.2234,5.3081
-490,330,-14.224,-5.82733,0.00532742,0.00148751,0.000790697,0.00548386,0.00133107,0.195332,0.00330286,0.0137556,734,694,-14.224,5.82734
-483,330,-14.2299,-6.349,0.00866768,0.00298745,0.00119473,0.00890874,0.00274639,0.199095,0.00526799,0.0133804,741,694,-14.2299,6.34898
-476,330,-14.2301,-6.89563,0.0135375,0.00538941,0.00178607,0.0139118,0.00501509,0.206584,0.00813554,0.039716,748,694,-14.2301,6.89562
-469,330,-14.0015,-7.58032,0,0,0,0,0,0,0,-1,755,694,-14.0015,7.58031
-462,330,-7.26733,-3.84833,0,0,0,0,0,0,0,-1,762,694,-7.26731,3.84832
-455,330,-5.04254,-1.79303,0,0,0,0,0,0,0,-1,769,694,-5.04252,1.79305
-448,330,-4.89886,-1.66156,0,0,0,0,0,0,0,-1,776,694,-4.89886,1.66157
-441,330,-5.30676,-2.34045,0,0,0,0,0,0,0,-1,783,694,-5.30679,2.34048
-434,330,-7.20428,1.00024,0,0,0,0,0,0,0,-1,790,694,-7.20431,-1.00027
-427,330,-16.0428,2.89258,0,0,0,0,0,0,0,-1,797,694,-16.0428,-2.89259
-420,330,-29.0331,0.271606,0,0,0,0,0,0,0,-1,804,694,-29.0331,-0.27158
-413,330,-29.0896,0.56366,0,0,0,0,0,0,0,-1,811,694,-29.0896,-0.563671
-406,330,-1.65375,-1.74371,0,0,0,0,0,0,0,-1,818,694,-1.65375,1.74371
-399,330,0,0,0,0,0,0,0,0,0,-1,825,694,0,0
-392,330,0,0,0,0,0,0,0,0,0,-1,832,694,0,0
-385,330,0,0,0,0,0,0,0,0,0,-1,839,694,0,0
-378,330,0,0,0,0,0,0,0,0,0,-1,846,694,0,0
-371,330,0,0,0,0,0,0,0,0,0,-1,853,694,0,0
-364,330,0,0,0,0,0,0,0,0,0,-1,860,694,0,0
-357,330,0,0,0,0,0,0,0,0,0,-1,867,694,0,0
-350,330,0,0,0,0,0,0,0,0,0,-1,874,694,0,0
-343,330,0,0,0,0,0,0,0,0,0,-1,881,694,0,0
-336,330,0,0,0,0,0,0,0,0,0,-1,888,694,0,0
-329,330,0,0,0,0,0,0,0,0,0,-1,895,694,0,0
-322,330,0,0,0,0,0,0,0,0,0,-1,902,694,0,0
-315,330,0,0,0,0,0,0,0,0,0,-1,909,694,0,0
-308,330,0,0,0,0,0,0,0,0,0,-1,916,694,0,0
-301,330,0,0,0,0,0,0,0,0,0,-1,923,694,0,0
-294,330,0,0,0,0,0,0,0,0,0,-1,930,694,0,0
-287,330,0,0,0,0,0,0,0,0,0,-1,937,694,0,0
-280,330,0,0,0,0,0,0,0,0,0,-1,944,694,0,0
-273,330,0,0,0,0,0,0,0,0,0,-1,951,694,0,0
-266,330,0,0,0,0,0,0,0,0,0,-1,958,694,0,0
-259,330,0,0,0,0,0,0,0,0,0,-1,965,694,0,0
-252,330,0,0,0,0,0,0,0,0,0,-1,972,694,0,0
-245,330,0,0,0,0,0,0,0,0,0,-1,979,694,0,0
-238,330,0,0,0,0,0,0,0,0,0,-1,986,694,0,0
-231,330,0,0,0,0,0,0,0,0,0,-1,993,694,0,0
-224,330,0,0,0,0,0,0,0,0,0,-1,1000,694,0,0
-217,330,0,0,0,0,0,0,0,0,0,-1,1007,694,0,0
-210,330,0,0,0,0,0,0,0,0,0,-1,1014,694,0,0
-203,330,0,0,0,0,0,0,0,0,0,-1,1021,694,0,0
-196,330,0,0,0,0,0,0,0,0,0,-1,1028,694,0,0
-189,330,0,0,0,0,0,0,0,0,0,-1,1035,694,0,0
-182,330,0,0,0,0,0,0,0,0,0,-1,1042,694,0,0
-175,330,0,0,0,0,0,0,0,0,0,-1,1049,694,0,0
-168,330,0,0,0,0,0,0,0,0,0,-1,1056,694,0,0
-161,330,0,0,0,0,0,0,0,0,0,-1,1063,694,0,0
-154,330,0,0,0,0,0,0,0,0,0,-1,1070,694,0,0
-147,330,0,0,0,0,0,0,0,0,0,-1,1077,694,0,0
-140,330,0,0,0,0,0,0,0,0,0,-1,1084,694,0,0
-133,330,0,0,0,0,0,0,0,0,0,-1,1091,694,0,0
-126,330,0,0,0,0,0,0,0,0,0,-1,1098,694,0,0
-119,330,0,0,0,0,0,0,0,0,0,-1,1105,694,0,0
-112,330,0,0,0,0,0,0,0,0,0,-1,1112,694,0,0
-105,330,0,0,0,0,0,0,0,0,0,-1,1119,694,0,0
-98,330,0,0,0,0,0,0,0,0,0,-1,1126,694,0,0
-91,330,0,0,0,0,0,0,0,0,0,-1,1133,694,0,0
-84,330,0,0,0,0,0,0,0,0,0,-1,1140,694,0,0
-77,330,0,0,0,0,0,0,0,0,0,-1,1147,694,0,0
-70,330,0,0,0,0,0,0,0,0,0,-1,1154,694,0,0
-63,330,0,0,0,0,0,0,0,0,0,-1,1161,694,0,0
-56,330,0,0,0,0,0,0,0,0,0,-1,1168,694,0,0
-49,330,0,0,0,0,0,0,0,0,0,-1,1175,694,0,0
-42,330,0,0,0,0,0,0,0,0,0,-1,1182,694,0,0
-35,330,0,0,0,0,0,0,0,0,0,-1,1189,694,0,0
-28,330,0,0,0,0,0,0,0,0,0,-1,1196,694,0,0
-21,330,0,0,0,0,0,0,0,0,0,-1,1203,694,0,0
-14,330,0,0,0,0,0,0,0,0,0,-1,1210,694,0,0
-7,330,0,0,0,0,0,0,0,0,0,-1,1217,694,0,0
0,330,0,0,0,0,0,0,0,0,0,-1,1224,694,0,0
7,330,0,0,0,0,0,0,0,0,0,-1,1231,694,0,0
14,330,0,0,0,0,0,0,0,0,0,-1,1238,694,0,0
21,330,0,0,0,0,0,0,0,0,0,-1,1245,694,0,0
28,330,0,0,0,0,0,0,0,0,0,-1,1252,694,0,0
35,330,0,0,0,0,0,0,0,0,0,-1,1259,694,0,0
42,330,0,0,0,0,0,0,0,0,0,-1,1266,694,0,0
49,330,0,0,0,0,0,0,0,0,0,-1,1273,694,0,0
56,330,0,0,0,0,0,0,0,0,0,-1,1280,694,0,0
63,330,0,0,0,0,0,0,0,0,0,-1,1287,694,0,0
70,330,0,0,0,0,0,0,0,0,0,-1,1294,694,0,0
77,330,0,0,0,0,0,0,0,0,0,-1,1301,694,0,0
84,330,0,0,0,0,0,0,0,0,0,-1,1308,694,0,0
91,330,0,0,0,0,0,0,0,0,0,-1,1315,694,0,0
98,330,0,0,0,0,0,0,0,0,0,-1,1322,694,0,0
105,330,0,0,0,0,0,0,0,0,0,-1,1329,694,0,0
112,330,0,0,0,0,0,0,0,0,0,-1,1336,694,0,0
119,330,0,0,0,0,0,0,0,0,0,-1,1343,694,0,0
126,330,0,0,0,0,0,0,0,0,0,-1,1350,694,0,0
133,330,0,0,0,0,0,0,0,0,0,-1,1357,694,0,0
140,330,0,0,0,0,0,0,0,0,0,-1,1364,694,0,0
147,330,0,0,0,0,0,0,0,0,0,-1,1371,694,0,0
154,330,0,0,0,0,0,0,0,0,0,-1,1378,694,0,0
161,330,0,0,0,0,0,0,0,0,0,-1,1385,694,0,0
168,330,0,0,0,0,0,0,0,0,0,-1,1392,694,0,0
175,330,0,0,0,0,0,0,0,0,0,-1,1399,694,0,0
182,330,0,0,0,0,0,0,0,0,0,-1,1406,694,0,0
189,330,0,0,0,0,0,0,0,0,0,-1,1413,694,0,0
196,330,0,0,0,0,0,0,0,0,0,-1,1420,694,0,0
203,330,0,0,0,0,0,0,0,0,0,-1,1427,694,0,0
210,330,0,0,0,0,0,0,0,0,0,-1,1434,694,0,0
217,330,0,0,0,0,0,0,0,0,0,-1,1441,694,0,0
224,330,0,0,0,0,0,0,0,0,0,-1,1448,694,0,0
231,330,0,0,0,0,0,0,0,0,0,-1,1455,694,0,0
238,330,0,0,0,0,0,0,0,0,0,-1,1462,694,0,0
245,330,0,0,0,0,0,0,0,0,0,-1,1469,694,0,0
252,330,0,0,0,0,0,0,0,0,0,-1,1476,694,0,0
259,330,0,0,0,0,0,0,0,0,0,-1,1483,694,0,0
266,330,0,0,0,0,0,0,0,0,0,-1,1490,694,0,0
273,330,0,0,0,0,0,0,0,0,0,-1,1497,694,0,0
280,330,0,0,0,0,0,0,0,0,0,-1,1504,694,0,0
287,330,0,0,0,0,0,0,0,0,0,-1,1511,694,0,0
294,330,0,0,0,0,0,0,0,0,0,-1,1518,694,0,0
301,330,0,0,0,0,0,0,0,0,0,-1,1525,694,0,0
308,330,0,0,0,0,0,0,0,0,0,-1,1532,694,0,0
315,330,0,0,0,0,0,0,0,0,0,-1,1539,694,0,0
322,330,0,0,0,0,0,0,0,0,0,-1,1546,694,0,0
329,330,0,0,0,0,0,0,0,0,0,-1,1553,694,0,0
336,330,0,0,0,0,0,0,0,0,0,-1,1560,694,0,0
343,330,0,0,0,0,0,0,0,0,0,-1,1567,694,0,0
350,330,0,0,0,0,0,0,0,0,0,-1,1574,694,0,0
357,330,0,0,0,0,0,0,0,0,0,-1,1581,694,0,0
364,330,0,0,0,0,0,0,0,0,0,-1,1588,694,0,0
371,330,0,0,0,0,0,0,0,0,0,-1,1595,694,0,0
378,330,0,0,0,0,0,0,0,0,0,-1,1602,694,0,0
385,330,0,0,0,0,0,0,0,0,0,-1,1609,694,0,0
392,330,0,0,0,0,0,0,0,0,0,-1,1616,694,0,0
399,330,0,0,0,0,0,0,0,0,0,-1,1623,694,0,0
406,330,0,0,0,0,0,0,0,0,0,-1,1630,694,0,0
413,330,0,0,0,0,0,0,0,0,0,-1,1637,694,0,0
420,330,0,0,0,0,0,0,0,0,0,-1,1644,694,0,0
427,330,0,0,0,0,0,0,0,0,0,-1,1651,694,0,0
434,330,0,0,0,0,0,0,0,0,0,-1,1658,694,0,0
441,330,0,0,0,0,0,0,0,0,0,-1,1665,694,0,0
448,330,0,0,0,0,0,0,0,0,0,-1,1672,694,0,0
455,330,0,0,0,0,0,0,0,0,0,-1,1679,694,0,0
462,330,0,0,0,0,0,0,0,0,0,-1,1686,694,0,0
469,330,0,0,0,0,0,0,0,0,0,-1,1693,694,0,0
476,330,0,0,0,0,0,0,0,0,0,-1,1700,694,0,0
483,330,0,0,0,0,0,0,0,0,0,-1,1707,694,0,0
490,330,0,0,0,0,0,0,0,0,0,-1,1714,694,0,0
497,330,0,0,0,0,0,0,0,0,0,-1,1721,694,0,0
504,330,0,0,0,0,0,0,0,0,0,-1,1728,694,0,0
511,330,0,0,0,0,0,0,0,0,0,-1,1735,694,0,0
518,330,0,0,0,0,0,0,0,0,0,-1,1742,694,0,0
525,330,30.6694,0.69519,0,0,0,0,0,0,0,-1,1749,694,30.6694,-0.695206
532,330,30.9469,1.32501,0,0,0,0,0,0,0,-1,1756,694,30.9469,-1.32501
539,330,31.5155,1.62506,0,0,0,0,0,0,0,-1,1763,694,31.5155,-1.62507
546,330,31.4187,1.85651,0,0,0,0,0,0,0,-1,1770,694,31.4187,-1.85651
553,330,31.8452,1.81476,0,0,0,0,0,0,0,-1,1777,694,31.8452,-1.81475
560,330,32.2401,2.43225,0,0,0,0,0,0,0,-1,1784,694,32.2401,-2.43227
567,330,18.0321,3.98578,0,0,0,0,0,0,0,-1,1791,694,18.0321,-3.98576
574,330,12.0454,2.1662,0,0,0,0,0,0,0,-1,1798,694,12.0455,-2.16618
581,330,11.4215,4.50836,0,0,0,0,0,0,0,-1,1805,694,11.4215,-4.50837
588,330,6.45667,-0.0630493,0,0,0,0,0,0,0,-1,1812,694,6.45661,0.0630695
595,330,8.23193,-0.258484,0,0,0,0,0,0,0,-1,1819,694,8.23188,0.258459
602,330,23.7783,-5.31659,0,0,0,0,0,0,0,-1,1826,694,23.7783,5.31657
609,330,23.9919,-4.61047,0.00396742,0.000171127,0.00109793,0.00426208,-0.000123535,0.262201,0.00288345,0.0425438,1833,694,23.992,4.6105
616,330,24.0652,-4.03448,0.00259519,0.00030838,0.000811527,0.00285391,4.96613e-05,0.308618,0.00188627,0.0111562,1840,694,24.0652,4.03449
623,330,24.0598,-3.49518,0.00160935,0.000499281,0.000754023,0.00199059,0.000118038,0.468126,0.00128952,0.0125372,1847,694,24.0599,3.49517
630,330,24.0627,-2.95306,0.00107653,0.000541968,0.000675708,0.0015359,8.25996e-05,0.597062,0.000997541,0.0132464,1854,694,24.0628,2.95307
637,330,24.0551,-2.40692,0.000671396,0.000527145,0.000731525,0.00133434,-0.000135801,0.736259,0.000938111,0.0135884,1861,694,24.0551,2.40695
644,330,24.0054,-1.85895,0.000109409,0.000496121,0.000760923,0.00108787,-0.00048234,0.909819,0.000928759,0.00884826,1868,694,24.0054,1.85892
651,330,23.9889,-1.30975,-0.00068351,0.000516758,0.000746701,0.000874602,-0.00104135,1.1239,0.00110757,0.0111334,1875,694,23.9889,1.30975
658,330,23.9742,-0.763,-0.0017678,0.000473145,0.00064334,0.000644704,-0.00193936,1.31019,0.00155307,0.0109426,1882,694,23.9742,0.763018
665,330,23.9607,-0.212769,-0.00323053,0.000376892,0.00042445,0.00042616,-0.00327979,1.45524,0.00234155,0.00994755,1889,694,23.9607,0.212797
672,330,24.0012,0.351135,-0.00520165,0.000214124,-3.10772e-06,0.000214126,-0.00520165,-1.57022,0.0035413,0.0236851,1896,694,24.0012,-0.351142
679,330,23.6741,0.815613,-0.00813406,-0.00010346,-0.000741747,-3.55225e-05,-0.008202,-1.47946,0.0054562,0.0406009,1903,694,23.6741,-0.815638
686,330,23.4077,1.39783,0,0,0,0,0,0,0,-1,1910,694,23.4077,-1.39784
693,330,17.3999,2.5976,0,0,0,0,0,0,0,-1,1917,694,17.4,-2.59759
700,330,17.1072,4.13,0,0,0,0,0,0,0,-1,1924,694,17.1071,-4.13002
707,330,16.663,4.88672,0,0,0,0,0,0,0,-1,1931,694,16.6629,-4.88673
714,330,16.5454,5.80896,0,0,0,0,0,0,0,-1,1938,694,16.5454,-5.80899
721,330,0,0,0,0,0,0,0,0,0,-1,1945,694,0,0
728,330,0,0,0,0,0,0,0,0,0,-1,1952,694,0,0
735,330,0,0,0,0,0,0,0,0,0,-1,1959,694,0,0
742,330,0,0,0,0,0,0,0,0,0,-1,1966,694,0,0
749,330,0,0,0,0,0,0,0,0,0,-1,1973,694,0,0
756,330,0,0,0,0,0,0,0,0,0,-1,1980,694,0,0
763,330,0,0,0,0,0,0,0,0,0,-1,1987,694,0,0
770,330,0,0,0,0,0,0,0,0,0,-1,1994,694,0,0
777,330,0,0,0,0,0,0,0,0,0,-1,2001,694,0,0
784,330,0,0,0,0,0,0,0,0,0,-1,2008,694,0,0
791,330,0,0,0,0,0,0,0,0,0,-1,2015,694,0,0
798,330,0,0,0,0,0,0,0,0,0,-1,2022,694,0,0
805,330,0,0,0,0,0,0,0,0,0,-1,2029,694,0,0
812,330,0,0,0,0,0,0,0,0,0,-1,2036,694,0,0
-700,323,0,0,0,0,0,0,0,0,0,-1,524,701,0,0
-693,323,0,0,0,0,0,0,0,0,0,-1,531,701,0,0
-686,323,0,0,0,0,0,0,0,0,0,-1,538,701,0,0
-679,323,0,0,0,0,0,0,0,0,0,-1,545,701,0,0
-672,323,0,0,0,0,0,0,0,0,0,-1,552,701,0,0
-665,323,0,0,0,0,0,0,0,0,0,-1,559,701,0,0
-658,323,0,0,0,0,0,0,0,0,0,-1,566,701,0,0
-651,323,0,0,0,0,0,0,0,0,0,-1,573,701,0,0
-644,323,0,0,0,0,0,0,0,0,0,-1,580,701,0,0
-637,323,0,0,0,0,0,0,0,0,0,-1,587,701,0,0
-630,323,0,0,0,0,0,0,0,0,0,-1,594,701,0,0
-623,323,0,0,0,0,0,0,0,0,0,-1,601,701,0,0
-616,323,0,0,0,0,0,0,0,0,0,-1,608,701,0,0
-609,323,0,0,0,0,0,0,0,0,0,-1,615,701,0,0
-602,323,-4.15833,2.12256,0,0,0,0,0,0,0,-1,622,701,-4.1583,-2.12257
-595,323,-4.052,1.79156,0,0,0,0,0,0,0,-1,629,701,-4.05198,-1.79158
-588,323,-4.07019,1.94543,0,0,0,0,0,0,0,-1,636,701,-4.07019,-1.94542
-581,323,-6.63727,0.562805,0,0,0,0,0,0,0,-1,643,701,-6.63728,-0.56279
-574,323,-6.15887,0.426697,0,0,0,0,0,0,0,-1,650,701,-6.15887,-0.426727
-567,323,-10.0015,0.0371094,0,0,0,0,0,0,0,-1,657,701,-10.0015,-0.037126
-560,323,-14.759,-0.82019,0,0,0,0,0,0,0,-1,664,701,-14.759,0.820163
-553,323,-14.6437,-1.28961,0.00344183,0.00620679,-0.00714628,0.0121031,-0.00245447,-0.880945,0.00899915,0.0477692,671,701,-14.6437,1.2896
-546,323,-14.6469,-1.65912,0.00282816,0.00469869,-0.00542911,0.0092725,-0.00174565,-0.870695,0.00683823,0.0215748,678,701,-14.6469,1.65911
-539,323,-14.6381,-2.11499,0.00230148,0.00350493,-0.00397602,0.0069245,-0.00111809,-0.860498,0.00503062,0.017656,685,701,-14.6381,2.11497
-532,323,-14.6718,-2.67468,0.0018838,0.00238881,-0.00273549,0.00488343,-0.000610814,-0.831422,0.00347715,0.0104486,692,701,-14.6718,2.67469
-525,323,-14.7012,-3.22711,0.00154061,0.00142223,-0.00167939,0.00316185,-0.000199006,-0.767783,0.00217727,0.00786688,699,701,-14.7012,3.22712
-518,323,-14.7012,-3.7171,0.0013305,0.000670901,-0.00086444,0.00192592,7.5485e-05,-0.603162,0.00125954,0.0102279,706,701,-14.7013,3.71708
-511,323,-14.7332,-4.23364,0.00123614,0.00010113,-0.000258091,0.00129208,4.51987e-05,-0.213411,0.00084672,0.0142726,713,701,-14.7332,4.23363
-504,323,-14.7631,-4.75256,0.00221601,7.56095e-05,0.000273545,0.00225042,4.12033e-05,0.125122,0.00148673,0.0150237,720,701,-14.7631,4.75258
-497,323,-14.7549,-5.25885,0.00468166,0.000987661,0.00107495,0.00497169,0.000697626,0.263538,0.00310813,0.0122415,727,701,-14.7549,5.25884
-490,323,-14.75,-5.78558,0.00811071,0.00243658,0.00165605,0.00855868,0.00198861,0.264181,0.00517196,0.0133519,734,701,-14.75,5.78556
-483,323,-14.7623,-6.28778,0.0130698,0.00467335,0.00258652,0.0138026,0.00394053,0.276087,0.00820974,0.0248172,741,701,-14.7623,6.28777
-476,323,-14.7043,-6.94208,0,0,0,0,0,0,0,-1,748,701,-14.7043,6.9421
-469,323,-8.33301,-3.64001,0,0,0,0,0,0,0,-1,755,701,-8.33298,3.64
-462,323,-5.29431,-1.45697,0,0,0,0,0,0,0,-1,762,701,-5.29431,1.45699
-455,323,-5.0658,-1.36639,0,0,0,0,0,0,0,-1,769,701,-5.06578,1.3664
-448,323,-4.91608,-1.59601,0,0,0,0,0,0,0,-1,776,701,-4.91606,1.59604
-441,323,-14.4006,0.535217,0,0,0,0,0,0,0,-1,783,701,-14.4006,-0.535203
-434,323,-15.3158,2.479,0,0,0,0,0,0,0,-1,790,701,-15.3158,-2.47898
-427,323,-28.3923,1.16797,0,0,0,0,0,0,0,-1,797,701,-28.3923,-1.16796
-420,323,-28.7292,1.09302,0,0,0,0,0,0,0,-1,804,701,-28.7292,-1.09304
-413,323,-28.7955,1.22418,0,0,0,0,0,0,0,-1,811,701,-28.7956,-1.22419
-406,323,0,0,0,0,0,0,0,0,0,-1,818,701,0,0
-399,323,0,0,0,0,0,0,0,0,0,-1,825,701,0,0
-392,323,0,0,0,0,0,0,0,0,0,-1,832,701,0,0
-385,323,0,0,0,0,0,0,0,0,0,-1,839,701,0,0
-378,323,0,0,0,0,0,0,0,0,0,-1,846,701,0,0
-371,323,0,0,0,0,0,0,0,0,0,-1,853,701,0,0
-364,323,0,0,0,0,0,0,0,0,0,-1,860,701,0,0
-357,323,0,0,0,0,0,0,0,0,0,-1,867,701,0,0
-350,323,0,0,0,0,0,0,0,0,0,-1,874,701,0,0
-343,323,0,0,0,0,0,0,0,0,0,-1,881,701,0,0
-336,323,0,0,0,0,0,0,0,0,0,-1,888,701,0,0
-329,323,0,0,0,0,0,0,0,0,0,-1,895,701,0,0
-322,323,0,0,0,0,0,0,0,0,0,-1,902,701,0,0
-315,323,0,0,0,0,0,0,0,0,0,-1,909,701,0,0
-308,323,0,0,0,0,0,0,0,0,0,-1,916,701,0,0
-301,323,0,0,0,0,0,0,0,0,0,-1,923,701,0,0
-294,323,0,0,0,0,0,0,0,0,0,-1,930,701,0,0
-287,323,0,0,0,0,0,0,0,0,0,-1,937,701,0,0
-280,323,0,0,0,0,0,0,0,0,0,-1,944,701,0,0
-273,323,0,0,0,0,0,0,0,0,0,-1,951,701,0,0
-266,323,0,0,0,0,0,0,0,0,0,-1,958,701,0,0
-259,323,0,0,0,0,0,0,0,0,0,-1,965,701,0,0
-252,323,0,0,0,0,0,0,0,0,0,-1,972,701,0,0
-245,323,0,0,0,0,0,0,0,0,0,-1,979,701,0,0
-238,323,0,0,0,0,0,0,0,0,0,-1,986,701,0,0
-231,323,0,0,0,0,0,0,0,0,0,-1,993,701,0,0
-224,323,0,0,0,0,0,0,0,0,0,-1,1000,701,0,0
-217,323,0,0,0,0,0,0,0,0,0,-1,1007,701,0,0
-210,323,0,0,0,0,0,0,0,0,0,-1,1014,701,0,0
-203,323,0,0,0,0,0,0,0,0,0,-1,1021,701,0,0
-196,323,0,0,0,0,0,0,0,0,0,-1,1028,701,0,0
-189,323,0,0,0,0,0,0,0,0,0,-1,1035,701,0,0
-182,323,0,0,0,0,0,0,0,0,0,-1,1042,701,0,0
-175,323,0,0,0,0,0,0,0,0,0,-1,1049,701,0,0
-168,323,0,0,0,0,0,0,0,0,0,-1,1056,701,0,0
-161,323,0,0,0,0,0,0,0,0,0,-1,1063,701,0,0
-154,323,0,0,0,0,0,0,0,0,0,-1,1070,701,0,0
-147,323,0,0,0,0,0,0,0,0,0,-1,1077,701,0,0
-140,323,0,0,0,0,0,0,0,0,0,-1,1084,701,0,0
-133,323,0,0,0,0,0,0,0,0,0,-1,1091,701,0,0
-126,323,0,0,0,0,0,0,0,0,0,-1,1098,701,0,0
-119,323,0,0,0,0,0,0,0,0,0,-1,1105,701,0,0
-112,323,0,0,0,0,0,0,0,0,0,-1,1112,701,0,0
-105,323,0,0,0,0,0,0,0,0,0,-1,1119,701,0,0
-98,323,0,0,0,0,0,0,0,0,0,-1,1126,701,0,0
-91,323,0,0,0,0,0,0,0,0,0,-1,1133,701,0,0
-84,323,0,0,0,0,0,0,0,0,0,-1,1140,701,0,0
-77,323,0,0,0,0,0,0,0,0,0,-1,1147,701,0,0
-70,323,0,0,0,0,0,0,0,0,0,-1,1154,701,0,0
-63,323,0,0,0,0,0,0,0,0,0,-1,1161,701,0,0
-56,323,0,0,0,0,0,0,0,0,0,-1,1168,701,0,0
-49,323,0,0,0,0,0,0,0,0,0,-1,1175,701,0,0
-42,323,0,0,0,0,0,0,0,0,0,-1,1182,701,0,0
-35,323,0,0,0,0,0,0,0,0,0,-1,1189,701,0,0
-28,323,0,0,0,0,0,0,0,0,0,-1,1196,701,0,0
-21,323,0,0,0,0,0,0,0,0,0,-1,1203,701,0,0
-14,323,0,0,0,0,0,0,0,0,0,-1,1210,701,0,0
-7,323,0,0,0,0,0,0,0,0,0,-1,1217,701,0,0
0,323,0,0,0,0,0,0,0,0,0,-1,1224,701,0,0
7,323,0,0,0,0,0,0,0,0,0,-1,1231,701,0,0
14,323,0,0,0,0,0,0,0,0,0,-1,1238,701,0,0
21,323,0,0,0,0,0,0,0,0,0,-1,1245,701,0,0
28,323,0,0,0,0,0,0,0,0,0,-1,1252,701,0,0
35,323,0,0,0,0,0,0,0,0,0,-1,1259,701,0,0
42,323,0,0,0,0,0,0,0,0,0,-1,1266,701,0,0
49,323,0,0,0,0,0,0,0,0,0,-1,1273,701,0,0
56,323,0,0,0,0,0,0,0,0,0,-1,1280,701,0,0
63,323,0,0,0,0,0,0,0,0,0,-1,1287,701,0,0
70,323,0,0,0,0,0,0,0,0,0,-1,1294,701,0,0
77,323,0,0,0,0,0,0,0,0,0,-1,1301,701,0,0
84,323,0,0,0,0,0,0,0,0,0,-1,1308,701,0,0
91,323,0,0,0,0,0,0,0,0,0,-1,1315,701,0,0
98,323,0,0,0,0,0,0,0,0,0,-1,1322,701,0,0
105,323,0,0,0,0,0,0,0,0,0,-1,1329,701,0,0
112,323,0,0,0,0,0,0,0,0,0,-1,1336,701,0,0
119,323,0,0,0,0,0,0,0,0,0,-1,1343,701,0,0
126,323,0,0,0,0,0,0,0,0,0,-1,1350,701,0,0
133,323,0,0,0,0,0,0,0,0,0,-1,1357,701,0,0
140,323,0,0,0,0,0,0,0,0,0,-1,1364,701,0,0
147,323,0,0,0,0,0,0,0,0,0,-1,1371,701,0,0
154,323,0,0,0,0,0,0,0,0,0,-1,1378,701,0,0
161,323,0,0,0,0,0,0,0,0,0,-1,1385,701,0,0
168,323,0,0,0,0,0,0,0,0,0,-1,1392,701,0,0
175,323,0,0,0,0,0,0,0,0,0,-1,1399,701,0,0
182,323,0,0,0,0,0,0,0,0,0,-1,1406,701,0,0
189,323,0,0,0,0,0,0,0,0,0,-1,1413,701,0,0
196,323,0,0,0,0,0,0,0,0,0,-1,1420,701,0,0
203,323,0,0,0,0,0,0,0,0,0,-1,1427,701,0,0
210,323,0,0,0,0,0,0,0,0,0,-1,1434,701,0,0
217,323,0,0,0,0,0,0,0,0,0,-1,1441,701,0,0
224,323,0,0,0,0,0,0,0,0,0,-1,1448,701,0,0
231,323,0,0,0,0,0,0,0,0,0,-1,1455,701,0,0
238,323,0,0,0,0,0,0,0,0,0,-1,1462,701,0,0
245,323,0,0,0,0,0,0,0,0,0,-1,1469,701,0,0
252,323,0,0,0,0,0,0,0,0,0,-1,1476,701,0,0
259,323,0,0,0,0,0,0,0,0,0,-1,1483,701,0,0
266,323,0,0,0,0,0,0,0,0,0,-1,1490,701,0,0
273,323,0,0,0,0,0,0,0,0,0,-1,1497,701,0,0
280,323,0,0,0,0,0,0,0,0,0,-1,1504,701,0,0
287,323,0,0,0,0,0,0,0,0,0,-1,1511,701,0,0
294,323,0,0,0,0,0,0,0,0,0,-1,1518,701,0,0
301,323,0,0,0,0,0,0,0,0,0,-1,1525,701,0,0
308,323,0,0,0,0,0,0,0,0,0,-1,1532,701,0,0
315,323,0,0,0,0,0,0,0,0,0,-1,1539,701,0,0
322,323,0,0,0,0,0,0,0,0,0,-1,1546,701,0,0
329,323,0,0,0,0,0,0,0,0,0,-1,1553,701,0,0
336,323,0,0,0,0,0,0,0,0,0,-1,1560,701,0,0
343,323,0,0,0,0,0,0,0,0,0,-1,1567,701,0,0
350,323,0,0,0,0,0,0,0,0,0,-1,1574,701,0,0
357,323,0,0,0,0,0,0,0,0,0,-1,1581,701,0,0
364,323,0,0,0,0,0,0,0,0,0,-1,1588,701,0,0
371,323,0,0,0,0,0,0,0,0,0,-1,1595,701,0,0
378,323,0,0,0,0,0,0,0,0,0,-1,1602,701,0,0
385,323,0,0,0,0,0,0,0,0,0,-1,1609,701,0,0
392,323,0,0,0,0,0,0,0,0,0,-1,1616,701,0,0
399,323,0,0,0,0,0,0,0,0,0,-1,1623,701,0,0
406,323,0,0,0,0,0,0,0,0,0,-1,1630,701,0,0
413,323,0,0,0,0,0,0,0,0,0,-1,1637,701,0,0
420,323,0,0,0,0,0,0,0,0,0,-1,1644,701,0,0
427,323,0,0,0,0,0,0,0,0,0,-1,1651,701,0,0
434,323,0,0,0,0,0,0,0,0,0,-1,1658,701,0,0
441,323,0,0,0,0,0,0,0,0,0,-1,1665,701,0,0
448,323,0,0,0,0,0,0,0,0,0,-1,1672,701,0,0
455,323,0,0,0,0,0,0,0,0,0,-1,1679,701,0,0
462,323,0,0,0,0,0,0,0,0,0,-1,1686,701,0,0
469,323,0,0,0,0,0,0,0,0,0,-1,1693,701,0,0
476,323,0,0,0,0,0,0,0,0,0,-1,1700,701,0,0
483,323,0,0,0,0,0,0,0,0,0,-1,1707,701,0,0
490,323,0,0,0,0,0,0,0,0,0,-1,1714,701,0,0
497,323,0,0,0,0,0,0,0,0,0,-1,1721,701,0,0
504,323,0,0,0,0,0,0,0,0,0,-1,1728,701,0,0
511,323,0,0,0,0,0,0,0,0,0,-1,1735,701,0,0
518,323,0,0,0,0,0,0,0,0,0,-1,1742,701,0,0
525,323,0,0,0,0,0,0,0,0,0,-1,1749,701,0,0
532,323,33.6193,1.69446,0,0,0,0,0,0,0,-1,1756,701,33.6193,-1.69444
539,323,32.2698,2.44037,0,0,0,0,0,0,0,-1,1763,701,32.2697,-2.44036
546,323,31.1644,3.9444,0,0,0,0,0,0,0,-1,1770,701,31.1644,-3.94438
553,323,30.2488,5.8775,0,0,0,0,0,0,0,-1,1777,701,30.2487,-5.87752
560,323,40.6711,1.25153,0,0,0,0,0,0,0,-1,1784,701,40.6711,-1.25154
567,323,42.1637,2.01208,0,0,0,0,0,0,0,-1,1791,701,42.1637,-2.01207
574,323,12.514,5.89685,0,0,0,0,0,0,0,-1,1798,701,12.5141,-5.89683
581,323,11.821,5.3476,0,0,0,0,0,0,0,-1,1805,701,11.821,-5.34762
588,323,11.7933,7.00818,0,0,0,0,0,0,0,-1,1812,701,11.7933,-7.00819
595,323,6.67847,0.06604,0,0,0,0,0,0,0,-1,1819,701,6.67841,-0.0660418
602,323,11.2856,-0.595459,0,0,0,0,0,0,0,-1,1826,701,11.2856,0.595433
609,323,24.4,-4.6601,0,0,0,0,0,0,0,-1,1833,701,24.4001,4.66011
616,323,24.6107,-4.00275,0.0032364,9.76306e-05,0.00098528,0.00352005,-0.000186022,0.28031,0.0024111,0.0139644,1840,701,24.6107,4.00273
623,323,24.6063,-3.46686,0.00184199,0.000337467,0.000823749,0.00220528,-2.58251e-05,0.415364,0.00147887,0.0126343,1847,701,24.6063,3.46686
630,323,24.5959,-2.91992,0.00112559,0.000350979,0.000568137,0.00142588,5.06908e-05,0.486225,0.000934147,0.0143426,1854,701,24.5959,2.91992
637,323,24.5902,-2.3855,0.000719161,0.000299384,0.00057763,0.00112385,-0.000105308,0.611134,0.000786692,0.0116317,1861,701,24.5902,2.38551
644,323,24.5504,-1.84772,0.000149603,0.000254159,0.000562278,0.000766584,-0.000362821,0.831752,0.000665807,0.0080884,1868,701,24.5504,1.84774
651,323,24.5381,-1.28735,-0.000615416,0.000294331,0.000520157,0.000530452,-0.000851537,1.14467,0.000805038,0.00973254,1875,701,24.5381,1.28736
658,323,24.494,-0.720093,-0.00160863,0.000317063,0.000417519,0.000403691,-0.00169526,1.36622,0.00128603,0.0138567,1882,701,24.4941,0.720095
665,323,24.4625,-0.19696,-0.00289992,0.000330416,0.000229654,0.000346661,-0.00291617,1.50018,0.00206937,0.0118576,1889,701,24.4625,0.196943
672,323,24.4856,0.369934,-0.00456462,0.00035527,-8.11842e-05,0.000356609,-0.00456596,-1.5543,0.00316954,0.0129259,1896,701,24.4855,-0.369932
679,323,24.3799,0.946716,-0.00691889,0.000353041,-0.00058419,0.000399673,-0.00696552,-1.49114,0.00478247,0.032377,1903,701,24.3799,-0.946737
686,323,24.2822,1.41864,0,0,0,0,0,0,0,-1,1910,701,24.2822,-1.41866
693,323,23.8806,1.08844,0,0,0,0,0,0,0,-1,1917,701,23.8806,-1.08845
700,323,10.7705,0.828613,0,0,0,0,0,0,0,-1,1924,701,10.7705,-0.828591
707,323,16.9005,4.79193,0,0,0,0,0,0,0,-1,1931,701,16.9005,-4.7919
714,323,16.2346,6.25958,0,0,0,0,0,0,0,-1,1938,701,16.2346,-6.25956
721,323,0,0,0,0,0,0,0,0,0,-1,1945,701,0,0
728,323,0,0,0,0,0,0,0,0,0,-1,1952,701,0,0
735,323,0,0,0,0,0,0,0,0,0,-1,1959,701,0,0
742,323,0,0,0,0,0,0,0,0,0,-1,1966,701,0,0
749,323,0,0,0,0,0,0,0,0,0,-1,1973,701,0,0
756,323,0,0,0,0,0,0,0,0,0,-1,1980,701,0,0
763,323,0,0,0,0,0,0,0,0,0,-1,1987,701,0,0
770,323,0,0,0,0,0,0,0,0,0,-1,1994,701,0,0
777,323,0,0,0,0,0,0,0,0,0,-1,2001,701,0,0
784,323,0,0,0,0,0,0,0,0,0,-1,2008,701,0,0
791,323,0,0,0,0,0,0,0,0,0,-1,2015,701,0,0
798,323,0,0,0,0,0,0,0,0,0,-1,2022,701,0,0
805,323,0,0,0,0,0,0,0,0,0,-1,2029,701,0,0
812,323,0,0,0,0,0,0,0,0,0,-1,2036,701,0,0
-700,316,0,0,0,0,0,0,0,0,0,-1,524,708,0,0
-693,316,0,0,0,0,0,0,0,0,0,-1,531,708,0,0
-686,316,0,0,0,0,0,0,0,0,0,-1,538,708,0,0
-679,316,0,0,0,0,0,0,0,0,0,-1,545,708,0,0
-672,316,0,0,0,0,0,0,0,0,0,-1,552,708,0,0
-665,316,0,0,0,0,0,0,0,0,0,-1,559,708,0,0
-658,316,0,0,0,0,0,0,0,0,0,-1,566,708,0,0
-651,316,0,0,0,0,0,0,0,0,0,-1,573,708,0,0
-644,316,0,0,0,0,0,0,0,0,0,-1,580,708,0,0
-637,316,0,0,0,0,0,0,0,0,0,-1,587,708,0,0
-630,316,0,0,0,0,0,0,0,0,0,-1,594,708,0,0
-623,316,0,0,0,0,0,0,0,0,0,-1,601,708,0,0
-616,316,0,0,0,0,0,0,0,0,0,-1,608,708,0,0
-609,316,0,0,0,0,0,0,0,0,0,-1,615,708,0,0
-602,316,-0.451782,-0.0494995,0,0,0,0,0,0,0,-1,622,708,-0.451768,0.0495022
-595,316,-3.3761,2.17188,0,0,0,0,0,0,0,-1,629,708,-3.37609,-2.17189
-588,316,-5.00177,2.60675,0,0,0,0,0,0,0,-1,636,708,-5.00175,-2.60676
-581,316,-3.94653,0.393433,0,0,0,0,0,0,0,-1,643,708,-3.94655,-0.39342
-574,316,-9.67395,1.06067,0,0,0,0,0,0,0,-1,650,708,-9.67396,-1.06065
-567,316,-10.1962,0.448425,0,0,0,0,0,0,0,-1,657,708,-10.1962,-0.448411
-560,316,-14.7936,-0.689636,0,0,0,0,0,0,0,-1,664,708,-14.7936,0.689615
-553,316,-15.0121,-1.16919,0.0012108,0.00486721,-0.00470663,0.00808824,-0.00201023,-0.970645,0.00617233,0.0424627,671,708,-15.0122,1.1692
-546,316,-15.2464,-1.60419,0.00126226,0.00363825,-0.00364937,0.00628813,-0.00138761,-0.942756,0.00472306,0.0250688,678,708,-15.2464,1.60421
-539,316,-15.1709,-2.16046,0.00122031,0.00265083,-0.00268195,0.00471126,-0.000840118,-0.915713,0.00345509,0.0137306,685,708,-15.1709,2.16044
-532,316,-15.1885,-2.6626,0.00114869,0.00167752,-0.00179756,0.00323001,-0.000403802,-0.858422,0.00229979,0.0111466,692,708,-15.1885,2.66258
-525,316,-15.2032,-3.17102,0.00105404,0.000855711,-0.00100521,0.00196497,-5.52101e-05,-0.736231,0.00132876,0.00979455,699,708,-15.2032,3.17101
-518,316,-15.2165,-3.69562,0.00107821,0.000156181,-0.000353981,0.00119844,3.59582e-05,-0.327407,0.000787245,0.00989679,706,708,-15.2165,3.69562
-511,316,-15.2531,-4.22455,0.00128038,-0.000457409,0.000255052,0.00131704,-0.000494069,0.142758,0.00108103,0.0110972,713,708,-15.2531,4.22453
-504,316,-15.2874,-4.73401,0.00309747,-0.000395669,0.000959978,0.0033439,-0.000642103,0.251282,0.00247127,0.014044,720,708,-15.2873,4.73403
-497,316,-15.2621,-5.21973,0.00674738,0.00075304,0.00220659,0.00747205,2.83765e-05,0.317313,0.00497193,0.0126137,727,708,-15.2622,5.21972
-490,316,-15.2535,-5.7337,0.0114119,0.00230882,0.00329693,0.0124805,0.00124019,0.313442,0.00793932,0.0173824,734,708,-15.2535,5.73368
-483,316,-15.2038,-6.24524,0,0,0,0,0,0,0,-1,741,708,-15.2038,6.24525
-476,316,-8.90894,-3.31207,0,0,0,0,0,0,0,-1,748,708,-8.90896,3.31206
-469,316,-6.24194,-1.42725,0,0,0,0,0,0,0,-1,755,708,-6.24192,1.42725
-462,316,-5.74237,-1.40039,0,0,0,0,0,0,0,-1,762,708,-5.74238,1.40039
-455,316,-5.44745,-1.21899,0,0,0,0,0,0,0,-1,769,708,-5.44746,1.21898
-448,316,-14.8945,0.655396,0,0,0,0,0,0,0,-1,776,708,-14.8946,-0.655396
-441,316,-14.9626,0.576111,0,0,0,0,0,0,0,-1,783,708,-14.9626,-0.576115
-434,316,-27.7723,1.15576,0,0,0,0,0,0,0,-1,790,708,-27.7723,-1.15579
-427,316,-28.0504,1.31427,0,0,0,0,0,0,0,-1,797,708,-28.0504,-1.31427
-420,316,-28.198,1.62891,0,0,0,0,0,0,0,-1,804,708,-28.198,-1.62889
-413,316,0,0,0,0,0,0,0,0,0,-1,811,708,0,0
-406,316,0,0,0,0,0,0,0,0,0,-1,818,708,0,0
-399,316,0,0,0,0,0,0,0,0,0,-1,825,708,0,0
-392,316,0,0,0,0,0,0,0,0,0,-1,832,708,0,0
-385,316,0,0,0,0,0,0,0,0,0,-1,839,708,0,0
-378,316,0,0,0,0,0,0,0,0,0,-1,846,708,0,0
-371,316,0,0,0,0,0,0,0,0,0,-1,853,708,0,0
-364,316,0,0,0,0,0,0,0,0,0,-1,860,708,0,0
-357,316,0,0,0,0,0,0,0,0,0,-1,867,708,0,0
-350,316,0,0,0,0,0,0,0,0,0,-1,874,708,0,0
-343,316,0,0,0,0,0,0,0,0,0,-1,881,708,0,0
-336,316,0,0,0,0,0,0,0,0,0,-1,888,708,0,0
-329,316,0,0,0,0,0,0,0,0,0,-1,895,708,0,0
-322,316,0,0,0,0,0,0,0,0,0,-1,902,708,0,0
-315,316,0,0,0,0,0,0,0,0,0,-1,909,708,0,0
-308,316,0,0,0,0,0,0,0,0,0,-1,916,708,0,0
-301,316,0,0,0,0,0,0,0,0,0,-1,923,708,0,0
-294,316,0,0,0,0,0,0,0,0,0,-1,930,708,0,0
-287,316,0,0,0,0,0,0,0,0,0,-1,937,708,0,0
-280,316,0,0,0,0,0,0,0,0,0,-1,944,708,0,0
-273,316,0,0,0,0,0,0,0,0,0,-1,951,708,0,0
-266,316,0,0,0,0,0,0,0,0,0,-1,958,708,0,0
-259,316,0,0,0,0,0,0,0,0,0,-1,965,708,0,0
-252,316,0,0,0,0,0,0,0,0,0,-1,972,708,0,0
-245,316,0,0,0,0,0,0,0,0,0,-1,979,708,0,0
-238,316,0,0,0,0,0,0,0,0,0,-1,986,708,0,0
-231,316,0,0,0,0,0,0,0,0,0,-1,993,708,0,0
-224,316,0,0,0,0,0,0,0,0,0,-1,1000,708,0,0
-217,316,0,0,0,0,0,0,0,0,0,-1,1007,708,0,0
-210,316,0,0,0,0,0,0,0,0,0,-1,1014,708,0,0
-203,316,0,0,0,0,0,0,0,0,0,-1,1021,708,0,0
-196,316,0,0,0,0,0,0,0,0,0,-1,1028,708,0,0
-189,316,0,0,0,0,0,0,0,0,0,-1,1035,708,0,0
-182,316,0,0,0,0,0,0,0,0,0,-1,1042,708,0,0
-175,316,0,0,0,0,0,0,0,0,0,-1,1049,708,0,0
-168,316,0,0,0,0,0,0,0,0,0,-1,1056,708,0,0
-161,316,0,0,0,0,0,0,0,0,0,-1,1063,708,0,0
-154,316,0,0,0,0,0,0,0,0,0,-1,1070,708,0,0
-147,316,0,0,0,0,0,0,0,0,0,-1,1077,708,0,0
-140,316,0,0,0,0,0,0,0,0,0,-1,1084,708,0,0
-133,316,0,0,0,0,0,0,0,0,0,-1,1091,708,0,0
-126,316,0,0,0,0,0,0,0,0,0,-1,1098,708,0,0
-119,316,0,0,0,0,0,0,0,0,0,-1,1105,708,0,0
-112,316,0,0,0,0,0,0,0,0,0,-1,1112,708,0,0
-105,316,0,0,0,0,0,0,0,0,0,-1,1119,708,0,0
-98,316,0,0,0,0,0,0,0,0,0,-1,1126,708,0,0
-91,316,0,0,0,0,0,0,0,0,0,-1,1133,708,0,0
-84,316,0,0,0,0,0,0,0,0,0,-1,1140,708,0,0
-77,316,0,0,0,0,0,0,0,0,0,-1,1147,708,0,0
-70,316,0,0,0,0,0,0,0,0,0,-1,1154,708,0,0
-63,316,0,0,0,0,0,0,0,0,0,-1,1161,708,0,0
-56,316,0,0,0,0,0,0,0,0,0,-1,1168,708,0,0
-49,316,0,0,0,0,0,0,0,0,0,-1,1175,708,0,0
-42,316,0,0,0,0,0,0,0,0,0,-1,1182,708,0,0
-35,316,0,0,0,0,0,0,0,0,0,-1,1189,708,0,0
-28,316,0,0,0,0,0,0,0,0,0,-1,1196,708,0,0
-21,316,0,0,0,0,0,0,0,0,0,-1,1203,708,0,0
-14,316,0,0,0,0,0,0,0,0,0,-1,1210,708,0,0
-7,316,0,0,0,0,0,0,0,0,0,-1,1217,708,0,0
0,316,0,0,0,0,0,0,0,0,0,-1,1224,708,0,0
7,316,0,0,0,0,0,0,0,0,0,-1,1231,708,0,0
14,316,0,0,0,0,0,0,0,0,0,-1,1238,708,0,0
21,316,0,0,0,0,0,0,0,0,0,-1,1245,708,0,0
28,316,0,0,0,0,0,0,0,0,0,-1,1252,708,0,0
35,316,0,0,0,0,0,0,0,0,0,-1,1259,708,0,0
42,316,0,0,0,0,0,0,0,0,0,-1,1266,708,0,0
49,316,0,0,0,0,0,0,0,0,0,-1,1273,708,0,0
56,316,0,0,0,0,0,0,0,0,0,-1,1280,708,0,0
63,316,0,0,0,0,0,0,0,0,0,-1,1287,708,0,0
70,316,0,0,0,0,0,0,0,0,0,-1,1294,708,0,0
77,316,0,0,0,0,0,0,0,0,0,-1,1301,708,0,0
84,316,0,0,0,0,0,0,0,0,0,-1,1308,708,0,0
91,316,0,0,0,0,0,0,0,0,0,-1,1315,708,0,0
98,316,0,0,0,0,0,0,0,0,0,-1,1322,708,0,0
105,316,0,0,0,0,0,0,0,0,0,-1,1329,708,0,0
112,316,0,0,0,0,0,0,0,0,0,-1,1336,708,0,0
119,316,0,0,0,0,0,0,0,0,0,-1,1343,708,0,0
126,316,0,0,0,0,0,0,0,0,0,-1,1350,708,0,0
133,316,0,0,0,0,0,0,0,0,0,-1,1357,708,0,0
140,316,0,0,0,0,0,0,0,0,0,-1,1364,708,0,0
147,316,0,0,0,0,0,0,0,0,0,-1,1371,708,0,0
154,316,0,0,0,0,0,0,0,0,0,-1,1378,708,0,0
161,316,0,0,0,0,0,0,0,0,0,-1,1385,708,0,0
168,316,0,0,0,0,0,0,0,0,0,-1,1392,708,0,0
175,316,0,0,0,0,0,0,0,0,0,-1,1399,708,0,0
182,316,0,0,0,0,0,0,0,0,0,-1,1406,708,0,0
189,316,0,0,0,0,0,0,0,0,0,-1,1413,708,0,0
196,316,0,0,0,0,0,0,0,0,0,-1,1420,708,0,0
203,316,0,0,0,0,0,0,0,0,0,-1,1427,708,0,0
210,316,0,0,0,0,0,0,0,0,0,-1,1434,708,0,0
217,316,0,0,0,0,0,0,0,0,0,-1,1441,708,0,0
224,316,0,0,0,0,0,0,0,0,0,-1,1448,708,0,0
231,316,0,0,0,0,0,0,0,0,0,-1,1455,708,0,0
238,316,0,0,0,0,0,0,0,0,0,-1,1462,708,0,0
245,316,0,0,0,0,0,0,0,0,0,-1,1469,708,0,0
252,316,0,0,0,0,0,0,0,0,0,-1,1476,708,0,0
259,316,0,0,0,0,0,0,0,0,0,-1,1483,708,0,0
266,316,0,0,0,0,0,0,0,0,0,-1,1490,708,0,0
273,316,0,0,0,0,0,0,0,0,0,-1,1497,708,0,0
280,316,0,0,0,0,0,0,0,0,0,-1,1504,708,0,0
287,316,0,0,0,0,0,0,0,0,0,-1,1511,708,0,0
294,316,0,0,0,0,0,0,0,0,0,-1,1518,708,0,0
301,316,0,0,0,0,0,0,0,0,0,-1,1525,708,0,0
308,316,0,0,0,0,0,0,0,0,0,-1,1532,708,0,0
315,316,0,0,0,0,0,0,0,0,0,-1,1539,708,0,0
322,316,0,0,0,0,0,0,0,0,0,-1,1546,708,0,0
329,316,0,0,0,0,0,0,0,0,0,-1,1553,708,0,0
336,316,0,0,0,0,0,0,0,0,0,-1,1560,708,0,0
343,316,0,0,0,0,0,0,0,0,0,-1,1567,708,0,0
350,316,0,0,0,0,0,0,0,0,0,-1,1574,708,0,0
357,316,0,0,0,0,0,0,0,0,0,-1,1581,708,0,0
364,316,0,0,0,0,0,0,0,0,0,-1,1588,708,0,0
371,316,0,0,0,0,0,0,0,0,0,-1,1595,708,0,0
378,316,0,0,0,0,0,0,0,0,0,-1,1602,708,0,0
385,316,0,0,0,0,0,0,0,0,0,-1,1609,708,0,0
392,316,0,0,0,0,0,0,0,0,0,-1,1616,708,0,0
399,316,0,0,0,0,0,0,0,0,0,-1,1623,708,0,0
406,316,0,0,0,0,0,0,0,0,0,-1,1630,708,0,0
413,316,0,0,0,0,0,0,0,0,0,-1,1637,708,0,0
420,316,0,0,0,0,0,0,0,0,0,-1,1644,708,0,0
427,316,0,0,0,0,0,0,0,0,0,-1,1651,708,0,0
434,316,0,0,0,0,0,0,0,0,0,-1,1658,708,0,0
441,316,0,0,0,0,0,0,0,0,0,-1,1665,708,0,0
448,316,0,0,0,0,0,0,0,0,0,-1,1672,708,0,0
455,316,0,0,0,0,0,0,0,0,0,-1,1679,708,0,0
462,316,0,0,0,0,0,0,0,0,0,-1,1686,708,0,0
469,316,0,0,0,0,0,0,0,0,0,-1,1693,708,0,0
476,316,0,0,0,0,0,0,0,0,0,-1,1700,708,0,0
483,316,0,0,0,0,0,0,0,0,0,-1,1707,708,0,0
490,316,0,0,0,0,0,0,0,0,0,-1,1714,708,0,0
497,316,0,0,0,0,0,0,0,0,0,-1,1721,708,0,0
504,316,0,0,0,0,0,0,0,0,0,-1,1728,708,0,0
511,316,0,0,0,0,0,0,0,0,0,-1,1735,708,0,0
518,316,0,0,0,0,0,0,0,0,0,-1,1742,708,0,0
525,316,0,0,0,0,0,0,0,0,0,-1,1749,708,0,0
532,316,33.8604,0.531128,0,0,0,0,0,0,0,-1,1756,708,33.8604,-0.531151
539,316,37.7004,1.9234,0,0,0,0,0,0,0,-1,1763,708,37.7005,-1.92343
546,316,37.8945,2.03882,0,0,0,0,0,0,0,-1,1770,708,37.8945,-2.03879
553,316,38.1301,0.431152,0,0,0,0,0,0,0,-1,1777,708,38.1301,-0.43115
560,316,39.1196,1.10046,0,0,0,0,0,0,0,-1,1784,708,39.1197,-1.10048
567,316,40.3279,1.98065,0,0,0,0,0,0,0,-1,1791,708,40.3279,-1.98067
574,316,40.1323,2.25415,0,0,0,0,0,0,0,-1,1798,708,40.1324,-2.25415
581,316,24.6815,7.77496,0,0,0,0,0,0,0,-1,1805,708,24.6815,-7.77499
588,316,19.7659,2.90198,0,0,0,0,0,0,0,-1,1812,708,19.7659,-2.902
595,316,12.5363,1.50702,0,0,0,0,0,0,0,-1,1819,708,12.5363,-1.50701
602,316,7.79919,0.0422363,0,0,0,0,0,0,0,-1,1826,708,7.79923,-0.0422066
609,316,25.0875,-4.52643,0,0,0,0,0,0,0,-1,1833,708,25.0875,4.52645
616,316,25.1488,-3.96149,0.00475661,0.000453132,0.00115457,0.0050468,0.000162944,0.246238,0.00331156,0.0172215,1840,708,25.1488,3.96148
623,316,25.1555,-3.43311,0.00256469,0.000537293,0.000898985,0.00290589,0.00019609,0.362747,0.00187532,0.0113401,1847,708,25.1556,3.43313
630,316,25.1194,-2.92206,0.00134488,0.000359106,0.000433965,0.0015087,0.000195287,0.360955,0.000947438,0.0137191,1854,708,25.1194,2.92204
637,316,25.1146,-2.36267,0.000757885,0.000146826,0.000410215,0.000963847,-5.91366e-05,0.465315,0.000663157,0.0132381,1861,708,25.1147,2.36264
644,316,25.106,-1.81195,0.000139162,5.76091e-05,0.000363782,0.000464446,-0.000267674,0.729586,0.000427748,0.0120213,1868,708,25.1059,1.81195
651,316,25.0659,-1.26794,-0.000561568,0.000135699,0.000319519,0.000259968,-0.000685838,1.19987,0.000564212,0.0135907,1875,708,25.066,1.26795
658,316,24.9985,-0.722534,-0.00141865,0.000240667,0.000243989,0.0002758,-0.00145378,1.42779,0.001073,0.0230324,1882,708,24.9985,0.722553
665,316,24.9789,-0.184204,-0.00246,0.000385624,0.000133329,0.000391857,-0.00246623,1.52408,0.00178914,0.0171162,1889,708,24.9789,0.184192
672,316,25.0004,0.341614,-0.00375491,0.00059949,-3.29635e-05,0.000599739,-0.00375516,-1.56323,0.00272544,0.0123776,1896,708,25.0004,-0.341642
679,316,25.0238,0.969788,-0.00547103,0.000889196,-0.000283925,0.000901846,-0.00548368,-1.52627,0.00399052,0.0269102,1903,708,25.0238,-0.969781
686,316,24.7356,1.44342,-0.00761063,0.00117452,-0.000583873,0.00121316,-0.00764927,-1.50472,0.00554829,0.040552,1910,708,24.7356,-1.4434
693,316,24.4003,1.9585,0,0,0,0,0,0,0,-1,1917,708,24.4003,-1.95849
700,316,12.8749,2.89136,0,0,0,0,0,0,0,-1,1924,708,12.8748,-2.89137
707,316,15.7089,5.41486,0,0,0,0,0,0,0,-1,1931,708,15.7088,-5.41487
714,316,16.1727,5.52045,0,0,0,0,0,0,0,-1,1938,708,16.1728,-5.52042
721,316,16.7094,6.53351,0,0,0,0,0,0,0,-1,1945,708,16.7094,-6.5335
728,316,0,0,0,0,0,0,0,0,0,-1,1952,708,0,0
735,316,0,0,0,0,0,0,0,0,0,-1,1959,708,0,0
742,316,0,0,0,0,0,0,0,0,0,-1,1966,708,0,0
749,316,0,0,0,0,0,0,0,0,0,-1,1973,708,0,0
756,316,0,0,0,0,0,0,0,0,0,-1,1980,708,0,0
763,316,0,0,0,0,0,0,0,0,0,-1,1987,708,0,0
770,316,0,0,0,0,0,0,0,0,0,-1,1994,708,0,0
777,316,0,0,0,0,0,0,0,0,0,-1,2001,708,0,0
784,316,0,0,0,0,0,0,0,0,0,-1,2008,708,0,0
791,316,0,0,0,0,0,0,0,0,0,-1,2015,708,0,0
798,316,0,0,0,0,0,0,0,0,0,-1,2022,708,0,0
805,316,0,0,0,0,0,0,0,0,0,-1,2029,708,0,0
812,316,0,0,0,0,0,0,0,0,0,-1,2036,708,0,0
-700,309,0,0,0,0,0,0,0,0,0,-1,524,715,0,0
-693,309,0,0,0,0,0,0,0,0,0,-1,531,715,0,0
-686,309,0,0,0,0,0,0,0,0,0,-1,538,715,0,0
-679,309,0,0,0,0,0,0,0,0,0,-1,545,715,0,0
-672,309,0,0,0,0,0,0,0,0,0,-1,552,715,0,0
-665,309,0,0,0,0,0,0,0,0,0,-1,559,715,0,0
-658,309,0,0,0,0,0,0,0,0,0,-1,566,715,0,0
-651,309,0,0,0,0,0,0,0,0,0,-1,573,715,0,0
-644,309,0,0,0,0,0,0,0,0,0,-1,580,715,0,0
-637,309,0,0,0,0,0,0,0,0,0,-1,587,715,0,0
-630,309,0,0,0,0,0,0,0,0,0,-1,594,715,0,0
-623,309,0,0,0,0,0,0,0,0,0,-1,601,715,0,0
-616,309,0,0,0,0,0,0,0,0,0,-1,608,715,0,0
-609,309,-5.95392,-3.93689,0,0,0,0,0,0,0,-1,615,715,-5.95392,3.93686
-602,309,-4.99786,-3.31287,0,0,0,0,0,0,0,-1,622,715,-4.99786,3.31284
-595,309,-6.80847,2.4046,0,0,0,0,0,0,0,-1,629,715,-6.80845,-2.40458
-588,309,-6.08795,2.19324,0,0,0,0,0,0,0,-1,636,715,-6.08793,-2.19325
-581,309,-5.97552,1.3277,0,0,0,0,0,0,0,-1,643,715,-5.97552,-1.32769
-574,309,-8.73602,0.208435,0,0,0,0,0,0,0,-1,650,715,-8.73604,-0.208437
-567,309,-10.3909,0.85968,0,0,0,0,0,0,0,-1,657,715,-10.3909,-0.859696
-560,309,-15.5812,-0.973389,0,0,0,0,0,0,0,-1,664,715,-15.5813,0.973371
-553,309,-15.6516,-1.11066,-0.000286673,0.00384939,-0.00285556,0.00530712,-0.0017444,-1.09879,0.00424087,0.0423855,671,715,-15.6516,1.11063
-546,309,-15.7535,-1.60022,0.000145212,0.00278132,-0.00222312,0.00404775,-0.00112121,-1.05298,0.00313969,0.0212908,678,715,-15.7535,1.6002
-539,309,-15.6963,-2.16382,0.000411048,0.00191366,-0.0015917,0.00292246,-0.000597752,-1.0059,0.00217511,0.0159659,685,715,-15.6963,2.16384
-532,309,-15.6949,-2.66168,0.000570912,0.00103459,-0.000967199,0.00179735,-0.000191848,-0.903028,0.00126703,0.0127565,692,715,-15.6949,2.66166
-525,309,-15.7257,-3.16931,0.000655424,0.000321266,-0.000382054,0.000905335,7.1355e-05,-0.57927,0.000581233,0.0157782,699,715,-15.7257,3.16932
-518,309,-15.7397,-3.69543,0.000921477,-0.000386847,0.000150696,0.00093861,-0.00040398,0.113207,0.000795367,0.0157538,706,715,-15.7397,3.69543
-511,309,-15.7626,-4.20807,0.00138559,-0.00100697,0.000795876,0.00162614,-0.00124753,0.293525,0.00166391,0.0120112,713,715,-15.7626,4.20808
-504,309,-15.7827,-4.69635,0.00401355,-0.000728365,0.00170461,0.00456272,-0.00127753,0.311667,0.00354524,0.00960617,720,715,-15.7827,4.69635
-497,309,-15.7828,-5.17822,0.00867998,0.00076966,0.00338838,0.00993293,-0.000483287,0.354185,0.00678879,0.0133972,727,715,-15.7828,5.17824
-490,309,-15.7499,-5.66699,0.0141318,0.00249253,0.00493378,0.0159418,0.000682596,0.351602,0.0104078,0.0477328,734,715,-15.7499,5.66699
-483,309,-15.4057,-6.49554,0,0,0,0,0,0,0,-1,741,715,-15.4057,6.49552
-476,309,-5.29486,-1.2262,0,0,0,0,0,0,0,-1,748,715,-5.29484,1.22622
-469,309,-4.22717,-0.592896,0,0,0,0,0,0,0,-1,755,715,-4.2272,0.592905
-462,309,-10.428,2.46948,0,0,0,0,0,0,0,-1,762,715,-10.428,-2.46947
-455,309,-15.8216,0.00915527,0,0,0,0,0,0,0,-1,769,715,-15.8216,-0.00913359
-448,309,-19.2673,1.19257,0,0,0,0,0,0,0,-1,776,715,-19.2673,-1.19254
-441,309,-19.8181,1.4425,0,0,0,0,0,0,0,-1,783,715,-19.8181,-1.44249
-434,309,-28.3196,0.95105,0,0,0,0,0,0,0,-1,790,715,-28.3196,-0.951068
-427,309,-27.8553,1.40332,0,0,0,0,0,0,0,-1,797,715,-27.8553,-1.40334
-420,309,-27.3148,1.90747,0,0,0,0,0,0,0,-1,804,715,-27.3148,-1.90745
-413,309,0,0,0,0,0,0,0,0,0,-1,811,715,0,0
-406,309,0,0,0,0,0,0,0,0,0,-1,818,715,0,0
-399,309,0,0,0,0,0,0,0,0,0,-1,825,715,0,0
-392,309,0,0,0,0,0,0,0,0,0,-1,832,715,0,0
-385,309,0,0,0,0,0,0,0,0,0,-1,839,715,0,0
-378,309,0,0,0,0,0,0,0,0,0,-1,846,715,0,0
-371,309,0,0,0,0,0,0,0,0,0,-1,853,715,0,0
-364,309,0,0,0,0,0,0,0,0,0,-1,860,715,0,0
-357,309,0,0,0,0,0,0,0,0,0,-1,867,715,0,0
-350,309,0,0,0,0,0,0,0,0,0,-1,874,715,0,0
-343,309,0,0,0,0,0,0,0,0,0,-1,881,715,0,0
-336,309,0,0,0,0,0,0,0,0,0,-1,888,715,0,0
-329,309,0,0,0,0,0,0,0,0,0,-1,895,715,0,0
-322,309,0,0,0,0,0,0,0,0,0,-1,902,715,0,0
-315,309,0,0,0,0,0,0,0,0,0,-1,909,715,0,0
-308,309,0,0,0,0,0,0,0,0,0,-1,916,715,0,0
-301,309,0,0,0,0,0,0,0,0,0,-1,923,715,0,0
-294,309,0,0,0,0,0,0,0,0,0,-1,930,715,0,0
-287,309,0,0,0,0,0,0,0,0,0,-1,937,715,0,0
-280,309,0,0,0,0,0,0,0,0,0,-1,944,715,0,0
-273,309,0,0,0,0,0,0,0,0,0,-1,951,715,0,0
-266,309,0,0,0,0,0,0,0,0,0,-1,958,715,0,0
-259,309,0,0,0,0,0,0,0,0,0,-1,965,715,0,0
-252,309,0,0,0,0,0,0,0,0,0,-1,972,715,0,0
-245,309,0,0,0,0,0,0,0,0,0,-1,979,715,0,0
-238,309,0,0,0,0,0,0,0,0,0,-1,986,715,0,0
-231,309,0,0,0,0,0,0,0,0,0,-1,993,715,0,0
-224,309,0,0,0,0,0,0,0,0,0,-1,1000,715,0,0
-217,309,0,0,0,0,0,0,0,0,0,-1,1007,715,0,0
-210,309,0,0,0,0,0,0,0,0,0,-1,1014,715,0,0
-203,309,0,0,0,0,0,0,0,0,0,-1,1021,715,0,0
-196,309,0,0,0,0,0,0,0,0,0,-1,1028,715,0,0
-189,309,0,0,0,0,0,0,0,0,0,-1,1035,715,0,0
-182,309,0,0,0,0,0,0,0,0,0,-1,1042,715,0,0
-175,309,0,0,0,0,0,0,0,0,0,-1,1049,715,0,0
-168,309,0,0,0,0,0,0,0,0,0,-1,1056,715,0,0
-161,309,0,0,0,0,0,0,0,0,0,-1,1063,715,0,0
-154,309,0,0,0,0,0,0,0,0,0,-1,1070,715,0,0
-147,309,0,0,0,0,0,0,0,0,0,-1,1077,715,0,0
-140,309,0,0,0,0,0,0,0,0,0,-1,1084,715,0,0
-133,309,0,0,0,0,0,0,0,0,0,-1,1091,715,0,0
-126,309,0,0,0,0,0,0,0,0,0,-1,1098,715,0,0
-119,309,0,0,0,0,0,0,0,0,0,-1,1105,715,0,0
-112,309,0,0,0,0,0,0,0,0,0,-1,1112,715,0,0
-105,309,0,0,0,0,0,0,0,0,0,-1,1119,715,0,0
-98,309,0,0,0,0,0,0,0,0,0,-1,1126,715,0,0
-91,309,0,0,0,0,0,0,0,0,0,-1,1133,715,0,0
-84,309,0,0,0,0,0,0,0,0,0,-1,1140,715,0,0
-77,309,0,0,0,0,0,0,0,0,0,-1,1147,715,0,0
-70,309,0,0,0,0,0,0,0,0,0,-1,1154,715,0,0
-63,309,0,0,0,0,0,0,0,0,0,-1,1161,715,0,0
-56,309,0,0,0,0,0,0,0,0,0,-1,1168,715,0,0
-49,309,0,0,0,0,0,0,0,0,0,-1,1175,715,0,0
-42,309,0,0,0,0,0,0,0,0,0,-1,1182,715,0,0
-35,309,0,0,0,0,0,0,0,0,0,-1,1189,715,0,0
-28,309,0,0,0,0,0,0,0,0,0,-1,1196,715,0,0
-21,309,0,0,0,0,0,0,0,0,0,-1,1203,715,0,0
-14,309,0,0,0,0,0,0,0,0,0,-1,1210,715,0,0
-7,309,0,0,0,0,0,0,0,0,0,-1,1217,715,0,0
0,309,0,0,0,0,0,0,0,0,0,-1,1224,715,0,0
7,309,0,0,0,0,0,0,0,0,0,-1,1231,715,0,0
14,309,0,0,0,0,0,0,0,0,0,-1,1238,715,0,0
21,309,0,0,0,0,0,0,0,0,0,-1,1245,715,0,0
28,309,0,0,0,0,0,0,0,0,0,-1,1252,715,0,0
35,309,0,0,0,0,0,0,0,0,0,-1,1259,715,0,0
42,309,0,0,0,0,0,0,0,0,0,-1,1266,715,0,0
49,309,0,0,0,0,0,0,0,0,0,-1,1273,715,0,0
56,309,0,0,0,0,0,0,0,0,0,-1,1280,715,0,0
63,309,0,0,0,0,0,0,0,0,0,-1,1287,715,0,0
70,309,0,0,0,0,0,0,0,0,0,-1,1294,715,0,0
77,309,0,0,0,0,0,0,0,0,0,-1,1301,715,0,0
84,309,0,0,0,0,0,0,0,0,0,-1,1308,715,0,0
91,309,0,0,0,0,0,0,0,0,0,-1,1315,715,0,0
98,309,0,0,0,0,0,0,0,0,0,-1,1322,715,0,0
105,309,0,0,0,0,0,0,0,0,0,-1,1329,715,0,0
112,309,0,0,0,0,0,0,0,0,0,-1,1336,715,0,0
119,309,0,0,0,0,0,0,0,0,0,-1,1343,715,0,0
126,309,0,0,0,0,0,0,0,0,0,-1,1350,715,0,0
133,309,0,0,0,0,0,0,0,0,0,-1,1357,715,0,0
140,309,0,0,0,0,0,0,0,0,0,-1,1364,715,0,0
147,309,0,0,0,0,0,0,0,0,0,-1,1371,715,0,0
154,309,0,0,0,0,0,0,0,0,0,-1,1378,715,0,0
161,309,0,0,0,0,0,0,0,0,0,-1,1385,715,0,0
168,309,0,0,0,0,0,0,0,0,0,-1,1392,715,0,0
175,309,0,0,0,0,0,0,0,0,0,-1,1399,715,0,0
182,309,0,0,0,0,0,0,0,0,0,-1,1406,715,0,0
189,309,0,0,0,0,0,0,0,0,0,-1,1413,715,0,0
196,309,0,0,0,0,0,0,0,0,0,-1,1420,715,0,0
203,309,0,0,0,0,0,0,0,0,0,-1,1427,715,0,0
210,309,0,0,0,0,0,0,0,0,0,-1,1434,715,0,0
217,309,0,0,0,0,0,0,0,0,0,-1,1441,715,0,0
224,309,0,0,0,0,0,0,0,0,0,-1,1448,715,0,0
231,309,0,0,0,0,0,0,0,0,0,-1,1455,715,0,0
238,309,0,0,0,0,0,0,0,0,0,-1,1462,715,0,0
245,309,0,0,0,0,0,0,0,0,0,-1,1469,715,0,0
252,309,0,0,0,0,0,0,0,0,0,-1,1476,715,0,0
259,309,0,0,0,0,0,0,0,0,0,-1,1483,715,0,0
266,309,0,0,0,0,0,0,0,0,0,-1,1490,715,0,0
273,309,0,0,0,0,0,0,0,0,0,-1,1497,715,0,0
280,309,0,0,0,0,0,0,0,0,0,-1,1504,715,0,0
287,309,0,0,0,0,0,0,0,0,0,-1,1511,715,0,0
294,309,0,0,0,0,0,0,0,0,0,-1,1518,715,0,0
301,309,0,0,0,0,0,0,0,0,0,-1,1525,715,0,0
308,309,0,0,0,0,0,0,0,0,0,-1,1532,715,0,0
315,309,0,0,0,0,0,0,0,0,0,-1,1539,715,0,0
322,309,0,0,0,0,0,0,0,0,0,-1,1546,715,0,0
329,309,0,0,0,0,0,0,0,0,0,-1,1553,715,0,0
336,309,0,0,0,0,0,0,0,0,0,-1,1560,715,0,0
343,309,0,0,0,0,0,0,0,0,0,-1,1567,715,0,0
350,309,0,0,0,0,0,0,0,0,0,-1,1574,715,0,0
357,309,0,0,0,0,0,0,0,0,0,-1,1581,715,0,0
364,309,0,0,0,0,0,0,0,0,0,-1,1588,715,0,0
371,309,0,0,0,0,0,0,0,0,0,-1,1595,715,0,0
378,309,0,0,0,0,0,0,0,0,0,-1,1602,715,0,0
385,309,0,0,0,0,0,0,0,0,0,-1,1609,715,0,0
392,309,0,0,0,0,0,0,0,0,0,-1,1616,715,0,0
399,309,0,0,0,0,0,0,0,0,0,-1,1623,715,0,0
406,309,0,0,0,0,0,0,0,0,0,-1,1630,715,0,0
413,309,0,0,0,0,0,0,0,0,0,-1,1637,715,0,0
420,309,0,0,0,0,0,0,0,0,0,-1,1644,715,0,0
427,309,0,0,0,0,0,0,0,0,0,-1,1651,715,0,0
434,309,0,0,0,0,0,0,0,0,0,-1,1658,715,0,0
441,309,0,0,0,0,0,0,0,0,0,-1,1665,715,0,0
448,309,0,0,0,0,0,0,0,0,0,-1,1672,715,0,0
455,309,0,0,0,0,0,0,0,0,0,-1,1679,715,0,0
462,309,0,0,0,0,0,0,0,0,0,-1,1686,715,0,0
469,309,0,0,0,0,0,0,0,0,0,-1,1693,715,0,0
476,309,0,0,0,0,0,0,0,0,0,-1,1700,715,0,0
483,309,0,0,0,0,0,0,0,0,0,-1,1707,715,0,0
490,309,0,0,0,0,0,0,0,0,0,-1,1714,715,0,0
497,309,0,0,0,0,0,0,0,0,0,-1,1721,715,0,0
504,309,0,0,0,0,0,0,0,0,0,-1,1728,715,0,0
511,309,0,0,0,0,0,0,0,0,0,-1,1735,715,0,0
518,309,0,0,0,0,0,0,0,0,0,-1,1742,715,0,0
525,309,0,0,0,0,0,0,0,0,0,-1,1749,715,0,0
532,309,0,0,0,0,0,0,0,0,0,-1,1756,715,0,0
539,309,37.3879,2.08527,0,0,0,0,0,0,0,-1,1763,715,37.3879,-2.08529
546,309,41.1765,3.50244,0,0,0,0,0,0,0,-1,1770,715,41.1766,-3.50246
553,309,36.5366,0.485413,0,0,0,0,0,0,0,-1,1777,715,36.5366,-0.485426
560,309,37.4066,1.09186,0,0,0,0,0,0,0,-1,1784,715,37.4066,-1.09187
567,309,38.2872,1.72437,0,0,0,0,0,0,0,-1,1791,715,38.2872,-1.72434
574,309,39.0372,2.01044,0,0,0,0,0,0,0,-1,1798,715,39.0372,-2.01045
581,309,39.9871,2.35028,0,0,0,0,0,0,0,-1,1805,715,39.9871,-2.3503
588,309,26.2064,7.76422,0,0,0,0,0,0,0,-1,1812,715,26.2064,-7.7642
595,309,19.585,3.71558,0,0,0,0,0,0,0,-1,1819,715,19.5849,-3.71555
602,309,11.0811,3.47772,0,0,0,0,0,0,0,-1,1826,715,11.0811,-3.47772
609,309,25.6028,-4.59607,0,0,0,0,0,0,0,-1,1833,715,25.6028,4.59609
616,309,25.6802,-3.99207,0.00543813,0.00197324,0.00319487,0.00734004,7.13263e-05,0.536958,0.00486976,0.0274062,1840,715,25.6802,3.99206
623,309,25.7091,-3.42328,0.00292414,0.00167212,0.00246424,0.00484064,-0.000244384,0.66101,0.00331156,0.0116137,1847,715,25.7091,3.4233
630,309,25.6544,-2.89557,0.00140466,0.00105402,0.0013436,0.00258433,-0.000125648,0.720521,0.00176626,0.0115797,1854,715,25.6544,2.89556
637,309,25.6119,-2.33038,0.000751029,0.000410592,0.000881392,0.00147849,-0.000316868,0.69001,0.00110651,0.0143982,1861,715,25.612,2.3304
644,309,25.5948,-1.79004,0.000168041,0.000116911,0.000545732,0.000688806,-0.000403854,0.761992,0.000637958,0.0150129,1868,715,25.5949,1.79003
651,309,25.5988,-1.25317,-0.00038465,0.000142376,0.000328845,0.000300263,-0.000542537,1.12317,0.000493247,0.0146028,1875,715,25.5987,1.25316
658,309,25.5444,-0.697815,-0.00106221,0.000275162,0.000220198,0.000310485,-0.00109753,1.41174,0.000854203,0.0204113,1882,715,25.5445,0.697798
665,309,25.5679,-0.167236,-0.00187267,0.000527549,0.000181419,0.000541184,-0.00188631,1.49578,0.00147149,0.0169403,1889,715,25.5678,0.167216
672,309,25.5634,0.366028,-0.00285704,0.000875572,0.000122016,0.000879557,-0.00286103,1.53815,0.00225837,0.0156938,1896,715,25.5634,-0.366019
679,309,25.5752,0.959473,-0.00408076,0.00134931,3.68431e-05,0.00134956,-0.00408101,1.56401,0.00326487,0.0186338,1903,715,25.5752,-0.959482
686,309,25.431,1.57568,-0.00551413,0.00189825,-3.90087e-05,0.00189846,-0.00551434,-1.56553,0.00444626,0.0306324,1910,715,25.431,-1.5757
693,309,25.0176,2.19611,0,0,0,0,0,0,0,-1,1917,715,25.0175,-2.19611
700,309,23.0179,3.08337,0,0,0,0,0,0,0,-1,1924,715,23.018,-3.08336
707,309,15.6318,4.58655,0,0,0,0,0,0,0,-1,1931,715,15.6318,-4.58657
714,309,16.7573,6.68286,0,0,0,0,0,0,0,-1,1938,715,16.7574,-6.68284
721,309,16.8337,5.4458,0,0,0,0,0,0,0,-1,1945,715,16.8338,-5.44582
728,309,0,0,0,0,0,0,0,0,0,-1,1952,715,0,0
735,309,0,0,0,0,0,0,0,0,0,-1,1959,715,0,0
742,309,0,0,0,0,0,0,0,0,0,-1,1966,715,0,0
749,309,0,0,0,0,0,0,0,0,0,-1,1973,715,0,0
756,309,0,0,0,0,0,0,0,0,0,-1,1980,715,0,0
763,309,0,0,0,0,0,0,0,0,0,-1,1987,715,0,0
770,309,0,0,0,0,0,0,0,0,0,-1,1994,715,0,0
777,309,0,0,0,0,0,0,0,0,0,-1,2001,715,0,0
784,309,0,0,0,0,0,0,0,0,0,-1,2008,715,0,0
791,309,0,0,0,0,0,0,0,0,0,-1,2015,715,0,0
798,309,0,0,0,0,0,0,0,0,0,-1,2022,715,0,0
805,309,0,0,0,0,0,0,0,0,0,-1,2029,715,0,0
812,309,0,0,0,0,0,0,0,0,0,-1,2036,715,0,0
-700,302,0,0,0,0,0,0,0,0,0,-1,524,722,0,0
-693,302,0,0,0,0,0,0,0,0,0,-1,531,722,0,0
-686,302,0,0,0,0,0,0,0,0,0,-1,538,722,0,0
-679,302,0,0,0,0,0,0,0,0,0,-1,545,722,0,0
-672,302,0,0,0,0,0,0,0,0,0,-1,552,722,0,0
-665,302,0,0,0,0,0,0,0,0,0,-1,559,722,0,0
-658,302,0,0,0,0,0,0,0,0,0,-1,566,722,0,0
-651,302,0,0,0,0,0,0,0,0,0,-1,573,722,0,0
-644,302,0,0,0,0,0,0,0,0,0,-1,580,722,0,0
-637,302,0,0,0,0,0,0,0,0,0,-1,587,722,0,0
-630,302,0,0,0,0,0,0,0,0,0,-1,594,722,0,0
-623,302,0,0,0,0,0,0,0,0,0,-1,601,722,0,0
-616,302,0,0,0,0,0,0,0,0,0,-1,608,722,0,0
-609,302,-7.79266,-3.71649,0,0,0,0,0,0,0,-1,615,722,-7.79267,3.7165
-602,302,0.92865,-1.99158,0,0,0,0,0,0,0,-1,622,722,0.928637,1.99157
-595,302,-7.89941,2.13641,0,0,0,0,0,0,0,-1,629,722,-7.89939,-2.13639
-588,302,-7.10895,1.79163,0,0,0,0,0,0,0,-1,636,722,-7.10896,-1.79163
-581,302,-9.17566,1.09448,0,0,0,0,0,0,0,-1,643,722,-9.17569,-1.09445
-574,302,-11.5183,-0.344543,0,0,0,0,0,0,0,-1,650,722,-11.5183,0.344557
-567,302,-12.1534,-0.672241,0,0,0,0,0,0,0,-1,657,722,-12.1535,0.672246
-560,302,-16.3546,-0.576477,0,0,0,0,0,0,0,-1,664,722,-16.3545,0.576451
-553,302,-16.2255,-1.05048,-0.0011627,0.00303637,-0.00161801,0.0035875,-0.00171383,-1.2425,0.00312379,0.0235372,671,722,-16.2255,1.05045
-546,302,-16.2105,-1.60767,-0.000554558,0.00208601,-0.00121948,0.00256302,-0.00103157,-1.19793,0.0021372,0.0157641,678,722,-16.2105,1.60765
-539,302,-16.2292,-2.10309,-0.000123901,0.00129283,-0.000792106,0.00164711,-0.00047818,-1.15022,0.00128742,0.0152556,685,722,-16.2293,2.10306
-532,302,-16.2202,-2.62524,0.00016162,0.000475788,-0.000331296,0.000685354,-4.79455e-05,-1.00678,0.000473694,0.0144464,692,722,-16.2202,2.62523
-525,302,-16.2192,-3.1778,0.000358424,-0.000172151,0.000112043,0.000381114,-0.000194842,0.19981,0.000338275,0.0186443,699,722,-16.2192,3.17778
-518,302,-16.2545,-3.6745,0.000867927,-0.000939292,0.000584447,0.00104046,-0.00111183,0.287058,0.00124285,0.0195529,706,722,-16.2545,3.67451
-511,302,-16.2645,-4.15894,0.00159841,-0.00150978,0.00130039,0.00207069,-0.00198206,0.348375,0.00234005,0.0106085,713,722,-16.2645,4.15891
-504,302,-16.2846,-4.67944,0.00492279,-0.000898179,0.00239804,0.00578345,-0.00175883,0.344582,0.0045565,0.0097171,720,722,-16.2846,4.67943
-497,302,-16.3398,-5.16339,0.0103108,0.000996687,0.00437212,0.0120415,-0.000734024,0.376925,0.0082832,0.014071,727,722,-16.3398,5.16341
-490,302,-16.392,-5.64453,0,0,0,0,0,0,0,-1,734,722,-16.392,5.64454
-483,302,-9.53412,-3.1673,0,0,0,0,0,0,0,-1,741,722,-9.53411,3.1673
-476,302,-4.29749,-0.203491,0,0,0,0,0,0,0,-1,748,722,-4.29751,0.203464
-469,302,-12.369,1.42859,0,0,0,0,0,0,0,-1,755,722,-12.3689,-1.42857
-462,302,-17.4766,0.310791,0,0,0,0,0,0,0,-1,762,722,-17.4766,-0.310788
-455,302,-28.6006,-0.598206,0,0,0,0,0,0,0,-1,769,722,-28.6006,0.598234
-448,302,-29.7947,1.49585,0,0,0,0,0,0,0,-1,776,722,-29.7948,-1.49585
-441,302,-27.6344,0.371826,0,0,0,0,0,0,0,-1,783,722,-27.6344,-0.371825
-434,302,-27.6,1.27759,0,0,0,0,0,0,0,-1,790,722,-27.6,-1.27759
-427,302,-27.1735,1.81506,0,0,0,0,0,0,0,-1,797,722,-27.1735,-1.81504
-420,302,0,0,0,0,0,0,0,0,0,-1,804,722,0,0
-413,302,0,0,0,0,0,0,0,0,0,-1,811,722,0,0
-406,302,0,0,0,0,0,0,0,0,0,-1,818,722,0,0
-399,302,0,0,0,0,0,0,0,0,0,-1,825,722,0,0
-392,302,0,0,0,0,0,0,0,0,0,-1,832,722,0,0
-385,302,0,0,0,0,0,0,0,0,0,-1,839,722,0,0
-378,302,0,0,0,0,0,0,0,0,0,-1,846,722,0,0
-371,302,0,0,0,0,0,0,0,0,0,-1,853,722,0,0
-364,302,0,0,0,0,0,0,0,0,0,-1,860,722,0,0
-357,302,0,0,0,0,0,0,0,0,0,-1,867,722,0,0
-350,302,0,0,0,0,0,0,0,0,0,-1,874,722,0,0
-343,302,0,0,0,0,0,0,0,0,0,-1,881,722,0,0
-336,302,0,0,0,0,0,0,0,0,0,-1,888,722,0,0
-329,302,0,0,0,0,0,0,0,0,0,-1,895,722,0,0
-322,302,0,0,0,0,0,0,0,0,0,-1,902,722,0,0
-315,302,0,0,0,0,0,0,0,0,0,-1,909,722,0,0
-308,302,0,0,0,0,0,0,0,0,0,-1,916,722,0,0
-301,302,0,0,0,0,0,0,0,0,0,-1,923,722,0,0
-294,302,0,0,0,0,0,0,0,0,0,-1,930,722,0,0
-287,302,0,0,0,0,0,0,0,0,0,-1,937,722,0,0
-280,302,0,0,0,0,0,0,0,0,0,-1,944,722,0,0
-273,302,0,0,0,0,0,0,0,0,0,-1,951,722,0,0
-266,302,0,0,0,0,0,0,0,0,0,-1,958,722,0,0
-259,302,0,0,0,0,0,0,0,0,0,-1,965,722,0,0
-252,302,0,0,0,0,0,0,0,0,0,-1,972,722,0,0
-245,302,0,0,0,0,0,0,0,0,0,-1,979,722,0,0
-238,302,0,0,0,0,0,0,0,0,0,-1,986,722,0,0
-231,302,0,0,0,0,0,0,0,0,0,-1,993,722,0,0
-224,302,0,0,0,0,0,0,0,0,0,-1,1000,722,0,0
-217,302,0,0,0,0,0,0,0,0,0,-1,1007,722,0,0
-210,302,0,0,0,0,0,0,0,0,0,-1,1014,722,0,0
-203,302,0,0,0,0,0,0,0,0,0,-1,1021,722,0,0
-196,302,0,0,0,0,0,0,0,0,0,-1,1028,722,0,0
-189,302,0,0,0,0,0,0,0,0,0,-1,1035,722,0,0
-182,302,0,0,0,0,0,0,0,0,0,-1,1042,722,0,0
-175,302,0,0,0,0,0,0,0,0,0,-1,1049,722,0,0
-168,302,0,0,0,0,0,0,0,0,0,-1,1056,722,0,0
-161,302,0,0,0,0,0,0,0,0,0,-1,1063,722,0,0
-154,302,0,0,0,0,0,0,0,0,0,-1,1070,722,0,0
-147,302,0,0,0,0,0,0,0,0,0,-1,1077,722,0,0
-140,302,0,0,0,0,0,0,0,0,0,-1,1084,722,0,0
-133,302,0,0,0,0,0,0,0,0,0,-1,1091,722,0,0
-126,302,0,0,0,0,0,0,0,0,0,-1,1098,722,0,0
-119,302,0,0,0,0,0,0,0,0,0,-1,1105,722,0,0
-112,302,0,0,0,0,0,0,0,0,0,-1,1112,722,0,0
-105,302,0,0,0,0,0,0,0,0,0,-1,1119,722,0,0
-98,302,0,0,0,0,0,0,0,0,0,-1,1126,722,0,0
-91,302,0,0,0,0,0,0,0,0,0,-1,1133,722,0,0
-84,302,0,0,0,0,0,0,0,0,0,-1,1140,722,0,0
-77,302,0,0,0,0,0,0,0,0,0,-1,1147,722,0,0
-70,302,0,0,0,0,0,0,0,0,0,-1,1154,722,0,0
-63,302,0,0,0,0,0,0,0,0,0,-1,1161,722,0,0
-56,302,0,0,0,0,0,0,0,0,0,-1,1168,722,0,0
-49,302,0,0,0,0,0,0,0,0,0,-1,1175,722,0,0
-42,302,0,0,0,0,0,0,0,0,0,-1,1182,722,0,0
-35,302,0,0,0,0,0,0,0,0,0,-1,1189,722,0,0
-28,302,0,0,0,0,0,0,0,0,0,-1,1196,722,0,0
-21,302,0,0,0,0,0,0,0,0,0,-1,1203,722,0,0
-14,302,0,0,0,0,0,0,0,0,0,-1,1210,722,0,0
-7,302,0,0,0,0,0,0,0,0,0,-1,1217,722,0,0
0,302,0,0,0,0,0,0,0,0,0,-1,1224,722,0,0
7,302,0,0,0,0,0,0,0,0,0,-1,1231,722,0,0
14,302,0,0,0,0,0,0,0,0,0,-1,1238,722,0,0
21,302,0,0,0,0,0,0,0,0,0,-1,1245,722,0,0
28,302,0,0,0,0,0,0,0,0,0,-1,1252,722,0,0
35,302,0,0,0,0,0,0,0,0,0,-1,1259,722,0,0
42,302,0,0,0,0,0,0,0,0,0,-1,1266,722,0,0
49,302,0,0,0,0,0,0,0,0,0,-1,1273,722,0,0
56,302,0,0,0,0,0,0,0,0,0,-1,1280,722,0,0
63,302,0,0,0,0,0,0,0,0,0,-1,1287,722,0,0
70,302,0,0,0,0,0,0,0,0,0,-1,1294,722,0,0
77,302,0,0,0,0,0,0,0,0,0,-1,1301,722,0,0
84,302,0,0,0,0,0,0,0,0,0,-1,1308,722,0,0
91,302,0,0,0,0,0,0,0,0,0,-1,1315,722,0,0
98,302,0,0,0,0,0,0,0,0,0,-1,1322,722,0,0
105,302,0,0,0,0,0,0,0,0,0,-1,1329,722,0,0
112,302,0,0,0,0,0,0,0,0,0,-1,1336,722,0,0
119,302,0,0,0,0,0,0,0,0,0,-1,1343,722,0,0
126,302,0,0,0,0,0,0,0,0,0,-1,1350,722,0,0
133,302,0,0,0,0,0,0,0,0,0,-1,1357,722,0,0
140,302,0,0,0,0,0,0,0,0,0,-1,1364,722,0,0
147,302,0,0,0,0,0,0,0,0,0,-1,1371,722,0,0
154,302,0,0,0,0,0,0,0,0,0,-1,1378,722,0,0
161,302,0,0,0,0,0,0,0,0,0,-1,1385,722,0,0
168,302,0,0,0,0,0,0,0,0,0,-1,1392,722,0,0
175,302,0,0,0,0,0,0,0,0,0,-1,1399,722,0,0
182,302,0,0,0,0,0,0,0,0,0,-1,1406,722,0,0
189,302,0,0,0,0,0,0,0,0,0,-1,1413,722,0,0
196,302,0,0,0,0,0,0,0,0,0,-1,1420,722,0,0
203,302,0,0,0,0,0,0,0,0,0,-1,1427,722,0,0
210,302,0,0,0,0,0,0,0,0,0,-1,1434,722,0,0
217,302,0,0,0,0,0,0,0,0,0,-1,1441,722,0,0
224,302,0,0,0,0,0,0,0,0,0,-1,1448,722,0,0
231,302,0,0,0,0,0,0,0,0,0,-1,1455,722,0,0
238,302,0,0,0,0,0,0,0,0,0,-1,1462,722,0,0
245,302,0,0,0,0,0,0,0,0,0,-1,1469,722,0,0
252,302,0,0,0,0,0,0,0,0,0,-1,1476,722,0,0
259,302,0,0,0,0,0,0,0,0,0,-1,1483,722,0,0
266,302,0,0,0,0,0,0,0,0,0,-1,1490,722,0,0
273,302,0,0,0,0,0,0,0,0,0,-1,1497,722,0,0
280,302,0,0,0,0,0,0,0,0,0,-1,1504,722,0,0
287,302,0,0,0,0,0,0,0,0,0,-1,1511,722,0,0
294,302,0,0,0,0,0,0,0,0,0,-1,1518,722,0,0
301,302,0,0,0,0,0,0,0,0,0,-1,1525,722,0,0
308,302,0,0,0,0,0,0,0,0,0,-1,1532,722,0,0
315,302,0,0,0,0,0,0,0,0,0,-1,1539,722,0,0
322,302,0,0,0,0,0,0,0,0,0,-1,1546,722,0,0
329,302,0,0,0,0,0,0,0,0,0,-1,1553,722,0,0
336,302,0,0,0,0,0,0,0,0,0,-1,1560,722,0,0
343,302,0,0,0,0,0,0,0,0,0,-1,1567,722,0,0
350,302,0,0,0,0,0,0,0,0,0,-1,1574,722,0,0
357,302,0,0,0,0,0,0,0,0,0,-1,1581,722,0,0
364,302,0,0,0,0,0,0,0,0,0,-1,1588,722,0,0
371,302,0,0,0,0,0,0,0,0,0,-1,1595,722,0,0
378,302,0,0,0,0,0,0,0,0,0,-1,1602,722,0,0
385,302,0,0,0,0,0,0,0,0,0,-1,1609,722,0,0
392,302,0,0,0,0,0,0,0,0,0,-1,1616,722,0,0
399,302,0,0,0,0,0,0,0,0,0,-1,1623,722,0,0
406,302,0,0,0,0,0,0,0,0,0,-1,1630,722,0,0
413,302,0,0,0,0,0,0,0,0,0,-1,1637,722,0,0
420,302,0,0,0,0,0,0,0,0,0,-1,1644,722,0,0
427,302,0,0,0,0,0,0,0,0,0,-1,1651,722,0,0
434,302,0,0,0,0,0,0,0,0,0,-1,1658,722,0,0
441,302,0,0,0,0,0,0,0,0,0,-1,1665,722,0,0
448,302,0,0,0,0,0,0,0,0,0,-1,1672,722,0,0
455,302,0,0,0,0,0,0,0,0,0,-1,1679,722,0,0
462,302,0,0,0,0,0,0,0,0,0,-1,1686,722,0,0
469,302,0,0,0,0,0,0,0,0,0,-1,1693,722,0,0
476,302,0,0,0,0,0,0,0,0,0,-1,1700,722,0,0
483,302,0,0,0,0,0,0,0,0,0,-1,1707,722,0,0
490,302,0,0,0,0,0,0,0,0,0,-1,1714,722,0,0
497,302,0,0,0,0,0,0,0,0,0,-1,1721,722,0,0
504,302,0,0,0,0,0,0,0,0,0,-1,1728,722,0,0
511,302,0,0,0,0,0,0,0,0,0,-1,1735,722,0,0
518,302,0,0,0,0,0,0,0,0,0,-1,1742,722,0,0
525,302,0,0,0,0,0,0,0,0,0,-1,1749,722,0,0
532,302,0,0,0,0,0,0,0,0,0,-1,1756,722,0,0
539,302,0,0,0,0,0,0,0,0,0,-1,1763,722,0,0
546,302,41.7406,3.55981,0,0,0,0,0,0,0,-1,1770,722,41.7406,-3.5598
553,302,42.2363,3.05817,0,0,0,0,0,0,0,-1,1777,722,42.2364,-3.05819
560,302,42.7981,3.25372,0,0,0,0,0,0,0,-1,1784,722,42.7981,-3.25372
567,302,40.6429,4.55444,0,0,0,0,0,0,0,-1,1791,722,40.643,-4.55442
574,302,37.9297,1.69781,0,0,0,0,0,0,0,-1,1798,722,37.9297,-1.69781
581,302,38.2401,2.2843,0,0,0,0,0,0,0,-1,1805,722,38.2402,-2.28431
588,302,26.9731,7.19983,0,0,0,0,0,0,0,-1,1812,722,26.9732,-7.19981
595,302,27.3826,8.13104,0,0,0,0,0,0,0,-1,1819,722,27.3825,-8.13102
602,302,14.7349,5.21246,0,0,0,0,0,0,0,-1,1826,722,14.7349,-5.21247
609,302,11.1578,-0.125854,0,0,0,0,0,0,0,-1,1833,722,11.1579,0.125839
616,302,26.3116,-3.92816,0,0,0,0,0,0,0,-1,1840,722,26.3116,3.92818
623,302,26.2439,-3.39709,0.00312728,0.0031228,0.00430878,0.00743382,-0.00118374,0.785138,0.00539394,0.0156787,1847,722,26.2439,3.3971
630,302,26.1743,-2.85028,0.00138485,0.0020907,0.00263094,0.00439229,-0.000916733,0.852072,0.0032768,0.0121604,1854,722,26.1743,2.8503
637,302,26.1017,-2.2951,0.000635819,0.000945928,0.0016734,0.00247144,-0.000889694,0.831595,0.0020109,0.0155633,1861,722,26.1017,2.29511
644,302,26.1267,-1.77039,6.76198e-05,0.000326507,0.000941964,0.00114788,-0.000753753,0.85368,0.00110574,0.015951,1868,722,26.1267,1.77036
651,302,26.162,-1.23523,-0.00031019,0.000212653,0.00043349,0.000457448,-0.000554985,1.05673,0.000585432,0.01624,1875,722,26.162,1.23525
658,302,26.1302,-0.691772,-0.000787036,0.000286697,0.000179127,0.000315792,-0.000816131,1.40978,0.000674462,0.0165914,1882,722,26.1303,0.691746
665,302,26.1119,-0.161682,-0.00140267,0.000630895,0.000176519,0.000646104,-0.00141788,1.48485,0.0012191,0.0148586,1889,722,26.1119,0.161705
672,302,26.0906,0.367004,-0.0020328,0.00106519,0.000193218,0.0010772,-0.00204481,1.50875,0.00183112,0.0124346,1896,722,26.0906,-0.367003
679,302,26.0741,0.943176,-0.0025258,0.00164257,0.00033733,0.00166969,-0.00255292,1.49057,0.00245564,0.00998572,1903,722,26.0741,-0.94316
686,302,26.0681,1.50604,-0.0030301,0.00232091,0.000523683,0.00237168,-0.00308087,1.47415,0.00315689,0.0186573,1910,722,26.0681,-1.50607
693,302,25.9949,2.07349,0,0,0,0,0,0,0,-1,1917,722,25.9948,-2.07348
700,302,25.4069,1.97308,0,0,0,0,0,0,0,-1,1924,722,25.4068,-1.97311
707,302,16.7321,4.76685,0,0,0,0,0,0,0,-1,1931,722,16.7321,-4.76687
714,302,17.2,5.77594,0,0,0,0,0,0,0,-1,1938,722,17.2,-5.77595
721,302,17.7914,6.60394,0,0,0,0,0,0,0,-1,1945,722,17.7914,-6.60395
728,302,17.2798,4.81702,0,0,0,0,0,0,0,-1,1952,722,17.2798,-4.81703
735,302,0,0,0,0,0,0,0,0,0,-1,1959,722,0,0
742,302,0,0,0,0,0,0,0,0,0,-1,1966,722,0,0
749,302,0,0,0,0,0,0,0,0,0,-1,1973,722,0,0
756,302,0,0,0,0,0,0,0,0,0,-1,1980,722,0,0
763,302,0,0,0,0,0,0,0,0,0,-1,1987,722,0,0
770,302,0,0,0,0,0,0,0,0,0,-1,1994,722,0,0
777,302,0,0,0,0,0,0,0,0,0,-1,2001,722,0,0
784,302,0,0,0,0,0,0,0,0,0,-1,2008,722,0,0
791,302,0,0,0,0,0,0,0,0,0,-1,2015,722,0,0
798,302,0,0,0,0,0,0,0,0,0,-1,2022,722,0,0
805,302,0,0,0,0,0,0,0,0,0,-1,2029,722,0,0
812,302,0,0,0,0,0,0,0,0,0,-1,2036,722,0,0
-700,295,0,0,0,0,0,0,0,0,0,-1,524,729,0,0
-693,295,0,0,0,0,0,0,0,0,0,-1,531,729,0,0
-686,295,0,0,0,0,0,0,0,0,0,-1,538,729,0,0
-679,295,0,0,0,0,0,0,0,0,0,-1,545,729,0,0
-672,295,0,0,0,0,0,0,0,0,0,-1,552,729,0,0
-665,295,0,0,0,0,0,0,0,0,0,-1,559,729,0,0
-658,295,0,0,0,0,0,0,0,0,0,-1,566,729,0,0
-651,295,0,0,0,0,0,0,0,0,0,-1,573,729,0,0
-644,295,0,0,0,0,0,0,0,0,0,-1,580,729,0,0
-637,295,0,0,0,0,0,0,0,0,0,-1,587,729,0,0
-630,295,0,0,0,0,0,0,0,0,0,-1,594,729,0,0
-623,295,0,0,0,0,0,0,0,0,0,-1,601,729,0,0
-616,295,-13.4911,1.31738,0,0,0,0,0,0,0,-1,608,729,-13.4911,-1.3174
-609,295,-10.2864,0.832031,0,0,0,0,0,0,0,-1,615,729,-10.2863,-0.832034
-602,295,-8.19006,3.01587,0,0,0,0,0,0,0,-1,622,729,-8.19005,-3.01588
-595,295,-0.615479,-1.95447,0,0,0,0,0,0,0,-1,629,729,-0.615481,1.95445
-588,295,-7.98999,1.56903,0,0,0,0,0,0,0,-1,636,729,-7.98997,-1.56905
-581,295,-12.0404,0.150574,0,0,0,0,0,0,0,-1,643,729,-12.0404,-0.150604
-574,295,-12.1605,-0.0739746,0,0,0,0,0,0,0,-1,650,729,-12.1605,0.0739856
-567,295,-16.4303,0.0527344,0,0,0,0,0,0,0,-1,657,729,-16.4303,-0.0527559
-560,295,-16.6595,-0.577454,-0.00205866,0.00331262,-0.00140746,0.00365907,-0.00240511,-1.32944,0.00352602,0.0338571,664,729,-16.6595,0.577432
-553,295,-16.6763,-1.09888,-0.00132959,0.00244636,-0.00101406,0.00270146,-0.00158469,-1.32435,0.00250245,0.01912,671,729,-16.6763,1.09891
-546,295,-16.7402,-1.57733,-0.000817822,0.00154373,-0.000610527,0.00169223,-0.000966323,-1.3322,0.00155387,0.0213807,678,729,-16.7403,1.57731
-539,295,-16.7499,-2.05615,-0.000470614,0.00075212,-0.000174251,0.000776468,-0.000494961,-1.43197,0.000740033,0.0185567,685,729,-16.7499,2.05613
-532,295,-16.7487,-2.58057,-0.000186806,-6.1618e-05,0.000223663,0.000108044,-0.000356468,0.921837,0.00028068,0.0158218,692,729,-16.7486,2.58056
-525,295,-16.746,-3.13629,3.89608e-05,-0.00071172,0.000568847,0.000345139,-0.0010179,0.493772,0.000818278,0.0146695,699,729,-16.746,3.13628
-518,295,-16.7537,-3.62872,0.000735473,-0.00159309,0.000988902,0.00109876,-0.00195638,0.352063,0.0017869,0.0105905,706,729,-16.7537,3.6287
-511,295,-16.7565,-4.12573,0.00168618,-0.00209511,0.0017423,0.00236655,-0.00277549,0.372293,0.00297188,0.00940782,713,729,-16.7564,4.12575
-504,295,-16.7883,-4.63397,0.00555471,-0.00123079,0.00292233,0.00663977,-0.00231585,0.355522,0.00536765,0.0111682,720,729,-16.7883,4.63399
-497,295,-16.8502,-5.08173,0.0114173,0.000945481,0.00501626,0.0134324,-0.00106965,0.381989,0.00933195,0.0212274,727,729,-16.8502,5.08173
-490,295,-16.9105,-5.49493,0,0,0,0,0,0,0,-1,734,729,-16.9105,5.49491
-483,295,-6.84503,-0.454651,0,0,0,0,0,0,0,-1,741,729,-6.84505,0.454639
-476,295,-13.1738,-0.836243,0,0,0,0,0,0,0,-1,748,729,-13.1738,0.836223
-469,295,-26.5608,-0.466187,0,0,0,0,0,0,0,-1,755,729,-26.5608,0.466162
-462,295,-29.7701,-0.792664,0,0,0,0,0,0,0,-1,762,729,-29.7701,0.792642
-455,295,-31.7505,2.14313,0,0,0,0,0,0,0,-1,769,729,-31.7505,-2.14314
-448,295,-30.5955,2.21436,0,0,0,0,0,0,0,-1,776,729,-30.5955,-2.21439
-441,295,-30.8951,1.99799,0,0,0,0,0,0,0,-1,783,729,-30.8951,-1.99799
-434,295,-26.6473,1.64215,0,0,0,0,0,0,0,-1,790,729,-26.6473,-1.64213
-427,295,0,0,0,0,0,0,0,0,0,-1,797,729,0,0
-420,295,0,0,0,0,0,0,0,0,0,-1,804,729,0,0
-413,295,0,0,0,0,0,0,0,0,0,-1,811,729,0,0
-406,295,0,0,0,0,0,0,0,0,0,-1,818,729,0,0
-399,295,0,0,0,0,0,0,0,0,0,-1,825,729,0,0
-392,295,0,0,0,0,0,0,0,0,0,-1,832,729,0,0
-385,295,0,0,0,0,0,0,0,0,0,-1,839,729,0,0
-378,295,0,0,0,0,0,0,0,0,0,-1,846,729,0,0
-371,295,0,0,0,0,0,0,0,0,0,-1,853,729,0,0
-364,295,0,0,0,0,0,0,0,0,0,-1,860,729,0,0
-357,295,0,0,0,0,0,0,0,0,0,-1,867,729,0,0
-350,295,0,0,0,0,0,0,0,0,0,-1,874,729,0,0
-343,295,0,0,0,0,0,0,0,0,0,-1,881,729,0,0
-336,295,0,0,0,0,0,0,0,0,0,-1,888,729,0,0
-329,295,0,0,0,0,0,0,0,0,0,-1,895,729,0,0
-322,295,0,0,0,0,0,0,0,0,0,-1,902,729,0,0
-315,295,0,0,0,0,0,0,0,0,0,-1,909,729,0,0
-308,295,0,0,0,0,0,0,0,0,0,-1,916,729,0,0
-301,295,0,0,0,0,0,0,0,0,0,-1,923,729,0,0
-294,295,0,0,0,0,0,0,0,0,0,-1,930,729,0,0
-287,295,0,0,0,0,0,0,0,0,0,-1,937,729,0,0
-280,295,0,0,0,0,0,0,0,0,0,-1,944,729,0,0
-273,295,0,0,0,0,0,0,0,0,0,-1,951,729,0,0
-266,295,0,0,0,0,0,0,0,0,0,-1,958,729,0,0
-259,295,0,0,0,0,0,0,0,0,0,-1,965,729,0,0
-252,295,0,0,0,0,0,0,0,0,0,-1,972,729,0,0
-245,295,0,0,0,0,0,0,0,0,0,-1,979,729,0,0
-238,295,0,0,0,0,0,0,0,0,0,-1,986,729,0,0
-231,295,0,0,0,0,0,0,0,0,0,-1,993,729,0,0
-224,295,0,0,0,0,0,0,0,0,0,-1,1000,729,0,0
-217,295,0,0,0,0,0,0,0,0,0,-1,1007,729,0,0
-210,295,0,0,0,0,0,0,0,0,0,-1,1014,729,0,0
-203,295,0,0,0,0,0,0,0,0,0,-1,1021,729,0,0
-196,295,0,0,0,0,0,0,0,0,0,-1,1028,729,0,0
-189,295,0,0,0,0,0,0,0,0,0,-1,1035,729,0,0
-182,295,0,0,0,0,0,0,0,0,0,-1,1042,729,0,0
-175,295,0,0,0,0,0,0,0,0,0,-1,1049,729,0,0
-168,295,0,0,0,0,0,0,0,0,0,-1,1056,729,0,0
-161,295,0,0,0,0,0,0,0,0,0,-1,1063,729,0,0
-154,295,0,0,0,0,0,0,0,0,0,-1,1070,729,0,0
-147,295,0,0,0,0,0,0,0,0,0,-1,1077,729,0,0
-140,295,0,0,0,0,0,0,0,0,0,-1,1084,729,0,0
-133,295,0,0,0,0,0,0,0,0,0,-1,1091,729,0,0
-126,295,0,0,0,0,0,0,0,0,0,-1,1098,729,0,0
-119,295,0,0,0,0,0,0,0,0,0,-1,1105,729,0,0
-112,295,0,0,0,0,0,0,0,0,0,-1,1112,729,0,0
-105,295,0,0,0,0,0,0,0,0,0,-1,1119,729,0,0
-98,295,0,0,0,0,0,0,0,0,0,-1,1126,729,0,0
-91,295,0,0,0,0,0,0,0,0,0,-1,1133,729,0,0
-84,295,0,0,0,0,0,0,0,0,0,-1,1140,729,0,0
-77,295,0,0,0,0,0,0,0,0,0,-1,1147,729,0,0
-70,295,0,0,0,0,0,0,0,0,0,-1,1154,729,0,0
-63,295,0,0,0,0,0,0,0,0,0,-1,1161,729,0,0
-56,295,0,0,0,0,0,0,0,0,0,-1,1168,729,0,0
-49,295,0,0,0,0,0,0,0,0,0,-1,1175,729,0,0
-42,295,0,0,0,0,0,0,0,0,0,-1,1182,729,0,0
-35,295,0,0,0,0,0,0,0,0,0,-1,1189,729,0,0
-28,295,0,0,0,0,0,0,0,0,0,-1,1196,729,0,0
-21,295,0,0,0,0,0,0,0,0,0,-1,1203,729,0,0
-14,295,0,0,0,0,0,0,0,0,0,-1,1210,729,0,0
-7,295,0,0,0,0,0,0,0,0,0,-1,1217,729,0,0
0,295,0,0,0,0,0,0,0,0,0,-1,1224,729,0,0
7,295,0,0,0,0,0,0,0,0,0,-1,1231,729,0,0
14,295,0,0,0,0,0,0,0,0,0,-1,1238,729,0,0
21,295,0,0,0,0,0,0,0,0,0,-1,1245,729,0,0
28,295,0,0,0,0,0,0,0,0,0,-1,1252,729,0,0
35,295,0,0,0,0,0,0,0,0,0,-1,1259,729,0,0
42,295,0,0,0,0,0,0,0,0,0,-1,1266,729,0,0
49,295,0,0,0,0,0,0,0,0,0,-1,1273,729,0,0
56,295,0,0,0,0,0,0,0,0,0,-1,1280,729,0,0
63,295,0,0,0,0,0,0,0,0,0,-1,1287,729,0,0
70,295,0,0,0,0,0,0,0,0,0,-1,1294,729,0,0
77,295,0,0,0,0,0,0,0,0,0,-1,1301,729,0,0
84,295,0,0,0,0,0,0,0,0,0,-1,1308,729,0,0
91,295,0,0,0,0,0,0,0,0,0,-1,1315,729,0,0
98,295,0,0,0,0,0,0,0,0,0,-1,1322,729,0,0
105,295,0,0,0,0,0,0,0,0,0,-1,1329,729,0,0
112,295,0,0,0,0,0,0,0,0,0,-1,1336,729,0,0
119,295,0,0,0,0,0,0,0,0,0,-1,1343,729,0,0
126,295,0,0,0,0,0,0,0,0,0,-1,1350,729,0,0
133,295,0,0,0,0,0,0,0,0,0,-1,1357,729,0,0
140,295,0,0,0,0,0,0,0,0,0,-1,1364,729,0,0
147,295,0,0,0,0,0,0,0,0,0,-1,1371,729,0,0
154,295,0,0,0,0,0,0,0,0,0,-1,1378,729,0,0
161,295,0,0,0,0,0,0,0,0,0,-1,1385,729,0,0
168,295,0,0,0,0,0,0,0,0,0,-1,1392,729,0,0
175,295,0,0,0,0,0,0,0,0,0,-1,1399,729,0,0
182,295,0,0,0,0,0,0,0,0,0,-1,1406,729,0,0
189,295,0,0,0,0,0,0,0,0,0,-1,1413,729,0,0
196,295,0,0,0,0,0,0,0,0,0,-1,1420,729,0,0
203,295,0,0,0,0,0,0,0,0,0,-1,1427,729,0,0
210,295,0,0,0,0,0,0,0,0,0,-1,1434,729,0,0
217,295,0,0,0,0,0,0,0,0,0,-1,1441,729,0,0
224,295,0,0,0,0,0,0,0,0,0,-1,1448,729,0,0
231,295,0,0,0,0,0,0,0,0,0,-1,1455,729,0,0
238,295,0,0,0,0,0,0,0,0,0,-1,1462,729,0,0
245,295,0,0,0,0,0,0,0,0,0,-1,1469,729,0,0
252,295,0,0,0,0,0,0,0,0,0,-1,1476,729,0,0
259,295,0,0,0,0,0,0,0,0,0,-1,1483,729,0,0
266,295,0,0,0,0,0,0,0,0,0,-1,1490,729,0,0
273,295,0,0,0,0,0,0,0,0,0,-1,1497,729,0,0
280,295,0,0,0,0,0,0,0,0,0,-1,1504,729,0,0
287,295,0,0,0,0,0,0,0,0,0,-1,1511,729,0,0
294,295,0,0,0,0,0,0,0,0,0,-1,1518,729,0,0
301,295,0,0,0,0,0,0,0,0,0,-1,1525,729,0,0
308,295,0,0,0,0,0,0,0,0,0,-1,1532,729,0,0
315,295,0,0,0,0,0,0,0,0,0,-1,1539,729,0,0
322,295,0,0,0,0,0,0,0,0,0,-1,1546,729,0,0
329,295,0,0,0,0,0,0,0,0,0,-1,1553,729,0,0
336,295,0,0,0,0,0,0,0,0,0,-1,1560,729,0,0
343,295,0,0,0,0,0,0,0,0,0,-1,1567,729,0,0
350,295,0,0,0,0,0,0,0,0,0,-1,1574,729,0,0
357,295,0,0,0,0,0,0,0,0,0,-1,1581,729,0,0
364,295,0,0,0,0,0,0,0,0,0,-1,1588,729,0,0
371,295,0,0,0,0,0,0,0,0,0,-1,1595,729,0,0
378,295,0,0,0,0,0,0,0,0,0,-1,1602,729,0,0
385,295,0,0,0,0,0,0,0,0,0,-1,1609,729,0,0
392,295,0,0,0,0,0,0,0,0,0,-1,1616,729,0,0
399,295,0,0,0,0,0,0,0,0,0,-1,1623,729,0,0
406,295,0,0,0,0,0,0,0,0,0,-1,1630,729,0,0
413,295,0,0,0,0,0,0,0,0,0,-1,1637,729,0,0
420,295,0,0,0,0,0,0,0,0,0,-1,1644,729,0,0
427,295,0,0,0,0,0,0,0,0,0,-1,1651,729,0,0
434,295,0,0,0,0,0,0,0,0,0,-1,1658,729,0,0
441,295,0,0,0,0,0,0,0,0,0,-1,1665,729,0,0
448,295,0,0,0,0,0,0,0,0,0,-1,1672,729,0,0
455,295,0,0,0,0,0,0,0,0,0,-1,1679,729,0,0
462,295,0,0,0,0,0,0,0,0,0,-1,1686,729,0,0
469,295,0,0,0,0,0,0,0,0,0,-1,1693,729,0,0
476,295,0,0,0,0,0,0,0,0,0,-1,1700,729,0,0
483,295,0,0,0,0,0,0,0,0,0,-1,1707,729,0,0
490,295,0,0,0,0,0,0,0,0,0,-1,1714,729,0,0
497,295,0,0,0,0,0,0,0,0,0,-1,1721,729,0,0
504,295,0,0,0,0,0,0,0,0,0,-1,1728,729,0,0
511,295,0,0,0,0,0,0,0,0,0,-1,1735,729,0,0
518,295,0,0,0,0,0,0,0,0,0,-1,1742,729,0,0
525,295,0,0,0,0,0,0,0,0,0,-1,1749,729,0,0
532,295,0,0,0,0,0,0,0,0,0,-1,1756,729,0,0
539,295,0,0,0,0,0,0,0,0,0,-1,1763,729,0,0
546,295,42.2577,3.30042,0,0,0,0,0,0,0,-1,1770,729,42.2577,-3.3004
553,295,42.1073,3.07355,0,0,0,0,0,0,0,-1,1777,729,42.1073,-3.07356
560,295,42.4982,3.12653,0,0,0,0,0,0,0,-1,1784,729,42.4982,-3.1265
567,295,42.8815,3.07184,0,0,0,0,0,0,0,-1,1791,729,42.8815,-3.07183
574,295,43.5406,3.35315,0,0,0,0,0,0,0,-1,1798,729,43.5406,-3.35315
581,295,37.8191,2.19592,0,0,0,0,0,0,0,-1,1805,729,37.8191,-2.19594
588,295,39.0542,2.45679,0,0,0,0,0,0,0,-1,1812,729,39.0542,-2.45676
595,295,27.2102,6.99121,0,0,0,0,0,0,0,-1,1819,729,27.2103,-6.99121
602,295,26.9065,7.82141,0,0,0,0,0,0,0,-1,1826,729,26.9064,-7.8214
609,295,11.7737,2.19989,0,0,0,0,0,0,0,-1,1833,729,11.7736,-2.19988
616,295,26.9386,-3.91797,0,0,0,0,0,0,0,-1,1840,729,26.9386,3.91799
623,295,26.8027,-3.38184,0.00282602,0.00464767,0.00564383,0.00945369,-0.00198001,0.8654,0.00705568,0.033677,1847,729,26.8027,3.38182
630,295,26.7028,-2.82568,0.00108405,0.00336912,0.00376409,0.00616026,-0.00170709,0.932746,0.00477861,0.0134509,1854,729,26.7027,2.82571
637,295,26.6719,-2.27588,0.000361525,0.00180967,0.00256205,0.003748,-0.0015768,0.923114,0.00315831,0.014825,1861,729,26.6718,2.27588
644,295,26.6925,-1.74445,-9.98711e-05,0.000779429,0.00150458,0.00190728,-0.00122772,0.927545,0.00182411,0.0138417,1868,729,26.6925,1.74446
651,295,26.6846,-1.20569,-0.000171757,0.000394174,0.000662035,0.000831181,-0.000608764,0.987356,0.000834652,0.0139903,1875,729,26.6846,1.20568
658,295,26.6364,-0.661255,-0.000344539,0.000257624,0.000201267,0.0003187,-0.000405616,1.27617,0.000419187,0.0127824,1882,729,26.6364,0.661265
665,295,26.6215,-0.14209,-0.000783297,0.000673491,0.000236627,0.000710962,-0.000820769,1.41374,0.000885102,0.0116787,1889,729,26.6214,0.142083
672,295,26.6147,0.374084,-0.00116244,0.00116549,0.000310074,0.00120609,-0.00120303,1.44062,0.00139091,0.0132209,1896,729,26.6148,-0.374098
679,295,26.5994,0.933044,-0.00117505,0.00178652,0.000622208,0.00191193,-0.00130046,1.3719,0.00186584,0.00993388,1903,729,26.5993,-0.93303
686,295,26.6151,1.46198,-0.00115104,0.00252403,0.000975416,0.00276687,-0.00139388,1.32679,0.00244542,0.010593,1910,729,26.6151,-1.46195
693,295,26.5762,1.98828,-0.000649726,0.00343419,0.00154462,0.00395259,-0.00116813,1.24699,0.00309872,0.0437698,1917,729,26.5761,-1.98828
700,295,26.6031,2.52112,0,0,0,0,0,0,0,-1,1924,729,26.6031,-2.52111
707,295,22.2661,3.05206,0,0,0,0,0,0,0,-1,1931,729,22.2662,-3.05207
714,295,17.4906,4.63068,0,0,0,0,0,0,0,-1,1938,729,17.4906,-4.63066
721,295,18.3792,5.32281,0,0,0,0,0,0,0,-1,1945,729,18.3791,-5.32283
728,295,17.379,3.74866,0,0,0,0,0,0,0,-1,1952,729,17.379,-3.74863
735,295,0,0,0,0,0,0,0,0,0,-1,1959,729,0,0
742,295,0,0,0,0,0,0,0,0,0,-1,1966,729,0,0
749,295,0,0,0,0,0,0,0,0,0,-1,1973,729,0,0
756,295,0,0,0,0,0,0,0,0,0,-1,1980,729,0,0
763,295,0,0,0,0,0,0,0,0,0,-1,1987,729,0,0
770,295,0,0,0,0,0,0,0,0,0,-1,1994,729,0,0
777,295,0,0,0,0,0,0,0,0,0,-1,2001,729,0,0
784,295,0,0,0,0,0,0,0,0,0,-1,2008,729,0,0
791,295,0,0,0,0,0,0,0,0,0,-1,2015,729,0,0
798,295,0,0,0,0,0,0,0,0,0,-1,2022,729,0,0
805,295,0,0,0,0,0,0,0,0,0,-1,2029,729,0,0
812,295,0,0,0,0,0,0,0,0,0,-1,2036,729,0,0
-700,288,0,0,0,0,0,0,0,0,0,-1,524,736,0,0
-693,288,0,0,0,0,0,0,0,0,0,-1,531,736,0,0
-686,288,0,0,0,0,0,0,0,0,0,-1,538,736,0,0
-679,288,0,0,0,0,0,0,0,0,0,-1,545,736,0,0
-672,288,0,0,0,0,0,0,0,0,0,-1,552,736,0,0
-665,288,0,0,0,0,0,0,0,0,0,-1,559,736,0,0
-658,288,0,0,0,0,0,0,0,0,0,-1,566,736,0,0
-651,288,0,0,0,0,0,0,0,0,0,-1,573,736,0,0
-644,288,0,0,0,0,0,0,0,0,0,-1,580,736,0,0
-637,288,0,0,0,0,0,0,0,0,0,-1,587,736,0,0
-630,288,0,0,0,0,0,0,0,0,0,-1,594,736,0,0
-623,288,0,0,0,0,0,0,0,0,0,-1,601,736,0,0
-616,288,-11.7584,2.4425,0,0,0,0,0,0,0,-1,608,736,-11.7584,-2.44251
-609,288,-10.3007,2.32178,0,0,0,0,0,0,0,-1,615,736,-10.3007,-2.32178
-602,288,-10.1458,-1.85559,0,0,0,0,0,0,0,-1,622,736,-10.1458,1.85556
-595,288,-7.63208,1.81769,0,0,0,0,0,0,0,-1,629,736,-7.63205,-1.81766
-588,288,-8.19269,1.50598,0,0,0,0,0,0,0,-1,636,736,-8.19268,-1.50601
-581,288,-13.1915,0.659241,0,0,0,0,0,0,0,-1,643,736,-13.1915,-0.659228
-574,288,-16.9489,0.447754,0,0,0,0,0,0,0,-1,650,736,-16.9489,-0.447766
-567,288,-16.9671,-0.0727539,-0.00253502,0.00395315,-0.00200097,0.00452062,-0.00310249,-1.29445,0.00442651,0.0354026,657,736,-16.9671,0.0727425
-560,288,-17.2154,-0.627686,-0.00188894,0.00283261,-0.00128315,0.00315879,-0.00221512,-1.32187,0.00311853,0.0169199,664,736,-17.2154,0.627699
-553,288,-17.1947,-1.07733,-0.00130482,0.00192806,-0.000765047,0.00209997,-0.00147672,-1.34977,0.00207543,0.0191065,671,736,-17.1947,1.07731
-546,288,-17.2208,-1.56305,-0.000863625,0.00103462,-0.00029468,0.00107931,-0.000908319,-1.42028,0.00114897,0.0204795,678,736,-17.2208,1.56306
-539,288,-17.2451,-2.06128,-0.000570827,0.000217242,0.000208505,0.000269008,-0.000622593,1.32745,0.000528086,0.0170219,685,736,-17.2451,2.06129
-532,288,-17.2271,-2.58826,-0.000225636,-0.00056212,0.000576824,0.000206981,-0.000994737,0.6435,0.00074184,0.0139565,692,736,-17.2271,2.58826
-525,288,-17.2486,-3.10797,0.000161581,-0.00113364,0.000809646,0.000550758,-0.00152281,0.448069,0.00124025,0.0127508,699,736,-17.2486,3.10799
-518,288,-17.293,-3.60388,0.00121423,-0.00202272,0.00111996,0.00156394,-0.00237244,0.302663,0.00228859,0.0116319,706,736,-17.293,3.60387
-511,288,-17.2935,-4.09991,0.00249731,-0.00229774,0.00177426,0.00308243,-0.00288285,0.318548,0.0034447,0.00898081,713,736,-17.2935,4.0999
-504,288,-17.2984,-4.59418,0.00665482,-0.00122154,0.00290805,0.00761215,-0.00217887,0.318026,0.00593589,0.0110496,720,736,-17.2984,4.5942
-497,288,-17.3128,-4.93689,0.0125669,0.00105819,0.00492262,0.0143852,-0.000760089,0.353828,0.00985324,0.0310488,727,736,-17.3128,4.93692
-490,288,-17.2417,-5.22913,0,0,0,0,0,0,0,-1,734,736,-17.2417,5.22914
-483,288,-17.3287,0.564758,0,0,0,0,0,0,0,-1,741,736,-17.3287,-0.56477
-476,288,-26.136,0.452148,0,0,0,0,0,0,0,-1,748,736,-26.136,-0.452177
-469,288,-27.7904,0.649841,0,0,0,0,0,0,0,-1,755,736,-27.7904,-0.649854
-462,288,-32.9793,1.69379,0,0,0,0,0,0,0,-1,762,736,-32.9793,-1.69377
-455,288,-31.8725,1.90521,0.0769773,0.0304554,0.0262832,0.0888145,0.0186182,0.423162,0.0540826,0.0490176,769,736,-31.8725,-1.9052
-448,288,-30.8108,2.12811,0.100311,0.043156,0.0349097,0.116848,0.0266184,0.442406,0.0707162,0.0463474,776,736,-30.8108,-2.12812
-441,288,-29.8209,2.36774,0,0,0,0,0,0,0,-1,783,736,-29.8209,-2.36772
-434,288,-26.0831,2.26532,0,0,0,0,0,0,0,-1,790,736,-26.083,-2.26529
-427,288,0,0,0,0,0,0,0,0,0,-1,797,736,0,0
-420,288,0,0,0,0,0,0,0,0,0,-1,804,736,0,0
-413,288,0,0,0,0,0,0,0,0,0,-1,811,736,0,0
-406,288,0,0,0,0,0,0,0,0,0,-1,818,736,0,0
-399,288,0,0,0,0,0,0,0,0,0,-1,825,736,0,0
-392,288,0,0,0,0,0,0,0,0,0,-1,832,736,0,0
-385,288,0,0,0,0,0,0,0,0,0,-1,839,736,0,0
-378,288,0,0,0,0,0,0,0,0,0,-1,846,736,0,0
-371,288,0,0,0,0,0,0,0,0,0,-1,853,736,0,0
-364,288,0,0,0,0,0,0,0,0,0,-1,860,736,0,0
-357,288,0,0,0,0,0,0,0,0,0,-1,867,736,0,0
-350,288,0,0,0,0,0,0,0,0,0,-1,874,736,0,0
-343,288,0,0,0,0,0,0,0,0,0,-1,881,736,0,0
-336,288,0,0,0,0,0,0,0,0,0,-1,888,736,0,0
-329,288,0,0,0,0,0,0,0,0,0,-1,895,736,0,0
-322,288,0,0,0,0,0,0,0,0,0,-1,902,736,0,0
-315,288,0,0,0,0,0,0,0,0,0,-1,909,736,0,0
-308,288,0,0,0,0,0,0,0,0,0,-1,916,736,0,0
-301,288,0,0,0,0,0,0,0,0,0,-1,923,736,0,0
-294,288,0,0,0,0,0,0,0,0,0,-1,930,736,0,0
-287,288,0,0,0,0,0,0,0,0,0,-1,937,736,0,0
-280,288,0,0,0,0,0,0,0,0,0,-1,944,736,0,0
-273,288,0,0,0,0,0,0,0,0,0,-1,951,736,0,0
-266,288,0,0,0,0,0,0,0,0,0,-1,958,736,0,0
-259,288,0,0,0,0,0,0,0,0,0,-1,965,736,0,0
-252,288,0,0,0,0,0,0,0,0,0,-1,972,736,0,0
-245,288,0,0,0,0,0,0,0,0,0,-1,979,736,0,0
-238,288,0,0,0,0,0,0,0,0,0,-1,986,736,0,0
-231,288,0,0,0,0,0,0,0,0,0,-1,993,736,0,0
-224,288,0,0,0,0,0,0,0,0,0,-1,1000,736,0,0
-217,288,0,0,0,0,0,0,0,0,0,-1,1007,736,0,0
-210,288,0,0,0,0,0,0,0,0,0,-1,1014,736,0,0
-203,288,0,0,0,0,0,0,0,0,0,-1,1021,736,0,0
-196,288,0,0,0,0,0,0,0,0,0,-1,1028,736,0,0
-189,288,0,0,0,0,0,0,0,0,0,-1,1035,736,0,0
-182,288,0,0,0,0,0,0,0,0,0,-1,1042,736,0,0
-175,288,0,0,0,0,0,0,0,0,0,-1,1049,736,0,0
-168,288,0,0,0,0,0,0,0,0,0,-1,1056,736,0,0
-161,288,0,0,0,0,0,0,0,0,0,-1,1063,736,0,0
-154,288,0,0,0,0,0,0,0,0,0,-1,1070,736,0,0
-147,288,0,0,0,0,0,0,0,0,0,-1,1077,736,0,0
-140,288,0,0,0,0,0,0,0,0,0,-1,1084,736,0,0
-133,288,0,0,0,0,0,0,0,0,0,-1,1091,736,0,0
-126,288,0,0,0,0,0,0,0,0,0,-1,1098,736,0,0
-119,288,0,0,0,0,0,0,0,0,0,-1,1105,736,0,0
-112,288,0,0,0,0,0,0,0,0,0,-1,1112,736,0,0
-105,288,0,0,0,0,0,0,0,0,0,-1,1119,736,0,0
-98,288,0,0,0,0,0,0,0,0,0,-1,1126,736,0,0
-91,288,0,0,0,0,0,0,0,0,0,-1,1133,736,0,0
-84,288,0,0,0,0,0,0,0,0,0,-1,1140,736,0,0
-77,288,0,0,0,0,0,0,0,0,0,-1,1147,736,0,0
-70,288,0,0,0,0,0,0,0,0,0,-1,1154,736,0,0
-63,288,0,0,0,0,0,0,0,0,0,-1,1161,736,0,0
-56,288,0,0,0,0,0,0,0,0,0,-1,1168,736,0,0
-49,288,0,0,0,0,0,0,0,0,0,-1,1175,736,0,0
-42,288,0,0,0,0,0,0,0,0,0,-1,1182,736,0,0
-35,288,0,0,0,0,0,0,0,0,0,-1,1189,736,0,0
-28,288,0,0,0,0,0,0,0,0,0,-1,1196,736,0,0
-21,288,0,0,0,0,0,0,0,0,0,-1,1203,736,0,0
-14,288,0,0,0,0,0,0,0,0,0,-1,1210,736,0,0
-7,288,0,0,0,0,0,0,0,0,0,-1,1217,736,0,0
0,288,0,0,0,0,0,0,0,0,0,-1,1224,736,0,0
7,288,0,0,0,0,0,0,0,0,0,-1,1231,736,0,0
14,288,0,0,0,0,0,0,0,0,0,-1,1238,736,0,0
21,288,0,0,0,0,0,0,0,0,0,-1,1245,736,0,0
28,288,0,0,0,0,0,0,0,0,0,-1,1252,736,0,0
35,288,0,0,0,0,0,0,0,0,0,-1,1259,736,0,0
42,288,0,0,0,0,0,0,0,0,0,-1,1266,736,0,0
49,288,0,0,0,0,0,0,0,0,0,-1,1273,736,0,0
56,288,0,0,0,0,0,0,0,0,0,-1,1280,736,0,0
63,288,0,0,0,0,0,0,0,0,0,-1,1287,736,0,0
70,288,0,0,0,0,0,0,0,0,0,-1,1294,736,0,0
77,288,0,0,0,0,0,0,0,0,0,-1,1301,736,0,0
84,288,0,0,0,0,0,0,0,0,0,-1,1308,736,0,0
91,288,0,0,0,0,0,0,0,0,0,-1,1315,736,0,0
98,288,0,0,0,0,0,0,0,0,0,-1,1322,736,0,0
105,288,0,0,0,0,0,0,0,0,0,-1,1329,736,0,0
112,288,0,0,0,0,0,0,0,0,0,-1,1336,736,0,0
119,288,0,0,0,0,0,0,0,0,0,-1,1343,736,0,0
126,288,0,0,0,0,0,0,0,0,0,-1,1350,736,0,0
133,288,0,0,0,0,0,0,0,0,0,-1,1357,736,0,0
140,288,0,0,0,0,0,0,0,0,0,-1,1364,736,0,0
147,288,0,0,0,0,0,0,0,0,0,-1,1371,736,0,0
154,288,0,0,0,0,0,0,0,0,0,-1,1378,736,0,0
161,288,0,0,0,0,0,0,0,0,0,-1,1385,736,0,0
168,288,0,0,0,0,0,0,0,0,0,-1,1392,736,0,0
175,288,0,0,0,0,0,0,0,0,0,-1,1399,736,0,0
182,288,0,0,0,0,0,0,0,0,0,-1,1406,736,0,0
189,288,0,0,0,0,0,0,0,0,0,-1,1413,736,0,0
196,288,0,0,0,0,0,0,0,0,0,-1,1420,736,0,0
203,288,0,0,0,0,0,0,0,0,0,-1,1427,736,0,0
210,288,0,0,0,0,0,0,0,0,0,-1,1434,736,0,0
217,288,0,0,0,0,0,0,0,0,0,-1,1441,736,0,0
224,288,0,0,0,0,0,0,0,0,0,-1,1448,736,0,0
231,288,0,0,0,0,0,0,0,0,0,-1,1455,736,0,0
238,288,0,0,0,0,0,0,0,0,0,-1,1462,736,0,0
245,288,0,0,0,0,0,0,0,0,0,-1,1469,736,0,0
252,288,0,0,0,0,0,0,0,0,0,-1,1476,736,0,0
259,288,0,0,0,0,0,0,0,0,0,-1,1483,736,0,0
266,288,0,0,0,0,0,0,0,0,0,-1,1490,736,0,0
273,288,0,0,0,0,0,0,0,0,0,-1,1497,736,0,0
280,288,0,0,0,0,0,0,0,0,0,-1,1504,736,0,0
287,288,0,0,0,0,0,0,0,0,0,-1,1511,736,0,0
294,288,0,0,0,0,0,0,0,0,0,-1,1518,736,0,0
301,288,0,0,0,0,0,0,0,0,0,-1,1525,736,0,0
308,288,0,0,0,0,0,0,0,0,0,-1,1532,736,0,0
315,288,0,0,0,0,0,0,0,0,0,-1,1539,736,0,0
322,288,0,0,0,0,0,0,0,0,0,-1,1546,736,0,0
329,288,0,0,0,0,0,0,0,0,0,-1,1553,736,0,0
336,288,0,0,0,0,0,0,0,0,0,-1,1560,736,0,0
343,288,0,0,0,0,0,0,0,0,0,-1,1567,736,0,0
350,288,0,0,0,0,0,0,0,0,0,-1,1574,736,0,0
357,288,0,0,0,0,0,0,0,0,0,-1,1581,736,0,0
364,288,0,0,0,0,0,0,0,0,0,-1,1588,736,0,0
371,288,0,0,0,0,0,0,0,0,0,-1,1595,736,0,0
378,288,0,0,0,0,0,0,0,0,0,-1,1602,736,0,0
385,288,0,0,0,0,0,0,0,0,0,-1,1609,736,0,0
392,288,0,0,0,0,0,0,0,0,0,-1,1616,736,0,0
399,288,0,0,0,0,0,0,0,0,0,-1,1623,736,0,0
406,288,0,0,0,0,0,0,0,0,0,-1,1630,736,0,0
413,288,0,0,0,0,0,0,0,0,0,-1,1637,736,0,0
420,288,0,0,0,0,0,0,0,0,0,-1,1644,736,0,0
427,288,0,0,0,0,0,0,0,0,0,-1,1651,736,0,0
434,288,0,0,0,0,0,0,0,0,0,-1,1658,736,0,0
441,288,0,0,0,0,0,0,0,0,0,-1,1665,736,0,0
448,288,0,0,0,0,0,0,0,0,0,-1,1672,736,0,0
455,288,0,0,0,0,0,0,0,0,0,-1,1679,736,0,0
462,288,0,0,0,0,0,0,0,0,0,-1,1686,736,0,0
469,288,0,0,0,0,0,0,0,0,0,-1,1693,736,0,0
476,288,0,0,0,0,0,0,0,0,0,-1,1700,736,0,0
483,288,0,0,0,0,0,0,0,0,0,-1,1707,736,0,0
490,288,0,0,0,0,0,0,0,0,0,-1,1714,736,0,0
497,288,0,0,0,0,0,0,0,0,0,-1,1721,736,0,0
504,288,0,0,0,0,0,0,0,0,0,-1,1728,736,0,0
511,288,0,0,0,0,0,0,0,0,0,-1,1735,736,0,0
518,288,0,0,0,0,0,0,0,0,0,-1,1742,736,0,0
525,288,0,0,0,0,0,0,0,0,0,-1,1749,736,0,0
532,288,0,0,0,0,0,0,0,0,0,-1,1756,736,0,0
539,288,0,0,0,0,0,0,0,0,0,-1,1763,736,0,0
546,288,0,0,0,0,0,0,0,0,0,-1,1770,736,0,0
553,288,41.854,3.1908,0,0,0,0,0,0,0,-1,1777,736,41.854,-3.19077
560,288,42.3778,3.16785,0,0,0,0,0,0,0,-1,1784,736,42.3778,-3.16786
567,288,42.8933,3.22986,0.0472829,-0.0144469,-0.00199338,0.0473472,-0.0145112,-0.0322472,0.0373535,0.0453986,1791,736,42.8934,-3.22988
574,288,43.3102,3.41937,0.0398923,-0.00793588,0.00184781,0.0399636,-0.00800716,0.0385578,0.0296738,0.0487516,1798,736,43.3101,-3.41935
581,288,43.4434,3.88812,0,0,0,0,0,0,0,-1,1805,736,43.4433,-3.8881
588,288,44.3285,4.1286,0,0,0,0,0,0,0,-1,1812,736,44.3285,-4.12857
595,288,40.1831,2.50763,0,0,0,0,0,0,0,-1,1819,736,40.1831,-2.50762
602,288,26.7634,7.61279,0,0,0,0,0,0,0,-1,1826,736,26.7635,-7.61279
609,288,17.5223,4.86414,0,0,0,0,0,0,0,-1,1833,736,17.5223,-4.86412
616,288,13.4886,0.801331,0,0,0,0,0,0,0,-1,1840,736,13.4886,-0.80132
623,288,27.3622,-3.40881,0,0,0,0,0,0,0,-1,1847,736,27.3622,3.40884
630,288,27.225,-2.77917,0.00101565,0.00470594,0.0045847,0.00780286,-0.00208128,0.97671,0.00601688,0.0255234,1854,736,27.2249,2.77914
637,288,27.2489,-2.26544,0.000226305,0.00285877,0.00334808,0.00514005,-0.00205498,0.972683,0.00427945,0.0111852,1861,736,27.2489,2.26545
644,288,27.2472,-1.73883,-0.000247916,0.00138189,0.00207763,0.00279872,-0.00166474,0.972292,0.00260455,0.0101281,1868,736,27.2472,1.73881
651,288,27.2056,-1.19293,-9.62554e-05,0.000592632,0.000880786,0.00119393,-0.000697552,0.971788,0.00110451,0.0115247,1875,736,27.2056,1.19293
658,288,27.1754,-0.610901,7.02773e-06,8.73419e-05,0.000153645,0.000205991,-0.000111621,0.913221,0.000186052,0.0158431,1882,736,27.1754,0.610923
665,288,27.1534,-0.101563,-0.000329451,0.000567452,0.000227512,0.000621862,-0.000383862,1.33605,0.00058605,0.0159697,1889,736,27.1534,0.101568
672,288,27.1522,0.391357,-0.000538519,0.00111432,0.000353978,0.00118694,-0.000611138,1.36845,0.00105571,0.0150434,1896,736,27.1522,-0.391334
679,288,27.1429,0.944824,-0.00022933,0.00179973,0.00079806,0.002076,-0.000505602,1.23753,0.00157974,0.012631,1903,736,27.143,-0.944836
686,288,27.1215,1.44507,0.00013383,0.00260203,0.00127185,0.00314011,-0.000404247,1.17057,0.00224034,0.00991031,1910,736,27.1214,-1.44505
693,288,27.1329,2.04474,0.00106047,0.00355288,0.00201176,0.00467315,-5.9797e-05,1.0627,0.00313556,0.0198223,1917,736,27.1329,-2.04472
700,288,27.0359,2.75623,0.00289651,0.00474648,0.00320043,0.00715291,0.000490079,0.926074,0.00461393,0.0422398,1924,736,27.0359,-2.75621
707,288,27.1337,3.50671,0,0,0,0,0,0,0,-1,1931,736,27.1337,-3.50673
714,288,23.0149,3.82544,0,0,0,0,0,0,0,-1,1938,736,23.0149,-3.82541
721,288,18.0732,3.69385,0,0,0,0,0,0,0,-1,1945,736,18.0732,-3.69387
728,288,19.3208,3.91455,0,0,0,0,0,0,0,-1,1952,736,19.3209,-3.91455
735,288,18.7712,3.51312,0,0,0,0,0,0,0,-1,1959,736,18.7713,-3.51309
742,288,0,0,0,0,0,0,0,0,0,-1,1966,736,0,0
749,288,0,0,0,0,0,0,0,0,0,-1,1973,736,0,0
756,288,0,0,0,0,0,0,0,0,0,-1,1980,736,0,0
763,288,0,0,0,0,0,0,0,0,0,-1,1987,736,0,0
770,288,0,0,0,0,0,0,0,0,0,-1,1994,736,0,0
777,288,0,0,0,0,0,0,0,0,0,-1,2001,736,0,0
784,288,0,0,0,0,0,0,0,0,0,-1,2008,736,0,0
791,288,0,0,0,0,0,0,0,0,0,-1,2015,736,0,0
798,288,0,0,0,0,0,0,0,0,0,-1,2022,736,0,0
805,288,0,0,0,0,0,0,0,0,0,-1,2029,736,0,0
812,288,0,0,0,0,0,0,0,0,0,-1,2036,736,0,0
-700,281,0,0,0,0,0,0,0,0,0,-1,524,743,0,0
-693,281,0,0,0,0,0,0,0,0,0,-1,531,743,0,0
-686,281,0,0,0,0,0,0,0,0,0,-1,538,743,0,0
-679,281,0,0,0,0,0,0,0,0,0,-1,545,743,0,0
-672,281,0,0,0,0,0,0,0,0,0,-1,552,743,0,0
-665,281,0,0,0,0,0,0,0,0,0,-1,559,743,0,0
-658,281,0,0,0,0,0,0,0,0,0,-1,566,743,0,0
-651,281,0,0,0,0,0,0,0,0,0,-1,573,743,0,0
-644,281,0,0,0,0,0,0,0,0,0,-1,580,743,0,0
-637,281,0,0,0,0,0,0,0,0,0,-1,587,743,0,0
-630,281,0,0,0,0,0,0,0,0,0,-1,594,743,0,0
-623,281,-19.1697,5.67017,0,0,0,0,0,0,0,-1,601,743,-19.1697,-5.67019
-616,281,-11.5906,2.6853,0,0,0,0,0,0,0,-1,608,743,-11.5906,-2.68529
-609,281,-16.1972,4.14838,0,0,0,0,0,0,0,-1,615,743,-16.1972,-4.14837
-602,281,-12.7697,3.94086,0,0,0,0,0,0,0,-1,622,743,-12.7697,-3.94086
-595,281,-10.4797,-1.07404,0,0,0,0,0,0,0,-1,629,743,-10.4798,1.07402
-588,281,-13.277,1.49817,0,0,0,0,0,0,0,-1,636,743,-13.2771,-1.49817
-581,281,-17.4887,1.00085,0,0,0,0,0,0,0,-1,643,743,-17.4887,-1.00085
-574,281,-17.4941,0.45752,-0.00346367,0.00442031,-0.0024943,0.00514317,-0.00418653,-1.28872,0.00539594,0.0369975,650,743,-17.4941,-0.45751
-567,281,-17.6746,-0.055481,-0.00285235,0.00313693,-0.00138522,0.00344179,-0.00315721,-1.35417,0.00381112,0.0178071,657,743,-17.6746,0.0554519
-560,281,-17.7395,-0.57782,-0.00234037,0.00204105,-0.000605521,0.00212319,-0.00242252,-1.43596,0.00262636,0.00902523,664,743,-17.7395,0.577812
-553,281,-17.7178,-1.08447,-0.00182202,0.001132,-5.94881e-05,0.0011332,-0.00182321,-1.55067,0.00172231,0.0144433,671,743,-17.7178,1.08448
-546,281,-17.7244,-1.54901,-0.00136454,0.000296694,0.00037861,0.000378913,-0.00144676,1.35696,0.00111253,0.0159258,678,743,-17.7244,1.54903
-539,281,-17.7448,-2.0661,-0.0009785,-0.000469153,0.000817824,0.000132733,-0.00158039,0.936341,0.00110051,0.0137133,685,743,-17.7448,2.06608
-532,281,-17.7627,-2.56085,-0.000435089,-0.00111084,0.00102744,0.000308604,-0.00185453,0.626543,0.00135102,0.0127925,692,743,-17.7627,2.56088
-525,281,-17.7877,-3.07416,0.00021516,-0.00151882,0.00101772,0.000685119,-0.00198878,0.432602,0.00160377,0.0145901,699,743,-17.7877,3.07419
-518,281,-17.8074,-3.59979,0.00164636,-0.00235158,0.00113361,0.00194542,-0.00265064,0.257938,0.00266393,0.0124418,706,743,-17.8074,3.59979
-511,281,-17.8218,-4.10681,0.00322249,-0.00240238,0.00167636,0.00368419,-0.00286408,0.268757,0.00379052,0.0114002,713,743,-17.8218,4.10681
-504,281,-17.8498,-4.60156,0.00742571,-0.00121104,0.00276732,0.00823631,-0.00202164,0.284949,0.00627428,0.0147871,720,743,-17.8498,4.60155
-497,281,-17.756,-5.08411,0.0131671,0.00103968,0.00469217,0.0147705,-0.000563749,0.329284,0.0100402,0.0448226,727,743,-17.756,5.08411
-490,281,-17.5852,-5.45276,0,0,0,0,0,0,0,-1,734,743,-17.5852,5.45274
-483,281,-22.1078,-2.34973,0,0,0,0,0,0,0,-1,741,743,-22.1078,2.3497
-476,281,-28.0016,2.17786,0,0,0,0,0,0,0,-1,748,743,-28.0016,-2.17786
-469,281,-33.6782,-0.0379028,0,0,0,0,0,0,0,-1,755,743,-33.6782,0.0379029
-462,281,-32.7441,1.20782,0,0,0,0,0,0,0,-1,762,743,-32.7441,-1.20785
-455,281,-31.9203,1.5332,0.0748615,0.028336,0.0280312,0.0880255,0.015172,0.439047,0.054337,0.0439525,769,743,-31.9203,-1.53321
-448,281,-31.1977,1.80127,0.0938749,0.0391046,0.0362475,0.111919,0.0210604,0.461891,0.0686776,0.0453205,776,743,-31.1977,-1.8013
-441,281,-30.7954,1.94464,0,0,0,0,0,0,0,-1,783,743,-30.7954,-1.94463
-434,281,0,0,0,0,0,0,0,0,0,-1,790,743,0,0
-427,281,0,0,0,0,0,0,0,0,0,-1,797,743,0,0
-420,281,0,0,0,0,0,0,0,0,0,-1,804,743,0,0
-413,281,0,0,0,0,0,0,0,0,0,-1,811,743,0,0
-406,281,0,0,0,0,0,0,0,0,0,-1,818,743,0,0
-399,281,0,0,0,0,0,0,0,0,0,-1,825,743,0,0
-392,281,0,0,0,0,0,0,0,0,0,-1,832,743,0,0
-385,281,0,0,0,0,0,0,0,0,0,-1,839,743,0,0
-378,281,0,0,0,0,0,0,0,0,0,-1,846,743,0,0
-371,281,0,0,0,0,0,0,0,0,0,-1,853,743,0,0
-364,281,0,0,0,0,0,0,0,0,0,-1,860,743,0,0
-357,281,0,0,0,0,0,0,0,0,0,-1,867,743,0,0
-350,281,0,0,0,0,0,0,0,0,0,-1,874,743,0,0
-343,281,0,0,0,0,0,0,0,0,0,-1,881,743,0,0
-336,281,0,0,0,0,0,0,0,0,0,-1,888,743,0,0
-329,281,0,0,0,0,0,0,0,0,0,-1,895,743,0,0
-322,281,0,0,0,0,0,0,0,0,0,-1,902,743,0,0
-315,281,0,0,0,0,0,0,0,0,0,-1,909,743,0,0
-308,281,0,0,0,0,0,0,0,0,0,-1,916,743,0,0
-301,281,0,0,0,0,0,0,0,0,0,-1,923,743,0,0
-294,281,0,0,0,0,0,0,0,0,0,-1,930,743,0,0
-287,281,0,0,0,0,0,0,0,0,0,-1,937,743,0,0
-280,281,0,0,0,0,0,0,0,0,0,-1,944,743,0,0
-273,281,0,0,0,0,0,0,0,0,0,-1,951,743,0,0
-266,281,0,0,0,0,0,0,0,0,0,-1,958,743,0,0
-259,281,0,0,0,0,0,0,0,0,0,-1,965,743,0,0
-252,281,0,0,0,0,0,0,0,0,0,-1,972,743,0,0
-245,281,0,0,0,0,0,0,0,0,0,-1,979,743,0,0
-238,281,0,0,0,0,0,0,0,0,0,-1,986,743,0,0
-231,281,0,0,0,0,0,0,0,0,0,-1,993,743,0,0
-224,281,0,0,0,0,0,0,0,0,0,-1,1000,743,0,0
-217,281,0,0,0,0,0,0,0,0,0,-1,1007,743,0,0
-210,281,0,0,0,0,0,0,0,0,0,-1,1014,743,0,0
-203,281,0,0,0,0,0,0,0,0,0,-1,1021,743,0,0
-196,281,0,0,0,0,0,0,0,0,0,-1,1028,743,0,0
-189,281,0,0,0,0,0,0,0,0,0,-1,1035,743,0,0
-182,281,0,0,0,0,0,0,0,0,0,-1,1042,743,0,0
-175,281,0,0,0,0,0,0,0,0,0,-1,1049,743,0,0
-168,281,0,0,0,0,0,0,0,0,0,-1,1056,743,0,0
-161,281,0,0,0,0,0,0,0,0,0,-1,1063,743,0,0
-154,281,0,0,0,0,0,0,0,0,0,-1,1070,743,0,0
-147,281,0,0,0,0,0,0,0,0,0,-1,1077,743,0,0
-140,281,0,0,0,0,0,0,0,0,0,-1,1084,743,0,0
-133,281,0,0,0,0,0,0,0,0,0,-1,1091,743,0,0
-126,281,0,0,0,0,0,0,0,0,0,-1,1098,743,0,0
-119,281,0,0,0,0,0,0,0,0,0,-1,1105,743,0,0
-112,281,0,0,0,0,0,0,0,0,0,-1,1112,743,0,0
-105,281,0,0,0,0,0,0,0,0,0,-1,1119,743,0,0
-98,281,0,0,0,0,0,0,0,0,0,-1,1126,743,0,0
-91,281,0,0,0,0,0,0,0,0,0,-1,1133,743,0,0
-84,281,0,0,0,0,0,0,0,0,0,-1,1140,743,0,0
-77,281,0,0,0,0,0,0,0,0,0,-1,1147,743,0,0
-70,281,0,0,0,0,0,0,0,0,0,-1,1154,743,0,0
-63,281,0,0,0,0,0,0,0,0,0,-1,1161,743,0,0
-56,281,0,0,0,0,0,0,0,0,0,-1,1168,743,0,0
-49,281,0,0,0,0,0,0,0,0,0,-1,1175,743,0,0
-42,281,0,0,0,0,0,0,0,0,0,-1,1182,743,0,0
-35,281,0,0,0,0,0,0,0,0,0,-1,1189,743,0,0
-28,281,0,0,0,0,0,0,0,0,0,-1,1196,743,0,0
-21,281,0,0,0,0,0,0,0,0,0,-1,1203,743,0,0
-14,281,0,0,0,0,0,0,0,0,0,-1,1210,743,0,0
-7,281,0,0,0,0,0,0,0,0,0,-1,1217,743,0,0
0,281,0,0,0,0,0,0,0,0,0,-1,1224,743,0,0
7,281,0,0,0,0,0,0,0,0,0,-1,1231,743,0,0
14,281,0,0,0,0,0,0,0,0,0,-1,1238,743,0,0
21,281,0,0,0,0,0,0,0,0,0,-1,1245,743,0,0
28,281,0,0,0,0,0,0,0,0,0,-1,1252,743,0,0
35,281,0,0,0,0,0,0,0,0,0,-1,1259,743,0,0
42,281,0,0,0,0,0,0,0,0,0,-1,1266,743,0,0
49,281,0,0,0,0,0,0,0,0,0,-1,1273,743,0,0
56,281,0,0,0,0,0,0,0,0,0,-1,1280,743,0,0
63,281,0,0,0,0,0,0,0,0,0,-1,1287,743,0,0
70,281,0,0,0,0,0,0,0,0,0,-1,1294,743,0,0
77,281,0,0,0,0,0,0,0,0,0,-1,1301,743,0,0
84,281,0,0,0,0,0,0,0,0,0,-1,1308,743,0,0
91,281,0,0,0,0,0,0,0,0,0,-1,1315,743,0,0
98,281,0,0,0,0,0,0,0,0,0,-1,1322,743,0,0
105,281,0,0,0,0,0,0,0,0,0,-1,1329,743,0,0
112,281,0,0,0,0,0,0,0,0,0,-1,1336,743,0,0
119,281,0,0,0,0,0,0,0,0,0,-1,1343,743,0,0
126,281,0,0,0,0,0,0,0,0,0,-1,1350,743,0,0
133,281,0,0,0,0,0,0,0,0,0,-1,1357,743,0,0
140,281,0,0,0,0,0,0,0,0,0,-1,1364,743,0,0
147,281,0,0,0,0,0,0,0,0,0,-1,1371,743,0,0
154,281,0,0,0,0,0,0,0,0,0,-1,1378,743,0,0
161,281,0,0,0,0,0,0,0,0,0,-1,1385,743,0,0
168,281,0,0,0,0,0,0,0,0,0,-1,1392,743,0,0
175,281,0,0,0,0,0,0,0,0,0,-1,1399,743,0,0
182,281,0,0,0,0,0,0,0,0,0,-1,1406,743,0,0
189,281,0,0,0,0,0,0,0,0,0,-1,1413,743,0,0
196,281,0,0,0,0,0,0,0,0,0,-1,1420,743,0,0
203,281,0,0,0,0,0,0,0,0,0,-1,1427,743,0,0
210,281,0,0,0,0,0,0,0,0,0,-1,1434,743,0,0
217,281,0,0,0,0,0,0,0,0,0,-1,1441,743,0,0
224,281,0,0,0,0,0,0,0,0,0,-1,1448,743,0,0
231,281,0,0,0,0,0,0,0,0,0,-1,1455,743,0,0
238,281,0,0,0,0,0,0,0,0,0,-1,1462,743,0,0
245,281,0,0,0,0,0,0,0,0,0,-1,1469,743,0,0
252,281,0,0,0,0,0,0,0,0,0,-1,1476,743,0,0
259,281,0,0,0,0,0,0,0,0,0,-1,1483,743,0,0
266,281,0,0,0,0,0,0,0,0,0,-1,1490,743,0,0
273,281,0,0,0,0,0,0,0,0,0,-1,1497,743,0,0
280,281,0,0,0,0,0,0,0,0,0,-1,1504,743,0,0
287,281,0,0,0,0,0,0,0,0,0,-1,1511,743,0,0
294,281,0,0,0,0,0,0,0,0,0,-1,1518,743,0,0
301,281,0,0,0,0,0,0,0,0,0,-1,1525,743,0,0
308,281,0,0,0,0,0,0,0,0,0,-1,1532,743,0,0
315,281,0,0,0,0,0,0,0,0,0,-1,1539,743,0,0
322,281,0,0,0,0,0,0,0,0,0,-1,1546,743,0,0
329,281,0,0,0,0,0,0,0,0,0,-1,1553,743,0,0
336,281,0,0,0,0,0,0,0,0,0,-1,1560,743,0,0
343,281,0,0,0,0,0,0,0,0,0,-1,1567,743,0,0
350,281,0,0,0,0,0,0,0,0,0,-1,1574,743,0,0
357,281,0,0,0,0,0,0,0,0,0,-1,1581,743,0,0
364,281,0,0,0,0,0,0,0,0,0,-1,1588,743,0,0
371,281,0,0,0,0,0,0,0,0,0,-1,1595,743,0,0
378,281,0,0,0,0,0,0,0,0,0,-1,1602,743,0,0
385,281,0,0,0,0,0,0,0,0,0,-1,1609,743,0,0
392,281,0,0,0,0,0,0,0,0,0,-1,1616,743,0,0
399,281,0,0,0,0,0,0,0,0,0,-1,1623,743,0,0
406,281,0,0,0,0,0,0,0,0,0,-1,1630,743,0,0
413,281,0,0,0,0,0,0,0,0,0,-1,1637,743,0,0
420,281,0,0,0,0,0,0,0,0,0,-1,1644,743,0,0
427,281,0,0,0,0,0,0,0,0,0,-1,1651,743,0,0
434,281,0,0,0,0,0,0,0,0,0,-1,1658,743,0,0
441,281,0,0,0,0,0,0,0,0,0,-1,1665,743,0,0
448,281,0,0,0,0,0,0,0,0,0,-1,1672,743,0,0
455,281,0,0,0,0,0,0,0,0,0,-1,1679,743,0,0
462,281,0,0,0,0,0,0,0,0,0,-1,1686,743,0,0
469,281,0,0,0,0,0,0,0,0,0,-1,1693,743,0,0
476,281,0,0,0,0,0,0,0,0,0,-1,1700,743,0,0
483,281,0,0,0,0,0,0,0,0,0,-1,1707,743,0,0
490,281,0,0,0,0,0,0,0,0,0,-1,1714,743,0,0
497,281,0,0,0,0,0,0,0,0,0,-1,1721,743,0,0
504,281,0,0,0,0,0,0,0,0,0,-1,1728,743,0,0
511,281,0,0,0,0,0,0,0,0,0,-1,1735,743,0,0
518,281,0,0,0,0,0,0,0,0,0,-1,1742,743,0,0
525,281,0,0,0,0,0,0,0,0,0,-1,1749,743,0,0
532,281,0,0,0,0,0,0,0,0,0,-1,1756,743,0,0
539,281,0,0,0,0,0,0,0,0,0,-1,1763,743,0,0
546,281,0,0,0,0,0,0,0,0,0,-1,1770,743,0,0
553,281,0,0,0,0,0,0,0,0,0,-1,1777,743,0,0
560,281,42.7839,3.34399,0,0,0,0,0,0,0,-1,1784,743,42.7839,-3.34397
567,281,43.0929,3.37225,0.04371,-0.0090265,-0.00115211,0.0437352,-0.00905166,-0.0218326,0.0325957,0.0420601,1791,743,43.0929,-3.37226
574,281,43.1315,3.4599,0.0364481,-0.00243567,0.00424489,0.0369061,-0.00289369,0.107482,0.0256232,0.0455346,1798,743,43.1315,-3.45992
581,281,43.3938,3.49469,0,0,0,0,0,0,0,-1,1805,743,43.3938,-3.49467
588,281,44.25,3.76233,0,0,0,0,0,0,0,-1,1812,743,44.25,-3.76234
595,281,45.0981,4.04681,0,0,0,0,0,0,0,-1,1819,743,45.0981,-4.0468
602,281,43.4924,3.27167,0,0,0,0,0,0,0,-1,1826,743,43.4925,-3.27166
609,281,32.7925,1.28723,0,0,0,0,0,0,0,-1,1833,743,32.7925,-1.28722
616,281,21.3191,-0.253906,0,0,0,0,0,0,0,-1,1840,743,21.3191,0.253931
623,281,27.632,-3.14343,0,0,0,0,0,0,0,-1,1847,743,27.632,3.1434
630,281,27.7122,-2.7193,0.000963496,0.00597578,0.00522584,0.00926534,-0.00232606,1.00898,0.00708076,0.0464786,1854,743,27.7122,2.7193
637,281,27.757,-2.26129,9.21736e-05,0.00405339,0.0039614,0.00650172,-0.00235615,1.01721,0.0052975,0.0149933,1861,743,27.7569,2.26131
644,281,27.7616,-1.7265,-0.000469693,0.00226309,0.00258781,0.00382309,-0.00202969,1.0283,0.00343158,0.0102509,1868,743,27.7616,1.72653
651,281,27.7617,-1.19092,-0.000203507,0.00102927,0.00106865,0.00164656,-0.000820789,1.04699,0.00145087,0.0120761,1875,743,27.7617,1.19093
658,281,27.7319,-0.612244,0.000140633,-2.87997e-06,2.49343e-05,0.000144842,-7.0887e-06,0.167216,9.90087e-05,0.0197587,1882,743,27.732,0.612217
665,281,27.7109,-0.09198,-8.36103e-05,0.000415913,0.000106552,0.000437692,-0.000105389,1.36918,0.000332538,0.0191582,1889,743,27.711,0.0919668
672,281,27.6697,0.424683,-0.000124963,0.000934472,0.000283933,0.00100577,-0.00019626,1.32478,0.000744605,0.0125617,1896,743,27.6697,-0.424683
679,281,27.6591,0.943115,0.000424545,0.00167328,0.000853277,0.00210623,-8.40321e-06,1.10125,0.00140696,0.019814,1903,743,27.6591,-0.943124
686,281,27.6224,1.4397,0.00106523,0.0025786,0.00143398,0.00344329,0.000200531,1.02817,0.00223169,0.0155393,1910,743,27.6224,-1.43969
693,281,27.6223,1.98059,0.00228657,0.0036011,0.00229324,0.00532941,0.000558265,0.924962,0.00338224,0.0117313,1917,743,27.6224,-1.98059
700,281,27.6155,2.55884,0.00439588,0.00483102,0.00358328,0.00820333,0.00102356,0.81572,0.00516164,0.0266405,1924,743,27.6155,-2.55886
707,281,27.686,3.12714,0,0,0,0,0,0,0,-1,1931,743,27.6861,-3.12711
714,281,25.0125,2.5105,0,0,0,0,0,0,0,-1,1938,743,25.0124,-2.51053
721,281,16.9656,3.22174,0,0,0,0,0,0,0,-1,1945,743,16.9656,-3.22172
728,281,19.0251,3.63934,0,0,0,0,0,0,0,-1,1952,743,19.0252,-3.63932
735,281,19.0869,2.50311,0,0,0,0,0,0,0,-1,1959,743,19.0869,-2.5031
742,281,0,0,0,0,0,0,0,0,0,-1,1966,743,0,0
749,281,0,0,0,0,0,0,0,0,0,-1,1973,743,0,0
756,281,0,0,0,0,0,0,0,0,0,-1,1980,743,0,0
763,281,0,0,0,0,0,0,0,0,0,-1,1987,743,0,0
770,281,0,0,0,0,0,0,0,0,0,-1,1994,743,0,0
777,281,0,0,0,0,0,0,0,0,0,-1,2001,743,0,0
784,281,0,0,0,0,0,0,0,0,0,-1,2008,743,0,0
791,281,0,0,0,0,0,0,0,0,0,-1,2015,743,0,0
798,281,0,0,0,0,0,0,0,0,0,-1,2022,743,0,0
805,281,0,0,0,0,0,0,0,0,0,-1,2029,743,0,0
812,281,0,0,0,0,0,0,0,0,0,-1,2036,743,0,0
-700,274,0,0,0,0,0,0,0,0,0,-1,524,750,0,0
-693,274,0,0,0,0,0,0,0,0,0,-1,531,750,0,0
-686,274,0,0,0,0,0,0,0,0,0,-1,538,750,0,0
-679,274,0,0,0,0,0,0,0,0,0,-1,545,750,0,0
-672,274,0,0,0,0,0,0,0,0,0,-1,552,750,0,0
-665,274,0,0,0,0,0,0,0,0,0,-1,559,750,0,0
-658,274,0,0,0,0,0,0,0,0,0,-1,566,750,0,0
-651,274,0,0,0,0,0,0,0,0,0,-1,573,750,0,0
-644,274,0,0,0,0,0,0,0,0,0,-1,580,750,0,0
-637,274,0,0,0,0,0,0,0,0,0,-1,587,750,0,0
-630,274,0,0,0,0,0,0,0,0,0,-1,594,750,0,0
-623,274,-19.6909,5.12701,0,0,0,0,0,0,0,-1,601,750,-19.6908,-5.12703
-616,274,-17.9133,3.9024,0,0,0,0,0,0,0,-1,608,750,-17.9133,-3.90239
-609,274,-15.9735,4.90363,0,0,0,0,0,0,0,-1,615,750,-15.9735,-4.90364
-602,274,-18.3148,3.80109,0,0,0,0,0,0,0,-1,622,750,-18.3148,-3.80109
-595,274,-18.4301,3.18054,0,0,0,0,0,0,0,-1,629,750,-18.43,-3.18055
-588,274,-18.0443,1.56207,0,0,0,0,0,0,0,-1,636,750,-18.0442,-1.56208
-581,274,-18.0565,1.00031,-0.00201761,0.00612709,-0.00518341,0.00864654,-0.00453706,-1.11836,0.00773383,0.044266,643,750,-18.0565,-1.00032
-574,274,-18.0386,0.42865,-0.00207787,0.00444797,-0.00320215,0.00575674,-0.00338664,-1.1828,0.00533772,0.0237327,650,750,-18.0386,-0.428626
-567,274,-18.1972,-0.0759888,-0.00190072,0.00312441,-0.00185816,0.00373687,-0.00251317,-1.25241,0.00363144,0.0222327,657,750,-18.1972,0.0759666
-560,274,-18.2028,-0.557251,-0.00171055,0.00198039,-0.00088089,0.00217985,-0.00191,-1.34812,0.00236299,0.0148921,664,750,-18.2027,0.557268
-553,274,-18.2281,-1.07422,-0.001462,0.000980568,-0.000154907,0.000990353,-0.00147178,-1.50771,0.00143054,0.00969973,671,750,-18.2281,1.07422
-546,274,-18.2549,-1.56744,-0.00120106,8.57662e-05,0.000420443,0.000210957,-0.00132626,1.2814,0.000962229,0.0112072,678,750,-18.2549,1.56745
-539,274,-18.2756,-2.07013,-0.000894742,-0.000759121,0.000943101,0.000118604,-0.00177247,0.821287,0.0012231,0.0114906,685,750,-18.2756,2.0701
-532,274,-18.287,-2.53632,-0.000301815,-0.0014008,0.0011494,0.000422689,-0.00212531,0.562423,0.00157677,0.0118525,692,750,-18.2871,2.53632
-525,274,-18.295,-3.02991,0.000476187,-0.00181839,0.00103124,0.000871539,-0.00221374,0.366091,0.00183661,0.0123481,699,750,-18.2951,3.0299
-518,274,-18.3089,-3.5719,0.00210912,-0.00267569,0.00101488,0.00231548,-0.00288205,0.2006,0.00300673,0.0119553,706,750,-18.3089,3.57189
-511,274,-18.3204,-4.09979,0.00381559,-0.00261493,0.00146346,0.00413298,-0.00293232,0.213568,0.00409874,0.0127108,713,750,-18.3204,4.09977
-504,274,-18.3746,-4.60657,0.00779153,-0.00142949,0.00244581,0.0084001,-0.00203806,0.243868,0.00638872,0.0251724,720,750,-18.3746,4.60656
-497,274,-18.2864,-5.23743,0,0,0,0,0,0,0,-1,727,750,-18.2864,5.2374
-490,274,-13.6545,-3.58826,0,0,0,0,0,0,0,-1,734,750,-13.6546,3.58825
-483,274,-27.8608,1.30981,0,0,0,0,0,0,0,-1,741,750,-27.8608,-1.30979
-476,274,-33.3173,0.567993,0,0,0,0,0,0,0,-1,748,750,-33.3173,-0.568006
-469,274,-33.272,0.241577,0,0,0,0,0,0,0,-1,755,750,-33.272,-0.241572
-462,274,-31.989,1.36584,0,0,0,0,0,0,0,-1,762,750,-31.989,-1.36583
-455,274,-32.1148,1.35931,0.0676072,0.025782,0.0264491,0.0804124,0.0129768,0.450884,0.0498489,0.0459818,769,750,-32.1148,-1.35933
-448,274,-31.6203,1.37158,0.081127,0.035181,0.0334863,0.098763,0.017545,0.48475,0.0608428,0.0453551,776,750,-31.6203,-1.37159
-441,274,0,0,0,0,0,0,0,0,0,-1,783,750,0,0
-434,274,0,0,0,0,0,0,0,0,0,-1,790,750,0,0
-427,274,0,0,0,0,0,0,0,0,0,-1,797,750,0,0
-420,274,0,0,0,0,0,0,0,0,0,-1,804,750,0,0
-413,274,0,0,0,0,0,0,0,0,0,-1,811,750,0,0
-406,274,0,0,0,0,0,0,0,0,0,-1,818,750,0,0
-399,274,0,0,0,0,0,0,0,0,0,-1,825,750,0,0
-392,274,0,0,0,0,0,0,0,0,0,-1,832,750,0,0
-385,274,0,0,0,0,0,0,0,0,0,-1,839,750,0,0
-378,274,0,0,0,0,0,0,0,0,0,-1,846,750,0,0
-371,274,0,0,0,0,0,0,0,0,0,-1,853,750,0,0
-364,274,0,0,0,0,0,0,0,0,0,-1,860,750,0,0
-357,274,0,0,0,0,0,0,0,0,0,-1,867,750,0,0
-350,274,0,0,0,0,0,0,0,0,0,-1,874,750,0,0
-343,274,0,0,0,0,0,0,0,0,0,-1,881,750,0,0
-336,274,0,0,0,0,0,0,0,0,0,-1,888,750,0,0
-329,274,0,0,0,0,0,0,0,0,0,-1,895,750,0,0
-322,274,0,0,0,0,0,0,0,0,0,-1,902,750,0,0
-315,274,0,0,0,0,0,0,0,0,0,-1,909,750,0,0
-308,274,0,0,0,0,0,0,0,0,0,-1,916,750,0,0
-301,274,0,0,0,0,0,0,0,0,0,-1,923,750,0,0
-294,274,0,0,0,0,0,0,0,0,0,-1,930,750,0,0
-287,274,0,0,0,0,0,0,0,0,0,-1,937,750,0,0
-280,274,0,0,0,0,0,0,0,0,0,-1,944,750,0,0
-273,274,0,0,0,0,0,0,0,0,0,-1,951,750,0,0
-266,274,0,0,0,0,0,0,0,0,0,-1,958,750,0,0
-259,274,0,0,0,0,0,0,0,0,0,-1,965,750,0,0
-252,274,0,0,0,0,0,0,0,0,0,-1,972,750,0,0
-245,274,0,0,0,0,0,0,0,0,0,-1,979,750,0,0
-238,274,0,0,0,0,0,0,0,0,0,-1,986,750,0,0
-231,274,0,0,0,0,0,0,0,0,0,-1,993,750,0,0
-224,274,0,0,0,0,0,0,0,0,0,-1,1000,750,0,0
-217,274,0,0,0,0,0,0,0,0,0,-1,1007,750,0,0
-210,274,0,0,0,0,0,0,0,0,0,-1,1014,750,0,0
-203,274,0,0,0,0,0,0,0,0,0,-1,1021,750,0,0
-196,274,0,0,0,0,0,0,0,0,0,-1,1028,750,0,0
-189,274,0,0,0,0,0,0,0,0,0,-1,1035,750,0,0
-182,274,0,0,0,0,0,0,0,0,0,-1,1042,750,0,0
-175,274,0,0,0,0,0,0,0,0,0,-1,1049,750,0,0
-168,274,0,0,0,0,0,0,0,0,0,-1,1056,750,0,0
-161,274,0,0,0,0,0,0,0,0,0,-1,1063,750,0,0
-154,274,0,0,0,0,0,0,0,0,0,-1,1070,750,0,0
-147,274,0,0,0,0,0,0,0,0,0,-1,1077,750,0,0
-140,274,0,0,0,0,0,0,0,0,0,-1,1084,750,0,0
-133,274,0,0,0,0,0,0,0,0,0,-1,1091,750,0,0
-126,274,0,0,0,0,0,0,0,0,0,-1,1098,750,0,0
-119,274,0,0,0,0,0,0,0,0,0,-1,1105,750,0,0
-112,274,0,0,0,0,0,0,0,0,0,-1,1112,750,0,0
-105,274,0,0,0,0,0,0,0,0,0,-1,1119,750,0,0
-98,274,0,0,0,0,0,0,0,0,0,-1,1126,750,0,0
-91,274,0,0,0,0,0,0,0,0,0,-1,1133,750,0,0
-84,274,0,0,0,0,0,0,0,0,0,-1,1140,750,0,0
-77,274,0,0,0,0,0,0,0,0,0,-1,1147,750,0,0
-70,274,0,0,0,0,0,0,0,0,0,-1,1154,750,0,0
-63,274,0,0,0,0,0,0,0,0,0,-1,1161,750,0,0
-56,274,0,0,0,0,0,0,0,0,0,-1,1168,750,0,0
-49,274,0,0,0,0,0,0,0,0,0,-1,1175,750,0,0
-42,274,0,0,0,0,0,0,0,0,0,-1,1182,750,0,0
-35,274,0,0,0,0,0,0,0,0,0,-1,1189,750,0,0
-28,274,0,0,0,0,0,0,0,0,0,-1,1196,750,0,0
-21,274,0,0,0,0,0,0,0,0,0,-1,1203,750,0,0
-14,274,0,0,0,0,0,0,0,0,0,-1,1210,750,0,0
-7,274,0,0,0,0,0,0,0,0,0,-1,1217,750,0,0
0,274,0,0,0,0,0,0,0,0,0,-1,1224,750,0,0
7,274,0,0,0,0,0,0,0,0,0,-1,1231,750,0,0
14,274,0,0,0,0,0,0,0,0,0,-1,1238,750,0,0
21,274,0,0,0,0,0,0,0,0,0,-1,1245,750,0,0
28,274,0,0,0,0,0,0,0,0,0,-1,1252,750,0,0
35,274,0,0,0,0,0,0,0,0,0,-1,1259,750,0,0
42,274,0,0,0,0,0,0,0,0,0,-1,1266,750,0,0
49,274,0,0,0,0,0,0,0,0,0,-1,1273,750,0,0
56,274,0,0,0,0,0,0,0,0,0,-1,1280,750,0,0
63,274,0,0,0,0,0,0,0,0,0,-1,1287,750,0,0
70,274,0,0,0,0,0,0,0,0,0,-1,1294,750,0,0
77,274,0,0,0,0,0,0,0,0,0,-1,1301,750,0,0
84,274,0,0,0,0,0,0,0,0,0,-1,1308,750,0,0
91,274,0,0,0,0,0,0,0,0,0,-1,1315,750,0,0
98,274,0,0,0,0,0,0,0,0,0,-1,1322,750,0,0
105,274,0,0,0,0,0,0,0,0,0,-1,1329,750,0,0
112,274,0,0,0,0,0,0,0,0,0,-1,1336,750,0,0
119,274,0,0,0,0,0,0,0,0,0,-1,1343,750,0,0
126,274,0,0,0,0,0,0,0,0,0,-1,1350,750,0,0
133,274,0,0,0,0,0,0,0,0,0,-1,1357,750,0,0
140,274,0,0,0,0,0,0,0,0,0,-1,1364,750,0,0
147,274,0,0,0,0,0,0,0,0,0,-1,1371,750,0,0
154,274,0,0,0,0,0,0,0,0,0,-1,1378,750,0,0
161,274,0,0,0,0,0,0,0,0,0,-1,1385,750,0,0
168,274,0,0,0,0,0,0,0,0,0,-1,1392,750,0,0
175,274,0,0,0,0,0,0,0,0,0,-1,1399,750,0,0
182,274,0,0,0,0,0,0,0,0,0,-1,1406,750,0,0
189,274,0,0,0,0,0,0,0,0,0,-1,1413,750,0,0
196,274,0,0,0,0,0,0,0,0,0,-1,1420,750,0,0
203,274,0,0,0,0,0,0,0,0,0,-1,1427,750,0,0
210,274,0,0,0,0,0,0,0,0,0,-1,1434,750,0,0
217,274,0,0,0,0,0,0,0,0,0,-1,1441,750,0,0
224,274,0,0,0,0,0,0,0,0,0,-1,1448,750,0,0
231,274,0,0,0,0,0,0,0,0,0,-1,1455,750,0,0
238,274,0,0,0,0,0,0,0,0,0,-1,1462,750,0,0
245,274,0,0,0,0,0,0,0,0,0,-1,1469,750,0,0
252,274,0,0,0,0,0,0,0,0,0,-1,1476,750,0,0
259,274,0,0,0,0,0,0,0,0,0,-1,1483,750,0,0
266,274,0,0,0,0,0,0,0,0,0,-1,1490,750,0,0
273,274,0,0,0,0,0,0,0,0,0,-1,1497,750,0,0
280,274,0,0,0,0,0,0,0,0,0,-1,1504,750,0,0
287,274,0,0,0,0,0,0,0,0,0,-1,1511,750,0,0
294,274,0,0,0,0,0,0,0,0,0,-1,1518,750,0,0
301,274,0,0,0,0,0,0,0,0,0,-1,1525,750,0,0
308,274,0,0,0,0,0,0,0,0,0,-1,1532,750,0,0
315,274,0,0,0,0,0,0,0,0,0,-1,1539,750,0,0
322,274,0,0,0,0,0,0,0,0,0,-1,1546,750,0,0
329,274,0,0,0,0,0,0,0,0,0,-1,1553,750,0,0
336,274,0,0,0,0,0,0,0,0,0,-1,1560,750,0,0
343,274,0,0,0,0,0,0,0,0,0,-1,1567,750,0,0
350,274,0,0,0,0,0,0,0,0,0,-1,1574,750,0,0
357,274,0,0,0,0,0,0,0,0,0,-1,1581,750,0,0
364,274,0,0,0,0,0,0,0,0,0,-1,1588,750,0,0
371,274,0,0,0,0,0,0,0,0,0,-1,1595,750,0,0
378,274,0,0,0,0,0,0,0,0,0,-1,1602,750,0,0
385,274,0,0,0,0,0,0,0,0,0,-1,1609,750,0,0
392,274,0,0,0,0,0,0,0,0,0,-1,1616,750,0,0
399,274,0,0,0,0,0,0,0,0,0,-1,1623,750,0,0
406,274,0,0,0,0,0,0,0,0,0,-1,1630,750,0,0
413,274,0,0,0,0,0,0,0,0,0,-1,1637,750,0,0
420,274,0,0,0,0,0,0,0,0,0,-1,1644,750,0,0
427,274,0,0,0,0,0,0,0,0,0,-1,1651,750,0,0
434,274,0,0,0,0,0,0,0,0,0,-1,1658,750,0,0
441,274,0,0,0,0,0,0,0,0,0,-1,1665,750,0,0
448,274,0,0,0,0,0,0,0,0,0,-1,1672,750,0,0
455,274,0,0,0,0,0,0,0,0,0,-1,1679,750,0,0
462,274,0,0,0,0,0,0,0,0,0,-1,1686,750,0,0
469,274,0,0,0,0,0,0,0,0,0,-1,1693,750,0,0
476,274,0,0,0,0,0,0,0,0,0,-1,1700,750,0,0
483,274,0,0,0,0,0,0,0,0,0,-1,1707,750,0,0
490,274,0,0,0,0,0,0,0,0,0,-1,1714,750,0,0
497,274,0,0,0,0,0,0,0,0,0,-1,1721,750,0,0
504,274,0,0,0,0,0,0,0,0,0,-1,1728,750,0,0
511,274,0,0,0,0,0,0,0,0,0,-1,1735,750,0,0
518,274,0,0,0,0,0,0,0,0,0,-1,1742,750,0,0
525,274,0,0,0,0,0,0,0,0,0,-1,1749,750,0,0
532,274,0,0,0,0,0,0,0,0,0,-1,1756,750,0,0
539,274,0,0,0,0,0,0,0,0,0,-1,1763,750,0,0
546,274,0,0,0,0,0,0,0,0,0,-1,1770,750,0,0
553,274,0,0,0,0,0,0,0,0,0,-1,1777,750,0,0
560,274,43.4087,3.30853,0,0,0,0,0,0,0,-1,1784,750,43.4087,-3.30855
567,274,43.4882,3.35889,0,0,0,0,0,0,0,-1,1791,750,43.4882,-3.35887
574,274,43.8834,3.22089,0,0,0,0,0,0,0,-1,1798,750,43.8835,-3.22088
581,274,43.8005,3.12823,0,0,0,0,0,0,0,-1,1805,750,43.8005,-3.12822
588,274,44.1691,3.40942,0,0,0,0,0,0,0,-1,1812,750,44.1691,-3.40943
595,274,44.8174,3.625,0,0,0,0,0,0,0,-1,1819,750,44.8173,-3.62498
602,274,43.8972,4.82446,0,0,0,0,0,0,0,-1,1826,750,43.8972,-4.82445
609,274,42.8204,3.33069,0,0,0,0,0,0,0,-1,1833,750,42.8205,-3.33069
616,274,32.7869,1.78436,0,0,0,0,0,0,0,-1,1840,750,32.7868,-1.78437
623,274,24.8231,-1.80353,0,0,0,0,0,0,0,-1,1847,750,24.8232,1.80351
630,274,28.2227,-2.78815,0,0,0,0,0,0,0,-1,1854,750,28.2226,2.78816
637,274,28.2728,-2.27448,0.000284812,0.00495449,0.00443308,0.00763001,-0.0023907,1.02778,0.00604331,0.0163858,1861,750,28.2728,2.27449
644,274,28.2743,-1.70905,-0.00035632,0.0030744,0.00304677,0.00485551,-0.00213742,1.04179,0.00413778,0.0117895,1868,750,28.2744,1.70906
651,274,28.2786,-1.18427,-9.31867e-05,0.00156531,0.00126584,0.00224934,-0.000777211,1.07537,0.00181497,0.0135444,1875,750,28.2786,1.18427
658,274,28.2701,-0.655762,0.000389776,-1.11409e-05,-0.000129642,0.000428045,-4.94096e-05,-0.287036,0.000303178,0.0160754,1882,750,28.2701,0.655773
665,274,28.2325,-0.10022,0.000208113,0.00026492,-8.84782e-05,0.000329442,0.000143591,-0.940714,0.000190724,0.01505,1889,750,28.2326,0.100196
672,274,28.2151,0.451233,0.000282405,0.000682554,9.69741e-05,0.000704816,0.000260142,1.34513,0.000411549,0.013126,1896,750,28.2151,-0.451262
679,274,28.192,0.970764,0.00100747,0.00137471,0.000735227,0.0019489,0.00043328,0.907768,0.00118162,0.0154552,1903,750,28.192,-0.970785
686,274,28.1748,1.48413,0.00188903,0.00230138,0.00140268,0.00351296,0.000677452,0.85837,0.002152,0.016546,1910,750,28.1748,-1.48416
693,274,28.1499,2.00696,0.0033613,0.00333541,0.00234318,0.00569158,0.00100514,0.782636,0.00350768,0.0123936,1917,750,28.1499,-2.00696
700,274,28.144,2.57245,0.00567071,0.00451358,0.00368267,0.00881999,0.0013643,0.707482,0.00548211,0.015275,1924,750,28.1441,-2.57245
707,274,28.1058,3.11334,0.00921356,0.00580906,0.00567955,0.0134405,0.00158215,0.6398,0.00848226,0.0264265,1931,750,28.1059,-3.11336
714,274,28.2811,3.6568,0,0,0,0,0,0,0,-1,1938,750,28.2811,-3.65677
721,274,25.6215,3.91144,0,0,0,0,0,0,0,-1,1945,750,25.6214,-3.91141
728,274,19.2209,3.95154,0,0,0,0,0,0,0,-1,1952,750,19.221,-3.95151
735,274,20.6608,4.10931,0,0,0,0,0,0,0,-1,1959,750,20.6607,-4.10932
742,274,11.7815,-0.740234,0,0,0,0,0,0,0,-1,1966,750,11.7815,0.740253
749,274,0,0,0,0,0,0,0,0,0,-1,1973,750,0,0
756,274,0,0,0,0,0,0,0,0,0,-1,1980,750,0,0
763,274,0,0,0,0,0,0,0,0,0,-1,1987,750,0,0
770,274,0,0,0,0,0,0,0,0,0,-1,1994,750,0,0
777,274,0,0,0,0,0,0,0,0,0,-1,2001,750,0,0
784,274,0,0,0,0,0,0,0,0,0,-1,2008,750,0,0
791,274,0,0,0,0,0,0,0,0,0,-1,2015,750,0,0
798,274,0,0,0,0,0,0,0,0,0,-1,2022,750,0,0
805,274,0,0,0,0,0,0,0,0,0,-1,2029,750,0,0
812,274,0,0,0,0,0,0,0,0,0,-1,2036,750,0,0
-700,267,0,0,0,0,0,0,0,0,0,-1,524,757,0,0
-693,267,0,0,0,0,0,0,0,0,0,-1,531,757,0,0
-686,267,0,0,0,0,0,0,0,0,0,-1,538,757,0,0
-679,267,0,0,0,0,0,0,0,0,0,-1,545,757,0,0
-672,267,0,0,0,0,0,0,0,0,0,-1,552,757,0,0
-665,267,0,0,0,0,0,0,0,0,0,-1,559,757,0,0
-658,267,0,0,0,0,0,0,0,0,0,-1,566,757,0,0
-651,267,0,0,0,0,0,0,0,0,0,-1,573,757,0,0
-644,267,0,0,0,0,0,0,0,0,0,-1,580,757,0,0
-637,267,0,0,0,0,0,0,0,0,0,-1,587,757,0,0
-630,267,-21.3979,5.17529,0,0,0,0,0,0,0,-1,594,757,-21.3979,-5.17529
-623,267,-20.043,4.43115,0,0,0,0,0,0,0,-1,601,757,-20.043,-4.43116
-616,267,-16.5916,4.92358,0,0,0,0,0,0,0,-1,608,757,-16.5916,-4.9236
-609,267,-20.8616,3.73059,0,0,0,0,0,0,0,-1,615,757,-20.8616,-3.73062
-602,267,-19.6304,3.49933,0,0,0,0,0,0,0,-1,622,757,-19.6304,-3.49933
-595,267,-18.4606,2.41833,0,0,0,0,0,0,0,-1,629,757,-18.4606,-2.41833
-588,267,-18.5065,1.75958,0.000164868,0.00839365,-0.00871583,0.0139174,-0.00535889,-1.00592,0.011489,0.0482708,636,757,-18.5065,-1.75955
-581,267,-18.5534,1.08221,-0.00080381,0.00616059,-0.00581097,0.00945283,-0.00409605,-1.05533,0.00802366,0.033326,643,757,-18.5534,-1.08222
-574,267,-18.6044,0.480896,-0.00114374,0.00447186,-0.00370571,0.00631336,-0.00298524,-1.1096,0.00548197,0.0191301,650,757,-18.6044,-0.480898
-567,267,-18.688,-0.0216064,-0.00124491,0.00309166,-0.00219939,0.00401187,-0.00216511,-1.17454,0.00361902,0.0240805,657,757,-18.688,0.0216362
-560,267,-18.6926,-0.500366,-0.00127853,0.00188247,-0.00106097,0.00220555,-0.00160161,-1.2752,0.00220727,0.0220733,664,757,-18.6927,0.500352
-553,267,-18.7338,-1.01398,-0.00124159,0.000774491,-0.000169791,0.000788691,-0.00125579,-1.48736,0.0011906,0.0178179,671,757,-18.7338,1.01399
-546,267,-18.7531,-1.54572,-0.00116015,-0.000268085,0.000527712,-2.3158e-05,-0.00140507,1.13625,0.000929092,0.0114249,678,757,-18.7531,1.54571
-539,267,-18.7577,-2.06305,-0.000926957,-0.00124244,0.00108304,9.77167e-06,-0.00217917,0.713083,0.00145605,0.0109027,685,757,-18.7577,2.06304
-532,267,-18.7522,-2.52734,-0.00030166,-0.00193624,0.00123187,0.000359379,-0.00259728,0.492509,0.00186291,0.0117785,692,757,-18.7522,2.52734
-525,267,-18.7805,-2.99731,0.000573722,-0.00240214,0.000967181,0.000860439,-0.00268886,0.288193,0.0021379,0.01134,699,757,-18.7804,2.99734
-518,267,-18.8138,-3.52728,0.00230564,-0.00325747,0.000796167,0.00241734,-0.00336917,0.139389,0.00335588,0.0111088,706,757,-18.8138,3.52729
-511,267,-18.8083,-4.03833,0.00406781,-0.00310179,0.00110473,0.00423417,-0.00326815,0.149468,0.00434342,0.0169269,713,757,-18.8084,4.03836
-504,267,-18.8734,-4.36243,0.00770549,-0.00196271,0.00192676,0.00807532,-0.00233254,0.189639,0.00630652,0.0325496,720,757,-18.8734,4.3624
-497,267,-18.9778,-4.62653,0,0,0,0,0,0,0,-1,727,757,-18.9778,4.62655
-490,267,-23.4949,-0.494995,0,0,0,0,0,0,0,-1,734,757,-23.4949,0.494981
-483,267,-30.1636,1.10992,0,0,0,0,0,0,0,-1,741,757,-30.1636,-1.10993
-476,267,-33.0523,0.683777,0,0,0,0,0,0,0,-1,748,757,-33.0523,-0.683754
-469,267,-32.671,0.562256,0.0381881,0.011,0.0134221,0.0436978,0.00549035,0.389516,0.0274851,0.0418512,755,757,-32.671,-0.56227
-462,267,-32.08,1.29669,0.0478097,0.0161657,0.0179177,0.0558912,0.00808414,0.423717,0.0348798,0.0486441,762,757,-32.08,-1.29672
-455,267,-32.0925,1.43146,0.0579885,0.0228646,0.0230428,0.0693988,0.0114543,0.459784,0.0429598,0.0484965,769,757,-32.0925,-1.43145
-448,267,-31.9747,1.6283,0,0,0,0,0,0,0,-1,776,757,-31.9747,-1.62829
-441,267,0,0,0,0,0,0,0,0,0,-1,783,757,0,0
-434,267,0,0,0,0,0,0,0,0,0,-1,790,757,0,0
-427,267,0,0,0,0,0,0,0,0,0,-1,797,757,0,0
-420,267,0,0,0,0,0,0,0,0,0,-1,804,757,0,0
-413,267,0,0,0,0,0,0,0,0,0,-1,811,757,0,0
-406,267,0,0,0,0,0,0,0,0,0,-1,818,757,0,0
-399,267,0,0,0,0,0,0,0,0,0,-1,825,757,0,0
-392,267,0,0,0,0,0,0,0,0,0,-1,832,757,0,0
-385,267,0,0,0,0,0,0,0,0,0,-1,839,757,0,0
-378,267,0,0,0,0,0,0,0,0,0,-1,846,757,0,0
-371,267,0,0,0,0,0,0,0,0,0,-1,853,757,0,0
-364,267,0,0,0,0,0,0,0,0,0,-1,860,757,0,0
-357,267,0,0,0,0,0,0,0,0,0,-1,867,757,0,0
-350,267,0,0,0,0,0,0,0,0,0,-1,874,757,0,0
-343,267,0,0,0,0,0,0,0,0,0,-1,881,757,0,0
-336,267,0,0,0,0,0,0,0,0,0,-1,888,757,0,0
-329,267,0,0,0,0,0,0,0,0,0,-1,895,757,0,0
-322,267,0,0,0,0,0,0,0,0,0,-1,902,757,0,0
-315,267,0,0,0,0,0,0,0,0,0,-1,909,757,0,0
-308,267,0,0,0,0,0,0,0,0,0,-1,916,757,0,0
-301,267,0,0,0,0,0,0,0,0,0,-1,923,757,0,0
-294,267,0,0,0,0,0,0,0,0,0,-1,930,757,0,0
-287,267,0,0,0,0,0,0,0,0,0,-1,937,757,0,0
-280,267,0,0,0,0,0,0,0,0,0,-1,944,757,0,0
-273,267,0,0,0,0,0,0,0,0,0,-1,951,757,0,0
-266,267,0,0,0,0,0,0,0,0,0,-1,958,757,0,0
-259,267,0,0,0,0,0,0,0,0,0,-1,965,757,0,0
-252,267,0,0,0,0,0,0,0,0,0,-1,972,757,0,0
-245,267,0,0,0,0,0,0,0,0,0,-1,979,757,0,0
-238,267,0,0,0,0,0,0,0,0,0,-1,986,757,0,0
-231,267,0,0,0,0,0,0,0,0,0,-1,993,757,0,0
-224,267,0,0,0,0,0,0,0,0,0,-1,1000,757,0,0
-217,267,0,0,0,0,0,0,0,0,0,-1,1007,757,0,0
-210,267,0,0,0,0,0,0,0,0,0,-1,1014,757,0,0
-203,267,0,0,0,0,0,0,0,0,0,-1,1021,757,0,0
-196,267,0,0,0,0,0,0,0,0,0,-1,1028,757,0,0
-189,267,0,0,0,0,0,0,0,0,0,-1,1035,757,0,0
-182,267,0,0,0,0,0,0,0,0,0,-1,1042,757,0,0
-175,267,0,0,0,0,0,0,0,0,0,-1,1049,757,0,0
-168,267,0,0,0,0,0,0,0,0,0,-1,1056,757,0,0
-161,267,0,0,0,0,0,0,0,0,0,-1,1063,757,0,0
-154,267,0,0,0,0,0,0,0,0,0,-1,1070,757,0,0
-147,267,0,0,0,0,0,0,0,0,0,-1,1077,757,0,0
-140,267,0,0,0,0,0,0,0,0,0,-1,1084,757,0,0
-133,267,0,0,0,0,0,0,0,0,0,-1,1091,757,0,0
-126,267,0,0,0,0,0,0,0,0,0,-1,1098,757,0,0
-119,267,0,0,0,0,0,0,0,0,0,-1,1105,757,0,0
-112,267,0,0,0,0,0,0,0,0,0,-1,1112,757,0,0
-105,267,0,0,0,0,0,0,0,0,0,-1,1119,757,0,0
-98,267,0,0,0,0,0,0,0,0,0,-1,1126,757,0,0
-91,267,0,0,0,0,0,0,0,0,0,-1,1133,757,0,0
-84,267,0,0,0,0,0,0,0,0,0,-1,1140,757,0,0
-77,267,0,0,0,0,0,0,0,0,0,-1,1147,757,0,0
-70,267,0,0,0,0,0,0,0,0,0,-1,1154,757,0,0
-63,267,0,0,0,0,0,0,0,0,0,-1,1161,757,0,0
-56,267,0,0,0,0,0,0,0,0,0,-1,1168,757,0,0
-49,267,0,0,0,0,0,0,0,0,0,-1,1175,757,0,0
-42,267,0,0,0,0,0,0,0,0,0,-1,1182,757,0,0
-35,267,0,0,0,0,0,0,0,0,0,-1,1189,757,0,0
-28,267,0,0,0,0,0,0,0,0,0,-1,1196,757,0,0
-21,267,0,0,0,0,0,0,0,0,0,-1,1203,757,0,0
-14,267,0,0,0,0,0,0,0,0,0,-1,1210,757,0,0
-7,267,0,0,0,0,0,0,0,0,0,-1,1217,757,0,0
0,267,0,0,0,0,0,0,0,0,0,-1,1224,757,0,0
7,267,0,0,0,0,0,0,0,0,0,-1,1231,757,0,0
14,267,0,0,0,0,0,0,0,0,0,-1,1238,757,0,0
21,267,0,0,0,0,0,0,0,0,0,-1,1245,757,0,0
28,267,0,0,0,0,0,0,0,0,0,-1,1252,757,0,0
35,267,0,0,0,0,0,0,0,0,0,-1,1259,757,0,0
42,267,0,0,0,0,0,0,0,0,0,-1,1266,757,0,0
49,267,0,0,0,0,0,0,0,0,0,-1,1273,757,0,0
56,267,0,0,0,0,0,0,0,0,0,-1,1280,757,0,0
63,267,0,0,0,0,0,0,0,0,0,-1,1287,757,0,0
70,267,0,0,0,0,0,0,0,0,0,-1,1294,757,0,0
77,267,0,0,0,0,0,0,0,0,0,-1,1301,757,0,0
84,267,0,0,0,0,0,0,0,0,0,-1,1308,757,0,0
91,267,0,0,0,0,0,0,0,0,0,-1,1315,757,0,0
98,267,0,0,0,0,0,0,0,0,0,-1,1322,757,0,0
105,267,0,0,0,0,0,0,0,0,0,-1,1329,757,0,0
112,267,0,0,0,0,0,0,0,0,0,-1,1336,757,0,0
119,267,0,0,0,0,0,0,0,0,0,-1,1343,757,0,0
126,267,0,0,0,0,0,0,0,0,0,-1,1350,757,0,0
133,267,0,0,0,0,0,0,0,0,0,-1,1357,757,0,0
140,267,0,0,0,0,0,0,0,0,0,-1,1364,757,0,0
147,267,0,0,0,0,0,0,0,0,0,-1,1371,757,0,0
154,267,0,0,0,0,0,0,0,0,0,-1,1378,757,0,0
161,267,0,0,0,0,0,0,0,0,0,-1,1385,757,0,0
168,267,0,0,0,0,0,0,0,0,0,-1,1392,757,0,0
175,267,0,0,0,0,0,0,0,0,0,-1,1399,757,0,0
182,267,0,0,0,0,0,0,0,0,0,-1,1406,757,0,0
189,267,0,0,0,0,0,0,0,0,0,-1,1413,757,0,0
196,267,0,0,0,0,0,0,0,0,0,-1,1420,757,0,0
203,267,0,0,0,0,0,0,0,0,0,-1,1427,757,0,0
210,267,0,0,0,0,0,0,0,0,0,-1,1434,757,0,0
217,267,0,0,0,0,0,0,0,0,0,-1,1441,757,0,0
224,267,0,0,0,0,0,0,0,0,0,-1,1448,757,0,0
231,267,0,0,0,0,0,0,0,0,0,-1,1455,757,0,0
238,267,0,0,0,0,0,0,0,0,0,-1,1462,757,0,0
245,267,0,0,0,0,0,0,0,0,0,-1,1469,757,0,0
252,267,0,0,0,0,0,0,0,0,0,-1,1476,757,0,0
259,267,0,0,0,0,0,0,0,0,0,-1,1483,757,0,0
266,267,0,0,0,0,0,0,0,0,0,-1,1490,757,0,0
273,267,0,0,0,0,0,0,0,0,0,-1,1497,757,0,0
280,267,0,0,0,0,0,0,0,0,0,-1,1504,757,0,0
287,267,0,0,0,0,0,0,0,0,0,-1,1511,757,0,0
294,267,0,0,0,0,0,0,0,0,0,-1,1518,757,0,0
301,267,0,0,0,0,0,0,0,0,0,-1,1525,757,0,0
308,267,0,0,0,0,0,0,0,0,0,-1,1532,757,0,0
315,267,0,0,0,0,0,0,0,0,0,-1,1539,757,0,0
322,267,0,0,0,0,0,0,0,0,0,-1,1546,757,0,0
329,267,0,0,0,0,0,0,0,0,0,-1,1553,757,0,0
336,267,0,0,0,0,0,0,0,0,0,-1,1560,757,0,0
343,267,0,0,0,0,0,0,0,0,0,-1,1567,757,0,0
350,267,0,0,0,0,0,0,0,0,0,-1,1574,757,0,0
357,267,0,0,0,0,0,0,0,0,0,-1,1581,757,0,0
364,267,0,0,0,0,0,0,0,0,0,-1,1588,757,0,0
371,267,0,0,0,0,0,0,0,0,0,-1,1595,757,0,0
378,267,0,0,0,0,0,0,0,0,0,-1,1602,757,0,0
385,267,0,0,0,0,0,0,0,0,0,-1,1609,757,0,0
392,267,0,0,0,0,0,0,0,0,0,-1,1616,757,0,0
399,267,0,0,0,0,0,0,0,0,0,-1,1623,757,0,0
406,267,0,0,0,0,0,0,0,0,0,-1,1630,757,0,0
413,267,0,0,0,0,0,0,0,0,0,-1,1637,757,0,0
420,267,0,0,0,0,0,0,0,0,0,-1,1644,757,0,0
427,267,0,0,0,0,0,0,0,0,0,-1,1651,757,0,0
434,267,0,0,0,0,0,0,0,0,0,-1,1658,757,0,0
441,267,0,0,0,0,0,0,0,0,0,-1,1665,757,0,0
448,267,0,0,0,0,0,0,0,0,0,-1,1672,757,0,0
455,267,0,0,0,0,0,0,0,0,0,-1,1679,757,0,0
462,267,0,0,0,0,0,0,0,0,0,-1,1686,757,0,0
469,267,0,0,0,0,0,0,0,0,0,-1,1693,757,0,0
476,267,0,0,0,0,0,0,0,0,0,-1,1700,757,0,0
483,267,0,0,0,0,0,0,0,0,0,-1,1707,757,0,0
490,267,0,0,0,0,0,0,0,0,0,-1,1714,757,0,0
497,267,0,0,0,0,0,0,0,0,0,-1,1721,757,0,0
504,267,0,0,0,0,0,0,0,0,0,-1,1728,757,0,0
511,267,0,0,0,0,0,0,0,0,0,-1,1735,757,0,0
518,267,0,0,0,0,0,0,0,0,0,-1,1742,757,0,0
525,267,0,0,0,0,0,0,0,0,0,-1,1749,757,0,0
532,267,0,0,0,0,0,0,0,0,0,-1,1756,757,0,0
539,267,0,0,0,0,0,0,0,0,0,-1,1763,757,0,0
546,267,0,0,0,0,0,0,0,0,0,-1,1770,757,0,0
553,267,0,0,0,0,0,0,0,0,0,-1,1777,757,0,0
560,267,0,0,0,0,0,0,0,0,0,-1,1784,757,0,0
567,267,43.6289,3.18701,0,0,0,0,0,0,0,-1,1791,757,43.6289,-3.18703
574,267,43.8033,3.12091,0,0,0,0,0,0,0,-1,1798,757,43.8034,-3.12094
581,267,43.6478,3.33441,0.0215001,0.00935424,0.0101364,0.0272436,0.00361074,0.515513,0.0170864,0.0452156,1805,757,43.6478,-3.33443
588,267,43.8939,3.37244,0.0161793,0.0113245,0.0116358,0.0256382,0.00186558,0.682565,0.0165055,0.0489421,1812,757,43.8939,-3.37241
595,267,44.1938,3.37891,0,0,0,0,0,0,0,-1,1819,757,44.1939,-3.3789
602,267,43.8575,4.58588,0,0,0,0,0,0,0,-1,1826,757,43.8575,-4.58591
609,267,43.5557,5.47791,0,0,0,0,0,0,0,-1,1833,757,43.5556,-5.47791
616,267,41.4904,3.89758,0,0,0,0,0,0,0,-1,1840,757,41.4903,-3.89759
623,267,24.1475,-1.1391,0,0,0,0,0,0,0,-1,1847,757,24.1475,1.13913
630,267,29.045,-2.67554,0,0,0,0,0,0,0,-1,1854,757,29.0451,2.67556
637,267,28.8832,-2.1684,0.000440239,0.00549275,0.00460529,0.00821918,-0.00228619,1.03627,0.00637955,0.0341792,1861,757,28.8831,2.16843
644,267,28.7998,-1.67163,-0.000252545,0.00365202,0.00326362,0.00550271,-0.00210324,1.05494,0.00453514,0.0126449,1868,757,28.7998,1.67162
651,267,28.775,-1.13635,-6.9977e-05,0.00206664,0.00139732,0.00275724,-0.000760582,1.11177,0.00213729,0.0145587,1875,757,28.775,1.13635
658,267,28.7811,-0.631531,0.000464012,7.82289e-05,-0.00026335,0.000597556,-5.53149e-05,-0.46931,0.000418031,0.0148018,1882,757,28.7811,0.63153
665,267,28.7606,-0.0817261,0.000259852,0.000146242,-0.000333553,0.000541402,-0.000135308,-0.701056,0.000413484,0.0145578,1889,757,28.7606,0.0817383
672,267,28.7563,0.458374,0.000366279,0.000380293,-0.000205164,0.000578569,0.000168002,-0.802468,0.000343684,0.0129162,1896,757,28.7564,-0.458362
679,267,28.7415,0.991028,0.00113474,0.000915429,0.000436862,0.00147549,0.000574669,0.662437,0.000858787,0.012935,1903,757,28.7414,-0.991013
686,267,28.7166,1.52264,0.00211244,0.00177444,0.00116387,0.00311952,0.000767361,0.7133,0.00187693,0.0135278,1910,757,28.7166,-1.52266
693,267,28.676,2.01605,0.00372503,0.0027905,0.00217408,0.00548149,0.00103404,0.679546,0.00336306,0.0132063,1917,757,28.6761,-2.01606
700,267,28.6593,2.54462,0.00611721,0.00389915,0.00355117,0.0087285,0.00128787,0.634047,0.00544076,0.0140554,1924,757,28.6593,-2.54463
707,267,28.6368,3.05554,0.00961268,0.00509247,0.00550166,0.0133004,0.00140478,0.590505,0.00843773,0.0142901,1931,757,28.6368,-3.05552
714,267,28.7552,3.61182,0.01474,0.00627522,0.00826017,0.0197889,0.00122624,0.548646,0.0128035,0.0338977,1938,757,28.7552,-3.61182
721,267,28.9353,4.19739,0,0,0,0,0,0,0,-1,1945,757,28.9353,-4.19736
728,267,26.7886,3.90027,0,0,0,0,0,0,0,-1,1952,757,26.7886,-3.90028
735,267,24.6713,2.82483,0,0,0,0,0,0,0,-1,1959,757,24.6713,-2.82483
742,267,18.1177,3.56561,0,0,0,0,0,0,0,-1,1966,757,18.1176,-3.56564
749,267,0,0,0,0,0,0,0,0,0,-1,1973,757,0,0
756,267,0,0,0,0,0,0,0,0,0,-1,1980,757,0,0
763,267,0,0,0,0,0,0,0,0,0,-1,1987,757,0,0
770,267,0,0,0,0,0,0,0,0,0,-1,1994,757,0,0
777,267,0,0,0,0,0,0,0,0,0,-1,2001,757,0,0
784,267,0,0,0,0,0,0,0,0,0,-1,2008,757,0,0
791,267,0,0,0,0,0,0,0,0,0,-1,2015,757,0,0
798,267,0,0,0,0,0,0,0,0,0,-1,2022,757,0,0
805,267,0,0,0,0,0,0,0,0,0,-1,2029,757,0,0
812,267,0,0,0,0,0,0,0,0,0,-1,2036,757,0,0
-700,260,0,0,0,0,0,0,0,0,0,-1,524,764,0,0
-693,260,0,0,0,0,0,0,0,0,0,-1,531,764,0,0
-686,260,0,0,0,0,0,0,0,0,0,-1,538,764,0,0
-679,260,0,0,0,0,0,0,0,0,0,-1,545,764,0,0
-672,260,0,0,0,0,0,0,0,0,0,-1,552,764,0,0
-665,260,0,0,0,0,0,0,0,0,0,-1,559,764,0,0
-658,260,0,0,0,0,0,0,0,0,0,-1,566,764,0,0
-651,260,0,0,0,0,0,0,0,0,0,-1,573,764,0,0
-644,260,0,0,0,0,0,0,0,0,0,-1,580,764,0,0
-637,260,0,0,0,0,0,0,0,0,0,-1,587,764,0,0
-630,260,-21.8905,4.49341,0,0,0,0,0,0,0,-1,594,764,-21.8905,-4.49342
-623,260,-20.3127,3.53546,0,0,0,0,0,0,0,-1,601,764,-20.3127,-3.53544
-616,260,-23.4346,3.65009,0,0,0,0,0,0,0,-1,608,764,-23.4345,-3.65008
-609,260,-22.5261,2.84747,0,0,0,0,0,0,0,-1,615,764,-22.5261,-2.84745
-602,260,-19.2451,2.85156,0,0,0,0,0,0,0,-1,622,764,-19.2451,-2.85157
-595,260,-19.1626,2.21448,0,0,0,0,0,0,0,-1,629,764,-19.1626,-2.21447
-588,260,-19.1251,1.57703,0.000931248,0.00838368,-0.00901977,0.0144166,-0.00510168,-0.981279,0.0116888,0.0434599,636,764,-19.1251,-1.57704
-581,260,-19.1577,0.957458,4.17262e-05,0.00614626,-0.00612311,0.00993569,-0.0037477,-1.01661,0.00816495,0.024699,643,764,-19.1577,-0.957468
-574,260,-19.1854,0.479858,-0.000403739,0.00439517,-0.00395453,0.00662126,-0.00262983,-1.05809,0.00550434,0.016003,650,764,-19.1854,-0.479877
-567,260,-19.1996,0.0273438,-0.000676972,0.0029161,-0.00233248,0.00406372,-0.00182459,-1.11356,0.00348058,0.0168033,657,764,-19.1996,-0.0273206
-560,260,-19.2157,-0.473083,-0.000876012,0.0016071,-0.0010717,0.00200566,-0.00127458,-1.21474,0.00190946,0.0194772,664,764,-19.2157,0.473085
-553,260,-19.2479,-0.990173,-0.00102008,0.000332539,-6.85516e-05,0.000336004,-0.00102355,-1.52029,0.00081771,0.017382,671,764,-19.2479,0.990173
-546,260,-19.2524,-1.49573,-0.00112421,-0.000900805,0.000668936,-0.000334308,-0.0016907,0.868127,0.00103388,0.0110828,678,764,-19.2525,1.49576
-539,260,-19.2349,-2.00458,-0.000945683,-0.00194429,0.00112674,-0.00021257,-0.00267741,0.576831,0.00171847,0.0117796,685,764,-19.2349,2.00458
-532,260,-19.2332,-2.48181,-0.000272548,-0.00257878,0.00111306,0.000177012,-0.00302834,0.383862,0.00208041,0.0157703,692,764,-19.2332,2.48184
-525,260,-19.2634,-2.99365,0.000673873,-0.00297536,0.000664284,0.000791034,-0.00309252,0.174576,0.00236978,0.0138791,699,764,-19.2634,2.99365
-518,260,-19.3276,-3.48401,0.00239879,-0.0037008,0.000326044,0.00241617,-0.00371818,0.0532513,0.00356816,0.0161051,706,764,-19.3277,3.48398
-511,260,-19.3351,-3.94989,0.0041217,-0.00341869,0.000477153,0.00415178,-0.00344876,0.062945,0.00439442,0.0302824,713,764,-19.3351,3.94991
-504,260,-19.335,-4.18286,0,0,0,0,0,0,0,-1,720,764,-19.335,4.18288
-497,260,-16.6542,-3.67334,0,0,0,0,0,0,0,-1,727,764,-16.6542,3.67331
-490,260,-29.4557,0.921387,0,0,0,0,0,0,0,-1,734,764,-29.4557,-0.921369
-483,260,-30.4882,0.707275,0,0,0,0,0,0,0,-1,741,764,-30.4882,-0.707286
-476,260,-32.6064,1.15387,0,0,0,0,0,0,0,-1,748,764,-32.6064,-1.15384
-469,260,-32.4351,1.01453,0.0333872,0.0092759,0.010667,0.0374289,0.00523421,0.362181,0.0234038,0.0442127,755,764,-32.4351,-1.01451
-462,260,-32.2753,1.25055,0.0409322,0.0139843,0.0145666,0.047301,0.0076155,0.412172,0.0293269,0.0450213,762,764,-32.2752,-1.25057
-455,260,-32.2188,1.4137,0.0478733,0.0203072,0.019022,0.0575808,0.0105997,0.47188,0.0353872,0.0469788,769,764,-32.2188,-1.41368
-448,260,0,0,0,0,0,0,0,0,0,-1,776,764,0,0
-441,260,0,0,0,0,0,0,0,0,0,-1,783,764,0,0
-434,260,0,0,0,0,0,0,0,0,0,-1,790,764,0,0
-427,260,0,0,0,0,0,0,0,0,0,-1,797,764,0,0
-420,260,0,0,0,0,0,0,0,0,0,-1,804,764,0,0
-413,260,0,0,0,0,0,0,0,0,0,-1,811,764,0,0
-406,260,0,0,0,0,0,0,0,0,0,-1,818,764,0,0
-399,260,0,0,0,0,0,0,0,0,0,-1,825,764,0,0
-392,260,0,0,0,0,0,0,0,0,0,-1,832,764,0,0
-385,260,0,0,0,0,0,0,0,0,0,-1,839,764,0,0
-378,260,0,0,0,0,0,0,0,0,0,-1,846,764,0,0
-371,260,0,0,0,0,0,0,0,0,0,-1,853,764,0,0
-364,260,0,0,0,0,0,0,0,0,0,-1,860,764,0,0
-357,260,0,0,0,0,0,0,0,0,0,-1,867,764,0,0
-350,260,0,0,0,0,0,0,0,0,0,-1,874,764,0,0
-343,260,0,0,0,0,0,0,0,0,0,-1,881,764,0,0
-336,260,0,0,0,0,0,0,0,0,0,-1,888,764,0,0
-329,260,0,0,0,0,0,0,0,0,0,-1,895,764,0,0
-322,260,0,0,0,0,0,0,0,0,0,-1,902,764,0,0
-315,260,0,0,0,0,0,0,0,0,0,-1,909,764,0,0
-308,260,0,0,0,0,0,0,0,0,0,-1,916,764,0,0
-301,260,0,0,0,0,0,0,0,0,0,-1,923,764,0,0
-294,260,0,0,0,0,0,0,0,0,0,-1,930,764,0,0
-287,260,0,0,0,0,0,0,0,0,0,-1,937,764,0,0
-280,260,0,0,0,0,0,0,0,0,0,-1,944,764,0,0
-273,260,0,0,0,0,0,0,0,0,0,-1,951,764,0,0
-266,260,0,0,0,0,0,0,0,0,0,-1,958,764,0,0
-259,260,0,0,0,0,0,0,0,0,0,-1,965,764,0,0
-252,260,0,0,0,0,0,0,0,0,0,-1,972,764,0,0
-245,260,0,0,0,0,0,0,0,0,0,-1,979,764,0,0
-238,260,0,0,0,0,0,0,0,0,0,-1,986,764,0,0
-231,260,0,0,0,0,0,0,0,0,0,-1,993,764,0,0
-224,260,0,0,0,0,0,0,0,0,0,-1,1000,764,0,0
-217,260,0,0,0,0,0,0,0,0,0,-1,1007,764,0,0
-210,260,0,0,0,0,0,0,0,0,0,-1,1014,764,0,0
-203,260,0,0,0,0,0,0,0,0,0,-1,1021,764,0,0
-196,260,0,0,0,0,0,0,0,0,0,-1,1028,764,0,0
-189,260,0,0,0,0,0,0,0,0,0,-1,1035,764,0,0
-182,260,0,0,0,0,0,0,0,0,0,-1,1042,764,0,0
-175,260,0,0,0,0,0,0,0,0,0,-1,1049,764,0,0
-168,260,0,0,0,0,0,0,0,0,0,-1,1056,764,0,0
-161,260,0,0,0,0,0,0,0,0,0,-1,1063,764,0,0
-154,260,0,0,0,0,0,0,0,0,0,-1,1070,764,0,0
-147,260,0,0,0,0,0,0,0,0,0,-1,1077,764,0,0
-140,260,0,0,0,0,0,0,0,0,0,-1,1084,764,0,0
-133,260,0,0,0,0,0,0,0,0,0,-1,1091,764,0,0
-126,260,0,0,0,0,0,0,0,0,0,-1,1098,764,0,0
-119,260,0,0,0,0,0,0,0,0,0,-1,1105,764,0,0
-112,260,0,0,0,0,0,0,0,0,0,-1,1112,764,0,0
-105,260,0,0,0,0,0,0,0,0,0,-1,1119,764,0,0
-98,260,0,0,0,0,0,0,0,0,0,-1,1126,764,0,0
-91,260,0,0,0,0,0,0,0,0,0,-1,1133,764,0,0
-84,260,0,0,0,0,0,0,0,0,0,-1,1140,764,0,0
-77,260,0,0,0,0,0,0,0,0,0,-1,1147,764,0,0
-70,260,0,0,0,0,0,0,0,0,0,-1,1154,764,0,0
-63,260,0,0,0,0,0,0,0,0,0,-1,1161,764,0,0
-56,260,0,0,0,0,0,0,0,0,0,-1,1168,764,0,0
-49,260,0,0,0,0,0,0,0,0,0,-1,1175,764,0,0
-42,260,0,0,0,0,0,0,0,0,0,-1,1182,764,0,0
-35,260,0,0,0,0,0,0,0,0,0,-1,1189,764,0,0
-28,260,0,0,0,0,0,0,0,0,0,-1,1196,764,0,0
-21,260,0,0,0,0,0,0,0,0,0,-1,1203,764,0,0
-14,260,0,0,0,0,0,0,0,0,0,-1,1210,764,0,0
-7,260,0,0,0,0,0,0,0,0,0,-1,1217,764,0,0
0,260,0,0,0,0,0,0,0,0,0,-1,1224,764,0,0
7,260,0,0,0,0,0,0,0,0,0,-1,1231,764,0,0
14,260,0,0,0,0,0,0,0,0,0,-1,1238,764,0,0
21,260,0,0,0,0,0,0,0,0,0,-1,1245,764,0,0
28,260,0,0,0,0,0,0,0,0,0,-1,1252,764,0,0
35,260,0,0,0,0,0,0,0,0,0,-1,1259,764,0,0
42,260,0,0,0,0,0,0,0,0,0,-1,1266,764,0,0
49,260,0,0,0,0,0,0,0,0,0,-1,1273,764,0,0
56,260,0,0,0,0,0,0,0,0,0,-1,1280,764,0,0
63,260,0,0,0,0,0,0,0,0,0,-1,1287,764,0,0
70,260,0,0,0,0,0,0,0,0,0,-1,1294,764,0,0
77,260,0,0,0,0,0,0,0,0,0,-1,1301,764,0,0
84,260,0,0,0,0,0,0,0,0,0,-1,1308,764,0,0
91,260,0,0,0,0,0,0,0,0,0,-1,1315,764,0,0
98,260,0,0,0,0,0,0,0,0,0,-1,1322,764,0,0
105,260,0,0,0,0,0,0,0,0,0,-1,1329,764,0,0
112,260,0,0,0,0,0,0,0,0,0,-1,1336,764,0,0
119,260,0,0,0,0,0,0,0,0,0,-1,1343,764,0,0
126,260,0,0,0,0,0,0,0,0,0,-1,1350,764,0,0
133,260,0,0,0,0,0,0,0,0,0,-1,1357,764,0,0
140,260,0,0,0,0,0,0,0,0,0,-1,1364,764,0,0
147,260,0,0,0,0,0,0,0,0,0,-1,1371,764,0,0
154,260,0,0,0,0,0,0,0,0,0,-1,1378,764,0,0
161,260,0,0,0,0,0,0,0,0,0,-1,1385,764,0,0
168,260,0,0,0,0,0,0,0,0,0,-1,1392,764,0,0
175,260,0,0,0,0,0,0,0,0,0,-1,1399,764,0,0
182,260,0,0,0,0,0,0,0,0,0,-1,1406,764,0,0
189,260,0,0,0,0,0,0,0,0,0,-1,1413,764,0,0
196,260,0,0,0,0,0,0,0,0,0,-1,1420,764,0,0
203,260,0,0,0,0,0,0,0,0,0,-1,1427,764,0,0
210,260,0,0,0,0,0,0,0,0,0,-1,1434,764,0,0
217,260,0,0,0,0,0,0,0,0,0,-1,1441,764,0,0
224,260,0,0,0,0,0,0,0,0,0,-1,1448,764,0,0
231,260,0,0,0,0,0,0,0,0,0,-1,1455,764,0,0
238,260,0,0,0,0,0,0,0,0,0,-1,1462,764,0,0
245,260,0,0,0,0,0,0,0,0,0,-1,1469,764,0,0
252,260,0,0,0,0,0,0,0,0,0,-1,1476,764,0,0
259,260,0,0,0,0,0,0,0,0,0,-1,1483,764,0,0
266,260,0,0,0,0,0,0,0,0,0,-1,1490,764,0,0
273,260,0,0,0,0,0,0,0,0,0,-1,1497,764,0,0
280,260,0,0,0,0,0,0,0,0,0,-1,1504,764,0,0
287,260,0,0,0,0,0,0,0,0,0,-1,1511,764,0,0
294,260,0,0,0,0,0,0,0,0,0,-1,1518,764,0,0
301,260,0,0,0,0,0,0,0,0,0,-1,1525,764,0,0
308,260,0,0,0,0,0,0,0,0,0,-1,1532,764,0,0
315,260,0,0,0,0,0,0,0,0,0,-1,1539,764,0,0
322,260,0,0,0,0,0,0,0,0,0,-1,1546,764,0,0
329,260,0,0,0,0,0,0,0,0,0,-1,1553,764,0,0
336,260,0,0,0,0,0,0,0,0,0,-1,1560,764,0,0
343,260,0,0,0,0,0,0,0,0,0,-1,1567,764,0,0
350,260,0,0,0,0,0,0,0,0,0,-1,1574,764,0,0
357,260,0,0,0,0,0,0,0,0,0,-1,1581,764,0,0
364,260,0,0,0,0,0,0,0,0,0,-1,1588,764,0,0
371,260,0,0,0,0,0,0,0,0,0,-1,1595,764,0,0
378,260,0,0,0,0,0,0,0,0,0,-1,1602,764,0,0
385,260,0,0,0,0,0,0,0,0,0,-1,1609,764,0,0
392,260,0,0,0,0,0,0,0,0,0,-1,1616,764,0,0
399,260,0,0,0,0,0,0,0,0,0,-1,1623,764,0,0
406,260,0,0,0,0,0,0,0,0,0,-1,1630,764,0,0
413,260,0,0,0,0,0,0,0,0,0,-1,1637,764,0,0
420,260,0,0,0,0,0,0,0,0,0,-1,1644,764,0,0
427,260,0,0,0,0,0,0,0,0,0,-1,1651,764,0,0
434,260,0,0,0,0,0,0,0,0,0,-1,1658,764,0,0
441,260,0,0,0,0,0,0,0,0,0,-1,1665,764,0,0
448,260,0,0,0,0,0,0,0,0,0,-1,1672,764,0,0
455,260,0,0,0,0,0,0,0,0,0,-1,1679,764,0,0
462,260,0,0,0,0,0,0,0,0,0,-1,1686,764,0,0
469,260,0,0,0,0,0,0,0,0,0,-1,1693,764,0,0
476,260,0,0,0,0,0,0,0,0,0,-1,1700,764,0,0
483,260,0,0,0,0,0,0,0,0,0,-1,1707,764,0,0
490,260,0,0,0,0,0,0,0,0,0,-1,1714,764,0,0
497,260,0,0,0,0,0,0,0,0,0,-1,1721,764,0,0
504,260,0,0,0,0,0,0,0,0,0,-1,1728,764,0,0
511,260,0,0,0,0,0,0,0,0,0,-1,1735,764,0,0
518,260,0,0,0,0,0,0,0,0,0,-1,1742,764,0,0
525,260,0,0,0,0,0,0,0,0,0,-1,1749,764,0,0
532,260,0,0,0,0,0,0,0,0,0,-1,1756,764,0,0
539,260,0,0,0,0,0,0,0,0,0,-1,1763,764,0,0
546,260,0,0,0,0,0,0,0,0,0,-1,1770,764,0,0
553,260,0,0,0,0,0,0,0,0,0,-1,1777,764,0,0
560,260,0,0,0,0,0,0,0,0,0,-1,1784,764,0,0
567,260,0,0,0,0,0,0,0,0,0,-1,1791,764,0,0
574,260,43.7678,3.03094,0,0,0,0,0,0,0,-1,1798,764,43.7678,-3.03092
581,260,43.7217,3.1817,0.0184749,0.0110374,0.00991779,0.0253483,0.00416414,0.606031,0.015696,0.0447688,1805,764,43.7217,-3.18171
588,260,43.8828,3.21417,0.0137261,0.0133017,0.0122411,0.0257568,0.00127097,0.776731,0.0167636,0.0477708,1812,764,43.8828,-3.21417
595,260,44.09,3.26483,0.0100361,0.0135449,0.0123739,0.0242881,-0.000707147,0.855819,0.0164329,0.046579,1819,764,44.09,-3.2648
602,260,43.8378,4.34595,0.00712639,0.0128939,0.0115526,0.0219173,-0.00189698,0.907708,0.0152831,0.0457745,1826,764,43.8378,-4.34594
609,260,43.5947,5.43463,0,0,0,0,0,0,0,-1,1833,764,43.5947,-5.43463
616,260,43.2764,6.46606,0,0,0,0,0,0,0,-1,1840,764,43.2764,-6.46605
623,260,32.2268,3.25836,0,0,0,0,0,0,0,-1,1847,764,32.2268,-3.25833
630,260,24.3739,-0.536316,0,0,0,0,0,0,0,-1,1854,764,24.3739,0.536343
637,260,29.4779,-2.13586,0,0,0,0,0,0,0,-1,1861,764,29.4779,2.13587
644,260,29.4254,-1.64349,-0.000484516,0.00401433,0.00303154,0.00553985,-0.00201003,1.10458,0.00451493,0.0298347,1868,764,29.4254,1.6435
651,260,29.3658,-1.12463,-0.000416801,0.00247778,0.0011939,0.00290666,-0.000845689,1.22592,0.00227274,0.0149576,1875,764,29.3659,1.12461
658,260,29.3191,-0.5849,0.000111555,0.000307092,-0.000576154,0.000793714,-0.000375067,-0.869443,0.000689075,0.0163941,1882,764,29.3191,0.584873
665,260,29.2614,-0.0476685,-5.93195e-05,0.000186331,-0.000711311,0.000785343,-0.000658332,-0.870892,0.000834581,0.0155397,1889,764,29.2614,0.0476739
672,260,29.2693,0.470337,0.00013489,0.000203017,-0.0006033,0.000773214,-0.000435308,-0.813599,0.000706773,0.0133309,1896,764,29.2692,-0.470364
679,260,29.2628,1.00122,0.000959933,0.000516117,4.65006e-05,0.000964753,0.000511297,0.10328,0.000557334,0.0129812,1903,764,29.2629,-1.00122
686,260,29.2073,1.54474,0.00203849,0.00123561,0.000836704,0.00256507,0.000709025,0.561724,0.00152951,0.0158143,1910,764,29.2073,-1.54473
693,260,29.1625,2.02301,0.00379052,0.00226464,0.00192778,0.00510085,0.000954315,0.596975,0.00313132,0.0158868,1917,764,29.1624,-2.02303
700,260,29.1442,2.53711,0.00620764,0.00337213,0.00332181,0.0084016,0.00117817,0.5837,0.00525257,0.0142657,1924,764,29.1442,-2.53713
707,260,29.1385,3.04419,0.00954658,0.00456447,0.00520389,0.0128249,0.00128614,0.56217,0.00815511,0.0142442,1931,764,29.1386,-3.04419
714,260,29.1615,3.56421,0.0142105,0.00577394,0.00775989,0.0188245,0.00115991,0.53644,0.0121815,0.0258176,1938,764,29.1615,-3.56418
721,260,29.2041,4.10693,0,0,0,0,0,0,0,-1,1945,764,29.2042,-4.10692
728,260,30.104,4.80133,0,0,0,0,0,0,0,-1,1952,764,30.104,-4.80133
735,260,26.9788,4.85681,0,0,0,0,0,0,0,-1,1959,764,26.9787,-4.85678
742,260,32.1443,1.73688,0,0,0,0,0,0,0,-1,1966,764,32.1442,-1.73688
749,260,33.6013,2.94733,0,0,0,0,0,0,0,-1,1973,764,33.6013,-2.9473
756,260,0,0,0,0,0,0,0,0,0,-1,1980,764,0,0
763,260,0,0,0,0,0,0,0,0,0,-1,1987,764,0,0
770,260,0,0,0,0,0,0,0,0,0,-1,1994,764,0,0
777,260,0,0,0,0,0,0,0,0,0,-1,2001,764,0,0
784,260,0,0,0,0,0,0,0,0,0,-1,2008,764,0,0
791,260,0,0,0,0,0,0,0,0,0,-1,2015,764,0,0
798,260,0,0,0,0,0,0,0,0,0,-1,2022,764,0,0
805,260,0,0,0,0,0,0,0,0,0,-1,2029,764,0,0
812,260,0,0,0,0,0,0,0,0,0,-1,2036,764,0,0
-700,253,0,0,0,0,0,0,0,0,0,-1,524,771,0,0
-693,253,0,0,0,0,0,0,0,0,0,-1,531,771,0,0
-686,253,0,0,0,0,0,0,0,0,0,-1,538,771,0,0
-679,253,0,0,0,0,0,0,0,0,0,-1,545,771,0,0
-672,253,0,0,0,0,0,0,0,0,0,-1,552,771,0,0
-665,253,0,0,0,0,0,0,0,0,0,-1,559,771,0,0
-658,253,0,0,0,0,0,0,0,0,0,-1,566,771,0,0
-651,253,0,0,0,0,0,0,0,0,0,-1,573,771,0,0
-644,253,0,0,0,0,0,0,0,0,0,-1,580,771,0,0
-637,253,-24.7979,-0.491394,0,0,0,0,0,0,0,-1,587,771,-24.7978,0.491371
-630,253,-25.156,0.540405,0,0,0,0,0,0,0,-1,594,771,-25.156,-0.540421
-623,253,-20.808,2.84314,0,0,0,0,0,0,0,-1,601,771,-20.8081,-2.84312
-616,253,-25.0877,2.96875,0,0,0,0,0,0,0,-1,608,771,-25.0877,-2.96876
-609,253,-24.28,2.08228,0,0,0,0,0,0,0,-1,615,771,-24.2801,-2.08227
-602,253,-18.7879,3.51746,0,0,0,0,0,0,0,-1,622,771,-18.7879,-3.51748
-595,253,-20.0572,2.77289,0,0,0,0,0,0,0,-1,629,771,-20.0572,-2.77291
-588,253,-19.637,1.50073,0.00111085,0.00812717,-0.00892513,0.0142089,-0.00497084,-0.972655,0.0114936,0.0387869,636,771,-19.637,-1.50071
-581,253,-19.6374,0.962585,0.000382299,0.00593088,-0.0061296,0.00988479,-0.00357161,-0.997908,0.00804902,0.0238749,643,771,-19.6374,-0.962601
-574,253,-19.6927,0.467102,-7.73297e-05,0.00415235,-0.00396235,0.00652892,-0.0024539,-1.03053,0.00536116,0.0191213,650,771,-19.6927,-0.467112
-567,253,-19.7044,-0.0447388,-0.000438439,0.00260709,-0.00227453,0.00382153,-0.00165288,-1.08037,0.00324226,0.0166512,657,771,-19.7044,0.0447184
-560,253,-19.6949,-0.493103,-0.000731591,0.00122534,-0.000927446,0.00159504,-0.00110129,-1.19148,0.0015654,0.0126604,664,771,-19.6949,0.493074
-553,253,-19.7147,-0.975281,-0.00100569,-0.000201654,0.000119153,-0.000184368,-0.00102298,1.42673,0.000629593,0.0117943,671,771,-19.7146,0.975263
-546,253,-19.7397,-1.44757,-0.00127578,-0.00160822,0.000806948,-0.000618113,-0.00226589,0.683827,0.00135249,0.0102929,678,771,-19.7397,1.44756
-539,253,-19.7647,-1.96204,-0.00111307,-0.00265633,0.00105537,-0.000577324,-0.00319207,0.469736,0.00196409,0.0116085,685,771,-19.7647,1.96201
-532,253,-19.7515,-2.48541,-0.000363504,-0.00315567,0.000809555,-0.000145763,-0.00337341,0.262746,0.00220196,0.016394,692,771,-19.7515,2.48539
-525,253,-19.7495,-2.9967,0.000628763,-0.00347201,0.000170265,0.00063582,-0.00347907,0.0414252,0.0025578,0.0139324,699,771,-19.7494,2.99672
-518,253,-19.8406,-3.4776,0.00228255,-0.00405709,-0.000341383,0.00230088,-0.00407542,-0.0536422,0.00372858,0.021683,706,771,-19.8406,3.47763
-511,253,-19.8833,-3.90387,0,0,0,0,0,0,0,-1,713,771,-19.8833,3.90386
-504,253,-19.317,-4.1723,0,0,0,0,0,0,0,-1,720,771,-19.317,4.1723
-497,253,-21.7737,-1.76837,0,0,0,0,0,0,0,-1,727,771,-21.7738,1.7684
-490,253,-29.7674,0.438354,0,0,0,0,0,0,0,-1,734,771,-29.7674,-0.438339
-483,253,-32.4727,0.91217,0,0,0,0,0,0,0,-1,741,771,-32.4726,-0.91216
-476,253,-32.6734,1.12701,0.0231083,0.00449489,0.00482772,0.024286,0.00331725,0.239262,0.015206,0.0469996,748,771,-32.6734,-1.12701
-469,253,-32.6125,1.164,0.0288035,0.00789339,0.00749582,0.031213,0.00548394,0.311008,0.0192429,0.0426015,755,771,-32.6125,-1.16401
-462,253,-32.4655,1.13489,0.0343055,0.0124095,0.0108801,0.0387924,0.00792265,0.391144,0.0236669,0.0426632,762,771,-32.4654,-1.13491
-455,253,-32.4379,1.18732,0.0376807,0.0187366,0.0146781,0.0456777,0.0107397,0.49886,0.027578,0.0334617,769,771,-32.4379,-1.18731
-448,253,0,0,0,0,0,0,0,0,0,-1,776,771,0,0
-441,253,0,0,0,0,0,0,0,0,0,-1,783,771,0,0
-434,253,0,0,0,0,0,0,0,0,0,-1,790,771,0,0
-427,253,0,0,0,0,0,0,0,0,0,-1,797,771,0,0
-420,253,0,0,0,0,0,0,0,0,0,-1,804,771,0,0
-413,253,0,0,0,0,0,0,0,0,0,-1,811,771,0,0
-406,253,0,0,0,0,0,0,0,0,0,-1,818,771,0,0
-399,253,0,0,0,0,0,0,0,0,0,-1,825,771,0,0
-392,253,0,0,0,0,0,0,0,0,0,-1,832,771,0,0
-385,253,0,0,0,0,0,0,0,0,0,-1,839,771,0,0
-378,253,0,0,0,0,0,0,0,0,0,-1,846,771,0,0
-371,253,0,0,0,0,0,0,0,0,0,-1,853,771,0,0
-364,253,0,0,0,0,0,0,0,0,0,-1,860,771,0,0
-357,253,0,0,0,0,0,0,0,0,0,-1,867,771,0,0
-350,253,0,0,0,0,0,0,0,0,0,-1,874,771,0,0
-343,253,0,0,0,0,0,0,0,0,0,-1,881,771,0,0
-336,253,0,0,0,0,0,0,0,0,0,-1,888,771,0,0
-329,253,0,0,0,0,0,0,0,0,0,-1,895,771,0,0
-322,253,0,0,0,0,0,0,0,0,0,-1,902,771,0,0
-315,253,0,0,0,0,0,0,0,0,0,-1,909,771,0,0
-308,253,0,0,0,0,0,0,0,0,0,-1,916,771,0,0
-301,253,0,0,0,0,0,0,0,0,0,-1,923,771,0,0
-294,253,0,0,0,0,0,0,0,0,0,-1,930,771,0,0
-287,253,0,0,0,0,0,0,0,0,0,-1,937,771,0,0
-280,253,0,0,0,0,0,0,0,0,0,-1,944,771,0,0
-273,253,0,0,0,0,0,0,0,0,0,-1,951,771,0,0
-266,253,0,0,0,0,0,0,0,0,0,-1,958,771,0,0
-259,253,0,0,0,0,0,0,0,0,0,-1,965,771,0,0
-252,253,0,0,0,0,0,0,0,0,0,-1,972,771,0,0
-245,253,0,0,0,0,0,0,0,0,0,-1,979,771,0,0
-238,253,0,0,0,0,0,0,0,0,0,-1,986,771,0,0
-231,253,0,0,0,0,0,0,0,0,0,-1,993,771,0,0
-224,253,0,0,0,0,0,0,0,0,0,-1,1000,771,0,0
-217,253,0,0,0,0,0,0,0,0,0,-1,1007,771,0,0
-210,253,0,0,0,0,0,0,0,0,0,-1,1014,771,0,0
-203,253,0,0,0,0,0,0,0,0,0,-1,1021,771,0,0
-196,253,0,0,0,0,0,0,0,0,0,-1,1028,771,0,0
-189,253,0,0,0,0,0,0,0,0,0,-1,1035,771,0,0
-182,253,0,0,0,0,0,0,0,0,0,-1,1042,771,0,0
-175,253,0,0,0,0,0,0,0,0,0,-1,1049,771,0,0
-168,253,0,0,0,0,0,0,0,0,0,-1,1056,771,0,0
-161,253,0,0,0,0,0,0,0,0,0,-1,1063,771,0,0
-154,253,0,0,0,0,0,0,0,0,0,-1,1070,771,0,0
-147,253,0,0,0,0,0,0,0,0,0,-1,1077,771,0,0
-140,253,0,0,0,0,0,0,0,0,0,-1,1084,771,0,0
-133,253,0,0,0,0,0,0,0,0,0,-1,1091,771,0,0
-126,253,0,0,0,0,0,0,0,0,0,-1,1098,771,0,0
-119,253,0,0,0,0,0,0,0,0,0,-1,1105,771,0,0
-112,253,0,0,0,0,0,0,0,0,0,-1,1112,771,0,0
-105,253,0,0,0,0,0,0,0,0,0,-1,1119,771,0,0
-98,253,0,0,0,0,0,0,0,0,0,-1,1126,771,0,0
-91,253,0,0,0,0,0,0,0,0,0,-1,1133,771,0,0
-84,253,0,0,0,0,0,0,0,0,0,-1,1140,771,0,0
-77,253,0,0,0,0,0,0,0,0,0,-1,1147,771,0,0
-70,253,0,0,0,0,0,0,0,0,0,-1,1154,771,0,0
-63,253,0,0,0,0,0,0,0,0,0,-1,1161,771,0,0
-56,253,0,0,0,0,0,0,0,0,0,-1,1168,771,0,0
-49,253,0,0,0,0,0,0,0,0,0,-1,1175,771,0,0
-42,253,0,0,0,0,0,0,0,0,0,-1,1182,771,0,0
-35,253,0,0,0,0,0,0,0,0,0,-1,1189,771,0,0
-28,253,0,0,0,0,0,0,0,0,0,-1,1196,771,0,0
-21,253,0,0,0,0,0,0,0,0,0,-1,1203,771,0,0
-14,253,0,0,0,0,0,0,0,0,0,-1,1210,771,0,0
-7,253,0,0,0,0,0,0,0,0,0,-1,1217,771,0,0
0,253,0,0,0,0,0,0,0,0,0,-1,1224,771,0,0
7,253,0,0,0,0,0,0,0,0,0,-1,1231,771,0,0
14,253,0,0,0,0,0,0,0,0,0,-1,1238,771,0,0
21,253,0,0,0,0,0,0,0,0,0,-1,1245,771,0,0
28,253,0,0,0,0,0,0,0,0,0,-1,1252,771,0,0
35,253,0,0,0,0,0,0,0,0,0,-1,1259,771,0,0
42,253,0,0,0,0,0,0,0,0,0,-1,1266,771,0,0
49,253,0,0,0,0,0,0,0,0,0,-1,1273,771,0,0
56,253,0,0,0,0,0,0,0,0,0,-1,1280,771,0,0
63,253,0,0,0,0,0,0,0,0,0,-1,1287,771,0,0
70,253,0,0,0,0,0,0,0,0,0,-1,1294,771,0,0
77,253,0,0,0,0,0,0,0,0,0,-1,1301,771,0,0
84,253,0,0,0,0,0,0,0,0,0,-1,1308,771,0,0
91,253,0,0,0,0,0,0,0,0,0,-1,1315,771,0,0
98,253,0,0,0,0,0,0,0,0,0,-1,1322,771,0,0
105,253,0,0,0,0,0,0,0,0,0,-1,1329,771,0,0
112,253,0,0,0,0,0,0,0,0,0,-1,1336,771,0,0
119,253,0,0,0,0,0,0,0,0,0,-1,1343,771,0,0
126,253,0,0,0,0,0,0,0,0,0,-1,1350,771,0,0
133,253,0,0,0,0,0,0,0,0,0,-1,1357,771,0,0
140,253,0,0,0,0,0,0,0,0,0,-1,1364,771,0,0
147,253,0,0,0,0,0,0,0,0,0,-1,1371,771,0,0
154,253,0,0,0,0,0,0,0,0,0,-1,1378,771,0,0
161,253,0,0,0,0,0,0,0,0,0,-1,1385,771,0,0
168,253,0,0,0,0,0,0,0,0,0,-1,1392,771,0,0
175,253,0,0,0,0,0,0,0,0,0,-1,1399,771,0,0
182,253,0,0,0,0,0,0,0,0,0,-1,1406,771,0,0
189,253,0,0,0,0,0,0,0,0,0,-1,1413,771,0,0
196,253,0,0,0,0,0,0,0,0,0,-1,1420,771,0,0
203,253,0,0,0,0,0,0,0,0,0,-1,1427,771,0,0
210,253,0,0,0,0,0,0,0,0,0,-1,1434,771,0,0
217,253,0,0,0,0,0,0,0,0,0,-1,1441,771,0,0
224,253,0,0,0,0,0,0,0,0,0,-1,1448,771,0,0
231,253,0,0,0,0,0,0,0,0,0,-1,1455,771,0,0
238,253,0,0,0,0,0,0,0,0,0,-1,1462,771,0,0
245,253,0,0,0,0,0,0,0,0,0,-1,1469,771,0,0
252,253,0,0,0,0,0,0,0,0,0,-1,1476,771,0,0
259,253,0,0,0,0,0,0,0,0,0,-1,1483,771,0,0
266,253,0,0,0,0,0,0,0,0,0,-1,1490,771,0,0
273,253,0,0,0,0,0,0,0,0,0,-1,1497,771,0,0
280,253,0,0,0,0,0,0,0,0,0,-1,1504,771,0,0
287,253,0,0,0,0,0,0,0,0,0,-1,1511,771,0,0
294,253,0,0,0,0,0,0,0,0,0,-1,1518,771,0,0
301,253,0,0,0,0,0,0,0,0,0,-1,1525,771,0,0
308,253,0,0,0,0,0,0,0,0,0,-1,1532,771,0,0
315,253,0,0,0,0,0,0,0,0,0,-1,1539,771,0,0
322,253,0,0,0,0,0,0,0,0,0,-1,1546,771,0,0
329,253,0,0,0,0,0,0,0,0,0,-1,1553,771,0,0
336,253,0,0,0,0,0,0,0,0,0,-1,1560,771,0,0
343,253,0,0,0,0,0,0,0,0,0,-1,1567,771,0,0
350,253,0,0,0,0,0,0,0,0,0,-1,1574,771,0,0
357,253,0,0,0,0,0,0,0,0,0,-1,1581,771,0,0
364,253,0,0,0,0,0,0,0,0,0,-1,1588,771,0,0
371,253,0,0,0,0,0,0,0,0,0,-1,1595,771,0,0
378,253,0,0,0,0,0,0,0,0,0,-1,1602,771,0,0
385,253,0,0,0,0,0,0,0,0,0,-1,1609,771,0,0
392,253,0,0,0,0,0,0,0,0,0,-1,1616,771,0,0
399,253,0,0,0,0,0,0,0,0,0,-1,1623,771,0,0
406,253,0,0,0,0,0,0,0,0,0,-1,1630,771,0,0
413,253,0,0,0,0,0,0,0,0,0,-1,1637,771,0,0
420,253,0,0,0,0,0,0,0,0,0,-1,1644,771,0,0
427,253,0,0,0,0,0,0,0,0,0,-1,1651,771,0,0
434,253,0,0,0,0,0,0,0,0,0,-1,1658,771,0,0
441,253,0,0,0,0,0,0,0,0,0,-1,1665,771,0,0
448,253,0,0,0,0,0,0,0,0,0,-1,1672,771,0,0
455,253,0,0,0,0,0,0,0,0,0,-1,1679,771,0,0
462,253,0,0,0,0,0,0,0,0,0,-1,1686,771,0,0
469,253,0,0,0,0,0,0,0,0,0,-1,1693,771,0,0
476,253,0,0,0,0,0,0,0,0,0,-1,1700,771,0,0
483,253,0,0,0,0,0,0,0,0,0,-1,1707,771,0,0
490,253,0,0,0,0,0,0,0,0,0,-1,1714,771,0,0
497,253,0,0,0,0,0,0,0,0,0,-1,1721,771,0,0
504,253,0,0,0,0,0,0,0,0,0,-1,1728,771,0,0
511,253,0,0,0,0,0,0,0,0,0,-1,1735,771,0,0
518,253,0,0,0,0,0,0,0,0,0,-1,1742,771,0,0
525,253,0,0,0,0,0,0,0,0,0,-1,1749,771,0,0
532,253,0,0,0,0,0,0,0,0,0,-1,1756,771,0,0
539,253,0,0,0,0,0,0,0,0,0,-1,1763,771,0,0
546,253,0,0,0,0,0,0,0,0,0,-1,1770,771,0,0
553,253,0,0,0,0,0,0,0,0,0,-1,1777,771,0,0
560,253,0,0,0,0,0,0,0,0,0,-1,1784,771,0,0
567,253,0,0,0,0,0,0,0,0,0,-1,1791,771,0,0
574,253,43.7976,2.7934,0,0,0,0,0,0,0,-1,1798,771,43.7976,-2.79337
581,253,43.6321,2.96429,0.0157534,0.0104563,0.00794675,0.0214814,0.00472839,0.624544,0.0130339,0.0393853,1805,771,43.6321,-2.96427
588,253,43.7902,3.09161,0.0115273,0.0139218,0.0118094,0.0245945,0.000854583,0.835916,0.016119,0.0424861,1812,771,43.7901,-3.09163
595,253,43.9894,3.18811,0.00836025,0.0144042,0.0123625,0.0241087,-0.00134426,0.905271,0.0165388,0.046262,1819,771,43.9893,-3.18813
602,253,43.6965,3.93286,0.0059556,0.0136419,0.0115362,0.0219583,-0.00236081,0.946185,0.0154859,0.0456047,1826,771,43.6965,-3.93288
609,253,43.1426,4.0564,0,0,0,0,0,0,0,-1,1833,771,43.1426,-4.05638
616,253,42.9739,4.06671,0,0,0,0,0,0,0,-1,1840,771,42.9739,-4.06671
623,253,42.3893,4.99359,0,0,0,0,0,0,0,-1,1847,771,42.3893,-4.9936
630,253,33.561,2.96838,0,0,0,0,0,0,0,-1,1854,771,33.561,-2.96836
637,253,22.3192,-0.604004,0,0,0,0,0,0,0,-1,1861,771,22.3192,0.603986
644,253,30.088,-1.64575,0,0,0,0,0,0,0,-1,1868,771,30.088,1.64574
651,253,29.8514,-1.07013,-0.000447276,0.00282663,0.000914757,0.00306488,-0.000685528,1.316,0.00230598,0.0269903,1875,771,29.8514,1.0701
658,253,29.8524,-0.550537,5.90875e-06,0.000660279,-0.000850108,0.00124399,-0.000577803,-0.969098,0.001075,0.0202418,1882,771,29.8524,0.550545
665,253,29.7369,-0.0310059,-0.000238058,0.00038293,-0.00105122,0.00116855,-0.00102368,-0.928998,0.00126661,0.0203035,1889,771,29.7369,0.0310272
672,253,29.7435,0.481567,-9.31057e-05,0.000166097,-0.000986807,0.00103178,-0.000958786,-0.850691,0.00114951,0.0157408,1896,771,29.7436,-0.481583
679,253,29.7814,1.02826,0.000588486,0.000181098,-0.000396383,0.000830449,-6.0865e-05,-0.548053,0.000574996,0.013933,1903,771,29.7813,-1.02825
686,253,29.7411,1.55408,0.00154818,0.000678923,0.000366691,0.0016822,0.0005449,0.350411,0.000991089,0.0199431,1910,771,29.741,-1.55408
693,253,29.6802,2.06323,0.00327565,0.00166544,0.00141583,0.00409927,0.000841817,0.526876,0.00249994,0.0199207,1917,771,29.6801,-2.06323
700,253,29.6752,2.54718,0.00560021,0.00275759,0.00266087,0.00719558,0.00116222,0.540101,0.00446041,0.0167601,1924,771,29.6751,-2.54717
707,253,29.6737,3.0705,0.00863818,0.00394228,0.00416373,0.0110703,0.00151011,0.52867,0.00693191,0.0151885,1931,771,29.6737,-3.07051
714,253,29.6799,3.59369,0.0126141,0.0051948,0.0059017,0.0158752,0.00193369,0.504815,0.0100014,0.0194269,1938,771,29.6799,-3.5937
721,253,29.7706,4.09027,0.017656,0.00662424,0.00812432,0.0219599,0.00232025,0.487175,0.0139311,0.0331292,1945,771,29.7706,-4.0903
728,253,30.4301,4.81665,0.0243476,0.0083983,0.0107148,0.0297297,0.0030162,0.465489,0.0188948,0.0466549,1952,771,30.43,-4.81663
735,253,31.1969,5.53528,0,0,0,0,0,0,0,-1,1959,771,31.1969,-5.53525
742,253,31.0571,5.7337,0,0,0,0,0,0,0,-1,1966,771,31.0571,-5.73373
749,253,33.7754,3.21533,0,0,0,0,0,0,0,-1,1973,771,33.7754,-3.21533
756,253,0,0,0,0,0,0,0,0,0,-1,1980,771,0,0
763,253,0,0,0,0,0,0,0,0,0,-1,1987,771,0,0
770,253,0,0,0,0,0,0,0,0,0,-1,1994,771,0,0
777,253,0,0,0,0,0,0,0,0,0,-1,2001,771,0,0
784,253,0,0,0,0,0,0,0,0,0,-1,2008,771,0,0
791,253,0,0,0,0,0,0,0,0,0,-1,2015,771,0,0
798,253,0,0,0,0,0,0,0,0,0,-1,2022,771,0,0
805,253,0,0,0,0,0,0,0,0,0,-1,2029,771,0,0
812,253,0,0,0,0,0,0,0,0,0,-1,2036,771,0,0
-700,246,0,0,0,0,0,0,0,0,0,-1,524,778,0,0
-693,246,0,0,0,0,0,0,0,0,0,-1,531,778,0,0
-686,246,0,0,0,0,0,0,0,0,0,-1,538,778,0,0
-679,246,0,0,0,0,0,0,0,0,0,-1,545,778,0,0
-672,246,0,0,0,0,0,0,0,0,0,-1,552,778,0,0
-665,246,0,0,0,0,0,0,0,0,0,-1,559,778,0,0
-658,246,0,0,0,0,0,0,0,0,0,-1,566,778,0,0
-651,246,0,0,0,0,0,0,0,0,0,-1,573,778,0,0
-644,246,0,0,0,0,0,0,0,0,0,-1,580,778,0,0
-637,246,-24.1234,0.130432,0,0,0,0,0,0,0,-1,587,778,-24.1234,-0.130438
-630,246,-24.0781,1.38916,0,0,0,0,0,0,0,-1,594,778,-24.0781,-1.38913
-623,246,-23.9183,2.49573,0,0,0,0,0,0,0,-1,601,778,-23.9183,-2.49575
-616,246,-26.8182,2.0705,0,0,0,0,0,0,0,-1,608,778,-26.8182,-2.07052
-609,246,-26.0615,1.16388,0,0,0,0,0,0,0,-1,615,778,-26.0615,-1.16388
-602,246,-20.6535,3.30377,0,0,0,0,0,0,0,-1,622,778,-20.6535,-3.3038
-595,246,-20.4257,2.52399,0.00195763,0.0102427,-0.0116181,0.0184347,-0.00623439,-0.95665,0.0148119,0.048284,629,778,-20.4257,-2.52396
-588,246,-20.0961,1.54138,0.000974539,0.00764262,-0.00819993,0.0131604,-0.00454323,-0.978487,0.0106171,0.0299738,636,778,-20.096,-1.54135
-581,246,-20.1733,1.00378,0.000419741,0.00554984,-0.00568452,0.00922124,-0.00325166,-0.997338,0.00747109,0.0169882,643,778,-20.1733,-1.00379
-574,246,-20.1463,0.445435,-1.17441e-05,0.00379322,-0.00362968,0.00598879,-0.00220731,-1.02679,0.00489702,0.0177964,650,778,-20.1463,-0.445452
-567,246,-20.1664,-0.0370483,-0.000412885,0.00222636,-0.00194831,0.00325988,-0.00144641,-1.08307,0.00278361,0.0203259,657,778,-20.1664,0.037058
-560,246,-20.2067,-0.492249,-0.000737456,0.000832729,-0.000576654,0.00102175,-0.000926478,-1.25404,0.00112526,0.0155838,664,778,-20.2067,0.492226
-553,246,-20.2068,-0.933899,-0.00105608,-0.000691678,0.000477931,-0.000362397,-0.00138537,0.96751,0.000829596,0.0129442,671,778,-20.2068,0.93391
-546,246,-20.2401,-1.41174,-0.00139478,-0.00222341,0.00109788,-0.000635642,-0.00298255,0.604973,0.001814,0.0109136,678,778,-20.2401,1.41172
-539,246,-20.2642,-1.93658,-0.00112808,-0.00325801,0.00114503,-0.000629317,-0.00375677,0.410808,0.00232333,0.0106271,685,778,-20.2642,1.93658
-532,246,-20.2488,-2.45715,-0.000196082,-0.00364289,0.000710441,-5.53915e-05,-0.00378358,0.195503,0.00250412,0.0125839,692,778,-20.2488,2.45717
-525,246,-20.2787,-2.93616,0.000871911,-0.00394351,-3.84373e-05,0.000872218,-0.00394382,-0.00798145,0.00296306,0.0193353,699,778,-20.2787,2.93614
-518,246,-20.4604,-3.2876,0.00243345,-0.00444744,-0.000696508,0.00250324,-0.00451724,-0.0998737,0.0041085,0.0315059,706,778,-20.4604,3.28762
-511,246,-20.7316,-3.53748,0,0,0,0,0,0,0,-1,713,778,-20.7317,3.5375
-504,246,-20.0047,-2.88214,0,0,0,0,0,0,0,-1,720,778,-20.0047,2.88216
-497,246,-29.4669,1.82684,0,0,0,0,0,0,0,-1,727,778,-29.4669,-1.82687
-490,246,-33.5582,1.30249,0,0,0,0,0,0,0,-1,734,778,-33.5582,-1.30248
-483,246,-33,1.44183,0,0,0,0,0,0,0,-1,741,778,-33,-1.44182
-476,246,-32.6132,1.20264,0.0203246,0.003361,0.00206036,0.0205712,0.00311434,0.11915,0.0128029,0.0453205,748,778,-32.6132,-1.20266
-469,246,-32.6316,1.04852,0.0247304,0.00674957,0.00416881,0.0256499,0.00583006,0.217092,0.0155259,0.0392488,755,778,-32.6316,-1.04849
-462,246,-32.5977,0.995483,0.0280995,0.0113902,0.00703937,0.0306697,0.00882002,0.350083,0.0182321,0.0446067,762,778,-32.5976,-0.995454
-455,246,0,0,0,0,0,0,0,0,0,-1,769,778,0,0
-448,246,0,0,0,0,0,0,0,0,0,-1,776,778,0,0
-441,246,0,0,0,0,0,0,0,0,0,-1,783,778,0,0
-434,246,0,0,0,0,0,0,0,0,0,-1,790,778,0,0
-427,246,0,0,0,0,0,0,0,0,0,-1,797,778,0,0
-420,246,0,0,0,0,0,0,0,0,0,-1,804,778,0,0
-413,246,0,0,0,0,0,0,0,0,0,-1,811,778,0,0
-406,246,0,0,0,0,0,0,0,0,0,-1,818,778,0,0
-399,246,0,0,0,0,0,0,0,0,0,-1,825,778,0,0
-392,246,0,0,0,0,0,0,0,0,0,-1,832,778,0,0
-385,246,0,0,0,0,0,0,0,0,0,-1,839,778,0,0
-378,246,0,0,0,0,0,0,0,0,0,-1,846,778,0,0
-371,246,0,0,0,0,0,0,0,0,0,-1,853,778,0,0
-364,246,0,0,0,0,0,0,0,0,0,-1,860,778,0,0
-357,246,0,0,0,0,0,0,0,0,0,-1,867,778,0,0
-350,246,0,0,0,0,0,0,0,0,0,-1,874,778,0,0
-343,246,0,0,0,0,0,0,0,0,0,-1,881,778,0,0
-336,246,0,0,0,0,0,0,0,0,0,-1,888,778,0,0
-329,246,0,0,0,0,0,0,0,0,0,-1,895,778,0,0
-322,246,0,0,0,0,0,0,0,0,0,-1,902,778,0,0
-315,246,0,0,0,0,0,0,0,0,0,-1,909,778,0,0
-308,246,0,0,0,0,0,0,0,0,0,-1,916,778,0,0
-301,246,0,0,0,0,0,0,0,0,0,-1,923,778,0,0
-294,246,0,0,0,0,0,0,0,0,0,-1,930,778,0,0
-287,246,0,0,0,0,0,0,0,0,0,-1,937,778,0,0
-280,246,0,0,0,0,0,0,0,0,0,-1,944,778,0,0
-273,246,0,0,0,0,0,0,0,0,0,-1,951,778,0,0
-266,246,0,0,0,0,0,0,0,0,0,-1,958,778,0,0
-259,246,0,0,0,0,0,0,0,0,0,-1,965,778,0,0
-252,246,0,0,0,0,0,0,0,0,0,-1,972,778,0,0
-245,246,0,0,0,0,0,0,0,0,0,-1,979,778,0,0
-238,246,0,0,0,0,0,0,0,0,0,-1,986,778,0,0
-231,246,0,0,0,0,0,0,0,0,0,-1,993,778,0,0
-224,246,0,0,0,0,0,0,0,0,0,-1,1000,778,0,0
-217,246,0,0,0,0,0,0,0,0,0,-1,1007,778,0,0
-210,246,0,0,0,0,0,0,0,0,0,-1,1014,778,0,0
-203,246,0,0,0,0,0,0,0,0,0,-1,1021,778,0,0
-196,246,0,0,0,0,0,0,0,0,0,-1,1028,778,0,0
-189,246,0,0,0,0,0,0,0,0,0,-1,1035,778,0,0
-182,246,0,0,0,0,0,0,0,0,0,-1,1042,778,0,0
-175,246,0,0,0,0,0,0,0,0,0,-1,1049,778,0,0
-168,246,0,0,0,0,0,0,0,0,0,-1,1056,778,0,0
-161,246,0,0,0,0,0,0,0,0,0,-1,1063,778,0,0
-154,246,0,0,0,0,0,0,0,0,0,-1,1070,778,0,0
-147,246,0,0,0,0,0,0,0,0,0,-1,1077,778,0,0
-140,246,0,0,0,0,0,0,0,0,0,-1,1084,778,0,0
-133,246,0,0,0,0,0,0,0,0,0,-1,1091,778,0,0
-126,246,0,0,0,0,0,0,0,0,0,-1,1098,778,0,0
-119,246,0,0,0,0,0,0,0,0,0,-1,1105,778,0,0
-112,246,0,0,0,0,0,0,0,0,0,-1,1112,778,0,0
-105,246,0,0,0,0,0,0,0,0,0,-1,1119,778,0,0
-98,246,0,0,0,0,0,0,0,0,0,-1,1126,778,0,0
-91,246,0,0,0,0,0,0,0,0,0,-1,1133,778,0,0
-84,246,0,0,0,0,0,0,0,0,0,-1,1140,778,0,0
-77,246,0,0,0,0,0,0,0,0,0,-1,1147,778,0,0
-70,246,0,0,0,0,0,0,0,0,0,-1,1154,778,0,0
-63,246,0,0,0,0,0,0,0,0,0,-1,1161,778,0,0
-56,246,0,0,0,0,0,0,0,0,0,-1,1168,778,0,0
-49,246,0,0,0,0,0,0,0,0,0,-1,1175,778,0,0
-42,246,0,0,0,0,0,0,0,0,0,-1,1182,778,0,0
-35,246,0,0,0,0,0,0,0,0,0,-1,1189,778,0,0
-28,246,0,0,0,0,0,0,0,0,0,-1,1196,778,0,0
-21,246,0,0,0,0,0,0,0,0,0,-1,1203,778,0,0
-14,246,0,0,0,0,0,0,0,0,0,-1,1210,778,0,0
-7,246,0,0,0,0,0,0,0,0,0,-1,1217,778,0,0
0,246,0,0,0,0,0,0,0,0,0,-1,1224,778,0,0
7,246,0,0,0,0,0,0,0,0,0,-1,1231,778,0,0
14,246,0,0,0,0,0,0,0,0,0,-1,1238,778,0,0
21,246,0,0,0,0,0,0,0,0,0,-1,1245,778,0,0
28,246,0,0,0,0,0,0,0,0,0,-1,1252,778,0,0
35,246,0,0,0,0,0,0,0,0,0,-1,1259,778,0,0
42,246,0,0,0,0,0,0,0,0,0,-1,1266,778,0,0
49,246,0,0,0,0,0,0,0,0,0,-1,1273,778,0,0
56,246,0,0,0,0,0,0,0,0,0,-1,1280,778,0,0
63,246,0,0,0,0,0,0,0,0,0,-1,1287,778,0,0
70,246,0,0,0,0,0,0,0,0,0,-1,1294,778,0,0
77,246,0,0,0,0,0,0,0,0,0,-1,1301,778,0,0
84,246,0,0,0,0,0,0,0,0,0,-1,1308,778,0,0
91,246,0,0,0,0,0,0,0,0,0,-1,1315,778,0,0
98,246,0,0,0,0,0,0,0,0,0,-1,1322,778,0,0
105,246,0,0,0,0,0,0,0,0,0,-1,1329,778,0,0
112,246,0,0,0,0,0,0,0,0,0,-1,1336,778,0,0
119,246,0,0,0,0,0,0,0,0,0,-1,1343,778,0,0
126,246,0,0,0,0,0,0,0,0,0,-1,1350,778,0,0
133,246,0,0,0,0,0,0,0,0,0,-1,1357,778,0,0
140,246,0,0,0,0,0,0,0,0,0,-1,1364,778,0,0
147,246,0,0,0,0,0,0,0,0,0,-1,1371,778,0,0
154,246,0,0,0,0,0,0,0,0,0,-1,1378,778,0,0
161,246,0,0,0,0,0,0,0,0,0,-1,1385,778,0,0
168,246,0,0,0,0,0,0,0,0,0,-1,1392,778,0,0
175,246,0,0,0,0,0,0,0,0,0,-1,1399,778,0,0
182,246,0,0,0,0,0,0,0,0,0,-1,1406,778,0,0
189,246,0,0,0,0,0,0,0,0,0,-1,1413,778,0,0
196,246,0,0,0,0,0,0,0,0,0,-1,1420,778,0,0
203,246,0,0,0,0,0,0,0,0,0,-1,1427,778,0,0
210,246,0,0,0,0,0,0,0,0,0,-1,1434,778,0,0
217,246,0,0,0,0,0,0,0,0,0,-1,1441,778,0,0
224,246,0,0,0,0,0,0,0,0,0,-1,1448,778,0,0
231,246,0,0,0,0,0,0,0,0,0,-1,1455,778,0,0
238,246,0,0,0,0,0,0,0,0,0,-1,1462,778,0,0
245,246,0,0,0,0,0,0,0,0,0,-1,1469,778,0,0
252,246,0,0,0,0,0,0,0,0,0,-1,1476,778,0,0
259,246,0,0,0,0,0,0,0,0,0,-1,1483,778,0,0
266,246,0,0,0,0,0,0,0,0,0,-1,1490,778,0,0
273,246,0,0,0,0,0,0,0,0,0,-1,1497,778,0,0
280,246,0,0,0,0,0,0,0,0,0,-1,1504,778,0,0
287,246,0,0,0,0,0,0,0,0,0,-1,1511,778,0,0
294,246,0,0,0,0,0,0,0,0,0,-1,1518,778,0,0
301,246,0,0,0,0,0,0,0,0,0,-1,1525,778,0,0
308,246,0,0,0,0,0,0,0,0,0,-1,1532,778,0,0
315,246,0,0,0,0,0,0,0,0,0,-1,1539,778,0,0
322,246,0,0,0,0,0,0,0,0,0,-1,1546,778,0,0
329,246,0,0,0,0,0,0,0,0,0,-1,1553,778,0,0
336,246,0,0,0,0,0,0,0,0,0,-1,1560,778,0,0
343,246,0,0,0,0,0,0,0,0,0,-1,1567,778,0,0
350,246,0,0,0,0,0,0,0,0,0,-1,1574,778,0,0
357,246,0,0,0,0,0,0,0,0,0,-1,1581,778,0,0
364,246,0,0,0,0,0,0,0,0,0,-1,1588,778,0,0
371,246,0,0,0,0,0,0,0,0,0,-1,1595,778,0,0
378,246,0,0,0,0,0,0,0,0,0,-1,1602,778,0,0
385,246,0,0,0,0,0,0,0,0,0,-1,1609,778,0,0
392,246,0,0,0,0,0,0,0,0,0,-1,1616,778,0,0
399,246,0,0,0,0,0,0,0,0,0,-1,1623,778,0,0
406,246,0,0,0,0,0,0,0,0,0,-1,1630,778,0,0
413,246,0,0,0,0,0,0,0,0,0,-1,1637,778,0,0
420,246,0,0,0,0,0,0,0,0,0,-1,1644,778,0,0
427,246,0,0,0,0,0,0,0,0,0,-1,1651,778,0,0
434,246,0,0,0,0,0,0,0,0,0,-1,1658,778,0,0
441,246,0,0,0,0,0,0,0,0,0,-1,1665,778,0,0
448,246,0,0,0,0,0,0,0,0,0,-1,1672,778,0,0
455,246,0,0,0,0,0,0,0,0,0,-1,1679,778,0,0
462,246,0,0,0,0,0,0,0,0,0,-1,1686,778,0,0
469,246,0,0,0,0,0,0,0,0,0,-1,1693,778,0,0
476,246,0,0,0,0,0,0,0,0,0,-1,1700,778,0,0
483,246,0,0,0,0,0,0,0,0,0,-1,1707,778,0,0
490,246,0,0,0,0,0,0,0,0,0,-1,1714,778,0,0
497,246,0,0,0,0,0,0,0,0,0,-1,1721,778,0,0
504,246,0,0,0,0,0,0,0,0,0,-1,1728,778,0,0
511,246,0,0,0,0,0,0,0,0,0,-1,1735,778,0,0
518,246,0,0,0,0,0,0,0,0,0,-1,1742,778,0,0
525,246,0,0,0,0,0,0,0,0,0,-1,1749,778,0,0
532,246,0,0,0,0,0,0,0,0,0,-1,1756,778,0,0
539,246,0,0,0,0,0,0,0,0,0,-1,1763,778,0,0
546,246,0,0,0,0,0,0,0,0,0,-1,1770,778,0,0
553,246,0,0,0,0,0,0,0,0,0,-1,1777,778,0,0
560,246,0,0,0,0,0,0,0,0,0,-1,1784,778,0,0
567,246,0,0,0,0,0,0,0,0,0,-1,1791,778,0,0
574,246,0,0,0,0,0,0,0,0,0,-1,1798,778,0,0
581,246,43.6565,2.96021,0.0133135,0.00781319,0.00462086,0.0159407,0.00518601,0.516971,0.00938868,0.0378171,1805,778,43.6565,-2.96018
588,246,43.7222,2.96106,0.00967438,0.0129023,0.0101075,0.0215239,0.0010528,0.86457,0.0140115,0.0420645,1812,778,43.7221,-2.96108
595,246,43.8535,2.9873,0.00702285,0.0141963,0.0114885,0.022645,-0.00142584,0.936704,0.0155937,0.0417659,1819,778,43.8535,-2.98731
602,246,43.5764,3.401,0.00505311,0.0137227,0.0109472,0.0211621,-0.00238629,0.973914,0.0149671,0.0445328,1826,778,43.5764,-3.40102
609,246,43.2469,3.71637,0,0,0,0,0,0,0,-1,1833,778,43.2469,-3.7164
616,246,42.9531,4.02576,0,0,0,0,0,0,0,-1,1840,778,42.9531,-4.02573
623,246,42.6157,4.487,0,0,0,0,0,0,0,-1,1847,778,42.6157,-4.48699
630,246,42.2563,4.94934,0,0,0,0,0,0,0,-1,1854,778,42.2564,-4.94931
637,246,29.5785,0.837585,0,0,0,0,0,0,0,-1,1861,778,29.5785,-0.837606
644,246,28.1232,-1.43188,0,0,0,0,0,0,0,-1,1868,778,28.1232,1.43188
651,246,30.299,-1.03094,0,0,0,0,0,0,0,-1,1875,778,30.299,1.03097
658,246,30.2601,-0.556274,-0.000122696,0.000748378,-0.0010563,0.00145541,-0.000829726,-0.980941,0.00133571,0.0293944,1882,778,30.2601,0.556287
665,246,30.2539,-0.0100098,-0.000457364,0.000415969,-0.00134312,0.00139162,-0.00143302,-0.942566,0.00163087,0.0219105,1889,778,30.2539,0.0100286
672,246,30.259,0.531128,-0.000403855,6.7833e-05,-0.00135044,0.00120287,-0.00153889,-0.871847,0.00158692,0.0197385,1896,778,30.259,-0.531105
679,246,30.3104,1.05121,5.97071e-05,-0.000157458,-0.000859688,0.000817643,-0.000915394,-0.722578,0.0010011,0.0208367,1903,778,30.3104,-1.0512
686,246,30.3264,1.5929,0.000799879,0.000129191,-0.000173317,0.000842019,8.70504e-05,-0.238512,0.000534697,0.0220107,1910,778,30.3264,-1.59291
693,246,30.2671,2.07788,0.00243129,0.00107769,0.000797473,0.00280044,0.000708533,0.433534,0.00168131,0.0178146,1917,778,30.267,-2.07791
700,246,30.2394,2.55511,0.00463063,0.00209926,0.0019078,0.00565441,0.00107548,0.49252,0.00346717,0.0152218,1924,778,30.2394,-2.55509
707,246,30.2141,3.07898,0.0074149,0.00322131,0.00306003,0.0090276,0.00160861,0.48503,0.0055603,0.013962,1931,778,30.2141,-3.07898
714,246,30.1954,3.63922,0.0108978,0.00441694,0.00408401,0.0128708,0.00244397,0.450034,0.007893,0.0129007,1938,778,30.1954,-3.63921
721,246,30.1962,4.11487,0.0151511,0.00570443,0.00528212,0.0175137,0.00334181,0.420595,0.0107366,0.0178365,1945,778,30.1961,-4.11485
728,246,30.4268,4.76135,0.0205206,0.00721161,0.00620672,0.0229658,0.00476634,0.375299,0.013995,0.0407583,1952,778,30.4268,-4.76134
735,246,30.9808,5.7533,0,0,0,0,0,0,0,-1,1959,778,30.9808,-5.75327
742,246,31.7356,6.70013,0,0,0,0,0,0,0,-1,1966,778,31.7356,-6.70011
749,246,32.3883,7.69324,0,0,0,0,0,0,0,-1,1973,778,32.3883,-7.69322
756,246,33.6919,3.45264,0,0,0,0,0,0,0,-1,1980,778,33.6919,-3.45262
763,246,0,0,0,0,0,0,0,0,0,-1,1987,778,0,0
770,246,0,0,0,0,0,0,0,0,0,-1,1994,778,0,0
777,246,0,0,0,0,0,0,0,0,0,-1,2001,778,0,0
784,246,0,0,0,0,0,0,0,0,0,-1,2008,778,0,0
791,246,0,0,0,0,0,0,0,0,0,-1,2015,778,0,0
798,246,0,0,0,0,0,0,0,0,0,-1,2022,778,0,0
805,246,0,0,0,0,0,0,0,0,0,-1,2029,778,0,0
812,246,0,0,0,0,0,0,0,0,0,-1,2036,778,0,0
-700,239,0,0,0,0,0,0,0,0,0,-1,524,785,0,0
-693,239,0,0,0,0,0,0,0,0,0,-1,531,785,0,0
-686,239,0,0,0,0,0,0,0,0,0,-1,538,785,0,0
-679,239,0,0,0,0,0,0,0,0,0,-1,545,785,0,0
-672,239,0,0,0,0,0,0,0,0,0,-1,552,785,0,0
-665,239,0,0,0,0,0,0,0,0,0,-1,559,785,0,0
-658,239,0,0,0,0,0,0,0,0,0,-1,566,785,0,0
-651,239,0,0,0,0,0,0,0,0,0,-1,573,785,0,0
-644,239,0,0,0,0,0,0,0,0,0,-1,580,785,0,0
-637,239,-23.2709,0.465088,0,0,0,0,0,0,0,-1,587,785,-23.271,-0.465116
-630,239,-23.4006,0.956299,0,0,0,0,0,0,0,-1,594,785,-23.4005,-0.956285
-623,239,-30.6328,2.52185,0,0,0,0,0,0,0,-1,601,785,-30.6328,-2.52183
-616,239,-29.1425,1.42139,0,0,0,0,0,0,0,-1,608,785,-29.1425,-1.42139
-609,239,-27.8569,0.322937,0,0,0,0,0,0,0,-1,615,785,-27.857,-0.322963
-602,239,-20.5771,3.36646,0,0,0,0,0,0,0,-1,622,785,-20.5771,-3.36648
-595,239,-20.585,2.46301,0.00110917,0.00943779,-0.0100452,0.0161476,-0.00560069,-0.981894,0.0130393,0.0423136,629,785,-20.585,-2.46304
-588,239,-20.5914,1.60132,0.000551204,0.00705377,-0.00720289,0.0117052,-0.0041002,-0.997401,0.0094708,0.0191067,636,785,-20.5914,-1.60132
-581,239,-20.6614,1.0033,0.000223281,0.00505626,-0.00500524,0.00819782,-0.00291828,-1.01029,0.00665479,0.0106029,643,785,-20.6614,-1.00329
-574,239,-20.6458,0.483337,-0.000117994,0.00332128,-0.00311528,0.00516003,-0.00195674,-1.03759,0.00424534,0.0121193,650,785,-20.6458,-0.483355
-567,239,-20.6782,-0.0112915,-0.000493957,0.00174704,-0.00150386,0.00250194,-0.00124886,-1.10557,0.00220544,0.0158732,657,785,-20.6782,0.0112965
-560,239,-20.7115,-0.459167,-0.000779023,0.000370966,-0.000148641,0.000389868,-0.000797925,-1.44431,0.000699132,0.0161848,664,785,-20.7115,0.459187
-553,239,-20.7112,-0.924194,-0.00111995,-0.0012145,0.000863695,-0.000302235,-0.00203221,0.758057,0.00126614,0.0149517,671,785,-20.7112,0.92418
-546,239,-20.7697,-1.40961,-0.00153672,-0.0028038,0.00134402,-0.000684405,-0.00365612,0.565154,0.00224433,0.015467,678,785,-20.7697,1.40958
-539,239,-20.7893,-1.92505,-0.00122177,-0.00374709,0.00116223,-0.000768306,-0.00420055,0.372002,0.00258265,0.0162575,685,785,-20.7893,1.92502
-532,239,-20.7671,-2.41333,-0.000228897,-0.00400579,0.000595539,-0.000137219,-0.00409747,0.152744,0.00268708,0.0164748,692,785,-20.7671,2.41331
-525,239,-20.8212,-2.79395,0.000821519,-0.00427921,-0.000212138,0.000830327,-0.00428802,-0.0414942,0.00317189,0.0255287,699,785,-20.8213,2.79396
-518,239,-21.0935,-3.04175,0,0,0,0,0,0,0,-1,706,785,-21.0935,3.04172
-511,239,-20.9849,-2.09235,0,0,0,0,0,0,0,-1,713,785,-20.9848,2.09234
-504,239,-25.5015,2.00421,0,0,0,0,0,0,0,-1,720,785,-25.5015,-2.00422
-497,239,-33.4868,1.04431,0,0,0,0,0,0,0,-1,727,785,-33.4868,-1.04431
-490,239,-33.2418,1.20105,0.0111121,-0.00156286,-0.00175737,0.0113512,-0.00180201,-0.135251,0.00823415,0.0494711,734,785,-33.2417,-1.20103
-483,239,-32.8026,1.30011,0.0141639,0.00012991,-0.00141177,0.0143045,-1.07004e-05,-0.0992712,0.00953993,0.0439444,741,785,-32.8025,-1.3001
-476,239,-32.5123,1.16327,0.0176457,0.00259962,-0.000566295,0.0176669,0.00257834,-0.0375666,0.0110195,0.0399879,748,785,-32.5123,-1.16325
-469,239,-32.4865,1.12732,0.0208115,0.00608568,0.000978844,0.0208763,0.0060209,0.0660836,0.0124075,0.0427237,755,785,-32.4864,-1.12729
-462,239,-32.579,0.957764,0.0219024,0.0109797,0.00334918,0.0228476,0.0100345,0.275053,0.0132235,0.0455521,762,785,-32.579,-0.957793
-455,239,0,0,0,0,0,0,0,0,0,-1,769,785,0,0
-448,239,0,0,0,0,0,0,0,0,0,-1,776,785,0,0
-441,239,0,0,0,0,0,0,0,0,0,-1,783,785,0,0
-434,239,0,0,0,0,0,0,0,0,0,-1,790,785,0,0
-427,239,0,0,0,0,0,0,0,0,0,-1,797,785,0,0
-420,239,0,0,0,0,0,0,0,0,0,-1,804,785,0,0
-413,239,0,0,0,0,0,0,0,0,0,-1,811,785,0,0
-406,239,0,0,0,0,0,0,0,0,0,-1,818,785,0,0
-399,239,0,0,0,0,0,0,0,0,0,-1,825,785,0,0
-392,239,0,0,0,0,0,0,0,0,0,-1,832,785,0,0
-385,239,0,0,0,0,0,0,0,0,0,-1,839,785,0,0
-378,239,0,0,0,0,0,0,0,0,0,-1,846,785,0,0
-371,239,0,0,0,0,0,0,0,0,0,-1,853,785,0,0
-364,239,0,0,0,0,0,0,0,0,0,-1,860,785,0,0
-357,239,0,0,0,0,0,0,0,0,0,-1,867,785,0,0
-350,239,0,0,0,0,0,0,0,0,0,-1,874,785,0,0
-343,239,0,0,0,0,0,0,0,0,0,-1,881,785,0,0
-336,239,0,0,0,0,0,0,0,0,0,-1,888,785,0,0
-329,239,0,0,0,0,0,0,0,0,0,-1,895,785,0,0
-322,239,0,0,0,0,0,0,0,0,0,-1,902,785,0,0
-315,239,0,0,0,0,0,0,0,0,0,-1,909,785,0,0
-308,239,0,0,0,0,0,0,0,0,0,-1,916,785,0,0
-301,239,0,0,0,0,0,0,0,0,0,-1,923,785,0,0
-294,239,0,0,0,0,0,0,0,0,0,-1,930,785,0,0
-287,239,0,0,0,0,0,0,0,0,0,-1,937,785,0,0
-280,239,0,0,0,0,0,0,0,0,0,-1,944,785,0,0
-273,239,0,0,0,0,0,0,0,0,0,-1,951,785,0,0
-266,239,0,0,0,0,0,0,0,0,0,-1,958,785,0,0
-259,239,0,0,0,0,0,0,0,0,0,-1,965,785,0,0
-252,239,0,0,0,0,0,0,0,0,0,-1,972,785,0,0
-245,239,0,0,0,0,0,0,0,0,0,-1,979,785,0,0
-238,239,0,0,0,0,0,0,0,0,0,-1,986,785,0,0
-231,239,0,0,0,0,0,0,0,0,0,-1,993,785,0,0
-224,239,0,0,0,0,0,0,0,0,0,-1,1000,785,0,0
-217,239,0,0,0,0,0,0,0,0,0,-1,1007,785,0,0
-210,239,0,0,0,0,0,0,0,0,0,-1,1014,785,0,0
-203,239,0,0,0,0,0,0,0,0,0,-1,1021,785,0,0
-196,239,0,0,0,0,0,0,0,0,0,-1,1028,785,0,0
-189,239,0,0,0,0,0,0,0,0,0,-1,1035,785,0,0
-182,239,0,0,0,0,0,0,0,0,0,-1,1042,785,0,0
-175,239,0,0,0,0,0,0,0,0,0,-1,1049,785,0,0
-168,239,0,0,0,0,0,0,0,0,0,-1,1056,785,0,0
-161,239,0,0,0,0,0,0,0,0,0,-1,1063,785,0,0
-154,239,0,0,0,0,0,0,0,0,0,-1,1070,785,0,0
-147,239,0,0,0,0,0,0,0,0,0,-1,1077,785,0,0
-140,239,0,0,0,0,0,0,0,0,0,-1,1084,785,0,0
-133,239,0,0,0,0,0,0,0,0,0,-1,1091,785,0,0
-126,239,0,0,0,0,0,0,0,0,0,-1,1098,785,0,0
-119,239,0,0,0,0,0,0,0,0,0,-1,1105,785,0,0
-112,239,0,0,0,0,0,0,0,0,0,-1,1112,785,0,0
-105,239,0,0,0,0,0,0,0,0,0,-1,1119,785,0,0
-98,239,0,0,0,0,0,0,0,0,0,-1,1126,785,0,0
-91,239,0,0,0,0,0,0,0,0,0,-1,1133,785,0,0
-84,239,0,0,0,0,0,0,0,0,0,-1,1140,785,0,0
-77,239,0,0,0,0,0,0,0,0,0,-1,1147,785,0,0
-70,239,0,0,0,0,0,0,0,0,0,-1,1154,785,0,0
-63,239,0,0,0,0,0,0,0,0,0,-1,1161,785,0,0
-56,239,0,0,0,0,0,0,0,0,0,-1,1168,785,0,0
-49,239,0,0,0,0,0,0,0,0,0,-1,1175,785,0,0
-42,239,0,0,0,0,0,0,0,0,0,-1,1182,785,0,0
-35,239,0,0,0,0,0,0,0,0,0,-1,1189,785,0,0
-28,239,0,0,0,0,0,0,0,0,0,-1,1196,785,0,0
-21,239,0,0,0,0,0,0,0,0,0,-1,1203,785,0,0
-14,239,0,0,0,0,0,0,0,0,0,-1,1210,785,0,0
-7,239,0,0,0,0,0,0,0,0,0,-1,1217,785,0,0
0,239,0,0,0,0,0,0,0,0,0,-1,1224,785,0,0
7,239,0,0,0,0,0,0,0,0,0,-1,1231,785,0,0
14,239,0,0,0,0,0,0,0,0,0,-1,1238,785,0,0
21,239,0,0,0,0,0,0,0,0,0,-1,1245,785,0,0
28,239,0,0,0,0,0,0,0,0,0,-1,1252,785,0,0
35,239,0,0,0,0,0,0,0,0,0,-1,1259,785,0,0
42,239,0,0,0,0,0,0,0,0,0,-1,1266,785,0,0
49,239,0,0,0,0,0,0,0,0,0,-1,1273,785,0,0
56,239,0,0,0,0,0,0,0,0,0,-1,1280,785,0,0
63,239,0,0,0,0,0,0,0,0,0,-1,1287,785,0,0
70,239,0,0,0,0,0,0,0,0,0,-1,1294,785,0,0
77,239,0,0,0,0,0,0,0,0,0,-1,1301,785,0,0
84,239,0,0,0,0,0,0,0,0,0,-1,1308,785,0,0
91,239,0,0,0,0,0,0,0,0,0,-1,1315,785,0,0
98,239,0,0,0,0,0,0,0,0,0,-1,1322,785,0,0
105,239,0,0,0,0,0,0,0,0,0,-1,1329,785,0,0
112,239,0,0,0,0,0,0,0,0,0,-1,1336,785,0,0
119,239,0,0,0,0,0,0,0,0,0,-1,1343,785,0,0
126,239,0,0,0,0,0,0,0,0,0,-1,1350,785,0,0
133,239,0,0,0,0,0,0,0,0,0,-1,1357,785,0,0
140,239,0,0,0,0,0,0,0,0,0,-1,1364,785,0,0
147,239,0,0,0,0,0,0,0,0,0,-1,1371,785,0,0
154,239,0,0,0,0,0,0,0,0,0,-1,1378,785,0,0
161,239,0,0,0,0,0,0,0,0,0,-1,1385,785,0,0
168,239,0,0,0,0,0,0,0,0,0,-1,1392,785,0,0
175,239,0,0,0,0,0,0,0,0,0,-1,1399,785,0,0
182,239,0,0,0,0,0,0,0,0,0,-1,1406,785,0,0
189,239,0,0,0,0,0,0,0,0,0,-1,1413,785,0,0
196,239,0,0,0,0,0,0,0,0,0,-1,1420,785,0,0
203,239,0,0,0,0,0,0,0,0,0,-1,1427,785,0,0
210,239,0,0,0,0,0,0,0,0,0,-1,1434,785,0,0
217,239,0,0,0,0,0,0,0,0,0,-1,1441,785,0,0
224,239,0,0,0,0,0,0,0,0,0,-1,1448,785,0,0
231,239,0,0,0,0,0,0,0,0,0,-1,1455,785,0,0
238,239,0,0,0,0,0,0,0,0,0,-1,1462,785,0,0
245,239,0,0,0,0,0,0,0,0,0,-1,1469,785,0,0
252,239,0,0,0,0,0,0,0,0,0,-1,1476,785,0,0
259,239,0,0,0,0,0,0,0,0,0,-1,1483,785,0,0
266,239,0,0,0,0,0,0,0,0,0,-1,1490,785,0,0
273,239,0,0,0,0,0,0,0,0,0,-1,1497,785,0,0
280,239,0,0,0,0,0,0,0,0,0,-1,1504,785,0,0
287,239,0,0,0,0,0,0,0,0,0,-1,1511,785,0,0
294,239,0,0,0,0,0,0,0,0,0,-1,1518,785,0,0
301,239,0,0,0,0,0,0,0,0,0,-1,1525,785,0,0
308,239,0,0,0,0,0,0,0,0,0,-1,1532,785,0,0
315,239,0,0,0,0,0,0,0,0,0,-1,1539,785,0,0
322,239,0,0,0,0,0,0,0,0,0,-1,1546,785,0,0
329,239,0,0,0,0,0,0,0,0,0,-1,1553,785,0,0
336,239,0,0,0,0,0,0,0,0,0,-1,1560,785,0,0
343,239,0,0,0,0,0,0,0,0,0,-1,1567,785,0,0
350,239,0,0,0,0,0,0,0,0,0,-1,1574,785,0,0
357,239,0,0,0,0,0,0,0,0,0,-1,1581,785,0,0
364,239,0,0,0,0,0,0,0,0,0,-1,1588,785,0,0
371,239,0,0,0,0,0,0,0,0,0,-1,1595,785,0,0
378,239,0,0,0,0,0,0,0,0,0,-1,1602,785,0,0
385,239,0,0,0,0,0,0,0,0,0,-1,1609,785,0,0
392,239,0,0,0,0,0,0,0,0,0,-1,1616,785,0,0
399,239,0,0,0,0,0,0,0,0,0,-1,1623,785,0,0
406,239,0,0,0,0,0,0,0,0,0,-1,1630,785,0,0
413,239,0,0,0,0,0,0,0,0,0,-1,1637,785,0,0
420,239,0,0,0,0,0,0,0,0,0,-1,1644,785,0,0
427,239,0,0,0,0,0,0,0,0,0,-1,1651,785,0,0
434,239,0,0,0,0,0,0,0,0,0,-1,1658,785,0,0
441,239,0,0,0,0,0,0,0,0,0,-1,1665,785,0,0
448,239,0,0,0,0,0,0,0,0,0,-1,1672,785,0,0
455,239,0,0,0,0,0,0,0,0,0,-1,1679,785,0,0
462,239,0,0,0,0,0,0,0,0,0,-1,1686,785,0,0
469,239,0,0,0,0,0,0,0,0,0,-1,1693,785,0,0
476,239,0,0,0,0,0,0,0,0,0,-1,1700,785,0,0
483,239,0,0,0,0,0,0,0,0,0,-1,1707,785,0,0
490,239,0,0,0,0,0,0,0,0,0,-1,1714,785,0,0
497,239,0,0,0,0,0,0,0,0,0,-1,1721,785,0,0
504,239,0,0,0,0,0,0,0,0,0,-1,1728,785,0,0
511,239,0,0,0,0,0,0,0,0,0,-1,1735,785,0,0
518,239,0,0,0,0,0,0,0,0,0,-1,1742,785,0,0
525,239,0,0,0,0,0,0,0,0,0,-1,1749,785,0,0
532,239,0,0,0,0,0,0,0,0,0,-1,1756,785,0,0
539,239,0,0,0,0,0,0,0,0,0,-1,1763,785,0,0
546,239,0,0,0,0,0,0,0,0,0,-1,1770,785,0,0
553,239,0,0,0,0,0,0,0,0,0,-1,1777,785,0,0
560,239,0,0,0,0,0,0,0,0,0,-1,1784,785,0,0
567,239,0,0,0,0,0,0,0,0,0,-1,1791,785,0,0
574,239,0,0,0,0,0,0,0,0,0,-1,1798,785,0,0
581,239,43.7153,2.97272,0.0108353,0.00419488,0.00130727,0.0110834,0.00394678,0.187547,0.00648671,0.0376048,1805,785,43.7153,-2.97271
588,239,43.7277,2.99158,0.00794935,0.0104345,0.0077171,0.0170084,0.00137543,0.865221,0.0109094,0.0405549,1812,785,43.7276,-2.99156
595,239,43.809,2.91443,0.00587616,0.0127886,0.010047,0.0199573,-0.00129252,0.951059,0.0137559,0.0354466,1819,785,43.809,-2.91445
602,239,43.748,3.00946,0.00431773,0.0129614,0.0100163,0.0195485,-0.00226938,0.989071,0.0138509,0.0388591,1826,785,43.748,-3.00948
609,239,44.1074,2.76514,0,0,0,0,0,0,0,-1,1833,785,44.1075,-2.76516
616,239,44.0342,3.01288,0,0,0,0,0,0,0,-1,1840,785,44.0342,-3.01291
623,239,43.4862,3.60486,0,0,0,0,0,0,0,-1,1847,785,43.4862,-3.60483
630,239,43.7722,3.59686,0,0,0,0,0,0,0,-1,1854,785,43.7722,-3.59688
637,239,39.5542,2.54114,0,0,0,0,0,0,0,-1,1861,785,39.5543,-2.54114
644,239,18.3466,0.735413,0,0,0,0,0,0,0,-1,1868,785,18.3465,-0.735414
651,239,30.545,-1.15118,0,0,0,0,0,0,0,-1,1875,785,30.5451,1.15117
658,239,30.7242,-0.520996,-0.000267385,0.000605576,-0.00110418,0.00135641,-0.00101822,-0.973622,0.00137562,0.0385209,1882,785,30.7243,0.520993
665,239,30.809,0.0508423,-0.000639043,0.000321599,-0.00149046,0.00140722,-0.00172466,-0.941276,0.00181129,0.0172352,1889,785,30.809,-0.0508627
672,239,30.7872,0.549744,-0.000661454,-1.6161e-05,-0.00159784,0.00129128,-0.0019689,-0.885022,0.00189577,0.0201978,1896,785,30.7873,-0.549731
679,239,30.8031,1.09003,-0.000419703,-0.000359367,-0.0012349,0.000845734,-0.0016248,-0.797611,0.00144981,0.0213238,1903,785,30.8031,-1.09003
686,239,30.8207,1.62732,6.33363e-05,-0.000245395,-0.000677246,0.000603587,-0.000785646,-0.673347,0.000804366,0.0220515,1910,785,30.8207,-1.62733
693,239,30.7971,2.08496,0.00152789,0.000650605,0.000186039,0.00156571,0.000612784,0.200565,0.000911044,0.0141046,1917,785,30.7971,-2.08495
700,239,30.7596,2.58246,0.00355777,0.00156847,0.00115961,0.00409088,0.00103537,0.430913,0.00245598,0.0113543,1924,785,30.7597,-2.58245
707,239,30.7344,3.09338,0.00616201,0.00259986,0.00195788,0.00702773,0.00173414,0.416324,0.00422738,0.0114144,1931,785,30.7344,-3.09338
714,239,30.7183,3.60547,0.00933943,0.00372304,0.00232383,0.0101762,0.00288622,0.345648,0.00605587,0.0104494,1938,785,30.7183,-3.60544
721,239,30.6761,4.12372,0.0131069,0.00485594,0.00264824,0.0138837,0.0040791,0.285338,0.00823986,0.0232148,1945,785,30.6762,-4.12372
728,239,30.8556,4.87939,0.0177393,0.00611056,0.00226404,0.0181646,0.00568532,0.185661,0.0107291,0.0412566,1952,785,30.8557,-4.87941
735,239,31.3584,5.83453,0,0,0,0,0,0,0,-1,1959,785,31.3584,-5.83452
742,239,32.4141,7.6665,0,0,0,0,0,0,0,-1,1966,785,32.4141,-7.6665
749,239,32.1489,3.4411,0,0,0,0,0,0,0,-1,1973,785,32.149,-3.44109
756,239,32.9064,3.6687,0,0,0,0,0,0,0,-1,1980,785,32.9063,-3.66873
763,239,0,0,0,0,0,0,0,0,0,-1,1987,785,0,0
770,239,0,0,0,0,0,0,0,0,0,-1,1994,785,0,0
777,239,0,0,0,0,0,0,0,0,0,-1,2001,785,0,0
784,239,0,0,0,0,0,0,0,0,0,-1,2008,785,0,0
791,239,0,0,0,0,0,0,0,0,0,-1,2015,785,0,0
798,239,0,0,0,0,0,0,0,0,0,-1,2022,785,0,0
805,239,0,0,0,0,0,0,0,0,0,-1,2029,785,0,0
812,239,0,0,0,0,0,0,0,0,0,-1,2036,785,0,0
-700,232,0,0,0,0,0,0,0,0,0,-1,524,792,0,0
-693,232,0,0,0,0,0,0,0,0,0,-1,531,792,0,0
-686,232,0,0,0,0,0,0,0,0,0,-1,538,792,0,0
-679,232,0,0,0,0,0,0,0,0,0,-1,545,792,0,0
-672,232,0,0,0,0,0,0,0,0,0,-1,552,792,0,0
-665,232,0,0,0,0,0,0,0,0,0,-1,559,792,0,0
-658,232,0,0,0,0,0,0,0,0,0,-1,566,792,0,0
-651,232,0,0,0,0,0,0,0,0,0,-1,573,792,0,0
-644,232,-22.5826,0.269348,0,0,0,0,0,0,0,-1,580,792,-22.5826,-0.269357
-637,232,-30.1556,5.06824,0,0,0,0,0,0,0,-1,587,792,-30.1556,-5.06823
-630,232,-32.2345,1.80212,0,0,0,0,0,0,0,-1,594,792,-32.2345,-1.80211
-623,232,-31.5665,1.05115,0,0,0,0,0,0,0,-1,601,792,-31.5664,-1.05112
-616,232,-30.6812,0.432861,0,0,0,0,0,0,0,-1,608,792,-30.6812,-0.432881
-609,232,-29.7142,-0.478943,0,0,0,0,0,0,0,-1,615,792,-29.7142,0.478965
-602,232,-20.9648,3.23309,0,0,0,0,0,0,0,-1,622,792,-20.9648,-3.23311
-595,232,-21.032,2.3988,0.000128522,0.00841262,-0.00812167,0.0133875,-0.00484634,-1.02121,0.0109055,0.0351187,629,792,-21.032,-2.39883
-588,232,-21.1323,1.56293,1.58344e-05,0.00630216,-0.00593058,0.00987102,-0.00355302,-1.02907,0.00803141,0.0132685,636,792,-21.1323,-1.5629
-581,232,-21.1448,0.992737,-7.79014e-05,0.00443163,-0.00410718,0.00686226,-0.00250853,-1.03643,0.00560149,0.00813831,643,792,-21.1449,-0.992726
-574,232,-21.1455,0.522217,-0.000317694,0.00273334,-0.00243399,0.00408037,-0.00166472,-1.06533,0.00341327,0.0083567,650,792,-21.1455,-0.522211
-567,232,-21.179,0.0467529,-0.000628691,0.00117936,-0.000977647,0.00160689,-0.00105623,-1.15854,0.00154847,0.0107854,657,792,-21.179,-0.046743
-560,232,-21.2039,-0.426758,-0.000844081,-0.000146898,0.000318508,-2.32995e-05,-0.00096768,1.20063,0.000637495,0.0147831,664,792,-21.2039,0.426729
-553,232,-21.2226,-0.912964,-0.00118906,-0.00171737,0.00122747,-0.000197638,-0.00270879,0.679414,0.00174372,0.0147886,671,792,-21.2226,0.912975
-546,232,-21.3001,-1.4093,-0.00167886,-0.00326036,0.0014744,-0.000796544,-0.00414267,0.539259,0.00253827,0.0218587,678,792,-21.3001,1.40929
-539,232,-21.3281,-1.87891,-0.00135357,-0.0040276,0.00102794,-0.00100408,-0.00437708,0.327722,0.0026476,0.0297167,685,792,-21.3281,1.87893
-532,232,-21.3331,-2.33734,-0.000350079,-0.0041446,0.000342438,-0.000319423,-0.00417526,0.0892842,0.00268338,0.027826,692,792,-21.3331,2.33737
-525,232,-21.4431,-2.79547,0,0,0,0,0,0,0,-1,699,792,-21.4431,2.79549
-518,232,-20.8098,-3.08154,0,0,0,0,0,0,0,-1,706,792,-20.8098,3.08155
-511,232,-21.6708,-0.962708,0,0,0,0,0,0,0,-1,713,792,-21.6708,0.962731
-504,232,-31.7989,-0.641357,0,0,0,0,0,0,0,-1,720,792,-31.7989,0.641376
-497,232,-33.0378,0.922424,0,0,0,0,0,0,0,-1,727,792,-33.0378,-0.922447
-490,232,-32.8649,1.07501,0.00909415,-0.00207254,-0.00349294,0.0100967,-0.00307512,-0.279515,0.00795679,0.0459625,734,792,-32.8649,-1.07499
-483,232,-32.6274,1.08643,0.0114868,-0.000411094,-0.00362359,0.0125035,-0.00142781,-0.273548,0.00885006,0.0411302,741,792,-32.6275,-1.08642
-476,232,-32.452,1.09778,0.0140106,0.00215624,-0.00327337,0.0148544,0.00131242,-0.25229,0.00949577,0.0345942,748,792,-32.452,-1.09776
-469,232,-32.4158,1.07623,0.0156032,0.00591709,-0.00227042,0.016109,0.00541131,-0.219189,0.00946597,0.0349482,755,792,-32.4158,-1.07624
-462,232,0,0,0,0,0,0,0,0,0,-1,762,792,0,0
-455,232,0,0,0,0,0,0,0,0,0,-1,769,792,0,0
-448,232,0,0,0,0,0,0,0,0,0,-1,776,792,0,0
-441,232,0,0,0,0,0,0,0,0,0,-1,783,792,0,0
-434,232,0,0,0,0,0,0,0,0,0,-1,790,792,0,0
-427,232,0,0,0,0,0,0,0,0,0,-1,797,792,0,0
-420,232,0,0,0,0,0,0,0,0,0,-1,804,792,0,0
-413,232,0,0,0,0,0,0,0,0,0,-1,811,792,0,0
-406,232,0,0,0,0,0,0,0,0,0,-1,818,792,0,0
-399,232,0,0,0,0,0,0,0,0,0,-1,825,792,0,0
-392,232,0,0,0,0,0,0,0,0,0,-1,832,792,0,0
-385,232,0,0,0,0,0,0,0,0,0,-1,839,792,0,0
-378,232,0,0,0,0,0,0,0,0,0,-1,846,792,0,0
-371,232,0,0,0,0,0,0,0,0,0,-1,853,792,0,0
-364,232,0,0,0,0,0,0,0,0,0,-1,860,792,0,0
-357,232,0,0,0,0,0,0,0,0,0,-1,867,792,0,0
-350,232,0,0,0,0,0,0,0,0,0,-1,874,792,0,0
-343,232,0,0,0,0,0,0,0,0,0,-1,881,792,0,0
-336,232,0,0,0,0,0,0,0,0,0,-1,888,792,0,0
-329,232,0,0,0,0,0,0,0,0,0,-1,895,792,0,0
-322,232,0,0,0,0,0,0,0,0,0,-1,902,792,0,0
-315,232,0,0,0,0,0,0,0,0,0,-1,909,792,0,0
-308,232,0,0,0,0,0,0,0,0,0,-1,916,792,0,0
-301,232,0,0,0,0,0,0,0,0,0,-1,923,792,0,0
-294,232,0,0,0,0,0,0,0,0,0,-1,930,792,0,0
-287,232,0,0,0,0,0,0,0,0,0,-1,937,792,0,0
-280,232,0,0,0,0,0,0,0,0,0,-1,944,792,0,0
-273,232,0,0,0,0,0,0,0,0,0,-1,951,792,0,0
-266,232,0,0,0,0,0,0,0,0,0,-1,958,792,0,0
-259,232,0,0,0,0,0,0,0,0,0,-1,965,792,0,0
-252,232,0,0,0,0,0,0,0,0,0,-1,972,792,0,0
-245,232,0,0,0,0,0,0,0,0,0,-1,979,792,0,0
-238,232,0,0,0,0,0,0,0,0,0,-1,986,792,0,0
-231,232,0,0,0,0,0,0,0,0,0,-1,993,792,0,0
-224,232,0,0,0,0,0,0,0,0,0,-1,1000,792,0,0
-217,232,0,0,0,0,0,0,0,0,0,-1,1007,792,0,0
-210,232,0,0,0,0,0,0,0,0,0,-1,1014,792,0,0
-203,232,0,0,0,0,0,0,0,0,0,-1,1021,792,0,0
-196,232,0,0,0,0,0,0,0,0,0,-1,1028,792,0,0
-189,232,0,0,0,0,0,0,0,0,0,-1,1035,792,0,0
-182,232,0,0,0,0,0,0,0,0,0,-1,1042,792,0,0
-175,232,0,0,0,0,0,0,0,0,0,-1,1049,792,0,0
-168,232,0,0,0,0,0,0,0,0,0,-1,1056,792,0,0
-161,232,0,0,0,0,0,0,0,0,0,-1,1063,792,0,0
-154,232,0,0,0,0,0,0,0,0,0,-1,1070,792,0,0
-147,232,0,0,0,0,0,0,0,0,0,-1,1077,792,0,0
-140,232,0,0,0,0,0,0,0,0,0,-1,1084,792,0,0
-133,232,0,0,0,0,0,0,0,0,0,-1,1091,792,0,0
-126,232,0,0,0,0,0,0,0,0,0,-1,1098,792,0,0
-119,232,0,0,0,0,0,0,0,0,0,-1,1105,792,0,0
-112,232,0,0,0,0,0,0,0,0,0,-1,1112,792,0,0
-105,232,0,0,0,0,0,0,0,0,0,-1,1119,792,0,0
-98,232,0,0,0,0,0,0,0,0,0,-1,1126,792,0,0
-91,232,0,0,0,0,0,0,0,0,0,-1,1133,792,0,0
-84,232,0,0,0,0,0,0,0,0,0,-1,1140,792,0,0
-77,232,0,0,0,0,0,0,0,0,0,-1,1147,792,0,0
-70,232,0,0,0,0,0,0,0,0,0,-1,1154,792,0,0
-63,232,0,0,0,0,0,0,0,0,0,-1,1161,792,0,0
-56,232,0,0,0,0,0,0,0,0,0,-1,1168,792,0,0
-49,232,0,0,0,0,0,0,0,0,0,-1,1175,792,0,0
-42,232,0,0,0,0,0,0,0,0,0,-1,1182,792,0,0
-35,232,0,0,0,0,0,0,0,0,0,-1,1189,792,0,0
-28,232,0,0,0,0,0,0,0,0,0,-1,1196,792,0,0
-21,232,0,0,0,0,0,0,0,0,0,-1,1203,792,0,0
-14,232,0,0,0,0,0,0,0,0,0,-1,1210,792,0,0
-7,232,0,0,0,0,0,0,0,0,0,-1,1217,792,0,0
0,232,0,0,0,0,0,0,0,0,0,-1,1224,792,0,0
7,232,0,0,0,0,0,0,0,0,0,-1,1231,792,0,0
14,232,0,0,0,0,0,0,0,0,0,-1,1238,792,0,0
21,232,0,0,0,0,0,0,0,0,0,-1,1245,792,0,0
28,232,0,0,0,0,0,0,0,0,0,-1,1252,792,0,0
35,232,0,0,0,0,0,0,0,0,0,-1,1259,792,0,0
42,232,0,0,0,0,0,0,0,0,0,-1,1266,792,0,0
49,232,0,0,0,0,0,0,0,0,0,-1,1273,792,0,0
56,232,0,0,0,0,0,0,0,0,0,-1,1280,792,0,0
63,232,0,0,0,0,0,0,0,0,0,-1,1287,792,0,0
70,232,0,0,0,0,0,0,0,0,0,-1,1294,792,0,0
77,232,0,0,0,0,0,0,0,0,0,-1,1301,792,0,0
84,232,0,0,0,0,0,0,0,0,0,-1,1308,792,0,0
91,232,0,0,0,0,0,0,0,0,0,-1,1315,792,0,0
98,232,0,0,0,0,0,0,0,0,0,-1,1322,792,0,0
105,232,0,0,0,0,0,0,0,0,0,-1,1329,792,0,0
112,232,0,0,0,0,0,0,0,0,0,-1,1336,792,0,0
119,232,0,0,0,0,0,0,0,0,0,-1,1343,792,0,0
126,232,0,0,0,0,0,0,0,0,0,-1,1350,792,0,0
133,232,0,0,0,0,0,0,0,0,0,-1,1357,792,0,0
140,232,0,0,0,0,0,0,0,0,0,-1,1364,792,0,0
147,232,0,0,0,0,0,0,0,0,0,-1,1371,792,0,0
154,232,0,0,0,0,0,0,0,0,0,-1,1378,792,0,0
161,232,0,0,0,0,0,0,0,0,0,-1,1385,792,0,0
168,232,0,0,0,0,0,0,0,0,0,-1,1392,792,0,0
175,232,0,0,0,0,0,0,0,0,0,-1,1399,792,0,0
182,232,0,0,0,0,0,0,0,0,0,-1,1406,792,0,0
189,232,0,0,0,0,0,0,0,0,0,-1,1413,792,0,0
196,232,0,0,0,0,0,0,0,0,0,-1,1420,792,0,0
203,232,0,0,0,0,0,0,0,0,0,-1,1427,792,0,0
210,232,0,0,0,0,0,0,0,0,0,-1,1434,792,0,0
217,232,0,0,0,0,0,0,0,0,0,-1,1441,792,0,0
224,232,0,0,0,0,0,0,0,0,0,-1,1448,792,0,0
231,232,0,0,0,0,0,0,0,0,0,-1,1455,792,0,0
238,232,0,0,0,0,0,0,0,0,0,-1,1462,792,0,0
245,232,0,0,0,0,0,0,0,0,0,-1,1469,792,0,0
252,232,0,0,0,0,0,0,0,0,0,-1,1476,792,0,0
259,232,0,0,0,0,0,0,0,0,0,-1,1483,792,0,0
266,232,0,0,0,0,0,0,0,0,0,-1,1490,792,0,0
273,232,0,0,0,0,0,0,0,0,0,-1,1497,792,0,0
280,232,0,0,0,0,0,0,0,0,0,-1,1504,792,0,0
287,232,0,0,0,0,0,0,0,0,0,-1,1511,792,0,0
294,232,0,0,0,0,0,0,0,0,0,-1,1518,792,0,0
301,232,0,0,0,0,0,0,0,0,0,-1,1525,792,0,0
308,232,0,0,0,0,0,0,0,0,0,-1,1532,792,0,0
315,232,0,0,0,0,0,0,0,0,0,-1,1539,792,0,0
322,232,0,0,0,0,0,0,0,0,0,-1,1546,792,0,0
329,232,0,0,0,0,0,0,0,0,0,-1,1553,792,0,0
336,232,0,0,0,0,0,0,0,0,0,-1,1560,792,0,0
343,232,0,0,0,0,0,0,0,0,0,-1,1567,792,0,0
350,232,0,0,0,0,0,0,0,0,0,-1,1574,792,0,0
357,232,0,0,0,0,0,0,0,0,0,-1,1581,792,0,0
364,232,0,0,0,0,0,0,0,0,0,-1,1588,792,0,0
371,232,0,0,0,0,0,0,0,0,0,-1,1595,792,0,0
378,232,0,0,0,0,0,0,0,0,0,-1,1602,792,0,0
385,232,0,0,0,0,0,0,0,0,0,-1,1609,792,0,0
392,232,0,0,0,0,0,0,0,0,0,-1,1616,792,0,0
399,232,0,0,0,0,0,0,0,0,0,-1,1623,792,0,0
406,232,0,0,0,0,0,0,0,0,0,-1,1630,792,0,0
413,232,0,0,0,0,0,0,0,0,0,-1,1637,792,0,0
420,232,0,0,0,0,0,0,0,0,0,-1,1644,792,0,0
427,232,0,0,0,0,0,0,0,0,0,-1,1651,792,0,0
434,232,0,0,0,0,0,0,0,0,0,-1,1658,792,0,0
441,232,0,0,0,0,0,0,0,0,0,-1,1665,792,0,0
448,232,0,0,0,0,0,0,0,0,0,-1,1672,792,0,0
455,232,0,0,0,0,0,0,0,0,0,-1,1679,792,0,0
462,232,0,0,0,0,0,0,0,0,0,-1,1686,792,0,0
469,232,0,0,0,0,0,0,0,0,0,-1,1693,792,0,0
476,232,0,0,0,0,0,0,0,0,0,-1,1700,792,0,0
483,232,0,0,0,0,0,0,0,0,0,-1,1707,792,0,0
490,232,0,0,0,0,0,0,0,0,0,-1,1714,792,0,0
497,232,0,0,0,0,0,0,0,0,0,-1,1721,792,0,0
504,232,0,0,0,0,0,0,0,0,0,-1,1728,792,0,0
511,232,0,0,0,0,0,0,0,0,0,-1,1735,792,0,0
518,232,0,0,0,0,0,0,0,0,0,-1,1742,792,0,0
525,232,0,0,0,0,0,0,0,0,0,-1,1749,792,0,0
532,232,0,0,0,0,0,0,0,0,0,-1,1756,792,0,0
539,232,0,0,0,0,0,0,0,0,0,-1,1763,792,0,0
546,232,0,0,0,0,0,0,0,0,0,-1,1770,792,0,0
553,232,0,0,0,0,0,0,0,0,0,-1,1777,792,0,0
560,232,0,0,0,0,0,0,0,0,0,-1,1784,792,0,0
567,232,0,0,0,0,0,0,0,0,0,-1,1791,792,0,0
574,232,0,0,0,0,0,0,0,0,0,-1,1798,792,0,0
581,232,0,0,0,0,0,0,0,0,0,-1,1805,792,0,0
588,232,43.7482,2.87,0.00575677,0.00771806,0.00550233,0.0123265,0.00114838,0.873584,0.00786284,0.0400679,1812,792,43.7482,-2.87002
595,232,43.8027,2.76392,0.00430696,0.0106919,0.00835031,0.0164392,-0.00144036,0.967982,0.0114698,0.0362944,1819,792,43.8027,-2.76392
602,232,43.7976,2.82318,0.00321106,0.0115789,0.00876696,0.0171092,-0.00231917,1.00803,0.0122525,0.0341728,1826,792,43.7977,-2.82318
609,232,43.8416,2.86615,0.00247724,0.0108633,0.00789967,0.0156138,-0.00227323,1.02938,0.0112438,0.0412327,1833,792,43.8415,-2.86615
616,232,43.8356,3.02234,0.00181314,0.00930426,0.00643525,0.0130046,-0.00188722,1.04895,0.00936243,0.0484965,1840,792,43.8356,-3.02231
623,232,43.6276,3.37714,0.0012573,0.00754947,0.00486253,0.0101949,-0.00138816,1.07253,0.00730345,0.0461458,1847,792,43.6275,-3.37711
630,232,43.8337,3.46649,0.000805254,0.00592021,0.00338804,0.00760767,-0.000882211,1.1087,0.00538997,0.0499898,1854,792,43.8337,-3.4665
637,232,44.1359,3.50415,0,0,0,0,0,0,0,-1,1861,792,44.1359,-3.50413
644,232,30.7756,4.24139,0,0,0,0,0,0,0,-1,1868,792,30.7757,-4.24141
651,232,31.6797,-0.564087,0,0,0,0,0,0,0,-1,1875,792,31.6797,0.564059
658,232,31.5012,-0.286987,-0.000459986,0.000479025,-0.00121708,0.00131402,-0.00129498,-0.969485,0.00150632,0.0486362,1882,792,31.5012,0.286984
665,232,31.3658,0.0918579,-0.000809637,0.000218165,-0.0016695,0.00145106,-0.00204254,-0.934705,0.00202664,0.0184376,1889,792,31.3659,-0.0918522
672,232,31.2776,0.59491,-0.00088578,-0.000120309,-0.00185292,0.00138899,-0.00239508,-0.887245,0.00221033,0.020855,1896,792,31.2776,-0.594886
679,232,31.2787,1.09613,-0.000855751,-0.000557463,-0.00161389,0.000914164,-0.00232738,-0.831473,0.00192988,0.0203066,1903,792,31.2787,-1.09613
686,232,31.2788,1.60925,-0.000648295,-0.000607827,-0.00120575,0.000577857,-0.00183398,-0.793788,0.00145406,0.0194997,1910,792,31.2788,-1.60925
693,232,31.288,2.09924,0.000612729,0.000178504,-0.000474552,0.000917476,-0.000126243,-0.570857,0.000657782,0.010471,1917,792,31.288,-2.09926
700,232,31.2766,2.60773,0.00241181,0.00101786,0.000384006,0.0025106,0.000919073,0.251789,0.00146672,0.0117511,1924,792,31.2766,-2.60774
707,232,31.2468,3.11572,0.00476308,0.00200022,0.000942436,0.00505394,0.00170937,0.299346,0.00296837,0.0123958,1931,792,31.2469,-3.11574
714,232,31.2384,3.60797,0.00757168,0.00312447,0.000931962,0.00775909,0.00293706,0.198441,0.00452356,0.0134742,1938,792,31.2384,-3.60794
721,232,31.2188,4.11804,0.010794,0.00424206,0.000762962,0.0108816,0.00415438,0.114409,0.00634078,0.0226403,1945,792,31.2187,-4.11803
728,232,31.1582,4.56665,0.0146191,0.00545732,-0.000282368,0.0146278,0.00544862,-0.0307813,0.00853642,0.04443,1952,792,31.1582,-4.56663
735,232,31.324,5.18219,0,0,0,0,0,0,0,-1,1959,792,31.3239,-5.18219
742,232,25.6461,6.00684,0,0,0,0,0,0,0,-1,1966,792,25.6461,-6.00684
749,232,31.2874,3.74713,0,0,0,0,0,0,0,-1,1973,792,31.2874,-3.74713
756,232,32.1207,3.896,0,0,0,0,0,0,0,-1,1980,792,32.1207,-3.89597
763,232,32.7255,4.05878,0,0,0,0,0,0,0,-1,1987,792,32.7255,-4.05881
770,232,0,0,0,0,0,0,0,0,0,-1,1994,792,0,0
777,232,0,0,0,0,0,0,0,0,0,-1,2001,792,0,0
784,232,0,0,0,0,0,0,0,0,0,-1,2008,792,0,0
791,232,0,0,0,0,0,0,0,0,0,-1,2015,792,0,0
798,232,0,0,0,0,0,0,0,0,0,-1,2022,792,0,0
805,232,0,0,0,0,0,0,0,0,0,-1,2029,792,0,0
812,232,0,0,0,0,0,0,0,0,0,-1,2036,792,0,0
-700,225,0,0,0,0,0,0,0,0,0,-1,524,799,0,0
-693,225,0,0,0,0,0,0,0,0,0,-1,531,799,0,0
-686,225,0,0,0,0,0,0,0,0,0,-1,538,799,0,0
-679,225,0,0,0,0,0,0,0,0,0,-1,545,799,0,0
-672,225,0,0,0,0,0,0,0,0,0,-1,552,799,0,0
-665,225,0,0,0,0,0,0,0,0,0,-1,559,799,0,0
-658,225,0,0,0,0,0,0,0,0,0,-1,566,799,0,0
-651,225,0,0,0,0,0,0,0,0,0,-1,573,799,0,0
-644,225,-29.6308,5.53137,0,0,0,0,0,0,0,-1,580,799,-29.6308,-5.53137
-637,225,-29.8104,5.12939,0,0,0,0,0,0,0,-1,587,799,-29.8104,-5.12942
-630,225,-29.8912,5.02606,0,0,0,0,0,0,0,-1,594,799,-29.8912,-5.02606
-623,225,-32.8276,-0.00836182,0,0,0,0,0,0,0,-1,601,799,-32.8276,0.00837668
-616,225,-32.0569,-0.549255,0,0,0,0,0,0,0,-1,608,799,-32.0569,0.549265
-609,225,-31.5062,-1.30109,0,0,0,0,0,0,0,-1,615,799,-31.5061,1.30108
-602,225,-21.6049,2.90735,0,0,0,0,0,0,0,-1,622,799,-21.6049,-2.90732
-595,225,-21.6329,2.17371,-0.000653116,0.00739541,-0.00617824,0.0107444,-0.00400214,-1.07406,0.00880557,0.0303867,629,799,-21.6329,-2.17372
-588,225,-21.6443,1.48206,-0.000493415,0.00550437,-0.00454673,0.00795215,-0.00294119,-1.07694,0.00650729,0.0126764,636,799,-21.6443,-1.48208
-581,225,-21.6393,0.996094,-0.000451969,0.0037429,-0.00306125,0.00535633,-0.0020654,-1.08574,0.00442312,0.0102676,643,799,-21.6393,-0.996087
-574,225,-21.6408,0.524536,-0.000632436,0.00208801,-0.00161493,0.00283924,-0.00138366,-1.13539,0.0024859,0.00819975,650,799,-21.6408,-0.524523
-567,225,-21.6664,0.0462646,-0.0008816,0.00061158,-0.000392964,0.000708682,-0.000978703,-1.32855,0.000978361,0.0110249,657,799,-21.6664,-0.0462927
-560,225,-21.6884,-0.411865,-0.00100891,-0.000576006,0.000744611,-1.70264e-05,-0.00156789,0.926847,0.00103963,0.0129776,664,799,-21.6884,0.411851
-553,225,-21.7043,-0.909912,-0.00134192,-0.0020641,0.00147019,-0.000189128,-0.00321689,0.664977,0.00208441,0.0123835,671,799,-21.7043,0.909887
-546,225,-21.7796,-1.39624,-0.00191257,-0.00342515,0.0013994,-0.00107817,-0.00425954,0.537661,0.00255722,0.0213348,678,799,-21.7796,1.39624
-539,225,-21.7631,-1.85986,-0.00164041,-0.00400604,0.000696802,-0.00145042,-0.00419602,0.266185,0.00246074,0.0388971,685,799,-21.7631,1.85985
-532,225,-21.8361,-2.25488,-0.000694137,-0.00401906,-7.97094e-05,-0.000692227,-0.00402097,-0.0239549,0.00248229,0.0371547,692,799,-21.8361,2.25491
-525,225,-22.1255,-2.46967,0,0,0,0,0,0,0,-1,699,799,-22.1256,2.46964
-518,225,-21.963,0.171326,0,0,0,0,0,0,0,-1,706,799,-21.9629,-0.171319
-511,225,-30.4065,1.56854,0,0,0,0,0,0,0,-1,713,799,-30.4065,-1.56855
-504,225,-32.5283,0.771973,0,0,0,0,0,0,0,-1,720,799,-32.5283,-0.771988
-497,225,-32.5714,0.817261,0.00544101,-0.00323703,-0.00443429,0.00730602,-0.00510204,-0.398128,0.00720137,0.045861,727,799,-32.5714,-0.817281
-490,225,-32.4961,1.03265,0.00733939,-0.00215344,-0.0052335,0.00965824,-0.00447229,-0.417083,0.00833939,0.0390607,734,799,-32.4961,-1.03264
-483,225,-32.4151,1.11176,0.00935218,-0.000360082,-0.00585479,0.0121027,-0.00311057,-0.439184,0.00928072,0.032202,741,799,-32.4151,-1.11175
-476,225,-32.2771,1.13214,0.0112568,0.00262779,-0.00604381,0.0143681,-0.000483504,-0.47541,0.00974392,0.0300772,748,799,-32.2771,-1.13212
-469,225,-32.2299,1.08209,0.0117081,0.00717659,-0.00568663,0.0155638,0.00332097,-0.595818,0.00946509,0.0360921,755,799,-32.2298,-1.08206
-462,225,0,0,0,0,0,0,0,0,0,-1,762,799,0,0
-455,225,0,0,0,0,0,0,0,0,0,-1,769,799,0,0
-448,225,0,0,0,0,0,0,0,0,0,-1,776,799,0,0
-441,225,0,0,0,0,0,0,0,0,0,-1,783,799,0,0
-434,225,0,0,0,0,0,0,0,0,0,-1,790,799,0,0
-427,225,0,0,0,0,0,0,0,0,0,-1,797,799,0,0
-420,225,0,0,0,0,0,0,0,0,0,-1,804,799,0,0
-413,225,0,0,0,0,0,0,0,0,0,-1,811,799,0,0
-406,225,0,0,0,0,0,0,0,0,0,-1,818,799,0,0
-399,225,0,0,0,0,0,0,0,0,0,-1,825,799,0,0
-392,225,0,0,0,0,0,0,0,0,0,-1,832,799,0,0
-385,225,0,0,0,0,0,0,0,0,0,-1,839,799,0,0
-378,225,0,0,0,0,0,0,0,0,0,-1,846,799,0,0
-371,225,0,0,0,0,0,0,0,0,0,-1,853,799,0,0
-364,225,0,0,0,0,0,0,0,0,0,-1,860,799,0,0
-357,225,0,0,0,0,0,0,0,0,0,-1,867,799,0,0
-350,225,0,0,0,0,0,0,0,0,0,-1,874,799,0,0
-343,225,0,0,0,0,0,0,0,0,0,-1,881,799,0,0
-336,225,0,0,0,0,0,0,0,0,0,-1,888,799,0,0
-329,225,0,0,0,0,0,0,0,0,0,-1,895,799,0,0
-322,225,0,0,0,0,0,0,0,0,0,-1,902,799,0,0
-315,225,0,0,0,0,0,0,0,0,0,-1,909,799,0,0
-308,225,0,0,0,0,0,0,0,0,0,-1,916,799,0,0
-301,225,0,0,0,0,0,0,0,0,0,-1,923,799,0,0
-294,225,0,0,0,0,0,0,0,0,0,-1,930,799,0,0
-287,225,0,0,0,0,0,0,0,0,0,-1,937,799,0,0
-280,225,0,0,0,0,0,0,0,0,0,-1,944,799,0,0
-273,225,0,0,0,0,0,0,0,0,0,-1,951,799,0,0
-266,225,0,0,0,0,0,0,0,0,0,-1,958,799,0,0
-259,225,0,0,0,0,0,0,0,0,0,-1,965,799,0,0
-252,225,0,0,0,0,0,0,0,0,0,-1,972,799,0,0
-245,225,0,0,0,0,0,0,0,0,0,-1,979,799,0,0
-238,225,0,0,0,0,0,0,0,0,0,-1,986,799,0,0
-231,225,0,0,0,0,0,0,0,0,0,-1,993,799,0,0
-224,225,0,0,0,0,0,0,0,0,0,-1,1000,799,0,0
-217,225,0,0,0,0,0,0,0,0,0,-1,1007,799,0,0
-210,225,0,0,0,0,0,0,0,0,0,-1,1014,799,0,0
-203,225,0,0,0,0,0,0,0,0,0,-1,1021,799,0,0
-196,225,0,0,0,0,0,0,0,0,0,-1,1028,799,0,0
-189,225,0,0,0,0,0,0,0,0,0,-1,1035,799,0,0
-182,225,0,0,0,0,0,0,0,0,0,-1,1042,799,0,0
-175,225,0,0,0,0,0,0,0,0,0,-1,1049,799,0,0
-168,225,0,0,0,0,0,0,0,0,0,-1,1056,799,0,0
-161,225,0,0,0,0,0,0,0,0,0,-1,1063,799,0,0
-154,225,0,0,0,0,0,0,0,0,0,-1,1070,799,0,0
-147,225,0,0,0,0,0,0,0,0,0,-1,1077,799,0,0
-140,225,0,0,0,0,0,0,0,0,0,-1,1084,799,0,0
-133,225,0,0,0,0,0,0,0,0,0,-1,1091,799,0,0
-126,225,0,0,0,0,0,0,0,0,0,-1,1098,799,0,0
-119,225,0,0,0,0,0,0,0,0,0,-1,1105,799,0,0
-112,225,0,0,0,0,0,0,0,0,0,-1,1112,799,0,0
-105,225,0,0,0,0,0,0,0,0,0,-1,1119,799,0,0
-98,225,0,0,0,0,0,0,0,0,0,-1,1126,799,0,0
-91,225,0,0,0,0,0,0,0,0,0,-1,1133,799,0,0
-84,225,0,0,0,0,0,0,0,0,0,-1,1140,799,0,0
-77,225,0,0,0,0,0,0,0,0,0,-1,1147,799,0,0
-70,225,0,0,0,0,0,0,0,0,0,-1,1154,799,0,0
-63,225,0,0,0,0,0,0,0,0,0,-1,1161,799,0,0
-56,225,0,0,0,0,0,0,0,0,0,-1,1168,799,0,0
-49,225,0,0,0,0,0,0,0,0,0,-1,1175,799,0,0
-42,225,0,0,0,0,0,0,0,0,0,-1,1182,799,0,0
-35,225,0,0,0,0,0,0,0,0,0,-1,1189,799,0,0
-28,225,0,0,0,0,0,0,0,0,0,-1,1196,799,0,0
-21,225,0,0,0,0,0,0,0,0,0,-1,1203,799,0,0
-14,225,0,0,0,0,0,0,0,0,0,-1,1210,799,0,0
-7,225,0,0,0,0,0,0,0,0,0,-1,1217,799,0,0
0,225,0,0,0,0,0,0,0,0,0,-1,1224,799,0,0
7,225,0,0,0,0,0,0,0,0,0,-1,1231,799,0,0
14,225,0,0,0,0,0,0,0,0,0,-1,1238,799,0,0
21,225,0,0,0,0,0,0,0,0,0,-1,1245,799,0,0
28,225,0,0,0,0,0,0,0,0,0,-1,1252,799,0,0
35,225,0,0,0,0,0,0,0,0,0,-1,1259,799,0,0
42,225,0,0,0,0,0,0,0,0,0,-1,1266,799,0,0
49,225,0,0,0,0,0,0,0,0,0,-1,1273,799,0,0
56,225,0,0,0,0,0,0,0,0,0,-1,1280,799,0,0
63,225,0,0,0,0,0,0,0,0,0,-1,1287,799,0,0
70,225,0,0,0,0,0,0,0,0,0,-1,1294,799,0,0
77,225,0,0,0,0,0,0,0,0,0,-1,1301,799,0,0
84,225,0,0,0,0,0,0,0,0,0,-1,1308,799,0,0
91,225,0,0,0,0,0,0,0,0,0,-1,1315,799,0,0
98,225,0,0,0,0,0,0,0,0,0,-1,1322,799,0,0
105,225,0,0,0,0,0,0,0,0,0,-1,1329,799,0,0
112,225,0,0,0,0,0,0,0,0,0,-1,1336,799,0,0
119,225,0,0,0,0,0,0,0,0,0,-1,1343,799,0,0
126,225,0,0,0,0,0,0,0,0,0,-1,1350,799,0,0
133,225,0,0,0,0,0,0,0,0,0,-1,1357,799,0,0
140,225,0,0,0,0,0,0,0,0,0,-1,1364,799,0,0
147,225,0,0,0,0,0,0,0,0,0,-1,1371,799,0,0
154,225,0,0,0,0,0,0,0,0,0,-1,1378,799,0,0
161,225,0,0,0,0,0,0,0,0,0,-1,1385,799,0,0
168,225,0,0,0,0,0,0,0,0,0,-1,1392,799,0,0
175,225,0,0,0,0,0,0,0,0,0,-1,1399,799,0,0
182,225,0,0,0,0,0,0,0,0,0,-1,1406,799,0,0
189,225,0,0,0,0,0,0,0,0,0,-1,1413,799,0,0
196,225,0,0,0,0,0,0,0,0,0,-1,1420,799,0,0
203,225,0,0,0,0,0,0,0,0,0,-1,1427,799,0,0
210,225,0,0,0,0,0,0,0,0,0,-1,1434,799,0,0
217,225,0,0,0,0,0,0,0,0,0,-1,1441,799,0,0
224,225,0,0,0,0,0,0,0,0,0,-1,1448,799,0,0
231,225,0,0,0,0,0,0,0,0,0,-1,1455,799,0,0
238,225,0,0,0,0,0,0,0,0,0,-1,1462,799,0,0
245,225,0,0,0,0,0,0,0,0,0,-1,1469,799,0,0
252,225,0,0,0,0,0,0,0,0,0,-1,1476,799,0,0
259,225,0,0,0,0,0,0,0,0,0,-1,1483,799,0,0
266,225,0,0,0,0,0,0,0,0,0,-1,1490,799,0,0
273,225,0,0,0,0,0,0,0,0,0,-1,1497,799,0,0
280,225,0,0,0,0,0,0,0,0,0,-1,1504,799,0,0
287,225,0,0,0,0,0,0,0,0,0,-1,1511,799,0,0
294,225,0,0,0,0,0,0,0,0,0,-1,1518,799,0,0
301,225,0,0,0,0,0,0,0,0,0,-1,1525,799,0,0
308,225,0,0,0,0,0,0,0,0,0,-1,1532,799,0,0
315,225,0,0,0,0,0,0,0,0,0,-1,1539,799,0,0
322,225,0,0,0,0,0,0,0,0,0,-1,1546,799,0,0
329,225,0,0,0,0,0,0,0,0,0,-1,1553,799,0,0
336,225,0,0,0,0,0,0,0,0,0,-1,1560,799,0,0
343,225,0,0,0,0,0,0,0,0,0,-1,1567,799,0,0
350,225,0,0,0,0,0,0,0,0,0,-1,1574,799,0,0
357,225,0,0,0,0,0,0,0,0,0,-1,1581,799,0,0
364,225,0,0,0,0,0,0,0,0,0,-1,1588,799,0,0
371,225,0,0,0,0,0,0,0,0,0,-1,1595,799,0,0
378,225,0,0,0,0,0,0,0,0,0,-1,1602,799,0,0
385,225,0,0,0,0,0,0,0,0,0,-1,1609,799,0,0
392,225,0,0,0,0,0,0,0,0,0,-1,1616,799,0,0
399,225,0,0,0,0,0,0,0,0,0,-1,1623,799,0,0
406,225,0,0,0,0,0,0,0,0,0,-1,1630,799,0,0
413,225,0,0,0,0,0,0,0,0,0,-1,1637,799,0,0
420,225,0,0,0,0,0,0,0,0,0,-1,1644,799,0,0
427,225,0,0,0,0,0,0,0,0,0,-1,1651,799,0,0
434,225,0,0,0,0,0,0,0,0,0,-1,1658,799,0,0
441,225,0,0,0,0,0,0,0,0,0,-1,1665,799,0,0
448,225,0,0,0,0,0,0,0,0,0,-1,1672,799,0,0
455,225,0,0,0,0,0,0,0,0,0,-1,1679,799,0,0
462,225,0,0,0,0,0,0,0,0,0,-1,1686,799,0,0
469,225,0,0,0,0,0,0,0,0,0,-1,1693,799,0,0
476,225,0,0,0,0,0,0,0,0,0,-1,1700,799,0,0
483,225,0,0,0,0,0,0,0,0,0,-1,1707,799,0,0
490,225,0,0,0,0,0,0,0,0,0,-1,1714,799,0,0
497,225,0,0,0,0,0,0,0,0,0,-1,1721,799,0,0
504,225,0,0,0,0,0,0,0,0,0,-1,1728,799,0,0
511,225,0,0,0,0,0,0,0,0,0,-1,1735,799,0,0
518,225,0,0,0,0,0,0,0,0,0,-1,1742,799,0,0
525,225,0,0,0,0,0,0,0,0,0,-1,1749,799,0,0
532,225,0,0,0,0,0,0,0,0,0,-1,1756,799,0,0
539,225,0,0,0,0,0,0,0,0,0,-1,1763,799,0,0
546,225,0,0,0,0,0,0,0,0,0,-1,1770,799,0,0
553,225,0,0,0,0,0,0,0,0,0,-1,1777,799,0,0
560,225,0,0,0,0,0,0,0,0,0,-1,1784,799,0,0
567,225,0,0,0,0,0,0,0,0,0,-1,1791,799,0,0
574,225,0,0,0,0,0,0,0,0,0,-1,1798,799,0,0
581,225,0,0,0,0,0,0,0,0,0,-1,1805,799,0,0
588,225,43.7207,2.75629,0.00439547,0.00492821,0.00393463,0.00860547,0.000718209,0.819196,0.0055132,0.0369838,1812,799,43.7207,-2.75626
595,225,43.7211,2.73499,0.00344803,0.00792174,0.00678178,0.012826,-0.00145627,0.944697,0.00907514,0.0331208,1819,799,43.7211,-2.735
602,225,43.7277,2.8313,0.00263597,0.00937685,0.0073937,0.0141321,-0.00211927,0.999253,0.0102015,0.0318215,1826,799,43.7277,-2.83133
609,225,43.7158,2.97064,0.00213883,0.00935764,0.00681139,0.0134568,-0.00196039,1.02904,0.00969102,0.031937,1833,799,43.7158,-2.97061
616,225,43.6967,2.9826,0.00162857,0.00818826,0.00549547,0.0113082,-0.0014914,1.05444,0.00808195,0.0376799,1840,799,43.6967,-2.9826
623,225,43.7267,3.11664,0.00110902,0.00658,0.00393934,0.00864048,-0.00095146,1.08888,0.00610225,0.0405518,1847,799,43.7267,-3.11665
630,225,44.0554,3.16595,0.00068334,0.00508353,0.00255979,0.00625878,-0.000491909,1.14038,0.00434578,0.0428067,1854,799,44.0554,-3.16593
637,225,44.4191,2.99542,0,0,0,0,0,0,0,-1,1861,799,44.4191,-2.9954
644,225,42.9807,2.0943,0,0,0,0,0,0,0,-1,1868,799,42.9807,-2.0943
651,225,27.9657,0.579529,0,0,0,0,0,0,0,-1,1875,799,27.9657,-0.579541
658,225,32.4158,-0.0662842,0,0,0,0,0,0,0,-1,1882,799,32.4158,0.0662568
665,225,32.019,0.243042,-0.000918515,2.93069e-05,-0.00189241,0.00150624,-0.00239545,-0.908089,0.00227206,0.0234635,1889,799,32.019,-0.243063
672,225,31.8066,0.68689,-0.00101904,-0.000283702,-0.00208867,0.00146941,-0.00277215,-0.872521,0.00248707,0.021355,1896,799,31.8067,-0.686902
679,225,31.7859,1.17603,-0.00117926,-0.000707889,-0.00190829,0.000979213,-0.00286636,-0.84684,0.00230764,0.0186608,1903,799,31.7859,-1.176
686,225,31.7866,1.62292,-0.00127339,-0.000855231,-0.00160778,0.000557004,-0.00268563,-0.850057,0.00200208,0.0119709,1910,799,31.7866,-1.62293
693,225,31.7898,2.11304,-0.00028006,-0.000191941,-0.00101087,0.000775825,-0.00124783,-0.807177,0.0011789,0.0107898,1917,799,31.7898,-2.11304
700,225,31.7864,2.62274,0.00125385,0.000586237,-0.000285998,0.00135961,0.000480473,-0.354209,0.000796141,0.0114465,1924,799,31.7863,-2.62275
707,225,31.7465,3.13495,0.00336815,0.00155224,2.93469e-05,0.00336862,0.00155176,0.0161553,0.00194688,0.0121989,1931,799,31.7465,-3.13493
714,225,31.7391,3.63806,0.00592778,0.00270375,-0.000302972,0.00595601,0.00267553,-0.0928895,0.00344461,0.013788,1938,799,31.7391,-3.63804
721,225,31.761,4.12244,0.00881154,0.00383781,-0.000888635,0.00896554,0.00368381,-0.171595,0.00520359,0.0166792,1945,799,31.761,-4.12243
728,225,31.6636,4.48859,0.0121545,0.00504453,-0.0024329,0.0129073,0.00429174,-0.300078,0.0075901,0.0332954,1952,799,31.6636,-4.4886
735,225,31.8804,5.43042,0,0,0,0,0,0,0,-1,1959,799,31.8803,-5.4304
742,225,29.0922,3.2132,0,0,0,0,0,0,0,-1,1966,799,29.0921,-3.21322
749,225,29.9529,4.45538,0,0,0,0,0,0,0,-1,1973,799,29.9529,-4.45537
756,225,31.8855,3.83466,0,0,0,0,0,0,0,-1,1980,799,31.8855,-3.83463
763,225,28.3649,5.54443,0,0,0,0,0,0,0,-1,1987,799,28.3649,-5.54444
770,225,0,0,0,0,0,0,0,0,0,-1,1994,799,0,0
777,225,0,0,0,0,0,0,0,0,0,-1,2001,799,0,0
784,225,0,0,0,0,0,0,0,0,0,-1,2008,799,0,0
791,225,0,0,0,0,0,0,0,0,0,-1,2015,799,0,0
798,225,0,0,0,0,0,0,0,0,0,-1,2022,799,0,0
805,225,0,0,0,0,0,0,0,0,0,-1,2029,799,0,0
812,225,0,0,0,0,0,0,0,0,0,-1,2036,799,0,0
-700,218,0,0,0,0,0,0,0,0,0,-1,524,806,0,0
-693,218,0,0,0,0,0,0,0,0,0,-1,531,806,0,0
-686,218,0,0,0,0,0,0,0,0,0,-1,538,806,0,0
-679,218,0,0,0,0,0,0,0,0,0,-1,545,806,0,0
-672,218,0,0,0,0,0,0,0,0,0,-1,552,806,0,0
-665,218,0,0,0,0,0,0,0,0,0,-1,559,806,0,0
-658,218,0,0,0,0,0,0,0,0,0,-1,566,806,0,0
-651,218,-28.4275,4.52954,0,0,0,0,0,0,0,-1,573,806,-28.4275,-4.52955
-644,218,-29.3491,5.41211,0,0,0,0,0,0,0,-1,580,806,-29.3491,-5.41212
-637,218,-29.4564,5.19836,0,0,0,0,0,0,0,-1,587,806,-29.4564,-5.19835
-630,218,-29.4624,4.92188,0,0,0,0,0,0,0,-1,594,806,-29.4624,-4.92185
-623,218,-29.4469,4.34161,0,0,0,0,0,0,0,-1,601,806,-29.4469,-4.34164
-616,218,-20.0258,1.87585,0,0,0,0,0,0,0,-1,608,806,-20.0258,-1.87585
-609,218,-21.7681,3.29742,0,0,0,0,0,0,0,-1,615,806,-21.7681,-3.29742
-602,218,-21.9918,2.4928,-0.00214221,0.00755786,-0.00514144,0.00977586,-0.00436022,-1.16352,0.00835873,0.04055,622,806,-21.9918,-2.49283
-595,218,-22.1575,1.9848,-0.00138926,0.00615431,-0.0041914,0.00802116,-0.00325611,-1.15177,0.00670188,0.0185946,629,806,-22.1575,-1.98479
-588,218,-22.1389,1.49207,-0.00104015,0.00461429,-0.00304743,0.00594399,-0.00236985,-1.15936,0.00494564,0.0112339,636,806,-22.1389,-1.49208
-581,218,-22.1349,1.01959,-0.000890204,0.00312109,-0.0018813,0.00386533,-0.00163445,-1.19409,0.00326121,0.0107106,643,806,-22.135,-1.01962
-574,218,-22.1498,0.547302,-0.000957714,0.00153136,-0.000663525,0.00169719,-0.00112355,-1.32589,0.00163974,0.0100688,650,806,-22.1498,-0.547295
-567,218,-22.1658,0.0847778,-0.00104637,0.00019136,0.000324645,0.000271343,-0.00112635,1.32924,0.000855809,0.0166588,657,806,-22.1658,-0.0848022
-560,218,-22.1753,-0.386597,-0.000976232,-0.000760825,0.0012593,0.000395364,-0.00213242,0.828058,0.00157008,0.0179849,664,806,-22.1753,0.386617
-553,218,-22.1507,-0.928528,-0.00121398,-0.00200752,0.00177785,0.000210838,-0.00343233,0.67561,0.00236164,0.0181128,671,806,-22.1507,0.928545
-546,218,-22.251,-1.50861,-0.00179654,-0.00300144,0.00144958,-0.000829201,-0.00396878,0.588455,0.00241733,0.020077,678,806,-22.2511,1.5086
-539,218,-22.2754,-1.98627,-0.00160199,-0.00340815,0.000615699,-0.00141208,-0.00359807,0.299196,0.0020933,0.032181,685,806,-22.2754,1.98628
-532,218,-22.3656,-2.1925,-0.00076881,-0.00331988,-0.000187688,-0.000755075,-0.00333361,-0.0730483,0.00201836,0.0386532,692,806,-22.3656,2.19248
-525,218,-22.7153,-2.31781,0,0,0,0,0,0,0,-1,699,806,-22.7153,2.31782
-518,218,-23.61,2.54181,0,0,0,0,0,0,0,-1,706,806,-23.61,-2.54183
-511,218,-32.1041,1.19611,0,0,0,0,0,0,0,-1,713,806,-32.1041,-1.1961
-504,218,-32.2977,1.06885,0.00281669,-0.00307933,-0.00407312,0.00489671,-0.00515935,-0.472146,0.00580653,0.0486313,720,806,-32.2977,-1.06885
-497,218,-32.4433,1.11932,0.0043348,-0.00244565,-0.00528829,0.00722626,-0.00533711,-0.500358,0.00728075,0.0486389,727,806,-32.4433,-1.11931
-490,218,-32.4163,1.12195,0.00592453,-0.00127127,-0.00644413,0.00970712,-0.00505387,-0.530793,0.00866227,0.0366604,734,806,-32.4163,-1.12193
-483,218,-32.3646,1.14764,0.00758649,0.000778261,-0.00754568,0.0124604,-0.00409562,-0.5735,0.00995698,0.0321837,741,806,-32.3646,-1.14765
-476,218,-32.2453,1.19067,0.00882233,0.00433581,-0.00820317,0.0150834,-0.00192529,-0.65193,0.010755,0.0356691,748,806,-32.2453,-1.19066
-469,218,0,0,0,0,0,0,0,0,0,-1,755,806,0,0
-462,218,0,0,0,0,0,0,0,0,0,-1,762,806,0,0
-455,218,0,0,0,0,0,0,0,0,0,-1,769,806,0,0
-448,218,0,0,0,0,0,0,0,0,0,-1,776,806,0,0
-441,218,0,0,0,0,0,0,0,0,0,-1,783,806,0,0
-434,218,0,0,0,0,0,0,0,0,0,-1,790,806,0,0
-427,218,0,0,0,0,0,0,0,0,0,-1,797,806,0,0
-420,218,0,0,0,0,0,0,0,0,0,-1,804,806,0,0
-413,218,0,0,0,0,0,0,0,0,0,-1,811,806,0,0
-406,218,0,0,0,0,0,0,0,0,0,-1,818,806,0,0
-399,218,0,0,0,0,0,0,0,0,0,-1,825,806,0,0
-392,218,0,0,0,0,0,0,0,0,0,-1,832,806,0,0
-385,218,0,0,0,0,0,0,0,0,0,-1,839,806,0,0
-378,218,0,0,0,0,0,0,0,0,0,-1,846,806,0,0
-371,218,0,0,0,0,0,0,0,0,0,-1,853,806,0,0
-364,218,0,0,0,0,0,0,0,0,0,-1,860,806,0,0
-357,218,0,0,0,0,0,0,0,0,0,-1,867,806,0,0
-350,218,0,0,0,0,0,0,0,0,0,-1,874,806,0,0
-343,218,0,0,0,0,0,0,0,0,0,-1,881,806,0,0
-336,218,0,0,0,0,0,0,0,0,0,-1,888,806,0,0
-329,218,0,0,0,0,0,0,0,0,0,-1,895,806,0,0
-322,218,0,0,0,0,0,0,0,0,0,-1,902,806,0,0
-315,218,0,0,0,0,0,0,0,0,0,-1,909,806,0,0
-308,218,0,0,0,0,0,0,0,0,0,-1,916,806,0,0
-301,218,0,0,0,0,0,0,0,0,0,-1,923,806,0,0
-294,218,0,0,0,0,0,0,0,0,0,-1,930,806,0,0
-287,218,0,0,0,0,0,0,0,0,0,-1,937,806,0,0
-280,218,0,0,0,0,0,0,0,0,0,-1,944,806,0,0
-273,218,0,0,0,0,0,0,0,0,0,-1,951,806,0,0
-266,218,0,0,0,0,0,0,0,0,0,-1,958,806,0,0
-259,218,0,0,0,0,0,0,0,0,0,-1,965,806,0,0
-252,218,0,0,0,0,0,0,0,0,0,-1,972,806,0,0
-245,218,0,0,0,0,0,0,0,0,0,-1,979,806,0,0
-238,218,0,0,0,0,0,0,0,0,0,-1,986,806,0,0
-231,218,0,0,0,0,0,0,0,0,0,-1,993,806,0,0
-224,218,0,0,0,0,0,0,0,0,0,-1,1000,806,0,0
-217,218,0,0,0,0,0,0,0,0,0,-1,1007,806,0,0
-210,218,0,0,0,0,0,0,0,0,0,-1,1014,806,0,0
-203,218,0,0,0,0,0,0,0,0,0,-1,1021,806,0,0
-196,218,0,0,0,0,0,0,0,0,0,-1,1028,806,0,0
-189,218,0,0,0,0,0,0,0,0,0,-1,1035,806,0,0
-182,218,0,0,0,0,0,0,0,0,0,-1,1042,806,0,0
-175,218,0,0,0,0,0,0,0,0,0,-1,1049,806,0,0
-168,218,0,0,0,0,0,0,0,0,0,-1,1056,806,0,0
-161,218,0,0,0,0,0,0,0,0,0,-1,1063,806,0,0
-154,218,0,0,0,0,0,0,0,0,0,-1,1070,806,0,0
-147,218,0,0,0,0,0,0,0,0,0,-1,1077,806,0,0
-140,218,0,0,0,0,0,0,0,0,0,-1,1084,806,0,0
-133,218,0,0,0,0,0,0,0,0,0,-1,1091,806,0,0
-126,218,0,0,0,0,0,0,0,0,0,-1,1098,806,0,0
-119,218,0,0,0,0,0,0,0,0,0,-1,1105,806,0,0
-112,218,0,0,0,0,0,0,0,0,0,-1,1112,806,0,0
-105,218,0,0,0,0,0,0,0,0,0,-1,1119,806,0,0
-98,218,0,0,0,0,0,0,0,0,0,-1,1126,806,0,0
-91,218,0,0,0,0,0,0,0,0,0,-1,1133,806,0,0
-84,218,0,0,0,0,0,0,0,0,0,-1,1140,806,0,0
-77,218,0,0,0,0,0,0,0,0,0,-1,1147,806,0,0
-70,218,0,0,0,0,0,0,0,0,0,-1,1154,806,0,0
-63,218,0,0,0,0,0,0,0,0,0,-1,1161,806,0,0
-56,218,0,0,0,0,0,0,0,0,0,-1,1168,806,0,0
-49,218,0,0,0,0,0,0,0,0,0,-1,1175,806,0,0
-42,218,0,0,0,0,0,0,0,0,0,-1,1182,806,0,0
-35,218,0,0,0,0,0,0,0,0,0,-1,1189,806,0,0
-28,218,0,0,0,0,0,0,0,0,0,-1,1196,806,0,0
-21,218,0,0,0,0,0,0,0,0,0,-1,1203,806,0,0
-14,218,0,0,0,0,0,0,0,0,0,-1,1210,806,0,0
-7,218,0,0,0,0,0,0,0,0,0,-1,1217,806,0,0
0,218,0,0,0,0,0,0,0,0,0,-1,1224,806,0,0
7,218,0,0,0,0,0,0,0,0,0,-1,1231,806,0,0
14,218,0,0,0,0,0,0,0,0,0,-1,1238,806,0,0
21,218,0,0,0,0,0,0,0,0,0,-1,1245,806,0,0
28,218,0,0,0,0,0,0,0,0,0,-1,1252,806,0,0
35,218,0,0,0,0,0,0,0,0,0,-1,1259,806,0,0
42,218,0,0,0,0,0,0,0,0,0,-1,1266,806,0,0
49,218,0,0,0,0,0,0,0,0,0,-1,1273,806,0,0
56,218,0,0,0,0,0,0,0,0,0,-1,1280,806,0,0
63,218,0,0,0,0,0,0,0,0,0,-1,1287,806,0,0
70,218,0,0,0,0,0,0,0,0,0,-1,1294,806,0,0
77,218,0,0,0,0,0,0,0,0,0,-1,1301,806,0,0
84,218,0,0,0,0,0,0,0,0,0,-1,1308,806,0,0
91,218,0,0,0,0,0,0,0,0,0,-1,1315,806,0,0
98,218,0,0,0,0,0,0,0,0,0,-1,1322,806,0,0
105,218,0,0,0,0,0,0,0,0,0,-1,1329,806,0,0
112,218,0,0,0,0,0,0,0,0,0,-1,1336,806,0,0
119,218,0,0,0,0,0,0,0,0,0,-1,1343,806,0,0
126,218,0,0,0,0,0,0,0,0,0,-1,1350,806,0,0
133,218,0,0,0,0,0,0,0,0,0,-1,1357,806,0,0
140,218,0,0,0,0,0,0,0,0,0,-1,1364,806,0,0
147,218,0,0,0,0,0,0,0,0,0,-1,1371,806,0,0
154,218,0,0,0,0,0,0,0,0,0,-1,1378,806,0,0
161,218,0,0,0,0,0,0,0,0,0,-1,1385,806,0,0
168,218,0,0,0,0,0,0,0,0,0,-1,1392,806,0,0
175,218,0,0,0,0,0,0,0,0,0,-1,1399,806,0,0
182,218,0,0,0,0,0,0,0,0,0,-1,1406,806,0,0
189,218,0,0,0,0,0,0,0,0,0,-1,1413,806,0,0
196,218,0,0,0,0,0,0,0,0,0,-1,1420,806,0,0
203,218,0,0,0,0,0,0,0,0,0,-1,1427,806,0,0
210,218,0,0,0,0,0,0,0,0,0,-1,1434,806,0,0
217,218,0,0,0,0,0,0,0,0,0,-1,1441,806,0,0
224,218,0,0,0,0,0,0,0,0,0,-1,1448,806,0,0
231,218,0,0,0,0,0,0,0,0,0,-1,1455,806,0,0
238,218,0,0,0,0,0,0,0,0,0,-1,1462,806,0,0
245,218,0,0,0,0,0,0,0,0,0,-1,1469,806,0,0
252,218,0,0,0,0,0,0,0,0,0,-1,1476,806,0,0
259,218,0,0,0,0,0,0,0,0,0,-1,1483,806,0,0
266,218,0,0,0,0,0,0,0,0,0,-1,1490,806,0,0
273,218,0,0,0,0,0,0,0,0,0,-1,1497,806,0,0
280,218,0,0,0,0,0,0,0,0,0,-1,1504,806,0,0
287,218,0,0,0,0,0,0,0,0,0,-1,1511,806,0,0
294,218,0,0,0,0,0,0,0,0,0,-1,1518,806,0,0
301,218,0,0,0,0,0,0,0,0,0,-1,1525,806,0,0
308,218,0,0,0,0,0,0,0,0,0,-1,1532,806,0,0
315,218,0,0,0,0,0,0,0,0,0,-1,1539,806,0,0
322,218,0,0,0,0,0,0,0,0,0,-1,1546,806,0,0
329,218,0,0,0,0,0,0,0,0,0,-1,1553,806,0,0
336,218,0,0,0,0,0,0,0,0,0,-1,1560,806,0,0
343,218,0,0,0,0,0,0,0,0,0,-1,1567,806,0,0
350,218,0,0,0,0,0,0,0,0,0,-1,1574,806,0,0
357,218,0,0,0,0,0,0,0,0,0,-1,1581,806,0,0
364,218,0,0,0,0,0,0,0,0,0,-1,1588,806,0,0
371,218,0,0,0,0,0,0,0,0,0,-1,1595,806,0,0
378,218,0,0,0,0,0,0,0,0,0,-1,1602,806,0,0
385,218,0,0,0,0,0,0,0,0,0,-1,1609,806,0,0
392,218,0,0,0,0,0,0,0,0,0,-1,1616,806,0,0
399,218,0,0,0,0,0,0,0,0,0,-1,1623,806,0,0
406,218,0,0,0,0,0,0,0,0,0,-1,1630,806,0,0
413,218,0,0,0,0,0,0,0,0,0,-1,1637,806,0,0
420,218,0,0,0,0,0,0,0,0,0,-1,1644,806,0,0
427,218,0,0,0,0,0,0,0,0,0,-1,1651,806,0,0
434,218,0,0,0,0,0,0,0,0,0,-1,1658,806,0,0
441,218,0,0,0,0,0,0,0,0,0,-1,1665,806,0,0
448,218,0,0,0,0,0,0,0,0,0,-1,1672,806,0,0
455,218,0,0,0,0,0,0,0,0,0,-1,1679,806,0,0
462,218,0,0,0,0,0,0,0,0,0,-1,1686,806,0,0
469,218,0,0,0,0,0,0,0,0,0,-1,1693,806,0,0
476,218,0,0,0,0,0,0,0,0,0,-1,1700,806,0,0
483,218,0,0,0,0,0,0,0,0,0,-1,1707,806,0,0
490,218,0,0,0,0,0,0,0,0,0,-1,1714,806,0,0
497,218,0,0,0,0,0,0,0,0,0,-1,1721,806,0,0
504,218,0,0,0,0,0,0,0,0,0,-1,1728,806,0,0
511,218,0,0,0,0,0,0,0,0,0,-1,1735,806,0,0
518,218,0,0,0,0,0,0,0,0,0,-1,1742,806,0,0
525,218,0,0,0,0,0,0,0,0,0,-1,1749,806,0,0
532,218,0,0,0,0,0,0,0,0,0,-1,1756,806,0,0
539,218,0,0,0,0,0,0,0,0,0,-1,1763,806,0,0
546,218,0,0,0,0,0,0,0,0,0,-1,1770,806,0,0
553,218,0,0,0,0,0,0,0,0,0,-1,1777,806,0,0
560,218,0,0,0,0,0,0,0,0,0,-1,1784,806,0,0
567,218,0,0,0,0,0,0,0,0,0,-1,1791,806,0,0
574,218,0,0,0,0,0,0,0,0,0,-1,1798,806,0,0
581,218,0,0,0,0,0,0,0,0,0,-1,1805,806,0,0
588,218,0,0,0,0,0,0,0,0,0,-1,1812,806,0,0
595,218,43.6073,2.8913,0.00317053,0.00484464,0.00558157,0.00965157,-0.00163641,0.859827,0.0070435,0.0368405,1819,806,43.6073,-2.89127
602,218,43.6926,2.9201,0.00250091,0.00646977,0.00604573,0.0108484,-0.00187774,0.943977,0.00793263,0.0331156,1826,806,43.6926,-2.9201
609,218,43.7034,3,0.00214129,0.00718,0.00562944,0.0108281,-0.00150683,0.995798,0.00776988,0.0288653,1833,806,43.7034,-3.00001
616,218,43.6869,2.99316,0.00175088,0.00660686,0.00445299,0.00925078,-0.000893036,1.03499,0.00648539,0.0293565,1840,806,43.6869,-2.99316
623,218,43.7185,2.95905,0.00123795,0.0053728,0.00297189,0.00692564,-0.000314896,1.0893,0.00472556,0.0343298,1847,806,43.7186,-2.95907
630,218,43.8663,2.94678,0.000774596,0.00415017,0.0016711,0.00483751,8.72593e-05,1.18058,0.00319631,0.0405762,1854,806,43.8663,-2.94679
637,218,43.8192,2.98761,0.000218335,0.00304341,0.000724106,0.0032182,4.35503e-05,1.33395,0.0021311,0.0457696,1861,806,43.8192,-2.98762
644,218,43.4261,2.85736,0,0,0,0,0,0,0,-1,1868,806,43.4262,-2.85738
651,218,39.4176,1.89734,0,0,0,0,0,0,0,-1,1875,806,39.4176,-1.89733
658,218,28.41,0.514954,0,0,0,0,0,0,0,-1,1882,806,28.41,-0.514983
665,218,32.7561,0.524353,0,0,0,0,0,0,0,-1,1889,806,32.7561,-0.524355
672,218,32.4954,0.758545,-0.00108422,-0.000320175,-0.00231374,0.00164287,-0.00304727,-0.867215,0.00274802,0.0193033,1896,806,32.4954,-0.758539
679,218,32.373,1.19055,-0.00137524,-0.000688781,-0.00213432,0.00112973,-0.00319375,-0.865123,0.00258924,0.0151486,1903,806,32.373,-1.19054
686,218,32.3236,1.61444,-0.00167387,-0.000904825,-0.00187815,0.000627757,-0.00320645,-0.88637,0.00237471,0.0123993,1910,806,32.3236,-1.61444
693,218,32.3104,2.12335,-0.000921349,-0.000393273,-0.00139692,0.000764346,-0.00207897,-0.878803,0.00169907,0.0120383,1917,806,32.3105,-2.12335
700,218,32.2961,2.62817,0.000334773,0.000271988,-0.000807907,0.0011119,-0.000505137,-0.76598,0.000955252,0.00996665,1924,806,32.2961,-2.62818
707,218,32.2478,3.1297,0.00219341,0.00115537,-0.000692328,0.00253966,0.000809113,-0.463751,0.0014981,0.00873396,1931,806,32.2478,-3.12971
714,218,32.2338,3.65808,0.00453106,0.00227163,-0.00127277,0.00510316,0.00169952,-0.422436,0.00300057,0.0112585,1938,806,32.2338,-3.65811
721,218,32.2675,4.12885,0.00718579,0.00336424,-0.002182,0.00817539,0.00237463,-0.425785,0.00485626,0.0144558,1945,806,32.2675,-4.12882
728,218,32.2628,4.63892,0.0102327,0.00450077,-0.00406392,0.0123395,0.00239388,-0.478289,0.00755589,0.0249814,1952,806,32.2629,-4.63894
735,218,32.2948,5.31598,0.0138826,0.0058439,-0.00716558,0.0180792,0.00164738,-0.529801,0.0115429,0.0433474,1959,806,32.2948,-5.316
742,218,32.3933,6.01099,0,0,0,0,0,0,0,-1,1966,806,32.3933,-6.01098
749,218,32.3662,5.508,0,0,0,0,0,0,0,-1,1973,806,32.3662,-5.50799
756,218,32.0544,6.07904,0,0,0,0,0,0,0,-1,1980,806,32.0545,-6.07904
763,218,30.309,4.80762,0,0,0,0,0,0,0,-1,1987,806,30.3089,-4.8076
770,218,0,0,0,0,0,0,0,0,0,-1,1994,806,0,0
777,218,0,0,0,0,0,0,0,0,0,-1,2001,806,0,0
784,218,0,0,0,0,0,0,0,0,0,-1,2008,806,0,0
791,218,0,0,0,0,0,0,0,0,0,-1,2015,806,0,0
798,218,0,0,0,0,0,0,0,0,0,-1,2022,806,0,0
805,218,0,0,0,0,0,0,0,0,0,-1,2029,806,0,0
812,218,0,0,0,0,0,0,0,0,0,-1,2036,806,0,0
-700,211,0,0,0,0,0,0,0,0,0,-1,524,813,0,0
-693,211,0,0,0,0,0,0,0,0,0,-1,531,813,0,0
-686,211,0,0,0,0,0,0,0,0,0,-1,538,813,0,0
-679,211,0,0,0,0,0,0,0,0,0,-1,545,813,0,0
-672,211,0,0,0,0,0,0,0,0,0,-1,552,813,0,0
-665,211,0,0,0,0,0,0,0,0,0,-1,559,813,0,0
-658,211,0,0,0,0,0,0,0,0,0,-1,566,813,0,0
-651,211,-28.3679,4.91919,0,0,0,0,0,0,0,-1,573,813,-28.3679,-4.91921
-644,211,-28.9889,5.26971,0,0,0,0,0,0,0,-1,580,813,-28.9889,-5.2697
-637,211,-28.8499,5.59167,0,0,0,0,0,0,0,-1,587,813,-28.8499,-5.59169
-630,211,-23.4659,5.23889,0,0,0,0,0,0,0,-1,594,813,-23.4659,-5.23892
-623,211,-23.3645,3.88855,0,0,0,0,0,0,0,-1,601,813,-23.3645,-3.88856
-616,211,-22.2322,3.91321,0,0,0,0,0,0,0,-1,608,813,-22.2323,-3.91323
-609,211,-22.3561,3.1861,-0.00369827,0.00665032,-0.002993,0.0074536,-0.00450155,-1.30859,0.0069721,0.0402134,615,813,-22.3561,-3.18611
-602,211,-22.5145,2.46082,-0.00254687,0.00592497,-0.00306018,0.00691473,-0.00353663,-1.25798,0.00613826,0.0212263,622,813,-22.5145,-2.46083
-595,211,-22.6094,1.97986,-0.00186755,0.00484462,-0.0025143,0.00568199,-0.00270492,-1.24931,0.00494282,0.0114,629,813,-22.6095,-1.97988
-588,211,-22.6154,1.495,-0.00145435,0.00347649,-0.00171723,0.0040156,-0.00199346,-1.2666,0.00353421,0.010663,636,813,-22.6153,-1.49498
-581,211,-22.6218,1.03455,-0.00122695,0.0022677,-0.00079465,0.00243991,-0.00139916,-1.35739,0.00224347,0.011846,643,813,-22.6218,-1.03452
-574,211,-22.6548,0.579285,-0.00117662,0.000781324,0.000159707,0.000794266,-0.00118956,1.48994,0.00115292,0.0134281,650,813,-22.6548,-0.579308
-567,211,-22.6655,0.109192,-0.00109204,-0.000354268,0.000827714,0.00018304,-0.00162935,0.995021,0.0011521,0.0196343,657,813,-22.6655,-0.10922
-560,211,-22.706,-0.377014,-0.000826698,-0.00101295,0.00149789,0.000580957,-0.0024206,0.754353,0.00183825,0.0233036,664,813,-22.706,0.37699
-553,211,-22.5634,-0.882996,-0.000982557,-0.00195498,0.00180908,0.000404513,-0.00334205,0.654119,0.00237439,0.0318457,671,813,-22.5634,0.883023
-546,211,-22.8596,-1.25385,-0.00158268,-0.00255933,0.00129671,-0.00068539,-0.00345662,0.605317,0.00211333,0.0419249,678,813,-22.8596,1.25382
-539,211,-22.8022,-1.78516,-0.00149911,-0.00280526,0.000404462,-0.00138401,-0.00292036,0.277252,0.00168683,0.0272198,685,813,-22.8022,1.78516
-532,211,-22.7108,-2.42267,0,0,0,0,0,0,0,-1,692,813,-22.7108,2.42265
-525,211,-14.3009,2.3233,0,0,0,0,0,0,0,-1,699,813,-14.3009,-2.3233
-518,211,-31.8486,1.43695,0,0,0,0,0,0,0,-1,706,813,-31.8486,-1.43695
-511,211,-31.939,1.48413,0,0,0,0,0,0,0,-1,713,813,-31.9389,-1.48416
-504,211,-32.0978,1.42584,0.00187998,-0.00190052,-0.00471851,0.00507278,-0.00509332,-0.594885,0.0058694,0.0460314,720,813,-32.0978,-1.42586
-497,211,-32.1204,1.36804,0.00312811,-0.0010928,-0.00621997,0.00758592,-0.00555061,-0.621841,0.00761466,0.0465349,727,813,-32.1204,-1.36806
-490,211,-32.3976,1.09814,0.00439794,0.000392663,-0.00773073,0.0103812,-0.00559061,-0.65866,0.00935858,0.0356967,734,813,-32.3976,-1.09816
-483,211,-32.3036,1.12793,0.00578171,0.00301101,-0.00926993,0.0137692,-0.00497652,-0.711224,0.0112127,0.0328612,741,813,-32.3036,-1.12795
-476,211,-32.2232,1.20856,0.00660442,0.00750298,-0.0101304,0.0171941,-0.00308669,-0.807558,0.0126181,0.0364658,748,813,-32.2232,-1.20857
-469,211,0,0,0,0,0,0,0,0,0,-1,755,813,0,0
-462,211,0,0,0,0,0,0,0,0,0,-1,762,813,0,0
-455,211,0,0,0,0,0,0,0,0,0,-1,769,813,0,0
-448,211,0,0,0,0,0,0,0,0,0,-1,776,813,0,0
-441,211,0,0,0,0,0,0,0,0,0,-1,783,813,0,0
-434,211,0,0,0,0,0,0,0,0,0,-1,790,813,0,0
-427,211,0,0,0,0,0,0,0,0,0,-1,797,813,0,0
-420,211,0,0,0,0,0,0,0,0,0,-1,804,813,0,0
-413,211,0,0,0,0,0,0,0,0,0,-1,811,813,0,0
-406,211,0,0,0,0,0,0,0,0,0,-1,818,813,0,0
-399,211,0,0,0,0,0,0,0,0,0,-1,825,813,0,0
-392,211,0,0,0,0,0,0,0,0,0,-1,832,813,0,0
-385,211,0,0,0,0,0,0,0,0,0,-1,839,813,0,0
-378,211,0,0,0,0,0,0,0,0,0,-1,846,813,0,0
-371,211,0,0,0,0,0,0,0,0,0,-1,853,813,0,0
-364,211,0,0,0,0,0,0,0,0,0,-1,860,813,0,0
-357,211,0,0,0,0,0,0,0,0,0,-1,867,813,0,0
-350,211,0,0,0,0,0,0,0,0,0,-1,874,813,0,0
-343,211,0,0,0,0,0,0,0,0,0,-1,881,813,0,0
-336,211,0,0,0,0,0,0,0,0,0,-1,888,813,0,0
-329,211,0,0,0,0,0,0,0,0,0,-1,895,813,0,0
-322,211,0,0,0,0,0,0,0,0,0,-1,902,813,0,0
-315,211,0,0,0,0,0,0,0,0,0,-1,909,813,0,0
-308,211,0,0,0,0,0,0,0,0,0,-1,916,813,0,0
-301,211,0,0,0,0,0,0,0,0,0,-1,923,813,0,0
-294,211,0,0,0,0,0,0,0,0,0,-1,930,813,0,0
-287,211,0,0,0,0,0,0,0,0,0,-1,937,813,0,0
-280,211,0,0,0,0,0,0,0,0,0,-1,944,813,0,0
-273,211,0,0,0,0,0,0,0,0,0,-1,951,813,0,0
-266,211,0,0,0,0,0,0,0,0,0,-1,958,813,0,0
-259,211,0,0,0,0,0,0,0,0,0,-1,965,813,0,0
-252,211,0,0,0,0,0,0,0,0,0,-1,972,813,0,0
-245,211,0,0,0,0,0,0,0,0,0,-1,979,813,0,0
-238,211,0,0,0,0,0,0,0,0,0,-1,986,813,0,0
-231,211,0,0,0,0,0,0,0,0,0,-1,993,813,0,0
-224,211,0,0,0,0,0,0,0,0,0,-1,1000,813,0,0
-217,211,0,0,0,0,0,0,0,0,0,-1,1007,813,0,0
-210,211,0,0,0,0,0,0,0,0,0,-1,1014,813,0,0
-203,211,0,0,0,0,0,0,0,0,0,-1,1021,813,0,0
-196,211,0,0,0,0,0,0,0,0,0,-1,1028,813,0,0
-189,211,0,0,0,0,0,0,0,0,0,-1,1035,813,0,0
-182,211,0,0,0,0,0,0,0,0,0,-1,1042,813,0,0
-175,211,0,0,0,0,0,0,0,0,0,-1,1049,813,0,0
-168,211,0,0,0,0,0,0,0,0,0,-1,1056,813,0,0
-161,211,0,0,0,0,0,0,0,0,0,-1,1063,813,0,0
-154,211,0,0,0,0,0,0,0,0,0,-1,1070,813,0,0
-147,211,0,0,0,0,0,0,0,0,0,-1,1077,813,0,0
-140,211,0,0,0,0,0,0,0,0,0,-1,1084,813,0,0
-133,211,0,0,0,0,0,0,0,0,0,-1,1091,813,0,0
-126,211,0,0,0,0,0,0,0,0,0,-1,1098,813,0,0
-119,211,0,0,0,0,0,0,0,0,0,-1,1105,813,0,0
-112,211,0,0,0,0,0,0,0,0,0,-1,1112,813,0,0
-105,211,0,0,0,0,0,0,0,0,0,-1,1119,813,0,0
-98,211,0,0,0,0,0,0,0,0,0,-1,1126,813,0,0
-91,211,0,0,0,0,0,0,0,0,0,-1,1133,813,0,0
-84,211,0,0,0,0,0,0,0,0,0,-1,1140,813,0,0
-77,211,0,0,0,0,0,0,0,0,0,-1,1147,813,0,0
-70,211,0,0,0,0,0,0,0,0,0,-1,1154,813,0,0
-63,211,0,0,0,0,0,0,0,0,0,-1,1161,813,0,0
-56,211,0,0,0,0,0,0,0,0,0,-1,1168,813,0,0
-49,211,0,0,0,0,0,0,0,0,0,-1,1175,813,0,0
-42,211,0,0,0,0,0,0,0,0,0,-1,1182,813,0,0
-35,211,0,0,0,0,0,0,0,0,0,-1,1189,813,0,0
-28,211,0,0,0,0,0,0,0,0,0,-1,1196,813,0,0
-21,211,0,0,0,0,0,0,0,0,0,-1,1203,813,0,0
-14,211,0,0,0,0,0,0,0,0,0,-1,1210,813,0,0
-7,211,0,0,0,0,0,0,0,0,0,-1,1217,813,0,0
0,211,0,0,0,0,0,0,0,0,0,-1,1224,813,0,0
7,211,0,0,0,0,0,0,0,0,0,-1,1231,813,0,0
14,211,0,0,0,0,0,0,0,0,0,-1,1238,813,0,0
21,211,0,0,0,0,0,0,0,0,0,-1,1245,813,0,0
28,211,0,0,0,0,0,0,0,0,0,-1,1252,813,0,0
35,211,0,0,0,0,0,0,0,0,0,-1,1259,813,0,0
42,211,0,0,0,0,0,0,0,0,0,-1,1266,813,0,0
49,211,0,0,0,0,0,0,0,0,0,-1,1273,813,0,0
56,211,0,0,0,0,0,0,0,0,0,-1,1280,813,0,0
63,211,0,0,0,0,0,0,0,0,0,-1,1287,813,0,0
70,211,0,0,0,0,0,0,0,0,0,-1,1294,813,0,0
77,211,0,0,0,0,0,0,0,0,0,-1,1301,813,0,0
84,211,0,0,0,0,0,0,0,0,0,-1,1308,813,0,0
91,211,0,0,0,0,0,0,0,0,0,-1,1315,813,0,0
98,211,0,0,0,0,0,0,0,0,0,-1,1322,813,0,0
105,211,0,0,0,0,0,0,0,0,0,-1,1329,813,0,0
112,211,0,0,0,0,0,0,0,0,0,-1,1336,813,0,0
119,211,0,0,0,0,0,0,0,0,0,-1,1343,813,0,0
126,211,0,0,0,0,0,0,0,0,0,-1,1350,813,0,0
133,211,0,0,0,0,0,0,0,0,0,-1,1357,813,0,0
140,211,0,0,0,0,0,0,0,0,0,-1,1364,813,0,0
147,211,0,0,0,0,0,0,0,0,0,-1,1371,813,0,0
154,211,0,0,0,0,0,0,0,0,0,-1,1378,813,0,0
161,211,0,0,0,0,0,0,0,0,0,-1,1385,813,0,0
168,211,0,0,0,0,0,0,0,0,0,-1,1392,813,0,0
175,211,0,0,0,0,0,0,0,0,0,-1,1399,813,0,0
182,211,0,0,0,0,0,0,0,0,0,-1,1406,813,0,0
189,211,0,0,0,0,0,0,0,0,0,-1,1413,813,0,0
196,211,0,0,0,0,0,0,0,0,0,-1,1420,813,0,0
203,211,0,0,0,0,0,0,0,0,0,-1,1427,813,0,0
210,211,0,0,0,0,0,0,0,0,0,-1,1434,813,0,0
217,211,0,0,0,0,0,0,0,0,0,-1,1441,813,0,0
224,211,0,0,0,0,0,0,0,0,0,-1,1448,813,0,0
231,211,0,0,0,0,0,0,0,0,0,-1,1455,813,0,0
238,211,0,0,0,0,0,0,0,0,0,-1,1462,813,0,0
245,211,0,0,0,0,0,0,0,0,0,-1,1469,813,0,0
252,211,0,0,0,0,0,0,0,0,0,-1,1476,813,0,0
259,211,0,0,0,0,0,0,0,0,0,-1,1483,813,0,0
266,211,0,0,0,0,0,0,0,0,0,-1,1490,813,0,0
273,211,0,0,0,0,0,0,0,0,0,-1,1497,813,0,0
280,211,0,0,0,0,0,0,0,0,0,-1,1504,813,0,0
287,211,0,0,0,0,0,0,0,0,0,-1,1511,813,0,0
294,211,0,0,0,0,0,0,0,0,0,-1,1518,813,0,0
301,211,0,0,0,0,0,0,0,0,0,-1,1525,813,0,0
308,211,0,0,0,0,0,0,0,0,0,-1,1532,813,0,0
315,211,0,0,0,0,0,0,0,0,0,-1,1539,813,0,0
322,211,0,0,0,0,0,0,0,0,0,-1,1546,813,0,0
329,211,0,0,0,0,0,0,0,0,0,-1,1553,813,0,0
336,211,0,0,0,0,0,0,0,0,0,-1,1560,813,0,0
343,211,0,0,0,0,0,0,0,0,0,-1,1567,813,0,0
350,211,0,0,0,0,0,0,0,0,0,-1,1574,813,0,0
357,211,0,0,0,0,0,0,0,0,0,-1,1581,813,0,0
364,211,0,0,0,0,0,0,0,0,0,-1,1588,813,0,0
371,211,0,0,0,0,0,0,0,0,0,-1,1595,813,0,0
378,211,0,0,0,0,0,0,0,0,0,-1,1602,813,0,0
385,211,0,0,0,0,0,0,0,0,0,-1,1609,813,0,0
392,211,0,0,0,0,0,0,0,0,0,-1,1616,813,0,0
399,211,0,0,0,0,0,0,0,0,0,-1,1623,813,0,0
406,211,0,0,0,0,0,0,0,0,0,-1,1630,813,0,0
413,211,0,0,0,0,0,0,0,0,0,-1,1637,813,0,0
420,211,0,0,0,0,0,0,0,0,0,-1,1644,813,0,0
427,211,0,0,0,0,0,0,0,0,0,-1,1651,813,0,0
434,211,0,0,0,0,0,0,0,0,0,-1,1658,813,0,0
441,211,0,0,0,0,0,0,0,0,0,-1,1665,813,0,0
448,211,0,0,0,0,0,0,0,0,0,-1,1672,813,0,0
455,211,0,0,0,0,0,0,0,0,0,-1,1679,813,0,0
462,211,0,0,0,0,0,0,0,0,0,-1,1686,813,0,0
469,211,0,0,0,0,0,0,0,0,0,-1,1693,813,0,0
476,211,0,0,0,0,0,0,0,0,0,-1,1700,813,0,0
483,211,0,0,0,0,0,0,0,0,0,-1,1707,813,0,0
490,211,0,0,0,0,0,0,0,0,0,-1,1714,813,0,0
497,211,0,0,0,0,0,0,0,0,0,-1,1721,813,0,0
504,211,0,0,0,0,0,0,0,0,0,-1,1728,813,0,0
511,211,0,0,0,0,0,0,0,0,0,-1,1735,813,0,0
518,211,0,0,0,0,0,0,0,0,0,-1,1742,813,0,0
525,211,0,0,0,0,0,0,0,0,0,-1,1749,813,0,0
532,211,0,0,0,0,0,0,0,0,0,-1,1756,813,0,0
539,211,0,0,0,0,0,0,0,0,0,-1,1763,813,0,0
546,211,0,0,0,0,0,0,0,0,0,-1,1770,813,0,0
553,211,0,0,0,0,0,0,0,0,0,-1,1777,813,0,0
560,211,0,0,0,0,0,0,0,0,0,-1,1784,813,0,0
567,211,0,0,0,0,0,0,0,0,0,-1,1791,813,0,0
574,211,0,0,0,0,0,0,0,0,0,-1,1798,813,0,0
581,211,0,0,0,0,0,0,0,0,0,-1,1805,813,0,0
588,211,0,0,0,0,0,0,0,0,0,-1,1812,813,0,0
595,211,43.7314,2.81537,0.0022669,0.00307787,0.00499249,0.00768131,-0.00233654,0.825919,0.00605199,0.0393725,1819,813,43.7315,-2.81536
602,211,43.7509,2.90698,0.00184332,0.00435006,0.0051296,0.0083772,-0.00218381,0.905221,0.00643742,0.0366697,1826,813,43.7508,-2.90696
609,211,43.7601,3.02081,0.00175519,0.00537417,0.00475199,0.00864953,-0.00152017,0.967315,0.00633417,0.0357149,1833,813,43.7602,-3.02082
616,211,43.7634,2.99969,0.00164216,0.00529212,0.00368426,0.00757863,-0.000644341,1.01536,0.00528032,0.0293434,1840,813,43.7634,-2.99967
623,211,43.7496,2.91321,0.00126415,0.00446351,0.00227561,0.00564544,8.22181e-05,1.09176,0.00373652,0.0305226,1847,813,43.7497,-2.91321
630,211,43.7566,2.92944,0.000827408,0.00354236,0.00102703,0.0038871,0.00048267,1.24695,0.00244643,0.0373311,1854,813,43.7566,-2.92946
637,211,43.7568,2.98041,0.000302775,0.00260923,0.000126834,0.00261618,0.000295821,1.51603,0.00165436,0.0438969,1861,813,43.7569,-2.98041
644,211,43.5079,2.84009,-0.000201577,0.00169992,-0.00055743,0.00185128,-0.00035294,-1.30565,0.00136711,0.0470127,1868,813,43.508,-2.8401
651,211,43.3656,2.7641,0,0,0,0,0,0,0,-1,1875,813,43.3655,-2.76412
658,211,27.7909,1.52234,0,0,0,0,0,0,0,-1,1882,813,27.7909,-1.52234
665,211,33.254,0.515686,0,0,0,0,0,0,0,-1,1889,813,33.254,-0.515694
672,211,33.1011,0.808655,-0.0010888,-0.000265702,-0.00241746,0.00177499,-0.00312949,-0.869709,0.00286738,0.0360228,1896,813,33.1011,-0.808671
679,211,32.9534,1.19012,-0.00143701,-0.00064008,-0.00225134,0.00124779,-0.00332488,-0.872986,0.00272931,0.0200333,1903,813,32.9534,-1.19015
686,211,32.829,1.65137,-0.00187501,-0.000945172,-0.00204687,0.000688912,-0.0035091,-0.897072,0.00259964,0.0116705,1910,813,32.8289,-1.65135
693,211,32.8058,2.14374,-0.00136881,-0.000608349,-0.00170017,0.000753593,-0.00273075,-0.895409,0.00211689,0.0116903,1917,813,32.8057,-2.14376
700,211,32.7145,2.61566,-0.000427461,-7.91738e-05,-0.00125761,0.00101629,-0.00152293,-0.854196,0.00147572,0.0142,1924,813,32.7145,-2.61564
707,211,32.6987,3.15393,0.0010794,0.000677517,-0.00129046,0.00218446,-0.000427551,-0.708162,0.00161777,0.0223687,1931,813,32.6988,-3.15392
714,211,32.7533,3.70239,0.00314972,0.00173429,-0.0020245,0.00458664,0.000297373,-0.617249,0.00296361,0.0222093,1938,813,32.7533,-3.70239
721,211,32.762,4.13416,0.00559439,0.00277175,-0.00315173,0.00763637,0.000729772,-0.57489,0.00486593,0.017519,1945,813,32.762,-4.13417
728,211,32.7874,4.60236,0.00840761,0.00382733,-0.0052198,0.0118176,0.000417376,-0.578672,0.007743,0.0167228,1952,813,32.7874,-4.60235
735,211,32.7762,5.19128,0.0117542,0.00500501,-0.00849027,0.0175159,-0.000756727,-0.596238,0.0119375,0.0278567,1959,813,32.7762,-5.19125
742,211,32.7139,5.83429,0.0160273,0.00622222,-0.0135554,0.0255395,-0.00328994,-0.611882,0.0182222,0.0490624,1966,813,32.7139,-5.83427
749,211,32.5939,6.32281,0,0,0,0,0,0,0,-1,1973,813,32.5939,-6.32282
756,211,32.7347,5.6861,0,0,0,0,0,0,0,-1,1980,813,32.7347,-5.68611
763,211,32.7396,5.59515,0,0,0,0,0,0,0,-1,1987,813,32.7397,-5.59516
770,211,27.9138,9.25177,0,0,0,0,0,0,0,-1,1994,813,27.9139,-9.25176
777,211,0,0,0,0,0,0,0,0,0,-1,2001,813,0,0
784,211,0,0,0,0,0,0,0,0,0,-1,2008,813,0,0
791,211,0,0,0,0,0,0,0,0,0,-1,2015,813,0,0
798,211,0,0,0,0,0,0,0,0,0,-1,2022,813,0,0
805,211,0,0,0,0,0,0,0,0,0,-1,2029,813,0,0
812,211,0,0,0,0,0,0,0,0,0,-1,2036,813,0,0
-700,204,0,0,0,0,0,0,0,0,0,-1,524,820,0,0
-693,204,0,0,0,0,0,0,0,0,0,-1,531,820,0,0
-686,204,0,0,0,0,0,0,0,0,0,-1,538,820,0,0
-679,204,0,0,0,0,0,0,0,0,0,-1,545,820,0,0
-672,204,0,0,0,0,0,0,0,0,0,-1,552,820,0,0
-665,204,0,0,0,0,0,0,0,0,0,-1,559,820,0,0
-658,204,0,0,0,0,0,0,0,0,0,-1,566,820,0,0
-651,204,-28.0945,5.4165,0,0,0,0,0,0,0,-1,573,820,-28.0946,-5.41648
-644,204,-28.4984,5.17474,0,0,0,0,0,0,0,-1,580,820,-28.4984,-5.17472
-637,204,-23.5079,6.01385,0,0,0,0,0,0,0,-1,587,820,-23.5079,-6.01387
-630,204,-23.4531,5.08942,0,0,0,0,0,0,0,-1,594,820,-23.453,-5.08941
-623,204,-23.3981,4.16498,0,0,0,0,0,0,0,-1,601,820,-23.3981,-4.16495
-616,204,-22.8473,3.75464,0,0,0,0,0,0,0,-1,608,820,-22.8473,-3.75465
-609,204,-22.9331,3.07886,-0.00331116,0.00523516,-0.000912469,0.0053315,-0.0034075,-1.46561,0.00508606,0.0346755,615,820,-22.9331,-3.07888
-602,204,-23.0549,2.4361,-0.00280109,0.00464341,-0.00103595,0.00478488,-0.00294256,-1.43507,0.0045035,0.0166527,622,820,-23.0549,-2.43611
-595,204,-23.1024,1.9613,-0.00220175,0.00371194,-0.00092581,0.00385349,-0.0023433,-1.41908,0.00361296,0.0155247,629,820,-23.1024,-1.96132
-588,204,-23.1008,1.48712,-0.00174802,0.00243966,-0.000507711,0.00250033,-0.00180869,-1.45185,0.00249848,0.012625,636,820,-23.1008,-1.48714
-581,204,-23.1022,1.02496,-0.00145293,0.00136502,0.000100973,0.00136864,-0.00145654,1.53503,0.00163138,0.0128527,643,820,-23.1022,-1.02496
-574,204,-23.1218,0.564514,-0.00131291,-1.25452e-05,0.000714121,0.000303039,-0.00162849,1.15468,0.0011995,0.013828,650,820,-23.1217,-0.564517
-567,204,-23.1132,0.117249,-0.00108705,-0.00092277,0.00102,1.83862e-05,-0.00202821,0.825577,0.00135831,0.01323,657,820,-23.1132,-0.117276
-560,204,-23.1199,-0.360474,-0.000677135,-0.00129363,0.00142293,0.000470549,-0.00244131,0.678732,0.00180495,0.0157646,664,820,-23.1199,0.360465
-553,204,-23.1817,-0.755127,-0.000781718,-0.00198718,0.00157219,0.000299316,-0.00306821,0.602354,0.00215219,0.0193705,671,820,-23.1817,0.755117
-546,204,-23.2941,-1.14063,-0.00139824,-0.0022738,0.000960042,-0.000780876,-0.00289117,0.571482,0.00172704,0.024049,678,820,-23.2941,1.14063
-539,204,-23.2012,-1.66705,-0.00142676,-0.00239491,5.71431e-05,-0.0014234,-0.00239827,0.0587513,0.00139269,0.0433015,685,820,-23.2012,1.66708
-532,204,-23.0874,-2.42548,0,0,0,0,0,0,0,-1,692,820,-23.0874,2.4255
-525,204,-25.7137,1.52496,0,0,0,0,0,0,0,-1,699,820,-25.7137,-1.52496
-518,204,-32.393,1.24792,0,0,0,0,0,0,0,-1,706,820,-32.393,-1.24794
-511,204,-31.8356,1.54187,0,0,0,0,0,0,0,-1,713,820,-31.8356,-1.54189
-504,204,-31.9277,1.63574,0.00106011,-0.000873174,-0.00529203,0.00547306,-0.00528612,-0.695064,0.00621213,0.0485775,720,820,-31.9276,-1.63577
-497,204,-32.1169,1.30536,0.00206157,0.000153062,-0.00704196,0.00821363,-0.005999,-0.718054,0.00823881,0.0400131,727,820,-32.1169,-1.30535
-490,204,-32.3232,0.918091,0.00304817,0.00203847,-0.00891111,0.0114687,-0.00638208,-0.757101,0.0104447,0.0365787,734,820,-32.3232,-0.918089
-483,204,-32.172,0.888489,0.00421696,0.00538159,-0.0109788,0.0157936,-0.00619501,-0.811893,0.0130921,0.0418782,741,820,-32.172,-0.888467
-476,204,0,0,0,0,0,0,0,0,0,-1,748,820,0,0
-469,204,0,0,0,0,0,0,0,0,0,-1,755,820,0,0
-462,204,0,0,0,0,0,0,0,0,0,-1,762,820,0,0
-455,204,0,0,0,0,0,0,0,0,0,-1,769,820,0,0
-448,204,0,0,0,0,0,0,0,0,0,-1,776,820,0,0
-441,204,0,0,0,0,0,0,0,0,0,-1,783,820,0,0
-434,204,0,0,0,0,0,0,0,0,0,-1,790,820,0,0
-427,204,0,0,0,0,0,0,0,0,0,-1,797,820,0,0
-420,204,0,0,0,0,0,0,0,0,0,-1,804,820,0,0
-413,204,0,0,0,0,0,0,0,0,0,-1,811,820,0,0
-406,204,0,0,0,0,0,0,0,0,0,-1,818,820,0,0
-399,204,0,0,0,0,0,0,0,0,0,-1,825,820,0,0
-392,204,0,0,0,0,0,0,0,0,0,-1,832,820,0,0
-385,204,0,0,0,0,0,0,0,0,0,-1,839,820,0,0
-378,204,0,0,0,0,0,0,0,0,0,-1,846,820,0,0
-371,204,0,0,0,0,0,0,0,0,0,-1,853,820,0,0
-364,204,0,0,0,0,0,0,0,0,0,-1,860,820,0,0
-357,204,0,0,0,0,0,0,0,0,0,-1,867,820,0,0
-350,204,0,0,0,0,0,0,0,0,0,-1,874,820,0,0
-343,204,0,0,0,0,0,0,0,0,0,-1,881,820,0,0
-336,204,0,0,0,0,0,0,0,0,0,-1,888,820,0,0
-329,204,0,0,0,0,0,0,0,0,0,-1,895,820,0,0
-322,204,0,0,0,0,0,0,0,0,0,-1,902,820,0,0
-315,204,0,0,0,0,0,0,0,0,0,-1,909,820,0,0
-308,204,0,0,0,0,0,0,0,0,0,-1,916,820,0,0
-301,204,0,0,0,0,0,0,0,0,0,-1,923,820,0,0
-294,204,0,0,0,0,0,0,0,0,0,-1,930,820,0,0
-287,204,0,0,0,0,0,0,0,0,0,-1,937,820,0,0
-280,204,0,0,0,0,0,0,0,0,0,-1,944,820,0,0
-273,204,0,0,0,0,0,0,0,0,0,-1,951,820,0,0
-266,204,0,0,0,0,0,0,0,0,0,-1,958,820,0,0
-259,204,0,0,0,0,0,0,0,0,0,-1,965,820,0,0
-252,204,0,0,0,0,0,0,0,0,0,-1,972,820,0,0
-245,204,0,0,0,0,0,0,0,0,0,-1,979,820,0,0
-238,204,0,0,0,0,0,0,0,0,0,-1,986,820,0,0
-231,204,0,0,0,0,0,0,0,0,0,-1,993,820,0,0
-224,204,0,0,0,0,0,0,0,0,0,-1,1000,820,0,0
-217,204,0,0,0,0,0,0,0,0,0,-1,1007,820,0,0
-210,204,0,0,0,0,0,0,0,0,0,-1,1014,820,0,0
-203,204,0,0,0,0,0,0,0,0,0,-1,1021,820,0,0
-196,204,0,0,0,0,0,0,0,0,0,-1,1028,820,0,0
-189,204,0,0,0,0,0,0,0,0,0,-1,1035,820,0,0
-182,204,0,0,0,0,0,0,0,0,0,-1,1042,820,0,0
-175,204,0,0,0,0,0,0,0,0,0,-1,1049,820,0,0
-168,204,0,0,0,0,0,0,0,0,0,-1,1056,820,0,0
-161,204,0,0,0,0,0,0,0,0,0,-1,1063,820,0,0
-154,204,0,0,0,0,0,0,0,0,0,-1,1070,820,0,0
-147,204,0,0,0,0,0,0,0,0,0,-1,1077,820,0,0
-140,204,0,0,0,0,0,0,0,0,0,-1,1084,820,0,0
-133,204,0,0,0,0,0,0,0,0,0,-1,1091,820,0,0
-126,204,0,0,0,0,0,0,0,0,0,-1,1098,820,0,0
-119,204,0,0,0,0,0,0,0,0,0,-1,1105,820,0,0
-112,204,0,0,0,0,0,0,0,0,0,-1,1112,820,0,0
-105,204,0,0,0,0,0,0,0,0,0,-1,1119,820,0,0
-98,204,0,0,0,0,0,0,0,0,0,-1,1126,820,0,0
-91,204,0,0,0,0,0,0,0,0,0,-1,1133,820,0,0
-84,204,0,0,0,0,0,0,0,0,0,-1,1140,820,0,0
-77,204,0,0,0,0,0,0,0,0,0,-1,1147,820,0,0
-70,204,0,0,0,0,0,0,0,0,0,-1,1154,820,0,0
-63,204,0,0,0,0,0,0,0,0,0,-1,1161,820,0,0
-56,204,0,0,0,0,0,0,0,0,0,-1,1168,820,0,0
-49,204,0,0,0,0,0,0,0,0,0,-1,1175,820,0,0
-42,204,0,0,0,0,0,0,0,0,0,-1,1182,820,0,0
-35,204,0,0,0,0,0,0,0,0,0,-1,1189,820,0,0
-28,204,0,0,0,0,0,0,0,0,0,-1,1196,820,0,0
-21,204,0,0,0,0,0,0,0,0,0,-1,1203,820,0,0
-14,204,0,0,0,0,0,0,0,0,0,-1,1210,820,0,0
-7,204,0,0,0,0,0,0,0,0,0,-1,1217,820,0,0
0,204,0,0,0,0,0,0,0,0,0,-1,1224,820,0,0
7,204,0,0,0,0,0,0,0,0,0,-1,1231,820,0,0
14,204,0,0,0,0,0,0,0,0,0,-1,1238,820,0,0
21,204,0,0,0,0,0,0,0,0,0,-1,1245,820,0,0
28,204,0,0,0,0,0,0,0,0,0,-1,1252,820,0,0
35,204,0,0,0,0,0,0,0,0,0,-1,1259,820,0,0
42,204,0,0,0,0,0,0,0,0,0,-1,1266,820,0,0
49,204,0,0,0,0,0,0,0,0,0,-1,1273,820,0,0
56,204,0,0,0,0,0,0,0,0,0,-1,1280,820,0,0
63,204,0,0,0,0,0,0,0,0,0,-1,1287,820,0,0
70,204,0,0,0,0,0,0,0,0,0,-1,1294,820,0,0
77,204,0,0,0,0,0,0,0,0,0,-1,1301,820,0,0
84,204,0,0,0,0,0,0,0,0,0,-1,1308,820,0,0
91,204,0,0,0,0,0,0,0,0,0,-1,1315,820,0,0
98,204,0,0,0,0,0,0,0,0,0,-1,1322,820,0,0
105,204,0,0,0,0,0,0,0,0,0,-1,1329,820,0,0
112,204,0,0,0,0,0,0,0,0,0,-1,1336,820,0,0
119,204,0,0,0,0,0,0,0,0,0,-1,1343,820,0,0
126,204,0,0,0,0,0,0,0,0,0,-1,1350,820,0,0
133,204,0,0,0,0,0,0,0,0,0,-1,1357,820,0,0
140,204,0,0,0,0,0,0,0,0,0,-1,1364,820,0,0
147,204,0,0,0,0,0,0,0,0,0,-1,1371,820,0,0
154,204,0,0,0,0,0,0,0,0,0,-1,1378,820,0,0
161,204,0,0,0,0,0,0,0,0,0,-1,1385,820,0,0
168,204,0,0,0,0,0,0,0,0,0,-1,1392,820,0,0
175,204,0,0,0,0,0,0,0,0,0,-1,1399,820,0,0
182,204,0,0,0,0,0,0,0,0,0,-1,1406,820,0,0
189,204,0,0,0,0,0,0,0,0,0,-1,1413,820,0,0
196,204,0,0,0,0,0,0,0,0,0,-1,1420,820,0,0
203,204,0,0,0,0,0,0,0,0,0,-1,1427,820,0,0
210,204,0,0,0,0,0,0,0,0,0,-1,1434,820,0,0
217,204,0,0,0,0,0,0,0,0,0,-1,1441,820,0,0
224,204,0,0,0,0,0,0,0,0,0,-1,1448,820,0,0
231,204,0,0,0,0,0,0,0,0,0,-1,1455,820,0,0
238,204,0,0,0,0,0,0,0,0,0,-1,1462,820,0,0
245,204,0,0,0,0,0,0,0,0,0,-1,1469,820,0,0
252,204,0,0,0,0,0,0,0,0,0,-1,1476,820,0,0
259,204,0,0,0,0,0,0,0,0,0,-1,1483,820,0,0
266,204,0,0,0,0,0,0,0,0,0,-1,1490,820,0,0
273,204,0,0,0,0,0,0,0,0,0,-1,1497,820,0,0
280,204,0,0,0,0,0,0,0,0,0,-1,1504,820,0,0
287,204,0,0,0,0,0,0,0,0,0,-1,1511,820,0,0
294,204,0,0,0,0,0,0,0,0,0,-1,1518,820,0,0
301,204,0,0,0,0,0,0,0,0,0,-1,1525,820,0,0
308,204,0,0,0,0,0,0,0,0,0,-1,1532,820,0,0
315,204,0,0,0,0,0,0,0,0,0,-1,1539,820,0,0
322,204,0,0,0,0,0,0,0,0,0,-1,1546,820,0,0
329,204,0,0,0,0,0,0,0,0,0,-1,1553,820,0,0
336,204,0,0,0,0,0,0,0,0,0,-1,1560,820,0,0
343,204,0,0,0,0,0,0,0,0,0,-1,1567,820,0,0
350,204,0,0,0,0,0,0,0,0,0,-1,1574,820,0,0
357,204,0,0,0,0,0,0,0,0,0,-1,1581,820,0,0
364,204,0,0,0,0,0,0,0,0,0,-1,1588,820,0,0
371,204,0,0,0,0,0,0,0,0,0,-1,1595,820,0,0
378,204,0,0,0,0,0,0,0,0,0,-1,1602,820,0,0
385,204,0,0,0,0,0,0,0,0,0,-1,1609,820,0,0
392,204,0,0,0,0,0,0,0,0,0,-1,1616,820,0,0
399,204,0,0,0,0,0,0,0,0,0,-1,1623,820,0,0
406,204,0,0,0,0,0,0,0,0,0,-1,1630,820,0,0
413,204,0,0,0,0,0,0,0,0,0,-1,1637,820,0,0
420,204,0,0,0,0,0,0,0,0,0,-1,1644,820,0,0
427,204,0,0,0,0,0,0,0,0,0,-1,1651,820,0,0
434,204,0,0,0,0,0,0,0,0,0,-1,1658,820,0,0
441,204,0,0,0,0,0,0,0,0,0,-1,1665,820,0,0
448,204,0,0,0,0,0,0,0,0,0,-1,1672,820,0,0
455,204,0,0,0,0,0,0,0,0,0,-1,1679,820,0,0
462,204,0,0,0,0,0,0,0,0,0,-1,1686,820,0,0
469,204,0,0,0,0,0,0,0,0,0,-1,1693,820,0,0
476,204,0,0,0,0,0,0,0,0,0,-1,1700,820,0,0
483,204,0,0,0,0,0,0,0,0,0,-1,1707,820,0,0
490,204,0,0,0,0,0,0,0,0,0,-1,1714,820,0,0
497,204,0,0,0,0,0,0,0,0,0,-1,1721,820,0,0
504,204,0,0,0,0,0,0,0,0,0,-1,1728,820,0,0
511,204,0,0,0,0,0,0,0,0,0,-1,1735,820,0,0
518,204,0,0,0,0,0,0,0,0,0,-1,1742,820,0,0
525,204,0,0,0,0,0,0,0,0,0,-1,1749,820,0,0
532,204,0,0,0,0,0,0,0,0,0,-1,1756,820,0,0
539,204,0,0,0,0,0,0,0,0,0,-1,1763,820,0,0
546,204,0,0,0,0,0,0,0,0,0,-1,1770,820,0,0
553,204,0,0,0,0,0,0,0,0,0,-1,1777,820,0,0
560,204,0,0,0,0,0,0,0,0,0,-1,1784,820,0,0
567,204,0,0,0,0,0,0,0,0,0,-1,1791,820,0,0
574,204,0,0,0,0,0,0,0,0,0,-1,1798,820,0,0
581,204,0,0,0,0,0,0,0,0,0,-1,1805,820,0,0
588,204,0,0,0,0,0,0,0,0,0,-1,1812,820,0,0
595,204,0,0,0,0,0,0,0,0,0,-1,1819,820,0,0
602,204,43.7799,2.97168,0.000576089,0.003539,0.00407995,0.00639813,-0.00228304,0.95955,0.00519639,0.0394905,1826,820,43.7799,-2.97169
609,204,43.8075,3.09283,0.000904201,0.00421886,0.00352432,0.00645609,-0.00133303,1.00518,0.00481037,0.0418003,1833,820,43.8075,-3.09285
616,204,43.8632,3.03583,0.00122189,0.00422326,0.00254274,0.00567513,-0.000229983,1.05198,0.00386236,0.0369468,1840,820,43.8632,-3.0358
623,204,43.707,2.90833,0.0011186,0.00365346,0.0013115,0.00420987,0.000562188,1.16955,0.00263922,0.0271446,1847,820,43.707,-2.90833
630,204,43.7126,2.87665,0.000775462,0.00299543,0.000218666,0.00301676,0.000754129,1.47354,0.00181286,0.0270106,1854,820,43.7127,-2.87665
637,204,43.743,2.90326,0.00029098,0.00224156,-0.000547098,0.00238453,0.00014801,-1.31519,0.00154272,0.0343581,1861,820,43.7431,-2.90324
644,204,43.781,2.75751,-0.000175344,0.00148244,-0.00107581,0.00201165,-0.000704552,-1.11364,0.0016276,0.0419334,1868,820,43.781,-2.75748
651,204,43.8583,2.63239,0,0,0,0,0,0,0,-1,1875,820,43.8583,-2.63237
658,204,34.9631,1.64844,0,0,0,0,0,0,0,-1,1882,820,34.9631,-1.64842
665,204,21.8292,1.51099,0,0,0,0,0,0,0,-1,1889,820,21.8292,-1.51099
672,204,33.3905,0.516602,0,0,0,0,0,0,0,-1,1896,820,33.3905,-0.516587
679,204,33.3597,1.06421,-0.00135975,-0.000623729,-0.00223904,0.00127734,-0.00326083,-0.866851,0.00270224,0.0372657,1903,820,33.3598,-1.06418
686,204,33.3101,1.66321,-0.00183527,-0.00100247,-0.00207686,0.000699321,-0.00353707,-0.884334,0.00262242,0.0161572,1910,820,33.3101,-1.66322
693,204,33.2411,2.1637,-0.00149823,-0.000838229,-0.0018743,0.000734896,-0.00307135,-0.872538,0.00233147,0.015864,1917,820,33.2411,-2.16367
700,204,33.2789,2.66827,-0.000848945,-0.000454871,-0.00158507,0.000945362,-0.00224918,-0.847235,0.00189488,0.0186798,1924,820,33.279,-2.66829
707,204,33.2378,3.19257,0.000281172,0.000161814,-0.00171841,0.00194094,-0.00149795,-0.768041,0.00199093,0.0155387,1931,820,33.2378,-3.19255
714,204,33.2562,3.74475,0.00208603,0.0011517,-0.00252263,0.00418439,-0.000946657,-0.693841,0.00315288,0.0221955,1938,820,33.2562,-3.74476
721,204,33.2487,4.14783,0.00435703,0.00214717,-0.00376425,0.00717517,-0.000670959,-0.642642,0.00502206,0.0217853,1945,820,33.2487,-4.14781
728,204,33.2246,4.60785,0.00702845,0.00312889,-0.00587346,0.0112673,-0.00110997,-0.625139,0.00790754,0.0138598,1952,820,33.2246,-4.60785
735,204,33.2006,5.12762,0.010212,0.00416035,-0.00911175,0.0167872,-0.00241486,-0.625088,0.0120772,0.0159502,1959,820,33.2006,-5.12765
742,204,33.1238,5.55347,0.01425,0.00522612,-0.0139478,0.0243974,-0.00492132,-0.628966,0.0181294,0.032005,1966,820,33.1238,-5.5535
749,204,33.1602,5.56195,0.0194628,0.00627191,-0.0209522,0.0348331,-0.00909839,-0.632915,0.0267752,0.0454205,1973,820,33.1601,-5.56198
756,204,33.3318,5.51672,0.0260134,0.0072629,-0.0307774,0.0488119,-0.0155355,-0.637556,0.0387715,0.04832,1980,820,33.3318,-5.51672
763,204,33.3927,5.55756,0.0341641,0.00818994,-0.0442237,0.0672682,-0.0249142,-0.642579,0.0550622,0.049195,1987,820,33.3927,-5.55758
770,204,33.5381,5.61206,0,0,0,0,0,0,0,-1,1994,820,33.5381,-5.61207
777,204,0,0,0,0,0,0,0,0,0,-1,2001,820,0,0
784,204,0,0,0,0,0,0,0,0,0,-1,2008,820,0,0
791,204,0,0,0,0,0,0,0,0,0,-1,2015,820,0,0
798,204,0,0,0,0,0,0,0,0,0,-1,2022,820,0,0
805,204,0,0,0,0,0,0,0,0,0,-1,2029,820,0,0
812,204,0,0,0,0,0,0,0,0,0,-1,2036,820,0,0
-700,197,0,0,0,0,0,0,0,0,0,-1,524,827,0,0
-693,197,0,0,0,0,0,0,0,0,0,-1,531,827,0,0
-686,197,0,0,0,0,0,0,0,0,0,-1,538,827,0,0
-679,197,0,0,0,0,0,0,0,0,0,-1,545,827,0,0
-672,197,0,0,0,0,0,0,0,0,0,-1,552,827,0,0
-665,197,0,0,0,0,0,0,0,0,0,-1,559,827,0,0
-658,197,-27.9726,5.65192,0,0,0,0,0,0,0,-1,566,827,-27.9726,-5.6519
-651,197,-27.853,5.50293,0,0,0,0,0,0,0,-1,573,827,-27.853,-5.50292
-644,197,-27.9562,5.27338,0,0,0,0,0,0,0,-1,580,827,-27.9562,-5.27338
-637,197,-23.5153,5.77856,0,0,0,0,0,0,0,-1,587,827,-23.5153,-5.77857
-630,197,-23.5432,4.82184,0,0,0,0,0,0,0,-1,594,827,-23.5431,-4.82185
-623,197,-23.3873,3.44141,0,0,0,0,0,0,0,-1,601,827,-23.3873,-3.44143
-616,197,-23.4291,3.21307,-0.00236736,0.0045932,0.000205627,0.00459927,-0.00237343,1.54129,0.00409349,0.0473069,608,827,-23.4292,-3.21308
-609,197,-23.3992,2.98126,-0.00283471,0.00381594,0.000811505,0.00391353,-0.0029323,1.45112,0.00396595,0.0335973,615,827,-23.3992,-2.98127
-602,197,-23.5319,2.43469,-0.002748,0.00339984,0.000623293,0.00346239,-0.00281056,1.47077,0.0036282,0.0190836,622,827,-23.5319,-2.43469
-595,197,-23.5716,1.99988,-0.00228657,0.00265061,0.000410079,0.00268443,-0.0023204,1.48849,0.00289209,0.0187009,629,827,-23.5716,-1.99987
-588,197,-23.5523,1.51331,-0.00187261,0.00149269,0.000522152,0.00157184,-0.00195177,1.42035,0.0020383,0.0200578,636,827,-23.5523,-1.5133
-581,197,-23.5789,1.01593,-0.00158181,0.000590088,0.00084512,0.000880189,-0.00187191,1.24013,0.00162295,0.0117427,643,827,-23.5789,-1.01596
-574,197,-23.5912,0.567627,-0.00143636,-0.000571606,0.00113821,0.000213585,-0.00222155,0.966916,0.00155712,0.0121688,650,827,-23.5913,-0.567656
-567,197,-23.5776,0.12616,-0.00113658,-0.00122977,0.00111928,-6.29274e-05,-0.00230343,0.764595,0.00151508,0.0137137,657,827,-23.5775,-0.126145
-560,197,-23.5495,-0.321045,-0.00062748,-0.00138465,0.00130658,0.000354259,-0.00236639,0.644384,0.00170797,0.0226757,664,827,-23.5495,0.321073
-553,197,-23.8453,-0.696106,-0.00064773,-0.00190084,0.0013591,0.000222287,-0.00277086,0.569414,0.00192562,0.0247083,671,827,-23.8454,0.696081
-546,197,-23.746,-1.10828,-0.00122156,-0.00192934,0.00071625,-0.000776539,-0.00237435,0.555945,0.0013979,0.0383347,678,827,-23.7461,1.1083
-539,197,-23.6772,-1.46912,0,0,0,0,0,0,0,-1,685,827,-23.6773,1.46914
-532,197,-16.0519,0.0410156,0,0,0,0,0,0,0,-1,692,827,-16.0519,-0.0410415
-525,197,-32.4259,1.14301,0,0,0,0,0,0,0,-1,699,827,-32.4259,-1.14299
-518,197,-32.3744,1.16187,-0.000442686,-0.00109154,-0.0028733,0.00212445,-0.00365867,-0.729181,0.00337782,0.0476758,706,827,-32.3744,-1.16188
-511,197,-32.2953,1.17535,-0.000192963,-0.000614105,-0.00412804,0.00372987,-0.00453694,-0.759915,0.00478042,0.0464768,713,827,-32.2953,-1.17534
-504,197,-32.0361,1.67535,0.000467681,8.3346e-05,-0.00568144,0.0059602,-0.00540917,-0.768493,0.00656668,0.0428549,720,827,-32.0361,-1.67536
-497,197,-32.2607,1.48364,0.00115037,0.00131101,-0.00765149,0.0088826,-0.00642122,-0.790647,0.00887368,0.0421001,727,827,-32.2607,-1.48366
-490,197,-32.3645,1.08228,0.0017981,0.00350351,-0.00987567,0.0125632,-0.0072616,-0.828463,0.0115815,0.0400086,734,827,-32.3645,-1.08227
-483,197,-32.0977,0.824768,0.00275253,0.00725319,-0.0124874,0.0176914,-0.00768573,-0.874545,0.0150263,0.0433234,741,827,-32.0977,-0.824786
-476,197,0,0,0,0,0,0,0,0,0,-1,748,827,0,0
-469,197,0,0,0,0,0,0,0,0,0,-1,755,827,0,0
-462,197,0,0,0,0,0,0,0,0,0,-1,762,827,0,0
-455,197,0,0,0,0,0,0,0,0,0,-1,769,827,0,0
-448,197,0,0,0,0,0,0,0,0,0,-1,776,827,0,0
-441,197,0,0,0,0,0,0,0,0,0,-1,783,827,0,0
-434,197,0,0,0,0,0,0,0,0,0,-1,790,827,0,0
-427,197,0,0,0,0,0,0,0,0,0,-1,797,827,0,0
-420,197,0,0,0,0,0,0,0,0,0,-1,804,827,0,0
-413,197,0,0,0,0,0,0,0,0,0,-1,811,827,0,0
-406,197,0,0,0,0,0,0,0,0,0,-1,818,827,0,0
-399,197,0,0,0,0,0,0,0,0,0,-1,825,827,0,0
-392,197,0,0,0,0,0,0,0,0,0,-1,832,827,0,0
-385,197,0,0,0,0,0,0,0,0,0,-1,839,827,0,0
-378,197,0,0,0,0,0,0,0,0,0,-1,846,827,0,0
-371,197,0,0,0,0,0,0,0,0,0,-1,853,827,0,0
-364,197,0,0,0,0,0,0,0,0,0,-1,860,827,0,0
-357,197,0,0,0,0,0,0,0,0,0,-1,867,827,0,0
-350,197,0,0,0,0,0,0,0,0,0,-1,874,827,0,0
-343,197,0,0,0,0,0,0,0,0,0,-1,881,827,0,0
-336,197,0,0,0,0,0,0,0,0,0,-1,888,827,0,0
-329,197,0,0,0,0,0,0,0,0,0,-1,895,827,0,0
-322,197,0,0,0,0,0,0,0,0,0,-1,902,827,0,0
-315,197,0,0,0,0,0,0,0,0,0,-1,909,827,0,0
-308,197,0,0,0,0,0,0,0,0,0,-1,916,827,0,0
-301,197,0,0,0,0,0,0,0,0,0,-1,923,827,0,0
-294,197,0,0,0,0,0,0,0,0,0,-1,930,827,0,0
-287,197,0,0,0,0,0,0,0,0,0,-1,937,827,0,0
-280,197,0,0,0,0,0,0,0,0,0,-1,944,827,0,0
-273,197,0,0,0,0,0,0,0,0,0,-1,951,827,0,0
-266,197,0,0,0,0,0,0,0,0,0,-1,958,827,0,0
-259,197,0,0,0,0,0,0,0,0,0,-1,965,827,0,0
-252,197,0,0,0,0,0,0,0,0,0,-1,972,827,0,0
-245,197,0,0,0,0,0,0,0,0,0,-1,979,827,0,0
-238,197,0,0,0,0,0,0,0,0,0,-1,986,827,0,0
-231,197,0,0,0,0,0,0,0,0,0,-1,993,827,0,0
-224,197,0,0,0,0,0,0,0,0,0,-1,1000,827,0,0
-217,197,0,0,0,0,0,0,0,0,0,-1,1007,827,0,0
-210,197,0,0,0,0,0,0,0,0,0,-1,1014,827,0,0
-203,197,0,0,0,0,0,0,0,0,0,-1,1021,827,0,0
-196,197,0,0,0,0,0,0,0,0,0,-1,1028,827,0,0
-189,197,0,0,0,0,0,0,0,0,0,-1,1035,827,0,0
-182,197,0,0,0,0,0,0,0,0,0,-1,1042,827,0,0
-175,197,0,0,0,0,0,0,0,0,0,-1,1049,827,0,0
-168,197,0,0,0,0,0,0,0,0,0,-1,1056,827,0,0
-161,197,0,0,0,0,0,0,0,0,0,-1,1063,827,0,0
-154,197,0,0,0,0,0,0,0,0,0,-1,1070,827,0,0
-147,197,0,0,0,0,0,0,0,0,0,-1,1077,827,0,0
-140,197,0,0,0,0,0,0,0,0,0,-1,1084,827,0,0
-133,197,0,0,0,0,0,0,0,0,0,-1,1091,827,0,0
-126,197,0,0,0,0,0,0,0,0,0,-1,1098,827,0,0
-119,197,0,0,0,0,0,0,0,0,0,-1,1105,827,0,0
-112,197,0,0,0,0,0,0,0,0,0,-1,1112,827,0,0
-105,197,0,0,0,0,0,0,0,0,0,-1,1119,827,0,0
-98,197,0,0,0,0,0,0,0,0,0,-1,1126,827,0,0
-91,197,0,0,0,0,0,0,0,0,0,-1,1133,827,0,0
-84,197,0,0,0,0,0,0,0,0,0,-1,1140,827,0,0
-77,197,0,0,0,0,0,0,0,0,0,-1,1147,827,0,0
-70,197,0,0,0,0,0,0,0,0,0,-1,1154,827,0,0
-63,197,0,0,0,0,0,0,0,0,0,-1,1161,827,0,0
-56,197,0,0,0,0,0,0,0,0,0,-1,1168,827,0,0
-49,197,0,0,0,0,0,0,0,0,0,-1,1175,827,0,0
-42,197,0,0,0,0,0,0,0,0,0,-1,1182,827,0,0
-35,197,0,0,0,0,0,0,0,0,0,-1,1189,827,0,0
-28,197,0,0,0,0,0,0,0,0,0,-1,1196,827,0,0
-21,197,0,0,0,0,0,0,0,0,0,-1,1203,827,0,0
-14,197,0,0,0,0,0,0,0,0,0,-1,1210,827,0,0
-7,197,0,0,0,0,0,0,0,0,0,-1,1217,827,0,0
0,197,0,0,0,0,0,0,0,0,0,-1,1224,827,0,0
7,197,0,0,0,0,0,0,0,0,0,-1,1231,827,0,0
14,197,0,0,0,0,0,0,0,0,0,-1,1238,827,0,0
21,197,0,0,0,0,0,0,0,0,0,-1,1245,827,0,0
28,197,0,0,0,0,0,0,0,0,0,-1,1252,827,0,0
35,197,0,0,0,0,0,0,0,0,0,-1,1259,827,0,0
42,197,0,0,0,0,0,0,0,0,0,-1,1266,827,0,0
49,197,0,0,0,0,0,0,0,0,0,-1,1273,827,0,0
56,197,0,0,0,0,0,0,0,0,0,-1,1280,827,0,0
63,197,0,0,0,0,0,0,0,0,0,-1,1287,827,0,0
70,197,0,0,0,0,0,0,0,0,0,-1,1294,827,0,0
77,197,0,0,0,0,0,0,0,0,0,-1,1301,827,0,0
84,197,0,0,0,0,0,0,0,0,0,-1,1308,827,0,0
91,197,0,0,0,0,0,0,0,0,0,-1,1315,827,0,0
98,197,0,0,0,0,0,0,0,0,0,-1,1322,827,0,0
105,197,0,0,0,0,0,0,0,0,0,-1,1329,827,0,0
112,197,0,0,0,0,0,0,0,0,0,-1,1336,827,0,0
119,197,0,0,0,0,0,0,0,0,0,-1,1343,827,0,0
126,197,0,0,0,0,0,0,0,0,0,-1,1350,827,0,0
133,197,0,0,0,0,0,0,0,0,0,-1,1357,827,0,0
140,197,0,0,0,0,0,0,0,0,0,-1,1364,827,0,0
147,197,0,0,0,0,0,0,0,0,0,-1,1371,827,0,0
154,197,0,0,0,0,0,0,0,0,0,-1,1378,827,0,0
161,197,0,0,0,0,0,0,0,0,0,-1,1385,827,0,0
168,197,0,0,0,0,0,0,0,0,0,-1,1392,827,0,0
175,197,0,0,0,0,0,0,0,0,0,-1,1399,827,0,0
182,197,0,0,0,0,0,0,0,0,0,-1,1406,827,0,0
189,197,0,0,0,0,0,0,0,0,0,-1,1413,827,0,0
196,197,0,0,0,0,0,0,0,0,0,-1,1420,827,0,0
203,197,0,0,0,0,0,0,0,0,0,-1,1427,827,0,0
210,197,0,0,0,0,0,0,0,0,0,-1,1434,827,0,0
217,197,0,0,0,0,0,0,0,0,0,-1,1441,827,0,0
224,197,0,0,0,0,0,0,0,0,0,-1,1448,827,0,0
231,197,0,0,0,0,0,0,0,0,0,-1,1455,827,0,0
238,197,0,0,0,0,0,0,0,0,0,-1,1462,827,0,0
245,197,0,0,0,0,0,0,0,0,0,-1,1469,827,0,0
252,197,0,0,0,0,0,0,0,0,0,-1,1476,827,0,0
259,197,0,0,0,0,0,0,0,0,0,-1,1483,827,0,0
266,197,0,0,0,0,0,0,0,0,0,-1,1490,827,0,0
273,197,0,0,0,0,0,0,0,0,0,-1,1497,827,0,0
280,197,0,0,0,0,0,0,0,0,0,-1,1504,827,0,0
287,197,0,0,0,0,0,0,0,0,0,-1,1511,827,0,0
294,197,0,0,0,0,0,0,0,0,0,-1,1518,827,0,0
301,197,0,0,0,0,0,0,0,0,0,-1,1525,827,0,0
308,197,0,0,0,0,0,0,0,0,0,-1,1532,827,0,0
315,197,0,0,0,0,0,0,0,0,0,-1,1539,827,0,0
322,197,0,0,0,0,0,0,0,0,0,-1,1546,827,0,0
329,197,0,0,0,0,0,0,0,0,0,-1,1553,827,0,0
336,197,0,0,0,0,0,0,0,0,0,-1,1560,827,0,0
343,197,0,0,0,0,0,0,0,0,0,-1,1567,827,0,0
350,197,0,0,0,0,0,0,0,0,0,-1,1574,827,0,0
357,197,0,0,0,0,0,0,0,0,0,-1,1581,827,0,0
364,197,0,0,0,0,0,0,0,0,0,-1,1588,827,0,0
371,197,0,0,0,0,0,0,0,0,0,-1,1595,827,0,0
378,197,0,0,0,0,0,0,0,0,0,-1,1602,827,0,0
385,197,0,0,0,0,0,0,0,0,0,-1,1609,827,0,0
392,197,0,0,0,0,0,0,0,0,0,-1,1616,827,0,0
399,197,0,0,0,0,0,0,0,0,0,-1,1623,827,0,0
406,197,0,0,0,0,0,0,0,0,0,-1,1630,827,0,0
413,197,0,0,0,0,0,0,0,0,0,-1,1637,827,0,0
420,197,0,0,0,0,0,0,0,0,0,-1,1644,827,0,0
427,197,0,0,0,0,0,0,0,0,0,-1,1651,827,0,0
434,197,0,0,0,0,0,0,0,0,0,-1,1658,827,0,0
441,197,0,0,0,0,0,0,0,0,0,-1,1665,827,0,0
448,197,0,0,0,0,0,0,0,0,0,-1,1672,827,0,0
455,197,0,0,0,0,0,0,0,0,0,-1,1679,827,0,0
462,197,0,0,0,0,0,0,0,0,0,-1,1686,827,0,0
469,197,0,0,0,0,0,0,0,0,0,-1,1693,827,0,0
476,197,0,0,0,0,0,0,0,0,0,-1,1700,827,0,0
483,197,0,0,0,0,0,0,0,0,0,-1,1707,827,0,0
490,197,0,0,0,0,0,0,0,0,0,-1,1714,827,0,0
497,197,0,0,0,0,0,0,0,0,0,-1,1721,827,0,0
504,197,0,0,0,0,0,0,0,0,0,-1,1728,827,0,0
511,197,0,0,0,0,0,0,0,0,0,-1,1735,827,0,0
518,197,0,0,0,0,0,0,0,0,0,-1,1742,827,0,0
525,197,0,0,0,0,0,0,0,0,0,-1,1749,827,0,0
532,197,0,0,0,0,0,0,0,0,0,-1,1756,827,0,0
539,197,0,0,0,0,0,0,0,0,0,-1,1763,827,0,0
546,197,0,0,0,0,0,0,0,0,0,-1,1770,827,0,0
553,197,0,0,0,0,0,0,0,0,0,-1,1777,827,0,0
560,197,0,0,0,0,0,0,0,0,0,-1,1784,827,0,0
567,197,0,0,0,0,0,0,0,0,0,-1,1791,827,0,0
574,197,0,0,0,0,0,0,0,0,0,-1,1798,827,0,0
581,197,0,0,0,0,0,0,0,0,0,-1,1805,827,0,0
588,197,0,0,0,0,0,0,0,0,0,-1,1812,827,0,0
595,197,0,0,0,0,0,0,0,0,0,-1,1819,827,0,0
602,197,43.7365,3.01611,-0.000479853,0.00334907,0.00375101,0.00564593,-0.00277671,1.02136,0.00495597,0.0408604,1826,827,43.7365,-3.01613
609,197,43.7629,3.08508,7.97184e-05,0.00358072,0.00299235,0.00529698,-0.00163654,1.05005,0.00418489,0.0405219,1833,827,43.7629,-3.08507
616,197,43.8418,3.01245,0.00073536,0.00349154,0.00197219,0.00451942,-0.000292516,1.09035,0.00311503,0.0387929,1840,827,43.8418,-3.01246
623,197,43.7294,2.73669,0.000950871,0.0030321,0.000823459,0.0033185,0.000664472,1.23608,0.00202747,0.0349629,1847,827,43.7293,-2.73672
630,197,43.7216,2.78387,0.000766595,0.00253001,-0.00020497,0.00255352,0.000743083,-1.45659,0.0015166,0.0307736,1854,827,43.7216,-2.7839
637,197,43.7469,2.84076,0.000348183,0.00191755,-0.000893256,0.00232183,-5.60967e-05,-1.14579,0.00156692,0.0289682,1861,827,43.7469,-2.84078
644,197,43.7882,2.83618,-8.54163e-05,0.00126862,-0.00132708,0.0020814,-0.000898194,-1.02127,0.0017649,0.0352495,1868,827,43.7883,-2.83617
651,197,43.8281,3.03845,0,0,0,0,0,0,0,-1,1875,827,43.8281,-3.03847
658,197,40.4694,3.05927,0,0,0,0,0,0,0,-1,1882,827,40.4694,-3.05926
665,197,14.0618,1.80304,0,0,0,0,0,0,0,-1,1889,827,14.0617,-1.80303
672,197,33.3518,0.135193,0,0,0,0,0,0,0,-1,1896,827,33.3518,-0.135171
679,197,33.7086,0.938354,0,0,0,0,0,0,0,-1,1903,827,33.7086,-0.938369
686,197,33.8185,1.72253,-0.00168388,-0.000997538,-0.00200951,0.000697896,-0.00337932,-0.869969,0.00251796,0.0291606,1910,827,33.8185,-1.72255
693,197,33.7454,2.24603,-0.00145245,-0.00096302,-0.00190088,0.00070883,-0.0031243,-0.849415,0.00235498,0.0171368,1917,827,33.7454,-2.24606
700,197,33.774,2.7431,-0.00105553,-0.000741152,-0.00174364,0.000852374,-0.00264905,-0.830351,0.0021084,0.0220064,1924,827,33.7741,-2.74312
707,197,33.7955,3.19678,-0.000337204,-0.000275395,-0.00196536,0.00165931,-0.00227191,-0.79326,0.00227885,0.00893467,1931,827,33.7956,-3.19676
714,197,33.746,3.67346,0.00110939,0.000630531,-0.00281593,0.00369605,-0.00195613,-0.742987,0.00331443,0.0111549,1938,827,33.7459,-3.67344
721,197,33.7075,4.13623,0.00309818,0.00158602,-0.00415384,0.0065642,-0.00187999,-0.695374,0.00511919,0.0122385,1945,827,33.7076,-4.13624
728,197,33.6924,4.61542,0.00556843,0.00250245,-0.00627739,0.0104973,-0.00242642,-0.665638,0.00793171,0.010966,1952,827,33.6924,-4.61539
735,197,33.6891,5.11554,0.00858928,0.00342108,-0.00942369,0.0157768,-0.00376639,-0.651581,0.0119724,0.0113389,1959,827,33.6891,-5.11552
742,197,33.6356,5.60876,0.0124616,0.00436551,-0.0139374,0.0229269,-0.00609983,-0.644064,0.0176724,0.0211288,1966,827,33.6356,-5.60878
749,197,33.7169,5.43677,0.0175596,0.005263,-0.0203391,0.0326593,-0.00983677,-0.63862,0.0256875,0.044653,1973,827,33.7169,-5.43677
756,197,33.9769,5.50049,0.0242668,0.00609513,-0.0292403,0.0458004,-0.0154385,-0.634763,0.0367762,0.0470904,1980,827,33.9769,-5.50046
763,197,34.1959,5.49933,0.0329245,0.00680096,-0.0413531,0.0632296,-0.0235042,-0.632427,0.051797,0.0474379,1987,827,34.1959,-5.49931
770,197,34.6178,5.43414,0,0,0,0,0,0,0,-1,1994,827,34.6178,-5.43411
777,197,0,0,0,0,0,0,0,0,0,-1,2001,827,0,0
784,197,0,0,0,0,0,0,0,0,0,-1,2008,827,0,0
791,197,0,0,0,0,0,0,0,0,0,-1,2015,827,0,0
798,197,0,0,0,0,0,0,0,0,0,-1,2022,827,0,0
805,197,0,0,0,0,0,0,0,0,0,-1,2029,827,0,0
812,197,0,0,0,0,0,0,0,0,0,-1,2036,827,0,0
-700,190,0,0,0,0,0,0,0,0,0,-1,524,834,0,0
-693,190,0,0,0,0,0,0,0,0,0,-1,531,834,0,0
-686,190,0,0,0,0,0,0,0,0,0,-1,538,834,0,0
-679,190,0,0,0,0,0,0,0,0,0,-1,545,834,0,0
-672,190,0,0,0,0,0,0,0,0,0,-1,552,834,0,0
-665,190,0,0,0,0,0,0,0,0,0,-1,559,834,0,0
-658,190,-27.6563,4.96088,0,0,0,0,0,0,0,-1,566,834,-27.6563,-4.96089
-651,190,-27.4357,5.28967,0,0,0,0,0,0,0,-1,573,834,-27.4357,-5.28968
-644,190,-27.4441,5.04456,0,0,0,0,0,0,0,-1,580,834,-27.4441,-5.04455
-637,190,-23.6612,5.39075,0,0,0,0,0,0,0,-1,587,834,-23.6612,-5.39073
-630,190,-23.6707,4.5946,0,0,0,0,0,0,0,-1,594,834,-23.6707,-4.5946
-623,190,-23.764,3.55865,0,0,0,0,0,0,0,-1,601,834,-23.764,-3.55863
-616,190,-23.8445,3.20129,-0.00227046,0.00317291,0.00147952,0.00354905,-0.0026466,1.32184,0.00358969,0.046653,608,834,-23.8445,-3.20129
-609,190,-23.923,2.85455,-0.00302033,0.00241655,0.0021773,0.003181,-0.00378478,1.23314,0.00402673,0.0259611,615,834,-23.9231,-2.85457
-602,190,-23.9872,2.45532,-0.00311918,0.00217998,0.00196511,0.00282917,-0.00376838,1.25172,0.00382194,0.0171527,622,834,-23.9872,-2.45532
-595,190,-24.0311,2.01245,-0.00263797,0.0015961,0.00156477,0.00211161,-0.00315349,1.25254,0.00305958,0.0184989,629,834,-24.0311,-2.01248
-588,190,-24.0376,1.52319,-0.00213623,0.000588776,0.00142838,0.00120028,-0.00274773,1.1663,0.00233702,0.0175389,636,834,-24.0376,-1.52321
-581,190,-24.0507,1.05823,-0.00174369,-0.0001028,0.00147349,0.000763265,-0.00260975,1.03942,0.00204236,0.012821,643,834,-24.0507,-1.05823
-574,190,-24.0497,0.585144,-0.00150743,-0.000970049,0.00146791,0.000253556,-0.00273103,0.875918,0.00191082,0.0115235,650,834,-24.0497,-0.585147
-567,190,-23.9918,0.0499878,-0.00111312,-0.00139733,0.00116112,-8.54477e-05,-0.002425,0.724508,0.00158895,0.0198745,657,834,-23.9917,-0.0500165
-560,190,-24.1069,-0.306152,-0.000545818,-0.00140749,0.00116475,0.000265226,-0.00221854,0.608254,0.0015749,0.0412443,664,834,-24.1069,0.306178
-553,190,-24.5284,-0.74292,0,0,0,0,0,0,0,-1,671,834,-24.5285,0.742907
-546,190,-24.2352,-1.15961,0,0,0,0,0,0,0,-1,678,834,-24.2352,1.15962
-539,190,-16.4624,-0.542542,0,0,0,0,0,0,0,-1,685,834,-16.4624,0.542527
-532,190,-21.6292,2.06122,0,0,0,0,0,0,0,-1,692,834,-21.6292,-2.06123
-525,190,-32.4371,1.11072,0,0,0,0,0,0,0,-1,699,834,-32.4371,-1.11069
-518,190,-32.3458,1.12494,-0.000582879,-0.000284867,-0.00304737,0.00261713,-0.00348488,-0.809827,0.00353485,0.0492394,706,834,-32.3458,-1.12495
-511,190,-32.2523,1.13,-0.000486038,0.000366867,-0.00427706,0.00423868,-0.00435785,-0.835087,0.00496337,0.0436761,713,834,-32.2523,-1.13
-504,190,-32.2081,1.87421,-7.98144e-05,0.00126722,-0.00584991,0.00648225,-0.00529485,-0.842712,0.00681102,0.0448591,720,834,-32.2081,-1.87421
-497,190,-32.462,1.69135,0.000160144,0.00275977,-0.00785065,0.00941748,-0.00649757,-0.867438,0.00923996,0.044574,727,834,-32.462,-1.69134
-490,190,-32.5173,1.33246,0.000285537,0.00528356,-0.0101886,0.0132752,-0.00770608,-0.905661,0.012255,0.0423953,734,834,-32.5173,-1.33247
-483,190,0,0,0,0,0,0,0,0,0,-1,741,834,0,0
-476,190,0,0,0,0,0,0,0,0,0,-1,748,834,0,0
-469,190,0,0,0,0,0,0,0,0,0,-1,755,834,0,0
-462,190,0,0,0,0,0,0,0,0,0,-1,762,834,0,0
-455,190,0,0,0,0,0,0,0,0,0,-1,769,834,0,0
-448,190,0,0,0,0,0,0,0,0,0,-1,776,834,0,0
-441,190,0,0,0,0,0,0,0,0,0,-1,783,834,0,0
-434,190,0,0,0,0,0,0,0,0,0,-1,790,834,0,0
-427,190,0,0,0,0,0,0,0,0,0,-1,797,834,0,0
-420,190,0,0,0,0,0,0,0,0,0,-1,804,834,0,0
-413,190,0,0,0,0,0,0,0,0,0,-1,811,834,0,0
-406,190,0,0,0,0,0,0,0,0,0,-1,818,834,0,0
-399,190,0,0,0,0,0,0,0,0,0,-1,825,834,0,0
-392,190,0,0,0,0,0,0,0,0,0,-1,832,834,0,0
-385,190,0,0,0,0,0,0,0,0,0,-1,839,834,0,0
-378,190,0,0,0,0,0,0,0,0,0,-1,846,834,0,0
-371,190,0,0,0,0,0,0,0,0,0,-1,853,834,0,0
-364,190,0,0,0,0,0,0,0,0,0,-1,860,834,0,0
-357,190,0,0,0,0,0,0,0,0,0,-1,867,834,0,0
-350,190,0,0,0,0,0,0,0,0,0,-1,874,834,0,0
-343,190,0,0,0,0,0,0,0,0,0,-1,881,834,0,0
-336,190,0,0,0,0,0,0,0,0,0,-1,888,834,0,0
-329,190,0,0,0,0,0,0,0,0,0,-1,895,834,0,0
-322,190,0,0,0,0,0,0,0,0,0,-1,902,834,0,0
-315,190,0,0,0,0,0,0,0,0,0,-1,909,834,0,0
-308,190,0,0,0,0,0,0,0,0,0,-1,916,834,0,0
-301,190,0,0,0,0,0,0,0,0,0,-1,923,834,0,0
-294,190,0,0,0,0,0,0,0,0,0,-1,930,834,0,0
-287,190,0,0,0,0,0,0,0,0,0,-1,937,834,0,0
-280,190,0,0,0,0,0,0,0,0,0,-1,944,834,0,0
-273,190,0,0,0,0,0,0,0,0,0,-1,951,834,0,0
-266,190,0,0,0,0,0,0,0,0,0,-1,958,834,0,0
-259,190,0,0,0,0,0,0,0,0,0,-1,965,834,0,0
-252,190,0,0,0,0,0,0,0,0,0,-1,972,834,0,0
-245,190,0,0,0,0,0,0,0,0,0,-1,979,834,0,0
-238,190,0,0,0,0,0,0,0,0,0,-1,986,834,0,0
-231,190,0,0,0,0,0,0,0,0,0,-1,993,834,0,0
-224,190,0,0,0,0,0,0,0,0,0,-1,1000,834,0,0
-217,190,0,0,0,0,0,0,0,0,0,-1,1007,834,0,0
-210,190,0,0,0,0,0,0,0,0,0,-1,1014,834,0,0
-203,190,0,0,0,0,0,0,0,0,0,-1,1021,834,0,0
-196,190,0,0,0,0,0,0,0,0,0,-1,1028,834,0,0
-189,190,0,0,0,0,0,0,0,0,0,-1,1035,834,0,0
-182,190,0,0,0,0,0,0,0,0,0,-1,1042,834,0,0
-175,190,0,0,0,0,0,0,0,0,0,-1,1049,834,0,0
-168,190,0,0,0,0,0,0,0,0,0,-1,1056,834,0,0
-161,190,0,0,0,0,0,0,0,0,0,-1,1063,834,0,0
-154,190,0,0,0,0,0,0,0,0,0,-1,1070,834,0,0
-147,190,0,0,0,0,0,0,0,0,0,-1,1077,834,0,0
-140,190,0,0,0,0,0,0,0,0,0,-1,1084,834,0,0
-133,190,0,0,0,0,0,0,0,0,0,-1,1091,834,0,0
-126,190,0,0,0,0,0,0,0,0,0,-1,1098,834,0,0
-119,190,0,0,0,0,0,0,0,0,0,-1,1105,834,0,0
-112,190,0,0,0,0,0,0,0,0,0,-1,1112,834,0,0
-105,190,0,0,0,0,0,0,0,0,0,-1,1119,834,0,0
-98,190,0,0,0,0,0,0,0,0,0,-1,1126,834,0,0
-91,190,0,0,0,0,0,0,0,0,0,-1,1133,834,0,0
-84,190,0,0,0,0,0,0,0,0,0,-1,1140,834,0,0
-77,190,0,0,0,0,0,0,0,0,0,-1,1147,834,0,0
-70,190,0,0,0,0,0,0,0,0,0,-1,1154,834,0,0
-63,190,0,0,0,0,0,0,0,0,0,-1,1161,834,0,0
-56,190,0,0,0,0,0,0,0,0,0,-1,1168,834,0,0
-49,190,0,0,0,0,0,0,0,0,0,-1,1175,834,0,0
-42,190,0,0,0,0,0,0,0,0,0,-1,1182,834,0,0
-35,190,0,0,0,0,0,0,0,0,0,-1,1189,834,0,0
-28,190,0,0,0,0,0,0,0,0,0,-1,1196,834,0,0
-21,190,0,0,0,0,0,0,0,0,0,-1,1203,834,0,0
-14,190,0,0,0,0,0,0,0,0,0,-1,1210,834,0,0
-7,190,0,0,0,0,0,0,0,0,0,-1,1217,834,0,0
0,190,0,0,0,0,0,0,0,0,0,-1,1224,834,0,0
7,190,0,0,0,0,0,0,0,0,0,-1,1231,834,0,0
14,190,0,0,0,0,0,0,0,0,0,-1,1238,834,0,0
21,190,0,0,0,0,0,0,0,0,0,-1,1245,834,0,0
28,190,0,0,0,0,0,0,0,0,0,-1,1252,834,0,0
35,190,0,0,0,0,0,0,0,0,0,-1,1259,834,0,0
42,190,0,0,0,0,0,0,0,0,0,-1,1266,834,0,0
49,190,0,0,0,0,0,0,0,0,0,-1,1273,834,0,0
56,190,0,0,0,0,0,0,0,0,0,-1,1280,834,0,0
63,190,0,0,0,0,0,0,0,0,0,-1,1287,834,0,0
70,190,0,0,0,0,0,0,0,0,0,-1,1294,834,0,0
77,190,0,0,0,0,0,0,0,0,0,-1,1301,834,0,0
84,190,0,0,0,0,0,0,0,0,0,-1,1308,834,0,0
91,190,0,0,0,0,0,0,0,0,0,-1,1315,834,0,0
98,190,0,0,0,0,0,0,0,0,0,-1,1322,834,0,0
105,190,0,0,0,0,0,0,0,0,0,-1,1329,834,0,0
112,190,0,0,0,0,0,0,0,0,0,-1,1336,834,0,0
119,190,0,0,0,0,0,0,0,0,0,-1,1343,834,0,0
126,190,0,0,0,0,0,0,0,0,0,-1,1350,834,0,0
133,190,0,0,0,0,0,0,0,0,0,-1,1357,834,0,0
140,190,0,0,0,0,0,0,0,0,0,-1,1364,834,0,0
147,190,0,0,0,0,0,0,0,0,0,-1,1371,834,0,0
154,190,0,0,0,0,0,0,0,0,0,-1,1378,834,0,0
161,190,0,0,0,0,0,0,0,0,0,-1,1385,834,0,0
168,190,0,0,0,0,0,0,0,0,0,-1,1392,834,0,0
175,190,0,0,0,0,0,0,0,0,0,-1,1399,834,0,0
182,190,0,0,0,0,0,0,0,0,0,-1,1406,834,0,0
189,190,0,0,0,0,0,0,0,0,0,-1,1413,834,0,0
196,190,0,0,0,0,0,0,0,0,0,-1,1420,834,0,0
203,190,0,0,0,0,0,0,0,0,0,-1,1427,834,0,0
210,190,0,0,0,0,0,0,0,0,0,-1,1434,834,0,0
217,190,0,0,0,0,0,0,0,0,0,-1,1441,834,0,0
224,190,0,0,0,0,0,0,0,0,0,-1,1448,834,0,0
231,190,0,0,0,0,0,0,0,0,0,-1,1455,834,0,0
238,190,0,0,0,0,0,0,0,0,0,-1,1462,834,0,0
245,190,0,0,0,0,0,0,0,0,0,-1,1469,834,0,0
252,190,0,0,0,0,0,0,0,0,0,-1,1476,834,0,0
259,190,0,0,0,0,0,0,0,0,0,-1,1483,834,0,0
266,190,0,0,0,0,0,0,0,0,0,-1,1490,834,0,0
273,190,0,0,0,0,0,0,0,0,0,-1,1497,834,0,0
280,190,0,0,0,0,0,0,0,0,0,-1,1504,834,0,0
287,190,0,0,0,0,0,0,0,0,0,-1,1511,834,0,0
294,190,0,0,0,0,0,0,0,0,0,-1,1518,834,0,0
301,190,0,0,0,0,0,0,0,0,0,-1,1525,834,0,0
308,190,0,0,0,0,0,0,0,0,0,-1,1532,834,0,0
315,190,0,0,0,0,0,0,0,0,0,-1,1539,834,0,0
322,190,0,0,0,0,0,0,0,0,0,-1,1546,834,0,0
329,190,0,0,0,0,0,0,0,0,0,-1,1553,834,0,0
336,190,0,0,0,0,0,0,0,0,0,-1,1560,834,0,0
343,190,0,0,0,0,0,0,0,0,0,-1,1567,834,0,0
350,190,0,0,0,0,0,0,0,0,0,-1,1574,834,0,0
357,190,0,0,0,0,0,0,0,0,0,-1,1581,834,0,0
364,190,0,0,0,0,0,0,0,0,0,-1,1588,834,0,0
371,190,0,0,0,0,0,0,0,0,0,-1,1595,834,0,0
378,190,0,0,0,0,0,0,0,0,0,-1,1602,834,0,0
385,190,0,0,0,0,0,0,0,0,0,-1,1609,834,0,0
392,190,0,0,0,0,0,0,0,0,0,-1,1616,834,0,0
399,190,0,0,0,0,0,0,0,0,0,-1,1623,834,0,0
406,190,0,0,0,0,0,0,0,0,0,-1,1630,834,0,0
413,190,0,0,0,0,0,0,0,0,0,-1,1637,834,0,0
420,190,0,0,0,0,0,0,0,0,0,-1,1644,834,0,0
427,190,0,0,0,0,0,0,0,0,0,-1,1651,834,0,0
434,190,0,0,0,0,0,0,0,0,0,-1,1658,834,0,0
441,190,0,0,0,0,0,0,0,0,0,-1,1665,834,0,0
448,190,0,0,0,0,0,0,0,0,0,-1,1672,834,0,0
455,190,0,0,0,0,0,0,0,0,0,-1,1679,834,0,0
462,190,0,0,0,0,0,0,0,0,0,-1,1686,834,0,0
469,190,0,0,0,0,0,0,0,0,0,-1,1693,834,0,0
476,190,0,0,0,0,0,0,0,0,0,-1,1700,834,0,0
483,190,0,0,0,0,0,0,0,0,0,-1,1707,834,0,0
490,190,0,0,0,0,0,0,0,0,0,-1,1714,834,0,0
497,190,0,0,0,0,0,0,0,0,0,-1,1721,834,0,0
504,190,0,0,0,0,0,0,0,0,0,-1,1728,834,0,0
511,190,0,0,0,0,0,0,0,0,0,-1,1735,834,0,0
518,190,0,0,0,0,0,0,0,0,0,-1,1742,834,0,0
525,190,0,0,0,0,0,0,0,0,0,-1,1749,834,0,0
532,190,0,0,0,0,0,0,0,0,0,-1,1756,834,0,0
539,190,0,0,0,0,0,0,0,0,0,-1,1763,834,0,0
546,190,0,0,0,0,0,0,0,0,0,-1,1770,834,0,0
553,190,0,0,0,0,0,0,0,0,0,-1,1777,834,0,0
560,190,0,0,0,0,0,0,0,0,0,-1,1784,834,0,0
567,190,0,0,0,0,0,0,0,0,0,-1,1791,834,0,0
574,190,0,0,0,0,0,0,0,0,0,-1,1798,834,0,0
581,190,0,0,0,0,0,0,0,0,0,-1,1805,834,0,0
588,190,0,0,0,0,0,0,0,0,0,-1,1812,834,0,0
595,190,0,0,0,0,0,0,0,0,0,-1,1819,834,0,0
602,190,43.7706,2.82733,-0.000966172,0.00322566,0.00372699,0.00540564,-0.00314616,1.04154,0.0049945,0.040799,1826,834,43.7707,-2.82731
609,190,43.6887,3.06305,-0.000359973,0.00312776,0.00283337,0.00471091,-0.00194312,1.06126,0.00395094,0.0397449,1833,834,43.6887,-3.06304
616,190,43.6959,3.13507,0.000452437,0.00294918,0.00175708,0.00385622,-0.000454596,1.09426,0.00273497,0.0392363,1840,834,43.6959,-3.13506
623,190,43.7166,2.99182,0.000892568,0.00253155,0.000664887,0.00276735,0.000656767,1.22999,0.0016696,0.0396527,1847,834,43.7166,-2.99184
630,190,43.7719,2.87054,0.000862772,0.00209756,-0.000347364,0.00218857,0.000771762,-1.31455,0.00128174,0.0434862,1854,834,43.7719,-2.87053
637,190,43.7347,2.93689,0.000505257,0.00158645,-0.00102049,0.00220069,-0.000108983,-1.02898,0.00150477,0.0368051,1861,834,43.7347,-2.93686
644,190,43.7086,2.95581,9.18141e-05,0.00101504,-0.00141152,0.00203851,-0.000931654,-0.943433,0.00175406,0.0282736,1868,834,43.7086,-2.95578
651,190,43.7356,3.0141,-0.000265017,0.000527987,-0.00165121,0.00182963,-0.00156666,-0.903231,0.00196281,0.0404189,1875,834,43.7356,-3.01408
658,190,43.8182,3.03296,0,0,0,0,0,0,0,-1,1882,834,43.8182,-3.03294
665,190,25.9916,3.05157,0,0,0,0,0,0,0,-1,1889,834,25.9916,-3.05156
672,190,27.2662,1.70862,0,0,0,0,0,0,0,-1,1896,834,27.2662,-1.70861
679,190,34.3599,1.43408,0,0,0,0,0,0,0,-1,1903,834,34.3598,-1.43411
686,190,34.2765,1.82098,-0.00160497,-0.000836313,-0.00185646,0.000675184,-0.00311647,-0.887468,0.00233547,0.0249586,1910,834,34.2765,-1.82101
693,190,34.3029,2.2608,-0.00145061,-0.000847128,-0.00178205,0.000658549,-0.00295629,-0.869264,0.00222313,0.017392,1917,834,34.3028,-2.26081
700,190,34.2249,2.72284,-0.00119361,-0.000718995,-0.0017157,0.000775733,-0.00268834,-0.85412,0.00209914,0.0130808,1924,834,34.2249,-2.72285
707,190,34.2483,3.19501,-0.000713102,-0.000376926,-0.00196551,0.00142767,-0.0025177,-0.828054,0.00230666,0.0125133,1931,834,34.2483,-3.195
714,190,34.2487,3.66125,0.000593891,0.000409013,-0.00276913,0.00327213,-0.00226922,-0.768713,0.00321672,0.0113333,1938,834,34.2487,-3.66127
721,190,34.2094,4.13867,0.0026625,0.00133399,-0.00412879,0.00618012,-0.00218364,-0.70564,0.00500921,0.0107051,1945,834,34.2094,-4.13869
728,190,34.1945,4.61676,0.00526329,0.00219508,-0.00617444,0.0100914,-0.00263298,-0.663634,0.00775567,0.0127258,1952,834,34.1945,-4.61676
735,190,34.182,5.09808,0.00854996,0.00307539,-0.00914188,0.0153556,-0.00373021,-0.639935,0.0116807,0.0116045,1959,834,34.182,-5.09806
742,190,34.1361,5.63593,0.0128085,0.00403232,-0.0132428,0.0223712,-0.00553043,-0.625412,0.0170591,0.0156792,1966,834,34.1361,-5.6359
749,190,34.0018,6.21356,0.0185142,0.00501637,-0.0189425,0.0318741,-0.00834358,-0.614268,0.0245087,0.0395976,1973,834,34.0019,-6.21356
756,190,34.62,5.61353,0.0262659,0.00609094,-0.026827,0.0448393,-0.0124824,-0.605566,0.0348079,0.0473034,1980,834,34.62,-5.61353
763,190,35.056,5.45093,0.0365834,0.00739508,-0.0375099,0.0622383,-0.0182598,-0.599872,0.0487327,0.0478823,1987,834,35.056,-5.45092
770,190,35.4615,5.30695,0,0,0,0,0,0,0,-1,1994,834,35.4615,-5.30692
777,190,34.9115,4.44727,0,0,0,0,0,0,0,-1,2001,834,34.9115,-4.44725
784,190,0,0,0,0,0,0,0,0,0,-1,2008,834,0,0
791,190,0,0,0,0,0,0,0,0,0,-1,2015,834,0,0
798,190,0,0,0,0,0,0,0,0,0,-1,2022,834,0,0
805,190,0,0,0,0,0,0,0,0,0,-1,2029,834,0,0
812,190,0,0,0,0,0,0,0,0,0,-1,2036,834,0,0
-700,183,0,0,0,0,0,0,0,0,0,-1,524,841,0,0
-693,183,0,0,0,0,0,0,0,0,0,-1,531,841,0,0
-686,183,0,0,0,0,0,0,0,0,0,-1,538,841,0,0
-679,183,0,0,0,0,0,0,0,0,0,-1,545,841,0,0
-672,183,0,0,0,0,0,0,0,0,0,-1,552,841,0,0
-665,183,0,0,0,0,0,0,0,0,0,-1,559,841,0,0
-658,183,-27.3533,4.91992,0,0,0,0,0,0,0,-1,566,841,-27.3533,-4.91993
-651,183,-27.269,5.28711,0,0,0,0,0,0,0,-1,573,841,-27.269,-5.28713
-644,183,-27.1406,4.93109,0,0,0,0,0,0,0,-1,580,841,-27.1406,-4.93111
-637,183,-23.6696,5.35004,0,0,0,0,0,0,0,-1,587,841,-23.6696,-5.35001
-630,183,-23.9738,3.95013,0,0,0,0,0,0,0,-1,594,841,-23.9738,-3.95012
-623,183,-24.1274,3.65753,0.000556963,0.00386165,0.000452069,0.00392237,0.000496238,1.43727,0.0024662,0.0472726,601,841,-24.1274,-3.65754
-616,183,-24.3096,3.28577,-0.00129257,0.00211039,0.00217579,0.00317099,-0.00235318,1.11723,0.00320101,0.0401822,608,841,-24.3096,-3.28579
-609,183,-24.4559,2.90179,-0.00247178,0.0013386,0.00299539,0.00298336,-0.00411654,1.06865,0.0041165,0.0171899,615,841,-24.4559,-2.90179
-602,183,-24.4771,2.44757,-0.00284915,0.00120706,0.00278437,0.00262365,-0.00426573,1.10016,0.00401507,0.0105537,622,841,-24.477,-2.4476
-595,183,-24.4966,1.98315,-0.00247847,0.000747483,0.00222645,0.00188383,-0.00361481,1.09888,0.00322665,0.0103999,629,841,-24.4966,-1.98313
-588,183,-24.4859,1.52118,-0.00203655,-0.000121629,0.00189437,0.00104349,-0.00320167,1.01939,0.00255434,0.0119989,636,841,-24.4859,-1.52118
-581,183,-24.5101,1.07788,-0.00166986,-0.000616686,0.00172947,0.000664588,-0.00295113,0.933178,0.00222232,0.0133409,643,841,-24.5101,-1.07786
-574,183,-24.5093,0.634644,-0.00145981,-0.00121366,0.00150314,0.000171432,-0.0028449,0.826247,0.00195625,0.0134225,650,841,-24.5093,-0.634627
-567,183,-24.3779,0.16571,-0.00107289,-0.0014473,0.00102401,-0.000219115,-0.00230108,0.694989,0.00146648,0.0393514,657,841,-24.3779,-0.165685
-560,183,-24.6313,-0.234558,-0.000506706,-0.00133562,0.000914384,8.27671e-05,-0.00192509,0.572617,0.00131185,0.0462331,664,841,-24.6314,0.234571
-553,183,-24.9534,-0.894226,0,0,0,0,0,0,0,-1,671,841,-24.9534,0.894198
-546,183,-23.2448,-1.43811,0,0,0,0,0,0,0,-1,678,841,-23.2448,1.43813
-539,183,-16.8032,-0.417297,0,0,0,0,0,0,0,-1,685,841,-16.8032,0.41732
-532,183,-29.9686,0.953613,0,0,0,0,0,0,0,-1,692,841,-29.9686,-0.953627
-525,183,-32.3332,1.24597,0,0,0,0,0,0,0,-1,699,841,-32.3332,-1.24599
-518,183,-32.2816,1.15002,-0.00100268,0.000470039,-0.00312387,0.00294316,-0.0034758,-0.901145,0.00371024,0.0476661,706,841,-32.2816,-1.15003
-511,183,-32.217,1.06073,-0.00110743,0.00127537,-0.00430169,0.00454759,-0.00437965,-0.920492,0.00515445,0.0408575,713,841,-32.2171,-1.06071
-504,183,-32.1324,1.6817,-0.00105109,0.00237347,-0.00587237,0.00677811,-0.00545573,-0.927256,0.00707695,0.0403944,720,841,-32.1324,-1.68173
-497,183,-32.3228,1.59027,-0.00122996,0.00412698,-0.00783427,0.00972801,-0.00683098,-0.950115,0.00960898,0.0434071,727,841,-32.3228,-1.59029
-490,183,-32.4413,1.21088,-0.00130363,0.00698495,-0.0102546,0.013901,-0.00821972,-0.977433,0.0129111,0.0420956,734,841,-32.4414,-1.21086
-483,183,0,0,0,0,0,0,0,0,0,-1,741,841,0,0
-476,183,0,0,0,0,0,0,0,0,0,-1,748,841,0,0
-469,183,0,0,0,0,0,0,0,0,0,-1,755,841,0,0
-462,183,0,0,0,0,0,0,0,0,0,-1,762,841,0,0
-455,183,0,0,0,0,0,0,0,0,0,-1,769,841,0,0
-448,183,0,0,0,0,0,0,0,0,0,-1,776,841,0,0
-441,183,0,0,0,0,0,0,0,0,0,-1,783,841,0,0
-434,183,0,0,0,0,0,0,0,0,0,-1,790,841,0,0
-427,183,0,0,0,0,0,0,0,0,0,-1,797,841,0,0
-420,183,0,0,0,0,0,0,0,0,0,-1,804,841,0,0
-413,183,0,0,0,0,0,0,0,0,0,-1,811,841,0,0
-406,183,0,0,0,0,0,0,0,0,0,-1,818,841,0,0
-399,183,0,0,0,0,0,0,0,0,0,-1,825,841,0,0
-392,183,0,0,0,0,0,0,0,0,0,-1,832,841,0,0
-385,183,0,0,0,0,0,0,0,0,0,-1,839,841,0,0
-378,183,0,0,0,0,0,0,0,0,0,-1,846,841,0,0
-371,183,0,0,0,0,0,0,0,0,0,-1,853,841,0,0
-364,183,0,0,0,0,0,0,0,0,0,-1,860,841,0,0
-357,183,0,0,0,0,0,0,0,0,0,-1,867,841,0,0
-350,183,0,0,0,0,0,0,0,0,0,-1,874,841,0,0
-343,183,0,0,0,0,0,0,0,0,0,-1,881,841,0,0
-336,183,0,0,0,0,0,0,0,0,0,-1,888,841,0,0
-329,183,0,0,0,0,0,0,0,0,0,-1,895,841,0,0
-322,183,0,0,0,0,0,0,0,0,0,-1,902,841,0,0
-315,183,0,0,0,0,0,0,0,0,0,-1,909,841,0,0
-308,183,0,0,0,0,0,0,0,0,0,-1,916,841,0,0
-301,183,0,0,0,0,0,0,0,0,0,-1,923,841,0,0
-294,183,0,0,0,0,0,0,0,0,0,-1,930,841,0,0
-287,183,0,0,0,0,0,0,0,0,0,-1,937,841,0,0
-280,183,0,0,0,0,0,0,0,0,0,-1,944,841,0,0
-273,183,0,0,0,0,0,0,0,0,0,-1,951,841,0,0
-266,183,0,0,0,0,0,0,0,0,0,-1,958,841,0,0
-259,183,0,0,0,0,0,0,0,0,0,-1,965,841,0,0
-252,183,0,0,0,0,0,0,0,0,0,-1,972,841,0,0
-245,183,0,0,0,0,0,0,0,0,0,-1,979,841,0,0
-238,183,0,0,0,0,0,0,0,0,0,-1,986,841,0,0
-231,183,0,0,0,0,0,0,0,0,0,-1,993,841,0,0
-224,183,0,0,0,0,0,0,0,0,0,-1,1000,841,0,0
-217,183,0,0,0,0,0,0,0,0,0,-1,1007,841,0,0
-210,183,0,0,0,0,0,0,0,0,0,-1,1014,841,0,0
-203,183,0,0,0,0,0,0,0,0,0,-1,1021,841,0,0
-196,183,0,0,0,0,0,0,0,0,0,-1,1028,841,0,0
-189,183,0,0,0,0,0,0,0,0,0,-1,1035,841,0,0
-182,183,0,0,0,0,0,0,0,0,0,-1,1042,841,0,0
-175,183,0,0,0,0,0,0,0,0,0,-1,1049,841,0,0
-168,183,0,0,0,0,0,0,0,0,0,-1,1056,841,0,0
-161,183,0,0,0,0,0,0,0,0,0,-1,1063,841,0,0
-154,183,0,0,0,0,0,0,0,0,0,-1,1070,841,0,0
-147,183,0,0,0,0,0,0,0,0,0,-1,1077,841,0,0
-140,183,0,0,0,0,0,0,0,0,0,-1,1084,841,0,0
-133,183,0,0,0,0,0,0,0,0,0,-1,1091,841,0,0
-126,183,0,0,0,0,0,0,0,0,0,-1,1098,841,0,0
-119,183,0,0,0,0,0,0,0,0,0,-1,1105,841,0,0
-112,183,0,0,0,0,0,0,0,0,0,-1,1112,841,0,0
-105,183,0,0,0,0,0,0,0,0,0,-1,1119,841,0,0
-98,183,0,0,0,0,0,0,0,0,0,-1,1126,841,0,0
-91,183,0,0,0,0,0,0,0,0,0,-1,1133,841,0,0
-84,183,0,0,0,0,0,0,0,0,0,-1,1140,841,0,0
-77,183,0,0,0,0,0,0,0,0,0,-1,1147,841,0,0
-70,183,0,0,0,0,0,0,0,0,0,-1,1154,841,0,0
-63,183,0,0,0,0,0,0,0,0,0,-1,1161,841,0,0
-56,183,0,0,0,0,0,0,0,0,0,-1,1168,841,0,0
-49,183,0,0,0,0,0,0,0,0,0,-1,1175,841,0,0
-42,183,0,0,0,0,0,0,0,0,0,-1,1182,841,0,0
-35,183,0,0,0,0,0,0,0,0,0,-1,1189,841,0,0
-28,183,0,0,0,0,0,0,0,0,0,-1,1196,841,0,0
-21,183,0,0,0,0,0,0,0,0,0,-1,1203,841,0,0
-14,183,0,0,0,0,0,0,0,0,0,-1,1210,841,0,0
-7,183,0,0,0,0,0,0,0,0,0,-1,1217,841,0,0
0,183,0,0,0,0,0,0,0,0,0,-1,1224,841,0,0
7,183,0,0,0,0,0,0,0,0,0,-1,1231,841,0,0
14,183,0,0,0,0,0,0,0,0,0,-1,1238,841,0,0
21,183,0,0,0,0,0,0,0,0,0,-1,1245,841,0,0
28,183,0,0,0,0,0,0,0,0,0,-1,1252,841,0,0
35,183,0,0,0,0,0,0,0,0,0,-1,1259,841,0,0
42,183,0,0,0,0,0,0,0,0,0,-1,1266,841,0,0
49,183,0,0,0,0,0,0,0,0,0,-1,1273,841,0,0
56,183,0,0,0,0,0,0,0,0,0,-1,1280,841,0,0
63,183,0,0,0,0,0,0,0,0,0,-1,1287,841,0,0
70,183,0,0,0,0,0,0,0,0,0,-1,1294,841,0,0
77,183,0,0,0,0,0,0,0,0,0,-1,1301,841,0,0
84,183,0,0,0,0,0,0,0,0,0,-1,1308,841,0,0
91,183,0,0,0,0,0,0,0,0,0,-1,1315,841,0,0
98,183,0,0,0,0,0,0,0,0,0,-1,1322,841,0,0
105,183,0,0,0,0,0,0,0,0,0,-1,1329,841,0,0
112,183,0,0,0,0,0,0,0,0,0,-1,1336,841,0,0
119,183,0,0,0,0,0,0,0,0,0,-1,1343,841,0,0
126,183,0,0,0,0,0,0,0,0,0,-1,1350,841,0,0
133,183,0,0,0,0,0,0,0,0,0,-1,1357,841,0,0
140,183,0,0,0,0,0,0,0,0,0,-1,1364,841,0,0
147,183,0,0,0,0,0,0,0,0,0,-1,1371,841,0,0
154,183,0,0,0,0,0,0,0,0,0,-1,1378,841,0,0
161,183,0,0,0,0,0,0,0,0,0,-1,1385,841,0,0
168,183,0,0,0,0,0,0,0,0,0,-1,1392,841,0,0
175,183,0,0,0,0,0,0,0,0,0,-1,1399,841,0,0
182,183,0,0,0,0,0,0,0,0,0,-1,1406,841,0,0
189,183,0,0,0,0,0,0,0,0,0,-1,1413,841,0,0
196,183,0,0,0,0,0,0,0,0,0,-1,1420,841,0,0
203,183,0,0,0,0,0,0,0,0,0,-1,1427,841,0,0
210,183,0,0,0,0,0,0,0,0,0,-1,1434,841,0,0
217,183,0,0,0,0,0,0,0,0,0,-1,1441,841,0,0
224,183,0,0,0,0,0,0,0,0,0,-1,1448,841,0,0
231,183,0,0,0,0,0,0,0,0,0,-1,1455,841,0,0
238,183,0,0,0,0,0,0,0,0,0,-1,1462,841,0,0
245,183,0,0,0,0,0,0,0,0,0,-1,1469,841,0,0
252,183,0,0,0,0,0,0,0,0,0,-1,1476,841,0,0
259,183,0,0,0,0,0,0,0,0,0,-1,1483,841,0,0
266,183,0,0,0,0,0,0,0,0,0,-1,1490,841,0,0
273,183,0,0,0,0,0,0,0,0,0,-1,1497,841,0,0
280,183,0,0,0,0,0,0,0,0,0,-1,1504,841,0,0
287,183,0,0,0,0,0,0,0,0,0,-1,1511,841,0,0
294,183,0,0,0,0,0,0,0,0,0,-1,1518,841,0,0
301,183,0,0,0,0,0,0,0,0,0,-1,1525,841,0,0
308,183,0,0,0,0,0,0,0,0,0,-1,1532,841,0,0
315,183,0,0,0,0,0,0,0,0,0,-1,1539,841,0,0
322,183,0,0,0,0,0,0,0,0,0,-1,1546,841,0,0
329,183,0,0,0,0,0,0,0,0,0,-1,1553,841,0,0
336,183,0,0,0,0,0,0,0,0,0,-1,1560,841,0,0
343,183,0,0,0,0,0,0,0,0,0,-1,1567,841,0,0
350,183,0,0,0,0,0,0,0,0,0,-1,1574,841,0,0
357,183,0,0,0,0,0,0,0,0,0,-1,1581,841,0,0
364,183,0,0,0,0,0,0,0,0,0,-1,1588,841,0,0
371,183,0,0,0,0,0,0,0,0,0,-1,1595,841,0,0
378,183,0,0,0,0,0,0,0,0,0,-1,1602,841,0,0
385,183,0,0,0,0,0,0,0,0,0,-1,1609,841,0,0
392,183,0,0,0,0,0,0,0,0,0,-1,1616,841,0,0
399,183,0,0,0,0,0,0,0,0,0,-1,1623,841,0,0
406,183,0,0,0,0,0,0,0,0,0,-1,1630,841,0,0
413,183,0,0,0,0,0,0,0,0,0,-1,1637,841,0,0
420,183,0,0,0,0,0,0,0,0,0,-1,1644,841,0,0
427,183,0,0,0,0,0,0,0,0,0,-1,1651,841,0,0
434,183,0,0,0,0,0,0,0,0,0,-1,1658,841,0,0
441,183,0,0,0,0,0,0,0,0,0,-1,1665,841,0,0
448,183,0,0,0,0,0,0,0,0,0,-1,1672,841,0,0
455,183,0,0,0,0,0,0,0,0,0,-1,1679,841,0,0
462,183,0,0,0,0,0,0,0,0,0,-1,1686,841,0,0
469,183,0,0,0,0,0,0,0,0,0,-1,1693,841,0,0
476,183,0,0,0,0,0,0,0,0,0,-1,1700,841,0,0
483,183,0,0,0,0,0,0,0,0,0,-1,1707,841,0,0
490,183,0,0,0,0,0,0,0,0,0,-1,1714,841,0,0
497,183,0,0,0,0,0,0,0,0,0,-1,1721,841,0,0
504,183,0,0,0,0,0,0,0,0,0,-1,1728,841,0,0
511,183,0,0,0,0,0,0,0,0,0,-1,1735,841,0,0
518,183,0,0,0,0,0,0,0,0,0,-1,1742,841,0,0
525,183,0,0,0,0,0,0,0,0,0,-1,1749,841,0,0
532,183,0,0,0,0,0,0,0,0,0,-1,1756,841,0,0
539,183,0,0,0,0,0,0,0,0,0,-1,1763,841,0,0
546,183,0,0,0,0,0,0,0,0,0,-1,1770,841,0,0
553,183,0,0,0,0,0,0,0,0,0,-1,1777,841,0,0
560,183,0,0,0,0,0,0,0,0,0,-1,1784,841,0,0
567,183,0,0,0,0,0,0,0,0,0,-1,1791,841,0,0
574,183,0,0,0,0,0,0,0,0,0,-1,1798,841,0,0
581,183,0,0,0,0,0,0,0,0,0,-1,1805,841,0,0
588,183,0,0,0,0,0,0,0,0,0,-1,1812,841,0,0
595,183,0,0,0,0,0,0,0,0,0,-1,1819,841,0,0
602,183,0,0,0,0,0,0,0,0,0,-1,1826,841,0,0
609,183,43.566,3.03955,-0.000601087,0.00248946,0.00240377,0.00380181,-0.00191343,1.07107,0.0033592,0.0402568,1833,841,43.5661,-3.03954
616,183,43.4532,3.23608,0.00024738,0.00237583,0.00135533,0.00303483,-0.000411617,1.11823,0.00217346,0.0364707,1840,841,43.4532,-3.23611
623,183,43.5376,3.13556,0.000803353,0.00207182,0.00044566,0.00221274,0.000662431,1.26454,0.00131136,0.040706,1847,841,43.5376,-3.13559
630,183,43.6611,3.06665,0.000912335,0.00173059,-0.000433577,0.0019176,0.00072533,-1.16359,0.00111801,0.0419224,1854,841,43.6611,-3.06664
637,183,43.6855,3.04541,0.000642777,0.0013279,-0.00103844,0.00207883,-0.000108147,-0.944718,0.0014233,0.0363907,1861,841,43.6856,-3.04541
644,183,43.5948,3.02136,0.000266816,0.000827241,-0.00137961,0.00195481,-0.000860748,-0.88559,0.00166597,0.0290625,1868,841,43.5948,-3.02134
651,183,43.6849,2.9433,-6.34742e-05,0.000378349,-0.00157658,0.00174942,-0.00143455,-0.855005,0.00184126,0.0263546,1875,841,43.685,-2.94332
658,183,43.8696,2.70331,0,0,0,0,0,0,0,-1,1882,841,43.8696,-2.70333
665,183,38.4337,2.66992,0,0,0,0,0,0,0,-1,1889,841,38.4337,-2.6699
672,183,29.168,1.54572,0,0,0,0,0,0,0,-1,1896,841,29.168,-1.54574
679,183,34.9694,1.42944,0,0,0,0,0,0,0,-1,1903,841,34.9694,-1.42947
686,183,34.884,1.83142,-0.00135825,-0.00071041,-0.0016062,0.000604205,-0.00267287,-0.884898,0.00201376,0.0272092,1910,841,34.884,-1.83144
693,183,34.8488,2.271,-0.0012242,-0.000741682,-0.00155721,0.000592848,-0.00255873,-0.862252,0.00193397,0.023376,1917,841,34.8488,-2.27103
700,183,34.7468,2.76428,-0.0010184,-0.000677113,-0.00158064,0.000742067,-0.00243758,-0.839169,0.0019208,0.0214554,1924,841,34.7468,-2.76428
707,183,34.6982,3.23157,-0.000693419,-0.000435166,-0.00182967,0.00126992,-0.00239851,-0.820627,0.00215112,0.0127188,1931,841,34.6982,-3.23158
714,183,34.7209,3.6875,0.000530298,0.000233953,-0.002535,0.00292145,-0.0021572,-0.756206,0.00294321,0.0154374,1938,841,34.7209,-3.68749
721,183,34.7334,4.14453,0.00282516,0.0011473,-0.0038578,0.00593419,-0.00196173,-0.678333,0.00474713,0.013895,1945,841,34.7334,-4.14454
728,183,34.6952,4.63428,0.00568246,0.00198358,-0.00577267,0.00989472,-0.00222867,-0.630375,0.00745131,0.0124474,1952,841,34.6952,-4.63429
735,183,34.6753,5.11121,0.00944208,0.00289506,-0.00853871,0.0153133,-0.00297612,-0.602353,0.0113319,0.0118693,1959,841,34.6753,-5.11119
742,183,34.662,5.6012,0.0144156,0.00396879,-0.0122765,0.0225337,-0.00414928,-0.584258,0.0165796,0.0112109,1966,841,34.662,-5.60118
749,183,34.5387,6.23895,0.0212326,0.00519893,-0.0174035,0.0323769,-0.00594542,-0.569563,0.0238151,0.0324702,1973,841,34.5387,-6.23896
756,183,34.4196,6.88879,0,0,0,0,0,0,0,-1,1980,841,34.4196,-6.88881
763,183,35.6583,5.35101,0,0,0,0,0,0,0,-1,1987,841,35.6583,-5.35101
770,183,35.5146,4.29053,0,0,0,0,0,0,0,-1,1994,841,35.5146,-4.29052
777,183,35.8634,3.97717,0,0,0,0,0,0,0,-1,2001,841,35.8634,-3.97714
784,183,0,0,0,0,0,0,0,0,0,-1,2008,841,0,0
791,183,0,0,0,0,0,0,0,0,0,-1,2015,841,0,0
798,183,0,0,0,0,0,0,0,0,0,-1,2022,841,0,0
805,183,0,0,0,0,0,0,0,0,0,-1,2029,841,0,0
812,183,0,0,0,0,0,0,0,0,0,-1,2036,841,0,0
-700,176,0,0,0,0,0,0,0,0,0,-1,524,848,0,0
-693,176,0,0,0,0,0,0,0,0,0,-1,531,848,0,0
-686,176,0,0,0,0,0,0,0,0,0,-1,538,848,0,0
-679,176,0,0,0,0,0,0,0,0,0,-1,545,848,0,0
-672,176,0,0,0,0,0,0,0,0,0,-1,552,848,0,0
-665,176,-28.0579,2.92853,0,0,0,0,0,0,0,-1,559,848,-28.0579,-2.92855
-658,176,-27.1274,4.09308,0,0,0,0,0,0,0,-1,566,848,-27.1274,-4.0931
-651,176,-26.8842,5.19482,0,0,0,0,0,0,0,-1,573,848,-26.8842,-5.19482
-644,176,-26.7286,4.80737,0,0,0,0,0,0,0,-1,580,848,-26.7286,-4.80739
-637,176,-25.5467,4.22345,0,0,0,0,0,0,0,-1,587,848,-25.5467,-4.22346
-630,176,-24.7305,4.10083,0,0,0,0,0,0,0,-1,594,848,-24.7305,-4.1008
-623,176,-24.8025,3.71356,0.00160819,0.0029735,0.000442564,0.00310441,0.00147728,1.28321,0.00179303,0.0404735,601,848,-24.8025,-3.71354
-616,176,-24.8954,3.45001,-0.000369449,0.00101719,0.00244013,0.00286059,-0.00221285,0.923816,0.0029371,0.0268004,608,848,-24.8954,-3.45003
-609,176,-24.9348,2.90601,-0.00184803,0.000218722,0.00341412,0.00275243,-0.00438173,0.932354,0.00415456,0.0116687,615,848,-24.9347,-2.90601
-602,176,-24.9453,2.43982,-0.00246486,0.000193203,0.00323109,0.00235792,-0.00462957,0.980514,0.00410468,0.0114171,622,848,-24.9453,-2.4398
-595,176,-24.9679,1.97217,-0.00222687,-0.000119766,0.00256402,0.00159871,-0.00394535,0.980331,0.00329506,0.0110372,629,848,-24.9679,-1.97215
-588,176,-24.9464,1.52319,-0.00187634,-0.000830281,0.00209388,0.000804904,-0.00351153,0.907789,0.00265038,0.012581,636,848,-24.9464,-1.52321
-581,176,-24.966,1.1084,-0.00155654,-0.00113128,0.00178789,0.000456581,-0.0031444,0.844584,0.00226386,0.0115633,643,848,-24.966,-1.10839
-574,176,-24.9939,0.661743,-0.00139789,-0.00145049,0.00142247,-1.47591e-06,-0.0028469,0.776155,0.00189744,0.017914,650,848,-24.9939,-0.661735
-567,176,-24.851,0.351624,-0.00102914,-0.0015655,0.00086118,-0.000395347,-0.00219929,0.634451,0.00135379,0.0470459,657,848,-24.851,-0.351647
-560,176,-25.0739,-0.200745,-0.000456246,-0.0013803,0.000675287,-0.000100055,-0.00173649,0.485378,0.00112579,0.0362436,664,848,-25.0739,0.200729
-553,176,-25.0767,-0.753479,0,0,0,0,0,0,0,-1,671,848,-25.0766,0.753484
-546,176,-16.657,-0.403198,0,0,0,0,0,0,0,-1,678,848,-16.657,0.403182
-539,176,-22.7061,1.48657,0,0,0,0,0,0,0,-1,685,848,-22.7061,-1.48657
-532,176,-32.1757,1.28497,0,0,0,0,0,0,0,-1,692,848,-32.1757,-1.28498
-525,176,-32.1752,1.30438,-0.000778835,0.000346551,-0.00219421,0.00204907,-0.00248135,-0.910915,0.00261961,0.0489369,699,848,-32.1752,-1.3044
-518,176,-32.2121,1.15857,-0.00109199,0.00115744,-0.00311895,0.00334827,-0.00328282,-0.958445,0.00382853,0.043576,706,848,-32.2121,-1.15859
-511,176,-32.2248,1.04266,-0.00134051,0.00216193,-0.00424036,0.00499846,-0.00417704,-0.981225,0.00530455,0.0395664,713,848,-32.2248,-1.04268
-504,176,-32.157,1.70801,0,0,0,0,0,0,0,-1,720,848,-32.157,-1.70801
-497,176,-32.2581,1.44598,-0.00214829,0.00544623,-0.00770495,0.0102388,-0.00694088,-1.01435,0.00997943,0.0422922,727,848,-32.2581,-1.44598
-490,176,-32.4118,1.14081,-0.00244871,0.0084037,-0.0101926,0.0145245,-0.00856952,-1.03,0.0134803,0.0393884,734,848,-32.4118,-1.14078
-483,176,0,0,0,0,0,0,0,0,0,-1,741,848,0,0
-476,176,0,0,0,0,0,0,0,0,0,-1,748,848,0,0
-469,176,0,0,0,0,0,0,0,0,0,-1,755,848,0,0
-462,176,0,0,0,0,0,0,0,0,0,-1,762,848,0,0
-455,176,0,0,0,0,0,0,0,0,0,-1,769,848,0,0
-448,176,0,0,0,0,0,0,0,0,0,-1,776,848,0,0
-441,176,0,0,0,0,0,0,0,0,0,-1,783,848,0,0
-434,176,0,0,0,0,0,0,0,0,0,-1,790,848,0,0
-427,176,0,0,0,0,0,0,0,0,0,-1,797,848,0,0
-420,176,0,0,0,0,0,0,0,0,0,-1,804,848,0,0
-413,176,0,0,0,0,0,0,0,0,0,-1,811,848,0,0
-406,176,0,0,0,0,0,0,0,0,0,-1,818,848,0,0
-399,176,0,0,0,0,0,0,0,0,0,-1,825,848,0,0
-392,176,0,0,0,0,0,0,0,0,0,-1,832,848,0,0
-385,176,0,0,0,0,0,0,0,0,0,-1,839,848,0,0
-378,176,0,0,0,0,0,0,0,0,0,-1,846,848,0,0
-371,176,0,0,0,0,0,0,0,0,0,-1,853,848,0,0
-364,176,0,0,0,0,0,0,0,0,0,-1,860,848,0,0
-357,176,0,0,0,0,0,0,0,0,0,-1,867,848,0,0
-350,176,0,0,0,0,0,0,0,0,0,-1,874,848,0,0
-343,176,0,0,0,0,0,0,0,0,0,-1,881,848,0,0
-336,176,0,0,0,0,0,0,0,0,0,-1,888,848,0,0
-329,176,0,0,0,0,0,0,0,0,0,-1,895,848,0,0
-322,176,0,0,0,0,0,0,0,0,0,-1,902,848,0,0
-315,176,0,0,0,0,0,0,0,0,0,-1,909,848,0,0
-308,176,0,0,0,0,0,0,0,0,0,-1,916,848,0,0
-301,176,0,0,0,0,0,0,0,0,0,-1,923,848,0,0
-294,176,0,0,0,0,0,0,0,0,0,-1,930,848,0,0
-287,176,0,0,0,0,0,0,0,0,0,-1,937,848,0,0
-280,176,0,0,0,0,0,0,0,0,0,-1,944,848,0,0
-273,176,0,0,0,0,0,0,0,0,0,-1,951,848,0,0
-266,176,0,0,0,0,0,0,0,0,0,-1,958,848,0,0
-259,176,0,0,0,0,0,0,0,0,0,-1,965,848,0,0
-252,176,0,0,0,0,0,0,0,0,0,-1,972,848,0,0
-245,176,0,0,0,0,0,0,0,0,0,-1,979,848,0,0
-238,176,0,0,0,0,0,0,0,0,0,-1,986,848,0,0
-231,176,0,0,0,0,0,0,0,0,0,-1,993,848,0,0
-224,176,0,0,0,0,0,0,0,0,0,-1,1000,848,0,0
-217,176,0,0,0,0,0,0,0,0,0,-1,1007,848,0,0
-210,176,0,0,0,0,0,0,0,0,0,-1,1014,848,0,0
-203,176,0,0,0,0,0,0,0,0,0,-1,1021,848,0,0
-196,176,0,0,0,0,0,0,0,0,0,-1,1028,848,0,0
-189,176,0,0,0,0,0,0,0,0,0,-1,1035,848,0,0
-182,176,0,0,0,0,0,0,0,0,0,-1,1042,848,0,0
-175,176,0,0,0,0,0,0,0,0,0,-1,1049,848,0,0
-168,176,0,0,0,0,0,0,0,0,0,-1,1056,848,0,0
-161,176,0,0,0,0,0,0,0,0,0,-1,1063,848,0,0
-154,176,0,0,0,0,0,0,0,0,0,-1,1070,848,0,0
-147,176,0,0,0,0,0,0,0,0,0,-1,1077,848,0,0
-140,176,0,0,0,0,0,0,0,0,0,-1,1084,848,0,0
-133,176,0,0,0,0,0,0,0,0,0,-1,1091,848,0,0
-126,176,0,0,0,0,0,0,0,0,0,-1,1098,848,0,0
-119,176,0,0,0,0,0,0,0,0,0,-1,1105,848,0,0
-112,176,0,0,0,0,0,0,0,0,0,-1,1112,848,0,0
-105,176,0,0,0,0,0,0,0,0,0,-1,1119,848,0,0
-98,176,0,0,0,0,0,0,0,0,0,-1,1126,848,0,0
-91,176,0,0,0,0,0,0,0,0,0,-1,1133,848,0,0
-84,176,0,0,0,0,0,0,0,0,0,-1,1140,848,0,0
-77,176,0,0,0,0,0,0,0,0,0,-1,1147,848,0,0
-70,176,0,0,0,0,0,0,0,0,0,-1,1154,848,0,0
-63,176,0,0,0,0,0,0,0,0,0,-1,1161,848,0,0
-56,176,0,0,0,0,0,0,0,0,0,-1,1168,848,0,0
-49,176,0,0,0,0,0,0,0,0,0,-1,1175,848,0,0
-42,176,0,0,0,0,0,0,0,0,0,-1,1182,848,0,0
-35,176,0,0,0,0,0,0,0,0,0,-1,1189,848,0,0
-28,176,0,0,0,0,0,0,0,0,0,-1,1196,848,0,0
-21,176,0,0,0,0,0,0,0,0,0,-1,1203,848,0,0
-14,176,0,0,0,0,0,0,0,0,0,-1,1210,848,0,0
-7,176,0,0,0,0,0,0,0,0,0,-1,1217,848,0,0
0,176,0,0,0,0,0,0,0,0,0,-1,1224,848,0,0
7,176,0,0,0,0,0,0,0,0,0,-1,1231,848,0,0
14,176,0,0,0,0,0,0,0,0,0,-1,1238,848,0,0
21,176,0,0,0,0,0,0,0,0,0,-1,1245,848,0,0
28,176,0,0,0,0,0,0,0,0,0,-1,1252,848,0,0
35,176,0,0,0,0,0,0,0,0,0,-1,1259,848,0,0
42,176,0,0,0,0,0,0,0,0,0,-1,1266,848,0,0
49,176,0,0,0,0,0,0,0,0,0,-1,1273,848,0,0
56,176,0,0,0,0,0,0,0,0,0,-1,1280,848,0,0
63,176,0,0,0,0,0,0,0,0,0,-1,1287,848,0,0
70,176,0,0,0,0,0,0,0,0,0,-1,1294,848,0,0
77,176,0,0,0,0,0,0,0,0,0,-1,1301,848,0,0
84,176,0,0,0,0,0,0,0,0,0,-1,1308,848,0,0
91,176,0,0,0,0,0,0,0,0,0,-1,1315,848,0,0
98,176,0,0,0,0,0,0,0,0,0,-1,1322,848,0,0
105,176,0,0,0,0,0,0,0,0,0,-1,1329,848,0,0
112,176,0,0,0,0,0,0,0,0,0,-1,1336,848,0,0
119,176,0,0,0,0,0,0,0,0,0,-1,1343,848,0,0
126,176,0,0,0,0,0,0,0,0,0,-1,1350,848,0,0
133,176,0,0,0,0,0,0,0,0,0,-1,1357,848,0,0
140,176,0,0,0,0,0,0,0,0,0,-1,1364,848,0,0
147,176,0,0,0,0,0,0,0,0,0,-1,1371,848,0,0
154,176,0,0,0,0,0,0,0,0,0,-1,1378,848,0,0
161,176,0,0,0,0,0,0,0,0,0,-1,1385,848,0,0
168,176,0,0,0,0,0,0,0,0,0,-1,1392,848,0,0
175,176,0,0,0,0,0,0,0,0,0,-1,1399,848,0,0
182,176,0,0,0,0,0,0,0,0,0,-1,1406,848,0,0
189,176,0,0,0,0,0,0,0,0,0,-1,1413,848,0,0
196,176,0,0,0,0,0,0,0,0,0,-1,1420,848,0,0
203,176,0,0,0,0,0,0,0,0,0,-1,1427,848,0,0
210,176,0,0,0,0,0,0,0,0,0,-1,1434,848,0,0
217,176,0,0,0,0,0,0,0,0,0,-1,1441,848,0,0
224,176,0,0,0,0,0,0,0,0,0,-1,1448,848,0,0
231,176,0,0,0,0,0,0,0,0,0,-1,1455,848,0,0
238,176,0,0,0,0,0,0,0,0,0,-1,1462,848,0,0
245,176,0,0,0,0,0,0,0,0,0,-1,1469,848,0,0
252,176,0,0,0,0,0,0,0,0,0,-1,1476,848,0,0
259,176,0,0,0,0,0,0,0,0,0,-1,1483,848,0,0
266,176,0,0,0,0,0,0,0,0,0,-1,1490,848,0,0
273,176,0,0,0,0,0,0,0,0,0,-1,1497,848,0,0
280,176,0,0,0,0,0,0,0,0,0,-1,1504,848,0,0
287,176,0,0,0,0,0,0,0,0,0,-1,1511,848,0,0
294,176,0,0,0,0,0,0,0,0,0,-1,1518,848,0,0
301,176,0,0,0,0,0,0,0,0,0,-1,1525,848,0,0
308,176,0,0,0,0,0,0,0,0,0,-1,1532,848,0,0
315,176,0,0,0,0,0,0,0,0,0,-1,1539,848,0,0
322,176,0,0,0,0,0,0,0,0,0,-1,1546,848,0,0
329,176,0,0,0,0,0,0,0,0,0,-1,1553,848,0,0
336,176,0,0,0,0,0,0,0,0,0,-1,1560,848,0,0
343,176,0,0,0,0,0,0,0,0,0,-1,1567,848,0,0
350,176,0,0,0,0,0,0,0,0,0,-1,1574,848,0,0
357,176,0,0,0,0,0,0,0,0,0,-1,1581,848,0,0
364,176,0,0,0,0,0,0,0,0,0,-1,1588,848,0,0
371,176,0,0,0,0,0,0,0,0,0,-1,1595,848,0,0
378,176,0,0,0,0,0,0,0,0,0,-1,1602,848,0,0
385,176,0,0,0,0,0,0,0,0,0,-1,1609,848,0,0
392,176,0,0,0,0,0,0,0,0,0,-1,1616,848,0,0
399,176,0,0,0,0,0,0,0,0,0,-1,1623,848,0,0
406,176,0,0,0,0,0,0,0,0,0,-1,1630,848,0,0
413,176,0,0,0,0,0,0,0,0,0,-1,1637,848,0,0
420,176,0,0,0,0,0,0,0,0,0,-1,1644,848,0,0
427,176,0,0,0,0,0,0,0,0,0,-1,1651,848,0,0
434,176,0,0,0,0,0,0,0,0,0,-1,1658,848,0,0
441,176,0,0,0,0,0,0,0,0,0,-1,1665,848,0,0
448,176,0,0,0,0,0,0,0,0,0,-1,1672,848,0,0
455,176,0,0,0,0,0,0,0,0,0,-1,1679,848,0,0
462,176,0,0,0,0,0,0,0,0,0,-1,1686,848,0,0
469,176,0,0,0,0,0,0,0,0,0,-1,1693,848,0,0
476,176,0,0,0,0,0,0,0,0,0,-1,1700,848,0,0
483,176,0,0,0,0,0,0,0,0,0,-1,1707,848,0,0
490,176,0,0,0,0,0,0,0,0,0,-1,1714,848,0,0
497,176,0,0,0,0,0,0,0,0,0,-1,1721,848,0,0
504,176,0,0,0,0,0,0,0,0,0,-1,1728,848,0,0
511,176,0,0,0,0,0,0,0,0,0,-1,1735,848,0,0
518,176,0,0,0,0,0,0,0,0,0,-1,1742,848,0,0
525,176,0,0,0,0,0,0,0,0,0,-1,1749,848,0,0
532,176,0,0,0,0,0,0,0,0,0,-1,1756,848,0,0
539,176,0,0,0,0,0,0,0,0,0,-1,1763,848,0,0
546,176,0,0,0,0,0,0,0,0,0,-1,1770,848,0,0
553,176,0,0,0,0,0,0,0,0,0,-1,1777,848,0,0
560,176,0,0,0,0,0,0,0,0,0,-1,1784,848,0,0
567,176,0,0,0,0,0,0,0,0,0,-1,1791,848,0,0
574,176,0,0,0,0,0,0,0,0,0,-1,1798,848,0,0
581,176,0,0,0,0,0,0,0,0,0,-1,1805,848,0,0
588,176,0,0,0,0,0,0,0,0,0,-1,1812,848,0,0
595,176,0,0,0,0,0,0,0,0,0,-1,1819,848,0,0
602,176,0,0,0,0,0,0,0,0,0,-1,1826,848,0,0
609,176,43.5942,2.94897,-0.000961535,0.00223958,0.00145898,0.00280476,-0.00152671,1.20122,0.0025368,0.037976,1833,848,43.5942,-2.94896
616,176,43.4585,3.0177,-9.60365e-05,0.0020739,0.000472889,0.00217248,-0.000194614,1.36528,0.00151735,0.0364201,1840,848,43.4585,-3.01769
623,176,43.3568,3.11029,0.00057736,0.00173766,-0.00014612,0.00175578,0.000559242,-1.44743,0.00103572,0.0435824,1847,848,43.3568,-3.11028
630,176,43.6167,3.16742,0.000885759,0.00140169,-0.00072822,0.00191629,0.000371164,-0.955623,0.00117353,0.0423511,1854,848,43.6167,-3.16743
637,176,43.6581,2.90863,0.000803982,0.00107832,-0.00111938,0.00206891,-0.000186604,-0.846365,0.00144549,0.0336959,1861,848,43.6581,-2.90866
644,176,43.579,2.97089,0.000537026,0.000653204,-0.00133701,0.00193339,-0.000743158,-0.807108,0.00159542,0.0320169,1868,848,43.579,-2.97086
651,176,43.63,2.98322,0.000274523,0.00024585,-0.00145748,0.00171774,-0.00119736,-0.78048,0.00169195,0.032977,1875,848,43.63,-2.98322
658,176,43.7675,2.83209,6.78164e-05,-8.90581e-05,-0.00156303,0.00155438,-0.00157562,-0.760328,0.00180712,0.0400568,1882,848,43.7675,-2.83209
665,176,43.9061,2.62268,0,0,0,0,0,0,0,-1,1889,848,43.9061,-2.6227
672,176,16.9304,2.80719,0,0,0,0,0,0,0,-1,1896,848,16.9305,-2.80719
679,176,35.655,1.37244,0,0,0,0,0,0,0,-1,1903,848,35.655,-1.37242
686,176,35.5221,1.90991,-0.0008172,-0.000705451,-0.00131454,0.000554402,-0.00207705,-0.806638,0.00160181,0.0375377,1910,848,35.5221,-1.9099
693,176,35.3666,2.39136,-0.000693534,-0.000774032,-0.00128317,0.000550021,-0.00201759,-0.76972,0.00156104,0.0205588,1917,848,35.3666,-2.39135
700,176,35.2411,2.867,-0.000502021,-0.00079458,-0.00138825,0.000747634,-0.00204424,-0.732907,0.00166882,0.0226708,1924,848,35.2411,-2.86701
707,176,35.2258,3.29852,-0.000265767,-0.000639489,-0.00163705,0.00119506,-0.00210031,-0.728572,0.00192636,0.014843,1931,848,35.2259,-3.2985
714,176,35.2169,3.72156,0.000801139,-6.10498e-05,-0.00222529,0.00263671,-0.00189662,-0.689721,0.00262892,0.0120319,1938,848,35.2169,-3.72154
721,176,35.1871,4.15503,0.00305132,0.000842645,-0.00338524,0.0055078,-0.00161383,-0.62773,0.00431169,0.0122277,1945,848,35.1872,-4.15501
728,176,35.166,4.64496,0.00591642,0.0016807,-0.00504405,0.00926919,-0.00167207,-0.586638,0.00680563,0.0158376,1952,848,35.166,-4.64493
735,176,35.1405,5.1134,0.0098237,0.00265284,-0.00747554,0.0145292,-0.00205263,-0.561792,0.0104378,0.0150762,1959,848,35.1405,-5.11341
742,176,35.1403,5.57178,0.0150693,0.00384854,-0.0107515,0.0215862,-0.00266835,-0.544921,0.0153577,0.0177351,1966,848,35.1403,-5.57175
749,176,35.1267,6.06909,0.0223232,0.00529798,-0.0151984,0.0312306,-0.00360936,-0.530116,0.0221219,0.0297341,1973,848,35.1267,-6.06907
756,176,35.3508,6.43268,0.032561,0.00717958,-0.0213017,0.0446657,-0.00492519,-0.51675,0.0315473,0.0486238,1980,848,35.3508,-6.43267
763,176,35.6913,6.79993,0,0,0,0,0,0,0,-1,1987,848,35.6913,-6.7999
770,176,36.4186,4.25641,0,0,0,0,0,0,0,-1,1994,848,36.4186,-4.25639
777,176,36.828,3.72211,0,0,0,0,0,0,0,-1,2001,848,36.828,-3.72213
784,176,0,0,0,0,0,0,0,0,0,-1,2008,848,0,0
791,176,0,0,0,0,0,0,0,0,0,-1,2015,848,0,0
798,176,0,0,0,0,0,0,0,0,0,-1,2022,848,0,0
805,176,0,0,0,0,0,0,0,0,0,-1,2029,848,0,0
812,176,0,0,0,0,0,0,0,0,0,-1,2036,848,0,0
-700,169,0,0,0,0,0,0,0,0,0,-1,524,855,0,0
-693,169,0,0,0,0,0,0,0,0,0,-1,531,855,0,0
-686,169,0,0,0,0,0,0,0,0,0,-1,538,855,0,0
-679,169,0,0,0,0,0,0,0,0,0,-1,545,855,0,0
-672,169,0,0,0,0,0,0,0,0,0,-1,552,855,0,0
-665,169,-27.5117,3.32092,0,0,0,0,0,0,0,-1,559,855,-27.5117,-3.32095
-658,169,-26.7574,4.61401,0,0,0,0,0,0,0,-1,566,855,-26.7575,-4.61404
-651,169,-25.9403,5.94861,0,0,0,0,0,0,0,-1,573,855,-25.9403,-5.94861
-644,169,-25.4007,5.09192,0,0,0,0,0,0,0,-1,580,855,-25.4007,-5.0919
-637,169,-25.6686,3.95813,0.00916384,0.00914934,-0.00768363,0.0168402,0.00147296,-0.784926,0.0107695,0.0457022,587,855,-25.6686,-3.95814
-630,169,-25.6107,4.23505,0.00542851,0.00490153,-0.00296846,0.00814515,0.00218488,-0.741133,0.00486808,0.0478663,594,855,-25.6107,-4.23503
-623,169,-25.3359,3.77643,0,0,0,0,0,0,0,-1,601,855,-25.3359,-3.77645
-616,169,-25.3625,3.35352,0.000335688,0.000395737,0.00227964,0.00264555,-0.00191412,0.791983,0.00264379,0.0217103,608,855,-25.3625,-3.35353
-609,169,-25.384,2.89838,-0.00131501,-0.000484434,0.00338421,0.00250987,-0.00430931,0.846449,0.00398249,0.0136095,615,855,-25.384,-2.89835
-602,169,-25.4073,2.45197,-0.00210572,-0.000503013,0.0032589,0.00205161,-0.00466035,0.905955,0.00397152,0.0125654,622,855,-25.4073,-2.452
-595,169,-25.4205,1.98724,-0.0019857,-0.000762908,0.00255018,0.00124814,-0.00399675,0.903051,0.00316371,0.0114783,629,855,-25.4205,-1.98727
-588,169,-25.4041,1.54938,-0.00171561,-0.00138784,0.00200044,0.000455419,-0.00355887,0.826269,0.00253804,0.0100386,636,855,-25.404,-1.54938
-581,169,-25.4373,1.13794,-0.00145255,-0.001587,0.00161562,9.72406e-05,-0.00313679,0.764605,0.00212435,0.0132051,643,855,-25.4373,-1.13793
-574,169,-25.6162,0.685059,-0.00139004,-0.00169304,0.00120432,-0.000327734,-0.00275535,0.722829,0.00173799,0.0241848,650,855,-25.6162,-0.68507
-567,169,-25.4287,0.367371,-0.0011345,-0.00175884,0.000669532,-0.000707937,-0.0021854,0.567255,0.00128755,0.0369445,657,855,-25.4287,-0.367377
-560,169,-25.2631,-0.154907,0,0,0,0,0,0,0,-1,664,855,-25.2631,0.154882
-553,169,-24.2656,-0.389526,0,0,0,0,0,0,0,-1,671,855,-24.2656,0.389498
-546,169,-19.0852,-1.05609,0,0,0,0,0,0,0,-1,678,855,-19.0852,1.05612
-539,169,-32.2619,1.05273,0,0,0,0,0,0,0,-1,685,855,-32.2619,-1.05271
-532,169,-32.2471,1.185,-0.000887164,-1.96334e-05,-0.00142716,0.00103822,-0.00194502,-0.93293,0.0017487,0.0457464,692,855,-32.2471,-1.185
-525,169,-32.1863,1.22644,-0.00103944,0.000664926,-0.00215171,0.00212706,-0.00250157,-0.973946,0.00267525,0.0437523,699,855,-32.1863,-1.22647
-518,169,-32.1798,1.06995,-0.00146681,0.00169229,-0.00296767,0.00347459,-0.00324911,-1.02996,0.00388266,0.0409508,706,855,-32.1798,-1.06995
-511,169,-32.1589,0.921021,-0.00185687,0.0029234,-0.00396962,0.00516691,-0.00410038,-1.05638,0.00536227,0.0410517,713,855,-32.1589,-0.921035
-504,169,-32.1314,0.804199,-0.00248835,0.00445544,-0.00542494,0.00742436,-0.00545726,-1.07005,0.00746606,0.0439078,720,855,-32.1314,-0.80418
-497,169,-32.219,0.956665,-0.0034173,0.00645308,-0.00698906,0.0100738,-0.00703799,-1.09281,0.00993117,0.0441643,727,855,-32.219,-0.956655
-490,169,0,0,0,0,0,0,0,0,0,-1,734,855,0,0
-483,169,0,0,0,0,0,0,0,0,0,-1,741,855,0,0
-476,169,0,0,0,0,0,0,0,0,0,-1,748,855,0,0
-469,169,0,0,0,0,0,0,0,0,0,-1,755,855,0,0
-462,169,0,0,0,0,0,0,0,0,0,-1,762,855,0,0
-455,169,0,0,0,0,0,0,0,0,0,-1,769,855,0,0
-448,169,0,0,0,0,0,0,0,0,0,-1,776,855,0,0
-441,169,0,0,0,0,0,0,0,0,0,-1,783,855,0,0
-434,169,0,0,0,0,0,0,0,0,0,-1,790,855,0,0
-427,169,0,0,0,0,0,0,0,0,0,-1,797,855,0,0
-420,169,0,0,0,0,0,0,0,0,0,-1,804,855,0,0
-413,169,0,0,0,0,0,0,0,0,0,-1,811,855,0,0
-406,169,0,0,0,0,0,0,0,0,0,-1,818,855,0,0
-399,169,0,0,0,0,0,0,0,0,0,-1,825,855,0,0
-392,169,0,0,0,0,0,0,0,0,0,-1,832,855,0,0
-385,169,0,0,0,0,0,0,0,0,0,-1,839,855,0,0
-378,169,0,0,0,0,0,0,0,0,0,-1,846,855,0,0
-371,169,0,0,0,0,0,0,0,0,0,-1,853,855,0,0
-364,169,0,0,0,0,0,0,0,0,0,-1,860,855,0,0
-357,169,0,0,0,0,0,0,0,0,0,-1,867,855,0,0
-350,169,0,0,0,0,0,0,0,0,0,-1,874,855,0,0
-343,169,0,0,0,0,0,0,0,0,0,-1,881,855,0,0
-336,169,0,0,0,0,0,0,0,0,0,-1,888,855,0,0
-329,169,0,0,0,0,0,0,0,0,0,-1,895,855,0,0
-322,169,0,0,0,0,0,0,0,0,0,-1,902,855,0,0
-315,169,0,0,0,0,0,0,0,0,0,-1,909,855,0,0
-308,169,0,0,0,0,0,0,0,0,0,-1,916,855,0,0
-301,169,0,0,0,0,0,0,0,0,0,-1,923,855,0,0
-294,169,0,0,0,0,0,0,0,0,0,-1,930,855,0,0
-287,169,0,0,0,0,0,0,0,0,0,-1,937,855,0,0
-280,169,0,0,0,0,0,0,0,0,0,-1,944,855,0,0
-273,169,0,0,0,0,0,0,0,0,0,-1,951,855,0,0
-266,169,0,0,0,0,0,0,0,0,0,-1,958,855,0,0
-259,169,0,0,0,0,0,0,0,0,0,-1,965,855,0,0
-252,169,0,0,0,0,0,0,0,0,0,-1,972,855,0,0
-245,169,0,0,0,0,0,0,0,0,0,-1,979,855,0,0
-238,169,0,0,0,0,0,0,0,0,0,-1,986,855,0,0
-231,169,0,0,0,0,0,0,0,0,0,-1,993,855,0,0
-224,169,0,0,0,0,0,0,0,0,0,-1,1000,855,0,0
-217,169,0,0,0,0,0,0,0,0,0,-1,1007,855,0,0
-210,169,0,0,0,0,0,0,0,0,0,-1,1014,855,0,0
-203,169,0,0,0,0,0,0,0,0,0,-1,1021,855,0,0
-196,169,0,0,0,0,0,0,0,0,0,-1,1028,855,0,0
-189,169,0,0,0,0,0,0,0,0,0,-1,1035,855,0,0
-182,169,0,0,0,0,0,0,0,0,0,-1,1042,855,0,0
-175,169,0,0,0,0,0,0,0,0,0,-1,1049,855,0,0
-168,169,0,0,0,0,0,0,0,0,0,-1,1056,855,0,0
-161,169,0,0,0,0,0,0,0,0,0,-1,1063,855,0,0
-154,169,0,0,0,0,0,0,0,0,0,-1,1070,855,0,0
-147,169,0,0,0,0,0,0,0,0,0,-1,1077,855,0,0
-140,169,0,0,0,0,0,0,0,0,0,-1,1084,855,0,0
-133,169,0,0,0,0,0,0,0,0,0,-1,1091,855,0,0
-126,169,0,0,0,0,0,0,0,0,0,-1,1098,855,0,0
-119,169,0,0,0,0,0,0,0,0,0,-1,1105,855,0,0
-112,169,0,0,0,0,0,0,0,0,0,-1,1112,855,0,0
-105,169,0,0,0,0,0,0,0,0,0,-1,1119,855,0,0
-98,169,0,0,0,0,0,0,0,0,0,-1,1126,855,0,0
-91,169,0,0,0,0,0,0,0,0,0,-1,1133,855,0,0
-84,169,0,0,0,0,0,0,0,0,0,-1,1140,855,0,0
-77,169,0,0,0,0,0,0,0,0,0,-1,1147,855,0,0
-70,169,0,0,0,0,0,0,0,0,0,-1,1154,855,0,0
-63,169,0,0,0,0,0,0,0,0,0,-1,1161,855,0,0
-56,169,0,0,0,0,0,0,0,0,0,-1,1168,855,0,0
-49,169,0,0,0,0,0,0,0,0,0,-1,1175,855,0,0
-42,169,0,0,0,0,0,0,0,0,0,-1,1182,855,0,0
-35,169,0,0,0,0,0,0,0,0,0,-1,1189,855,0,0
-28,169,0,0,0,0,0,0,0,0,0,-1,1196,855,0,0
-21,169,0,0,0,0,0,0,0,0,0,-1,1203,855,0,0
-14,169,0,0,0,0,0,0,0,0,0,-1,1210,855,0,0
-7,169,0,0,0,0,0,0,0,0,0,-1,1217,855,0,0
0,169,0,0,0,0,0,0,0,0,0,-1,1224,855,0,0
7,169,0,0,0,0,0,0,0,0,0,-1,1231,855,0,0
14,169,0,0,0,0,0,0,0,0,0,-1,1238,855,0,0
21,169,0,0,0,0,0,0,0,0,0,-1,1245,855,0,0
28,169,0,0,0,0,0,0,0,0,0,-1,1252,855,0,0
35,169,0,0,0,0,0,0,0,0,0,-1,1259,855,0,0
42,169,0,0,0,0,0,0,0,0,0,-1,1266,855,0,0
49,169,0,0,0,0,0,0,0,0,0,-1,1273,855,0,0
56,169,0,0,0,0,0,0,0,0,0,-1,1280,855,0,0
63,169,0,0,0,0,0,0,0,0,0,-1,1287,855,0,0
70,169,0,0,0,0,0,0,0,0,0,-1,1294,855,0,0
77,169,0,0,0,0,0,0,0,0,0,-1,1301,855,0,0
84,169,0,0,0,0,0,0,0,0,0,-1,1308,855,0,0
91,169,0,0,0,0,0,0,0,0,0,-1,1315,855,0,0
98,169,0,0,0,0,0,0,0,0,0,-1,1322,855,0,0
105,169,0,0,0,0,0,0,0,0,0,-1,1329,855,0,0
112,169,0,0,0,0,0,0,0,0,0,-1,1336,855,0,0
119,169,0,0,0,0,0,0,0,0,0,-1,1343,855,0,0
126,169,0,0,0,0,0,0,0,0,0,-1,1350,855,0,0
133,169,0,0,0,0,0,0,0,0,0,-1,1357,855,0,0
140,169,0,0,0,0,0,0,0,0,0,-1,1364,855,0,0
147,169,0,0,0,0,0,0,0,0,0,-1,1371,855,0,0
154,169,0,0,0,0,0,0,0,0,0,-1,1378,855,0,0
161,169,0,0,0,0,0,0,0,0,0,-1,1385,855,0,0
168,169,0,0,0,0,0,0,0,0,0,-1,1392,855,0,0
175,169,0,0,0,0,0,0,0,0,0,-1,1399,855,0,0
182,169,0,0,0,0,0,0,0,0,0,-1,1406,855,0,0
189,169,0,0,0,0,0,0,0,0,0,-1,1413,855,0,0
196,169,0,0,0,0,0,0,0,0,0,-1,1420,855,0,0
203,169,0,0,0,0,0,0,0,0,0,-1,1427,855,0,0
210,169,0,0,0,0,0,0,0,0,0,-1,1434,855,0,0
217,169,0,0,0,0,0,0,0,0,0,-1,1441,855,0,0
224,169,0,0,0,0,0,0,0,0,0,-1,1448,855,0,0
231,169,0,0,0,0,0,0,0,0,0,-1,1455,855,0,0
238,169,0,0,0,0,0,0,0,0,0,-1,1462,855,0,0
245,169,0,0,0,0,0,0,0,0,0,-1,1469,855,0,0
252,169,0,0,0,0,0,0,0,0,0,-1,1476,855,0,0
259,169,0,0,0,0,0,0,0,0,0,-1,1483,855,0,0
266,169,0,0,0,0,0,0,0,0,0,-1,1490,855,0,0
273,169,0,0,0,0,0,0,0,0,0,-1,1497,855,0,0
280,169,0,0,0,0,0,0,0,0,0,-1,1504,855,0,0
287,169,0,0,0,0,0,0,0,0,0,-1,1511,855,0,0
294,169,0,0,0,0,0,0,0,0,0,-1,1518,855,0,0
301,169,0,0,0,0,0,0,0,0,0,-1,1525,855,0,0
308,169,0,0,0,0,0,0,0,0,0,-1,1532,855,0,0
315,169,0,0,0,0,0,0,0,0,0,-1,1539,855,0,0
322,169,0,0,0,0,0,0,0,0,0,-1,1546,855,0,0
329,169,0,0,0,0,0,0,0,0,0,-1,1553,855,0,0
336,169,0,0,0,0,0,0,0,0,0,-1,1560,855,0,0
343,169,0,0,0,0,0,0,0,0,0,-1,1567,855,0,0
350,169,0,0,0,0,0,0,0,0,0,-1,1574,855,0,0
357,169,0,0,0,0,0,0,0,0,0,-1,1581,855,0,0
364,169,0,0,0,0,0,0,0,0,0,-1,1588,855,0,0
371,169,0,0,0,0,0,0,0,0,0,-1,1595,855,0,0
378,169,0,0,0,0,0,0,0,0,0,-1,1602,855,0,0
385,169,0,0,0,0,0,0,0,0,0,-1,1609,855,0,0
392,169,0,0,0,0,0,0,0,0,0,-1,1616,855,0,0
399,169,0,0,0,0,0,0,0,0,0,-1,1623,855,0,0
406,169,0,0,0,0,0,0,0,0,0,-1,1630,855,0,0
413,169,0,0,0,0,0,0,0,0,0,-1,1637,855,0,0
420,169,0,0,0,0,0,0,0,0,0,-1,1644,855,0,0
427,169,0,0,0,0,0,0,0,0,0,-1,1651,855,0,0
434,169,0,0,0,0,0,0,0,0,0,-1,1658,855,0,0
441,169,0,0,0,0,0,0,0,0,0,-1,1665,855,0,0
448,169,0,0,0,0,0,0,0,0,0,-1,1672,855,0,0
455,169,0,0,0,0,0,0,0,0,0,-1,1679,855,0,0
462,169,0,0,0,0,0,0,0,0,0,-1,1686,855,0,0
469,169,0,0,0,0,0,0,0,0,0,-1,1693,855,0,0
476,169,0,0,0,0,0,0,0,0,0,-1,1700,855,0,0
483,169,0,0,0,0,0,0,0,0,0,-1,1707,855,0,0
490,169,0,0,0,0,0,0,0,0,0,-1,1714,855,0,0
497,169,0,0,0,0,0,0,0,0,0,-1,1721,855,0,0
504,169,0,0,0,0,0,0,0,0,0,-1,1728,855,0,0
511,169,0,0,0,0,0,0,0,0,0,-1,1735,855,0,0
518,169,0,0,0,0,0,0,0,0,0,-1,1742,855,0,0
525,169,0,0,0,0,0,0,0,0,0,-1,1749,855,0,0
532,169,0,0,0,0,0,0,0,0,0,-1,1756,855,0,0
539,169,0,0,0,0,0,0,0,0,0,-1,1763,855,0,0
546,169,0,0,0,0,0,0,0,0,0,-1,1770,855,0,0
553,169,0,0,0,0,0,0,0,0,0,-1,1777,855,0,0
560,169,0,0,0,0,0,0,0,0,0,-1,1784,855,0,0
567,169,0,0,0,0,0,0,0,0,0,-1,1791,855,0,0
574,169,0,0,0,0,0,0,0,0,0,-1,1798,855,0,0
581,169,0,0,0,0,0,0,0,0,0,-1,1805,855,0,0
588,169,0,0,0,0,0,0,0,0,0,-1,1812,855,0,0
595,169,0,0,0,0,0,0,0,0,0,-1,1819,855,0,0
602,169,0,0,0,0,0,0,0,0,0,-1,1826,855,0,0
609,169,0,0,0,0,0,0,0,0,0,-1,1833,855,0,0
616,169,43.479,3.00653,4.71895e-05,0.00225393,-0.000987871,0.00263154,-0.000330425,-1.20568,0.00187424,0.0430567,1840,855,43.479,-3.00655
623,169,43.7578,3.45044,0.00053017,0.00185948,-0.00121764,0.00258205,-0.000192407,-1.03523,0.00178896,0.0474642,1847,855,43.7578,-3.45043
630,169,43.8933,3.23132,0.000817112,0.0014616,-0.00139538,0.00257146,-0.000292746,-0.898878,0.00181976,0.0432754,1854,855,43.8933,-3.23131
637,169,43.7738,2.87469,0.000838184,0.00112985,-0.0014599,0.00245118,-0.000483153,-0.835178,0.00181672,0.0367737,1861,855,43.7738,-2.87467
644,169,43.6323,2.98578,0.000676438,0.000709578,-0.00147212,0.00216523,-0.00077921,-0.791026,0.00176163,0.0343651,1868,855,43.6323,-2.98577
651,169,43.5924,3.06281,0.000508252,0.000281115,-0.00146486,0.00186394,-0.00107458,-0.746711,0.00171684,0.036372,1875,855,43.5924,-3.0628
658,169,43.7152,2.83789,0.000407138,-9.07202e-05,-0.00146997,0.00164911,-0.00133269,-0.701522,0.00172477,0.0374018,1882,855,43.7152,-2.83788
665,169,43.8849,2.58545,0,0,0,0,0,0,0,-1,1889,855,43.8849,-2.58546
672,169,31.2465,2.96387,0,0,0,0,0,0,0,-1,1896,855,31.2464,-2.9639
679,169,35.8431,1.3764,0,0,0,0,0,0,0,-1,1903,855,35.8431,-1.37638
686,169,35.8884,1.91632,-0.000245688,-0.000715449,-0.00104707,0.000592525,-0.00155366,-0.675064,0.00127985,0.0453449,1910,855,35.8885,-1.9163
693,169,35.873,2.42914,-0.000127038,-0.000803131,-0.00100698,0.000597125,-0.00152729,-0.623458,0.00126512,0.0207619,1917,855,35.873,-2.42915
700,169,35.8534,2.90955,7.82091e-05,-0.000880857,-0.00116995,0.000863084,-0.00166573,-0.590903,0.00148432,0.0187892,1924,855,35.8534,-2.90953
707,169,35.7842,3.3266,0.000283546,-0.000790203,-0.00140878,0.00125428,-0.00176094,-0.603348,0.00174901,0.0183902,1931,855,35.7841,-3.32662
714,169,35.6694,3.71075,0.00123332,-0.000270267,-0.0018632,0.00249068,-0.00152763,-0.59364,0.00234208,0.0139646,1938,855,35.6694,-3.71075
721,169,35.6417,4.18231,0.00338498,0.000653618,-0.00285243,0.0051818,-0.0011432,-0.562134,0.00389198,0.0171438,1945,855,35.6417,-4.18233
728,169,35.637,4.65375,0.00617709,0.00153379,-0.00425617,0.00870364,-0.000992764,-0.535715,0.00616007,0.0147079,1952,855,35.637,-4.65373
735,169,35.6141,5.09137,0.0101623,0.00260172,-0.00636458,0.0137846,-0.0010206,-0.517417,0.00954812,0.0205383,1959,855,35.6141,-5.09136
742,169,35.6024,5.56,0.0153923,0.0040483,-0.00912123,0.0204613,-0.00102066,-0.507234,0.0139935,0.01524,1966,855,35.6024,-5.56
749,169,35.5635,5.95734,0.0223052,0.00584866,-0.0127484,0.0292502,-0.00109626,-0.498817,0.0198756,0.0253534,1973,855,35.5634,-5.95734
756,169,35.8973,6.2821,0.031913,0.00825615,-0.017595,0.0412859,-0.00111676,-0.489466,0.0279036,0.0487267,1980,855,35.8973,-6.28211
763,169,36.3302,6.63281,0,0,0,0,0,0,0,-1,1987,855,36.3302,-6.6328
770,169,37.2059,3.97021,0,0,0,0,0,0,0,-1,1994,855,37.2059,-3.97022
777,169,37.7437,3.40735,0,0,0,0,0,0,0,-1,2001,855,37.7437,-3.40737
784,169,37.4203,9.7002,0,0,0,0,0,0,0,-1,2008,855,37.4203,-9.7002
791,169,0,0,0,0,0,0,0,0,0,-1,2015,855,0,0
798,169,0,0,0,0,0,0,0,0,0,-1,2022,855,0,0
805,169,0,0,0,0,0,0,0,0,0,-1,2029,855,0,0
812,169,0,0,0,0,0,0,0,0,0,-1,2036,855,0,0
-700,162,0,0,0,0,0,0,0,0,0,-1,524,862,0,0
-693,162,0,0,0,0,0,0,0,0,0,-1,531,862,0,0
-686,162,0,0,0,0,0,0,0,0,0,-1,538,862,0,0
-679,162,0,0,0,0,0,0,0,0,0,-1,545,862,0,0
-672,162,0,0,0,0,0,0,0,0,0,-1,552,862,0,0
-665,162,-25.9147,7.65216,0,0,0,0,0,0,0,-1,559,862,-25.9147,-7.65217
-658,162,-25.5556,6.04889,0,0,0,0,0,0,0,-1,566,862,-25.5556,-6.0489
-651,162,-25.9743,5.39294,0,0,0,0,0,0,0,-1,573,862,-25.9743,-5.39295
-644,162,-25.9467,4.97955,0.0129976,0.01523,-0.0149541,0.0291095,-0.000881853,-0.822649,0.0197068,0.0497694,580,862,-25.9467,-4.97954
-637,162,-25.9108,4.56903,0.0093944,0.00904667,-0.00820631,0.0174287,0.00101238,-0.774806,0.0112968,0.0474681,587,862,-25.9108,-4.56902
-630,162,-25.8513,4.1969,0.00582027,0.00476163,-0.00340066,0.00873256,0.00184934,-0.708192,0.00531364,0.0465984,594,862,-25.8513,-4.19692
-623,162,-25.7598,3.80908,0.00284998,0.00233595,-0.000253235,0.00295378,0.00223216,-0.388994,0.00177814,0.0339972,601,862,-25.7598,-3.80906
-616,162,-25.773,3.35162,0.000859633,2.87015e-05,0.00207462,0.00255998,-0.00167164,0.686575,0.00246101,0.0194863,608,862,-25.773,-3.3516
-609,162,-25.8247,2.89166,-0.000863349,-0.00086519,0.00324774,0.00238347,-0.00411201,0.785256,0.00379417,0.0134443,615,862,-25.8247,-2.89166
-602,162,-25.8582,2.44012,-0.00176692,-0.000842842,0.00315395,0.00188273,-0.00449249,0.858129,0.00378214,0.0110402,622,862,-25.8582,-2.44015
-595,162,-25.8594,2.01483,-0.00175257,-0.000987993,0.00241933,0.00107907,-0.00381963,0.863757,0.00297214,0.0104078,629,862,-25.8594,-2.01481
-588,162,-25.8641,1.58026,-0.00156226,-0.0014521,0.00180763,0.000301286,-0.00331564,0.800628,0.0023174,0.0108421,636,862,-25.8642,-1.58028
-581,162,-26.0302,1.15692,-0.00136802,-0.0015111,0.00135072,-8.69422e-05,-0.00279218,0.75894,0.00183316,0.0211016,643,862,-26.0302,-1.1569
-574,162,-26.2296,0.732178,-0.00140488,-0.00143327,0.000908427,-0.000510536,-0.00232761,0.777587,0.00141266,0.0323618,650,862,-26.2296,-0.732188
-567,162,-26.1652,0.294128,-0.00123074,-0.00145813,0.000381928,-0.000945945,-0.00174293,0.640732,0.0010075,0.0408282,657,862,-26.1652,-0.294101
-560,162,-25.9687,-0.339661,-0.000747067,-0.00133439,0.000124871,-0.000721621,-0.00135983,0.20103,0.000785593,0.0376899,664,862,-25.9687,0.339634
-553,162,-25.644,-0.931335,0,0,0,0,0,0,0,-1,671,862,-25.6441,0.931349
-546,162,-22.8181,-1.51154,0,0,0,0,0,0,0,-1,678,862,-22.8181,1.51155
-539,162,-32.2835,1.11542,0,0,0,0,0,0,0,-1,685,862,-32.2835,-1.11539
-532,162,-32.2199,1.18835,-0.000935168,0.000492811,-0.00159409,0.0015255,-0.00196786,-0.995951,0.00202228,0.0385065,692,862,-32.2199,-1.18833
-525,162,-32.1959,1.14105,-0.00116484,0.00126323,-0.00223511,0.00259274,-0.00249434,-1.03419,0.00293721,0.0389364,699,862,-32.1959,-1.14104
-518,162,-32.235,0.942139,-0.00165094,0.00240014,-0.0029027,0.00391416,-0.00316496,-1.09003,0.00409475,0.0400092,706,862,-32.2351,-0.942137
-511,162,-32.2173,0.801331,-0.0021504,0.00364209,-0.00370175,0.00544597,-0.00395428,-1.11736,0.00544997,0.0438042,713,862,-32.2174,-0.801334
-504,162,-32.2542,0.677185,-0.00313082,0.00494556,-0.00490196,0.00725845,-0.00544371,-1.12994,0.0073585,0.0445741,720,862,-32.2542,-0.677212
-497,162,-32.2831,0.752808,-0.00442117,0.00652925,-0.0060529,0.00921588,-0.00710779,-1.15306,0.00945064,0.0427822,727,862,-32.2831,-0.752806
-490,162,0,0,0,0,0,0,0,0,0,-1,734,862,0,0
-483,162,0,0,0,0,0,0,0,0,0,-1,741,862,0,0
-476,162,0,0,0,0,0,0,0,0,0,-1,748,862,0,0
-469,162,0,0,0,0,0,0,0,0,0,-1,755,862,0,0
-462,162,0,0,0,0,0,0,0,0,0,-1,762,862,0,0
-455,162,0,0,0,0,0,0,0,0,0,-1,769,862,0,0
-448,162,0,0,0,0,0,0,0,0,0,-1,776,862,0,0
-441,162,0,0,0,0,0,0,0,0,0,-1,783,862,0,0
-434,162,0,0,0,0,0,0,0,0,0,-1,790,862,0,0
-427,162,0,0,0,0,0,0,0,0,0,-1,797,862,0,0
-420,162,0,0,0,0,0,0,0,0,0,-1,804,862,0,0
-413,162,0,0,0,0,0,0,0,0,0,-1,811,862,0,0
-406,162,0,0,0,0,0,0,0,0,0,-1,818,862,0,0
-399,162,0,0,0,0,0,0,0,0,0,-1,825,862,0,0
-392,162,0,0,0,0,0,0,0,0,0,-1,832,862,0,0
-385,162,0,0,0,0,0,0,0,0,0,-1,839,862,0,0
-378,162,0,0,0,0,0,0,0,0,0,-1,846,862,0,0
-371,162,0,0,0,0,0,0,0,0,0,-1,853,862,0,0
-364,162,0,0,0,0,0,0,0,0,0,-1,860,862,0,0
-357,162,0,0,0,0,0,0,0,0,0,-1,867,862,0,0
-350,162,0,0,0,0,0,0,0,0,0,-1,874,862,0,0
-343,162,0,0,0,0,0,0,0,0,0,-1,881,862,0,0
-336,162,0,0,0,0,0,0,0,0,0,-1,888,862,0,0
-329,162,0,0,0,0,0,0,0,0,0,-1,895,862,0,0
-322,162,0,0,0,0,0,0,0,0,0,-1,902,862,0,0
-315,162,0,0,0,0,0,0,0,0,0,-1,909,862,0,0
-308,162,0,0,0,0,0,0,0,0,0,-1,916,862,0,0
-301,162,0,0,0,0,0,0,0,0,0,-1,923,862,0,0
-294,162,0,0,0,0,0,0,0,0,0,-1,930,862,0,0
-287,162,0,0,0,0,0,0,0,0,0,-1,937,862,0,0
-280,162,0,0,0,0,0,0,0,0,0,-1,944,862,0,0
-273,162,0,0,0,0,0,0,0,0,0,-1,951,862,0,0
-266,162,0,0,0,0,0,0,0,0,0,-1,958,862,0,0
-259,162,0,0,0,0,0,0,0,0,0,-1,965,862,0,0
-252,162,0,0,0,0,0,0,0,0,0,-1,972,862,0,0
-245,162,0,0,0,0,0,0,0,0,0,-1,979,862,0,0
-238,162,0,0,0,0,0,0,0,0,0,-1,986,862,0,0
-231,162,0,0,0,0,0,0,0,0,0,-1,993,862,0,0
-224,162,0,0,0,0,0,0,0,0,0,-1,1000,862,0,0
-217,162,0,0,0,0,0,0,0,0,0,-1,1007,862,0,0
-210,162,0,0,0,0,0,0,0,0,0,-1,1014,862,0,0
-203,162,0,0,0,0,0,0,0,0,0,-1,1021,862,0,0
-196,162,0,0,0,0,0,0,0,0,0,-1,1028,862,0,0
-189,162,0,0,0,0,0,0,0,0,0,-1,1035,862,0,0
-182,162,0,0,0,0,0,0,0,0,0,-1,1042,862,0,0
-175,162,0,0,0,0,0,0,0,0,0,-1,1049,862,0,0
-168,162,0,0,0,0,0,0,0,0,0,-1,1056,862,0,0
-161,162,0,0,0,0,0,0,0,0,0,-1,1063,862,0,0
-154,162,0,0,0,0,0,0,0,0,0,-1,1070,862,0,0
-147,162,0,0,0,0,0,0,0,0,0,-1,1077,862,0,0
-140,162,0,0,0,0,0,0,0,0,0,-1,1084,862,0,0
-133,162,0,0,0,0,0,0,0,0,0,-1,1091,862,0,0
-126,162,0,0,0,0,0,0,0,0,0,-1,1098,862,0,0
-119,162,0,0,0,0,0,0,0,0,0,-1,1105,862,0,0
-112,162,0,0,0,0,0,0,0,0,0,-1,1112,862,0,0
-105,162,0,0,0,0,0,0,0,0,0,-1,1119,862,0,0
-98,162,0,0,0,0,0,0,0,0,0,-1,1126,862,0,0
-91,162,0,0,0,0,0,0,0,0,0,-1,1133,862,0,0
-84,162,0,0,0,0,0,0,0,0,0,-1,1140,862,0,0
-77,162,0,0,0,0,0,0,0,0,0,-1,1147,862,0,0
-70,162,0,0,0,0,0,0,0,0,0,-1,1154,862,0,0
-63,162,0,0,0,0,0,0,0,0,0,-1,1161,862,0,0
-56,162,0,0,0,0,0,0,0,0,0,-1,1168,862,0,0
-49,162,0,0,0,0,0,0,0,0,0,-1,1175,862,0,0
-42,162,0,0,0,0,0,0,0,0,0,-1,1182,862,0,0
-35,162,0,0,0,0,0,0,0,0,0,-1,1189,862,0,0
-28,162,0,0,0,0,0,0,0,0,0,-1,1196,862,0,0
-21,162,0,0,0,0,0,0,0,0,0,-1,1203,862,0,0
-14,162,0,0,0,0,0,0,0,0,0,-1,1210,862,0,0
-7,162,0,0,0,0,0,0,0,0,0,-1,1217,862,0,0
0,162,0,0,0,0,0,0,0,0,0,-1,1224,862,0,0
7,162,0,0,0,0,0,0,0,0,0,-1,1231,862,0,0
14,162,0,0,0,0,0,0,0,0,0,-1,1238,862,0,0
21,162,0,0,0,0,0,0,0,0,0,-1,1245,862,0,0
28,162,0,0,0,0,0,0,0,0,0,-1,1252,862,0,0
35,162,0,0,0,0,0,0,0,0,0,-1,1259,862,0,0
42,162,0,0,0,0,0,0,0,0,0,-1,1266,862,0,0
49,162,0,0,0,0,0,0,0,0,0,-1,1273,862,0,0
56,162,0,0,0,0,0,0,0,0,0,-1,1280,862,0,0
63,162,0,0,0,0,0,0,0,0,0,-1,1287,862,0,0
70,162,0,0,0,0,0,0,0,0,0,-1,1294,862,0,0
77,162,0,0,0,0,0,0,0,0,0,-1,1301,862,0,0
84,162,0,0,0,0,0,0,0,0,0,-1,1308,862,0,0
91,162,0,0,0,0,0,0,0,0,0,-1,1315,862,0,0
98,162,0,0,0,0,0,0,0,0,0,-1,1322,862,0,0
105,162,0,0,0,0,0,0,0,0,0,-1,1329,862,0,0
112,162,0,0,0,0,0,0,0,0,0,-1,1336,862,0,0
119,162,0,0,0,0,0,0,0,0,0,-1,1343,862,0,0
126,162,0,0,0,0,0,0,0,0,0,-1,1350,862,0,0
133,162,0,0,0,0,0,0,0,0,0,-1,1357,862,0,0
140,162,0,0,0,0,0,0,0,0,0,-1,1364,862,0,0
147,162,0,0,0,0,0,0,0,0,0,-1,1371,862,0,0
154,162,0,0,0,0,0,0,0,0,0,-1,1378,862,0,0
161,162,0,0,0,0,0,0,0,0,0,-1,1385,862,0,0
168,162,0,0,0,0,0,0,0,0,0,-1,1392,862,0,0
175,162,0,0,0,0,0,0,0,0,0,-1,1399,862,0,0
182,162,0,0,0,0,0,0,0,0,0,-1,1406,862,0,0
189,162,0,0,0,0,0,0,0,0,0,-1,1413,862,0,0
196,162,0,0,0,0,0,0,0,0,0,-1,1420,862,0,0
203,162,0,0,0,0,0,0,0,0,0,-1,1427,862,0,0
210,162,0,0,0,0,0,0,0,0,0,-1,1434,862,0,0
217,162,0,0,0,0,0,0,0,0,0,-1,1441,862,0,0
224,162,0,0,0,0,0,0,0,0,0,-1,1448,862,0,0
231,162,0,0,0,0,0,0,0,0,0,-1,1455,862,0,0
238,162,0,0,0,0,0,0,0,0,0,-1,1462,862,0,0
245,162,0,0,0,0,0,0,0,0,0,-1,1469,862,0,0
252,162,0,0,0,0,0,0,0,0,0,-1,1476,862,0,0
259,162,0,0,0,0,0,0,0,0,0,-1,1483,862,0,0
266,162,0,0,0,0,0,0,0,0,0,-1,1490,862,0,0
273,162,0,0,0,0,0,0,0,0,0,-1,1497,862,0,0
280,162,0,0,0,0,0,0,0,0,0,-1,1504,862,0,0
287,162,0,0,0,0,0,0,0,0,0,-1,1511,862,0,0
294,162,0,0,0,0,0,0,0,0,0,-1,1518,862,0,0
301,162,0,0,0,0,0,0,0,0,0,-1,1525,862,0,0
308,162,0,0,0,0,0,0,0,0,0,-1,1532,862,0,0
315,162,0,0,0,0,0,0,0,0,0,-1,1539,862,0,0
322,162,0,0,0,0,0,0,0,0,0,-1,1546,862,0,0
329,162,0,0,0,0,0,0,0,0,0,-1,1553,862,0,0
336,162,0,0,0,0,0,0,0,0,0,-1,1560,862,0,0
343,162,0,0,0,0,0,0,0,0,0,-1,1567,862,0,0
350,162,0,0,0,0,0,0,0,0,0,-1,1574,862,0,0
357,162,0,0,0,0,0,0,0,0,0,-1,1581,862,0,0
364,162,0,0,0,0,0,0,0,0,0,-1,1588,862,0,0
371,162,0,0,0,0,0,0,0,0,0,-1,1595,862,0,0
378,162,0,0,0,0,0,0,0,0,0,-1,1602,862,0,0
385,162,0,0,0,0,0,0,0,0,0,-1,1609,862,0,0
392,162,0,0,0,0,0,0,0,0,0,-1,1616,862,0,0
399,162,0,0,0,0,0,0,0,0,0,-1,1623,862,0,0
406,162,0,0,0,0,0,0,0,0,0,-1,1630,862,0,0
413,162,0,0,0,0,0,0,0,0,0,-1,1637,862,0,0
420,162,0,0,0,0,0,0,0,0,0,-1,1644,862,0,0
427,162,0,0,0,0,0,0,0,0,0,-1,1651,862,0,0
434,162,0,0,0,0,0,0,0,0,0,-1,1658,862,0,0
441,162,0,0,0,0,0,0,0,0,0,-1,1665,862,0,0
448,162,0,0,0,0,0,0,0,0,0,-1,1672,862,0,0
455,162,0,0,0,0,0,0,0,0,0,-1,1679,862,0,0
462,162,0,0,0,0,0,0,0,0,0,-1,1686,862,0,0
469,162,0,0,0,0,0,0,0,0,0,-1,1693,862,0,0
476,162,0,0,0,0,0,0,0,0,0,-1,1700,862,0,0
483,162,0,0,0,0,0,0,0,0,0,-1,1707,862,0,0
490,162,0,0,0,0,0,0,0,0,0,-1,1714,862,0,0
497,162,0,0,0,0,0,0,0,0,0,-1,1721,862,0,0
504,162,0,0,0,0,0,0,0,0,0,-1,1728,862,0,0
511,162,0,0,0,0,0,0,0,0,0,-1,1735,862,0,0
518,162,0,0,0,0,0,0,0,0,0,-1,1742,862,0,0
525,162,0,0,0,0,0,0,0,0,0,-1,1749,862,0,0
532,162,0,0,0,0,0,0,0,0,0,-1,1756,862,0,0
539,162,0,0,0,0,0,0,0,0,0,-1,1763,862,0,0
546,162,0,0,0,0,0,0,0,0,0,-1,1770,862,0,0
553,162,0,0,0,0,0,0,0,0,0,-1,1777,862,0,0
560,162,0,0,0,0,0,0,0,0,0,-1,1784,862,0,0
567,162,0,0,0,0,0,0,0,0,0,-1,1791,862,0,0
574,162,0,0,0,0,0,0,0,0,0,-1,1798,862,0,0
581,162,0,0,0,0,0,0,0,0,0,-1,1805,862,0,0
588,162,0,0,0,0,0,0,0,0,0,-1,1812,862,0,0
595,162,0,0,0,0,0,0,0,0,0,-1,1819,862,0,0
602,162,0,0,0,0,0,0,0,0,0,-1,1826,862,0,0
609,162,0,0,0,0,0,0,0,0,0,-1,1833,862,0,0
616,162,43.7592,3.0899,-0.000295707,0.00221192,-0.0020133,0.0033299,-0.00141369,-1.06389,0.00281221,0.0448425,1840,862,43.7592,-3.0899
623,162,43.7827,3.24023,0.000214049,0.0018969,-0.0019719,0.00319939,-0.00108844,-0.987056,0.00257364,0.0463205,1847,862,43.7827,-3.24024
630,162,43.7864,3.04224,0.000591968,0.00154514,-0.00187126,0.00299954,-0.00086244,-0.910091,0.00234075,0.0415059,1854,862,43.7864,-3.04221
637,162,43.7765,2.88483,0.000771169,0.00123413,-0.00169098,0.0027094,-0.000704101,-0.853421,0.00208106,0.0389646,1861,862,43.7765,-2.88485
644,162,43.657,2.9176,0.000732068,0.000805694,-0.00153289,0.00230221,-0.000764448,-0.797403,0.00184324,0.0367809,1868,862,43.657,-2.91761
651,162,43.6161,2.94293,0.000660098,0.000340692,-0.00141827,0.00192763,-0.000926839,-0.729332,0.00168145,0.034776,1875,862,43.616,-2.9429
658,162,43.7191,2.78662,0.000648757,-6.58368e-05,-0.00133174,0.00167029,-0.00108737,-0.654338,0.00160395,0.0351037,1882,862,43.7191,-2.78665
665,162,43.7712,2.72375,0.000548498,-0.000333963,-0.00134704,0.00152473,-0.0013102,-0.627128,0.00163831,0.0427885,1889,862,43.7712,-2.72373
672,162,43.8003,2.71814,0,0,0,0,0,0,0,-1,1896,862,43.8003,-2.71812
679,162,26.5077,2.54785,0,0,0,0,0,0,0,-1,1903,862,26.5077,-2.54787
686,162,36.281,1.84576,0,0,0,0,0,0,0,-1,1910,862,36.281,-1.84578
693,162,36.3134,2.49023,0.000296487,-0.000793026,-0.000780694,0.000703699,-0.00120024,-0.480779,0.00111163,0.0232302,1917,862,36.3134,-2.49021
700,162,36.322,2.89825,0.000486867,-0.000859749,-0.000970697,0.000994912,-0.0013678,-0.482178,0.00136976,0.0223474,1924,862,36.3221,-2.89827
707,162,36.2397,3.29535,0.000677855,-0.000798266,-0.00119919,0.00134791,-0.00146832,-0.50954,0.00162644,0.0162203,1931,862,36.2397,-3.29535
714,162,36.1294,3.71716,0.0015761,-0.000335708,-0.0015645,0.00245361,-0.00121322,-0.511165,0.00215704,0.0188935,1938,862,36.1294,-3.71718
721,162,36.0264,4.2818,0.00363824,0.00060031,-0.00240694,0.00496544,-0.000726886,-0.50392,0.00357729,0.0296957,1945,862,36.0264,-4.28178
728,162,36.0372,4.70618,0.00630241,0.001508,-0.00359364,0.00822503,-0.00041462,-0.491258,0.00562665,0.0240115,1952,862,36.0373,-4.70617
735,162,36.0901,5.11102,0.0102926,0.00264671,-0.00543392,0.0131136,-0.000174312,-0.478851,0.0088011,0.0117258,1959,862,36.0901,-5.11103
742,162,36.0621,5.55133,0.0154708,0.00428159,-0.00768875,0.0193849,0.000367429,-0.470882,0.0128026,0.0127534,1966,862,36.0621,-5.55134
749,162,35.9971,5.99701,0.0220398,0.00630117,-0.0104993,0.0272915,0.00104942,-0.463806,0.0178548,0.0189495,1973,862,35.9971,-5.99698
756,162,35.964,6.28656,0.0310334,0.00901383,-0.0140935,0.0379077,0.00213948,-0.453813,0.0245897,0.0425982,1980,862,35.964,-6.28656
763,162,35.9268,6.64636,0,0,0,0,0,0,0,-1,1987,862,35.9268,-6.64638
770,162,36.2023,7.7251,0,0,0,0,0,0,0,-1,1994,862,36.2023,-7.7251
777,162,36.6384,8.20044,0,0,0,0,0,0,0,-1,2001,862,36.6385,-8.20045
784,162,36.9613,8.60327,0,0,0,0,0,0,0,-1,2008,862,36.9614,-8.60328
791,162,0,0,0,0,0,0,0,0,0,-1,2015,862,0,0
798,162,0,0,0,0,0,0,0,0,0,-1,2022,862,0,0
805,162,0,0,0,0,0,0,0,0,0,-1,2029,862,0,0
812,162,0,0,0,0,0,0,0,0,0,-1,2036,862,0,0
-700,155,0,0,0,0,0,0,0,0,0,-1,524,869,0,0
-693,155,0,0,0,0,0,0,0,0,0,-1,531,869,0,0
-686,155,0,0,0,0,0,0,0,0,0,-1,538,869,0,0
-679,155,0,0,0,0,0,0,0,0,0,-1,545,869,0,0
-672,155,0,0,0,0,0,0,0,0,0,-1,552,869,0,0
-665,155,-26.2267,7.29004,0.0228763,0.0462728,-0.0437958,0.0799058,-0.0107567,-0.915906,0.0571943,0.0483964,559,869,-26.2267,-7.29004
-658,155,-25.9138,5.75372,0.01966,0.0335435,-0.0327867,0.0601153,-0.00691174,-0.88972,0.0425682,0.0497285,566,869,-25.9138,-5.75371
-651,155,-26.4416,5.1828,0,0,0,0,0,0,0,-1,573,869,-26.4416,-5.1828
-644,155,-26.4268,4.5755,0,0,0,0,0,0,0,-1,580,869,-26.4268,-4.57552
-637,155,-26.4263,4.46674,0,0,0,0,0,0,0,-1,587,869,-26.4262,-4.46672
-630,155,-26.3668,4.01501,0.00549416,0.00455665,-0.00367638,0.00873155,0.00131926,-0.721988,0.00543492,0.0442032,594,869,-26.3667,-4.01502
-623,155,-26.182,3.80811,0.00273787,0.00210471,-0.00051165,0.00302296,0.00181962,-0.508353,0.00175735,0.0264727,601,869,-26.182,-3.80808
-616,155,-26.2021,3.35376,0.000886619,-0.00024274,0.00185607,0.002262,-0.00161812,0.63773,0.00225045,0.0148721,608,869,-26.2022,-3.35375
-609,155,-26.2731,2.87,-0.000738984,-0.00110277,0.0030382,0.00212276,-0.00396452,0.755499,0.00356771,0.013522,615,869,-26.2731,-2.87
-602,155,-26.3116,2.43286,-0.00160288,-0.00101761,0.00296267,0.00166684,-0.00428732,0.834626,0.00354688,0.0121794,622,869,-26.3116,-2.43284
-595,155,-26.3228,2.0238,-0.00159165,-0.00102118,0.00222583,0.000937612,-0.00355045,0.849125,0.00273364,0.0112448,629,869,-26.3227,-2.02383
-588,155,-26.3314,1.61938,-0.00141441,-0.00128534,0.00159534,0.00024677,-0.00294651,0.805614,0.00205155,0.0138198,636,869,-26.3314,-1.61938
-581,155,-26.5453,1.297,-0.00126659,-0.00118403,0.00111112,-0.000113421,-0.0023372,0.803967,0.00152174,0.0266557,643,869,-26.5453,-1.29697
-574,155,-26.6099,0.949829,-0.00139136,-0.000940983,0.000669634,-0.000459689,-0.00187266,0.947602,0.00112691,0.0332874,650,869,-26.6099,-0.949799
-567,155,-26.5743,0.357178,-0.00129604,-0.000943933,0.000183449,-0.000865726,-0.00137425,1.16781,0.000802306,0.0381666,657,869,-26.5743,-0.357174
-560,155,-26.4453,-0.222107,-0.000870803,-0.000859785,-9.74884e-05,-0.00076765,-0.000962938,-0.813622,0.000587778,0.0331676,664,869,-26.4453,0.222129
-553,155,-26.2217,-1.01917,0,0,0,0,0,0,0,-1,671,869,-26.2217,1.01918
-546,155,-22.7988,0.873657,0,0,0,0,0,0,0,-1,678,869,-22.7988,-0.873645
-539,155,-32.3074,1.11566,0,0,0,0,0,0,0,-1,685,869,-32.3074,-1.11565
-532,155,-32.1921,1.27124,-0.00105772,0.00100257,-0.00159318,0.00186964,-0.0019248,-1.07239,0.0021908,0.0374685,692,869,-32.1921,-1.27121
-525,155,-32.2093,1.21985,-0.00137764,0.00173763,-0.00210017,0.00279475,-0.00243476,-1.10447,0.00302164,0.0378958,699,869,-32.2093,-1.21988
-518,155,-32.2979,0.980591,-0.00186239,0.00276744,-0.00256669,0.00390893,-0.00300388,-1.15233,0.0040025,0.0434924,706,869,-32.2979,-0.980592
-511,155,-32.304,0.781494,-0.00235988,0.00367106,-0.00312758,0.0050001,-0.00368892,-1.16897,0.00503561,0.0458677,713,869,-32.304,-0.781472
-504,155,-32.2977,0.662903,-0.0034266,0.00432138,-0.00408656,0.00607835,-0.00518357,-1.16475,0.00650891,0.0448887,720,869,-32.2977,-0.66292
-497,155,0,0,0,0,0,0,0,0,0,-1,727,869,0,0
-490,155,0,0,0,0,0,0,0,0,0,-1,734,869,0,0
-483,155,0,0,0,0,0,0,0,0,0,-1,741,869,0,0
-476,155,0,0,0,0,0,0,0,0,0,-1,748,869,0,0
-469,155,0,0,0,0,0,0,0,0,0,-1,755,869,0,0
-462,155,0,0,0,0,0,0,0,0,0,-1,762,869,0,0
-455,155,0,0,0,0,0,0,0,0,0,-1,769,869,0,0
-448,155,0,0,0,0,0,0,0,0,0,-1,776,869,0,0
-441,155,0,0,0,0,0,0,0,0,0,-1,783,869,0,0
-434,155,0,0,0,0,0,0,0,0,0,-1,790,869,0,0
-427,155,0,0,0,0,0,0,0,0,0,-1,797,869,0,0
-420,155,0,0,0,0,0,0,0,0,0,-1,804,869,0,0
-413,155,0,0,0,0,0,0,0,0,0,-1,811,869,0,0
-406,155,0,0,0,0,0,0,0,0,0,-1,818,869,0,0
-399,155,0,0,0,0,0,0,0,0,0,-1,825,869,0,0
-392,155,0,0,0,0,0,0,0,0,0,-1,832,869,0,0
-385,155,0,0,0,0,0,0,0,0,0,-1,839,869,0,0
-378,155,0,0,0,0,0,0,0,0,0,-1,846,869,0,0
-371,155,0,0,0,0,0,0,0,0,0,-1,853,869,0,0
-364,155,0,0,0,0,0,0,0,0,0,-1,860,869,0,0
-357,155,0,0,0,0,0,0,0,0,0,-1,867,869,0,0
-350,155,0,0,0,0,0,0,0,0,0,-1,874,869,0,0
-343,155,0,0,0,0,0,0,0,0,0,-1,881,869,0,0
-336,155,0,0,0,0,0,0,0,0,0,-1,888,869,0,0
-329,155,0,0,0,0,0,0,0,0,0,-1,895,869,0,0
-322,155,0,0,0,0,0,0,0,0,0,-1,902,869,0,0
-315,155,0,0,0,0,0,0,0,0,0,-1,909,869,0,0
-308,155,0,0,0,0,0,0,0,0,0,-1,916,869,0,0
-301,155,0,0,0,0,0,0,0,0,0,-1,923,869,0,0
-294,155,0,0,0,0,0,0,0,0,0,-1,930,869,0,0
-287,155,0,0,0,0,0,0,0,0,0,-1,937,869,0,0
-280,155,0,0,0,0,0,0,0,0,0,-1,944,869,0,0
-273,155,0,0,0,0,0,0,0,0,0,-1,951,869,0,0
-266,155,0,0,0,0,0,0,0,0,0,-1,958,869,0,0
-259,155,0,0,0,0,0,0,0,0,0,-1,965,869,0,0
-252,155,0,0,0,0,0,0,0,0,0,-1,972,869,0,0
-245,155,0,0,0,0,0,0,0,0,0,-1,979,869,0,0
-238,155,0,0,0,0,0,0,0,0,0,-1,986,869,0,0
-231,155,0,0,0,0,0,0,0,0,0,-1,993,869,0,0
-224,155,0,0,0,0,0,0,0,0,0,-1,1000,869,0,0
-217,155,0,0,0,0,0,0,0,0,0,-1,1007,869,0,0
-210,155,0,0,0,0,0,0,0,0,0,-1,1014,869,0,0
-203,155,0,0,0,0,0,0,0,0,0,-1,1021,869,0,0
-196,155,0,0,0,0,0,0,0,0,0,-1,1028,869,0,0
-189,155,0,0,0,0,0,0,0,0,0,-1,1035,869,0,0
-182,155,0,0,0,0,0,0,0,0,0,-1,1042,869,0,0
-175,155,0,0,0,0,0,0,0,0,0,-1,1049,869,0,0
-168,155,0,0,0,0,0,0,0,0,0,-1,1056,869,0,0
-161,155,0,0,0,0,0,0,0,0,0,-1,1063,869,0,0
-154,155,0,0,0,0,0,0,0,0,0,-1,1070,869,0,0
-147,155,0,0,0,0,0,0,0,0,0,-1,1077,869,0,0
-140,155,0,0,0,0,0,0,0,0,0,-1,1084,869,0,0
-133,155,0,0,0,0,0,0,0,0,0,-1,1091,869,0,0
-126,155,0,0,0,0,0,0,0,0,0,-1,1098,869,0,0
-119,155,0,0,0,0,0,0,0,0,0,-1,1105,869,0,0
-112,155,0,0,0,0,0,0,0,0,0,-1,1112,869,0,0
-105,155,0,0,0,0,0,0,0,0,0,-1,1119,869,0,0
-98,155,0,0,0,0,0,0,0,0,0,-1,1126,869,0,0
-91,155,0,0,0,0,0,0,0,0,0,-1,1133,869,0,0
-84,155,0,0,0,0,0,0,0,0,0,-1,1140,869,0,0
-77,155,0,0,0,0,0,0,0,0,0,-1,1147,869,0,0
-70,155,0,0,0,0,0,0,0,0,0,-1,1154,869,0,0
-63,155,0,0,0,0,0,0,0,0,0,-1,1161,869,0,0
-56,155,0,0,0,0,0,0,0,0,0,-1,1168,869,0,0
-49,155,0,0,0,0,0,0,0,0,0,-1,1175,869,0,0
-42,155,0,0,0,0,0,0,0,0,0,-1,1182,869,0,0
-35,155,0,0,0,0,0,0,0,0,0,-1,1189,869,0,0
-28,155,0,0,0,0,0,0,0,0,0,-1,1196,869,0,0
-21,155,0,0,0,0,0,0,0,0,0,-1,1203,869,0,0
-14,155,0,0,0,0,0,0,0,0,0,-1,1210,869,0,0
-7,155,0,0,0,0,0,0,0,0,0,-1,1217,869,0,0
0,155,0,0,0,0,0,0,0,0,0,-1,1224,869,0,0
7,155,0,0,0,0,0,0,0,0,0,-1,1231,869,0,0
14,155,0,0,0,0,0,0,0,0,0,-1,1238,869,0,0
21,155,0,0,0,0,0,0,0,0,0,-1,1245,869,0,0
28,155,0,0,0,0,0,0,0,0,0,-1,1252,869,0,0
35,155,0,0,0,0,0,0,0,0,0,-1,1259,869,0,0
42,155,0,0,0,0,0,0,0,0,0,-1,1266,869,0,0
49,155,0,0,0,0,0,0,0,0,0,-1,1273,869,0,0
56,155,0,0,0,0,0,0,0,0,0,-1,1280,869,0,0
63,155,0,0,0,0,0,0,0,0,0,-1,1287,869,0,0
70,155,0,0,0,0,0,0,0,0,0,-1,1294,869,0,0
77,155,0,0,0,0,0,0,0,0,0,-1,1301,869,0,0
84,155,0,0,0,0,0,0,0,0,0,-1,1308,869,0,0
91,155,0,0,0,0,0,0,0,0,0,-1,1315,869,0,0
98,155,0,0,0,0,0,0,0,0,0,-1,1322,869,0,0
105,155,0,0,0,0,0,0,0,0,0,-1,1329,869,0,0
112,155,0,0,0,0,0,0,0,0,0,-1,1336,869,0,0
119,155,0,0,0,0,0,0,0,0,0,-1,1343,869,0,0
126,155,0,0,0,0,0,0,0,0,0,-1,1350,869,0,0
133,155,0,0,0,0,0,0,0,0,0,-1,1357,869,0,0
140,155,0,0,0,0,0,0,0,0,0,-1,1364,869,0,0
147,155,0,0,0,0,0,0,0,0,0,-1,1371,869,0,0
154,155,0,0,0,0,0,0,0,0,0,-1,1378,869,0,0
161,155,0,0,0,0,0,0,0,0,0,-1,1385,869,0,0
168,155,0,0,0,0,0,0,0,0,0,-1,1392,869,0,0
175,155,0,0,0,0,0,0,0,0,0,-1,1399,869,0,0
182,155,0,0,0,0,0,0,0,0,0,-1,1406,869,0,0
189,155,0,0,0,0,0,0,0,0,0,-1,1413,869,0,0
196,155,0,0,0,0,0,0,0,0,0,-1,1420,869,0,0
203,155,0,0,0,0,0,0,0,0,0,-1,1427,869,0,0
210,155,0,0,0,0,0,0,0,0,0,-1,1434,869,0,0
217,155,0,0,0,0,0,0,0,0,0,-1,1441,869,0,0
224,155,0,0,0,0,0,0,0,0,0,-1,1448,869,0,0
231,155,0,0,0,0,0,0,0,0,0,-1,1455,869,0,0
238,155,0,0,0,0,0,0,0,0,0,-1,1462,869,0,0
245,155,0,0,0,0,0,0,0,0,0,-1,1469,869,0,0
252,155,0,0,0,0,0,0,0,0,0,-1,1476,869,0,0
259,155,0,0,0,0,0,0,0,0,0,-1,1483,869,0,0
266,155,0,0,0,0,0,0,0,0,0,-1,1490,869,0,0
273,155,0,0,0,0,0,0,0,0,0,-1,1497,869,0,0
280,155,0,0,0,0,0,0,0,0,0,-1,1504,869,0,0
287,155,0,0,0,0,0,0,0,0,0,-1,1511,869,0,0
294,155,0,0,0,0,0,0,0,0,0,-1,1518,869,0,0
301,155,0,0,0,0,0,0,0,0,0,-1,1525,869,0,0
308,155,0,0,0,0,0,0,0,0,0,-1,1532,869,0,0
315,155,0,0,0,0,0,0,0,0,0,-1,1539,869,0,0
322,155,0,0,0,0,0,0,0,0,0,-1,1546,869,0,0
329,155,0,0,0,0,0,0,0,0,0,-1,1553,869,0,0
336,155,0,0,0,0,0,0,0,0,0,-1,1560,869,0,0
343,155,0,0,0,0,0,0,0,0,0,-1,1567,869,0,0
350,155,0,0,0,0,0,0,0,0,0,-1,1574,869,0,0
357,155,0,0,0,0,0,0,0,0,0,-1,1581,869,0,0
364,155,0,0,0,0,0,0,0,0,0,-1,1588,869,0,0
371,155,0,0,0,0,0,0,0,0,0,-1,1595,869,0,0
378,155,0,0,0,0,0,0,0,0,0,-1,1602,869,0,0
385,155,0,0,0,0,0,0,0,0,0,-1,1609,869,0,0
392,155,0,0,0,0,0,0,0,0,0,-1,1616,869,0,0
399,155,0,0,0,0,0,0,0,0,0,-1,1623,869,0,0
406,155,0,0,0,0,0,0,0,0,0,-1,1630,869,0,0
413,155,0,0,0,0,0,0,0,0,0,-1,1637,869,0,0
420,155,0,0,0,0,0,0,0,0,0,-1,1644,869,0,0
427,155,0,0,0,0,0,0,0,0,0,-1,1651,869,0,0
434,155,0,0,0,0,0,0,0,0,0,-1,1658,869,0,0
441,155,0,0,0,0,0,0,0,0,0,-1,1665,869,0,0
448,155,0,0,0,0,0,0,0,0,0,-1,1672,869,0,0
455,155,0,0,0,0,0,0,0,0,0,-1,1679,869,0,0
462,155,0,0,0,0,0,0,0,0,0,-1,1686,869,0,0
469,155,0,0,0,0,0,0,0,0,0,-1,1693,869,0,0
476,155,0,0,0,0,0,0,0,0,0,-1,1700,869,0,0
483,155,0,0,0,0,0,0,0,0,0,-1,1707,869,0,0
490,155,0,0,0,0,0,0,0,0,0,-1,1714,869,0,0
497,155,0,0,0,0,0,0,0,0,0,-1,1721,869,0,0
504,155,0,0,0,0,0,0,0,0,0,-1,1728,869,0,0
511,155,0,0,0,0,0,0,0,0,0,-1,1735,869,0,0
518,155,0,0,0,0,0,0,0,0,0,-1,1742,869,0,0
525,155,0,0,0,0,0,0,0,0,0,-1,1749,869,0,0
532,155,0,0,0,0,0,0,0,0,0,-1,1756,869,0,0
539,155,0,0,0,0,0,0,0,0,0,-1,1763,869,0,0
546,155,0,0,0,0,0,0,0,0,0,-1,1770,869,0,0
553,155,0,0,0,0,0,0,0,0,0,-1,1777,869,0,0
560,155,0,0,0,0,0,0,0,0,0,-1,1784,869,0,0
567,155,0,0,0,0,0,0,0,0,0,-1,1791,869,0,0
574,155,0,0,0,0,0,0,0,0,0,-1,1798,869,0,0
581,155,0,0,0,0,0,0,0,0,0,-1,1805,869,0,0
588,155,0,0,0,0,0,0,0,0,0,-1,1812,869,0,0
595,155,0,0,0,0,0,0,0,0,0,-1,1819,869,0,0
602,155,0,0,0,0,0,0,0,0,0,-1,1826,869,0,0
609,155,0,0,0,0,0,0,0,0,0,-1,1833,869,0,0
616,155,44.1182,3.10388,-0.000498997,0.00155587,-0.00317529,0.00386582,-0.00280894,-0.941868,0.00386974,0.0423182,1840,869,44.1182,-3.1039
623,155,43.829,2.93402,6.47626e-05,0.00149205,-0.00276815,0.00363706,-0.00208025,-0.911554,0.00334143,0.0427429,1847,869,43.829,-2.93403
630,155,43.7938,2.67975,0.000530188,0.00135081,-0.00231616,0.00329272,-0.00141172,-0.873065,0.00278754,0.0443713,1854,869,43.7938,-2.67974
637,155,43.6854,2.78973,0.000860409,0.00117284,-0.00185516,0.00287835,-0.000845105,-0.827402,0.00225405,0.0412951,1861,869,43.6854,-2.78976
644,155,43.5847,2.89001,0.000942138,0.00079075,-0.00151369,0.00238202,-0.000649134,-0.760416,0.0018429,0.0360459,1868,869,43.5847,-2.89003
651,155,43.6115,2.8194,0.00095012,0.000328026,-0.00129421,0.00197014,-0.000691995,-0.667467,0.00159494,0.0328489,1875,869,43.6114,-2.81938
658,155,43.682,2.86115,0.00101453,-9.99925e-05,-0.00113191,0.00171892,-0.000804383,-0.556656,0.00148838,0.0281505,1882,869,43.682,-2.86115
665,155,43.688,2.84668,0.000969368,-0.000390871,-0.00110711,0.00158858,-0.00101008,-0.509957,0.00151268,0.0317319,1889,869,43.688,-2.84669
672,155,43.6952,2.79559,0,0,0,0,0,0,0,-1,1896,869,43.6952,-2.79558
679,155,35.1565,2.78528,0,0,0,0,0,0,0,-1,1903,869,35.1565,-2.7853
686,155,36.7181,2.17078,0,0,0,0,0,0,0,-1,1910,869,36.7181,-2.17076
693,155,36.7064,2.50385,0.000809258,-0.000870795,-0.000623721,0.0010155,-0.00107703,-0.319342,0.0012083,0.0382111,1917,869,36.7064,-2.50385
700,155,36.7786,2.966,0.00095809,-0.000908979,-0.000837629,0.00127879,-0.00122968,-0.365651,0.00144836,0.0272524,1924,869,36.7786,-2.96599
707,155,36.8223,3.43134,0.00115624,-0.000835285,-0.00106354,0.00161741,-0.00129646,-0.409151,0.00168572,0.0203402,1931,869,36.8223,-3.43136
714,155,36.7358,3.82587,0.00203465,-0.000418548,-0.00138077,0.00265496,-0.00103886,-0.42223,0.00219961,0.0380192,1938,869,36.7358,-3.82587
721,155,36.5352,4.25122,0.00396883,0.000516277,-0.00210633,0.00496591,-0.000480803,-0.44212,0.00348196,0.02782,1945,869,36.5352,-4.25122
728,155,36.5201,4.7132,0.0064052,0.00146261,-0.00308549,0.00788707,-1.92644e-05,-0.44774,0.00526448,0.0190026,1952,869,36.5201,-4.71322
735,155,36.5547,5.12695,0.0102399,0.00269277,-0.00467104,0.0124712,0.000461464,-0.44564,0.00816465,0.0165474,1959,869,36.5547,-5.12698
742,155,36.5502,5.57562,0.0152676,0.00448304,-0.00642242,0.0182613,0.00148937,-0.436184,0.0117094,0.0176776,1966,869,36.5502,-5.57563
749,155,36.4629,6.01794,0.0214993,0.00656749,-0.00845594,0.0253136,0.00275322,-0.423749,0.016037,0.0155337,1973,869,36.4629,-6.01796
756,155,36.3511,6.48218,0.02988,0.00934986,-0.0108947,0.0345837,0.00464611,-0.407572,0.0216737,0.0273097,1980,869,36.351,-6.4822
763,155,36.5767,7.07629,0.0401446,0.0130217,-0.0133276,0.0455973,0.007569,-0.38835,0.0282156,0.0441346,1987,869,36.5767,-7.07627
770,155,36.884,7.46332,0,0,0,0,0,0,0,-1,1994,869,36.884,-7.46334
777,155,37.2709,7.99438,0,0,0,0,0,0,0,-1,2001,869,37.2708,-7.99439
784,155,37.6079,8.64203,0,0,0,0,0,0,0,-1,2008,869,37.6079,-8.64201
791,155,0,0,0,0,0,0,0,0,0,-1,2015,869,0,0
798,155,0,0,0,0,0,0,0,0,0,-1,2022,869,0,0
805,155,0,0,0,0,0,0,0,0,0,-1,2029,869,0,0
812,155,0,0,0,0,0,0,0,0,0,-1,2036,869,0,0
-700,148,0,0,0,0,0,0,0,0,0,-1,524,876,0,0
-693,148,0,0,0,0,0,0,0,0,0,-1,531,876,0,0
-686,148,0,0,0,0,0,0,0,0,0,-1,538,876,0,0
-679,148,0,0,0,0,0,0,0,0,0,-1,545,876,0,0
-672,148,-26.6651,7.85577,0.0192355,0.0627473,-0.0550097,0.100147,-0.0181642,-0.973705,0.0735707,0.0468449,552,876,-26.6651,-7.85578
-665,148,-26.608,6.74799,0.0189403,0.0461021,-0.0426324,0.0772645,-0.0122221,-0.939595,0.0560298,0.0451455,559,876,-26.608,-6.74801
-658,148,-26.5328,5.70343,0.0164919,0.0332646,-0.0319544,0.0579148,-0.00815834,-0.913727,0.0415969,0.0481851,566,876,-26.5328,-5.70341
-651,148,-26.5013,4.72919,0,0,0,0,0,0,0,-1,573,876,-26.5013,-4.72919
-644,148,-26.5563,3.93903,0,0,0,0,0,0,0,-1,580,876,-26.5563,-3.93905
-637,148,-26.888,3.73383,0,0,0,0,0,0,0,-1,587,876,-26.888,-3.7338
-630,148,-26.7307,3.83673,0.00413338,0.00455588,-0.0036072,0.00795801,0.000731242,-0.814646,0.00507917,0.0486857,594,876,-26.7307,-3.83674
-623,148,-26.5027,3.87091,0.00180499,0.00210847,-0.000548495,0.00252583,0.00138763,-0.920347,0.00146065,0.0247262,601,876,-26.5027,-3.87091
-616,148,-26.6325,3.34137,0.000234382,-0.000236959,0.00174649,0.00176103,-0.00176361,0.718334,0.00203496,0.0135681,608,876,-26.6325,-3.34137
-609,148,-26.7274,2.86292,-0.00115764,-0.00107765,0.00285875,0.00174139,-0.00397667,0.792393,0.00338436,0.012435,615,876,-26.7274,-2.86293
-602,148,-26.7736,2.44305,-0.00189616,-0.00102125,0.00278818,0.00136358,-0.00428099,0.863212,0.0034009,0.0130271,622,876,-26.7736,-2.44303
-595,148,-26.7737,2.03925,-0.00187023,-0.00102666,0.00209333,0.000686958,-0.00358385,0.884813,0.00264809,0.0113979,629,876,-26.7737,-2.03925
-588,148,-26.7796,1.57904,-0.00167368,-0.00123888,0.00149245,5.19177e-05,-0.00296448,0.857723,0.00199385,0.0196407,636,876,-26.7796,-1.57903
-581,148,-26.9194,1.24103,-0.00155549,-0.00109603,0.00102264,-0.000277635,-0.00237389,0.895887,0.00149864,0.0345921,643,876,-26.9194,-1.24104
-574,148,-26.6509,0.979736,-0.00172618,-0.000786093,0.000621099,-0.000477225,-0.00203505,1.10932,0.00122891,0.0398453,650,876,-26.6509,-0.979762
-567,148,-26.8967,0.494019,-0.00165272,-0.000797918,0.000206273,-0.000750745,-0.00169989,1.34597,0.000983656,0.04988,657,876,-26.8967,-0.49403
-560,148,-27.0012,-0.283264,0,0,0,0,0,0,0,-1,664,876,-27.0012,0.283274
-553,148,-18.3896,-0.00280762,0,0,0,0,0,0,0,-1,671,876,-18.3897,0.00278524
-546,148,-32.2728,1.14166,0,0,0,0,0,0,0,-1,678,876,-32.2728,-1.14166
-539,148,-32.2474,1.06281,-0.00137444,0.000431841,-0.000981695,0.000862637,-0.00180524,-1.15727,0.00157202,0.0404867,685,876,-32.2474,-1.06281
-532,148,-32.2411,1.13342,-0.00131166,0.00107476,-0.00129124,0.0016397,-0.00187659,-1.15838,0.00203166,0.0374663,692,876,-32.2411,-1.13344
-525,148,-32.2852,1.1524,-0.00162375,0.00176388,-0.00160536,0.00240378,-0.00226364,-1.1915,0.00269514,0.0374972,699,876,-32.2852,-1.15242
-518,148,-32.3434,1.01721,-0.00200602,0.00265305,-0.00178098,0.00325586,-0.00260882,-1.24443,0.00339283,0.0441207,706,876,-32.3434,-1.01719
-511,148,-32.3277,0.840515,-0.00242318,0.00317327,-0.00193546,0.00377741,-0.00302732,-1.26824,0.00393666,0.0435901,713,876,-32.3277,-0.840524
-504,148,-32.2047,0.893738,-0.00331725,0.00329304,-0.00240403,0.00407486,-0.00409907,-1.25637,0.00471923,0.0456295,720,876,-32.2047,-0.893717
-497,148,0,0,0,0,0,0,0,0,0,-1,727,876,0,0
-490,148,0,0,0,0,0,0,0,0,0,-1,734,876,0,0
-483,148,0,0,0,0,0,0,0,0,0,-1,741,876,0,0
-476,148,0,0,0,0,0,0,0,0,0,-1,748,876,0,0
-469,148,0,0,0,0,0,0,0,0,0,-1,755,876,0,0
-462,148,0,0,0,0,0,0,0,0,0,-1,762,876,0,0
-455,148,0,0,0,0,0,0,0,0,0,-1,769,876,0,0
-448,148,0,0,0,0,0,0,0,0,0,-1,776,876,0,0
-441,148,0,0,0,0,0,0,0,0,0,-1,783,876,0,0
-434,148,0,0,0,0,0,0,0,0,0,-1,790,876,0,0
-427,148,0,0,0,0,0,0,0,0,0,-1,797,876,0,0
-420,148,0,0,0,0,0,0,0,0,0,-1,804,876,0,0
-413,148,0,0,0,0,0,0,0,0,0,-1,811,876,0,0
-406,148,0,0,0,0,0,0,0,0,0,-1,818,876,0,0
-399,148,0,0,0,0,0,0,0,0,0,-1,825,876,0,0
-392,148,0,0,0,0,0,0,0,0,0,-1,832,876,0,0
-385,148,0,0,0,0,0,0,0,0,0,-1,839,876,0,0
-378,148,0,0,0,0,0,0,0,0,0,-1,846,876,0,0
-371,148,0,0,0,0,0,0,0,0,0,-1,853,876,0,0
-364,148,0,0,0,0,0,0,0,0,0,-1,860,876,0,0
-357,148,0,0,0,0,0,0,0,0,0,-1,867,876,0,0
-350,148,0,0,0,0,0,0,0,0,0,-1,874,876,0,0
-343,148,0,0,0,0,0,0,0,0,0,-1,881,876,0,0
-336,148,0,0,0,0,0,0,0,0,0,-1,888,876,0,0
-329,148,0,0,0,0,0,0,0,0,0,-1,895,876,0,0
-322,148,0,0,0,0,0,0,0,0,0,-1,902,876,0,0
-315,148,0,0,0,0,0,0,0,0,0,-1,909,876,0,0
-308,148,0,0,0,0,0,0,0,0,0,-1,916,876,0,0
-301,148,0,0,0,0,0,0,0,0,0,-1,923,876,0,0
-294,148,0,0,0,0,0,0,0,0,0,-1,930,876,0,0
-287,148,0,0,0,0,0,0,0,0,0,-1,937,876,0,0
-280,148,0,0,0,0,0,0,0,0,0,-1,944,876,0,0
-273,148,0,0,0,0,0,0,0,0,0,-1,951,876,0,0
-266,148,0,0,0,0,0,0,0,0,0,-1,958,876,0,0
-259,148,0,0,0,0,0,0,0,0,0,-1,965,876,0,0
-252,148,0,0,0,0,0,0,0,0,0,-1,972,876,0,0
-245,148,0,0,0,0,0,0,0,0,0,-1,979,876,0,0
-238,148,0,0,0,0,0,0,0,0,0,-1,986,876,0,0
-231,148,0,0,0,0,0,0,0,0,0,-1,993,876,0,0
-224,148,0,0,0,0,0,0,0,0,0,-1,1000,876,0,0
-217,148,0,0,0,0,0,0,0,0,0,-1,1007,876,0,0
-210,148,0,0,0,0,0,0,0,0,0,-1,1014,876,0,0
-203,148,0,0,0,0,0,0,0,0,0,-1,1021,876,0,0
-196,148,0,0,0,0,0,0,0,0,0,-1,1028,876,0,0
-189,148,0,0,0,0,0,0,0,0,0,-1,1035,876,0,0
-182,148,0,0,0,0,0,0,0,0,0,-1,1042,876,0,0
-175,148,0,0,0,0,0,0,0,0,0,-1,1049,876,0,0
-168,148,0,0,0,0,0,0,0,0,0,-1,1056,876,0,0
-161,148,0,0,0,0,0,0,0,0,0,-1,1063,876,0,0
-154,148,0,0,0,0,0,0,0,0,0,-1,1070,876,0,0
-147,148,0,0,0,0,0,0,0,0,0,-1,1077,876,0,0
-140,148,0,0,0,0,0,0,0,0,0,-1,1084,876,0,0
-133,148,0,0,0,0,0,0,0,0,0,-1,1091,876,0,0
-126,148,0,0,0,0,0,0,0,0,0,-1,1098,876,0,0
-119,148,0,0,0,0,0,0,0,0,0,-1,1105,876,0,0
-112,148,0,0,0,0,0,0,0,0,0,-1,1112,876,0,0
-105,148,0,0,0,0,0,0,0,0,0,-1,1119,876,0,0
-98,148,0,0,0,0,0,0,0,0,0,-1,1126,876,0,0
-91,148,0,0,0,0,0,0,0,0,0,-1,1133,876,0,0
-84,148,0,0,0,0,0,0,0,0,0,-1,1140,876,0,0
-77,148,0,0,0,0,0,0,0,0,0,-1,1147,876,0,0
-70,148,0,0,0,0,0,0,0,0,0,-1,1154,876,0,0
-63,148,0,0,0,0,0,0,0,0,0,-1,1161,876,0,0
-56,148,0,0,0,0,0,0,0,0,0,-1,1168,876,0,0
-49,148,0,0,0,0,0,0,0,0,0,-1,1175,876,0,0
-42,148,0,0,0,0,0,0,0,0,0,-1,1182,876,0,0
-35,148,0,0,0,0,0,0,0,0,0,-1,1189,876,0,0
-28,148,0,0,0,0,0,0,0,0,0,-1,1196,876,0,0
-21,148,0,0,0,0,0,0,0,0,0,-1,1203,876,0,0
-14,148,0,0,0,0,0,0,0,0,0,-1,1210,876,0,0
-7,148,0,0,0,0,0,0,0,0,0,-1,1217,876,0,0
0,148,0,0,0,0,0,0,0,0,0,-1,1224,876,0,0
7,148,0,0,0,0,0,0,0,0,0,-1,1231,876,0,0
14,148,0,0,0,0,0,0,0,0,0,-1,1238,876,0,0
21,148,0,0,0,0,0,0,0,0,0,-1,1245,876,0,0
28,148,0,0,0,0,0,0,0,0,0,-1,1252,876,0,0
35,148,0,0,0,0,0,0,0,0,0,-1,1259,876,0,0
42,148,0,0,0,0,0,0,0,0,0,-1,1266,876,0,0
49,148,0,0,0,0,0,0,0,0,0,-1,1273,876,0,0
56,148,0,0,0,0,0,0,0,0,0,-1,1280,876,0,0
63,148,0,0,0,0,0,0,0,0,0,-1,1287,876,0,0
70,148,0,0,0,0,0,0,0,0,0,-1,1294,876,0,0
77,148,0,0,0,0,0,0,0,0,0,-1,1301,876,0,0
84,148,0,0,0,0,0,0,0,0,0,-1,1308,876,0,0
91,148,0,0,0,0,0,0,0,0,0,-1,1315,876,0,0
98,148,0,0,0,0,0,0,0,0,0,-1,1322,876,0,0
105,148,0,0,0,0,0,0,0,0,0,-1,1329,876,0,0
112,148,0,0,0,0,0,0,0,0,0,-1,1336,876,0,0
119,148,0,0,0,0,0,0,0,0,0,-1,1343,876,0,0
126,148,0,0,0,0,0,0,0,0,0,-1,1350,876,0,0
133,148,0,0,0,0,0,0,0,0,0,-1,1357,876,0,0
140,148,0,0,0,0,0,0,0,0,0,-1,1364,876,0,0
147,148,0,0,0,0,0,0,0,0,0,-1,1371,876,0,0
154,148,0,0,0,0,0,0,0,0,0,-1,1378,876,0,0
161,148,0,0,0,0,0,0,0,0,0,-1,1385,876,0,0
168,148,0,0,0,0,0,0,0,0,0,-1,1392,876,0,0
175,148,0,0,0,0,0,0,0,0,0,-1,1399,876,0,0
182,148,0,0,0,0,0,0,0,0,0,-1,1406,876,0,0
189,148,0,0,0,0,0,0,0,0,0,-1,1413,876,0,0
196,148,0,0,0,0,0,0,0,0,0,-1,1420,876,0,0
203,148,0,0,0,0,0,0,0,0,0,-1,1427,876,0,0
210,148,0,0,0,0,0,0,0,0,0,-1,1434,876,0,0
217,148,0,0,0,0,0,0,0,0,0,-1,1441,876,0,0
224,148,0,0,0,0,0,0,0,0,0,-1,1448,876,0,0
231,148,0,0,0,0,0,0,0,0,0,-1,1455,876,0,0
238,148,0,0,0,0,0,0,0,0,0,-1,1462,876,0,0
245,148,0,0,0,0,0,0,0,0,0,-1,1469,876,0,0
252,148,0,0,0,0,0,0,0,0,0,-1,1476,876,0,0
259,148,0,0,0,0,0,0,0,0,0,-1,1483,876,0,0
266,148,0,0,0,0,0,0,0,0,0,-1,1490,876,0,0
273,148,0,0,0,0,0,0,0,0,0,-1,1497,876,0,0
280,148,0,0,0,0,0,0,0,0,0,-1,1504,876,0,0
287,148,0,0,0,0,0,0,0,0,0,-1,1511,876,0,0
294,148,0,0,0,0,0,0,0,0,0,-1,1518,876,0,0
301,148,0,0,0,0,0,0,0,0,0,-1,1525,876,0,0
308,148,0,0,0,0,0,0,0,0,0,-1,1532,876,0,0
315,148,0,0,0,0,0,0,0,0,0,-1,1539,876,0,0
322,148,0,0,0,0,0,0,0,0,0,-1,1546,876,0,0
329,148,0,0,0,0,0,0,0,0,0,-1,1553,876,0,0
336,148,0,0,0,0,0,0,0,0,0,-1,1560,876,0,0
343,148,0,0,0,0,0,0,0,0,0,-1,1567,876,0,0
350,148,0,0,0,0,0,0,0,0,0,-1,1574,876,0,0
357,148,0,0,0,0,0,0,0,0,0,-1,1581,876,0,0
364,148,0,0,0,0,0,0,0,0,0,-1,1588,876,0,0
371,148,0,0,0,0,0,0,0,0,0,-1,1595,876,0,0
378,148,0,0,0,0,0,0,0,0,0,-1,1602,876,0,0
385,148,0,0,0,0,0,0,0,0,0,-1,1609,876,0,0
392,148,0,0,0,0,0,0,0,0,0,-1,1616,876,0,0
399,148,0,0,0,0,0,0,0,0,0,-1,1623,876,0,0
406,148,0,0,0,0,0,0,0,0,0,-1,1630,876,0,0
413,148,0,0,0,0,0,0,0,0,0,-1,1637,876,0,0
420,148,0,0,0,0,0,0,0,0,0,-1,1644,876,0,0
427,148,0,0,0,0,0,0,0,0,0,-1,1651,876,0,0
434,148,0,0,0,0,0,0,0,0,0,-1,1658,876,0,0
441,148,0,0,0,0,0,0,0,0,0,-1,1665,876,0,0
448,148,0,0,0,0,0,0,0,0,0,-1,1672,876,0,0
455,148,0,0,0,0,0,0,0,0,0,-1,1679,876,0,0
462,148,0,0,0,0,0,0,0,0,0,-1,1686,876,0,0
469,148,0,0,0,0,0,0,0,0,0,-1,1693,876,0,0
476,148,0,0,0,0,0,0,0,0,0,-1,1700,876,0,0
483,148,0,0,0,0,0,0,0,0,0,-1,1707,876,0,0
490,148,0,0,0,0,0,0,0,0,0,-1,1714,876,0,0
497,148,0,0,0,0,0,0,0,0,0,-1,1721,876,0,0
504,148,0,0,0,0,0,0,0,0,0,-1,1728,876,0,0
511,148,0,0,0,0,0,0,0,0,0,-1,1735,876,0,0
518,148,0,0,0,0,0,0,0,0,0,-1,1742,876,0,0
525,148,0,0,0,0,0,0,0,0,0,-1,1749,876,0,0
532,148,0,0,0,0,0,0,0,0,0,-1,1756,876,0,0
539,148,0,0,0,0,0,0,0,0,0,-1,1763,876,0,0
546,148,0,0,0,0,0,0,0,0,0,-1,1770,876,0,0
553,148,0,0,0,0,0,0,0,0,0,-1,1777,876,0,0
560,148,0,0,0,0,0,0,0,0,0,-1,1784,876,0,0
567,148,0,0,0,0,0,0,0,0,0,-1,1791,876,0,0
574,148,0,0,0,0,0,0,0,0,0,-1,1798,876,0,0
581,148,0,0,0,0,0,0,0,0,0,-1,1805,876,0,0
588,148,0,0,0,0,0,0,0,0,0,-1,1812,876,0,0
595,148,0,0,0,0,0,0,0,0,0,-1,1819,876,0,0
602,148,0,0,0,0,0,0,0,0,0,-1,1826,876,0,0
609,148,0,0,0,0,0,0,0,0,0,-1,1833,876,0,0
616,148,0,0,0,0,0,0,0,0,0,-1,1840,876,0,0
623,148,43.7733,2.62012,6.37839e-05,0.00109783,-0.00355305,0.00417127,-0.00300966,-0.857649,0.00416396,0.0400126,1847,876,43.7734,-2.62012
630,148,43.701,2.53503,0.000424636,0.00115957,-0.00270236,0.00351933,-0.00193513,-0.852974,0.0031931,0.0421941,1854,876,43.7011,-2.53505
637,148,43.6219,2.72449,0.000694851,0.00111433,-0.00200195,0.00291749,-0.00110831,-0.837591,0.00240126,0.0380047,1861,876,43.622,-2.72452
644,148,43.5872,2.75336,0.000753644,0.0008076,-0.00150998,0.00229084,-0.000729597,-0.79433,0.00181985,0.034527,1868,876,43.5871,-2.75335
651,148,43.6444,2.70386,0.000765563,0.000374254,-0.00120202,0.00178774,-0.000647926,-0.70472,0.00145666,0.0360756,1875,876,43.6445,-2.70384
658,148,43.6816,2.85449,0.00089949,-6.24767e-05,-0.000970216,0.0015014,-0.00066439,-0.555278,0.00128117,0.0341359,1882,876,43.6817,-2.85447
665,148,43.6168,2.98962,0.000935711,-0.000379626,-0.000916602,0.00140618,-0.000850092,-0.474208,0.00131578,0.0252956,1889,876,43.6168,-2.98963
672,148,43.6387,2.8869,0.00100592,-0.000593588,-0.000780375,0.00132357,-0.000911237,-0.386566,0.00129757,0.0301058,1896,876,43.6386,-2.88692
679,148,43.6896,2.77478,0,0,0,0,0,0,0,-1,1903,876,43.6895,-2.77477
686,148,21.6195,2.40845,0,0,0,0,0,0,0,-1,1910,876,21.6196,-2.40846
693,148,37.21,2.57123,0,0,0,0,0,0,0,-1,1917,876,37.21,-2.57123
700,148,37.2456,3.03552,0.00118827,-0.000910289,-0.000683363,0.00139118,-0.0011132,-0.288633,0.00144887,0.0290959,1924,876,37.2456,-3.03553
707,148,37.3744,3.58759,0.00139548,-0.000823362,-0.000877117,0.00170032,-0.00112821,-0.334494,0.00164415,0.024895,1931,876,37.3743,-3.58761
714,148,37.3347,3.93555,0,0,0,0,0,0,0,-1,1938,876,37.3347,-3.93556
721,148,37.0043,4.27826,0.00410406,0.000471776,-0.00172235,0.00479089,-0.000215052,-0.379449,0.00326797,0.0201733,1945,876,37.0043,-4.27824
728,148,37.0164,4.70477,0.00628332,0.00145476,-0.00245856,0.0073148,0.00042328,-0.397242,0.00474174,0.0203068,1952,876,37.0164,-4.70476
735,148,37.0449,5.14929,0.00990419,0.00278874,-0.00372295,0.011496,0.00119692,-0.404044,0.00729782,0.0198353,1959,876,37.045,-5.14931
742,148,37.0042,5.61548,0.0147086,0.00476551,-0.0049957,0.0167849,0.00268912,-0.393912,0.01041,0.0212756,1966,876,37.0041,-5.6155
749,148,36.9276,6.04639,0.0205783,0.00700091,-0.00640331,0.0231218,0.00445747,-0.378096,0.0141644,0.0194532,1973,876,36.9276,-6.04639
756,148,36.8547,6.52197,0.0283769,0.00994632,-0.00801602,0.0313755,0.00694776,-0.357956,0.0190287,0.0239088,1980,876,36.8547,-6.52195
763,148,37.3167,7.14026,0.0377318,0.0136996,-0.00929276,0.0409059,0.0105255,-0.329142,0.0245269,0.0429769,1987,876,37.3166,-7.14028
770,148,37.7429,7.73169,0,0,0,0,0,0,0,-1,1994,876,37.7429,-7.73169
777,148,37.9032,7.78833,0,0,0,0,0,0,0,-1,2001,876,37.9031,-7.78834
784,148,38.2566,8.68738,0,0,0,0,0,0,0,-1,2008,876,38.2566,-8.6874
791,148,38.5637,9.31281,0,0,0,0,0,0,0,-1,2015,876,38.5636,-9.31279
798,148,0,0,0,0,0,0,0,0,0,-1,2022,876,0,0
805,148,0,0,0,0,0,0,0,0,0,-1,2029,876,0,0
812,148,0,0,0,0,0,0,0,0,0,-1,2036,876,0,0
-700,141,0,0,0,0,0,0,0,0,0,-1,524,883,0,0
-693,141,0,0,0,0,0,0,0,0,0,-1,531,883,0,0
-686,141,0,0,0,0,0,0,0,0,0,-1,538,883,0,0
-679,141,0,0,0,0,0,0,0,0,0,-1,545,883,0,0
-672,141,-26.8683,7.16608,0.0115942,0.0627262,-0.0524083,0.0954719,-0.0211515,-1.01233,0.0717454,0.0466063,552,883,-26.8683,-7.1661
-665,141,-27.0732,6.68604,0.012921,0.0458639,-0.0405358,0.073147,-0.0143621,-0.978379,0.0541902,0.0482869,559,883,-27.0732,-6.68602
-658,141,-26.9156,5.36273,0,0,0,0,0,0,0,-1,566,883,-26.9157,-5.36271
-651,141,-26.8701,4.42352,0,0,0,0,0,0,0,-1,573,883,-26.87,-4.42354
-644,141,-26.8394,3.51825,0,0,0,0,0,0,0,-1,580,883,-26.8394,-3.51826
-637,141,-26.6548,4.75531,0,0,0,0,0,0,0,-1,587,883,-26.6548,-4.7553
-630,141,-26.8469,4.36194,0.00200578,0.00463276,-0.00321649,0.00679362,-0.000155078,-0.979245,0.00458165,0.0465226,594,883,-26.8469,-4.36195
-623,141,-26.9103,3.79028,0.000300547,0.00223841,-0.00039025,0.00231405,0.00022491,-1.37935,0.00147346,0.0274125,601,883,-26.9103,-3.7903
-616,141,-27.0898,3.29645,-0.000813265,-3.78122e-05,0.00171825,0.00133591,-0.00218699,0.896366,0.00205364,0.013641,608,883,-27.0898,-3.29647
-609,141,-27.1745,2.88245,-0.0017985,-0.000842007,0.00268137,0.00140343,-0.00404394,0.87365,0.00326588,0.014,615,883,-27.1745,-2.88246
-602,141,-27.1928,2.46527,-0.00226812,-0.000840983,0.00258728,0.00112933,-0.00423843,0.919953,0.00326777,0.0130996,622,883,-27.1928,-2.4653
-595,141,-27.1711,2.04358,-0.00215164,-0.000879299,0.00192499,0.000511914,-0.00354285,0.944988,0.00254973,0.0130567,629,883,-27.1711,-2.04358
-588,141,-27.4201,1.60797,-0.00187478,-0.00109686,0.0013358,-9.45424e-05,-0.0028771,0.927072,0.00188734,0.0257921,636,883,-27.4201,-1.60795
-581,141,-27.3853,1.22668,-0.00179189,-0.000969148,0.000881031,-0.000408181,-0.00235286,1.00382,0.00145177,0.0365215,643,883,-27.3852,-1.22668
-574,141,-27.1,1.03772,-0.002019,-0.000649015,0.000516046,-0.000476383,-0.00219163,1.24797,0.00133102,0.0476492,650,883,-27.1,-1.03774
-567,141,-27.1593,0.660095,-0.00197927,-0.000714283,0.000165352,-0.000693026,-0.00200052,1.44294,0.00117302,0.04184,657,883,-27.1593,-0.660073
-560,141,-27.1984,0.329773,0,0,0,0,0,0,0,-1,664,883,-27.1984,-0.329774
-553,141,-32.0876,1.39459,0,0,0,0,0,0,0,-1,671,883,-32.0876,-1.3946
-546,141,-32.1706,1.22467,-0.0017509,-0.000124453,-0.000645089,0.000100337,-0.00197569,-1.23549,0.00135181,0.0482202,678,883,-32.1706,-1.22466
-539,141,-32.2185,1.03448,-0.00181293,0.000370661,-0.00097771,0.000744449,-0.00218672,-1.20563,0.00175927,0.0312516,685,883,-32.2185,-1.03447
-532,141,-32.3048,1.02991,-0.00181367,0.000991371,-0.00116869,0.00141447,-0.00223677,-1.22344,0.00212579,0.0308483,692,883,-32.3048,-1.0299
-525,141,-32.3492,1.06122,-0.00215391,0.00166863,-0.0012857,0.00206083,-0.00254611,-1.27471,0.00266473,0.0388611,699,883,-32.3493,-1.06122
-518,141,-32.3174,1.18597,-0.00245444,0.00247535,-0.00111617,0.00271629,-0.00269538,-1.3582,0.00312444,0.0428536,706,883,-32.3174,-1.18595
-511,141,-32.2841,1.29645,-0.00273291,0.00275092,-0.000743199,0.00284986,-0.00283185,-1.43845,0.00328034,0.038826,713,883,-32.2841,-1.29646
-504,141,-32.2216,1.4931,0,0,0,0,0,0,0,-1,720,883,-32.2216,-1.49313
-497,141,0,0,0,0,0,0,0,0,0,-1,727,883,0,0
-490,141,0,0,0,0,0,0,0,0,0,-1,734,883,0,0
-483,141,0,0,0,0,0,0,0,0,0,-1,741,883,0,0
-476,141,0,0,0,0,0,0,0,0,0,-1,748,883,0,0
-469,141,0,0,0,0,0,0,0,0,0,-1,755,883,0,0
-462,141,0,0,0,0,0,0,0,0,0,-1,762,883,0,0
-455,141,0,0,0,0,0,0,0,0,0,-1,769,883,0,0
-448,141,0,0,0,0,0,0,0,0,0,-1,776,883,0,0
-441,141,0,0,0,0,0,0,0,0,0,-1,783,883,0,0
-434,141,0,0,0,0,0,0,0,0,0,-1,790,883,0,0
-427,141,0,0,0,0,0,0,0,0,0,-1,797,883,0,0
-420,141,0,0,0,0,0,0,0,0,0,-1,804,883,0,0
-413,141,0,0,0,0,0,0,0,0,0,-1,811,883,0,0
-406,141,0,0,0,0,0,0,0,0,0,-1,818,883,0,0
-399,141,0,0,0,0,0,0,0,0,0,-1,825,883,0,0
-392,141,0,0,0,0,0,0,0,0,0,-1,832,883,0,0
-385,141,0,0,0,0,0,0,0,0,0,-1,839,883,0,0
-378,141,0,0,0,0,0,0,0,0,0,-1,846,883,0,0
-371,141,0,0,0,0,0,0,0,0,0,-1,853,883,0,0
-364,141,0,0,0,0,0,0,0,0,0,-1,860,883,0,0
-357,141,0,0,0,0,0,0,0,0,0,-1,867,883,0,0
-350,141,0,0,0,0,0,0,0,0,0,-1,874,883,0,0
-343,141,0,0,0,0,0,0,0,0,0,-1,881,883,0,0
-336,141,0,0,0,0,0,0,0,0,0,-1,888,883,0,0
-329,141,0,0,0,0,0,0,0,0,0,-1,895,883,0,0
-322,141,0,0,0,0,0,0,0,0,0,-1,902,883,0,0
-315,141,0,0,0,0,0,0,0,0,0,-1,909,883,0,0
-308,141,0,0,0,0,0,0,0,0,0,-1,916,883,0,0
-301,141,0,0,0,0,0,0,0,0,0,-1,923,883,0,0
-294,141,0,0,0,0,0,0,0,0,0,-1,930,883,0,0
-287,141,0,0,0,0,0,0,0,0,0,-1,937,883,0,0
-280,141,0,0,0,0,0,0,0,0,0,-1,944,883,0,0
-273,141,0,0,0,0,0,0,0,0,0,-1,951,883,0,0
-266,141,0,0,0,0,0,0,0,0,0,-1,958,883,0,0
-259,141,0,0,0,0,0,0,0,0,0,-1,965,883,0,0
-252,141,0,0,0,0,0,0,0,0,0,-1,972,883,0,0
-245,141,0,0,0,0,0,0,0,0,0,-1,979,883,0,0
-238,141,0,0,0,0,0,0,0,0,0,-1,986,883,0,0
-231,141,0,0,0,0,0,0,0,0,0,-1,993,883,0,0
-224,141,0,0,0,0,0,0,0,0,0,-1,1000,883,0,0
-217,141,0,0,0,0,0,0,0,0,0,-1,1007,883,0,0
-210,141,0,0,0,0,0,0,0,0,0,-1,1014,883,0,0
-203,141,0,0,0,0,0,0,0,0,0,-1,1021,883,0,0
-196,141,0,0,0,0,0,0,0,0,0,-1,1028,883,0,0
-189,141,0,0,0,0,0,0,0,0,0,-1,1035,883,0,0
-182,141,0,0,0,0,0,0,0,0,0,-1,1042,883,0,0
-175,141,0,0,0,0,0,0,0,0,0,-1,1049,883,0,0
-168,141,0,0,0,0,0,0,0,0,0,-1,1056,883,0,0
-161,141,0,0,0,0,0,0,0,0,0,-1,1063,883,0,0
-154,141,0,0,0,0,0,0,0,0,0,-1,1070,883,0,0
-147,141,0,0,0,0,0,0,0,0,0,-1,1077,883,0,0
-140,141,0,0,0,0,0,0,0,0,0,-1,1084,883,0,0
-133,141,0,0,0,0,0,0,0,0,0,-1,1091,883,0,0
-126,141,0,0,0,0,0,0,0,0,0,-1,1098,883,0,0
-119,141,0,0,0,0,0,0,0,0,0,-1,1105,883,0,0
-112,141,0,0,0,0,0,0,0,0,0,-1,1112,883,0,0
-105,141,0,0,0,0,0,0,0,0,0,-1,1119,883,0,0
-98,141,0,0,0,0,0,0,0,0,0,-1,1126,883,0,0
-91,141,0,0,0,0,0,0,0,0,0,-1,1133,883,0,0
-84,141,0,0,0,0,0,0,0,0,0,-1,1140,883,0,0
-77,141,0,0,0,0,0,0,0,0,0,-1,1147,883,0,0
-70,141,0,0,0,0,0,0,0,0,0,-1,1154,883,0,0
-63,141,0,0,0,0,0,0,0,0,0,-1,1161,883,0,0
-56,141,0,0,0,0,0,0,0,0,0,-1,1168,883,0,0
-49,141,0,0,0,0,0,0,0,0,0,-1,1175,883,0,0
-42,141,0,0,0,0,0,0,0,0,0,-1,1182,883,0,0
-35,141,0,0,0,0,0,0,0,0,0,-1,1189,883,0,0
-28,141,0,0,0,0,0,0,0,0,0,-1,1196,883,0,0
-21,141,0,0,0,0,0,0,0,0,0,-1,1203,883,0,0
-14,141,0,0,0,0,0,0,0,0,0,-1,1210,883,0,0
-7,141,0,0,0,0,0,0,0,0,0,-1,1217,883,0,0
0,141,0,0,0,0,0,0,0,0,0,-1,1224,883,0,0
7,141,0,0,0,0,0,0,0,0,0,-1,1231,883,0,0
14,141,0,0,0,0,0,0,0,0,0,-1,1238,883,0,0
21,141,0,0,0,0,0,0,0,0,0,-1,1245,883,0,0
28,141,0,0,0,0,0,0,0,0,0,-1,1252,883,0,0
35,141,0,0,0,0,0,0,0,0,0,-1,1259,883,0,0
42,141,0,0,0,0,0,0,0,0,0,-1,1266,883,0,0
49,141,0,0,0,0,0,0,0,0,0,-1,1273,883,0,0
56,141,0,0,0,0,0,0,0,0,0,-1,1280,883,0,0
63,141,0,0,0,0,0,0,0,0,0,-1,1287,883,0,0
70,141,0,0,0,0,0,0,0,0,0,-1,1294,883,0,0
77,141,0,0,0,0,0,0,0,0,0,-1,1301,883,0,0
84,141,0,0,0,0,0,0,0,0,0,-1,1308,883,0,0
91,141,0,0,0,0,0,0,0,0,0,-1,1315,883,0,0
98,141,0,0,0,0,0,0,0,0,0,-1,1322,883,0,0
105,141,0,0,0,0,0,0,0,0,0,-1,1329,883,0,0
112,141,0,0,0,0,0,0,0,0,0,-1,1336,883,0,0
119,141,0,0,0,0,0,0,0,0,0,-1,1343,883,0,0
126,141,0,0,0,0,0,0,0,0,0,-1,1350,883,0,0
133,141,0,0,0,0,0,0,0,0,0,-1,1357,883,0,0
140,141,0,0,0,0,0,0,0,0,0,-1,1364,883,0,0
147,141,0,0,0,0,0,0,0,0,0,-1,1371,883,0,0
154,141,0,0,0,0,0,0,0,0,0,-1,1378,883,0,0
161,141,0,0,0,0,0,0,0,0,0,-1,1385,883,0,0
168,141,0,0,0,0,0,0,0,0,0,-1,1392,883,0,0
175,141,0,0,0,0,0,0,0,0,0,-1,1399,883,0,0
182,141,0,0,0,0,0,0,0,0,0,-1,1406,883,0,0
189,141,0,0,0,0,0,0,0,0,0,-1,1413,883,0,0
196,141,0,0,0,0,0,0,0,0,0,-1,1420,883,0,0
203,141,0,0,0,0,0,0,0,0,0,-1,1427,883,0,0
210,141,0,0,0,0,0,0,0,0,0,-1,1434,883,0,0
217,141,0,0,0,0,0,0,0,0,0,-1,1441,883,0,0
224,141,0,0,0,0,0,0,0,0,0,-1,1448,883,0,0
231,141,0,0,0,0,0,0,0,0,0,-1,1455,883,0,0
238,141,0,0,0,0,0,0,0,0,0,-1,1462,883,0,0
245,141,0,0,0,0,0,0,0,0,0,-1,1469,883,0,0
252,141,0,0,0,0,0,0,0,0,0,-1,1476,883,0,0
259,141,0,0,0,0,0,0,0,0,0,-1,1483,883,0,0
266,141,0,0,0,0,0,0,0,0,0,-1,1490,883,0,0
273,141,0,0,0,0,0,0,0,0,0,-1,1497,883,0,0
280,141,0,0,0,0,0,0,0,0,0,-1,1504,883,0,0
287,141,0,0,0,0,0,0,0,0,0,-1,1511,883,0,0
294,141,0,0,0,0,0,0,0,0,0,-1,1518,883,0,0
301,141,0,0,0,0,0,0,0,0,0,-1,1525,883,0,0
308,141,0,0,0,0,0,0,0,0,0,-1,1532,883,0,0
315,141,0,0,0,0,0,0,0,0,0,-1,1539,883,0,0
322,141,0,0,0,0,0,0,0,0,0,-1,1546,883,0,0
329,141,0,0,0,0,0,0,0,0,0,-1,1553,883,0,0
336,141,0,0,0,0,0,0,0,0,0,-1,1560,883,0,0
343,141,0,0,0,0,0,0,0,0,0,-1,1567,883,0,0
350,141,0,0,0,0,0,0,0,0,0,-1,1574,883,0,0
357,141,0,0,0,0,0,0,0,0,0,-1,1581,883,0,0
364,141,0,0,0,0,0,0,0,0,0,-1,1588,883,0,0
371,141,0,0,0,0,0,0,0,0,0,-1,1595,883,0,0
378,141,0,0,0,0,0,0,0,0,0,-1,1602,883,0,0
385,141,0,0,0,0,0,0,0,0,0,-1,1609,883,0,0
392,141,0,0,0,0,0,0,0,0,0,-1,1616,883,0,0
399,141,0,0,0,0,0,0,0,0,0,-1,1623,883,0,0
406,141,0,0,0,0,0,0,0,0,0,-1,1630,883,0,0
413,141,0,0,0,0,0,0,0,0,0,-1,1637,883,0,0
420,141,0,0,0,0,0,0,0,0,0,-1,1644,883,0,0
427,141,0,0,0,0,0,0,0,0,0,-1,1651,883,0,0
434,141,0,0,0,0,0,0,0,0,0,-1,1658,883,0,0
441,141,0,0,0,0,0,0,0,0,0,-1,1665,883,0,0
448,141,0,0,0,0,0,0,0,0,0,-1,1672,883,0,0
455,141,0,0,0,0,0,0,0,0,0,-1,1679,883,0,0
462,141,0,0,0,0,0,0,0,0,0,-1,1686,883,0,0
469,141,0,0,0,0,0,0,0,0,0,-1,1693,883,0,0
476,141,0,0,0,0,0,0,0,0,0,-1,1700,883,0,0
483,141,0,0,0,0,0,0,0,0,0,-1,1707,883,0,0
490,141,0,0,0,0,0,0,0,0,0,-1,1714,883,0,0
497,141,0,0,0,0,0,0,0,0,0,-1,1721,883,0,0
504,141,0,0,0,0,0,0,0,0,0,-1,1728,883,0,0
511,141,0,0,0,0,0,0,0,0,0,-1,1735,883,0,0
518,141,0,0,0,0,0,0,0,0,0,-1,1742,883,0,0
525,141,0,0,0,0,0,0,0,0,0,-1,1749,883,0,0
532,141,0,0,0,0,0,0,0,0,0,-1,1756,883,0,0
539,141,0,0,0,0,0,0,0,0,0,-1,1763,883,0,0
546,141,0,0,0,0,0,0,0,0,0,-1,1770,883,0,0
553,141,0,0,0,0,0,0,0,0,0,-1,1777,883,0,0
560,141,0,0,0,0,0,0,0,0,0,-1,1784,883,0,0
567,141,0,0,0,0,0,0,0,0,0,-1,1791,883,0,0
574,141,0,0,0,0,0,0,0,0,0,-1,1798,883,0,0
581,141,0,0,0,0,0,0,0,0,0,-1,1805,883,0,0
588,141,0,0,0,0,0,0,0,0,0,-1,1812,883,0,0
595,141,0,0,0,0,0,0,0,0,0,-1,1819,883,0,0
602,141,0,0,0,0,0,0,0,0,0,-1,1826,883,0,0
609,141,0,0,0,0,0,0,0,0,0,-1,1833,883,0,0
616,141,0,0,0,0,0,0,0,0,0,-1,1840,883,0,0
623,141,43.512,2.82068,-0.000318136,0.000156195,-0.00414266,0.00406847,-0.00423041,-0.813992,0.00479167,0.046255,1847,883,43.5119,-2.82067
630,141,43.5981,2.76483,1.40427e-05,0.000586223,-0.00298538,0.00329919,-0.00269893,-0.833167,0.00346879,0.0442113,1854,883,43.5981,-2.76484
637,141,43.6833,2.74817,0.000279573,0.0008559,-0.00212231,0.00270952,-0.00157404,-0.852875,0.00250191,0.0434778,1861,883,43.6834,-2.74816
644,141,43.7388,2.63251,0.000359668,0.000791161,-0.00151076,0.0021015,-0.000950674,-0.856322,0.00180345,0.0410304,1868,883,43.7388,-2.63251
651,141,43.8215,2.73297,0.000403416,0.000498347,-0.00111114,0.00156303,-0.000661268,-0.806744,0.00131891,0.0393808,1875,883,43.8215,-2.73295
658,141,43.7927,2.89178,0.000622863,0.000116707,-0.000798944,0.00120785,-0.000468284,-0.632015,0.000998626,0.0367019,1882,883,43.7927,-2.89181
665,141,43.6105,2.98816,0.000791277,-0.000203239,-0.000689417,0.00114406,-0.000556017,-0.472968,0.00100092,0.0290504,1889,883,43.6104,-2.98814
672,141,43.6073,2.92316,0.000980572,-0.000447433,-0.000538936,0.00116114,-0.000627998,-0.323286,0.00104813,0.0240748,1896,883,43.6073,-2.92316
679,141,43.6344,2.8399,0.0010583,-0.000555371,-0.000456651,0.00117857,-0.000675635,-0.257513,0.00108357,0.0419069,1903,883,43.6344,-2.8399
686,141,43.6759,2.66028,0,0,0,0,0,0,0,-1,1910,883,43.6759,-2.66029
693,141,37.2695,2.40668,0,0,0,0,0,0,0,-1,1917,883,37.2696,-2.40668
700,141,37.6606,3.01123,0.00137307,-0.000771628,-0.00044014,0.00145988,-0.00085844,-0.194739,0.00135341,0.0273207,1924,883,37.6606,-3.01121
707,141,37.65,3.53558,0.00157512,-0.000691435,-0.000624953,0.00173601,-0.000852331,-0.25198,0.00152313,0.0245142,1931,883,37.65,-3.5356
714,141,37.4518,3.8587,0.00243562,-0.00037432,-0.00082809,0.0026615,-0.000600201,-0.266295,0.00200458,0.0237722,1938,883,37.4518,-3.85869
721,141,37.4429,4.2876,0.0041085,0.00053664,-0.00135591,0.0045649,8.02435e-05,-0.324687,0.00301687,0.0149222,1945,883,37.4429,-4.2876
728,141,37.4976,4.69379,0.00598059,0.00154226,-0.00191885,0.00669514,0.000827709,-0.356475,0.0042147,0.0158766,1952,883,37.4975,-4.69376
735,141,37.4912,5.18011,0.00924651,0.00297726,-0.00293887,0.0104087,0.00181504,-0.376589,0.00642024,0.0172361,1959,883,37.4912,-5.18013
742,141,37.4318,5.61212,0.0136898,0.00518543,-0.00381018,0.0151472,0.0037281,-0.365313,0.00911325,0.0177667,1966,883,37.4318,-5.61211
749,141,37.4069,6.01428,0.0191106,0.00763679,-0.00468205,0.0207787,0.00596872,-0.34225,0.0123532,0.0151257,1973,883,37.4068,-6.01429
756,141,37.3977,6.48627,0.0262617,0.0107738,-0.00560221,0.0280756,0.00895986,-0.313141,0.0165592,0.0215558,1980,883,37.3977,-6.48625
763,141,37.76,7.09576,0.0346508,0.0146121,-0.00595604,0.0362874,0.0129755,-0.268166,0.021232,0.0435663,1987,883,37.76,-7.09575
770,141,38.9717,7.02692,0.0433176,0.0191503,-0.00557682,0.0445424,0.0179255,-0.216196,0.0258792,0.0444888,1994,883,38.9717,-7.02693
777,141,40.0249,7.24579,0,0,0,0,0,0,0,-1,2001,883,40.0249,-7.24581
784,141,39.0511,8.7132,0,0,0,0,0,0,0,-1,2008,883,39.0511,-8.71321
791,141,35.4685,9.67169,0,0,0,0,0,0,0,-1,2015,883,35.4684,-9.67168
798,141,0,0,0,0,0,0,0,0,0,-1,2022,883,0,0
805,141,0,0,0,0,0,0,0,0,0,-1,2029,883,0,0
812,141,0,0,0,0,0,0,0,0,0,-1,2036,883,0,0
-700,134,0,0,0,0,0,0,0,0,0,-1,524,890,0,0
-693,134,0,0,0,0,0,0,0,0,0,-1,531,890,0,0
-686,134,0,0,0,0,0,0,0,0,0,-1,538,890,0,0
-679,134,0,0,0,0,0,0,0,0,0,-1,545,890,0,0
-672,134,-26.9208,6.82007,0,0,0,0,0,0,0,-1,552,890,-26.9209,-6.82005
-665,134,-26.287,5.01642,0,0,0,0,0,0,0,-1,559,890,-26.287,-5.01639
-658,134,-25.8603,-1.52277,0,0,0,0,0,0,0,-1,566,890,-25.8603,1.52278
-651,134,-28.6534,1.96637,0,0,0,0,0,0,0,-1,573,890,-28.6534,-1.9664
-644,134,-29.0103,0.935974,0,0,0,0,0,0,0,-1,580,890,-29.0103,-0.936002
-637,134,-28.7275,0.339355,0,0,0,0,0,0,0,-1,587,890,-28.7275,-0.339377
-630,134,-27.2787,3.97803,0,0,0,0,0,0,0,-1,594,890,-27.2787,-3.97804
-623,134,-27.3956,3.65985,-0.00156474,0.00244437,6.84799e-05,0.00244554,-0.00156591,1.55372,0.0023345,0.0260581,601,890,-27.3956,-3.65988
-616,134,-27.5544,3.27637,-0.00210712,0.000311165,0.00186928,0.00132828,-0.00312424,1.07248,0.00263945,0.0126046,608,890,-27.5544,-3.27634
-609,134,-27.6309,2.89252,-0.00268483,-0.000454622,0.00262559,0.00128285,-0.0044223,0.986208,0.00345611,0.0115456,615,890,-27.6309,-2.89249
-602,134,-27.6155,2.4718,-0.00301676,-0.000518674,0.00250813,0.00103422,-0.00456966,1.01642,0.00344334,0.0119708,622,890,-27.6156,-2.47182
-595,134,-27.5532,2.10071,-0.00294825,-0.000569434,0.00188445,0.000469578,-0.00398726,1.06691,0.00282772,0.0187008,629,890,-27.5532,-2.10073
-588,134,-27.9406,1.76483,-0.00272399,-0.000766587,0.00130909,-0.000110794,-0.00337978,1.10639,0.00221718,0.0333907,636,890,-27.9406,-1.76485
-581,134,-27.8422,1.15393,-0.00270035,-0.000630841,0.000854084,-0.000323889,-0.0030073,1.22578,0.0019061,0.0494921,643,890,-27.8422,-1.15393
-574,134,-27.6842,0.516357,0,0,0,0,0,0,0,-1,650,890,-27.6842,-0.516345
-567,134,-27.4886,0.571228,0,0,0,0,0,0,0,-1,657,890,-27.4886,-0.571245
-560,134,-22.9123,0.106567,0,0,0,0,0,0,0,-1,664,890,-22.9123,-0.106594
-553,134,-32.1777,1.11908,0,0,0,0,0,0,0,-1,671,890,-32.1777,-1.11906
-546,134,-32.1951,1.07831,-0.00260144,0.000115258,-0.000703056,0.000286418,-0.0027726,-1.33199,0.0019509,0.0277603,678,890,-32.1951,-1.07834
-539,134,-32.2206,1.03906,-0.00254104,0.000572658,-0.000985224,0.000858211,-0.00282659,-1.28869,0.0022263,0.0178018,685,890,-32.2206,-1.03905
-532,134,-32.2711,1.0968,-0.00240132,0.00112496,-0.00110637,0.00144334,-0.0027197,-1.2906,0.0024409,0.0222653,692,890,-32.271,-1.09679
-525,134,-32.3116,1.12506,-0.00244558,0.00171118,-0.00109272,0.00198093,-0.00271533,-1.32878,0.00272241,0.0345603,699,890,-32.3116,-1.12506
-518,134,-32.3089,1.24994,-0.00235384,0.00233167,-0.000730605,0.00244295,-0.00246512,-1.41965,0.00283369,0.0410994,706,890,-32.3089,-1.24995
-511,134,-32.2837,1.32721,-0.00225079,0.00243476,-0.000172207,0.00244108,-0.00225711,-1.53411,0.0027132,0.0413568,713,890,-32.2837,-1.32722
-504,134,0,0,0,0,0,0,0,0,0,-1,720,890,0,0
-497,134,0,0,0,0,0,0,0,0,0,-1,727,890,0,0
-490,134,0,0,0,0,0,0,0,0,0,-1,734,890,0,0
-483,134,0,0,0,0,0,0,0,0,0,-1,741,890,0,0
-476,134,0,0,0,0,0,0,0,0,0,-1,748,890,0,0
-469,134,0,0,0,0,0,0,0,0,0,-1,755,890,0,0
-462,134,0,0,0,0,0,0,0,0,0,-1,762,890,0,0
-455,134,0,0,0,0,0,0,0,0,0,-1,769,890,0,0
-448,134,0,0,0,0,0,0,0,0,0,-1,776,890,0,0
-441,134,0,0,0,0,0,0,0,0,0,-1,783,890,0,0
-434,134,0,0,0,0,0,0,0,0,0,-1,790,890,0,0
-427,134,0,0,0,0,0,0,0,0,0,-1,797,890,0,0
-420,134,0,0,0,0,0,0,0,0,0,-1,804,890,0,0
-413,134,0,0,0,0,0,0,0,0,0,-1,811,890,0,0
-406,134,0,0,0,0,0,0,0,0,0,-1,818,890,0,0
-399,134,0,0,0,0,0,0,0,0,0,-1,825,890,0,0
-392,134,0,0,0,0,0,0,0,0,0,-1,832,890,0,0
-385,134,0,0,0,0,0,0,0,0,0,-1,839,890,0,0
-378,134,0,0,0,0,0,0,0,0,0,-1,846,890,0,0
-371,134,0,0,0,0,0,0,0,0,0,-1,853,890,0,0
-364,134,0,0,0,0,0,0,0,0,0,-1,860,890,0,0
-357,134,0,0,0,0,0,0,0,0,0,-1,867,890,0,0
-350,134,0,0,0,0,0,0,0,0,0,-1,874,890,0,0
-343,134,0,0,0,0,0,0,0,0,0,-1,881,890,0,0
-336,134,0,0,0,0,0,0,0,0,0,-1,888,890,0,0
-329,134,0,0,0,0,0,0,0,0,0,-1,895,890,0,0
-322,134,0,0,0,0,0,0,0,0,0,-1,902,890,0,0
-315,134,0,0,0,0,0,0,0,0,0,-1,909,890,0,0
-308,134,0,0,0,0,0,0,0,0,0,-1,916,890,0,0
-301,134,0,0,0,0,0,0,0,0,0,-1,923,890,0,0
-294,134,0,0,0,0,0,0,0,0,0,-1,930,890,0,0
-287,134,0,0,0,0,0,0,0,0,0,-1,937,890,0,0
-280,134,0,0,0,0,0,0,0,0,0,-1,944,890,0,0
-273,134,0,0,0,0,0,0,0,0,0,-1,951,890,0,0
-266,134,0,0,0,0,0,0,0,0,0,-1,958,890,0,0
-259,134,0,0,0,0,0,0,0,0,0,-1,965,890,0,0
-252,134,0,0,0,0,0,0,0,0,0,-1,972,890,0,0
-245,134,0,0,0,0,0,0,0,0,0,-1,979,890,0,0
-238,134,0,0,0,0,0,0,0,0,0,-1,986,890,0,0
-231,134,0,0,0,0,0,0,0,0,0,-1,993,890,0,0
-224,134,0,0,0,0,0,0,0,0,0,-1,1000,890,0,0
-217,134,0,0,0,0,0,0,0,0,0,-1,1007,890,0,0
-210,134,0,0,0,0,0,0,0,0,0,-1,1014,890,0,0
-203,134,0,0,0,0,0,0,0,0,0,-1,1021,890,0,0
-196,134,0,0,0,0,0,0,0,0,0,-1,1028,890,0,0
-189,134,0,0,0,0,0,0,0,0,0,-1,1035,890,0,0
-182,134,0,0,0,0,0,0,0,0,0,-1,1042,890,0,0
-175,134,0,0,0,0,0,0,0,0,0,-1,1049,890,0,0
-168,134,0,0,0,0,0,0,0,0,0,-1,1056,890,0,0
-161,134,0,0,0,0,0,0,0,0,0,-1,1063,890,0,0
-154,134,0,0,0,0,0,0,0,0,0,-1,1070,890,0,0
-147,134,0,0,0,0,0,0,0,0,0,-1,1077,890,0,0
-140,134,0,0,0,0,0,0,0,0,0,-1,1084,890,0,0
-133,134,0,0,0,0,0,0,0,0,0,-1,1091,890,0,0
-126,134,0,0,0,0,0,0,0,0,0,-1,1098,890,0,0
-119,134,0,0,0,0,0,0,0,0,0,-1,1105,890,0,0
-112,134,0,0,0,0,0,0,0,0,0,-1,1112,890,0,0
-105,134,0,0,0,0,0,0,0,0,0,-1,1119,890,0,0
-98,134,0,0,0,0,0,0,0,0,0,-1,1126,890,0,0
-91,134,0,0,0,0,0,0,0,0,0,-1,1133,890,0,0
-84,134,0,0,0,0,0,0,0,0,0,-1,1140,890,0,0
-77,134,0,0,0,0,0,0,0,0,0,-1,1147,890,0,0
-70,134,0,0,0,0,0,0,0,0,0,-1,1154,890,0,0
-63,134,0,0,0,0,0,0,0,0,0,-1,1161,890,0,0
-56,134,0,0,0,0,0,0,0,0,0,-1,1168,890,0,0
-49,134,0,0,0,0,0,0,0,0,0,-1,1175,890,0,0
-42,134,0,0,0,0,0,0,0,0,0,-1,1182,890,0,0
-35,134,0,0,0,0,0,0,0,0,0,-1,1189,890,0,0
-28,134,0,0,0,0,0,0,0,0,0,-1,1196,890,0,0
-21,134,0,0,0,0,0,0,0,0,0,-1,1203,890,0,0
-14,134,0,0,0,0,0,0,0,0,0,-1,1210,890,0,0
-7,134,0,0,0,0,0,0,0,0,0,-1,1217,890,0,0
0,134,0,0,0,0,0,0,0,0,0,-1,1224,890,0,0
7,134,0,0,0,0,0,0,0,0,0,-1,1231,890,0,0
14,134,0,0,0,0,0,0,0,0,0,-1,1238,890,0,0
21,134,0,0,0,0,0,0,0,0,0,-1,1245,890,0,0
28,134,0,0,0,0,0,0,0,0,0,-1,1252,890,0,0
35,134,0,0,0,0,0,0,0,0,0,-1,1259,890,0,0
42,134,0,0,0,0,0,0,0,0,0,-1,1266,890,0,0
49,134,0,0,0,0,0,0,0,0,0,-1,1273,890,0,0
56,134,0,0,0,0,0,0,0,0,0,-1,1280,890,0,0
63,134,0,0,0,0,0,0,0,0,0,-1,1287,890,0,0
70,134,0,0,0,0,0,0,0,0,0,-1,1294,890,0,0
77,134,0,0,0,0,0,0,0,0,0,-1,1301,890,0,0
84,134,0,0,0,0,0,0,0,0,0,-1,1308,890,0,0
91,134,0,0,0,0,0,0,0,0,0,-1,1315,890,0,0
98,134,0,0,0,0,0,0,0,0,0,-1,1322,890,0,0
105,134,0,0,0,0,0,0,0,0,0,-1,1329,890,0,0
112,134,0,0,0,0,0,0,0,0,0,-1,1336,890,0,0
119,134,0,0,0,0,0,0,0,0,0,-1,1343,890,0,0
126,134,0,0,0,0,0,0,0,0,0,-1,1350,890,0,0
133,134,0,0,0,0,0,0,0,0,0,-1,1357,890,0,0
140,134,0,0,0,0,0,0,0,0,0,-1,1364,890,0,0
147,134,0,0,0,0,0,0,0,0,0,-1,1371,890,0,0
154,134,0,0,0,0,0,0,0,0,0,-1,1378,890,0,0
161,134,0,0,0,0,0,0,0,0,0,-1,1385,890,0,0
168,134,0,0,0,0,0,0,0,0,0,-1,1392,890,0,0
175,134,0,0,0,0,0,0,0,0,0,-1,1399,890,0,0
182,134,0,0,0,0,0,0,0,0,0,-1,1406,890,0,0
189,134,0,0,0,0,0,0,0,0,0,-1,1413,890,0,0
196,134,0,0,0,0,0,0,0,0,0,-1,1420,890,0,0
203,134,0,0,0,0,0,0,0,0,0,-1,1427,890,0,0
210,134,0,0,0,0,0,0,0,0,0,-1,1434,890,0,0
217,134,0,0,0,0,0,0,0,0,0,-1,1441,890,0,0
224,134,0,0,0,0,0,0,0,0,0,-1,1448,890,0,0
231,134,0,0,0,0,0,0,0,0,0,-1,1455,890,0,0
238,134,0,0,0,0,0,0,0,0,0,-1,1462,890,0,0
245,134,0,0,0,0,0,0,0,0,0,-1,1469,890,0,0
252,134,0,0,0,0,0,0,0,0,0,-1,1476,890,0,0
259,134,0,0,0,0,0,0,0,0,0,-1,1483,890,0,0
266,134,0,0,0,0,0,0,0,0,0,-1,1490,890,0,0
273,134,0,0,0,0,0,0,0,0,0,-1,1497,890,0,0
280,134,0,0,0,0,0,0,0,0,0,-1,1504,890,0,0
287,134,0,0,0,0,0,0,0,0,0,-1,1511,890,0,0
294,134,0,0,0,0,0,0,0,0,0,-1,1518,890,0,0
301,134,0,0,0,0,0,0,0,0,0,-1,1525,890,0,0
308,134,0,0,0,0,0,0,0,0,0,-1,1532,890,0,0
315,134,0,0,0,0,0,0,0,0,0,-1,1539,890,0,0
322,134,0,0,0,0,0,0,0,0,0,-1,1546,890,0,0
329,134,0,0,0,0,0,0,0,0,0,-1,1553,890,0,0
336,134,0,0,0,0,0,0,0,0,0,-1,1560,890,0,0
343,134,0,0,0,0,0,0,0,0,0,-1,1567,890,0,0
350,134,0,0,0,0,0,0,0,0,0,-1,1574,890,0,0
357,134,0,0,0,0,0,0,0,0,0,-1,1581,890,0,0
364,134,0,0,0,0,0,0,0,0,0,-1,1588,890,0,0
371,134,0,0,0,0,0,0,0,0,0,-1,1595,890,0,0
378,134,0,0,0,0,0,0,0,0,0,-1,1602,890,0,0
385,134,0,0,0,0,0,0,0,0,0,-1,1609,890,0,0
392,134,0,0,0,0,0,0,0,0,0,-1,1616,890,0,0
399,134,0,0,0,0,0,0,0,0,0,-1,1623,890,0,0
406,134,0,0,0,0,0,0,0,0,0,-1,1630,890,0,0
413,134,0,0,0,0,0,0,0,0,0,-1,1637,890,0,0
420,134,0,0,0,0,0,0,0,0,0,-1,1644,890,0,0
427,134,0,0,0,0,0,0,0,0,0,-1,1651,890,0,0
434,134,0,0,0,0,0,0,0,0,0,-1,1658,890,0,0
441,134,0,0,0,0,0,0,0,0,0,-1,1665,890,0,0
448,134,0,0,0,0,0,0,0,0,0,-1,1672,890,0,0
455,134,0,0,0,0,0,0,0,0,0,-1,1679,890,0,0
462,134,0,0,0,0,0,0,0,0,0,-1,1686,890,0,0
469,134,0,0,0,0,0,0,0,0,0,-1,1693,890,0,0
476,134,0,0,0,0,0,0,0,0,0,-1,1700,890,0,0
483,134,0,0,0,0,0,0,0,0,0,-1,1707,890,0,0
490,134,0,0,0,0,0,0,0,0,0,-1,1714,890,0,0
497,134,0,0,0,0,0,0,0,0,0,-1,1721,890,0,0
504,134,0,0,0,0,0,0,0,0,0,-1,1728,890,0,0
511,134,0,0,0,0,0,0,0,0,0,-1,1735,890,0,0
518,134,0,0,0,0,0,0,0,0,0,-1,1742,890,0,0
525,134,0,0,0,0,0,0,0,0,0,-1,1749,890,0,0
532,134,0,0,0,0,0,0,0,0,0,-1,1756,890,0,0
539,134,0,0,0,0,0,0,0,0,0,-1,1763,890,0,0
546,134,0,0,0,0,0,0,0,0,0,-1,1770,890,0,0
553,134,0,0,0,0,0,0,0,0,0,-1,1777,890,0,0
560,134,0,0,0,0,0,0,0,0,0,-1,1784,890,0,0
567,134,0,0,0,0,0,0,0,0,0,-1,1791,890,0,0
574,134,0,0,0,0,0,0,0,0,0,-1,1798,890,0,0
581,134,0,0,0,0,0,0,0,0,0,-1,1805,890,0,0
588,134,0,0,0,0,0,0,0,0,0,-1,1812,890,0,0
595,134,0,0,0,0,0,0,0,0,0,-1,1819,890,0,0
602,134,0,0,0,0,0,0,0,0,0,-1,1826,890,0,0
609,134,0,0,0,0,0,0,0,0,0,-1,1833,890,0,0
616,134,0,0,0,0,0,0,0,0,0,-1,1840,890,0,0
623,134,43.4453,3.17322,-0.000693048,-0.000543149,-0.00502907,0.00441153,-0.00564773,-0.792849,0.00582232,0.0478173,1847,890,43.4453,-3.17323
630,134,43.5891,2.88824,-0.000371751,0.000335146,-0.00348424,0.00348382,-0.00352042,-0.835946,0.00404392,0.0440813,1854,890,43.5891,-2.88822
637,134,43.7006,2.66998,-8.42752e-05,0.000925202,-0.00244021,0.00291233,-0.0020714,-0.887381,0.00289098,0.0434816,1861,890,43.7005,-2.67
644,134,43.7126,2.70465,1.07156e-05,0.001098,-0.001693,0.00233251,-0.00122379,-0.940754,0.00208622,0.0409984,1868,890,43.7126,-2.70464
651,134,43.7407,2.8537,8.14082e-05,0.000953454,-0.00118013,0.00177554,-0.000740675,-0.962355,0.00149313,0.0420403,1875,890,43.7407,-2.85372
658,134,43.7108,2.9353,0.000348618,0.000638603,-0.000771026,0.00127815,-0.00029093,-0.878338,0.000963827,0.0385259,1882,890,43.7108,-2.93533
665,134,43.6237,2.89624,0.000621507,0.000310571,-0.000583572,0.00106996,-0.000137887,-0.655218,0.000763434,0.0325062,1889,890,43.6236,-2.89623
672,134,43.6565,2.89838,0.000904452,1.3409e-05,-0.00038425,0.00104727,-0.000129404,-0.355845,0.000745067,0.0242113,1896,890,43.6565,-2.89837
679,134,43.6566,2.83337,0.00106751,-0.000156947,-0.000282393,0.0011295,-0.000218937,-0.216087,0.000835593,0.0221351,1903,890,43.6566,-2.83337
686,134,43.6661,2.75189,0,0,0,0,0,0,0,-1,1910,890,43.6661,-2.7519
693,134,34.5778,2.48096,0,0,0,0,0,0,0,-1,1917,890,34.5777,-2.48099
700,134,37.8419,2.862,0,0,0,0,0,0,0,-1,1924,890,37.8419,-2.86201
707,134,37.6918,3.16992,0.00160193,-0.000358843,-0.000410347,0.00168434,-0.000441255,-0.1982,0.00129528,0.0220691,1931,890,37.6918,-3.16995
714,134,37.7395,3.69135,0.0023846,-0.000164659,-0.000563775,0.00250371,-0.000283773,-0.208218,0.00177132,0.0228022,1938,890,37.7395,-3.69136
721,134,37.9132,4.25085,0.00385057,0.000675256,-0.0010349,0.00415808,0.000367744,-0.288833,0.00265797,0.0190179,1945,890,37.9132,-4.25084
728,134,37.9661,4.70251,0.00534292,0.00163942,-0.00146825,0.00585438,0.00112797,-0.335198,0.00358655,0.0174482,1952,890,37.966,-4.70252
735,134,37.9449,5.1767,0.00808561,0.00308745,-0.00228658,0.00897384,0.00219922,-0.370512,0.00540086,0.0242511,1959,890,37.9449,-5.17671
742,134,37.8888,5.61383,0.0118988,0.00542798,-0.00281463,0.0129517,0.00437503,-0.357981,0.00760772,0.0164848,1966,890,37.8887,-5.61383
749,134,37.8845,6.00824,0.0165792,0.00803256,-0.00320951,0.0176503,0.00696152,-0.322088,0.0102659,0.0126995,1973,890,37.8845,-6.00823
756,134,37.8752,6.40918,0.0227802,0.0113013,-0.00351707,0.0237721,0.0103094,-0.274885,0.013765,0.0165257,1980,890,37.8753,-6.40916
763,134,37.9214,6.85468,0.029876,0.0151313,-0.00311764,0.0305081,0.0144992,-0.200039,0.017621,0.038019,1987,890,37.9214,-6.85465
770,134,39.6616,6.49884,0.0371167,0.0195292,-0.00180405,0.0372998,0.019346,-0.101172,0.0215401,0.0463738,1994,890,39.6616,-6.49881
777,134,41.8022,6.13672,0,0,0,0,0,0,0,-1,2001,890,41.8022,-6.13672
784,134,44.0518,6.09558,0,0,0,0,0,0,0,-1,2008,890,44.0517,-6.09556
791,134,42.2061,9.63593,0,0,0,0,0,0,0,-1,2015,890,42.2061,-9.63591
798,134,0,0,0,0,0,0,0,0,0,-1,2022,890,0,0
805,134,0,0,0,0,0,0,0,0,0,-1,2029,890,0,0
812,134,0,0,0,0,0,0,0,0,0,-1,2036,890,0,0
-700,127,0,0,0,0,0,0,0,0,0,-1,524,897,0,0
-693,127,0,0,0,0,0,0,0,0,0,-1,531,897,0,0
-686,127,0,0,0,0,0,0,0,0,0,-1,538,897,0,0
-679,127,-27.2749,8.41284,0,0,0,0,0,0,0,-1,545,897,-27.2749,-8.41285
-672,127,-26.7943,6.43158,0,0,0,0,0,0,0,-1,552,897,-26.7942,-6.43157
-665,127,-26.3136,4.45026,0,0,0,0,0,0,0,-1,559,897,-26.3136,-4.45028
-658,127,-26.9874,-2.1449,0,0,0,0,0,0,0,-1,566,897,-26.9874,2.14493
-651,127,-29.7953,1.5661,0,0,0,0,0,0,0,-1,573,897,-29.7953,-1.56608
-644,127,-29.3811,0.996094,0,0,0,0,0,0,0,-1,580,897,-29.3811,-0.996079
-637,127,-28.1338,3.3595,0,0,0,0,0,0,0,-1,587,897,-28.1338,-3.35949
-630,127,-27.9708,3.54688,-0.00367478,0.00472633,-0.00150586,0.00498809,-0.00393654,-1.39869,0.00516455,0.0456063,594,897,-27.9708,-3.54687
-623,127,-27.9402,3.58496,-0.00352856,0.00265406,0.000505597,0.00269514,-0.00356964,1.48974,0.0036287,0.016014,601,897,-27.9403,-3.58499
-616,127,-28.0034,3.25513,-0.00347465,0.000723505,0.00197,0.00150315,-0.00425429,1.19395,0.00344824,0.00993081,608,897,-28.0034,-3.2551
-609,127,-28.0456,2.87421,-0.00366521,3.22678e-06,0.00253857,0.00130089,-0.00496287,1.09825,0.00381684,0.0134491,615,897,-28.0456,-2.87422
-602,127,-28.0378,2.49091,-0.00389836,-0.000114856,0.00242755,0.001071,-0.00508422,1.11639,0.00379717,0.015604,622,897,-28.0378,-2.49091
-595,127,-27.9852,2.14911,-0.00387223,-0.000185389,0.00186582,0.000594067,-0.00465169,1.17508,0.00331693,0.0240868,629,897,-27.9852,-2.14911
-588,127,-28.1311,1.71118,-0.0036725,-0.000360135,0.00131494,9.83973e-05,-0.00413103,1.23527,0.0027874,0.0317678,636,897,-28.1311,-1.71119
-581,127,-28.0904,1.17603,0,0,0,0,0,0,0,-1,643,897,-28.0904,-1.17601
-574,127,-25.2603,0.511169,0,0,0,0,0,0,0,-1,650,897,-25.2603,-0.51117
-567,127,-24.5417,-0.0447388,0,0,0,0,0,0,0,-1,657,897,-24.5417,0.0447226
-560,127,-18.9678,1.21667,0,0,0,0,0,0,0,-1,664,897,-18.9677,-1.2167
-553,127,-32.1717,1.08392,0,0,0,0,0,0,0,-1,671,897,-32.1717,-1.08394
-546,127,-32.1949,1.07556,-0.00338655,0.000532378,-0.000654566,0.000638817,-0.00349299,-1.4096,0.00256822,0.0238603,678,897,-32.1949,-1.07556
-539,127,-32.2128,1.04724,-0.00313741,0.000935478,-0.000876914,0.00111626,-0.00331819,-1.36749,0.00266336,0.0216504,685,897,-32.2128,-1.04726
-532,127,-32.1844,1.06702,-0.00274743,0.00139656,-0.000922623,0.00159269,-0.00294356,-1.36133,0.00265743,0.0165286,692,897,-32.1844,-1.06701
-525,127,-32.2015,1.13196,-0.00231348,0.00185151,-0.000779774,0.00199271,-0.00245468,-1.39166,0.00257232,0.0307859,699,897,-32.2016,-1.13198
-518,127,-32.212,1.12787,-0.00184996,0.00225275,-0.000241695,0.00226694,-0.00186415,-1.51216,0.00238886,0.040817,706,897,-32.212,-1.12789
-511,127,-32.1276,1.15302,-0.00139058,0.0023025,0.000409306,0.00234732,-0.0014354,1.46173,0.00220501,0.0450209,713,897,-32.1277,-1.15301
-504,127,0,0,0,0,0,0,0,0,0,-1,720,897,0,0
-497,127,0,0,0,0,0,0,0,0,0,-1,727,897,0,0
-490,127,0,0,0,0,0,0,0,0,0,-1,734,897,0,0
-483,127,0,0,0,0,0,0,0,0,0,-1,741,897,0,0
-476,127,0,0,0,0,0,0,0,0,0,-1,748,897,0,0
-469,127,0,0,0,0,0,0,0,0,0,-1,755,897,0,0
-462,127,0,0,0,0,0,0,0,0,0,-1,762,897,0,0
-455,127,0,0,0,0,0,0,0,0,0,-1,769,897,0,0
-448,127,0,0,0,0,0,0,0,0,0,-1,776,897,0,0
-441,127,0,0,0,0,0,0,0,0,0,-1,783,897,0,0
-434,127,0,0,0,0,0,0,0,0,0,-1,790,897,0,0
-427,127,0,0,0,0,0,0,0,0,0,-1,797,897,0,0
-420,127,0,0,0,0,0,0,0,0,0,-1,804,897,0,0
-413,127,0,0,0,0,0,0,0,0,0,-1,811,897,0,0
-406,127,0,0,0,0,0,0,0,0,0,-1,818,897,0,0
-399,127,0,0,0,0,0,0,0,0,0,-1,825,897,0,0
-392,127,0,0,0,0,0,0,0,0,0,-1,832,897,0,0
-385,127,0,0,0,0,0,0,0,0,0,-1,839,897,0,0
-378,127,0,0,0,0,0,0,0,0,0,-1,846,897,0,0
-371,127,0,0,0,0,0,0,0,0,0,-1,853,897,0,0
-364,127,0,0,0,0,0,0,0,0,0,-1,860,897,0,0
-357,127,0,0,0,0,0,0,0,0,0,-1,867,897,0,0
-350,127,0,0,0,0,0,0,0,0,0,-1,874,897,0,0
-343,127,0,0,0,0,0,0,0,0,0,-1,881,897,0,0
-336,127,0,0,0,0,0,0,0,0,0,-1,888,897,0,0
-329,127,0,0,0,0,0,0,0,0,0,-1,895,897,0,0
-322,127,0,0,0,0,0,0,0,0,0,-1,902,897,0,0
-315,127,0,0,0,0,0,0,0,0,0,-1,909,897,0,0
-308,127,0,0,0,0,0,0,0,0,0,-1,916,897,0,0
-301,127,0,0,0,0,0,0,0,0,0,-1,923,897,0,0
-294,127,0,0,0,0,0,0,0,0,0,-1,930,897,0,0
-287,127,0,0,0,0,0,0,0,0,0,-1,937,897,0,0
-280,127,0,0,0,0,0,0,0,0,0,-1,944,897,0,0
-273,127,0,0,0,0,0,0,0,0,0,-1,951,897,0,0
-266,127,0,0,0,0,0,0,0,0,0,-1,958,897,0,0
-259,127,0,0,0,0,0,0,0,0,0,-1,965,897,0,0
-252,127,0,0,0,0,0,0,0,0,0,-1,972,897,0,0
-245,127,0,0,0,0,0,0,0,0,0,-1,979,897,0,0
-238,127,0,0,0,0,0,0,0,0,0,-1,986,897,0,0
-231,127,0,0,0,0,0,0,0,0,0,-1,993,897,0,0
-224,127,0,0,0,0,0,0,0,0,0,-1,1000,897,0,0
-217,127,0,0,0,0,0,0,0,0,0,-1,1007,897,0,0
-210,127,0,0,0,0,0,0,0,0,0,-1,1014,897,0,0
-203,127,0,0,0,0,0,0,0,0,0,-1,1021,897,0,0
-196,127,0,0,0,0,0,0,0,0,0,-1,1028,897,0,0
-189,127,0,0,0,0,0,0,0,0,0,-1,1035,897,0,0
-182,127,0,0,0,0,0,0,0,0,0,-1,1042,897,0,0
-175,127,0,0,0,0,0,0,0,0,0,-1,1049,897,0,0
-168,127,0,0,0,0,0,0,0,0,0,-1,1056,897,0,0
-161,127,0,0,0,0,0,0,0,0,0,-1,1063,897,0,0
-154,127,0,0,0,0,0,0,0,0,0,-1,1070,897,0,0
-147,127,0,0,0,0,0,0,0,0,0,-1,1077,897,0,0
-140,127,0,0,0,0,0,0,0,0,0,-1,1084,897,0,0
-133,127,0,0,0,0,0,0,0,0,0,-1,1091,897,0,0
-126,127,0,0,0,0,0,0,0,0,0,-1,1098,897,0,0
-119,127,0,0,0,0,0,0,0,0,0,-1,1105,897,0,0
-112,127,0,0,0,0,0,0,0,0,0,-1,1112,897,0,0
-105,127,0,0,0,0,0,0,0,0,0,-1,1119,897,0,0
-98,127,0,0,0,0,0,0,0,0,0,-1,1126,897,0,0
-91,127,0,0,0,0,0,0,0,0,0,-1,1133,897,0,0
-84,127,0,0,0,0,0,0,0,0,0,-1,1140,897,0,0
-77,127,0,0,0,0,0,0,0,0,0,-1,1147,897,0,0
-70,127,0,0,0,0,0,0,0,0,0,-1,1154,897,0,0
-63,127,0,0,0,0,0,0,0,0,0,-1,1161,897,0,0
-56,127,0,0,0,0,0,0,0,0,0,-1,1168,897,0,0
-49,127,0,0,0,0,0,0,0,0,0,-1,1175,897,0,0
-42,127,0,0,0,0,0,0,0,0,0,-1,1182,897,0,0
-35,127,0,0,0,0,0,0,0,0,0,-1,1189,897,0,0
-28,127,0,0,0,0,0,0,0,0,0,-1,1196,897,0,0
-21,127,0,0,0,0,0,0,0,0,0,-1,1203,897,0,0
-14,127,0,0,0,0,0,0,0,0,0,-1,1210,897,0,0
-7,127,0,0,0,0,0,0,0,0,0,-1,1217,897,0,0
0,127,0,0,0,0,0,0,0,0,0,-1,1224,897,0,0
7,127,0,0,0,0,0,0,0,0,0,-1,1231,897,0,0
14,127,0,0,0,0,0,0,0,0,0,-1,1238,897,0,0
21,127,0,0,0,0,0,0,0,0,0,-1,1245,897,0,0
28,127,0,0,0,0,0,0,0,0,0,-1,1252,897,0,0
35,127,0,0,0,0,0,0,0,0,0,-1,1259,897,0,0
42,127,0,0,0,0,0,0,0,0,0,-1,1266,897,0,0
49,127,0,0,0,0,0,0,0,0,0,-1,1273,897,0,0
56,127,0,0,0,0,0,0,0,0,0,-1,1280,897,0,0
63,127,0,0,0,0,0,0,0,0,0,-1,1287,897,0,0
70,127,0,0,0,0,0,0,0,0,0,-1,1294,897,0,0
77,127,0,0,0,0,0,0,0,0,0,-1,1301,897,0,0
84,127,0,0,0,0,0,0,0,0,0,-1,1308,897,0,0
91,127,0,0,0,0,0,0,0,0,0,-1,1315,897,0,0
98,127,0,0,0,0,0,0,0,0,0,-1,1322,897,0,0
105,127,0,0,0,0,0,0,0,0,0,-1,1329,897,0,0
112,127,0,0,0,0,0,0,0,0,0,-1,1336,897,0,0
119,127,0,0,0,0,0,0,0,0,0,-1,1343,897,0,0
126,127,0,0,0,0,0,0,0,0,0,-1,1350,897,0,0
133,127,0,0,0,0,0,0,0,0,0,-1,1357,897,0,0
140,127,0,0,0,0,0,0,0,0,0,-1,1364,897,0,0
147,127,0,0,0,0,0,0,0,0,0,-1,1371,897,0,0
154,127,0,0,0,0,0,0,0,0,0,-1,1378,897,0,0
161,127,0,0,0,0,0,0,0,0,0,-1,1385,897,0,0
168,127,0,0,0,0,0,0,0,0,0,-1,1392,897,0,0
175,127,0,0,0,0,0,0,0,0,0,-1,1399,897,0,0
182,127,0,0,0,0,0,0,0,0,0,-1,1406,897,0,0
189,127,0,0,0,0,0,0,0,0,0,-1,1413,897,0,0
196,127,0,0,0,0,0,0,0,0,0,-1,1420,897,0,0
203,127,0,0,0,0,0,0,0,0,0,-1,1427,897,0,0
210,127,0,0,0,0,0,0,0,0,0,-1,1434,897,0,0
217,127,0,0,0,0,0,0,0,0,0,-1,1441,897,0,0
224,127,0,0,0,0,0,0,0,0,0,-1,1448,897,0,0
231,127,0,0,0,0,0,0,0,0,0,-1,1455,897,0,0
238,127,0,0,0,0,0,0,0,0,0,-1,1462,897,0,0
245,127,0,0,0,0,0,0,0,0,0,-1,1469,897,0,0
252,127,0,0,0,0,0,0,0,0,0,-1,1476,897,0,0
259,127,0,0,0,0,0,0,0,0,0,-1,1483,897,0,0
266,127,0,0,0,0,0,0,0,0,0,-1,1490,897,0,0
273,127,0,0,0,0,0,0,0,0,0,-1,1497,897,0,0
280,127,0,0,0,0,0,0,0,0,0,-1,1504,897,0,0
287,127,0,0,0,0,0,0,0,0,0,-1,1511,897,0,0
294,127,0,0,0,0,0,0,0,0,0,-1,1518,897,0,0
301,127,0,0,0,0,0,0,0,0,0,-1,1525,897,0,0
308,127,0,0,0,0,0,0,0,0,0,-1,1532,897,0,0
315,127,0,0,0,0,0,0,0,0,0,-1,1539,897,0,0
322,127,0,0,0,0,0,0,0,0,0,-1,1546,897,0,0
329,127,0,0,0,0,0,0,0,0,0,-1,1553,897,0,0
336,127,0,0,0,0,0,0,0,0,0,-1,1560,897,0,0
343,127,0,0,0,0,0,0,0,0,0,-1,1567,897,0,0
350,127,0,0,0,0,0,0,0,0,0,-1,1574,897,0,0
357,127,0,0,0,0,0,0,0,0,0,-1,1581,897,0,0
364,127,0,0,0,0,0,0,0,0,0,-1,1588,897,0,0
371,127,0,0,0,0,0,0,0,0,0,-1,1595,897,0,0
378,127,0,0,0,0,0,0,0,0,0,-1,1602,897,0,0
385,127,0,0,0,0,0,0,0,0,0,-1,1609,897,0,0
392,127,0,0,0,0,0,0,0,0,0,-1,1616,897,0,0
399,127,0,0,0,0,0,0,0,0,0,-1,1623,897,0,0
406,127,0,0,0,0,0,0,0,0,0,-1,1630,897,0,0
413,127,0,0,0,0,0,0,0,0,0,-1,1637,897,0,0
420,127,0,0,0,0,0,0,0,0,0,-1,1644,897,0,0
427,127,0,0,0,0,0,0,0,0,0,-1,1651,897,0,0
434,127,0,0,0,0,0,0,0,0,0,-1,1658,897,0,0
441,127,0,0,0,0,0,0,0,0,0,-1,1665,897,0,0
448,127,0,0,0,0,0,0,0,0,0,-1,1672,897,0,0
455,127,0,0,0,0,0,0,0,0,0,-1,1679,897,0,0
462,127,0,0,0,0,0,0,0,0,0,-1,1686,897,0,0
469,127,0,0,0,0,0,0,0,0,0,-1,1693,897,0,0
476,127,0,0,0,0,0,0,0,0,0,-1,1700,897,0,0
483,127,0,0,0,0,0,0,0,0,0,-1,1707,897,0,0
490,127,0,0,0,0,0,0,0,0,0,-1,1714,897,0,0
497,127,0,0,0,0,0,0,0,0,0,-1,1721,897,0,0
504,127,0,0,0,0,0,0,0,0,0,-1,1728,897,0,0
511,127,0,0,0,0,0,0,0,0,0,-1,1735,897,0,0
518,127,0,0,0,0,0,0,0,0,0,-1,1742,897,0,0
525,127,0,0,0,0,0,0,0,0,0,-1,1749,897,0,0
532,127,0,0,0,0,0,0,0,0,0,-1,1756,897,0,0
539,127,0,0,0,0,0,0,0,0,0,-1,1763,897,0,0
546,127,0,0,0,0,0,0,0,0,0,-1,1770,897,0,0
553,127,0,0,0,0,0,0,0,0,0,-1,1777,897,0,0
560,127,0,0,0,0,0,0,0,0,0,-1,1784,897,0,0
567,127,0,0,0,0,0,0,0,0,0,-1,1791,897,0,0
574,127,0,0,0,0,0,0,0,0,0,-1,1798,897,0,0
581,127,0,0,0,0,0,0,0,0,0,-1,1805,897,0,0
588,127,0,0,0,0,0,0,0,0,0,-1,1812,897,0,0
595,127,0,0,0,0,0,0,0,0,0,-1,1819,897,0,0
602,127,0,0,0,0,0,0,0,0,0,-1,1826,897,0,0
609,127,0,0,0,0,0,0,0,0,0,-1,1833,897,0,0
616,127,0,0,0,0,0,0,0,0,0,-1,1840,897,0,0
623,127,0,0,0,0,0,0,0,0,0,-1,1847,897,0,0
630,127,43.5944,3.05127,-0.000646199,0.000877571,-0.00427624,0.00445927,-0.0042279,-0.873557,0.00501613,0.0419779,1854,897,43.5943,-3.05129
637,127,43.7372,2.7854,-0.000358147,0.00153759,-0.00299163,0.00372793,-0.00254848,-0.938815,0.00364495,0.0400732,1861,897,43.7372,-2.78541
644,127,43.6932,2.77417,-0.000280393,0.00177032,-0.00203595,0.00302453,-0.0015346,-1.01867,0.00267866,0.0375806,1868,897,43.6933,-2.77418
651,127,43.6724,2.90356,-0.000205281,0.00168154,-0.00135134,0.0023862,-0.000909943,-1.09013,0.00196562,0.042374,1875,897,43.6724,-2.90358
658,127,43.5698,2.98907,8.56711e-05,0.00140732,-0.000817263,0.0017975,-0.000304508,-1.12537,0.00131167,0.0411408,1882,897,43.5699,-2.98906
665,127,43.5842,2.88196,0.00042831,0.00108027,-0.000524319,0.00137168,0.000136897,-1.06352,0.000872409,0.036734,1889,897,43.5842,-2.88194
672,127,43.6459,2.82306,0.000789464,0.000732078,-0.000269597,0.00103189,0.000489652,-0.732383,0.00059602,0.0321361,1896,897,43.6459,-2.82309
679,127,43.6945,2.8385,0.00103531,0.00048923,-0.000136886,0.0010677,0.000456838,-0.232359,0.000618573,0.0256648,1903,897,43.6944,-2.83849
686,127,43.6754,2.77301,0.00114533,0.000224606,1.56198e-05,0.00114559,0.000224341,0.0169582,0.000701019,0.0428053,1910,897,43.6754,-2.77302
693,127,43.6493,2.62543,0,0,0,0,0,0,0,-1,1917,897,43.6493,-2.62546
700,127,38.2269,2.7713,0,0,0,0,0,0,0,-1,1924,897,38.2269,-2.77131
707,127,38.0946,3.19769,0.00161693,4.29644e-05,-0.000293536,0.0016699,-9.99606e-06,-0.178503,0.00111661,0.0261332,1931,897,38.0946,-3.19771
714,127,38.2919,3.71973,0.00232318,9.44494e-05,-0.000458876,0.00241397,3.6686e-06,-0.195311,0.00160809,0.0227395,1938,897,38.2918,-3.71971
721,127,38.4653,4.33478,0.0036033,0.000815866,-0.000933283,0.00388692,0.000532244,-0.295028,0.00243334,0.0172925,1945,897,38.4653,-4.33476
728,127,38.4172,4.72638,0.00479022,0.00165398,-0.00134615,0.00528877,0.00115544,-0.354689,0.00321076,0.0154316,1952,897,38.4172,-4.72637
735,127,38.3885,5.16638,0.00705318,0.00296704,-0.00211109,0.00794794,0.00207228,-0.400884,0.00476066,0.0205669,1959,897,38.3886,-5.16641
742,127,38.3563,5.59558,0.0102476,0.00524788,-0.00253894,0.0113108,0.00418466,-0.396576,0.00660352,0.0184494,1966,897,38.3563,-5.59559
749,127,38.337,5.99548,0.0142749,0.00782384,-0.00296989,0.0154339,0.00666482,-0.372079,0.00893835,0.0126155,1973,897,38.337,-5.99547
756,127,38.3171,6.38574,0.0196954,0.010967,-0.00352281,0.0209398,0.00972262,-0.339561,0.0120999,0.014823,1980,897,38.3171,-6.38573
763,127,38.2983,6.78223,0.0257329,0.01453,-0.00340873,0.0266885,0.0135743,-0.27334,0.0154094,0.0248383,1987,897,38.2983,-6.78222
770,127,40.1613,6.07037,0,0,0,0,0,0,0,-1,1994,897,40.1613,-6.07037
777,127,42.703,5.33789,0,0,0,0,0,0,0,-1,2001,897,42.7031,-5.33791
784,127,42.6145,8.47131,0,0,0,0,0,0,0,-1,2008,897,42.6146,-8.47131
791,127,42.238,8.97205,0,0,0,0,0,0,0,-1,2015,897,42.2381,-8.97204
798,127,0,0,0,0,0,0,0,0,0,-1,2022,897,0,0
805,127,0,0,0,0,0,0,0,0,0,-1,2029,897,0,0
812,127,0,0,0,0,0,0,0,0,0,-1,2036,897,0,0
-700,120,0,0,0,0,0,0,0,0,0,-1,524,904,0,0
-693,120,0,0,0,0,0,0,0,0,0,-1,531,904,0,0
-686,120,0,0,0,0,0,0,0,0,0,-1,538,904,0,0
-679,120,-26.2574,4.354,0,0,0,0,0,0,0,-1,545,904,-26.2574,-4.354
-672,120,-26.6291,5.80707,0,0,0,0,0,0,0,-1,552,904,-26.6291,-5.80706
-665,120,-26.259,0.59436,0,0,0,0,0,0,0,-1,559,904,-26.259,-0.594353
-658,120,-27.0522,-1.33539,0,0,0,0,0,0,0,-1,566,904,-27.0522,1.33536
-651,120,-27.5437,-3.47595,0,0,0,0,0,0,0,-1,573,904,-27.5437,3.47595
-644,120,-28.798,4.32886,0,0,0,0,0,0,0,-1,580,904,-28.7979,-4.32885
-637,120,-28.5291,4.25012,-0.00925731,0.00932922,-0.00126422,0.00941481,-0.0093429,-1.50319,0.0108298,0.0476091,587,904,-28.5291,-4.25014
-630,120,-28.3231,3.9646,-0.00770102,0.00578112,0.000628076,0.00581031,-0.00773022,1.52434,0.00784378,0.0276827,594,904,-28.3231,-3.96458
-623,120,-28.4064,3.5752,-0.006255,0.00351416,0.00169393,0.00379955,-0.00654039,1.40389,0.00603927,0.0115408,601,904,-28.4064,-3.5752
-616,120,-28.429,3.21851,-0.0053756,0.00151874,0.00246823,0.00231127,-0.00616814,1.2601,0.00506158,0.0104374,608,904,-28.429,-3.2185
-609,120,-28.4449,2.85999,-0.00499539,0.000590095,0.00259122,0.00160705,-0.00601235,1.1968,0.00463768,0.0138825,615,904,-28.4449,-2.86001
-602,120,-28.4593,2.50879,-0.00501345,0.000264154,0.00234919,0.00115833,-0.00590763,1.2071,0.00437594,0.0161095,622,904,-28.4593,-2.50881
-595,120,-28.4053,2.18127,-0.00496944,0.000108489,0.00181526,0.000690665,-0.00555162,1.26045,0.00395147,0.0266381,629,904,-28.4053,-2.18127
-588,120,-28.436,1.73486,-0.00475086,-6.04423e-05,0.00128831,0.000270121,-0.00508142,1.31963,0.00348115,0.0364422,636,904,-28.436,-1.73484
-581,120,-28.5968,1.59058,0,0,0,0,0,0,0,-1,643,904,-28.5968,-1.59059
-574,120,-27.5438,0.505066,0,0,0,0,0,0,0,-1,650,904,-27.5438,-0.505085
-567,120,-25.2822,-0.410645,0,0,0,0,0,0,0,-1,657,904,-25.2821,0.410629
-560,120,-27.3358,1.10327,0,0,0,0,0,0,0,-1,664,904,-27.3358,-1.10324
-553,120,-32.1519,1.33441,0,0,0,0,0,0,0,-1,671,904,-32.1519,-1.33444
-546,120,-32.1814,1.25476,-0.00418561,0.000824753,-0.000532167,0.000880652,-0.00424151,-1.46614,0.00316236,0.0330766,678,904,-32.1814,-1.25475
-539,120,-32.2031,1.06036,-0.00366988,0.00117806,-0.000682813,0.0012724,-0.00376421,-1.43351,0.00302419,0.0261386,685,904,-32.2031,-1.06034
-532,120,-32.1693,1.02789,-0.00289585,0.00153999,-0.000645369,0.00163198,-0.00298784,-1.42922,0.00270527,0.0266871,692,904,-32.1693,-1.02786
-525,120,-32.255,1.06372,-0.00184666,0.00186407,-0.000397258,0.00190612,-0.00188871,-1.46533,0.00219096,0.0351407,699,904,-32.255,-1.06369
-518,120,-32.5682,1.38977,-0.00112131,0.00203662,0.000264162,0.00205856,-0.00114325,1.48791,0.00187358,0.0397456,706,904,-32.5682,-1.38976
-511,120,-31.9253,1.00305,0,0,0,0,0,0,0,-1,713,904,-31.9253,-1.00303
-504,120,0,0,0,0,0,0,0,0,0,-1,720,904,0,0
-497,120,0,0,0,0,0,0,0,0,0,-1,727,904,0,0
-490,120,0,0,0,0,0,0,0,0,0,-1,734,904,0,0
-483,120,0,0,0,0,0,0,0,0,0,-1,741,904,0,0
-476,120,0,0,0,0,0,0,0,0,0,-1,748,904,0,0
-469,120,0,0,0,0,0,0,0,0,0,-1,755,904,0,0
-462,120,0,0,0,0,0,0,0,0,0,-1,762,904,0,0
-455,120,0,0,0,0,0,0,0,0,0,-1,769,904,0,0
-448,120,0,0,0,0,0,0,0,0,0,-1,776,904,0,0
-441,120,0,0,0,0,0,0,0,0,0,-1,783,904,0,0
-434,120,0,0,0,0,0,0,0,0,0,-1,790,904,0,0
-427,120,0,0,0,0,0,0,0,0,0,-1,797,904,0,0
-420,120,0,0,0,0,0,0,0,0,0,-1,804,904,0,0
-413,120,0,0,0,0,0,0,0,0,0,-1,811,904,0,0
-406,120,0,0,0,0,0,0,0,0,0,-1,818,904,0,0
-399,120,0,0,0,0,0,0,0,0,0,-1,825,904,0,0
-392,120,0,0,0,0,0,0,0,0,0,-1,832,904,0,0
-385,120,0,0,0,0,0,0,0,0,0,-1,839,904,0,0
-378,120,0,0,0,0,0,0,0,0,0,-1,846,904,0,0
-371,120,0,0,0,0,0,0,0,0,0,-1,853,904,0,0
-364,120,0,0,0,0,0,0,0,0,0,-1,860,904,0,0
-357,120,0,0,0,0,0,0,0,0,0,-1,867,904,0,0
-350,120,0,0,0,0,0,0,0,0,0,-1,874,904,0,0
-343,120,0,0,0,0,0,0,0,0,0,-1,881,904,0,0
-336,120,0,0,0,0,0,0,0,0,0,-1,888,904,0,0
-329,120,0,0,0,0,0,0,0,0,0,-1,895,904,0,0
-322,120,0,0,0,0,0,0,0,0,0,-1,902,904,0,0
-315,120,0,0,0,0,0,0,0,0,0,-1,909,904,0,0
-308,120,0,0,0,0,0,0,0,0,0,-1,916,904,0,0
-301,120,0,0,0,0,0,0,0,0,0,-1,923,904,0,0
-294,120,0,0,0,0,0,0,0,0,0,-1,930,904,0,0
-287,120,0,0,0,0,0,0,0,0,0,-1,937,904,0,0
-280,120,0,0,0,0,0,0,0,0,0,-1,944,904,0,0
-273,120,0,0,0,0,0,0,0,0,0,-1,951,904,0,0
-266,120,0,0,0,0,0,0,0,0,0,-1,958,904,0,0
-259,120,0,0,0,0,0,0,0,0,0,-1,965,904,0,0
-252,120,0,0,0,0,0,0,0,0,0,-1,972,904,0,0
-245,120,0,0,0,0,0,0,0,0,0,-1,979,904,0,0
-238,120,0,0,0,0,0,0,0,0,0,-1,986,904,0,0
-231,120,0,0,0,0,0,0,0,0,0,-1,993,904,0,0
-224,120,0,0,0,0,0,0,0,0,0,-1,1000,904,0,0
-217,120,0,0,0,0,0,0,0,0,0,-1,1007,904,0,0
-210,120,0,0,0,0,0,0,0,0,0,-1,1014,904,0,0
-203,120,0,0,0,0,0,0,0,0,0,-1,1021,904,0,0
-196,120,0,0,0,0,0,0,0,0,0,-1,1028,904,0,0
-189,120,0,0,0,0,0,0,0,0,0,-1,1035,904,0,0
-182,120,0,0,0,0,0,0,0,0,0,-1,1042,904,0,0
-175,120,0,0,0,0,0,0,0,0,0,-1,1049,904,0,0
-168,120,0,0,0,0,0,0,0,0,0,-1,1056,904,0,0
-161,120,0,0,0,0,0,0,0,0,0,-1,1063,904,0,0
-154,120,0,0,0,0,0,0,0,0,0,-1,1070,904,0,0
-147,120,0,0,0,0,0,0,0,0,0,-1,1077,904,0,0
-140,120,0,0,0,0,0,0,0,0,0,-1,1084,904,0,0
-133,120,0,0,0,0,0,0,0,0,0,-1,1091,904,0,0
-126,120,0,0,0,0,0,0,0,0,0,-1,1098,904,0,0
-119,120,0,0,0,0,0,0,0,0,0,-1,1105,904,0,0
-112,120,0,0,0,0,0,0,0,0,0,-1,1112,904,0,0
-105,120,0,0,0,0,0,0,0,0,0,-1,1119,904,0,0
-98,120,0,0,0,0,0,0,0,0,0,-1,1126,904,0,0
-91,120,0,0,0,0,0,0,0,0,0,-1,1133,904,0,0
-84,120,0,0,0,0,0,0,0,0,0,-1,1140,904,0,0
-77,120,0,0,0,0,0,0,0,0,0,-1,1147,904,0,0
-70,120,0,0,0,0,0,0,0,0,0,-1,1154,904,0,0
-63,120,0,0,0,0,0,0,0,0,0,-1,1161,904,0,0
-56,120,0,0,0,0,0,0,0,0,0,-1,1168,904,0,0
-49,120,0,0,0,0,0,0,0,0,0,-1,1175,904,0,0
-42,120,0,0,0,0,0,0,0,0,0,-1,1182,904,0,0
-35,120,0,0,0,0,0,0,0,0,0,-1,1189,904,0,0
-28,120,0,0,0,0,0,0,0,0,0,-1,1196,904,0,0
-21,120,0,0,0,0,0,0,0,0,0,-1,1203,904,0,0
-14,120,0,0,0,0,0,0,0,0,0,-1,1210,904,0,0
-7,120,0,0,0,0,0,0,0,0,0,-1,1217,904,0,0
0,120,0,0,0,0,0,0,0,0,0,-1,1224,904,0,0
7,120,0,0,0,0,0,0,0,0,0,-1,1231,904,0,0
14,120,0,0,0,0,0,0,0,0,0,-1,1238,904,0,0
21,120,0,0,0,0,0,0,0,0,0,-1,1245,904,0,0
28,120,0,0,0,0,0,0,0,0,0,-1,1252,904,0,0
35,120,0,0,0,0,0,0,0,0,0,-1,1259,904,0,0
42,120,0,0,0,0,0,0,0,0,0,-1,1266,904,0,0
49,120,0,0,0,0,0,0,0,0,0,-1,1273,904,0,0
56,120,0,0,0,0,0,0,0,0,0,-1,1280,904,0,0
63,120,0,0,0,0,0,0,0,0,0,-1,1287,904,0,0
70,120,0,0,0,0,0,0,0,0,0,-1,1294,904,0,0
77,120,0,0,0,0,0,0,0,0,0,-1,1301,904,0,0
84,120,0,0,0,0,0,0,0,0,0,-1,1308,904,0,0
91,120,0,0,0,0,0,0,0,0,0,-1,1315,904,0,0
98,120,0,0,0,0,0,0,0,0,0,-1,1322,904,0,0
105,120,0,0,0,0,0,0,0,0,0,-1,1329,904,0,0
112,120,0,0,0,0,0,0,0,0,0,-1,1336,904,0,0
119,120,0,0,0,0,0,0,0,0,0,-1,1343,904,0,0
126,120,0,0,0,0,0,0,0,0,0,-1,1350,904,0,0
133,120,0,0,0,0,0,0,0,0,0,-1,1357,904,0,0
140,120,0,0,0,0,0,0,0,0,0,-1,1364,904,0,0
147,120,0,0,0,0,0,0,0,0,0,-1,1371,904,0,0
154,120,0,0,0,0,0,0,0,0,0,-1,1378,904,0,0
161,120,0,0,0,0,0,0,0,0,0,-1,1385,904,0,0
168,120,0,0,0,0,0,0,0,0,0,-1,1392,904,0,0
175,120,0,0,0,0,0,0,0,0,0,-1,1399,904,0,0
182,120,0,0,0,0,0,0,0,0,0,-1,1406,904,0,0
189,120,0,0,0,0,0,0,0,0,0,-1,1413,904,0,0
196,120,0,0,0,0,0,0,0,0,0,-1,1420,904,0,0
203,120,0,0,0,0,0,0,0,0,0,-1,1427,904,0,0
210,120,0,0,0,0,0,0,0,0,0,-1,1434,904,0,0
217,120,0,0,0,0,0,0,0,0,0,-1,1441,904,0,0
224,120,0,0,0,0,0,0,0,0,0,-1,1448,904,0,0
231,120,0,0,0,0,0,0,0,0,0,-1,1455,904,0,0
238,120,0,0,0,0,0,0,0,0,0,-1,1462,904,0,0
245,120,0,0,0,0,0,0,0,0,0,-1,1469,904,0,0
252,120,0,0,0,0,0,0,0,0,0,-1,1476,904,0,0
259,120,0,0,0,0,0,0,0,0,0,-1,1483,904,0,0
266,120,0,0,0,0,0,0,0,0,0,-1,1490,904,0,0
273,120,0,0,0,0,0,0,0,0,0,-1,1497,904,0,0
280,120,0,0,0,0,0,0,0,0,0,-1,1504,904,0,0
287,120,0,0,0,0,0,0,0,0,0,-1,1511,904,0,0
294,120,0,0,0,0,0,0,0,0,0,-1,1518,904,0,0
301,120,0,0,0,0,0,0,0,0,0,-1,1525,904,0,0
308,120,0,0,0,0,0,0,0,0,0,-1,1532,904,0,0
315,120,0,0,0,0,0,0,0,0,0,-1,1539,904,0,0
322,120,0,0,0,0,0,0,0,0,0,-1,1546,904,0,0
329,120,0,0,0,0,0,0,0,0,0,-1,1553,904,0,0
336,120,0,0,0,0,0,0,0,0,0,-1,1560,904,0,0
343,120,0,0,0,0,0,0,0,0,0,-1,1567,904,0,0
350,120,0,0,0,0,0,0,0,0,0,-1,1574,904,0,0
357,120,0,0,0,0,0,0,0,0,0,-1,1581,904,0,0
364,120,0,0,0,0,0,0,0,0,0,-1,1588,904,0,0
371,120,0,0,0,0,0,0,0,0,0,-1,1595,904,0,0
378,120,0,0,0,0,0,0,0,0,0,-1,1602,904,0,0
385,120,0,0,0,0,0,0,0,0,0,-1,1609,904,0,0
392,120,0,0,0,0,0,0,0,0,0,-1,1616,904,0,0
399,120,0,0,0,0,0,0,0,0,0,-1,1623,904,0,0
406,120,0,0,0,0,0,0,0,0,0,-1,1630,904,0,0
413,120,0,0,0,0,0,0,0,0,0,-1,1637,904,0,0
420,120,0,0,0,0,0,0,0,0,0,-1,1644,904,0,0
427,120,0,0,0,0,0,0,0,0,0,-1,1651,904,0,0
434,120,0,0,0,0,0,0,0,0,0,-1,1658,904,0,0
441,120,0,0,0,0,0,0,0,0,0,-1,1665,904,0,0
448,120,0,0,0,0,0,0,0,0,0,-1,1672,904,0,0
455,120,0,0,0,0,0,0,0,0,0,-1,1679,904,0,0
462,120,0,0,0,0,0,0,0,0,0,-1,1686,904,0,0
469,120,0,0,0,0,0,0,0,0,0,-1,1693,904,0,0
476,120,0,0,0,0,0,0,0,0,0,-1,1700,904,0,0
483,120,0,0,0,0,0,0,0,0,0,-1,1707,904,0,0
490,120,0,0,0,0,0,0,0,0,0,-1,1714,904,0,0
497,120,0,0,0,0,0,0,0,0,0,-1,1721,904,0,0
504,120,0,0,0,0,0,0,0,0,0,-1,1728,904,0,0
511,120,0,0,0,0,0,0,0,0,0,-1,1735,904,0,0
518,120,0,0,0,0,0,0,0,0,0,-1,1742,904,0,0
525,120,0,0,0,0,0,0,0,0,0,-1,1749,904,0,0
532,120,0,0,0,0,0,0,0,0,0,-1,1756,904,0,0
539,120,0,0,0,0,0,0,0,0,0,-1,1763,904,0,0
546,120,0,0,0,0,0,0,0,0,0,-1,1770,904,0,0
553,120,0,0,0,0,0,0,0,0,0,-1,1777,904,0,0
560,120,0,0,0,0,0,0,0,0,0,-1,1784,904,0,0
567,120,0,0,0,0,0,0,0,0,0,-1,1791,904,0,0
574,120,0,0,0,0,0,0,0,0,0,-1,1798,904,0,0
581,120,0,0,0,0,0,0,0,0,0,-1,1805,904,0,0
588,120,0,0,0,0,0,0,0,0,0,-1,1812,904,0,0
595,120,0,0,0,0,0,0,0,0,0,-1,1819,904,0,0
602,120,0,0,0,0,0,0,0,0,0,-1,1826,904,0,0
609,120,0,0,0,0,0,0,0,0,0,-1,1833,904,0,0
616,120,0,0,0,0,0,0,0,0,0,-1,1840,904,0,0
623,120,0,0,0,0,0,0,0,0,0,-1,1847,904,0,0
630,120,43.6158,3.21545,-0.000684104,0.00156999,-0.00467937,0.00525613,-0.00437025,-0.903574,0.00556563,0.0414459,1854,904,43.6159,-3.21547
637,120,43.8334,2.7605,-0.000487372,0.00218758,-0.00320516,0.00432313,-0.00262292,-0.983059,0.00405015,0.0410852,1861,904,43.8334,-2.76052
644,120,43.6804,2.64984,-0.000494872,0.00239686,-0.0021034,0.00350341,-0.00160142,-1.08651,0.00301469,0.0387494,1868,904,43.6804,-2.64984
651,120,43.6693,2.89624,-0.000469622,0.0022835,-0.00129872,0.00279945,-0.000985569,-1.19264,0.00226738,0.0435349,1875,904,43.6693,-2.89625
658,120,43.623,3.0238,-0.000214235,0.00200543,-0.00066986,0.00219191,-0.000400721,-1.29928,0.00161154,0.0413049,1882,904,43.623,-3.02378
665,120,43.5723,2.91644,0.000153957,0.00165849,-0.000297393,0.00171514,9.73062e-05,-1.38256,0.00111241,0.0363416,1889,904,43.5722,-2.91646
672,120,43.6555,2.86237,0.000531582,0.00124985,-1.31956e-05,0.0012501,0.000531339,-1.55243,0.000724442,0.0350566,1896,904,43.6555,-2.86236
679,120,43.673,2.81909,0.000816431,0.000917137,0.000137499,0.00101321,0.000720355,0.960917,0.000602085,0.0318346,1903,904,43.673,-2.81912
686,120,43.6577,2.82996,0.000975027,0.000576782,0.000260083,0.00110346,0.000448348,0.458689,0.0006408,0.0254371,1910,904,43.6577,-2.82997
693,120,43.5911,2.78693,0,0,0,0,0,0,0,-1,1917,904,43.5911,-2.78693
700,120,38.8206,3.08911,0,0,0,0,0,0,0,-1,1924,904,38.8206,-3.0891
707,120,38.6519,3.44116,0.00132134,0.000212975,-6.59667e-05,0.00132525,0.000209063,-0.0592385,0.000822714,0.038742,1931,904,38.6518,-3.44118
714,120,38.9097,3.96185,0.00189841,0.00017954,-0.000267908,0.0019392,0.000138751,-0.15109,0.00124912,0.0206115,1938,904,38.9096,-3.96184
721,120,38.9006,4.37531,0.00294604,0.000824607,-0.000767169,0.0031944,0.000576253,-0.313082,0.00196587,0.0157813,1945,904,38.9006,-4.37528
728,120,38.8442,4.79803,0.0038827,0.00156301,-0.00118577,0.00438156,0.00106415,-0.398226,0.00263884,0.0119576,1952,904,38.8443,-4.79804
735,120,38.8217,5.18073,0.0057184,0.00269105,-0.00195873,0.00668018,0.00172928,-0.456436,0.00400351,0.0135469,1959,904,38.8217,-5.18072
742,120,38.7991,5.6004,0.00833995,0.00468691,-0.00245677,0.00957479,0.00345208,-0.465746,0.00559922,0.0139097,1966,904,38.7991,-5.60038
749,120,38.7782,5.98553,0.0118131,0.00702652,-0.00313631,0.013365,0.00547465,-0.459485,0.00775816,0.0106789,1973,904,38.7781,-5.98556
756,120,38.7318,6.39392,0.0166801,0.00975438,-0.00424478,0.0186953,0.00773914,-0.44325,0.0108469,0.0141633,1980,904,38.7318,-6.39395
763,120,38.6573,6.77582,0.0220423,0.0127274,-0.00481675,0.0240851,0.0106846,-0.401105,0.013935,0.0290642,1987,904,38.6574,-6.77585
770,120,38.6179,7.19061,0,0,0,0,0,0,0,-1,1994,904,38.6179,-7.19062
777,120,42.9915,7.60229,0,0,0,0,0,0,0,-1,2001,904,42.9915,-7.60228
784,120,42.5986,7.98151,0,0,0,0,0,0,0,-1,2008,904,42.5987,-7.98152
791,120,42.2107,8.33081,0.0382075,0.0236956,-0.00157963,0.0383774,0.0235257,-0.107179,0.0223451,0.0446449,2015,904,42.2107,-8.33081
798,120,41.7688,8.52698,0.0360082,0.0253191,0.00161966,0.0362483,0.0250791,0.147126,0.0214354,0.046638,2022,904,41.7688,-8.52699
805,120,0,0,0,0,0,0,0,0,0,-1,2029,904,0,0
812,120,0,0,0,0,0,0,0,0,0,-1,2036,904,0,0
-700,113,0,0,0,0,0,0,0,0,0,-1,524,911,0,0
-693,113,0,0,0,0,0,0,0,0,0,-1,531,911,0,0
-686,113,0,0,0,0,0,0,0,0,0,-1,538,911,0,0
-679,113,-27.521,4.13855,0,0,0,0,0,0,0,-1,545,911,-27.521,-4.13857
-672,113,-27.0068,2.15564,0,0,0,0,0,0,0,-1,552,911,-27.0068,-2.15566
-665,113,-26.7227,0.475708,0,0,0,0,0,0,0,-1,559,911,-26.7227,-0.475696
-658,113,-26.7451,-1.04309,0,0,0,0,0,0,0,-1,566,911,-26.7451,1.0431
-651,113,-29.0632,4.70056,0,0,0,0,0,0,0,-1,573,911,-29.0632,-4.70054
-644,113,-28.9528,4.21472,0,0,0,0,0,0,0,-1,580,911,-28.9528,-4.21473
-637,113,-28.8425,4.05426,-0.0143848,0.0116198,0.00232585,0.0118262,-0.0145911,1.48229,0.0152799,0.0391453,587,911,-28.8425,-4.05428
-630,113,-28.7076,3.93982,-0.0113474,0.00771839,0.00288664,0.00814586,-0.0117748,1.42378,0.0115646,0.0177406,594,911,-28.7076,-3.93983
-623,113,-28.8089,3.57068,-0.00876259,0.00499713,0.00299032,0.0056189,-0.00938436,1.36579,0.0087526,0.0110844,601,911,-28.8089,-3.57065
-616,113,-28.8292,3.21002,-0.00717043,0.00269845,0.00302537,0.00355206,-0.00802404,1.29579,0.00684768,0.0102149,608,911,-28.8292,-3.21002
-609,113,-28.8295,2.86908,-0.00633976,0.00137969,0.00266646,0.00221118,-0.00717125,1.26852,0.00566365,0.0114998,615,911,-28.8295,-2.86908
-602,113,-28.8446,2.50031,-0.00622483,0.000758682,0.00222965,0.00140983,-0.00687598,1.28666,0.00511906,0.0181833,622,911,-28.8446,-2.50033
-595,113,-28.859,2.22754,-0.00619034,0.000444959,0.00166898,0.000841106,-0.00658649,1.33775,0.00469653,0.0240276,629,911,-28.859,-2.22751
-588,113,-28.822,1.84296,-0.00596235,0.000269846,0.00112972,0.000468313,-0.00616081,1.39689,0.00427188,0.027772,636,911,-28.822,-1.84298
-581,113,-28.8489,1.45715,-0.00597201,0.000364846,0.000676047,0.000436167,-0.00604333,1.46569,0.00418186,0.0289412,643,911,-28.8489,-1.45718
-574,113,-28.8285,0.91803,0,0,0,0,0,0,0,-1,650,911,-28.8285,-0.918022
-567,113,-21.8396,0.437378,0,0,0,0,0,0,0,-1,657,911,-21.8396,-0.437351
-560,113,-32.0826,1.11731,0,0,0,0,0,0,0,-1,664,911,-32.0827,-1.11734
-553,113,-32.1959,1.27875,-0.00553883,0.000856179,-0.000429087,0.000884841,-0.00556749,-1.5041,0.00403905,0.0375029,671,911,-32.1959,-1.27875
-546,113,-32.2153,1.2597,-0.00515073,0.00116251,-0.00065768,0.00123029,-0.00521851,-1.46809,0.00395344,0.0347764,678,911,-32.2153,-1.2597
-539,113,-32.2221,1.1618,-0.00430325,0.00148589,-0.000792279,0.00159236,-0.00440972,-1.43721,0.0035903,0.0341157,685,911,-32.2221,-1.16178
-532,113,-32.2231,1.08301,-0.00300034,0.00175486,-0.000755674,0.00187206,-0.00311754,-1.41693,0.00291051,0.0354723,692,911,-32.2232,-1.08301
-525,113,-32.3088,1.06586,-0.00125093,0.00195981,-0.000573944,0.00205933,-0.00135044,-1.39912,0.00198276,0.0360478,699,911,-32.3088,-1.06586
-518,113,-32.4757,1.23413,-0.000402732,0.00192384,-5.03795e-05,0.00192493,-0.000403822,-1.54916,0.00143693,0.0382563,706,911,-32.4757,-1.23413
-511,113,-32.4288,1.1947,0,0,0,0,0,0,0,-1,713,911,-32.4288,-1.19468
-504,113,0,0,0,0,0,0,0,0,0,-1,720,911,0,0
-497,113,0,0,0,0,0,0,0,0,0,-1,727,911,0,0
-490,113,0,0,0,0,0,0,0,0,0,-1,734,911,0,0
-483,113,0,0,0,0,0,0,0,0,0,-1,741,911,0,0
-476,113,0,0,0,0,0,0,0,0,0,-1,748,911,0,0
-469,113,0,0,0,0,0,0,0,0,0,-1,755,911,0,0
-462,113,0,0,0,0,0,0,0,0,0,-1,762,911,0,0
-455,113,0,0,0,0,0,0,0,0,0,-1,769,911,0,0
-448,113,0,0,0,0,0,0,0,0,0,-1,776,911,0,0
-441,113,0,0,0,0,0,0,0,0,0,-1,783,911,0,0
-434,113,0,0,0,0,0,0,0,0,0,-1,790,911,0,0
-427,113,0,0,0,0,0,0,0,0,0,-1,797,911,0,0
-420,113,0,0,0,0,0,0,0,0,0,-1,804,911,0,0
-413,113,0,0,0,0,0,0,0,0,0,-1,811,911,0,0
-406,113,0,0,0,0,0,0,0,0,0,-1,818,911,0,0
-399,113,0,0,0,0,0,0,0,0,0,-1,825,911,0,0
-392,113,0,0,0,0,0,0,0,0,0,-1,832,911,0,0
-385,113,0,0,0,0,0,0,0,0,0,-1,839,911,0,0
-378,113,0,0,0,0,0,0,0,0,0,-1,846,911,0,0
-371,113,0,0,0,0,0,0,0,0,0,-1,853,911,0,0
-364,113,0,0,0,0,0,0,0,0,0,-1,860,911,0,0
-357,113,0,0,0,0,0,0,0,0,0,-1,867,911,0,0
-350,113,0,0,0,0,0,0,0,0,0,-1,874,911,0,0
-343,113,0,0,0,0,0,0,0,0,0,-1,881,911,0,0
-336,113,0,0,0,0,0,0,0,0,0,-1,888,911,0,0
-329,113,0,0,0,0,0,0,0,0,0,-1,895,911,0,0
-322,113,0,0,0,0,0,0,0,0,0,-1,902,911,0,0
-315,113,0,0,0,0,0,0,0,0,0,-1,909,911,0,0
-308,113,0,0,0,0,0,0,0,0,0,-1,916,911,0,0
-301,113,0,0,0,0,0,0,0,0,0,-1,923,911,0,0
-294,113,0,0,0,0,0,0,0,0,0,-1,930,911,0,0
-287,113,0,0,0,0,0,0,0,0,0,-1,937,911,0,0
-280,113,0,0,0,0,0,0,0,0,0,-1,944,911,0,0
-273,113,0,0,0,0,0,0,0,0,0,-1,951,911,0,0
-266,113,0,0,0,0,0,0,0,0,0,-1,958,911,0,0
-259,113,0,0,0,0,0,0,0,0,0,-1,965,911,0,0
-252,113,0,0,0,0,0,0,0,0,0,-1,972,911,0,0
-245,113,0,0,0,0,0,0,0,0,0,-1,979,911,0,0
-238,113,0,0,0,0,0,0,0,0,0,-1,986,911,0,0
-231,113,0,0,0,0,0,0,0,0,0,-1,993,911,0,0
-224,113,0,0,0,0,0,0,0,0,0,-1,1000,911,0,0
-217,113,0,0,0,0,0,0,0,0,0,-1,1007,911,0,0
-210,113,0,0,0,0,0,0,0,0,0,-1,1014,911,0,0
-203,113,0,0,0,0,0,0,0,0,0,-1,1021,911,0,0
-196,113,0,0,0,0,0,0,0,0,0,-1,1028,911,0,0
-189,113,0,0,0,0,0,0,0,0,0,-1,1035,911,0,0
-182,113,0,0,0,0,0,0,0,0,0,-1,1042,911,0,0
-175,113,0,0,0,0,0,0,0,0,0,-1,1049,911,0,0
-168,113,0,0,0,0,0,0,0,0,0,-1,1056,911,0,0
-161,113,0,0,0,0,0,0,0,0,0,-1,1063,911,0,0
-154,113,0,0,0,0,0,0,0,0,0,-1,1070,911,0,0
-147,113,0,0,0,0,0,0,0,0,0,-1,1077,911,0,0
-140,113,0,0,0,0,0,0,0,0,0,-1,1084,911,0,0
-133,113,0,0,0,0,0,0,0,0,0,-1,1091,911,0,0
-126,113,0,0,0,0,0,0,0,0,0,-1,1098,911,0,0
-119,113,0,0,0,0,0,0,0,0,0,-1,1105,911,0,0
-112,113,0,0,0,0,0,0,0,0,0,-1,1112,911,0,0
-105,113,0,0,0,0,0,0,0,0,0,-1,1119,911,0,0
-98,113,0,0,0,0,0,0,0,0,0,-1,1126,911,0,0
-91,113,0,0,0,0,0,0,0,0,0,-1,1133,911,0,0
-84,113,0,0,0,0,0,0,0,0,0,-1,1140,911,0,0
-77,113,0,0,0,0,0,0,0,0,0,-1,1147,911,0,0
-70,113,0,0,0,0,0,0,0,0,0,-1,1154,911,0,0
-63,113,0,0,0,0,0,0,0,0,0,-1,1161,911,0,0
-56,113,0,0,0,0,0,0,0,0,0,-1,1168,911,0,0
-49,113,0,0,0,0,0,0,0,0,0,-1,1175,911,0,0
-42,113,0,0,0,0,0,0,0,0,0,-1,1182,911,0,0
-35,113,0,0,0,0,0,0,0,0,0,-1,1189,911,0,0
-28,113,0,0,0,0,0,0,0,0,0,-1,1196,911,0,0
-21,113,0,0,0,0,0,0,0,0,0,-1,1203,911,0,0
-14,113,0,0,0,0,0,0,0,0,0,-1,1210,911,0,0
-7,113,0,0,0,0,0,0,0,0,0,-1,1217,911,0,0
0,113,0,0,0,0,0,0,0,0,0,-1,1224,911,0,0
7,113,0,0,0,0,0,0,0,0,0,-1,1231,911,0,0
14,113,0,0,0,0,0,0,0,0,0,-1,1238,911,0,0
21,113,0,0,0,0,0,0,0,0,0,-1,1245,911,0,0
28,113,0,0,0,0,0,0,0,0,0,-1,1252,911,0,0
35,113,0,0,0,0,0,0,0,0,0,-1,1259,911,0,0
42,113,0,0,0,0,0,0,0,0,0,-1,1266,911,0,0
49,113,0,0,0,0,0,0,0,0,0,-1,1273,911,0,0
56,113,0,0,0,0,0,0,0,0,0,-1,1280,911,0,0
63,113,0,0,0,0,0,0,0,0,0,-1,1287,911,0,0
70,113,0,0,0,0,0,0,0,0,0,-1,1294,911,0,0
77,113,0,0,0,0,0,0,0,0,0,-1,1301,911,0,0
84,113,0,0,0,0,0,0,0,0,0,-1,1308,911,0,0
91,113,0,0,0,0,0,0,0,0,0,-1,1315,911,0,0
98,113,0,0,0,0,0,0,0,0,0,-1,1322,911,0,0
105,113,0,0,0,0,0,0,0,0,0,-1,1329,911,0,0
112,113,0,0,0,0,0,0,0,0,0,-1,1336,911,0,0
119,113,0,0,0,0,0,0,0,0,0,-1,1343,911,0,0
126,113,0,0,0,0,0,0,0,0,0,-1,1350,911,0,0
133,113,0,0,0,0,0,0,0,0,0,-1,1357,911,0,0
140,113,0,0,0,0,0,0,0,0,0,-1,1364,911,0,0
147,113,0,0,0,0,0,0,0,0,0,-1,1371,911,0,0
154,113,0,0,0,0,0,0,0,0,0,-1,1378,911,0,0
161,113,0,0,0,0,0,0,0,0,0,-1,1385,911,0,0
168,113,0,0,0,0,0,0,0,0,0,-1,1392,911,0,0
175,113,0,0,0,0,0,0,0,0,0,-1,1399,911,0,0
182,113,0,0,0,0,0,0,0,0,0,-1,1406,911,0,0
189,113,0,0,0,0,0,0,0,0,0,-1,1413,911,0,0
196,113,0,0,0,0,0,0,0,0,0,-1,1420,911,0,0
203,113,0,0,0,0,0,0,0,0,0,-1,1427,911,0,0
210,113,0,0,0,0,0,0,0,0,0,-1,1434,911,0,0
217,113,0,0,0,0,0,0,0,0,0,-1,1441,911,0,0
224,113,0,0,0,0,0,0,0,0,0,-1,1448,911,0,0
231,113,0,0,0,0,0,0,0,0,0,-1,1455,911,0,0
238,113,0,0,0,0,0,0,0,0,0,-1,1462,911,0,0
245,113,0,0,0,0,0,0,0,0,0,-1,1469,911,0,0
252,113,0,0,0,0,0,0,0,0,0,-1,1476,911,0,0
259,113,0,0,0,0,0,0,0,0,0,-1,1483,911,0,0
266,113,0,0,0,0,0,0,0,0,0,-1,1490,911,0,0
273,113,0,0,0,0,0,0,0,0,0,-1,1497,911,0,0
280,113,0,0,0,0,0,0,0,0,0,-1,1504,911,0,0
287,113,0,0,0,0,0,0,0,0,0,-1,1511,911,0,0
294,113,0,0,0,0,0,0,0,0,0,-1,1518,911,0,0
301,113,0,0,0,0,0,0,0,0,0,-1,1525,911,0,0
308,113,0,0,0,0,0,0,0,0,0,-1,1532,911,0,0
315,113,0,0,0,0,0,0,0,0,0,-1,1539,911,0,0
322,113,0,0,0,0,0,0,0,0,0,-1,1546,911,0,0
329,113,0,0,0,0,0,0,0,0,0,-1,1553,911,0,0
336,113,0,0,0,0,0,0,0,0,0,-1,1560,911,0,0
343,113,0,0,0,0,0,0,0,0,0,-1,1567,911,0,0
350,113,0,0,0,0,0,0,0,0,0,-1,1574,911,0,0
357,113,0,0,0,0,0,0,0,0,0,-1,1581,911,0,0
364,113,0,0,0,0,0,0,0,0,0,-1,1588,911,0,0
371,113,0,0,0,0,0,0,0,0,0,-1,1595,911,0,0
378,113,0,0,0,0,0,0,0,0,0,-1,1602,911,0,0
385,113,0,0,0,0,0,0,0,0,0,-1,1609,911,0,0
392,113,0,0,0,0,0,0,0,0,0,-1,1616,911,0,0
399,113,0,0,0,0,0,0,0,0,0,-1,1623,911,0,0
406,113,0,0,0,0,0,0,0,0,0,-1,1630,911,0,0
413,113,0,0,0,0,0,0,0,0,0,-1,1637,911,0,0
420,113,0,0,0,0,0,0,0,0,0,-1,1644,911,0,0
427,113,0,0,0,0,0,0,0,0,0,-1,1651,911,0,0
434,113,0,0,0,0,0,0,0,0,0,-1,1658,911,0,0
441,113,0,0,0,0,0,0,0,0,0,-1,1665,911,0,0
448,113,0,0,0,0,0,0,0,0,0,-1,1672,911,0,0
455,113,0,0,0,0,0,0,0,0,0,-1,1679,911,0,0
462,113,0,0,0,0,0,0,0,0,0,-1,1686,911,0,0
469,113,0,0,0,0,0,0,0,0,0,-1,1693,911,0,0
476,113,0,0,0,0,0,0,0,0,0,-1,1700,911,0,0
483,113,0,0,0,0,0,0,0,0,0,-1,1707,911,0,0
490,113,0,0,0,0,0,0,0,0,0,-1,1714,911,0,0
497,113,0,0,0,0,0,0,0,0,0,-1,1721,911,0,0
504,113,0,0,0,0,0,0,0,0,0,-1,1728,911,0,0
511,113,0,0,0,0,0,0,0,0,0,-1,1735,911,0,0
518,113,0,0,0,0,0,0,0,0,0,-1,1742,911,0,0
525,113,0,0,0,0,0,0,0,0,0,-1,1749,911,0,0
532,113,0,0,0,0,0,0,0,0,0,-1,1756,911,0,0
539,113,0,0,0,0,0,0,0,0,0,-1,1763,911,0,0
546,113,0,0,0,0,0,0,0,0,0,-1,1770,911,0,0
553,113,0,0,0,0,0,0,0,0,0,-1,1777,911,0,0
560,113,0,0,0,0,0,0,0,0,0,-1,1784,911,0,0
567,113,0,0,0,0,0,0,0,0,0,-1,1791,911,0,0
574,113,0,0,0,0,0,0,0,0,0,-1,1798,911,0,0
581,113,0,0,0,0,0,0,0,0,0,-1,1805,911,0,0
588,113,0,0,0,0,0,0,0,0,0,-1,1812,911,0,0
595,113,0,0,0,0,0,0,0,0,0,-1,1819,911,0,0
602,113,0,0,0,0,0,0,0,0,0,-1,1826,911,0,0
609,113,0,0,0,0,0,0,0,0,0,-1,1833,911,0,0
616,113,0,0,0,0,0,0,0,0,0,-1,1840,911,0,0
623,113,0,0,0,0,0,0,0,0,0,-1,1847,911,0,0
630,113,43.8485,2.70892,-0.0015461,0.0019737,-0.00481989,0.00534494,-0.00491733,-0.960444,0.00592664,0.0420337,1854,911,43.8486,-2.7089
637,113,43.6714,2.84894,-0.000999774,0.0025849,-0.00327964,0.00453001,-0.00294488,-1.03548,0.00434786,0.0371412,1861,911,43.6714,-2.84892
644,113,43.5024,2.70728,-0.000853166,0.00283474,-0.00214044,0.00381597,-0.00183439,-1.14096,0.00332844,0.0379081,1868,911,43.5024,-2.70728
651,113,43.7905,2.71014,-0.000768154,0.00273956,-0.00130629,0.00317258,-0.00120117,-1.25071,0.00260928,0.0426793,1875,911,43.7906,-2.71014
658,113,43.7842,2.76416,-0.00053577,0.00248497,-0.000649633,0.00261876,-0.000669554,-1.3677,0.00200661,0.0420131,1882,911,43.7841,-2.76413
665,113,43.7307,2.94159,-0.000170515,0.00212517,-0.00023781,0.00214954,-0.000194891,-1.46865,0.00150221,0.0361438,1889,911,43.7308,-2.94161
672,113,43.6841,2.9223,0.000198355,0.00166006,7.22578e-05,0.00166362,0.000194792,1.52152,0.00105019,0.0346743,1896,911,43.6841,-2.92233
679,113,43.6769,2.8515,0.000487208,0.00123597,0.000240599,0.00130661,0.000416561,1.2852,0.000770707,0.0306441,1903,911,43.6769,-2.85151
686,113,43.6284,2.85181,0.000671624,0.000813201,0.000334409,0.00108423,0.000400594,0.8897,0.000633051,0.0308591,1910,911,43.6284,-2.8518
693,113,43.5923,2.8493,0,0,0,0,0,0,0,-1,1917,911,43.5922,-2.84932
700,113,42.9573,2.63293,0,0,0,0,0,0,0,-1,1924,911,42.9573,-2.63295
707,113,39.1718,3.53131,0,0,0,0,0,0,0,-1,1931,911,39.1717,-3.5313
714,113,39.2278,3.89856,0.00133263,0.000222257,-0.000223911,0.00137608,0.000178805,-0.191677,0.000863975,0.0220423,1938,911,39.2277,-3.89854
721,113,39.2393,4.30573,0.00214443,0.000795879,-0.000706219,0.00244657,0.000493737,-0.404266,0.00149392,0.0211255,1945,911,39.2393,-4.30574
728,113,39.2727,4.79266,0.00287739,0.00141202,-0.00107868,0.00344869,0.000840717,-0.487068,0.00207641,0.0208536,1952,911,39.2728,-4.79267
735,113,39.2378,5.22028,0.00436796,0.00242088,-0.00183697,0.00547342,0.00131542,-0.54173,0.00329908,0.0183928,1959,911,39.2378,-5.22025
742,113,39.2147,5.58575,0.00651775,0.00419643,-0.00241093,0.00803286,0.00268133,-0.561063,0.00472241,0.0130314,1966,911,39.2147,-5.58573
749,113,39.226,5.97522,0.00947527,0.00636728,-0.00325724,0.0115302,0.00431232,-0.562822,0.00672707,0.00951776,1973,911,39.226,-5.97522
756,113,39.1603,6.38794,0.0138161,0.00882375,-0.00468387,0.0166275,0.00601244,-0.540575,0.00972168,0.0134672,1980,911,39.1603,-6.38795
763,113,39.0311,6.81696,0.0186453,0.0114217,-0.00567236,0.0217582,0.00830888,-0.501901,0.0126784,0.0292596,1987,911,39.0311,-6.81697
770,113,38.9349,7.23956,0,0,0,0,0,0,0,-1,1994,911,38.9349,-7.23956
777,113,38.1069,7.284,0,0,0,0,0,0,0,-1,2001,911,38.1069,-7.28401
784,113,42.5828,7.4917,0,0,0,0,0,0,0,-1,2008,911,42.5828,-7.49173
791,113,41.9653,7.89362,0.0355921,0.0196011,-0.00734879,0.0384563,0.0167369,-0.371639,0.0222648,0.0444779,2015,911,41.9653,-7.8936
798,113,41.8872,8.34021,0.0353521,0.0203263,-0.00688306,0.0380284,0.0176499,-0.370837,0.0219745,0.0460703,2022,911,41.8873,-8.34019
805,113,0,0,0,0,0,0,0,0,0,-1,2029,911,0,0
812,113,0,0,0,0,0,0,0,0,0,-1,2036,911,0,0
-700,106,0,0,0,0,0,0,0,0,0,-1,524,918,0,0
-693,106,0,0,0,0,0,0,0,0,0,-1,531,918,0,0
-686,106,0,0,0,0,0,0,0,0,0,-1,538,918,0,0
-679,106,-27.3918,3.71381,0,0,0,0,0,0,0,-1,545,918,-27.3919,-3.71379
-672,106,-27.1776,2.0246,0,0,0,0,0,0,0,-1,552,918,-27.1775,-2.02457
-665,106,-27.0333,0.316711,0,0,0,0,0,0,0,-1,559,918,-27.0332,-0.316724
-658,106,-28.7673,5.03082,0,0,0,0,0,0,0,-1,566,918,-28.7673,-5.03082
-651,106,-28.8513,4.72778,0,0,0,0,0,0,0,-1,573,918,-28.8513,-4.72776
-644,106,-28.8385,4.48126,-0.0231308,0.0183807,0.00699216,0.0195268,-0.0242769,1.40833,0.0253396,0.0413899,580,918,-28.8385,-4.48127
-637,106,-28.8618,4.34265,-0.018458,0.0130828,0.00635582,0.0143154,-0.0196906,1.37924,0.019715,0.029655,587,918,-28.8618,-4.34262
-630,106,-29.0775,3.98108,-0.0141683,0.00904568,0.00555851,0.010308,-0.0154306,1.34749,0.014958,0.0134757,594,918,-29.0775,-3.98109
-623,106,-29.1887,3.5415,-0.0107028,0.00607691,0.00461901,0.00726437,-0.0118903,1.31916,0.0111659,0.0134916,601,918,-29.1887,-3.54151
-616,106,-29.2225,3.17334,-0.00858175,0.00362071,0.00385055,0.00473417,-0.00969521,1.28931,0.00849335,0.0132668,608,918,-29.2225,-3.17333
-609,106,-29.2183,2.84198,-0.00745101,0.00206645,0.00296091,0.00291241,-0.00829697,1.2925,0.00671602,0.0115367,615,918,-29.2183,-2.84196
-602,106,-29.226,2.48505,-0.00727602,0.00129366,0.00226681,0.00185633,-0.00783868,1.3275,0.00594202,0.0172007,622,918,-29.226,-2.48507
-595,106,-29.3187,2.15332,-0.00728124,0.000899161,0.00165006,0.00121945,-0.00760153,1.37907,0.00551926,0.0215983,629,918,-29.3187,-2.15334
-588,106,-29.2916,1.78156,-0.00704248,0.000765973,0.00107299,0.000910732,-0.00718724,1.43669,0.00512213,0.0252565,636,918,-29.2916,-1.78155
-581,106,-29.1418,1.37415,-0.00705913,0.000826071,0.000597604,0.000871105,-0.00710417,1.49558,0.00505158,0.0162218,643,918,-29.1418,-1.37413
-574,106,-29.1096,1.00116,0,0,0,0,0,0,0,-1,650,918,-29.1095,-1.00115
-567,106,-32.0763,1.05768,0,0,0,0,0,0,0,-1,657,918,-32.0763,-1.05768
-560,106,-32.0931,1.07562,-0.0068748,0.00131204,-0.000249223,0.00131962,-0.00688238,-1.54039,0.00508552,0.048917,664,918,-32.0931,-1.07563
-553,106,-32.2048,1.10669,-0.00652656,0.00150506,-0.000546462,0.00154207,-0.00656357,-1.50317,0.00497013,0.0345952,671,918,-32.2048,-1.1067
-546,106,-32.2427,1.06671,-0.00586029,0.00182398,-0.000809774,0.00190839,-0.0059447,-1.46694,0.0047294,0.0371821,678,918,-32.2428,-1.06673
-539,106,-32.1517,1.04407,-0.00457554,0.00214763,-0.000994071,0.00229153,-0.00471945,-1.42704,0.0041279,0.039601,685,918,-32.1517,-1.04407
-532,106,-32.055,1.04462,-0.00259723,0.00235222,-0.00105858,0.00256913,-0.00281413,-1.3687,0.0031091,0.0401682,692,918,-32.055,-1.0446
-525,106,-32.1722,1.02441,-9.99621e-05,0.00250405,-0.0010836,0.00289598,-0.000491892,-1.22374,0.00211378,0.0382541,699,918,-32.1722,-1.02442
-518,106,-32.1805,1.13086,0.000758561,0.00239157,-0.000739043,0.00267637,0.000473765,-1.20298,0.00164917,0.0365165,706,918,-32.1805,-1.13085
-511,106,0,0,0,0,0,0,0,0,0,-1,713,918,0,0
-504,106,0,0,0,0,0,0,0,0,0,-1,720,918,0,0
-497,106,0,0,0,0,0,0,0,0,0,-1,727,918,0,0
-490,106,0,0,0,0,0,0,0,0,0,-1,734,918,0,0
-483,106,0,0,0,0,0,0,0,0,0,-1,741,918,0,0
-476,106,0,0,0,0,0,0,0,0,0,-1,748,918,0,0
-469,106,0,0,0,0,0,0,0,0,0,-1,755,918,0,0
-462,106,0,0,0,0,0,0,0,0,0,-1,762,918,0,0
-455,106,0,0,0,0,0,0,0,0,0,-1,769,918,0,0
-448,106,0,0,0,0,0,0,0,0,0,-1,776,918,0,0
-441,106,0,0,0,0,0,0,0,0,0,-1,783,918,0,0
-434,106,0,0,0,0,0,0,0,0,0,-1,790,918,0,0
-427,106,0,0,0,0,0,0,0,0,0,-1,797,918,0,0
-420,106,0,0,0,0,0,0,0,0,0,-1,804,918,0,0
-413,106,0,0,0,0,0,0,0,0,0,-1,811,918,0,0
-406,106,0,0,0,0,0,0,0,0,0,-1,818,918,0,0
-399,106,0,0,0,0,0,0,0,0,0,-1,825,918,0,0
-392,106,0,0,0,0,0,0,0,0,0,-1,832,918,0,0
-385,106,0,0,0,0,0,0,0,0,0,-1,839,918,0,0
-378,106,0,0,0,0,0,0,0,0,0,-1,846,918,0,0
-371,106,0,0,0,0,0,0,0,0,0,-1,853,918,0,0
-364,106,0,0,0,0,0,0,0,0,0,-1,860,918,0,0
-357,106,0,0,0,0,0,0,0,0,0,-1,867,918,0,0
-350,106,0,0,0,0,0,0,0,0,0,-1,874,918,0,0
-343,106,0,0,0,0,0,0,0,0,0,-1,881,918,0,0
-336,106,0,0,0,0,0,0,0,0,0,-1,888,918,0,0
-329,106,0,0,0,0,0,0,0,0,0,-1,895,918,0,0
-322,106,0,0,0,0,0,0,0,0,0,-1,902,918,0,0
-315,106,0,0,0,0,0,0,0,0,0,-1,909,918,0,0
-308,106,0,0,0,0,0,0,0,0,0,-1,916,918,0,0
-301,106,0,0,0,0,0,0,0,0,0,-1,923,918,0,0
-294,106,0,0,0,0,0,0,0,0,0,-1,930,918,0,0
-287,106,0,0,0,0,0,0,0,0,0,-1,937,918,0,0
-280,106,0,0,0,0,0,0,0,0,0,-1,944,918,0,0
-273,106,0,0,0,0,0,0,0,0,0,-1,951,918,0,0
-266,106,0,0,0,0,0,0,0,0,0,-1,958,918,0,0
-259,106,0,0,0,0,0,0,0,0,0,-1,965,918,0,0
-252,106,0,0,0,0,0,0,0,0,0,-1,972,918,0,0
-245,106,0,0,0,0,0,0,0,0,0,-1,979,918,0,0
-238,106,0,0,0,0,0,0,0,0,0,-1,986,918,0,0
-231,106,0,0,0,0,0,0,0,0,0,-1,993,918,0,0
-224,106,0,0,0,0,0,0,0,0,0,-1,1000,918,0,0
-217,106,0,0,0,0,0,0,0,0,0,-1,1007,918,0,0
-210,106,0,0,0,0,0,0,0,0,0,-1,1014,918,0,0
-203,106,0,0,0,0,0,0,0,0,0,-1,1021,918,0,0
-196,106,0,0,0,0,0,0,0,0,0,-1,1028,918,0,0
-189,106,0,0,0,0,0,0,0,0,0,-1,1035,918,0,0
-182,106,0,0,0,0,0,0,0,0,0,-1,1042,918,0,0
-175,106,0,0,0,0,0,0,0,0,0,-1,1049,918,0,0
-168,106,0,0,0,0,0,0,0,0,0,-1,1056,918,0,0
-161,106,0,0,0,0,0,0,0,0,0,-1,1063,918,0,0
-154,106,0,0,0,0,0,0,0,0,0,-1,1070,918,0,0
-147,106,0,0,0,0,0,0,0,0,0,-1,1077,918,0,0
-140,106,0,0,0,0,0,0,0,0,0,-1,1084,918,0,0
-133,106,0,0,0,0,0,0,0,0,0,-1,1091,918,0,0
-126,106,0,0,0,0,0,0,0,0,0,-1,1098,918,0,0
-119,106,0,0,0,0,0,0,0,0,0,-1,1105,918,0,0
-112,106,0,0,0,0,0,0,0,0,0,-1,1112,918,0,0
-105,106,0,0,0,0,0,0,0,0,0,-1,1119,918,0,0
-98,106,0,0,0,0,0,0,0,0,0,-1,1126,918,0,0
-91,106,0,0,0,0,0,0,0,0,0,-1,1133,918,0,0
-84,106,0,0,0,0,0,0,0,0,0,-1,1140,918,0,0
-77,106,0,0,0,0,0,0,0,0,0,-1,1147,918,0,0
-70,106,0,0,0,0,0,0,0,0,0,-1,1154,918,0,0
-63,106,0,0,0,0,0,0,0,0,0,-1,1161,918,0,0
-56,106,0,0,0,0,0,0,0,0,0,-1,1168,918,0,0
-49,106,0,0,0,0,0,0,0,0,0,-1,1175,918,0,0
-42,106,0,0,0,0,0,0,0,0,0,-1,1182,918,0,0
-35,106,0,0,0,0,0,0,0,0,0,-1,1189,918,0,0
-28,106,0,0,0,0,0,0,0,0,0,-1,1196,918,0,0
-21,106,0,0,0,0,0,0,0,0,0,-1,1203,918,0,0
-14,106,0,0,0,0,0,0,0,0,0,-1,1210,918,0,0
-7,106,0,0,0,0,0,0,0,0,0,-1,1217,918,0,0
0,106,0,0,0,0,0,0,0,0,0,-1,1224,918,0,0
7,106,0,0,0,0,0,0,0,0,0,-1,1231,918,0,0
14,106,0,0,0,0,0,0,0,0,0,-1,1238,918,0,0
21,106,0,0,0,0,0,0,0,0,0,-1,1245,918,0,0
28,106,0,0,0,0,0,0,0,0,0,-1,1252,918,0,0
35,106,0,0,0,0,0,0,0,0,0,-1,1259,918,0,0
42,106,0,0,0,0,0,0,0,0,0,-1,1266,918,0,0
49,106,0,0,0,0,0,0,0,0,0,-1,1273,918,0,0
56,106,0,0,0,0,0,0,0,0,0,-1,1280,918,0,0
63,106,0,0,0,0,0,0,0,0,0,-1,1287,918,0,0
70,106,0,0,0,0,0,0,0,0,0,-1,1294,918,0,0
77,106,0,0,0,0,0,0,0,0,0,-1,1301,918,0,0
84,106,0,0,0,0,0,0,0,0,0,-1,1308,918,0,0
91,106,0,0,0,0,0,0,0,0,0,-1,1315,918,0,0
98,106,0,0,0,0,0,0,0,0,0,-1,1322,918,0,0
105,106,0,0,0,0,0,0,0,0,0,-1,1329,918,0,0
112,106,0,0,0,0,0,0,0,0,0,-1,1336,918,0,0
119,106,0,0,0,0,0,0,0,0,0,-1,1343,918,0,0
126,106,0,0,0,0,0,0,0,0,0,-1,1350,918,0,0
133,106,0,0,0,0,0,0,0,0,0,-1,1357,918,0,0
140,106,0,0,0,0,0,0,0,0,0,-1,1364,918,0,0
147,106,0,0,0,0,0,0,0,0,0,-1,1371,918,0,0
154,106,0,0,0,0,0,0,0,0,0,-1,1378,918,0,0
161,106,0,0,0,0,0,0,0,0,0,-1,1385,918,0,0
168,106,0,0,0,0,0,0,0,0,0,-1,1392,918,0,0
175,106,0,0,0,0,0,0,0,0,0,-1,1399,918,0,0
182,106,0,0,0,0,0,0,0,0,0,-1,1406,918,0,0
189,106,0,0,0,0,0,0,0,0,0,-1,1413,918,0,0
196,106,0,0,0,0,0,0,0,0,0,-1,1420,918,0,0
203,106,0,0,0,0,0,0,0,0,0,-1,1427,918,0,0
210,106,0,0,0,0,0,0,0,0,0,-1,1434,918,0,0
217,106,0,0,0,0,0,0,0,0,0,-1,1441,918,0,0
224,106,0,0,0,0,0,0,0,0,0,-1,1448,918,0,0
231,106,0,0,0,0,0,0,0,0,0,-1,1455,918,0,0
238,106,0,0,0,0,0,0,0,0,0,-1,1462,918,0,0
245,106,0,0,0,0,0,0,0,0,0,-1,1469,918,0,0
252,106,0,0,0,0,0,0,0,0,0,-1,1476,918,0,0
259,106,0,0,0,0,0,0,0,0,0,-1,1483,918,0,0
266,106,0,0,0,0,0,0,0,0,0,-1,1490,918,0,0
273,106,0,0,0,0,0,0,0,0,0,-1,1497,918,0,0
280,106,0,0,0,0,0,0,0,0,0,-1,1504,918,0,0
287,106,0,0,0,0,0,0,0,0,0,-1,1511,918,0,0
294,106,0,0,0,0,0,0,0,0,0,-1,1518,918,0,0
301,106,0,0,0,0,0,0,0,0,0,-1,1525,918,0,0
308,106,0,0,0,0,0,0,0,0,0,-1,1532,918,0,0
315,106,0,0,0,0,0,0,0,0,0,-1,1539,918,0,0
322,106,0,0,0,0,0,0,0,0,0,-1,1546,918,0,0
329,106,0,0,0,0,0,0,0,0,0,-1,1553,918,0,0
336,106,0,0,0,0,0,0,0,0,0,-1,1560,918,0,0
343,106,0,0,0,0,0,0,0,0,0,-1,1567,918,0,0
350,106,0,0,0,0,0,0,0,0,0,-1,1574,918,0,0
357,106,0,0,0,0,0,0,0,0,0,-1,1581,918,0,0
364,106,0,0,0,0,0,0,0,0,0,-1,1588,918,0,0
371,106,0,0,0,0,0,0,0,0,0,-1,1595,918,0,0
378,106,0,0,0,0,0,0,0,0,0,-1,1602,918,0,0
385,106,0,0,0,0,0,0,0,0,0,-1,1609,918,0,0
392,106,0,0,0,0,0,0,0,0,0,-1,1616,918,0,0
399,106,0,0,0,0,0,0,0,0,0,-1,1623,918,0,0
406,106,0,0,0,0,0,0,0,0,0,-1,1630,918,0,0
413,106,0,0,0,0,0,0,0,0,0,-1,1637,918,0,0
420,106,0,0,0,0,0,0,0,0,0,-1,1644,918,0,0
427,106,0,0,0,0,0,0,0,0,0,-1,1651,918,0,0
434,106,0,0,0,0,0,0,0,0,0,-1,1658,918,0,0
441,106,0,0,0,0,0,0,0,0,0,-1,1665,918,0,0
448,106,0,0,0,0,0,0,0,0,0,-1,1672,918,0,0
455,106,0,0,0,0,0,0,0,0,0,-1,1679,918,0,0
462,106,0,0,0,0,0,0,0,0,0,-1,1686,918,0,0
469,106,0,0,0,0,0,0,0,0,0,-1,1693,918,0,0
476,106,0,0,0,0,0,0,0,0,0,-1,1700,918,0,0
483,106,0,0,0,0,0,0,0,0,0,-1,1707,918,0,0
490,106,0,0,0,0,0,0,0,0,0,-1,1714,918,0,0
497,106,0,0,0,0,0,0,0,0,0,-1,1721,918,0,0
504,106,0,0,0,0,0,0,0,0,0,-1,1728,918,0,0
511,106,0,0,0,0,0,0,0,0,0,-1,1735,918,0,0
518,106,0,0,0,0,0,0,0,0,0,-1,1742,918,0,0
525,106,0,0,0,0,0,0,0,0,0,-1,1749,918,0,0
532,106,0,0,0,0,0,0,0,0,0,-1,1756,918,0,0
539,106,0,0,0,0,0,0,0,0,0,-1,1763,918,0,0
546,106,0,0,0,0,0,0,0,0,0,-1,1770,918,0,0
553,106,0,0,0,0,0,0,0,0,0,-1,1777,918,0,0
560,106,0,0,0,0,0,0,0,0,0,-1,1784,918,0,0
567,106,0,0,0,0,0,0,0,0,0,-1,1791,918,0,0
574,106,0,0,0,0,0,0,0,0,0,-1,1798,918,0,0
581,106,0,0,0,0,0,0,0,0,0,-1,1805,918,0,0
588,106,0,0,0,0,0,0,0,0,0,-1,1812,918,0,0
595,106,0,0,0,0,0,0,0,0,0,-1,1819,918,0,0
602,106,0,0,0,0,0,0,0,0,0,-1,1826,918,0,0
609,106,0,0,0,0,0,0,0,0,0,-1,1833,918,0,0
616,106,0,0,0,0,0,0,0,0,0,-1,1840,918,0,0
623,106,0,0,0,0,0,0,0,0,0,-1,1847,918,0,0
630,106,43.7424,2.75403,-0.00169962,0.0017859,-0.00473388,0.00508763,-0.00500135,-0.961773,0.00582494,0.040958,1854,918,43.7424,-2.75404
637,106,43.6066,2.97412,-0.000997718,0.00258522,-0.00325928,0.00451293,-0.00292542,-1.03669,0.00432701,0.0363974,1861,918,43.6066,-2.97413
644,106,43.6531,2.8927,-0.000839112,0.0030425,-0.00214154,0.00399184,-0.00178845,-1.15353,0.00341711,0.0347469,1868,918,43.653,-2.89268
651,106,43.6874,2.68518,-0.000798989,0.00308459,-0.00129879,0.00347891,-0.00119331,-1.27604,0.00280303,0.0389669,1875,918,43.6874,-2.68518
658,106,43.7887,2.64496,-0.000685538,0.00296077,-0.000607281,0.00305925,-0.000784019,-1.41003,0.00234494,0.0415021,1882,918,43.7887,-2.64493
665,106,43.7727,2.82263,-0.000414531,0.00267545,-0.000131887,0.00268107,-0.00042015,-1.52822,0.00194263,0.0391049,1889,918,43.7727,-2.82261
672,106,43.7308,2.98767,-0.000135999,0.00219908,0.000213988,0.00221853,-0.000155446,1.48016,0.00153346,0.0382309,1896,918,43.7308,-2.98769
679,106,43.7068,2.93512,0.00010645,0.00170602,0.000421502,0.00181029,2.17691e-06,1.32828,0.00120614,0.0341557,1903,918,43.7067,-2.93512
686,106,43.621,2.9375,0.000299382,0.00120464,0.000499716,0.00142624,7.77788e-05,1.1534,0.000925992,0.0339997,1910,918,43.621,-2.93752
693,106,43.6549,2.71655,0.000458415,0.000796295,0.000490934,0.00114654,0.000108166,0.951112,0.000730979,0.0350847,1917,918,43.6549,-2.71652
700,106,43.8773,2.29883,0,0,0,0,0,0,0,-1,1924,918,43.8773,-2.2988
707,106,39.5015,3.47296,0,0,0,0,0,0,0,-1,1931,918,39.5014,-3.47296
714,106,39.6594,3.89722,0.000731621,0.000400468,-0.000123165,0.000772406,0.000359682,-0.319779,0.000446299,0.0303657,1938,918,39.6594,-3.89723
721,106,39.6953,4.34552,0.00132372,0.000877832,-0.000595561,0.0017367,0.000464853,-0.606302,0.00103814,0.0244287,1945,918,39.6953,-4.34554
728,106,39.7485,4.82184,0.00194774,0.00138663,-0.000967269,0.00267432,0.000660053,-0.644247,0.00160865,0.0231436,1952,918,39.7486,-4.82184
735,106,39.7069,5.21033,0.00324376,0.00226729,-0.00174687,0.00456934,0.00094171,-0.649128,0.00278589,0.0202824,1959,918,39.7069,-5.21036
742,106,39.6592,5.56488,0.00511953,0.00376666,-0.00242719,0.00696278,0.00192341,-0.649501,0.00415197,0.0124997,1966,918,39.6591,-5.5649
749,106,39.6406,5.95392,0.00774675,0.00572693,-0.00348892,0.010369,0.00310469,-0.644517,0.00614501,0.0100996,1973,918,39.6406,-5.95389
756,106,39.5759,6.3269,0.0117794,0.00786319,-0.00528681,0.015459,0.00418351,-0.608045,0.00923305,0.0119993,1980,918,39.5759,-6.32692
763,106,39.4744,6.77374,0.0163792,0.0100529,-0.00677507,0.0206931,0.0057389,-0.566996,0.0123358,0.022588,1987,918,39.4743,-6.77376
770,106,39.3826,7.1701,0.0214438,0.0120158,-0.00841978,0.0263794,0.00708022,-0.530204,0.0157653,0.0420065,1994,918,39.3826,-7.1701
777,106,39.3595,7.5376,0,0,0,0,0,0,0,-1,2001,918,39.3596,-7.53758
784,106,41.3752,7.35504,0,0,0,0,0,0,0,-1,2008,918,41.3753,-7.35506
791,106,41.5608,7.85516,0.0356675,0.0151049,-0.0142761,0.0429792,0.00779317,-0.473329,0.0264407,0.0471641,2015,918,41.5608,-7.85514
798,106,41.9639,8.36554,0.0377985,0.0147526,-0.0170162,0.0468262,0.00572494,-0.487777,0.029495,0.0456242,2022,918,41.9638,-8.36557
805,106,0,0,0,0,0,0,0,0,0,-1,2029,918,0,0
812,106,0,0,0,0,0,0,0,0,0,-1,2036,918,0,0
-700,99,0,0,0,0,0,0,0,0,0,-1,524,925,0,0
-693,99,0,0,0,0,0,0,0,0,0,-1,531,925,0,0
-686,99,0,0,0,0,0,0,0,0,0,-1,538,925,0,0
-679,99,-27.4235,3.26385,0,0,0,0,0,0,0,-1,545,925,-27.4235,-3.26385
-672,99,-27.3234,1.91473,0,0,0,0,0,0,0,-1,552,925,-27.3234,-1.91471
-665,99,-27.7529,0.329956,0,0,0,0,0,0,0,-1,559,925,-27.7529,-0.329934
-658,99,-28.3463,-1.21173,0,0,0,0,0,0,0,-1,566,925,-28.3463,1.21174
-651,99,-28.6394,4.75494,0,0,0,0,0,0,0,-1,573,925,-28.6394,-4.75497
-644,99,-28.786,4.4621,-0.0305504,0.0187683,0.0136862,0.0223117,-0.0340938,1.31746,0.0328017,0.0437422,580,925,-28.786,-4.46212
-637,99,-29.2456,4.323,-0.0234965,0.0137095,0.0107567,0.0165955,-0.0263825,1.30867,0.0250269,0.0303115,587,925,-29.2456,-4.32301
-630,99,-29.4617,3.93921,-0.0174309,0.00973088,0.00832157,0.0120776,-0.0197777,1.29593,0.0185699,0.0158063,594,925,-29.4617,-3.93924
-623,99,-29.6043,3.52899,-0.0128994,0.00670622,0.00619638,0.0085004,-0.0146936,1.28895,0.0135493,0.0102631,601,925,-29.6043,-3.52897
-616,99,-29.6143,3.17603,-0.0101619,0.00424929,0.004571,0.00557685,-0.0114895,1.28814,0.0100484,0.0113245,608,925,-29.6143,-3.17603
-609,99,-29.6061,2.84552,-0.00866544,0.00264226,0.00312198,0.00344695,-0.00947013,1.31854,0.00772321,0.0108124,615,925,-29.6061,-2.84553
-602,99,-29.6036,2.54626,-0.00834447,0.00178672,0.00217124,0.00223243,-0.00879019,1.36833,0.00672887,0.0137858,622,925,-29.6036,-2.54628
-595,99,-29.6767,2.22046,-0.00829883,0.00132159,0.00149953,0.0015499,-0.00852714,1.4197,0.00626562,0.0185684,629,925,-29.6767,-2.22048
-588,99,-29.6641,1.8573,-0.00801793,0.00116534,0.000892691,0.00125132,-0.00810391,1.47479,0.00586438,0.0205001,636,925,-29.6641,-1.85732
-581,99,-29.5934,1.42706,-0.00802537,0.00119234,0.000413085,0.00121082,-0.00804384,1.5261,0.00580839,0.0143897,643,925,-29.5934,-1.42706
-574,99,-29.9496,1.05804,-0.00812243,0.00152627,0.00012362,0.00152786,-0.00812401,1.55799,0.00599059,0.0331074,650,925,-29.9496,-1.05804
-567,99,-32.1343,0.970337,0,0,0,0,0,0,0,-1,657,925,-32.1343,-0.970309
-560,99,-32.1019,0.98407,-0.0077675,0.00172879,-0.000458628,0.00175089,-0.0077896,-1.52265,0.00586448,0.0406439,664,925,-32.1019,-0.984063
-553,99,-32.2004,1.08752,-0.00724129,0.00196856,-0.000784716,0.00203494,-0.00730767,-1.4864,0.00567308,0.0391834,671,925,-32.2005,-1.0875
-546,99,-32.197,1.06348,-0.00622839,0.00228556,-0.00109895,0.00242512,-0.00636795,-1.44448,0.00524404,0.0416685,678,925,-32.197,-1.06346
-539,99,-32.0879,0.987183,-0.00444056,0.00256628,-0.00136692,0.00282351,-0.00469778,-1.3848,0.00438713,0.0382684,685,925,-32.0879,-0.98721
-532,99,-32.0159,0.992554,-0.00177265,0.0026668,-0.0015755,0.00316909,-0.00227494,-1.26217,0.00315721,0.041009,692,925,-32.0159,-0.992564
-525,99,-32.134,0.963074,0.00126791,0.00279381,-0.00185116,0.00403308,2.8637e-05,-0.980865,0.00267923,0.0418357,699,925,-32.134,-0.96309
-518,99,-32.1013,1.07202,0.00185842,0.00279629,-0.00159378,0.00398869,0.000666023,-0.928474,0.00246727,0.0383242,706,925,-32.1013,-1.07199
-511,99,0,0,0,0,0,0,0,0,0,-1,713,925,0,0
-504,99,0,0,0,0,0,0,0,0,0,-1,720,925,0,0
-497,99,0,0,0,0,0,0,0,0,0,-1,727,925,0,0
-490,99,0,0,0,0,0,0,0,0,0,-1,734,925,0,0
-483,99,0,0,0,0,0,0,0,0,0,-1,741,925,0,0
-476,99,0,0,0,0,0,0,0,0,0,-1,748,925,0,0
-469,99,0,0,0,0,0,0,0,0,0,-1,755,925,0,0
-462,99,0,0,0,0,0,0,0,0,0,-1,762,925,0,0
-455,99,0,0,0,0,0,0,0,0,0,-1,769,925,0,0
-448,99,0,0,0,0,0,0,0,0,0,-1,776,925,0,0
-441,99,0,0,0,0,0,0,0,0,0,-1,783,925,0,0
-434,99,0,0,0,0,0,0,0,0,0,-1,790,925,0,0
-427,99,0,0,0,0,0,0,0,0,0,-1,797,925,0,0
-420,99,0,0,0,0,0,0,0,0,0,-1,804,925,0,0
-413,99,0,0,0,0,0,0,0,0,0,-1,811,925,0,0
-406,99,0,0,0,0,0,0,0,0,0,-1,818,925,0,0
-399,99,0,0,0,0,0,0,0,0,0,-1,825,925,0,0
-392,99,0,0,0,0,0,0,0,0,0,-1,832,925,0,0
-385,99,0,0,0,0,0,0,0,0,0,-1,839,925,0,0
-378,99,0,0,0,0,0,0,0,0,0,-1,846,925,0,0
-371,99,0,0,0,0,0,0,0,0,0,-1,853,925,0,0
-364,99,0,0,0,0,0,0,0,0,0,-1,860,925,0,0
-357,99,0,0,0,0,0,0,0,0,0,-1,867,925,0,0
-350,99,0,0,0,0,0,0,0,0,0,-1,874,925,0,0
-343,99,0,0,0,0,0,0,0,0,0,-1,881,925,0,0
-336,99,0,0,0,0,0,0,0,0,0,-1,888,925,0,0
-329,99,0,0,0,0,0,0,0,0,0,-1,895,925,0,0
-322,99,0,0,0,0,0,0,0,0,0,-1,902,925,0,0
-315,99,0,0,0,0,0,0,0,0,0,-1,909,925,0,0
-308,99,0,0,0,0,0,0,0,0,0,-1,916,925,0,0
-301,99,0,0,0,0,0,0,0,0,0,-1,923,925,0,0
-294,99,0,0,0,0,0,0,0,0,0,-1,930,925,0,0
-287,99,0,0,0,0,0,0,0,0,0,-1,937,925,0,0
-280,99,0,0,0,0,0,0,0,0,0,-1,944,925,0,0
-273,99,0,0,0,0,0,0,0,0,0,-1,951,925,0,0
-266,99,0,0,0,0,0,0,0,0,0,-1,958,925,0,0
-259,99,0,0,0,0,0,0,0,0,0,-1,965,925,0,0
-252,99,0,0,0,0,0,0,0,0,0,-1,972,925,0,0
-245,99,0,0,0,0,0,0,0,0,0,-1,979,925,0,0
-238,99,0,0,0,0,0,0,0,0,0,-1,986,925,0,0
-231,99,0,0,0,0,0,0,0,0,0,-1,993,925,0,0
-224,99,0,0,0,0,0,0,0,0,0,-1,1000,925,0,0
-217,99,0,0,0,0,0,0,0,0,0,-1,1007,925,0,0
-210,99,0,0,0,0,0,0,0,0,0,-1,1014,925,0,0
-203,99,0,0,0,0,0,0,0,0,0,-1,1021,925,0,0
-196,99,0,0,0,0,0,0,0,0,0,-1,1028,925,0,0
-189,99,0,0,0,0,0,0,0,0,0,-1,1035,925,0,0
-182,99,0,0,0,0,0,0,0,0,0,-1,1042,925,0,0
-175,99,0,0,0,0,0,0,0,0,0,-1,1049,925,0,0
-168,99,0,0,0,0,0,0,0,0,0,-1,1056,925,0,0
-161,99,0,0,0,0,0,0,0,0,0,-1,1063,925,0,0
-154,99,0,0,0,0,0,0,0,0,0,-1,1070,925,0,0
-147,99,0,0,0,0,0,0,0,0,0,-1,1077,925,0,0
-140,99,0,0,0,0,0,0,0,0,0,-1,1084,925,0,0
-133,99,0,0,0,0,0,0,0,0,0,-1,1091,925,0,0
-126,99,0,0,0,0,0,0,0,0,0,-1,1098,925,0,0
-119,99,0,0,0,0,0,0,0,0,0,-1,1105,925,0,0
-112,99,0,0,0,0,0,0,0,0,0,-1,1112,925,0,0
-105,99,0,0,0,0,0,0,0,0,0,-1,1119,925,0,0
-98,99,0,0,0,0,0,0,0,0,0,-1,1126,925,0,0
-91,99,0,0,0,0,0,0,0,0,0,-1,1133,925,0,0
-84,99,0,0,0,0,0,0,0,0,0,-1,1140,925,0,0
-77,99,0,0,0,0,0,0,0,0,0,-1,1147,925,0,0
-70,99,0,0,0,0,0,0,0,0,0,-1,1154,925,0,0
-63,99,0,0,0,0,0,0,0,0,0,-1,1161,925,0,0
-56,99,0,0,0,0,0,0,0,0,0,-1,1168,925,0,0
-49,99,0,0,0,0,0,0,0,0,0,-1,1175,925,0,0
-42,99,0,0,0,0,0,0,0,0,0,-1,1182,925,0,0
-35,99,0,0,0,0,0,0,0,0,0,-1,1189,925,0,0
-28,99,0,0,0,0,0,0,0,0,0,-1,1196,925,0,0
-21,99,0,0,0,0,0,0,0,0,0,-1,1203,925,0,0
-14,99,0,0,0,0,0,0,0,0,0,-1,1210,925,0,0
-7,99,0,0,0,0,0,0,0,0,0,-1,1217,925,0,0
0,99,0,0,0,0,0,0,0,0,0,-1,1224,925,0,0
7,99,0,0,0,0,0,0,0,0,0,-1,1231,925,0,0
14,99,0,0,0,0,0,0,0,0,0,-1,1238,925,0,0
21,99,0,0,0,0,0,0,0,0,0,-1,1245,925,0,0
28,99,0,0,0,0,0,0,0,0,0,-1,1252,925,0,0
35,99,0,0,0,0,0,0,0,0,0,-1,1259,925,0,0
42,99,0,0,0,0,0,0,0,0,0,-1,1266,925,0,0
49,99,0,0,0,0,0,0,0,0,0,-1,1273,925,0,0
56,99,0,0,0,0,0,0,0,0,0,-1,1280,925,0,0
63,99,0,0,0,0,0,0,0,0,0,-1,1287,925,0,0
70,99,0,0,0,0,0,0,0,0,0,-1,1294,925,0,0
77,99,0,0,0,0,0,0,0,0,0,-1,1301,925,0,0
84,99,0,0,0,0,0,0,0,0,0,-1,1308,925,0,0
91,99,0,0,0,0,0,0,0,0,0,-1,1315,925,0,0
98,99,0,0,0,0,0,0,0,0,0,-1,1322,925,0,0
105,99,0,0,0,0,0,0,0,0,0,-1,1329,925,0,0
112,99,0,0,0,0,0,0,0,0,0,-1,1336,925,0,0
119,99,0,0,0,0,0,0,0,0,0,-1,1343,925,0,0
126,99,0,0,0,0,0,0,0,0,0,-1,1350,925,0,0
133,99,0,0,0,0,0,0,0,0,0,-1,1357,925,0,0
140,99,0,0,0,0,0,0,0,0,0,-1,1364,925,0,0
147,99,0,0,0,0,0,0,0,0,0,-1,1371,925,0,0
154,99,0,0,0,0,0,0,0,0,0,-1,1378,925,0,0
161,99,0,0,0,0,0,0,0,0,0,-1,1385,925,0,0
168,99,0,0,0,0,0,0,0,0,0,-1,1392,925,0,0
175,99,0,0,0,0,0,0,0,0,0,-1,1399,925,0,0
182,99,0,0,0,0,0,0,0,0,0,-1,1406,925,0,0
189,99,0,0,0,0,0,0,0,0,0,-1,1413,925,0,0
196,99,0,0,0,0,0,0,0,0,0,-1,1420,925,0,0
203,99,0,0,0,0,0,0,0,0,0,-1,1427,925,0,0
210,99,0,0,0,0,0,0,0,0,0,-1,1434,925,0,0
217,99,0,0,0,0,0,0,0,0,0,-1,1441,925,0,0
224,99,0,0,0,0,0,0,0,0,0,-1,1448,925,0,0
231,99,0,0,0,0,0,0,0,0,0,-1,1455,925,0,0
238,99,0,0,0,0,0,0,0,0,0,-1,1462,925,0,0
245,99,0,0,0,0,0,0,0,0,0,-1,1469,925,0,0
252,99,0,0,0,0,0,0,0,0,0,-1,1476,925,0,0
259,99,0,0,0,0,0,0,0,0,0,-1,1483,925,0,0
266,99,0,0,0,0,0,0,0,0,0,-1,1490,925,0,0
273,99,0,0,0,0,0,0,0,0,0,-1,1497,925,0,0
280,99,0,0,0,0,0,0,0,0,0,-1,1504,925,0,0
287,99,0,0,0,0,0,0,0,0,0,-1,1511,925,0,0
294,99,0,0,0,0,0,0,0,0,0,-1,1518,925,0,0
301,99,0,0,0,0,0,0,0,0,0,-1,1525,925,0,0
308,99,0,0,0,0,0,0,0,0,0,-1,1532,925,0,0
315,99,0,0,0,0,0,0,0,0,0,-1,1539,925,0,0
322,99,0,0,0,0,0,0,0,0,0,-1,1546,925,0,0
329,99,0,0,0,0,0,0,0,0,0,-1,1553,925,0,0
336,99,0,0,0,0,0,0,0,0,0,-1,1560,925,0,0
343,99,0,0,0,0,0,0,0,0,0,-1,1567,925,0,0
350,99,0,0,0,0,0,0,0,0,0,-1,1574,925,0,0
357,99,0,0,0,0,0,0,0,0,0,-1,1581,925,0,0
364,99,0,0,0,0,0,0,0,0,0,-1,1588,925,0,0
371,99,0,0,0,0,0,0,0,0,0,-1,1595,925,0,0
378,99,0,0,0,0,0,0,0,0,0,-1,1602,925,0,0
385,99,0,0,0,0,0,0,0,0,0,-1,1609,925,0,0
392,99,0,0,0,0,0,0,0,0,0,-1,1616,925,0,0
399,99,0,0,0,0,0,0,0,0,0,-1,1623,925,0,0
406,99,0,0,0,0,0,0,0,0,0,-1,1630,925,0,0
413,99,0,0,0,0,0,0,0,0,0,-1,1637,925,0,0
420,99,0,0,0,0,0,0,0,0,0,-1,1644,925,0,0
427,99,0,0,0,0,0,0,0,0,0,-1,1651,925,0,0
434,99,0,0,0,0,0,0,0,0,0,-1,1658,925,0,0
441,99,0,0,0,0,0,0,0,0,0,-1,1665,925,0,0
448,99,0,0,0,0,0,0,0,0,0,-1,1672,925,0,0
455,99,0,0,0,0,0,0,0,0,0,-1,1679,925,0,0
462,99,0,0,0,0,0,0,0,0,0,-1,1686,925,0,0
469,99,0,0,0,0,0,0,0,0,0,-1,1693,925,0,0
476,99,0,0,0,0,0,0,0,0,0,-1,1700,925,0,0
483,99,0,0,0,0,0,0,0,0,0,-1,1707,925,0,0
490,99,0,0,0,0,0,0,0,0,0,-1,1714,925,0,0
497,99,0,0,0,0,0,0,0,0,0,-1,1721,925,0,0
504,99,0,0,0,0,0,0,0,0,0,-1,1728,925,0,0
511,99,0,0,0,0,0,0,0,0,0,-1,1735,925,0,0
518,99,0,0,0,0,0,0,0,0,0,-1,1742,925,0,0
525,99,0,0,0,0,0,0,0,0,0,-1,1749,925,0,0
532,99,0,0,0,0,0,0,0,0,0,-1,1756,925,0,0
539,99,0,0,0,0,0,0,0,0,0,-1,1763,925,0,0
546,99,0,0,0,0,0,0,0,0,0,-1,1770,925,0,0
553,99,0,0,0,0,0,0,0,0,0,-1,1777,925,0,0
560,99,0,0,0,0,0,0,0,0,0,-1,1784,925,0,0
567,99,0,0,0,0,0,0,0,0,0,-1,1791,925,0,0
574,99,0,0,0,0,0,0,0,0,0,-1,1798,925,0,0
581,99,0,0,0,0,0,0,0,0,0,-1,1805,925,0,0
588,99,0,0,0,0,0,0,0,0,0,-1,1812,925,0,0
595,99,0,0,0,0,0,0,0,0,0,-1,1819,925,0,0
602,99,0,0,0,0,0,0,0,0,0,-1,1826,925,0,0
609,99,0,0,0,0,0,0,0,0,0,-1,1833,925,0,0
616,99,0,0,0,0,0,0,0,0,0,-1,1840,925,0,0
623,99,0,0,0,0,0,0,0,0,0,-1,1847,925,0,0
630,99,0,0,0,0,0,0,0,0,0,-1,1854,925,0,0
637,99,43.8562,2.61676,-0.000447668,0.00251697,-0.00325436,0.0046107,-0.0025414,-0.999102,0.00418648,0.042351,1861,925,43.8563,-2.61676
644,99,43.7556,2.79498,-0.000392068,0.00318089,-0.00222253,0.00424593,-0.00145711,-1.12393,0.00342136,0.037979,1868,925,43.7556,-2.79497
651,99,43.5743,2.97632,-0.000473205,0.00334846,-0.00139267,0.00380212,-0.000926862,-1.25589,0.00289361,0.0404167,1875,925,43.5743,-2.97633
658,99,43.675,2.63531,-0.000551313,0.00336366,-0.000664183,0.00347327,-0.000660924,-1.40724,0.00256437,0.0414228,1882,925,43.675,-2.63532
665,99,43.7477,2.7124,-0.000465086,0.00318793,-9.72885e-05,0.00319052,-0.000467675,-1.54419,0.00229882,0.0395764,1889,925,43.7477,-2.71238
672,99,43.8138,2.87122,-0.000359777,0.00274502,0.000318026,0.00277726,-0.000392018,1.46976,0.00199506,0.0393086,1896,925,43.8139,-2.87123
679,99,43.7913,2.86804,-0.000215184,0.00221669,0.000584559,0.0023499,-0.000348399,1.34673,0.00169472,0.037711,1903,925,43.7912,-2.86806
686,99,43.6132,2.96033,-4.82217e-05,0.00166049,0.000671331,0.0018927,-0.000280424,1.23779,0.00136491,0.0318653,1910,925,43.6131,-2.96034
693,99,43.593,2.88519,8.03936e-05,0.00117261,0.00066917,0.00149023,-0.000237225,1.12764,0.00108127,0.0336047,1917,925,43.593,-2.88522
700,99,43.6897,2.65796,0,0,0,0,0,0,0,-1,1924,925,43.6897,-2.65796
707,99,40.2399,3.50543,0,0,0,0,0,0,0,-1,1931,925,40.2398,-3.50542
714,99,40.1938,3.97382,0.000107995,0.000721777,2.35895e-05,0.000722682,0.00010709,1.53244,0.000450356,0.0353421,1938,925,40.1938,-3.97384
721,99,40.0763,4.33917,0.000469334,0.00112452,-0.000444382,0.00134901,0.000244847,-1.10302,0.000829853,0.0271482,1945,925,40.0763,-4.33918
728,99,40.1477,4.77313,0.00101409,0.00154246,-0.00082547,0.00214499,0.000411563,-0.940269,0.00131446,0.0219679,1952,925,40.1477,-4.77316
735,99,40.1133,5.18323,0.0021469,0.00225301,-0.00162614,0.00382697,0.000572949,-0.801706,0.00238339,0.0183889,1959,925,40.1133,-5.18322
742,99,40.0638,5.5611,0.0037346,0.00334438,-0.00235576,0.00590332,0.00117566,-0.744082,0.00360808,0.0137418,1966,925,40.0638,-5.56107
749,99,40.0244,5.93011,0.0059853,0.00494745,-0.00359304,0.00909669,0.00183605,-0.713682,0.00555453,0.0125319,1973,925,40.0245,-5.93014
756,99,39.9688,6.26038,0.00961906,0.00658717,-0.00567792,0.0139799,0.00222631,-0.654946,0.00867361,0.0133477,1980,925,39.9688,-6.26035
763,99,39.9187,6.62897,0.0139229,0.00820651,-0.00758841,0.0191736,0.00295588,-0.605288,0.0119199,0.015409,1987,925,39.9187,-6.62897
770,99,39.8668,7.06049,0.0188315,0.00944576,-0.00987093,0.0250684,0.00320894,-0.5635,0.0157519,0.0266577,1994,925,39.8668,-7.06049
777,99,39.9006,7.51068,0.0241728,0.0101728,-0.0126518,0.0316319,0.00271362,-0.532719,0.0202441,0.0417508,2001,925,39.9006,-7.51067
784,99,39.9879,7.99304,0,0,0,0,0,0,0,-1,2008,925,39.9879,-7.99302
791,99,41.3494,8.2616,0,0,0,0,0,0,0,-1,2015,925,41.3494,-8.26158
798,99,41.8503,8.57849,0,0,0,0,0,0,0,-1,2022,925,41.8503,-8.5785
805,99,0,0,0,0,0,0,0,0,0,-1,2029,925,0,0
812,99,0,0,0,0,0,0,0,0,0,-1,2036,925,0,0
-700,92,0,0,0,0,0,0,0,0,0,-1,524,932,0,0
-693,92,0,0,0,0,0,0,0,0,0,-1,531,932,0,0
-686,92,-27.5237,4.56012,0,0,0,0,0,0,0,-1,538,932,-27.5237,-4.56015
-679,92,-27.4979,3.17615,0,0,0,0,0,0,0,-1,545,932,-27.4979,-3.17615
-672,92,-27.438,2.12628,0,0,0,0,0,0,0,-1,552,932,-27.438,-2.12627
-665,92,-27.5519,1.02423,0,0,0,0,0,0,0,-1,559,932,-27.5519,-1.02422
-658,92,-28.191,4.38483,0,0,0,0,0,0,0,-1,566,932,-28.191,-4.38484
-651,92,-28.5516,4.65338,0,0,0,0,0,0,0,-1,573,932,-28.5517,-4.65338
-644,92,-29.1142,4.41467,-0.0357695,0.0197564,0.0195791,0.0259658,-0.0419789,1.26369,0.0395894,0.0428109,580,932,-29.1142,-4.41467
-637,92,-29.7576,4.19745,-0.0267077,0.0146501,0.0144382,0.0191918,-0.0312494,1.26603,0.0293983,0.0253068,587,932,-29.7576,-4.19743
-630,92,-29.8718,3.8299,-0.0193949,0.0106428,0.0105359,0.0139699,-0.0227219,1.26493,0.0213839,0.0133238,594,932,-29.8718,-3.82992
-623,92,-29.9576,3.51086,-0.0142915,0.00749895,0.00739355,0.00977075,-0.0165633,1.27269,0.0153716,0.00926913,601,932,-29.9576,-3.51088
-616,92,-29.9636,3.18256,-0.0112191,0.00504232,0.00497482,0.00644352,-0.0126203,1.29625,0.0111974,0.00847174,608,932,-29.9636,-3.18254
-609,92,-29.9797,2.85785,-0.00954875,0.00329793,0.00308791,0.00400161,-0.0102524,1.34674,0.00848925,0.00847565,615,932,-29.9797,-2.85784
-602,92,-29.9722,2.55524,-0.00912479,0.00232645,0.00188273,0.00262805,-0.00942639,1.41195,0.00731928,0.0102029,622,932,-29.9722,-2.55521
-595,92,-29.8978,2.16895,-0.00900174,0.00174919,0.0011137,0.00186335,-0.0091159,1.46865,0.00678422,0.0194017,629,932,-29.8978,-2.16896
-588,92,-29.9231,1.86169,-0.00867863,0.00150161,0.00045763,0.00152214,-0.00869916,1.52596,0.00636775,0.0223976,636,932,-29.9231,-1.86168
-581,92,-29.7976,1.48914,0,0,0,0,0,0,0,-1,643,932,-29.7976,-1.48915
-574,92,-30.6744,1.15704,0,0,0,0,0,0,0,-1,650,932,-30.6744,-1.15707
-567,92,-31.7932,1.67169,0,0,0,0,0,0,0,-1,657,932,-31.7932,-1.67172
-560,92,-32.0693,1.0304,-0.00826262,0.00185187,-0.000985537,0.001947,-0.00835775,-1.47456,0.00632158,0.0374697,664,932,-32.0693,-1.03038
-553,92,-32.3253,1.31036,-0.00751358,0.0020777,-0.00134537,0.00226284,-0.00769872,-1.43404,0.00602999,0.0375318,671,932,-32.3252,-1.31034
-546,92,-32.333,1.30096,-0.00612982,0.0023005,-0.00170334,0.00263165,-0.00646097,-1.37878,0.00540258,0.0399331,678,932,-32.333,-1.30094
-539,92,-32.2316,1.07263,-0.00388498,0.00241184,-0.0020343,0.00301188,-0.00448502,-1.28397,0.0043561,0.0368454,685,932,-32.2316,-1.07265
-532,92,-32.2211,1.00299,-0.000706418,0.00225201,-0.00236403,0.00356148,-0.00201588,-1.06496,0.00326104,0.0411691,692,932,-32.2211,-1.00297
-525,92,-32.3243,1.01202,0.00247572,0.00220538,-0.00288816,0.00523186,-0.000550771,-0.762015,0.00368524,0.0403539,699,932,-32.3243,-1.01203
-518,92,-32.2667,1.02496,0.00252943,0.00222702,-0.00279825,0.00518056,-0.000424111,-0.758406,0.00360341,0.0387397,706,932,-32.2667,-1.02497
-511,92,0,0,0,0,0,0,0,0,0,-1,713,932,0,0
-504,92,0,0,0,0,0,0,0,0,0,-1,720,932,0,0
-497,92,0,0,0,0,0,0,0,0,0,-1,727,932,0,0
-490,92,0,0,0,0,0,0,0,0,0,-1,734,932,0,0
-483,92,0,0,0,0,0,0,0,0,0,-1,741,932,0,0
-476,92,0,0,0,0,0,0,0,0,0,-1,748,932,0,0
-469,92,0,0,0,0,0,0,0,0,0,-1,755,932,0,0
-462,92,0,0,0,0,0,0,0,0,0,-1,762,932,0,0
-455,92,0,0,0,0,0,0,0,0,0,-1,769,932,0,0
-448,92,0,0,0,0,0,0,0,0,0,-1,776,932,0,0
-441,92,0,0,0,0,0,0,0,0,0,-1,783,932,0,0
-434,92,0,0,0,0,0,0,0,0,0,-1,790,932,0,0
-427,92,0,0,0,0,0,0,0,0,0,-1,797,932,0,0
-420,92,0,0,0,0,0,0,0,0,0,-1,804,932,0,0
-413,92,0,0,0,0,0,0,0,0,0,-1,811,932,0,0
-406,92,0,0,0,0,0,0,0,0,0,-1,818,932,0,0
-399,92,0,0,0,0,0,0,0,0,0,-1,825,932,0,0
-392,92,0,0,0,0,0,0,0,0,0,-1,832,932,0,0
-385,92,0,0,0,0,0,0,0,0,0,-1,839,932,0,0
-378,92,0,0,0,0,0,0,0,0,0,-1,846,932,0,0
-371,92,0,0,0,0,0,0,0,0,0,-1,853,932,0,0
-364,92,0,0,0,0,0,0,0,0,0,-1,860,932,0,0
-357,92,0,0,0,0,0,0,0,0,0,-1,867,932,0,0
-350,92,0,0,0,0,0,0,0,0,0,-1,874,932,0,0
-343,92,0,0,0,0,0,0,0,0,0,-1,881,932,0,0
-336,92,0,0,0,0,0,0,0,0,0,-1,888,932,0,0
-329,92,0,0,0,0,0,0,0,0,0,-1,895,932,0,0
-322,92,0,0,0,0,0,0,0,0,0,-1,902,932,0,0
-315,92,0,0,0,0,0,0,0,0,0,-1,909,932,0,0
-308,92,0,0,0,0,0,0,0,0,0,-1,916,932,0,0
-301,92,0,0,0,0,0,0,0,0,0,-1,923,932,0,0
-294,92,0,0,0,0,0,0,0,0,0,-1,930,932,0,0
-287,92,0,0,0,0,0,0,0,0,0,-1,937,932,0,0
-280,92,0,0,0,0,0,0,0,0,0,-1,944,932,0,0
-273,92,0,0,0,0,0,0,0,0,0,-1,951,932,0,0
-266,92,0,0,0,0,0,0,0,0,0,-1,958,932,0,0
-259,92,0,0,0,0,0,0,0,0,0,-1,965,932,0,0
-252,92,0,0,0,0,0,0,0,0,0,-1,972,932,0,0
-245,92,0,0,0,0,0,0,0,0,0,-1,979,932,0,0
-238,92,0,0,0,0,0,0,0,0,0,-1,986,932,0,0
-231,92,0,0,0,0,0,0,0,0,0,-1,993,932,0,0
-224,92,0,0,0,0,0,0,0,0,0,-1,1000,932,0,0
-217,92,0,0,0,0,0,0,0,0,0,-1,1007,932,0,0
-210,92,0,0,0,0,0,0,0,0,0,-1,1014,932,0,0
-203,92,0,0,0,0,0,0,0,0,0,-1,1021,932,0,0
-196,92,0,0,0,0,0,0,0,0,0,-1,1028,932,0,0
-189,92,0,0,0,0,0,0,0,0,0,-1,1035,932,0,0
-182,92,0,0,0,0,0,0,0,0,0,-1,1042,932,0,0
-175,92,0,0,0,0,0,0,0,0,0,-1,1049,932,0,0
-168,92,0,0,0,0,0,0,0,0,0,-1,1056,932,0,0
-161,92,0,0,0,0,0,0,0,0,0,-1,1063,932,0,0
-154,92,0,0,0,0,0,0,0,0,0,-1,1070,932,0,0
-147,92,0,0,0,0,0,0,0,0,0,-1,1077,932,0,0
-140,92,0,0,0,0,0,0,0,0,0,-1,1084,932,0,0
-133,92,0,0,0,0,0,0,0,0,0,-1,1091,932,0,0
-126,92,0,0,0,0,0,0,0,0,0,-1,1098,932,0,0
-119,92,0,0,0,0,0,0,0,0,0,-1,1105,932,0,0
-112,92,0,0,0,0,0,0,0,0,0,-1,1112,932,0,0
-105,92,0,0,0,0,0,0,0,0,0,-1,1119,932,0,0
-98,92,0,0,0,0,0,0,0,0,0,-1,1126,932,0,0
-91,92,0,0,0,0,0,0,0,0,0,-1,1133,932,0,0
-84,92,0,0,0,0,0,0,0,0,0,-1,1140,932,0,0
-77,92,0,0,0,0,0,0,0,0,0,-1,1147,932,0,0
-70,92,0,0,0,0,0,0,0,0,0,-1,1154,932,0,0
-63,92,0,0,0,0,0,0,0,0,0,-1,1161,932,0,0
-56,92,0,0,0,0,0,0,0,0,0,-1,1168,932,0,0
-49,92,0,0,0,0,0,0,0,0,0,-1,1175,932,0,0
-42,92,0,0,0,0,0,0,0,0,0,-1,1182,932,0,0
-35,92,0,0,0,0,0,0,0,0,0,-1,1189,932,0,0
-28,92,0,0,0,0,0,0,0,0,0,-1,1196,932,0,0
-21,92,0,0,0,0,0,0,0,0,0,-1,1203,932,0,0
-14,92,0,0,0,0,0,0,0,0,0,-1,1210,932,0,0
-7,92,0,0,0,0,0,0,0,0,0,-1,1217,932,0,0
0,92,0,0,0,0,0,0,0,0,0,-1,1224,932,0,0
7,92,0,0,0,0,0,0,0,0,0,-1,1231,932,0,0
14,92,0,0,0,0,0,0,0,0,0,-1,1238,932,0,0
21,92,0,0,0,0,0,0,0,0,0,-1,1245,932,0,0
28,92,0,0,0,0,0,0,0,0,0,-1,1252,932,0,0
35,92,0,0,0,0,0,0,0,0,0,-1,1259,932,0,0
42,92,0,0,0,0,0,0,0,0,0,-1,1266,932,0,0
49,92,0,0,0,0,0,0,0,0,0,-1,1273,932,0,0
56,92,0,0,0,0,0,0,0,0,0,-1,1280,932,0,0
63,92,0,0,0,0,0,0,0,0,0,-1,1287,932,0,0
70,92,0,0,0,0,0,0,0,0,0,-1,1294,932,0,0
77,92,0,0,0,0,0,0,0,0,0,-1,1301,932,0,0
84,92,0,0,0,0,0,0,0,0,0,-1,1308,932,0,0
91,92,0,0,0,0,0,0,0,0,0,-1,1315,932,0,0
98,92,0,0,0,0,0,0,0,0,0,-1,1322,932,0,0
105,92,0,0,0,0,0,0,0,0,0,-1,1329,932,0,0
112,92,0,0,0,0,0,0,0,0,0,-1,1336,932,0,0
119,92,0,0,0,0,0,0,0,0,0,-1,1343,932,0,0
126,92,0,0,0,0,0,0,0,0,0,-1,1350,932,0,0
133,92,0,0,0,0,0,0,0,0,0,-1,1357,932,0,0
140,92,0,0,0,0,0,0,0,0,0,-1,1364,932,0,0
147,92,0,0,0,0,0,0,0,0,0,-1,1371,932,0,0
154,92,0,0,0,0,0,0,0,0,0,-1,1378,932,0,0
161,92,0,0,0,0,0,0,0,0,0,-1,1385,932,0,0
168,92,0,0,0,0,0,0,0,0,0,-1,1392,932,0,0
175,92,0,0,0,0,0,0,0,0,0,-1,1399,932,0,0
182,92,0,0,0,0,0,0,0,0,0,-1,1406,932,0,0
189,92,0,0,0,0,0,0,0,0,0,-1,1413,932,0,0
196,92,0,0,0,0,0,0,0,0,0,-1,1420,932,0,0
203,92,0,0,0,0,0,0,0,0,0,-1,1427,932,0,0
210,92,0,0,0,0,0,0,0,0,0,-1,1434,932,0,0
217,92,0,0,0,0,0,0,0,0,0,-1,1441,932,0,0
224,92,0,0,0,0,0,0,0,0,0,-1,1448,932,0,0
231,92,0,0,0,0,0,0,0,0,0,-1,1455,932,0,0
238,92,0,0,0,0,0,0,0,0,0,-1,1462,932,0,0
245,92,0,0,0,0,0,0,0,0,0,-1,1469,932,0,0
252,92,0,0,0,0,0,0,0,0,0,-1,1476,932,0,0
259,92,0,0,0,0,0,0,0,0,0,-1,1483,932,0,0
266,92,0,0,0,0,0,0,0,0,0,-1,1490,932,0,0
273,92,0,0,0,0,0,0,0,0,0,-1,1497,932,0,0
280,92,0,0,0,0,0,0,0,0,0,-1,1504,932,0,0
287,92,0,0,0,0,0,0,0,0,0,-1,1511,932,0,0
294,92,0,0,0,0,0,0,0,0,0,-1,1518,932,0,0
301,92,0,0,0,0,0,0,0,0,0,-1,1525,932,0,0
308,92,0,0,0,0,0,0,0,0,0,-1,1532,932,0,0
315,92,0,0,0,0,0,0,0,0,0,-1,1539,932,0,0
322,92,0,0,0,0,0,0,0,0,0,-1,1546,932,0,0
329,92,0,0,0,0,0,0,0,0,0,-1,1553,932,0,0
336,92,0,0,0,0,0,0,0,0,0,-1,1560,932,0,0
343,92,0,0,0,0,0,0,0,0,0,-1,1567,932,0,0
350,92,0,0,0,0,0,0,0,0,0,-1,1574,932,0,0
357,92,0,0,0,0,0,0,0,0,0,-1,1581,932,0,0
364,92,0,0,0,0,0,0,0,0,0,-1,1588,932,0,0
371,92,0,0,0,0,0,0,0,0,0,-1,1595,932,0,0
378,92,0,0,0,0,0,0,0,0,0,-1,1602,932,0,0
385,92,0,0,0,0,0,0,0,0,0,-1,1609,932,0,0
392,92,0,0,0,0,0,0,0,0,0,-1,1616,932,0,0
399,92,0,0,0,0,0,0,0,0,0,-1,1623,932,0,0
406,92,0,0,0,0,0,0,0,0,0,-1,1630,932,0,0
413,92,0,0,0,0,0,0,0,0,0,-1,1637,932,0,0
420,92,0,0,0,0,0,0,0,0,0,-1,1644,932,0,0
427,92,0,0,0,0,0,0,0,0,0,-1,1651,932,0,0
434,92,0,0,0,0,0,0,0,0,0,-1,1658,932,0,0
441,92,0,0,0,0,0,0,0,0,0,-1,1665,932,0,0
448,92,0,0,0,0,0,0,0,0,0,-1,1672,932,0,0
455,92,0,0,0,0,0,0,0,0,0,-1,1679,932,0,0
462,92,0,0,0,0,0,0,0,0,0,-1,1686,932,0,0
469,92,0,0,0,0,0,0,0,0,0,-1,1693,932,0,0
476,92,0,0,0,0,0,0,0,0,0,-1,1700,932,0,0
483,92,0,0,0,0,0,0,0,0,0,-1,1707,932,0,0
490,92,0,0,0,0,0,0,0,0,0,-1,1714,932,0,0
497,92,0,0,0,0,0,0,0,0,0,-1,1721,932,0,0
504,92,0,0,0,0,0,0,0,0,0,-1,1728,932,0,0
511,92,0,0,0,0,0,0,0,0,0,-1,1735,932,0,0
518,92,0,0,0,0,0,0,0,0,0,-1,1742,932,0,0
525,92,0,0,0,0,0,0,0,0,0,-1,1749,932,0,0
532,92,0,0,0,0,0,0,0,0,0,-1,1756,932,0,0
539,92,0,0,0,0,0,0,0,0,0,-1,1763,932,0,0
546,92,0,0,0,0,0,0,0,0,0,-1,1770,932,0,0
553,92,0,0,0,0,0,0,0,0,0,-1,1777,932,0,0
560,92,0,0,0,0,0,0,0,0,0,-1,1784,932,0,0
567,92,0,0,0,0,0,0,0,0,0,-1,1791,932,0,0
574,92,0,0,0,0,0,0,0,0,0,-1,1798,932,0,0
581,92,0,0,0,0,0,0,0,0,0,-1,1805,932,0,0
588,92,0,0,0,0,0,0,0,0,0,-1,1812,932,0,0
595,92,0,0,0,0,0,0,0,0,0,-1,1819,932,0,0
602,92,0,0,0,0,0,0,0,0,0,-1,1826,932,0,0
609,92,0,0,0,0,0,0,0,0,0,-1,1833,932,0,0
616,92,0,0,0,0,0,0,0,0,0,-1,1840,932,0,0
623,92,0,0,0,0,0,0,0,0,0,-1,1847,932,0,0
630,92,0,0,0,0,0,0,0,0,0,-1,1854,932,0,0
637,92,43.8175,2.73407,0.000178627,0.00304549,-0.00409833,0.00595384,-0.00272972,-0.953629,0.00512735,0.0477805,1861,932,43.8175,-2.73408
644,92,43.6748,2.71075,0.000222424,0.00356561,-0.00287411,0.00521888,-0.00143085,-1.04879,0.00404153,0.0414205,1868,932,43.6748,-2.71074
651,92,43.4907,2.84344,7.25831e-05,0.00363859,-0.0018575,0.00443035,-0.000719179,-1.16787,0.00322018,0.0412898,1875,932,43.4907,-2.84347
658,92,43.1304,3.4267,0,0,0,0,0,0,0,-1,1882,932,43.1304,-3.42667
665,92,43.627,2.88348,-0.000306127,0.0034532,-0.000229467,0.00346716,-0.000320082,-1.51006,0.00242518,0.0417175,1889,932,43.6269,-2.8835
672,92,43.7661,2.81635,-0.000419828,0.00300633,0.000305353,0.00303333,-0.00044683,1.4826,0.00218644,0.0410285,1896,932,43.7661,-2.81632
679,92,43.712,2.8161,-0.000447473,0.00243133,0.000644709,0.00256912,-0.000585261,1.36024,0.00193752,0.0414848,1903,932,43.712,-2.8161
686,92,43.6527,2.89319,-0.000374012,0.00181954,0.000745683,0.00204902,-0.000603494,1.27225,0.00160544,0.0330954,1910,932,43.6528,-2.89319
693,92,43.6116,2.96503,-0.000318201,0.00126516,0.000740281,0.00155735,-0.00061039,1.19487,0.00129074,0.0282419,1917,932,43.6116,-2.96506
700,92,43.6124,2.99231,0,0,0,0,0,0,0,-1,1924,932,43.6124,-2.9923
707,92,32.9893,3.26874,0,0,0,0,0,0,0,-1,1931,932,32.9893,-3.26874
714,92,40.8921,4.38397,0,0,0,0,0,0,0,-1,1938,932,40.8921,-4.38397
721,92,40.5752,4.44989,-0.000499739,0.00117996,-0.000402023,0.00127122,-0.000591001,-1.34757,0.0010988,0.0293507,1945,932,40.5752,-4.44989
728,92,40.4884,4.85577,-1.42288e-05,0.00154082,-0.000793975,0.00187458,-0.000347983,-1.17286,0.00138041,0.0219437,1952,932,40.4884,-4.85579
735,92,40.4708,5.21252,0.00103029,0.00211428,-0.00160883,0.00326996,-0.000125389,-0.947872,0.00222295,0.0183851,1959,932,40.4709,-5.21251
742,92,40.4912,5.53668,0.00244825,0.00289924,-0.0024204,0.00510463,0.000242864,-0.831846,0.00332509,0.0191969,1966,932,40.4912,-5.53668
749,92,40.422,5.90656,0.0044698,0.00419772,-0.00381801,0.00815419,0.000513331,-0.767591,0.00527335,0.0176439,1973,932,40.422,-5.90656
756,92,40.3489,6.23938,0.00786798,0.00541718,-0.0061917,0.0129544,0.000330787,-0.687706,0.00852812,0.0154648,1980,932,40.3489,-6.23937
763,92,40.3545,6.59338,0.0120898,0.00654803,-0.00858849,0.0183433,0.000294502,-0.629357,0.0121319,0.016912,1987,932,40.3545,-6.59339
770,92,40.3269,6.9848,0.0170874,0.00719285,-0.0115931,0.0247447,-0.00046445,-0.583725,0.0166535,0.0242613,1994,932,40.3269,-6.98483
777,92,40.7098,7.29712,0.0227882,0.00717993,-0.0154685,0.0323097,-0.00234165,-0.551771,0.0223613,0.0409743,2001,932,40.7098,-7.29713
784,92,41.1863,7.67999,0,0,0,0,0,0,0,-1,2008,932,41.1863,-7.67998
791,92,41.6355,8.07574,0,0,0,0,0,0,0,-1,2015,932,41.6355,-8.07574
798,92,42.012,8.49536,0,0,0,0,0,0,0,-1,2022,932,42.012,-8.49538
805,92,0,0,0,0,0,0,0,0,0,-1,2029,932,0,0
812,92,0,0,0,0,0,0,0,0,0,-1,2036,932,0,0
-700,85,0,0,0,0,0,0,0,0,0,-1,524,939,0,0
-693,85,0,0,0,0,0,0,0,0,0,-1,531,939,0,0
-686,85,-26.9657,3.7359,0,0,0,0,0,0,0,-1,538,939,-26.9657,-3.73588
-679,85,-27.5233,3.29175,0,0,0,0,0,0,0,-1,545,939,-27.5232,-3.29177
-672,85,-27.53,2.1521,0,0,0,0,0,0,0,-1,552,939,-27.53,-2.1521
-665,85,-27.5513,1.02496,0,0,0,0,0,0,0,-1,559,939,-27.5513,-1.02495
-658,85,-28.8079,4.966,0,0,0,0,0,0,0,-1,566,939,-28.8078,-4.96603
-651,85,-29.2795,4.65619,-0.049053,0.0289075,0.0319894,0.0403533,-0.0604987,1.22719,0.0586129,0.0441055,573,939,-29.2795,-4.65617
-644,85,-29.7357,4.36462,-0.0371547,0.0222692,0.0232305,0.0302727,-0.0451582,1.23901,0.0438318,0.0347941,580,939,-29.7357,-4.36463
-637,85,-30.1845,4.07361,-0.0273992,0.0166167,0.0168586,0.0223317,-0.0331142,1.24396,0.0322128,0.0184275,587,939,-30.1845,-4.07359
-630,85,-30.2544,3.76056,-0.0197899,0.0121792,0.0120259,0.0161978,-0.0238086,1.24829,0.0232366,0.0112753,594,939,-30.2544,-3.76054
-623,85,-30.3109,3.45313,-0.0146981,0.00865541,0.00819032,0.0112415,-0.0172841,1.26496,0.016592,0.00940733,601,939,-30.3109,-3.45315
-616,85,-30.3121,3.15619,-0.0116621,0.00598095,0.00521169,0.00740545,-0.0130866,1.30399,0.0119817,0.00900106,608,939,-30.3121,-3.15616
-609,85,-30.3491,2.85339,-0.00997005,0.00402244,0.00295216,0.0046198,-0.0105674,1.37115,0.00898967,0.0108609,615,939,-30.349,-2.85338
-602,85,-30.3644,2.55316,-0.00950072,0.0028955,0.00148638,0.00307123,-0.00967646,1.45311,0.00768216,0.0155428,622,939,-30.3644,-2.55319
-595,85,-30.2762,2.23987,-0.0093364,0.00215984,0.000597605,0.00219083,-0.00936738,1.519,0.00708895,0.0184651,629,939,-30.2763,-2.23987
-588,85,-30.2542,1.91217,-0.00901674,0.00182353,-0.000112659,0.0018247,-0.00901791,-1.56041,0.00670347,0.0184843,636,939,-30.2542,-1.91218
-581,85,-30.142,1.5636,0,0,0,0,0,0,0,-1,643,939,-30.142,-1.56357
-574,85,-31.0253,1.27924,-0.00908257,0.00172339,-0.000944997,0.00180541,-0.00916459,-1.48422,0.00679199,0.0423623,650,939,-31.0253,-1.27926
-567,85,-31.9485,1.17273,-0.00889948,0.001818,-0.00123838,0.00195923,-0.00904071,-1.45724,0.00677531,0.0496246,657,939,-31.9486,-1.17271
-560,85,-32.0125,1.07776,-0.0084472,0.00199852,-0.00157635,0.00223122,-0.0086799,-1.42423,0.00665618,0.0350985,664,939,-32.0125,-1.07773
-553,85,-32.1796,1.21881,-0.00742275,0.0021699,-0.00189425,0.00253041,-0.00778326,-1.38273,0.0062067,0.0393012,671,939,-32.1796,-1.21879
-546,85,-32.2127,1.12231,-0.0056545,0.00227468,-0.00220206,0.00284519,-0.006225,-1.31729,0.00535649,0.0405635,678,939,-32.2127,-1.12229
-539,85,-32.2519,1.159,-0.00298751,0.00218195,-0.00248669,0.00318392,-0.00398949,-1.18776,0.00415026,0.0381032,685,939,-32.2519,-1.159
-532,85,-32.218,1.08435,0.000604523,0.00172641,-0.00285116,0.00407129,-0.00174036,-0.882528,0.00344414,0.0400026,692,939,-32.218,-1.08432
-525,85,-32.2064,1.12671,0.0038037,0.00141136,-0.00361984,0.00641988,-0.00120483,-0.625822,0.00473292,0.0377327,699,939,-32.2064,-1.12669
-518,85,-32.1697,1.07959,0.00342152,0.00125654,-0.00388077,0.00636794,-0.00168988,-0.649387,0.00490657,0.035877,706,939,-32.1697,-1.07957
-511,85,0,0,0,0,0,0,0,0,0,-1,713,939,0,0
-504,85,0,0,0,0,0,0,0,0,0,-1,720,939,0,0
-497,85,0,0,0,0,0,0,0,0,0,-1,727,939,0,0
-490,85,0,0,0,0,0,0,0,0,0,-1,734,939,0,0
-483,85,0,0,0,0,0,0,0,0,0,-1,741,939,0,0
-476,85,0,0,0,0,0,0,0,0,0,-1,748,939,0,0
-469,85,0,0,0,0,0,0,0,0,0,-1,755,939,0,0
-462,85,0,0,0,0,0,0,0,0,0,-1,762,939,0,0
-455,85,0,0,0,0,0,0,0,0,0,-1,769,939,0,0
-448,85,0,0,0,0,0,0,0,0,0,-1,776,939,0,0
-441,85,0,0,0,0,0,0,0,0,0,-1,783,939,0,0
-434,85,0,0,0,0,0,0,0,0,0,-1,790,939,0,0
-427,85,0,0,0,0,0,0,0,0,0,-1,797,939,0,0
-420,85,0,0,0,0,0,0,0,0,0,-1,804,939,0,0
-413,85,0,0,0,0,0,0,0,0,0,-1,811,939,0,0
-406,85,0,0,0,0,0,0,0,0,0,-1,818,939,0,0
-399,85,0,0,0,0,0,0,0,0,0,-1,825,939,0,0
-392,85,0,0,0,0,0,0,0,0,0,-1,832,939,0,0
-385,85,0,0,0,0,0,0,0,0,0,-1,839,939,0,0
-378,85,0,0,0,0,0,0,0,0,0,-1,846,939,0,0
-371,85,0,0,0,0,0,0,0,0,0,-1,853,939,0,0
-364,85,0,0,0,0,0,0,0,0,0,-1,860,939,0,0
-357,85,0,0,0,0,0,0,0,0,0,-1,867,939,0,0
-350,85,0,0,0,0,0,0,0,0,0,-1,874,939,0,0
-343,85,0,0,0,0,0,0,0,0,0,-1,881,939,0,0
-336,85,0,0,0,0,0,0,0,0,0,-1,888,939,0,0
-329,85,0,0,0,0,0,0,0,0,0,-1,895,939,0,0
-322,85,0,0,0,0,0,0,0,0,0,-1,902,939,0,0
-315,85,0,0,0,0,0,0,0,0,0,-1,909,939,0,0
-308,85,0,0,0,0,0,0,0,0,0,-1,916,939,0,0
-301,85,0,0,0,0,0,0,0,0,0,-1,923,939,0,0
-294,85,0,0,0,0,0,0,0,0,0,-1,930,939,0,0
-287,85,0,0,0,0,0,0,0,0,0,-1,937,939,0,0
-280,85,0,0,0,0,0,0,0,0,0,-1,944,939,0,0
-273,85,0,0,0,0,0,0,0,0,0,-1,951,939,0,0
-266,85,0,0,0,0,0,0,0,0,0,-1,958,939,0,0
-259,85,0,0,0,0,0,0,0,0,0,-1,965,939,0,0
-252,85,0,0,0,0,0,0,0,0,0,-1,972,939,0,0
-245,85,0,0,0,0,0,0,0,0,0,-1,979,939,0,0
-238,85,0,0,0,0,0,0,0,0,0,-1,986,939,0,0
-231,85,0,0,0,0,0,0,0,0,0,-1,993,939,0,0
-224,85,0,0,0,0,0,0,0,0,0,-1,1000,939,0,0
-217,85,0,0,0,0,0,0,0,0,0,-1,1007,939,0,0
-210,85,0,0,0,0,0,0,0,0,0,-1,1014,939,0,0
-203,85,0,0,0,0,0,0,0,0,0,-1,1021,939,0,0
-196,85,0,0,0,0,0,0,0,0,0,-1,1028,939,0,0
-189,85,0,0,0,0,0,0,0,0,0,-1,1035,939,0,0
-182,85,0,0,0,0,0,0,0,0,0,-1,1042,939,0,0
-175,85,0,0,0,0,0,0,0,0,0,-1,1049,939,0,0
-168,85,0,0,0,0,0,0,0,0,0,-1,1056,939,0,0
-161,85,0,0,0,0,0,0,0,0,0,-1,1063,939,0,0
-154,85,0,0,0,0,0,0,0,0,0,-1,1070,939,0,0
-147,85,0,0,0,0,0,0,0,0,0,-1,1077,939,0,0
-140,85,0,0,0,0,0,0,0,0,0,-1,1084,939,0,0
-133,85,0,0,0,0,0,0,0,0,0,-1,1091,939,0,0
-126,85,0,0,0,0,0,0,0,0,0,-1,1098,939,0,0
-119,85,0,0,0,0,0,0,0,0,0,-1,1105,939,0,0
-112,85,0,0,0,0,0,0,0,0,0,-1,1112,939,0,0
-105,85,0,0,0,0,0,0,0,0,0,-1,1119,939,0,0
-98,85,0,0,0,0,0,0,0,0,0,-1,1126,939,0,0
-91,85,0,0,0,0,0,0,0,0,0,-1,1133,939,0,0
-84,85,0,0,0,0,0,0,0,0,0,-1,1140,939,0,0
-77,85,0,0,0,0,0,0,0,0,0,-1,1147,939,0,0
-70,85,0,0,0,0,0,0,0,0,0,-1,1154,939,0,0
-63,85,0,0,0,0,0,0,0,0,0,-1,1161,939,0,0
-56,85,0,0,0,0,0,0,0,0,0,-1,1168,939,0,0
-49,85,0,0,0,0,0,0,0,0,0,-1,1175,939,0,0
-42,85,0,0,0,0,0,0,0,0,0,-1,1182,939,0,0
-35,85,0,0,0,0,0,0,0,0,0,-1,1189,939,0,0
-28,85,0,0,0,0,0,0,0,0,0,-1,1196,939,0,0
-21,85,0,0,0,0,0,0,0,0,0,-1,1203,939,0,0
-14,85,0,0,0,0,0,0,0,0,0,-1,1210,939,0,0
-7,85,0,0,0,0,0,0,0,0,0,-1,1217,939,0,0
0,85,0,0,0,0,0,0,0,0,0,-1,1224,939,0,0
7,85,0,0,0,0,0,0,0,0,0,-1,1231,939,0,0
14,85,0,0,0,0,0,0,0,0,0,-1,1238,939,0,0
21,85,0,0,0,0,0,0,0,0,0,-1,1245,939,0,0
28,85,0,0,0,0,0,0,0,0,0,-1,1252,939,0,0
35,85,0,0,0,0,0,0,0,0,0,-1,1259,939,0,0
42,85,0,0,0,0,0,0,0,0,0,-1,1266,939,0,0
49,85,0,0,0,0,0,0,0,0,0,-1,1273,939,0,0
56,85,0,0,0,0,0,0,0,0,0,-1,1280,939,0,0
63,85,0,0,0,0,0,0,0,0,0,-1,1287,939,0,0
70,85,0,0,0,0,0,0,0,0,0,-1,1294,939,0,0
77,85,0,0,0,0,0,0,0,0,0,-1,1301,939,0,0
84,85,0,0,0,0,0,0,0,0,0,-1,1308,939,0,0
91,85,0,0,0,0,0,0,0,0,0,-1,1315,939,0,0
98,85,0,0,0,0,0,0,0,0,0,-1,1322,939,0,0
105,85,0,0,0,0,0,0,0,0,0,-1,1329,939,0,0
112,85,0,0,0,0,0,0,0,0,0,-1,1336,939,0,0
119,85,0,0,0,0,0,0,0,0,0,-1,1343,939,0,0
126,85,0,0,0,0,0,0,0,0,0,-1,1350,939,0,0
133,85,0,0,0,0,0,0,0,0,0,-1,1357,939,0,0
140,85,0,0,0,0,0,0,0,0,0,-1,1364,939,0,0
147,85,0,0,0,0,0,0,0,0,0,-1,1371,939,0,0
154,85,0,0,0,0,0,0,0,0,0,-1,1378,939,0,0
161,85,0,0,0,0,0,0,0,0,0,-1,1385,939,0,0
168,85,0,0,0,0,0,0,0,0,0,-1,1392,939,0,0
175,85,0,0,0,0,0,0,0,0,0,-1,1399,939,0,0
182,85,0,0,0,0,0,0,0,0,0,-1,1406,939,0,0
189,85,0,0,0,0,0,0,0,0,0,-1,1413,939,0,0
196,85,0,0,0,0,0,0,0,0,0,-1,1420,939,0,0
203,85,0,0,0,0,0,0,0,0,0,-1,1427,939,0,0
210,85,0,0,0,0,0,0,0,0,0,-1,1434,939,0,0
217,85,0,0,0,0,0,0,0,0,0,-1,1441,939,0,0
224,85,0,0,0,0,0,0,0,0,0,-1,1448,939,0,0
231,85,0,0,0,0,0,0,0,0,0,-1,1455,939,0,0
238,85,0,0,0,0,0,0,0,0,0,-1,1462,939,0,0
245,85,0,0,0,0,0,0,0,0,0,-1,1469,939,0,0
252,85,0,0,0,0,0,0,0,0,0,-1,1476,939,0,0
259,85,0,0,0,0,0,0,0,0,0,-1,1483,939,0,0
266,85,0,0,0,0,0,0,0,0,0,-1,1490,939,0,0
273,85,0,0,0,0,0,0,0,0,0,-1,1497,939,0,0
280,85,0,0,0,0,0,0,0,0,0,-1,1504,939,0,0
287,85,0,0,0,0,0,0,0,0,0,-1,1511,939,0,0
294,85,0,0,0,0,0,0,0,0,0,-1,1518,939,0,0
301,85,0,0,0,0,0,0,0,0,0,-1,1525,939,0,0
308,85,0,0,0,0,0,0,0,0,0,-1,1532,939,0,0
315,85,0,0,0,0,0,0,0,0,0,-1,1539,939,0,0
322,85,0,0,0,0,0,0,0,0,0,-1,1546,939,0,0
329,85,0,0,0,0,0,0,0,0,0,-1,1553,939,0,0
336,85,0,0,0,0,0,0,0,0,0,-1,1560,939,0,0
343,85,0,0,0,0,0,0,0,0,0,-1,1567,939,0,0
350,85,0,0,0,0,0,0,0,0,0,-1,1574,939,0,0
357,85,0,0,0,0,0,0,0,0,0,-1,1581,939,0,0
364,85,0,0,0,0,0,0,0,0,0,-1,1588,939,0,0
371,85,0,0,0,0,0,0,0,0,0,-1,1595,939,0,0
378,85,0,0,0,0,0,0,0,0,0,-1,1602,939,0,0
385,85,0,0,0,0,0,0,0,0,0,-1,1609,939,0,0
392,85,0,0,0,0,0,0,0,0,0,-1,1616,939,0,0
399,85,0,0,0,0,0,0,0,0,0,-1,1623,939,0,0
406,85,0,0,0,0,0,0,0,0,0,-1,1630,939,0,0
413,85,0,0,0,0,0,0,0,0,0,-1,1637,939,0,0
420,85,0,0,0,0,0,0,0,0,0,-1,1644,939,0,0
427,85,0,0,0,0,0,0,0,0,0,-1,1651,939,0,0
434,85,0,0,0,0,0,0,0,0,0,-1,1658,939,0,0
441,85,0,0,0,0,0,0,0,0,0,-1,1665,939,0,0
448,85,0,0,0,0,0,0,0,0,0,-1,1672,939,0,0
455,85,0,0,0,0,0,0,0,0,0,-1,1679,939,0,0
462,85,0,0,0,0,0,0,0,0,0,-1,1686,939,0,0
469,85,0,0,0,0,0,0,0,0,0,-1,1693,939,0,0
476,85,0,0,0,0,0,0,0,0,0,-1,1700,939,0,0
483,85,0,0,0,0,0,0,0,0,0,-1,1707,939,0,0
490,85,0,0,0,0,0,0,0,0,0,-1,1714,939,0,0
497,85,0,0,0,0,0,0,0,0,0,-1,1721,939,0,0
504,85,0,0,0,0,0,0,0,0,0,-1,1728,939,0,0
511,85,0,0,0,0,0,0,0,0,0,-1,1735,939,0,0
518,85,0,0,0,0,0,0,0,0,0,-1,1742,939,0,0
525,85,0,0,0,0,0,0,0,0,0,-1,1749,939,0,0
532,85,0,0,0,0,0,0,0,0,0,-1,1756,939,0,0
539,85,0,0,0,0,0,0,0,0,0,-1,1763,939,0,0
546,85,0,0,0,0,0,0,0,0,0,-1,1770,939,0,0
553,85,0,0,0,0,0,0,0,0,0,-1,1777,939,0,0
560,85,0,0,0,0,0,0,0,0,0,-1,1784,939,0,0
567,85,0,0,0,0,0,0,0,0,0,-1,1791,939,0,0
574,85,0,0,0,0,0,0,0,0,0,-1,1798,939,0,0
581,85,0,0,0,0,0,0,0,0,0,-1,1805,939,0,0
588,85,0,0,0,0,0,0,0,0,0,-1,1812,939,0,0
595,85,0,0,0,0,0,0,0,0,0,-1,1819,939,0,0
602,85,0,0,0,0,0,0,0,0,0,-1,1826,939,0,0
609,85,0,0,0,0,0,0,0,0,0,-1,1833,939,0,0
616,85,0,0,0,0,0,0,0,0,0,-1,1840,939,0,0
623,85,0,0,0,0,0,0,0,0,0,-1,1847,939,0,0
630,85,0,0,0,0,0,0,0,0,0,-1,1854,939,0,0
637,85,43.7791,3.26941,0,0,0,0,0,0,0,-1,1861,939,43.7791,-3.26943
644,85,43.6581,2.89178,0.000514867,0.00371483,-0.00359934,0.00605378,-0.00182408,-0.994542,0.0047618,0.0416138,1868,939,43.6581,-2.89179
651,85,43.491,2.78259,0.000432116,0.00356712,-0.00237907,0.00484866,-0.000849428,-1.07669,0.00354962,0.0411509,1875,939,43.491,-2.78259
658,85,43.3466,3.09521,0.000161593,0.0034662,-0.00129239,0.00391161,-0.000283813,-1.23891,0.00270731,0.044212,1882,939,43.3466,-3.09523
665,85,43.6039,2.90112,-5.68962e-05,0.00322984,-0.000374338,0.00327194,-9.89916e-05,-1.45881,0.00221502,0.0425153,1889,939,43.6038,-2.90111
672,85,43.8142,2.74908,-0.00028898,0.00274395,0.000309917,0.00277529,-0.000320325,1.47,0.00196569,0.0425947,1896,939,43.8142,-2.74907
679,85,43.7953,2.68549,-0.000426968,0.00211116,0.00074876,0.00231558,-0.000631391,1.30428,0.00179166,0.0423716,1903,939,43.7953,-2.68549
686,85,43.6278,2.81683,-0.000417533,0.00145931,0.000886517,0.00181183,-0.00077006,1.19231,0.00153057,0.0372322,1910,939,43.6278,-2.81685
693,85,43.5826,2.92389,-0.00041742,0.000866677,0.000889965,0.00132202,-0.000872762,1.09788,0.00127598,0.0305553,1917,939,43.5827,-2.92392
700,85,43.5918,2.94934,-0.000540405,0.000727903,0.000825549,0.00113475,-0.000947252,1.11291,0.00120367,0.0423472,1924,939,43.5919,-2.94932
707,85,43.672,3.03705,0,0,0,0,0,0,0,-1,1931,939,43.672,-3.03706
714,85,40.9727,4.05579,0,0,0,0,0,0,0,-1,1938,939,40.9726,-4.05578
721,85,40.916,4.49469,-0.0012112,0.000852333,-0.000199915,0.000871522,-0.00123038,-1.4751,0.00121942,0.0289377,1945,939,40.9161,-4.49472
728,85,40.8195,4.95215,-0.000827038,0.00119492,-0.000582824,0.00135089,-0.000983004,-1.30932,0.00135304,0.024108,1952,939,40.8195,-4.95217
735,85,40.834,5.25214,7.90835e-05,0.0017074,-0.00139157,0.00250548,-0.000718998,-1.05008,0.00195457,0.0223799,1959,939,40.8339,-5.25212
742,85,40.9011,5.55859,0.00126229,0.0022599,-0.00225165,0.00406734,-0.000545146,-0.894401,0.00291034,0.0168775,1966,939,40.9011,-5.55861
749,85,40.826,5.909,0.00297274,0.0033143,-0.00373321,0.00688063,-0.000593591,-0.808255,0.00479721,0.0137202,1973,939,40.8261,-5.90902
756,85,40.731,6.22736,0.00602669,0.00416707,-0.00626802,0.0114335,-0.00123973,-0.711764,0.00806739,0.0131595,1980,939,40.7309,-6.22734
763,85,40.7201,6.54309,0.0100524,0.00482228,-0.00902409,0.0168327,-0.00195801,-0.644367,0.0119282,0.0139315,1987,939,40.7201,-6.54308
770,85,40.7041,6.88129,0.0150767,0.00490067,-0.0125862,0.0235644,-0.003587,-0.593313,0.0170316,0.0200105,1994,939,40.7041,-6.88129
777,85,40.7224,7.18939,0.021079,0.00421845,-0.017313,0.0319051,-0.00660766,-0.558828,0.0237806,0.0418293,2001,939,40.7224,-7.18937
784,85,40.7925,7.50201,0,0,0,0,0,0,0,-1,2008,939,40.7924,-7.50199
791,85,41.9216,7.88989,0,0,0,0,0,0,0,-1,2015,939,41.9216,-7.88989
798,85,42.2102,8.28998,0,0,0,0,0,0,0,-1,2022,939,42.2101,-8.28999
805,85,41.1609,3.92401,0,0,0,0,0,0,0,-1,2029,939,41.1608,-3.92401
812,85,0,0,0,0,0,0,0,0,0,-1,2036,939,0,0
-700,78,0,0,0,0,0,0,0,0,0,-1,524,946,0,0
-693,78,0,0,0,0,0,0,0,0,0,-1,531,946,0,0
-686,78,-26.9595,3.64667,0,0,0,0,0,0,0,-1,538,946,-26.9595,-3.64668
-679,78,-27.4948,3.15192,0,0,0,0,0,0,0,-1,545,946,-27.4948,-3.15191
-672,78,-28.1544,3.34308,0,0,0,0,0,0,0,-1,552,946,-28.1544,-3.34307
-665,78,-27.3915,4.31091,0,0,0,0,0,0,0,-1,559,946,-27.3916,-4.3109
-658,78,-29.2239,5.00153,0,0,0,0,0,0,0,-1,566,946,-29.2239,-5.0015
-651,78,-29.7643,4.64435,-0.048817,0.0297632,0.0335103,0.0421128,-0.0611666,1.21771,0.0599657,0.0456781,573,946,-29.7643,-4.64438
-644,78,-30.2998,4.29004,-0.0369421,0.0234188,0.0247382,0.0322619,-0.0457852,1.22749,0.0452854,0.0286459,580,946,-30.2998,-4.29005
-637,78,-30.5094,3.99323,-0.027117,0.0177635,0.0180039,0.0240931,-0.0334466,1.23272,0.0333665,0.0151924,587,946,-30.5094,-3.99325
-630,78,-30.6114,3.69873,-0.0195622,0.0131887,0.0127269,0.0175528,-0.0239263,1.24046,0.024042,0.0138615,594,946,-30.6114,-3.6987
-623,78,-30.6462,3.40918,-0.0146143,0.00940468,0.0084916,0.0121035,-0.0173131,1.26307,0.0170723,0.0133978,601,946,-30.6462,-3.40917
-616,78,-30.6561,3.12415,-0.0116897,0.00652646,0.0051696,0.00789129,-0.0130546,1.31268,0.012215,0.0111658,608,946,-30.6561,-3.12412
-609,78,-30.6486,2.85144,-0.00993996,0.00439437,0.00260978,0.00485474,-0.0104003,1.39619,0.00899941,0.0107682,615,946,-30.6486,-2.85142
-602,78,-30.6656,2.5484,-0.00936732,0.00309236,0.000910574,0.00315855,-0.00943351,1.49823,0.00756495,0.0154305,622,946,-30.6656,-2.5484
-595,78,-30.6124,2.22601,-0.00912178,0.0022057,-0.000103911,0.00220665,-0.00912274,-1.56162,0.0069354,0.0156919,629,946,-30.6124,-2.22599
-588,78,-30.5863,1.99017,-0.00880134,0.00178751,-0.000877652,0.00185976,-0.00887359,-1.48866,0.00662326,0.0135666,636,946,-30.5863,-1.9902
-581,78,-30.7111,1.70721,-0.00880614,0.00160611,-0.0013792,0.0017857,-0.00898573,-1.44131,0.00666593,0.030239,643,946,-30.7111,-1.70724
-574,78,-31.3998,1.35022,-0.00886252,0.00162354,-0.00167467,0.0018845,-0.00912347,-1.41621,0.00679811,0.0383935,650,946,-31.3998,-1.35019
-567,78,-32.114,1.00061,-0.00862285,0.00174385,-0.00194149,0.00209553,-0.00897452,-1.3916,0.00679018,0.0331462,657,946,-32.114,-1.00058
-560,78,-32.1016,1.12677,-0.00802745,0.00192855,-0.00218813,0.00238823,-0.00848713,-1.36373,0.0065998,0.0346637,664,946,-32.1016,-1.12677
-553,78,-32.0927,1.17157,-0.00677289,0.00210285,-0.00238511,0.00270317,-0.00737321,-1.32422,0.00602227,0.0434788,671,946,-32.0927,-1.17156
-546,78,-32.1132,1.12024,-0.00474015,0.00219472,-0.00253498,0.00302254,-0.00556797,-1.25515,0.00503179,0.0427524,678,946,-32.1132,-1.12026
-539,78,-32.1045,1.11053,-0.0018508,0.00207531,-0.00263687,0.00339961,-0.00317509,-1.10537,0.00379664,0.0396115,685,946,-32.1045,-1.11054
-532,78,-32.0954,0.960388,0.00186393,0.00160645,-0.00287456,0.00461263,-0.00114226,-0.76302,0.0035182,0.0393162,692,946,-32.0954,-0.960374
-525,78,-32.0572,0.87207,0.00483618,0.0013161,-0.0036999,0.00717333,-0.00102106,-0.563388,0.00515638,0.0363865,699,946,-32.0572,-0.872046
-518,78,-31.9783,1.01367,0.00417046,0.0011576,-0.00415448,0.00708319,-0.00175513,-0.611469,0.00540305,0.0390986,706,946,-31.9783,-1.0137
-511,78,0,0,0,0,0,0,0,0,0,-1,713,946,0,0
-504,78,0,0,0,0,0,0,0,0,0,-1,720,946,0,0
-497,78,0,0,0,0,0,0,0,0,0,-1,727,946,0,0
-490,78,0,0,0,0,0,0,0,0,0,-1,734,946,0,0
-483,78,0,0,0,0,0,0,0,0,0,-1,741,946,0,0
-476,78,0,0,0,0,0,0,0,0,0,-1,748,946,0,0
-469,78,0,0,0,0,0,0,0,0,0,-1,755,946,0,0
-462,78,0,0,0,0,0,0,0,0,0,-1,762,946,0,0
-455,78,0,0,0,0,0,0,0,0,0,-1,769,946,0,0
-448,78,0,0,0,0,0,0,0,0,0,-1,776,946,0,0
-441,78,0,0,0,0,0,0,0,0,0,-1,783,946,0,0
-434,78,0,0,0,0,0,0,0,0,0,-1,790,946,0,0
-427,78,0,0,0,0,0,0,0,0,0,-1,797,946,0,0
-420,78,0,0,0,0,0,0,0,0,0,-1,804,946,0,0
-413,78,0,0,0,0,0,0,0,0,0,-1,811,946,0,0
-406,78,0,0,0,0,0,0,0,0,0,-1,818,946,0,0
-399,78,0,0,0,0,0,0,0,0,0,-1,825,946,0,0
-392,78,0,0,0,0,0,0,0,0,0,-1,832,946,0,0
-385,78,0,0,0,0,0,0,0,0,0,-1,839,946,0,0
-378,78,0,0,0,0,0,0,0,0,0,-1,846,946,0,0
-371,78,0,0,0,0,0,0,0,0,0,-1,853,946,0,0
-364,78,0,0,0,0,0,0,0,0,0,-1,860,946,0,0
-357,78,0,0,0,0,0,0,0,0,0,-1,867,946,0,0
-350,78,0,0,0,0,0,0,0,0,0,-1,874,946,0,0
-343,78,0,0,0,0,0,0,0,0,0,-1,881,946,0,0
-336,78,0,0,0,0,0,0,0,0,0,-1,888,946,0,0
-329,78,0,0,0,0,0,0,0,0,0,-1,895,946,0,0
-322,78,0,0,0,0,0,0,0,0,0,-1,902,946,0,0
-315,78,0,0,0,0,0,0,0,0,0,-1,909,946,0,0
-308,78,0,0,0,0,0,0,0,0,0,-1,916,946,0,0
-301,78,0,0,0,0,0,0,0,0,0,-1,923,946,0,0
-294,78,0,0,0,0,0,0,0,0,0,-1,930,946,0,0
-287,78,0,0,0,0,0,0,0,0,0,-1,937,946,0,0
-280,78,0,0,0,0,0,0,0,0,0,-1,944,946,0,0
-273,78,0,0,0,0,0,0,0,0,0,-1,951,946,0,0
-266,78,0,0,0,0,0,0,0,0,0,-1,958,946,0,0
-259,78,0,0,0,0,0,0,0,0,0,-1,965,946,0,0
-252,78,0,0,0,0,0,0,0,0,0,-1,972,946,0,0
-245,78,0,0,0,0,0,0,0,0,0,-1,979,946,0,0
-238,78,0,0,0,0,0,0,0,0,0,-1,986,946,0,0
-231,78,0,0,0,0,0,0,0,0,0,-1,993,946,0,0
-224,78,0,0,0,0,0,0,0,0,0,-1,1000,946,0,0
-217,78,0,0,0,0,0,0,0,0,0,-1,1007,946,0,0
-210,78,0,0,0,0,0,0,0,0,0,-1,1014,946,0,0
-203,78,0,0,0,0,0,0,0,0,0,-1,1021,946,0,0
-196,78,0,0,0,0,0,0,0,0,0,-1,1028,946,0,0
-189,78,0,0,0,0,0,0,0,0,0,-1,1035,946,0,0
-182,78,0,0,0,0,0,0,0,0,0,-1,1042,946,0,0
-175,78,0,0,0,0,0,0,0,0,0,-1,1049,946,0,0
-168,78,0,0,0,0,0,0,0,0,0,-1,1056,946,0,0
-161,78,0,0,0,0,0,0,0,0,0,-1,1063,946,0,0
-154,78,0,0,0,0,0,0,0,0,0,-1,1070,946,0,0
-147,78,0,0,0,0,0,0,0,0,0,-1,1077,946,0,0
-140,78,0,0,0,0,0,0,0,0,0,-1,1084,946,0,0
-133,78,0,0,0,0,0,0,0,0,0,-1,1091,946,0,0
-126,78,0,0,0,0,0,0,0,0,0,-1,1098,946,0,0
-119,78,0,0,0,0,0,0,0,0,0,-1,1105,946,0,0
-112,78,0,0,0,0,0,0,0,0,0,-1,1112,946,0,0
-105,78,0,0,0,0,0,0,0,0,0,-1,1119,946,0,0
-98,78,0,0,0,0,0,0,0,0,0,-1,1126,946,0,0
-91,78,0,0,0,0,0,0,0,0,0,-1,1133,946,0,0
-84,78,0,0,0,0,0,0,0,0,0,-1,1140,946,0,0
-77,78,0,0,0,0,0,0,0,0,0,-1,1147,946,0,0
-70,78,0,0,0,0,0,0,0,0,0,-1,1154,946,0,0
-63,78,0,0,0,0,0,0,0,0,0,-1,1161,946,0,0
-56,78,0,0,0,0,0,0,0,0,0,-1,1168,946,0,0
-49,78,0,0,0,0,0,0,0,0,0,-1,1175,946,0,0
-42,78,0,0,0,0,0,0,0,0,0,-1,1182,946,0,0
-35,78,0,0,0,0,0,0,0,0,0,-1,1189,946,0,0
-28,78,0,0,0,0,0,0,0,0,0,-1,1196,946,0,0
-21,78,0,0,0,0,0,0,0,0,0,-1,1203,946,0,0
-14,78,0,0,0,0,0,0,0,0,0,-1,1210,946,0,0
-7,78,0,0,0,0,0,0,0,0,0,-1,1217,946,0,0
0,78,0,0,0,0,0,0,0,0,0,-1,1224,946,0,0
7,78,0,0,0,0,0,0,0,0,0,-1,1231,946,0,0
14,78,0,0,0,0,0,0,0,0,0,-1,1238,946,0,0
21,78,0,0,0,0,0,0,0,0,0,-1,1245,946,0,0
28,78,0,0,0,0,0,0,0,0,0,-1,1252,946,0,0
35,78,0,0,0,0,0,0,0,0,0,-1,1259,946,0,0
42,78,0,0,0,0,0,0,0,0,0,-1,1266,946,0,0
49,78,0,0,0,0,0,0,0,0,0,-1,1273,946,0,0
56,78,0,0,0,0,0,0,0,0,0,-1,1280,946,0,0
63,78,0,0,0,0,0,0,0,0,0,-1,1287,946,0,0
70,78,0,0,0,0,0,0,0,0,0,-1,1294,946,0,0
77,78,0,0,0,0,0,0,0,0,0,-1,1301,946,0,0
84,78,0,0,0,0,0,0,0,0,0,-1,1308,946,0,0
91,78,0,0,0,0,0,0,0,0,0,-1,1315,946,0,0
98,78,0,0,0,0,0,0,0,0,0,-1,1322,946,0,0
105,78,0,0,0,0,0,0,0,0,0,-1,1329,946,0,0
112,78,0,0,0,0,0,0,0,0,0,-1,1336,946,0,0
119,78,0,0,0,0,0,0,0,0,0,-1,1343,946,0,0
126,78,0,0,0,0,0,0,0,0,0,-1,1350,946,0,0
133,78,0,0,0,0,0,0,0,0,0,-1,1357,946,0,0
140,78,0,0,0,0,0,0,0,0,0,-1,1364,946,0,0
147,78,0,0,0,0,0,0,0,0,0,-1,1371,946,0,0
154,78,0,0,0,0,0,0,0,0,0,-1,1378,946,0,0
161,78,0,0,0,0,0,0,0,0,0,-1,1385,946,0,0
168,78,0,0,0,0,0,0,0,0,0,-1,1392,946,0,0
175,78,0,0,0,0,0,0,0,0,0,-1,1399,946,0,0
182,78,0,0,0,0,0,0,0,0,0,-1,1406,946,0,0
189,78,0,0,0,0,0,0,0,0,0,-1,1413,946,0,0
196,78,0,0,0,0,0,0,0,0,0,-1,1420,946,0,0
203,78,0,0,0,0,0,0,0,0,0,-1,1427,946,0,0
210,78,0,0,0,0,0,0,0,0,0,-1,1434,946,0,0
217,78,0,0,0,0,0,0,0,0,0,-1,1441,946,0,0
224,78,0,0,0,0,0,0,0,0,0,-1,1448,946,0,0
231,78,0,0,0,0,0,0,0,0,0,-1,1455,946,0,0
238,78,0,0,0,0,0,0,0,0,0,-1,1462,946,0,0
245,78,0,0,0,0,0,0,0,0,0,-1,1469,946,0,0
252,78,0,0,0,0,0,0,0,0,0,-1,1476,946,0,0
259,78,0,0,0,0,0,0,0,0,0,-1,1483,946,0,0
266,78,0,0,0,0,0,0,0,0,0,-1,1490,946,0,0
273,78,0,0,0,0,0,0,0,0,0,-1,1497,946,0,0
280,78,0,0,0,0,0,0,0,0,0,-1,1504,946,0,0
287,78,0,0,0,0,0,0,0,0,0,-1,1511,946,0,0
294,78,0,0,0,0,0,0,0,0,0,-1,1518,946,0,0
301,78,0,0,0,0,0,0,0,0,0,-1,1525,946,0,0
308,78,0,0,0,0,0,0,0,0,0,-1,1532,946,0,0
315,78,0,0,0,0,0,0,0,0,0,-1,1539,946,0,0
322,78,0,0,0,0,0,0,0,0,0,-1,1546,946,0,0
329,78,0,0,0,0,0,0,0,0,0,-1,1553,946,0,0
336,78,0,0,0,0,0,0,0,0,0,-1,1560,946,0,0
343,78,0,0,0,0,0,0,0,0,0,-1,1567,946,0,0
350,78,0,0,0,0,0,0,0,0,0,-1,1574,946,0,0
357,78,0,0,0,0,0,0,0,0,0,-1,1581,946,0,0
364,78,0,0,0,0,0,0,0,0,0,-1,1588,946,0,0
371,78,0,0,0,0,0,0,0,0,0,-1,1595,946,0,0
378,78,0,0,0,0,0,0,0,0,0,-1,1602,946,0,0
385,78,0,0,0,0,0,0,0,0,0,-1,1609,946,0,0
392,78,0,0,0,0,0,0,0,0,0,-1,1616,946,0,0
399,78,0,0,0,0,0,0,0,0,0,-1,1623,946,0,0
406,78,0,0,0,0,0,0,0,0,0,-1,1630,946,0,0
413,78,0,0,0,0,0,0,0,0,0,-1,1637,946,0,0
420,78,0,0,0,0,0,0,0,0,0,-1,1644,946,0,0
427,78,0,0,0,0,0,0,0,0,0,-1,1651,946,0,0
434,78,0,0,0,0,0,0,0,0,0,-1,1658,946,0,0
441,78,0,0,0,0,0,0,0,0,0,-1,1665,946,0,0
448,78,0,0,0,0,0,0,0,0,0,-1,1672,946,0,0
455,78,0,0,0,0,0,0,0,0,0,-1,1679,946,0,0
462,78,0,0,0,0,0,0,0,0,0,-1,1686,946,0,0
469,78,0,0,0,0,0,0,0,0,0,-1,1693,946,0,0
476,78,0,0,0,0,0,0,0,0,0,-1,1700,946,0,0
483,78,0,0,0,0,0,0,0,0,0,-1,1707,946,0,0
490,78,0,0,0,0,0,0,0,0,0,-1,1714,946,0,0
497,78,0,0,0,0,0,0,0,0,0,-1,1721,946,0,0
504,78,0,0,0,0,0,0,0,0,0,-1,1728,946,0,0
511,78,0,0,0,0,0,0,0,0,0,-1,1735,946,0,0
518,78,0,0,0,0,0,0,0,0,0,-1,1742,946,0,0
525,78,0,0,0,0,0,0,0,0,0,-1,1749,946,0,0
532,78,0,0,0,0,0,0,0,0,0,-1,1756,946,0,0
539,78,0,0,0,0,0,0,0,0,0,-1,1763,946,0,0
546,78,0,0,0,0,0,0,0,0,0,-1,1770,946,0,0
553,78,0,0,0,0,0,0,0,0,0,-1,1777,946,0,0
560,78,0,0,0,0,0,0,0,0,0,-1,1784,946,0,0
567,78,0,0,0,0,0,0,0,0,0,-1,1791,946,0,0
574,78,0,0,0,0,0,0,0,0,0,-1,1798,946,0,0
581,78,0,0,0,0,0,0,0,0,0,-1,1805,946,0,0
588,78,0,0,0,0,0,0,0,0,0,-1,1812,946,0,0
595,78,0,0,0,0,0,0,0,0,0,-1,1819,946,0,0
602,78,0,0,0,0,0,0,0,0,0,-1,1826,946,0,0
609,78,0,0,0,0,0,0,0,0,0,-1,1833,946,0,0
616,78,0,0,0,0,0,0,0,0,0,-1,1840,946,0,0
623,78,0,0,0,0,0,0,0,0,0,-1,1847,946,0,0
630,78,0,0,0,0,0,0,0,0,0,-1,1854,946,0,0
637,78,43.5548,3.31317,7.91539e-05,0.00380211,-0.00555397,0.00779825,-0.00391699,-0.947096,0.00688642,0.0491504,1861,946,43.5548,-3.3132
644,78,43.6371,2.84717,0.000561842,0.00357436,-0.00406688,0.00640496,-0.00226876,-0.962752,0.00519411,0.0410516,1868,946,43.6371,-2.84714
651,78,43.5042,2.68542,0.000617531,0.00322758,-0.00277245,0.00498679,-0.00114168,-1.00537,0.00376326,0.039579,1875,946,43.5042,-2.68545
658,78,43.5591,2.75385,0.000399814,0.0030703,-0.00159651,0.00381634,-0.000346223,-1.13366,0.00266714,0.0389027,1882,946,43.5591,-2.75381
665,78,43.6659,2.73596,0.000135839,0.00286101,-0.000541613,0.00296471,3.21422e-05,-1.38163,0.00196584,0.0396463,1889,946,43.6659,-2.73597
672,78,43.7334,2.69739,-0.000203619,0.00242916,0.000288599,0.00246043,-0.000234883,1.46289,0.00172392,0.0402909,1896,946,43.7335,-2.6974
679,78,43.8079,2.61847,-0.000457011,0.0018199,0.000837591,0.00209483,-0.000731934,1.25365,0.00169408,0.0401157,1903,946,43.8079,-2.61849
686,78,43.6438,2.59039,-0.000533582,0.00119213,0.00103981,0.00168047,-0.00102192,1.13173,0.00157559,0.0382505,1910,946,43.6437,-2.59039
693,78,43.5471,2.79041,-0.000608713,0.000601032,0.00107519,0.00122981,-0.00123749,1.04162,0.0014245,0.0316885,1917,946,43.5472,-2.79041
700,78,43.5499,2.85651,-0.000777307,0.000476847,0.0010534,0.00107568,-0.00137614,1.05387,0.0014191,0.0304272,1924,946,43.5499,-2.85652
707,78,43.6229,2.97052,0,0,0,0,0,0,0,-1,1931,946,43.6229,-2.97052
714,78,41.1395,4.30096,0,0,0,0,0,0,0,-1,1938,946,41.1395,-4.30098
721,78,41.1785,4.60876,-0.00193913,0.000716805,9.39997e-05,0.000720128,-0.00194246,1.53546,0.00159032,0.0289131,1945,946,41.1785,-4.60879
728,78,41.2096,5.00598,-0.00163566,0.00105985,-0.00026457,0.00108558,-0.00166138,-1.47388,0.00159753,0.0279517,1952,946,41.2097,-5.00597
735,78,41.2411,5.29102,-0.000835062,0.00154804,-0.00106946,0.00195759,-0.00124461,-1.20507,0.00186401,0.0201737,1959,946,41.2411,-5.291
742,78,41.269,5.57916,0.000156263,0.00191757,-0.0019724,0.00319699,-0.00112315,-0.995364,0.00258826,0.0165029,1966,946,41.269,-5.57916
749,78,41.1785,5.89209,0.00160746,0.00280582,-0.00350075,0.0057583,-0.00134502,-0.870155,0.00435697,0.0139216,1973,946,41.1784,-5.89209
756,78,41.1206,6.15942,0.00436439,0.00340967,-0.00608586,0.00999159,-0.00221753,-0.746259,0.00751017,0.0147572,1980,946,41.1206,-6.15944
763,78,41.0679,6.45624,0.00822224,0.00371411,-0.00907549,0.0153194,-0.00338304,-0.663677,0.0115076,0.0158694,1987,946,41.0678,-6.45622
770,78,41.0221,6.74152,0.0132662,0.00336837,-0.0130319,0.0222572,-0.00562267,-0.603932,0.0170247,0.0216679,1994,946,41.0221,-6.7415
777,78,41.0721,7.08783,0.0195182,0.00219043,-0.0183453,0.0311426,-0.00943398,-0.564791,0.024519,0.0437285,2001,946,41.0722,-7.08783
784,78,41.1838,7.4469,0,0,0,0,0,0,0,-1,2008,946,41.1838,-7.44691
791,78,41.425,5.63495,0,0,0,0,0,0,0,-1,2015,946,41.425,-5.63497
798,78,41.5884,4.55652,0.0478138,-0.00819274,-0.0491501,0.0763783,-0.0367573,-0.526458,0.0666407,0.0448974,2022,946,41.5883,-4.55651
805,78,41.9668,3.42181,0.0596265,-0.0140446,-0.0676105,0.0997847,-0.0542027,-0.535969,0.0901937,0.0477624,2029,946,41.9668,-3.42179
812,78,0,0,0,0,0,0,0,0,0,-1,2036,946,0,0
-700,71,0,0,0,0,0,0,0,0,0,-1,524,953,0,0
-693,71,0,0,0,0,0,0,0,0,0,-1,531,953,0,0
-686,71,-27.0175,3.44891,0,0,0,0,0,0,0,-1,538,953,-27.0176,-3.44891
-679,71,-27.4081,3.29773,0,0,0,0,0,0,0,-1,545,953,-27.4081,-3.29774
-672,71,-28.1392,3.99402,0,0,0,0,0,0,0,-1,552,953,-28.1392,-3.99405
-665,71,-28.6236,3.95441,-0.0754091,0.0420645,0.055741,0.0643035,-0.0976481,1.19118,0.0941611,0.0454969,559,953,-28.6236,-3.95439
-658,71,-29.1667,4.06396,-0.0605785,0.0360026,0.0443931,0.0533072,-0.0778831,1.19911,0.0761845,0.0456543,566,953,-29.1667,-4.06398
-651,71,-30.1857,4.70538,-0.0472903,0.0299148,0.0341648,0.0428622,-0.0602377,1.20855,0.0598058,0.046654,573,953,-30.1857,-4.70536
-644,71,-30.5911,4.30811,-0.0359635,0.0240315,0.0256172,0.0334813,-0.0454133,1.2174,0.0457231,0.0343423,580,953,-30.5911,-4.30813
-637,71,-30.842,3.93896,-0.0264696,0.0186057,0.0186614,0.0253289,-0.0331928,1.225,0.033889,0.0157299,587,953,-30.8421,-3.93897
-630,71,-30.9223,3.65161,-0.0190943,0.0140878,0.0130655,0.0186148,-0.0236213,1.23726,0.0244421,0.0146315,594,953,-30.9223,-3.65161
-623,71,-30.9544,3.38043,-0.014231,0.0102007,0.00849191,0.0128623,-0.0168926,1.26706,0.0172314,0.0147563,601,953,-30.9544,-3.38044
-616,71,-30.9655,3.08478,-0.0113869,0.00719545,0.00484889,0.00838462,-0.012576,1.3303,0.012182,0.0140242,608,953,-30.9655,-3.08479
-609,71,-30.943,2.85046,-0.0095401,0.00490708,0.00199041,0.00517628,-0.00980931,1.43636,0.00878868,0.0140721,615,953,-30.943,-2.85048
-602,71,-30.9114,2.58649,-0.00881497,0.00340967,4.28068e-05,0.00340982,-0.00881512,1.56729,0.00728442,0.016906,622,953,-30.9114,-2.58651
-595,71,-30.9296,2.3161,-0.00844749,0.00236036,-0.00112868,0.00247697,-0.0085641,-1.46785,0.0066897,0.0178675,629,953,-30.9296,-2.31612
-588,71,-30.9078,2.10663,-0.00809783,0.00179736,-0.00199178,0.00218324,-0.0084837,-1.37943,0.0065068,0.019926,636,953,-30.9079,-2.10664
-581,71,-31.129,1.65656,-0.00808541,0.00153462,-0.00249682,0.00214404,-0.00869484,-1.3314,0.00662786,0.0361024,643,953,-31.129,-1.65655
-574,71,-31.837,1.23071,-0.00810107,0.00142553,-0.00275133,0.00216303,-0.00883858,-1.3089,0.00673027,0.0417934,650,953,-31.837,-1.23068
-567,71,-32.123,0.958801,-0.0077923,0.00150525,-0.00294898,0.00236171,-0.00864876,-1.28815,0.00669343,0.0208978,657,953,-32.1231,-0.958831
-560,71,-32.1652,1.0542,-0.00710501,0.00161931,-0.00304966,0.00257964,-0.00806534,-1.26573,0.00641214,0.0285658,664,953,-32.1652,-1.05419
-553,71,-32.1893,1.14868,-0.00574334,0.00171873,-0.00306614,0.00281697,-0.00684158,-1.22685,0.00573546,0.0401496,671,953,-32.1893,-1.1487
-546,71,-32.1843,1.22754,-0.00363707,0.00171593,-0.00300307,0.00306213,-0.00498327,-1.14938,0.00468895,0.0412972,678,953,-32.1843,-1.22752
-539,71,-32.1093,1.09125,-0.000756779,0.0014869,-0.00288861,0.00346387,-0.00273375,-0.970616,0.00358646,0.0410178,685,953,-32.1093,-1.09126
-532,71,-32.084,0.825562,0.00282656,0.000952287,-0.00301463,0.00504635,-0.00126751,-0.634702,0.0038568,0.0438308,692,953,-32.0841,-0.825587
-525,71,-32.1158,0.72113,0.00547001,0.000635116,-0.003991,0.00771863,-0.0016135,-0.513089,0.00575942,0.0416952,699,953,-32.1158,-0.721151
-518,71,0,0,0,0,0,0,0,0,0,-1,706,953,0,0
-511,71,0,0,0,0,0,0,0,0,0,-1,713,953,0,0
-504,71,0,0,0,0,0,0,0,0,0,-1,720,953,0,0
-497,71,0,0,0,0,0,0,0,0,0,-1,727,953,0,0
-490,71,0,0,0,0,0,0,0,0,0,-1,734,953,0,0
-483,71,0,0,0,0,0,0,0,0,0,-1,741,953,0,0
-476,71,0,0,0,0,0,0,0,0,0,-1,748,953,0,0
-469,71,0,0,0,0,0,0,0,0,0,-1,755,953,0,0
-462,71,0,0,0,0,0,0,0,0,0,-1,762,953,0,0
-455,71,0,0,0,0,0,0,0,0,0,-1,769,953,0,0
-448,71,0,0,0,0,0,0,0,0,0,-1,776,953,0,0
-441,71,0,0,0,0,0,0,0,0,0,-1,783,953,0,0
-434,71,0,0,0,0,0,0,0,0,0,-1,790,953,0,0
-427,71,0,0,0,0,0,0,0,0,0,-1,797,953,0,0
-420,71,0,0,0,0,0,0,0,0,0,-1,804,953,0,0
-413,71,0,0,0,0,0,0,0,0,0,-1,811,953,0,0
-406,71,0,0,0,0,0,0,0,0,0,-1,818,953,0,0
-399,71,0,0,0,0,0,0,0,0,0,-1,825,953,0,0
-392,71,0,0,0,0,0,0,0,0,0,-1,832,953,0,0
-385,71,0,0,0,0,0,0,0,0,0,-1,839,953,0,0
-378,71,0,0,0,0,0,0,0,0,0,-1,846,953,0,0
-371,71,0,0,0,0,0,0,0,0,0,-1,853,953,0,0
-364,71,0,0,0,0,0,0,0,0,0,-1,860,953,0,0
-357,71,0,0,0,0,0,0,0,0,0,-1,867,953,0,0
-350,71,0,0,0,0,0,0,0,0,0,-1,874,953,0,0
-343,71,0,0,0,0,0,0,0,0,0,-1,881,953,0,0
-336,71,0,0,0,0,0,0,0,0,0,-1,888,953,0,0
-329,71,0,0,0,0,0,0,0,0,0,-1,895,953,0,0
-322,71,0,0,0,0,0,0,0,0,0,-1,902,953,0,0
-315,71,0,0,0,0,0,0,0,0,0,-1,909,953,0,0
-308,71,0,0,0,0,0,0,0,0,0,-1,916,953,0,0
-301,71,0,0,0,0,0,0,0,0,0,-1,923,953,0,0
-294,71,0,0,0,0,0,0,0,0,0,-1,930,953,0,0
-287,71,0,0,0,0,0,0,0,0,0,-1,937,953,0,0
-280,71,0,0,0,0,0,0,0,0,0,-1,944,953,0,0
-273,71,0,0,0,0,0,0,0,0,0,-1,951,953,0,0
-266,71,0,0,0,0,0,0,0,0,0,-1,958,953,0,0
-259,71,0,0,0,0,0,0,0,0,0,-1,965,953,0,0
-252,71,0,0,0,0,0,0,0,0,0,-1,972,953,0,0
-245,71,0,0,0,0,0,0,0,0,0,-1,979,953,0,0
-238,71,0,0,0,0,0,0,0,0,0,-1,986,953,0,0
-231,71,0,0,0,0,0,0,0,0,0,-1,993,953,0,0
-224,71,0,0,0,0,0,0,0,0,0,-1,1000,953,0,0
-217,71,0,0,0,0,0,0,0,0,0,-1,1007,953,0,0
-210,71,0,0,0,0,0,0,0,0,0,-1,1014,953,0,0
-203,71,0,0,0,0,0,0,0,0,0,-1,1021,953,0,0
-196,71,0,0,0,0,0,0,0,0,0,-1,1028,953,0,0
-189,71,0,0,0,0,0,0,0,0,0,-1,1035,953,0,0
-182,71,0,0,0,0,0,0,0,0,0,-1,1042,953,0,0
-175,71,0,0,0,0,0,0,0,0,0,-1,1049,953,0,0
-168,71,0,0,0,0,0,0,0,0,0,-1,1056,953,0,0
-161,71,0,0,0,0,0,0,0,0,0,-1,1063,953,0,0
-154,71,0,0,0,0,0,0,0,0,0,-1,1070,953,0,0
-147,71,0,0,0,0,0,0,0,0,0,-1,1077,953,0,0
-140,71,0,0,0,0,0,0,0,0,0,-1,1084,953,0,0
-133,71,0,0,0,0,0,0,0,0,0,-1,1091,953,0,0
-126,71,0,0,0,0,0,0,0,0,0,-1,1098,953,0,0
-119,71,0,0,0,0,0,0,0,0,0,-1,1105,953,0,0
-112,71,0,0,0,0,0,0,0,0,0,-1,1112,953,0,0
-105,71,0,0,0,0,0,0,0,0,0,-1,1119,953,0,0
-98,71,0,0,0,0,0,0,0,0,0,-1,1126,953,0,0
-91,71,0,0,0,0,0,0,0,0,0,-1,1133,953,0,0
-84,71,0,0,0,0,0,0,0,0,0,-1,1140,953,0,0
-77,71,0,0,0,0,0,0,0,0,0,-1,1147,953,0,0
-70,71,0,0,0,0,0,0,0,0,0,-1,1154,953,0,0
-63,71,0,0,0,0,0,0,0,0,0,-1,1161,953,0,0
-56,71,0,0,0,0,0,0,0,0,0,-1,1168,953,0,0
-49,71,0,0,0,0,0,0,0,0,0,-1,1175,953,0,0
-42,71,0,0,0,0,0,0,0,0,0,-1,1182,953,0,0
-35,71,0,0,0,0,0,0,0,0,0,-1,1189,953,0,0
-28,71,0,0,0,0,0,0,0,0,0,-1,1196,953,0,0
-21,71,0,0,0,0,0,0,0,0,0,-1,1203,953,0,0
-14,71,0,0,0,0,0,0,0,0,0,-1,1210,953,0,0
-7,71,0,0,0,0,0,0,0,0,0,-1,1217,953,0,0
0,71,0,0,0,0,0,0,0,0,0,-1,1224,953,0,0
7,71,0,0,0,0,0,0,0,0,0,-1,1231,953,0,0
14,71,0,0,0,0,0,0,0,0,0,-1,1238,953,0,0
21,71,0,0,0,0,0,0,0,0,0,-1,1245,953,0,0
28,71,0,0,0,0,0,0,0,0,0,-1,1252,953,0,0
35,71,0,0,0,0,0,0,0,0,0,-1,1259,953,0,0
42,71,0,0,0,0,0,0,0,0,0,-1,1266,953,0,0
49,71,0,0,0,0,0,0,0,0,0,-1,1273,953,0,0
56,71,0,0,0,0,0,0,0,0,0,-1,1280,953,0,0
63,71,0,0,0,0,0,0,0,0,0,-1,1287,953,0,0
70,71,0,0,0,0,0,0,0,0,0,-1,1294,953,0,0
77,71,0,0,0,0,0,0,0,0,0,-1,1301,953,0,0
84,71,0,0,0,0,0,0,0,0,0,-1,1308,953,0,0
91,71,0,0,0,0,0,0,0,0,0,-1,1315,953,0,0
98,71,0,0,0,0,0,0,0,0,0,-1,1322,953,0,0
105,71,0,0,0,0,0,0,0,0,0,-1,1329,953,0,0
112,71,0,0,0,0,0,0,0,0,0,-1,1336,953,0,0
119,71,0,0,0,0,0,0,0,0,0,-1,1343,953,0,0
126,71,0,0,0,0,0,0,0,0,0,-1,1350,953,0,0
133,71,0,0,0,0,0,0,0,0,0,-1,1357,953,0,0
140,71,0,0,0,0,0,0,0,0,0,-1,1364,953,0,0
147,71,0,0,0,0,0,0,0,0,0,-1,1371,953,0,0
154,71,0,0,0,0,0,0,0,0,0,-1,1378,953,0,0
161,71,0,0,0,0,0,0,0,0,0,-1,1385,953,0,0
168,71,0,0,0,0,0,0,0,0,0,-1,1392,953,0,0
175,71,0,0,0,0,0,0,0,0,0,-1,1399,953,0,0
182,71,0,0,0,0,0,0,0,0,0,-1,1406,953,0,0
189,71,0,0,0,0,0,0,0,0,0,-1,1413,953,0,0
196,71,0,0,0,0,0,0,0,0,0,-1,1420,953,0,0
203,71,0,0,0,0,0,0,0,0,0,-1,1427,953,0,0
210,71,0,0,0,0,0,0,0,0,0,-1,1434,953,0,0
217,71,0,0,0,0,0,0,0,0,0,-1,1441,953,0,0
224,71,0,0,0,0,0,0,0,0,0,-1,1448,953,0,0
231,71,0,0,0,0,0,0,0,0,0,-1,1455,953,0,0
238,71,0,0,0,0,0,0,0,0,0,-1,1462,953,0,0
245,71,0,0,0,0,0,0,0,0,0,-1,1469,953,0,0
252,71,0,0,0,0,0,0,0,0,0,-1,1476,953,0,0
259,71,0,0,0,0,0,0,0,0,0,-1,1483,953,0,0
266,71,0,0,0,0,0,0,0,0,0,-1,1490,953,0,0
273,71,0,0,0,0,0,0,0,0,0,-1,1497,953,0,0
280,71,0,0,0,0,0,0,0,0,0,-1,1504,953,0,0
287,71,0,0,0,0,0,0,0,0,0,-1,1511,953,0,0
294,71,0,0,0,0,0,0,0,0,0,-1,1518,953,0,0
301,71,0,0,0,0,0,0,0,0,0,-1,1525,953,0,0
308,71,0,0,0,0,0,0,0,0,0,-1,1532,953,0,0
315,71,0,0,0,0,0,0,0,0,0,-1,1539,953,0,0
322,71,0,0,0,0,0,0,0,0,0,-1,1546,953,0,0
329,71,0,0,0,0,0,0,0,0,0,-1,1553,953,0,0
336,71,0,0,0,0,0,0,0,0,0,-1,1560,953,0,0
343,71,0,0,0,0,0,0,0,0,0,-1,1567,953,0,0
350,71,0,0,0,0,0,0,0,0,0,-1,1574,953,0,0
357,71,0,0,0,0,0,0,0,0,0,-1,1581,953,0,0
364,71,0,0,0,0,0,0,0,0,0,-1,1588,953,0,0
371,71,0,0,0,0,0,0,0,0,0,-1,1595,953,0,0
378,71,0,0,0,0,0,0,0,0,0,-1,1602,953,0,0
385,71,0,0,0,0,0,0,0,0,0,-1,1609,953,0,0
392,71,0,0,0,0,0,0,0,0,0,-1,1616,953,0,0
399,71,0,0,0,0,0,0,0,0,0,-1,1623,953,0,0
406,71,0,0,0,0,0,0,0,0,0,-1,1630,953,0,0
413,71,0,0,0,0,0,0,0,0,0,-1,1637,953,0,0
420,71,0,0,0,0,0,0,0,0,0,-1,1644,953,0,0
427,71,0,0,0,0,0,0,0,0,0,-1,1651,953,0,0
434,71,0,0,0,0,0,0,0,0,0,-1,1658,953,0,0
441,71,0,0,0,0,0,0,0,0,0,-1,1665,953,0,0
448,71,0,0,0,0,0,0,0,0,0,-1,1672,953,0,0
455,71,0,0,0,0,0,0,0,0,0,-1,1679,953,0,0
462,71,0,0,0,0,0,0,0,0,0,-1,1686,953,0,0
469,71,0,0,0,0,0,0,0,0,0,-1,1693,953,0,0
476,71,0,0,0,0,0,0,0,0,0,-1,1700,953,0,0
483,71,0,0,0,0,0,0,0,0,0,-1,1707,953,0,0
490,71,0,0,0,0,0,0,0,0,0,-1,1714,953,0,0
497,71,0,0,0,0,0,0,0,0,0,-1,1721,953,0,0
504,71,0,0,0,0,0,0,0,0,0,-1,1728,953,0,0
511,71,0,0,0,0,0,0,0,0,0,-1,1735,953,0,0
518,71,0,0,0,0,0,0,0,0,0,-1,1742,953,0,0
525,71,0,0,0,0,0,0,0,0,0,-1,1749,953,0,0
532,71,0,0,0,0,0,0,0,0,0,-1,1756,953,0,0
539,71,0,0,0,0,0,0,0,0,0,-1,1763,953,0,0
546,71,0,0,0,0,0,0,0,0,0,-1,1770,953,0,0
553,71,0,0,0,0,0,0,0,0,0,-1,1777,953,0,0
560,71,0,0,0,0,0,0,0,0,0,-1,1784,953,0,0
567,71,0,0,0,0,0,0,0,0,0,-1,1791,953,0,0
574,71,0,0,0,0,0,0,0,0,0,-1,1798,953,0,0
581,71,0,0,0,0,0,0,0,0,0,-1,1805,953,0,0
588,71,0,0,0,0,0,0,0,0,0,-1,1812,953,0,0
595,71,0,0,0,0,0,0,0,0,0,-1,1819,953,0,0
602,71,0,0,0,0,0,0,0,0,0,-1,1826,953,0,0
609,71,0,0,0,0,0,0,0,0,0,-1,1833,953,0,0
616,71,0,0,0,0,0,0,0,0,0,-1,1840,953,0,0
623,71,0,0,0,0,0,0,0,0,0,-1,1847,953,0,0
630,71,0,0,0,0,0,0,0,0,0,-1,1854,953,0,0
637,71,43.476,2.98169,0.000389532,0.00387251,-0.00573062,0.00812041,-0.00385837,-0.93291,0.00706036,0.0430843,1861,953,43.476,-2.98171
644,71,43.6005,2.73804,0.000947304,0.00352005,-0.00429317,0.00671543,-0.00224807,-0.930958,0.00538506,0.040618,1868,953,43.6005,-2.73807
651,71,43.6384,2.49121,0.00102682,0.00310486,-0.0029911,0.00523227,-0.00110059,-0.952563,0.00390706,0.040368,1875,953,43.6384,-2.49124
658,71,43.6514,2.62915,0.000797883,0.00291693,-0.00180354,0.00394914,-0.000234329,-1.05097,0.00271424,0.0394023,1882,953,43.6514,-2.62915
665,71,43.6189,2.90826,0.000445438,0.00278105,-0.000671475,0.00296033,0.000266155,-1.30988,0.00189109,0.0394248,1889,953,43.6189,-2.90827
672,71,43.5903,3.03119,0,0,0,0,0,0,0,-1,1896,953,43.5904,-3.03119
679,71,43.7252,2.35388,-0.000395583,0.00195958,0.000939581,0.00228849,-0.000724491,1.23407,0.00181598,0.0408928,1903,953,43.7252,-2.35386
686,71,43.6837,2.42017,-0.000561259,0.0013832,0.00121586,0.00196774,-0.0011458,1.12265,0.00181837,0.0375576,1910,953,43.6837,-2.42016
693,71,43.621,2.68915,-0.000712386,0.000809613,0.00129066,0.00154692,-0.00144969,1.05177,0.0017304,0.0331267,1917,953,43.621,-2.68914
700,71,43.5565,2.79938,-0.00091712,0.000691372,0.00129237,0.0014093,-0.00163505,1.06373,0.00175927,0.0363968,1924,953,43.5565,-2.79938
707,71,43.5938,2.93134,0,0,0,0,0,0,0,-1,1931,953,43.5938,-2.93131
714,71,41.8508,4.38629,0,0,0,0,0,0,0,-1,1938,953,41.8508,-4.38632
721,71,41.6611,4.65778,-0.00219343,0.00100817,0.000347571,0.00104547,-0.00223073,1.46389,0.00193233,0.0407281,1945,953,41.6611,-4.65775
728,71,41.5199,5.04016,-0.00187453,0.00134901,-5.64727e-06,0.00134902,-0.00187454,-1.56904,0.00186935,0.0240715,1952,953,41.52,-5.04018
735,71,41.551,5.33276,-0.00102217,0.00179655,-0.00082978,0.00202268,-0.0012483,-1.30474,0.00190606,0.0184001,1959,953,41.551,-5.33276
742,71,41.5732,5.60895,-1.40905e-05,0.0019974,-0.00181661,0.00306809,-0.00108478,-1.03821,0.00248714,0.018726,1966,953,41.5732,-5.60897
749,71,41.5267,5.86816,0.0014225,0.00273043,-0.00340537,0.00554406,-0.00139113,-0.880263,0.00423658,0.0181393,1973,953,41.5267,-5.86817
756,71,41.4882,6.1178,0.00417376,0.00314631,-0.00599203,0.00967404,-0.00235397,-0.742636,0.00736058,0.0172756,1980,953,41.4882,-6.11778
763,71,41.4443,6.41028,0.0081856,0.00317804,-0.00913854,0.0151571,-0.00379351,-0.651689,0.0115783,0.0200054,1987,953,41.4443,-6.4103
770,71,41.2886,6.6264,0.0134842,0.0025053,-0.0133475,0.0224271,-0.00643753,-0.590306,0.0174965,0.0243701,1994,953,41.2885,-6.62642
777,71,41.2943,6.82703,0.0200325,0.000925166,-0.0189718,0.0317204,-0.0107627,-0.552147,0.0255031,0.0460258,2001,953,41.2943,-6.82702
784,71,41.8987,6.33789,0.0282607,-0.00190483,-0.0267054,0.0438483,-0.0174924,-0.528337,0.0364885,0.0465711,2008,953,41.8986,-6.33789
791,71,42.0549,5.5451,0.0383892,-0.00614331,-0.0373971,0.0596469,-0.027401,-0.516883,0.0513937,0.0430731,2015,953,42.0549,-5.5451
798,71,42.3201,4.5285,0.0501957,-0.0117957,-0.0520116,0.079747,-0.041347,-0.516684,0.0710757,0.0442892,2022,953,42.3202,-4.52848
805,71,42.76,3.48193,0.0629804,-0.0188073,-0.0718557,0.104764,-0.0605908,-0.526699,0.0965964,0.0468033,2029,953,42.76,-3.48193
812,71,0,0,0,0,0,0,0,0,0,-1,2036,953,0,0
-700,64,0,0,0,0,0,0,0,0,0,-1,524,960,0,0
-693,64,0,0,0,0,0,0,0,0,0,-1,531,960,0,0
-686,64,-26.8303,9.17407,0,0,0,0,0,0,0,-1,538,960,-26.8303,-9.17409
-679,64,-27.4894,3.48425,0,0,0,0,0,0,0,-1,545,960,-27.4894,-3.48422
-672,64,-29.3096,3.81226,0,0,0,0,0,0,0,-1,552,960,-29.3096,-3.81225
-665,64,-29.8348,3.737,-0.0722986,0.0390362,0.0533513,0.0604741,-0.0937364,1.18872,0.0897212,0.045612,559,960,-29.8348,-3.73702
-658,64,-30.4218,3.59747,-0.0583981,0.0340535,0.0432944,0.051162,-0.0755066,1.19446,0.073581,0.0419584,566,960,-30.4217,-3.59746
-651,64,-30.8193,3.65582,-0.0458254,0.0288954,0.0340165,0.0420614,-0.0589914,1.2015,0.0586152,0.0421477,573,960,-30.8193,-3.65579
-644,64,-31.0797,4.00128,-0.0349707,0.0236176,0.0259487,0.0334576,-0.0448107,1.20834,0.0453464,0.0339386,580,960,-31.0796,-4.00125
-637,64,-31.164,3.80414,-0.0257253,0.0186115,0.0189771,0.0256248,-0.0327386,1.2168,0.0337794,0.0170157,587,960,-31.164,-3.80411
-630,64,-31.2208,3.5722,-0.0184443,0.0144291,0.0131534,0.0190441,-0.0230593,1.23335,0.0243452,0.0139517,594,960,-31.2208,-3.57222
-623,64,-31.2355,3.33459,-0.0135517,0.0106998,0.00829001,0.0132627,-0.0161147,1.27096,0.0169877,0.014328,601,960,-31.2355,-3.33462
-616,64,-31.2396,3.09796,-0.0106809,0.00774028,0.0043583,0.00871938,-0.01166,1.34981,0.0118068,0.017101,608,960,-31.2396,-3.09795
-609,64,-31.2144,2.88861,-0.00871554,0.00541714,0.00120304,0.00551881,-0.00881721,1.48648,0.00834961,0.0161974,615,960,-31.2143,-2.88862
-602,64,-31.1906,2.65399,-0.00782081,0.00382436,-0.000984317,0.00390697,-0.00790343,-1.48706,0.00694764,0.0170114,622,960,-31.1906,-2.65398
-595,64,-31.2103,2.42279,-0.00733001,0.00268543,-0.00230841,0.00319188,-0.00783646,-1.35483,0.00655273,0.0185624,629,960,-31.2104,-2.4228
-588,64,-31.1907,2.24054,-0.00692548,0.00198582,-0.00326166,0.00305206,-0.00799172,-1.25485,0.0065853,0.0290239,636,960,-31.1907,-2.24054
-581,64,-31.468,1.69775,-0.0068517,0.00161879,-0.00377466,0.00305676,-0.00828967,-1.20682,0.00677911,0.0398523,643,960,-31.468,-1.69774
-574,64,-31.997,1.14301,-0.00680463,0.00137219,-0.0039833,0.00299182,-0.00842426,-1.18461,0.0068353,0.0396787,650,960,-31.997,-1.14303
-567,64,-32.0964,0.923645,-0.0064297,0.00133756,-0.00407509,0.00308322,-0.00817537,-1.16607,0.00671812,0.0253132,657,960,-32.0964,-0.923661
-560,64,-32.1624,0.995789,-0.00569271,0.00131829,-0.00398493,0.00312016,-0.00749458,-1.14614,0.0062995,0.0348241,664,960,-32.1624,-0.995818
-553,64,-32.1737,1.0188,-0.00432483,0.00126473,-0.00377594,0.00316766,-0.00622776,-1.10398,0.00551952,0.0387068,671,960,-32.1737,-1.01878
-546,64,-32.2342,1.25891,-0.00226793,0.00109247,-0.00347954,0.00327625,-0.0044517,-1.01033,0.0044789,0.0413618,678,960,-32.2342,-1.25894
-539,64,-32.2011,1.16125,0.000496655,0.000683605,-0.00318596,0.00377746,-0.0025972,-0.800064,0.00370138,0.042415,685,960,-32.2011,-1.16127
-532,64,-32.1312,0.841248,0.00390071,7.89142e-05,-0.00334716,0.00584403,-0.00186441,-0.526024,0.00464397,0.0431045,692,960,-32.1312,-0.841233
-525,64,-32.2177,0.845154,0.00627969,-0.000278923,-0.00465134,0.0086915,-0.00269073,-0.478353,0.00686921,0.0420999,699,960,-32.2176,-0.84516
-518,64,0,0,0,0,0,0,0,0,0,-1,706,960,0,0
-511,64,0,0,0,0,0,0,0,0,0,-1,713,960,0,0
-504,64,0,0,0,0,0,0,0,0,0,-1,720,960,0,0
-497,64,0,0,0,0,0,0,0,0,0,-1,727,960,0,0
-490,64,0,0,0,0,0,0,0,0,0,-1,734,960,0,0
-483,64,0,0,0,0,0,0,0,0,0,-1,741,960,0,0
-476,64,0,0,0,0,0,0,0,0,0,-1,748,960,0,0
-469,64,0,0,0,0,0,0,0,0,0,-1,755,960,0,0
-462,64,0,0,0,0,0,0,0,0,0,-1,762,960,0,0
-455,64,0,0,0,0,0,0,0,0,0,-1,769,960,0,0
-448,64,0,0,0,0,0,0,0,0,0,-1,776,960,0,0
-441,64,0,0,0,0,0,0,0,0,0,-1,783,960,0,0
-434,64,0,0,0,0,0,0,0,0,0,-1,790,960,0,0
-427,64,0,0,0,0,0,0,0,0,0,-1,797,960,0,0
-420,64,0,0,0,0,0,0,0,0,0,-1,804,960,0,0
-413,64,0,0,0,0,0,0,0,0,0,-1,811,960,0,0
-406,64,0,0,0,0,0,0,0,0,0,-1,818,960,0,0
-399,64,0,0,0,0,0,0,0,0,0,-1,825,960,0,0
-392,64,0,0,0,0,0,0,0,0,0,-1,832,960,0,0
-385,64,0,0,0,0,0,0,0,0,0,-1,839,960,0,0
-378,64,0,0,0,0,0,0,0,0,0,-1,846,960,0,0
-371,64,0,0,0,0,0,0,0,0,0,-1,853,960,0,0
-364,64,0,0,0,0,0,0,0,0,0,-1,860,960,0,0
-357,64,0,0,0,0,0,0,0,0,0,-1,867,960,0,0
-350,64,0,0,0,0,0,0,0,0,0,-1,874,960,0,0
-343,64,0,0,0,0,0,0,0,0,0,-1,881,960,0,0
-336,64,0,0,0,0,0,0,0,0,0,-1,888,960,0,0
-329,64,0,0,0,0,0,0,0,0,0,-1,895,960,0,0
-322,64,0,0,0,0,0,0,0,0,0,-1,902,960,0,0
-315,64,0,0,0,0,0,0,0,0,0,-1,909,960,0,0
-308,64,0,0,0,0,0,0,0,0,0,-1,916,960,0,0
-301,64,0,0,0,0,0,0,0,0,0,-1,923,960,0,0
-294,64,0,0,0,0,0,0,0,0,0,-1,930,960,0,0
-287,64,0,0,0,0,0,0,0,0,0,-1,937,960,0,0
-280,64,0,0,0,0,0,0,0,0,0,-1,944,960,0,0
-273,64,0,0,0,0,0,0,0,0,0,-1,951,960,0,0
-266,64,0,0,0,0,0,0,0,0,0,-1,958,960,0,0
-259,64,0,0,0,0,0,0,0,0,0,-1,965,960,0,0
-252,64,0,0,0,0,0,0,0,0,0,-1,972,960,0,0
-245,64,0,0,0,0,0,0,0,0,0,-1,979,960,0,0
-238,64,0,0,0,0,0,0,0,0,0,-1,986,960,0,0
-231,64,0,0,0,0,0,0,0,0,0,-1,993,960,0,0
-224,64,0,0,0,0,0,0,0,0,0,-1,1000,960,0,0
-217,64,0,0,0,0,0,0,0,0,0,-1,1007,960,0,0
-210,64,0,0,0,0,0,0,0,0,0,-1,1014,960,0,0
-203,64,0,0,0,0,0,0,0,0,0,-1,1021,960,0,0
-196,64,0,0,0,0,0,0,0,0,0,-1,1028,960,0,0
-189,64,0,0,0,0,0,0,0,0,0,-1,1035,960,0,0
-182,64,0,0,0,0,0,0,0,0,0,-1,1042,960,0,0
-175,64,0,0,0,0,0,0,0,0,0,-1,1049,960,0,0
-168,64,0,0,0,0,0,0,0,0,0,-1,1056,960,0,0
-161,64,0,0,0,0,0,0,0,0,0,-1,1063,960,0,0
-154,64,0,0,0,0,0,0,0,0,0,-1,1070,960,0,0
-147,64,0,0,0,0,0,0,0,0,0,-1,1077,960,0,0
-140,64,0,0,0,0,0,0,0,0,0,-1,1084,960,0,0
-133,64,0,0,0,0,0,0,0,0,0,-1,1091,960,0,0
-126,64,0,0,0,0,0,0,0,0,0,-1,1098,960,0,0
-119,64,0,0,0,0,0,0,0,0,0,-1,1105,960,0,0
-112,64,0,0,0,0,0,0,0,0,0,-1,1112,960,0,0
-105,64,0,0,0,0,0,0,0,0,0,-1,1119,960,0,0
-98,64,0,0,0,0,0,0,0,0,0,-1,1126,960,0,0
-91,64,0,0,0,0,0,0,0,0,0,-1,1133,960,0,0
-84,64,0,0,0,0,0,0,0,0,0,-1,1140,960,0,0
-77,64,0,0,0,0,0,0,0,0,0,-1,1147,960,0,0
-70,64,0,0,0,0,0,0,0,0,0,-1,1154,960,0,0
-63,64,0,0,0,0,0,0,0,0,0,-1,1161,960,0,0
-56,64,0,0,0,0,0,0,0,0,0,-1,1168,960,0,0
-49,64,0,0,0,0,0,0,0,0,0,-1,1175,960,0,0
-42,64,0,0,0,0,0,0,0,0,0,-1,1182,960,0,0
-35,64,0,0,0,0,0,0,0,0,0,-1,1189,960,0,0
-28,64,0,0,0,0,0,0,0,0,0,-1,1196,960,0,0
-21,64,0,0,0,0,0,0,0,0,0,-1,1203,960,0,0
-14,64,0,0,0,0,0,0,0,0,0,-1,1210,960,0,0
-7,64,0,0,0,0,0,0,0,0,0,-1,1217,960,0,0
0,64,0,0,0,0,0,0,0,0,0,-1,1224,960,0,0
7,64,0,0,0,0,0,0,0,0,0,-1,1231,960,0,0
14,64,0,0,0,0,0,0,0,0,0,-1,1238,960,0,0
21,64,0,0,0,0,0,0,0,0,0,-1,1245,960,0,0
28,64,0,0,0,0,0,0,0,0,0,-1,1252,960,0,0
35,64,0,0,0,0,0,0,0,0,0,-1,1259,960,0,0
42,64,0,0,0,0,0,0,0,0,0,-1,1266,960,0,0
49,64,0,0,0,0,0,0,0,0,0,-1,1273,960,0,0
56,64,0,0,0,0,0,0,0,0,0,-1,1280,960,0,0
63,64,0,0,0,0,0,0,0,0,0,-1,1287,960,0,0
70,64,0,0,0,0,0,0,0,0,0,-1,1294,960,0,0
77,64,0,0,0,0,0,0,0,0,0,-1,1301,960,0,0
84,64,0,0,0,0,0,0,0,0,0,-1,1308,960,0,0
91,64,0,0,0,0,0,0,0,0,0,-1,1315,960,0,0
98,64,0,0,0,0,0,0,0,0,0,-1,1322,960,0,0
105,64,0,0,0,0,0,0,0,0,0,-1,1329,960,0,0
112,64,0,0,0,0,0,0,0,0,0,-1,1336,960,0,0
119,64,0,0,0,0,0,0,0,0,0,-1,1343,960,0,0
126,64,0,0,0,0,0,0,0,0,0,-1,1350,960,0,0
133,64,0,0,0,0,0,0,0,0,0,-1,1357,960,0,0
140,64,0,0,0,0,0,0,0,0,0,-1,1364,960,0,0
147,64,0,0,0,0,0,0,0,0,0,-1,1371,960,0,0
154,64,0,0,0,0,0,0,0,0,0,-1,1378,960,0,0
161,64,0,0,0,0,0,0,0,0,0,-1,1385,960,0,0
168,64,0,0,0,0,0,0,0,0,0,-1,1392,960,0,0
175,64,0,0,0,0,0,0,0,0,0,-1,1399,960,0,0
182,64,0,0,0,0,0,0,0,0,0,-1,1406,960,0,0
189,64,0,0,0,0,0,0,0,0,0,-1,1413,960,0,0
196,64,0,0,0,0,0,0,0,0,0,-1,1420,960,0,0
203,64,0,0,0,0,0,0,0,0,0,-1,1427,960,0,0
210,64,0,0,0,0,0,0,0,0,0,-1,1434,960,0,0
217,64,0,0,0,0,0,0,0,0,0,-1,1441,960,0,0
224,64,0,0,0,0,0,0,0,0,0,-1,1448,960,0,0
231,64,0,0,0,0,0,0,0,0,0,-1,1455,960,0,0
238,64,0,0,0,0,0,0,0,0,0,-1,1462,960,0,0
245,64,0,0,0,0,0,0,0,0,0,-1,1469,960,0,0
252,64,0,0,0,0,0,0,0,0,0,-1,1476,960,0,0
259,64,0,0,0,0,0,0,0,0,0,-1,1483,960,0,0
266,64,0,0,0,0,0,0,0,0,0,-1,1490,960,0,0
273,64,0,0,0,0,0,0,0,0,0,-1,1497,960,0,0
280,64,0,0,0,0,0,0,0,0,0,-1,1504,960,0,0
287,64,0,0,0,0,0,0,0,0,0,-1,1511,960,0,0
294,64,0,0,0,0,0,0,0,0,0,-1,1518,960,0,0
301,64,0,0,0,0,0,0,0,0,0,-1,1525,960,0,0
308,64,0,0,0,0,0,0,0,0,0,-1,1532,960,0,0
315,64,0,0,0,0,0,0,0,0,0,-1,1539,960,0,0
322,64,0,0,0,0,0,0,0,0,0,-1,1546,960,0,0
329,64,0,0,0,0,0,0,0,0,0,-1,1553,960,0,0
336,64,0,0,0,0,0,0,0,0,0,-1,1560,960,0,0
343,64,0,0,0,0,0,0,0,0,0,-1,1567,960,0,0
350,64,0,0,0,0,0,0,0,0,0,-1,1574,960,0,0
357,64,0,0,0,0,0,0,0,0,0,-1,1581,960,0,0
364,64,0,0,0,0,0,0,0,0,0,-1,1588,960,0,0
371,64,0,0,0,0,0,0,0,0,0,-1,1595,960,0,0
378,64,0,0,0,0,0,0,0,0,0,-1,1602,960,0,0
385,64,0,0,0,0,0,0,0,0,0,-1,1609,960,0,0
392,64,0,0,0,0,0,0,0,0,0,-1,1616,960,0,0
399,64,0,0,0,0,0,0,0,0,0,-1,1623,960,0,0
406,64,0,0,0,0,0,0,0,0,0,-1,1630,960,0,0
413,64,0,0,0,0,0,0,0,0,0,-1,1637,960,0,0
420,64,0,0,0,0,0,0,0,0,0,-1,1644,960,0,0
427,64,0,0,0,0,0,0,0,0,0,-1,1651,960,0,0
434,64,0,0,0,0,0,0,0,0,0,-1,1658,960,0,0
441,64,0,0,0,0,0,0,0,0,0,-1,1665,960,0,0
448,64,0,0,0,0,0,0,0,0,0,-1,1672,960,0,0
455,64,0,0,0,0,0,0,0,0,0,-1,1679,960,0,0
462,64,0,0,0,0,0,0,0,0,0,-1,1686,960,0,0
469,64,0,0,0,0,0,0,0,0,0,-1,1693,960,0,0
476,64,0,0,0,0,0,0,0,0,0,-1,1700,960,0,0
483,64,0,0,0,0,0,0,0,0,0,-1,1707,960,0,0
490,64,0,0,0,0,0,0,0,0,0,-1,1714,960,0,0
497,64,0,0,0,0,0,0,0,0,0,-1,1721,960,0,0
504,64,0,0,0,0,0,0,0,0,0,-1,1728,960,0,0
511,64,0,0,0,0,0,0,0,0,0,-1,1735,960,0,0
518,64,0,0,0,0,0,0,0,0,0,-1,1742,960,0,0
525,64,0,0,0,0,0,0,0,0,0,-1,1749,960,0,0
532,64,0,0,0,0,0,0,0,0,0,-1,1756,960,0,0
539,64,0,0,0,0,0,0,0,0,0,-1,1763,960,0,0
546,64,0,0,0,0,0,0,0,0,0,-1,1770,960,0,0
553,64,0,0,0,0,0,0,0,0,0,-1,1777,960,0,0
560,64,0,0,0,0,0,0,0,0,0,-1,1784,960,0,0
567,64,0,0,0,0,0,0,0,0,0,-1,1791,960,0,0
574,64,0,0,0,0,0,0,0,0,0,-1,1798,960,0,0
581,64,0,0,0,0,0,0,0,0,0,-1,1805,960,0,0
588,64,0,0,0,0,0,0,0,0,0,-1,1812,960,0,0
595,64,0,0,0,0,0,0,0,0,0,-1,1819,960,0,0
602,64,0,0,0,0,0,0,0,0,0,-1,1826,960,0,0
609,64,0,0,0,0,0,0,0,0,0,-1,1833,960,0,0
616,64,0,0,0,0,0,0,0,0,0,-1,1840,960,0,0
623,64,0,0,0,0,0,0,0,0,0,-1,1847,960,0,0
630,64,0,0,0,0,0,0,0,0,0,-1,1854,960,0,0
637,64,0,0,0,0,0,0,0,0,0,-1,1861,960,0,0
644,64,43.6593,2.76306,0.00142182,0.0031845,-0.00442942,0.00681941,-0.00221308,-0.883603,0.00543626,0.0420092,1868,960,43.6593,-2.76308
651,64,43.8223,2.67389,0.00150391,0.002804,-0.00316363,0.00538368,-0.00107577,-0.886725,0.00399627,0.0402329,1875,960,43.8222,-2.67392
658,64,43.7042,2.92761,0.00126075,0.00262272,-0.00200125,0.00405568,-0.000172204,-0.949392,0.00276297,0.0392772,1882,960,43.7043,-2.92762
665,64,43.5554,3.29541,0,0,0,0,0,0,0,-1,1889,960,43.5554,-3.29538
672,64,43.6661,3.02924,0.000289259,0.00237719,0.000215401,0.00239918,0.000267269,1.46906,0.00151822,0.0467671,1896,960,43.6662,-3.02927
679,64,43.6514,2.47638,-0.000183952,0.00197798,0.000977761,0.00235458,-0.000560554,1.20314,0.00178614,0.0453007,1903,960,43.6514,-2.47637
686,64,43.6185,2.63269,-0.000427322,0.00148956,0.00134019,0.00217876,-0.00111652,1.09581,0.0019352,0.0375399,1910,960,43.6185,-2.63267
693,64,43.6062,2.77765,-0.000646708,0.000944667,0.0014715,0.00182183,-0.00152387,1.03325,0.00193419,0.0319249,1917,960,43.6063,-2.77763
700,64,43.5831,2.82892,-0.000884069,0.000836862,0.00150354,0.00170874,-0.00175595,1.0453,0.0020004,0.0314967,1924,960,43.5831,-2.82894
707,64,43.6414,2.87537,0,0,0,0,0,0,0,-1,1931,960,43.6414,-2.87538
714,64,42.1737,4.25073,0,0,0,0,0,0,0,-1,1938,960,42.1738,-4.25072
721,64,41.8755,4.71912,0,0,0,0,0,0,0,-1,1945,960,41.8754,-4.71913
728,64,41.7963,5.05206,-0.00196965,0.00159689,0.000270119,0.00161724,-0.00198999,1.49563,0.00208634,0.0192674,1952,960,41.7963,-5.05207
735,64,41.8066,5.362,-0.00112313,0.00204151,-0.000530861,0.00212819,-0.00120981,-1.40895,0.00195135,0.0269361,1959,960,41.8067,-5.362
742,64,41.8743,5.59644,-0.000137235,0.00211588,-0.00155316,0.00290803,-0.000929381,-1.09916,0.00231162,0.0240205,1966,960,41.8743,-5.59646
749,64,41.8459,5.84418,0.00125773,0.00273289,-0.0031657,0.00524579,-0.00125518,-0.899852,0.00398208,0.0157274,1973,960,41.846,-5.84421
756,64,41.8121,6.11017,0.003937,0.00303898,-0.00568508,0.00919077,-0.00221479,-0.74599,0.00698351,0.0149325,1980,960,41.8122,-6.11019
763,64,41.7867,6.36615,0.00802455,0.00289199,-0.00887053,0.0146926,-0.00377602,-0.644591,0.0112666,0.0177367,1987,960,41.7868,-6.36616
770,64,41.6388,6.58386,0.0135567,0.00199533,-0.0131962,0.0221828,-0.00663075,-0.578959,0.0174245,0.0194234,1994,960,41.6388,-6.58388
777,64,41.528,6.8584,0.0204225,0.000156985,-0.0189563,0.0317842,-0.0112048,-0.539953,0.0257503,0.0373163,2001,960,41.528,-6.85842
784,64,42.1741,6.60638,0.0290639,-0.00298846,-0.0268654,0.0443202,-0.0182447,-0.516464,0.0371529,0.0410928,2008,960,42.174,-6.60636
791,64,42.6262,6.3811,0.0397916,-0.00761013,-0.0378135,0.060718,-0.0285366,-0.505458,0.0526358,0.0482911,2015,960,42.6263,-6.38107
798,64,43.0249,6.22607,0,0,0,0,0,0,0,-1,2022,960,43.0249,-6.22605
805,64,43.3259,3.58185,0,0,0,0,0,0,0,-1,2029,960,43.3259,-3.58182
812,64,0,0,0,0,0,0,0,0,0,-1,2036,960,0,0
-700,57,0,0,0,0,0,0,0,0,0,-1,524,967,0,0
-693,57,0,0,0,0,0,0,0,0,0,-1,531,967,0,0
-686,57,-27.3426,7.59979,0,0,0,0,0,0,0,-1,538,967,-27.3426,-7.59978
-679,57,-26.8956,8.39624,0,0,0,0,0,0,0,-1,545,967,-26.8956,-8.39627
-672,57,-30.5084,3.26038,0,0,0,0,0,0,0,-1,552,967,-30.5084,-3.26038
-665,57,-31.136,3.44702,-0.0652536,0.0364372,0.0493421,0.0564431,-0.0852594,1.1856,0.0823739,0.0489076,559,967,-31.136,-3.44702
-658,57,-31.7488,3.42535,-0.0526736,0.0322585,0.0400984,0.0481983,-0.0686134,1.19243,0.0677837,0.0469507,566,967,-31.7488,-3.42536
-651,57,-31.6201,3.29846,-0.0415063,0.0277933,0.0317912,0.0401679,-0.0538809,1.1996,0.0544912,0.0436592,573,967,-31.6201,-3.29845
-644,57,-31.4416,3.69696,-0.0318636,0.0230514,0.0245352,0.0324164,-0.0412285,1.20617,0.0426202,0.0319418,580,967,-31.4416,-3.69696
-637,57,-31.4283,3.66895,-0.0234357,0.0184499,0.0179405,0.0250836,-0.0300694,1.21663,0.0318859,0.018221,587,967,-31.4283,-3.66895
-630,57,-31.4991,3.48566,-0.0168228,0.0145365,0.0122866,0.0187769,-0.0210633,1.23847,0.0230144,0.0145308,594,967,-31.4991,-3.48565
-623,57,-31.5159,3.28998,-0.012222,0.0109333,0.00756053,0.0131833,-0.014472,1.28155,0.0159726,0.0128781,601,967,-31.5159,-3.28995
-616,57,-31.5062,3.09326,-0.0095132,0.00795869,0.00365475,0.00869238,-0.0102469,1.37268,0.0109469,0.014241,608,967,-31.5062,-3.09326
-609,57,-31.5033,2.87854,-0.00757329,0.00550252,0.00042422,0.00551627,-0.00758704,1.5384,0.00759662,0.0144374,615,967,-31.5033,-2.87851
-602,57,-31.4832,2.65845,-0.00661953,0.00387767,-0.00186769,0.00420007,-0.00694193,-1.39986,0.00649744,0.0114543,622,967,-31.4831,-2.65842
-595,57,-31.4689,2.45471,-0.00605631,0.00267919,-0.00329448,0.00378235,-0.00715947,-1.24768,0.00641678,0.0130149,629,967,-31.4689,-2.45473
-588,57,-31.4785,2.29297,-0.0056012,0.00185805,-0.00430417,0.00382368,-0.00756683,-1.1424,0.00669363,0.0211537,636,967,-31.4785,-2.29299
-581,57,-31.7385,1.63043,-0.00543322,0.00137299,-0.00481695,0.00386769,-0.00792792,-1.09293,0.00694338,0.0317464,643,967,-31.7386,-1.63041
-574,57,-32.1158,0.931946,0,0,0,0,0,0,0,-1,650,967,-32.1158,-0.93196
-567,57,-32.0881,0.91626,-0.00493813,0.000880401,-0.00491595,0.00368344,-0.00774117,-1.05258,0.00673325,0.0335587,657,967,-32.0881,-0.916264
-560,57,-32.1547,0.976135,-0.00421224,0.000752319,-0.00462182,0.00351627,-0.0069762,-1.03183,0.00616664,0.0438148,664,967,-32.1547,-0.976133
-553,57,-32.1251,0.785339,-0.00292324,0.000584302,-0.00417111,0.00335534,-0.00569428,-0.984406,0.00528265,0.0414454,671,967,-32.1251,-0.785321
-546,57,-32.2816,1.2641,0,0,0,0,0,0,0,-1,678,967,-32.2816,-1.26408
-539,57,-32.1498,0.785095,0.00155918,-0.000262429,-0.00309117,0.00387093,-0.00257419,-0.642129,0.00374611,0.0431397,685,967,-32.1498,-0.785115
-532,57,-32.0656,0.727478,0.00470426,-0.00092829,-0.00320756,0.00615646,-0.00238049,-0.425132,0.00508698,0.0389537,692,967,-32.0655,-0.727485
-525,57,-32.0763,0.79248,0.00674644,-0.00140787,-0.00465895,0.00886032,-0.00352176,-0.425949,0.00736695,0.0384093,699,967,-32.0763,-0.792468
-518,57,0,0,0,0,0,0,0,0,0,-1,706,967,0,0
-511,57,0,0,0,0,0,0,0,0,0,-1,713,967,0,0
-504,57,0,0,0,0,0,0,0,0,0,-1,720,967,0,0
-497,57,0,0,0,0,0,0,0,0,0,-1,727,967,0,0
-490,57,0,0,0,0,0,0,0,0,0,-1,734,967,0,0
-483,57,0,0,0,0,0,0,0,0,0,-1,741,967,0,0
-476,57,0,0,0,0,0,0,0,0,0,-1,748,967,0,0
-469,57,0,0,0,0,0,0,0,0,0,-1,755,967,0,0
-462,57,0,0,0,0,0,0,0,0,0,-1,762,967,0,0
-455,57,0,0,0,0,0,0,0,0,0,-1,769,967,0,0
-448,57,0,0,0,0,0,0,0,0,0,-1,776,967,0,0
-441,57,0,0,0,0,0,0,0,0,0,-1,783,967,0,0
-434,57,0,0,0,0,0,0,0,0,0,-1,790,967,0,0
-427,57,0,0,0,0,0,0,0,0,0,-1,797,967,0,0
-420,57,0,0,0,0,0,0,0,0,0,-1,804,967,0,0
-413,57,0,0,0,0,0,0,0,0,0,-1,811,967,0,0
-406,57,0,0,0,0,0,0,0,0,0,-1,818,967,0,0
-399,57,0,0,0,0,0,0,0,0,0,-1,825,967,0,0
-392,57,0,0,0,0,0,0,0,0,0,-1,832,967,0,0
-385,57,0,0,0,0,0,0,0,0,0,-1,839,967,0,0
-378,57,0,0,0,0,0,0,0,0,0,-1,846,967,0,0
-371,57,0,0,0,0,0,0,0,0,0,-1,853,967,0,0
-364,57,0,0,0,0,0,0,0,0,0,-1,860,967,0,0
-357,57,0,0,0,0,0,0,0,0,0,-1,867,967,0,0
-350,57,0,0,0,0,0,0,0,0,0,-1,874,967,0,0
-343,57,0,0,0,0,0,0,0,0,0,-1,881,967,0,0
-336,57,0,0,0,0,0,0,0,0,0,-1,888,967,0,0
-329,57,0,0,0,0,0,0,0,0,0,-1,895,967,0,0
-322,57,0,0,0,0,0,0,0,0,0,-1,902,967,0,0
-315,57,0,0,0,0,0,0,0,0,0,-1,909,967,0,0
-308,57,0,0,0,0,0,0,0,0,0,-1,916,967,0,0
-301,57,0,0,0,0,0,0,0,0,0,-1,923,967,0,0
-294,57,0,0,0,0,0,0,0,0,0,-1,930,967,0,0
-287,57,0,0,0,0,0,0,0,0,0,-1,937,967,0,0
-280,57,0,0,0,0,0,0,0,0,0,-1,944,967,0,0
-273,57,0,0,0,0,0,0,0,0,0,-1,951,967,0,0
-266,57,0,0,0,0,0,0,0,0,0,-1,958,967,0,0
-259,57,0,0,0,0,0,0,0,0,0,-1,965,967,0,0
-252,57,0,0,0,0,0,0,0,0,0,-1,972,967,0,0
-245,57,0,0,0,0,0,0,0,0,0,-1,979,967,0,0
-238,57,0,0,0,0,0,0,0,0,0,-1,986,967,0,0
-231,57,0,0,0,0,0,0,0,0,0,-1,993,967,0,0
-224,57,0,0,0,0,0,0,0,0,0,-1,1000,967,0,0
-217,57,0,0,0,0,0,0,0,0,0,-1,1007,967,0,0
-210,57,0,0,0,0,0,0,0,0,0,-1,1014,967,0,0
-203,57,0,0,0,0,0,0,0,0,0,-1,1021,967,0,0
-196,57,0,0,0,0,0,0,0,0,0,-1,1028,967,0,0
-189,57,0,0,0,0,0,0,0,0,0,-1,1035,967,0,0
-182,57,0,0,0,0,0,0,0,0,0,-1,1042,967,0,0
-175,57,0,0,0,0,0,0,0,0,0,-1,1049,967,0,0
-168,57,0,0,0,0,0,0,0,0,0,-1,1056,967,0,0
-161,57,0,0,0,0,0,0,0,0,0,-1,1063,967,0,0
-154,57,0,0,0,0,0,0,0,0,0,-1,1070,967,0,0
-147,57,0,0,0,0,0,0,0,0,0,-1,1077,967,0,0
-140,57,0,0,0,0,0,0,0,0,0,-1,1084,967,0,0
-133,57,0,0,0,0,0,0,0,0,0,-1,1091,967,0,0
-126,57,0,0,0,0,0,0,0,0,0,-1,1098,967,0,0
-119,57,0,0,0,0,0,0,0,0,0,-1,1105,967,0,0
-112,57,0,0,0,0,0,0,0,0,0,-1,1112,967,0,0
-105,57,0,0,0,0,0,0,0,0,0,-1,1119,967,0,0
-98,57,0,0,0,0,0,0,0,0,0,-1,1126,967,0,0
-91,57,0,0,0,0,0,0,0,0,0,-1,1133,967,0,0
-84,57,0,0,0,0,0,0,0,0,0,-1,1140,967,0,0
-77,57,0,0,0,0,0,0,0,0,0,-1,1147,967,0,0
-70,57,0,0,0,0,0,0,0,0,0,-1,1154,967,0,0
-63,57,0,0,0,0,0,0,0,0,0,-1,1161,967,0,0
-56,57,0,0,0,0,0,0,0,0,0,-1,1168,967,0,0
-49,57,0,0,0,0,0,0,0,0,0,-1,1175,967,0,0
-42,57,0,0,0,0,0,0,0,0,0,-1,1182,967,0,0
-35,57,0,0,0,0,0,0,0,0,0,-1,1189,967,0,0
-28,57,0,0,0,0,0,0,0,0,0,-1,1196,967,0,0
-21,57,0,0,0,0,0,0,0,0,0,-1,1203,967,0,0
-14,57,0,0,0,0,0,0,0,0,0,-1,1210,967,0,0
-7,57,0,0,0,0,0,0,0,0,0,-1,1217,967,0,0
0,57,0,0,0,0,0,0,0,0,0,-1,1224,967,0,0
7,57,0,0,0,0,0,0,0,0,0,-1,1231,967,0,0
14,57,0,0,0,0,0,0,0,0,0,-1,1238,967,0,0
21,57,0,0,0,0,0,0,0,0,0,-1,1245,967,0,0
28,57,0,0,0,0,0,0,0,0,0,-1,1252,967,0,0
35,57,0,0,0,0,0,0,0,0,0,-1,1259,967,0,0
42,57,0,0,0,0,0,0,0,0,0,-1,1266,967,0,0
49,57,0,0,0,0,0,0,0,0,0,-1,1273,967,0,0
56,57,0,0,0,0,0,0,0,0,0,-1,1280,967,0,0
63,57,0,0,0,0,0,0,0,0,0,-1,1287,967,0,0
70,57,0,0,0,0,0,0,0,0,0,-1,1294,967,0,0
77,57,0,0,0,0,0,0,0,0,0,-1,1301,967,0,0
84,57,0,0,0,0,0,0,0,0,0,-1,1308,967,0,0
91,57,0,0,0,0,0,0,0,0,0,-1,1315,967,0,0
98,57,0,0,0,0,0,0,0,0,0,-1,1322,967,0,0
105,57,0,0,0,0,0,0,0,0,0,-1,1329,967,0,0
112,57,0,0,0,0,0,0,0,0,0,-1,1336,967,0,0
119,57,0,0,0,0,0,0,0,0,0,-1,1343,967,0,0
126,57,0,0,0,0,0,0,0,0,0,-1,1350,967,0,0
133,57,0,0,0,0,0,0,0,0,0,-1,1357,967,0,0
140,57,0,0,0,0,0,0,0,0,0,-1,1364,967,0,0
147,57,0,0,0,0,0,0,0,0,0,-1,1371,967,0,0
154,57,0,0,0,0,0,0,0,0,0,-1,1378,967,0,0
161,57,0,0,0,0,0,0,0,0,0,-1,1385,967,0,0
168,57,0,0,0,0,0,0,0,0,0,-1,1392,967,0,0
175,57,0,0,0,0,0,0,0,0,0,-1,1399,967,0,0
182,57,0,0,0,0,0,0,0,0,0,-1,1406,967,0,0
189,57,0,0,0,0,0,0,0,0,0,-1,1413,967,0,0
196,57,0,0,0,0,0,0,0,0,0,-1,1420,967,0,0
203,57,0,0,0,0,0,0,0,0,0,-1,1427,967,0,0
210,57,0,0,0,0,0,0,0,0,0,-1,1434,967,0,0
217,57,0,0,0,0,0,0,0,0,0,-1,1441,967,0,0
224,57,0,0,0,0,0,0,0,0,0,-1,1448,967,0,0
231,57,0,0,0,0,0,0,0,0,0,-1,1455,967,0,0
238,57,0,0,0,0,0,0,0,0,0,-1,1462,967,0,0
245,57,0,0,0,0,0,0,0,0,0,-1,1469,967,0,0
252,57,0,0,0,0,0,0,0,0,0,-1,1476,967,0,0
259,57,0,0,0,0,0,0,0,0,0,-1,1483,967,0,0
266,57,0,0,0,0,0,0,0,0,0,-1,1490,967,0,0
273,57,0,0,0,0,0,0,0,0,0,-1,1497,967,0,0
280,57,0,0,0,0,0,0,0,0,0,-1,1504,967,0,0
287,57,0,0,0,0,0,0,0,0,0,-1,1511,967,0,0
294,57,0,0,0,0,0,0,0,0,0,-1,1518,967,0,0
301,57,0,0,0,0,0,0,0,0,0,-1,1525,967,0,0
308,57,0,0,0,0,0,0,0,0,0,-1,1532,967,0,0
315,57,0,0,0,0,0,0,0,0,0,-1,1539,967,0,0
322,57,0,0,0,0,0,0,0,0,0,-1,1546,967,0,0
329,57,0,0,0,0,0,0,0,0,0,-1,1553,967,0,0
336,57,0,0,0,0,0,0,0,0,0,-1,1560,967,0,0
343,57,0,0,0,0,0,0,0,0,0,-1,1567,967,0,0
350,57,0,0,0,0,0,0,0,0,0,-1,1574,967,0,0
357,57,0,0,0,0,0,0,0,0,0,-1,1581,967,0,0
364,57,0,0,0,0,0,0,0,0,0,-1,1588,967,0,0
371,57,0,0,0,0,0,0,0,0,0,-1,1595,967,0,0
378,57,0,0,0,0,0,0,0,0,0,-1,1602,967,0,0
385,57,0,0,0,0,0,0,0,0,0,-1,1609,967,0,0
392,57,0,0,0,0,0,0,0,0,0,-1,1616,967,0,0
399,57,0,0,0,0,0,0,0,0,0,-1,1623,967,0,0
406,57,0,0,0,0,0,0,0,0,0,-1,1630,967,0,0
413,57,0,0,0,0,0,0,0,0,0,-1,1637,967,0,0
420,57,0,0,0,0,0,0,0,0,0,-1,1644,967,0,0
427,57,0,0,0,0,0,0,0,0,0,-1,1651,967,0,0
434,57,0,0,0,0,0,0,0,0,0,-1,1658,967,0,0
441,57,0,0,0,0,0,0,0,0,0,-1,1665,967,0,0
448,57,0,0,0,0,0,0,0,0,0,-1,1672,967,0,0
455,57,0,0,0,0,0,0,0,0,0,-1,1679,967,0,0
462,57,0,0,0,0,0,0,0,0,0,-1,1686,967,0,0
469,57,0,0,0,0,0,0,0,0,0,-1,1693,967,0,0
476,57,0,0,0,0,0,0,0,0,0,-1,1700,967,0,0
483,57,0,0,0,0,0,0,0,0,0,-1,1707,967,0,0
490,57,0,0,0,0,0,0,0,0,0,-1,1714,967,0,0
497,57,0,0,0,0,0,0,0,0,0,-1,1721,967,0,0
504,57,0,0,0,0,0,0,0,0,0,-1,1728,967,0,0
511,57,0,0,0,0,0,0,0,0,0,-1,1735,967,0,0
518,57,0,0,0,0,0,0,0,0,0,-1,1742,967,0,0
525,57,0,0,0,0,0,0,0,0,0,-1,1749,967,0,0
532,57,0,0,0,0,0,0,0,0,0,-1,1756,967,0,0
539,57,0,0,0,0,0,0,0,0,0,-1,1763,967,0,0
546,57,0,0,0,0,0,0,0,0,0,-1,1770,967,0,0
553,57,0,0,0,0,0,0,0,0,0,-1,1777,967,0,0
560,57,0,0,0,0,0,0,0,0,0,-1,1784,967,0,0
567,57,0,0,0,0,0,0,0,0,0,-1,1791,967,0,0
574,57,0,0,0,0,0,0,0,0,0,-1,1798,967,0,0
581,57,0,0,0,0,0,0,0,0,0,-1,1805,967,0,0
588,57,0,0,0,0,0,0,0,0,0,-1,1812,967,0,0
595,57,0,0,0,0,0,0,0,0,0,-1,1819,967,0,0
602,57,0,0,0,0,0,0,0,0,0,-1,1826,967,0,0
609,57,0,0,0,0,0,0,0,0,0,-1,1833,967,0,0
616,57,0,0,0,0,0,0,0,0,0,-1,1840,967,0,0
623,57,0,0,0,0,0,0,0,0,0,-1,1847,967,0,0
630,57,0,0,0,0,0,0,0,0,0,-1,1854,967,0,0
637,57,0,0,0,0,0,0,0,0,0,-1,1861,967,0,0
644,57,43.5844,2.99841,0.00235845,0.00269578,-0.00514569,0.00767557,-0.00262133,-0.801781,0.00617903,0.0404387,1868,967,43.5843,-2.9984
651,57,43.6616,2.8269,0.00222794,0.00233515,-0.00372175,0.00600368,-0.00144059,-0.792599,0.00455916,0.034167,1875,967,43.6616,-2.82693
658,57,43.7231,2.86005,0.00185054,0.00215154,-0.00246384,0.00446948,-0.000467398,-0.815901,0.00314704,0.0359957,1882,967,43.7232,-2.86007
665,57,43.6588,2.93213,0.00135857,0.00210385,-0.00120133,0.00298901,0.000473415,-0.935788,0.00185511,0.0450499,1889,967,43.6588,-2.93214
672,57,43.6608,2.62921,0.000763292,0.00200056,-2.79502e-05,0.00200119,0.000762661,-1.54822,0.00116623,0.0454977,1896,967,43.6608,-2.62919
679,57,43.5525,2.6933,0.000235958,0.0016919,0.000859591,0.00209036,-0.000162499,1.13674,0.00145077,0.0441009,1903,967,43.5525,-2.69328
686,57,43.557,2.74811,-7.67952e-05,0.00128682,0.00134917,0.00211667,-0.000906647,1.01936,0.00179151,0.0401044,1910,967,43.5571,-2.74809
693,57,43.571,2.83197,-0.000348403,0.000785733,0.00156122,0.00187968,-0.00144235,0.9596,0.00192351,0.032088,1917,967,43.571,-2.83194
700,57,43.5789,2.83398,-0.000610327,0.000694763,0.00162131,0.00178992,-0.00170549,0.976719,0.00201827,0.0271349,1924,967,43.5788,-2.834
707,57,43.5968,3.03308,0,0,0,0,0,0,0,-1,1931,967,43.5969,-3.03311
714,57,42.533,4.2915,0,0,0,0,0,0,0,-1,1938,967,42.533,-4.29153
721,57,42.1775,4.80225,0,0,0,0,0,0,0,-1,1945,967,42.1775,-4.80222
728,57,42.0854,5.12732,-0.00195771,0.00170727,0.000494021,0.00177269,-0.00202313,1.43913,0.00219311,0.0221202,1952,967,42.0855,-5.12731
735,57,42.1313,5.43793,-0.0011939,0.00219653,-0.000252308,0.0022152,-0.00121257,-1.49692,0.00200705,0.0267586,1959,967,42.1314,-5.43793
742,57,42.1655,5.58209,-0.000369962,0.00218738,-0.0012804,0.00271825,-0.000900828,-1.17776,0.00217553,0.0200456,1966,967,42.1655,-5.58207
749,57,42.1354,5.83337,0.000776404,0.00274056,-0.00285101,0.0047739,-0.00125693,-0.951267,0.00367396,0.0144785,1973,967,42.1353,-5.83335
756,57,42.0853,6.07263,0.00309949,0.00301315,-0.00520321,0.00825971,-0.00214708,-0.78125,0.00634445,0.0118904,1980,967,42.0853,-6.0726
763,57,42.0353,6.30878,0.00681352,0.00278929,-0.00826389,0.0133067,-0.00370391,-0.665981,0.0103296,0.0127901,1987,967,42.0353,-6.30875
770,57,41.9747,6.53461,0.012078,0.00176438,-0.0125099,0.0204523,-0.00660993,-0.589902,0.0162914,0.0126688,1994,967,41.9748,-6.53464
777,57,41.9114,6.72565,0.0186866,-0.000231639,-0.0181738,0.0297155,-0.0112606,-0.545449,0.0244443,0.0282873,2001,967,41.9114,-6.72565
784,57,42.3682,6.48792,0.026991,-0.00357327,-0.0259305,0.0418076,-0.0183899,-0.519122,0.0356209,0.0424039,2008,967,42.3681,-6.48789
791,57,43.0073,5.99811,0.037376,-0.00846263,-0.0366746,0.0577039,-0.0287905,-0.506121,0.0508591,0.0486871,2015,967,43.0072,-5.99813
798,57,43.4688,5.70746,0,0,0,0,0,0,0,-1,2022,967,43.4687,-5.70745
805,57,41.3035,8.00171,0,0,0,0,0,0,0,-1,2029,967,41.3034,-8.00171
812,57,0,0,0,0,0,0,0,0,0,-1,2036,967,0,0
-700,50,0,0,0,0,0,0,0,0,0,-1,524,974,0,0
-693,50,-27.1088,4.94409,0,0,0,0,0,0,0,-1,531,974,-27.1088,-4.94412
-686,50,-27.8133,6.04907,0,0,0,0,0,0,0,-1,538,974,-27.8133,-6.04906
-679,50,-27.4319,6.80103,0,0,0,0,0,0,0,-1,545,974,-27.4319,-6.80106
-672,50,-27.031,4.3042,0,0,0,0,0,0,0,-1,552,974,-27.031,-4.3042
-665,50,-32.4913,3.14636,0,0,0,0,0,0,0,-1,559,974,-32.4913,-3.14634
-658,50,-33.0557,3.24878,0,0,0,0,0,0,0,-1,566,974,-33.0557,-3.2488
-651,50,-31.1978,3.01367,-0.0376619,0.0256591,0.028417,0.0365417,-0.0485445,1.20507,0.0492871,0.0407206,573,974,-31.1978,-3.01369
-644,50,-31.5916,3.62518,-0.028881,0.021523,0.0221792,0.0298927,-0.0372507,1.20995,0.0388428,0.0290641,580,974,-31.5916,-3.62517
-637,50,-31.6633,3.56848,-0.0210738,0.017461,0.0161829,0.0233554,-0.0269682,1.22149,0.0290793,0.0175584,587,974,-31.6633,-3.56849
-630,50,-31.72,3.42438,-0.0149565,0.0139854,0.0109677,0.0176721,-0.0186431,1.24652,0.0209691,0.0119849,594,974,-31.72,-3.42439
-623,50,-31.7404,3.2735,-0.0106102,0.0107158,0.00662491,0.0126063,-0.0125006,1.29283,0.0144955,0.0116134,601,974,-31.7404,-3.27349
-616,50,-31.7421,3.09882,-0.00801412,0.00790261,0.00290234,0.00841532,-0.00852684,1.39595,0.00978163,0.0112303,608,974,-31.7421,-3.0988
-609,50,-31.7376,2.85822,-0.00609228,0.00548622,-0.000328126,0.00549551,-0.00610157,-1.54249,0.00669862,0.0108249,615,974,-31.7376,-2.85823
-602,50,-31.7424,2.66498,-0.00510823,0.00395281,-0.00269808,0.00469536,-0.00585078,-1.30223,0.00610098,0.0119104,622,974,-31.7424,-2.66496
-595,50,-31.7271,2.48346,-0.00452151,0.0027745,-0.00419333,0.00468455,-0.00643155,-1.14338,0.00644425,0.0121402,629,974,-31.7271,-2.48344
-588,50,-31.7576,2.19873,-0.00401396,0.00186258,-0.00523894,0.00493097,-0.00708235,-1.04097,0.00697287,0.0161899,636,974,-31.7576,-2.19874
-581,50,-31.9686,1.47266,-0.00375751,0.00128227,-0.00572906,0.00502113,-0.00749638,-0.992586,0.00727393,0.0219045,643,974,-31.9685,-1.47264
-574,50,-32.1615,0.754089,0,0,0,0,0,0,0,-1,650,974,-32.1615,-0.754074
-567,50,-32.0615,0.899658,-0.00327212,0.00060441,-0.00558854,0.00458127,-0.00724897,-0.952321,0.00688783,0.0381282,657,974,-32.0615,-0.899682
-560,50,-31.9986,0.818054,-0.002631,0.000366719,-0.00506933,0.00415413,-0.00641841,-0.929139,0.00615054,0.0438472,664,974,-31.9986,-0.818031
-553,50,-31.9526,0.834106,-0.00151686,7.25461e-05,-0.0043523,0.0037021,-0.00514641,-0.8757,0.00513133,0.0407418,671,974,-31.9527,-0.834115
-546,50,-31.9228,1.09491,0.000154881,-0.000385303,-0.0035021,0.00339729,-0.00362771,-0.746913,0.00405661,0.0402301,678,974,-31.9228,-1.09488
-539,50,-31.9019,0.900513,0.0024444,-0.00111354,-0.00272279,0.00391787,-0.002587,-0.49603,0.0037817,0.0430856,685,974,-31.9018,-0.900525
-532,50,-31.9588,0.732483,0.00528445,-0.00188229,-0.00277557,0.00623367,-0.0028315,-0.329521,0.00535523,0.0408813,692,974,-31.9588,-0.732463
-525,50,-31.9118,0.773254,0.00699545,-0.0025834,-0.00432355,0.00865828,-0.00424624,-0.36716,0.00759419,0.0400517,699,974,-31.9118,-0.773226
-518,50,0,0,0,0,0,0,0,0,0,-1,706,974,0,0
-511,50,0,0,0,0,0,0,0,0,0,-1,713,974,0,0
-504,50,0,0,0,0,0,0,0,0,0,-1,720,974,0,0
-497,50,0,0,0,0,0,0,0,0,0,-1,727,974,0,0
-490,50,0,0,0,0,0,0,0,0,0,-1,734,974,0,0
-483,50,0,0,0,0,0,0,0,0,0,-1,741,974,0,0
-476,50,0,0,0,0,0,0,0,0,0,-1,748,974,0,0
-469,50,0,0,0,0,0,0,0,0,0,-1,755,974,0,0
-462,50,0,0,0,0,0,0,0,0,0,-1,762,974,0,0
-455,50,0,0,0,0,0,0,0,0,0,-1,769,974,0,0
-448,50,0,0,0,0,0,0,0,0,0,-1,776,974,0,0
-441,50,0,0,0,0,0,0,0,0,0,-1,783,974,0,0
-434,50,0,0,0,0,0,0,0,0,0,-1,790,974,0,0
-427,50,0,0,0,0,0,0,0,0,0,-1,797,974,0,0
-420,50,0,0,0,0,0,0,0,0,0,-1,804,974,0,0
-413,50,0,0,0,0,0,0,0,0,0,-1,811,974,0,0
-406,50,0,0,0,0,0,0,0,0,0,-1,818,974,0,0
-399,50,0,0,0,0,0,0,0,0,0,-1,825,974,0,0
-392,50,0,0,0,0,0,0,0,0,0,-1,832,974,0,0
-385,50,0,0,0,0,0,0,0,0,0,-1,839,974,0,0
-378,50,0,0,0,0,0,0,0,0,0,-1,846,974,0,0
-371,50,0,0,0,0,0,0,0,0,0,-1,853,974,0,0
-364,50,0,0,0,0,0,0,0,0,0,-1,860,974,0,0
-357,50,0,0,0,0,0,0,0,0,0,-1,867,974,0,0
-350,50,0,0,0,0,0,0,0,0,0,-1,874,974,0,0
-343,50,0,0,0,0,0,0,0,0,0,-1,881,974,0,0
-336,50,0,0,0,0,0,0,0,0,0,-1,888,974,0,0
-329,50,0,0,0,0,0,0,0,0,0,-1,895,974,0,0
-322,50,0,0,0,0,0,0,0,0,0,-1,902,974,0,0
-315,50,0,0,0,0,0,0,0,0,0,-1,909,974,0,0
-308,50,0,0,0,0,0,0,0,0,0,-1,916,974,0,0
-301,50,0,0,0,0,0,0,0,0,0,-1,923,974,0,0
-294,50,0,0,0,0,0,0,0,0,0,-1,930,974,0,0
-287,50,0,0,0,0,0,0,0,0,0,-1,937,974,0,0
-280,50,0,0,0,0,0,0,0,0,0,-1,944,974,0,0
-273,50,0,0,0,0,0,0,0,0,0,-1,951,974,0,0
-266,50,0,0,0,0,0,0,0,0,0,-1,958,974,0,0
-259,50,0,0,0,0,0,0,0,0,0,-1,965,974,0,0
-252,50,0,0,0,0,0,0,0,0,0,-1,972,974,0,0
-245,50,0,0,0,0,0,0,0,0,0,-1,979,974,0,0
-238,50,0,0,0,0,0,0,0,0,0,-1,986,974,0,0
-231,50,0,0,0,0,0,0,0,0,0,-1,993,974,0,0
-224,50,0,0,0,0,0,0,0,0,0,-1,1000,974,0,0
-217,50,0,0,0,0,0,0,0,0,0,-1,1007,974,0,0
-210,50,0,0,0,0,0,0,0,0,0,-1,1014,974,0,0
-203,50,0,0,0,0,0,0,0,0,0,-1,1021,974,0,0
-196,50,0,0,0,0,0,0,0,0,0,-1,1028,974,0,0
-189,50,0,0,0,0,0,0,0,0,0,-1,1035,974,0,0
-182,50,0,0,0,0,0,0,0,0,0,-1,1042,974,0,0
-175,50,0,0,0,0,0,0,0,0,0,-1,1049,974,0,0
-168,50,0,0,0,0,0,0,0,0,0,-1,1056,974,0,0
-161,50,0,0,0,0,0,0,0,0,0,-1,1063,974,0,0
-154,50,0,0,0,0,0,0,0,0,0,-1,1070,974,0,0
-147,50,0,0,0,0,0,0,0,0,0,-1,1077,974,0,0
-140,50,0,0,0,0,0,0,0,0,0,-1,1084,974,0,0
-133,50,0,0,0,0,0,0,0,0,0,-1,1091,974,0,0
-126,50,0,0,0,0,0,0,0,0,0,-1,1098,974,0,0
-119,50,0,0,0,0,0,0,0,0,0,-1,1105,974,0,0
-112,50,0,0,0,0,0,0,0,0,0,-1,1112,974,0,0
-105,50,0,0,0,0,0,0,0,0,0,-1,1119,974,0,0
-98,50,0,0,0,0,0,0,0,0,0,-1,1126,974,0,0
-91,50,0,0,0,0,0,0,0,0,0,-1,1133,974,0,0
-84,50,0,0,0,0,0,0,0,0,0,-1,1140,974,0,0
-77,50,0,0,0,0,0,0,0,0,0,-1,1147,974,0,0
-70,50,0,0,0,0,0,0,0,0,0,-1,1154,974,0,0
-63,50,0,0,0,0,0,0,0,0,0,-1,1161,974,0,0
-56,50,0,0,0,0,0,0,0,0,0,-1,1168,974,0,0
-49,50,0,0,0,0,0,0,0,0,0,-1,1175,974,0,0
-42,50,0,0,0,0,0,0,0,0,0,-1,1182,974,0,0
-35,50,0,0,0,0,0,0,0,0,0,-1,1189,974,0,0
-28,50,0,0,0,0,0,0,0,0,0,-1,1196,974,0,0
-21,50,0,0,0,0,0,0,0,0,0,-1,1203,974,0,0
-14,50,0,0,0,0,0,0,0,0,0,-1,1210,974,0,0
-7,50,0,0,0,0,0,0,0,0,0,-1,1217,974,0,0
0,50,0,0,0,0,0,0,0,0,0,-1,1224,974,0,0
7,50,0,0,0,0,0,0,0,0,0,-1,1231,974,0,0
14,50,0,0,0,0,0,0,0,0,0,-1,1238,974,0,0
21,50,0,0,0,0,0,0,0,0,0,-1,1245,974,0,0
28,50,0,0,0,0,0,0,0,0,0,-1,1252,974,0,0
35,50,0,0,0,0,0,0,0,0,0,-1,1259,974,0,0
42,50,0,0,0,0,0,0,0,0,0,-1,1266,974,0,0
49,50,0,0,0,0,0,0,0,0,0,-1,1273,974,0,0
56,50,0,0,0,0,0,0,0,0,0,-1,1280,974,0,0
63,50,0,0,0,0,0,0,0,0,0,-1,1287,974,0,0
70,50,0,0,0,0,0,0,0,0,0,-1,1294,974,0,0
77,50,0,0,0,0,0,0,0,0,0,-1,1301,974,0,0
84,50,0,0,0,0,0,0,0,0,0,-1,1308,974,0,0
91,50,0,0,0,0,0,0,0,0,0,-1,1315,974,0,0
98,50,0,0,0,0,0,0,0,0,0,-1,1322,974,0,0
105,50,0,0,0,0,0,0,0,0,0,-1,1329,974,0,0
112,50,0,0,0,0,0,0,0,0,0,-1,1336,974,0,0
119,50,0,0,0,0,0,0,0,0,0,-1,1343,974,0,0
126,50,0,0,0,0,0,0,0,0,0,-1,1350,974,0,0
133,50,0,0,0,0,0,0,0,0,0,-1,1357,974,0,0
140,50,0,0,0,0,0,0,0,0,0,-1,1364,974,0,0
147,50,0,0,0,0,0,0,0,0,0,-1,1371,974,0,0
154,50,0,0,0,0,0,0,0,0,0,-1,1378,974,0,0
161,50,0,0,0,0,0,0,0,0,0,-1,1385,974,0,0
168,50,0,0,0,0,0,0,0,0,0,-1,1392,974,0,0
175,50,0,0,0,0,0,0,0,0,0,-1,1399,974,0,0
182,50,0,0,0,0,0,0,0,0,0,-1,1406,974,0,0
189,50,0,0,0,0,0,0,0,0,0,-1,1413,974,0,0
196,50,0,0,0,0,0,0,0,0,0,-1,1420,974,0,0
203,50,0,0,0,0,0,0,0,0,0,-1,1427,974,0,0
210,50,0,0,0,0,0,0,0,0,0,-1,1434,974,0,0
217,50,0,0,0,0,0,0,0,0,0,-1,1441,974,0,0
224,50,0,0,0,0,0,0,0,0,0,-1,1448,974,0,0
231,50,0,0,0,0,0,0,0,0,0,-1,1455,974,0,0
238,50,0,0,0,0,0,0,0,0,0,-1,1462,974,0,0
245,50,0,0,0,0,0,0,0,0,0,-1,1469,974,0,0
252,50,0,0,0,0,0,0,0,0,0,-1,1476,974,0,0
259,50,0,0,0,0,0,0,0,0,0,-1,1483,974,0,0
266,50,0,0,0,0,0,0,0,0,0,-1,1490,974,0,0
273,50,0,0,0,0,0,0,0,0,0,-1,1497,974,0,0
280,50,0,0,0,0,0,0,0,0,0,-1,1504,974,0,0
287,50,0,0,0,0,0,0,0,0,0,-1,1511,974,0,0
294,50,0,0,0,0,0,0,0,0,0,-1,1518,974,0,0
301,50,0,0,0,0,0,0,0,0,0,-1,1525,974,0,0
308,50,0,0,0,0,0,0,0,0,0,-1,1532,974,0,0
315,50,0,0,0,0,0,0,0,0,0,-1,1539,974,0,0
322,50,0,0,0,0,0,0,0,0,0,-1,1546,974,0,0
329,50,0,0,0,0,0,0,0,0,0,-1,1553,974,0,0
336,50,0,0,0,0,0,0,0,0,0,-1,1560,974,0,0
343,50,0,0,0,0,0,0,0,0,0,-1,1567,974,0,0
350,50,0,0,0,0,0,0,0,0,0,-1,1574,974,0,0
357,50,0,0,0,0,0,0,0,0,0,-1,1581,974,0,0
364,50,0,0,0,0,0,0,0,0,0,-1,1588,974,0,0
371,50,0,0,0,0,0,0,0,0,0,-1,1595,974,0,0
378,50,0,0,0,0,0,0,0,0,0,-1,1602,974,0,0
385,50,0,0,0,0,0,0,0,0,0,-1,1609,974,0,0
392,50,0,0,0,0,0,0,0,0,0,-1,1616,974,0,0
399,50,0,0,0,0,0,0,0,0,0,-1,1623,974,0,0
406,50,0,0,0,0,0,0,0,0,0,-1,1630,974,0,0
413,50,0,0,0,0,0,0,0,0,0,-1,1637,974,0,0
420,50,0,0,0,0,0,0,0,0,0,-1,1644,974,0,0
427,50,0,0,0,0,0,0,0,0,0,-1,1651,974,0,0
434,50,0,0,0,0,0,0,0,0,0,-1,1658,974,0,0
441,50,0,0,0,0,0,0,0,0,0,-1,1665,974,0,0
448,50,0,0,0,0,0,0,0,0,0,-1,1672,974,0,0
455,50,0,0,0,0,0,0,0,0,0,-1,1679,974,0,0
462,50,0,0,0,0,0,0,0,0,0,-1,1686,974,0,0
469,50,0,0,0,0,0,0,0,0,0,-1,1693,974,0,0
476,50,0,0,0,0,0,0,0,0,0,-1,1700,974,0,0
483,50,0,0,0,0,0,0,0,0,0,-1,1707,974,0,0
490,50,0,0,0,0,0,0,0,0,0,-1,1714,974,0,0
497,50,0,0,0,0,0,0,0,0,0,-1,1721,974,0,0
504,50,0,0,0,0,0,0,0,0,0,-1,1728,974,0,0
511,50,0,0,0,0,0,0,0,0,0,-1,1735,974,0,0
518,50,0,0,0,0,0,0,0,0,0,-1,1742,974,0,0
525,50,0,0,0,0,0,0,0,0,0,-1,1749,974,0,0
532,50,0,0,0,0,0,0,0,0,0,-1,1756,974,0,0
539,50,0,0,0,0,0,0,0,0,0,-1,1763,974,0,0
546,50,0,0,0,0,0,0,0,0,0,-1,1770,974,0,0
553,50,0,0,0,0,0,0,0,0,0,-1,1777,974,0,0
560,50,0,0,0,0,0,0,0,0,0,-1,1784,974,0,0
567,50,0,0,0,0,0,0,0,0,0,-1,1791,974,0,0
574,50,0,0,0,0,0,0,0,0,0,-1,1798,974,0,0
581,50,0,0,0,0,0,0,0,0,0,-1,1805,974,0,0
588,50,0,0,0,0,0,0,0,0,0,-1,1812,974,0,0
595,50,0,0,0,0,0,0,0,0,0,-1,1819,974,0,0
602,50,0,0,0,0,0,0,0,0,0,-1,1826,974,0,0
609,50,0,0,0,0,0,0,0,0,0,-1,1833,974,0,0
616,50,0,0,0,0,0,0,0,0,0,-1,1840,974,0,0
623,50,0,0,0,0,0,0,0,0,0,-1,1847,974,0,0
630,50,0,0,0,0,0,0,0,0,0,-1,1854,974,0,0
637,50,0,0,0,0,0,0,0,0,0,-1,1861,974,0,0
644,50,43.4176,3.19519,0.00263942,0.00246464,-0.0056211,0.00817381,-0.00306975,-0.777625,0.00671072,0.0398944,1868,974,43.4176,-3.19521
651,50,43.3523,2.9624,0.00245722,0.00204332,-0.00411415,0.00636962,-0.00186908,-0.760268,0.00498758,0.0343171,1875,974,43.3523,-2.96242
658,50,43.3889,2.74298,0.0020653,0.00180979,-0.00282525,0.00476568,-0.000890594,-0.762804,0.00351183,0.0396708,1882,974,43.3889,-2.74296
665,50,43.6409,2.75391,0.00159534,0.00174667,-0.00153023,0.00320311,0.000138909,-0.810102,0.00209064,0.0418762,1889,974,43.6408,-2.75389
672,50,43.6752,2.56415,0.00103204,0.00171209,-0.000276173,0.00181011,0.000934014,-1.22972,0.00104525,0.0398708,1896,974,43.6752,-2.56418
679,50,43.5463,2.66895,0.000501736,0.00150352,0.000716914,0.00187719,0.000128067,1.09032,0.00121103,0.0405088,1903,974,43.5462,-2.66894
686,50,43.5537,2.78699,0.000173856,0.00118962,0.00132641,0.00210206,-0.000738582,0.968238,0.00170186,0.042618,1910,974,43.5537,-2.78697
693,50,43.5852,2.89215,-0.000101836,0.000778909,0.00161501,0.00201251,-0.00133544,0.9185,0.00194607,0.0401859,1917,974,43.5852,-2.89213
700,50,43.5452,2.83655,-0.000356333,0.000710583,0.00170938,0.00196781,-0.00161356,0.936648,0.00207108,0.0248397,1924,974,43.5452,-2.83652
707,50,43.5835,2.89087,-0.000702953,0.000789814,0.00154204,0.00175661,-0.00166975,1.01079,0.00197842,0.040033,1931,974,43.5835,-2.89084
714,50,43.5787,3.01379,0,0,0,0,0,0,0,-1,1938,974,43.5787,-3.01377
721,50,42.3894,4.81885,0,0,0,0,0,0,0,-1,1945,974,42.3894,-4.81884
728,50,42.3762,5.14368,-0.0018864,0.00192263,0.000732145,0.00205851,-0.00202228,1.38729,0.00235608,0.0226583,1952,974,42.3762,-5.14369
735,50,42.4158,5.37555,-0.00122846,0.00245954,3.88665e-05,0.00245995,-0.00122887,1.56026,0.00216892,0.0203458,1959,974,42.4158,-5.37557
742,50,42.4076,5.58447,-0.000622441,0.00237573,-0.0010014,0.00267944,-0.000926148,-1.27633,0.00216217,0.0148891,1966,974,42.4076,-5.58446
749,50,42.3888,5.77698,0.00019674,0.00283006,-0.00253778,0.0043724,-0.0013456,-1.0247,0.00345203,0.0154469,1973,974,42.3888,-5.77699
756,50,42.3538,6.01251,0.00204273,0.00307283,-0.00472404,0.00730981,-0.00219425,-0.839697,0.00574602,0.0133425,1980,974,42.3537,-6.01253
763,50,42.2938,6.24213,0.00509999,0.00279315,-0.00763211,0.0116653,-0.00377221,-0.710402,0.0092931,0.0138963,1987,974,42.2938,-6.24214
770,50,42.2262,6.42535,0.00966954,0.00167803,-0.011726,0.0180619,-0.00671432,-0.621188,0.0147962,0.0129417,1994,974,42.2262,-6.42537
777,50,42.2161,6.62915,0.0155197,-0.000425286,-0.0171955,0.026501,-0.0114066,-0.56833,0.0224569,0.0250571,2001,974,42.2161,-6.62918
784,50,42.2512,6.8678,0.0228666,-0.00391243,-0.02464,0.0375201,-0.0185659,-0.536515,0.0329919,0.0423509,2008,974,42.2511,-6.86782
791,50,42.2993,7.17523,0.0322476,-0.00906749,-0.0349919,0.0522246,-0.0290445,-0.51875,0.0475527,0.0448481,2015,974,42.2994,-7.17525
798,50,42.1746,7.39447,0.0434376,-0.0158492,-0.0490572,0.0711121,-0.0435237,-0.513625,0.0668208,0.0454617,2022,974,42.1746,-7.3945
805,50,42.0984,7.63586,0,0,0,0,0,0,0,-1,2029,974,42.0984,-7.63587
812,50,0,0,0,0,0,0,0,0,0,-1,2036,974,0,0
-700,43,0,0,0,0,0,0,0,0,0,-1,524,981,0,0
-693,43,-27.7597,4.34271,-0.115368,0.0427205,0.0877543,0.0817813,-0.154429,1.15201,0.138509,0.0445965,531,981,-27.7597,-4.34271
-686,43,-28.4023,4.65222,0,0,0,0,0,0,0,-1,538,981,-28.4023,-4.65222
-679,43,-29.012,4.80341,0,0,0,0,0,0,0,-1,545,981,-29.012,-4.80338
-672,43,-27.8223,1.45178,0,0,0,0,0,0,0,-1,552,981,-27.8223,-1.4518
-665,43,-28.2676,1.62988,0,0,0,0,0,0,0,-1,559,981,-28.2676,-1.62988
-658,43,-31.5477,3.25958,0,0,0,0,0,0,0,-1,566,981,-31.5477,-3.25956
-651,43,-31.6721,3.40991,-0.0338831,0.0226188,0.0238276,0.0313256,-0.0425898,1.22046,0.0428399,0.0382672,573,981,-31.6721,-3.40989
-644,43,-31.8248,3.60455,-0.0259081,0.0191435,0.0185912,0.0258247,-0.0325893,1.2258,0.0338006,0.0230291,580,981,-31.8248,-3.60454
-637,43,-31.8901,3.48669,-0.0186972,0.0157292,0.0132803,0.0202567,-0.0232247,1.24223,0.0251235,0.0172856,587,981,-31.8901,-3.48672
-630,43,-31.9246,3.34467,-0.0130441,0.0128273,0.00864983,0.0154529,-0.0156696,1.2761,0.0179687,0.0144518,594,981,-31.9246,-3.34469
-623,43,-31.9342,3.21112,-0.00889854,0.0100673,0.00490195,0.0112594,-0.0100906,1.33225,0.0123326,0.0124031,601,981,-31.9342,-3.2111
-616,43,-31.9369,3.0329,-0.00635613,0.00760636,0.00153928,0.00777404,-0.00652381,1.46229,0.00826538,0.0110523,608,981,-31.9369,-3.03289
-609,43,-31.9334,2.85352,-0.00441555,0.00541727,-0.00151304,0.00564483,-0.00464311,-1.42152,0.00594912,0.0132593,615,981,-31.9334,-2.85349
-602,43,-31.9272,2.69458,-0.00337597,0.00408575,-0.00380638,0.00568479,-0.00497501,-1.17309,0.00615899,0.0167555,622,981,-31.9273,-2.69459
-595,43,-31.9562,2.53455,-0.00274919,0.0030119,-0.00528767,0.00615273,-0.00589002,-1.03481,0.00695344,0.014842,629,981,-31.9562,-2.53454
-588,43,-31.9476,2.09058,-0.00220769,0.00207089,-0.00630083,0.0065857,-0.0067225,-0.949055,0.00768363,0.0200351,636,981,-31.9476,-2.09056
-581,43,-32.0086,1.32495,-0.00188843,0.00145459,-0.00671298,0.00670103,-0.00713487,-0.907415,0.00798947,0.0244187,643,981,-32.0086,-1.32494
-574,43,-32.0497,0.972046,-0.00174285,0.00097128,-0.00668127,0.00643192,-0.00720348,-0.885592,0.0078766,0.0263837,650,981,-32.0497,-0.972074
-567,43,-32.017,0.927063,-0.00149633,0.000653701,-0.0062514,0.00592185,-0.00676448,-0.870547,0.00732984,0.0358458,657,981,-32.017,-0.92704
-560,43,-31.8806,0.832947,-0.00103794,0.00032686,-0.00545382,0.0051408,-0.00585188,-0.847636,0.00635106,0.0393095,664,981,-31.8806,-0.832963
-553,43,-31.7439,0.822754,-0.000230327,-8.38101e-05,-0.00440491,0.00424845,-0.00456258,-0.793713,0.00508813,0.0400429,671,981,-31.7439,-0.822754
-546,43,-31.8107,1.14636,0.00103592,-0.000700966,-0.00318818,0.00347182,-0.00313687,-0.652427,0.00381717,0.0418475,678,981,-31.8107,-1.14633
-539,43,-31.8949,1.11749,0.00285732,-0.00160529,-0.0020818,0.00367767,-0.00242565,-0.375374,0.00354838,0.0449819,685,981,-31.8949,-1.11749
-532,43,-31.8137,1.00879,0.00522722,-0.00245148,-0.00205785,0.00574394,-0.0029682,-0.246012,0.00511435,0.044254,692,981,-31.8137,-1.00881
-525,43,-31.7501,0.966064,0.00656584,-0.00340095,-0.0037052,0.00779234,-0.00462744,-0.319667,0.00724776,0.0433429,699,981,-31.7501,-0.966058
-518,43,0,0,0,0,0,0,0,0,0,-1,706,981,0,0
-511,43,0,0,0,0,0,0,0,0,0,-1,713,981,0,0
-504,43,0,0,0,0,0,0,0,0,0,-1,720,981,0,0
-497,43,0,0,0,0,0,0,0,0,0,-1,727,981,0,0
-490,43,0,0,0,0,0,0,0,0,0,-1,734,981,0,0
-483,43,0,0,0,0,0,0,0,0,0,-1,741,981,0,0
-476,43,0,0,0,0,0,0,0,0,0,-1,748,981,0,0
-469,43,0,0,0,0,0,0,0,0,0,-1,755,981,0,0
-462,43,0,0,0,0,0,0,0,0,0,-1,762,981,0,0
-455,43,0,0,0,0,0,0,0,0,0,-1,769,981,0,0
-448,43,0,0,0,0,0,0,0,0,0,-1,776,981,0,0
-441,43,0,0,0,0,0,0,0,0,0,-1,783,981,0,0
-434,43,0,0,0,0,0,0,0,0,0,-1,790,981,0,0
-427,43,0,0,0,0,0,0,0,0,0,-1,797,981,0,0
-420,43,0,0,0,0,0,0,0,0,0,-1,804,981,0,0
-413,43,0,0,0,0,0,0,0,0,0,-1,811,981,0,0
-406,43,0,0,0,0,0,0,0,0,0,-1,818,981,0,0
-399,43,0,0,0,0,0,0,0,0,0,-1,825,981,0,0
-392,43,0,0,0,0,0,0,0,0,0,-1,832,981,0,0
-385,43,0,0,0,0,0,0,0,0,0,-1,839,981,0,0
-378,43,0,0,0,0,0,0,0,0,0,-1,846,981,0,0
-371,43,0,0,0,0,0,0,0,0,0,-1,853,981,0,0
-364,43,0,0,0,0,0,0,0,0,0,-1,860,981,0,0
-357,43,0,0,0,0,0,0,0,0,0,-1,867,981,0,0
-350,43,0,0,0,0,0,0,0,0,0,-1,874,981,0,0
-343,43,0,0,0,0,0,0,0,0,0,-1,881,981,0,0
-336,43,0,0,0,0,0,0,0,0,0,-1,888,981,0,0
-329,43,0,0,0,0,0,0,0,0,0,-1,895,981,0,0
-322,43,0,0,0,0,0,0,0,0,0,-1,902,981,0,0
-315,43,0,0,0,0,0,0,0,0,0,-1,909,981,0,0
-308,43,0,0,0,0,0,0,0,0,0,-1,916,981,0,0
-301,43,0,0,0,0,0,0,0,0,0,-1,923,981,0,0
-294,43,0,0,0,0,0,0,0,0,0,-1,930,981,0,0
-287,43,0,0,0,0,0,0,0,0,0,-1,937,981,0,0
-280,43,0,0,0,0,0,0,0,0,0,-1,944,981,0,0
-273,43,0,0,0,0,0,0,0,0,0,-1,951,981,0,0
-266,43,0,0,0,0,0,0,0,0,0,-1,958,981,0,0
-259,43,0,0,0,0,0,0,0,0,0,-1,965,981,0,0
-252,43,0,0,0,0,0,0,0,0,0,-1,972,981,0,0
-245,43,0,0,0,0,0,0,0,0,0,-1,979,981,0,0
-238,43,0,0,0,0,0,0,0,0,0,-1,986,981,0,0
-231,43,0,0,0,0,0,0,0,0,0,-1,993,981,0,0
-224,43,0,0,0,0,0,0,0,0,0,-1,1000,981,0,0
-217,43,0,0,0,0,0,0,0,0,0,-1,1007,981,0,0
-210,43,0,0,0,0,0,0,0,0,0,-1,1014,981,0,0
-203,43,0,0,0,0,0,0,0,0,0,-1,1021,981,0,0
-196,43,0,0,0,0,0,0,0,0,0,-1,1028,981,0,0
-189,43,0,0,0,0,0,0,0,0,0,-1,1035,981,0,0
-182,43,0,0,0,0,0,0,0,0,0,-1,1042,981,0,0
-175,43,0,0,0,0,0,0,0,0,0,-1,1049,981,0,0
-168,43,0,0,0,0,0,0,0,0,0,-1,1056,981,0,0
-161,43,0,0,0,0,0,0,0,0,0,-1,1063,981,0,0
-154,43,0,0,0,0,0,0,0,0,0,-1,1070,981,0,0
-147,43,0,0,0,0,0,0,0,0,0,-1,1077,981,0,0
-140,43,0,0,0,0,0,0,0,0,0,-1,1084,981,0,0
-133,43,0,0,0,0,0,0,0,0,0,-1,1091,981,0,0
-126,43,0,0,0,0,0,0,0,0,0,-1,1098,981,0,0
-119,43,0,0,0,0,0,0,0,0,0,-1,1105,981,0,0
-112,43,0,0,0,0,0,0,0,0,0,-1,1112,981,0,0
-105,43,0,0,0,0,0,0,0,0,0,-1,1119,981,0,0
-98,43,0,0,0,0,0,0,0,0,0,-1,1126,981,0,0
-91,43,0,0,0,0,0,0,0,0,0,-1,1133,981,0,0
-84,43,0,0,0,0,0,0,0,0,0,-1,1140,981,0,0
-77,43,0,0,0,0,0,0,0,0,0,-1,1147,981,0,0
-70,43,0,0,0,0,0,0,0,0,0,-1,1154,981,0,0
-63,43,0,0,0,0,0,0,0,0,0,-1,1161,981,0,0
-56,43,0,0,0,0,0,0,0,0,0,-1,1168,981,0,0
-49,43,0,0,0,0,0,0,0,0,0,-1,1175,981,0,0
-42,43,0,0,0,0,0,0,0,0,0,-1,1182,981,0,0
-35,43,0,0,0,0,0,0,0,0,0,-1,1189,981,0,0
-28,43,0,0,0,0,0,0,0,0,0,-1,1196,981,0,0
-21,43,0,0,0,0,0,0,0,0,0,-1,1203,981,0,0
-14,43,0,0,0,0,0,0,0,0,0,-1,1210,981,0,0
-7,43,0,0,0,0,0,0,0,0,0,-1,1217,981,0,0
0,43,0,0,0,0,0,0,0,0,0,-1,1224,981,0,0
7,43,0,0,0,0,0,0,0,0,0,-1,1231,981,0,0
14,43,0,0,0,0,0,0,0,0,0,-1,1238,981,0,0
21,43,0,0,0,0,0,0,0,0,0,-1,1245,981,0,0
28,43,0,0,0,0,0,0,0,0,0,-1,1252,981,0,0
35,43,0,0,0,0,0,0,0,0,0,-1,1259,981,0,0
42,43,0,0,0,0,0,0,0,0,0,-1,1266,981,0,0
49,43,0,0,0,0,0,0,0,0,0,-1,1273,981,0,0
56,43,0,0,0,0,0,0,0,0,0,-1,1280,981,0,0
63,43,0,0,0,0,0,0,0,0,0,-1,1287,981,0,0
70,43,0,0,0,0,0,0,0,0,0,-1,1294,981,0,0
77,43,0,0,0,0,0,0,0,0,0,-1,1301,981,0,0
84,43,0,0,0,0,0,0,0,0,0,-1,1308,981,0,0
91,43,0,0,0,0,0,0,0,0,0,-1,1315,981,0,0
98,43,0,0,0,0,0,0,0,0,0,-1,1322,981,0,0
105,43,0,0,0,0,0,0,0,0,0,-1,1329,981,0,0
112,43,0,0,0,0,0,0,0,0,0,-1,1336,981,0,0
119,43,0,0,0,0,0,0,0,0,0,-1,1343,981,0,0
126,43,0,0,0,0,0,0,0,0,0,-1,1350,981,0,0
133,43,0,0,0,0,0,0,0,0,0,-1,1357,981,0,0
140,43,0,0,0,0,0,0,0,0,0,-1,1364,981,0,0
147,43,0,0,0,0,0,0,0,0,0,-1,1371,981,0,0
154,43,0,0,0,0,0,0,0,0,0,-1,1378,981,0,0
161,43,0,0,0,0,0,0,0,0,0,-1,1385,981,0,0
168,43,0,0,0,0,0,0,0,0,0,-1,1392,981,0,0
175,43,0,0,0,0,0,0,0,0,0,-1,1399,981,0,0
182,43,0,0,0,0,0,0,0,0,0,-1,1406,981,0,0
189,43,0,0,0,0,0,0,0,0,0,-1,1413,981,0,0
196,43,0,0,0,0,0,0,0,0,0,-1,1420,981,0,0
203,43,0,0,0,0,0,0,0,0,0,-1,1427,981,0,0
210,43,0,0,0,0,0,0,0,0,0,-1,1434,981,0,0
217,43,0,0,0,0,0,0,0,0,0,-1,1441,981,0,0
224,43,0,0,0,0,0,0,0,0,0,-1,1448,981,0,0
231,43,0,0,0,0,0,0,0,0,0,-1,1455,981,0,0
238,43,0,0,0,0,0,0,0,0,0,-1,1462,981,0,0
245,43,0,0,0,0,0,0,0,0,0,-1,1469,981,0,0
252,43,0,0,0,0,0,0,0,0,0,-1,1476,981,0,0
259,43,0,0,0,0,0,0,0,0,0,-1,1483,981,0,0
266,43,0,0,0,0,0,0,0,0,0,-1,1490,981,0,0
273,43,0,0,0,0,0,0,0,0,0,-1,1497,981,0,0
280,43,0,0,0,0,0,0,0,0,0,-1,1504,981,0,0
287,43,0,0,0,0,0,0,0,0,0,-1,1511,981,0,0
294,43,0,0,0,0,0,0,0,0,0,-1,1518,981,0,0
301,43,0,0,0,0,0,0,0,0,0,-1,1525,981,0,0
308,43,0,0,0,0,0,0,0,0,0,-1,1532,981,0,0
315,43,0,0,0,0,0,0,0,0,0,-1,1539,981,0,0
322,43,0,0,0,0,0,0,0,0,0,-1,1546,981,0,0
329,43,0,0,0,0,0,0,0,0,0,-1,1553,981,0,0
336,43,0,0,0,0,0,0,0,0,0,-1,1560,981,0,0
343,43,0,0,0,0,0,0,0,0,0,-1,1567,981,0,0
350,43,0,0,0,0,0,0,0,0,0,-1,1574,981,0,0
357,43,0,0,0,0,0,0,0,0,0,-1,1581,981,0,0
364,43,0,0,0,0,0,0,0,0,0,-1,1588,981,0,0
371,43,0,0,0,0,0,0,0,0,0,-1,1595,981,0,0
378,43,0,0,0,0,0,0,0,0,0,-1,1602,981,0,0
385,43,0,0,0,0,0,0,0,0,0,-1,1609,981,0,0
392,43,0,0,0,0,0,0,0,0,0,-1,1616,981,0,0
399,43,0,0,0,0,0,0,0,0,0,-1,1623,981,0,0
406,43,0,0,0,0,0,0,0,0,0,-1,1630,981,0,0
413,43,0,0,0,0,0,0,0,0,0,-1,1637,981,0,0
420,43,0,0,0,0,0,0,0,0,0,-1,1644,981,0,0
427,43,0,0,0,0,0,0,0,0,0,-1,1651,981,0,0
434,43,0,0,0,0,0,0,0,0,0,-1,1658,981,0,0
441,43,0,0,0,0,0,0,0,0,0,-1,1665,981,0,0
448,43,0,0,0,0,0,0,0,0,0,-1,1672,981,0,0
455,43,0,0,0,0,0,0,0,0,0,-1,1679,981,0,0
462,43,0,0,0,0,0,0,0,0,0,-1,1686,981,0,0
469,43,0,0,0,0,0,0,0,0,0,-1,1693,981,0,0
476,43,0,0,0,0,0,0,0,0,0,-1,1700,981,0,0
483,43,0,0,0,0,0,0,0,0,0,-1,1707,981,0,0
490,43,0,0,0,0,0,0,0,0,0,-1,1714,981,0,0
497,43,0,0,0,0,0,0,0,0,0,-1,1721,981,0,0
504,43,0,0,0,0,0,0,0,0,0,-1,1728,981,0,0
511,43,0,0,0,0,0,0,0,0,0,-1,1735,981,0,0
518,43,0,0,0,0,0,0,0,0,0,-1,1742,981,0,0
525,43,0,0,0,0,0,0,0,0,0,-1,1749,981,0,0
532,43,0,0,0,0,0,0,0,0,0,-1,1756,981,0,0
539,43,0,0,0,0,0,0,0,0,0,-1,1763,981,0,0
546,43,0,0,0,0,0,0,0,0,0,-1,1770,981,0,0
553,43,0,0,0,0,0,0,0,0,0,-1,1777,981,0,0
560,43,0,0,0,0,0,0,0,0,0,-1,1784,981,0,0
567,43,0,0,0,0,0,0,0,0,0,-1,1791,981,0,0
574,43,0,0,0,0,0,0,0,0,0,-1,1798,981,0,0
581,43,0,0,0,0,0,0,0,0,0,-1,1805,981,0,0
588,43,0,0,0,0,0,0,0,0,0,-1,1812,981,0,0
595,43,0,0,0,0,0,0,0,0,0,-1,1819,981,0,0
602,43,0,0,0,0,0,0,0,0,0,-1,1826,981,0,0
609,43,0,0,0,0,0,0,0,0,0,-1,1833,981,0,0
616,43,0,0,0,0,0,0,0,0,0,-1,1840,981,0,0
623,43,0,0,0,0,0,0,0,0,0,-1,1847,981,0,0
630,43,0,0,0,0,0,0,0,0,0,-1,1854,981,0,0
637,43,0,0,0,0,0,0,0,0,0,-1,1861,981,0,0
644,43,43.171,3.17017,0.00249617,0.00186333,-0.00581082,0.00799918,-0.00363968,-0.758198,0.00687503,0.0407975,1868,981,43.1711,-3.17016
651,43,43.1921,2.91882,0.00236111,0.00152052,-0.00439819,0.00635904,-0.00247741,-0.737763,0.00526324,0.0392251,1875,981,43.1921,-2.91884
658,43,43.5258,2.82355,0.00202367,0.00134124,-0.00317432,0.00487506,-0.00151015,-0.731857,0.00385336,0.0396727,1882,981,43.5258,-2.82356
665,43,43.566,2.73096,0.00163719,0.00132138,-0.00192889,0.00341463,-0.000456057,-0.744557,0.00244267,0.0385404,1889,981,43.566,-2.73096
672,43,43.5728,2.62988,0.00118615,0.00137832,-0.000666769,0.00195589,0.000608577,-0.85696,0.00115577,0.0387969,1896,981,43.5727,-2.62988
679,43,43.5458,2.69116,0.000722477,0.00129007,0.000389407,0.00148812,0.000524425,1.10029,0.000871556,0.0400272,1903,981,43.5457,-2.69118
686,43,43.5453,2.8537,0.000445333,0.0010808,0.00108563,0.00189424,-0.000368106,0.927758,0.00140173,0.041109,1910,981,43.5453,-2.85372
693,43,43.5266,2.79828,0.000204644,0.000760492,0.001463,0.00197173,-0.0010066,0.879264,0.00174938,0.0384588,1917,981,43.5266,-2.79827
700,43,43.5228,2.74707,-2.73219e-05,0.000720463,0.00161432,0.00200362,-0.00131048,0.899196,0.0019273,0.0348026,1924,981,43.5228,-2.74706
707,43,43.5923,2.76898,-0.000372154,0.00083754,0.00150118,0.00185114,-0.00138575,0.976907,0.00187525,0.0328651,1931,981,43.5923,-2.76901
714,43,43.6311,2.74512,0,0,0,0,0,0,0,-1,1938,981,43.6311,-2.74513
721,43,42.7537,4.83215,0,0,0,0,0,0,0,-1,1945,981,42.7536,-4.83215
728,43,42.7323,5.11877,-0.00174816,0.00211666,0.000859927,0.00229936,-0.00193085,1.36145,0.0024454,0.021771,1952,981,42.7323,-5.11875
735,43,42.6696,5.36865,-0.00122844,0.00271993,0.000262363,0.00273729,-0.00124579,1.50473,0.00235276,0.015821,1959,981,42.6695,-5.36864
742,43,42.6427,5.56396,-0.000853882,0.00262659,-0.000686943,0.00275726,-0.000984558,-1.38281,0.0022397,0.0160439,1966,981,42.6427,-5.56399
749,43,42.6299,5.75226,-0.000346178,0.00304298,-0.00207511,0.00402752,-0.00133072,-1.12779,0.00322154,0.0165841,1973,981,42.6298,-5.75228
756,43,42.6115,5.94385,0.00101471,0.00334261,-0.00397453,0.00632011,-0.0019628,-0.927842,0.00499784,0.0181141,1980,981,42.6114,-5.94385
763,43,42.5649,6.12231,0.00340043,0.00316396,-0.00649313,0.00977641,-0.00321202,-0.776295,0.00781159,0.0218144,1987,981,42.565,-6.12232
770,43,42.4601,6.36322,0.0071966,0.00217835,-0.0100684,0.0150638,-0.00568882,-0.663281,0.0123823,0.0188351,1994,981,42.4601,-6.36319
777,43,42.5023,6.57428,0.0122044,0.000252895,-0.0148505,0.0222364,-0.00977907,-0.594114,0.0189448,0.0244346,2001,981,42.5023,-6.57431
784,43,42.7332,7.11865,0.0184365,-0.00295138,-0.0212887,0.0315662,-0.0160811,-0.552644,0.0279893,0.0430687,2008,981,42.7333,-7.11864
791,43,42.877,7.26257,0,0,0,0,0,0,0,-1,2015,981,42.8768,-7.2626
798,43,42.8833,7.34174,0,0,0,0,0,0,0,-1,2022,981,42.8832,-7.34173
805,43,42.7883,7.63806,0,0,0,0,0,0,0,-1,2029,981,42.7884,-7.63804
812,43,42.7991,9.08435,0,0,0,0,0,0,0,-1,2036,981,42.799,-9.08435
-700,36,0,0,0,0,0,0,0,0,0,-1,524,988,0,0
-693,36,-28.433,3.63727,0,0,0,0,0,0,0,-1,531,988,-28.433,-3.63726
-686,36,-30.248,3.61145,0,0,0,0,0,0,0,-1,538,988,-30.248,-3.61148
-679,36,-31.2034,3.93604,0,0,0,0,0,0,0,-1,545,988,-31.2034,-3.93606
-672,36,-31.9001,4.07263,0,0,0,0,0,0,0,-1,552,988,-31.9001,-4.07263
-665,36,-31.6354,3.58447,0,0,0,0,0,0,0,-1,559,988,-31.6354,-3.58449
-658,36,-31.5607,3.33936,0,0,0,0,0,0,0,-1,566,988,-31.5607,-3.33933
-651,36,-31.8823,3.20752,0,0,0,0,0,0,0,-1,573,988,-31.8823,-3.20754
-644,36,-32.0246,3.44507,-0.0232261,0.0171513,0.0150173,0.0221241,-0.028199,1.25102,0.0291245,0.0229472,580,988,-32.0246,-3.44508
-637,36,-32.0932,3.31702,-0.0165758,0.0142931,0.0102826,0.0174046,-0.0196873,1.27695,0.0214285,0.0193885,587,988,-32.0932,-3.31699
-630,36,-32.0922,3.27631,-0.011381,0.0118352,0.00615528,0.0133661,-0.012912,1.32702,0.0151724,0.0154756,594,988,-32.0922,-3.2763
-623,36,-32.1229,3.18201,-0.00748808,0.00949333,0.00295773,0.00999375,-0.0079885,1.40319,0.0104035,0.0125207,601,988,-32.1229,-3.18202
-616,36,-32.1242,3.0329,-0.0050456,0.00731831,8.36144e-06,0.00731831,-0.0050456,1.57012,0.0071784,0.0106433,608,988,-32.1242,-3.03289
-609,36,-32.1082,2.88452,-0.00311745,0.00528989,-0.00276739,0.00611904,-0.0039466,-1.27969,0.00585634,0.0149529,615,988,-32.1082,-2.88452
-602,36,-32.0937,2.74365,-0.00202858,0.00412597,-0.00488538,0.00682248,-0.00472509,-1.06645,0.00670355,0.020139,622,988,-32.0937,-2.74365
-595,36,-32.1473,2.60431,-0.00134519,0.00309121,-0.00627101,0.00752477,-0.00577876,-0.955392,0.00770282,0.0214661,629,988,-32.1473,-2.60429
-588,36,-32.1021,1.94659,-0.000750698,0.00209409,-0.00719683,0.00800774,-0.00666435,-0.882962,0.00848276,0.026977,636,988,-32.102,-1.94658
-581,36,-32.0137,1.15906,-0.000354847,0.00142554,-0.00751495,0.00810283,-0.00703214,-0.844352,0.00874547,0.0283547,643,988,-32.0137,-1.15907
-574,36,-32.0109,0.944946,-0.000192929,0.000885877,-0.0073432,0.00770946,-0.00701651,-0.82206,0.00850518,0.026062,650,988,-32.0109,-0.944971
-567,36,-32.012,0.87793,-3.31907e-05,0.000493724,-0.00668644,0.0069219,-0.00646136,-0.805089,0.00772835,0.0327866,657,988,-32.012,-0.877948
-560,36,-31.9127,0.73114,0.0002549,9.82409e-05,-0.00559931,0.00577643,-0.00542329,-0.778404,0.00646723,0.0394829,664,988,-31.9127,-0.731159
-553,36,-31.7574,0.806824,0.000778769,-0.000373294,-0.00421561,0.00445752,-0.00405204,-0.717497,0.00491486,0.0433032,671,988,-31.7574,-0.806809
-546,36,-31.7263,1.20465,0.00166445,-0.00104228,-0.00263972,0.00327752,-0.00265535,-0.548523,0.00343162,0.0452056,678,988,-31.7263,-1.20465
-539,36,-31.7587,1.4425,0.00303281,-0.00192463,-0.00124168,0.00332642,-0.00221824,-0.232197,0.00322246,0.0439556,685,988,-31.7587,-1.44247
-532,36,-31.6417,1.45789,0.00495114,-0.002547,-0.00122114,0.005145,-0.00274086,-0.157441,0.00462289,0.0422695,692,988,-31.6417,-1.45788
-525,36,-31.6401,1.47314,0.00593922,-0.00341186,-0.00292736,0.00678003,-0.00425266,-0.279695,0.0064252,0.0435504,699,988,-31.6401,-1.47317
-518,36,0,0,0,0,0,0,0,0,0,-1,706,988,0,0
-511,36,0,0,0,0,0,0,0,0,0,-1,713,988,0,0
-504,36,0,0,0,0,0,0,0,0,0,-1,720,988,0,0
-497,36,0,0,0,0,0,0,0,0,0,-1,727,988,0,0
-490,36,0,0,0,0,0,0,0,0,0,-1,734,988,0,0
-483,36,0,0,0,0,0,0,0,0,0,-1,741,988,0,0
-476,36,0,0,0,0,0,0,0,0,0,-1,748,988,0,0
-469,36,0,0,0,0,0,0,0,0,0,-1,755,988,0,0
-462,36,0,0,0,0,0,0,0,0,0,-1,762,988,0,0
-455,36,0,0,0,0,0,0,0,0,0,-1,769,988,0,0
-448,36,0,0,0,0,0,0,0,0,0,-1,776,988,0,0
-441,36,0,0,0,0,0,0,0,0,0,-1,783,988,0,0
-434,36,0,0,0,0,0,0,0,0,0,-1,790,988,0,0
-427,36,0,0,0,0,0,0,0,0,0,-1,797,988,0,0
-420,36,0,0,0,0,0,0,0,0,0,-1,804,988,0,0
-413,36,0,0,0,0,0,0,0,0,0,-1,811,988,0,0
-406,36,0,0,0,0,0,0,0,0,0,-1,818,988,0,0
-399,36,0,0,0,0,0,0,0,0,0,-1,825,988,0,0
-392,36,0,0,0,0,0,0,0,0,0,-1,832,988,0,0
-385,36,0,0,0,0,0,0,0,0,0,-1,839,988,0,0
-378,36,0,0,0,0,0,0,0,0,0,-1,846,988,0,0
-371,36,0,0,0,0,0,0,0,0,0,-1,853,988,0,0
-364,36,0,0,0,0,0,0,0,0,0,-1,860,988,0,0
-357,36,0,0,0,0,0,0,0,0,0,-1,867,988,0,0
-350,36,0,0,0,0,0,0,0,0,0,-1,874,988,0,0
-343,36,0,0,0,0,0,0,0,0,0,-1,881,988,0,0
-336,36,0,0,0,0,0,0,0,0,0,-1,888,988,0,0
-329,36,0,0,0,0,0,0,0,0,0,-1,895,988,0,0
-322,36,0,0,0,0,0,0,0,0,0,-1,902,988,0,0
-315,36,0,0,0,0,0,0,0,0,0,-1,909,988,0,0
-308,36,0,0,0,0,0,0,0,0,0,-1,916,988,0,0
-301,36,0,0,0,0,0,0,0,0,0,-1,923,988,0,0
-294,36,0,0,0,0,0,0,0,0,0,-1,930,988,0,0
-287,36,0,0,0,0,0,0,0,0,0,-1,937,988,0,0
-280,36,0,0,0,0,0,0,0,0,0,-1,944,988,0,0
-273,36,0,0,0,0,0,0,0,0,0,-1,951,988,0,0
-266,36,0,0,0,0,0,0,0,0,0,-1,958,988,0,0
-259,36,0,0,0,0,0,0,0,0,0,-1,965,988,0,0
-252,36,0,0,0,0,0,0,0,0,0,-1,972,988,0,0
-245,36,0,0,0,0,0,0,0,0,0,-1,979,988,0,0
-238,36,0,0,0,0,0,0,0,0,0,-1,986,988,0,0
-231,36,0,0,0,0,0,0,0,0,0,-1,993,988,0,0
-224,36,0,0,0,0,0,0,0,0,0,-1,1000,988,0,0
-217,36,0,0,0,0,0,0,0,0,0,-1,1007,988,0,0
-210,36,0,0,0,0,0,0,0,0,0,-1,1014,988,0,0
-203,36,0,0,0,0,0,0,0,0,0,-1,1021,988,0,0
-196,36,0,0,0,0,0,0,0,0,0,-1,1028,988,0,0
-189,36,0,0,0,0,0,0,0,0,0,-1,1035,988,0,0
-182,36,0,0,0,0,0,0,0,0,0,-1,1042,988,0,0
-175,36,0,0,0,0,0,0,0,0,0,-1,1049,988,0,0
-168,36,0,0,0,0,0,0,0,0,0,-1,1056,988,0,0
-161,36,0,0,0,0,0,0,0,0,0,-1,1063,988,0,0
-154,36,0,0,0,0,0,0,0,0,0,-1,1070,988,0,0
-147,36,0,0,0,0,0,0,0,0,0,-1,1077,988,0,0
-140,36,0,0,0,0,0,0,0,0,0,-1,1084,988,0,0
-133,36,0,0,0,0,0,0,0,0,0,-1,1091,988,0,0
-126,36,0,0,0,0,0,0,0,0,0,-1,1098,988,0,0
-119,36,0,0,0,0,0,0,0,0,0,-1,1105,988,0,0
-112,36,0,0,0,0,0,0,0,0,0,-1,1112,988,0,0
-105,36,0,0,0,0,0,0,0,0,0,-1,1119,988,0,0
-98,36,0,0,0,0,0,0,0,0,0,-1,1126,988,0,0
-91,36,0,0,0,0,0,0,0,0,0,-1,1133,988,0,0
-84,36,0,0,0,0,0,0,0,0,0,-1,1140,988,0,0
-77,36,0,0,0,0,0,0,0,0,0,-1,1147,988,0,0
-70,36,0,0,0,0,0,0,0,0,0,-1,1154,988,0,0
-63,36,0,0,0,0,0,0,0,0,0,-1,1161,988,0,0
-56,36,0,0,0,0,0,0,0,0,0,-1,1168,988,0,0
-49,36,0,0,0,0,0,0,0,0,0,-1,1175,988,0,0
-42,36,0,0,0,0,0,0,0,0,0,-1,1182,988,0,0
-35,36,0,0,0,0,0,0,0,0,0,-1,1189,988,0,0
-28,36,0,0,0,0,0,0,0,0,0,-1,1196,988,0,0
-21,36,0,0,0,0,0,0,0,0,0,-1,1203,988,0,0
-14,36,0,0,0,0,0,0,0,0,0,-1,1210,988,0,0
-7,36,0,0,0,0,0,0,0,0,0,-1,1217,988,0,0
0,36,0,0,0,0,0,0,0,0,0,-1,1224,988,0,0
7,36,0,0,0,0,0,0,0,0,0,-1,1231,988,0,0
14,36,0,0,0,0,0,0,0,0,0,-1,1238,988,0,0
21,36,0,0,0,0,0,0,0,0,0,-1,1245,988,0,0
28,36,0,0,0,0,0,0,0,0,0,-1,1252,988,0,0
35,36,0,0,0,0,0,0,0,0,0,-1,1259,988,0,0
42,36,0,0,0,0,0,0,0,0,0,-1,1266,988,0,0
49,36,0,0,0,0,0,0,0,0,0,-1,1273,988,0,0
56,36,0,0,0,0,0,0,0,0,0,-1,1280,988,0,0
63,36,0,0,0,0,0,0,0,0,0,-1,1287,988,0,0
70,36,0,0,0,0,0,0,0,0,0,-1,1294,988,0,0
77,36,0,0,0,0,0,0,0,0,0,-1,1301,988,0,0
84,36,0,0,0,0,0,0,0,0,0,-1,1308,988,0,0
91,36,0,0,0,0,0,0,0,0,0,-1,1315,988,0,0
98,36,0,0,0,0,0,0,0,0,0,-1,1322,988,0,0
105,36,0,0,0,0,0,0,0,0,0,-1,1329,988,0,0
112,36,0,0,0,0,0,0,0,0,0,-1,1336,988,0,0
119,36,0,0,0,0,0,0,0,0,0,-1,1343,988,0,0
126,36,0,0,0,0,0,0,0,0,0,-1,1350,988,0,0
133,36,0,0,0,0,0,0,0,0,0,-1,1357,988,0,0
140,36,0,0,0,0,0,0,0,0,0,-1,1364,988,0,0
147,36,0,0,0,0,0,0,0,0,0,-1,1371,988,0,0
154,36,0,0,0,0,0,0,0,0,0,-1,1378,988,0,0
161,36,0,0,0,0,0,0,0,0,0,-1,1385,988,0,0
168,36,0,0,0,0,0,0,0,0,0,-1,1392,988,0,0
175,36,0,0,0,0,0,0,0,0,0,-1,1399,988,0,0
182,36,0,0,0,0,0,0,0,0,0,-1,1406,988,0,0
189,36,0,0,0,0,0,0,0,0,0,-1,1413,988,0,0
196,36,0,0,0,0,0,0,0,0,0,-1,1420,988,0,0
203,36,0,0,0,0,0,0,0,0,0,-1,1427,988,0,0
210,36,0,0,0,0,0,0,0,0,0,-1,1434,988,0,0
217,36,0,0,0,0,0,0,0,0,0,-1,1441,988,0,0
224,36,0,0,0,0,0,0,0,0,0,-1,1448,988,0,0
231,36,0,0,0,0,0,0,0,0,0,-1,1455,988,0,0
238,36,0,0,0,0,0,0,0,0,0,-1,1462,988,0,0
245,36,0,0,0,0,0,0,0,0,0,-1,1469,988,0,0
252,36,0,0,0,0,0,0,0,0,0,-1,1476,988,0,0
259,36,0,0,0,0,0,0,0,0,0,-1,1483,988,0,0
266,36,0,0,0,0,0,0,0,0,0,-1,1490,988,0,0
273,36,0,0,0,0,0,0,0,0,0,-1,1497,988,0,0
280,36,0,0,0,0,0,0,0,0,0,-1,1504,988,0,0
287,36,0,0,0,0,0,0,0,0,0,-1,1511,988,0,0
294,36,0,0,0,0,0,0,0,0,0,-1,1518,988,0,0
301,36,0,0,0,0,0,0,0,0,0,-1,1525,988,0,0
308,36,0,0,0,0,0,0,0,0,0,-1,1532,988,0,0
315,36,0,0,0,0,0,0,0,0,0,-1,1539,988,0,0
322,36,0,0,0,0,0,0,0,0,0,-1,1546,988,0,0
329,36,0,0,0,0,0,0,0,0,0,-1,1553,988,0,0
336,36,0,0,0,0,0,0,0,0,0,-1,1560,988,0,0
343,36,0,0,0,0,0,0,0,0,0,-1,1567,988,0,0
350,36,0,0,0,0,0,0,0,0,0,-1,1574,988,0,0
357,36,0,0,0,0,0,0,0,0,0,-1,1581,988,0,0
364,36,0,0,0,0,0,0,0,0,0,-1,1588,988,0,0
371,36,0,0,0,0,0,0,0,0,0,-1,1595,988,0,0
378,36,0,0,0,0,0,0,0,0,0,-1,1602,988,0,0
385,36,0,0,0,0,0,0,0,0,0,-1,1609,988,0,0
392,36,0,0,0,0,0,0,0,0,0,-1,1616,988,0,0
399,36,0,0,0,0,0,0,0,0,0,-1,1623,988,0,0
406,36,0,0,0,0,0,0,0,0,0,-1,1630,988,0,0
413,36,0,0,0,0,0,0,0,0,0,-1,1637,988,0,0
420,36,0,0,0,0,0,0,0,0,0,-1,1644,988,0,0
427,36,0,0,0,0,0,0,0,0,0,-1,1651,988,0,0
434,36,0,0,0,0,0,0,0,0,0,-1,1658,988,0,0
441,36,0,0,0,0,0,0,0,0,0,-1,1665,988,0,0
448,36,0,0,0,0,0,0,0,0,0,-1,1672,988,0,0
455,36,0,0,0,0,0,0,0,0,0,-1,1679,988,0,0
462,36,0,0,0,0,0,0,0,0,0,-1,1686,988,0,0
469,36,0,0,0,0,0,0,0,0,0,-1,1693,988,0,0
476,36,0,0,0,0,0,0,0,0,0,-1,1700,988,0,0
483,36,0,0,0,0,0,0,0,0,0,-1,1707,988,0,0
490,36,0,0,0,0,0,0,0,0,0,-1,1714,988,0,0
497,36,0,0,0,0,0,0,0,0,0,-1,1721,988,0,0
504,36,0,0,0,0,0,0,0,0,0,-1,1728,988,0,0
511,36,0,0,0,0,0,0,0,0,0,-1,1735,988,0,0
518,36,0,0,0,0,0,0,0,0,0,-1,1742,988,0,0
525,36,0,0,0,0,0,0,0,0,0,-1,1749,988,0,0
532,36,0,0,0,0,0,0,0,0,0,-1,1756,988,0,0
539,36,0,0,0,0,0,0,0,0,0,-1,1763,988,0,0
546,36,0,0,0,0,0,0,0,0,0,-1,1770,988,0,0
553,36,0,0,0,0,0,0,0,0,0,-1,1777,988,0,0
560,36,0,0,0,0,0,0,0,0,0,-1,1784,988,0,0
567,36,0,0,0,0,0,0,0,0,0,-1,1791,988,0,0
574,36,0,0,0,0,0,0,0,0,0,-1,1798,988,0,0
581,36,0,0,0,0,0,0,0,0,0,-1,1805,988,0,0
588,36,0,0,0,0,0,0,0,0,0,-1,1812,988,0,0
595,36,0,0,0,0,0,0,0,0,0,-1,1819,988,0,0
602,36,0,0,0,0,0,0,0,0,0,-1,1826,988,0,0
609,36,0,0,0,0,0,0,0,0,0,-1,1833,988,0,0
616,36,0,0,0,0,0,0,0,0,0,-1,1840,988,0,0
623,36,0,0,0,0,0,0,0,0,0,-1,1847,988,0,0
630,36,0,0,0,0,0,0,0,0,0,-1,1854,988,0,0
637,36,0,0,0,0,0,0,0,0,0,-1,1861,988,0,0
644,36,43.3796,3.01379,0.00233539,0.00181392,-0.00574827,0.00782883,-0.00367952,-0.762734,0.00678678,0.041151,1868,988,43.3797,-3.01379
651,36,43.3198,2.86084,0.00221446,0.00140521,-0.00450476,0.00633274,-0.00271307,-0.740607,0.00536016,0.0399091,1875,988,43.3198,-2.86087
658,36,43.3901,3.10669,0.00190589,0.00118754,-0.00339668,0.00496233,-0.0018689,-0.732722,0.00407658,0.0396092,1882,988,43.3901,-3.10667
665,36,43.5038,2.80634,0.00157061,0.00113668,-0.00223845,0.00360258,-0.000895296,-0.737086,0.00274918,0.0388751,1889,988,43.5038,-2.80631
672,36,43.5266,2.86633,0.00120405,0.00120187,-0.00101764,0.0022206,0.000185313,-0.784863,0.00142266,0.0395102,1896,988,43.5266,-2.86632
679,36,43.556,2.84381,0.000803732,0.0011769,6.43429e-05,0.00118768,0.00079295,1.40476,0.000698439,0.0393922,1903,988,43.556,-2.84379
686,36,43.4919,2.9303,0.000568914,0.00103028,0.000821469,0.00165284,-5.36495e-05,0.92228,0.0011202,0.0391088,1910,988,43.492,-2.93031
693,36,43.566,2.74841,0.000365335,0.000764652,0.00127806,0.00185855,-0.000728567,0.862882,0.00154043,0.0405586,1917,988,43.5661,-2.74841
700,36,43.5671,2.82196,0.000168224,0.000730973,0.00148207,0.00195814,-0.00105895,0.879208,0.00176752,0.0371302,1924,988,43.5671,-2.82197
707,36,43.5813,2.83643,-0.000171583,0.000879608,0.00143787,0.00188493,-0.00117691,0.960623,0.00178344,0.0289078,1931,988,43.5814,-2.83644
714,36,43.5833,3.1684,-0.000808414,0.00115099,0.00128295,0.00178553,-0.00144296,1.11148,0.00186746,0.0422667,1938,988,43.5833,-3.16837
721,36,43.1001,4.87787,0,0,0,0,0,0,0,-1,1945,988,43.1001,-4.87785
728,36,42.9655,5.16315,-0.00177871,0.00227506,0.000963134,0.00249225,-0.0019959,1.349,0.00259651,0.0223994,1952,988,42.9654,-5.16315
735,36,42.8734,5.42572,-0.00142454,0.00294603,0.00046845,0.00299567,-0.00147419,1.46521,0.00263004,0.0203173,1959,988,42.8734,-5.4257
742,36,42.8446,5.57275,-0.00129332,0.00287948,-0.000387736,0.0029152,-0.00132904,-1.47892,0.00250681,0.0158469,1966,988,42.8446,-5.57273
749,36,42.8604,5.75293,-0.00110661,0.00328516,-0.0016472,0.0038343,-0.00165575,-1.249,0.0032518,0.0162907,1973,988,42.8603,-5.75292
756,36,42.8062,5.90601,-0.000204891,0.00366208,-0.00331958,0.00557021,-0.00211302,-1.04911,0.00458316,0.0154756,1980,988,42.8062,-5.906
763,36,42.73,6.0694,0.00153119,0.00362734,-0.005534,0.00821163,-0.00305311,-0.878984,0.00672717,0.0174369,1987,988,42.73,-6.06942
770,36,42.6553,6.2641,0.00455757,0.00283858,-0.00868546,0.012426,-0.00502982,-0.73608,0.0103753,0.0158408,1994,988,42.6553,-6.2641
777,36,42.6685,6.55695,0.00876897,0.0011405,-0.012905,0.0184116,-0.00850213,-0.641708,0.0158859,0.0249394,2001,988,42.6684,-6.55695
784,36,42.854,7.12836,0.0140633,-0.001749,-0.018527,0.0263005,-0.0139862,-0.583727,0.023619,0.044788,2008,988,42.8541,-7.12836
791,36,42.8918,7.26801,0,0,0,0,0,0,0,-1,2015,988,42.8919,-7.26799
798,36,43.3303,7.2757,0,0,0,0,0,0,0,-1,2022,988,43.3303,-7.27567
805,36,43.3909,7.53162,0,0,0,0,0,0,0,-1,2029,988,43.3908,-7.53162
812,36,42.7898,7.95911,0,0,0,0,0,0,0,-1,2036,988,42.7897,-7.95911
-700,29,0,0,0,0,0,0,0,0,0,-1,524,995,0,0
-693,29,-29.3833,3.12518,-0.0909087,0.0246431,0.0629619,0.0523204,-0.118586,1.15663,0.101115,0.0426579,531,995,-29.3833,-3.1252
-686,29,-30.4166,3.47455,-0.0760895,0.0243267,0.0491996,0.0444141,-0.0961769,1.18317,0.0829838,0.0432273,538,995,-30.4166,-3.47457
-679,29,-31.3511,3.77991,-0.063445,0.0235143,0.0387206,0.0382563,-0.078187,1.20701,0.0685335,0.0457284,545,995,-31.3511,-3.77992
-672,29,-32.0212,3.97064,0,0,0,0,0,0,0,-1,552,995,-32.0213,-3.97066
-665,29,-32.647,4.11536,0,0,0,0,0,0,0,-1,559,995,-32.6471,-4.11533
-658,29,-31.6648,2.64484,0,0,0,0,0,0,0,-1,566,995,-31.6648,-2.64481
-651,29,-31.8647,2.91016,0,0,0,0,0,0,0,-1,573,995,-31.8648,-2.91015
-644,29,-32.0974,3.08929,-0.0203785,0.0152059,0.0111092,0.0183893,-0.023562,1.29172,0.0242819,0.027287,580,995,-32.0974,-3.08932
-637,29,-32.2193,3.18848,-0.0144227,0.0129502,0.00710598,0.0146849,-0.0161575,1.33135,0.0178137,0.018234,587,995,-32.2193,-3.18849
-630,29,-32.2289,3.20752,-0.00974444,0.0108802,0.00360282,0.0114914,-0.0103557,1.40274,0.0126191,0.0129237,594,995,-32.2289,-3.20752
-623,29,-32.2379,3.164,-0.00612676,0.008896,0.00104938,0.00896895,-0.00619971,1.50139,0.00880614,0.0111868,601,995,-32.2379,-3.164
-616,29,-32.2983,3.03851,-0.00377775,0.00693619,-0.00141631,0.00712025,-0.00396181,-1.44156,0.00648427,0.0132042,608,995,-32.2983,-3.03853
-609,29,-32.3035,2.93567,-0.00189415,0.00504587,-0.00381606,0.0067337,-0.00358197,-1.15437,0.0060477,0.0198849,615,995,-32.3035,-2.93565
-602,29,-32.2956,2.83099,-0.000782721,0.00402237,-0.0056468,0.00775648,-0.00451683,-0.986533,0.00716781,0.0210793,622,995,-32.2956,-2.83099
-595,29,-32.2822,2.68719,-4.51691e-05,0.00298823,-0.00685487,0.00849218,-0.00554912,-0.894273,0.0081659,0.0214519,629,995,-32.2822,-2.68721
-588,29,-32.1316,2.03894,0.000645534,0.00194809,-0.0076662,0.00899062,-0.006397,-0.827774,0.00892601,0.0330023,636,995,-32.1316,-2.03896
-581,29,-31.9855,1.39685,0.00112753,0.00122115,-0.00789341,0.00906789,-0.00671921,-0.788363,0.00914825,0.0412474,643,995,-31.9855,-1.39684
-574,29,-32.0247,0.953918,0.00129468,0.000620837,-0.00759954,0.00856476,-0.00664925,-0.763245,0.00880699,0.0313128,650,995,-32.0247,-0.953897
-567,29,-32.0353,0.823425,0.00135811,0.000158556,-0.00676072,0.00754561,-0.00602894,-0.741156,0.00785355,0.0322097,657,995,-32.0353,-0.823405
-560,29,-31.9916,0.600708,0.00143755,-0.000293341,-0.00545011,0.0060905,-0.00494629,-0.706659,0.0063835,0.0399145,664,995,-31.9916,-0.600728
-553,29,-31.9849,0.854614,0.00161558,-0.000803922,-0.003803,0.0043966,-0.00358495,-0.631407,0.00461608,0.0424693,671,995,-31.9849,-0.85459
-546,29,-31.8982,1.13055,0.00203438,-0.00149344,-0.00193039,0.00288538,-0.00234444,-0.415216,0.00302482,0.0453251,678,995,-31.8982,-1.13056
-539,29,-31.8876,1.15759,0.00284238,-0.00228868,-0.000305932,0.00286056,-0.00230685,-0.0593434,0.00298911,0.0430164,685,995,-31.8877,-1.15758
-532,29,-31.7885,1.25391,0.00419161,-0.00259433,-0.000320313,0.0042067,-0.00260942,-0.0470629,0.00397114,0.0429766,692,995,-31.7885,-1.2539
-525,29,-31.7902,1.24957,0.00467638,-0.00326802,-0.00199384,0.0051487,-0.00374034,-0.232602,0.00515351,0.044458,699,995,-31.7902,-1.24956
-518,29,0,0,0,0,0,0,0,0,0,-1,706,995,0,0
-511,29,0,0,0,0,0,0,0,0,0,-1,713,995,0,0
-504,29,0,0,0,0,0,0,0,0,0,-1,720,995,0,0
-497,29,0,0,0,0,0,0,0,0,0,-1,727,995,0,0
-490,29,0,0,0,0,0,0,0,0,0,-1,734,995,0,0
-483,29,0,0,0,0,0,0,0,0,0,-1,741,995,0,0
-476,29,0,0,0,0,0,0,0,0,0,-1,748,995,0,0
-469,29,0,0,0,0,0,0,0,0,0,-1,755,995,0,0
-462,29,0,0,0,0,0,0,0,0,0,-1,762,995,0,0
-455,29,0,0,0,0,0,0,0,0,0,-1,769,995,0,0
-448,29,0,0,0,0,0,0,0,0,0,-1,776,995,0,0
-441,29,0,0,0,0,0,0,0,0,0,-1,783,995,0,0
-434,29,0,0,0,0,0,0,0,0,0,-1,790,995,0,0
-427,29,0,0,0,0,0,0,0,0,0,-1,797,995,0,0
-420,29,0,0,0,0,0,0,0,0,0,-1,804,995,0,0
-413,29,0,0,0,0,0,0,0,0,0,-1,811,995,0,0
-406,29,0,0,0,0,0,0,0,0,0,-1,818,995,0,0
-399,29,0,0,0,0,0,0,0,0,0,-1,825,995,0,0
-392,29,0,0,0,0,0,0,0,0,0,-1,832,995,0,0
-385,29,0,0,0,0,0,0,0,0,0,-1,839,995,0,0
-378,29,0,0,0,0,0,0,0,0,0,-1,846,995,0,0
-371,29,0,0,0,0,0,0,0,0,0,-1,853,995,0,0
-364,29,0,0,0,0,0,0,0,0,0,-1,860,995,0,0
-357,29,0,0,0,0,0,0,0,0,0,-1,867,995,0,0
-350,29,0,0,0,0,0,0,0,0,0,-1,874,995,0,0
-343,29,0,0,0,0,0,0,0,0,0,-1,881,995,0,0
-336,29,0,0,0,0,0,0,0,0,0,-1,888,995,0,0
-329,29,0,0,0,0,0,0,0,0,0,-1,895,995,0,0
-322,29,0,0,0,0,0,0,0,0,0,-1,902,995,0,0
-315,29,0,0,0,0,0,0,0,0,0,-1,909,995,0,0
-308,29,0,0,0,0,0,0,0,0,0,-1,916,995,0,0
-301,29,0,0,0,0,0,0,0,0,0,-1,923,995,0,0
-294,29,0,0,0,0,0,0,0,0,0,-1,930,995,0,0
-287,29,0,0,0,0,0,0,0,0,0,-1,937,995,0,0
-280,29,0,0,0,0,0,0,0,0,0,-1,944,995,0,0
-273,29,0,0,0,0,0,0,0,0,0,-1,951,995,0,0
-266,29,0,0,0,0,0,0,0,0,0,-1,958,995,0,0
-259,29,0,0,0,0,0,0,0,0,0,-1,965,995,0,0
-252,29,0,0,0,0,0,0,0,0,0,-1,972,995,0,0
-245,29,0,0,0,0,0,0,0,0,0,-1,979,995,0,0
-238,29,0,0,0,0,0,0,0,0,0,-1,986,995,0,0
-231,29,0,0,0,0,0,0,0,0,0,-1,993,995,0,0
-224,29,0,0,0,0,0,0,0,0,0,-1,1000,995,0,0
-217,29,0,0,0,0,0,0,0,0,0,-1,1007,995,0,0
-210,29,0,0,0,0,0,0,0,0,0,-1,1014,995,0,0
-203,29,0,0,0,0,0,0,0,0,0,-1,1021,995,0,0
-196,29,0,0,0,0,0,0,0,0,0,-1,1028,995,0,0
-189,29,0,0,0,0,0,0,0,0,0,-1,1035,995,0,0
-182,29,0,0,0,0,0,0,0,0,0,-1,1042,995,0,0
-175,29,0,0,0,0,0,0,0,0,0,-1,1049,995,0,0
-168,29,0,0,0,0,0,0,0,0,0,-1,1056,995,0,0
-161,29,0,0,0,0,0,0,0,0,0,-1,1063,995,0,0
-154,29,0,0,0,0,0,0,0,0,0,-1,1070,995,0,0
-147,29,0,0,0,0,0,0,0,0,0,-1,1077,995,0,0
-140,29,0,0,0,0,0,0,0,0,0,-1,1084,995,0,0
-133,29,0,0,0,0,0,0,0,0,0,-1,1091,995,0,0
-126,29,0,0,0,0,0,0,0,0,0,-1,1098,995,0,0
-119,29,0,0,0,0,0,0,0,0,0,-1,1105,995,0,0
-112,29,0,0,0,0,0,0,0,0,0,-1,1112,995,0,0
-105,29,0,0,0,0,0,0,0,0,0,-1,1119,995,0,0
-98,29,0,0,0,0,0,0,0,0,0,-1,1126,995,0,0
-91,29,0,0,0,0,0,0,0,0,0,-1,1133,995,0,0
-84,29,0,0,0,0,0,0,0,0,0,-1,1140,995,0,0
-77,29,0,0,0,0,0,0,0,0,0,-1,1147,995,0,0
-70,29,0,0,0,0,0,0,0,0,0,-1,1154,995,0,0
-63,29,0,0,0,0,0,0,0,0,0,-1,1161,995,0,0
-56,29,0,0,0,0,0,0,0,0,0,-1,1168,995,0,0
-49,29,0,0,0,0,0,0,0,0,0,-1,1175,995,0,0
-42,29,0,0,0,0,0,0,0,0,0,-1,1182,995,0,0
-35,29,0,0,0,0,0,0,0,0,0,-1,1189,995,0,0
-28,29,0,0,0,0,0,0,0,0,0,-1,1196,995,0,0
-21,29,0,0,0,0,0,0,0,0,0,-1,1203,995,0,0
-14,29,0,0,0,0,0,0,0,0,0,-1,1210,995,0,0
-7,29,0,0,0,0,0,0,0,0,0,-1,1217,995,0,0
0,29,0,0,0,0,0,0,0,0,0,-1,1224,995,0,0
7,29,0,0,0,0,0,0,0,0,0,-1,1231,995,0,0
14,29,0,0,0,0,0,0,0,0,0,-1,1238,995,0,0
21,29,0,0,0,0,0,0,0,0,0,-1,1245,995,0,0
28,29,0,0,0,0,0,0,0,0,0,-1,1252,995,0,0
35,29,0,0,0,0,0,0,0,0,0,-1,1259,995,0,0
42,29,0,0,0,0,0,0,0,0,0,-1,1266,995,0,0
49,29,0,0,0,0,0,0,0,0,0,-1,1273,995,0,0
56,29,0,0,0,0,0,0,0,0,0,-1,1280,995,0,0
63,29,0,0,0,0,0,0,0,0,0,-1,1287,995,0,0
70,29,0,0,0,0,0,0,0,0,0,-1,1294,995,0,0
77,29,0,0,0,0,0,0,0,0,0,-1,1301,995,0,0
84,29,0,0,0,0,0,0,0,0,0,-1,1308,995,0,0
91,29,0,0,0,0,0,0,0,0,0,-1,1315,995,0,0
98,29,0,0,0,0,0,0,0,0,0,-1,1322,995,0,0
105,29,0,0,0,0,0,0,0,0,0,-1,1329,995,0,0
112,29,0,0,0,0,0,0,0,0,0,-1,1336,995,0,0
119,29,0,0,0,0,0,0,0,0,0,-1,1343,995,0,0
126,29,0,0,0,0,0,0,0,0,0,-1,1350,995,0,0
133,29,0,0,0,0,0,0,0,0,0,-1,1357,995,0,0
140,29,0,0,0,0,0,0,0,0,0,-1,1364,995,0,0
147,29,0,0,0,0,0,0,0,0,0,-1,1371,995,0,0
154,29,0,0,0,0,0,0,0,0,0,-1,1378,995,0,0
161,29,0,0,0,0,0,0,0,0,0,-1,1385,995,0,0
168,29,0,0,0,0,0,0,0,0,0,-1,1392,995,0,0
175,29,0,0,0,0,0,0,0,0,0,-1,1399,995,0,0
182,29,0,0,0,0,0,0,0,0,0,-1,1406,995,0,0
189,29,0,0,0,0,0,0,0,0,0,-1,1413,995,0,0
196,29,0,0,0,0,0,0,0,0,0,-1,1420,995,0,0
203,29,0,0,0,0,0,0,0,0,0,-1,1427,995,0,0
210,29,0,0,0,0,0,0,0,0,0,-1,1434,995,0,0
217,29,0,0,0,0,0,0,0,0,0,-1,1441,995,0,0
224,29,0,0,0,0,0,0,0,0,0,-1,1448,995,0,0
231,29,0,0,0,0,0,0,0,0,0,-1,1455,995,0,0
238,29,0,0,0,0,0,0,0,0,0,-1,1462,995,0,0
245,29,0,0,0,0,0,0,0,0,0,-1,1469,995,0,0
252,29,0,0,0,0,0,0,0,0,0,-1,1476,995,0,0
259,29,0,0,0,0,0,0,0,0,0,-1,1483,995,0,0
266,29,0,0,0,0,0,0,0,0,0,-1,1490,995,0,0
273,29,0,0,0,0,0,0,0,0,0,-1,1497,995,0,0
280,29,0,0,0,0,0,0,0,0,0,-1,1504,995,0,0
287,29,0,0,0,0,0,0,0,0,0,-1,1511,995,0,0
294,29,0,0,0,0,0,0,0,0,0,-1,1518,995,0,0
301,29,0,0,0,0,0,0,0,0,0,-1,1525,995,0,0
308,29,0,0,0,0,0,0,0,0,0,-1,1532,995,0,0
315,29,0,0,0,0,0,0,0,0,0,-1,1539,995,0,0
322,29,0,0,0,0,0,0,0,0,0,-1,1546,995,0,0
329,29,0,0,0,0,0,0,0,0,0,-1,1553,995,0,0
336,29,0,0,0,0,0,0,0,0,0,-1,1560,995,0,0
343,29,0,0,0,0,0,0,0,0,0,-1,1567,995,0,0
350,29,0,0,0,0,0,0,0,0,0,-1,1574,995,0,0
357,29,0,0,0,0,0,0,0,0,0,-1,1581,995,0,0
364,29,0,0,0,0,0,0,0,0,0,-1,1588,995,0,0
371,29,0,0,0,0,0,0,0,0,0,-1,1595,995,0,0
378,29,0,0,0,0,0,0,0,0,0,-1,1602,995,0,0
385,29,0,0,0,0,0,0,0,0,0,-1,1609,995,0,0
392,29,0,0,0,0,0,0,0,0,0,-1,1616,995,0,0
399,29,0,0,0,0,0,0,0,0,0,-1,1623,995,0,0
406,29,0,0,0,0,0,0,0,0,0,-1,1630,995,0,0
413,29,0,0,0,0,0,0,0,0,0,-1,1637,995,0,0
420,29,0,0,0,0,0,0,0,0,0,-1,1644,995,0,0
427,29,0,0,0,0,0,0,0,0,0,-1,1651,995,0,0
434,29,0,0,0,0,0,0,0,0,0,-1,1658,995,0,0
441,29,0,0,0,0,0,0,0,0,0,-1,1665,995,0,0
448,29,0,0,0,0,0,0,0,0,0,-1,1672,995,0,0
455,29,0,0,0,0,0,0,0,0,0,-1,1679,995,0,0
462,29,0,0,0,0,0,0,0,0,0,-1,1686,995,0,0
469,29,0,0,0,0,0,0,0,0,0,-1,1693,995,0,0
476,29,0,0,0,0,0,0,0,0,0,-1,1700,995,0,0
483,29,0,0,0,0,0,0,0,0,0,-1,1707,995,0,0
490,29,0,0,0,0,0,0,0,0,0,-1,1714,995,0,0
497,29,0,0,0,0,0,0,0,0,0,-1,1721,995,0,0
504,29,0,0,0,0,0,0,0,0,0,-1,1728,995,0,0
511,29,0,0,0,0,0,0,0,0,0,-1,1735,995,0,0
518,29,0,0,0,0,0,0,0,0,0,-1,1742,995,0,0
525,29,0,0,0,0,0,0,0,0,0,-1,1749,995,0,0
532,29,0,0,0,0,0,0,0,0,0,-1,1756,995,0,0
539,29,0,0,0,0,0,0,0,0,0,-1,1763,995,0,0
546,29,0,0,0,0,0,0,0,0,0,-1,1770,995,0,0
553,29,0,0,0,0,0,0,0,0,0,-1,1777,995,0,0
560,29,0,0,0,0,0,0,0,0,0,-1,1784,995,0,0
567,29,0,0,0,0,0,0,0,0,0,-1,1791,995,0,0
574,29,0,0,0,0,0,0,0,0,0,-1,1798,995,0,0
581,29,0,0,0,0,0,0,0,0,0,-1,1805,995,0,0
588,29,0,0,0,0,0,0,0,0,0,-1,1812,995,0,0
595,29,0,0,0,0,0,0,0,0,0,-1,1819,995,0,0
602,29,0,0,0,0,0,0,0,0,0,-1,1826,995,0,0
609,29,0,0,0,0,0,0,0,0,0,-1,1833,995,0,0
616,29,0,0,0,0,0,0,0,0,0,-1,1840,995,0,0
623,29,0,0,0,0,0,0,0,0,0,-1,1847,995,0,0
630,29,0,0,0,0,0,0,0,0,0,-1,1854,995,0,0
637,29,0,0,0,0,0,0,0,0,0,-1,1861,995,0,0
644,29,43.6086,3.12976,0.00160541,0.00187139,-0.0051752,0.00691531,-0.00343851,-0.798244,0.00608909,0.0447809,1868,995,43.6087,-3.12976
651,29,43.4128,3.01379,0.00162769,0.00134565,-0.00419206,0.0056811,-0.00270776,-0.768584,0.00494368,0.0435017,1875,995,43.4129,-3.01379
658,29,43.3466,3.38635,0.00144727,0.0010371,-0.0032676,0.00451622,-0.00203184,-0.754058,0.00387016,0.0429287,1882,995,43.3465,-3.38635
665,29,43.5298,3.16327,0.00122741,0.000910849,-0.00225147,0.00332615,-0.0011879,-0.750306,0.00270189,0.0400644,1889,995,43.5298,-3.16328
672,29,43.569,2.92316,0.000991968,0.000942423,-0.00113563,0.0021031,-0.000168706,-0.774493,0.00146155,0.0387894,1896,995,43.569,-2.92317
679,29,43.5007,2.85156,0.000700382,0.000950972,-9.0566e-05,0.000980277,0.000671077,-1.25786,0.000578675,0.0391739,1903,995,43.5008,-2.85154
686,29,43.4054,2.92224,0.000523552,0.000855023,0.000675408,0.00138473,-6.15825e-06,0.905714,0.000925215,0.0395826,1910,995,43.4054,-2.92222
693,29,43.6163,2.83276,0.000369205,0.000650626,0.00117399,0.00169231,-0.000672474,0.845042,0.00140699,0.0400983,1917,995,43.6163,-2.83277
700,29,43.6027,2.89264,0.000210517,0.000624255,0.00140782,0.00184033,-0.00100556,0.858347,0.00166647,0.0349476,1924,995,43.6026,-2.89265
707,29,43.5238,2.88245,-0.000112773,0.000789542,0.00141574,0.00182428,-0.00114751,0.939647,0.00173053,0.0246991,1931,995,43.5239,-2.88247
714,29,43.5482,3.19287,-0.000735419,0.00111331,0.00132023,0.00180061,-0.00142272,1.09081,0.00186524,0.0423589,1938,995,43.5483,-3.19288
721,29,43.1564,4.97046,0,0,0,0,0,0,0,-1,1945,995,43.1564,-4.97043
728,29,43.0939,5.25226,-0.00185977,0.00233376,0.00106536,0.0025889,-0.0021149,1.33574,0.00272033,0.0265429,1952,995,43.0938,-5.25223
735,29,43.0197,5.50073,-0.00166774,0.00306308,0.000655695,0.00315228,-0.00175694,1.43559,0.00287225,0.0163233,1959,995,43.0196,-5.50074
742,29,43.0266,5.59583,-0.00173527,0.00303676,-0.000125706,0.00304007,-0.00173858,-1.54448,0.00279286,0.0134118,1966,995,43.0267,-5.59582
749,29,43.0085,5.73022,-0.00178537,0.00344626,-0.00128971,0.00374692,-0.00208603,-1.34176,0.00341286,0.0140798,1973,995,43.0085,-5.73023
756,29,42.9847,5.90649,-0.00124654,0.00388421,-0.00277936,0.00510116,-0.0024635,-1.15809,0.00445508,0.0135891,1980,995,42.9847,-5.90647
763,29,42.9418,6.0235,-5.94089e-05,0.00396926,-0.00474316,0.00710809,-0.00319824,-0.986199,0.00609142,0.0128969,1987,995,42.9418,-6.02347
770,29,42.8756,6.11896,0.00225578,0.00335261,-0.00752435,0.0103485,-0.00474011,-0.821777,0.00890975,0.0168783,1994,995,42.8756,-6.11896
777,29,42.7964,6.35181,0.00567836,0.00188096,-0.0112096,0.0151489,-0.00758957,-0.701503,0.0133677,0.0278739,2001,995,42.7964,-6.3518
784,29,42.8352,6.55701,0.00997943,-0.000658993,-0.01599,0.0215117,-0.0121913,-0.624826,0.0197049,0.0457578,2008,995,42.8352,-6.55703
791,29,42.877,6.65833,0,0,0,0,0,0,0,-1,2015,995,42.877,-6.65831
798,29,42.928,6.72339,0,0,0,0,0,0,0,-1,2022,995,42.9281,-6.7234
805,29,42.324,6.55212,0,0,0,0,0,0,0,-1,2029,995,42.324,-6.55212
812,29,41.5459,4.38373,0,0,0,0,0,0,0,-1,2036,995,41.5458,-4.38371
-700,22,0,0,0,0,0,0,0,0,0,-1,524,1002,0,0
-693,22,-30.3701,3.17804,-0.0767198,0.0199136,0.047576,0.0394053,-0.0962115,1.18196,0.0805555,0.0432958,531,1002,-30.3701,-3.17805
-686,22,-30.7368,3.58893,-0.0647315,0.0209504,0.036038,0.0340923,-0.0778735,1.22111,0.0662703,0.0418214,538,1002,-30.7368,-3.58893
-679,22,-31.4944,3.59363,-0.0542669,0.0209985,0.0275671,0.0300152,-0.0632836,1.25468,0.0549957,0.045787,545,1002,-31.4944,-3.59362
-672,22,-32.1922,3.75922,0,0,0,0,0,0,0,-1,552,1002,-32.1922,-3.7592
-665,22,-31.2657,-1.00043,0,0,0,0,0,0,0,-1,559,1002,-31.2657,1.0004
-658,22,-31.3708,0.203674,0,0,0,0,0,0,0,-1,566,1002,-31.3708,-0.203667
-651,22,-31.8566,2.39807,0,0,0,0,0,0,0,-1,573,1002,-31.8566,-2.3981
-644,22,-32.1296,2.8269,-0.0179436,0.0142341,0.00716373,0.0157569,-0.0194664,1.36134,0.0203737,0.0290416,580,1002,-32.1297,-2.82689
-637,22,-32.3083,3.11566,-0.0126695,0.0122696,0.0040138,0.0128997,-0.0132996,1.41509,0.0151267,0.0203591,587,1002,-32.3083,-3.11566
-630,22,-32.321,3.14038,-0.008442,0.00997638,0.00126515,0.0100629,-0.00852849,1.50253,0.0107459,0.0144837,594,1002,-32.321,-3.14036
-623,22,-32.3512,3.1059,-0.00507518,0.00826126,-0.000632073,0.00829115,-0.00510507,-1.52354,0.00780689,0.0107922,601,1002,-32.3512,-3.10592
-616,22,-32.4012,2.99042,-0.00281615,0.00648516,-0.00259435,0.00715985,-0.00349083,-1.31637,0.00626961,0.0170914,608,1002,-32.4012,-2.99043
-609,22,-32.4197,2.91241,-0.000997171,0.00473981,-0.00459405,0.00728737,-0.00354473,-1.06448,0.00637713,0.0275804,615,1002,-32.4197,-2.91243
-602,22,-32.4299,2.85614,9.07837e-05,0.0038843,-0.00613268,0.00840685,-0.00443176,-0.935376,0.00752987,0.0263738,622,1002,-32.4299,-2.85616
-595,22,-32.4026,2.68066,0.000844303,0.00292629,-0.00715607,0.00911669,-0.00534609,-0.857627,0.00844415,0.0247856,629,1002,-32.4026,-2.68064
-588,22,-32.1498,2.11395,0.00159525,0.00193163,-0.00784764,0.00961289,-0.006086,-0.796112,0.00913968,0.0396782,636,1002,-32.1498,-2.11398
-581,22,-31.9827,1.55518,0.00212281,0.00122368,-0.00799067,0.00967655,-0.00633007,-0.757297,0.00930851,0.0443811,643,1002,-31.9827,-1.55515
-574,22,-32.0146,1.0069,0.00226891,0.000652278,-0.00760735,0.00911077,-0.00618958,-0.732469,0.00888717,0.0357314,650,1002,-32.0146,-1.00689
-567,22,-32.011,0.966492,0.00222528,0.000215774,-0.00665023,0.00794624,-0.00550518,-0.710422,0.00780869,0.0323288,657,1002,-32.011,-0.966463
-560,22,-32.0558,1.1004,0.00209824,-0.000198785,-0.00519153,0.00626678,-0.00436732,-0.676537,0.00617216,0.0369981,664,1002,-32.0558,-1.10038
-553,22,-32.1304,1.22345,0.00194936,-0.00067746,-0.00336641,0.0042495,-0.0029776,-0.599404,0.00419405,0.040717,671,1002,-32.1303,-1.22347
-546,22,-32.0544,1.09033,0.00193743,-0.00135649,-0.00128634,0.00238024,-0.0017993,-0.331536,0.00242082,0.0430282,678,1002,-32.0544,-1.09033
-539,22,-31.9365,0.907898,0.00224005,-0.00207051,0.000473584,0.00229147,-0.00212193,0.108147,0.0025487,0.0426774,685,1002,-31.9365,-0.907927
-532,22,-32.0211,0.73999,0.00311146,-0.00213163,0.000337993,0.00313316,-0.00215333,0.0641107,0.00306958,0.0416072,692,1002,-32.0211,-0.740006
-525,22,0,0,0,0,0,0,0,0,0,-1,699,1002,0,0
-518,22,0,0,0,0,0,0,0,0,0,-1,706,1002,0,0
-511,22,0,0,0,0,0,0,0,0,0,-1,713,1002,0,0
-504,22,0,0,0,0,0,0,0,0,0,-1,720,1002,0,0
-497,22,0,0,0,0,0,0,0,0,0,-1,727,1002,0,0
-490,22,0,0,0,0,0,0,0,0,0,-1,734,1002,0,0
-483,22,0,0,0,0,0,0,0,0,0,-1,741,1002,0,0
-476,22,0,0,0,0,0,0,0,0,0,-1,748,1002,0,0
-469,22,0,0,0,0,0,0,0,0,0,-1,755,1002,0,0
-462,22,0,0,0,0,0,0,0,0,0,-1,762,1002,0,0
-455,22,0,0,0,0,0,0,0,0,0,-1,769,1002,0,0
-448,22,0,0,0,0,0,0,0,0,0,-1,776,1002,0,0
-441,22,0,0,0,0,0,0,0,0,0,-1,783,1002,0,0
-434,22,0,0,0,0,0,0,0,0,0,-1,790,1002,0,0
-427,22,0,0,0,0,0,0,0,0,0,-1,797,1002,0,0
-420,22,0,0,0,0,0,0,0,0,0,-1,804,1002,0,0
-413,22,0,0,0,0,0,0,0,0,0,-1,811,1002,0,0
-406,22,0,0,0,0,0,0,0,0,0,-1,818,1002,0,0
-399,22,0,0,0,0,0,0,0,0,0,-1,825,1002,0,0
-392,22,0,0,0,0,0,0,0,0,0,-1,832,1002,0,0
-385,22,0,0,0,0,0,0,0,0,0,-1,839,1002,0,0
-378,22,0,0,0,0,0,0,0,0,0,-1,846,1002,0,0
-371,22,0,0,0,0,0,0,0,0,0,-1,853,1002,0,0
-364,22,0,0,0,0,0,0,0,0,0,-1,860,1002,0,0
-357,22,0,0,0,0,0,0,0,0,0,-1,867,1002,0,0
-350,22,0,0,0,0,0,0,0,0,0,-1,874,1002,0,0
-343,22,0,0,0,0,0,0,0,0,0,-1,881,1002,0,0
-336,22,0,0,0,0,0,0,0,0,0,-1,888,1002,0,0
-329,22,0,0,0,0,0,0,0,0,0,-1,895,1002,0,0
-322,22,0,0,0,0,0,0,0,0,0,-1,902,1002,0,0
-315,22,0,0,0,0,0,0,0,0,0,-1,909,1002,0,0
-308,22,0,0,0,0,0,0,0,0,0,-1,916,1002,0,0
-301,22,0,0,0,0,0,0,0,0,0,-1,923,1002,0,0
-294,22,0,0,0,0,0,0,0,0,0,-1,930,1002,0,0
-287,22,0,0,0,0,0,0,0,0,0,-1,937,1002,0,0
-280,22,0,0,0,0,0,0,0,0,0,-1,944,1002,0,0
-273,22,0,0,0,0,0,0,0,0,0,-1,951,1002,0,0
-266,22,0,0,0,0,0,0,0,0,0,-1,958,1002,0,0
-259,22,0,0,0,0,0,0,0,0,0,-1,965,1002,0,0
-252,22,0,0,0,0,0,0,0,0,0,-1,972,1002,0,0
-245,22,0,0,0,0,0,0,0,0,0,-1,979,1002,0,0
-238,22,0,0,0,0,0,0,0,0,0,-1,986,1002,0,0
-231,22,0,0,0,0,0,0,0,0,0,-1,993,1002,0,0
-224,22,0,0,0,0,0,0,0,0,0,-1,1000,1002,0,0
-217,22,0,0,0,0,0,0,0,0,0,-1,1007,1002,0,0
-210,22,0,0,0,0,0,0,0,0,0,-1,1014,1002,0,0
-203,22,0,0,0,0,0,0,0,0,0,-1,1021,1002,0,0
-196,22,0,0,0,0,0,0,0,0,0,-1,1028,1002,0,0
-189,22,0,0,0,0,0,0,0,0,0,-1,1035,1002,0,0
-182,22,0,0,0,0,0,0,0,0,0,-1,1042,1002,0,0
-175,22,0,0,0,0,0,0,0,0,0,-1,1049,1002,0,0
-168,22,0,0,0,0,0,0,0,0,0,-1,1056,1002,0,0
-161,22,0,0,0,0,0,0,0,0,0,-1,1063,1002,0,0
-154,22,0,0,0,0,0,0,0,0,0,-1,1070,1002,0,0
-147,22,0,0,0,0,0,0,0,0,0,-1,1077,1002,0,0
-140,22,0,0,0,0,0,0,0,0,0,-1,1084,1002,0,0
-133,22,0,0,0,0,0,0,0,0,0,-1,1091,1002,0,0
-126,22,0,0,0,0,0,0,0,0,0,-1,1098,1002,0,0
-119,22,0,0,0,0,0,0,0,0,0,-1,1105,1002,0,0
-112,22,0,0,0,0,0,0,0,0,0,-1,1112,1002,0,0
-105,22,0,0,0,0,0,0,0,0,0,-1,1119,1002,0,0
-98,22,0,0,0,0,0,0,0,0,0,-1,1126,1002,0,0
-91,22,0,0,0,0,0,0,0,0,0,-1,1133,1002,0,0
-84,22,0,0,0,0,0,0,0,0,0,-1,1140,1002,0,0
-77,22,0,0,0,0,0,0,0,0,0,-1,1147,1002,0,0
-70,22,0,0,0,0,0,0,0,0,0,-1,1154,1002,0,0
-63,22,0,0,0,0,0,0,0,0,0,-1,1161,1002,0,0
-56,22,0,0,0,0,0,0,0,0,0,-1,1168,1002,0,0
-49,22,0,0,0,0,0,0,0,0,0,-1,1175,1002,0,0
-42,22,0,0,0,0,0,0,0,0,0,-1,1182,1002,0,0
-35,22,0,0,0,0,0,0,0,0,0,-1,1189,1002,0,0
-28,22,0,0,0,0,0,0,0,0,0,-1,1196,1002,0,0
-21,22,0,0,0,0,0,0,0,0,0,-1,1203,1002,0,0
-14,22,0,0,0,0,0,0,0,0,0,-1,1210,1002,0,0
-7,22,0,0,0,0,0,0,0,0,0,-1,1217,1002,0,0
0,22,0,0,0,0,0,0,0,0,0,-1,1224,1002,0,0
7,22,0,0,0,0,0,0,0,0,0,-1,1231,1002,0,0
14,22,0,0,0,0,0,0,0,0,0,-1,1238,1002,0,0
21,22,0,0,0,0,0,0,0,0,0,-1,1245,1002,0,0
28,22,0,0,0,0,0,0,0,0,0,-1,1252,1002,0,0
35,22,0,0,0,0,0,0,0,0,0,-1,1259,1002,0,0
42,22,0,0,0,0,0,0,0,0,0,-1,1266,1002,0,0
49,22,0,0,0,0,0,0,0,0,0,-1,1273,1002,0,0
56,22,0,0,0,0,0,0,0,0,0,-1,1280,1002,0,0
63,22,0,0,0,0,0,0,0,0,0,-1,1287,1002,0,0
70,22,0,0,0,0,0,0,0,0,0,-1,1294,1002,0,0
77,22,0,0,0,0,0,0,0,0,0,-1,1301,1002,0,0
84,22,0,0,0,0,0,0,0,0,0,-1,1308,1002,0,0
91,22,0,0,0,0,0,0,0,0,0,-1,1315,1002,0,0
98,22,0,0,0,0,0,0,0,0,0,-1,1322,1002,0,0
105,22,0,0,0,0,0,0,0,0,0,-1,1329,1002,0,0
112,22,0,0,0,0,0,0,0,0,0,-1,1336,1002,0,0
119,22,0,0,0,0,0,0,0,0,0,-1,1343,1002,0,0
126,22,0,0,0,0,0,0,0,0,0,-1,1350,1002,0,0
133,22,0,0,0,0,0,0,0,0,0,-1,1357,1002,0,0
140,22,0,0,0,0,0,0,0,0,0,-1,1364,1002,0,0
147,22,0,0,0,0,0,0,0,0,0,-1,1371,1002,0,0
154,22,0,0,0,0,0,0,0,0,0,-1,1378,1002,0,0
161,22,0,0,0,0,0,0,0,0,0,-1,1385,1002,0,0
168,22,0,0,0,0,0,0,0,0,0,-1,1392,1002,0,0
175,22,0,0,0,0,0,0,0,0,0,-1,1399,1002,0,0
182,22,0,0,0,0,0,0,0,0,0,-1,1406,1002,0,0
189,22,0,0,0,0,0,0,0,0,0,-1,1413,1002,0,0
196,22,0,0,0,0,0,0,0,0,0,-1,1420,1002,0,0
203,22,0,0,0,0,0,0,0,0,0,-1,1427,1002,0,0
210,22,0,0,0,0,0,0,0,0,0,-1,1434,1002,0,0
217,22,0,0,0,0,0,0,0,0,0,-1,1441,1002,0,0
224,22,0,0,0,0,0,0,0,0,0,-1,1448,1002,0,0
231,22,0,0,0,0,0,0,0,0,0,-1,1455,1002,0,0
238,22,0,0,0,0,0,0,0,0,0,-1,1462,1002,0,0
245,22,0,0,0,0,0,0,0,0,0,-1,1469,1002,0,0
252,22,0,0,0,0,0,0,0,0,0,-1,1476,1002,0,0
259,22,0,0,0,0,0,0,0,0,0,-1,1483,1002,0,0
266,22,0,0,0,0,0,0,0,0,0,-1,1490,1002,0,0
273,22,0,0,0,0,0,0,0,0,0,-1,1497,1002,0,0
280,22,0,0,0,0,0,0,0,0,0,-1,1504,1002,0,0
287,22,0,0,0,0,0,0,0,0,0,-1,1511,1002,0,0
294,22,0,0,0,0,0,0,0,0,0,-1,1518,1002,0,0
301,22,0,0,0,0,0,0,0,0,0,-1,1525,1002,0,0
308,22,0,0,0,0,0,0,0,0,0,-1,1532,1002,0,0
315,22,0,0,0,0,0,0,0,0,0,-1,1539,1002,0,0
322,22,0,0,0,0,0,0,0,0,0,-1,1546,1002,0,0
329,22,0,0,0,0,0,0,0,0,0,-1,1553,1002,0,0
336,22,0,0,0,0,0,0,0,0,0,-1,1560,1002,0,0
343,22,0,0,0,0,0,0,0,0,0,-1,1567,1002,0,0
350,22,0,0,0,0,0,0,0,0,0,-1,1574,1002,0,0
357,22,0,0,0,0,0,0,0,0,0,-1,1581,1002,0,0
364,22,0,0,0,0,0,0,0,0,0,-1,1588,1002,0,0
371,22,0,0,0,0,0,0,0,0,0,-1,1595,1002,0,0
378,22,0,0,0,0,0,0,0,0,0,-1,1602,1002,0,0
385,22,0,0,0,0,0,0,0,0,0,-1,1609,1002,0,0
392,22,0,0,0,0,0,0,0,0,0,-1,1616,1002,0,0
399,22,0,0,0,0,0,0,0,0,0,-1,1623,1002,0,0
406,22,0,0,0,0,0,0,0,0,0,-1,1630,1002,0,0
413,22,0,0,0,0,0,0,0,0,0,-1,1637,1002,0,0
420,22,0,0,0,0,0,0,0,0,0,-1,1644,1002,0,0
427,22,0,0,0,0,0,0,0,0,0,-1,1651,1002,0,0
434,22,0,0,0,0,0,0,0,0,0,-1,1658,1002,0,0
441,22,0,0,0,0,0,0,0,0,0,-1,1665,1002,0,0
448,22,0,0,0,0,0,0,0,0,0,-1,1672,1002,0,0
455,22,0,0,0,0,0,0,0,0,0,-1,1679,1002,0,0
462,22,0,0,0,0,0,0,0,0,0,-1,1686,1002,0,0
469,22,0,0,0,0,0,0,0,0,0,-1,1693,1002,0,0
476,22,0,0,0,0,0,0,0,0,0,-1,1700,1002,0,0
483,22,0,0,0,0,0,0,0,0,0,-1,1707,1002,0,0
490,22,0,0,0,0,0,0,0,0,0,-1,1714,1002,0,0
497,22,0,0,0,0,0,0,0,0,0,-1,1721,1002,0,0
504,22,0,0,0,0,0,0,0,0,0,-1,1728,1002,0,0
511,22,0,0,0,0,0,0,0,0,0,-1,1735,1002,0,0
518,22,0,0,0,0,0,0,0,0,0,-1,1742,1002,0,0
525,22,0,0,0,0,0,0,0,0,0,-1,1749,1002,0,0
532,22,0,0,0,0,0,0,0,0,0,-1,1756,1002,0,0
539,22,0,0,0,0,0,0,0,0,0,-1,1763,1002,0,0
546,22,0,0,0,0,0,0,0,0,0,-1,1770,1002,0,0
553,22,0,0,0,0,0,0,0,0,0,-1,1777,1002,0,0
560,22,0,0,0,0,0,0,0,0,0,-1,1784,1002,0,0
567,22,0,0,0,0,0,0,0,0,0,-1,1791,1002,0,0
574,22,0,0,0,0,0,0,0,0,0,-1,1798,1002,0,0
581,22,0,0,0,0,0,0,0,0,0,-1,1805,1002,0,0
588,22,0,0,0,0,0,0,0,0,0,-1,1812,1002,0,0
595,22,0,0,0,0,0,0,0,0,0,-1,1819,1002,0,0
602,22,0,0,0,0,0,0,0,0,0,-1,1826,1002,0,0
609,22,0,0,0,0,0,0,0,0,0,-1,1833,1002,0,0
616,22,0,0,0,0,0,0,0,0,0,-1,1840,1002,0,0
623,22,0,0,0,0,0,0,0,0,0,-1,1847,1002,0,0
630,22,0,0,0,0,0,0,0,0,0,-1,1854,1002,0,0
637,22,0,0,0,0,0,0,0,0,0,-1,1861,1002,0,0
644,22,43.4666,3.0332,0.000370541,0.00157063,-0.00400039,0.00501573,-0.00307456,-0.859841,0.00471554,0.0420118,1868,1002,43.4665,-3.03323
651,22,43.2976,3.24622,0.000661076,0.00115944,-0.00345432,0.00437356,-0.00255304,-0.821404,0.00404485,0.0427452,1875,1002,43.2976,-3.24621
658,22,43.3815,3.27148,0.00070906,0.000889492,-0.0028345,0.00363521,-0.00203666,-0.801307,0.00331773,0.0404569,1882,1002,43.3814,-3.27148
665,22,43.5038,3.14758,0.000674094,0.000758635,-0.00204914,0.00276594,-0.00133321,-0.795711,0.00241435,0.0389081,1889,1002,43.5038,-3.14757
672,22,43.5381,2.8468,0.000616076,0.000783828,-0.00110893,0.00181205,-0.000412142,-0.823145,0.00136629,0.0384204,1896,1002,43.5381,-2.8468
679,22,43.514,2.69287,0.000470396,0.00081377,-0.000157224,0.000874883,0.000409282,-1.20007,0.000505463,0.0380477,1903,1002,43.5141,-2.69285
686,22,43.448,2.81378,0.000372651,0.000737498,0.00058637,0.00116917,-5.90169e-05,0.936206,0.000799842,0.0380019,1910,1002,43.448,-2.81378
693,22,43.5098,2.96863,0.000282126,0.000567618,0.00110392,0.00153798,-0.000688238,0.849696,0.00131615,0.0371104,1917,1002,43.5098,-2.9686
700,22,43.5393,2.85883,0.0001694,0.000526141,0.00136165,0.00172106,-0.00102551,0.850525,0.00160259,0.0307958,1924,1002,43.5393,-2.85882
707,22,43.4739,2.85748,-0.000124047,0.000676807,0.00141122,0.00174331,-0.00119055,0.923637,0.00170386,0.031496,1931,1002,43.4739,-2.85751
714,22,43.5059,2.9834,-0.000718641,0.00101256,0.0013749,0.00177165,-0.00147773,1.06634,0.00187858,0.0405476,1938,1002,43.5058,-2.98339
721,22,43.5851,3.30627,0,0,0,0,0,0,0,-1,1945,1002,43.585,-3.30629
728,22,43.1373,5.47296,0,0,0,0,0,0,0,-1,1952,1002,43.1373,-5.47296
735,22,43.1766,5.5498,-0.0019469,0.00306566,0.00086966,0.00321226,-0.00209349,1.4038,0.00308589,0.0162797,1959,1002,43.1767,-5.54979
742,22,43.1858,5.64008,-0.00219312,0.00307793,0.000161472,0.00308287,-0.00219806,1.5402,0.00306318,0.0160203,1966,1002,43.1858,-5.64009
749,22,43.1384,5.73767,-0.00246795,0.00346727,-0.000848422,0.00358617,-0.00258685,-1.43156,0.00357953,0.0122183,1973,1002,43.1384,-5.73767
756,22,43.1332,5.82404,-0.00227308,0.00391846,-0.00206415,0.00454351,-0.00289813,-1.27676,0.0043313,0.0173047,1980,1002,43.1332,-5.82404
763,22,43.0863,5.97974,-0.00157321,0.00406333,-0.00367104,0.00587315,-0.00338303,-1.11277,0.00540814,0.0195053,1987,1002,43.0863,-5.97975
770,22,42.9729,6.07623,4.92216e-05,0.0035086,-0.0058877,0.00791542,-0.0043576,-0.928268,0.00718439,0.018054,1994,1002,42.9729,-6.07625
777,22,42.759,6.02277,0.0026868,0.00210677,-0.00874545,0.011147,-0.00635348,-0.768823,0.0102295,0.0371457,2001,1002,42.759,-6.02275
784,22,42.5754,5.99615,0,0,0,0,0,0,0,-1,2008,1002,42.5755,-5.99617
791,22,42.8623,6.04865,0,0,0,0,0,0,0,-1,2015,1002,42.8622,-6.04863
798,22,41.3572,4.96173,0,0,0,0,0,0,0,-1,2022,1002,41.3573,-4.96174
805,22,41.7087,4.63287,0,0,0,0,0,0,0,-1,2029,1002,41.7088,-4.63288
812,22,41.8953,4.47693,0,0,0,0,0,0,0,-1,2036,1002,41.8952,-4.47695
-700,15,0,0,0,0,0,0,0,0,0,-1,524,1009,0,0
-693,15,-32.9152,2.15479,0,0,0,0,0,0,0,-1,531,1009,-32.9152,-2.15481
-686,15,-31.2201,3.42188,-0.0555453,0.0218676,0.0277491,0.0307868,-0.0644645,1.2598,0.0561274,0.0418331,538,1009,-31.2201,-3.42189
-679,15,-31.8088,3.54602,-0.0469607,0.0217253,0.0210018,0.027638,-0.0528734,1.29637,0.0472382,0.046812,545,1009,-31.8088,-3.54604
-672,15,-32.3135,3.68127,-0.0390775,0.0208924,0.0158832,0.0248394,-0.0430245,1.32723,0.0396473,0.0490237,552,1009,-32.3135,-3.6813
-665,15,-32.4814,3.66437,0,0,0,0,0,0,0,-1,559,1009,-32.4814,-3.66434
-658,15,-31.5508,2.01398,0,0,0,0,0,0,0,-1,566,1009,-31.5508,-2.01395
-651,15,-31.6605,1.80304,0,0,0,0,0,0,0,-1,573,1009,-31.6605,-1.80305
-644,15,-32.0708,2.63226,-0.0157597,0.0138436,0.00477651,0.0145952,-0.0165113,1.41472,0.0179707,0.0442552,580,1009,-32.0708,-2.63226
-637,15,-32.3225,3.06403,-0.0110456,0.0118756,0.00204382,0.0120564,-0.0112264,1.48256,0.0134452,0.0272337,587,1009,-32.3225,-3.06403
-630,15,-32.3316,3.07446,-0.00717498,0.00911609,-0.000540454,0.009134,-0.00719289,-1.53767,0.00944852,0.0154013,594,1009,-32.3316,-3.07448
-623,15,-32.4033,3.03888,-0.00406821,0.0073822,-0.00214831,0.00777199,-0.00445801,-1.39131,0.00714688,0.00970979,601,1009,-32.4032,-3.03886
-616,15,-32.4674,2.9834,-0.00201135,0.00587127,-0.00359711,0.00726598,-0.00340606,-1.20091,0.00629441,0.0149245,608,1009,-32.4674,-2.98342
-609,15,-32.4295,2.94958,-0.000357381,0.00436487,-0.00515632,0.00767495,-0.00366746,-1.0001,0.0066834,0.0225884,615,1009,-32.4295,-2.94956
-602,15,-32.405,2.89801,0.000631894,0.00372495,-0.00640658,0.00876902,-0.00441218,-0.903831,0.0077475,0.0229552,622,1009,-32.405,-2.89802
-595,15,-32.2678,2.3053,0.00135142,0.00287929,-0.00723372,0.0093893,-0.0051586,-0.838007,0.0085168,0.0400321,629,1009,-32.2678,-2.30528
-588,15,-31.9391,1.5943,0.00212025,0.00197963,-0.00778812,0.00983837,-0.00573849,-0.780885,0.00909655,0.0475999,636,1009,-31.9392,-1.59431
-581,15,-31.8629,0.854126,0,0,0,0,0,0,0,-1,643,1009,-31.8629,-0.85412
-574,15,-31.9631,1.05548,0.00280765,0.000856647,-0.00739348,0.00928971,-0.00562541,-0.719807,0.00869744,0.0333518,650,1009,-31.9631,-1.05547
-567,15,-31.9796,1.18268,0.00269866,0.000514165,-0.00635839,0.00805793,-0.00484511,-0.700338,0.00752616,0.033592,657,1009,-31.9796,-1.18269
-560,15,-32.0328,1.2691,0.00243273,0.000219605,-0.00480287,0.00625487,-0.00360253,-0.672176,0.00575943,0.0371178,664,1009,-32.0328,-1.26913
-553,15,-32.0402,1.35309,0.00206281,-0.000121187,-0.00285634,0.00402878,-0.00208715,-0.602817,0.00358986,0.0389914,671,1009,-32.0402,-1.35306
-546,15,-32.038,1.28143,0.00176025,-0.000650333,-0.000627107,0.00191363,-0.000803714,-0.239875,0.0016119,0.0404003,678,1009,-32.0379,-1.28143
-539,15,-32.048,1.04431,0.00172778,-0.00111007,0.00123988,0.00219317,-0.00157547,0.359081,0.00218555,0.0409379,685,1009,-32.048,-1.04433
-532,15,-32.1125,0.718567,0.00231504,-0.0007435,0.00105908,0.00264596,-0.00107442,0.302851,0.00221092,0.041979,692,1009,-32.1126,-0.718563
-525,15,0,0,0,0,0,0,0,0,0,-1,699,1009,0,0
-518,15,0,0,0,0,0,0,0,0,0,-1,706,1009,0,0
-511,15,0,0,0,0,0,0,0,0,0,-1,713,1009,0,0
-504,15,0,0,0,0,0,0,0,0,0,-1,720,1009,0,0
-497,15,0,0,0,0,0,0,0,0,0,-1,727,1009,0,0
-490,15,0,0,0,0,0,0,0,0,0,-1,734,1009,0,0
-483,15,0,0,0,0,0,0,0,0,0,-1,741,1009,0,0
-476,15,0,0,0,0,0,0,0,0,0,-1,748,1009,0,0
-469,15,0,0,0,0,0,0,0,0,0,-1,755,1009,0,0
-462,15,0,0,0,0,0,0,0,0,0,-1,762,1009,0,0
-455,15,0,0,0,0,0,0,0,0,0,-1,769,1009,0,0
-448,15,0,0,0,0,0,0,0,0,0,-1,776,1009,0,0
-441,15,0,0,0,0,0,0,0,0,0,-1,783,1009,0,0
-434,15,0,0,0,0,0,0,0,0,0,-1,790,1009,0,0
-427,15,0,0,0,0,0,0,0,0,0,-1,797,1009,0,0
-420,15,0,0,0,0,0,0,0,0,0,-1,804,1009,0,0
-413,15,0,0,0,0,0,0,0,0,0,-1,811,1009,0,0
-406,15,0,0,0,0,0,0,0,0,0,-1,818,1009,0,0
-399,15,0,0,0,0,0,0,0,0,0,-1,825,1009,0,0
-392,15,0,0,0,0,0,0,0,0,0,-1,832,1009,0,0
-385,15,0,0,0,0,0,0,0,0,0,-1,839,1009,0,0
-378,15,0,0,0,0,0,0,0,0,0,-1,846,1009,0,0
-371,15,0,0,0,0,0,0,0,0,0,-1,853,1009,0,0
-364,15,0,0,0,0,0,0,0,0,0,-1,860,1009,0,0
-357,15,0,0,0,0,0,0,0,0,0,-1,867,1009,0,0
-350,15,0,0,0,0,0,0,0,0,0,-1,874,1009,0,0
-343,15,0,0,0,0,0,0,0,0,0,-1,881,1009,0,0
-336,15,0,0,0,0,0,0,0,0,0,-1,888,1009,0,0
-329,15,0,0,0,0,0,0,0,0,0,-1,895,1009,0,0
-322,15,0,0,0,0,0,0,0,0,0,-1,902,1009,0,0
-315,15,0,0,0,0,0,0,0,0,0,-1,909,1009,0,0
-308,15,0,0,0,0,0,0,0,0,0,-1,916,1009,0,0
-301,15,0,0,0,0,0,0,0,0,0,-1,923,1009,0,0
-294,15,0,0,0,0,0,0,0,0,0,-1,930,1009,0,0
-287,15,0,0,0,0,0,0,0,0,0,-1,937,1009,0,0
-280,15,0,0,0,0,0,0,0,0,0,-1,944,1009,0,0
-273,15,0,0,0,0,0,0,0,0,0,-1,951,1009,0,0
-266,15,0,0,0,0,0,0,0,0,0,-1,958,1009,0,0
-259,15,0,0,0,0,0,0,0,0,0,-1,965,1009,0,0
-252,15,0,0,0,0,0,0,0,0,0,-1,972,1009,0,0
-245,15,0,0,0,0,0,0,0,0,0,-1,979,1009,0,0
-238,15,0,0,0,0,0,0,0,0,0,-1,986,1009,0,0
-231,15,0,0,0,0,0,0,0,0,0,-1,993,1009,0,0
-224,15,0,0,0,0,0,0,0,0,0,-1,1000,1009,0,0
-217,15,0,0,0,0,0,0,0,0,0,-1,1007,1009,0,0
-210,15,0,0,0,0,0,0,0,0,0,-1,1014,1009,0,0
-203,15,0,0,0,0,0,0,0,0,0,-1,1021,1009,0,0
-196,15,0,0,0,0,0,0,0,0,0,-1,1028,1009,0,0
-189,15,0,0,0,0,0,0,0,0,0,-1,1035,1009,0,0
-182,15,0,0,0,0,0,0,0,0,0,-1,1042,1009,0,0
-175,15,0,0,0,0,0,0,0,0,0,-1,1049,1009,0,0
-168,15,0,0,0,0,0,0,0,0,0,-1,1056,1009,0,0
-161,15,0,0,0,0,0,0,0,0,0,-1,1063,1009,0,0
-154,15,0,0,0,0,0,0,0,0,0,-1,1070,1009,0,0
-147,15,0,0,0,0,0,0,0,0,0,-1,1077,1009,0,0
-140,15,0,0,0,0,0,0,0,0,0,-1,1084,1009,0,0
-133,15,0,0,0,0,0,0,0,0,0,-1,1091,1009,0,0
-126,15,0,0,0,0,0,0,0,0,0,-1,1098,1009,0,0
-119,15,0,0,0,0,0,0,0,0,0,-1,1105,1009,0,0
-112,15,0,0,0,0,0,0,0,0,0,-1,1112,1009,0,0
-105,15,0,0,0,0,0,0,0,0,0,-1,1119,1009,0,0
-98,15,0,0,0,0,0,0,0,0,0,-1,1126,1009,0,0
-91,15,0,0,0,0,0,0,0,0,0,-1,1133,1009,0,0
-84,15,0,0,0,0,0,0,0,0,0,-1,1140,1009,0,0
-77,15,0,0,0,0,0,0,0,0,0,-1,1147,1009,0,0
-70,15,0,0,0,0,0,0,0,0,0,-1,1154,1009,0,0
-63,15,0,0,0,0,0,0,0,0,0,-1,1161,1009,0,0
-56,15,0,0,0,0,0,0,0,0,0,-1,1168,1009,0,0
-49,15,0,0,0,0,0,0,0,0,0,-1,1175,1009,0,0
-42,15,0,0,0,0,0,0,0,0,0,-1,1182,1009,0,0
-35,15,0,0,0,0,0,0,0,0,0,-1,1189,1009,0,0
-28,15,0,0,0,0,0,0,0,0,0,-1,1196,1009,0,0
-21,15,0,0,0,0,0,0,0,0,0,-1,1203,1009,0,0
-14,15,0,0,0,0,0,0,0,0,0,-1,1210,1009,0,0
-7,15,0,0,0,0,0,0,0,0,0,-1,1217,1009,0,0
0,15,0,0,0,0,0,0,0,0,0,-1,1224,1009,0,0
7,15,0,0,0,0,0,0,0,0,0,-1,1231,1009,0,0
14,15,0,0,0,0,0,0,0,0,0,-1,1238,1009,0,0
21,15,0,0,0,0,0,0,0,0,0,-1,1245,1009,0,0
28,15,0,0,0,0,0,0,0,0,0,-1,1252,1009,0,0
35,15,0,0,0,0,0,0,0,0,0,-1,1259,1009,0,0
42,15,0,0,0,0,0,0,0,0,0,-1,1266,1009,0,0
49,15,0,0,0,0,0,0,0,0,0,-1,1273,1009,0,0
56,15,0,0,0,0,0,0,0,0,0,-1,1280,1009,0,0
63,15,0,0,0,0,0,0,0,0,0,-1,1287,1009,0,0
70,15,0,0,0,0,0,0,0,0,0,-1,1294,1009,0,0
77,15,0,0,0,0,0,0,0,0,0,-1,1301,1009,0,0
84,15,0,0,0,0,0,0,0,0,0,-1,1308,1009,0,0
91,15,0,0,0,0,0,0,0,0,0,-1,1315,1009,0,0
98,15,0,0,0,0,0,0,0,0,0,-1,1322,1009,0,0
105,15,0,0,0,0,0,0,0,0,0,-1,1329,1009,0,0
112,15,0,0,0,0,0,0,0,0,0,-1,1336,1009,0,0
119,15,0,0,0,0,0,0,0,0,0,-1,1343,1009,0,0
126,15,0,0,0,0,0,0,0,0,0,-1,1350,1009,0,0
133,15,0,0,0,0,0,0,0,0,0,-1,1357,1009,0,0
140,15,0,0,0,0,0,0,0,0,0,-1,1364,1009,0,0
147,15,0,0,0,0,0,0,0,0,0,-1,1371,1009,0,0
154,15,0,0,0,0,0,0,0,0,0,-1,1378,1009,0,0
161,15,0,0,0,0,0,0,0,0,0,-1,1385,1009,0,0
168,15,0,0,0,0,0,0,0,0,0,-1,1392,1009,0,0
175,15,0,0,0,0,0,0,0,0,0,-1,1399,1009,0,0
182,15,0,0,0,0,0,0,0,0,0,-1,1406,1009,0,0
189,15,0,0,0,0,0,0,0,0,0,-1,1413,1009,0,0
196,15,0,0,0,0,0,0,0,0,0,-1,1420,1009,0,0
203,15,0,0,0,0,0,0,0,0,0,-1,1427,1009,0,0
210,15,0,0,0,0,0,0,0,0,0,-1,1434,1009,0,0
217,15,0,0,0,0,0,0,0,0,0,-1,1441,1009,0,0
224,15,0,0,0,0,0,0,0,0,0,-1,1448,1009,0,0
231,15,0,0,0,0,0,0,0,0,0,-1,1455,1009,0,0
238,15,0,0,0,0,0,0,0,0,0,-1,1462,1009,0,0
245,15,0,0,0,0,0,0,0,0,0,-1,1469,1009,0,0
252,15,0,0,0,0,0,0,0,0,0,-1,1476,1009,0,0
259,15,0,0,0,0,0,0,0,0,0,-1,1483,1009,0,0
266,15,0,0,0,0,0,0,0,0,0,-1,1490,1009,0,0
273,15,0,0,0,0,0,0,0,0,0,-1,1497,1009,0,0
280,15,0,0,0,0,0,0,0,0,0,-1,1504,1009,0,0
287,15,0,0,0,0,0,0,0,0,0,-1,1511,1009,0,0
294,15,0,0,0,0,0,0,0,0,0,-1,1518,1009,0,0
301,15,0,0,0,0,0,0,0,0,0,-1,1525,1009,0,0
308,15,0,0,0,0,0,0,0,0,0,-1,1532,1009,0,0
315,15,0,0,0,0,0,0,0,0,0,-1,1539,1009,0,0
322,15,0,0,0,0,0,0,0,0,0,-1,1546,1009,0,0
329,15,0,0,0,0,0,0,0,0,0,-1,1553,1009,0,0
336,15,0,0,0,0,0,0,0,0,0,-1,1560,1009,0,0
343,15,0,0,0,0,0,0,0,0,0,-1,1567,1009,0,0
350,15,0,0,0,0,0,0,0,0,0,-1,1574,1009,0,0
357,15,0,0,0,0,0,0,0,0,0,-1,1581,1009,0,0
364,15,0,0,0,0,0,0,0,0,0,-1,1588,1009,0,0
371,15,0,0,0,0,0,0,0,0,0,-1,1595,1009,0,0
378,15,0,0,0,0,0,0,0,0,0,-1,1602,1009,0,0
385,15,0,0,0,0,0,0,0,0,0,-1,1609,1009,0,0
392,15,0,0,0,0,0,0,0,0,0,-1,1616,1009,0,0
399,15,0,0,0,0,0,0,0,0,0,-1,1623,1009,0,0
406,15,0,0,0,0,0,0,0,0,0,-1,1630,1009,0,0
413,15,0,0,0,0,0,0,0,0,0,-1,1637,1009,0,0
420,15,0,0,0,0,0,0,0,0,0,-1,1644,1009,0,0
427,15,0,0,0,0,0,0,0,0,0,-1,1651,1009,0,0
434,15,0,0,0,0,0,0,0,0,0,-1,1658,1009,0,0
441,15,0,0,0,0,0,0,0,0,0,-1,1665,1009,0,0
448,15,0,0,0,0,0,0,0,0,0,-1,1672,1009,0,0
455,15,0,0,0,0,0,0,0,0,0,-1,1679,1009,0,0
462,15,0,0,0,0,0,0,0,0,0,-1,1686,1009,0,0
469,15,0,0,0,0,0,0,0,0,0,-1,1693,1009,0,0
476,15,0,0,0,0,0,0,0,0,0,-1,1700,1009,0,0
483,15,0,0,0,0,0,0,0,0,0,-1,1707,1009,0,0
490,15,0,0,0,0,0,0,0,0,0,-1,1714,1009,0,0
497,15,0,0,0,0,0,0,0,0,0,-1,1721,1009,0,0
504,15,0,0,0,0,0,0,0,0,0,-1,1728,1009,0,0
511,15,0,0,0,0,0,0,0,0,0,-1,1735,1009,0,0
518,15,0,0,0,0,0,0,0,0,0,-1,1742,1009,0,0
525,15,0,0,0,0,0,0,0,0,0,-1,1749,1009,0,0
532,15,0,0,0,0,0,0,0,0,0,-1,1756,1009,0,0
539,15,0,0,0,0,0,0,0,0,0,-1,1763,1009,0,0
546,15,0,0,0,0,0,0,0,0,0,-1,1770,1009,0,0
553,15,0,0,0,0,0,0,0,0,0,-1,1777,1009,0,0
560,15,0,0,0,0,0,0,0,0,0,-1,1784,1009,0,0
567,15,0,0,0,0,0,0,0,0,0,-1,1791,1009,0,0
574,15,0,0,0,0,0,0,0,0,0,-1,1798,1009,0,0
581,15,0,0,0,0,0,0,0,0,0,-1,1805,1009,0,0
588,15,0,0,0,0,0,0,0,0,0,-1,1812,1009,0,0
595,15,0,0,0,0,0,0,0,0,0,-1,1819,1009,0,0
602,15,0,0,0,0,0,0,0,0,0,-1,1826,1009,0,0
609,15,0,0,0,0,0,0,0,0,0,-1,1833,1009,0,0
616,15,0,0,0,0,0,0,0,0,0,-1,1840,1009,0,0
623,15,0,0,0,0,0,0,0,0,0,-1,1847,1009,0,0
630,15,0,0,0,0,0,0,0,0,0,-1,1854,1009,0,0
637,15,0,0,0,0,0,0,0,0,0,-1,1861,1009,0,0
644,15,43.4169,2.85596,-0.00107253,0.00167882,-0.00306233,0.00366028,-0.00305399,-0.996503,0.00388175,0.039864,1868,1009,43.4169,-2.85599
651,15,43.427,2.97333,-0.000454596,0.00143779,-0.002931,0.00357153,-0.00258834,-0.941529,0.00357147,0.0371303,1875,1009,43.427,-2.97332
658,15,43.5043,2.80707,-0.000124039,0.00120826,-0.00258068,0.00320738,-0.00212316,-0.911706,0.00309874,0.0374937,1882,1009,43.5043,-2.80706
665,15,43.5564,2.85693,5.05463e-05,0.00105138,-0.00199286,0.00260569,-0.00150376,-0.908408,0.00240086,0.0407012,1889,1009,43.5564,-2.85692
672,15,43.479,2.82129,0.000181882,0.00103101,-0.00120016,0.00187949,-0.000666593,-0.955408,0.00152457,0.0391765,1896,1009,43.479,-2.82132
679,15,43.6095,2.63147,0.00021222,0.0010112,-0.000324819,0.00112659,9.68318e-05,-1.22946,0.000720955,0.03611,1903,1009,43.6094,-2.63148
686,15,43.5422,2.70264,0.000224561,0.000883329,0.000403599,0.00107489,3.29979e-05,1.12764,0.000705853,0.0405538,1910,1009,43.5423,-2.70264
693,15,43.4275,2.78021,0.000223171,0.000675652,0.000956471,0.00143228,-0.000533453,0.901532,0.00117379,0.039597,1917,1009,43.4275,-2.78021
700,15,43.531,2.75104,0.000177338,0.00058161,0.00124949,0.0016452,-0.000886257,0.865591,0.00148327,0.0297479,1924,1009,43.5309,-2.75103
707,15,43.5273,2.86053,-6.56177e-05,0.00067807,0.00134161,0.00169842,-0.00108597,0.920585,0.00162048,0.030014,1931,1009,43.5273,-2.86056
714,15,43.5347,2.90027,-0.000616415,0.000981393,0.00137408,0.00177194,-0.00140696,1.04872,0.00183937,0.0375537,1938,1009,43.5347,-2.90025
721,15,43.5995,2.8504,0,0,0,0,0,0,0,-1,1945,1009,43.5995,-2.8504
728,15,43.3033,5.44434,0,0,0,0,0,0,0,-1,1952,1009,43.3033,-5.44436
735,15,43.2397,5.57635,-0.00215033,0.00308957,0.0011108,0.00331532,-0.00237608,1.37029,0.00330081,0.0185054,1959,1009,43.2397,-5.57634
742,15,43.2375,5.72076,-0.00258619,0.00322199,0.000550913,0.00327378,-0.00263798,1.47706,0.00341973,0.0277569,1966,1009,43.2375,-5.72076
749,15,43.2267,5.78027,-0.00310251,0.00363953,-0.000254419,0.00364911,-0.0031121,-1.53313,0.00390769,0.0168833,1973,1009,43.2267,-5.78026
756,15,43.2305,5.74194,-0.00325649,0.00413522,-0.00116213,0.00431362,-0.0034349,-1.41847,0.00448319,0.0147008,1980,1009,43.2305,-5.74195
763,15,43.1791,5.87567,-0.00298441,0.00434804,-0.00233785,0.00503,-0.00366637,-1.28697,0.00504139,0.012726,1987,1009,43.1791,-5.87565
770,15,43.068,5.94635,-0.00203433,0.00391054,-0.00390879,0.00584871,-0.00397249,-1.11048,0.00570465,0.0185754,1994,1009,43.068,-5.94632
777,15,42.7861,5.9787,-0.000143084,0.00261722,-0.00586674,0.00726396,-0.00478983,-0.900923,0.00700796,0.0425607,2001,1009,42.7861,-5.97868
784,15,42.5691,5.99176,0,0,0,0,0,0,0,-1,2008,1009,42.5692,-5.99178
791,15,41.6721,4.05609,0,0,0,0,0,0,0,-1,2015,1009,41.672,-4.05606
798,15,41.731,4.75275,0.0116925,-0.00864768,-0.0153127,0.0199048,-0.0168599,-0.492266,0.0212504,0.0479817,2022,1009,41.731,-4.75275
805,15,42.0391,4.55707,0.0187309,-0.0153317,-0.0203466,0.0282335,-0.0248344,-0.436932,0.0306597,0.0455046,2029,1009,42.0392,-4.55708
812,15,42.2766,4.55609,0,0,0,0,0,0,0,-1,2036,1009,42.2766,-4.55607
-700,8,0,0,0,0,0,0,0,0,0,-1,524,1016,0,0
-693,8,-32.7686,2.90985,0,0,0,0,0,0,0,-1,531,1016,-32.7686,-2.90984
-686,8,-32.2304,3.24969,-0.0478599,0.0237341,0.0193647,0.0286362,-0.0527619,1.32286,0.0476783,0.0444785,538,1016,-32.2304,-3.24971
-679,8,-32.056,3.64111,-0.0410425,0.0228994,0.0139626,0.0258154,-0.0439585,1.36492,0.0407354,0.0450143,545,1016,-32.056,-3.6411
-672,8,-32.262,3.61719,-0.034527,0.0215146,0.0100017,0.0232461,-0.0362585,1.39938,0.0346277,0.0449449,552,1016,-32.2619,-3.61719
-665,8,-32.3213,3.33307,-0.0285203,0.0197571,0.00705928,0.0207682,-0.0295313,1.42854,0.029187,0.04569,559,1016,-32.3213,-3.3331
-658,8,-31.9846,2.28754,-0.0231055,0.0176902,0.00491099,0.0182731,-0.0236883,1.45266,0.0242936,0.0419937,566,1016,-31.9846,-2.28755
-651,8,-31.931,2.70447,0,0,0,0,0,0,0,-1,573,1016,-31.931,-2.70444
-644,8,-31.7986,2.74036,0,0,0,0,0,0,0,-1,580,1016,-31.7986,-2.74034
-637,8,-32.1992,2.90247,-0.0100181,0.0115228,6.17258e-07,0.0115228,-0.0100181,1.57077,0.0124467,0.0354815,587,1016,-32.1992,-2.90249
-630,8,-32.3696,3.01697,-0.00637585,0.0085058,-0.00219729,0.00882345,-0.0066935,-1.42723,0.0089868,0.0201257,594,1016,-32.3696,-3.01698
-623,8,-32.3759,3.04205,-0.00342034,0.00660655,-0.00338824,0.00764412,-0.00445791,-1.27364,0.00706737,0.014799,601,1016,-32.3759,-3.04204
-616,8,-32.4272,2.96967,-0.00153219,0.00532033,-0.00438494,0.00745887,-0.00367072,-1.11704,0.00654856,0.0149446,608,1016,-32.4272,-2.96964
-609,8,-32.4449,2.92224,-2.07955e-05,0.0040306,-0.00553644,0.00790029,-0.00389049,-0.960776,0.00693739,0.0190737,615,1016,-32.4449,-2.92221
-602,8,-32.389,2.95892,0.000865269,0.00352935,-0.00651474,0.00884683,-0.00445221,-0.886241,0.00781669,0.0251254,622,1016,-32.389,-2.95891
-595,8,-32.0731,2.16656,0,0,0,0,0,0,0,-1,629,1016,-32.0731,-2.16659
-588,8,-31.92,1.08142,0,0,0,0,0,0,0,-1,636,1016,-31.92,-1.08142
-581,8,-31.9431,0.951538,0.00286622,0.00136104,-0.00749258,0.00964391,-0.00541665,-0.735344,0.00880865,0.0302186,643,1016,-31.9431,-0.951552
-574,8,-31.9383,1.16827,0.00300089,0.000941878,-0.00699362,0.00904037,-0.00509761,-0.71232,0.00826769,0.0337079,650,1016,-31.9383,-1.16829
-567,8,-32.0526,1.19501,0.00285414,0.00067156,-0.00593113,0.00779355,-0.00426784,-0.694419,0.00706212,0.037609,657,1016,-32.0526,-1.19498
-560,8,-32.0347,1.2829,0.00250872,0.000469972,-0.00434722,0.00595448,-0.00297579,-0.670235,0.00525063,0.0384561,664,1016,-32.0347,-1.28289
-553,8,-31.9591,1.33917,0.00201519,0.000238226,-0.00236132,0.00364965,-0.00139623,-0.605458,0.00300852,0.0397264,671,1016,-31.9591,-1.33917
-546,8,-32.1121,1.2085,0.0015518,-0.000171978,-7.77781e-05,0.0015553,-0.000175481,-0.0449989,0.00110004,0.0398836,678,1016,-32.1121,-1.2085
-539,8,-32.1879,1.02625,0.00134236,-0.000423359,0.00180336,0.00246737,-0.00154837,0.557766,0.00233864,0.0407243,685,1016,-32.1879,-1.02623
-532,8,-31.9877,0.9505,0.00180469,0.000277227,0.0015395,0.00275949,-0.000677571,0.55514,0.00210223,0.0414068,692,1016,-31.9877,-0.950488
-525,8,0,0,0,0,0,0,0,0,0,-1,699,1016,0,0
-518,8,0,0,0,0,0,0,0,0,0,-1,706,1016,0,0
-511,8,0,0,0,0,0,0,0,0,0,-1,713,1016,0,0
-504,8,0,0,0,0,0,0,0,0,0,-1,720,1016,0,0
-497,8,0,0,0,0,0,0,0,0,0,-1,727,1016,0,0
-490,8,0,0,0,0,0,0,0,0,0,-1,734,1016,0,0
-483,8,0,0,0,0,0,0,0,0,0,-1,741,1016,0,0
-476,8,0,0,0,0,0,0,0,0,0,-1,748,1016,0,0
-469,8,0,0,0,0,0,0,0,0,0,-1,755,1016,0,0
-462,8,0,0,0,0,0,0,0,0,0,-1,762,1016,0,0
-455,8,0,0,0,0,0,0,0,0,0,-1,769,1016,0,0
-448,8,0,0,0,0,0,0,0,0,0,-1,776,1016,0,0
-441,8,0,0,0,0,0,0,0,0,0,-1,783,1016,0,0
-434,8,0,0,0,0,0,0,0,0,0,-1,790,1016,0,0
-427,8,0,0,0,0,0,0,0,0,0,-1,797,1016,0,0
-420,8,0,0,0,0,0,0,0,0,0,-1,804,1016,0,0
-413,8,0,0,0,0,0,0,0,0,0,-1,811,1016,0,0
-406,8,0,0,0,0,0,0,0,0,0,-1,818,1016,0,0
-399,8,0,0,0,0,0,0,0,0,0,-1,825,1016,0,0
-392,8,0,0,0,0,0,0,0,0,0,-1,832,1016,0,0
-385,8,0,0,0,0,0,0,0,0,0,-1,839,1016,0,0
-378,8,0,0,0,0,0,0,0,0,0,-1,846,1016,0,0
-371,8,0,0,0,0,0,0,0,0,0,-1,853,1016,0,0
-364,8,0,0,0,0,0,0,0,0,0,-1,860,1016,0,0
-357,8,0,0,0,0,0,0,0,0,0,-1,867,1016,0,0
-350,8,0,0,0,0,0,0,0,0,0,-1,874,1016,0,0
-343,8,0,0,0,0,0,0,0,0,0,-1,881,1016,0,0
-336,8,0,0,0,0,0,0,0,0,0,-1,888,1016,0,0
-329,8,0,0,0,0,0,0,0,0,0,-1,895,1016,0,0
-322,8,0,0,0,0,0,0,0,0,0,-1,902,1016,0,0
-315,8,0,0,0,0,0,0,0,0,0,-1,909,1016,0,0
-308,8,0,0,0,0,0,0,0,0,0,-1,916,1016,0,0
-301,8,0,0,0,0,0,0,0,0,0,-1,923,1016,0,0
-294,8,0,0,0,0,0,0,0,0,0,-1,930,1016,0,0
-287,8,0,0,0,0,0,0,0,0,0,-1,937,1016,0,0
-280,8,0,0,0,0,0,0,0,0,0,-1,944,1016,0,0
-273,8,0,0,0,0,0,0,0,0,0,-1,951,1016,0,0
-266,8,0,0,0,0,0,0,0,0,0,-1,958,1016,0,0
-259,8,0,0,0,0,0,0,0,0,0,-1,965,1016,0,0
-252,8,0,0,0,0,0,0,0,0,0,-1,972,1016,0,0
-245,8,0,0,0,0,0,0,0,0,0,-1,979,1016,0,0
-238,8,0,0,0,0,0,0,0,0,0,-1,986,1016,0,0
-231,8,0,0,0,0,0,0,0,0,0,-1,993,1016,0,0
-224,8,0,0,0,0,0,0,0,0,0,-1,1000,1016,0,0
-217,8,0,0,0,0,0,0,0,0,0,-1,1007,1016,0,0
-210,8,0,0,0,0,0,0,0,0,0,-1,1014,1016,0,0
-203,8,0,0,0,0,0,0,0,0,0,-1,1021,1016,0,0
-196,8,0,0,0,0,0,0,0,0,0,-1,1028,1016,0,0
-189,8,0,0,0,0,0,0,0,0,0,-1,1035,1016,0,0
-182,8,0,0,0,0,0,0,0,0,0,-1,1042,1016,0,0
-175,8,0,0,0,0,0,0,0,0,0,-1,1049,1016,0,0
-168,8,0,0,0,0,0,0,0,0,0,-1,1056,1016,0,0
-161,8,0,0,0,0,0,0,0,0,0,-1,1063,1016,0,0
-154,8,0,0,0,0,0,0,0,0,0,-1,1070,1016,0,0
-147,8,0,0,0,0,0,0,0,0,0,-1,1077,1016,0,0
-140,8,0,0,0,0,0,0,0,0,0,-1,1084,1016,0,0
-133,8,0,0,0,0,0,0,0,0,0,-1,1091,1016,0,0
-126,8,0,0,0,0,0,0,0,0,0,-1,1098,1016,0,0
-119,8,0,0,0,0,0,0,0,0,0,-1,1105,1016,0,0
-112,8,0,0,0,0,0,0,0,0,0,-1,1112,1016,0,0
-105,8,0,0,0,0,0,0,0,0,0,-1,1119,1016,0,0
-98,8,0,0,0,0,0,0,0,0,0,-1,1126,1016,0,0
-91,8,0,0,0,0,0,0,0,0,0,-1,1133,1016,0,0
-84,8,0,0,0,0,0,0,0,0,0,-1,1140,1016,0,0
-77,8,0,0,0,0,0,0,0,0,0,-1,1147,1016,0,0
-70,8,0,0,0,0,0,0,0,0,0,-1,1154,1016,0,0
-63,8,0,0,0,0,0,0,0,0,0,-1,1161,1016,0,0
-56,8,0,0,0,0,0,0,0,0,0,-1,1168,1016,0,0
-49,8,0,0,0,0,0,0,0,0,0,-1,1175,1016,0,0
-42,8,0,0,0,0,0,0,0,0,0,-1,1182,1016,0,0
-35,8,0,0,0,0,0,0,0,0,0,-1,1189,1016,0,0
-28,8,0,0,0,0,0,0,0,0,0,-1,1196,1016,0,0
-21,8,0,0,0,0,0,0,0,0,0,-1,1203,1016,0,0
-14,8,0,0,0,0,0,0,0,0,0,-1,1210,1016,0,0
-7,8,0,0,0,0,0,0,0,0,0,-1,1217,1016,0,0
0,8,0,0,0,0,0,0,0,0,0,-1,1224,1016,0,0
7,8,0,0,0,0,0,0,0,0,0,-1,1231,1016,0,0
14,8,0,0,0,0,0,0,0,0,0,-1,1238,1016,0,0
21,8,0,0,0,0,0,0,0,0,0,-1,1245,1016,0,0
28,8,0,0,0,0,0,0,0,0,0,-1,1252,1016,0,0
35,8,0,0,0,0,0,0,0,0,0,-1,1259,1016,0,0
42,8,0,0,0,0,0,0,0,0,0,-1,1266,1016,0,0
49,8,0,0,0,0,0,0,0,0,0,-1,1273,1016,0,0
56,8,0,0,0,0,0,0,0,0,0,-1,1280,1016,0,0
63,8,0,0,0,0,0,0,0,0,0,-1,1287,1016,0,0
70,8,0,0,0,0,0,0,0,0,0,-1,1294,1016,0,0
77,8,0,0,0,0,0,0,0,0,0,-1,1301,1016,0,0
84,8,0,0,0,0,0,0,0,0,0,-1,1308,1016,0,0
91,8,0,0,0,0,0,0,0,0,0,-1,1315,1016,0,0
98,8,0,0,0,0,0,0,0,0,0,-1,1322,1016,0,0
105,8,0,0,0,0,0,0,0,0,0,-1,1329,1016,0,0
112,8,0,0,0,0,0,0,0,0,0,-1,1336,1016,0,0
119,8,0,0,0,0,0,0,0,0,0,-1,1343,1016,0,0
126,8,0,0,0,0,0,0,0,0,0,-1,1350,1016,0,0
133,8,0,0,0,0,0,0,0,0,0,-1,1357,1016,0,0
140,8,0,0,0,0,0,0,0,0,0,-1,1364,1016,0,0
147,8,0,0,0,0,0,0,0,0,0,-1,1371,1016,0,0
154,8,0,0,0,0,0,0,0,0,0,-1,1378,1016,0,0
161,8,0,0,0,0,0,0,0,0,0,-1,1385,1016,0,0
168,8,0,0,0,0,0,0,0,0,0,-1,1392,1016,0,0
175,8,0,0,0,0,0,0,0,0,0,-1,1399,1016,0,0
182,8,0,0,0,0,0,0,0,0,0,-1,1406,1016,0,0
189,8,0,0,0,0,0,0,0,0,0,-1,1413,1016,0,0
196,8,0,0,0,0,0,0,0,0,0,-1,1420,1016,0,0
203,8,0,0,0,0,0,0,0,0,0,-1,1427,1016,0,0
210,8,0,0,0,0,0,0,0,0,0,-1,1434,1016,0,0
217,8,0,0,0,0,0,0,0,0,0,-1,1441,1016,0,0
224,8,0,0,0,0,0,0,0,0,0,-1,1448,1016,0,0
231,8,0,0,0,0,0,0,0,0,0,-1,1455,1016,0,0
238,8,0,0,0,0,0,0,0,0,0,-1,1462,1016,0,0
245,8,0,0,0,0,0,0,0,0,0,-1,1469,1016,0,0
252,8,0,0,0,0,0,0,0,0,0,-1,1476,1016,0,0
259,8,0,0,0,0,0,0,0,0,0,-1,1483,1016,0,0
266,8,0,0,0,0,0,0,0,0,0,-1,1490,1016,0,0
273,8,0,0,0,0,0,0,0,0,0,-1,1497,1016,0,0
280,8,0,0,0,0,0,0,0,0,0,-1,1504,1016,0,0
287,8,0,0,0,0,0,0,0,0,0,-1,1511,1016,0,0
294,8,0,0,0,0,0,0,0,0,0,-1,1518,1016,0,0
301,8,0,0,0,0,0,0,0,0,0,-1,1525,1016,0,0
308,8,0,0,0,0,0,0,0,0,0,-1,1532,1016,0,0
315,8,0,0,0,0,0,0,0,0,0,-1,1539,1016,0,0
322,8,0,0,0,0,0,0,0,0,0,-1,1546,1016,0,0
329,8,0,0,0,0,0,0,0,0,0,-1,1553,1016,0,0
336,8,0,0,0,0,0,0,0,0,0,-1,1560,1016,0,0
343,8,0,0,0,0,0,0,0,0,0,-1,1567,1016,0,0
350,8,0,0,0,0,0,0,0,0,0,-1,1574,1016,0,0
357,8,0,0,0,0,0,0,0,0,0,-1,1581,1016,0,0
364,8,0,0,0,0,0,0,0,0,0,-1,1588,1016,0,0
371,8,0,0,0,0,0,0,0,0,0,-1,1595,1016,0,0
378,8,0,0,0,0,0,0,0,0,0,-1,1602,1016,0,0
385,8,0,0,0,0,0,0,0,0,0,-1,1609,1016,0,0
392,8,0,0,0,0,0,0,0,0,0,-1,1616,1016,0,0
399,8,0,0,0,0,0,0,0,0,0,-1,1623,1016,0,0
406,8,0,0,0,0,0,0,0,0,0,-1,1630,1016,0,0
413,8,0,0,0,0,0,0,0,0,0,-1,1637,1016,0,0
420,8,0,0,0,0,0,0,0,0,0,-1,1644,1016,0,0
427,8,0,0,0,0,0,0,0,0,0,-1,1651,1016,0,0
434,8,0,0,0,0,0,0,0,0,0,-1,1658,1016,0,0
441,8,0,0,0,0,0,0,0,0,0,-1,1665,1016,0,0
448,8,0,0,0,0,0,0,0,0,0,-1,1672,1016,0,0
455,8,0,0,0,0,0,0,0,0,0,-1,1679,1016,0,0
462,8,0,0,0,0,0,0,0,0,0,-1,1686,1016,0,0
469,8,0,0,0,0,0,0,0,0,0,-1,1693,1016,0,0
476,8,0,0,0,0,0,0,0,0,0,-1,1700,1016,0,0
483,8,0,0,0,0,0,0,0,0,0,-1,1707,1016,0,0
490,8,0,0,0,0,0,0,0,0,0,-1,1714,1016,0,0
497,8,0,0,0,0,0,0,0,0,0,-1,1721,1016,0,0
504,8,0,0,0,0,0,0,0,0,0,-1,1728,1016,0,0
511,8,0,0,0,0,0,0,0,0,0,-1,1735,1016,0,0
518,8,0,0,0,0,0,0,0,0,0,-1,1742,1016,0,0
525,8,0,0,0,0,0,0,0,0,0,-1,1749,1016,0,0
532,8,0,0,0,0,0,0,0,0,0,-1,1756,1016,0,0
539,8,0,0,0,0,0,0,0,0,0,-1,1763,1016,0,0
546,8,0,0,0,0,0,0,0,0,0,-1,1770,1016,0,0
553,8,0,0,0,0,0,0,0,0,0,-1,1777,1016,0,0
560,8,0,0,0,0,0,0,0,0,0,-1,1784,1016,0,0
567,8,0,0,0,0,0,0,0,0,0,-1,1791,1016,0,0
574,8,0,0,0,0,0,0,0,0,0,-1,1798,1016,0,0
581,8,0,0,0,0,0,0,0,0,0,-1,1805,1016,0,0
588,8,0,0,0,0,0,0,0,0,0,-1,1812,1016,0,0
595,8,0,0,0,0,0,0,0,0,0,-1,1819,1016,0,0
602,8,0,0,0,0,0,0,0,0,0,-1,1826,1016,0,0
609,8,0,0,0,0,0,0,0,0,0,-1,1833,1016,0,0
616,8,0,0,0,0,0,0,0,0,0,-1,1840,1016,0,0
623,8,0,0,0,0,0,0,0,0,0,-1,1847,1016,0,0
630,8,0,0,0,0,0,0,0,0,0,-1,1854,1016,0,0
637,8,0,0,0,0,0,0,0,0,0,-1,1861,1016,0,0
644,8,43.4502,2.92792,-0.00224478,0.00228433,-0.00240813,0.00332542,-0.00328587,-1.16274,0.00381705,0.0442289,1868,1016,43.4501,-2.92791
651,8,43.5483,2.88959,-0.00141002,0.00174593,-0.00243933,0.00307319,-0.00273727,-1.07249,0.00335654,0.0386481,1875,1016,43.5484,-2.8896
658,8,43.6045,2.70508,-0.000877841,0.00129837,-0.0021928,0.00265819,-0.00223766,-1.01571,0.00283009,0.0395886,1882,1016,43.6045,-2.7051
665,8,43.5791,2.6203,-0.000552995,0.000987747,-0.00170582,0.00208908,-0.00165433,-0.997496,0.00216611,0.0412687,1889,1016,43.5791,-2.62033
672,8,43.5151,2.80682,-0.000291228,0.00086806,-0.00101679,0.00145882,-0.000881992,-1.04446,0.00136508,0.0396606,1896,1016,43.5152,-2.80681
679,8,43.5769,2.63733,-0.000134629,0.00078867,-0.000228631,0.000842183,-0.000188142,-1.34088,0.000633551,0.036335,1903,1016,43.5769,-2.63732
686,8,43.5095,2.74078,-5.204e-05,0.000638182,0.000439779,0.000852095,-0.000265953,1.11808,0.000674426,0.0402489,1910,1016,43.5096,-2.74077
693,8,43.4305,2.74768,-1.60378e-06,0.000425631,0.000975962,0.00121108,-0.000787052,0.893139,0.00116225,0.0393369,1917,1016,43.4305,-2.74765
700,8,43.5254,2.76532,4.97184e-06,0.000337529,0.00126657,0.00144869,-0.00110619,0.850666,0.00147947,0.0307049,1924,1016,43.5254,-2.7653
707,8,43.5592,2.8382,-0.00019298,0.000423188,0.00136725,0.00151663,-0.00128642,0.896213,0.00162016,0.0266672,1931,1016,43.5592,-2.8382
714,8,43.5634,2.81354,-0.000699092,0.000739636,0.00143266,0.0016234,-0.00158285,1.01807,0.00185118,0.0332448,1938,1016,43.5633,-2.81353
721,8,43.6755,2.69818,0,0,0,0,0,0,0,-1,1945,1016,43.6756,-2.69821
728,8,43.219,5.48767,0,0,0,0,0,0,0,-1,1952,1016,43.219,-5.48768
735,8,43.179,5.5752,0,0,0,0,0,0,0,-1,1959,1016,43.1789,-5.5752
742,8,43.1968,5.79712,0,0,0,0,0,0,0,-1,1966,1016,43.1968,-5.7971
749,8,43.3413,5.742,-0.00376008,0.00368264,0.000110951,0.00368429,-0.00376173,1.55589,0.00429904,0.0350968,1973,1016,43.3413,-5.74203
756,8,43.2721,5.69653,-0.00418044,0.00414468,-0.000652499,0.00419551,-0.00423127,-1.49305,0.00486522,0.023105,1980,1016,43.2721,-5.69652
763,8,43.2583,5.77246,-0.00435719,0.0044959,-0.00149449,0.00474138,-0.00460267,-1.40799,0.00539499,0.0142614,1987,1016,43.2583,-5.77246
770,8,43.1594,5.7818,-0.0041002,0.00422239,-0.00267956,0.00501048,-0.00488829,-1.28475,0.0057152,0.0217207,1994,1016,43.1595,-5.78179
777,8,42.8315,5.80634,-0.00306788,0.00315722,-0.00410637,0.00519736,-0.00510802,-1.10969,0.00594989,0.0400151,2001,1016,42.8315,-5.80633
784,8,42.5171,5.79224,0,0,0,0,0,0,0,-1,2008,1016,42.517,-5.79222
791,8,42.2039,4.58173,0.00126094,-0.00192728,-0.00797571,0.00780029,-0.00846663,-0.686763,0.00939433,0.0482754,2015,1016,42.2039,-4.58175
798,8,42.2393,4.61993,0.00520763,-0.00640956,-0.0106213,0.0115049,-0.0127069,-0.535176,0.0139844,0.0463848,2022,1016,42.2392,-4.61995
805,8,42.397,4.50763,0.0107585,-0.0120535,-0.0140061,0.0174154,-0.0187104,-0.443679,0.0208617,0.0446364,2029,1016,42.3971,-4.50762
812,8,42.6074,4.40161,0,0,0,0,0,0,0,-1,2036,1016,42.6074,-4.40158
-700,1,0,0,0,0,0,0,0,0,0,-1,524,1023,0,0
-693,1,-32.6219,3.66486,0,0,0,0,0,0,0,-1,531,1023,-32.622,-3.66487
-686,1,-31.6538,3.88428,0,0,0,0,0,0,0,-1,538,1023,-31.6538,-3.88425
-679,1,-31.899,3.75092,-0.0356163,0.0245725,0.00936718,0.0259966,-0.0370405,1.41992,0.0365802,0.0478057,545,1023,-31.899,-3.75091
-672,1,-31.9561,3.46368,-0.0303332,0.0223674,0.00618483,0.0230835,-0.0310493,1.45553,0.0313662,0.0447821,552,1023,-31.9561,-3.46368
-665,1,-32.4963,2.19232,-0.0253083,0.0200051,0.00390361,0.0203389,-0.0256421,1.48549,0.0266059,0.0461746,559,1023,-32.4963,-2.19234
-658,1,-32.34,2.51227,-0.0206612,0.0175315,0.00232621,0.0176726,-0.0208024,1.51019,0.022238,0.0338198,566,1023,-32.3399,-2.51224
-651,1,-32.1954,2.79089,-0.0164642,0.0149553,0.00124046,0.0150042,-0.0165131,1.5314,0.0182035,0.0265668,573,1023,-32.1954,-2.79087
-644,1,-31.9691,2.96124,0,0,0,0,0,0,0,-1,580,1023,-31.9691,-2.96124
-637,1,-32.2045,2.8772,-0.00915668,0.0110643,-0.00121437,0.011137,-0.00922935,-1.51103,0.0117757,0.0320694,587,1023,-32.2045,-2.87721
-630,1,-32.442,2.92474,-0.00578497,0.00781273,-0.00316468,0.00851318,-0.00648542,-1.35297,0.00868579,0.0272934,594,1023,-32.442,-2.92477
-623,1,-32.3474,3.02948,-0.00304966,0.00588637,-0.00412258,0.00749774,-0.00466102,-1.19819,0.00708326,0.0148844,601,1023,-32.3473,-3.02946
-616,1,-32.4441,2.9549,-0.00134421,0.00475459,-0.00478816,0.00738192,-0.00397154,-1.06894,0.00665277,0.0184422,608,1023,-32.4441,-2.95489
-609,1,-32.4479,2.99847,-2.42835e-05,0.00372553,-0.00557568,0.0077331,-0.00403185,-0.947591,0.00690363,0.0202449,615,1023,-32.4479,-2.99845
-602,1,-32.3313,3.04449,0.000738307,0.00325478,-0.00635031,0.00847031,-0.00447722,-0.8832,0.00759283,0.0150251,622,1023,-32.3313,-3.04448
-595,1,-32.1913,3.03101,0,0,0,0,0,0,0,-1,629,1023,-32.1913,-3.03101
-588,1,-32.1827,2.1795,0,0,0,0,0,0,0,-1,636,1023,-32.1827,-2.17952
-581,1,-31.9481,1.03961,0.0026247,0.0012498,-0.00692125,0.00889255,-0.00501805,-0.735898,0.00813447,0.0270212,643,1023,-31.9481,-1.03962
-574,1,-31.9221,1.19696,0.00274857,0.000930592,-0.00637614,0.00828019,-0.00460103,-0.714595,0.00753741,0.0340204,650,1023,-31.9221,-1.19693
-567,1,-31.9841,1.18359,0.00257665,0.000777133,-0.00529677,0.00704954,-0.00369576,-0.701267,0.00630372,0.0407875,657,1023,-31.9841,-1.18361
-560,1,-31.8409,1.12152,0.00218931,0.000709311,-0.00371027,0.00523266,-0.00233404,-0.686966,0.00447421,0.0398158,664,1023,-31.841,-1.12151
-553,1,-31.5858,0.855896,0.00164521,0.000613811,-0.00172591,0.00293082,-0.000671802,-0.640221,0.00221209,0.0404426,671,1023,-31.5858,-0.855919
-546,1,-32.1583,1.14435,0.00112084,0.000315778,0.00055631,0.00140497,3.16407e-05,0.472213,0.000926282,0.0430407,678,1023,-32.1583,-1.14438
-539,1,-32.1022,1.16339,0.000832819,0.000153493,0.00240699,0.002924,-0.00193768,0.715303,0.00282608,0.0416339,685,1023,-32.1022,-1.16338
-532,1,-31.8307,1.22479,0.00124417,0.000920434,0.00209466,0.00318321,-0.0010186,0.746836,0.00253094,0.0436838,692,1023,-31.8307,-1.22476
-525,1,0,0,0,0,0,0,0,0,0,-1,699,1023,0,0
-518,1,0,0,0,0,0,0,0,0,0,-1,706,1023,0,0
-511,1,0,0,0,0,0,0,0,0,0,-1,713,1023,0,0
-504,1,0,0,0,0,0,0,0,0,0,-1,720,1023,0,0
-497,1,0,0,0,0,0,0,0,0,0,-1,727,1023,0,0
-490,1,0,0,0,0,0,0,0,0,0,-1,734,1023,0,0
-483,1,0,0,0,0,0,0,0,0,0,-1,741,1023,0,0
-476,1,0,0,0,0,0,0,0,0,0,-1,748,1023,0,0
-469,1,0,0,0,0,0,0,0,0,0,-1,755,1023,0,0
-462,1,0,0,0,0,0,0,0,0,0,-1,762,1023,0,0
-455,1,0,0,0,0,0,0,0,0,0,-1,769,1023,0,0
-448,1,0,0,0,0,0,0,0,0,0,-1,776,1023,0,0
-441,1,0,0,0,0,0,0,0,0,0,-1,783,1023,0,0
-434,1,0,0,0,0,0,0,0,0,0,-1,790,1023,0,0
-427,1,0,0,0,0,0,0,0,0,0,-1,797,1023,0,0
-420,1,0,0,0,0,0,0,0,0,0,-1,804,1023,0,0
-413,1,0,0,0,0,0,0,0,0,0,-1,811,1023,0,0
-406,1,0,0,0,0,0,0,0,0,0,-1,818,1023,0,0
-399,1,0,0,0,0,0,0,0,0,0,-1,825,1023,0,0
-392,1,0,0,0,0,0,0,0,0,0,-1,832,1023,0,0
-385,1,0,0,0,0,0,0,0,0,0,-1,839,1023,0,0
-378,1,0,0,0,0,0,0,0,0,0,-1,846,1023,0,0
-371,1,0,0,0,0,0,0,0,0,0,-1,853,1023,0,0
-364,1,0,0,0,0,0,0,0,0,0,-1,860,1023,0,0
-357,1,0,0,0,0,0,0,0,0,0,-1,867,1023,0,0
-350,1,0,0,0,0,0,0,0,0,0,-1,874,1023,0,0
-343,1,0,0,0,0,0,0,0,0,0,-1,881,1023,0,0
-336,1,0,0,0,0,0,0,0,0,0,-1,888,1023,0,0
-329,1,0,0,0,0,0,0,0,0,0,-1,895,1023,0,0
-322,1,0,0,0,0,0,0,0,0,0,-1,902,1023,0,0
-315,1,0,0,0,0,0,0,0,0,0,-1,909,1023,0,0
-308,1,0,0,0,0,0,0,0,0,0,-1,916,1023,0,0
-301,1,0,0,0,0,0,0,0,0,0,-1,923,1023,0,0
-294,1,0,0,0,0,0,0,0,0,0,-1,930,1023,0,0
-287,1,0,0,0,0,0,0,0,0,0,-1,937,1023,0,0
-280,1,0,0,0,0,0,0,0,0,0,-1,944,1023,0,0
-273,1,0,0,0,0,0,0,0,0,0,-1,951,1023,0,0
-266,1,0,0,0,0,0,0,0,0,0,-1,958,1023,0,0
-259,1,0,0,0,0,0,0,0,0,0,-1,965,1023,0,0
-252,1,0,0,0,0,0,0,0,0,0,-1,972,1023,0,0
-245,1,0,0,0,0,0,0,0,0,0,-1,979,1023,0,0
-238,1,0,0,0,0,0,0,0,0,0,-1,986,1023,0,0
-231,1,0,0,0,0,0,0,0,0,0,-1,993,1023,0,0
-224,1,0,0,0,0,0,0,0,0,0,-1,1000,1023,0,0
-217,1,0,0,0,0,0,0,0,0,0,-1,1007,1023,0,0
-210,1,0,0,0,0,0,0,0,0,0,-1,1014,1023,0,0
-203,1,0,0,0,0,0,0,0,0,0,-1,1021,1023,0,0
-196,1,0,0,0,0,0,0,0,0,0,-1,1028,1023,0,0
-189,1,0,0,0,0,0,0,0,0,0,-1,1035,1023,0,0
-182,1,0,0,0,0,0,0,0,0,0,-1,1042,1023,0,0
-175,1,0,0,0,0,0,0,0,0,0,-1,1049,1023,0,0
-168,1,0,0,0,0,0,0,0,0,0,-1,1056,1023,0,0
-161,1,0,0,0,0,0,0,0,0,0,-1,1063,1023,0,0
-154,1,0,0,0,0,0,0,0,0,0,-1,1070,1023,0,0
-147,1,0,0,0,0,0,0,0,0,0,-1,1077,1023,0,0
-140,1,0,0,0,0,0,0,0,0,0,-1,1084,1023,0,0
-133,1,0,0,0,0,0,0,0,0,0,-1,1091,1023,0,0
-126,1,0,0,0,0,0,0,0,0,0,-1,1098,1023,0,0
-119,1,0,0,0,0,0,0,0,0,0,-1,1105,1023,0,0
-112,1,0,0,0,0,0,0,0,0,0,-1,1112,1023,0,0
-105,1,0,0,0,0,0,0,0,0,0,-1,1119,1023,0,0
-98,1,0,0,0,0,0,0,0,0,0,-1,1126,1023,0,0
-91,1,0,0,0,0,0,0,0,0,0,-1,1133,1023,0,0
-84,1,0,0,0,0,0,0,0,0,0,-1,1140,1023,0,0
-77,1,0,0,0,0,0,0,0,0,0,-1,1147,1023,0,0
-70,1,0,0,0,0,0,0,0,0,0,-1,1154,1023,0,0
-63,1,0,0,0,0,0,0,0,0,0,-1,1161,1023,0,0
-56,1,0,0,0,0,0,0,0,0,0,-1,1168,1023,0,0
-49,1,0,0,0,0,0,0,0,0,0,-1,1175,1023,0,0
-42,1,0,0,0,0,0,0,0,0,0,-1,1182,1023,0,0
-35,1,0,0,0,0,0,0,0,0,0,-1,1189,1023,0,0
-28,1,0,0,0,0,0,0,0,0,0,-1,1196,1023,0,0
-21,1,0,0,0,0,0,0,0,0,0,-1,1203,1023,0,0
-14,1,0,0,0,0,0,0,0,0,0,-1,1210,1023,0,0
-7,1,0,0,0,0,0,0,0,0,0,-1,1217,1023,0,0
0,1,0,0,0,0,0,0,0,0,0,-1,1224,1023,0,0
7,1,0,0,0,0,0,0,0,0,0,-1,1231,1023,0,0
14,1,0,0,0,0,0,0,0,0,0,-1,1238,1023,0,0
21,1,0,0,0,0,0,0,0,0,0,-1,1245,1023,0,0
28,1,0,0,0,0,0,0,0,0,0,-1,1252,1023,0,0
35,1,0,0,0,0,0,0,0,0,0,-1,1259,1023,0,0
42,1,0,0,0,0,0,0,0,0,0,-1,1266,1023,0,0
49,1,0,0,0,0,0,0,0,0,0,-1,1273,1023,0,0
56,1,0,0,0,0,0,0,0,0,0,-1,1280,1023,0,0
63,1,0,0,0,0,0,0,0,0,0,-1,1287,1023,0,0
70,1,0,0,0,0,0,0,0,0,0,-1,1294,1023,0,0
77,1,0,0,0,0,0,0,0,0,0,-1,1301,1023,0,0
84,1,0,0,0,0,0,0,0,0,0,-1,1308,1023,0,0
91,1,0,0,0,0,0,0,0,0,0,-1,1315,1023,0,0
98,1,0,0,0,0,0,0,0,0,0,-1,1322,1023,0,0
105,1,0,0,0,0,0,0,0,0,0,-1,1329,1023,0,0
112,1,0,0,0,0,0,0,0,0,0,-1,1336,1023,0,0
119,1,0,0,0,0,0,0,0,0,0,-1,1343,1023,0,0
126,1,0,0,0,0,0,0,0,0,0,-1,1350,1023,0,0
133,1,0,0,0,0,0,0,0,0,0,-1,1357,1023,0,0
140,1,0,0,0,0,0,0,0,0,0,-1,1364,1023,0,0
147,1,0,0,0,0,0,0,0,0,0,-1,1371,1023,0,0
154,1,0,0,0,0,0,0,0,0,0,-1,1378,1023,0,0
161,1,0,0,0,0,0,0,0,0,0,-1,1385,1023,0,0
168,1,0,0,0,0,0,0,0,0,0,-1,1392,1023,0,0
175,1,0,0,0,0,0,0,0,0,0,-1,1399,1023,0,0
182,1,0,0,0,0,0,0,0,0,0,-1,1406,1023,0,0
189,1,0,0,0,0,0,0,0,0,0,-1,1413,1023,0,0
196,1,0,0,0,0,0,0,0,0,0,-1,1420,1023,0,0
203,1,0,0,0,0,0,0,0,0,0,-1,1427,1023,0,0
210,1,0,0,0,0,0,0,0,0,0,-1,1434,1023,0,0
217,1,0,0,0,0,0,0,0,0,0,-1,1441,1023,0,0
224,1,0,0,0,0,0,0,0,0,0,-1,1448,1023,0,0
231,1,0,0,0,0,0,0,0,0,0,-1,1455,1023,0,0
238,1,0,0,0,0,0,0,0,0,0,-1,1462,1023,0,0
245,1,0,0,0,0,0,0,0,0,0,-1,1469,1023,0,0
252,1,0,0,0,0,0,0,0,0,0,-1,1476,1023,0,0
259,1,0,0,0,0,0,0,0,0,0,-1,1483,1023,0,0
266,1,0,0,0,0,0,0,0,0,0,-1,1490,1023,0,0
273,1,0,0,0,0,0,0,0,0,0,-1,1497,1023,0,0
280,1,0,0,0,0,0,0,0,0,0,-1,1504,1023,0,0
287,1,0,0,0,0,0,0,0,0,0,-1,1511,1023,0,0
294,1,0,0,0,0,0,0,0,0,0,-1,1518,1023,0,0
301,1,0,0,0,0,0,0,0,0,0,-1,1525,1023,0,0
308,1,0,0,0,0,0,0,0,0,0,-1,1532,1023,0,0
315,1,0,0,0,0,0,0,0,0,0,-1,1539,1023,0,0
322,1,0,0,0,0,0,0,0,0,0,-1,1546,1023,0,0
329,1,0,0,0,0,0,0,0,0,0,-1,1553,1023,0,0
336,1,0,0,0,0,0,0,0,0,0,-1,1560,1023,0,0
343,1,0,0,0,0,0,0,0,0,0,-1,1567,1023,0,0
350,1,0,0,0,0,0,0,0,0,0,-1,1574,1023,0,0
357,1,0,0,0,0,0,0,0,0,0,-1,1581,1023,0,0
364,1,0,0,0,0,0,0,0,0,0,-1,1588,1023,0,0
371,1,0,0,0,0,0,0,0,0,0,-1,1595,1023,0,0
378,1,0,0,0,0,0,0,0,0,0,-1,1602,1023,0,0
385,1,0,0,0,0,0,0,0,0,0,-1,1609,1023,0,0
392,1,0,0,0,0,0,0,0,0,0,-1,1616,1023,0,0
399,1,0,0,0,0,0,0,0,0,0,-1,1623,1023,0,0
406,1,0,0,0,0,0,0,0,0,0,-1,1630,1023,0,0
413,1,0,0,0,0,0,0,0,0,0,-1,1637,1023,0,0
420,1,0,0,0,0,0,0,0,0,0,-1,1644,1023,0,0
427,1,0,0,0,0,0,0,0,0,0,-1,1651,1023,0,0
434,1,0,0,0,0,0,0,0,0,0,-1,1658,1023,0,0
441,1,0,0,0,0,0,0,0,0,0,-1,1665,1023,0,0
448,1,0,0,0,0,0,0,0,0,0,-1,1672,1023,0,0
455,1,0,0,0,0,0,0,0,0,0,-1,1679,1023,0,0
462,1,0,0,0,0,0,0,0,0,0,-1,1686,1023,0,0
469,1,0,0,0,0,0,0,0,0,0,-1,1693,1023,0,0
476,1,0,0,0,0,0,0,0,0,0,-1,1700,1023,0,0
483,1,0,0,0,0,0,0,0,0,0,-1,1707,1023,0,0
490,1,0,0,0,0,0,0,0,0,0,-1,1714,1023,0,0
497,1,0,0,0,0,0,0,0,0,0,-1,1721,1023,0,0
504,1,0,0,0,0,0,0,0,0,0,-1,1728,1023,0,0
511,1,0,0,0,0,0,0,0,0,0,-1,1735,1023,0,0
518,1,0,0,0,0,0,0,0,0,0,-1,1742,1023,0,0
525,1,0,0,0,0,0,0,0,0,0,-1,1749,1023,0,0
532,1,0,0,0,0,0,0,0,0,0,-1,1756,1023,0,0
539,1,0,0,0,0,0,0,0,0,0,-1,1763,1023,0,0
546,1,0,0,0,0,0,0,0,0,0,-1,1770,1023,0,0
553,1,0,0,0,0,0,0,0,0,0,-1,1777,1023,0,0
560,1,0,0,0,0,0,0,0,0,0,-1,1784,1023,0,0
567,1,0,0,0,0,0,0,0,0,0,-1,1791,1023,0,0
574,1,0,0,0,0,0,0,0,0,0,-1,1798,1023,0,0
581,1,0,0,0,0,0,0,0,0,0,-1,1805,1023,0,0
588,1,0,0,0,0,0,0,0,0,0,-1,1812,1023,0,0
595,1,0,0,0,0,0,0,0,0,0,-1,1819,1023,0,0
602,1,0,0,0,0,0,0,0,0,0,-1,1826,1023,0,0
609,1,0,0,0,0,0,0,0,0,0,-1,1833,1023,0,0
616,1,0,0,0,0,0,0,0,0,0,-1,1840,1023,0,0
623,1,0,0,0,0,0,0,0,0,0,-1,1847,1023,0,0
630,1,0,0,0,0,0,0,0,0,0,-1,1854,1023,0,0
637,1,0,0,0,0,0,0,0,0,0,-1,1861,1023,0,0
644,1,0,0,0,0,0,0,0,0,0,-1,1868,1023,0,0
651,1,43.6545,2.68414,-0.00222771,0.00140691,-0.00170405,0.00208087,-0.00290167,-1.19417,0.00288965,0.0392212,1875,1023,43.6546,-2.68417
658,1,43.6324,2.71747,-0.00159285,0.000807093,-0.00165626,0.00165239,-0.00243815,-1.09889,0.00237615,0.0409809,1882,1023,43.6325,-2.7175
665,1,43.5377,2.77802,-0.00118531,0.000421472,-0.00133223,0.0011738,-0.00193764,-1.05673,0.00181434,0.0406047,1889,1023,43.5377,-2.77802
672,1,43.5547,2.79987,-0.000843282,0.000270716,-0.000787018,0.000677899,-0.00125046,-1.09335,0.00112958,0.0386095,1896,1023,43.5547,-2.79984
679,1,43.5404,2.6239,-0.000596536,0.000198576,-0.000117969,0.00021571,-0.00061367,-1.42657,0.000496877,0.0361874,1903,1023,43.5404,-2.6239
686,1,43.4664,2.72009,-0.000471588,7.69635e-05,0.000472797,0.000349281,-0.000743905,1.04823,0.000644713,0.0370392,1910,1023,43.4664,-2.72011
693,1,43.5198,2.7937,-0.000381921,-8.74878e-05,0.000976607,0.000752936,-0.00122234,0.860206,0.00115111,0.0360635,1917,1023,43.5198,-2.79371
700,1,43.5585,2.84833,-0.000326572,-0.000129649,0.00126079,0.00103652,-0.00149274,0.824367,0.00146816,0.0315449,1924,1023,43.5585,-2.8483
707,1,43.5481,2.78711,-0.000474308,-1.92305e-05,0.00136629,0.00113833,-0.00163187,0.86791,0.00160782,0.0280988,1931,1023,43.5482,-2.7871
714,1,43.5117,2.75952,-0.000916637,0.000340818,0.00145808,0.00129995,-0.00187577,0.988954,0.00184352,0.0316254,1938,1023,43.5117,-2.75951
721,1,43.6444,2.78656,0,0,0,0,0,0,0,-1,1945,1023,43.6445,-2.78657
728,1,43.1356,5.77832,0,0,0,0,0,0,0,-1,1952,1023,43.1356,-5.77834
735,1,43.136,5.69171,-0.00272056,0.00269634,0.00137314,0.00302454,-0.00304875,1.33619,0.00350642,0.0343618,1959,1023,43.136,-5.69173
742,1,43.2705,5.67993,-0.00346042,0.00302203,0.000978627,0.00316655,-0.00360494,1.42418,0.00391225,0.0420116,1966,1023,43.2706,-5.67996
749,1,43.2754,5.7334,-0.00420298,0.0036199,0.000540061,0.00365701,-0.00424008,1.50219,0.00456353,0.0391952,1973,1023,43.2754,-5.73342
756,1,43.3132,5.74792,-0.00482922,0.00403863,-4.5171e-05,0.00403886,-0.00482945,-1.5657,0.0051269,0.0223799,1980,1023,43.3132,-5.74792
763,1,43.2454,5.70605,-0.00552574,0.00460343,-0.000715824,0.00465377,-0.00557608,-1.50059,0.0059142,0.0143575,1987,1023,43.2453,-5.70607
770,1,43.2189,5.68933,-0.00596458,0.00458612,-0.00162186,0.00482981,-0.00620826,-1.42166,0.00638938,0.0178683,1994,1023,43.2189,-5.68936
777,1,42.9672,5.61969,-0.00594197,0.0038796,-0.00272206,0.00458356,-0.00664594,-1.31773,0.0065197,0.0270144,2001,1023,42.9671,-5.61968
784,1,42.9219,5.4975,-0.00553151,0.00245756,-0.00408402,0.00417578,-0.00724973,-1.17256,0.00667563,0.0469961,2008,1023,42.9218,-5.49751
791,1,42.8076,5.19727,-0.00458816,-1.70718e-05,-0.00591138,0.00403521,-0.00864045,-0.969864,0.00747756,0.0442184,2015,1023,42.8077,-5.19728
798,1,42.7629,5.14038,-0.00284255,-0.00358588,-0.00827579,0.00506991,-0.0114983,-0.762958,0.00980276,0.0474794,2022,1023,42.7631,-5.14037
805,1,42.9272,5.0625,0,0,0,0,0,0,0,-1,2029,1023,42.9271,-5.0625
812,1,43.4617,4.5083,0,0,0,0,0,0,0,-1,2036,1023,43.4617,-4.50827
-700,-6,0,0,0,0,0,0,0,0,0,-1,524,1030,0,0
-693,-6,-31.0445,3.97046,0,0,0,0,0,0,0,-1,531,1030,-31.0445,-3.97045
-686,-6,-31.2343,3.80078,0,0,0,0,0,0,0,-1,538,1030,-31.2343,-3.80079
-679,-6,-31.42,3.59521,-0.0306731,0.0277647,0.00879191,0.0290588,-0.0319671,1.42466,0.0352467,0.0475057,545,1030,-31.42,-3.59523
-672,-6,-31.5716,3.40002,-0.0263821,0.0247341,0.00593347,0.0254138,-0.0270619,1.45674,0.0303018,0.0471427,552,1030,-31.5716,-3.40004
-665,-6,-31.7427,3.25476,-0.0221787,0.0216263,0.00380307,0.021954,-0.0225064,1.48484,0.0256699,0.0454496,559,1030,-31.7427,-3.25481
-658,-6,-32.2714,2.77832,-0.0182045,0.0185407,0.00227663,0.0186813,-0.018345,1.50915,0.0213774,0.038353,566,1030,-32.2714,-2.77833
-651,-6,-32.2019,2.7168,-0.0145628,0.0154983,0.00118336,0.0155448,-0.0146093,1.53151,0.0174123,0.0405011,573,1030,-32.2019,-2.71676
-644,-6,-32.0082,3.04272,0,0,0,0,0,0,0,-1,580,1030,-32.0082,-3.04269
-637,-6,-32.1982,2.95581,-0.00819964,0.0110381,-0.00115362,0.011107,-0.00826857,-1.51111,0.0112264,0.0364714,587,1030,-32.1982,-2.95578
-630,-6,-32.3103,2.89514,-0.0051226,0.00741794,-0.00314337,0.00816174,-0.00586639,-1.33845,0.0081352,0.0203799,594,1030,-32.3103,-2.89515
-623,-6,-32.3096,2.94507,-0.00264149,0.00532357,-0.00413865,0.00708465,-0.00440256,-1.16849,0.00669213,0.0161674,601,1030,-32.3096,-2.94507
-616,-6,-32.3521,2.96216,-0.00115075,0.00424498,-0.00469077,0.00695838,-0.00386416,-1.04637,0.00633295,0.0187156,608,1030,-32.3521,-2.96217
-609,-6,-32.3236,3.03687,1.87498e-05,0.00336986,-0.00528475,0.00723832,-0.0038497,-0.938913,0.00650056,0.0193209,615,1030,-32.3236,-3.03684
-602,-6,-32.2746,3.11731,0.000646025,0.00289898,-0.00595255,0.0078307,-0.00428569,-0.878914,0.00709451,0.0131852,622,1030,-32.2746,-3.11737
-595,-6,-32.1237,3.07825,0,0,0,0,0,0,0,-1,629,1030,-32.1237,-3.07826
-588,-6,-32.0532,1.94775,0.00175716,0.00151361,-0.0064067,0.00804324,-0.00477247,-0.775896,0.00747905,0.0256565,636,1030,-32.0532,-1.94775
-581,-6,-31.9821,1.02686,0.00225085,0.00113011,-0.00622482,0.00794047,-0.00455951,-0.740508,0.00730433,0.0219514,643,1030,-31.9821,-1.02689
-574,-6,-31.9636,1.11133,0.00235738,0.000969625,-0.00567136,0.00737715,-0.00405015,-0.724527,0.00669011,0.0325504,650,1030,-31.9636,-1.11137
-567,-6,-31.9933,0.984985,0.00217582,0.00100358,-0.00462345,0.00625015,-0.00307075,-0.722349,0.00548479,0.0426847,657,1030,-31.9934,-0.985006
-560,-6,-31.898,0.698242,0.00178177,0.001158,-0.00309396,0.00457952,-0.00163975,-0.735165,0.00372201,0.0409415,664,1030,-31.898,-0.698293
-553,-6,-31.8325,0.736572,0.00124619,0.0013021,-0.00117363,0.0024481,0.000100181,-0.797306,0.00159972,0.0400105,671,1030,-31.8325,-0.736522
-546,-6,-31.991,1.07849,0.000737537,0.00123619,0.00105555,0.00207146,-9.77315e-05,0.901376,0.00141468,0.0429893,678,1030,-31.9909,-1.07848
-539,-6,-31.9488,1.31519,0.000445379,0.00123945,0.00288523,0.00375484,-0.00207001,0.853773,0.00340955,0.0423512,685,1030,-31.9488,-1.31518
-532,-6,-31.9828,1.47559,0.000817938,0.00207767,0.00264093,0.00416281,-0.0012672,0.902462,0.00328024,0.0448983,692,1030,-31.9828,-1.47558
-525,-6,0,0,0,0,0,0,0,0,0,-1,699,1030,0,0
-518,-6,0,0,0,0,0,0,0,0,0,-1,706,1030,0,0
-511,-6,0,0,0,0,0,0,0,0,0,-1,713,1030,0,0
-504,-6,0,0,0,0,0,0,0,0,0,-1,720,1030,0,0
-497,-6,0,0,0,0,0,0,0,0,0,-1,727,1030,0,0
-490,-6,0,0,0,0,0,0,0,0,0,-1,734,1030,0,0
-483,-6,0,0,0,0,0,0,0,0,0,-1,741,1030,0,0
-476,-6,0,0,0,0,0,0,0,0,0,-1,748,1030,0,0
-469,-6,0,0,0,0,0,0,0,0,0,-1,755,1030,0,0
-462,-6,0,0,0,0,0,0,0,0,0,-1,762,1030,0,0
-455,-6,0,0,0,0,0,0,0,0,0,-1,769,1030,0,0
-448,-6,0,0,0,0,0,0,0,0,0,-1,776,1030,0,0
-441,-6,0,0,0,0,0,0,0,0,0,-1,783,1030,0,0
-434,-6,0,0,0,0,0,0,0,0,0,-1,790,1030,0,0
-427,-6,0,0,0,0,0,0,0,0,0,-1,797,1030,0,0
-420,-6,0,0,0,0,0,0,0,0,0,-1,804,1030,0,0
-413,-6,0,0,0,0,0,0,0,0,0,-1,811,1030,0,0
-406,-6,0,0,0,0,0,0,0,0,0,-1,818,1030,0,0
-399,-6,0,0,0,0,0,0,0,0,0,-1,825,1030,0,0
-392,-6,0,0,0,0,0,0,0,0,0,-1,832,1030,0,0
-385,-6,0,0,0,0,0,0,0,0,0,-1,839,1030,0,0
-378,-6,0,0,0,0,0,0,0,0,0,-1,846,1030,0,0
-371,-6,0,0,0,0,0,0,0,0,0,-1,853,1030,0,0
-364,-6,0,0,0,0,0,0,0,0,0,-1,860,1030,0,0
-357,-6,0,0,0,0,0,0,0,0,0,-1,867,1030,0,0
-350,-6,0,0,0,0,0,0,0,0,0,-1,874,1030,0,0
-343,-6,0,0,0,0,0,0,0,0,0,-1,881,1030,0,0
-336,-6,0,0,0,0,0,0,0,0,0,-1,888,1030,0,0
-329,-6,0,0,0,0,0,0,0,0,0,-1,895,1030,0,0
-322,-6,0,0,0,0,0,0,0,0,0,-1,902,1030,0,0
-315,-6,0,0,0,0,0,0,0,0,0,-1,909,1030,0,0
-308,-6,0,0,0,0,0,0,0,0,0,-1,916,1030,0,0
-301,-6,0,0,0,0,0,0,0,0,0,-1,923,1030,0,0
-294,-6,0,0,0,0,0,0,0,0,0,-1,930,1030,0,0
-287,-6,0,0,0,0,0,0,0,0,0,-1,937,1030,0,0
-280,-6,0,0,0,0,0,0,0,0,0,-1,944,1030,0,0
-273,-6,0,0,0,0,0,0,0,0,0,-1,951,1030,0,0
-266,-6,0,0,0,0,0,0,0,0,0,-1,958,1030,0,0
-259,-6,0,0,0,0,0,0,0,0,0,-1,965,1030,0,0
-252,-6,0,0,0,0,0,0,0,0,0,-1,972,1030,0,0
-245,-6,0,0,0,0,0,0,0,0,0,-1,979,1030,0,0
-238,-6,0,0,0,0,0,0,0,0,0,-1,986,1030,0,0
-231,-6,0,0,0,0,0,0,0,0,0,-1,993,1030,0,0
-224,-6,0,0,0,0,0,0,0,0,0,-1,1000,1030,0,0
-217,-6,0,0,0,0,0,0,0,0,0,-1,1007,1030,0,0
-210,-6,0,0,0,0,0,0,0,0,0,-1,1014,1030,0,0
-203,-6,0,0,0,0,0,0,0,0,0,-1,1021,1030,0,0
-196,-6,0,0,0,0,0,0,0,0,0,-1,1028,1030,0,0
-189,-6,0,0,0,0,0,0,0,0,0,-1,1035,1030,0,0
-182,-6,0,0,0,0,0,0,0,0,0,-1,1042,1030,0,0
-175,-6,0,0,0,0,0,0,0,0,0,-1,1049,1030,0,0
-168,-6,0,0,0,0,0,0,0,0,0,-1,1056,1030,0,0
-161,-6,0,0,0,0,0,0,0,0,0,-1,1063,1030,0,0
-154,-6,0,0,0,0,0,0,0,0,0,-1,1070,1030,0,0
-147,-6,0,0,0,0,0,0,0,0,0,-1,1077,1030,0,0
-140,-6,0,0,0,0,0,0,0,0,0,-1,1084,1030,0,0
-133,-6,0,0,0,0,0,0,0,0,0,-1,1091,1030,0,0
-126,-6,0,0,0,0,0,0,0,0,0,-1,1098,1030,0,0
-119,-6,0,0,0,0,0,0,0,0,0,-1,1105,1030,0,0
-112,-6,0,0,0,0,0,0,0,0,0,-1,1112,1030,0,0
-105,-6,0,0,0,0,0,0,0,0,0,-1,1119,1030,0,0
-98,-6,0,0,0,0,0,0,0,0,0,-1,1126,1030,0,0
-91,-6,0,0,0,0,0,0,0,0,0,-1,1133,1030,0,0
-84,-6,0,0,0,0,0,0,0,0,0,-1,1140,1030,0,0
-77,-6,0,0,0,0,0,0,0,0,0,-1,1147,1030,0,0
-70,-6,0,0,0,0,0,0,0,0,0,-1,1154,1030,0,0
-63,-6,0,0,0,0,0,0,0,0,0,-1,1161,1030,0,0
-56,-6,0,0,0,0,0,0,0,0,0,-1,1168,1030,0,0
-49,-6,0,0,0,0,0,0,0,0,0,-1,1175,1030,0,0
-42,-6,0,0,0,0,0,0,0,0,0,-1,1182,1030,0,0
-35,-6,0,0,0,0,0,0,0,0,0,-1,1189,1030,0,0
-28,-6,0,0,0,0,0,0,0,0,0,-1,1196,1030,0,0
-21,-6,0,0,0,0,0,0,0,0,0,-1,1203,1030,0,0
-14,-6,0,0,0,0,0,0,0,0,0,-1,1210,1030,0,0
-7,-6,0,0,0,0,0,0,0,0,0,-1,1217,1030,0,0
0,-6,0,0,0,0,0,0,0,0,0,-1,1224,1030,0,0
7,-6,0,0,0,0,0,0,0,0,0,-1,1231,1030,0,0
14,-6,0,0,0,0,0,0,0,0,0,-1,1238,1030,0,0
21,-6,0,0,0,0,0,0,0,0,0,-1,1245,1030,0,0
28,-6,0,0,0,0,0,0,0,0,0,-1,1252,1030,0,0
35,-6,0,0,0,0,0,0,0,0,0,-1,1259,1030,0,0
42,-6,0,0,0,0,0,0,0,0,0,-1,1266,1030,0,0
49,-6,0,0,0,0,0,0,0,0,0,-1,1273,1030,0,0
56,-6,0,0,0,0,0,0,0,0,0,-1,1280,1030,0,0
63,-6,0,0,0,0,0,0,0,0,0,-1,1287,1030,0,0
70,-6,0,0,0,0,0,0,0,0,0,-1,1294,1030,0,0
77,-6,0,0,0,0,0,0,0,0,0,-1,1301,1030,0,0
84,-6,0,0,0,0,0,0,0,0,0,-1,1308,1030,0,0
91,-6,0,0,0,0,0,0,0,0,0,-1,1315,1030,0,0
98,-6,0,0,0,0,0,0,0,0,0,-1,1322,1030,0,0
105,-6,0,0,0,0,0,0,0,0,0,-1,1329,1030,0,0
112,-6,0,0,0,0,0,0,0,0,0,-1,1336,1030,0,0
119,-6,0,0,0,0,0,0,0,0,0,-1,1343,1030,0,0
126,-6,0,0,0,0,0,0,0,0,0,-1,1350,1030,0,0
133,-6,0,0,0,0,0,0,0,0,0,-1,1357,1030,0,0
140,-6,0,0,0,0,0,0,0,0,0,-1,1364,1030,0,0
147,-6,0,0,0,0,0,0,0,0,0,-1,1371,1030,0,0
154,-6,0,0,0,0,0,0,0,0,0,-1,1378,1030,0,0
161,-6,0,0,0,0,0,0,0,0,0,-1,1385,1030,0,0
168,-6,0,0,0,0,0,0,0,0,0,-1,1392,1030,0,0
175,-6,0,0,0,0,0,0,0,0,0,-1,1399,1030,0,0
182,-6,0,0,0,0,0,0,0,0,0,-1,1406,1030,0,0
189,-6,0,0,0,0,0,0,0,0,0,-1,1413,1030,0,0
196,-6,0,0,0,0,0,0,0,0,0,-1,1420,1030,0,0
203,-6,0,0,0,0,0,0,0,0,0,-1,1427,1030,0,0
210,-6,0,0,0,0,0,0,0,0,0,-1,1434,1030,0,0
217,-6,0,0,0,0,0,0,0,0,0,-1,1441,1030,0,0
224,-6,0,0,0,0,0,0,0,0,0,-1,1448,1030,0,0
231,-6,0,0,0,0,0,0,0,0,0,-1,1455,1030,0,0
238,-6,0,0,0,0,0,0,0,0,0,-1,1462,1030,0,0
245,-6,0,0,0,0,0,0,0,0,0,-1,1469,1030,0,0
252,-6,0,0,0,0,0,0,0,0,0,-1,1476,1030,0,0
259,-6,0,0,0,0,0,0,0,0,0,-1,1483,1030,0,0
266,-6,0,0,0,0,0,0,0,0,0,-1,1490,1030,0,0
273,-6,0,0,0,0,0,0,0,0,0,-1,1497,1030,0,0
280,-6,0,0,0,0,0,0,0,0,0,-1,1504,1030,0,0
287,-6,0,0,0,0,0,0,0,0,0,-1,1511,1030,0,0
294,-6,0,0,0,0,0,0,0,0,0,-1,1518,1030,0,0
301,-6,0,0,0,0,0,0,0,0,0,-1,1525,1030,0,0
308,-6,0,0,0,0,0,0,0,0,0,-1,1532,1030,0,0
315,-6,0,0,0,0,0,0,0,0,0,-1,1539,1030,0,0
322,-6,0,0,0,0,0,0,0,0,0,-1,1546,1030,0,0
329,-6,0,0,0,0,0,0,0,0,0,-1,1553,1030,0,0
336,-6,0,0,0,0,0,0,0,0,0,-1,1560,1030,0,0
343,-6,0,0,0,0,0,0,0,0,0,-1,1567,1030,0,0
350,-6,0,0,0,0,0,0,0,0,0,-1,1574,1030,0,0
357,-6,0,0,0,0,0,0,0,0,0,-1,1581,1030,0,0
364,-6,0,0,0,0,0,0,0,0,0,-1,1588,1030,0,0
371,-6,0,0,0,0,0,0,0,0,0,-1,1595,1030,0,0
378,-6,0,0,0,0,0,0,0,0,0,-1,1602,1030,0,0
385,-6,0,0,0,0,0,0,0,0,0,-1,1609,1030,0,0
392,-6,0,0,0,0,0,0,0,0,0,-1,1616,1030,0,0
399,-6,0,0,0,0,0,0,0,0,0,-1,1623,1030,0,0
406,-6,0,0,0,0,0,0,0,0,0,-1,1630,1030,0,0
413,-6,0,0,0,0,0,0,0,0,0,-1,1637,1030,0,0
420,-6,0,0,0,0,0,0,0,0,0,-1,1644,1030,0,0
427,-6,0,0,0,0,0,0,0,0,0,-1,1651,1030,0,0
434,-6,0,0,0,0,0,0,0,0,0,-1,1658,1030,0,0
441,-6,0,0,0,0,0,0,0,0,0,-1,1665,1030,0,0
448,-6,0,0,0,0,0,0,0,0,0,-1,1672,1030,0,0
455,-6,0,0,0,0,0,0,0,0,0,-1,1679,1030,0,0
462,-6,0,0,0,0,0,0,0,0,0,-1,1686,1030,0,0
469,-6,0,0,0,0,0,0,0,0,0,-1,1693,1030,0,0
476,-6,0,0,0,0,0,0,0,0,0,-1,1700,1030,0,0
483,-6,0,0,0,0,0,0,0,0,0,-1,1707,1030,0,0
490,-6,0,0,0,0,0,0,0,0,0,-1,1714,1030,0,0
497,-6,0,0,0,0,0,0,0,0,0,-1,1721,1030,0,0
504,-6,0,0,0,0,0,0,0,0,0,-1,1728,1030,0,0
511,-6,0,0,0,0,0,0,0,0,0,-1,1735,1030,0,0
518,-6,0,0,0,0,0,0,0,0,0,-1,1742,1030,0,0
525,-6,0,0,0,0,0,0,0,0,0,-1,1749,1030,0,0
532,-6,0,0,0,0,0,0,0,0,0,-1,1756,1030,0,0
539,-6,0,0,0,0,0,0,0,0,0,-1,1763,1030,0,0
546,-6,0,0,0,0,0,0,0,0,0,-1,1770,1030,0,0
553,-6,0,0,0,0,0,0,0,0,0,-1,1777,1030,0,0
560,-6,0,0,0,0,0,0,0,0,0,-1,1784,1030,0,0
567,-6,0,0,0,0,0,0,0,0,0,-1,1791,1030,0,0
574,-6,0,0,0,0,0,0,0,0,0,-1,1798,1030,0,0
581,-6,0,0,0,0,0,0,0,0,0,-1,1805,1030,0,0
588,-6,0,0,0,0,0,0,0,0,0,-1,1812,1030,0,0
595,-6,0,0,0,0,0,0,0,0,0,-1,1819,1030,0,0
602,-6,0,0,0,0,0,0,0,0,0,-1,1826,1030,0,0
609,-6,0,0,0,0,0,0,0,0,0,-1,1833,1030,0,0
616,-6,0,0,0,0,0,0,0,0,0,-1,1840,1030,0,0
623,-6,0,0,0,0,0,0,0,0,0,-1,1847,1030,0,0
630,-6,0,0,0,0,0,0,0,0,0,-1,1854,1030,0,0
637,-6,0,0,0,0,0,0,0,0,0,-1,1861,1030,0,0
644,-6,0,0,0,0,0,0,0,0,0,-1,1868,1030,0,0
651,-6,43.7886,2.74121,-0.00261437,0.00123803,-0.000680778,0.00135479,-0.00273114,-1.40093,0.00240321,0.0372733,1875,1030,43.7886,-2.74123
658,-6,43.6731,2.77087,-0.00201944,0.000570119,-0.000926361,0.000867382,-0.00231671,-1.26028,0.00190075,0.0399553,1882,1030,43.6731,-2.7709
665,-6,43.6152,2.77002,-0.00161663,0.00011682,-0.000845655,0.000461023,-0.00196083,-1.18425,0.00148494,0.0406597,1889,1030,43.6152,-2.76999
672,-6,43.6967,2.82385,-0.00125035,-0.000102955,-0.000501932,8.56228e-05,-0.00143893,-1.21141,0.000989062,0.0391874,1896,1030,43.6966,-2.82381
679,-6,43.5248,2.72974,-0.000947465,-0.000234767,-3.25649e-06,-0.000234753,-0.00094748,-1.56623,0.000569757,0.0387483,1903,1030,43.5248,-2.72978
686,-6,43.4241,2.66626,-0.000793329,-0.000397219,0.000479781,-7.62212e-05,-0.00111433,0.981145,0.000718826,0.0365202,1910,1030,43.4241,-2.66625
693,-6,43.5859,2.6947,-0.000671605,-0.000570824,0.000931125,0.000311273,-0.0015537,0.812431,0.00115364,0.0353752,1917,1030,43.586,-2.69469
700,-6,43.6102,2.83606,-0.000584209,-0.000601162,0.00121092,0.000618262,-0.00180363,0.781898,0.00145304,0.0325133,1924,1030,43.6102,-2.83611
707,-6,43.5178,2.79395,-0.000703261,-0.000484793,0.00132055,0.00073103,-0.00191908,0.826664,0.00158046,0.0316919,1931,1030,43.5179,-2.7939
714,-6,43.5187,2.56531,-0.00108219,-0.000115436,0.00143824,0.000918479,-0.00211611,0.947513,0.00179692,0.0422053,1938,1030,43.5187,-2.56526
721,-6,43.6625,2.39575,0,0,0,0,0,0,0,-1,1945,1030,43.6625,-2.39574
728,-6,43.0704,5.71167,0,0,0,0,0,0,0,-1,1952,1030,43.0705,-5.71161
735,-6,43.1611,5.64648,-0.00284137,0.00228669,0.00146126,0.00267385,-0.00322853,1.3118,0.00341275,0.0327303,1959,1030,43.1612,-5.64647
742,-6,43.2933,5.64172,-0.00359417,0.00278268,0.00112172,0.00297424,-0.00378573,1.40165,0.00391223,0.0313807,1966,1030,43.2934,-5.64178
749,-6,43.2771,5.73743,-0.00434852,0.00353066,0.000843063,0.00361986,-0.00443772,1.46539,0.00466003,0.0256016,1973,1030,43.2771,-5.73746
756,-6,43.3055,5.6593,-0.00503727,0.00398566,0.000368875,0.00400072,-0.00505233,1.53001,0.00523852,0.0184368,1980,1030,43.3056,-5.65934
763,-6,43.2069,5.5885,-0.00588647,0.00475718,-0.000167644,0.00475982,-0.00588911,-1.55505,0.00615968,0.0177524,1987,1030,43.2069,-5.58849
770,-6,43.1527,5.5542,-0.00657125,0.00501458,-0.000881443,0.00508126,-0.00663793,-1.4953,0.00678594,0.0158856,1994,1030,43.1526,-5.55416
777,-6,43.0963,5.54004,-0.00693301,0.00466277,-0.00171395,0.00491081,-0.00718104,-1.42708,0.00702213,0.0190159,2001,1030,43.0963,-5.53999
784,-6,43.1104,5.44031,-0.00700031,0.0036576,-0.00276035,0.00433009,-0.00767279,-1.33183,0.00701887,0.0444402,2008,1030,43.1105,-5.44025
791,-6,43.1646,5.33118,0,0,0,0,0,0,0,-1,2015,1030,43.1645,-5.33115
798,-6,43.1926,6.23572,0,0,0,0,0,0,0,-1,2022,1030,43.1927,-6.23569
805,-6,43.8562,4.65906,-0.00414339,-0.00498437,-0.00870465,0.00415093,-0.0132787,-0.761264,0.0105129,0.0469831,2029,1030,43.8563,-4.65911
812,-6,43.5039,4.26514,0,0,0,0,0,0,0,-1,2036,1030,43.5039,-4.26514
-700,-13,0,0,0,0,0,0,0,0,0,-1,524,1037,0,0
-693,-13,-30.343,3.39819,0,0,0,0,0,0,0,-1,531,1037,-30.343,-3.39819
-686,-13,-30.8147,3.71729,0,0,0,0,0,0,0,-1,538,1037,-30.8147,-3.71734
-679,-13,-30.9406,3.49719,0,0,0,0,0,0,0,-1,545,1037,-30.9405,-3.49715
-672,-13,-31.3276,3.28442,0,0,0,0,0,0,0,-1,552,1037,-31.3276,-3.28448
-665,-13,-31.5222,3.20325,-0.019495,0.0233017,0.00493312,0.023863,-0.0200563,1.45751,0.0253886,0.0452116,559,1037,-31.5222,-3.20324
-658,-13,-31.6823,3.20532,-0.0161092,0.0196423,0.00321627,0.0199293,-0.0163962,1.48179,0.0210056,0.0455788,566,1037,-31.6823,-3.20537
-651,-13,-31.9023,2.77295,-0.0129527,0.016147,0.00190006,0.0162706,-0.0130763,1.50587,0.0169768,0.0421295,573,1037,-31.9023,-2.7729
-644,-13,-31.9883,2.62415,-0.0104199,0.0136076,0.0010231,0.0136511,-0.0104634,1.52832,0.013963,0.0337202,580,1037,-31.9883,-2.62409
-637,-13,-32.0767,2.74133,-0.00745753,0.0110629,-0.000620258,0.0110836,-0.00747828,-1.53736,0.0107839,0.0241269,587,1037,-32.0767,-2.74136
-630,-13,-32.1917,2.77698,-0.00462614,0.00709632,-0.0027181,0.0076959,-0.00522572,-1.35368,0.0075056,0.014818,594,1037,-32.1916,-2.77697
-623,-13,-32.2241,2.89929,-0.00239766,0.00482194,-0.00386766,0.00650265,-0.00407837,-1.16086,0.00616217,0.0133255,601,1037,-32.2241,-2.89935
-616,-13,-32.2086,2.99731,-0.00110618,0.0037685,-0.004405,0.00636551,-0.00370319,-1.03809,0.00588051,0.0136101,608,1037,-32.2086,-2.99727
-609,-13,-32.1606,3.05859,-5.30709e-05,0.00301991,-0.00487989,0.00659948,-0.00363264,-0.937916,0.00598972,0.0188705,615,1037,-32.1607,-3.05864
-602,-13,-32.1722,3.15063,0.000483802,0.00255084,-0.00548337,0.00709724,-0.0040626,-0.878547,0.00652206,0.0126933,622,1037,-32.1722,-3.15065
-595,-13,-31.8598,3.34241,0,0,0,0,0,0,0,-1,629,1037,-31.8598,-3.34244
-588,-13,-31.8516,1.8429,0.00140841,0.00131389,-0.00578728,0.00714862,-0.00442632,-0.781316,0.00674412,0.0261459,636,1037,-31.8516,-1.84294
-581,-13,-31.9604,0.94458,0.0018345,0.00105518,-0.00556241,0.00702087,-0.0041312,-0.750429,0.0065103,0.0154248,643,1037,-31.9605,-0.944538
-574,-13,-31.9439,0.945435,0.00192486,0.00106155,-0.00503235,0.00654404,-0.00355763,-0.742615,0.00591654,0.0340563,650,1037,-31.9439,-0.945494
-567,-13,-32.1201,0.787964,0.00174489,0.00128651,-0.00405248,0.00557466,-0.00254326,-0.75715,0.00479457,0.0437574,657,1037,-32.1201,-0.787912
-560,-13,-32.0704,0.838135,0.00136587,0.00168319,-0.0026208,0.00415013,-0.00110107,-0.815631,0.0031976,0.0442197,664,1037,-32.0704,-0.83812
-553,-13,-31.9115,0.933594,0.000869119,0.00211787,-0.000803381,0.00251097,0.000476014,-1.11573,0.00154003,0.0434519,671,1037,-31.9115,-0.93361
-546,-13,-31.9131,1.04248,0.000406906,0.00238888,0.00134823,0.00307114,-0.000275358,1.10232,0.00214511,0.0418123,678,1037,-31.9132,-1.04251
-539,-13,-31.9402,1.32446,0.000127591,0.00268969,0.00320006,0.00485559,-0.00203831,0.97579,0.00408948,0.0421035,685,1037,-31.9402,-1.3245
-532,-13,-32.0215,1.34412,0.000413997,0.00374271,0.00316881,0.00565766,-0.00150095,1.02721,0.0043591,0.043959,692,1037,-32.0215,-1.34407
-525,-13,0,0,0,0,0,0,0,0,0,-1,699,1037,0,0
-518,-13,0,0,0,0,0,0,0,0,0,-1,706,1037,0,0
-511,-13,0,0,0,0,0,0,0,0,0,-1,713,1037,0,0
-504,-13,0,0,0,0,0,0,0,0,0,-1,720,1037,0,0
-497,-13,0,0,0,0,0,0,0,0,0,-1,727,1037,0,0
-490,-13,0,0,0,0,0,0,0,0,0,-1,734,1037,0,0
-483,-13,0,0,0,0,0,0,0,0,0,-1,741,1037,0,0
-476,-13,0,0,0,0,0,0,0,0,0,-1,748,1037,0,0
-469,-13,0,0,0,0,0,0,0,0,0,-1,755,1037,0,0
-462,-13,0,0,0,0,0,0,0,0,0,-1,762,1037,0,0
-455,-13,0,0,0,0,0,0,0,0,0,-1,769,1037,0,0
-448,-13,0,0,0,0,0,0,0,0,0,-1,776,1037,0,0
-441,-13,0,0,0,0,0,0,0,0,0,-1,783,1037,0,0
-434,-13,0,0,0,0,0,0,0,0,0,-1,790,1037,0,0
-427,-13,0,0,0,0,0,0,0,0,0,-1,797,1037,0,0
-420,-13,0,0,0,0,0,0,0,0,0,-1,804,1037,0,0
-413,-13,0,0,0,0,0,0,0,0,0,-1,811,1037,0,0
-406,-13,0,0,0,0,0,0,0,0,0,-1,818,1037,0,0
-399,-13,0,0,0,0,0,0,0,0,0,-1,825,1037,0,0
-392,-13,0,0,0,0,0,0,0,0,0,-1,832,1037,0,0
-385,-13,0,0,0,0,0,0,0,0,0,-1,839,1037,0,0
-378,-13,0,0,0,0,0,0,0,0,0,-1,846,1037,0,0
-371,-13,0,0,0,0,0,0,0,0,0,-1,853,1037,0,0
-364,-13,0,0,0,0,0,0,0,0,0,-1,860,1037,0,0
-357,-13,0,0,0,0,0,0,0,0,0,-1,867,1037,0,0
-350,-13,0,0,0,0,0,0,0,0,0,-1,874,1037,0,0
-343,-13,0,0,0,0,0,0,0,0,0,-1,881,1037,0,0
-336,-13,0,0,0,0,0,0,0,0,0,-1,888,1037,0,0
-329,-13,0,0,0,0,0,0,0,0,0,-1,895,1037,0,0
-322,-13,0,0,0,0,0,0,0,0,0,-1,902,1037,0,0
-315,-13,0,0,0,0,0,0,0,0,0,-1,909,1037,0,0
-308,-13,0,0,0,0,0,0,0,0,0,-1,916,1037,0,0
-301,-13,0,0,0,0,0,0,0,0,0,-1,923,1037,0,0
-294,-13,0,0,0,0,0,0,0,0,0,-1,930,1037,0,0
-287,-13,0,0,0,0,0,0,0,0,0,-1,937,1037,0,0
-280,-13,0,0,0,0,0,0,0,0,0,-1,944,1037,0,0
-273,-13,0,0,0,0,0,0,0,0,0,-1,951,1037,0,0
-266,-13,0,0,0,0,0,0,0,0,0,-1,958,1037,0,0
-259,-13,0,0,0,0,0,0,0,0,0,-1,965,1037,0,0
-252,-13,0,0,0,0,0,0,0,0,0,-1,972,1037,0,0
-245,-13,0,0,0,0,0,0,0,0,0,-1,979,1037,0,0
-238,-13,0,0,0,0,0,0,0,0,0,-1,986,1037,0,0
-231,-13,0,0,0,0,0,0,0,0,0,-1,993,1037,0,0
-224,-13,0,0,0,0,0,0,0,0,0,-1,1000,1037,0,0
-217,-13,0,0,0,0,0,0,0,0,0,-1,1007,1037,0,0
-210,-13,0,0,0,0,0,0,0,0,0,-1,1014,1037,0,0
-203,-13,0,0,0,0,0,0,0,0,0,-1,1021,1037,0,0
-196,-13,0,0,0,0,0,0,0,0,0,-1,1028,1037,0,0
-189,-13,0,0,0,0,0,0,0,0,0,-1,1035,1037,0,0
-182,-13,0,0,0,0,0,0,0,0,0,-1,1042,1037,0,0
-175,-13,0,0,0,0,0,0,0,0,0,-1,1049,1037,0,0
-168,-13,0,0,0,0,0,0,0,0,0,-1,1056,1037,0,0
-161,-13,0,0,0,0,0,0,0,0,0,-1,1063,1037,0,0
-154,-13,0,0,0,0,0,0,0,0,0,-1,1070,1037,0,0
-147,-13,0,0,0,0,0,0,0,0,0,-1,1077,1037,0,0
-140,-13,0,0,0,0,0,0,0,0,0,-1,1084,1037,0,0
-133,-13,0,0,0,0,0,0,0,0,0,-1,1091,1037,0,0
-126,-13,0,0,0,0,0,0,0,0,0,-1,1098,1037,0,0
-119,-13,0,0,0,0,0,0,0,0,0,-1,1105,1037,0,0
-112,-13,0,0,0,0,0,0,0,0,0,-1,1112,1037,0,0
-105,-13,0,0,0,0,0,0,0,0,0,-1,1119,1037,0,0
-98,-13,0,0,0,0,0,0,0,0,0,-1,1126,1037,0,0
-91,-13,0,0,0,0,0,0,0,0,0,-1,1133,1037,0,0
-84,-13,0,0,0,0,0,0,0,0,0,-1,1140,1037,0,0
-77,-13,0,0,0,0,0,0,0,0,0,-1,1147,1037,0,0
-70,-13,0,0,0,0,0,0,0,0,0,-1,1154,1037,0,0
-63,-13,0,0,0,0,0,0,0,0,0,-1,1161,1037,0,0
-56,-13,0,0,0,0,0,0,0,0,0,-1,1168,1037,0,0
-49,-13,0,0,0,0,0,0,0,0,0,-1,1175,1037,0,0
-42,-13,0,0,0,0,0,0,0,0,0,-1,1182,1037,0,0
-35,-13,0,0,0,0,0,0,0,0,0,-1,1189,1037,0,0
-28,-13,0,0,0,0,0,0,0,0,0,-1,1196,1037,0,0
-21,-13,0,0,0,0,0,0,0,0,0,-1,1203,1037,0,0
-14,-13,0,0,0,0,0,0,0,0,0,-1,1210,1037,0,0
-7,-13,0,0,0,0,0,0,0,0,0,-1,1217,1037,0,0
0,-13,0,0,0,0,0,0,0,0,0,-1,1224,1037,0,0
7,-13,0,0,0,0,0,0,0,0,0,-1,1231,1037,0,0
14,-13,0,0,0,0,0,0,0,0,0,-1,1238,1037,0,0
21,-13,0,0,0,0,0,0,0,0,0,-1,1245,1037,0,0
28,-13,0,0,0,0,0,0,0,0,0,-1,1252,1037,0,0
35,-13,0,0,0,0,0,0,0,0,0,-1,1259,1037,0,0
42,-13,0,0,0,0,0,0,0,0,0,-1,1266,1037,0,0
49,-13,0,0,0,0,0,0,0,0,0,-1,1273,1037,0,0
56,-13,0,0,0,0,0,0,0,0,0,-1,1280,1037,0,0
63,-13,0,0,0,0,0,0,0,0,0,-1,1287,1037,0,0
70,-13,0,0,0,0,0,0,0,0,0,-1,1294,1037,0,0
77,-13,0,0,0,0,0,0,0,0,0,-1,1301,1037,0,0
84,-13,0,0,0,0,0,0,0,0,0,-1,1308,1037,0,0
91,-13,0,0,0,0,0,0,0,0,0,-1,1315,1037,0,0
98,-13,0,0,0,0,0,0,0,0,0,-1,1322,1037,0,0
105,-13,0,0,0,0,0,0,0,0,0,-1,1329,1037,0,0
112,-13,0,0,0,0,0,0,0,0,0,-1,1336,1037,0,0
119,-13,0,0,0,0,0,0,0,0,0,-1,1343,1037,0,0
126,-13,0,0,0,0,0,0,0,0,0,-1,1350,1037,0,0
133,-13,0,0,0,0,0,0,0,0,0,-1,1357,1037,0,0
140,-13,0,0,0,0,0,0,0,0,0,-1,1364,1037,0,0
147,-13,0,0,0,0,0,0,0,0,0,-1,1371,1037,0,0
154,-13,0,0,0,0,0,0,0,0,0,-1,1378,1037,0,0
161,-13,0,0,0,0,0,0,0,0,0,-1,1385,1037,0,0
168,-13,0,0,0,0,0,0,0,0,0,-1,1392,1037,0,0
175,-13,0,0,0,0,0,0,0,0,0,-1,1399,1037,0,0
182,-13,0,0,0,0,0,0,0,0,0,-1,1406,1037,0,0
189,-13,0,0,0,0,0,0,0,0,0,-1,1413,1037,0,0
196,-13,0,0,0,0,0,0,0,0,0,-1,1420,1037,0,0
203,-13,0,0,0,0,0,0,0,0,0,-1,1427,1037,0,0
210,-13,0,0,0,0,0,0,0,0,0,-1,1434,1037,0,0
217,-13,0,0,0,0,0,0,0,0,0,-1,1441,1037,0,0
224,-13,0,0,0,0,0,0,0,0,0,-1,1448,1037,0,0
231,-13,0,0,0,0,0,0,0,0,0,-1,1455,1037,0,0
238,-13,0,0,0,0,0,0,0,0,0,-1,1462,1037,0,0
245,-13,0,0,0,0,0,0,0,0,0,-1,1469,1037,0,0
252,-13,0,0,0,0,0,0,0,0,0,-1,1476,1037,0,0
259,-13,0,0,0,0,0,0,0,0,0,-1,1483,1037,0,0
266,-13,0,0,0,0,0,0,0,0,0,-1,1490,1037,0,0
273,-13,0,0,0,0,0,0,0,0,0,-1,1497,1037,0,0
280,-13,0,0,0,0,0,0,0,0,0,-1,1504,1037,0,0
287,-13,0,0,0,0,0,0,0,0,0,-1,1511,1037,0,0
294,-13,0,0,0,0,0,0,0,0,0,-1,1518,1037,0,0
301,-13,0,0,0,0,0,0,0,0,0,-1,1525,1037,0,0
308,-13,0,0,0,0,0,0,0,0,0,-1,1532,1037,0,0
315,-13,0,0,0,0,0,0,0,0,0,-1,1539,1037,0,0
322,-13,0,0,0,0,0,0,0,0,0,-1,1546,1037,0,0
329,-13,0,0,0,0,0,0,0,0,0,-1,1553,1037,0,0
336,-13,0,0,0,0,0,0,0,0,0,-1,1560,1037,0,0
343,-13,0,0,0,0,0,0,0,0,0,-1,1567,1037,0,0
350,-13,0,0,0,0,0,0,0,0,0,-1,1574,1037,0,0
357,-13,0,0,0,0,0,0,0,0,0,-1,1581,1037,0,0
364,-13,0,0,0,0,0,0,0,0,0,-1,1588,1037,0,0
371,-13,0,0,0,0,0,0,0,0,0,-1,1595,1037,0,0
378,-13,0,0,0,0,0,0,0,0,0,-1,1602,1037,0,0
385,-13,0,0,0,0,0,0,0,0,0,-1,1609,1037,0,0
392,-13,0,0,0,0,0,0,0,0,0,-1,1616,1037,0,0
399,-13,0,0,0,0,0,0,0,0,0,-1,1623,1037,0,0
406,-13,0,0,0,0,0,0,0,0,0,-1,1630,1037,0,0
413,-13,0,0,0,0,0,0,0,0,0,-1,1637,1037,0,0
420,-13,0,0,0,0,0,0,0,0,0,-1,1644,1037,0,0
427,-13,0,0,0,0,0,0,0,0,0,-1,1651,1037,0,0
434,-13,0,0,0,0,0,0,0,0,0,-1,1658,1037,0,0
441,-13,0,0,0,0,0,0,0,0,0,-1,1665,1037,0,0
448,-13,0,0,0,0,0,0,0,0,0,-1,1672,1037,0,0
455,-13,0,0,0,0,0,0,0,0,0,-1,1679,1037,0,0
462,-13,0,0,0,0,0,0,0,0,0,-1,1686,1037,0,0
469,-13,0,0,0,0,0,0,0,0,0,-1,1693,1037,0,0
476,-13,0,0,0,0,0,0,0,0,0,-1,1700,1037,0,0
483,-13,0,0,0,0,0,0,0,0,0,-1,1707,1037,0,0
490,-13,0,0,0,0,0,0,0,0,0,-1,1714,1037,0,0
497,-13,0,0,0,0,0,0,0,0,0,-1,1721,1037,0,0
504,-13,0,0,0,0,0,0,0,0,0,-1,1728,1037,0,0
511,-13,0,0,0,0,0,0,0,0,0,-1,1735,1037,0,0
518,-13,0,0,0,0,0,0,0,0,0,-1,1742,1037,0,0
525,-13,0,0,0,0,0,0,0,0,0,-1,1749,1037,0,0
532,-13,0,0,0,0,0,0,0,0,0,-1,1756,1037,0,0
539,-13,0,0,0,0,0,0,0,0,0,-1,1763,1037,0,0
546,-13,0,0,0,0,0,0,0,0,0,-1,1770,1037,0,0
553,-13,0,0,0,0,0,0,0,0,0,-1,1777,1037,0,0
560,-13,0,0,0,0,0,0,0,0,0,-1,1784,1037,0,0
567,-13,0,0,0,0,0,0,0,0,0,-1,1791,1037,0,0
574,-13,0,0,0,0,0,0,0,0,0,-1,1798,1037,0,0
581,-13,0,0,0,0,0,0,0,0,0,-1,1805,1037,0,0
588,-13,0,0,0,0,0,0,0,0,0,-1,1812,1037,0,0
595,-13,0,0,0,0,0,0,0,0,0,-1,1819,1037,0,0
602,-13,0,0,0,0,0,0,0,0,0,-1,1826,1037,0,0
609,-13,0,0,0,0,0,0,0,0,0,-1,1833,1037,0,0
616,-13,0,0,0,0,0,0,0,0,0,-1,1840,1037,0,0
623,-13,0,0,0,0,0,0,0,0,0,-1,1847,1037,0,0
630,-13,0,0,0,0,0,0,0,0,0,-1,1854,1037,0,0
637,-13,0,0,0,0,0,0,0,0,0,-1,1861,1037,0,0
644,-13,0,0,0,0,0,0,0,0,0,-1,1868,1037,0,0
651,-13,43.7255,2.98499,-0.00300239,0.0010929,0.000622677,0.00118549,-0.00309497,1.42319,0.00255197,0.0383749,1875,1037,43.7254,-2.98498
658,-13,43.6824,2.92371,-0.00241301,0.000491696,8.80022e-05,0.000494359,-0.00241568,1.54054,0.00179804,0.0442265,1882,1037,43.6824,-2.92376
665,-13,43.6844,2.79858,-0.00200145,6.45466e-05,-8.96456e-05,6.84291e-05,-0.00200533,-1.52751,0.00136027,0.0424643,1889,1037,43.6844,-2.79855
672,-13,43.7388,2.7677,-0.00160355,-0.000169732,3.17846e-05,-0.000169028,-0.00160426,1.54864,0.00101785,0.0339593,1896,1037,43.7388,-2.76774
679,-13,43.522,2.77393,-0.00124302,-0.000328519,0.000324158,-0.000225273,-0.00134626,1.26245,0.000832639,0.0339989,1903,1037,43.522,-2.77388
686,-13,43.4821,2.68713,-0.00106589,-0.000529451,0.000660199,-8.5068e-05,-0.00151028,0.97835,0.000979727,0.0371436,1910,1037,43.482,-2.68713
693,-13,43.5917,2.6521,-0.000927905,-0.000731703,0.00101789,0.000192804,-0.00185241,0.833438,0.00130397,0.0378188,1917,1037,43.5916,-2.65207
700,-13,43.5925,2.73962,-0.000819289,-0.000774632,0.00126612,0.00046936,-0.00206328,0.794215,0.00155576,0.0365662,1924,1037,43.5925,-2.73965
707,-13,43.5601,2.73792,-0.000920117,-0.000674788,0.00136052,0.000568588,-0.00216349,0.830357,0.00166455,0.0341033,1931,1037,43.5601,-2.73786
714,-13,43.5342,2.90356,-0.00124164,-0.000341917,0.00148115,0.00075618,-0.00233973,0.932833,0.00186374,0.036195,1938,1037,43.5342,-2.90354
721,-13,43.4247,3.20044,0,0,0,0,0,0,0,-1,1945,1037,43.4247,-3.2005
728,-13,43.2477,5.77698,0,0,0,0,0,0,0,-1,1952,1037,43.2477,-5.77703
735,-13,43.225,5.76343,-0.00297998,0.00195563,0.00155318,0.00240372,-0.00342806,1.28993,0.00338425,0.0251091,1959,1037,43.225,-5.76339
742,-13,43.2247,5.72681,-0.00376813,0.002518,0.00130767,0.00277918,-0.0040293,1.37366,0.0039529,0.0163899,1966,1037,43.2247,-5.72676
749,-13,43.2559,5.65881,-0.00454334,0.00336075,0.001214,0.00354301,-0.00472559,1.42178,0.00479013,0.0225206,1973,1037,43.2559,-5.65877
756,-13,43.2372,5.60986,-0.0053136,0.00376157,0.000908918,0.00385171,-0.00540374,1.47195,0.00536862,0.0161992,1980,1037,43.2372,-5.60988
763,-13,43.1875,5.55115,-0.0063657,0.00462138,0.000589506,0.00465291,-0.00639724,1.51735,0.00640625,0.0227035,1987,1037,43.1875,-5.55109
770,-13,43.1326,5.51257,-0.00736338,0.00500407,0.00020484,0.00500746,-0.00736677,1.55424,0.00718742,0.0197302,1994,1037,43.1325,-5.51252
777,-13,43.0253,5.43042,-0.00822012,0.00482495,-0.000141585,0.00482648,-0.00822166,-1.55994,0.00761788,0.0165663,2001,1037,43.0252,-5.43036
784,-13,43.0366,5.35596,-0.00892412,0.00402772,-0.000588636,0.00405442,-0.00895082,-1.52547,0.00768392,0.0357451,2008,1037,43.0367,-5.35598
791,-13,43.062,5.27344,-0.00951377,0.00239472,-0.00123997,0.00252246,-0.00964151,-1.46814,0.00741295,0.0488788,2015,1037,43.0621,-5.27339
798,-13,43.2041,5.20129,0,0,0,0,0,0,0,-1,2022,1037,43.2042,-5.20133
805,-13,43.5857,4.52209,0,0,0,0,0,0,0,-1,2029,1037,43.5856,-4.52211
812,-13,43.4661,4.40881,0,0,0,0,0,0,0,-1,2036,1037,43.4662,-4.40877
-700,-20,-30.2345,3.78076,-0.0253436,0.0412711,0.021207,0.0474494,-0.0315219,1.28731,0.0459022,0.0462685,524,1044,-30.2345,-3.78081
-693,-20,-29.9875,3.68176,-0.0262137,0.0416915,0.0201248,0.0472077,-0.0317299,1.30327,0.0458657,0.0452719,531,1044,-29.9875,-3.6818
-686,-20,-30.1588,3.49377,-0.0247991,0.0386156,0.0170563,0.0429121,-0.0290955,1.32403,0.0418279,0.0448229,538,1044,-30.1588,-3.49373
-679,-20,-30.3491,3.32703,-0.0224944,0.0342124,0.0137445,0.0373682,-0.0256502,1.34511,0.0365927,0.0445212,545,1044,-30.3491,-3.32703
-672,-20,-31.7949,3.44836,0,0,0,0,0,0,0,-1,552,1044,-31.795,-3.44841
-665,-20,-31.8757,3.28357,-0.0167961,0.0248639,0.00791696,0.0263177,-0.0182499,1.38919,0.0258712,0.0451877,559,1044,-31.8756,-3.28355
-658,-20,-31.7833,3.17297,-0.013915,0.0205461,0.00563267,0.0214434,-0.0148123,1.41282,0.0210486,0.0463501,566,1044,-31.7833,-3.17296
-651,-20,-31.8916,2.40491,-0.0112078,0.0165696,0.00376303,0.0170703,-0.0117085,1.4385,0.0167113,0.041556,573,1044,-31.8916,-2.4049
-644,-20,-31.8843,2.44153,-0.0090888,0.0136687,0.00241116,0.0139214,-0.00934145,1.46639,0.0135173,0.0280116,580,1044,-31.8844,-2.44148
-637,-20,-31.9592,2.53333,-0.00654489,0.0107957,0.000473029,0.0108086,-0.00655779,1.54354,0.0101261,0.017904,587,1044,-31.9592,-2.53334
-630,-20,-32.0353,2.72119,-0.00401521,0.00665037,-0.00186096,0.00696575,-0.00433059,-1.40292,0.00658083,0.0148641,594,1044,-32.0353,-2.72124
-623,-20,-32.0868,2.87756,-0.00210885,0.00428912,-0.0032689,0.00566388,-0.00348362,-1.17269,0.00533108,0.0145724,601,1044,-32.0868,-2.87755
-616,-20,-32.0831,2.98181,-0.00108058,0.00329203,-0.00390197,0.00557845,-0.00336701,-1.04076,0.005217,0.0147377,608,1044,-32.0831,-2.9818
-609,-20,-32.076,3.04626,-0.000174178,0.00268271,-0.00435395,0.00583655,-0.00332802,-0.943905,0.00535683,0.0159504,615,1044,-32.076,-3.04621
-602,-20,-32.0653,3.15771,0.000279695,0.00220473,-0.00496999,0.00630455,-0.00382012,-0.881047,0.00590385,0.013049,622,1044,-32.0653,-3.15768
-595,-20,-32.0865,3.27637,0,0,0,0,0,0,0,-1,629,1044,-32.0865,-3.27637
-588,-20,-31.9591,1.11353,0,0,0,0,0,0,0,-1,636,1044,-31.9591,-1.11351
-581,-20,-31.9337,0.894653,0.00140192,0.000955746,-0.00502159,0.00620538,-0.00384771,-0.7632,0.00585711,0.0204548,643,1044,-31.9337,-0.894681
-574,-20,-31.9616,0.904907,0.00148449,0.00105729,-0.00456071,0.0058366,-0.00329482,-0.761998,0.00533968,0.0377244,650,1044,-31.9616,-0.904935
-567,-20,-31.9562,1.06543,0.00132812,0.00139463,-0.00370185,0.00506337,-0.00234063,-0.78989,0.00436999,0.0449935,657,1044,-31.9562,-1.0654
-560,-20,-31.8231,1.21338,0.00100526,0.00193386,-0.00243209,0.00394557,-0.00100644,-0.879716,0.00302225,0.0452027,664,1044,-31.8231,-1.21342
-553,-20,-31.8802,1.1825,0.000608114,0.00254118,-0.000791371,0.00282383,0.000325466,-1.22776,0.00178399,0.0445125,671,1044,-31.8802,-1.18244
-546,-20,-32.0246,1.18408,0.000278066,0.0030126,0.00120319,0.00346662,-0.000175952,1.20997,0.00237191,0.0419385,678,1044,-32.0246,-1.18414
-539,-20,-31.9081,1.21521,0.000119699,0.00344702,0.00302698,0.0052374,-0.00167068,1.03667,0.00416181,0.0432797,685,1044,-31.9081,-1.21516
-532,-20,-32.0179,1.20178,0.000422466,0.00455304,0.00324576,0.00633488,-0.00135937,1.06874,0.00474178,0.0433892,692,1044,-32.0179,-1.20184
-525,-20,0,0,0,0,0,0,0,0,0,-1,699,1044,0,0
-518,-20,0,0,0,0,0,0,0,0,0,-1,706,1044,0,0
-511,-20,0,0,0,0,0,0,0,0,0,-1,713,1044,0,0
-504,-20,0,0,0,0,0,0,0,0,0,-1,720,1044,0,0
-497,-20,0,0,0,0,0,0,0,0,0,-1,727,1044,0,0
-490,-20,0,0,0,0,0,0,0,0,0,-1,734,1044,0,0
-483,-20,0,0,0,0,0,0,0,0,0,-1,741,1044,0,0
-476,-20,0,0,0,0,0,0,0,0,0,-1,748,1044,0,0
-469,-20,0,0,0,0,0,0,0,0,0,-1,755,1044,0,0
-462,-20,0,0,0,0,0,0,0,0,0,-1,762,1044,0,0
-455,-20,0,0,0,0,0,0,0,0,0,-1,769,1044,0,0
-448,-20,0,0,0,0,0,0,0,0,0,-1,776,1044,0,0
-441,-20,0,0,0,0,0,0,0,0,0,-1,783,1044,0,0
-434,-20,0,0,0,0,0,0,0,0,0,-1,790,1044,0,0
-427,-20,0,0,0,0,0,0,0,0,0,-1,797,1044,0,0
-420,-20,0,0,0,0,0,0,0,0,0,-1,804,1044,0,0
-413,-20,0,0,0,0,0,0,0,0,0,-1,811,1044,0,0
-406,-20,0,0,0,0,0,0,0,0,0,-1,818,1044,0,0
-399,-20,0,0,0,0,0,0,0,0,0,-1,825,1044,0,0
-392,-20,0,0,0,0,0,0,0,0,0,-1,832,1044,0,0
-385,-20,0,0,0,0,0,0,0,0,0,-1,839,1044,0,0
-378,-20,0,0,0,0,0,0,0,0,0,-1,846,1044,0,0
-371,-20,0,0,0,0,0,0,0,0,0,-1,853,1044,0,0
-364,-20,0,0,0,0,0,0,0,0,0,-1,860,1044,0,0
-357,-20,0,0,0,0,0,0,0,0,0,-1,867,1044,0,0
-350,-20,0,0,0,0,0,0,0,0,0,-1,874,1044,0,0
-343,-20,0,0,0,0,0,0,0,0,0,-1,881,1044,0,0
-336,-20,0,0,0,0,0,0,0,0,0,-1,888,1044,0,0
-329,-20,0,0,0,0,0,0,0,0,0,-1,895,1044,0,0
-322,-20,0,0,0,0,0,0,0,0,0,-1,902,1044,0,0
-315,-20,0,0,0,0,0,0,0,0,0,-1,909,1044,0,0
-308,-20,0,0,0,0,0,0,0,0,0,-1,916,1044,0,0
-301,-20,0,0,0,0,0,0,0,0,0,-1,923,1044,0,0
-294,-20,0,0,0,0,0,0,0,0,0,-1,930,1044,0,0
-287,-20,0,0,0,0,0,0,0,0,0,-1,937,1044,0,0
-280,-20,0,0,0,0,0,0,0,0,0,-1,944,1044,0,0
-273,-20,0,0,0,0,0,0,0,0,0,-1,951,1044,0,0
-266,-20,0,0,0,0,0,0,0,0,0,-1,958,1044,0,0
-259,-20,0,0,0,0,0,0,0,0,0,-1,965,1044,0,0
-252,-20,0,0,0,0,0,0,0,0,0,-1,972,1044,0,0
-245,-20,0,0,0,0,0,0,0,0,0,-1,979,1044,0,0
-238,-20,0,0,0,0,0,0,0,0,0,-1,986,1044,0,0
-231,-20,0,0,0,0,0,0,0,0,0,-1,993,1044,0,0
-224,-20,0,0,0,0,0,0,0,0,0,-1,1000,1044,0,0
-217,-20,0,0,0,0,0,0,0,0,0,-1,1007,1044,0,0
-210,-20,0,0,0,0,0,0,0,0,0,-1,1014,1044,0,0
-203,-20,0,0,0,0,0,0,0,0,0,-1,1021,1044,0,0
-196,-20,0,0,0,0,0,0,0,0,0,-1,1028,1044,0,0
-189,-20,0,0,0,0,0,0,0,0,0,-1,1035,1044,0,0
-182,-20,0,0,0,0,0,0,0,0,0,-1,1042,1044,0,0
-175,-20,0,0,0,0,0,0,0,0,0,-1,1049,1044,0,0
-168,-20,0,0,0,0,0,0,0,0,0,-1,1056,1044,0,0
-161,-20,0,0,0,0,0,0,0,0,0,-1,1063,1044,0,0
-154,-20,0,0,0,0,0,0,0,0,0,-1,1070,1044,0,0
-147,-20,0,0,0,0,0,0,0,0,0,-1,1077,1044,0,0
-140,-20,0,0,0,0,0,0,0,0,0,-1,1084,1044,0,0
-133,-20,0,0,0,0,0,0,0,0,0,-1,1091,1044,0,0
-126,-20,0,0,0,0,0,0,0,0,0,-1,1098,1044,0,0
-119,-20,0,0,0,0,0,0,0,0,0,-1,1105,1044,0,0
-112,-20,0,0,0,0,0,0,0,0,0,-1,1112,1044,0,0
-105,-20,0,0,0,0,0,0,0,0,0,-1,1119,1044,0,0
-98,-20,0,0,0,0,0,0,0,0,0,-1,1126,1044,0,0
-91,-20,0,0,0,0,0,0,0,0,0,-1,1133,1044,0,0
-84,-20,0,0,0,0,0,0,0,0,0,-1,1140,1044,0,0
-77,-20,0,0,0,0,0,0,0,0,0,-1,1147,1044,0,0
-70,-20,0,0,0,0,0,0,0,0,0,-1,1154,1044,0,0
-63,-20,0,0,0,0,0,0,0,0,0,-1,1161,1044,0,0
-56,-20,0,0,0,0,0,0,0,0,0,-1,1168,1044,0,0
-49,-20,0,0,0,0,0,0,0,0,0,-1,1175,1044,0,0
-42,-20,0,0,0,0,0,0,0,0,0,-1,1182,1044,0,0
-35,-20,0,0,0,0,0,0,0,0,0,-1,1189,1044,0,0
-28,-20,0,0,0,0,0,0,0,0,0,-1,1196,1044,0,0
-21,-20,0,0,0,0,0,0,0,0,0,-1,1203,1044,0,0
-14,-20,0,0,0,0,0,0,0,0,0,-1,1210,1044,0,0
-7,-20,0,0,0,0,0,0,0,0,0,-1,1217,1044,0,0
0,-20,0,0,0,0,0,0,0,0,0,-1,1224,1044,0,0
7,-20,0,0,0,0,0,0,0,0,0,-1,1231,1044,0,0
14,-20,0,0,0,0,0,0,0,0,0,-1,1238,1044,0,0
21,-20,0,0,0,0,0,0,0,0,0,-1,1245,1044,0,0
28,-20,0,0,0,0,0,0,0,0,0,-1,1252,1044,0,0
35,-20,0,0,0,0,0,0,0,0,0,-1,1259,1044,0,0
42,-20,0,0,0,0,0,0,0,0,0,-1,1266,1044,0,0
49,-20,0,0,0,0,0,0,0,0,0,-1,1273,1044,0,0
56,-20,0,0,0,0,0,0,0,0,0,-1,1280,1044,0,0
63,-20,0,0,0,0,0,0,0,0,0,-1,1287,1044,0,0
70,-20,0,0,0,0,0,0,0,0,0,-1,1294,1044,0,0
77,-20,0,0,0,0,0,0,0,0,0,-1,1301,1044,0,0
84,-20,0,0,0,0,0,0,0,0,0,-1,1308,1044,0,0
91,-20,0,0,0,0,0,0,0,0,0,-1,1315,1044,0,0
98,-20,0,0,0,0,0,0,0,0,0,-1,1322,1044,0,0
105,-20,0,0,0,0,0,0,0,0,0,-1,1329,1044,0,0
112,-20,0,0,0,0,0,0,0,0,0,-1,1336,1044,0,0
119,-20,0,0,0,0,0,0,0,0,0,-1,1343,1044,0,0
126,-20,0,0,0,0,0,0,0,0,0,-1,1350,1044,0,0
133,-20,0,0,0,0,0,0,0,0,0,-1,1357,1044,0,0
140,-20,0,0,0,0,0,0,0,0,0,-1,1364,1044,0,0
147,-20,0,0,0,0,0,0,0,0,0,-1,1371,1044,0,0
154,-20,0,0,0,0,0,0,0,0,0,-1,1378,1044,0,0
161,-20,0,0,0,0,0,0,0,0,0,-1,1385,1044,0,0
168,-20,0,0,0,0,0,0,0,0,0,-1,1392,1044,0,0
175,-20,0,0,0,0,0,0,0,0,0,-1,1399,1044,0,0
182,-20,0,0,0,0,0,0,0,0,0,-1,1406,1044,0,0
189,-20,0,0,0,0,0,0,0,0,0,-1,1413,1044,0,0
196,-20,0,0,0,0,0,0,0,0,0,-1,1420,1044,0,0
203,-20,0,0,0,0,0,0,0,0,0,-1,1427,1044,0,0
210,-20,0,0,0,0,0,0,0,0,0,-1,1434,1044,0,0
217,-20,0,0,0,0,0,0,0,0,0,-1,1441,1044,0,0
224,-20,0,0,0,0,0,0,0,0,0,-1,1448,1044,0,0
231,-20,0,0,0,0,0,0,0,0,0,-1,1455,1044,0,0
238,-20,0,0,0,0,0,0,0,0,0,-1,1462,1044,0,0
245,-20,0,0,0,0,0,0,0,0,0,-1,1469,1044,0,0
252,-20,0,0,0,0,0,0,0,0,0,-1,1476,1044,0,0
259,-20,0,0,0,0,0,0,0,0,0,-1,1483,1044,0,0
266,-20,0,0,0,0,0,0,0,0,0,-1,1490,1044,0,0
273,-20,0,0,0,0,0,0,0,0,0,-1,1497,1044,0,0
280,-20,0,0,0,0,0,0,0,0,0,-1,1504,1044,0,0
287,-20,0,0,0,0,0,0,0,0,0,-1,1511,1044,0,0
294,-20,0,0,0,0,0,0,0,0,0,-1,1518,1044,0,0
301,-20,0,0,0,0,0,0,0,0,0,-1,1525,1044,0,0
308,-20,0,0,0,0,0,0,0,0,0,-1,1532,1044,0,0
315,-20,0,0,0,0,0,0,0,0,0,-1,1539,1044,0,0
322,-20,0,0,0,0,0,0,0,0,0,-1,1546,1044,0,0
329,-20,0,0,0,0,0,0,0,0,0,-1,1553,1044,0,0
336,-20,0,0,0,0,0,0,0,0,0,-1,1560,1044,0,0
343,-20,0,0,0,0,0,0,0,0,0,-1,1567,1044,0,0
350,-20,0,0,0,0,0,0,0,0,0,-1,1574,1044,0,0
357,-20,0,0,0,0,0,0,0,0,0,-1,1581,1044,0,0
364,-20,0,0,0,0,0,0,0,0,0,-1,1588,1044,0,0
371,-20,0,0,0,0,0,0,0,0,0,-1,1595,1044,0,0
378,-20,0,0,0,0,0,0,0,0,0,-1,1602,1044,0,0
385,-20,0,0,0,0,0,0,0,0,0,-1,1609,1044,0,0
392,-20,0,0,0,0,0,0,0,0,0,-1,1616,1044,0,0
399,-20,0,0,0,0,0,0,0,0,0,-1,1623,1044,0,0
406,-20,0,0,0,0,0,0,0,0,0,-1,1630,1044,0,0
413,-20,0,0,0,0,0,0,0,0,0,-1,1637,1044,0,0
420,-20,0,0,0,0,0,0,0,0,0,-1,1644,1044,0,0
427,-20,0,0,0,0,0,0,0,0,0,-1,1651,1044,0,0
434,-20,0,0,0,0,0,0,0,0,0,-1,1658,1044,0,0
441,-20,0,0,0,0,0,0,0,0,0,-1,1665,1044,0,0
448,-20,0,0,0,0,0,0,0,0,0,-1,1672,1044,0,0
455,-20,0,0,0,0,0,0,0,0,0,-1,1679,1044,0,0
462,-20,0,0,0,0,0,0,0,0,0,-1,1686,1044,0,0
469,-20,0,0,0,0,0,0,0,0,0,-1,1693,1044,0,0
476,-20,0,0,0,0,0,0,0,0,0,-1,1700,1044,0,0
483,-20,0,0,0,0,0,0,0,0,0,-1,1707,1044,0,0
490,-20,0,0,0,0,0,0,0,0,0,-1,1714,1044,0,0
497,-20,0,0,0,0,0,0,0,0,0,-1,1721,1044,0,0
504,-20,0,0,0,0,0,0,0,0,0,-1,1728,1044,0,0
511,-20,0,0,0,0,0,0,0,0,0,-1,1735,1044,0,0
518,-20,0,0,0,0,0,0,0,0,0,-1,1742,1044,0,0
525,-20,0,0,0,0,0,0,0,0,0,-1,1749,1044,0,0
532,-20,0,0,0,0,0,0,0,0,0,-1,1756,1044,0,0
539,-20,0,0,0,0,0,0,0,0,0,-1,1763,1044,0,0
546,-20,0,0,0,0,0,0,0,0,0,-1,1770,1044,0,0
553,-20,0,0,0,0,0,0,0,0,0,-1,1777,1044,0,0
560,-20,0,0,0,0,0,0,0,0,0,-1,1784,1044,0,0
567,-20,0,0,0,0,0,0,0,0,0,-1,1791,1044,0,0
574,-20,0,0,0,0,0,0,0,0,0,-1,1798,1044,0,0
581,-20,0,0,0,0,0,0,0,0,0,-1,1805,1044,0,0
588,-20,0,0,0,0,0,0,0,0,0,-1,1812,1044,0,0
595,-20,0,0,0,0,0,0,0,0,0,-1,1819,1044,0,0
602,-20,0,0,0,0,0,0,0,0,0,-1,1826,1044,0,0
609,-20,0,0,0,0,0,0,0,0,0,-1,1833,1044,0,0
616,-20,0,0,0,0,0,0,0,0,0,-1,1840,1044,0,0
623,-20,0,0,0,0,0,0,0,0,0,-1,1847,1044,0,0
630,-20,0,0,0,0,0,0,0,0,0,-1,1854,1044,0,0
637,-20,0,0,0,0,0,0,0,0,0,-1,1861,1044,0,0
644,-20,0,0,0,0,0,0,0,0,0,-1,1868,1044,0,0
651,-20,43.6222,2.94067,-0.00295405,0.00116319,0.00178501,0.00182931,-0.00362017,1.21363,0.00320239,0.0401388,1875,1044,43.6222,-2.94067
658,-20,43.6277,2.9679,-0.00245844,0.000578449,0.00103279,0.000896392,-0.00277639,1.27215,0.00221114,0.0435668,1882,1044,43.6277,-2.96784
665,-20,43.6018,2.81177,-0.00210056,0.000158899,0.000639008,0.000327099,-0.00226876,1.31341,0.0016325,0.0392106,1889,1044,43.6018,-2.81178
672,-20,43.5697,2.79529,-0.00172261,-8.54089e-05,0.000550792,8.26407e-05,-0.00189066,1.27466,0.00128887,0.0248158,1896,1044,43.5697,-2.79535
679,-20,43.5262,2.7843,-0.00135409,-0.000250483,0.000630185,3.53404e-05,-0.00163992,1.14499,0.00110525,0.0257583,1903,1044,43.5263,-2.78427
686,-20,43.5874,2.66357,-0.00119012,-0.000475126,0.000816027,5.82791e-05,-0.00172352,0.991852,0.00116892,0.0366475,1910,1044,43.5873,-2.66352
693,-20,43.6355,2.57227,-0.00107707,-0.000698425,0.00106851,0.000197403,-0.0019729,0.873081,0.00138576,0.0421348,1917,1044,43.6355,-2.57222
700,-20,43.5736,2.69482,-0.000979731,-0.00076445,0.00127223,0.000404684,-0.00214886,0.827602,0.00158479,0.0371419,1924,1044,43.5737,-2.69486
707,-20,43.502,2.73169,-0.00108025,-0.000689625,0.00135207,0.000481161,-0.00225104,0.85713,0.00168415,0.0304444,1931,1044,43.5019,-2.73168
714,-20,43.5292,2.91296,-0.00136861,-0.000404089,0.00147459,0.000665097,-0.00243779,0.943439,0.00188639,0.0314234,1938,1044,43.5291,-2.91302
721,-20,43.4568,3.03418,0,0,0,0,0,0,0,-1,1945,1044,43.4567,-3.03414
728,-20,43.5243,5.79871,0,0,0,0,0,0,0,-1,1952,1044,43.5243,-5.79873
735,-20,43.286,5.7771,-0.00306624,0.00167006,0.001573,0.00214488,-0.00354106,1.27764,0.0033156,0.0258059,1959,1044,43.2861,-5.77716
742,-20,43.1156,5.70471,-0.00387359,0.00226901,0.00140047,0.00257324,-0.00417782,1.35689,0.00393425,0.019898,1966,1044,43.1156,-5.70472
749,-20,43.1565,5.66467,-0.0046397,0.00315936,0.00149415,0.00343581,-0.00491615,1.38784,0.00484719,0.0226526,1973,1044,43.1565,-5.66467
756,-20,43.1478,5.60242,-0.00546872,0.00347793,0.00135784,0.00367947,-0.00567026,1.42344,0.00543871,0.0163346,1980,1044,43.1478,-5.60245
763,-20,43.105,5.52429,-0.00669971,0.00441548,0.00125349,0.00455508,-0.00683932,1.45988,0.00662248,0.0236349,1987,1044,43.105,-5.52431
770,-20,43.0463,5.51135,-0.00795811,0.00493245,0.0011998,0.00504317,-0.00806883,1.47877,0.00763711,0.0206847,1994,1044,43.0463,-5.51134
777,-20,42.9501,5.38513,-0.00926614,0.00498549,0.00133225,0.00510896,-0.00938961,1.47838,0.0084915,0.0149252,2001,1044,42.95,-5.3851
784,-20,42.928,5.30884,-0.0105879,0.00448844,0.0015003,0.00463629,-0.0107357,1.47257,0.00910493,0.0195683,2008,1044,42.928,-5.30888
791,-20,43.0161,5.08752,-0.0120274,0.00328135,0.00166369,0.00346007,-0.0122061,1.46379,0.00950312,0.0377879,2015,1044,43.0161,-5.08757
798,-20,43.2954,4.97595,0,0,0,0,0,0,0,-1,2022,1044,43.2955,-4.97592
805,-20,43.1423,4.50134,-0.0150931,-0.00139722,0.001792,-0.00116664,-0.0153236,1.44282,0.00984994,0.0428738,2029,1044,43.1422,-4.50133
812,-20,43.0205,4.29419,-0.0172009,-0.0044755,0.00145416,-0.00431144,-0.017365,1.45845,0.0104406,0.0441509,2036,1044,43.0204,-4.29425
-700,-27,-29.8594,4.39832,-0.0167296,0.0473538,0.0217672,0.0540481,-0.0234239,1.27243,0.0458786,0.0496013,524,1051,-29.8594,-4.39828
-693,-27,-29.6017,3.98792,-0.0181884,0.0468505,0.0219494,0.0535648,-0.0249027,1.27393,0.0462997,0.0456218,531,1051,-29.6016,-3.9879
-686,-27,-29.6712,3.59863,-0.0176473,0.0427668,0.0194656,0.0484955,-0.023376,1.28458,0.0423314,0.0441656,538,1051,-29.6712,-3.59867
-679,-27,-29.8711,3.33472,-0.0162757,0.0374159,0.0163138,0.041984,-0.0208438,1.29777,0.0369518,0.0451644,545,1051,-29.8711,-3.33474
-672,-27,-30.0988,3.05811,0,0,0,0,0,0,0,-1,552,1051,-30.0987,-3.05812
-665,-27,-32.1572,3.10974,0,0,0,0,0,0,0,-1,559,1051,-32.1572,-3.1098
-658,-27,-32.0414,2.93665,0,0,0,0,0,0,0,-1,566,1051,-32.0415,-2.9367
-651,-27,-31.6841,2.20154,-0.00842876,0.0171128,0.00531597,0.018175,-0.00949099,1.37357,0.0162331,0.0357198,573,1051,-31.6841,-2.20157
-644,-27,-31.7641,2.31348,-0.0069698,0.0138418,0.00361503,0.0144518,-0.00757986,1.40362,0.0129246,0.0174026,580,1051,-31.7641,-2.31344
-637,-27,-31.8218,2.42847,-0.00512803,0.0106059,0.00149777,0.0107472,-0.00526934,1.47673,0.00942569,0.0144551,587,1051,-31.8218,-2.42842
-630,-27,-31.9014,2.69739,-0.00308522,0.00631291,-0.00101198,0.00642064,-0.00319295,-1.46474,0.00565372,0.0189405,594,1051,-31.9013,-2.69735
-623,-27,-31.9327,2.86963,-0.00165397,0.00385284,-0.00257885,0.00487193,-0.00267306,-1.19446,0.00441734,0.0173814,601,1051,-31.9327,-2.86965
-616,-27,-31.9189,2.99402,-0.000939635,0.00287682,-0.00329955,0.0047802,-0.00284302,-1.04756,0.00444838,0.014642,608,1051,-31.9189,-2.99403
-609,-27,-31.9179,3.11243,-0.000197034,0.00238027,-0.00375516,0.00506174,-0.00287851,-0.950686,0.00464171,0.0139633,615,1051,-31.9179,-3.11239
-602,-27,-31.8708,3.26086,0.00017387,0.00187412,-0.00441444,0.00551955,-0.00347156,-0.880523,0.00523571,0.0130167,622,1051,-31.8709,-3.26091
-595,-27,-31.9144,3.37451,0.000384681,0.00120999,-0.00471966,0.005535,-0.00394033,-0.829004,0.00549635,0.0150158,629,1051,-31.9144,-3.37446
-588,-27,-31.95,1.099,0,0,0,0,0,0,0,-1,636,1051,-31.95,-1.09903
-581,-27,-31.9391,0.946411,0.00109901,0.000801848,-0.00449695,0.00544984,-0.00354898,-0.768884,0.00523396,0.0190108,643,1051,-31.9392,-0.946357
-574,-27,-31.9547,0.947998,0.00118576,0.000948035,-0.00412106,0.00518967,-0.00305588,-0.770981,0.00481341,0.0340257,650,1051,-31.9547,-0.948033
-567,-27,-31.8411,1.19275,0.00107113,0.00133565,-0.00340237,0.00460832,-0.00220155,-0.804825,0.0040127,0.0424633,657,1051,-31.841,-1.19272
-560,-27,-31.8163,1.39209,0.000821306,0.00191391,-0.00232043,0.00375148,-0.00101627,-0.901008,0.00289973,0.0448867,664,1051,-31.8163,-1.3921
-553,-27,-31.9344,1.03625,0.000542333,0.00253205,-0.000889585,0.00287177,0.00020261,-1.206,0.00185068,0.0444379,671,1051,-31.9344,-1.03625
-546,-27,-31.9412,1.07776,0.000368599,0.00295484,0.000898463,0.00323633,8.71096e-05,1.26718,0.00212911,0.0419167,678,1051,-31.9411,-1.07781
-539,-27,-31.7767,1.05005,0.000357226,0.00315976,0.00263644,0.00474418,-0.0012272,1.02966,0.00364145,0.0445613,685,1051,-31.7766,-1.05011
-532,-27,-31.9663,1.18823,0.000700421,0.00389148,0.00306202,0.00574873,-0.00115683,1.02558,0.00427065,0.0437302,692,1051,-31.9663,-1.18817
-525,-27,0,0,0,0,0,0,0,0,0,-1,699,1051,0,0
-518,-27,0,0,0,0,0,0,0,0,0,-1,706,1051,0,0
-511,-27,0,0,0,0,0,0,0,0,0,-1,713,1051,0,0
-504,-27,0,0,0,0,0,0,0,0,0,-1,720,1051,0,0
-497,-27,0,0,0,0,0,0,0,0,0,-1,727,1051,0,0
-490,-27,0,0,0,0,0,0,0,0,0,-1,734,1051,0,0
-483,-27,0,0,0,0,0,0,0,0,0,-1,741,1051,0,0
-476,-27,0,0,0,0,0,0,0,0,0,-1,748,1051,0,0
-469,-27,0,0,0,0,0,0,0,0,0,-1,755,1051,0,0
-462,-27,0,0,0,0,0,0,0,0,0,-1,762,1051,0,0
-455,-27,0,0,0,0,0,0,0,0,0,-1,769,1051,0,0
-448,-27,0,0,0,0,0,0,0,0,0,-1,776,1051,0,0
-441,-27,0,0,0,0,0,0,0,0,0,-1,783,1051,0,0
-434,-27,0,0,0,0,0,0,0,0,0,-1,790,1051,0,0
-427,-27,0,0,0,0,0,0,0,0,0,-1,797,1051,0,0
-420,-27,0,0,0,0,0,0,0,0,0,-1,804,1051,0,0
-413,-27,0,0,0,0,0,0,0,0,0,-1,811,1051,0,0
-406,-27,0,0,0,0,0,0,0,0,0,-1,818,1051,0,0
-399,-27,0,0,0,0,0,0,0,0,0,-1,825,1051,0,0
-392,-27,0,0,0,0,0,0,0,0,0,-1,832,1051,0,0
-385,-27,0,0,0,0,0,0,0,0,0,-1,839,1051,0,0
-378,-27,0,0,0,0,0,0,0,0,0,-1,846,1051,0,0
-371,-27,0,0,0,0,0,0,0,0,0,-1,853,1051,0,0
-364,-27,0,0,0,0,0,0,0,0,0,-1,860,1051,0,0
-357,-27,0,0,0,0,0,0,0,0,0,-1,867,1051,0,0
-350,-27,0,0,0,0,0,0,0,0,0,-1,874,1051,0,0
-343,-27,0,0,0,0,0,0,0,0,0,-1,881,1051,0,0
-336,-27,0,0,0,0,0,0,0,0,0,-1,888,1051,0,0
-329,-27,0,0,0,0,0,0,0,0,0,-1,895,1051,0,0
-322,-27,0,0,0,0,0,0,0,0,0,-1,902,1051,0,0
-315,-27,0,0,0,0,0,0,0,0,0,-1,909,1051,0,0
-308,-27,0,0,0,0,0,0,0,0,0,-1,916,1051,0,0
-301,-27,0,0,0,0,0,0,0,0,0,-1,923,1051,0,0
-294,-27,0,0,0,0,0,0,0,0,0,-1,930,1051,0,0
-287,-27,0,0,0,0,0,0,0,0,0,-1,937,1051,0,0
-280,-27,0,0,0,0,0,0,0,0,0,-1,944,1051,0,0
-273,-27,0,0,0,0,0,0,0,0,0,-1,951,1051,0,0
-266,-27,0,0,0,0,0,0,0,0,0,-1,958,1051,0,0
-259,-27,0,0,0,0,0,0,0,0,0,-1,965,1051,0,0
-252,-27,0,0,0,0,0,0,0,0,0,-1,972,1051,0,0
-245,-27,0,0,0,0,0,0,0,0,0,-1,979,1051,0,0
-238,-27,0,0,0,0,0,0,0,0,0,-1,986,1051,0,0
-231,-27,0,0,0,0,0,0,0,0,0,-1,993,1051,0,0
-224,-27,0,0,0,0,0,0,0,0,0,-1,1000,1051,0,0
-217,-27,0,0,0,0,0,0,0,0,0,-1,1007,1051,0,0
-210,-27,0,0,0,0,0,0,0,0,0,-1,1014,1051,0,0
-203,-27,0,0,0,0,0,0,0,0,0,-1,1021,1051,0,0
-196,-27,0,0,0,0,0,0,0,0,0,-1,1028,1051,0,0
-189,-27,0,0,0,0,0,0,0,0,0,-1,1035,1051,0,0
-182,-27,0,0,0,0,0,0,0,0,0,-1,1042,1051,0,0
-175,-27,0,0,0,0,0,0,0,0,0,-1,1049,1051,0,0
-168,-27,0,0,0,0,0,0,0,0,0,-1,1056,1051,0,0
-161,-27,0,0,0,0,0,0,0,0,0,-1,1063,1051,0,0
-154,-27,0,0,0,0,0,0,0,0,0,-1,1070,1051,0,0
-147,-27,0,0,0,0,0,0,0,0,0,-1,1077,1051,0,0
-140,-27,0,0,0,0,0,0,0,0,0,-1,1084,1051,0,0
-133,-27,0,0,0,0,0,0,0,0,0,-1,1091,1051,0,0
-126,-27,0,0,0,0,0,0,0,0,0,-1,1098,1051,0,0
-119,-27,0,0,0,0,0,0,0,0,0,-1,1105,1051,0,0
-112,-27,0,0,0,0,0,0,0,0,0,-1,1112,1051,0,0
-105,-27,0,0,0,0,0,0,0,0,0,-1,1119,1051,0,0
-98,-27,0,0,0,0,0,0,0,0,0,-1,1126,1051,0,0
-91,-27,0,0,0,0,0,0,0,0,0,-1,1133,1051,0,0
-84,-27,0,0,0,0,0,0,0,0,0,-1,1140,1051,0,0
-77,-27,0,0,0,0,0,0,0,0,0,-1,1147,1051,0,0
-70,-27,0,0,0,0,0,0,0,0,0,-1,1154,1051,0,0
-63,-27,0,0,0,0,0,0,0,0,0,-1,1161,1051,0,0
-56,-27,0,0,0,0,0,0,0,0,0,-1,1168,1051,0,0
-49,-27,0,0,0,0,0,0,0,0,0,-1,1175,1051,0,0
-42,-27,0,0,0,0,0,0,0,0,0,-1,1182,1051,0,0
-35,-27,0,0,0,0,0,0,0,0,0,-1,1189,1051,0,0
-28,-27,0,0,0,0,0,0,0,0,0,-1,1196,1051,0,0
-21,-27,0,0,0,0,0,0,0,0,0,-1,1203,1051,0,0
-14,-27,0,0,0,0,0,0,0,0,0,-1,1210,1051,0,0
-7,-27,0,0,0,0,0,0,0,0,0,-1,1217,1051,0,0
0,-27,0,0,0,0,0,0,0,0,0,-1,1224,1051,0,0
7,-27,0,0,0,0,0,0,0,0,0,-1,1231,1051,0,0
14,-27,0,0,0,0,0,0,0,0,0,-1,1238,1051,0,0
21,-27,0,0,0,0,0,0,0,0,0,-1,1245,1051,0,0
28,-27,0,0,0,0,0,0,0,0,0,-1,1252,1051,0,0
35,-27,0,0,0,0,0,0,0,0,0,-1,1259,1051,0,0
42,-27,0,0,0,0,0,0,0,0,0,-1,1266,1051,0,0
49,-27,0,0,0,0,0,0,0,0,0,-1,1273,1051,0,0
56,-27,0,0,0,0,0,0,0,0,0,-1,1280,1051,0,0
63,-27,0,0,0,0,0,0,0,0,0,-1,1287,1051,0,0
70,-27,0,0,0,0,0,0,0,0,0,-1,1294,1051,0,0
77,-27,0,0,0,0,0,0,0,0,0,-1,1301,1051,0,0
84,-27,0,0,0,0,0,0,0,0,0,-1,1308,1051,0,0
91,-27,0,0,0,0,0,0,0,0,0,-1,1315,1051,0,0
98,-27,0,0,0,0,0,0,0,0,0,-1,1322,1051,0,0
105,-27,0,0,0,0,0,0,0,0,0,-1,1329,1051,0,0
112,-27,0,0,0,0,0,0,0,0,0,-1,1336,1051,0,0
119,-27,0,0,0,0,0,0,0,0,0,-1,1343,1051,0,0
126,-27,0,0,0,0,0,0,0,0,0,-1,1350,1051,0,0
133,-27,0,0,0,0,0,0,0,0,0,-1,1357,1051,0,0
140,-27,0,0,0,0,0,0,0,0,0,-1,1364,1051,0,0
147,-27,0,0,0,0,0,0,0,0,0,-1,1371,1051,0,0
154,-27,0,0,0,0,0,0,0,0,0,-1,1378,1051,0,0
161,-27,0,0,0,0,0,0,0,0,0,-1,1385,1051,0,0
168,-27,0,0,0,0,0,0,0,0,0,-1,1392,1051,0,0
175,-27,0,0,0,0,0,0,0,0,0,-1,1399,1051,0,0
182,-27,0,0,0,0,0,0,0,0,0,-1,1406,1051,0,0
189,-27,0,0,0,0,0,0,0,0,0,-1,1413,1051,0,0
196,-27,0,0,0,0,0,0,0,0,0,-1,1420,1051,0,0
203,-27,0,0,0,0,0,0,0,0,0,-1,1427,1051,0,0
210,-27,0,0,0,0,0,0,0,0,0,-1,1434,1051,0,0
217,-27,0,0,0,0,0,0,0,0,0,-1,1441,1051,0,0
224,-27,0,0,0,0,0,0,0,0,0,-1,1448,1051,0,0
231,-27,0,0,0,0,0,0,0,0,0,-1,1455,1051,0,0
238,-27,0,0,0,0,0,0,0,0,0,-1,1462,1051,0,0
245,-27,0,0,0,0,0,0,0,0,0,-1,1469,1051,0,0
252,-27,0,0,0,0,0,0,0,0,0,-1,1476,1051,0,0
259,-27,0,0,0,0,0,0,0,0,0,-1,1483,1051,0,0
266,-27,0,0,0,0,0,0,0,0,0,-1,1490,1051,0,0
273,-27,0,0,0,0,0,0,0,0,0,-1,1497,1051,0,0
280,-27,0,0,0,0,0,0,0,0,0,-1,1504,1051,0,0
287,-27,0,0,0,0,0,0,0,0,0,-1,1511,1051,0,0
294,-27,0,0,0,0,0,0,0,0,0,-1,1518,1051,0,0
301,-27,0,0,0,0,0,0,0,0,0,-1,1525,1051,0,0
308,-27,0,0,0,0,0,0,0,0,0,-1,1532,1051,0,0
315,-27,0,0,0,0,0,0,0,0,0,-1,1539,1051,0,0
322,-27,0,0,0,0,0,0,0,0,0,-1,1546,1051,0,0
329,-27,0,0,0,0,0,0,0,0,0,-1,1553,1051,0,0
336,-27,0,0,0,0,0,0,0,0,0,-1,1560,1051,0,0
343,-27,0,0,0,0,0,0,0,0,0,-1,1567,1051,0,0
350,-27,0,0,0,0,0,0,0,0,0,-1,1574,1051,0,0
357,-27,0,0,0,0,0,0,0,0,0,-1,1581,1051,0,0
364,-27,0,0,0,0,0,0,0,0,0,-1,1588,1051,0,0
371,-27,0,0,0,0,0,0,0,0,0,-1,1595,1051,0,0
378,-27,0,0,0,0,0,0,0,0,0,-1,1602,1051,0,0
385,-27,0,0,0,0,0,0,0,0,0,-1,1609,1051,0,0
392,-27,0,0,0,0,0,0,0,0,0,-1,1616,1051,0,0
399,-27,0,0,0,0,0,0,0,0,0,-1,1623,1051,0,0
406,-27,0,0,0,0,0,0,0,0,0,-1,1630,1051,0,0
413,-27,0,0,0,0,0,0,0,0,0,-1,1637,1051,0,0
420,-27,0,0,0,0,0,0,0,0,0,-1,1644,1051,0,0
427,-27,0,0,0,0,0,0,0,0,0,-1,1651,1051,0,0
434,-27,0,0,0,0,0,0,0,0,0,-1,1658,1051,0,0
441,-27,0,0,0,0,0,0,0,0,0,-1,1665,1051,0,0
448,-27,0,0,0,0,0,0,0,0,0,-1,1672,1051,0,0
455,-27,0,0,0,0,0,0,0,0,0,-1,1679,1051,0,0
462,-27,0,0,0,0,0,0,0,0,0,-1,1686,1051,0,0
469,-27,0,0,0,0,0,0,0,0,0,-1,1693,1051,0,0
476,-27,0,0,0,0,0,0,0,0,0,-1,1700,1051,0,0
483,-27,0,0,0,0,0,0,0,0,0,-1,1707,1051,0,0
490,-27,0,0,0,0,0,0,0,0,0,-1,1714,1051,0,0
497,-27,0,0,0,0,0,0,0,0,0,-1,1721,1051,0,0
504,-27,0,0,0,0,0,0,0,0,0,-1,1728,1051,0,0
511,-27,0,0,0,0,0,0,0,0,0,-1,1735,1051,0,0
518,-27,0,0,0,0,0,0,0,0,0,-1,1742,1051,0,0
525,-27,0,0,0,0,0,0,0,0,0,-1,1749,1051,0,0
532,-27,0,0,0,0,0,0,0,0,0,-1,1756,1051,0,0
539,-27,0,0,0,0,0,0,0,0,0,-1,1763,1051,0,0
546,-27,0,0,0,0,0,0,0,0,0,-1,1770,1051,0,0
553,-27,0,0,0,0,0,0,0,0,0,-1,1777,1051,0,0
560,-27,0,0,0,0,0,0,0,0,0,-1,1784,1051,0,0
567,-27,0,0,0,0,0,0,0,0,0,-1,1791,1051,0,0
574,-27,0,0,0,0,0,0,0,0,0,-1,1798,1051,0,0
581,-27,0,0,0,0,0,0,0,0,0,-1,1805,1051,0,0
588,-27,0,0,0,0,0,0,0,0,0,-1,1812,1051,0,0
595,-27,0,0,0,0,0,0,0,0,0,-1,1819,1051,0,0
602,-27,0,0,0,0,0,0,0,0,0,-1,1826,1051,0,0
609,-27,0,0,0,0,0,0,0,0,0,-1,1833,1051,0,0
616,-27,0,0,0,0,0,0,0,0,0,-1,1840,1051,0,0
623,-27,0,0,0,0,0,0,0,0,0,-1,1847,1051,0,0
630,-27,0,0,0,0,0,0,0,0,0,-1,1854,1051,0,0
637,-27,0,0,0,0,0,0,0,0,0,-1,1861,1051,0,0
644,-27,0,0,0,0,0,0,0,0,0,-1,1868,1051,0,0
651,-27,43.5621,2.80652,-0.0025164,0.00152839,0.00262802,0.00282211,-0.00381011,1.11335,0.00384325,0.0394356,1875,1051,43.5622,-2.80654
658,-27,43.5203,2.94324,-0.00218031,0.000796149,0.00174551,0.00160175,-0.00298591,1.1384,0.00268857,0.0399183,1882,1051,43.5203,-2.94325
665,-27,43.5182,2.8573,-0.00192888,0.00027669,0.00119887,0.000802835,-0.00245503,1.15724,0.0019599,0.0375592,1889,1051,43.5182,-2.8573
672,-27,43.4592,2.86255,-0.00162219,-5.42763e-05,0.000953432,0.000396116,-0.00207259,1.12948,0.00153094,0.0311223,1896,1051,43.4592,-2.86256
679,-27,43.4252,2.79968,-0.00130147,-0.000286234,0.000861898,0.000206419,-0.00179413,1.05153,0.00127049,0.0289397,1903,1051,43.4251,-2.79965
686,-27,43.4949,2.70447,-0.00116346,-0.000566746,0.000931128,0.000112659,-0.00184286,0.940442,0.0012678,0.0405099,1910,1051,43.4949,-2.70452
693,-27,43.5702,2.72595,-0.00107383,-0.000822701,0.0011021,0.000160967,-0.00205749,0.842119,0.00142834,0.0439405,1917,1051,43.5702,-2.72599
700,-27,43.4969,2.79272,-0.00099466,-0.000912793,0.00127228,0.000319209,-0.00222666,0.801479,0.00160148,0.0385118,1924,1051,43.497,-2.79269
707,-27,43.4385,2.80957,-0.00109886,-0.000866067,0.00134353,0.000366103,-0.00233103,0.828608,0.00168933,0.024931,1931,1051,43.4385,-2.80956
714,-27,43.5044,2.89514,-0.0013597,-0.000602993,0.00147039,0.000536942,-0.00249964,0.911324,0.00187126,0.0259694,1938,1051,43.5044,-2.89511
721,-27,43.5042,3.03577,0,0,0,0,0,0,0,-1,1945,1051,43.5042,-3.03578
728,-27,43.5737,5.8678,0,0,0,0,0,0,0,-1,1952,1051,43.5737,-5.86774
735,-27,43.1642,5.8468,-0.00294887,0.00127837,0.00162948,0.00183356,-0.00350407,1.24241,0.00313158,0.0284974,1959,1051,43.1642,-5.84677
742,-27,43.0011,5.79773,-0.00375905,0.00192611,0.0015266,0.0023101,-0.00414304,1.32437,0.00377549,0.0179721,1966,1051,43.0011,-5.79777
749,-27,43.0529,5.70508,-0.00449087,0.00287713,0.00182062,0.00330244,-0.00491619,1.3413,0.00477542,0.0143682,1973,1051,43.0528,-5.70505
756,-27,43.0375,5.56885,-0.00536314,0.00315481,0.00185333,0.00354059,-0.00574891,1.36557,0.00541358,0.013256,1980,1051,43.0374,-5.56888
763,-27,42.9962,5.44348,-0.00676393,0.00419402,0.00194719,0.00452974,-0.00709965,1.40006,0.00676866,0.0151113,1987,1051,42.9963,-5.44343
770,-27,42.937,5.33984,-0.0082612,0.00487722,0.0021955,0.00523439,-0.00861837,1.40953,0.00807704,0.0169784,1994,1051,42.937,-5.33985
777,-27,42.8737,5.31226,-0.0100094,0.00521831,0.00276739,0.00570564,-0.0104967,1.39649,0.0094898,0.0178964,2001,1051,42.8737,-5.31232
784,-27,42.8276,5.30884,-0.0119436,0.00511194,0.00348971,0.00579834,-0.01263,1.37658,0.0108806,0.02615,2008,1051,42.8278,-5.3089
791,-27,42.7524,5.28638,-0.0142272,0.00445478,0.00437159,0.00542713,-0.0151995,1.35194,0.0123463,0.0423614,2015,1051,42.7525,-5.28634
798,-27,42.8235,5.05762,-0.0169746,0.00316632,0.00542056,0.0045325,-0.0183407,1.3239,0.013985,0.0467669,2022,1051,42.8234,-5.0576
805,-27,42.7275,4.59717,-0.0202857,0.00145141,0.00657778,0.0032869,-0.0221212,1.29868,0.0159564,0.0434718,2029,1051,42.7274,-4.59715
812,-27,42.8271,4.18445,-0.0248123,-0.000420419,0.00764873,0.00177961,-0.0270123,1.29072,0.0186298,0.0458416,2036,1051,42.8271,-4.18442
-700,-34,-29.6925,4.54443,0,0,0,0,0,0,0,-1,524,1058,-29.6925,-4.54446
-693,-34,-27.3178,-0.427246,0,0,0,0,0,0,0,-1,531,1058,-27.3178,0.427291
-686,-34,-27.8285,-0.375732,-0.0154566,0.0417212,0.0206133,0.0483777,-0.0221131,1.25845,0.0416289,0.0483862,538,1058,-27.8285,0.37573
-679,-34,-29.6714,3.15637,-0.014001,0.0368751,0.0180224,0.0426124,-0.0197383,1.2626,0.0367968,0.0446398,545,1058,-29.6714,-3.15636
-672,-34,-30.0797,-0.575073,0,0,0,0,0,0,0,-1,552,1058,-30.0797,0.575111
-665,-34,-31.311,0.204956,0,0,0,0,0,0,0,-1,559,1058,-31.311,-0.204921
-658,-34,-31.3768,1.10791,-0.00855609,0.0213763,0.00926512,0.0240121,-0.0111919,1.29363,0.0207694,0.0414484,566,1058,-31.3768,-1.10788
-651,-34,-31.549,2.05884,-0.00684664,0.0169419,0.00677174,0.0187345,-0.00863923,1.31202,0.0161585,0.0308072,573,1058,-31.549,-2.0588
-644,-34,-31.6606,2.21155,-0.00562639,0.0135735,0.00478494,0.0146999,-0.00675279,1.3396,0.0126659,0.016109,580,1058,-31.6606,-2.21156
-637,-34,-31.6839,2.38,-0.00410728,0.0102343,0.00255994,0.0106775,-0.00455052,1.39935,0.00902601,0.0173958,587,1058,-31.6839,-2.38003
-630,-34,-31.6961,2.63416,-0.002337,0.00598867,-0.000110886,0.00599015,-0.00233848,-1.55748,0.00496021,0.0176625,594,1058,-31.6961,-2.63412
-623,-34,-31.707,2.82507,-0.0011997,0.0034103,-0.00181398,0.00403847,-0.00182788,-1.23742,0.00346617,0.0140492,601,1058,-31.707,-2.82505
-616,-34,-31.6985,3.021,-0.000699586,0.00238812,-0.00261155,0.00387802,-0.00218949,-1.05235,0.00354801,0.0201617,608,1058,-31.6985,-3.02097
-609,-34,-31.6763,3.18359,-8.85036e-05,0.00195069,-0.00307058,0.00416653,-0.00230434,-0.945698,0.00378717,0.0203131,615,1058,-31.6763,-3.18361
-602,-34,-31.6724,3.31116,0.000212871,0.00137903,-0.00375867,0.00459958,-0.00300768,-0.862349,0.00442399,0.0165341,622,1058,-31.6724,-3.31111
-595,-34,-31.7599,3.44324,0.000332017,0.000739579,-0.00409263,0.0046335,-0.0035619,-0.810274,0.00474508,0.0160966,629,1058,-31.7599,-3.44325
-588,-34,-31.9437,1.13062,0,0,0,0,0,0,0,-1,636,1058,-31.9437,-1.13065
-581,-34,-31.9353,1.01318,0.000950358,0.000439819,-0.00383882,0.00454238,-0.00315221,-0.752199,0.00446658,0.0205812,643,1058,-31.9353,-1.01322
-574,-34,-31.903,1.01099,0.00104585,0.000645832,-0.00351136,0.00436289,-0.00267121,-0.756949,0.0041001,0.0337383,650,1058,-31.9029,-1.01093
-567,-34,-31.8809,1.03906,0.000980809,0.00109777,-0.00288974,0.00392962,-0.00185104,-0.795516,0.00340863,0.0412781,657,1058,-31.8808,-1.03902
-560,-34,-31.9106,0.985229,0.000808805,0.00174481,-0.00194308,0.00327545,-0.000721839,-0.903575,0.00245981,0.0426079,664,1058,-31.9107,-0.985233
-553,-34,-31.9051,0.908081,0.000651109,0.0024376,-0.000659854,0.00265489,0.000433816,-1.25268,0.00164451,0.0437774,671,1058,-31.9051,-0.908138
-546,-34,-31.7612,0.694702,0.000645577,0.00293446,0.000998973,0.00330913,0.000270909,1.21198,0.00212156,0.0444016,678,1058,-31.7612,-0.694737
-539,-34,-31.7869,0.866089,0.000825127,0.00309301,0.00274837,0.00493218,-0.00101404,0.981053,0.00367309,0.0437029,685,1058,-31.7868,-0.866117
-532,-34,-31.8364,1.08142,0.00124505,0.00359472,0.0034893,0.00610166,-0.00126189,0.947786,0.00454715,0.0441518,692,1058,-31.8363,-1.08148
-525,-34,0,0,0,0,0,0,0,0,0,-1,699,1058,0,0
-518,-34,0,0,0,0,0,0,0,0,0,-1,706,1058,0,0
-511,-34,0,0,0,0,0,0,0,0,0,-1,713,1058,0,0
-504,-34,0,0,0,0,0,0,0,0,0,-1,720,1058,0,0
-497,-34,0,0,0,0,0,0,0,0,0,-1,727,1058,0,0
-490,-34,0,0,0,0,0,0,0,0,0,-1,734,1058,0,0
-483,-34,0,0,0,0,0,0,0,0,0,-1,741,1058,0,0
-476,-34,0,0,0,0,0,0,0,0,0,-1,748,1058,0,0
-469,-34,0,0,0,0,0,0,0,0,0,-1,755,1058,0,0
-462,-34,0,0,0,0,0,0,0,0,0,-1,762,1058,0,0
-455,-34,0,0,0,0,0,0,0,0,0,-1,769,1058,0,0
-448,-34,0,0,0,0,0,0,0,0,0,-1,776,1058,0,0
-441,-34,0,0,0,0,0,0,0,0,0,-1,783,1058,0,0
-434,-34,0,0,0,0,0,0,0,0,0,-1,790,1058,0,0
-427,-34,0,0,0,0,0,0,0,0,0,-1,797,1058,0,0
-420,-34,0,0,0,0,0,0,0,0,0,-1,804,1058,0,0
-413,-34,0,0,0,0,0,0,0,0,0,-1,811,1058,0,0
-406,-34,0,0,0,0,0,0,0,0,0,-1,818,1058,0,0
-399,-34,0,0,0,0,0,0,0,0,0,-1,825,1058,0,0
-392,-34,0,0,0,0,0,0,0,0,0,-1,832,1058,0,0
-385,-34,0,0,0,0,0,0,0,0,0,-1,839,1058,0,0
-378,-34,0,0,0,0,0,0,0,0,0,-1,846,1058,0,0
-371,-34,0,0,0,0,0,0,0,0,0,-1,853,1058,0,0
-364,-34,0,0,0,0,0,0,0,0,0,-1,860,1058,0,0
-357,-34,0,0,0,0,0,0,0,0,0,-1,867,1058,0,0
-350,-34,0,0,0,0,0,0,0,0,0,-1,874,1058,0,0
-343,-34,0,0,0,0,0,0,0,0,0,-1,881,1058,0,0
-336,-34,0,0,0,0,0,0,0,0,0,-1,888,1058,0,0
-329,-34,0,0,0,0,0,0,0,0,0,-1,895,1058,0,0
-322,-34,0,0,0,0,0,0,0,0,0,-1,902,1058,0,0
-315,-34,0,0,0,0,0,0,0,0,0,-1,909,1058,0,0
-308,-34,0,0,0,0,0,0,0,0,0,-1,916,1058,0,0
-301,-34,0,0,0,0,0,0,0,0,0,-1,923,1058,0,0
-294,-34,0,0,0,0,0,0,0,0,0,-1,930,1058,0,0
-287,-34,0,0,0,0,0,0,0,0,0,-1,937,1058,0,0
-280,-34,0,0,0,0,0,0,0,0,0,-1,944,1058,0,0
-273,-34,0,0,0,0,0,0,0,0,0,-1,951,1058,0,0
-266,-34,0,0,0,0,0,0,0,0,0,-1,958,1058,0,0
-259,-34,0,0,0,0,0,0,0,0,0,-1,965,1058,0,0
-252,-34,0,0,0,0,0,0,0,0,0,-1,972,1058,0,0
-245,-34,0,0,0,0,0,0,0,0,0,-1,979,1058,0,0
-238,-34,0,0,0,0,0,0,0,0,0,-1,986,1058,0,0
-231,-34,0,0,0,0,0,0,0,0,0,-1,993,1058,0,0
-224,-34,0,0,0,0,0,0,0,0,0,-1,1000,1058,0,0
-217,-34,0,0,0,0,0,0,0,0,0,-1,1007,1058,0,0
-210,-34,0,0,0,0,0,0,0,0,0,-1,1014,1058,0,0
-203,-34,0,0,0,0,0,0,0,0,0,-1,1021,1058,0,0
-196,-34,0,0,0,0,0,0,0,0,0,-1,1028,1058,0,0
-189,-34,0,0,0,0,0,0,0,0,0,-1,1035,1058,0,0
-182,-34,0,0,0,0,0,0,0,0,0,-1,1042,1058,0,0
-175,-34,0,0,0,0,0,0,0,0,0,-1,1049,1058,0,0
-168,-34,0,0,0,0,0,0,0,0,0,-1,1056,1058,0,0
-161,-34,0,0,0,0,0,0,0,0,0,-1,1063,1058,0,0
-154,-34,0,0,0,0,0,0,0,0,0,-1,1070,1058,0,0
-147,-34,0,0,0,0,0,0,0,0,0,-1,1077,1058,0,0
-140,-34,0,0,0,0,0,0,0,0,0,-1,1084,1058,0,0
-133,-34,0,0,0,0,0,0,0,0,0,-1,1091,1058,0,0
-126,-34,0,0,0,0,0,0,0,0,0,-1,1098,1058,0,0
-119,-34,0,0,0,0,0,0,0,0,0,-1,1105,1058,0,0
-112,-34,0,0,0,0,0,0,0,0,0,-1,1112,1058,0,0
-105,-34,0,0,0,0,0,0,0,0,0,-1,1119,1058,0,0
-98,-34,0,0,0,0,0,0,0,0,0,-1,1126,1058,0,0
-91,-34,0,0,0,0,0,0,0,0,0,-1,1133,1058,0,0
-84,-34,0,0,0,0,0,0,0,0,0,-1,1140,1058,0,0
-77,-34,0,0,0,0,0,0,0,0,0,-1,1147,1058,0,0
-70,-34,0,0,0,0,0,0,0,0,0,-1,1154,1058,0,0
-63,-34,0,0,0,0,0,0,0,0,0,-1,1161,1058,0,0
-56,-34,0,0,0,0,0,0,0,0,0,-1,1168,1058,0,0
-49,-34,0,0,0,0,0,0,0,0,0,-1,1175,1058,0,0
-42,-34,0,0,0,0,0,0,0,0,0,-1,1182,1058,0,0
-35,-34,0,0,0,0,0,0,0,0,0,-1,1189,1058,0,0
-28,-34,0,0,0,0,0,0,0,0,0,-1,1196,1058,0,0
-21,-34,0,0,0,0,0,0,0,0,0,-1,1203,1058,0,0
-14,-34,0,0,0,0,0,0,0,0,0,-1,1210,1058,0,0
-7,-34,0,0,0,0,0,0,0,0,0,-1,1217,1058,0,0
0,-34,0,0,0,0,0,0,0,0,0,-1,1224,1058,0,0
7,-34,0,0,0,0,0,0,0,0,0,-1,1231,1058,0,0
14,-34,0,0,0,0,0,0,0,0,0,-1,1238,1058,0,0
21,-34,0,0,0,0,0,0,0,0,0,-1,1245,1058,0,0
28,-34,0,0,0,0,0,0,0,0,0,-1,1252,1058,0,0
35,-34,0,0,0,0,0,0,0,0,0,-1,1259,1058,0,0
42,-34,0,0,0,0,0,0,0,0,0,-1,1266,1058,0,0
49,-34,0,0,0,0,0,0,0,0,0,-1,1273,1058,0,0
56,-34,0,0,0,0,0,0,0,0,0,-1,1280,1058,0,0
63,-34,0,0,0,0,0,0,0,0,0,-1,1287,1058,0,0
70,-34,0,0,0,0,0,0,0,0,0,-1,1294,1058,0,0
77,-34,0,0,0,0,0,0,0,0,0,-1,1301,1058,0,0
84,-34,0,0,0,0,0,0,0,0,0,-1,1308,1058,0,0
91,-34,0,0,0,0,0,0,0,0,0,-1,1315,1058,0,0
98,-34,0,0,0,0,0,0,0,0,0,-1,1322,1058,0,0
105,-34,0,0,0,0,0,0,0,0,0,-1,1329,1058,0,0
112,-34,0,0,0,0,0,0,0,0,0,-1,1336,1058,0,0
119,-34,0,0,0,0,0,0,0,0,0,-1,1343,1058,0,0
126,-34,0,0,0,0,0,0,0,0,0,-1,1350,1058,0,0
133,-34,0,0,0,0,0,0,0,0,0,-1,1357,1058,0,0
140,-34,0,0,0,0,0,0,0,0,0,-1,1364,1058,0,0
147,-34,0,0,0,0,0,0,0,0,0,-1,1371,1058,0,0
154,-34,0,0,0,0,0,0,0,0,0,-1,1378,1058,0,0
161,-34,0,0,0,0,0,0,0,0,0,-1,1385,1058,0,0
168,-34,0,0,0,0,0,0,0,0,0,-1,1392,1058,0,0
175,-34,0,0,0,0,0,0,0,0,0,-1,1399,1058,0,0
182,-34,0,0,0,0,0,0,0,0,0,-1,1406,1058,0,0
189,-34,0,0,0,0,0,0,0,0,0,-1,1413,1058,0,0
196,-34,0,0,0,0,0,0,0,0,0,-1,1420,1058,0,0
203,-34,0,0,0,0,0,0,0,0,0,-1,1427,1058,0,0
210,-34,0,0,0,0,0,0,0,0,0,-1,1434,1058,0,0
217,-34,0,0,0,0,0,0,0,0,0,-1,1441,1058,0,0
224,-34,0,0,0,0,0,0,0,0,0,-1,1448,1058,0,0
231,-34,0,0,0,0,0,0,0,0,0,-1,1455,1058,0,0
238,-34,0,0,0,0,0,0,0,0,0,-1,1462,1058,0,0
245,-34,0,0,0,0,0,0,0,0,0,-1,1469,1058,0,0
252,-34,0,0,0,0,0,0,0,0,0,-1,1476,1058,0,0
259,-34,0,0,0,0,0,0,0,0,0,-1,1483,1058,0,0
266,-34,0,0,0,0,0,0,0,0,0,-1,1490,1058,0,0
273,-34,0,0,0,0,0,0,0,0,0,-1,1497,1058,0,0
280,-34,0,0,0,0,0,0,0,0,0,-1,1504,1058,0,0
287,-34,0,0,0,0,0,0,0,0,0,-1,1511,1058,0,0
294,-34,0,0,0,0,0,0,0,0,0,-1,1518,1058,0,0
301,-34,0,0,0,0,0,0,0,0,0,-1,1525,1058,0,0
308,-34,0,0,0,0,0,0,0,0,0,-1,1532,1058,0,0
315,-34,0,0,0,0,0,0,0,0,0,-1,1539,1058,0,0
322,-34,0,0,0,0,0,0,0,0,0,-1,1546,1058,0,0
329,-34,0,0,0,0,0,0,0,0,0,-1,1553,1058,0,0
336,-34,0,0,0,0,0,0,0,0,0,-1,1560,1058,0,0
343,-34,0,0,0,0,0,0,0,0,0,-1,1567,1058,0,0
350,-34,0,0,0,0,0,0,0,0,0,-1,1574,1058,0,0
357,-34,0,0,0,0,0,0,0,0,0,-1,1581,1058,0,0
364,-34,0,0,0,0,0,0,0,0,0,-1,1588,1058,0,0
371,-34,0,0,0,0,0,0,0,0,0,-1,1595,1058,0,0
378,-34,0,0,0,0,0,0,0,0,0,-1,1602,1058,0,0
385,-34,0,0,0,0,0,0,0,0,0,-1,1609,1058,0,0
392,-34,0,0,0,0,0,0,0,0,0,-1,1616,1058,0,0
399,-34,0,0,0,0,0,0,0,0,0,-1,1623,1058,0,0
406,-34,0,0,0,0,0,0,0,0,0,-1,1630,1058,0,0
413,-34,0,0,0,0,0,0,0,0,0,-1,1637,1058,0,0
420,-34,0,0,0,0,0,0,0,0,0,-1,1644,1058,0,0
427,-34,0,0,0,0,0,0,0,0,0,-1,1651,1058,0,0
434,-34,0,0,0,0,0,0,0,0,0,-1,1658,1058,0,0
441,-34,0,0,0,0,0,0,0,0,0,-1,1665,1058,0,0
448,-34,0,0,0,0,0,0,0,0,0,-1,1672,1058,0,0
455,-34,0,0,0,0,0,0,0,0,0,-1,1679,1058,0,0
462,-34,0,0,0,0,0,0,0,0,0,-1,1686,1058,0,0
469,-34,0,0,0,0,0,0,0,0,0,-1,1693,1058,0,0
476,-34,0,0,0,0,0,0,0,0,0,-1,1700,1058,0,0
483,-34,0,0,0,0,0,0,0,0,0,-1,1707,1058,0,0
490,-34,0,0,0,0,0,0,0,0,0,-1,1714,1058,0,0
497,-34,0,0,0,0,0,0,0,0,0,-1,1721,1058,0,0
504,-34,0,0,0,0,0,0,0,0,0,-1,1728,1058,0,0
511,-34,0,0,0,0,0,0,0,0,0,-1,1735,1058,0,0
518,-34,0,0,0,0,0,0,0,0,0,-1,1742,1058,0,0
525,-34,0,0,0,0,0,0,0,0,0,-1,1749,1058,0,0
532,-34,0,0,0,0,0,0,0,0,0,-1,1756,1058,0,0
539,-34,0,0,0,0,0,0,0,0,0,-1,1763,1058,0,0
546,-34,0,0,0,0,0,0,0,0,0,-1,1770,1058,0,0
553,-34,0,0,0,0,0,0,0,0,0,-1,1777,1058,0,0
560,-34,0,0,0,0,0,0,0,0,0,-1,1784,1058,0,0
567,-34,0,0,0,0,0,0,0,0,0,-1,1791,1058,0,0
574,-34,0,0,0,0,0,0,0,0,0,-1,1798,1058,0,0
581,-34,0,0,0,0,0,0,0,0,0,-1,1805,1058,0,0
588,-34,0,0,0,0,0,0,0,0,0,-1,1812,1058,0,0
595,-34,0,0,0,0,0,0,0,0,0,-1,1819,1058,0,0
602,-34,0,0,0,0,0,0,0,0,0,-1,1826,1058,0,0
609,-34,0,0,0,0,0,0,0,0,0,-1,1833,1058,0,0
616,-34,0,0,0,0,0,0,0,0,0,-1,1840,1058,0,0
623,-34,0,0,0,0,0,0,0,0,0,-1,1847,1058,0,0
630,-34,0,0,0,0,0,0,0,0,0,-1,1854,1058,0,0
637,-34,0,0,0,0,0,0,0,0,0,-1,1861,1058,0,0
644,-34,0,0,0,0,0,0,0,0,0,-1,1868,1058,0,0
651,-34,43.5531,2.7616,-0.00243817,0.0016604,0.00299663,0.00324145,-0.00401922,1.08531,0.00419996,0.0382118,1875,1058,43.5531,-2.76165
658,-34,43.4705,2.88354,-0.00207681,0.000798503,0.00213733,0.00193671,-0.00321501,1.08146,0.00300471,0.0421193,1882,1058,43.4705,-2.88351
665,-34,43.4504,2.84412,-0.00182052,0.00020619,0.00153984,0.0010362,-0.00265053,1.07642,0.00219551,0.0414022,1889,1058,43.4505,-2.84417
672,-34,43.4161,2.79651,-0.00151768,-0.000172083,0.00121417,0.00054323,-0.002233,1.0384,0.00169894,0.038199,1896,1058,43.4161,-2.79654
679,-34,43.4524,2.68933,-0.0012329,-0.000444893,0.00102383,0.00025813,-0.00193592,0.96908,0.0013847,0.0380309,1903,1058,43.4524,-2.68933
686,-34,43.4972,2.66895,-0.00115215,-0.000761604,0.00102736,8.8877e-05,-0.00200264,0.879315,0.00136568,0.0432045,1910,1058,43.4972,-2.66897
693,-34,43.5441,2.70374,-0.00111023,-0.00103445,0.00115345,8.17373e-05,-0.00222641,0.801818,0.00151226,0.0446603,1917,1058,43.5441,-2.70368
700,-34,43.5243,2.86182,-0.00107013,-0.00113613,0.00131715,0.000214433,-0.0024207,0.772874,0.00168982,0.0413256,1924,1058,43.5243,-2.86187
707,-34,43.4552,2.84473,-0.00120163,-0.00110432,0.00138456,0.000232443,-0.00253838,0.802961,0.00177482,0.0276292,1931,1058,43.4552,-2.84473
714,-34,43.4664,2.91321,-0.00145631,-0.000857138,0.00150721,0.000379972,-0.00269342,0.883503,0.00193475,0.0240977,1938,1058,43.4664,-2.91318
721,-34,43.4637,3.01123,0,0,0,0,0,0,0,-1,1945,1058,43.4637,-3.01117
728,-34,43.0482,5.9425,0,0,0,0,0,0,0,-1,1952,1058,43.0482,-5.94255
735,-34,42.9003,5.8905,-0.00293511,0.000924585,0.00175169,0.00160103,-0.00361155,1.20227,0.0030832,0.019415,1959,1058,42.9003,-5.89056
742,-34,42.8475,5.79651,-0.00373469,0.00165931,0.0017235,0.00216297,-0.00423836,1.28648,0.00376,0.0160614,1966,1058,42.8476,-5.79646
749,-34,42.9031,5.68518,-0.00439677,0.00272796,0.00218655,0.00334548,-0.00501429,1.29555,0.00485846,0.0138232,1973,1058,42.9031,-5.68521
756,-34,42.925,5.54236,-0.00525934,0.00305457,0.00236605,0.00368076,-0.00588553,1.31207,0.00557178,0.0103302,1980,1058,42.9251,-5.54239
763,-34,42.8546,5.40393,-0.00677178,0.00426968,0.00261737,0.0048587,-0.00736081,1.34944,0.00710407,0.0117559,1987,1058,42.8546,-5.40388
770,-34,42.776,5.27563,-0.00843749,0.00521482,0.0031063,0.00588836,-0.00911103,1.35727,0.00872627,0.0179923,1994,1058,42.776,-5.27561
777,-34,42.7053,5.20032,-0.0105408,0.00594977,0.00400997,0.00687316,-0.0114641,1.34447,0.0106971,0.0194698,2001,1058,42.7053,-5.20029
784,-34,42.5857,5.15906,-0.0130158,0.00632602,0.00512848,0.0076017,-0.0142915,1.327,0.0128353,0.0359608,2008,1058,42.5857,-5.15903
791,-34,42.3691,5.36755,-0.0161183,0.0062713,0.00650037,0.0080217,-0.0178687,1.30776,0.015304,0.0451393,2015,1058,42.3691,-5.36759
798,-34,42.3611,5.27271,-0.0200553,0.00573499,0.00815007,0.00809463,-0.022415,1.28898,0.01825,0.0489556,2022,1058,42.361,-5.27272
805,-34,42.0974,5.09924,-0.025067,0.0049504,0.00998949,0.00797087,-0.0280874,1.27717,0.0218715,0.0462571,2029,1058,42.0973,-5.09921
812,-34,42.6057,3.98474,-0.0319935,0.004178,0.0117991,0.00768654,-0.035502,1.28177,0.026603,0.0496768,2036,1058,42.6058,-3.98474
-700,-41,-28.2501,-0.0057373,0,0,0,0,0,0,0,-1,524,1065,-28.2501,0.00570315
-693,-41,-27.7011,-0.718872,0,0,0,0,0,0,0,-1,531,1065,-27.7011,0.718897
-686,-41,-28.2804,-0.497559,-0.0147051,0.0382633,0.0213688,0.0458091,-0.0222509,1.23134,0.0400714,0.0456105,538,1065,-28.2804,0.497595
-679,-41,-28.9373,-0.189087,-0.0126555,0.0344054,0.0192206,0.0412577,-0.0195079,1.22833,0.0358243,0.046574,545,1065,-28.9372,0.189043
-672,-41,-30.3123,-0.192749,0,0,0,0,0,0,0,-1,552,1065,-30.3122,0.192771
-665,-41,-31.7469,-0.00219727,0,0,0,0,0,0,0,-1,559,1065,-31.747,0.00220116
-658,-41,-31.3515,1.03479,-0.00697843,0.0204022,0.010553,0.0239975,-0.0105737,1.24244,0.0204551,0.0393855,566,1065,-31.3515,-1.03485
-651,-41,-31.3034,1.93323,-0.00543778,0.0162133,0.00790115,0.01879,-0.00801449,1.25555,0.015887,0.0309473,573,1065,-31.3034,-1.93328
-644,-41,-31.4623,2.17102,-0.00437954,0.0129189,0.0057425,0.0146517,-0.00611229,1.27774,0.0123214,0.0174531,580,1065,-31.4623,-2.17098
-637,-41,-31.4888,2.35632,-0.00309503,0.00967138,0.0034815,0.0105591,-0.00398274,1.32114,0.00867719,0.0188737,587,1065,-31.4888,-2.35631
-630,-41,-31.4844,2.5614,-0.00158818,0.00556938,0.000765155,0.00565026,-0.00166907,1.46548,0.00442929,0.014285,594,1065,-31.4844,-2.56138
-623,-41,-31.4755,2.76416,-0.000748267,0.00292569,-0.00102872,0.00319412,-0.0010167,-1.31555,0.00253715,0.0121769,601,1065,-31.4755,-2.7642
-616,-41,-31.469,3.01404,-0.000465877,0.00182574,-0.00189248,0.00289225,-0.00153239,-1.05761,0.00259447,0.0150968,608,1065,-31.469,-3.01403
-609,-41,-31.4272,3.21912,3.70374e-05,0.00136314,-0.0023566,0.00314819,-0.00174801,-0.922532,0.00286509,0.0213868,615,1065,-31.4272,-3.21912
-602,-41,-31.4785,3.36292,0.000271366,0.00067707,-0.00307196,0.00355287,-0.00260444,-0.818367,0.00356895,0.0140167,622,1065,-31.4785,-3.36292
-595,-41,-31.6571,3.43982,0,0,0,0,0,0,0,-1,629,1065,-31.6571,-3.43986
-588,-41,-31.8157,2.13037,0,0,0,0,0,0,0,-1,636,1065,-31.8158,-2.13032
-581,-41,-31.9063,1.00659,0.000870985,-0.000263866,-0.00322833,0.00358138,-0.00297426,-0.698405,0.00379031,0.03502,643,1065,-31.9062,-1.00658
-574,-41,-31.8911,1.06995,0.000985884,-6.85584e-05,-0.00296135,0.00346658,-0.00254925,-0.697304,0.00348668,0.0388925,650,1065,-31.8911,-1.06989
-567,-41,-31.8802,1.11426,0.000986548,0.000382605,-0.00244024,0.00314343,-0.00177428,-0.723838,0.00287569,0.0441715,657,1065,-31.8803,-1.11425
-560,-41,-31.9009,0.933716,0.000920855,0.00105401,-0.00162137,0.00261017,-0.000635305,-0.805918,0.00198605,0.0420727,664,1065,-31.9009,-0.933711
-553,-41,-31.832,0.920166,0.000926589,0.00182013,-0.000468129,0.00202047,0.000726252,-1.16643,0.00118178,0.0422896,671,1065,-31.832,-0.920199
-546,-41,-31.8608,0.915527,0.00115433,0.00246673,0.00109658,0.00308845,0.000532605,1.05502,0.0019064,0.042083,678,1065,-31.8608,-0.915477
-539,-41,-31.9269,0.742554,0.00165902,0.00277346,0.00292078,0.00518969,-0.000757216,0.879655,0.00373786,0.0394793,685,1065,-31.9269,-0.742537
-532,-41,-31.8246,0.790405,0.00229927,0.00326184,0.00403389,0.00684305,-0.00128195,0.844773,0.00504395,0.0397486,692,1065,-31.8246,-0.790407
-525,-41,0,0,0,0,0,0,0,0,0,-1,699,1065,0,0
-518,-41,0,0,0,0,0,0,0,0,0,-1,706,1065,0,0
-511,-41,0,0,0,0,0,0,0,0,0,-1,713,1065,0,0
-504,-41,0,0,0,0,0,0,0,0,0,-1,720,1065,0,0
-497,-41,0,0,0,0,0,0,0,0,0,-1,727,1065,0,0
-490,-41,0,0,0,0,0,0,0,0,0,-1,734,1065,0,0
-483,-41,0,0,0,0,0,0,0,0,0,-1,741,1065,0,0
-476,-41,0,0,0,0,0,0,0,0,0,-1,748,1065,0,0
-469,-41,0,0,0,0,0,0,0,0,0,-1,755,1065,0,0
-462,-41,0,0,0,0,0,0,0,0,0,-1,762,1065,0,0
-455,-41,0,0,0,0,0,0,0,0,0,-1,769,1065,0,0
-448,-41,0,0,0,0,0,0,0,0,0,-1,776,1065,0,0
-441,-41,0,0,0,0,0,0,0,0,0,-1,783,1065,0,0
-434,-41,0,0,0,0,0,0,0,0,0,-1,790,1065,0,0
-427,-41,0,0,0,0,0,0,0,0,0,-1,797,1065,0,0
-420,-41,0,0,0,0,0,0,0,0,0,-1,804,1065,0,0
-413,-41,0,0,0,0,0,0,0,0,0,-1,811,1065,0,0
-406,-41,0,0,0,0,0,0,0,0,0,-1,818,1065,0,0
-399,-41,0,0,0,0,0,0,0,0,0,-1,825,1065,0,0
-392,-41,0,0,0,0,0,0,0,0,0,-1,832,1065,0,0
-385,-41,0,0,0,0,0,0,0,0,0,-1,839,1065,0,0
-378,-41,0,0,0,0,0,0,0,0,0,-1,846,1065,0,0
-371,-41,0,0,0,0,0,0,0,0,0,-1,853,1065,0,0
-364,-41,0,0,0,0,0,0,0,0,0,-1,860,1065,0,0
-357,-41,0,0,0,0,0,0,0,0,0,-1,867,1065,0,0
-350,-41,0,0,0,0,0,0,0,0,0,-1,874,1065,0,0
-343,-41,0,0,0,0,0,0,0,0,0,-1,881,1065,0,0
-336,-41,0,0,0,0,0,0,0,0,0,-1,888,1065,0,0
-329,-41,0,0,0,0,0,0,0,0,0,-1,895,1065,0,0
-322,-41,0,0,0,0,0,0,0,0,0,-1,902,1065,0,0
-315,-41,0,0,0,0,0,0,0,0,0,-1,909,1065,0,0
-308,-41,0,0,0,0,0,0,0,0,0,-1,916,1065,0,0
-301,-41,0,0,0,0,0,0,0,0,0,-1,923,1065,0,0
-294,-41,0,0,0,0,0,0,0,0,0,-1,930,1065,0,0
-287,-41,0,0,0,0,0,0,0,0,0,-1,937,1065,0,0
-280,-41,0,0,0,0,0,0,0,0,0,-1,944,1065,0,0
-273,-41,0,0,0,0,0,0,0,0,0,-1,951,1065,0,0
-266,-41,0,0,0,0,0,0,0,0,0,-1,958,1065,0,0
-259,-41,0,0,0,0,0,0,0,0,0,-1,965,1065,0,0
-252,-41,0,0,0,0,0,0,0,0,0,-1,972,1065,0,0
-245,-41,0,0,0,0,0,0,0,0,0,-1,979,1065,0,0
-238,-41,0,0,0,0,0,0,0,0,0,-1,986,1065,0,0
-231,-41,0,0,0,0,0,0,0,0,0,-1,993,1065,0,0
-224,-41,0,0,0,0,0,0,0,0,0,-1,1000,1065,0,0
-217,-41,0,0,0,0,0,0,0,0,0,-1,1007,1065,0,0
-210,-41,0,0,0,0,0,0,0,0,0,-1,1014,1065,0,0
-203,-41,0,0,0,0,0,0,0,0,0,-1,1021,1065,0,0
-196,-41,0,0,0,0,0,0,0,0,0,-1,1028,1065,0,0
-189,-41,0,0,0,0,0,0,0,0,0,-1,1035,1065,0,0
-182,-41,0,0,0,0,0,0,0,0,0,-1,1042,1065,0,0
-175,-41,0,0,0,0,0,0,0,0,0,-1,1049,1065,0,0
-168,-41,0,0,0,0,0,0,0,0,0,-1,1056,1065,0,0
-161,-41,0,0,0,0,0,0,0,0,0,-1,1063,1065,0,0
-154,-41,0,0,0,0,0,0,0,0,0,-1,1070,1065,0,0
-147,-41,0,0,0,0,0,0,0,0,0,-1,1077,1065,0,0
-140,-41,0,0,0,0,0,0,0,0,0,-1,1084,1065,0,0
-133,-41,0,0,0,0,0,0,0,0,0,-1,1091,1065,0,0
-126,-41,0,0,0,0,0,0,0,0,0,-1,1098,1065,0,0
-119,-41,0,0,0,0,0,0,0,0,0,-1,1105,1065,0,0
-112,-41,0,0,0,0,0,0,0,0,0,-1,1112,1065,0,0
-105,-41,0,0,0,0,0,0,0,0,0,-1,1119,1065,0,0
-98,-41,0,0,0,0,0,0,0,0,0,-1,1126,1065,0,0
-91,-41,0,0,0,0,0,0,0,0,0,-1,1133,1065,0,0
-84,-41,0,0,0,0,0,0,0,0,0,-1,1140,1065,0,0
-77,-41,0,0,0,0,0,0,0,0,0,-1,1147,1065,0,0
-70,-41,0,0,0,0,0,0,0,0,0,-1,1154,1065,0,0
-63,-41,0,0,0,0,0,0,0,0,0,-1,1161,1065,0,0
-56,-41,0,0,0,0,0,0,0,0,0,-1,1168,1065,0,0
-49,-41,0,0,0,0,0,0,0,0,0,-1,1175,1065,0,0
-42,-41,0,0,0,0,0,0,0,0,0,-1,1182,1065,0,0
-35,-41,0,0,0,0,0,0,0,0,0,-1,1189,1065,0,0
-28,-41,0,0,0,0,0,0,0,0,0,-1,1196,1065,0,0
-21,-41,0,0,0,0,0,0,0,0,0,-1,1203,1065,0,0
-14,-41,0,0,0,0,0,0,0,0,0,-1,1210,1065,0,0
-7,-41,0,0,0,0,0,0,0,0,0,-1,1217,1065,0,0
0,-41,0,0,0,0,0,0,0,0,0,-1,1224,1065,0,0
7,-41,0,0,0,0,0,0,0,0,0,-1,1231,1065,0,0
14,-41,0,0,0,0,0,0,0,0,0,-1,1238,1065,0,0
21,-41,0,0,0,0,0,0,0,0,0,-1,1245,1065,0,0
28,-41,0,0,0,0,0,0,0,0,0,-1,1252,1065,0,0
35,-41,0,0,0,0,0,0,0,0,0,-1,1259,1065,0,0
42,-41,0,0,0,0,0,0,0,0,0,-1,1266,1065,0,0
49,-41,0,0,0,0,0,0,0,0,0,-1,1273,1065,0,0
56,-41,0,0,0,0,0,0,0,0,0,-1,1280,1065,0,0
63,-41,0,0,0,0,0,0,0,0,0,-1,1287,1065,0,0
70,-41,0,0,0,0,0,0,0,0,0,-1,1294,1065,0,0
77,-41,0,0,0,0,0,0,0,0,0,-1,1301,1065,0,0
84,-41,0,0,0,0,0,0,0,0,0,-1,1308,1065,0,0
91,-41,0,0,0,0,0,0,0,0,0,-1,1315,1065,0,0
98,-41,0,0,0,0,0,0,0,0,0,-1,1322,1065,0,0
105,-41,0,0,0,0,0,0,0,0,0,-1,1329,1065,0,0
112,-41,0,0,0,0,0,0,0,0,0,-1,1336,1065,0,0
119,-41,0,0,0,0,0,0,0,0,0,-1,1343,1065,0,0
126,-41,0,0,0,0,0,0,0,0,0,-1,1350,1065,0,0
133,-41,0,0,0,0,0,0,0,0,0,-1,1357,1065,0,0
140,-41,0,0,0,0,0,0,0,0,0,-1,1364,1065,0,0
147,-41,0,0,0,0,0,0,0,0,0,-1,1371,1065,0,0
154,-41,0,0,0,0,0,0,0,0,0,-1,1378,1065,0,0
161,-41,0,0,0,0,0,0,0,0,0,-1,1385,1065,0,0
168,-41,0,0,0,0,0,0,0,0,0,-1,1392,1065,0,0
175,-41,0,0,0,0,0,0,0,0,0,-1,1399,1065,0,0
182,-41,0,0,0,0,0,0,0,0,0,-1,1406,1065,0,0
189,-41,0,0,0,0,0,0,0,0,0,-1,1413,1065,0,0
196,-41,0,0,0,0,0,0,0,0,0,-1,1420,1065,0,0
203,-41,0,0,0,0,0,0,0,0,0,-1,1427,1065,0,0
210,-41,0,0,0,0,0,0,0,0,0,-1,1434,1065,0,0
217,-41,0,0,0,0,0,0,0,0,0,-1,1441,1065,0,0
224,-41,0,0,0,0,0,0,0,0,0,-1,1448,1065,0,0
231,-41,0,0,0,0,0,0,0,0,0,-1,1455,1065,0,0
238,-41,0,0,0,0,0,0,0,0,0,-1,1462,1065,0,0
245,-41,0,0,0,0,0,0,0,0,0,-1,1469,1065,0,0
252,-41,0,0,0,0,0,0,0,0,0,-1,1476,1065,0,0
259,-41,0,0,0,0,0,0,0,0,0,-1,1483,1065,0,0
266,-41,0,0,0,0,0,0,0,0,0,-1,1490,1065,0,0
273,-41,0,0,0,0,0,0,0,0,0,-1,1497,1065,0,0
280,-41,0,0,0,0,0,0,0,0,0,-1,1504,1065,0,0
287,-41,0,0,0,0,0,0,0,0,0,-1,1511,1065,0,0
294,-41,0,0,0,0,0,0,0,0,0,-1,1518,1065,0,0
301,-41,0,0,0,0,0,0,0,0,0,-1,1525,1065,0,0
308,-41,0,0,0,0,0,0,0,0,0,-1,1532,1065,0,0
315,-41,0,0,0,0,0,0,0,0,0,-1,1539,1065,0,0
322,-41,0,0,0,0,0,0,0,0,0,-1,1546,1065,0,0
329,-41,0,0,0,0,0,0,0,0,0,-1,1553,1065,0,0
336,-41,0,0,0,0,0,0,0,0,0,-1,1560,1065,0,0
343,-41,0,0,0,0,0,0,0,0,0,-1,1567,1065,0,0
350,-41,0,0,0,0,0,0,0,0,0,-1,1574,1065,0,0
357,-41,0,0,0,0,0,0,0,0,0,-1,1581,1065,0,0
364,-41,0,0,0,0,0,0,0,0,0,-1,1588,1065,0,0
371,-41,0,0,0,0,0,0,0,0,0,-1,1595,1065,0,0
378,-41,0,0,0,0,0,0,0,0,0,-1,1602,1065,0,0
385,-41,0,0,0,0,0,0,0,0,0,-1,1609,1065,0,0
392,-41,0,0,0,0,0,0,0,0,0,-1,1616,1065,0,0
399,-41,0,0,0,0,0,0,0,0,0,-1,1623,1065,0,0
406,-41,0,0,0,0,0,0,0,0,0,-1,1630,1065,0,0
413,-41,0,0,0,0,0,0,0,0,0,-1,1637,1065,0,0
420,-41,0,0,0,0,0,0,0,0,0,-1,1644,1065,0,0
427,-41,0,0,0,0,0,0,0,0,0,-1,1651,1065,0,0
434,-41,0,0,0,0,0,0,0,0,0,-1,1658,1065,0,0
441,-41,0,0,0,0,0,0,0,0,0,-1,1665,1065,0,0
448,-41,0,0,0,0,0,0,0,0,0,-1,1672,1065,0,0
455,-41,0,0,0,0,0,0,0,0,0,-1,1679,1065,0,0
462,-41,0,0,0,0,0,0,0,0,0,-1,1686,1065,0,0
469,-41,0,0,0,0,0,0,0,0,0,-1,1693,1065,0,0
476,-41,0,0,0,0,0,0,0,0,0,-1,1700,1065,0,0
483,-41,0,0,0,0,0,0,0,0,0,-1,1707,1065,0,0
490,-41,0,0,0,0,0,0,0,0,0,-1,1714,1065,0,0
497,-41,0,0,0,0,0,0,0,0,0,-1,1721,1065,0,0
504,-41,0,0,0,0,0,0,0,0,0,-1,1728,1065,0,0
511,-41,0,0,0,0,0,0,0,0,0,-1,1735,1065,0,0
518,-41,0,0,0,0,0,0,0,0,0,-1,1742,1065,0,0
525,-41,0,0,0,0,0,0,0,0,0,-1,1749,1065,0,0
532,-41,0,0,0,0,0,0,0,0,0,-1,1756,1065,0,0
539,-41,0,0,0,0,0,0,0,0,0,-1,1763,1065,0,0
546,-41,0,0,0,0,0,0,0,0,0,-1,1770,1065,0,0
553,-41,0,0,0,0,0,0,0,0,0,-1,1777,1065,0,0
560,-41,0,0,0,0,0,0,0,0,0,-1,1784,1065,0,0
567,-41,0,0,0,0,0,0,0,0,0,-1,1791,1065,0,0
574,-41,0,0,0,0,0,0,0,0,0,-1,1798,1065,0,0
581,-41,0,0,0,0,0,0,0,0,0,-1,1805,1065,0,0
588,-41,0,0,0,0,0,0,0,0,0,-1,1812,1065,0,0
595,-41,0,0,0,0,0,0,0,0,0,-1,1819,1065,0,0
602,-41,0,0,0,0,0,0,0,0,0,-1,1826,1065,0,0
609,-41,0,0,0,0,0,0,0,0,0,-1,1833,1065,0,0
616,-41,0,0,0,0,0,0,0,0,0,-1,1840,1065,0,0
623,-41,0,0,0,0,0,0,0,0,0,-1,1847,1065,0,0
630,-41,0,0,0,0,0,0,0,0,0,-1,1854,1065,0,0
637,-41,0,0,0,0,0,0,0,0,0,-1,1861,1065,0,0
644,-41,0,0,0,0,0,0,0,0,0,-1,1868,1065,0,0
651,-41,43.5436,2.74402,-0.00229569,0.000956193,0.00353497,0.00322123,-0.00456073,1.00095,0.00451505,0.0333894,1875,1065,43.5436,-2.74406
658,-41,43.495,2.86646,-0.00186509,0.000329952,0.00260058,0.00205512,-0.00359026,0.985074,0.00329929,0.0390671,1882,1065,43.495,-2.8664
665,-41,43.4355,2.75244,-0.00159978,-0.0001107,0.00189824,0.00118379,-0.00289428,0.972292,0.00242253,0.0397015,1889,1065,43.4356,-2.75244
672,-41,43.4795,2.6178,-0.00130863,-0.000376093,0.00146254,0.0006927,-0.00237742,0.939709,0.00185937,0.0387285,1896,1065,43.4795,-2.61782
679,-41,43.434,2.88757,-0.00107836,-0.000571348,0.00115704,0.000359629,-0.00200934,0.893244,0.00147413,0.0390288,1903,1065,43.4339,-2.88751
686,-41,43.4076,3.05603,-0.00106133,-0.000850793,0.00107499,0.000124065,-0.00203619,0.834206,0.00140065,0.0417657,1910,1065,43.4076,-3.05599
693,-41,43.4957,2.82129,-0.00105984,-0.00109892,0.00113452,5.53041e-05,-0.00221406,0.776786,0.00149482,0.0466958,1917,1065,43.4957,-2.82128
700,-41,43.5306,2.90955,-0.00104736,-0.00119146,0.00126989,0.000152523,-0.00239135,0.757061,0.00164743,0.041451,1924,1065,43.5307,-2.90959
707,-41,43.4817,2.86462,-0.00120707,-0.00115258,0.00132644,0.000146892,-0.00250655,0.795666,0.00172209,0.0306038,1931,1065,43.4817,-2.86465
714,-41,43.4662,2.86621,-0.00146025,-0.000937514,0.00144102,0.000265645,-0.00266341,0.875112,0.00187046,0.0224246,1938,1065,43.4662,-2.86624
721,-41,43.4689,2.95081,0,0,0,0,0,0,0,-1,1945,1065,43.4688,-2.95077
728,-41,42.9037,5.97131,0,0,0,0,0,0,0,-1,1952,1065,42.9037,-5.97131
735,-41,42.7659,5.87769,-0.00284627,0.000691681,0.00175005,0.00141107,-0.00356566,1.18079,0.00296172,0.0192285,1959,1065,42.7659,-5.8777
742,-41,42.7059,5.77881,-0.00364246,0.00150596,0.0017731,0.00205752,-0.00419402,1.26921,0.00367892,0.0157062,1966,1065,42.7059,-5.77882
749,-41,42.7325,5.66626,-0.00428625,0.00267082,0.00237241,0.00340281,-0.00501824,1.27152,0.00489163,0.0145642,1973,1065,42.7325,-5.66621
756,-41,42.7571,5.53198,-0.0051862,0.00307147,0.00268933,0.00387008,-0.00598482,1.28213,0.00573323,0.0136744,1980,1065,42.7571,-5.53199
763,-41,42.6896,5.36438,-0.00685473,0.00446781,0.00306478,0.00524415,-0.00763108,1.3227,0.00747597,0.0113981,1987,1065,42.6896,-5.36438
770,-41,42.6136,5.22424,-0.00877942,0.00569807,0.00373987,0.00660709,-0.00968844,1.33236,0.00946413,0.0130799,1994,1065,42.6136,-5.22422
777,-41,42.5381,5.05957,-0.0113189,0.0068623,0.00487049,0.00808483,-0.0125414,1.32487,0.0120009,0.0149761,2001,1065,42.5381,-5.05961
784,-41,42.3262,5.00476,0,0,0,0,0,0,0,-1,2008,1065,42.3262,-5.00471
791,-41,42.1707,5.14246,-0.0183487,0.00828735,0.00789213,0.0104501,-0.0205115,1.30332,0.0181876,0.0434344,2015,1065,42.1707,-5.14248
798,-41,41.5737,5.27173,-0.0234566,0.0084804,0.00984602,0.0112719,-0.0262481,1.29453,0.0222299,0.0473639,2022,1065,41.5738,-5.27169
805,-41,41.6548,5.76172,-0.0300622,0.00857601,0.0119817,0.0119899,-0.0334761,1.29323,0.0272093,0.0451764,2029,1065,41.6547,-5.76171
812,-41,41.1406,5.54578,-0.0392049,0.00885051,0.0140141,0.0126387,-0.0429932,1.30679,0.0336751,0.0486145,2036,1065,41.1407,-5.54575
-700,-48,-29.6867,-0.588379,0,0,0,0,0,0,0,-1,524,1072,-29.6867,0.588371
-693,-48,-29.807,-0.595703,0,0,0,0,0,0,0,-1,531,1072,-29.807,0.595682
-686,-48,-29.3292,-0.258423,-0.014958,0.0344311,0.0212611,0.0423227,-0.0228496,1.21538,0.038183,0.0474983,538,1072,-29.3292,0.258374
-679,-48,-29.5494,-0.11792,-0.0125251,0.0312753,0.0196769,0.0388165,-0.0200663,1.20481,0.0345658,0.0454627,545,1072,-29.5494,0.117936
-672,-48,-30.202,0.277588,0,0,0,0,0,0,0,-1,552,1072,-30.202,-0.277622
-665,-48,-31.5988,0.0101318,-0.00821728,0.0229167,0.014333,0.0285102,-0.0138108,1.19872,0.0249205,0.0470926,559,1072,-31.5988,-0.0101753
-658,-48,-31.3563,0.784058,-0.0064245,0.0187936,0.011456,0.0232207,-0.0108516,1.20204,0.020099,0.0456112,566,1072,-31.3563,-0.784075
-651,-48,-31.118,1.5918,-0.00488414,0.0149801,0.00874587,0.018282,-0.00818596,1.20981,0.0156474,0.0355235,573,1072,-31.118,-1.59185
-644,-48,-31.1722,2.1217,-0.00379003,0.0119179,0.00648718,0.0142506,-0.00612274,1.22561,0.0120705,0.0201028,580,1072,-31.1722,-2.12168
-637,-48,-31.1871,2.27893,-0.00252062,0.00896932,0.00418868,0.0103342,-0.00388548,1.2558,0.00848648,0.0205691,587,1072,-31.1871,-2.27891
-630,-48,-31.1977,2.50891,-0.00104962,0.00521881,0.00142953,0.00552943,-0.00136023,1.35684,0.00421353,0.0214878,594,1072,-31.1977,-2.50887
-623,-48,-31.2667,2.74304,-0.000332016,0.00269624,-0.000463939,0.00276572,-0.000401499,-1.42213,0.00199119,0.0116029,601,1072,-31.2667,-2.74306
-616,-48,-31.2689,2.97668,-9.9255e-05,0.00158476,-0.00144141,0.00241207,-0.000926571,-1.04974,0.00199015,0.0105686,608,1072,-31.2689,-2.97665
-609,-48,-31.2256,3.20203,0.000388773,0.00110944,-0.0019534,0.00273546,-0.00123725,-0.876606,0.00234738,0.012066,615,1072,-31.2256,-3.202
-602,-48,-31.2457,3.4021,0.000622759,0.000279184,-0.00269315,0.0031496,-0.00224765,-0.753548,0.00313057,0.0126574,622,1072,-31.2457,-3.40209
-595,-48,-31.3141,3.54822,0.00058731,-0.000392563,-0.00311899,0.00325461,-0.00305986,-0.707494,0.00364624,0.0276438,629,1072,-31.3141,-3.54822
-588,-48,-31.9814,0.892212,0,0,0,0,0,0,0,-1,636,1072,-31.9814,-0.892254
-581,-48,-31.8569,0.97168,0.00106459,-0.000779663,-0.00292048,0.00320507,-0.00292014,-0.632479,0.00353767,0.0457248,643,1072,-31.8569,-0.971675
-574,-48,-31.8544,1.06116,0.00114695,-0.000685146,-0.00267582,0.00305918,-0.00259738,-0.62048,0.00326944,0.042929,650,1072,-31.8544,-1.0612
-567,-48,-31.6753,0.931519,0.00113958,-0.00034787,-0.00221,0.00272764,-0.00193593,-0.623087,0.00270542,0.0434156,657,1072,-31.6753,-0.931474
-560,-48,-31.9307,0.920288,0.00107223,0.000223155,-0.00147444,0.00218204,-0.000886651,-0.645224,0.00182357,0.0416361,664,1072,-31.9307,-0.920272
-553,-48,-31.8841,1.05176,0.00109076,0.000935051,-0.00041453,0.00143468,0.000591128,-0.692573,0.000832577,0.0402333,671,1072,-31.8841,-1.05174
-546,-48,-31.9799,0.982666,0.0013667,0.00163401,0.00105375,0.00256255,0.000438164,0.848482,0.00158266,0.0390793,678,1072,-31.9799,-0.982725
-539,-48,-31.9407,0.737793,0.00207162,0.00211463,0.00282064,0.00491385,-0.000727601,0.789209,0.00354342,0.0376168,685,1072,-31.9408,-0.737843
-532,-48,-31.8604,0.902832,0.00290061,0.00280715,0.00402311,0.00687726,-0.0011695,0.779591,0.00502028,0.0389497,692,1072,-31.8603,-0.902796
-525,-48,0,0,0,0,0,0,0,0,0,-1,699,1072,0,0
-518,-48,0,0,0,0,0,0,0,0,0,-1,706,1072,0,0
-511,-48,0,0,0,0,0,0,0,0,0,-1,713,1072,0,0
-504,-48,0,0,0,0,0,0,0,0,0,-1,720,1072,0,0
-497,-48,0,0,0,0,0,0,0,0,0,-1,727,1072,0,0
-490,-48,0,0,0,0,0,0,0,0,0,-1,734,1072,0,0
-483,-48,0,0,0,0,0,0,0,0,0,-1,741,1072,0,0
-476,-48,0,0,0,0,0,0,0,0,0,-1,748,1072,0,0
-469,-48,0,0,0,0,0,0,0,0,0,-1,755,1072,0,0
-462,-48,0,0,0,0,0,0,0,0,0,-1,762,1072,0,0
-455,-48,0,0,0,0,0,0,0,0,0,-1,769,1072,0,0
-448,-48,0,0,0,0,0,0,0,0,0,-1,776,1072,0,0
-441,-48,0,0,0,0,0,0,0,0,0,-1,783,1072,0,0
-434,-48,0,0,0,0,0,0,0,0,0,-1,790,1072,0,0
-427,-48,0,0,0,0,0,0,0,0,0,-1,797,1072,0,0
-420,-48,0,0,0,0,0,0,0,0,0,-1,804,1072,0,0
-413,-48,0,0,0,0,0,0,0,0,0,-1,811,1072,0,0
-406,-48,0,0,0,0,0,0,0,0,0,-1,818,1072,0,0
-399,-48,0,0,0,0,0,0,0,0,0,-1,825,1072,0,0
-392,-48,0,0,0,0,0,0,0,0,0,-1,832,1072,0,0
-385,-48,0,0,0,0,0,0,0,0,0,-1,839,1072,0,0
-378,-48,0,0,0,0,0,0,0,0,0,-1,846,1072,0,0
-371,-48,0,0,0,0,0,0,0,0,0,-1,853,1072,0,0
-364,-48,0,0,0,0,0,0,0,0,0,-1,860,1072,0,0
-357,-48,0,0,0,0,0,0,0,0,0,-1,867,1072,0,0
-350,-48,0,0,0,0,0,0,0,0,0,-1,874,1072,0,0
-343,-48,0,0,0,0,0,0,0,0,0,-1,881,1072,0,0
-336,-48,0,0,0,0,0,0,0,0,0,-1,888,1072,0,0
-329,-48,0,0,0,0,0,0,0,0,0,-1,895,1072,0,0
-322,-48,0,0,0,0,0,0,0,0,0,-1,902,1072,0,0
-315,-48,0,0,0,0,0,0,0,0,0,-1,909,1072,0,0
-308,-48,0,0,0,0,0,0,0,0,0,-1,916,1072,0,0
-301,-48,0,0,0,0,0,0,0,0,0,-1,923,1072,0,0
-294,-48,0,0,0,0,0,0,0,0,0,-1,930,1072,0,0
-287,-48,0,0,0,0,0,0,0,0,0,-1,937,1072,0,0
-280,-48,0,0,0,0,0,0,0,0,0,-1,944,1072,0,0
-273,-48,0,0,0,0,0,0,0,0,0,-1,951,1072,0,0
-266,-48,0,0,0,0,0,0,0,0,0,-1,958,1072,0,0
-259,-48,0,0,0,0,0,0,0,0,0,-1,965,1072,0,0
-252,-48,0,0,0,0,0,0,0,0,0,-1,972,1072,0,0
-245,-48,0,0,0,0,0,0,0,0,0,-1,979,1072,0,0
-238,-48,0,0,0,0,0,0,0,0,0,-1,986,1072,0,0
-231,-48,0,0,0,0,0,0,0,0,0,-1,993,1072,0,0
-224,-48,0,0,0,0,0,0,0,0,0,-1,1000,1072,0,0
-217,-48,0,0,0,0,0,0,0,0,0,-1,1007,1072,0,0
-210,-48,0,0,0,0,0,0,0,0,0,-1,1014,1072,0,0
-203,-48,0,0,0,0,0,0,0,0,0,-1,1021,1072,0,0
-196,-48,0,0,0,0,0,0,0,0,0,-1,1028,1072,0,0
-189,-48,0,0,0,0,0,0,0,0,0,-1,1035,1072,0,0
-182,-48,0,0,0,0,0,0,0,0,0,-1,1042,1072,0,0
-175,-48,0,0,0,0,0,0,0,0,0,-1,1049,1072,0,0
-168,-48,0,0,0,0,0,0,0,0,0,-1,1056,1072,0,0
-161,-48,0,0,0,0,0,0,0,0,0,-1,1063,1072,0,0
-154,-48,0,0,0,0,0,0,0,0,0,-1,1070,1072,0,0
-147,-48,0,0,0,0,0,0,0,0,0,-1,1077,1072,0,0
-140,-48,0,0,0,0,0,0,0,0,0,-1,1084,1072,0,0
-133,-48,0,0,0,0,0,0,0,0,0,-1,1091,1072,0,0
-126,-48,0,0,0,0,0,0,0,0,0,-1,1098,1072,0,0
-119,-48,0,0,0,0,0,0,0,0,0,-1,1105,1072,0,0
-112,-48,0,0,0,0,0,0,0,0,0,-1,1112,1072,0,0
-105,-48,0,0,0,0,0,0,0,0,0,-1,1119,1072,0,0
-98,-48,0,0,0,0,0,0,0,0,0,-1,1126,1072,0,0
-91,-48,0,0,0,0,0,0,0,0,0,-1,1133,1072,0,0
-84,-48,0,0,0,0,0,0,0,0,0,-1,1140,1072,0,0
-77,-48,0,0,0,0,0,0,0,0,0,-1,1147,1072,0,0
-70,-48,0,0,0,0,0,0,0,0,0,-1,1154,1072,0,0
-63,-48,0,0,0,0,0,0,0,0,0,-1,1161,1072,0,0
-56,-48,0,0,0,0,0,0,0,0,0,-1,1168,1072,0,0
-49,-48,0,0,0,0,0,0,0,0,0,-1,1175,1072,0,0
-42,-48,0,0,0,0,0,0,0,0,0,-1,1182,1072,0,0
-35,-48,0,0,0,0,0,0,0,0,0,-1,1189,1072,0,0
-28,-48,0,0,0,0,0,0,0,0,0,-1,1196,1072,0,0
-21,-48,0,0,0,0,0,0,0,0,0,-1,1203,1072,0,0
-14,-48,0,0,0,0,0,0,0,0,0,-1,1210,1072,0,0
-7,-48,0,0,0,0,0,0,0,0,0,-1,1217,1072,0,0
0,-48,0,0,0,0,0,0,0,0,0,-1,1224,1072,0,0
7,-48,0,0,0,0,0,0,0,0,0,-1,1231,1072,0,0
14,-48,0,0,0,0,0,0,0,0,0,-1,1238,1072,0,0
21,-48,0,0,0,0,0,0,0,0,0,-1,1245,1072,0,0
28,-48,0,0,0,0,0,0,0,0,0,-1,1252,1072,0,0
35,-48,0,0,0,0,0,0,0,0,0,-1,1259,1072,0,0
42,-48,0,0,0,0,0,0,0,0,0,-1,1266,1072,0,0
49,-48,0,0,0,0,0,0,0,0,0,-1,1273,1072,0,0
56,-48,0,0,0,0,0,0,0,0,0,-1,1280,1072,0,0
63,-48,0,0,0,0,0,0,0,0,0,-1,1287,1072,0,0
70,-48,0,0,0,0,0,0,0,0,0,-1,1294,1072,0,0
77,-48,0,0,0,0,0,0,0,0,0,-1,1301,1072,0,0
84,-48,0,0,0,0,0,0,0,0,0,-1,1308,1072,0,0
91,-48,0,0,0,0,0,0,0,0,0,-1,1315,1072,0,0
98,-48,0,0,0,0,0,0,0,0,0,-1,1322,1072,0,0
105,-48,0,0,0,0,0,0,0,0,0,-1,1329,1072,0,0
112,-48,0,0,0,0,0,0,0,0,0,-1,1336,1072,0,0
119,-48,0,0,0,0,0,0,0,0,0,-1,1343,1072,0,0
126,-48,0,0,0,0,0,0,0,0,0,-1,1350,1072,0,0
133,-48,0,0,0,0,0,0,0,0,0,-1,1357,1072,0,0
140,-48,0,0,0,0,0,0,0,0,0,-1,1364,1072,0,0
147,-48,0,0,0,0,0,0,0,0,0,-1,1371,1072,0,0
154,-48,0,0,0,0,0,0,0,0,0,-1,1378,1072,0,0
161,-48,0,0,0,0,0,0,0,0,0,-1,1385,1072,0,0
168,-48,0,0,0,0,0,0,0,0,0,-1,1392,1072,0,0
175,-48,0,0,0,0,0,0,0,0,0,-1,1399,1072,0,0
182,-48,0,0,0,0,0,0,0,0,0,-1,1406,1072,0,0
189,-48,0,0,0,0,0,0,0,0,0,-1,1413,1072,0,0
196,-48,0,0,0,0,0,0,0,0,0,-1,1420,1072,0,0
203,-48,0,0,0,0,0,0,0,0,0,-1,1427,1072,0,0
210,-48,0,0,0,0,0,0,0,0,0,-1,1434,1072,0,0
217,-48,0,0,0,0,0,0,0,0,0,-1,1441,1072,0,0
224,-48,0,0,0,0,0,0,0,0,0,-1,1448,1072,0,0
231,-48,0,0,0,0,0,0,0,0,0,-1,1455,1072,0,0
238,-48,0,0,0,0,0,0,0,0,0,-1,1462,1072,0,0
245,-48,0,0,0,0,0,0,0,0,0,-1,1469,1072,0,0
252,-48,0,0,0,0,0,0,0,0,0,-1,1476,1072,0,0
259,-48,0,0,0,0,0,0,0,0,0,-1,1483,1072,0,0
266,-48,0,0,0,0,0,0,0,0,0,-1,1490,1072,0,0
273,-48,0,0,0,0,0,0,0,0,0,-1,1497,1072,0,0
280,-48,0,0,0,0,0,0,0,0,0,-1,1504,1072,0,0
287,-48,0,0,0,0,0,0,0,0,0,-1,1511,1072,0,0
294,-48,0,0,0,0,0,0,0,0,0,-1,1518,1072,0,0
301,-48,0,0,0,0,0,0,0,0,0,-1,1525,1072,0,0
308,-48,0,0,0,0,0,0,0,0,0,-1,1532,1072,0,0
315,-48,0,0,0,0,0,0,0,0,0,-1,1539,1072,0,0
322,-48,0,0,0,0,0,0,0,0,0,-1,1546,1072,0,0
329,-48,0,0,0,0,0,0,0,0,0,-1,1553,1072,0,0
336,-48,0,0,0,0,0,0,0,0,0,-1,1560,1072,0,0
343,-48,0,0,0,0,0,0,0,0,0,-1,1567,1072,0,0
350,-48,0,0,0,0,0,0,0,0,0,-1,1574,1072,0,0
357,-48,0,0,0,0,0,0,0,0,0,-1,1581,1072,0,0
364,-48,0,0,0,0,0,0,0,0,0,-1,1588,1072,0,0
371,-48,0,0,0,0,0,0,0,0,0,-1,1595,1072,0,0
378,-48,0,0,0,0,0,0,0,0,0,-1,1602,1072,0,0
385,-48,0,0,0,0,0,0,0,0,0,-1,1609,1072,0,0
392,-48,0,0,0,0,0,0,0,0,0,-1,1616,1072,0,0
399,-48,0,0,0,0,0,0,0,0,0,-1,1623,1072,0,0
406,-48,0,0,0,0,0,0,0,0,0,-1,1630,1072,0,0
413,-48,0,0,0,0,0,0,0,0,0,-1,1637,1072,0,0
420,-48,0,0,0,0,0,0,0,0,0,-1,1644,1072,0,0
427,-48,0,0,0,0,0,0,0,0,0,-1,1651,1072,0,0
434,-48,0,0,0,0,0,0,0,0,0,-1,1658,1072,0,0
441,-48,0,0,0,0,0,0,0,0,0,-1,1665,1072,0,0
448,-48,0,0,0,0,0,0,0,0,0,-1,1672,1072,0,0
455,-48,0,0,0,0,0,0,0,0,0,-1,1679,1072,0,0
462,-48,0,0,0,0,0,0,0,0,0,-1,1686,1072,0,0
469,-48,0,0,0,0,0,0,0,0,0,-1,1693,1072,0,0
476,-48,0,0,0,0,0,0,0,0,0,-1,1700,1072,0,0
483,-48,0,0,0,0,0,0,0,0,0,-1,1707,1072,0,0
490,-48,0,0,0,0,0,0,0,0,0,-1,1714,1072,0,0
497,-48,0,0,0,0,0,0,0,0,0,-1,1721,1072,0,0
504,-48,0,0,0,0,0,0,0,0,0,-1,1728,1072,0,0
511,-48,0,0,0,0,0,0,0,0,0,-1,1735,1072,0,0
518,-48,0,0,0,0,0,0,0,0,0,-1,1742,1072,0,0
525,-48,0,0,0,0,0,0,0,0,0,-1,1749,1072,0,0
532,-48,0,0,0,0,0,0,0,0,0,-1,1756,1072,0,0
539,-48,0,0,0,0,0,0,0,0,0,-1,1763,1072,0,0
546,-48,0,0,0,0,0,0,0,0,0,-1,1770,1072,0,0
553,-48,0,0,0,0,0,0,0,0,0,-1,1777,1072,0,0
560,-48,0,0,0,0,0,0,0,0,0,-1,1784,1072,0,0
567,-48,0,0,0,0,0,0,0,0,0,-1,1791,1072,0,0
574,-48,0,0,0,0,0,0,0,0,0,-1,1798,1072,0,0
581,-48,0,0,0,0,0,0,0,0,0,-1,1805,1072,0,0
588,-48,0,0,0,0,0,0,0,0,0,-1,1812,1072,0,0
595,-48,0,0,0,0,0,0,0,0,0,-1,1819,1072,0,0
602,-48,0,0,0,0,0,0,0,0,0,-1,1826,1072,0,0
609,-48,0,0,0,0,0,0,0,0,0,-1,1833,1072,0,0
616,-48,0,0,0,0,0,0,0,0,0,-1,1840,1072,0,0
623,-48,0,0,0,0,0,0,0,0,0,-1,1847,1072,0,0
630,-48,0,0,0,0,0,0,0,0,0,-1,1854,1072,0,0
637,-48,0,0,0,0,0,0,0,0,0,-1,1861,1072,0,0
644,-48,0,0,0,0,0,0,0,0,0,-1,1868,1072,0,0
651,-48,43.5032,2.7572,-0.00184015,0.000151455,0.00387966,0.00316107,-0.00484977,0.911023,0.00465919,0.0308651,1875,1072,43.5032,-2.75715
658,-48,43.4954,2.97192,-0.0014016,-8.51881e-05,0.00287257,0.00220362,-0.0036904,0.898021,0.00343881,0.0372863,1882,1072,43.4954,-2.97198
665,-48,43.366,3.12524,-0.00118706,-0.000282198,0.00210034,0.00141389,-0.00288315,0.891481,0.00252878,0.0419433,1889,1072,43.366,-3.12524
672,-48,43.4963,3.03833,-0.000960357,-0.000379639,0.00158618,0.000942544,-0.00228254,0.875923,0.00191483,0.0408668,1896,1072,43.4964,-3.03827
679,-48,43.4467,3.04285,-0.000835588,-0.000454705,0.00119807,0.00056797,-0.00185826,0.864217,0.00146533,0.0405115,1903,1072,43.4466,-3.04282
686,-48,43.2732,3.17017,-0.000905856,-0.000665373,0.00105487,0.000276086,-0.00184732,0.842147,0.00133314,0.0402438,1910,1072,43.2732,-3.17019
693,-48,43.3915,2.88037,0,0,0,0,0,0,0,-1,1917,1072,43.3915,-2.88038
700,-48,43.4973,2.92358,-0.000974479,-0.000972765,0.0011628,0.000189176,-0.00213642,0.785767,0.00149134,0.0352817,1924,1072,43.4973,-2.92356
707,-48,43.5127,2.8269,-0.00116393,-0.000931567,0.00121479,0.000172582,-0.00226808,0.833074,0.00157274,0.0286273,1931,1072,43.5127,-2.82688
714,-48,43.4847,2.86426,-0.00142778,-0.00077222,0.0013319,0.000271646,-0.00247164,0.90605,0.00174537,0.0358684,1938,1072,43.4847,-2.86426
721,-48,43.4816,2.99438,0,0,0,0,0,0,0,-1,1945,1072,43.4816,-2.9944
728,-48,42.7122,6.14771,0,0,0,0,0,0,0,-1,1952,1072,42.7121,-6.14768
735,-48,42.6184,5.99622,-0.00270732,0.000610936,0.00169079,0.00132066,-0.00341704,1.17337,0.00282317,0.0198056,1959,1072,42.6184,-5.99618
742,-48,42.5126,5.8186,-0.00348327,0.00149461,0.00175977,0.00205388,-0.00404254,1.26308,0.00358165,0.0161375,1966,1072,42.5126,-5.81863
749,-48,42.5415,5.64343,-0.00408116,0.00273203,0.0024248,0.00350689,-0.00485602,1.2615,0.00484923,0.0148045,1973,1072,42.5415,-5.64345
756,-48,42.5266,5.49097,-0.00497557,0.00326329,0.00279319,0.00412096,-0.00583325,1.27287,0.00577534,0.0128573,1980,1072,42.5266,-5.49092
763,-48,42.4683,5.33777,-0.00672348,0.00488224,0.00319442,0.00570339,-0.00754463,1.31919,0.00767333,0.0116841,1987,1072,42.4683,-5.33777
770,-48,42.4496,5.17676,-0.0087925,0.00647735,0.00389198,0.00741212,-0.00972727,1.33508,0.00992548,0.0124568,1994,1072,42.4496,-5.17674
777,-48,42.3633,4.97998,-0.0115518,0.00815651,0.00496943,0.00933864,-0.012734,1.33726,0.0127938,0.011587,2001,1072,42.3633,-4.97995
784,-48,42.2886,4.77087,-0.014932,0.00963746,0.0062334,0.0111284,-0.016423,1.33602,0.0160044,0.0222673,2008,1072,42.2885,-4.77085
791,-48,42.0781,4.80859,0,0,0,0,0,0,0,-1,2015,1072,42.078,-4.80859
798,-48,41.071,4.39087,-0.0251232,0.0118646,0.00935888,0.0140978,-0.0273564,1.33656,0.0243382,0.044976,2022,1072,41.0709,-4.39084
805,-48,41.4009,6.47253,-0.0325942,0.0128343,0.0109832,0.0153503,-0.0351103,1.3456,0.0298687,0.0426102,2029,1072,41.4009,-6.47255
812,-48,37.6897,3.92847,-0.0429496,0.0140526,0.0121882,0.0165493,-0.0454463,1.36874,0.0370666,0.0481001,2036,1072,37.6897,-3.9285
-700,-55,-31.1306,-1.17993,0,0,0,0,0,0,0,-1,524,1079,-31.1306,1.17994
-693,-55,-30.553,-0.664063,0,0,0,0,0,0,0,-1,531,1079,-30.553,0.664102
-686,-55,-30.1368,-0.214355,-0.0144292,0.0286098,0.0205417,0.0368401,-0.0226596,1.18972,0.0346758,0.0464966,538,1079,-30.1368,0.214397
-679,-55,-30.1035,0.296265,-0.0116965,0.0269226,0.0193547,0.0349529,-0.0197267,1.17751,0.0319747,0.0480807,545,1079,-30.1035,-0.296266
-672,-55,-29.9872,0.989746,-0.0093219,0.0239791,0.0170517,0.0311614,-0.0165041,1.17215,0.02795,0.0453789,552,1079,-29.9872,-0.989688
-665,-55,-30.2697,1.54175,-0.00731893,0.0205821,0.0142909,0.0266027,-0.0133396,1.17207,0.0234807,0.0472666,559,1079,-30.2697,-1.5417
-658,-55,-31.248,1.3894,0,0,0,0,0,0,0,-1,566,1079,-31.248,-1.38946
-651,-55,-31.0124,1.27307,-0.00420898,0.0138376,0.00878837,0.0174101,-0.00778153,1.18469,0.0148943,0.0360246,573,1079,-31.0124,-1.27312
-644,-55,-30.9558,2.00012,-0.00313934,0.011069,0.00655371,0.0136302,-0.0057006,1.19824,0.0114694,0.0216505,580,1079,-30.9558,-2.00018
-637,-55,-30.9617,2.22668,-0.00193769,0.0084497,0.00437601,0.0100475,-0.00353546,1.22072,0.00813698,0.0180265,587,1079,-30.9616,-2.22668
-630,-55,-30.9424,2.50122,-0.000574628,0.00506178,0.00169973,0.00553468,-0.00104752,1.29944,0.00408399,0.0202754,594,1079,-30.9425,-2.50123
-623,-55,-31.0362,2.77368,2.60162e-05,0.00266101,-0.000117876,0.00266627,2.07536e-05,-1.52618,0.00177064,0.0176859,601,1079,-31.0362,-2.77368
-616,-55,-31.0617,2.97742,0.000237628,0.00144762,-0.00106189,0.00206477,-0.00037952,-1.04433,0.00151891,0.0159632,608,1079,-31.0617,-2.97743
-609,-55,-31.0289,3.24939,0.000733102,0.000812963,-0.00153138,0.00230493,-0.000758867,-0.798433,0.00184243,0.0158453,615,1079,-31.0289,-3.24933
-602,-55,-30.9946,3.48523,0.000949569,-0.00012219,-0.00222653,0.00270379,-0.00187642,-0.667304,0.00265873,0.0139149,622,1079,-30.9946,-3.48525
-595,-55,-30.9173,3.72046,0.000847018,-0.000783328,-0.00266408,0.00281785,-0.00275416,-0.636928,0.00321707,0.028359,629,1079,-30.9173,-3.72048
-588,-55,-30.9305,3.99548,0,0,0,0,0,0,0,-1,636,1079,-30.9305,-3.99554
-581,-55,-31.9124,1.16296,0,0,0,0,0,0,0,-1,643,1079,-31.9123,-1.1629
-574,-55,-31.8292,1.11377,0.00133605,-0.00128244,-0.0023651,0.0027301,-0.00267649,-0.532609,0.00312155,0.0398255,650,1079,-31.8292,-1.11377
-567,-55,-31.9424,0.859253,0.00134277,-0.00104911,-0.00201517,0.00249016,-0.00219649,-0.517596,0.00270761,0.0419688,657,1079,-31.9424,-0.859224
-560,-55,-31.9952,0.904663,0.001306,-0.000571056,-0.00145039,0.00209503,-0.00136009,-0.498236,0.0020098,0.0426627,664,1079,-31.9953,-0.904636
-553,-55,-31.95,0.975952,0.00137332,9.41602e-05,-0.000611901,0.00161889,-0.000151407,-0.381642,0.00113311,0.0413006,671,1079,-31.95,-0.975955
-546,-55,-31.9182,0.986816,0.00178143,0.000847923,0.000590642,0.00206749,0.000561871,0.451014,0.00123442,0.0390082,678,1079,-31.9182,-0.986849
-539,-55,-31.9067,0.897827,0.00286423,0.00147663,0.00208727,0.00436999,-2.91199e-05,0.624944,0.00292308,0.0378949,685,1079,-31.9068,-0.897792
-532,-55,-31.8851,0.965698,0.00407789,0.00230791,0.00316236,0.00647676,-9.09625e-05,0.648963,0.00434848,0.0386136,692,1079,-31.8851,-0.965644
-525,-55,0,0,0,0,0,0,0,0,0,-1,699,1079,0,0
-518,-55,0,0,0,0,0,0,0,0,0,-1,706,1079,0,0
-511,-55,0,0,0,0,0,0,0,0,0,-1,713,1079,0,0
-504,-55,0,0,0,0,0,0,0,0,0,-1,720,1079,0,0
-497,-55,0,0,0,0,0,0,0,0,0,-1,727,1079,0,0
-490,-55,0,0,0,0,0,0,0,0,0,-1,734,1079,0,0
-483,-55,0,0,0,0,0,0,0,0,0,-1,741,1079,0,0
-476,-55,0,0,0,0,0,0,0,0,0,-1,748,1079,0,0
-469,-55,0,0,0,0,0,0,0,0,0,-1,755,1079,0,0
-462,-55,0,0,0,0,0,0,0,0,0,-1,762,1079,0,0
-455,-55,0,0,0,0,0,0,0,0,0,-1,769,1079,0,0
-448,-55,0,0,0,0,0,0,0,0,0,-1,776,1079,0,0
-441,-55,0,0,0,0,0,0,0,0,0,-1,783,1079,0,0
-434,-55,0,0,0,0,0,0,0,0,0,-1,790,1079,0,0
-427,-55,0,0,0,0,0,0,0,0,0,-1,797,1079,0,0
-420,-55,0,0,0,0,0,0,0,0,0,-1,804,1079,0,0
-413,-55,0,0,0,0,0,0,0,0,0,-1,811,1079,0,0
-406,-55,0,0,0,0,0,0,0,0,0,-1,818,1079,0,0
-399,-55,0,0,0,0,0,0,0,0,0,-1,825,1079,0,0
-392,-55,0,0,0,0,0,0,0,0,0,-1,832,1079,0,0
-385,-55,0,0,0,0,0,0,0,0,0,-1,839,1079,0,0
-378,-55,0,0,0,0,0,0,0,0,0,-1,846,1079,0,0
-371,-55,0,0,0,0,0,0,0,0,0,-1,853,1079,0,0
-364,-55,0,0,0,0,0,0,0,0,0,-1,860,1079,0,0
-357,-55,0,0,0,0,0,0,0,0,0,-1,867,1079,0,0
-350,-55,0,0,0,0,0,0,0,0,0,-1,874,1079,0,0
-343,-55,0,0,0,0,0,0,0,0,0,-1,881,1079,0,0
-336,-55,0,0,0,0,0,0,0,0,0,-1,888,1079,0,0
-329,-55,0,0,0,0,0,0,0,0,0,-1,895,1079,0,0
-322,-55,0,0,0,0,0,0,0,0,0,-1,902,1079,0,0
-315,-55,0,0,0,0,0,0,0,0,0,-1,909,1079,0,0
-308,-55,0,0,0,0,0,0,0,0,0,-1,916,1079,0,0
-301,-55,0,0,0,0,0,0,0,0,0,-1,923,1079,0,0
-294,-55,0,0,0,0,0,0,0,0,0,-1,930,1079,0,0
-287,-55,0,0,0,0,0,0,0,0,0,-1,937,1079,0,0
-280,-55,0,0,0,0,0,0,0,0,0,-1,944,1079,0,0
-273,-55,0,0,0,0,0,0,0,0,0,-1,951,1079,0,0
-266,-55,0,0,0,0,0,0,0,0,0,-1,958,1079,0,0
-259,-55,0,0,0,0,0,0,0,0,0,-1,965,1079,0,0
-252,-55,0,0,0,0,0,0,0,0,0,-1,972,1079,0,0
-245,-55,0,0,0,0,0,0,0,0,0,-1,979,1079,0,0
-238,-55,0,0,0,0,0,0,0,0,0,-1,986,1079,0,0
-231,-55,0,0,0,0,0,0,0,0,0,-1,993,1079,0,0
-224,-55,0,0,0,0,0,0,0,0,0,-1,1000,1079,0,0
-217,-55,0,0,0,0,0,0,0,0,0,-1,1007,1079,0,0
-210,-55,0,0,0,0,0,0,0,0,0,-1,1014,1079,0,0
-203,-55,0,0,0,0,0,0,0,0,0,-1,1021,1079,0,0
-196,-55,0,0,0,0,0,0,0,0,0,-1,1028,1079,0,0
-189,-55,0,0,0,0,0,0,0,0,0,-1,1035,1079,0,0
-182,-55,0,0,0,0,0,0,0,0,0,-1,1042,1079,0,0
-175,-55,0,0,0,0,0,0,0,0,0,-1,1049,1079,0,0
-168,-55,0,0,0,0,0,0,0,0,0,-1,1056,1079,0,0
-161,-55,0,0,0,0,0,0,0,0,0,-1,1063,1079,0,0
-154,-55,0,0,0,0,0,0,0,0,0,-1,1070,1079,0,0
-147,-55,0,0,0,0,0,0,0,0,0,-1,1077,1079,0,0
-140,-55,0,0,0,0,0,0,0,0,0,-1,1084,1079,0,0
-133,-55,0,0,0,0,0,0,0,0,0,-1,1091,1079,0,0
-126,-55,0,0,0,0,0,0,0,0,0,-1,1098,1079,0,0
-119,-55,0,0,0,0,0,0,0,0,0,-1,1105,1079,0,0
-112,-55,0,0,0,0,0,0,0,0,0,-1,1112,1079,0,0
-105,-55,0,0,0,0,0,0,0,0,0,-1,1119,1079,0,0
-98,-55,0,0,0,0,0,0,0,0,0,-1,1126,1079,0,0
-91,-55,0,0,0,0,0,0,0,0,0,-1,1133,1079,0,0
-84,-55,0,0,0,0,0,0,0,0,0,-1,1140,1079,0,0
-77,-55,0,0,0,0,0,0,0,0,0,-1,1147,1079,0,0
-70,-55,0,0,0,0,0,0,0,0,0,-1,1154,1079,0,0
-63,-55,0,0,0,0,0,0,0,0,0,-1,1161,1079,0,0
-56,-55,0,0,0,0,0,0,0,0,0,-1,1168,1079,0,0
-49,-55,0,0,0,0,0,0,0,0,0,-1,1175,1079,0,0
-42,-55,0,0,0,0,0,0,0,0,0,-1,1182,1079,0,0
-35,-55,0,0,0,0,0,0,0,0,0,-1,1189,1079,0,0
-28,-55,0,0,0,0,0,0,0,0,0,-1,1196,1079,0,0
-21,-55,0,0,0,0,0,0,0,0,0,-1,1203,1079,0,0
-14,-55,0,0,0,0,0,0,0,0,0,-1,1210,1079,0,0
-7,-55,0,0,0,0,0,0,0,0,0,-1,1217,1079,0,0
0,-55,0,0,0,0,0,0,0,0,0,-1,1224,1079,0,0
7,-55,0,0,0,0,0,0,0,0,0,-1,1231,1079,0,0
14,-55,0,0,0,0,0,0,0,0,0,-1,1238,1079,0,0
21,-55,0,0,0,0,0,0,0,0,0,-1,1245,1079,0,0
28,-55,0,0,0,0,0,0,0,0,0,-1,1252,1079,0,0
35,-55,0,0,0,0,0,0,0,0,0,-1,1259,1079,0,0
42,-55,0,0,0,0,0,0,0,0,0,-1,1266,1079,0,0
49,-55,0,0,0,0,0,0,0,0,0,-1,1273,1079,0,0
56,-55,0,0,0,0,0,0,0,0,0,-1,1280,1079,0,0
63,-55,0,0,0,0,0,0,0,0,0,-1,1287,1079,0,0
70,-55,0,0,0,0,0,0,0,0,0,-1,1294,1079,0,0
77,-55,0,0,0,0,0,0,0,0,0,-1,1301,1079,0,0
84,-55,0,0,0,0,0,0,0,0,0,-1,1308,1079,0,0
91,-55,0,0,0,0,0,0,0,0,0,-1,1315,1079,0,0
98,-55,0,0,0,0,0,0,0,0,0,-1,1322,1079,0,0
105,-55,0,0,0,0,0,0,0,0,0,-1,1329,1079,0,0
112,-55,0,0,0,0,0,0,0,0,0,-1,1336,1079,0,0
119,-55,0,0,0,0,0,0,0,0,0,-1,1343,1079,0,0
126,-55,0,0,0,0,0,0,0,0,0,-1,1350,1079,0,0
133,-55,0,0,0,0,0,0,0,0,0,-1,1357,1079,0,0
140,-55,0,0,0,0,0,0,0,0,0,-1,1364,1079,0,0
147,-55,0,0,0,0,0,0,0,0,0,-1,1371,1079,0,0
154,-55,0,0,0,0,0,0,0,0,0,-1,1378,1079,0,0
161,-55,0,0,0,0,0,0,0,0,0,-1,1385,1079,0,0
168,-55,0,0,0,0,0,0,0,0,0,-1,1392,1079,0,0
175,-55,0,0,0,0,0,0,0,0,0,-1,1399,1079,0,0
182,-55,0,0,0,0,0,0,0,0,0,-1,1406,1079,0,0
189,-55,0,0,0,0,0,0,0,0,0,-1,1413,1079,0,0
196,-55,0,0,0,0,0,0,0,0,0,-1,1420,1079,0,0
203,-55,0,0,0,0,0,0,0,0,0,-1,1427,1079,0,0
210,-55,0,0,0,0,0,0,0,0,0,-1,1434,1079,0,0
217,-55,0,0,0,0,0,0,0,0,0,-1,1441,1079,0,0
224,-55,0,0,0,0,0,0,0,0,0,-1,1448,1079,0,0
231,-55,0,0,0,0,0,0,0,0,0,-1,1455,1079,0,0
238,-55,0,0,0,0,0,0,0,0,0,-1,1462,1079,0,0
245,-55,0,0,0,0,0,0,0,0,0,-1,1469,1079,0,0
252,-55,0,0,0,0,0,0,0,0,0,-1,1476,1079,0,0
259,-55,0,0,0,0,0,0,0,0,0,-1,1483,1079,0,0
266,-55,0,0,0,0,0,0,0,0,0,-1,1490,1079,0,0
273,-55,0,0,0,0,0,0,0,0,0,-1,1497,1079,0,0
280,-55,0,0,0,0,0,0,0,0,0,-1,1504,1079,0,0
287,-55,0,0,0,0,0,0,0,0,0,-1,1511,1079,0,0
294,-55,0,0,0,0,0,0,0,0,0,-1,1518,1079,0,0
301,-55,0,0,0,0,0,0,0,0,0,-1,1525,1079,0,0
308,-55,0,0,0,0,0,0,0,0,0,-1,1532,1079,0,0
315,-55,0,0,0,0,0,0,0,0,0,-1,1539,1079,0,0
322,-55,0,0,0,0,0,0,0,0,0,-1,1546,1079,0,0
329,-55,0,0,0,0,0,0,0,0,0,-1,1553,1079,0,0
336,-55,0,0,0,0,0,0,0,0,0,-1,1560,1079,0,0
343,-55,0,0,0,0,0,0,0,0,0,-1,1567,1079,0,0
350,-55,0,0,0,0,0,0,0,0,0,-1,1574,1079,0,0
357,-55,0,0,0,0,0,0,0,0,0,-1,1581,1079,0,0
364,-55,0,0,0,0,0,0,0,0,0,-1,1588,1079,0,0
371,-55,0,0,0,0,0,0,0,0,0,-1,1595,1079,0,0
378,-55,0,0,0,0,0,0,0,0,0,-1,1602,1079,0,0
385,-55,0,0,0,0,0,0,0,0,0,-1,1609,1079,0,0
392,-55,0,0,0,0,0,0,0,0,0,-1,1616,1079,0,0
399,-55,0,0,0,0,0,0,0,0,0,-1,1623,1079,0,0
406,-55,0,0,0,0,0,0,0,0,0,-1,1630,1079,0,0
413,-55,0,0,0,0,0,0,0,0,0,-1,1637,1079,0,0
420,-55,0,0,0,0,0,0,0,0,0,-1,1644,1079,0,0
427,-55,0,0,0,0,0,0,0,0,0,-1,1651,1079,0,0
434,-55,0,0,0,0,0,0,0,0,0,-1,1658,1079,0,0
441,-55,0,0,0,0,0,0,0,0,0,-1,1665,1079,0,0
448,-55,0,0,0,0,0,0,0,0,0,-1,1672,1079,0,0
455,-55,0,0,0,0,0,0,0,0,0,-1,1679,1079,0,0
462,-55,0,0,0,0,0,0,0,0,0,-1,1686,1079,0,0
469,-55,0,0,0,0,0,0,0,0,0,-1,1693,1079,0,0
476,-55,0,0,0,0,0,0,0,0,0,-1,1700,1079,0,0
483,-55,0,0,0,0,0,0,0,0,0,-1,1707,1079,0,0
490,-55,0,0,0,0,0,0,0,0,0,-1,1714,1079,0,0
497,-55,0,0,0,0,0,0,0,0,0,-1,1721,1079,0,0
504,-55,0,0,0,0,0,0,0,0,0,-1,1728,1079,0,0
511,-55,0,0,0,0,0,0,0,0,0,-1,1735,1079,0,0
518,-55,0,0,0,0,0,0,0,0,0,-1,1742,1079,0,0
525,-55,0,0,0,0,0,0,0,0,0,-1,1749,1079,0,0
532,-55,0,0,0,0,0,0,0,0,0,-1,1756,1079,0,0
539,-55,0,0,0,0,0,0,0,0,0,-1,1763,1079,0,0
546,-55,0,0,0,0,0,0,0,0,0,-1,1770,1079,0,0
553,-55,0,0,0,0,0,0,0,0,0,-1,1777,1079,0,0
560,-55,0,0,0,0,0,0,0,0,0,-1,1784,1079,0,0
567,-55,0,0,0,0,0,0,0,0,0,-1,1791,1079,0,0
574,-55,0,0,0,0,0,0,0,0,0,-1,1798,1079,0,0
581,-55,0,0,0,0,0,0,0,0,0,-1,1805,1079,0,0
588,-55,0,0,0,0,0,0,0,0,0,-1,1812,1079,0,0
595,-55,0,0,0,0,0,0,0,0,0,-1,1819,1079,0,0
602,-55,0,0,0,0,0,0,0,0,0,-1,1826,1079,0,0
609,-55,0,0,0,0,0,0,0,0,0,-1,1833,1079,0,0
616,-55,0,0,0,0,0,0,0,0,0,-1,1840,1079,0,0
623,-55,0,0,0,0,0,0,0,0,0,-1,1847,1079,0,0
630,-55,0,0,0,0,0,0,0,0,0,-1,1854,1079,0,0
637,-55,0,0,0,0,0,0,0,0,0,-1,1861,1079,0,0
644,-55,0,0,0,0,0,0,0,0,0,-1,1868,1079,0,0
651,-55,43.4899,2.81519,-0.000581222,-7.16541e-07,0.00365957,0.0033801,-0.00396203,0.824972,0.00424342,0.0354954,1875,1079,43.4899,-2.81524
658,-55,43.5942,2.98572,-0.000404387,-3.82975e-05,0.00275494,0.00253967,-0.00298236,0.818571,0.00319156,0.0350524,1882,1079,43.5943,-2.98569
665,-55,43.5067,3.17322,-0.000417541,-0.000112136,0.00204395,0.00178481,-0.00231448,0.822684,0.0023733,0.0384857,1889,1079,43.5067,-3.17324
672,-55,43.5952,3.16553,-0.00038204,-0.000137644,0.00153927,0.00128427,-0.00180396,0.825009,0.00179139,0.0402838,1896,1079,43.5952,-3.16553
679,-55,43.5597,3.09863,-0.000457462,-0.000172516,0.00113918,0.000833067,-0.00146304,0.847608,0.00134219,0.0385581,1903,1079,43.5596,-3.09859
686,-55,43.4004,3.05908,-0.000675678,-0.000379461,0.000980346,0.000463902,-0.00151904,0.86037,0.00119766,0.038501,1910,1079,43.4003,-3.05904
693,-55,43.413,2.95471,-0.000827232,-0.000614366,0.000965269,0.00025032,-0.00169192,0.840308,0.00121998,0.0377909,1917,1079,43.413,-2.95467
700,-55,43.4934,2.90051,-0.00092093,-0.000731973,0.00104288,0.000220699,-0.0018736,0.830572,0.00132876,0.0328696,1924,1079,43.4934,-2.90046
707,-55,43.5112,2.81775,-0.00116706,-0.000713931,0.0011029,0.00018544,-0.00206643,0.886701,0.00144341,0.0295764,1931,1079,43.5112,-2.81772
714,-55,43.4946,2.91272,-0.00147116,-0.000611587,0.001232,0.000263443,-0.00234619,0.953224,0.00165893,0.0466835,1938,1079,43.4946,-2.91274
721,-55,43.5548,3.12451,0,0,0,0,0,0,0,-1,1945,1079,43.5549,-3.12452
728,-55,42.4531,6.22546,0,0,0,0,0,0,0,-1,1952,1079,42.4531,-6.2255
735,-55,42.3619,6.03455,-0.00271241,0.000549063,0.00162883,0.00122319,-0.00338654,1.17839,0.00275739,0.0176511,1959,1079,42.3619,-6.0346
742,-55,42.3572,5.8468,-0.00344619,0.00146846,0.00174412,0.00202451,-0.00400224,1.26217,0.00354144,0.0185356,1966,1079,42.3572,-5.84679
749,-55,42.3682,5.65088,-0.00397111,0.00276502,0.00243428,0.00355262,-0.00475871,1.25788,0.00481536,0.0142722,1973,1079,42.3681,-5.6509
756,-55,42.2971,5.48523,-0.00476931,0.00345198,0.00277798,0.00430265,-0.00561997,1.27365,0.00574563,0.0114129,1980,1079,42.2972,-5.48521
763,-55,42.2563,5.32654,-0.00640686,0.00526086,0.00310198,0.00603428,-0.00718029,1.32645,0.00763899,0.0130502,1987,1079,42.2564,-5.32651
770,-55,42.2455,5.13904,-0.00834467,0.00721674,0.00366507,0.00803673,-0.00916467,1.35069,0.00993835,0.0147412,1994,1079,42.2455,-5.13901
777,-55,42.1888,4.93652,-0.0108937,0.00938216,0.00443987,0.0103117,-0.0118233,1.3644,0.0127896,0.0126122,2001,1079,42.1888,-4.93654
784,-55,42.1033,4.73047,-0.0140512,0.0114275,0.00527641,0.0124769,-0.0151006,1.37446,0.0159459,0.0271791,2008,1079,42.1034,-4.73048
791,-55,41.9922,4.52502,-0.0182239,0.0133112,0.00614008,0.0144645,-0.0193772,1.38512,0.019607,0.0395963,2015,1079,41.9922,-4.52498
798,-55,41.8933,4.28882,0,0,0,0,0,0,0,-1,2022,1079,41.8932,-4.2888
805,-55,37.3716,5.94312,0,0,0,0,0,0,0,-1,2029,1079,37.3716,-5.94316
812,-55,37.8545,4.54932,0,0,0,0,0,0,0,-1,2036,1079,37.8545,-4.54934
-700,-62,-32.4433,-1.6499,0,0,0,0,0,0,0,-1,524,1086,-32.4433,1.64992
-693,-62,-31.5734,-0.961304,0,0,0,0,0,0,0,-1,531,1086,-31.5734,0.961307
-686,-62,-30.5612,-0.276733,0,0,0,0,0,0,0,-1,538,1086,-30.5612,0.276778
-679,-62,-30.5246,0.362183,-0.00820227,0.0214295,0.0139849,0.0269874,-0.0137601,1.19252,0.0239352,0.046287,545,1086,-30.5246,-0.36219
-672,-62,-30.1276,1.02148,-0.00633952,0.0199874,0.013073,0.025376,-0.0117281,1.17982,0.0218998,0.0429511,552,1086,-30.1275,-1.02143
-665,-62,-30.3098,1.23022,-0.00486024,0.0177801,0.0113973,0.0225237,-0.00960382,1.1764,0.0190422,0.0448997,559,1086,-30.3098,-1.23026
-658,-62,-30.7679,1.35583,-0.00368778,0.0152492,0.00942297,0.0191391,-0.0075776,1.1793,0.015899,0.046371,566,1086,-30.7679,-1.35586
-651,-62,-30.749,1.47278,-0.00270401,0.0126217,0.0074167,0.0156231,-0.00570543,1.18626,0.0127501,0.0379332,573,1086,-30.749,-1.47275
-644,-62,-30.7064,1.92236,-0.00191156,0.0102409,0.00567692,0.0124802,-0.00415086,1.19508,0.00999528,0.0143581,580,1086,-30.7064,-1.92235
-637,-62,-30.7198,2.22412,-0.00104921,0.00802528,0.0040974,0.00960157,-0.0026255,1.20355,0.00743243,0.0127836,587,1086,-30.7198,-2.22413
-630,-62,-30.7364,2.51147,3.35514e-05,0.00501874,0.00184038,0.00562453,-0.000572243,1.2528,0.00395426,0.0148531,594,1086,-30.7364,-2.51148
-623,-62,-30.7839,2.77917,0.000438308,0.002717,0.000283082,0.00275165,0.000403668,1.44903,0.00171578,0.0168881,601,1086,-30.784,-2.77913
-616,-62,-30.7924,3.02588,0.000616944,0.00136831,-0.000550014,0.0016587,0.000326553,-1.08502,0.00101462,0.0160682,608,1086,-30.7924,-3.02583
-609,-62,-30.7796,3.28979,0.00110055,0.000579359,-0.000973961,0.00184818,-0.000168267,-0.654679,0.00129186,0.0148487,615,1086,-30.7796,-3.28982
-602,-62,-30.7206,3.53271,0.00127764,-0.000359037,-0.00164775,0.00229907,-0.00138047,-0.55492,0.00214634,0.0155787,622,1086,-30.7206,-3.53268
-595,-62,-30.6002,3.79749,0.00109013,-0.00102078,-0.00208086,0.00236791,-0.00229856,-0.550695,0.00269429,0.0312633,629,1086,-30.6002,-3.79753
-588,-62,-30.5422,4.07385,0,0,0,0,0,0,0,-1,636,1086,-30.5422,-4.07387
-581,-62,-31.9253,1.1781,0,0,0,0,0,0,0,-1,643,1086,-31.9253,-1.17805
-574,-62,-31.8701,1.13953,0.00161449,-0.00169707,-0.0020271,0.0025761,-0.00265868,-0.44294,0.00302243,0.0347373,650,1086,-31.8701,-1.13951
-567,-62,-31.9577,0.794556,0.0016522,-0.00157276,-0.00185093,0.00249452,-0.00241508,-0.427069,0.00283468,0.0383332,657,1086,-31.9577,-0.794552
-560,-62,-32.0128,0.839478,0.00167618,-0.0012328,-0.00153509,0.00233641,-0.00189302,-0.406176,0.00244634,0.0408312,664,1086,-32.0128,-0.839519
-553,-62,-31.8633,0.878418,0.00181074,-0.000714584,-0.00102637,0.00217528,-0.00107912,-0.341268,0.00191412,0.0394469,671,1086,-31.8634,-0.878359
-546,-62,-31.8864,0.896851,0.00238575,-9.80525e-05,-0.000224235,0.00240583,-0.000118134,-0.0893167,0.00164468,0.0336144,678,1086,-31.8863,-0.896907
-539,-62,-31.9274,1.00391,0.0039667,0.00038751,0.000859013,0.00416219,0.000192022,0.223762,0.00271305,0.0376633,685,1086,-31.9274,-1.00386
-532,-62,-31.8959,1.07031,0.0056615,0.00101468,0.00179639,0.00627497,0.000401214,0.329083,0.0040562,0.0391307,692,1086,-31.8959,-1.07033
-525,-62,0,0,0,0,0,0,0,0,0,-1,699,1086,0,0
-518,-62,0,0,0,0,0,0,0,0,0,-1,706,1086,0,0
-511,-62,0,0,0,0,0,0,0,0,0,-1,713,1086,0,0
-504,-62,0,0,0,0,0,0,0,0,0,-1,720,1086,0,0
-497,-62,0,0,0,0,0,0,0,0,0,-1,727,1086,0,0
-490,-62,0,0,0,0,0,0,0,0,0,-1,734,1086,0,0
-483,-62,0,0,0,0,0,0,0,0,0,-1,741,1086,0,0
-476,-62,0,0,0,0,0,0,0,0,0,-1,748,1086,0,0
-469,-62,0,0,0,0,0,0,0,0,0,-1,755,1086,0,0
-462,-62,0,0,0,0,0,0,0,0,0,-1,762,1086,0,0
-455,-62,0,0,0,0,0,0,0,0,0,-1,769,1086,0,0
-448,-62,0,0,0,0,0,0,0,0,0,-1,776,1086,0,0
-441,-62,0,0,0,0,0,0,0,0,0,-1,783,1086,0,0
-434,-62,0,0,0,0,0,0,0,0,0,-1,790,1086,0,0
-427,-62,0,0,0,0,0,0,0,0,0,-1,797,1086,0,0
-420,-62,0,0,0,0,0,0,0,0,0,-1,804,1086,0,0
-413,-62,0,0,0,0,0,0,0,0,0,-1,811,1086,0,0
-406,-62,0,0,0,0,0,0,0,0,0,-1,818,1086,0,0
-399,-62,0,0,0,0,0,0,0,0,0,-1,825,1086,0,0
-392,-62,0,0,0,0,0,0,0,0,0,-1,832,1086,0,0
-385,-62,0,0,0,0,0,0,0,0,0,-1,839,1086,0,0
-378,-62,0,0,0,0,0,0,0,0,0,-1,846,1086,0,0
-371,-62,0,0,0,0,0,0,0,0,0,-1,853,1086,0,0
-364,-62,0,0,0,0,0,0,0,0,0,-1,860,1086,0,0
-357,-62,0,0,0,0,0,0,0,0,0,-1,867,1086,0,0
-350,-62,0,0,0,0,0,0,0,0,0,-1,874,1086,0,0
-343,-62,0,0,0,0,0,0,0,0,0,-1,881,1086,0,0
-336,-62,0,0,0,0,0,0,0,0,0,-1,888,1086,0,0
-329,-62,0,0,0,0,0,0,0,0,0,-1,895,1086,0,0
-322,-62,0,0,0,0,0,0,0,0,0,-1,902,1086,0,0
-315,-62,0,0,0,0,0,0,0,0,0,-1,909,1086,0,0
-308,-62,0,0,0,0,0,0,0,0,0,-1,916,1086,0,0
-301,-62,0,0,0,0,0,0,0,0,0,-1,923,1086,0,0
-294,-62,0,0,0,0,0,0,0,0,0,-1,930,1086,0,0
-287,-62,0,0,0,0,0,0,0,0,0,-1,937,1086,0,0
-280,-62,0,0,0,0,0,0,0,0,0,-1,944,1086,0,0
-273,-62,0,0,0,0,0,0,0,0,0,-1,951,1086,0,0
-266,-62,0,0,0,0,0,0,0,0,0,-1,958,1086,0,0
-259,-62,0,0,0,0,0,0,0,0,0,-1,965,1086,0,0
-252,-62,0,0,0,0,0,0,0,0,0,-1,972,1086,0,0
-245,-62,0,0,0,0,0,0,0,0,0,-1,979,1086,0,0
-238,-62,0,0,0,0,0,0,0,0,0,-1,986,1086,0,0
-231,-62,0,0,0,0,0,0,0,0,0,-1,993,1086,0,0
-224,-62,0,0,0,0,0,0,0,0,0,-1,1000,1086,0,0
-217,-62,0,0,0,0,0,0,0,0,0,-1,1007,1086,0,0
-210,-62,0,0,0,0,0,0,0,0,0,-1,1014,1086,0,0
-203,-62,0,0,0,0,0,0,0,0,0,-1,1021,1086,0,0
-196,-62,0,0,0,0,0,0,0,0,0,-1,1028,1086,0,0
-189,-62,0,0,0,0,0,0,0,0,0,-1,1035,1086,0,0
-182,-62,0,0,0,0,0,0,0,0,0,-1,1042,1086,0,0
-175,-62,0,0,0,0,0,0,0,0,0,-1,1049,1086,0,0
-168,-62,0,0,0,0,0,0,0,0,0,-1,1056,1086,0,0
-161,-62,0,0,0,0,0,0,0,0,0,-1,1063,1086,0,0
-154,-62,0,0,0,0,0,0,0,0,0,-1,1070,1086,0,0
-147,-62,0,0,0,0,0,0,0,0,0,-1,1077,1086,0,0
-140,-62,0,0,0,0,0,0,0,0,0,-1,1084,1086,0,0
-133,-62,0,0,0,0,0,0,0,0,0,-1,1091,1086,0,0
-126,-62,0,0,0,0,0,0,0,0,0,-1,1098,1086,0,0
-119,-62,0,0,0,0,0,0,0,0,0,-1,1105,1086,0,0
-112,-62,0,0,0,0,0,0,0,0,0,-1,1112,1086,0,0
-105,-62,0,0,0,0,0,0,0,0,0,-1,1119,1086,0,0
-98,-62,0,0,0,0,0,0,0,0,0,-1,1126,1086,0,0
-91,-62,0,0,0,0,0,0,0,0,0,-1,1133,1086,0,0
-84,-62,0,0,0,0,0,0,0,0,0,-1,1140,1086,0,0
-77,-62,0,0,0,0,0,0,0,0,0,-1,1147,1086,0,0
-70,-62,0,0,0,0,0,0,0,0,0,-1,1154,1086,0,0
-63,-62,0,0,0,0,0,0,0,0,0,-1,1161,1086,0,0
-56,-62,0,0,0,0,0,0,0,0,0,-1,1168,1086,0,0
-49,-62,0,0,0,0,0,0,0,0,0,-1,1175,1086,0,0
-42,-62,0,0,0,0,0,0,0,0,0,-1,1182,1086,0,0
-35,-62,0,0,0,0,0,0,0,0,0,-1,1189,1086,0,0
-28,-62,0,0,0,0,0,0,0,0,0,-1,1196,1086,0,0
-21,-62,0,0,0,0,0,0,0,0,0,-1,1203,1086,0,0
-14,-62,0,0,0,0,0,0,0,0,0,-1,1210,1086,0,0
-7,-62,0,0,0,0,0,0,0,0,0,-1,1217,1086,0,0
0,-62,0,0,0,0,0,0,0,0,0,-1,1224,1086,0,0
7,-62,0,0,0,0,0,0,0,0,0,-1,1231,1086,0,0
14,-62,0,0,0,0,0,0,0,0,0,-1,1238,1086,0,0
21,-62,0,0,0,0,0,0,0,0,0,-1,1245,1086,0,0
28,-62,0,0,0,0,0,0,0,0,0,-1,1252,1086,0,0
35,-62,0,0,0,0,0,0,0,0,0,-1,1259,1086,0,0
42,-62,0,0,0,0,0,0,0,0,0,-1,1266,1086,0,0
49,-62,0,0,0,0,0,0,0,0,0,-1,1273,1086,0,0
56,-62,0,0,0,0,0,0,0,0,0,-1,1280,1086,0,0
63,-62,0,0,0,0,0,0,0,0,0,-1,1287,1086,0,0
70,-62,0,0,0,0,0,0,0,0,0,-1,1294,1086,0,0
77,-62,0,0,0,0,0,0,0,0,0,-1,1301,1086,0,0
84,-62,0,0,0,0,0,0,0,0,0,-1,1308,1086,0,0
91,-62,0,0,0,0,0,0,0,0,0,-1,1315,1086,0,0
98,-62,0,0,0,0,0,0,0,0,0,-1,1322,1086,0,0
105,-62,0,0,0,0,0,0,0,0,0,-1,1329,1086,0,0
112,-62,0,0,0,0,0,0,0,0,0,-1,1336,1086,0,0
119,-62,0,0,0,0,0,0,0,0,0,-1,1343,1086,0,0
126,-62,0,0,0,0,0,0,0,0,0,-1,1350,1086,0,0
133,-62,0,0,0,0,0,0,0,0,0,-1,1357,1086,0,0
140,-62,0,0,0,0,0,0,0,0,0,-1,1364,1086,0,0
147,-62,0,0,0,0,0,0,0,0,0,-1,1371,1086,0,0
154,-62,0,0,0,0,0,0,0,0,0,-1,1378,1086,0,0
161,-62,0,0,0,0,0,0,0,0,0,-1,1385,1086,0,0
168,-62,0,0,0,0,0,0,0,0,0,-1,1392,1086,0,0
175,-62,0,0,0,0,0,0,0,0,0,-1,1399,1086,0,0
182,-62,0,0,0,0,0,0,0,0,0,-1,1406,1086,0,0
189,-62,0,0,0,0,0,0,0,0,0,-1,1413,1086,0,0
196,-62,0,0,0,0,0,0,0,0,0,-1,1420,1086,0,0
203,-62,0,0,0,0,0,0,0,0,0,-1,1427,1086,0,0
210,-62,0,0,0,0,0,0,0,0,0,-1,1434,1086,0,0
217,-62,0,0,0,0,0,0,0,0,0,-1,1441,1086,0,0
224,-62,0,0,0,0,0,0,0,0,0,-1,1448,1086,0,0
231,-62,0,0,0,0,0,0,0,0,0,-1,1455,1086,0,0
238,-62,0,0,0,0,0,0,0,0,0,-1,1462,1086,0,0
245,-62,0,0,0,0,0,0,0,0,0,-1,1469,1086,0,0
252,-62,0,0,0,0,0,0,0,0,0,-1,1476,1086,0,0
259,-62,0,0,0,0,0,0,0,0,0,-1,1483,1086,0,0
266,-62,0,0,0,0,0,0,0,0,0,-1,1490,1086,0,0
273,-62,0,0,0,0,0,0,0,0,0,-1,1497,1086,0,0
280,-62,0,0,0,0,0,0,0,0,0,-1,1504,1086,0,0
287,-62,0,0,0,0,0,0,0,0,0,-1,1511,1086,0,0
294,-62,0,0,0,0,0,0,0,0,0,-1,1518,1086,0,0
301,-62,0,0,0,0,0,0,0,0,0,-1,1525,1086,0,0
308,-62,0,0,0,0,0,0,0,0,0,-1,1532,1086,0,0
315,-62,0,0,0,0,0,0,0,0,0,-1,1539,1086,0,0
322,-62,0,0,0,0,0,0,0,0,0,-1,1546,1086,0,0
329,-62,0,0,0,0,0,0,0,0,0,-1,1553,1086,0,0
336,-62,0,0,0,0,0,0,0,0,0,-1,1560,1086,0,0
343,-62,0,0,0,0,0,0,0,0,0,-1,1567,1086,0,0
350,-62,0,0,0,0,0,0,0,0,0,-1,1574,1086,0,0
357,-62,0,0,0,0,0,0,0,0,0,-1,1581,1086,0,0
364,-62,0,0,0,0,0,0,0,0,0,-1,1588,1086,0,0
371,-62,0,0,0,0,0,0,0,0,0,-1,1595,1086,0,0
378,-62,0,0,0,0,0,0,0,0,0,-1,1602,1086,0,0
385,-62,0,0,0,0,0,0,0,0,0,-1,1609,1086,0,0
392,-62,0,0,0,0,0,0,0,0,0,-1,1616,1086,0,0
399,-62,0,0,0,0,0,0,0,0,0,-1,1623,1086,0,0
406,-62,0,0,0,0,0,0,0,0,0,-1,1630,1086,0,0
413,-62,0,0,0,0,0,0,0,0,0,-1,1637,1086,0,0
420,-62,0,0,0,0,0,0,0,0,0,-1,1644,1086,0,0
427,-62,0,0,0,0,0,0,0,0,0,-1,1651,1086,0,0
434,-62,0,0,0,0,0,0,0,0,0,-1,1658,1086,0,0
441,-62,0,0,0,0,0,0,0,0,0,-1,1665,1086,0,0
448,-62,0,0,0,0,0,0,0,0,0,-1,1672,1086,0,0
455,-62,0,0,0,0,0,0,0,0,0,-1,1679,1086,0,0
462,-62,0,0,0,0,0,0,0,0,0,-1,1686,1086,0,0
469,-62,0,0,0,0,0,0,0,0,0,-1,1693,1086,0,0
476,-62,0,0,0,0,0,0,0,0,0,-1,1700,1086,0,0
483,-62,0,0,0,0,0,0,0,0,0,-1,1707,1086,0,0
490,-62,0,0,0,0,0,0,0,0,0,-1,1714,1086,0,0
497,-62,0,0,0,0,0,0,0,0,0,-1,1721,1086,0,0
504,-62,0,0,0,0,0,0,0,0,0,-1,1728,1086,0,0
511,-62,0,0,0,0,0,0,0,0,0,-1,1735,1086,0,0
518,-62,0,0,0,0,0,0,0,0,0,-1,1742,1086,0,0
525,-62,0,0,0,0,0,0,0,0,0,-1,1749,1086,0,0
532,-62,0,0,0,0,0,0,0,0,0,-1,1756,1086,0,0
539,-62,0,0,0,0,0,0,0,0,0,-1,1763,1086,0,0
546,-62,0,0,0,0,0,0,0,0,0,-1,1770,1086,0,0
553,-62,0,0,0,0,0,0,0,0,0,-1,1777,1086,0,0
560,-62,0,0,0,0,0,0,0,0,0,-1,1784,1086,0,0
567,-62,0,0,0,0,0,0,0,0,0,-1,1791,1086,0,0
574,-62,0,0,0,0,0,0,0,0,0,-1,1798,1086,0,0
581,-62,0,0,0,0,0,0,0,0,0,-1,1805,1086,0,0
588,-62,0,0,0,0,0,0,0,0,0,-1,1812,1086,0,0
595,-62,0,0,0,0,0,0,0,0,0,-1,1819,1086,0,0
602,-62,0,0,0,0,0,0,0,0,0,-1,1826,1086,0,0
609,-62,0,0,0,0,0,0,0,0,0,-1,1833,1086,0,0
616,-62,0,0,0,0,0,0,0,0,0,-1,1840,1086,0,0
623,-62,0,0,0,0,0,0,0,0,0,-1,1847,1086,0,0
630,-62,0,0,0,0,0,0,0,0,0,-1,1854,1086,0,0
637,-62,0,0,0,0,0,0,0,0,0,-1,1861,1086,0,0
644,-62,0,0,0,0,0,0,0,0,0,-1,1868,1086,0,0
651,-62,43.4899,2.88013,0.000633038,0.000668883,0.00333869,0.00398969,-0.00268777,0.788082,0.00387959,0.0406056,1875,1086,43.4899,-2.88018
658,-62,43.6241,2.90515,0.000597544,0.000481238,0.00257026,0.00311031,-0.00203153,0.774087,0.00299034,0.0376607,1882,1086,43.6241,-2.90519
665,-62,43.4811,2.85718,0.000404425,0.00030411,0.00194235,0.00229727,-0.00158873,0.772489,0.00225598,0.0378914,1889,1086,43.4811,-2.85721
672,-62,43.5059,2.90662,0.000275695,0.000200672,0.00146701,0.00170568,-0.00122931,0.772616,0.00170194,0.0384101,1896,1086,43.5058,-2.90658
679,-62,43.533,2.94666,2.12645e-05,0.000102342,0.00107599,0.00113855,-0.00101495,0.804227,0.00124401,0.0366946,1903,1086,43.5329,-2.9467
686,-62,43.549,2.9917,-0.000322454,-0.00014288,0.000917184,0.000688901,-0.00115423,0.83419,0.00107538,0.0375451,1910,1086,43.5489,-2.9917
693,-62,43.5045,3.04749,-0.000556929,-0.000400256,0.000888441,0.000413296,-0.00137048,0.829371,0.00107816,0.0377383,1917,1086,43.5045,-3.04751
700,-62,43.5181,2.95496,-0.000714186,-0.000550267,0.000944431,0.000315755,-0.00158021,0.828681,0.00117298,0.0329203,1924,1086,43.518,-2.95497
707,-62,43.4581,2.80542,-0.00101788,-0.000554379,0.00101457,0.000254571,-0.00182683,0.897683,0.00131101,0.0268197,1931,1086,43.4581,-2.80537
714,-62,43.5007,2.82727,-0.00136733,-0.000489571,0.0011533,0.000305536,-0.00216244,0.967209,0.00155352,0.0400689,1938,1086,43.5008,-2.82725
721,-62,43.6382,3.02478,0,0,0,0,0,0,0,-1,1945,1086,43.6382,-3.02475
728,-62,42.2174,6.3429,0,0,0,0,0,0,0,-1,1952,1086,42.2175,-6.3429
735,-62,42.1882,6.06238,-0.00262503,0.000508973,0.00153693,0.00113688,-0.00325294,1.18294,0.00263079,0.0221087,1959,1086,42.1882,-6.06237
742,-62,42.1492,5.87939,-0.00331545,0.00141164,0.0016423,0.0019262,-0.00383001,1.26717,0.00338339,0.0226659,1966,1086,42.1492,-5.87934
749,-62,42.1128,5.65735,-0.00379646,0.0026778,0.0022709,0.00339491,-0.00451357,1.26492,0.00458117,0.0179169,1973,1086,42.1128,-5.65733
756,-62,42.0527,5.52087,-0.00452632,0.00347672,0.00255185,0.00422115,-0.00527075,1.28695,0.00549131,0.0141571,1980,1086,42.0527,-5.52084
763,-62,42.0333,5.30359,-0.00602661,0.00535961,0.00274366,0.00598624,-0.00665324,1.34625,0.0073008,0.015164,1987,1086,42.0333,-5.30361
770,-62,42.0352,5.05957,-0.00779439,0.00750908,0.00308436,0.00810733,-0.00839265,1.37921,0.00952674,0.0127112,1994,1086,42.0351,-5.05954
777,-62,41.9365,4.81299,-0.0100722,0.00996458,0.00352265,0.0105659,-0.0106735,1.40174,0.0122626,0.0139067,2001,1086,41.9366,-4.81296
784,-62,41.8496,4.58667,-0.0129293,0.0123902,0.00395826,0.0129946,-0.0135337,1.41928,0.0153172,0.0263038,2008,1086,41.8497,-4.58666
791,-62,41.6289,4.36328,-0.016749,0.0147747,0.00433236,0.0153592,-0.0173336,1.43668,0.0188867,0.0410508,2015,1086,41.6288,-4.36325
798,-62,41.4473,4.12646,0,0,0,0,0,0,0,-1,2022,1086,41.4473,-4.12644
805,-62,36.8052,6.40955,0,0,0,0,0,0,0,-1,2029,1086,36.8051,-6.40953
812,-62,37.9436,4.96802,0,0,0,0,0,0,0,-1,2036,1086,37.9436,-4.96802
-700,-69,-30.7788,-2.86829,0,0,0,0,0,0,0,-1,524,1093,-30.7788,2.86831
-693,-69,-30.0419,-1.91443,0,0,0,0,0,0,0,-1,531,1093,-30.0419,1.91441
-686,-69,-31.3885,0.196045,0,0,0,0,0,0,0,-1,538,1093,-31.3885,-0.196105
-679,-69,-31.001,0.460938,-0.00409707,0.0163144,0.00380355,0.0170002,-0.0047828,1.39243,0.0132193,0.0474434,545,1093,-31.001,-0.460942
-672,-69,-30.5322,0.713867,-0.00312775,0.0160423,0.00511544,0.0173219,-0.00440737,1.32568,0.0132634,0.0430659,552,1093,-30.5322,-0.713866
-665,-69,-30.1574,1.14209,-0.00243258,0.0148622,0.00538769,0.0164033,-0.00397364,1.2922,0.0124729,0.0449142,559,1093,-30.1574,-1.14207
-658,-69,-30.3403,1.41736,-0.00192939,0.0131746,0.00505707,0.0147114,-0.00346621,1.27577,0.0111442,0.0462132,566,1093,-30.3403,-1.41737
-651,-69,-30.38,1.62769,-0.00145333,0.0111942,0.00438195,0.0125641,-0.00282316,1.26781,0.00945859,0.0349018,573,1093,-30.38,-1.62771
-644,-69,-30.3989,1.90417,-0.000976651,0.00920288,0.00363346,0.0103667,-0.0021405,1.26081,0.00772416,0.0106437,580,1093,-30.3989,-1.90412
-637,-69,-30.4285,2.22363,-0.000459701,0.007384,0.00306766,0.00844125,-0.00151695,1.2389,0.00619537,0.0119022,587,1093,-30.4285,-2.2236
-630,-69,-30.4474,2.48291,0.000355569,0.00478585,0.0015434,0.00527051,-0.00012909,1.26653,0.00355748,0.0146596,594,1093,-30.4474,-2.48288
-623,-69,-30.438,2.75244,0.000622085,0.00262017,0.000432826,0.0027099,0.000532356,1.36638,0.00165788,0.0152455,601,1093,-30.438,-2.75242
-616,-69,-30.449,3.0033,0.000873512,0.00124129,-0.000248358,0.00136643,0.000748375,-1.10407,0.000790102,0.0169178,608,1093,-30.4491,-3.00331
-609,-69,-30.4685,3.24463,0.0014265,0.000436968,-0.000615355,0.00172133,0.000142143,-0.4468,0.00110323,0.0146685,615,1093,-30.4685,-3.24464
-602,-69,-30.43,3.55688,0.00161181,-0.000438127,-0.00123312,0.00219033,-0.00101664,-0.438659,0.00189242,0.0180137,622,1093,-30.43,-3.55688
-595,-69,-30.317,3.77979,0.00138222,-0.00104497,-0.00166447,0.00222854,-0.00189129,-0.470397,0.00238124,0.031001,629,1093,-30.317,-3.7798
-588,-69,-30.2769,3.98364,0,0,0,0,0,0,0,-1,636,1093,-30.2768,-3.98368
-581,-69,-31.8607,1.13379,0,0,0,0,0,0,0,-1,643,1093,-31.8607,-1.13373
-574,-69,-31.8723,1.05408,0.00194426,-0.0017626,-0.00181087,0.00268205,-0.0025004,-0.386892,0.0029927,0.0311913,650,1093,-31.8723,-1.05402
-567,-69,-31.9741,0.863037,0.00198963,-0.00171429,-0.00177085,0.00270002,-0.00242469,-0.381507,0.00296018,0.0367889,657,1093,-31.9741,-0.863096
-560,-69,-31.9969,0.847046,0.00202669,-0.00149827,-0.00165824,0.00268415,-0.00215573,-0.377468,0.00279985,0.0408005,664,1093,-31.997,-0.847097
-553,-69,-31.7733,0.787964,0.00211366,-0.00115501,-0.00144349,0.00265986,-0.0017012,-0.361735,0.00253805,0.0423746,671,1093,-31.7733,-0.787961
-546,-69,-31.8955,0.80542,0.00264299,-0.000755337,-0.00102658,0.00292903,-0.00104137,-0.27174,0.0023771,0.0386948,678,1093,-31.8955,-0.805392
-539,-69,-31.9464,0.975098,0.0043703,-0.000556363,-0.00039377,0.00440158,-0.000587637,-0.0792557,0.0031486,0.0405466,685,1093,-31.9464,-0.975156
-532,-69,-31.8028,1.1178,0.00628175,-0.000246199,0.000272911,0.00629314,-0.000257588,0.0417095,0.00428387,0.0408669,692,1093,-31.8028,-1.11774
-525,-69,0,0,0,0,0,0,0,0,0,-1,699,1093,0,0
-518,-69,0,0,0,0,0,0,0,0,0,-1,706,1093,0,0
-511,-69,0,0,0,0,0,0,0,0,0,-1,713,1093,0,0
-504,-69,0,0,0,0,0,0,0,0,0,-1,720,1093,0,0
-497,-69,0,0,0,0,0,0,0,0,0,-1,727,1093,0,0
-490,-69,0,0,0,0,0,0,0,0,0,-1,734,1093,0,0
-483,-69,0,0,0,0,0,0,0,0,0,-1,741,1093,0,0
-476,-69,0,0,0,0,0,0,0,0,0,-1,748,1093,0,0
-469,-69,0,0,0,0,0,0,0,0,0,-1,755,1093,0,0
-462,-69,0,0,0,0,0,0,0,0,0,-1,762,1093,0,0
-455,-69,0,0,0,0,0,0,0,0,0,-1,769,1093,0,0
-448,-69,0,0,0,0,0,0,0,0,0,-1,776,1093,0,0
-441,-69,0,0,0,0,0,0,0,0,0,-1,783,1093,0,0
-434,-69,0,0,0,0,0,0,0,0,0,-1,790,1093,0,0
-427,-69,0,0,0,0,0,0,0,0,0,-1,797,1093,0,0
-420,-69,0,0,0,0,0,0,0,0,0,-1,804,1093,0,0
-413,-69,0,0,0,0,0,0,0,0,0,-1,811,1093,0,0
-406,-69,0,0,0,0,0,0,0,0,0,-1,818,1093,0,0
-399,-69,0,0,0,0,0,0,0,0,0,-1,825,1093,0,0
-392,-69,0,0,0,0,0,0,0,0,0,-1,832,1093,0,0
-385,-69,0,0,0,0,0,0,0,0,0,-1,839,1093,0,0
-378,-69,0,0,0,0,0,0,0,0,0,-1,846,1093,0,0
-371,-69,0,0,0,0,0,0,0,0,0,-1,853,1093,0,0
-364,-69,0,0,0,0,0,0,0,0,0,-1,860,1093,0,0
-357,-69,0,0,0,0,0,0,0,0,0,-1,867,1093,0,0
-350,-69,0,0,0,0,0,0,0,0,0,-1,874,1093,0,0
-343,-69,0,0,0,0,0,0,0,0,0,-1,881,1093,0,0
-336,-69,0,0,0,0,0,0,0,0,0,-1,888,1093,0,0
-329,-69,0,0,0,0,0,0,0,0,0,-1,895,1093,0,0
-322,-69,0,0,0,0,0,0,0,0,0,-1,902,1093,0,0
-315,-69,0,0,0,0,0,0,0,0,0,-1,909,1093,0,0
-308,-69,0,0,0,0,0,0,0,0,0,-1,916,1093,0,0
-301,-69,0,0,0,0,0,0,0,0,0,-1,923,1093,0,0
-294,-69,0,0,0,0,0,0,0,0,0,-1,930,1093,0,0
-287,-69,0,0,0,0,0,0,0,0,0,-1,937,1093,0,0
-280,-69,0,0,0,0,0,0,0,0,0,-1,944,1093,0,0
-273,-69,0,0,0,0,0,0,0,0,0,-1,951,1093,0,0
-266,-69,0,0,0,0,0,0,0,0,0,-1,958,1093,0,0
-259,-69,0,0,0,0,0,0,0,0,0,-1,965,1093,0,0
-252,-69,0,0,0,0,0,0,0,0,0,-1,972,1093,0,0
-245,-69,0,0,0,0,0,0,0,0,0,-1,979,1093,0,0
-238,-69,0,0,0,0,0,0,0,0,0,-1,986,1093,0,0
-231,-69,0,0,0,0,0,0,0,0,0,-1,993,1093,0,0
-224,-69,0,0,0,0,0,0,0,0,0,-1,1000,1093,0,0
-217,-69,0,0,0,0,0,0,0,0,0,-1,1007,1093,0,0
-210,-69,0,0,0,0,0,0,0,0,0,-1,1014,1093,0,0
-203,-69,0,0,0,0,0,0,0,0,0,-1,1021,1093,0,0
-196,-69,0,0,0,0,0,0,0,0,0,-1,1028,1093,0,0
-189,-69,0,0,0,0,0,0,0,0,0,-1,1035,1093,0,0
-182,-69,0,0,0,0,0,0,0,0,0,-1,1042,1093,0,0
-175,-69,0,0,0,0,0,0,0,0,0,-1,1049,1093,0,0
-168,-69,0,0,0,0,0,0,0,0,0,-1,1056,1093,0,0
-161,-69,0,0,0,0,0,0,0,0,0,-1,1063,1093,0,0
-154,-69,0,0,0,0,0,0,0,0,0,-1,1070,1093,0,0
-147,-69,0,0,0,0,0,0,0,0,0,-1,1077,1093,0,0
-140,-69,0,0,0,0,0,0,0,0,0,-1,1084,1093,0,0
-133,-69,0,0,0,0,0,0,0,0,0,-1,1091,1093,0,0
-126,-69,0,0,0,0,0,0,0,0,0,-1,1098,1093,0,0
-119,-69,0,0,0,0,0,0,0,0,0,-1,1105,1093,0,0
-112,-69,0,0,0,0,0,0,0,0,0,-1,1112,1093,0,0
-105,-69,0,0,0,0,0,0,0,0,0,-1,1119,1093,0,0
-98,-69,0,0,0,0,0,0,0,0,0,-1,1126,1093,0,0
-91,-69,0,0,0,0,0,0,0,0,0,-1,1133,1093,0,0
-84,-69,0,0,0,0,0,0,0,0,0,-1,1140,1093,0,0
-77,-69,0,0,0,0,0,0,0,0,0,-1,1147,1093,0,0
-70,-69,0,0,0,0,0,0,0,0,0,-1,1154,1093,0,0
-63,-69,0,0,0,0,0,0,0,0,0,-1,1161,1093,0,0
-56,-69,0,0,0,0,0,0,0,0,0,-1,1168,1093,0,0
-49,-69,0,0,0,0,0,0,0,0,0,-1,1175,1093,0,0
-42,-69,0,0,0,0,0,0,0,0,0,-1,1182,1093,0,0
-35,-69,0,0,0,0,0,0,0,0,0,-1,1189,1093,0,0
-28,-69,0,0,0,0,0,0,0,0,0,-1,1196,1093,0,0
-21,-69,0,0,0,0,0,0,0,0,0,-1,1203,1093,0,0
-14,-69,0,0,0,0,0,0,0,0,0,-1,1210,1093,0,0
-7,-69,0,0,0,0,0,0,0,0,0,-1,1217,1093,0,0
0,-69,0,0,0,0,0,0,0,0,0,-1,1224,1093,0,0
7,-69,0,0,0,0,0,0,0,0,0,-1,1231,1093,0,0
14,-69,0,0,0,0,0,0,0,0,0,-1,1238,1093,0,0
21,-69,0,0,0,0,0,0,0,0,0,-1,1245,1093,0,0
28,-69,0,0,0,0,0,0,0,0,0,-1,1252,1093,0,0
35,-69,0,0,0,0,0,0,0,0,0,-1,1259,1093,0,0
42,-69,0,0,0,0,0,0,0,0,0,-1,1266,1093,0,0
49,-69,0,0,0,0,0,0,0,0,0,-1,1273,1093,0,0
56,-69,0,0,0,0,0,0,0,0,0,-1,1280,1093,0,0
63,-69,0,0,0,0,0,0,0,0,0,-1,1287,1093,0,0
70,-69,0,0,0,0,0,0,0,0,0,-1,1294,1093,0,0
77,-69,0,0,0,0,0,0,0,0,0,-1,1301,1093,0,0
84,-69,0,0,0,0,0,0,0,0,0,-1,1308,1093,0,0
91,-69,0,0,0,0,0,0,0,0,0,-1,1315,1093,0,0
98,-69,0,0,0,0,0,0,0,0,0,-1,1322,1093,0,0
105,-69,0,0,0,0,0,0,0,0,0,-1,1329,1093,0,0
112,-69,0,0,0,0,0,0,0,0,0,-1,1336,1093,0,0
119,-69,0,0,0,0,0,0,0,0,0,-1,1343,1093,0,0
126,-69,0,0,0,0,0,0,0,0,0,-1,1350,1093,0,0
133,-69,0,0,0,0,0,0,0,0,0,-1,1357,1093,0,0
140,-69,0,0,0,0,0,0,0,0,0,-1,1364,1093,0,0
147,-69,0,0,0,0,0,0,0,0,0,-1,1371,1093,0,0
154,-69,0,0,0,0,0,0,0,0,0,-1,1378,1093,0,0
161,-69,0,0,0,0,0,0,0,0,0,-1,1385,1093,0,0
168,-69,0,0,0,0,0,0,0,0,0,-1,1392,1093,0,0
175,-69,0,0,0,0,0,0,0,0,0,-1,1399,1093,0,0
182,-69,0,0,0,0,0,0,0,0,0,-1,1406,1093,0,0
189,-69,0,0,0,0,0,0,0,0,0,-1,1413,1093,0,0
196,-69,0,0,0,0,0,0,0,0,0,-1,1420,1093,0,0
203,-69,0,0,0,0,0,0,0,0,0,-1,1427,1093,0,0
210,-69,0,0,0,0,0,0,0,0,0,-1,1434,1093,0,0
217,-69,0,0,0,0,0,0,0,0,0,-1,1441,1093,0,0
224,-69,0,0,0,0,0,0,0,0,0,-1,1448,1093,0,0
231,-69,0,0,0,0,0,0,0,0,0,-1,1455,1093,0,0
238,-69,0,0,0,0,0,0,0,0,0,-1,1462,1093,0,0
245,-69,0,0,0,0,0,0,0,0,0,-1,1469,1093,0,0
252,-69,0,0,0,0,0,0,0,0,0,-1,1476,1093,0,0
259,-69,0,0,0,0,0,0,0,0,0,-1,1483,1093,0,0
266,-69,0,0,0,0,0,0,0,0,0,-1,1490,1093,0,0
273,-69,0,0,0,0,0,0,0,0,0,-1,1497,1093,0,0
280,-69,0,0,0,0,0,0,0,0,0,-1,1504,1093,0,0
287,-69,0,0,0,0,0,0,0,0,0,-1,1511,1093,0,0
294,-69,0,0,0,0,0,0,0,0,0,-1,1518,1093,0,0
301,-69,0,0,0,0,0,0,0,0,0,-1,1525,1093,0,0
308,-69,0,0,0,0,0,0,0,0,0,-1,1532,1093,0,0
315,-69,0,0,0,0,0,0,0,0,0,-1,1539,1093,0,0
322,-69,0,0,0,0,0,0,0,0,0,-1,1546,1093,0,0
329,-69,0,0,0,0,0,0,0,0,0,-1,1553,1093,0,0
336,-69,0,0,0,0,0,0,0,0,0,-1,1560,1093,0,0
343,-69,0,0,0,0,0,0,0,0,0,-1,1567,1093,0,0
350,-69,0,0,0,0,0,0,0,0,0,-1,1574,1093,0,0
357,-69,0,0,0,0,0,0,0,0,0,-1,1581,1093,0,0
364,-69,0,0,0,0,0,0,0,0,0,-1,1588,1093,0,0
371,-69,0,0,0,0,0,0,0,0,0,-1,1595,1093,0,0
378,-69,0,0,0,0,0,0,0,0,0,-1,1602,1093,0,0
385,-69,0,0,0,0,0,0,0,0,0,-1,1609,1093,0,0
392,-69,0,0,0,0,0,0,0,0,0,-1,1616,1093,0,0
399,-69,0,0,0,0,0,0,0,0,0,-1,1623,1093,0,0
406,-69,0,0,0,0,0,0,0,0,0,-1,1630,1093,0,0
413,-69,0,0,0,0,0,0,0,0,0,-1,1637,1093,0,0
420,-69,0,0,0,0,0,0,0,0,0,-1,1644,1093,0,0
427,-69,0,0,0,0,0,0,0,0,0,-1,1651,1093,0,0
434,-69,0,0,0,0,0,0,0,0,0,-1,1658,1093,0,0
441,-69,0,0,0,0,0,0,0,0,0,-1,1665,1093,0,0
448,-69,0,0,0,0,0,0,0,0,0,-1,1672,1093,0,0
455,-69,0,0,0,0,0,0,0,0,0,-1,1679,1093,0,0
462,-69,0,0,0,0,0,0,0,0,0,-1,1686,1093,0,0
469,-69,0,0,0,0,0,0,0,0,0,-1,1693,1093,0,0
476,-69,0,0,0,0,0,0,0,0,0,-1,1700,1093,0,0
483,-69,0,0,0,0,0,0,0,0,0,-1,1707,1093,0,0
490,-69,0,0,0,0,0,0,0,0,0,-1,1714,1093,0,0
497,-69,0,0,0,0,0,0,0,0,0,-1,1721,1093,0,0
504,-69,0,0,0,0,0,0,0,0,0,-1,1728,1093,0,0
511,-69,0,0,0,0,0,0,0,0,0,-1,1735,1093,0,0
518,-69,0,0,0,0,0,0,0,0,0,-1,1742,1093,0,0
525,-69,0,0,0,0,0,0,0,0,0,-1,1749,1093,0,0
532,-69,0,0,0,0,0,0,0,0,0,-1,1756,1093,0,0
539,-69,0,0,0,0,0,0,0,0,0,-1,1763,1093,0,0
546,-69,0,0,0,0,0,0,0,0,0,-1,1770,1093,0,0
553,-69,0,0,0,0,0,0,0,0,0,-1,1777,1093,0,0
560,-69,0,0,0,0,0,0,0,0,0,-1,1784,1093,0,0
567,-69,0,0,0,0,0,0,0,0,0,-1,1791,1093,0,0
574,-69,0,0,0,0,0,0,0,0,0,-1,1798,1093,0,0
581,-69,0,0,0,0,0,0,0,0,0,-1,1805,1093,0,0
588,-69,0,0,0,0,0,0,0,0,0,-1,1812,1093,0,0
595,-69,0,0,0,0,0,0,0,0,0,-1,1819,1093,0,0
602,-69,0,0,0,0,0,0,0,0,0,-1,1826,1093,0,0
609,-69,0,0,0,0,0,0,0,0,0,-1,1833,1093,0,0
616,-69,0,0,0,0,0,0,0,0,0,-1,1840,1093,0,0
623,-69,0,0,0,0,0,0,0,0,0,-1,1847,1093,0,0
630,-69,0,0,0,0,0,0,0,0,0,-1,1854,1093,0,0
637,-69,0,0,0,0,0,0,0,0,0,-1,1861,1093,0,0
644,-69,0,0,0,0,0,0,0,0,0,-1,1868,1093,0,0
651,-69,43.4137,2.94983,0.00140827,0.00119411,0.00316513,0.00446814,-0.00186575,0.768489,0.00375835,0.0418754,1875,1093,43.4137,-2.94981
658,-69,43.4501,2.81335,0.00130052,0.000827114,0.00246297,0.00353813,-0.0014105,0.737493,0.0029438,0.0403083,1882,1093,43.45,-2.81341
665,-69,43.4139,2.80933,0.001028,0.000541777,0.00186163,0.00266232,-0.00109255,0.720471,0.00223013,0.0413842,1889,1093,43.4139,-2.80936
672,-69,43.3113,2.85376,0.000811005,0.000364086,0.00136353,0.00196927,-0.000794177,0.704179,0.00164285,0.0401905,1896,1093,43.3113,-2.8538
679,-69,43.3827,2.87952,0.000442483,0.000217549,0.0009351,0.00127185,-0.000611823,0.725549,0.00110957,0.0374984,1903,1093,43.3827,-2.87957
686,-69,43.5424,2.81104,3.4701e-05,-3.67773e-05,0.000742162,0.000741984,-0.00074406,0.761339,0.000857968,0.0374407,1910,1093,43.5424,-2.81108
693,-69,43.4685,2.81079,-0.000235879,-0.000284202,0.000679314,0.000419703,-0.000939784,0.767622,0.000803818,0.0358088,1917,1093,43.4684,-2.81078
700,-69,43.4823,2.75879,-0.00041959,-0.0004504,0.000693643,0.000258819,-0.00112881,0.774296,0.000852018,0.0306379,1924,1093,43.4823,-2.75879
707,-69,43.4495,2.77661,-0.000756894,-0.000443204,0.000764573,0.000180445,-0.00138054,0.886565,0.00098603,0.0250079,1931,1093,43.4494,-2.77656
714,-69,43.4803,2.76868,-0.00113838,-0.000375915,0.000911771,0.000231117,-0.00174541,0.983413,0.0012478,0.0316722,1938,1093,43.4803,-2.76869
721,-69,43.5428,2.77844,0,0,0,0,0,0,0,-1,1945,1093,43.5429,-2.77839
728,-69,41.6649,6.50085,0,0,0,0,0,0,0,-1,1952,1093,41.665,-6.5009
735,-69,41.9143,6.17969,-0.00240444,0.000527177,0.00128701,0.00101201,-0.00288927,1.21053,0.00233771,0.0307075,1959,1093,41.9143,-6.17963
742,-69,41.8964,5.95825,-0.00306422,0.00140155,0.00139429,0.00180112,-0.00346379,1.2917,0.00308981,0.0235248,1966,1093,41.8964,-5.95826
749,-69,41.7449,5.70898,-0.00353092,0.00262506,0.00196977,0.00320139,-0.00410724,1.28616,0.00423043,0.0242659,1973,1093,41.7449,-5.70897
756,-69,41.801,5.50818,-0.00423368,0.00354012,0.00218018,0.00410981,-0.00480337,1.31521,0.00515122,0.016065,1980,1093,41.801,-5.50818
763,-69,41.7822,5.26526,-0.00561476,0.00547641,0.00224357,0.00591306,-0.00605141,1.37858,0.00690784,0.0164647,1987,1093,41.7822,-5.26529
770,-69,41.7289,5.05762,-0.00724012,0.0077859,0.00234123,0.00814224,-0.00759646,1.41975,0.00908857,0.0166796,1994,1093,41.7289,-5.05767
777,-69,41.6571,4.84839,-0.00926498,0.0104791,0.00241169,0.0107694,-0.0095553,1.451,0.0117415,0.022403,2001,1093,41.6571,-4.84836
784,-69,41.6157,4.42834,-0.0118133,0.0132467,0.00240943,0.0134762,-0.0120429,1.47581,0.0147412,0.0341903,2008,1093,41.6156,-4.42829
791,-69,41.5264,3.8728,-0.0151964,0.0161165,0.00224459,0.0162766,-0.0153564,1.4996,0.0182659,0.0443974,2015,1093,41.5264,-3.87277
798,-69,41.4409,3.33923,0,0,0,0,0,0,0,-1,2022,1093,41.441,-3.33923
805,-69,38.2725,5.39636,0,0,0,0,0,0,0,-1,2029,1093,38.2723,-5.39634
812,-69,38.8511,4.63892,0,0,0,0,0,0,0,-1,2036,1093,38.851,-4.63897
-700,-76,0,0,0,0,0,0,0,0,0,-1,524,1100,0,0
-693,-76,-28.7539,-0.802979,0,0,0,0,0,0,0,-1,531,1100,-28.7539,0.802918
-686,-76,-32.0041,0.263428,0,0,0,0,0,0,0,-1,538,1100,-32.0041,-0.263374
-679,-76,-31.4502,0.455933,-0.000410683,0.0154235,-0.00594839,0.0174091,-0.0023963,-1.24862,0.0124818,0.0440642,545,1100,-31.4502,-0.4559
-672,-76,-30.6203,0.619995,-0.000279103,0.014919,-0.00307998,0.0155195,-0.000879554,-1.37826,0.0106516,0.0444374,552,1100,-30.6203,-0.619973
-665,-76,-30.1681,0.901611,-0.000345714,0.0137735,-0.00112015,0.0138618,-0.00043403,-1.49212,0.0093892,0.0465487,559,1100,-30.1681,-0.901598
-658,-76,-30.1281,1.15454,-0.000500532,0.0122387,0.000152191,0.0122405,-0.00050235,1.55885,0.00833281,0.0443873,566,1100,-30.1281,-1.15452
-651,-76,-30.0256,1.51294,-0.00052148,0.0104474,0.000875628,0.0105168,-0.00059094,1.49164,0.00721628,0.0295856,573,1100,-30.0256,-1.51298
-644,-76,-30.0451,1.88953,-0.000344893,0.00852906,0.00119709,0.00868771,-0.000503542,1.43903,0.00596674,0.0106718,580,1100,-30.0451,-1.88952
-637,-76,-30.1121,2.17773,-0.000178755,0.00686971,0.00171113,0.00726315,-0.000572196,1.34479,0.00504366,0.0127174,587,1100,-30.1121,-2.17768
-630,-76,-30.1307,2.44873,0.000382243,0.0045794,0.000989498,0.00480098,0.000160662,1.3505,0.00314847,0.0148772,594,1100,-30.1307,-2.44872
-623,-76,-30.1282,2.73206,0.000547751,0.00255467,0.000349335,0.00261374,0.000488683,1.40329,0.0016046,0.0158153,601,1100,-30.1282,-2.73205
-616,-76,-30.1697,3.03369,0.000900095,0.0012306,-0.000210485,0.00133295,0.000797742,-1.11819,0.000774541,0.0151783,608,1100,-30.1697,-3.03366
-609,-76,-30.1791,3.29907,0.00153859,0.000453187,-0.000540542,0.00176186,0.000229919,-0.391701,0.00110593,0.0156872,615,1100,-30.1791,-3.29911
-602,-76,-30.1245,3.58057,0.00175373,-0.000296302,-0.00109294,0.0022271,-0.000769673,-0.408727,0.0017971,0.0186169,622,1100,-30.1245,-3.58053
-595,-76,-30.0673,3.81396,0.0014939,-0.00081451,-0.00148886,0.00222355,-0.00154416,-0.455672,0.00218704,0.027275,629,1100,-30.0672,-3.81393
-588,-76,-30.0326,4.04248,0,0,0,0,0,0,0,-1,636,1100,-30.0326,-4.04252
-581,-76,-31.8472,1.02405,0,0,0,0,0,0,0,-1,643,1100,-31.8472,-1.02407
-574,-76,-31.8292,1.00818,0.00211633,-0.00146613,-0.00171893,0.00280769,-0.00215748,-0.382402,0.00287483,0.0322122,650,1100,-31.8292,-1.00818
-567,-76,-31.7892,1.01587,0.00218983,-0.00144626,-0.00174076,0.00288883,-0.00214526,-0.381842,0.00291698,0.0389149,657,1100,-31.7892,-1.01583
-560,-76,-31.754,1.0531,0.00227777,-0.00130786,-0.00173055,0.00297674,-0.00200683,-0.383863,0.00289537,0.0417808,664,1100,-31.754,-1.05311
-553,-76,-31.7141,0.828247,0.00236977,-0.00109923,-0.00169028,0.00305716,-0.00178662,-0.386243,0.00282844,0.0450741,671,1100,-31.7141,-0.828292
-546,-76,-31.8084,0.6875,0.00290399,-0.000885322,-0.00154593,0.00345466,-0.00143599,-0.342193,0.00290269,0.0433511,678,1100,-31.8084,-0.687505
-539,-76,-31.9355,0.776611,0.00480837,-0.000943017,-0.00130413,0.00509027,-0.00122491,-0.212881,0.00386703,0.0420471,685,1100,-31.9355,-0.776617
-532,-76,-31.7291,0.903076,0.00699274,-0.000864047,-0.00110247,0.00714451,-0.00101582,-0.136802,0.00513521,0.0412714,692,1100,-31.7292,-0.903052
-525,-76,0,0,0,0,0,0,0,0,0,-1,699,1100,0,0
-518,-76,0,0,0,0,0,0,0,0,0,-1,706,1100,0,0
-511,-76,0,0,0,0,0,0,0,0,0,-1,713,1100,0,0
-504,-76,0,0,0,0,0,0,0,0,0,-1,720,1100,0,0
-497,-76,0,0,0,0,0,0,0,0,0,-1,727,1100,0,0
-490,-76,0,0,0,0,0,0,0,0,0,-1,734,1100,0,0
-483,-76,0,0,0,0,0,0,0,0,0,-1,741,1100,0,0
-476,-76,0,0,0,0,0,0,0,0,0,-1,748,1100,0,0
-469,-76,0,0,0,0,0,0,0,0,0,-1,755,1100,0,0
-462,-76,0,0,0,0,0,0,0,0,0,-1,762,1100,0,0
-455,-76,0,0,0,0,0,0,0,0,0,-1,769,1100,0,0
-448,-76,0,0,0,0,0,0,0,0,0,-1,776,1100,0,0
-441,-76,0,0,0,0,0,0,0,0,0,-1,783,1100,0,0
-434,-76,0,0,0,0,0,0,0,0,0,-1,790,1100,0,0
-427,-76,0,0,0,0,0,0,0,0,0,-1,797,1100,0,0
-420,-76,0,0,0,0,0,0,0,0,0,-1,804,1100,0,0
-413,-76,0,0,0,0,0,0,0,0,0,-1,811,1100,0,0
-406,-76,0,0,0,0,0,0,0,0,0,-1,818,1100,0,0
-399,-76,0,0,0,0,0,0,0,0,0,-1,825,1100,0,0
-392,-76,0,0,0,0,0,0,0,0,0,-1,832,1100,0,0
-385,-76,0,0,0,0,0,0,0,0,0,-1,839,1100,0,0
-378,-76,0,0,0,0,0,0,0,0,0,-1,846,1100,0,0
-371,-76,0,0,0,0,0,0,0,0,0,-1,853,1100,0,0
-364,-76,0,0,0,0,0,0,0,0,0,-1,860,1100,0,0
-357,-76,0,0,0,0,0,0,0,0,0,-1,867,1100,0,0
-350,-76,0,0,0,0,0,0,0,0,0,-1,874,1100,0,0
-343,-76,0,0,0,0,0,0,0,0,0,-1,881,1100,0,0
-336,-76,0,0,0,0,0,0,0,0,0,-1,888,1100,0,0
-329,-76,0,0,0,0,0,0,0,0,0,-1,895,1100,0,0
-322,-76,0,0,0,0,0,0,0,0,0,-1,902,1100,0,0
-315,-76,0,0,0,0,0,0,0,0,0,-1,909,1100,0,0
-308,-76,0,0,0,0,0,0,0,0,0,-1,916,1100,0,0
-301,-76,0,0,0,0,0,0,0,0,0,-1,923,1100,0,0
-294,-76,0,0,0,0,0,0,0,0,0,-1,930,1100,0,0
-287,-76,0,0,0,0,0,0,0,0,0,-1,937,1100,0,0
-280,-76,0,0,0,0,0,0,0,0,0,-1,944,1100,0,0
-273,-76,0,0,0,0,0,0,0,0,0,-1,951,1100,0,0
-266,-76,0,0,0,0,0,0,0,0,0,-1,958,1100,0,0
-259,-76,0,0,0,0,0,0,0,0,0,-1,965,1100,0,0
-252,-76,0,0,0,0,0,0,0,0,0,-1,972,1100,0,0
-245,-76,0,0,0,0,0,0,0,0,0,-1,979,1100,0,0
-238,-76,0,0,0,0,0,0,0,0,0,-1,986,1100,0,0
-231,-76,0,0,0,0,0,0,0,0,0,-1,993,1100,0,0
-224,-76,0,0,0,0,0,0,0,0,0,-1,1000,1100,0,0
-217,-76,0,0,0,0,0,0,0,0,0,-1,1007,1100,0,0
-210,-76,0,0,0,0,0,0,0,0,0,-1,1014,1100,0,0
-203,-76,0,0,0,0,0,0,0,0,0,-1,1021,1100,0,0
-196,-76,0,0,0,0,0,0,0,0,0,-1,1028,1100,0,0
-189,-76,0,0,0,0,0,0,0,0,0,-1,1035,1100,0,0
-182,-76,0,0,0,0,0,0,0,0,0,-1,1042,1100,0,0
-175,-76,0,0,0,0,0,0,0,0,0,-1,1049,1100,0,0
-168,-76,0,0,0,0,0,0,0,0,0,-1,1056,1100,0,0
-161,-76,0,0,0,0,0,0,0,0,0,-1,1063,1100,0,0
-154,-76,0,0,0,0,0,0,0,0,0,-1,1070,1100,0,0
-147,-76,0,0,0,0,0,0,0,0,0,-1,1077,1100,0,0
-140,-76,0,0,0,0,0,0,0,0,0,-1,1084,1100,0,0
-133,-76,0,0,0,0,0,0,0,0,0,-1,1091,1100,0,0
-126,-76,0,0,0,0,0,0,0,0,0,-1,1098,1100,0,0
-119,-76,0,0,0,0,0,0,0,0,0,-1,1105,1100,0,0
-112,-76,0,0,0,0,0,0,0,0,0,-1,1112,1100,0,0
-105,-76,0,0,0,0,0,0,0,0,0,-1,1119,1100,0,0
-98,-76,0,0,0,0,0,0,0,0,0,-1,1126,1100,0,0
-91,-76,0,0,0,0,0,0,0,0,0,-1,1133,1100,0,0
-84,-76,0,0,0,0,0,0,0,0,0,-1,1140,1100,0,0
-77,-76,0,0,0,0,0,0,0,0,0,-1,1147,1100,0,0
-70,-76,0,0,0,0,0,0,0,0,0,-1,1154,1100,0,0
-63,-76,0,0,0,0,0,0,0,0,0,-1,1161,1100,0,0
-56,-76,0,0,0,0,0,0,0,0,0,-1,1168,1100,0,0
-49,-76,0,0,0,0,0,0,0,0,0,-1,1175,1100,0,0
-42,-76,0,0,0,0,0,0,0,0,0,-1,1182,1100,0,0
-35,-76,0,0,0,0,0,0,0,0,0,-1,1189,1100,0,0
-28,-76,0,0,0,0,0,0,0,0,0,-1,1196,1100,0,0
-21,-76,0,0,0,0,0,0,0,0,0,-1,1203,1100,0,0
-14,-76,0,0,0,0,0,0,0,0,0,-1,1210,1100,0,0
-7,-76,0,0,0,0,0,0,0,0,0,-1,1217,1100,0,0
0,-76,0,0,0,0,0,0,0,0,0,-1,1224,1100,0,0
7,-76,0,0,0,0,0,0,0,0,0,-1,1231,1100,0,0
14,-76,0,0,0,0,0,0,0,0,0,-1,1238,1100,0,0
21,-76,0,0,0,0,0,0,0,0,0,-1,1245,1100,0,0
28,-76,0,0,0,0,0,0,0,0,0,-1,1252,1100,0,0
35,-76,0,0,0,0,0,0,0,0,0,-1,1259,1100,0,0
42,-76,0,0,0,0,0,0,0,0,0,-1,1266,1100,0,0
49,-76,0,0,0,0,0,0,0,0,0,-1,1273,1100,0,0
56,-76,0,0,0,0,0,0,0,0,0,-1,1280,1100,0,0
63,-76,0,0,0,0,0,0,0,0,0,-1,1287,1100,0,0
70,-76,0,0,0,0,0,0,0,0,0,-1,1294,1100,0,0
77,-76,0,0,0,0,0,0,0,0,0,-1,1301,1100,0,0
84,-76,0,0,0,0,0,0,0,0,0,-1,1308,1100,0,0
91,-76,0,0,0,0,0,0,0,0,0,-1,1315,1100,0,0
98,-76,0,0,0,0,0,0,0,0,0,-1,1322,1100,0,0
105,-76,0,0,0,0,0,0,0,0,0,-1,1329,1100,0,0
112,-76,0,0,0,0,0,0,0,0,0,-1,1336,1100,0,0
119,-76,0,0,0,0,0,0,0,0,0,-1,1343,1100,0,0
126,-76,0,0,0,0,0,0,0,0,0,-1,1350,1100,0,0
133,-76,0,0,0,0,0,0,0,0,0,-1,1357,1100,0,0
140,-76,0,0,0,0,0,0,0,0,0,-1,1364,1100,0,0
147,-76,0,0,0,0,0,0,0,0,0,-1,1371,1100,0,0
154,-76,0,0,0,0,0,0,0,0,0,-1,1378,1100,0,0
161,-76,0,0,0,0,0,0,0,0,0,-1,1385,1100,0,0
168,-76,0,0,0,0,0,0,0,0,0,-1,1392,1100,0,0
175,-76,0,0,0,0,0,0,0,0,0,-1,1399,1100,0,0
182,-76,0,0,0,0,0,0,0,0,0,-1,1406,1100,0,0
189,-76,0,0,0,0,0,0,0,0,0,-1,1413,1100,0,0
196,-76,0,0,0,0,0,0,0,0,0,-1,1420,1100,0,0
203,-76,0,0,0,0,0,0,0,0,0,-1,1427,1100,0,0
210,-76,0,0,0,0,0,0,0,0,0,-1,1434,1100,0,0
217,-76,0,0,0,0,0,0,0,0,0,-1,1441,1100,0,0
224,-76,0,0,0,0,0,0,0,0,0,-1,1448,1100,0,0
231,-76,0,0,0,0,0,0,0,0,0,-1,1455,1100,0,0
238,-76,0,0,0,0,0,0,0,0,0,-1,1462,1100,0,0
245,-76,0,0,0,0,0,0,0,0,0,-1,1469,1100,0,0
252,-76,0,0,0,0,0,0,0,0,0,-1,1476,1100,0,0
259,-76,0,0,0,0,0,0,0,0,0,-1,1483,1100,0,0
266,-76,0,0,0,0,0,0,0,0,0,-1,1490,1100,0,0
273,-76,0,0,0,0,0,0,0,0,0,-1,1497,1100,0,0
280,-76,0,0,0,0,0,0,0,0,0,-1,1504,1100,0,0
287,-76,0,0,0,0,0,0,0,0,0,-1,1511,1100,0,0
294,-76,0,0,0,0,0,0,0,0,0,-1,1518,1100,0,0
301,-76,0,0,0,0,0,0,0,0,0,-1,1525,1100,0,0
308,-76,0,0,0,0,0,0,0,0,0,-1,1532,1100,0,0
315,-76,0,0,0,0,0,0,0,0,0,-1,1539,1100,0,0
322,-76,0,0,0,0,0,0,0,0,0,-1,1546,1100,0,0
329,-76,0,0,0,0,0,0,0,0,0,-1,1553,1100,0,0
336,-76,0,0,0,0,0,0,0,0,0,-1,1560,1100,0,0
343,-76,0,0,0,0,0,0,0,0,0,-1,1567,1100,0,0
350,-76,0,0,0,0,0,0,0,0,0,-1,1574,1100,0,0
357,-76,0,0,0,0,0,0,0,0,0,-1,1581,1100,0,0
364,-76,0,0,0,0,0,0,0,0,0,-1,1588,1100,0,0
371,-76,0,0,0,0,0,0,0,0,0,-1,1595,1100,0,0
378,-76,0,0,0,0,0,0,0,0,0,-1,1602,1100,0,0
385,-76,0,0,0,0,0,0,0,0,0,-1,1609,1100,0,0
392,-76,0,0,0,0,0,0,0,0,0,-1,1616,1100,0,0
399,-76,0,0,0,0,0,0,0,0,0,-1,1623,1100,0,0
406,-76,0,0,0,0,0,0,0,0,0,-1,1630,1100,0,0
413,-76,0,0,0,0,0,0,0,0,0,-1,1637,1100,0,0
420,-76,0,0,0,0,0,0,0,0,0,-1,1644,1100,0,0
427,-76,0,0,0,0,0,0,0,0,0,-1,1651,1100,0,0
434,-76,0,0,0,0,0,0,0,0,0,-1,1658,1100,0,0
441,-76,0,0,0,0,0,0,0,0,0,-1,1665,1100,0,0
448,-76,0,0,0,0,0,0,0,0,0,-1,1672,1100,0,0
455,-76,0,0,0,0,0,0,0,0,0,-1,1679,1100,0,0
462,-76,0,0,0,0,0,0,0,0,0,-1,1686,1100,0,0
469,-76,0,0,0,0,0,0,0,0,0,-1,1693,1100,0,0
476,-76,0,0,0,0,0,0,0,0,0,-1,1700,1100,0,0
483,-76,0,0,0,0,0,0,0,0,0,-1,1707,1100,0,0
490,-76,0,0,0,0,0,0,0,0,0,-1,1714,1100,0,0
497,-76,0,0,0,0,0,0,0,0,0,-1,1721,1100,0,0
504,-76,0,0,0,0,0,0,0,0,0,-1,1728,1100,0,0
511,-76,0,0,0,0,0,0,0,0,0,-1,1735,1100,0,0
518,-76,0,0,0,0,0,0,0,0,0,-1,1742,1100,0,0
525,-76,0,0,0,0,0,0,0,0,0,-1,1749,1100,0,0
532,-76,0,0,0,0,0,0,0,0,0,-1,1756,1100,0,0
539,-76,0,0,0,0,0,0,0,0,0,-1,1763,1100,0,0
546,-76,0,0,0,0,0,0,0,0,0,-1,1770,1100,0,0
553,-76,0,0,0,0,0,0,0,0,0,-1,1777,1100,0,0
560,-76,0,0,0,0,0,0,0,0,0,-1,1784,1100,0,0
567,-76,0,0,0,0,0,0,0,0,0,-1,1791,1100,0,0
574,-76,0,0,0,0,0,0,0,0,0,-1,1798,1100,0,0
581,-76,0,0,0,0,0,0,0,0,0,-1,1805,1100,0,0
588,-76,0,0,0,0,0,0,0,0,0,-1,1812,1100,0,0
595,-76,0,0,0,0,0,0,0,0,0,-1,1819,1100,0,0
602,-76,0,0,0,0,0,0,0,0,0,-1,1826,1100,0,0
609,-76,0,0,0,0,0,0,0,0,0,-1,1833,1100,0,0
616,-76,0,0,0,0,0,0,0,0,0,-1,1840,1100,0,0
623,-76,0,0,0,0,0,0,0,0,0,-1,1847,1100,0,0
630,-76,0,0,0,0,0,0,0,0,0,-1,1854,1100,0,0
637,-76,0,0,0,0,0,0,0,0,0,-1,1861,1100,0,0
644,-76,0,0,0,0,0,0,0,0,0,-1,1868,1100,0,0
651,-76,43.3729,2.87585,0.00215727,0.00116461,0.00302896,0.00473029,-0.00140841,0.704189,0.00371313,0.0399495,1875,1100,43.3729,-2.87591
658,-76,43.3381,2.8092,0.001947,0.000860994,0.00231515,0.00378198,-0.000973984,0.670209,0.002901,0.0406864,1882,1100,43.3381,-2.80916
665,-76,43.3972,2.79749,0.00158595,0.000625426,0.00170097,0.00287316,-0.000661782,0.647807,0.00216993,0.0401872,1889,1100,43.3972,-2.79745
672,-76,43.3375,2.82983,0.00127662,0.000471144,0.00117161,0.00211278,-0.000365018,0.619851,0.00154464,0.0412838,1896,1100,43.3375,-2.82988
679,-76,43.3257,2.82043,0.000796623,0.000336323,0.000716484,0.00131901,-0.000186068,0.629993,0.000947475,0.0388257,1903,1100,43.3257,-2.82047
686,-76,43.4885,2.71912,0.000346999,9.70218e-05,0.000499979,0.000737376,-0.000293355,0.662915,0.000613222,0.0353735,1910,1100,43.4885,-2.71907
693,-76,43.5154,2.75049,6.16773e-05,-0.000131261,0.000417997,0.000394192,-0.000463776,0.671989,0.000495891,0.0363407,1917,1100,43.5154,-2.75049
700,-76,43.4847,2.7417,-0.000136191,-0.00029396,0.000390216,0.000183035,-0.000613185,0.685664,0.00048154,0.0321574,1924,1100,43.4847,-2.74171
707,-76,43.4607,2.81323,-0.000492714,-0.000275515,0.000464318,9.27346e-05,-0.000860964,0.900278,0.000607252,0.0251715,1931,1100,43.4606,-2.81321
714,-76,43.5005,2.79187,0,0,0,0,0,0,0,-1,1938,1100,43.5005,-2.79187
721,-76,43.1307,3.00781,0,0,0,0,0,0,0,-1,1945,1100,43.1308,-3.0078
728,-76,40.9602,6.55493,0,0,0,0,0,0,0,-1,1952,1100,40.9603,-6.55495
735,-76,41.3582,6.29065,-0.00210256,0.000569233,0.00102643,0.000918026,-0.00245136,1.24323,0.00201134,0.0365512,1959,1100,41.3581,-6.2907
742,-76,41.5963,5.99854,-0.00270687,0.00140971,0.00115605,0.00171214,-0.00300931,1.31492,0.00276001,0.0238727,1966,1100,41.5963,-5.99853
749,-76,41.5023,5.72058,-0.00315353,0.00256578,0.00167382,0.00301963,-0.00360738,1.30602,0.00383112,0.0229744,1973,1100,41.5023,-5.72063
756,-76,41.5424,5.5011,-0.00380287,0.00359295,0.00180934,0.00401186,-0.00422179,1.34328,0.00475422,0.0165411,1980,1100,41.5423,-5.50107
763,-76,41.5295,5.24695,-0.00501009,0.00558112,0.00175306,0.00586374,-0.00529272,1.41095,0.006444,0.0165141,1987,1100,41.5296,-5.24693
770,-76,41.4301,5.05676,-0.00641604,0.00805005,0.00161112,0.00822731,-0.0065933,1.46121,0.008574,0.0168292,1994,1100,41.43,-5.05672
777,-76,41.3541,4.8905,-0.00811389,0.0109413,0.00132661,0.0110332,-0.00820581,1.50162,0.0111476,0.0219657,2001,1100,41.3542,-4.89045
784,-76,41.5251,4.48047,-0.0102848,0.0140301,0.000871898,0.0140613,-0.010316,1.535,0.0141295,0.0337719,2008,1100,41.525,-4.48048
791,-76,41.4077,3.76514,-0.0131473,0.0173764,0.000115769,0.0173768,-0.0131477,1.567,0.0176797,0.0429198,2015,1100,41.4077,-3.76511
798,-76,41.3572,3.1167,0,0,0,0,0,0,0,-1,2022,1100,41.3573,-3.11664
805,-76,40.5264,4.02222,0,0,0,0,0,0,0,-1,2029,1100,40.5265,-4.0222
812,-76,40.1118,4.24011,0,0,0,0,0,0,0,-1,2036,1100,40.1119,-4.24012
-700,-83,0,0,0,0,0,0,0,0,0,-1,524,1107,0,0
-693,-83,-28.4854,-0.14502,0.00324428,0.00838427,-0.0273495,0.0332843,-0.0216558,-0.832245,0.0319556,0.048161,531,1107,-28.4854,0.145048
-686,-83,-28.5823,-0.821533,0.00397574,0.0117307,-0.0223736,0.0305603,-0.0148539,-0.871198,0.0267375,0.0460379,538,1107,-28.5823,0.821493
-679,-83,-29.1404,0.167847,0.00362303,0.0129392,-0.0174058,0.0262994,-0.00973719,-0.916143,0.0215257,0.0469655,545,1107,-29.1404,-0.16779
-672,-83,-29.6565,0.60083,0.00293985,0.0129693,-0.0128798,0.0217762,-0.00586704,-0.971043,0.0168178,0.0439545,552,1107,-29.6565,-0.600806
-665,-83,-29.8713,0.703003,0.0020795,0.0122623,-0.00897468,0.0174892,-0.0031474,-1.04341,0.0128378,0.0434709,559,1107,-29.8713,-0.702962
-658,-83,-30.1274,0.858398,0.00122585,0.0110886,-0.00581811,0.013784,-0.00146963,-1.13694,0.00971636,0.0409301,566,1107,-30.1274,-0.858451
-651,-83,-29.8578,1.26733,0.000653881,0.00959161,-0.00343046,0.0107565,-0.000510974,-1.24345,0.00734723,0.0313486,573,1107,-29.8578,-1.26734
-644,-83,-29.7222,1.81506,0.000459167,0.00786381,-0.00178743,0.00827271,5.02733e-05,-1.34591,0.00549846,0.0158297,580,1107,-29.7222,-1.81504
-637,-83,-29.7817,2.15137,0.000239872,0.00634595,2.23292e-05,0.00634603,0.00023979,1.56714,0.00415307,0.011443,587,1107,-29.7817,-2.15141
-630,-83,-29.8198,2.45264,0.000499887,0.00447114,0.000285276,0.00449153,0.000479499,1.49945,0.002848,0.0171983,594,1107,-29.8198,-2.45269
-623,-83,-29.8289,2.73071,0.000553494,0.00257754,0.000252542,0.00260857,0.00052246,1.44852,0.0015937,0.0168878,601,1107,-29.8289,-2.73073
-616,-83,-29.8784,3.02075,0.00101552,0.00128254,-0.000142463,0.00134428,0.000953786,-1.16188,0.000798508,0.0143716,608,1107,-29.8784,-3.02076
-609,-83,-29.8575,3.30359,0.00172033,0.00048455,-0.000414547,0.00184651,0.000358372,-0.295467,0.00113064,0.0163843,615,1107,-29.8575,-3.30362
-602,-83,-29.8418,3.62854,0.00195004,-0.000192869,-0.000865678,0.00225605,-0.000498881,-0.339784,0.00169498,0.0170989,622,1107,-29.8418,-3.62852
-595,-83,-29.7728,3.91809,0.0016442,-0.000710644,-0.00118324,0.00213603,-0.00120247,-0.393931,0.00195244,0.0200792,629,1107,-29.7729,-3.91814
-588,-83,-29.7444,4.15747,0,0,0,0,0,0,0,-1,636,1107,-29.7444,-4.15745
-581,-83,-31.8599,0.989624,0,0,0,0,0,0,0,-1,643,1107,-31.8599,-0.98964
-574,-83,-31.8263,0.980469,0.00228895,-0.00147297,-0.00148431,0.00280406,-0.00198808,-0.334037,0.00278008,0.0352805,650,1107,-31.8263,-0.98041
-567,-83,-31.7066,1.11926,0.00237495,-0.00154648,-0.00156563,0.00292334,-0.00209487,-0.336913,0.00291039,0.0421603,657,1107,-31.7066,-1.11921
-560,-83,-31.8298,1.10425,0.002486,-0.00154651,-0.00165407,0.00307767,-0.00213817,-0.343518,0.0030276,0.0438891,664,1107,-31.8298,-1.10424
-553,-83,-31.817,0.958862,0.00253641,-0.00152464,-0.00179058,0.00321314,-0.00220137,-0.361342,0.0031442,0.0443171,671,1107,-31.817,-0.958898
-546,-83,-31.7991,0.841309,0.00299991,-0.00152245,-0.00192279,0.00370691,-0.00222944,-0.352348,0.00346256,0.041113,678,1107,-31.799,-0.841263
-539,-83,-31.772,0.786743,0.00495222,-0.00180819,-0.0020773,0.0055395,-0.00239547,-0.275524,0.0046996,0.0409043,685,1107,-31.772,-0.786731
-532,-83,-31.7477,0.840576,0.00741095,-0.00190656,-0.00227562,0.00793702,-0.00243263,-0.227187,0.00626176,0.0432559,692,1107,-31.7477,-0.84057
-525,-83,0,0,0,0,0,0,0,0,0,-1,699,1107,0,0
-518,-83,0,0,0,0,0,0,0,0,0,-1,706,1107,0,0
-511,-83,0,0,0,0,0,0,0,0,0,-1,713,1107,0,0
-504,-83,0,0,0,0,0,0,0,0,0,-1,720,1107,0,0
-497,-83,0,0,0,0,0,0,0,0,0,-1,727,1107,0,0
-490,-83,0,0,0,0,0,0,0,0,0,-1,734,1107,0,0
-483,-83,0,0,0,0,0,0,0,0,0,-1,741,1107,0,0
-476,-83,0,0,0,0,0,0,0,0,0,-1,748,1107,0,0
-469,-83,0,0,0,0,0,0,0,0,0,-1,755,1107,0,0
-462,-83,0,0,0,0,0,0,0,0,0,-1,762,1107,0,0
-455,-83,0,0,0,0,0,0,0,0,0,-1,769,1107,0,0
-448,-83,0,0,0,0,0,0,0,0,0,-1,776,1107,0,0
-441,-83,0,0,0,0,0,0,0,0,0,-1,783,1107,0,0
-434,-83,0,0,0,0,0,0,0,0,0,-1,790,1107,0,0
-427,-83,0,0,0,0,0,0,0,0,0,-1,797,1107,0,0
-420,-83,0,0,0,0,0,0,0,0,0,-1,804,1107,0,0
-413,-83,0,0,0,0,0,0,0,0,0,-1,811,1107,0,0
-406,-83,0,0,0,0,0,0,0,0,0,-1,818,1107,0,0
-399,-83,0,0,0,0,0,0,0,0,0,-1,825,1107,0,0
-392,-83,0,0,0,0,0,0,0,0,0,-1,832,1107,0,0
-385,-83,0,0,0,0,0,0,0,0,0,-1,839,1107,0,0
-378,-83,0,0,0,0,0,0,0,0,0,-1,846,1107,0,0
-371,-83,0,0,0,0,0,0,0,0,0,-1,853,1107,0,0
-364,-83,0,0,0,0,0,0,0,0,0,-1,860,1107,0,0
-357,-83,0,0,0,0,0,0,0,0,0,-1,867,1107,0,0
-350,-83,0,0,0,0,0,0,0,0,0,-1,874,1107,0,0
-343,-83,0,0,0,0,0,0,0,0,0,-1,881,1107,0,0
-336,-83,0,0,0,0,0,0,0,0,0,-1,888,1107,0,0
-329,-83,0,0,0,0,0,0,0,0,0,-1,895,1107,0,0
-322,-83,0,0,0,0,0,0,0,0,0,-1,902,1107,0,0
-315,-83,0,0,0,0,0,0,0,0,0,-1,909,1107,0,0
-308,-83,0,0,0,0,0,0,0,0,0,-1,916,1107,0,0
-301,-83,0,0,0,0,0,0,0,0,0,-1,923,1107,0,0
-294,-83,0,0,0,0,0,0,0,0,0,-1,930,1107,0,0
-287,-83,0,0,0,0,0,0,0,0,0,-1,937,1107,0,0
-280,-83,0,0,0,0,0,0,0,0,0,-1,944,1107,0,0
-273,-83,0,0,0,0,0,0,0,0,0,-1,951,1107,0,0
-266,-83,0,0,0,0,0,0,0,0,0,-1,958,1107,0,0
-259,-83,0,0,0,0,0,0,0,0,0,-1,965,1107,0,0
-252,-83,0,0,0,0,0,0,0,0,0,-1,972,1107,0,0
-245,-83,0,0,0,0,0,0,0,0,0,-1,979,1107,0,0
-238,-83,0,0,0,0,0,0,0,0,0,-1,986,1107,0,0
-231,-83,0,0,0,0,0,0,0,0,0,-1,993,1107,0,0
-224,-83,0,0,0,0,0,0,0,0,0,-1,1000,1107,0,0
-217,-83,0,0,0,0,0,0,0,0,0,-1,1007,1107,0,0
-210,-83,0,0,0,0,0,0,0,0,0,-1,1014,1107,0,0
-203,-83,0,0,0,0,0,0,0,0,0,-1,1021,1107,0,0
-196,-83,0,0,0,0,0,0,0,0,0,-1,1028,1107,0,0
-189,-83,0,0,0,0,0,0,0,0,0,-1,1035,1107,0,0
-182,-83,0,0,0,0,0,0,0,0,0,-1,1042,1107,0,0
-175,-83,0,0,0,0,0,0,0,0,0,-1,1049,1107,0,0
-168,-83,0,0,0,0,0,0,0,0,0,-1,1056,1107,0,0
-161,-83,0,0,0,0,0,0,0,0,0,-1,1063,1107,0,0
-154,-83,0,0,0,0,0,0,0,0,0,-1,1070,1107,0,0
-147,-83,0,0,0,0,0,0,0,0,0,-1,1077,1107,0,0
-140,-83,0,0,0,0,0,0,0,0,0,-1,1084,1107,0,0
-133,-83,0,0,0,0,0,0,0,0,0,-1,1091,1107,0,0
-126,-83,0,0,0,0,0,0,0,0,0,-1,1098,1107,0,0
-119,-83,0,0,0,0,0,0,0,0,0,-1,1105,1107,0,0
-112,-83,0,0,0,0,0,0,0,0,0,-1,1112,1107,0,0
-105,-83,0,0,0,0,0,0,0,0,0,-1,1119,1107,0,0
-98,-83,0,0,0,0,0,0,0,0,0,-1,1126,1107,0,0
-91,-83,0,0,0,0,0,0,0,0,0,-1,1133,1107,0,0
-84,-83,0,0,0,0,0,0,0,0,0,-1,1140,1107,0,0
-77,-83,0,0,0,0,0,0,0,0,0,-1,1147,1107,0,0
-70,-83,0,0,0,0,0,0,0,0,0,-1,1154,1107,0,0
-63,-83,0,0,0,0,0,0,0,0,0,-1,1161,1107,0,0
-56,-83,0,0,0,0,0,0,0,0,0,-1,1168,1107,0,0
-49,-83,0,0,0,0,0,0,0,0,0,-1,1175,1107,0,0
-42,-83,0,0,0,0,0,0,0,0,0,-1,1182,1107,0,0
-35,-83,0,0,0,0,0,0,0,0,0,-1,1189,1107,0,0
-28,-83,0,0,0,0,0,0,0,0,0,-1,1196,1107,0,0
-21,-83,0,0,0,0,0,0,0,0,0,-1,1203,1107,0,0
-14,-83,0,0,0,0,0,0,0,0,0,-1,1210,1107,0,0
-7,-83,0,0,0,0,0,0,0,0,0,-1,1217,1107,0,0
0,-83,0,0,0,0,0,0,0,0,0,-1,1224,1107,0,0
7,-83,0,0,0,0,0,0,0,0,0,-1,1231,1107,0,0
14,-83,0,0,0,0,0,0,0,0,0,-1,1238,1107,0,0
21,-83,0,0,0,0,0,0,0,0,0,-1,1245,1107,0,0
28,-83,0,0,0,0,0,0,0,0,0,-1,1252,1107,0,0
35,-83,0,0,0,0,0,0,0,0,0,-1,1259,1107,0,0
42,-83,0,0,0,0,0,0,0,0,0,-1,1266,1107,0,0
49,-83,0,0,0,0,0,0,0,0,0,-1,1273,1107,0,0
56,-83,0,0,0,0,0,0,0,0,0,-1,1280,1107,0,0
63,-83,0,0,0,0,0,0,0,0,0,-1,1287,1107,0,0
70,-83,0,0,0,0,0,0,0,0,0,-1,1294,1107,0,0
77,-83,0,0,0,0,0,0,0,0,0,-1,1301,1107,0,0
84,-83,0,0,0,0,0,0,0,0,0,-1,1308,1107,0,0
91,-83,0,0,0,0,0,0,0,0,0,-1,1315,1107,0,0
98,-83,0,0,0,0,0,0,0,0,0,-1,1322,1107,0,0
105,-83,0,0,0,0,0,0,0,0,0,-1,1329,1107,0,0
112,-83,0,0,0,0,0,0,0,0,0,-1,1336,1107,0,0
119,-83,0,0,0,0,0,0,0,0,0,-1,1343,1107,0,0
126,-83,0,0,0,0,0,0,0,0,0,-1,1350,1107,0,0
133,-83,0,0,0,0,0,0,0,0,0,-1,1357,1107,0,0
140,-83,0,0,0,0,0,0,0,0,0,-1,1364,1107,0,0
147,-83,0,0,0,0,0,0,0,0,0,-1,1371,1107,0,0
154,-83,0,0,0,0,0,0,0,0,0,-1,1378,1107,0,0
161,-83,0,0,0,0,0,0,0,0,0,-1,1385,1107,0,0
168,-83,0,0,0,0,0,0,0,0,0,-1,1392,1107,0,0
175,-83,0,0,0,0,0,0,0,0,0,-1,1399,1107,0,0
182,-83,0,0,0,0,0,0,0,0,0,-1,1406,1107,0,0
189,-83,0,0,0,0,0,0,0,0,0,-1,1413,1107,0,0
196,-83,0,0,0,0,0,0,0,0,0,-1,1420,1107,0,0
203,-83,0,0,0,0,0,0,0,0,0,-1,1427,1107,0,0
210,-83,0,0,0,0,0,0,0,0,0,-1,1434,1107,0,0
217,-83,0,0,0,0,0,0,0,0,0,-1,1441,1107,0,0
224,-83,0,0,0,0,0,0,0,0,0,-1,1448,1107,0,0
231,-83,0,0,0,0,0,0,0,0,0,-1,1455,1107,0,0
238,-83,0,0,0,0,0,0,0,0,0,-1,1462,1107,0,0
245,-83,0,0,0,0,0,0,0,0,0,-1,1469,1107,0,0
252,-83,0,0,0,0,0,0,0,0,0,-1,1476,1107,0,0
259,-83,0,0,0,0,0,0,0,0,0,-1,1483,1107,0,0
266,-83,0,0,0,0,0,0,0,0,0,-1,1490,1107,0,0
273,-83,0,0,0,0,0,0,0,0,0,-1,1497,1107,0,0
280,-83,0,0,0,0,0,0,0,0,0,-1,1504,1107,0,0
287,-83,0,0,0,0,0,0,0,0,0,-1,1511,1107,0,0
294,-83,0,0,0,0,0,0,0,0,0,-1,1518,1107,0,0
301,-83,0,0,0,0,0,0,0,0,0,-1,1525,1107,0,0
308,-83,0,0,0,0,0,0,0,0,0,-1,1532,1107,0,0
315,-83,0,0,0,0,0,0,0,0,0,-1,1539,1107,0,0
322,-83,0,0,0,0,0,0,0,0,0,-1,1546,1107,0,0
329,-83,0,0,0,0,0,0,0,0,0,-1,1553,1107,0,0
336,-83,0,0,0,0,0,0,0,0,0,-1,1560,1107,0,0
343,-83,0,0,0,0,0,0,0,0,0,-1,1567,1107,0,0
350,-83,0,0,0,0,0,0,0,0,0,-1,1574,1107,0,0
357,-83,0,0,0,0,0,0,0,0,0,-1,1581,1107,0,0
364,-83,0,0,0,0,0,0,0,0,0,-1,1588,1107,0,0
371,-83,0,0,0,0,0,0,0,0,0,-1,1595,1107,0,0
378,-83,0,0,0,0,0,0,0,0,0,-1,1602,1107,0,0
385,-83,0,0,0,0,0,0,0,0,0,-1,1609,1107,0,0
392,-83,0,0,0,0,0,0,0,0,0,-1,1616,1107,0,0
399,-83,0,0,0,0,0,0,0,0,0,-1,1623,1107,0,0
406,-83,0,0,0,0,0,0,0,0,0,-1,1630,1107,0,0
413,-83,0,0,0,0,0,0,0,0,0,-1,1637,1107,0,0
420,-83,0,0,0,0,0,0,0,0,0,-1,1644,1107,0,0
427,-83,0,0,0,0,0,0,0,0,0,-1,1651,1107,0,0
434,-83,0,0,0,0,0,0,0,0,0,-1,1658,1107,0,0
441,-83,0,0,0,0,0,0,0,0,0,-1,1665,1107,0,0
448,-83,0,0,0,0,0,0,0,0,0,-1,1672,1107,0,0
455,-83,0,0,0,0,0,0,0,0,0,-1,1679,1107,0,0
462,-83,0,0,0,0,0,0,0,0,0,-1,1686,1107,0,0
469,-83,0,0,0,0,0,0,0,0,0,-1,1693,1107,0,0
476,-83,0,0,0,0,0,0,0,0,0,-1,1700,1107,0,0
483,-83,0,0,0,0,0,0,0,0,0,-1,1707,1107,0,0
490,-83,0,0,0,0,0,0,0,0,0,-1,1714,1107,0,0
497,-83,0,0,0,0,0,0,0,0,0,-1,1721,1107,0,0
504,-83,0,0,0,0,0,0,0,0,0,-1,1728,1107,0,0
511,-83,0,0,0,0,0,0,0,0,0,-1,1735,1107,0,0
518,-83,0,0,0,0,0,0,0,0,0,-1,1742,1107,0,0
525,-83,0,0,0,0,0,0,0,0,0,-1,1749,1107,0,0
532,-83,0,0,0,0,0,0,0,0,0,-1,1756,1107,0,0
539,-83,0,0,0,0,0,0,0,0,0,-1,1763,1107,0,0
546,-83,0,0,0,0,0,0,0,0,0,-1,1770,1107,0,0
553,-83,0,0,0,0,0,0,0,0,0,-1,1777,1107,0,0
560,-83,0,0,0,0,0,0,0,0,0,-1,1784,1107,0,0
567,-83,0,0,0,0,0,0,0,0,0,-1,1791,1107,0,0
574,-83,0,0,0,0,0,0,0,0,0,-1,1798,1107,0,0
581,-83,0,0,0,0,0,0,0,0,0,-1,1805,1107,0,0
588,-83,0,0,0,0,0,0,0,0,0,-1,1812,1107,0,0
595,-83,0,0,0,0,0,0,0,0,0,-1,1819,1107,0,0
602,-83,0,0,0,0,0,0,0,0,0,-1,1826,1107,0,0
609,-83,0,0,0,0,0,0,0,0,0,-1,1833,1107,0,0
616,-83,0,0,0,0,0,0,0,0,0,-1,1840,1107,0,0
623,-83,0,0,0,0,0,0,0,0,0,-1,1847,1107,0,0
630,-83,0,0,0,0,0,0,0,0,0,-1,1854,1107,0,0
637,-83,0,0,0,0,0,0,0,0,0,-1,1861,1107,0,0
644,-83,43.4449,2.76379,0.00358858,0.00121928,0.00326934,0.00588129,-0.00107342,0.61158,0.00432331,0.0352605,1868,1107,43.4449,-2.7638
651,-83,43.3234,2.64746,0.00291805,0.000960662,0.00264782,0.00476226,-0.000883551,0.608374,0.00350666,0.0410219,1875,1107,43.3233,-2.64744
658,-83,43.3654,2.71814,0.00254303,0.000761005,0.00200595,0.00384695,-0.000542922,0.576395,0.00276345,0.0445367,1882,1107,43.3653,-2.71809
665,-83,43.3733,2.79517,0.00205864,0.000599671,0.00144185,0.00294504,-0.000286728,0.551205,0.00206558,0.0420269,1889,1107,43.3733,-2.7952
672,-83,43.3446,2.76709,0.00163696,0.000491412,0.000935527,0.00216112,-3.27567e-05,0.510711,0.00145179,0.0403064,1896,1107,43.3446,-2.76711
679,-83,43.3905,2.70239,0.0010511,0.000380125,0.000501388,0.00131889,0.000112338,0.490548,0.00084431,0.0391366,1903,1107,43.3905,-2.70238
686,-83,43.4783,2.68628,0.000559439,0.000165128,0.00028266,0.000706909,1.76577e-05,0.480875,0.000465498,0.0342992,1910,1107,43.4783,-2.68632
693,-83,43.5485,2.75732,0.000262713,-3.44018e-05,0.000197438,0.000361241,-0.00013293,0.462872,0.000295285,0.0349183,1917,1107,43.5484,-2.75736
700,-83,43.519,2.81226,5.22441e-05,-0.000175572,0.000144761,0.000122539,-0.000245867,0.452056,0.000216636,0.0320666,1924,1107,43.5191,-2.81222
707,-83,43.479,2.81702,-0.000320299,-0.000158694,0.000234058,8.11591e-06,-0.000487109,0.951605,0.000327478,0.0233813,1931,1107,43.479,-2.81697
714,-83,43.4856,2.81372,0,0,0,0,0,0,0,-1,1938,1107,43.4856,-2.81377
721,-83,41.3098,6.73376,0,0,0,0,0,0,0,-1,1945,1107,41.3098,-6.73378
728,-83,41.3324,6.50867,-0.00144708,0.000247423,0.000726494,0.000516249,-0.0017159,1.21639,0.00134935,0.0358319,1952,1107,41.3324,-6.50866
735,-83,41.0872,6.26123,-0.00184207,0.000576541,0.000829974,0.000833958,-0.00209949,1.27005,0.00174537,0.0370668,1959,1107,41.0871,-6.26121
742,-83,41.2444,6.00171,-0.00237079,0.00138367,0.000993807,0.0016305,-0.00261762,1.32735,0.00247463,0.0222809,1966,1107,41.2444,-6.00165
749,-83,41.3022,5.73511,-0.00278113,0.00249561,0.00146325,0.00287421,-0.00315972,1.31761,0.00348499,0.0158815,1973,1107,41.3022,-5.73507
756,-83,41.3185,5.46655,-0.00334991,0.0036318,0.00152745,0.00395135,-0.00366946,1.36457,0.00440088,0.0165703,1980,1107,41.3185,-5.46654
763,-83,41.2952,5.19592,-0.00433979,0.00568477,0.00135585,0.00586492,-0.00451994,1.4387,0.00601244,0.0132193,1987,1107,41.2951,-5.19593
770,-83,41.1996,5.00623,-0.00546475,0.00832142,0.00099998,0.00839358,-0.00553691,1.49876,0.00809894,0.0153301,1994,1107,41.1996,-5.00621
777,-83,41.1147,4.79175,-0.00679305,0.0114281,0.000413125,0.0114375,-0.00680241,1.54814,0.0106436,0.0176683,2001,1107,41.1148,-4.79179
784,-83,41.1353,4.55139,-0.00854785,0.014887,-0.000459782,0.014896,-0.00855686,-1.55119,0.0137044,0.0271118,2008,1107,41.1352,-4.55134
791,-83,41.2041,3.77148,0,0,0,0,0,0,0,-1,2015,1107,41.2041,-3.77143
798,-83,40.5105,4.32019,-0.0137506,0.0232142,-0.00385639,0.0236123,-0.0141486,-1.46795,0.0220283,0.0461011,2022,1107,40.5106,-4.32017
805,-83,40.5066,4.09094,0,0,0,0,0,0,0,-1,2029,1107,40.5066,-4.09092
812,-83,41.137,3.96729,0,0,0,0,0,0,0,-1,2036,1107,41.137,-3.96725
-700,-90,0,0,0,0,0,0,0,0,0,-1,524,1114,0,0
-693,-90,-28.2109,0.485352,0.0132473,0.000287736,-0.0569402,0.0640753,-0.0505402,-0.728742,0.0663269,0.0459788,531,1114,-28.2109,-0.4854
-686,-90,-28.8427,0.010376,0.0117896,0.00686788,-0.0443971,0.053794,-0.0351364,-0.757712,0.0517193,0.0467648,538,1114,-28.8428,-0.0104289
-679,-90,-28.997,0.0477295,0.00969244,0.00997189,-0.0336978,0.0435302,-0.0238659,-0.787471,0.0394594,0.045136,545,1114,-28.997,-0.0476698
-672,-90,-29.1272,0.266602,0.00761569,0.0111284,-0.0247706,0.0342048,-0.0154607,-0.820792,0.0293472,0.0419829,552,1114,-29.1272,-0.266656
-665,-90,-29.4328,0.467529,0.00561705,0.0110929,-0.0174857,0.0260537,-0.00934378,-0.863058,0.0211822,0.0439423,559,1114,-29.4328,-0.467585
-658,-90,-30.0631,0.590576,0,0,0,0,0,0,0,-1,566,1114,-30.0631,-0.590604
-651,-90,-29.46,1.09546,0.00251145,0.00907677,-0.00742954,0.0139165,-0.00232833,-0.993422,0.0101433,0.033238,573,1114,-29.46,-1.09548
-644,-90,-29.4248,1.71533,0.00173051,0.00751016,-0.00437616,0.00986456,-0.000623884,-1.07721,0.00679389,0.0159495,580,1114,-29.4248,-1.71531
-637,-90,-29.449,2.11206,0.000977297,0.00606428,-0.00133129,0.00639162,0.000649953,-1.3297,0.0040618,0.012488,587,1114,-29.449,-2.11205
-630,-90,-29.4742,2.42798,0.000784285,0.00442253,-7.53023e-05,0.00442409,0.000782727,-1.55011,0.0027262,0.0117275,594,1114,-29.4743,-2.42794
-623,-90,-29.4905,2.7345,0.000623497,0.00262876,0.000491229,0.00274263,0.000509626,1.34301,0.00168444,0.0102741,601,1114,-29.4905,-2.7345
-616,-90,-29.507,3.06909,0.00111825,0.00131306,0.000171743,0.0014131,0.00101822,1.04335,0.000841895,0.0117283,608,1114,-29.507,-3.06906
-609,-90,-29.5065,3.35876,0.0018346,0.000414819,-0.000331717,0.00190828,0.000341141,-0.218564,0.0011751,0.0172129,615,1114,-29.5065,-3.35873
-602,-90,-29.5692,3.64636,0.00205951,-0.000191872,-0.000658001,0.00223771,-0.000370078,-0.264484,0.00162924,0.0180726,622,1114,-29.5692,-3.64639
-595,-90,-29.4583,4.00354,0.00171338,-0.000695836,-0.000892175,0.00200779,-0.000990247,-0.31874,0.00176383,0.0144775,629,1114,-29.4583,-4.00355
-588,-90,-29.4347,4.26501,0,0,0,0,0,0,0,-1,636,1114,-29.4347,-4.265
-581,-90,-31.9009,1.01587,0,0,0,0,0,0,0,-1,643,1114,-31.901,-1.01585
-574,-90,-31.8423,1.01709,0.00237065,-0.00144028,-0.00130028,0.00277203,-0.00184165,-0.299405,0.0026817,0.0378475,650,1114,-31.8423,-1.01708
-567,-90,-31.7997,0.977539,0.0024777,-0.00154266,-0.00144584,0.00294366,-0.00200862,-0.311768,0.00287614,0.0390628,657,1114,-31.7997,-0.977504
-560,-90,-31.8114,1.02502,0.00261689,-0.00159788,-0.00163802,0.00317863,-0.00215962,-0.330365,0.0031007,0.0417604,664,1114,-31.8114,-1.02497
-553,-90,-31.8508,1.18921,0.00264453,-0.00166122,-0.00196138,0.00340402,-0.00242071,-0.369444,0.00337884,0.041885,671,1114,-31.8508,-1.18917
-546,-90,-31.9478,1.19189,0.00302552,-0.00175991,-0.00239253,0.00401648,-0.00275088,-0.39268,0.00392985,0.0400634,678,1114,-31.9478,-1.19194
-539,-90,-31.927,1.03894,0.00492048,-0.00216003,-0.00299782,0.00601923,-0.00325877,-0.351311,0.00543511,0.0402668,685,1114,-31.927,-1.03891
-532,-90,-31.7513,0.862915,0.00761168,-0.00236768,-0.00367471,0.0088188,-0.0035748,-0.317391,0.00736587,0.043653,692,1114,-31.7513,-0.862929
-525,-90,0,0,0,0,0,0,0,0,0,-1,699,1114,0,0
-518,-90,0,0,0,0,0,0,0,0,0,-1,706,1114,0,0
-511,-90,0,0,0,0,0,0,0,0,0,-1,713,1114,0,0
-504,-90,0,0,0,0,0,0,0,0,0,-1,720,1114,0,0
-497,-90,0,0,0,0,0,0,0,0,0,-1,727,1114,0,0
-490,-90,0,0,0,0,0,0,0,0,0,-1,734,1114,0,0
-483,-90,0,0,0,0,0,0,0,0,0,-1,741,1114,0,0
-476,-90,0,0,0,0,0,0,0,0,0,-1,748,1114,0,0
-469,-90,0,0,0,0,0,0,0,0,0,-1,755,1114,0,0
-462,-90,0,0,0,0,0,0,0,0,0,-1,762,1114,0,0
-455,-90,0,0,0,0,0,0,0,0,0,-1,769,1114,0,0
-448,-90,0,0,0,0,0,0,0,0,0,-1,776,1114,0,0
-441,-90,0,0,0,0,0,0,0,0,0,-1,783,1114,0,0
-434,-90,0,0,0,0,0,0,0,0,0,-1,790,1114,0,0
-427,-90,0,0,0,0,0,0,0,0,0,-1,797,1114,0,0
-420,-90,0,0,0,0,0,0,0,0,0,-1,804,1114,0,0
-413,-90,0,0,0,0,0,0,0,0,0,-1,811,1114,0,0
-406,-90,0,0,0,0,0,0,0,0,0,-1,818,1114,0,0
-399,-90,0,0,0,0,0,0,0,0,0,-1,825,1114,0,0
-392,-90,0,0,0,0,0,0,0,0,0,-1,832,1114,0,0
-385,-90,0,0,0,0,0,0,0,0,0,-1,839,1114,0,0
-378,-90,0,0,0,0,0,0,0,0,0,-1,846,1114,0,0
-371,-90,0,0,0,0,0,0,0,0,0,-1,853,1114,0,0
-364,-90,0,0,0,0,0,0,0,0,0,-1,860,1114,0,0
-357,-90,0,0,0,0,0,0,0,0,0,-1,867,1114,0,0
-350,-90,0,0,0,0,0,0,0,0,0,-1,874,1114,0,0
-343,-90,0,0,0,0,0,0,0,0,0,-1,881,1114,0,0
-336,-90,0,0,0,0,0,0,0,0,0,-1,888,1114,0,0
-329,-90,0,0,0,0,0,0,0,0,0,-1,895,1114,0,0
-322,-90,0,0,0,0,0,0,0,0,0,-1,902,1114,0,0
-315,-90,0,0,0,0,0,0,0,0,0,-1,909,1114,0,0
-308,-90,0,0,0,0,0,0,0,0,0,-1,916,1114,0,0
-301,-90,0,0,0,0,0,0,0,0,0,-1,923,1114,0,0
-294,-90,0,0,0,0,0,0,0,0,0,-1,930,1114,0,0
-287,-90,0,0,0,0,0,0,0,0,0,-1,937,1114,0,0
-280,-90,0,0,0,0,0,0,0,0,0,-1,944,1114,0,0
-273,-90,0,0,0,0,0,0,0,0,0,-1,951,1114,0,0
-266,-90,0,0,0,0,0,0,0,0,0,-1,958,1114,0,0
-259,-90,0,0,0,0,0,0,0,0,0,-1,965,1114,0,0
-252,-90,0,0,0,0,0,0,0,0,0,-1,972,1114,0,0
-245,-90,0,0,0,0,0,0,0,0,0,-1,979,1114,0,0
-238,-90,0,0,0,0,0,0,0,0,0,-1,986,1114,0,0
-231,-90,0,0,0,0,0,0,0,0,0,-1,993,1114,0,0
-224,-90,0,0,0,0,0,0,0,0,0,-1,1000,1114,0,0
-217,-90,0,0,0,0,0,0,0,0,0,-1,1007,1114,0,0
-210,-90,0,0,0,0,0,0,0,0,0,-1,1014,1114,0,0
-203,-90,0,0,0,0,0,0,0,0,0,-1,1021,1114,0,0
-196,-90,0,0,0,0,0,0,0,0,0,-1,1028,1114,0,0
-189,-90,0,0,0,0,0,0,0,0,0,-1,1035,1114,0,0
-182,-90,0,0,0,0,0,0,0,0,0,-1,1042,1114,0,0
-175,-90,0,0,0,0,0,0,0,0,0,-1,1049,1114,0,0
-168,-90,0,0,0,0,0,0,0,0,0,-1,1056,1114,0,0
-161,-90,0,0,0,0,0,0,0,0,0,-1,1063,1114,0,0
-154,-90,0,0,0,0,0,0,0,0,0,-1,1070,1114,0,0
-147,-90,0,0,0,0,0,0,0,0,0,-1,1077,1114,0,0
-140,-90,0,0,0,0,0,0,0,0,0,-1,1084,1114,0,0
-133,-90,0,0,0,0,0,0,0,0,0,-1,1091,1114,0,0
-126,-90,0,0,0,0,0,0,0,0,0,-1,1098,1114,0,0
-119,-90,0,0,0,0,0,0,0,0,0,-1,1105,1114,0,0
-112,-90,0,0,0,0,0,0,0,0,0,-1,1112,1114,0,0
-105,-90,0,0,0,0,0,0,0,0,0,-1,1119,1114,0,0
-98,-90,0,0,0,0,0,0,0,0,0,-1,1126,1114,0,0
-91,-90,0,0,0,0,0,0,0,0,0,-1,1133,1114,0,0
-84,-90,0,0,0,0,0,0,0,0,0,-1,1140,1114,0,0
-77,-90,0,0,0,0,0,0,0,0,0,-1,1147,1114,0,0
-70,-90,0,0,0,0,0,0,0,0,0,-1,1154,1114,0,0
-63,-90,0,0,0,0,0,0,0,0,0,-1,1161,1114,0,0
-56,-90,0,0,0,0,0,0,0,0,0,-1,1168,1114,0,0
-49,-90,0,0,0,0,0,0,0,0,0,-1,1175,1114,0,0
-42,-90,0,0,0,0,0,0,0,0,0,-1,1182,1114,0,0
-35,-90,0,0,0,0,0,0,0,0,0,-1,1189,1114,0,0
-28,-90,0,0,0,0,0,0,0,0,0,-1,1196,1114,0,0
-21,-90,0,0,0,0,0,0,0,0,0,-1,1203,1114,0,0
-14,-90,0,0,0,0,0,0,0,0,0,-1,1210,1114,0,0
-7,-90,0,0,0,0,0,0,0,0,0,-1,1217,1114,0,0
0,-90,0,0,0,0,0,0,0,0,0,-1,1224,1114,0,0
7,-90,0,0,0,0,0,0,0,0,0,-1,1231,1114,0,0
14,-90,0,0,0,0,0,0,0,0,0,-1,1238,1114,0,0
21,-90,0,0,0,0,0,0,0,0,0,-1,1245,1114,0,0
28,-90,0,0,0,0,0,0,0,0,0,-1,1252,1114,0,0
35,-90,0,0,0,0,0,0,0,0,0,-1,1259,1114,0,0
42,-90,0,0,0,0,0,0,0,0,0,-1,1266,1114,0,0
49,-90,0,0,0,0,0,0,0,0,0,-1,1273,1114,0,0
56,-90,0,0,0,0,0,0,0,0,0,-1,1280,1114,0,0
63,-90,0,0,0,0,0,0,0,0,0,-1,1287,1114,0,0
70,-90,0,0,0,0,0,0,0,0,0,-1,1294,1114,0,0
77,-90,0,0,0,0,0,0,0,0,0,-1,1301,1114,0,0
84,-90,0,0,0,0,0,0,0,0,0,-1,1308,1114,0,0
91,-90,0,0,0,0,0,0,0,0,0,-1,1315,1114,0,0
98,-90,0,0,0,0,0,0,0,0,0,-1,1322,1114,0,0
105,-90,0,0,0,0,0,0,0,0,0,-1,1329,1114,0,0
112,-90,0,0,0,0,0,0,0,0,0,-1,1336,1114,0,0
119,-90,0,0,0,0,0,0,0,0,0,-1,1343,1114,0,0
126,-90,0,0,0,0,0,0,0,0,0,-1,1350,1114,0,0
133,-90,0,0,0,0,0,0,0,0,0,-1,1357,1114,0,0
140,-90,0,0,0,0,0,0,0,0,0,-1,1364,1114,0,0
147,-90,0,0,0,0,0,0,0,0,0,-1,1371,1114,0,0
154,-90,0,0,0,0,0,0,0,0,0,-1,1378,1114,0,0
161,-90,0,0,0,0,0,0,0,0,0,-1,1385,1114,0,0
168,-90,0,0,0,0,0,0,0,0,0,-1,1392,1114,0,0
175,-90,0,0,0,0,0,0,0,0,0,-1,1399,1114,0,0
182,-90,0,0,0,0,0,0,0,0,0,-1,1406,1114,0,0
189,-90,0,0,0,0,0,0,0,0,0,-1,1413,1114,0,0
196,-90,0,0,0,0,0,0,0,0,0,-1,1420,1114,0,0
203,-90,0,0,0,0,0,0,0,0,0,-1,1427,1114,0,0
210,-90,0,0,0,0,0,0,0,0,0,-1,1434,1114,0,0
217,-90,0,0,0,0,0,0,0,0,0,-1,1441,1114,0,0
224,-90,0,0,0,0,0,0,0,0,0,-1,1448,1114,0,0
231,-90,0,0,0,0,0,0,0,0,0,-1,1455,1114,0,0
238,-90,0,0,0,0,0,0,0,0,0,-1,1462,1114,0,0
245,-90,0,0,0,0,0,0,0,0,0,-1,1469,1114,0,0
252,-90,0,0,0,0,0,0,0,0,0,-1,1476,1114,0,0
259,-90,0,0,0,0,0,0,0,0,0,-1,1483,1114,0,0
266,-90,0,0,0,0,0,0,0,0,0,-1,1490,1114,0,0
273,-90,0,0,0,0,0,0,0,0,0,-1,1497,1114,0,0
280,-90,0,0,0,0,0,0,0,0,0,-1,1504,1114,0,0
287,-90,0,0,0,0,0,0,0,0,0,-1,1511,1114,0,0
294,-90,0,0,0,0,0,0,0,0,0,-1,1518,1114,0,0
301,-90,0,0,0,0,0,0,0,0,0,-1,1525,1114,0,0
308,-90,0,0,0,0,0,0,0,0,0,-1,1532,1114,0,0
315,-90,0,0,0,0,0,0,0,0,0,-1,1539,1114,0,0
322,-90,0,0,0,0,0,0,0,0,0,-1,1546,1114,0,0
329,-90,0,0,0,0,0,0,0,0,0,-1,1553,1114,0,0
336,-90,0,0,0,0,0,0,0,0,0,-1,1560,1114,0,0
343,-90,0,0,0,0,0,0,0,0,0,-1,1567,1114,0,0
350,-90,0,0,0,0,0,0,0,0,0,-1,1574,1114,0,0
357,-90,0,0,0,0,0,0,0,0,0,-1,1581,1114,0,0
364,-90,0,0,0,0,0,0,0,0,0,-1,1588,1114,0,0
371,-90,0,0,0,0,0,0,0,0,0,-1,1595,1114,0,0
378,-90,0,0,0,0,0,0,0,0,0,-1,1602,1114,0,0
385,-90,0,0,0,0,0,0,0,0,0,-1,1609,1114,0,0
392,-90,0,0,0,0,0,0,0,0,0,-1,1616,1114,0,0
399,-90,0,0,0,0,0,0,0,0,0,-1,1623,1114,0,0
406,-90,0,0,0,0,0,0,0,0,0,-1,1630,1114,0,0
413,-90,0,0,0,0,0,0,0,0,0,-1,1637,1114,0,0
420,-90,0,0,0,0,0,0,0,0,0,-1,1644,1114,0,0
427,-90,0,0,0,0,0,0,0,0,0,-1,1651,1114,0,0
434,-90,0,0,0,0,0,0,0,0,0,-1,1658,1114,0,0
441,-90,0,0,0,0,0,0,0,0,0,-1,1665,1114,0,0
448,-90,0,0,0,0,0,0,0,0,0,-1,1672,1114,0,0
455,-90,0,0,0,0,0,0,0,0,0,-1,1679,1114,0,0
462,-90,0,0,0,0,0,0,0,0,0,-1,1686,1114,0,0
469,-90,0,0,0,0,0,0,0,0,0,-1,1693,1114,0,0
476,-90,0,0,0,0,0,0,0,0,0,-1,1700,1114,0,0
483,-90,0,0,0,0,0,0,0,0,0,-1,1707,1114,0,0
490,-90,0,0,0,0,0,0,0,0,0,-1,1714,1114,0,0
497,-90,0,0,0,0,0,0,0,0,0,-1,1721,1114,0,0
504,-90,0,0,0,0,0,0,0,0,0,-1,1728,1114,0,0
511,-90,0,0,0,0,0,0,0,0,0,-1,1735,1114,0,0
518,-90,0,0,0,0,0,0,0,0,0,-1,1742,1114,0,0
525,-90,0,0,0,0,0,0,0,0,0,-1,1749,1114,0,0
532,-90,0,0,0,0,0,0,0,0,0,-1,1756,1114,0,0
539,-90,0,0,0,0,0,0,0,0,0,-1,1763,1114,0,0
546,-90,0,0,0,0,0,0,0,0,0,-1,1770,1114,0,0
553,-90,0,0,0,0,0,0,0,0,0,-1,1777,1114,0,0
560,-90,0,0,0,0,0,0,0,0,0,-1,1784,1114,0,0
567,-90,0,0,0,0,0,0,0,0,0,-1,1791,1114,0,0
574,-90,0,0,0,0,0,0,0,0,0,-1,1798,1114,0,0
581,-90,0,0,0,0,0,0,0,0,0,-1,1805,1114,0,0
588,-90,0,0,0,0,0,0,0,0,0,-1,1812,1114,0,0
595,-90,0,0,0,0,0,0,0,0,0,-1,1819,1114,0,0
602,-90,0,0,0,0,0,0,0,0,0,-1,1826,1114,0,0
609,-90,0,0,0,0,0,0,0,0,0,-1,1833,1114,0,0
616,-90,0,0,0,0,0,0,0,0,0,-1,1840,1114,0,0
623,-90,0,0,0,0,0,0,0,0,0,-1,1847,1114,0,0
630,-90,0,0,0,0,0,0,0,0,0,-1,1854,1114,0,0
637,-90,0,0,0,0,0,0,0,0,0,-1,1861,1114,0,0
644,-90,43.3656,2.59961,0.0044788,0.00118473,0.00296682,0.00622511,-0.000561576,0.532004,0.00434936,0.0358182,1868,1114,43.3657,-2.59964
651,-90,43.3619,2.57581,0.00357159,0.000862199,0.00242978,0.00499881,-0.000565015,0.531092,0.00353595,0.0393716,1875,1114,43.3619,-2.57586
658,-90,43.4614,2.54272,0.00305532,0.000642662,0.00184389,0.00405243,-0.00035445,0.495726,0.00282719,0.0420553,1882,1114,43.4615,-2.54274
665,-90,43.4208,2.67432,0.00246121,0.000487379,0.00131198,0.00311603,-0.000167439,0.462933,0.00213535,0.0431309,1889,1114,43.4207,-2.67426
672,-90,43.4276,2.69666,0.00193715,0.000391996,0.000813583,0.00228654,4.26144e-05,0.405622,0.00151035,0.0432027,1896,1114,43.4277,-2.69666
679,-90,43.4818,2.81299,0.00125544,0.000310204,0.000381096,0.00138995,0.000175695,0.339302,0.000873972,0.0393661,1903,1114,43.4818,-2.81298
686,-90,43.5256,2.80505,0.000707997,0.000135034,0.000146863,0.000743447,9.95831e-05,0.236855,0.000465998,0.0344189,1910,1114,43.5257,-2.80507
693,-90,43.5302,2.79639,0.000384607,-1.96869e-05,4.62033e-05,0.00038982,-2.48999e-05,0.112351,0.000268565,0.0343092,1917,1114,43.5302,-2.79639
700,-90,43.5393,2.85754,0.000151255,-0.000139539,-3.4365e-05,0.000155261,-0.000143545,-0.116047,0.00017256,0.0320564,1924,1114,43.5393,-2.85754
707,-90,43.4812,2.76611,-0.000250275,-0.000114442,5.42268e-05,-9.5449e-05,-0.000269267,1.2339,0.000157641,0.02421,1931,1114,43.4812,-2.76607
714,-90,43.4089,2.58679,0,0,0,0,0,0,0,-1,1938,1114,43.4089,-2.58681
721,-90,40.9546,6.81042,0,0,0,0,0,0,0,-1,1945,1114,40.9546,-6.81045
728,-90,40.9882,6.58118,-0.00135683,0.000311322,0.000533019,0.00046709,-0.0015126,1.28648,0.00119492,0.026194,1952,1114,40.9881,-6.58114
735,-90,40.8478,6.28247,-0.00170312,0.000577291,0.000662895,0.000755987,-0.00188181,1.30749,0.00156849,0.0310352,1959,1114,40.8478,-6.28248
742,-90,40.9178,5.99768,-0.00214672,0.00130417,0.000872553,0.00151225,-0.0023548,1.3367,0.00225023,0.0272083,1966,1114,40.9179,-5.99769
749,-90,41.1185,5.66309,-0.00249915,0.00235021,0.00130893,0.00268095,-0.0028299,1.32329,0.00318208,0.0184122,1973,1114,41.1186,-5.66314
756,-90,41.0918,5.41626,-0.0029657,0.00357318,0.00132742,0.00383238,-0.0032249,1.37796,0.00407955,0.0163518,1980,1114,41.0917,-5.4162
763,-90,41.0309,5.16785,-0.00372587,0.00569078,0.00106093,0.00580883,-0.00384392,1.45998,0.00561137,0.012834,1987,1114,41.0309,-5.1679
770,-90,40.9802,4.91089,-0.00454129,0.00844428,0.000543323,0.00846697,-0.00456399,1.52905,0.00763509,0.0164596,1994,1114,40.9802,-4.91094
777,-90,40.9034,4.72351,-0.00549326,0.0117405,-0.000288715,0.0117453,-0.00549809,-1.55405,0.010171,0.0160262,2001,1114,40.9034,-4.72348
784,-90,40.8235,4.59045,-0.00682657,0.0156095,-0.00155774,0.0157171,-0.00693421,-1.50181,0.0134015,0.0290132,2008,1114,40.8235,-4.59048
791,-90,40.7146,4.48157,-0.00861271,0.0202188,-0.00348344,0.0206337,-0.00902761,-1.45225,0.0175565,0.0440626,2015,1114,40.7145,-4.4816
798,-90,40.542,4.34814,-0.0108442,0.0257352,-0.0063667,0.0268117,-0.0119206,-1.4033,0.0229064,0.0454455,2022,1114,40.5419,-4.34811
805,-90,40.1982,3.86975,0,0,0,0,0,0,0,-1,2029,1114,40.1982,-3.86975
812,-90,41.874,4.09253,0,0,0,0,0,0,0,-1,2036,1114,41.874,-4.09257
-700,-97,0,0,0,0,0,0,0,0,0,-1,524,1121,0,0
-693,-97,-28.1553,-0.34082,0,0,0,0,0,0,0,-1,531,1121,-28.1553,0.340842
-686,-97,-28.3021,-0.222412,0.0160982,0.0106249,-0.0577563,0.0711826,-0.0444596,-0.761725,0.0673576,0.0475251,538,1121,-28.3021,0.222391
-679,-97,-28.4379,-0.125854,0.0116394,0.0127234,-0.0431098,0.0552945,-0.0309318,-0.791684,0.0504408,0.0445742,545,1121,-28.4379,0.125823
-672,-97,-28.4892,0.145142,0.00820241,0.0130589,-0.0313117,0.0420364,-0.020775,-0.824096,0.0369502,0.042557,552,1121,-28.4892,-0.145175
-665,-97,-28.9246,0.233521,0.00546961,0.0123734,-0.0219393,0.0311307,-0.0132876,-0.863428,0.0263256,0.0482107,559,1121,-28.9246,-0.233473
-658,-97,-28.9713,0.910522,0,0,0,0,0,0,0,-1,566,1121,-28.9712,-0.910571
-651,-97,-29.0499,1.34143,0.0019292,0.00950973,-0.0092934,0.0157561,-0.00431713,-0.979024,0.0122004,0.0328055,573,1121,-29.0499,-1.34142
-644,-97,-29.1016,1.72424,0.00117506,0.00771031,-0.00550852,0.0108475,-0.00196209,-1.0531,0.00796662,0.0126658,580,1121,-29.1015,-1.7243
-637,-97,-29.124,2.06665,0.000404129,0.00601188,-0.001774,0.00652596,-0.000109944,-1.28874,0.00438774,0.012471,587,1121,-29.124,-2.0666
-630,-97,-29.1325,2.37549,0.000249021,0.00426243,-2.41706e-05,0.00426257,0.000248875,-1.56477,0.0027625,0.00925544,594,1121,-29.1325,-2.37549
-623,-97,-29.1532,2.70911,0.000229935,0.0025294,0.000813028,0.00278782,-2.84871e-05,1.26304,0.00186811,0.0115351,601,1121,-29.1532,-2.70914
-616,-97,-29.1749,3.05054,0.00115895,0.00125136,0.00041261,0.00162034,0.000789965,0.841156,0.000935602,0.0174656,608,1121,-29.1749,-3.05057
-609,-97,-29.2524,3.40833,0.00196666,0.000340688,-0.000251487,0.00200467,0.000302679,-0.150001,0.00124785,0.0238634,615,1121,-29.2524,-3.40829
-602,-97,-29.2772,3.67383,0.00220307,-0.000109862,-0.000464515,0.00229288,-0.000199666,-0.190972,0.0015993,0.0219964,622,1121,-29.2772,-3.67379
-595,-97,-29.1491,4.00525,0.00184794,-0.00050057,-0.000625654,0.00200422,-0.000656848,-0.244775,0.00160067,0.0174952,629,1121,-29.1491,-4.00531
-588,-97,-29.1609,4.30969,0,0,0,0,0,0,0,-1,636,1121,-29.161,-4.30966
-581,-97,-31.9348,0.958252,0,0,0,0,0,0,0,-1,643,1121,-31.9348,-0.958254
-574,-97,-31.8246,0.992798,0.00243061,-0.000999454,-0.00115389,0.00278265,-0.0013515,-0.296122,0.00243406,0.0483733,650,1121,-31.8246,-0.992756
-567,-97,-31.8176,1.00403,0.00254241,-0.00103929,-0.00135444,0.00299692,-0.00149381,-0.323765,0.00264069,0.0369704,657,1121,-31.8176,-1.004
-560,-97,-31.8696,1.15942,0.00267811,-0.00104207,-0.00162632,0.00328882,-0.00165278,-0.359224,0.00290469,0.0395117,664,1121,-31.8696,-1.15942
-553,-97,-31.7782,1.46777,0.00262076,-0.00106806,-0.0020933,0.00356628,-0.00201359,-0.42426,0.00326285,0.0437387,671,1121,-31.7782,-1.46778
-546,-97,-31.9115,1.42969,0.00285064,-0.00112725,-0.00274321,0.00425007,-0.00252669,-0.47173,0.00395451,0.0440773,678,1121,-31.9115,-1.4297
-539,-97,-32.0432,1.17969,0.00451602,-0.00147375,-0.00367633,0.00626294,-0.00322067,-0.443596,0.00556849,0.0418439,685,1121,-32.0432,-1.17965
-532,-97,-31.9419,0.960083,0.00718313,-0.00166173,-0.00471603,0.0092259,-0.0037045,-0.408758,0.00768889,0.0407151,692,1121,-31.9419,-0.960079
-525,-97,0,0,0,0,0,0,0,0,0,-1,699,1121,0,0
-518,-97,0,0,0,0,0,0,0,0,0,-1,706,1121,0,0
-511,-97,0,0,0,0,0,0,0,0,0,-1,713,1121,0,0
-504,-97,0,0,0,0,0,0,0,0,0,-1,720,1121,0,0
-497,-97,0,0,0,0,0,0,0,0,0,-1,727,1121,0,0
-490,-97,0,0,0,0,0,0,0,0,0,-1,734,1121,0,0
-483,-97,0,0,0,0,0,0,0,0,0,-1,741,1121,0,0
-476,-97,0,0,0,0,0,0,0,0,0,-1,748,1121,0,0
-469,-97,0,0,0,0,0,0,0,0,0,-1,755,1121,0,0
-462,-97,0,0,0,0,0,0,0,0,0,-1,762,1121,0,0
-455,-97,0,0,0,0,0,0,0,0,0,-1,769,1121,0,0
-448,-97,0,0,0,0,0,0,0,0,0,-1,776,1121,0,0
-441,-97,0,0,0,0,0,0,0,0,0,-1,783,1121,0,0
-434,-97,0,0,0,0,0,0,0,0,0,-1,790,1121,0,0
-427,-97,0,0,0,0,0,0,0,0,0,-1,797,1121,0,0
-420,-97,0,0,0,0,0,0,0,0,0,-1,804,1121,0,0
-413,-97,0,0,0,0,0,0,0,0,0,-1,811,1121,0,0
-406,-97,0,0,0,0,0,0,0,0,0,-1,818,1121,0,0
-399,-97,0,0,0,0,0,0,0,0,0,-1,825,1121,0,0
-392,-97,0,0,0,0,0,0,0,0,0,-1,832,1121,0,0
-385,-97,0,0,0,0,0,0,0,0,0,-1,839,1121,0,0
-378,-97,0,0,0,0,0,0,0,0,0,-1,846,1121,0,0
-371,-97,0,0,0,0,0,0,0,0,0,-1,853,1121,0,0
-364,-97,0,0,0,0,0,0,0,0,0,-1,860,1121,0,0
-357,-97,0,0,0,0,0,0,0,0,0,-1,867,1121,0,0
-350,-97,0,0,0,0,0,0,0,0,0,-1,874,1121,0,0
-343,-97,0,0,0,0,0,0,0,0,0,-1,881,1121,0,0
-336,-97,0,0,0,0,0,0,0,0,0,-1,888,1121,0,0
-329,-97,0,0,0,0,0,0,0,0,0,-1,895,1121,0,0
-322,-97,0,0,0,0,0,0,0,0,0,-1,902,1121,0,0
-315,-97,0,0,0,0,0,0,0,0,0,-1,909,1121,0,0
-308,-97,0,0,0,0,0,0,0,0,0,-1,916,1121,0,0
-301,-97,0,0,0,0,0,0,0,0,0,-1,923,1121,0,0
-294,-97,0,0,0,0,0,0,0,0,0,-1,930,1121,0,0
-287,-97,0,0,0,0,0,0,0,0,0,-1,937,1121,0,0
-280,-97,0,0,0,0,0,0,0,0,0,-1,944,1121,0,0
-273,-97,0,0,0,0,0,0,0,0,0,-1,951,1121,0,0
-266,-97,0,0,0,0,0,0,0,0,0,-1,958,1121,0,0
-259,-97,0,0,0,0,0,0,0,0,0,-1,965,1121,0,0
-252,-97,0,0,0,0,0,0,0,0,0,-1,972,1121,0,0
-245,-97,0,0,0,0,0,0,0,0,0,-1,979,1121,0,0
-238,-97,0,0,0,0,0,0,0,0,0,-1,986,1121,0,0
-231,-97,0,0,0,0,0,0,0,0,0,-1,993,1121,0,0
-224,-97,0,0,0,0,0,0,0,0,0,-1,1000,1121,0,0
-217,-97,0,0,0,0,0,0,0,0,0,-1,1007,1121,0,0
-210,-97,0,0,0,0,0,0,0,0,0,-1,1014,1121,0,0
-203,-97,0,0,0,0,0,0,0,0,0,-1,1021,1121,0,0
-196,-97,0,0,0,0,0,0,0,0,0,-1,1028,1121,0,0
-189,-97,0,0,0,0,0,0,0,0,0,-1,1035,1121,0,0
-182,-97,0,0,0,0,0,0,0,0,0,-1,1042,1121,0,0
-175,-97,0,0,0,0,0,0,0,0,0,-1,1049,1121,0,0
-168,-97,0,0,0,0,0,0,0,0,0,-1,1056,1121,0,0
-161,-97,0,0,0,0,0,0,0,0,0,-1,1063,1121,0,0
-154,-97,0,0,0,0,0,0,0,0,0,-1,1070,1121,0,0
-147,-97,0,0,0,0,0,0,0,0,0,-1,1077,1121,0,0
-140,-97,0,0,0,0,0,0,0,0,0,-1,1084,1121,0,0
-133,-97,0,0,0,0,0,0,0,0,0,-1,1091,1121,0,0
-126,-97,0,0,0,0,0,0,0,0,0,-1,1098,1121,0,0
-119,-97,0,0,0,0,0,0,0,0,0,-1,1105,1121,0,0
-112,-97,0,0,0,0,0,0,0,0,0,-1,1112,1121,0,0
-105,-97,0,0,0,0,0,0,0,0,0,-1,1119,1121,0,0
-98,-97,0,0,0,0,0,0,0,0,0,-1,1126,1121,0,0
-91,-97,0,0,0,0,0,0,0,0,0,-1,1133,1121,0,0
-84,-97,0,0,0,0,0,0,0,0,0,-1,1140,1121,0,0
-77,-97,0,0,0,0,0,0,0,0,0,-1,1147,1121,0,0
-70,-97,0,0,0,0,0,0,0,0,0,-1,1154,1121,0,0
-63,-97,0,0,0,0,0,0,0,0,0,-1,1161,1121,0,0
-56,-97,0,0,0,0,0,0,0,0,0,-1,1168,1121,0,0
-49,-97,0,0,0,0,0,0,0,0,0,-1,1175,1121,0,0
-42,-97,0,0,0,0,0,0,0,0,0,-1,1182,1121,0,0
-35,-97,0,0,0,0,0,0,0,0,0,-1,1189,1121,0,0
-28,-97,0,0,0,0,0,0,0,0,0,-1,1196,1121,0,0
-21,-97,0,0,0,0,0,0,0,0,0,-1,1203,1121,0,0
-14,-97,0,0,0,0,0,0,0,0,0,-1,1210,1121,0,0
-7,-97,0,0,0,0,0,0,0,0,0,-1,1217,1121,0,0
0,-97,0,0,0,0,0,0,0,0,0,-1,1224,1121,0,0
7,-97,0,0,0,0,0,0,0,0,0,-1,1231,1121,0,0
14,-97,0,0,0,0,0,0,0,0,0,-1,1238,1121,0,0
21,-97,0,0,0,0,0,0,0,0,0,-1,1245,1121,0,0
28,-97,0,0,0,0,0,0,0,0,0,-1,1252,1121,0,0
35,-97,0,0,0,0,0,0,0,0,0,-1,1259,1121,0,0
42,-97,0,0,0,0,0,0,0,0,0,-1,1266,1121,0,0
49,-97,0,0,0,0,0,0,0,0,0,-1,1273,1121,0,0
56,-97,0,0,0,0,0,0,0,0,0,-1,1280,1121,0,0
63,-97,0,0,0,0,0,0,0,0,0,-1,1287,1121,0,0
70,-97,0,0,0,0,0,0,0,0,0,-1,1294,1121,0,0
77,-97,0,0,0,0,0,0,0,0,0,-1,1301,1121,0,0
84,-97,0,0,0,0,0,0,0,0,0,-1,1308,1121,0,0
91,-97,0,0,0,0,0,0,0,0,0,-1,1315,1121,0,0
98,-97,0,0,0,0,0,0,0,0,0,-1,1322,1121,0,0
105,-97,0,0,0,0,0,0,0,0,0,-1,1329,1121,0,0
112,-97,0,0,0,0,0,0,0,0,0,-1,1336,1121,0,0
119,-97,0,0,0,0,0,0,0,0,0,-1,1343,1121,0,0
126,-97,0,0,0,0,0,0,0,0,0,-1,1350,1121,0,0
133,-97,0,0,0,0,0,0,0,0,0,-1,1357,1121,0,0
140,-97,0,0,0,0,0,0,0,0,0,-1,1364,1121,0,0
147,-97,0,0,0,0,0,0,0,0,0,-1,1371,1121,0,0
154,-97,0,0,0,0,0,0,0,0,0,-1,1378,1121,0,0
161,-97,0,0,0,0,0,0,0,0,0,-1,1385,1121,0,0
168,-97,0,0,0,0,0,0,0,0,0,-1,1392,1121,0,0
175,-97,0,0,0,0,0,0,0,0,0,-1,1399,1121,0,0
182,-97,0,0,0,0,0,0,0,0,0,-1,1406,1121,0,0
189,-97,0,0,0,0,0,0,0,0,0,-1,1413,1121,0,0
196,-97,0,0,0,0,0,0,0,0,0,-1,1420,1121,0,0
203,-97,0,0,0,0,0,0,0,0,0,-1,1427,1121,0,0
210,-97,0,0,0,0,0,0,0,0,0,-1,1434,1121,0,0
217,-97,0,0,0,0,0,0,0,0,0,-1,1441,1121,0,0
224,-97,0,0,0,0,0,0,0,0,0,-1,1448,1121,0,0
231,-97,0,0,0,0,0,0,0,0,0,-1,1455,1121,0,0
238,-97,0,0,0,0,0,0,0,0,0,-1,1462,1121,0,0
245,-97,0,0,0,0,0,0,0,0,0,-1,1469,1121,0,0
252,-97,0,0,0,0,0,0,0,0,0,-1,1476,1121,0,0
259,-97,0,0,0,0,0,0,0,0,0,-1,1483,1121,0,0
266,-97,0,0,0,0,0,0,0,0,0,-1,1490,1121,0,0
273,-97,0,0,0,0,0,0,0,0,0,-1,1497,1121,0,0
280,-97,0,0,0,0,0,0,0,0,0,-1,1504,1121,0,0
287,-97,0,0,0,0,0,0,0,0,0,-1,1511,1121,0,0
294,-97,0,0,0,0,0,0,0,0,0,-1,1518,1121,0,0
301,-97,0,0,0,0,0,0,0,0,0,-1,1525,1121,0,0
308,-97,0,0,0,0,0,0,0,0,0,-1,1532,1121,0,0
315,-97,0,0,0,0,0,0,0,0,0,-1,1539,1121,0,0
322,-97,0,0,0,0,0,0,0,0,0,-1,1546,1121,0,0
329,-97,0,0,0,0,0,0,0,0,0,-1,1553,1121,0,0
336,-97,0,0,0,0,0,0,0,0,0,-1,1560,1121,0,0
343,-97,0,0,0,0,0,0,0,0,0,-1,1567,1121,0,0
350,-97,0,0,0,0,0,0,0,0,0,-1,1574,1121,0,0
357,-97,0,0,0,0,0,0,0,0,0,-1,1581,1121,0,0
364,-97,0,0,0,0,0,0,0,0,0,-1,1588,1121,0,0
371,-97,0,0,0,0,0,0,0,0,0,-1,1595,1121,0,0
378,-97,0,0,0,0,0,0,0,0,0,-1,1602,1121,0,0
385,-97,0,0,0,0,0,0,0,0,0,-1,1609,1121,0,0
392,-97,0,0,0,0,0,0,0,0,0,-1,1616,1121,0,0
399,-97,0,0,0,0,0,0,0,0,0,-1,1623,1121,0,0
406,-97,0,0,0,0,0,0,0,0,0,-1,1630,1121,0,0
413,-97,0,0,0,0,0,0,0,0,0,-1,1637,1121,0,0
420,-97,0,0,0,0,0,0,0,0,0,-1,1644,1121,0,0
427,-97,0,0,0,0,0,0,0,0,0,-1,1651,1121,0,0
434,-97,0,0,0,0,0,0,0,0,0,-1,1658,1121,0,0
441,-97,0,0,0,0,0,0,0,0,0,-1,1665,1121,0,0
448,-97,0,0,0,0,0,0,0,0,0,-1,1672,1121,0,0
455,-97,0,0,0,0,0,0,0,0,0,-1,1679,1121,0,0
462,-97,0,0,0,0,0,0,0,0,0,-1,1686,1121,0,0
469,-97,0,0,0,0,0,0,0,0,0,-1,1693,1121,0,0
476,-97,0,0,0,0,0,0,0,0,0,-1,1700,1121,0,0
483,-97,0,0,0,0,0,0,0,0,0,-1,1707,1121,0,0
490,-97,0,0,0,0,0,0,0,0,0,-1,1714,1121,0,0
497,-97,0,0,0,0,0,0,0,0,0,-1,1721,1121,0,0
504,-97,0,0,0,0,0,0,0,0,0,-1,1728,1121,0,0
511,-97,0,0,0,0,0,0,0,0,0,-1,1735,1121,0,0
518,-97,0,0,0,0,0,0,0,0,0,-1,1742,1121,0,0
525,-97,0,0,0,0,0,0,0,0,0,-1,1749,1121,0,0
532,-97,0,0,0,0,0,0,0,0,0,-1,1756,1121,0,0
539,-97,0,0,0,0,0,0,0,0,0,-1,1763,1121,0,0
546,-97,0,0,0,0,0,0,0,0,0,-1,1770,1121,0,0
553,-97,0,0,0,0,0,0,0,0,0,-1,1777,1121,0,0
560,-97,0,0,0,0,0,0,0,0,0,-1,1784,1121,0,0
567,-97,0,0,0,0,0,0,0,0,0,-1,1791,1121,0,0
574,-97,0,0,0,0,0,0,0,0,0,-1,1798,1121,0,0
581,-97,0,0,0,0,0,0,0,0,0,-1,1805,1121,0,0
588,-97,0,0,0,0,0,0,0,0,0,-1,1812,1121,0,0
595,-97,0,0,0,0,0,0,0,0,0,-1,1819,1121,0,0
602,-97,0,0,0,0,0,0,0,0,0,-1,1826,1121,0,0
609,-97,0,0,0,0,0,0,0,0,0,-1,1833,1121,0,0
616,-97,0,0,0,0,0,0,0,0,0,-1,1840,1121,0,0
623,-97,0,0,0,0,0,0,0,0,0,-1,1847,1121,0,0
630,-97,0,0,0,0,0,0,0,0,0,-1,1854,1121,0,0
637,-97,0,0,0,0,0,0,0,0,0,-1,1861,1121,0,0
644,-97,43.2823,2.9502,0.00459318,0.00121229,0.0030184,0.00636227,-0.000556796,0.530136,0.00443877,0.0372035,1868,1121,43.2824,-2.95017
651,-97,43.3231,2.97046,0.00370796,0.000972467,0.00245175,0.00514767,-0.000467242,0.530967,0.00359765,0.038349,1875,1121,43.3231,-2.97041
658,-97,43.5038,2.74365,0.00320528,0.000795455,0.00184195,0.00420141,-0.000200674,0.495754,0.00287017,0.0392803,1882,1121,43.5038,-2.74366
665,-97,43.538,2.55811,0.00260947,0.000655909,0.00128581,0.00324744,1.79397e-05,0.460571,0.00215901,0.041715,1889,1121,43.538,-2.55814
672,-97,43.5303,2.69177,0.00207107,0.000556429,0.000757723,0.00238504,0.000242451,0.392833,0.00151569,0.0426581,1896,1121,43.5302,-2.69177
679,-97,43.4708,3.00012,0.00131986,0.000503007,0.00030756,0.00142271,0.000400155,0.322721,0.000847197,0.0419033,1903,1121,43.4709,-3.00011
686,-97,43.4296,3.03235,0.000696768,0.000359941,6.78926e-05,0.000709938,0.000346771,0.191601,0.000409919,0.0376267,1910,1121,43.4296,-3.03237
693,-97,43.4576,2.8125,0.000334719,0.000243627,-3.982e-05,0.000349671,0.000228674,-0.359213,0.000205049,0.0333052,1917,1121,43.4576,-2.81256
700,-97,43.4973,2.83167,6.17287e-05,0.000129884,-0.000141263,0.000241122,-4.95093e-05,-0.903754,0.000179541,0.0277991,1924,1121,43.4973,-2.83171
707,-97,43.4487,2.78491,-0.00038277,0.000153647,-5.47893e-05,0.000159185,-0.000388309,-1.47004,0.000325192,0.0236791,1931,1121,43.4487,-2.78495
714,-97,43.354,2.61719,0,0,0,0,0,0,0,-1,1938,1121,43.354,-2.61716
721,-97,40.8048,6.77393,0,0,0,0,0,0,0,-1,1945,1121,40.8048,-6.77398
728,-97,40.8004,6.56641,-0.00151455,0.00054643,0.000430783,0.000632848,-0.00160096,1.37282,0.00132945,0.0229007,1952,1121,40.8004,-6.56644
735,-97,40.7218,6.22498,-0.00181603,0.000732985,0.000613031,0.000872753,-0.0019558,1.34663,0.00167249,0.0236994,1959,1121,40.7218,-6.22501
742,-97,40.6968,5.99463,-0.00214395,0.0013459,0.000888169,0.00155894,-0.00235698,1.33539,0.00227645,0.019963,1966,1121,40.6967,-5.99465
749,-97,40.7799,5.69446,-0.00240833,0.00225417,0.00130644,0.00259529,-0.00274944,1.3154,0.00308621,0.0214857,1973,1121,40.78,-5.69444
756,-97,40.7794,5.39038,-0.00268235,0.00347104,0.00129826,0.00373373,-0.00294505,1.37115,0.00386495,0.0158668,1980,1121,40.7794,-5.39038
763,-97,40.7155,5.15771,-0.00297856,0.00539997,0.00087923,0.00549124,-0.00306983,1.46736,0.00500821,0.0130848,1987,1121,40.7155,-5.15771
770,-97,40.6759,4.93311,-0.00323032,0.00795174,0.00016836,0.00795427,-0.00323285,1.55574,0.00664787,0.011729,1994,1121,40.6759,-4.93314
777,-97,40.6559,4.67944,-0.0034709,0.0110182,-0.000987389,0.0110852,-0.00353788,-1.50307,0.00880949,0.0159993,2001,1121,40.6559,-4.67944
784,-97,40.592,4.4635,-0.00388345,0.0147244,-0.00283345,0.0151463,-0.00430534,-1.42299,0.0117975,0.0364032,2008,1121,40.592,-4.46345
791,-97,40.5347,4.20667,-0.00439911,0.0192314,-0.00569949,0.0205342,-0.00570195,-1.34607,0.0159339,0.043855,2015,1121,40.5346,-4.20668
798,-97,40.4753,3.95789,-0.00483686,0.0247085,-0.0100567,0.0278067,-0.0079351,-1.27195,0.0216726,0.0446132,2022,1121,40.4754,-3.95783
805,-97,40.4587,3.82971,-0.00561337,0.0313186,-0.016616,0.0376938,-0.0119886,-1.20444,0.0299366,0.0483938,2029,1121,40.4588,-3.82976
812,-97,40.3523,3.55554,0,0,0,0,0,0,0,-1,2036,1121,40.3524,-3.55549
-700,-104,0,0,0,0,0,0,0,0,0,-1,524,1128,0,0
-693,-104,-28.8589,1.03101,0,0,0,0,0,0,0,-1,531,1128,-28.8588,-1.03105
-686,-104,-27.6776,-0.377319,0,0,0,0,0,0,0,-1,538,1128,-27.6776,0.37737
-679,-104,-27.8107,0.0427246,0.0143081,0.0187586,-0.0523574,0.068938,-0.0358712,-0.806636,0.0615073,0.0437641,545,1128,-27.8107,-0.0427492
-672,-104,-27.8041,0.0238037,0.00982847,0.0173571,-0.0381057,0.0518839,-0.0246984,-0.834631,0.0451339,0.0464803,552,1128,-27.8041,-0.0237895
-665,-104,-28.5325,0.15686,0.00639072,0.0153542,-0.0268344,0.0380786,-0.0163336,-0.868142,0.0322403,0.0476216,559,1128,-28.5324,-0.156915
-658,-104,-29.6765,0.22876,0,0,0,0,0,0,0,-1,566,1128,-29.6765,-0.228799
-651,-104,-28.8508,1.49487,0.00205347,0.0107601,-0.0115871,0.0187847,-0.00597112,-0.965091,0.0149173,0.0391911,573,1128,-28.8508,-1.49491
-644,-104,-28.7592,1.73633,0.0010892,0.00844599,-0.00696828,0.0126472,-0.00311197,-1.02825,0.00963772,0.0164108,580,1128,-28.7592,-1.73634
-637,-104,-28.7703,2.04053,0.000110219,0.00626224,-0.00248635,0.00714145,-0.000768991,-1.2309,0.0050369,0.0119127,587,1128,-28.7702,-2.0405
-630,-104,-28.7901,2.33008,-0.000134373,0.00425625,-0.000187397,0.00426423,-0.000142357,-1.52822,0.00289144,0.0136272,594,1128,-28.7901,-2.33008
-623,-104,-28.8044,2.67798,-6.71998e-05,0.00239939,0.000956545,0.00272686,-0.000394673,1.24095,0.00196274,0.0158082,601,1128,-28.8044,-2.67797
-616,-104,-28.9631,3.07361,0.00111437,0.00118997,0.000520644,0.00167418,0.000630155,0.821632,0.000976386,0.0205658,608,1128,-28.9631,-3.07358
-609,-104,-29.1177,3.33179,0.00199043,0.000313616,-0.000289571,0.00203902,0.000265019,-0.166278,0.00128019,0.0264159,615,1128,-29.1177,-3.33175
-602,-104,-28.9514,3.70154,0.00229947,6.43297e-05,-0.000424389,0.00237734,-1.35371e-05,-0.181461,0.00158942,0.0231414,622,1128,-28.9514,-3.70149
-595,-104,-28.788,4.10168,0.0019994,-0.000181919,-0.00048813,0.00210365,-0.000286169,-0.21041,0.00150691,0.0174161,629,1128,-28.7879,-4.10174
-588,-104,-28.6965,4.51697,0,0,0,0,0,0,0,-1,636,1128,-28.6966,-4.51702
-581,-104,-23.9373,2.85864,0,0,0,0,0,0,0,-1,643,1128,-23.9373,-2.85861
-574,-104,-31.7901,0.932373,0,0,0,0,0,0,0,-1,650,1128,-31.7901,-0.932327
-567,-104,-31.913,1.20642,0.00264827,-0.000489838,-0.00137574,0.00316598,-0.00100755,-0.359923,0.00251471,0.0367741,657,1128,-31.913,-1.20638
-560,-104,-32.0066,1.46021,0.00279146,-0.000465686,-0.00169582,0.00351407,-0.00118829,-0.402812,0.00282343,0.0419097,664,1128,-32.0066,-1.4602
-553,-104,-31.9153,1.3833,0.00265205,-0.000480487,-0.00225799,0.00383382,-0.00166226,-0.482171,0.00325468,0.0493836,671,1128,-31.9154,-1.38328
-546,-104,-31.9876,1.18787,0.00270181,-0.000528001,-0.003057,0.00454424,-0.00237043,-0.542396,0.00405741,0.0490152,678,1128,-31.9876,-1.18785
-539,-104,-32.0802,1.08289,0.00402565,-0.000830189,-0.00420181,0.00645056,-0.0032551,-0.52342,0.00570391,0.0411528,685,1128,-32.0802,-1.08293
-532,-104,-31.8985,0.974609,0.00651953,-0.000973657,-0.00549724,0.0094255,-0.00387963,-0.486283,0.00790103,0.0401613,692,1128,-31.8985,-0.97463
-525,-104,-31.7325,0.877075,0.00944516,-0.000909247,-0.00705572,0.0130193,-0.00448343,-0.468885,0.0104982,0.0392362,699,1128,-31.7325,-0.877096
-518,-104,0,0,0,0,0,0,0,0,0,-1,706,1128,0,0
-511,-104,0,0,0,0,0,0,0,0,0,-1,713,1128,0,0
-504,-104,0,0,0,0,0,0,0,0,0,-1,720,1128,0,0
-497,-104,0,0,0,0,0,0,0,0,0,-1,727,1128,0,0
-490,-104,0,0,0,0,0,0,0,0,0,-1,734,1128,0,0
-483,-104,0,0,0,0,0,0,0,0,0,-1,741,1128,0,0
-476,-104,0,0,0,0,0,0,0,0,0,-1,748,1128,0,0
-469,-104,0,0,0,0,0,0,0,0,0,-1,755,1128,0,0
-462,-104,0,0,0,0,0,0,0,0,0,-1,762,1128,0,0
-455,-104,0,0,0,0,0,0,0,0,0,-1,769,1128,0,0
-448,-104,0,0,0,0,0,0,0,0,0,-1,776,1128,0,0
-441,-104,0,0,0,0,0,0,0,0,0,-1,783,1128,0,0
-434,-104,0,0,0,0,0,0,0,0,0,-1,790,1128,0,0
-427,-104,0,0,0,0,0,0,0,0,0,-1,797,1128,0,0
-420,-104,0,0,0,0,0,0,0,0,0,-1,804,1128,0,0
-413,-104,0,0,0,0,0,0,0,0,0,-1,811,1128,0,0
-406,-104,0,0,0,0,0,0,0,0,0,-1,818,1128,0,0
-399,-104,0,0,0,0,0,0,0,0,0,-1,825,1128,0,0
-392,-104,0,0,0,0,0,0,0,0,0,-1,832,1128,0,0
-385,-104,0,0,0,0,0,0,0,0,0,-1,839,1128,0,0
-378,-104,0,0,0,0,0,0,0,0,0,-1,846,1128,0,0
-371,-104,0,0,0,0,0,0,0,0,0,-1,853,1128,0,0
-364,-104,0,0,0,0,0,0,0,0,0,-1,860,1128,0,0
-357,-104,0,0,0,0,0,0,0,0,0,-1,867,1128,0,0
-350,-104,0,0,0,0,0,0,0,0,0,-1,874,1128,0,0
-343,-104,0,0,0,0,0,0,0,0,0,-1,881,1128,0,0
-336,-104,0,0,0,0,0,0,0,0,0,-1,888,1128,0,0
-329,-104,0,0,0,0,0,0,0,0,0,-1,895,1128,0,0
-322,-104,0,0,0,0,0,0,0,0,0,-1,902,1128,0,0
-315,-104,0,0,0,0,0,0,0,0,0,-1,909,1128,0,0
-308,-104,0,0,0,0,0,0,0,0,0,-1,916,1128,0,0
-301,-104,0,0,0,0,0,0,0,0,0,-1,923,1128,0,0
-294,-104,0,0,0,0,0,0,0,0,0,-1,930,1128,0,0
-287,-104,0,0,0,0,0,0,0,0,0,-1,937,1128,0,0
-280,-104,0,0,0,0,0,0,0,0,0,-1,944,1128,0,0
-273,-104,0,0,0,0,0,0,0,0,0,-1,951,1128,0,0
-266,-104,0,0,0,0,0,0,0,0,0,-1,958,1128,0,0
-259,-104,0,0,0,0,0,0,0,0,0,-1,965,1128,0,0
-252,-104,0,0,0,0,0,0,0,0,0,-1,972,1128,0,0
-245,-104,0,0,0,0,0,0,0,0,0,-1,979,1128,0,0
-238,-104,0,0,0,0,0,0,0,0,0,-1,986,1128,0,0
-231,-104,0,0,0,0,0,0,0,0,0,-1,993,1128,0,0
-224,-104,0,0,0,0,0,0,0,0,0,-1,1000,1128,0,0
-217,-104,0,0,0,0,0,0,0,0,0,-1,1007,1128,0,0
-210,-104,0,0,0,0,0,0,0,0,0,-1,1014,1128,0,0
-203,-104,0,0,0,0,0,0,0,0,0,-1,1021,1128,0,0
-196,-104,0,0,0,0,0,0,0,0,0,-1,1028,1128,0,0
-189,-104,0,0,0,0,0,0,0,0,0,-1,1035,1128,0,0
-182,-104,0,0,0,0,0,0,0,0,0,-1,1042,1128,0,0
-175,-104,0,0,0,0,0,0,0,0,0,-1,1049,1128,0,0
-168,-104,0,0,0,0,0,0,0,0,0,-1,1056,1128,0,0
-161,-104,0,0,0,0,0,0,0,0,0,-1,1063,1128,0,0
-154,-104,0,0,0,0,0,0,0,0,0,-1,1070,1128,0,0
-147,-104,0,0,0,0,0,0,0,0,0,-1,1077,1128,0,0
-140,-104,0,0,0,0,0,0,0,0,0,-1,1084,1128,0,0
-133,-104,0,0,0,0,0,0,0,0,0,-1,1091,1128,0,0
-126,-104,0,0,0,0,0,0,0,0,0,-1,1098,1128,0,0
-119,-104,0,0,0,0,0,0,0,0,0,-1,1105,1128,0,0
-112,-104,0,0,0,0,0,0,0,0,0,-1,1112,1128,0,0
-105,-104,0,0,0,0,0,0,0,0,0,-1,1119,1128,0,0
-98,-104,0,0,0,0,0,0,0,0,0,-1,1126,1128,0,0
-91,-104,0,0,0,0,0,0,0,0,0,-1,1133,1128,0,0
-84,-104,0,0,0,0,0,0,0,0,0,-1,1140,1128,0,0
-77,-104,0,0,0,0,0,0,0,0,0,-1,1147,1128,0,0
-70,-104,0,0,0,0,0,0,0,0,0,-1,1154,1128,0,0
-63,-104,0,0,0,0,0,0,0,0,0,-1,1161,1128,0,0
-56,-104,0,0,0,0,0,0,0,0,0,-1,1168,1128,0,0
-49,-104,0,0,0,0,0,0,0,0,0,-1,1175,1128,0,0
-42,-104,0,0,0,0,0,0,0,0,0,-1,1182,1128,0,0
-35,-104,0,0,0,0,0,0,0,0,0,-1,1189,1128,0,0
-28,-104,0,0,0,0,0,0,0,0,0,-1,1196,1128,0,0
-21,-104,0,0,0,0,0,0,0,0,0,-1,1203,1128,0,0
-14,-104,0,0,0,0,0,0,0,0,0,-1,1210,1128,0,0
-7,-104,0,0,0,0,0,0,0,0,0,-1,1217,1128,0,0
0,-104,0,0,0,0,0,0,0,0,0,-1,1224,1128,0,0
7,-104,0,0,0,0,0,0,0,0,0,-1,1231,1128,0,0
14,-104,0,0,0,0,0,0,0,0,0,-1,1238,1128,0,0
21,-104,0,0,0,0,0,0,0,0,0,-1,1245,1128,0,0
28,-104,0,0,0,0,0,0,0,0,0,-1,1252,1128,0,0
35,-104,0,0,0,0,0,0,0,0,0,-1,1259,1128,0,0
42,-104,0,0,0,0,0,0,0,0,0,-1,1266,1128,0,0
49,-104,0,0,0,0,0,0,0,0,0,-1,1273,1128,0,0
56,-104,0,0,0,0,0,0,0,0,0,-1,1280,1128,0,0
63,-104,0,0,0,0,0,0,0,0,0,-1,1287,1128,0,0
70,-104,0,0,0,0,0,0,0,0,0,-1,1294,1128,0,0
77,-104,0,0,0,0,0,0,0,0,0,-1,1301,1128,0,0
84,-104,0,0,0,0,0,0,0,0,0,-1,1308,1128,0,0
91,-104,0,0,0,0,0,0,0,0,0,-1,1315,1128,0,0
98,-104,0,0,0,0,0,0,0,0,0,-1,1322,1128,0,0
105,-104,0,0,0,0,0,0,0,0,0,-1,1329,1128,0,0
112,-104,0,0,0,0,0,0,0,0,0,-1,1336,1128,0,0
119,-104,0,0,0,0,0,0,0,0,0,-1,1343,1128,0,0
126,-104,0,0,0,0,0,0,0,0,0,-1,1350,1128,0,0
133,-104,0,0,0,0,0,0,0,0,0,-1,1357,1128,0,0
140,-104,0,0,0,0,0,0,0,0,0,-1,1364,1128,0,0
147,-104,0,0,0,0,0,0,0,0,0,-1,1371,1128,0,0
154,-104,0,0,0,0,0,0,0,0,0,-1,1378,1128,0,0
161,-104,0,0,0,0,0,0,0,0,0,-1,1385,1128,0,0
168,-104,0,0,0,0,0,0,0,0,0,-1,1392,1128,0,0
175,-104,0,0,0,0,0,0,0,0,0,-1,1399,1128,0,0
182,-104,0,0,0,0,0,0,0,0,0,-1,1406,1128,0,0
189,-104,0,0,0,0,0,0,0,0,0,-1,1413,1128,0,0
196,-104,0,0,0,0,0,0,0,0,0,-1,1420,1128,0,0
203,-104,0,0,0,0,0,0,0,0,0,-1,1427,1128,0,0
210,-104,0,0,0,0,0,0,0,0,0,-1,1434,1128,0,0
217,-104,0,0,0,0,0,0,0,0,0,-1,1441,1128,0,0
224,-104,0,0,0,0,0,0,0,0,0,-1,1448,1128,0,0
231,-104,0,0,0,0,0,0,0,0,0,-1,1455,1128,0,0
238,-104,0,0,0,0,0,0,0,0,0,-1,1462,1128,0,0
245,-104,0,0,0,0,0,0,0,0,0,-1,1469,1128,0,0
252,-104,0,0,0,0,0,0,0,0,0,-1,1476,1128,0,0
259,-104,0,0,0,0,0,0,0,0,0,-1,1483,1128,0,0
266,-104,0,0,0,0,0,0,0,0,0,-1,1490,1128,0,0
273,-104,0,0,0,0,0,0,0,0,0,-1,1497,1128,0,0
280,-104,0,0,0,0,0,0,0,0,0,-1,1504,1128,0,0
287,-104,0,0,0,0,0,0,0,0,0,-1,1511,1128,0,0
294,-104,0,0,0,0,0,0,0,0,0,-1,1518,1128,0,0
301,-104,0,0,0,0,0,0,0,0,0,-1,1525,1128,0,0
308,-104,0,0,0,0,0,0,0,0,0,-1,1532,1128,0,0
315,-104,0,0,0,0,0,0,0,0,0,-1,1539,1128,0,0
322,-104,0,0,0,0,0,0,0,0,0,-1,1546,1128,0,0
329,-104,0,0,0,0,0,0,0,0,0,-1,1553,1128,0,0
336,-104,0,0,0,0,0,0,0,0,0,-1,1560,1128,0,0
343,-104,0,0,0,0,0,0,0,0,0,-1,1567,1128,0,0
350,-104,0,0,0,0,0,0,0,0,0,-1,1574,1128,0,0
357,-104,0,0,0,0,0,0,0,0,0,-1,1581,1128,0,0
364,-104,0,0,0,0,0,0,0,0,0,-1,1588,1128,0,0
371,-104,0,0,0,0,0,0,0,0,0,-1,1595,1128,0,0
378,-104,0,0,0,0,0,0,0,0,0,-1,1602,1128,0,0
385,-104,0,0,0,0,0,0,0,0,0,-1,1609,1128,0,0
392,-104,0,0,0,0,0,0,0,0,0,-1,1616,1128,0,0
399,-104,0,0,0,0,0,0,0,0,0,-1,1623,1128,0,0
406,-104,0,0,0,0,0,0,0,0,0,-1,1630,1128,0,0
413,-104,0,0,0,0,0,0,0,0,0,-1,1637,1128,0,0
420,-104,0,0,0,0,0,0,0,0,0,-1,1644,1128,0,0
427,-104,0,0,0,0,0,0,0,0,0,-1,1651,1128,0,0
434,-104,0,0,0,0,0,0,0,0,0,-1,1658,1128,0,0
441,-104,0,0,0,0,0,0,0,0,0,-1,1665,1128,0,0
448,-104,0,0,0,0,0,0,0,0,0,-1,1672,1128,0,0
455,-104,0,0,0,0,0,0,0,0,0,-1,1679,1128,0,0
462,-104,0,0,0,0,0,0,0,0,0,-1,1686,1128,0,0
469,-104,0,0,0,0,0,0,0,0,0,-1,1693,1128,0,0
476,-104,0,0,0,0,0,0,0,0,0,-1,1700,1128,0,0
483,-104,0,0,0,0,0,0,0,0,0,-1,1707,1128,0,0
490,-104,0,0,0,0,0,0,0,0,0,-1,1714,1128,0,0
497,-104,0,0,0,0,0,0,0,0,0,-1,1721,1128,0,0
504,-104,0,0,0,0,0,0,0,0,0,-1,1728,1128,0,0
511,-104,0,0,0,0,0,0,0,0,0,-1,1735,1128,0,0
518,-104,0,0,0,0,0,0,0,0,0,-1,1742,1128,0,0
525,-104,0,0,0,0,0,0,0,0,0,-1,1749,1128,0,0
532,-104,0,0,0,0,0,0,0,0,0,-1,1756,1128,0,0
539,-104,0,0,0,0,0,0,0,0,0,-1,1763,1128,0,0
546,-104,0,0,0,0,0,0,0,0,0,-1,1770,1128,0,0
553,-104,0,0,0,0,0,0,0,0,0,-1,1777,1128,0,0
560,-104,0,0,0,0,0,0,0,0,0,-1,1784,1128,0,0
567,-104,0,0,0,0,0,0,0,0,0,-1,1791,1128,0,0
574,-104,0,0,0,0,0,0,0,0,0,-1,1798,1128,0,0
581,-104,0,0,0,0,0,0,0,0,0,-1,1805,1128,0,0
588,-104,0,0,0,0,0,0,0,0,0,-1,1812,1128,0,0
595,-104,0,0,0,0,0,0,0,0,0,-1,1819,1128,0,0
602,-104,0,0,0,0,0,0,0,0,0,-1,1826,1128,0,0
609,-104,0,0,0,0,0,0,0,0,0,-1,1833,1128,0,0
616,-104,0,0,0,0,0,0,0,0,0,-1,1840,1128,0,0
623,-104,0,0,0,0,0,0,0,0,0,-1,1847,1128,0,0
630,-104,0,0,0,0,0,0,0,0,0,-1,1854,1128,0,0
637,-104,0,0,0,0,0,0,0,0,0,-1,1861,1128,0,0
644,-104,43.1938,3.11145,0.00438107,0.00113251,0.00301959,0.00618552,-0.000671938,0.538639,0.00436493,0.0372276,1868,1128,43.1938,-3.1114
651,-104,43.2795,3.12695,0.00360673,0.00105485,0.00246186,0.00510366,-0.000442073,0.546314,0.00355896,0.0397368,1875,1128,43.2795,-3.12694
658,-104,43.4802,2.88428,0.00318214,0.00094855,0.00186292,0.00423737,-0.000106685,0.515378,0.00286114,0.0424554,1882,1128,43.4802,-2.88431
665,-104,43.6008,2.71875,0.00264889,0.000833625,0.00130174,0.00332819,0.000154332,0.480961,0.00216918,0.0439746,1889,1128,43.6008,-2.71876
672,-104,43.6355,2.7644,0.0021613,0.000726086,0.000755938,0.002486,0.000401388,0.405702,0.00154106,0.0431282,1896,1128,43.6354,-2.76435
679,-104,43.4652,2.99316,0.00142097,0.000668711,0.00029257,0.00152136,0.000568321,0.330543,0.000887668,0.0421233,1903,1128,43.4652,-2.99314
686,-104,43.2819,3.04858,0.000796182,0.000523962,4.68486e-05,0.000804019,0.000516125,0.165748,0.000470393,0.0416054,1910,1128,43.2819,-3.04854
693,-104,43.3521,2.82898,0.000441802,0.000428563,-6.48478e-05,0.000500367,0.000369998,-0.734535,0.000299726,0.0356982,1917,1128,43.3521,-2.82902
700,-104,43.491,2.78503,0.0001601,0.000316617,-0.000181046,0.000435594,4.11223e-05,-0.9894,0.000277705,0.0279106,1924,1128,43.4909,-2.78502
707,-104,43.4319,2.7749,-0.000295292,0.000316944,-9.68495e-05,0.0003319,-0.000310247,-1.41759,0.000370814,0.0461906,1931,1128,43.4319,-2.77489
714,-104,43.3184,2.64771,0,0,0,0,0,0,0,-1,1938,1128,43.3183,-2.64766
721,-104,40.4646,6.87671,0,0,0,0,0,0,0,-1,1945,1128,40.4646,-6.87674
728,-104,40.6232,6.49329,-0.00140585,0.000651156,0.000397424,0.00072527,-0.00147996,1.38643,0.00129781,0.0233624,1952,1128,40.6232,-6.49327
735,-104,40.5696,6.16602,-0.00165058,0.000779919,0.000649127,0.00094242,-0.00181308,1.3255,0.00161714,0.025239,1959,1128,40.5696,-6.166
742,-104,40.4584,5.98425,-0.00191956,0.00133255,0.00105455,0.00164457,-0.00223158,1.28313,0.00224643,0.0175883,1966,1128,40.4584,-5.9842
749,-104,40.429,5.71118,-0.00217075,0.00211858,0.00149244,0.00258676,-0.00263893,1.26682,0.00301711,0.0188366,1973,1128,40.4289,-5.71116
756,-104,40.4323,5.38904,-0.00228971,0.00330942,0.0015439,0.00370691,-0.00268721,1.31881,0.00370726,0.0176305,1980,1128,40.4322,-5.38898
763,-104,40.416,5.1272,-0.00208921,0.00504315,0.0012994,0.00527251,-0.00231856,1.39609,0.00449196,0.0162806,1987,1128,40.416,-5.12721
770,-104,40.3727,4.89966,-0.00178721,0.00736233,0.000777453,0.00742792,-0.0018528,1.48663,0.00567134,0.0133649,1994,1128,40.3727,-4.89963
777,-104,40.3241,4.61853,-0.00127891,0.0101531,-0.000162201,0.0101554,-0.00128121,-1.55661,0.00723525,0.0212797,2001,1128,40.3241,-4.61851
784,-104,40.2915,4.37939,-0.000615315,0.0135815,-0.0017891,0.0138035,-0.000837309,-1.44735,0.00949376,0.0399831,2008,1128,40.2914,-4.37942
791,-104,40.2966,4.14868,0.000509084,0.0177837,-0.00439733,0.0188386,-0.000545851,-1.33534,0.0127449,0.0449629,2015,1128,40.2966,-4.14864
798,-104,40.53,3.93372,0.0025804,0.0229175,-0.00844974,0.02597,-0.000472153,-1.22413,0.0174729,0.0455137,2022,1128,40.53,-3.93373
805,-104,41.0078,3.56323,0.00559517,0.0290981,-0.0146591,0.0361345,-0.00144126,-1.12327,0.0245842,0.0475195,2029,1128,41.0079,-3.56327
812,-104,40.9282,3.22546,0.00950549,0.036546,-0.023828,0.0504223,-0.00437085,-1.04345,0.0351625,0.0490624,2036,1128,40.9282,-3.22544
-700,-111,0,0,0,0,0,0,0,0,0,-1,524,1135,0,0
-693,-111,-27.9065,1.65784,0.0334294,0.0280867,-0.106416,0.137207,-0.0756914,-0.772849,0.124616,0.0469129,531,1135,-27.9065,-1.65781
-686,-111,-27.2595,0.964355,0.0237608,0.0273794,-0.0802038,0.105794,-0.054654,-0.796676,0.0941903,0.0470397,538,1135,-27.2595,-0.964311
-679,-111,-26.8806,0.457153,0.016555,0.0248697,-0.0596786,0.0805356,-0.0391108,-0.820173,0.0704445,0.0444607,545,1135,-26.8806,-0.457163
-672,-111,-27.1099,-0.122803,0,0,0,0,0,0,0,-1,552,1135,-27.1099,0.122821
-665,-111,-28.3611,0.18335,0,0,0,0,0,0,0,-1,559,1135,-28.3611,-0.183375
-658,-111,-28.8964,1.4519,0,0,0,0,0,0,0,-1,566,1135,-28.8964,-1.45187
-651,-111,-28.5603,1.5177,0.00232485,0.0120817,-0.013202,0.0212778,-0.00687126,-0.962377,0.0169465,0.0403456,573,1135,-28.5603,-1.51776
-644,-111,-28.3227,1.68506,0.00115798,0.00924968,-0.007894,0.0140742,-0.00366657,-1.02221,0.0108142,0.0272002,580,1135,-28.3227,-1.68507
-637,-111,-28.4158,2.06335,-2.71007e-05,0.00657514,-0.00281739,0.00761396,-0.00106592,-1.21755,0.00546603,0.0108513,587,1135,-28.4158,-2.06337
-630,-111,-28.4459,2.31519,-0.000370764,0.00435074,-9.98156e-05,0.00435285,-0.000372873,-1.54967,0.00303384,0.0180914,594,1135,-28.4459,-2.31522
-623,-111,-28.4491,2.66199,-0.000230696,0.00241087,0.00125528,0.00291223,-0.000732051,1.19081,0.002226,0.0154266,601,1135,-28.4491,-2.66204
-616,-111,-28.598,3.01123,0.00117171,0.00129502,0.000718709,0.00195471,0.000512018,0.828186,0.00117042,0.016534,608,1135,-28.598,-3.01123
-609,-111,-28.8529,3.34216,0.00205174,0.000504282,-0.000226253,0.00208414,0.00047188,-0.142244,0.0012619,0.0272135,615,1135,-28.8529,-3.34222
-602,-111,-28.7541,3.7124,0.0023954,0.000403088,-0.00027851,0.00243361,0.000364887,-0.136312,0.00151549,0.0313375,622,1135,-28.7541,-3.71238
-595,-111,-28.5316,4.1123,0.00212195,0.000241573,-0.000229834,0.00214964,0.000213889,-0.119877,0.00136738,0.0160718,629,1135,-28.5316,-4.11225
-588,-111,-28.29,4.59656,0,0,0,0,0,0,0,-1,636,1135,-28.29,-4.59651
-581,-111,-21.0555,3.14551,0,0,0,0,0,0,0,-1,643,1135,-21.0555,-3.14548
-574,-111,-31.7789,0.942871,0,0,0,0,0,0,0,-1,650,1135,-31.7788,-0.942905
-567,-111,-31.8269,1.23059,0.00265472,7.30965e-05,-0.00114027,0.00308623,-0.000358419,-0.361777,0.00218677,0.0386597,657,1135,-31.8269,-1.23054
-560,-111,-31.8272,1.31689,0.00279546,0.000103641,-0.00147326,0.00344503,-0.000545934,-0.41527,0.00249863,0.0427764,664,1135,-31.8272,-1.31688
-553,-111,-31.8472,1.06714,0.00259298,9.7982e-05,-0.00209832,0.00378663,-0.00109567,-0.517207,0.00295808,0.0460939,671,1135,-31.8472,-1.06713
-546,-111,-32.0822,0.963745,0,0,0,0,0,0,0,-1,678,1135,-32.0822,-0.963801
-539,-111,-31.8671,1.05029,0.00356507,-7.71118e-05,-0.00437187,0.00647997,-0.00299201,-0.588053,0.00559088,0.0384539,685,1135,-31.8671,-1.05026
-532,-111,-31.8283,1.13171,0.00594497,1.49206e-05,-0.00596006,0.0096368,-0.0036769,-0.554582,0.00793924,0.0394029,692,1135,-31.8283,-1.13169
-525,-111,-31.7097,0.981934,0.00880176,0.000407983,-0.00783319,0.0134915,-0.00428179,-0.539467,0.0107108,0.0393067,699,1135,-31.7096,-0.981882
-518,-111,0,0,0,0,0,0,0,0,0,-1,706,1135,0,0
-511,-111,0,0,0,0,0,0,0,0,0,-1,713,1135,0,0
-504,-111,0,0,0,0,0,0,0,0,0,-1,720,1135,0,0
-497,-111,0,0,0,0,0,0,0,0,0,-1,727,1135,0,0
-490,-111,0,0,0,0,0,0,0,0,0,-1,734,1135,0,0
-483,-111,0,0,0,0,0,0,0,0,0,-1,741,1135,0,0
-476,-111,0,0,0,0,0,0,0,0,0,-1,748,1135,0,0
-469,-111,0,0,0,0,0,0,0,0,0,-1,755,1135,0,0
-462,-111,0,0,0,0,0,0,0,0,0,-1,762,1135,0,0
-455,-111,0,0,0,0,0,0,0,0,0,-1,769,1135,0,0
-448,-111,0,0,0,0,0,0,0,0,0,-1,776,1135,0,0
-441,-111,0,0,0,0,0,0,0,0,0,-1,783,1135,0,0
-434,-111,0,0,0,0,0,0,0,0,0,-1,790,1135,0,0
-427,-111,0,0,0,0,0,0,0,0,0,-1,797,1135,0,0
-420,-111,0,0,0,0,0,0,0,0,0,-1,804,1135,0,0
-413,-111,0,0,0,0,0,0,0,0,0,-1,811,1135,0,0
-406,-111,0,0,0,0,0,0,0,0,0,-1,818,1135,0,0
-399,-111,0,0,0,0,0,0,0,0,0,-1,825,1135,0,0
-392,-111,0,0,0,0,0,0,0,0,0,-1,832,1135,0,0
-385,-111,0,0,0,0,0,0,0,0,0,-1,839,1135,0,0
-378,-111,0,0,0,0,0,0,0,0,0,-1,846,1135,0,0
-371,-111,0,0,0,0,0,0,0,0,0,-1,853,1135,0,0
-364,-111,0,0,0,0,0,0,0,0,0,-1,860,1135,0,0
-357,-111,0,0,0,0,0,0,0,0,0,-1,867,1135,0,0
-350,-111,0,0,0,0,0,0,0,0,0,-1,874,1135,0,0
-343,-111,0,0,0,0,0,0,0,0,0,-1,881,1135,0,0
-336,-111,0,0,0,0,0,0,0,0,0,-1,888,1135,0,0
-329,-111,0,0,0,0,0,0,0,0,0,-1,895,1135,0,0
-322,-111,0,0,0,0,0,0,0,0,0,-1,902,1135,0,0
-315,-111,0,0,0,0,0,0,0,0,0,-1,909,1135,0,0
-308,-111,0,0,0,0,0,0,0,0,0,-1,916,1135,0,0
-301,-111,0,0,0,0,0,0,0,0,0,-1,923,1135,0,0
-294,-111,0,0,0,0,0,0,0,0,0,-1,930,1135,0,0
-287,-111,0,0,0,0,0,0,0,0,0,-1,937,1135,0,0
-280,-111,0,0,0,0,0,0,0,0,0,-1,944,1135,0,0
-273,-111,0,0,0,0,0,0,0,0,0,-1,951,1135,0,0
-266,-111,0,0,0,0,0,0,0,0,0,-1,958,1135,0,0
-259,-111,0,0,0,0,0,0,0,0,0,-1,965,1135,0,0
-252,-111,0,0,0,0,0,0,0,0,0,-1,972,1135,0,0
-245,-111,0,0,0,0,0,0,0,0,0,-1,979,1135,0,0
-238,-111,0,0,0,0,0,0,0,0,0,-1,986,1135,0,0
-231,-111,0,0,0,0,0,0,0,0,0,-1,993,1135,0,0
-224,-111,0,0,0,0,0,0,0,0,0,-1,1000,1135,0,0
-217,-111,0,0,0,0,0,0,0,0,0,-1,1007,1135,0,0
-210,-111,0,0,0,0,0,0,0,0,0,-1,1014,1135,0,0
-203,-111,0,0,0,0,0,0,0,0,0,-1,1021,1135,0,0
-196,-111,0,0,0,0,0,0,0,0,0,-1,1028,1135,0,0
-189,-111,0,0,0,0,0,0,0,0,0,-1,1035,1135,0,0
-182,-111,0,0,0,0,0,0,0,0,0,-1,1042,1135,0,0
-175,-111,0,0,0,0,0,0,0,0,0,-1,1049,1135,0,0
-168,-111,0,0,0,0,0,0,0,0,0,-1,1056,1135,0,0
-161,-111,0,0,0,0,0,0,0,0,0,-1,1063,1135,0,0
-154,-111,0,0,0,0,0,0,0,0,0,-1,1070,1135,0,0
-147,-111,0,0,0,0,0,0,0,0,0,-1,1077,1135,0,0
-140,-111,0,0,0,0,0,0,0,0,0,-1,1084,1135,0,0
-133,-111,0,0,0,0,0,0,0,0,0,-1,1091,1135,0,0
-126,-111,0,0,0,0,0,0,0,0,0,-1,1098,1135,0,0
-119,-111,0,0,0,0,0,0,0,0,0,-1,1105,1135,0,0
-112,-111,0,0,0,0,0,0,0,0,0,-1,1112,1135,0,0
-105,-111,0,0,0,0,0,0,0,0,0,-1,1119,1135,0,0
-98,-111,0,0,0,0,0,0,0,0,0,-1,1126,1135,0,0
-91,-111,0,0,0,0,0,0,0,0,0,-1,1133,1135,0,0
-84,-111,0,0,0,0,0,0,0,0,0,-1,1140,1135,0,0
-77,-111,0,0,0,0,0,0,0,0,0,-1,1147,1135,0,0
-70,-111,0,0,0,0,0,0,0,0,0,-1,1154,1135,0,0
-63,-111,0,0,0,0,0,0,0,0,0,-1,1161,1135,0,0
-56,-111,0,0,0,0,0,0,0,0,0,-1,1168,1135,0,0
-49,-111,0,0,0,0,0,0,0,0,0,-1,1175,1135,0,0
-42,-111,0,0,0,0,0,0,0,0,0,-1,1182,1135,0,0
-35,-111,0,0,0,0,0,0,0,0,0,-1,1189,1135,0,0
-28,-111,0,0,0,0,0,0,0,0,0,-1,1196,1135,0,0
-21,-111,0,0,0,0,0,0,0,0,0,-1,1203,1135,0,0
-14,-111,0,0,0,0,0,0,0,0,0,-1,1210,1135,0,0
-7,-111,0,0,0,0,0,0,0,0,0,-1,1217,1135,0,0
0,-111,0,0,0,0,0,0,0,0,0,-1,1224,1135,0,0
7,-111,0,0,0,0,0,0,0,0,0,-1,1231,1135,0,0
14,-111,0,0,0,0,0,0,0,0,0,-1,1238,1135,0,0
21,-111,0,0,0,0,0,0,0,0,0,-1,1245,1135,0,0
28,-111,0,0,0,0,0,0,0,0,0,-1,1252,1135,0,0
35,-111,0,0,0,0,0,0,0,0,0,-1,1259,1135,0,0
42,-111,0,0,0,0,0,0,0,0,0,-1,1266,1135,0,0
49,-111,0,0,0,0,0,0,0,0,0,-1,1273,1135,0,0
56,-111,0,0,0,0,0,0,0,0,0,-1,1280,1135,0,0
63,-111,0,0,0,0,0,0,0,0,0,-1,1287,1135,0,0
70,-111,0,0,0,0,0,0,0,0,0,-1,1294,1135,0,0
77,-111,0,0,0,0,0,0,0,0,0,-1,1301,1135,0,0
84,-111,0,0,0,0,0,0,0,0,0,-1,1308,1135,0,0
91,-111,0,0,0,0,0,0,0,0,0,-1,1315,1135,0,0
98,-111,0,0,0,0,0,0,0,0,0,-1,1322,1135,0,0
105,-111,0,0,0,0,0,0,0,0,0,-1,1329,1135,0,0
112,-111,0,0,0,0,0,0,0,0,0,-1,1336,1135,0,0
119,-111,0,0,0,0,0,0,0,0,0,-1,1343,1135,0,0
126,-111,0,0,0,0,0,0,0,0,0,-1,1350,1135,0,0
133,-111,0,0,0,0,0,0,0,0,0,-1,1357,1135,0,0
140,-111,0,0,0,0,0,0,0,0,0,-1,1364,1135,0,0
147,-111,0,0,0,0,0,0,0,0,0,-1,1371,1135,0,0
154,-111,0,0,0,0,0,0,0,0,0,-1,1378,1135,0,0
161,-111,0,0,0,0,0,0,0,0,0,-1,1385,1135,0,0
168,-111,0,0,0,0,0,0,0,0,0,-1,1392,1135,0,0
175,-111,0,0,0,0,0,0,0,0,0,-1,1399,1135,0,0
182,-111,0,0,0,0,0,0,0,0,0,-1,1406,1135,0,0
189,-111,0,0,0,0,0,0,0,0,0,-1,1413,1135,0,0
196,-111,0,0,0,0,0,0,0,0,0,-1,1420,1135,0,0
203,-111,0,0,0,0,0,0,0,0,0,-1,1427,1135,0,0
210,-111,0,0,0,0,0,0,0,0,0,-1,1434,1135,0,0
217,-111,0,0,0,0,0,0,0,0,0,-1,1441,1135,0,0
224,-111,0,0,0,0,0,0,0,0,0,-1,1448,1135,0,0
231,-111,0,0,0,0,0,0,0,0,0,-1,1455,1135,0,0
238,-111,0,0,0,0,0,0,0,0,0,-1,1462,1135,0,0
245,-111,0,0,0,0,0,0,0,0,0,-1,1469,1135,0,0
252,-111,0,0,0,0,0,0,0,0,0,-1,1476,1135,0,0
259,-111,0,0,0,0,0,0,0,0,0,-1,1483,1135,0,0
266,-111,0,0,0,0,0,0,0,0,0,-1,1490,1135,0,0
273,-111,0,0,0,0,0,0,0,0,0,-1,1497,1135,0,0
280,-111,0,0,0,0,0,0,0,0,0,-1,1504,1135,0,0
287,-111,0,0,0,0,0,0,0,0,0,-1,1511,1135,0,0
294,-111,0,0,0,0,0,0,0,0,0,-1,1518,1135,0,0
301,-111,0,0,0,0,0,0,0,0,0,-1,1525,1135,0,0
308,-111,0,0,0,0,0,0,0,0,0,-1,1532,1135,0,0
315,-111,0,0,0,0,0,0,0,0,0,-1,1539,1135,0,0
322,-111,0,0,0,0,0,0,0,0,0,-1,1546,1135,0,0
329,-111,0,0,0,0,0,0,0,0,0,-1,1553,1135,0,0
336,-111,0,0,0,0,0,0,0,0,0,-1,1560,1135,0,0
343,-111,0,0,0,0,0,0,0,0,0,-1,1567,1135,0,0
350,-111,0,0,0,0,0,0,0,0,0,-1,1574,1135,0,0
357,-111,0,0,0,0,0,0,0,0,0,-1,1581,1135,0,0
364,-111,0,0,0,0,0,0,0,0,0,-1,1588,1135,0,0
371,-111,0,0,0,0,0,0,0,0,0,-1,1595,1135,0,0
378,-111,0,0,0,0,0,0,0,0,0,-1,1602,1135,0,0
385,-111,0,0,0,0,0,0,0,0,0,-1,1609,1135,0,0
392,-111,0,0,0,0,0,0,0,0,0,-1,1616,1135,0,0
399,-111,0,0,0,0,0,0,0,0,0,-1,1623,1135,0,0
406,-111,0,0,0,0,0,0,0,0,0,-1,1630,1135,0,0
413,-111,0,0,0,0,0,0,0,0,0,-1,1637,1135,0,0
420,-111,0,0,0,0,0,0,0,0,0,-1,1644,1135,0,0
427,-111,0,0,0,0,0,0,0,0,0,-1,1651,1135,0,0
434,-111,0,0,0,0,0,0,0,0,0,-1,1658,1135,0,0
441,-111,0,0,0,0,0,0,0,0,0,-1,1665,1135,0,0
448,-111,0,0,0,0,0,0,0,0,0,-1,1672,1135,0,0
455,-111,0,0,0,0,0,0,0,0,0,-1,1679,1135,0,0
462,-111,0,0,0,0,0,0,0,0,0,-1,1686,1135,0,0
469,-111,0,0,0,0,0,0,0,0,0,-1,1693,1135,0,0
476,-111,0,0,0,0,0,0,0,0,0,-1,1700,1135,0,0
483,-111,0,0,0,0,0,0,0,0,0,-1,1707,1135,0,0
490,-111,0,0,0,0,0,0,0,0,0,-1,1714,1135,0,0
497,-111,0,0,0,0,0,0,0,0,0,-1,1721,1135,0,0
504,-111,0,0,0,0,0,0,0,0,0,-1,1728,1135,0,0
511,-111,0,0,0,0,0,0,0,0,0,-1,1735,1135,0,0
518,-111,0,0,0,0,0,0,0,0,0,-1,1742,1135,0,0
525,-111,0,0,0,0,0,0,0,0,0,-1,1749,1135,0,0
532,-111,0,0,0,0,0,0,0,0,0,-1,1756,1135,0,0
539,-111,0,0,0,0,0,0,0,0,0,-1,1763,1135,0,0
546,-111,0,0,0,0,0,0,0,0,0,-1,1770,1135,0,0
553,-111,0,0,0,0,0,0,0,0,0,-1,1777,1135,0,0
560,-111,0,0,0,0,0,0,0,0,0,-1,1784,1135,0,0
567,-111,0,0,0,0,0,0,0,0,0,-1,1791,1135,0,0
574,-111,0,0,0,0,0,0,0,0,0,-1,1798,1135,0,0
581,-111,0,0,0,0,0,0,0,0,0,-1,1805,1135,0,0
588,-111,0,0,0,0,0,0,0,0,0,-1,1812,1135,0,0
595,-111,0,0,0,0,0,0,0,0,0,-1,1819,1135,0,0
602,-111,0,0,0,0,0,0,0,0,0,-1,1826,1135,0,0
609,-111,0,0,0,0,0,0,0,0,0,-1,1833,1135,0,0
616,-111,0,0,0,0,0,0,0,0,0,-1,1840,1135,0,0
623,-111,0,0,0,0,0,0,0,0,0,-1,1847,1135,0,0
630,-111,0,0,0,0,0,0,0,0,0,-1,1854,1135,0,0
637,-111,0,0,0,0,0,0,0,0,0,-1,1861,1135,0,0
644,-111,43.1891,2.98413,0.00415571,0.000894751,0.00279595,0.00576186,-0.000711404,0.521427,0.00409901,0.0409853,1868,1135,43.1891,-2.98416
651,-111,43.1764,3.06531,0.00342731,0.000819772,0.00235147,0.00481227,-0.000565181,0.532272,0.00341221,0.0435579,1875,1135,43.1764,-3.06528
658,-111,43.4054,2.92627,0.00303433,0.000727395,0.00183411,0.00404753,-0.000285806,0.5047,0.00279849,0.0455705,1882,1135,43.4054,-2.92629
665,-111,43.5444,2.88867,0.00255043,0.000645559,0.00131159,0.00321892,-2.29287e-05,0.47136,0.00215363,0.0469087,1889,1135,43.5444,-2.88862
672,-111,43.4819,2.80334,0.00211083,0.000575971,0.000781969,0.00243904,0.000247762,0.39739,0.00155005,0.045644,1896,1135,43.4819,-2.80329
679,-111,43.413,2.8728,0.00137052,0.000597365,0.000325008,0.00148899,0.000478896,0.349543,0.000877717,0.0422675,1903,1135,43.413,-2.87277
686,-111,43.3395,2.99353,0.000717062,0.000502145,8.46165e-05,0.000746378,0.000472829,0.333515,0.000436011,0.0410879,1910,1135,43.3395,-2.99351
693,-111,43.3313,2.99792,0.000345772,0.000478766,-2.43249e-05,0.000483075,0.000341462,-1.39545,0.000286749,0.0381896,1917,1135,43.3312,-2.99794
700,-111,43.4968,2.80774,4.44196e-05,0.000398752,-0.000143871,0.000449811,-6.63915e-06,-1.22977,0.000302111,0.0297463,1924,1135,43.4968,-2.80777
707,-111,43.4574,2.76282,0,0,0,0,0,0,0,-1,1931,1135,43.4573,-2.76281
714,-111,39.0695,6.81152,0,0,0,0,0,0,0,-1,1938,1135,39.0694,-6.81152
721,-111,40.1338,6.92358,0,0,0,0,0,0,0,-1,1945,1135,40.1338,-6.92363
728,-111,40.2449,6.53833,-0.00150452,0.000746699,0.000418463,0.000821968,-0.00157979,1.39283,0.00140948,0.0222845,1952,1135,40.2449,-6.53836
735,-111,40.2317,6.2533,-0.00168936,0.000817877,0.000743548,0.0010218,-0.00189328,1.30312,0.00170791,0.0214115,1959,1135,40.2317,-6.25331
742,-111,40.1471,6.01941,-0.00187095,0.00127267,0.00127633,0.00172561,-0.00232388,1.22979,0.00234646,0.0135246,1966,1135,40.1471,-6.01936
749,-111,40.1165,5.71313,-0.00202834,0.00196589,0.00186172,0.00269907,-0.00276151,1.19563,0.00315273,0.0151117,1973,1135,40.1165,-5.71314
756,-111,40.1001,5.38989,-0.00198149,0.00307235,0.00211791,0.00384252,-0.00275167,1.22201,0.00382448,0.0167506,1980,1135,40.1001,-5.3899
763,-111,40.1049,5.11938,-0.00152579,0.00470242,0.00216624,0.00538176,-0.00220513,1.26691,0.00450646,0.0140953,1987,1135,40.1049,-5.11941
770,-111,40.1008,4.83618,-0.000930501,0.00686751,0.00204585,0.00737166,-0.00143465,1.32919,0.0054559,0.0114327,1994,1135,40.1009,-4.83619
777,-111,39.9673,4.57117,-0.000130409,0.00950464,0.00156831,0.00975349,-0.000379259,1.41343,0.00663236,0.023233,2001,1135,39.9673,-4.57112
784,-111,39.8568,4.28333,0.000841995,0.0128258,0.000485757,0.0128455,0.000822338,1.53035,0.00830312,0.0396286,2008,1135,39.8568,-4.28329
791,-111,39.8955,3.94568,0.00228814,0.0169608,-0.00146668,0.017106,0.00214297,-1.47214,0.010761,0.0446614,2015,1135,39.8956,-3.94563
798,-111,40.0833,3.62292,0.00471204,0.022116,-0.0047618,0.0233337,0.00349438,-1.32045,0.0145317,0.0445624,2022,1135,40.0832,-3.62291
805,-111,41.2893,3.49622,0,0,0,0,0,0,0,-1,2029,1135,41.2894,-3.49622
812,-111,41.1824,3.13159,0,0,0,0,0,0,0,-1,2036,1135,41.1824,-3.13155
-700,-118,0,0,0,0,0,0,0,0,0,-1,524,1142,0,0
-693,-118,-26.7717,1.93994,0.0371977,0.0404857,-0.114788,0.153641,-0.075958,-0.792559,0.135065,0.0472214,531,1142,-26.7717,-1.93994
-686,-118,-26.1968,1.21533,0.0258252,0.0362592,-0.0857887,0.116989,-0.054905,-0.815767,0.101378,0.0480832,538,1142,-26.1968,-1.21536
-679,-118,-25.5943,0.434326,0.0176199,0.0312539,-0.0634767,0.0882786,-0.0394048,-0.83889,0.0754967,0.0454595,545,1142,-25.5943,-0.434368
-672,-118,-25.0467,-0.245117,0,0,0,0,0,0,0,-1,552,1142,-25.0467,0.245106
-665,-118,-28.0276,-1.02405,0,0,0,0,0,0,0,-1,559,1142,-28.0276,1.02409
-658,-118,-27.888,0.255005,0,0,0,0,0,0,0,-1,566,1142,-27.888,-0.255004
-651,-118,-27.8398,0.939087,0.00224877,0.0136195,-0.0136705,0.0227397,-0.00687146,-0.982461,0.0178956,0.0408909,573,1142,-27.8398,-0.93914
-644,-118,-27.8987,1.61414,0.000992285,0.0102602,-0.00800296,0.014874,-0.0036215,-1.04783,0.011318,0.0302666,580,1142,-27.8988,-1.61411
-637,-118,-28.0425,2.06506,-0.000302684,0.00707676,-0.00263014,0.00791823,-0.00114415,-1.26115,0.00569862,0.0170608,587,1142,-28.0425,-2.06509
-630,-118,-28.079,2.37561,-0.000682559,0.00461206,0.000211971,0.00462054,-0.000691032,1.53085,0.00333466,0.0211103,594,1142,-28.0791,-2.37556
-623,-118,-28.0687,2.703,-0.000437619,0.00255611,0.00157423,0.00323153,-0.00111303,1.1655,0.00260584,0.0177037,601,1142,-28.0687,-2.70303
-616,-118,-28.1306,3.02588,0.00114624,0.00148926,0.000833481,0.0021687,0.000466807,0.886868,0.00131804,0.0190608,608,1142,-28.1306,-3.02589
-609,-118,-28.3541,3.25256,0.00200072,0.000761609,-0.000213383,0.00203643,0.000725892,-0.165845,0.00119178,0.0322944,615,1142,-28.3541,-3.25253
-602,-118,-28.27,3.78711,0.00236367,0.000724255,-0.000179432,0.00238307,0.000704846,-0.10775,0.00141361,0.0312263,622,1142,-28.27,-3.78714
-595,-118,-28.2941,4.0553,0.00211692,0.000598582,-2.74214e-05,0.00211741,0.000598087,-0.0180523,0.00126047,0.0247969,629,1142,-28.2941,-4.05536
-588,-118,-27.7964,4.67371,0,0,0,0,0,0,0,-1,636,1142,-27.7964,-4.67368
-581,-118,-24.6116,3.89648,0,0,0,0,0,0,0,-1,643,1142,-24.6116,-3.89645
-574,-118,-31.8908,1.3175,0,0,0,0,0,0,0,-1,650,1142,-31.8908,-1.31748
-567,-118,-31.7892,1.18335,0.00254502,0.000514311,-0.000936272,0.00291081,0.000148525,-0.372449,0.00189297,0.0417843,657,1142,-31.7892,-1.18336
-560,-118,-31.6694,1.0603,0.00269644,0.000585169,-0.00126088,0.00328524,-3.63309e-06,-0.436883,0.00219137,0.039017,664,1142,-31.6694,-1.06026
-553,-118,-31.5257,0.826538,0,0,0,0,0,0,0,-1,671,1142,-31.5257,-0.826577
-546,-118,-31.582,0.998169,0,0,0,0,0,0,0,-1,678,1142,-31.5821,-0.998174
-539,-118,-31.6146,1.32214,0.0032356,0.000848517,-0.00451989,0.00671688,-0.00263276,-0.656313,0.00556704,0.0406646,685,1142,-31.6146,-1.3222
-532,-118,-31.834,1.32031,0.00557461,0.0013443,-0.00643511,0.0102333,-0.00331436,-0.626615,0.00815466,0.0390477,692,1142,-31.834,-1.32032
-525,-118,-31.8389,0.928955,0.00846288,0.00223175,-0.00865052,0.0145418,-0.00384716,-0.61255,0.0111994,0.04006,699,1142,-31.8389,-0.928899
-518,-118,0,0,0,0,0,0,0,0,0,-1,706,1142,0,0
-511,-118,0,0,0,0,0,0,0,0,0,-1,713,1142,0,0
-504,-118,0,0,0,0,0,0,0,0,0,-1,720,1142,0,0
-497,-118,0,0,0,0,0,0,0,0,0,-1,727,1142,0,0
-490,-118,0,0,0,0,0,0,0,0,0,-1,734,1142,0,0
-483,-118,0,0,0,0,0,0,0,0,0,-1,741,1142,0,0
-476,-118,0,0,0,0,0,0,0,0,0,-1,748,1142,0,0
-469,-118,0,0,0,0,0,0,0,0,0,-1,755,1142,0,0
-462,-118,0,0,0,0,0,0,0,0,0,-1,762,1142,0,0
-455,-118,0,0,0,0,0,0,0,0,0,-1,769,1142,0,0
-448,-118,0,0,0,0,0,0,0,0,0,-1,776,1142,0,0
-441,-118,0,0,0,0,0,0,0,0,0,-1,783,1142,0,0
-434,-118,0,0,0,0,0,0,0,0,0,-1,790,1142,0,0
-427,-118,0,0,0,0,0,0,0,0,0,-1,797,1142,0,0
-420,-118,0,0,0,0,0,0,0,0,0,-1,804,1142,0,0
-413,-118,0,0,0,0,0,0,0,0,0,-1,811,1142,0,0
-406,-118,0,0,0,0,0,0,0,0,0,-1,818,1142,0,0
-399,-118,0,0,0,0,0,0,0,0,0,-1,825,1142,0,0
-392,-118,0,0,0,0,0,0,0,0,0,-1,832,1142,0,0
-385,-118,0,0,0,0,0,0,0,0,0,-1,839,1142,0,0
-378,-118,0,0,0,0,0,0,0,0,0,-1,846,1142,0,0
-371,-118,0,0,0,0,0,0,0,0,0,-1,853,1142,0,0
-364,-118,0,0,0,0,0,0,0,0,0,-1,860,1142,0,0
-357,-118,0,0,0,0,0,0,0,0,0,-1,867,1142,0,0
-350,-118,0,0,0,0,0,0,0,0,0,-1,874,1142,0,0
-343,-118,0,0,0,0,0,0,0,0,0,-1,881,1142,0,0
-336,-118,0,0,0,0,0,0,0,0,0,-1,888,1142,0,0
-329,-118,0,0,0,0,0,0,0,0,0,-1,895,1142,0,0
-322,-118,0,0,0,0,0,0,0,0,0,-1,902,1142,0,0
-315,-118,0,0,0,0,0,0,0,0,0,-1,909,1142,0,0
-308,-118,0,0,0,0,0,0,0,0,0,-1,916,1142,0,0
-301,-118,0,0,0,0,0,0,0,0,0,-1,923,1142,0,0
-294,-118,0,0,0,0,0,0,0,0,0,-1,930,1142,0,0
-287,-118,0,0,0,0,0,0,0,0,0,-1,937,1142,0,0
-280,-118,0,0,0,0,0,0,0,0,0,-1,944,1142,0,0
-273,-118,0,0,0,0,0,0,0,0,0,-1,951,1142,0,0
-266,-118,0,0,0,0,0,0,0,0,0,-1,958,1142,0,0
-259,-118,0,0,0,0,0,0,0,0,0,-1,965,1142,0,0
-252,-118,0,0,0,0,0,0,0,0,0,-1,972,1142,0,0
-245,-118,0,0,0,0,0,0,0,0,0,-1,979,1142,0,0
-238,-118,0,0,0,0,0,0,0,0,0,-1,986,1142,0,0
-231,-118,0,0,0,0,0,0,0,0,0,-1,993,1142,0,0
-224,-118,0,0,0,0,0,0,0,0,0,-1,1000,1142,0,0
-217,-118,0,0,0,0,0,0,0,0,0,-1,1007,1142,0,0
-210,-118,0,0,0,0,0,0,0,0,0,-1,1014,1142,0,0
-203,-118,0,0,0,0,0,0,0,0,0,-1,1021,1142,0,0
-196,-118,0,0,0,0,0,0,0,0,0,-1,1028,1142,0,0
-189,-118,0,0,0,0,0,0,0,0,0,-1,1035,1142,0,0
-182,-118,0,0,0,0,0,0,0,0,0,-1,1042,1142,0,0
-175,-118,0,0,0,0,0,0,0,0,0,-1,1049,1142,0,0
-168,-118,0,0,0,0,0,0,0,0,0,-1,1056,1142,0,0
-161,-118,0,0,0,0,0,0,0,0,0,-1,1063,1142,0,0
-154,-118,0,0,0,0,0,0,0,0,0,-1,1070,1142,0,0
-147,-118,0,0,0,0,0,0,0,0,0,-1,1077,1142,0,0
-140,-118,0,0,0,0,0,0,0,0,0,-1,1084,1142,0,0
-133,-118,0,0,0,0,0,0,0,0,0,-1,1091,1142,0,0
-126,-118,0,0,0,0,0,0,0,0,0,-1,1098,1142,0,0
-119,-118,0,0,0,0,0,0,0,0,0,-1,1105,1142,0,0
-112,-118,0,0,0,0,0,0,0,0,0,-1,1112,1142,0,0
-105,-118,0,0,0,0,0,0,0,0,0,-1,1119,1142,0,0
-98,-118,0,0,0,0,0,0,0,0,0,-1,1126,1142,0,0
-91,-118,0,0,0,0,0,0,0,0,0,-1,1133,1142,0,0
-84,-118,0,0,0,0,0,0,0,0,0,-1,1140,1142,0,0
-77,-118,0,0,0,0,0,0,0,0,0,-1,1147,1142,0,0
-70,-118,0,0,0,0,0,0,0,0,0,-1,1154,1142,0,0
-63,-118,0,0,0,0,0,0,0,0,0,-1,1161,1142,0,0
-56,-118,0,0,0,0,0,0,0,0,0,-1,1168,1142,0,0
-49,-118,0,0,0,0,0,0,0,0,0,-1,1175,1142,0,0
-42,-118,0,0,0,0,0,0,0,0,0,-1,1182,1142,0,0
-35,-118,0,0,0,0,0,0,0,0,0,-1,1189,1142,0,0
-28,-118,0,0,0,0,0,0,0,0,0,-1,1196,1142,0,0
-21,-118,0,0,0,0,0,0,0,0,0,-1,1203,1142,0,0
-14,-118,0,0,0,0,0,0,0,0,0,-1,1210,1142,0,0
-7,-118,0,0,0,0,0,0,0,0,0,-1,1217,1142,0,0
0,-118,0,0,0,0,0,0,0,0,0,-1,1224,1142,0,0
7,-118,0,0,0,0,0,0,0,0,0,-1,1231,1142,0,0
14,-118,0,0,0,0,0,0,0,0,0,-1,1238,1142,0,0
21,-118,0,0,0,0,0,0,0,0,0,-1,1245,1142,0,0
28,-118,0,0,0,0,0,0,0,0,0,-1,1252,1142,0,0
35,-118,0,0,0,0,0,0,0,0,0,-1,1259,1142,0,0
42,-118,0,0,0,0,0,0,0,0,0,-1,1266,1142,0,0
49,-118,0,0,0,0,0,0,0,0,0,-1,1273,1142,0,0
56,-118,0,0,0,0,0,0,0,0,0,-1,1280,1142,0,0
63,-118,0,0,0,0,0,0,0,0,0,-1,1287,1142,0,0
70,-118,0,0,0,0,0,0,0,0,0,-1,1294,1142,0,0
77,-118,0,0,0,0,0,0,0,0,0,-1,1301,1142,0,0
84,-118,0,0,0,0,0,0,0,0,0,-1,1308,1142,0,0
91,-118,0,0,0,0,0,0,0,0,0,-1,1315,1142,0,0
98,-118,0,0,0,0,0,0,0,0,0,-1,1322,1142,0,0
105,-118,0,0,0,0,0,0,0,0,0,-1,1329,1142,0,0
112,-118,0,0,0,0,0,0,0,0,0,-1,1336,1142,0,0
119,-118,0,0,0,0,0,0,0,0,0,-1,1343,1142,0,0
126,-118,0,0,0,0,0,0,0,0,0,-1,1350,1142,0,0
133,-118,0,0,0,0,0,0,0,0,0,-1,1357,1142,0,0
140,-118,0,0,0,0,0,0,0,0,0,-1,1364,1142,0,0
147,-118,0,0,0,0,0,0,0,0,0,-1,1371,1142,0,0
154,-118,0,0,0,0,0,0,0,0,0,-1,1378,1142,0,0
161,-118,0,0,0,0,0,0,0,0,0,-1,1385,1142,0,0
168,-118,0,0,0,0,0,0,0,0,0,-1,1392,1142,0,0
175,-118,0,0,0,0,0,0,0,0,0,-1,1399,1142,0,0
182,-118,0,0,0,0,0,0,0,0,0,-1,1406,1142,0,0
189,-118,0,0,0,0,0,0,0,0,0,-1,1413,1142,0,0
196,-118,0,0,0,0,0,0,0,0,0,-1,1420,1142,0,0
203,-118,0,0,0,0,0,0,0,0,0,-1,1427,1142,0,0
210,-118,0,0,0,0,0,0,0,0,0,-1,1434,1142,0,0
217,-118,0,0,0,0,0,0,0,0,0,-1,1441,1142,0,0
224,-118,0,0,0,0,0,0,0,0,0,-1,1448,1142,0,0
231,-118,0,0,0,0,0,0,0,0,0,-1,1455,1142,0,0
238,-118,0,0,0,0,0,0,0,0,0,-1,1462,1142,0,0
245,-118,0,0,0,0,0,0,0,0,0,-1,1469,1142,0,0
252,-118,0,0,0,0,0,0,0,0,0,-1,1476,1142,0,0
259,-118,0,0,0,0,0,0,0,0,0,-1,1483,1142,0,0
266,-118,0,0,0,0,0,0,0,0,0,-1,1490,1142,0,0
273,-118,0,0,0,0,0,0,0,0,0,-1,1497,1142,0,0
280,-118,0,0,0,0,0,0,0,0,0,-1,1504,1142,0,0
287,-118,0,0,0,0,0,0,0,0,0,-1,1511,1142,0,0
294,-118,0,0,0,0,0,0,0,0,0,-1,1518,1142,0,0
301,-118,0,0,0,0,0,0,0,0,0,-1,1525,1142,0,0
308,-118,0,0,0,0,0,0,0,0,0,-1,1532,1142,0,0
315,-118,0,0,0,0,0,0,0,0,0,-1,1539,1142,0,0
322,-118,0,0,0,0,0,0,0,0,0,-1,1546,1142,0,0
329,-118,0,0,0,0,0,0,0,0,0,-1,1553,1142,0,0
336,-118,0,0,0,0,0,0,0,0,0,-1,1560,1142,0,0
343,-118,0,0,0,0,0,0,0,0,0,-1,1567,1142,0,0
350,-118,0,0,0,0,0,0,0,0,0,-1,1574,1142,0,0
357,-118,0,0,0,0,0,0,0,0,0,-1,1581,1142,0,0
364,-118,0,0,0,0,0,0,0,0,0,-1,1588,1142,0,0
371,-118,0,0,0,0,0,0,0,0,0,-1,1595,1142,0,0
378,-118,0,0,0,0,0,0,0,0,0,-1,1602,1142,0,0
385,-118,0,0,0,0,0,0,0,0,0,-1,1609,1142,0,0
392,-118,0,0,0,0,0,0,0,0,0,-1,1616,1142,0,0
399,-118,0,0,0,0,0,0,0,0,0,-1,1623,1142,0,0
406,-118,0,0,0,0,0,0,0,0,0,-1,1630,1142,0,0
413,-118,0,0,0,0,0,0,0,0,0,-1,1637,1142,0,0
420,-118,0,0,0,0,0,0,0,0,0,-1,1644,1142,0,0
427,-118,0,0,0,0,0,0,0,0,0,-1,1651,1142,0,0
434,-118,0,0,0,0,0,0,0,0,0,-1,1658,1142,0,0
441,-118,0,0,0,0,0,0,0,0,0,-1,1665,1142,0,0
448,-118,0,0,0,0,0,0,0,0,0,-1,1672,1142,0,0
455,-118,0,0,0,0,0,0,0,0,0,-1,1679,1142,0,0
462,-118,0,0,0,0,0,0,0,0,0,-1,1686,1142,0,0
469,-118,0,0,0,0,0,0,0,0,0,-1,1693,1142,0,0
476,-118,0,0,0,0,0,0,0,0,0,-1,1700,1142,0,0
483,-118,0,0,0,0,0,0,0,0,0,-1,1707,1142,0,0
490,-118,0,0,0,0,0,0,0,0,0,-1,1714,1142,0,0
497,-118,0,0,0,0,0,0,0,0,0,-1,1721,1142,0,0
504,-118,0,0,0,0,0,0,0,0,0,-1,1728,1142,0,0
511,-118,0,0,0,0,0,0,0,0,0,-1,1735,1142,0,0
518,-118,0,0,0,0,0,0,0,0,0,-1,1742,1142,0,0
525,-118,0,0,0,0,0,0,0,0,0,-1,1749,1142,0,0
532,-118,0,0,0,0,0,0,0,0,0,-1,1756,1142,0,0
539,-118,0,0,0,0,0,0,0,0,0,-1,1763,1142,0,0
546,-118,0,0,0,0,0,0,0,0,0,-1,1770,1142,0,0
553,-118,0,0,0,0,0,0,0,0,0,-1,1777,1142,0,0
560,-118,0,0,0,0,0,0,0,0,0,-1,1784,1142,0,0
567,-118,0,0,0,0,0,0,0,0,0,-1,1791,1142,0,0
574,-118,0,0,0,0,0,0,0,0,0,-1,1798,1142,0,0
581,-118,0,0,0,0,0,0,0,0,0,-1,1805,1142,0,0
588,-118,0,0,0,0,0,0,0,0,0,-1,1812,1142,0,0
595,-118,0,0,0,0,0,0,0,0,0,-1,1819,1142,0,0
602,-118,0,0,0,0,0,0,0,0,0,-1,1826,1142,0,0
609,-118,0,0,0,0,0,0,0,0,0,-1,1833,1142,0,0
616,-118,0,0,0,0,0,0,0,0,0,-1,1840,1142,0,0
623,-118,0,0,0,0,0,0,0,0,0,-1,1847,1142,0,0
630,-118,0,0,0,0,0,0,0,0,0,-1,1854,1142,0,0
637,-118,0,0,0,0,0,0,0,0,0,-1,1861,1142,0,0
644,-118,43.2821,2.6228,0.00402021,0.000502787,0.00228017,0.00514112,-0.00061813,0.456899,0.00365094,0.0411898,1868,1142,43.2821,-2.62282
651,-118,43.1639,3.01147,0.00327137,0.000447854,0.00199349,0.00430237,-0.000583142,0.477299,0.00308108,0.0441619,1875,1142,43.1639,-3.01148
658,-118,43.452,2.86853,0.00286845,0.000386722,0.00157943,0.00363615,-0.000380979,0.452436,0.00256056,0.0436589,1882,1142,43.4521,-2.86854
665,-118,43.3411,2.9729,0.00241577,0.000351072,0.00111044,0.00289961,-0.000132765,0.410912,0.00197881,0.0448619,1889,1142,43.3411,-2.97293
672,-118,43.3322,2.98682,0.00201491,0.000335686,0.000613675,0.00221527,0.000135324,0.315583,0.00143387,0.0485338,1896,1142,43.3321,-2.9868
679,-118,43.4303,2.99988,0.00126341,0.000477151,0.000181002,0.00130308,0.000437484,0.21574,0.000765748,0.0437209,1903,1142,43.4303,-2.99982
686,-118,43.4097,3.09888,0.00058656,0.000462057,-2.09468e-05,0.00058999,0.000458628,-0.162293,0.000357673,0.0380394,1910,1142,43.4097,-3.09884
693,-118,43.3577,2.97656,0.00020432,0.000532785,-8.62282e-05,0.000554045,0.000183059,-1.32906,0.000325954,0.0369755,1917,1142,43.3576,-2.97655
700,-118,43.463,2.83765,-0.000105269,0.000500023,-0.000174232,0.000546593,-0.000151838,-1.30962,0.000424165,0.0240031,1924,1142,43.463,-2.83765
707,-118,43.5232,2.87598,0,0,0,0,0,0,0,-1,1931,1142,43.5233,-2.87598
714,-118,40.027,7.33777,0,0,0,0,0,0,0,-1,1938,1142,40.0269,-7.33772
721,-118,39.8431,6.96521,-0.00142249,0.000743665,0.00022859,0.000767525,-0.00144635,1.46679,0.00129805,0.0231503,1945,1142,39.8431,-6.96518
728,-118,39.8884,6.6272,-0.00157935,0.000900173,0.000416589,0.000968293,-0.00164747,1.40871,0.00152709,0.0193163,1952,1142,39.8884,-6.62716
735,-118,39.8577,6.32581,-0.0016709,0.000912712,0.000824641,0.00115348,-0.00191167,1.28672,0.00178762,0.0187697,1959,1142,39.8577,-6.32585
742,-118,39.8298,6.05811,-0.00175478,0.00125524,0.00147627,0.00185842,-0.00235795,1.18292,0.00244001,0.0237387,1966,1142,39.8298,-6.0581
749,-118,39.8212,5.71875,-0.0017972,0.00184803,0.00220053,0.00288273,-0.0028319,1.13127,0.00329938,0.0201062,1973,1142,39.8211,-5.7187
756,-118,39.7886,5.40259,-0.00153254,0.00284629,0.00266164,0.0041033,-0.00278956,1.12958,0.00400362,0.0190042,1980,1142,39.7885,-5.40261
763,-118,39.838,5.09778,-0.000763526,0.00432505,0.00300693,0.00571967,-0.00215815,1.13652,0.00470065,0.0104914,1987,1142,39.838,-5.09774
770,-118,39.7803,4.83984,0.000178122,0.00628254,0.00327609,0.00770791,-0.00124725,1.16042,0.00560084,0.0131204,1994,1142,39.7803,-4.83983
777,-118,39.6687,4.59021,0.00132575,0.00870946,0.00326133,0.00994366,9.15495e-05,1.20902,0.0065988,0.0270014,2001,1142,39.6687,-4.59017
784,-118,39.5475,4.30151,0.00266028,0.0118556,0.00276572,0.0126234,0.00189253,1.30002,0.00786105,0.0415826,2008,1142,39.5475,-4.30147
791,-118,39.4297,3.81641,0.00448744,0.0158467,0.00155102,0.0160546,0.00427947,1.4375,0.0096,0.0495542,2015,1142,39.4298,-3.81636
798,-118,39.4063,3.45483,0.00733874,0.0209545,-0.000866714,0.0210095,0.00728379,-1.50748,0.0123184,0.0487884,2022,1142,39.4062,-3.45478
805,-118,39.4734,3.10986,0,0,0,0,0,0,0,-1,2029,1142,39.4733,-3.10992
812,-118,41.8081,3.09412,0,0,0,0,0,0,0,-1,2036,1142,41.8082,-3.09409
-700,-125,0,0,0,0,0,0,0,0,0,-1,524,1149,0,0
-693,-125,-25.2218,1.28052,0.0472433,0.0499767,-0.11961,0.168228,-0.0710078,-0.791111,0.141874,0.0441867,531,1149,-25.2218,-1.28052
-686,-125,-24.7283,0.943481,0.0332436,0.0434805,-0.0887001,0.12721,-0.0504856,-0.814219,0.105732,0.0444767,538,1149,-24.7283,-0.943486
-679,-125,-24.3035,0.288696,0.0230341,0.0368913,-0.0653016,0.0956308,-0.0357054,-0.838251,0.0784139,0.0451237,545,1149,-24.3035,-0.28873
-672,-125,-23.8999,-0.394775,0,0,0,0,0,0,0,-1,552,1149,-23.8999,0.394758
-665,-125,-27.7427,-0.653931,0,0,0,0,0,0,0,-1,559,1149,-27.7427,0.653916
-658,-125,-27.8409,0.0778809,0,0,0,0,0,0,0,-1,566,1149,-27.8409,-0.0779386
-651,-125,-27.595,0.929443,0.00340118,0.015636,-0.0133828,0.0242333,-0.00519614,-0.999773,0.0181374,0.0383577,573,1149,-27.5951,-0.929482
-644,-125,-27.5864,1.63074,0.00165491,0.0117329,-0.00745477,0.0156919,-0.00230416,-1.0826,0.0113079,0.0274865,580,1149,-27.5864,-1.63075
-637,-125,-27.6714,2.04553,3.09005e-05,0.00799739,-0.0019522,0.00845006,-0.00042177,-1.34295,0.00577909,0.0142132,587,1149,-27.6714,-2.04557
-630,-125,-27.6789,2.38354,-0.000706653,0.0052222,0.000965067,0.00537534,-0.000859786,1.41343,0.00390186,0.0154296,594,1149,-27.6789,-2.38354
-623,-125,-27.6735,2.74902,-0.000499881,0.00290905,0.00223028,0.0040116,-0.00160244,1.11167,0.00333927,0.0139682,601,1149,-27.6734,-2.749
-616,-125,-27.6938,3.0675,0.00127837,0.00175567,0.00116321,0.00270446,0.000329578,0.886575,0.00170377,0.0189554,608,1149,-27.6938,-3.06756
-609,-125,-27.8492,3.31177,0.00211327,0.000993662,4.36136e-05,0.00211497,0.000991965,0.0388757,0.00122186,0.0353134,615,1149,-27.8492,-3.31172
-602,-125,-27.8582,3.79541,0.00250148,0.000870892,0.000100518,0.00250766,0.000864718,0.0613359,0.00147085,0.0299408,622,1149,-27.8581,-3.79542
-595,-125,-27.9161,4.1554,0.00229445,0.000714452,0.000299036,0.00234915,0.000659749,0.18093,0.00139904,0.029343,629,1149,-27.9161,-4.15541
-588,-125,-27.2897,4.60217,0,0,0,0,0,0,0,-1,636,1149,-27.2897,-4.60214
-581,-125,-26.4055,4.83203,0,0,0,0,0,0,0,-1,643,1149,-26.4055,-4.83204
-574,-125,-31.7881,1.03662,0,0,0,0,0,0,0,-1,650,1149,-31.7882,-1.03664
-567,-125,-31.717,0.913452,0.00254569,0.000494906,-0.00068879,0.00275555,0.00028504,-0.295752,0.00174978,0.0438711,657,1149,-31.717,-0.913431
-560,-125,-31.684,0.80481,0.0026608,0.000615668,-0.000982695,0.00305645,0.00022002,-0.382759,0.0019684,0.0386109,664,1149,-31.6839,-0.804845
-553,-125,-31.6658,0.790161,0.00237865,0.000772246,-0.00162998,0.00339258,-0.000241682,-0.556475,0.00234643,0.0407105,671,1149,-31.6658,-0.790162
-546,-125,-31.6689,0.873047,0.00219266,0.0010001,-0.0026929,0.0043545,-0.00116174,-0.676443,0.00335792,0.0434037,678,1149,-31.669,-0.873023
-539,-125,-31.6973,1.10815,0.00277882,0.00140653,-0.00434819,0.00649467,-0.00230932,-0.707144,0.00527097,0.0418937,685,1149,-31.6973,-1.10819
-532,-125,-31.8967,1.25476,0.00489471,0.00223628,-0.00643659,0.0101379,-0.00300691,-0.683575,0.0079527,0.0388089,692,1149,-31.8967,-1.2547
-525,-125,-31.7772,0.701782,0.00773159,0.00343556,-0.0088521,0.0146926,-0.00352541,-0.666371,0.0111574,0.0426221,699,1149,-31.7772,-0.701835
-518,-125,0,0,0,0,0,0,0,0,0,-1,706,1149,0,0
-511,-125,0,0,0,0,0,0,0,0,0,-1,713,1149,0,0
-504,-125,0,0,0,0,0,0,0,0,0,-1,720,1149,0,0
-497,-125,0,0,0,0,0,0,0,0,0,-1,727,1149,0,0
-490,-125,0,0,0,0,0,0,0,0,0,-1,734,1149,0,0
-483,-125,0,0,0,0,0,0,0,0,0,-1,741,1149,0,0
-476,-125,0,0,0,0,0,0,0,0,0,-1,748,1149,0,0
-469,-125,0,0,0,0,0,0,0,0,0,-1,755,1149,0,0
-462,-125,0,0,0,0,0,0,0,0,0,-1,762,1149,0,0
-455,-125,0,0,0,0,0,0,0,0,0,-1,769,1149,0,0
-448,-125,0,0,0,0,0,0,0,0,0,-1,776,1149,0,0
-441,-125,0,0,0,0,0,0,0,0,0,-1,783,1149,0,0
-434,-125,0,0,0,0,0,0,0,0,0,-1,790,1149,0,0
-427,-125,0,0,0,0,0,0,0,0,0,-1,797,1149,0,0
-420,-125,0,0,0,0,0,0,0,0,0,-1,804,1149,0,0
-413,-125,0,0,0,0,0,0,0,0,0,-1,811,1149,0,0
-406,-125,0,0,0,0,0,0,0,0,0,-1,818,1149,0,0
-399,-125,0,0,0,0,0,0,0,0,0,-1,825,1149,0,0
-392,-125,0,0,0,0,0,0,0,0,0,-1,832,1149,0,0
-385,-125,0,0,0,0,0,0,0,0,0,-1,839,1149,0,0
-378,-125,0,0,0,0,0,0,0,0,0,-1,846,1149,0,0
-371,-125,0,0,0,0,0,0,0,0,0,-1,853,1149,0,0
-364,-125,0,0,0,0,0,0,0,0,0,-1,860,1149,0,0
-357,-125,0,0,0,0,0,0,0,0,0,-1,867,1149,0,0
-350,-125,0,0,0,0,0,0,0,0,0,-1,874,1149,0,0
-343,-125,0,0,0,0,0,0,0,0,0,-1,881,1149,0,0
-336,-125,0,0,0,0,0,0,0,0,0,-1,888,1149,0,0
-329,-125,0,0,0,0,0,0,0,0,0,-1,895,1149,0,0
-322,-125,0,0,0,0,0,0,0,0,0,-1,902,1149,0,0
-315,-125,0,0,0,0,0,0,0,0,0,-1,909,1149,0,0
-308,-125,0,0,0,0,0,0,0,0,0,-1,916,1149,0,0
-301,-125,0,0,0,0,0,0,0,0,0,-1,923,1149,0,0
-294,-125,0,0,0,0,0,0,0,0,0,-1,930,1149,0,0
-287,-125,0,0,0,0,0,0,0,0,0,-1,937,1149,0,0
-280,-125,0,0,0,0,0,0,0,0,0,-1,944,1149,0,0
-273,-125,0,0,0,0,0,0,0,0,0,-1,951,1149,0,0
-266,-125,0,0,0,0,0,0,0,0,0,-1,958,1149,0,0
-259,-125,0,0,0,0,0,0,0,0,0,-1,965,1149,0,0
-252,-125,0,0,0,0,0,0,0,0,0,-1,972,1149,0,0
-245,-125,0,0,0,0,0,0,0,0,0,-1,979,1149,0,0
-238,-125,0,0,0,0,0,0,0,0,0,-1,986,1149,0,0
-231,-125,0,0,0,0,0,0,0,0,0,-1,993,1149,0,0
-224,-125,0,0,0,0,0,0,0,0,0,-1,1000,1149,0,0
-217,-125,0,0,0,0,0,0,0,0,0,-1,1007,1149,0,0
-210,-125,0,0,0,0,0,0,0,0,0,-1,1014,1149,0,0
-203,-125,0,0,0,0,0,0,0,0,0,-1,1021,1149,0,0
-196,-125,0,0,0,0,0,0,0,0,0,-1,1028,1149,0,0
-189,-125,0,0,0,0,0,0,0,0,0,-1,1035,1149,0,0
-182,-125,0,0,0,0,0,0,0,0,0,-1,1042,1149,0,0
-175,-125,0,0,0,0,0,0,0,0,0,-1,1049,1149,0,0
-168,-125,0,0,0,0,0,0,0,0,0,-1,1056,1149,0,0
-161,-125,0,0,0,0,0,0,0,0,0,-1,1063,1149,0,0
-154,-125,0,0,0,0,0,0,0,0,0,-1,1070,1149,0,0
-147,-125,0,0,0,0,0,0,0,0,0,-1,1077,1149,0,0
-140,-125,0,0,0,0,0,0,0,0,0,-1,1084,1149,0,0
-133,-125,0,0,0,0,0,0,0,0,0,-1,1091,1149,0,0
-126,-125,0,0,0,0,0,0,0,0,0,-1,1098,1149,0,0
-119,-125,0,0,0,0,0,0,0,0,0,-1,1105,1149,0,0
-112,-125,0,0,0,0,0,0,0,0,0,-1,1112,1149,0,0
-105,-125,0,0,0,0,0,0,0,0,0,-1,1119,1149,0,0
-98,-125,0,0,0,0,0,0,0,0,0,-1,1126,1149,0,0
-91,-125,0,0,0,0,0,0,0,0,0,-1,1133,1149,0,0
-84,-125,0,0,0,0,0,0,0,0,0,-1,1140,1149,0,0
-77,-125,0,0,0,0,0,0,0,0,0,-1,1147,1149,0,0
-70,-125,0,0,0,0,0,0,0,0,0,-1,1154,1149,0,0
-63,-125,0,0,0,0,0,0,0,0,0,-1,1161,1149,0,0
-56,-125,0,0,0,0,0,0,0,0,0,-1,1168,1149,0,0
-49,-125,0,0,0,0,0,0,0,0,0,-1,1175,1149,0,0
-42,-125,0,0,0,0,0,0,0,0,0,-1,1182,1149,0,0
-35,-125,0,0,0,0,0,0,0,0,0,-1,1189,1149,0,0
-28,-125,0,0,0,0,0,0,0,0,0,-1,1196,1149,0,0
-21,-125,0,0,0,0,0,0,0,0,0,-1,1203,1149,0,0
-14,-125,0,0,0,0,0,0,0,0,0,-1,1210,1149,0,0
-7,-125,0,0,0,0,0,0,0,0,0,-1,1217,1149,0,0
0,-125,0,0,0,0,0,0,0,0,0,-1,1224,1149,0,0
7,-125,0,0,0,0,0,0,0,0,0,-1,1231,1149,0,0
14,-125,0,0,0,0,0,0,0,0,0,-1,1238,1149,0,0
21,-125,0,0,0,0,0,0,0,0,0,-1,1245,1149,0,0
28,-125,0,0,0,0,0,0,0,0,0,-1,1252,1149,0,0
35,-125,0,0,0,0,0,0,0,0,0,-1,1259,1149,0,0
42,-125,0,0,0,0,0,0,0,0,0,-1,1266,1149,0,0
49,-125,0,0,0,0,0,0,0,0,0,-1,1273,1149,0,0
56,-125,0,0,0,0,0,0,0,0,0,-1,1280,1149,0,0
63,-125,0,0,0,0,0,0,0,0,0,-1,1287,1149,0,0
70,-125,0,0,0,0,0,0,0,0,0,-1,1294,1149,0,0
77,-125,0,0,0,0,0,0,0,0,0,-1,1301,1149,0,0
84,-125,0,0,0,0,0,0,0,0,0,-1,1308,1149,0,0
91,-125,0,0,0,0,0,0,0,0,0,-1,1315,1149,0,0
98,-125,0,0,0,0,0,0,0,0,0,-1,1322,1149,0,0
105,-125,0,0,0,0,0,0,0,0,0,-1,1329,1149,0,0
112,-125,0,0,0,0,0,0,0,0,0,-1,1336,1149,0,0
119,-125,0,0,0,0,0,0,0,0,0,-1,1343,1149,0,0
126,-125,0,0,0,0,0,0,0,0,0,-1,1350,1149,0,0
133,-125,0,0,0,0,0,0,0,0,0,-1,1357,1149,0,0
140,-125,0,0,0,0,0,0,0,0,0,-1,1364,1149,0,0
147,-125,0,0,0,0,0,0,0,0,0,-1,1371,1149,0,0
154,-125,0,0,0,0,0,0,0,0,0,-1,1378,1149,0,0
161,-125,0,0,0,0,0,0,0,0,0,-1,1385,1149,0,0
168,-125,0,0,0,0,0,0,0,0,0,-1,1392,1149,0,0
175,-125,0,0,0,0,0,0,0,0,0,-1,1399,1149,0,0
182,-125,0,0,0,0,0,0,0,0,0,-1,1406,1149,0,0
189,-125,0,0,0,0,0,0,0,0,0,-1,1413,1149,0,0
196,-125,0,0,0,0,0,0,0,0,0,-1,1420,1149,0,0
203,-125,0,0,0,0,0,0,0,0,0,-1,1427,1149,0,0
210,-125,0,0,0,0,0,0,0,0,0,-1,1434,1149,0,0
217,-125,0,0,0,0,0,0,0,0,0,-1,1441,1149,0,0
224,-125,0,0,0,0,0,0,0,0,0,-1,1448,1149,0,0
231,-125,0,0,0,0,0,0,0,0,0,-1,1455,1149,0,0
238,-125,0,0,0,0,0,0,0,0,0,-1,1462,1149,0,0
245,-125,0,0,0,0,0,0,0,0,0,-1,1469,1149,0,0
252,-125,0,0,0,0,0,0,0,0,0,-1,1476,1149,0,0
259,-125,0,0,0,0,0,0,0,0,0,-1,1483,1149,0,0
266,-125,0,0,0,0,0,0,0,0,0,-1,1490,1149,0,0
273,-125,0,0,0,0,0,0,0,0,0,-1,1497,1149,0,0
280,-125,0,0,0,0,0,0,0,0,0,-1,1504,1149,0,0
287,-125,0,0,0,0,0,0,0,0,0,-1,1511,1149,0,0
294,-125,0,0,0,0,0,0,0,0,0,-1,1518,1149,0,0
301,-125,0,0,0,0,0,0,0,0,0,-1,1525,1149,0,0
308,-125,0,0,0,0,0,0,0,0,0,-1,1532,1149,0,0
315,-125,0,0,0,0,0,0,0,0,0,-1,1539,1149,0,0
322,-125,0,0,0,0,0,0,0,0,0,-1,1546,1149,0,0
329,-125,0,0,0,0,0,0,0,0,0,-1,1553,1149,0,0
336,-125,0,0,0,0,0,0,0,0,0,-1,1560,1149,0,0
343,-125,0,0,0,0,0,0,0,0,0,-1,1567,1149,0,0
350,-125,0,0,0,0,0,0,0,0,0,-1,1574,1149,0,0
357,-125,0,0,0,0,0,0,0,0,0,-1,1581,1149,0,0
364,-125,0,0,0,0,0,0,0,0,0,-1,1588,1149,0,0
371,-125,0,0,0,0,0,0,0,0,0,-1,1595,1149,0,0
378,-125,0,0,0,0,0,0,0,0,0,-1,1602,1149,0,0
385,-125,0,0,0,0,0,0,0,0,0,-1,1609,1149,0,0
392,-125,0,0,0,0,0,0,0,0,0,-1,1616,1149,0,0
399,-125,0,0,0,0,0,0,0,0,0,-1,1623,1149,0,0
406,-125,0,0,0,0,0,0,0,0,0,-1,1630,1149,0,0
413,-125,0,0,0,0,0,0,0,0,0,-1,1637,1149,0,0
420,-125,0,0,0,0,0,0,0,0,0,-1,1644,1149,0,0
427,-125,0,0,0,0,0,0,0,0,0,-1,1651,1149,0,0
434,-125,0,0,0,0,0,0,0,0,0,-1,1658,1149,0,0
441,-125,0,0,0,0,0,0,0,0,0,-1,1665,1149,0,0
448,-125,0,0,0,0,0,0,0,0,0,-1,1672,1149,0,0
455,-125,0,0,0,0,0,0,0,0,0,-1,1679,1149,0,0
462,-125,0,0,0,0,0,0,0,0,0,-1,1686,1149,0,0
469,-125,0,0,0,0,0,0,0,0,0,-1,1693,1149,0,0
476,-125,0,0,0,0,0,0,0,0,0,-1,1700,1149,0,0
483,-125,0,0,0,0,0,0,0,0,0,-1,1707,1149,0,0
490,-125,0,0,0,0,0,0,0,0,0,-1,1714,1149,0,0
497,-125,0,0,0,0,0,0,0,0,0,-1,1721,1149,0,0
504,-125,0,0,0,0,0,0,0,0,0,-1,1728,1149,0,0
511,-125,0,0,0,0,0,0,0,0,0,-1,1735,1149,0,0
518,-125,0,0,0,0,0,0,0,0,0,-1,1742,1149,0,0
525,-125,0,0,0,0,0,0,0,0,0,-1,1749,1149,0,0
532,-125,0,0,0,0,0,0,0,0,0,-1,1756,1149,0,0
539,-125,0,0,0,0,0,0,0,0,0,-1,1763,1149,0,0
546,-125,0,0,0,0,0,0,0,0,0,-1,1770,1149,0,0
553,-125,0,0,0,0,0,0,0,0,0,-1,1777,1149,0,0
560,-125,0,0,0,0,0,0,0,0,0,-1,1784,1149,0,0
567,-125,0,0,0,0,0,0,0,0,0,-1,1791,1149,0,0
574,-125,0,0,0,0,0,0,0,0,0,-1,1798,1149,0,0
581,-125,0,0,0,0,0,0,0,0,0,-1,1805,1149,0,0
588,-125,0,0,0,0,0,0,0,0,0,-1,1812,1149,0,0
595,-125,0,0,0,0,0,0,0,0,0,-1,1819,1149,0,0
602,-125,0,0,0,0,0,0,0,0,0,-1,1826,1149,0,0
609,-125,0,0,0,0,0,0,0,0,0,-1,1833,1149,0,0
616,-125,0,0,0,0,0,0,0,0,0,-1,1840,1149,0,0
623,-125,0,0,0,0,0,0,0,0,0,-1,1847,1149,0,0
630,-125,0,0,0,0,0,0,0,0,0,-1,1854,1149,0,0
637,-125,0,0,0,0,0,0,0,0,0,-1,1861,1149,0,0
644,-125,43.3475,2.34558,0.00371161,7.24577e-05,0.00173428,0.00440571,-0.000621646,0.380701,0.00316477,0.0398989,1868,1149,43.3475,-2.34561
651,-125,43.3273,2.99255,0.00298078,0.000193491,0.00162845,0.00373052,-0.000556248,0.43147,0.00269165,0.0416458,1875,1149,43.3272,-2.99251
658,-125,43.4246,3.17639,0.00257882,0.000260353,0.00132438,0.00317965,-0.000340475,0.425898,0.00224189,0.0448782,1882,1149,43.4246,-3.17639
665,-125,43.436,2.77686,0.0021639,0.000328408,0.000909678,0.00253835,-4.60432e-05,0.390492,0.00170779,0.0464631,1889,1149,43.4361,-2.77692
672,-125,43.3026,3.0719,0.00180565,0.00039579,0.000442312,0.00193293,0.000268514,0.280181,0.00120909,0.0472327,1896,1149,43.3026,-3.07192
679,-125,43.4568,3.10938,0.00101525,0.000664069,4.55732e-05,0.00102106,0.000658251,0.126971,0.000597681,0.0419457,1903,1149,43.4568,-3.10938
686,-125,43.4365,3.00159,0.00029736,0.000706521,-0.000111302,0.000734838,0.000269043,-1.32167,0.000429298,0.0374536,1910,1149,43.4365,-3.00154
693,-125,43.37,2.8302,-8.77963e-05,0.000829395,-0.00011432,0.000843429,-0.00010183,-1.44864,0.000599121,0.0331011,1917,1149,43.37,-2.83021
700,-125,43.4482,2.86707,-0.000407182,0.000827744,-0.000144084,0.000844332,-0.00042377,-1.45617,0.00074544,0.0174942,1924,1149,43.4483,-2.86708
707,-125,43.5754,2.97778,0,0,0,0,0,0,0,-1,1931,1149,43.5755,-2.97782
714,-125,39.589,7.35034,0,0,0,0,0,0,0,-1,1938,1149,39.589,-7.35034
721,-125,39.5374,7.0033,-0.00162294,0.00102155,0.000215342,0.00103897,-0.00164036,1.49007,0.00155985,0.027186,1945,1149,39.5373,-7.00324
728,-125,39.5184,6.68909,-0.00164948,0.00118216,0.000381403,0.00123263,-0.00169995,1.43923,0.00170028,0.0201902,1952,1149,39.5184,-6.68907
735,-125,39.5021,6.36694,-0.00164773,0.00115438,0.000836313,0.001385,-0.00187835,1.30172,0.00189126,0.0216868,1959,1149,39.5021,-6.36691
742,-125,39.5271,6.03369,-0.00159788,0.00141325,0.00156572,0.00207982,-0.00226445,1.16831,0.00250892,0.0261307,1966,1149,39.5271,-6.03363
749,-125,39.5001,5.73083,-0.00145381,0.0019364,0.00239668,0.00317685,-0.00269426,1.09319,0.0033935,0.0269796,1973,1149,39.5001,-5.73086
756,-125,39.4899,5.40088,-0.000866841,0.0028752,0.00306179,0.0045924,-0.00258403,1.05966,0.00419705,0.0230902,1980,1149,39.4898,-5.40087
763,-125,39.4901,5.11096,0.000303364,0.00426304,0.00370303,0.00648227,-0.00191587,1.03089,0.00508197,0.0123421,1987,1149,39.4901,-5.11098
770,-125,39.4498,4.81396,0.00166213,0.0060906,0.00434873,0.00875636,-0.00100362,1.02088,0.00619925,0.0150076,1994,1149,39.4498,-4.81392
777,-125,39.3938,4.58679,0.00322509,0.00838508,0.00480989,0.0112632,0.000346933,1.03157,0.0073959,0.0291113,2001,1149,39.3938,-4.58675
784,-125,39.4653,4.46631,0.00497633,0.0114333,0.00495089,0.0141153,0.00229428,1.07432,0.00874635,0.0465169,2008,1149,39.4654,-4.46629
791,-125,39.5737,4.36438,0,0,0,0,0,0,0,-1,2015,1149,39.5737,-4.36441
798,-125,38.6567,2.89099,0,0,0,0,0,0,0,-1,2022,1149,38.6566,-2.89102
805,-125,38.9116,2.09802,0,0,0,0,0,0,0,-1,2029,1149,38.9117,-2.09801
812,-125,42.3865,3.0531,0,0,0,0,0,0,0,-1,2036,1149,42.3864,-3.05304
-700,-132,0,0,0,0,0,0,0,0,0,-1,524,1156,0,0
-693,-132,-23.6656,0.435059,0.0667692,0.0568973,-0.125368,0.187298,-0.0636318,-0.765723,0.150625,0.0478859,531,1156,-23.6656,-0.435112
-686,-132,-23.499,0.379517,0.049006,0.0493731,-0.0927717,0.141961,-0.0435824,-0.786388,0.112031,0.0471838,538,1156,-23.4989,-0.379557
-679,-132,-23.0167,0.0511475,0.0354848,0.0419443,-0.0683885,0.107179,-0.0297501,-0.808994,0.0831627,0.0496677,545,1156,-23.0167,-0.0510984
-672,-132,-22.6146,-0.594604,0,0,0,0,0,0,0,-1,552,1156,-22.6146,0.594602
-665,-132,-22.5059,-1.08167,0,0,0,0,0,0,0,-1,559,1156,-22.5059,1.08162
-658,-132,-27.7533,0.528931,0,0,0,0,0,0,0,-1,566,1156,-27.7533,-0.528974
-651,-132,-27.5029,1.09167,0.00687433,0.017698,-0.0139934,0.0272896,-0.00271722,-0.969912,0.0191631,0.0395646,573,1156,-27.503,-1.09169
-644,-132,-27.2827,1.63269,0.0038675,0.0131808,-0.00770625,0.0175281,-0.000479787,-1.05717,0.0118485,0.021836,580,1156,-27.2826,-1.63263
-637,-132,-27.2962,2.0293,0.00137612,0.00885793,-0.00203028,0.00937336,0.000860691,-1.32218,0.00598269,0.0113509,587,1156,-27.2962,-2.02925
-630,-132,-27.2878,2.38245,-0.000288305,0.00575989,0.00112731,0.00596317,-0.000491588,1.39239,0.00414903,0.0103881,594,1156,-27.2878,-2.3824
-623,-132,-27.3098,2.78613,-0.000510417,0.00316242,0.00240127,0.00434901,-0.001697,1.11184,0.00360086,0.0155675,601,1156,-27.3098,-2.78612
-616,-132,-27.3487,3.08728,0.00125098,0.00186457,0.00108307,0.00268346,0.000432092,0.923416,0.00166375,0.0251635,608,1156,-27.3487,-3.08728
-609,-132,-27.2544,3.50439,0,0,0,0,0,0,0,-1,615,1156,-27.2544,-3.50434
-602,-132,-27.3858,3.74451,0.00233687,0.000757648,8.05853e-05,0.00234097,0.000753546,0.0508526,0.00137984,0.0269949,622,1156,-27.3858,-3.74445
-595,-132,-27.4858,4.14331,0.00219445,0.000559915,0.000313006,0.00225234,0.000502026,0.182879,0.00136534,0.0375922,629,1156,-27.4859,-4.14326
-588,-132,-27.3152,4.65369,0.00157495,0.000119479,0.000134845,0.00158734,0.000107092,0.091608,0.00102439,0.0355834,636,1156,-27.3152,-4.6537
-581,-132,-26.9579,5.23645,0,0,0,0,0,0,0,-1,643,1156,-26.9579,-5.23647
-574,-132,-30.1481,2.64905,0,0,0,0,0,0,0,-1,650,1156,-30.1481,-2.64904
-567,-132,-31.7534,1.01245,0,0,0,0,0,0,0,-1,657,1156,-31.7534,-1.01249
-560,-132,-31.7814,0.835693,0.00249272,0.000354471,-0.000891541,0.00281567,3.15217e-05,-0.347535,0.0018667,0.0366933,664,1156,-31.7814,-0.835692
-553,-132,-31.7964,0.70874,0.00221085,0.000594251,-0.00146621,0.00307681,-0.000271702,-0.533483,0.00214751,0.0407395,671,1156,-31.7964,-0.708792
-546,-132,-31.8071,0.935425,0.00204413,0.000997968,-0.00243157,0.00400825,-0.000966147,-0.679452,0.00304573,0.0424449,678,1156,-31.8071,-0.935409
-539,-132,-31.8561,1.10913,0.00244586,0.00178608,-0.00397939,0.00610901,-0.00187707,-0.744043,0.00482173,0.0403051,685,1156,-31.8561,-1.10917
-532,-132,-31.8436,1.00232,0.00428782,0.00311847,-0.00602968,0.0097611,-0.00235482,-0.737066,0.00741799,0.0416396,692,1156,-31.8436,-1.00235
-525,-132,-31.9161,1.0498,0,0,0,0,0,0,0,-1,699,1156,-31.9161,-1.0498
-518,-132,0,0,0,0,0,0,0,0,0,-1,706,1156,0,0
-511,-132,0,0,0,0,0,0,0,0,0,-1,713,1156,0,0
-504,-132,0,0,0,0,0,0,0,0,0,-1,720,1156,0,0
-497,-132,0,0,0,0,0,0,0,0,0,-1,727,1156,0,0
-490,-132,0,0,0,0,0,0,0,0,0,-1,734,1156,0,0
-483,-132,0,0,0,0,0,0,0,0,0,-1,741,1156,0,0
-476,-132,0,0,0,0,0,0,0,0,0,-1,748,1156,0,0
-469,-132,0,0,0,0,0,0,0,0,0,-1,755,1156,0,0
-462,-132,0,0,0,0,0,0,0,0,0,-1,762,1156,0,0
-455,-132,0,0,0,0,0,0,0,0,0,-1,769,1156,0,0
-448,-132,0,0,0,0,0,0,0,0,0,-1,776,1156,0,0
-441,-132,0,0,0,0,0,0,0,0,0,-1,783,1156,0,0
-434,-132,0,0,0,0,0,0,0,0,0,-1,790,1156,0,0
-427,-132,0,0,0,0,0,0,0,0,0,-1,797,1156,0,0
-420,-132,0,0,0,0,0,0,0,0,0,-1,804,1156,0,0
-413,-132,0,0,0,0,0,0,0,0,0,-1,811,1156,0,0
-406,-132,0,0,0,0,0,0,0,0,0,-1,818,1156,0,0
-399,-132,0,0,0,0,0,0,0,0,0,-1,825,1156,0,0
-392,-132,0,0,0,0,0,0,0,0,0,-1,832,1156,0,0
-385,-132,0,0,0,0,0,0,0,0,0,-1,839,1156,0,0
-378,-132,0,0,0,0,0,0,0,0,0,-1,846,1156,0,0
-371,-132,0,0,0,0,0,0,0,0,0,-1,853,1156,0,0
-364,-132,0,0,0,0,0,0,0,0,0,-1,860,1156,0,0
-357,-132,0,0,0,0,0,0,0,0,0,-1,867,1156,0,0
-350,-132,0,0,0,0,0,0,0,0,0,-1,874,1156,0,0
-343,-132,0,0,0,0,0,0,0,0,0,-1,881,1156,0,0
-336,-132,0,0,0,0,0,0,0,0,0,-1,888,1156,0,0
-329,-132,0,0,0,0,0,0,0,0,0,-1,895,1156,0,0
-322,-132,0,0,0,0,0,0,0,0,0,-1,902,1156,0,0
-315,-132,0,0,0,0,0,0,0,0,0,-1,909,1156,0,0
-308,-132,0,0,0,0,0,0,0,0,0,-1,916,1156,0,0
-301,-132,0,0,0,0,0,0,0,0,0,-1,923,1156,0,0
-294,-132,0,0,0,0,0,0,0,0,0,-1,930,1156,0,0
-287,-132,0,0,0,0,0,0,0,0,0,-1,937,1156,0,0
-280,-132,0,0,0,0,0,0,0,0,0,-1,944,1156,0,0
-273,-132,0,0,0,0,0,0,0,0,0,-1,951,1156,0,0
-266,-132,0,0,0,0,0,0,0,0,0,-1,958,1156,0,0
-259,-132,0,0,0,0,0,0,0,0,0,-1,965,1156,0,0
-252,-132,0,0,0,0,0,0,0,0,0,-1,972,1156,0,0
-245,-132,0,0,0,0,0,0,0,0,0,-1,979,1156,0,0
-238,-132,0,0,0,0,0,0,0,0,0,-1,986,1156,0,0
-231,-132,0,0,0,0,0,0,0,0,0,-1,993,1156,0,0
-224,-132,0,0,0,0,0,0,0,0,0,-1,1000,1156,0,0
-217,-132,0,0,0,0,0,0,0,0,0,-1,1007,1156,0,0
-210,-132,0,0,0,0,0,0,0,0,0,-1,1014,1156,0,0
-203,-132,0,0,0,0,0,0,0,0,0,-1,1021,1156,0,0
-196,-132,0,0,0,0,0,0,0,0,0,-1,1028,1156,0,0
-189,-132,0,0,0,0,0,0,0,0,0,-1,1035,1156,0,0
-182,-132,0,0,0,0,0,0,0,0,0,-1,1042,1156,0,0
-175,-132,0,0,0,0,0,0,0,0,0,-1,1049,1156,0,0
-168,-132,0,0,0,0,0,0,0,0,0,-1,1056,1156,0,0
-161,-132,0,0,0,0,0,0,0,0,0,-1,1063,1156,0,0
-154,-132,0,0,0,0,0,0,0,0,0,-1,1070,1156,0,0
-147,-132,0,0,0,0,0,0,0,0,0,-1,1077,1156,0,0
-140,-132,0,0,0,0,0,0,0,0,0,-1,1084,1156,0,0
-133,-132,0,0,0,0,0,0,0,0,0,-1,1091,1156,0,0
-126,-132,0,0,0,0,0,0,0,0,0,-1,1098,1156,0,0
-119,-132,0,0,0,0,0,0,0,0,0,-1,1105,1156,0,0
-112,-132,0,0,0,0,0,0,0,0,0,-1,1112,1156,0,0
-105,-132,0,0,0,0,0,0,0,0,0,-1,1119,1156,0,0
-98,-132,0,0,0,0,0,0,0,0,0,-1,1126,1156,0,0
-91,-132,0,0,0,0,0,0,0,0,0,-1,1133,1156,0,0
-84,-132,0,0,0,0,0,0,0,0,0,-1,1140,1156,0,0
-77,-132,0,0,0,0,0,0,0,0,0,-1,1147,1156,0,0
-70,-132,0,0,0,0,0,0,0,0,0,-1,1154,1156,0,0
-63,-132,0,0,0,0,0,0,0,0,0,-1,1161,1156,0,0
-56,-132,0,0,0,0,0,0,0,0,0,-1,1168,1156,0,0
-49,-132,0,0,0,0,0,0,0,0,0,-1,1175,1156,0,0
-42,-132,0,0,0,0,0,0,0,0,0,-1,1182,1156,0,0
-35,-132,0,0,0,0,0,0,0,0,0,-1,1189,1156,0,0
-28,-132,0,0,0,0,0,0,0,0,0,-1,1196,1156,0,0
-21,-132,0,0,0,0,0,0,0,0,0,-1,1203,1156,0,0
-14,-132,0,0,0,0,0,0,0,0,0,-1,1210,1156,0,0
-7,-132,0,0,0,0,0,0,0,0,0,-1,1217,1156,0,0
0,-132,0,0,0,0,0,0,0,0,0,-1,1224,1156,0,0
7,-132,0,0,0,0,0,0,0,0,0,-1,1231,1156,0,0
14,-132,0,0,0,0,0,0,0,0,0,-1,1238,1156,0,0
21,-132,0,0,0,0,0,0,0,0,0,-1,1245,1156,0,0
28,-132,0,0,0,0,0,0,0,0,0,-1,1252,1156,0,0
35,-132,0,0,0,0,0,0,0,0,0,-1,1259,1156,0,0
42,-132,0,0,0,0,0,0,0,0,0,-1,1266,1156,0,0
49,-132,0,0,0,0,0,0,0,0,0,-1,1273,1156,0,0
56,-132,0,0,0,0,0,0,0,0,0,-1,1280,1156,0,0
63,-132,0,0,0,0,0,0,0,0,0,-1,1287,1156,0,0
70,-132,0,0,0,0,0,0,0,0,0,-1,1294,1156,0,0
77,-132,0,0,0,0,0,0,0,0,0,-1,1301,1156,0,0
84,-132,0,0,0,0,0,0,0,0,0,-1,1308,1156,0,0
91,-132,0,0,0,0,0,0,0,0,0,-1,1315,1156,0,0
98,-132,0,0,0,0,0,0,0,0,0,-1,1322,1156,0,0
105,-132,0,0,0,0,0,0,0,0,0,-1,1329,1156,0,0
112,-132,0,0,0,0,0,0,0,0,0,-1,1336,1156,0,0
119,-132,0,0,0,0,0,0,0,0,0,-1,1343,1156,0,0
126,-132,0,0,0,0,0,0,0,0,0,-1,1350,1156,0,0
133,-132,0,0,0,0,0,0,0,0,0,-1,1357,1156,0,0
140,-132,0,0,0,0,0,0,0,0,0,-1,1364,1156,0,0
147,-132,0,0,0,0,0,0,0,0,0,-1,1371,1156,0,0
154,-132,0,0,0,0,0,0,0,0,0,-1,1378,1156,0,0
161,-132,0,0,0,0,0,0,0,0,0,-1,1385,1156,0,0
168,-132,0,0,0,0,0,0,0,0,0,-1,1392,1156,0,0
175,-132,0,0,0,0,0,0,0,0,0,-1,1399,1156,0,0
182,-132,0,0,0,0,0,0,0,0,0,-1,1406,1156,0,0
189,-132,0,0,0,0,0,0,0,0,0,-1,1413,1156,0,0
196,-132,0,0,0,0,0,0,0,0,0,-1,1420,1156,0,0
203,-132,0,0,0,0,0,0,0,0,0,-1,1427,1156,0,0
210,-132,0,0,0,0,0,0,0,0,0,-1,1434,1156,0,0
217,-132,0,0,0,0,0,0,0,0,0,-1,1441,1156,0,0
224,-132,0,0,0,0,0,0,0,0,0,-1,1448,1156,0,0
231,-132,0,0,0,0,0,0,0,0,0,-1,1455,1156,0,0
238,-132,0,0,0,0,0,0,0,0,0,-1,1462,1156,0,0
245,-132,0,0,0,0,0,0,0,0,0,-1,1469,1156,0,0
252,-132,0,0,0,0,0,0,0,0,0,-1,1476,1156,0,0
259,-132,0,0,0,0,0,0,0,0,0,-1,1483,1156,0,0
266,-132,0,0,0,0,0,0,0,0,0,-1,1490,1156,0,0
273,-132,0,0,0,0,0,0,0,0,0,-1,1497,1156,0,0
280,-132,0,0,0,0,0,0,0,0,0,-1,1504,1156,0,0
287,-132,0,0,0,0,0,0,0,0,0,-1,1511,1156,0,0
294,-132,0,0,0,0,0,0,0,0,0,-1,1518,1156,0,0
301,-132,0,0,0,0,0,0,0,0,0,-1,1525,1156,0,0
308,-132,0,0,0,0,0,0,0,0,0,-1,1532,1156,0,0
315,-132,0,0,0,0,0,0,0,0,0,-1,1539,1156,0,0
322,-132,0,0,0,0,0,0,0,0,0,-1,1546,1156,0,0
329,-132,0,0,0,0,0,0,0,0,0,-1,1553,1156,0,0
336,-132,0,0,0,0,0,0,0,0,0,-1,1560,1156,0,0
343,-132,0,0,0,0,0,0,0,0,0,-1,1567,1156,0,0
350,-132,0,0,0,0,0,0,0,0,0,-1,1574,1156,0,0
357,-132,0,0,0,0,0,0,0,0,0,-1,1581,1156,0,0
364,-132,0,0,0,0,0,0,0,0,0,-1,1588,1156,0,0
371,-132,0,0,0,0,0,0,0,0,0,-1,1595,1156,0,0
378,-132,0,0,0,0,0,0,0,0,0,-1,1602,1156,0,0
385,-132,0,0,0,0,0,0,0,0,0,-1,1609,1156,0,0
392,-132,0,0,0,0,0,0,0,0,0,-1,1616,1156,0,0
399,-132,0,0,0,0,0,0,0,0,0,-1,1623,1156,0,0
406,-132,0,0,0,0,0,0,0,0,0,-1,1630,1156,0,0
413,-132,0,0,0,0,0,0,0,0,0,-1,1637,1156,0,0
420,-132,0,0,0,0,0,0,0,0,0,-1,1644,1156,0,0
427,-132,0,0,0,0,0,0,0,0,0,-1,1651,1156,0,0
434,-132,0,0,0,0,0,0,0,0,0,-1,1658,1156,0,0
441,-132,0,0,0,0,0,0,0,0,0,-1,1665,1156,0,0
448,-132,0,0,0,0,0,0,0,0,0,-1,1672,1156,0,0
455,-132,0,0,0,0,0,0,0,0,0,-1,1679,1156,0,0
462,-132,0,0,0,0,0,0,0,0,0,-1,1686,1156,0,0
469,-132,0,0,0,0,0,0,0,0,0,-1,1693,1156,0,0
476,-132,0,0,0,0,0,0,0,0,0,-1,1700,1156,0,0
483,-132,0,0,0,0,0,0,0,0,0,-1,1707,1156,0,0
490,-132,0,0,0,0,0,0,0,0,0,-1,1714,1156,0,0
497,-132,0,0,0,0,0,0,0,0,0,-1,1721,1156,0,0
504,-132,0,0,0,0,0,0,0,0,0,-1,1728,1156,0,0
511,-132,0,0,0,0,0,0,0,0,0,-1,1735,1156,0,0
518,-132,0,0,0,0,0,0,0,0,0,-1,1742,1156,0,0
525,-132,0,0,0,0,0,0,0,0,0,-1,1749,1156,0,0
532,-132,0,0,0,0,0,0,0,0,0,-1,1756,1156,0,0
539,-132,0,0,0,0,0,0,0,0,0,-1,1763,1156,0,0
546,-132,0,0,0,0,0,0,0,0,0,-1,1770,1156,0,0
553,-132,0,0,0,0,0,0,0,0,0,-1,1777,1156,0,0
560,-132,0,0,0,0,0,0,0,0,0,-1,1784,1156,0,0
567,-132,0,0,0,0,0,0,0,0,0,-1,1791,1156,0,0
574,-132,0,0,0,0,0,0,0,0,0,-1,1798,1156,0,0
581,-132,0,0,0,0,0,0,0,0,0,-1,1805,1156,0,0
588,-132,0,0,0,0,0,0,0,0,0,-1,1812,1156,0,0
595,-132,0,0,0,0,0,0,0,0,0,-1,1819,1156,0,0
602,-132,0,0,0,0,0,0,0,0,0,-1,1826,1156,0,0
609,-132,0,0,0,0,0,0,0,0,0,-1,1833,1156,0,0
616,-132,0,0,0,0,0,0,0,0,0,-1,1840,1156,0,0
623,-132,0,0,0,0,0,0,0,0,0,-1,1847,1156,0,0
630,-132,0,0,0,0,0,0,0,0,0,-1,1854,1156,0,0
637,-132,0,0,0,0,0,0,0,0,0,-1,1861,1156,0,0
644,-132,43.5181,2.75757,0.00319908,0.000144084,0.00106209,0.00353204,-0.000188872,0.303787,0.00242011,0.0406828,1868,1156,43.5181,-2.75757
651,-132,43.6201,2.83752,0.00258284,0.000276719,0.00119066,0.00308725,-0.000227695,0.40072,0.00213811,0.0428515,1875,1156,43.6201,-2.83751
658,-132,43.5229,2.65515,0.00224946,0.000396838,0.00104523,0.00271978,-7.34769e-05,0.422822,0.00183817,0.0440226,1882,1156,43.523,-2.65514
665,-132,43.5181,2.64294,0.00192816,0.00052085,0.000738217,0.00224435,0.000204654,0.404682,0.0014329,0.0429821,1889,1156,43.518,-2.64291
672,-132,43.4185,2.96521,0.00159221,0.000589738,0.000388935,0.00172541,0.00045654,0.329951,0.00103231,0.0408885,1896,1156,43.4185,-2.96526
679,-132,43.4203,3.06458,0.000692735,0.000900477,0.000105248,0.000944479,0.000648733,1.1748,0.000557845,0.0415814,1903,1156,43.4203,-3.06452
686,-132,43.4202,2.9624,-0.000138772,0.000893098,5.57323e-05,0.0008961,-0.000141774,1.51699,0.000649834,0.0373446,1910,1156,43.4202,-2.96239
693,-132,43.3868,2.85059,-0.000606394,0.000976956,0.000142727,0.000989719,-0.000619157,1.48161,0.000937062,0.0282607,1917,1156,43.3868,-2.85064
700,-132,43.4346,2.81604,-0.00098255,0.000956037,0.000186601,0.000973835,-0.00100035,1.4757,0.00113983,0.0384418,1924,1156,43.4345,-2.8161
707,-132,43.47,2.79285,0,0,0,0,0,0,0,-1,1931,1156,43.47,-2.79283
714,-132,39.0958,7.21301,0,0,0,0,0,0,0,-1,1938,1156,39.0958,-7.21297
721,-132,39.2098,6.95544,-0.00215055,0.00106109,0.000516198,0.00114202,-0.00223148,1.41529,0.00198126,0.0334197,1945,1156,39.2098,-6.95539
728,-132,39.1952,6.68945,-0.00215363,0.00120877,0.000664048,0.00133516,-0.00228002,1.38271,0.00211085,0.0243231,1952,1156,39.1952,-6.68951
735,-132,39.1316,6.39624,-0.00212239,0.00117777,0.00112456,0.00152454,-0.00246916,1.27169,0.00232717,0.0256541,1959,1156,39.1316,-6.39618
742,-132,39.1725,6.0321,-0.00192189,0.00137733,0.00188098,0.00222958,-0.00277414,1.14538,0.00289459,0.0217396,1966,1156,39.1725,-6.03208
749,-132,39.1899,5.71777,-0.0015002,0.00185185,0.00278235,0.00342399,-0.00307233,1.05648,0.00375248,0.0262603,1973,1156,39.1899,-5.71779
756,-132,39.158,5.39783,-0.000475231,0.00275693,0.00363486,0.00511878,-0.00283708,0.994578,0.00465586,0.025333,1980,1156,39.158,-5.39784
763,-132,39.1356,5.12292,0.00117257,0.00408007,0.00457671,0.00742837,-0.00217573,0.939179,0.00581479,0.0140853,1987,1156,39.1357,-5.12296
770,-132,39.1307,4.82825,0.00300256,0.00580138,0.00561869,0.0101923,-0.00138837,0.907447,0.00730179,0.0132816,1994,1156,39.1308,-4.82827
777,-132,39.1093,4.49731,0.00503568,0.00797692,0.00661967,0.0132874,-0.000274761,0.894702,0.00895123,0.0238627,2001,1156,39.1093,-4.49733
784,-132,39.2173,4.48145,0.00724641,0.0109455,0.00750086,0.0168214,0.00137042,0.906274,0.0107866,0.0468438,2008,1156,39.2173,-4.48146
791,-132,39.3691,4.50439,0,0,0,0,0,0,0,-1,2015,1156,39.3691,-4.50441
798,-132,37.9067,1.96521,0,0,0,0,0,0,0,-1,2022,1156,37.9067,-1.96521
805,-132,38.6687,3.00159,0,0,0,0,0,0,0,-1,2029,1156,38.6686,-3.00157
812,-132,38.7886,2.0968,0,0,0,0,0,0,0,-1,2036,1156,38.7885,-2.09676
-700,-139,0,0,0,0,0,0,0,0,0,-1,524,1163,0,0
-693,-139,-22.2555,-0.307129,0,0,0,0,0,0,0,-1,531,1163,-22.2555,0.307108
-686,-139,-22.385,-0.0211182,0,0,0,0,0,0,0,-1,538,1163,-22.385,0.0211576
-679,-139,-21.701,-0.205811,0.0465562,0.0472115,-0.0703482,0.117233,-0.0234651,-0.787727,0.0870377,0.0488085,545,1163,-21.701,0.205778
-672,-139,-21.3819,-0.653442,0.0339621,0.0392581,-0.0506957,0.0873749,-0.0141547,-0.811491,0.0634962,0.0449031,552,1163,-21.3819,0.653452
-665,-139,-21.095,-1.12048,0.0241561,0.0319505,-0.0351553,0.0634239,-0.00731738,-0.840601,0.0449208,0.0477867,559,1163,-21.0951,1.12049
-658,-139,-27.4435,0.706177,0,0,0,0,0,0,0,-1,566,1163,-27.4435,-0.706182
-651,-139,-27.1701,1.17432,0.0107104,0.0194172,-0.013971,0.0296973,0.000430276,-0.936432,0.0196564,0.0408241,573,1163,-27.1701,-1.17428
-644,-139,-26.8937,1.64307,0.00653739,0.014261,-0.00751287,0.0188465,0.00195191,-1.0228,0.0119669,0.022621,580,1163,-26.8938,-1.64304
-637,-139,-26.8997,2.00598,0.00321672,0.00933886,-0.00187553,0.00986775,0.00268783,-1.29594,0.00589063,0.012845,587,1163,-26.8996,-2.00604
-630,-139,-26.9078,2.37061,0.000664559,0.00596306,0.00132013,0.00627376,0.000353865,1.33965,0.00406968,0.0105799,594,1163,-26.9078,-2.37062
-623,-139,-26.928,2.75098,-0.000138659,0.00323218,0.0024745,0.00454072,-0.0014472,1.08437,0.00360764,0.0171433,601,1163,-26.928,-2.75092
-616,-139,-26.9427,3.1167,0.00140834,0.00184182,0.000888084,0.00253923,0.000710929,0.905085,0.0015126,0.0196581,608,1163,-26.9427,-3.1167
-609,-139,-26.8085,3.49512,0.00188948,0.000926898,-0.000142698,0.00191019,0.000906189,-0.144117,0.00110333,0.0365527,615,1163,-26.8085,-3.49506
-602,-139,-26.9876,3.85754,0.00228496,0.000593564,-0.00010978,0.00229206,0.000586468,-0.0645439,0.00137489,0.0322491,622,1163,-26.9876,-3.85753
-595,-139,-27.1442,4.21777,0.00216707,0.000353558,0.000146618,0.00217885,0.000341781,0.0801536,0.0013531,0.0356461,629,1163,-27.1442,-4.21775
-588,-139,-27.0123,4.59741,0.00143212,-8.70702e-05,-8.61512e-06,0.00143217,-8.7119e-05,-0.0056706,0.000985107,0.0304509,636,1163,-27.0123,-4.59739
-581,-139,-26.5291,5.09412,0,0,0,0,0,0,0,-1,643,1163,-26.5291,-5.09406
-574,-139,-23.0725,2.4043,0,0,0,0,0,0,0,-1,650,1163,-23.0725,-2.40433
-567,-139,-31.7751,1.17371,0,0,0,0,0,0,0,-1,657,1163,-31.7752,-1.17365
-560,-139,-31.7866,0.967285,0.00230976,-8.61323e-06,-0.000967026,0.00266016,-0.000359014,-0.347633,0.00190442,0.0384013,664,1163,-31.7866,-0.967332
-553,-139,-31.7394,0.856201,0.00206368,0.000226336,-0.00145345,0.00286445,-0.000574434,-0.503568,0.00212712,0.0416956,671,1163,-31.7394,-0.856168
-546,-139,-31.7869,1.12146,0.00198792,0.000694887,-0.00227159,0.00370321,-0.00102039,-0.646759,0.00287005,0.0417399,678,1163,-31.7868,-1.12141
-539,-139,-31.8394,1.13232,0.00231781,0.00172453,-0.00362946,0.00566274,-0.00162039,-0.744623,0.00441554,0.0392103,685,1163,-31.8394,-1.13228
-532,-139,-32.0041,1.0979,0.00392089,0.00332544,-0.00558998,0.00922107,-0.00197474,-0.758793,0.00690047,0.0402365,692,1163,-32.0041,-1.09796
-525,-139,-31.7261,1.01306,0.00660607,0.00539774,-0.00810539,0.0141298,-0.00212597,-0.748197,0.0102026,0.042016,699,1163,-31.726,-1.01302
-518,-139,0,0,0,0,0,0,0,0,0,-1,706,1163,0,0
-511,-139,0,0,0,0,0,0,0,0,0,-1,713,1163,0,0
-504,-139,0,0,0,0,0,0,0,0,0,-1,720,1163,0,0
-497,-139,0,0,0,0,0,0,0,0,0,-1,727,1163,0,0
-490,-139,0,0,0,0,0,0,0,0,0,-1,734,1163,0,0
-483,-139,0,0,0,0,0,0,0,0,0,-1,741,1163,0,0
-476,-139,0,0,0,0,0,0,0,0,0,-1,748,1163,0,0
-469,-139,0,0,0,0,0,0,0,0,0,-1,755,1163,0,0
-462,-139,0,0,0,0,0,0,0,0,0,-1,762,1163,0,0
-455,-139,0,0,0,0,0,0,0,0,0,-1,769,1163,0,0
-448,-139,0,0,0,0,0,0,0,0,0,-1,776,1163,0,0
-441,-139,0,0,0,0,0,0,0,0,0,-1,783,1163,0,0
-434,-139,0,0,0,0,0,0,0,0,0,-1,790,1163,0,0
-427,-139,0,0,0,0,0,0,0,0,0,-1,797,1163,0,0
-420,-139,0,0,0,0,0,0,0,0,0,-1,804,1163,0,0
-413,-139,0,0,0,0,0,0,0,0,0,-1,811,1163,0,0
-406,-139,0,0,0,0,0,0,0,0,0,-1,818,1163,0,0
-399,-139,0,0,0,0,0,0,0,0,0,-1,825,1163,0,0
-392,-139,0,0,0,0,0,0,0,0,0,-1,832,1163,0,0
-385,-139,0,0,0,0,0,0,0,0,0,-1,839,1163,0,0
-378,-139,0,0,0,0,0,0,0,0,0,-1,846,1163,0,0
-371,-139,0,0,0,0,0,0,0,0,0,-1,853,1163,0,0
-364,-139,0,0,0,0,0,0,0,0,0,-1,860,1163,0,0
-357,-139,0,0,0,0,0,0,0,0,0,-1,867,1163,0,0
-350,-139,0,0,0,0,0,0,0,0,0,-1,874,1163,0,0
-343,-139,0,0,0,0,0,0,0,0,0,-1,881,1163,0,0
-336,-139,0,0,0,0,0,0,0,0,0,-1,888,1163,0,0
-329,-139,0,0,0,0,0,0,0,0,0,-1,895,1163,0,0
-322,-139,0,0,0,0,0,0,0,0,0,-1,902,1163,0,0
-315,-139,0,0,0,0,0,0,0,0,0,-1,909,1163,0,0
-308,-139,0,0,0,0,0,0,0,0,0,-1,916,1163,0,0
-301,-139,0,0,0,0,0,0,0,0,0,-1,923,1163,0,0
-294,-139,0,0,0,0,0,0,0,0,0,-1,930,1163,0,0
-287,-139,0,0,0,0,0,0,0,0,0,-1,937,1163,0,0
-280,-139,0,0,0,0,0,0,0,0,0,-1,944,1163,0,0
-273,-139,0,0,0,0,0,0,0,0,0,-1,951,1163,0,0
-266,-139,0,0,0,0,0,0,0,0,0,-1,958,1163,0,0
-259,-139,0,0,0,0,0,0,0,0,0,-1,965,1163,0,0
-252,-139,0,0,0,0,0,0,0,0,0,-1,972,1163,0,0
-245,-139,0,0,0,0,0,0,0,0,0,-1,979,1163,0,0
-238,-139,0,0,0,0,0,0,0,0,0,-1,986,1163,0,0
-231,-139,0,0,0,0,0,0,0,0,0,-1,993,1163,0,0
-224,-139,0,0,0,0,0,0,0,0,0,-1,1000,1163,0,0
-217,-139,0,0,0,0,0,0,0,0,0,-1,1007,1163,0,0
-210,-139,0,0,0,0,0,0,0,0,0,-1,1014,1163,0,0
-203,-139,0,0,0,0,0,0,0,0,0,-1,1021,1163,0,0
-196,-139,0,0,0,0,0,0,0,0,0,-1,1028,1163,0,0
-189,-139,0,0,0,0,0,0,0,0,0,-1,1035,1163,0,0
-182,-139,0,0,0,0,0,0,0,0,0,-1,1042,1163,0,0
-175,-139,0,0,0,0,0,0,0,0,0,-1,1049,1163,0,0
-168,-139,0,0,0,0,0,0,0,0,0,-1,1056,1163,0,0
-161,-139,0,0,0,0,0,0,0,0,0,-1,1063,1163,0,0
-154,-139,0,0,0,0,0,0,0,0,0,-1,1070,1163,0,0
-147,-139,0,0,0,0,0,0,0,0,0,-1,1077,1163,0,0
-140,-139,0,0,0,0,0,0,0,0,0,-1,1084,1163,0,0
-133,-139,0,0,0,0,0,0,0,0,0,-1,1091,1163,0,0
-126,-139,0,0,0,0,0,0,0,0,0,-1,1098,1163,0,0
-119,-139,0,0,0,0,0,0,0,0,0,-1,1105,1163,0,0
-112,-139,0,0,0,0,0,0,0,0,0,-1,1112,1163,0,0
-105,-139,0,0,0,0,0,0,0,0,0,-1,1119,1163,0,0
-98,-139,0,0,0,0,0,0,0,0,0,-1,1126,1163,0,0
-91,-139,0,0,0,0,0,0,0,0,0,-1,1133,1163,0,0
-84,-139,0,0,0,0,0,0,0,0,0,-1,1140,1163,0,0
-77,-139,0,0,0,0,0,0,0,0,0,-1,1147,1163,0,0
-70,-139,0,0,0,0,0,0,0,0,0,-1,1154,1163,0,0
-63,-139,0,0,0,0,0,0,0,0,0,-1,1161,1163,0,0
-56,-139,0,0,0,0,0,0,0,0,0,-1,1168,1163,0,0
-49,-139,0,0,0,0,0,0,0,0,0,-1,1175,1163,0,0
-42,-139,0,0,0,0,0,0,0,0,0,-1,1182,1163,0,0
-35,-139,0,0,0,0,0,0,0,0,0,-1,1189,1163,0,0
-28,-139,0,0,0,0,0,0,0,0,0,-1,1196,1163,0,0
-21,-139,0,0,0,0,0,0,0,0,0,-1,1203,1163,0,0
-14,-139,0,0,0,0,0,0,0,0,0,-1,1210,1163,0,0
-7,-139,0,0,0,0,0,0,0,0,0,-1,1217,1163,0,0
0,-139,0,0,0,0,0,0,0,0,0,-1,1224,1163,0,0
7,-139,0,0,0,0,0,0,0,0,0,-1,1231,1163,0,0
14,-139,0,0,0,0,0,0,0,0,0,-1,1238,1163,0,0
21,-139,0,0,0,0,0,0,0,0,0,-1,1245,1163,0,0
28,-139,0,0,0,0,0,0,0,0,0,-1,1252,1163,0,0
35,-139,0,0,0,0,0,0,0,0,0,-1,1259,1163,0,0
42,-139,0,0,0,0,0,0,0,0,0,-1,1266,1163,0,0
49,-139,0,0,0,0,0,0,0,0,0,-1,1273,1163,0,0
56,-139,0,0,0,0,0,0,0,0,0,-1,1280,1163,0,0
63,-139,0,0,0,0,0,0,0,0,0,-1,1287,1163,0,0
70,-139,0,0,0,0,0,0,0,0,0,-1,1294,1163,0,0
77,-139,0,0,0,0,0,0,0,0,0,-1,1301,1163,0,0
84,-139,0,0,0,0,0,0,0,0,0,-1,1308,1163,0,0
91,-139,0,0,0,0,0,0,0,0,0,-1,1315,1163,0,0
98,-139,0,0,0,0,0,0,0,0,0,-1,1322,1163,0,0
105,-139,0,0,0,0,0,0,0,0,0,-1,1329,1163,0,0
112,-139,0,0,0,0,0,0,0,0,0,-1,1336,1163,0,0
119,-139,0,0,0,0,0,0,0,0,0,-1,1343,1163,0,0
126,-139,0,0,0,0,0,0,0,0,0,-1,1350,1163,0,0
133,-139,0,0,0,0,0,0,0,0,0,-1,1357,1163,0,0
140,-139,0,0,0,0,0,0,0,0,0,-1,1364,1163,0,0
147,-139,0,0,0,0,0,0,0,0,0,-1,1371,1163,0,0
154,-139,0,0,0,0,0,0,0,0,0,-1,1378,1163,0,0
161,-139,0,0,0,0,0,0,0,0,0,-1,1385,1163,0,0
168,-139,0,0,0,0,0,0,0,0,0,-1,1392,1163,0,0
175,-139,0,0,0,0,0,0,0,0,0,-1,1399,1163,0,0
182,-139,0,0,0,0,0,0,0,0,0,-1,1406,1163,0,0
189,-139,0,0,0,0,0,0,0,0,0,-1,1413,1163,0,0
196,-139,0,0,0,0,0,0,0,0,0,-1,1420,1163,0,0
203,-139,0,0,0,0,0,0,0,0,0,-1,1427,1163,0,0
210,-139,0,0,0,0,0,0,0,0,0,-1,1434,1163,0,0
217,-139,0,0,0,0,0,0,0,0,0,-1,1441,1163,0,0
224,-139,0,0,0,0,0,0,0,0,0,-1,1448,1163,0,0
231,-139,0,0,0,0,0,0,0,0,0,-1,1455,1163,0,0
238,-139,0,0,0,0,0,0,0,0,0,-1,1462,1163,0,0
245,-139,0,0,0,0,0,0,0,0,0,-1,1469,1163,0,0
252,-139,0,0,0,0,0,0,0,0,0,-1,1476,1163,0,0
259,-139,0,0,0,0,0,0,0,0,0,-1,1483,1163,0,0
266,-139,0,0,0,0,0,0,0,0,0,-1,1490,1163,0,0
273,-139,0,0,0,0,0,0,0,0,0,-1,1497,1163,0,0
280,-139,0,0,0,0,0,0,0,0,0,-1,1504,1163,0,0
287,-139,0,0,0,0,0,0,0,0,0,-1,1511,1163,0,0
294,-139,0,0,0,0,0,0,0,0,0,-1,1518,1163,0,0
301,-139,0,0,0,0,0,0,0,0,0,-1,1525,1163,0,0
308,-139,0,0,0,0,0,0,0,0,0,-1,1532,1163,0,0
315,-139,0,0,0,0,0,0,0,0,0,-1,1539,1163,0,0
322,-139,0,0,0,0,0,0,0,0,0,-1,1546,1163,0,0
329,-139,0,0,0,0,0,0,0,0,0,-1,1553,1163,0,0
336,-139,0,0,0,0,0,0,0,0,0,-1,1560,1163,0,0
343,-139,0,0,0,0,0,0,0,0,0,-1,1567,1163,0,0
350,-139,0,0,0,0,0,0,0,0,0,-1,1574,1163,0,0
357,-139,0,0,0,0,0,0,0,0,0,-1,1581,1163,0,0
364,-139,0,0,0,0,0,0,0,0,0,-1,1588,1163,0,0
371,-139,0,0,0,0,0,0,0,0,0,-1,1595,1163,0,0
378,-139,0,0,0,0,0,0,0,0,0,-1,1602,1163,0,0
385,-139,0,0,0,0,0,0,0,0,0,-1,1609,1163,0,0
392,-139,0,0,0,0,0,0,0,0,0,-1,1616,1163,0,0
399,-139,0,0,0,0,0,0,0,0,0,-1,1623,1163,0,0
406,-139,0,0,0,0,0,0,0,0,0,-1,1630,1163,0,0
413,-139,0,0,0,0,0,0,0,0,0,-1,1637,1163,0,0
420,-139,0,0,0,0,0,0,0,0,0,-1,1644,1163,0,0
427,-139,0,0,0,0,0,0,0,0,0,-1,1651,1163,0,0
434,-139,0,0,0,0,0,0,0,0,0,-1,1658,1163,0,0
441,-139,0,0,0,0,0,0,0,0,0,-1,1665,1163,0,0
448,-139,0,0,0,0,0,0,0,0,0,-1,1672,1163,0,0
455,-139,0,0,0,0,0,0,0,0,0,-1,1679,1163,0,0
462,-139,0,0,0,0,0,0,0,0,0,-1,1686,1163,0,0
469,-139,0,0,0,0,0,0,0,0,0,-1,1693,1163,0,0
476,-139,0,0,0,0,0,0,0,0,0,-1,1700,1163,0,0
483,-139,0,0,0,0,0,0,0,0,0,-1,1707,1163,0,0
490,-139,0,0,0,0,0,0,0,0,0,-1,1714,1163,0,0
497,-139,0,0,0,0,0,0,0,0,0,-1,1721,1163,0,0
504,-139,0,0,0,0,0,0,0,0,0,-1,1728,1163,0,0
511,-139,0,0,0,0,0,0,0,0,0,-1,1735,1163,0,0
518,-139,0,0,0,0,0,0,0,0,0,-1,1742,1163,0,0
525,-139,0,0,0,0,0,0,0,0,0,-1,1749,1163,0,0
532,-139,0,0,0,0,0,0,0,0,0,-1,1756,1163,0,0
539,-139,0,0,0,0,0,0,0,0,0,-1,1763,1163,0,0
546,-139,0,0,0,0,0,0,0,0,0,-1,1770,1163,0,0
553,-139,0,0,0,0,0,0,0,0,0,-1,1777,1163,0,0
560,-139,0,0,0,0,0,0,0,0,0,-1,1784,1163,0,0
567,-139,0,0,0,0,0,0,0,0,0,-1,1791,1163,0,0
574,-139,0,0,0,0,0,0,0,0,0,-1,1798,1163,0,0
581,-139,0,0,0,0,0,0,0,0,0,-1,1805,1163,0,0
588,-139,0,0,0,0,0,0,0,0,0,-1,1812,1163,0,0
595,-139,0,0,0,0,0,0,0,0,0,-1,1819,1163,0,0
602,-139,0,0,0,0,0,0,0,0,0,-1,1826,1163,0,0
609,-139,0,0,0,0,0,0,0,0,0,-1,1833,1163,0,0
616,-139,0,0,0,0,0,0,0,0,0,-1,1840,1163,0,0
623,-139,0,0,0,0,0,0,0,0,0,-1,1847,1163,0,0
630,-139,0,0,0,0,0,0,0,0,0,-1,1854,1163,0,0
637,-139,0,0,0,0,0,0,0,0,0,-1,1861,1163,0,0
644,-139,43.4285,2.93848,0.00269913,-0.000191431,0.000341567,0.00273895,-0.000231244,0.116037,0.00190772,0.038947,1868,1163,43.4285,-2.93851
651,-139,43.4218,2.68884,0.00221098,7.44969e-05,0.000664511,0.0024008,-0.000115321,0.278241,0.00164033,0.0411965,1875,1163,43.4217,-2.68878
658,-139,43.4241,2.58325,0.00195405,0.000352691,0.000668303,0.00219631,0.000110434,0.347763,0.00142882,0.0432337,1882,1163,43.424,-2.58329
665,-139,43.4724,2.79016,0.00174339,0.000581775,0.000529233,0.00194835,0.000376819,0.369485,0.00119329,0.0385308,1889,1163,43.4724,-2.79018
672,-139,43.4635,2.86194,0.00143124,0.000662819,0.000388047,0.0015931,0.000500954,0.395183,0.000940652,0.0358422,1896,1163,43.4635,-2.86188
679,-139,43.4839,2.90369,0.000467465,0.000993147,0.000279083,0.00111368,0.000346936,1.16312,0.000658032,0.0366979,1903,1163,43.4838,-2.90366
686,-139,43.451,2.9165,-0.000397603,0.000917145,0.000370862,0.00101454,-0.000495,1.31397,0.000888574,0.0355702,1910,1163,43.4511,-2.91654
693,-139,43.4293,2.88062,-0.000894224,0.000948235,0.00055625,0.00110315,-0.00104914,1.29919,0.00124275,0.0253863,1917,1163,43.4294,-2.8806
700,-139,43.4575,2.7616,0,0,0,0,0,0,0,-1,1924,1163,43.4575,-2.76154
707,-139,32.116,6.54346,0,0,0,0,0,0,0,-1,1931,1163,32.116,-6.54343
714,-139,38.795,7.40759,0,0,0,0,0,0,0,-1,1938,1163,38.795,-7.40756
721,-139,38.9226,6.97388,-0.00240553,0.000987401,0.000965807,0.00124306,-0.00266119,1.31202,0.00230315,0.0311444,1945,1163,38.9226,-6.97393
728,-139,38.8271,6.71716,-0.002413,0.00112631,0.00108198,0.00143086,-0.00271756,1.29641,0.00243319,0.0361004,1952,1163,38.8272,-6.71716
735,-139,38.7361,6.46643,-0.00236773,0.0011031,0.00150529,0.00166498,-0.00292961,1.21354,0.00268597,0.0269841,1959,1163,38.736,-6.46649
742,-139,38.8158,6.03271,-0.00203271,0.00127271,0.00222075,0.00238825,-0.00314824,1.10529,0.00320651,0.0232485,1966,1163,38.8158,-6.03267
749,-139,38.8273,5.74158,-0.00131517,0.0017349,0.00312703,0.00368895,-0.00326922,1.01228,0.00401974,0.0202944,1973,1163,38.8273,-5.74154
756,-139,38.791,5.43591,0.000148651,0.00263067,0.00408818,0.00566205,-0.00288273,0.932758,0.00501957,0.0119769,1980,1163,38.791,-5.4359
763,-139,38.7705,5.10547,0.0022349,0.00391785,0.00524444,0.00838789,-0.00223514,0.864945,0.00646704,0.0113423,1987,1163,38.7705,-5.10546
770,-139,38.7677,4.79309,0.00451755,0.00555917,0.00662171,0.0116805,-0.0016038,0.824643,0.00837297,0.0120544,1994,1163,38.7677,-4.79314
777,-139,38.7635,4.52124,0.00702787,0.0076554,0.00813726,0.0154849,-0.000801673,0.804668,0.0106006,0.0233999,2001,1163,38.7636,-4.52124
784,-139,38.7203,4.4873,0.00970794,0.0106277,0.0097453,0.019924,0.000411685,0.808976,0.0131476,0.0434728,2008,1163,38.7203,-4.48732
791,-139,38.7007,4.42371,0,0,0,0,0,0,0,-1,2015,1163,38.7007,-4.42369
798,-139,37.5408,2.87903,0,0,0,0,0,0,0,-1,2022,1163,37.5408,-2.87904
805,-139,37.2083,2.12378,0,0,0,0,0,0,0,-1,2029,1163,37.2082,-2.12379
812,-139,0,0,0,0,0,0,0,0,0,-1,2036,1163,0,0
-700,-146,0,0,0,0,0,0,0,0,0,-1,524,1170,0,0
-693,-146,-31.5829,9.84375,0,0,0,0,0,0,0,-1,531,1170,-31.583,-9.84376
-686,-146,-26.1044,0.219238,0,0,0,0,0,0,0,-1,538,1170,-26.1044,-0.219285
-679,-146,-20.4033,-0.177368,0,0,0,0,0,0,0,-1,545,1170,-20.4033,0.177388
-672,-146,-20.0059,-0.518555,0.0441715,0.0422233,-0.0473814,0.0905888,-0.00419397,-0.77512,0.0618379,0.0456969,552,1170,-20.0059,0.518533
-665,-146,-27.9379,1.60266,0.0323447,0.0347742,-0.0326466,0.0662286,0.00089024,-0.803994,0.0438587,0.0432615,559,1170,-27.9379,-1.60268
-658,-146,-27.1355,1.39392,0,0,0,0,0,0,0,-1,566,1170,-27.1355,-1.39389
-651,-146,-26.7234,1.22314,0.0153886,0.0215059,-0.0126942,0.0315047,0.00538984,-0.903619,0.019457,0.0384717,573,1170,-26.7234,-1.2232
-644,-146,-26.4653,1.63025,0.00978092,0.0158817,-0.00670169,0.0201945,0.00546805,-0.998969,0.0120609,0.0206346,580,1170,-26.4654,-1.63022
-637,-146,-26.4982,2.00488,0.00537158,0.0104591,-0.00155423,0.0108963,0.00493434,-1.29656,0.00630031,0.0114188,587,1170,-26.4982,-2.00492
-630,-146,-26.5197,2.37549,0.00175371,0.0067899,0.00142004,0.00716271,0.0013809,1.31406,0.00438788,0.0100547,594,1170,-26.5197,-2.37549
-623,-146,-26.5428,2.74841,0.000219361,0.00373061,0.00236988,0.00492431,-0.000974343,1.10419,0.00365125,0.0126831,601,1170,-26.5428,-2.74842
-616,-146,-26.6108,3.13806,0.00144235,0.00201137,0.000627829,0.00241614,0.00103757,0.998137,0.00139958,0.0200463,608,1170,-26.6108,-3.13806
-609,-146,-26.4288,3.57813,0.00175625,0.000937442,-0.00032318,0.00186843,0.000825254,-0.33412,0.00108118,0.0233078,615,1170,-26.4287,-3.57817
-602,-146,-26.027,3.94421,0,0,0,0,0,0,0,-1,622,1170,-26.027,-3.94422
-595,-146,-26.8171,4.27124,0,0,0,0,0,0,0,-1,629,1170,-26.8171,-4.27124
-588,-146,-26.9373,4.49768,0,0,0,0,0,0,0,-1,636,1170,-26.9373,-4.49773
-581,-146,-25.8838,5.00452,0,0,0,0,0,0,0,-1,643,1170,-25.8838,-5.00447
-574,-146,-17.9915,3.79114,0,0,0,0,0,0,0,-1,650,1170,-17.9915,-3.79118
-567,-146,-31.7767,1.23108,0,0,0,0,0,0,0,-1,657,1170,-31.7767,-1.23105
-560,-146,-31.7766,1.0564,0.00211107,-0.000386012,-0.000968541,0.0024427,-0.000717638,-0.329885,0.00191308,0.0391228,664,1170,-31.7766,-1.05637
-553,-146,-31.7751,1.11902,0.00189007,-0.000200218,-0.00136782,0.00256634,-0.000876488,-0.459168,0.00206599,0.038399,671,1170,-31.7752,-1.11896
-546,-146,-31.6514,1.18457,0.00191491,0.000261071,-0.00202775,0.00327786,-0.00110188,-0.591791,0.00263062,0.0404026,678,1170,-31.6514,-1.18461
-539,-146,-31.6758,0.9646,0.0022378,0.00148988,-0.00315713,0.00504304,-0.00131536,-0.726448,0.00387561,0.0401507,685,1170,-31.6758,-0.964651
-532,-146,-31.9454,0.805542,0.00366282,0.0033346,-0.0049461,0.00844753,-0.00145011,-0.768814,0.0061721,0.0376595,692,1170,-31.9454,-0.805603
-525,-146,-31.8068,0.993774,0.00633577,0.00570751,-0.00738326,0.0134116,-0.0013683,-0.764138,0.0094303,0.041665,699,1170,-31.8068,-0.993802
-518,-146,0,0,0,0,0,0,0,0,0,-1,706,1170,0,0
-511,-146,0,0,0,0,0,0,0,0,0,-1,713,1170,0,0
-504,-146,0,0,0,0,0,0,0,0,0,-1,720,1170,0,0
-497,-146,0,0,0,0,0,0,0,0,0,-1,727,1170,0,0
-490,-146,0,0,0,0,0,0,0,0,0,-1,734,1170,0,0
-483,-146,0,0,0,0,0,0,0,0,0,-1,741,1170,0,0
-476,-146,0,0,0,0,0,0,0,0,0,-1,748,1170,0,0
-469,-146,0,0,0,0,0,0,0,0,0,-1,755,1170,0,0
-462,-146,0,0,0,0,0,0,0,0,0,-1,762,1170,0,0
-455,-146,0,0,0,0,0,0,0,0,0,-1,769,1170,0,0
-448,-146,0,0,0,0,0,0,0,0,0,-1,776,1170,0,0
-441,-146,0,0,0,0,0,0,0,0,0,-1,783,1170,0,0
-434,-146,0,0,0,0,0,0,0,0,0,-1,790,1170,0,0
-427,-146,0,0,0,0,0,0,0,0,0,-1,797,1170,0,0
-420,-146,0,0,0,0,0,0,0,0,0,-1,804,1170,0,0
-413,-146,0,0,0,0,0,0,0,0,0,-1,811,1170,0,0
-406,-146,0,0,0,0,0,0,0,0,0,-1,818,1170,0,0
-399,-146,0,0,0,0,0,0,0,0,0,-1,825,1170,0,0
-392,-146,0,0,0,0,0,0,0,0,0,-1,832,1170,0,0
-385,-146,0,0,0,0,0,0,0,0,0,-1,839,1170,0,0
-378,-146,0,0,0,0,0,0,0,0,0,-1,846,1170,0,0
-371,-146,0,0,0,0,0,0,0,0,0,-1,853,1170,0,0
-364,-146,0,0,0,0,0,0,0,0,0,-1,860,1170,0,0
-357,-146,0,0,0,0,0,0,0,0,0,-1,867,1170,0,0
-350,-146,0,0,0,0,0,0,0,0,0,-1,874,1170,0,0
-343,-146,0,0,0,0,0,0,0,0,0,-1,881,1170,0,0
-336,-146,0,0,0,0,0,0,0,0,0,-1,888,1170,0,0
-329,-146,0,0,0,0,0,0,0,0,0,-1,895,1170,0,0
-322,-146,0,0,0,0,0,0,0,0,0,-1,902,1170,0,0
-315,-146,0,0,0,0,0,0,0,0,0,-1,909,1170,0,0
-308,-146,0,0,0,0,0,0,0,0,0,-1,916,1170,0,0
-301,-146,0,0,0,0,0,0,0,0,0,-1,923,1170,0,0
-294,-146,0,0,0,0,0,0,0,0,0,-1,930,1170,0,0
-287,-146,0,0,0,0,0,0,0,0,0,-1,937,1170,0,0
-280,-146,0,0,0,0,0,0,0,0,0,-1,944,1170,0,0
-273,-146,0,0,0,0,0,0,0,0,0,-1,951,1170,0,0
-266,-146,0,0,0,0,0,0,0,0,0,-1,958,1170,0,0
-259,-146,0,0,0,0,0,0,0,0,0,-1,965,1170,0,0
-252,-146,0,0,0,0,0,0,0,0,0,-1,972,1170,0,0
-245,-146,0,0,0,0,0,0,0,0,0,-1,979,1170,0,0
-238,-146,0,0,0,0,0,0,0,0,0,-1,986,1170,0,0
-231,-146,0,0,0,0,0,0,0,0,0,-1,993,1170,0,0
-224,-146,0,0,0,0,0,0,0,0,0,-1,1000,1170,0,0
-217,-146,0,0,0,0,0,0,0,0,0,-1,1007,1170,0,0
-210,-146,0,0,0,0,0,0,0,0,0,-1,1014,1170,0,0
-203,-146,0,0,0,0,0,0,0,0,0,-1,1021,1170,0,0
-196,-146,0,0,0,0,0,0,0,0,0,-1,1028,1170,0,0
-189,-146,0,0,0,0,0,0,0,0,0,-1,1035,1170,0,0
-182,-146,0,0,0,0,0,0,0,0,0,-1,1042,1170,0,0
-175,-146,0,0,0,0,0,0,0,0,0,-1,1049,1170,0,0
-168,-146,0,0,0,0,0,0,0,0,0,-1,1056,1170,0,0
-161,-146,0,0,0,0,0,0,0,0,0,-1,1063,1170,0,0
-154,-146,0,0,0,0,0,0,0,0,0,-1,1070,1170,0,0
-147,-146,0,0,0,0,0,0,0,0,0,-1,1077,1170,0,0
-140,-146,0,0,0,0,0,0,0,0,0,-1,1084,1170,0,0
-133,-146,0,0,0,0,0,0,0,0,0,-1,1091,1170,0,0
-126,-146,0,0,0,0,0,0,0,0,0,-1,1098,1170,0,0
-119,-146,0,0,0,0,0,0,0,0,0,-1,1105,1170,0,0
-112,-146,0,0,0,0,0,0,0,0,0,-1,1112,1170,0,0
-105,-146,0,0,0,0,0,0,0,0,0,-1,1119,1170,0,0
-98,-146,0,0,0,0,0,0,0,0,0,-1,1126,1170,0,0
-91,-146,0,0,0,0,0,0,0,0,0,-1,1133,1170,0,0
-84,-146,0,0,0,0,0,0,0,0,0,-1,1140,1170,0,0
-77,-146,0,0,0,0,0,0,0,0,0,-1,1147,1170,0,0
-70,-146,0,0,0,0,0,0,0,0,0,-1,1154,1170,0,0
-63,-146,0,0,0,0,0,0,0,0,0,-1,1161,1170,0,0
-56,-146,0,0,0,0,0,0,0,0,0,-1,1168,1170,0,0
-49,-146,0,0,0,0,0,0,0,0,0,-1,1175,1170,0,0
-42,-146,0,0,0,0,0,0,0,0,0,-1,1182,1170,0,0
-35,-146,0,0,0,0,0,0,0,0,0,-1,1189,1170,0,0
-28,-146,0,0,0,0,0,0,0,0,0,-1,1196,1170,0,0
-21,-146,0,0,0,0,0,0,0,0,0,-1,1203,1170,0,0
-14,-146,0,0,0,0,0,0,0,0,0,-1,1210,1170,0,0
-7,-146,0,0,0,0,0,0,0,0,0,-1,1217,1170,0,0
0,-146,0,0,0,0,0,0,0,0,0,-1,1224,1170,0,0
7,-146,0,0,0,0,0,0,0,0,0,-1,1231,1170,0,0
14,-146,0,0,0,0,0,0,0,0,0,-1,1238,1170,0,0
21,-146,0,0,0,0,0,0,0,0,0,-1,1245,1170,0,0
28,-146,0,0,0,0,0,0,0,0,0,-1,1252,1170,0,0
35,-146,0,0,0,0,0,0,0,0,0,-1,1259,1170,0,0
42,-146,0,0,0,0,0,0,0,0,0,-1,1266,1170,0,0
49,-146,0,0,0,0,0,0,0,0,0,-1,1273,1170,0,0
56,-146,0,0,0,0,0,0,0,0,0,-1,1280,1170,0,0
63,-146,0,0,0,0,0,0,0,0,0,-1,1287,1170,0,0
70,-146,0,0,0,0,0,0,0,0,0,-1,1294,1170,0,0
77,-146,0,0,0,0,0,0,0,0,0,-1,1301,1170,0,0
84,-146,0,0,0,0,0,0,0,0,0,-1,1308,1170,0,0
91,-146,0,0,0,0,0,0,0,0,0,-1,1315,1170,0,0
98,-146,0,0,0,0,0,0,0,0,0,-1,1322,1170,0,0
105,-146,0,0,0,0,0,0,0,0,0,-1,1329,1170,0,0
112,-146,0,0,0,0,0,0,0,0,0,-1,1336,1170,0,0
119,-146,0,0,0,0,0,0,0,0,0,-1,1343,1170,0,0
126,-146,0,0,0,0,0,0,0,0,0,-1,1350,1170,0,0
133,-146,0,0,0,0,0,0,0,0,0,-1,1357,1170,0,0
140,-146,0,0,0,0,0,0,0,0,0,-1,1364,1170,0,0
147,-146,0,0,0,0,0,0,0,0,0,-1,1371,1170,0,0
154,-146,0,0,0,0,0,0,0,0,0,-1,1378,1170,0,0
161,-146,0,0,0,0,0,0,0,0,0,-1,1385,1170,0,0
168,-146,0,0,0,0,0,0,0,0,0,-1,1392,1170,0,0
175,-146,0,0,0,0,0,0,0,0,0,-1,1399,1170,0,0
182,-146,0,0,0,0,0,0,0,0,0,-1,1406,1170,0,0
189,-146,0,0,0,0,0,0,0,0,0,-1,1413,1170,0,0
196,-146,0,0,0,0,0,0,0,0,0,-1,1420,1170,0,0
203,-146,0,0,0,0,0,0,0,0,0,-1,1427,1170,0,0
210,-146,0,0,0,0,0,0,0,0,0,-1,1434,1170,0,0
217,-146,0,0,0,0,0,0,0,0,0,-1,1441,1170,0,0
224,-146,0,0,0,0,0,0,0,0,0,-1,1448,1170,0,0
231,-146,0,0,0,0,0,0,0,0,0,-1,1455,1170,0,0
238,-146,0,0,0,0,0,0,0,0,0,-1,1462,1170,0,0
245,-146,0,0,0,0,0,0,0,0,0,-1,1469,1170,0,0
252,-146,0,0,0,0,0,0,0,0,0,-1,1476,1170,0,0
259,-146,0,0,0,0,0,0,0,0,0,-1,1483,1170,0,0
266,-146,0,0,0,0,0,0,0,0,0,-1,1490,1170,0,0
273,-146,0,0,0,0,0,0,0,0,0,-1,1497,1170,0,0
280,-146,0,0,0,0,0,0,0,0,0,-1,1504,1170,0,0
287,-146,0,0,0,0,0,0,0,0,0,-1,1511,1170,0,0
294,-146,0,0,0,0,0,0,0,0,0,-1,1518,1170,0,0
301,-146,0,0,0,0,0,0,0,0,0,-1,1525,1170,0,0
308,-146,0,0,0,0,0,0,0,0,0,-1,1532,1170,0,0
315,-146,0,0,0,0,0,0,0,0,0,-1,1539,1170,0,0
322,-146,0,0,0,0,0,0,0,0,0,-1,1546,1170,0,0
329,-146,0,0,0,0,0,0,0,0,0,-1,1553,1170,0,0
336,-146,0,0,0,0,0,0,0,0,0,-1,1560,1170,0,0
343,-146,0,0,0,0,0,0,0,0,0,-1,1567,1170,0,0
350,-146,0,0,0,0,0,0,0,0,0,-1,1574,1170,0,0
357,-146,0,0,0,0,0,0,0,0,0,-1,1581,1170,0,0
364,-146,0,0,0,0,0,0,0,0,0,-1,1588,1170,0,0
371,-146,0,0,0,0,0,0,0,0,0,-1,1595,1170,0,0
378,-146,0,0,0,0,0,0,0,0,0,-1,1602,1170,0,0
385,-146,0,0,0,0,0,0,0,0,0,-1,1609,1170,0,0
392,-146,0,0,0,0,0,0,0,0,0,-1,1616,1170,0,0
399,-146,0,0,0,0,0,0,0,0,0,-1,1623,1170,0,0
406,-146,0,0,0,0,0,0,0,0,0,-1,1630,1170,0,0
413,-146,0,0,0,0,0,0,0,0,0,-1,1637,1170,0,0
420,-146,0,0,0,0,0,0,0,0,0,-1,1644,1170,0,0
427,-146,0,0,0,0,0,0,0,0,0,-1,1651,1170,0,0
434,-146,0,0,0,0,0,0,0,0,0,-1,1658,1170,0,0
441,-146,0,0,0,0,0,0,0,0,0,-1,1665,1170,0,0
448,-146,0,0,0,0,0,0,0,0,0,-1,1672,1170,0,0
455,-146,0,0,0,0,0,0,0,0,0,-1,1679,1170,0,0
462,-146,0,0,0,0,0,0,0,0,0,-1,1686,1170,0,0
469,-146,0,0,0,0,0,0,0,0,0,-1,1693,1170,0,0
476,-146,0,0,0,0,0,0,0,0,0,-1,1700,1170,0,0
483,-146,0,0,0,0,0,0,0,0,0,-1,1707,1170,0,0
490,-146,0,0,0,0,0,0,0,0,0,-1,1714,1170,0,0
497,-146,0,0,0,0,0,0,0,0,0,-1,1721,1170,0,0
504,-146,0,0,0,0,0,0,0,0,0,-1,1728,1170,0,0
511,-146,0,0,0,0,0,0,0,0,0,-1,1735,1170,0,0
518,-146,0,0,0,0,0,0,0,0,0,-1,1742,1170,0,0
525,-146,0,0,0,0,0,0,0,0,0,-1,1749,1170,0,0
532,-146,0,0,0,0,0,0,0,0,0,-1,1756,1170,0,0
539,-146,0,0,0,0,0,0,0,0,0,-1,1763,1170,0,0
546,-146,0,0,0,0,0,0,0,0,0,-1,1770,1170,0,0
553,-146,0,0,0,0,0,0,0,0,0,-1,1777,1170,0,0
560,-146,0,0,0,0,0,0,0,0,0,-1,1784,1170,0,0
567,-146,0,0,0,0,0,0,0,0,0,-1,1791,1170,0,0
574,-146,0,0,0,0,0,0,0,0,0,-1,1798,1170,0,0
581,-146,0,0,0,0,0,0,0,0,0,-1,1805,1170,0,0
588,-146,0,0,0,0,0,0,0,0,0,-1,1812,1170,0,0
595,-146,0,0,0,0,0,0,0,0,0,-1,1819,1170,0,0
602,-146,0,0,0,0,0,0,0,0,0,-1,1826,1170,0,0
609,-146,0,0,0,0,0,0,0,0,0,-1,1833,1170,0,0
616,-146,0,0,0,0,0,0,0,0,0,-1,1840,1170,0,0
623,-146,0,0,0,0,0,0,0,0,0,-1,1847,1170,0,0
630,-146,0,0,0,0,0,0,0,0,0,-1,1854,1170,0,0
637,-146,43.5453,2.66211,0.00237067,1.49491e-05,-0.00149927,0.00309942,-0.000713803,-0.452443,0.00234078,0.0395381,1861,1170,43.5453,-2.66207
644,-146,43.4387,2.6438,0.0019576,0.000153852,-0.000413403,0.00204783,6.36179e-05,-0.214902,0.00134452,0.0362757,1868,1170,43.4387,-2.64376
651,-146,43.3875,2.69421,0.00165867,0.000377586,1.80598e-05,0.00165893,0.000377332,0.0140936,0.00100409,0.0345307,1875,1170,43.3875,-2.69424
658,-146,43.3901,2.76306,0.00155569,0.000625615,0.000135631,0.00157507,0.00060624,0.141892,0.000917363,0.0386416,1882,1170,43.3902,-2.76301
665,-146,43.4333,2.89282,0.00150446,0.000810502,0.00015598,0.00153791,0.000777055,0.211235,0.000887928,0.0380633,1889,1170,43.4334,-2.89278
672,-146,43.5299,2.93909,0.00124367,0.00080275,0.000231995,0.00134325,0.000703172,0.405445,0.000775808,0.0351508,1896,1170,43.5299,-2.93914
679,-146,43.5112,2.86523,0.000239184,0.00108719,0.000315356,0.00119161,0.000134767,1.25105,0.000753512,0.0306851,1903,1170,43.5113,-2.86526
686,-146,43.4083,2.83203,-0.000632234,0.000954046,0.00053551,0.0011179,-0.00079609,1.27386,0.00111024,0.0260519,1910,1170,43.4084,-2.832
693,-146,43.4415,2.81519,-0.00113934,0.000953537,0.00081447,0.00123314,-0.00141894,1.2401,0.00153244,0.0194497,1917,1170,43.4415,-2.81522
700,-146,43.5087,2.71912,0,0,0,0,0,0,0,-1,1924,1170,43.5087,-2.71906
707,-146,29.9441,6.94653,0,0,0,0,0,0,0,-1,1931,1170,29.9441,-6.94652
714,-146,31.325,6.13245,0,0,0,0,0,0,0,-1,1938,1170,31.325,-6.1325
721,-146,38.6194,6.87329,0,0,0,0,0,0,0,-1,1945,1170,38.6194,-6.8733
728,-146,38.8954,6.39856,-0.00264572,0.00111458,0.0014533,0.00161078,-0.00314192,1.24178,0.00279104,0.0473432,1952,1170,38.8954,-6.39858
735,-146,38.4363,6.41003,-0.00262595,0.00107615,0.00184958,0.00184183,-0.00339164,1.1783,0.00306539,0.0248603,1959,1170,38.4362,-6.41008
742,-146,38.4564,6.04187,-0.00215872,0.0012,0.00251175,0.00254209,-0.00350081,1.08007,0.00350347,0.0172124,1966,1170,38.4565,-6.04185
749,-146,38.4706,5.75452,-0.00108358,0.00164097,0.00339188,0.00393391,-0.00337653,0.976353,0.00422477,0.0159581,1973,1170,38.4706,-5.75455
756,-146,38.4768,5.43286,0.000894175,0.00249324,0.00440523,0.00617091,-0.00278349,0.875169,0.00529169,0.0121556,1980,1170,38.4768,-5.43285
763,-146,38.4312,5.06934,0.00348157,0.00368166,0.0057075,0.00929,-0.00212676,0.794161,0.00701062,0.0111308,1987,1170,38.4311,-5.06932
770,-146,38.4022,4.7522,0.00629441,0.00518455,0.00735286,0.0131133,-0.00163429,0.747734,0.00933474,0.0122141,1994,1170,38.4023,-4.75223
777,-146,38.4227,4.58057,0.00938292,0.00712549,0.0093342,0.0176564,-0.00114799,0.725229,0.0121717,0.0216011,2001,1170,38.4227,-4.5806
784,-146,38.4519,4.59338,0.0126073,0.0100175,0.0116353,0.0230195,-0.000394796,0.729981,0.0154796,0.0412061,2008,1170,38.4519,-4.59342
791,-146,38.5203,4.58325,0,0,0,0,0,0,0,-1,2015,1170,38.5202,-4.58324
798,-146,36.7932,2.80444,0,0,0,0,0,0,0,-1,2022,1170,36.7933,-2.80439
805,-146,36.4094,2.0614,0,0,0,0,0,0,0,-1,2029,1170,36.4095,-2.06137
812,-146,0,0,0,0,0,0,0,0,0,-1,2036,1170,0,0
-700,-153,0,0,0,0,0,0,0,0,0,-1,524,1177,0,0
-693,-153,0,0,0,0,0,0,0,0,0,-1,531,1177,0,0
-686,-153,-29.2557,-2.17883,0,0,0,0,0,0,0,-1,538,1177,-29.2557,2.17879
-679,-153,-24.5561,0.655518,0,0,0,0,0,0,0,-1,545,1177,-24.5561,-0.655486
-672,-153,-18.6915,-0.394043,0,0,0,0,0,0,0,-1,552,1177,-18.6915,0.393996
-665,-153,-26.9812,1.55139,0,0,0,0,0,0,0,-1,559,1177,-26.9812,-1.55143
-658,-153,-25.9961,1.32788,0,0,0,0,0,0,0,-1,566,1177,-25.9961,-1.32787
-651,-153,-25.9276,1.63245,0.0198674,0.0246156,-0.00819879,0.0307771,0.0137059,-0.926325,0.0178045,0.0466486,573,1177,-25.9276,-1.63245
-644,-153,-26.0602,1.64783,0.0130156,0.0186061,-0.00357846,0.0203516,0.01127,-1.11696,0.0117726,0.0283447,580,1177,-26.0602,-1.64785
-637,-153,-26.0891,1.99097,0.00764245,0.0127519,0.000303355,0.0127698,0.0076245,1.5117,0.00741882,0.0118904,587,1177,-26.0891,-1.99095
-630,-153,-26.1254,2.36621,0.00294679,0.0085838,0.00244155,0.00949426,0.00203633,1.21387,0.00577174,0.0101662,594,1177,-26.1254,-2.36626
-623,-153,-26.149,2.74622,0.000585798,0.00484363,0.00273858,0.00618345,-0.000754015,1.1158,0.00439525,0.00997613,601,1177,-26.1491,-2.74619
-616,-153,-26.1911,3.13464,0.00139321,0.00239579,0.000549587,0.00263836,0.00115063,1.15513,0.0015274,0.0131296,608,1177,-26.1911,-3.13468
-609,-153,-26.127,3.51611,0.00154006,0.000942357,-0.000574149,0.00188848,0.000593937,-0.545437,0.00111504,0.0209595,615,1177,-26.127,-3.51615
-602,-153,-26.0137,3.91309,0,0,0,0,0,0,0,-1,622,1177,-26.0137,-3.91307
-595,-153,-26.5219,4.33459,0,0,0,0,0,0,0,-1,629,1177,-26.5218,-4.3346
-588,-153,-26.1733,4.40442,0,0,0,0,0,0,0,-1,636,1177,-26.1734,-4.40446
-581,-153,-25.6566,4.79578,0,0,0,0,0,0,0,-1,643,1177,-25.6566,-4.79579
-574,-153,-25.4814,5.16956,0,0,0,0,0,0,0,-1,650,1177,-25.4814,-5.16961
-567,-153,-31.7737,1.30066,0,0,0,0,0,0,0,-1,657,1177,-31.7738,-1.30064
-560,-153,-31.7855,1.15771,0.00204139,-0.00100208,-0.00114618,0.00242476,-0.00138545,-0.322774,0.00222693,0.0422814,664,1177,-31.7855,-1.1577
-553,-153,-31.6995,0.982178,0.00186893,-0.000900769,-0.00142889,0.00247393,-0.00150577,-0.400524,0.00232024,0.0372622,671,1177,-31.6995,-0.982236
-546,-153,-31.4885,1.05127,0.00202755,-0.000544403,-0.00186407,0.00300619,-0.00152304,-0.483448,0.00266128,0.0397428,678,1177,-31.4885,-1.05124
-539,-153,-31.6239,0.982056,0.00243975,0.000724929,-0.00259815,0.00431831,-0.00115363,-0.62602,0.00333069,0.0411899,685,1177,-31.6239,-0.982025
-532,-153,-31.8555,0.735229,0.00378888,0.00266019,-0.00395359,0.00721819,-0.000769129,-0.714506,0.00508792,0.0396454,692,1177,-31.8555,-0.735265
-525,-153,-31.7664,0.920532,0.00663617,0.00517344,-0.00614596,0.0120941,-0.000284519,-0.726177,0.00815925,0.039518,699,1177,-31.7664,-0.920563
-518,-153,0,0,0,0,0,0,0,0,0,-1,706,1177,0,0
-511,-153,0,0,0,0,0,0,0,0,0,-1,713,1177,0,0
-504,-153,0,0,0,0,0,0,0,0,0,-1,720,1177,0,0
-497,-153,0,0,0,0,0,0,0,0,0,-1,727,1177,0,0
-490,-153,0,0,0,0,0,0,0,0,0,-1,734,1177,0,0
-483,-153,0,0,0,0,0,0,0,0,0,-1,741,1177,0,0
-476,-153,0,0,0,0,0,0,0,0,0,-1,748,1177,0,0
-469,-153,0,0,0,0,0,0,0,0,0,-1,755,1177,0,0
-462,-153,0,0,0,0,0,0,0,0,0,-1,762,1177,0,0
-455,-153,0,0,0,0,0,0,0,0,0,-1,769,1177,0,0
-448,-153,0,0,0,0,0,0,0,0,0,-1,776,1177,0,0
-441,-153,0,0,0,0,0,0,0,0,0,-1,783,1177,0,0
-434,-153,0,0,0,0,0,0,0,0,0,-1,790,1177,0,0
-427,-153,0,0,0,0,0,0,0,0,0,-1,797,1177,0,0
-420,-153,0,0,0,0,0,0,0,0,0,-1,804,1177,0,0
-413,-153,0,0,0,0,0,0,0,0,0,-1,811,1177,0,0
-406,-153,0,0,0,0,0,0,0,0,0,-1,818,1177,0,0
-399,-153,0,0,0,0,0,0,0,0,0,-1,825,1177,0,0
-392,-153,0,0,0,0,0,0,0,0,0,-1,832,1177,0,0
-385,-153,0,0,0,0,0,0,0,0,0,-1,839,1177,0,0
-378,-153,0,0,0,0,0,0,0,0,0,-1,846,1177,0,0
-371,-153,0,0,0,0,0,0,0,0,0,-1,853,1177,0,0
-364,-153,0,0,0,0,0,0,0,0,0,-1,860,1177,0,0
-357,-153,0,0,0,0,0,0,0,0,0,-1,867,1177,0,0
-350,-153,0,0,0,0,0,0,0,0,0,-1,874,1177,0,0
-343,-153,0,0,0,0,0,0,0,0,0,-1,881,1177,0,0
-336,-153,0,0,0,0,0,0,0,0,0,-1,888,1177,0,0
-329,-153,0,0,0,0,0,0,0,0,0,-1,895,1177,0,0
-322,-153,0,0,0,0,0,0,0,0,0,-1,902,1177,0,0
-315,-153,0,0,0,0,0,0,0,0,0,-1,909,1177,0,0
-308,-153,0,0,0,0,0,0,0,0,0,-1,916,1177,0,0
-301,-153,0,0,0,0,0,0,0,0,0,-1,923,1177,0,0
-294,-153,0,0,0,0,0,0,0,0,0,-1,930,1177,0,0
-287,-153,0,0,0,0,0,0,0,0,0,-1,937,1177,0,0
-280,-153,0,0,0,0,0,0,0,0,0,-1,944,1177,0,0
-273,-153,0,0,0,0,0,0,0,0,0,-1,951,1177,0,0
-266,-153,0,0,0,0,0,0,0,0,0,-1,958,1177,0,0
-259,-153,0,0,0,0,0,0,0,0,0,-1,965,1177,0,0
-252,-153,0,0,0,0,0,0,0,0,0,-1,972,1177,0,0
-245,-153,0,0,0,0,0,0,0,0,0,-1,979,1177,0,0
-238,-153,0,0,0,0,0,0,0,0,0,-1,986,1177,0,0
-231,-153,0,0,0,0,0,0,0,0,0,-1,993,1177,0,0
-224,-153,0,0,0,0,0,0,0,0,0,-1,1000,1177,0,0
-217,-153,0,0,0,0,0,0,0,0,0,-1,1007,1177,0,0
-210,-153,0,0,0,0,0,0,0,0,0,-1,1014,1177,0,0
-203,-153,0,0,0,0,0,0,0,0,0,-1,1021,1177,0,0
-196,-153,0,0,0,0,0,0,0,0,0,-1,1028,1177,0,0
-189,-153,0,0,0,0,0,0,0,0,0,-1,1035,1177,0,0
-182,-153,0,0,0,0,0,0,0,0,0,-1,1042,1177,0,0
-175,-153,0,0,0,0,0,0,0,0,0,-1,1049,1177,0,0
-168,-153,0,0,0,0,0,0,0,0,0,-1,1056,1177,0,0
-161,-153,0,0,0,0,0,0,0,0,0,-1,1063,1177,0,0
-154,-153,0,0,0,0,0,0,0,0,0,-1,1070,1177,0,0
-147,-153,0,0,0,0,0,0,0,0,0,-1,1077,1177,0,0
-140,-153,0,0,0,0,0,0,0,0,0,-1,1084,1177,0,0
-133,-153,0,0,0,0,0,0,0,0,0,-1,1091,1177,0,0
-126,-153,0,0,0,0,0,0,0,0,0,-1,1098,1177,0,0
-119,-153,0,0,0,0,0,0,0,0,0,-1,1105,1177,0,0
-112,-153,0,0,0,0,0,0,0,0,0,-1,1112,1177,0,0
-105,-153,0,0,0,0,0,0,0,0,0,-1,1119,1177,0,0
-98,-153,0,0,0,0,0,0,0,0,0,-1,1126,1177,0,0
-91,-153,0,0,0,0,0,0,0,0,0,-1,1133,1177,0,0
-84,-153,0,0,0,0,0,0,0,0,0,-1,1140,1177,0,0
-77,-153,0,0,0,0,0,0,0,0,0,-1,1147,1177,0,0
-70,-153,0,0,0,0,0,0,0,0,0,-1,1154,1177,0,0
-63,-153,0,0,0,0,0,0,0,0,0,-1,1161,1177,0,0
-56,-153,0,0,0,0,0,0,0,0,0,-1,1168,1177,0,0
-49,-153,0,0,0,0,0,0,0,0,0,-1,1175,1177,0,0
-42,-153,0,0,0,0,0,0,0,0,0,-1,1182,1177,0,0
-35,-153,0,0,0,0,0,0,0,0,0,-1,1189,1177,0,0
-28,-153,0,0,0,0,0,0,0,0,0,-1,1196,1177,0,0
-21,-153,0,0,0,0,0,0,0,0,0,-1,1203,1177,0,0
-14,-153,0,0,0,0,0,0,0,0,0,-1,1210,1177,0,0
-7,-153,0,0,0,0,0,0,0,0,0,-1,1217,1177,0,0
0,-153,0,0,0,0,0,0,0,0,0,-1,1224,1177,0,0
7,-153,0,0,0,0,0,0,0,0,0,-1,1231,1177,0,0
14,-153,0,0,0,0,0,0,0,0,0,-1,1238,1177,0,0
21,-153,0,0,0,0,0,0,0,0,0,-1,1245,1177,0,0
28,-153,0,0,0,0,0,0,0,0,0,-1,1252,1177,0,0
35,-153,0,0,0,0,0,0,0,0,0,-1,1259,1177,0,0
42,-153,0,0,0,0,0,0,0,0,0,-1,1266,1177,0,0
49,-153,0,0,0,0,0,0,0,0,0,-1,1273,1177,0,0
56,-153,0,0,0,0,0,0,0,0,0,-1,1280,1177,0,0
63,-153,0,0,0,0,0,0,0,0,0,-1,1287,1177,0,0
70,-153,0,0,0,0,0,0,0,0,0,-1,1294,1177,0,0
77,-153,0,0,0,0,0,0,0,0,0,-1,1301,1177,0,0
84,-153,0,0,0,0,0,0,0,0,0,-1,1308,1177,0,0
91,-153,0,0,0,0,0,0,0,0,0,-1,1315,1177,0,0
98,-153,0,0,0,0,0,0,0,0,0,-1,1322,1177,0,0
105,-153,0,0,0,0,0,0,0,0,0,-1,1329,1177,0,0
112,-153,0,0,0,0,0,0,0,0,0,-1,1336,1177,0,0
119,-153,0,0,0,0,0,0,0,0,0,-1,1343,1177,0,0
126,-153,0,0,0,0,0,0,0,0,0,-1,1350,1177,0,0
133,-153,0,0,0,0,0,0,0,0,0,-1,1357,1177,0,0
140,-153,0,0,0,0,0,0,0,0,0,-1,1364,1177,0,0
147,-153,0,0,0,0,0,0,0,0,0,-1,1371,1177,0,0
154,-153,0,0,0,0,0,0,0,0,0,-1,1378,1177,0,0
161,-153,0,0,0,0,0,0,0,0,0,-1,1385,1177,0,0
168,-153,0,0,0,0,0,0,0,0,0,-1,1392,1177,0,0
175,-153,0,0,0,0,0,0,0,0,0,-1,1399,1177,0,0
182,-153,0,0,0,0,0,0,0,0,0,-1,1406,1177,0,0
189,-153,0,0,0,0,0,0,0,0,0,-1,1413,1177,0,0
196,-153,0,0,0,0,0,0,0,0,0,-1,1420,1177,0,0
203,-153,0,0,0,0,0,0,0,0,0,-1,1427,1177,0,0
210,-153,0,0,0,0,0,0,0,0,0,-1,1434,1177,0,0
217,-153,0,0,0,0,0,0,0,0,0,-1,1441,1177,0,0
224,-153,0,0,0,0,0,0,0,0,0,-1,1448,1177,0,0
231,-153,0,0,0,0,0,0,0,0,0,-1,1455,1177,0,0
238,-153,0,0,0,0,0,0,0,0,0,-1,1462,1177,0,0
245,-153,0,0,0,0,0,0,0,0,0,-1,1469,1177,0,0
252,-153,0,0,0,0,0,0,0,0,0,-1,1476,1177,0,0
259,-153,0,0,0,0,0,0,0,0,0,-1,1483,1177,0,0
266,-153,0,0,0,0,0,0,0,0,0,-1,1490,1177,0,0
273,-153,0,0,0,0,0,0,0,0,0,-1,1497,1177,0,0
280,-153,0,0,0,0,0,0,0,0,0,-1,1504,1177,0,0
287,-153,0,0,0,0,0,0,0,0,0,-1,1511,1177,0,0
294,-153,0,0,0,0,0,0,0,0,0,-1,1518,1177,0,0
301,-153,0,0,0,0,0,0,0,0,0,-1,1525,1177,0,0
308,-153,0,0,0,0,0,0,0,0,0,-1,1532,1177,0,0
315,-153,0,0,0,0,0,0,0,0,0,-1,1539,1177,0,0
322,-153,0,0,0,0,0,0,0,0,0,-1,1546,1177,0,0
329,-153,0,0,0,0,0,0,0,0,0,-1,1553,1177,0,0
336,-153,0,0,0,0,0,0,0,0,0,-1,1560,1177,0,0
343,-153,0,0,0,0,0,0,0,0,0,-1,1567,1177,0,0
350,-153,0,0,0,0,0,0,0,0,0,-1,1574,1177,0,0
357,-153,0,0,0,0,0,0,0,0,0,-1,1581,1177,0,0
364,-153,0,0,0,0,0,0,0,0,0,-1,1588,1177,0,0
371,-153,0,0,0,0,0,0,0,0,0,-1,1595,1177,0,0
378,-153,0,0,0,0,0,0,0,0,0,-1,1602,1177,0,0
385,-153,0,0,0,0,0,0,0,0,0,-1,1609,1177,0,0
392,-153,0,0,0,0,0,0,0,0,0,-1,1616,1177,0,0
399,-153,0,0,0,0,0,0,0,0,0,-1,1623,1177,0,0
406,-153,0,0,0,0,0,0,0,0,0,-1,1630,1177,0,0
413,-153,0,0,0,0,0,0,0,0,0,-1,1637,1177,0,0
420,-153,0,0,0,0,0,0,0,0,0,-1,1644,1177,0,0
427,-153,0,0,0,0,0,0,0,0,0,-1,1651,1177,0,0
434,-153,0,0,0,0,0,0,0,0,0,-1,1658,1177,0,0
441,-153,0,0,0,0,0,0,0,0,0,-1,1665,1177,0,0
448,-153,0,0,0,0,0,0,0,0,0,-1,1672,1177,0,0
455,-153,0,0,0,0,0,0,0,0,0,-1,1679,1177,0,0
462,-153,0,0,0,0,0,0,0,0,0,-1,1686,1177,0,0
469,-153,0,0,0,0,0,0,0,0,0,-1,1693,1177,0,0
476,-153,0,0,0,0,0,0,0,0,0,-1,1700,1177,0,0
483,-153,0,0,0,0,0,0,0,0,0,-1,1707,1177,0,0
490,-153,0,0,0,0,0,0,0,0,0,-1,1714,1177,0,0
497,-153,0,0,0,0,0,0,0,0,0,-1,1721,1177,0,0
504,-153,0,0,0,0,0,0,0,0,0,-1,1728,1177,0,0
511,-153,0,0,0,0,0,0,0,0,0,-1,1735,1177,0,0
518,-153,0,0,0,0,0,0,0,0,0,-1,1742,1177,0,0
525,-153,0,0,0,0,0,0,0,0,0,-1,1749,1177,0,0
532,-153,0,0,0,0,0,0,0,0,0,-1,1756,1177,0,0
539,-153,0,0,0,0,0,0,0,0,0,-1,1763,1177,0,0
546,-153,0,0,0,0,0,0,0,0,0,-1,1770,1177,0,0
553,-153,0,0,0,0,0,0,0,0,0,-1,1777,1177,0,0
560,-153,0,0,0,0,0,0,0,0,0,-1,1784,1177,0,0
567,-153,0,0,0,0,0,0,0,0,0,-1,1791,1177,0,0
574,-153,0,0,0,0,0,0,0,0,0,-1,1798,1177,0,0
581,-153,0,0,0,0,0,0,0,0,0,-1,1805,1177,0,0
588,-153,0,0,0,0,0,0,0,0,0,-1,1812,1177,0,0
595,-153,0,0,0,0,0,0,0,0,0,-1,1819,1177,0,0
602,-153,0,0,0,0,0,0,0,0,0,-1,1826,1177,0,0
609,-153,0,0,0,0,0,0,0,0,0,-1,1833,1177,0,0
616,-153,0,0,0,0,0,0,0,0,0,-1,1840,1177,0,0
623,-153,0,0,0,0,0,0,0,0,0,-1,1847,1177,0,0
630,-153,0,0,0,0,0,0,0,0,0,-1,1854,1177,0,0
637,-153,43.4907,2.79602,0.00138118,0.00118951,-0.00199488,0.00328252,-0.000711835,-0.761397,0.0024602,0.0396597,1861,1177,43.4907,-2.79607
644,-153,43.4453,2.70728,0.00124431,0.00102856,-0.000941406,0.002084,0.000188868,-0.728352,0.00133085,0.0355607,1868,1177,43.4453,-2.70724
651,-153,43.4613,2.71973,0.0012025,0.00100652,-0.00045861,0.00157347,0.000635546,-0.680146,0.000914018,0.0287456,1875,1177,43.4613,-2.71969
658,-153,43.376,2.70923,0.00136169,0.00100982,-0.000284673,0.00152041,0.000851102,-0.508613,0.000879896,0.0331704,1882,1177,43.376,-2.70923
665,-153,43.4034,2.78821,0.00154779,0.00096025,-0.000151346,0.00158448,0.000923555,-0.237863,0.000918979,0.036616,1889,1177,43.4034,-2.78823
672,-153,43.4265,2.81458,0.0013836,0.000733868,9.73283e-05,0.00139787,0.000719601,0.145542,0.000807179,0.0352321,1896,1177,43.4265,-2.81463
679,-153,43.4039,2.81299,0.000383698,0.000890582,0.000336214,0.00105818,0.000216103,1.10837,0.000645588,0.0283678,1903,1177,43.404,-2.81302
686,-153,43.4125,2.83899,-0.000483686,0.000700391,0.00063148,0.00097396,-0.000757255,1.16198,0.00100212,0.0201225,1910,1177,43.4125,-2.83895
693,-153,43.4706,2.78064,-0.00100146,0.000680567,0.000960749,0.0011164,-0.0014373,1.14492,0.00147825,0.0345381,1917,1177,43.4706,-2.78066
700,-153,43.5262,2.66748,0,0,0,0,0,0,0,-1,1924,1177,43.5262,-2.66745
707,-153,29.6483,6.6842,0,0,0,0,0,0,0,-1,1931,1177,29.6483,-6.68415
714,-153,36.0046,6.78418,0,0,0,0,0,0,0,-1,1938,1177,36.0046,-6.78418
721,-153,36.4866,6.47595,0,0,0,0,0,0,0,-1,1945,1177,36.4866,-6.47593
728,-153,38.1266,6.5155,0,0,0,0,0,0,0,-1,1952,1177,38.1266,-6.51549
735,-153,38.1219,6.33215,-0.00270423,0.000830013,0.002164,0.00185674,-0.00373096,1.12779,0.003286,0.0307124,1959,1177,38.1219,-6.3321
742,-153,38.1329,6.0802,-0.00210132,0.000974842,0.00278171,0.00261538,-0.00374186,1.03794,0.00368951,0.0146514,1966,1177,38.1329,-6.08024
749,-153,38.1355,5.78076,-0.00066868,0.00145968,0.00362146,0.00417008,-0.00337907,0.928303,0.00436647,0.0158725,1973,1177,38.1355,-5.78073
756,-153,38.1375,5.42786,0.00175521,0.00230166,0.00469735,0.00673372,-0.00267685,0.814448,0.00559896,0.0111274,1980,1177,38.1374,-5.42786
763,-153,38.0988,5.07288,0.00477836,0.0034073,0.00614449,0.0102754,-0.00208978,0.729844,0.00764273,0.0107535,1987,1177,38.0988,-5.07294
770,-153,38.0793,4.7583,0.00807989,0.00477568,0.00809511,0.0146898,-0.0018342,0.684737,0.0104583,0.0109084,1994,1177,38.0794,-4.75825
777,-153,38.101,4.49231,0.0117162,0.00652646,0.0106378,0.0200711,-0.00182837,0.665769,0.0140299,0.0226083,2001,1177,38.1009,-4.49232
784,-153,38.5668,4.9104,0.0154331,0.00926699,0.0138084,0.0264984,-0.00179831,0.675562,0.0182945,0.0423759,2008,1177,38.5667,-4.91042
791,-153,38.5869,5.09351,0.0198749,0.0126953,0.017879,0.034521,-0.00195074,0.686324,0.023691,0.046404,2015,1177,38.5869,-5.09353
798,-153,38.4946,4.6366,0,0,0,0,0,0,0,-1,2022,1177,38.4945,-4.63665
805,-153,36.3198,3.53625,0,0,0,0,0,0,0,-1,2029,1177,36.3199,-3.53628
812,-153,0,0,0,0,0,0,0,0,0,-1,2036,1177,0,0
-700,-160,0,0,0,0,0,0,0,0,0,-1,524,1184,0,0
-693,-160,0,0,0,0,0,0,0,0,0,-1,531,1184,0,0
-686,-160,-28.6498,-1.40918,0,0,0,0,0,0,0,-1,538,1184,-28.6498,1.40914
-679,-160,-26.0439,0.870605,0,0,0,0,0,0,0,-1,545,1184,-26.0439,-0.870586
-672,-160,-25.8784,0.814697,0,0,0,0,0,0,0,-1,552,1184,-25.8784,-0.814701
-665,-160,-25.8878,1.00342,0,0,0,0,0,0,0,-1,559,1184,-25.8878,-1.00345
-658,-160,-25.1428,0.859009,0,0,0,0,0,0,0,-1,566,1184,-25.1428,-0.85899
-651,-160,-25.5996,1.65222,0,0,0,0,0,0,0,-1,573,1184,-25.5996,-1.6522
-644,-160,-25.6408,1.82654,0.0174555,0.0219011,0.000639857,0.0219914,0.0173653,1.43065,0.013388,0.0392974,580,1184,-25.6408,-1.82652
-637,-160,-25.6927,1.99414,0.0108559,0.0155117,0.0030148,0.0169928,0.00937484,1.11417,0.00982825,0.0154357,587,1184,-25.6928,-1.99408
-630,-160,-25.742,2.32837,0.00485633,0.0107383,0.00417509,0.0129043,0.00269039,1.09224,0.00786103,0.00929774,594,1184,-25.742,-2.32832
-623,-160,-25.787,2.69092,0.00138025,0.00617445,0.00362815,0.00812586,-0.000571168,1.07733,0.00561732,0.0121223,601,1184,-25.787,-2.69094
-616,-160,-25.8071,3.10449,0.00150602,0.00283993,0.000780699,0.00319977,0.00114618,1.13889,0.00187199,0.0108369,608,1184,-25.8071,-3.10446
-609,-160,-25.7786,3.5437,0.0012963,0.000752888,-0.000713697,0.00178826,0.000260927,-0.603517,0.00111542,0.0135995,615,1184,-25.7786,-3.5437
-602,-160,-25.6729,4.09534,0.00165332,-0.000328169,-0.000855214,0.00197138,-0.000646228,-0.356055,0.00157451,0.0412223,622,1184,-25.6728,-4.09535
-595,-160,-25.7507,4.83044,0,0,0,0,0,0,0,-1,629,1184,-25.7506,-4.83048
-588,-160,-25.7013,4.84985,0,0,0,0,0,0,0,-1,636,1184,-25.7013,-4.84987
-581,-160,-25.2925,4.6272,0,0,0,0,0,0,0,-1,643,1184,-25.2925,-4.62719
-574,-160,-28.1793,4.33484,0,0,0,0,0,0,0,-1,650,1184,-28.1792,-4.33488
-567,-160,-29.5828,0.643921,0,0,0,0,0,0,0,-1,657,1184,-29.5828,-0.643968
-560,-160,-31.6273,0.779175,0,0,0,0,0,0,0,-1,664,1184,-31.6272,-0.77915
-553,-160,-31.6033,0.846069,0.00163106,-0.00182518,-0.0013716,0.00210923,-0.00230334,-0.335443,0.00254842,0.0406249,671,1184,-31.6033,-0.846063
-546,-160,-31.5991,0.974976,0.00187388,-0.00151376,-0.00160582,0.00251409,-0.00215396,-0.379367,0.00269777,0.0391935,678,1184,-31.5991,-0.974932
-539,-160,-31.704,1.1853,0.00228331,-0.000188205,-0.00197851,0.00338027,-0.00128517,-0.506246,0.00278265,0.0416437,685,1184,-31.7041,-1.18533
-532,-160,-31.8063,1.15857,0.00333697,0.00187909,-0.00289242,0.00559089,-0.000374824,-0.661959,0.00385827,0.0453799,692,1184,-31.8064,-1.15858
-525,-160,-31.6501,1.06738,0.0059334,0.00463353,-0.00469927,0.0100275,0.000539464,-0.716682,0.00651261,0.0428997,699,1184,-31.6501,-1.06736
-518,-160,-31.6048,0.940674,0.00887843,0.00709385,-0.00687043,0.0149143,0.001058,-0.720823,0.00960961,0.0420234,706,1184,-31.6048,-0.940668
-511,-160,0,0,0,0,0,0,0,0,0,-1,713,1184,0,0
-504,-160,0,0,0,0,0,0,0,0,0,-1,720,1184,0,0
-497,-160,0,0,0,0,0,0,0,0,0,-1,727,1184,0,0
-490,-160,0,0,0,0,0,0,0,0,0,-1,734,1184,0,0
-483,-160,0,0,0,0,0,0,0,0,0,-1,741,1184,0,0
-476,-160,0,0,0,0,0,0,0,0,0,-1,748,1184,0,0
-469,-160,0,0,0,0,0,0,0,0,0,-1,755,1184,0,0
-462,-160,0,0,0,0,0,0,0,0,0,-1,762,1184,0,0
-455,-160,0,0,0,0,0,0,0,0,0,-1,769,1184,0,0
-448,-160,0,0,0,0,0,0,0,0,0,-1,776,1184,0,0
-441,-160,0,0,0,0,0,0,0,0,0,-1,783,1184,0,0
-434,-160,0,0,0,0,0,0,0,0,0,-1,790,1184,0,0
-427,-160,0,0,0,0,0,0,0,0,0,-1,797,1184,0,0
-420,-160,0,0,0,0,0,0,0,0,0,-1,804,1184,0,0
-413,-160,0,0,0,0,0,0,0,0,0,-1,811,1184,0,0
-406,-160,0,0,0,0,0,0,0,0,0,-1,818,1184,0,0
-399,-160,0,0,0,0,0,0,0,0,0,-1,825,1184,0,0
-392,-160,0,0,0,0,0,0,0,0,0,-1,832,1184,0,0
-385,-160,0,0,0,0,0,0,0,0,0,-1,839,1184,0,0
-378,-160,0,0,0,0,0,0,0,0,0,-1,846,1184,0,0
-371,-160,0,0,0,0,0,0,0,0,0,-1,853,1184,0,0
-364,-160,0,0,0,0,0,0,0,0,0,-1,860,1184,0,0
-357,-160,0,0,0,0,0,0,0,0,0,-1,867,1184,0,0
-350,-160,0,0,0,0,0,0,0,0,0,-1,874,1184,0,0
-343,-160,0,0,0,0,0,0,0,0,0,-1,881,1184,0,0
-336,-160,0,0,0,0,0,0,0,0,0,-1,888,1184,0,0
-329,-160,0,0,0,0,0,0,0,0,0,-1,895,1184,0,0
-322,-160,0,0,0,0,0,0,0,0,0,-1,902,1184,0,0
-315,-160,0,0,0,0,0,0,0,0,0,-1,909,1184,0,0
-308,-160,0,0,0,0,0,0,0,0,0,-1,916,1184,0,0
-301,-160,0,0,0,0,0,0,0,0,0,-1,923,1184,0,0
-294,-160,0,0,0,0,0,0,0,0,0,-1,930,1184,0,0
-287,-160,0,0,0,0,0,0,0,0,0,-1,937,1184,0,0
-280,-160,0,0,0,0,0,0,0,0,0,-1,944,1184,0,0
-273,-160,0,0,0,0,0,0,0,0,0,-1,951,1184,0,0
-266,-160,0,0,0,0,0,0,0,0,0,-1,958,1184,0,0
-259,-160,0,0,0,0,0,0,0,0,0,-1,965,1184,0,0
-252,-160,0,0,0,0,0,0,0,0,0,-1,972,1184,0,0
-245,-160,0,0,0,0,0,0,0,0,0,-1,979,1184,0,0
-238,-160,0,0,0,0,0,0,0,0,0,-1,986,1184,0,0
-231,-160,0,0,0,0,0,0,0,0,0,-1,993,1184,0,0
-224,-160,0,0,0,0,0,0,0,0,0,-1,1000,1184,0,0
-217,-160,0,0,0,0,0,0,0,0,0,-1,1007,1184,0,0
-210,-160,0,0,0,0,0,0,0,0,0,-1,1014,1184,0,0
-203,-160,0,0,0,0,0,0,0,0,0,-1,1021,1184,0,0
-196,-160,0,0,0,0,0,0,0,0,0,-1,1028,1184,0,0
-189,-160,0,0,0,0,0,0,0,0,0,-1,1035,1184,0,0
-182,-160,0,0,0,0,0,0,0,0,0,-1,1042,1184,0,0
-175,-160,0,0,0,0,0,0,0,0,0,-1,1049,1184,0,0
-168,-160,0,0,0,0,0,0,0,0,0,-1,1056,1184,0,0
-161,-160,0,0,0,0,0,0,0,0,0,-1,1063,1184,0,0
-154,-160,0,0,0,0,0,0,0,0,0,-1,1070,1184,0,0
-147,-160,0,0,0,0,0,0,0,0,0,-1,1077,1184,0,0
-140,-160,0,0,0,0,0,0,0,0,0,-1,1084,1184,0,0
-133,-160,0,0,0,0,0,0,0,0,0,-1,1091,1184,0,0
-126,-160,0,0,0,0,0,0,0,0,0,-1,1098,1184,0,0
-119,-160,0,0,0,0,0,0,0,0,0,-1,1105,1184,0,0
-112,-160,0,0,0,0,0,0,0,0,0,-1,1112,1184,0,0
-105,-160,0,0,0,0,0,0,0,0,0,-1,1119,1184,0,0
-98,-160,0,0,0,0,0,0,0,0,0,-1,1126,1184,0,0
-91,-160,0,0,0,0,0,0,0,0,0,-1,1133,1184,0,0
-84,-160,0,0,0,0,0,0,0,0,0,-1,1140,1184,0,0
-77,-160,0,0,0,0,0,0,0,0,0,-1,1147,1184,0,0
-70,-160,0,0,0,0,0,0,0,0,0,-1,1154,1184,0,0
-63,-160,0,0,0,0,0,0,0,0,0,-1,1161,1184,0,0
-56,-160,0,0,0,0,0,0,0,0,0,-1,1168,1184,0,0
-49,-160,0,0,0,0,0,0,0,0,0,-1,1175,1184,0,0
-42,-160,0,0,0,0,0,0,0,0,0,-1,1182,1184,0,0
-35,-160,0,0,0,0,0,0,0,0,0,-1,1189,1184,0,0
-28,-160,0,0,0,0,0,0,0,0,0,-1,1196,1184,0,0
-21,-160,0,0,0,0,0,0,0,0,0,-1,1203,1184,0,0
-14,-160,0,0,0,0,0,0,0,0,0,-1,1210,1184,0,0
-7,-160,0,0,0,0,0,0,0,0,0,-1,1217,1184,0,0
0,-160,0,0,0,0,0,0,0,0,0,-1,1224,1184,0,0
7,-160,0,0,0,0,0,0,0,0,0,-1,1231,1184,0,0
14,-160,0,0,0,0,0,0,0,0,0,-1,1238,1184,0,0
21,-160,0,0,0,0,0,0,0,0,0,-1,1245,1184,0,0
28,-160,0,0,0,0,0,0,0,0,0,-1,1252,1184,0,0
35,-160,0,0,0,0,0,0,0,0,0,-1,1259,1184,0,0
42,-160,0,0,0,0,0,0,0,0,0,-1,1266,1184,0,0
49,-160,0,0,0,0,0,0,0,0,0,-1,1273,1184,0,0
56,-160,0,0,0,0,0,0,0,0,0,-1,1280,1184,0,0
63,-160,0,0,0,0,0,0,0,0,0,-1,1287,1184,0,0
70,-160,0,0,0,0,0,0,0,0,0,-1,1294,1184,0,0
77,-160,0,0,0,0,0,0,0,0,0,-1,1301,1184,0,0
84,-160,0,0,0,0,0,0,0,0,0,-1,1308,1184,0,0
91,-160,0,0,0,0,0,0,0,0,0,-1,1315,1184,0,0
98,-160,0,0,0,0,0,0,0,0,0,-1,1322,1184,0,0
105,-160,0,0,0,0,0,0,0,0,0,-1,1329,1184,0,0
112,-160,0,0,0,0,0,0,0,0,0,-1,1336,1184,0,0
119,-160,0,0,0,0,0,0,0,0,0,-1,1343,1184,0,0
126,-160,0,0,0,0,0,0,0,0,0,-1,1350,1184,0,0
133,-160,0,0,0,0,0,0,0,0,0,-1,1357,1184,0,0
140,-160,0,0,0,0,0,0,0,0,0,-1,1364,1184,0,0
147,-160,0,0,0,0,0,0,0,0,0,-1,1371,1184,0,0
154,-160,0,0,0,0,0,0,0,0,0,-1,1378,1184,0,0
161,-160,0,0,0,0,0,0,0,0,0,-1,1385,1184,0,0
168,-160,0,0,0,0,0,0,0,0,0,-1,1392,1184,0,0
175,-160,0,0,0,0,0,0,0,0,0,-1,1399,1184,0,0
182,-160,0,0,0,0,0,0,0,0,0,-1,1406,1184,0,0
189,-160,0,0,0,0,0,0,0,0,0,-1,1413,1184,0,0
196,-160,0,0,0,0,0,0,0,0,0,-1,1420,1184,0,0
203,-160,0,0,0,0,0,0,0,0,0,-1,1427,1184,0,0
210,-160,0,0,0,0,0,0,0,0,0,-1,1434,1184,0,0
217,-160,0,0,0,0,0,0,0,0,0,-1,1441,1184,0,0
224,-160,0,0,0,0,0,0,0,0,0,-1,1448,1184,0,0
231,-160,0,0,0,0,0,0,0,0,0,-1,1455,1184,0,0
238,-160,0,0,0,0,0,0,0,0,0,-1,1462,1184,0,0
245,-160,0,0,0,0,0,0,0,0,0,-1,1469,1184,0,0
252,-160,0,0,0,0,0,0,0,0,0,-1,1476,1184,0,0
259,-160,0,0,0,0,0,0,0,0,0,-1,1483,1184,0,0
266,-160,0,0,0,0,0,0,0,0,0,-1,1490,1184,0,0
273,-160,0,0,0,0,0,0,0,0,0,-1,1497,1184,0,0
280,-160,0,0,0,0,0,0,0,0,0,-1,1504,1184,0,0
287,-160,0,0,0,0,0,0,0,0,0,-1,1511,1184,0,0
294,-160,0,0,0,0,0,0,0,0,0,-1,1518,1184,0,0
301,-160,0,0,0,0,0,0,0,0,0,-1,1525,1184,0,0
308,-160,0,0,0,0,0,0,0,0,0,-1,1532,1184,0,0
315,-160,0,0,0,0,0,0,0,0,0,-1,1539,1184,0,0
322,-160,0,0,0,0,0,0,0,0,0,-1,1546,1184,0,0
329,-160,0,0,0,0,0,0,0,0,0,-1,1553,1184,0,0
336,-160,0,0,0,0,0,0,0,0,0,-1,1560,1184,0,0
343,-160,0,0,0,0,0,0,0,0,0,-1,1567,1184,0,0
350,-160,0,0,0,0,0,0,0,0,0,-1,1574,1184,0,0
357,-160,0,0,0,0,0,0,0,0,0,-1,1581,1184,0,0
364,-160,0,0,0,0,0,0,0,0,0,-1,1588,1184,0,0
371,-160,0,0,0,0,0,0,0,0,0,-1,1595,1184,0,0
378,-160,0,0,0,0,0,0,0,0,0,-1,1602,1184,0,0
385,-160,0,0,0,0,0,0,0,0,0,-1,1609,1184,0,0
392,-160,0,0,0,0,0,0,0,0,0,-1,1616,1184,0,0
399,-160,0,0,0,0,0,0,0,0,0,-1,1623,1184,0,0
406,-160,0,0,0,0,0,0,0,0,0,-1,1630,1184,0,0
413,-160,0,0,0,0,0,0,0,0,0,-1,1637,1184,0,0
420,-160,0,0,0,0,0,0,0,0,0,-1,1644,1184,0,0
427,-160,0,0,0,0,0,0,0,0,0,-1,1651,1184,0,0
434,-160,0,0,0,0,0,0,0,0,0,-1,1658,1184,0,0
441,-160,0,0,0,0,0,0,0,0,0,-1,1665,1184,0,0
448,-160,0,0,0,0,0,0,0,0,0,-1,1672,1184,0,0
455,-160,0,0,0,0,0,0,0,0,0,-1,1679,1184,0,0
462,-160,0,0,0,0,0,0,0,0,0,-1,1686,1184,0,0
469,-160,0,0,0,0,0,0,0,0,0,-1,1693,1184,0,0
476,-160,0,0,0,0,0,0,0,0,0,-1,1700,1184,0,0
483,-160,0,0,0,0,0,0,0,0,0,-1,1707,1184,0,0
490,-160,0,0,0,0,0,0,0,0,0,-1,1714,1184,0,0
497,-160,0,0,0,0,0,0,0,0,0,-1,1721,1184,0,0
504,-160,0,0,0,0,0,0,0,0,0,-1,1728,1184,0,0
511,-160,0,0,0,0,0,0,0,0,0,-1,1735,1184,0,0
518,-160,0,0,0,0,0,0,0,0,0,-1,1742,1184,0,0
525,-160,0,0,0,0,0,0,0,0,0,-1,1749,1184,0,0
532,-160,0,0,0,0,0,0,0,0,0,-1,1756,1184,0,0
539,-160,0,0,0,0,0,0,0,0,0,-1,1763,1184,0,0
546,-160,0,0,0,0,0,0,0,0,0,-1,1770,1184,0,0
553,-160,0,0,0,0,0,0,0,0,0,-1,1777,1184,0,0
560,-160,0,0,0,0,0,0,0,0,0,-1,1784,1184,0,0
567,-160,0,0,0,0,0,0,0,0,0,-1,1791,1184,0,0
574,-160,0,0,0,0,0,0,0,0,0,-1,1798,1184,0,0
581,-160,0,0,0,0,0,0,0,0,0,-1,1805,1184,0,0
588,-160,0,0,0,0,0,0,0,0,0,-1,1812,1184,0,0
595,-160,0,0,0,0,0,0,0,0,0,-1,1819,1184,0,0
602,-160,0,0,0,0,0,0,0,0,0,-1,1826,1184,0,0
609,-160,0,0,0,0,0,0,0,0,0,-1,1833,1184,0,0
616,-160,0,0,0,0,0,0,0,0,0,-1,1840,1184,0,0
623,-160,0,0,0,0,0,0,0,0,0,-1,1847,1184,0,0
630,-160,0,0,0,0,0,0,0,0,0,-1,1854,1184,0,0
637,-160,43.2561,2.97009,0.000462985,0.00125264,-0.00219891,0.00309189,-0.00137626,-0.874229,0.00264231,0.0417364,1861,1184,43.2561,-2.97005
644,-160,43.3411,2.74561,0.000651382,0.00102863,-0.00131331,0.00216679,-0.000486786,-0.856722,0.00163119,0.0398352,1868,1184,43.3411,-2.74557
651,-160,43.4435,2.66663,0.000913411,0.000940408,-0.000857427,0.00178444,6.93767e-05,-0.793269,0.00116719,0.0369654,1875,1184,43.4435,-2.66657
658,-160,43.3523,2.68176,0.00138037,0.000864212,-0.000682719,0.00185216,0.000392421,-0.604693,0.00112697,0.0375278,1882,1184,43.3523,-2.68172
665,-160,43.3445,2.73096,0.00178609,0.000702595,-0.000465315,0.00195849,0.000530193,-0.354823,0.0011697,0.0361704,1889,1184,43.3445,-2.73101
672,-160,43.3469,2.74536,0.00168107,0.000360582,-7.03196e-05,0.0016848,0.000356848,-0.0530528,0.00102517,0.0330162,1896,1184,43.3469,-2.74532
679,-160,43.3893,2.81421,0.000694041,0.000452953,0.000283967,0.00088199,0.000265004,0.584674,0.000522559,0.0253985,1903,1184,43.3892,-2.81423
686,-160,43.4368,2.81348,-0.000156321,0.000250993,0.000613893,0.000694129,-0.000599457,0.945559,0.000747518,0.0175913,1910,1184,43.4367,-2.81347
693,-160,43.4646,2.74988,0,0,0,0,0,0,0,-1,1917,1184,43.4646,-2.74993
700,-160,42.8784,2.44617,0,0,0,0,0,0,0,-1,1924,1184,42.8785,-2.4462
707,-160,24.5115,6.27405,0,0,0,0,0,0,0,-1,1931,1184,24.5115,-6.27401
714,-160,35.6892,6.8905,0,0,0,0,0,0,0,-1,1938,1184,35.6892,-6.89048
721,-160,36.2388,6.37878,0,0,0,0,0,0,0,-1,1945,1184,36.2388,-6.37876
728,-160,37.8262,6.77991,0,0,0,0,0,0,0,-1,1952,1184,37.8261,-6.77989
735,-160,37.8958,6.41382,-0.00264475,0.00047567,0.00234675,0.00173353,-0.00390261,1.07877,0.00333338,0.0239419,1959,1184,37.8957,-6.41387
742,-160,37.7974,6.06421,-0.0018892,0.000715136,0.00291278,0.00260356,-0.00377763,0.995599,0.00370491,0.0165607,1966,1184,37.7974,-6.06425
749,-160,37.7745,5.75476,-0.00014073,0.0012883,0.00368961,0.00433194,-0.00318438,0.881042,0.00435637,0.017376,1973,1184,37.7746,-5.75476
756,-160,37.7759,5.40845,0.00256976,0.00217097,0.00479341,0.00716792,-0.00242718,0.764611,0.00576072,0.0106979,1980,1184,37.7759,-5.40843
763,-160,37.7319,5.11157,0.00588964,0.00326576,0.00638765,0.0110987,-0.00194329,0.684113,0.00812473,0.0114648,1987,1184,37.7319,-5.11152
770,-160,37.652,4.74194,0.00953697,0.00457126,0.00865883,0.0160619,-0.00195365,0.645773,0.011415,0.0214993,1994,1184,37.652,-4.74195
777,-160,37.7551,4.51123,0.013558,0.00620094,0.0118571,0.0222941,-0.00253517,0.634987,0.0157758,0.0334003,2001,1184,37.7551,-4.51129
784,-160,37.9839,4.75378,0.0175657,0.0088856,0.0161423,0.0299412,-0.00348989,0.654072,0.02122,0.0430188,2008,1184,37.9839,-4.75381
791,-160,38.052,4.90417,0.0225089,0.0122055,0.0222583,0.0402039,-0.00548952,0.671676,0.0288073,0.0464601,2015,1184,38.0521,-4.90413
798,-160,38.1079,4.99036,0,0,0,0,0,0,0,-1,2022,1184,38.1079,-4.9903
805,-160,36.2424,3.61694,0,0,0,0,0,0,0,-1,2029,1184,36.2425,-3.61696
812,-160,0,0,0,0,0,0,0,0,0,-1,2036,1184,0,0
-700,-167,0,0,0,0,0,0,0,0,0,-1,524,1191,0,0
-693,-167,0,0,0,0,0,0,0,0,0,-1,531,1191,0,0
-686,-167,-27.7934,-0.741821,0,0,0,0,0,0,0,-1,538,1191,-27.7934,0.741874
-679,-167,-27.1683,-0.268433,0,0,0,0,0,0,0,-1,545,1191,-27.1683,0.268452
-672,-167,-25.5407,0.345947,0,0,0,0,0,0,0,-1,552,1191,-25.5407,-0.345903
-665,-167,-24.687,0.220459,0,0,0,0,0,0,0,-1,559,1191,-24.687,-0.220441
-658,-167,-23.8334,0.0949707,0,0,0,0,0,0,0,-1,566,1191,-23.8333,-0.0949801
-651,-167,-25.1572,1.55127,0,0,0,0,0,0,0,-1,573,1191,-25.1572,-1.55128
-644,-167,-25.218,1.77734,0.0213364,0.0240213,0.00444169,0.027319,0.0180387,0.932152,0.0160405,0.043424,580,1191,-25.2179,-1.77731
-637,-167,-25.3002,1.99829,0.0137257,0.0171853,0.00527153,0.0210036,0.00990741,0.943936,0.0121329,0.0183128,587,1191,-25.3002,-1.99828
-630,-167,-25.3456,2.31165,0.00666507,0.0120276,0.00558772,0.0155441,0.00314862,1.0091,0.00948894,0.00909738,594,1191,-25.3456,-2.31161
-623,-167,-25.3688,2.67725,0.00230261,0.00704167,0.00445674,0.00971963,-0.000375351,1.02973,0.00660843,0.0115137,601,1191,-25.3688,-2.67727
-616,-167,-25.3821,3.09839,0.0018331,0.00314777,0.00125414,0.0039064,0.00107446,1.02678,0.0023302,0.015017,608,1191,-25.3821,-3.09838
-609,-167,-25.3834,3.53772,0.001274,0.000514702,-0.000478792,0.0015054,0.000283307,-0.45019,0.000923758,0.0143,615,1191,-25.3834,-3.53778
-602,-167,-25.3973,3.91455,0.00157117,-0.000900159,-0.000628988,0.00172205,-0.00105103,-0.235422,0.00161659,0.0157864,622,1191,-25.3974,-3.91454
-595,-167,-25.3083,4.23914,0,0,0,0,0,0,0,-1,629,1191,-25.3083,-4.23909
-588,-167,-25.5131,4.5863,0,0,0,0,0,0,0,-1,636,1191,-25.5131,-4.58635
-581,-167,-25.5227,4.80664,0,0,0,0,0,0,0,-1,643,1191,-25.5227,-4.80658
-574,-167,-24.1547,5.43677,0,0,0,0,0,0,0,-1,650,1191,-24.1547,-5.43682
-567,-167,-27.3643,2.55859,0,0,0,0,0,0,0,-1,657,1191,-27.3643,-2.55864
-560,-167,-31.6487,0.884399,0,0,0,0,0,0,0,-1,664,1191,-31.6487,-0.884371
-553,-167,-31.6309,0.931763,0.00174987,-0.00222598,-0.000976188,0.00197662,-0.00245273,-0.228235,0.00256221,0.0392945,671,1191,-31.6309,-0.931732
-546,-167,-31.6716,1.04675,0.00205096,-0.00189494,-0.00112949,0.00235139,-0.00219538,-0.259973,0.0026256,0.0350196,678,1191,-31.6717,-1.04679
-539,-167,-31.7354,1.20288,0.00242495,-0.00057369,-0.00137047,0.00295692,-0.00110566,-0.370265,0.00242535,0.0402732,685,1191,-31.7354,-1.20282
-532,-167,-31.7379,1.16968,0.00310556,0.00139411,-0.00214029,0.00455485,-5.51813e-05,-0.595223,0.00305513,0.0463284,692,1191,-31.7379,-1.16971
-525,-167,-31.7519,0.936035,0.00529142,0.00401295,-0.0037912,0.0084969,0.000807467,-0.701878,0.00541555,0.0464941,699,1191,-31.7519,-0.936017
-518,-167,-31.5846,0.636841,0.00810173,0.00624936,-0.00584333,0.0130918,0.00125926,-0.706801,0.00833988,0.0455371,706,1191,-31.5846,-0.636808
-511,-167,0,0,0,0,0,0,0,0,0,-1,713,1191,0,0
-504,-167,0,0,0,0,0,0,0,0,0,-1,720,1191,0,0
-497,-167,0,0,0,0,0,0,0,0,0,-1,727,1191,0,0
-490,-167,0,0,0,0,0,0,0,0,0,-1,734,1191,0,0
-483,-167,0,0,0,0,0,0,0,0,0,-1,741,1191,0,0
-476,-167,0,0,0,0,0,0,0,0,0,-1,748,1191,0,0
-469,-167,0,0,0,0,0,0,0,0,0,-1,755,1191,0,0
-462,-167,0,0,0,0,0,0,0,0,0,-1,762,1191,0,0
-455,-167,0,0,0,0,0,0,0,0,0,-1,769,1191,0,0
-448,-167,0,0,0,0,0,0,0,0,0,-1,776,1191,0,0
-441,-167,0,0,0,0,0,0,0,0,0,-1,783,1191,0,0
-434,-167,0,0,0,0,0,0,0,0,0,-1,790,1191,0,0
-427,-167,0,0,0,0,0,0,0,0,0,-1,797,1191,0,0
-420,-167,0,0,0,0,0,0,0,0,0,-1,804,1191,0,0
-413,-167,0,0,0,0,0,0,0,0,0,-1,811,1191,0,0
-406,-167,0,0,0,0,0,0,0,0,0,-1,818,1191,0,0
-399,-167,0,0,0,0,0,0,0,0,0,-1,825,1191,0,0
-392,-167,0,0,0,0,0,0,0,0,0,-1,832,1191,0,0
-385,-167,0,0,0,0,0,0,0,0,0,-1,839,1191,0,0
-378,-167,0,0,0,0,0,0,0,0,0,-1,846,1191,0,0
-371,-167,0,0,0,0,0,0,0,0,0,-1,853,1191,0,0
-364,-167,0,0,0,0,0,0,0,0,0,-1,860,1191,0,0
-357,-167,0,0,0,0,0,0,0,0,0,-1,867,1191,0,0
-350,-167,0,0,0,0,0,0,0,0,0,-1,874,1191,0,0
-343,-167,0,0,0,0,0,0,0,0,0,-1,881,1191,0,0
-336,-167,0,0,0,0,0,0,0,0,0,-1,888,1191,0,0
-329,-167,0,0,0,0,0,0,0,0,0,-1,895,1191,0,0
-322,-167,0,0,0,0,0,0,0,0,0,-1,902,1191,0,0
-315,-167,0,0,0,0,0,0,0,0,0,-1,909,1191,0,0
-308,-167,0,0,0,0,0,0,0,0,0,-1,916,1191,0,0
-301,-167,0,0,0,0,0,0,0,0,0,-1,923,1191,0,0
-294,-167,0,0,0,0,0,0,0,0,0,-1,930,1191,0,0
-287,-167,0,0,0,0,0,0,0,0,0,-1,937,1191,0,0
-280,-167,0,0,0,0,0,0,0,0,0,-1,944,1191,0,0
-273,-167,0,0,0,0,0,0,0,0,0,-1,951,1191,0,0
-266,-167,0,0,0,0,0,0,0,0,0,-1,958,1191,0,0
-259,-167,0,0,0,0,0,0,0,0,0,-1,965,1191,0,0
-252,-167,0,0,0,0,0,0,0,0,0,-1,972,1191,0,0
-245,-167,0,0,0,0,0,0,0,0,0,-1,979,1191,0,0
-238,-167,0,0,0,0,0,0,0,0,0,-1,986,1191,0,0
-231,-167,0,0,0,0,0,0,0,0,0,-1,993,1191,0,0
-224,-167,0,0,0,0,0,0,0,0,0,-1,1000,1191,0,0
-217,-167,0,0,0,0,0,0,0,0,0,-1,1007,1191,0,0
-210,-167,0,0,0,0,0,0,0,0,0,-1,1014,1191,0,0
-203,-167,0,0,0,0,0,0,0,0,0,-1,1021,1191,0,0
-196,-167,0,0,0,0,0,0,0,0,0,-1,1028,1191,0,0
-189,-167,0,0,0,0,0,0,0,0,0,-1,1035,1191,0,0
-182,-167,0,0,0,0,0,0,0,0,0,-1,1042,1191,0,0
-175,-167,0,0,0,0,0,0,0,0,0,-1,1049,1191,0,0
-168,-167,0,0,0,0,0,0,0,0,0,-1,1056,1191,0,0
-161,-167,0,0,0,0,0,0,0,0,0,-1,1063,1191,0,0
-154,-167,0,0,0,0,0,0,0,0,0,-1,1070,1191,0,0
-147,-167,0,0,0,0,0,0,0,0,0,-1,1077,1191,0,0
-140,-167,0,0,0,0,0,0,0,0,0,-1,1084,1191,0,0
-133,-167,0,0,0,0,0,0,0,0,0,-1,1091,1191,0,0
-126,-167,0,0,0,0,0,0,0,0,0,-1,1098,1191,0,0
-119,-167,0,0,0,0,0,0,0,0,0,-1,1105,1191,0,0
-112,-167,0,0,0,0,0,0,0,0,0,-1,1112,1191,0,0
-105,-167,0,0,0,0,0,0,0,0,0,-1,1119,1191,0,0
-98,-167,0,0,0,0,0,0,0,0,0,-1,1126,1191,0,0
-91,-167,0,0,0,0,0,0,0,0,0,-1,1133,1191,0,0
-84,-167,0,0,0,0,0,0,0,0,0,-1,1140,1191,0,0
-77,-167,0,0,0,0,0,0,0,0,0,-1,1147,1191,0,0
-70,-167,0,0,0,0,0,0,0,0,0,-1,1154,1191,0,0
-63,-167,0,0,0,0,0,0,0,0,0,-1,1161,1191,0,0
-56,-167,0,0,0,0,0,0,0,0,0,-1,1168,1191,0,0
-49,-167,0,0,0,0,0,0,0,0,0,-1,1175,1191,0,0
-42,-167,0,0,0,0,0,0,0,0,0,-1,1182,1191,0,0
-35,-167,0,0,0,0,0,0,0,0,0,-1,1189,1191,0,0
-28,-167,0,0,0,0,0,0,0,0,0,-1,1196,1191,0,0
-21,-167,0,0,0,0,0,0,0,0,0,-1,1203,1191,0,0
-14,-167,0,0,0,0,0,0,0,0,0,-1,1210,1191,0,0
-7,-167,0,0,0,0,0,0,0,0,0,-1,1217,1191,0,0
0,-167,0,0,0,0,0,0,0,0,0,-1,1224,1191,0,0
7,-167,0,0,0,0,0,0,0,0,0,-1,1231,1191,0,0
14,-167,0,0,0,0,0,0,0,0,0,-1,1238,1191,0,0
21,-167,0,0,0,0,0,0,0,0,0,-1,1245,1191,0,0
28,-167,0,0,0,0,0,0,0,0,0,-1,1252,1191,0,0
35,-167,0,0,0,0,0,0,0,0,0,-1,1259,1191,0,0
42,-167,0,0,0,0,0,0,0,0,0,-1,1266,1191,0,0
49,-167,0,0,0,0,0,0,0,0,0,-1,1273,1191,0,0
56,-167,0,0,0,0,0,0,0,0,0,-1,1280,1191,0,0
63,-167,0,0,0,0,0,0,0,0,0,-1,1287,1191,0,0
70,-167,0,0,0,0,0,0,0,0,0,-1,1294,1191,0,0
77,-167,0,0,0,0,0,0,0,0,0,-1,1301,1191,0,0
84,-167,0,0,0,0,0,0,0,0,0,-1,1308,1191,0,0
91,-167,0,0,0,0,0,0,0,0,0,-1,1315,1191,0,0
98,-167,0,0,0,0,0,0,0,0,0,-1,1322,1191,0,0
105,-167,0,0,0,0,0,0,0,0,0,-1,1329,1191,0,0
112,-167,0,0,0,0,0,0,0,0,0,-1,1336,1191,0,0
119,-167,0,0,0,0,0,0,0,0,0,-1,1343,1191,0,0
126,-167,0,0,0,0,0,0,0,0,0,-1,1350,1191,0,0
133,-167,0,0,0,0,0,0,0,0,0,-1,1357,1191,0,0
140,-167,0,0,0,0,0,0,0,0,0,-1,1364,1191,0,0
147,-167,0,0,0,0,0,0,0,0,0,-1,1371,1191,0,0
154,-167,0,0,0,0,0,0,0,0,0,-1,1378,1191,0,0
161,-167,0,0,0,0,0,0,0,0,0,-1,1385,1191,0,0
168,-167,0,0,0,0,0,0,0,0,0,-1,1392,1191,0,0
175,-167,0,0,0,0,0,0,0,0,0,-1,1399,1191,0,0
182,-167,0,0,0,0,0,0,0,0,0,-1,1406,1191,0,0
189,-167,0,0,0,0,0,0,0,0,0,-1,1413,1191,0,0
196,-167,0,0,0,0,0,0,0,0,0,-1,1420,1191,0,0
203,-167,0,0,0,0,0,0,0,0,0,-1,1427,1191,0,0
210,-167,0,0,0,0,0,0,0,0,0,-1,1434,1191,0,0
217,-167,0,0,0,0,0,0,0,0,0,-1,1441,1191,0,0
224,-167,0,0,0,0,0,0,0,0,0,-1,1448,1191,0,0
231,-167,0,0,0,0,0,0,0,0,0,-1,1455,1191,0,0
238,-167,0,0,0,0,0,0,0,0,0,-1,1462,1191,0,0
245,-167,0,0,0,0,0,0,0,0,0,-1,1469,1191,0,0
252,-167,0,0,0,0,0,0,0,0,0,-1,1476,1191,0,0
259,-167,0,0,0,0,0,0,0,0,0,-1,1483,1191,0,0
266,-167,0,0,0,0,0,0,0,0,0,-1,1490,1191,0,0
273,-167,0,0,0,0,0,0,0,0,0,-1,1497,1191,0,0
280,-167,0,0,0,0,0,0,0,0,0,-1,1504,1191,0,0
287,-167,0,0,0,0,0,0,0,0,0,-1,1511,1191,0,0
294,-167,0,0,0,0,0,0,0,0,0,-1,1518,1191,0,0
301,-167,0,0,0,0,0,0,0,0,0,-1,1525,1191,0,0
308,-167,0,0,0,0,0,0,0,0,0,-1,1532,1191,0,0
315,-167,0,0,0,0,0,0,0,0,0,-1,1539,1191,0,0
322,-167,0,0,0,0,0,0,0,0,0,-1,1546,1191,0,0
329,-167,0,0,0,0,0,0,0,0,0,-1,1553,1191,0,0
336,-167,0,0,0,0,0,0,0,0,0,-1,1560,1191,0,0
343,-167,0,0,0,0,0,0,0,0,0,-1,1567,1191,0,0
350,-167,0,0,0,0,0,0,0,0,0,-1,1574,1191,0,0
357,-167,0,0,0,0,0,0,0,0,0,-1,1581,1191,0,0
364,-167,0,0,0,0,0,0,0,0,0,-1,1588,1191,0,0
371,-167,0,0,0,0,0,0,0,0,0,-1,1595,1191,0,0
378,-167,0,0,0,0,0,0,0,0,0,-1,1602,1191,0,0
385,-167,0,0,0,0,0,0,0,0,0,-1,1609,1191,0,0
392,-167,0,0,0,0,0,0,0,0,0,-1,1616,1191,0,0
399,-167,0,0,0,0,0,0,0,0,0,-1,1623,1191,0,0
406,-167,0,0,0,0,0,0,0,0,0,-1,1630,1191,0,0
413,-167,0,0,0,0,0,0,0,0,0,-1,1637,1191,0,0
420,-167,0,0,0,0,0,0,0,0,0,-1,1644,1191,0,0
427,-167,0,0,0,0,0,0,0,0,0,-1,1651,1191,0,0
434,-167,0,0,0,0,0,0,0,0,0,-1,1658,1191,0,0
441,-167,0,0,0,0,0,0,0,0,0,-1,1665,1191,0,0
448,-167,0,0,0,0,0,0,0,0,0,-1,1672,1191,0,0
455,-167,0,0,0,0,0,0,0,0,0,-1,1679,1191,0,0
462,-167,0,0,0,0,0,0,0,0,0,-1,1686,1191,0,0
469,-167,0,0,0,0,0,0,0,0,0,-1,1693,1191,0,0
476,-167,0,0,0,0,0,0,0,0,0,-1,1700,1191,0,0
483,-167,0,0,0,0,0,0,0,0,0,-1,1707,1191,0,0
490,-167,0,0,0,0,0,0,0,0,0,-1,1714,1191,0,0
497,-167,0,0,0,0,0,0,0,0,0,-1,1721,1191,0,0
504,-167,0,0,0,0,0,0,0,0,0,-1,1728,1191,0,0
511,-167,0,0,0,0,0,0,0,0,0,-1,1735,1191,0,0
518,-167,0,0,0,0,0,0,0,0,0,-1,1742,1191,0,0
525,-167,0,0,0,0,0,0,0,0,0,-1,1749,1191,0,0
532,-167,0,0,0,0,0,0,0,0,0,-1,1756,1191,0,0
539,-167,0,0,0,0,0,0,0,0,0,-1,1763,1191,0,0
546,-167,0,0,0,0,0,0,0,0,0,-1,1770,1191,0,0
553,-167,0,0,0,0,0,0,0,0,0,-1,1777,1191,0,0
560,-167,0,0,0,0,0,0,0,0,0,-1,1784,1191,0,0
567,-167,0,0,0,0,0,0,0,0,0,-1,1791,1191,0,0
574,-167,0,0,0,0,0,0,0,0,0,-1,1798,1191,0,0
581,-167,0,0,0,0,0,0,0,0,0,-1,1805,1191,0,0
588,-167,0,0,0,0,0,0,0,0,0,-1,1812,1191,0,0
595,-167,0,0,0,0,0,0,0,0,0,-1,1819,1191,0,0
602,-167,0,0,0,0,0,0,0,0,0,-1,1826,1191,0,0
609,-167,0,0,0,0,0,0,0,0,0,-1,1833,1191,0,0
616,-167,0,0,0,0,0,0,0,0,0,-1,1840,1191,0,0
623,-167,0,0,0,0,0,0,0,0,0,-1,1847,1191,0,0
630,-167,0,0,0,0,0,0,0,0,0,-1,1854,1191,0,0
637,-167,43.2765,2.94153,0.000103556,0.000895921,-0.00245901,0.00299045,-0.00199098,-0.865269,0.00289526,0.0436532,1861,1191,43.2765,-2.94149
644,-167,43.4563,2.59644,0.000570049,0.000664154,-0.00172271,0.00234045,-0.00110625,-0.799051,0.00203203,0.043625,1868,1191,43.4563,-2.59642
651,-167,43.4249,2.62354,0.00112868,0.000563823,-0.00129998,0.00217656,-0.000484055,-0.678432,0.00163643,0.0405874,1875,1191,43.4249,-2.62349
658,-167,43.4216,2.74927,0.00183017,0.000493677,-0.00114059,0.00248385,-0.000160008,-0.520413,0.00171173,0.0399592,1882,1191,43.4216,-2.74932
665,-167,43.4041,3.01208,0.00230569,0.00032399,-0.00085279,0.00262214,7.53882e-06,-0.355327,0.00174558,0.0368031,1889,1191,43.404,-3.01203
672,-167,43.3625,2.87805,0.00212771,-2.27072e-05,-0.000338082,0.00217961,-7.4607e-05,-0.152323,0.00147857,0.0282318,1896,1191,43.3626,-2.8781
679,-167,43.3929,2.83215,0.00110252,7.3513e-05,0.000102404,0.00111261,6.34209e-05,0.098234,0.00072153,0.0217479,1903,1191,43.393,-2.83214
686,-167,43.4388,2.81433,0.00023816,-9.71794e-05,0.000459815,0.000559922,-0.000418941,0.610567,0.000567097,0.0311063,1910,1191,43.4389,-2.81437
693,-167,43.4553,2.80396,0,0,0,0,0,0,0,-1,1917,1191,43.4553,-2.80393
700,-167,28.0459,2.70508,0,0,0,0,0,0,0,-1,1924,1191,28.0459,-2.70513
707,-167,29.4708,7.10168,0,0,0,0,0,0,0,-1,1931,1191,29.4708,-7.10172
714,-167,35.9202,6.84668,0,0,0,0,0,0,0,-1,1938,1191,35.9202,-6.84664
721,-167,36.2072,6.38892,0,0,0,0,0,0,0,-1,1945,1191,36.2072,-6.38891
728,-167,37.4447,6.84534,0,0,0,0,0,0,0,-1,1952,1191,37.4447,-6.84535
735,-167,37.4722,6.48352,-0.00251272,0.000285613,0.00242478,0.00168595,-0.00391306,1.04708,0.00331674,0.0169646,1959,1191,37.4722,-6.48351
742,-167,37.4231,6.07861,-0.00151311,0.000604703,0.00291444,0.00264664,-0.00355505,0.959649,0.00359333,0.0168288,1966,1191,37.423,-6.0786
749,-167,37.4167,5.72705,0.000589765,0.0012303,0.00354396,0.00446843,-0.00264837,0.830461,0.00415343,0.0147161,1973,1191,37.4167,-5.7271
756,-167,37.4371,5.41626,0.00360302,0.00212081,0.00447623,0.00739909,-0.00167525,0.70336,0.00557567,0.0105601,1980,1191,37.4372,-5.41631
763,-167,37.3756,5.0907,0.0072271,0.00320423,0.00588162,0.0114317,-0.00100039,0.620639,0.00797555,0.0122476,1987,1191,37.3756,-5.09076
770,-167,37.2173,4.84155,0.0112803,0.00447003,0.00803118,0.0165984,-0.00084806,0.58489,0.0113589,0.0263414,1994,1191,37.2173,-4.84156
777,-167,37.4347,4.77612,0.0157479,0.00600673,0.0111922,0.0230834,-0.00132874,0.580168,0.0158504,0.0393981,2001,1191,37.4346,-4.77609
784,-167,37.7306,4.72998,0.0201483,0.00866213,0.0154725,0.0309092,-0.00209874,0.607689,0.0213402,0.0465143,2008,1191,37.7306,-4.73004
791,-167,37.7874,4.6134,0,0,0,0,0,0,0,-1,2015,1191,37.7874,-4.6134
798,-167,35.4456,3.32568,0,0,0,0,0,0,0,-1,2022,1191,35.4456,-3.32566
805,-167,34.8936,3.26599,0,0,0,0,0,0,0,-1,2029,1191,34.8935,-3.26604
812,-167,0,0,0,0,0,0,0,0,0,-1,2036,1191,0,0
-700,-174,0,0,0,0,0,0,0,0,0,-1,524,1198,0,0
-693,-174,0,0,0,0,0,0,0,0,0,-1,531,1198,0,0
-686,-174,-27.1461,-0.261597,0.125565,0.0596564,-0.0398621,0.144331,0.0408906,-0.439989,0.0858985,0.0445491,538,1198,-27.1461,0.261593
-679,-174,-25.868,-0.531128,0.102142,0.0576267,-0.0176907,0.108316,0.0514527,-0.335783,0.0625625,0.0456155,545,1198,-25.868,0.53115
-672,-174,-24.712,-0.527832,0,0,0,0,0,0,0,-1,552,1198,-24.712,0.527845
-665,-174,-23.4216,-0.356934,0,0,0,0,0,0,0,-1,559,1198,-23.4216,0.35696
-658,-174,-22.187,-0.355835,0,0,0,0,0,0,0,-1,566,1198,-22.1869,0.355787
-651,-174,-24.9172,-0.54126,0,0,0,0,0,0,0,-1,573,1198,-24.9172,0.541253
-644,-174,-24.9072,0.647827,0.0261067,0.0257051,0.00984563,0.0357536,0.0160582,0.775202,0.0206779,0.0441915,580,1198,-24.9072,-0.647843
-637,-174,-24.8639,1.94543,0.0173748,0.018703,0.00862883,0.0266933,0.00938456,0.823805,0.0156361,0.0242861,587,1198,-24.8639,-1.94543
-630,-174,-24.9189,2.31824,0.00924403,0.0132875,0.00767318,0.0192008,0.00333072,0.914212,0.0118474,0.0116654,594,1198,-24.9189,-2.31827
-623,-174,-24.9482,2.70972,0.00390886,0.00803784,0.00562562,0.0119658,-1.91219e-05,0.961259,0.00798359,0.0132306,601,1198,-24.9482,-2.70968
-616,-174,-24.9493,3.13245,0.0025753,0.0036922,0.0018955,0.00510981,0.0011577,0.928655,0.0030937,0.0190023,608,1198,-24.9492,-3.13239
-609,-174,-24.9788,3.54053,0.00144284,0.000536845,-0.000197405,0.00148399,0.000495702,-0.205481,0.000872371,0.0212666,615,1198,-24.9788,-3.54059
-602,-174,-25.011,3.91101,0.00160355,-0.0011163,-0.000429562,0.00166978,-0.00118253,-0.152977,0.00165477,0.0149996,622,1198,-25.011,-3.91099
-595,-174,-24.8741,4.2522,0,0,0,0,0,0,0,-1,629,1198,-24.8741,-4.25219
-588,-174,-25.3813,4.57825,0.00129469,-0.00250024,-0.000164813,0.00130183,-0.00250738,-0.0433212,0.00223566,0.0295462,636,1198,-25.3813,-4.57829
-581,-174,-25.2983,5.07996,0.00115928,-0.00255602,-0.000378289,0.00119741,-0.00259415,-0.100446,0.00223802,0.0358431,643,1198,-25.2983,-5.07992
-574,-174,-24.9241,5.66895,0,0,0,0,0,0,0,-1,650,1198,-24.9241,-5.66889
-567,-174,-26.6597,3.04041,0,0,0,0,0,0,0,-1,657,1198,-26.6597,-3.04039
-560,-174,-31.6495,1.03857,0,0,0,0,0,0,0,-1,664,1198,-31.6496,-1.0386
-553,-174,-31.6322,1.02051,0.00212122,-0.00243742,-0.000638498,0.00220896,-0.00252516,-0.136563,0.00273528,0.0378287,671,1198,-31.6322,-1.02055
-546,-174,-31.64,1.01428,0.00249779,-0.00211262,-0.000729525,0.00261047,-0.0022253,-0.153248,0.00279489,0.0292767,678,1198,-31.6399,-1.01426
-539,-174,-31.661,1.14258,0.0029362,-0.000969369,-0.000864856,0.00311914,-0.00115232,-0.20846,0.00255178,0.0347035,685,1198,-31.661,-1.14264
-532,-174,-31.6216,1.16333,0.00349619,0.000606908,-0.00144349,0.00409377,9.33488e-06,-0.392499,0.00272607,0.0463105,692,1198,-31.6216,-1.16336
-525,-174,-31.5773,1.20862,0,0,0,0,0,0,0,-1,699,1198,-31.5773,-1.20857
-518,-174,-31.5881,0.412842,0,0,0,0,0,0,0,-1,706,1198,-31.5881,-0.412859
-511,-174,0,0,0,0,0,0,0,0,0,-1,713,1198,0,0
-504,-174,0,0,0,0,0,0,0,0,0,-1,720,1198,0,0
-497,-174,0,0,0,0,0,0,0,0,0,-1,727,1198,0,0
-490,-174,0,0,0,0,0,0,0,0,0,-1,734,1198,0,0
-483,-174,0,0,0,0,0,0,0,0,0,-1,741,1198,0,0
-476,-174,0,0,0,0,0,0,0,0,0,-1,748,1198,0,0
-469,-174,0,0,0,0,0,0,0,0,0,-1,755,1198,0,0
-462,-174,0,0,0,0,0,0,0,0,0,-1,762,1198,0,0
-455,-174,0,0,0,0,0,0,0,0,0,-1,769,1198,0,0
-448,-174,0,0,0,0,0,0,0,0,0,-1,776,1198,0,0
-441,-174,0,0,0,0,0,0,0,0,0,-1,783,1198,0,0
-434,-174,0,0,0,0,0,0,0,0,0,-1,790,1198,0,0
-427,-174,0,0,0,0,0,0,0,0,0,-1,797,1198,0,0
-420,-174,0,0,0,0,0,0,0,0,0,-1,804,1198,0,0
-413,-174,0,0,0,0,0,0,0,0,0,-1,811,1198,0,0
-406,-174,0,0,0,0,0,0,0,0,0,-1,818,1198,0,0
-399,-174,0,0,0,0,0,0,0,0,0,-1,825,1198,0,0
-392,-174,0,0,0,0,0,0,0,0,0,-1,832,1198,0,0
-385,-174,0,0,0,0,0,0,0,0,0,-1,839,1198,0,0
-378,-174,0,0,0,0,0,0,0,0,0,-1,846,1198,0,0
-371,-174,0,0,0,0,0,0,0,0,0,-1,853,1198,0,0
-364,-174,0,0,0,0,0,0,0,0,0,-1,860,1198,0,0
-357,-174,0,0,0,0,0,0,0,0,0,-1,867,1198,0,0
-350,-174,0,0,0,0,0,0,0,0,0,-1,874,1198,0,0
-343,-174,0,0,0,0,0,0,0,0,0,-1,881,1198,0,0
-336,-174,0,0,0,0,0,0,0,0,0,-1,888,1198,0,0
-329,-174,0,0,0,0,0,0,0,0,0,-1,895,1198,0,0
-322,-174,0,0,0,0,0,0,0,0,0,-1,902,1198,0,0
-315,-174,0,0,0,0,0,0,0,0,0,-1,909,1198,0,0
-308,-174,0,0,0,0,0,0,0,0,0,-1,916,1198,0,0
-301,-174,0,0,0,0,0,0,0,0,0,-1,923,1198,0,0
-294,-174,0,0,0,0,0,0,0,0,0,-1,930,1198,0,0
-287,-174,0,0,0,0,0,0,0,0,0,-1,937,1198,0,0
-280,-174,0,0,0,0,0,0,0,0,0,-1,944,1198,0,0
-273,-174,0,0,0,0,0,0,0,0,0,-1,951,1198,0,0
-266,-174,0,0,0,0,0,0,0,0,0,-1,958,1198,0,0
-259,-174,0,0,0,0,0,0,0,0,0,-1,965,1198,0,0
-252,-174,0,0,0,0,0,0,0,0,0,-1,972,1198,0,0
-245,-174,0,0,0,0,0,0,0,0,0,-1,979,1198,0,0
-238,-174,0,0,0,0,0,0,0,0,0,-1,986,1198,0,0
-231,-174,0,0,0,0,0,0,0,0,0,-1,993,1198,0,0
-224,-174,0,0,0,0,0,0,0,0,0,-1,1000,1198,0,0
-217,-174,0,0,0,0,0,0,0,0,0,-1,1007,1198,0,0
-210,-174,0,0,0,0,0,0,0,0,0,-1,1014,1198,0,0
-203,-174,0,0,0,0,0,0,0,0,0,-1,1021,1198,0,0
-196,-174,0,0,0,0,0,0,0,0,0,-1,1028,1198,0,0
-189,-174,0,0,0,0,0,0,0,0,0,-1,1035,1198,0,0
-182,-174,0,0,0,0,0,0,0,0,0,-1,1042,1198,0,0
-175,-174,0,0,0,0,0,0,0,0,0,-1,1049,1198,0,0
-168,-174,0,0,0,0,0,0,0,0,0,-1,1056,1198,0,0
-161,-174,0,0,0,0,0,0,0,0,0,-1,1063,1198,0,0
-154,-174,0,0,0,0,0,0,0,0,0,-1,1070,1198,0,0
-147,-174,0,0,0,0,0,0,0,0,0,-1,1077,1198,0,0
-140,-174,0,0,0,0,0,0,0,0,0,-1,1084,1198,0,0
-133,-174,0,0,0,0,0,0,0,0,0,-1,1091,1198,0,0
-126,-174,0,0,0,0,0,0,0,0,0,-1,1098,1198,0,0
-119,-174,0,0,0,0,0,0,0,0,0,-1,1105,1198,0,0
-112,-174,0,0,0,0,0,0,0,0,0,-1,1112,1198,0,0
-105,-174,0,0,0,0,0,0,0,0,0,-1,1119,1198,0,0
-98,-174,0,0,0,0,0,0,0,0,0,-1,1126,1198,0,0
-91,-174,0,0,0,0,0,0,0,0,0,-1,1133,1198,0,0
-84,-174,0,0,0,0,0,0,0,0,0,-1,1140,1198,0,0
-77,-174,0,0,0,0,0,0,0,0,0,-1,1147,1198,0,0
-70,-174,0,0,0,0,0,0,0,0,0,-1,1154,1198,0,0
-63,-174,0,0,0,0,0,0,0,0,0,-1,1161,1198,0,0
-56,-174,0,0,0,0,0,0,0,0,0,-1,1168,1198,0,0
-49,-174,0,0,0,0,0,0,0,0,0,-1,1175,1198,0,0
-42,-174,0,0,0,0,0,0,0,0,0,-1,1182,1198,0,0
-35,-174,0,0,0,0,0,0,0,0,0,-1,1189,1198,0,0
-28,-174,0,0,0,0,0,0,0,0,0,-1,1196,1198,0,0
-21,-174,0,0,0,0,0,0,0,0,0,-1,1203,1198,0,0
-14,-174,0,0,0,0,0,0,0,0,0,-1,1210,1198,0,0
-7,-174,0,0,0,0,0,0,0,0,0,-1,1217,1198,0,0
0,-174,0,0,0,0,0,0,0,0,0,-1,1224,1198,0,0
7,-174,0,0,0,0,0,0,0,0,0,-1,1231,1198,0,0
14,-174,0,0,0,0,0,0,0,0,0,-1,1238,1198,0,0
21,-174,0,0,0,0,0,0,0,0,0,-1,1245,1198,0,0
28,-174,0,0,0,0,0,0,0,0,0,-1,1252,1198,0,0
35,-174,0,0,0,0,0,0,0,0,0,-1,1259,1198,0,0
42,-174,0,0,0,0,0,0,0,0,0,-1,1266,1198,0,0
49,-174,0,0,0,0,0,0,0,0,0,-1,1273,1198,0,0
56,-174,0,0,0,0,0,0,0,0,0,-1,1280,1198,0,0
63,-174,0,0,0,0,0,0,0,0,0,-1,1287,1198,0,0
70,-174,0,0,0,0,0,0,0,0,0,-1,1294,1198,0,0
77,-174,0,0,0,0,0,0,0,0,0,-1,1301,1198,0,0
84,-174,0,0,0,0,0,0,0,0,0,-1,1308,1198,0,0
91,-174,0,0,0,0,0,0,0,0,0,-1,1315,1198,0,0
98,-174,0,0,0,0,0,0,0,0,0,-1,1322,1198,0,0
105,-174,0,0,0,0,0,0,0,0,0,-1,1329,1198,0,0
112,-174,0,0,0,0,0,0,0,0,0,-1,1336,1198,0,0
119,-174,0,0,0,0,0,0,0,0,0,-1,1343,1198,0,0
126,-174,0,0,0,0,0,0,0,0,0,-1,1350,1198,0,0
133,-174,0,0,0,0,0,0,0,0,0,-1,1357,1198,0,0
140,-174,0,0,0,0,0,0,0,0,0,-1,1364,1198,0,0
147,-174,0,0,0,0,0,0,0,0,0,-1,1371,1198,0,0
154,-174,0,0,0,0,0,0,0,0,0,-1,1378,1198,0,0
161,-174,0,0,0,0,0,0,0,0,0,-1,1385,1198,0,0
168,-174,0,0,0,0,0,0,0,0,0,-1,1392,1198,0,0
175,-174,0,0,0,0,0,0,0,0,0,-1,1399,1198,0,0
182,-174,0,0,0,0,0,0,0,0,0,-1,1406,1198,0,0
189,-174,0,0,0,0,0,0,0,0,0,-1,1413,1198,0,0
196,-174,0,0,0,0,0,0,0,0,0,-1,1420,1198,0,0
203,-174,0,0,0,0,0,0,0,0,0,-1,1427,1198,0,0
210,-174,0,0,0,0,0,0,0,0,0,-1,1434,1198,0,0
217,-174,0,0,0,0,0,0,0,0,0,-1,1441,1198,0,0
224,-174,0,0,0,0,0,0,0,0,0,-1,1448,1198,0,0
231,-174,0,0,0,0,0,0,0,0,0,-1,1455,1198,0,0
238,-174,0,0,0,0,0,0,0,0,0,-1,1462,1198,0,0
245,-174,0,0,0,0,0,0,0,0,0,-1,1469,1198,0,0
252,-174,0,0,0,0,0,0,0,0,0,-1,1476,1198,0,0
259,-174,0,0,0,0,0,0,0,0,0,-1,1483,1198,0,0
266,-174,0,0,0,0,0,0,0,0,0,-1,1490,1198,0,0
273,-174,0,0,0,0,0,0,0,0,0,-1,1497,1198,0,0
280,-174,0,0,0,0,0,0,0,0,0,-1,1504,1198,0,0
287,-174,0,0,0,0,0,0,0,0,0,-1,1511,1198,0,0
294,-174,0,0,0,0,0,0,0,0,0,-1,1518,1198,0,0
301,-174,0,0,0,0,0,0,0,0,0,-1,1525,1198,0,0
308,-174,0,0,0,0,0,0,0,0,0,-1,1532,1198,0,0
315,-174,0,0,0,0,0,0,0,0,0,-1,1539,1198,0,0
322,-174,0,0,0,0,0,0,0,0,0,-1,1546,1198,0,0
329,-174,0,0,0,0,0,0,0,0,0,-1,1553,1198,0,0
336,-174,0,0,0,0,0,0,0,0,0,-1,1560,1198,0,0
343,-174,0,0,0,0,0,0,0,0,0,-1,1567,1198,0,0
350,-174,0,0,0,0,0,0,0,0,0,-1,1574,1198,0,0
357,-174,0,0,0,0,0,0,0,0,0,-1,1581,1198,0,0
364,-174,0,0,0,0,0,0,0,0,0,-1,1588,1198,0,0
371,-174,0,0,0,0,0,0,0,0,0,-1,1595,1198,0,0
378,-174,0,0,0,0,0,0,0,0,0,-1,1602,1198,0,0
385,-174,0,0,0,0,0,0,0,0,0,-1,1609,1198,0,0
392,-174,0,0,0,0,0,0,0,0,0,-1,1616,1198,0,0
399,-174,0,0,0,0,0,0,0,0,0,-1,1623,1198,0,0
406,-174,0,0,0,0,0,0,0,0,0,-1,1630,1198,0,0
413,-174,0,0,0,0,0,0,0,0,0,-1,1637,1198,0,0
420,-174,0,0,0,0,0,0,0,0,0,-1,1644,1198,0,0
427,-174,0,0,0,0,0,0,0,0,0,-1,1651,1198,0,0
434,-174,0,0,0,0,0,0,0,0,0,-1,1658,1198,0,0
441,-174,0,0,0,0,0,0,0,0,0,-1,1665,1198,0,0
448,-174,0,0,0,0,0,0,0,0,0,-1,1672,1198,0,0
455,-174,0,0,0,0,0,0,0,0,0,-1,1679,1198,0,0
462,-174,0,0,0,0,0,0,0,0,0,-1,1686,1198,0,0
469,-174,0,0,0,0,0,0,0,0,0,-1,1693,1198,0,0
476,-174,0,0,0,0,0,0,0,0,0,-1,1700,1198,0,0
483,-174,0,0,0,0,0,0,0,0,0,-1,1707,1198,0,0
490,-174,0,0,0,0,0,0,0,0,0,-1,1714,1198,0,0
497,-174,0,0,0,0,0,0,0,0,0,-1,1721,1198,0,0
504,-174,0,0,0,0,0,0,0,0,0,-1,1728,1198,0,0
511,-174,0,0,0,0,0,0,0,0,0,-1,1735,1198,0,0
518,-174,0,0,0,0,0,0,0,0,0,-1,1742,1198,0,0
525,-174,0,0,0,0,0,0,0,0,0,-1,1749,1198,0,0
532,-174,0,0,0,0,0,0,0,0,0,-1,1756,1198,0,0
539,-174,0,0,0,0,0,0,0,0,0,-1,1763,1198,0,0
546,-174,0,0,0,0,0,0,0,0,0,-1,1770,1198,0,0
553,-174,0,0,0,0,0,0,0,0,0,-1,1777,1198,0,0
560,-174,0,0,0,0,0,0,0,0,0,-1,1784,1198,0,0
567,-174,0,0,0,0,0,0,0,0,0,-1,1791,1198,0,0
574,-174,0,0,0,0,0,0,0,0,0,-1,1798,1198,0,0
581,-174,0,0,0,0,0,0,0,0,0,-1,1805,1198,0,0
588,-174,0,0,0,0,0,0,0,0,0,-1,1812,1198,0,0
595,-174,0,0,0,0,0,0,0,0,0,-1,1819,1198,0,0
602,-174,0,0,0,0,0,0,0,0,0,-1,1826,1198,0,0
609,-174,0,0,0,0,0,0,0,0,0,-1,1833,1198,0,0
616,-174,0,0,0,0,0,0,0,0,0,-1,1840,1198,0,0
623,-174,0,0,0,0,0,0,0,0,0,-1,1847,1198,0,0
630,-174,0,0,0,0,0,0,0,0,0,-1,1854,1198,0,0
637,-174,43.4647,3.01306,0.000119351,0.000968655,-0.00281043,0.00338633,-0.00229833,-0.86038,0.00330202,0.0425759,1861,1198,43.4647,-3.01307
644,-174,43.483,2.71729,0.000797634,0.000681133,-0.00215176,0.00289193,-0.00141317,-0.771866,0.00253396,0.0420949,1868,1198,43.483,-2.71734
651,-174,43.5361,2.65186,0.00152768,0.000517672,-0.00169152,0.00278798,-0.000742623,-0.640335,0.00214939,0.0418762,1875,1198,43.5361,-2.65191
658,-174,43.4856,3.11255,0.00228749,0.000375877,-0.00147718,0.00309113,-0.000427758,-0.49825,0.00221714,0.0411291,1882,1198,43.4856,-3.11251
665,-174,43.4376,2.93835,0.0026693,0.000123256,-0.0010722,0.00306066,-0.00026811,-0.349987,0.00213543,0.0354235,1889,1198,43.4376,-2.93831
672,-174,43.3696,2.83289,0.00234279,-0.000265533,-0.000436073,0.00241377,-0.000336507,-0.161342,0.00173228,0.0276329,1896,1198,43.3697,-2.83288
679,-174,43.4108,2.83093,0.00130043,-0.000223151,8.07741e-05,0.0013047,-0.000227421,0.0528187,0.000954678,0.0237853,1903,1198,43.4108,-2.8309
686,-174,43.4963,2.81775,0,0,0,0,0,0,0,-1,1910,1198,43.4964,-2.81776
693,-174,42.8735,2.5155,0,0,0,0,0,0,0,-1,1917,1198,42.8735,-2.51547
700,-174,25.4004,6.11792,0,0,0,0,0,0,0,-1,1924,1198,25.4004,-6.11797
707,-174,34.7908,7.34473,0,0,0,0,0,0,0,-1,1931,1198,34.7908,-7.34475
714,-174,37.764,7.38684,0,0,0,0,0,0,0,-1,1938,1198,37.7641,-7.38689
721,-174,37.0988,7.13367,0,0,0,0,0,0,0,-1,1945,1198,37.0988,-7.1337
728,-174,37.2146,6.80627,-0.00252905,-6.70241e-05,0.00227664,0.0012901,-0.00388618,1.03324,0.00311129,0.0377851,1952,1198,37.2146,-6.80625
735,-174,37.084,6.46497,-0.00235095,0.000116303,0.00259219,0.00175344,-0.00398809,1.00749,0.00339754,0.01286,1959,1198,37.084,-6.46494
742,-174,37.0637,6.07544,-0.00105118,0.000572627,0.00293111,0.00280221,-0.00328076,0.920508,0.00351562,0.0214632,1966,1198,37.0637,-6.07541
749,-174,37.0601,5.74207,0.00139813,0.00130835,0.00329021,0.00464376,-0.00193728,0.778578,0.0039052,0.0187315,1973,1198,37.0601,-5.74213
756,-174,37.0641,5.40137,0.00469848,0.00228138,0.00393077,0.00760229,-0.000622434,0.636255,0.0052879,0.0106015,1980,1198,37.064,-5.40139
763,-174,37.0273,5.06824,0.00868005,0.00343666,0.00501395,0.0117164,0.000400353,0.544506,0.00768094,0.0139947,1987,1198,37.0274,-5.06822
770,-174,37.1013,4.7876,0.0132427,0.00474528,0.00689493,0.0170928,0.000895116,0.509273,0.0111089,0.0309369,1994,1198,37.1013,-4.78758
777,-174,37.6686,4.29639,0.0182479,0.00625787,0.00984119,0.0237763,0.000729466,0.511829,0.0156134,0.0491948,2001,1198,37.6685,-4.29642
784,-174,37.5317,4.73462,0,0,0,0,0,0,0,-1,2008,1198,37.5317,-4.73462
791,-174,35.4441,1.3689,0,0,0,0,0,0,0,-1,2015,1198,35.4442,-1.36893
798,-174,34.8989,3.03467,0,0,0,0,0,0,0,-1,2022,1198,34.899,-3.03469
805,-174,32.0928,2.34009,0,0,0,0,0,0,0,-1,2029,1198,32.0929,-2.34008
812,-174,0,0,0,0,0,0,0,0,0,-1,2036,1198,0,0
-700,-181,0,0,0,0,0,0,0,0,0,-1,524,1205,0,0
-693,-181,0,0,0,0,0,0,0,0,0,-1,531,1205,0,0
-686,-181,-26.1448,-0.119141,0.139394,0.0544333,-0.0206947,0.144167,0.0496606,-0.226661,0.0845664,0.0469655,538,1205,-26.1448,0.119085
-679,-181,-24.6,-0.779297,0.114774,0.0558515,0.00081698,0.114785,0.0558402,0.0138617,0.0662795,0.0486943,545,1205,-24.6,0.779345
-672,-181,-23.3926,-1.17395,0,0,0,0,0,0,0,-1,552,1205,-23.3926,1.17391
-665,-181,-22.0021,-1.12549,0.0745647,0.0477766,0.0181183,0.0837023,0.038639,0.467104,0.0483729,0.0459714,559,1205,-22.0021,1.1255
-658,-181,-20.4825,-1.08911,0,0,0,0,0,0,0,-1,566,1205,-20.4825,1.08917
-651,-181,-18.9135,-1.05237,0,0,0,0,0,0,0,-1,573,1205,-18.9135,1.05238
-644,-181,-25.2224,1.19153,0,0,0,0,0,0,0,-1,580,1205,-25.2224,-1.19157
-637,-181,-24.4397,1.90002,0.021655,0.0201788,0.0129901,0.033928,0.00790578,0.75702,0.020498,0.0253863,587,1205,-24.4397,-1.90006
-630,-181,-24.5104,2.31677,0.0123897,0.0145589,0.0104779,0.0240082,0.00294042,0.836969,0.0151209,0.012405,594,1205,-24.5104,-2.31678
-623,-181,-24.5596,2.71863,0.00601042,0.00909843,0.00725946,0.0149763,0.000132585,0.890181,0.00994028,0.014244,601,1205,-24.5596,-2.71865
-616,-181,-24.5375,3.14575,0.00364148,0.00435769,0.00275243,0.00677521,0.00122396,0.850087,0.00416914,0.0140488,608,1205,-24.5375,-3.14575
-609,-181,-24.5505,3.57141,0.00177701,0.000738876,7.36983e-05,0.00178221,0.000733671,0.0705201,0.0010343,0.0139692,615,1205,-24.5505,-3.57142
-602,-181,-24.5578,3.97437,0.00176443,-0.00123302,-0.000381731,0.00181228,-0.00128087,-0.124701,0.00179459,0.0132354,622,1205,-24.5578,-3.97437
-595,-181,-24.7231,4.28955,0.00193468,-0.0023853,-0.000236236,0.00194756,-0.00239818,-0.0544682,0.0025135,0.0278515,629,1205,-24.7231,-4.2895
-588,-181,-24.9645,4.72083,0.00168281,-0.0028457,-0.000204974,0.00169207,-0.00285496,-0.04514,0.00265369,0.0284559,636,1205,-24.9645,-4.72087
-581,-181,-24.8729,5.22961,0.00157331,-0.00286611,-0.000407174,0.00161034,-0.00290314,-0.0907094,0.00264125,0.0256611,643,1205,-24.8729,-5.22967
-574,-181,-24.6496,5.67566,0,0,0,0,0,0,0,-1,650,1205,-24.6496,-5.67571
-567,-181,-25.8839,3.34485,0,0,0,0,0,0,0,-1,657,1205,-25.8839,-3.3449
-560,-181,-31.7396,1.63306,0,0,0,0,0,0,0,-1,664,1205,-31.7396,-1.63303
-553,-181,-31.6708,1.30103,0.00260195,-0.00257139,-0.000550669,0.00265992,-0.00262936,-0.104878,0.00305378,0.0487206,671,1205,-31.6708,-1.30099
-546,-181,-31.589,0.945679,0.00300462,-0.00219163,-0.000588546,0.00307045,-0.00225745,-0.111384,0.00308798,0.0336172,678,1205,-31.589,-0.945681
-539,-181,-31.6439,1.08899,0.00343104,-0.00117815,-0.00063954,0.00351813,-0.00126524,-0.135348,0.00286196,0.0369427,685,1205,-31.6439,-1.08901
-532,-181,-31.6444,1.15906,0.00377675,4.0682e-05,-0.00102594,0.00403994,-0.000222506,-0.251118,0.00277044,0.0466662,692,1205,-31.6444,-1.15905
-525,-181,-31.625,1.24597,0,0,0,0,0,0,0,-1,699,1205,-31.625,-1.24603
-518,-181,-31.7841,1.21033,0,0,0,0,0,0,0,-1,706,1205,-31.7841,-1.21027
-511,-181,0,0,0,0,0,0,0,0,0,-1,713,1205,0,0
-504,-181,0,0,0,0,0,0,0,0,0,-1,720,1205,0,0
-497,-181,0,0,0,0,0,0,0,0,0,-1,727,1205,0,0
-490,-181,0,0,0,0,0,0,0,0,0,-1,734,1205,0,0
-483,-181,0,0,0,0,0,0,0,0,0,-1,741,1205,0,0
-476,-181,0,0,0,0,0,0,0,0,0,-1,748,1205,0,0
-469,-181,0,0,0,0,0,0,0,0,0,-1,755,1205,0,0
-462,-181,0,0,0,0,0,0,0,0,0,-1,762,1205,0,0
-455,-181,0,0,0,0,0,0,0,0,0,-1,769,1205,0,0
-448,-181,0,0,0,0,0,0,0,0,0,-1,776,1205,0,0
-441,-181,0,0,0,0,0,0,0,0,0,-1,783,1205,0,0
-434,-181,0,0,0,0,0,0,0,0,0,-1,790,1205,0,0
-427,-181,0,0,0,0,0,0,0,0,0,-1,797,1205,0,0
-420,-181,0,0,0,0,0,0,0,0,0,-1,804,1205,0,0
-413,-181,0,0,0,0,0,0,0,0,0,-1,811,1205,0,0
-406,-181,0,0,0,0,0,0,0,0,0,-1,818,1205,0,0
-399,-181,0,0,0,0,0,0,0,0,0,-1,825,1205,0,0
-392,-181,0,0,0,0,0,0,0,0,0,-1,832,1205,0,0
-385,-181,0,0,0,0,0,0,0,0,0,-1,839,1205,0,0
-378,-181,0,0,0,0,0,0,0,0,0,-1,846,1205,0,0
-371,-181,0,0,0,0,0,0,0,0,0,-1,853,1205,0,0
-364,-181,0,0,0,0,0,0,0,0,0,-1,860,1205,0,0
-357,-181,0,0,0,0,0,0,0,0,0,-1,867,1205,0,0
-350,-181,0,0,0,0,0,0,0,0,0,-1,874,1205,0,0
-343,-181,0,0,0,0,0,0,0,0,0,-1,881,1205,0,0
-336,-181,0,0,0,0,0,0,0,0,0,-1,888,1205,0,0
-329,-181,0,0,0,0,0,0,0,0,0,-1,895,1205,0,0
-322,-181,0,0,0,0,0,0,0,0,0,-1,902,1205,0,0
-315,-181,0,0,0,0,0,0,0,0,0,-1,909,1205,0,0
-308,-181,0,0,0,0,0,0,0,0,0,-1,916,1205,0,0
-301,-181,0,0,0,0,0,0,0,0,0,-1,923,1205,0,0
-294,-181,0,0,0,0,0,0,0,0,0,-1,930,1205,0,0
-287,-181,0,0,0,0,0,0,0,0,0,-1,937,1205,0,0
-280,-181,0,0,0,0,0,0,0,0,0,-1,944,1205,0,0
-273,-181,0,0,0,0,0,0,0,0,0,-1,951,1205,0,0
-266,-181,0,0,0,0,0,0,0,0,0,-1,958,1205,0,0
-259,-181,0,0,0,0,0,0,0,0,0,-1,965,1205,0,0
-252,-181,0,0,0,0,0,0,0,0,0,-1,972,1205,0,0
-245,-181,0,0,0,0,0,0,0,0,0,-1,979,1205,0,0
-238,-181,0,0,0,0,0,0,0,0,0,-1,986,1205,0,0
-231,-181,0,0,0,0,0,0,0,0,0,-1,993,1205,0,0
-224,-181,0,0,0,0,0,0,0,0,0,-1,1000,1205,0,0
-217,-181,0,0,0,0,0,0,0,0,0,-1,1007,1205,0,0
-210,-181,0,0,0,0,0,0,0,0,0,-1,1014,1205,0,0
-203,-181,0,0,0,0,0,0,0,0,0,-1,1021,1205,0,0
-196,-181,0,0,0,0,0,0,0,0,0,-1,1028,1205,0,0
-189,-181,0,0,0,0,0,0,0,0,0,-1,1035,1205,0,0
-182,-181,0,0,0,0,0,0,0,0,0,-1,1042,1205,0,0
-175,-181,0,0,0,0,0,0,0,0,0,-1,1049,1205,0,0
-168,-181,0,0,0,0,0,0,0,0,0,-1,1056,1205,0,0
-161,-181,0,0,0,0,0,0,0,0,0,-1,1063,1205,0,0
-154,-181,0,0,0,0,0,0,0,0,0,-1,1070,1205,0,0
-147,-181,0,0,0,0,0,0,0,0,0,-1,1077,1205,0,0
-140,-181,0,0,0,0,0,0,0,0,0,-1,1084,1205,0,0
-133,-181,0,0,0,0,0,0,0,0,0,-1,1091,1205,0,0
-126,-181,0,0,0,0,0,0,0,0,0,-1,1098,1205,0,0
-119,-181,0,0,0,0,0,0,0,0,0,-1,1105,1205,0,0
-112,-181,0,0,0,0,0,0,0,0,0,-1,1112,1205,0,0
-105,-181,0,0,0,0,0,0,0,0,0,-1,1119,1205,0,0
-98,-181,0,0,0,0,0,0,0,0,0,-1,1126,1205,0,0
-91,-181,0,0,0,0,0,0,0,0,0,-1,1133,1205,0,0
-84,-181,0,0,0,0,0,0,0,0,0,-1,1140,1205,0,0
-77,-181,0,0,0,0,0,0,0,0,0,-1,1147,1205,0,0
-70,-181,0,0,0,0,0,0,0,0,0,-1,1154,1205,0,0
-63,-181,0,0,0,0,0,0,0,0,0,-1,1161,1205,0,0
-56,-181,0,0,0,0,0,0,0,0,0,-1,1168,1205,0,0
-49,-181,0,0,0,0,0,0,0,0,0,-1,1175,1205,0,0
-42,-181,0,0,0,0,0,0,0,0,0,-1,1182,1205,0,0
-35,-181,0,0,0,0,0,0,0,0,0,-1,1189,1205,0,0
-28,-181,0,0,0,0,0,0,0,0,0,-1,1196,1205,0,0
-21,-181,0,0,0,0,0,0,0,0,0,-1,1203,1205,0,0
-14,-181,0,0,0,0,0,0,0,0,0,-1,1210,1205,0,0
-7,-181,0,0,0,0,0,0,0,0,0,-1,1217,1205,0,0
0,-181,0,0,0,0,0,0,0,0,0,-1,1224,1205,0,0
7,-181,0,0,0,0,0,0,0,0,0,-1,1231,1205,0,0
14,-181,0,0,0,0,0,0,0,0,0,-1,1238,1205,0,0
21,-181,0,0,0,0,0,0,0,0,0,-1,1245,1205,0,0
28,-181,0,0,0,0,0,0,0,0,0,-1,1252,1205,0,0
35,-181,0,0,0,0,0,0,0,0,0,-1,1259,1205,0,0
42,-181,0,0,0,0,0,0,0,0,0,-1,1266,1205,0,0
49,-181,0,0,0,0,0,0,0,0,0,-1,1273,1205,0,0
56,-181,0,0,0,0,0,0,0,0,0,-1,1280,1205,0,0
63,-181,0,0,0,0,0,0,0,0,0,-1,1287,1205,0,0
70,-181,0,0,0,0,0,0,0,0,0,-1,1294,1205,0,0
77,-181,0,0,0,0,0,0,0,0,0,-1,1301,1205,0,0
84,-181,0,0,0,0,0,0,0,0,0,-1,1308,1205,0,0
91,-181,0,0,0,0,0,0,0,0,0,-1,1315,1205,0,0
98,-181,0,0,0,0,0,0,0,0,0,-1,1322,1205,0,0
105,-181,0,0,0,0,0,0,0,0,0,-1,1329,1205,0,0
112,-181,0,0,0,0,0,0,0,0,0,-1,1336,1205,0,0
119,-181,0,0,0,0,0,0,0,0,0,-1,1343,1205,0,0
126,-181,0,0,0,0,0,0,0,0,0,-1,1350,1205,0,0
133,-181,0,0,0,0,0,0,0,0,0,-1,1357,1205,0,0
140,-181,0,0,0,0,0,0,0,0,0,-1,1364,1205,0,0
147,-181,0,0,0,0,0,0,0,0,0,-1,1371,1205,0,0
154,-181,0,0,0,0,0,0,0,0,0,-1,1378,1205,0,0
161,-181,0,0,0,0,0,0,0,0,0,-1,1385,1205,0,0
168,-181,0,0,0,0,0,0,0,0,0,-1,1392,1205,0,0
175,-181,0,0,0,0,0,0,0,0,0,-1,1399,1205,0,0
182,-181,0,0,0,0,0,0,0,0,0,-1,1406,1205,0,0
189,-181,0,0,0,0,0,0,0,0,0,-1,1413,1205,0,0
196,-181,0,0,0,0,0,0,0,0,0,-1,1420,1205,0,0
203,-181,0,0,0,0,0,0,0,0,0,-1,1427,1205,0,0
210,-181,0,0,0,0,0,0,0,0,0,-1,1434,1205,0,0
217,-181,0,0,0,0,0,0,0,0,0,-1,1441,1205,0,0
224,-181,0,0,0,0,0,0,0,0,0,-1,1448,1205,0,0
231,-181,0,0,0,0,0,0,0,0,0,-1,1455,1205,0,0
238,-181,0,0,0,0,0,0,0,0,0,-1,1462,1205,0,0
245,-181,0,0,0,0,0,0,0,0,0,-1,1469,1205,0,0
252,-181,0,0,0,0,0,0,0,0,0,-1,1476,1205,0,0
259,-181,0,0,0,0,0,0,0,0,0,-1,1483,1205,0,0
266,-181,0,0,0,0,0,0,0,0,0,-1,1490,1205,0,0
273,-181,0,0,0,0,0,0,0,0,0,-1,1497,1205,0,0
280,-181,0,0,0,0,0,0,0,0,0,-1,1504,1205,0,0
287,-181,0,0,0,0,0,0,0,0,0,-1,1511,1205,0,0
294,-181,0,0,0,0,0,0,0,0,0,-1,1518,1205,0,0
301,-181,0,0,0,0,0,0,0,0,0,-1,1525,1205,0,0
308,-181,0,0,0,0,0,0,0,0,0,-1,1532,1205,0,0
315,-181,0,0,0,0,0,0,0,0,0,-1,1539,1205,0,0
322,-181,0,0,0,0,0,0,0,0,0,-1,1546,1205,0,0
329,-181,0,0,0,0,0,0,0,0,0,-1,1553,1205,0,0
336,-181,0,0,0,0,0,0,0,0,0,-1,1560,1205,0,0
343,-181,0,0,0,0,0,0,0,0,0,-1,1567,1205,0,0
350,-181,0,0,0,0,0,0,0,0,0,-1,1574,1205,0,0
357,-181,0,0,0,0,0,0,0,0,0,-1,1581,1205,0,0
364,-181,0,0,0,0,0,0,0,0,0,-1,1588,1205,0,0
371,-181,0,0,0,0,0,0,0,0,0,-1,1595,1205,0,0
378,-181,0,0,0,0,0,0,0,0,0,-1,1602,1205,0,0
385,-181,0,0,0,0,0,0,0,0,0,-1,1609,1205,0,0
392,-181,0,0,0,0,0,0,0,0,0,-1,1616,1205,0,0
399,-181,0,0,0,0,0,0,0,0,0,-1,1623,1205,0,0
406,-181,0,0,0,0,0,0,0,0,0,-1,1630,1205,0,0
413,-181,0,0,0,0,0,0,0,0,0,-1,1637,1205,0,0
420,-181,0,0,0,0,0,0,0,0,0,-1,1644,1205,0,0
427,-181,0,0,0,0,0,0,0,0,0,-1,1651,1205,0,0
434,-181,0,0,0,0,0,0,0,0,0,-1,1658,1205,0,0
441,-181,0,0,0,0,0,0,0,0,0,-1,1665,1205,0,0
448,-181,0,0,0,0,0,0,0,0,0,-1,1672,1205,0,0
455,-181,0,0,0,0,0,0,0,0,0,-1,1679,1205,0,0
462,-181,0,0,0,0,0,0,0,0,0,-1,1686,1205,0,0
469,-181,0,0,0,0,0,0,0,0,0,-1,1693,1205,0,0
476,-181,0,0,0,0,0,0,0,0,0,-1,1700,1205,0,0
483,-181,0,0,0,0,0,0,0,0,0,-1,1707,1205,0,0
490,-181,0,0,0,0,0,0,0,0,0,-1,1714,1205,0,0
497,-181,0,0,0,0,0,0,0,0,0,-1,1721,1205,0,0
504,-181,0,0,0,0,0,0,0,0,0,-1,1728,1205,0,0
511,-181,0,0,0,0,0,0,0,0,0,-1,1735,1205,0,0
518,-181,0,0,0,0,0,0,0,0,0,-1,1742,1205,0,0
525,-181,0,0,0,0,0,0,0,0,0,-1,1749,1205,0,0
532,-181,0,0,0,0,0,0,0,0,0,-1,1756,1205,0,0
539,-181,0,0,0,0,0,0,0,0,0,-1,1763,1205,0,0
546,-181,0,0,0,0,0,0,0,0,0,-1,1770,1205,0,0
553,-181,0,0,0,0,0,0,0,0,0,-1,1777,1205,0,0
560,-181,0,0,0,0,0,0,0,0,0,-1,1784,1205,0,0
567,-181,0,0,0,0,0,0,0,0,0,-1,1791,1205,0,0
574,-181,0,0,0,0,0,0,0,0,0,-1,1798,1205,0,0
581,-181,0,0,0,0,0,0,0,0,0,-1,1805,1205,0,0
588,-181,0,0,0,0,0,0,0,0,0,-1,1812,1205,0,0
595,-181,0,0,0,0,0,0,0,0,0,-1,1819,1205,0,0
602,-181,0,0,0,0,0,0,0,0,0,-1,1826,1205,0,0
609,-181,0,0,0,0,0,0,0,0,0,-1,1833,1205,0,0
616,-181,0,0,0,0,0,0,0,0,0,-1,1840,1205,0,0
623,-181,0,0,0,0,0,0,0,0,0,-1,1847,1205,0,0
630,-181,43.3923,3.04346,-0.000553172,0.00155996,-0.00363744,0.00429118,-0.00328439,-0.926744,0.00438662,0.0385,1854,1205,43.3923,-3.0435
637,-181,43.3607,2.87524,5.81653e-05,0.00118229,-0.00286533,0.00354016,-0.00229971,-0.882248,0.00339691,0.0394893,1861,1205,43.3607,-2.87522
644,-181,43.3807,2.86914,0.000869547,0.000912544,-0.00230542,0.00319656,-0.00141447,-0.790061,0.00272765,0.0409837,1868,1205,43.3807,-2.86911
651,-181,43.5703,3.04749,0,0,0,0,0,0,0,-1,1875,1205,43.5703,-3.04753
658,-181,43.4001,2.94629,0.00260936,0.000405378,-0.00164643,0.00348856,-0.000473824,-0.490479,0.00249867,0.0368905,1882,1205,43.4002,-2.94635
665,-181,43.3075,2.80811,0.00296839,-9.21143e-06,-0.00118593,0.003383,-0.000423818,-0.336322,0.00240906,0.0335625,1889,1205,43.3075,-2.80813
672,-181,43.3807,2.81482,0.00261889,-0.000517352,-0.000506323,0.00269861,-0.000597068,-0.156159,0.00202761,0.0254873,1896,1205,43.3807,-2.81488
679,-181,43.504,2.89563,0.00167567,-0.000609809,3.50659e-05,0.0016762,-0.000610347,0.0153381,0.00136711,0.0324436,1903,1205,43.504,-2.89563
686,-181,43.6367,2.97852,0,0,0,0,0,0,0,-1,1910,1205,43.6367,-2.97847
693,-181,36.1301,2.91016,0,0,0,0,0,0,0,-1,1917,1205,36.1302,-2.9102
700,-181,29.5845,6.58398,0,0,0,0,0,0,0,-1,1924,1205,29.5844,-6.58395
707,-181,37.1547,7.87866,0,0,0,0,0,0,0,-1,1931,1205,37.1547,-7.87868
714,-181,37.312,7.3866,-0.00113745,-0.00077708,0.00171106,0.000763255,-0.00267779,0.837858,0.00208667,0.0466922,1938,1205,37.312,-7.38664
721,-181,37.1754,7.01257,-0.0017932,-0.000673861,0.00208179,0.00092218,-0.00338924,0.916713,0.00262152,0.0430614,1945,1205,37.1754,-7.01254
728,-181,36.7198,6.83569,-0.00225419,-0.000469741,0.00241997,0.00121725,-0.00394118,0.962013,0.00311355,0.0214819,1952,1205,36.7198,-6.83565
735,-181,36.724,6.48608,-0.00187102,-0.000135566,0.00260418,0.00174165,-0.00374824,0.946216,0.00323939,0.0117361,1959,1205,36.724,-6.48604
742,-181,36.6804,6.12903,-0.000317318,0.000558998,0.00268833,0.00284465,-0.00260297,0.86618,0.00314621,0.0175364,1966,1205,36.6804,-6.12898
749,-181,36.691,5.74915,0.00233293,0.0015479,0.00266334,0.00463253,-0.000751694,0.712236,0.003367,0.0165357,1973,1205,36.691,-5.74913
756,-181,36.688,5.37219,0.00578769,0.00278233,0.00284947,0.00750642,0.0010636,0.542752,0.00469012,0.0115786,1980,1205,36.688,-5.37223
763,-181,36.691,5.03979,0.0100287,0.00423423,0.00338651,0.0115882,0.00267474,0.431551,0.00700621,0.0138108,1987,1205,36.691,-5.03982
770,-181,36.8331,4.69336,0.0149933,0.00588884,0.00468755,0.0169752,0.00390685,0.400022,0.0102654,0.0363404,1994,1205,36.8331,-4.69342
777,-181,37.0631,4.26331,0,0,0,0,0,0,0,-1,2001,1205,37.0632,-4.26329
784,-181,34.7717,2.39917,0,0,0,0,0,0,0,-1,2008,1205,34.7717,-2.39918
791,-181,33.6541,1.79431,0,0,0,0,0,0,0,-1,2015,1205,33.6541,-1.79432
798,-181,32.4534,1.89966,0,0,0,0,0,0,0,-1,2022,1205,32.4535,-1.8997
805,-181,0,0,0,0,0,0,0,0,0,-1,2029,1205,0,0
812,-181,0,0,0,0,0,0,0,0,0,-1,2036,1205,0,0
-700,-188,0,0,0,0,0,0,0,0,0,-1,524,1212,0,0
-693,-188,0,0,0,0,0,0,0,0,0,-1,531,1212,0,0
-686,-188,0,0,0,0,0,0,0,0,0,-1,538,1212,0,0
-679,-188,-23.2689,-1.00537,0,0,0,0,0,0,0,-1,545,1212,-23.2689,1.00538
-672,-188,-22.1083,-2.05212,0,0,0,0,0,0,0,-1,552,1212,-22.1082,2.05214
-665,-188,-20.682,-2.00513,0,0,0,0,0,0,0,-1,559,1212,-20.682,2.00508
-658,-188,-19.2558,-1.95801,0,0,0,0,0,0,0,-1,566,1212,-19.2558,1.95801
-651,-188,-25.2332,0.501831,0,0,0,0,0,0,0,-1,573,1212,-25.2332,-0.501869
-644,-188,-24.6668,1.22534,0.0364431,0.0286146,0.0227721,0.0556349,0.0094228,0.700286,0.0343821,0.0409069,580,1212,-24.6668,-1.22532
-637,-188,-24.0334,1.91833,0.0252259,0.0214559,0.0172605,0.040704,0.00597774,0.73101,0.0253792,0.0219708,587,1212,-24.0334,-1.91834
-630,-188,-24.1158,2.34375,0.015085,0.0155917,0.0133251,0.0286659,0.00201078,0.794904,0.0184768,0.0105135,594,1212,-24.1159,-2.3438
-623,-188,-24.1197,2.75562,0.00793344,0.00996646,0.00903156,0.0180385,-0.000138636,0.841438,0.0120722,0.0107427,601,1212,-24.1197,-2.75566
-616,-188,-24.1038,3.1676,0.00468834,0.00497953,0.00381032,0.00864703,0.00102084,0.804494,0.00545634,0.0103259,608,1212,-24.1038,-3.16765
-609,-188,-24.0972,3.5957,0.00206642,0.00108854,0.000483587,0.00226517,0.000889786,0.389944,0.00131778,0.0133459,615,1212,-24.0972,-3.59571
-602,-188,-24.1147,4.02234,0.00173561,-0.00104422,-0.000377806,0.00178604,-0.00109465,-0.132703,0.00167906,0.0167746,622,1212,-24.1147,-4.02238
-595,-188,-24.2112,4.3844,0.00193406,-0.00232324,-0.000321598,0.00195822,-0.0023474,-0.0749734,0.00248923,0.0177028,629,1212,-24.2112,-4.38444
-588,-188,-24.3222,4.77734,0.00190309,-0.00272493,-0.000275023,0.00191938,-0.00274121,-0.0591481,0.0027047,0.0223955,636,1212,-24.3222,-4.77739
-581,-188,-24.3357,5.17261,0.00187838,-0.00265392,-0.000445463,0.00192175,-0.00269729,-0.0970491,0.0026793,0.022985,643,1212,-24.3357,-5.17259
-574,-188,-24.6655,5.51587,0,0,0,0,0,0,0,-1,650,1212,-24.6654,-5.51583
-567,-188,-19.5786,4.10388,0,0,0,0,0,0,0,-1,657,1212,-19.5785,-4.10383
-560,-188,-23.9507,0.416626,0,0,0,0,0,0,0,-1,664,1212,-23.9508,-0.416602
-553,-188,-31.9142,1.2655,0,0,0,0,0,0,0,-1,671,1212,-31.9142,-1.26554
-546,-188,-31.7307,1.18945,0.00341189,-0.00157542,-0.000473758,0.00345649,-0.00162002,-0.093874,0.00299417,0.0419138,678,1212,-31.7307,-1.18949
-539,-188,-31.6379,1.07458,0.00383567,-0.000713754,-0.000498558,0.00388967,-0.000767748,-0.107881,0.0028833,0.0365417,685,1212,-31.6379,-1.07462
-532,-188,-31.6744,1.08289,0.00403467,0.000187658,-0.000796603,0.0041931,2.92291e-05,-0.196319,0.00278571,0.0423801,692,1212,-31.6744,-1.08293
-525,-188,-31.7079,1.17456,0.00482713,0.000900357,-0.00172727,0.00547876,0.00024872,-0.360754,0.00357249,0.0417232,699,1212,-31.708,-1.17452
-518,-188,-31.6329,1.22937,0.00690567,0.000929686,-0.00327719,0.00835255,-0.000517194,-0.415763,0.00574853,0.0425947,706,1212,-31.6329,-1.22934
-511,-188,-31.6227,1.09485,0.0107879,0.000829119,-0.00517213,0.012988,-0.00137099,-0.402191,0.00914996,0.0430297,713,1212,-31.6227,-1.09479
-504,-188,0,0,0,0,0,0,0,0,0,-1,720,1212,0,0
-497,-188,0,0,0,0,0,0,0,0,0,-1,727,1212,0,0
-490,-188,0,0,0,0,0,0,0,0,0,-1,734,1212,0,0
-483,-188,0,0,0,0,0,0,0,0,0,-1,741,1212,0,0
-476,-188,0,0,0,0,0,0,0,0,0,-1,748,1212,0,0
-469,-188,0,0,0,0,0,0,0,0,0,-1,755,1212,0,0
-462,-188,0,0,0,0,0,0,0,0,0,-1,762,1212,0,0
-455,-188,0,0,0,0,0,0,0,0,0,-1,769,1212,0,0
-448,-188,0,0,0,0,0,0,0,0,0,-1,776,1212,0,0
-441,-188,0,0,0,0,0,0,0,0,0,-1,783,1212,0,0
-434,-188,0,0,0,0,0,0,0,0,0,-1,790,1212,0,0
-427,-188,0,0,0,0,0,0,0,0,0,-1,797,1212,0,0
-420,-188,0,0,0,0,0,0,0,0,0,-1,804,1212,0,0
-413,-188,0,0,0,0,0,0,0,0,0,-1,811,1212,0,0
-406,-188,0,0,0,0,0,0,0,0,0,-1,818,1212,0,0
-399,-188,0,0,0,0,0,0,0,0,0,-1,825,1212,0,0
-392,-188,0,0,0,0,0,0,0,0,0,-1,832,1212,0,0
-385,-188,0,0,0,0,0,0,0,0,0,-1,839,1212,0,0
-378,-188,0,0,0,0,0,0,0,0,0,-1,846,1212,0,0
-371,-188,0,0,0,0,0,0,0,0,0,-1,853,1212,0,0
-364,-188,0,0,0,0,0,0,0,0,0,-1,860,1212,0,0
-357,-188,0,0,0,0,0,0,0,0,0,-1,867,1212,0,0
-350,-188,0,0,0,0,0,0,0,0,0,-1,874,1212,0,0
-343,-188,0,0,0,0,0,0,0,0,0,-1,881,1212,0,0
-336,-188,0,0,0,0,0,0,0,0,0,-1,888,1212,0,0
-329,-188,0,0,0,0,0,0,0,0,0,-1,895,1212,0,0
-322,-188,0,0,0,0,0,0,0,0,0,-1,902,1212,0,0
-315,-188,0,0,0,0,0,0,0,0,0,-1,909,1212,0,0
-308,-188,0,0,0,0,0,0,0,0,0,-1,916,1212,0,0
-301,-188,0,0,0,0,0,0,0,0,0,-1,923,1212,0,0
-294,-188,0,0,0,0,0,0,0,0,0,-1,930,1212,0,0
-287,-188,0,0,0,0,0,0,0,0,0,-1,937,1212,0,0
-280,-188,0,0,0,0,0,0,0,0,0,-1,944,1212,0,0
-273,-188,0,0,0,0,0,0,0,0,0,-1,951,1212,0,0
-266,-188,0,0,0,0,0,0,0,0,0,-1,958,1212,0,0
-259,-188,0,0,0,0,0,0,0,0,0,-1,965,1212,0,0
-252,-188,0,0,0,0,0,0,0,0,0,-1,972,1212,0,0
-245,-188,0,0,0,0,0,0,0,0,0,-1,979,1212,0,0
-238,-188,0,0,0,0,0,0,0,0,0,-1,986,1212,0,0
-231,-188,0,0,0,0,0,0,0,0,0,-1,993,1212,0,0
-224,-188,0,0,0,0,0,0,0,0,0,-1,1000,1212,0,0
-217,-188,0,0,0,0,0,0,0,0,0,-1,1007,1212,0,0
-210,-188,0,0,0,0,0,0,0,0,0,-1,1014,1212,0,0
-203,-188,0,0,0,0,0,0,0,0,0,-1,1021,1212,0,0
-196,-188,0,0,0,0,0,0,0,0,0,-1,1028,1212,0,0
-189,-188,0,0,0,0,0,0,0,0,0,-1,1035,1212,0,0
-182,-188,0,0,0,0,0,0,0,0,0,-1,1042,1212,0,0
-175,-188,0,0,0,0,0,0,0,0,0,-1,1049,1212,0,0
-168,-188,0,0,0,0,0,0,0,0,0,-1,1056,1212,0,0
-161,-188,0,0,0,0,0,0,0,0,0,-1,1063,1212,0,0
-154,-188,0,0,0,0,0,0,0,0,0,-1,1070,1212,0,0
-147,-188,0,0,0,0,0,0,0,0,0,-1,1077,1212,0,0
-140,-188,0,0,0,0,0,0,0,0,0,-1,1084,1212,0,0
-133,-188,0,0,0,0,0,0,0,0,0,-1,1091,1212,0,0
-126,-188,0,0,0,0,0,0,0,0,0,-1,1098,1212,0,0
-119,-188,0,0,0,0,0,0,0,0,0,-1,1105,1212,0,0
-112,-188,0,0,0,0,0,0,0,0,0,-1,1112,1212,0,0
-105,-188,0,0,0,0,0,0,0,0,0,-1,1119,1212,0,0
-98,-188,0,0,0,0,0,0,0,0,0,-1,1126,1212,0,0
-91,-188,0,0,0,0,0,0,0,0,0,-1,1133,1212,0,0
-84,-188,0,0,0,0,0,0,0,0,0,-1,1140,1212,0,0
-77,-188,0,0,0,0,0,0,0,0,0,-1,1147,1212,0,0
-70,-188,0,0,0,0,0,0,0,0,0,-1,1154,1212,0,0
-63,-188,0,0,0,0,0,0,0,0,0,-1,1161,1212,0,0
-56,-188,0,0,0,0,0,0,0,0,0,-1,1168,1212,0,0
-49,-188,0,0,0,0,0,0,0,0,0,-1,1175,1212,0,0
-42,-188,0,0,0,0,0,0,0,0,0,-1,1182,1212,0,0
-35,-188,0,0,0,0,0,0,0,0,0,-1,1189,1212,0,0
-28,-188,0,0,0,0,0,0,0,0,0,-1,1196,1212,0,0
-21,-188,0,0,0,0,0,0,0,0,0,-1,1203,1212,0,0
-14,-188,0,0,0,0,0,0,0,0,0,-1,1210,1212,0,0
-7,-188,0,0,0,0,0,0,0,0,0,-1,1217,1212,0,0
0,-188,0,0,0,0,0,0,0,0,0,-1,1224,1212,0,0
7,-188,0,0,0,0,0,0,0,0,0,-1,1231,1212,0,0
14,-188,0,0,0,0,0,0,0,0,0,-1,1238,1212,0,0
21,-188,0,0,0,0,0,0,0,0,0,-1,1245,1212,0,0
28,-188,0,0,0,0,0,0,0,0,0,-1,1252,1212,0,0
35,-188,0,0,0,0,0,0,0,0,0,-1,1259,1212,0,0
42,-188,0,0,0,0,0,0,0,0,0,-1,1266,1212,0,0
49,-188,0,0,0,0,0,0,0,0,0,-1,1273,1212,0,0
56,-188,0,0,0,0,0,0,0,0,0,-1,1280,1212,0,0
63,-188,0,0,0,0,0,0,0,0,0,-1,1287,1212,0,0
70,-188,0,0,0,0,0,0,0,0,0,-1,1294,1212,0,0
77,-188,0,0,0,0,0,0,0,0,0,-1,1301,1212,0,0
84,-188,0,0,0,0,0,0,0,0,0,-1,1308,1212,0,0
91,-188,0,0,0,0,0,0,0,0,0,-1,1315,1212,0,0
98,-188,0,0,0,0,0,0,0,0,0,-1,1322,1212,0,0
105,-188,0,0,0,0,0,0,0,0,0,-1,1329,1212,0,0
112,-188,0,0,0,0,0,0,0,0,0,-1,1336,1212,0,0
119,-188,0,0,0,0,0,0,0,0,0,-1,1343,1212,0,0
126,-188,0,0,0,0,0,0,0,0,0,-1,1350,1212,0,0
133,-188,0,0,0,0,0,0,0,0,0,-1,1357,1212,0,0
140,-188,0,0,0,0,0,0,0,0,0,-1,1364,1212,0,0
147,-188,0,0,0,0,0,0,0,0,0,-1,1371,1212,0,0
154,-188,0,0,0,0,0,0,0,0,0,-1,1378,1212,0,0
161,-188,0,0,0,0,0,0,0,0,0,-1,1385,1212,0,0
168,-188,0,0,0,0,0,0,0,0,0,-1,1392,1212,0,0
175,-188,0,0,0,0,0,0,0,0,0,-1,1399,1212,0,0
182,-188,0,0,0,0,0,0,0,0,0,-1,1406,1212,0,0
189,-188,0,0,0,0,0,0,0,0,0,-1,1413,1212,0,0
196,-188,0,0,0,0,0,0,0,0,0,-1,1420,1212,0,0
203,-188,0,0,0,0,0,0,0,0,0,-1,1427,1212,0,0
210,-188,0,0,0,0,0,0,0,0,0,-1,1434,1212,0,0
217,-188,0,0,0,0,0,0,0,0,0,-1,1441,1212,0,0
224,-188,0,0,0,0,0,0,0,0,0,-1,1448,1212,0,0
231,-188,0,0,0,0,0,0,0,0,0,-1,1455,1212,0,0
238,-188,0,0,0,0,0,0,0,0,0,-1,1462,1212,0,0
245,-188,0,0,0,0,0,0,0,0,0,-1,1469,1212,0,0
252,-188,0,0,0,0,0,0,0,0,0,-1,1476,1212,0,0
259,-188,0,0,0,0,0,0,0,0,0,-1,1483,1212,0,0
266,-188,0,0,0,0,0,0,0,0,0,-1,1490,1212,0,0
273,-188,0,0,0,0,0,0,0,0,0,-1,1497,1212,0,0
280,-188,0,0,0,0,0,0,0,0,0,-1,1504,1212,0,0
287,-188,0,0,0,0,0,0,0,0,0,-1,1511,1212,0,0
294,-188,0,0,0,0,0,0,0,0,0,-1,1518,1212,0,0
301,-188,0,0,0,0,0,0,0,0,0,-1,1525,1212,0,0
308,-188,0,0,0,0,0,0,0,0,0,-1,1532,1212,0,0
315,-188,0,0,0,0,0,0,0,0,0,-1,1539,1212,0,0
322,-188,0,0,0,0,0,0,0,0,0,-1,1546,1212,0,0
329,-188,0,0,0,0,0,0,0,0,0,-1,1553,1212,0,0
336,-188,0,0,0,0,0,0,0,0,0,-1,1560,1212,0,0
343,-188,0,0,0,0,0,0,0,0,0,-1,1567,1212,0,0
350,-188,0,0,0,0,0,0,0,0,0,-1,1574,1212,0,0
357,-188,0,0,0,0,0,0,0,0,0,-1,1581,1212,0,0
364,-188,0,0,0,0,0,0,0,0,0,-1,1588,1212,0,0
371,-188,0,0,0,0,0,0,0,0,0,-1,1595,1212,0,0
378,-188,0,0,0,0,0,0,0,0,0,-1,1602,1212,0,0
385,-188,0,0,0,0,0,0,0,0,0,-1,1609,1212,0,0
392,-188,0,0,0,0,0,0,0,0,0,-1,1616,1212,0,0
399,-188,0,0,0,0,0,0,0,0,0,-1,1623,1212,0,0
406,-188,0,0,0,0,0,0,0,0,0,-1,1630,1212,0,0
413,-188,0,0,0,0,0,0,0,0,0,-1,1637,1212,0,0
420,-188,0,0,0,0,0,0,0,0,0,-1,1644,1212,0,0
427,-188,0,0,0,0,0,0,0,0,0,-1,1651,1212,0,0
434,-188,0,0,0,0,0,0,0,0,0,-1,1658,1212,0,0
441,-188,0,0,0,0,0,0,0,0,0,-1,1665,1212,0,0
448,-188,0,0,0,0,0,0,0,0,0,-1,1672,1212,0,0
455,-188,0,0,0,0,0,0,0,0,0,-1,1679,1212,0,0
462,-188,0,0,0,0,0,0,0,0,0,-1,1686,1212,0,0
469,-188,0,0,0,0,0,0,0,0,0,-1,1693,1212,0,0
476,-188,0,0,0,0,0,0,0,0,0,-1,1700,1212,0,0
483,-188,0,0,0,0,0,0,0,0,0,-1,1707,1212,0,0
490,-188,0,0,0,0,0,0,0,0,0,-1,1714,1212,0,0
497,-188,0,0,0,0,0,0,0,0,0,-1,1721,1212,0,0
504,-188,0,0,0,0,0,0,0,0,0,-1,1728,1212,0,0
511,-188,0,0,0,0,0,0,0,0,0,-1,1735,1212,0,0
518,-188,0,0,0,0,0,0,0,0,0,-1,1742,1212,0,0
525,-188,0,0,0,0,0,0,0,0,0,-1,1749,1212,0,0
532,-188,0,0,0,0,0,0,0,0,0,-1,1756,1212,0,0
539,-188,0,0,0,0,0,0,0,0,0,-1,1763,1212,0,0
546,-188,0,0,0,0,0,0,0,0,0,-1,1770,1212,0,0
553,-188,0,0,0,0,0,0,0,0,0,-1,1777,1212,0,0
560,-188,0,0,0,0,0,0,0,0,0,-1,1784,1212,0,0
567,-188,0,0,0,0,0,0,0,0,0,-1,1791,1212,0,0
574,-188,0,0,0,0,0,0,0,0,0,-1,1798,1212,0,0
581,-188,0,0,0,0,0,0,0,0,0,-1,1805,1212,0,0
588,-188,0,0,0,0,0,0,0,0,0,-1,1812,1212,0,0
595,-188,0,0,0,0,0,0,0,0,0,-1,1819,1212,0,0
602,-188,0,0,0,0,0,0,0,0,0,-1,1826,1212,0,0
609,-188,0,0,0,0,0,0,0,0,0,-1,1833,1212,0,0
616,-188,0,0,0,0,0,0,0,0,0,-1,1840,1212,0,0
623,-188,0,0,0,0,0,0,0,0,0,-1,1847,1212,0,0
630,-188,43.4297,2.80737,-0.000558381,0.00157872,-0.00262523,0.00334453,-0.00232419,-0.978675,0.00329046,0.0389799,1854,1212,43.4297,-2.80738
637,-188,43.4053,2.8103,-2.47993e-07,0.00126362,-0.00234083,0.00305631,-0.00179294,-0.917236,0.00283121,0.0413943,1861,1212,43.4053,-2.8103
644,-188,43.2074,2.82996,0.000848748,0.000982894,-0.00217861,0.00309547,-0.00126383,-0.800787,0.00258984,0.0389249,1868,1212,43.2074,-2.82997
651,-188,43.296,2.85535,0.001864,0.000660492,-0.00203302,0.00338245,-0.000857963,-0.641511,0.00258879,0.0326565,1875,1212,43.296,-2.85533
658,-188,43.2836,2.86194,0.00278211,0.000247649,-0.00193812,0.00383052,-0.000800754,-0.49586,0.00285823,0.031304,1882,1212,43.2836,-2.86188
665,-188,43.2993,2.83313,0.00316326,-0.000266617,-0.0014802,0.00371371,-0.00081707,-0.356031,0.00278836,0.0302009,1889,1212,43.2993,-2.83308
672,-188,43.3881,2.84058,0.00288149,-0.000823763,-0.000793043,0.00304409,-0.000986364,-0.202231,0.00242597,0.0261211,1896,1212,43.3881,-2.84061
679,-188,43.4805,2.8324,0,0,0,0,0,0,0,-1,1903,1212,43.4805,-2.83241
686,-188,42.8864,2.35791,0,0,0,0,0,0,0,-1,1910,1212,42.8864,-2.35788
693,-188,35.9054,2.18042,0,0,0,0,0,0,0,-1,1917,1212,35.9054,-2.18038
700,-188,36.8461,8.1908,0,0,0,0,0,0,0,-1,1924,1212,36.8461,-8.19083
707,-188,36.6287,7.89001,4.22423e-05,-0.00147746,0.001405,0.000879701,-0.00231492,0.537515,0.00190545,0.0357196,1931,1212,36.6287,-7.89001
714,-188,36.6959,7.56836,-0.00055135,-0.00129051,0.00165362,0.000773492,-0.00261535,0.675457,0.00205062,0.0318743,1938,1212,36.6959,-7.56834
721,-188,36.5184,7.23254,-0.00133931,-0.0011729,0.00210637,0.000851903,-0.00336412,0.805139,0.00257414,0.0323299,1945,1212,36.5185,-7.23254
728,-188,36.3358,6.8562,-0.0017778,-0.000839581,0.00240764,0.00114422,-0.0037616,0.881614,0.00296371,0.01158,1952,1212,36.3358,-6.85625
735,-188,36.3208,6.48645,-0.00115852,-0.000295551,0.00237514,0.00168698,-0.00314106,0.875252,0.0028293,0.0133414,1959,1212,36.3208,-6.48642
742,-188,36.3094,6.11487,0.000666891,0.000643686,0.0021043,0.00275962,-0.00144904,0.782641,0.00246883,0.0151276,1966,1212,36.3094,-6.11492
749,-188,36.3187,5.75403,0.00352777,0.00188475,0.00159049,0.00449638,0.000916144,0.547013,0.00274367,0.0146343,1973,1212,36.3188,-5.75403
756,-188,36.3143,5.36865,0.00722786,0.00339136,0.00116199,0.00755235,0.00306686,0.27232,0.00438592,0.0127399,1980,1212,36.3144,-5.36867
763,-188,36.3318,5.0238,0.0119067,0.00518367,0.000904984,0.0120263,0.00506398,0.131493,0.00697219,0.0158269,1987,1212,36.3318,-5.02376
770,-188,36.3641,4.67261,0.0175363,0.00727487,0.0012513,0.0176867,0.00712449,0.119607,0.0102755,0.0309326,1994,1212,36.3642,-4.67259
777,-188,36.4821,4.31873,0,0,0,0,0,0,0,-1,2001,1212,36.4821,-4.31871
784,-188,34.7103,1.6665,0,0,0,0,0,0,0,-1,2008,1212,34.7103,-1.66656
791,-188,38.8401,0.969482,0,0,0,0,0,0,0,-1,2015,1212,38.8401,-0.969542
798,-188,38.8203,2.93079,0,0,0,0,0,0,0,-1,2022,1212,38.8204,-2.93082
805,-188,0,0,0,0,0,0,0,0,0,-1,2029,1212,0,0
812,-188,0,0,0,0,0,0,0,0,0,-1,2036,1212,0,0
-700,-195,0,0,0,0,0,0,0,0,0,-1,524,1219,0,0
-693,-195,0,0,0,0,0,0,0,0,0,-1,531,1219,0,0
-686,-195,0,0,0,0,0,0,0,0,0,-1,538,1219,0,0
-679,-195,-29.676,1.48267,0.135049,0.0579242,0.0364077,0.14952,0.0434529,0.378334,0.0888127,0.0467511,545,1219,-29.6759,-1.48261
-672,-195,-29.2196,1.37915,0.111198,0.0563786,0.0424841,0.134347,0.0332295,0.498909,0.0807991,0.049332,552,1219,-29.2196,-1.37911
-665,-195,-19.3743,-2.81384,0,0,0,0,0,0,0,-1,559,1219,-19.3742,2.81389
-658,-195,-27.7532,2.03125,0,0,0,0,0,0,0,-1,566,1219,-27.7533,-2.03129
-651,-195,-23.9177,1.44629,0,0,0,0,0,0,0,-1,573,1219,-23.9177,-1.44629
-644,-195,-23.7196,1.71387,0.0407196,0.0295416,0.0281197,0.0638004,0.00646082,0.687298,0.0405519,0.0428328,580,1219,-23.7196,-1.71385
-637,-195,-23.5161,1.93164,0.0286587,0.0220802,0.0211691,0.0467926,0.00394632,0.708325,0.0299664,0.0217862,587,1219,-23.5161,-1.93159
-630,-195,-23.6717,2.35229,0.0178253,0.0160038,0.0160537,0.0329941,0.000835039,0.757063,0.0217231,0.0080974,594,1219,-23.6717,-2.35234
-623,-195,-23.6878,2.75708,0.0100487,0.0103873,0.0107774,0.0209967,-0.000560725,0.793251,0.0141884,0.00784316,601,1219,-23.6878,-2.7571
-616,-195,-23.6826,3.16589,0.00604261,0.00535682,0.00490562,0.0106173,0.00078213,0.750506,0.00683243,0.00926174,608,1219,-23.6825,-3.16584
-609,-195,-23.6816,3.59741,0.00271478,0.00146905,0.0012122,0.00345478,0.000729055,0.548074,0.00210273,0.0169158,615,1219,-23.6816,-3.59746
-602,-195,-23.7036,4.01575,0.00195795,-0.000668068,-0.000177664,0.00196991,-0.000680034,-0.0672471,0.00158921,0.0204453,622,1219,-23.7036,-4.01569
-595,-195,-23.7745,4.41602,0.00211616,-0.00199123,-0.000235725,0.00212965,-0.00200471,-0.0571405,0.00238733,0.0168824,629,1219,-23.7745,-4.41603
-588,-195,-23.788,4.86096,0.002306,-0.00236869,-0.000158861,0.00231139,-0.00237408,-0.0339311,0.00270524,0.0188964,636,1219,-23.788,-4.86093
-581,-195,-23.6165,5.36084,0,0,0,0,0,0,0,-1,643,1219,-23.6165,-5.36083
-574,-195,-22.6731,4.11804,0,0,0,0,0,0,0,-1,650,1219,-22.6731,-4.11802
-567,-195,-20.6388,3.78369,0,0,0,0,0,0,0,-1,657,1219,-20.6388,-3.78369
-560,-195,-20.878,2.10388,0,0,0,0,0,0,0,-1,664,1219,-20.878,-2.10385
-553,-195,-31.4797,1.34521,0,0,0,0,0,0,0,-1,671,1219,-31.4797,-1.34516
-546,-195,-31.6158,1.10632,0,0,0,0,0,0,0,-1,678,1219,-31.6159,-1.10634
-539,-195,-31.6248,1.11096,0.00426517,6.21477e-05,-0.000216586,0.00427631,5.10162e-05,-0.0513496,0.00283402,0.0395691,685,1219,-31.6248,-1.11094
-532,-195,-31.7189,1.12939,0.00438254,0.000820101,-0.00046751,0.00444287,0.00075977,-0.128339,0.00274394,0.0342805,692,1219,-31.7189,-1.12941
-525,-195,-31.6667,1.21619,0.00474113,0.00127499,-0.00123514,0.00513623,0.000879888,-0.309596,0.0031718,0.0381028,699,1219,-31.6667,-1.2162
-518,-195,-31.5687,1.37952,0.00607616,0.000766072,-0.00261806,0.00714986,-0.000307624,-0.389192,0.00487235,0.0436733,706,1219,-31.5687,-1.37947
-511,-195,-31.4483,1.30493,0.00943102,-0.000322063,-0.00441801,0.0111347,-0.00202575,-0.368052,0.00818241,0.0432415,713,1219,-31.4483,-1.30488
-504,-195,0,0,0,0,0,0,0,0,0,-1,720,1219,0,0
-497,-195,0,0,0,0,0,0,0,0,0,-1,727,1219,0,0
-490,-195,0,0,0,0,0,0,0,0,0,-1,734,1219,0,0
-483,-195,0,0,0,0,0,0,0,0,0,-1,741,1219,0,0
-476,-195,0,0,0,0,0,0,0,0,0,-1,748,1219,0,0
-469,-195,0,0,0,0,0,0,0,0,0,-1,755,1219,0,0
-462,-195,0,0,0,0,0,0,0,0,0,-1,762,1219,0,0
-455,-195,0,0,0,0,0,0,0,0,0,-1,769,1219,0,0
-448,-195,0,0,0,0,0,0,0,0,0,-1,776,1219,0,0
-441,-195,0,0,0,0,0,0,0,0,0,-1,783,1219,0,0
-434,-195,0,0,0,0,0,0,0,0,0,-1,790,1219,0,0
-427,-195,0,0,0,0,0,0,0,0,0,-1,797,1219,0,0
-420,-195,0,0,0,0,0,0,0,0,0,-1,804,1219,0,0
-413,-195,0,0,0,0,0,0,0,0,0,-1,811,1219,0,0
-406,-195,0,0,0,0,0,0,0,0,0,-1,818,1219,0,0
-399,-195,0,0,0,0,0,0,0,0,0,-1,825,1219,0,0
-392,-195,0,0,0,0,0,0,0,0,0,-1,832,1219,0,0
-385,-195,0,0,0,0,0,0,0,0,0,-1,839,1219,0,0
-378,-195,0,0,0,0,0,0,0,0,0,-1,846,1219,0,0
-371,-195,0,0,0,0,0,0,0,0,0,-1,853,1219,0,0
-364,-195,0,0,0,0,0,0,0,0,0,-1,860,1219,0,0
-357,-195,0,0,0,0,0,0,0,0,0,-1,867,1219,0,0
-350,-195,0,0,0,0,0,0,0,0,0,-1,874,1219,0,0
-343,-195,0,0,0,0,0,0,0,0,0,-1,881,1219,0,0
-336,-195,0,0,0,0,0,0,0,0,0,-1,888,1219,0,0
-329,-195,0,0,0,0,0,0,0,0,0,-1,895,1219,0,0
-322,-195,0,0,0,0,0,0,0,0,0,-1,902,1219,0,0
-315,-195,0,0,0,0,0,0,0,0,0,-1,909,1219,0,0
-308,-195,0,0,0,0,0,0,0,0,0,-1,916,1219,0,0
-301,-195,0,0,0,0,0,0,0,0,0,-1,923,1219,0,0
-294,-195,0,0,0,0,0,0,0,0,0,-1,930,1219,0,0
-287,-195,0,0,0,0,0,0,0,0,0,-1,937,1219,0,0
-280,-195,0,0,0,0,0,0,0,0,0,-1,944,1219,0,0
-273,-195,0,0,0,0,0,0,0,0,0,-1,951,1219,0,0
-266,-195,0,0,0,0,0,0,0,0,0,-1,958,1219,0,0
-259,-195,0,0,0,0,0,0,0,0,0,-1,965,1219,0,0
-252,-195,0,0,0,0,0,0,0,0,0,-1,972,1219,0,0
-245,-195,0,0,0,0,0,0,0,0,0,-1,979,1219,0,0
-238,-195,0,0,0,0,0,0,0,0,0,-1,986,1219,0,0
-231,-195,0,0,0,0,0,0,0,0,0,-1,993,1219,0,0
-224,-195,0,0,0,0,0,0,0,0,0,-1,1000,1219,0,0
-217,-195,0,0,0,0,0,0,0,0,0,-1,1007,1219,0,0
-210,-195,0,0,0,0,0,0,0,0,0,-1,1014,1219,0,0
-203,-195,0,0,0,0,0,0,0,0,0,-1,1021,1219,0,0
-196,-195,0,0,0,0,0,0,0,0,0,-1,1028,1219,0,0
-189,-195,0,0,0,0,0,0,0,0,0,-1,1035,1219,0,0
-182,-195,0,0,0,0,0,0,0,0,0,-1,1042,1219,0,0
-175,-195,0,0,0,0,0,0,0,0,0,-1,1049,1219,0,0
-168,-195,0,0,0,0,0,0,0,0,0,-1,1056,1219,0,0
-161,-195,0,0,0,0,0,0,0,0,0,-1,1063,1219,0,0
-154,-195,0,0,0,0,0,0,0,0,0,-1,1070,1219,0,0
-147,-195,0,0,0,0,0,0,0,0,0,-1,1077,1219,0,0
-140,-195,0,0,0,0,0,0,0,0,0,-1,1084,1219,0,0
-133,-195,0,0,0,0,0,0,0,0,0,-1,1091,1219,0,0
-126,-195,0,0,0,0,0,0,0,0,0,-1,1098,1219,0,0
-119,-195,0,0,0,0,0,0,0,0,0,-1,1105,1219,0,0
-112,-195,0,0,0,0,0,0,0,0,0,-1,1112,1219,0,0
-105,-195,0,0,0,0,0,0,0,0,0,-1,1119,1219,0,0
-98,-195,0,0,0,0,0,0,0,0,0,-1,1126,1219,0,0
-91,-195,0,0,0,0,0,0,0,0,0,-1,1133,1219,0,0
-84,-195,0,0,0,0,0,0,0,0,0,-1,1140,1219,0,0
-77,-195,0,0,0,0,0,0,0,0,0,-1,1147,1219,0,0
-70,-195,0,0,0,0,0,0,0,0,0,-1,1154,1219,0,0
-63,-195,0,0,0,0,0,0,0,0,0,-1,1161,1219,0,0
-56,-195,0,0,0,0,0,0,0,0,0,-1,1168,1219,0,0
-49,-195,0,0,0,0,0,0,0,0,0,-1,1175,1219,0,0
-42,-195,0,0,0,0,0,0,0,0,0,-1,1182,1219,0,0
-35,-195,0,0,0,0,0,0,0,0,0,-1,1189,1219,0,0
-28,-195,0,0,0,0,0,0,0,0,0,-1,1196,1219,0,0
-21,-195,0,0,0,0,0,0,0,0,0,-1,1203,1219,0,0
-14,-195,0,0,0,0,0,0,0,0,0,-1,1210,1219,0,0
-7,-195,0,0,0,0,0,0,0,0,0,-1,1217,1219,0,0
0,-195,0,0,0,0,0,0,0,0,0,-1,1224,1219,0,0
7,-195,0,0,0,0,0,0,0,0,0,-1,1231,1219,0,0
14,-195,0,0,0,0,0,0,0,0,0,-1,1238,1219,0,0
21,-195,0,0,0,0,0,0,0,0,0,-1,1245,1219,0,0
28,-195,0,0,0,0,0,0,0,0,0,-1,1252,1219,0,0
35,-195,0,0,0,0,0,0,0,0,0,-1,1259,1219,0,0
42,-195,0,0,0,0,0,0,0,0,0,-1,1266,1219,0,0
49,-195,0,0,0,0,0,0,0,0,0,-1,1273,1219,0,0
56,-195,0,0,0,0,0,0,0,0,0,-1,1280,1219,0,0
63,-195,0,0,0,0,0,0,0,0,0,-1,1287,1219,0,0
70,-195,0,0,0,0,0,0,0,0,0,-1,1294,1219,0,0
77,-195,0,0,0,0,0,0,0,0,0,-1,1301,1219,0,0
84,-195,0,0,0,0,0,0,0,0,0,-1,1308,1219,0,0
91,-195,0,0,0,0,0,0,0,0,0,-1,1315,1219,0,0
98,-195,0,0,0,0,0,0,0,0,0,-1,1322,1219,0,0
105,-195,0,0,0,0,0,0,0,0,0,-1,1329,1219,0,0
112,-195,0,0,0,0,0,0,0,0,0,-1,1336,1219,0,0
119,-195,0,0,0,0,0,0,0,0,0,-1,1343,1219,0,0
126,-195,0,0,0,0,0,0,0,0,0,-1,1350,1219,0,0
133,-195,0,0,0,0,0,0,0,0,0,-1,1357,1219,0,0
140,-195,0,0,0,0,0,0,0,0,0,-1,1364,1219,0,0
147,-195,0,0,0,0,0,0,0,0,0,-1,1371,1219,0,0
154,-195,0,0,0,0,0,0,0,0,0,-1,1378,1219,0,0
161,-195,0,0,0,0,0,0,0,0,0,-1,1385,1219,0,0
168,-195,0,0,0,0,0,0,0,0,0,-1,1392,1219,0,0
175,-195,0,0,0,0,0,0,0,0,0,-1,1399,1219,0,0
182,-195,0,0,0,0,0,0,0,0,0,-1,1406,1219,0,0
189,-195,0,0,0,0,0,0,0,0,0,-1,1413,1219,0,0
196,-195,0,0,0,0,0,0,0,0,0,-1,1420,1219,0,0
203,-195,0,0,0,0,0,0,0,0,0,-1,1427,1219,0,0
210,-195,0,0,0,0,0,0,0,0,0,-1,1434,1219,0,0
217,-195,0,0,0,0,0,0,0,0,0,-1,1441,1219,0,0
224,-195,0,0,0,0,0,0,0,0,0,-1,1448,1219,0,0
231,-195,0,0,0,0,0,0,0,0,0,-1,1455,1219,0,0
238,-195,0,0,0,0,0,0,0,0,0,-1,1462,1219,0,0
245,-195,0,0,0,0,0,0,0,0,0,-1,1469,1219,0,0
252,-195,0,0,0,0,0,0,0,0,0,-1,1476,1219,0,0
259,-195,0,0,0,0,0,0,0,0,0,-1,1483,1219,0,0
266,-195,0,0,0,0,0,0,0,0,0,-1,1490,1219,0,0
273,-195,0,0,0,0,0,0,0,0,0,-1,1497,1219,0,0
280,-195,0,0,0,0,0,0,0,0,0,-1,1504,1219,0,0
287,-195,0,0,0,0,0,0,0,0,0,-1,1511,1219,0,0
294,-195,0,0,0,0,0,0,0,0,0,-1,1518,1219,0,0
301,-195,0,0,0,0,0,0,0,0,0,-1,1525,1219,0,0
308,-195,0,0,0,0,0,0,0,0,0,-1,1532,1219,0,0
315,-195,0,0,0,0,0,0,0,0,0,-1,1539,1219,0,0
322,-195,0,0,0,0,0,0,0,0,0,-1,1546,1219,0,0
329,-195,0,0,0,0,0,0,0,0,0,-1,1553,1219,0,0
336,-195,0,0,0,0,0,0,0,0,0,-1,1560,1219,0,0
343,-195,0,0,0,0,0,0,0,0,0,-1,1567,1219,0,0
350,-195,0,0,0,0,0,0,0,0,0,-1,1574,1219,0,0
357,-195,0,0,0,0,0,0,0,0,0,-1,1581,1219,0,0
364,-195,0,0,0,0,0,0,0,0,0,-1,1588,1219,0,0
371,-195,0,0,0,0,0,0,0,0,0,-1,1595,1219,0,0
378,-195,0,0,0,0,0,0,0,0,0,-1,1602,1219,0,0
385,-195,0,0,0,0,0,0,0,0,0,-1,1609,1219,0,0
392,-195,0,0,0,0,0,0,0,0,0,-1,1616,1219,0,0
399,-195,0,0,0,0,0,0,0,0,0,-1,1623,1219,0,0
406,-195,0,0,0,0,0,0,0,0,0,-1,1630,1219,0,0
413,-195,0,0,0,0,0,0,0,0,0,-1,1637,1219,0,0
420,-195,0,0,0,0,0,0,0,0,0,-1,1644,1219,0,0
427,-195,0,0,0,0,0,0,0,0,0,-1,1651,1219,0,0
434,-195,0,0,0,0,0,0,0,0,0,-1,1658,1219,0,0
441,-195,0,0,0,0,0,0,0,0,0,-1,1665,1219,0,0
448,-195,0,0,0,0,0,0,0,0,0,-1,1672,1219,0,0
455,-195,0,0,0,0,0,0,0,0,0,-1,1679,1219,0,0
462,-195,0,0,0,0,0,0,0,0,0,-1,1686,1219,0,0
469,-195,0,0,0,0,0,0,0,0,0,-1,1693,1219,0,0
476,-195,0,0,0,0,0,0,0,0,0,-1,1700,1219,0,0
483,-195,0,0,0,0,0,0,0,0,0,-1,1707,1219,0,0
490,-195,0,0,0,0,0,0,0,0,0,-1,1714,1219,0,0
497,-195,0,0,0,0,0,0,0,0,0,-1,1721,1219,0,0
504,-195,0,0,0,0,0,0,0,0,0,-1,1728,1219,0,0
511,-195,0,0,0,0,0,0,0,0,0,-1,1735,1219,0,0
518,-195,0,0,0,0,0,0,0,0,0,-1,1742,1219,0,0
525,-195,0,0,0,0,0,0,0,0,0,-1,1749,1219,0,0
532,-195,0,0,0,0,0,0,0,0,0,-1,1756,1219,0,0
539,-195,0,0,0,0,0,0,0,0,0,-1,1763,1219,0,0
546,-195,0,0,0,0,0,0,0,0,0,-1,1770,1219,0,0
553,-195,0,0,0,0,0,0,0,0,0,-1,1777,1219,0,0
560,-195,0,0,0,0,0,0,0,0,0,-1,1784,1219,0,0
567,-195,0,0,0,0,0,0,0,0,0,-1,1791,1219,0,0
574,-195,0,0,0,0,0,0,0,0,0,-1,1798,1219,0,0
581,-195,0,0,0,0,0,0,0,0,0,-1,1805,1219,0,0
588,-195,0,0,0,0,0,0,0,0,0,-1,1812,1219,0,0
595,-195,0,0,0,0,0,0,0,0,0,-1,1819,1219,0,0
602,-195,0,0,0,0,0,0,0,0,0,-1,1826,1219,0,0
609,-195,0,0,0,0,0,0,0,0,0,-1,1833,1219,0,0
616,-195,0,0,0,0,0,0,0,0,0,-1,1840,1219,0,0
623,-195,0,0,0,0,0,0,0,0,0,-1,1847,1219,0,0
630,-195,43.5112,2.81372,-0.000397478,0.00151003,-0.00154321,0.00237043,-0.00125788,-1.06218,0.00212738,0.0380966,1854,1219,43.5112,-2.81371
637,-195,43.5297,2.91943,0.00011848,0.00107149,-0.00187901,0.00253347,-0.00134351,-0.909577,0.00227325,0.0387528,1861,1219,43.5297,-2.91942
644,-195,43.4465,2.90125,0.000994327,0.000604848,-0.00222808,0.00303616,-0.00143699,-0.741808,0.00263701,0.034703,1868,1219,43.4466,-2.90119
651,-195,43.3734,2.79871,0.00206816,0.000160956,-0.00243631,0.00373085,-0.00150173,-0.598858,0.00311107,0.026176,1875,1219,43.3734,-2.79866
658,-195,43.3634,2.85547,0.00297412,-0.000275396,-0.0024447,0.00428473,-0.00158601,-0.492111,0.00350682,0.0236769,1882,1219,43.3635,-2.85549
665,-195,43.3636,2.83777,0.00333378,-0.000729668,-0.00197909,0.00413837,-0.00153426,-0.386137,0.00338818,0.0230609,1889,1219,43.3636,-2.83772
672,-195,43.4153,2.74451,0.00312456,-0.00116695,-0.00129786,0.00348654,-0.00152892,-0.271989,0.00296829,0.0366509,1896,1219,43.4153,-2.74445
679,-195,43.4412,2.63428,0,0,0,0,0,0,0,-1,1903,1219,43.4411,-2.63428
686,-195,42.8165,2.35498,0,0,0,0,0,0,0,-1,1910,1219,42.8165,-2.35495
693,-195,24.4368,5.68298,0,0,0,0,0,0,0,-1,1917,1219,24.4368,-5.68293
700,-195,36.3433,8.44128,0,0,0,0,0,0,0,-1,1924,1219,36.3432,-8.44132
707,-195,36.0488,8.06079,0.000826243,-0.00186955,0.00116639,0.00126084,-0.00230415,0.356667,0.00208743,0.0318436,1931,1219,36.0489,-8.06079
714,-195,36.0198,7.53528,0.000141545,-0.00173172,0.0015111,0.000982746,-0.00257292,0.50796,0.00212019,0.0373528,1938,1219,36.0197,-7.53531
721,-195,35.9807,7.24988,-0.000727544,-0.00161777,0.00203381,0.000909293,-0.00325461,0.677668,0.00252795,0.0181861,1945,1219,35.9807,-7.24989
728,-195,35.9585,6.88403,-0.00107225,-0.00115788,0.00224974,0.00113508,-0.00336522,0.775884,0.0027025,0.0109583,1952,1219,35.9585,-6.88404
735,-195,35.9557,6.46899,-0.000287268,-0.000423727,0.00202688,0.00167253,-0.00238352,0.768573,0.00235372,0.0138723,1959,1219,35.9557,-6.46898
742,-195,35.9666,6.12659,0.00159114,0.000684616,0.00151593,0.00272013,-0.000444365,0.640129,0.00197825,0.0148418,1966,1219,35.9665,-6.12659
749,-195,35.9547,5.77661,0.00439602,0.00206753,0.000705234,0.00459296,0.00187059,0.272316,0.0026669,0.0146687,1973,1219,35.9548,-5.77664
756,-195,35.9368,5.39563,0.00811469,0.00374394,-0.000161322,0.00812064,0.00373799,-0.0368426,0.00469337,0.0138361,1980,1219,35.9368,-5.39562
763,-195,35.9412,5.02539,0.0130382,0.00579806,-0.00107536,0.0131946,0.00564172,-0.144375,0.00764449,0.0173447,1987,1219,35.9411,-5.02544
770,-195,35.9293,4.68298,0.0191852,0.00827939,-0.00161779,0.0194201,0.00804446,-0.144206,0.0112671,0.0344193,1994,1219,35.9294,-4.68304
777,-195,35.9497,4.39087,0,0,0,0,0,0,0,-1,2001,1219,35.9497,-4.3909
784,-195,40.2747,-0.327393,0,0,0,0,0,0,0,-1,2008,1219,40.2747,0.327416
791,-195,40.3972,1.3114,0,0,0,0,0,0,0,-1,2015,1219,40.3973,-1.31137
798,-195,40.4421,3.11365,0,0,0,0,0,0,0,-1,2022,1219,40.4421,-3.11367
805,-195,0,0,0,0,0,0,0,0,0,-1,2029,1219,0,0
812,-195,0,0,0,0,0,0,0,0,0,-1,2036,1219,0,0
-700,-202,0,0,0,0,0,0,0,0,0,-1,524,1226,0,0
-693,-202,0,0,0,0,0,0,0,0,0,-1,531,1226,0,0
-686,-202,0,0,0,0,0,0,0,0,0,-1,538,1226,0,0
-679,-202,-31.0255,1.51575,0.144787,0.0623106,0.0616096,0.177686,0.0294116,0.49047,0.109973,0.0476008,545,1226,-31.0255,-1.5157
-672,-202,-30.772,0.955811,0.121919,0.0598803,0.0617435,0.159997,0.0218021,0.55262,0.100191,0.0490447,552,1226,-30.772,-0.955803
-665,-202,-30.256,1.30493,0.100541,0.0541901,0.0577747,0.139615,0.015116,0.594655,0.0884697,0.0467973,559,1226,-30.256,-1.30489
-658,-202,-29.8865,1.53442,0.0808716,0.0468294,0.051301,0.117901,0.00979949,0.625218,0.0755466,0.0445285,566,1226,-29.8865,-1.53444
-651,-202,-22.4354,0.700562,0,0,0,0,0,0,0,-1,573,1226,-22.4355,-0.700538
-644,-202,-22.6987,1.24255,0.0475378,0.0304453,0.0347131,0.0747413,0.00324187,0.6647,0.0487828,0.0473769,580,1226,-22.6987,-1.24256
-637,-202,-22.9492,1.76831,0.0341101,0.0226671,0.0260301,0.0550401,0.00173704,0.677217,0.0361283,0.0353827,587,1226,-22.9491,-1.76827
-630,-202,-23.1948,2.30896,0.0222214,0.016346,0.0194595,0.0389637,-0.000396272,0.71048,0.0261089,0.0150146,594,1226,-23.1948,-2.30894
-623,-202,-23.2427,2.73657,0.0135033,0.0107318,0.0132042,0.0253943,-0.00115919,0.733115,0.0173289,0.00788605,601,1226,-23.2427,-2.73656
-616,-202,-23.2571,3.14502,0.00812532,0.00566484,0.00675557,0.0137618,2.84058e-05,0.695331,0.00916505,0.00790002,608,1226,-23.2571,-3.14504
-609,-202,-23.2485,3.57983,0.00386061,0.00172045,0.00225158,0.00528345,0.000297607,0.563569,0.00342741,0.0205802,615,1226,-23.2486,-3.57985
-602,-202,-23.2834,3.97229,0.00245465,-0.000383499,0.000206776,0.00246964,-0.000398485,0.0723467,0.00179406,0.0213943,622,1226,-23.2834,-3.97227
-595,-202,-23.3422,4.42224,0.00240345,-0.00172378,4.37464e-07,0.00240345,-0.00172378,0.000105995,0.0023936,0.0164946,629,1226,-23.3422,-4.42226
-588,-202,-23.3024,4.87146,0.0027627,-0.00204453,0.000107106,0.00276509,-0.00204691,0.0222655,0.0027885,0.0128819,636,1226,-23.3024,-4.87151
-581,-202,-23.2405,5.1543,0.00298923,-0.00183618,7.6118e-06,0.00298925,-0.00183619,0.00157743,0.00281235,0.0424729,643,1226,-23.2405,-5.15426
-574,-202,-23.4043,5.33508,0,0,0,0,0,0,0,-1,650,1226,-23.4043,-5.33511
-567,-202,-22.1768,4.56995,0,0,0,0,0,0,0,-1,657,1226,-22.1768,-4.56991
-560,-202,-10.929,2.73096,0,0,0,0,0,0,0,-1,664,1226,-10.929,-2.73092
-553,-202,-30.2701,1.474,0,0,0,0,0,0,0,-1,671,1226,-30.2701,-1.47395
-546,-202,-31.6318,1.1073,0,0,0,0,0,0,0,-1,678,1226,-31.6317,-1.10727
-539,-202,-31.5936,1.11768,0.00478802,0.000922281,6.96563e-05,0.00478927,0.000921027,0.0180111,0.00293442,0.0417157,685,1226,-31.5936,-1.11772
-532,-202,-31.6449,1.08081,0.00489584,0.00163188,-0.000215361,0.00490999,0.00161774,-0.0656024,0.00288922,0.0276167,692,1226,-31.6449,-1.08076
-525,-202,-31.6708,1.0647,0.00507282,0.00205276,-0.000918178,0.00533006,0.00179552,-0.273159,0.00313143,0.0360786,699,1226,-31.6709,-1.06473
-518,-202,-31.6305,1.4895,0.00589664,0.00141607,-0.00217163,0.00677643,0.000536285,-0.384919,0.00434989,0.0438346,706,1226,-31.6305,-1.48951
-511,-202,-31.4008,1.35303,0.00865919,-0.000434307,-0.00384079,0.0100643,-0.00183941,-0.350714,0.00739928,0.0421705,713,1226,-31.4008,-1.35308
-504,-202,0,0,0,0,0,0,0,0,0,-1,720,1226,0,0
-497,-202,0,0,0,0,0,0,0,0,0,-1,727,1226,0,0
-490,-202,0,0,0,0,0,0,0,0,0,-1,734,1226,0,0
-483,-202,0,0,0,0,0,0,0,0,0,-1,741,1226,0,0
-476,-202,0,0,0,0,0,0,0,0,0,-1,748,1226,0,0
-469,-202,0,0,0,0,0,0,0,0,0,-1,755,1226,0,0
-462,-202,0,0,0,0,0,0,0,0,0,-1,762,1226,0,0
-455,-202,0,0,0,0,0,0,0,0,0,-1,769,1226,0,0
-448,-202,0,0,0,0,0,0,0,0,0,-1,776,1226,0,0
-441,-202,0,0,0,0,0,0,0,0,0,-1,783,1226,0,0
-434,-202,0,0,0,0,0,0,0,0,0,-1,790,1226,0,0
-427,-202,0,0,0,0,0,0,0,0,0,-1,797,1226,0,0
-420,-202,0,0,0,0,0,0,0,0,0,-1,804,1226,0,0
-413,-202,0,0,0,0,0,0,0,0,0,-1,811,1226,0,0
-406,-202,0,0,0,0,0,0,0,0,0,-1,818,1226,0,0
-399,-202,0,0,0,0,0,0,0,0,0,-1,825,1226,0,0
-392,-202,0,0,0,0,0,0,0,0,0,-1,832,1226,0,0
-385,-202,0,0,0,0,0,0,0,0,0,-1,839,1226,0,0
-378,-202,0,0,0,0,0,0,0,0,0,-1,846,1226,0,0
-371,-202,0,0,0,0,0,0,0,0,0,-1,853,1226,0,0
-364,-202,0,0,0,0,0,0,0,0,0,-1,860,1226,0,0
-357,-202,0,0,0,0,0,0,0,0,0,-1,867,1226,0,0
-350,-202,0,0,0,0,0,0,0,0,0,-1,874,1226,0,0
-343,-202,0,0,0,0,0,0,0,0,0,-1,881,1226,0,0
-336,-202,0,0,0,0,0,0,0,0,0,-1,888,1226,0,0
-329,-202,0,0,0,0,0,0,0,0,0,-1,895,1226,0,0
-322,-202,0,0,0,0,0,0,0,0,0,-1,902,1226,0,0
-315,-202,0,0,0,0,0,0,0,0,0,-1,909,1226,0,0
-308,-202,0,0,0,0,0,0,0,0,0,-1,916,1226,0,0
-301,-202,0,0,0,0,0,0,0,0,0,-1,923,1226,0,0
-294,-202,0,0,0,0,0,0,0,0,0,-1,930,1226,0,0
-287,-202,0,0,0,0,0,0,0,0,0,-1,937,1226,0,0
-280,-202,0,0,0,0,0,0,0,0,0,-1,944,1226,0,0
-273,-202,0,0,0,0,0,0,0,0,0,-1,951,1226,0,0
-266,-202,0,0,0,0,0,0,0,0,0,-1,958,1226,0,0
-259,-202,0,0,0,0,0,0,0,0,0,-1,965,1226,0,0
-252,-202,0,0,0,0,0,0,0,0,0,-1,972,1226,0,0
-245,-202,0,0,0,0,0,0,0,0,0,-1,979,1226,0,0
-238,-202,0,0,0,0,0,0,0,0,0,-1,986,1226,0,0
-231,-202,0,0,0,0,0,0,0,0,0,-1,993,1226,0,0
-224,-202,0,0,0,0,0,0,0,0,0,-1,1000,1226,0,0
-217,-202,0,0,0,0,0,0,0,0,0,-1,1007,1226,0,0
-210,-202,0,0,0,0,0,0,0,0,0,-1,1014,1226,0,0
-203,-202,0,0,0,0,0,0,0,0,0,-1,1021,1226,0,0
-196,-202,0,0,0,0,0,0,0,0,0,-1,1028,1226,0,0
-189,-202,0,0,0,0,0,0,0,0,0,-1,1035,1226,0,0
-182,-202,0,0,0,0,0,0,0,0,0,-1,1042,1226,0,0
-175,-202,0,0,0,0,0,0,0,0,0,-1,1049,1226,0,0
-168,-202,0,0,0,0,0,0,0,0,0,-1,1056,1226,0,0
-161,-202,0,0,0,0,0,0,0,0,0,-1,1063,1226,0,0
-154,-202,0,0,0,0,0,0,0,0,0,-1,1070,1226,0,0
-147,-202,0,0,0,0,0,0,0,0,0,-1,1077,1226,0,0
-140,-202,0,0,0,0,0,0,0,0,0,-1,1084,1226,0,0
-133,-202,0,0,0,0,0,0,0,0,0,-1,1091,1226,0,0
-126,-202,0,0,0,0,0,0,0,0,0,-1,1098,1226,0,0
-119,-202,0,0,0,0,0,0,0,0,0,-1,1105,1226,0,0
-112,-202,0,0,0,0,0,0,0,0,0,-1,1112,1226,0,0
-105,-202,0,0,0,0,0,0,0,0,0,-1,1119,1226,0,0
-98,-202,0,0,0,0,0,0,0,0,0,-1,1126,1226,0,0
-91,-202,0,0,0,0,0,0,0,0,0,-1,1133,1226,0,0
-84,-202,0,0,0,0,0,0,0,0,0,-1,1140,1226,0,0
-77,-202,0,0,0,0,0,0,0,0,0,-1,1147,1226,0,0
-70,-202,0,0,0,0,0,0,0,0,0,-1,1154,1226,0,0
-63,-202,0,0,0,0,0,0,0,0,0,-1,1161,1226,0,0
-56,-202,0,0,0,0,0,0,0,0,0,-1,1168,1226,0,0
-49,-202,0,0,0,0,0,0,0,0,0,-1,1175,1226,0,0
-42,-202,0,0,0,0,0,0,0,0,0,-1,1182,1226,0,0
-35,-202,0,0,0,0,0,0,0,0,0,-1,1189,1226,0,0
-28,-202,0,0,0,0,0,0,0,0,0,-1,1196,1226,0,0
-21,-202,0,0,0,0,0,0,0,0,0,-1,1203,1226,0,0
-14,-202,0,0,0,0,0,0,0,0,0,-1,1210,1226,0,0
-7,-202,0,0,0,0,0,0,0,0,0,-1,1217,1226,0,0
0,-202,0,0,0,0,0,0,0,0,0,-1,1224,1226,0,0
7,-202,0,0,0,0,0,0,0,0,0,-1,1231,1226,0,0
14,-202,0,0,0,0,0,0,0,0,0,-1,1238,1226,0,0
21,-202,0,0,0,0,0,0,0,0,0,-1,1245,1226,0,0
28,-202,0,0,0,0,0,0,0,0,0,-1,1252,1226,0,0
35,-202,0,0,0,0,0,0,0,0,0,-1,1259,1226,0,0
42,-202,0,0,0,0,0,0,0,0,0,-1,1266,1226,0,0
49,-202,0,0,0,0,0,0,0,0,0,-1,1273,1226,0,0
56,-202,0,0,0,0,0,0,0,0,0,-1,1280,1226,0,0
63,-202,0,0,0,0,0,0,0,0,0,-1,1287,1226,0,0
70,-202,0,0,0,0,0,0,0,0,0,-1,1294,1226,0,0
77,-202,0,0,0,0,0,0,0,0,0,-1,1301,1226,0,0
84,-202,0,0,0,0,0,0,0,0,0,-1,1308,1226,0,0
91,-202,0,0,0,0,0,0,0,0,0,-1,1315,1226,0,0
98,-202,0,0,0,0,0,0,0,0,0,-1,1322,1226,0,0
105,-202,0,0,0,0,0,0,0,0,0,-1,1329,1226,0,0
112,-202,0,0,0,0,0,0,0,0,0,-1,1336,1226,0,0
119,-202,0,0,0,0,0,0,0,0,0,-1,1343,1226,0,0
126,-202,0,0,0,0,0,0,0,0,0,-1,1350,1226,0,0
133,-202,0,0,0,0,0,0,0,0,0,-1,1357,1226,0,0
140,-202,0,0,0,0,0,0,0,0,0,-1,1364,1226,0,0
147,-202,0,0,0,0,0,0,0,0,0,-1,1371,1226,0,0
154,-202,0,0,0,0,0,0,0,0,0,-1,1378,1226,0,0
161,-202,0,0,0,0,0,0,0,0,0,-1,1385,1226,0,0
168,-202,0,0,0,0,0,0,0,0,0,-1,1392,1226,0,0
175,-202,0,0,0,0,0,0,0,0,0,-1,1399,1226,0,0
182,-202,0,0,0,0,0,0,0,0,0,-1,1406,1226,0,0
189,-202,0,0,0,0,0,0,0,0,0,-1,1413,1226,0,0
196,-202,0,0,0,0,0,0,0,0,0,-1,1420,1226,0,0
203,-202,0,0,0,0,0,0,0,0,0,-1,1427,1226,0,0
210,-202,0,0,0,0,0,0,0,0,0,-1,1434,1226,0,0
217,-202,0,0,0,0,0,0,0,0,0,-1,1441,1226,0,0
224,-202,0,0,0,0,0,0,0,0,0,-1,1448,1226,0,0
231,-202,0,0,0,0,0,0,0,0,0,-1,1455,1226,0,0
238,-202,0,0,0,0,0,0,0,0,0,-1,1462,1226,0,0
245,-202,0,0,0,0,0,0,0,0,0,-1,1469,1226,0,0
252,-202,0,0,0,0,0,0,0,0,0,-1,1476,1226,0,0
259,-202,0,0,0,0,0,0,0,0,0,-1,1483,1226,0,0
266,-202,0,0,0,0,0,0,0,0,0,-1,1490,1226,0,0
273,-202,0,0,0,0,0,0,0,0,0,-1,1497,1226,0,0
280,-202,0,0,0,0,0,0,0,0,0,-1,1504,1226,0,0
287,-202,0,0,0,0,0,0,0,0,0,-1,1511,1226,0,0
294,-202,0,0,0,0,0,0,0,0,0,-1,1518,1226,0,0
301,-202,0,0,0,0,0,0,0,0,0,-1,1525,1226,0,0
308,-202,0,0,0,0,0,0,0,0,0,-1,1532,1226,0,0
315,-202,0,0,0,0,0,0,0,0,0,-1,1539,1226,0,0
322,-202,0,0,0,0,0,0,0,0,0,-1,1546,1226,0,0
329,-202,0,0,0,0,0,0,0,0,0,-1,1553,1226,0,0
336,-202,0,0,0,0,0,0,0,0,0,-1,1560,1226,0,0
343,-202,0,0,0,0,0,0,0,0,0,-1,1567,1226,0,0
350,-202,0,0,0,0,0,0,0,0,0,-1,1574,1226,0,0
357,-202,0,0,0,0,0,0,0,0,0,-1,1581,1226,0,0
364,-202,0,0,0,0,0,0,0,0,0,-1,1588,1226,0,0
371,-202,0,0,0,0,0,0,0,0,0,-1,1595,1226,0,0
378,-202,0,0,0,0,0,0,0,0,0,-1,1602,1226,0,0
385,-202,0,0,0,0,0,0,0,0,0,-1,1609,1226,0,0
392,-202,0,0,0,0,0,0,0,0,0,-1,1616,1226,0,0
399,-202,0,0,0,0,0,0,0,0,0,-1,1623,1226,0,0
406,-202,0,0,0,0,0,0,0,0,0,-1,1630,1226,0,0
413,-202,0,0,0,0,0,0,0,0,0,-1,1637,1226,0,0
420,-202,0,0,0,0,0,0,0,0,0,-1,1644,1226,0,0
427,-202,0,0,0,0,0,0,0,0,0,-1,1651,1226,0,0
434,-202,0,0,0,0,0,0,0,0,0,-1,1658,1226,0,0
441,-202,0,0,0,0,0,0,0,0,0,-1,1665,1226,0,0
448,-202,0,0,0,0,0,0,0,0,0,-1,1672,1226,0,0
455,-202,0,0,0,0,0,0,0,0,0,-1,1679,1226,0,0
462,-202,0,0,0,0,0,0,0,0,0,-1,1686,1226,0,0
469,-202,0,0,0,0,0,0,0,0,0,-1,1693,1226,0,0
476,-202,0,0,0,0,0,0,0,0,0,-1,1700,1226,0,0
483,-202,0,0,0,0,0,0,0,0,0,-1,1707,1226,0,0
490,-202,0,0,0,0,0,0,0,0,0,-1,1714,1226,0,0
497,-202,0,0,0,0,0,0,0,0,0,-1,1721,1226,0,0
504,-202,0,0,0,0,0,0,0,0,0,-1,1728,1226,0,0
511,-202,0,0,0,0,0,0,0,0,0,-1,1735,1226,0,0
518,-202,0,0,0,0,0,0,0,0,0,-1,1742,1226,0,0
525,-202,0,0,0,0,0,0,0,0,0,-1,1749,1226,0,0
532,-202,0,0,0,0,0,0,0,0,0,-1,1756,1226,0,0
539,-202,0,0,0,0,0,0,0,0,0,-1,1763,1226,0,0
546,-202,0,0,0,0,0,0,0,0,0,-1,1770,1226,0,0
553,-202,0,0,0,0,0,0,0,0,0,-1,1777,1226,0,0
560,-202,0,0,0,0,0,0,0,0,0,-1,1784,1226,0,0
567,-202,0,0,0,0,0,0,0,0,0,-1,1791,1226,0,0
574,-202,0,0,0,0,0,0,0,0,0,-1,1798,1226,0,0
581,-202,0,0,0,0,0,0,0,0,0,-1,1805,1226,0,0
588,-202,0,0,0,0,0,0,0,0,0,-1,1812,1226,0,0
595,-202,0,0,0,0,0,0,0,0,0,-1,1819,1226,0,0
602,-202,0,0,0,0,0,0,0,0,0,-1,1826,1226,0,0
609,-202,0,0,0,0,0,0,0,0,0,-1,1833,1226,0,0
616,-202,0,0,0,0,0,0,0,0,0,-1,1840,1226,0,0
623,-202,0,0,0,0,0,0,0,0,0,-1,1847,1226,0,0
630,-202,43.4071,2.83875,0.00017527,0.00150114,-0.00100718,0.00204397,-0.000367569,-1.07646,0.00150026,0.0371708,1854,1226,43.4071,-2.83869
637,-202,43.4541,2.88977,0.000866088,0.000882498,-0.00171686,0.00259117,-0.000842587,-0.787788,0.00206639,0.0365439,1861,1226,43.4541,-2.88976
644,-202,43.422,2.83972,0.00188301,0.000203978,-0.00235773,0.00354623,-0.00145924,-0.614363,0.00297246,0.0320605,1868,1226,43.4221,-2.83976
651,-202,43.3887,2.83826,0.00291961,-0.000281354,-0.00273855,0.00449106,-0.00185281,-0.520953,0.00376673,0.0258752,1875,1226,43.3887,-2.8383
658,-202,43.3961,2.84595,0.0036355,-0.000675548,-0.00276433,0.00498537,-0.00202542,-0.454259,0.0041662,0.022338,1882,1226,43.3961,-2.84593
665,-202,43.4441,2.80737,0.00382108,-0.00103946,-0.00229971,0.00473668,-0.00195506,-0.378901,0.00397318,0.0210433,1889,1226,43.4441,-2.80735
672,-202,43.6019,2.89014,0.00354415,-0.00134277,-0.00167482,0.00406304,-0.00186166,-0.30044,0.00349845,0.0431498,1896,1226,43.6019,-2.89015
679,-202,43.7909,2.95715,0,0,0,0,0,0,0,-1,1903,1226,43.7909,-2.95715
686,-202,42.7889,2.3175,0,0,0,0,0,0,0,-1,1910,1226,42.7889,-2.31755
693,-202,35.4344,9.14844,0,0,0,0,0,0,0,-1,1917,1226,35.4345,-9.14844
700,-202,35.5076,8.52759,0.00202583,-0.00189792,0.000323086,0.00205226,-0.00192434,0.0816088,0.00229629,0.0451064,1924,1226,35.5075,-8.52763
707,-202,35.5883,7.8949,0.00165769,-0.00217417,0.000860163,0.00184192,-0.0023584,0.210992,0.00243116,0.033823,1931,1226,35.5883,-7.89495
714,-202,35.5881,7.49658,0.000923184,-0.00208572,0.0012797,0.00139383,-0.00255636,0.352423,0.00231333,0.0222844,1938,1226,35.5881,-7.49663
721,-202,35.6207,7.24487,6.11074e-05,-0.00192165,0.00180632,0.00113022,-0.00299076,0.534422,0.00245875,0.0132109,1945,1226,35.6207,-7.24487
728,-202,35.5944,6.87451,-0.000159818,-0.00134376,0.00189956,0.00123787,-0.00274145,0.63435,0.00235149,0.0112916,1952,1226,35.5944,-6.87447
735,-202,35.5764,6.49011,0.000661898,-0.000444379,0.00151526,0.00172182,-0.0015043,0.61039,0.00186401,0.0122644,1959,1226,35.5764,-6.49016
742,-202,35.575,6.13049,0.00241484,0.000802659,0.000826959,0.00276358,0.000453914,0.399089,0.00171127,0.0120935,1966,1226,35.575,-6.13055
749,-202,35.5507,5.75171,0.00500694,0.00232145,-0.000193238,0.00502078,0.00230761,-0.0714655,0.0029019,0.01223,1973,1226,35.5507,-5.75174
756,-202,35.5449,5.38586,0.00861855,0.00420254,-0.00144191,0.00904767,0.00377343,-0.289254,0.00524757,0.012074,1980,1226,35.545,-5.38588
763,-202,35.5822,5.0625,0.0136433,0.0065874,-0.00298856,0.0147389,0.00549172,-0.351408,0.00860112,0.0192877,1987,1226,35.5821,-5.06254
770,-202,35.6215,4.85266,0.0201822,0.00958971,-0.00447658,0.0218206,0.00795126,-0.350861,0.0127517,0.047061,1994,1226,35.6214,-4.85269
777,-202,35.699,4.63721,0,0,0,0,0,0,0,-1,2001,1226,35.6989,-4.63722
784,-202,37.9491,-2.1272,0,0,0,0,0,0,0,-1,2008,1226,37.9491,2.12721
791,-202,41.6821,1.56946,0,0,0,0,0,0,0,-1,2015,1226,41.6821,-1.56946
798,-202,41.7263,3.20728,0,0,0,0,0,0,0,-1,2022,1226,41.7262,-3.20725
805,-202,0,0,0,0,0,0,0,0,0,-1,2029,1226,0,0
812,-202,0,0,0,0,0,0,0,0,0,-1,2036,1226,0,0
-700,-209,0,0,0,0,0,0,0,0,0,-1,524,1233,0,0
-693,-209,0,0,0,0,0,0,0,0,0,-1,531,1233,0,0
-686,-209,0,0,0,0,0,0,0,0,0,-1,538,1233,0,0
-679,-209,-31.9532,1.72302,0,0,0,0,0,0,0,-1,545,1233,-31.9532,-1.72296
-672,-209,-31.9122,1.95557,0,0,0,0,0,0,0,-1,552,1233,-31.9122,-1.95551
-665,-209,-32.3283,0.865234,0.1025,0.0553675,0.0788746,0.161254,-0.00338615,0.640229,0.108649,0.044693,559,1233,-32.3283,-0.865186
-658,-209,-31.8825,1.04077,0.0836437,0.0475076,0.0671261,0.135091,-0.00393961,0.653931,0.0914021,0.0487222,566,1233,-31.8825,-1.04079
-651,-209,-31.454,1.14905,0.066269,0.0389668,0.0550118,0.109298,-0.00406236,0.66378,0.0742566,0.0496435,573,1233,-31.454,-1.149
-644,-209,-22.2555,1.09241,0,0,0,0,0,0,0,-1,580,1233,-22.2555,-1.09241
-637,-209,-22.4878,1.6438,0,0,0,0,0,0,0,-1,587,1233,-22.4878,-1.64375
-630,-209,-22.7014,2.22168,0.0251457,0.0162462,0.0236493,0.0447603,-0.00336826,0.692407,0.0310239,0.026236,594,1233,-22.7014,-2.22173
-623,-209,-22.8049,2.73267,0.0161526,0.0107397,0.0161086,0.0297806,-0.00288825,0.702169,0.0208832,0.0124016,601,1233,-22.8049,-2.73269
-616,-209,-22.8295,3.16626,0.0102347,0.005775,0.00885541,0.0171367,-0.00112699,0.662059,0.0118181,0.0117585,608,1233,-22.8295,-3.16632
-609,-209,-22.8528,3.59961,0.00529096,0.00180077,0.00343195,0.00739602,-0.000304285,0.550192,0.00503517,0.0144048,615,1233,-22.8528,-3.59962
-602,-209,-22.863,4.03101,0.00318919,-0.000195318,0.000771556,0.00335678,-0.000362908,0.213889,0.00236811,0.0170269,622,1233,-22.863,-4.03104
-595,-209,-22.8698,4.45166,0.00281056,-0.00148072,0.000393691,0.00284638,-0.00151654,0.0907328,0.00255764,0.0130575,629,1233,-22.8698,-4.45168
-588,-209,-22.8597,4.89697,0.00318542,-0.00171188,0.000486486,0.00323328,-0.00175974,0.0980607,0.00292427,0.0162548,636,1233,-22.8597,-4.89693
-581,-209,-22.6247,5.40747,0.00349231,-0.00137407,0.000411919,0.00352694,-0.00140869,0.0838508,0.00293576,0.0420394,643,1233,-22.6247,-5.40745
-574,-209,-22.8478,5.80505,0.00351266,-0.000928227,0.000674553,0.00361286,-0.00102843,0.147466,0.00281472,0.04508,650,1233,-22.8478,-5.80502
-567,-209,-23.0233,6.01563,0,0,0,0,0,0,0,-1,657,1233,-23.0232,-6.01566
-560,-209,-13.9294,4.16626,0,0,0,0,0,0,0,-1,664,1233,-13.9294,-4.16621
-553,-209,-22.7542,0.748779,0,0,0,0,0,0,0,-1,671,1233,-22.7541,-0.748796
-546,-209,-31.8528,1.08252,0,0,0,0,0,0,0,-1,678,1233,-31.8528,-1.08255
-539,-209,-31.6658,1.0636,0.00518196,0.00201671,0.00024517,0.00520084,0.00199783,0.0768458,0.00302946,0.0399472,685,1233,-31.6658,-1.06362
-532,-209,-31.5106,1.07007,0.00533145,0.0027445,-0.000153716,0.00534055,0.0027354,-0.0591424,0.00308368,0.0317592,692,1233,-31.5106,-1.07003
-525,-209,-31.6649,1.20959,0.00548134,0.00325569,-0.000894575,0.00579632,0.0029407,-0.338551,0.00334663,0.0356714,699,1233,-31.6649,-1.20966
-518,-209,-31.809,1.46533,0.00597959,0.00290099,-0.00207877,0.00702693,0.00185365,-0.466707,0.0042052,0.0436655,706,1233,-31.809,-1.46531
-511,-209,-31.8147,1.49451,0.00801432,0.00107772,-0.00356841,0.00952223,-0.000430193,-0.399812,0.0064963,0.0416014,713,1233,-31.8147,-1.49457
-504,-209,0,0,0,0,0,0,0,0,0,-1,720,1233,0,0
-497,-209,0,0,0,0,0,0,0,0,0,-1,727,1233,0,0
-490,-209,0,0,0,0,0,0,0,0,0,-1,734,1233,0,0
-483,-209,0,0,0,0,0,0,0,0,0,-1,741,1233,0,0
-476,-209,0,0,0,0,0,0,0,0,0,-1,748,1233,0,0
-469,-209,0,0,0,0,0,0,0,0,0,-1,755,1233,0,0
-462,-209,0,0,0,0,0,0,0,0,0,-1,762,1233,0,0
-455,-209,0,0,0,0,0,0,0,0,0,-1,769,1233,0,0
-448,-209,0,0,0,0,0,0,0,0,0,-1,776,1233,0,0
-441,-209,0,0,0,0,0,0,0,0,0,-1,783,1233,0,0
-434,-209,0,0,0,0,0,0,0,0,0,-1,790,1233,0,0
-427,-209,0,0,0,0,0,0,0,0,0,-1,797,1233,0,0
-420,-209,0,0,0,0,0,0,0,0,0,-1,804,1233,0,0
-413,-209,0,0,0,0,0,0,0,0,0,-1,811,1233,0,0
-406,-209,0,0,0,0,0,0,0,0,0,-1,818,1233,0,0
-399,-209,0,0,0,0,0,0,0,0,0,-1,825,1233,0,0
-392,-209,0,0,0,0,0,0,0,0,0,-1,832,1233,0,0
-385,-209,0,0,0,0,0,0,0,0,0,-1,839,1233,0,0
-378,-209,0,0,0,0,0,0,0,0,0,-1,846,1233,0,0
-371,-209,0,0,0,0,0,0,0,0,0,-1,853,1233,0,0
-364,-209,0,0,0,0,0,0,0,0,0,-1,860,1233,0,0
-357,-209,0,0,0,0,0,0,0,0,0,-1,867,1233,0,0
-350,-209,0,0,0,0,0,0,0,0,0,-1,874,1233,0,0
-343,-209,0,0,0,0,0,0,0,0,0,-1,881,1233,0,0
-336,-209,0,0,0,0,0,0,0,0,0,-1,888,1233,0,0
-329,-209,0,0,0,0,0,0,0,0,0,-1,895,1233,0,0
-322,-209,0,0,0,0,0,0,0,0,0,-1,902,1233,0,0
-315,-209,0,0,0,0,0,0,0,0,0,-1,909,1233,0,0
-308,-209,0,0,0,0,0,0,0,0,0,-1,916,1233,0,0
-301,-209,0,0,0,0,0,0,0,0,0,-1,923,1233,0,0
-294,-209,0,0,0,0,0,0,0,0,0,-1,930,1233,0,0
-287,-209,0,0,0,0,0,0,0,0,0,-1,937,1233,0,0
-280,-209,0,0,0,0,0,0,0,0,0,-1,944,1233,0,0
-273,-209,0,0,0,0,0,0,0,0,0,-1,951,1233,0,0
-266,-209,0,0,0,0,0,0,0,0,0,-1,958,1233,0,0
-259,-209,0,0,0,0,0,0,0,0,0,-1,965,1233,0,0
-252,-209,0,0,0,0,0,0,0,0,0,-1,972,1233,0,0
-245,-209,0,0,0,0,0,0,0,0,0,-1,979,1233,0,0
-238,-209,0,0,0,0,0,0,0,0,0,-1,986,1233,0,0
-231,-209,0,0,0,0,0,0,0,0,0,-1,993,1233,0,0
-224,-209,0,0,0,0,0,0,0,0,0,-1,1000,1233,0,0
-217,-209,0,0,0,0,0,0,0,0,0,-1,1007,1233,0,0
-210,-209,0,0,0,0,0,0,0,0,0,-1,1014,1233,0,0
-203,-209,0,0,0,0,0,0,0,0,0,-1,1021,1233,0,0
-196,-209,0,0,0,0,0,0,0,0,0,-1,1028,1233,0,0
-189,-209,0,0,0,0,0,0,0,0,0,-1,1035,1233,0,0
-182,-209,0,0,0,0,0,0,0,0,0,-1,1042,1233,0,0
-175,-209,0,0,0,0,0,0,0,0,0,-1,1049,1233,0,0
-168,-209,0,0,0,0,0,0,0,0,0,-1,1056,1233,0,0
-161,-209,0,0,0,0,0,0,0,0,0,-1,1063,1233,0,0
-154,-209,0,0,0,0,0,0,0,0,0,-1,1070,1233,0,0
-147,-209,0,0,0,0,0,0,0,0,0,-1,1077,1233,0,0
-140,-209,0,0,0,0,0,0,0,0,0,-1,1084,1233,0,0
-133,-209,0,0,0,0,0,0,0,0,0,-1,1091,1233,0,0
-126,-209,0,0,0,0,0,0,0,0,0,-1,1098,1233,0,0
-119,-209,0,0,0,0,0,0,0,0,0,-1,1105,1233,0,0
-112,-209,0,0,0,0,0,0,0,0,0,-1,1112,1233,0,0
-105,-209,0,0,0,0,0,0,0,0,0,-1,1119,1233,0,0
-98,-209,0,0,0,0,0,0,0,0,0,-1,1126,1233,0,0
-91,-209,0,0,0,0,0,0,0,0,0,-1,1133,1233,0,0
-84,-209,0,0,0,0,0,0,0,0,0,-1,1140,1233,0,0
-77,-209,0,0,0,0,0,0,0,0,0,-1,1147,1233,0,0
-70,-209,0,0,0,0,0,0,0,0,0,-1,1154,1233,0,0
-63,-209,0,0,0,0,0,0,0,0,0,-1,1161,1233,0,0
-56,-209,0,0,0,0,0,0,0,0,0,-1,1168,1233,0,0
-49,-209,0,0,0,0,0,0,0,0,0,-1,1175,1233,0,0
-42,-209,0,0,0,0,0,0,0,0,0,-1,1182,1233,0,0
-35,-209,0,0,0,0,0,0,0,0,0,-1,1189,1233,0,0
-28,-209,0,0,0,0,0,0,0,0,0,-1,1196,1233,0,0
-21,-209,0,0,0,0,0,0,0,0,0,-1,1203,1233,0,0
-14,-209,0,0,0,0,0,0,0,0,0,-1,1210,1233,0,0
-7,-209,0,0,0,0,0,0,0,0,0,-1,1217,1233,0,0
0,-209,0,0,0,0,0,0,0,0,0,-1,1224,1233,0,0
7,-209,0,0,0,0,0,0,0,0,0,-1,1231,1233,0,0
14,-209,0,0,0,0,0,0,0,0,0,-1,1238,1233,0,0
21,-209,0,0,0,0,0,0,0,0,0,-1,1245,1233,0,0
28,-209,0,0,0,0,0,0,0,0,0,-1,1252,1233,0,0
35,-209,0,0,0,0,0,0,0,0,0,-1,1259,1233,0,0
42,-209,0,0,0,0,0,0,0,0,0,-1,1266,1233,0,0
49,-209,0,0,0,0,0,0,0,0,0,-1,1273,1233,0,0
56,-209,0,0,0,0,0,0,0,0,0,-1,1280,1233,0,0
63,-209,0,0,0,0,0,0,0,0,0,-1,1287,1233,0,0
70,-209,0,0,0,0,0,0,0,0,0,-1,1294,1233,0,0
77,-209,0,0,0,0,0,0,0,0,0,-1,1301,1233,0,0
84,-209,0,0,0,0,0,0,0,0,0,-1,1308,1233,0,0
91,-209,0,0,0,0,0,0,0,0,0,-1,1315,1233,0,0
98,-209,0,0,0,0,0,0,0,0,0,-1,1322,1233,0,0
105,-209,0,0,0,0,0,0,0,0,0,-1,1329,1233,0,0
112,-209,0,0,0,0,0,0,0,0,0,-1,1336,1233,0,0
119,-209,0,0,0,0,0,0,0,0,0,-1,1343,1233,0,0
126,-209,0,0,0,0,0,0,0,0,0,-1,1350,1233,0,0
133,-209,0,0,0,0,0,0,0,0,0,-1,1357,1233,0,0
140,-209,0,0,0,0,0,0,0,0,0,-1,1364,1233,0,0
147,-209,0,0,0,0,0,0,0,0,0,-1,1371,1233,0,0
154,-209,0,0,0,0,0,0,0,0,0,-1,1378,1233,0,0
161,-209,0,0,0,0,0,0,0,0,0,-1,1385,1233,0,0
168,-209,0,0,0,0,0,0,0,0,0,-1,1392,1233,0,0
175,-209,0,0,0,0,0,0,0,0,0,-1,1399,1233,0,0
182,-209,0,0,0,0,0,0,0,0,0,-1,1406,1233,0,0
189,-209,0,0,0,0,0,0,0,0,0,-1,1413,1233,0,0
196,-209,0,0,0,0,0,0,0,0,0,-1,1420,1233,0,0
203,-209,0,0,0,0,0,0,0,0,0,-1,1427,1233,0,0
210,-209,0,0,0,0,0,0,0,0,0,-1,1434,1233,0,0
217,-209,0,0,0,0,0,0,0,0,0,-1,1441,1233,0,0
224,-209,0,0,0,0,0,0,0,0,0,-1,1448,1233,0,0
231,-209,0,0,0,0,0,0,0,0,0,-1,1455,1233,0,0
238,-209,0,0,0,0,0,0,0,0,0,-1,1462,1233,0,0
245,-209,0,0,0,0,0,0,0,0,0,-1,1469,1233,0,0
252,-209,0,0,0,0,0,0,0,0,0,-1,1476,1233,0,0
259,-209,0,0,0,0,0,0,0,0,0,-1,1483,1233,0,0
266,-209,0,0,0,0,0,0,0,0,0,-1,1490,1233,0,0
273,-209,0,0,0,0,0,0,0,0,0,-1,1497,1233,0,0
280,-209,0,0,0,0,0,0,0,0,0,-1,1504,1233,0,0
287,-209,0,0,0,0,0,0,0,0,0,-1,1511,1233,0,0
294,-209,0,0,0,0,0,0,0,0,0,-1,1518,1233,0,0
301,-209,0,0,0,0,0,0,0,0,0,-1,1525,1233,0,0
308,-209,0,0,0,0,0,0,0,0,0,-1,1532,1233,0,0
315,-209,0,0,0,0,0,0,0,0,0,-1,1539,1233,0,0
322,-209,0,0,0,0,0,0,0,0,0,-1,1546,1233,0,0
329,-209,0,0,0,0,0,0,0,0,0,-1,1553,1233,0,0
336,-209,0,0,0,0,0,0,0,0,0,-1,1560,1233,0,0
343,-209,0,0,0,0,0,0,0,0,0,-1,1567,1233,0,0
350,-209,0,0,0,0,0,0,0,0,0,-1,1574,1233,0,0
357,-209,0,0,0,0,0,0,0,0,0,-1,1581,1233,0,0
364,-209,0,0,0,0,0,0,0,0,0,-1,1588,1233,0,0
371,-209,0,0,0,0,0,0,0,0,0,-1,1595,1233,0,0
378,-209,0,0,0,0,0,0,0,0,0,-1,1602,1233,0,0
385,-209,0,0,0,0,0,0,0,0,0,-1,1609,1233,0,0
392,-209,0,0,0,0,0,0,0,0,0,-1,1616,1233,0,0
399,-209,0,0,0,0,0,0,0,0,0,-1,1623,1233,0,0
406,-209,0,0,0,0,0,0,0,0,0,-1,1630,1233,0,0
413,-209,0,0,0,0,0,0,0,0,0,-1,1637,1233,0,0
420,-209,0,0,0,0,0,0,0,0,0,-1,1644,1233,0,0
427,-209,0,0,0,0,0,0,0,0,0,-1,1651,1233,0,0
434,-209,0,0,0,0,0,0,0,0,0,-1,1658,1233,0,0
441,-209,0,0,0,0,0,0,0,0,0,-1,1665,1233,0,0
448,-209,0,0,0,0,0,0,0,0,0,-1,1672,1233,0,0
455,-209,0,0,0,0,0,0,0,0,0,-1,1679,1233,0,0
462,-209,0,0,0,0,0,0,0,0,0,-1,1686,1233,0,0
469,-209,0,0,0,0,0,0,0,0,0,-1,1693,1233,0,0
476,-209,0,0,0,0,0,0,0,0,0,-1,1700,1233,0,0
483,-209,0,0,0,0,0,0,0,0,0,-1,1707,1233,0,0
490,-209,0,0,0,0,0,0,0,0,0,-1,1714,1233,0,0
497,-209,0,0,0,0,0,0,0,0,0,-1,1721,1233,0,0
504,-209,0,0,0,0,0,0,0,0,0,-1,1728,1233,0,0
511,-209,0,0,0,0,0,0,0,0,0,-1,1735,1233,0,0
518,-209,0,0,0,0,0,0,0,0,0,-1,1742,1233,0,0
525,-209,0,0,0,0,0,0,0,0,0,-1,1749,1233,0,0
532,-209,0,0,0,0,0,0,0,0,0,-1,1756,1233,0,0
539,-209,0,0,0,0,0,0,0,0,0,-1,1763,1233,0,0
546,-209,0,0,0,0,0,0,0,0,0,-1,1770,1233,0,0
553,-209,0,0,0,0,0,0,0,0,0,-1,1777,1233,0,0
560,-209,0,0,0,0,0,0,0,0,0,-1,1784,1233,0,0
567,-209,0,0,0,0,0,0,0,0,0,-1,1791,1233,0,0
574,-209,0,0,0,0,0,0,0,0,0,-1,1798,1233,0,0
581,-209,0,0,0,0,0,0,0,0,0,-1,1805,1233,0,0
588,-209,0,0,0,0,0,0,0,0,0,-1,1812,1233,0,0
595,-209,0,0,0,0,0,0,0,0,0,-1,1819,1233,0,0
602,-209,0,0,0,0,0,0,0,0,0,-1,1826,1233,0,0
609,-209,0,0,0,0,0,0,0,0,0,-1,1833,1233,0,0
616,-209,0,0,0,0,0,0,0,0,0,-1,1840,1233,0,0
623,-209,43.3071,2.81189,-0.000409899,0.00230514,1.17407e-05,0.00230519,-0.00040995,1.56647,0.0016901,0.03333,1847,1233,43.3072,-2.8119
630,-209,43.2777,2.79944,0.000450392,0.00161811,-0.000697749,0.00194405,0.000124446,-1.13378,0.00125661,0.0369071,1854,1233,43.2777,-2.79947
637,-209,43.3213,2.78308,0.0016371,0.000716973,-0.00143497,0.00268396,-0.000329881,-0.63027,0.00190879,0.0374417,1861,1233,43.3213,-2.78307
644,-209,43.3795,2.79358,0.00295715,-0.00022506,-0.00205966,0.0039687,-0.00123661,-0.456522,0.00314024,0.0301911,1868,1233,43.3796,-2.7936
651,-209,43.3735,2.85034,0.00391626,-0.000730502,-0.00249133,0.00499946,-0.00181371,-0.410133,0.0040744,0.0234456,1875,1233,43.3735,-2.85037
658,-209,43.4069,2.83447,0.00438105,-0.00107139,-0.00255436,0.00539074,-0.00208108,-0.376432,0.00445269,0.0216593,1882,1233,43.4069,-2.8345
665,-209,43.554,2.82996,0.00436348,-0.00134878,-0.00218012,0.00510046,-0.00208576,-0.325983,0.00426892,0.0372742,1889,1233,43.554,-2.82994
672,-209,43.7776,2.85107,0,0,0,0,0,0,0,-1,1896,1233,43.7776,-2.85103
679,-209,43.4286,2.69385,0,0,0,0,0,0,0,-1,1903,1233,43.4286,-2.69387
686,-209,33.3711,3.89856,0,0,0,0,0,0,0,-1,1910,1233,33.3711,-3.89855
693,-209,34.9545,9.21777,0,0,0,0,0,0,0,-1,1917,1233,34.9545,-9.21782
700,-209,35.073,8.59424,0.0024405,-0.00189729,-8.01803e-05,0.00244198,-0.00189877,-0.0184757,0.00251266,0.0421588,1924,1233,35.0729,-8.5942
707,-209,35.1895,8.02087,0.00212324,-0.00219519,0.000540027,0.00218974,-0.0022617,0.122538,0.00257016,0.0325775,1931,1233,35.1894,-8.02088
714,-209,35.1914,7.64526,0.0012427,-0.00205967,0.00101425,0.00152933,-0.0023463,0.275419,0.0022541,0.0161285,1938,1233,35.1914,-7.64526
721,-209,35.2203,7.24988,0.000362368,-0.00176226,0.00149664,0.00113539,-0.00253528,0.476763,0.00217003,0.0129211,1945,1233,35.2203,-7.2499
728,-209,35.2235,6.88611,0.000239048,-0.00105566,0.00144996,0.0011796,-0.00199621,0.575443,0.00185365,0.0129813,1952,1233,35.2235,-6.88607
735,-209,35.2096,6.52246,0.00110274,-6.45688e-05,0.00088062,0.00157556,-0.000537392,0.492746,0.00126805,0.0145174,1959,1233,35.2097,-6.52246
742,-209,35.2012,6.14819,0.00282253,0.0012208,-6.5811e-05,0.00282523,0.0012181,-0.0409954,0.00163629,0.013835,1966,1233,35.2011,-6.14824
749,-209,35.1819,5.7644,0.00535787,0.00279509,-0.00139343,0.00596952,0.00218344,-0.41363,0.00348766,0.0123335,1973,1233,35.1819,-5.76439
756,-209,35.1615,5.39429,0.00904689,0.00480888,-0.00320459,0.0107697,0.00308606,-0.49328,0.00640397,0.0116444,1980,1233,35.1615,-5.39429
763,-209,35.1307,5.1051,0.0143544,0.00743254,-0.00567358,0.0175394,0.00424761,-0.511524,0.0105656,0.0210987,1987,1233,35.1307,-5.10505
770,-209,35.2659,4.90149,0,0,0,0,0,0,0,-1,1994,1233,35.2659,-4.90152
777,-209,35.3629,4.12439,0,0,0,0,0,0,0,-1,2001,1233,35.3629,-4.12434
784,-209,40.3342,-2.14001,0,0,0,0,0,0,0,-1,2008,1233,40.3342,2.13997
791,-209,41.8398,1.573,0,0,0,0,0,0,0,-1,2015,1233,41.8399,-1.57295
798,-209,41.8267,2.67419,0,0,0,0,0,0,0,-1,2022,1233,41.8267,-2.67425
805,-209,0,0,0,0,0,0,0,0,0,-1,2029,1233,0,0
812,-209,0,0,0,0,0,0,0,0,0,-1,2036,1233,0,0
-700,-216,0,0,0,0,0,0,0,0,0,-1,524,1240,0,0
-693,-216,0,0,0,0,0,0,0,0,0,-1,531,1240,0,0
-686,-216,0,0,0,0,0,0,0,0,0,-1,538,1240,0,0
-679,-216,-33.0345,1.74561,0,0,0,0,0,0,0,-1,545,1240,-33.0345,-1.74561
-672,-216,-32.9428,1.99634,0,0,0,0,0,0,0,-1,552,1240,-32.9428,-1.99638
-665,-216,-34.0956,0.726807,0,0,0,0,0,0,0,-1,559,1240,-34.0956,-0.72679
-658,-216,-33.6852,0.574097,0,0,0,0,0,0,0,-1,566,1240,-33.6852,-0.574092
-651,-216,-32.8849,0.428223,0,0,0,0,0,0,0,-1,573,1240,-32.8849,-0.428211
-644,-216,-22.7313,0.0180664,0,0,0,0,0,0,0,-1,580,1240,-22.7314,-0.0180854
-637,-216,-22.6034,1.08484,0.0403677,0.0217442,0.0376718,0.0698616,-0.00774966,0.664236,0.0493608,0.0491156,587,1240,-22.6034,-1.08483
-630,-216,-22.3149,2.17395,0.0279899,0.0153562,0.0271752,0.0495728,-0.00622672,0.671201,0.0353076,0.0322834,594,1240,-22.3149,-2.17397
-623,-216,-22.3457,2.75305,0.0186736,0.0100785,0.0184283,0.0332988,-0.00454669,0.670844,0.0238596,0.0137177,601,1240,-22.3457,-2.75301
-616,-216,-22.4034,3.18713,0.0122256,0.00538571,0.010551,0.0198971,-0.00228572,0.628672,0.0140886,0.0132465,608,1240,-22.4034,-3.18712
-609,-216,-22.4227,3.62598,0.00670994,0.00152605,0.00438703,0.0092135,-0.000977511,0.518577,0.00649275,0.0137379,615,1240,-22.4228,-3.62595
-602,-216,-22.4404,4.03882,0.00398423,-0.000219052,0.00120925,0.00430729,-0.000542114,0.261062,0.00306824,0.0137371,622,1240,-22.4404,-4.03877
-595,-216,-22.4189,4.43579,0.00330428,-0.0012875,0.000660209,0.00339732,-0.00138054,0.140003,0.00283923,0.0187034,629,1240,-22.4189,-4.43576
-588,-216,-22.4543,4.85889,0.00359197,-0.00140253,0.000669202,0.00368008,-0.00149064,0.130912,0.00307323,0.020555,636,1240,-22.4544,-4.85895
-581,-216,-22.4293,5.34802,0.0039213,-0.000943244,0.000582695,0.00399012,-0.00101207,0.117568,0.00305386,0.0301675,643,1240,-22.4293,-5.34802
-574,-216,-22.2714,6.15125,0.00391656,-0.00039534,0.000893077,0.00409421,-0.000572994,0.19636,0.00293915,0.0492373,650,1240,-22.2714,-6.15122
-567,-216,-22.449,6.83813,0,0,0,0,0,0,0,-1,657,1240,-22.449,-6.83819
-560,-216,-16.5087,5.4574,0,0,0,0,0,0,0,-1,664,1240,-16.5087,-5.45746
-553,-216,-16.2355,1.22351,0,0,0,0,0,0,0,-1,671,1240,-16.2356,-1.22356
-546,-216,-32.0025,0.764771,0,0,0,0,0,0,0,-1,678,1240,-32.0025,-0.764774
-539,-216,-31.6039,0.82605,0.00535877,0.00288974,0.000201714,0.00537514,0.00287337,0.0809822,0.00310581,0.0416008,685,1240,-31.604,-0.825998
-532,-216,-31.2704,0.86731,0.00554882,0.0036196,-0.000341951,0.00560764,0.00356078,-0.170337,0.00327667,0.0456946,692,1240,-31.2704,-0.867287
-525,-216,-31.4909,1.08826,0.00575713,0.00417241,-0.00118198,0.00638776,0.00354177,-0.490118,0.00369526,0.0432908,699,1240,-31.4909,-1.08825
-518,-216,-31.7825,1.36511,0.00608215,0.00410221,-0.00234066,0.00763359,0.00255078,-0.585334,0.00448734,0.0411585,706,1240,-31.7825,-1.36506
-511,-216,-31.845,1.46204,0.00733513,0.00262599,-0.0036469,0.00932152,0.000639608,-0.498748,0.00601249,0.0410379,713,1240,-31.845,-1.46207
-504,-216,-31.6829,1.26233,0.0107056,-0.00230244,-0.00510311,0.0124686,-0.00406546,-0.332642,0.00994844,0.0411472,720,1240,-31.6829,-1.26229
-497,-216,0,0,0,0,0,0,0,0,0,-1,727,1240,0,0
-490,-216,0,0,0,0,0,0,0,0,0,-1,734,1240,0,0
-483,-216,0,0,0,0,0,0,0,0,0,-1,741,1240,0,0
-476,-216,0,0,0,0,0,0,0,0,0,-1,748,1240,0,0
-469,-216,0,0,0,0,0,0,0,0,0,-1,755,1240,0,0
-462,-216,0,0,0,0,0,0,0,0,0,-1,762,1240,0,0
-455,-216,0,0,0,0,0,0,0,0,0,-1,769,1240,0,0
-448,-216,0,0,0,0,0,0,0,0,0,-1,776,1240,0,0
-441,-216,0,0,0,0,0,0,0,0,0,-1,783,1240,0,0
-434,-216,0,0,0,0,0,0,0,0,0,-1,790,1240,0,0
-427,-216,0,0,0,0,0,0,0,0,0,-1,797,1240,0,0
-420,-216,0,0,0,0,0,0,0,0,0,-1,804,1240,0,0
-413,-216,0,0,0,0,0,0,0,0,0,-1,811,1240,0,0
-406,-216,0,0,0,0,0,0,0,0,0,-1,818,1240,0,0
-399,-216,0,0,0,0,0,0,0,0,0,-1,825,1240,0,0
-392,-216,0,0,0,0,0,0,0,0,0,-1,832,1240,0,0
-385,-216,0,0,0,0,0,0,0,0,0,-1,839,1240,0,0
-378,-216,0,0,0,0,0,0,0,0,0,-1,846,1240,0,0
-371,-216,0,0,0,0,0,0,0,0,0,-1,853,1240,0,0
-364,-216,0,0,0,0,0,0,0,0,0,-1,860,1240,0,0
-357,-216,0,0,0,0,0,0,0,0,0,-1,867,1240,0,0
-350,-216,0,0,0,0,0,0,0,0,0,-1,874,1240,0,0
-343,-216,0,0,0,0,0,0,0,0,0,-1,881,1240,0,0
-336,-216,0,0,0,0,0,0,0,0,0,-1,888,1240,0,0
-329,-216,0,0,0,0,0,0,0,0,0,-1,895,1240,0,0
-322,-216,0,0,0,0,0,0,0,0,0,-1,902,1240,0,0
-315,-216,0,0,0,0,0,0,0,0,0,-1,909,1240,0,0
-308,-216,0,0,0,0,0,0,0,0,0,-1,916,1240,0,0
-301,-216,0,0,0,0,0,0,0,0,0,-1,923,1240,0,0
-294,-216,0,0,0,0,0,0,0,0,0,-1,930,1240,0,0
-287,-216,0,0,0,0,0,0,0,0,0,-1,937,1240,0,0
-280,-216,0,0,0,0,0,0,0,0,0,-1,944,1240,0,0
-273,-216,0,0,0,0,0,0,0,0,0,-1,951,1240,0,0
-266,-216,0,0,0,0,0,0,0,0,0,-1,958,1240,0,0
-259,-216,0,0,0,0,0,0,0,0,0,-1,965,1240,0,0
-252,-216,0,0,0,0,0,0,0,0,0,-1,972,1240,0,0
-245,-216,0,0,0,0,0,0,0,0,0,-1,979,1240,0,0
-238,-216,0,0,0,0,0,0,0,0,0,-1,986,1240,0,0
-231,-216,0,0,0,0,0,0,0,0,0,-1,993,1240,0,0
-224,-216,0,0,0,0,0,0,0,0,0,-1,1000,1240,0,0
-217,-216,0,0,0,0,0,0,0,0,0,-1,1007,1240,0,0
-210,-216,0,0,0,0,0,0,0,0,0,-1,1014,1240,0,0
-203,-216,0,0,0,0,0,0,0,0,0,-1,1021,1240,0,0
-196,-216,0,0,0,0,0,0,0,0,0,-1,1028,1240,0,0
-189,-216,0,0,0,0,0,0,0,0,0,-1,1035,1240,0,0
-182,-216,0,0,0,0,0,0,0,0,0,-1,1042,1240,0,0
-175,-216,0,0,0,0,0,0,0,0,0,-1,1049,1240,0,0
-168,-216,0,0,0,0,0,0,0,0,0,-1,1056,1240,0,0
-161,-216,0,0,0,0,0,0,0,0,0,-1,1063,1240,0,0
-154,-216,0,0,0,0,0,0,0,0,0,-1,1070,1240,0,0
-147,-216,0,0,0,0,0,0,0,0,0,-1,1077,1240,0,0
-140,-216,0,0,0,0,0,0,0,0,0,-1,1084,1240,0,0
-133,-216,0,0,0,0,0,0,0,0,0,-1,1091,1240,0,0
-126,-216,0,0,0,0,0,0,0,0,0,-1,1098,1240,0,0
-119,-216,0,0,0,0,0,0,0,0,0,-1,1105,1240,0,0
-112,-216,0,0,0,0,0,0,0,0,0,-1,1112,1240,0,0
-105,-216,0,0,0,0,0,0,0,0,0,-1,1119,1240,0,0
-98,-216,0,0,0,0,0,0,0,0,0,-1,1126,1240,0,0
-91,-216,0,0,0,0,0,0,0,0,0,-1,1133,1240,0,0
-84,-216,0,0,0,0,0,0,0,0,0,-1,1140,1240,0,0
-77,-216,0,0,0,0,0,0,0,0,0,-1,1147,1240,0,0
-70,-216,0,0,0,0,0,0,0,0,0,-1,1154,1240,0,0
-63,-216,0,0,0,0,0,0,0,0,0,-1,1161,1240,0,0
-56,-216,0,0,0,0,0,0,0,0,0,-1,1168,1240,0,0
-49,-216,0,0,0,0,0,0,0,0,0,-1,1175,1240,0,0
-42,-216,0,0,0,0,0,0,0,0,0,-1,1182,1240,0,0
-35,-216,0,0,0,0,0,0,0,0,0,-1,1189,1240,0,0
-28,-216,0,0,0,0,0,0,0,0,0,-1,1196,1240,0,0
-21,-216,0,0,0,0,0,0,0,0,0,-1,1203,1240,0,0
-14,-216,0,0,0,0,0,0,0,0,0,-1,1210,1240,0,0
-7,-216,0,0,0,0,0,0,0,0,0,-1,1217,1240,0,0
0,-216,0,0,0,0,0,0,0,0,0,-1,1224,1240,0,0
7,-216,0,0,0,0,0,0,0,0,0,-1,1231,1240,0,0
14,-216,0,0,0,0,0,0,0,0,0,-1,1238,1240,0,0
21,-216,0,0,0,0,0,0,0,0,0,-1,1245,1240,0,0
28,-216,0,0,0,0,0,0,0,0,0,-1,1252,1240,0,0
35,-216,0,0,0,0,0,0,0,0,0,-1,1259,1240,0,0
42,-216,0,0,0,0,0,0,0,0,0,-1,1266,1240,0,0
49,-216,0,0,0,0,0,0,0,0,0,-1,1273,1240,0,0
56,-216,0,0,0,0,0,0,0,0,0,-1,1280,1240,0,0
63,-216,0,0,0,0,0,0,0,0,0,-1,1287,1240,0,0
70,-216,0,0,0,0,0,0,0,0,0,-1,1294,1240,0,0
77,-216,0,0,0,0,0,0,0,0,0,-1,1301,1240,0,0
84,-216,0,0,0,0,0,0,0,0,0,-1,1308,1240,0,0
91,-216,0,0,0,0,0,0,0,0,0,-1,1315,1240,0,0
98,-216,0,0,0,0,0,0,0,0,0,-1,1322,1240,0,0
105,-216,0,0,0,0,0,0,0,0,0,-1,1329,1240,0,0
112,-216,0,0,0,0,0,0,0,0,0,-1,1336,1240,0,0
119,-216,0,0,0,0,0,0,0,0,0,-1,1343,1240,0,0
126,-216,0,0,0,0,0,0,0,0,0,-1,1350,1240,0,0
133,-216,0,0,0,0,0,0,0,0,0,-1,1357,1240,0,0
140,-216,0,0,0,0,0,0,0,0,0,-1,1364,1240,0,0
147,-216,0,0,0,0,0,0,0,0,0,-1,1371,1240,0,0
154,-216,0,0,0,0,0,0,0,0,0,-1,1378,1240,0,0
161,-216,0,0,0,0,0,0,0,0,0,-1,1385,1240,0,0
168,-216,0,0,0,0,0,0,0,0,0,-1,1392,1240,0,0
175,-216,0,0,0,0,0,0,0,0,0,-1,1399,1240,0,0
182,-216,0,0,0,0,0,0,0,0,0,-1,1406,1240,0,0
189,-216,0,0,0,0,0,0,0,0,0,-1,1413,1240,0,0
196,-216,0,0,0,0,0,0,0,0,0,-1,1420,1240,0,0
203,-216,0,0,0,0,0,0,0,0,0,-1,1427,1240,0,0
210,-216,0,0,0,0,0,0,0,0,0,-1,1434,1240,0,0
217,-216,0,0,0,0,0,0,0,0,0,-1,1441,1240,0,0
224,-216,0,0,0,0,0,0,0,0,0,-1,1448,1240,0,0
231,-216,0,0,0,0,0,0,0,0,0,-1,1455,1240,0,0
238,-216,0,0,0,0,0,0,0,0,0,-1,1462,1240,0,0
245,-216,0,0,0,0,0,0,0,0,0,-1,1469,1240,0,0
252,-216,0,0,0,0,0,0,0,0,0,-1,1476,1240,0,0
259,-216,0,0,0,0,0,0,0,0,0,-1,1483,1240,0,0
266,-216,0,0,0,0,0,0,0,0,0,-1,1490,1240,0,0
273,-216,0,0,0,0,0,0,0,0,0,-1,1497,1240,0,0
280,-216,0,0,0,0,0,0,0,0,0,-1,1504,1240,0,0
287,-216,0,0,0,0,0,0,0,0,0,-1,1511,1240,0,0
294,-216,0,0,0,0,0,0,0,0,0,-1,1518,1240,0,0
301,-216,0,0,0,0,0,0,0,0,0,-1,1525,1240,0,0
308,-216,0,0,0,0,0,0,0,0,0,-1,1532,1240,0,0
315,-216,0,0,0,0,0,0,0,0,0,-1,1539,1240,0,0
322,-216,0,0,0,0,0,0,0,0,0,-1,1546,1240,0,0
329,-216,0,0,0,0,0,0,0,0,0,-1,1553,1240,0,0
336,-216,0,0,0,0,0,0,0,0,0,-1,1560,1240,0,0
343,-216,0,0,0,0,0,0,0,0,0,-1,1567,1240,0,0
350,-216,0,0,0,0,0,0,0,0,0,-1,1574,1240,0,0
357,-216,0,0,0,0,0,0,0,0,0,-1,1581,1240,0,0
364,-216,0,0,0,0,0,0,0,0,0,-1,1588,1240,0,0
371,-216,0,0,0,0,0,0,0,0,0,-1,1595,1240,0,0
378,-216,0,0,0,0,0,0,0,0,0,-1,1602,1240,0,0
385,-216,0,0,0,0,0,0,0,0,0,-1,1609,1240,0,0
392,-216,0,0,0,0,0,0,0,0,0,-1,1616,1240,0,0
399,-216,0,0,0,0,0,0,0,0,0,-1,1623,1240,0,0
406,-216,0,0,0,0,0,0,0,0,0,-1,1630,1240,0,0
413,-216,0,0,0,0,0,0,0,0,0,-1,1637,1240,0,0
420,-216,0,0,0,0,0,0,0,0,0,-1,1644,1240,0,0
427,-216,0,0,0,0,0,0,0,0,0,-1,1651,1240,0,0
434,-216,0,0,0,0,0,0,0,0,0,-1,1658,1240,0,0
441,-216,0,0,0,0,0,0,0,0,0,-1,1665,1240,0,0
448,-216,0,0,0,0,0,0,0,0,0,-1,1672,1240,0,0
455,-216,0,0,0,0,0,0,0,0,0,-1,1679,1240,0,0
462,-216,0,0,0,0,0,0,0,0,0,-1,1686,1240,0,0
469,-216,0,0,0,0,0,0,0,0,0,-1,1693,1240,0,0
476,-216,0,0,0,0,0,0,0,0,0,-1,1700,1240,0,0
483,-216,0,0,0,0,0,0,0,0,0,-1,1707,1240,0,0
490,-216,0,0,0,0,0,0,0,0,0,-1,1714,1240,0,0
497,-216,0,0,0,0,0,0,0,0,0,-1,1721,1240,0,0
504,-216,0,0,0,0,0,0,0,0,0,-1,1728,1240,0,0
511,-216,0,0,0,0,0,0,0,0,0,-1,1735,1240,0,0
518,-216,0,0,0,0,0,0,0,0,0,-1,1742,1240,0,0
525,-216,0,0,0,0,0,0,0,0,0,-1,1749,1240,0,0
532,-216,0,0,0,0,0,0,0,0,0,-1,1756,1240,0,0
539,-216,0,0,0,0,0,0,0,0,0,-1,1763,1240,0,0
546,-216,0,0,0,0,0,0,0,0,0,-1,1770,1240,0,0
553,-216,0,0,0,0,0,0,0,0,0,-1,1777,1240,0,0
560,-216,0,0,0,0,0,0,0,0,0,-1,1784,1240,0,0
567,-216,0,0,0,0,0,0,0,0,0,-1,1791,1240,0,0
574,-216,0,0,0,0,0,0,0,0,0,-1,1798,1240,0,0
581,-216,0,0,0,0,0,0,0,0,0,-1,1805,1240,0,0
588,-216,0,0,0,0,0,0,0,0,0,-1,1812,1240,0,0
595,-216,0,0,0,0,0,0,0,0,0,-1,1819,1240,0,0
602,-216,0,0,0,0,0,0,0,0,0,-1,1826,1240,0,0
609,-216,0,0,0,0,0,0,0,0,0,-1,1833,1240,0,0
616,-216,0,0,0,0,0,0,0,0,0,-1,1840,1240,0,0
623,-216,43.1899,2.90955,-0.000630417,0.00251629,0.000437984,0.00257612,-0.000690242,1.43505,0.00198785,0.0377212,1847,1240,43.1899,-2.90956
630,-216,43.1989,2.86292,0.000501715,0.00168487,-0.000348066,0.00177967,0.000406916,-1.30488,0.00107675,0.0355981,1854,1240,43.1989,-2.86289
637,-216,43.3063,2.86792,0.00194078,0.000622553,-0.00125749,0.00270143,-0.000138092,-0.544008,0.0018487,0.0327715,1861,1240,43.3062,-2.86795
644,-216,43.4116,2.81799,0.00326329,-0.000379693,-0.00188684,0.00406439,-0.0011808,-0.401509,0.00317719,0.0247129,1868,1240,43.4117,-2.81796
651,-216,43.4143,2.87085,0.00406666,-0.000822916,-0.00232517,0.0049958,-0.00175206,-0.380163,0.00404314,0.0214609,1875,1240,43.4143,-2.87079
658,-216,43.4664,2.89832,0.00437999,-0.00112691,-0.0023778,0.00526459,-0.00201151,-0.35616,0.00433855,0.0335862,1882,1240,43.4665,-2.89837
665,-216,43.7278,2.89832,0.00429939,-0.00136501,-0.00206133,0.00497011,-0.00203573,-0.314577,0.00416141,0.0471431,1889,1240,43.7278,-2.89826
672,-216,43.9982,2.85266,0,0,0,0,0,0,0,-1,1896,1240,43.9981,-2.85266
679,-216,41.3062,2.37195,0,0,0,0,0,0,0,-1,1903,1240,41.3061,-2.372
686,-216,21.5172,6.19458,0,0,0,0,0,0,0,-1,1910,1240,21.5172,-6.19453
693,-216,34.9686,8.88501,0,0,0,0,0,0,0,-1,1917,1240,34.9686,-8.88503
700,-216,34.8085,8.56262,0.00271218,-0.00170287,-0.000377538,0.00274423,-0.00173492,-0.0846924,0.00260783,0.0385435,1924,1240,34.8085,-8.56261
707,-216,34.8181,8.0824,0.00247914,-0.00198289,0.000318446,0.00250176,-0.0020055,0.0708891,0.00260752,0.0294349,1931,1240,34.8181,-8.08243
714,-216,34.8491,7.66174,0.00148556,-0.00181922,0.000817273,0.00167662,-0.00201028,0.22966,0.00213154,0.0139183,1938,1240,34.8492,-7.66176
721,-216,34.8525,7.2926,0.000669532,-0.00143112,0.00119765,0.00121218,-0.00197376,0.425421,0.00185684,0.0137834,1945,1240,34.8526,-7.29261
728,-216,34.8805,6.90308,0.000665135,-0.000648041,0.00101977,0.00122141,-0.00120431,0.499374,0.0014005,0.0123765,1952,1240,34.8805,-6.90311
735,-216,34.8827,6.55298,0.0015494,0.000385585,0.00030868,0.0016262,0.000308782,0.243861,0.000997269,0.0124415,1959,1240,34.8827,-6.553
742,-216,34.8307,6.20581,0.00322142,0.00169392,-0.000847395,0.00359846,0.00131689,-0.418635,0.00210231,0.0141046,1966,1240,34.8307,-6.20586
749,-216,34.8138,5.79053,0.00574281,0.0033324,-0.00246368,0.00728028,0.00179494,-0.557917,0.00437958,0.0111887,1973,1240,34.8139,-5.79047
756,-216,34.7754,5.38965,0.00958058,0.00551217,-0.0048525,0.012808,0.00228474,-0.586921,0.00788817,0.0111287,1980,1240,34.7754,-5.38965
763,-216,34.7489,5.07776,0.015257,0.00842621,-0.00830148,0.0208182,0.00286499,-0.590243,0.0130292,0.0191254,1987,1240,34.749,-5.07772
770,-216,34.9735,4.35498,0.0231795,0.0123421,-0.0128663,0.0317216,0.00379993,-0.586094,0.0200018,0.0430399,1994,1240,34.9735,-4.35493
777,-216,35.2612,3.6178,0,0,0,0,0,0,0,-1,2001,1240,35.2612,-3.61781
784,-216,42.4829,-1.97656,0,0,0,0,0,0,0,-1,2008,1240,42.4828,1.97653
791,-216,41.0908,0.603882,0,0,0,0,0,0,0,-1,2015,1240,41.0908,-0.603931
798,-216,0,0,0,0,0,0,0,0,0,-1,2022,1240,0,0
805,-216,0,0,0,0,0,0,0,0,0,-1,2029,1240,0,0
812,-216,0,0,0,0,0,0,0,0,0,-1,2036,1240,0,0
-700,-223,0,0,0,0,0,0,0,0,0,-1,524,1247,0,0
-693,-223,0,0,0,0,0,0,0,0,0,-1,531,1247,0,0
-686,-223,0,0,0,0,0,0,0,0,0,-1,538,1247,0,0
-679,-223,0,0,0,0,0,0,0,0,0,-1,545,1247,0,0
-672,-223,-36.1036,0.134277,0,0,0,0,0,0,0,-1,552,1247,-36.1036,-0.134331
-665,-223,-35.7889,0.571777,0.112916,0.0545971,0.120167,0.207411,-0.0398974,0.666369,0.153313,0.0486462,559,1247,-35.7889,-0.57176
-658,-223,-35.0014,0.327881,0.0934193,0.0457263,0.0970065,0.169467,-0.0303217,0.664876,0.124324,0.0480287,566,1247,-35.0014,-0.327897
-651,-223,-34.2438,-0.431519,0,0,0,0,0,0,0,-1,573,1247,-34.2438,0.431463
-644,-223,-22.1894,1.03918,0,0,0,0,0,0,0,-1,580,1247,-22.1894,-1.03917
-637,-223,-22.1589,1.62329,0.04373,0.0202615,0.04237,0.0759606,-0.0119691,0.65031,0.0550654,0.0491639,587,1247,-22.1589,-1.62331
-630,-223,-22.0579,2.1626,0.0308149,0.013973,0.0300609,0.053612,-0.00882412,0.648834,0.0390168,0.0411553,594,1247,-22.0578,-2.16264
-623,-223,-21.9793,2.74756,0.0210727,0.00897689,0.0202295,0.0361389,-0.00608938,0.640145,0.0263579,0.0211303,601,1247,-21.9793,-2.74758
-616,-223,-21.9827,3.20117,0.014103,0.00467372,0.0118841,0.0221735,-0.0033968,0.596561,0.016035,0.0149748,608,1247,-21.9827,-3.20117
-609,-223,-21.9594,3.61365,0.0081064,0.00106349,0.00516689,0.0108377,-0.00166784,0.486283,0.00784046,0.0116596,615,1247,-21.9593,-3.61369
-602,-223,-21.9757,4.01489,0.00486126,-0.000302458,0.00163767,0.00533685,-0.000778043,0.282629,0.00384359,0.0146517,622,1247,-21.9757,-4.01493
-595,-223,-21.9767,4.47803,0.00392664,-0.0010238,0.00101155,0.00412536,-0.00122252,0.19398,0.00323567,0.0205044,629,1247,-21.9767,-4.47805
-588,-223,-22.0234,4.89844,0.00403783,-0.000987827,0.000974211,0.00422007,-0.00117007,0.184927,0.00327385,0.0234354,636,1247,-22.0234,-4.89839
-581,-223,-22.079,5.33118,0.00434536,-0.00049237,0.000891179,0.00450431,-0.000651316,0.176498,0.00324186,0.0218151,643,1247,-22.0791,-5.33117
-574,-223,-22.0092,5.82654,0.00437152,4.98675e-05,0.00123922,0.00470165,-0.000280257,0.260351,0.0032319,0.0236712,650,1247,-22.0092,-5.82659
-567,-223,-21.8406,6.4198,0.00440311,0.00063485,0.00179713,0.00512276,-8.47937e-05,0.380885,0.00344378,0.0377001,657,1247,-21.8406,-6.41984
-560,-223,-21.8596,7.03992,0,0,0,0,0,0,0,-1,664,1247,-21.8595,-7.03988
-553,-223,-11.4025,4.14722,0,0,0,0,0,0,0,-1,671,1247,-11.4025,-4.14719
-546,-223,-26.9034,-0.148682,0,0,0,0,0,0,0,-1,678,1247,-26.9034,0.14867
-539,-223,-31.3417,0.69519,0,0,0,0,0,0,0,-1,685,1247,-31.3418,-0.695224
-532,-223,-31.0642,0.671997,0,0,0,0,0,0,0,-1,692,1247,-31.0642,-0.672026
-525,-223,-31.4017,0.946045,0,0,0,0,0,0,0,-1,699,1247,-31.4017,-0.946074
-518,-223,-31.7519,1.32288,0,0,0,0,0,0,0,-1,706,1247,-31.7519,-1.32286
-511,-223,-31.8102,1.36841,0.00721363,0.00414864,-0.00429095,0.0102375,0.00112473,-0.613885,0.00648272,0.0414396,713,1247,-31.8102,-1.36837
-504,-223,-31.6895,1.24023,0.0089852,0.000630291,-0.00575135,0.0119161,-0.00230064,-0.471304,0.00881166,0.0407595,720,1247,-31.6895,-1.24022
-497,-223,0,0,0,0,0,0,0,0,0,-1,727,1247,0,0
-490,-223,0,0,0,0,0,0,0,0,0,-1,734,1247,0,0
-483,-223,0,0,0,0,0,0,0,0,0,-1,741,1247,0,0
-476,-223,0,0,0,0,0,0,0,0,0,-1,748,1247,0,0
-469,-223,0,0,0,0,0,0,0,0,0,-1,755,1247,0,0
-462,-223,0,0,0,0,0,0,0,0,0,-1,762,1247,0,0
-455,-223,0,0,0,0,0,0,0,0,0,-1,769,1247,0,0
-448,-223,0,0,0,0,0,0,0,0,0,-1,776,1247,0,0
-441,-223,0,0,0,0,0,0,0,0,0,-1,783,1247,0,0
-434,-223,0,0,0,0,0,0,0,0,0,-1,790,1247,0,0
-427,-223,0,0,0,0,0,0,0,0,0,-1,797,1247,0,0
-420,-223,0,0,0,0,0,0,0,0,0,-1,804,1247,0,0
-413,-223,0,0,0,0,0,0,0,0,0,-1,811,1247,0,0
-406,-223,0,0,0,0,0,0,0,0,0,-1,818,1247,0,0
-399,-223,0,0,0,0,0,0,0,0,0,-1,825,1247,0,0
-392,-223,0,0,0,0,0,0,0,0,0,-1,832,1247,0,0
-385,-223,0,0,0,0,0,0,0,0,0,-1,839,1247,0,0
-378,-223,0,0,0,0,0,0,0,0,0,-1,846,1247,0,0
-371,-223,0,0,0,0,0,0,0,0,0,-1,853,1247,0,0
-364,-223,0,0,0,0,0,0,0,0,0,-1,860,1247,0,0
-357,-223,0,0,0,0,0,0,0,0,0,-1,867,1247,0,0
-350,-223,0,0,0,0,0,0,0,0,0,-1,874,1247,0,0
-343,-223,0,0,0,0,0,0,0,0,0,-1,881,1247,0,0
-336,-223,0,0,0,0,0,0,0,0,0,-1,888,1247,0,0
-329,-223,0,0,0,0,0,0,0,0,0,-1,895,1247,0,0
-322,-223,0,0,0,0,0,0,0,0,0,-1,902,1247,0,0
-315,-223,0,0,0,0,0,0,0,0,0,-1,909,1247,0,0
-308,-223,0,0,0,0,0,0,0,0,0,-1,916,1247,0,0
-301,-223,0,0,0,0,0,0,0,0,0,-1,923,1247,0,0
-294,-223,0,0,0,0,0,0,0,0,0,-1,930,1247,0,0
-287,-223,0,0,0,0,0,0,0,0,0,-1,937,1247,0,0
-280,-223,0,0,0,0,0,0,0,0,0,-1,944,1247,0,0
-273,-223,0,0,0,0,0,0,0,0,0,-1,951,1247,0,0
-266,-223,0,0,0,0,0,0,0,0,0,-1,958,1247,0,0
-259,-223,0,0,0,0,0,0,0,0,0,-1,965,1247,0,0
-252,-223,0,0,0,0,0,0,0,0,0,-1,972,1247,0,0
-245,-223,0,0,0,0,0,0,0,0,0,-1,979,1247,0,0
-238,-223,0,0,0,0,0,0,0,0,0,-1,986,1247,0,0
-231,-223,0,0,0,0,0,0,0,0,0,-1,993,1247,0,0
-224,-223,0,0,0,0,0,0,0,0,0,-1,1000,1247,0,0
-217,-223,0,0,0,0,0,0,0,0,0,-1,1007,1247,0,0
-210,-223,0,0,0,0,0,0,0,0,0,-1,1014,1247,0,0
-203,-223,0,0,0,0,0,0,0,0,0,-1,1021,1247,0,0
-196,-223,0,0,0,0,0,0,0,0,0,-1,1028,1247,0,0
-189,-223,0,0,0,0,0,0,0,0,0,-1,1035,1247,0,0
-182,-223,0,0,0,0,0,0,0,0,0,-1,1042,1247,0,0
-175,-223,0,0,0,0,0,0,0,0,0,-1,1049,1247,0,0
-168,-223,0,0,0,0,0,0,0,0,0,-1,1056,1247,0,0
-161,-223,0,0,0,0,0,0,0,0,0,-1,1063,1247,0,0
-154,-223,0,0,0,0,0,0,0,0,0,-1,1070,1247,0,0
-147,-223,0,0,0,0,0,0,0,0,0,-1,1077,1247,0,0
-140,-223,0,0,0,0,0,0,0,0,0,-1,1084,1247,0,0
-133,-223,0,0,0,0,0,0,0,0,0,-1,1091,1247,0,0
-126,-223,0,0,0,0,0,0,0,0,0,-1,1098,1247,0,0
-119,-223,0,0,0,0,0,0,0,0,0,-1,1105,1247,0,0
-112,-223,0,0,0,0,0,0,0,0,0,-1,1112,1247,0,0
-105,-223,0,0,0,0,0,0,0,0,0,-1,1119,1247,0,0
-98,-223,0,0,0,0,0,0,0,0,0,-1,1126,1247,0,0
-91,-223,0,0,0,0,0,0,0,0,0,-1,1133,1247,0,0
-84,-223,0,0,0,0,0,0,0,0,0,-1,1140,1247,0,0
-77,-223,0,0,0,0,0,0,0,0,0,-1,1147,1247,0,0
-70,-223,0,0,0,0,0,0,0,0,0,-1,1154,1247,0,0
-63,-223,0,0,0,0,0,0,0,0,0,-1,1161,1247,0,0
-56,-223,0,0,0,0,0,0,0,0,0,-1,1168,1247,0,0
-49,-223,0,0,0,0,0,0,0,0,0,-1,1175,1247,0,0
-42,-223,0,0,0,0,0,0,0,0,0,-1,1182,1247,0,0
-35,-223,0,0,0,0,0,0,0,0,0,-1,1189,1247,0,0
-28,-223,0,0,0,0,0,0,0,0,0,-1,1196,1247,0,0
-21,-223,0,0,0,0,0,0,0,0,0,-1,1203,1247,0,0
-14,-223,0,0,0,0,0,0,0,0,0,-1,1210,1247,0,0
-7,-223,0,0,0,0,0,0,0,0,0,-1,1217,1247,0,0
0,-223,0,0,0,0,0,0,0,0,0,-1,1224,1247,0,0
7,-223,0,0,0,0,0,0,0,0,0,-1,1231,1247,0,0
14,-223,0,0,0,0,0,0,0,0,0,-1,1238,1247,0,0
21,-223,0,0,0,0,0,0,0,0,0,-1,1245,1247,0,0
28,-223,0,0,0,0,0,0,0,0,0,-1,1252,1247,0,0
35,-223,0,0,0,0,0,0,0,0,0,-1,1259,1247,0,0
42,-223,0,0,0,0,0,0,0,0,0,-1,1266,1247,0,0
49,-223,0,0,0,0,0,0,0,0,0,-1,1273,1247,0,0
56,-223,0,0,0,0,0,0,0,0,0,-1,1280,1247,0,0
63,-223,0,0,0,0,0,0,0,0,0,-1,1287,1247,0,0
70,-223,0,0,0,0,0,0,0,0,0,-1,1294,1247,0,0
77,-223,0,0,0,0,0,0,0,0,0,-1,1301,1247,0,0
84,-223,0,0,0,0,0,0,0,0,0,-1,1308,1247,0,0
91,-223,0,0,0,0,0,0,0,0,0,-1,1315,1247,0,0
98,-223,0,0,0,0,0,0,0,0,0,-1,1322,1247,0,0
105,-223,0,0,0,0,0,0,0,0,0,-1,1329,1247,0,0
112,-223,0,0,0,0,0,0,0,0,0,-1,1336,1247,0,0
119,-223,0,0,0,0,0,0,0,0,0,-1,1343,1247,0,0
126,-223,0,0,0,0,0,0,0,0,0,-1,1350,1247,0,0
133,-223,0,0,0,0,0,0,0,0,0,-1,1357,1247,0,0
140,-223,0,0,0,0,0,0,0,0,0,-1,1364,1247,0,0
147,-223,0,0,0,0,0,0,0,0,0,-1,1371,1247,0,0
154,-223,0,0,0,0,0,0,0,0,0,-1,1378,1247,0,0
161,-223,0,0,0,0,0,0,0,0,0,-1,1385,1247,0,0
168,-223,0,0,0,0,0,0,0,0,0,-1,1392,1247,0,0
175,-223,0,0,0,0,0,0,0,0,0,-1,1399,1247,0,0
182,-223,0,0,0,0,0,0,0,0,0,-1,1406,1247,0,0
189,-223,0,0,0,0,0,0,0,0,0,-1,1413,1247,0,0
196,-223,0,0,0,0,0,0,0,0,0,-1,1420,1247,0,0
203,-223,0,0,0,0,0,0,0,0,0,-1,1427,1247,0,0
210,-223,0,0,0,0,0,0,0,0,0,-1,1434,1247,0,0
217,-223,0,0,0,0,0,0,0,0,0,-1,1441,1247,0,0
224,-223,0,0,0,0,0,0,0,0,0,-1,1448,1247,0,0
231,-223,0,0,0,0,0,0,0,0,0,-1,1455,1247,0,0
238,-223,0,0,0,0,0,0,0,0,0,-1,1462,1247,0,0
245,-223,0,0,0,0,0,0,0,0,0,-1,1469,1247,0,0
252,-223,0,0,0,0,0,0,0,0,0,-1,1476,1247,0,0
259,-223,0,0,0,0,0,0,0,0,0,-1,1483,1247,0,0
266,-223,0,0,0,0,0,0,0,0,0,-1,1490,1247,0,0
273,-223,0,0,0,0,0,0,0,0,0,-1,1497,1247,0,0
280,-223,0,0,0,0,0,0,0,0,0,-1,1504,1247,0,0
287,-223,0,0,0,0,0,0,0,0,0,-1,1511,1247,0,0
294,-223,0,0,0,0,0,0,0,0,0,-1,1518,1247,0,0
301,-223,0,0,0,0,0,0,0,0,0,-1,1525,1247,0,0
308,-223,0,0,0,0,0,0,0,0,0,-1,1532,1247,0,0
315,-223,0,0,0,0,0,0,0,0,0,-1,1539,1247,0,0
322,-223,0,0,0,0,0,0,0,0,0,-1,1546,1247,0,0
329,-223,0,0,0,0,0,0,0,0,0,-1,1553,1247,0,0
336,-223,0,0,0,0,0,0,0,0,0,-1,1560,1247,0,0
343,-223,0,0,0,0,0,0,0,0,0,-1,1567,1247,0,0
350,-223,0,0,0,0,0,0,0,0,0,-1,1574,1247,0,0
357,-223,0,0,0,0,0,0,0,0,0,-1,1581,1247,0,0
364,-223,0,0,0,0,0,0,0,0,0,-1,1588,1247,0,0
371,-223,0,0,0,0,0,0,0,0,0,-1,1595,1247,0,0
378,-223,0,0,0,0,0,0,0,0,0,-1,1602,1247,0,0
385,-223,0,0,0,0,0,0,0,0,0,-1,1609,1247,0,0
392,-223,0,0,0,0,0,0,0,0,0,-1,1616,1247,0,0
399,-223,0,0,0,0,0,0,0,0,0,-1,1623,1247,0,0
406,-223,0,0,0,0,0,0,0,0,0,-1,1630,1247,0,0
413,-223,0,0,0,0,0,0,0,0,0,-1,1637,1247,0,0
420,-223,0,0,0,0,0,0,0,0,0,-1,1644,1247,0,0
427,-223,0,0,0,0,0,0,0,0,0,-1,1651,1247,0,0
434,-223,0,0,0,0,0,0,0,0,0,-1,1658,1247,0,0
441,-223,0,0,0,0,0,0,0,0,0,-1,1665,1247,0,0
448,-223,0,0,0,0,0,0,0,0,0,-1,1672,1247,0,0
455,-223,0,0,0,0,0,0,0,0,0,-1,1679,1247,0,0
462,-223,0,0,0,0,0,0,0,0,0,-1,1686,1247,0,0
469,-223,0,0,0,0,0,0,0,0,0,-1,1693,1247,0,0
476,-223,0,0,0,0,0,0,0,0,0,-1,1700,1247,0,0
483,-223,0,0,0,0,0,0,0,0,0,-1,1707,1247,0,0
490,-223,0,0,0,0,0,0,0,0,0,-1,1714,1247,0,0
497,-223,0,0,0,0,0,0,0,0,0,-1,1721,1247,0,0
504,-223,0,0,0,0,0,0,0,0,0,-1,1728,1247,0,0
511,-223,0,0,0,0,0,0,0,0,0,-1,1735,1247,0,0
518,-223,0,0,0,0,0,0,0,0,0,-1,1742,1247,0,0
525,-223,0,0,0,0,0,0,0,0,0,-1,1749,1247,0,0
532,-223,0,0,0,0,0,0,0,0,0,-1,1756,1247,0,0
539,-223,0,0,0,0,0,0,0,0,0,-1,1763,1247,0,0
546,-223,0,0,0,0,0,0,0,0,0,-1,1770,1247,0,0
553,-223,0,0,0,0,0,0,0,0,0,-1,1777,1247,0,0
560,-223,0,0,0,0,0,0,0,0,0,-1,1784,1247,0,0
567,-223,0,0,0,0,0,0,0,0,0,-1,1791,1247,0,0
574,-223,0,0,0,0,0,0,0,0,0,-1,1798,1247,0,0
581,-223,0,0,0,0,0,0,0,0,0,-1,1805,1247,0,0
588,-223,0,0,0,0,0,0,0,0,0,-1,1812,1247,0,0
595,-223,0,0,0,0,0,0,0,0,0,-1,1819,1247,0,0
602,-223,0,0,0,0,0,0,0,0,0,-1,1826,1247,0,0
609,-223,0,0,0,0,0,0,0,0,0,-1,1833,1247,0,0
616,-223,0,0,0,0,0,0,0,0,0,-1,1840,1247,0,0
623,-223,43.2843,2.81909,-0.000773857,0.00314957,0.000620694,0.00324542,-0.00086971,1.41758,0.00250437,0.036213,1847,1247,43.2843,-2.81914
630,-223,43.2933,2.83325,0.000481302,0.00205088,-3.02344e-05,0.00205147,0.000480719,-1.55154,0.00123889,0.0329178,1854,1247,43.2933,-2.83324
637,-223,43.3268,2.8573,0.00201614,0.000695036,-0.000919091,0.00248743,0.00022375,-0.473814,0.00158896,0.0290751,1861,1247,43.3267,-2.85734
644,-223,43.3868,2.80286,0.00321232,-0.000402768,-0.0014133,0.00369926,-0.000889702,-0.3318,0.00281009,0.0217789,1868,1247,43.3868,-2.80286
651,-223,43.4099,2.84558,0.00387256,-0.000816823,-0.00182451,0.0044988,-0.00144306,-0.330636,0.00357856,0.028642,1875,1247,43.41,-2.84559
658,-223,43.5364,2.93604,0,0,0,0,0,0,0,-1,1882,1247,43.5364,-2.93609
665,-223,43.864,2.94885,0,0,0,0,0,0,0,-1,1889,1247,43.8641,-2.94888
672,-223,42.2095,2.82239,0,0,0,0,0,0,0,-1,1896,1247,42.2094,-2.82233
679,-223,41.9637,2.87598,0,0,0,0,0,0,0,-1,1903,1247,41.9637,-2.87603
686,-223,34.6924,9.11646,0,0,0,0,0,0,0,-1,1910,1247,34.6924,-9.11648
693,-223,34.6523,8.78235,0.00331678,-0.00195657,-0.00115907,0.0035603,-0.00220008,-0.207084,0.00335652,0.0433624,1917,1247,34.6523,-8.78236
700,-223,34.5504,8.41321,0.00282438,-0.00149214,-0.000542733,0.00289157,-0.00155933,-0.12318,0.00260782,0.0216888,1924,1247,34.5504,-8.41315
707,-223,34.4724,8.04565,0.0026572,-0.00172951,0.000228058,0.00266903,-0.00174134,0.0518021,0.00256503,0.0171254,1931,1247,34.4724,-8.04561
714,-223,34.4719,7.68433,0.00154572,-0.00157466,0.000739635,0.00171216,-0.0017411,0.221344,0.00199376,0.0120707,1938,1247,34.4719,-7.68427
721,-223,34.4698,7.30859,0.000789026,-0.00110195,0.000993344,0.00121492,-0.00152784,0.405038,0.00158696,0.0152288,1945,1247,34.4698,-7.30855
728,-223,34.478,6.91687,0.000833413,-0.000294129,0.000709238,0.00117565,-0.000636369,0.449587,0.0010615,0.0171185,1952,1247,34.4781,-6.91682
735,-223,34.4736,6.56934,0.00166795,0.000751586,-7.23582e-05,0.00167363,0.000745907,-0.0783154,0.000968169,0.0159603,1959,1247,34.4736,-6.5693
742,-223,34.4156,6.22021,0.00326265,0.00208138,-0.0013083,0.00410746,0.00123658,-0.573368,0.00243321,0.0142168,1966,1247,34.4157,-6.22019
749,-223,34.3993,5.77649,0.00576696,0.00378805,-0.00308437,0.0080167,0.00153831,-0.630186,0.00491264,0.011907,1973,1247,34.3993,-5.77648
756,-223,34.3622,5.38281,0.00972946,0.0061526,-0.00584806,0.0140564,0.00182562,-0.637006,0.00882559,0.0148562,1980,1247,34.3621,-5.38278
763,-223,34.3596,5.07788,0.0156998,0.00940164,-0.00994112,0.0229787,0.00212275,-0.632011,0.0146629,0.020095,1987,1247,34.3596,-5.07788
770,-223,34.5886,4.35059,0.0242155,0.0139222,-0.0155952,0.0354913,0.00264634,-0.626018,0.0228299,0.043601,1994,1247,34.5886,-4.35059
777,-223,34.8286,3.58398,0,0,0,0,0,0,0,-1,2001,1247,34.8286,-3.58395
784,-223,35.1801,2.14172,0,0,0,0,0,0,0,-1,2008,1247,35.1801,-2.14178
791,-223,34.7136,2.92554,0,0,0,0,0,0,0,-1,2015,1247,34.7137,-2.92555
798,-223,0,0,0,0,0,0,0,0,0,-1,2022,1247,0,0
805,-223,0,0,0,0,0,0,0,0,0,-1,2029,1247,0,0
812,-223,0,0,0,0,0,0,0,0,0,-1,2036,1247,0,0
-700,-230,0,0,0,0,0,0,0,0,0,-1,524,1254,0,0
-693,-230,0,0,0,0,0,0,0,0,0,-1,531,1254,0,0
-686,-230,0,0,0,0,0,0,0,0,0,-1,538,1254,0,0
-679,-230,0,0,0,0,0,0,0,0,0,-1,545,1254,0,0
-672,-230,-38.958,-0.18689,0,0,0,0,0,0,0,-1,552,1254,-38.958,0.186881
-665,-230,-37.8358,0.191284,0.122129,0.0556907,0.143088,0.235803,-0.0579838,0.67134,0.179676,0.0491132,559,1254,-37.8357,-0.191255
-658,-230,-36.7369,0.591431,0.100712,0.0460984,0.113767,0.190403,-0.0435926,0.667613,0.143688,0.0486841,566,1254,-36.7369,-0.591385
-651,-230,-35.5125,1.14844,0,0,0,0,0,0,0,-1,573,1254,-35.5125,-1.14849
-644,-230,-22.1688,1.23816,0,0,0,0,0,0,0,-1,580,1254,-22.1688,-1.23818
-637,-230,-21.8596,1.76355,0.0472947,0.0189964,0.047375,0.0825884,-0.0162973,0.640284,0.0612187,0.0481516,587,1254,-21.8596,-1.76356
-630,-230,-21.7479,2.15979,0.0338588,0.012612,0.0327066,0.057624,-0.0111533,0.628368,0.042623,0.043882,594,1254,-21.7478,-2.15973
-623,-230,-21.5786,2.70386,0.0236408,0.00789012,0.0215013,0.0386636,-0.00713276,0.60985,0.0284529,0.0258065,601,1254,-21.5786,-2.70385
-616,-230,-21.5538,3.20349,0.0160519,0.00401207,0.0127692,0.024149,-0.00408508,0.565128,0.0176196,0.0151564,608,1254,-21.5538,-3.20347
-609,-230,-21.5123,3.62207,0.00955815,0.000713976,0.00566267,0.0123208,-0.00204869,0.453899,0.00897505,0.0114247,615,1254,-21.5122,-3.62207
-602,-230,-21.5125,4.03418,0.00578405,-0.000243498,0.00194356,0.00635639,-0.000815842,0.286388,0.00453408,0.0118465,622,1254,-21.5125,-4.03418
-595,-230,-21.5392,4.50244,0.004494,-0.000630743,0.00129689,0.0048035,-0.000940247,0.234269,0.00355741,0.0190166,629,1254,-21.5392,-4.50242
-588,-230,-21.5671,4.97803,0.00429079,-0.000439231,0.00125658,0.00460389,-0.000752327,0.244194,0.00334833,0.0274286,636,1254,-21.5671,-4.97809
-581,-230,-21.5933,5.41553,0.00444248,5.53843e-05,0.00116207,0.00473129,-0.000233419,0.243589,0.00323481,0.0252882,643,1254,-21.5933,-5.4155
-574,-230,-21.59,5.77808,0.00446966,0.000562545,0.00149162,0.004974,5.81951e-05,0.326055,0.00329678,0.019525,650,1254,-21.59,-5.77811
-567,-230,-21.412,6.29736,0.00455948,0.0011368,0.00206217,0.00552792,0.000168363,0.439051,0.00363046,0.0341044,657,1254,-21.4121,-6.29732
-560,-230,-21.2014,6.83728,0,0,0,0,0,0,0,-1,664,1254,-21.2014,-6.8373
-553,-230,-13.1939,4.9718,0,0,0,0,0,0,0,-1,671,1254,-13.1939,-4.97175
-546,-230,-15.23,0.453979,0,0,0,0,0,0,0,-1,678,1254,-15.23,-0.453996
-539,-230,-25.8232,0.512817,0,0,0,0,0,0,0,-1,685,1254,-25.8232,-0.512878
-532,-230,-21.1644,1.52966,0,0,0,0,0,0,0,-1,692,1254,-21.1644,-1.52969
-525,-230,-29.4775,0.731445,0,0,0,0,0,0,0,-1,699,1254,-29.4775,-0.731432
-518,-230,-31.6434,1.28711,0,0,0,0,0,0,0,-1,706,1254,-31.6434,-1.28707
-511,-230,-31.7001,1.14905,0.0074938,0.00449219,-0.00518916,0.0113948,0.000591166,-0.64463,0.00740736,0.0417363,713,1254,-31.7001,-1.14904
-504,-230,-31.5878,1.03406,0.00860637,0.00283088,-0.00701541,0.0133051,-0.00186787,-0.590153,0.00955377,0.0373195,720,1254,-31.5879,-1.034
-497,-230,0,0,0,0,0,0,0,0,0,-1,727,1254,0,0
-490,-230,0,0,0,0,0,0,0,0,0,-1,734,1254,0,0
-483,-230,0,0,0,0,0,0,0,0,0,-1,741,1254,0,0
-476,-230,0,0,0,0,0,0,0,0,0,-1,748,1254,0,0
-469,-230,0,0,0,0,0,0,0,0,0,-1,755,1254,0,0
-462,-230,0,0,0,0,0,0,0,0,0,-1,762,1254,0,0
-455,-230,0,0,0,0,0,0,0,0,0,-1,769,1254,0,0
-448,-230,0,0,0,0,0,0,0,0,0,-1,776,1254,0,0
-441,-230,0,0,0,0,0,0,0,0,0,-1,783,1254,0,0
-434,-230,0,0,0,0,0,0,0,0,0,-1,790,1254,0,0
-427,-230,0,0,0,0,0,0,0,0,0,-1,797,1254,0,0
-420,-230,0,0,0,0,0,0,0,0,0,-1,804,1254,0,0
-413,-230,0,0,0,0,0,0,0,0,0,-1,811,1254,0,0
-406,-230,0,0,0,0,0,0,0,0,0,-1,818,1254,0,0
-399,-230,0,0,0,0,0,0,0,0,0,-1,825,1254,0,0
-392,-230,0,0,0,0,0,0,0,0,0,-1,832,1254,0,0
-385,-230,0,0,0,0,0,0,0,0,0,-1,839,1254,0,0
-378,-230,0,0,0,0,0,0,0,0,0,-1,846,1254,0,0
-371,-230,0,0,0,0,0,0,0,0,0,-1,853,1254,0,0
-364,-230,0,0,0,0,0,0,0,0,0,-1,860,1254,0,0
-357,-230,0,0,0,0,0,0,0,0,0,-1,867,1254,0,0
-350,-230,0,0,0,0,0,0,0,0,0,-1,874,1254,0,0
-343,-230,0,0,0,0,0,0,0,0,0,-1,881,1254,0,0
-336,-230,0,0,0,0,0,0,0,0,0,-1,888,1254,0,0
-329,-230,0,0,0,0,0,0,0,0,0,-1,895,1254,0,0
-322,-230,0,0,0,0,0,0,0,0,0,-1,902,1254,0,0
-315,-230,0,0,0,0,0,0,0,0,0,-1,909,1254,0,0
-308,-230,0,0,0,0,0,0,0,0,0,-1,916,1254,0,0
-301,-230,0,0,0,0,0,0,0,0,0,-1,923,1254,0,0
-294,-230,0,0,0,0,0,0,0,0,0,-1,930,1254,0,0
-287,-230,0,0,0,0,0,0,0,0,0,-1,937,1254,0,0
-280,-230,0,0,0,0,0,0,0,0,0,-1,944,1254,0,0
-273,-230,0,0,0,0,0,0,0,0,0,-1,951,1254,0,0
-266,-230,0,0,0,0,0,0,0,0,0,-1,958,1254,0,0
-259,-230,0,0,0,0,0,0,0,0,0,-1,965,1254,0,0
-252,-230,0,0,0,0,0,0,0,0,0,-1,972,1254,0,0
-245,-230,0,0,0,0,0,0,0,0,0,-1,979,1254,0,0
-238,-230,0,0,0,0,0,0,0,0,0,-1,986,1254,0,0
-231,-230,0,0,0,0,0,0,0,0,0,-1,993,1254,0,0
-224,-230,0,0,0,0,0,0,0,0,0,-1,1000,1254,0,0
-217,-230,0,0,0,0,0,0,0,0,0,-1,1007,1254,0,0
-210,-230,0,0,0,0,0,0,0,0,0,-1,1014,1254,0,0
-203,-230,0,0,0,0,0,0,0,0,0,-1,1021,1254,0,0
-196,-230,0,0,0,0,0,0,0,0,0,-1,1028,1254,0,0
-189,-230,0,0,0,0,0,0,0,0,0,-1,1035,1254,0,0
-182,-230,0,0,0,0,0,0,0,0,0,-1,1042,1254,0,0
-175,-230,0,0,0,0,0,0,0,0,0,-1,1049,1254,0,0
-168,-230,0,0,0,0,0,0,0,0,0,-1,1056,1254,0,0
-161,-230,0,0,0,0,0,0,0,0,0,-1,1063,1254,0,0
-154,-230,0,0,0,0,0,0,0,0,0,-1,1070,1254,0,0
-147,-230,0,0,0,0,0,0,0,0,0,-1,1077,1254,0,0
-140,-230,0,0,0,0,0,0,0,0,0,-1,1084,1254,0,0
-133,-230,0,0,0,0,0,0,0,0,0,-1,1091,1254,0,0
-126,-230,0,0,0,0,0,0,0,0,0,-1,1098,1254,0,0
-119,-230,0,0,0,0,0,0,0,0,0,-1,1105,1254,0,0
-112,-230,0,0,0,0,0,0,0,0,0,-1,1112,1254,0,0
-105,-230,0,0,0,0,0,0,0,0,0,-1,1119,1254,0,0
-98,-230,0,0,0,0,0,0,0,0,0,-1,1126,1254,0,0
-91,-230,0,0,0,0,0,0,0,0,0,-1,1133,1254,0,0
-84,-230,0,0,0,0,0,0,0,0,0,-1,1140,1254,0,0
-77,-230,0,0,0,0,0,0,0,0,0,-1,1147,1254,0,0
-70,-230,0,0,0,0,0,0,0,0,0,-1,1154,1254,0,0
-63,-230,0,0,0,0,0,0,0,0,0,-1,1161,1254,0,0
-56,-230,0,0,0,0,0,0,0,0,0,-1,1168,1254,0,0
-49,-230,0,0,0,0,0,0,0,0,0,-1,1175,1254,0,0
-42,-230,0,0,0,0,0,0,0,0,0,-1,1182,1254,0,0
-35,-230,0,0,0,0,0,0,0,0,0,-1,1189,1254,0,0
-28,-230,0,0,0,0,0,0,0,0,0,-1,1196,1254,0,0
-21,-230,0,0,0,0,0,0,0,0,0,-1,1203,1254,0,0
-14,-230,0,0,0,0,0,0,0,0,0,-1,1210,1254,0,0
-7,-230,0,0,0,0,0,0,0,0,0,-1,1217,1254,0,0
0,-230,0,0,0,0,0,0,0,0,0,-1,1224,1254,0,0
7,-230,0,0,0,0,0,0,0,0,0,-1,1231,1254,0,0
14,-230,0,0,0,0,0,0,0,0,0,-1,1238,1254,0,0
21,-230,0,0,0,0,0,0,0,0,0,-1,1245,1254,0,0
28,-230,0,0,0,0,0,0,0,0,0,-1,1252,1254,0,0
35,-230,0,0,0,0,0,0,0,0,0,-1,1259,1254,0,0
42,-230,0,0,0,0,0,0,0,0,0,-1,1266,1254,0,0
49,-230,0,0,0,0,0,0,0,0,0,-1,1273,1254,0,0
56,-230,0,0,0,0,0,0,0,0,0,-1,1280,1254,0,0
63,-230,0,0,0,0,0,0,0,0,0,-1,1287,1254,0,0
70,-230,0,0,0,0,0,0,0,0,0,-1,1294,1254,0,0
77,-230,0,0,0,0,0,0,0,0,0,-1,1301,1254,0,0
84,-230,0,0,0,0,0,0,0,0,0,-1,1308,1254,0,0
91,-230,0,0,0,0,0,0,0,0,0,-1,1315,1254,0,0
98,-230,0,0,0,0,0,0,0,0,0,-1,1322,1254,0,0
105,-230,0,0,0,0,0,0,0,0,0,-1,1329,1254,0,0
112,-230,0,0,0,0,0,0,0,0,0,-1,1336,1254,0,0
119,-230,0,0,0,0,0,0,0,0,0,-1,1343,1254,0,0
126,-230,0,0,0,0,0,0,0,0,0,-1,1350,1254,0,0
133,-230,0,0,0,0,0,0,0,0,0,-1,1357,1254,0,0
140,-230,0,0,0,0,0,0,0,0,0,-1,1364,1254,0,0
147,-230,0,0,0,0,0,0,0,0,0,-1,1371,1254,0,0
154,-230,0,0,0,0,0,0,0,0,0,-1,1378,1254,0,0
161,-230,0,0,0,0,0,0,0,0,0,-1,1385,1254,0,0
168,-230,0,0,0,0,0,0,0,0,0,-1,1392,1254,0,0
175,-230,0,0,0,0,0,0,0,0,0,-1,1399,1254,0,0
182,-230,0,0,0,0,0,0,0,0,0,-1,1406,1254,0,0
189,-230,0,0,0,0,0,0,0,0,0,-1,1413,1254,0,0
196,-230,0,0,0,0,0,0,0,0,0,-1,1420,1254,0,0
203,-230,0,0,0,0,0,0,0,0,0,-1,1427,1254,0,0
210,-230,0,0,0,0,0,0,0,0,0,-1,1434,1254,0,0
217,-230,0,0,0,0,0,0,0,0,0,-1,1441,1254,0,0
224,-230,0,0,0,0,0,0,0,0,0,-1,1448,1254,0,0
231,-230,0,0,0,0,0,0,0,0,0,-1,1455,1254,0,0
238,-230,0,0,0,0,0,0,0,0,0,-1,1462,1254,0,0
245,-230,0,0,0,0,0,0,0,0,0,-1,1469,1254,0,0
252,-230,0,0,0,0,0,0,0,0,0,-1,1476,1254,0,0
259,-230,0,0,0,0,0,0,0,0,0,-1,1483,1254,0,0
266,-230,0,0,0,0,0,0,0,0,0,-1,1490,1254,0,0
273,-230,0,0,0,0,0,0,0,0,0,-1,1497,1254,0,0
280,-230,0,0,0,0,0,0,0,0,0,-1,1504,1254,0,0
287,-230,0,0,0,0,0,0,0,0,0,-1,1511,1254,0,0
294,-230,0,0,0,0,0,0,0,0,0,-1,1518,1254,0,0
301,-230,0,0,0,0,0,0,0,0,0,-1,1525,1254,0,0
308,-230,0,0,0,0,0,0,0,0,0,-1,1532,1254,0,0
315,-230,0,0,0,0,0,0,0,0,0,-1,1539,1254,0,0
322,-230,0,0,0,0,0,0,0,0,0,-1,1546,1254,0,0
329,-230,0,0,0,0,0,0,0,0,0,-1,1553,1254,0,0
336,-230,0,0,0,0,0,0,0,0,0,-1,1560,1254,0,0
343,-230,0,0,0,0,0,0,0,0,0,-1,1567,1254,0,0
350,-230,0,0,0,0,0,0,0,0,0,-1,1574,1254,0,0
357,-230,0,0,0,0,0,0,0,0,0,-1,1581,1254,0,0
364,-230,0,0,0,0,0,0,0,0,0,-1,1588,1254,0,0
371,-230,0,0,0,0,0,0,0,0,0,-1,1595,1254,0,0
378,-230,0,0,0,0,0,0,0,0,0,-1,1602,1254,0,0
385,-230,0,0,0,0,0,0,0,0,0,-1,1609,1254,0,0
392,-230,0,0,0,0,0,0,0,0,0,-1,1616,1254,0,0
399,-230,0,0,0,0,0,0,0,0,0,-1,1623,1254,0,0
406,-230,0,0,0,0,0,0,0,0,0,-1,1630,1254,0,0
413,-230,0,0,0,0,0,0,0,0,0,-1,1637,1254,0,0
420,-230,0,0,0,0,0,0,0,0,0,-1,1644,1254,0,0
427,-230,0,0,0,0,0,0,0,0,0,-1,1651,1254,0,0
434,-230,0,0,0,0,0,0,0,0,0,-1,1658,1254,0,0
441,-230,0,0,0,0,0,0,0,0,0,-1,1665,1254,0,0
448,-230,0,0,0,0,0,0,0,0,0,-1,1672,1254,0,0
455,-230,0,0,0,0,0,0,0,0,0,-1,1679,1254,0,0
462,-230,0,0,0,0,0,0,0,0,0,-1,1686,1254,0,0
469,-230,0,0,0,0,0,0,0,0,0,-1,1693,1254,0,0
476,-230,0,0,0,0,0,0,0,0,0,-1,1700,1254,0,0
483,-230,0,0,0,0,0,0,0,0,0,-1,1707,1254,0,0
490,-230,0,0,0,0,0,0,0,0,0,-1,1714,1254,0,0
497,-230,0,0,0,0,0,0,0,0,0,-1,1721,1254,0,0
504,-230,0,0,0,0,0,0,0,0,0,-1,1728,1254,0,0
511,-230,0,0,0,0,0,0,0,0,0,-1,1735,1254,0,0
518,-230,0,0,0,0,0,0,0,0,0,-1,1742,1254,0,0
525,-230,0,0,0,0,0,0,0,0,0,-1,1749,1254,0,0
532,-230,0,0,0,0,0,0,0,0,0,-1,1756,1254,0,0
539,-230,0,0,0,0,0,0,0,0,0,-1,1763,1254,0,0
546,-230,0,0,0,0,0,0,0,0,0,-1,1770,1254,0,0
553,-230,0,0,0,0,0,0,0,0,0,-1,1777,1254,0,0
560,-230,0,0,0,0,0,0,0,0,0,-1,1784,1254,0,0
567,-230,0,0,0,0,0,0,0,0,0,-1,1791,1254,0,0
574,-230,0,0,0,0,0,0,0,0,0,-1,1798,1254,0,0
581,-230,0,0,0,0,0,0,0,0,0,-1,1805,1254,0,0
588,-230,0,0,0,0,0,0,0,0,0,-1,1812,1254,0,0
595,-230,0,0,0,0,0,0,0,0,0,-1,1819,1254,0,0
602,-230,0,0,0,0,0,0,0,0,0,-1,1826,1254,0,0
609,-230,0,0,0,0,0,0,0,0,0,-1,1833,1254,0,0
616,-230,43.3987,2.67114,-0.00197338,0.00481984,0.00022983,0.00482761,-0.00198115,1.53702,0.00404393,0.0354869,1840,1254,43.3987,-2.67115
623,-230,43.4784,2.69067,-0.000731667,0.00369045,0.000281837,0.00370834,-0.000749557,1.5074,0.00275626,0.0341236,1847,1254,43.4783,-2.69066
630,-230,43.4822,2.77502,0.000821059,0.00217501,-0.000106456,0.00218333,0.00081274,-1.49281,0.00127419,0.0300253,1854,1254,43.4822,-2.77503
637,-230,43.3809,2.80725,0.00250783,0.000431361,-0.000802885,0.00278206,0.000157134,-0.329129,0.00180461,0.0269392,1861,1254,43.3809,-2.80728
644,-230,43.3104,2.78259,0.00350579,-0.000676981,-0.00106848,0.00376292,-0.000934114,-0.236162,0.00287109,0.0213164,1868,1254,43.3104,-2.78254
651,-230,43.1517,2.57898,0.00396316,-0.00101577,-0.00139554,0.00432763,-0.00138024,-0.255465,0.00343877,0.0441186,1875,1254,43.1517,-2.57899
658,-230,42.9509,2.37354,0,0,0,0,0,0,0,-1,1882,1254,42.951,-2.37351
665,-230,42.8804,1.60742,0,0,0,0,0,0,0,-1,1889,1254,42.8803,-1.60736
672,-230,42.1173,2.45996,0,0,0,0,0,0,0,-1,1896,1254,42.1173,-2.46001
679,-230,27.9967,2.37708,0,0,0,0,0,0,0,-1,1903,1254,27.9967,-2.3771
686,-230,33.9392,9.01172,0,0,0,0,0,0,0,-1,1910,1254,33.9392,-9.01173
693,-230,34.0254,8.79773,0.00344632,-0.00211761,-0.00128439,0.0037285,-0.00239979,-0.216264,0.00356578,0.0447543,1917,1254,34.0254,-8.79776
700,-230,34.1176,8.49536,0.00284236,-0.0014198,-0.000647319,0.0029385,-0.00151594,-0.147448,0.00261512,0.0162941,1924,1254,34.1176,-8.49542
707,-230,34.0756,8.0863,0.00271826,-0.00155331,0.000191345,0.00272682,-0.00156187,0.0446756,0.00250634,0.0107793,1931,1254,34.0756,-8.08632
714,-230,34.0682,7.70007,0.00148802,-0.00135293,0.000698237,0.00165036,-0.00151526,0.228433,0.00182822,0.0131997,1938,1254,34.0682,-7.70007
721,-230,34.0703,7.31201,0.000764355,-0.000779698,0.000825267,0.00112241,-0.00113776,0.409359,0.00130492,0.0126965,1945,1254,34.0704,-7.31204
728,-230,34.0552,6.953,0.000731906,2.17827e-07,0.000515111,0.00099787,-0.000265746,0.476621,0.000769284,0.0138773,1952,1254,34.0552,-6.95303
735,-230,34.0427,6.59302,0.00141062,0.00100278,-0.000245138,0.00152557,0.000887834,-0.438466,0.000884723,0.014541,1959,1254,34.0427,-6.59304
742,-230,34.0225,6.17798,0.00281404,0.00229498,-0.0014603,0.0040377,0.00107133,-0.697455,0.00241524,0.01112,1966,1254,34.0224,-6.17793
749,-230,33.9956,5.76111,0.00518914,0.00400016,-0.00326765,0.00791594,0.00127336,-0.695416,0.00490821,0.0107861,1973,1254,33.9956,-5.76108
756,-230,33.9716,5.39392,0.00913128,0.00644916,-0.00621047,0.0141438,0.00143661,-0.679063,0.0089887,0.0159012,1980,1254,33.9715,-5.39388
763,-230,34.0625,4.92053,0.0152219,0.00988384,-0.0106532,0.0235353,0.00157046,-0.662655,0.0151938,0.0329413,1987,1254,34.0625,-4.92059
770,-230,34.3804,3.92078,0.0241421,0.0147861,-0.0169608,0.0370581,0.00186996,-0.650837,0.0241063,0.0459082,1994,1254,34.3804,-3.92078
777,-230,34.7516,3.17114,0,0,0,0,0,0,0,-1,2001,1254,34.7516,-3.17116
784,-230,35.8896,1.80334,0,0,0,0,0,0,0,-1,2008,1254,35.8897,-1.80338
791,-230,35.6028,2.20642,0,0,0,0,0,0,0,-1,2015,1254,35.6027,-2.2064
798,-230,0,0,0,0,0,0,0,0,0,-1,2022,1254,0,0
805,-230,0,0,0,0,0,0,0,0,0,-1,2029,1254,0,0
812,-230,0,0,0,0,0,0,0,0,0,-1,2036,1254,0,0
-700,-237,0,0,0,0,0,0,0,0,0,-1,524,1261,0,0
-693,-237,0,0,0,0,0,0,0,0,0,-1,531,1261,0,0
-686,-237,0,0,0,0,0,0,0,0,0,-1,538,1261,0,0
-679,-237,0,0,0,0,0,0,0,0,0,-1,545,1261,0,0
-672,-237,-35.8743,2.56006,0,0,0,0,0,0,0,-1,552,1261,-35.8742,-2.56004
-665,-237,-39.7905,-0.0915527,0,0,0,0,0,0,0,-1,559,1261,-39.7904,0.0915105
-658,-237,-38.6876,0.333374,0,0,0,0,0,0,0,-1,566,1261,-38.6876,-0.333364
-651,-237,-37.2526,1.15991,0,0,0,0,0,0,0,-1,573,1261,-37.2526,-1.15996
-644,-237,-22.7836,6.22681,0,0,0,0,0,0,0,-1,580,1261,-22.7836,-6.22677
-637,-237,-21.5558,1.75378,0,0,0,0,0,0,0,-1,587,1261,-21.5558,-1.75378
-630,-237,-21.3566,2.25903,0.0361575,0.0113379,0.0355031,0.0613572,-0.0138618,0.617265,0.0462235,0.0460811,594,1261,-21.3566,-2.25903
-623,-237,-21.0601,2.69446,0.0255477,0.00696005,0.0227408,0.0408205,-0.00831272,0.591412,0.0303662,0.0285831,601,1261,-21.06,-2.69441
-616,-237,-21.0534,3.20862,0.0174645,0.00350246,0.013555,0.0257306,-0.00476356,0.547604,0.0189423,0.0132755,608,1261,-21.0534,-3.2086
-609,-237,-21.0695,3.61682,0.0107968,0.000598886,0.00604777,0.0136083,-0.00221259,0.435157,0.00989252,0.0152446,615,1261,-21.0694,-3.61678
-602,-237,-21.0906,4.04504,0.00664354,-9.43622e-05,0.00225628,0.00732929,-0.000780116,0.29506,0.00516591,0.0120611,622,1261,-21.0906,-4.04502
-595,-237,-21.1329,4.5,0.0050801,-0.000285219,0.00161962,0.0055311,-0.000736223,0.271582,0.00395571,0.0159378,629,1261,-21.1329,-4.50003
-588,-237,-21.1298,4.98096,0.00455315,-4.82501e-05,0.00156606,0.00503557,-0.000530671,0.298824,0.0035472,0.0276107,636,1261,-21.1298,-4.98096
-581,-237,-21.1364,5.42285,0.00449125,0.000449824,0.00148093,0.00497582,-3.4746e-05,0.316226,0.00332885,0.0247208,643,1261,-21.1364,-5.42284
-574,-237,-21.1591,5.81848,0.00446489,0.000921235,0.00178111,0.00520538,0.000180749,0.394005,0.0034116,0.0151972,650,1261,-21.1591,-5.81845
-567,-237,-21.1142,6.30225,0.0045845,0.00147342,0.0023212,0.00582319,0.000234738,0.490195,0.00380629,0.0229366,657,1261,-21.1142,-6.30227
-560,-237,-20.9825,6.7196,0,0,0,0,0,0,0,-1,664,1261,-20.9825,-6.71961
-553,-237,-20.0021,6.77161,0,0,0,0,0,0,0,-1,671,1261,-20.0022,-6.77164
-546,-237,-11.192,1.14014,0,0,0,0,0,0,0,-1,678,1261,-11.192,-1.14011
-539,-237,-16.512,1.53455,0,0,0,0,0,0,0,-1,685,1261,-16.512,-1.53457
-532,-237,-29.7025,1.23621,0,0,0,0,0,0,0,-1,692,1261,-29.7025,-1.23618
-525,-237,-29.9117,0.259521,0,0,0,0,0,0,0,-1,699,1261,-29.9117,-0.259478
-518,-237,-31.5167,1.33826,0,0,0,0,0,0,0,-1,706,1261,-31.5166,-1.33822
-511,-237,-31.5441,1.17957,0.00759709,0.00318053,-0.00616822,0.0119404,-0.00116279,-0.613502,0.00837482,0.0438239,713,1261,-31.544,-1.1796
-504,-237,-31.5822,1.0498,0.00858791,0.00189928,-0.00822113,0.0141189,-0.00363173,-0.592223,0.0108281,0.0386538,720,1261,-31.5822,-1.0498
-497,-237,-31.544,1.00415,0.0101796,-0.000811688,-0.0102458,0.0163105,-0.00694265,-0.539235,0.0137836,0.0421269,727,1261,-31.544,-1.00413
-490,-237,0,0,0,0,0,0,0,0,0,-1,734,1261,0,0
-483,-237,0,0,0,0,0,0,0,0,0,-1,741,1261,0,0
-476,-237,0,0,0,0,0,0,0,0,0,-1,748,1261,0,0
-469,-237,0,0,0,0,0,0,0,0,0,-1,755,1261,0,0
-462,-237,0,0,0,0,0,0,0,0,0,-1,762,1261,0,0
-455,-237,0,0,0,0,0,0,0,0,0,-1,769,1261,0,0
-448,-237,0,0,0,0,0,0,0,0,0,-1,776,1261,0,0
-441,-237,0,0,0,0,0,0,0,0,0,-1,783,1261,0,0
-434,-237,0,0,0,0,0,0,0,0,0,-1,790,1261,0,0
-427,-237,0,0,0,0,0,0,0,0,0,-1,797,1261,0,0
-420,-237,0,0,0,0,0,0,0,0,0,-1,804,1261,0,0
-413,-237,0,0,0,0,0,0,0,0,0,-1,811,1261,0,0
-406,-237,0,0,0,0,0,0,0,0,0,-1,818,1261,0,0
-399,-237,0,0,0,0,0,0,0,0,0,-1,825,1261,0,0
-392,-237,0,0,0,0,0,0,0,0,0,-1,832,1261,0,0
-385,-237,0,0,0,0,0,0,0,0,0,-1,839,1261,0,0
-378,-237,0,0,0,0,0,0,0,0,0,-1,846,1261,0,0
-371,-237,0,0,0,0,0,0,0,0,0,-1,853,1261,0,0
-364,-237,0,0,0,0,0,0,0,0,0,-1,860,1261,0,0
-357,-237,0,0,0,0,0,0,0,0,0,-1,867,1261,0,0
-350,-237,0,0,0,0,0,0,0,0,0,-1,874,1261,0,0
-343,-237,0,0,0,0,0,0,0,0,0,-1,881,1261,0,0
-336,-237,0,0,0,0,0,0,0,0,0,-1,888,1261,0,0
-329,-237,0,0,0,0,0,0,0,0,0,-1,895,1261,0,0
-322,-237,0,0,0,0,0,0,0,0,0,-1,902,1261,0,0
-315,-237,0,0,0,0,0,0,0,0,0,-1,909,1261,0,0
-308,-237,0,0,0,0,0,0,0,0,0,-1,916,1261,0,0
-301,-237,0,0,0,0,0,0,0,0,0,-1,923,1261,0,0
-294,-237,0,0,0,0,0,0,0,0,0,-1,930,1261,0,0
-287,-237,0,0,0,0,0,0,0,0,0,-1,937,1261,0,0
-280,-237,0,0,0,0,0,0,0,0,0,-1,944,1261,0,0
-273,-237,0,0,0,0,0,0,0,0,0,-1,951,1261,0,0
-266,-237,0,0,0,0,0,0,0,0,0,-1,958,1261,0,0
-259,-237,0,0,0,0,0,0,0,0,0,-1,965,1261,0,0
-252,-237,0,0,0,0,0,0,0,0,0,-1,972,1261,0,0
-245,-237,0,0,0,0,0,0,0,0,0,-1,979,1261,0,0
-238,-237,0,0,0,0,0,0,0,0,0,-1,986,1261,0,0
-231,-237,0,0,0,0,0,0,0,0,0,-1,993,1261,0,0
-224,-237,0,0,0,0,0,0,0,0,0,-1,1000,1261,0,0
-217,-237,0,0,0,0,0,0,0,0,0,-1,1007,1261,0,0
-210,-237,0,0,0,0,0,0,0,0,0,-1,1014,1261,0,0
-203,-237,0,0,0,0,0,0,0,0,0,-1,1021,1261,0,0
-196,-237,0,0,0,0,0,0,0,0,0,-1,1028,1261,0,0
-189,-237,0,0,0,0,0,0,0,0,0,-1,1035,1261,0,0
-182,-237,0,0,0,0,0,0,0,0,0,-1,1042,1261,0,0
-175,-237,0,0,0,0,0,0,0,0,0,-1,1049,1261,0,0
-168,-237,0,0,0,0,0,0,0,0,0,-1,1056,1261,0,0
-161,-237,0,0,0,0,0,0,0,0,0,-1,1063,1261,0,0
-154,-237,0,0,0,0,0,0,0,0,0,-1,1070,1261,0,0
-147,-237,0,0,0,0,0,0,0,0,0,-1,1077,1261,0,0
-140,-237,0,0,0,0,0,0,0,0,0,-1,1084,1261,0,0
-133,-237,0,0,0,0,0,0,0,0,0,-1,1091,1261,0,0
-126,-237,0,0,0,0,0,0,0,0,0,-1,1098,1261,0,0
-119,-237,0,0,0,0,0,0,0,0,0,-1,1105,1261,0,0
-112,-237,0,0,0,0,0,0,0,0,0,-1,1112,1261,0,0
-105,-237,0,0,0,0,0,0,0,0,0,-1,1119,1261,0,0
-98,-237,0,0,0,0,0,0,0,0,0,-1,1126,1261,0,0
-91,-237,0,0,0,0,0,0,0,0,0,-1,1133,1261,0,0
-84,-237,0,0,0,0,0,0,0,0,0,-1,1140,1261,0,0
-77,-237,0,0,0,0,0,0,0,0,0,-1,1147,1261,0,0
-70,-237,0,0,0,0,0,0,0,0,0,-1,1154,1261,0,0
-63,-237,0,0,0,0,0,0,0,0,0,-1,1161,1261,0,0
-56,-237,0,0,0,0,0,0,0,0,0,-1,1168,1261,0,0
-49,-237,0,0,0,0,0,0,0,0,0,-1,1175,1261,0,0
-42,-237,0,0,0,0,0,0,0,0,0,-1,1182,1261,0,0
-35,-237,0,0,0,0,0,0,0,0,0,-1,1189,1261,0,0
-28,-237,0,0,0,0,0,0,0,0,0,-1,1196,1261,0,0
-21,-237,0,0,0,0,0,0,0,0,0,-1,1203,1261,0,0
-14,-237,0,0,0,0,0,0,0,0,0,-1,1210,1261,0,0
-7,-237,0,0,0,0,0,0,0,0,0,-1,1217,1261,0,0
0,-237,0,0,0,0,0,0,0,0,0,-1,1224,1261,0,0
7,-237,0,0,0,0,0,0,0,0,0,-1,1231,1261,0,0
14,-237,0,0,0,0,0,0,0,0,0,-1,1238,1261,0,0
21,-237,0,0,0,0,0,0,0,0,0,-1,1245,1261,0,0
28,-237,0,0,0,0,0,0,0,0,0,-1,1252,1261,0,0
35,-237,0,0,0,0,0,0,0,0,0,-1,1259,1261,0,0
42,-237,0,0,0,0,0,0,0,0,0,-1,1266,1261,0,0
49,-237,0,0,0,0,0,0,0,0,0,-1,1273,1261,0,0
56,-237,0,0,0,0,0,0,0,0,0,-1,1280,1261,0,0
63,-237,0,0,0,0,0,0,0,0,0,-1,1287,1261,0,0
70,-237,0,0,0,0,0,0,0,0,0,-1,1294,1261,0,0
77,-237,0,0,0,0,0,0,0,0,0,-1,1301,1261,0,0
84,-237,0,0,0,0,0,0,0,0,0,-1,1308,1261,0,0
91,-237,0,0,0,0,0,0,0,0,0,-1,1315,1261,0,0
98,-237,0,0,0,0,0,0,0,0,0,-1,1322,1261,0,0
105,-237,0,0,0,0,0,0,0,0,0,-1,1329,1261,0,0
112,-237,0,0,0,0,0,0,0,0,0,-1,1336,1261,0,0
119,-237,0,0,0,0,0,0,0,0,0,-1,1343,1261,0,0
126,-237,0,0,0,0,0,0,0,0,0,-1,1350,1261,0,0
133,-237,0,0,0,0,0,0,0,0,0,-1,1357,1261,0,0
140,-237,0,0,0,0,0,0,0,0,0,-1,1364,1261,0,0
147,-237,0,0,0,0,0,0,0,0,0,-1,1371,1261,0,0
154,-237,0,0,0,0,0,0,0,0,0,-1,1378,1261,0,0
161,-237,0,0,0,0,0,0,0,0,0,-1,1385,1261,0,0
168,-237,0,0,0,0,0,0,0,0,0,-1,1392,1261,0,0
175,-237,0,0,0,0,0,0,0,0,0,-1,1399,1261,0,0
182,-237,0,0,0,0,0,0,0,0,0,-1,1406,1261,0,0
189,-237,0,0,0,0,0,0,0,0,0,-1,1413,1261,0,0
196,-237,0,0,0,0,0,0,0,0,0,-1,1420,1261,0,0
203,-237,0,0,0,0,0,0,0,0,0,-1,1427,1261,0,0
210,-237,0,0,0,0,0,0,0,0,0,-1,1434,1261,0,0
217,-237,0,0,0,0,0,0,0,0,0,-1,1441,1261,0,0
224,-237,0,0,0,0,0,0,0,0,0,-1,1448,1261,0,0
231,-237,0,0,0,0,0,0,0,0,0,-1,1455,1261,0,0
238,-237,0,0,0,0,0,0,0,0,0,-1,1462,1261,0,0
245,-237,0,0,0,0,0,0,0,0,0,-1,1469,1261,0,0
252,-237,0,0,0,0,0,0,0,0,0,-1,1476,1261,0,0
259,-237,0,0,0,0,0,0,0,0,0,-1,1483,1261,0,0
266,-237,0,0,0,0,0,0,0,0,0,-1,1490,1261,0,0
273,-237,0,0,0,0,0,0,0,0,0,-1,1497,1261,0,0
280,-237,0,0,0,0,0,0,0,0,0,-1,1504,1261,0,0
287,-237,0,0,0,0,0,0,0,0,0,-1,1511,1261,0,0
294,-237,0,0,0,0,0,0,0,0,0,-1,1518,1261,0,0
301,-237,0,0,0,0,0,0,0,0,0,-1,1525,1261,0,0
308,-237,0,0,0,0,0,0,0,0,0,-1,1532,1261,0,0
315,-237,0,0,0,0,0,0,0,0,0,-1,1539,1261,0,0
322,-237,0,0,0,0,0,0,0,0,0,-1,1546,1261,0,0
329,-237,0,0,0,0,0,0,0,0,0,-1,1553,1261,0,0
336,-237,0,0,0,0,0,0,0,0,0,-1,1560,1261,0,0
343,-237,0,0,0,0,0,0,0,0,0,-1,1567,1261,0,0
350,-237,0,0,0,0,0,0,0,0,0,-1,1574,1261,0,0
357,-237,0,0,0,0,0,0,0,0,0,-1,1581,1261,0,0
364,-237,0,0,0,0,0,0,0,0,0,-1,1588,1261,0,0
371,-237,0,0,0,0,0,0,0,0,0,-1,1595,1261,0,0
378,-237,0,0,0,0,0,0,0,0,0,-1,1602,1261,0,0
385,-237,0,0,0,0,0,0,0,0,0,-1,1609,1261,0,0
392,-237,0,0,0,0,0,0,0,0,0,-1,1616,1261,0,0
399,-237,0,0,0,0,0,0,0,0,0,-1,1623,1261,0,0
406,-237,0,0,0,0,0,0,0,0,0,-1,1630,1261,0,0
413,-237,0,0,0,0,0,0,0,0,0,-1,1637,1261,0,0
420,-237,0,0,0,0,0,0,0,0,0,-1,1644,1261,0,0
427,-237,0,0,0,0,0,0,0,0,0,-1,1651,1261,0,0
434,-237,0,0,0,0,0,0,0,0,0,-1,1658,1261,0,0
441,-237,0,0,0,0,0,0,0,0,0,-1,1665,1261,0,0
448,-237,0,0,0,0,0,0,0,0,0,-1,1672,1261,0,0
455,-237,0,0,0,0,0,0,0,0,0,-1,1679,1261,0,0
462,-237,0,0,0,0,0,0,0,0,0,-1,1686,1261,0,0
469,-237,0,0,0,0,0,0,0,0,0,-1,1693,1261,0,0
476,-237,0,0,0,0,0,0,0,0,0,-1,1700,1261,0,0
483,-237,0,0,0,0,0,0,0,0,0,-1,1707,1261,0,0
490,-237,0,0,0,0,0,0,0,0,0,-1,1714,1261,0,0
497,-237,0,0,0,0,0,0,0,0,0,-1,1721,1261,0,0
504,-237,0,0,0,0,0,0,0,0,0,-1,1728,1261,0,0
511,-237,0,0,0,0,0,0,0,0,0,-1,1735,1261,0,0
518,-237,0,0,0,0,0,0,0,0,0,-1,1742,1261,0,0
525,-237,0,0,0,0,0,0,0,0,0,-1,1749,1261,0,0
532,-237,0,0,0,0,0,0,0,0,0,-1,1756,1261,0,0
539,-237,0,0,0,0,0,0,0,0,0,-1,1763,1261,0,0
546,-237,0,0,0,0,0,0,0,0,0,-1,1770,1261,0,0
553,-237,0,0,0,0,0,0,0,0,0,-1,1777,1261,0,0
560,-237,0,0,0,0,0,0,0,0,0,-1,1784,1261,0,0
567,-237,0,0,0,0,0,0,0,0,0,-1,1791,1261,0,0
574,-237,0,0,0,0,0,0,0,0,0,-1,1798,1261,0,0
581,-237,0,0,0,0,0,0,0,0,0,-1,1805,1261,0,0
588,-237,0,0,0,0,0,0,0,0,0,-1,1812,1261,0,0
595,-237,0,0,0,0,0,0,0,0,0,-1,1819,1261,0,0
602,-237,0,0,0,0,0,0,0,0,0,-1,1826,1261,0,0
609,-237,0,0,0,0,0,0,0,0,0,-1,1833,1261,0,0
616,-237,43.444,2.75415,-0.00175201,0.00520643,0.000199554,0.00521214,-0.00175773,1.54215,0.00418556,0.0369495,1840,1261,43.4439,-2.75419
623,-237,43.5477,2.79309,9.75746e-05,0.00364945,0.000855708,0.00384486,-9.78302e-05,1.34629,0.00259646,0.033651,1847,1261,43.5477,-2.79305
630,-237,43.4413,2.80408,0.00206262,0.00170431,0.000917659,0.00281845,0.000948483,0.688998,0.00165597,0.0262003,1854,1261,43.4413,-2.80408
637,-237,43.2681,2.75769,0.00375048,-0.000178547,0.000353832,0.00378209,-0.000210157,0.0891007,0.00259428,0.0209934,1861,1261,43.2681,-2.75773
644,-237,43.1278,2.6012,0.00433302,-0.0010801,-1.50743e-05,0.00433306,-0.00108014,-0.00278475,0.00330807,0.0408923,1868,1261,43.1278,-2.60122
651,-237,42.9169,2.0575,0.0044764,-0.00128926,-0.000483525,0.00451667,-0.00132953,-0.0830895,0.00353855,0.0479249,1875,1261,42.9169,-2.05745
658,-237,42.5785,1.64978,0,0,0,0,0,0,0,-1,1882,1261,42.5785,-1.64984
665,-237,42.3453,1.52649,0,0,0,0,0,0,0,-1,1889,1261,42.3454,-1.52646
672,-237,42.2577,1.25232,0,0,0,0,0,0,0,-1,1896,1261,42.2577,-1.25234
679,-237,23.1501,7.37488,0,0,0,0,0,0,0,-1,1903,1261,23.1502,-7.37493
686,-237,33.4905,9.29895,0,0,0,0,0,0,0,-1,1910,1261,33.4904,-9.29893
693,-237,33.5498,8.89539,0.00361137,-0.00222711,-0.00153976,0.00399255,-0.0026083,-0.242683,0.00383884,0.0481993,1917,1261,33.5499,-8.89538
700,-237,33.6874,8.52576,0.00287409,-0.00123641,-0.000881276,0.00305506,-0.00141739,-0.202539,0.00263924,0.0132671,1924,1261,33.6874,-8.52581
707,-237,33.6943,8.11926,0.00279734,-0.00121683,-6.8928e-06,0.00279736,-0.00121684,-0.00171711,0.00237672,0.0108965,1931,1261,33.6943,-8.11924
714,-237,33.6719,7.70764,0.00149516,-0.000958801,0.000508564,0.00159638,-0.00106002,0.196465,0.00154406,0.0146638,1938,1261,33.6719,-7.70767
721,-237,33.6249,7.33398,0.000807533,-0.00035806,0.000581147,0.00104777,-0.000598297,0.391991,0.000962094,0.0157057,1945,1261,33.6248,-7.33405
728,-237,33.6558,6.9552,0.000687756,0.000375698,0.000295534,0.00086592,0.000197533,0.542517,0.000523997,0.0136757,1952,1261,33.6558,-6.95522
735,-237,33.6554,6.55981,0.00118009,0.00132251,-0.00040165,0.00165922,0.000843391,-0.873133,0.000957994,0.0180029,1959,1261,33.6554,-6.55986
742,-237,33.6272,6.17065,0.00239464,0.00259488,-0.00159039,0.0040883,0.000901221,-0.816834,0.00248032,0.0143084,1966,1261,33.6272,-6.1706
749,-237,33.5736,5.80066,0.00466971,0.00434031,-0.00344541,0.00795436,0.00105566,-0.761515,0.00498839,0.0101083,1973,1261,33.5736,-5.80072
756,-237,33.5581,5.42139,0.00864803,0.00696071,-0.00661338,0.0144713,0.00113739,-0.721956,0.00929167,0.0169283,1980,1261,33.5581,-5.42133
763,-237,33.4747,4.91882,0.0149974,0.0107482,-0.0115163,0.0245834,0.00116212,-0.69418,0.0160156,0.0334497,1987,1261,33.4747,-4.91885
770,-237,34.084,3.37915,0.0246034,0.0163575,-0.0186884,0.0396182,0.0013426,-0.67683,0.0259762,0.0447048,1994,1261,34.084,-3.37919
777,-237,34.5712,2.198,0,0,0,0,0,0,0,-1,2001,1261,34.5711,-2.19801
784,-237,36.3441,1.68591,0,0,0,0,0,0,0,-1,2008,1261,36.3441,-1.68592
791,-237,32.3025,6.03235,0,0,0,0,0,0,0,-1,2015,1261,32.3025,-6.03229
798,-237,0,0,0,0,0,0,0,0,0,-1,2022,1261,0,0
805,-237,0,0,0,0,0,0,0,0,0,-1,2029,1261,0,0
812,-237,0,0,0,0,0,0,0,0,0,-1,2036,1261,0,0
-700,-244,0,0,0,0,0,0,0,0,0,-1,524,1268,0,0
-693,-244,0,0,0,0,0,0,0,0,0,-1,531,1268,0,0
-686,-244,0,0,0,0,0,0,0,0,0,-1,538,1268,0,0
-679,-244,0,0,0,0,0,0,0,0,0,-1,545,1268,0,0
-672,-244,-20.2578,2.98242,0,0,0,0,0,0,0,-1,552,1268,-20.2577,-2.98243
-665,-244,-23.669,1.3938,0,0,0,0,0,0,0,-1,559,1268,-23.669,-1.39374
-658,-244,-23.6096,2.91895,0,0,0,0,0,0,0,-1,566,1268,-23.6096,-2.91896
-651,-244,-23.5394,4.41724,0,0,0,0,0,0,0,-1,573,1268,-23.5394,-4.41721
-644,-244,-23.4006,5.97266,0,0,0,0,0,0,0,-1,580,1268,-23.4006,-5.97263
-637,-244,-21.2126,1.89587,0,0,0,0,0,0,0,-1,587,1268,-21.2126,-1.89585
-630,-244,-21.0861,2.37109,0.038689,0.0108896,0.0366361,0.0639735,-0.0143949,0.604087,0.0481697,0.0466106,594,1268,-21.0861,-2.3711
-623,-244,-20.9411,2.85693,0.0269722,0.00664498,0.0231976,0.042135,-0.00851782,0.578928,0.0313178,0.0344907,601,1268,-20.9411,-2.85698
-616,-244,-20.6213,3.23438,0.0182696,0.00340658,0.0137912,0.0265041,-0.00482792,0.538273,0.0194792,0.0174455,608,1268,-20.6213,-3.23443
-609,-244,-20.6418,3.6217,0.0112808,0.000650243,0.00624089,0.0141631,-0.0022321,0.432663,0.0102673,0.0151022,615,1268,-20.6418,-3.62165
-602,-244,-20.6664,4.05371,0.00696523,9.65451e-05,0.00248022,0.00776718,-0.00070541,0.31273,0.00542856,0.0154477,622,1268,-20.6664,-4.05368
-595,-244,-20.681,4.51978,0.00530636,-5.12787e-05,0.0018433,0.00587928,-0.0006242,0.301348,0.00414329,0.0171066,629,1268,-20.681,-4.51977
-588,-244,-20.6807,4.97156,0.00460607,0.000104116,0.00175226,0.00520769,-0.000497508,0.33073,0.00364895,0.0208949,636,1268,-20.6807,-4.9716
-581,-244,-20.681,5.39856,0.00439817,0.000536357,0.00167654,0.00502445,-8.99192e-05,0.357501,0.00338001,0.0170708,643,1268,-20.681,-5.39858
-574,-244,-20.7085,5.87183,0.00435616,0.000952899,0.00192891,0.00522673,8.23275e-05,0.423959,0.00345737,0.0123705,650,1268,-20.7085,-5.87184
-567,-244,-20.7006,6.31494,0.00456815,0.001557,0.00245668,0.0059439,0.000181247,0.510491,0.00390359,0.0124635,657,1268,-20.7007,-6.31494
-560,-244,-20.6299,6.76721,0.00494171,0.00223623,0.00197192,0.00598028,0.00119766,0.484764,0.00365366,0.0346581,664,1268,-20.6299,-6.76715
-553,-244,-20.5138,7.24731,0,0,0,0,0,0,0,-1,671,1268,-20.5138,-7.24734
-546,-244,-11.2686,4.41772,0,0,0,0,0,0,0,-1,678,1268,-11.2686,-4.41767
-539,-244,-12.8706,0.3302,0,0,0,0,0,0,0,-1,685,1268,-12.8706,-0.330156
-532,-244,-18.1502,0.816528,0,0,0,0,0,0,0,-1,692,1268,-18.1502,-0.816514
-525,-244,-29.6356,-0.133789,0,0,0,0,0,0,0,-1,699,1268,-29.6356,0.133756
-518,-244,-29.9055,0.267944,0,0,0,0,0,0,0,-1,706,1268,-29.9055,-0.267898
-511,-244,-31.539,1.35071,0,0,0,0,0,0,0,-1,713,1268,-31.539,-1.35074
-504,-244,-31.6208,1.19751,0,0,0,0,0,0,0,-1,720,1268,-31.6208,-1.19746
-497,-244,-31.6443,1.18213,0,0,0,0,0,0,0,-1,727,1268,-31.6443,-1.18211
-490,-244,0,0,0,0,0,0,0,0,0,-1,734,1268,0,0
-483,-244,0,0,0,0,0,0,0,0,0,-1,741,1268,0,0
-476,-244,0,0,0,0,0,0,0,0,0,-1,748,1268,0,0
-469,-244,0,0,0,0,0,0,0,0,0,-1,755,1268,0,0
-462,-244,0,0,0,0,0,0,0,0,0,-1,762,1268,0,0
-455,-244,0,0,0,0,0,0,0,0,0,-1,769,1268,0,0
-448,-244,0,0,0,0,0,0,0,0,0,-1,776,1268,0,0
-441,-244,0,0,0,0,0,0,0,0,0,-1,783,1268,0,0
-434,-244,0,0,0,0,0,0,0,0,0,-1,790,1268,0,0
-427,-244,0,0,0,0,0,0,0,0,0,-1,797,1268,0,0
-420,-244,0,0,0,0,0,0,0,0,0,-1,804,1268,0,0
-413,-244,0,0,0,0,0,0,0,0,0,-1,811,1268,0,0
-406,-244,0,0,0,0,0,0,0,0,0,-1,818,1268,0,0
-399,-244,0,0,0,0,0,0,0,0,0,-1,825,1268,0,0
-392,-244,0,0,0,0,0,0,0,0,0,-1,832,1268,0,0
-385,-244,0,0,0,0,0,0,0,0,0,-1,839,1268,0,0
-378,-244,0,0,0,0,0,0,0,0,0,-1,846,1268,0,0
-371,-244,0,0,0,0,0,0,0,0,0,-1,853,1268,0,0
-364,-244,0,0,0,0,0,0,0,0,0,-1,860,1268,0,0
-357,-244,0,0,0,0,0,0,0,0,0,-1,867,1268,0,0
-350,-244,0,0,0,0,0,0,0,0,0,-1,874,1268,0,0
-343,-244,0,0,0,0,0,0,0,0,0,-1,881,1268,0,0
-336,-244,0,0,0,0,0,0,0,0,0,-1,888,1268,0,0
-329,-244,0,0,0,0,0,0,0,0,0,-1,895,1268,0,0
-322,-244,0,0,0,0,0,0,0,0,0,-1,902,1268,0,0
-315,-244,0,0,0,0,0,0,0,0,0,-1,909,1268,0,0
-308,-244,0,0,0,0,0,0,0,0,0,-1,916,1268,0,0
-301,-244,0,0,0,0,0,0,0,0,0,-1,923,1268,0,0
-294,-244,0,0,0,0,0,0,0,0,0,-1,930,1268,0,0
-287,-244,0,0,0,0,0,0,0,0,0,-1,937,1268,0,0
-280,-244,0,0,0,0,0,0,0,0,0,-1,944,1268,0,0
-273,-244,0,0,0,0,0,0,0,0,0,-1,951,1268,0,0
-266,-244,0,0,0,0,0,0,0,0,0,-1,958,1268,0,0
-259,-244,0,0,0,0,0,0,0,0,0,-1,965,1268,0,0
-252,-244,0,0,0,0,0,0,0,0,0,-1,972,1268,0,0
-245,-244,0,0,0,0,0,0,0,0,0,-1,979,1268,0,0
-238,-244,0,0,0,0,0,0,0,0,0,-1,986,1268,0,0
-231,-244,0,0,0,0,0,0,0,0,0,-1,993,1268,0,0
-224,-244,0,0,0,0,0,0,0,0,0,-1,1000,1268,0,0
-217,-244,0,0,0,0,0,0,0,0,0,-1,1007,1268,0,0
-210,-244,0,0,0,0,0,0,0,0,0,-1,1014,1268,0,0
-203,-244,0,0,0,0,0,0,0,0,0,-1,1021,1268,0,0
-196,-244,0,0,0,0,0,0,0,0,0,-1,1028,1268,0,0
-189,-244,0,0,0,0,0,0,0,0,0,-1,1035,1268,0,0
-182,-244,0,0,0,0,0,0,0,0,0,-1,1042,1268,0,0
-175,-244,0,0,0,0,0,0,0,0,0,-1,1049,1268,0,0
-168,-244,0,0,0,0,0,0,0,0,0,-1,1056,1268,0,0
-161,-244,0,0,0,0,0,0,0,0,0,-1,1063,1268,0,0
-154,-244,0,0,0,0,0,0,0,0,0,-1,1070,1268,0,0
-147,-244,0,0,0,0,0,0,0,0,0,-1,1077,1268,0,0
-140,-244,0,0,0,0,0,0,0,0,0,-1,1084,1268,0,0
-133,-244,0,0,0,0,0,0,0,0,0,-1,1091,1268,0,0
-126,-244,0,0,0,0,0,0,0,0,0,-1,1098,1268,0,0
-119,-244,0,0,0,0,0,0,0,0,0,-1,1105,1268,0,0
-112,-244,0,0,0,0,0,0,0,0,0,-1,1112,1268,0,0
-105,-244,0,0,0,0,0,0,0,0,0,-1,1119,1268,0,0
-98,-244,0,0,0,0,0,0,0,0,0,-1,1126,1268,0,0
-91,-244,0,0,0,0,0,0,0,0,0,-1,1133,1268,0,0
-84,-244,0,0,0,0,0,0,0,0,0,-1,1140,1268,0,0
-77,-244,0,0,0,0,0,0,0,0,0,-1,1147,1268,0,0
-70,-244,0,0,0,0,0,0,0,0,0,-1,1154,1268,0,0
-63,-244,0,0,0,0,0,0,0,0,0,-1,1161,1268,0,0
-56,-244,0,0,0,0,0,0,0,0,0,-1,1168,1268,0,0
-49,-244,0,0,0,0,0,0,0,0,0,-1,1175,1268,0,0
-42,-244,0,0,0,0,0,0,0,0,0,-1,1182,1268,0,0
-35,-244,0,0,0,0,0,0,0,0,0,-1,1189,1268,0,0
-28,-244,0,0,0,0,0,0,0,0,0,-1,1196,1268,0,0
-21,-244,0,0,0,0,0,0,0,0,0,-1,1203,1268,0,0
-14,-244,0,0,0,0,0,0,0,0,0,-1,1210,1268,0,0
-7,-244,0,0,0,0,0,0,0,0,0,-1,1217,1268,0,0
0,-244,0,0,0,0,0,0,0,0,0,-1,1224,1268,0,0
7,-244,0,0,0,0,0,0,0,0,0,-1,1231,1268,0,0
14,-244,0,0,0,0,0,0,0,0,0,-1,1238,1268,0,0
21,-244,0,0,0,0,0,0,0,0,0,-1,1245,1268,0,0
28,-244,0,0,0,0,0,0,0,0,0,-1,1252,1268,0,0
35,-244,0,0,0,0,0,0,0,0,0,-1,1259,1268,0,0
42,-244,0,0,0,0,0,0,0,0,0,-1,1266,1268,0,0
49,-244,0,0,0,0,0,0,0,0,0,-1,1273,1268,0,0
56,-244,0,0,0,0,0,0,0,0,0,-1,1280,1268,0,0
63,-244,0,0,0,0,0,0,0,0,0,-1,1287,1268,0,0
70,-244,0,0,0,0,0,0,0,0,0,-1,1294,1268,0,0
77,-244,0,0,0,0,0,0,0,0,0,-1,1301,1268,0,0
84,-244,0,0,0,0,0,0,0,0,0,-1,1308,1268,0,0
91,-244,0,0,0,0,0,0,0,0,0,-1,1315,1268,0,0
98,-244,0,0,0,0,0,0,0,0,0,-1,1322,1268,0,0
105,-244,0,0,0,0,0,0,0,0,0,-1,1329,1268,0,0
112,-244,0,0,0,0,0,0,0,0,0,-1,1336,1268,0,0
119,-244,0,0,0,0,0,0,0,0,0,-1,1343,1268,0,0
126,-244,0,0,0,0,0,0,0,0,0,-1,1350,1268,0,0
133,-244,0,0,0,0,0,0,0,0,0,-1,1357,1268,0,0
140,-244,0,0,0,0,0,0,0,0,0,-1,1364,1268,0,0
147,-244,0,0,0,0,0,0,0,0,0,-1,1371,1268,0,0
154,-244,0,0,0,0,0,0,0,0,0,-1,1378,1268,0,0
161,-244,0,0,0,0,0,0,0,0,0,-1,1385,1268,0,0
168,-244,0,0,0,0,0,0,0,0,0,-1,1392,1268,0,0
175,-244,0,0,0,0,0,0,0,0,0,-1,1399,1268,0,0
182,-244,0,0,0,0,0,0,0,0,0,-1,1406,1268,0,0
189,-244,0,0,0,0,0,0,0,0,0,-1,1413,1268,0,0
196,-244,0,0,0,0,0,0,0,0,0,-1,1420,1268,0,0
203,-244,0,0,0,0,0,0,0,0,0,-1,1427,1268,0,0
210,-244,0,0,0,0,0,0,0,0,0,-1,1434,1268,0,0
217,-244,0,0,0,0,0,0,0,0,0,-1,1441,1268,0,0
224,-244,0,0,0,0,0,0,0,0,0,-1,1448,1268,0,0
231,-244,0,0,0,0,0,0,0,0,0,-1,1455,1268,0,0
238,-244,0,0,0,0,0,0,0,0,0,-1,1462,1268,0,0
245,-244,0,0,0,0,0,0,0,0,0,-1,1469,1268,0,0
252,-244,0,0,0,0,0,0,0,0,0,-1,1476,1268,0,0
259,-244,0,0,0,0,0,0,0,0,0,-1,1483,1268,0,0
266,-244,0,0,0,0,0,0,0,0,0,-1,1490,1268,0,0
273,-244,0,0,0,0,0,0,0,0,0,-1,1497,1268,0,0
280,-244,0,0,0,0,0,0,0,0,0,-1,1504,1268,0,0
287,-244,0,0,0,0,0,0,0,0,0,-1,1511,1268,0,0
294,-244,0,0,0,0,0,0,0,0,0,-1,1518,1268,0,0
301,-244,0,0,0,0,0,0,0,0,0,-1,1525,1268,0,0
308,-244,0,0,0,0,0,0,0,0,0,-1,1532,1268,0,0
315,-244,0,0,0,0,0,0,0,0,0,-1,1539,1268,0,0
322,-244,0,0,0,0,0,0,0,0,0,-1,1546,1268,0,0
329,-244,0,0,0,0,0,0,0,0,0,-1,1553,1268,0,0
336,-244,0,0,0,0,0,0,0,0,0,-1,1560,1268,0,0
343,-244,0,0,0,0,0,0,0,0,0,-1,1567,1268,0,0
350,-244,0,0,0,0,0,0,0,0,0,-1,1574,1268,0,0
357,-244,0,0,0,0,0,0,0,0,0,-1,1581,1268,0,0
364,-244,0,0,0,0,0,0,0,0,0,-1,1588,1268,0,0
371,-244,0,0,0,0,0,0,0,0,0,-1,1595,1268,0,0
378,-244,0,0,0,0,0,0,0,0,0,-1,1602,1268,0,0
385,-244,0,0,0,0,0,0,0,0,0,-1,1609,1268,0,0
392,-244,0,0,0,0,0,0,0,0,0,-1,1616,1268,0,0
399,-244,0,0,0,0,0,0,0,0,0,-1,1623,1268,0,0
406,-244,0,0,0,0,0,0,0,0,0,-1,1630,1268,0,0
413,-244,0,0,0,0,0,0,0,0,0,-1,1637,1268,0,0
420,-244,0,0,0,0,0,0,0,0,0,-1,1644,1268,0,0
427,-244,0,0,0,0,0,0,0,0,0,-1,1651,1268,0,0
434,-244,0,0,0,0,0,0,0,0,0,-1,1658,1268,0,0
441,-244,0,0,0,0,0,0,0,0,0,-1,1665,1268,0,0
448,-244,0,0,0,0,0,0,0,0,0,-1,1672,1268,0,0
455,-244,0,0,0,0,0,0,0,0,0,-1,1679,1268,0,0
462,-244,0,0,0,0,0,0,0,0,0,-1,1686,1268,0,0
469,-244,0,0,0,0,0,0,0,0,0,-1,1693,1268,0,0
476,-244,0,0,0,0,0,0,0,0,0,-1,1700,1268,0,0
483,-244,0,0,0,0,0,0,0,0,0,-1,1707,1268,0,0
490,-244,0,0,0,0,0,0,0,0,0,-1,1714,1268,0,0
497,-244,0,0,0,0,0,0,0,0,0,-1,1721,1268,0,0
504,-244,0,0,0,0,0,0,0,0,0,-1,1728,1268,0,0
511,-244,0,0,0,0,0,0,0,0,0,-1,1735,1268,0,0
518,-244,0,0,0,0,0,0,0,0,0,-1,1742,1268,0,0
525,-244,0,0,0,0,0,0,0,0,0,-1,1749,1268,0,0
532,-244,0,0,0,0,0,0,0,0,0,-1,1756,1268,0,0
539,-244,0,0,0,0,0,0,0,0,0,-1,1763,1268,0,0
546,-244,0,0,0,0,0,0,0,0,0,-1,1770,1268,0,0
553,-244,0,0,0,0,0,0,0,0,0,-1,1777,1268,0,0
560,-244,0,0,0,0,0,0,0,0,0,-1,1784,1268,0,0
567,-244,0,0,0,0,0,0,0,0,0,-1,1791,1268,0,0
574,-244,0,0,0,0,0,0,0,0,0,-1,1798,1268,0,0
581,-244,0,0,0,0,0,0,0,0,0,-1,1805,1268,0,0
588,-244,0,0,0,0,0,0,0,0,0,-1,1812,1268,0,0
595,-244,0,0,0,0,0,0,0,0,0,-1,1819,1268,0,0
602,-244,0,0,0,0,0,0,0,0,0,-1,1826,1268,0,0
609,-244,0,0,0,0,0,0,0,0,0,-1,1833,1268,0,0
616,-244,43.3735,2.80981,-0.000297758,0.00564211,0.00129496,0.00591215,-0.000567798,1.36521,0.00414369,0.0358241,1840,1268,43.3735,-2.80985
623,-244,43.3856,2.84351,0.00280789,0.00326853,0.00298769,0.00603476,4.1652e-05,0.823867,0.00400936,0.0282249,1847,1268,43.3857,-2.84347
630,-244,43.3376,2.83716,0.0052954,0.000735877,0.00359225,0.00727024,-0.00123896,0.50265,0.00530823,0.0253876,1854,1268,43.3377,-2.83716
637,-244,43.3508,2.8407,0.00641235,-0.00112762,0.00287826,0.00738548,-0.00210075,0.326032,0.0057532,0.0383607,1861,1268,43.3508,-2.84069
644,-244,43.3003,2.72583,0.00615081,-0.00169082,0.00203069,0.00664548,-0.00218549,0.238943,0.00531089,0.0453438,1868,1268,43.3003,-2.72583
651,-244,43.2733,2.61255,0.00572289,-0.00172894,0.00119749,0.0059106,-0.00191665,0.155484,0.00471109,0.0485192,1875,1268,43.2733,-2.61252
658,-244,43.2473,2.53101,0,0,0,0,0,0,0,-1,1882,1268,43.2474,-2.53102
665,-244,41.8104,1.44556,0,0,0,0,0,0,0,-1,1889,1268,41.8104,-1.44555
672,-244,32.224,3.6123,0,0,0,0,0,0,0,-1,1896,1268,32.224,-3.6123
679,-244,27.2593,7.90649,0,0,0,0,0,0,0,-1,1903,1268,27.2592,-7.9065
686,-244,33.2159,9.55273,0,0,0,0,0,0,0,-1,1910,1268,33.2159,-9.55268
693,-244,33.2229,9.04846,0.00351997,-0.00239217,-0.00165161,0.00395007,-0.00282227,-0.254756,0.00392804,0.0247121,1917,1268,33.2229,-9.04849
700,-244,33.2688,8.54468,0.00259331,-0.00111981,-0.00101426,0.00285229,-0.00137879,-0.250003,0.00249171,0.00933347,1924,1268,33.2688,-8.54466
707,-244,33.2833,8.13928,0.00247316,-0.000937849,-0.000118805,0.0024773,-0.000941982,-0.0347736,0.00203938,0.0106418,1931,1268,33.2833,-8.13925
714,-244,33.3055,7.73938,0.00117837,-0.000662176,0.000408344,0.0012649,-0.000748703,0.20881,0.00117522,0.0138364,1938,1268,33.3056,-7.73942
721,-244,33.2662,7.35266,0.000557704,-3.90911e-05,0.000442536,0.000793047,-0.000274434,0.488767,0.000640096,0.0165848,1945,1268,33.2663,-7.3527
728,-244,33.2656,6.95288,0.000359303,0.000665589,0.000214286,0.00077583,0.000249062,1.09565,0.000457391,0.020035,1952,1268,33.2656,-6.95285
735,-244,33.2366,6.52441,0.000702327,0.00157897,-0.000397297,0.00173223,0.000549065,-1.20263,0.0010222,0.023122,1959,1268,33.2365,-6.52442
742,-244,33.166,6.19312,0.00176103,0.00284634,-0.00153088,0.0039279,0.000679464,-0.955725,0.00242407,0.0161649,1966,1268,33.166,-6.19315
749,-244,33.0551,5.89453,0.00395736,0.00464054,-0.00339711,0.00771319,0.000884712,-0.835506,0.00487406,0.0235855,1973,1268,33.055,-5.89459
756,-244,32.9354,5.58862,0.00797364,0.0074356,-0.00673917,0.0144492,0.000960079,-0.765449,0.00932922,0.032069,1980,1268,32.9355,-5.58859
763,-244,32.9454,5.13013,0,0,0,0,0,0,0,-1,1987,1268,32.9455,-5.13011
770,-244,33.9225,3.02637,0,0,0,0,0,0,0,-1,1994,1268,33.9225,-3.02634
777,-244,32.9791,4.5448,0,0,0,0,0,0,0,-1,2001,1268,32.9791,-4.54484
784,-244,31.7908,5.20081,0,0,0,0,0,0,0,-1,2008,1268,31.7907,-5.20083
791,-244,0,0,0,0,0,0,0,0,0,-1,2015,1268,0,0
798,-244,0,0,0,0,0,0,0,0,0,-1,2022,1268,0,0
805,-244,0,0,0,0,0,0,0,0,0,-1,2029,1268,0,0
812,-244,0,0,0,0,0,0,0,0,0,-1,2036,1268,0,0
-700,-251,0,0,0,0,0,0,0,0,0,-1,524,1275,0,0
-693,-251,0,0,0,0,0,0,0,0,0,-1,531,1275,0,0
-686,-251,0,0,0,0,0,0,0,0,0,-1,538,1275,0,0
-679,-251,0,0,0,0,0,0,0,0,0,-1,545,1275,0,0
-672,-251,0,0,0,0,0,0,0,0,0,-1,552,1275,0,0
-665,-251,-20.993,4.27515,0,0,0,0,0,0,0,-1,559,1275,-20.993,-4.2752
-658,-251,-23.7194,2.79553,0,0,0,0,0,0,0,-1,566,1275,-23.7194,-2.79554
-651,-251,-23.5709,4.30334,0,0,0,0,0,0,0,-1,573,1275,-23.5709,-4.30335
-644,-251,-23.4062,5.72095,0,0,0,0,0,0,0,-1,580,1275,-23.4062,-5.72092
-637,-251,-19.4099,3.98108,0,0,0,0,0,0,0,-1,587,1275,-19.4099,-3.98104
-630,-251,-20.8032,2.44397,0,0,0,0,0,0,0,-1,594,1275,-20.8032,-2.44394
-623,-251,-20.7401,2.82043,0.0285159,0.00583635,0.023268,0.0430603,-0.00870805,0.558658,0.0320069,0.0394,601,1275,-20.7401,-2.82043
-616,-251,-20.1926,3.198,0.0192028,0.00301349,0.0138097,0.0271154,-0.0048991,0.520309,0.0199119,0.0210543,608,1275,-20.1927,-3.19799
-609,-251,-20.1946,3.62012,0.0119057,0.000497177,0.00631866,0.014714,-0.00231115,0.418229,0.0106635,0.0212121,615,1275,-20.1946,-3.62012
-602,-251,-20.2048,4.07251,0.0074018,0.000130471,0.00263324,0.00825523,-0.000722963,0.313418,0.00575962,0.0155807,622,1275,-20.2049,-4.07245
-595,-251,-20.2089,4.52283,0.00555449,4.68467e-05,0.00194019,0.00616932,-0.000567989,0.306884,0.00431469,0.0136708,629,1275,-20.2089,-4.52277
-588,-251,-20.2173,4.95984,0.0046143,0.000149665,0.00174713,0.00521671,-0.000452747,0.332037,0.00363812,0.0148706,636,1275,-20.2173,-4.95985
-581,-251,-20.2196,5.42102,0.00422789,0.000473763,0.00165722,0.00485477,-0.00015312,0.361638,0.00328874,0.0137045,643,1275,-20.2196,-5.42108
-574,-251,-20.2271,5.90979,0.00415582,0.000745877,0.00184973,0.00496649,-6.47879e-05,0.413049,0.0033328,0.0125954,650,1275,-20.227,-5.90982
-567,-251,-20.245,6.34363,0.00446295,0.00127027,0.00233274,0.00569326,3.99572e-05,0.485336,0.00378226,0.0119536,657,1275,-20.245,-6.34365
-560,-251,-20.2092,6.85254,0.00494077,0.00200641,0.00193587,0.00590263,0.00104455,0.461132,0.00363724,0.0307773,664,1275,-20.2092,-6.85248
-553,-251,-20.0864,7.34998,0,0,0,0,0,0,0,-1,671,1275,-20.0864,-7.34992
-546,-251,-12.995,4.5675,0,0,0,0,0,0,0,-1,678,1275,-12.995,-4.56745
-539,-251,-10.7916,0.366333,0,0,0,0,0,0,0,-1,685,1275,-10.7916,-0.366282
-532,-251,-10.7391,-0.00769043,0,0,0,0,0,0,0,-1,692,1275,-10.7391,0.00773227
-525,-251,-29.4286,-0.250244,0,0,0,0,0,0,0,-1,699,1275,-29.4286,0.250266
-518,-251,-29.4509,0.193359,0,0,0,0,0,0,0,-1,706,1275,-29.4508,-0.193379
-511,-251,-29.4731,0.637085,0,0,0,0,0,0,0,-1,713,1275,-29.4731,-0.637025
-504,-251,-30.6428,0.792358,0,0,0,0,0,0,0,-1,720,1275,-30.6427,-0.792335
-497,-251,-31.7055,1.25647,0,0,0,0,0,0,0,-1,727,1275,-31.7055,-1.25648
-490,-251,0,0,0,0,0,0,0,0,0,-1,734,1275,0,0
-483,-251,0,0,0,0,0,0,0,0,0,-1,741,1275,0,0
-476,-251,0,0,0,0,0,0,0,0,0,-1,748,1275,0,0
-469,-251,0,0,0,0,0,0,0,0,0,-1,755,1275,0,0
-462,-251,0,0,0,0,0,0,0,0,0,-1,762,1275,0,0
-455,-251,0,0,0,0,0,0,0,0,0,-1,769,1275,0,0
-448,-251,0,0,0,0,0,0,0,0,0,-1,776,1275,0,0
-441,-251,0,0,0,0,0,0,0,0,0,-1,783,1275,0,0
-434,-251,0,0,0,0,0,0,0,0,0,-1,790,1275,0,0
-427,-251,0,0,0,0,0,0,0,0,0,-1,797,1275,0,0
-420,-251,0,0,0,0,0,0,0,0,0,-1,804,1275,0,0
-413,-251,0,0,0,0,0,0,0,0,0,-1,811,1275,0,0
-406,-251,0,0,0,0,0,0,0,0,0,-1,818,1275,0,0
-399,-251,0,0,0,0,0,0,0,0,0,-1,825,1275,0,0
-392,-251,0,0,0,0,0,0,0,0,0,-1,832,1275,0,0
-385,-251,0,0,0,0,0,0,0,0,0,-1,839,1275,0,0
-378,-251,0,0,0,0,0,0,0,0,0,-1,846,1275,0,0
-371,-251,0,0,0,0,0,0,0,0,0,-1,853,1275,0,0
-364,-251,0,0,0,0,0,0,0,0,0,-1,860,1275,0,0
-357,-251,0,0,0,0,0,0,0,0,0,-1,867,1275,0,0
-350,-251,0,0,0,0,0,0,0,0,0,-1,874,1275,0,0
-343,-251,0,0,0,0,0,0,0,0,0,-1,881,1275,0,0
-336,-251,0,0,0,0,0,0,0,0,0,-1,888,1275,0,0
-329,-251,0,0,0,0,0,0,0,0,0,-1,895,1275,0,0
-322,-251,0,0,0,0,0,0,0,0,0,-1,902,1275,0,0
-315,-251,0,0,0,0,0,0,0,0,0,-1,909,1275,0,0
-308,-251,0,0,0,0,0,0,0,0,0,-1,916,1275,0,0
-301,-251,0,0,0,0,0,0,0,0,0,-1,923,1275,0,0
-294,-251,0,0,0,0,0,0,0,0,0,-1,930,1275,0,0
-287,-251,0,0,0,0,0,0,0,0,0,-1,937,1275,0,0
-280,-251,0,0,0,0,0,0,0,0,0,-1,944,1275,0,0
-273,-251,0,0,0,0,0,0,0,0,0,-1,951,1275,0,0
-266,-251,0,0,0,0,0,0,0,0,0,-1,958,1275,0,0
-259,-251,0,0,0,0,0,0,0,0,0,-1,965,1275,0,0
-252,-251,0,0,0,0,0,0,0,0,0,-1,972,1275,0,0
-245,-251,0,0,0,0,0,0,0,0,0,-1,979,1275,0,0
-238,-251,0,0,0,0,0,0,0,0,0,-1,986,1275,0,0
-231,-251,0,0,0,0,0,0,0,0,0,-1,993,1275,0,0
-224,-251,0,0,0,0,0,0,0,0,0,-1,1000,1275,0,0
-217,-251,0,0,0,0,0,0,0,0,0,-1,1007,1275,0,0
-210,-251,0,0,0,0,0,0,0,0,0,-1,1014,1275,0,0
-203,-251,0,0,0,0,0,0,0,0,0,-1,1021,1275,0,0
-196,-251,0,0,0,0,0,0,0,0,0,-1,1028,1275,0,0
-189,-251,0,0,0,0,0,0,0,0,0,-1,1035,1275,0,0
-182,-251,0,0,0,0,0,0,0,0,0,-1,1042,1275,0,0
-175,-251,0,0,0,0,0,0,0,0,0,-1,1049,1275,0,0
-168,-251,0,0,0,0,0,0,0,0,0,-1,1056,1275,0,0
-161,-251,0,0,0,0,0,0,0,0,0,-1,1063,1275,0,0
-154,-251,0,0,0,0,0,0,0,0,0,-1,1070,1275,0,0
-147,-251,0,0,0,0,0,0,0,0,0,-1,1077,1275,0,0
-140,-251,0,0,0,0,0,0,0,0,0,-1,1084,1275,0,0
-133,-251,0,0,0,0,0,0,0,0,0,-1,1091,1275,0,0
-126,-251,0,0,0,0,0,0,0,0,0,-1,1098,1275,0,0
-119,-251,0,0,0,0,0,0,0,0,0,-1,1105,1275,0,0
-112,-251,0,0,0,0,0,0,0,0,0,-1,1112,1275,0,0
-105,-251,0,0,0,0,0,0,0,0,0,-1,1119,1275,0,0
-98,-251,0,0,0,0,0,0,0,0,0,-1,1126,1275,0,0
-91,-251,0,0,0,0,0,0,0,0,0,-1,1133,1275,0,0
-84,-251,0,0,0,0,0,0,0,0,0,-1,1140,1275,0,0
-77,-251,0,0,0,0,0,0,0,0,0,-1,1147,1275,0,0
-70,-251,0,0,0,0,0,0,0,0,0,-1,1154,1275,0,0
-63,-251,0,0,0,0,0,0,0,0,0,-1,1161,1275,0,0
-56,-251,0,0,0,0,0,0,0,0,0,-1,1168,1275,0,0
-49,-251,0,0,0,0,0,0,0,0,0,-1,1175,1275,0,0
-42,-251,0,0,0,0,0,0,0,0,0,-1,1182,1275,0,0
-35,-251,0,0,0,0,0,0,0,0,0,-1,1189,1275,0,0
-28,-251,0,0,0,0,0,0,0,0,0,-1,1196,1275,0,0
-21,-251,0,0,0,0,0,0,0,0,0,-1,1203,1275,0,0
-14,-251,0,0,0,0,0,0,0,0,0,-1,1210,1275,0,0
-7,-251,0,0,0,0,0,0,0,0,0,-1,1217,1275,0,0
0,-251,0,0,0,0,0,0,0,0,0,-1,1224,1275,0,0
7,-251,0,0,0,0,0,0,0,0,0,-1,1231,1275,0,0
14,-251,0,0,0,0,0,0,0,0,0,-1,1238,1275,0,0
21,-251,0,0,0,0,0,0,0,0,0,-1,1245,1275,0,0
28,-251,0,0,0,0,0,0,0,0,0,-1,1252,1275,0,0
35,-251,0,0,0,0,0,0,0,0,0,-1,1259,1275,0,0
42,-251,0,0,0,0,0,0,0,0,0,-1,1266,1275,0,0
49,-251,0,0,0,0,0,0,0,0,0,-1,1273,1275,0,0
56,-251,0,0,0,0,0,0,0,0,0,-1,1280,1275,0,0
63,-251,0,0,0,0,0,0,0,0,0,-1,1287,1275,0,0
70,-251,0,0,0,0,0,0,0,0,0,-1,1294,1275,0,0
77,-251,0,0,0,0,0,0,0,0,0,-1,1301,1275,0,0
84,-251,0,0,0,0,0,0,0,0,0,-1,1308,1275,0,0
91,-251,0,0,0,0,0,0,0,0,0,-1,1315,1275,0,0
98,-251,0,0,0,0,0,0,0,0,0,-1,1322,1275,0,0
105,-251,0,0,0,0,0,0,0,0,0,-1,1329,1275,0,0
112,-251,0,0,0,0,0,0,0,0,0,-1,1336,1275,0,0
119,-251,0,0,0,0,0,0,0,0,0,-1,1343,1275,0,0
126,-251,0,0,0,0,0,0,0,0,0,-1,1350,1275,0,0
133,-251,0,0,0,0,0,0,0,0,0,-1,1357,1275,0,0
140,-251,0,0,0,0,0,0,0,0,0,-1,1364,1275,0,0
147,-251,0,0,0,0,0,0,0,0,0,-1,1371,1275,0,0
154,-251,0,0,0,0,0,0,0,0,0,-1,1378,1275,0,0
161,-251,0,0,0,0,0,0,0,0,0,-1,1385,1275,0,0
168,-251,0,0,0,0,0,0,0,0,0,-1,1392,1275,0,0
175,-251,0,0,0,0,0,0,0,0,0,-1,1399,1275,0,0
182,-251,0,0,0,0,0,0,0,0,0,-1,1406,1275,0,0
189,-251,0,0,0,0,0,0,0,0,0,-1,1413,1275,0,0
196,-251,0,0,0,0,0,0,0,0,0,-1,1420,1275,0,0
203,-251,0,0,0,0,0,0,0,0,0,-1,1427,1275,0,0
210,-251,0,0,0,0,0,0,0,0,0,-1,1434,1275,0,0
217,-251,0,0,0,0,0,0,0,0,0,-1,1441,1275,0,0
224,-251,0,0,0,0,0,0,0,0,0,-1,1448,1275,0,0
231,-251,0,0,0,0,0,0,0,0,0,-1,1455,1275,0,0
238,-251,0,0,0,0,0,0,0,0,0,-1,1462,1275,0,0
245,-251,0,0,0,0,0,0,0,0,0,-1,1469,1275,0,0
252,-251,0,0,0,0,0,0,0,0,0,-1,1476,1275,0,0
259,-251,0,0,0,0,0,0,0,0,0,-1,1483,1275,0,0
266,-251,0,0,0,0,0,0,0,0,0,-1,1490,1275,0,0
273,-251,0,0,0,0,0,0,0,0,0,-1,1497,1275,0,0
280,-251,0,0,0,0,0,0,0,0,0,-1,1504,1275,0,0
287,-251,0,0,0,0,0,0,0,0,0,-1,1511,1275,0,0
294,-251,0,0,0,0,0,0,0,0,0,-1,1518,1275,0,0
301,-251,0,0,0,0,0,0,0,0,0,-1,1525,1275,0,0
308,-251,0,0,0,0,0,0,0,0,0,-1,1532,1275,0,0
315,-251,0,0,0,0,0,0,0,0,0,-1,1539,1275,0,0
322,-251,0,0,0,0,0,0,0,0,0,-1,1546,1275,0,0
329,-251,0,0,0,0,0,0,0,0,0,-1,1553,1275,0,0
336,-251,0,0,0,0,0,0,0,0,0,-1,1560,1275,0,0
343,-251,0,0,0,0,0,0,0,0,0,-1,1567,1275,0,0
350,-251,0,0,0,0,0,0,0,0,0,-1,1574,1275,0,0
357,-251,0,0,0,0,0,0,0,0,0,-1,1581,1275,0,0
364,-251,0,0,0,0,0,0,0,0,0,-1,1588,1275,0,0
371,-251,0,0,0,0,0,0,0,0,0,-1,1595,1275,0,0
378,-251,0,0,0,0,0,0,0,0,0,-1,1602,1275,0,0
385,-251,0,0,0,0,0,0,0,0,0,-1,1609,1275,0,0
392,-251,0,0,0,0,0,0,0,0,0,-1,1616,1275,0,0
399,-251,0,0,0,0,0,0,0,0,0,-1,1623,1275,0,0
406,-251,0,0,0,0,0,0,0,0,0,-1,1630,1275,0,0
413,-251,0,0,0,0,0,0,0,0,0,-1,1637,1275,0,0
420,-251,0,0,0,0,0,0,0,0,0,-1,1644,1275,0,0
427,-251,0,0,0,0,0,0,0,0,0,-1,1651,1275,0,0
434,-251,0,0,0,0,0,0,0,0,0,-1,1658,1275,0,0
441,-251,0,0,0,0,0,0,0,0,0,-1,1665,1275,0,0
448,-251,0,0,0,0,0,0,0,0,0,-1,1672,1275,0,0
455,-251,0,0,0,0,0,0,0,0,0,-1,1679,1275,0,0
462,-251,0,0,0,0,0,0,0,0,0,-1,1686,1275,0,0
469,-251,0,0,0,0,0,0,0,0,0,-1,1693,1275,0,0
476,-251,0,0,0,0,0,0,0,0,0,-1,1700,1275,0,0
483,-251,0,0,0,0,0,0,0,0,0,-1,1707,1275,0,0
490,-251,0,0,0,0,0,0,0,0,0,-1,1714,1275,0,0
497,-251,0,0,0,0,0,0,0,0,0,-1,1721,1275,0,0
504,-251,0,0,0,0,0,0,0,0,0,-1,1728,1275,0,0
511,-251,0,0,0,0,0,0,0,0,0,-1,1735,1275,0,0
518,-251,0,0,0,0,0,0,0,0,0,-1,1742,1275,0,0
525,-251,0,0,0,0,0,0,0,0,0,-1,1749,1275,0,0
532,-251,0,0,0,0,0,0,0,0,0,-1,1756,1275,0,0
539,-251,0,0,0,0,0,0,0,0,0,-1,1763,1275,0,0
546,-251,0,0,0,0,0,0,0,0,0,-1,1770,1275,0,0
553,-251,0,0,0,0,0,0,0,0,0,-1,1777,1275,0,0
560,-251,0,0,0,0,0,0,0,0,0,-1,1784,1275,0,0
567,-251,0,0,0,0,0,0,0,0,0,-1,1791,1275,0,0
574,-251,0,0,0,0,0,0,0,0,0,-1,1798,1275,0,0
581,-251,0,0,0,0,0,0,0,0,0,-1,1805,1275,0,0
588,-251,0,0,0,0,0,0,0,0,0,-1,1812,1275,0,0
595,-251,0,0,0,0,0,0,0,0,0,-1,1819,1275,0,0
602,-251,0,0,0,0,0,0,0,0,0,-1,1826,1275,0,0
609,-251,43.3329,2.89551,-0.00134884,0.00841241,-9.5361e-05,0.00841334,-0.00134977,-1.56103,0.00610873,0.0310106,1833,1275,43.3329,-2.89553
616,-251,43.3202,2.85925,0.00405052,0.00509514,0.00404387,0.0086503,0.000495365,0.849623,0.00560904,0.0278776,1840,1275,43.3202,-2.85924
623,-251,43.3119,2.8457,0.00894791,0.00159755,0.00706654,0.0132378,-0.00269238,0.545606,0.00984616,0.0245162,1847,1275,43.3119,-2.84568
630,-251,43.3497,2.83362,0.0116094,-0.00130871,0.0078867,0.0153445,-0.00504374,0.442294,0.0122617,0.0360209,1854,1275,43.3497,-2.83358
637,-251,43.6809,2.95972,0.0112098,-0.00264822,0.00641786,0.0137254,-0.00516379,0.373559,0.0112729,0.042099,1861,1275,43.6809,-2.95966
644,-251,44.1451,3.21606,0.00962947,-0.00266531,0.00482004,0.0112938,-0.00432965,0.332479,0.00931413,0.0454966,1868,1275,44.1451,-3.2161
651,-251,44.4983,3.35242,0,0,0,0,0,0,0,-1,1875,1275,44.4982,-3.35236
658,-251,41.4072,2.30945,0,0,0,0,0,0,0,-1,1882,1275,41.4073,-2.30945
665,-251,32.9579,2.60229,0,0,0,0,0,0,0,-1,1889,1275,32.9579,-2.60231
672,-251,26.0721,4.53064,0,0,0,0,0,0,0,-1,1896,1275,26.0721,-4.53063
679,-251,29.1344,8.63782,0,0,0,0,0,0,0,-1,1903,1275,29.1344,-8.63778
686,-251,32.9109,9.42786,0,0,0,0,0,0,0,-1,1910,1275,32.9109,-9.42782
693,-251,32.8822,9.0083,0.00354338,-0.00257202,-0.0015238,0.00390204,-0.00293068,-0.231163,0.00395814,0.0137452,1917,1275,32.8822,-9.00828
700,-251,32.8721,8.58057,0.00237732,-0.00109624,-0.000910136,0.00260134,-0.00132027,-0.241346,0.00230406,0.00955496,1924,1275,32.872,-8.58056
707,-251,32.8777,8.1604,0.00209956,-0.000822803,-9.01762e-06,0.00209959,-0.000822831,-0.00308569,0.00174011,0.0114126,1931,1275,32.8777,-8.16037
714,-251,32.8873,7.76062,0.000804875,-0.000553823,0.000485341,0.000960433,-0.000709382,0.310169,0.000967693,0.0140412,1938,1275,32.8873,-7.76064
721,-251,32.8434,7.38269,0.000209591,9.78358e-05,0.000460546,0.000617637,-0.00031021,0.725029,0.000545406,0.0170108,1945,1275,32.8434,-7.38275
728,-251,32.8335,6.99023,-9.98192e-05,0.000787431,0.000267656,0.000861921,-0.000174309,1.29936,0.00064067,0.0189428,1952,1275,32.8335,-6.99018
735,-251,32.8203,6.55591,7.90424e-05,0.00169848,-0.000279427,0.00174534,3.21844e-05,-1.40465,0.00115298,0.0171851,1959,1275,32.8203,-6.55596
742,-251,32.7527,6.24451,0.000956486,0.0029827,-0.00135697,0.00366303,0.000276152,-1.10606,0.00235537,0.0171846,1966,1275,32.7527,-6.24454
749,-251,32.5564,6.00171,0.00302264,0.00484551,-0.00321136,0.00727227,0.000595883,-0.92367,0.00466226,0.0329008,1973,1275,32.5563,-6.00172
756,-251,32.3234,5.76514,0.00698611,0.00782809,-0.00666303,0.0140834,0.00073078,-0.816948,0.00915508,0.0496717,1980,1275,32.3233,-5.76511
763,-251,32.3842,5.41711,0,0,0,0,0,0,0,-1,1987,1275,32.3842,-5.41714
770,-251,33.3455,3.96802,0,0,0,0,0,0,0,-1,1994,1275,33.3454,-3.96801
777,-251,31.5731,4.33252,0,0,0,0,0,0,0,-1,2001,1275,31.5731,-4.33251
784,-251,32.0776,5.78247,0,0,0,0,0,0,0,-1,2008,1275,32.0776,-5.78247
791,-251,0,0,0,0,0,0,0,0,0,-1,2015,1275,0,0
798,-251,0,0,0,0,0,0,0,0,0,-1,2022,1275,0,0
805,-251,0,0,0,0,0,0,0,0,0,-1,2029,1275,0,0
812,-251,0,0,0,0,0,0,0,0,0,-1,2036,1275,0,0
-700,-258,0,0,0,0,0,0,0,0,0,-1,524,1282,0,0
-693,-258,0,0,0,0,0,0,0,0,0,-1,531,1282,0,0
-686,-258,0,0,0,0,0,0,0,0,0,-1,538,1282,0,0
-679,-258,0,0,0,0,0,0,0,0,0,-1,545,1282,0,0
-672,-258,0,0,0,0,0,0,0,0,0,-1,552,1282,0,0
-665,-258,-20.7346,4.88318,0,0,0,0,0,0,0,-1,559,1282,-20.7345,-4.88316
-658,-258,-21.545,6.01331,0,0,0,0,0,0,0,-1,566,1282,-21.545,-6.01331
-651,-258,-23.5878,4.21802,0,0,0,0,0,0,0,-1,573,1282,-23.5877,-4.21804
-644,-258,-19.5629,2.99768,0,0,0,0,0,0,0,-1,580,1282,-19.5629,-2.99767
-637,-258,-19.4256,3.07422,0,0,0,0,0,0,0,-1,587,1282,-19.4256,-3.07428
-630,-258,-19.4776,2.95898,0,0,0,0,0,0,0,-1,594,1282,-19.4776,-2.95904
-623,-258,-20.4968,2.66284,0,0,0,0,0,0,0,-1,601,1282,-20.4968,-2.66285
-616,-258,-19.7764,3.15894,0.0201454,0.00192782,0.0127835,0.0267333,-0.00466011,0.475851,0.0195615,0.0352674,608,1282,-19.7764,-3.15893
-609,-258,-19.705,3.62561,0.0125444,0.00011774,0.00592934,0.0149196,-0.00225744,0.381008,0.0107779,0.018236,615,1282,-19.705,-3.62558
-602,-258,-19.7316,4.08337,0.00787472,0.000175843,0.00268882,0.0087208,-0.000670239,0.304858,0.00604967,0.0145366,622,1282,-19.7316,-4.08338
-595,-258,-19.7405,4.53088,0.00577843,0.000200986,0.00199849,0.00642058,-0.000441168,0.310901,0.00443477,0.01172,629,1282,-19.7405,-4.53086
-588,-258,-19.7651,4.98877,0.00455912,0.000318336,0.00176081,0.00519491,-0.000317451,0.346508,0.00357379,0.0122961,636,1282,-19.7651,-4.98881
-581,-258,-19.7691,5.44067,0.00397588,0.000536533,0.00168643,0.0046648,-0.000152387,0.387819,0.00316189,0.0142286,643,1282,-19.7691,-5.44062
-574,-258,-19.749,5.89111,0.00384612,0.000672384,0.00183257,0.0046834,-0.000164891,0.428565,0.00317865,0.0147119,650,1282,-19.749,-5.89107
-567,-258,-19.7931,6.36023,0.00418854,0.00101934,0.00222655,0.00533679,-0.000128917,0.476136,0.0036016,0.0143055,657,1282,-19.7931,-6.36019
-560,-258,-19.7988,6.81592,0.00475772,0.0016703,0.00188192,0.00564807,0.00077995,0.441904,0.0035342,0.0343089,664,1282,-19.7988,-6.81587
-553,-258,-19.7292,7.2644,0,0,0,0,0,0,0,-1,671,1282,-19.7292,-7.26435
-546,-258,-14.2231,5.92029,0,0,0,0,0,0,0,-1,678,1282,-14.2231,-5.92028
-539,-258,-10.2228,4.05823,0,0,0,0,0,0,0,-1,685,1282,-10.2228,-4.05823
-532,-258,-10.2173,-0.353882,0,0,0,0,0,0,0,-1,692,1282,-10.2173,0.353836
-525,-258,-21.8661,-1.5929,0,0,0,0,0,0,0,-1,699,1282,-21.8661,1.59285
-518,-258,-29.2484,0.123169,0,0,0,0,0,0,0,-1,706,1282,-29.2484,-0.123186
-511,-258,-23.5061,1.16833,0,0,0,0,0,0,0,-1,713,1282,-23.5061,-1.16833
-504,-258,-22.9178,0.484131,0,0,0,0,0,0,0,-1,720,1282,-22.9178,-0.484106
-497,-258,-17.8047,0.730469,0,0,0,0,0,0,0,-1,727,1282,-17.8048,-0.730489
-490,-258,-15.4346,0.632935,0,0,0,0,0,0,0,-1,734,1282,-15.4346,-0.632917
-483,-258,0,0,0,0,0,0,0,0,0,-1,741,1282,0,0
-476,-258,0,0,0,0,0,0,0,0,0,-1,748,1282,0,0
-469,-258,0,0,0,0,0,0,0,0,0,-1,755,1282,0,0
-462,-258,0,0,0,0,0,0,0,0,0,-1,762,1282,0,0
-455,-258,0,0,0,0,0,0,0,0,0,-1,769,1282,0,0
-448,-258,0,0,0,0,0,0,0,0,0,-1,776,1282,0,0
-441,-258,0,0,0,0,0,0,0,0,0,-1,783,1282,0,0
-434,-258,0,0,0,0,0,0,0,0,0,-1,790,1282,0,0
-427,-258,0,0,0,0,0,0,0,0,0,-1,797,1282,0,0
-420,-258,0,0,0,0,0,0,0,0,0,-1,804,1282,0,0
-413,-258,0,0,0,0,0,0,0,0,0,-1,811,1282,0,0
-406,-258,0,0,0,0,0,0,0,0,0,-1,818,1282,0,0
-399,-258,0,0,0,0,0,0,0,0,0,-1,825,1282,0,0
-392,-258,0,0,0,0,0,0,0,0,0,-1,832,1282,0,0
-385,-258,0,0,0,0,0,0,0,0,0,-1,839,1282,0,0
-378,-258,0,0,0,0,0,0,0,0,0,-1,846,1282,0,0
-371,-258,0,0,0,0,0,0,0,0,0,-1,853,1282,0,0
-364,-258,0,0,0,0,0,0,0,0,0,-1,860,1282,0,0
-357,-258,0,0,0,0,0,0,0,0,0,-1,867,1282,0,0
-350,-258,0,0,0,0,0,0,0,0,0,-1,874,1282,0,0
-343,-258,0,0,0,0,0,0,0,0,0,-1,881,1282,0,0
-336,-258,0,0,0,0,0,0,0,0,0,-1,888,1282,0,0
-329,-258,0,0,0,0,0,0,0,0,0,-1,895,1282,0,0
-322,-258,0,0,0,0,0,0,0,0,0,-1,902,1282,0,0
-315,-258,0,0,0,0,0,0,0,0,0,-1,909,1282,0,0
-308,-258,0,0,0,0,0,0,0,0,0,-1,916,1282,0,0
-301,-258,0,0,0,0,0,0,0,0,0,-1,923,1282,0,0
-294,-258,0,0,0,0,0,0,0,0,0,-1,930,1282,0,0
-287,-258,0,0,0,0,0,0,0,0,0,-1,937,1282,0,0
-280,-258,0,0,0,0,0,0,0,0,0,-1,944,1282,0,0
-273,-258,0,0,0,0,0,0,0,0,0,-1,951,1282,0,0
-266,-258,0,0,0,0,0,0,0,0,0,-1,958,1282,0,0
-259,-258,0,0,0,0,0,0,0,0,0,-1,965,1282,0,0
-252,-258,0,0,0,0,0,0,0,0,0,-1,972,1282,0,0
-245,-258,0,0,0,0,0,0,0,0,0,-1,979,1282,0,0
-238,-258,0,0,0,0,0,0,0,0,0,-1,986,1282,0,0
-231,-258,0,0,0,0,0,0,0,0,0,-1,993,1282,0,0
-224,-258,0,0,0,0,0,0,0,0,0,-1,1000,1282,0,0
-217,-258,0,0,0,0,0,0,0,0,0,-1,1007,1282,0,0
-210,-258,0,0,0,0,0,0,0,0,0,-1,1014,1282,0,0
-203,-258,0,0,0,0,0,0,0,0,0,-1,1021,1282,0,0
-196,-258,0,0,0,0,0,0,0,0,0,-1,1028,1282,0,0
-189,-258,0,0,0,0,0,0,0,0,0,-1,1035,1282,0,0
-182,-258,0,0,0,0,0,0,0,0,0,-1,1042,1282,0,0
-175,-258,0,0,0,0,0,0,0,0,0,-1,1049,1282,0,0
-168,-258,0,0,0,0,0,0,0,0,0,-1,1056,1282,0,0
-161,-258,0,0,0,0,0,0,0,0,0,-1,1063,1282,0,0
-154,-258,0,0,0,0,0,0,0,0,0,-1,1070,1282,0,0
-147,-258,0,0,0,0,0,0,0,0,0,-1,1077,1282,0,0
-140,-258,0,0,0,0,0,0,0,0,0,-1,1084,1282,0,0
-133,-258,0,0,0,0,0,0,0,0,0,-1,1091,1282,0,0
-126,-258,0,0,0,0,0,0,0,0,0,-1,1098,1282,0,0
-119,-258,0,0,0,0,0,0,0,0,0,-1,1105,1282,0,0
-112,-258,0,0,0,0,0,0,0,0,0,-1,1112,1282,0,0
-105,-258,0,0,0,0,0,0,0,0,0,-1,1119,1282,0,0
-98,-258,0,0,0,0,0,0,0,0,0,-1,1126,1282,0,0
-91,-258,0,0,0,0,0,0,0,0,0,-1,1133,1282,0,0
-84,-258,0,0,0,0,0,0,0,0,0,-1,1140,1282,0,0
-77,-258,0,0,0,0,0,0,0,0,0,-1,1147,1282,0,0
-70,-258,0,0,0,0,0,0,0,0,0,-1,1154,1282,0,0
-63,-258,0,0,0,0,0,0,0,0,0,-1,1161,1282,0,0
-56,-258,0,0,0,0,0,0,0,0,0,-1,1168,1282,0,0
-49,-258,0,0,0,0,0,0,0,0,0,-1,1175,1282,0,0
-42,-258,0,0,0,0,0,0,0,0,0,-1,1182,1282,0,0
-35,-258,0,0,0,0,0,0,0,0,0,-1,1189,1282,0,0
-28,-258,0,0,0,0,0,0,0,0,0,-1,1196,1282,0,0
-21,-258,0,0,0,0,0,0,0,0,0,-1,1203,1282,0,0
-14,-258,0,0,0,0,0,0,0,0,0,-1,1210,1282,0,0
-7,-258,0,0,0,0,0,0,0,0,0,-1,1217,1282,0,0
0,-258,0,0,0,0,0,0,0,0,0,-1,1224,1282,0,0
7,-258,0,0,0,0,0,0,0,0,0,-1,1231,1282,0,0
14,-258,0,0,0,0,0,0,0,0,0,-1,1238,1282,0,0
21,-258,0,0,0,0,0,0,0,0,0,-1,1245,1282,0,0
28,-258,0,0,0,0,0,0,0,0,0,-1,1252,1282,0,0
35,-258,0,0,0,0,0,0,0,0,0,-1,1259,1282,0,0
42,-258,0,0,0,0,0,0,0,0,0,-1,1266,1282,0,0
49,-258,0,0,0,0,0,0,0,0,0,-1,1273,1282,0,0
56,-258,0,0,0,0,0,0,0,0,0,-1,1280,1282,0,0
63,-258,0,0,0,0,0,0,0,0,0,-1,1287,1282,0,0
70,-258,0,0,0,0,0,0,0,0,0,-1,1294,1282,0,0
77,-258,0,0,0,0,0,0,0,0,0,-1,1301,1282,0,0
84,-258,0,0,0,0,0,0,0,0,0,-1,1308,1282,0,0
91,-258,0,0,0,0,0,0,0,0,0,-1,1315,1282,0,0
98,-258,0,0,0,0,0,0,0,0,0,-1,1322,1282,0,0
105,-258,0,0,0,0,0,0,0,0,0,-1,1329,1282,0,0
112,-258,0,0,0,0,0,0,0,0,0,-1,1336,1282,0,0
119,-258,0,0,0,0,0,0,0,0,0,-1,1343,1282,0,0
126,-258,0,0,0,0,0,0,0,0,0,-1,1350,1282,0,0
133,-258,0,0,0,0,0,0,0,0,0,-1,1357,1282,0,0
140,-258,0,0,0,0,0,0,0,0,0,-1,1364,1282,0,0
147,-258,0,0,0,0,0,0,0,0,0,-1,1371,1282,0,0
154,-258,0,0,0,0,0,0,0,0,0,-1,1378,1282,0,0
161,-258,0,0,0,0,0,0,0,0,0,-1,1385,1282,0,0
168,-258,0,0,0,0,0,0,0,0,0,-1,1392,1282,0,0
175,-258,0,0,0,0,0,0,0,0,0,-1,1399,1282,0,0
182,-258,0,0,0,0,0,0,0,0,0,-1,1406,1282,0,0
189,-258,0,0,0,0,0,0,0,0,0,-1,1413,1282,0,0
196,-258,0,0,0,0,0,0,0,0,0,-1,1420,1282,0,0
203,-258,0,0,0,0,0,0,0,0,0,-1,1427,1282,0,0
210,-258,0,0,0,0,0,0,0,0,0,-1,1434,1282,0,0
217,-258,0,0,0,0,0,0,0,0,0,-1,1441,1282,0,0
224,-258,0,0,0,0,0,0,0,0,0,-1,1448,1282,0,0
231,-258,0,0,0,0,0,0,0,0,0,-1,1455,1282,0,0
238,-258,0,0,0,0,0,0,0,0,0,-1,1462,1282,0,0
245,-258,0,0,0,0,0,0,0,0,0,-1,1469,1282,0,0
252,-258,0,0,0,0,0,0,0,0,0,-1,1476,1282,0,0
259,-258,0,0,0,0,0,0,0,0,0,-1,1483,1282,0,0
266,-258,0,0,0,0,0,0,0,0,0,-1,1490,1282,0,0
273,-258,0,0,0,0,0,0,0,0,0,-1,1497,1282,0,0
280,-258,0,0,0,0,0,0,0,0,0,-1,1504,1282,0,0
287,-258,0,0,0,0,0,0,0,0,0,-1,1511,1282,0,0
294,-258,0,0,0,0,0,0,0,0,0,-1,1518,1282,0,0
301,-258,0,0,0,0,0,0,0,0,0,-1,1525,1282,0,0
308,-258,0,0,0,0,0,0,0,0,0,-1,1532,1282,0,0
315,-258,0,0,0,0,0,0,0,0,0,-1,1539,1282,0,0
322,-258,0,0,0,0,0,0,0,0,0,-1,1546,1282,0,0
329,-258,0,0,0,0,0,0,0,0,0,-1,1553,1282,0,0
336,-258,0,0,0,0,0,0,0,0,0,-1,1560,1282,0,0
343,-258,0,0,0,0,0,0,0,0,0,-1,1567,1282,0,0
350,-258,0,0,0,0,0,0,0,0,0,-1,1574,1282,0,0
357,-258,0,0,0,0,0,0,0,0,0,-1,1581,1282,0,0
364,-258,0,0,0,0,0,0,0,0,0,-1,1588,1282,0,0
371,-258,0,0,0,0,0,0,0,0,0,-1,1595,1282,0,0
378,-258,0,0,0,0,0,0,0,0,0,-1,1602,1282,0,0
385,-258,0,0,0,0,0,0,0,0,0,-1,1609,1282,0,0
392,-258,0,0,0,0,0,0,0,0,0,-1,1616,1282,0,0
399,-258,0,0,0,0,0,0,0,0,0,-1,1623,1282,0,0
406,-258,0,0,0,0,0,0,0,0,0,-1,1630,1282,0,0
413,-258,0,0,0,0,0,0,0,0,0,-1,1637,1282,0,0
420,-258,0,0,0,0,0,0,0,0,0,-1,1644,1282,0,0
427,-258,0,0,0,0,0,0,0,0,0,-1,1651,1282,0,0
434,-258,0,0,0,0,0,0,0,0,0,-1,1658,1282,0,0
441,-258,0,0,0,0,0,0,0,0,0,-1,1665,1282,0,0
448,-258,0,0,0,0,0,0,0,0,0,-1,1672,1282,0,0
455,-258,0,0,0,0,0,0,0,0,0,-1,1679,1282,0,0
462,-258,0,0,0,0,0,0,0,0,0,-1,1686,1282,0,0
469,-258,0,0,0,0,0,0,0,0,0,-1,1693,1282,0,0
476,-258,0,0,0,0,0,0,0,0,0,-1,1700,1282,0,0
483,-258,0,0,0,0,0,0,0,0,0,-1,1707,1282,0,0
490,-258,0,0,0,0,0,0,0,0,0,-1,1714,1282,0,0
497,-258,0,0,0,0,0,0,0,0,0,-1,1721,1282,0,0
504,-258,0,0,0,0,0,0,0,0,0,-1,1728,1282,0,0
511,-258,0,0,0,0,0,0,0,0,0,-1,1735,1282,0,0
518,-258,0,0,0,0,0,0,0,0,0,-1,1742,1282,0,0
525,-258,0,0,0,0,0,0,0,0,0,-1,1749,1282,0,0
532,-258,0,0,0,0,0,0,0,0,0,-1,1756,1282,0,0
539,-258,0,0,0,0,0,0,0,0,0,-1,1763,1282,0,0
546,-258,0,0,0,0,0,0,0,0,0,-1,1770,1282,0,0
553,-258,0,0,0,0,0,0,0,0,0,-1,1777,1282,0,0
560,-258,0,0,0,0,0,0,0,0,0,-1,1784,1282,0,0
567,-258,0,0,0,0,0,0,0,0,0,-1,1791,1282,0,0
574,-258,0,0,0,0,0,0,0,0,0,-1,1798,1282,0,0
581,-258,0,0,0,0,0,0,0,0,0,-1,1805,1282,0,0
588,-258,0,0,0,0,0,0,0,0,0,-1,1812,1282,0,0
595,-258,0,0,0,0,0,0,0,0,0,-1,1819,1282,0,0
602,-258,0,0,0,0,0,0,0,0,0,-1,1826,1282,0,0
609,-258,43.366,2.89197,0.00380766,0.0070601,0.00353442,0.00932447,0.00154329,1.00101,0.00577108,0.025276,1833,1282,43.366,-2.89195
616,-258,43.3434,2.89929,0.0107974,0.00284222,0.00900971,0.0166685,-0.00302884,0.577525,0.0122474,0.0235129,1840,1282,43.3433,-2.89923
623,-258,43.2733,2.82666,0.0157063,-0.00105093,0.0124235,0.0223125,-0.00765709,0.488723,0.0179793,0.0344926,1847,1282,43.2734,-2.82666
630,-258,43.2448,2.67993,0.0166584,-0.00335764,0.0122818,0.0224935,-0.00919269,0.443528,0.0188236,0.0441379,1854,1282,43.2448,-2.67989
637,-258,43.5662,2.94885,0.0142625,-0.00377512,0.00960773,0.0184212,-0.00793384,0.408502,0.0156125,0.0432414,1861,1282,43.5661,-2.94883
644,-258,44.0792,3.65039,0.0118038,-0.00337608,0.0073444,0.0147754,-0.00634775,0.384479,0.0125149,0.0453107,1868,1282,44.0793,-3.65033
651,-258,44.7115,4.09253,0,0,0,0,0,0,0,-1,1875,1282,44.7115,-4.09254
658,-258,37.3499,1.09253,0,0,0,0,0,0,0,-1,1882,1282,37.3498,-1.0925
665,-258,35.4747,1.1864,0,0,0,0,0,0,0,-1,1889,1282,35.4747,-1.18637
672,-258,22.703,2.80957,0,0,0,0,0,0,0,-1,1896,1282,22.703,-2.80962
679,-258,26.8693,8.19543,0,0,0,0,0,0,0,-1,1903,1282,26.8692,-8.19548
686,-258,32.5061,9.41785,0,0,0,0,0,0,0,-1,1910,1282,32.5061,-9.4179
693,-258,32.5037,9.00684,0.00317354,-0.00255738,-0.00129649,0.0034532,-0.00283704,-0.212446,0.00363747,0.0134766,1917,1282,32.5037,-9.00684
700,-258,32.4709,8.57983,0.00183948,-0.000931867,-0.000687019,0.00200044,-0.00109283,-0.230142,0.00181135,0.010265,1924,1282,32.471,-8.57988
707,-258,32.4718,8.17883,0.0014688,-0.000626266,0.000198645,0.00148747,-0.000644934,0.0937034,0.00126277,0.0114078,1931,1282,32.4718,-8.17882
714,-258,32.4686,7.78455,0.0002977,-0.000411071,0.000647444,0.000681402,-0.000794773,0.534991,0.000853107,0.0108807,1938,1282,32.4687,-7.78451
721,-258,32.4539,7.37524,-0.000234959,0.00020561,0.000582171,0.00060778,-0.000637128,0.966265,0.000718814,0.015082,1945,1282,32.4538,-7.37524
728,-258,32.4165,6.99524,-0.000640672,0.000822091,0.000432812,0.00094056,-0.00075914,1.30362,0.000983184,0.0148936,1952,1282,32.4165,-6.99522
735,-258,32.4252,6.56812,-0.000636777,0.0016787,-5.50988e-05,0.00168001,-0.000638087,-1.54702,0.00138269,0.0158685,1959,1282,32.4252,-6.56809
742,-258,32.3977,6.22205,2.06903e-05,0.00292375,-0.00107225,0.00327684,-0.000332401,-1.25268,0.00230337,0.017392,1966,1282,32.3977,-6.222
749,-258,32.2891,5.8988,0.00187598,0.00479087,-0.0029061,0.00658451,8.23364e-05,-1.01783,0.00436248,0.0356796,1973,1282,32.2891,-5.89885
756,-258,31.8431,5.8009,0,0,0,0,0,0,0,-1,1980,1282,31.8431,-5.80096
763,-258,32.0402,4.58496,0,0,0,0,0,0,0,-1,1987,1282,32.0402,-4.58492
770,-258,33.1395,3.90918,0,0,0,0,0,0,0,-1,1994,1282,33.1395,-3.90912
777,-258,31.912,4.83093,0,0,0,0,0,0,0,-1,2001,1282,31.912,-4.8309
784,-258,32.6525,6.43091,0,0,0,0,0,0,0,-1,2008,1282,32.6525,-6.43091
791,-258,0,0,0,0,0,0,0,0,0,-1,2015,1282,0,0
798,-258,0,0,0,0,0,0,0,0,0,-1,2022,1282,0,0
805,-258,0,0,0,0,0,0,0,0,0,-1,2029,1282,0,0
812,-258,0,0,0,0,0,0,0,0,0,-1,2036,1282,0,0
-700,-265,0,0,0,0,0,0,0,0,0,-1,524,1289,0,0
-693,-265,0,0,0,0,0,0,0,0,0,-1,531,1289,0,0
-686,-265,0,0,0,0,0,0,0,0,0,-1,538,1289,0,0
-679,-265,0,0,0,0,0,0,0,0,0,-1,545,1289,0,0
-672,-265,0,0,0,0,0,0,0,0,0,-1,552,1289,0,0
-665,-265,-21.8043,0.183594,0,0,0,0,0,0,0,-1,559,1289,-21.8042,-0.183562
-658,-265,-18.9856,-0.2948,0,0,0,0,0,0,0,-1,566,1289,-18.9856,0.294797
-651,-265,-18.8685,0.415161,0,0,0,0,0,0,0,-1,573,1289,-18.8685,-0.415106
-644,-265,-19.4182,2.16089,0,0,0,0,0,0,0,-1,580,1289,-19.4181,-2.16091
-637,-265,-19.42,2.13391,0,0,0,0,0,0,0,-1,587,1289,-19.42,-2.1339
-630,-265,-19.4874,2.06287,0,0,0,0,0,0,0,-1,594,1289,-19.4874,-2.06282
-623,-265,-19.402,2.66772,0,0,0,0,0,0,0,-1,601,1289,-19.402,-2.66778
-616,-265,-19.3207,3.12402,0.0200701,0.000914048,0.0109584,0.0250463,-0.00406216,0.426257,0.0182033,0.0432246,608,1289,-19.3208,-3.12405
-609,-265,-19.2725,3.63306,0.0124671,-5.22121e-05,0.0051168,0.0142923,-0.00187741,0.342638,0.0102117,0.0190942,615,1289,-19.2725,-3.63301
-602,-265,-19.29,4.09436,0.00791675,0.000410952,0.00251458,0.0086813,-0.000353602,0.295166,0.00590893,0.0148822,622,1289,-19.29,-4.09432
-595,-265,-19.2999,4.55786,0.00578987,0.000569856,0.00196527,0.00644704,-8.73131e-05,0.322702,0.00432742,0.0120273,629,1289,-19.2999,-4.55792
-588,-265,-19.3061,5.00586,0.00446332,0.000581689,0.00168634,0.0050936,-4.8589e-05,0.357678,0.00341205,0.01083,636,1289,-19.3061,-5.00581
-581,-265,-19.3214,5.45752,0.00376135,0.000645119,0.00158438,0.00442539,-1.89212e-05,0.396877,0.00295659,0.0129109,643,1289,-19.3214,-5.45756
-574,-265,-19.3553,5.95508,0.00357789,0.000620553,0.00167712,0.00433511,-0.000136668,0.4241,0.00293669,0.0141637,650,1289,-19.3553,-5.95506
-567,-265,-19.4176,6.43066,0.00394893,0.000695495,0.00198956,0.00489214,-0.00024772,0.4427,0.00334706,0.0199074,657,1289,-19.4176,-6.43064
-560,-265,-19.4362,6.8772,0.00470423,0.00108126,0.00171759,0.00538906,0.000396432,0.379399,0.00346812,0.0228464,664,1289,-19.4362,-6.8772
-553,-265,-19.4244,7.34253,0,0,0,0,0,0,0,-1,671,1289,-19.4244,-7.34252
-546,-265,-19.0402,7.96277,0,0,0,0,0,0,0,-1,678,1289,-19.0402,-7.96282
-539,-265,-13.7668,6.39917,0,0,0,0,0,0,0,-1,685,1289,-13.7668,-6.39915
-532,-265,-8.53998,3.41467,0,0,0,0,0,0,0,-1,692,1289,-8.53996,-3.41473
-525,-265,-12.1317,0.514648,0,0,0,0,0,0,0,-1,699,1289,-12.1317,-0.514634
-518,-265,-24.1604,0.712402,0,0,0,0,0,0,0,-1,706,1289,-24.1604,-0.712425
-511,-265,-23.233,0.791626,0,0,0,0,0,0,0,-1,713,1289,-23.233,-0.791617
-504,-265,-22.3056,0.87085,0,0,0,0,0,0,0,-1,720,1289,-22.3056,-0.87081
-497,-265,-18.689,-0.278442,0,0,0,0,0,0,0,-1,727,1289,-18.689,0.278423
-490,-265,-15.1696,0.492676,0,0,0,0,0,0,0,-1,734,1289,-15.1696,-0.492688
-483,-265,0,0,0,0,0,0,0,0,0,-1,741,1289,0,0
-476,-265,0,0,0,0,0,0,0,0,0,-1,748,1289,0,0
-469,-265,0,0,0,0,0,0,0,0,0,-1,755,1289,0,0
-462,-265,0,0,0,0,0,0,0,0,0,-1,762,1289,0,0
-455,-265,0,0,0,0,0,0,0,0,0,-1,769,1289,0,0
-448,-265,0,0,0,0,0,0,0,0,0,-1,776,1289,0,0
-441,-265,0,0,0,0,0,0,0,0,0,-1,783,1289,0,0
-434,-265,0,0,0,0,0,0,0,0,0,-1,790,1289,0,0
-427,-265,0,0,0,0,0,0,0,0,0,-1,797,1289,0,0
-420,-265,0,0,0,0,0,0,0,0,0,-1,804,1289,0,0
-413,-265,0,0,0,0,0,0,0,0,0,-1,811,1289,0,0
-406,-265,0,0,0,0,0,0,0,0,0,-1,818,1289,0,0
-399,-265,0,0,0,0,0,0,0,0,0,-1,825,1289,0,0
-392,-265,0,0,0,0,0,0,0,0,0,-1,832,1289,0,0
-385,-265,0,0,0,0,0,0,0,0,0,-1,839,1289,0,0
-378,-265,0,0,0,0,0,0,0,0,0,-1,846,1289,0,0
-371,-265,0,0,0,0,0,0,0,0,0,-1,853,1289,0,0
-364,-265,0,0,0,0,0,0,0,0,0,-1,860,1289,0,0
-357,-265,0,0,0,0,0,0,0,0,0,-1,867,1289,0,0
-350,-265,0,0,0,0,0,0,0,0,0,-1,874,1289,0,0
-343,-265,0,0,0,0,0,0,0,0,0,-1,881,1289,0,0
-336,-265,0,0,0,0,0,0,0,0,0,-1,888,1289,0,0
-329,-265,0,0,0,0,0,0,0,0,0,-1,895,1289,0,0
-322,-265,0,0,0,0,0,0,0,0,0,-1,902,1289,0,0
-315,-265,0,0,0,0,0,0,0,0,0,-1,909,1289,0,0
-308,-265,0,0,0,0,0,0,0,0,0,-1,916,1289,0,0
-301,-265,0,0,0,0,0,0,0,0,0,-1,923,1289,0,0
-294,-265,0,0,0,0,0,0,0,0,0,-1,930,1289,0,0
-287,-265,0,0,0,0,0,0,0,0,0,-1,937,1289,0,0
-280,-265,0,0,0,0,0,0,0,0,0,-1,944,1289,0,0
-273,-265,0,0,0,0,0,0,0,0,0,-1,951,1289,0,0
-266,-265,0,0,0,0,0,0,0,0,0,-1,958,1289,0,0
-259,-265,0,0,0,0,0,0,0,0,0,-1,965,1289,0,0
-252,-265,0,0,0,0,0,0,0,0,0,-1,972,1289,0,0
-245,-265,0,0,0,0,0,0,0,0,0,-1,979,1289,0,0
-238,-265,0,0,0,0,0,0,0,0,0,-1,986,1289,0,0
-231,-265,0,0,0,0,0,0,0,0,0,-1,993,1289,0,0
-224,-265,0,0,0,0,0,0,0,0,0,-1,1000,1289,0,0
-217,-265,0,0,0,0,0,0,0,0,0,-1,1007,1289,0,0
-210,-265,0,0,0,0,0,0,0,0,0,-1,1014,1289,0,0
-203,-265,0,0,0,0,0,0,0,0,0,-1,1021,1289,0,0
-196,-265,0,0,0,0,0,0,0,0,0,-1,1028,1289,0,0
-189,-265,0,0,0,0,0,0,0,0,0,-1,1035,1289,0,0
-182,-265,0,0,0,0,0,0,0,0,0,-1,1042,1289,0,0
-175,-265,0,0,0,0,0,0,0,0,0,-1,1049,1289,0,0
-168,-265,0,0,0,0,0,0,0,0,0,-1,1056,1289,0,0
-161,-265,0,0,0,0,0,0,0,0,0,-1,1063,1289,0,0
-154,-265,0,0,0,0,0,0,0,0,0,-1,1070,1289,0,0
-147,-265,0,0,0,0,0,0,0,0,0,-1,1077,1289,0,0
-140,-265,0,0,0,0,0,0,0,0,0,-1,1084,1289,0,0
-133,-265,0,0,0,0,0,0,0,0,0,-1,1091,1289,0,0
-126,-265,0,0,0,0,0,0,0,0,0,-1,1098,1289,0,0
-119,-265,0,0,0,0,0,0,0,0,0,-1,1105,1289,0,0
-112,-265,0,0,0,0,0,0,0,0,0,-1,1112,1289,0,0
-105,-265,0,0,0,0,0,0,0,0,0,-1,1119,1289,0,0
-98,-265,0,0,0,0,0,0,0,0,0,-1,1126,1289,0,0
-91,-265,0,0,0,0,0,0,0,0,0,-1,1133,1289,0,0
-84,-265,0,0,0,0,0,0,0,0,0,-1,1140,1289,0,0
-77,-265,0,0,0,0,0,0,0,0,0,-1,1147,1289,0,0
-70,-265,0,0,0,0,0,0,0,0,0,-1,1154,1289,0,0
-63,-265,0,0,0,0,0,0,0,0,0,-1,1161,1289,0,0
-56,-265,0,0,0,0,0,0,0,0,0,-1,1168,1289,0,0
-49,-265,0,0,0,0,0,0,0,0,0,-1,1175,1289,0,0
-42,-265,0,0,0,0,0,0,0,0,0,-1,1182,1289,0,0
-35,-265,0,0,0,0,0,0,0,0,0,-1,1189,1289,0,0
-28,-265,0,0,0,0,0,0,0,0,0,-1,1196,1289,0,0
-21,-265,0,0,0,0,0,0,0,0,0,-1,1203,1289,0,0
-14,-265,0,0,0,0,0,0,0,0,0,-1,1210,1289,0,0
-7,-265,0,0,0,0,0,0,0,0,0,-1,1217,1289,0,0
0,-265,0,0,0,0,0,0,0,0,0,-1,1224,1289,0,0
7,-265,0,0,0,0,0,0,0,0,0,-1,1231,1289,0,0
14,-265,0,0,0,0,0,0,0,0,0,-1,1238,1289,0,0
21,-265,0,0,0,0,0,0,0,0,0,-1,1245,1289,0,0
28,-265,0,0,0,0,0,0,0,0,0,-1,1252,1289,0,0
35,-265,0,0,0,0,0,0,0,0,0,-1,1259,1289,0,0
42,-265,0,0,0,0,0,0,0,0,0,-1,1266,1289,0,0
49,-265,0,0,0,0,0,0,0,0,0,-1,1273,1289,0,0
56,-265,0,0,0,0,0,0,0,0,0,-1,1280,1289,0,0
63,-265,0,0,0,0,0,0,0,0,0,-1,1287,1289,0,0
70,-265,0,0,0,0,0,0,0,0,0,-1,1294,1289,0,0
77,-265,0,0,0,0,0,0,0,0,0,-1,1301,1289,0,0
84,-265,0,0,0,0,0,0,0,0,0,-1,1308,1289,0,0
91,-265,0,0,0,0,0,0,0,0,0,-1,1315,1289,0,0
98,-265,0,0,0,0,0,0,0,0,0,-1,1322,1289,0,0
105,-265,0,0,0,0,0,0,0,0,0,-1,1329,1289,0,0
112,-265,0,0,0,0,0,0,0,0,0,-1,1336,1289,0,0
119,-265,0,0,0,0,0,0,0,0,0,-1,1343,1289,0,0
126,-265,0,0,0,0,0,0,0,0,0,-1,1350,1289,0,0
133,-265,0,0,0,0,0,0,0,0,0,-1,1357,1289,0,0
140,-265,0,0,0,0,0,0,0,0,0,-1,1364,1289,0,0
147,-265,0,0,0,0,0,0,0,0,0,-1,1371,1289,0,0
154,-265,0,0,0,0,0,0,0,0,0,-1,1378,1289,0,0
161,-265,0,0,0,0,0,0,0,0,0,-1,1385,1289,0,0
168,-265,0,0,0,0,0,0,0,0,0,-1,1392,1289,0,0
175,-265,0,0,0,0,0,0,0,0,0,-1,1399,1289,0,0
182,-265,0,0,0,0,0,0,0,0,0,-1,1406,1289,0,0
189,-265,0,0,0,0,0,0,0,0,0,-1,1413,1289,0,0
196,-265,0,0,0,0,0,0,0,0,0,-1,1420,1289,0,0
203,-265,0,0,0,0,0,0,0,0,0,-1,1427,1289,0,0
210,-265,0,0,0,0,0,0,0,0,0,-1,1434,1289,0,0
217,-265,0,0,0,0,0,0,0,0,0,-1,1441,1289,0,0
224,-265,0,0,0,0,0,0,0,0,0,-1,1448,1289,0,0
231,-265,0,0,0,0,0,0,0,0,0,-1,1455,1289,0,0
238,-265,0,0,0,0,0,0,0,0,0,-1,1462,1289,0,0
245,-265,0,0,0,0,0,0,0,0,0,-1,1469,1289,0,0
252,-265,0,0,0,0,0,0,0,0,0,-1,1476,1289,0,0
259,-265,0,0,0,0,0,0,0,0,0,-1,1483,1289,0,0
266,-265,0,0,0,0,0,0,0,0,0,-1,1490,1289,0,0
273,-265,0,0,0,0,0,0,0,0,0,-1,1497,1289,0,0
280,-265,0,0,0,0,0,0,0,0,0,-1,1504,1289,0,0
287,-265,0,0,0,0,0,0,0,0,0,-1,1511,1289,0,0
294,-265,0,0,0,0,0,0,0,0,0,-1,1518,1289,0,0
301,-265,0,0,0,0,0,0,0,0,0,-1,1525,1289,0,0
308,-265,0,0,0,0,0,0,0,0,0,-1,1532,1289,0,0
315,-265,0,0,0,0,0,0,0,0,0,-1,1539,1289,0,0
322,-265,0,0,0,0,0,0,0,0,0,-1,1546,1289,0,0
329,-265,0,0,0,0,0,0,0,0,0,-1,1553,1289,0,0
336,-265,0,0,0,0,0,0,0,0,0,-1,1560,1289,0,0
343,-265,0,0,0,0,0,0,0,0,0,-1,1567,1289,0,0
350,-265,0,0,0,0,0,0,0,0,0,-1,1574,1289,0,0
357,-265,0,0,0,0,0,0,0,0,0,-1,1581,1289,0,0
364,-265,0,0,0,0,0,0,0,0,0,-1,1588,1289,0,0
371,-265,0,0,0,0,0,0,0,0,0,-1,1595,1289,0,0
378,-265,0,0,0,0,0,0,0,0,0,-1,1602,1289,0,0
385,-265,0,0,0,0,0,0,0,0,0,-1,1609,1289,0,0
392,-265,0,0,0,0,0,0,0,0,0,-1,1616,1289,0,0
399,-265,0,0,0,0,0,0,0,0,0,-1,1623,1289,0,0
406,-265,0,0,0,0,0,0,0,0,0,-1,1630,1289,0,0
413,-265,0,0,0,0,0,0,0,0,0,-1,1637,1289,0,0
420,-265,0,0,0,0,0,0,0,0,0,-1,1644,1289,0,0
427,-265,0,0,0,0,0,0,0,0,0,-1,1651,1289,0,0
434,-265,0,0,0,0,0,0,0,0,0,-1,1658,1289,0,0
441,-265,0,0,0,0,0,0,0,0,0,-1,1665,1289,0,0
448,-265,0,0,0,0,0,0,0,0,0,-1,1672,1289,0,0
455,-265,0,0,0,0,0,0,0,0,0,-1,1679,1289,0,0
462,-265,0,0,0,0,0,0,0,0,0,-1,1686,1289,0,0
469,-265,0,0,0,0,0,0,0,0,0,-1,1693,1289,0,0
476,-265,0,0,0,0,0,0,0,0,0,-1,1700,1289,0,0
483,-265,0,0,0,0,0,0,0,0,0,-1,1707,1289,0,0
490,-265,0,0,0,0,0,0,0,0,0,-1,1714,1289,0,0
497,-265,0,0,0,0,0,0,0,0,0,-1,1721,1289,0,0
504,-265,0,0,0,0,0,0,0,0,0,-1,1728,1289,0,0
511,-265,0,0,0,0,0,0,0,0,0,-1,1735,1289,0,0
518,-265,0,0,0,0,0,0,0,0,0,-1,1742,1289,0,0
525,-265,0,0,0,0,0,0,0,0,0,-1,1749,1289,0,0
532,-265,0,0,0,0,0,0,0,0,0,-1,1756,1289,0,0
539,-265,0,0,0,0,0,0,0,0,0,-1,1763,1289,0,0
546,-265,0,0,0,0,0,0,0,0,0,-1,1770,1289,0,0
553,-265,0,0,0,0,0,0,0,0,0,-1,1777,1289,0,0
560,-265,0,0,0,0,0,0,0,0,0,-1,1784,1289,0,0
567,-265,0,0,0,0,0,0,0,0,0,-1,1791,1289,0,0
574,-265,0,0,0,0,0,0,0,0,0,-1,1798,1289,0,0
581,-265,0,0,0,0,0,0,0,0,0,-1,1805,1289,0,0
588,-265,0,0,0,0,0,0,0,0,0,-1,1812,1289,0,0
595,-265,0,0,0,0,0,0,0,0,0,-1,1819,1289,0,0
602,-265,43.3779,2.91992,-0.000897778,0.00543246,0.00521608,0.00836861,-0.00383393,1.0581,0.00720547,0.0276022,1826,1289,43.3779,-2.91989
609,-265,43.3256,2.84753,0.00893509,0.00232625,0.0110873,0.0172,-0.00593862,0.640571,0.0138764,0.0291015,1833,1289,43.3255,-2.84759
616,-265,43.3623,2.88855,0.0178547,-0.0016644,0.0168085,0.0275315,-0.0113413,0.52237,0.023083,0.0330718,1840,1289,43.3623,-2.88855
623,-265,43.3213,2.63293,0.0220866,-0.00470954,0.0191683,0.0320751,-0.014698,0.480381,0.0276187,0.044237,1847,1289,43.3212,-2.63297
630,-265,43.1624,2.58337,0.0210299,-0.00558753,0.0171267,0.0294109,-0.0139685,0.455095,0.0255686,0.0439647,1854,1289,43.1623,-2.58341
637,-265,43.0022,2.52051,0.0172021,-0.00492792,0.013124,0.0233031,-0.011029,0.435157,0.0202395,0.0444568,1861,1289,43.0022,-2.52052
644,-265,43.5989,3.48267,0,0,0,0,0,0,0,-1,1868,1289,43.5989,-3.48271
651,-265,38.2179,0.64856,0,0,0,0,0,0,0,-1,1875,1289,38.2179,-0.648555
658,-265,36.2434,1.67969,0,0,0,0,0,0,0,-1,1882,1289,36.2434,-1.67963
665,-265,34.7902,1.43164,0,0,0,0,0,0,0,-1,1889,1289,34.7901,-1.43162
672,-265,20.0045,6.62671,0,0,0,0,0,0,0,-1,1896,1289,20.0045,-6.62668
679,-265,32.0945,9.84607,0,0,0,0,0,0,0,-1,1903,1289,32.0944,-9.84603
686,-265,32.0906,9.41699,0.00322327,-0.00248053,-0.000134701,0.00322645,-0.00248371,-0.0235984,0.00330605,0.0337962,1910,1289,32.0905,-9.41704
693,-265,32.0845,9.00073,0.00278242,-0.00239307,-0.00101562,0.00297458,-0.00258523,-0.187,0.00321258,0.00988441,1917,1289,32.0845,-9.00076
700,-265,32.0686,8.59314,0.00136502,-0.00072605,-0.000428006,0.00144924,-0.000810264,-0.194277,0.0013218,0.0108764,1924,1289,32.0686,-8.59308
707,-265,32.0671,8.18042,0.000902908,-0.000398917,0.000399236,0.00101559,-0.000511599,0.275088,0.000897585,0.0107801,1931,1289,32.0672,-8.18044
714,-265,32.046,7.78955,-0.000122695,-0.000213823,0.00079749,0.000630532,-0.00096705,0.756862,0.00092916,0.0109185,1938,1289,32.046,-7.78958
721,-265,32.0066,7.38757,-0.000617818,0.000349977,0.000719667,0.000733304,-0.00100115,1.08138,0.00100536,0.0118364,1945,1289,32.0066,-7.38757
728,-265,31.9839,6.99451,-0.00111651,0.000879229,0.00062423,0.00105839,-0.00129568,1.29129,0.00136142,0.0139,1952,1289,31.9839,-6.99446
735,-265,32.022,6.58923,-0.00127867,0.00163265,0.000203391,0.00164679,-0.00129281,1.50138,0.00170127,0.0164821,1959,1289,32.022,-6.58924
742,-265,32.0175,6.20642,-0.000861606,0.00275086,-0.000724047,0.00289057,-0.00100132,-1.38017,0.00233357,0.0195525,1966,1289,32.0175,-6.20644
749,-265,31.9955,5.81689,0.000700418,0.00446596,-0.00248001,0.00569691,-0.000530535,-1.11007,0.00398657,0.0461293,1973,1289,31.9955,-5.81688
756,-265,32.0873,5.41089,0,0,0,0,0,0,0,-1,1980,1289,32.0873,-5.41087
763,-265,31.6508,4.49072,0,0,0,0,0,0,0,-1,1987,1289,31.6508,-4.49077
770,-265,32.1581,1.84326,0,0,0,0,0,0,0,-1,1994,1289,32.158,-1.84325
777,-265,32.1664,5.3457,0,0,0,0,0,0,0,-1,2001,1289,32.1664,-5.34568
784,-265,0,0,0,0,0,0,0,0,0,-1,2008,1289,0,0
791,-265,0,0,0,0,0,0,0,0,0,-1,2015,1289,0,0
798,-265,0,0,0,0,0,0,0,0,0,-1,2022,1289,0,0
805,-265,0,0,0,0,0,0,0,0,0,-1,2029,1289,0,0
812,-265,0,0,0,0,0,0,0,0,0,-1,2036,1289,0,0
-700,-272,0,0,0,0,0,0,0,0,0,-1,524,1296,0,0
-693,-272,0,0,0,0,0,0,0,0,0,-1,531,1296,0,0
-686,-272,0,0,0,0,0,0,0,0,0,-1,538,1296,0,0
-679,-272,0,0,0,0,0,0,0,0,0,-1,545,1296,0,0
-672,-272,0,0,0,0,0,0,0,0,0,-1,552,1296,0,0
-665,-272,0,0,0,0,0,0,0,0,0,-1,559,1296,0,0
-658,-272,-18.6953,0.101318,0,0,0,0,0,0,0,-1,566,1296,-18.6953,-0.101268
-651,-272,-19.5643,1.76074,0,0,0,0,0,0,0,-1,573,1296,-19.5643,-1.76073
-644,-272,-19.5433,1.52747,0,0,0,0,0,0,0,-1,580,1296,-19.5433,-1.52742
-637,-272,-19.4523,1.22437,0,0,0,0,0,0,0,-1,587,1296,-19.4523,-1.22431
-630,-272,-19.5844,0.638184,0,0,0,0,0,0,0,-1,594,1296,-19.5844,-0.638227
-623,-272,-18.8593,2.74805,0,0,0,0,0,0,0,-1,601,1296,-18.8593,-2.74799
-616,-272,-18.8082,3.31018,0.0200289,0.00228106,0.0106989,0.0250551,-0.00274511,0.439185,0.0176895,0.045129,608,1296,-18.8082,-3.31022
-609,-272,-18.7825,3.7738,0.0124355,0.00115207,0.00510049,0.0143993,-0.000811729,0.367528,0.00988126,0.0252802,615,1296,-18.7825,-3.77384
-602,-272,-18.8139,4.11218,0.00795,0.00130426,0.00264096,0.00887167,0.000382592,0.335776,0.00579113,0.0144628,622,1296,-18.8139,-4.11224
-595,-272,-18.8435,4.59106,0.0057326,0.00115175,0.00198889,0.00647561,0.000408734,0.357526,0.00418749,0.0110385,629,1296,-18.8435,-4.59103
-588,-272,-18.8444,5.04175,0.00431871,0.000919328,0.00160813,0.0049589,0.00027914,0.378863,0.00321692,0.0105173,636,1296,-18.8443,-5.04179
-581,-272,-18.8732,5.47253,0.00348263,0.000674141,0.00140616,0.00406564,9.11322e-05,0.393039,0.00268056,0.0100765,643,1296,-18.8732,-5.47255
-574,-272,-18.9249,5.9613,0.00313607,0.000368472,0.00136016,0.00369261,-0.000188073,0.388392,0.00252677,0.0149456,650,1296,-18.9249,-5.96133
-567,-272,-18.9511,6.43738,0.00335107,4.68749e-05,0.00150138,0.00393136,-0.000533417,0.36882,0.0028156,0.0204432,657,1296,-18.9511,-6.43738
-560,-272,-18.9719,6.90259,0.00409561,-6.04873e-05,0.00135062,0.00449596,-0.000460836,0.288168,0.00316213,0.0200882,664,1296,-18.9719,-6.90257
-553,-272,-18.8314,7.3335,0.00513538,0.000271554,0.00106895,0.00535994,4.69929e-05,0.207065,0.00355773,0.0212681,671,1296,-18.8313,-7.33346
-546,-272,-18.7024,7.92078,0.00590413,0.0004014,0.000538402,0.00595632,0.000349216,0.0966216,0.00385974,0.041906,678,1296,-18.7024,-7.9208
-539,-272,-18.9283,8.57861,0,0,0,0,0,0,0,-1,685,1296,-18.9283,-8.57865
-532,-272,-10.5572,4.53943,0,0,0,0,0,0,0,-1,692,1296,-10.5572,-4.53943
-525,-272,-11.9599,0.0393066,0,0,0,0,0,0,0,-1,699,1296,-11.9599,-0.0393577
-518,-272,-21.1357,-1.41382,0,0,0,0,0,0,0,-1,706,1296,-21.1357,1.41379
-511,-272,-23.2565,0.226318,0,0,0,0,0,0,0,-1,713,1296,-23.2565,-0.22626
-504,-272,-19.7397,0.114746,0,0,0,0,0,0,0,-1,720,1296,-19.7397,-0.114701
-497,-272,-19.2225,1.71301,0,0,0,0,0,0,0,-1,727,1296,-19.2225,-1.71302
-490,-272,-20.1948,2.4032,0,0,0,0,0,0,0,-1,734,1296,-20.1948,-2.40322
-483,-272,-15.3736,0.792603,0,0,0,0,0,0,0,-1,741,1296,-15.3736,-0.79263
-476,-272,0,0,0,0,0,0,0,0,0,-1,748,1296,0,0
-469,-272,0,0,0,0,0,0,0,0,0,-1,755,1296,0,0
-462,-272,0,0,0,0,0,0,0,0,0,-1,762,1296,0,0
-455,-272,0,0,0,0,0,0,0,0,0,-1,769,1296,0,0
-448,-272,0,0,0,0,0,0,0,0,0,-1,776,1296,0,0
-441,-272,0,0,0,0,0,0,0,0,0,-1,783,1296,0,0
-434,-272,0,0,0,0,0,0,0,0,0,-1,790,1296,0,0
-427,-272,0,0,0,0,0,0,0,0,0,-1,797,1296,0,0
-420,-272,0,0,0,0,0,0,0,0,0,-1,804,1296,0,0
-413,-272,0,0,0,0,0,0,0,0,0,-1,811,1296,0,0
-406,-272,0,0,0,0,0,0,0,0,0,-1,818,1296,0,0
-399,-272,0,0,0,0,0,0,0,0,0,-1,825,1296,0,0
-392,-272,0,0,0,0,0,0,0,0,0,-1,832,1296,0,0
-385,-272,0,0,0,0,0,0,0,0,0,-1,839,1296,0,0
-378,-272,0,0,0,0,0,0,0,0,0,-1,846,1296,0,0
-371,-272,0,0,0,0,0,0,0,0,0,-1,853,1296,0,0
-364,-272,0,0,0,0,0,0,0,0,0,-1,860,1296,0,0
-357,-272,0,0,0,0,0,0,0,0,0,-1,867,1296,0,0
-350,-272,0,0,0,0,0,0,0,0,0,-1,874,1296,0,0
-343,-272,0,0,0,0,0,0,0,0,0,-1,881,1296,0,0
-336,-272,0,0,0,0,0,0,0,0,0,-1,888,1296,0,0
-329,-272,0,0,0,0,0,0,0,0,0,-1,895,1296,0,0
-322,-272,0,0,0,0,0,0,0,0,0,-1,902,1296,0,0
-315,-272,0,0,0,0,0,0,0,0,0,-1,909,1296,0,0
-308,-272,0,0,0,0,0,0,0,0,0,-1,916,1296,0,0
-301,-272,0,0,0,0,0,0,0,0,0,-1,923,1296,0,0
-294,-272,0,0,0,0,0,0,0,0,0,-1,930,1296,0,0
-287,-272,0,0,0,0,0,0,0,0,0,-1,937,1296,0,0
-280,-272,0,0,0,0,0,0,0,0,0,-1,944,1296,0,0
-273,-272,0,0,0,0,0,0,0,0,0,-1,951,1296,0,0
-266,-272,0,0,0,0,0,0,0,0,0,-1,958,1296,0,0
-259,-272,0,0,0,0,0,0,0,0,0,-1,965,1296,0,0
-252,-272,0,0,0,0,0,0,0,0,0,-1,972,1296,0,0
-245,-272,0,0,0,0,0,0,0,0,0,-1,979,1296,0,0
-238,-272,0,0,0,0,0,0,0,0,0,-1,986,1296,0,0
-231,-272,0,0,0,0,0,0,0,0,0,-1,993,1296,0,0
-224,-272,0,0,0,0,0,0,0,0,0,-1,1000,1296,0,0
-217,-272,0,0,0,0,0,0,0,0,0,-1,1007,1296,0,0
-210,-272,0,0,0,0,0,0,0,0,0,-1,1014,1296,0,0
-203,-272,0,0,0,0,0,0,0,0,0,-1,1021,1296,0,0
-196,-272,0,0,0,0,0,0,0,0,0,-1,1028,1296,0,0
-189,-272,0,0,0,0,0,0,0,0,0,-1,1035,1296,0,0
-182,-272,0,0,0,0,0,0,0,0,0,-1,1042,1296,0,0
-175,-272,0,0,0,0,0,0,0,0,0,-1,1049,1296,0,0
-168,-272,0,0,0,0,0,0,0,0,0,-1,1056,1296,0,0
-161,-272,0,0,0,0,0,0,0,0,0,-1,1063,1296,0,0
-154,-272,0,0,0,0,0,0,0,0,0,-1,1070,1296,0,0
-147,-272,0,0,0,0,0,0,0,0,0,-1,1077,1296,0,0
-140,-272,0,0,0,0,0,0,0,0,0,-1,1084,1296,0,0
-133,-272,0,0,0,0,0,0,0,0,0,-1,1091,1296,0,0
-126,-272,0,0,0,0,0,0,0,0,0,-1,1098,1296,0,0
-119,-272,0,0,0,0,0,0,0,0,0,-1,1105,1296,0,0
-112,-272,0,0,0,0,0,0,0,0,0,-1,1112,1296,0,0
-105,-272,0,0,0,0,0,0,0,0,0,-1,1119,1296,0,0
-98,-272,0,0,0,0,0,0,0,0,0,-1,1126,1296,0,0
-91,-272,0,0,0,0,0,0,0,0,0,-1,1133,1296,0,0
-84,-272,0,0,0,0,0,0,0,0,0,-1,1140,1296,0,0
-77,-272,0,0,0,0,0,0,0,0,0,-1,1147,1296,0,0
-70,-272,0,0,0,0,0,0,0,0,0,-1,1154,1296,0,0
-63,-272,0,0,0,0,0,0,0,0,0,-1,1161,1296,0,0
-56,-272,0,0,0,0,0,0,0,0,0,-1,1168,1296,0,0
-49,-272,0,0,0,0,0,0,0,0,0,-1,1175,1296,0,0
-42,-272,0,0,0,0,0,0,0,0,0,-1,1182,1296,0,0
-35,-272,0,0,0,0,0,0,0,0,0,-1,1189,1296,0,0
-28,-272,0,0,0,0,0,0,0,0,0,-1,1196,1296,0,0
-21,-272,0,0,0,0,0,0,0,0,0,-1,1203,1296,0,0
-14,-272,0,0,0,0,0,0,0,0,0,-1,1210,1296,0,0
-7,-272,0,0,0,0,0,0,0,0,0,-1,1217,1296,0,0
0,-272,0,0,0,0,0,0,0,0,0,-1,1224,1296,0,0
7,-272,0,0,0,0,0,0,0,0,0,-1,1231,1296,0,0
14,-272,0,0,0,0,0,0,0,0,0,-1,1238,1296,0,0
21,-272,0,0,0,0,0,0,0,0,0,-1,1245,1296,0,0
28,-272,0,0,0,0,0,0,0,0,0,-1,1252,1296,0,0
35,-272,0,0,0,0,0,0,0,0,0,-1,1259,1296,0,0
42,-272,0,0,0,0,0,0,0,0,0,-1,1266,1296,0,0
49,-272,0,0,0,0,0,0,0,0,0,-1,1273,1296,0,0
56,-272,0,0,0,0,0,0,0,0,0,-1,1280,1296,0,0
63,-272,0,0,0,0,0,0,0,0,0,-1,1287,1296,0,0
70,-272,0,0,0,0,0,0,0,0,0,-1,1294,1296,0,0
77,-272,0,0,0,0,0,0,0,0,0,-1,1301,1296,0,0
84,-272,0,0,0,0,0,0,0,0,0,-1,1308,1296,0,0
91,-272,0,0,0,0,0,0,0,0,0,-1,1315,1296,0,0
98,-272,0,0,0,0,0,0,0,0,0,-1,1322,1296,0,0
105,-272,0,0,0,0,0,0,0,0,0,-1,1329,1296,0,0
112,-272,0,0,0,0,0,0,0,0,0,-1,1336,1296,0,0
119,-272,0,0,0,0,0,0,0,0,0,-1,1343,1296,0,0
126,-272,0,0,0,0,0,0,0,0,0,-1,1350,1296,0,0
133,-272,0,0,0,0,0,0,0,0,0,-1,1357,1296,0,0
140,-272,0,0,0,0,0,0,0,0,0,-1,1364,1296,0,0
147,-272,0,0,0,0,0,0,0,0,0,-1,1371,1296,0,0
154,-272,0,0,0,0,0,0,0,0,0,-1,1378,1296,0,0
161,-272,0,0,0,0,0,0,0,0,0,-1,1385,1296,0,0
168,-272,0,0,0,0,0,0,0,0,0,-1,1392,1296,0,0
175,-272,0,0,0,0,0,0,0,0,0,-1,1399,1296,0,0
182,-272,0,0,0,0,0,0,0,0,0,-1,1406,1296,0,0
189,-272,0,0,0,0,0,0,0,0,0,-1,1413,1296,0,0
196,-272,0,0,0,0,0,0,0,0,0,-1,1420,1296,0,0
203,-272,0,0,0,0,0,0,0,0,0,-1,1427,1296,0,0
210,-272,0,0,0,0,0,0,0,0,0,-1,1434,1296,0,0
217,-272,0,0,0,0,0,0,0,0,0,-1,1441,1296,0,0
224,-272,0,0,0,0,0,0,0,0,0,-1,1448,1296,0,0
231,-272,0,0,0,0,0,0,0,0,0,-1,1455,1296,0,0
238,-272,0,0,0,0,0,0,0,0,0,-1,1462,1296,0,0
245,-272,0,0,0,0,0,0,0,0,0,-1,1469,1296,0,0
252,-272,0,0,0,0,0,0,0,0,0,-1,1476,1296,0,0
259,-272,0,0,0,0,0,0,0,0,0,-1,1483,1296,0,0
266,-272,0,0,0,0,0,0,0,0,0,-1,1490,1296,0,0
273,-272,0,0,0,0,0,0,0,0,0,-1,1497,1296,0,0
280,-272,0,0,0,0,0,0,0,0,0,-1,1504,1296,0,0
287,-272,0,0,0,0,0,0,0,0,0,-1,1511,1296,0,0
294,-272,0,0,0,0,0,0,0,0,0,-1,1518,1296,0,0
301,-272,0,0,0,0,0,0,0,0,0,-1,1525,1296,0,0
308,-272,0,0,0,0,0,0,0,0,0,-1,1532,1296,0,0
315,-272,0,0,0,0,0,0,0,0,0,-1,1539,1296,0,0
322,-272,0,0,0,0,0,0,0,0,0,-1,1546,1296,0,0
329,-272,0,0,0,0,0,0,0,0,0,-1,1553,1296,0,0
336,-272,0,0,0,0,0,0,0,0,0,-1,1560,1296,0,0
343,-272,0,0,0,0,0,0,0,0,0,-1,1567,1296,0,0
350,-272,0,0,0,0,0,0,0,0,0,-1,1574,1296,0,0
357,-272,0,0,0,0,0,0,0,0,0,-1,1581,1296,0,0
364,-272,0,0,0,0,0,0,0,0,0,-1,1588,1296,0,0
371,-272,0,0,0,0,0,0,0,0,0,-1,1595,1296,0,0
378,-272,0,0,0,0,0,0,0,0,0,-1,1602,1296,0,0
385,-272,0,0,0,0,0,0,0,0,0,-1,1609,1296,0,0
392,-272,0,0,0,0,0,0,0,0,0,-1,1616,1296,0,0
399,-272,0,0,0,0,0,0,0,0,0,-1,1623,1296,0,0
406,-272,0,0,0,0,0,0,0,0,0,-1,1630,1296,0,0
413,-272,0,0,0,0,0,0,0,0,0,-1,1637,1296,0,0
420,-272,0,0,0,0,0,0,0,0,0,-1,1644,1296,0,0
427,-272,0,0,0,0,0,0,0,0,0,-1,1651,1296,0,0
434,-272,0,0,0,0,0,0,0,0,0,-1,1658,1296,0,0
441,-272,0,0,0,0,0,0,0,0,0,-1,1665,1296,0,0
448,-272,0,0,0,0,0,0,0,0,0,-1,1672,1296,0,0
455,-272,0,0,0,0,0,0,0,0,0,-1,1679,1296,0,0
462,-272,0,0,0,0,0,0,0,0,0,-1,1686,1296,0,0
469,-272,0,0,0,0,0,0,0,0,0,-1,1693,1296,0,0
476,-272,0,0,0,0,0,0,0,0,0,-1,1700,1296,0,0
483,-272,0,0,0,0,0,0,0,0,0,-1,1707,1296,0,0
490,-272,0,0,0,0,0,0,0,0,0,-1,1714,1296,0,0
497,-272,0,0,0,0,0,0,0,0,0,-1,1721,1296,0,0
504,-272,0,0,0,0,0,0,0,0,0,-1,1728,1296,0,0
511,-272,0,0,0,0,0,0,0,0,0,-1,1735,1296,0,0
518,-272,0,0,0,0,0,0,0,0,0,-1,1742,1296,0,0
525,-272,0,0,0,0,0,0,0,0,0,-1,1749,1296,0,0
532,-272,0,0,0,0,0,0,0,0,0,-1,1756,1296,0,0
539,-272,0,0,0,0,0,0,0,0,0,-1,1763,1296,0,0
546,-272,0,0,0,0,0,0,0,0,0,-1,1770,1296,0,0
553,-272,0,0,0,0,0,0,0,0,0,-1,1777,1296,0,0
560,-272,0,0,0,0,0,0,0,0,0,-1,1784,1296,0,0
567,-272,0,0,0,0,0,0,0,0,0,-1,1791,1296,0,0
574,-272,0,0,0,0,0,0,0,0,0,-1,1798,1296,0,0
581,-272,0,0,0,0,0,0,0,0,0,-1,1805,1296,0,0
588,-272,0,0,0,0,0,0,0,0,0,-1,1812,1296,0,0
595,-272,0,0,0,0,0,0,0,0,0,-1,1819,1296,0,0
602,-272,43.3208,2.85266,0.0047432,-0.00138151,0.0185059,0.0204384,-0.0170767,0.703401,0.0216883,0.0314908,1826,1296,43.3208,-2.8527
609,-272,43.1854,2.69177,0.0155105,-0.00298945,0.0232533,0.0312861,-0.018765,0.596097,0.0291969,0.0399011,1833,1296,43.1854,-2.69173
616,-272,43.1627,2.54419,0.0250497,-0.00594233,0.0281868,0.0417192,-0.0226118,0.534068,0.0376837,0.0447847,1840,1296,43.1628,-2.54415
623,-272,43.1736,2.4093,0.0273657,-0.00742565,0.0278922,0.0428423,-0.0229022,0.506574,0.0385351,0.0455833,1847,1296,43.1736,-2.40933
630,-272,43.0598,2.47388,0.0243376,-0.00691943,0.0231957,0.0366786,-0.0192604,0.488947,0.0328141,0.0461547,1854,1296,43.0598,-2.47393
637,-272,42.6576,2.58801,0.0197037,-0.00562501,0.0177543,0.0288477,-0.014769,0.475596,0.0256156,0.045334,1861,1296,42.6575,-2.588
644,-272,42.4573,2.59106,0,0,0,0,0,0,0,-1,1868,1296,42.4573,-2.59112
651,-272,31.4108,2.48743,0,0,0,0,0,0,0,-1,1875,1296,31.4107,-2.48747
658,-272,35.1527,2.10571,0,0,0,0,0,0,0,-1,1882,1296,35.1527,-2.10573
665,-272,22.0238,4.14417,0,0,0,0,0,0,0,-1,1889,1296,22.0238,-4.14421
672,-272,22.661,7.21765,0,0,0,0,0,0,0,-1,1896,1296,22.661,-7.21761
679,-272,31.6383,9.89563,0,0,0,0,0,0,0,-1,1903,1296,31.6384,-9.89563
686,-272,31.6381,9.45251,0.00270532,-0.00230802,0.000172609,0.00271125,-0.00231395,0.0343757,0.00290432,0.0206617,1910,1296,31.6381,-9.45252
693,-272,31.6516,9.02612,0.00231545,-0.00215359,-0.000741274,0.0024352,-0.00227334,-0.160157,0.00271901,0.0111105,1917,1296,31.6517,-9.0261
700,-272,31.6619,8.62805,0.000964331,-0.000589273,-0.000207984,0.000991693,-0.000616634,-0.130804,0.000936946,0.011554,1924,1296,31.6619,-8.6281
707,-272,31.6582,8.20068,0.000471462,-0.00027728,0.00053151,0.000747212,-0.00055303,0.478577,0.00075348,0.0112965,1931,1296,31.6582,-8.20068
714,-272,31.6268,7.78198,-0.000427798,-0.000102662,0.000900626,0.00064995,-0.00118041,0.87469,0.00107145,0.0120547,1938,1296,31.6269,-7.78196
721,-272,31.5901,7.39697,-0.000976961,0.000421015,0.000876861,0.000843397,-0.00139934,1.1219,0.00130804,0.0147637,1945,1296,31.5901,-7.39696
728,-272,31.5887,6.97595,-0.00162882,0.000893085,0.000871206,0.00116478,-0.00190051,1.2685,0.00178666,0.0164468,1952,1296,31.5888,-6.97597
735,-272,31.5922,6.59802,-0.00203554,0.0015815,0.000557162,0.00166538,-0.00211942,1.42137,0.00219039,0.0154476,1959,1296,31.5922,-6.59796
742,-272,31.4977,6.22058,-0.00198327,0.00260195,-0.000210906,0.00261163,-0.00199295,-1.52493,0.00266645,0.0256497,1966,1296,31.4977,-6.22058
749,-272,31.4485,5.81384,0,0,0,0,0,0,0,-1,1973,1296,31.4484,-5.81387
756,-272,30.6412,5.25317,0,0,0,0,0,0,0,-1,1980,1296,30.6413,-5.25315
763,-272,31.1876,2.48035,0,0,0,0,0,0,0,-1,1987,1296,31.1877,-2.4804
770,-272,25.9485,3.67749,0,0,0,0,0,0,0,-1,1994,1296,25.9485,-3.67744
777,-272,32.3619,6.13257,0,0,0,0,0,0,0,-1,2001,1296,32.362,-6.1326
784,-272,0,0,0,0,0,0,0,0,0,-1,2008,1296,0,0
791,-272,0,0,0,0,0,0,0,0,0,-1,2015,1296,0,0
798,-272,0,0,0,0,0,0,0,0,0,-1,2022,1296,0,0
805,-272,0,0,0,0,0,0,0,0,0,-1,2029,1296,0,0
812,-272,0,0,0,0,0,0,0,0,0,-1,2036,1296,0,0
-700,-279,0,0,0,0,0,0,0,0,0,-1,524,1303,0,0
-693,-279,0,0,0,0,0,0,0,0,0,-1,531,1303,0,0
-686,-279,0,0,0,0,0,0,0,0,0,-1,538,1303,0,0
-679,-279,0,0,0,0,0,0,0,0,0,-1,545,1303,0,0
-672,-279,0,0,0,0,0,0,0,0,0,-1,552,1303,0,0
-665,-279,0,0,0,0,0,0,0,0,0,-1,559,1303,0,0
-658,-279,-18.0391,1.31946,0,0,0,0,0,0,0,-1,566,1303,-18.0391,-1.31942
-651,-279,-18.2878,1.5625,0,0,0,0,0,0,0,-1,573,1303,-18.2879,-1.56247
-644,-279,-19.7198,0.645874,0,0,0,0,0,0,0,-1,580,1303,-19.7198,-0.645909
-637,-279,-19.5298,0.346313,0,0,0,0,0,0,0,-1,587,1303,-19.5298,-0.346318
-630,-279,-19.8475,-0.60144,0,0,0,0,0,0,0,-1,594,1303,-19.8475,0.60148
-623,-279,-18.6263,2.42834,0,0,0,0,0,0,0,-1,601,1303,-18.6264,-2.4284
-616,-279,-19.0247,2.93884,0,0,0,0,0,0,0,-1,608,1303,-19.0246,-2.93888
-609,-279,-18.6495,3.5498,0.0121679,0.0024617,0.00490459,0.0142146,0.00041497,0.395338,0.00934116,0.0443046,615,1303,-18.6495,-3.54975
-602,-279,-18.3439,4.1261,0.00801907,0.00227813,0.0029435,0.00926002,0.00103718,0.398979,0.00585831,0.0144536,622,1303,-18.344,-4.12615
-595,-279,-18.3673,4.60156,0.00570708,0.00180867,0.00216227,0.00666903,0.000846726,0.418587,0.00419238,0.0103296,629,1303,-18.3673,-4.60158
-588,-279,-18.3622,5.06299,0.00424354,0.00135178,0.00168976,0.00502159,0.000573731,0.43151,0.00317381,0.0109028,636,1303,-18.3623,-5.06297
-581,-279,-18.4045,5.47949,0.00335229,0.000889806,0.00138686,0.0039756,0.000266501,0.422384,0.00256618,0.0121476,643,1303,-18.4045,-5.47948
-574,-279,-18.4424,5.92712,0.00290311,0.00045426,0.00122901,0.00341353,-5.61586e-05,0.393633,0.00229464,0.0128557,650,1303,-18.4424,-5.92708
-567,-279,-18.4666,6.41162,0.00290606,2.2641e-05,0.00122481,0.00335609,-0.00042739,0.352117,0.00239262,0.0163855,657,1303,-18.4666,-6.4116
-560,-279,-18.4612,6.91467,0.00339436,-0.000301623,0.00116348,0.00373011,-0.00063738,0.280947,0.00272417,0.0163863,664,1303,-18.4612,-6.91466
-553,-279,-18.4301,7.39014,0.00425198,-0.000318999,0.0011253,0.00451399,-0.000581011,0.228762,0.00322052,0.0128043,671,1303,-18.4301,-7.39015
-546,-279,-18.4152,7.82715,0.00498936,-0.000357141,0.000934856,0.00514811,-0.000515891,0.168207,0.00361632,0.0228346,678,1303,-18.4151,-7.82717
-539,-279,-18.4048,8.22205,0,0,0,0,0,0,0,-1,685,1303,-18.4048,-8.22205
-532,-279,-14.9813,7.89917,0,0,0,0,0,0,0,-1,692,1303,-14.9813,-7.89918
-525,-279,-11.7063,-0.539185,0,0,0,0,0,0,0,-1,699,1303,-11.7063,0.539166
-518,-279,-16.8138,1.11963,0,0,0,0,0,0,0,-1,706,1303,-16.8138,-1.11968
-511,-279,-20.1063,-1.37915,0,0,0,0,0,0,0,-1,713,1303,-20.1062,1.37918
-504,-279,-18.3766,1.04578,0,0,0,0,0,0,0,-1,720,1303,-18.3767,-1.04577
-497,-279,-19.0046,2.08911,0,0,0,0,0,0,0,-1,727,1303,-19.0046,-2.08905
-490,-279,-20.0176,2.55188,0,0,0,0,0,0,0,-1,734,1303,-20.0176,-2.55183
-483,-279,-20.8064,2.99792,0,0,0,0,0,0,0,-1,741,1303,-20.8064,-2.99797
-476,-279,0,0,0,0,0,0,0,0,0,-1,748,1303,0,0
-469,-279,0,0,0,0,0,0,0,0,0,-1,755,1303,0,0
-462,-279,0,0,0,0,0,0,0,0,0,-1,762,1303,0,0
-455,-279,0,0,0,0,0,0,0,0,0,-1,769,1303,0,0
-448,-279,0,0,0,0,0,0,0,0,0,-1,776,1303,0,0
-441,-279,0,0,0,0,0,0,0,0,0,-1,783,1303,0,0
-434,-279,0,0,0,0,0,0,0,0,0,-1,790,1303,0,0
-427,-279,0,0,0,0,0,0,0,0,0,-1,797,1303,0,0
-420,-279,0,0,0,0,0,0,0,0,0,-1,804,1303,0,0
-413,-279,0,0,0,0,0,0,0,0,0,-1,811,1303,0,0
-406,-279,0,0,0,0,0,0,0,0,0,-1,818,1303,0,0
-399,-279,0,0,0,0,0,0,0,0,0,-1,825,1303,0,0
-392,-279,0,0,0,0,0,0,0,0,0,-1,832,1303,0,0
-385,-279,0,0,0,0,0,0,0,0,0,-1,839,1303,0,0
-378,-279,0,0,0,0,0,0,0,0,0,-1,846,1303,0,0
-371,-279,0,0,0,0,0,0,0,0,0,-1,853,1303,0,0
-364,-279,0,0,0,0,0,0,0,0,0,-1,860,1303,0,0
-357,-279,0,0,0,0,0,0,0,0,0,-1,867,1303,0,0
-350,-279,0,0,0,0,0,0,0,0,0,-1,874,1303,0,0
-343,-279,0,0,0,0,0,0,0,0,0,-1,881,1303,0,0
-336,-279,0,0,0,0,0,0,0,0,0,-1,888,1303,0,0
-329,-279,0,0,0,0,0,0,0,0,0,-1,895,1303,0,0
-322,-279,0,0,0,0,0,0,0,0,0,-1,902,1303,0,0
-315,-279,0,0,0,0,0,0,0,0,0,-1,909,1303,0,0
-308,-279,0,0,0,0,0,0,0,0,0,-1,916,1303,0,0
-301,-279,0,0,0,0,0,0,0,0,0,-1,923,1303,0,0
-294,-279,0,0,0,0,0,0,0,0,0,-1,930,1303,0,0
-287,-279,0,0,0,0,0,0,0,0,0,-1,937,1303,0,0
-280,-279,0,0,0,0,0,0,0,0,0,-1,944,1303,0,0
-273,-279,0,0,0,0,0,0,0,0,0,-1,951,1303,0,0
-266,-279,0,0,0,0,0,0,0,0,0,-1,958,1303,0,0
-259,-279,0,0,0,0,0,0,0,0,0,-1,965,1303,0,0
-252,-279,0,0,0,0,0,0,0,0,0,-1,972,1303,0,0
-245,-279,0,0,0,0,0,0,0,0,0,-1,979,1303,0,0
-238,-279,0,0,0,0,0,0,0,0,0,-1,986,1303,0,0
-231,-279,0,0,0,0,0,0,0,0,0,-1,993,1303,0,0
-224,-279,0,0,0,0,0,0,0,0,0,-1,1000,1303,0,0
-217,-279,0,0,0,0,0,0,0,0,0,-1,1007,1303,0,0
-210,-279,0,0,0,0,0,0,0,0,0,-1,1014,1303,0,0
-203,-279,0,0,0,0,0,0,0,0,0,-1,1021,1303,0,0
-196,-279,0,0,0,0,0,0,0,0,0,-1,1028,1303,0,0
-189,-279,0,0,0,0,0,0,0,0,0,-1,1035,1303,0,0
-182,-279,0,0,0,0,0,0,0,0,0,-1,1042,1303,0,0
-175,-279,0,0,0,0,0,0,0,0,0,-1,1049,1303,0,0
-168,-279,0,0,0,0,0,0,0,0,0,-1,1056,1303,0,0
-161,-279,0,0,0,0,0,0,0,0,0,-1,1063,1303,0,0
-154,-279,0,0,0,0,0,0,0,0,0,-1,1070,1303,0,0
-147,-279,0,0,0,0,0,0,0,0,0,-1,1077,1303,0,0
-140,-279,0,0,0,0,0,0,0,0,0,-1,1084,1303,0,0
-133,-279,0,0,0,0,0,0,0,0,0,-1,1091,1303,0,0
-126,-279,0,0,0,0,0,0,0,0,0,-1,1098,1303,0,0
-119,-279,0,0,0,0,0,0,0,0,0,-1,1105,1303,0,0
-112,-279,0,0,0,0,0,0,0,0,0,-1,1112,1303,0,0
-105,-279,0,0,0,0,0,0,0,0,0,-1,1119,1303,0,0
-98,-279,0,0,0,0,0,0,0,0,0,-1,1126,1303,0,0
-91,-279,0,0,0,0,0,0,0,0,0,-1,1133,1303,0,0
-84,-279,0,0,0,0,0,0,0,0,0,-1,1140,1303,0,0
-77,-279,0,0,0,0,0,0,0,0,0,-1,1147,1303,0,0
-70,-279,0,0,0,0,0,0,0,0,0,-1,1154,1303,0,0
-63,-279,0,0,0,0,0,0,0,0,0,-1,1161,1303,0,0
-56,-279,0,0,0,0,0,0,0,0,0,-1,1168,1303,0,0
-49,-279,0,0,0,0,0,0,0,0,0,-1,1175,1303,0,0
-42,-279,0,0,0,0,0,0,0,0,0,-1,1182,1303,0,0
-35,-279,0,0,0,0,0,0,0,0,0,-1,1189,1303,0,0
-28,-279,0,0,0,0,0,0,0,0,0,-1,1196,1303,0,0
-21,-279,0,0,0,0,0,0,0,0,0,-1,1203,1303,0,0
-14,-279,0,0,0,0,0,0,0,0,0,-1,1210,1303,0,0
-7,-279,0,0,0,0,0,0,0,0,0,-1,1217,1303,0,0
0,-279,0,0,0,0,0,0,0,0,0,-1,1224,1303,0,0
7,-279,0,0,0,0,0,0,0,0,0,-1,1231,1303,0,0
14,-279,0,0,0,0,0,0,0,0,0,-1,1238,1303,0,0
21,-279,0,0,0,0,0,0,0,0,0,-1,1245,1303,0,0
28,-279,0,0,0,0,0,0,0,0,0,-1,1252,1303,0,0
35,-279,0,0,0,0,0,0,0,0,0,-1,1259,1303,0,0
42,-279,0,0,0,0,0,0,0,0,0,-1,1266,1303,0,0
49,-279,0,0,0,0,0,0,0,0,0,-1,1273,1303,0,0
56,-279,0,0,0,0,0,0,0,0,0,-1,1280,1303,0,0
63,-279,0,0,0,0,0,0,0,0,0,-1,1287,1303,0,0
70,-279,0,0,0,0,0,0,0,0,0,-1,1294,1303,0,0
77,-279,0,0,0,0,0,0,0,0,0,-1,1301,1303,0,0
84,-279,0,0,0,0,0,0,0,0,0,-1,1308,1303,0,0
91,-279,0,0,0,0,0,0,0,0,0,-1,1315,1303,0,0
98,-279,0,0,0,0,0,0,0,0,0,-1,1322,1303,0,0
105,-279,0,0,0,0,0,0,0,0,0,-1,1329,1303,0,0
112,-279,0,0,0,0,0,0,0,0,0,-1,1336,1303,0,0
119,-279,0,0,0,0,0,0,0,0,0,-1,1343,1303,0,0
126,-279,0,0,0,0,0,0,0,0,0,-1,1350,1303,0,0
133,-279,0,0,0,0,0,0,0,0,0,-1,1357,1303,0,0
140,-279,0,0,0,0,0,0,0,0,0,-1,1364,1303,0,0
147,-279,0,0,0,0,0,0,0,0,0,-1,1371,1303,0,0
154,-279,0,0,0,0,0,0,0,0,0,-1,1378,1303,0,0
161,-279,0,0,0,0,0,0,0,0,0,-1,1385,1303,0,0
168,-279,0,0,0,0,0,0,0,0,0,-1,1392,1303,0,0
175,-279,0,0,0,0,0,0,0,0,0,-1,1399,1303,0,0
182,-279,0,0,0,0,0,0,0,0,0,-1,1406,1303,0,0
189,-279,0,0,0,0,0,0,0,0,0,-1,1413,1303,0,0
196,-279,0,0,0,0,0,0,0,0,0,-1,1420,1303,0,0
203,-279,0,0,0,0,0,0,0,0,0,-1,1427,1303,0,0
210,-279,0,0,0,0,0,0,0,0,0,-1,1434,1303,0,0
217,-279,0,0,0,0,0,0,0,0,0,-1,1441,1303,0,0
224,-279,0,0,0,0,0,0,0,0,0,-1,1448,1303,0,0
231,-279,0,0,0,0,0,0,0,0,0,-1,1455,1303,0,0
238,-279,0,0,0,0,0,0,0,0,0,-1,1462,1303,0,0
245,-279,0,0,0,0,0,0,0,0,0,-1,1469,1303,0,0
252,-279,0,0,0,0,0,0,0,0,0,-1,1476,1303,0,0
259,-279,0,0,0,0,0,0,0,0,0,-1,1483,1303,0,0
266,-279,0,0,0,0,0,0,0,0,0,-1,1490,1303,0,0
273,-279,0,0,0,0,0,0,0,0,0,-1,1497,1303,0,0
280,-279,0,0,0,0,0,0,0,0,0,-1,1504,1303,0,0
287,-279,0,0,0,0,0,0,0,0,0,-1,1511,1303,0,0
294,-279,0,0,0,0,0,0,0,0,0,-1,1518,1303,0,0
301,-279,0,0,0,0,0,0,0,0,0,-1,1525,1303,0,0
308,-279,0,0,0,0,0,0,0,0,0,-1,1532,1303,0,0
315,-279,0,0,0,0,0,0,0,0,0,-1,1539,1303,0,0
322,-279,0,0,0,0,0,0,0,0,0,-1,1546,1303,0,0
329,-279,0,0,0,0,0,0,0,0,0,-1,1553,1303,0,0
336,-279,0,0,0,0,0,0,0,0,0,-1,1560,1303,0,0
343,-279,0,0,0,0,0,0,0,0,0,-1,1567,1303,0,0
350,-279,0,0,0,0,0,0,0,0,0,-1,1574,1303,0,0
357,-279,0,0,0,0,0,0,0,0,0,-1,1581,1303,0,0
364,-279,0,0,0,0,0,0,0,0,0,-1,1588,1303,0,0
371,-279,0,0,0,0,0,0,0,0,0,-1,1595,1303,0,0
378,-279,0,0,0,0,0,0,0,0,0,-1,1602,1303,0,0
385,-279,0,0,0,0,0,0,0,0,0,-1,1609,1303,0,0
392,-279,0,0,0,0,0,0,0,0,0,-1,1616,1303,0,0
399,-279,0,0,0,0,0,0,0,0,0,-1,1623,1303,0,0
406,-279,0,0,0,0,0,0,0,0,0,-1,1630,1303,0,0
413,-279,0,0,0,0,0,0,0,0,0,-1,1637,1303,0,0
420,-279,0,0,0,0,0,0,0,0,0,-1,1644,1303,0,0
427,-279,0,0,0,0,0,0,0,0,0,-1,1651,1303,0,0
434,-279,0,0,0,0,0,0,0,0,0,-1,1658,1303,0,0
441,-279,0,0,0,0,0,0,0,0,0,-1,1665,1303,0,0
448,-279,0,0,0,0,0,0,0,0,0,-1,1672,1303,0,0
455,-279,0,0,0,0,0,0,0,0,0,-1,1679,1303,0,0
462,-279,0,0,0,0,0,0,0,0,0,-1,1686,1303,0,0
469,-279,0,0,0,0,0,0,0,0,0,-1,1693,1303,0,0
476,-279,0,0,0,0,0,0,0,0,0,-1,1700,1303,0,0
483,-279,0,0,0,0,0,0,0,0,0,-1,1707,1303,0,0
490,-279,0,0,0,0,0,0,0,0,0,-1,1714,1303,0,0
497,-279,0,0,0,0,0,0,0,0,0,-1,1721,1303,0,0
504,-279,0,0,0,0,0,0,0,0,0,-1,1728,1303,0,0
511,-279,0,0,0,0,0,0,0,0,0,-1,1735,1303,0,0
518,-279,0,0,0,0,0,0,0,0,0,-1,1742,1303,0,0
525,-279,0,0,0,0,0,0,0,0,0,-1,1749,1303,0,0
532,-279,0,0,0,0,0,0,0,0,0,-1,1756,1303,0,0
539,-279,0,0,0,0,0,0,0,0,0,-1,1763,1303,0,0
546,-279,0,0,0,0,0,0,0,0,0,-1,1770,1303,0,0
553,-279,0,0,0,0,0,0,0,0,0,-1,1777,1303,0,0
560,-279,0,0,0,0,0,0,0,0,0,-1,1784,1303,0,0
567,-279,0,0,0,0,0,0,0,0,0,-1,1791,1303,0,0
574,-279,0,0,0,0,0,0,0,0,0,-1,1798,1303,0,0
581,-279,0,0,0,0,0,0,0,0,0,-1,1805,1303,0,0
588,-279,0,0,0,0,0,0,0,0,0,-1,1812,1303,0,0
595,-279,0,0,0,0,0,0,0,0,0,-1,1819,1303,0,0
602,-279,43.2891,2.75183,0.0101951,-0.00773869,0.0320869,0.0345444,-0.0320881,0.649146,0.038479,0.0426596,1826,1303,43.2891,-2.75189
609,-279,43.1759,2.48486,0.0223681,-0.00735242,0.0367032,0.0471052,-0.0320896,0.593047,0.0459963,0.0490796,1833,1303,43.176,-2.48485
616,-279,42.9907,2.25928,0,0,0,0,0,0,0,-1,1840,1303,42.9907,-2.25934
623,-279,42.9395,2.10535,0,0,0,0,0,0,0,-1,1847,1303,42.9394,-2.10536
630,-279,42.7754,2.30798,0,0,0,0,0,0,0,-1,1854,1303,42.7753,-2.30799
637,-279,42.3901,2.36353,0,0,0,0,0,0,0,-1,1861,1303,42.3901,-2.36356
644,-279,33.5021,3.40234,0,0,0,0,0,0,0,-1,1868,1303,33.5021,-3.40237
651,-279,29.8456,2.3562,0,0,0,0,0,0,0,-1,1875,1303,29.8455,-2.35615
658,-279,21.5076,7.65649,0,0,0,0,0,0,0,-1,1882,1303,21.5076,-7.65648
665,-279,18.9794,6.09607,0,0,0,0,0,0,0,-1,1889,1303,18.9793,-6.09601
672,-279,23.5206,8.32507,0,0,0,0,0,0,0,-1,1896,1303,23.5206,-8.32512
679,-279,31.1498,9.89575,0,0,0,0,0,0,0,-1,1903,1303,31.1498,-9.89572
686,-279,31.1937,9.4635,0.00258166,-0.00216466,0.000102421,0.00258386,-0.00216687,0.0215656,0.00274636,0.0242205,1910,1303,31.1937,-9.46348
693,-279,31.1952,9.02942,0.00219483,-0.00187786,-0.00074343,0.0023263,-0.00200932,-0.175023,0.0025054,0.0159528,1917,1303,31.1952,-9.02945
700,-279,31.2288,8.64331,0.00087725,-0.000488834,-0.000222663,0.000912627,-0.00052421,-0.157562,0.000839601,0.0115257,1924,1303,31.2287,-8.64328
707,-279,31.2273,8.21997,0.000202515,-0.000169711,0.000500593,0.000550473,-0.000517669,0.607424,0.000616789,0.00902295,1931,1303,31.2273,-8.21992
714,-279,31.1914,7.79053,-0.000758796,-6.34263e-07,0.00093116,0.000625651,-0.00138508,0.978707,0.00118818,0.0106096,1938,1303,31.1914,-7.79057
721,-279,31.1997,7.37634,-0.00150904,0.000426894,0.00106607,0.000898878,-0.00198103,1.154,0.00170139,0.013764,1945,1303,31.1997,-7.3763
728,-279,31.214,6.97424,-0.00240935,0.00079365,0.00122351,0.00120753,-0.00282324,1.2446,0.00238867,0.0150945,1952,1303,31.214,-6.97427
735,-279,31.1829,6.61267,-0.00315728,0.00135923,0.00108514,0.00160642,-0.00340447,1.34682,0.00295447,0.0152702,1959,1303,31.1829,-6.61264
742,-279,31.0172,6.25537,-0.00360469,0.00217617,0.000583301,0.00223444,-0.00366296,1.47123,0.003438,0.0322752,1966,1303,31.0173,-6.25537
749,-279,30.9187,5.87402,0,0,0,0,0,0,0,-1,1973,1303,30.9187,-5.87401
756,-279,23.2091,4.43433,0,0,0,0,0,0,0,-1,1980,1303,23.2092,-4.43432
763,-279,27.1613,3.46265,0,0,0,0,0,0,0,-1,1987,1303,27.1613,-3.4627
770,-279,21.5828,3.54199,0,0,0,0,0,0,0,-1,1994,1303,21.5827,-3.54198
777,-279,32.5369,6.99609,0,0,0,0,0,0,0,-1,2001,1303,32.5369,-6.99608
784,-279,0,0,0,0,0,0,0,0,0,-1,2008,1303,0,0
791,-279,0,0,0,0,0,0,0,0,0,-1,2015,1303,0,0
798,-279,0,0,0,0,0,0,0,0,0,-1,2022,1303,0,0
805,-279,0,0,0,0,0,0,0,0,0,-1,2029,1303,0,0
812,-279,0,0,0,0,0,0,0,0,0,-1,2036,1303,0,0
-700,-286,0,0,0,0,0,0,0,0,0,-1,524,1310,0,0
-693,-286,0,0,0,0,0,0,0,0,0,-1,531,1310,0,0
-686,-286,0,0,0,0,0,0,0,0,0,-1,538,1310,0,0
-679,-286,0,0,0,0,0,0,0,0,0,-1,545,1310,0,0
-672,-286,0,0,0,0,0,0,0,0,0,-1,552,1310,0,0
-665,-286,0,0,0,0,0,0,0,0,0,-1,559,1310,0,0
-658,-286,-18.8017,-0.794922,0,0,0,0,0,0,0,-1,566,1310,-18.8017,0.79496
-651,-286,-18.798,0.594727,0,0,0,0,0,0,0,-1,573,1310,-18.798,-0.594671
-644,-286,-19.1089,1.80017,0,0,0,0,0,0,0,-1,580,1310,-19.1089,-1.80021
-637,-286,-19.4593,2.65125,0,0,0,0,0,0,0,-1,587,1310,-19.4593,-2.65124
-630,-286,-19.6556,3.39246,0,0,0,0,0,0,0,-1,594,1310,-19.6556,-3.39242
-623,-286,-20.1415,-1.72998,0,0,0,0,0,0,0,-1,601,1310,-20.1415,1.72995
-616,-286,-18.5149,1.88867,0,0,0,0,0,0,0,-1,608,1310,-18.5149,-1.88872
-609,-286,-18.3386,3.23193,0,0,0,0,0,0,0,-1,615,1310,-18.3386,-3.23199
-602,-286,-17.9155,4.08984,0.00802013,0.0030587,0.00327682,0.00964934,0.00142949,0.4614,0.0060133,0.0192166,622,1310,-17.9155,-4.08987
-595,-286,-17.9266,4.60107,0.00565867,0.00234461,0.00235726,0.00688303,0.00112025,0.479048,0.0042646,0.0120972,629,1310,-17.9267,-4.60112
-588,-286,-17.9191,5.04688,0.00418448,0.00175081,0.0018123,0.00515056,0.000784729,0.489752,0.00320432,0.0124188,636,1310,-17.9191,-5.04689
-581,-286,-17.9301,5.48291,0.00327918,0.00118113,0.0014371,0.0040094,0.000450909,0.470122,0.00253603,0.0136811,643,1310,-17.9301,-5.48287
-574,-286,-17.9618,5.93445,0.00277569,0.000692127,0.00120472,0.0033266,0.000141221,0.4289,0.00217219,0.0139686,650,1310,-17.9618,-5.93446
-567,-286,-17.9913,6.43396,0.00264041,0.000227368,0.00110395,0.00306925,-0.00020147,0.370517,0.00211652,0.0136731,657,1310,-17.9913,-6.43399
-560,-286,-17.9946,6.92151,0.00291663,-0.000174841,0.00108045,0.00325681,-0.000515021,0.305024,0.00236167,0.0141439,664,1310,-17.9946,-6.92148
-553,-286,-17.9866,7.39453,0.00354498,-0.00042886,0.00116112,0.00385938,-0.000743257,0.264429,0.00285312,0.0104313,671,1310,-17.9866,-7.39458
-546,-286,-17.9794,7.87524,0.00417367,-0.000631044,0.00121308,0.00446257,-0.000919945,0.233801,0.0033244,0.0180621,678,1310,-17.9795,-7.87526
-539,-286,-17.985,8.30737,0.00493822,-0.000918634,0.00128029,0.00520586,-0.00118627,0.206077,0.00392619,0.0434961,685,1310,-17.985,-8.30738
-532,-286,-17.8728,8.72754,0,0,0,0,0,0,0,-1,692,1310,-17.8728,-8.72753
-525,-286,-11.4528,-1.11768,0,0,0,0,0,0,0,-1,699,1310,-11.4528,1.11769
-518,-286,-11.0701,1.37329,0,0,0,0,0,0,0,-1,706,1310,-11.0701,-1.37332
-511,-286,-17.7545,-0.0791016,0,0,0,0,0,0,0,-1,713,1310,-17.7544,0.0791606
-504,-286,-18.0455,1.29602,0,0,0,0,0,0,0,-1,720,1310,-18.0455,-1.29601
-497,-286,-18.3367,2.67114,0,0,0,0,0,0,0,-1,727,1310,-18.3366,-2.67118
-490,-286,-19.5795,2.47266,0,0,0,0,0,0,0,-1,734,1310,-19.5795,-2.4727
-483,-286,-19.7277,2.74744,0,0,0,0,0,0,0,-1,741,1310,-19.7277,-2.74747
-476,-286,-20.0391,3.06177,0,0,0,0,0,0,0,-1,748,1310,-20.0391,-3.06178
-469,-286,0,0,0,0,0,0,0,0,0,-1,755,1310,0,0
-462,-286,0,0,0,0,0,0,0,0,0,-1,762,1310,0,0
-455,-286,0,0,0,0,0,0,0,0,0,-1,769,1310,0,0
-448,-286,0,0,0,0,0,0,0,0,0,-1,776,1310,0,0
-441,-286,0,0,0,0,0,0,0,0,0,-1,783,1310,0,0
-434,-286,0,0,0,0,0,0,0,0,0,-1,790,1310,0,0
-427,-286,0,0,0,0,0,0,0,0,0,-1,797,1310,0,0
-420,-286,0,0,0,0,0,0,0,0,0,-1,804,1310,0,0
-413,-286,0,0,0,0,0,0,0,0,0,-1,811,1310,0,0
-406,-286,0,0,0,0,0,0,0,0,0,-1,818,1310,0,0
-399,-286,0,0,0,0,0,0,0,0,0,-1,825,1310,0,0
-392,-286,0,0,0,0,0,0,0,0,0,-1,832,1310,0,0
-385,-286,0,0,0,0,0,0,0,0,0,-1,839,1310,0,0
-378,-286,0,0,0,0,0,0,0,0,0,-1,846,1310,0,0
-371,-286,0,0,0,0,0,0,0,0,0,-1,853,1310,0,0
-364,-286,0,0,0,0,0,0,0,0,0,-1,860,1310,0,0
-357,-286,0,0,0,0,0,0,0,0,0,-1,867,1310,0,0
-350,-286,0,0,0,0,0,0,0,0,0,-1,874,1310,0,0
-343,-286,0,0,0,0,0,0,0,0,0,-1,881,1310,0,0
-336,-286,0,0,0,0,0,0,0,0,0,-1,888,1310,0,0
-329,-286,0,0,0,0,0,0,0,0,0,-1,895,1310,0,0
-322,-286,0,0,0,0,0,0,0,0,0,-1,902,1310,0,0
-315,-286,0,0,0,0,0,0,0,0,0,-1,909,1310,0,0
-308,-286,0,0,0,0,0,0,0,0,0,-1,916,1310,0,0
-301,-286,0,0,0,0,0,0,0,0,0,-1,923,1310,0,0
-294,-286,0,0,0,0,0,0,0,0,0,-1,930,1310,0,0
-287,-286,0,0,0,0,0,0,0,0,0,-1,937,1310,0,0
-280,-286,0,0,0,0,0,0,0,0,0,-1,944,1310,0,0
-273,-286,0,0,0,0,0,0,0,0,0,-1,951,1310,0,0
-266,-286,0,0,0,0,0,0,0,0,0,-1,958,1310,0,0
-259,-286,0,0,0,0,0,0,0,0,0,-1,965,1310,0,0
-252,-286,0,0,0,0,0,0,0,0,0,-1,972,1310,0,0
-245,-286,0,0,0,0,0,0,0,0,0,-1,979,1310,0,0
-238,-286,0,0,0,0,0,0,0,0,0,-1,986,1310,0,0
-231,-286,0,0,0,0,0,0,0,0,0,-1,993,1310,0,0
-224,-286,0,0,0,0,0,0,0,0,0,-1,1000,1310,0,0
-217,-286,0,0,0,0,0,0,0,0,0,-1,1007,1310,0,0
-210,-286,0,0,0,0,0,0,0,0,0,-1,1014,1310,0,0
-203,-286,0,0,0,0,0,0,0,0,0,-1,1021,1310,0,0
-196,-286,0,0,0,0,0,0,0,0,0,-1,1028,1310,0,0
-189,-286,0,0,0,0,0,0,0,0,0,-1,1035,1310,0,0
-182,-286,0,0,0,0,0,0,0,0,0,-1,1042,1310,0,0
-175,-286,0,0,0,0,0,0,0,0,0,-1,1049,1310,0,0
-168,-286,0,0,0,0,0,0,0,0,0,-1,1056,1310,0,0
-161,-286,0,0,0,0,0,0,0,0,0,-1,1063,1310,0,0
-154,-286,0,0,0,0,0,0,0,0,0,-1,1070,1310,0,0
-147,-286,0,0,0,0,0,0,0,0,0,-1,1077,1310,0,0
-140,-286,0,0,0,0,0,0,0,0,0,-1,1084,1310,0,0
-133,-286,0,0,0,0,0,0,0,0,0,-1,1091,1310,0,0
-126,-286,0,0,0,0,0,0,0,0,0,-1,1098,1310,0,0
-119,-286,0,0,0,0,0,0,0,0,0,-1,1105,1310,0,0
-112,-286,0,0,0,0,0,0,0,0,0,-1,1112,1310,0,0
-105,-286,0,0,0,0,0,0,0,0,0,-1,1119,1310,0,0
-98,-286,0,0,0,0,0,0,0,0,0,-1,1126,1310,0,0
-91,-286,0,0,0,0,0,0,0,0,0,-1,1133,1310,0,0
-84,-286,0,0,0,0,0,0,0,0,0,-1,1140,1310,0,0
-77,-286,0,0,0,0,0,0,0,0,0,-1,1147,1310,0,0
-70,-286,0,0,0,0,0,0,0,0,0,-1,1154,1310,0,0
-63,-286,0,0,0,0,0,0,0,0,0,-1,1161,1310,0,0
-56,-286,0,0,0,0,0,0,0,0,0,-1,1168,1310,0,0
-49,-286,0,0,0,0,0,0,0,0,0,-1,1175,1310,0,0
-42,-286,0,0,0,0,0,0,0,0,0,-1,1182,1310,0,0
-35,-286,0,0,0,0,0,0,0,0,0,-1,1189,1310,0,0
-28,-286,0,0,0,0,0,0,0,0,0,-1,1196,1310,0,0
-21,-286,0,0,0,0,0,0,0,0,0,-1,1203,1310,0,0
-14,-286,0,0,0,0,0,0,0,0,0,-1,1210,1310,0,0
-7,-286,0,0,0,0,0,0,0,0,0,-1,1217,1310,0,0
0,-286,0,0,0,0,0,0,0,0,0,-1,1224,1310,0,0
7,-286,0,0,0,0,0,0,0,0,0,-1,1231,1310,0,0
14,-286,0,0,0,0,0,0,0,0,0,-1,1238,1310,0,0
21,-286,0,0,0,0,0,0,0,0,0,-1,1245,1310,0,0
28,-286,0,0,0,0,0,0,0,0,0,-1,1252,1310,0,0
35,-286,0,0,0,0,0,0,0,0,0,-1,1259,1310,0,0
42,-286,0,0,0,0,0,0,0,0,0,-1,1266,1310,0,0
49,-286,0,0,0,0,0,0,0,0,0,-1,1273,1310,0,0
56,-286,0,0,0,0,0,0,0,0,0,-1,1280,1310,0,0
63,-286,0,0,0,0,0,0,0,0,0,-1,1287,1310,0,0
70,-286,0,0,0,0,0,0,0,0,0,-1,1294,1310,0,0
77,-286,0,0,0,0,0,0,0,0,0,-1,1301,1310,0,0
84,-286,0,0,0,0,0,0,0,0,0,-1,1308,1310,0,0
91,-286,0,0,0,0,0,0,0,0,0,-1,1315,1310,0,0
98,-286,0,0,0,0,0,0,0,0,0,-1,1322,1310,0,0
105,-286,0,0,0,0,0,0,0,0,0,-1,1329,1310,0,0
112,-286,0,0,0,0,0,0,0,0,0,-1,1336,1310,0,0
119,-286,0,0,0,0,0,0,0,0,0,-1,1343,1310,0,0
126,-286,0,0,0,0,0,0,0,0,0,-1,1350,1310,0,0
133,-286,0,0,0,0,0,0,0,0,0,-1,1357,1310,0,0
140,-286,0,0,0,0,0,0,0,0,0,-1,1364,1310,0,0
147,-286,0,0,0,0,0,0,0,0,0,-1,1371,1310,0,0
154,-286,0,0,0,0,0,0,0,0,0,-1,1378,1310,0,0
161,-286,0,0,0,0,0,0,0,0,0,-1,1385,1310,0,0
168,-286,0,0,0,0,0,0,0,0,0,-1,1392,1310,0,0
175,-286,0,0,0,0,0,0,0,0,0,-1,1399,1310,0,0
182,-286,0,0,0,0,0,0,0,0,0,-1,1406,1310,0,0
189,-286,0,0,0,0,0,0,0,0,0,-1,1413,1310,0,0
196,-286,0,0,0,0,0,0,0,0,0,-1,1420,1310,0,0
203,-286,0,0,0,0,0,0,0,0,0,-1,1427,1310,0,0
210,-286,0,0,0,0,0,0,0,0,0,-1,1434,1310,0,0
217,-286,0,0,0,0,0,0,0,0,0,-1,1441,1310,0,0
224,-286,0,0,0,0,0,0,0,0,0,-1,1448,1310,0,0
231,-286,0,0,0,0,0,0,0,0,0,-1,1455,1310,0,0
238,-286,0,0,0,0,0,0,0,0,0,-1,1462,1310,0,0
245,-286,0,0,0,0,0,0,0,0,0,-1,1469,1310,0,0
252,-286,0,0,0,0,0,0,0,0,0,-1,1476,1310,0,0
259,-286,0,0,0,0,0,0,0,0,0,-1,1483,1310,0,0
266,-286,0,0,0,0,0,0,0,0,0,-1,1490,1310,0,0
273,-286,0,0,0,0,0,0,0,0,0,-1,1497,1310,0,0
280,-286,0,0,0,0,0,0,0,0,0,-1,1504,1310,0,0
287,-286,0,0,0,0,0,0,0,0,0,-1,1511,1310,0,0
294,-286,0,0,0,0,0,0,0,0,0,-1,1518,1310,0,0
301,-286,0,0,0,0,0,0,0,0,0,-1,1525,1310,0,0
308,-286,0,0,0,0,0,0,0,0,0,-1,1532,1310,0,0
315,-286,0,0,0,0,0,0,0,0,0,-1,1539,1310,0,0
322,-286,0,0,0,0,0,0,0,0,0,-1,1546,1310,0,0
329,-286,0,0,0,0,0,0,0,0,0,-1,1553,1310,0,0
336,-286,0,0,0,0,0,0,0,0,0,-1,1560,1310,0,0
343,-286,0,0,0,0,0,0,0,0,0,-1,1567,1310,0,0
350,-286,0,0,0,0,0,0,0,0,0,-1,1574,1310,0,0
357,-286,0,0,0,0,0,0,0,0,0,-1,1581,1310,0,0
364,-286,0,0,0,0,0,0,0,0,0,-1,1588,1310,0,0
371,-286,0,0,0,0,0,0,0,0,0,-1,1595,1310,0,0
378,-286,0,0,0,0,0,0,0,0,0,-1,1602,1310,0,0
385,-286,0,0,0,0,0,0,0,0,0,-1,1609,1310,0,0
392,-286,0,0,0,0,0,0,0,0,0,-1,1616,1310,0,0
399,-286,0,0,0,0,0,0,0,0,0,-1,1623,1310,0,0
406,-286,0,0,0,0,0,0,0,0,0,-1,1630,1310,0,0
413,-286,0,0,0,0,0,0,0,0,0,-1,1637,1310,0,0
420,-286,0,0,0,0,0,0,0,0,0,-1,1644,1310,0,0
427,-286,0,0,0,0,0,0,0,0,0,-1,1651,1310,0,0
434,-286,0,0,0,0,0,0,0,0,0,-1,1658,1310,0,0
441,-286,0,0,0,0,0,0,0,0,0,-1,1665,1310,0,0
448,-286,0,0,0,0,0,0,0,0,0,-1,1672,1310,0,0
455,-286,0,0,0,0,0,0,0,0,0,-1,1679,1310,0,0
462,-286,0,0,0,0,0,0,0,0,0,-1,1686,1310,0,0
469,-286,0,0,0,0,0,0,0,0,0,-1,1693,1310,0,0
476,-286,0,0,0,0,0,0,0,0,0,-1,1700,1310,0,0
483,-286,0,0,0,0,0,0,0,0,0,-1,1707,1310,0,0
490,-286,0,0,0,0,0,0,0,0,0,-1,1714,1310,0,0
497,-286,0,0,0,0,0,0,0,0,0,-1,1721,1310,0,0
504,-286,0,0,0,0,0,0,0,0,0,-1,1728,1310,0,0
511,-286,0,0,0,0,0,0,0,0,0,-1,1735,1310,0,0
518,-286,0,0,0,0,0,0,0,0,0,-1,1742,1310,0,0
525,-286,0,0,0,0,0,0,0,0,0,-1,1749,1310,0,0
532,-286,0,0,0,0,0,0,0,0,0,-1,1756,1310,0,0
539,-286,0,0,0,0,0,0,0,0,0,-1,1763,1310,0,0
546,-286,0,0,0,0,0,0,0,0,0,-1,1770,1310,0,0
553,-286,0,0,0,0,0,0,0,0,0,-1,1777,1310,0,0
560,-286,0,0,0,0,0,0,0,0,0,-1,1784,1310,0,0
567,-286,0,0,0,0,0,0,0,0,0,-1,1791,1310,0,0
574,-286,0,0,0,0,0,0,0,0,0,-1,1798,1310,0,0
581,-286,0,0,0,0,0,0,0,0,0,-1,1805,1310,0,0
588,-286,0,0,0,0,0,0,0,0,0,-1,1812,1310,0,0
595,-286,43.3846,2.83057,0,0,0,0,0,0,0,-1,1819,1310,43.3846,-2.83057
602,-286,43.4347,2.61658,0,0,0,0,0,0,0,-1,1826,1310,43.4347,-2.61657
609,-286,43.1476,2.36438,0,0,0,0,0,0,0,-1,1833,1310,43.1476,-2.36436
616,-286,41.3303,1.42773,0.0350391,-0.0120654,0.0489095,0.0657717,-0.042798,0.56101,0.0631488,0.0434993,1840,1310,41.3303,-1.4277
623,-286,41.88,1.93005,0.0333741,-0.0107635,0.0421264,0.0588623,-0.0362517,0.544118,0.0554289,0.0442254,1847,1310,41.8801,-1.93002
630,-286,42.3184,2.01868,0,0,0,0,0,0,0,-1,1854,1310,42.3183,-2.01869
637,-286,42.1057,1.95605,0,0,0,0,0,0,0,-1,1861,1310,42.1058,-1.95606
644,-286,25.6433,1.33862,0,0,0,0,0,0,0,-1,1868,1310,25.6433,-1.33858
651,-286,25.2507,1.88245,0,0,0,0,0,0,0,-1,1875,1310,25.2508,-1.88245
658,-286,25.9475,9.43689,0,0,0,0,0,0,0,-1,1882,1310,25.9475,-9.43693
665,-286,24.9838,8.03101,0,0,0,0,0,0,0,-1,1889,1310,24.9837,-8.03104
672,-286,30.6471,10.5583,0,0,0,0,0,0,0,-1,1896,1310,30.6471,-10.5584
679,-286,30.7001,9.98511,0.00221358,-0.00207581,0.000878954,0.0023867,-0.00224893,0.194475,0.00267677,0.0465136,1903,1310,30.7,-9.98514
686,-286,30.7939,9.44641,0.00230354,-0.00212367,8.33829e-05,0.00230511,-0.00212524,0.0188253,0.00255857,0.020982,1910,1310,30.7939,-9.44647
693,-286,30.7798,9.03821,0.00180923,-0.00162782,-0.000627978,0.00192037,-0.00173897,-0.175171,0.00211358,0.0154101,1917,1310,30.7798,-9.03817
700,-286,30.7937,8.63416,0.00058217,-0.000381341,-0.000161905,0.000608648,-0.000407819,-0.162108,0.000590664,0.0110921,1924,1310,30.7937,-8.63421
707,-286,30.7921,8.24377,-0.000134881,-1.79796e-05,0.000477653,0.000404786,-0.000557647,0.846281,0.000557992,0.0088399,1931,1310,30.7921,-8.24376
714,-286,30.7759,7.82654,-0.00105098,0.000132724,0.000948354,0.000658756,-0.00157701,1.06437,0.00132662,0.00926393,1938,1310,30.7759,-7.82657
721,-286,30.7889,7.39648,-0.00192954,0.000401165,0.00126479,0.00095562,-0.00248399,1.15765,0.00205017,0.0115808,1945,1310,30.789,-7.39653
728,-286,30.7947,6.99084,-0.00302591,0.000607257,0.00161248,0.00121968,-0.00363833,1.20782,0.00291835,0.0143921,1952,1310,30.7947,-6.9908
735,-286,30.8151,6.59741,-0.00412685,0.00095887,0.00171248,0.00148175,-0.00464972,1.27446,0.00369415,0.019004,1959,1310,30.8151,-6.59739
742,-286,30.7605,6.26953,-0.00521525,0.00137647,0.00164543,0.00176438,-0.00560315,1.33928,0.00444194,0.0444972,1966,1310,30.7605,-6.26956
749,-286,30.8015,5.90039,0,0,0,0,0,0,0,-1,1973,1310,30.8015,-5.90039
756,-286,24.8226,4.43481,0,0,0,0,0,0,0,-1,1980,1310,24.8227,-4.43479
763,-286,20.6671,3.99683,0,0,0,0,0,0,0,-1,1987,1310,20.6671,-3.99683
770,-286,23.9147,4.45679,0,0,0,0,0,0,0,-1,1994,1310,23.9146,-4.45675
777,-286,0,0,0,0,0,0,0,0,0,-1,2001,1310,0,0
784,-286,0,0,0,0,0,0,0,0,0,-1,2008,1310,0,0
791,-286,0,0,0,0,0,0,0,0,0,-1,2015,1310,0,0
798,-286,0,0,0,0,0,0,0,0,0,-1,2022,1310,0,0
805,-286,0,0,0,0,0,0,0,0,0,-1,2029,1310,0,0
812,-286,0,0,0,0,0,0,0,0,0,-1,2036,1310,0,0
-700,-293,0,0,0,0,0,0,0,0,0,-1,524,1317,0,0
-693,-293,0,0,0,0,0,0,0,0,0,-1,531,1317,0,0
-686,-293,0,0,0,0,0,0,0,0,0,-1,538,1317,0,0
-679,-293,0,0,0,0,0,0,0,0,0,-1,545,1317,0,0
-672,-293,0,0,0,0,0,0,0,0,0,-1,552,1317,0,0
-665,-293,0,0,0,0,0,0,0,0,0,-1,559,1317,0,0
-658,-293,0,0,0,0,0,0,0,0,0,-1,566,1317,0,0
-651,-293,-19.3986,0.230591,0,0,0,0,0,0,0,-1,573,1317,-19.3986,-0.230615
-644,-293,-19.6501,1.56128,0,0,0,0,0,0,0,-1,580,1317,-19.6502,-1.56126
-637,-293,-19.9641,2.40369,0,0,0,0,0,0,0,-1,587,1317,-19.9641,-2.4037
-630,-293,-20.2918,3.08264,0,0,0,0,0,0,0,-1,594,1317,-20.2918,-3.08267
-623,-293,-15.6058,0.229614,0,0,0,0,0,0,0,-1,601,1317,-15.6058,-0.229666
-616,-293,-15.5056,2.17737,0,0,0,0,0,0,0,-1,608,1317,-15.5055,-2.17742
-609,-293,-17.2737,3.29443,0,0,0,0,0,0,0,-1,615,1317,-17.2737,-3.29443
-602,-293,-17.2964,3.96265,0.00792733,0.00394865,0.00368745,0.0101278,0.00174815,0.53803,0.00625119,0.0451857,622,1317,-17.2964,-3.96259
-595,-293,-17.494,4.58154,0.00563806,0.00294046,0.00261067,0.00722777,0.00135074,0.54696,0.00443733,0.0196064,629,1317,-17.494,-4.58151
-588,-293,-17.4727,5.02844,0.0042195,0.00218442,0.00198206,0.00542995,0.000973971,0.548254,0.00334294,0.0162773,636,1317,-17.4727,-5.02846
-581,-293,-17.4815,5.47852,0.00333877,0.00151552,0.00152575,0.00420449,0.000649798,0.51611,0.00261346,0.0191172,643,1317,-17.4815,-5.47857
-574,-293,-17.5019,5.98206,0.00283882,0.000954276,0.00122071,0.00343863,0.000354471,0.456711,0.00218387,0.0168548,650,1317,-17.5019,-5.98211
-567,-293,-17.5325,6.48511,0.0026283,0.000451769,0.00104435,0.00304834,3.17303e-05,0.382404,0.00202173,0.0160171,657,1317,-17.5325,-6.48514
-560,-293,-17.5436,6.95325,0.00278885,4.54677e-05,0.00101306,0.00312239,-0.00028808,0.318067,0.00218396,0.0173718,664,1317,-17.5437,-6.95323
-553,-293,-17.524,7.40186,0.00330464,-0.000269075,0.00111614,0.00362458,-0.000589022,0.279169,0.00263477,0.0116366,671,1317,-17.524,-7.4019
-546,-293,-17.5229,7.88318,0.00396405,-0.000369746,0.00130602,0.0043272,-0.000732897,0.271207,0.00315758,0.011479,678,1317,-17.5229,-7.88315
-539,-293,-17.4893,8.33313,0.00495808,-0.00051268,0.00171121,0.00544924,-0.00100384,0.27951,0.00400955,0.0334551,685,1317,-17.4893,-8.33313
-532,-293,-17.4398,8.70068,0,0,0,0,0,0,0,-1,692,1317,-17.4397,-8.70066
-525,-293,-8.20642,3.62256,0,0,0,0,0,0,0,-1,699,1317,-8.20639,-3.6226
-518,-293,-10.1053,0.314209,0,0,0,0,0,0,0,-1,706,1317,-10.1053,-0.314234
-511,-293,-11.6276,0.235352,0,0,0,0,0,0,0,-1,713,1317,-11.6276,-0.235372
-504,-293,-17.9086,1.25427,0,0,0,0,0,0,0,-1,720,1317,-17.9086,-1.25423
-497,-293,-18.8006,1.62122,0,0,0,0,0,0,0,-1,727,1317,-18.8006,-1.62119
-490,-293,-18.8961,1.99255,0,0,0,0,0,0,0,-1,734,1317,-18.8961,-1.99251
-483,-293,-19.0831,2.35498,0,0,0,0,0,0,0,-1,741,1317,-19.0831,-2.35497
-476,-293,-19.5228,2.61243,0,0,0,0,0,0,0,-1,748,1317,-19.5228,-2.61237
-469,-293,0,0,0,0,0,0,0,0,0,-1,755,1317,0,0
-462,-293,0,0,0,0,0,0,0,0,0,-1,762,1317,0,0
-455,-293,0,0,0,0,0,0,0,0,0,-1,769,1317,0,0
-448,-293,0,0,0,0,0,0,0,0,0,-1,776,1317,0,0
-441,-293,0,0,0,0,0,0,0,0,0,-1,783,1317,0,0
-434,-293,0,0,0,0,0,0,0,0,0,-1,790,1317,0,0
-427,-293,0,0,0,0,0,0,0,0,0,-1,797,1317,0,0
-420,-293,0,0,0,0,0,0,0,0,0,-1,804,1317,0,0
-413,-293,0,0,0,0,0,0,0,0,0,-1,811,1317,0,0
-406,-293,0,0,0,0,0,0,0,0,0,-1,818,1317,0,0
-399,-293,0,0,0,0,0,0,0,0,0,-1,825,1317,0,0
-392,-293,0,0,0,0,0,0,0,0,0,-1,832,1317,0,0
-385,-293,0,0,0,0,0,0,0,0,0,-1,839,1317,0,0
-378,-293,0,0,0,0,0,0,0,0,0,-1,846,1317,0,0
-371,-293,0,0,0,0,0,0,0,0,0,-1,853,1317,0,0
-364,-293,0,0,0,0,0,0,0,0,0,-1,860,1317,0,0
-357,-293,0,0,0,0,0,0,0,0,0,-1,867,1317,0,0
-350,-293,0,0,0,0,0,0,0,0,0,-1,874,1317,0,0
-343,-293,0,0,0,0,0,0,0,0,0,-1,881,1317,0,0
-336,-293,0,0,0,0,0,0,0,0,0,-1,888,1317,0,0
-329,-293,0,0,0,0,0,0,0,0,0,-1,895,1317,0,0
-322,-293,0,0,0,0,0,0,0,0,0,-1,902,1317,0,0
-315,-293,0,0,0,0,0,0,0,0,0,-1,909,1317,0,0
-308,-293,0,0,0,0,0,0,0,0,0,-1,916,1317,0,0
-301,-293,0,0,0,0,0,0,0,0,0,-1,923,1317,0,0
-294,-293,0,0,0,0,0,0,0,0,0,-1,930,1317,0,0
-287,-293,0,0,0,0,0,0,0,0,0,-1,937,1317,0,0
-280,-293,0,0,0,0,0,0,0,0,0,-1,944,1317,0,0
-273,-293,0,0,0,0,0,0,0,0,0,-1,951,1317,0,0
-266,-293,0,0,0,0,0,0,0,0,0,-1,958,1317,0,0
-259,-293,0,0,0,0,0,0,0,0,0,-1,965,1317,0,0
-252,-293,0,0,0,0,0,0,0,0,0,-1,972,1317,0,0
-245,-293,0,0,0,0,0,0,0,0,0,-1,979,1317,0,0
-238,-293,0,0,0,0,0,0,0,0,0,-1,986,1317,0,0
-231,-293,0,0,0,0,0,0,0,0,0,-1,993,1317,0,0
-224,-293,0,0,0,0,0,0,0,0,0,-1,1000,1317,0,0
-217,-293,0,0,0,0,0,0,0,0,0,-1,1007,1317,0,0
-210,-293,0,0,0,0,0,0,0,0,0,-1,1014,1317,0,0
-203,-293,0,0,0,0,0,0,0,0,0,-1,1021,1317,0,0
-196,-293,0,0,0,0,0,0,0,0,0,-1,1028,1317,0,0
-189,-293,0,0,0,0,0,0,0,0,0,-1,1035,1317,0,0
-182,-293,0,0,0,0,0,0,0,0,0,-1,1042,1317,0,0
-175,-293,0,0,0,0,0,0,0,0,0,-1,1049,1317,0,0
-168,-293,0,0,0,0,0,0,0,0,0,-1,1056,1317,0,0
-161,-293,0,0,0,0,0,0,0,0,0,-1,1063,1317,0,0
-154,-293,0,0,0,0,0,0,0,0,0,-1,1070,1317,0,0
-147,-293,0,0,0,0,0,0,0,0,0,-1,1077,1317,0,0
-140,-293,0,0,0,0,0,0,0,0,0,-1,1084,1317,0,0
-133,-293,0,0,0,0,0,0,0,0,0,-1,1091,1317,0,0
-126,-293,0,0,0,0,0,0,0,0,0,-1,1098,1317,0,0
-119,-293,0,0,0,0,0,0,0,0,0,-1,1105,1317,0,0
-112,-293,0,0,0,0,0,0,0,0,0,-1,1112,1317,0,0
-105,-293,0,0,0,0,0,0,0,0,0,-1,1119,1317,0,0
-98,-293,0,0,0,0,0,0,0,0,0,-1,1126,1317,0,0
-91,-293,0,0,0,0,0,0,0,0,0,-1,1133,1317,0,0
-84,-293,0,0,0,0,0,0,0,0,0,-1,1140,1317,0,0
-77,-293,0,0,0,0,0,0,0,0,0,-1,1147,1317,0,0
-70,-293,0,0,0,0,0,0,0,0,0,-1,1154,1317,0,0
-63,-293,0,0,0,0,0,0,0,0,0,-1,1161,1317,0,0
-56,-293,0,0,0,0,0,0,0,0,0,-1,1168,1317,0,0
-49,-293,0,0,0,0,0,0,0,0,0,-1,1175,1317,0,0
-42,-293,0,0,0,0,0,0,0,0,0,-1,1182,1317,0,0
-35,-293,0,0,0,0,0,0,0,0,0,-1,1189,1317,0,0
-28,-293,0,0,0,0,0,0,0,0,0,-1,1196,1317,0,0
-21,-293,0,0,0,0,0,0,0,0,0,-1,1203,1317,0,0
-14,-293,0,0,0,0,0,0,0,0,0,-1,1210,1317,0,0
-7,-293,0,0,0,0,0,0,0,0,0,-1,1217,1317,0,0
0,-293,0,0,0,0,0,0,0,0,0,-1,1224,1317,0,0
7,-293,0,0,0,0,0,0,0,0,0,-1,1231,1317,0,0
14,-293,0,0,0,0,0,0,0,0,0,-1,1238,1317,0,0
21,-293,0,0,0,0,0,0,0,0,0,-1,1245,1317,0,0
28,-293,0,0,0,0,0,0,0,0,0,-1,1252,1317,0,0
35,-293,0,0,0,0,0,0,0,0,0,-1,1259,1317,0,0
42,-293,0,0,0,0,0,0,0,0,0,-1,1266,1317,0,0
49,-293,0,0,0,0,0,0,0,0,0,-1,1273,1317,0,0
56,-293,0,0,0,0,0,0,0,0,0,-1,1280,1317,0,0
63,-293,0,0,0,0,0,0,0,0,0,-1,1287,1317,0,0
70,-293,0,0,0,0,0,0,0,0,0,-1,1294,1317,0,0
77,-293,0,0,0,0,0,0,0,0,0,-1,1301,1317,0,0
84,-293,0,0,0,0,0,0,0,0,0,-1,1308,1317,0,0
91,-293,0,0,0,0,0,0,0,0,0,-1,1315,1317,0,0
98,-293,0,0,0,0,0,0,0,0,0,-1,1322,1317,0,0
105,-293,0,0,0,0,0,0,0,0,0,-1,1329,1317,0,0
112,-293,0,0,0,0,0,0,0,0,0,-1,1336,1317,0,0
119,-293,0,0,0,0,0,0,0,0,0,-1,1343,1317,0,0
126,-293,0,0,0,0,0,0,0,0,0,-1,1350,1317,0,0
133,-293,0,0,0,0,0,0,0,0,0,-1,1357,1317,0,0
140,-293,0,0,0,0,0,0,0,0,0,-1,1364,1317,0,0
147,-293,0,0,0,0,0,0,0,0,0,-1,1371,1317,0,0
154,-293,0,0,0,0,0,0,0,0,0,-1,1378,1317,0,0
161,-293,0,0,0,0,0,0,0,0,0,-1,1385,1317,0,0
168,-293,0,0,0,0,0,0,0,0,0,-1,1392,1317,0,0
175,-293,0,0,0,0,0,0,0,0,0,-1,1399,1317,0,0
182,-293,0,0,0,0,0,0,0,0,0,-1,1406,1317,0,0
189,-293,0,0,0,0,0,0,0,0,0,-1,1413,1317,0,0
196,-293,0,0,0,0,0,0,0,0,0,-1,1420,1317,0,0
203,-293,0,0,0,0,0,0,0,0,0,-1,1427,1317,0,0
210,-293,0,0,0,0,0,0,0,0,0,-1,1434,1317,0,0
217,-293,0,0,0,0,0,0,0,0,0,-1,1441,1317,0,0
224,-293,0,0,0,0,0,0,0,0,0,-1,1448,1317,0,0
231,-293,0,0,0,0,0,0,0,0,0,-1,1455,1317,0,0
238,-293,0,0,0,0,0,0,0,0,0,-1,1462,1317,0,0
245,-293,0,0,0,0,0,0,0,0,0,-1,1469,1317,0,0
252,-293,0,0,0,0,0,0,0,0,0,-1,1476,1317,0,0
259,-293,0,0,0,0,0,0,0,0,0,-1,1483,1317,0,0
266,-293,0,0,0,0,0,0,0,0,0,-1,1490,1317,0,0
273,-293,0,0,0,0,0,0,0,0,0,-1,1497,1317,0,0
280,-293,0,0,0,0,0,0,0,0,0,-1,1504,1317,0,0
287,-293,0,0,0,0,0,0,0,0,0,-1,1511,1317,0,0
294,-293,0,0,0,0,0,0,0,0,0,-1,1518,1317,0,0
301,-293,0,0,0,0,0,0,0,0,0,-1,1525,1317,0,0
308,-293,0,0,0,0,0,0,0,0,0,-1,1532,1317,0,0
315,-293,0,0,0,0,0,0,0,0,0,-1,1539,1317,0,0
322,-293,0,0,0,0,0,0,0,0,0,-1,1546,1317,0,0
329,-293,0,0,0,0,0,0,0,0,0,-1,1553,1317,0,0
336,-293,0,0,0,0,0,0,0,0,0,-1,1560,1317,0,0
343,-293,0,0,0,0,0,0,0,0,0,-1,1567,1317,0,0
350,-293,0,0,0,0,0,0,0,0,0,-1,1574,1317,0,0
357,-293,0,0,0,0,0,0,0,0,0,-1,1581,1317,0,0
364,-293,0,0,0,0,0,0,0,0,0,-1,1588,1317,0,0
371,-293,0,0,0,0,0,0,0,0,0,-1,1595,1317,0,0
378,-293,0,0,0,0,0,0,0,0,0,-1,1602,1317,0,0
385,-293,0,0,0,0,0,0,0,0,0,-1,1609,1317,0,0
392,-293,0,0,0,0,0,0,0,0,0,-1,1616,1317,0,0
399,-293,0,0,0,0,0,0,0,0,0,-1,1623,1317,0,0
406,-293,0,0,0,0,0,0,0,0,0,-1,1630,1317,0,0
413,-293,0,0,0,0,0,0,0,0,0,-1,1637,1317,0,0
420,-293,0,0,0,0,0,0,0,0,0,-1,1644,1317,0,0
427,-293,0,0,0,0,0,0,0,0,0,-1,1651,1317,0,0
434,-293,0,0,0,0,0,0,0,0,0,-1,1658,1317,0,0
441,-293,0,0,0,0,0,0,0,0,0,-1,1665,1317,0,0
448,-293,0,0,0,0,0,0,0,0,0,-1,1672,1317,0,0
455,-293,0,0,0,0,0,0,0,0,0,-1,1679,1317,0,0
462,-293,0,0,0,0,0,0,0,0,0,-1,1686,1317,0,0
469,-293,0,0,0,0,0,0,0,0,0,-1,1693,1317,0,0
476,-293,0,0,0,0,0,0,0,0,0,-1,1700,1317,0,0
483,-293,0,0,0,0,0,0,0,0,0,-1,1707,1317,0,0
490,-293,0,0,0,0,0,0,0,0,0,-1,1714,1317,0,0
497,-293,0,0,0,0,0,0,0,0,0,-1,1721,1317,0,0
504,-293,0,0,0,0,0,0,0,0,0,-1,1728,1317,0,0
511,-293,0,0,0,0,0,0,0,0,0,-1,1735,1317,0,0
518,-293,0,0,0,0,0,0,0,0,0,-1,1742,1317,0,0
525,-293,0,0,0,0,0,0,0,0,0,-1,1749,1317,0,0
532,-293,0,0,0,0,0,0,0,0,0,-1,1756,1317,0,0
539,-293,0,0,0,0,0,0,0,0,0,-1,1763,1317,0,0
546,-293,0,0,0,0,0,0,0,0,0,-1,1770,1317,0,0
553,-293,0,0,0,0,0,0,0,0,0,-1,1777,1317,0,0
560,-293,0,0,0,0,0,0,0,0,0,-1,1784,1317,0,0
567,-293,0,0,0,0,0,0,0,0,0,-1,1791,1317,0,0
574,-293,0,0,0,0,0,0,0,0,0,-1,1798,1317,0,0
581,-293,0,0,0,0,0,0,0,0,0,-1,1805,1317,0,0
588,-293,0,0,0,0,0,0,0,0,0,-1,1812,1317,0,0
595,-293,43.5089,2.70789,0,0,0,0,0,0,0,-1,1819,1317,43.5089,-2.70785
602,-293,43.5793,2.49023,0,0,0,0,0,0,0,-1,1826,1317,43.5793,-2.49018
609,-293,39.8134,0.947021,0.0353355,-0.0167733,0.062896,0.07736,-0.0587978,0.589035,0.0788539,0.0479192,1833,1317,39.8133,-0.94698
616,-293,40.3771,1.42224,0.0386477,-0.0141787,0.0571451,0.0751886,-0.0507196,0.568916,0.0731493,0.0477214,1840,1317,40.377,-1.4223
623,-293,41.4996,2.37939,0.0356914,-0.0120461,0.0480934,0.0655134,-0.0418681,0.555057,0.0624957,0.0447401,1847,1317,41.4996,-2.37943
630,-293,42.1184,1.73572,0,0,0,0,0,0,0,-1,1854,1317,42.1185,-1.73574
637,-293,30.8379,3.60046,0,0,0,0,0,0,0,-1,1861,1317,30.8379,-3.60043
644,-293,24.4565,0.520752,0,0,0,0,0,0,0,-1,1868,1317,24.4566,-0.520709
651,-293,25.8926,9.51245,0,0,0,0,0,0,0,-1,1875,1317,25.8926,-9.51246
658,-293,25.4904,9.10205,0,0,0,0,0,0,0,-1,1882,1317,25.4904,-9.10209
665,-293,30.6815,10.5433,0,0,0,0,0,0,0,-1,1889,1317,30.6816,-10.5433
672,-293,30.4686,10.3447,0.0083106,-0.00422307,0.00480416,0.00994017,-0.00585264,0.327021,0.00921922,0.0349113,1896,1317,30.4687,-10.3447
679,-293,30.4281,9.90027,0.00214651,-0.00169372,0.00114355,0.00246124,-0.00200846,0.268575,0.00258499,0.01475,1903,1317,30.428,-9.90022
686,-293,30.4202,9.46997,0.0019887,-0.0016265,0.000330981,0.00201875,-0.00165655,0.0905497,0.00212537,0.0163589,1910,1317,30.4202,-9.46992
693,-293,30.4106,9.06763,0.00136591,-0.00112969,-0.000290361,0.00139925,-0.00116303,-0.114315,0.00148143,0.0116899,1917,1317,30.4106,-9.06757
700,-293,30.3777,8.64404,0.000266109,-0.000189795,3.27577e-05,0.00026845,-0.000192137,0.0713637,0.000267134,0.0104177,1924,1317,30.3777,-8.64404
707,-293,30.3513,8.2572,-0.000449713,9.36295e-05,0.000540873,0.000427226,-0.00078331,1.01813,0.000708911,0.0116112,1931,1317,30.3514,-8.25718
714,-293,30.3523,7.85205,-0.00133707,0.000238368,0.00102228,0.000741216,-0.00183992,1.11366,0.00153456,0.00815673,1938,1317,30.3523,-7.85204
721,-293,30.3658,7.42542,-0.00242628,0.000356134,0.00154321,0.00104266,-0.00311281,1.15222,0.00249642,0.00949472,1945,1317,30.3658,-7.42538
728,-293,30.3612,6.98999,-0.00381284,0.000420319,0.00211349,0.00129485,-0.00468737,1.17846,0.00363426,0.0123877,1952,1317,30.3612,-6.98996
735,-293,30.3588,6.55042,-0.00547807,0.000567892,0.00255346,0.001502,-0.00641218,1.2201,0.00485355,0.0238352,1959,1317,30.3588,-6.55041
742,-293,30.4448,6.10156,0,0,0,0,0,0,0,-1,1966,1317,30.4448,-6.10161
749,-293,29.439,5.35339,0,0,0,0,0,0,0,-1,1973,1317,29.4389,-5.35334
756,-293,24.978,3.9718,0,0,0,0,0,0,0,-1,1980,1317,24.978,-3.97186
763,-293,26.6713,4.74097,0,0,0,0,0,0,0,-1,1987,1317,26.6713,-4.74098
770,-293,24.1349,4.69153,0,0,0,0,0,0,0,-1,1994,1317,24.1348,-4.69159
777,-293,0,0,0,0,0,0,0,0,0,-1,2001,1317,0,0
784,-293,0,0,0,0,0,0,0,0,0,-1,2008,1317,0,0
791,-293,0,0,0,0,0,0,0,0,0,-1,2015,1317,0,0
798,-293,0,0,0,0,0,0,0,0,0,-1,2022,1317,0,0
805,-293,0,0,0,0,0,0,0,0,0,-1,2029,1317,0,0
812,-293,0,0,0,0,0,0,0,0,0,-1,2036,1317,0,0
-700,-300,0,0,0,0,0,0,0,0,0,-1,524,1324,0,0
-693,-300,0,0,0,0,0,0,0,0,0,-1,531,1324,0,0
-686,-300,0,0,0,0,0,0,0,0,0,-1,538,1324,0,0
-679,-300,0,0,0,0,0,0,0,0,0,-1,545,1324,0,0
-672,-300,0,0,0,0,0,0,0,0,0,-1,552,1324,0,0
-665,-300,0,0,0,0,0,0,0,0,0,-1,559,1324,0,0
-658,-300,0,0,0,0,0,0,0,0,0,-1,566,1324,0,0
-651,-300,-20.1143,0.203857,0,0,0,0,0,0,0,-1,573,1324,-20.1142,-0.203872
-644,-300,-20.4374,1.17224,0,0,0,0,0,0,0,-1,580,1324,-20.4375,-1.17226
-637,-300,-20.7362,1.82813,0,0,0,0,0,0,0,-1,587,1324,-20.7362,-1.8281
-630,-300,-21.1108,2.26306,0,0,0,0,0,0,0,-1,594,1324,-21.1109,-2.2631
-623,-300,-12.7067,1.48462,0,0,0,0,0,0,0,-1,601,1324,-12.7067,-1.48462
-616,-300,-14.9988,1.68628,0,0,0,0,0,0,0,-1,608,1324,-14.9988,-1.68627
-609,-300,-15.5027,3.29907,0,0,0,0,0,0,0,-1,615,1324,-15.5027,-3.29902
-602,-300,-16.8129,3.86804,0,0,0,0,0,0,0,-1,622,1324,-16.8129,-3.86805
-595,-300,-17.0374,4.56458,0.00558208,0.00358818,0.00285105,0.00760546,0.00156479,0.617205,0.00463756,0.0324247,629,1324,-17.0374,-4.56461
-588,-300,-16.9954,5.06519,0.00420999,0.0026599,0.00216362,0.0057332,0.0011367,0.61341,0.00350522,0.020186,636,1324,-16.9954,-5.06517
-581,-300,-17.0178,5.55286,0.00334829,0.00189627,0.00164292,0.00441847,0.000826095,0.577348,0.00271254,0.0210323,643,1324,-17.0177,-5.55289
-574,-300,-17.0261,6.02087,0.00284261,0.00126051,0.00128721,0.00356241,0.00054071,0.509876,0.00221679,0.0168006,650,1324,-17.0261,-6.0209
-567,-300,-17.0276,6.48682,0.00258944,0.000721316,0.00105821,0.00306686,0.0002439,0.423815,0.00196832,0.0163942,657,1324,-17.0276,-6.48684
-560,-300,-17.0638,6.96899,0.00263877,0.000300478,0.000962399,0.00298392,-4.46794e-05,0.344353,0.00200434,0.0158691,664,1324,-17.0638,-6.96905
-553,-300,-17.0536,7.42786,0.00297921,-6.96554e-05,0.000979182,0.0032666,-0.000357043,0.28548,0.00230598,0.0109748,671,1324,-17.0537,-7.42786
-546,-300,-17.0566,7.88806,0.00350779,-0.000267315,0.00111547,0.00381275,-0.000572279,0.266874,0.0027525,0.00936799,678,1324,-17.0566,-7.88811
-539,-300,-17.0322,8.35828,0.00433725,-0.000485033,0.00143575,0.00473234,-0.000880131,0.268539,0.00348551,0.0199211,685,1324,-17.0322,-8.35825
-532,-300,-16.9952,8.79895,0,0,0,0,0,0,0,-1,692,1324,-16.9952,-8.79895
-525,-300,-13.5115,6.27783,0,0,0,0,0,0,0,-1,699,1324,-13.5115,-6.2778
-518,-300,-9.8349,-0.537109,0,0,0,0,0,0,0,-1,706,1324,-9.83487,0.537068
-511,-300,-12.8644,0.081665,0,0,0,0,0,0,0,-1,713,1324,-12.8644,-0.0817016
-504,-300,-13.4829,-0.165527,0,0,0,0,0,0,0,-1,720,1324,-13.4829,0.165544
-497,-300,-18.1063,0.956543,0,0,0,0,0,0,0,-1,727,1324,-18.1063,-0.9565
-490,-300,-18.2293,1.53625,0,0,0,0,0,0,0,-1,734,1324,-18.2293,-1.53626
-483,-300,-18.3522,1.61084,0,0,0,0,0,0,0,-1,741,1324,-18.3522,-1.6108
-476,-300,-18.7489,1.96387,0,0,0,0,0,0,0,-1,748,1324,-18.7489,-1.96387
-469,-300,0,0,0,0,0,0,0,0,0,-1,755,1324,0,0
-462,-300,0,0,0,0,0,0,0,0,0,-1,762,1324,0,0
-455,-300,0,0,0,0,0,0,0,0,0,-1,769,1324,0,0
-448,-300,0,0,0,0,0,0,0,0,0,-1,776,1324,0,0
-441,-300,0,0,0,0,0,0,0,0,0,-1,783,1324,0,0
-434,-300,0,0,0,0,0,0,0,0,0,-1,790,1324,0,0
-427,-300,0,0,0,0,0,0,0,0,0,-1,797,1324,0,0
-420,-300,0,0,0,0,0,0,0,0,0,-1,804,1324,0,0
-413,-300,0,0,0,0,0,0,0,0,0,-1,811,1324,0,0
-406,-300,0,0,0,0,0,0,0,0,0,-1,818,1324,0,0
-399,-300,0,0,0,0,0,0,0,0,0,-1,825,1324,0,0
-392,-300,0,0,0,0,0,0,0,0,0,-1,832,1324,0,0
-385,-300,0,0,0,0,0,0,0,0,0,-1,839,1324,0,0
-378,-300,0,0,0,0,0,0,0,0,0,-1,846,1324,0,0
-371,-300,0,0,0,0,0,0,0,0,0,-1,853,1324,0,0
-364,-300,0,0,0,0,0,0,0,0,0,-1,860,1324,0,0
-357,-300,0,0,0,0,0,0,0,0,0,-1,867,1324,0,0
-350,-300,0,0,0,0,0,0,0,0,0,-1,874,1324,0,0
-343,-300,0,0,0,0,0,0,0,0,0,-1,881,1324,0,0
-336,-300,0,0,0,0,0,0,0,0,0,-1,888,1324,0,0
-329,-300,0,0,0,0,0,0,0,0,0,-1,895,1324,0,0
-322,-300,0,0,0,0,0,0,0,0,0,-1,902,1324,0,0
-315,-300,0,0,0,0,0,0,0,0,0,-1,909,1324,0,0
-308,-300,0,0,0,0,0,0,0,0,0,-1,916,1324,0,0
-301,-300,0,0,0,0,0,0,0,0,0,-1,923,1324,0,0
-294,-300,0,0,0,0,0,0,0,0,0,-1,930,1324,0,0
-287,-300,0,0,0,0,0,0,0,0,0,-1,937,1324,0,0
-280,-300,0,0,0,0,0,0,0,0,0,-1,944,1324,0,0
-273,-300,0,0,0,0,0,0,0,0,0,-1,951,1324,0,0
-266,-300,0,0,0,0,0,0,0,0,0,-1,958,1324,0,0
-259,-300,0,0,0,0,0,0,0,0,0,-1,965,1324,0,0
-252,-300,0,0,0,0,0,0,0,0,0,-1,972,1324,0,0
-245,-300,0,0,0,0,0,0,0,0,0,-1,979,1324,0,0
-238,-300,0,0,0,0,0,0,0,0,0,-1,986,1324,0,0
-231,-300,0,0,0,0,0,0,0,0,0,-1,993,1324,0,0
-224,-300,0,0,0,0,0,0,0,0,0,-1,1000,1324,0,0
-217,-300,0,0,0,0,0,0,0,0,0,-1,1007,1324,0,0
-210,-300,0,0,0,0,0,0,0,0,0,-1,1014,1324,0,0
-203,-300,0,0,0,0,0,0,0,0,0,-1,1021,1324,0,0
-196,-300,0,0,0,0,0,0,0,0,0,-1,1028,1324,0,0
-189,-300,0,0,0,0,0,0,0,0,0,-1,1035,1324,0,0
-182,-300,0,0,0,0,0,0,0,0,0,-1,1042,1324,0,0
-175,-300,0,0,0,0,0,0,0,0,0,-1,1049,1324,0,0
-168,-300,0,0,0,0,0,0,0,0,0,-1,1056,1324,0,0
-161,-300,0,0,0,0,0,0,0,0,0,-1,1063,1324,0,0
-154,-300,0,0,0,0,0,0,0,0,0,-1,1070,1324,0,0
-147,-300,0,0,0,0,0,0,0,0,0,-1,1077,1324,0,0
-140,-300,0,0,0,0,0,0,0,0,0,-1,1084,1324,0,0
-133,-300,0,0,0,0,0,0,0,0,0,-1,1091,1324,0,0
-126,-300,0,0,0,0,0,0,0,0,0,-1,1098,1324,0,0
-119,-300,0,0,0,0,0,0,0,0,0,-1,1105,1324,0,0
-112,-300,0,0,0,0,0,0,0,0,0,-1,1112,1324,0,0
-105,-300,0,0,0,0,0,0,0,0,0,-1,1119,1324,0,0
-98,-300,0,0,0,0,0,0,0,0,0,-1,1126,1324,0,0
-91,-300,0,0,0,0,0,0,0,0,0,-1,1133,1324,0,0
-84,-300,0,0,0,0,0,0,0,0,0,-1,1140,1324,0,0
-77,-300,0,0,0,0,0,0,0,0,0,-1,1147,1324,0,0
-70,-300,0,0,0,0,0,0,0,0,0,-1,1154,1324,0,0
-63,-300,0,0,0,0,0,0,0,0,0,-1,1161,1324,0,0
-56,-300,0,0,0,0,0,0,0,0,0,-1,1168,1324,0,0
-49,-300,0,0,0,0,0,0,0,0,0,-1,1175,1324,0,0
-42,-300,0,0,0,0,0,0,0,0,0,-1,1182,1324,0,0
-35,-300,0,0,0,0,0,0,0,0,0,-1,1189,1324,0,0
-28,-300,0,0,0,0,0,0,0,0,0,-1,1196,1324,0,0
-21,-300,0,0,0,0,0,0,0,0,0,-1,1203,1324,0,0
-14,-300,0,0,0,0,0,0,0,0,0,-1,1210,1324,0,0
-7,-300,0,0,0,0,0,0,0,0,0,-1,1217,1324,0,0
0,-300,0,0,0,0,0,0,0,0,0,-1,1224,1324,0,0
7,-300,0,0,0,0,0,0,0,0,0,-1,1231,1324,0,0
14,-300,0,0,0,0,0,0,0,0,0,-1,1238,1324,0,0
21,-300,0,0,0,0,0,0,0,0,0,-1,1245,1324,0,0
28,-300,0,0,0,0,0,0,0,0,0,-1,1252,1324,0,0
35,-300,0,0,0,0,0,0,0,0,0,-1,1259,1324,0,0
42,-300,0,0,0,0,0,0,0,0,0,-1,1266,1324,0,0
49,-300,0,0,0,0,0,0,0,0,0,-1,1273,1324,0,0
56,-300,0,0,0,0,0,0,0,0,0,-1,1280,1324,0,0
63,-300,0,0,0,0,0,0,0,0,0,-1,1287,1324,0,0
70,-300,0,0,0,0,0,0,0,0,0,-1,1294,1324,0,0
77,-300,0,0,0,0,0,0,0,0,0,-1,1301,1324,0,0
84,-300,0,0,0,0,0,0,0,0,0,-1,1308,1324,0,0
91,-300,0,0,0,0,0,0,0,0,0,-1,1315,1324,0,0
98,-300,0,0,0,0,0,0,0,0,0,-1,1322,1324,0,0
105,-300,0,0,0,0,0,0,0,0,0,-1,1329,1324,0,0
112,-300,0,0,0,0,0,0,0,0,0,-1,1336,1324,0,0
119,-300,0,0,0,0,0,0,0,0,0,-1,1343,1324,0,0
126,-300,0,0,0,0,0,0,0,0,0,-1,1350,1324,0,0
133,-300,0,0,0,0,0,0,0,0,0,-1,1357,1324,0,0
140,-300,0,0,0,0,0,0,0,0,0,-1,1364,1324,0,0
147,-300,0,0,0,0,0,0,0,0,0,-1,1371,1324,0,0
154,-300,0,0,0,0,0,0,0,0,0,-1,1378,1324,0,0
161,-300,0,0,0,0,0,0,0,0,0,-1,1385,1324,0,0
168,-300,0,0,0,0,0,0,0,0,0,-1,1392,1324,0,0
175,-300,0,0,0,0,0,0,0,0,0,-1,1399,1324,0,0
182,-300,0,0,0,0,0,0,0,0,0,-1,1406,1324,0,0
189,-300,0,0,0,0,0,0,0,0,0,-1,1413,1324,0,0
196,-300,0,0,0,0,0,0,0,0,0,-1,1420,1324,0,0
203,-300,0,0,0,0,0,0,0,0,0,-1,1427,1324,0,0
210,-300,0,0,0,0,0,0,0,0,0,-1,1434,1324,0,0
217,-300,0,0,0,0,0,0,0,0,0,-1,1441,1324,0,0
224,-300,0,0,0,0,0,0,0,0,0,-1,1448,1324,0,0
231,-300,0,0,0,0,0,0,0,0,0,-1,1455,1324,0,0
238,-300,0,0,0,0,0,0,0,0,0,-1,1462,1324,0,0
245,-300,0,0,0,0,0,0,0,0,0,-1,1469,1324,0,0
252,-300,0,0,0,0,0,0,0,0,0,-1,1476,1324,0,0
259,-300,0,0,0,0,0,0,0,0,0,-1,1483,1324,0,0
266,-300,0,0,0,0,0,0,0,0,0,-1,1490,1324,0,0
273,-300,0,0,0,0,0,0,0,0,0,-1,1497,1324,0,0
280,-300,0,0,0,0,0,0,0,0,0,-1,1504,1324,0,0
287,-300,0,0,0,0,0,0,0,0,0,-1,1511,1324,0,0
294,-300,0,0,0,0,0,0,0,0,0,-1,1518,1324,0,0
301,-300,0,0,0,0,0,0,0,0,0,-1,1525,1324,0,0
308,-300,0,0,0,0,0,0,0,0,0,-1,1532,1324,0,0
315,-300,0,0,0,0,0,0,0,0,0,-1,1539,1324,0,0
322,-300,0,0,0,0,0,0,0,0,0,-1,1546,1324,0,0
329,-300,0,0,0,0,0,0,0,0,0,-1,1553,1324,0,0
336,-300,0,0,0,0,0,0,0,0,0,-1,1560,1324,0,0
343,-300,0,0,0,0,0,0,0,0,0,-1,1567,1324,0,0
350,-300,0,0,0,0,0,0,0,0,0,-1,1574,1324,0,0
357,-300,0,0,0,0,0,0,0,0,0,-1,1581,1324,0,0
364,-300,0,0,0,0,0,0,0,0,0,-1,1588,1324,0,0
371,-300,0,0,0,0,0,0,0,0,0,-1,1595,1324,0,0
378,-300,0,0,0,0,0,0,0,0,0,-1,1602,1324,0,0
385,-300,0,0,0,0,0,0,0,0,0,-1,1609,1324,0,0
392,-300,0,0,0,0,0,0,0,0,0,-1,1616,1324,0,0
399,-300,0,0,0,0,0,0,0,0,0,-1,1623,1324,0,0
406,-300,0,0,0,0,0,0,0,0,0,-1,1630,1324,0,0
413,-300,0,0,0,0,0,0,0,0,0,-1,1637,1324,0,0
420,-300,0,0,0,0,0,0,0,0,0,-1,1644,1324,0,0
427,-300,0,0,0,0,0,0,0,0,0,-1,1651,1324,0,0
434,-300,0,0,0,0,0,0,0,0,0,-1,1658,1324,0,0
441,-300,0,0,0,0,0,0,0,0,0,-1,1665,1324,0,0
448,-300,0,0,0,0,0,0,0,0,0,-1,1672,1324,0,0
455,-300,0,0,0,0,0,0,0,0,0,-1,1679,1324,0,0
462,-300,0,0,0,0,0,0,0,0,0,-1,1686,1324,0,0
469,-300,0,0,0,0,0,0,0,0,0,-1,1693,1324,0,0
476,-300,0,0,0,0,0,0,0,0,0,-1,1700,1324,0,0
483,-300,0,0,0,0,0,0,0,0,0,-1,1707,1324,0,0
490,-300,0,0,0,0,0,0,0,0,0,-1,1714,1324,0,0
497,-300,0,0,0,0,0,0,0,0,0,-1,1721,1324,0,0
504,-300,0,0,0,0,0,0,0,0,0,-1,1728,1324,0,0
511,-300,0,0,0,0,0,0,0,0,0,-1,1735,1324,0,0
518,-300,0,0,0,0,0,0,0,0,0,-1,1742,1324,0,0
525,-300,0,0,0,0,0,0,0,0,0,-1,1749,1324,0,0
532,-300,0,0,0,0,0,0,0,0,0,-1,1756,1324,0,0
539,-300,0,0,0,0,0,0,0,0,0,-1,1763,1324,0,0
546,-300,0,0,0,0,0,0,0,0,0,-1,1770,1324,0,0
553,-300,0,0,0,0,0,0,0,0,0,-1,1777,1324,0,0
560,-300,0,0,0,0,0,0,0,0,0,-1,1784,1324,0,0
567,-300,0,0,0,0,0,0,0,0,0,-1,1791,1324,0,0
574,-300,0,0,0,0,0,0,0,0,0,-1,1798,1324,0,0
581,-300,0,0,0,0,0,0,0,0,0,-1,1805,1324,0,0
588,-300,42.3125,2.83142,0,0,0,0,0,0,0,-1,1812,1324,42.3125,-2.83146
595,-300,37.6158,0.28894,0,0,0,0,0,0,0,-1,1819,1324,37.6159,-0.288984
602,-300,38.3051,0.76001,0.0301004,-0.0251406,0.077587,0.0848367,-0.0798769,0.614396,0.0951118,0.0497521,1826,1324,38.305,-0.759958
609,-300,39.0962,1.3446,0.0389878,-0.0190277,0.0738976,0.0893671,-0.069407,0.598369,0.0919094,0.0477625,1833,1324,39.0962,-1.34462
616,-300,39.6351,1.84167,0.0396699,-0.015276,0.0644373,0.0822465,-0.0578526,0.583891,0.0812939,0.0495224,1840,1324,39.6352,-1.84172
623,-300,41.1942,3.20728,0.036284,-0.0126705,0.0539449,0.0710452,-0.0474316,0.572416,0.068854,0.0493216,1847,1324,41.1942,-3.20725
630,-300,41.47,2.56152,0,0,0,0,0,0,0,-1,1854,1324,41.47,-2.56156
637,-300,31.1719,4.6366,0,0,0,0,0,0,0,-1,1861,1324,31.1718,-4.63665
644,-300,22.9836,3.44934,0,0,0,0,0,0,0,-1,1868,1324,22.9836,-3.4493
651,-300,25.5004,9.11853,0,0,0,0,0,0,0,-1,1875,1324,25.5004,-9.11851
658,-300,25.4012,9.20032,0,0,0,0,0,0,0,-1,1882,1324,25.4012,-9.20036
665,-300,30.1311,10.9072,0,0,0,0,0,0,0,-1,1889,1324,30.1311,-10.9072
672,-300,29.9929,10.4006,0.00826039,-0.00348117,0.00537734,0.0103509,-0.00557166,0.370779,0.0093299,0.0201299,1896,1324,29.9929,-10.4007
679,-300,30.0106,9.91956,0.00153111,-0.000705718,0.00143921,0.00223538,-0.00140998,0.455086,0.00212256,0.0126132,1903,1324,30.0107,-9.91952
686,-300,29.9948,9.49817,0.00137288,-0.000786179,0.000598392,0.00152763,-0.000940933,0.253073,0.00143858,0.0133748,1910,1324,29.9947,-9.49812
693,-300,29.9751,9.09985,0.00085232,-0.00052791,2.87122e-05,0.000852917,-0.000528507,0.0207905,0.000804863,0.0111884,1917,1324,29.975,-9.09986
700,-300,29.97,8.66968,2.36774e-05,1.60753e-05,0.000192484,0.000212398,-0.000172645,0.775526,0.000222699,0.0124079,1924,1324,29.9699,-8.66968
707,-300,29.9497,8.24133,-0.000587382,0.000227227,0.00055499,0.000508335,-0.00086849,1.10196,0.000803924,0.00937231,1931,1324,29.9497,-8.24134
714,-300,29.951,7.85474,-0.00137218,0.000410023,0.000945491,0.000818158,-0.00178031,1.16329,0.00153413,0.0108826,1938,1324,29.951,-7.85468
721,-300,29.9468,7.4469,-0.00237179,0.000569749,0.00138913,0.00112206,-0.0029241,1.19237,0.00241204,0.012404,1945,1324,29.9468,-7.44694
728,-300,29.9469,6.99219,-0.00368987,0.00069226,0.00186262,0.00137698,-0.00437459,1.21852,0.00346775,0.0151222,1952,1324,29.947,-6.99214
735,-300,29.9857,6.56311,0,0,0,0,0,0,0,-1,1959,1324,29.9857,-6.56313
742,-300,29.4758,6.09412,0,0,0,0,0,0,0,-1,1966,1324,29.4758,-6.09417
749,-300,27.4065,5.9718,0,0,0,0,0,0,0,-1,1973,1324,27.4065,-5.97181
756,-300,22.1423,3.45642,0,0,0,0,0,0,0,-1,1980,1324,22.1423,-3.45638
763,-300,22.6136,5.1571,0,0,0,0,0,0,0,-1,1987,1324,22.6136,-5.15706
770,-300,24.859,4.77979,0,0,0,0,0,0,0,-1,1994,1324,24.859,-4.77972
777,-300,0,0,0,0,0,0,0,0,0,-1,2001,1324,0,0
784,-300,0,0,0,0,0,0,0,0,0,-1,2008,1324,0,0
791,-300,0,0,0,0,0,0,0,0,0,-1,2015,1324,0,0
798,-300,0,0,0,0,0,0,0,0,0,-1,2022,1324,0,0
805,-300,0,0,0,0,0,0,0,0,0,-1,2029,1324,0,0
812,-300,0,0,0,0,0,0,0,0,0,-1,2036,1324,0,0
-700,-307,0,0,0,0,0,0,0,0,0,-1,524,1331,0,0
-693,-307,0,0,0,0,0,0,0,0,0,-1,531,1331,0,0
-686,-307,0,0,0,0,0,0,0,0,0,-1,538,1331,0,0
-679,-307,0,0,0,0,0,0,0,0,0,-1,545,1331,0,0
-672,-307,0,0,0,0,0,0,0,0,0,-1,552,1331,0,0
-665,-307,0,0,0,0,0,0,0,0,0,-1,559,1331,0,0
-658,-307,0,0,0,0,0,0,0,0,0,-1,566,1331,0,0
-651,-307,-20.2972,-0.0720215,0,0,0,0,0,0,0,-1,573,1331,-20.2973,0.0720287
-644,-307,-20.7615,0.556152,0,0,0,0,0,0,0,-1,580,1331,-20.7615,-0.556159
-637,-307,-21.0822,1.21277,0,0,0,0,0,0,0,-1,587,1331,-21.0821,-1.21273
-630,-307,-12.0005,0.767212,0,0,0,0,0,0,0,-1,594,1331,-12.0005,-0.767266
-623,-307,-12.2128,2.93811,0,0,0,0,0,0,0,-1,601,1331,-12.2128,-2.93813
-616,-307,-12.6612,2.08289,0,0,0,0,0,0,0,-1,608,1331,-12.6612,-2.08293
-609,-307,-12.2767,1.83228,0,0,0,0,0,0,0,-1,615,1331,-12.2768,-1.83224
-602,-307,-16.4987,3.98706,0,0,0,0,0,0,0,-1,622,1331,-16.4987,-3.98707
-595,-307,-16.6135,4.58704,0.00535838,0.00397535,0.00323676,0.00797666,0.00135706,0.680158,0.0049281,0.0401457,629,1331,-16.6135,-4.587
-588,-307,-16.5342,5.11877,0.00416674,0.002954,0.0024263,0.00606129,0.00105945,0.662949,0.00373809,0.0194822,636,1331,-16.5342,-5.11883
-581,-307,-16.5328,5.57751,0.00338166,0.00214951,0.00180395,0.00467183,0.000859331,0.620851,0.0028713,0.0148373,643,1331,-16.5328,-5.57753
-574,-307,-16.5444,6.01855,0.00288632,0.00148299,0.00137002,0.0037239,0.000645402,0.548735,0.00229788,0.0123198,650,1331,-16.5444,-6.01858
-567,-307,-16.5485,6.48962,0.00265559,0.000927711,0.00108541,0.00317892,0.000404383,0.449263,0.00199817,0.0129218,657,1331,-16.5485,-6.48963
-560,-307,-16.5612,6.9707,0.00266585,0.000503443,0.000952761,0.00302574,0.000143552,0.361166,0.00197105,0.0138504,664,1331,-16.5611,-6.97076
-553,-307,-16.577,7.43628,0.00290992,0.000103878,0.00092129,0.00318537,-0.000171565,0.290517,0.00218301,0.011149,671,1331,-16.5769,-7.43627
-546,-307,-16.593,7.89978,0.00341535,-0.000150259,0.00104597,0.00369954,-0.000434445,0.265291,0.00262319,0.010873,678,1331,-16.593,-7.89982
-539,-307,-16.58,8.38379,0.00424852,-0.000383659,0.00135006,0.00461328,-0.000748413,0.263877,0.00335295,0.0155692,685,1331,-16.58,-8.38385
-532,-307,-16.5568,8.87073,0,0,0,0,0,0,0,-1,692,1331,-16.5568,-8.87079
-525,-307,-13.2009,6.91309,0,0,0,0,0,0,0,-1,699,1331,-13.2009,-6.9131
-518,-307,-9.77777,-1.56653,0,0,0,0,0,0,0,-1,706,1331,-9.77777,1.56651
-511,-307,-12.5226,0.26709,0,0,0,0,0,0,0,-1,713,1331,-12.5226,-0.267038
-504,-307,-12.5913,-0.308105,0,0,0,0,0,0,0,-1,720,1331,-12.5913,0.308124
-497,-307,-13.8586,-0.115845,0,0,0,0,0,0,0,-1,727,1331,-13.8587,0.115861
-490,-307,-17.9429,0.982178,0,0,0,0,0,0,0,-1,734,1331,-17.9429,-0.982198
-483,-307,-18.1066,0.927612,0,0,0,0,0,0,0,-1,741,1331,-18.1066,-0.927609
-476,-307,-18.1288,1.1228,0,0,0,0,0,0,0,-1,748,1331,-18.1289,-1.12286
-469,-307,-18.2028,0.798584,0,0,0,0,0,0,0,-1,755,1331,-18.2027,-0.798546
-462,-307,0,0,0,0,0,0,0,0,0,-1,762,1331,0,0
-455,-307,0,0,0,0,0,0,0,0,0,-1,769,1331,0,0
-448,-307,0,0,0,0,0,0,0,0,0,-1,776,1331,0,0
-441,-307,0,0,0,0,0,0,0,0,0,-1,783,1331,0,0
-434,-307,0,0,0,0,0,0,0,0,0,-1,790,1331,0,0
-427,-307,0,0,0,0,0,0,0,0,0,-1,797,1331,0,0
-420,-307,0,0,0,0,0,0,0,0,0,-1,804,1331,0,0
-413,-307,0,0,0,0,0,0,0,0,0,-1,811,1331,0,0
-406,-307,0,0,0,0,0,0,0,0,0,-1,818,1331,0,0
-399,-307,0,0,0,0,0,0,0,0,0,-1,825,1331,0,0
-392,-307,0,0,0,0,0,0,0,0,0,-1,832,1331,0,0
-385,-307,0,0,0,0,0,0,0,0,0,-1,839,1331,0,0
-378,-307,0,0,0,0,0,0,0,0,0,-1,846,1331,0,0
-371,-307,0,0,0,0,0,0,0,0,0,-1,853,1331,0,0
-364,-307,0,0,0,0,0,0,0,0,0,-1,860,1331,0,0
-357,-307,0,0,0,0,0,0,0,0,0,-1,867,1331,0,0
-350,-307,0,0,0,0,0,0,0,0,0,-1,874,1331,0,0
-343,-307,0,0,0,0,0,0,0,0,0,-1,881,1331,0,0
-336,-307,0,0,0,0,0,0,0,0,0,-1,888,1331,0,0
-329,-307,0,0,0,0,0,0,0,0,0,-1,895,1331,0,0
-322,-307,0,0,0,0,0,0,0,0,0,-1,902,1331,0,0
-315,-307,0,0,0,0,0,0,0,0,0,-1,909,1331,0,0
-308,-307,0,0,0,0,0,0,0,0,0,-1,916,1331,0,0
-301,-307,0,0,0,0,0,0,0,0,0,-1,923,1331,0,0
-294,-307,0,0,0,0,0,0,0,0,0,-1,930,1331,0,0
-287,-307,0,0,0,0,0,0,0,0,0,-1,937,1331,0,0
-280,-307,0,0,0,0,0,0,0,0,0,-1,944,1331,0,0
-273,-307,0,0,0,0,0,0,0,0,0,-1,951,1331,0,0
-266,-307,0,0,0,0,0,0,0,0,0,-1,958,1331,0,0
-259,-307,0,0,0,0,0,0,0,0,0,-1,965,1331,0,0
-252,-307,0,0,0,0,0,0,0,0,0,-1,972,1331,0,0
-245,-307,0,0,0,0,0,0,0,0,0,-1,979,1331,0,0
-238,-307,0,0,0,0,0,0,0,0,0,-1,986,1331,0,0
-231,-307,0,0,0,0,0,0,0,0,0,-1,993,1331,0,0
-224,-307,0,0,0,0,0,0,0,0,0,-1,1000,1331,0,0
-217,-307,0,0,0,0,0,0,0,0,0,-1,1007,1331,0,0
-210,-307,0,0,0,0,0,0,0,0,0,-1,1014,1331,0,0
-203,-307,0,0,0,0,0,0,0,0,0,-1,1021,1331,0,0
-196,-307,0,0,0,0,0,0,0,0,0,-1,1028,1331,0,0
-189,-307,0,0,0,0,0,0,0,0,0,-1,1035,1331,0,0
-182,-307,0,0,0,0,0,0,0,0,0,-1,1042,1331,0,0
-175,-307,0,0,0,0,0,0,0,0,0,-1,1049,1331,0,0
-168,-307,0,0,0,0,0,0,0,0,0,-1,1056,1331,0,0
-161,-307,0,0,0,0,0,0,0,0,0,-1,1063,1331,0,0
-154,-307,0,0,0,0,0,0,0,0,0,-1,1070,1331,0,0
-147,-307,0,0,0,0,0,0,0,0,0,-1,1077,1331,0,0
-140,-307,0,0,0,0,0,0,0,0,0,-1,1084,1331,0,0
-133,-307,0,0,0,0,0,0,0,0,0,-1,1091,1331,0,0
-126,-307,0,0,0,0,0,0,0,0,0,-1,1098,1331,0,0
-119,-307,0,0,0,0,0,0,0,0,0,-1,1105,1331,0,0
-112,-307,0,0,0,0,0,0,0,0,0,-1,1112,1331,0,0
-105,-307,0,0,0,0,0,0,0,0,0,-1,1119,1331,0,0
-98,-307,0,0,0,0,0,0,0,0,0,-1,1126,1331,0,0
-91,-307,0,0,0,0,0,0,0,0,0,-1,1133,1331,0,0
-84,-307,0,0,0,0,0,0,0,0,0,-1,1140,1331,0,0
-77,-307,0,0,0,0,0,0,0,0,0,-1,1147,1331,0,0
-70,-307,0,0,0,0,0,0,0,0,0,-1,1154,1331,0,0
-63,-307,0,0,0,0,0,0,0,0,0,-1,1161,1331,0,0
-56,-307,0,0,0,0,0,0,0,0,0,-1,1168,1331,0,0
-49,-307,0,0,0,0,0,0,0,0,0,-1,1175,1331,0,0
-42,-307,0,0,0,0,0,0,0,0,0,-1,1182,1331,0,0
-35,-307,0,0,0,0,0,0,0,0,0,-1,1189,1331,0,0
-28,-307,0,0,0,0,0,0,0,0,0,-1,1196,1331,0,0
-21,-307,0,0,0,0,0,0,0,0,0,-1,1203,1331,0,0
-14,-307,0,0,0,0,0,0,0,0,0,-1,1210,1331,0,0
-7,-307,0,0,0,0,0,0,0,0,0,-1,1217,1331,0,0
0,-307,0,0,0,0,0,0,0,0,0,-1,1224,1331,0,0
7,-307,0,0,0,0,0,0,0,0,0,-1,1231,1331,0,0
14,-307,0,0,0,0,0,0,0,0,0,-1,1238,1331,0,0
21,-307,0,0,0,0,0,0,0,0,0,-1,1245,1331,0,0
28,-307,0,0,0,0,0,0,0,0,0,-1,1252,1331,0,0
35,-307,0,0,0,0,0,0,0,0,0,-1,1259,1331,0,0
42,-307,0,0,0,0,0,0,0,0,0,-1,1266,1331,0,0
49,-307,0,0,0,0,0,0,0,0,0,-1,1273,1331,0,0
56,-307,0,0,0,0,0,0,0,0,0,-1,1280,1331,0,0
63,-307,0,0,0,0,0,0,0,0,0,-1,1287,1331,0,0
70,-307,0,0,0,0,0,0,0,0,0,-1,1294,1331,0,0
77,-307,0,0,0,0,0,0,0,0,0,-1,1301,1331,0,0
84,-307,0,0,0,0,0,0,0,0,0,-1,1308,1331,0,0
91,-307,0,0,0,0,0,0,0,0,0,-1,1315,1331,0,0
98,-307,0,0,0,0,0,0,0,0,0,-1,1322,1331,0,0
105,-307,0,0,0,0,0,0,0,0,0,-1,1329,1331,0,0
112,-307,0,0,0,0,0,0,0,0,0,-1,1336,1331,0,0
119,-307,0,0,0,0,0,0,0,0,0,-1,1343,1331,0,0
126,-307,0,0,0,0,0,0,0,0,0,-1,1350,1331,0,0
133,-307,0,0,0,0,0,0,0,0,0,-1,1357,1331,0,0
140,-307,0,0,0,0,0,0,0,0,0,-1,1364,1331,0,0
147,-307,0,0,0,0,0,0,0,0,0,-1,1371,1331,0,0
154,-307,0,0,0,0,0,0,0,0,0,-1,1378,1331,0,0
161,-307,0,0,0,0,0,0,0,0,0,-1,1385,1331,0,0
168,-307,0,0,0,0,0,0,0,0,0,-1,1392,1331,0,0
175,-307,0,0,0,0,0,0,0,0,0,-1,1399,1331,0,0
182,-307,0,0,0,0,0,0,0,0,0,-1,1406,1331,0,0
189,-307,0,0,0,0,0,0,0,0,0,-1,1413,1331,0,0
196,-307,0,0,0,0,0,0,0,0,0,-1,1420,1331,0,0
203,-307,0,0,0,0,0,0,0,0,0,-1,1427,1331,0,0
210,-307,0,0,0,0,0,0,0,0,0,-1,1434,1331,0,0
217,-307,0,0,0,0,0,0,0,0,0,-1,1441,1331,0,0
224,-307,0,0,0,0,0,0,0,0,0,-1,1448,1331,0,0
231,-307,0,0,0,0,0,0,0,0,0,-1,1455,1331,0,0
238,-307,0,0,0,0,0,0,0,0,0,-1,1462,1331,0,0
245,-307,0,0,0,0,0,0,0,0,0,-1,1469,1331,0,0
252,-307,0,0,0,0,0,0,0,0,0,-1,1476,1331,0,0
259,-307,0,0,0,0,0,0,0,0,0,-1,1483,1331,0,0
266,-307,0,0,0,0,0,0,0,0,0,-1,1490,1331,0,0
273,-307,0,0,0,0,0,0,0,0,0,-1,1497,1331,0,0
280,-307,0,0,0,0,0,0,0,0,0,-1,1504,1331,0,0
287,-307,0,0,0,0,0,0,0,0,0,-1,1511,1331,0,0
294,-307,0,0,0,0,0,0,0,0,0,-1,1518,1331,0,0
301,-307,0,0,0,0,0,0,0,0,0,-1,1525,1331,0,0
308,-307,0,0,0,0,0,0,0,0,0,-1,1532,1331,0,0
315,-307,0,0,0,0,0,0,0,0,0,-1,1539,1331,0,0
322,-307,0,0,0,0,0,0,0,0,0,-1,1546,1331,0,0
329,-307,0,0,0,0,0,0,0,0,0,-1,1553,1331,0,0
336,-307,0,0,0,0,0,0,0,0,0,-1,1560,1331,0,0
343,-307,0,0,0,0,0,0,0,0,0,-1,1567,1331,0,0
350,-307,0,0,0,0,0,0,0,0,0,-1,1574,1331,0,0
357,-307,0,0,0,0,0,0,0,0,0,-1,1581,1331,0,0
364,-307,0,0,0,0,0,0,0,0,0,-1,1588,1331,0,0
371,-307,0,0,0,0,0,0,0,0,0,-1,1595,1331,0,0
378,-307,0,0,0,0,0,0,0,0,0,-1,1602,1331,0,0
385,-307,0,0,0,0,0,0,0,0,0,-1,1609,1331,0,0
392,-307,0,0,0,0,0,0,0,0,0,-1,1616,1331,0,0
399,-307,0,0,0,0,0,0,0,0,0,-1,1623,1331,0,0
406,-307,0,0,0,0,0,0,0,0,0,-1,1630,1331,0,0
413,-307,0,0,0,0,0,0,0,0,0,-1,1637,1331,0,0
420,-307,0,0,0,0,0,0,0,0,0,-1,1644,1331,0,0
427,-307,0,0,0,0,0,0,0,0,0,-1,1651,1331,0,0
434,-307,0,0,0,0,0,0,0,0,0,-1,1658,1331,0,0
441,-307,0,0,0,0,0,0,0,0,0,-1,1665,1331,0,0
448,-307,0,0,0,0,0,0,0,0,0,-1,1672,1331,0,0
455,-307,0,0,0,0,0,0,0,0,0,-1,1679,1331,0,0
462,-307,0,0,0,0,0,0,0,0,0,-1,1686,1331,0,0
469,-307,0,0,0,0,0,0,0,0,0,-1,1693,1331,0,0
476,-307,0,0,0,0,0,0,0,0,0,-1,1700,1331,0,0
483,-307,0,0,0,0,0,0,0,0,0,-1,1707,1331,0,0
490,-307,0,0,0,0,0,0,0,0,0,-1,1714,1331,0,0
497,-307,0,0,0,0,0,0,0,0,0,-1,1721,1331,0,0
504,-307,0,0,0,0,0,0,0,0,0,-1,1728,1331,0,0
511,-307,0,0,0,0,0,0,0,0,0,-1,1735,1331,0,0
518,-307,0,0,0,0,0,0,0,0,0,-1,1742,1331,0,0
525,-307,0,0,0,0,0,0,0,0,0,-1,1749,1331,0,0
532,-307,0,0,0,0,0,0,0,0,0,-1,1756,1331,0,0
539,-307,0,0,0,0,0,0,0,0,0,-1,1763,1331,0,0
546,-307,0,0,0,0,0,0,0,0,0,-1,1770,1331,0,0
553,-307,0,0,0,0,0,0,0,0,0,-1,1777,1331,0,0
560,-307,0,0,0,0,0,0,0,0,0,-1,1784,1331,0,0
567,-307,0,0,0,0,0,0,0,0,0,-1,1791,1331,0,0
574,-307,0,0,0,0,0,0,0,0,0,-1,1798,1331,0,0
581,-307,0,0,0,0,0,0,0,0,0,-1,1805,1331,0,0
588,-307,40.4863,-4.45361,0,0,0,0,0,0,0,-1,1812,1331,40.4864,4.45365
595,-307,37.882,0.716064,0,0,0,0,0,0,0,-1,1819,1331,37.882,-0.716018
602,-307,38.306,1.04675,0.0331694,-0.0273321,0.0912992,0.099099,-0.0932616,0.625422,0.111076,0.0489558,1826,1331,38.3061,-1.04672
609,-307,38.8503,1.69055,0.038528,-0.0202319,0.0829613,0.097158,-0.0788619,0.615219,0.101808,0.0489338,1833,1331,38.8503,-1.69052
616,-307,39.2039,2.10315,0.037864,-0.0162937,0.0709535,0.0867303,-0.06516,0.603107,0.0879881,0.047525,1840,1331,39.2038,-2.10315
623,-307,41.0299,3.89575,0,0,0,0,0,0,0,-1,1847,1331,41.0299,-3.89579
630,-307,29.8116,1.51184,0,0,0,0,0,0,0,-1,1854,1331,29.8116,-1.51188
637,-307,24.6407,4.09106,0,0,0,0,0,0,0,-1,1861,1331,24.6407,-4.09103
644,-307,22.6885,5.80408,0,0,0,0,0,0,0,-1,1868,1331,22.6884,-5.80408
651,-307,17.5013,5.80078,0,0,0,0,0,0,0,-1,1875,1331,17.5014,-5.80072
658,-307,29.8972,11.2926,0,0,0,0,0,0,0,-1,1882,1331,29.8972,-11.2926
665,-307,29.6697,10.7784,0.01361,-0.00508987,0.0131038,0.0203576,-0.0118375,0.475524,0.0188036,0.0390129,1889,1331,29.6697,-10.7785
672,-307,29.6072,10.3857,0.00682878,-0.00332962,0.0048882,0.00879889,-0.00529974,0.383119,0.00822299,0.0132003,1896,1331,29.6072,-10.3857
679,-307,29.5845,9.95508,0.000388592,-0.000516155,0.00104983,0.00107937,-0.00120693,0.581969,0.00132068,0.00972626,1903,1331,29.5845,-9.95512
686,-307,29.5673,9.53589,0.000586838,-0.000535257,0.000421792,0.000727704,-0.000676123,0.322324,0.000810682,0.00983206,1910,1331,29.5673,-9.5359
693,-307,29.5632,9.12073,0.000387671,-0.000305287,8.58346e-05,0.000398145,-0.00031576,0.121422,0.000413087,0.0123162,1917,1331,29.5632,-9.12078
700,-307,29.5594,8.66345,-0.000131571,9.26353e-05,0.000241274,0.000246578,-0.000285513,1.00287,0.000307477,0.0138231,1924,1331,29.5594,-8.66344
707,-307,29.5544,8.22412,-0.000650687,0.000377223,0.000528897,0.000600751,-0.000874215,1.17093,0.000856437,0.0146305,1931,1331,29.5544,-8.22416
714,-307,29.5314,7.87805,-0.00135668,0.000628188,0.000861255,0.000949788,-0.00167828,1.21342,0.00153663,0.0133082,1938,1331,29.5314,-7.87804
721,-307,29.549,7.46997,-0.00227273,0.000849935,0.00126602,0.00129872,-0.00272152,1.23013,0.00236904,0.016978,1945,1331,29.5489,-7.46991
728,-307,29.5068,7.16504,-0.00350879,0.00104834,0.00168064,0.0016011,-0.00406155,1.25304,0.00337063,0.0407292,1952,1331,29.5068,-7.16509
735,-307,29.5332,6.61401,0,0,0,0,0,0,0,-1,1959,1331,29.5332,-6.61402
742,-307,26.677,6.09192,0,0,0,0,0,0,0,-1,1966,1331,26.677,-6.0919
749,-307,26.7727,5.9032,0,0,0,0,0,0,0,-1,1973,1331,26.7727,-5.90323
756,-307,27.1556,5.74756,0,0,0,0,0,0,0,-1,1980,1331,27.1557,-5.7475
763,-307,18.7522,3.55298,0,0,0,0,0,0,0,-1,1987,1331,18.7522,-3.55301
770,-307,0,0,0,0,0,0,0,0,0,-1,1994,1331,0,0
777,-307,0,0,0,0,0,0,0,0,0,-1,2001,1331,0,0
784,-307,0,0,0,0,0,0,0,0,0,-1,2008,1331,0,0
791,-307,0,0,0,0,0,0,0,0,0,-1,2015,1331,0,0
798,-307,0,0,0,0,0,0,0,0,0,-1,2022,1331,0,0
805,-307,0,0,0,0,0,0,0,0,0,-1,2029,1331,0,0
812,-307,0,0,0,0,0,0,0,0,0,-1,2036,1331,0,0
-700,-314,0,0,0,0,0,0,0,0,0,-1,524,1338,0,0
-693,-314,0,0,0,0,0,0,0,0,0,-1,531,1338,0,0
-686,-314,0,0,0,0,0,0,0,0,0,-1,538,1338,0,0
-679,-314,0,0,0,0,0,0,0,0,0,-1,545,1338,0,0
-672,-314,0,0,0,0,0,0,0,0,0,-1,552,1338,0,0
-665,-314,0,0,0,0,0,0,0,0,0,-1,559,1338,0,0
-658,-314,0,0,0,0,0,0,0,0,0,-1,566,1338,0,0
-651,-314,0,0,0,0,0,0,0,0,0,-1,573,1338,0,0
-644,-314,-20.9896,-0.0299072,0,0,0,0,0,0,0,-1,580,1338,-20.9896,0.0299587
-637,-314,-18.8677,6.62646,0,0,0,0,0,0,0,-1,587,1338,-18.8677,-6.62651
-630,-314,-13.2771,2.98938,0,0,0,0,0,0,0,-1,594,1338,-13.2771,-2.98943
-623,-314,-13.3542,3.00903,0,0,0,0,0,0,0,-1,601,1338,-13.3542,-3.00907
-616,-314,-9.93311,1.15088,0,0,0,0,0,0,0,-1,608,1338,-9.93308,-1.15093
-609,-314,-9.4361,2.86292,0,0,0,0,0,0,0,-1,615,1338,-9.43612,-2.86286
-602,-314,-11.8027,2.42798,0,0,0,0,0,0,0,-1,622,1338,-11.8027,-2.42802
-595,-314,-16.1306,4.29126,0,0,0,0,0,0,0,-1,629,1338,-16.1305,-4.29132
-588,-314,-16.119,5.07629,0.00457491,0.0031031,0.0025686,0.00651095,0.00116707,0.645885,0.00400864,0.0290168,636,1338,-16.119,-5.07635
-581,-314,-16.0526,5.57495,0.00366967,0.00228785,0.00184995,0.00495353,0.001004,0.606682,0.00302377,0.0118571,643,1338,-16.0526,-5.57489
-574,-314,-16.082,6.02393,0.00306764,0.0016152,0.00136066,0.00388375,0.000799085,0.540267,0.00236818,0.0114179,650,1338,-16.082,-6.02395
-567,-314,-16.0842,6.50354,0.00275068,0.00107148,0.00105026,0.00325569,0.000566468,0.448205,0.00200844,0.0142972,657,1338,-16.0842,-6.50349
-560,-314,-16.0724,6.98059,0.00270256,0.000664914,0.000918061,0.00305517,0.000312301,0.366711,0.00194108,0.0148362,664,1338,-16.0724,-6.98058
-553,-314,-16.0788,7.46204,0.00287122,0.000270731,0.000886189,0.0031445,-2.54426e-06,0.29912,0.00209718,0.0180963,671,1338,-16.0788,-7.46207
-546,-314,-16.1152,7.93152,0.00333857,-2.1593e-06,0.00103059,0.00363092,-0.000294506,0.276408,0.00252451,0.0190334,678,1338,-16.1152,-7.93157
-539,-314,-16.1202,8.40076,0.00412463,-0.000223422,0.00134503,0.00450707,-0.000605857,0.277021,0.00322569,0.0177615,685,1338,-16.1202,-8.40074
-532,-314,-16.0643,8.81934,0,0,0,0,0,0,0,-1,692,1338,-16.0643,-8.8194
-525,-314,-13.3017,7.50671,0,0,0,0,0,0,0,-1,699,1338,-13.3017,-7.50669
-518,-314,-8.52753,4.70032,0,0,0,0,0,0,0,-1,706,1338,-8.52755,-4.70034
-511,-314,-11.8597,0.384888,0,0,0,0,0,0,0,-1,713,1338,-11.8597,-0.384927
-504,-314,-11.4322,-0.187378,0,0,0,0,0,0,0,-1,720,1338,-11.4322,0.187381
-497,-314,-11.0047,-0.759644,0,0,0,0,0,0,0,-1,727,1338,-11.0047,0.759689
-490,-314,-18.5143,0.471069,0,0,0,0,0,0,0,-1,734,1338,-18.5143,-0.47103
-483,-314,-17.8528,0.577271,0,0,0,0,0,0,0,-1,741,1338,-17.8528,-0.577327
-476,-314,-17.714,0.665405,0,0,0,0,0,0,0,-1,748,1338,-17.714,-0.665388
-469,-314,-17.7246,0.794678,0,0,0,0,0,0,0,-1,755,1338,-17.7246,-0.794645
-462,-314,0,0,0,0,0,0,0,0,0,-1,762,1338,0,0
-455,-314,0,0,0,0,0,0,0,0,0,-1,769,1338,0,0
-448,-314,0,0,0,0,0,0,0,0,0,-1,776,1338,0,0
-441,-314,0,0,0,0,0,0,0,0,0,-1,783,1338,0,0
-434,-314,0,0,0,0,0,0,0,0,0,-1,790,1338,0,0
-427,-314,0,0,0,0,0,0,0,0,0,-1,797,1338,0,0
-420,-314,0,0,0,0,0,0,0,0,0,-1,804,1338,0,0
-413,-314,0,0,0,0,0,0,0,0,0,-1,811,1338,0,0
-406,-314,0,0,0,0,0,0,0,0,0,-1,818,1338,0,0
-399,-314,0,0,0,0,0,0,0,0,0,-1,825,1338,0,0
-392,-314,0,0,0,0,0,0,0,0,0,-1,832,1338,0,0
-385,-314,0,0,0,0,0,0,0,0,0,-1,839,1338,0,0
-378,-314,0,0,0,0,0,0,0,0,0,-1,846,1338,0,0
-371,-314,0,0,0,0,0,0,0,0,0,-1,853,1338,0,0
-364,-314,0,0,0,0,0,0,0,0,0,-1,860,1338,0,0
-357,-314,0,0,0,0,0,0,0,0,0,-1,867,1338,0,0
-350,-314,0,0,0,0,0,0,0,0,0,-1,874,1338,0,0
-343,-314,0,0,0,0,0,0,0,0,0,-1,881,1338,0,0
-336,-314,0,0,0,0,0,0,0,0,0,-1,888,1338,0,0
-329,-314,0,0,0,0,0,0,0,0,0,-1,895,1338,0,0
-322,-314,0,0,0,0,0,0,0,0,0,-1,902,1338,0,0
-315,-314,0,0,0,0,0,0,0,0,0,-1,909,1338,0,0
-308,-314,0,0,0,0,0,0,0,0,0,-1,916,1338,0,0
-301,-314,0,0,0,0,0,0,0,0,0,-1,923,1338,0,0
-294,-314,0,0,0,0,0,0,0,0,0,-1,930,1338,0,0
-287,-314,0,0,0,0,0,0,0,0,0,-1,937,1338,0,0
-280,-314,0,0,0,0,0,0,0,0,0,-1,944,1338,0,0
-273,-314,0,0,0,0,0,0,0,0,0,-1,951,1338,0,0
-266,-314,0,0,0,0,0,0,0,0,0,-1,958,1338,0,0
-259,-314,0,0,0,0,0,0,0,0,0,-1,965,1338,0,0
-252,-314,0,0,0,0,0,0,0,0,0,-1,972,1338,0,0
-245,-314,0,0,0,0,0,0,0,0,0,-1,979,1338,0,0
-238,-314,0,0,0,0,0,0,0,0,0,-1,986,1338,0,0
-231,-314,0,0,0,0,0,0,0,0,0,-1,993,1338,0,0
-224,-314,0,0,0,0,0,0,0,0,0,-1,1000,1338,0,0
-217,-314,0,0,0,0,0,0,0,0,0,-1,1007,1338,0,0
-210,-314,0,0,0,0,0,0,0,0,0,-1,1014,1338,0,0
-203,-314,0,0,0,0,0,0,0,0,0,-1,1021,1338,0,0
-196,-314,0,0,0,0,0,0,0,0,0,-1,1028,1338,0,0
-189,-314,0,0,0,0,0,0,0,0,0,-1,1035,1338,0,0
-182,-314,0,0,0,0,0,0,0,0,0,-1,1042,1338,0,0
-175,-314,0,0,0,0,0,0,0,0,0,-1,1049,1338,0,0
-168,-314,0,0,0,0,0,0,0,0,0,-1,1056,1338,0,0
-161,-314,0,0,0,0,0,0,0,0,0,-1,1063,1338,0,0
-154,-314,0,0,0,0,0,0,0,0,0,-1,1070,1338,0,0
-147,-314,0,0,0,0,0,0,0,0,0,-1,1077,1338,0,0
-140,-314,0,0,0,0,0,0,0,0,0,-1,1084,1338,0,0
-133,-314,0,0,0,0,0,0,0,0,0,-1,1091,1338,0,0
-126,-314,0,0,0,0,0,0,0,0,0,-1,1098,1338,0,0
-119,-314,0,0,0,0,0,0,0,0,0,-1,1105,1338,0,0
-112,-314,0,0,0,0,0,0,0,0,0,-1,1112,1338,0,0
-105,-314,0,0,0,0,0,0,0,0,0,-1,1119,1338,0,0
-98,-314,0,0,0,0,0,0,0,0,0,-1,1126,1338,0,0
-91,-314,0,0,0,0,0,0,0,0,0,-1,1133,1338,0,0
-84,-314,0,0,0,0,0,0,0,0,0,-1,1140,1338,0,0
-77,-314,0,0,0,0,0,0,0,0,0,-1,1147,1338,0,0
-70,-314,0,0,0,0,0,0,0,0,0,-1,1154,1338,0,0
-63,-314,0,0,0,0,0,0,0,0,0,-1,1161,1338,0,0
-56,-314,0,0,0,0,0,0,0,0,0,-1,1168,1338,0,0
-49,-314,0,0,0,0,0,0,0,0,0,-1,1175,1338,0,0
-42,-314,0,0,0,0,0,0,0,0,0,-1,1182,1338,0,0
-35,-314,0,0,0,0,0,0,0,0,0,-1,1189,1338,0,0
-28,-314,0,0,0,0,0,0,0,0,0,-1,1196,1338,0,0
-21,-314,0,0,0,0,0,0,0,0,0,-1,1203,1338,0,0
-14,-314,0,0,0,0,0,0,0,0,0,-1,1210,1338,0,0
-7,-314,0,0,0,0,0,0,0,0,0,-1,1217,1338,0,0
0,-314,0,0,0,0,0,0,0,0,0,-1,1224,1338,0,0
7,-314,0,0,0,0,0,0,0,0,0,-1,1231,1338,0,0
14,-314,0,0,0,0,0,0,0,0,0,-1,1238,1338,0,0
21,-314,0,0,0,0,0,0,0,0,0,-1,1245,1338,0,0
28,-314,0,0,0,0,0,0,0,0,0,-1,1252,1338,0,0
35,-314,0,0,0,0,0,0,0,0,0,-1,1259,1338,0,0
42,-314,0,0,0,0,0,0,0,0,0,-1,1266,1338,0,0
49,-314,0,0,0,0,0,0,0,0,0,-1,1273,1338,0,0
56,-314,0,0,0,0,0,0,0,0,0,-1,1280,1338,0,0
63,-314,0,0,0,0,0,0,0,0,0,-1,1287,1338,0,0
70,-314,0,0,0,0,0,0,0,0,0,-1,1294,1338,0,0
77,-314,0,0,0,0,0,0,0,0,0,-1,1301,1338,0,0
84,-314,0,0,0,0,0,0,0,0,0,-1,1308,1338,0,0
91,-314,0,0,0,0,0,0,0,0,0,-1,1315,1338,0,0
98,-314,0,0,0,0,0,0,0,0,0,-1,1322,1338,0,0
105,-314,0,0,0,0,0,0,0,0,0,-1,1329,1338,0,0
112,-314,0,0,0,0,0,0,0,0,0,-1,1336,1338,0,0
119,-314,0,0,0,0,0,0,0,0,0,-1,1343,1338,0,0
126,-314,0,0,0,0,0,0,0,0,0,-1,1350,1338,0,0
133,-314,0,0,0,0,0,0,0,0,0,-1,1357,1338,0,0
140,-314,0,0,0,0,0,0,0,0,0,-1,1364,1338,0,0
147,-314,0,0,0,0,0,0,0,0,0,-1,1371,1338,0,0
154,-314,0,0,0,0,0,0,0,0,0,-1,1378,1338,0,0
161,-314,0,0,0,0,0,0,0,0,0,-1,1385,1338,0,0
168,-314,0,0,0,0,0,0,0,0,0,-1,1392,1338,0,0
175,-314,0,0,0,0,0,0,0,0,0,-1,1399,1338,0,0
182,-314,0,0,0,0,0,0,0,0,0,-1,1406,1338,0,0
189,-314,0,0,0,0,0,0,0,0,0,-1,1413,1338,0,0
196,-314,0,0,0,0,0,0,0,0,0,-1,1420,1338,0,0
203,-314,0,0,0,0,0,0,0,0,0,-1,1427,1338,0,0
210,-314,0,0,0,0,0,0,0,0,0,-1,1434,1338,0,0
217,-314,0,0,0,0,0,0,0,0,0,-1,1441,1338,0,0
224,-314,0,0,0,0,0,0,0,0,0,-1,1448,1338,0,0
231,-314,0,0,0,0,0,0,0,0,0,-1,1455,1338,0,0
238,-314,0,0,0,0,0,0,0,0,0,-1,1462,1338,0,0
245,-314,0,0,0,0,0,0,0,0,0,-1,1469,1338,0,0
252,-314,0,0,0,0,0,0,0,0,0,-1,1476,1338,0,0
259,-314,0,0,0,0,0,0,0,0,0,-1,1483,1338,0,0
266,-314,0,0,0,0,0,0,0,0,0,-1,1490,1338,0,0
273,-314,0,0,0,0,0,0,0,0,0,-1,1497,1338,0,0
280,-314,0,0,0,0,0,0,0,0,0,-1,1504,1338,0,0
287,-314,0,0,0,0,0,0,0,0,0,-1,1511,1338,0,0
294,-314,0,0,0,0,0,0,0,0,0,-1,1518,1338,0,0
301,-314,0,0,0,0,0,0,0,0,0,-1,1525,1338,0,0
308,-314,0,0,0,0,0,0,0,0,0,-1,1532,1338,0,0
315,-314,0,0,0,0,0,0,0,0,0,-1,1539,1338,0,0
322,-314,0,0,0,0,0,0,0,0,0,-1,1546,1338,0,0
329,-314,0,0,0,0,0,0,0,0,0,-1,1553,1338,0,0
336,-314,0,0,0,0,0,0,0,0,0,-1,1560,1338,0,0
343,-314,0,0,0,0,0,0,0,0,0,-1,1567,1338,0,0
350,-314,0,0,0,0,0,0,0,0,0,-1,1574,1338,0,0
357,-314,0,0,0,0,0,0,0,0,0,-1,1581,1338,0,0
364,-314,0,0,0,0,0,0,0,0,0,-1,1588,1338,0,0
371,-314,0,0,0,0,0,0,0,0,0,-1,1595,1338,0,0
378,-314,0,0,0,0,0,0,0,0,0,-1,1602,1338,0,0
385,-314,0,0,0,0,0,0,0,0,0,-1,1609,1338,0,0
392,-314,0,0,0,0,0,0,0,0,0,-1,1616,1338,0,0
399,-314,0,0,0,0,0,0,0,0,0,-1,1623,1338,0,0
406,-314,0,0,0,0,0,0,0,0,0,-1,1630,1338,0,0
413,-314,0,0,0,0,0,0,0,0,0,-1,1637,1338,0,0
420,-314,0,0,0,0,0,0,0,0,0,-1,1644,1338,0,0
427,-314,0,0,0,0,0,0,0,0,0,-1,1651,1338,0,0
434,-314,0,0,0,0,0,0,0,0,0,-1,1658,1338,0,0
441,-314,0,0,0,0,0,0,0,0,0,-1,1665,1338,0,0
448,-314,0,0,0,0,0,0,0,0,0,-1,1672,1338,0,0
455,-314,0,0,0,0,0,0,0,0,0,-1,1679,1338,0,0
462,-314,0,0,0,0,0,0,0,0,0,-1,1686,1338,0,0
469,-314,0,0,0,0,0,0,0,0,0,-1,1693,1338,0,0
476,-314,0,0,0,0,0,0,0,0,0,-1,1700,1338,0,0
483,-314,0,0,0,0,0,0,0,0,0,-1,1707,1338,0,0
490,-314,0,0,0,0,0,0,0,0,0,-1,1714,1338,0,0
497,-314,0,0,0,0,0,0,0,0,0,-1,1721,1338,0,0
504,-314,0,0,0,0,0,0,0,0,0,-1,1728,1338,0,0
511,-314,0,0,0,0,0,0,0,0,0,-1,1735,1338,0,0
518,-314,0,0,0,0,0,0,0,0,0,-1,1742,1338,0,0
525,-314,0,0,0,0,0,0,0,0,0,-1,1749,1338,0,0
532,-314,0,0,0,0,0,0,0,0,0,-1,1756,1338,0,0
539,-314,0,0,0,0,0,0,0,0,0,-1,1763,1338,0,0
546,-314,0,0,0,0,0,0,0,0,0,-1,1770,1338,0,0
553,-314,0,0,0,0,0,0,0,0,0,-1,1777,1338,0,0
560,-314,0,0,0,0,0,0,0,0,0,-1,1784,1338,0,0
567,-314,0,0,0,0,0,0,0,0,0,-1,1791,1338,0,0
574,-314,0,0,0,0,0,0,0,0,0,-1,1798,1338,0,0
581,-314,39.6482,-4.61914,0.0027195,-0.0774826,0.111621,0.0812238,-0.155987,0.612947,0.139203,0.0472458,1805,1338,39.6482,4.61912
588,-314,39.6481,-3.68152,0.0122765,-0.0581543,0.108735,0.091356,-0.137234,0.628796,0.132859,0.0487392,1812,1338,39.6481,3.68156
595,-314,37.632,1.18762,0,0,0,0,0,0,0,-1,1819,1338,37.632,-1.1876
602,-314,38.1348,1.54993,0.0307608,-0.0275219,0.10232,0.108009,-0.10477,0.646669,0.122852,0.0484337,1826,1338,38.1347,-1.54987
609,-314,38.4099,2.00085,0.0340851,-0.0207008,0.0895261,0.100315,-0.086931,0.636933,0.108199,0.0450306,1833,1338,38.41,-2.00087
616,-314,38.4862,2.3905,0.0337435,-0.0169786,0.0759262,0.0884323,-0.0716674,0.624213,0.0926023,0.0464455,1840,1338,38.4862,-2.39048
623,-314,38.7728,2.71741,0,0,0,0,0,0,0,-1,1847,1338,38.7728,-2.71737
630,-314,29.4308,6.23206,0,0,0,0,0,0,0,-1,1854,1338,29.4308,-6.23202
637,-314,22.1349,5.16418,0,0,0,0,0,0,0,-1,1861,1338,22.1349,-5.16414
644,-314,18.7517,6.2605,0,0,0,0,0,0,0,-1,1868,1338,18.7517,-6.26053
651,-314,23.1317,8.005,0,0,0,0,0,0,0,-1,1875,1338,23.1317,-8.00506
658,-314,29.1957,11.2589,0,0,0,0,0,0,0,-1,1882,1338,29.1957,-11.2589
665,-314,29.1642,10.8431,0.0120727,-0.00539016,0.0119296,0.0181249,-0.0114423,0.469487,0.0172153,0.0257422,1889,1338,29.1642,-10.8431
672,-314,29.183,10.437,0.00523154,-0.00326578,0.00347824,0.00647371,-0.00450796,0.34301,0.00637404,0.0124719,1896,1338,29.183,-10.4371
679,-314,29.1586,9.99487,-0.000331443,-0.000553316,0.000242965,-0.000175286,-0.000709473,0.571237,0.000426727,0.0100335,1903,1338,29.1585,-9.99493
686,-314,29.1351,9.56055,0.000153585,-0.000416928,4.00494e-05,0.000156383,-0.000419726,0.0697429,0.000344005,0.0121003,1910,1338,29.1352,-9.56056
693,-314,29.1139,9.13306,0.000185782,-0.000120044,2.63537e-05,0.000188036,-0.000122298,0.0853343,0.000180506,0.0128039,1917,1338,29.1138,-9.13303
700,-314,29.1084,8.68689,-0.000133909,0.000227528,0.000221661,0.000332804,-0.000239184,1.1274,0.000331708,0.0140483,1924,1338,29.1084,-8.68695
707,-314,29.1191,8.26379,-0.000603643,0.000553825,0.000476885,0.000724992,-0.000774811,1.22619,0.00086607,0.0134521,1931,1338,29.1192,-8.26378
714,-314,29.1132,7.87073,-0.00128294,0.000850435,0.000797956,0.00111587,-0.00154838,1.24966,0.00154495,0.0121285,1938,1338,29.1131,-7.8707
721,-314,29.0836,7.4845,-0.00221278,0.0010872,0.00124791,0.00150597,-0.00263155,1.24703,0.00241808,0.024246,1945,1338,29.0837,-7.48451
728,-314,29.2792,7.32568,0,0,0,0,0,0,0,-1,1952,1338,29.2792,-7.32569
735,-314,26.3665,6.21582,0,0,0,0,0,0,0,-1,1959,1338,26.3664,-6.21581
742,-314,26.2235,6.0166,0,0,0,0,0,0,0,-1,1966,1338,26.2235,-6.01662
749,-314,26.2223,5.47046,0,0,0,0,0,0,0,-1,1973,1338,26.2223,-5.47041
756,-314,24.2521,5.93408,0,0,0,0,0,0,0,-1,1980,1338,24.252,-5.93413
763,-314,19.2207,4.07239,0,0,0,0,0,0,0,-1,1987,1338,19.2206,-4.07239
770,-314,0,0,0,0,0,0,0,0,0,-1,1994,1338,0,0
777,-314,0,0,0,0,0,0,0,0,0,-1,2001,1338,0,0
784,-314,0,0,0,0,0,0,0,0,0,-1,2008,1338,0,0
791,-314,0,0,0,0,0,0,0,0,0,-1,2015,1338,0,0
798,-314,0,0,0,0,0,0,0,0,0,-1,2022,1338,0,0
805,-314,0,0,0,0,0,0,0,0,0,-1,2029,1338,0,0
812,-314,0,0,0,0,0,0,0,0,0,-1,2036,1338,0,0
-700,-321,0,0,0,0,0,0,0,0,0,-1,524,1345,0,0
-693,-321,0,0,0,0,0,0,0,0,0,-1,531,1345,0,0
-686,-321,0,0,0,0,0,0,0,0,0,-1,538,1345,0,0
-679,-321,0,0,0,0,0,0,0,0,0,-1,545,1345,0,0
-672,-321,0,0,0,0,0,0,0,0,0,-1,552,1345,0,0
-665,-321,0,0,0,0,0,0,0,0,0,-1,559,1345,0,0
-658,-321,0,0,0,0,0,0,0,0,0,-1,566,1345,0,0
-651,-321,0,0,0,0,0,0,0,0,0,-1,573,1345,0,0
-644,-321,-17.2769,5.65454,0,0,0,0,0,0,0,-1,580,1345,-17.2768,-5.65454
-637,-321,-13.3991,3.59241,0,0,0,0,0,0,0,-1,587,1345,-13.3991,-3.59236
-630,-321,-13.2958,3.65039,0,0,0,0,0,0,0,-1,594,1345,-13.2958,-3.65042
-623,-321,-13.2242,3.14148,0,0,0,0,0,0,0,-1,601,1345,-13.2243,-3.14146
-616,-321,-11.6754,3.13794,0,0,0,0,0,0,0,-1,608,1345,-11.6754,-3.13789
-609,-321,-7.95209,1.14758,0,0,0,0,0,0,0,-1,615,1345,-7.95208,-1.14757
-602,-321,-8.85791,2.50049,0,0,0,0,0,0,0,-1,622,1345,-8.85791,-2.50048
-595,-321,-16.1342,4.41052,0,0,0,0,0,0,0,-1,629,1345,-16.1342,-4.41048
-588,-321,-15.715,4.97644,0.00456806,0.00308365,0.00246496,0.00640013,0.00125158,0.639165,0.00391679,0.0432842,636,1345,-15.715,-4.9765
-581,-321,-15.5992,5.58557,0.0035843,0.00224232,0.00167558,0.00471825,0.00110838,0.59495,0.00284884,0.0134322,643,1345,-15.5992,-5.58563
-574,-321,-15.6212,6.05042,0.00293049,0.00156916,0.00117398,0.00360685,0.000892796,0.522685,0.00216911,0.0154471,650,1345,-15.6212,-6.05041
-567,-321,-15.6378,6.55518,0.00259557,0.00106701,0.000889067,0.0030037,0.000658868,0.430365,0.00182298,0.0228388,657,1345,-15.6378,-6.55521
-560,-321,-15.6079,7.07568,0.00257218,0.00070467,0.000802211,0.00286946,0.000407393,0.354883,0.00179267,0.0259469,664,1345,-15.6079,-7.07569
-553,-321,-15.585,7.53467,0.00279151,0.000382002,0.000845125,0.00305838,0.000115135,0.305863,0.00200164,0.0292057,671,1345,-15.585,-7.53471
-546,-321,-15.5764,7.98047,0.00333238,0.000166143,0.00106608,0.00365787,-0.000159346,0.296326,0.00249339,0.0283353,678,1345,-15.5764,-7.98042
-539,-321,-15.6588,8.41956,0.00419436,2.78607e-05,0.00145259,0.00465079,-0.000428564,0.304446,0.0032528,0.0236432,685,1345,-15.6588,-8.4195
-532,-321,-15.5928,8.88428,0.00561267,3.88523e-05,0.00211356,0.00632348,-0.000671953,0.324424,0.00445655,0.0305847,692,1345,-15.5928,-8.88428
-525,-321,-15.5791,9.38757,0,0,0,0,0,0,0,-1,699,1345,-15.5791,-9.38757
-518,-321,-10.3564,6.75696,0,0,0,0,0,0,0,-1,706,1345,-10.3564,-6.75694
-511,-321,-9.3302,5.29297,0,0,0,0,0,0,0,-1,713,1345,-9.33023,-5.29294
-504,-321,-10.4713,0.0145264,0,0,0,0,0,0,0,-1,720,1345,-10.4713,-0.0145296
-497,-321,-9.96771,0.313599,0,0,0,0,0,0,0,-1,727,1345,-9.96769,-0.313618
-490,-321,-10.7631,0.973511,0,0,0,0,0,0,0,-1,734,1345,-10.7631,-0.97353
-483,-321,-17.5908,0.2323,0,0,0,0,0,0,0,-1,741,1345,-17.5908,-0.232355
-476,-321,-17.2915,0.297363,0,0,0,0,0,0,0,-1,748,1345,-17.2915,-0.297342
-469,-321,-17.2441,0.478027,0,0,0,0,0,0,0,-1,755,1345,-17.2441,-0.477994
-462,-321,-17.1672,0.526489,0,0,0,0,0,0,0,-1,762,1345,-17.1672,-0.526533
-455,-321,0,0,0,0,0,0,0,0,0,-1,769,1345,0,0
-448,-321,0,0,0,0,0,0,0,0,0,-1,776,1345,0,0
-441,-321,0,0,0,0,0,0,0,0,0,-1,783,1345,0,0
-434,-321,0,0,0,0,0,0,0,0,0,-1,790,1345,0,0
-427,-321,0,0,0,0,0,0,0,0,0,-1,797,1345,0,0
-420,-321,0,0,0,0,0,0,0,0,0,-1,804,1345,0,0
-413,-321,0,0,0,0,0,0,0,0,0,-1,811,1345,0,0
-406,-321,0,0,0,0,0,0,0,0,0,-1,818,1345,0,0
-399,-321,0,0,0,0,0,0,0,0,0,-1,825,1345,0,0
-392,-321,0,0,0,0,0,0,0,0,0,-1,832,1345,0,0
-385,-321,0,0,0,0,0,0,0,0,0,-1,839,1345,0,0
-378,-321,0,0,0,0,0,0,0,0,0,-1,846,1345,0,0
-371,-321,0,0,0,0,0,0,0,0,0,-1,853,1345,0,0
-364,-321,0,0,0,0,0,0,0,0,0,-1,860,1345,0,0
-357,-321,0,0,0,0,0,0,0,0,0,-1,867,1345,0,0
-350,-321,0,0,0,0,0,0,0,0,0,-1,874,1345,0,0
-343,-321,0,0,0,0,0,0,0,0,0,-1,881,1345,0,0
-336,-321,0,0,0,0,0,0,0,0,0,-1,888,1345,0,0
-329,-321,0,0,0,0,0,0,0,0,0,-1,895,1345,0,0
-322,-321,0,0,0,0,0,0,0,0,0,-1,902,1345,0,0
-315,-321,0,0,0,0,0,0,0,0,0,-1,909,1345,0,0
-308,-321,0,0,0,0,0,0,0,0,0,-1,916,1345,0,0
-301,-321,0,0,0,0,0,0,0,0,0,-1,923,1345,0,0
-294,-321,0,0,0,0,0,0,0,0,0,-1,930,1345,0,0
-287,-321,0,0,0,0,0,0,0,0,0,-1,937,1345,0,0
-280,-321,0,0,0,0,0,0,0,0,0,-1,944,1345,0,0
-273,-321,0,0,0,0,0,0,0,0,0,-1,951,1345,0,0
-266,-321,0,0,0,0,0,0,0,0,0,-1,958,1345,0,0
-259,-321,0,0,0,0,0,0,0,0,0,-1,965,1345,0,0
-252,-321,0,0,0,0,0,0,0,0,0,-1,972,1345,0,0
-245,-321,0,0,0,0,0,0,0,0,0,-1,979,1345,0,0
-238,-321,0,0,0,0,0,0,0,0,0,-1,986,1345,0,0
-231,-321,0,0,0,0,0,0,0,0,0,-1,993,1345,0,0
-224,-321,0,0,0,0,0,0,0,0,0,-1,1000,1345,0,0
-217,-321,0,0,0,0,0,0,0,0,0,-1,1007,1345,0,0
-210,-321,0,0,0,0,0,0,0,0,0,-1,1014,1345,0,0
-203,-321,0,0,0,0,0,0,0,0,0,-1,1021,1345,0,0
-196,-321,0,0,0,0,0,0,0,0,0,-1,1028,1345,0,0
-189,-321,0,0,0,0,0,0,0,0,0,-1,1035,1345,0,0
-182,-321,0,0,0,0,0,0,0,0,0,-1,1042,1345,0,0
-175,-321,0,0,0,0,0,0,0,0,0,-1,1049,1345,0,0
-168,-321,0,0,0,0,0,0,0,0,0,-1,1056,1345,0,0
-161,-321,0,0,0,0,0,0,0,0,0,-1,1063,1345,0,0
-154,-321,0,0,0,0,0,0,0,0,0,-1,1070,1345,0,0
-147,-321,0,0,0,0,0,0,0,0,0,-1,1077,1345,0,0
-140,-321,0,0,0,0,0,0,0,0,0,-1,1084,1345,0,0
-133,-321,0,0,0,0,0,0,0,0,0,-1,1091,1345,0,0
-126,-321,0,0,0,0,0,0,0,0,0,-1,1098,1345,0,0
-119,-321,0,0,0,0,0,0,0,0,0,-1,1105,1345,0,0
-112,-321,0,0,0,0,0,0,0,0,0,-1,1112,1345,0,0
-105,-321,0,0,0,0,0,0,0,0,0,-1,1119,1345,0,0
-98,-321,0,0,0,0,0,0,0,0,0,-1,1126,1345,0,0
-91,-321,0,0,0,0,0,0,0,0,0,-1,1133,1345,0,0
-84,-321,0,0,0,0,0,0,0,0,0,-1,1140,1345,0,0
-77,-321,0,0,0,0,0,0,0,0,0,-1,1147,1345,0,0
-70,-321,0,0,0,0,0,0,0,0,0,-1,1154,1345,0,0
-63,-321,0,0,0,0,0,0,0,0,0,-1,1161,1345,0,0
-56,-321,0,0,0,0,0,0,0,0,0,-1,1168,1345,0,0
-49,-321,0,0,0,0,0,0,0,0,0,-1,1175,1345,0,0
-42,-321,0,0,0,0,0,0,0,0,0,-1,1182,1345,0,0
-35,-321,0,0,0,0,0,0,0,0,0,-1,1189,1345,0,0
-28,-321,0,0,0,0,0,0,0,0,0,-1,1196,1345,0,0
-21,-321,0,0,0,0,0,0,0,0,0,-1,1203,1345,0,0
-14,-321,0,0,0,0,0,0,0,0,0,-1,1210,1345,0,0
-7,-321,0,0,0,0,0,0,0,0,0,-1,1217,1345,0,0
0,-321,0,0,0,0,0,0,0,0,0,-1,1224,1345,0,0
7,-321,0,0,0,0,0,0,0,0,0,-1,1231,1345,0,0
14,-321,0,0,0,0,0,0,0,0,0,-1,1238,1345,0,0
21,-321,0,0,0,0,0,0,0,0,0,-1,1245,1345,0,0
28,-321,0,0,0,0,0,0,0,0,0,-1,1252,1345,0,0
35,-321,0,0,0,0,0,0,0,0,0,-1,1259,1345,0,0
42,-321,0,0,0,0,0,0,0,0,0,-1,1266,1345,0,0
49,-321,0,0,0,0,0,0,0,0,0,-1,1273,1345,0,0
56,-321,0,0,0,0,0,0,0,0,0,-1,1280,1345,0,0
63,-321,0,0,0,0,0,0,0,0,0,-1,1287,1345,0,0
70,-321,0,0,0,0,0,0,0,0,0,-1,1294,1345,0,0
77,-321,0,0,0,0,0,0,0,0,0,-1,1301,1345,0,0
84,-321,0,0,0,0,0,0,0,0,0,-1,1308,1345,0,0
91,-321,0,0,0,0,0,0,0,0,0,-1,1315,1345,0,0
98,-321,0,0,0,0,0,0,0,0,0,-1,1322,1345,0,0
105,-321,0,0,0,0,0,0,0,0,0,-1,1329,1345,0,0
112,-321,0,0,0,0,0,0,0,0,0,-1,1336,1345,0,0
119,-321,0,0,0,0,0,0,0,0,0,-1,1343,1345,0,0
126,-321,0,0,0,0,0,0,0,0,0,-1,1350,1345,0,0
133,-321,0,0,0,0,0,0,0,0,0,-1,1357,1345,0,0
140,-321,0,0,0,0,0,0,0,0,0,-1,1364,1345,0,0
147,-321,0,0,0,0,0,0,0,0,0,-1,1371,1345,0,0
154,-321,0,0,0,0,0,0,0,0,0,-1,1378,1345,0,0
161,-321,0,0,0,0,0,0,0,0,0,-1,1385,1345,0,0
168,-321,0,0,0,0,0,0,0,0,0,-1,1392,1345,0,0
175,-321,0,0,0,0,0,0,0,0,0,-1,1399,1345,0,0
182,-321,0,0,0,0,0,0,0,0,0,-1,1406,1345,0,0
189,-321,0,0,0,0,0,0,0,0,0,-1,1413,1345,0,0
196,-321,0,0,0,0,0,0,0,0,0,-1,1420,1345,0,0
203,-321,0,0,0,0,0,0,0,0,0,-1,1427,1345,0,0
210,-321,0,0,0,0,0,0,0,0,0,-1,1434,1345,0,0
217,-321,0,0,0,0,0,0,0,0,0,-1,1441,1345,0,0
224,-321,0,0,0,0,0,0,0,0,0,-1,1448,1345,0,0
231,-321,0,0,0,0,0,0,0,0,0,-1,1455,1345,0,0
238,-321,0,0,0,0,0,0,0,0,0,-1,1462,1345,0,0
245,-321,0,0,0,0,0,0,0,0,0,-1,1469,1345,0,0
252,-321,0,0,0,0,0,0,0,0,0,-1,1476,1345,0,0
259,-321,0,0,0,0,0,0,0,0,0,-1,1483,1345,0,0
266,-321,0,0,0,0,0,0,0,0,0,-1,1490,1345,0,0
273,-321,0,0,0,0,0,0,0,0,0,-1,1497,1345,0,0
280,-321,0,0,0,0,0,0,0,0,0,-1,1504,1345,0,0
287,-321,0,0,0,0,0,0,0,0,0,-1,1511,1345,0,0
294,-321,0,0,0,0,0,0,0,0,0,-1,1518,1345,0,0
301,-321,0,0,0,0,0,0,0,0,0,-1,1525,1345,0,0
308,-321,0,0,0,0,0,0,0,0,0,-1,1532,1345,0,0
315,-321,0,0,0,0,0,0,0,0,0,-1,1539,1345,0,0
322,-321,0,0,0,0,0,0,0,0,0,-1,1546,1345,0,0
329,-321,0,0,0,0,0,0,0,0,0,-1,1553,1345,0,0
336,-321,0,0,0,0,0,0,0,0,0,-1,1560,1345,0,0
343,-321,0,0,0,0,0,0,0,0,0,-1,1567,1345,0,0
350,-321,0,0,0,0,0,0,0,0,0,-1,1574,1345,0,0
357,-321,0,0,0,0,0,0,0,0,0,-1,1581,1345,0,0
364,-321,0,0,0,0,0,0,0,0,0,-1,1588,1345,0,0
371,-321,0,0,0,0,0,0,0,0,0,-1,1595,1345,0,0
378,-321,0,0,0,0,0,0,0,0,0,-1,1602,1345,0,0
385,-321,0,0,0,0,0,0,0,0,0,-1,1609,1345,0,0
392,-321,0,0,0,0,0,0,0,0,0,-1,1616,1345,0,0
399,-321,0,0,0,0,0,0,0,0,0,-1,1623,1345,0,0
406,-321,0,0,0,0,0,0,0,0,0,-1,1630,1345,0,0
413,-321,0,0,0,0,0,0,0,0,0,-1,1637,1345,0,0
420,-321,0,0,0,0,0,0,0,0,0,-1,1644,1345,0,0
427,-321,0,0,0,0,0,0,0,0,0,-1,1651,1345,0,0
434,-321,0,0,0,0,0,0,0,0,0,-1,1658,1345,0,0
441,-321,0,0,0,0,0,0,0,0,0,-1,1665,1345,0,0
448,-321,0,0,0,0,0,0,0,0,0,-1,1672,1345,0,0
455,-321,0,0,0,0,0,0,0,0,0,-1,1679,1345,0,0
462,-321,0,0,0,0,0,0,0,0,0,-1,1686,1345,0,0
469,-321,0,0,0,0,0,0,0,0,0,-1,1693,1345,0,0
476,-321,0,0,0,0,0,0,0,0,0,-1,1700,1345,0,0
483,-321,0,0,0,0,0,0,0,0,0,-1,1707,1345,0,0
490,-321,0,0,0,0,0,0,0,0,0,-1,1714,1345,0,0
497,-321,0,0,0,0,0,0,0,0,0,-1,1721,1345,0,0
504,-321,0,0,0,0,0,0,0,0,0,-1,1728,1345,0,0
511,-321,0,0,0,0,0,0,0,0,0,-1,1735,1345,0,0
518,-321,0,0,0,0,0,0,0,0,0,-1,1742,1345,0,0
525,-321,0,0,0,0,0,0,0,0,0,-1,1749,1345,0,0
532,-321,0,0,0,0,0,0,0,0,0,-1,1756,1345,0,0
539,-321,0,0,0,0,0,0,0,0,0,-1,1763,1345,0,0
546,-321,0,0,0,0,0,0,0,0,0,-1,1770,1345,0,0
553,-321,0,0,0,0,0,0,0,0,0,-1,1777,1345,0,0
560,-321,0,0,0,0,0,0,0,0,0,-1,1784,1345,0,0
567,-321,0,0,0,0,0,0,0,0,0,-1,1791,1345,0,0
574,-321,0,0,0,0,0,0,0,0,0,-1,1798,1345,0,0
581,-321,38.4756,-3.95618,0.00336047,-0.0798605,0.127794,0.0961479,-0.172648,0.628008,0.15727,0.0454239,1805,1345,38.4756,3.95614
588,-321,38.8195,-2.90686,0.00940624,-0.0576327,0.124801,0.105111,-0.153337,0.654202,0.150078,0.0493634,1812,1345,38.8195,2.90682
595,-321,38.6947,-1.88354,0.016103,-0.0372272,0.121809,0.114131,-0.135255,0.677643,0.144155,0.0481075,1819,1345,38.6948,1.88354
602,-321,38.0742,2.12769,0.0219632,-0.026282,0.109876,0.110334,-0.114653,0.677341,0.129904,0.0476849,1826,1345,38.0743,-2.12773
609,-321,37.9293,1.46448,0.0258742,-0.0206241,0.0946893,0.100127,-0.0948767,0.665014,0.112599,0.0450771,1833,1345,37.9293,-1.46447
616,-321,37.8107,2.58704,0.0274239,-0.0172513,0.0804887,0.0886172,-0.0784445,0.650042,0.0965127,0.0486116,1840,1345,37.8106,-2.58705
623,-321,37.6854,3.68933,0,0,0,0,0,0,0,-1,1847,1345,37.6854,-3.68931
630,-321,23.6674,4.34106,0,0,0,0,0,0,0,-1,1854,1345,23.6674,-4.34112
637,-321,21.7925,6.79224,0,0,0,0,0,0,0,-1,1861,1345,21.7925,-6.7922
644,-321,16.8844,6.71973,0,0,0,0,0,0,0,-1,1868,1345,16.8844,-6.71971
651,-321,27.4924,10.0319,0,0,0,0,0,0,0,-1,1875,1345,27.4924,-10.0319
658,-321,28.6919,11.2856,0,0,0,0,0,0,0,-1,1882,1345,28.6918,-11.2857
665,-321,28.7407,10.8793,0.0109824,-0.00563951,0.0106823,0.0162059,-0.0108631,0.454804,0.0157295,0.0193782,1889,1345,28.7408,-10.8793
672,-321,28.7655,10.4457,0.00452148,-0.00317659,0.00263718,0.00533826,-0.00399336,0.300346,0.00540623,0.0127044,1896,1345,28.7655,-10.4457
679,-321,28.7279,10.0114,-7.82436e-05,-0.000681792,5.66894e-05,-7.2965e-05,-0.00068707,0.0928448,0.000435766,0.0108469,1903,1345,28.7279,-10.0113
686,-321,28.6864,9.58545,0.000246446,-0.000357992,-3.81662e-05,0.000248846,-0.000360392,-0.0628107,0.000353704,0.0115041,1910,1345,28.6864,-9.58545
693,-321,28.6746,9.16992,0.000263047,1.41988e-05,-2.40271e-06,0.00026307,1.41756e-05,-0.00965412,0.000170851,0.0126162,1917,1345,28.6745,-9.16994
700,-321,28.6719,8.71265,5.11987e-05,0.000373393,0.0001513,0.000433303,-8.71089e-06,1.19377,0.000291815,0.0132396,1924,1345,28.6718,-8.71268
707,-321,28.6923,8.26953,-0.000353989,0.000714663,0.000377819,0.000834747,-0.000474073,1.26306,0.000765151,0.0146629,1931,1345,28.6922,-8.26959
714,-321,28.6757,7.84717,-0.00100619,0.00104964,0.000691187,0.00126042,-0.00121696,1.27481,0.00143039,0.0136177,1938,1345,28.6756,-7.84722
721,-321,28.6262,7.40503,-0.00197607,0.00130542,0.00120048,0.00169771,-0.00236836,1.25496,0.00235816,0.0373318,1945,1345,28.6262,-7.40507
728,-321,28.639,7.00525,0,0,0,0,0,0,0,-1,1952,1345,28.639,-7.00528
735,-321,22.0081,5.65479,0,0,0,0,0,0,0,-1,1959,1345,22.008,-5.65481
742,-321,24.5398,5.05725,0,0,0,0,0,0,0,-1,1966,1345,24.5398,-5.05729
749,-321,24.0675,5.4458,0,0,0,0,0,0,0,-1,1973,1345,24.0675,-5.44581
756,-321,19.6251,4.98315,0,0,0,0,0,0,0,-1,1980,1345,19.6251,-4.98311
763,-321,19.6747,4.61438,0,0,0,0,0,0,0,-1,1987,1345,19.6747,-4.61436
770,-321,0,0,0,0,0,0,0,0,0,-1,1994,1345,0,0
777,-321,0,0,0,0,0,0,0,0,0,-1,2001,1345,0,0
784,-321,0,0,0,0,0,0,0,0,0,-1,2008,1345,0,0
791,-321,0,0,0,0,0,0,0,0,0,-1,2015,1345,0,0
798,-321,0,0,0,0,0,0,0,0,0,-1,2022,1345,0,0
805,-321,0,0,0,0,0,0,0,0,0,-1,2029,1345,0,0
812,-321,0,0,0,0,0,0,0,0,0,-1,2036,1345,0,0
-700,-328,0,0,0,0,0,0,0,0,0,-1,524,1352,0,0
-693,-328,0,0,0,0,0,0,0,0,0,-1,531,1352,0,0
-686,-328,0,0,0,0,0,0,0,0,0,-1,538,1352,0,0
-679,-328,0,0,0,0,0,0,0,0,0,-1,545,1352,0,0
-672,-328,0,0,0,0,0,0,0,0,0,-1,552,1352,0,0
-665,-328,0,0,0,0,0,0,0,0,0,-1,559,1352,0,0
-658,-328,0,0,0,0,0,0,0,0,0,-1,566,1352,0,0
-651,-328,0,0,0,0,0,0,0,0,0,-1,573,1352,0,0
-644,-328,0,0,0,0,0,0,0,0,0,-1,580,1352,0,0
-637,-328,-12.0695,1.02014,0,0,0,0,0,0,0,-1,587,1352,-12.0694,-1.02017
-630,-328,-13.3971,4.54578,0,0,0,0,0,0,0,-1,594,1352,-13.3971,-4.54572
-623,-328,-10.7739,4.55042,0,0,0,0,0,0,0,-1,601,1352,-10.7739,-4.55041
-616,-328,-8.22198,-0.25708,0,0,0,0,0,0,0,-1,608,1352,-8.22201,0.257067
-609,-328,-7.87439,0.192871,0,0,0,0,0,0,0,-1,615,1352,-7.87441,-0.192822
-602,-328,-7.63062,1.31665,0,0,0,0,0,0,0,-1,622,1352,-7.63064,-1.3166
-595,-328,-9.42639,2.93494,0,0,0,0,0,0,0,-1,629,1352,-9.42638,-2.93499
-588,-328,-15.3712,4.62439,0,0,0,0,0,0,0,-1,636,1352,-15.3712,-4.62441
-581,-328,-15.1573,5.54944,0.00310932,0.00190192,0.00138171,0.00401346,0.000997779,0.579437,0.00241283,0.0233543,643,1352,-15.1573,-5.54945
-574,-328,-15.1434,6.05371,0.00238523,0.00123576,0.000872215,0.00285504,0.000765948,0.494082,0.00170634,0.015483,650,1352,-15.1435,-6.05375
-567,-328,-15.1391,6.52673,0.00204384,0.000805944,0.000621225,0.00230182,0.000547955,0.393618,0.00138842,0.0214988,657,1352,-15.1391,-6.52677
-560,-328,-15.1328,7.03247,0.00206766,0.000508363,0.000574786,0.00225663,0.000319389,0.317642,0.00141007,0.0291045,664,1352,-15.1327,-7.03252
-553,-328,-15.1228,7.54736,0.00236362,0.000302729,0.000690422,0.00257354,9.28123e-05,0.295161,0.00168561,0.0319275,671,1352,-15.1228,-7.54731
-546,-328,-15.1203,8.01355,0.00298895,0.000179213,0.000971478,0.00329213,-0.000123966,0.302502,0.00223722,0.0292028,678,1352,-15.1203,-8.0136
-539,-328,-15.17,8.42126,0.00391575,0.000139762,0.001407,0.00438236,-0.000326852,0.320223,0.00303639,0.0229432,685,1352,-15.1701,-8.42123
-532,-328,-15.1865,8.89929,0.00531657,0.000213175,0.00208648,0.00606101,-0.000531273,0.342716,0.00422891,0.0176573,692,1352,-15.1865,-8.89926
-525,-328,-15.1494,9.44702,0.00720383,0.00020724,0.00293949,0.00827486,-0.000863784,0.349407,0.00582588,0.0269662,699,1352,-15.1493,-9.44699
-518,-328,-15.2189,10.0431,0,0,0,0,0,0,0,-1,706,1352,-15.2189,-10.0431
-511,-328,-9.39868,7.16113,0,0,0,0,0,0,0,-1,713,1352,-9.39869,-7.16113
-504,-328,-8.60626,-0.905762,0,0,0,0,0,0,0,-1,720,1352,-8.60623,0.905787
-497,-328,-9.29102,-0.0517578,0,0,0,0,0,0,0,-1,727,1352,-9.29104,0.0518175
-490,-328,-10.0663,0.882813,0,0,0,0,0,0,0,-1,734,1352,-10.0663,-0.882795
-483,-328,-10.8181,1.72375,0,0,0,0,0,0,0,-1,741,1352,-10.8181,-1.72374
-476,-328,-16.8951,-0.150757,0,0,0,0,0,0,0,-1,748,1352,-16.8951,0.150795
-469,-328,-16.8412,0.00158691,0,0,0,0,0,0,0,-1,755,1352,-16.8412,-0.00161515
-462,-328,-16.3546,-0.203491,0,0,0,0,0,0,0,-1,762,1352,-16.3545,0.203532
-455,-328,0,0,0,0,0,0,0,0,0,-1,769,1352,0,0
-448,-328,0,0,0,0,0,0,0,0,0,-1,776,1352,0,0
-441,-328,0,0,0,0,0,0,0,0,0,-1,783,1352,0,0
-434,-328,0,0,0,0,0,0,0,0,0,-1,790,1352,0,0
-427,-328,0,0,0,0,0,0,0,0,0,-1,797,1352,0,0
-420,-328,0,0,0,0,0,0,0,0,0,-1,804,1352,0,0
-413,-328,0,0,0,0,0,0,0,0,0,-1,811,1352,0,0
-406,-328,0,0,0,0,0,0,0,0,0,-1,818,1352,0,0
-399,-328,0,0,0,0,0,0,0,0,0,-1,825,1352,0,0
-392,-328,0,0,0,0,0,0,0,0,0,-1,832,1352,0,0
-385,-328,0,0,0,0,0,0,0,0,0,-1,839,1352,0,0
-378,-328,0,0,0,0,0,0,0,0,0,-1,846,1352,0,0
-371,-328,0,0,0,0,0,0,0,0,0,-1,853,1352,0,0
-364,-328,0,0,0,0,0,0,0,0,0,-1,860,1352,0,0
-357,-328,0,0,0,0,0,0,0,0,0,-1,867,1352,0,0
-350,-328,0,0,0,0,0,0,0,0,0,-1,874,1352,0,0
-343,-328,0,0,0,0,0,0,0,0,0,-1,881,1352,0,0
-336,-328,0,0,0,0,0,0,0,0,0,-1,888,1352,0,0
-329,-328,0,0,0,0,0,0,0,0,0,-1,895,1352,0,0
-322,-328,0,0,0,0,0,0,0,0,0,-1,902,1352,0,0
-315,-328,0,0,0,0,0,0,0,0,0,-1,909,1352,0,0
-308,-328,0,0,0,0,0,0,0,0,0,-1,916,1352,0,0
-301,-328,0,0,0,0,0,0,0,0,0,-1,923,1352,0,0
-294,-328,0,0,0,0,0,0,0,0,0,-1,930,1352,0,0
-287,-328,0,0,0,0,0,0,0,0,0,-1,937,1352,0,0
-280,-328,0,0,0,0,0,0,0,0,0,-1,944,1352,0,0
-273,-328,0,0,0,0,0,0,0,0,0,-1,951,1352,0,0
-266,-328,0,0,0,0,0,0,0,0,0,-1,958,1352,0,0
-259,-328,0,0,0,0,0,0,0,0,0,-1,965,1352,0,0
-252,-328,0,0,0,0,0,0,0,0,0,-1,972,1352,0,0
-245,-328,0,0,0,0,0,0,0,0,0,-1,979,1352,0,0
-238,-328,0,0,0,0,0,0,0,0,0,-1,986,1352,0,0
-231,-328,0,0,0,0,0,0,0,0,0,-1,993,1352,0,0
-224,-328,0,0,0,0,0,0,0,0,0,-1,1000,1352,0,0
-217,-328,0,0,0,0,0,0,0,0,0,-1,1007,1352,0,0
-210,-328,0,0,0,0,0,0,0,0,0,-1,1014,1352,0,0
-203,-328,0,0,0,0,0,0,0,0,0,-1,1021,1352,0,0
-196,-328,0,0,0,0,0,0,0,0,0,-1,1028,1352,0,0
-189,-328,0,0,0,0,0,0,0,0,0,-1,1035,1352,0,0
-182,-328,0,0,0,0,0,0,0,0,0,-1,1042,1352,0,0
-175,-328,0,0,0,0,0,0,0,0,0,-1,1049,1352,0,0
-168,-328,0,0,0,0,0,0,0,0,0,-1,1056,1352,0,0
-161,-328,0,0,0,0,0,0,0,0,0,-1,1063,1352,0,0
-154,-328,0,0,0,0,0,0,0,0,0,-1,1070,1352,0,0
-147,-328,0,0,0,0,0,0,0,0,0,-1,1077,1352,0,0
-140,-328,0,0,0,0,0,0,0,0,0,-1,1084,1352,0,0
-133,-328,0,0,0,0,0,0,0,0,0,-1,1091,1352,0,0
-126,-328,0,0,0,0,0,0,0,0,0,-1,1098,1352,0,0
-119,-328,0,0,0,0,0,0,0,0,0,-1,1105,1352,0,0
-112,-328,0,0,0,0,0,0,0,0,0,-1,1112,1352,0,0
-105,-328,0,0,0,0,0,0,0,0,0,-1,1119,1352,0,0
-98,-328,0,0,0,0,0,0,0,0,0,-1,1126,1352,0,0
-91,-328,0,0,0,0,0,0,0,0,0,-1,1133,1352,0,0
-84,-328,0,0,0,0,0,0,0,0,0,-1,1140,1352,0,0
-77,-328,0,0,0,0,0,0,0,0,0,-1,1147,1352,0,0
-70,-328,0,0,0,0,0,0,0,0,0,-1,1154,1352,0,0
-63,-328,0,0,0,0,0,0,0,0,0,-1,1161,1352,0,0
-56,-328,0,0,0,0,0,0,0,0,0,-1,1168,1352,0,0
-49,-328,0,0,0,0,0,0,0,0,0,-1,1175,1352,0,0
-42,-328,0,0,0,0,0,0,0,0,0,-1,1182,1352,0,0
-35,-328,0,0,0,0,0,0,0,0,0,-1,1189,1352,0,0
-28,-328,0,0,0,0,0,0,0,0,0,-1,1196,1352,0,0
-21,-328,0,0,0,0,0,0,0,0,0,-1,1203,1352,0,0
-14,-328,0,0,0,0,0,0,0,0,0,-1,1210,1352,0,0
-7,-328,0,0,0,0,0,0,0,0,0,-1,1217,1352,0,0
0,-328,0,0,0,0,0,0,0,0,0,-1,1224,1352,0,0
7,-328,0,0,0,0,0,0,0,0,0,-1,1231,1352,0,0
14,-328,0,0,0,0,0,0,0,0,0,-1,1238,1352,0,0
21,-328,0,0,0,0,0,0,0,0,0,-1,1245,1352,0,0
28,-328,0,0,0,0,0,0,0,0,0,-1,1252,1352,0,0
35,-328,0,0,0,0,0,0,0,0,0,-1,1259,1352,0,0
42,-328,0,0,0,0,0,0,0,0,0,-1,1266,1352,0,0
49,-328,0,0,0,0,0,0,0,0,0,-1,1273,1352,0,0
56,-328,0,0,0,0,0,0,0,0,0,-1,1280,1352,0,0
63,-328,0,0,0,0,0,0,0,0,0,-1,1287,1352,0,0
70,-328,0,0,0,0,0,0,0,0,0,-1,1294,1352,0,0
77,-328,0,0,0,0,0,0,0,0,0,-1,1301,1352,0,0
84,-328,0,0,0,0,0,0,0,0,0,-1,1308,1352,0,0
91,-328,0,0,0,0,0,0,0,0,0,-1,1315,1352,0,0
98,-328,0,0,0,0,0,0,0,0,0,-1,1322,1352,0,0
105,-328,0,0,0,0,0,0,0,0,0,-1,1329,1352,0,0
112,-328,0,0,0,0,0,0,0,0,0,-1,1336,1352,0,0
119,-328,0,0,0,0,0,0,0,0,0,-1,1343,1352,0,0
126,-328,0,0,0,0,0,0,0,0,0,-1,1350,1352,0,0
133,-328,0,0,0,0,0,0,0,0,0,-1,1357,1352,0,0
140,-328,0,0,0,0,0,0,0,0,0,-1,1364,1352,0,0
147,-328,0,0,0,0,0,0,0,0,0,-1,1371,1352,0,0
154,-328,0,0,0,0,0,0,0,0,0,-1,1378,1352,0,0
161,-328,0,0,0,0,0,0,0,0,0,-1,1385,1352,0,0
168,-328,0,0,0,0,0,0,0,0,0,-1,1392,1352,0,0
175,-328,0,0,0,0,0,0,0,0,0,-1,1399,1352,0,0
182,-328,0,0,0,0,0,0,0,0,0,-1,1406,1352,0,0
189,-328,0,0,0,0,0,0,0,0,0,-1,1413,1352,0,0
196,-328,0,0,0,0,0,0,0,0,0,-1,1420,1352,0,0
203,-328,0,0,0,0,0,0,0,0,0,-1,1427,1352,0,0
210,-328,0,0,0,0,0,0,0,0,0,-1,1434,1352,0,0
217,-328,0,0,0,0,0,0,0,0,0,-1,1441,1352,0,0
224,-328,0,0,0,0,0,0,0,0,0,-1,1448,1352,0,0
231,-328,0,0,0,0,0,0,0,0,0,-1,1455,1352,0,0
238,-328,0,0,0,0,0,0,0,0,0,-1,1462,1352,0,0
245,-328,0,0,0,0,0,0,0,0,0,-1,1469,1352,0,0
252,-328,0,0,0,0,0,0,0,0,0,-1,1476,1352,0,0
259,-328,0,0,0,0,0,0,0,0,0,-1,1483,1352,0,0
266,-328,0,0,0,0,0,0,0,0,0,-1,1490,1352,0,0
273,-328,0,0,0,0,0,0,0,0,0,-1,1497,1352,0,0
280,-328,0,0,0,0,0,0,0,0,0,-1,1504,1352,0,0
287,-328,0,0,0,0,0,0,0,0,0,-1,1511,1352,0,0
294,-328,0,0,0,0,0,0,0,0,0,-1,1518,1352,0,0
301,-328,0,0,0,0,0,0,0,0,0,-1,1525,1352,0,0
308,-328,0,0,0,0,0,0,0,0,0,-1,1532,1352,0,0
315,-328,0,0,0,0,0,0,0,0,0,-1,1539,1352,0,0
322,-328,0,0,0,0,0,0,0,0,0,-1,1546,1352,0,0
329,-328,0,0,0,0,0,0,0,0,0,-1,1553,1352,0,0
336,-328,0,0,0,0,0,0,0,0,0,-1,1560,1352,0,0
343,-328,0,0,0,0,0,0,0,0,0,-1,1567,1352,0,0
350,-328,0,0,0,0,0,0,0,0,0,-1,1574,1352,0,0
357,-328,0,0,0,0,0,0,0,0,0,-1,1581,1352,0,0
364,-328,0,0,0,0,0,0,0,0,0,-1,1588,1352,0,0
371,-328,0,0,0,0,0,0,0,0,0,-1,1595,1352,0,0
378,-328,0,0,0,0,0,0,0,0,0,-1,1602,1352,0,0
385,-328,0,0,0,0,0,0,0,0,0,-1,1609,1352,0,0
392,-328,0,0,0,0,0,0,0,0,0,-1,1616,1352,0,0
399,-328,0,0,0,0,0,0,0,0,0,-1,1623,1352,0,0
406,-328,0,0,0,0,0,0,0,0,0,-1,1630,1352,0,0
413,-328,0,0,0,0,0,0,0,0,0,-1,1637,1352,0,0
420,-328,0,0,0,0,0,0,0,0,0,-1,1644,1352,0,0
427,-328,0,0,0,0,0,0,0,0,0,-1,1651,1352,0,0
434,-328,0,0,0,0,0,0,0,0,0,-1,1658,1352,0,0
441,-328,0,0,0,0,0,0,0,0,0,-1,1665,1352,0,0
448,-328,0,0,0,0,0,0,0,0,0,-1,1672,1352,0,0
455,-328,0,0,0,0,0,0,0,0,0,-1,1679,1352,0,0
462,-328,0,0,0,0,0,0,0,0,0,-1,1686,1352,0,0
469,-328,0,0,0,0,0,0,0,0,0,-1,1693,1352,0,0
476,-328,0,0,0,0,0,0,0,0,0,-1,1700,1352,0,0
483,-328,0,0,0,0,0,0,0,0,0,-1,1707,1352,0,0
490,-328,0,0,0,0,0,0,0,0,0,-1,1714,1352,0,0
497,-328,0,0,0,0,0,0,0,0,0,-1,1721,1352,0,0
504,-328,0,0,0,0,0,0,0,0,0,-1,1728,1352,0,0
511,-328,0,0,0,0,0,0,0,0,0,-1,1735,1352,0,0
518,-328,0,0,0,0,0,0,0,0,0,-1,1742,1352,0,0
525,-328,0,0,0,0,0,0,0,0,0,-1,1749,1352,0,0
532,-328,0,0,0,0,0,0,0,0,0,-1,1756,1352,0,0
539,-328,0,0,0,0,0,0,0,0,0,-1,1763,1352,0,0
546,-328,0,0,0,0,0,0,0,0,0,-1,1770,1352,0,0
553,-328,0,0,0,0,0,0,0,0,0,-1,1777,1352,0,0
560,-328,0,0,0,0,0,0,0,0,0,-1,1784,1352,0,0
567,-328,0,0,0,0,0,0,0,0,0,-1,1791,1352,0,0
574,-328,37.6497,-4.89697,0,0,0,0,0,0,0,-1,1798,1352,37.6497,4.89702
581,-328,37.6256,-3.63501,-0.00990588,-0.0733848,0.142759,0.104599,-0.18789,0.676013,0.171136,0.0407612,1805,1352,37.6256,3.63501
588,-328,37.7819,-2.08447,-0.00803702,-0.0481315,0.138841,0.112196,-0.168365,0.713699,0.163061,0.0457512,1812,1352,37.7818,2.08444
595,-328,37.666,-0.810303,-0.00112467,-0.0311475,0.128141,0.112882,-0.145154,0.72709,0.149365,0.0453443,1819,1352,37.666,0.810258
602,-328,37.2657,0.140503,0.00667117,-0.0242171,0.112032,0.104319,-0.121865,0.716903,0.130718,0.0477955,1826,1352,37.2658,-0.140531
609,-328,37.0468,1.17407,0.0136387,-0.0195861,0.0964276,0.0948744,-0.100822,0.700096,0.113003,0.0484991,1833,1352,37.0468,-1.17407
616,-328,36.999,2.42859,0,0,0,0,0,0,0,-1,1840,1352,36.999,-2.42862
623,-328,34.345,5.14722,0,0,0,0,0,0,0,-1,1847,1352,34.3449,-5.14718
630,-328,22.0211,5.026,0,0,0,0,0,0,0,-1,1854,1352,22.0212,-5.02603
637,-328,21.15,5.53699,0,0,0,0,0,0,0,-1,1861,1352,21.15,-5.53704
644,-328,16.9579,6.3396,0,0,0,0,0,0,0,-1,1868,1352,16.9579,-6.33959
651,-328,28.5225,11.7469,0,0,0,0,0,0,0,-1,1875,1352,28.5225,-11.7469
658,-328,28.33,11.3378,0.0143427,-0.00568693,0.0167881,0.0238762,-0.0152204,0.516462,0.0227561,0.0387215,1882,1352,28.33,-11.3378
665,-328,28.3412,10.8854,0.00941867,-0.00518718,0.0086686,0.0134505,-0.00921903,0.435349,0.0131641,0.0134702,1889,1352,28.3412,-10.8854
672,-328,28.319,10.4502,0.00372661,-0.00261537,0.00167934,0.00414385,-0.0030326,0.243522,0.00415985,0.0114984,1896,1352,28.319,-10.4502
679,-328,28.2972,10.0027,0.000221294,-0.000606816,-8.0585e-05,0.000229063,-0.000614585,-0.0961103,0.000503748,0.0137133,1903,1352,28.2972,-10.0027
686,-328,28.2699,9.57471,0.000390907,-0.000271065,-4.56576e-05,0.000394041,-0.000274199,-0.0685395,0.000387871,0.01361,1910,1352,28.2699,-9.57474
693,-328,28.259,9.16309,0.000410658,5.9051e-05,2.85322e-05,0.000412958,5.67507e-05,0.0804466,0.000258474,0.00941641,1917,1352,28.259,-9.16304
700,-328,28.2546,8.71106,0.000303094,0.000407085,0.000157884,0.000521315,0.000188864,0.944467,0.000304763,0.0141821,1924,1352,28.2547,-8.71108
707,-328,28.2592,8.27539,-2.74092e-05,0.000739731,0.000366508,0.000886683,-0.000174361,1.18947,0.000657001,0.0161578,1931,1352,28.2591,-8.27543
714,-328,28.2384,7.84326,-0.000615741,0.00111567,0.000666427,0.00134247,-0.000842543,1.24277,0.00127248,0.0159734,1938,1352,28.2384,-7.84324
721,-328,27.9978,7.40955,-0.00154667,0.00142402,0.00120749,0.00185291,-0.00197556,1.22951,0.00221075,0.0481467,1945,1352,27.9978,-7.40951
728,-328,28.05,6.77795,0,0,0,0,0,0,0,-1,1952,1352,28.05,-6.77792
735,-328,20.8927,5.23523,0,0,0,0,0,0,0,-1,1959,1352,20.8927,-5.23528
742,-328,20.3547,4.11316,0,0,0,0,0,0,0,-1,1966,1352,20.3547,-4.11321
749,-328,20.0669,5.66321,0,0,0,0,0,0,0,-1,1973,1352,20.0669,-5.66319
756,-328,19.9543,5.50464,0,0,0,0,0,0,0,-1,1980,1352,19.9543,-5.50463
763,-328,0,0,0,0,0,0,0,0,0,-1,1987,1352,0,0
770,-328,0,0,0,0,0,0,0,0,0,-1,1994,1352,0,0
777,-328,0,0,0,0,0,0,0,0,0,-1,2001,1352,0,0
784,-328,0,0,0,0,0,0,0,0,0,-1,2008,1352,0,0
791,-328,0,0,0,0,0,0,0,0,0,-1,2015,1352,0,0
798,-328,0,0,0,0,0,0,0,0,0,-1,2022,1352,0,0
805,-328,0,0,0,0,0,0,0,0,0,-1,2029,1352,0,0
812,-328,0,0,0,0,0,0,0,0,0,-1,2036,1352,0,0
-700,-335,0,0,0,0,0,0,0,0,0,-1,524,1359,0,0
-693,-335,0,0,0,0,0,0,0,0,0,-1,531,1359,0,0
-686,-335,0,0,0,0,0,0,0,0,0,-1,538,1359,0,0
-679,-335,0,0,0,0,0,0,0,0,0,-1,545,1359,0,0
-672,-335,0,0,0,0,0,0,0,0,0,-1,552,1359,0,0
-665,-335,0,0,0,0,0,0,0,0,0,-1,559,1359,0,0
-658,-335,0,0,0,0,0,0,0,0,0,-1,566,1359,0,0
-651,-335,0,0,0,0,0,0,0,0,0,-1,573,1359,0,0
-644,-335,0,0,0,0,0,0,0,0,0,-1,580,1359,0,0
-637,-335,-9.64746,3.53809,0,0,0,0,0,0,0,-1,587,1359,-9.64744,-3.53803
-630,-335,-6.07397,-2.99902,0,0,0,0,0,0,0,-1,594,1359,-6.07397,2.99902
-623,-335,-8.43304,1.09509,0,0,0,0,0,0,0,-1,601,1359,-8.43301,-1.09507
-616,-335,-7.80927,-0.485352,0,0,0,0,0,0,0,-1,608,1359,-7.80926,0.485291
-609,-335,-7.12256,-2.03601,0,0,0,0,0,0,0,-1,615,1359,-7.12253,2.03601
-602,-335,-9.39935,2.25146,0,0,0,0,0,0,0,-1,622,1359,-9.39935,-2.25145
-595,-335,-9.54767,3.01917,0,0,0,0,0,0,0,-1,629,1359,-9.54768,-3.01911
-588,-335,-14.7958,4.91858,0,0,0,0,0,0,0,-1,636,1359,-14.7958,-4.91856
-581,-335,-14.6708,5.64026,0.00217928,0.00116037,0.000709312,0.00254313,0.000796516,0.473968,0.00150204,0.0382881,643,1359,-14.6708,-5.64023
-574,-335,-14.676,6.05847,0.00162748,0.000686371,0.000371943,0.00175673,0.000557123,0.33444,0.00103661,0.0131816,650,1359,-14.676,-6.05851
-567,-335,-14.6293,6.51843,0.00142774,0.000432888,0.000269196,0.00149591,0.000364718,0.248022,0.000900662,0.017125,657,1359,-14.6293,-6.51838
-560,-335,-14.5988,6.96326,0.00158119,0.000263102,0.000330754,0.00165953,0.00018476,0.232571,0.0010502,0.0255903,664,1359,-14.5988,-6.96325
-553,-335,-14.6679,7.48376,0.0020358,0.000189418,0.000569017,0.00219707,2.8145e-05,0.276181,0.00145542,0.0283425,671,1359,-14.6679,-7.4838
-546,-335,-14.7173,7.97375,0.0027627,0.000149629,0.000928254,0.00305888,-0.000146549,0.308859,0.00208982,0.0255128,678,1359,-14.7173,-7.9738
-539,-335,-14.7321,8.42517,0.00374821,0.000185123,0.00141992,0.00424484,-0.000311504,0.336459,0.00293923,0.0204688,685,1359,-14.7321,-8.42521
-532,-335,-14.7521,8.94653,0.00512907,0.000297497,0.00211506,0.00592412,-0.000497556,0.359561,0.00412528,0.015571,692,1359,-14.7521,-8.94651
-525,-335,-14.6945,9.44641,0.00695322,0.000387963,0.00299136,0.00811175,-0.000770567,0.369503,0.00568213,0.0115494,699,1359,-14.6945,-9.4464
-518,-335,-14.6712,9.88647,0.0093894,0.000730441,0.004136,0.0110475,-0.000927643,0.381274,0.00769287,0.0420209,706,1359,-14.6712,-9.88649
-511,-335,-14.6496,10.3157,0,0,0,0,0,0,0,-1,713,1359,-14.6496,-10.3156
-504,-335,-9.35767,5.99695,0,0,0,0,0,0,0,-1,720,1359,-9.35767,-5.99694
-497,-335,-8.75024,-0.650513,0,0,0,0,0,0,0,-1,727,1359,-8.75024,0.650521
-490,-335,-9.51971,0.417603,0,0,0,0,0,0,0,-1,734,1359,-9.51974,-0.41765
-483,-335,-10.2883,1.29224,0,0,0,0,0,0,0,-1,741,1359,-10.2883,-1.2922
-476,-335,-11.9938,-0.173462,0,0,0,0,0,0,0,-1,748,1359,-11.9938,0.173429
-469,-335,-12.8704,-0.204102,0,0,0,0,0,0,0,-1,755,1359,-12.8704,0.204117
-462,-335,-13.486,0.0218506,0,0,0,0,0,0,0,-1,762,1359,-13.4859,-0.0217908
-455,-335,-14.1504,0.549561,0,0,0,0,0,0,0,-1,769,1359,-14.1504,-0.549583
-448,-335,0,0,0,0,0,0,0,0,0,-1,776,1359,0,0
-441,-335,0,0,0,0,0,0,0,0,0,-1,783,1359,0,0
-434,-335,0,0,0,0,0,0,0,0,0,-1,790,1359,0,0
-427,-335,0,0,0,0,0,0,0,0,0,-1,797,1359,0,0
-420,-335,0,0,0,0,0,0,0,0,0,-1,804,1359,0,0
-413,-335,0,0,0,0,0,0,0,0,0,-1,811,1359,0,0
-406,-335,0,0,0,0,0,0,0,0,0,-1,818,1359,0,0
-399,-335,0,0,0,0,0,0,0,0,0,-1,825,1359,0,0
-392,-335,0,0,0,0,0,0,0,0,0,-1,832,1359,0,0
-385,-335,0,0,0,0,0,0,0,0,0,-1,839,1359,0,0
-378,-335,0,0,0,0,0,0,0,0,0,-1,846,1359,0,0
-371,-335,0,0,0,0,0,0,0,0,0,-1,853,1359,0,0
-364,-335,0,0,0,0,0,0,0,0,0,-1,860,1359,0,0
-357,-335,0,0,0,0,0,0,0,0,0,-1,867,1359,0,0
-350,-335,0,0,0,0,0,0,0,0,0,-1,874,1359,0,0
-343,-335,0,0,0,0,0,0,0,0,0,-1,881,1359,0,0
-336,-335,0,0,0,0,0,0,0,0,0,-1,888,1359,0,0
-329,-335,0,0,0,0,0,0,0,0,0,-1,895,1359,0,0
-322,-335,0,0,0,0,0,0,0,0,0,-1,902,1359,0,0
-315,-335,0,0,0,0,0,0,0,0,0,-1,909,1359,0,0
-308,-335,0,0,0,0,0,0,0,0,0,-1,916,1359,0,0
-301,-335,0,0,0,0,0,0,0,0,0,-1,923,1359,0,0
-294,-335,0,0,0,0,0,0,0,0,0,-1,930,1359,0,0
-287,-335,0,0,0,0,0,0,0,0,0,-1,937,1359,0,0
-280,-335,0,0,0,0,0,0,0,0,0,-1,944,1359,0,0
-273,-335,0,0,0,0,0,0,0,0,0,-1,951,1359,0,0
-266,-335,0,0,0,0,0,0,0,0,0,-1,958,1359,0,0
-259,-335,0,0,0,0,0,0,0,0,0,-1,965,1359,0,0
-252,-335,0,0,0,0,0,0,0,0,0,-1,972,1359,0,0
-245,-335,0,0,0,0,0,0,0,0,0,-1,979,1359,0,0
-238,-335,0,0,0,0,0,0,0,0,0,-1,986,1359,0,0
-231,-335,0,0,0,0,0,0,0,0,0,-1,993,1359,0,0
-224,-335,0,0,0,0,0,0,0,0,0,-1,1000,1359,0,0
-217,-335,0,0,0,0,0,0,0,0,0,-1,1007,1359,0,0
-210,-335,0,0,0,0,0,0,0,0,0,-1,1014,1359,0,0
-203,-335,0,0,0,0,0,0,0,0,0,-1,1021,1359,0,0
-196,-335,0,0,0,0,0,0,0,0,0,-1,1028,1359,0,0
-189,-335,0,0,0,0,0,0,0,0,0,-1,1035,1359,0,0
-182,-335,0,0,0,0,0,0,0,0,0,-1,1042,1359,0,0
-175,-335,0,0,0,0,0,0,0,0,0,-1,1049,1359,0,0
-168,-335,0,0,0,0,0,0,0,0,0,-1,1056,1359,0,0
-161,-335,0,0,0,0,0,0,0,0,0,-1,1063,1359,0,0
-154,-335,0,0,0,0,0,0,0,0,0,-1,1070,1359,0,0
-147,-335,0,0,0,0,0,0,0,0,0,-1,1077,1359,0,0
-140,-335,0,0,0,0,0,0,0,0,0,-1,1084,1359,0,0
-133,-335,0,0,0,0,0,0,0,0,0,-1,1091,1359,0,0
-126,-335,0,0,0,0,0,0,0,0,0,-1,1098,1359,0,0
-119,-335,0,0,0,0,0,0,0,0,0,-1,1105,1359,0,0
-112,-335,0,0,0,0,0,0,0,0,0,-1,1112,1359,0,0
-105,-335,0,0,0,0,0,0,0,0,0,-1,1119,1359,0,0
-98,-335,0,0,0,0,0,0,0,0,0,-1,1126,1359,0,0
-91,-335,0,0,0,0,0,0,0,0,0,-1,1133,1359,0,0
-84,-335,0,0,0,0,0,0,0,0,0,-1,1140,1359,0,0
-77,-335,0,0,0,0,0,0,0,0,0,-1,1147,1359,0,0
-70,-335,0,0,0,0,0,0,0,0,0,-1,1154,1359,0,0
-63,-335,0,0,0,0,0,0,0,0,0,-1,1161,1359,0,0
-56,-335,0,0,0,0,0,0,0,0,0,-1,1168,1359,0,0
-49,-335,0,0,0,0,0,0,0,0,0,-1,1175,1359,0,0
-42,-335,0,0,0,0,0,0,0,0,0,-1,1182,1359,0,0
-35,-335,0,0,0,0,0,0,0,0,0,-1,1189,1359,0,0
-28,-335,0,0,0,0,0,0,0,0,0,-1,1196,1359,0,0
-21,-335,0,0,0,0,0,0,0,0,0,-1,1203,1359,0,0
-14,-335,0,0,0,0,0,0,0,0,0,-1,1210,1359,0,0
-7,-335,0,0,0,0,0,0,0,0,0,-1,1217,1359,0,0
0,-335,0,0,0,0,0,0,0,0,0,-1,1224,1359,0,0
7,-335,0,0,0,0,0,0,0,0,0,-1,1231,1359,0,0
14,-335,0,0,0,0,0,0,0,0,0,-1,1238,1359,0,0
21,-335,0,0,0,0,0,0,0,0,0,-1,1245,1359,0,0
28,-335,0,0,0,0,0,0,0,0,0,-1,1252,1359,0,0
35,-335,0,0,0,0,0,0,0,0,0,-1,1259,1359,0,0
42,-335,0,0,0,0,0,0,0,0,0,-1,1266,1359,0,0
49,-335,0,0,0,0,0,0,0,0,0,-1,1273,1359,0,0
56,-335,0,0,0,0,0,0,0,0,0,-1,1280,1359,0,0
63,-335,0,0,0,0,0,0,0,0,0,-1,1287,1359,0,0
70,-335,0,0,0,0,0,0,0,0,0,-1,1294,1359,0,0
77,-335,0,0,0,0,0,0,0,0,0,-1,1301,1359,0,0
84,-335,0,0,0,0,0,0,0,0,0,-1,1308,1359,0,0
91,-335,0,0,0,0,0,0,0,0,0,-1,1315,1359,0,0
98,-335,0,0,0,0,0,0,0,0,0,-1,1322,1359,0,0
105,-335,0,0,0,0,0,0,0,0,0,-1,1329,1359,0,0
112,-335,0,0,0,0,0,0,0,0,0,-1,1336,1359,0,0
119,-335,0,0,0,0,0,0,0,0,0,-1,1343,1359,0,0
126,-335,0,0,0,0,0,0,0,0,0,-1,1350,1359,0,0
133,-335,0,0,0,0,0,0,0,0,0,-1,1357,1359,0,0
140,-335,0,0,0,0,0,0,0,0,0,-1,1364,1359,0,0
147,-335,0,0,0,0,0,0,0,0,0,-1,1371,1359,0,0
154,-335,0,0,0,0,0,0,0,0,0,-1,1378,1359,0,0
161,-335,0,0,0,0,0,0,0,0,0,-1,1385,1359,0,0
168,-335,0,0,0,0,0,0,0,0,0,-1,1392,1359,0,0
175,-335,0,0,0,0,0,0,0,0,0,-1,1399,1359,0,0
182,-335,0,0,0,0,0,0,0,0,0,-1,1406,1359,0,0
189,-335,0,0,0,0,0,0,0,0,0,-1,1413,1359,0,0
196,-335,0,0,0,0,0,0,0,0,0,-1,1420,1359,0,0
203,-335,0,0,0,0,0,0,0,0,0,-1,1427,1359,0,0
210,-335,0,0,0,0,0,0,0,0,0,-1,1434,1359,0,0
217,-335,0,0,0,0,0,0,0,0,0,-1,1441,1359,0,0
224,-335,0,0,0,0,0,0,0,0,0,-1,1448,1359,0,0
231,-335,0,0,0,0,0,0,0,0,0,-1,1455,1359,0,0
238,-335,0,0,0,0,0,0,0,0,0,-1,1462,1359,0,0
245,-335,0,0,0,0,0,0,0,0,0,-1,1469,1359,0,0
252,-335,0,0,0,0,0,0,0,0,0,-1,1476,1359,0,0
259,-335,0,0,0,0,0,0,0,0,0,-1,1483,1359,0,0
266,-335,0,0,0,0,0,0,0,0,0,-1,1490,1359,0,0
273,-335,0,0,0,0,0,0,0,0,0,-1,1497,1359,0,0
280,-335,0,0,0,0,0,0,0,0,0,-1,1504,1359,0,0
287,-335,0,0,0,0,0,0,0,0,0,-1,1511,1359,0,0
294,-335,0,0,0,0,0,0,0,0,0,-1,1518,1359,0,0
301,-335,0,0,0,0,0,0,0,0,0,-1,1525,1359,0,0
308,-335,0,0,0,0,0,0,0,0,0,-1,1532,1359,0,0
315,-335,0,0,0,0,0,0,0,0,0,-1,1539,1359,0,0
322,-335,0,0,0,0,0,0,0,0,0,-1,1546,1359,0,0
329,-335,0,0,0,0,0,0,0,0,0,-1,1553,1359,0,0
336,-335,0,0,0,0,0,0,0,0,0,-1,1560,1359,0,0
343,-335,0,0,0,0,0,0,0,0,0,-1,1567,1359,0,0
350,-335,0,0,0,0,0,0,0,0,0,-1,1574,1359,0,0
357,-335,0,0,0,0,0,0,0,0,0,-1,1581,1359,0,0
364,-335,0,0,0,0,0,0,0,0,0,-1,1588,1359,0,0
371,-335,0,0,0,0,0,0,0,0,0,-1,1595,1359,0,0
378,-335,0,0,0,0,0,0,0,0,0,-1,1602,1359,0,0
385,-335,0,0,0,0,0,0,0,0,0,-1,1609,1359,0,0
392,-335,0,0,0,0,0,0,0,0,0,-1,1616,1359,0,0
399,-335,0,0,0,0,0,0,0,0,0,-1,1623,1359,0,0
406,-335,0,0,0,0,0,0,0,0,0,-1,1630,1359,0,0
413,-335,0,0,0,0,0,0,0,0,0,-1,1637,1359,0,0
420,-335,0,0,0,0,0,0,0,0,0,-1,1644,1359,0,0
427,-335,0,0,0,0,0,0,0,0,0,-1,1651,1359,0,0
434,-335,0,0,0,0,0,0,0,0,0,-1,1658,1359,0,0
441,-335,0,0,0,0,0,0,0,0,0,-1,1665,1359,0,0
448,-335,0,0,0,0,0,0,0,0,0,-1,1672,1359,0,0
455,-335,0,0,0,0,0,0,0,0,0,-1,1679,1359,0,0
462,-335,0,0,0,0,0,0,0,0,0,-1,1686,1359,0,0
469,-335,0,0,0,0,0,0,0,0,0,-1,1693,1359,0,0
476,-335,0,0,0,0,0,0,0,0,0,-1,1700,1359,0,0
483,-335,0,0,0,0,0,0,0,0,0,-1,1707,1359,0,0
490,-335,0,0,0,0,0,0,0,0,0,-1,1714,1359,0,0
497,-335,0,0,0,0,0,0,0,0,0,-1,1721,1359,0,0
504,-335,0,0,0,0,0,0,0,0,0,-1,1728,1359,0,0
511,-335,0,0,0,0,0,0,0,0,0,-1,1735,1359,0,0
518,-335,0,0,0,0,0,0,0,0,0,-1,1742,1359,0,0
525,-335,0,0,0,0,0,0,0,0,0,-1,1749,1359,0,0
532,-335,0,0,0,0,0,0,0,0,0,-1,1756,1359,0,0
539,-335,0,0,0,0,0,0,0,0,0,-1,1763,1359,0,0
546,-335,0,0,0,0,0,0,0,0,0,-1,1770,1359,0,0
553,-335,0,0,0,0,0,0,0,0,0,-1,1777,1359,0,0
560,-335,0,0,0,0,0,0,0,0,0,-1,1784,1359,0,0
567,-335,0,0,0,0,0,0,0,0,0,-1,1791,1359,0,0
574,-335,38.4481,-4.45337,0,0,0,0,0,0,0,-1,1798,1359,38.4481,4.45333
581,-335,38.0303,-3.28943,-0.0386726,-0.0568019,0.153446,0.105977,-0.201451,0.755896,0.180324,0.0464903,1805,1359,38.0303,3.28942
588,-335,37.0667,-1.43896,-0.0320632,-0.037264,0.142513,0.107873,-0.1772,0.776276,0.166202,0.0465158,1812,1359,37.0666,1.439
595,-335,36.7618,0.060791,-0.0190984,-0.0284656,0.126237,0.102542,-0.150106,0.766856,0.146725,0.0488479,1819,1359,36.7619,-0.0607873
602,-335,36.5643,0.0861816,0,0,0,0,0,0,0,-1,1826,1359,36.5643,-0.0862283
609,-335,36.2933,0.993896,0,0,0,0,0,0,0,-1,1833,1359,36.2934,-0.993911
616,-335,34.6969,4.82666,0,0,0,0,0,0,0,-1,1840,1359,34.6969,-4.82667
623,-335,26.6051,6.54333,0,0,0,0,0,0,0,-1,1847,1359,26.6051,-6.54339
630,-335,19.1707,1.00952,0,0,0,0,0,0,0,-1,1854,1359,19.1707,-1.00953
637,-335,18.2009,6.65454,0,0,0,0,0,0,0,-1,1861,1359,18.2009,-6.6546
644,-335,28.1042,12.067,0,0,0,0,0,0,0,-1,1868,1359,28.1042,-12.067
651,-335,27.9515,11.7074,0.0152993,-0.000452917,0.0228036,0.0315487,-0.0167022,0.619117,0.0282938,0.0495864,1875,1359,27.9516,-11.7074
658,-335,27.8751,11.3658,0.0106735,-0.00429379,0.0138134,0.0189002,-0.0125205,0.537148,0.018265,0.0242747,1882,1359,27.8751,-11.3658
665,-335,27.9056,10.8944,0.00644171,-0.0038471,0.00634974,0.00946946,-0.00687485,0.444941,0.00947594,0.0148523,1889,1359,27.9056,-10.8944
672,-335,27.8734,10.4468,0.00238962,-0.00183385,0.00107255,0.00264638,-0.00209061,0.234975,0.00274117,0.0171785,1896,1359,27.8734,-10.4468
679,-335,27.8539,10.032,0.000314802,-0.000515092,-4.55287e-05,0.000317292,-0.000517582,-0.0546422,0.000486617,0.0150113,1903,1359,27.8538,-10.032
686,-335,27.8673,9.58252,0.000596799,-0.000227522,-3.27328e-05,0.000598096,-0.00022882,-0.0396257,0.000493033,0.0125036,1910,1359,27.8673,-9.58251
693,-335,27.8333,9.14819,0.000768094,7.6594e-05,8.58386e-06,0.000768201,7.64875e-05,0.0124108,0.000488637,0.0103041,1917,1359,27.8332,-9.14824
700,-335,27.8112,8.74438,0.000818351,0.000426585,9.32521e-05,0.000839416,0.000405521,0.222156,0.000484729,0.0112314,1924,1359,27.8112,-8.74434
707,-335,27.8052,8.31616,0.00061951,0.000767567,0.000264826,0.000968516,0.000418561,0.921688,0.000560886,0.0142901,1931,1359,27.8052,-8.31618
714,-335,27.8125,7.75793,0.000177117,0.00121635,0.000537759,0.00144452,-5.10535e-05,1.16952,0.000980476,0.0336108,1938,1359,27.8125,-7.75791
721,-335,27.748,7.11267,0,0,0,0,0,0,0,-1,1945,1359,27.7481,-7.11271
728,-335,20.8126,5.21167,0,0,0,0,0,0,0,-1,1952,1359,20.8127,-5.21172
735,-335,20.2725,5.34729,0,0,0,0,0,0,0,-1,1959,1359,20.2724,-5.34734
742,-335,19.8624,4.72229,0,0,0,0,0,0,0,-1,1966,1359,19.8624,-4.72225
749,-335,20.5887,6.05322,0,0,0,0,0,0,0,-1,1973,1359,20.5887,-6.05322
756,-335,20.7832,6.00452,0,0,0,0,0,0,0,-1,1980,1359,20.7832,-6.00447
763,-335,0,0,0,0,0,0,0,0,0,-1,1987,1359,0,0
770,-335,0,0,0,0,0,0,0,0,0,-1,1994,1359,0,0
777,-335,0,0,0,0,0,0,0,0,0,-1,2001,1359,0,0
784,-335,0,0,0,0,0,0,0,0,0,-1,2008,1359,0,0
791,-335,0,0,0,0,0,0,0,0,0,-1,2015,1359,0,0
798,-335,0,0,0,0,0,0,0,0,0,-1,2022,1359,0,0
805,-335,0,0,0,0,0,0,0,0,0,-1,2029,1359,0,0
812,-335,0,0,0,0,0,0,0,0,0,-1,2036,1359,0,0
-700,-342,0,0,0,0,0,0,0,0,0,-1,524,1366,0,0
-693,-342,0,0,0,0,0,0,0,0,0,-1,531,1366,0,0
-686,-342,0,0,0,0,0,0,0,0,0,-1,538,1366,0,0
-679,-342,0,0,0,0,0,0,0,0,0,-1,545,1366,0,0
-672,-342,0,0,0,0,0,0,0,0,0,-1,552,1366,0,0
-665,-342,0,0,0,0,0,0,0,0,0,-1,559,1366,0,0
-658,-342,0,0,0,0,0,0,0,0,0,-1,566,1366,0,0
-651,-342,0,0,0,0,0,0,0,0,0,-1,573,1366,0,0
-644,-342,0,0,0,0,0,0,0,0,0,-1,580,1366,0,0
-637,-342,-8.67786,-4.58557,0,0,0,0,0,0,0,-1,587,1366,-8.67788,4.5856
-630,-342,-8.60132,2.71777,0,0,0,0,0,0,0,-1,594,1366,-8.60135,-2.71779
-623,-342,-8.41168,0.662476,0,0,0,0,0,0,0,-1,601,1366,-8.41168,-0.662442
-616,-342,-6.625,-1.28015,0,0,0,0,0,0,0,-1,608,1366,-6.62499,1.28011
-609,-342,-7.83154,0.674561,0,0,0,0,0,0,0,-1,615,1366,-7.83155,-0.674598
-602,-342,-9.65765,2.25195,0,0,0,0,0,0,0,-1,622,1366,-9.65767,-2.25192
-595,-342,-9.47687,3.00671,0,0,0,0,0,0,0,-1,629,1366,-9.47686,-3.00668
-588,-342,-9.78467,3.57727,0,0,0,0,0,0,0,-1,636,1366,-9.78468,-3.57723
-581,-342,-14.2567,5.50317,0,0,0,0,0,0,0,-1,643,1366,-14.2566,-5.50322
-574,-342,-14.2343,6.09241,0.000801679,-2.87986e-05,-0.000218071,0.000855458,-8.25782e-05,-0.24179,0.00059973,0.0147809,650,1366,-14.2343,-6.09236
-567,-342,-14.1654,6.57385,0.000701046,-7.13094e-05,-0.000180428,0.000741117,-0.00011138,-0.218539,0.000535083,0.0168217,657,1366,-14.1654,-6.57381
-560,-342,-14.1779,7.03101,0.000966439,-8.8892e-05,-1.59223e-05,0.00096668,-8.91321e-05,-0.0150829,0.000676125,0.0240277,664,1366,-14.1779,-7.03104
-553,-342,-14.2505,7.49121,0.00156148,-1.98903e-05,0.000336121,0.00162996,-8.83676e-05,0.200978,0.00111726,0.0260492,671,1366,-14.2506,-7.49127
-546,-342,-14.2778,7.91016,0.00241325,7.46708e-05,0.000801539,0.0026616,-0.000173679,0.300461,0.00183504,0.0265778,678,1366,-14.2778,-7.91017
-539,-342,-14.2577,8.41382,0.00349589,0.000243355,0.00139283,0.00401082,-0.000271576,0.354116,0.00276885,0.0223881,685,1366,-14.2577,-8.41376
-532,-342,-14.2775,8.97339,0.00488612,0.000453148,0.00213878,0.00574976,-0.000410493,0.383779,0.00397707,0.0175085,692,1366,-14.2775,-8.97338
-525,-342,-14.2264,9.46753,0.00665509,0.000696948,0.00306379,0.00794939,-0.000597351,0.399709,0.00550951,0.0123641,699,1366,-14.2265,-9.46758
-518,-342,-14.1786,9.96338,0.00892274,0.00117222,0.00423486,0.0107878,-0.000692882,0.414855,0.00743362,0.0275002,706,1366,-14.1786,-9.96333
-511,-342,-14.2098,10.4514,0,0,0,0,0,0,0,-1,713,1366,-14.2098,-10.4514
-504,-342,-8.95709,6.5719,0,0,0,0,0,0,0,-1,720,1366,-8.95707,-6.57192
-497,-342,-8.26587,-0.943604,0,0,0,0,0,0,0,-1,727,1366,-8.26586,0.943543
-490,-342,-9.07153,-0.0227051,0,0,0,0,0,0,0,-1,734,1366,-9.07155,0.0227087
-483,-342,-9.87726,0.898071,0,0,0,0,0,0,0,-1,741,1366,-9.87724,-0.898125
-476,-342,-11.6371,-0.736328,0,0,0,0,0,0,0,-1,748,1366,-11.6371,0.736281
-469,-342,-12.6245,-0.987549,0,0,0,0,0,0,0,-1,755,1366,-12.6245,0.987553
-462,-342,-13.0912,-0.533203,0,0,0,0,0,0,0,-1,762,1366,-13.0912,0.533224
-455,-342,-13.7612,0.122925,0,0,0,0,0,0,0,-1,769,1366,-13.7612,-0.122896
-448,-342,-14.5278,0.826904,0,0,0,0,0,0,0,-1,776,1366,-14.5277,-0.826861
-441,-342,0,0,0,0,0,0,0,0,0,-1,783,1366,0,0
-434,-342,0,0,0,0,0,0,0,0,0,-1,790,1366,0,0
-427,-342,0,0,0,0,0,0,0,0,0,-1,797,1366,0,0
-420,-342,0,0,0,0,0,0,0,0,0,-1,804,1366,0,0
-413,-342,0,0,0,0,0,0,0,0,0,-1,811,1366,0,0
-406,-342,0,0,0,0,0,0,0,0,0,-1,818,1366,0,0
-399,-342,0,0,0,0,0,0,0,0,0,-1,825,1366,0,0
-392,-342,0,0,0,0,0,0,0,0,0,-1,832,1366,0,0
-385,-342,0,0,0,0,0,0,0,0,0,-1,839,1366,0,0
-378,-342,0,0,0,0,0,0,0,0,0,-1,846,1366,0,0
-371,-342,0,0,0,0,0,0,0,0,0,-1,853,1366,0,0
-364,-342,0,0,0,0,0,0,0,0,0,-1,860,1366,0,0
-357,-342,0,0,0,0,0,0,0,0,0,-1,867,1366,0,0
-350,-342,0,0,0,0,0,0,0,0,0,-1,874,1366,0,0
-343,-342,0,0,0,0,0,0,0,0,0,-1,881,1366,0,0
-336,-342,0,0,0,0,0,0,0,0,0,-1,888,1366,0,0
-329,-342,0,0,0,0,0,0,0,0,0,-1,895,1366,0,0
-322,-342,0,0,0,0,0,0,0,0,0,-1,902,1366,0,0
-315,-342,0,0,0,0,0,0,0,0,0,-1,909,1366,0,0
-308,-342,0,0,0,0,0,0,0,0,0,-1,916,1366,0,0
-301,-342,0,0,0,0,0,0,0,0,0,-1,923,1366,0,0
-294,-342,0,0,0,0,0,0,0,0,0,-1,930,1366,0,0
-287,-342,0,0,0,0,0,0,0,0,0,-1,937,1366,0,0
-280,-342,0,0,0,0,0,0,0,0,0,-1,944,1366,0,0
-273,-342,0,0,0,0,0,0,0,0,0,-1,951,1366,0,0
-266,-342,0,0,0,0,0,0,0,0,0,-1,958,1366,0,0
-259,-342,0,0,0,0,0,0,0,0,0,-1,965,1366,0,0
-252,-342,0,0,0,0,0,0,0,0,0,-1,972,1366,0,0
-245,-342,0,0,0,0,0,0,0,0,0,-1,979,1366,0,0
-238,-342,0,0,0,0,0,0,0,0,0,-1,986,1366,0,0
-231,-342,0,0,0,0,0,0,0,0,0,-1,993,1366,0,0
-224,-342,0,0,0,0,0,0,0,0,0,-1,1000,1366,0,0
-217,-342,0,0,0,0,0,0,0,0,0,-1,1007,1366,0,0
-210,-342,0,0,0,0,0,0,0,0,0,-1,1014,1366,0,0
-203,-342,0,0,0,0,0,0,0,0,0,-1,1021,1366,0,0
-196,-342,0,0,0,0,0,0,0,0,0,-1,1028,1366,0,0
-189,-342,0,0,0,0,0,0,0,0,0,-1,1035,1366,0,0
-182,-342,0,0,0,0,0,0,0,0,0,-1,1042,1366,0,0
-175,-342,0,0,0,0,0,0,0,0,0,-1,1049,1366,0,0
-168,-342,0,0,0,0,0,0,0,0,0,-1,1056,1366,0,0
-161,-342,0,0,0,0,0,0,0,0,0,-1,1063,1366,0,0
-154,-342,0,0,0,0,0,0,0,0,0,-1,1070,1366,0,0
-147,-342,0,0,0,0,0,0,0,0,0,-1,1077,1366,0,0
-140,-342,0,0,0,0,0,0,0,0,0,-1,1084,1366,0,0
-133,-342,0,0,0,0,0,0,0,0,0,-1,1091,1366,0,0
-126,-342,0,0,0,0,0,0,0,0,0,-1,1098,1366,0,0
-119,-342,0,0,0,0,0,0,0,0,0,-1,1105,1366,0,0
-112,-342,0,0,0,0,0,0,0,0,0,-1,1112,1366,0,0
-105,-342,0,0,0,0,0,0,0,0,0,-1,1119,1366,0,0
-98,-342,0,0,0,0,0,0,0,0,0,-1,1126,1366,0,0
-91,-342,0,0,0,0,0,0,0,0,0,-1,1133,1366,0,0
-84,-342,0,0,0,0,0,0,0,0,0,-1,1140,1366,0,0
-77,-342,0,0,0,0,0,0,0,0,0,-1,1147,1366,0,0
-70,-342,0,0,0,0,0,0,0,0,0,-1,1154,1366,0,0
-63,-342,0,0,0,0,0,0,0,0,0,-1,1161,1366,0,0
-56,-342,0,0,0,0,0,0,0,0,0,-1,1168,1366,0,0
-49,-342,0,0,0,0,0,0,0,0,0,-1,1175,1366,0,0
-42,-342,0,0,0,0,0,0,0,0,0,-1,1182,1366,0,0
-35,-342,0,0,0,0,0,0,0,0,0,-1,1189,1366,0,0
-28,-342,0,0,0,0,0,0,0,0,0,-1,1196,1366,0,0
-21,-342,0,0,0,0,0,0,0,0,0,-1,1203,1366,0,0
-14,-342,0,0,0,0,0,0,0,0,0,-1,1210,1366,0,0
-7,-342,0,0,0,0,0,0,0,0,0,-1,1217,1366,0,0
0,-342,0,0,0,0,0,0,0,0,0,-1,1224,1366,0,0
7,-342,0,0,0,0,0,0,0,0,0,-1,1231,1366,0,0
14,-342,0,0,0,0,0,0,0,0,0,-1,1238,1366,0,0
21,-342,0,0,0,0,0,0,0,0,0,-1,1245,1366,0,0
28,-342,0,0,0,0,0,0,0,0,0,-1,1252,1366,0,0
35,-342,0,0,0,0,0,0,0,0,0,-1,1259,1366,0,0
42,-342,0,0,0,0,0,0,0,0,0,-1,1266,1366,0,0
49,-342,0,0,0,0,0,0,0,0,0,-1,1273,1366,0,0
56,-342,0,0,0,0,0,0,0,0,0,-1,1280,1366,0,0
63,-342,0,0,0,0,0,0,0,0,0,-1,1287,1366,0,0
70,-342,0,0,0,0,0,0,0,0,0,-1,1294,1366,0,0
77,-342,0,0,0,0,0,0,0,0,0,-1,1301,1366,0,0
84,-342,0,0,0,0,0,0,0,0,0,-1,1308,1366,0,0
91,-342,0,0,0,0,0,0,0,0,0,-1,1315,1366,0,0
98,-342,0,0,0,0,0,0,0,0,0,-1,1322,1366,0,0
105,-342,0,0,0,0,0,0,0,0,0,-1,1329,1366,0,0
112,-342,0,0,0,0,0,0,0,0,0,-1,1336,1366,0,0
119,-342,0,0,0,0,0,0,0,0,0,-1,1343,1366,0,0
126,-342,0,0,0,0,0,0,0,0,0,-1,1350,1366,0,0
133,-342,0,0,0,0,0,0,0,0,0,-1,1357,1366,0,0
140,-342,0,0,0,0,0,0,0,0,0,-1,1364,1366,0,0
147,-342,0,0,0,0,0,0,0,0,0,-1,1371,1366,0,0
154,-342,0,0,0,0,0,0,0,0,0,-1,1378,1366,0,0
161,-342,0,0,0,0,0,0,0,0,0,-1,1385,1366,0,0
168,-342,0,0,0,0,0,0,0,0,0,-1,1392,1366,0,0
175,-342,0,0,0,0,0,0,0,0,0,-1,1399,1366,0,0
182,-342,0,0,0,0,0,0,0,0,0,-1,1406,1366,0,0
189,-342,0,0,0,0,0,0,0,0,0,-1,1413,1366,0,0
196,-342,0,0,0,0,0,0,0,0,0,-1,1420,1366,0,0
203,-342,0,0,0,0,0,0,0,0,0,-1,1427,1366,0,0
210,-342,0,0,0,0,0,0,0,0,0,-1,1434,1366,0,0
217,-342,0,0,0,0,0,0,0,0,0,-1,1441,1366,0,0
224,-342,0,0,0,0,0,0,0,0,0,-1,1448,1366,0,0
231,-342,0,0,0,0,0,0,0,0,0,-1,1455,1366,0,0
238,-342,0,0,0,0,0,0,0,0,0,-1,1462,1366,0,0
245,-342,0,0,0,0,0,0,0,0,0,-1,1469,1366,0,0
252,-342,0,0,0,0,0,0,0,0,0,-1,1476,1366,0,0
259,-342,0,0,0,0,0,0,0,0,0,-1,1483,1366,0,0
266,-342,0,0,0,0,0,0,0,0,0,-1,1490,1366,0,0
273,-342,0,0,0,0,0,0,0,0,0,-1,1497,1366,0,0
280,-342,0,0,0,0,0,0,0,0,0,-1,1504,1366,0,0
287,-342,0,0,0,0,0,0,0,0,0,-1,1511,1366,0,0
294,-342,0,0,0,0,0,0,0,0,0,-1,1518,1366,0,0
301,-342,0,0,0,0,0,0,0,0,0,-1,1525,1366,0,0
308,-342,0,0,0,0,0,0,0,0,0,-1,1532,1366,0,0
315,-342,0,0,0,0,0,0,0,0,0,-1,1539,1366,0,0
322,-342,0,0,0,0,0,0,0,0,0,-1,1546,1366,0,0
329,-342,0,0,0,0,0,0,0,0,0,-1,1553,1366,0,0
336,-342,0,0,0,0,0,0,0,0,0,-1,1560,1366,0,0
343,-342,0,0,0,0,0,0,0,0,0,-1,1567,1366,0,0
350,-342,0,0,0,0,0,0,0,0,0,-1,1574,1366,0,0
357,-342,0,0,0,0,0,0,0,0,0,-1,1581,1366,0,0
364,-342,0,0,0,0,0,0,0,0,0,-1,1588,1366,0,0
371,-342,0,0,0,0,0,0,0,0,0,-1,1595,1366,0,0
378,-342,0,0,0,0,0,0,0,0,0,-1,1602,1366,0,0
385,-342,0,0,0,0,0,0,0,0,0,-1,1609,1366,0,0
392,-342,0,0,0,0,0,0,0,0,0,-1,1616,1366,0,0
399,-342,0,0,0,0,0,0,0,0,0,-1,1623,1366,0,0
406,-342,0,0,0,0,0,0,0,0,0,-1,1630,1366,0,0
413,-342,0,0,0,0,0,0,0,0,0,-1,1637,1366,0,0
420,-342,0,0,0,0,0,0,0,0,0,-1,1644,1366,0,0
427,-342,0,0,0,0,0,0,0,0,0,-1,1651,1366,0,0
434,-342,0,0,0,0,0,0,0,0,0,-1,1658,1366,0,0
441,-342,0,0,0,0,0,0,0,0,0,-1,1665,1366,0,0
448,-342,0,0,0,0,0,0,0,0,0,-1,1672,1366,0,0
455,-342,0,0,0,0,0,0,0,0,0,-1,1679,1366,0,0
462,-342,0,0,0,0,0,0,0,0,0,-1,1686,1366,0,0
469,-342,0,0,0,0,0,0,0,0,0,-1,1693,1366,0,0
476,-342,0,0,0,0,0,0,0,0,0,-1,1700,1366,0,0
483,-342,0,0,0,0,0,0,0,0,0,-1,1707,1366,0,0
490,-342,0,0,0,0,0,0,0,0,0,-1,1714,1366,0,0
497,-342,0,0,0,0,0,0,0,0,0,-1,1721,1366,0,0
504,-342,0,0,0,0,0,0,0,0,0,-1,1728,1366,0,0
511,-342,0,0,0,0,0,0,0,0,0,-1,1735,1366,0,0
518,-342,0,0,0,0,0,0,0,0,0,-1,1742,1366,0,0
525,-342,0,0,0,0,0,0,0,0,0,-1,1749,1366,0,0
532,-342,0,0,0,0,0,0,0,0,0,-1,1756,1366,0,0
539,-342,0,0,0,0,0,0,0,0,0,-1,1763,1366,0,0
546,-342,0,0,0,0,0,0,0,0,0,-1,1770,1366,0,0
553,-342,0,0,0,0,0,0,0,0,0,-1,1777,1366,0,0
560,-342,0,0,0,0,0,0,0,0,0,-1,1784,1366,0,0
567,-342,39.0701,1.72729,0,0,0,0,0,0,0,-1,1791,1366,39.0701,-1.72734
574,-342,39.0065,-4.18713,0,0,0,0,0,0,0,-1,1798,1366,39.0065,4.18708
581,-342,38.4872,-3.02197,0,0,0,0,0,0,0,-1,1805,1366,38.4872,3.02197
588,-342,36.3129,-0.883789,0,0,0,0,0,0,0,-1,1812,1366,36.3129,0.883753
595,-342,35.7993,0.709961,0,0,0,0,0,0,0,-1,1819,1366,35.7993,-0.709913
602,-342,36.3618,3.28723,0,0,0,0,0,0,0,-1,1826,1366,36.3619,-3.28719
609,-342,35.3777,4.14978,0,0,0,0,0,0,0,-1,1833,1366,35.3777,-4.14976
616,-342,34.199,5.8158,0,0,0,0,0,0,0,-1,1840,1366,34.199,-5.81579
623,-342,26.0299,6.86865,0,0,0,0,0,0,0,-1,1847,1366,26.0299,-6.86863
630,-342,17.3431,0.773071,0,0,0,0,0,0,0,-1,1854,1366,17.3432,-0.773095
637,-342,16.196,6.76172,0,0,0,0,0,0,0,-1,1861,1366,16.1961,-6.76174
644,-342,27.3062,12.2395,0,0,0,0,0,0,0,-1,1868,1366,27.3061,-12.2394
651,-342,27.4562,11.861,0.0107607,0.00105222,0.0189527,0.0254709,-0.013658,0.660031,0.0229316,0.0416693,1875,1366,27.4562,-11.861
658,-342,27.4459,11.3607,0.00686902,-0.00293615,0.010506,0.01356,-0.00962711,0.567092,0.0134511,0.0187656,1882,1366,27.4459,-11.3607
665,-342,27.4603,10.9031,0.00375709,-0.00273887,0.00427284,0.00587628,-0.00485806,0.460417,0.00620676,0.015886,1889,1366,27.4603,-10.903
672,-342,27.4407,10.4863,0.00132402,-0.00126449,0.000705314,0.00150373,-0.0014442,0.249482,0.0017021,0.0131417,1896,1366,27.4406,-10.4863
679,-342,27.4226,10.0759,0.000421857,-0.000537579,0.000114341,0.000435295,-0.000551018,0.116993,0.000570753,0.0132118,1903,1366,27.4226,-10.076
686,-342,27.4449,9.64709,0.000829811,-0.000312437,0.000107962,0.000839926,-0.000322552,0.0934151,0.00069296,0.0117337,1910,1366,27.445,-9.64713
693,-342,27.4004,9.1925,0.00114507,-5.86625e-05,0.000127821,0.00115849,-7.20858e-05,0.104633,0.000797443,0.0121328,1917,1366,27.4004,-9.19251
700,-342,27.366,8.75647,0.00135273,0.000265682,0.000169605,0.00137858,0.000239834,0.151236,0.000850456,0.0138371,1924,1366,27.3659,-8.75645
707,-342,27.3695,8.30591,0.00127557,0.000580893,0.000293354,0.00138287,0.000473588,0.350669,0.000811503,0.0138575,1931,1366,27.3695,-8.30596
714,-342,27.408,7.85852,0,0,0,0,0,0,0,-1,1938,1366,27.408,-7.85853
721,-342,22.4666,6.08679,0,0,0,0,0,0,0,-1,1945,1366,22.4666,-6.08678
728,-342,19.8912,5.26636,0,0,0,0,0,0,0,-1,1952,1366,19.8913,-5.26636
735,-342,19.481,4.41968,0,0,0,0,0,0,0,-1,1959,1366,19.4809,-4.41962
742,-342,19.309,2.66943,0,0,0,0,0,0,0,-1,1966,1366,19.3089,-2.66948
749,-342,21.0934,6.47729,0,0,0,0,0,0,0,-1,1973,1366,21.0934,-6.4773
756,-342,0,0,0,0,0,0,0,0,0,-1,1980,1366,0,0
763,-342,0,0,0,0,0,0,0,0,0,-1,1987,1366,0,0
770,-342,0,0,0,0,0,0,0,0,0,-1,1994,1366,0,0
777,-342,0,0,0,0,0,0,0,0,0,-1,2001,1366,0,0
784,-342,0,0,0,0,0,0,0,0,0,-1,2008,1366,0,0
791,-342,0,0,0,0,0,0,0,0,0,-1,2015,1366,0,0
798,-342,0,0,0,0,0,0,0,0,0,-1,2022,1366,0,0
805,-342,0,0,0,0,0,0,0,0,0,-1,2029,1366,0,0
812,-342,0,0,0,0,0,0,0,0,0,-1,2036,1366,0,0
-700,-349,0,0,0,0,0,0,0,0,0,-1,524,1373,0,0
-693,-349,0,0,0,0,0,0,0,0,0,-1,531,1373,0,0
-686,-349,0,0,0,0,0,0,0,0,0,-1,538,1373,0,0
-679,-349,0,0,0,0,0,0,0,0,0,-1,545,1373,0,0
-672,-349,0,0,0,0,0,0,0,0,0,-1,552,1373,0,0
-665,-349,0,0,0,0,0,0,0,0,0,-1,559,1373,0,0
-658,-349,0,0,0,0,0,0,0,0,0,-1,566,1373,0,0
-651,-349,0,0,0,0,0,0,0,0,0,-1,573,1373,0,0
-644,-349,0,0,0,0,0,0,0,0,0,-1,580,1373,0,0
-637,-349,0,0,0,0,0,0,0,0,0,-1,587,1373,0,0
-630,-349,-7.64117,-5.06177,0,0,0,0,0,0,0,-1,594,1373,-7.64118,5.0618
-623,-349,-8.63507,0.51123,0,0,0,0,0,0,0,-1,601,1373,-8.63505,-0.511275
-616,-349,-5.2066,-0.188232,0,0,0,0,0,0,0,-1,608,1373,-5.20659,0.188211
-609,-349,-7.12073,1.37048,0,0,0,0,0,0,0,-1,615,1373,-7.12072,-1.37044
-602,-349,-9.00623,3.39587,0,0,0,0,0,0,0,-1,622,1373,-9.0062,-3.39591
-595,-349,-9.50568,2.96912,0,0,0,0,0,0,0,-1,629,1373,-9.50569,-2.96906
-588,-349,-8.60046,3.56042,0,0,0,0,0,0,0,-1,636,1373,-8.60046,-3.56047
-581,-349,-13.6466,5.58081,0,0,0,0,0,0,0,-1,643,1373,-13.6466,-5.58076
-574,-349,-13.701,6.02832,-9.85411e-05,-0.000966626,-0.00102035,0.000576245,-0.00164141,-0.584299,0.00132868,0.0315647,650,1373,-13.701,-6.02837
-567,-349,-13.735,6.58154,-0.000110761,-0.00072174,-0.000767486,0.000409799,-0.0012423,-0.595991,0.000993387,0.0174478,657,1373,-13.735,-6.58153
-560,-349,-13.7238,7.06689,0.000245654,-0.00055445,-0.00047461,0.000466325,-0.00077512,-0.435217,0.000724102,0.0212268,664,1373,-13.7237,-7.06692
-553,-349,-13.7444,7.48706,0.000966012,-0.000325326,1.70771e-06,0.000966014,-0.000325328,0.00132243,0.00077554,0.0263085,671,1373,-13.7444,-7.48704
-546,-349,-13.7961,7.93665,0.00190042,-8.35557e-05,0.000570982,0.00205301,-0.000236146,0.26114,0.0014538,0.0289816,678,1373,-13.7961,-7.93667
-539,-349,-13.8008,8.45276,0.0030299,0.000203488,0.00123722,0.00349495,-0.000261565,0.359548,0.00242187,0.0231032,685,1373,-13.8008,-8.45274
-532,-349,-13.7937,8.97681,0.00438665,0.000496641,0.00200692,0.00523642,-0.000353129,0.400532,0.00361441,0.0170613,692,1373,-13.7937,-8.9768
-525,-349,-13.7739,9.47522,0.00603223,0.000843625,0.00293037,0.00735168,-0.000475824,0.423076,0.00506718,0.0128442,699,1373,-13.7739,-9.47525
-518,-349,-13.7622,9.98096,0.00803904,0.00136914,0.00405036,0.00995074,-0.000542555,0.440983,0.00682187,0.018466,706,1373,-13.7622,-9.98096
-511,-349,-13.7238,10.4945,0,0,0,0,0,0,0,-1,713,1373,-13.7238,-10.4945
-504,-349,-9.60516,7.88831,0,0,0,0,0,0,0,-1,720,1373,-9.60519,-7.88825
-497,-349,-7.9339,5.58789,0,0,0,0,0,0,0,-1,727,1373,-7.93388,-5.58785
-490,-349,-8.73969,-0.503784,0,0,0,0,0,0,0,-1,734,1373,-8.73966,0.503752
-483,-349,-5.66974,3.7395,0,0,0,0,0,0,0,-1,741,1373,-5.66975,-3.73949
-476,-349,-10.8496,1.15759,0,0,0,0,0,0,0,-1,748,1373,-10.8496,-1.15756
-469,-349,-12.3314,-1.74878,0,0,0,0,0,0,0,-1,755,1373,-12.3314,1.74882
-462,-349,-12.6559,-0.995361,0,0,0,0,0,0,0,-1,762,1373,-12.656,0.995351
-455,-349,-13.2897,-0.234253,0,0,0,0,0,0,0,-1,769,1373,-13.2897,0.234261
-448,-349,-14.045,0.712891,0,0,0,0,0,0,0,-1,776,1373,-14.045,-0.712838
-441,-349,0,0,0,0,0,0,0,0,0,-1,783,1373,0,0
-434,-349,0,0,0,0,0,0,0,0,0,-1,790,1373,0,0
-427,-349,0,0,0,0,0,0,0,0,0,-1,797,1373,0,0
-420,-349,0,0,0,0,0,0,0,0,0,-1,804,1373,0,0
-413,-349,0,0,0,0,0,0,0,0,0,-1,811,1373,0,0
-406,-349,0,0,0,0,0,0,0,0,0,-1,818,1373,0,0
-399,-349,0,0,0,0,0,0,0,0,0,-1,825,1373,0,0
-392,-349,0,0,0,0,0,0,0,0,0,-1,832,1373,0,0
-385,-349,0,0,0,0,0,0,0,0,0,-1,839,1373,0,0
-378,-349,0,0,0,0,0,0,0,0,0,-1,846,1373,0,0
-371,-349,0,0,0,0,0,0,0,0,0,-1,853,1373,0,0
-364,-349,0,0,0,0,0,0,0,0,0,-1,860,1373,0,0
-357,-349,0,0,0,0,0,0,0,0,0,-1,867,1373,0,0
-350,-349,0,0,0,0,0,0,0,0,0,-1,874,1373,0,0
-343,-349,0,0,0,0,0,0,0,0,0,-1,881,1373,0,0
-336,-349,0,0,0,0,0,0,0,0,0,-1,888,1373,0,0
-329,-349,0,0,0,0,0,0,0,0,0,-1,895,1373,0,0
-322,-349,0,0,0,0,0,0,0,0,0,-1,902,1373,0,0
-315,-349,0,0,0,0,0,0,0,0,0,-1,909,1373,0,0
-308,-349,0,0,0,0,0,0,0,0,0,-1,916,1373,0,0
-301,-349,0,0,0,0,0,0,0,0,0,-1,923,1373,0,0
-294,-349,0,0,0,0,0,0,0,0,0,-1,930,1373,0,0
-287,-349,0,0,0,0,0,0,0,0,0,-1,937,1373,0,0
-280,-349,0,0,0,0,0,0,0,0,0,-1,944,1373,0,0
-273,-349,0,0,0,0,0,0,0,0,0,-1,951,1373,0,0
-266,-349,0,0,0,0,0,0,0,0,0,-1,958,1373,0,0
-259,-349,0,0,0,0,0,0,0,0,0,-1,965,1373,0,0
-252,-349,0,0,0,0,0,0,0,0,0,-1,972,1373,0,0
-245,-349,0,0,0,0,0,0,0,0,0,-1,979,1373,0,0
-238,-349,0,0,0,0,0,0,0,0,0,-1,986,1373,0,0
-231,-349,0,0,0,0,0,0,0,0,0,-1,993,1373,0,0
-224,-349,0,0,0,0,0,0,0,0,0,-1,1000,1373,0,0
-217,-349,0,0,0,0,0,0,0,0,0,-1,1007,1373,0,0
-210,-349,0,0,0,0,0,0,0,0,0,-1,1014,1373,0,0
-203,-349,0,0,0,0,0,0,0,0,0,-1,1021,1373,0,0
-196,-349,0,0,0,0,0,0,0,0,0,-1,1028,1373,0,0
-189,-349,0,0,0,0,0,0,0,0,0,-1,1035,1373,0,0
-182,-349,0,0,0,0,0,0,0,0,0,-1,1042,1373,0,0
-175,-349,0,0,0,0,0,0,0,0,0,-1,1049,1373,0,0
-168,-349,0,0,0,0,0,0,0,0,0,-1,1056,1373,0,0
-161,-349,0,0,0,0,0,0,0,0,0,-1,1063,1373,0,0
-154,-349,0,0,0,0,0,0,0,0,0,-1,1070,1373,0,0
-147,-349,0,0,0,0,0,0,0,0,0,-1,1077,1373,0,0
-140,-349,0,0,0,0,0,0,0,0,0,-1,1084,1373,0,0
-133,-349,0,0,0,0,0,0,0,0,0,-1,1091,1373,0,0
-126,-349,0,0,0,0,0,0,0,0,0,-1,1098,1373,0,0
-119,-349,0,0,0,0,0,0,0,0,0,-1,1105,1373,0,0
-112,-349,0,0,0,0,0,0,0,0,0,-1,1112,1373,0,0
-105,-349,0,0,0,0,0,0,0,0,0,-1,1119,1373,0,0
-98,-349,0,0,0,0,0,0,0,0,0,-1,1126,1373,0,0
-91,-349,0,0,0,0,0,0,0,0,0,-1,1133,1373,0,0
-84,-349,0,0,0,0,0,0,0,0,0,-1,1140,1373,0,0
-77,-349,0,0,0,0,0,0,0,0,0,-1,1147,1373,0,0
-70,-349,0,0,0,0,0,0,0,0,0,-1,1154,1373,0,0
-63,-349,0,0,0,0,0,0,0,0,0,-1,1161,1373,0,0
-56,-349,0,0,0,0,0,0,0,0,0,-1,1168,1373,0,0
-49,-349,0,0,0,0,0,0,0,0,0,-1,1175,1373,0,0
-42,-349,0,0,0,0,0,0,0,0,0,-1,1182,1373,0,0
-35,-349,0,0,0,0,0,0,0,0,0,-1,1189,1373,0,0
-28,-349,0,0,0,0,0,0,0,0,0,-1,1196,1373,0,0
-21,-349,0,0,0,0,0,0,0,0,0,-1,1203,1373,0,0
-14,-349,0,0,0,0,0,0,0,0,0,-1,1210,1373,0,0
-7,-349,0,0,0,0,0,0,0,0,0,-1,1217,1373,0,0
0,-349,0,0,0,0,0,0,0,0,0,-1,1224,1373,0,0
7,-349,0,0,0,0,0,0,0,0,0,-1,1231,1373,0,0
14,-349,0,0,0,0,0,0,0,0,0,-1,1238,1373,0,0
21,-349,0,0,0,0,0,0,0,0,0,-1,1245,1373,0,0
28,-349,0,0,0,0,0,0,0,0,0,-1,1252,1373,0,0
35,-349,0,0,0,0,0,0,0,0,0,-1,1259,1373,0,0
42,-349,0,0,0,0,0,0,0,0,0,-1,1266,1373,0,0
49,-349,0,0,0,0,0,0,0,0,0,-1,1273,1373,0,0
56,-349,0,0,0,0,0,0,0,0,0,-1,1280,1373,0,0
63,-349,0,0,0,0,0,0,0,0,0,-1,1287,1373,0,0
70,-349,0,0,0,0,0,0,0,0,0,-1,1294,1373,0,0
77,-349,0,0,0,0,0,0,0,0,0,-1,1301,1373,0,0
84,-349,0,0,0,0,0,0,0,0,0,-1,1308,1373,0,0
91,-349,0,0,0,0,0,0,0,0,0,-1,1315,1373,0,0
98,-349,0,0,0,0,0,0,0,0,0,-1,1322,1373,0,0
105,-349,0,0,0,0,0,0,0,0,0,-1,1329,1373,0,0
112,-349,0,0,0,0,0,0,0,0,0,-1,1336,1373,0,0
119,-349,0,0,0,0,0,0,0,0,0,-1,1343,1373,0,0
126,-349,0,0,0,0,0,0,0,0,0,-1,1350,1373,0,0
133,-349,0,0,0,0,0,0,0,0,0,-1,1357,1373,0,0
140,-349,0,0,0,0,0,0,0,0,0,-1,1364,1373,0,0
147,-349,0,0,0,0,0,0,0,0,0,-1,1371,1373,0,0
154,-349,0,0,0,0,0,0,0,0,0,-1,1378,1373,0,0
161,-349,0,0,0,0,0,0,0,0,0,-1,1385,1373,0,0
168,-349,0,0,0,0,0,0,0,0,0,-1,1392,1373,0,0
175,-349,0,0,0,0,0,0,0,0,0,-1,1399,1373,0,0
182,-349,0,0,0,0,0,0,0,0,0,-1,1406,1373,0,0
189,-349,0,0,0,0,0,0,0,0,0,-1,1413,1373,0,0
196,-349,0,0,0,0,0,0,0,0,0,-1,1420,1373,0,0
203,-349,0,0,0,0,0,0,0,0,0,-1,1427,1373,0,0
210,-349,0,0,0,0,0,0,0,0,0,-1,1434,1373,0,0
217,-349,0,0,0,0,0,0,0,0,0,-1,1441,1373,0,0
224,-349,0,0,0,0,0,0,0,0,0,-1,1448,1373,0,0
231,-349,0,0,0,0,0,0,0,0,0,-1,1455,1373,0,0
238,-349,0,0,0,0,0,0,0,0,0,-1,1462,1373,0,0
245,-349,0,0,0,0,0,0,0,0,0,-1,1469,1373,0,0
252,-349,0,0,0,0,0,0,0,0,0,-1,1476,1373,0,0
259,-349,0,0,0,0,0,0,0,0,0,-1,1483,1373,0,0
266,-349,0,0,0,0,0,0,0,0,0,-1,1490,1373,0,0
273,-349,0,0,0,0,0,0,0,0,0,-1,1497,1373,0,0
280,-349,0,0,0,0,0,0,0,0,0,-1,1504,1373,0,0
287,-349,0,0,0,0,0,0,0,0,0,-1,1511,1373,0,0
294,-349,0,0,0,0,0,0,0,0,0,-1,1518,1373,0,0
301,-349,0,0,0,0,0,0,0,0,0,-1,1525,1373,0,0
308,-349,0,0,0,0,0,0,0,0,0,-1,1532,1373,0,0
315,-349,0,0,0,0,0,0,0,0,0,-1,1539,1373,0,0
322,-349,0,0,0,0,0,0,0,0,0,-1,1546,1373,0,0
329,-349,0,0,0,0,0,0,0,0,0,-1,1553,1373,0,0
336,-349,0,0,0,0,0,0,0,0,0,-1,1560,1373,0,0
343,-349,0,0,0,0,0,0,0,0,0,-1,1567,1373,0,0
350,-349,0,0,0,0,0,0,0,0,0,-1,1574,1373,0,0
357,-349,0,0,0,0,0,0,0,0,0,-1,1581,1373,0,0
364,-349,0,0,0,0,0,0,0,0,0,-1,1588,1373,0,0
371,-349,0,0,0,0,0,0,0,0,0,-1,1595,1373,0,0
378,-349,0,0,0,0,0,0,0,0,0,-1,1602,1373,0,0
385,-349,0,0,0,0,0,0,0,0,0,-1,1609,1373,0,0
392,-349,0,0,0,0,0,0,0,0,0,-1,1616,1373,0,0
399,-349,0,0,0,0,0,0,0,0,0,-1,1623,1373,0,0
406,-349,0,0,0,0,0,0,0,0,0,-1,1630,1373,0,0
413,-349,0,0,0,0,0,0,0,0,0,-1,1637,1373,0,0
420,-349,0,0,0,0,0,0,0,0,0,-1,1644,1373,0,0
427,-349,0,0,0,0,0,0,0,0,0,-1,1651,1373,0,0
434,-349,0,0,0,0,0,0,0,0,0,-1,1658,1373,0,0
441,-349,0,0,0,0,0,0,0,0,0,-1,1665,1373,0,0
448,-349,0,0,0,0,0,0,0,0,0,-1,1672,1373,0,0
455,-349,0,0,0,0,0,0,0,0,0,-1,1679,1373,0,0
462,-349,0,0,0,0,0,0,0,0,0,-1,1686,1373,0,0
469,-349,0,0,0,0,0,0,0,0,0,-1,1693,1373,0,0
476,-349,0,0,0,0,0,0,0,0,0,-1,1700,1373,0,0
483,-349,0,0,0,0,0,0,0,0,0,-1,1707,1373,0,0
490,-349,0,0,0,0,0,0,0,0,0,-1,1714,1373,0,0
497,-349,0,0,0,0,0,0,0,0,0,-1,1721,1373,0,0
504,-349,0,0,0,0,0,0,0,0,0,-1,1728,1373,0,0
511,-349,0,0,0,0,0,0,0,0,0,-1,1735,1373,0,0
518,-349,0,0,0,0,0,0,0,0,0,-1,1742,1373,0,0
525,-349,0,0,0,0,0,0,0,0,0,-1,1749,1373,0,0
532,-349,0,0,0,0,0,0,0,0,0,-1,1756,1373,0,0
539,-349,0,0,0,0,0,0,0,0,0,-1,1763,1373,0,0
546,-349,0,0,0,0,0,0,0,0,0,-1,1770,1373,0,0
553,-349,0,0,0,0,0,0,0,0,0,-1,1777,1373,0,0
560,-349,37.8381,0.967773,0,0,0,0,0,0,0,-1,1784,1373,37.8381,-0.967745
567,-349,38.5023,1.45728,0,0,0,0,0,0,0,-1,1791,1373,38.5023,-1.45725
574,-349,39.009,2.12109,0,0,0,0,0,0,0,-1,1798,1373,39.009,-2.12105
581,-349,40.105,2.37793,0,0,0,0,0,0,0,-1,1805,1373,40.105,-2.37797
588,-349,40.871,2.63611,0,0,0,0,0,0,0,-1,1812,1373,40.871,-2.63607
595,-349,32.3793,4.93115,0,0,0,0,0,0,0,-1,1819,1373,32.3793,-4.9312
602,-349,35.6641,3.26465,0,0,0,0,0,0,0,-1,1826,1373,35.6641,-3.26468
609,-349,34.7175,4.401,0,0,0,0,0,0,0,-1,1833,1373,34.7175,-4.40096
616,-349,27.1451,6.68274,0,0,0,0,0,0,0,-1,1840,1373,27.1451,-6.6828
623,-349,18.8478,2.75769,0,0,0,0,0,0,0,-1,1847,1373,18.8478,-2.75774
630,-349,15.4948,6.47644,0,0,0,0,0,0,0,-1,1854,1373,15.4947,-6.4765
637,-349,16.5161,6.92639,0,0,0,0,0,0,0,-1,1861,1373,16.5161,-6.92636
644,-349,27.1349,12.2277,0,0,0,0,0,0,0,-1,1868,1373,27.1349,-12.2277
651,-349,27.1432,11.7717,0.00589284,0.00249815,0.0145261,0.0188204,-0.0104294,0.727238,0.0171175,0.0324474,1875,1373,27.1432,-11.7718
658,-349,27.0326,11.3297,0.00321715,-0.00154325,0.00712344,0.00834753,-0.00667362,0.624162,0.0086904,0.0246223,1882,1373,27.0326,-11.3297
665,-349,27.0093,10.9088,0.0016528,-0.00174169,0.00252033,0.00299409,-0.00308299,0.489066,0.00350873,0.0190755,1889,1373,27.0093,-10.9089
672,-349,26.9994,10.4896,0.000710111,-0.000888406,0.00046046,0.000833261,-0.00101156,0.261334,0.00106676,0.0144173,1896,1373,26.9994,-10.4896
679,-349,26.9845,10.0869,0.000644807,-0.000620792,0.000336628,0.000728773,-0.000704759,0.244446,0.000827689,0.0142394,1903,1373,26.9845,-10.0869
686,-349,27.0297,9.67603,0.00108105,-0.000519501,0.000419588,0.00118438,-0.000622826,0.241451,0.00106005,0.0146926,1910,1373,27.0297,-9.67597
693,-349,26.9786,9.22729,0.00144603,-0.000389791,0.00051937,0.00158278,-0.00052654,0.257453,0.00126769,0.0174384,1917,1373,26.9786,-9.22726
700,-349,26.95,8.79163,0.00172826,-0.000179445,0.000624161,0.00191432,-0.00036551,0.289717,0.00141389,0.0177128,1924,1373,26.9499,-8.79161
707,-349,27.0161,8.30591,0.00168719,-1.04952e-05,0.000808538,0.00201063,-0.000333945,0.380543,0.00146449,0.0339403,1931,1373,27.0161,-8.30591
714,-349,27.1321,7.74133,0,0,0,0,0,0,0,-1,1938,1373,27.1321,-7.74138
721,-349,19.6688,5.93604,0,0,0,0,0,0,0,-1,1945,1373,19.6688,-5.93606
728,-349,18.6333,3.73218,0,0,0,0,0,0,0,-1,1952,1373,18.6333,-3.73214
735,-349,18.1918,3.39954,0,0,0,0,0,0,0,-1,1959,1373,18.1918,-3.3995
742,-349,20.7345,2.07483,0,0,0,0,0,0,0,-1,1966,1373,20.7345,-2.07485
749,-349,21.9037,1.45789,0,0,0,0,0,0,0,-1,1973,1373,21.9037,-1.45788
756,-349,0,0,0,0,0,0,0,0,0,-1,1980,1373,0,0
763,-349,0,0,0,0,0,0,0,0,0,-1,1987,1373,0,0
770,-349,0,0,0,0,0,0,0,0,0,-1,1994,1373,0,0
777,-349,0,0,0,0,0,0,0,0,0,-1,2001,1373,0,0
784,-349,0,0,0,0,0,0,0,0,0,-1,2008,1373,0,0
791,-349,0,0,0,0,0,0,0,0,0,-1,2015,1373,0,0
798,-349,0,0,0,0,0,0,0,0,0,-1,2022,1373,0,0
805,-349,0,0,0,0,0,0,0,0,0,-1,2029,1373,0,0
812,-349,0,0,0,0,0,0,0,0,0,-1,2036,1373,0,0
-700,-356,0,0,0,0,0,0,0,0,0,-1,524,1380,0,0
-693,-356,0,0,0,0,0,0,0,0,0,-1,531,1380,0,0
-686,-356,0,0,0,0,0,0,0,0,0,-1,538,1380,0,0
-679,-356,0,0,0,0,0,0,0,0,0,-1,545,1380,0,0
-672,-356,0,0,0,0,0,0,0,0,0,-1,552,1380,0,0
-665,-356,0,0,0,0,0,0,0,0,0,-1,559,1380,0,0
-658,-356,0,0,0,0,0,0,0,0,0,-1,566,1380,0,0
-651,-356,0,0,0,0,0,0,0,0,0,-1,573,1380,0,0
-644,-356,0,0,0,0,0,0,0,0,0,-1,580,1380,0,0
-637,-356,0,0,0,0,0,0,0,0,0,-1,587,1380,0,0
-630,-356,-8.23126,-5.01917,0,0,0,0,0,0,0,-1,594,1380,-8.23124,5.0192
-623,-356,-0.263855,-0.675781,0,0,0,0,0,0,0,-1,601,1380,-0.263835,0.675841
-616,-356,-8.26532,-3.43945,0,0,0,0,0,0,0,-1,608,1380,-8.2653,3.43948
-609,-356,-4.88483,0.734497,0,0,0,0,0,0,0,-1,615,1380,-4.88485,-0.734532
-602,-356,-9.06635,2.4021,0,0,0,0,0,0,0,-1,622,1380,-9.06634,-2.40206
-595,-356,-8.45703,3.61853,0,0,0,0,0,0,0,-1,629,1380,-8.45706,-3.61848
-588,-356,-9.31738,4.14258,0,0,0,0,0,0,0,-1,636,1380,-9.31736,-4.14255
-581,-356,-12.9227,5.63208,0,0,0,0,0,0,0,-1,643,1380,-12.9227,-5.63204
-574,-356,-13.2974,6.0155,0,0,0,0,0,0,0,-1,650,1380,-13.2974,-6.01545
-567,-356,-13.2795,6.53772,-0.00140519,-0.00136326,-0.00143361,4.95417e-05,-0.00281799,-0.792709,0.00189539,0.0183897,657,1380,-13.2795,-6.53769
-560,-356,-13.2262,7.04919,-0.000795234,-0.00104396,-0.00100321,9.12928e-05,-0.00193049,-0.723729,0.00131848,0.0182937,664,1380,-13.2262,-7.04915
-553,-356,-13.2422,7.50671,0.000150286,-0.000680012,-0.000406518,0.000316175,-0.000845901,-0.387447,0.000693772,0.0213975,671,1380,-13.2422,-7.50677
-546,-356,-13.3074,7.9989,0.00123773,-0.000322053,0.000257687,0.0012792,-0.000363522,0.159561,0.000996328,0.0229184,678,1380,-13.3074,-7.99892
-539,-356,-13.2947,8.51563,0.00244909,6.15095e-05,0.000986924,0.00280422,-0.00029362,0.34541,0.00197464,0.0162898,685,1380,-13.2947,-8.51563
-532,-356,-13.3167,9,0.0038034,0.000437954,0.00178289,0.00457226,-0.000330901,0.407146,0.00316425,0.0159133,692,1380,-13.3166,-9.00001
-525,-356,-13.3243,9.47778,0.0053579,0.00086489,0.00269891,0.00662293,-0.000400146,0.438312,0.00455453,0.012739,699,1380,-13.3244,-9.47784
-518,-356,-13.2903,9.96118,0.00716059,0.00141681,0.00376559,0.00902446,-0.00044706,0.459619,0.00617073,0.0121286,706,1380,-13.2903,-9.96115
-511,-356,-13.0598,10.5365,0.00884121,0.00179481,0.0047794,0.0112556,-0.000619629,0.467781,0.0077186,0.0447742,713,1380,-13.0598,-10.5365
-504,-356,-12.8498,11.2366,0,0,0,0,0,0,0,-1,720,1380,-12.8498,-11.2366
-497,-356,-5.68604,4.96387,0,0,0,0,0,0,0,-1,727,1380,-5.68605,-4.96385
-490,-356,-7.95288,5.5625,0,0,0,0,0,0,0,-1,734,1380,-7.95285,-5.56246
-483,-356,-7.2627,4.07446,0,0,0,0,0,0,0,-1,741,1380,-7.2627,-4.07441
-476,-356,-5.1936,4.16016,0,0,0,0,0,0,0,-1,748,1380,-5.1936,-4.16012
-469,-356,-10.0883,0.536011,0,0,0,0,0,0,0,-1,755,1380,-10.0883,-0.535989
-462,-356,-12.3481,-0.215698,0,0,0,0,0,0,0,-1,762,1380,-12.3481,0.215641
-455,-356,-13.1367,-0.264648,0,0,0,0,0,0,0,-1,769,1380,-13.1367,0.264647
-448,-356,-13.9116,-0.310181,0,0,0,0,0,0,0,-1,776,1380,-13.9115,0.310207
-441,-356,-13.1602,3.05603,0,0,0,0,0,0,0,-1,783,1380,-13.1602,-3.05609
-434,-356,0,0,0,0,0,0,0,0,0,-1,790,1380,0,0
-427,-356,0,0,0,0,0,0,0,0,0,-1,797,1380,0,0
-420,-356,0,0,0,0,0,0,0,0,0,-1,804,1380,0,0
-413,-356,0,0,0,0,0,0,0,0,0,-1,811,1380,0,0
-406,-356,0,0,0,0,0,0,0,0,0,-1,818,1380,0,0
-399,-356,0,0,0,0,0,0,0,0,0,-1,825,1380,0,0
-392,-356,0,0,0,0,0,0,0,0,0,-1,832,1380,0,0
-385,-356,0,0,0,0,0,0,0,0,0,-1,839,1380,0,0
-378,-356,0,0,0,0,0,0,0,0,0,-1,846,1380,0,0
-371,-356,0,0,0,0,0,0,0,0,0,-1,853,1380,0,0
-364,-356,0,0,0,0,0,0,0,0,0,-1,860,1380,0,0
-357,-356,0,0,0,0,0,0,0,0,0,-1,867,1380,0,0
-350,-356,0,0,0,0,0,0,0,0,0,-1,874,1380,0,0
-343,-356,0,0,0,0,0,0,0,0,0,-1,881,1380,0,0
-336,-356,0,0,0,0,0,0,0,0,0,-1,888,1380,0,0
-329,-356,0,0,0,0,0,0,0,0,0,-1,895,1380,0,0
-322,-356,0,0,0,0,0,0,0,0,0,-1,902,1380,0,0
-315,-356,0,0,0,0,0,0,0,0,0,-1,909,1380,0,0
-308,-356,0,0,0,0,0,0,0,0,0,-1,916,1380,0,0
-301,-356,0,0,0,0,0,0,0,0,0,-1,923,1380,0,0
-294,-356,0,0,0,0,0,0,0,0,0,-1,930,1380,0,0
-287,-356,0,0,0,0,0,0,0,0,0,-1,937,1380,0,0
-280,-356,0,0,0,0,0,0,0,0,0,-1,944,1380,0,0
-273,-356,0,0,0,0,0,0,0,0,0,-1,951,1380,0,0
-266,-356,0,0,0,0,0,0,0,0,0,-1,958,1380,0,0
-259,-356,0,0,0,0,0,0,0,0,0,-1,965,1380,0,0
-252,-356,0,0,0,0,0,0,0,0,0,-1,972,1380,0,0
-245,-356,0,0,0,0,0,0,0,0,0,-1,979,1380,0,0
-238,-356,0,0,0,0,0,0,0,0,0,-1,986,1380,0,0
-231,-356,0,0,0,0,0,0,0,0,0,-1,993,1380,0,0
-224,-356,0,0,0,0,0,0,0,0,0,-1,1000,1380,0,0
-217,-356,0,0,0,0,0,0,0,0,0,-1,1007,1380,0,0
-210,-356,0,0,0,0,0,0,0,0,0,-1,1014,1380,0,0
-203,-356,0,0,0,0,0,0,0,0,0,-1,1021,1380,0,0
-196,-356,0,0,0,0,0,0,0,0,0,-1,1028,1380,0,0
-189,-356,0,0,0,0,0,0,0,0,0,-1,1035,1380,0,0
-182,-356,0,0,0,0,0,0,0,0,0,-1,1042,1380,0,0
-175,-356,0,0,0,0,0,0,0,0,0,-1,1049,1380,0,0
-168,-356,0,0,0,0,0,0,0,0,0,-1,1056,1380,0,0
-161,-356,0,0,0,0,0,0,0,0,0,-1,1063,1380,0,0
-154,-356,0,0,0,0,0,0,0,0,0,-1,1070,1380,0,0
-147,-356,0,0,0,0,0,0,0,0,0,-1,1077,1380,0,0
-140,-356,0,0,0,0,0,0,0,0,0,-1,1084,1380,0,0
-133,-356,0,0,0,0,0,0,0,0,0,-1,1091,1380,0,0
-126,-356,0,0,0,0,0,0,0,0,0,-1,1098,1380,0,0
-119,-356,0,0,0,0,0,0,0,0,0,-1,1105,1380,0,0
-112,-356,0,0,0,0,0,0,0,0,0,-1,1112,1380,0,0
-105,-356,0,0,0,0,0,0,0,0,0,-1,1119,1380,0,0
-98,-356,0,0,0,0,0,0,0,0,0,-1,1126,1380,0,0
-91,-356,0,0,0,0,0,0,0,0,0,-1,1133,1380,0,0
-84,-356,0,0,0,0,0,0,0,0,0,-1,1140,1380,0,0
-77,-356,0,0,0,0,0,0,0,0,0,-1,1147,1380,0,0
-70,-356,0,0,0,0,0,0,0,0,0,-1,1154,1380,0,0
-63,-356,0,0,0,0,0,0,0,0,0,-1,1161,1380,0,0
-56,-356,0,0,0,0,0,0,0,0,0,-1,1168,1380,0,0
-49,-356,0,0,0,0,0,0,0,0,0,-1,1175,1380,0,0
-42,-356,0,0,0,0,0,0,0,0,0,-1,1182,1380,0,0
-35,-356,0,0,0,0,0,0,0,0,0,-1,1189,1380,0,0
-28,-356,0,0,0,0,0,0,0,0,0,-1,1196,1380,0,0
-21,-356,0,0,0,0,0,0,0,0,0,-1,1203,1380,0,0
-14,-356,0,0,0,0,0,0,0,0,0,-1,1210,1380,0,0
-7,-356,0,0,0,0,0,0,0,0,0,-1,1217,1380,0,0
0,-356,0,0,0,0,0,0,0,0,0,-1,1224,1380,0,0
7,-356,0,0,0,0,0,0,0,0,0,-1,1231,1380,0,0
14,-356,0,0,0,0,0,0,0,0,0,-1,1238,1380,0,0
21,-356,0,0,0,0,0,0,0,0,0,-1,1245,1380,0,0
28,-356,0,0,0,0,0,0,0,0,0,-1,1252,1380,0,0
35,-356,0,0,0,0,0,0,0,0,0,-1,1259,1380,0,0
42,-356,0,0,0,0,0,0,0,0,0,-1,1266,1380,0,0
49,-356,0,0,0,0,0,0,0,0,0,-1,1273,1380,0,0
56,-356,0,0,0,0,0,0,0,0,0,-1,1280,1380,0,0
63,-356,0,0,0,0,0,0,0,0,0,-1,1287,1380,0,0
70,-356,0,0,0,0,0,0,0,0,0,-1,1294,1380,0,0
77,-356,0,0,0,0,0,0,0,0,0,-1,1301,1380,0,0
84,-356,0,0,0,0,0,0,0,0,0,-1,1308,1380,0,0
91,-356,0,0,0,0,0,0,0,0,0,-1,1315,1380,0,0
98,-356,0,0,0,0,0,0,0,0,0,-1,1322,1380,0,0
105,-356,0,0,0,0,0,0,0,0,0,-1,1329,1380,0,0
112,-356,0,0,0,0,0,0,0,0,0,-1,1336,1380,0,0
119,-356,0,0,0,0,0,0,0,0,0,-1,1343,1380,0,0
126,-356,0,0,0,0,0,0,0,0,0,-1,1350,1380,0,0
133,-356,0,0,0,0,0,0,0,0,0,-1,1357,1380,0,0
140,-356,0,0,0,0,0,0,0,0,0,-1,1364,1380,0,0
147,-356,0,0,0,0,0,0,0,0,0,-1,1371,1380,0,0
154,-356,0,0,0,0,0,0,0,0,0,-1,1378,1380,0,0
161,-356,0,0,0,0,0,0,0,0,0,-1,1385,1380,0,0
168,-356,0,0,0,0,0,0,0,0,0,-1,1392,1380,0,0
175,-356,0,0,0,0,0,0,0,0,0,-1,1399,1380,0,0
182,-356,0,0,0,0,0,0,0,0,0,-1,1406,1380,0,0
189,-356,0,0,0,0,0,0,0,0,0,-1,1413,1380,0,0
196,-356,0,0,0,0,0,0,0,0,0,-1,1420,1380,0,0
203,-356,0,0,0,0,0,0,0,0,0,-1,1427,1380,0,0
210,-356,0,0,0,0,0,0,0,0,0,-1,1434,1380,0,0
217,-356,0,0,0,0,0,0,0,0,0,-1,1441,1380,0,0
224,-356,0,0,0,0,0,0,0,0,0,-1,1448,1380,0,0
231,-356,0,0,0,0,0,0,0,0,0,-1,1455,1380,0,0
238,-356,0,0,0,0,0,0,0,0,0,-1,1462,1380,0,0
245,-356,0,0,0,0,0,0,0,0,0,-1,1469,1380,0,0
252,-356,0,0,0,0,0,0,0,0,0,-1,1476,1380,0,0
259,-356,0,0,0,0,0,0,0,0,0,-1,1483,1380,0,0
266,-356,0,0,0,0,0,0,0,0,0,-1,1490,1380,0,0
273,-356,0,0,0,0,0,0,0,0,0,-1,1497,1380,0,0
280,-356,0,0,0,0,0,0,0,0,0,-1,1504,1380,0,0
287,-356,0,0,0,0,0,0,0,0,0,-1,1511,1380,0,0
294,-356,0,0,0,0,0,0,0,0,0,-1,1518,1380,0,0
301,-356,0,0,0,0,0,0,0,0,0,-1,1525,1380,0,0
308,-356,0,0,0,0,0,0,0,0,0,-1,1532,1380,0,0
315,-356,0,0,0,0,0,0,0,0,0,-1,1539,1380,0,0
322,-356,0,0,0,0,0,0,0,0,0,-1,1546,1380,0,0
329,-356,0,0,0,0,0,0,0,0,0,-1,1553,1380,0,0
336,-356,0,0,0,0,0,0,0,0,0,-1,1560,1380,0,0
343,-356,0,0,0,0,0,0,0,0,0,-1,1567,1380,0,0
350,-356,0,0,0,0,0,0,0,0,0,-1,1574,1380,0,0
357,-356,0,0,0,0,0,0,0,0,0,-1,1581,1380,0,0
364,-356,0,0,0,0,0,0,0,0,0,-1,1588,1380,0,0
371,-356,0,0,0,0,0,0,0,0,0,-1,1595,1380,0,0
378,-356,0,0,0,0,0,0,0,0,0,-1,1602,1380,0,0
385,-356,0,0,0,0,0,0,0,0,0,-1,1609,1380,0,0
392,-356,0,0,0,0,0,0,0,0,0,-1,1616,1380,0,0
399,-356,0,0,0,0,0,0,0,0,0,-1,1623,1380,0,0
406,-356,0,0,0,0,0,0,0,0,0,-1,1630,1380,0,0
413,-356,0,0,0,0,0,0,0,0,0,-1,1637,1380,0,0
420,-356,0,0,0,0,0,0,0,0,0,-1,1644,1380,0,0
427,-356,0,0,0,0,0,0,0,0,0,-1,1651,1380,0,0
434,-356,0,0,0,0,0,0,0,0,0,-1,1658,1380,0,0
441,-356,0,0,0,0,0,0,0,0,0,-1,1665,1380,0,0
448,-356,0,0,0,0,0,0,0,0,0,-1,1672,1380,0,0
455,-356,0,0,0,0,0,0,0,0,0,-1,1679,1380,0,0
462,-356,0,0,0,0,0,0,0,0,0,-1,1686,1380,0,0
469,-356,0,0,0,0,0,0,0,0,0,-1,1693,1380,0,0
476,-356,0,0,0,0,0,0,0,0,0,-1,1700,1380,0,0
483,-356,0,0,0,0,0,0,0,0,0,-1,1707,1380,0,0
490,-356,0,0,0,0,0,0,0,0,0,-1,1714,1380,0,0
497,-356,0,0,0,0,0,0,0,0,0,-1,1721,1380,0,0
504,-356,0,0,0,0,0,0,0,0,0,-1,1728,1380,0,0
511,-356,0,0,0,0,0,0,0,0,0,-1,1735,1380,0,0
518,-356,0,0,0,0,0,0,0,0,0,-1,1742,1380,0,0
525,-356,0,0,0,0,0,0,0,0,0,-1,1749,1380,0,0
532,-356,0,0,0,0,0,0,0,0,0,-1,1756,1380,0,0
539,-356,0,0,0,0,0,0,0,0,0,-1,1763,1380,0,0
546,-356,0,0,0,0,0,0,0,0,0,-1,1770,1380,0,0
553,-356,0,0,0,0,0,0,0,0,0,-1,1777,1380,0,0
560,-356,37.795,0.818237,0,0,0,0,0,0,0,-1,1784,1380,37.7951,-0.818183
567,-356,38.3564,1.21667,0,0,0,0,0,0,0,-1,1791,1380,38.3565,-1.21665
574,-356,38.7457,1.6095,0,0,0,0,0,0,0,-1,1798,1380,38.7457,-1.60945
581,-356,38.8058,1.92627,0,0,0,0,0,0,0,-1,1805,1380,38.8058,-1.92624
588,-356,32.496,1.32678,0,0,0,0,0,0,0,-1,1812,1380,32.496,-1.32676
595,-356,32.0834,5.86084,0,0,0,0,0,0,0,-1,1819,1380,32.0834,-5.86079
602,-356,30.1604,6.07104,0,0,0,0,0,0,0,-1,1826,1380,30.1604,-6.07104
609,-356,28.3435,6.48901,0,0,0,0,0,0,0,-1,1833,1380,28.3435,-6.48899
616,-356,26.9358,6.80872,0,0,0,0,0,0,0,-1,1840,1380,26.9358,-6.80877
623,-356,16.1803,1.07532,0,0,0,0,0,0,0,-1,1847,1380,16.1803,-1.07529
630,-356,16.4138,6.91553,0,0,0,0,0,0,0,-1,1854,1380,16.4138,-6.9155
637,-356,24.8021,12.0151,0,0,0,0,0,0,0,-1,1861,1380,24.8022,-12.0151
644,-356,26.6709,12.3124,0,0,0,0,0,0,0,-1,1868,1380,26.6708,-12.3124
651,-356,26.6494,11.7988,0.000840112,0.00381875,0.00988559,0.0123266,-0.00766772,0.860164,0.0116477,0.0168467,1875,1380,26.6494,-11.7988
658,-356,26.6027,11.3176,0.000129264,-0.000284218,0.00415012,0.00407779,-0.00423274,0.760511,0.00479836,0.0142418,1882,1380,26.6027,-11.3176
665,-356,26.5836,10.9279,0.000123712,-0.000902722,0.00126337,0.00097413,-0.00175314,0.592466,0.00159586,0.0136604,1889,1380,26.5837,-10.9278
672,-356,26.5504,10.5417,0.000329315,-0.000665018,0.000388726,0.000463245,-0.000798948,0.331798,0.000737269,0.0147116,1896,1380,26.5504,-10.5417
679,-356,26.5536,10.1036,0.000780411,-0.000716075,0.000558424,0.000965819,-0.000901483,0.320569,0.0010783,0.0168825,1903,1380,26.5536,-10.1037
686,-356,26.552,9.646,0.00124069,-0.0007332,0.000715513,0.00147277,-0.00096528,0.313647,0.00141774,0.0174528,1910,1380,26.552,-9.64597
693,-356,26.5525,9.22986,0.00166717,-0.000718493,0.000882784,0.00195831,-0.00100963,0.318559,0.00174247,0.015244,1917,1380,26.5525,-9.22988
700,-356,26.574,8.80322,0.00205928,-0.000610828,0.00105004,0.00242274,-0.00097429,0.333232,0.00201983,0.0208943,1924,1380,26.5739,-8.80321
707,-356,26.6858,8.16321,0,0,0,0,0,0,0,-1,1931,1380,26.6858,-8.16316
714,-356,19.6907,5.82129,0,0,0,0,0,0,0,-1,1938,1380,19.6907,-5.82132
721,-356,17.2948,4.1958,0,0,0,0,0,0,0,-1,1945,1380,17.2948,-4.19584
728,-356,19.1846,2.31519,0,0,0,0,0,0,0,-1,1952,1380,19.1846,-2.31514
735,-356,20.0731,2.50842,0,0,0,0,0,0,0,-1,1959,1380,20.0731,-2.50844
742,-356,21.0111,2.43762,0,0,0,0,0,0,0,-1,1966,1380,21.0112,-2.43762
749,-356,22.1411,1.83276,0,0,0,0,0,0,0,-1,1973,1380,22.1411,-1.83275
756,-356,0,0,0,0,0,0,0,0,0,-1,1980,1380,0,0
763,-356,0,0,0,0,0,0,0,0,0,-1,1987,1380,0,0
770,-356,0,0,0,0,0,0,0,0,0,-1,1994,1380,0,0
777,-356,0,0,0,0,0,0,0,0,0,-1,2001,1380,0,0
784,-356,0,0,0,0,0,0,0,0,0,-1,2008,1380,0,0
791,-356,0,0,0,0,0,0,0,0,0,-1,2015,1380,0,0
798,-356,0,0,0,0,0,0,0,0,0,-1,2022,1380,0,0
805,-356,0,0,0,0,0,0,0,0,0,-1,2029,1380,0,0
812,-356,0,0,0,0,0,0,0,0,0,-1,2036,1380,0,0
-700,-363,0,0,0,0,0,0,0,0,0,-1,524,1387,0,0
-693,-363,0,0,0,0,0,0,0,0,0,-1,531,1387,0,0
-686,-363,0,0,0,0,0,0,0,0,0,-1,538,1387,0,0
-679,-363,0,0,0,0,0,0,0,0,0,-1,545,1387,0,0
-672,-363,0,0,0,0,0,0,0,0,0,-1,552,1387,0,0
-665,-363,0,0,0,0,0,0,0,0,0,-1,559,1387,0,0
-658,-363,0,0,0,0,0,0,0,0,0,-1,566,1387,0,0
-651,-363,0,0,0,0,0,0,0,0,0,-1,573,1387,0,0
-644,-363,0,0,0,0,0,0,0,0,0,-1,580,1387,0,0
-637,-363,0,0,0,0,0,0,0,0,0,-1,587,1387,0,0
-630,-363,0,0,0,0,0,0,0,0,0,-1,594,1387,0,0
-623,-363,-9.67566,-5.91846,0,0,0,0,0,0,0,-1,601,1387,-9.67563,5.91847
-616,-363,-9.02985,-2.98083,0,0,0,0,0,0,0,-1,608,1387,-9.02987,2.98079
-609,-363,-4.90265,0.195679,0,0,0,0,0,0,0,-1,615,1387,-4.90263,-0.195721
-602,-363,-9.65009,3.5321,0,0,0,0,0,0,0,-1,622,1387,-9.65007,-3.53211
-595,-363,-8.00256,3.48853,0,0,0,0,0,0,0,-1,629,1387,-8.00256,-3.48855
-588,-363,-10.8846,4.49768,0,0,0,0,0,0,0,-1,636,1387,-10.8846,-4.49773
-581,-363,-11.7469,5.15161,0,0,0,0,0,0,0,-1,643,1387,-11.747,-5.15167
-574,-363,-12.7023,6.03772,0,0,0,0,0,0,0,-1,650,1387,-12.7023,-6.03774
-567,-363,-12.7792,6.60864,-0.00299289,-0.00220649,-0.00220353,-0.000361355,-0.00483802,-0.873689,0.0031119,0.0380788,657,1387,-12.7792,-6.60867
-560,-363,-12.7798,7.03186,-0.00203068,-0.00168366,-0.00161328,-0.000234592,-0.00347975,-0.838967,0.00224572,0.013666,664,1387,-12.7799,-7.03189
-553,-363,-12.7882,7.53442,-0.000809109,-0.00115558,-0.000894946,-7.07869e-05,-0.0018939,-0.689795,0.00123968,0.0135533,671,1387,-12.7882,-7.53446
-546,-363,-12.8,8.02161,0.000454529,-0.00066225,-0.000140396,0.000471908,-0.000679629,-0.123163,0.000668436,0.0134665,678,1387,-12.8,-8.02158
-539,-363,-12.7872,8.51208,0.00175643,-0.000173976,0.00063935,0.00194898,-0.000366523,0.292521,0.00143716,0.0157996,685,1387,-12.7872,-8.5121
-532,-363,-12.8395,9.01709,0.00311968,0.000294576,0.00145262,0.00373331,-0.000319052,0.399691,0.00260175,0.0144186,692,1387,-12.8395,-9.01706
-525,-363,-12.8499,9.48877,0.00462667,0.000828949,0.00237922,0.00577188,-0.000316259,0.448607,0.00395755,0.0122051,699,1387,-12.8498,-9.48871
-518,-363,-12.8177,9.96399,0.0062912,0.00143875,0.00341619,0.00805507,-0.000325123,0.476624,0.00548163,0.0104761,706,1387,-12.8178,-9.96405
-511,-363,-12.7543,10.4868,0.00783268,0.00197244,0.00443581,0.0102188,-0.000413641,0.493517,0.00695449,0.0229017,713,1387,-12.7543,-10.4868
-504,-363,-12.6613,11.046,0,0,0,0,0,0,0,-1,720,1387,-12.6613,-11.046
-497,-363,-7.18842,7.29944,0,0,0,0,0,0,0,-1,727,1387,-7.18839,-7.29945
-490,-363,-5.42413,4.6958,0,0,0,0,0,0,0,-1,734,1387,-5.42412,-4.69583
-483,-363,-6.28375,4.1394,0,0,0,0,0,0,0,-1,741,1387,-6.28374,-4.13944
-476,-363,-5.83807,4.31018,0,0,0,0,0,0,0,-1,748,1387,-5.8381,-4.31013
-469,-363,-10.7125,0.697754,0,0,0,0,0,0,0,-1,755,1387,-10.7125,-0.697811
-462,-363,-9.55951,-0.0830078,0,0,0,0,0,0,0,-1,762,1387,-9.55949,0.0830163
-455,-363,-13.1008,-0.290894,0,0,0,0,0,0,0,-1,769,1387,-13.1008,0.290921
-448,-363,-11.7324,2.46606,0,0,0,0,0,0,0,-1,776,1387,-11.7324,-2.46605
-441,-363,-12.4464,2.5354,0,0,0,0,0,0,0,-1,783,1387,-12.4463,-2.53537
-434,-363,-13.6918,2.14661,0,0,0,0,0,0,0,-1,790,1387,-13.6918,-2.14662
-427,-363,0,0,0,0,0,0,0,0,0,-1,797,1387,0,0
-420,-363,0,0,0,0,0,0,0,0,0,-1,804,1387,0,0
-413,-363,0,0,0,0,0,0,0,0,0,-1,811,1387,0,0
-406,-363,0,0,0,0,0,0,0,0,0,-1,818,1387,0,0
-399,-363,0,0,0,0,0,0,0,0,0,-1,825,1387,0,0
-392,-363,0,0,0,0,0,0,0,0,0,-1,832,1387,0,0
-385,-363,0,0,0,0,0,0,0,0,0,-1,839,1387,0,0
-378,-363,0,0,0,0,0,0,0,0,0,-1,846,1387,0,0
-371,-363,0,0,0,0,0,0,0,0,0,-1,853,1387,0,0
-364,-363,0,0,0,0,0,0,0,0,0,-1,860,1387,0,0
-357,-363,0,0,0,0,0,0,0,0,0,-1,867,1387,0,0
-350,-363,0,0,0,0,0,0,0,0,0,-1,874,1387,0,0
-343,-363,0,0,0,0,0,0,0,0,0,-1,881,1387,0,0
-336,-363,0,0,0,0,0,0,0,0,0,-1,888,1387,0,0
-329,-363,0,0,0,0,0,0,0,0,0,-1,895,1387,0,0
-322,-363,0,0,0,0,0,0,0,0,0,-1,902,1387,0,0
-315,-363,0,0,0,0,0,0,0,0,0,-1,909,1387,0,0
-308,-363,0,0,0,0,0,0,0,0,0,-1,916,1387,0,0
-301,-363,0,0,0,0,0,0,0,0,0,-1,923,1387,0,0
-294,-363,0,0,0,0,0,0,0,0,0,-1,930,1387,0,0
-287,-363,0,0,0,0,0,0,0,0,0,-1,937,1387,0,0
-280,-363,0,0,0,0,0,0,0,0,0,-1,944,1387,0,0
-273,-363,0,0,0,0,0,0,0,0,0,-1,951,1387,0,0
-266,-363,0,0,0,0,0,0,0,0,0,-1,958,1387,0,0
-259,-363,0,0,0,0,0,0,0,0,0,-1,965,1387,0,0
-252,-363,0,0,0,0,0,0,0,0,0,-1,972,1387,0,0
-245,-363,0,0,0,0,0,0,0,0,0,-1,979,1387,0,0
-238,-363,0,0,0,0,0,0,0,0,0,-1,986,1387,0,0
-231,-363,0,0,0,0,0,0,0,0,0,-1,993,1387,0,0
-224,-363,0,0,0,0,0,0,0,0,0,-1,1000,1387,0,0
-217,-363,0,0,0,0,0,0,0,0,0,-1,1007,1387,0,0
-210,-363,0,0,0,0,0,0,0,0,0,-1,1014,1387,0,0
-203,-363,0,0,0,0,0,0,0,0,0,-1,1021,1387,0,0
-196,-363,0,0,0,0,0,0,0,0,0,-1,1028,1387,0,0
-189,-363,0,0,0,0,0,0,0,0,0,-1,1035,1387,0,0
-182,-363,0,0,0,0,0,0,0,0,0,-1,1042,1387,0,0
-175,-363,0,0,0,0,0,0,0,0,0,-1,1049,1387,0,0
-168,-363,0,0,0,0,0,0,0,0,0,-1,1056,1387,0,0
-161,-363,0,0,0,0,0,0,0,0,0,-1,1063,1387,0,0
-154,-363,0,0,0,0,0,0,0,0,0,-1,1070,1387,0,0
-147,-363,0,0,0,0,0,0,0,0,0,-1,1077,1387,0,0
-140,-363,0,0,0,0,0,0,0,0,0,-1,1084,1387,0,0
-133,-363,0,0,0,0,0,0,0,0,0,-1,1091,1387,0,0
-126,-363,0,0,0,0,0,0,0,0,0,-1,1098,1387,0,0
-119,-363,0,0,0,0,0,0,0,0,0,-1,1105,1387,0,0
-112,-363,0,0,0,0,0,0,0,0,0,-1,1112,1387,0,0
-105,-363,0,0,0,0,0,0,0,0,0,-1,1119,1387,0,0
-98,-363,0,0,0,0,0,0,0,0,0,-1,1126,1387,0,0
-91,-363,0,0,0,0,0,0,0,0,0,-1,1133,1387,0,0
-84,-363,0,0,0,0,0,0,0,0,0,-1,1140,1387,0,0
-77,-363,0,0,0,0,0,0,0,0,0,-1,1147,1387,0,0
-70,-363,0,0,0,0,0,0,0,0,0,-1,1154,1387,0,0
-63,-363,0,0,0,0,0,0,0,0,0,-1,1161,1387,0,0
-56,-363,0,0,0,0,0,0,0,0,0,-1,1168,1387,0,0
-49,-363,0,0,0,0,0,0,0,0,0,-1,1175,1387,0,0
-42,-363,0,0,0,0,0,0,0,0,0,-1,1182,1387,0,0
-35,-363,0,0,0,0,0,0,0,0,0,-1,1189,1387,0,0
-28,-363,0,0,0,0,0,0,0,0,0,-1,1196,1387,0,0
-21,-363,0,0,0,0,0,0,0,0,0,-1,1203,1387,0,0
-14,-363,0,0,0,0,0,0,0,0,0,-1,1210,1387,0,0
-7,-363,0,0,0,0,0,0,0,0,0,-1,1217,1387,0,0
0,-363,0,0,0,0,0,0,0,0,0,-1,1224,1387,0,0
7,-363,0,0,0,0,0,0,0,0,0,-1,1231,1387,0,0
14,-363,0,0,0,0,0,0,0,0,0,-1,1238,1387,0,0
21,-363,0,0,0,0,0,0,0,0,0,-1,1245,1387,0,0
28,-363,0,0,0,0,0,0,0,0,0,-1,1252,1387,0,0
35,-363,0,0,0,0,0,0,0,0,0,-1,1259,1387,0,0
42,-363,0,0,0,0,0,0,0,0,0,-1,1266,1387,0,0
49,-363,0,0,0,0,0,0,0,0,0,-1,1273,1387,0,0
56,-363,0,0,0,0,0,0,0,0,0,-1,1280,1387,0,0
63,-363,0,0,0,0,0,0,0,0,0,-1,1287,1387,0,0
70,-363,0,0,0,0,0,0,0,0,0,-1,1294,1387,0,0
77,-363,0,0,0,0,0,0,0,0,0,-1,1301,1387,0,0
84,-363,0,0,0,0,0,0,0,0,0,-1,1308,1387,0,0
91,-363,0,0,0,0,0,0,0,0,0,-1,1315,1387,0,0
98,-363,0,0,0,0,0,0,0,0,0,-1,1322,1387,0,0
105,-363,0,0,0,0,0,0,0,0,0,-1,1329,1387,0,0
112,-363,0,0,0,0,0,0,0,0,0,-1,1336,1387,0,0
119,-363,0,0,0,0,0,0,0,0,0,-1,1343,1387,0,0
126,-363,0,0,0,0,0,0,0,0,0,-1,1350,1387,0,0
133,-363,0,0,0,0,0,0,0,0,0,-1,1357,1387,0,0
140,-363,0,0,0,0,0,0,0,0,0,-1,1364,1387,0,0
147,-363,0,0,0,0,0,0,0,0,0,-1,1371,1387,0,0
154,-363,0,0,0,0,0,0,0,0,0,-1,1378,1387,0,0
161,-363,0,0,0,0,0,0,0,0,0,-1,1385,1387,0,0
168,-363,0,0,0,0,0,0,0,0,0,-1,1392,1387,0,0
175,-363,0,0,0,0,0,0,0,0,0,-1,1399,1387,0,0
182,-363,0,0,0,0,0,0,0,0,0,-1,1406,1387,0,0
189,-363,0,0,0,0,0,0,0,0,0,-1,1413,1387,0,0
196,-363,0,0,0,0,0,0,0,0,0,-1,1420,1387,0,0
203,-363,0,0,0,0,0,0,0,0,0,-1,1427,1387,0,0
210,-363,0,0,0,0,0,0,0,0,0,-1,1434,1387,0,0
217,-363,0,0,0,0,0,0,0,0,0,-1,1441,1387,0,0
224,-363,0,0,0,0,0,0,0,0,0,-1,1448,1387,0,0
231,-363,0,0,0,0,0,0,0,0,0,-1,1455,1387,0,0
238,-363,0,0,0,0,0,0,0,0,0,-1,1462,1387,0,0
245,-363,0,0,0,0,0,0,0,0,0,-1,1469,1387,0,0
252,-363,0,0,0,0,0,0,0,0,0,-1,1476,1387,0,0
259,-363,0,0,0,0,0,0,0,0,0,-1,1483,1387,0,0
266,-363,0,0,0,0,0,0,0,0,0,-1,1490,1387,0,0
273,-363,0,0,0,0,0,0,0,0,0,-1,1497,1387,0,0
280,-363,0,0,0,0,0,0,0,0,0,-1,1504,1387,0,0
287,-363,0,0,0,0,0,0,0,0,0,-1,1511,1387,0,0
294,-363,0,0,0,0,0,0,0,0,0,-1,1518,1387,0,0
301,-363,0,0,0,0,0,0,0,0,0,-1,1525,1387,0,0
308,-363,0,0,0,0,0,0,0,0,0,-1,1532,1387,0,0
315,-363,0,0,0,0,0,0,0,0,0,-1,1539,1387,0,0
322,-363,0,0,0,0,0,0,0,0,0,-1,1546,1387,0,0
329,-363,0,0,0,0,0,0,0,0,0,-1,1553,1387,0,0
336,-363,0,0,0,0,0,0,0,0,0,-1,1560,1387,0,0
343,-363,0,0,0,0,0,0,0,0,0,-1,1567,1387,0,0
350,-363,0,0,0,0,0,0,0,0,0,-1,1574,1387,0,0
357,-363,0,0,0,0,0,0,0,0,0,-1,1581,1387,0,0
364,-363,0,0,0,0,0,0,0,0,0,-1,1588,1387,0,0
371,-363,0,0,0,0,0,0,0,0,0,-1,1595,1387,0,0
378,-363,0,0,0,0,0,0,0,0,0,-1,1602,1387,0,0
385,-363,0,0,0,0,0,0,0,0,0,-1,1609,1387,0,0
392,-363,0,0,0,0,0,0,0,0,0,-1,1616,1387,0,0
399,-363,0,0,0,0,0,0,0,0,0,-1,1623,1387,0,0
406,-363,0,0,0,0,0,0,0,0,0,-1,1630,1387,0,0
413,-363,0,0,0,0,0,0,0,0,0,-1,1637,1387,0,0
420,-363,0,0,0,0,0,0,0,0,0,-1,1644,1387,0,0
427,-363,0,0,0,0,0,0,0,0,0,-1,1651,1387,0,0
434,-363,0,0,0,0,0,0,0,0,0,-1,1658,1387,0,0
441,-363,0,0,0,0,0,0,0,0,0,-1,1665,1387,0,0
448,-363,0,0,0,0,0,0,0,0,0,-1,1672,1387,0,0
455,-363,0,0,0,0,0,0,0,0,0,-1,1679,1387,0,0
462,-363,0,0,0,0,0,0,0,0,0,-1,1686,1387,0,0
469,-363,0,0,0,0,0,0,0,0,0,-1,1693,1387,0,0
476,-363,0,0,0,0,0,0,0,0,0,-1,1700,1387,0,0
483,-363,0,0,0,0,0,0,0,0,0,-1,1707,1387,0,0
490,-363,0,0,0,0,0,0,0,0,0,-1,1714,1387,0,0
497,-363,0,0,0,0,0,0,0,0,0,-1,1721,1387,0,0
504,-363,0,0,0,0,0,0,0,0,0,-1,1728,1387,0,0
511,-363,0,0,0,0,0,0,0,0,0,-1,1735,1387,0,0
518,-363,0,0,0,0,0,0,0,0,0,-1,1742,1387,0,0
525,-363,0,0,0,0,0,0,0,0,0,-1,1749,1387,0,0
532,-363,0,0,0,0,0,0,0,0,0,-1,1756,1387,0,0
539,-363,0,0,0,0,0,0,0,0,0,-1,1763,1387,0,0
546,-363,0,0,0,0,0,0,0,0,0,-1,1770,1387,0,0
553,-363,37.9039,5.52307,0,0,0,0,0,0,0,-1,1777,1387,37.9039,-5.52309
560,-363,37.8204,0.700439,0,0,0,0,0,0,0,-1,1784,1387,37.8204,-0.70038
567,-363,38.4568,1.03564,0,0,0,0,0,0,0,-1,1791,1387,38.4567,-1.03561
574,-363,38.9513,1.52612,0,0,0,0,0,0,0,-1,1798,1387,38.9513,-1.52612
581,-363,39.2413,1.97632,0,0,0,0,0,0,0,-1,1805,1387,39.2413,-1.97636
588,-363,32.5608,6.72131,0,0,0,0,0,0,0,-1,1812,1387,32.5608,-6.72131
595,-363,31.4688,6.95435,0,0,0,0,0,0,0,-1,1819,1387,31.4688,-6.95431
602,-363,25.7437,5.33667,0,0,0,0,0,0,0,-1,1826,1387,25.7437,-5.33667
609,-363,27.7048,7.06885,0,0,0,0,0,0,0,-1,1833,1387,27.7048,-7.06882
616,-363,16.229,1.08704,0,0,0,0,0,0,0,-1,1840,1387,16.229,-1.08706
623,-363,15.7283,7.16663,0,0,0,0,0,0,0,-1,1847,1387,15.7282,-7.16665
630,-363,18.3192,9.27844,0,0,0,0,0,0,0,-1,1854,1387,18.3192,-9.27843
637,-363,26.109,12.8754,0,0,0,0,0,0,0,-1,1861,1387,26.109,-12.8753
644,-363,26.1648,12.3251,-0.000354814,0.00272282,0.0149477,0.0162107,-0.0138427,0.836691,0.0173693,0.014276,1868,1387,26.1648,-12.3251
651,-363,26.1903,11.8268,-0.000244181,0.00363601,0.0063862,0.0083703,-0.00497848,0.932866,0.00778941,0.0102064,1875,1387,26.1904,-11.8268
658,-363,26.1763,11.3853,-0.000132389,2.00173e-05,0.00243088,0.00237589,-0.00248826,0.801067,0.00280857,0.0111701,1882,1387,26.1763,-11.3852
665,-363,26.1517,10.9812,0.000235961,-0.000673015,0.000799123,0.000700797,-0.00113785,0.526842,0.00107149,0.0115015,1889,1387,26.1518,-10.9812
672,-363,26.1321,10.5631,0.000597249,-0.000730357,0.000544649,0.000792094,-0.000925203,0.343558,0.000992474,0.0137574,1896,1387,26.1321,-10.5631
679,-363,26.1324,10.1282,0.00106974,-0.000899651,0.000804109,0.00135635,-0.00118626,0.342393,0.00146907,0.0151755,1903,1387,26.1325,-10.1281
686,-363,26.1191,9.67053,0.00156824,-0.00106442,0.00106434,0.00194471,-0.00144089,0.339971,0.00196187,0.0149284,1910,1387,26.1192,-9.67048
693,-363,26.0934,9.2146,0.00207348,-0.00119356,0.00132151,0.0025411,-0.00166118,0.340102,0.00244385,0.013506,1917,1387,26.0934,-9.21458
700,-363,26.2362,8.76294,0.00260545,-0.00122104,0.00156778,0.00316575,-0.00178135,0.343239,0.00289325,0.0236029,1924,1387,26.2362,-8.76297
707,-363,26.4867,8.36121,0,0,0,0,0,0,0,-1,1931,1387,26.4867,-8.3612
714,-363,16.5782,5.3147,0,0,0,0,0,0,0,-1,1938,1387,16.5783,-5.31472
721,-363,14.4045,4.51685,0,0,0,0,0,0,0,-1,1945,1387,14.4045,-4.51685
728,-363,19.9756,0.853027,0,0,0,0,0,0,0,-1,1952,1387,19.9756,-0.853059
735,-363,21.4297,1.2981,0,0,0,0,0,0,0,-1,1959,1387,21.4297,-1.29811
742,-363,21.3621,2.79663,0,0,0,0,0,0,0,-1,1966,1387,21.362,-2.7966
749,-363,0,0,0,0,0,0,0,0,0,-1,1973,1387,0,0
756,-363,0,0,0,0,0,0,0,0,0,-1,1980,1387,0,0
763,-363,0,0,0,0,0,0,0,0,0,-1,1987,1387,0,0
770,-363,0,0,0,0,0,0,0,0,0,-1,1994,1387,0,0
777,-363,0,0,0,0,0,0,0,0,0,-1,2001,1387,0,0
784,-363,0,0,0,0,0,0,0,0,0,-1,2008,1387,0,0
791,-363,0,0,0,0,0,0,0,0,0,-1,2015,1387,0,0
798,-363,0,0,0,0,0,0,0,0,0,-1,2022,1387,0,0
805,-363,0,0,0,0,0,0,0,0,0,-1,2029,1387,0,0
812,-363,0,0,0,0,0,0,0,0,0,-1,2036,1387,0,0
-700,-370,0,0,0,0,0,0,0,0,0,-1,524,1394,0,0
-693,-370,0,0,0,0,0,0,0,0,0,-1,531,1394,0,0
-686,-370,0,0,0,0,0,0,0,0,0,-1,538,1394,0,0
-679,-370,0,0,0,0,0,0,0,0,0,-1,545,1394,0,0
-672,-370,0,0,0,0,0,0,0,0,0,-1,552,1394,0,0
-665,-370,0,0,0,0,0,0,0,0,0,-1,559,1394,0,0
-658,-370,0,0,0,0,0,0,0,0,0,-1,566,1394,0,0
-651,-370,0,0,0,0,0,0,0,0,0,-1,573,1394,0,0
-644,-370,0,0,0,0,0,0,0,0,0,-1,580,1394,0,0
-637,-370,0,0,0,0,0,0,0,0,0,-1,587,1394,0,0
-630,-370,0,0,0,0,0,0,0,0,0,-1,594,1394,0,0
-623,-370,-10.1758,-7.10486,0,0,0,0,0,0,0,-1,601,1394,-10.1758,7.10483
-616,-370,-8.85925,-1.61475,0,0,0,0,0,0,0,-1,608,1394,-8.85925,1.61476
-609,-370,-5.39325,0.0421143,0,0,0,0,0,0,0,-1,615,1394,-5.39328,-0.0421372
-602,-370,-12.3151,3.44592,0,0,0,0,0,0,0,-1,622,1394,-12.3151,-3.44595
-595,-370,-7.53284,5.44214,0,0,0,0,0,0,0,-1,629,1394,-7.53284,-5.44216
-588,-370,-11.2422,4.50598,0,0,0,0,0,0,0,-1,636,1394,-11.2422,-4.50596
-581,-370,-11.5608,5.52661,0,0,0,0,0,0,0,-1,643,1394,-11.5608,-5.52666
-574,-370,-11.9023,6.30542,0,0,0,0,0,0,0,-1,650,1394,-11.9023,-6.30542
-567,-370,-12.1205,6.73987,-0.00500349,-0.0032502,-0.00314004,-0.000866725,-0.00738696,-0.921523,0.00466266,0.0477214,657,1394,-12.1205,-6.73988
-560,-370,-12.3383,7.02246,-0.00363184,-0.00242866,-0.00237327,-0.000581921,-0.00547858,-0.909526,0.00347469,0.0231497,664,1394,-12.3382,-7.02252
-553,-370,-12.3098,7.55334,-0.00209965,-0.00169238,-0.00152925,-0.000353273,-0.00343876,-0.851588,0.00218429,0.0113601,671,1394,-12.3098,-7.55334
-546,-370,-12.2842,8.05664,-0.000625802,-0.00104539,-0.000677624,-0.000126239,-0.00154495,-0.635277,0.000990573,0.014592,678,1394,-12.2842,-8.05664
-539,-370,-12.2883,8.57068,0.00080147,-0.000453723,0.000155134,0.00082036,-0.000472612,0.121165,0.000755444,0.0186456,685,1394,-12.2883,-8.57072
-532,-370,-12.3483,9.07104,0.00223291,0.000102566,0.00100084,0.00262934,-0.00029386,0.377134,0.00185861,0.0218928,692,1394,-12.3483,-9.0711
-525,-370,-12.3713,9.50659,0.00374843,0.00071394,0.00194318,0.00469654,-0.000234171,0.453935,0.00321193,0.0174903,699,1394,-12.3713,-9.50656
-518,-370,-12.3539,9.96118,0.00536165,0.00140867,0.00299044,0.00696974,-0.000199422,0.493386,0.00471437,0.0125442,706,1394,-12.3539,-9.96122
-511,-370,-12.3399,10.4684,0.00688848,0.00209664,0.00405562,0.00920302,-0.000217905,0.518597,0.00620926,0.0144723,713,1394,-12.3399,-10.4684
-504,-370,-12.2109,11.0232,0.00869145,0.002999,0.00545926,0.0120019,-0.000311439,0.545104,0.00810707,0.0482236,720,1394,-12.2108,-11.0231
-497,-370,-12.0167,11.5219,0,0,0,0,0,0,0,-1,727,1394,-12.0167,-11.5219
-490,-370,-5.30695,4.5271,0,0,0,0,0,0,0,-1,734,1394,-5.30698,-4.52704
-483,-370,-6.02997,4.59253,0,0,0,0,0,0,0,-1,741,1394,-6.02994,-4.5925
-476,-370,-6.75293,4.65796,0,0,0,0,0,0,0,-1,748,1394,-6.7529,-4.65795
-469,-370,-10.584,1.14294,0,0,0,0,0,0,0,-1,755,1394,-10.584,-1.14293
-462,-370,-9.54462,0.387207,0,0,0,0,0,0,0,-1,762,1394,-9.5446,-0.387176
-455,-370,-8.50525,-0.36853,0,0,0,0,0,0,0,-1,769,1394,-8.50523,0.368582
-448,-370,-10.9543,2.28833,0,0,0,0,0,0,0,-1,776,1394,-10.9543,-2.28835
-441,-370,-11.8699,1.8313,0,0,0,0,0,0,0,-1,783,1394,-11.8699,-1.83127
-434,-370,-12.7855,1.37415,0,0,0,0,0,0,0,-1,790,1394,-12.7855,-1.37419
-427,-370,0,0,0,0,0,0,0,0,0,-1,797,1394,0,0
-420,-370,0,0,0,0,0,0,0,0,0,-1,804,1394,0,0
-413,-370,0,0,0,0,0,0,0,0,0,-1,811,1394,0,0
-406,-370,0,0,0,0,0,0,0,0,0,-1,818,1394,0,0
-399,-370,0,0,0,0,0,0,0,0,0,-1,825,1394,0,0
-392,-370,0,0,0,0,0,0,0,0,0,-1,832,1394,0,0
-385,-370,0,0,0,0,0,0,0,0,0,-1,839,1394,0,0
-378,-370,0,0,0,0,0,0,0,0,0,-1,846,1394,0,0
-371,-370,0,0,0,0,0,0,0,0,0,-1,853,1394,0,0
-364,-370,0,0,0,0,0,0,0,0,0,-1,860,1394,0,0
-357,-370,0,0,0,0,0,0,0,0,0,-1,867,1394,0,0
-350,-370,0,0,0,0,0,0,0,0,0,-1,874,1394,0,0
-343,-370,0,0,0,0,0,0,0,0,0,-1,881,1394,0,0
-336,-370,0,0,0,0,0,0,0,0,0,-1,888,1394,0,0
-329,-370,0,0,0,0,0,0,0,0,0,-1,895,1394,0,0
-322,-370,0,0,0,0,0,0,0,0,0,-1,902,1394,0,0
-315,-370,0,0,0,0,0,0,0,0,0,-1,909,1394,0,0
-308,-370,0,0,0,0,0,0,0,0,0,-1,916,1394,0,0
-301,-370,0,0,0,0,0,0,0,0,0,-1,923,1394,0,0
-294,-370,0,0,0,0,0,0,0,0,0,-1,930,1394,0,0
-287,-370,0,0,0,0,0,0,0,0,0,-1,937,1394,0,0
-280,-370,0,0,0,0,0,0,0,0,0,-1,944,1394,0,0
-273,-370,0,0,0,0,0,0,0,0,0,-1,951,1394,0,0
-266,-370,0,0,0,0,0,0,0,0,0,-1,958,1394,0,0
-259,-370,0,0,0,0,0,0,0,0,0,-1,965,1394,0,0
-252,-370,0,0,0,0,0,0,0,0,0,-1,972,1394,0,0
-245,-370,0,0,0,0,0,0,0,0,0,-1,979,1394,0,0
-238,-370,0,0,0,0,0,0,0,0,0,-1,986,1394,0,0
-231,-370,0,0,0,0,0,0,0,0,0,-1,993,1394,0,0
-224,-370,0,0,0,0,0,0,0,0,0,-1,1000,1394,0,0
-217,-370,0,0,0,0,0,0,0,0,0,-1,1007,1394,0,0
-210,-370,0,0,0,0,0,0,0,0,0,-1,1014,1394,0,0
-203,-370,0,0,0,0,0,0,0,0,0,-1,1021,1394,0,0
-196,-370,0,0,0,0,0,0,0,0,0,-1,1028,1394,0,0
-189,-370,0,0,0,0,0,0,0,0,0,-1,1035,1394,0,0
-182,-370,0,0,0,0,0,0,0,0,0,-1,1042,1394,0,0
-175,-370,0,0,0,0,0,0,0,0,0,-1,1049,1394,0,0
-168,-370,0,0,0,0,0,0,0,0,0,-1,1056,1394,0,0
-161,-370,0,0,0,0,0,0,0,0,0,-1,1063,1394,0,0
-154,-370,0,0,0,0,0,0,0,0,0,-1,1070,1394,0,0
-147,-370,0,0,0,0,0,0,0,0,0,-1,1077,1394,0,0
-140,-370,0,0,0,0,0,0,0,0,0,-1,1084,1394,0,0
-133,-370,0,0,0,0,0,0,0,0,0,-1,1091,1394,0,0
-126,-370,0,0,0,0,0,0,0,0,0,-1,1098,1394,0,0
-119,-370,0,0,0,0,0,0,0,0,0,-1,1105,1394,0,0
-112,-370,0,0,0,0,0,0,0,0,0,-1,1112,1394,0,0
-105,-370,0,0,0,0,0,0,0,0,0,-1,1119,1394,0,0
-98,-370,0,0,0,0,0,0,0,0,0,-1,1126,1394,0,0
-91,-370,0,0,0,0,0,0,0,0,0,-1,1133,1394,0,0
-84,-370,0,0,0,0,0,0,0,0,0,-1,1140,1394,0,0
-77,-370,0,0,0,0,0,0,0,0,0,-1,1147,1394,0,0
-70,-370,0,0,0,0,0,0,0,0,0,-1,1154,1394,0,0
-63,-370,0,0,0,0,0,0,0,0,0,-1,1161,1394,0,0
-56,-370,0,0,0,0,0,0,0,0,0,-1,1168,1394,0,0
-49,-370,0,0,0,0,0,0,0,0,0,-1,1175,1394,0,0
-42,-370,0,0,0,0,0,0,0,0,0,-1,1182,1394,0,0
-35,-370,0,0,0,0,0,0,0,0,0,-1,1189,1394,0,0
-28,-370,0,0,0,0,0,0,0,0,0,-1,1196,1394,0,0
-21,-370,0,0,0,0,0,0,0,0,0,-1,1203,1394,0,0
-14,-370,0,0,0,0,0,0,0,0,0,-1,1210,1394,0,0
-7,-370,0,0,0,0,0,0,0,0,0,-1,1217,1394,0,0
0,-370,0,0,0,0,0,0,0,0,0,-1,1224,1394,0,0
7,-370,0,0,0,0,0,0,0,0,0,-1,1231,1394,0,0
14,-370,0,0,0,0,0,0,0,0,0,-1,1238,1394,0,0
21,-370,0,0,0,0,0,0,0,0,0,-1,1245,1394,0,0
28,-370,0,0,0,0,0,0,0,0,0,-1,1252,1394,0,0
35,-370,0,0,0,0,0,0,0,0,0,-1,1259,1394,0,0
42,-370,0,0,0,0,0,0,0,0,0,-1,1266,1394,0,0
49,-370,0,0,0,0,0,0,0,0,0,-1,1273,1394,0,0
56,-370,0,0,0,0,0,0,0,0,0,-1,1280,1394,0,0
63,-370,0,0,0,0,0,0,0,0,0,-1,1287,1394,0,0
70,-370,0,0,0,0,0,0,0,0,0,-1,1294,1394,0,0
77,-370,0,0,0,0,0,0,0,0,0,-1,1301,1394,0,0
84,-370,0,0,0,0,0,0,0,0,0,-1,1308,1394,0,0
91,-370,0,0,0,0,0,0,0,0,0,-1,1315,1394,0,0
98,-370,0,0,0,0,0,0,0,0,0,-1,1322,1394,0,0
105,-370,0,0,0,0,0,0,0,0,0,-1,1329,1394,0,0
112,-370,0,0,0,0,0,0,0,0,0,-1,1336,1394,0,0
119,-370,0,0,0,0,0,0,0,0,0,-1,1343,1394,0,0
126,-370,0,0,0,0,0,0,0,0,0,-1,1350,1394,0,0
133,-370,0,0,0,0,0,0,0,0,0,-1,1357,1394,0,0
140,-370,0,0,0,0,0,0,0,0,0,-1,1364,1394,0,0
147,-370,0,0,0,0,0,0,0,0,0,-1,1371,1394,0,0
154,-370,0,0,0,0,0,0,0,0,0,-1,1378,1394,0,0
161,-370,0,0,0,0,0,0,0,0,0,-1,1385,1394,0,0
168,-370,0,0,0,0,0,0,0,0,0,-1,1392,1394,0,0
175,-370,0,0,0,0,0,0,0,0,0,-1,1399,1394,0,0
182,-370,0,0,0,0,0,0,0,0,0,-1,1406,1394,0,0
189,-370,0,0,0,0,0,0,0,0,0,-1,1413,1394,0,0
196,-370,0,0,0,0,0,0,0,0,0,-1,1420,1394,0,0
203,-370,0,0,0,0,0,0,0,0,0,-1,1427,1394,0,0
210,-370,0,0,0,0,0,0,0,0,0,-1,1434,1394,0,0
217,-370,0,0,0,0,0,0,0,0,0,-1,1441,1394,0,0
224,-370,0,0,0,0,0,0,0,0,0,-1,1448,1394,0,0
231,-370,0,0,0,0,0,0,0,0,0,-1,1455,1394,0,0
238,-370,0,0,0,0,0,0,0,0,0,-1,1462,1394,0,0
245,-370,0,0,0,0,0,0,0,0,0,-1,1469,1394,0,0
252,-370,0,0,0,0,0,0,0,0,0,-1,1476,1394,0,0
259,-370,0,0,0,0,0,0,0,0,0,-1,1483,1394,0,0
266,-370,0,0,0,0,0,0,0,0,0,-1,1490,1394,0,0
273,-370,0,0,0,0,0,0,0,0,0,-1,1497,1394,0,0
280,-370,0,0,0,0,0,0,0,0,0,-1,1504,1394,0,0
287,-370,0,0,0,0,0,0,0,0,0,-1,1511,1394,0,0
294,-370,0,0,0,0,0,0,0,0,0,-1,1518,1394,0,0
301,-370,0,0,0,0,0,0,0,0,0,-1,1525,1394,0,0
308,-370,0,0,0,0,0,0,0,0,0,-1,1532,1394,0,0
315,-370,0,0,0,0,0,0,0,0,0,-1,1539,1394,0,0
322,-370,0,0,0,0,0,0,0,0,0,-1,1546,1394,0,0
329,-370,0,0,0,0,0,0,0,0,0,-1,1553,1394,0,0
336,-370,0,0,0,0,0,0,0,0,0,-1,1560,1394,0,0
343,-370,0,0,0,0,0,0,0,0,0,-1,1567,1394,0,0
350,-370,0,0,0,0,0,0,0,0,0,-1,1574,1394,0,0
357,-370,0,0,0,0,0,0,0,0,0,-1,1581,1394,0,0
364,-370,0,0,0,0,0,0,0,0,0,-1,1588,1394,0,0
371,-370,0,0,0,0,0,0,0,0,0,-1,1595,1394,0,0
378,-370,0,0,0,0,0,0,0,0,0,-1,1602,1394,0,0
385,-370,0,0,0,0,0,0,0,0,0,-1,1609,1394,0,0
392,-370,0,0,0,0,0,0,0,0,0,-1,1616,1394,0,0
399,-370,0,0,0,0,0,0,0,0,0,-1,1623,1394,0,0
406,-370,0,0,0,0,0,0,0,0,0,-1,1630,1394,0,0
413,-370,0,0,0,0,0,0,0,0,0,-1,1637,1394,0,0
420,-370,0,0,0,0,0,0,0,0,0,-1,1644,1394,0,0
427,-370,0,0,0,0,0,0,0,0,0,-1,1651,1394,0,0
434,-370,0,0,0,0,0,0,0,0,0,-1,1658,1394,0,0
441,-370,0,0,0,0,0,0,0,0,0,-1,1665,1394,0,0
448,-370,0,0,0,0,0,0,0,0,0,-1,1672,1394,0,0
455,-370,0,0,0,0,0,0,0,0,0,-1,1679,1394,0,0
462,-370,0,0,0,0,0,0,0,0,0,-1,1686,1394,0,0
469,-370,0,0,0,0,0,0,0,0,0,-1,1693,1394,0,0
476,-370,0,0,0,0,0,0,0,0,0,-1,1700,1394,0,0
483,-370,0,0,0,0,0,0,0,0,0,-1,1707,1394,0,0
490,-370,0,0,0,0,0,0,0,0,0,-1,1714,1394,0,0
497,-370,0,0,0,0,0,0,0,0,0,-1,1721,1394,0,0
504,-370,0,0,0,0,0,0,0,0,0,-1,1728,1394,0,0
511,-370,0,0,0,0,0,0,0,0,0,-1,1735,1394,0,0
518,-370,0,0,0,0,0,0,0,0,0,-1,1742,1394,0,0
525,-370,0,0,0,0,0,0,0,0,0,-1,1749,1394,0,0
532,-370,0,0,0,0,0,0,0,0,0,-1,1756,1394,0,0
539,-370,0,0,0,0,0,0,0,0,0,-1,1763,1394,0,0
546,-370,27.4949,2.81201,0,0,0,0,0,0,0,-1,1770,1394,27.4948,-2.81198
553,-370,26.5985,1.99329,0,0,0,0,0,0,0,-1,1777,1394,26.5985,-1.99327
560,-370,38.1403,3.45044,0,0,0,0,0,0,0,-1,1784,1394,38.1403,-3.45042
567,-370,38.4773,0.835205,0,0,0,0,0,0,0,-1,1791,1394,38.4773,-0.835145
574,-370,38.8953,1.49353,0,0,0,0,0,0,0,-1,1798,1394,38.8952,-1.49348
581,-370,39.178,2.86145,0,0,0,0,0,0,0,-1,1805,1394,39.1779,-2.86145
588,-370,39.2102,4.27661,0,0,0,0,0,0,0,-1,1812,1394,39.2102,-4.27657
595,-370,25.793,4.5271,0,0,0,0,0,0,0,-1,1819,1394,25.793,-4.52711
602,-370,25.1077,5.34937,0,0,0,0,0,0,0,-1,1826,1394,25.1077,-5.34932
609,-370,16.712,0.993286,0,0,0,0,0,0,0,-1,1833,1394,16.7121,-0.99323
616,-370,16.7764,7.23315,0,0,0,0,0,0,0,-1,1840,1394,16.7764,-7.23313
623,-370,17.6625,8.94263,0,0,0,0,0,0,0,-1,1847,1394,17.6624,-8.94258
630,-370,20.9681,11.1785,0,0,0,0,0,0,0,-1,1854,1394,20.9681,-11.1784
637,-370,25.7295,12.7477,0,0,0,0,0,0,0,-1,1861,1394,25.7295,-12.7477
644,-370,25.7483,12.2979,-0.000773868,0.00255434,0.00974068,0.010772,-0.00899157,0.870002,0.0114259,0.0123493,1868,1394,25.7483,-12.2978
651,-370,25.7548,11.8453,-0.00042796,0.0028127,0.00357888,0.00512096,-0.00273623,0.997966,0.00460547,0.0110562,1875,1394,25.7547,-11.8453
658,-370,25.746,11.4215,-4.58385e-05,-5.53714e-05,0.00127745,0.00122685,-0.00132806,0.783533,0.00147547,0.0116892,1882,1394,25.7459,-11.4215
665,-370,25.7129,10.9917,0.000377837,-0.000627179,0.000609198,0.000665035,-0.000914378,0.440537,0.000915654,0.0139801,1889,1394,25.7129,-10.9916
672,-370,25.6886,10.5535,0.000755828,-0.000878825,0.000761083,0.00105531,-0.00117831,0.37489,0.00129024,0.0162073,1896,1394,25.6886,-10.5534
679,-370,25.699,10.118,0.00122589,-0.00118012,0.00112067,0.001667,-0.00162123,0.37499,0.00189852,0.0148125,1903,1394,25.699,-10.1181
686,-370,25.6769,9.6897,0.00173734,-0.00153168,0.0015148,0.00233134,-0.00212568,0.373703,0.00257417,0.0138392,1910,1394,25.6769,-9.68973
693,-370,25.6428,9.21204,0.00229643,-0.00188568,0.00191739,0.00304243,-0.00263169,0.371051,0.00327881,0.0124565,1917,1394,25.6428,-9.21205
700,-370,25.8113,8.72498,0.00294901,-0.0022069,0.00234278,0.00385451,-0.00311241,0.368821,0.00402995,0.030641,1924,1394,25.8113,-8.72493
707,-370,26.1439,8.19385,0,0,0,0,0,0,0,-1,1931,1394,26.1439,-8.1939
714,-370,16.9116,5.93018,0,0,0,0,0,0,0,-1,1938,1394,16.9116,-5.93014
721,-370,17.2007,4.69153,0,0,0,0,0,0,0,-1,1945,1394,17.2007,-4.69158
728,-370,20.5315,-0.313354,0,0,0,0,0,0,0,-1,1952,1394,20.5315,0.313332
735,-370,22.3652,0.233398,0,0,0,0,0,0,0,-1,1959,1394,22.3652,-0.233355
742,-370,24.1989,0.780029,0,0,0,0,0,0,0,-1,1966,1394,24.1989,-0.780041
749,-370,0,0,0,0,0,0,0,0,0,-1,1973,1394,0,0
756,-370,0,0,0,0,0,0,0,0,0,-1,1980,1394,0,0
763,-370,0,0,0,0,0,0,0,0,0,-1,1987,1394,0,0
770,-370,0,0,0,0,0,0,0,0,0,-1,1994,1394,0,0
777,-370,0,0,0,0,0,0,0,0,0,-1,2001,1394,0,0
784,-370,0,0,0,0,0,0,0,0,0,-1,2008,1394,0,0
791,-370,0,0,0,0,0,0,0,0,0,-1,2015,1394,0,0
798,-370,0,0,0,0,0,0,0,0,0,-1,2022,1394,0,0
805,-370,0,0,0,0,0,0,0,0,0,-1,2029,1394,0,0
812,-370,0,0,0,0,0,0,0,0,0,-1,2036,1394,0,0
-700,-377,0,0,0,0,0,0,0,0,0,-1,524,1401,0,0
-693,-377,0,0,0,0,0,0,0,0,0,-1,531,1401,0,0
-686,-377,0,0,0,0,0,0,0,0,0,-1,538,1401,0,0
-679,-377,0,0,0,0,0,0,0,0,0,-1,545,1401,0,0
-672,-377,0,0,0,0,0,0,0,0,0,-1,552,1401,0,0
-665,-377,0,0,0,0,0,0,0,0,0,-1,559,1401,0,0
-658,-377,0,0,0,0,0,0,0,0,0,-1,566,1401,0,0
-651,-377,0,0,0,0,0,0,0,0,0,-1,573,1401,0,0
-644,-377,0,0,0,0,0,0,0,0,0,-1,580,1401,0,0
-637,-377,0,0,0,0,0,0,0,0,0,-1,587,1401,0,0
-630,-377,0,0,0,0,0,0,0,0,0,-1,594,1401,0,0
-623,-377,0,0,0,0,0,0,0,0,0,-1,601,1401,0,0
-616,-377,-9.43915,-2.4906,0,0,0,0,0,0,0,-1,608,1401,-9.43915,2.49062
-609,-377,-7.2821,-1.35278,0,0,0,0,0,0,0,-1,615,1401,-7.28208,1.35279
-602,-377,-14.9736,3.98279,0,0,0,0,0,0,0,-1,622,1401,-14.9737,-3.98276
-595,-377,-6.9082,1.18201,0,0,0,0,0,0,0,-1,629,1401,-6.90822,-1.18204
-588,-377,-11.5301,5.19727,0,0,0,0,0,0,0,-1,636,1401,-11.5301,-5.1973
-581,-377,-11.1068,6.05823,0,0,0,0,0,0,0,-1,643,1401,-11.1067,-6.05825
-574,-377,-11.3456,6.54871,0,0,0,0,0,0,0,-1,650,1401,-11.3456,-6.54873
-567,-377,-11.5668,6.9259,-0.00795674,-0.00436009,-0.00444233,-0.00136589,-0.0109509,-0.977724,0.0068906,0.043727,657,1401,-11.5668,-6.92587
-560,-377,-11.9525,7.16589,-0.00601801,-0.00318148,-0.00339584,-0.000919639,-0.00827985,-0.983212,0.00524032,0.0417427,664,1401,-11.9524,-7.16594
-553,-377,-11.8203,7.55542,-0.00406661,-0.00222006,-0.00236883,-0.000600936,-0.00568573,-0.971222,0.0036069,0.0144835,671,1401,-11.8203,-7.55543
-546,-377,-11.8276,8.1239,-0.00228796,-0.00142476,-0.00138002,-0.000410427,-0.00330229,-0.936953,0.00207827,0.0166489,678,1401,-11.8276,-8.1239
-539,-377,-11.8146,8.55957,-0.000636193,-0.000752396,-0.000466564,-0.000224127,-0.00116446,-0.723452,0.000713432,0.0216139,685,1401,-11.8146,-8.55954
-532,-377,-11.8572,9.0094,0.00097446,-0.000127348,0.000440505,0.00112892,-0.00028181,0.33725,0.000862044,0.0211682,692,1401,-11.8573,-9.00944
-525,-377,-11.8273,9.51843,0.0026111,0.000523034,0.00140877,0.00332054,-0.000186399,0.466509,0.00227837,0.021293,699,1401,-11.8273,-9.51841
-518,-377,-11.8782,9.99316,0.00430877,0.00124847,0.0024681,0.00568256,-0.000125326,0.507912,0.00383083,0.013921,706,1401,-11.8782,-9.99317
-511,-377,-11.8908,10.48,0.00602455,0.00206079,0.00363202,0.00818023,-9.48906e-05,0.535642,0.00548539,0.0111592,713,1401,-11.8908,-10.4799
-504,-377,-11.9099,10.9773,0.00791966,0.00303375,0.00502877,0.0110675,-0.000114051,0.559288,0.00741661,0.014248,720,1401,-11.9098,-10.9773
-497,-377,-11.9027,11.4481,0,0,0,0,0,0,0,-1,727,1401,-11.9027,-11.4481
-490,-377,-8.88409,10.1245,0,0,0,0,0,0,0,-1,734,1401,-8.8841,-10.1245
-483,-377,-5.6524,5.07324,0,0,0,0,0,0,0,-1,741,1401,-5.6524,-5.07325
-476,-377,-6.11682,5.10535,0,0,0,0,0,0,0,-1,748,1401,-6.11681,-5.10537
-469,-377,-10.3211,1.9281,0,0,0,0,0,0,0,-1,755,1401,-10.3211,-1.92808
-462,-377,-9.2204,1.0022,0,0,0,0,0,0,0,-1,762,1401,-9.22039,-1.00218
-455,-377,-8.11969,0.0762939,0,0,0,0,0,0,0,-1,769,1401,-8.11968,-0.0762759
-448,-377,-9.05334,0.877319,0,0,0,0,0,0,0,-1,776,1401,-9.05332,-0.877324
-441,-377,-11.212,0.763428,0,0,0,0,0,0,0,-1,783,1401,-11.212,-0.763415
-434,-377,-11.0984,0.996216,0,0,0,0,0,0,0,-1,790,1401,-11.0984,-0.996265
-427,-377,-11.1733,1.25732,0,0,0,0,0,0,0,-1,797,1401,-11.1733,-1.25732
-420,-377,0,0,0,0,0,0,0,0,0,-1,804,1401,0,0
-413,-377,0,0,0,0,0,0,0,0,0,-1,811,1401,0,0
-406,-377,0,0,0,0,0,0,0,0,0,-1,818,1401,0,0
-399,-377,0,0,0,0,0,0,0,0,0,-1,825,1401,0,0
-392,-377,0,0,0,0,0,0,0,0,0,-1,832,1401,0,0
-385,-377,0,0,0,0,0,0,0,0,0,-1,839,1401,0,0
-378,-377,0,0,0,0,0,0,0,0,0,-1,846,1401,0,0
-371,-377,0,0,0,0,0,0,0,0,0,-1,853,1401,0,0
-364,-377,0,0,0,0,0,0,0,0,0,-1,860,1401,0,0
-357,-377,0,0,0,0,0,0,0,0,0,-1,867,1401,0,0
-350,-377,0,0,0,0,0,0,0,0,0,-1,874,1401,0,0
-343,-377,0,0,0,0,0,0,0,0,0,-1,881,1401,0,0
-336,-377,0,0,0,0,0,0,0,0,0,-1,888,1401,0,0
-329,-377,0,0,0,0,0,0,0,0,0,-1,895,1401,0,0
-322,-377,0,0,0,0,0,0,0,0,0,-1,902,1401,0,0
-315,-377,0,0,0,0,0,0,0,0,0,-1,909,1401,0,0
-308,-377,0,0,0,0,0,0,0,0,0,-1,916,1401,0,0
-301,-377,0,0,0,0,0,0,0,0,0,-1,923,1401,0,0
-294,-377,0,0,0,0,0,0,0,0,0,-1,930,1401,0,0
-287,-377,0,0,0,0,0,0,0,0,0,-1,937,1401,0,0
-280,-377,0,0,0,0,0,0,0,0,0,-1,944,1401,0,0
-273,-377,0,0,0,0,0,0,0,0,0,-1,951,1401,0,0
-266,-377,0,0,0,0,0,0,0,0,0,-1,958,1401,0,0
-259,-377,0,0,0,0,0,0,0,0,0,-1,965,1401,0,0
-252,-377,0,0,0,0,0,0,0,0,0,-1,972,1401,0,0
-245,-377,0,0,0,0,0,0,0,0,0,-1,979,1401,0,0
-238,-377,0,0,0,0,0,0,0,0,0,-1,986,1401,0,0
-231,-377,0,0,0,0,0,0,0,0,0,-1,993,1401,0,0
-224,-377,0,0,0,0,0,0,0,0,0,-1,1000,1401,0,0
-217,-377,0,0,0,0,0,0,0,0,0,-1,1007,1401,0,0
-210,-377,0,0,0,0,0,0,0,0,0,-1,1014,1401,0,0
-203,-377,0,0,0,0,0,0,0,0,0,-1,1021,1401,0,0
-196,-377,0,0,0,0,0,0,0,0,0,-1,1028,1401,0,0
-189,-377,0,0,0,0,0,0,0,0,0,-1,1035,1401,0,0
-182,-377,0,0,0,0,0,0,0,0,0,-1,1042,1401,0,0
-175,-377,0,0,0,0,0,0,0,0,0,-1,1049,1401,0,0
-168,-377,0,0,0,0,0,0,0,0,0,-1,1056,1401,0,0
-161,-377,0,0,0,0,0,0,0,0,0,-1,1063,1401,0,0
-154,-377,0,0,0,0,0,0,0,0,0,-1,1070,1401,0,0
-147,-377,0,0,0,0,0,0,0,0,0,-1,1077,1401,0,0
-140,-377,0,0,0,0,0,0,0,0,0,-1,1084,1401,0,0
-133,-377,0,0,0,0,0,0,0,0,0,-1,1091,1401,0,0
-126,-377,0,0,0,0,0,0,0,0,0,-1,1098,1401,0,0
-119,-377,0,0,0,0,0,0,0,0,0,-1,1105,1401,0,0
-112,-377,0,0,0,0,0,0,0,0,0,-1,1112,1401,0,0
-105,-377,0,0,0,0,0,0,0,0,0,-1,1119,1401,0,0
-98,-377,0,0,0,0,0,0,0,0,0,-1,1126,1401,0,0
-91,-377,0,0,0,0,0,0,0,0,0,-1,1133,1401,0,0
-84,-377,0,0,0,0,0,0,0,0,0,-1,1140,1401,0,0
-77,-377,0,0,0,0,0,0,0,0,0,-1,1147,1401,0,0
-70,-377,0,0,0,0,0,0,0,0,0,-1,1154,1401,0,0
-63,-377,0,0,0,0,0,0,0,0,0,-1,1161,1401,0,0
-56,-377,0,0,0,0,0,0,0,0,0,-1,1168,1401,0,0
-49,-377,0,0,0,0,0,0,0,0,0,-1,1175,1401,0,0
-42,-377,0,0,0,0,0,0,0,0,0,-1,1182,1401,0,0
-35,-377,0,0,0,0,0,0,0,0,0,-1,1189,1401,0,0
-28,-377,0,0,0,0,0,0,0,0,0,-1,1196,1401,0,0
-21,-377,0,0,0,0,0,0,0,0,0,-1,1203,1401,0,0
-14,-377,0,0,0,0,0,0,0,0,0,-1,1210,1401,0,0
-7,-377,0,0,0,0,0,0,0,0,0,-1,1217,1401,0,0
0,-377,0,0,0,0,0,0,0,0,0,-1,1224,1401,0,0
7,-377,0,0,0,0,0,0,0,0,0,-1,1231,1401,0,0
14,-377,0,0,0,0,0,0,0,0,0,-1,1238,1401,0,0
21,-377,0,0,0,0,0,0,0,0,0,-1,1245,1401,0,0
28,-377,0,0,0,0,0,0,0,0,0,-1,1252,1401,0,0
35,-377,0,0,0,0,0,0,0,0,0,-1,1259,1401,0,0
42,-377,0,0,0,0,0,0,0,0,0,-1,1266,1401,0,0
49,-377,0,0,0,0,0,0,0,0,0,-1,1273,1401,0,0
56,-377,0,0,0,0,0,0,0,0,0,-1,1280,1401,0,0
63,-377,0,0,0,0,0,0,0,0,0,-1,1287,1401,0,0
70,-377,0,0,0,0,0,0,0,0,0,-1,1294,1401,0,0
77,-377,0,0,0,0,0,0,0,0,0,-1,1301,1401,0,0
84,-377,0,0,0,0,0,0,0,0,0,-1,1308,1401,0,0
91,-377,0,0,0,0,0,0,0,0,0,-1,1315,1401,0,0
98,-377,0,0,0,0,0,0,0,0,0,-1,1322,1401,0,0
105,-377,0,0,0,0,0,0,0,0,0,-1,1329,1401,0,0
112,-377,0,0,0,0,0,0,0,0,0,-1,1336,1401,0,0
119,-377,0,0,0,0,0,0,0,0,0,-1,1343,1401,0,0
126,-377,0,0,0,0,0,0,0,0,0,-1,1350,1401,0,0
133,-377,0,0,0,0,0,0,0,0,0,-1,1357,1401,0,0
140,-377,0,0,0,0,0,0,0,0,0,-1,1364,1401,0,0
147,-377,0,0,0,0,0,0,0,0,0,-1,1371,1401,0,0
154,-377,0,0,0,0,0,0,0,0,0,-1,1378,1401,0,0
161,-377,0,0,0,0,0,0,0,0,0,-1,1385,1401,0,0
168,-377,0,0,0,0,0,0,0,0,0,-1,1392,1401,0,0
175,-377,0,0,0,0,0,0,0,0,0,-1,1399,1401,0,0
182,-377,0,0,0,0,0,0,0,0,0,-1,1406,1401,0,0
189,-377,0,0,0,0,0,0,0,0,0,-1,1413,1401,0,0
196,-377,0,0,0,0,0,0,0,0,0,-1,1420,1401,0,0
203,-377,0,0,0,0,0,0,0,0,0,-1,1427,1401,0,0
210,-377,0,0,0,0,0,0,0,0,0,-1,1434,1401,0,0
217,-377,0,0,0,0,0,0,0,0,0,-1,1441,1401,0,0
224,-377,0,0,0,0,0,0,0,0,0,-1,1448,1401,0,0
231,-377,0,0,0,0,0,0,0,0,0,-1,1455,1401,0,0
238,-377,0,0,0,0,0,0,0,0,0,-1,1462,1401,0,0
245,-377,0,0,0,0,0,0,0,0,0,-1,1469,1401,0,0
252,-377,0,0,0,0,0,0,0,0,0,-1,1476,1401,0,0
259,-377,0,0,0,0,0,0,0,0,0,-1,1483,1401,0,0
266,-377,0,0,0,0,0,0,0,0,0,-1,1490,1401,0,0
273,-377,0,0,0,0,0,0,0,0,0,-1,1497,1401,0,0
280,-377,0,0,0,0,0,0,0,0,0,-1,1504,1401,0,0
287,-377,0,0,0,0,0,0,0,0,0,-1,1511,1401,0,0
294,-377,0,0,0,0,0,0,0,0,0,-1,1518,1401,0,0
301,-377,0,0,0,0,0,0,0,0,0,-1,1525,1401,0,0
308,-377,0,0,0,0,0,0,0,0,0,-1,1532,1401,0,0
315,-377,0,0,0,0,0,0,0,0,0,-1,1539,1401,0,0
322,-377,0,0,0,0,0,0,0,0,0,-1,1546,1401,0,0
329,-377,0,0,0,0,0,0,0,0,0,-1,1553,1401,0,0
336,-377,0,0,0,0,0,0,0,0,0,-1,1560,1401,0,0
343,-377,0,0,0,0,0,0,0,0,0,-1,1567,1401,0,0
350,-377,0,0,0,0,0,0,0,0,0,-1,1574,1401,0,0
357,-377,0,0,0,0,0,0,0,0,0,-1,1581,1401,0,0
364,-377,0,0,0,0,0,0,0,0,0,-1,1588,1401,0,0
371,-377,0,0,0,0,0,0,0,0,0,-1,1595,1401,0,0
378,-377,0,0,0,0,0,0,0,0,0,-1,1602,1401,0,0
385,-377,0,0,0,0,0,0,0,0,0,-1,1609,1401,0,0
392,-377,0,0,0,0,0,0,0,0,0,-1,1616,1401,0,0
399,-377,0,0,0,0,0,0,0,0,0,-1,1623,1401,0,0
406,-377,0,0,0,0,0,0,0,0,0,-1,1630,1401,0,0
413,-377,0,0,0,0,0,0,0,0,0,-1,1637,1401,0,0
420,-377,0,0,0,0,0,0,0,0,0,-1,1644,1401,0,0
427,-377,0,0,0,0,0,0,0,0,0,-1,1651,1401,0,0
434,-377,0,0,0,0,0,0,0,0,0,-1,1658,1401,0,0
441,-377,0,0,0,0,0,0,0,0,0,-1,1665,1401,0,0
448,-377,0,0,0,0,0,0,0,0,0,-1,1672,1401,0,0
455,-377,0,0,0,0,0,0,0,0,0,-1,1679,1401,0,0
462,-377,0,0,0,0,0,0,0,0,0,-1,1686,1401,0,0
469,-377,0,0,0,0,0,0,0,0,0,-1,1693,1401,0,0
476,-377,0,0,0,0,0,0,0,0,0,-1,1700,1401,0,0
483,-377,0,0,0,0,0,0,0,0,0,-1,1707,1401,0,0
490,-377,0,0,0,0,0,0,0,0,0,-1,1714,1401,0,0
497,-377,0,0,0,0,0,0,0,0,0,-1,1721,1401,0,0
504,-377,0,0,0,0,0,0,0,0,0,-1,1728,1401,0,0
511,-377,0,0,0,0,0,0,0,0,0,-1,1735,1401,0,0
518,-377,0,0,0,0,0,0,0,0,0,-1,1742,1401,0,0
525,-377,0,0,0,0,0,0,0,0,0,-1,1749,1401,0,0
532,-377,0,0,0,0,0,0,0,0,0,-1,1756,1401,0,0
539,-377,0,0,0,0,0,0,0,0,0,-1,1763,1401,0,0
546,-377,27.8485,2.34094,0,0,0,0,0,0,0,-1,1770,1401,27.8486,-2.34091
553,-377,27.2189,2.42493,0,0,0,0,0,0,0,-1,1777,1401,27.2188,-2.42498
560,-377,38.3577,-2.15015,0,0,0,0,0,0,0,-1,1784,1401,38.3576,2.1501
567,-377,38.4889,-0.285645,0,0,0,0,0,0,0,-1,1791,1401,38.4889,0.2857
574,-377,38.6221,1.61694,0,0,0,0,0,0,0,-1,1798,1401,38.6221,-1.61689
581,-377,39.1818,3.76367,0,0,0,0,0,0,0,-1,1805,1401,39.1818,-3.76366
588,-377,25.882,4.35217,0,0,0,0,0,0,0,-1,1812,1401,25.8819,-4.3522
595,-377,25.5392,5.11804,0,0,0,0,0,0,0,-1,1819,1401,25.5392,-5.11808
602,-377,24.816,5.79126,0,0,0,0,0,0,0,-1,1826,1401,24.816,-5.79124
609,-377,15.0223,4.76135,0,0,0,0,0,0,0,-1,1833,1401,15.0224,-4.76129
616,-377,14.1842,5.78992,0,0,0,0,0,0,0,-1,1840,1401,14.1842,-5.78987
623,-377,15.8248,8.76721,0,0,0,0,0,0,0,-1,1847,1401,15.8248,-8.76725
630,-377,24.9602,13.4523,0,0,0,0,0,0,0,-1,1854,1401,24.9602,-13.4523
637,-377,25.2194,12.7936,-0.00149408,0.000739878,0.00953764,0.00922572,-0.00997992,0.843689,0.0110912,0.0290521,1861,1401,25.2193,-12.7935
644,-377,25.2898,12.3195,-0.000636747,0.00140825,0.00379673,0.00431776,-0.00354625,0.916933,0.00454757,0.0123732,1868,1401,25.2897,-12.3194
651,-377,25.2833,11.8595,-0.000160112,0.00128892,0.00114407,0.00191859,-0.000789785,1.06766,0.00160832,0.0131114,1875,1401,25.2833,-11.8594
658,-377,25.2802,11.4386,0.000207973,-0.000262558,0.000559599,0.00057975,-0.000634335,0.586406,0.000701188,0.0143848,1882,1401,25.2802,-11.4386
665,-377,25.2686,10.9899,0.000538836,-0.000685051,0.00060596,0.000788091,-0.000934306,0.390242,0.00099562,0.0178262,1889,1401,25.2686,-10.9899
672,-377,25.2599,10.5438,0.000884068,-0.00107089,0.00103743,0.00133197,-0.0015188,0.407571,0.00164707,0.0189794,1896,1401,25.2599,-10.5438
679,-377,25.2224,10.1376,0.00132023,-0.00150503,0.0015092,0.00197478,-0.00215957,0.409218,0.00238776,0.018136,1903,1401,25.2224,-10.1376
686,-377,25.2153,9.72766,0.00180013,-0.00206219,0.00207134,0.0027009,-0.00296296,0.410204,0.0032712,0.0154054,1910,1401,25.2153,-9.72762
693,-377,25.2444,9.23108,0.00236035,-0.00267587,0.00267326,0.00351473,-0.00383025,0.407638,0.00424193,0.0148632,1917,1401,25.2444,-9.2311
700,-377,25.218,8.88391,0.00307702,-0.00336475,0.00336934,0.00451731,-0.00480504,0.403961,0.00538311,0.0445716,1924,1401,25.218,-8.88396
707,-377,25.4011,8.48779,0,0,0,0,0,0,0,-1,1931,1401,25.4012,-8.48776
714,-377,16.5369,5.45959,0,0,0,0,0,0,0,-1,1938,1401,16.5369,-5.4596
721,-377,17.0913,5.42529,0,0,0,0,0,0,0,-1,1945,1401,17.0914,-5.42529
728,-377,14.5396,2.79724,0,0,0,0,0,0,0,-1,1952,1401,14.5396,-2.7972
735,-377,23.2977,-0.991089,0,0,0,0,0,0,0,-1,1959,1401,23.2978,0.991076
742,-377,0,0,0,0,0,0,0,0,0,-1,1966,1401,0,0
749,-377,0,0,0,0,0,0,0,0,0,-1,1973,1401,0,0
756,-377,0,0,0,0,0,0,0,0,0,-1,1980,1401,0,0
763,-377,0,0,0,0,0,0,0,0,0,-1,1987,1401,0,0
770,-377,0,0,0,0,0,0,0,0,0,-1,1994,1401,0,0
777,-377,0,0,0,0,0,0,0,0,0,-1,2001,1401,0,0
784,-377,0,0,0,0,0,0,0,0,0,-1,2008,1401,0,0
791,-377,0,0,0,0,0,0,0,0,0,-1,2015,1401,0,0
798,-377,0,0,0,0,0,0,0,0,0,-1,2022,1401,0,0
805,-377,0,0,0,0,0,0,0,0,0,-1,2029,1401,0,0
812,-377,0,0,0,0,0,0,0,0,0,-1,2036,1401,0,0
-700,-384,0,0,0,0,0,0,0,0,0,-1,524,1408,0,0
-693,-384,0,0,0,0,0,0,0,0,0,-1,531,1408,0,0
-686,-384,0,0,0,0,0,0,0,0,0,-1,538,1408,0,0
-679,-384,0,0,0,0,0,0,0,0,0,-1,545,1408,0,0
-672,-384,0,0,0,0,0,0,0,0,0,-1,552,1408,0,0
-665,-384,0,0,0,0,0,0,0,0,0,-1,559,1408,0,0
-658,-384,0,0,0,0,0,0,0,0,0,-1,566,1408,0,0
-651,-384,0,0,0,0,0,0,0,0,0,-1,573,1408,0,0
-644,-384,0,0,0,0,0,0,0,0,0,-1,580,1408,0,0
-637,-384,0,0,0,0,0,0,0,0,0,-1,587,1408,0,0
-630,-384,0,0,0,0,0,0,0,0,0,-1,594,1408,0,0
-623,-384,0,0,0,0,0,0,0,0,0,-1,601,1408,0,0
-616,-384,-10.019,-3.36646,0,0,0,0,0,0,0,-1,608,1408,-10.019,3.36648
-609,-384,-7.72357,-2.3418,0,0,0,0,0,0,0,-1,615,1408,-7.72358,2.34182
-602,-384,-11.7632,-2.85156,0,0,0,0,0,0,0,-1,622,1408,-11.7632,2.85157
-595,-384,-10.2217,2.8855,0,0,0,0,0,0,0,-1,629,1408,-10.2218,-2.88548
-588,-384,-9.71045,2.79968,0,0,0,0,0,0,0,-1,636,1408,-9.71046,-2.79971
-581,-384,-11.669,6.24902,0,0,0,0,0,0,0,-1,643,1408,-11.669,-6.24908
-574,-384,-11.0712,6.5022,0,0,0,0,0,0,0,-1,650,1408,-11.0712,-6.50214
-567,-384,-11.1555,7.01636,0,0,0,0,0,0,0,-1,657,1408,-11.1555,-7.01632
-560,-384,-11.4762,6.99719,0,0,0,0,0,0,0,-1,664,1408,-11.4762,-6.99716
-553,-384,-11.3566,7.57397,-0.00571106,-0.00267468,-0.00304452,-0.000790815,-0.00759493,-1.01669,0.00482135,0.0327313,671,1408,-11.3566,-7.57398
-546,-384,-11.3393,8.12109,-0.00368396,-0.00178263,-0.00198619,-0.000531308,-0.00493527,-1.0086,0.00312816,0.0147589,678,1408,-11.3393,-8.12114
-539,-384,-11.3593,8.57227,-0.00187874,-0.00106755,-0.00105282,-0.000344897,-0.00260139,-0.969259,0.00163149,0.016019,685,1408,-11.3593,-8.57229
-532,-384,-11.3469,8.98901,-0.000187282,-0.000401602,-0.000144194,-0.000114789,-0.000474095,-0.465843,0.000285596,0.0216818,692,1408,-11.3468,-8.98897
-525,-384,-11.3636,9.54224,0.00148524,0.000279935,0.000810866,0.00189288,-0.000127707,0.465824,0.00130657,0.0214914,699,1408,-11.3637,-9.54218
-518,-384,-11.4113,10.0377,0.00316727,0.00102704,0.00184241,0.00422779,-3.34792e-05,0.522299,0.00282975,0.0132552,706,1408,-11.4113,-10.0377
-511,-384,-11.4294,10.5192,0.00489058,0.00192055,0.00301772,0.00676888,4.22541e-05,0.556745,0.00449857,0.0101306,713,1408,-11.4294,-10.5192
-504,-384,-11.4256,11.0068,0.0066857,0.00292694,0.00434004,0.0095358,7.68369e-05,0.581071,0.00633174,0.011089,720,1408,-11.4256,-11.0068
-497,-384,-11.4236,11.49,0,0,0,0,0,0,0,-1,727,1408,-11.4236,-11.49
-490,-384,-10.9857,12.3706,0,0,0,0,0,0,0,-1,734,1408,-10.9857,-12.3706
-483,-384,-6.26471,7.61194,0,0,0,0,0,0,0,-1,741,1408,-6.26469,-7.61191
-476,-384,-6.02734,5.67761,0,0,0,0,0,0,0,-1,748,1408,-6.02736,-5.6776
-469,-384,-10.206,2.63721,0,0,0,0,0,0,0,-1,755,1408,-10.206,-2.6372
-462,-384,-9.04291,1.43542,0,0,0,0,0,0,0,-1,762,1408,-9.04293,-1.43545
-455,-384,-7.87988,0.233765,0,0,0,0,0,0,0,-1,769,1408,-7.87986,-0.233709
-448,-384,-9.35529,7.19226,0,0,0,0,0,0,0,-1,776,1408,-9.35531,-7.19226
-441,-384,-10.4697,1.79004,0,0,0,0,0,0,0,-1,783,1408,-10.4697,-1.79003
-434,-384,-10.6449,0.552246,0,0,0,0,0,0,0,-1,790,1408,-10.6449,-0.552216
-427,-384,-10.968,1.10583,0,0,0,0,0,0,0,-1,797,1408,-10.968,-1.10588
-420,-384,-12.5607,4.54858,0,0,0,0,0,0,0,-1,804,1408,-12.5607,-4.54859
-413,-384,0,0,0,0,0,0,0,0,0,-1,811,1408,0,0
-406,-384,0,0,0,0,0,0,0,0,0,-1,818,1408,0,0
-399,-384,0,0,0,0,0,0,0,0,0,-1,825,1408,0,0
-392,-384,0,0,0,0,0,0,0,0,0,-1,832,1408,0,0
-385,-384,0,0,0,0,0,0,0,0,0,-1,839,1408,0,0
-378,-384,0,0,0,0,0,0,0,0,0,-1,846,1408,0,0
-371,-384,0,0,0,0,0,0,0,0,0,-1,853,1408,0,0
-364,-384,0,0,0,0,0,0,0,0,0,-1,860,1408,0,0
-357,-384,0,0,0,0,0,0,0,0,0,-1,867,1408,0,0
-350,-384,0,0,0,0,0,0,0,0,0,-1,874,1408,0,0
-343,-384,0,0,0,0,0,0,0,0,0,-1,881,1408,0,0
-336,-384,0,0,0,0,0,0,0,0,0,-1,888,1408,0,0
-329,-384,0,0,0,0,0,0,0,0,0,-1,895,1408,0,0
-322,-384,0,0,0,0,0,0,0,0,0,-1,902,1408,0,0
-315,-384,0,0,0,0,0,0,0,0,0,-1,909,1408,0,0
-308,-384,0,0,0,0,0,0,0,0,0,-1,916,1408,0,0
-301,-384,0,0,0,0,0,0,0,0,0,-1,923,1408,0,0
-294,-384,0,0,0,0,0,0,0,0,0,-1,930,1408,0,0
-287,-384,0,0,0,0,0,0,0,0,0,-1,937,1408,0,0
-280,-384,0,0,0,0,0,0,0,0,0,-1,944,1408,0,0
-273,-384,0,0,0,0,0,0,0,0,0,-1,951,1408,0,0
-266,-384,0,0,0,0,0,0,0,0,0,-1,958,1408,0,0
-259,-384,0,0,0,0,0,0,0,0,0,-1,965,1408,0,0
-252,-384,0,0,0,0,0,0,0,0,0,-1,972,1408,0,0
-245,-384,0,0,0,0,0,0,0,0,0,-1,979,1408,0,0
-238,-384,0,0,0,0,0,0,0,0,0,-1,986,1408,0,0
-231,-384,0,0,0,0,0,0,0,0,0,-1,993,1408,0,0
-224,-384,0,0,0,0,0,0,0,0,0,-1,1000,1408,0,0
-217,-384,0,0,0,0,0,0,0,0,0,-1,1007,1408,0,0
-210,-384,0,0,0,0,0,0,0,0,0,-1,1014,1408,0,0
-203,-384,0,0,0,0,0,0,0,0,0,-1,1021,1408,0,0
-196,-384,0,0,0,0,0,0,0,0,0,-1,1028,1408,0,0
-189,-384,0,0,0,0,0,0,0,0,0,-1,1035,1408,0,0
-182,-384,0,0,0,0,0,0,0,0,0,-1,1042,1408,0,0
-175,-384,0,0,0,0,0,0,0,0,0,-1,1049,1408,0,0
-168,-384,0,0,0,0,0,0,0,0,0,-1,1056,1408,0,0
-161,-384,0,0,0,0,0,0,0,0,0,-1,1063,1408,0,0
-154,-384,0,0,0,0,0,0,0,0,0,-1,1070,1408,0,0
-147,-384,0,0,0,0,0,0,0,0,0,-1,1077,1408,0,0
-140,-384,0,0,0,0,0,0,0,0,0,-1,1084,1408,0,0
-133,-384,0,0,0,0,0,0,0,0,0,-1,1091,1408,0,0
-126,-384,0,0,0,0,0,0,0,0,0,-1,1098,1408,0,0
-119,-384,0,0,0,0,0,0,0,0,0,-1,1105,1408,0,0
-112,-384,0,0,0,0,0,0,0,0,0,-1,1112,1408,0,0
-105,-384,0,0,0,0,0,0,0,0,0,-1,1119,1408,0,0
-98,-384,0,0,0,0,0,0,0,0,0,-1,1126,1408,0,0
-91,-384,0,0,0,0,0,0,0,0,0,-1,1133,1408,0,0
-84,-384,0,0,0,0,0,0,0,0,0,-1,1140,1408,0,0
-77,-384,0,0,0,0,0,0,0,0,0,-1,1147,1408,0,0
-70,-384,0,0,0,0,0,0,0,0,0,-1,1154,1408,0,0
-63,-384,0,0,0,0,0,0,0,0,0,-1,1161,1408,0,0
-56,-384,0,0,0,0,0,0,0,0,0,-1,1168,1408,0,0
-49,-384,0,0,0,0,0,0,0,0,0,-1,1175,1408,0,0
-42,-384,0,0,0,0,0,0,0,0,0,-1,1182,1408,0,0
-35,-384,0,0,0,0,0,0,0,0,0,-1,1189,1408,0,0
-28,-384,0,0,0,0,0,0,0,0,0,-1,1196,1408,0,0
-21,-384,0,0,0,0,0,0,0,0,0,-1,1203,1408,0,0
-14,-384,0,0,0,0,0,0,0,0,0,-1,1210,1408,0,0
-7,-384,0,0,0,0,0,0,0,0,0,-1,1217,1408,0,0
0,-384,0,0,0,0,0,0,0,0,0,-1,1224,1408,0,0
7,-384,0,0,0,0,0,0,0,0,0,-1,1231,1408,0,0
14,-384,0,0,0,0,0,0,0,0,0,-1,1238,1408,0,0
21,-384,0,0,0,0,0,0,0,0,0,-1,1245,1408,0,0
28,-384,0,0,0,0,0,0,0,0,0,-1,1252,1408,0,0
35,-384,0,0,0,0,0,0,0,0,0,-1,1259,1408,0,0
42,-384,0,0,0,0,0,0,0,0,0,-1,1266,1408,0,0
49,-384,0,0,0,0,0,0,0,0,0,-1,1273,1408,0,0
56,-384,0,0,0,0,0,0,0,0,0,-1,1280,1408,0,0
63,-384,0,0,0,0,0,0,0,0,0,-1,1287,1408,0,0
70,-384,0,0,0,0,0,0,0,0,0,-1,1294,1408,0,0
77,-384,0,0,0,0,0,0,0,0,0,-1,1301,1408,0,0
84,-384,0,0,0,0,0,0,0,0,0,-1,1308,1408,0,0
91,-384,0,0,0,0,0,0,0,0,0,-1,1315,1408,0,0
98,-384,0,0,0,0,0,0,0,0,0,-1,1322,1408,0,0
105,-384,0,0,0,0,0,0,0,0,0,-1,1329,1408,0,0
112,-384,0,0,0,0,0,0,0,0,0,-1,1336,1408,0,0
119,-384,0,0,0,0,0,0,0,0,0,-1,1343,1408,0,0
126,-384,0,0,0,0,0,0,0,0,0,-1,1350,1408,0,0
133,-384,0,0,0,0,0,0,0,0,0,-1,1357,1408,0,0
140,-384,0,0,0,0,0,0,0,0,0,-1,1364,1408,0,0
147,-384,0,0,0,0,0,0,0,0,0,-1,1371,1408,0,0
154,-384,0,0,0,0,0,0,0,0,0,-1,1378,1408,0,0
161,-384,0,0,0,0,0,0,0,0,0,-1,1385,1408,0,0
168,-384,0,0,0,0,0,0,0,0,0,-1,1392,1408,0,0
175,-384,0,0,0,0,0,0,0,0,0,-1,1399,1408,0,0
182,-384,0,0,0,0,0,0,0,0,0,-1,1406,1408,0,0
189,-384,0,0,0,0,0,0,0,0,0,-1,1413,1408,0,0
196,-384,0,0,0,0,0,0,0,0,0,-1,1420,1408,0,0
203,-384,0,0,0,0,0,0,0,0,0,-1,1427,1408,0,0
210,-384,0,0,0,0,0,0,0,0,0,-1,1434,1408,0,0
217,-384,0,0,0,0,0,0,0,0,0,-1,1441,1408,0,0
224,-384,0,0,0,0,0,0,0,0,0,-1,1448,1408,0,0
231,-384,0,0,0,0,0,0,0,0,0,-1,1455,1408,0,0
238,-384,0,0,0,0,0,0,0,0,0,-1,1462,1408,0,0
245,-384,0,0,0,0,0,0,0,0,0,-1,1469,1408,0,0
252,-384,0,0,0,0,0,0,0,0,0,-1,1476,1408,0,0
259,-384,0,0,0,0,0,0,0,0,0,-1,1483,1408,0,0
266,-384,0,0,0,0,0,0,0,0,0,-1,1490,1408,0,0
273,-384,0,0,0,0,0,0,0,0,0,-1,1497,1408,0,0
280,-384,0,0,0,0,0,0,0,0,0,-1,1504,1408,0,0
287,-384,0,0,0,0,0,0,0,0,0,-1,1511,1408,0,0
294,-384,0,0,0,0,0,0,0,0,0,-1,1518,1408,0,0
301,-384,0,0,0,0,0,0,0,0,0,-1,1525,1408,0,0
308,-384,0,0,0,0,0,0,0,0,0,-1,1532,1408,0,0
315,-384,0,0,0,0,0,0,0,0,0,-1,1539,1408,0,0
322,-384,0,0,0,0,0,0,0,0,0,-1,1546,1408,0,0
329,-384,0,0,0,0,0,0,0,0,0,-1,1553,1408,0,0
336,-384,0,0,0,0,0,0,0,0,0,-1,1560,1408,0,0
343,-384,0,0,0,0,0,0,0,0,0,-1,1567,1408,0,0
350,-384,0,0,0,0,0,0,0,0,0,-1,1574,1408,0,0
357,-384,0,0,0,0,0,0,0,0,0,-1,1581,1408,0,0
364,-384,0,0,0,0,0,0,0,0,0,-1,1588,1408,0,0
371,-384,0,0,0,0,0,0,0,0,0,-1,1595,1408,0,0
378,-384,0,0,0,0,0,0,0,0,0,-1,1602,1408,0,0
385,-384,0,0,0,0,0,0,0,0,0,-1,1609,1408,0,0
392,-384,0,0,0,0,0,0,0,0,0,-1,1616,1408,0,0
399,-384,0,0,0,0,0,0,0,0,0,-1,1623,1408,0,0
406,-384,0,0,0,0,0,0,0,0,0,-1,1630,1408,0,0
413,-384,0,0,0,0,0,0,0,0,0,-1,1637,1408,0,0
420,-384,0,0,0,0,0,0,0,0,0,-1,1644,1408,0,0
427,-384,0,0,0,0,0,0,0,0,0,-1,1651,1408,0,0
434,-384,0,0,0,0,0,0,0,0,0,-1,1658,1408,0,0
441,-384,0,0,0,0,0,0,0,0,0,-1,1665,1408,0,0
448,-384,0,0,0,0,0,0,0,0,0,-1,1672,1408,0,0
455,-384,0,0,0,0,0,0,0,0,0,-1,1679,1408,0,0
462,-384,0,0,0,0,0,0,0,0,0,-1,1686,1408,0,0
469,-384,0,0,0,0,0,0,0,0,0,-1,1693,1408,0,0
476,-384,0,0,0,0,0,0,0,0,0,-1,1700,1408,0,0
483,-384,0,0,0,0,0,0,0,0,0,-1,1707,1408,0,0
490,-384,0,0,0,0,0,0,0,0,0,-1,1714,1408,0,0
497,-384,0,0,0,0,0,0,0,0,0,-1,1721,1408,0,0
504,-384,0,0,0,0,0,0,0,0,0,-1,1728,1408,0,0
511,-384,0,0,0,0,0,0,0,0,0,-1,1735,1408,0,0
518,-384,0,0,0,0,0,0,0,0,0,-1,1742,1408,0,0
525,-384,0,0,0,0,0,0,0,0,0,-1,1749,1408,0,0
532,-384,0,0,0,0,0,0,0,0,0,-1,1756,1408,0,0
539,-384,27.6886,2.85803,0,0,0,0,0,0,0,-1,1763,1408,27.6886,-2.85807
546,-384,27.5044,2.9425,0,0,0,0,0,0,0,-1,1770,1408,27.5044,-2.94255
553,-384,27.3052,2.78394,0,0,0,0,0,0,0,-1,1777,1408,27.3051,-2.78394
560,-384,26.833,3.19812,0,0,0,0,0,0,0,-1,1784,1408,26.833,-3.19816
567,-384,38.2566,0.109985,0,0,0,0,0,0,0,-1,1791,1408,38.2566,-0.110044
574,-384,38.4003,2.05945,0,0,0,0,0,0,0,-1,1798,1408,38.4003,-2.05949
581,-384,25.819,3.91846,0,0,0,0,0,0,0,-1,1805,1408,25.8189,-3.91848
588,-384,23.3721,4.25439,0,0,0,0,0,0,0,-1,1812,1408,23.3721,-4.25442
595,-384,24.981,5.59595,0,0,0,0,0,0,0,-1,1819,1408,24.981,-5.59598
602,-384,20.6605,4.17261,0,0,0,0,0,0,0,-1,1826,1408,20.6606,-4.17265
609,-384,14.158,5.49475,0,0,0,0,0,0,0,-1,1833,1408,14.158,-5.49474
616,-384,14.7997,7.6908,0,0,0,0,0,0,0,-1,1840,1408,14.7996,-7.69079
623,-384,16.4293,9.58899,0,0,0,0,0,0,0,-1,1847,1408,16.4294,-9.58901
630,-384,24.9398,13.1654,0,0,0,0,0,0,0,-1,1854,1408,24.9398,-13.1653
637,-384,24.8774,12.7565,-0.000399064,-0.00148533,0.00229389,0.00141511,-0.00329951,0.669152,0.00279352,0.0200638,1861,1408,24.8775,-12.7565
644,-384,24.8341,12.3431,6.53077e-05,-0.000440781,0.00055152,0.000419063,-0.000794537,0.570319,0.000711763,0.0166281,1868,1408,24.8341,-12.3432
651,-384,24.8124,11.8834,0.000214591,-0.000189863,0.000101774,0.000238757,-0.000214029,0.233128,0.000261546,0.0164002,1875,1408,24.8124,-11.8834
658,-384,24.8124,11.4397,0.000381049,-0.000470429,0.000422307,0.000554974,-0.000644354,0.390676,0.000693073,0.0163011,1882,1408,24.8124,-11.4397
665,-384,24.8268,11.0422,0.000626779,-0.0008408,0.000830075,0.0010009,-0.00121492,0.423445,0.0012813,0.0174321,1889,1408,24.8268,-11.0422
672,-384,24.8157,10.5898,0.00095313,-0.00131273,0.00133286,0.0015695,-0.0019291,0.43315,0.00202347,0.0156827,1896,1408,24.8156,-10.5899
679,-384,24.7775,10.1421,0.0013582,-0.00188025,0.00193098,0.00225901,-0.00278106,0.436494,0.00291508,0.0157938,1903,1408,24.7775,-10.1421
686,-384,24.7708,9.72717,0.00181874,-0.00265903,0.00269463,0.00308323,-0.00392352,0.438757,0.00405504,0.0127569,1910,1408,24.7708,-9.7272
693,-384,24.8129,9.2843,0.00242476,-0.00356174,0.00354876,0.00407405,-0.00521103,0.435055,0.00537413,0.0216789,1917,1408,24.8128,-9.28433
700,-384,24.5302,8.672,0,0,0,0,0,0,0,-1,1924,1408,24.5301,-8.67195
707,-384,17.0566,6.62842,0,0,0,0,0,0,0,-1,1931,1408,17.0567,-6.62848
714,-384,16.038,5.0282,0,0,0,0,0,0,0,-1,1938,1408,16.038,-5.02819
721,-384,13.8843,2.8717,0,0,0,0,0,0,0,-1,1945,1408,13.8843,-2.87171
728,-384,15.4409,6.25745,0,0,0,0,0,0,0,-1,1952,1408,15.4409,-6.2574
735,-384,16.7598,6.71289,0,0,0,0,0,0,0,-1,1959,1408,16.7598,-6.71287
742,-384,0,0,0,0,0,0,0,0,0,-1,1966,1408,0,0
749,-384,0,0,0,0,0,0,0,0,0,-1,1973,1408,0,0
756,-384,0,0,0,0,0,0,0,0,0,-1,1980,1408,0,0
763,-384,0,0,0,0,0,0,0,0,0,-1,1987,1408,0,0
770,-384,0,0,0,0,0,0,0,0,0,-1,1994,1408,0,0
777,-384,0,0,0,0,0,0,0,0,0,-1,2001,1408,0,0
784,-384,0,0,0,0,0,0,0,0,0,-1,2008,1408,0,0
791,-384,0,0,0,0,0,0,0,0,0,-1,2015,1408,0,0
798,-384,0,0,0,0,0,0,0,0,0,-1,2022,1408,0,0
805,-384,0,0,0,0,0,0,0,0,0,-1,2029,1408,0,0
812,-384,0,0,0,0,0,0,0,0,0,-1,2036,1408,0,0
-700,-391,0,0,0,0,0,0,0,0,0,-1,524,1415,0,0
-693,-391,0,0,0,0,0,0,0,0,0,-1,531,1415,0,0
-686,-391,0,0,0,0,0,0,0,0,0,-1,538,1415,0,0
-679,-391,0,0,0,0,0,0,0,0,0,-1,545,1415,0,0
-672,-391,0,0,0,0,0,0,0,0,0,-1,552,1415,0,0
-665,-391,0,0,0,0,0,0,0,0,0,-1,559,1415,0,0
-658,-391,0,0,0,0,0,0,0,0,0,-1,566,1415,0,0
-651,-391,0,0,0,0,0,0,0,0,0,-1,573,1415,0,0
-644,-391,0,0,0,0,0,0,0,0,0,-1,580,1415,0,0
-637,-391,0,0,0,0,0,0,0,0,0,-1,587,1415,0,0
-630,-391,0,0,0,0,0,0,0,0,0,-1,594,1415,0,0
-623,-391,0,0,0,0,0,0,0,0,0,-1,601,1415,0,0
-616,-391,0,0,0,0,0,0,0,0,0,-1,608,1415,0,0
-609,-391,-7.71753,-3.69763,0,0,0,0,0,0,0,-1,615,1415,-7.71751,3.69759
-602,-391,-13.9493,-4.12805,0,0,0,0,0,0,0,-1,622,1415,-13.9493,4.12803
-595,-391,-10.8315,1.76172,0,0,0,0,0,0,0,-1,629,1415,-10.8315,-1.76171
-588,-391,-10.265,2.16431,0,0,0,0,0,0,0,-1,636,1415,-10.265,-2.16431
-581,-391,-10.071,3.51843,0,0,0,0,0,0,0,-1,643,1415,-10.071,-3.51848
-574,-391,-10.627,6.57471,0,0,0,0,0,0,0,-1,650,1415,-10.6269,-6.57472
-567,-391,-10.7366,7.11084,0,0,0,0,0,0,0,-1,657,1415,-10.7366,-7.11083
-560,-391,-10.8463,7.64697,0,0,0,0,0,0,0,-1,664,1415,-10.8463,-7.64694
-553,-391,-10.9166,7.47839,0,0,0,0,0,0,0,-1,671,1415,-10.9166,-7.4784
-546,-391,-10.8755,8.10278,-0.00523298,-0.00197191,-0.00258515,-0.000546029,-0.00665886,-1.06675,0.00426888,0.0135782,678,1415,-10.8755,-8.10276
-539,-391,-10.848,8.58838,-0.00321791,-0.0012544,-0.00161882,-0.0003429,-0.00412941,-1.05798,0.00264606,0.0137265,685,1415,-10.848,-8.58844
-532,-391,-10.8389,9.06934,-0.00141064,-0.000577804,-0.000696432,-0.000182791,-0.00180565,-1.05485,0.0011477,0.0246949,692,1415,-10.8388,-9.06935
-525,-391,-10.8404,9.60291,0.000321565,0.000101215,0.000249437,0.000484075,-6.12961e-05,0.577436,0.000344969,0.0232142,699,1415,-10.8404,-9.60294
-518,-391,-10.9374,10.0638,0.0020132,0.000852562,0.00126239,0.00282227,4.34892e-05,0.569954,0.00186719,0.0146713,706,1415,-10.9374,-10.0639
-511,-391,-10.9376,10.5349,0.00376986,0.00177465,0.00243607,0.00540468,0.000139829,0.591058,0.00355743,0.0124829,713,1415,-10.9376,-10.5349
-504,-391,-10.9356,11.0214,0.00552824,0.00278836,0.00371645,0.0081192,0.000197404,0.608818,0.00534821,0.0111667,720,1415,-10.9356,-11.0213
-497,-391,-10.9335,11.5042,0.00749603,0.00407664,0.00526554,0.0113225,0.000250183,0.62842,0.00746632,0.0124841,727,1415,-10.9335,-11.5041
-490,-391,-10.8627,12.0962,0.00991755,0.00584872,0.0072404,0.0154039,0.00036234,0.648439,0.0101507,0.048121,734,1415,-10.8627,-12.0962
-483,-391,-10.6729,12.8239,0,0,0,0,0,0,0,-1,741,1415,-10.6729,-12.8239
-476,-391,-6.05731,6.85303,0,0,0,0,0,0,0,-1,748,1415,-6.05728,-6.85304
-469,-391,-3.88953,5.0979,0,0,0,0,0,0,0,-1,755,1415,-3.88955,-5.09794
-462,-391,-8.67688,2.03125,0,0,0,0,0,0,0,-1,762,1415,-8.67685,-2.03121
-455,-391,-8.65576,6.46997,0,0,0,0,0,0,0,-1,769,1415,-8.65579,-6.46999
-448,-391,-8.39618,4.38403,0,0,0,0,0,0,0,-1,776,1415,-8.39617,-4.38405
-441,-391,-9.77704,2.5946,0,0,0,0,0,0,0,-1,783,1415,-9.77702,-2.5946
-434,-391,-11.5403,2.12878,0,0,0,0,0,0,0,-1,790,1415,-11.5403,-2.12881
-427,-391,-10.5311,2.50403,0,0,0,0,0,0,0,-1,797,1415,-10.5311,-2.504
-420,-391,-14.7087,1.24365,0,0,0,0,0,0,0,-1,804,1415,-14.7088,-1.24365
-413,-391,0,0,0,0,0,0,0,0,0,-1,811,1415,0,0
-406,-391,0,0,0,0,0,0,0,0,0,-1,818,1415,0,0
-399,-391,0,0,0,0,0,0,0,0,0,-1,825,1415,0,0
-392,-391,0,0,0,0,0,0,0,0,0,-1,832,1415,0,0
-385,-391,0,0,0,0,0,0,0,0,0,-1,839,1415,0,0
-378,-391,0,0,0,0,0,0,0,0,0,-1,846,1415,0,0
-371,-391,0,0,0,0,0,0,0,0,0,-1,853,1415,0,0
-364,-391,0,0,0,0,0,0,0,0,0,-1,860,1415,0,0
-357,-391,0,0,0,0,0,0,0,0,0,-1,867,1415,0,0
-350,-391,0,0,0,0,0,0,0,0,0,-1,874,1415,0,0
-343,-391,0,0,0,0,0,0,0,0,0,-1,881,1415,0,0
-336,-391,0,0,0,0,0,0,0,0,0,-1,888,1415,0,0
-329,-391,0,0,0,0,0,0,0,0,0,-1,895,1415,0,0
-322,-391,0,0,0,0,0,0,0,0,0,-1,902,1415,0,0
-315,-391,0,0,0,0,0,0,0,0,0,-1,909,1415,0,0
-308,-391,0,0,0,0,0,0,0,0,0,-1,916,1415,0,0
-301,-391,0,0,0,0,0,0,0,0,0,-1,923,1415,0,0
-294,-391,0,0,0,0,0,0,0,0,0,-1,930,1415,0,0
-287,-391,0,0,0,0,0,0,0,0,0,-1,937,1415,0,0
-280,-391,0,0,0,0,0,0,0,0,0,-1,944,1415,0,0
-273,-391,0,0,0,0,0,0,0,0,0,-1,951,1415,0,0
-266,-391,0,0,0,0,0,0,0,0,0,-1,958,1415,0,0
-259,-391,0,0,0,0,0,0,0,0,0,-1,965,1415,0,0
-252,-391,0,0,0,0,0,0,0,0,0,-1,972,1415,0,0
-245,-391,0,0,0,0,0,0,0,0,0,-1,979,1415,0,0
-238,-391,0,0,0,0,0,0,0,0,0,-1,986,1415,0,0
-231,-391,0,0,0,0,0,0,0,0,0,-1,993,1415,0,0
-224,-391,0,0,0,0,0,0,0,0,0,-1,1000,1415,0,0
-217,-391,0,0,0,0,0,0,0,0,0,-1,1007,1415,0,0
-210,-391,0,0,0,0,0,0,0,0,0,-1,1014,1415,0,0
-203,-391,0,0,0,0,0,0,0,0,0,-1,1021,1415,0,0
-196,-391,0,0,0,0,0,0,0,0,0,-1,1028,1415,0,0
-189,-391,0,0,0,0,0,0,0,0,0,-1,1035,1415,0,0
-182,-391,0,0,0,0,0,0,0,0,0,-1,1042,1415,0,0
-175,-391,0,0,0,0,0,0,0,0,0,-1,1049,1415,0,0
-168,-391,0,0,0,0,0,0,0,0,0,-1,1056,1415,0,0
-161,-391,0,0,0,0,0,0,0,0,0,-1,1063,1415,0,0
-154,-391,0,0,0,0,0,0,0,0,0,-1,1070,1415,0,0
-147,-391,0,0,0,0,0,0,0,0,0,-1,1077,1415,0,0
-140,-391,0,0,0,0,0,0,0,0,0,-1,1084,1415,0,0
-133,-391,0,0,0,0,0,0,0,0,0,-1,1091,1415,0,0
-126,-391,0,0,0,0,0,0,0,0,0,-1,1098,1415,0,0
-119,-391,0,0,0,0,0,0,0,0,0,-1,1105,1415,0,0
-112,-391,0,0,0,0,0,0,0,0,0,-1,1112,1415,0,0
-105,-391,0,0,0,0,0,0,0,0,0,-1,1119,1415,0,0
-98,-391,0,0,0,0,0,0,0,0,0,-1,1126,1415,0,0
-91,-391,0,0,0,0,0,0,0,0,0,-1,1133,1415,0,0
-84,-391,0,0,0,0,0,0,0,0,0,-1,1140,1415,0,0
-77,-391,0,0,0,0,0,0,0,0,0,-1,1147,1415,0,0
-70,-391,0,0,0,0,0,0,0,0,0,-1,1154,1415,0,0
-63,-391,0,0,0,0,0,0,0,0,0,-1,1161,1415,0,0
-56,-391,0,0,0,0,0,0,0,0,0,-1,1168,1415,0,0
-49,-391,0,0,0,0,0,0,0,0,0,-1,1175,1415,0,0
-42,-391,0,0,0,0,0,0,0,0,0,-1,1182,1415,0,0
-35,-391,0,0,0,0,0,0,0,0,0,-1,1189,1415,0,0
-28,-391,0,0,0,0,0,0,0,0,0,-1,1196,1415,0,0
-21,-391,0,0,0,0,0,0,0,0,0,-1,1203,1415,0,0
-14,-391,0,0,0,0,0,0,0,0,0,-1,1210,1415,0,0
-7,-391,0,0,0,0,0,0,0,0,0,-1,1217,1415,0,0
0,-391,0,0,0,0,0,0,0,0,0,-1,1224,1415,0,0
7,-391,0,0,0,0,0,0,0,0,0,-1,1231,1415,0,0
14,-391,0,0,0,0,0,0,0,0,0,-1,1238,1415,0,0
21,-391,0,0,0,0,0,0,0,0,0,-1,1245,1415,0,0
28,-391,0,0,0,0,0,0,0,0,0,-1,1252,1415,0,0
35,-391,0,0,0,0,0,0,0,0,0,-1,1259,1415,0,0
42,-391,0,0,0,0,0,0,0,0,0,-1,1266,1415,0,0
49,-391,0,0,0,0,0,0,0,0,0,-1,1273,1415,0,0
56,-391,0,0,0,0,0,0,0,0,0,-1,1280,1415,0,0
63,-391,0,0,0,0,0,0,0,0,0,-1,1287,1415,0,0
70,-391,0,0,0,0,0,0,0,0,0,-1,1294,1415,0,0
77,-391,0,0,0,0,0,0,0,0,0,-1,1301,1415,0,0
84,-391,0,0,0,0,0,0,0,0,0,-1,1308,1415,0,0
91,-391,0,0,0,0,0,0,0,0,0,-1,1315,1415,0,0
98,-391,0,0,0,0,0,0,0,0,0,-1,1322,1415,0,0
105,-391,0,0,0,0,0,0,0,0,0,-1,1329,1415,0,0
112,-391,0,0,0,0,0,0,0,0,0,-1,1336,1415,0,0
119,-391,0,0,0,0,0,0,0,0,0,-1,1343,1415,0,0
126,-391,0,0,0,0,0,0,0,0,0,-1,1350,1415,0,0
133,-391,0,0,0,0,0,0,0,0,0,-1,1357,1415,0,0
140,-391,0,0,0,0,0,0,0,0,0,-1,1364,1415,0,0
147,-391,0,0,0,0,0,0,0,0,0,-1,1371,1415,0,0
154,-391,0,0,0,0,0,0,0,0,0,-1,1378,1415,0,0
161,-391,0,0,0,0,0,0,0,0,0,-1,1385,1415,0,0
168,-391,0,0,0,0,0,0,0,0,0,-1,1392,1415,0,0
175,-391,0,0,0,0,0,0,0,0,0,-1,1399,1415,0,0
182,-391,0,0,0,0,0,0,0,0,0,-1,1406,1415,0,0
189,-391,0,0,0,0,0,0,0,0,0,-1,1413,1415,0,0
196,-391,0,0,0,0,0,0,0,0,0,-1,1420,1415,0,0
203,-391,0,0,0,0,0,0,0,0,0,-1,1427,1415,0,0
210,-391,0,0,0,0,0,0,0,0,0,-1,1434,1415,0,0
217,-391,0,0,0,0,0,0,0,0,0,-1,1441,1415,0,0
224,-391,0,0,0,0,0,0,0,0,0,-1,1448,1415,0,0
231,-391,0,0,0,0,0,0,0,0,0,-1,1455,1415,0,0
238,-391,0,0,0,0,0,0,0,0,0,-1,1462,1415,0,0
245,-391,0,0,0,0,0,0,0,0,0,-1,1469,1415,0,0
252,-391,0,0,0,0,0,0,0,0,0,-1,1476,1415,0,0
259,-391,0,0,0,0,0,0,0,0,0,-1,1483,1415,0,0
266,-391,0,0,0,0,0,0,0,0,0,-1,1490,1415,0,0
273,-391,0,0,0,0,0,0,0,0,0,-1,1497,1415,0,0
280,-391,0,0,0,0,0,0,0,0,0,-1,1504,1415,0,0
287,-391,0,0,0,0,0,0,0,0,0,-1,1511,1415,0,0
294,-391,0,0,0,0,0,0,0,0,0,-1,1518,1415,0,0
301,-391,0,0,0,0,0,0,0,0,0,-1,1525,1415,0,0
308,-391,0,0,0,0,0,0,0,0,0,-1,1532,1415,0,0
315,-391,0,0,0,0,0,0,0,0,0,-1,1539,1415,0,0
322,-391,0,0,0,0,0,0,0,0,0,-1,1546,1415,0,0
329,-391,0,0,0,0,0,0,0,0,0,-1,1553,1415,0,0
336,-391,0,0,0,0,0,0,0,0,0,-1,1560,1415,0,0
343,-391,0,0,0,0,0,0,0,0,0,-1,1567,1415,0,0
350,-391,0,0,0,0,0,0,0,0,0,-1,1574,1415,0,0
357,-391,0,0,0,0,0,0,0,0,0,-1,1581,1415,0,0
364,-391,0,0,0,0,0,0,0,0,0,-1,1588,1415,0,0
371,-391,0,0,0,0,0,0,0,0,0,-1,1595,1415,0,0
378,-391,0,0,0,0,0,0,0,0,0,-1,1602,1415,0,0
385,-391,0,0,0,0,0,0,0,0,0,-1,1609,1415,0,0
392,-391,0,0,0,0,0,0,0,0,0,-1,1616,1415,0,0
399,-391,0,0,0,0,0,0,0,0,0,-1,1623,1415,0,0
406,-391,0,0,0,0,0,0,0,0,0,-1,1630,1415,0,0
413,-391,0,0,0,0,0,0,0,0,0,-1,1637,1415,0,0
420,-391,0,0,0,0,0,0,0,0,0,-1,1644,1415,0,0
427,-391,0,0,0,0,0,0,0,0,0,-1,1651,1415,0,0
434,-391,0,0,0,0,0,0,0,0,0,-1,1658,1415,0,0
441,-391,0,0,0,0,0,0,0,0,0,-1,1665,1415,0,0
448,-391,0,0,0,0,0,0,0,0,0,-1,1672,1415,0,0
455,-391,0,0,0,0,0,0,0,0,0,-1,1679,1415,0,0
462,-391,0,0,0,0,0,0,0,0,0,-1,1686,1415,0,0
469,-391,0,0,0,0,0,0,0,0,0,-1,1693,1415,0,0
476,-391,0,0,0,0,0,0,0,0,0,-1,1700,1415,0,0
483,-391,0,0,0,0,0,0,0,0,0,-1,1707,1415,0,0
490,-391,0,0,0,0,0,0,0,0,0,-1,1714,1415,0,0
497,-391,0,0,0,0,0,0,0,0,0,-1,1721,1415,0,0
504,-391,0,0,0,0,0,0,0,0,0,-1,1728,1415,0,0
511,-391,0,0,0,0,0,0,0,0,0,-1,1735,1415,0,0
518,-391,0,0,0,0,0,0,0,0,0,-1,1742,1415,0,0
525,-391,0,0,0,0,0,0,0,0,0,-1,1749,1415,0,0
532,-391,28.5959,3.02356,0,0,0,0,0,0,0,-1,1756,1415,28.596,-3.02358
539,-391,27.5881,3.25012,0,0,0,0,0,0,0,-1,1763,1415,27.5882,-3.25016
546,-391,27.2837,3.28064,0,0,0,0,0,0,0,-1,1770,1415,27.2837,-3.28064
553,-391,32.5952,5.04553,0,0,0,0,0,0,0,-1,1777,1415,32.5952,-5.04551
560,-391,31.2947,5.67017,0,0,0,0,0,0,0,-1,1784,1415,31.2947,-5.67011
567,-391,30.1473,6.17603,0,0,0,0,0,0,0,-1,1791,1415,30.1473,-6.17602
574,-391,27.5656,5.6842,0,0,0,0,0,0,0,-1,1798,1415,27.5655,-5.68422
581,-391,25.8883,5.76123,0,0,0,0,0,0,0,-1,1805,1415,25.8883,-5.76124
588,-391,24.2717,5.47986,0,0,0,0,0,0,0,-1,1812,1415,24.2717,-5.47982
595,-391,22.8827,6.1991,0,0,0,0,0,0,0,-1,1819,1415,22.8827,-6.19909
602,-391,15.1635,5.69849,0,0,0,0,0,0,0,-1,1826,1415,15.1635,-5.69847
609,-391,14.8285,7.50476,0,0,0,0,0,0,0,-1,1833,1415,14.8285,-7.50479
616,-391,20.7952,12.0503,0,0,0,0,0,0,0,-1,1840,1415,20.7952,-12.0503
623,-391,24.4264,13.5875,0,0,0,0,0,0,0,-1,1847,1415,24.4264,-13.5875
630,-391,24.5432,13.1201,0.000635238,0.000709985,-0.00043418,0.0011084,0.000236826,-0.828332,0.000674004,0.0340982,1854,1415,24.5432,-13.1201
637,-391,24.4403,12.7434,0.000497236,0.00033741,-0.000295703,0.000723633,0.000111012,-0.653427,0.000450006,0.0161224,1861,1415,24.4404,-12.7435
644,-391,24.4149,12.3185,0.00037201,0.000127105,-0.000108925,0.000413446,8.56692e-05,-0.3635,0.000251976,0.0173613,1868,1415,24.415,-12.3185
651,-391,24.3948,11.901,0.000359517,-0.000205866,0.000206229,0.000426747,-0.000273096,0.315132,0.000407288,0.0182044,1875,1415,24.3948,-11.901
658,-391,24.3737,11.4683,0.000414318,-0.000548323,0.000574597,0.000682551,-0.000816557,0.436753,0.000866662,0.0188483,1882,1415,24.3737,-11.4682
665,-391,24.3844,11.0563,0.000549583,-0.0010053,0.00106364,0.00108962,-0.00154534,0.469807,0.00152886,0.0150396,1889,1415,24.3844,-11.0563
672,-391,24.363,10.6162,0.000755095,-0.00157737,0.00168049,0.00163439,-0.00245666,0.482061,0.00237781,0.012554,1896,1415,24.363,-10.6162
679,-391,24.3442,10.1602,0.00101611,-0.00229851,0.00245413,0.00232012,-0.00360252,0.488415,0.00344605,0.0120341,1903,1415,24.3442,-10.1602
686,-391,24.3593,9.72449,0.00128804,-0.0033374,0.0035028,0.00317274,-0.0052221,0.493625,0.00489466,0.0133526,1910,1415,24.3592,-9.7245
693,-391,24.3284,9.4292,0.00166585,-0.00458785,0.00475206,0.00422752,-0.00714952,0.494409,0.00664036,0.0319643,1917,1415,24.3284,-9.42923
700,-391,24.358,9.11853,0,0,0,0,0,0,0,-1,1924,1415,24.3581,-9.1185
707,-391,12.9524,5.96851,0,0,0,0,0,0,0,-1,1931,1415,12.9524,-5.96849
714,-391,15.6875,7.67896,0,0,0,0,0,0,0,-1,1938,1415,15.6875,-7.67893
721,-391,14.1808,8.08435,0,0,0,0,0,0,0,-1,1945,1415,14.1808,-8.08439
728,-391,13.8102,7.28174,0,0,0,0,0,0,0,-1,1952,1415,13.8102,-7.28174
735,-391,0,0,0,0,0,0,0,0,0,-1,1959,1415,0,0
742,-391,0,0,0,0,0,0,0,0,0,-1,1966,1415,0,0
749,-391,0,0,0,0,0,0,0,0,0,-1,1973,1415,0,0
756,-391,0,0,0,0,0,0,0,0,0,-1,1980,1415,0,0
763,-391,0,0,0,0,0,0,0,0,0,-1,1987,1415,0,0
770,-391,0,0,0,0,0,0,0,0,0,-1,1994,1415,0,0
777,-391,0,0,0,0,0,0,0,0,0,-1,2001,1415,0,0
784,-391,0,0,0,0,0,0,0,0,0,-1,2008,1415,0,0
791,-391,0,0,0,0,0,0,0,0,0,-1,2015,1415,0,0
798,-391,0,0,0,0,0,0,0,0,0,-1,2022,1415,0,0
805,-391,0,0,0,0,0,0,0,0,0,-1,2029,1415,0,0
812,-391,0,0,0,0,0,0,0,0,0,-1,2036,1415,0,0
-700,-398,0,0,0,0,0,0,0,0,0,-1,524,1422,0,0
-693,-398,0,0,0,0,0,0,0,0,0,-1,531,1422,0,0
-686,-398,0,0,0,0,0,0,0,0,0,-1,538,1422,0,0
-679,-398,0,0,0,0,0,0,0,0,0,-1,545,1422,0,0
-672,-398,0,0,0,0,0,0,0,0,0,-1,552,1422,0,0
-665,-398,0,0,0,0,0,0,0,0,0,-1,559,1422,0,0
-658,-398,0,0,0,0,0,0,0,0,0,-1,566,1422,0,0
-651,-398,0,0,0,0,0,0,0,0,0,-1,573,1422,0,0
-644,-398,0,0,0,0,0,0,0,0,0,-1,580,1422,0,0
-637,-398,0,0,0,0,0,0,0,0,0,-1,587,1422,0,0
-630,-398,0,0,0,0,0,0,0,0,0,-1,594,1422,0,0
-623,-398,0,0,0,0,0,0,0,0,0,-1,601,1422,0,0
-616,-398,0,0,0,0,0,0,0,0,0,-1,608,1422,0,0
-609,-398,-7.47125,-4.05322,0,0,0,0,0,0,0,-1,615,1422,-7.47128,4.05317
-602,-398,-4.58868,-2.77026,0,0,0,0,0,0,0,-1,622,1422,-4.58869,2.77023
-595,-398,-12.2224,-1.82007,0,0,0,0,0,0,0,-1,629,1422,-12.2224,1.82006
-588,-398,-10.6939,1.32336,0,0,0,0,0,0,0,-1,636,1422,-10.6939,-1.32337
-581,-398,-10.433,3.1123,0,0,0,0,0,0,0,-1,643,1422,-10.433,-3.11233
-574,-398,-11.1109,6.28052,0,0,0,0,0,0,0,-1,650,1422,-11.1109,-6.28048
-567,-398,-10.3395,7.22266,0,0,0,0,0,0,0,-1,657,1422,-10.3396,-7.2227
-560,-398,-10.1741,7.1084,0,0,0,0,0,0,0,-1,664,1422,-10.1741,-7.10838
-553,-398,-10.4487,7.51978,0,0,0,0,0,0,0,-1,671,1422,-10.4486,-7.51978
-546,-398,-10.4256,8.10266,-0.00706322,-0.00209742,-0.00322963,-0.000506591,-0.00865406,-1.11311,0.00560814,0.0237113,678,1422,-10.4256,-8.10267
-539,-398,-10.3746,8.61084,-0.00477867,-0.00139612,-0.00221365,-0.000301597,-0.00587319,-1.1116,0.0038189,0.0119899,685,1422,-10.3747,-8.61085
-532,-398,-10.3792,9.10376,-0.0028145,-0.000734571,-0.00127573,-0.000128629,-0.00342044,-1.12737,0.00223865,0.0200208,692,1422,-10.3791,-9.10381
-525,-398,-10.3755,9.60962,-0.000988422,-8.83418e-05,-0.000347269,3.0065e-05,-0.00110683,-1.24219,0.000748109,0.0194752,699,1422,-10.3755,-9.60961
-518,-398,-10.4067,10.0723,0.000757105,0.000634161,0.000634689,0.00133329,5.79742e-05,0.737122,0.000870181,0.0177424,706,1422,-10.4067,-10.0723
-511,-398,-10.4332,10.5249,0.00254915,0.0015361,0.00177792,0.00389129,0.000193955,0.646627,0.00253202,0.013136,713,1422,-10.4332,-10.5249
-504,-398,-10.4386,11.0313,0.00427775,0.00251913,0.00299482,0.00651968,0.000277202,0.642606,0.00425706,0.0132756,720,1422,-10.4386,-11.0313
-497,-398,-10.4545,11.5092,0.00614194,0.00375385,0.00444856,0.00955392,0.000341872,0.654283,0.00625844,0.0101537,727,1422,-10.4544,-11.5091
-490,-398,-10.4696,11.9869,0.00831732,0.00538116,0.00623877,0.0132584,0.000440067,0.669842,0.00869597,0.0169065,734,1422,-10.4696,-11.987
-483,-398,-10.4492,12.4979,0,0,0,0,0,0,0,-1,741,1422,-10.4491,-12.4979
-476,-398,-8.64392,11.9448,0,0,0,0,0,0,0,-1,748,1422,-8.6439,-11.9448
-469,-398,-8.91699,10.6276,0,0,0,0,0,0,0,-1,755,1422,-8.91697,-10.6275
-462,-398,-9.59753,9.32532,0,0,0,0,0,0,0,-1,762,1422,-9.59753,-9.32531
-455,-398,-8.08331,6.75024,0,0,0,0,0,0,0,-1,769,1422,-8.08333,-6.75022
-448,-398,-7.4505,5.25293,0,0,0,0,0,0,0,-1,776,1422,-7.4505,-5.25291
-441,-398,-7.61639,3.32141,0,0,0,0,0,0,0,-1,783,1422,-7.61637,-3.32145
-434,-398,-10.7618,3.297,0,0,0,0,0,0,0,-1,790,1422,-10.7618,-3.29704
-427,-398,-11.9061,2.24939,0,0,0,0,0,0,0,-1,797,1422,-11.9061,-2.24941
-420,-398,-13.467,2.32788,0,0,0,0,0,0,0,-1,804,1422,-13.467,-2.32787
-413,-398,-14.7983,2.15515,0,0,0,0,0,0,0,-1,811,1422,-14.7983,-2.15516
-406,-398,0,0,0,0,0,0,0,0,0,-1,818,1422,0,0
-399,-398,0,0,0,0,0,0,0,0,0,-1,825,1422,0,0
-392,-398,0,0,0,0,0,0,0,0,0,-1,832,1422,0,0
-385,-398,0,0,0,0,0,0,0,0,0,-1,839,1422,0,0
-378,-398,0,0,0,0,0,0,0,0,0,-1,846,1422,0,0
-371,-398,0,0,0,0,0,0,0,0,0,-1,853,1422,0,0
-364,-398,0,0,0,0,0,0,0,0,0,-1,860,1422,0,0
-357,-398,0,0,0,0,0,0,0,0,0,-1,867,1422,0,0
-350,-398,0,0,0,0,0,0,0,0,0,-1,874,1422,0,0
-343,-398,0,0,0,0,0,0,0,0,0,-1,881,1422,0,0
-336,-398,0,0,0,0,0,0,0,0,0,-1,888,1422,0,0
-329,-398,0,0,0,0,0,0,0,0,0,-1,895,1422,0,0
-322,-398,0,0,0,0,0,0,0,0,0,-1,902,1422,0,0
-315,-398,0,0,0,0,0,0,0,0,0,-1,909,1422,0,0
-308,-398,0,0,0,0,0,0,0,0,0,-1,916,1422,0,0
-301,-398,0,0,0,0,0,0,0,0,0,-1,923,1422,0,0
-294,-398,0,0,0,0,0,0,0,0,0,-1,930,1422,0,0
-287,-398,0,0,0,0,0,0,0,0,0,-1,937,1422,0,0
-280,-398,0,0,0,0,0,0,0,0,0,-1,944,1422,0,0
-273,-398,0,0,0,0,0,0,0,0,0,-1,951,1422,0,0
-266,-398,0,0,0,0,0,0,0,0,0,-1,958,1422,0,0
-259,-398,0,0,0,0,0,0,0,0,0,-1,965,1422,0,0
-252,-398,0,0,0,0,0,0,0,0,0,-1,972,1422,0,0
-245,-398,0,0,0,0,0,0,0,0,0,-1,979,1422,0,0
-238,-398,0,0,0,0,0,0,0,0,0,-1,986,1422,0,0
-231,-398,0,0,0,0,0,0,0,0,0,-1,993,1422,0,0
-224,-398,0,0,0,0,0,0,0,0,0,-1,1000,1422,0,0
-217,-398,0,0,0,0,0,0,0,0,0,-1,1007,1422,0,0
-210,-398,0,0,0,0,0,0,0,0,0,-1,1014,1422,0,0
-203,-398,0,0,0,0,0,0,0,0,0,-1,1021,1422,0,0
-196,-398,0,0,0,0,0,0,0,0,0,-1,1028,1422,0,0
-189,-398,0,0,0,0,0,0,0,0,0,-1,1035,1422,0,0
-182,-398,0,0,0,0,0,0,0,0,0,-1,1042,1422,0,0
-175,-398,0,0,0,0,0,0,0,0,0,-1,1049,1422,0,0
-168,-398,0,0,0,0,0,0,0,0,0,-1,1056,1422,0,0
-161,-398,0,0,0,0,0,0,0,0,0,-1,1063,1422,0,0
-154,-398,0,0,0,0,0,0,0,0,0,-1,1070,1422,0,0
-147,-398,0,0,0,0,0,0,0,0,0,-1,1077,1422,0,0
-140,-398,0,0,0,0,0,0,0,0,0,-1,1084,1422,0,0
-133,-398,0,0,0,0,0,0,0,0,0,-1,1091,1422,0,0
-126,-398,0,0,0,0,0,0,0,0,0,-1,1098,1422,0,0
-119,-398,0,0,0,0,0,0,0,0,0,-1,1105,1422,0,0
-112,-398,0,0,0,0,0,0,0,0,0,-1,1112,1422,0,0
-105,-398,0,0,0,0,0,0,0,0,0,-1,1119,1422,0,0
-98,-398,0,0,0,0,0,0,0,0,0,-1,1126,1422,0,0
-91,-398,0,0,0,0,0,0,0,0,0,-1,1133,1422,0,0
-84,-398,0,0,0,0,0,0,0,0,0,-1,1140,1422,0,0
-77,-398,0,0,0,0,0,0,0,0,0,-1,1147,1422,0,0
-70,-398,0,0,0,0,0,0,0,0,0,-1,1154,1422,0,0
-63,-398,0,0,0,0,0,0,0,0,0,-1,1161,1422,0,0
-56,-398,0,0,0,0,0,0,0,0,0,-1,1168,1422,0,0
-49,-398,0,0,0,0,0,0,0,0,0,-1,1175,1422,0,0
-42,-398,0,0,0,0,0,0,0,0,0,-1,1182,1422,0,0
-35,-398,0,0,0,0,0,0,0,0,0,-1,1189,1422,0,0
-28,-398,0,0,0,0,0,0,0,0,0,-1,1196,1422,0,0
-21,-398,0,0,0,0,0,0,0,0,0,-1,1203,1422,0,0
-14,-398,0,0,0,0,0,0,0,0,0,-1,1210,1422,0,0
-7,-398,0,0,0,0,0,0,0,0,0,-1,1217,1422,0,0
0,-398,0,0,0,0,0,0,0,0,0,-1,1224,1422,0,0
7,-398,0,0,0,0,0,0,0,0,0,-1,1231,1422,0,0
14,-398,0,0,0,0,0,0,0,0,0,-1,1238,1422,0,0
21,-398,0,0,0,0,0,0,0,0,0,-1,1245,1422,0,0
28,-398,0,0,0,0,0,0,0,0,0,-1,1252,1422,0,0
35,-398,0,0,0,0,0,0,0,0,0,-1,1259,1422,0,0
42,-398,0,0,0,0,0,0,0,0,0,-1,1266,1422,0,0
49,-398,0,0,0,0,0,0,0,0,0,-1,1273,1422,0,0
56,-398,0,0,0,0,0,0,0,0,0,-1,1280,1422,0,0
63,-398,0,0,0,0,0,0,0,0,0,-1,1287,1422,0,0
70,-398,0,0,0,0,0,0,0,0,0,-1,1294,1422,0,0
77,-398,0,0,0,0,0,0,0,0,0,-1,1301,1422,0,0
84,-398,0,0,0,0,0,0,0,0,0,-1,1308,1422,0,0
91,-398,0,0,0,0,0,0,0,0,0,-1,1315,1422,0,0
98,-398,0,0,0,0,0,0,0,0,0,-1,1322,1422,0,0
105,-398,0,0,0,0,0,0,0,0,0,-1,1329,1422,0,0
112,-398,0,0,0,0,0,0,0,0,0,-1,1336,1422,0,0
119,-398,0,0,0,0,0,0,0,0,0,-1,1343,1422,0,0
126,-398,0,0,0,0,0,0,0,0,0,-1,1350,1422,0,0
133,-398,0,0,0,0,0,0,0,0,0,-1,1357,1422,0,0
140,-398,0,0,0,0,0,0,0,0,0,-1,1364,1422,0,0
147,-398,0,0,0,0,0,0,0,0,0,-1,1371,1422,0,0
154,-398,0,0,0,0,0,0,0,0,0,-1,1378,1422,0,0
161,-398,0,0,0,0,0,0,0,0,0,-1,1385,1422,0,0
168,-398,0,0,0,0,0,0,0,0,0,-1,1392,1422,0,0
175,-398,0,0,0,0,0,0,0,0,0,-1,1399,1422,0,0
182,-398,0,0,0,0,0,0,0,0,0,-1,1406,1422,0,0
189,-398,0,0,0,0,0,0,0,0,0,-1,1413,1422,0,0
196,-398,0,0,0,0,0,0,0,0,0,-1,1420,1422,0,0
203,-398,0,0,0,0,0,0,0,0,0,-1,1427,1422,0,0
210,-398,0,0,0,0,0,0,0,0,0,-1,1434,1422,0,0
217,-398,0,0,0,0,0,0,0,0,0,-1,1441,1422,0,0
224,-398,0,0,0,0,0,0,0,0,0,-1,1448,1422,0,0
231,-398,0,0,0,0,0,0,0,0,0,-1,1455,1422,0,0
238,-398,0,0,0,0,0,0,0,0,0,-1,1462,1422,0,0
245,-398,0,0,0,0,0,0,0,0,0,-1,1469,1422,0,0
252,-398,0,0,0,0,0,0,0,0,0,-1,1476,1422,0,0
259,-398,0,0,0,0,0,0,0,0,0,-1,1483,1422,0,0
266,-398,0,0,0,0,0,0,0,0,0,-1,1490,1422,0,0
273,-398,0,0,0,0,0,0,0,0,0,-1,1497,1422,0,0
280,-398,0,0,0,0,0,0,0,0,0,-1,1504,1422,0,0
287,-398,0,0,0,0,0,0,0,0,0,-1,1511,1422,0,0
294,-398,0,0,0,0,0,0,0,0,0,-1,1518,1422,0,0
301,-398,0,0,0,0,0,0,0,0,0,-1,1525,1422,0,0
308,-398,0,0,0,0,0,0,0,0,0,-1,1532,1422,0,0
315,-398,0,0,0,0,0,0,0,0,0,-1,1539,1422,0,0
322,-398,0,0,0,0,0,0,0,0,0,-1,1546,1422,0,0
329,-398,0,0,0,0,0,0,0,0,0,-1,1553,1422,0,0
336,-398,0,0,0,0,0,0,0,0,0,-1,1560,1422,0,0
343,-398,0,0,0,0,0,0,0,0,0,-1,1567,1422,0,0
350,-398,0,0,0,0,0,0,0,0,0,-1,1574,1422,0,0
357,-398,0,0,0,0,0,0,0,0,0,-1,1581,1422,0,0
364,-398,0,0,0,0,0,0,0,0,0,-1,1588,1422,0,0
371,-398,0,0,0,0,0,0,0,0,0,-1,1595,1422,0,0
378,-398,0,0,0,0,0,0,0,0,0,-1,1602,1422,0,0
385,-398,0,0,0,0,0,0,0,0,0,-1,1609,1422,0,0
392,-398,0,0,0,0,0,0,0,0,0,-1,1616,1422,0,0
399,-398,0,0,0,0,0,0,0,0,0,-1,1623,1422,0,0
406,-398,0,0,0,0,0,0,0,0,0,-1,1630,1422,0,0
413,-398,0,0,0,0,0,0,0,0,0,-1,1637,1422,0,0
420,-398,0,0,0,0,0,0,0,0,0,-1,1644,1422,0,0
427,-398,0,0,0,0,0,0,0,0,0,-1,1651,1422,0,0
434,-398,0,0,0,0,0,0,0,0,0,-1,1658,1422,0,0
441,-398,0,0,0,0,0,0,0,0,0,-1,1665,1422,0,0
448,-398,0,0,0,0,0,0,0,0,0,-1,1672,1422,0,0
455,-398,0,0,0,0,0,0,0,0,0,-1,1679,1422,0,0
462,-398,0,0,0,0,0,0,0,0,0,-1,1686,1422,0,0
469,-398,0,0,0,0,0,0,0,0,0,-1,1693,1422,0,0
476,-398,0,0,0,0,0,0,0,0,0,-1,1700,1422,0,0
483,-398,0,0,0,0,0,0,0,0,0,-1,1707,1422,0,0
490,-398,0,0,0,0,0,0,0,0,0,-1,1714,1422,0,0
497,-398,0,0,0,0,0,0,0,0,0,-1,1721,1422,0,0
504,-398,0,0,0,0,0,0,0,0,0,-1,1728,1422,0,0
511,-398,0,0,0,0,0,0,0,0,0,-1,1735,1422,0,0
518,-398,0,0,0,0,0,0,0,0,0,-1,1742,1422,0,0
525,-398,0,0,0,0,0,0,0,0,0,-1,1749,1422,0,0
532,-398,28.4558,3.84094,0,0,0,0,0,0,0,-1,1756,1422,28.4558,-3.8409
539,-398,27.0594,3.33887,0,0,0,0,0,0,0,-1,1763,1422,27.0595,-3.3389
546,-398,31.6873,5.58582,0,0,0,0,0,0,0,-1,1770,1422,31.6872,-5.58585
553,-398,30.4392,5.92383,0,0,0,0,0,0,0,-1,1777,1422,30.4392,-5.92386
560,-398,29.1621,6.30469,0,0,0,0,0,0,0,-1,1784,1422,29.1621,-6.30469
567,-398,27.8411,6.55029,0,0,0,0,0,0,0,-1,1791,1422,27.8411,-6.55033
574,-398,26.411,6.8916,0,0,0,0,0,0,0,-1,1798,1422,26.411,-6.8916
581,-398,24.75,7.11145,0,0,0,0,0,0,0,-1,1805,1422,24.7499,-7.11142
588,-398,23.1649,7.67969,0,0,0,0,0,0,0,-1,1812,1422,23.1649,-7.67975
595,-398,21.4253,7.86023,0,0,0,0,0,0,0,-1,1819,1422,21.4253,-7.86029
602,-398,19.6857,8.04077,0,0,0,0,0,0,0,-1,1826,1422,19.6856,-8.04083
609,-398,21.1835,13.2628,0,0,0,0,0,0,0,-1,1833,1422,21.1835,-13.2628
616,-398,23.7377,14.4258,0,0,0,0,0,0,0,-1,1840,1422,23.7377,-14.4257
623,-398,24.0284,13.6567,0,0,0,0,0,0,0,-1,1847,1422,24.0285,-13.6568
630,-398,24.0116,13.2072,0.000787983,0.00072639,-0.000350263,0.0011088,0.000405572,-0.741549,0.00064781,0.01269,1854,1422,24.0116,-13.2071
637,-398,24.0002,12.7556,0.000571981,0.000308205,-0.00015571,0.000644152,0.000236034,-0.43402,0.000376299,0.0146186,1861,1422,24.0002,-12.7556
644,-398,23.9637,12.3629,0.000429517,2.20302e-05,5.99932e-05,0.000438166,1.33811e-05,0.143181,0.000287754,0.0214348,1868,1422,23.9638,-12.3629
651,-398,23.9874,12.0065,0.000418825,-0.000320413,0.000348878,0.000557472,-0.00045906,0.378269,0.000587811,0.0289836,1875,1422,23.9875,-12.0064
658,-398,23.9501,11.5386,0.000439593,-0.000667215,0.000703688,0.000781417,-0.00100904,0.452191,0.0010365,0.0253587,1882,1422,23.95,-11.5386
665,-398,23.9227,11.0559,0.000522692,-0.00113781,0.00120404,0.00115498,-0.0017701,0.483558,0.0017012,0.0164751,1889,1422,23.9227,-11.0559
672,-398,23.9103,10.609,0.000645282,-0.00173689,0.00187119,0.00167231,-0.00276392,0.50197,0.00258697,0.0131489,1896,1422,23.9103,-10.6091
679,-398,23.8938,10.1709,0.000777819,-0.0025425,0.00276161,0.00233986,-0.00410454,0.514763,0.00376689,0.0120056,1903,1422,23.8938,-10.1709
686,-398,23.9136,9.74084,0.000838045,-0.0037793,0.00405383,0.00319451,-0.00613576,0.526551,0.00547533,0.0188778,1910,1422,23.9135,-9.74087
693,-398,23.7806,9.61829,0.000907034,-0.00530473,0.0056681,0.00426442,-0.00866212,0.534761,0.00760575,0.0477412,1917,1422,23.7807,-9.61832
700,-398,23.662,9.57727,0,0,0,0,0,0,0,-1,1924,1422,23.662,-9.57733
707,-398,10.9731,5.479,0,0,0,0,0,0,0,-1,1931,1422,10.9732,-5.47896
714,-398,11.7313,6.17346,0,0,0,0,0,0,0,-1,1938,1422,11.7313,-6.17348
721,-398,13.9371,8.05103,0,0,0,0,0,0,0,-1,1945,1422,13.9372,-8.05102
728,-398,14.786,7.0282,0,0,0,0,0,0,0,-1,1952,1422,14.786,-7.0282
735,-398,0,0,0,0,0,0,0,0,0,-1,1959,1422,0,0
742,-398,0,0,0,0,0,0,0,0,0,-1,1966,1422,0,0
749,-398,0,0,0,0,0,0,0,0,0,-1,1973,1422,0,0
756,-398,0,0,0,0,0,0,0,0,0,-1,1980,1422,0,0
763,-398,0,0,0,0,0,0,0,0,0,-1,1987,1422,0,0
770,-398,0,0,0,0,0,0,0,0,0,-1,1994,1422,0,0
777,-398,0,0,0,0,0,0,0,0,0,-1,2001,1422,0,0
784,-398,0,0,0,0,0,0,0,0,0,-1,2008,1422,0,0
791,-398,0,0,0,0,0,0,0,0,0,-1,2015,1422,0,0
798,-398,0,0,0,0,0,0,0,0,0,-1,2022,1422,0,0
805,-398,0,0,0,0,0,0,0,0,0,-1,2029,1422,0,0
812,-398,0,0,0,0,0,0,0,0,0,-1,2036,1422,0,0
-700,-405,0,0,0,0,0,0,0,0,0,-1,524,1429,0,0
-693,-405,0,0,0,0,0,0,0,0,0,-1,531,1429,0,0
-686,-405,0,0,0,0,0,0,0,0,0,-1,538,1429,0,0
-679,-405,0,0,0,0,0,0,0,0,0,-1,545,1429,0,0
-672,-405,0,0,0,0,0,0,0,0,0,-1,552,1429,0,0
-665,-405,0,0,0,0,0,0,0,0,0,-1,559,1429,0,0
-658,-405,0,0,0,0,0,0,0,0,0,-1,566,1429,0,0
-651,-405,0,0,0,0,0,0,0,0,0,-1,573,1429,0,0
-644,-405,0,0,0,0,0,0,0,0,0,-1,580,1429,0,0
-637,-405,0,0,0,0,0,0,0,0,0,-1,587,1429,0,0
-630,-405,0,0,0,0,0,0,0,0,0,-1,594,1429,0,0
-623,-405,0,0,0,0,0,0,0,0,0,-1,601,1429,0,0
-616,-405,0,0,0,0,0,0,0,0,0,-1,608,1429,0,0
-609,-405,0,0,0,0,0,0,0,0,0,-1,615,1429,0,0
-602,-405,-5.80988,-3.46594,0,0,0,0,0,0,0,-1,622,1429,-5.80987,3.46592
-595,-405,-9.35413,2.01477,0,0,0,0,0,0,0,-1,629,1429,-9.35411,-2.01476
-588,-405,-7.35693,0.507202,0,0,0,0,0,0,0,-1,636,1429,-7.35696,-0.507187
-581,-405,-10.1284,1.62927,0,0,0,0,0,0,0,-1,643,1429,-10.1284,-1.62922
-574,-405,-9.32074,3.05896,0,0,0,0,0,0,0,-1,650,1429,-9.32077,-3.0589
-567,-405,-10.1439,6.53613,0,0,0,0,0,0,0,-1,657,1429,-10.1439,-6.53618
-560,-405,-9.28674,7.20886,0,0,0,0,0,0,0,-1,664,1429,-9.28675,-7.20885
-553,-405,-9.88049,7.59204,0,0,0,0,0,0,0,-1,671,1429,-9.88047,-7.592
-546,-405,-9.90704,8.10791,-0.00907147,-0.00219692,-0.00387476,-0.000454561,-0.0108138,-1.14822,0.00706258,0.0364853,678,1429,-9.90705,-8.10795
-539,-405,-9.92603,8.59277,-0.00640453,-0.0014858,-0.00275273,-0.000253829,-0.00763651,-1.14998,0.00500854,0.0121839,685,1429,-9.92602,-8.59273
-532,-405,-9.92432,9.09363,-0.00420909,-0.000833716,-0.00177403,-7.28392e-05,-0.00496996,-1.16563,0.0032893,0.0147986,692,1429,-9.92431,-9.09368
-525,-405,-9.92706,9.60608,-0.00224008,-0.000238302,-0.000859784,8.02812e-05,-0.00255866,-1.21594,0.00173316,0.0143592,699,1429,-9.92706,-9.60608
-518,-405,-9.93213,10.0839,-0.000414749,0.000427858,8.64174e-05,0.00043663,-0.000423521,1.46964,0.000496627,0.0159148,706,1429,-9.93211,-10.0839
-511,-405,-9.974,10.5509,0.00140376,0.00126535,0.00116961,0.00250621,0.000162897,0.755846,0.00161924,0.0160532,713,1429,-9.97398,-10.5509
-504,-405,-9.9729,11.0452,0.00309065,0.00217491,0.0022884,0.00496653,0.000299026,0.68666,0.00321598,0.017341,720,1429,-9.97287,-11.0451
-497,-405,-9.96661,11.5364,0.00484894,0.00330853,0.00360973,0.00776973,0.00038775,0.68029,0.00505553,0.0144414,727,1429,-9.96664,-11.5364
-490,-405,-9.99847,12.0084,0.00686597,0.00479468,0.00524771,0.0111793,0.000481396,0.687974,0.00729767,0.0129432,734,1429,-9.99845,-12.0084
-483,-405,-9.93311,12.5471,0.00871669,0.00667834,0.00709572,0.0148661,0.000528984,0.71407,0.00973916,0.020359,741,1429,-9.93312,-12.5471
-476,-405,-9.76752,13.2084,0,0,0,0,0,0,0,-1,748,1429,-9.76751,-13.2084
-469,-405,-9.65692,12.8171,0,0,0,0,0,0,0,-1,755,1429,-9.65691,-12.8172
-462,-405,-9.14862,11.3597,0,0,0,0,0,0,0,-1,762,1429,-9.14865,-11.3597
-455,-405,-9.021,9.51111,0,0,0,0,0,0,0,-1,769,1429,-9.021,-9.51109
-448,-405,-8.4649,6.82813,0,0,0,0,0,0,0,-1,776,1429,-8.46492,-6.82817
-441,-405,-6.6712,4.23767,0,0,0,0,0,0,0,-1,783,1429,-6.67121,-4.23764
-434,-405,-9.62549,3.94189,0,0,0,0,0,0,0,-1,790,1429,-9.62546,-3.94191
-427,-405,-10.9764,3.73926,0,0,0,0,0,0,0,-1,797,1429,-10.9764,-3.73923
-420,-405,-12.1187,3.68506,0,0,0,0,0,0,0,-1,804,1429,-12.1187,-3.68512
-413,-405,-13.5353,3.75659,0,0,0,0,0,0,0,-1,811,1429,-13.5353,-3.75655
-406,-405,-14.7374,3.99817,0,0,0,0,0,0,0,-1,818,1429,-14.7374,-3.99814
-399,-405,0,0,0,0,0,0,0,0,0,-1,825,1429,0,0
-392,-405,0,0,0,0,0,0,0,0,0,-1,832,1429,0,0
-385,-405,0,0,0,0,0,0,0,0,0,-1,839,1429,0,0
-378,-405,0,0,0,0,0,0,0,0,0,-1,846,1429,0,0
-371,-405,0,0,0,0,0,0,0,0,0,-1,853,1429,0,0
-364,-405,0,0,0,0,0,0,0,0,0,-1,860,1429,0,0
-357,-405,0,0,0,0,0,0,0,0,0,-1,867,1429,0,0
-350,-405,0,0,0,0,0,0,0,0,0,-1,874,1429,0,0
-343,-405,0,0,0,0,0,0,0,0,0,-1,881,1429,0,0
-336,-405,0,0,0,0,0,0,0,0,0,-1,888,1429,0,0
-329,-405,0,0,0,0,0,0,0,0,0,-1,895,1429,0,0
-322,-405,0,0,0,0,0,0,0,0,0,-1,902,1429,0,0
-315,-405,0,0,0,0,0,0,0,0,0,-1,909,1429,0,0
-308,-405,0,0,0,0,0,0,0,0,0,-1,916,1429,0,0
-301,-405,0,0,0,0,0,0,0,0,0,-1,923,1429,0,0
-294,-405,0,0,0,0,0,0,0,0,0,-1,930,1429,0,0
-287,-405,0,0,0,0,0,0,0,0,0,-1,937,1429,0,0
-280,-405,0,0,0,0,0,0,0,0,0,-1,944,1429,0,0
-273,-405,0,0,0,0,0,0,0,0,0,-1,951,1429,0,0
-266,-405,0,0,0,0,0,0,0,0,0,-1,958,1429,0,0
-259,-405,0,0,0,0,0,0,0,0,0,-1,965,1429,0,0
-252,-405,0,0,0,0,0,0,0,0,0,-1,972,1429,0,0
-245,-405,0,0,0,0,0,0,0,0,0,-1,979,1429,0,0
-238,-405,0,0,0,0,0,0,0,0,0,-1,986,1429,0,0
-231,-405,0,0,0,0,0,0,0,0,0,-1,993,1429,0,0
-224,-405,0,0,0,0,0,0,0,0,0,-1,1000,1429,0,0
-217,-405,0,0,0,0,0,0,0,0,0,-1,1007,1429,0,0
-210,-405,0,0,0,0,0,0,0,0,0,-1,1014,1429,0,0
-203,-405,0,0,0,0,0,0,0,0,0,-1,1021,1429,0,0
-196,-405,0,0,0,0,0,0,0,0,0,-1,1028,1429,0,0
-189,-405,0,0,0,0,0,0,0,0,0,-1,1035,1429,0,0
-182,-405,0,0,0,0,0,0,0,0,0,-1,1042,1429,0,0
-175,-405,0,0,0,0,0,0,0,0,0,-1,1049,1429,0,0
-168,-405,0,0,0,0,0,0,0,0,0,-1,1056,1429,0,0
-161,-405,0,0,0,0,0,0,0,0,0,-1,1063,1429,0,0
-154,-405,0,0,0,0,0,0,0,0,0,-1,1070,1429,0,0
-147,-405,0,0,0,0,0,0,0,0,0,-1,1077,1429,0,0
-140,-405,0,0,0,0,0,0,0,0,0,-1,1084,1429,0,0
-133,-405,0,0,0,0,0,0,0,0,0,-1,1091,1429,0,0
-126,-405,0,0,0,0,0,0,0,0,0,-1,1098,1429,0,0
-119,-405,0,0,0,0,0,0,0,0,0,-1,1105,1429,0,0
-112,-405,0,0,0,0,0,0,0,0,0,-1,1112,1429,0,0
-105,-405,0,0,0,0,0,0,0,0,0,-1,1119,1429,0,0
-98,-405,0,0,0,0,0,0,0,0,0,-1,1126,1429,0,0
-91,-405,0,0,0,0,0,0,0,0,0,-1,1133,1429,0,0
-84,-405,0,0,0,0,0,0,0,0,0,-1,1140,1429,0,0
-77,-405,0,0,0,0,0,0,0,0,0,-1,1147,1429,0,0
-70,-405,0,0,0,0,0,0,0,0,0,-1,1154,1429,0,0
-63,-405,0,0,0,0,0,0,0,0,0,-1,1161,1429,0,0
-56,-405,0,0,0,0,0,0,0,0,0,-1,1168,1429,0,0
-49,-405,0,0,0,0,0,0,0,0,0,-1,1175,1429,0,0
-42,-405,0,0,0,0,0,0,0,0,0,-1,1182,1429,0,0
-35,-405,0,0,0,0,0,0,0,0,0,-1,1189,1429,0,0
-28,-405,0,0,0,0,0,0,0,0,0,-1,1196,1429,0,0
-21,-405,0,0,0,0,0,0,0,0,0,-1,1203,1429,0,0
-14,-405,0,0,0,0,0,0,0,0,0,-1,1210,1429,0,0
-7,-405,0,0,0,0,0,0,0,0,0,-1,1217,1429,0,0
0,-405,0,0,0,0,0,0,0,0,0,-1,1224,1429,0,0
7,-405,0,0,0,0,0,0,0,0,0,-1,1231,1429,0,0
14,-405,0,0,0,0,0,0,0,0,0,-1,1238,1429,0,0
21,-405,0,0,0,0,0,0,0,0,0,-1,1245,1429,0,0
28,-405,0,0,0,0,0,0,0,0,0,-1,1252,1429,0,0
35,-405,0,0,0,0,0,0,0,0,0,-1,1259,1429,0,0
42,-405,0,0,0,0,0,0,0,0,0,-1,1266,1429,0,0
49,-405,0,0,0,0,0,0,0,0,0,-1,1273,1429,0,0
56,-405,0,0,0,0,0,0,0,0,0,-1,1280,1429,0,0
63,-405,0,0,0,0,0,0,0,0,0,-1,1287,1429,0,0
70,-405,0,0,0,0,0,0,0,0,0,-1,1294,1429,0,0
77,-405,0,0,0,0,0,0,0,0,0,-1,1301,1429,0,0
84,-405,0,0,0,0,0,0,0,0,0,-1,1308,1429,0,0
91,-405,0,0,0,0,0,0,0,0,0,-1,1315,1429,0,0
98,-405,0,0,0,0,0,0,0,0,0,-1,1322,1429,0,0
105,-405,0,0,0,0,0,0,0,0,0,-1,1329,1429,0,0
112,-405,0,0,0,0,0,0,0,0,0,-1,1336,1429,0,0
119,-405,0,0,0,0,0,0,0,0,0,-1,1343,1429,0,0
126,-405,0,0,0,0,0,0,0,0,0,-1,1350,1429,0,0
133,-405,0,0,0,0,0,0,0,0,0,-1,1357,1429,0,0
140,-405,0,0,0,0,0,0,0,0,0,-1,1364,1429,0,0
147,-405,0,0,0,0,0,0,0,0,0,-1,1371,1429,0,0
154,-405,0,0,0,0,0,0,0,0,0,-1,1378,1429,0,0
161,-405,0,0,0,0,0,0,0,0,0,-1,1385,1429,0,0
168,-405,0,0,0,0,0,0,0,0,0,-1,1392,1429,0,0
175,-405,0,0,0,0,0,0,0,0,0,-1,1399,1429,0,0
182,-405,0,0,0,0,0,0,0,0,0,-1,1406,1429,0,0
189,-405,0,0,0,0,0,0,0,0,0,-1,1413,1429,0,0
196,-405,0,0,0,0,0,0,0,0,0,-1,1420,1429,0,0
203,-405,0,0,0,0,0,0,0,0,0,-1,1427,1429,0,0
210,-405,0,0,0,0,0,0,0,0,0,-1,1434,1429,0,0
217,-405,0,0,0,0,0,0,0,0,0,-1,1441,1429,0,0
224,-405,0,0,0,0,0,0,0,0,0,-1,1448,1429,0,0
231,-405,0,0,0,0,0,0,0,0,0,-1,1455,1429,0,0
238,-405,0,0,0,0,0,0,0,0,0,-1,1462,1429,0,0
245,-405,0,0,0,0,0,0,0,0,0,-1,1469,1429,0,0
252,-405,0,0,0,0,0,0,0,0,0,-1,1476,1429,0,0
259,-405,0,0,0,0,0,0,0,0,0,-1,1483,1429,0,0
266,-405,0,0,0,0,0,0,0,0,0,-1,1490,1429,0,0
273,-405,0,0,0,0,0,0,0,0,0,-1,1497,1429,0,0
280,-405,0,0,0,0,0,0,0,0,0,-1,1504,1429,0,0
287,-405,0,0,0,0,0,0,0,0,0,-1,1511,1429,0,0
294,-405,0,0,0,0,0,0,0,0,0,-1,1518,1429,0,0
301,-405,0,0,0,0,0,0,0,0,0,-1,1525,1429,0,0
308,-405,0,0,0,0,0,0,0,0,0,-1,1532,1429,0,0
315,-405,0,0,0,0,0,0,0,0,0,-1,1539,1429,0,0
322,-405,0,0,0,0,0,0,0,0,0,-1,1546,1429,0,0
329,-405,0,0,0,0,0,0,0,0,0,-1,1553,1429,0,0
336,-405,0,0,0,0,0,0,0,0,0,-1,1560,1429,0,0
343,-405,0,0,0,0,0,0,0,0,0,-1,1567,1429,0,0
350,-405,0,0,0,0,0,0,0,0,0,-1,1574,1429,0,0
357,-405,0,0,0,0,0,0,0,0,0,-1,1581,1429,0,0
364,-405,0,0,0,0,0,0,0,0,0,-1,1588,1429,0,0
371,-405,0,0,0,0,0,0,0,0,0,-1,1595,1429,0,0
378,-405,0,0,0,0,0,0,0,0,0,-1,1602,1429,0,0
385,-405,0,0,0,0,0,0,0,0,0,-1,1609,1429,0,0
392,-405,0,0,0,0,0,0,0,0,0,-1,1616,1429,0,0
399,-405,0,0,0,0,0,0,0,0,0,-1,1623,1429,0,0
406,-405,0,0,0,0,0,0,0,0,0,-1,1630,1429,0,0
413,-405,0,0,0,0,0,0,0,0,0,-1,1637,1429,0,0
420,-405,0,0,0,0,0,0,0,0,0,-1,1644,1429,0,0
427,-405,0,0,0,0,0,0,0,0,0,-1,1651,1429,0,0
434,-405,0,0,0,0,0,0,0,0,0,-1,1658,1429,0,0
441,-405,0,0,0,0,0,0,0,0,0,-1,1665,1429,0,0
448,-405,0,0,0,0,0,0,0,0,0,-1,1672,1429,0,0
455,-405,0,0,0,0,0,0,0,0,0,-1,1679,1429,0,0
462,-405,0,0,0,0,0,0,0,0,0,-1,1686,1429,0,0
469,-405,0,0,0,0,0,0,0,0,0,-1,1693,1429,0,0
476,-405,0,0,0,0,0,0,0,0,0,-1,1700,1429,0,0
483,-405,0,0,0,0,0,0,0,0,0,-1,1707,1429,0,0
490,-405,0,0,0,0,0,0,0,0,0,-1,1714,1429,0,0
497,-405,0,0,0,0,0,0,0,0,0,-1,1721,1429,0,0
504,-405,0,0,0,0,0,0,0,0,0,-1,1728,1429,0,0
511,-405,0,0,0,0,0,0,0,0,0,-1,1735,1429,0,0
518,-405,0,0,0,0,0,0,0,0,0,-1,1742,1429,0,0
525,-405,31.1563,-1.40942,0,0,0,0,0,0,0,-1,1749,1429,31.1563,1.40937
532,-405,28.156,4.8783,0,0,0,0,0,0,0,-1,1756,1429,28.1561,-4.87833
539,-405,26.5133,3.02454,0,0,0,0,0,0,0,-1,1763,1429,26.5133,-3.0246
546,-405,29.5735,6.53052,0,0,0,0,0,0,0,-1,1770,1429,29.5735,-6.53049
553,-405,28.2911,6.70654,0,0,0,0,0,0,0,-1,1777,1429,28.2912,-6.70656
560,-405,26.9299,7.08472,0,0,0,0,0,0,0,-1,1784,1429,26.9299,-7.08469
567,-405,25.804,7.14661,0,0,0,0,0,0,0,-1,1791,1429,25.8039,-7.14665
574,-405,25.1151,8.07971,0,0,0,0,0,0,0,-1,1798,1429,25.1151,-8.07965
581,-405,23.5055,8.505,0,0,0,0,0,0,0,-1,1805,1429,23.5054,-8.50501
588,-405,21.7491,8.98254,0,0,0,0,0,0,0,-1,1812,1429,21.7491,-8.98254
595,-405,21.6327,10.7795,0,0,0,0,0,0,0,-1,1819,1429,21.6327,-10.7796
602,-405,21.6461,13.9199,0,0,0,0,0,0,0,-1,1826,1429,21.6461,-13.92
609,-405,23.421,14.8318,0,0,0,0,0,0,0,-1,1833,1429,23.4211,-14.8318
616,-405,23.5198,14.2596,0.00211016,0.00208499,-0.00114887,0.00324652,0.000948632,-0.779921,0.00192758,0.0293314,1840,1429,23.5197,-14.2597
623,-405,23.5487,13.7324,0.00141521,0.00122178,-0.000677401,0.00200277,0.000634223,-0.714488,0.00118192,0.0120691,1847,1429,23.5487,-13.7324
630,-405,23.553,13.2535,0.00100873,0.000676378,-0.000367752,0.00124611,0.000438999,-0.573197,0.000729829,0.0104945,1854,1429,23.553,-13.2536
637,-405,23.5454,12.8118,0.000756645,0.000214577,-0.000141634,0.00079142,0.000179801,-0.24077,0.000479062,0.0117293,1861,1429,23.5454,-12.8118
644,-405,23.485,12.4141,0.000589269,-0.000144599,0.000104261,0.000603794,-0.000159124,0.138423,0.000464742,0.0300755,1868,1429,23.485,-12.4141
651,-405,23.453,12.0254,0.000544459,-0.000497073,0.000381539,0.000669269,-0.000621884,0.316152,0.000745615,0.0320477,1875,1429,23.453,-12.0254
658,-405,23.4771,11.5576,0.000496355,-0.000849834,0.000741291,0.000824544,-0.00117802,0.416788,0.00116217,0.0238006,1882,1429,23.477,-11.5577
665,-405,23.4597,11.0673,0.000487675,-0.00131972,0.00126067,0.00113509,-0.00196714,0.47443,0.00181242,0.0190852,1889,1429,23.4597,-11.0672
672,-405,23.474,10.603,0.000475738,-0.00191148,0.00198081,0.00159477,-0.00303051,0.514239,0.00271295,0.0235422,1896,1429,23.474,-10.603
679,-405,23.5067,10.2017,0.00041639,-0.00276593,0.00299379,0.00221559,-0.00456514,0.541139,0.00399243,0.021757,1903,1429,23.5068,-10.2017
686,-405,23.3342,9.77002,0.00016947,-0.00417045,0.00455739,0.00304714,-0.00704811,0.563209,0.00597913,0.0378875,1910,1429,23.3343,-9.76999
693,-405,23.2473,9.79773,0,0,0,0,0,0,0,-1,1917,1429,23.2473,-9.79774
700,-405,9.1958,4.02026,0,0,0,0,0,0,0,-1,1924,1429,9.19579,-4.02025
707,-405,7.40308,3.83191,0,0,0,0,0,0,0,-1,1931,1429,7.40311,-3.83194
714,-405,7.33252,3.47388,0,0,0,0,0,0,0,-1,1938,1429,7.33255,-3.47383
721,-405,9.23523,0.993896,0,0,0,0,0,0,0,-1,1945,1429,9.23523,-0.993884
728,-405,0,0,0,0,0,0,0,0,0,-1,1952,1429,0,0
735,-405,0,0,0,0,0,0,0,0,0,-1,1959,1429,0,0
742,-405,0,0,0,0,0,0,0,0,0,-1,1966,1429,0,0
749,-405,0,0,0,0,0,0,0,0,0,-1,1973,1429,0,0
756,-405,0,0,0,0,0,0,0,0,0,-1,1980,1429,0,0
763,-405,0,0,0,0,0,0,0,0,0,-1,1987,1429,0,0
770,-405,0,0,0,0,0,0,0,0,0,-1,1994,1429,0,0
777,-405,0,0,0,0,0,0,0,0,0,-1,2001,1429,0,0
784,-405,0,0,0,0,0,0,0,0,0,-1,2008,1429,0,0
791,-405,0,0,0,0,0,0,0,0,0,-1,2015,1429,0,0
798,-405,0,0,0,0,0,0,0,0,0,-1,2022,1429,0,0
805,-405,0,0,0,0,0,0,0,0,0,-1,2029,1429,0,0
812,-405,0,0,0,0,0,0,0,0,0,-1,2036,1429,0,0
-700,-412,0,0,0,0,0,0,0,0,0,-1,524,1436,0,0
-693,-412,0,0,0,0,0,0,0,0,0,-1,531,1436,0,0
-686,-412,0,0,0,0,0,0,0,0,0,-1,538,1436,0,0
-679,-412,0,0,0,0,0,0,0,0,0,-1,545,1436,0,0
-672,-412,0,0,0,0,0,0,0,0,0,-1,552,1436,0,0
-665,-412,0,0,0,0,0,0,0,0,0,-1,559,1436,0,0
-658,-412,0,0,0,0,0,0,0,0,0,-1,566,1436,0,0
-651,-412,0,0,0,0,0,0,0,0,0,-1,573,1436,0,0
-644,-412,0,0,0,0,0,0,0,0,0,-1,580,1436,0,0
-637,-412,0,0,0,0,0,0,0,0,0,-1,587,1436,0,0
-630,-412,0,0,0,0,0,0,0,0,0,-1,594,1436,0,0
-623,-412,0,0,0,0,0,0,0,0,0,-1,601,1436,0,0
-616,-412,0,0,0,0,0,0,0,0,0,-1,608,1436,0,0
-609,-412,0,0,0,0,0,0,0,0,0,-1,615,1436,0,0
-602,-412,-3.72766,-3.50012,0,0,0,0,0,0,0,-1,622,1436,-3.72764,3.50017
-595,-412,-10.3706,0.65564,0,0,0,0,0,0,0,-1,629,1436,-10.3706,-0.655672
-588,-412,-8.17957,1.94934,0,0,0,0,0,0,0,-1,636,1436,-8.17956,-1.94939
-581,-412,-6.60065,-0.0554199,0,0,0,0,0,0,0,-1,643,1436,-6.60063,0.0554733
-574,-412,-8.34131,5.25012,0,0,0,0,0,0,0,-1,650,1436,-8.34129,-5.25012
-567,-412,-7.50354,3.65454,0,0,0,0,0,0,0,-1,657,1436,-7.50356,-3.65452
-560,-412,-8.52448,7.39014,0,0,0,0,0,0,0,-1,664,1436,-8.52447,-7.39019
-553,-412,-7.36761,6.54651,0,0,0,0,0,0,0,-1,671,1436,-7.36763,-6.54654
-546,-412,-9.47089,8.06799,0,0,0,0,0,0,0,-1,678,1436,-9.47087,-8.06797
-539,-412,-9.39819,8.5752,-0.00808499,-0.00144962,-0.00326964,-0.000109238,-0.00942538,-1.18174,0.00624749,0.0228835,685,1436,-9.39818,-8.57514
-532,-412,-9.43152,9.12708,-0.00560715,-0.000862448,-0.00223976,2.78032e-05,-0.00649741,-1.19247,0.0043409,0.0135236,692,1436,-9.43152,-9.12708
-525,-412,-9.46478,9.6366,-0.00348246,-0.000364026,-0.00134014,0.000132754,-0.00397924,-1.21581,0.00269817,0.0152702,699,1436,-9.46476,-9.63662
-518,-412,-9.47583,10.0964,-0.00158344,0.000201421,-0.000434548,0.000301595,-0.00168362,-1.34423,0.00123528,0.0168055,706,1436,-9.47586,-10.0964
-511,-412,-9.51056,10.5497,0.00023205,0.000946861,0.000574203,0.0012658,-8.68928e-05,1.06378,0.000874274,0.0194857,713,1436,-9.51053,-10.5497
-504,-412,-9.51172,11.0603,0.00185659,0.00177876,0.00160396,0.0034221,0.000213245,0.77327,0.00221375,0.0192024,720,1436,-9.51174,-11.0603
-497,-412,-9.50806,11.5513,0.00349074,0.00281119,0.00280252,0.00597401,0.000327926,0.725073,0.00387799,0.0154513,727,1436,-9.50806,-11.5512
-490,-412,-9.51154,12.0323,0.00533739,0.00417109,0.0042833,0.00907705,0.000431422,0.717741,0.00591281,0.0126415,734,1436,-9.51155,-12.0324
-483,-412,-9.51428,12.485,0.00712209,0.00586599,0.00597216,0.0124991,0.000488944,0.733009,0.00817465,0.00971813,741,1436,-9.5143,-12.485
-476,-412,-9.37445,13.1416,0.00914075,0.00782567,0.00802522,0.0165353,0.000431094,0.744522,0.0108827,0.0272964,748,1436,-9.37447,-13.1416
-469,-412,-9.2818,13.8151,0,0,0,0,0,0,0,-1,755,1436,-9.28183,-13.8151
-462,-412,-8.94659,13.3385,0,0,0,0,0,0,0,-1,762,1436,-8.94657,-13.3385
-455,-412,-8.25006,11.2572,0,0,0,0,0,0,0,-1,769,1436,-8.25007,-11.2572
-448,-412,-7.38086,8.78186,0,0,0,0,0,0,0,-1,776,1436,-7.38088,-8.78183
-441,-412,-8.79523,9.05286,0,0,0,0,0,0,0,-1,783,1436,-8.79521,-9.0529
-434,-412,-10.6305,8.03577,0,0,0,0,0,0,0,-1,790,1436,-10.6305,-8.0358
-427,-412,-10.0004,5.15271,0,0,0,0,0,0,0,-1,797,1436,-10.0004,-5.15266
-420,-412,-10.4468,4.9043,0,0,0,0,0,0,0,-1,804,1436,-10.4468,-4.90429
-413,-412,-11.5704,4.97766,0,0,0,0,0,0,0,-1,811,1436,-11.5704,-4.97771
-406,-412,-13.1968,5.70093,0,0,0,0,0,0,0,-1,818,1436,-13.1968,-5.70096
-399,-412,-10.5506,0.771973,0,0,0,0,0,0,0,-1,825,1436,-10.5506,-0.771954
-392,-412,0,0,0,0,0,0,0,0,0,-1,832,1436,0,0
-385,-412,0,0,0,0,0,0,0,0,0,-1,839,1436,0,0
-378,-412,0,0,0,0,0,0,0,0,0,-1,846,1436,0,0
-371,-412,0,0,0,0,0,0,0,0,0,-1,853,1436,0,0
-364,-412,0,0,0,0,0,0,0,0,0,-1,860,1436,0,0
-357,-412,0,0,0,0,0,0,0,0,0,-1,867,1436,0,0
-350,-412,0,0,0,0,0,0,0,0,0,-1,874,1436,0,0
-343,-412,0,0,0,0,0,0,0,0,0,-1,881,1436,0,0
-336,-412,0,0,0,0,0,0,0,0,0,-1,888,1436,0,0
-329,-412,0,0,0,0,0,0,0,0,0,-1,895,1436,0,0
-322,-412,0,0,0,0,0,0,0,0,0,-1,902,1436,0,0
-315,-412,0,0,0,0,0,0,0,0,0,-1,909,1436,0,0
-308,-412,0,0,0,0,0,0,0,0,0,-1,916,1436,0,0
-301,-412,0,0,0,0,0,0,0,0,0,-1,923,1436,0,0
-294,-412,0,0,0,0,0,0,0,0,0,-1,930,1436,0,0
-287,-412,0,0,0,0,0,0,0,0,0,-1,937,1436,0,0
-280,-412,0,0,0,0,0,0,0,0,0,-1,944,1436,0,0
-273,-412,0,0,0,0,0,0,0,0,0,-1,951,1436,0,0
-266,-412,0,0,0,0,0,0,0,0,0,-1,958,1436,0,0
-259,-412,0,0,0,0,0,0,0,0,0,-1,965,1436,0,0
-252,-412,0,0,0,0,0,0,0,0,0,-1,972,1436,0,0
-245,-412,0,0,0,0,0,0,0,0,0,-1,979,1436,0,0
-238,-412,0,0,0,0,0,0,0,0,0,-1,986,1436,0,0
-231,-412,0,0,0,0,0,0,0,0,0,-1,993,1436,0,0
-224,-412,0,0,0,0,0,0,0,0,0,-1,1000,1436,0,0
-217,-412,0,0,0,0,0,0,0,0,0,-1,1007,1436,0,0
-210,-412,0,0,0,0,0,0,0,0,0,-1,1014,1436,0,0
-203,-412,0,0,0,0,0,0,0,0,0,-1,1021,1436,0,0
-196,-412,0,0,0,0,0,0,0,0,0,-1,1028,1436,0,0
-189,-412,0,0,0,0,0,0,0,0,0,-1,1035,1436,0,0
-182,-412,0,0,0,0,0,0,0,0,0,-1,1042,1436,0,0
-175,-412,0,0,0,0,0,0,0,0,0,-1,1049,1436,0,0
-168,-412,0,0,0,0,0,0,0,0,0,-1,1056,1436,0,0
-161,-412,0,0,0,0,0,0,0,0,0,-1,1063,1436,0,0
-154,-412,0,0,0,0,0,0,0,0,0,-1,1070,1436,0,0
-147,-412,0,0,0,0,0,0,0,0,0,-1,1077,1436,0,0
-140,-412,0,0,0,0,0,0,0,0,0,-1,1084,1436,0,0
-133,-412,0,0,0,0,0,0,0,0,0,-1,1091,1436,0,0
-126,-412,0,0,0,0,0,0,0,0,0,-1,1098,1436,0,0
-119,-412,0,0,0,0,0,0,0,0,0,-1,1105,1436,0,0
-112,-412,0,0,0,0,0,0,0,0,0,-1,1112,1436,0,0
-105,-412,0,0,0,0,0,0,0,0,0,-1,1119,1436,0,0
-98,-412,0,0,0,0,0,0,0,0,0,-1,1126,1436,0,0
-91,-412,0,0,0,0,0,0,0,0,0,-1,1133,1436,0,0
-84,-412,0,0,0,0,0,0,0,0,0,-1,1140,1436,0,0
-77,-412,0,0,0,0,0,0,0,0,0,-1,1147,1436,0,0
-70,-412,0,0,0,0,0,0,0,0,0,-1,1154,1436,0,0
-63,-412,0,0,0,0,0,0,0,0,0,-1,1161,1436,0,0
-56,-412,0,0,0,0,0,0,0,0,0,-1,1168,1436,0,0
-49,-412,0,0,0,0,0,0,0,0,0,-1,1175,1436,0,0
-42,-412,0,0,0,0,0,0,0,0,0,-1,1182,1436,0,0
-35,-412,0,0,0,0,0,0,0,0,0,-1,1189,1436,0,0
-28,-412,0,0,0,0,0,0,0,0,0,-1,1196,1436,0,0
-21,-412,0,0,0,0,0,0,0,0,0,-1,1203,1436,0,0
-14,-412,0,0,0,0,0,0,0,0,0,-1,1210,1436,0,0
-7,-412,0,0,0,0,0,0,0,0,0,-1,1217,1436,0,0
0,-412,0,0,0,0,0,0,0,0,0,-1,1224,1436,0,0
7,-412,0,0,0,0,0,0,0,0,0,-1,1231,1436,0,0
14,-412,0,0,0,0,0,0,0,0,0,-1,1238,1436,0,0
21,-412,0,0,0,0,0,0,0,0,0,-1,1245,1436,0,0
28,-412,0,0,0,0,0,0,0,0,0,-1,1252,1436,0,0
35,-412,0,0,0,0,0,0,0,0,0,-1,1259,1436,0,0
42,-412,0,0,0,0,0,0,0,0,0,-1,1266,1436,0,0
49,-412,0,0,0,0,0,0,0,0,0,-1,1273,1436,0,0
56,-412,0,0,0,0,0,0,0,0,0,-1,1280,1436,0,0
63,-412,0,0,0,0,0,0,0,0,0,-1,1287,1436,0,0
70,-412,0,0,0,0,0,0,0,0,0,-1,1294,1436,0,0
77,-412,0,0,0,0,0,0,0,0,0,-1,1301,1436,0,0
84,-412,0,0,0,0,0,0,0,0,0,-1,1308,1436,0,0
91,-412,0,0,0,0,0,0,0,0,0,-1,1315,1436,0,0
98,-412,0,0,0,0,0,0,0,0,0,-1,1322,1436,0,0
105,-412,0,0,0,0,0,0,0,0,0,-1,1329,1436,0,0
112,-412,0,0,0,0,0,0,0,0,0,-1,1336,1436,0,0
119,-412,0,0,0,0,0,0,0,0,0,-1,1343,1436,0,0
126,-412,0,0,0,0,0,0,0,0,0,-1,1350,1436,0,0
133,-412,0,0,0,0,0,0,0,0,0,-1,1357,1436,0,0
140,-412,0,0,0,0,0,0,0,0,0,-1,1364,1436,0,0
147,-412,0,0,0,0,0,0,0,0,0,-1,1371,1436,0,0
154,-412,0,0,0,0,0,0,0,0,0,-1,1378,1436,0,0
161,-412,0,0,0,0,0,0,0,0,0,-1,1385,1436,0,0
168,-412,0,0,0,0,0,0,0,0,0,-1,1392,1436,0,0
175,-412,0,0,0,0,0,0,0,0,0,-1,1399,1436,0,0
182,-412,0,0,0,0,0,0,0,0,0,-1,1406,1436,0,0
189,-412,0,0,0,0,0,0,0,0,0,-1,1413,1436,0,0
196,-412,0,0,0,0,0,0,0,0,0,-1,1420,1436,0,0
203,-412,0,0,0,0,0,0,0,0,0,-1,1427,1436,0,0
210,-412,0,0,0,0,0,0,0,0,0,-1,1434,1436,0,0
217,-412,0,0,0,0,0,0,0,0,0,-1,1441,1436,0,0
224,-412,0,0,0,0,0,0,0,0,0,-1,1448,1436,0,0
231,-412,0,0,0,0,0,0,0,0,0,-1,1455,1436,0,0
238,-412,0,0,0,0,0,0,0,0,0,-1,1462,1436,0,0
245,-412,0,0,0,0,0,0,0,0,0,-1,1469,1436,0,0
252,-412,0,0,0,0,0,0,0,0,0,-1,1476,1436,0,0
259,-412,0,0,0,0,0,0,0,0,0,-1,1483,1436,0,0
266,-412,0,0,0,0,0,0,0,0,0,-1,1490,1436,0,0
273,-412,0,0,0,0,0,0,0,0,0,-1,1497,1436,0,0
280,-412,0,0,0,0,0,0,0,0,0,-1,1504,1436,0,0
287,-412,0,0,0,0,0,0,0,0,0,-1,1511,1436,0,0
294,-412,0,0,0,0,0,0,0,0,0,-1,1518,1436,0,0
301,-412,0,0,0,0,0,0,0,0,0,-1,1525,1436,0,0
308,-412,0,0,0,0,0,0,0,0,0,-1,1532,1436,0,0
315,-412,0,0,0,0,0,0,0,0,0,-1,1539,1436,0,0
322,-412,0,0,0,0,0,0,0,0,0,-1,1546,1436,0,0
329,-412,0,0,0,0,0,0,0,0,0,-1,1553,1436,0,0
336,-412,0,0,0,0,0,0,0,0,0,-1,1560,1436,0,0
343,-412,0,0,0,0,0,0,0,0,0,-1,1567,1436,0,0
350,-412,0,0,0,0,0,0,0,0,0,-1,1574,1436,0,0
357,-412,0,0,0,0,0,0,0,0,0,-1,1581,1436,0,0
364,-412,0,0,0,0,0,0,0,0,0,-1,1588,1436,0,0
371,-412,0,0,0,0,0,0,0,0,0,-1,1595,1436,0,0
378,-412,0,0,0,0,0,0,0,0,0,-1,1602,1436,0,0
385,-412,0,0,0,0,0,0,0,0,0,-1,1609,1436,0,0
392,-412,0,0,0,0,0,0,0,0,0,-1,1616,1436,0,0
399,-412,0,0,0,0,0,0,0,0,0,-1,1623,1436,0,0
406,-412,0,0,0,0,0,0,0,0,0,-1,1630,1436,0,0
413,-412,0,0,0,0,0,0,0,0,0,-1,1637,1436,0,0
420,-412,0,0,0,0,0,0,0,0,0,-1,1644,1436,0,0
427,-412,0,0,0,0,0,0,0,0,0,-1,1651,1436,0,0
434,-412,0,0,0,0,0,0,0,0,0,-1,1658,1436,0,0
441,-412,0,0,0,0,0,0,0,0,0,-1,1665,1436,0,0
448,-412,0,0,0,0,0,0,0,0,0,-1,1672,1436,0,0
455,-412,0,0,0,0,0,0,0,0,0,-1,1679,1436,0,0
462,-412,0,0,0,0,0,0,0,0,0,-1,1686,1436,0,0
469,-412,0,0,0,0,0,0,0,0,0,-1,1693,1436,0,0
476,-412,0,0,0,0,0,0,0,0,0,-1,1700,1436,0,0
483,-412,0,0,0,0,0,0,0,0,0,-1,1707,1436,0,0
490,-412,0,0,0,0,0,0,0,0,0,-1,1714,1436,0,0
497,-412,0,0,0,0,0,0,0,0,0,-1,1721,1436,0,0
504,-412,0,0,0,0,0,0,0,0,0,-1,1728,1436,0,0
511,-412,0,0,0,0,0,0,0,0,0,-1,1735,1436,0,0
518,-412,30.1038,-2.43384,0,0,0,0,0,0,0,-1,1742,1436,30.1038,2.43383
525,-412,29.5283,-1.42493,0,0,0,0,0,0,0,-1,1749,1436,29.5283,1.42495
532,-412,28.8533,-0.386597,0,0,0,0,0,0,0,-1,1756,1436,28.8533,0.386632
539,-412,25.8654,2.74683,0,0,0,0,0,0,0,-1,1763,1436,25.8654,-2.74685
546,-412,25.4265,2.4342,0,0,0,0,0,0,0,-1,1770,1436,25.4265,-2.4342
553,-412,26.3595,7.49255,0,0,0,0,0,0,0,-1,1777,1436,26.3595,-7.4925
560,-412,24.9116,7.94324,0,0,0,0,0,0,0,-1,1784,1436,24.9116,-7.94327
567,-412,23.668,7.94531,0,0,0,0,0,0,0,-1,1791,1436,23.6679,-7.94534
574,-412,23.0142,9.17236,0,0,0,0,0,0,0,-1,1798,1436,23.0141,-9.17235
581,-412,22.2615,10.0349,0,0,0,0,0,0,0,-1,1805,1436,22.2615,-10.0349
588,-412,21.6893,10.8069,0,0,0,0,0,0,0,-1,1812,1436,21.6893,-10.8069
595,-412,21.5137,14.3157,0,0,0,0,0,0,0,-1,1819,1436,21.5137,-14.3157
602,-412,22.985,15.1774,0,0,0,0,0,0,0,-1,1826,1436,22.985,-15.1774
609,-412,23.1075,14.6371,0.00270797,0.00308573,-0.00186224,0.00476865,0.00102505,-0.835939,0.00289848,0.022755,1833,1436,23.1076,-14.6371
616,-412,23.137,14.1633,0.00197769,0.0019971,-0.00117621,0.00316364,0.000811145,-0.789524,0.00189741,0.0103644,1840,1436,23.137,-14.1633
623,-412,23.0959,13.7332,0.00143528,0.00123386,-0.000745565,0.0020869,0.00058223,-0.718265,0.00124349,0.00959552,1847,1436,23.0959,-13.7332
630,-412,23.0984,13.2657,0.0011036,0.000643628,-0.000434754,0.00136545,0.000381778,-0.542107,0.000813476,0.0117352,1854,1436,23.0984,-13.2658
637,-412,23.1045,12.8367,0.000847156,0.000153091,-0.000159351,0.000881993,0.000118254,-0.215232,0.00055281,0.0142392,1861,1436,23.1045,-12.8367
644,-412,23.0868,12.3986,0.000678189,-0.000272969,0.000128085,0.000695135,-0.000289915,0.131541,0.000584539,0.0150724,1868,1436,23.0867,-12.3986
651,-412,23.0526,11.9347,0.000621277,-0.000655878,0.000412136,0.000742724,-0.000777325,0.286566,0.000877676,0.0230709,1875,1436,23.0526,-11.9347
658,-412,23.054,11.5144,0.000552514,-0.00104391,0.000776533,0.00086792,-0.00135932,0.385816,0.00129629,0.0160783,1882,1436,23.054,-11.5144
665,-412,23.0192,11.0537,0.000499062,-0.00154155,0.00130061,0.00113182,-0.00217431,0.452795,0.00194017,0.0211681,1889,1436,23.0191,-11.0537
672,-412,23.0635,10.6163,0.000401696,-0.00214712,0.00203806,0.00153099,-0.00327641,0.505989,0.00283588,0.0265208,1896,1436,23.0635,-10.6164
679,-412,23.1569,10.2729,0.000204984,-0.00307397,0.00311733,0.00208767,-0.00495665,0.543313,0.00417796,0.0382352,1903,1436,23.1569,-10.273
686,-412,22.8164,9.72046,0,0,0,0,0,0,0,-1,1910,1436,22.8165,-9.72046
693,-412,11.9346,6.02344,0,0,0,0,0,0,0,-1,1917,1436,11.9346,-6.02343
700,-412,8.82764,5.8844,0,0,0,0,0,0,0,-1,1924,1436,8.82761,-5.88444
707,-412,6.59998,1.68994,0,0,0,0,0,0,0,-1,1931,1436,6.60002,-1.68995
714,-412,4.77283,-2.39832,0,0,0,0,0,0,0,-1,1938,1436,4.77288,2.39835
721,-412,0,0,0,0,0,0,0,0,0,-1,1945,1436,0,0
728,-412,0,0,0,0,0,0,0,0,0,-1,1952,1436,0,0
735,-412,0,0,0,0,0,0,0,0,0,-1,1959,1436,0,0
742,-412,0,0,0,0,0,0,0,0,0,-1,1966,1436,0,0
749,-412,0,0,0,0,0,0,0,0,0,-1,1973,1436,0,0
756,-412,0,0,0,0,0,0,0,0,0,-1,1980,1436,0,0
763,-412,0,0,0,0,0,0,0,0,0,-1,1987,1436,0,0
770,-412,0,0,0,0,0,0,0,0,0,-1,1994,1436,0,0
777,-412,0,0,0,0,0,0,0,0,0,-1,2001,1436,0,0
784,-412,0,0,0,0,0,0,0,0,0,-1,2008,1436,0,0
791,-412,0,0,0,0,0,0,0,0,0,-1,2015,1436,0,0
798,-412,0,0,0,0,0,0,0,0,0,-1,2022,1436,0,0
805,-412,0,0,0,0,0,0,0,0,0,-1,2029,1436,0,0
812,-412,0,0,0,0,0,0,0,0,0,-1,2036,1436,0,0
-700,-419,0,0,0,0,0,0,0,0,0,-1,524,1443,0,0
-693,-419,0,0,0,0,0,0,0,0,0,-1,531,1443,0,0
-686,-419,0,0,0,0,0,0,0,0,0,-1,538,1443,0,0
-679,-419,0,0,0,0,0,0,0,0,0,-1,545,1443,0,0
-672,-419,0,0,0,0,0,0,0,0,0,-1,552,1443,0,0
-665,-419,0,0,0,0,0,0,0,0,0,-1,559,1443,0,0
-658,-419,0,0,0,0,0,0,0,0,0,-1,566,1443,0,0
-651,-419,0,0,0,0,0,0,0,0,0,-1,573,1443,0,0
-644,-419,0,0,0,0,0,0,0,0,0,-1,580,1443,0,0
-637,-419,0,0,0,0,0,0,0,0,0,-1,587,1443,0,0
-630,-419,0,0,0,0,0,0,0,0,0,-1,594,1443,0,0
-623,-419,0,0,0,0,0,0,0,0,0,-1,601,1443,0,0
-616,-419,0,0,0,0,0,0,0,0,0,-1,608,1443,0,0
-609,-419,0,0,0,0,0,0,0,0,0,-1,615,1443,0,0
-602,-419,0,0,0,0,0,0,0,0,0,-1,622,1443,0,0
-595,-419,-11.4904,-0.622681,0,0,0,0,0,0,0,-1,629,1443,-11.4903,0.622714
-588,-419,-9.09369,0.742432,0,0,0,0,0,0,0,-1,636,1443,-9.09366,-0.742482
-581,-419,-6.39172,2.14673,0,0,0,0,0,0,0,-1,643,1443,-6.39175,-2.14668
-574,-419,-4.09772,3.54773,0,0,0,0,0,0,0,-1,650,1443,-4.09772,-3.54767
-567,-419,-6.14038,3.22498,0,0,0,0,0,0,0,-1,657,1443,-6.14037,-3.22497
-560,-419,-4.52814,5.22253,0,0,0,0,0,0,0,-1,664,1443,-4.52816,-5.22251
-553,-419,-5.08331,6.11829,0,0,0,0,0,0,0,-1,671,1443,-5.08331,-6.1183
-546,-419,-8.54962,8.19482,0,0,0,0,0,0,0,-1,678,1443,-8.54962,-8.19487
-539,-419,-8.69073,8.66467,-0.0100822,-0.00145675,-0.00369812,-8.83057e-05,-0.0114506,-1.21638,0.0076045,0.0468539,685,1443,-8.69076,-8.66469
-532,-419,-8.95691,9.12451,-0.00713449,-0.000957404,-0.00258726,-1.69235e-05,-0.00807497,-1.22214,0.00537768,0.0204098,692,1443,-8.9569,-9.12446
-525,-419,-8.96912,9.66833,-0.00472084,-0.000570877,-0.00168692,2.83255e-05,-0.00532004,-1.22949,0.00355617,0.0126773,699,1443,-8.96909,-9.66837
-518,-419,-8.97699,10.1238,-0.00264157,-0.000109011,-0.000813262,0.000129654,-0.00288024,-1.28534,0.0019648,0.0169245,706,1443,-8.97696,-10.1238
-511,-419,-8.98706,10.6007,-0.000757337,0.000540299,0.000107979,0.000549223,-0.000766261,1.48834,0.000762933,0.0192549,713,1443,-8.98709,-10.6007
-504,-419,-9.00726,11.089,0.000877655,0.00131285,0.00105352,0.00217101,1.94936e-05,0.887237,0.00144089,0.0196469,720,1443,-9.00728,-11.089
-497,-419,-9.02094,11.5487,0.00246838,0.00227497,0.00213572,0.00450958,0.00023377,0.762773,0.00293157,0.0144303,727,1443,-9.02095,-11.5487
-490,-419,-9.02258,12.0204,0.00420888,0.00353747,0.00345963,0.00734906,0.000397298,0.737032,0.00477245,0.0106225,734,1443,-9.02256,-12.0203
-483,-419,-9.03027,12.5085,0.00597769,0.00508955,0.00500004,0.0105533,0.000513901,0.741108,0.00687067,0.00888566,741,1443,-9.03025,-12.5086
-476,-419,-9.01166,13.0203,0.00787828,0.00676421,0.00674564,0.0140898,0.000552643,0.744203,0.00921454,0.0127514,748,1443,-9.01167,-13.0202
-469,-419,-8.93805,13.6442,0.0102063,0.00778867,0.00851547,0.0175983,0.000396668,0.714891,0.0116023,0.0288546,755,1443,-8.93808,-13.6442
-462,-419,-8.7959,14.2511,0,0,0,0,0,0,0,-1,762,1443,-8.79588,-14.2511
-455,-419,-7.35645,11.9451,0,0,0,0,0,0,0,-1,769,1443,-7.35646,-11.9451
-448,-419,-7.49109,9.92444,0,0,0,0,0,0,0,-1,776,1443,-7.49109,-9.92442
-441,-419,-7.65527,8.75574,0,0,0,0,0,0,0,-1,783,1443,-7.65525,-8.75568
-434,-419,-11.3724,12.3643,0,0,0,0,0,0,0,-1,790,1443,-11.3724,-12.3643
-427,-419,-8.23193,7.89404,0,0,0,0,0,0,0,-1,797,1443,-8.23193,-7.89404
-420,-419,-8.74091,6.36597,0,0,0,0,0,0,0,-1,804,1443,-8.74089,-6.366
-413,-419,-9.88391,6.53955,0,0,0,0,0,0,0,-1,811,1443,-9.8839,-6.53955
-406,-419,-10.3372,2.75195,0,0,0,0,0,0,0,-1,818,1443,-10.3372,-2.75201
-399,-419,-11.5999,1.40002,0,0,0,0,0,0,0,-1,825,1443,-11.5999,-1.39998
-392,-419,0,0,0,0,0,0,0,0,0,-1,832,1443,0,0
-385,-419,0,0,0,0,0,0,0,0,0,-1,839,1443,0,0
-378,-419,0,0,0,0,0,0,0,0,0,-1,846,1443,0,0
-371,-419,0,0,0,0,0,0,0,0,0,-1,853,1443,0,0
-364,-419,0,0,0,0,0,0,0,0,0,-1,860,1443,0,0
-357,-419,0,0,0,0,0,0,0,0,0,-1,867,1443,0,0
-350,-419,0,0,0,0,0,0,0,0,0,-1,874,1443,0,0
-343,-419,0,0,0,0,0,0,0,0,0,-1,881,1443,0,0
-336,-419,0,0,0,0,0,0,0,0,0,-1,888,1443,0,0
-329,-419,0,0,0,0,0,0,0,0,0,-1,895,1443,0,0
-322,-419,0,0,0,0,0,0,0,0,0,-1,902,1443,0,0
-315,-419,0,0,0,0,0,0,0,0,0,-1,909,1443,0,0
-308,-419,0,0,0,0,0,0,0,0,0,-1,916,1443,0,0
-301,-419,0,0,0,0,0,0,0,0,0,-1,923,1443,0,0
-294,-419,0,0,0,0,0,0,0,0,0,-1,930,1443,0,0
-287,-419,0,0,0,0,0,0,0,0,0,-1,937,1443,0,0
-280,-419,0,0,0,0,0,0,0,0,0,-1,944,1443,0,0
-273,-419,0,0,0,0,0,0,0,0,0,-1,951,1443,0,0
-266,-419,0,0,0,0,0,0,0,0,0,-1,958,1443,0,0
-259,-419,0,0,0,0,0,0,0,0,0,-1,965,1443,0,0
-252,-419,0,0,0,0,0,0,0,0,0,-1,972,1443,0,0
-245,-419,0,0,0,0,0,0,0,0,0,-1,979,1443,0,0
-238,-419,0,0,0,0,0,0,0,0,0,-1,986,1443,0,0
-231,-419,0,0,0,0,0,0,0,0,0,-1,993,1443,0,0
-224,-419,0,0,0,0,0,0,0,0,0,-1,1000,1443,0,0
-217,-419,0,0,0,0,0,0,0,0,0,-1,1007,1443,0,0
-210,-419,0,0,0,0,0,0,0,0,0,-1,1014,1443,0,0
-203,-419,0,0,0,0,0,0,0,0,0,-1,1021,1443,0,0
-196,-419,0,0,0,0,0,0,0,0,0,-1,1028,1443,0,0
-189,-419,0,0,0,0,0,0,0,0,0,-1,1035,1443,0,0
-182,-419,0,0,0,0,0,0,0,0,0,-1,1042,1443,0,0
-175,-419,0,0,0,0,0,0,0,0,0,-1,1049,1443,0,0
-168,-419,0,0,0,0,0,0,0,0,0,-1,1056,1443,0,0
-161,-419,0,0,0,0,0,0,0,0,0,-1,1063,1443,0,0
-154,-419,0,0,0,0,0,0,0,0,0,-1,1070,1443,0,0
-147,-419,0,0,0,0,0,0,0,0,0,-1,1077,1443,0,0
-140,-419,0,0,0,0,0,0,0,0,0,-1,1084,1443,0,0
-133,-419,0,0,0,0,0,0,0,0,0,-1,1091,1443,0,0
-126,-419,0,0,0,0,0,0,0,0,0,-1,1098,1443,0,0
-119,-419,0,0,0,0,0,0,0,0,0,-1,1105,1443,0,0
-112,-419,0,0,0,0,0,0,0,0,0,-1,1112,1443,0,0
-105,-419,0,0,0,0,0,0,0,0,0,-1,1119,1443,0,0
-98,-419,0,0,0,0,0,0,0,0,0,-1,1126,1443,0,0
-91,-419,0,0,0,0,0,0,0,0,0,-1,1133,1443,0,0
-84,-419,0,0,0,0,0,0,0,0,0,-1,1140,1443,0,0
-77,-419,0,0,0,0,0,0,0,0,0,-1,1147,1443,0,0
-70,-419,0,0,0,0,0,0,0,0,0,-1,1154,1443,0,0
-63,-419,0,0,0,0,0,0,0,0,0,-1,1161,1443,0,0
-56,-419,0,0,0,0,0,0,0,0,0,-1,1168,1443,0,0
-49,-419,0,0,0,0,0,0,0,0,0,-1,1175,1443,0,0
-42,-419,0,0,0,0,0,0,0,0,0,-1,1182,1443,0,0
-35,-419,0,0,0,0,0,0,0,0,0,-1,1189,1443,0,0
-28,-419,0,0,0,0,0,0,0,0,0,-1,1196,1443,0,0
-21,-419,0,0,0,0,0,0,0,0,0,-1,1203,1443,0,0
-14,-419,0,0,0,0,0,0,0,0,0,-1,1210,1443,0,0
-7,-419,0,0,0,0,0,0,0,0,0,-1,1217,1443,0,0
0,-419,0,0,0,0,0,0,0,0,0,-1,1224,1443,0,0
7,-419,0,0,0,0,0,0,0,0,0,-1,1231,1443,0,0
14,-419,0,0,0,0,0,0,0,0,0,-1,1238,1443,0,0
21,-419,0,0,0,0,0,0,0,0,0,-1,1245,1443,0,0
28,-419,0,0,0,0,0,0,0,0,0,-1,1252,1443,0,0
35,-419,0,0,0,0,0,0,0,0,0,-1,1259,1443,0,0
42,-419,0,0,0,0,0,0,0,0,0,-1,1266,1443,0,0
49,-419,0,0,0,0,0,0,0,0,0,-1,1273,1443,0,0
56,-419,0,0,0,0,0,0,0,0,0,-1,1280,1443,0,0
63,-419,0,0,0,0,0,0,0,0,0,-1,1287,1443,0,0
70,-419,0,0,0,0,0,0,0,0,0,-1,1294,1443,0,0
77,-419,0,0,0,0,0,0,0,0,0,-1,1301,1443,0,0
84,-419,0,0,0,0,0,0,0,0,0,-1,1308,1443,0,0
91,-419,0,0,0,0,0,0,0,0,0,-1,1315,1443,0,0
98,-419,0,0,0,0,0,0,0,0,0,-1,1322,1443,0,0
105,-419,0,0,0,0,0,0,0,0,0,-1,1329,1443,0,0
112,-419,0,0,0,0,0,0,0,0,0,-1,1336,1443,0,0
119,-419,0,0,0,0,0,0,0,0,0,-1,1343,1443,0,0
126,-419,0,0,0,0,0,0,0,0,0,-1,1350,1443,0,0
133,-419,0,0,0,0,0,0,0,0,0,-1,1357,1443,0,0
140,-419,0,0,0,0,0,0,0,0,0,-1,1364,1443,0,0
147,-419,0,0,0,0,0,0,0,0,0,-1,1371,1443,0,0
154,-419,0,0,0,0,0,0,0,0,0,-1,1378,1443,0,0
161,-419,0,0,0,0,0,0,0,0,0,-1,1385,1443,0,0
168,-419,0,0,0,0,0,0,0,0,0,-1,1392,1443,0,0
175,-419,0,0,0,0,0,0,0,0,0,-1,1399,1443,0,0
182,-419,0,0,0,0,0,0,0,0,0,-1,1406,1443,0,0
189,-419,0,0,0,0,0,0,0,0,0,-1,1413,1443,0,0
196,-419,0,0,0,0,0,0,0,0,0,-1,1420,1443,0,0
203,-419,0,0,0,0,0,0,0,0,0,-1,1427,1443,0,0
210,-419,0,0,0,0,0,0,0,0,0,-1,1434,1443,0,0
217,-419,0,0,0,0,0,0,0,0,0,-1,1441,1443,0,0
224,-419,0,0,0,0,0,0,0,0,0,-1,1448,1443,0,0
231,-419,0,0,0,0,0,0,0,0,0,-1,1455,1443,0,0
238,-419,0,0,0,0,0,0,0,0,0,-1,1462,1443,0,0
245,-419,0,0,0,0,0,0,0,0,0,-1,1469,1443,0,0
252,-419,0,0,0,0,0,0,0,0,0,-1,1476,1443,0,0
259,-419,0,0,0,0,0,0,0,0,0,-1,1483,1443,0,0
266,-419,0,0,0,0,0,0,0,0,0,-1,1490,1443,0,0
273,-419,0,0,0,0,0,0,0,0,0,-1,1497,1443,0,0
280,-419,0,0,0,0,0,0,0,0,0,-1,1504,1443,0,0
287,-419,0,0,0,0,0,0,0,0,0,-1,1511,1443,0,0
294,-419,0,0,0,0,0,0,0,0,0,-1,1518,1443,0,0
301,-419,0,0,0,0,0,0,0,0,0,-1,1525,1443,0,0
308,-419,0,0,0,0,0,0,0,0,0,-1,1532,1443,0,0
315,-419,0,0,0,0,0,0,0,0,0,-1,1539,1443,0,0
322,-419,0,0,0,0,0,0,0,0,0,-1,1546,1443,0,0
329,-419,0,0,0,0,0,0,0,0,0,-1,1553,1443,0,0
336,-419,0,0,0,0,0,0,0,0,0,-1,1560,1443,0,0
343,-419,0,0,0,0,0,0,0,0,0,-1,1567,1443,0,0
350,-419,0,0,0,0,0,0,0,0,0,-1,1574,1443,0,0
357,-419,0,0,0,0,0,0,0,0,0,-1,1581,1443,0,0
364,-419,0,0,0,0,0,0,0,0,0,-1,1588,1443,0,0
371,-419,0,0,0,0,0,0,0,0,0,-1,1595,1443,0,0
378,-419,0,0,0,0,0,0,0,0,0,-1,1602,1443,0,0
385,-419,0,0,0,0,0,0,0,0,0,-1,1609,1443,0,0
392,-419,0,0,0,0,0,0,0,0,0,-1,1616,1443,0,0
399,-419,0,0,0,0,0,0,0,0,0,-1,1623,1443,0,0
406,-419,0,0,0,0,0,0,0,0,0,-1,1630,1443,0,0
413,-419,0,0,0,0,0,0,0,0,0,-1,1637,1443,0,0
420,-419,0,0,0,0,0,0,0,0,0,-1,1644,1443,0,0
427,-419,0,0,0,0,0,0,0,0,0,-1,1651,1443,0,0
434,-419,0,0,0,0,0,0,0,0,0,-1,1658,1443,0,0
441,-419,0,0,0,0,0,0,0,0,0,-1,1665,1443,0,0
448,-419,0,0,0,0,0,0,0,0,0,-1,1672,1443,0,0
455,-419,0,0,0,0,0,0,0,0,0,-1,1679,1443,0,0
462,-419,0,0,0,0,0,0,0,0,0,-1,1686,1443,0,0
469,-419,0,0,0,0,0,0,0,0,0,-1,1693,1443,0,0
476,-419,0,0,0,0,0,0,0,0,0,-1,1700,1443,0,0
483,-419,0,0,0,0,0,0,0,0,0,-1,1707,1443,0,0
490,-419,0,0,0,0,0,0,0,0,0,-1,1714,1443,0,0
497,-419,0,0,0,0,0,0,0,0,0,-1,1721,1443,0,0
504,-419,0,0,0,0,0,0,0,0,0,-1,1728,1443,0,0
511,-419,20.3005,3.7959,0,0,0,0,0,0,0,-1,1735,1443,20.3005,-3.79584
518,-419,21.3154,2.03027,0,0,0,0,0,0,0,-1,1742,1443,21.3155,-2.03029
525,-419,28.3439,-1.24475,0,0,0,0,0,0,0,-1,1749,1443,28.3438,1.24471
532,-419,27.5902,-0.272583,0,0,0,0,0,0,0,-1,1756,1443,27.5902,0.272526
539,-419,26.5278,1.60583,0,0,0,0,0,0,0,-1,1763,1443,26.5279,-1.60579
546,-419,24.9509,2.77539,0,0,0,0,0,0,0,-1,1770,1443,24.9509,-2.77537
553,-419,24.118,3.75525,0,0,0,0,0,0,0,-1,1777,1443,24.1181,-3.75526
560,-419,11.8199,8.26343,0,0,0,0,0,0,0,-1,1784,1443,11.82,-8.26341
567,-419,21.5143,8.74719,0,0,0,0,0,0,0,-1,1791,1443,21.5143,-8.74722
574,-419,19.5886,6.46155,0,0,0,0,0,0,0,-1,1798,1443,19.5886,-6.46157
581,-419,20.7926,11.4265,0,0,0,0,0,0,0,-1,1805,1443,20.7926,-11.4265
588,-419,19.4242,12.5363,0,0,0,0,0,0,0,-1,1812,1443,19.4242,-12.5362
595,-419,22.425,15.7198,0,0,0,0,0,0,0,-1,1819,1443,22.4251,-15.7199
602,-419,22.6967,15.0438,0.00286116,0.00357661,-0.00233433,0.00558047,0.000857303,-0.861429,0.00347003,0.0277456,1826,1443,22.6967,-15.0438
609,-419,22.7043,14.6118,0.00236979,0.0026294,-0.00173054,0.004235,0.000764195,-0.822831,0.00260622,0.015678,1833,1443,22.7043,-14.6118
616,-419,22.6792,14.1971,0.00180732,0.00174709,-0.00115764,0.00293524,0.000619169,-0.772395,0.00178656,0.0118856,1840,1443,22.6792,-14.1972
623,-419,22.6696,13.7551,0.00139683,0.00108058,-0.000742307,0.00199767,0.000479746,-0.680457,0.00120415,0.0104123,1847,1443,22.6696,-13.7552
630,-419,22.6775,13.2865,0.00114949,0.000493083,-0.00042699,0.00135984,0.000282734,-0.457736,0.000828552,0.0124843,1854,1443,22.6775,-13.2865
637,-419,22.6724,12.8508,0.000929891,1.29339e-05,-0.000119556,0.000945223,-2.39775e-06,-0.127543,0.000630949,0.01323,1861,1443,22.6724,-12.8508
644,-419,22.6554,12.4225,0.000793325,-0.000429869,0.000190697,0.000822365,-0.00045891,0.151124,0.000749599,0.011468,1868,1443,22.6554,-12.4225
651,-419,22.6364,11.9945,0.000744711,-0.000814548,0.000474235,0.000877618,-0.000947454,0.273244,0.00105396,0.0103053,1875,1443,22.6364,-11.9946
658,-419,22.6219,11.5442,0.000693586,-0.00122359,0.000835044,0.00100629,-0.0015363,0.358313,0.00147856,0.012205,1882,1443,22.6219,-11.5442
665,-419,22.6118,11.0836,0.000630732,-0.00173579,0.00134909,0.00124195,-0.002347,0.425394,0.00210457,0.0197245,1889,1443,22.6118,-11.0836
672,-419,22.6471,10.5912,0.00047509,-0.00233952,0.00207973,0.00157892,-0.00344335,0.487948,0.00296546,0.0268818,1896,1443,22.6471,-10.5911
679,-419,22.77,10.198,0,0,0,0,0,0,0,-1,1903,1443,22.77,-10.1979
686,-419,17.4127,8.03076,0,0,0,0,0,0,0,-1,1910,1443,17.4127,-8.03071
693,-419,8.76086,5.60535,0,0,0,0,0,0,0,-1,1917,1443,8.76091,-5.6054
700,-419,11.0498,4.85156,0,0,0,0,0,0,0,-1,1924,1443,11.0498,-4.85153
707,-419,9.5752,1.80042,0,0,0,0,0,0,0,-1,1931,1443,9.57523,-1.80037
714,-419,5.77576,-1.25061,0,0,0,0,0,0,0,-1,1938,1443,5.7757,1.25056
721,-419,0,0,0,0,0,0,0,0,0,-1,1945,1443,0,0
728,-419,0,0,0,0,0,0,0,0,0,-1,1952,1443,0,0
735,-419,0,0,0,0,0,0,0,0,0,-1,1959,1443,0,0
742,-419,0,0,0,0,0,0,0,0,0,-1,1966,1443,0,0
749,-419,0,0,0,0,0,0,0,0,0,-1,1973,1443,0,0
756,-419,0,0,0,0,0,0,0,0,0,-1,1980,1443,0,0
763,-419,0,0,0,0,0,0,0,0,0,-1,1987,1443,0,0
770,-419,0,0,0,0,0,0,0,0,0,-1,1994,1443,0,0
777,-419,0,0,0,0,0,0,0,0,0,-1,2001,1443,0,0
784,-419,0,0,0,0,0,0,0,0,0,-1,2008,1443,0,0
791,-419,0,0,0,0,0,0,0,0,0,-1,2015,1443,0,0
798,-419,0,0,0,0,0,0,0,0,0,-1,2022,1443,0,0
805,-419,0,0,0,0,0,0,0,0,0,-1,2029,1443,0,0
812,-419,0,0,0,0,0,0,0,0,0,-1,2036,1443,0,0
-700,-426,0,0,0,0,0,0,0,0,0,-1,524,1450,0,0
-693,-426,0,0,0,0,0,0,0,0,0,-1,531,1450,0,0
-686,-426,0,0,0,0,0,0,0,0,0,-1,538,1450,0,0
-679,-426,0,0,0,0,0,0,0,0,0,-1,545,1450,0,0
-672,-426,0,0,0,0,0,0,0,0,0,-1,552,1450,0,0
-665,-426,0,0,0,0,0,0,0,0,0,-1,559,1450,0,0
-658,-426,0,0,0,0,0,0,0,0,0,-1,566,1450,0,0
-651,-426,0,0,0,0,0,0,0,0,0,-1,573,1450,0,0
-644,-426,0,0,0,0,0,0,0,0,0,-1,580,1450,0,0
-637,-426,0,0,0,0,0,0,0,0,0,-1,587,1450,0,0
-630,-426,0,0,0,0,0,0,0,0,0,-1,594,1450,0,0
-623,-426,0,0,0,0,0,0,0,0,0,-1,601,1450,0,0
-616,-426,0,0,0,0,0,0,0,0,0,-1,608,1450,0,0
-609,-426,0,0,0,0,0,0,0,0,0,-1,615,1450,0,0
-602,-426,0,0,0,0,0,0,0,0,0,-1,622,1450,0,0
-595,-426,0,0,0,0,0,0,0,0,0,-1,629,1450,0,0
-588,-426,-10.184,-0.554321,0,0,0,0,0,0,0,-1,636,1450,-10.184,0.554321
-581,-426,-7.3349,1.48157,0,0,0,0,0,0,0,-1,643,1450,-7.33491,-1.48152
-574,-426,-5.02856,2.89319,0,0,0,0,0,0,0,-1,650,1450,-5.02858,-2.89319
-567,-426,-3.04797,1.72644,0,0,0,0,0,0,0,-1,657,1450,-3.04797,-1.72639
-560,-426,-5.55682,3.44397,0,0,0,0,0,0,0,-1,664,1450,-5.55684,-3.44399
-553,-426,-4.67017,6.66614,0,0,0,0,0,0,0,-1,671,1450,-4.67015,-6.66619
-546,-426,-7.58752,8.28882,0,0,0,0,0,0,0,-1,678,1450,-7.58752,-8.28878
-539,-426,-7.91162,8.80151,-0.0116264,-0.00106431,-0.00380376,0.000162945,-0.0128537,-1.2587,0.00862395,0.0499971,685,1450,-7.91165,-8.80151
-532,-426,-8.35846,9.18201,-0.00819809,-0.000722881,-0.00263226,0.000110999,-0.00903197,-1.26401,0.00605865,0.0434235,692,1450,-8.35843,-9.182
-525,-426,-8.49908,9.6283,-0.00553161,-0.000512018,-0.00177021,4.9459e-05,-0.00609308,-1.26365,0.00407864,0.0173116,699,1450,-8.49908,-9.62826
-518,-426,-8.47968,10.1427,-0.00332674,-0.000211438,-0.000972466,6.72032e-05,-0.00360538,-1.29174,0.0024263,0.0154515,706,1450,-8.47967,-10.1428
-511,-426,-8.48871,10.6372,-0.00146679,0.000275716,-0.000192024,0.000296626,-0.0014877,-1.46233,0.00110404,0.0157843,713,1450,-8.4887,-10.6373
-504,-426,-8.5033,11.1125,0.000104071,0.000924217,0.000632075,0.00126759,-0.0002393,1.07315,0.000935089,0.0162892,720,1450,-8.50329,-11.1125
-497,-426,-8.51984,11.568,0.00158983,0.00175309,0.00156712,0.00324071,0.000102216,0.811419,0.00212722,0.0133179,727,1450,-8.51986,-11.568
-490,-426,-8.53778,12.0427,0.00317373,0.0028502,0.00271472,0.00573151,0.000292425,0.755639,0.00372735,0.0120026,734,1450,-8.53781,-12.0427
-483,-426,-8.55627,12.5399,0.00486001,0.00419544,0.00408333,0.00862456,0.000430893,0.744799,0.00561159,0.0112657,741,1450,-8.55629,-12.5399
-476,-426,-8.55957,13.0144,0.00660085,0.00558624,0.00555333,0.01167,0.000517095,0.739849,0.00761349,0.00890547,748,1450,-8.5596,-13.0144
-469,-426,-8.57251,13.4692,0.00863105,0.00616177,0.00694754,0.0144528,0.000340016,0.697462,0.00952388,0.00870392,755,1450,-8.57251,-13.4693
-462,-426,-8.40857,14.1527,0.0112471,0.00722408,0.00883025,0.018292,0.000179111,0.673411,0.0121354,0.0378638,762,1450,-8.40855,-14.1527
-455,-426,-8.19659,14.932,0,0,0,0,0,0,0,-1,769,1450,-8.19658,-14.932
-448,-426,-6.46545,10.1322,0,0,0,0,0,0,0,-1,776,1450,-6.46543,-10.1322
-441,-426,-10.9547,11.4747,0,0,0,0,0,0,0,-1,783,1450,-10.9546,-11.4748
-434,-426,-10.4998,13.6189,0,0,0,0,0,0,0,-1,790,1450,-10.4997,-13.6189
-427,-426,-9.36627,13.7396,0,0,0,0,0,0,0,-1,797,1450,-9.36628,-13.7396
-420,-426,-5.33765,7.95044,0,0,0,0,0,0,0,-1,804,1450,-5.33766,-7.95041
-413,-426,-10.1148,5.0415,0,0,0,0,0,0,0,-1,811,1450,-10.1148,-5.04152
-406,-426,-11.4199,3.6438,0,0,0,0,0,0,0,-1,818,1450,-11.4198,-3.64382
-399,-426,-12.7595,2.29004,0,0,0,0,0,0,0,-1,825,1450,-12.7595,-2.29003
-392,-426,-12.4147,0.537354,0,0,0,0,0,0,0,-1,832,1450,-12.4147,-0.53731
-385,-426,0,0,0,0,0,0,0,0,0,-1,839,1450,0,0
-378,-426,0,0,0,0,0,0,0,0,0,-1,846,1450,0,0
-371,-426,0,0,0,0,0,0,0,0,0,-1,853,1450,0,0
-364,-426,0,0,0,0,0,0,0,0,0,-1,860,1450,0,0
-357,-426,0,0,0,0,0,0,0,0,0,-1,867,1450,0,0
-350,-426,0,0,0,0,0,0,0,0,0,-1,874,1450,0,0
-343,-426,0,0,0,0,0,0,0,0,0,-1,881,1450,0,0
-336,-426,0,0,0,0,0,0,0,0,0,-1,888,1450,0,0
-329,-426,0,0,0,0,0,0,0,0,0,-1,895,1450,0,0
-322,-426,0,0,0,0,0,0,0,0,0,-1,902,1450,0,0
-315,-426,0,0,0,0,0,0,0,0,0,-1,909,1450,0,0
-308,-426,0,0,0,0,0,0,0,0,0,-1,916,1450,0,0
-301,-426,0,0,0,0,0,0,0,0,0,-1,923,1450,0,0
-294,-426,0,0,0,0,0,0,0,0,0,-1,930,1450,0,0
-287,-426,0,0,0,0,0,0,0,0,0,-1,937,1450,0,0
-280,-426,0,0,0,0,0,0,0,0,0,-1,944,1450,0,0
-273,-426,0,0,0,0,0,0,0,0,0,-1,951,1450,0,0
-266,-426,0,0,0,0,0,0,0,0,0,-1,958,1450,0,0
-259,-426,0,0,0,0,0,0,0,0,0,-1,965,1450,0,0
-252,-426,0,0,0,0,0,0,0,0,0,-1,972,1450,0,0
-245,-426,0,0,0,0,0,0,0,0,0,-1,979,1450,0,0
-238,-426,0,0,0,0,0,0,0,0,0,-1,986,1450,0,0
-231,-426,0,0,0,0,0,0,0,0,0,-1,993,1450,0,0
-224,-426,0,0,0,0,0,0,0,0,0,-1,1000,1450,0,0
-217,-426,0,0,0,0,0,0,0,0,0,-1,1007,1450,0,0
-210,-426,0,0,0,0,0,0,0,0,0,-1,1014,1450,0,0
-203,-426,0,0,0,0,0,0,0,0,0,-1,1021,1450,0,0
-196,-426,0,0,0,0,0,0,0,0,0,-1,1028,1450,0,0
-189,-426,0,0,0,0,0,0,0,0,0,-1,1035,1450,0,0
-182,-426,0,0,0,0,0,0,0,0,0,-1,1042,1450,0,0
-175,-426,0,0,0,0,0,0,0,0,0,-1,1049,1450,0,0
-168,-426,0,0,0,0,0,0,0,0,0,-1,1056,1450,0,0
-161,-426,0,0,0,0,0,0,0,0,0,-1,1063,1450,0,0
-154,-426,0,0,0,0,0,0,0,0,0,-1,1070,1450,0,0
-147,-426,0,0,0,0,0,0,0,0,0,-1,1077,1450,0,0
-140,-426,0,0,0,0,0,0,0,0,0,-1,1084,1450,0,0
-133,-426,0,0,0,0,0,0,0,0,0,-1,1091,1450,0,0
-126,-426,0,0,0,0,0,0,0,0,0,-1,1098,1450,0,0
-119,-426,0,0,0,0,0,0,0,0,0,-1,1105,1450,0,0
-112,-426,0,0,0,0,0,0,0,0,0,-1,1112,1450,0,0
-105,-426,0,0,0,0,0,0,0,0,0,-1,1119,1450,0,0
-98,-426,0,0,0,0,0,0,0,0,0,-1,1126,1450,0,0
-91,-426,0,0,0,0,0,0,0,0,0,-1,1133,1450,0,0
-84,-426,0,0,0,0,0,0,0,0,0,-1,1140,1450,0,0
-77,-426,0,0,0,0,0,0,0,0,0,-1,1147,1450,0,0
-70,-426,0,0,0,0,0,0,0,0,0,-1,1154,1450,0,0
-63,-426,0,0,0,0,0,0,0,0,0,-1,1161,1450,0,0
-56,-426,0,0,0,0,0,0,0,0,0,-1,1168,1450,0,0
-49,-426,0,0,0,0,0,0,0,0,0,-1,1175,1450,0,0
-42,-426,0,0,0,0,0,0,0,0,0,-1,1182,1450,0,0
-35,-426,0,0,0,0,0,0,0,0,0,-1,1189,1450,0,0
-28,-426,0,0,0,0,0,0,0,0,0,-1,1196,1450,0,0
-21,-426,0,0,0,0,0,0,0,0,0,-1,1203,1450,0,0
-14,-426,0,0,0,0,0,0,0,0,0,-1,1210,1450,0,0
-7,-426,0,0,0,0,0,0,0,0,0,-1,1217,1450,0,0
0,-426,0,0,0,0,0,0,0,0,0,-1,1224,1450,0,0
7,-426,0,0,0,0,0,0,0,0,0,-1,1231,1450,0,0
14,-426,0,0,0,0,0,0,0,0,0,-1,1238,1450,0,0
21,-426,0,0,0,0,0,0,0,0,0,-1,1245,1450,0,0
28,-426,0,0,0,0,0,0,0,0,0,-1,1252,1450,0,0
35,-426,0,0,0,0,0,0,0,0,0,-1,1259,1450,0,0
42,-426,0,0,0,0,0,0,0,0,0,-1,1266,1450,0,0
49,-426,0,0,0,0,0,0,0,0,0,-1,1273,1450,0,0
56,-426,0,0,0,0,0,0,0,0,0,-1,1280,1450,0,0
63,-426,0,0,0,0,0,0,0,0,0,-1,1287,1450,0,0
70,-426,0,0,0,0,0,0,0,0,0,-1,1294,1450,0,0
77,-426,0,0,0,0,0,0,0,0,0,-1,1301,1450,0,0
84,-426,0,0,0,0,0,0,0,0,0,-1,1308,1450,0,0
91,-426,0,0,0,0,0,0,0,0,0,-1,1315,1450,0,0
98,-426,0,0,0,0,0,0,0,0,0,-1,1322,1450,0,0
105,-426,0,0,0,0,0,0,0,0,0,-1,1329,1450,0,0
112,-426,0,0,0,0,0,0,0,0,0,-1,1336,1450,0,0
119,-426,0,0,0,0,0,0,0,0,0,-1,1343,1450,0,0
126,-426,0,0,0,0,0,0,0,0,0,-1,1350,1450,0,0
133,-426,0,0,0,0,0,0,0,0,0,-1,1357,1450,0,0
140,-426,0,0,0,0,0,0,0,0,0,-1,1364,1450,0,0
147,-426,0,0,0,0,0,0,0,0,0,-1,1371,1450,0,0
154,-426,0,0,0,0,0,0,0,0,0,-1,1378,1450,0,0
161,-426,0,0,0,0,0,0,0,0,0,-1,1385,1450,0,0
168,-426,0,0,0,0,0,0,0,0,0,-1,1392,1450,0,0
175,-426,0,0,0,0,0,0,0,0,0,-1,1399,1450,0,0
182,-426,0,0,0,0,0,0,0,0,0,-1,1406,1450,0,0
189,-426,0,0,0,0,0,0,0,0,0,-1,1413,1450,0,0
196,-426,0,0,0,0,0,0,0,0,0,-1,1420,1450,0,0
203,-426,0,0,0,0,0,0,0,0,0,-1,1427,1450,0,0
210,-426,0,0,0,0,0,0,0,0,0,-1,1434,1450,0,0
217,-426,0,0,0,0,0,0,0,0,0,-1,1441,1450,0,0
224,-426,0,0,0,0,0,0,0,0,0,-1,1448,1450,0,0
231,-426,0,0,0,0,0,0,0,0,0,-1,1455,1450,0,0
238,-426,0,0,0,0,0,0,0,0,0,-1,1462,1450,0,0
245,-426,0,0,0,0,0,0,0,0,0,-1,1469,1450,0,0
252,-426,0,0,0,0,0,0,0,0,0,-1,1476,1450,0,0
259,-426,0,0,0,0,0,0,0,0,0,-1,1483,1450,0,0
266,-426,0,0,0,0,0,0,0,0,0,-1,1490,1450,0,0
273,-426,0,0,0,0,0,0,0,0,0,-1,1497,1450,0,0
280,-426,0,0,0,0,0,0,0,0,0,-1,1504,1450,0,0
287,-426,0,0,0,0,0,0,0,0,0,-1,1511,1450,0,0
294,-426,0,0,0,0,0,0,0,0,0,-1,1518,1450,0,0
301,-426,0,0,0,0,0,0,0,0,0,-1,1525,1450,0,0
308,-426,0,0,0,0,0,0,0,0,0,-1,1532,1450,0,0
315,-426,0,0,0,0,0,0,0,0,0,-1,1539,1450,0,0
322,-426,0,0,0,0,0,0,0,0,0,-1,1546,1450,0,0
329,-426,0,0,0,0,0,0,0,0,0,-1,1553,1450,0,0
336,-426,0,0,0,0,0,0,0,0,0,-1,1560,1450,0,0
343,-426,0,0,0,0,0,0,0,0,0,-1,1567,1450,0,0
350,-426,0,0,0,0,0,0,0,0,0,-1,1574,1450,0,0
357,-426,0,0,0,0,0,0,0,0,0,-1,1581,1450,0,0
364,-426,0,0,0,0,0,0,0,0,0,-1,1588,1450,0,0
371,-426,0,0,0,0,0,0,0,0,0,-1,1595,1450,0,0
378,-426,0,0,0,0,0,0,0,0,0,-1,1602,1450,0,0
385,-426,0,0,0,0,0,0,0,0,0,-1,1609,1450,0,0
392,-426,0,0,0,0,0,0,0,0,0,-1,1616,1450,0,0
399,-426,0,0,0,0,0,0,0,0,0,-1,1623,1450,0,0
406,-426,0,0,0,0,0,0,0,0,0,-1,1630,1450,0,0
413,-426,0,0,0,0,0,0,0,0,0,-1,1637,1450,0,0
420,-426,0,0,0,0,0,0,0,0,0,-1,1644,1450,0,0
427,-426,0,0,0,0,0,0,0,0,0,-1,1651,1450,0,0
434,-426,0,0,0,0,0,0,0,0,0,-1,1658,1450,0,0
441,-426,0,0,0,0,0,0,0,0,0,-1,1665,1450,0,0
448,-426,0,0,0,0,0,0,0,0,0,-1,1672,1450,0,0
455,-426,0,0,0,0,0,0,0,0,0,-1,1679,1450,0,0
462,-426,0,0,0,0,0,0,0,0,0,-1,1686,1450,0,0
469,-426,0,0,0,0,0,0,0,0,0,-1,1693,1450,0,0
476,-426,0,0,0,0,0,0,0,0,0,-1,1700,1450,0,0
483,-426,0,0,0,0,0,0,0,0,0,-1,1707,1450,0,0
490,-426,0,0,0,0,0,0,0,0,0,-1,1714,1450,0,0
497,-426,0,0,0,0,0,0,0,0,0,-1,1721,1450,0,0
504,-426,20.6873,3.38367,0,0,0,0,0,0,0,-1,1728,1450,20.6873,-3.38361
511,-426,19.6676,3.53748,0,0,0,0,0,0,0,-1,1735,1450,19.6676,-3.53749
518,-426,18.6853,3.32288,0,0,0,0,0,0,0,-1,1742,1450,18.6853,-3.3229
525,-426,18.9552,2.71033,0,0,0,0,0,0,0,-1,1749,1450,18.9552,-2.71034
532,-426,19.4333,2.70764,0,0,0,0,0,0,0,-1,1756,1450,19.4334,-2.70764
539,-426,25.1482,2.56287,0,0,0,0,0,0,0,-1,1763,1450,25.1482,-2.56286
546,-426,24.1136,3.75659,0,0,0,0,0,0,0,-1,1770,1450,24.1136,-3.7566
553,-426,23.0791,4.95032,0,0,0,0,0,0,0,-1,1777,1450,23.0791,-4.95034
560,-426,12.9688,11.8289,0,0,0,0,0,0,0,-1,1784,1450,12.9688,-11.8288
567,-426,13.6388,11.5623,0,0,0,0,0,0,0,-1,1791,1450,13.6388,-11.5623
574,-426,14.3943,11.0286,0,0,0,0,0,0,0,-1,1798,1450,14.3942,-11.0285
581,-426,16.3879,11.4653,0,0,0,0,0,0,0,-1,1805,1450,16.3879,-11.4653
588,-426,18.1212,12.5547,0,0,0,0,0,0,0,-1,1812,1450,18.1212,-12.5547
595,-426,22.1072,15.5408,0,0,0,0,0,0,0,-1,1819,1450,22.1072,-15.5408
602,-426,22.1899,15.0848,0.00256402,0.00314244,-0.00204659,0.00492016,0.000786307,-0.85559,0.00305196,0.0274129,1826,1450,22.1899,-15.0849
609,-426,22.2384,14.6187,0.00217898,0.00224732,-0.00156742,0.00378094,0.000645357,-0.796296,0.00233542,0.013103,1833,1450,22.2384,-14.6186
616,-426,22.2361,14.2013,0.00175023,0.00147731,-0.00108799,0.00271028,0.000517259,-0.72301,0.00166149,0.0143473,1840,1450,22.2361,-14.2013
623,-426,22.241,13.7645,0.00143243,0.000866184,-0.000706254,0.0019102,0.000388417,-0.594766,0.00116576,0.0124566,1847,1450,22.2409,-13.7646
630,-426,22.2522,13.3107,0.00126017,0.000279279,-0.000411201,0.00140974,0.000129707,-0.348867,0.000899715,0.0127154,1854,1450,22.2522,-13.3106
637,-426,22.2272,12.8591,0.00108321,-0.000192669,-0.000107392,0.00109218,-0.000201645,-0.0833893,0.000803812,0.0125864,1861,1450,22.2271,-12.8591
644,-426,22.1959,12.4296,0.000977326,-0.000638591,0.000200298,0.00100178,-0.000663049,0.121504,0.0009678,0.0122864,1868,1450,22.1959,-12.4296
651,-426,22.178,12.0173,0.000927155,-0.00100898,0.000470814,0.00103557,-0.0011174,0.226332,0.00124332,0.011356,1875,1450,22.1779,-12.0173
658,-426,22.1866,11.5416,0.000891929,-0.00143232,0.000827516,0.00115645,-0.00169684,0.30939,0.00165717,0.0116457,1882,1450,22.1866,-11.5416
665,-426,22.22,11.0358,0.000813162,-0.00193853,0.0013373,0.00135599,-0.00248136,0.385596,0.00224703,0.0210098,1889,1450,22.22,-11.0358
672,-426,22.348,10.6493,0,0,0,0,0,0,0,-1,1896,1450,22.348,-10.6493
679,-426,17.1522,8.15784,0,0,0,0,0,0,0,-1,1903,1450,17.1522,-8.15784
686,-426,13.5326,8.03711,0,0,0,0,0,0,0,-1,1910,1450,13.5326,-8.03717
693,-426,11.8607,6.45215,0,0,0,0,0,0,0,-1,1917,1450,11.8607,-6.45215
700,-426,9.24304,2.95447,0,0,0,0,0,0,0,-1,1924,1450,9.24305,-2.95442
707,-426,8.44519,-1.21448,0,0,0,0,0,0,0,-1,1931,1450,8.44514,1.21454
714,-426,0,0,0,0,0,0,0,0,0,-1,1938,1450,0,0
721,-426,0,0,0,0,0,0,0,0,0,-1,1945,1450,0,0
728,-426,0,0,0,0,0,0,0,0,0,-1,1952,1450,0,0
735,-426,0,0,0,0,0,0,0,0,0,-1,1959,1450,0,0
742,-426,0,0,0,0,0,0,0,0,0,-1,1966,1450,0,0
749,-426,0,0,0,0,0,0,0,0,0,-1,1973,1450,0,0
756,-426,0,0,0,0,0,0,0,0,0,-1,1980,1450,0,0
763,-426,0,0,0,0,0,0,0,0,0,-1,1987,1450,0,0
770,-426,0,0,0,0,0,0,0,0,0,-1,1994,1450,0,0
777,-426,0,0,0,0,0,0,0,0,0,-1,2001,1450,0,0
784,-426,0,0,0,0,0,0,0,0,0,-1,2008,1450,0,0
791,-426,0,0,0,0,0,0,0,0,0,-1,2015,1450,0,0
798,-426,0,0,0,0,0,0,0,0,0,-1,2022,1450,0,0
805,-426,0,0,0,0,0,0,0,0,0,-1,2029,1450,0,0
812,-426,0,0,0,0,0,0,0,0,0,-1,2036,1450,0,0
-700,-433,0,0,0,0,0,0,0,0,0,-1,524,1457,0,0
-693,-433,0,0,0,0,0,0,0,0,0,-1,531,1457,0,0
-686,-433,0,0,0,0,0,0,0,0,0,-1,538,1457,0,0
-679,-433,0,0,0,0,0,0,0,0,0,-1,545,1457,0,0
-672,-433,0,0,0,0,0,0,0,0,0,-1,552,1457,0,0
-665,-433,0,0,0,0,0,0,0,0,0,-1,559,1457,0,0
-658,-433,0,0,0,0,0,0,0,0,0,-1,566,1457,0,0
-651,-433,0,0,0,0,0,0,0,0,0,-1,573,1457,0,0
-644,-433,0,0,0,0,0,0,0,0,0,-1,580,1457,0,0
-637,-433,0,0,0,0,0,0,0,0,0,-1,587,1457,0,0
-630,-433,0,0,0,0,0,0,0,0,0,-1,594,1457,0,0
-623,-433,0,0,0,0,0,0,0,0,0,-1,601,1457,0,0
-616,-433,0,0,0,0,0,0,0,0,0,-1,608,1457,0,0
-609,-433,0,0,0,0,0,0,0,0,0,-1,615,1457,0,0
-602,-433,0,0,0,0,0,0,0,0,0,-1,622,1457,0,0
-595,-433,0,0,0,0,0,0,0,0,0,-1,629,1457,0,0
-588,-433,-10.3756,-0.467041,0,0,0,0,0,0,0,-1,636,1457,-10.3756,0.467081
-581,-433,-8.12201,0.884033,0,0,0,0,0,0,0,-1,643,1457,-8.12204,-0.884056
-574,-433,-5.86847,2.23523,0,0,0,0,0,0,0,-1,650,1457,-5.86844,-2.23519
-567,-433,-5.42255,1.16833,0,0,0,0,0,0,0,-1,657,1457,-5.42254,-1.1683
-560,-433,-6.84027,1.86414,0,0,0,0,0,0,0,-1,664,1457,-6.84026,-1.86412
-553,-433,-5.74017,1.79163,0,0,0,0,0,0,0,-1,671,1457,-5.74015,-1.79166
-546,-433,-6.9668,8.25073,0,0,0,0,0,0,0,-1,678,1457,-6.96679,-8.25074
-539,-433,-7.3136,8.75659,0,0,0,0,0,0,0,-1,685,1457,-7.31362,-8.75659
-532,-433,-7.66046,9.26245,0,0,0,0,0,0,0,-1,692,1457,-7.66044,-9.26244
-525,-433,-7.96185,9.69836,-0.00489217,0.000250126,-0.000994242,0.000435664,-0.00507771,-1.38631,0.00353931,0.0353138,699,1457,-7.96187,-9.6984
-518,-433,-7.99469,10.1588,-0.00268495,0.00029574,-0.000366958,0.000340252,-0.00272946,-1.45009,0.00194301,0.0159116,706,1457,-7.9947,-10.1588
-511,-433,-8.01849,10.6298,-0.00103338,0.000516239,0.000167719,0.000534184,-0.00105133,1.46421,0.000931483,0.0153919,713,1457,-8.01848,-10.6297
-504,-433,-8.00421,11.1018,0.00028606,0.000925481,0.00074719,0.00141849,-0.000206945,0.987554,0.00102165,0.0136018,720,1457,-8.0042,-11.1018
-497,-433,-8.02948,11.5872,0.00146179,0.00150817,0.00141215,0.00289732,7.26451e-05,0.793609,0.00190779,0.0136465,727,1457,-8.02948,-11.5871
-490,-433,-8.06165,12.0687,0.00268082,0.00233508,0.00226855,0.00478307,0.000232823,0.74737,0.00311401,0.0143896,734,1457,-8.06164,-12.0687
-483,-433,-8.08679,12.5668,0.0040584,0.00338618,0.00335573,0.00709481,0.000349767,0.735484,0.0046177,0.015346,741,1457,-8.08682,-12.5668
-476,-433,-8.08478,13.0376,0.00544344,0.00443741,0.004496,0.00946448,0.000416376,0.729689,0.00617554,0.0103443,748,1457,-8.08476,-13.0377
-469,-433,-8.09778,13.5071,0.0070534,0.00461535,0.00555851,0.011525,0.000143758,0.677453,0.00763586,0.00971996,755,1457,-8.09779,-13.5071
-462,-433,-8.12714,13.99,0.00913433,0.00520442,0.00702386,0.0144629,-0.00012416,0.649008,0.00968359,0.0137422,762,1457,-8.12713,-13.99
-455,-433,-7.7384,14.7058,0,0,0,0,0,0,0,-1,769,1457,-7.7384,-14.7058
-448,-433,-6.94812,14.5563,0,0,0,0,0,0,0,-1,776,1457,-6.94809,-14.5562
-441,-433,-9.97485,14.0258,0,0,0,0,0,0,0,-1,783,1457,-9.97488,-14.0257
-434,-433,-9.41205,14.2297,0,0,0,0,0,0,0,-1,790,1457,-9.41205,-14.2297
-427,-433,-8.67419,13.6827,0,0,0,0,0,0,0,-1,797,1457,-8.67422,-13.6827
-420,-433,-5.74658,9.49121,0,0,0,0,0,0,0,-1,804,1457,-5.7466,-9.49119
-413,-433,-3.63074,5.5813,0,0,0,0,0,0,0,-1,811,1457,-3.63072,-5.58129
-406,-433,-12.3472,4.69373,0,0,0,0,0,0,0,-1,818,1457,-12.3472,-4.69374
-399,-433,-12.055,2.83594,0,0,0,0,0,0,0,-1,825,1457,-12.055,-2.83594
-392,-433,-12.9772,1.6228,0,0,0,0,0,0,0,-1,832,1457,-12.9772,-1.62282
-385,-433,-13.7999,0.514771,0,0,0,0,0,0,0,-1,839,1457,-13.7999,-0.514788
-378,-433,0,0,0,0,0,0,0,0,0,-1,846,1457,0,0
-371,-433,0,0,0,0,0,0,0,0,0,-1,853,1457,0,0
-364,-433,0,0,0,0,0,0,0,0,0,-1,860,1457,0,0
-357,-433,0,0,0,0,0,0,0,0,0,-1,867,1457,0,0
-350,-433,0,0,0,0,0,0,0,0,0,-1,874,1457,0,0
-343,-433,0,0,0,0,0,0,0,0,0,-1,881,1457,0,0
-336,-433,0,0,0,0,0,0,0,0,0,-1,888,1457,0,0
-329,-433,0,0,0,0,0,0,0,0,0,-1,895,1457,0,0
-322,-433,0,0,0,0,0,0,0,0,0,-1,902,1457,0,0
-315,-433,0,0,0,0,0,0,0,0,0,-1,909,1457,0,0
-308,-433,0,0,0,0,0,0,0,0,0,-1,916,1457,0,0
-301,-433,0,0,0,0,0,0,0,0,0,-1,923,1457,0,0
-294,-433,0,0,0,0,0,0,0,0,0,-1,930,1457,0,0
-287,-433,0,0,0,0,0,0,0,0,0,-1,937,1457,0,0
-280,-433,0,0,0,0,0,0,0,0,0,-1,944,1457,0,0
-273,-433,0,0,0,0,0,0,0,0,0,-1,951,1457,0,0
-266,-433,0,0,0,0,0,0,0,0,0,-1,958,1457,0,0
-259,-433,0,0,0,0,0,0,0,0,0,-1,965,1457,0,0
-252,-433,0,0,0,0,0,0,0,0,0,-1,972,1457,0,0
-245,-433,0,0,0,0,0,0,0,0,0,-1,979,1457,0,0
-238,-433,0,0,0,0,0,0,0,0,0,-1,986,1457,0,0
-231,-433,0,0,0,0,0,0,0,0,0,-1,993,1457,0,0
-224,-433,0,0,0,0,0,0,0,0,0,-1,1000,1457,0,0
-217,-433,0,0,0,0,0,0,0,0,0,-1,1007,1457,0,0
-210,-433,0,0,0,0,0,0,0,0,0,-1,1014,1457,0,0
-203,-433,0,0,0,0,0,0,0,0,0,-1,1021,1457,0,0
-196,-433,0,0,0,0,0,0,0,0,0,-1,1028,1457,0,0
-189,-433,0,0,0,0,0,0,0,0,0,-1,1035,1457,0,0
-182,-433,0,0,0,0,0,0,0,0,0,-1,1042,1457,0,0
-175,-433,0,0,0,0,0,0,0,0,0,-1,1049,1457,0,0
-168,-433,0,0,0,0,0,0,0,0,0,-1,1056,1457,0,0
-161,-433,0,0,0,0,0,0,0,0,0,-1,1063,1457,0,0
-154,-433,0,0,0,0,0,0,0,0,0,-1,1070,1457,0,0
-147,-433,0,0,0,0,0,0,0,0,0,-1,1077,1457,0,0
-140,-433,0,0,0,0,0,0,0,0,0,-1,1084,1457,0,0
-133,-433,0,0,0,0,0,0,0,0,0,-1,1091,1457,0,0
-126,-433,0,0,0,0,0,0,0,0,0,-1,1098,1457,0,0
-119,-433,0,0,0,0,0,0,0,0,0,-1,1105,1457,0,0
-112,-433,0,0,0,0,0,0,0,0,0,-1,1112,1457,0,0
-105,-433,0,0,0,0,0,0,0,0,0,-1,1119,1457,0,0
-98,-433,0,0,0,0,0,0,0,0,0,-1,1126,1457,0,0
-91,-433,0,0,0,0,0,0,0,0,0,-1,1133,1457,0,0
-84,-433,0,0,0,0,0,0,0,0,0,-1,1140,1457,0,0
-77,-433,0,0,0,0,0,0,0,0,0,-1,1147,1457,0,0
-70,-433,0,0,0,0,0,0,0,0,0,-1,1154,1457,0,0
-63,-433,0,0,0,0,0,0,0,0,0,-1,1161,1457,0,0
-56,-433,0,0,0,0,0,0,0,0,0,-1,1168,1457,0,0
-49,-433,0,0,0,0,0,0,0,0,0,-1,1175,1457,0,0
-42,-433,0,0,0,0,0,0,0,0,0,-1,1182,1457,0,0
-35,-433,0,0,0,0,0,0,0,0,0,-1,1189,1457,0,0
-28,-433,0,0,0,0,0,0,0,0,0,-1,1196,1457,0,0
-21,-433,0,0,0,0,0,0,0,0,0,-1,1203,1457,0,0
-14,-433,0,0,0,0,0,0,0,0,0,-1,1210,1457,0,0
-7,-433,0,0,0,0,0,0,0,0,0,-1,1217,1457,0,0
0,-433,0,0,0,0,0,0,0,0,0,-1,1224,1457,0,0
7,-433,0,0,0,0,0,0,0,0,0,-1,1231,1457,0,0
14,-433,0,0,0,0,0,0,0,0,0,-1,1238,1457,0,0
21,-433,0,0,0,0,0,0,0,0,0,-1,1245,1457,0,0
28,-433,0,0,0,0,0,0,0,0,0,-1,1252,1457,0,0
35,-433,0,0,0,0,0,0,0,0,0,-1,1259,1457,0,0
42,-433,0,0,0,0,0,0,0,0,0,-1,1266,1457,0,0
49,-433,0,0,0,0,0,0,0,0,0,-1,1273,1457,0,0
56,-433,0,0,0,0,0,0,0,0,0,-1,1280,1457,0,0
63,-433,0,0,0,0,0,0,0,0,0,-1,1287,1457,0,0
70,-433,0,0,0,0,0,0,0,0,0,-1,1294,1457,0,0
77,-433,0,0,0,0,0,0,0,0,0,-1,1301,1457,0,0
84,-433,0,0,0,0,0,0,0,0,0,-1,1308,1457,0,0
91,-433,0,0,0,0,0,0,0,0,0,-1,1315,1457,0,0
98,-433,0,0,0,0,0,0,0,0,0,-1,1322,1457,0,0
105,-433,0,0,0,0,0,0,0,0,0,-1,1329,1457,0,0
112,-433,0,0,0,0,0,0,0,0,0,-1,1336,1457,0,0
119,-433,0,0,0,0,0,0,0,0,0,-1,1343,1457,0,0
126,-433,0,0,0,0,0,0,0,0,0,-1,1350,1457,0,0
133,-433,0,0,0,0,0,0,0,0,0,-1,1357,1457,0,0
140,-433,0,0,0,0,0,0,0,0,0,-1,1364,1457,0,0
147,-433,0,0,0,0,0,0,0,0,0,-1,1371,1457,0,0
154,-433,0,0,0,0,0,0,0,0,0,-1,1378,1457,0,0
161,-433,0,0,0,0,0,0,0,0,0,-1,1385,1457,0,0
168,-433,0,0,0,0,0,0,0,0,0,-1,1392,1457,0,0
175,-433,0,0,0,0,0,0,0,0,0,-1,1399,1457,0,0
182,-433,0,0,0,0,0,0,0,0,0,-1,1406,1457,0,0
189,-433,0,0,0,0,0,0,0,0,0,-1,1413,1457,0,0
196,-433,0,0,0,0,0,0,0,0,0,-1,1420,1457,0,0
203,-433,0,0,0,0,0,0,0,0,0,-1,1427,1457,0,0
210,-433,0,0,0,0,0,0,0,0,0,-1,1434,1457,0,0
217,-433,0,0,0,0,0,0,0,0,0,-1,1441,1457,0,0
224,-433,0,0,0,0,0,0,0,0,0,-1,1448,1457,0,0
231,-433,0,0,0,0,0,0,0,0,0,-1,1455,1457,0,0
238,-433,0,0,0,0,0,0,0,0,0,-1,1462,1457,0,0
245,-433,0,0,0,0,0,0,0,0,0,-1,1469,1457,0,0
252,-433,0,0,0,0,0,0,0,0,0,-1,1476,1457,0,0
259,-433,0,0,0,0,0,0,0,0,0,-1,1483,1457,0,0
266,-433,0,0,0,0,0,0,0,0,0,-1,1490,1457,0,0
273,-433,0,0,0,0,0,0,0,0,0,-1,1497,1457,0,0
280,-433,0,0,0,0,0,0,0,0,0,-1,1504,1457,0,0
287,-433,0,0,0,0,0,0,0,0,0,-1,1511,1457,0,0
294,-433,0,0,0,0,0,0,0,0,0,-1,1518,1457,0,0
301,-433,0,0,0,0,0,0,0,0,0,-1,1525,1457,0,0
308,-433,0,0,0,0,0,0,0,0,0,-1,1532,1457,0,0
315,-433,0,0,0,0,0,0,0,0,0,-1,1539,1457,0,0
322,-433,0,0,0,0,0,0,0,0,0,-1,1546,1457,0,0
329,-433,0,0,0,0,0,0,0,0,0,-1,1553,1457,0,0
336,-433,0,0,0,0,0,0,0,0,0,-1,1560,1457,0,0
343,-433,0,0,0,0,0,0,0,0,0,-1,1567,1457,0,0
350,-433,0,0,0,0,0,0,0,0,0,-1,1574,1457,0,0
357,-433,0,0,0,0,0,0,0,0,0,-1,1581,1457,0,0
364,-433,0,0,0,0,0,0,0,0,0,-1,1588,1457,0,0
371,-433,0,0,0,0,0,0,0,0,0,-1,1595,1457,0,0
378,-433,0,0,0,0,0,0,0,0,0,-1,1602,1457,0,0
385,-433,0,0,0,0,0,0,0,0,0,-1,1609,1457,0,0
392,-433,0,0,0,0,0,0,0,0,0,-1,1616,1457,0,0
399,-433,0,0,0,0,0,0,0,0,0,-1,1623,1457,0,0
406,-433,0,0,0,0,0,0,0,0,0,-1,1630,1457,0,0
413,-433,0,0,0,0,0,0,0,0,0,-1,1637,1457,0,0
420,-433,0,0,0,0,0,0,0,0,0,-1,1644,1457,0,0
427,-433,0,0,0,0,0,0,0,0,0,-1,1651,1457,0,0
434,-433,0,0,0,0,0,0,0,0,0,-1,1658,1457,0,0
441,-433,0,0,0,0,0,0,0,0,0,-1,1665,1457,0,0
448,-433,0,0,0,0,0,0,0,0,0,-1,1672,1457,0,0
455,-433,0,0,0,0,0,0,0,0,0,-1,1679,1457,0,0
462,-433,0,0,0,0,0,0,0,0,0,-1,1686,1457,0,0
469,-433,0,0,0,0,0,0,0,0,0,-1,1693,1457,0,0
476,-433,0,0,0,0,0,0,0,0,0,-1,1700,1457,0,0
483,-433,0,0,0,0,0,0,0,0,0,-1,1707,1457,0,0
490,-433,0,0,0,0,0,0,0,0,0,-1,1714,1457,0,0
497,-433,0,0,0,0,0,0,0,0,0,-1,1721,1457,0,0
504,-433,19.9058,3.03662,0,0,0,0,0,0,0,-1,1728,1457,19.9058,-3.03656
511,-433,19.0145,3.07837,0,0,0,0,0,0,0,-1,1735,1457,19.0146,-3.07834
518,-433,18.071,3.06433,0,0,0,0,0,0,0,-1,1742,1457,18.071,-3.06432
525,-433,17.2048,3.37085,0,0,0,0,0,0,0,-1,1749,1457,17.2049,-3.37083
532,-433,16.5637,3.36646,0,0,0,0,0,0,0,-1,1756,1457,16.5637,-3.36643
539,-433,15.9193,3.30396,0,0,0,0,0,0,0,-1,1763,1457,15.9193,-3.30394
546,-433,23.1903,4.81775,0,0,0,0,0,0,0,-1,1770,1457,23.1903,-4.81775
553,-433,13.9674,11.5781,0,0,0,0,0,0,0,-1,1777,1457,13.9674,-11.5781
560,-433,13.9855,11.7341,0,0,0,0,0,0,0,-1,1784,1457,13.9855,-11.7341
567,-433,13.9264,11.3364,0,0,0,0,0,0,0,-1,1791,1457,13.9263,-11.3364
574,-433,15.5305,12.3673,0,0,0,0,0,0,0,-1,1798,1457,15.5305,-12.3673
581,-433,16.6405,12.1898,0,0,0,0,0,0,0,-1,1805,1457,16.6405,-12.1898
588,-433,21.9132,16.3507,0,0,0,0,0,0,0,-1,1812,1457,21.9132,-16.3507
595,-433,21.8218,15.6147,0.00276206,0.00346678,-0.00225498,0.00539677,0.000832073,-0.8629,0.00335506,0.036577,1819,1457,21.8218,-15.6147
602,-433,21.8156,15.1228,0.00233291,0.00267213,-0.00177132,0.00428194,0.000723097,-0.833129,0.00264673,0.0229908,1826,1457,21.8155,-15.1228
609,-433,21.823,14.6304,0.00200494,0.00184676,-0.0013552,0.00328335,0.000568341,-0.756252,0.0020262,0.0164381,1833,1457,21.823,-14.6304
616,-433,21.8086,14.1943,0.00166614,0.00116205,-0.000942317,0.00238953,0.000438649,-0.65472,0.0014688,0.0141064,1840,1457,21.8085,-14.1944
623,-433,21.7806,13.76,0.0014278,0.000597815,-0.000589339,0.0017336,0.000292018,-0.478639,0.00107174,0.0113166,1847,1457,21.7807,-13.76
630,-433,21.7827,13.3245,0.001329,1.7206e-05,-0.00030893,0.00139811,-5.19064e-05,-0.220092,0.000949849,0.0139538,1854,1457,21.7827,-13.3245
637,-433,21.7717,12.8676,0.00121562,-0.000445334,-1.93641e-05,0.00121584,-0.00044556,-0.0116563,0.000992981,0.0147336,1861,1457,21.7718,-12.8676
644,-433,21.7612,12.439,0.00117848,-0.000886722,0.000267512,0.00121256,-0.000920811,0.126747,0.00123554,0.0155262,1868,1457,21.7613,-12.439
651,-433,21.7595,12.0029,0.00120411,-0.00122863,0.000495576,0.00130119,-0.00132571,0.193445,0.00151666,0.0119436,1875,1457,21.7595,-12.003
658,-433,21.717,11.5251,0.00127564,-0.00166309,0.000817858,0.00148792,-0.00187537,0.25395,0.00194609,0.0232389,1882,1457,21.717,-11.5252
665,-433,21.8601,10.9652,0,0,0,0,0,0,0,-1,1889,1457,21.8601,-10.9652
672,-433,18.115,8.7207,0,0,0,0,0,0,0,-1,1896,1457,18.115,-8.72074
679,-433,17.2969,9.6355,0,0,0,0,0,0,0,-1,1903,1457,17.2968,-9.63548
686,-433,13.6356,8.61694,0,0,0,0,0,0,0,-1,1910,1457,13.6356,-8.61694
693,-433,13.4081,8.39624,0,0,0,0,0,0,0,-1,1917,1457,13.4081,-8.39624
700,-433,7.16809,-1.5166,0,0,0,0,0,0,0,-1,1924,1457,7.16806,1.51656
707,-433,8.68359,-2.82202,0,0,0,0,0,0,0,-1,1931,1457,8.68359,2.82197
714,-433,0,0,0,0,0,0,0,0,0,-1,1938,1457,0,0
721,-433,0,0,0,0,0,0,0,0,0,-1,1945,1457,0,0
728,-433,0,0,0,0,0,0,0,0,0,-1,1952,1457,0,0
735,-433,0,0,0,0,0,0,0,0,0,-1,1959,1457,0,0
742,-433,0,0,0,0,0,0,0,0,0,-1,1966,1457,0,0
749,-433,0,0,0,0,0,0,0,0,0,-1,1973,1457,0,0
756,-433,0,0,0,0,0,0,0,0,0,-1,1980,1457,0,0
763,-433,0,0,0,0,0,0,0,0,0,-1,1987,1457,0,0
770,-433,0,0,0,0,0,0,0,0,0,-1,1994,1457,0,0
777,-433,0,0,0,0,0,0,0,0,0,-1,2001,1457,0,0
784,-433,0,0,0,0,0,0,0,0,0,-1,2008,1457,0,0
791,-433,0,0,0,0,0,0,0,0,0,-1,2015,1457,0,0
798,-433,0,0,0,0,0,0,0,0,0,-1,2022,1457,0,0
805,-433,0,0,0,0,0,0,0,0,0,-1,2029,1457,0,0
812,-433,0,0,0,0,0,0,0,0,0,-1,2036,1457,0,0
-700,-440,0,0,0,0,0,0,0,0,0,-1,524,1464,0,0
-693,-440,0,0,0,0,0,0,0,0,0,-1,531,1464,0,0
-686,-440,0,0,0,0,0,0,0,0,0,-1,538,1464,0,0
-679,-440,0,0,0,0,0,0,0,0,0,-1,545,1464,0,0
-672,-440,0,0,0,0,0,0,0,0,0,-1,552,1464,0,0
-665,-440,0,0,0,0,0,0,0,0,0,-1,559,1464,0,0
-658,-440,0,0,0,0,0,0,0,0,0,-1,566,1464,0,0
-651,-440,0,0,0,0,0,0,0,0,0,-1,573,1464,0,0
-644,-440,0,0,0,0,0,0,0,0,0,-1,580,1464,0,0
-637,-440,0,0,0,0,0,0,0,0,0,-1,587,1464,0,0
-630,-440,0,0,0,0,0,0,0,0,0,-1,594,1464,0,0
-623,-440,0,0,0,0,0,0,0,0,0,-1,601,1464,0,0
-616,-440,0,0,0,0,0,0,0,0,0,-1,608,1464,0,0
-609,-440,0,0,0,0,0,0,0,0,0,-1,615,1464,0,0
-602,-440,0,0,0,0,0,0,0,0,0,-1,622,1464,0,0
-595,-440,0,0,0,0,0,0,0,0,0,-1,629,1464,0,0
-588,-440,0,0,0,0,0,0,0,0,0,-1,636,1464,0,0
-581,-440,-8.97278,0.254517,0,0,0,0,0,0,0,-1,643,1464,-8.97276,-0.254526
-574,-440,-7.00818,-0.918579,0,0,0,0,0,0,0,-1,650,1464,-7.00817,0.918538
-567,-440,-6.12152,-0.0766602,0,0,0,0,0,0,0,-1,657,1464,-6.12151,0.0767097
-560,-440,-5.46747,0.82251,0,0,0,0,0,0,0,-1,664,1464,-5.46748,-0.822551
-553,-440,-6.84729,0.0831299,0,0,0,0,0,0,0,-1,671,1464,-6.84732,-0.083136
-546,-440,-5.63446,-0.153198,0,0,0,0,0,0,0,-1,678,1464,-5.63447,0.153147
-539,-440,-6.80017,8.58252,0,0,0,0,0,0,0,-1,685,1464,-6.80015,-8.58257
-532,-440,-7.1405,8.61316,0,0,0,0,0,0,0,-1,692,1464,-7.14052,-8.6131
-525,-440,-7.59943,9.55347,0,0,0,0,0,0,0,-1,699,1464,-7.59943,-9.55343
-518,-440,-7.55676,10.1028,-0.00247579,0.000438648,6.44388e-05,0.000440072,-0.00247722,1.5487,0.00181603,0.019388,706,1464,-7.55676,-10.1028
-511,-440,-7.51282,10.6471,-0.000908225,0.000480895,0.000419472,0.000597735,-0.00102507,1.29914,0.00094769,0.0152778,713,1464,-7.5128,-10.6471
-504,-440,-7.52283,11.1262,0.000243118,0.00073336,0.000814351,0.00133868,-0.000362203,0.931586,0.00103454,0.0192467,720,1464,-7.52281,-11.1262
-497,-440,-7.54578,11.5731,0.00121583,0.00114512,0.00128238,0.00246334,-0.000102392,0.771618,0.0016774,0.0203204,727,1464,-7.5458,-11.5732
-490,-440,-7.56531,12.0309,0.00222052,0.00180069,0.00192844,0.00395044,7.07738e-05,0.731185,0.00261035,0.0195501,734,1464,-7.56531,-12.0309
-483,-440,-7.60413,12.5354,0.0034489,0.00268067,0.00282352,0.00591431,0.00021526,0.717793,0.00387311,0.018534,741,1464,-7.60413,-12.5354
-476,-440,-7.6109,13.0291,0.00466766,0.00354192,0.00375435,0.0079011,0.000308484,0.71099,0.00516764,0.0128008,748,1464,-7.6109,-13.0291
-469,-440,-7.63403,13.5052,0.00606681,0.00355789,0.0046191,0.00959876,2.59387e-05,0.652805,0.00639054,0.0121785,755,1464,-7.63405,-13.5052
-462,-440,-7.67236,13.9669,0.0078568,0.00390891,0.0058063,0.0120155,-0.000249815,0.621544,0.0080949,0.0146417,762,1464,-7.67237,-13.9669
-455,-440,-7.53448,14.5563,0.0100451,0.0038377,0.0071051,0.0146948,-0.000812003,0.579474,0.0100781,0.032311,769,1464,-7.53448,-14.5563
-448,-440,-7.07684,15.2545,0,0,0,0,0,0,0,-1,776,1464,-7.07681,-15.2545
-441,-440,-7.28583,14.7465,0,0,0,0,0,0,0,-1,783,1464,-7.28584,-14.7464
-434,-440,-8.33636,14.5024,0,0,0,0,0,0,0,-1,790,1464,-8.33638,-14.5025
-427,-440,-8.28094,14.2512,0,0,0,0,0,0,0,-1,797,1464,-8.28094,-14.2512
-420,-440,-6.86603,8.09216,0,0,0,0,0,0,0,-1,804,1464,-6.86602,-8.09222
-413,-440,-3.46796,5.72278,0,0,0,0,0,0,0,-1,811,1464,-3.46797,-5.72276
-406,-440,-5.2887,5.20264,0,0,0,0,0,0,0,-1,818,1464,-5.2887,-5.20261
-399,-440,-12.7318,3.94421,0,0,0,0,0,0,0,-1,825,1464,-12.7318,-3.94419
-392,-440,-13.5565,2.51855,0,0,0,0,0,0,0,-1,832,1464,-13.5565,-2.51861
-385,-440,-14.6741,1.39795,0,0,0,0,0,0,0,-1,839,1464,-14.6741,-1.39801
-378,-440,-15.8063,0.293457,0,0,0,0,0,0,0,-1,846,1464,-15.8063,-0.293412
-371,-440,0,0,0,0,0,0,0,0,0,-1,853,1464,0,0
-364,-440,0,0,0,0,0,0,0,0,0,-1,860,1464,0,0
-357,-440,0,0,0,0,0,0,0,0,0,-1,867,1464,0,0
-350,-440,0,0,0,0,0,0,0,0,0,-1,874,1464,0,0
-343,-440,0,0,0,0,0,0,0,0,0,-1,881,1464,0,0
-336,-440,0,0,0,0,0,0,0,0,0,-1,888,1464,0,0
-329,-440,0,0,0,0,0,0,0,0,0,-1,895,1464,0,0
-322,-440,0,0,0,0,0,0,0,0,0,-1,902,1464,0,0
-315,-440,0,0,0,0,0,0,0,0,0,-1,909,1464,0,0
-308,-440,0,0,0,0,0,0,0,0,0,-1,916,1464,0,0
-301,-440,0,0,0,0,0,0,0,0,0,-1,923,1464,0,0
-294,-440,0,0,0,0,0,0,0,0,0,-1,930,1464,0,0
-287,-440,0,0,0,0,0,0,0,0,0,-1,937,1464,0,0
-280,-440,0,0,0,0,0,0,0,0,0,-1,944,1464,0,0
-273,-440,0,0,0,0,0,0,0,0,0,-1,951,1464,0,0
-266,-440,0,0,0,0,0,0,0,0,0,-1,958,1464,0,0
-259,-440,0,0,0,0,0,0,0,0,0,-1,965,1464,0,0
-252,-440,0,0,0,0,0,0,0,0,0,-1,972,1464,0,0
-245,-440,0,0,0,0,0,0,0,0,0,-1,979,1464,0,0
-238,-440,0,0,0,0,0,0,0,0,0,-1,986,1464,0,0
-231,-440,0,0,0,0,0,0,0,0,0,-1,993,1464,0,0
-224,-440,0,0,0,0,0,0,0,0,0,-1,1000,1464,0,0
-217,-440,0,0,0,0,0,0,0,0,0,-1,1007,1464,0,0
-210,-440,0,0,0,0,0,0,0,0,0,-1,1014,1464,0,0
-203,-440,0,0,0,0,0,0,0,0,0,-1,1021,1464,0,0
-196,-440,0,0,0,0,0,0,0,0,0,-1,1028,1464,0,0
-189,-440,0,0,0,0,0,0,0,0,0,-1,1035,1464,0,0
-182,-440,0,0,0,0,0,0,0,0,0,-1,1042,1464,0,0
-175,-440,0,0,0,0,0,0,0,0,0,-1,1049,1464,0,0
-168,-440,0,0,0,0,0,0,0,0,0,-1,1056,1464,0,0
-161,-440,0,0,0,0,0,0,0,0,0,-1,1063,1464,0,0
-154,-440,0,0,0,0,0,0,0,0,0,-1,1070,1464,0,0
-147,-440,0,0,0,0,0,0,0,0,0,-1,1077,1464,0,0
-140,-440,0,0,0,0,0,0,0,0,0,-1,1084,1464,0,0
-133,-440,0,0,0,0,0,0,0,0,0,-1,1091,1464,0,0
-126,-440,0,0,0,0,0,0,0,0,0,-1,1098,1464,0,0
-119,-440,0,0,0,0,0,0,0,0,0,-1,1105,1464,0,0
-112,-440,0,0,0,0,0,0,0,0,0,-1,1112,1464,0,0
-105,-440,0,0,0,0,0,0,0,0,0,-1,1119,1464,0,0
-98,-440,0,0,0,0,0,0,0,0,0,-1,1126,1464,0,0
-91,-440,0,0,0,0,0,0,0,0,0,-1,1133,1464,0,0
-84,-440,0,0,0,0,0,0,0,0,0,-1,1140,1464,0,0
-77,-440,0,0,0,0,0,0,0,0,0,-1,1147,1464,0,0
-70,-440,0,0,0,0,0,0,0,0,0,-1,1154,1464,0,0
-63,-440,0,0,0,0,0,0,0,0,0,-1,1161,1464,0,0
-56,-440,0,0,0,0,0,0,0,0,0,-1,1168,1464,0,0
-49,-440,0,0,0,0,0,0,0,0,0,-1,1175,1464,0,0
-42,-440,0,0,0,0,0,0,0,0,0,-1,1182,1464,0,0
-35,-440,0,0,0,0,0,0,0,0,0,-1,1189,1464,0,0
-28,-440,0,0,0,0,0,0,0,0,0,-1,1196,1464,0,0
-21,-440,0,0,0,0,0,0,0,0,0,-1,1203,1464,0,0
-14,-440,0,0,0,0,0,0,0,0,0,-1,1210,1464,0,0
-7,-440,0,0,0,0,0,0,0,0,0,-1,1217,1464,0,0
0,-440,0,0,0,0,0,0,0,0,0,-1,1224,1464,0,0
7,-440,0,0,0,0,0,0,0,0,0,-1,1231,1464,0,0
14,-440,0,0,0,0,0,0,0,0,0,-1,1238,1464,0,0
21,-440,0,0,0,0,0,0,0,0,0,-1,1245,1464,0,0
28,-440,0,0,0,0,0,0,0,0,0,-1,1252,1464,0,0
35,-440,0,0,0,0,0,0,0,0,0,-1,1259,1464,0,0
42,-440,0,0,0,0,0,0,0,0,0,-1,1266,1464,0,0
49,-440,0,0,0,0,0,0,0,0,0,-1,1273,1464,0,0
56,-440,0,0,0,0,0,0,0,0,0,-1,1280,1464,0,0
63,-440,0,0,0,0,0,0,0,0,0,-1,1287,1464,0,0
70,-440,0,0,0,0,0,0,0,0,0,-1,1294,1464,0,0
77,-440,0,0,0,0,0,0,0,0,0,-1,1301,1464,0,0
84,-440,0,0,0,0,0,0,0,0,0,-1,1308,1464,0,0
91,-440,0,0,0,0,0,0,0,0,0,-1,1315,1464,0,0
98,-440,0,0,0,0,0,0,0,0,0,-1,1322,1464,0,0
105,-440,0,0,0,0,0,0,0,0,0,-1,1329,1464,0,0
112,-440,0,0,0,0,0,0,0,0,0,-1,1336,1464,0,0
119,-440,0,0,0,0,0,0,0,0,0,-1,1343,1464,0,0
126,-440,0,0,0,0,0,0,0,0,0,-1,1350,1464,0,0
133,-440,0,0,0,0,0,0,0,0,0,-1,1357,1464,0,0
140,-440,0,0,0,0,0,0,0,0,0,-1,1364,1464,0,0
147,-440,0,0,0,0,0,0,0,0,0,-1,1371,1464,0,0
154,-440,0,0,0,0,0,0,0,0,0,-1,1378,1464,0,0
161,-440,0,0,0,0,0,0,0,0,0,-1,1385,1464,0,0
168,-440,0,0,0,0,0,0,0,0,0,-1,1392,1464,0,0
175,-440,0,0,0,0,0,0,0,0,0,-1,1399,1464,0,0
182,-440,0,0,0,0,0,0,0,0,0,-1,1406,1464,0,0
189,-440,0,0,0,0,0,0,0,0,0,-1,1413,1464,0,0
196,-440,0,0,0,0,0,0,0,0,0,-1,1420,1464,0,0
203,-440,0,0,0,0,0,0,0,0,0,-1,1427,1464,0,0
210,-440,0,0,0,0,0,0,0,0,0,-1,1434,1464,0,0
217,-440,0,0,0,0,0,0,0,0,0,-1,1441,1464,0,0
224,-440,0,0,0,0,0,0,0,0,0,-1,1448,1464,0,0
231,-440,0,0,0,0,0,0,0,0,0,-1,1455,1464,0,0
238,-440,0,0,0,0,0,0,0,0,0,-1,1462,1464,0,0
245,-440,0,0,0,0,0,0,0,0,0,-1,1469,1464,0,0
252,-440,0,0,0,0,0,0,0,0,0,-1,1476,1464,0,0
259,-440,0,0,0,0,0,0,0,0,0,-1,1483,1464,0,0
266,-440,0,0,0,0,0,0,0,0,0,-1,1490,1464,0,0
273,-440,0,0,0,0,0,0,0,0,0,-1,1497,1464,0,0
280,-440,0,0,0,0,0,0,0,0,0,-1,1504,1464,0,0
287,-440,0,0,0,0,0,0,0,0,0,-1,1511,1464,0,0
294,-440,0,0,0,0,0,0,0,0,0,-1,1518,1464,0,0
301,-440,0,0,0,0,0,0,0,0,0,-1,1525,1464,0,0
308,-440,0,0,0,0,0,0,0,0,0,-1,1532,1464,0,0
315,-440,0,0,0,0,0,0,0,0,0,-1,1539,1464,0,0
322,-440,0,0,0,0,0,0,0,0,0,-1,1546,1464,0,0
329,-440,0,0,0,0,0,0,0,0,0,-1,1553,1464,0,0
336,-440,0,0,0,0,0,0,0,0,0,-1,1560,1464,0,0
343,-440,0,0,0,0,0,0,0,0,0,-1,1567,1464,0,0
350,-440,0,0,0,0,0,0,0,0,0,-1,1574,1464,0,0
357,-440,0,0,0,0,0,0,0,0,0,-1,1581,1464,0,0
364,-440,0,0,0,0,0,0,0,0,0,-1,1588,1464,0,0
371,-440,0,0,0,0,0,0,0,0,0,-1,1595,1464,0,0
378,-440,0,0,0,0,0,0,0,0,0,-1,1602,1464,0,0
385,-440,0,0,0,0,0,0,0,0,0,-1,1609,1464,0,0
392,-440,0,0,0,0,0,0,0,0,0,-1,1616,1464,0,0
399,-440,0,0,0,0,0,0,0,0,0,-1,1623,1464,0,0
406,-440,0,0,0,0,0,0,0,0,0,-1,1630,1464,0,0
413,-440,0,0,0,0,0,0,0,0,0,-1,1637,1464,0,0
420,-440,0,0,0,0,0,0,0,0,0,-1,1644,1464,0,0
427,-440,0,0,0,0,0,0,0,0,0,-1,1651,1464,0,0
434,-440,0,0,0,0,0,0,0,0,0,-1,1658,1464,0,0
441,-440,0,0,0,0,0,0,0,0,0,-1,1665,1464,0,0
448,-440,0,0,0,0,0,0,0,0,0,-1,1672,1464,0,0
455,-440,0,0,0,0,0,0,0,0,0,-1,1679,1464,0,0
462,-440,0,0,0,0,0,0,0,0,0,-1,1686,1464,0,0
469,-440,0,0,0,0,0,0,0,0,0,-1,1693,1464,0,0
476,-440,0,0,0,0,0,0,0,0,0,-1,1700,1464,0,0
483,-440,0,0,0,0,0,0,0,0,0,-1,1707,1464,0,0
490,-440,0,0,0,0,0,0,0,0,0,-1,1714,1464,0,0
497,-440,16.965,-0.528442,0,0,0,0,0,0,0,-1,1721,1464,16.965,0.528492
504,-440,15.8052,0.670166,0,0,0,0,0,0,0,-1,1728,1464,15.8052,-0.670145
511,-440,17.5754,2.77832,0,0,0,0,0,0,0,-1,1735,1464,17.5754,-2.77826
518,-440,16.9017,3.07861,0,0,0,0,0,0,0,-1,1742,1464,16.9018,-3.07859
525,-440,18.4495,12.0867,0,0,0,0,0,0,0,-1,1749,1464,18.4495,-12.0867
532,-440,15.4319,3.64392,0,0,0,0,0,0,0,-1,1756,1464,15.4318,-3.64391
539,-440,14.8214,3.41321,0,0,0,0,0,0,0,-1,1763,1464,14.8214,-3.4132
546,-440,14.8651,10.7683,0,0,0,0,0,0,0,-1,1770,1464,14.8651,-10.7683
553,-440,15.1213,11.4121,0,0,0,0,0,0,0,-1,1777,1464,15.1213,-11.4121
560,-440,17.4325,12.5394,0,0,0,0,0,0,0,-1,1784,1464,17.4325,-12.5394
567,-440,16.9025,12.4249,0,0,0,0,0,0,0,-1,1791,1464,16.9025,-12.425
574,-440,19.2841,14.8679,0,0,0,0,0,0,0,-1,1798,1464,19.2841,-14.868
581,-440,21.1647,16.6332,0,0,0,0,0,0,0,-1,1805,1464,21.1647,-16.6332
588,-440,21.3229,16.0586,0.00295086,0.00282829,-0.00196901,0.00485953,0.00091961,-0.769841,0.00298082,0.0486002,1812,1464,21.3228,-16.0586
595,-440,21.3459,15.59,0.00251491,0.00276543,-0.00186208,0.00450645,0.00077388,-0.818982,0.00278245,0.0232405,1819,1464,21.3459,-15.59
602,-440,21.4036,15.0999,0.00219127,0.0021575,-0.00149884,0.00367332,0.000675446,-0.779765,0.00225766,0.0201767,1826,1464,21.4036,-15.0999
609,-440,21.3893,14.6644,0.00192336,0.00142684,-0.00113991,0.00284173,0.000508461,-0.678178,0.0017498,0.0170992,1833,1464,21.3893,-14.6644
616,-440,21.3439,14.2378,0.00167416,0.000835907,-0.000789919,0.00214926,0.000360809,-0.541487,0.001329,0.0180649,1840,1464,21.3439,-14.2378
623,-440,21.3464,13.7792,0.00151165,0.000322338,-0.000466599,0.00167286,0.00016113,-0.332656,0.0010656,0.0143216,1847,1464,21.3464,-13.7791
630,-440,21.3372,13.3217,0.00147566,-0.000235015,-0.000194012,0.00149739,-0.000256742,-0.111525,0.00109393,0.0114283,1854,1464,21.3372,-13.3217
637,-440,21.3324,12.912,0.00142095,-0.000671998,8.0059e-05,0.00142401,-0.000675056,0.0381774,0.00123735,0.0159943,1861,1464,21.3324,-12.912
644,-440,21.3342,12.4832,0.00142665,-0.0010906,0.000350127,0.00147444,-0.00113839,0.135661,0.00151267,0.0155156,1868,1464,21.3342,-12.4832
651,-440,21.3571,11.9888,0.00148659,-0.00142721,0.000582895,0.00159887,-0.00153949,0.190293,0.00181204,0.0184323,1875,1464,21.357,-11.9888
658,-440,21.1759,11.678,0.00161087,-0.00189533,0.000915393,0.00183547,-0.00211993,0.240608,0.00228562,0.0426295,1882,1464,21.1759,-11.678
665,-440,21.0765,11.1335,0,0,0,0,0,0,0,-1,1889,1464,21.0765,-11.1335
672,-440,18.9385,9.6394,0,0,0,0,0,0,0,-1,1896,1464,18.9384,-9.63939
679,-440,16.9508,10.2336,0,0,0,0,0,0,0,-1,1903,1464,16.9508,-10.2337
686,-440,15.2556,8.44177,0,0,0,0,0,0,0,-1,1910,1464,15.2556,-8.44177
693,-440,9.88635,2.89795,0,0,0,0,0,0,0,-1,1917,1464,9.88638,-2.89798
700,-440,7.07825,-2.62061,0,0,0,0,0,0,0,-1,1924,1464,7.07829,2.62057
707,-440,0,0,0,0,0,0,0,0,0,-1,1931,1464,0,0
714,-440,0,0,0,0,0,0,0,0,0,-1,1938,1464,0,0
721,-440,0,0,0,0,0,0,0,0,0,-1,1945,1464,0,0
728,-440,0,0,0,0,0,0,0,0,0,-1,1952,1464,0,0
735,-440,0,0,0,0,0,0,0,0,0,-1,1959,1464,0,0
742,-440,0,0,0,0,0,0,0,0,0,-1,1966,1464,0,0
749,-440,0,0,0,0,0,0,0,0,0,-1,1973,1464,0,0
756,-440,0,0,0,0,0,0,0,0,0,-1,1980,1464,0,0
763,-440,0,0,0,0,0,0,0,0,0,-1,1987,1464,0,0
770,-440,0,0,0,0,0,0,0,0,0,-1,1994,1464,0,0
777,-440,0,0,0,0,0,0,0,0,0,-1,2001,1464,0,0
784,-440,0,0,0,0,0,0,0,0,0,-1,2008,1464,0,0
791,-440,0,0,0,0,0,0,0,0,0,-1,2015,1464,0,0
798,-440,0,0,0,0,0,0,0,0,0,-1,2022,1464,0,0
805,-440,0,0,0,0,0,0,0,0,0,-1,2029,1464,0,0
812,-440,0,0,0,0,0,0,0,0,0,-1,2036,1464,0,0
-700,-447,0,0,0,0,0,0,0,0,0,-1,524,1471,0,0
-693,-447,0,0,0,0,0,0,0,0,0,-1,531,1471,0,0
-686,-447,0,0,0,0,0,0,0,0,0,-1,538,1471,0,0
-679,-447,0,0,0,0,0,0,0,0,0,-1,545,1471,0,0
-672,-447,0,0,0,0,0,0,0,0,0,-1,552,1471,0,0
-665,-447,0,0,0,0,0,0,0,0,0,-1,559,1471,0,0
-658,-447,0,0,0,0,0,0,0,0,0,-1,566,1471,0,0
-651,-447,0,0,0,0,0,0,0,0,0,-1,573,1471,0,0
-644,-447,0,0,0,0,0,0,0,0,0,-1,580,1471,0,0
-637,-447,0,0,0,0,0,0,0,0,0,-1,587,1471,0,0
-630,-447,0,0,0,0,0,0,0,0,0,-1,594,1471,0,0
-623,-447,0,0,0,0,0,0,0,0,0,-1,601,1471,0,0
-616,-447,0,0,0,0,0,0,0,0,0,-1,608,1471,0,0
-609,-447,0,0,0,0,0,0,0,0,0,-1,615,1471,0,0
-602,-447,0,0,0,0,0,0,0,0,0,-1,622,1471,0,0
-595,-447,0,0,0,0,0,0,0,0,0,-1,629,1471,0,0
-588,-447,0,0,0,0,0,0,0,0,0,-1,636,1471,0,0
-581,-447,-7.06482,-1.50476,0,0,0,0,0,0,0,-1,643,1471,-7.0648,1.50474
-574,-447,-6.88092,-0.00585938,0,0,0,0,0,0,0,-1,650,1471,-6.88095,0.00589852
-567,-447,-6.8205,-1.32178,0,0,0,0,0,0,0,-1,657,1471,-6.82047,1.32172
-560,-447,-8.85748,2.80774,0,0,0,0,0,0,0,-1,664,1471,-8.85748,-2.80775
-553,-447,-7.60486,3.26794,0,0,0,0,0,0,0,-1,671,1471,-7.60487,-3.26799
-546,-447,-3.94501,1.8656,0,0,0,0,0,0,0,-1,678,1471,-3.945,-1.86554
-539,-447,-5.35492,4.50024,0,0,0,0,0,0,0,-1,685,1471,-5.35492,-4.50018
-532,-447,-6.12781,8.81091,0,0,0,0,0,0,0,-1,692,1471,-6.12781,-8.81094
-525,-447,-7.02698,9.54944,0,0,0,0,0,0,0,-1,699,1471,-7.02696,-9.54944
-518,-447,-7.09045,9.99316,0,0,0,0,0,0,0,-1,706,1471,-7.09048,-9.99321
-511,-447,-7.05945,10.6343,-0.000318628,0.000379459,0.000892972,0.000989181,-0.00092835,0.971707,0.00110727,0.0198552,713,1471,-7.05944,-10.6343
-504,-447,-7.05865,11.1584,0.000533313,0.000413599,0.00101661,0.00149183,-0.000544918,0.755993,0.00121754,0.0198039,720,1471,-7.05867,-11.1584
-497,-447,-7.0705,11.6366,0.00118909,0.000625341,0.00121992,0.00215928,-0.000344851,0.671861,0.00156717,0.0221386,727,1471,-7.07052,-11.6366
-490,-447,-7.03345,12.0623,0.00190443,0.00110821,0.00162122,0.0031757,-0.000163069,0.665,0.00217353,0.0219826,734,1471,-7.03342,-12.0623
-483,-447,-7.12054,12.5349,0.00291414,0.0018512,0.00230952,0.00475255,1.27843e-05,0.672306,0.00316412,0.0211399,741,1471,-7.12055,-12.5349
-476,-447,-7.14203,13.0249,0.00393018,0.00259863,0.00305128,0.00638748,0.000141331,0.677984,0.004212,0.0144385,748,1471,-7.142,-13.0249
-469,-447,-7.16064,13.5043,0.00512522,0.00258516,0.00375522,0.00781936,-0.000108976,0.622334,0.00524961,0.0132165,755,1471,-7.16063,-13.5043
-462,-447,-7.17334,13.9955,0.0066574,0.00285079,0.00472627,0.00984921,-0.000341025,0.593979,0.00668271,0.0123386,762,1471,-7.17333,-13.9954
-455,-447,-7.20599,14.4927,0.00852456,0.00273285,0.005779,0.0120927,-0.000835257,0.553135,0.00835413,0.0185919,769,1471,-7.20597,-14.4926
-448,-447,-7.03699,15.1078,0.0111296,0.00216112,0.00716392,0.015097,-0.00180628,0.505758,0.0107176,0.0403818,776,1471,-7.03697,-15.1077
-441,-447,-6.78168,15.8623,0,0,0,0,0,0,0,-1,783,1471,-6.78167,-15.8624
-434,-447,-7.43402,15.6273,0,0,0,0,0,0,0,-1,790,1471,-7.43404,-15.6274
-427,-447,-7.21832,14.691,0,0,0,0,0,0,0,-1,797,1471,-7.21834,-14.6911
-420,-447,-8.0545,12.8055,0,0,0,0,0,0,0,-1,804,1471,-8.05452,-12.8055
-413,-447,-4.27393,6.59705,0,0,0,0,0,0,0,-1,811,1471,-4.27392,-6.59707
-406,-447,-1.04279,6.18591,0,0,0,0,0,0,0,-1,818,1471,-1.04276,-6.18586
-399,-447,0.0134888,0.687622,0,0,0,0,0,0,0,-1,825,1471,0.0134841,-0.68767
-392,-447,-14.0646,3.76147,0,0,0,0,0,0,0,-1,832,1471,-14.0646,-3.7615
-385,-447,-15.1695,2.61865,0,0,0,0,0,0,0,-1,839,1471,-15.1695,-2.61871
-378,-447,-15.9424,1.49316,0,0,0,0,0,0,0,-1,846,1471,-15.9424,-1.49313
-371,-447,-17.3655,0.73291,0,0,0,0,0,0,0,-1,853,1471,-17.3655,-0.732946
-364,-447,0,0,0,0,0,0,0,0,0,-1,860,1471,0,0
-357,-447,0,0,0,0,0,0,0,0,0,-1,867,1471,0,0
-350,-447,0,0,0,0,0,0,0,0,0,-1,874,1471,0,0
-343,-447,0,0,0,0,0,0,0,0,0,-1,881,1471,0,0
-336,-447,0,0,0,0,0,0,0,0,0,-1,888,1471,0,0
-329,-447,0,0,0,0,0,0,0,0,0,-1,895,1471,0,0
-322,-447,0,0,0,0,0,0,0,0,0,-1,902,1471,0,0
-315,-447,0,0,0,0,0,0,0,0,0,-1,909,1471,0,0
-308,-447,0,0,0,0,0,0,0,0,0,-1,916,1471,0,0
-301,-447,0,0,0,0,0,0,0,0,0,-1,923,1471,0,0
-294,-447,0,0,0,0,0,0,0,0,0,-1,930,1471,0,0
-287,-447,0,0,0,0,0,0,0,0,0,-1,937,1471,0,0
-280,-447,0,0,0,0,0,0,0,0,0,-1,944,1471,0,0
-273,-447,0,0,0,0,0,0,0,0,0,-1,951,1471,0,0
-266,-447,0,0,0,0,0,0,0,0,0,-1,958,1471,0,0
-259,-447,0,0,0,0,0,0,0,0,0,-1,965,1471,0,0
-252,-447,0,0,0,0,0,0,0,0,0,-1,972,1471,0,0
-245,-447,0,0,0,0,0,0,0,0,0,-1,979,1471,0,0
-238,-447,0,0,0,0,0,0,0,0,0,-1,986,1471,0,0
-231,-447,0,0,0,0,0,0,0,0,0,-1,993,1471,0,0
-224,-447,0,0,0,0,0,0,0,0,0,-1,1000,1471,0,0
-217,-447,0,0,0,0,0,0,0,0,0,-1,1007,1471,0,0
-210,-447,0,0,0,0,0,0,0,0,0,-1,1014,1471,0,0
-203,-447,0,0,0,0,0,0,0,0,0,-1,1021,1471,0,0
-196,-447,0,0,0,0,0,0,0,0,0,-1,1028,1471,0,0
-189,-447,0,0,0,0,0,0,0,0,0,-1,1035,1471,0,0
-182,-447,0,0,0,0,0,0,0,0,0,-1,1042,1471,0,0
-175,-447,0,0,0,0,0,0,0,0,0,-1,1049,1471,0,0
-168,-447,0,0,0,0,0,0,0,0,0,-1,1056,1471,0,0
-161,-447,0,0,0,0,0,0,0,0,0,-1,1063,1471,0,0
-154,-447,0,0,0,0,0,0,0,0,0,-1,1070,1471,0,0
-147,-447,0,0,0,0,0,0,0,0,0,-1,1077,1471,0,0
-140,-447,0,0,0,0,0,0,0,0,0,-1,1084,1471,0,0
-133,-447,0,0,0,0,0,0,0,0,0,-1,1091,1471,0,0
-126,-447,0,0,0,0,0,0,0,0,0,-1,1098,1471,0,0
-119,-447,0,0,0,0,0,0,0,0,0,-1,1105,1471,0,0
-112,-447,0,0,0,0,0,0,0,0,0,-1,1112,1471,0,0
-105,-447,0,0,0,0,0,0,0,0,0,-1,1119,1471,0,0
-98,-447,0,0,0,0,0,0,0,0,0,-1,1126,1471,0,0
-91,-447,0,0,0,0,0,0,0,0,0,-1,1133,1471,0,0
-84,-447,0,0,0,0,0,0,0,0,0,-1,1140,1471,0,0
-77,-447,0,0,0,0,0,0,0,0,0,-1,1147,1471,0,0
-70,-447,0,0,0,0,0,0,0,0,0,-1,1154,1471,0,0
-63,-447,0,0,0,0,0,0,0,0,0,-1,1161,1471,0,0
-56,-447,0,0,0,0,0,0,0,0,0,-1,1168,1471,0,0
-49,-447,0,0,0,0,0,0,0,0,0,-1,1175,1471,0,0
-42,-447,0,0,0,0,0,0,0,0,0,-1,1182,1471,0,0
-35,-447,0,0,0,0,0,0,0,0,0,-1,1189,1471,0,0
-28,-447,0,0,0,0,0,0,0,0,0,-1,1196,1471,0,0
-21,-447,0,0,0,0,0,0,0,0,0,-1,1203,1471,0,0
-14,-447,0,0,0,0,0,0,0,0,0,-1,1210,1471,0,0
-7,-447,0,0,0,0,0,0,0,0,0,-1,1217,1471,0,0
0,-447,0,0,0,0,0,0,0,0,0,-1,1224,1471,0,0
7,-447,0,0,0,0,0,0,0,0,0,-1,1231,1471,0,0
14,-447,0,0,0,0,0,0,0,0,0,-1,1238,1471,0,0
21,-447,0,0,0,0,0,0,0,0,0,-1,1245,1471,0,0
28,-447,0,0,0,0,0,0,0,0,0,-1,1252,1471,0,0
35,-447,0,0,0,0,0,0,0,0,0,-1,1259,1471,0,0
42,-447,0,0,0,0,0,0,0,0,0,-1,1266,1471,0,0
49,-447,0,0,0,0,0,0,0,0,0,-1,1273,1471,0,0
56,-447,0,0,0,0,0,0,0,0,0,-1,1280,1471,0,0
63,-447,0,0,0,0,0,0,0,0,0,-1,1287,1471,0,0
70,-447,0,0,0,0,0,0,0,0,0,-1,1294,1471,0,0
77,-447,0,0,0,0,0,0,0,0,0,-1,1301,1471,0,0
84,-447,0,0,0,0,0,0,0,0,0,-1,1308,1471,0,0
91,-447,0,0,0,0,0,0,0,0,0,-1,1315,1471,0,0
98,-447,0,0,0,0,0,0,0,0,0,-1,1322,1471,0,0
105,-447,0,0,0,0,0,0,0,0,0,-1,1329,1471,0,0
112,-447,0,0,0,0,0,0,0,0,0,-1,1336,1471,0,0
119,-447,0,0,0,0,0,0,0,0,0,-1,1343,1471,0,0
126,-447,0,0,0,0,0,0,0,0,0,-1,1350,1471,0,0
133,-447,0,0,0,0,0,0,0,0,0,-1,1357,1471,0,0
140,-447,0,0,0,0,0,0,0,0,0,-1,1364,1471,0,0
147,-447,0,0,0,0,0,0,0,0,0,-1,1371,1471,0,0
154,-447,0,0,0,0,0,0,0,0,0,-1,1378,1471,0,0
161,-447,0,0,0,0,0,0,0,0,0,-1,1385,1471,0,0
168,-447,0,0,0,0,0,0,0,0,0,-1,1392,1471,0,0
175,-447,0,0,0,0,0,0,0,0,0,-1,1399,1471,0,0
182,-447,0,0,0,0,0,0,0,0,0,-1,1406,1471,0,0
189,-447,0,0,0,0,0,0,0,0,0,-1,1413,1471,0,0
196,-447,0,0,0,0,0,0,0,0,0,-1,1420,1471,0,0
203,-447,0,0,0,0,0,0,0,0,0,-1,1427,1471,0,0
210,-447,0,0,0,0,0,0,0,0,0,-1,1434,1471,0,0
217,-447,0,0,0,0,0,0,0,0,0,-1,1441,1471,0,0
224,-447,0,0,0,0,0,0,0,0,0,-1,1448,1471,0,0
231,-447,0,0,0,0,0,0,0,0,0,-1,1455,1471,0,0
238,-447,0,0,0,0,0,0,0,0,0,-1,1462,1471,0,0
245,-447,0,0,0,0,0,0,0,0,0,-1,1469,1471,0,0
252,-447,0,0,0,0,0,0,0,0,0,-1,1476,1471,0,0
259,-447,0,0,0,0,0,0,0,0,0,-1,1483,1471,0,0
266,-447,0,0,0,0,0,0,0,0,0,-1,1490,1471,0,0
273,-447,0,0,0,0,0,0,0,0,0,-1,1497,1471,0,0
280,-447,0,0,0,0,0,0,0,0,0,-1,1504,1471,0,0
287,-447,0,0,0,0,0,0,0,0,0,-1,1511,1471,0,0
294,-447,0,0,0,0,0,0,0,0,0,-1,1518,1471,0,0
301,-447,0,0,0,0,0,0,0,0,0,-1,1525,1471,0,0
308,-447,0,0,0,0,0,0,0,0,0,-1,1532,1471,0,0
315,-447,0,0,0,0,0,0,0,0,0,-1,1539,1471,0,0
322,-447,0,0,0,0,0,0,0,0,0,-1,1546,1471,0,0
329,-447,0,0,0,0,0,0,0,0,0,-1,1553,1471,0,0
336,-447,0,0,0,0,0,0,0,0,0,-1,1560,1471,0,0
343,-447,0,0,0,0,0,0,0,0,0,-1,1567,1471,0,0
350,-447,0,0,0,0,0,0,0,0,0,-1,1574,1471,0,0
357,-447,0,0,0,0,0,0,0,0,0,-1,1581,1471,0,0
364,-447,0,0,0,0,0,0,0,0,0,-1,1588,1471,0,0
371,-447,0,0,0,0,0,0,0,0,0,-1,1595,1471,0,0
378,-447,0,0,0,0,0,0,0,0,0,-1,1602,1471,0,0
385,-447,0,0,0,0,0,0,0,0,0,-1,1609,1471,0,0
392,-447,0,0,0,0,0,0,0,0,0,-1,1616,1471,0,0
399,-447,0,0,0,0,0,0,0,0,0,-1,1623,1471,0,0
406,-447,0,0,0,0,0,0,0,0,0,-1,1630,1471,0,0
413,-447,0,0,0,0,0,0,0,0,0,-1,1637,1471,0,0
420,-447,0,0,0,0,0,0,0,0,0,-1,1644,1471,0,0
427,-447,0,0,0,0,0,0,0,0,0,-1,1651,1471,0,0
434,-447,0,0,0,0,0,0,0,0,0,-1,1658,1471,0,0
441,-447,0,0,0,0,0,0,0,0,0,-1,1665,1471,0,0
448,-447,0,0,0,0,0,0,0,0,0,-1,1672,1471,0,0
455,-447,0,0,0,0,0,0,0,0,0,-1,1679,1471,0,0
462,-447,0,0,0,0,0,0,0,0,0,-1,1686,1471,0,0
469,-447,0,0,0,0,0,0,0,0,0,-1,1693,1471,0,0
476,-447,0,0,0,0,0,0,0,0,0,-1,1700,1471,0,0
483,-447,0,0,0,0,0,0,0,0,0,-1,1707,1471,0,0
490,-447,18.2214,-0.810303,0,0,0,0,0,0,0,-1,1714,1471,18.2215,0.810307
497,-447,17.0237,0.352417,0,0,0,0,0,0,0,-1,1721,1471,17.0237,-0.352442
504,-447,15.8998,1.53479,0,0,0,0,0,0,0,-1,1728,1471,15.8997,-1.53478
511,-447,14.7201,2.76111,0,0,0,0,0,0,0,-1,1735,1471,14.7201,-2.76107
518,-447,17.7618,13.2864,0,0,0,0,0,0,0,-1,1742,1471,17.7619,-13.2863
525,-447,17.1191,11.9014,0,0,0,0,0,0,0,-1,1749,1471,17.1191,-11.9013
532,-447,16.3959,10.0455,0,0,0,0,0,0,0,-1,1756,1471,16.3959,-10.0456
539,-447,14.1699,10.0204,0,0,0,0,0,0,0,-1,1763,1471,14.1699,-10.0204
546,-447,16.3715,11.8046,0,0,0,0,0,0,0,-1,1770,1471,16.3714,-11.8046
553,-447,17.5106,13.4012,0,0,0,0,0,0,0,-1,1777,1471,17.5107,-13.4012
560,-447,17.0187,13.168,0,0,0,0,0,0,0,-1,1784,1471,17.0187,-13.168
567,-447,18.9286,15.1703,0,0,0,0,0,0,0,-1,1791,1471,18.9286,-15.1703
574,-447,20.5642,17.1956,0,0,0,0,0,0,0,-1,1798,1471,20.5642,-17.1955
581,-447,20.8599,16.635,0.0027968,0.00225643,-0.00136776,0.0039208,0.00113243,-0.687885,0.00233,0.0340173,1805,1471,20.8598,-16.635
588,-447,20.9501,16.0085,0.00251709,0.00216987,-0.00142416,0.00377818,0.000908773,-0.724745,0.00227713,0.0199196,1812,1471,20.9501,-16.0085
595,-447,20.9576,15.5408,0.00230026,0.00220784,-0.00146541,0.00372019,0.000787916,-0.769637,0.00226367,0.0134474,1819,1471,20.9576,-15.5408
602,-447,20.9501,15.0945,0.00207109,0.00173032,-0.00124322,0.00315555,0.000645861,-0.717295,0.00192488,0.0118003,1826,1471,20.95,-15.0945
609,-447,20.9323,14.6736,0.00185708,0.00107957,-0.000976895,0.00251973,0.000416917,-0.596028,0.00155954,0.0130067,1833,1471,20.9323,-14.6736
616,-447,20.9352,14.2235,0.00168429,0.000559079,-0.00070964,0.00202729,0.000216084,-0.450229,0.00128556,0.0147522,1840,1471,20.9351,-14.2236
623,-447,20.9337,13.7997,0.00158334,7.39231e-05,-0.000431554,0.00169801,-4.07493e-05,-0.259718,0.00114583,0.017201,1847,1471,20.9338,-13.7997
630,-447,20.9155,13.3586,0.00159321,-0.00046737,-0.000173109,0.00160765,-0.000481812,-0.0832324,0.00126338,0.0100896,1854,1471,20.9155,-13.3587
637,-447,20.9138,12.9159,0.00159509,-0.000883722,7.85915e-05,0.00159758,-0.000886211,0.0316629,0.00145349,0.0105538,1861,1471,20.9138,-12.9158
644,-447,20.9081,12.4728,0.00165199,-0.00128862,0.000320494,0.00168652,-0.00132315,0.10731,0.00174185,0.0119804,1868,1471,20.9081,-12.4727
651,-447,20.9491,12.0148,0.00174743,-0.00164594,0.000565494,0.00183919,-0.00173769,0.160857,0.00206539,0.0446983,1875,1471,20.949,-12.0148
658,-447,21.125,11.4767,0,0,0,0,0,0,0,-1,1882,1471,21.125,-11.4766
665,-447,18.4946,9.79919,0,0,0,0,0,0,0,-1,1889,1471,18.4946,-9.79922
672,-447,18.9784,9.66077,0,0,0,0,0,0,0,-1,1896,1471,18.9784,-9.66081
679,-447,14.844,7.4248,0,0,0,0,0,0,0,-1,1903,1471,14.844,-7.42477
686,-447,9.81079,4.30859,0,0,0,0,0,0,0,-1,1910,1471,9.8108,-4.30864
693,-447,10.48,2.08643,0,0,0,0,0,0,0,-1,1917,1471,10.48,-2.08642
700,-447,0,0,0,0,0,0,0,0,0,-1,1924,1471,0,0
707,-447,0,0,0,0,0,0,0,0,0,-1,1931,1471,0,0
714,-447,0,0,0,0,0,0,0,0,0,-1,1938,1471,0,0
721,-447,0,0,0,0,0,0,0,0,0,-1,1945,1471,0,0
728,-447,0,0,0,0,0,0,0,0,0,-1,1952,1471,0,0
735,-447,0,0,0,0,0,0,0,0,0,-1,1959,1471,0,0
742,-447,0,0,0,0,0,0,0,0,0,-1,1966,1471,0,0
749,-447,0,0,0,0,0,0,0,0,0,-1,1973,1471,0,0
756,-447,0,0,0,0,0,0,0,0,0,-1,1980,1471,0,0
763,-447,0,0,0,0,0,0,0,0,0,-1,1987,1471,0,0
770,-447,0,0,0,0,0,0,0,0,0,-1,1994,1471,0,0
777,-447,0,0,0,0,0,0,0,0,0,-1,2001,1471,0,0
784,-447,0,0,0,0,0,0,0,0,0,-1,2008,1471,0,0
791,-447,0,0,0,0,0,0,0,0,0,-1,2015,1471,0,0
798,-447,0,0,0,0,0,0,0,0,0,-1,2022,1471,0,0
805,-447,0,0,0,0,0,0,0,0,0,-1,2029,1471,0,0
812,-447,0,0,0,0,0,0,0,0,0,-1,2036,1471,0,0
-700,-454,0,0,0,0,0,0,0,0,0,-1,524,1478,0,0
-693,-454,0,0,0,0,0,0,0,0,0,-1,531,1478,0,0
-686,-454,0,0,0,0,0,0,0,0,0,-1,538,1478,0,0
-679,-454,0,0,0,0,0,0,0,0,0,-1,545,1478,0,0
-672,-454,0,0,0,0,0,0,0,0,0,-1,552,1478,0,0
-665,-454,0,0,0,0,0,0,0,0,0,-1,559,1478,0,0
-658,-454,0,0,0,0,0,0,0,0,0,-1,566,1478,0,0
-651,-454,0,0,0,0,0,0,0,0,0,-1,573,1478,0,0
-644,-454,0,0,0,0,0,0,0,0,0,-1,580,1478,0,0
-637,-454,0,0,0,0,0,0,0,0,0,-1,587,1478,0,0
-630,-454,0,0,0,0,0,0,0,0,0,-1,594,1478,0,0
-623,-454,0,0,0,0,0,0,0,0,0,-1,601,1478,0,0
-616,-454,0,0,0,0,0,0,0,0,0,-1,608,1478,0,0
-609,-454,0,0,0,0,0,0,0,0,0,-1,615,1478,0,0
-602,-454,0,0,0,0,0,0,0,0,0,-1,622,1478,0,0
-595,-454,0,0,0,0,0,0,0,0,0,-1,629,1478,0,0
-588,-454,0,0,0,0,0,0,0,0,0,-1,636,1478,0,0
-581,-454,0,0,0,0,0,0,0,0,0,-1,643,1478,0,0
-574,-454,-8.4881,-0.465942,0,0,0,0,0,0,0,-1,650,1478,-8.4881,0.465885
-567,-454,-8.10046,0.922974,0,0,0,0,0,0,0,-1,657,1478,-8.10047,-0.923034
-560,-454,-10.656,3.51172,0,0,0,0,0,0,0,-1,664,1478,-10.656,-3.51176
-553,-454,-9.01129,3.95251,0,0,0,0,0,0,0,-1,671,1478,-9.0113,-3.95256
-546,-454,-9.61896,6.05237,0,0,0,0,0,0,0,-1,678,1478,-9.61897,-6.05239
-539,-454,-7.72589,4.96533,0,0,0,0,0,0,0,-1,685,1478,-7.72592,-4.96532
-532,-454,-7.03931,7.59985,0,0,0,0,0,0,0,-1,692,1478,-7.03929,-7.59981
-525,-454,-5.78723,9.677,0,0,0,0,0,0,0,-1,699,1478,-5.78722,-9.67703
-518,-454,-6.49316,10.1207,0,0,0,0,0,0,0,-1,706,1478,-6.49315,-10.1208
-511,-454,-6.65741,10.5918,0.000624302,0.000442137,0.00147962,0.00201564,-0.0009492,0.754658,0.00174827,0.0355445,713,1478,-6.6574,-10.5918
-504,-454,-6.60406,11.1527,0.00111206,0.000216894,0.00128347,0.00202375,-0.000694796,0.617627,0.00163087,0.0160539,720,1478,-6.60405,-11.1527
-497,-454,-6.58307,11.6539,0.001395,0.000199842,0.00119074,0.0021297,-0.000534858,0.552834,0.00162765,0.0176543,727,1478,-6.58306,-11.654
-490,-454,-6.60419,12.124,0.00177634,0.00048181,0.00133106,0.00260916,-0.000351013,0.559093,0.00186747,0.016916,734,1478,-6.60419,-12.124
-483,-454,-6.64398,12.5792,0.0025211,0.00107483,0.00181292,0.00374978,-0.000153862,0.595629,0.00255269,0.0164582,741,1478,-6.644,-12.5793
-476,-454,-6.67688,13.0162,0.00331275,0.00171704,0.00239498,0.00503927,-9.48156e-06,0.624611,0.00336268,0.0141921,748,1478,-6.67685,-13.0162
-469,-454,-6.68005,13.5123,0.00430826,0.00170785,0.0029902,0.0062687,-0.000252595,0.580318,0.00426582,0.0104964,755,1478,-6.68008,-13.5123
-462,-454,-6.69635,14.0229,0.00559627,0.00190585,0.00380754,0.00798215,-0.000480034,0.559764,0.00548845,0.0105168,762,1478,-6.69635,-14.023
-455,-454,-6.71912,14.4952,0.0071813,0.00176973,0.00470683,0.00990465,-0.000953628,0.524532,0.00694284,0.0111192,769,1478,-6.71909,-14.4953
-448,-454,-6.71338,14.984,0.00934695,0.00130907,0.00589662,0.012464,-0.00180795,0.486275,0.00897289,0.0161553,776,1478,-6.71337,-14.984
-441,-454,-6.44617,15.6924,0.0116808,-0.000358178,0.00673929,0.0146974,-0.00337486,0.420878,0.0110957,0.0393452,783,1478,-6.44618,-15.6924
-434,-454,-5.91772,16.5007,0,0,0,0,0,0,0,-1,790,1478,-5.9177,-16.5007
-427,-454,-5.9906,15.9829,0,0,0,0,0,0,0,-1,797,1478,-5.99062,-15.9829
-420,-454,-6.28088,15.2135,0,0,0,0,0,0,0,-1,804,1478,-6.28087,-15.2135
-413,-454,-5.4408,13.674,0,0,0,0,0,0,0,-1,811,1478,-5.44079,-13.6739
-406,-454,-2.38208,10.0308,0,0,0,0,0,0,0,-1,818,1478,-2.38209,-10.0308
-399,-454,-1.21033,6.95447,0,0,0,0,0,0,0,-1,825,1478,-1.21035,-6.95452
-392,-454,0.0967407,0.985474,0,0,0,0,0,0,0,-1,832,1478,0.0967364,-0.985529
-385,-454,2.38629,3.297,0,0,0,0,0,0,0,-1,839,1478,2.38629,-3.29702
-378,-454,-15.9756,2.83997,0,0,0,0,0,0,0,-1,846,1478,-15.9756,-2.83994
-371,-454,-17.2753,2.01453,0,0,0,0,0,0,0,-1,853,1478,-17.2753,-2.01455
-364,-454,1.08124,0.819458,0,0,0,0,0,0,0,-1,860,1478,1.08124,-0.819513
-357,-454,0,0,0,0,0,0,0,0,0,-1,867,1478,0,0
-350,-454,0,0,0,0,0,0,0,0,0,-1,874,1478,0,0
-343,-454,0,0,0,0,0,0,0,0,0,-1,881,1478,0,0
-336,-454,0,0,0,0,0,0,0,0,0,-1,888,1478,0,0
-329,-454,0,0,0,0,0,0,0,0,0,-1,895,1478,0,0
-322,-454,0,0,0,0,0,0,0,0,0,-1,902,1478,0,0
-315,-454,0,0,0,0,0,0,0,0,0,-1,909,1478,0,0
-308,-454,0,0,0,0,0,0,0,0,0,-1,916,1478,0,0
-301,-454,0,0,0,0,0,0,0,0,0,-1,923,1478,0,0
-294,-454,0,0,0,0,0,0,0,0,0,-1,930,1478,0,0
-287,-454,0,0,0,0,0,0,0,0,0,-1,937,1478,0,0
-280,-454,0,0,0,0,0,0,0,0,0,-1,944,1478,0,0
-273,-454,0,0,0,0,0,0,0,0,0,-1,951,1478,0,0
-266,-454,0,0,0,0,0,0,0,0,0,-1,958,1478,0,0
-259,-454,0,0,0,0,0,0,0,0,0,-1,965,1478,0,0
-252,-454,0,0,0,0,0,0,0,0,0,-1,972,1478,0,0
-245,-454,0,0,0,0,0,0,0,0,0,-1,979,1478,0,0
-238,-454,0,0,0,0,0,0,0,0,0,-1,986,1478,0,0
-231,-454,0,0,0,0,0,0,0,0,0,-1,993,1478,0,0
-224,-454,0,0,0,0,0,0,0,0,0,-1,1000,1478,0,0
-217,-454,0,0,0,0,0,0,0,0,0,-1,1007,1478,0,0
-210,-454,0,0,0,0,0,0,0,0,0,-1,1014,1478,0,0
-203,-454,0,0,0,0,0,0,0,0,0,-1,1021,1478,0,0
-196,-454,0,0,0,0,0,0,0,0,0,-1,1028,1478,0,0
-189,-454,0,0,0,0,0,0,0,0,0,-1,1035,1478,0,0
-182,-454,0,0,0,0,0,0,0,0,0,-1,1042,1478,0,0
-175,-454,0,0,0,0,0,0,0,0,0,-1,1049,1478,0,0
-168,-454,0,0,0,0,0,0,0,0,0,-1,1056,1478,0,0
-161,-454,0,0,0,0,0,0,0,0,0,-1,1063,1478,0,0
-154,-454,0,0,0,0,0,0,0,0,0,-1,1070,1478,0,0
-147,-454,0,0,0,0,0,0,0,0,0,-1,1077,1478,0,0
-140,-454,0,0,0,0,0,0,0,0,0,-1,1084,1478,0,0
-133,-454,0,0,0,0,0,0,0,0,0,-1,1091,1478,0,0
-126,-454,0,0,0,0,0,0,0,0,0,-1,1098,1478,0,0
-119,-454,0,0,0,0,0,0,0,0,0,-1,1105,1478,0,0
-112,-454,0,0,0,0,0,0,0,0,0,-1,1112,1478,0,0
-105,-454,0,0,0,0,0,0,0,0,0,-1,1119,1478,0,0
-98,-454,0,0,0,0,0,0,0,0,0,-1,1126,1478,0,0
-91,-454,0,0,0,0,0,0,0,0,0,-1,1133,1478,0,0
-84,-454,0,0,0,0,0,0,0,0,0,-1,1140,1478,0,0
-77,-454,0,0,0,0,0,0,0,0,0,-1,1147,1478,0,0
-70,-454,0,0,0,0,0,0,0,0,0,-1,1154,1478,0,0
-63,-454,0,0,0,0,0,0,0,0,0,-1,1161,1478,0,0
-56,-454,0,0,0,0,0,0,0,0,0,-1,1168,1478,0,0
-49,-454,0,0,0,0,0,0,0,0,0,-1,1175,1478,0,0
-42,-454,0,0,0,0,0,0,0,0,0,-1,1182,1478,0,0
-35,-454,0,0,0,0,0,0,0,0,0,-1,1189,1478,0,0
-28,-454,0,0,0,0,0,0,0,0,0,-1,1196,1478,0,0
-21,-454,0,0,0,0,0,0,0,0,0,-1,1203,1478,0,0
-14,-454,0,0,0,0,0,0,0,0,0,-1,1210,1478,0,0
-7,-454,0,0,0,0,0,0,0,0,0,-1,1217,1478,0,0
0,-454,0,0,0,0,0,0,0,0,0,-1,1224,1478,0,0
7,-454,0,0,0,0,0,0,0,0,0,-1,1231,1478,0,0
14,-454,0,0,0,0,0,0,0,0,0,-1,1238,1478,0,0
21,-454,0,0,0,0,0,0,0,0,0,-1,1245,1478,0,0
28,-454,0,0,0,0,0,0,0,0,0,-1,1252,1478,0,0
35,-454,0,0,0,0,0,0,0,0,0,-1,1259,1478,0,0
42,-454,0,0,0,0,0,0,0,0,0,-1,1266,1478,0,0
49,-454,0,0,0,0,0,0,0,0,0,-1,1273,1478,0,0
56,-454,0,0,0,0,0,0,0,0,0,-1,1280,1478,0,0
63,-454,0,0,0,0,0,0,0,0,0,-1,1287,1478,0,0
70,-454,0,0,0,0,0,0,0,0,0,-1,1294,1478,0,0
77,-454,0,0,0,0,0,0,0,0,0,-1,1301,1478,0,0
84,-454,0,0,0,0,0,0,0,0,0,-1,1308,1478,0,0
91,-454,0,0,0,0,0,0,0,0,0,-1,1315,1478,0,0
98,-454,0,0,0,0,0,0,0,0,0,-1,1322,1478,0,0
105,-454,0,0,0,0,0,0,0,0,0,-1,1329,1478,0,0
112,-454,0,0,0,0,0,0,0,0,0,-1,1336,1478,0,0
119,-454,0,0,0,0,0,0,0,0,0,-1,1343,1478,0,0
126,-454,0,0,0,0,0,0,0,0,0,-1,1350,1478,0,0
133,-454,0,0,0,0,0,0,0,0,0,-1,1357,1478,0,0
140,-454,0,0,0,0,0,0,0,0,0,-1,1364,1478,0,0
147,-454,0,0,0,0,0,0,0,0,0,-1,1371,1478,0,0
154,-454,0,0,0,0,0,0,0,0,0,-1,1378,1478,0,0
161,-454,0,0,0,0,0,0,0,0,0,-1,1385,1478,0,0
168,-454,0,0,0,0,0,0,0,0,0,-1,1392,1478,0,0
175,-454,0,0,0,0,0,0,0,0,0,-1,1399,1478,0,0
182,-454,0,0,0,0,0,0,0,0,0,-1,1406,1478,0,0
189,-454,0,0,0,0,0,0,0,0,0,-1,1413,1478,0,0
196,-454,0,0,0,0,0,0,0,0,0,-1,1420,1478,0,0
203,-454,0,0,0,0,0,0,0,0,0,-1,1427,1478,0,0
210,-454,0,0,0,0,0,0,0,0,0,-1,1434,1478,0,0
217,-454,0,0,0,0,0,0,0,0,0,-1,1441,1478,0,0
224,-454,0,0,0,0,0,0,0,0,0,-1,1448,1478,0,0
231,-454,0,0,0,0,0,0,0,0,0,-1,1455,1478,0,0
238,-454,0,0,0,0,0,0,0,0,0,-1,1462,1478,0,0
245,-454,0,0,0,0,0,0,0,0,0,-1,1469,1478,0,0
252,-454,0,0,0,0,0,0,0,0,0,-1,1476,1478,0,0
259,-454,0,0,0,0,0,0,0,0,0,-1,1483,1478,0,0
266,-454,0,0,0,0,0,0,0,0,0,-1,1490,1478,0,0
273,-454,0,0,0,0,0,0,0,0,0,-1,1497,1478,0,0
280,-454,0,0,0,0,0,0,0,0,0,-1,1504,1478,0,0
287,-454,0,0,0,0,0,0,0,0,0,-1,1511,1478,0,0
294,-454,0,0,0,0,0,0,0,0,0,-1,1518,1478,0,0
301,-454,0,0,0,0,0,0,0,0,0,-1,1525,1478,0,0
308,-454,0,0,0,0,0,0,0,0,0,-1,1532,1478,0,0
315,-454,0,0,0,0,0,0,0,0,0,-1,1539,1478,0,0
322,-454,0,0,0,0,0,0,0,0,0,-1,1546,1478,0,0
329,-454,0,0,0,0,0,0,0,0,0,-1,1553,1478,0,0
336,-454,0,0,0,0,0,0,0,0,0,-1,1560,1478,0,0
343,-454,0,0,0,0,0,0,0,0,0,-1,1567,1478,0,0
350,-454,0,0,0,0,0,0,0,0,0,-1,1574,1478,0,0
357,-454,0,0,0,0,0,0,0,0,0,-1,1581,1478,0,0
364,-454,0,0,0,0,0,0,0,0,0,-1,1588,1478,0,0
371,-454,0,0,0,0,0,0,0,0,0,-1,1595,1478,0,0
378,-454,0,0,0,0,0,0,0,0,0,-1,1602,1478,0,0
385,-454,0,0,0,0,0,0,0,0,0,-1,1609,1478,0,0
392,-454,0,0,0,0,0,0,0,0,0,-1,1616,1478,0,0
399,-454,0,0,0,0,0,0,0,0,0,-1,1623,1478,0,0
406,-454,0,0,0,0,0,0,0,0,0,-1,1630,1478,0,0
413,-454,0,0,0,0,0,0,0,0,0,-1,1637,1478,0,0
420,-454,0,0,0,0,0,0,0,0,0,-1,1644,1478,0,0
427,-454,0,0,0,0,0,0,0,0,0,-1,1651,1478,0,0
434,-454,0,0,0,0,0,0,0,0,0,-1,1658,1478,0,0
441,-454,0,0,0,0,0,0,0,0,0,-1,1665,1478,0,0
448,-454,0,0,0,0,0,0,0,0,0,-1,1672,1478,0,0
455,-454,0,0,0,0,0,0,0,0,0,-1,1679,1478,0,0
462,-454,0,0,0,0,0,0,0,0,0,-1,1686,1478,0,0
469,-454,0,0,0,0,0,0,0,0,0,-1,1693,1478,0,0
476,-454,0,0,0,0,0,0,0,0,0,-1,1700,1478,0,0
483,-454,14.2399,3.97498,0,0,0,0,0,0,0,-1,1707,1478,14.2399,-3.97502
490,-454,18.1821,-0.175781,0,0,0,0,0,0,0,-1,1714,1478,18.1821,0.175822
497,-454,16.8854,1.01208,0,0,0,0,0,0,0,-1,1721,1478,16.8854,-1.01209
504,-454,15.587,2.05994,0,0,0,0,0,0,0,-1,1728,1478,15.5871,-2.05998
511,-454,17.0273,14.5258,0,0,0,0,0,0,0,-1,1735,1478,17.0273,-14.5258
518,-454,16.4158,13.1039,0,0,0,0,0,0,0,-1,1742,1478,16.4157,-13.1038
525,-454,15.7842,11.6628,0,0,0,0,0,0,0,-1,1749,1478,15.7841,-11.6629
532,-454,15.1094,10.2476,0,0,0,0,0,0,0,-1,1756,1478,15.1094,-10.2475
539,-454,13.7905,10.9373,0,0,0,0,0,0,0,-1,1763,1478,13.7906,-10.9372
546,-454,16.2002,13.2458,0,0,0,0,0,0,0,-1,1770,1478,16.2002,-13.2459
553,-454,15.6747,12.1868,0,0,0,0,0,0,0,-1,1777,1478,15.6747,-12.1868
560,-454,16.3895,14.0527,0,0,0,0,0,0,0,-1,1784,1478,16.3895,-14.0528
567,-454,20.6262,17.2249,0,0,0,0,0,0,0,-1,1791,1478,20.6262,-17.2248
574,-454,20.5245,16.911,0.00157968,0.00107642,-0.000219811,0.00166216,0.000993928,-0.359003,0.000965772,0.0300663,1798,1478,20.5246,-16.911
581,-454,20.5122,16.4441,0.00173467,0.00154468,-0.000650214,0.00229679,0.000982558,-0.712861,0.00133065,0.0188091,1805,1478,20.5122,-16.444
588,-454,20.5371,15.9819,0.00176138,0.00158181,-0.000865189,0.00254143,0.000801757,-0.733695,0.00150023,0.0132569,1812,1478,20.5371,-15.9819
595,-454,20.5006,15.5465,0.00187907,0.00168171,-0.00107088,0.00285582,0.000704973,-0.739454,0.0017178,0.0122357,1819,1478,20.5006,-15.5465
602,-454,20.4928,15.104,0.00193796,0.00130627,-0.00104721,0.00271592,0.000528309,-0.638934,0.00166273,0.00852176,1826,1478,20.4928,-15.104
609,-454,20.5006,14.6824,0.00201193,0.000729908,-0.000960166,0.00252539,0.000216443,-0.491073,0.00161629,0.0105684,1833,1478,20.5007,-14.6824
616,-454,20.5118,14.2473,0.0021455,0.000263544,-0.000864513,0.00248234,-7.32975e-05,-0.371536,0.00167986,0.0138285,1840,1478,20.5119,-14.2473
623,-454,20.5173,13.8043,0.00233882,-0.00020332,-0.000731899,0.00253448,-0.000398979,-0.261222,0.00183715,0.0131955,1847,1478,20.5174,-13.8044
630,-454,20.5002,13.3739,0.00261682,-0.000720727,-0.000587745,0.0027173,-0.000821205,-0.169317,0.00213849,0.0123724,1854,1478,20.5003,-13.3739
637,-454,20.4563,12.9403,0.00289769,-0.00110088,-0.000470155,0.00295222,-0.00115542,-0.115482,0.00244601,0.0112653,1861,1478,20.4563,-12.9403
644,-454,20.5358,12.4838,0.00324069,-0.00147675,-0.000382241,0.00327146,-0.00150753,-0.0803288,0.00282111,0.0232638,1868,1478,20.5357,-12.4838
651,-454,20.6465,11.892,0,0,0,0,0,0,0,-1,1875,1478,20.6465,-11.892
658,-454,17.2583,10.0765,0,0,0,0,0,0,0,-1,1882,1478,17.2583,-10.0765
665,-454,17.683,9.67566,0,0,0,0,0,0,0,-1,1889,1478,17.683,-9.67572
672,-454,16.5476,6.41931,0,0,0,0,0,0,0,-1,1896,1478,16.5476,-6.41929
679,-454,14.2161,5.45007,0,0,0,0,0,0,0,-1,1903,1478,14.2161,-5.45013
686,-454,10.3767,2.12842,0,0,0,0,0,0,0,-1,1910,1478,10.3767,-2.12839
693,-454,11.1857,1.48486,0,0,0,0,0,0,0,-1,1917,1478,11.1857,-1.48487
700,-454,0,0,0,0,0,0,0,0,0,-1,1924,1478,0,0
707,-454,0,0,0,0,0,0,0,0,0,-1,1931,1478,0,0
714,-454,0,0,0,0,0,0,0,0,0,-1,1938,1478,0,0
721,-454,0,0,0,0,0,0,0,0,0,-1,1945,1478,0,0
728,-454,0,0,0,0,0,0,0,0,0,-1,1952,1478,0,0
735,-454,0,0,0,0,0,0,0,0,0,-1,1959,1478,0,0
742,-454,0,0,0,0,0,0,0,0,0,-1,1966,1478,0,0
749,-454,0,0,0,0,0,0,0,0,0,-1,1973,1478,0,0
756,-454,0,0,0,0,0,0,0,0,0,-1,1980,1478,0,0
763,-454,0,0,0,0,0,0,0,0,0,-1,1987,1478,0,0
770,-454,0,0,0,0,0,0,0,0,0,-1,1994,1478,0,0
777,-454,0,0,0,0,0,0,0,0,0,-1,2001,1478,0,0
784,-454,0,0,0,0,0,0,0,0,0,-1,2008,1478,0,0
791,-454,0,0,0,0,0,0,0,0,0,-1,2015,1478,0,0
798,-454,0,0,0,0,0,0,0,0,0,-1,2022,1478,0,0
805,-454,0,0,0,0,0,0,0,0,0,-1,2029,1478,0,0
812,-454,0,0,0,0,0,0,0,0,0,-1,2036,1478,0,0
-700,-461,0,0,0,0,0,0,0,0,0,-1,524,1485,0,0
-693,-461,0,0,0,0,0,0,0,0,0,-1,531,1485,0,0
-686,-461,0,0,0,0,0,0,0,0,0,-1,538,1485,0,0
-679,-461,0,0,0,0,0,0,0,0,0,-1,545,1485,0,0
-672,-461,0,0,0,0,0,0,0,0,0,-1,552,1485,0,0
-665,-461,0,0,0,0,0,0,0,0,0,-1,559,1485,0,0
-658,-461,0,0,0,0,0,0,0,0,0,-1,566,1485,0,0
-651,-461,0,0,0,0,0,0,0,0,0,-1,573,1485,0,0
-644,-461,0,0,0,0,0,0,0,0,0,-1,580,1485,0,0
-637,-461,0,0,0,0,0,0,0,0,0,-1,587,1485,0,0
-630,-461,0,0,0,0,0,0,0,0,0,-1,594,1485,0,0
-623,-461,0,0,0,0,0,0,0,0,0,-1,601,1485,0,0
-616,-461,0,0,0,0,0,0,0,0,0,-1,608,1485,0,0
-609,-461,0,0,0,0,0,0,0,0,0,-1,615,1485,0,0
-602,-461,0,0,0,0,0,0,0,0,0,-1,622,1485,0,0
-595,-461,0,0,0,0,0,0,0,0,0,-1,629,1485,0,0
-588,-461,0,0,0,0,0,0,0,0,0,-1,636,1485,0,0
-581,-461,0,0,0,0,0,0,0,0,0,-1,643,1485,0,0
-574,-461,0,0,0,0,0,0,0,0,0,-1,650,1485,0,0
-567,-461,-9.69031,0.513306,0,0,0,0,0,0,0,-1,657,1485,-9.69032,-0.513305
-560,-461,-7.28815,1.54004,0,0,0,0,0,0,0,-1,664,1485,-7.28817,-1.54005
-553,-461,-11.9607,5.27783,0,0,0,0,0,0,0,-1,671,1485,-11.9607,-5.27778
-546,-461,-11.4215,4.44666,0,0,0,0,0,0,0,-1,678,1485,-11.4215,-4.4467
-539,-461,-9.36493,5.23438,0,0,0,0,0,0,0,-1,685,1485,-9.3649,-5.23432
-532,-461,-7.82898,6.78357,0,0,0,0,0,0,0,-1,692,1485,-7.829,-6.78363
-525,-461,-6.03046,8.8761,0,0,0,0,0,0,0,-1,699,1485,-6.03049,-8.87606
-518,-461,-5.99774,9.72412,0,0,0,0,0,0,0,-1,706,1485,-5.99777,-9.72412
-511,-461,-6.25659,10.6869,0,0,0,0,0,0,0,-1,713,1485,-6.2566,-10.6869
-504,-461,-6.18018,11.1276,0.00191087,9.89502e-05,0.00151934,0.00277386,-0.000764032,0.516556,0.00214966,0.0221336,720,1485,-6.18018,-11.1275
-497,-461,-6.11255,11.6769,0.00167981,-0.00016603,0.00106853,0.00216881,-0.000655037,0.429193,0.00170665,0.0105892,727,1485,-6.11258,-11.6769
-490,-461,-6.14203,12.1537,0.00163123,-9.36588e-05,0.000924395,0.00203304,-0.000495459,0.410027,0.00154718,0.0119293,734,1485,-6.14202,-12.1536
-483,-461,-6.17871,12.6041,0.00206147,0.000355111,0.00120397,0.00268391,-0.000267327,0.477147,0.00188471,0.0133037,741,1485,-6.17871,-12.6042
-476,-461,-6.21051,13.0687,0.00262152,0.00090804,0.00165765,0.00363074,-0.000101182,0.546884,0.00245492,0.0114608,748,1485,-6.2105,-13.0687
-469,-461,-6.22095,13.5653,0.00343757,0.000938627,0.00219172,0.00471096,-0.000334757,0.52633,0.00325796,0.0127651,755,1485,-6.22095,-13.5653
-462,-461,-6.20868,14.0342,0.00452545,0.0010954,0.00291449,0.00619207,-0.000571229,0.519458,0.00433103,0.0185378,762,1485,-6.20868,-14.0342
-455,-461,-6.2099,14.4958,0.00587853,0.000969881,0.00371605,0.0078776,-0.00102919,0.49355,0.00562627,0.0226338,769,1485,-6.20991,-14.4958
-448,-461,-6.24042,14.9888,0.00767686,0.000605742,0.00474758,0.0100607,-0.00177813,0.465346,0.0073717,0.0182726,776,1485,-6.24042,-14.9888
-441,-461,-6.19714,15.5111,0.00972003,-0.000554781,0.00564859,0.012218,-0.00305279,0.416378,0.00933093,0.0204566,783,1485,-6.19714,-15.5111
-434,-461,-5.91687,16.047,0.0116584,-0.00287533,0.00623373,0.0139658,-0.00518274,0.35451,0.0114365,0.0330086,790,1485,-5.9169,-16.047
-427,-461,-5.92737,16.2784,0.0136269,-0.00673324,0.00633849,0.0154389,-0.00854526,0.278449,0.0140366,0.0481151,797,1485,-5.92739,-16.2785
-420,-461,-6.00964,16.1089,0.0156204,-0.0119895,0.00597249,0.016857,-0.0132261,0.20416,0.0174106,0.0499394,804,1485,-6.00964,-16.1089
-413,-461,-5.98798,16.0605,0,0,0,0,0,0,0,-1,811,1485,-5.98796,-16.0605
-406,-461,-5.52667,14.839,0,0,0,0,0,0,0,-1,818,1485,-5.52666,-14.839
-399,-461,-1.93439,9.82849,0,0,0,0,0,0,0,-1,825,1485,-1.9344,-9.82846
-392,-461,-0.357544,5.55225,0,0,0,0,0,0,0,-1,832,1485,-0.357536,-5.55228
-385,-461,1.71509,3.35254,0,0,0,0,0,0,0,-1,839,1485,1.71511,-3.35255
-378,-461,1.95996,3.01111,0,0,0,0,0,0,0,-1,846,1485,1.95993,-3.01111
-371,-461,0.702881,2.33459,0,0,0,0,0,0,0,-1,853,1485,0.702859,-2.33459
-364,-461,-1.93097,2.56458,0,0,0,0,0,0,0,-1,860,1485,-1.93095,-2.56456
-357,-461,-2.41516,3.49487,0,0,0,0,0,0,0,-1,867,1485,-2.41517,-3.49487
-350,-461,0,0,0,0,0,0,0,0,0,-1,874,1485,0,0
-343,-461,0,0,0,0,0,0,0,0,0,-1,881,1485,0,0
-336,-461,0,0,0,0,0,0,0,0,0,-1,888,1485,0,0
-329,-461,0,0,0,0,0,0,0,0,0,-1,895,1485,0,0
-322,-461,0,0,0,0,0,0,0,0,0,-1,902,1485,0,0
-315,-461,0,0,0,0,0,0,0,0,0,-1,909,1485,0,0
-308,-461,0,0,0,0,0,0,0,0,0,-1,916,1485,0,0
-301,-461,0,0,0,0,0,0,0,0,0,-1,923,1485,0,0
-294,-461,0,0,0,0,0,0,0,0,0,-1,930,1485,0,0
-287,-461,0,0,0,0,0,0,0,0,0,-1,937,1485,0,0
-280,-461,0,0,0,0,0,0,0,0,0,-1,944,1485,0,0
-273,-461,0,0,0,0,0,0,0,0,0,-1,951,1485,0,0
-266,-461,0,0,0,0,0,0,0,0,0,-1,958,1485,0,0
-259,-461,0,0,0,0,0,0,0,0,0,-1,965,1485,0,0
-252,-461,0,0,0,0,0,0,0,0,0,-1,972,1485,0,0
-245,-461,0,0,0,0,0,0,0,0,0,-1,979,1485,0,0
-238,-461,0,0,0,0,0,0,0,0,0,-1,986,1485,0,0
-231,-461,0,0,0,0,0,0,0,0,0,-1,993,1485,0,0
-224,-461,0,0,0,0,0,0,0,0,0,-1,1000,1485,0,0
-217,-461,0,0,0,0,0,0,0,0,0,-1,1007,1485,0,0
-210,-461,0,0,0,0,0,0,0,0,0,-1,1014,1485,0,0
-203,-461,0,0,0,0,0,0,0,0,0,-1,1021,1485,0,0
-196,-461,0,0,0,0,0,0,0,0,0,-1,1028,1485,0,0
-189,-461,0,0,0,0,0,0,0,0,0,-1,1035,1485,0,0
-182,-461,0,0,0,0,0,0,0,0,0,-1,1042,1485,0,0
-175,-461,0,0,0,0,0,0,0,0,0,-1,1049,1485,0,0
-168,-461,0,0,0,0,0,0,0,0,0,-1,1056,1485,0,0
-161,-461,0,0,0,0,0,0,0,0,0,-1,1063,1485,0,0
-154,-461,0,0,0,0,0,0,0,0,0,-1,1070,1485,0,0
-147,-461,0,0,0,0,0,0,0,0,0,-1,1077,1485,0,0
-140,-461,0,0,0,0,0,0,0,0,0,-1,1084,1485,0,0
-133,-461,0,0,0,0,0,0,0,0,0,-1,1091,1485,0,0
-126,-461,0,0,0,0,0,0,0,0,0,-1,1098,1485,0,0
-119,-461,0,0,0,0,0,0,0,0,0,-1,1105,1485,0,0
-112,-461,0,0,0,0,0,0,0,0,0,-1,1112,1485,0,0
-105,-461,0,0,0,0,0,0,0,0,0,-1,1119,1485,0,0
-98,-461,0,0,0,0,0,0,0,0,0,-1,1126,1485,0,0
-91,-461,0,0,0,0,0,0,0,0,0,-1,1133,1485,0,0
-84,-461,0,0,0,0,0,0,0,0,0,-1,1140,1485,0,0
-77,-461,0,0,0,0,0,0,0,0,0,-1,1147,1485,0,0
-70,-461,0,0,0,0,0,0,0,0,0,-1,1154,1485,0,0
-63,-461,0,0,0,0,0,0,0,0,0,-1,1161,1485,0,0
-56,-461,0,0,0,0,0,0,0,0,0,-1,1168,1485,0,0
-49,-461,0,0,0,0,0,0,0,0,0,-1,1175,1485,0,0
-42,-461,0,0,0,0,0,0,0,0,0,-1,1182,1485,0,0
-35,-461,0,0,0,0,0,0,0,0,0,-1,1189,1485,0,0
-28,-461,0,0,0,0,0,0,0,0,0,-1,1196,1485,0,0
-21,-461,0,0,0,0,0,0,0,0,0,-1,1203,1485,0,0
-14,-461,0,0,0,0,0,0,0,0,0,-1,1210,1485,0,0
-7,-461,0,0,0,0,0,0,0,0,0,-1,1217,1485,0,0
0,-461,0,0,0,0,0,0,0,0,0,-1,1224,1485,0,0
7,-461,0,0,0,0,0,0,0,0,0,-1,1231,1485,0,0
14,-461,0,0,0,0,0,0,0,0,0,-1,1238,1485,0,0
21,-461,0,0,0,0,0,0,0,0,0,-1,1245,1485,0,0
28,-461,0,0,0,0,0,0,0,0,0,-1,1252,1485,0,0
35,-461,0,0,0,0,0,0,0,0,0,-1,1259,1485,0,0
42,-461,0,0,0,0,0,0,0,0,0,-1,1266,1485,0,0
49,-461,0,0,0,0,0,0,0,0,0,-1,1273,1485,0,0
56,-461,0,0,0,0,0,0,0,0,0,-1,1280,1485,0,0
63,-461,0,0,0,0,0,0,0,0,0,-1,1287,1485,0,0
70,-461,0,0,0,0,0,0,0,0,0,-1,1294,1485,0,0
77,-461,0,0,0,0,0,0,0,0,0,-1,1301,1485,0,0
84,-461,0,0,0,0,0,0,0,0,0,-1,1308,1485,0,0
91,-461,0,0,0,0,0,0,0,0,0,-1,1315,1485,0,0
98,-461,0,0,0,0,0,0,0,0,0,-1,1322,1485,0,0
105,-461,0,0,0,0,0,0,0,0,0,-1,1329,1485,0,0
112,-461,0,0,0,0,0,0,0,0,0,-1,1336,1485,0,0
119,-461,0,0,0,0,0,0,0,0,0,-1,1343,1485,0,0
126,-461,0,0,0,0,0,0,0,0,0,-1,1350,1485,0,0
133,-461,0,0,0,0,0,0,0,0,0,-1,1357,1485,0,0
140,-461,0,0,0,0,0,0,0,0,0,-1,1364,1485,0,0
147,-461,0,0,0,0,0,0,0,0,0,-1,1371,1485,0,0
154,-461,0,0,0,0,0,0,0,0,0,-1,1378,1485,0,0
161,-461,0,0,0,0,0,0,0,0,0,-1,1385,1485,0,0
168,-461,0,0,0,0,0,0,0,0,0,-1,1392,1485,0,0
175,-461,0,0,0,0,0,0,0,0,0,-1,1399,1485,0,0
182,-461,0,0,0,0,0,0,0,0,0,-1,1406,1485,0,0
189,-461,0,0,0,0,0,0,0,0,0,-1,1413,1485,0,0
196,-461,0,0,0,0,0,0,0,0,0,-1,1420,1485,0,0
203,-461,0,0,0,0,0,0,0,0,0,-1,1427,1485,0,0
210,-461,0,0,0,0,0,0,0,0,0,-1,1434,1485,0,0
217,-461,0,0,0,0,0,0,0,0,0,-1,1441,1485,0,0
224,-461,0,0,0,0,0,0,0,0,0,-1,1448,1485,0,0
231,-461,0,0,0,0,0,0,0,0,0,-1,1455,1485,0,0
238,-461,0,0,0,0,0,0,0,0,0,-1,1462,1485,0,0
245,-461,0,0,0,0,0,0,0,0,0,-1,1469,1485,0,0
252,-461,0,0,0,0,0,0,0,0,0,-1,1476,1485,0,0
259,-461,0,0,0,0,0,0,0,0,0,-1,1483,1485,0,0
266,-461,0,0,0,0,0,0,0,0,0,-1,1490,1485,0,0
273,-461,0,0,0,0,0,0,0,0,0,-1,1497,1485,0,0
280,-461,0,0,0,0,0,0,0,0,0,-1,1504,1485,0,0
287,-461,0,0,0,0,0,0,0,0,0,-1,1511,1485,0,0
294,-461,0,0,0,0,0,0,0,0,0,-1,1518,1485,0,0
301,-461,0,0,0,0,0,0,0,0,0,-1,1525,1485,0,0
308,-461,0,0,0,0,0,0,0,0,0,-1,1532,1485,0,0
315,-461,0,0,0,0,0,0,0,0,0,-1,1539,1485,0,0
322,-461,0,0,0,0,0,0,0,0,0,-1,1546,1485,0,0
329,-461,0,0,0,0,0,0,0,0,0,-1,1553,1485,0,0
336,-461,0,0,0,0,0,0,0,0,0,-1,1560,1485,0,0
343,-461,0,0,0,0,0,0,0,0,0,-1,1567,1485,0,0
350,-461,0,0,0,0,0,0,0,0,0,-1,1574,1485,0,0
357,-461,0,0,0,0,0,0,0,0,0,-1,1581,1485,0,0
364,-461,0,0,0,0,0,0,0,0,0,-1,1588,1485,0,0
371,-461,0,0,0,0,0,0,0,0,0,-1,1595,1485,0,0
378,-461,0,0,0,0,0,0,0,0,0,-1,1602,1485,0,0
385,-461,0,0,0,0,0,0,0,0,0,-1,1609,1485,0,0
392,-461,0,0,0,0,0,0,0,0,0,-1,1616,1485,0,0
399,-461,0,0,0,0,0,0,0,0,0,-1,1623,1485,0,0
406,-461,0,0,0,0,0,0,0,0,0,-1,1630,1485,0,0
413,-461,0,0,0,0,0,0,0,0,0,-1,1637,1485,0,0
420,-461,0,0,0,0,0,0,0,0,0,-1,1644,1485,0,0
427,-461,0,0,0,0,0,0,0,0,0,-1,1651,1485,0,0
434,-461,0,0,0,0,0,0,0,0,0,-1,1658,1485,0,0
441,-461,0,0,0,0,0,0,0,0,0,-1,1665,1485,0,0
448,-461,0,0,0,0,0,0,0,0,0,-1,1672,1485,0,0
455,-461,0,0,0,0,0,0,0,0,0,-1,1679,1485,0,0
462,-461,0,0,0,0,0,0,0,0,0,-1,1686,1485,0,0
469,-461,0,0,0,0,0,0,0,0,0,-1,1693,1485,0,0
476,-461,14.1906,0.690552,0,0,0,0,0,0,0,-1,1700,1485,14.1906,-0.690525
483,-461,10.6361,3.09106,0,0,0,0,0,0,0,-1,1707,1485,10.6361,-3.091
490,-461,17.9972,0.665894,0,0,0,0,0,0,0,-1,1714,1485,17.9972,-0.665876
497,-461,16.6829,1.87732,0,0,0,0,0,0,0,-1,1721,1485,16.6828,-1.87736
504,-461,15.3884,3.09216,0,0,0,0,0,0,0,-1,1728,1485,15.3885,-3.09212
511,-461,15.4292,14.3512,0,0,0,0,0,0,0,-1,1735,1485,15.4292,-14.3512
518,-461,14.8081,10.0085,0,0,0,0,0,0,0,-1,1742,1485,14.8081,-10.0086
525,-461,14.0022,10.8033,0,0,0,0,0,0,0,-1,1749,1485,14.0022,-10.8033
532,-461,17.1704,14.077,0,0,0,0,0,0,0,-1,1756,1485,17.1704,-14.077
539,-461,17.0229,14.7386,0,0,0,0,0,0,0,-1,1763,1485,17.0229,-14.7387
546,-461,16.2106,14.1372,0,0,0,0,0,0,0,-1,1770,1485,16.2106,-14.1372
553,-461,19.1241,17.1676,0,0,0,0,0,0,0,-1,1777,1485,19.1241,-17.1676
560,-461,20.1066,17.7189,0,0,0,0,0,0,0,-1,1784,1485,20.1066,-17.7188
567,-461,20.1202,17.2057,0.00109952,-0.00030899,0.000457312,0.00123498,-0.000444443,0.287961,0.00100478,0.028916,1791,1485,20.1203,-17.2056
574,-461,20.1304,16.8416,0.00114624,0.000484149,0.000112897,0.00116496,0.000465427,0.164332,0.000677102,0.0232139,1798,1485,20.1304,-16.8416
581,-461,20.1306,16.4054,0.00136041,0.000915495,-0.000328215,0.00153445,0.000741452,-0.487571,0.000886081,0.0162947,1805,1485,20.1306,-16.4054
588,-461,20.1028,16.0011,0.00153306,0.00103511,-0.000616381,0.00194885,0.000619315,-0.593454,0.0011498,0.0118156,1812,1485,20.1028,-16.0011
595,-461,20.0715,15.5757,0.00183448,0.00117956,-0.000906196,0.00247057,0.000543472,-0.612018,0.00149909,0.00895643,1819,1485,20.0715,-15.5757
602,-461,20.0734,15.1166,0.00205297,0.000891039,-0.00100608,0.00263378,0.000310236,-0.523558,0.00166212,0.00876554,1826,1485,20.0734,-15.1166
609,-461,20.0793,14.6814,0.0022857,0.000397163,-0.00103317,0.0027411,-5.8238e-05,-0.415162,0.00184712,0.0107017,1833,1485,20.0793,-14.6814
616,-461,20.0789,14.2587,0.00260007,-1.18125e-05,-0.00104451,0.0029664,-0.000378138,-0.337313,0.00211494,0.013176,1840,1485,20.0788,-14.2587
623,-461,20.0714,13.8383,0.00298488,-0.000453365,-0.00100741,0.00325831,-0.000726794,-0.265032,0.00245066,0.0144906,1847,1485,20.0714,-13.8382
630,-461,20.0509,13.4156,0.00346645,-0.00092635,-0.000938969,0.00365874,-0.00111864,-0.201995,0.00288525,0.01399,1854,1485,20.0509,-13.4156
637,-461,20.027,12.9886,0.00402529,-0.00124321,-0.000919563,0.00418118,-0.0013991,-0.167927,0.00335259,0.0137883,1861,1485,20.027,-12.9887
644,-461,20.101,12.6517,0.00464225,-0.00161585,-0.000880405,0.00476375,-0.00173735,-0.137137,0.00388661,0.0311265,1868,1485,20.101,-12.6517
651,-461,20.2175,12.2513,0,0,0,0,0,0,0,-1,1875,1485,20.2175,-12.2514
658,-461,16.8987,10.1084,0,0,0,0,0,0,0,-1,1882,1485,16.8986,-10.1084
665,-461,17.2638,9.81384,0,0,0,0,0,0,0,-1,1889,1485,17.2638,-9.81385
672,-461,14.4877,6.89429,0,0,0,0,0,0,0,-1,1896,1485,14.4876,-6.89431
679,-461,10.0535,2.16321,0,0,0,0,0,0,0,-1,1903,1485,10.0535,-2.16317
686,-461,10.8195,1.84192,0,0,0,0,0,0,0,-1,1910,1485,10.8194,-1.84195
693,-461,0,0,0,0,0,0,0,0,0,-1,1917,1485,0,0
700,-461,0,0,0,0,0,0,0,0,0,-1,1924,1485,0,0
707,-461,0,0,0,0,0,0,0,0,0,-1,1931,1485,0,0
714,-461,0,0,0,0,0,0,0,0,0,-1,1938,1485,0,0
721,-461,0,0,0,0,0,0,0,0,0,-1,1945,1485,0,0
728,-461,0,0,0,0,0,0,0,0,0,-1,1952,1485,0,0
735,-461,0,0,0,0,0,0,0,0,0,-1,1959,1485,0,0
742,-461,0,0,0,0,0,0,0,0,0,-1,1966,1485,0,0
749,-461,0,0,0,0,0,0,0,0,0,-1,1973,1485,0,0
756,-461,0,0,0,0,0,0,0,0,0,-1,1980,1485,0,0
763,-461,0,0,0,0,0,0,0,0,0,-1,1987,1485,0,0
770,-461,0,0,0,0,0,0,0,0,0,-1,1994,1485,0,0
777,-461,0,0,0,0,0,0,0,0,0,-1,2001,1485,0,0
784,-461,0,0,0,0,0,0,0,0,0,-1,2008,1485,0,0
791,-461,0,0,0,0,0,0,0,0,0,-1,2015,1485,0,0
798,-461,0,0,0,0,0,0,0,0,0,-1,2022,1485,0,0
805,-461,0,0,0,0,0,0,0,0,0,-1,2029,1485,0,0
812,-461,0,0,0,0,0,0,0,0,0,-1,2036,1485,0,0
-700,-468,0,0,0,0,0,0,0,0,0,-1,524,1492,0,0
-693,-468,0,0,0,0,0,0,0,0,0,-1,531,1492,0,0
-686,-468,0,0,0,0,0,0,0,0,0,-1,538,1492,0,0
-679,-468,0,0,0,0,0,0,0,0,0,-1,545,1492,0,0
-672,-468,0,0,0,0,0,0,0,0,0,-1,552,1492,0,0
-665,-468,0,0,0,0,0,0,0,0,0,-1,559,1492,0,0
-658,-468,0,0,0,0,0,0,0,0,0,-1,566,1492,0,0
-651,-468,0,0,0,0,0,0,0,0,0,-1,573,1492,0,0
-644,-468,0,0,0,0,0,0,0,0,0,-1,580,1492,0,0
-637,-468,0,0,0,0,0,0,0,0,0,-1,587,1492,0,0
-630,-468,0,0,0,0,0,0,0,0,0,-1,594,1492,0,0
-623,-468,0,0,0,0,0,0,0,0,0,-1,601,1492,0,0
-616,-468,0,0,0,0,0,0,0,0,0,-1,608,1492,0,0
-609,-468,0,0,0,0,0,0,0,0,0,-1,615,1492,0,0
-602,-468,0,0,0,0,0,0,0,0,0,-1,622,1492,0,0
-595,-468,0,0,0,0,0,0,0,0,0,-1,629,1492,0,0
-588,-468,0,0,0,0,0,0,0,0,0,-1,636,1492,0,0
-581,-468,0,0,0,0,0,0,0,0,0,-1,643,1492,0,0
-574,-468,0,0,0,0,0,0,0,0,0,-1,650,1492,0,0
-567,-468,-11.2603,1.8042,0,0,0,0,0,0,0,-1,657,1492,-11.2603,-1.80424
-560,-468,-8.77441,2.23694,0,0,0,0,0,0,0,-1,664,1492,-8.77443,-2.23692
-553,-468,-5.94061,9.26318,0,0,0,0,0,0,0,-1,671,1492,-5.94062,-9.26322
-546,-468,-10.47,5.43237,0,0,0,0,0,0,0,-1,678,1492,-10.47,-5.4324
-539,-468,-10.2468,5.45203,0,0,0,0,0,0,0,-1,685,1492,-10.2468,-5.45197
-532,-468,-8.39795,6.02783,0,0,0,0,0,0,0,-1,692,1492,-8.39793,-6.02789
-525,-468,-6.7265,7.66077,0,0,0,0,0,0,0,-1,699,1492,-6.72653,-7.6608
-518,-468,-6.27264,8.82202,0,0,0,0,0,0,0,-1,706,1492,-6.27266,-8.82205
-511,-468,-5.66827,10.6985,0,0,0,0,0,0,0,-1,713,1492,-5.66829,-10.6985
-504,-468,-5.60327,11.1791,0.00341499,-0.000167178,0.00166367,0.00406844,-0.000820633,0.374267,0.0030232,0.0335287,720,1492,-5.60326,-11.1791
-497,-468,-5.67621,11.6732,0.00245429,-0.000745498,0.000795235,0.00264103,-0.000932237,0.230644,0.00214022,0.0151129,727,1492,-5.67624,-11.6732
-490,-468,-5.6701,12.1858,0.00182992,-0.000899842,0.000361083,0.00187688,-0.000946797,0.129314,0.00165947,0.00808115,734,1492,-5.67008,-12.1858
-483,-468,-5.7085,12.6306,0.00183369,-0.000580273,0.000444335,0.00191288,-0.000659463,0.17637,0.00154279,0.00900049,741,1492,-5.70847,-12.6307
-476,-468,-5.73206,13.1012,0.00207518,-6.40232e-05,0.000800857,0.00234177,-0.000330618,0.321348,0.00168225,0.00938111,748,1492,-5.73205,-13.1012
-469,-468,-5.74243,13.5994,0.00264378,8.81102e-05,0.00130648,0.00319344,-0.000461551,0.39824,0.00229831,0.0127358,755,1492,-5.74242,-13.5993
-462,-468,-5.71313,14.0732,0.0034912,0.000297728,0.00197767,0.00443627,-0.000647336,0.445785,0.00319523,0.0228353,762,1492,-5.71312,-14.0732
-455,-468,-5.72369,14.4814,0.00459424,0.00028291,0.00272881,0.00591612,-0.00103897,0.451102,0.00433213,0.0243402,769,1492,-5.72368,-14.4814
-448,-468,-5.76965,14.9788,0.00602895,9.07884e-05,0.00363975,0.00775702,-0.00163728,0.443266,0.00579473,0.0141894,776,1492,-5.76965,-14.9787
-441,-468,-5.78625,15.4379,0.00777608,-0.000553938,0.00459409,0.00981212,-0.00258997,0.417173,0.00755421,0.0133013,783,1492,-5.78623,-15.4379
-434,-468,-5.76184,15.968,0.0095441,-0.00192493,0.00539996,0.0116864,-0.00406723,0.37768,0.00944329,0.0183415,790,1492,-5.76186,-15.968
-427,-468,-5.65601,16.4609,0.0115227,-0.0044036,0.00585271,0.0134421,-0.00632306,0.316908,0.0116556,0.033012,797,1492,-5.65598,-16.461
-420,-468,-5.56958,16.8771,0.0135937,-0.0075404,0.00612448,0.0152402,-0.00918695,0.262636,0.0142466,0.0498452,804,1492,-5.56957,-16.8771
-413,-468,-5.30328,17.3519,0,0,0,0,0,0,0,-1,811,1492,-5.30329,-17.352
-406,-468,-2.2356,9.396,0,0,0,0,0,0,0,-1,818,1492,-2.2356,-9.396
-399,-468,-0.940369,8.1936,0,0,0,0,0,0,0,-1,825,1492,-0.940365,-8.19357
-392,-468,-0.35144,8.14673,0,0,0,0,0,0,0,-1,832,1492,-0.351449,-8.14674
-385,-468,0.465759,5.35864,0,0,0,0,0,0,0,-1,839,1492,0.465732,-5.35864
-378,-468,1.99835,3.25391,0,0,0,0,0,0,0,-1,846,1492,1.99837,-3.2539
-371,-468,-0.31842,3.1532,0,0,0,0,0,0,0,-1,853,1492,-0.318441,-3.15324
-364,-468,-0.966736,2.14563,0,0,0,0,0,0,0,-1,860,1492,-0.966735,-2.14557
-357,-468,-3.06787,3.22742,0,0,0,0,0,0,0,-1,867,1492,-3.06784,-3.2274
-350,-468,-3.18658,4.12659,0,0,0,0,0,0,0,-1,874,1492,-3.18659,-4.12658
-343,-468,0,0,0,0,0,0,0,0,0,-1,881,1492,0,0
-336,-468,0,0,0,0,0,0,0,0,0,-1,888,1492,0,0
-329,-468,0,0,0,0,0,0,0,0,0,-1,895,1492,0,0
-322,-468,0,0,0,0,0,0,0,0,0,-1,902,1492,0,0
-315,-468,0,0,0,0,0,0,0,0,0,-1,909,1492,0,0
-308,-468,0,0,0,0,0,0,0,0,0,-1,916,1492,0,0
-301,-468,0,0,0,0,0,0,0,0,0,-1,923,1492,0,0
-294,-468,0,0,0,0,0,0,0,0,0,-1,930,1492,0,0
-287,-468,0,0,0,0,0,0,0,0,0,-1,937,1492,0,0
-280,-468,0,0,0,0,0,0,0,0,0,-1,944,1492,0,0
-273,-468,0,0,0,0,0,0,0,0,0,-1,951,1492,0,0
-266,-468,0,0,0,0,0,0,0,0,0,-1,958,1492,0,0
-259,-468,0,0,0,0,0,0,0,0,0,-1,965,1492,0,0
-252,-468,0,0,0,0,0,0,0,0,0,-1,972,1492,0,0
-245,-468,0,0,0,0,0,0,0,0,0,-1,979,1492,0,0
-238,-468,0,0,0,0,0,0,0,0,0,-1,986,1492,0,0
-231,-468,0,0,0,0,0,0,0,0,0,-1,993,1492,0,0
-224,-468,0,0,0,0,0,0,0,0,0,-1,1000,1492,0,0
-217,-468,0,0,0,0,0,0,0,0,0,-1,1007,1492,0,0
-210,-468,0,0,0,0,0,0,0,0,0,-1,1014,1492,0,0
-203,-468,0,0,0,0,0,0,0,0,0,-1,1021,1492,0,0
-196,-468,0,0,0,0,0,0,0,0,0,-1,1028,1492,0,0
-189,-468,0,0,0,0,0,0,0,0,0,-1,1035,1492,0,0
-182,-468,0,0,0,0,0,0,0,0,0,-1,1042,1492,0,0
-175,-468,0,0,0,0,0,0,0,0,0,-1,1049,1492,0,0
-168,-468,0,0,0,0,0,0,0,0,0,-1,1056,1492,0,0
-161,-468,0,0,0,0,0,0,0,0,0,-1,1063,1492,0,0
-154,-468,0,0,0,0,0,0,0,0,0,-1,1070,1492,0,0
-147,-468,0,0,0,0,0,0,0,0,0,-1,1077,1492,0,0
-140,-468,0,0,0,0,0,0,0,0,0,-1,1084,1492,0,0
-133,-468,0,0,0,0,0,0,0,0,0,-1,1091,1492,0,0
-126,-468,0,0,0,0,0,0,0,0,0,-1,1098,1492,0,0
-119,-468,0,0,0,0,0,0,0,0,0,-1,1105,1492,0,0
-112,-468,0,0,0,0,0,0,0,0,0,-1,1112,1492,0,0
-105,-468,0,0,0,0,0,0,0,0,0,-1,1119,1492,0,0
-98,-468,0,0,0,0,0,0,0,0,0,-1,1126,1492,0,0
-91,-468,0,0,0,0,0,0,0,0,0,-1,1133,1492,0,0
-84,-468,0,0,0,0,0,0,0,0,0,-1,1140,1492,0,0
-77,-468,0,0,0,0,0,0,0,0,0,-1,1147,1492,0,0
-70,-468,0,0,0,0,0,0,0,0,0,-1,1154,1492,0,0
-63,-468,0,0,0,0,0,0,0,0,0,-1,1161,1492,0,0
-56,-468,0,0,0,0,0,0,0,0,0,-1,1168,1492,0,0
-49,-468,0,0,0,0,0,0,0,0,0,-1,1175,1492,0,0
-42,-468,0,0,0,0,0,0,0,0,0,-1,1182,1492,0,0
-35,-468,0,0,0,0,0,0,0,0,0,-1,1189,1492,0,0
-28,-468,0,0,0,0,0,0,0,0,0,-1,1196,1492,0,0
-21,-468,0,0,0,0,0,0,0,0,0,-1,1203,1492,0,0
-14,-468,0,0,0,0,0,0,0,0,0,-1,1210,1492,0,0
-7,-468,0,0,0,0,0,0,0,0,0,-1,1217,1492,0,0
0,-468,0,0,0,0,0,0,0,0,0,-1,1224,1492,0,0
7,-468,0,0,0,0,0,0,0,0,0,-1,1231,1492,0,0
14,-468,0,0,0,0,0,0,0,0,0,-1,1238,1492,0,0
21,-468,0,0,0,0,0,0,0,0,0,-1,1245,1492,0,0
28,-468,0,0,0,0,0,0,0,0,0,-1,1252,1492,0,0
35,-468,0,0,0,0,0,0,0,0,0,-1,1259,1492,0,0
42,-468,0,0,0,0,0,0,0,0,0,-1,1266,1492,0,0
49,-468,0,0,0,0,0,0,0,0,0,-1,1273,1492,0,0
56,-468,0,0,0,0,0,0,0,0,0,-1,1280,1492,0,0
63,-468,0,0,0,0,0,0,0,0,0,-1,1287,1492,0,0
70,-468,0,0,0,0,0,0,0,0,0,-1,1294,1492,0,0
77,-468,0,0,0,0,0,0,0,0,0,-1,1301,1492,0,0
84,-468,0,0,0,0,0,0,0,0,0,-1,1308,1492,0,0
91,-468,0,0,0,0,0,0,0,0,0,-1,1315,1492,0,0
98,-468,0,0,0,0,0,0,0,0,0,-1,1322,1492,0,0
105,-468,0,0,0,0,0,0,0,0,0,-1,1329,1492,0,0
112,-468,0,0,0,0,0,0,0,0,0,-1,1336,1492,0,0
119,-468,0,0,0,0,0,0,0,0,0,-1,1343,1492,0,0
126,-468,0,0,0,0,0,0,0,0,0,-1,1350,1492,0,0
133,-468,0,0,0,0,0,0,0,0,0,-1,1357,1492,0,0
140,-468,0,0,0,0,0,0,0,0,0,-1,1364,1492,0,0
147,-468,0,0,0,0,0,0,0,0,0,-1,1371,1492,0,0
154,-468,0,0,0,0,0,0,0,0,0,-1,1378,1492,0,0
161,-468,0,0,0,0,0,0,0,0,0,-1,1385,1492,0,0
168,-468,0,0,0,0,0,0,0,0,0,-1,1392,1492,0,0
175,-468,0,0,0,0,0,0,0,0,0,-1,1399,1492,0,0
182,-468,0,0,0,0,0,0,0,0,0,-1,1406,1492,0,0
189,-468,0,0,0,0,0,0,0,0,0,-1,1413,1492,0,0
196,-468,0,0,0,0,0,0,0,0,0,-1,1420,1492,0,0
203,-468,0,0,0,0,0,0,0,0,0,-1,1427,1492,0,0
210,-468,0,0,0,0,0,0,0,0,0,-1,1434,1492,0,0
217,-468,0,0,0,0,0,0,0,0,0,-1,1441,1492,0,0
224,-468,0,0,0,0,0,0,0,0,0,-1,1448,1492,0,0
231,-468,0,0,0,0,0,0,0,0,0,-1,1455,1492,0,0
238,-468,0,0,0,0,0,0,0,0,0,-1,1462,1492,0,0
245,-468,0,0,0,0,0,0,0,0,0,-1,1469,1492,0,0
252,-468,0,0,0,0,0,0,0,0,0,-1,1476,1492,0,0
259,-468,0,0,0,0,0,0,0,0,0,-1,1483,1492,0,0
266,-468,0,0,0,0,0,0,0,0,0,-1,1490,1492,0,0
273,-468,0,0,0,0,0,0,0,0,0,-1,1497,1492,0,0
280,-468,0,0,0,0,0,0,0,0,0,-1,1504,1492,0,0
287,-468,0,0,0,0,0,0,0,0,0,-1,1511,1492,0,0
294,-468,0,0,0,0,0,0,0,0,0,-1,1518,1492,0,0
301,-468,0,0,0,0,0,0,0,0,0,-1,1525,1492,0,0
308,-468,0,0,0,0,0,0,0,0,0,-1,1532,1492,0,0
315,-468,0,0,0,0,0,0,0,0,0,-1,1539,1492,0,0
322,-468,0,0,0,0,0,0,0,0,0,-1,1546,1492,0,0
329,-468,0,0,0,0,0,0,0,0,0,-1,1553,1492,0,0
336,-468,0,0,0,0,0,0,0,0,0,-1,1560,1492,0,0
343,-468,0,0,0,0,0,0,0,0,0,-1,1567,1492,0,0
350,-468,0,0,0,0,0,0,0,0,0,-1,1574,1492,0,0
357,-468,0,0,0,0,0,0,0,0,0,-1,1581,1492,0,0
364,-468,0,0,0,0,0,0,0,0,0,-1,1588,1492,0,0
371,-468,0,0,0,0,0,0,0,0,0,-1,1595,1492,0,0
378,-468,0,0,0,0,0,0,0,0,0,-1,1602,1492,0,0
385,-468,0,0,0,0,0,0,0,0,0,-1,1609,1492,0,0
392,-468,0,0,0,0,0,0,0,0,0,-1,1616,1492,0,0
399,-468,0,0,0,0,0,0,0,0,0,-1,1623,1492,0,0
406,-468,0,0,0,0,0,0,0,0,0,-1,1630,1492,0,0
413,-468,0,0,0,0,0,0,0,0,0,-1,1637,1492,0,0
420,-468,0,0,0,0,0,0,0,0,0,-1,1644,1492,0,0
427,-468,0,0,0,0,0,0,0,0,0,-1,1651,1492,0,0
434,-468,0,0,0,0,0,0,0,0,0,-1,1658,1492,0,0
441,-468,0,0,0,0,0,0,0,0,0,-1,1665,1492,0,0
448,-468,0,0,0,0,0,0,0,0,0,-1,1672,1492,0,0
455,-468,0,0,0,0,0,0,0,0,0,-1,1679,1492,0,0
462,-468,0,0,0,0,0,0,0,0,0,-1,1686,1492,0,0
469,-468,15.6879,1.2677,0,0,0,0,0,0,0,-1,1693,1492,15.6879,-1.26772
476,-468,14.9318,1.61865,0,0,0,0,0,0,0,-1,1700,1492,14.9318,-1.61869
483,-468,11.265,4.64795,0,0,0,0,0,0,0,-1,1707,1492,11.265,-4.64798
490,-468,12.1316,3.51624,0,0,0,0,0,0,0,-1,1714,1492,12.1316,-3.51628
497,-468,16.5355,3.14587,0,0,0,0,0,0,0,-1,1721,1492,16.5356,-3.14583
504,-468,15.0642,4.10437,0,0,0,0,0,0,0,-1,1728,1492,15.0643,-4.10431
511,-468,15.6877,9.4801,0,0,0,0,0,0,0,-1,1735,1492,15.6878,-9.48007
518,-468,13.759,11.0887,0,0,0,0,0,0,0,-1,1742,1492,13.759,-11.0887
525,-468,16.6531,14.2238,0,0,0,0,0,0,0,-1,1749,1492,16.653,-14.2237
532,-468,16.9696,15.9641,0,0,0,0,0,0,0,-1,1756,1492,16.9696,-15.9641
539,-468,19.8717,18.5981,0,0,0,0,0,0,0,-1,1763,1492,19.8717,-18.5982
546,-468,19.6963,18.5245,0,0,0,0,0,0,0,-1,1770,1492,19.6963,-18.5245
553,-468,19.7593,18.4359,0,0,0,0,0,0,0,-1,1777,1492,19.7593,-18.4359
560,-468,19.6832,17.7222,0.000682998,-0.00209258,0.00139399,0.00126223,-0.00267181,0.393814,0.00231941,0.0366228,1784,1492,19.6833,-17.7222
567,-468,19.6782,17.3131,0.000944865,-0.000515557,0.000548551,0.00112795,-0.000698646,0.322141,0.00106425,0.0193748,1791,1492,19.6782,-17.3131
574,-468,19.7158,16.8461,0.00102024,0.000170287,0.000194613,0.00106268,0.000127846,0.214718,0.000669918,0.0144946,1798,1492,19.7158,-16.8461
581,-468,19.7073,16.4191,0.0012373,0.000522437,-0.00023264,0.00130634,0.000453396,-0.288494,0.000765883,0.0160096,1805,1492,19.7073,-16.419
588,-468,19.663,16.0181,0.00150669,0.000670822,-0.000573907,0.00179871,0.000378799,-0.47069,0.00109494,0.0133444,1812,1492,19.663,-16.0181
595,-468,19.6499,15.5834,0.00194944,0.000810279,-0.000922955,0.00246442,0.000295302,-0.508938,0.0015539,0.0102582,1819,1492,19.6499,-15.5833
602,-468,19.6566,15.1337,0.00232833,0.000575392,-0.00113457,0.00288554,1.8181e-05,-0.456521,0.00191766,0.00873139,1826,1492,19.6566,-15.1336
609,-468,19.6361,14.7017,0.00274565,0.000157751,-0.00128682,0.00327659,-0.000373188,-0.391319,0.00231882,0.00919811,1833,1492,19.6361,-14.7017
616,-468,19.6246,14.275,0.00327644,-0.000202303,-0.00142365,0.00378477,-0.000710641,-0.342956,0.00279039,0.0094547,1840,1492,19.6247,-14.275
623,-468,19.616,13.8534,0.0039076,-0.000622305,-0.00151467,0.00436739,-0.0010821,-0.294719,0.0033314,0.0107734,1847,1492,19.616,-13.8534
630,-468,19.6179,13.4058,0.00462405,-0.00103988,-0.00156702,0.00502868,-0.00144451,-0.252699,0.00392362,0.0112911,1854,1492,19.6179,-13.4058
637,-468,19.608,12.9789,0.00544915,-0.00127435,-0.00167634,0.00584392,-0.00166912,-0.231284,0.00455541,0.0140975,1861,1492,19.608,-12.9789
644,-468,19.6891,12.665,0.00631737,-0.00162525,-0.00172303,0.00667505,-0.00198293,-0.20468,0.00523766,0.0417251,1868,1492,19.6891,-12.665
651,-468,19.9125,12.2988,0,0,0,0,0,0,0,-1,1875,1492,19.9124,-12.2988
658,-468,16.4969,10.0774,0,0,0,0,0,0,0,-1,1882,1492,16.497,-10.0774
665,-468,15.4673,8.59546,0,0,0,0,0,0,0,-1,1889,1492,15.4672,-8.59548
672,-468,9.96814,3.61133,0,0,0,0,0,0,0,-1,1896,1492,9.96817,-3.61139
679,-468,11.2191,1.91968,0,0,0,0,0,0,0,-1,1903,1492,11.2191,-1.91965
686,-468,11.9252,1.42285,0,0,0,0,0,0,0,-1,1910,1492,11.9252,-1.42291
693,-468,0,0,0,0,0,0,0,0,0,-1,1917,1492,0,0
700,-468,0,0,0,0,0,0,0,0,0,-1,1924,1492,0,0
707,-468,0,0,0,0,0,0,0,0,0,-1,1931,1492,0,0
714,-468,0,0,0,0,0,0,0,0,0,-1,1938,1492,0,0
721,-468,0,0,0,0,0,0,0,0,0,-1,1945,1492,0,0
728,-468,0,0,0,0,0,0,0,0,0,-1,1952,1492,0,0
735,-468,0,0,0,0,0,0,0,0,0,-1,1959,1492,0,0
742,-468,0,0,0,0,0,0,0,0,0,-1,1966,1492,0,0
749,-468,0,0,0,0,0,0,0,0,0,-1,1973,1492,0,0
756,-468,0,0,0,0,0,0,0,0,0,-1,1980,1492,0,0
763,-468,0,0,0,0,0,0,0,0,0,-1,1987,1492,0,0
770,-468,0,0,0,0,0,0,0,0,0,-1,1994,1492,0,0
777,-468,0,0,0,0,0,0,0,0,0,-1,2001,1492,0,0
784,-468,0,0,0,0,0,0,0,0,0,-1,2008,1492,0,0
791,-468,0,0,0,0,0,0,0,0,0,-1,2015,1492,0,0
798,-468,0,0,0,0,0,0,0,0,0,-1,2022,1492,0,0
805,-468,0,0,0,0,0,0,0,0,0,-1,2029,1492,0,0
812,-468,0,0,0,0,0,0,0,0,0,-1,2036,1492,0,0
-700,-475,0,0,0,0,0,0,0,0,0,-1,524,1499,0,0
-693,-475,0,0,0,0,0,0,0,0,0,-1,531,1499,0,0
-686,-475,0,0,0,0,0,0,0,0,0,-1,538,1499,0,0
-679,-475,0,0,0,0,0,0,0,0,0,-1,545,1499,0,0
-672,-475,0,0,0,0,0,0,0,0,0,-1,552,1499,0,0
-665,-475,0,0,0,0,0,0,0,0,0,-1,559,1499,0,0
-658,-475,0,0,0,0,0,0,0,0,0,-1,566,1499,0,0
-651,-475,0,0,0,0,0,0,0,0,0,-1,573,1499,0,0
-644,-475,0,0,0,0,0,0,0,0,0,-1,580,1499,0,0
-637,-475,0,0,0,0,0,0,0,0,0,-1,587,1499,0,0
-630,-475,0,0,0,0,0,0,0,0,0,-1,594,1499,0,0
-623,-475,0,0,0,0,0,0,0,0,0,-1,601,1499,0,0
-616,-475,0,0,0,0,0,0,0,0,0,-1,608,1499,0,0
-609,-475,0,0,0,0,0,0,0,0,0,-1,615,1499,0,0
-602,-475,0,0,0,0,0,0,0,0,0,-1,622,1499,0,0
-595,-475,0,0,0,0,0,0,0,0,0,-1,629,1499,0,0
-588,-475,0,0,0,0,0,0,0,0,0,-1,636,1499,0,0
-581,-475,0,0,0,0,0,0,0,0,0,-1,643,1499,0,0
-574,-475,0,0,0,0,0,0,0,0,0,-1,650,1499,0,0
-567,-475,0,0,0,0,0,0,0,0,0,-1,657,1499,0,0
-560,-475,-9.42731,9.29517,0,0,0,0,0,0,0,-1,664,1499,-9.42731,-9.29519
-553,-475,-8.15131,8.78369,0,0,0,0,0,0,0,-1,671,1499,-8.15131,-8.78367
-546,-475,-8.41254,8.20654,0,0,0,0,0,0,0,-1,678,1499,-8.41251,-8.20655
-539,-475,-4.7345,4.17419,0,0,0,0,0,0,0,-1,685,1499,-4.73449,-4.17418
-532,-475,-7.07379,4.25024,0,0,0,0,0,0,0,-1,692,1499,-7.07378,-4.2503
-525,-475,-6.87811,6.83655,0,0,0,0,0,0,0,-1,699,1499,-6.87813,-6.83649
-518,-475,-6.52716,9.61328,0,0,0,0,0,0,0,-1,706,1499,-6.52719,-9.61333
-511,-475,-6.00714,10.4846,0,0,0,0,0,0,0,-1,713,1499,-6.00715,-10.4846
-504,-475,-5.25128,11.3752,0.00501882,-0.000593448,0.00213749,0.00574018,-0.00131481,0.32548,0.00433209,0.0414841,720,1499,-5.25126,-11.3752
-497,-475,-5.21906,11.7959,0.00309505,-0.0015744,0.000693903,0.00319599,-0.00167534,0.144447,0.00285777,0.0285498,727,1499,-5.21905,-11.7958
-490,-475,-5.22552,12.188,0.00182884,-0.00197217,-9.95108e-05,0.00183144,-0.00197477,-0.0261562,0.00219804,0.0106111,734,1499,-5.22552,-12.188
-483,-475,-5.23114,12.6658,0.00139882,-0.00176914,-0.000259553,0.00141995,-0.00179027,-0.0812088,0.00185752,0.00880227,741,1499,-5.23111,-12.6657
-476,-475,-5.25549,13.1195,0.00138769,-0.00123886,-1.54832e-05,0.00138779,-0.00123896,-0.00589459,0.00151736,0.010427,748,1499,-5.2555,-13.1195
-469,-475,-5.25488,13.6061,0.00179334,-0.000896868,0.000453652,0.00186778,-0.000971308,0.162641,0.00166617,0.0124823,755,1499,-5.25488,-13.6061
-462,-475,-5.22559,14.0752,0.00249886,-0.000566077,0.00107773,0.00283988,-0.000907096,0.306456,0.00225721,0.0173231,762,1499,-5.22557,-14.0752
-455,-475,-5.25641,14.5247,0.00344875,-0.000403075,0.00178983,0.00415203,-0.00110635,0.374396,0.00320118,0.0156711,769,1499,-5.25638,-14.5246
-448,-475,-5.30298,14.9872,0.00463311,-0.000372803,0.00260499,0.00574274,-0.00148243,0.402685,0.00440655,0.0135117,776,1499,-5.303,-14.9871
-441,-475,-5.31036,15.4614,0.00616805,-0.000537641,0.00358905,0.00772671,-0.0020963,0.409706,0.0059738,0.0162179,783,1499,-5.31036,-15.4614
-434,-475,-5.31067,15.9171,0.0078013,-0.00112692,0.00454356,0.00970683,-0.00303244,0.397109,0.00768414,0.0102636,790,1499,-5.31065,-15.9171
-427,-475,-5.24884,16.4622,0.0096393,-0.00230305,0.00533287,0.011674,-0.00433777,0.364496,0.00956239,0.0242456,797,1499,-5.24885,-16.4622
-420,-475,-5.11896,16.979,0.0115596,-0.00385254,0.00611573,0.0136915,-0.00598444,0.335422,0.0116468,0.0416865,804,1499,-5.11895,-16.9789
-413,-475,-4.84534,17.6108,0,0,0,0,0,0,0,-1,811,1499,-4.84534,-17.6108
-406,-475,-2.56116,12.4956,0,0,0,0,0,0,0,-1,818,1499,-2.56116,-12.4956
-399,-475,-1.39667,6.1615,0,0,0,0,0,0,0,-1,825,1499,-1.39664,-6.16155
-392,-475,0.217163,8.61389,0,0,0,0,0,0,0,-1,832,1499,0.217167,-8.6139
-385,-475,1.18372,2.73999,0,0,0,0,0,0,0,-1,839,1499,1.18372,-2.73995
-378,-475,1.31409,2.90149,0,0,0,0,0,0,0,-1,846,1499,1.31411,-2.90151
-371,-475,2.3476,3.31116,0,0,0,0,0,0,0,-1,853,1499,2.34761,-3.31121
-364,-475,1.04462,9.05823,0,0,0,0,0,0,0,-1,860,1499,1.04461,-9.05825
-357,-475,-0.262756,7.97205,0,0,0,0,0,0,0,-1,867,1499,-0.262784,-7.97205
-350,-475,-2.77173,4.35486,0,0,0,0,0,0,0,-1,874,1499,-2.77175,-4.35491
-343,-475,-6.81641,-1.95203,0,0,0,0,0,0,0,-1,881,1499,-6.81643,1.95198
-336,-475,0,0,0,0,0,0,0,0,0,-1,888,1499,0,0
-329,-475,0,0,0,0,0,0,0,0,0,-1,895,1499,0,0
-322,-475,0,0,0,0,0,0,0,0,0,-1,902,1499,0,0
-315,-475,0,0,0,0,0,0,0,0,0,-1,909,1499,0,0
-308,-475,0,0,0,0,0,0,0,0,0,-1,916,1499,0,0
-301,-475,0,0,0,0,0,0,0,0,0,-1,923,1499,0,0
-294,-475,0,0,0,0,0,0,0,0,0,-1,930,1499,0,0
-287,-475,0,0,0,0,0,0,0,0,0,-1,937,1499,0,0
-280,-475,0,0,0,0,0,0,0,0,0,-1,944,1499,0,0
-273,-475,0,0,0,0,0,0,0,0,0,-1,951,1499,0,0
-266,-475,0,0,0,0,0,0,0,0,0,-1,958,1499,0,0
-259,-475,0,0,0,0,0,0,0,0,0,-1,965,1499,0,0
-252,-475,0,0,0,0,0,0,0,0,0,-1,972,1499,0,0
-245,-475,0,0,0,0,0,0,0,0,0,-1,979,1499,0,0
-238,-475,0,0,0,0,0,0,0,0,0,-1,986,1499,0,0
-231,-475,0,0,0,0,0,0,0,0,0,-1,993,1499,0,0
-224,-475,0,0,0,0,0,0,0,0,0,-1,1000,1499,0,0
-217,-475,0,0,0,0,0,0,0,0,0,-1,1007,1499,0,0
-210,-475,0,0,0,0,0,0,0,0,0,-1,1014,1499,0,0
-203,-475,0,0,0,0,0,0,0,0,0,-1,1021,1499,0,0
-196,-475,0,0,0,0,0,0,0,0,0,-1,1028,1499,0,0
-189,-475,0,0,0,0,0,0,0,0,0,-1,1035,1499,0,0
-182,-475,0,0,0,0,0,0,0,0,0,-1,1042,1499,0,0
-175,-475,0,0,0,0,0,0,0,0,0,-1,1049,1499,0,0
-168,-475,0,0,0,0,0,0,0,0,0,-1,1056,1499,0,0
-161,-475,0,0,0,0,0,0,0,0,0,-1,1063,1499,0,0
-154,-475,0,0,0,0,0,0,0,0,0,-1,1070,1499,0,0
-147,-475,0,0,0,0,0,0,0,0,0,-1,1077,1499,0,0
-140,-475,0,0,0,0,0,0,0,0,0,-1,1084,1499,0,0
-133,-475,0,0,0,0,0,0,0,0,0,-1,1091,1499,0,0
-126,-475,0,0,0,0,0,0,0,0,0,-1,1098,1499,0,0
-119,-475,0,0,0,0,0,0,0,0,0,-1,1105,1499,0,0
-112,-475,0,0,0,0,0,0,0,0,0,-1,1112,1499,0,0
-105,-475,0,0,0,0,0,0,0,0,0,-1,1119,1499,0,0
-98,-475,0,0,0,0,0,0,0,0,0,-1,1126,1499,0,0
-91,-475,0,0,0,0,0,0,0,0,0,-1,1133,1499,0,0
-84,-475,0,0,0,0,0,0,0,0,0,-1,1140,1499,0,0
-77,-475,0,0,0,0,0,0,0,0,0,-1,1147,1499,0,0
-70,-475,0,0,0,0,0,0,0,0,0,-1,1154,1499,0,0
-63,-475,0,0,0,0,0,0,0,0,0,-1,1161,1499,0,0
-56,-475,0,0,0,0,0,0,0,0,0,-1,1168,1499,0,0
-49,-475,0,0,0,0,0,0,0,0,0,-1,1175,1499,0,0
-42,-475,0,0,0,0,0,0,0,0,0,-1,1182,1499,0,0
-35,-475,0,0,0,0,0,0,0,0,0,-1,1189,1499,0,0
-28,-475,0,0,0,0,0,0,0,0,0,-1,1196,1499,0,0
-21,-475,0,0,0,0,0,0,0,0,0,-1,1203,1499,0,0
-14,-475,0,0,0,0,0,0,0,0,0,-1,1210,1499,0,0
-7,-475,0,0,0,0,0,0,0,0,0,-1,1217,1499,0,0
0,-475,0,0,0,0,0,0,0,0,0,-1,1224,1499,0,0
7,-475,0,0,0,0,0,0,0,0,0,-1,1231,1499,0,0
14,-475,0,0,0,0,0,0,0,0,0,-1,1238,1499,0,0
21,-475,0,0,0,0,0,0,0,0,0,-1,1245,1499,0,0
28,-475,0,0,0,0,0,0,0,0,0,-1,1252,1499,0,0
35,-475,0,0,0,0,0,0,0,0,0,-1,1259,1499,0,0
42,-475,0,0,0,0,0,0,0,0,0,-1,1266,1499,0,0
49,-475,0,0,0,0,0,0,0,0,0,-1,1273,1499,0,0
56,-475,0,0,0,0,0,0,0,0,0,-1,1280,1499,0,0
63,-475,0,0,0,0,0,0,0,0,0,-1,1287,1499,0,0
70,-475,0,0,0,0,0,0,0,0,0,-1,1294,1499,0,0
77,-475,0,0,0,0,0,0,0,0,0,-1,1301,1499,0,0
84,-475,0,0,0,0,0,0,0,0,0,-1,1308,1499,0,0
91,-475,0,0,0,0,0,0,0,0,0,-1,1315,1499,0,0
98,-475,0,0,0,0,0,0,0,0,0,-1,1322,1499,0,0
105,-475,0,0,0,0,0,0,0,0,0,-1,1329,1499,0,0
112,-475,0,0,0,0,0,0,0,0,0,-1,1336,1499,0,0
119,-475,0,0,0,0,0,0,0,0,0,-1,1343,1499,0,0
126,-475,0,0,0,0,0,0,0,0,0,-1,1350,1499,0,0
133,-475,0,0,0,0,0,0,0,0,0,-1,1357,1499,0,0
140,-475,0,0,0,0,0,0,0,0,0,-1,1364,1499,0,0
147,-475,0,0,0,0,0,0,0,0,0,-1,1371,1499,0,0
154,-475,0,0,0,0,0,0,0,0,0,-1,1378,1499,0,0
161,-475,0,0,0,0,0,0,0,0,0,-1,1385,1499,0,0
168,-475,0,0,0,0,0,0,0,0,0,-1,1392,1499,0,0
175,-475,0,0,0,0,0,0,0,0,0,-1,1399,1499,0,0
182,-475,0,0,0,0,0,0,0,0,0,-1,1406,1499,0,0
189,-475,0,0,0,0,0,0,0,0,0,-1,1413,1499,0,0
196,-475,0,0,0,0,0,0,0,0,0,-1,1420,1499,0,0
203,-475,0,0,0,0,0,0,0,0,0,-1,1427,1499,0,0
210,-475,0,0,0,0,0,0,0,0,0,-1,1434,1499,0,0
217,-475,0,0,0,0,0,0,0,0,0,-1,1441,1499,0,0
224,-475,0,0,0,0,0,0,0,0,0,-1,1448,1499,0,0
231,-475,0,0,0,0,0,0,0,0,0,-1,1455,1499,0,0
238,-475,0,0,0,0,0,0,0,0,0,-1,1462,1499,0,0
245,-475,0,0,0,0,0,0,0,0,0,-1,1469,1499,0,0
252,-475,0,0,0,0,0,0,0,0,0,-1,1476,1499,0,0
259,-475,0,0,0,0,0,0,0,0,0,-1,1483,1499,0,0
266,-475,0,0,0,0,0,0,0,0,0,-1,1490,1499,0,0
273,-475,0,0,0,0,0,0,0,0,0,-1,1497,1499,0,0
280,-475,0,0,0,0,0,0,0,0,0,-1,1504,1499,0,0
287,-475,0,0,0,0,0,0,0,0,0,-1,1511,1499,0,0
294,-475,0,0,0,0,0,0,0,0,0,-1,1518,1499,0,0
301,-475,0,0,0,0,0,0,0,0,0,-1,1525,1499,0,0
308,-475,0,0,0,0,0,0,0,0,0,-1,1532,1499,0,0
315,-475,0,0,0,0,0,0,0,0,0,-1,1539,1499,0,0
322,-475,0,0,0,0,0,0,0,0,0,-1,1546,1499,0,0
329,-475,0,0,0,0,0,0,0,0,0,-1,1553,1499,0,0
336,-475,0,0,0,0,0,0,0,0,0,-1,1560,1499,0,0
343,-475,0,0,0,0,0,0,0,0,0,-1,1567,1499,0,0
350,-475,0,0,0,0,0,0,0,0,0,-1,1574,1499,0,0
357,-475,0,0,0,0,0,0,0,0,0,-1,1581,1499,0,0
364,-475,0,0,0,0,0,0,0,0,0,-1,1588,1499,0,0
371,-475,0,0,0,0,0,0,0,0,0,-1,1595,1499,0,0
378,-475,0,0,0,0,0,0,0,0,0,-1,1602,1499,0,0
385,-475,0,0,0,0,0,0,0,0,0,-1,1609,1499,0,0
392,-475,0,0,0,0,0,0,0,0,0,-1,1616,1499,0,0
399,-475,0,0,0,0,0,0,0,0,0,-1,1623,1499,0,0
406,-475,0,0,0,0,0,0,0,0,0,-1,1630,1499,0,0
413,-475,0,0,0,0,0,0,0,0,0,-1,1637,1499,0,0
420,-475,0,0,0,0,0,0,0,0,0,-1,1644,1499,0,0
427,-475,0,0,0,0,0,0,0,0,0,-1,1651,1499,0,0
434,-475,0,0,0,0,0,0,0,0,0,-1,1658,1499,0,0
441,-475,0,0,0,0,0,0,0,0,0,-1,1665,1499,0,0
448,-475,0,0,0,0,0,0,0,0,0,-1,1672,1499,0,0
455,-475,0,0,0,0,0,0,0,0,0,-1,1679,1499,0,0
462,-475,12.6372,0.275391,0,0,0,0,0,0,0,-1,1686,1499,12.6372,-0.27536
469,-475,15.6437,2.28296,0,0,0,0,0,0,0,-1,1693,1499,15.6437,-2.28293
476,-475,15.3302,2.71436,0,0,0,0,0,0,0,-1,1700,1499,15.3303,-2.7143
483,-475,10.7461,5.91479,0,0,0,0,0,0,0,-1,1707,1499,10.7461,-5.91476
490,-475,11.9305,4.4364,0,0,0,0,0,0,0,-1,1714,1499,11.9305,-4.43644
497,-475,15.3451,4.3479,0,0,0,0,0,0,0,-1,1721,1499,15.3451,-4.34789
504,-475,16.9646,7.71265,0,0,0,0,0,0,0,-1,1728,1499,16.9646,-7.71265
511,-475,18.941,12.7572,0,0,0,0,0,0,0,-1,1735,1499,18.941,-12.7572
518,-475,17.0021,13.8564,0,0,0,0,0,0,0,-1,1742,1499,17.0021,-13.8564
525,-475,17.5637,15.2103,0,0,0,0,0,0,0,-1,1749,1499,17.5637,-15.2103
532,-475,19.5269,18.9529,0,0,0,0,0,0,0,-1,1756,1499,19.5268,-18.9528
539,-475,19.4117,18.7292,-0.00041231,-0.00731262,0.00340897,0.000987759,-0.00871269,0.389697,0.00616415,0.0435969,1763,1499,19.4118,-18.7292
546,-475,19.2993,18.5361,-0.000192493,-0.00502951,0.00266791,0.000989964,-0.00621196,0.417196,0.00450768,0.0430752,1770,1499,19.2993,-18.5362
553,-475,19.3876,18.1914,0.000201071,-0.00310616,0.00184186,0.00102271,-0.0039278,0.4196,0.00301777,0.031342,1777,1499,19.3875,-18.1914
560,-475,19.1431,17.8336,0.00064792,-0.00166267,0.00109106,0.00108169,-0.00209644,0.378406,0.00186581,0.0241264,1784,1499,19.1431,-17.8337
567,-475,19.3007,17.3058,0.000868926,-0.000495009,0.000443288,0.00100034,-0.00062642,0.288193,0.000947442,0.0141346,1791,1499,19.3007,-17.3058
574,-475,19.2759,16.8635,0.00103311,6.33415e-05,7.39704e-05,0.00103872,5.77318e-05,0.0756926,0.000674061,0.0139479,1798,1499,19.2759,-16.8635
581,-475,19.2444,16.4543,0.00130879,0.000326305,-0.000340422,0.00141522,0.00021988,-0.302999,0.000879397,0.0119084,1805,1499,19.2444,-16.4544
588,-475,19.2268,16.0444,0.00170196,0.00047803,-0.000736187,0.00204732,0.00013267,-0.43864,0.00132288,0.01003,1812,1499,19.2268,-16.0444
595,-475,19.2305,15.6162,0.0022952,0.000584336,-0.00114875,0.00287204,7.49948e-06,-0.46536,0.0019122,0.0107521,1819,1499,19.2305,-15.6162
602,-475,19.2307,15.1603,0.00286571,0.000387154,-0.00148756,0.00356258,-0.000309708,-0.438099,0.00248473,0.012576,1826,1499,19.2307,-15.1602
609,-475,19.2056,14.7329,0.00350928,4.62638e-05,-0.00178994,0.00426815,-0.000712612,-0.400995,0.0031103,0.0118252,1833,1499,19.2056,-14.7329
616,-475,19.1787,14.3134,0.00430955,-0.000273725,-0.00208719,0.00511758,-0.00108176,-0.369371,0.00382366,0.0111324,1840,1499,19.1787,-14.3133
623,-475,19.1672,13.8715,0.00526999,-0.000685439,-0.00234579,0.00608299,-0.00149844,-0.333623,0.00463624,0.0109162,1847,1499,19.1672,-13.8715
630,-475,19.1702,13.4191,0.00633744,-0.00106403,-0.00256653,0.00714032,-0.00186691,-0.303181,0.00548938,0.0128659,1854,1499,19.1701,-13.419
637,-475,19.2098,12.9564,0.00757024,-0.00123916,-0.00284475,0.00840901,-0.00207793,-0.286724,0.00641188,0.0246601,1861,1499,19.2098,-12.9564
644,-475,19.2758,12.5361,0,0,0,0,0,0,0,-1,1868,1499,19.2758,-12.5362
651,-475,11.7965,7.57593,0,0,0,0,0,0,0,-1,1875,1499,11.7965,-7.5759
658,-475,14.6708,8.80322,0,0,0,0,0,0,0,-1,1882,1499,14.6708,-8.8032
665,-475,9.33435,5.43335,0,0,0,0,0,0,0,-1,1889,1499,9.33439,-5.43332
672,-475,9.38635,1.10474,0,0,0,0,0,0,0,-1,1896,1499,9.38629,-1.10475
679,-475,12.2594,1.31079,0,0,0,0,0,0,0,-1,1903,1499,12.2594,-1.31077
686,-475,0,0,0,0,0,0,0,0,0,-1,1910,1499,0,0
693,-475,0,0,0,0,0,0,0,0,0,-1,1917,1499,0,0
700,-475,0,0,0,0,0,0,0,0,0,-1,1924,1499,0,0
707,-475,0,0,0,0,0,0,0,0,0,-1,1931,1499,0,0
714,-475,0,0,0,0,0,0,0,0,0,-1,1938,1499,0,0
721,-475,0,0,0,0,0,0,0,0,0,-1,1945,1499,0,0
728,-475,0,0,0,0,0,0,0,0,0,-1,1952,1499,0,0
735,-475,0,0,0,0,0,0,0,0,0,-1,1959,1499,0,0
742,-475,0,0,0,0,0,0,0,0,0,-1,1966,1499,0,0
749,-475,0,0,0,0,0,0,0,0,0,-1,1973,1499,0,0
756,-475,0,0,0,0,0,0,0,0,0,-1,1980,1499,0,0
763,-475,0,0,0,0,0,0,0,0,0,-1,1987,1499,0,0
770,-475,0,0,0,0,0,0,0,0,0,-1,1994,1499,0,0
777,-475,0,0,0,0,0,0,0,0,0,-1,2001,1499,0,0
784,-475,0,0,0,0,0,0,0,0,0,-1,2008,1499,0,0
791,-475,0,0,0,0,0,0,0,0,0,-1,2015,1499,0,0
798,-475,0,0,0,0,0,0,0,0,0,-1,2022,1499,0,0
805,-475,0,0,0,0,0,0,0,0,0,-1,2029,1499,0,0
812,-475,0,0,0,0,0,0,0,0,0,-1,2036,1499,0,0
-700,-482,0,0,0,0,0,0,0,0,0,-1,524,1506,0,0
-693,-482,0,0,0,0,0,0,0,0,0,-1,531,1506,0,0
-686,-482,0,0,0,0,0,0,0,0,0,-1,538,1506,0,0
-679,-482,0,0,0,0,0,0,0,0,0,-1,545,1506,0,0
-672,-482,0,0,0,0,0,0,0,0,0,-1,552,1506,0,0
-665,-482,0,0,0,0,0,0,0,0,0,-1,559,1506,0,0
-658,-482,0,0,0,0,0,0,0,0,0,-1,566,1506,0,0
-651,-482,0,0,0,0,0,0,0,0,0,-1,573,1506,0,0
-644,-482,0,0,0,0,0,0,0,0,0,-1,580,1506,0,0
-637,-482,0,0,0,0,0,0,0,0,0,-1,587,1506,0,0
-630,-482,0,0,0,0,0,0,0,0,0,-1,594,1506,0,0
-623,-482,0,0,0,0,0,0,0,0,0,-1,601,1506,0,0
-616,-482,0,0,0,0,0,0,0,0,0,-1,608,1506,0,0
-609,-482,0,0,0,0,0,0,0,0,0,-1,615,1506,0,0
-602,-482,0,0,0,0,0,0,0,0,0,-1,622,1506,0,0
-595,-482,0,0,0,0,0,0,0,0,0,-1,629,1506,0,0
-588,-482,0,0,0,0,0,0,0,0,0,-1,636,1506,0,0
-581,-482,0,0,0,0,0,0,0,0,0,-1,643,1506,0,0
-574,-482,0,0,0,0,0,0,0,0,0,-1,650,1506,0,0
-567,-482,0,0,0,0,0,0,0,0,0,-1,657,1506,0,0
-560,-482,0,0,0,0,0,0,0,0,0,-1,664,1506,0,0
-553,-482,-9.06055,9.34314,0,0,0,0,0,0,0,-1,671,1506,-9.06056,-9.34312
-546,-482,-4.08624,8.34241,0,0,0,0,0,0,0,-1,678,1506,-4.08624,-8.3424
-539,-482,-4.29877,2.73499,0,0,0,0,0,0,0,-1,685,1506,-4.29879,-2.73494
-532,-482,-3.63611,4.23987,0,0,0,0,0,0,0,-1,692,1506,-3.63609,-4.23983
-525,-482,-6.19116,5.24927,0,0,0,0,0,0,0,-1,699,1506,-6.19117,-5.24927
-518,-482,-6.36865,6.89221,0,0,0,0,0,0,0,-1,706,1506,-6.36867,-6.89225
-511,-482,-5.6944,9.85303,0,0,0,0,0,0,0,-1,713,1506,-5.69442,-9.85297
-504,-482,-5.19958,10.9321,0.00763017,-0.00112657,0.00256512,0.00832624,-0.00182264,0.264979,0.00624763,0.0479998,720,1506,-5.19961,-10.9322
-497,-482,-4.68274,11.8485,0.00420598,-0.00252387,0.000388542,0.00422834,-0.00254623,0.0574795,0.00395129,0.0412725,727,1506,-4.68272,-11.8485
-490,-482,-4.78107,12.1742,0.00205422,-0.00312361,-0.000777573,0.00216847,-0.00323786,-0.145888,0.00314163,0.0265528,734,1506,-4.78105,-12.1742
-483,-482,-4.76147,12.6671,0.00104854,-0.00298218,-0.001147,0.00135208,-0.00328572,-0.258706,0.00275412,0.00936025,741,1506,-4.76145,-12.6671
-476,-482,-4.77527,13.1302,0.000723017,-0.00240516,-0.000970635,0.000999717,-0.00268186,-0.277706,0.00219827,0.010156,748,1506,-4.77527,-13.1303
-469,-482,-4.78479,13.6194,0.000935714,-0.00184916,-0.000486236,0.00101817,-0.00193162,-0.16798,0.00173006,0.0110368,755,1506,-4.78477,-13.6194
-462,-482,-4.78333,14.079,0.00149467,-0.00138572,0.000148464,0.0015023,-0.00139335,0.0513617,0.0016722,0.0123851,762,1506,-4.78331,-14.0789
-455,-482,-4.80994,14.531,0.00230072,-0.00104648,0.000872158,0.00251434,-0.00126009,0.240203,0.00221891,0.0133304,769,1506,-4.80995,-14.5311
-448,-482,-4.83087,15.0206,0.00327794,-0.000825194,0.00164262,0.00385451,-0.00140177,0.337574,0.00314292,0.0135178,776,1506,-4.83086,-15.0206
-441,-482,-4.81952,15.4882,0.00464525,-0.000614643,0.00267002,0.00576306,-0.00173245,0.39648,0.00453129,0.0125653,783,1506,-4.8195,-15.4881
-434,-482,-4.85016,15.9214,0.0061668,-0.000641955,0.00372247,0.00780688,-0.00228204,0.415001,0.00610903,0.0141022,790,1506,-4.85013,-15.9214
-427,-482,-4.86566,16.4045,0.00787825,-0.000951089,0.00469416,0.00990753,-0.00298036,0.408036,0.00779087,0.0172662,797,1506,-4.86569,-16.4046
-420,-482,-4.74878,17.0962,0.00970367,-0.00138438,0.00572497,0.0121291,-0.00380976,0.400727,0.00961104,0.0420594,804,1506,-4.74876,-17.0961
-413,-482,-4.4707,17.7225,0,0,0,0,0,0,0,-1,811,1506,-4.47069,-17.7225
-406,-482,-2.51373,12.7556,0,0,0,0,0,0,0,-1,818,1506,-2.51376,-12.7556
-399,-482,-1.3822,9.22595,0,0,0,0,0,0,0,-1,825,1506,-1.38221,-9.22598
-392,-482,-1.06836,9.22729,0,0,0,0,0,0,0,-1,832,1506,-1.06835,-9.2273
-385,-482,0.0647583,8.90649,0,0,0,0,0,0,0,-1,839,1506,0.0647778,-8.90644
-378,-482,0.215698,5.96948,0,0,0,0,0,0,0,-1,846,1506,0.215681,-5.9695
-371,-482,-0.10907,8.10437,0,0,0,0,0,0,0,-1,853,1506,-0.109063,-8.10433
-364,-482,-0.154968,10.5032,0,0,0,0,0,0,0,-1,860,1506,-0.154976,-10.5032
-357,-482,2.14807,4.60144,0,0,0,0,0,0,0,-1,867,1506,2.14807,-4.60144
-350,-482,-7.5813,-1.45935,0,0,0,0,0,0,0,-1,874,1506,-7.58133,1.45937
-343,-482,-7.19983,-1.26416,0,0,0,0,0,0,0,-1,881,1506,-7.19981,1.26414
-336,-482,-6.78491,-1.18127,0,0,0,0,0,0,0,-1,888,1506,-6.78488,1.18125
-329,-482,0,0,0,0,0,0,0,0,0,-1,895,1506,0,0
-322,-482,0,0,0,0,0,0,0,0,0,-1,902,1506,0,0
-315,-482,0,0,0,0,0,0,0,0,0,-1,909,1506,0,0
-308,-482,0,0,0,0,0,0,0,0,0,-1,916,1506,0,0
-301,-482,0,0,0,0,0,0,0,0,0,-1,923,1506,0,0
-294,-482,0,0,0,0,0,0,0,0,0,-1,930,1506,0,0
-287,-482,0,0,0,0,0,0,0,0,0,-1,937,1506,0,0
-280,-482,0,0,0,0,0,0,0,0,0,-1,944,1506,0,0
-273,-482,0,0,0,0,0,0,0,0,0,-1,951,1506,0,0
-266,-482,0,0,0,0,0,0,0,0,0,-1,958,1506,0,0
-259,-482,0,0,0,0,0,0,0,0,0,-1,965,1506,0,0
-252,-482,0,0,0,0,0,0,0,0,0,-1,972,1506,0,0
-245,-482,0,0,0,0,0,0,0,0,0,-1,979,1506,0,0
-238,-482,0,0,0,0,0,0,0,0,0,-1,986,1506,0,0
-231,-482,0,0,0,0,0,0,0,0,0,-1,993,1506,0,0
-224,-482,0,0,0,0,0,0,0,0,0,-1,1000,1506,0,0
-217,-482,0,0,0,0,0,0,0,0,0,-1,1007,1506,0,0
-210,-482,0,0,0,0,0,0,0,0,0,-1,1014,1506,0,0
-203,-482,0,0,0,0,0,0,0,0,0,-1,1021,1506,0,0
-196,-482,0,0,0,0,0,0,0,0,0,-1,1028,1506,0,0
-189,-482,0,0,0,0,0,0,0,0,0,-1,1035,1506,0,0
-182,-482,0,0,0,0,0,0,0,0,0,-1,1042,1506,0,0
-175,-482,0,0,0,0,0,0,0,0,0,-1,1049,1506,0,0
-168,-482,0,0,0,0,0,0,0,0,0,-1,1056,1506,0,0
-161,-482,0,0,0,0,0,0,0,0,0,-1,1063,1506,0,0
-154,-482,0,0,0,0,0,0,0,0,0,-1,1070,1506,0,0
-147,-482,0,0,0,0,0,0,0,0,0,-1,1077,1506,0,0
-140,-482,0,0,0,0,0,0,0,0,0,-1,1084,1506,0,0
-133,-482,0,0,0,0,0,0,0,0,0,-1,1091,1506,0,0
-126,-482,0,0,0,0,0,0,0,0,0,-1,1098,1506,0,0
-119,-482,0,0,0,0,0,0,0,0,0,-1,1105,1506,0,0
-112,-482,0,0,0,0,0,0,0,0,0,-1,1112,1506,0,0
-105,-482,0,0,0,0,0,0,0,0,0,-1,1119,1506,0,0
-98,-482,0,0,0,0,0,0,0,0,0,-1,1126,1506,0,0
-91,-482,0,0,0,0,0,0,0,0,0,-1,1133,1506,0,0
-84,-482,0,0,0,0,0,0,0,0,0,-1,1140,1506,0,0
-77,-482,0,0,0,0,0,0,0,0,0,-1,1147,1506,0,0
-70,-482,0,0,0,0,0,0,0,0,0,-1,1154,1506,0,0
-63,-482,0,0,0,0,0,0,0,0,0,-1,1161,1506,0,0
-56,-482,0,0,0,0,0,0,0,0,0,-1,1168,1506,0,0
-49,-482,0,0,0,0,0,0,0,0,0,-1,1175,1506,0,0
-42,-482,0,0,0,0,0,0,0,0,0,-1,1182,1506,0,0
-35,-482,0,0,0,0,0,0,0,0,0,-1,1189,1506,0,0
-28,-482,0,0,0,0,0,0,0,0,0,-1,1196,1506,0,0
-21,-482,0,0,0,0,0,0,0,0,0,-1,1203,1506,0,0
-14,-482,0,0,0,0,0,0,0,0,0,-1,1210,1506,0,0
-7,-482,0,0,0,0,0,0,0,0,0,-1,1217,1506,0,0
0,-482,0,0,0,0,0,0,0,0,0,-1,1224,1506,0,0
7,-482,0,0,0,0,0,0,0,0,0,-1,1231,1506,0,0
14,-482,0,0,0,0,0,0,0,0,0,-1,1238,1506,0,0
21,-482,0,0,0,0,0,0,0,0,0,-1,1245,1506,0,0
28,-482,0,0,0,0,0,0,0,0,0,-1,1252,1506,0,0
35,-482,0,0,0,0,0,0,0,0,0,-1,1259,1506,0,0
42,-482,0,0,0,0,0,0,0,0,0,-1,1266,1506,0,0
49,-482,0,0,0,0,0,0,0,0,0,-1,1273,1506,0,0
56,-482,0,0,0,0,0,0,0,0,0,-1,1280,1506,0,0
63,-482,0,0,0,0,0,0,0,0,0,-1,1287,1506,0,0
70,-482,0,0,0,0,0,0,0,0,0,-1,1294,1506,0,0
77,-482,0,0,0,0,0,0,0,0,0,-1,1301,1506,0,0
84,-482,0,0,0,0,0,0,0,0,0,-1,1308,1506,0,0
91,-482,0,0,0,0,0,0,0,0,0,-1,1315,1506,0,0
98,-482,0,0,0,0,0,0,0,0,0,-1,1322,1506,0,0
105,-482,0,0,0,0,0,0,0,0,0,-1,1329,1506,0,0
112,-482,0,0,0,0,0,0,0,0,0,-1,1336,1506,0,0
119,-482,0,0,0,0,0,0,0,0,0,-1,1343,1506,0,0
126,-482,0,0,0,0,0,0,0,0,0,-1,1350,1506,0,0
133,-482,0,0,0,0,0,0,0,0,0,-1,1357,1506,0,0
140,-482,0,0,0,0,0,0,0,0,0,-1,1364,1506,0,0
147,-482,0,0,0,0,0,0,0,0,0,-1,1371,1506,0,0
154,-482,0,0,0,0,0,0,0,0,0,-1,1378,1506,0,0
161,-482,0,0,0,0,0,0,0,0,0,-1,1385,1506,0,0
168,-482,0,0,0,0,0,0,0,0,0,-1,1392,1506,0,0
175,-482,0,0,0,0,0,0,0,0,0,-1,1399,1506,0,0
182,-482,0,0,0,0,0,0,0,0,0,-1,1406,1506,0,0
189,-482,0,0,0,0,0,0,0,0,0,-1,1413,1506,0,0
196,-482,0,0,0,0,0,0,0,0,0,-1,1420,1506,0,0
203,-482,0,0,0,0,0,0,0,0,0,-1,1427,1506,0,0
210,-482,0,0,0,0,0,0,0,0,0,-1,1434,1506,0,0
217,-482,0,0,0,0,0,0,0,0,0,-1,1441,1506,0,0
224,-482,0,0,0,0,0,0,0,0,0,-1,1448,1506,0,0
231,-482,0,0,0,0,0,0,0,0,0,-1,1455,1506,0,0
238,-482,0,0,0,0,0,0,0,0,0,-1,1462,1506,0,0
245,-482,0,0,0,0,0,0,0,0,0,-1,1469,1506,0,0
252,-482,0,0,0,0,0,0,0,0,0,-1,1476,1506,0,0
259,-482,0,0,0,0,0,0,0,0,0,-1,1483,1506,0,0
266,-482,0,0,0,0,0,0,0,0,0,-1,1490,1506,0,0
273,-482,0,0,0,0,0,0,0,0,0,-1,1497,1506,0,0
280,-482,0,0,0,0,0,0,0,0,0,-1,1504,1506,0,0
287,-482,0,0,0,0,0,0,0,0,0,-1,1511,1506,0,0
294,-482,0,0,0,0,0,0,0,0,0,-1,1518,1506,0,0
301,-482,0,0,0,0,0,0,0,0,0,-1,1525,1506,0,0
308,-482,0,0,0,0,0,0,0,0,0,-1,1532,1506,0,0
315,-482,0,0,0,0,0,0,0,0,0,-1,1539,1506,0,0
322,-482,0,0,0,0,0,0,0,0,0,-1,1546,1506,0,0
329,-482,0,0,0,0,0,0,0,0,0,-1,1553,1506,0,0
336,-482,0,0,0,0,0,0,0,0,0,-1,1560,1506,0,0
343,-482,0,0,0,0,0,0,0,0,0,-1,1567,1506,0,0
350,-482,0,0,0,0,0,0,0,0,0,-1,1574,1506,0,0
357,-482,0,0,0,0,0,0,0,0,0,-1,1581,1506,0,0
364,-482,0,0,0,0,0,0,0,0,0,-1,1588,1506,0,0
371,-482,0,0,0,0,0,0,0,0,0,-1,1595,1506,0,0
378,-482,0,0,0,0,0,0,0,0,0,-1,1602,1506,0,0
385,-482,0,0,0,0,0,0,0,0,0,-1,1609,1506,0,0
392,-482,0,0,0,0,0,0,0,0,0,-1,1616,1506,0,0
399,-482,0,0,0,0,0,0,0,0,0,-1,1623,1506,0,0
406,-482,0,0,0,0,0,0,0,0,0,-1,1630,1506,0,0
413,-482,0,0,0,0,0,0,0,0,0,-1,1637,1506,0,0
420,-482,0,0,0,0,0,0,0,0,0,-1,1644,1506,0,0
427,-482,0,0,0,0,0,0,0,0,0,-1,1651,1506,0,0
434,-482,0,0,0,0,0,0,0,0,0,-1,1658,1506,0,0
441,-482,0,0,0,0,0,0,0,0,0,-1,1665,1506,0,0
448,-482,4.24146,1.55383,0,0,0,0,0,0,0,-1,1672,1506,4.24149,-1.55381
455,-482,12.4122,1.09729,0,0,0,0,0,0,0,-1,1679,1506,12.4122,-1.09734
462,-482,15.0673,3.13135,0,0,0,0,0,0,0,-1,1686,1506,15.0672,-3.13134
469,-482,15.3793,3.46301,0,0,0,0,0,0,0,-1,1693,1506,15.3793,-3.46307
476,-482,8.69751,9.18738,0,0,0,0,0,0,0,-1,1700,1506,8.69753,-9.18739
483,-482,10.0902,7.17432,0,0,0,0,0,0,0,-1,1707,1506,10.0902,-7.1743
490,-482,11.6289,5.4928,0,0,0,0,0,0,0,-1,1714,1506,11.6289,-5.49283
497,-482,15.9539,7.40222,0,0,0,0,0,0,0,-1,1721,1506,15.9538,-7.40219
504,-482,20.4233,12.006,0,0,0,0,0,0,0,-1,1728,1506,20.4233,-12.006
511,-482,18.4937,12.9175,0,0,0,0,0,0,0,-1,1735,1506,18.4936,-12.9174
518,-482,16.6002,13.9679,0,0,0,0,0,0,0,-1,1742,1506,16.6003,-13.9679
525,-482,18.495,15.9618,0,0,0,0,0,0,0,-1,1749,1506,18.495,-15.9618
532,-482,18.7533,19.442,0,0,0,0,0,0,0,-1,1756,1506,18.7533,-19.442
539,-482,18.9119,19.0461,0.000604839,-0.00416602,0.00180577,0.00121124,-0.00477242,0.323983,0.00365293,0.0393996,1763,1506,18.9118,-19.0462
546,-482,18.8853,18.6775,0.000437681,-0.00303053,0.00158496,0.00105288,-0.00364573,0.370245,0.00284709,0.0230358,1770,1506,18.8853,-18.6775
553,-482,18.8105,18.108,0.000535523,-0.00192094,0.0011623,0.000998297,-0.00238372,0.378913,0.00200647,0.0215216,1777,1506,18.8106,-18.1081
560,-482,18.7783,17.7451,0.00075407,-0.00104699,0.000712297,0.00100172,-0.00129464,0.334607,0.0013294,0.0142398,1784,1506,18.7783,-17.7451
567,-482,18.8608,17.3055,0.000925107,-0.000301727,0.000254466,0.000975793,-0.000352413,0.196614,0.000794495,0.0146525,1791,1506,18.8608,-17.3055
574,-482,18.8419,16.8979,0.00119543,0.000110132,-0.000149016,0.00121552,9.00431e-05,-0.134001,0.000782063,0.0139421,1798,1506,18.8419,-16.8979
581,-482,18.8059,16.4922,0.00154685,0.000262904,-0.000564537,0.00175976,4.99908e-05,-0.360652,0.00115687,0.0102782,1805,1506,18.8059,-16.4922
588,-482,18.7906,16.0681,0.00208267,0.000387677,-0.00102765,0.00256721,-9.68636e-05,-0.440591,0.00174466,0.0103286,1812,1506,18.7907,-16.0681
595,-482,18.7867,15.6349,0.00284882,0.000432156,-0.00152399,0.00358538,-0.000304407,-0.450208,0.00249792,0.0153891,1819,1506,18.7867,-15.6349
602,-482,18.8016,15.1676,0.00365826,0.000250612,-0.00202527,0.00460108,-0.000692208,-0.435692,0.00332225,0.0196814,1826,1506,18.8016,-15.1675
609,-482,18.785,14.7306,0.00459424,-2.41536e-05,-0.0025278,0.00570881,-0.00113872,-0.41528,0.00423677,0.015908,1833,1506,18.7851,-14.7306
616,-482,18.7543,14.316,0.00575722,-0.000314523,-0.00305424,0.00702773,-0.00158503,-0.394207,0.00529321,0.0114646,1840,1506,18.7542,-14.3161
623,-482,18.7236,13.8934,0.00717706,-0.000705748,-0.00358689,0.00856486,-0.00209355,-0.369171,0.00652076,0.0140627,1847,1506,18.7236,-13.8935
630,-482,18.7302,13.473,0.00874544,-0.00102775,-0.00410951,0.0102437,-0.00252606,-0.349616,0.00780858,0.0276292,1854,1506,18.7303,-13.473
637,-482,18.8215,12.9196,0,0,0,0,0,0,0,-1,1861,1506,18.8215,-12.9195
644,-482,17.5909,11.6163,0,0,0,0,0,0,0,-1,1868,1506,17.5909,-11.6163
651,-482,4.03845,7.05273,0,0,0,0,0,0,0,-1,1875,1506,4.03843,-7.05279
658,-482,10.0278,5.87903,0,0,0,0,0,0,0,-1,1882,1506,10.0279,-5.87902
665,-482,8.15198,3.22229,0,0,0,0,0,0,0,-1,1889,1506,8.15199,-3.22232
672,-482,9.87415,1.3147,0,0,0,0,0,0,0,-1,1896,1506,9.87416,-1.31473
679,-482,0,0,0,0,0,0,0,0,0,-1,1903,1506,0,0
686,-482,0,0,0,0,0,0,0,0,0,-1,1910,1506,0,0
693,-482,0,0,0,0,0,0,0,0,0,-1,1917,1506,0,0
700,-482,0,0,0,0,0,0,0,0,0,-1,1924,1506,0,0
707,-482,0,0,0,0,0,0,0,0,0,-1,1931,1506,0,0
714,-482,0,0,0,0,0,0,0,0,0,-1,1938,1506,0,0
721,-482,0,0,0,0,0,0,0,0,0,-1,1945,1506,0,0
728,-482,0,0,0,0,0,0,0,0,0,-1,1952,1506,0,0
735,-482,0,0,0,0,0,0,0,0,0,-1,1959,1506,0,0
742,-482,0,0,0,0,0,0,0,0,0,-1,1966,1506,0,0
749,-482,0,0,0,0,0,0,0,0,0,-1,1973,1506,0,0
756,-482,0,0,0,0,0,0,0,0,0,-1,1980,1506,0,0
763,-482,0,0,0,0,0,0,0,0,0,-1,1987,1506,0,0
770,-482,0,0,0,0,0,0,0,0,0,-1,1994,1506,0,0
777,-482,0,0,0,0,0,0,0,0,0,-1,2001,1506,0,0
784,-482,0,0,0,0,0,0,0,0,0,-1,2008,1506,0,0
791,-482,0,0,0,0,0,0,0,0,0,-1,2015,1506,0,0
798,-482,0,0,0,0,0,0,0,0,0,-1,2022,1506,0,0
805,-482,0,0,0,0,0,0,0,0,0,-1,2029,1506,0,0
812,-482,0,0,0,0,0,0,0,0,0,-1,2036,1506,0,0
-700,-489,0,0,0,0,0,0,0,0,0,-1,524,1513,0,0
-693,-489,0,0,0,0,0,0,0,0,0,-1,531,1513,0,0
-686,-489,0,0,0,0,0,0,0,0,0,-1,538,1513,0,0
-679,-489,0,0,0,0,0,0,0,0,0,-1,545,1513,0,0
-672,-489,0,0,0,0,0,0,0,0,0,-1,552,1513,0,0
-665,-489,0,0,0,0,0,0,0,0,0,-1,559,1513,0,0
-658,-489,0,0,0,0,0,0,0,0,0,-1,566,1513,0,0
-651,-489,0,0,0,0,0,0,0,0,0,-1,573,1513,0,0
-644,-489,0,0,0,0,0,0,0,0,0,-1,580,1513,0,0
-637,-489,0,0,0,0,0,0,0,0,0,-1,587,1513,0,0
-630,-489,0,0,0,0,0,0,0,0,0,-1,594,1513,0,0
-623,-489,0,0,0,0,0,0,0,0,0,-1,601,1513,0,0
-616,-489,0,0,0,0,0,0,0,0,0,-1,608,1513,0,0
-609,-489,0,0,0,0,0,0,0,0,0,-1,615,1513,0,0
-602,-489,0,0,0,0,0,0,0,0,0,-1,622,1513,0,0
-595,-489,0,0,0,0,0,0,0,0,0,-1,629,1513,0,0
-588,-489,0,0,0,0,0,0,0,0,0,-1,636,1513,0,0
-581,-489,0,0,0,0,0,0,0,0,0,-1,643,1513,0,0
-574,-489,0,0,0,0,0,0,0,0,0,-1,650,1513,0,0
-567,-489,0,0,0,0,0,0,0,0,0,-1,657,1513,0,0
-560,-489,0,0,0,0,0,0,0,0,0,-1,664,1513,0,0
-553,-489,-9.42206,8.5116,0,0,0,0,0,0,0,-1,671,1513,-9.42205,-8.51158
-546,-489,-7.80951,8.18506,0,0,0,0,0,0,0,-1,678,1513,-7.8095,-8.18503
-539,-489,-3.06879,2.82349,0,0,0,0,0,0,0,-1,685,1513,-3.06881,-2.82354
-532,-489,-3.14215,2.5835,0,0,0,0,0,0,0,-1,692,1513,-3.14213,-2.58353
-525,-489,-2.604,4.06274,0,0,0,0,0,0,0,-1,699,1513,-2.60399,-4.06274
-518,-489,-5.43774,7.48059,0,0,0,0,0,0,0,-1,706,1513,-5.43777,-7.48058
-511,-489,-5.18207,8.84167,0,0,0,0,0,0,0,-1,713,1513,-5.18205,-8.84166
-504,-489,-5.0058,10.5929,0,0,0,0,0,0,0,-1,720,1513,-5.0058,-10.5929
-497,-489,-4.15643,11.6,0,0,0,0,0,0,0,-1,727,1513,-4.15644,-11.5999
-490,-489,-4.13556,12.2512,0.0017,-0.00447501,-0.00190871,0.00224235,-0.00501737,-0.276849,0.00429226,0.0351112,734,1513,-4.13555,-12.2512
-483,-489,-4.3172,12.6355,0.000460165,-0.00422894,-0.00225641,0.00136958,-0.00513836,-0.383122,0.00396181,0.0154906,741,1513,-4.31718,-12.6355
-476,-489,-4.32031,13.1392,-2.08648e-05,-0.00348596,-0.00200807,0.000898771,-0.00440559,-0.429462,0.00327798,0.0095792,748,1513,-4.32033,-13.1391
-469,-489,-4.3266,13.6104,6.46194e-05,-0.00265471,-0.00142987,0.000678079,-0.00326818,-0.40528,0.00243647,0.00982578,755,1513,-4.32662,-13.6104
-462,-489,-4.33319,14.084,0.000536835,-0.00201484,-0.000719633,0.000725796,-0.0022038,-0.256782,0.0017617,0.0151525,762,1513,-4.33317,-14.084
-455,-489,-4.36853,14.5551,0.00125856,-0.00149347,6.05652e-05,0.00125989,-0.0014948,0.0219933,0.00159235,0.019628,769,1513,-4.36852,-14.5551
-448,-489,-4.38959,15.0266,0.00209814,-0.00111242,0.000824832,0.00229765,-0.00131193,0.237323,0.00210974,0.0178207,776,1513,-4.38961,-15.0266
-441,-489,-4.3609,15.4916,0.00334021,-0.000627751,0.00188595,0.00409357,-0.0013811,0.380036,0.00328758,0.0150543,783,1513,-4.36088,-15.4916
-434,-489,-4.40137,15.9207,0.00476691,-0.000257275,0.00299292,0.00616227,-0.00165264,0.436261,0.00475576,0.0168077,790,1513,-4.40139,-15.9207
-427,-489,-4.44147,16.412,0.00633949,8.57595e-06,0.00406791,0.00832845,-0.00198039,0.45476,0.00631677,0.0187698,797,1513,-4.44147,-16.412
-420,-489,-4.44965,17.0161,0.00803214,0.000238947,0.00520228,0.0106353,-0.00236424,0.463962,0.00799567,0.0231424,804,1513,-4.44962,-17.0162
-413,-489,-4.35175,17.6818,0,0,0,0,0,0,0,-1,811,1513,-4.35172,-17.6818
-406,-489,-3.10559,15.8143,0,0,0,0,0,0,0,-1,818,1513,-3.10556,-15.8143
-399,-489,-1.41241,9.10718,0,0,0,0,0,0,0,-1,825,1513,-1.41244,-9.10722
-392,-489,-1.0368,9.30469,0,0,0,0,0,0,0,-1,832,1513,-1.03682,-9.30466
-385,-489,-1.75165,10.6559,0,0,0,0,0,0,0,-1,839,1513,-1.75165,-10.6559
-378,-489,-0.401428,9.87048,0,0,0,0,0,0,0,-1,846,1513,-0.401415,-9.87047
-371,-489,-1.11633,10.6606,0,0,0,0,0,0,0,-1,853,1513,-1.11633,-10.6606
-364,-489,-0.503113,8.98486,0,0,0,0,0,0,0,-1,860,1513,-0.503097,-8.98482
-357,-489,-0.609924,10.9606,0,0,0,0,0,0,0,-1,867,1513,-0.609947,-10.9605
-350,-489,-7.94659,-0.358887,0,0,0,0,0,0,0,-1,874,1513,-7.94657,0.358912
-343,-489,-7.49323,-0.437866,0,0,0,0,0,0,0,-1,881,1513,-7.49322,0.437823
-336,-489,-7.02332,-0.53125,0,0,0,0,0,0,0,-1,888,1513,-7.0233,0.531295
-329,-489,-6.55664,0.147583,0,0,0,0,0,0,0,-1,895,1513,-6.55667,-0.147606
-322,-489,0,0,0,0,0,0,0,0,0,-1,902,1513,0,0
-315,-489,0,0,0,0,0,0,0,0,0,-1,909,1513,0,0
-308,-489,0,0,0,0,0,0,0,0,0,-1,916,1513,0,0
-301,-489,0,0,0,0,0,0,0,0,0,-1,923,1513,0,0
-294,-489,0,0,0,0,0,0,0,0,0,-1,930,1513,0,0
-287,-489,0,0,0,0,0,0,0,0,0,-1,937,1513,0,0
-280,-489,0,0,0,0,0,0,0,0,0,-1,944,1513,0,0
-273,-489,0,0,0,0,0,0,0,0,0,-1,951,1513,0,0
-266,-489,0,0,0,0,0,0,0,0,0,-1,958,1513,0,0
-259,-489,0,0,0,0,0,0,0,0,0,-1,965,1513,0,0
-252,-489,0,0,0,0,0,0,0,0,0,-1,972,1513,0,0
-245,-489,0,0,0,0,0,0,0,0,0,-1,979,1513,0,0
-238,-489,0,0,0,0,0,0,0,0,0,-1,986,1513,0,0
-231,-489,0,0,0,0,0,0,0,0,0,-1,993,1513,0,0
-224,-489,0,0,0,0,0,0,0,0,0,-1,1000,1513,0,0
-217,-489,0,0,0,0,0,0,0,0,0,-1,1007,1513,0,0
-210,-489,0,0,0,0,0,0,0,0,0,-1,1014,1513,0,0
-203,-489,0,0,0,0,0,0,0,0,0,-1,1021,1513,0,0
-196,-489,0,0,0,0,0,0,0,0,0,-1,1028,1513,0,0
-189,-489,0,0,0,0,0,0,0,0,0,-1,1035,1513,0,0
-182,-489,0,0,0,0,0,0,0,0,0,-1,1042,1513,0,0
-175,-489,0,0,0,0,0,0,0,0,0,-1,1049,1513,0,0
-168,-489,0,0,0,0,0,0,0,0,0,-1,1056,1513,0,0
-161,-489,0,0,0,0,0,0,0,0,0,-1,1063,1513,0,0
-154,-489,0,0,0,0,0,0,0,0,0,-1,1070,1513,0,0
-147,-489,0,0,0,0,0,0,0,0,0,-1,1077,1513,0,0
-140,-489,0,0,0,0,0,0,0,0,0,-1,1084,1513,0,0
-133,-489,0,0,0,0,0,0,0,0,0,-1,1091,1513,0,0
-126,-489,0,0,0,0,0,0,0,0,0,-1,1098,1513,0,0
-119,-489,0,0,0,0,0,0,0,0,0,-1,1105,1513,0,0
-112,-489,0,0,0,0,0,0,0,0,0,-1,1112,1513,0,0
-105,-489,0,0,0,0,0,0,0,0,0,-1,1119,1513,0,0
-98,-489,0,0,0,0,0,0,0,0,0,-1,1126,1513,0,0
-91,-489,0,0,0,0,0,0,0,0,0,-1,1133,1513,0,0
-84,-489,0,0,0,0,0,0,0,0,0,-1,1140,1513,0,0
-77,-489,0,0,0,0,0,0,0,0,0,-1,1147,1513,0,0
-70,-489,0,0,0,0,0,0,0,0,0,-1,1154,1513,0,0
-63,-489,0,0,0,0,0,0,0,0,0,-1,1161,1513,0,0
-56,-489,0,0,0,0,0,0,0,0,0,-1,1168,1513,0,0
-49,-489,0,0,0,0,0,0,0,0,0,-1,1175,1513,0,0
-42,-489,0,0,0,0,0,0,0,0,0,-1,1182,1513,0,0
-35,-489,0,0,0,0,0,0,0,0,0,-1,1189,1513,0,0
-28,-489,0,0,0,0,0,0,0,0,0,-1,1196,1513,0,0
-21,-489,0,0,0,0,0,0,0,0,0,-1,1203,1513,0,0
-14,-489,0,0,0,0,0,0,0,0,0,-1,1210,1513,0,0
-7,-489,0,0,0,0,0,0,0,0,0,-1,1217,1513,0,0
0,-489,0,0,0,0,0,0,0,0,0,-1,1224,1513,0,0
7,-489,0,0,0,0,0,0,0,0,0,-1,1231,1513,0,0
14,-489,0,0,0,0,0,0,0,0,0,-1,1238,1513,0,0
21,-489,0,0,0,0,0,0,0,0,0,-1,1245,1513,0,0
28,-489,0,0,0,0,0,0,0,0,0,-1,1252,1513,0,0
35,-489,0,0,0,0,0,0,0,0,0,-1,1259,1513,0,0
42,-489,0,0,0,0,0,0,0,0,0,-1,1266,1513,0,0
49,-489,0,0,0,0,0,0,0,0,0,-1,1273,1513,0,0
56,-489,0,0,0,0,0,0,0,0,0,-1,1280,1513,0,0
63,-489,0,0,0,0,0,0,0,0,0,-1,1287,1513,0,0
70,-489,0,0,0,0,0,0,0,0,0,-1,1294,1513,0,0
77,-489,0,0,0,0,0,0,0,0,0,-1,1301,1513,0,0
84,-489,0,0,0,0,0,0,0,0,0,-1,1308,1513,0,0
91,-489,0,0,0,0,0,0,0,0,0,-1,1315,1513,0,0
98,-489,0,0,0,0,0,0,0,0,0,-1,1322,1513,0,0
105,-489,0,0,0,0,0,0,0,0,0,-1,1329,1513,0,0
112,-489,0,0,0,0,0,0,0,0,0,-1,1336,1513,0,0
119,-489,0,0,0,0,0,0,0,0,0,-1,1343,1513,0,0
126,-489,0,0,0,0,0,0,0,0,0,-1,1350,1513,0,0
133,-489,0,0,0,0,0,0,0,0,0,-1,1357,1513,0,0
140,-489,0,0,0,0,0,0,0,0,0,-1,1364,1513,0,0
147,-489,0,0,0,0,0,0,0,0,0,-1,1371,1513,0,0
154,-489,0,0,0,0,0,0,0,0,0,-1,1378,1513,0,0
161,-489,0,0,0,0,0,0,0,0,0,-1,1385,1513,0,0
168,-489,0,0,0,0,0,0,0,0,0,-1,1392,1513,0,0
175,-489,0,0,0,0,0,0,0,0,0,-1,1399,1513,0,0
182,-489,0,0,0,0,0,0,0,0,0,-1,1406,1513,0,0
189,-489,0,0,0,0,0,0,0,0,0,-1,1413,1513,0,0
196,-489,0,0,0,0,0,0,0,0,0,-1,1420,1513,0,0
203,-489,0,0,0,0,0,0,0,0,0,-1,1427,1513,0,0
210,-489,0,0,0,0,0,0,0,0,0,-1,1434,1513,0,0
217,-489,0,0,0,0,0,0,0,0,0,-1,1441,1513,0,0
224,-489,0,0,0,0,0,0,0,0,0,-1,1448,1513,0,0
231,-489,0,0,0,0,0,0,0,0,0,-1,1455,1513,0,0
238,-489,0,0,0,0,0,0,0,0,0,-1,1462,1513,0,0
245,-489,0,0,0,0,0,0,0,0,0,-1,1469,1513,0,0
252,-489,0,0,0,0,0,0,0,0,0,-1,1476,1513,0,0
259,-489,0,0,0,0,0,0,0,0,0,-1,1483,1513,0,0
266,-489,0,0,0,0,0,0,0,0,0,-1,1490,1513,0,0
273,-489,0,0,0,0,0,0,0,0,0,-1,1497,1513,0,0
280,-489,0,0,0,0,0,0,0,0,0,-1,1504,1513,0,0
287,-489,0,0,0,0,0,0,0,0,0,-1,1511,1513,0,0
294,-489,0,0,0,0,0,0,0,0,0,-1,1518,1513,0,0
301,-489,0,0,0,0,0,0,0,0,0,-1,1525,1513,0,0
308,-489,0,0,0,0,0,0,0,0,0,-1,1532,1513,0,0
315,-489,0,0,0,0,0,0,0,0,0,-1,1539,1513,0,0
322,-489,0,0,0,0,0,0,0,0,0,-1,1546,1513,0,0
329,-489,0,0,0,0,0,0,0,0,0,-1,1553,1513,0,0
336,-489,0,0,0,0,0,0,0,0,0,-1,1560,1513,0,0
343,-489,0,0,0,0,0,0,0,0,0,-1,1567,1513,0,0
350,-489,0,0,0,0,0,0,0,0,0,-1,1574,1513,0,0
357,-489,0,0,0,0,0,0,0,0,0,-1,1581,1513,0,0
364,-489,0,0,0,0,0,0,0,0,0,-1,1588,1513,0,0
371,-489,0,0,0,0,0,0,0,0,0,-1,1595,1513,0,0
378,-489,0,0,0,0,0,0,0,0,0,-1,1602,1513,0,0
385,-489,0,0,0,0,0,0,0,0,0,-1,1609,1513,0,0
392,-489,0,0,0,0,0,0,0,0,0,-1,1616,1513,0,0
399,-489,0,0,0,0,0,0,0,0,0,-1,1623,1513,0,0
406,-489,0,0,0,0,0,0,0,0,0,-1,1630,1513,0,0
413,-489,0,0,0,0,0,0,0,0,0,-1,1637,1513,0,0
420,-489,0,0,0,0,0,0,0,0,0,-1,1644,1513,0,0
427,-489,0,0,0,0,0,0,0,0,0,-1,1651,1513,0,0
434,-489,0,0,0,0,0,0,0,0,0,-1,1658,1513,0,0
441,-489,11.4602,2.56787,0,0,0,0,0,0,0,-1,1665,1513,11.4602,-2.56786
448,-489,12.4425,1.72351,0,0,0,0,0,0,0,-1,1672,1513,12.4425,-1.72349
455,-489,12.5575,1.37463,0,0,0,0,0,0,0,-1,1679,1513,12.5575,-1.37469
462,-489,14.9784,3.84888,0,0,0,0,0,0,0,-1,1686,1513,14.9784,-3.84892
469,-489,15.1367,4.53101,0,0,0,0,0,0,0,-1,1693,1513,15.1368,-4.531
476,-489,15.5536,5.09338,0,0,0,0,0,0,0,-1,1700,1513,15.5536,-5.09339
483,-489,8.96912,8.37805,0,0,0,0,0,0,0,-1,1707,1513,8.96909,-8.37809
490,-489,10.5366,7.49561,0,0,0,0,0,0,0,-1,1714,1513,10.5367,-7.49558
497,-489,14.6051,11.8397,0,0,0,0,0,0,0,-1,1721,1513,14.6051,-11.8397
504,-489,16.7527,14.1735,0,0,0,0,0,0,0,-1,1728,1513,16.7527,-14.1735
511,-489,17.83,17.7993,0,0,0,0,0,0,0,-1,1735,1513,17.83,-17.7993
518,-489,16.4751,14.3682,0,0,0,0,0,0,0,-1,1742,1513,16.4751,-14.3682
525,-489,17.2606,17.4949,0,0,0,0,0,0,0,-1,1749,1513,17.2606,-17.4949
532,-489,17.9978,19.0566,0,0,0,0,0,0,0,-1,1756,1513,17.9979,-19.0566
539,-489,18.3137,19.2793,0,0,0,0,0,0,0,-1,1763,1513,18.3138,-19.2793
546,-489,18.3988,18.7374,0.00102879,-0.0013575,0.000640934,0.00119004,-0.00151875,0.246474,0.00156776,0.0184765,1770,1513,18.3988,-18.7374
553,-489,18.4083,18.2058,0.000915175,-0.000857382,0.000519184,0.00105605,-0.000998256,0.264957,0.00118621,0.0165776,1777,1513,18.4083,-18.2058
560,-489,18.4004,17.748,0.000967218,-0.000411652,0.000311833,0.00103446,-0.000478894,0.212383,0.000893145,0.012693,1784,1513,18.4003,-17.7481
567,-489,18.4254,17.3408,0.00111053,-3.11764e-05,2.40792e-05,0.00111104,-3.1684e-05,0.0210781,0.000751476,0.0142618,1791,1513,18.4254,-17.3408
574,-489,18.3768,16.9502,0.00149293,0.000241962,-0.000411426,0.00161611,0.00011878,-0.29091,0.00104008,0.0147834,1798,1513,18.3768,-16.9502
581,-489,18.3738,16.5098,0.00192522,0.000283062,-0.000828863,0.00227084,-6.25561e-05,-0.395057,0.00153517,0.0107637,1805,1513,18.3738,-16.5097
588,-489,18.3544,16.0881,0.00260504,0.000364268,-0.00136218,0.0032484,-0.000279092,-0.441245,0.00226437,0.0130344,1812,1513,18.3544,-16.0882
595,-489,18.3431,15.6604,0.00355244,0.000331286,-0.0019571,0.00447646,-0.000592735,-0.441111,0.00320024,0.0191343,1819,1513,18.3431,-15.6604
602,-489,18.348,15.1818,0.00463694,0.000151109,-0.00265128,0.00586677,-0.00107872,-0.434322,0.00431593,0.0243009,1826,1513,18.348,-15.1817
609,-489,18.3474,14.7423,0.00593424,-5.74993e-05,-0.00341614,0.00748208,-0.00160533,-0.425424,0.00560039,0.0175499,1833,1513,18.3474,-14.7423
616,-489,18.3462,14.308,0.0075783,-0.000304646,-0.00428261,0.00945713,-0.00218348,-0.413427,0.00714468,0.0159879,1840,1513,18.3462,-14.308
623,-489,18.3174,13.8734,0.00963252,-0.000633331,-0.00524972,0.0118417,-0.00284251,-0.398323,0.00899298,0.0314903,1847,1513,18.3174,-13.8735
630,-489,18.4324,13.3854,0,0,0,0,0,0,0,-1,1854,1513,18.4323,-13.3854
637,-489,17.2048,11.8091,0,0,0,0,0,0,0,-1,1861,1513,17.2048,-11.8091
644,-489,9.67578,8.45874,0,0,0,0,0,0,0,-1,1868,1513,9.67576,-8.45879
651,-489,6.13818,6.85095,0,0,0,0,0,0,0,-1,1875,1513,6.13823,-6.85097
658,-489,5.43848,7.75513,0,0,0,0,0,0,0,-1,1882,1513,5.43844,-7.75509
665,-489,5.48438,8.59912,0,0,0,0,0,0,0,-1,1889,1513,5.48434,-8.59907
672,-489,0,0,0,0,0,0,0,0,0,-1,1896,1513,0,0
679,-489,0,0,0,0,0,0,0,0,0,-1,1903,1513,0,0
686,-489,0,0,0,0,0,0,0,0,0,-1,1910,1513,0,0
693,-489,0,0,0,0,0,0,0,0,0,-1,1917,1513,0,0
700,-489,0,0,0,0,0,0,0,0,0,-1,1924,1513,0,0
707,-489,0,0,0,0,0,0,0,0,0,-1,1931,1513,0,0
714,-489,0,0,0,0,0,0,0,0,0,-1,1938,1513,0,0
721,-489,0,0,0,0,0,0,0,0,0,-1,1945,1513,0,0
728,-489,0,0,0,0,0,0,0,0,0,-1,1952,1513,0,0
735,-489,0,0,0,0,0,0,0,0,0,-1,1959,1513,0,0
742,-489,0,0,0,0,0,0,0,0,0,-1,1966,1513,0,0
749,-489,0,0,0,0,0,0,0,0,0,-1,1973,1513,0,0
756,-489,0,0,0,0,0,0,0,0,0,-1,1980,1513,0,0
763,-489,0,0,0,0,0,0,0,0,0,-1,1987,1513,0,0
770,-489,0,0,0,0,0,0,0,0,0,-1,1994,1513,0,0
777,-489,0,0,0,0,0,0,0,0,0,-1,2001,1513,0,0
784,-489,0,0,0,0,0,0,0,0,0,-1,2008,1513,0,0
791,-489,0,0,0,0,0,0,0,0,0,-1,2015,1513,0,0
798,-489,0,0,0,0,0,0,0,0,0,-1,2022,1513,0,0
805,-489,0,0,0,0,0,0,0,0,0,-1,2029,1513,0,0
812,-489,0,0,0,0,0,0,0,0,0,-1,2036,1513,0,0
-700,-496,0,0,0,0,0,0,0,0,0,-1,524,1520,0,0
-693,-496,0,0,0,0,0,0,0,0,0,-1,531,1520,0,0
-686,-496,0,0,0,0,0,0,0,0,0,-1,538,1520,0,0
-679,-496,0,0,0,0,0,0,0,0,0,-1,545,1520,0,0
-672,-496,0,0,0,0,0,0,0,0,0,-1,552,1520,0,0
-665,-496,0,0,0,0,0,0,0,0,0,-1,559,1520,0,0
-658,-496,0,0,0,0,0,0,0,0,0,-1,566,1520,0,0
-651,-496,0,0,0,0,0,0,0,0,0,-1,573,1520,0,0
-644,-496,0,0,0,0,0,0,0,0,0,-1,580,1520,0,0
-637,-496,0,0,0,0,0,0,0,0,0,-1,587,1520,0,0
-630,-496,0,0,0,0,0,0,0,0,0,-1,594,1520,0,0
-623,-496,0,0,0,0,0,0,0,0,0,-1,601,1520,0,0
-616,-496,0,0,0,0,0,0,0,0,0,-1,608,1520,0,0
-609,-496,0,0,0,0,0,0,0,0,0,-1,615,1520,0,0
-602,-496,0,0,0,0,0,0,0,0,0,-1,622,1520,0,0
-595,-496,0,0,0,0,0,0,0,0,0,-1,629,1520,0,0
-588,-496,0,0,0,0,0,0,0,0,0,-1,636,1520,0,0
-581,-496,0,0,0,0,0,0,0,0,0,-1,643,1520,0,0
-574,-496,0,0,0,0,0,0,0,0,0,-1,650,1520,0,0
-567,-496,0,0,0,0,0,0,0,0,0,-1,657,1520,0,0
-560,-496,0,0,0,0,0,0,0,0,0,-1,664,1520,0,0
-553,-496,0,0,0,0,0,0,0,0,0,-1,671,1520,0,0
-546,-496,-8.09711,7.94836,0,0,0,0,0,0,0,-1,678,1520,-8.09712,-7.94842
-539,-496,-3.20129,1.16052,0,0,0,0,0,0,0,-1,685,1520,-3.20131,-1.16054
-532,-496,-2.98279,2.62146,0,0,0,0,0,0,0,-1,692,1520,-2.98278,-2.62151
-525,-496,-2.75201,4.08032,0,0,0,0,0,0,0,-1,699,1520,-2.75201,-4.08031
-518,-496,-2.6333,5.36072,0,0,0,0,0,0,0,-1,706,1520,-2.63328,-5.36077
-511,-496,-5.7644,7.94397,0,0,0,0,0,0,0,-1,713,1520,-5.76442,-7.94396
-504,-496,-4.51697,11.2133,0,0,0,0,0,0,0,-1,720,1520,-4.51698,-11.2133
-497,-496,-4.20172,11.799,0,0,0,0,0,0,0,-1,727,1520,-4.20174,-11.7989
-490,-496,-3.70477,12.4674,0.00111586,-0.00585871,-0.00325914,0.00240174,-0.00714459,-0.375797,0.00573384,0.0418334,734,1520,-3.7048,-12.4674
-483,-496,-3.78015,12.8002,-0.000313352,-0.00528558,-0.0033902,0.0014046,-0.00700354,-0.469026,0.00520084,0.0268702,741,1520,-3.78018,-12.8001
-476,-496,-3.87445,13.1636,-0.000916455,-0.00422753,-0.00294721,0.000808369,-0.00595236,-0.529496,0.00426332,0.013678,748,1520,-3.87445,-13.1636
-469,-496,-3.87732,13.6292,-0.000932458,-0.00305399,-0.00221007,0.000458236,-0.00444468,-0.561651,0.00312708,0.0100488,755,1520,-3.87734,-13.6292
-462,-496,-3.88208,14.0994,-0.000521021,-0.00221323,-0.00139584,0.000265128,-0.00299938,-0.512928,0.00209357,0.0144948,762,1520,-3.88208,-14.0994
-455,-496,-3.89978,14.5687,0.000140872,-0.00153972,-0.000564527,0.000312894,-0.00171174,-0.29578,0.00125849,0.0198137,769,1520,-3.89979,-14.5688
-448,-496,-3.90033,15.0608,0.000884633,-0.00107442,0.000173264,0.000899839,-0.00108962,0.0875375,0.00115036,0.0193165,776,1520,-3.90036,-15.0608
-441,-496,-3.89655,15.5243,0.00203348,-0.000467545,0.00120248,0.00251783,-0.000951895,0.382911,0.00207013,0.0148155,783,1520,-3.89655,-15.5243
-434,-496,-3.922,15.9584,0.00338271,8.52927e-05,0.00227427,0.00454301,-0.00107501,0.471764,0.00344341,0.013652,790,1520,-3.92202,-15.9584
-427,-496,-3.95746,16.4276,0.00482858,0.00063741,0.00335061,0.00668497,-0.00121897,0.505942,0.00491363,0.0169926,797,1520,-3.95747,-16.4277
-420,-496,-3.9762,16.8718,0.00640047,0.00114267,0.00445437,0.00894385,-0.00140071,0.518813,0.00648013,0.0174577,804,1520,-3.97621,-16.8719
-413,-496,-3.89331,17.3809,0.00808833,0.00190706,0.00583856,0.0116038,-0.00160842,0.541973,0.00832398,0.0263759,811,1520,-3.8933,-17.3809
-406,-496,-3.74823,18.0735,0,0,0,0,0,0,0,-1,818,1520,-3.74826,-18.0735
-399,-496,-3.45441,18.8134,0,0,0,0,0,0,0,-1,825,1520,-3.4544,-18.8134
-392,-496,-1.49786,12.387,0,0,0,0,0,0,0,-1,832,1520,-1.49788,-12.387
-385,-496,-1.72437,11.4985,0,0,0,0,0,0,0,-1,839,1520,-1.72436,-11.4985
-378,-496,-1.45532,14.0719,0,0,0,0,0,0,0,-1,846,1520,-1.45533,-14.0719
-371,-496,0.0877075,12.5299,0,0,0,0,0,0,0,-1,853,1520,0.0876896,-12.5299
-364,-496,0.0881348,10.6422,0,0,0,0,0,0,0,-1,860,1520,0.0881368,-10.6423
-357,-496,0.323792,7.56812,0,0,0,0,0,0,0,-1,867,1520,0.323782,-7.56806
-350,-496,2.1535,7.18945,0,0,0,0,0,0,0,-1,874,1520,2.15348,-7.1894
-343,-496,-7.56244,0.335327,0,0,0,0,0,0,0,-1,881,1520,-7.56242,-0.335322
-336,-496,-3.99249,6.02222,0,0,0,0,0,0,0,-1,888,1520,-3.99246,-6.0222
-329,-496,-6.93689,-0.100342,0,0,0,0,0,0,0,-1,895,1520,-6.93686,0.1003
-322,-496,-6.17505,0.494385,0,0,0,0,0,0,0,-1,902,1520,-6.17507,-0.49437
-315,-496,-7.2262,5.40344,0,0,0,0,0,0,0,-1,909,1520,-7.22621,-5.4035
-308,-496,0,0,0,0,0,0,0,0,0,-1,916,1520,0,0
-301,-496,0,0,0,0,0,0,0,0,0,-1,923,1520,0,0
-294,-496,0,0,0,0,0,0,0,0,0,-1,930,1520,0,0
-287,-496,0,0,0,0,0,0,0,0,0,-1,937,1520,0,0
-280,-496,0,0,0,0,0,0,0,0,0,-1,944,1520,0,0
-273,-496,0,0,0,0,0,0,0,0,0,-1,951,1520,0,0
-266,-496,0,0,0,0,0,0,0,0,0,-1,958,1520,0,0
-259,-496,0,0,0,0,0,0,0,0,0,-1,965,1520,0,0
-252,-496,0,0,0,0,0,0,0,0,0,-1,972,1520,0,0
-245,-496,0,0,0,0,0,0,0,0,0,-1,979,1520,0,0
-238,-496,0,0,0,0,0,0,0,0,0,-1,986,1520,0,0
-231,-496,0,0,0,0,0,0,0,0,0,-1,993,1520,0,0
-224,-496,0,0,0,0,0,0,0,0,0,-1,1000,1520,0,0
-217,-496,0,0,0,0,0,0,0,0,0,-1,1007,1520,0,0
-210,-496,0,0,0,0,0,0,0,0,0,-1,1014,1520,0,0
-203,-496,0,0,0,0,0,0,0,0,0,-1,1021,1520,0,0
-196,-496,0,0,0,0,0,0,0,0,0,-1,1028,1520,0,0
-189,-496,0,0,0,0,0,0,0,0,0,-1,1035,1520,0,0
-182,-496,0,0,0,0,0,0,0,0,0,-1,1042,1520,0,0
-175,-496,0,0,0,0,0,0,0,0,0,-1,1049,1520,0,0
-168,-496,0,0,0,0,0,0,0,0,0,-1,1056,1520,0,0
-161,-496,0,0,0,0,0,0,0,0,0,-1,1063,1520,0,0
-154,-496,0,0,0,0,0,0,0,0,0,-1,1070,1520,0,0
-147,-496,0,0,0,0,0,0,0,0,0,-1,1077,1520,0,0
-140,-496,0,0,0,0,0,0,0,0,0,-1,1084,1520,0,0
-133,-496,0,0,0,0,0,0,0,0,0,-1,1091,1520,0,0
-126,-496,0,0,0,0,0,0,0,0,0,-1,1098,1520,0,0
-119,-496,0,0,0,0,0,0,0,0,0,-1,1105,1520,0,0
-112,-496,0,0,0,0,0,0,0,0,0,-1,1112,1520,0,0
-105,-496,0,0,0,0,0,0,0,0,0,-1,1119,1520,0,0
-98,-496,0,0,0,0,0,0,0,0,0,-1,1126,1520,0,0
-91,-496,0,0,0,0,0,0,0,0,0,-1,1133,1520,0,0
-84,-496,0,0,0,0,0,0,0,0,0,-1,1140,1520,0,0
-77,-496,0,0,0,0,0,0,0,0,0,-1,1147,1520,0,0
-70,-496,0,0,0,0,0,0,0,0,0,-1,1154,1520,0,0
-63,-496,0,0,0,0,0,0,0,0,0,-1,1161,1520,0,0
-56,-496,0,0,0,0,0,0,0,0,0,-1,1168,1520,0,0
-49,-496,0,0,0,0,0,0,0,0,0,-1,1175,1520,0,0
-42,-496,0,0,0,0,0,0,0,0,0,-1,1182,1520,0,0
-35,-496,0,0,0,0,0,0,0,0,0,-1,1189,1520,0,0
-28,-496,0,0,0,0,0,0,0,0,0,-1,1196,1520,0,0
-21,-496,0,0,0,0,0,0,0,0,0,-1,1203,1520,0,0
-14,-496,0,0,0,0,0,0,0,0,0,-1,1210,1520,0,0
-7,-496,0,0,0,0,0,0,0,0,0,-1,1217,1520,0,0
0,-496,0,0,0,0,0,0,0,0,0,-1,1224,1520,0,0
7,-496,0,0,0,0,0,0,0,0,0,-1,1231,1520,0,0
14,-496,0,0,0,0,0,0,0,0,0,-1,1238,1520,0,0
21,-496,0,0,0,0,0,0,0,0,0,-1,1245,1520,0,0
28,-496,0,0,0,0,0,0,0,0,0,-1,1252,1520,0,0
35,-496,0,0,0,0,0,0,0,0,0,-1,1259,1520,0,0
42,-496,0,0,0,0,0,0,0,0,0,-1,1266,1520,0,0
49,-496,0,0,0,0,0,0,0,0,0,-1,1273,1520,0,0
56,-496,0,0,0,0,0,0,0,0,0,-1,1280,1520,0,0
63,-496,0,0,0,0,0,0,0,0,0,-1,1287,1520,0,0
70,-496,0,0,0,0,0,0,0,0,0,-1,1294,1520,0,0
77,-496,0,0,0,0,0,0,0,0,0,-1,1301,1520,0,0
84,-496,0,0,0,0,0,0,0,0,0,-1,1308,1520,0,0
91,-496,0,0,0,0,0,0,0,0,0,-1,1315,1520,0,0
98,-496,0,0,0,0,0,0,0,0,0,-1,1322,1520,0,0
105,-496,0,0,0,0,0,0,0,0,0,-1,1329,1520,0,0
112,-496,0,0,0,0,0,0,0,0,0,-1,1336,1520,0,0
119,-496,0,0,0,0,0,0,0,0,0,-1,1343,1520,0,0
126,-496,0,0,0,0,0,0,0,0,0,-1,1350,1520,0,0
133,-496,0,0,0,0,0,0,0,0,0,-1,1357,1520,0,0
140,-496,0,0,0,0,0,0,0,0,0,-1,1364,1520,0,0
147,-496,0,0,0,0,0,0,0,0,0,-1,1371,1520,0,0
154,-496,0,0,0,0,0,0,0,0,0,-1,1378,1520,0,0
161,-496,0,0,0,0,0,0,0,0,0,-1,1385,1520,0,0
168,-496,0,0,0,0,0,0,0,0,0,-1,1392,1520,0,0
175,-496,0,0,0,0,0,0,0,0,0,-1,1399,1520,0,0
182,-496,0,0,0,0,0,0,0,0,0,-1,1406,1520,0,0
189,-496,0,0,0,0,0,0,0,0,0,-1,1413,1520,0,0
196,-496,0,0,0,0,0,0,0,0,0,-1,1420,1520,0,0
203,-496,0,0,0,0,0,0,0,0,0,-1,1427,1520,0,0
210,-496,0,0,0,0,0,0,0,0,0,-1,1434,1520,0,0
217,-496,0,0,0,0,0,0,0,0,0,-1,1441,1520,0,0
224,-496,0,0,0,0,0,0,0,0,0,-1,1448,1520,0,0
231,-496,0,0,0,0,0,0,0,0,0,-1,1455,1520,0,0
238,-496,0,0,0,0,0,0,0,0,0,-1,1462,1520,0,0
245,-496,0,0,0,0,0,0,0,0,0,-1,1469,1520,0,0
252,-496,0,0,0,0,0,0,0,0,0,-1,1476,1520,0,0
259,-496,0,0,0,0,0,0,0,0,0,-1,1483,1520,0,0
266,-496,0,0,0,0,0,0,0,0,0,-1,1490,1520,0,0
273,-496,0,0,0,0,0,0,0,0,0,-1,1497,1520,0,0
280,-496,0,0,0,0,0,0,0,0,0,-1,1504,1520,0,0
287,-496,0,0,0,0,0,0,0,0,0,-1,1511,1520,0,0
294,-496,0,0,0,0,0,0,0,0,0,-1,1518,1520,0,0
301,-496,0,0,0,0,0,0,0,0,0,-1,1525,1520,0,0
308,-496,0,0,0,0,0,0,0,0,0,-1,1532,1520,0,0
315,-496,0,0,0,0,0,0,0,0,0,-1,1539,1520,0,0
322,-496,0,0,0,0,0,0,0,0,0,-1,1546,1520,0,0
329,-496,0,0,0,0,0,0,0,0,0,-1,1553,1520,0,0
336,-496,0,0,0,0,0,0,0,0,0,-1,1560,1520,0,0
343,-496,0,0,0,0,0,0,0,0,0,-1,1567,1520,0,0
350,-496,0,0,0,0,0,0,0,0,0,-1,1574,1520,0,0
357,-496,0,0,0,0,0,0,0,0,0,-1,1581,1520,0,0
364,-496,0,0,0,0,0,0,0,0,0,-1,1588,1520,0,0
371,-496,0,0,0,0,0,0,0,0,0,-1,1595,1520,0,0
378,-496,0,0,0,0,0,0,0,0,0,-1,1602,1520,0,0
385,-496,0,0,0,0,0,0,0,0,0,-1,1609,1520,0,0
392,-496,0,0,0,0,0,0,0,0,0,-1,1616,1520,0,0
399,-496,0,0,0,0,0,0,0,0,0,-1,1623,1520,0,0
406,-496,0,0,0,0,0,0,0,0,0,-1,1630,1520,0,0
413,-496,0,0,0,0,0,0,0,0,0,-1,1637,1520,0,0
420,-496,0,0,0,0,0,0,0,0,0,-1,1644,1520,0,0
427,-496,0,0,0,0,0,0,0,0,0,-1,1651,1520,0,0
434,-496,11.0457,3.37732,0,0,0,0,0,0,0,-1,1658,1520,11.0456,-3.37736
441,-496,11.788,2.75488,0,0,0,0,0,0,0,-1,1665,1520,11.7879,-2.75485
448,-496,12.2146,2.18494,0,0,0,0,0,0,0,-1,1672,1520,12.2146,-2.18489
455,-496,12.3489,1.65173,0,0,0,0,0,0,0,-1,1679,1520,12.3489,-1.65178
462,-496,12.1912,1.32361,0,0,0,0,0,0,0,-1,1686,1520,12.1911,-1.32357
469,-496,14.8138,5.77954,0,0,0,0,0,0,0,-1,1693,1520,14.8138,-5.77958
476,-496,15.2449,6.27942,0,0,0,0,0,0,0,-1,1700,1520,15.2449,-6.27936
483,-496,9.19812,6.88367,0,0,0,0,0,0,0,-1,1707,1520,9.19812,-6.88361
490,-496,10.2123,7.97144,0,0,0,0,0,0,0,-1,1714,1520,10.2122,-7.97145
497,-496,13.9297,12.2981,0,0,0,0,0,0,0,-1,1721,1520,13.9297,-12.2982
504,-496,16.3271,16.6501,0,0,0,0,0,0,0,-1,1728,1520,16.3272,-16.6502
511,-496,17.6753,18.0685,0,0,0,0,0,0,0,-1,1735,1520,17.6753,-18.0685
518,-496,17.0537,17.3118,0,0,0,0,0,0,0,-1,1742,1520,17.0538,-17.3118
525,-496,16.4733,18.4662,0,0,0,0,0,0,0,-1,1749,1520,16.4733,-18.4662
532,-496,17.8066,19.8171,0,0,0,0,0,0,0,-1,1756,1520,17.8066,-19.8172
539,-496,18.0007,19.1384,0.00187443,-0.000149792,-0.000272004,0.00191034,-0.000185705,-0.131273,0.00133976,0.0258565,1763,1520,18.0008,-19.1385
546,-496,17.9326,18.6534,0.00140972,-0.000161477,-1.96853e-05,0.00140997,-0.000161724,-0.0125262,0.000998262,0.0137709,1770,1520,17.9326,-18.6534
553,-496,18.0023,18.1709,0.00119359,-6.15992e-05,2.46877e-05,0.00119408,-6.20846e-05,0.0196583,0.000817534,0.0159823,1777,1520,18.0024,-18.1709
560,-496,17.995,17.769,0.00115957,9.2227e-05,-4.70822e-05,0.00116164,9.01542e-05,-0.0439978,0.000746193,0.0145818,1784,1520,17.9949,-17.769
567,-496,17.9738,17.3435,0.00132379,0.00019257,-0.000229195,0.00136846,0.000147897,-0.192499,0.000867221,0.0118996,1791,1520,17.9737,-17.3435
574,-496,17.9561,16.9347,0.00185865,0.000370417,-0.000736463,0.00216148,6.75927e-05,-0.390114,0.00141899,0.0126421,1798,1520,17.956,-16.9347
581,-496,17.941,16.5187,0.00241873,0.000339038,-0.00119579,0.00296355,-0.000205788,-0.427519,0.00204775,0.013147,1805,1520,17.9411,-16.5187
588,-496,17.9429,16.0895,0.00328735,0.000395329,-0.00183468,0.00417736,-0.000494684,-0.451661,0.0029636,0.0160292,1812,1520,17.9429,-16.0894
595,-496,17.9227,15.6796,0.00447525,0.000300766,-0.00257283,0.00570102,-0.000925001,-0.444613,0.00414357,0.017777,1819,1520,17.9227,-15.6796
602,-496,17.9261,15.2063,0.00593586,0.000147123,-0.00352464,0.00760224,-0.00151926,-0.441637,0.00564317,0.0185745,1826,1520,17.9261,-15.2063
609,-496,17.931,14.7587,0.00774906,4.60268e-05,-0.00465177,0.00993684,-0.00214176,-0.439616,0.00744193,0.0163566,1833,1520,17.931,-14.7586
616,-496,17.9719,14.2375,0.0100815,-0.000110935,-0.00599473,0.0128534,-0.0028829,-0.433118,0.00967419,0.0301095,1840,1520,17.9719,-14.2375
623,-496,17.8937,13.8632,0.0130674,-0.000334272,-0.00759291,0.0164934,-0.00376031,-0.423864,0.01244,0.0474208,1847,1520,17.8937,-13.8631
630,-496,18.0293,13.4366,0,0,0,0,0,0,0,-1,1854,1520,18.0293,-13.4367
637,-496,14.6411,10.1016,0,0,0,0,0,0,0,-1,1861,1520,14.6411,-10.1016
644,-496,12.4537,10.087,0,0,0,0,0,0,0,-1,1868,1520,12.4537,-10.0871
651,-496,8.18506,5.47803,0,0,0,0,0,0,0,-1,1875,1520,8.18505,-5.47806
658,-496,7.79993,4.02563,0,0,0,0,0,0,0,-1,1882,1520,7.79997,-4.02568
665,-496,5.47583,7.90625,0,0,0,0,0,0,0,-1,1889,1520,5.47581,-7.90628
672,-496,0,0,0,0,0,0,0,0,0,-1,1896,1520,0,0
679,-496,0,0,0,0,0,0,0,0,0,-1,1903,1520,0,0
686,-496,0,0,0,0,0,0,0,0,0,-1,1910,1520,0,0
693,-496,0,0,0,0,0,0,0,0,0,-1,1917,1520,0,0
700,-496,0,0,0,0,0,0,0,0,0,-1,1924,1520,0,0
707,-496,0,0,0,0,0,0,0,0,0,-1,1931,1520,0,0
714,-496,0,0,0,0,0,0,0,0,0,-1,1938,1520,0,0
721,-496,0,0,0,0,0,0,0,0,0,-1,1945,1520,0,0
728,-496,0,0,0,0,0,0,0,0,0,-1,1952,1520,0,0
735,-496,0,0,0,0,0,0,0,0,0,-1,1959,1520,0,0
742,-496,0,0,0,0,0,0,0,0,0,-1,1966,1520,0,0
749,-496,0,0,0,0,0,0,0,0,0,-1,1973,1520,0,0
756,-496,0,0,0,0,0,0,0,0,0,-1,1980,1520,0,0
763,-496,0,0,0,0,0,0,0,0,0,-1,1987,1520,0,0
770,-496,0,0,0,0,0,0,0,0,0,-1,1994,1520,0,0
777,-496,0,0,0,0,0,0,0,0,0,-1,2001,1520,0,0
784,-496,0,0,0,0,0,0,0,0,0,-1,2008,1520,0,0
791,-496,0,0,0,0,0,0,0,0,0,-1,2015,1520,0,0
798,-496,0,0,0,0,0,0,0,0,0,-1,2022,1520,0,0
805,-496,0,0,0,0,0,0,0,0,0,-1,2029,1520,0,0
812,-496,0,0,0,0,0,0,0,0,0,-1,2036,1520,0,0
-700,-503,0,0,0,0,0,0,0,0,0,-1,524,1527,0,0
-693,-503,0,0,0,0,0,0,0,0,0,-1,531,1527,0,0
-686,-503,0,0,0,0,0,0,0,0,0,-1,538,1527,0,0
-679,-503,0,0,0,0,0,0,0,0,0,-1,545,1527,0,0
-672,-503,0,0,0,0,0,0,0,0,0,-1,552,1527,0,0
-665,-503,0,0,0,0,0,0,0,0,0,-1,559,1527,0,0
-658,-503,0,0,0,0,0,0,0,0,0,-1,566,1527,0,0
-651,-503,0,0,0,0,0,0,0,0,0,-1,573,1527,0,0
-644,-503,0,0,0,0,0,0,0,0,0,-1,580,1527,0,0
-637,-503,0,0,0,0,0,0,0,0,0,-1,587,1527,0,0
-630,-503,0,0,0,0,0,0,0,0,0,-1,594,1527,0,0
-623,-503,0,0,0,0,0,0,0,0,0,-1,601,1527,0,0
-616,-503,0,0,0,0,0,0,0,0,0,-1,608,1527,0,0
-609,-503,0,0,0,0,0,0,0,0,0,-1,615,1527,0,0
-602,-503,0,0,0,0,0,0,0,0,0,-1,622,1527,0,0
-595,-503,0,0,0,0,0,0,0,0,0,-1,629,1527,0,0
-588,-503,0,0,0,0,0,0,0,0,0,-1,636,1527,0,0
-581,-503,0,0,0,0,0,0,0,0,0,-1,643,1527,0,0
-574,-503,0,0,0,0,0,0,0,0,0,-1,650,1527,0,0
-567,-503,0,0,0,0,0,0,0,0,0,-1,657,1527,0,0
-560,-503,0,0,0,0,0,0,0,0,0,-1,664,1527,0,0
-553,-503,0,0,0,0,0,0,0,0,0,-1,671,1527,0,0
-546,-503,0,0,0,0,0,0,0,0,0,-1,678,1527,0,0
-539,-503,3.50177,4.26428,0,0,0,0,0,0,0,-1,685,1527,3.50177,-4.26424
-532,-503,-3.13196,1.05298,0,0,0,0,0,0,0,-1,692,1527,-3.13194,-1.05299
-525,-503,-2.94293,2.59314,0,0,0,0,0,0,0,-1,699,1527,-2.94296,-2.59314
-518,-503,-2.7395,4.05872,0,0,0,0,0,0,0,-1,706,1527,-2.73948,-4.05871
-511,-503,-1.60022,7.23877,0,0,0,0,0,0,0,-1,713,1527,-1.60023,-7.23872
-504,-503,-5.30939,8.98352,0,0,0,0,0,0,0,-1,720,1527,-5.30937,-8.98357
-497,-503,-3.99963,11.7897,0,0,0,0,0,0,0,-1,727,1527,-3.99963,-11.7897
-490,-503,-3.28699,12.6902,0,0,0,0,0,0,0,-1,734,1527,-3.28698,-12.6901
-483,-503,-3.27075,13.002,-0.000775803,-0.00601748,-0.00417187,0.00153015,-0.00832344,-0.504943,0.00612307,0.0473746,741,1527,-3.27074,-13.002
-476,-503,-3.34064,13.2767,-0.00140514,-0.00451108,-0.00338748,0.00076839,-0.0066846,-0.570471,0.00473337,0.0238982,748,1527,-3.34061,-13.2768
-469,-503,-3.41284,13.6571,-0.00146226,-0.00296085,-0.00242046,0.000322231,-0.00474535,-0.635293,0.00327626,0.0108044,755,1527,-3.41282,-13.6571
-462,-503,-3.42291,14.1318,-0.00108858,-0.00192172,-0.00148147,3.37772e-05,-0.00304407,-0.648345,0.00204073,0.0109082,762,1527,-3.42293,-14.1319
-455,-503,-3.41541,14.6154,-0.000493664,-0.00112753,-0.000616443,-0.000117452,-0.00150374,-0.547955,0.000965725,0.0166346,769,1527,-3.4154,-14.6154
-448,-503,-3.41223,15.1068,0.00012627,-0.000649021,4.24524e-05,0.000128588,-0.000651339,0.0545394,0.00048283,0.0161992,776,1527,-3.41222,-15.1068
-441,-503,-3.40363,15.5497,0.00111324,-4.98343e-05,0.000933647,0.00163165,-0.000568244,0.506867,0.00131865,0.0128124,783,1527,-3.40364,-15.5497
-434,-503,-3.43982,15.9813,0.00228112,0.000512411,0.00183585,0.00343452,-0.000640985,0.560942,0.00253055,0.0106079,790,1527,-3.43982,-15.9813
-427,-503,-3.4931,16.4125,0.00348146,0.00114095,0.00276087,0.00530985,-0.000687446,0.584942,0.00378989,0.0163734,797,1527,-3.49313,-16.4125
-420,-503,-3.48846,16.8577,0.00481221,0.00169329,0.00366496,0.0072357,-0.000730197,0.584249,0.00508471,0.0178873,804,1527,-3.48845,-16.8577
-413,-503,-3.49249,17.3341,0.00621366,0.00250381,0.00475612,0.00946378,-0.000746306,0.599467,0.00657209,0.0153425,811,1527,-3.4925,-17.3341
-406,-503,-3.47937,17.8164,0.007661,0.00378958,0.00616312,0.0121852,-0.000734667,0.633236,0.00837912,0.0224886,818,1527,-3.47935,-17.8164
-399,-503,-3.34338,18.4647,0.00902126,0.00613816,0.00780435,0.0155161,-0.000356656,0.694072,0.010465,0.0373189,825,1527,-3.34336,-18.4647
-392,-503,-3.06207,19.3026,0,0,0,0,0,0,0,-1,832,1527,-3.06205,-19.3027
-385,-503,-2.00403,14.1218,0,0,0,0,0,0,0,-1,839,1527,-2.00403,-14.1218
-378,-503,-2.07043,13.8632,0,0,0,0,0,0,0,-1,846,1527,-2.07043,-13.8631
-371,-503,-1.67285,13.8081,0,0,0,0,0,0,0,-1,853,1527,-1.67285,-13.8081
-364,-503,0.181396,12.3768,0,0,0,0,0,0,0,-1,860,1527,0.18138,-12.3768
-357,-503,0.558533,9.25452,0,0,0,0,0,0,0,-1,867,1527,0.558542,-9.25446
-350,-503,0.219971,6.84827,0,0,0,0,0,0,0,-1,874,1527,0.21996,-6.84831
-343,-503,-3.5802,4.43274,0,0,0,0,0,0,0,-1,881,1527,-3.58018,-4.43276
-336,-503,-3.2384,6.40637,0,0,0,0,0,0,0,-1,888,1527,-3.2384,-6.40643
-329,-503,-1.70691,11.886,0,0,0,0,0,0,0,-1,895,1527,-1.70689,-11.886
-322,-503,-3.31317,8.81519,0,0,0,0,0,0,0,-1,902,1527,-3.31315,-8.81524
-315,-503,-3.90265,7.73853,0,0,0,0,0,0,0,-1,909,1527,-3.90264,-7.73854
-308,-503,-1.70264,7.35413,0,0,0,0,0,0,0,-1,916,1527,-1.70262,-7.35416
-301,-503,0,0,0,0,0,0,0,0,0,-1,923,1527,0,0
-294,-503,0,0,0,0,0,0,0,0,0,-1,930,1527,0,0
-287,-503,0,0,0,0,0,0,0,0,0,-1,937,1527,0,0
-280,-503,0,0,0,0,0,0,0,0,0,-1,944,1527,0,0
-273,-503,0,0,0,0,0,0,0,0,0,-1,951,1527,0,0
-266,-503,0,0,0,0,0,0,0,0,0,-1,958,1527,0,0
-259,-503,0,0,0,0,0,0,0,0,0,-1,965,1527,0,0
-252,-503,0,0,0,0,0,0,0,0,0,-1,972,1527,0,0
-245,-503,0,0,0,0,0,0,0,0,0,-1,979,1527,0,0
-238,-503,0,0,0,0,0,0,0,0,0,-1,986,1527,0,0
-231,-503,0,0,0,0,0,0,0,0,0,-1,993,1527,0,0
-224,-503,0,0,0,0,0,0,0,0,0,-1,1000,1527,0,0
-217,-503,0,0,0,0,0,0,0,0,0,-1,1007,1527,0,0
-210,-503,0,0,0,0,0,0,0,0,0,-1,1014,1527,0,0
-203,-503,0,0,0,0,0,0,0,0,0,-1,1021,1527,0,0
-196,-503,0,0,0,0,0,0,0,0,0,-1,1028,1527,0,0
-189,-503,0,0,0,0,0,0,0,0,0,-1,1035,1527,0,0
-182,-503,0,0,0,0,0,0,0,0,0,-1,1042,1527,0,0
-175,-503,0,0,0,0,0,0,0,0,0,-1,1049,1527,0,0
-168,-503,0,0,0,0,0,0,0,0,0,-1,1056,1527,0,0
-161,-503,0,0,0,0,0,0,0,0,0,-1,1063,1527,0,0
-154,-503,0,0,0,0,0,0,0,0,0,-1,1070,1527,0,0
-147,-503,0,0,0,0,0,0,0,0,0,-1,1077,1527,0,0
-140,-503,0,0,0,0,0,0,0,0,0,-1,1084,1527,0,0
-133,-503,0,0,0,0,0,0,0,0,0,-1,1091,1527,0,0
-126,-503,0,0,0,0,0,0,0,0,0,-1,1098,1527,0,0
-119,-503,0,0,0,0,0,0,0,0,0,-1,1105,1527,0,0
-112,-503,0,0,0,0,0,0,0,0,0,-1,1112,1527,0,0
-105,-503,0,0,0,0,0,0,0,0,0,-1,1119,1527,0,0
-98,-503,0,0,0,0,0,0,0,0,0,-1,1126,1527,0,0
-91,-503,0,0,0,0,0,0,0,0,0,-1,1133,1527,0,0
-84,-503,0,0,0,0,0,0,0,0,0,-1,1140,1527,0,0
-77,-503,0,0,0,0,0,0,0,0,0,-1,1147,1527,0,0
-70,-503,0,0,0,0,0,0,0,0,0,-1,1154,1527,0,0
-63,-503,0,0,0,0,0,0,0,0,0,-1,1161,1527,0,0
-56,-503,0,0,0,0,0,0,0,0,0,-1,1168,1527,0,0
-49,-503,0,0,0,0,0,0,0,0,0,-1,1175,1527,0,0
-42,-503,0,0,0,0,0,0,0,0,0,-1,1182,1527,0,0
-35,-503,0,0,0,0,0,0,0,0,0,-1,1189,1527,0,0
-28,-503,0,0,0,0,0,0,0,0,0,-1,1196,1527,0,0
-21,-503,0,0,0,0,0,0,0,0,0,-1,1203,1527,0,0
-14,-503,0,0,0,0,0,0,0,0,0,-1,1210,1527,0,0
-7,-503,0,0,0,0,0,0,0,0,0,-1,1217,1527,0,0
0,-503,0,0,0,0,0,0,0,0,0,-1,1224,1527,0,0
7,-503,0,0,0,0,0,0,0,0,0,-1,1231,1527,0,0
14,-503,0,0,0,0,0,0,0,0,0,-1,1238,1527,0,0
21,-503,0,0,0,0,0,0,0,0,0,-1,1245,1527,0,0
28,-503,0,0,0,0,0,0,0,0,0,-1,1252,1527,0,0
35,-503,0,0,0,0,0,0,0,0,0,-1,1259,1527,0,0
42,-503,0,0,0,0,0,0,0,0,0,-1,1266,1527,0,0
49,-503,0,0,0,0,0,0,0,0,0,-1,1273,1527,0,0
56,-503,0,0,0,0,0,0,0,0,0,-1,1280,1527,0,0
63,-503,0,0,0,0,0,0,0,0,0,-1,1287,1527,0,0
70,-503,0,0,0,0,0,0,0,0,0,-1,1294,1527,0,0
77,-503,0,0,0,0,0,0,0,0,0,-1,1301,1527,0,0
84,-503,0,0,0,0,0,0,0,0,0,-1,1308,1527,0,0
91,-503,0,0,0,0,0,0,0,0,0,-1,1315,1527,0,0
98,-503,0,0,0,0,0,0,0,0,0,-1,1322,1527,0,0
105,-503,0,0,0,0,0,0,0,0,0,-1,1329,1527,0,0
112,-503,0,0,0,0,0,0,0,0,0,-1,1336,1527,0,0
119,-503,0,0,0,0,0,0,0,0,0,-1,1343,1527,0,0
126,-503,0,0,0,0,0,0,0,0,0,-1,1350,1527,0,0
133,-503,0,0,0,0,0,0,0,0,0,-1,1357,1527,0,0
140,-503,0,0,0,0,0,0,0,0,0,-1,1364,1527,0,0
147,-503,0,0,0,0,0,0,0,0,0,-1,1371,1527,0,0
154,-503,0,0,0,0,0,0,0,0,0,-1,1378,1527,0,0
161,-503,0,0,0,0,0,0,0,0,0,-1,1385,1527,0,0
168,-503,0,0,0,0,0,0,0,0,0,-1,1392,1527,0,0
175,-503,0,0,0,0,0,0,0,0,0,-1,1399,1527,0,0
182,-503,0,0,0,0,0,0,0,0,0,-1,1406,1527,0,0
189,-503,0,0,0,0,0,0,0,0,0,-1,1413,1527,0,0
196,-503,0,0,0,0,0,0,0,0,0,-1,1420,1527,0,0
203,-503,0,0,0,0,0,0,0,0,0,-1,1427,1527,0,0
210,-503,0,0,0,0,0,0,0,0,0,-1,1434,1527,0,0
217,-503,0,0,0,0,0,0,0,0,0,-1,1441,1527,0,0
224,-503,0,0,0,0,0,0,0,0,0,-1,1448,1527,0,0
231,-503,0,0,0,0,0,0,0,0,0,-1,1455,1527,0,0
238,-503,0,0,0,0,0,0,0,0,0,-1,1462,1527,0,0
245,-503,0,0,0,0,0,0,0,0,0,-1,1469,1527,0,0
252,-503,0,0,0,0,0,0,0,0,0,-1,1476,1527,0,0
259,-503,0,0,0,0,0,0,0,0,0,-1,1483,1527,0,0
266,-503,0,0,0,0,0,0,0,0,0,-1,1490,1527,0,0
273,-503,0,0,0,0,0,0,0,0,0,-1,1497,1527,0,0
280,-503,0,0,0,0,0,0,0,0,0,-1,1504,1527,0,0
287,-503,0,0,0,0,0,0,0,0,0,-1,1511,1527,0,0
294,-503,0,0,0,0,0,0,0,0,0,-1,1518,1527,0,0
301,-503,0,0,0,0,0,0,0,0,0,-1,1525,1527,0,0
308,-503,0,0,0,0,0,0,0,0,0,-1,1532,1527,0,0
315,-503,0,0,0,0,0,0,0,0,0,-1,1539,1527,0,0
322,-503,0,0,0,0,0,0,0,0,0,-1,1546,1527,0,0
329,-503,0,0,0,0,0,0,0,0,0,-1,1553,1527,0,0
336,-503,0,0,0,0,0,0,0,0,0,-1,1560,1527,0,0
343,-503,0,0,0,0,0,0,0,0,0,-1,1567,1527,0,0
350,-503,0,0,0,0,0,0,0,0,0,-1,1574,1527,0,0
357,-503,0,0,0,0,0,0,0,0,0,-1,1581,1527,0,0
364,-503,0,0,0,0,0,0,0,0,0,-1,1588,1527,0,0
371,-503,0,0,0,0,0,0,0,0,0,-1,1595,1527,0,0
378,-503,0,0,0,0,0,0,0,0,0,-1,1602,1527,0,0
385,-503,0,0,0,0,0,0,0,0,0,-1,1609,1527,0,0
392,-503,0,0,0,0,0,0,0,0,0,-1,1616,1527,0,0
399,-503,0,0,0,0,0,0,0,0,0,-1,1623,1527,0,0
406,-503,0,0,0,0,0,0,0,0,0,-1,1630,1527,0,0
413,-503,0,0,0,0,0,0,0,0,0,-1,1637,1527,0,0
420,-503,0,0,0,0,0,0,0,0,0,-1,1644,1527,0,0
427,-503,10.5968,4.9856,0,0,0,0,0,0,0,-1,1651,1527,10.5969,-4.98563
434,-503,11.4329,3.97217,0,0,0,0,0,0,0,-1,1658,1527,11.4328,-3.97222
441,-503,12.0957,2.96509,0,0,0,0,0,0,0,-1,1665,1527,12.0957,-2.96512
448,-503,12.3259,2.53894,0,0,0,0,0,0,0,-1,1672,1527,12.326,-2.53895
455,-503,12.1669,2.18762,0,0,0,0,0,0,0,-1,1679,1527,12.1668,-2.18767
462,-503,11.59,2.60791,0,0,0,0,0,0,0,-1,1686,1527,11.5899,-2.60794
469,-503,11.1625,1.61853,0,0,0,0,0,0,0,-1,1693,1527,11.1625,-1.61856
476,-503,9.07703,5.81042,0,0,0,0,0,0,0,-1,1700,1527,9.07699,-5.81047
483,-503,9.74414,6.92432,0,0,0,0,0,0,0,-1,1707,1527,9.74417,-6.9243
490,-503,10.5033,10.1071,0,0,0,0,0,0,0,-1,1714,1527,10.5032,-10.107
497,-503,15.0057,17.9476,0,0,0,0,0,0,0,-1,1721,1527,15.0058,-17.9476
504,-503,16.4764,18.4486,0,0,0,0,0,0,0,-1,1728,1527,16.4764,-18.4486
511,-503,16.8276,18.3271,0,0,0,0,0,0,0,-1,1735,1527,16.8276,-18.3272
518,-503,17.2533,18.2738,0,0,0,0,0,0,0,-1,1742,1527,17.2533,-18.2738
525,-503,17.2631,20.0986,0,0,0,0,0,0,0,-1,1749,1527,17.2631,-20.0987
532,-503,17.5397,19.5255,0,0,0,0,0,0,0,-1,1756,1527,17.5397,-19.5255
539,-503,17.5244,19.0857,0.00212171,0.000942718,-0.000794567,0.00252158,0.000542849,-0.466247,0.00153249,0.0174765,1763,1527,17.5244,-19.0857
546,-503,17.5375,18.6058,0.00163698,0.000630733,-0.000464329,0.0018185,0.000449214,-0.37266,0.00109379,0.0133969,1770,1527,17.5375,-18.6058
553,-503,17.5607,18.1989,0.00137451,0.000444937,-0.000313649,0.00147044,0.000349007,-0.296814,0.000887144,0.014915,1777,1527,17.5607,-18.1988
560,-503,17.5444,17.7775,0.00130096,0.000381286,-0.000293314,0.00138654,0.000295703,-0.283898,0.000843259,0.0140476,1784,1527,17.5444,-17.7775
567,-503,17.5319,17.3464,0.00151229,0.000267379,-0.000404093,0.00163195,0.000147714,-0.287904,0.00104222,0.0124555,1791,1527,17.5319,-17.3464
574,-503,17.5298,16.9397,0.00222286,0.000389595,-0.00100254,0.00266465,-5.21911e-05,-0.415065,0.00179408,0.0125687,1798,1527,17.5298,-16.9397
581,-503,17.5101,16.5317,0.00295535,0.000338996,-0.00154055,0.00366822,-0.000373871,-0.433394,0.00257915,0.0132852,1805,1527,17.5101,-16.5318
588,-503,17.5031,16.1036,0.00406037,0.000406307,-0.00232292,0.00518867,-0.000721995,-0.452163,0.00372319,0.0169461,1812,1527,17.5031,-16.1036
595,-503,17.5016,15.6639,0.00555693,0.000292893,-0.0032637,0.00711767,-0.00126785,-0.446067,0.00521932,0.0133546,1819,1527,17.5016,-15.6639
602,-503,17.5593,15.2019,0.00748468,0.000210849,-0.0045545,0.0096762,-0.00198067,-0.448476,0.00720238,0.0242013,1826,1527,17.5594,-15.2019
609,-503,17.6025,14.7509,0.00991518,0.000230238,-0.00613034,0.0128849,-0.0027395,-0.451116,0.00963383,0.0490544,1833,1527,17.6025,-14.7508
616,-503,17.3949,14.5791,0.0131369,0.00022314,-0.00811976,0.0170541,-0.00369408,-0.449493,0.01278,0.0428046,1840,1527,17.3948,-14.5791
623,-503,18.087,13.6936,0.0173109,0.000123034,-0.0105618,0.0223335,-0.00489949,-0.443885,0.0167625,0.0463915,1847,1527,18.087,-13.6936
630,-503,19.0192,12.8513,0,0,0,0,0,0,0,-1,1854,1527,19.0191,-12.8513
637,-503,14.5564,9.20496,0,0,0,0,0,0,0,-1,1861,1527,14.5564,-9.2049
644,-503,11.4802,7.57214,0,0,0,0,0,0,0,-1,1868,1527,11.4802,-7.57215
651,-503,11.5718,6.5448,0,0,0,0,0,0,0,-1,1875,1527,11.5718,-6.54476
658,-503,8.25635,3.10498,0,0,0,0,0,0,0,-1,1882,1527,8.2563,-3.10493
665,-503,0,0,0,0,0,0,0,0,0,-1,1889,1527,0,0
672,-503,0,0,0,0,0,0,0,0,0,-1,1896,1527,0,0
679,-503,0,0,0,0,0,0,0,0,0,-1,1903,1527,0,0
686,-503,0,0,0,0,0,0,0,0,0,-1,1910,1527,0,0
693,-503,0,0,0,0,0,0,0,0,0,-1,1917,1527,0,0
700,-503,0,0,0,0,0,0,0,0,0,-1,1924,1527,0,0
707,-503,0,0,0,0,0,0,0,0,0,-1,1931,1527,0,0
714,-503,0,0,0,0,0,0,0,0,0,-1,1938,1527,0,0
721,-503,0,0,0,0,0,0,0,0,0,-1,1945,1527,0,0
728,-503,0,0,0,0,0,0,0,0,0,-1,1952,1527,0,0
735,-503,0,0,0,0,0,0,0,0,0,-1,1959,1527,0,0
742,-503,0,0,0,0,0,0,0,0,0,-1,1966,1527,0,0
749,-503,0,0,0,0,0,0,0,0,0,-1,1973,1527,0,0
756,-503,0,0,0,0,0,0,0,0,0,-1,1980,1527,0,0
763,-503,0,0,0,0,0,0,0,0,0,-1,1987,1527,0,0
770,-503,0,0,0,0,0,0,0,0,0,-1,1994,1527,0,0
777,-503,0,0,0,0,0,0,0,0,0,-1,2001,1527,0,0
784,-503,0,0,0,0,0,0,0,0,0,-1,2008,1527,0,0
791,-503,0,0,0,0,0,0,0,0,0,-1,2015,1527,0,0
798,-503,0,0,0,0,0,0,0,0,0,-1,2022,1527,0,0
805,-503,0,0,0,0,0,0,0,0,0,-1,2029,1527,0,0
812,-503,0,0,0,0,0,0,0,0,0,-1,2036,1527,0,0
-700,-510,0,0,0,0,0,0,0,0,0,-1,524,1534,0,0
-693,-510,0,0,0,0,0,0,0,0,0,-1,531,1534,0,0
-686,-510,0,0,0,0,0,0,0,0,0,-1,538,1534,0,0
-679,-510,0,0,0,0,0,0,0,0,0,-1,545,1534,0,0
-672,-510,0,0,0,0,0,0,0,0,0,-1,552,1534,0,0
-665,-510,0,0,0,0,0,0,0,0,0,-1,559,1534,0,0
-658,-510,0,0,0,0,0,0,0,0,0,-1,566,1534,0,0
-651,-510,0,0,0,0,0,0,0,0,0,-1,573,1534,0,0
-644,-510,0,0,0,0,0,0,0,0,0,-1,580,1534,0,0
-637,-510,0,0,0,0,0,0,0,0,0,-1,587,1534,0,0
-630,-510,0,0,0,0,0,0,0,0,0,-1,594,1534,0,0
-623,-510,0,0,0,0,0,0,0,0,0,-1,601,1534,0,0
-616,-510,0,0,0,0,0,0,0,0,0,-1,608,1534,0,0
-609,-510,0,0,0,0,0,0,0,0,0,-1,615,1534,0,0
-602,-510,0,0,0,0,0,0,0,0,0,-1,622,1534,0,0
-595,-510,0,0,0,0,0,0,0,0,0,-1,629,1534,0,0
-588,-510,0,0,0,0,0,0,0,0,0,-1,636,1534,0,0
-581,-510,0,0,0,0,0,0,0,0,0,-1,643,1534,0,0
-574,-510,0,0,0,0,0,0,0,0,0,-1,650,1534,0,0
-567,-510,0,0,0,0,0,0,0,0,0,-1,657,1534,0,0
-560,-510,0,0,0,0,0,0,0,0,0,-1,664,1534,0,0
-553,-510,0,0,0,0,0,0,0,0,0,-1,671,1534,0,0
-546,-510,0,0,0,0,0,0,0,0,0,-1,678,1534,0,0
-539,-510,0,0,0,0,0,0,0,0,0,-1,685,1534,0,0
-532,-510,-3.95129,4.52014,0,0,0,0,0,0,0,-1,692,1534,-3.95131,-4.5202
-525,-510,-2.77411,0.316772,0,0,0,0,0,0,0,-1,699,1534,-2.77409,-0.3168
-518,-510,-2.86847,2.71423,0,0,0,0,0,0,0,-1,706,1534,-2.86849,-2.71424
-511,-510,-2.28571,4.48083,0,0,0,0,0,0,0,-1,713,1534,-2.28571,-4.48086
-504,-510,-0.715698,8.77649,0,0,0,0,0,0,0,-1,720,1534,-0.715696,-8.77643
-497,-510,-2.82635,11.4733,0,0,0,0,0,0,0,-1,727,1534,-2.82633,-11.4733
-490,-510,-2.81238,13.1355,0,0,0,0,0,0,0,-1,734,1534,-2.81238,-13.1355
-483,-510,-2.69855,13.179,-0.00140579,-0.00680383,-0.0051304,0.00169223,-0.00990186,-0.54325,0.00723162,0.0447856,741,1534,-2.69855,-13.1789
-476,-510,-2.75116,13.2527,-0.00204263,-0.00475048,-0.00392337,0.000753863,-0.00754697,-0.619251,0.0053005,0.0352491,748,1534,-2.75117,-13.2527
-469,-510,-2.93225,13.6844,-0.00213778,-0.00280314,-0.00269397,0.000243969,-0.00518489,-0.723964,0.00354072,0.0140557,755,1534,-2.93225,-13.6845
-462,-510,-2.95154,14.1422,-0.0017863,-0.00155968,-0.00160341,-6.55887e-05,-0.0032804,-0.820674,0.0021654,0.0112166,762,1534,-2.95151,-14.1422
-455,-510,-2.96375,14.6403,-0.00122835,-0.000651646,-0.000680345,-0.000201069,-0.00167893,-0.985838,0.00105864,0.0138665,769,1534,-2.96373,-14.6402
-448,-510,-2.94757,15.1244,-0.000686401,-0.000168176,-6.60381e-05,-0.000159893,-0.000694684,-1.44602,0.000420094,0.0132536,776,1534,-2.94755,-15.1244
-441,-510,-2.95117,15.5524,0.000181471,0.00039048,0.000711731,0.00100534,-0.000433386,0.858293,0.000852246,0.0131654,783,1534,-2.95116,-15.5524
-434,-510,-3.01062,15.9888,0.00122027,0.000917473,0.00147693,0.00255354,-0.000415801,0.734322,0.00185655,0.0139272,790,1534,-3.01063,-15.9888
-427,-510,-3.06171,16.4125,0.00225417,0.00156568,0.0022997,0.00423525,-0.000415391,0.711104,0.00297166,0.0225889,797,1534,-3.06171,-16.4124
-420,-510,-3.05011,16.8738,0.00345352,0.00211623,0.00307184,0.00592865,-0.000358896,0.678235,0.00407733,0.0226896,804,1534,-3.05008,-16.8738
-413,-510,-3.04968,17.3765,0.00470374,0.00291151,0.00396089,0.00786862,-0.00025337,0.67415,0.00533221,0.0115611,811,1534,-3.04968,-17.3765
-406,-510,-3.06769,17.8167,0.00592904,0.00416065,0.00513916,0.0102595,-0.000169823,0.700207,0.00689698,0.0100115,818,1534,-3.06771,-17.8166
-399,-510,-3.07404,18.255,0.00701411,0.00635718,0.00646122,0.0131552,0.000216083,0.760002,0.008699,0.0135659,825,1534,-3.07402,-18.255
-392,-510,-2.90143,18.9192,0.008233,0.0102216,0.00791598,0.0172055,0.00124912,0.847875,0.0110774,0.0396082,832,1534,-2.90143,-18.9192
-385,-510,-2.76599,19.6206,0,0,0,0,0,0,0,-1,839,1534,-2.76601,-19.6206
-378,-510,-1.78308,13.8044,0,0,0,0,0,0,0,-1,846,1534,-1.78309,-13.8044
-371,-510,-1.74982,13.8027,0,0,0,0,0,0,0,-1,853,1534,-1.74981,-13.8028
-364,-510,-1.3479,13.7771,0,0,0,0,0,0,0,-1,860,1534,-1.34791,-13.7771
-357,-510,-0.254395,8.89575,0,0,0,0,0,0,0,-1,867,1534,-0.254397,-8.89569
-350,-510,0.471191,6.06458,0,0,0,0,0,0,0,-1,874,1534,0.47118,-6.06453
-343,-510,-2.94617,5.00989,0,0,0,0,0,0,0,-1,881,1534,-2.94615,-5.00992
-336,-510,-1.85938,19.839,0,0,0,0,0,0,0,-1,888,1534,-1.85937,-19.839
-329,-510,-4.87781,20.6893,0,0,0,0,0,0,0,-1,895,1534,-4.87782,-20.6894
-322,-510,-0.251526,11.973,0,0,0,0,0,0,0,-1,902,1534,-0.251497,-11.9731
-315,-510,-1.73047,10.9796,0,0,0,0,0,0,0,-1,909,1534,-1.73049,-10.9796
-308,-510,-2.05328,9.72034,0,0,0,0,0,0,0,-1,916,1534,-2.05327,-9.72036
-301,-510,-1.85437,11.5869,0,0,0,0,0,0,0,-1,923,1534,-1.85437,-11.5869
-294,-510,0,0,0,0,0,0,0,0,0,-1,930,1534,0,0
-287,-510,0,0,0,0,0,0,0,0,0,-1,937,1534,0,0
-280,-510,0,0,0,0,0,0,0,0,0,-1,944,1534,0,0
-273,-510,0,0,0,0,0,0,0,0,0,-1,951,1534,0,0
-266,-510,0,0,0,0,0,0,0,0,0,-1,958,1534,0,0
-259,-510,0,0,0,0,0,0,0,0,0,-1,965,1534,0,0
-252,-510,0,0,0,0,0,0,0,0,0,-1,972,1534,0,0
-245,-510,0,0,0,0,0,0,0,0,0,-1,979,1534,0,0
-238,-510,0,0,0,0,0,0,0,0,0,-1,986,1534,0,0
-231,-510,0,0,0,0,0,0,0,0,0,-1,993,1534,0,0
-224,-510,0,0,0,0,0,0,0,0,0,-1,1000,1534,0,0
-217,-510,0,0,0,0,0,0,0,0,0,-1,1007,1534,0,0
-210,-510,0,0,0,0,0,0,0,0,0,-1,1014,1534,0,0
-203,-510,0,0,0,0,0,0,0,0,0,-1,1021,1534,0,0
-196,-510,0,0,0,0,0,0,0,0,0,-1,1028,1534,0,0
-189,-510,0,0,0,0,0,0,0,0,0,-1,1035,1534,0,0
-182,-510,0,0,0,0,0,0,0,0,0,-1,1042,1534,0,0
-175,-510,0,0,0,0,0,0,0,0,0,-1,1049,1534,0,0
-168,-510,0,0,0,0,0,0,0,0,0,-1,1056,1534,0,0
-161,-510,0,0,0,0,0,0,0,0,0,-1,1063,1534,0,0
-154,-510,0,0,0,0,0,0,0,0,0,-1,1070,1534,0,0
-147,-510,0,0,0,0,0,0,0,0,0,-1,1077,1534,0,0
-140,-510,0,0,0,0,0,0,0,0,0,-1,1084,1534,0,0
-133,-510,0,0,0,0,0,0,0,0,0,-1,1091,1534,0,0
-126,-510,0,0,0,0,0,0,0,0,0,-1,1098,1534,0,0
-119,-510,0,0,0,0,0,0,0,0,0,-1,1105,1534,0,0
-112,-510,0,0,0,0,0,0,0,0,0,-1,1112,1534,0,0
-105,-510,0,0,0,0,0,0,0,0,0,-1,1119,1534,0,0
-98,-510,0,0,0,0,0,0,0,0,0,-1,1126,1534,0,0
-91,-510,0,0,0,0,0,0,0,0,0,-1,1133,1534,0,0
-84,-510,0,0,0,0,0,0,0,0,0,-1,1140,1534,0,0
-77,-510,0,0,0,0,0,0,0,0,0,-1,1147,1534,0,0
-70,-510,0,0,0,0,0,0,0,0,0,-1,1154,1534,0,0
-63,-510,0,0,0,0,0,0,0,0,0,-1,1161,1534,0,0
-56,-510,0,0,0,0,0,0,0,0,0,-1,1168,1534,0,0
-49,-510,0,0,0,0,0,0,0,0,0,-1,1175,1534,0,0
-42,-510,0,0,0,0,0,0,0,0,0,-1,1182,1534,0,0
-35,-510,0,0,0,0,0,0,0,0,0,-1,1189,1534,0,0
-28,-510,0,0,0,0,0,0,0,0,0,-1,1196,1534,0,0
-21,-510,0,0,0,0,0,0,0,0,0,-1,1203,1534,0,0
-14,-510,0,0,0,0,0,0,0,0,0,-1,1210,1534,0,0
-7,-510,0,0,0,0,0,0,0,0,0,-1,1217,1534,0,0
0,-510,0,0,0,0,0,0,0,0,0,-1,1224,1534,0,0
7,-510,0,0,0,0,0,0,0,0,0,-1,1231,1534,0,0
14,-510,0,0,0,0,0,0,0,0,0,-1,1238,1534,0,0
21,-510,0,0,0,0,0,0,0,0,0,-1,1245,1534,0,0
28,-510,0,0,0,0,0,0,0,0,0,-1,1252,1534,0,0
35,-510,0,0,0,0,0,0,0,0,0,-1,1259,1534,0,0
42,-510,0,0,0,0,0,0,0,0,0,-1,1266,1534,0,0
49,-510,0,0,0,0,0,0,0,0,0,-1,1273,1534,0,0
56,-510,0,0,0,0,0,0,0,0,0,-1,1280,1534,0,0
63,-510,0,0,0,0,0,0,0,0,0,-1,1287,1534,0,0
70,-510,0,0,0,0,0,0,0,0,0,-1,1294,1534,0,0
77,-510,0,0,0,0,0,0,0,0,0,-1,1301,1534,0,0
84,-510,0,0,0,0,0,0,0,0,0,-1,1308,1534,0,0
91,-510,0,0,0,0,0,0,0,0,0,-1,1315,1534,0,0
98,-510,0,0,0,0,0,0,0,0,0,-1,1322,1534,0,0
105,-510,0,0,0,0,0,0,0,0,0,-1,1329,1534,0,0
112,-510,0,0,0,0,0,0,0,0,0,-1,1336,1534,0,0
119,-510,0,0,0,0,0,0,0,0,0,-1,1343,1534,0,0
126,-510,0,0,0,0,0,0,0,0,0,-1,1350,1534,0,0
133,-510,0,0,0,0,0,0,0,0,0,-1,1357,1534,0,0
140,-510,0,0,0,0,0,0,0,0,0,-1,1364,1534,0,0
147,-510,0,0,0,0,0,0,0,0,0,-1,1371,1534,0,0
154,-510,0,0,0,0,0,0,0,0,0,-1,1378,1534,0,0
161,-510,0,0,0,0,0,0,0,0,0,-1,1385,1534,0,0
168,-510,0,0,0,0,0,0,0,0,0,-1,1392,1534,0,0
175,-510,0,0,0,0,0,0,0,0,0,-1,1399,1534,0,0
182,-510,0,0,0,0,0,0,0,0,0,-1,1406,1534,0,0
189,-510,0,0,0,0,0,0,0,0,0,-1,1413,1534,0,0
196,-510,0,0,0,0,0,0,0,0,0,-1,1420,1534,0,0
203,-510,0,0,0,0,0,0,0,0,0,-1,1427,1534,0,0
210,-510,0,0,0,0,0,0,0,0,0,-1,1434,1534,0,0
217,-510,0,0,0,0,0,0,0,0,0,-1,1441,1534,0,0
224,-510,0,0,0,0,0,0,0,0,0,-1,1448,1534,0,0
231,-510,0,0,0,0,0,0,0,0,0,-1,1455,1534,0,0
238,-510,0,0,0,0,0,0,0,0,0,-1,1462,1534,0,0
245,-510,0,0,0,0,0,0,0,0,0,-1,1469,1534,0,0
252,-510,0,0,0,0,0,0,0,0,0,-1,1476,1534,0,0
259,-510,0,0,0,0,0,0,0,0,0,-1,1483,1534,0,0
266,-510,0,0,0,0,0,0,0,0,0,-1,1490,1534,0,0
273,-510,0,0,0,0,0,0,0,0,0,-1,1497,1534,0,0
280,-510,0,0,0,0,0,0,0,0,0,-1,1504,1534,0,0
287,-510,0,0,0,0,0,0,0,0,0,-1,1511,1534,0,0
294,-510,0,0,0,0,0,0,0,0,0,-1,1518,1534,0,0
301,-510,0,0,0,0,0,0,0,0,0,-1,1525,1534,0,0
308,-510,0,0,0,0,0,0,0,0,0,-1,1532,1534,0,0
315,-510,0,0,0,0,0,0,0,0,0,-1,1539,1534,0,0
322,-510,0,0,0,0,0,0,0,0,0,-1,1546,1534,0,0
329,-510,0,0,0,0,0,0,0,0,0,-1,1553,1534,0,0
336,-510,0,0,0,0,0,0,0,0,0,-1,1560,1534,0,0
343,-510,0,0,0,0,0,0,0,0,0,-1,1567,1534,0,0
350,-510,0,0,0,0,0,0,0,0,0,-1,1574,1534,0,0
357,-510,0,0,0,0,0,0,0,0,0,-1,1581,1534,0,0
364,-510,0,0,0,0,0,0,0,0,0,-1,1588,1534,0,0
371,-510,0,0,0,0,0,0,0,0,0,-1,1595,1534,0,0
378,-510,0,0,0,0,0,0,0,0,0,-1,1602,1534,0,0
385,-510,0,0,0,0,0,0,0,0,0,-1,1609,1534,0,0
392,-510,0,0,0,0,0,0,0,0,0,-1,1616,1534,0,0
399,-510,0,0,0,0,0,0,0,0,0,-1,1623,1534,0,0
406,-510,0,0,0,0,0,0,0,0,0,-1,1630,1534,0,0
413,-510,0,0,0,0,0,0,0,0,0,-1,1637,1534,0,0
420,-510,14.1888,6.71936,0,0,0,0,0,0,0,-1,1644,1534,14.1889,-6.71939
427,-510,10.2134,5.59485,0,0,0,0,0,0,0,-1,1651,1534,10.2134,-5.59485
434,-510,11.8219,4.07898,0,0,0,0,0,0,0,-1,1658,1534,11.8219,-4.07895
441,-510,12.6812,3.02991,0,0,0,0,0,0,0,-1,1665,1534,12.6811,-3.0299
448,-510,13.2379,2.2804,0,0,0,0,0,0,0,-1,1672,1534,13.2379,-2.28037
455,-510,9.76892,2.20642,0,0,0,0,0,0,0,-1,1679,1534,9.76894,-2.20647
462,-510,9.84692,2.49182,0,0,0,0,0,0,0,-1,1686,1534,9.84695,-2.49185
469,-510,16.6072,7.26941,0,0,0,0,0,0,0,-1,1693,1534,16.6072,-7.26945
476,-510,15.9199,7.8645,0,0,0,0,0,0,0,-1,1700,1534,15.9199,-7.86455
483,-510,13.0833,8.10938,0,0,0,0,0,0,0,-1,1707,1534,13.0833,-8.10932
490,-510,13.0841,15.3286,0,0,0,0,0,0,0,-1,1714,1534,13.0841,-15.3286
497,-510,15.5652,18.823,0,0,0,0,0,0,0,-1,1721,1534,15.5652,-18.823
504,-510,15.998,18.7478,0,0,0,0,0,0,0,-1,1728,1534,15.998,-18.7478
511,-510,15.9443,18.0476,0,0,0,0,0,0,0,-1,1735,1534,15.9443,-18.0476
518,-510,17.1467,20.875,0,0,0,0,0,0,0,-1,1742,1534,17.1468,-20.8749
525,-510,17.0294,20.1172,0.00381359,0.00334173,-0.00232383,0.00591344,0.00124188,-0.734808,0.00360045,0.0493758,1749,1534,17.0294,-20.1171
532,-510,17.1263,19.4957,0.00287343,0.0023545,-0.00163993,0.0042743,0.000953634,-0.70694,0.00259083,0.0193662,1756,1534,17.1264,-19.4957
539,-510,17.1694,19.01,0.00224783,0.00156226,-0.00112977,0.00308567,0.000724418,-0.638106,0.00186319,0.0135687,1763,1534,17.1694,-19.01
546,-510,17.1289,18.6343,0.00179866,0.00106595,-0.000753317,0.00226998,0.000594624,-0.559075,0.00135918,0.0128251,1770,1534,17.129,-18.6342
553,-510,17.1383,18.2163,0.00154028,0.000681537,-0.00052488,0.00178904,0.000432781,-0.442575,0.0010778,0.0133033,1777,1534,17.1384,-18.2163
560,-510,17.1233,17.78,0.00147058,0.000462216,-0.00043206,0.00163038,0.000302414,-0.354259,0.00100145,0.0135963,1784,1534,17.1233,-17.7801
567,-510,17.1141,17.3431,0.00174727,0.000189158,-0.000484507,0.00188564,5.07854e-05,-0.278188,0.00124051,0.0135729,1791,1534,17.1141,-17.3431
574,-510,17.097,16.9293,0.00262758,0.00027385,-0.00115847,0.0031021,-0.000200664,-0.388759,0.00213809,0.0141581,1798,1534,17.0971,-16.9293
581,-510,17.0875,16.55,0.0035491,0.000233934,-0.00178044,0.00432411,-0.000541082,-0.410558,0.00307899,0.0117456,1805,1534,17.0875,-16.55
588,-510,17.078,16.1306,0.00489563,0.000320146,-0.00270336,0.00614935,-0.000933572,-0.43424,0.00444357,0.0126245,1812,1534,17.078,-16.1307
595,-510,17.1879,15.5627,0.00670889,0.000212018,-0.00385411,0.00850094,-0.00158003,-0.435234,0.00626078,0.0239959,1819,1534,17.1879,-15.5627
602,-510,17.2554,15.0139,0,0,0,0,0,0,0,-1,1826,1534,17.2554,-15.0139
609,-510,17.2866,14.8556,0,0,0,0,0,0,0,-1,1833,1534,17.2866,-14.8556
616,-510,16.9351,14.7296,0,0,0,0,0,0,0,-1,1840,1534,16.9351,-14.7296
623,-510,17.9271,13.4589,0,0,0,0,0,0,0,-1,1847,1534,17.9271,-13.4589
630,-510,13.7461,9.30334,0,0,0,0,0,0,0,-1,1854,1534,13.7461,-9.30335
637,-510,11.0155,7.38464,0,0,0,0,0,0,0,-1,1861,1534,11.0155,-7.38463
644,-510,11.5809,7.17126,0,0,0,0,0,0,0,-1,1868,1534,11.5809,-7.17123
651,-510,8.70471,3.5061,0,0,0,0,0,0,0,-1,1875,1534,8.70475,-3.50611
658,-510,0,0,0,0,0,0,0,0,0,-1,1882,1534,0,0
665,-510,0,0,0,0,0,0,0,0,0,-1,1889,1534,0,0
672,-510,0,0,0,0,0,0,0,0,0,-1,1896,1534,0,0
679,-510,0,0,0,0,0,0,0,0,0,-1,1903,1534,0,0
686,-510,0,0,0,0,0,0,0,0,0,-1,1910,1534,0,0
693,-510,0,0,0,0,0,0,0,0,0,-1,1917,1534,0,0
700,-510,0,0,0,0,0,0,0,0,0,-1,1924,1534,0,0
707,-510,0,0,0,0,0,0,0,0,0,-1,1931,1534,0,0
714,-510,0,0,0,0,0,0,0,0,0,-1,1938,1534,0,0
721,-510,0,0,0,0,0,0,0,0,0,-1,1945,1534,0,0
728,-510,0,0,0,0,0,0,0,0,0,-1,1952,1534,0,0
735,-510,0,0,0,0,0,0,0,0,0,-1,1959,1534,0,0
742,-510,0,0,0,0,0,0,0,0,0,-1,1966,1534,0,0
749,-510,0,0,0,0,0,0,0,0,0,-1,1973,1534,0,0
756,-510,0,0,0,0,0,0,0,0,0,-1,1980,1534,0,0
763,-510,0,0,0,0,0,0,0,0,0,-1,1987,1534,0,0
770,-510,0,0,0,0,0,0,0,0,0,-1,1994,1534,0,0
777,-510,0,0,0,0,0,0,0,0,0,-1,2001,1534,0,0
784,-510,0,0,0,0,0,0,0,0,0,-1,2008,1534,0,0
791,-510,0,0,0,0,0,0,0,0,0,-1,2015,1534,0,0
798,-510,0,0,0,0,0,0,0,0,0,-1,2022,1534,0,0
805,-510,0,0,0,0,0,0,0,0,0,-1,2029,1534,0,0
812,-510,0,0,0,0,0,0,0,0,0,-1,2036,1534,0,0
-700,-517,0,0,0,0,0,0,0,0,0,-1,524,1541,0,0
-693,-517,0,0,0,0,0,0,0,0,0,-1,531,1541,0,0
-686,-517,0,0,0,0,0,0,0,0,0,-1,538,1541,0,0
-679,-517,0,0,0,0,0,0,0,0,0,-1,545,1541,0,0
-672,-517,0,0,0,0,0,0,0,0,0,-1,552,1541,0,0
-665,-517,0,0,0,0,0,0,0,0,0,-1,559,1541,0,0
-658,-517,0,0,0,0,0,0,0,0,0,-1,566,1541,0,0
-651,-517,0,0,0,0,0,0,0,0,0,-1,573,1541,0,0
-644,-517,0,0,0,0,0,0,0,0,0,-1,580,1541,0,0
-637,-517,0,0,0,0,0,0,0,0,0,-1,587,1541,0,0
-630,-517,0,0,0,0,0,0,0,0,0,-1,594,1541,0,0
-623,-517,0,0,0,0,0,0,0,0,0,-1,601,1541,0,0
-616,-517,0,0,0,0,0,0,0,0,0,-1,608,1541,0,0
-609,-517,0,0,0,0,0,0,0,0,0,-1,615,1541,0,0
-602,-517,0,0,0,0,0,0,0,0,0,-1,622,1541,0,0
-595,-517,0,0,0,0,0,0,0,0,0,-1,629,1541,0,0
-588,-517,0,0,0,0,0,0,0,0,0,-1,636,1541,0,0
-581,-517,0,0,0,0,0,0,0,0,0,-1,643,1541,0,0
-574,-517,0,0,0,0,0,0,0,0,0,-1,650,1541,0,0
-567,-517,0,0,0,0,0,0,0,0,0,-1,657,1541,0,0
-560,-517,0,0,0,0,0,0,0,0,0,-1,664,1541,0,0
-553,-517,0,0,0,0,0,0,0,0,0,-1,671,1541,0,0
-546,-517,0,0,0,0,0,0,0,0,0,-1,678,1541,0,0
-539,-517,0,0,0,0,0,0,0,0,0,-1,685,1541,0,0
-532,-517,0,0,0,0,0,0,0,0,0,-1,692,1541,0,0
-525,-517,-3.62903,4.3606,0,0,0,0,0,0,0,-1,699,1541,-3.62904,-4.36056
-518,-517,-1.664,2.27209,0,0,0,0,0,0,0,-1,706,1541,-1.66399,-2.27207
-511,-517,-0.999146,5.52063,0,0,0,0,0,0,0,-1,713,1541,-0.999126,-5.52059
-504,-517,-1.06946,8.67432,0,0,0,0,0,0,0,-1,720,1541,-1.06947,-8.6743
-497,-517,-2.83087,11.739,0,0,0,0,0,0,0,-1,727,1541,-2.83086,-11.7391
-490,-517,-2.66498,13.432,0,0,0,0,0,0,0,-1,734,1541,-2.66497,-13.432
-483,-517,-2.43494,13.3477,-0.00195949,-0.00684651,-0.00563442,0.00173845,-0.0105444,-0.5808,0.00767503,0.0421123,741,1541,-2.43496,-13.3476
-476,-517,-2.20148,13.2175,-0.00256472,-0.00425892,-0.00398558,0.000662788,-0.00748643,-0.680686,0.00522591,0.0417815,748,1541,-2.20145,-13.2175
-469,-517,-2.40009,13.6815,-0.00268294,-0.00211243,-0.00254547,0.000163715,-0.00495909,-0.841197,0.00336196,0.0185439,755,1541,-2.40006,-13.6816
-462,-517,-2.50702,14.1442,-0.00230425,-0.000673014,-0.00128231,3.10916e-05,-0.00300836,-1.06865,0.00201602,0.0185477,762,1541,-2.50704,-14.1442
-455,-517,-2.50812,14.6532,-0.0017448,0.000314713,-0.000312085,0.000360965,-0.00179105,-1.42366,0.00133078,0.0144056,769,1541,-2.50814,-14.6532
-448,-517,-2.50726,15.1343,-0.00123177,0.000771996,0.000255924,0.000804167,-0.00126394,1.44575,0.00120382,0.0135434,776,1541,-2.50725,-15.1342
-441,-517,-2.5293,15.5709,-0.000445635,0.00124526,0.000905858,0.00163891,-0.000839284,1.16086,0.0014554,0.012163,783,1541,-2.52929,-15.571
-434,-517,-2.5285,16.0096,0.000491005,0.00169171,0.00152044,0.00272603,-0.000543315,0.97343,0.00202293,0.0144075,790,1541,-2.52852,-16.0097
-427,-517,-2.55463,16.4718,0.00138688,0.00231574,0.00223496,0.00413401,-0.000431396,0.887842,0.00291048,0.0144768,797,1541,-2.55463,-16.4718
-420,-517,-2.60889,16.9723,0.00248073,0.00285357,0.00288305,0.00555622,-0.000221927,0.817684,0.00378029,0.0205039,804,1541,-2.60886,-16.9723
-413,-517,-2.60309,17.3917,0.0036074,0.00362974,0.00359783,0.00721642,2.07231e-05,0.78695,0.00480405,0.0108023,811,1541,-2.60307,-17.3917
-406,-517,-2.62048,17.8302,0.00465035,0.00483323,0.00458061,0.00932332,0.000160268,0.795378,0.00616282,0.0104667,818,1541,-2.62046,-17.8302
-399,-517,-2.62146,18.281,0.00551404,0.00682398,0.00563165,0.0118386,0.000499401,0.843289,0.00773132,0.0106364,825,1541,-2.62147,-18.2811
-392,-517,-2.60193,18.7413,0.00643419,0.0102735,0.00671862,0.0153413,0.00136635,0.924551,0.00980388,0.0154311,832,1541,-2.60193,-18.7413
-385,-517,-2.50208,19.4324,0.00686093,0.0158216,0.00585426,0.0187132,0.0039693,1.11201,0.0113854,0.0339973,839,1541,-2.5021,-19.4324
-378,-517,-2.38184,20.2372,0,0,0,0,0,0,0,-1,846,1541,-2.38185,-20.2372
-371,-517,-1.37585,13.2646,0,0,0,0,0,0,0,-1,853,1541,-1.37586,-13.2647
-364,-517,-1.26245,12.6289,0,0,0,0,0,0,0,-1,860,1541,-1.26243,-12.6289
-357,-517,-1.23889,12.979,0,0,0,0,0,0,0,-1,867,1541,-1.23891,-12.979
-350,-517,0.722412,10.0829,0,0,0,0,0,0,0,-1,874,1541,0.722399,-10.0828
-343,-517,-2.89331,17.5468,0,0,0,0,0,0,0,-1,881,1541,-2.89334,-17.5468
-336,-517,-4.72076,24.3307,0,0,0,0,0,0,0,-1,888,1541,-4.72079,-24.3307
-329,-517,-0.463623,21.0862,0,0,0,0,0,0,0,-1,895,1541,-0.463643,-21.0862
-322,-517,-4.21246,19.5819,0,0,0,0,0,0,0,-1,902,1541,-4.21244,-19.5819
-315,-517,-0.987976,7.29749,0,0,0,0,0,0,0,-1,909,1541,-0.987993,-7.29743
-308,-517,3.27911,17.621,0,0,0,0,0,0,0,-1,916,1541,3.27913,-17.621
-301,-517,-1.69141,8.87488,0,0,0,0,0,0,0,-1,923,1541,-1.69141,-8.87485
-294,-517,-1.72583,9.92566,0,0,0,0,0,0,0,-1,930,1541,-1.72584,-9.92571
-287,-517,-3.09045,12.1472,0,0,0,0,0,0,0,-1,937,1541,-3.09043,-12.1472
-280,-517,0,0,0,0,0,0,0,0,0,-1,944,1541,0,0
-273,-517,0,0,0,0,0,0,0,0,0,-1,951,1541,0,0
-266,-517,0,0,0,0,0,0,0,0,0,-1,958,1541,0,0
-259,-517,0,0,0,0,0,0,0,0,0,-1,965,1541,0,0
-252,-517,0,0,0,0,0,0,0,0,0,-1,972,1541,0,0
-245,-517,0,0,0,0,0,0,0,0,0,-1,979,1541,0,0
-238,-517,0,0,0,0,0,0,0,0,0,-1,986,1541,0,0
-231,-517,0,0,0,0,0,0,0,0,0,-1,993,1541,0,0
-224,-517,0,0,0,0,0,0,0,0,0,-1,1000,1541,0,0
-217,-517,0,0,0,0,0,0,0,0,0,-1,1007,1541,0,0
-210,-517,0,0,0,0,0,0,0,0,0,-1,1014,1541,0,0
-203,-517,0,0,0,0,0,0,0,0,0,-1,1021,1541,0,0
-196,-517,0,0,0,0,0,0,0,0,0,-1,1028,1541,0,0
-189,-517,0,0,0,0,0,0,0,0,0,-1,1035,1541,0,0
-182,-517,0,0,0,0,0,0,0,0,0,-1,1042,1541,0,0
-175,-517,0,0,0,0,0,0,0,0,0,-1,1049,1541,0,0
-168,-517,0,0,0,0,0,0,0,0,0,-1,1056,1541,0,0
-161,-517,0,0,0,0,0,0,0,0,0,-1,1063,1541,0,0
-154,-517,0,0,0,0,0,0,0,0,0,-1,1070,1541,0,0
-147,-517,0,0,0,0,0,0,0,0,0,-1,1077,1541,0,0
-140,-517,0,0,0,0,0,0,0,0,0,-1,1084,1541,0,0
-133,-517,0,0,0,0,0,0,0,0,0,-1,1091,1541,0,0
-126,-517,0,0,0,0,0,0,0,0,0,-1,1098,1541,0,0
-119,-517,0,0,0,0,0,0,0,0,0,-1,1105,1541,0,0
-112,-517,0,0,0,0,0,0,0,0,0,-1,1112,1541,0,0
-105,-517,0,0,0,0,0,0,0,0,0,-1,1119,1541,0,0
-98,-517,0,0,0,0,0,0,0,0,0,-1,1126,1541,0,0
-91,-517,0,0,0,0,0,0,0,0,0,-1,1133,1541,0,0
-84,-517,0,0,0,0,0,0,0,0,0,-1,1140,1541,0,0
-77,-517,0,0,0,0,0,0,0,0,0,-1,1147,1541,0,0
-70,-517,0,0,0,0,0,0,0,0,0,-1,1154,1541,0,0
-63,-517,0,0,0,0,0,0,0,0,0,-1,1161,1541,0,0
-56,-517,0,0,0,0,0,0,0,0,0,-1,1168,1541,0,0
-49,-517,0,0,0,0,0,0,0,0,0,-1,1175,1541,0,0
-42,-517,0,0,0,0,0,0,0,0,0,-1,1182,1541,0,0
-35,-517,0,0,0,0,0,0,0,0,0,-1,1189,1541,0,0
-28,-517,0,0,0,0,0,0,0,0,0,-1,1196,1541,0,0
-21,-517,0,0,0,0,0,0,0,0,0,-1,1203,1541,0,0
-14,-517,0,0,0,0,0,0,0,0,0,-1,1210,1541,0,0
-7,-517,0,0,0,0,0,0,0,0,0,-1,1217,1541,0,0
0,-517,0,0,0,0,0,0,0,0,0,-1,1224,1541,0,0
7,-517,0,0,0,0,0,0,0,0,0,-1,1231,1541,0,0
14,-517,0,0,0,0,0,0,0,0,0,-1,1238,1541,0,0
21,-517,0,0,0,0,0,0,0,0,0,-1,1245,1541,0,0
28,-517,0,0,0,0,0,0,0,0,0,-1,1252,1541,0,0
35,-517,0,0,0,0,0,0,0,0,0,-1,1259,1541,0,0
42,-517,0,0,0,0,0,0,0,0,0,-1,1266,1541,0,0
49,-517,0,0,0,0,0,0,0,0,0,-1,1273,1541,0,0
56,-517,0,0,0,0,0,0,0,0,0,-1,1280,1541,0,0
63,-517,0,0,0,0,0,0,0,0,0,-1,1287,1541,0,0
70,-517,0,0,0,0,0,0,0,0,0,-1,1294,1541,0,0
77,-517,0,0,0,0,0,0,0,0,0,-1,1301,1541,0,0
84,-517,0,0,0,0,0,0,0,0,0,-1,1308,1541,0,0
91,-517,0,0,0,0,0,0,0,0,0,-1,1315,1541,0,0
98,-517,0,0,0,0,0,0,0,0,0,-1,1322,1541,0,0
105,-517,0,0,0,0,0,0,0,0,0,-1,1329,1541,0,0
112,-517,0,0,0,0,0,0,0,0,0,-1,1336,1541,0,0
119,-517,0,0,0,0,0,0,0,0,0,-1,1343,1541,0,0
126,-517,0,0,0,0,0,0,0,0,0,-1,1350,1541,0,0
133,-517,0,0,0,0,0,0,0,0,0,-1,1357,1541,0,0
140,-517,0,0,0,0,0,0,0,0,0,-1,1364,1541,0,0
147,-517,0,0,0,0,0,0,0,0,0,-1,1371,1541,0,0
154,-517,0,0,0,0,0,0,0,0,0,-1,1378,1541,0,0
161,-517,0,0,0,0,0,0,0,0,0,-1,1385,1541,0,0
168,-517,0,0,0,0,0,0,0,0,0,-1,1392,1541,0,0
175,-517,0,0,0,0,0,0,0,0,0,-1,1399,1541,0,0
182,-517,0,0,0,0,0,0,0,0,0,-1,1406,1541,0,0
189,-517,0,0,0,0,0,0,0,0,0,-1,1413,1541,0,0
196,-517,0,0,0,0,0,0,0,0,0,-1,1420,1541,0,0
203,-517,0,0,0,0,0,0,0,0,0,-1,1427,1541,0,0
210,-517,0,0,0,0,0,0,0,0,0,-1,1434,1541,0,0
217,-517,0,0,0,0,0,0,0,0,0,-1,1441,1541,0,0
224,-517,0,0,0,0,0,0,0,0,0,-1,1448,1541,0,0
231,-517,0,0,0,0,0,0,0,0,0,-1,1455,1541,0,0
238,-517,0,0,0,0,0,0,0,0,0,-1,1462,1541,0,0
245,-517,0,0,0,0,0,0,0,0,0,-1,1469,1541,0,0
252,-517,0,0,0,0,0,0,0,0,0,-1,1476,1541,0,0
259,-517,0,0,0,0,0,0,0,0,0,-1,1483,1541,0,0
266,-517,0,0,0,0,0,0,0,0,0,-1,1490,1541,0,0
273,-517,0,0,0,0,0,0,0,0,0,-1,1497,1541,0,0
280,-517,0,0,0,0,0,0,0,0,0,-1,1504,1541,0,0
287,-517,0,0,0,0,0,0,0,0,0,-1,1511,1541,0,0
294,-517,0,0,0,0,0,0,0,0,0,-1,1518,1541,0,0
301,-517,0,0,0,0,0,0,0,0,0,-1,1525,1541,0,0
308,-517,0,0,0,0,0,0,0,0,0,-1,1532,1541,0,0
315,-517,0,0,0,0,0,0,0,0,0,-1,1539,1541,0,0
322,-517,0,0,0,0,0,0,0,0,0,-1,1546,1541,0,0
329,-517,0,0,0,0,0,0,0,0,0,-1,1553,1541,0,0
336,-517,0,0,0,0,0,0,0,0,0,-1,1560,1541,0,0
343,-517,0,0,0,0,0,0,0,0,0,-1,1567,1541,0,0
350,-517,0,0,0,0,0,0,0,0,0,-1,1574,1541,0,0
357,-517,0,0,0,0,0,0,0,0,0,-1,1581,1541,0,0
364,-517,0,0,0,0,0,0,0,0,0,-1,1588,1541,0,0
371,-517,0,0,0,0,0,0,0,0,0,-1,1595,1541,0,0
378,-517,0,0,0,0,0,0,0,0,0,-1,1602,1541,0,0
385,-517,0,0,0,0,0,0,0,0,0,-1,1609,1541,0,0
392,-517,0,0,0,0,0,0,0,0,0,-1,1616,1541,0,0
399,-517,0,0,0,0,0,0,0,0,0,-1,1623,1541,0,0
406,-517,13.1395,7.01978,0,0,0,0,0,0,0,-1,1630,1541,13.1396,-7.01981
413,-517,12.8859,6.31592,0,0,0,0,0,0,0,-1,1637,1541,12.8858,-6.31588
420,-517,12.4789,6.20337,0,0,0,0,0,0,0,-1,1644,1541,12.4789,-6.20333
427,-517,11.647,4.66516,0,0,0,0,0,0,0,-1,1651,1541,11.647,-4.66519
434,-517,12.3719,3.92773,0,0,0,0,0,0,0,-1,1658,1541,12.3719,-3.92776
441,-517,13.146,3.14124,0,0,0,0,0,0,0,-1,1665,1541,13.146,-3.14121
448,-517,13.8861,2.36682,0,0,0,0,0,0,0,-1,1672,1541,13.8861,-2.36684
455,-517,13.6012,4.06335,0,0,0,0,0,0,0,-1,1679,1541,13.6012,-4.06335
462,-517,14.8956,7.0752,0,0,0,0,0,0,0,-1,1686,1541,14.8956,-7.07525
469,-517,13.6292,6.87744,0,0,0,0,0,0,0,-1,1693,1541,13.6292,-6.87739
476,-517,17.1632,14.1487,0,0,0,0,0,0,0,-1,1700,1541,17.1632,-14.1487
483,-517,16.5157,15.0776,0,0,0,0,0,0,0,-1,1707,1541,16.5157,-15.0777
490,-517,15.5439,18.0258,0,0,0,0,0,0,0,-1,1714,1541,15.5439,-18.0258
497,-517,16.0292,18.7786,0,0,0,0,0,0,0,-1,1721,1541,16.0291,-18.7786
504,-517,16.3715,21.1689,0,0,0,0,0,0,0,-1,1728,1541,16.3715,-21.169
511,-517,16.9962,21.3055,0,0,0,0,0,0,0,-1,1735,1541,16.9962,-21.3055
518,-517,16.4426,20.3652,0,0,0,0,0,0,0,-1,1742,1541,16.4427,-20.3653
525,-517,16.6215,19.9196,0.00381142,0.00384432,-0.00280815,0.00663606,0.00101967,-0.788326,0.00412636,0.0212944,1749,1541,16.6215,-19.9195
532,-517,16.7618,19.4213,0.0028707,0.00273896,-0.00196025,0.00476619,0.000843477,-0.768603,0.00293695,0.0115316,1756,1541,16.7619,-19.4213
539,-517,16.7705,19.0031,0.00224778,0.00182792,-0.00128714,0.003342,0.00073371,-0.704561,0.00202816,0.0122678,1763,1541,16.7705,-19.0031
546,-517,16.7512,18.6183,0.00175364,0.00122045,-0.000742577,0.00227603,0.000698061,-0.613058,0.0013464,0.0130426,1770,1541,16.7513,-18.6182
553,-517,16.7269,18.222,0.00143092,0.000697112,-0.00032368,0.00155329,0.000574745,-0.361443,0.000906838,0.0165217,1777,1541,16.727,-18.2221
560,-517,16.7238,17.8157,0.00131453,0.000362023,-6.37099e-05,0.00131878,0.000357781,-0.0664915,0.000787498,0.016352,1784,1541,16.7238,-17.8156
567,-517,16.7128,17.3894,0.00160626,-4.00885e-05,1.98812e-05,0.0016065,-4.03286e-05,0.0120736,0.00108469,0.0139034,1791,1541,16.7127,-17.3894
574,-517,16.6937,16.9323,0.00260718,-9.26251e-06,-0.000641834,0.00275614,-0.000158228,-0.228056,0.00189238,0.0148688,1798,1541,16.6937,-16.9322
581,-517,16.6721,16.5153,0.00371841,-4.26766e-05,-0.00130636,0.00412764,-0.000451899,-0.303571,0.00291409,0.0151836,1805,1541,16.6721,-16.5152
588,-517,16.6777,16.1003,0.00532475,2.17613e-05,-0.00234533,0.00621317,-0.000866662,-0.362102,0.00445916,0.0155099,1812,1541,16.6777,-16.1004
595,-517,16.9066,15.4482,0,0,0,0,0,0,0,-1,1819,1541,16.9066,-15.4482
602,-517,15.8027,13.5498,0,0,0,0,0,0,0,-1,1826,1541,15.8027,-13.5498
609,-517,12.6417,10.8751,0,0,0,0,0,0,0,-1,1833,1541,12.6417,-10.8751
616,-517,14.205,10.3193,0,0,0,0,0,0,0,-1,1840,1541,14.205,-10.3194
623,-517,12.578,10.0779,0,0,0,0,0,0,0,-1,1847,1541,12.578,-10.0779
630,-517,11.7035,7.47815,0,0,0,0,0,0,0,-1,1854,1541,11.7035,-7.47812
637,-517,11.5172,5.79822,0,0,0,0,0,0,0,-1,1861,1541,11.5173,-5.79825
644,-517,11.4232,3.30579,0,0,0,0,0,0,0,-1,1868,1541,11.4232,-3.30574
651,-517,0,0,0,0,0,0,0,0,0,-1,1875,1541,0,0
658,-517,0,0,0,0,0,0,0,0,0,-1,1882,1541,0,0
665,-517,0,0,0,0,0,0,0,0,0,-1,1889,1541,0,0
672,-517,0,0,0,0,0,0,0,0,0,-1,1896,1541,0,0
679,-517,0,0,0,0,0,0,0,0,0,-1,1903,1541,0,0
686,-517,0,0,0,0,0,0,0,0,0,-1,1910,1541,0,0
693,-517,0,0,0,0,0,0,0,0,0,-1,1917,1541,0,0
700,-517,0,0,0,0,0,0,0,0,0,-1,1924,1541,0,0
707,-517,0,0,0,0,0,0,0,0,0,-1,1931,1541,0,0
714,-517,0,0,0,0,0,0,0,0,0,-1,1938,1541,0,0
721,-517,0,0,0,0,0,0,0,0,0,-1,1945,1541,0,0
728,-517,0,0,0,0,0,0,0,0,0,-1,1952,1541,0,0
735,-517,0,0,0,0,0,0,0,0,0,-1,1959,1541,0,0
742,-517,0,0,0,0,0,0,0,0,0,-1,1966,1541,0,0
749,-517,0,0,0,0,0,0,0,0,0,-1,1973,1541,0,0
756,-517,0,0,0,0,0,0,0,0,0,-1,1980,1541,0,0
763,-517,0,0,0,0,0,0,0,0,0,-1,1987,1541,0,0
770,-517,0,0,0,0,0,0,0,0,0,-1,1994,1541,0,0
777,-517,0,0,0,0,0,0,0,0,0,-1,2001,1541,0,0
784,-517,0,0,0,0,0,0,0,0,0,-1,2008,1541,0,0
791,-517,0,0,0,0,0,0,0,0,0,-1,2015,1541,0,0
798,-517,0,0,0,0,0,0,0,0,0,-1,2022,1541,0,0
805,-517,0,0,0,0,0,0,0,0,0,-1,2029,1541,0,0
812,-517,0,0,0,0,0,0,0,0,0,-1,2036,1541,0,0
-700,-524,0,0,0,0,0,0,0,0,0,-1,524,1548,0,0
-693,-524,0,0,0,0,0,0,0,0,0,-1,531,1548,0,0
-686,-524,0,0,0,0,0,0,0,0,0,-1,538,1548,0,0
-679,-524,0,0,0,0,0,0,0,0,0,-1,545,1548,0,0
-672,-524,0,0,0,0,0,0,0,0,0,-1,552,1548,0,0
-665,-524,0,0,0,0,0,0,0,0,0,-1,559,1548,0,0
-658,-524,0,0,0,0,0,0,0,0,0,-1,566,1548,0,0
-651,-524,0,0,0,0,0,0,0,0,0,-1,573,1548,0,0
-644,-524,0,0,0,0,0,0,0,0,0,-1,580,1548,0,0
-637,-524,0,0,0,0,0,0,0,0,0,-1,587,1548,0,0
-630,-524,0,0,0,0,0,0,0,0,0,-1,594,1548,0,0
-623,-524,0,0,0,0,0,0,0,0,0,-1,601,1548,0,0
-616,-524,0,0,0,0,0,0,0,0,0,-1,608,1548,0,0
-609,-524,0,0,0,0,0,0,0,0,0,-1,615,1548,0,0
-602,-524,0,0,0,0,0,0,0,0,0,-1,622,1548,0,0
-595,-524,0,0,0,0,0,0,0,0,0,-1,629,1548,0,0
-588,-524,0,0,0,0,0,0,0,0,0,-1,636,1548,0,0
-581,-524,0,0,0,0,0,0,0,0,0,-1,643,1548,0,0
-574,-524,0,0,0,0,0,0,0,0,0,-1,650,1548,0,0
-567,-524,0,0,0,0,0,0,0,0,0,-1,657,1548,0,0
-560,-524,0,0,0,0,0,0,0,0,0,-1,664,1548,0,0
-553,-524,0,0,0,0,0,0,0,0,0,-1,671,1548,0,0
-546,-524,0,0,0,0,0,0,0,0,0,-1,678,1548,0,0
-539,-524,0,0,0,0,0,0,0,0,0,-1,685,1548,0,0
-532,-524,0,0,0,0,0,0,0,0,0,-1,692,1548,0,0
-525,-524,-0.215515,3.97131,0,0,0,0,0,0,0,-1,699,1548,-0.215501,-3.97136
-518,-524,-0.806274,4.35632,0,0,0,0,0,0,0,-1,706,1548,-0.806259,-4.35633
-511,-524,-1.08301,4.29004,0,0,0,0,0,0,0,-1,713,1548,-1.08301,-4.29006
-504,-524,-1.28821,3.98145,0,0,0,0,0,0,0,-1,720,1548,-1.28822,-3.98151
-497,-524,-0.328491,8.63416,0,0,0,0,0,0,0,-1,727,1548,-0.328487,-8.63411
-490,-524,-1.23657,11.2687,0,0,0,0,0,0,0,-1,734,1548,-1.2366,-11.2687
-483,-524,-2.30823,13.6453,0,0,0,0,0,0,0,-1,741,1548,-2.30821,-13.6453
-476,-524,-1.78955,13.4688,-0.00276541,-0.00245983,-0.00315,0.000541084,-0.00576632,-0.809632,0.00403668,0.046076,748,1548,-1.78953,-13.4687
-469,-524,-1.96832,13.9231,-0.00285733,-0.000222833,-0.00148028,0.000441424,-0.00352159,-1.14899,0.00250785,0.0360521,755,1548,-1.96831,-13.9231
-462,-524,-1.96478,14.2985,-0.00247975,0.00124412,-0.000142638,0.00124957,-0.00248521,-1.53257,0.00219526,0.0289988,762,1548,-1.96476,-14.2984
-455,-524,-2.09204,14.6943,-0.00195245,0.00210006,0.000737074,0.00222996,-0.00208234,1.39636,0.0024902,0.0222494,769,1548,-2.09203,-14.6943
-448,-524,-2.06903,15.1454,-0.00151702,0.00228728,0.0011034,0.00258415,-0.00181389,1.30797,0.00255216,0.0129454,776,1548,-2.06904,-15.1454
-441,-524,-2.07666,15.5771,-0.000861796,0.00242455,0.00145561,0.00297656,-0.0014138,1.20833,0.00258775,0.0111782,783,1548,-2.07667,-15.5771
-434,-524,-2.05359,16.0201,-8.12711e-05,0.00254067,0.00175448,0.00341987,-0.000960474,1.10626,0.00265855,0.0127614,790,1548,-2.0536,-16.0202
-427,-524,-2.07953,16.5005,0.000626456,0.00288868,0.00220256,0.00423359,-0.000718452,1.02261,0.00308984,0.0131807,797,1548,-2.07954,-16.5005
-420,-524,-2.12585,16.9589,0.00156324,0.00319463,0.00258453,0.00508913,-0.000331255,0.938254,0.00350839,0.0106447,804,1548,-2.12584,-16.9588
-413,-524,-2.12006,17.4054,0.00252081,0.00373501,0.00300821,0.00619677,5.90472e-05,0.884968,0.00411164,0.00983775,811,1548,-2.12005,-17.4054
-406,-524,-2.14014,17.8597,0.00336156,0.00467942,0.00369614,0.0077749,0.000266074,0.873609,0.00509689,0.0104353,818,1548,-2.14011,-17.8597
-399,-524,-2.16162,18.2952,0.00401392,0.00622989,0.00440678,0.00966585,0.000577969,0.908559,0.00626014,0.00910504,825,1548,-2.1616,-18.2951
-392,-524,-2.16797,18.7216,0.00465778,0.00900227,0.00505079,0.0123281,0.00133192,0.988481,0.00781272,0.0106197,832,1548,-2.16798,-18.7216
-385,-524,-2.17798,19.1858,0.00495784,0.0136607,0.00415509,0.0153259,0.00329265,1.18963,0.00931573,0.0148308,839,1548,-2.178,-19.1858
-378,-524,-2.10553,19.913,0.00431195,0.0207569,0.00142016,0.0208787,0.00419021,1.48528,0.0127539,0.0441396,846,1548,-2.10552,-19.9129
-371,-524,-2.01434,20.6057,0,0,0,0,0,0,0,-1,853,1548,-2.01432,-20.6057
-364,-524,-0.712097,14.9871,0,0,0,0,0,0,0,-1,860,1548,-0.712116,-14.9871
-357,-524,-1.34052,14.7448,0,0,0,0,0,0,0,-1,867,1548,-1.34054,-14.7447
-350,-524,-2.63245,12.7522,0,0,0,0,0,0,0,-1,874,1548,-2.63245,-12.7522
-343,-524,-4.02026,22.6028,0,0,0,0,0,0,0,-1,881,1548,-4.02028,-22.6028
-336,-524,-3.68628,23.8445,0,0,0,0,0,0,0,-1,888,1548,-3.68626,-23.8445
-329,-524,-3.63446,24.5438,0,0,0,0,0,0,0,-1,895,1548,-3.63446,-24.5438
-322,-524,-3.79669,23.8302,0,0,0,0,0,0,0,-1,902,1548,-3.7967,-23.8303
-315,-524,-1.90839,19.4824,0,0,0,0,0,0,0,-1,909,1548,-1.90838,-19.4824
-308,-524,-2.36938,19.3059,0,0,0,0,0,0,0,-1,916,1548,-2.3694,-19.3058
-301,-524,2.72394,17.7618,0,0,0,0,0,0,0,-1,923,1548,2.72396,-17.7619
-294,-524,-1.52515,9.05408,0,0,0,0,0,0,0,-1,930,1548,-1.52512,-9.05411
-287,-524,-0.962219,10.3199,0,0,0,0,0,0,0,-1,937,1548,-0.962241,-10.32
-280,-524,-1.36255,10.3859,0,0,0,0,0,0,0,-1,944,1548,-1.36253,-10.3859
-273,-524,0,0,0,0,0,0,0,0,0,-1,951,1548,0,0
-266,-524,0,0,0,0,0,0,0,0,0,-1,958,1548,0,0
-259,-524,0,0,0,0,0,0,0,0,0,-1,965,1548,0,0
-252,-524,0,0,0,0,0,0,0,0,0,-1,972,1548,0,0
-245,-524,0,0,0,0,0,0,0,0,0,-1,979,1548,0,0
-238,-524,0,0,0,0,0,0,0,0,0,-1,986,1548,0,0
-231,-524,0,0,0,0,0,0,0,0,0,-1,993,1548,0,0
-224,-524,0,0,0,0,0,0,0,0,0,-1,1000,1548,0,0
-217,-524,0,0,0,0,0,0,0,0,0,-1,1007,1548,0,0
-210,-524,0,0,0,0,0,0,0,0,0,-1,1014,1548,0,0
-203,-524,0,0,0,0,0,0,0,0,0,-1,1021,1548,0,0
-196,-524,0,0,0,0,0,0,0,0,0,-1,1028,1548,0,0
-189,-524,0,0,0,0,0,0,0,0,0,-1,1035,1548,0,0
-182,-524,0,0,0,0,0,0,0,0,0,-1,1042,1548,0,0
-175,-524,0,0,0,0,0,0,0,0,0,-1,1049,1548,0,0
-168,-524,0,0,0,0,0,0,0,0,0,-1,1056,1548,0,0
-161,-524,0,0,0,0,0,0,0,0,0,-1,1063,1548,0,0
-154,-524,0,0,0,0,0,0,0,0,0,-1,1070,1548,0,0
-147,-524,0,0,0,0,0,0,0,0,0,-1,1077,1548,0,0
-140,-524,0,0,0,0,0,0,0,0,0,-1,1084,1548,0,0
-133,-524,0,0,0,0,0,0,0,0,0,-1,1091,1548,0,0
-126,-524,0,0,0,0,0,0,0,0,0,-1,1098,1548,0,0
-119,-524,0,0,0,0,0,0,0,0,0,-1,1105,1548,0,0
-112,-524,0,0,0,0,0,0,0,0,0,-1,1112,1548,0,0
-105,-524,0,0,0,0,0,0,0,0,0,-1,1119,1548,0,0
-98,-524,0,0,0,0,0,0,0,0,0,-1,1126,1548,0,0
-91,-524,0,0,0,0,0,0,0,0,0,-1,1133,1548,0,0
-84,-524,0,0,0,0,0,0,0,0,0,-1,1140,1548,0,0
-77,-524,0,0,0,0,0,0,0,0,0,-1,1147,1548,0,0
-70,-524,0,0,0,0,0,0,0,0,0,-1,1154,1548,0,0
-63,-524,0,0,0,0,0,0,0,0,0,-1,1161,1548,0,0
-56,-524,0,0,0,0,0,0,0,0,0,-1,1168,1548,0,0
-49,-524,0,0,0,0,0,0,0,0,0,-1,1175,1548,0,0
-42,-524,0,0,0,0,0,0,0,0,0,-1,1182,1548,0,0
-35,-524,0,0,0,0,0,0,0,0,0,-1,1189,1548,0,0
-28,-524,0,0,0,0,0,0,0,0,0,-1,1196,1548,0,0
-21,-524,0,0,0,0,0,0,0,0,0,-1,1203,1548,0,0
-14,-524,0,0,0,0,0,0,0,0,0,-1,1210,1548,0,0
-7,-524,0,0,0,0,0,0,0,0,0,-1,1217,1548,0,0
0,-524,0,0,0,0,0,0,0,0,0,-1,1224,1548,0,0
7,-524,0,0,0,0,0,0,0,0,0,-1,1231,1548,0,0
14,-524,0,0,0,0,0,0,0,0,0,-1,1238,1548,0,0
21,-524,0,0,0,0,0,0,0,0,0,-1,1245,1548,0,0
28,-524,0,0,0,0,0,0,0,0,0,-1,1252,1548,0,0
35,-524,0,0,0,0,0,0,0,0,0,-1,1259,1548,0,0
42,-524,0,0,0,0,0,0,0,0,0,-1,1266,1548,0,0
49,-524,0,0,0,0,0,0,0,0,0,-1,1273,1548,0,0
56,-524,0,0,0,0,0,0,0,0,0,-1,1280,1548,0,0
63,-524,0,0,0,0,0,0,0,0,0,-1,1287,1548,0,0
70,-524,0,0,0,0,0,0,0,0,0,-1,1294,1548,0,0
77,-524,0,0,0,0,0,0,0,0,0,-1,1301,1548,0,0
84,-524,0,0,0,0,0,0,0,0,0,-1,1308,1548,0,0
91,-524,0,0,0,0,0,0,0,0,0,-1,1315,1548,0,0
98,-524,0,0,0,0,0,0,0,0,0,-1,1322,1548,0,0
105,-524,0,0,0,0,0,0,0,0,0,-1,1329,1548,0,0
112,-524,0,0,0,0,0,0,0,0,0,-1,1336,1548,0,0
119,-524,0,0,0,0,0,0,0,0,0,-1,1343,1548,0,0
126,-524,0,0,0,0,0,0,0,0,0,-1,1350,1548,0,0
133,-524,0,0,0,0,0,0,0,0,0,-1,1357,1548,0,0
140,-524,0,0,0,0,0,0,0,0,0,-1,1364,1548,0,0
147,-524,0,0,0,0,0,0,0,0,0,-1,1371,1548,0,0
154,-524,0,0,0,0,0,0,0,0,0,-1,1378,1548,0,0
161,-524,0,0,0,0,0,0,0,0,0,-1,1385,1548,0,0
168,-524,0,0,0,0,0,0,0,0,0,-1,1392,1548,0,0
175,-524,0,0,0,0,0,0,0,0,0,-1,1399,1548,0,0
182,-524,0,0,0,0,0,0,0,0,0,-1,1406,1548,0,0
189,-524,0,0,0,0,0,0,0,0,0,-1,1413,1548,0,0
196,-524,0,0,0,0,0,0,0,0,0,-1,1420,1548,0,0
203,-524,0,0,0,0,0,0,0,0,0,-1,1427,1548,0,0
210,-524,0,0,0,0,0,0,0,0,0,-1,1434,1548,0,0
217,-524,0,0,0,0,0,0,0,0,0,-1,1441,1548,0,0
224,-524,0,0,0,0,0,0,0,0,0,-1,1448,1548,0,0
231,-524,0,0,0,0,0,0,0,0,0,-1,1455,1548,0,0
238,-524,0,0,0,0,0,0,0,0,0,-1,1462,1548,0,0
245,-524,0,0,0,0,0,0,0,0,0,-1,1469,1548,0,0
252,-524,0,0,0,0,0,0,0,0,0,-1,1476,1548,0,0
259,-524,0,0,0,0,0,0,0,0,0,-1,1483,1548,0,0
266,-524,0,0,0,0,0,0,0,0,0,-1,1490,1548,0,0
273,-524,0,0,0,0,0,0,0,0,0,-1,1497,1548,0,0
280,-524,0,0,0,0,0,0,0,0,0,-1,1504,1548,0,0
287,-524,0,0,0,0,0,0,0,0,0,-1,1511,1548,0,0
294,-524,0,0,0,0,0,0,0,0,0,-1,1518,1548,0,0
301,-524,0,0,0,0,0,0,0,0,0,-1,1525,1548,0,0
308,-524,0,0,0,0,0,0,0,0,0,-1,1532,1548,0,0
315,-524,0,0,0,0,0,0,0,0,0,-1,1539,1548,0,0
322,-524,0,0,0,0,0,0,0,0,0,-1,1546,1548,0,0
329,-524,0,0,0,0,0,0,0,0,0,-1,1553,1548,0,0
336,-524,0,0,0,0,0,0,0,0,0,-1,1560,1548,0,0
343,-524,0,0,0,0,0,0,0,0,0,-1,1567,1548,0,0
350,-524,0,0,0,0,0,0,0,0,0,-1,1574,1548,0,0
357,-524,0,0,0,0,0,0,0,0,0,-1,1581,1548,0,0
364,-524,0,0,0,0,0,0,0,0,0,-1,1588,1548,0,0
371,-524,0,0,0,0,0,0,0,0,0,-1,1595,1548,0,0
378,-524,0,0,0,0,0,0,0,0,0,-1,1602,1548,0,0
385,-524,0,0,0,0,0,0,0,0,0,-1,1609,1548,0,0
392,-524,0,0,0,0,0,0,0,0,0,-1,1616,1548,0,0
399,-524,8.81848,5.05774,0,0,0,0,0,0,0,-1,1623,1548,8.81843,-5.05769
406,-524,8.64294,6.06799,0,0,0,0,0,0,0,-1,1630,1548,8.6429,-6.06805
413,-524,11.677,6.41858,0,0,0,0,0,0,0,-1,1637,1548,11.677,-6.41864
420,-524,11.4913,6.36401,0,0,0,0,0,0,0,-1,1644,1548,11.4913,-6.36402
427,-524,7.68335,6.17249,0,0,0,0,0,0,0,-1,1651,1548,7.68341,-6.17245
434,-524,10.432,11.6801,0,0,0,0,0,0,0,-1,1658,1548,10.432,-11.68
441,-524,8.78552,4.12305,0,0,0,0,0,0,0,-1,1665,1548,8.78553,-4.12301
448,-524,14.1854,4.78674,0,0,0,0,0,0,0,-1,1672,1548,14.1854,-4.78674
455,-524,12.4784,3.65576,0,0,0,0,0,0,0,-1,1679,1548,12.4784,-3.65572
462,-524,14.7551,9.29395,0,0,0,0,0,0,0,-1,1686,1548,14.7552,-9.29397
469,-524,16.3314,14.3779,0,0,0,0,0,0,0,-1,1693,1548,16.3314,-14.3779
476,-524,15.9106,15.1875,0,0,0,0,0,0,0,-1,1700,1548,15.9107,-15.1876
483,-524,15.2776,16.2268,0,0,0,0,0,0,0,-1,1707,1548,15.2776,-16.2269
490,-524,15.2563,18.5848,0,0,0,0,0,0,0,-1,1714,1548,15.2564,-18.5848
497,-524,16.5425,21.3744,0,0,0,0,0,0,0,-1,1721,1548,16.5425,-21.3743
504,-524,16.2133,21.0405,0,0,0,0,0,0,0,-1,1728,1548,16.2132,-21.0405
511,-524,16.3149,20.823,0,0,0,0,0,0,0,-1,1735,1548,16.3149,-20.823
518,-524,16.3456,20.2771,0.00515122,0.00516921,-0.00386143,0.00902165,0.00129877,-0.786563,0.00563165,0.0232468,1742,1548,16.3456,-20.2771
525,-524,16.3423,19.8694,0.00387601,0.00373009,-0.00279823,0.00660222,0.00100387,-0.772364,0.00410795,0.0136248,1749,1548,16.3423,-19.8694
532,-524,16.3436,19.4498,0.00271148,0.0026265,-0.00181862,0.0044881,0.000849879,-0.773718,0.00275286,0.00984391,1756,1548,16.3436,-19.4498
539,-524,16.3368,19.0187,0.00184072,0.00169509,-0.000978182,0.00274879,0.000787017,-0.748247,0.00163461,0.0111414,1763,1548,16.3367,-19.0187
546,-524,16.3234,18.6112,0.00104206,0.00104676,-0.000215993,0.00126042,0.000828405,-0.79083,0.000739601,0.0150152,1770,1548,16.3234,-18.6113
553,-524,16.3171,18.2269,0.000411674,0.000462683,0.000453604,0.000891499,-1.71415e-05,0.813482,0.000600128,0.0243089,1777,1548,16.3171,-18.2269
560,-524,16.3057,17.8203,4.31745e-05,7.53173e-05,0.00094695,0.00100633,-0.00088784,0.793883,0.00109431,0.0318286,1784,1548,16.3057,-17.8203
567,-524,16.2738,17.3982,0.000169896,-0.000392487,0.00123732,0.00115758,-0.00138017,0.673667,0.00146705,0.0182199,1791,1548,16.2738,-17.3982
574,-524,16.2654,16.939,0.00113745,-0.000403851,0.000688476,0.00140019,-0.000666593,0.36457,0.00121806,0.0132574,1798,1548,16.2654,-16.9389
581,-524,16.2781,16.5122,0.00236518,-0.000405753,4.69121e-05,0.00236597,-0.000406547,0.0169236,0.00172884,0.0140898,1805,1548,16.2781,-16.5122
588,-524,16.3424,16.0845,0.00421448,-0.0003742,-0.00105583,0.00444577,-0.000605485,-0.215648,0.00318492,0.0269914,1812,1548,16.3424,-16.0845
595,-524,16.424,15.4545,0,0,0,0,0,0,0,-1,1819,1548,16.424,-15.4545
602,-524,13.837,12.0682,0,0,0,0,0,0,0,-1,1826,1548,13.837,-12.0683
609,-524,13.0056,10.5138,0,0,0,0,0,0,0,-1,1833,1548,13.0056,-10.5138
616,-524,11.6941,8.65515,0,0,0,0,0,0,0,-1,1840,1548,11.6941,-8.65514
623,-524,9.38452,5.15356,0,0,0,0,0,0,0,-1,1847,1548,9.38456,-5.15359
630,-524,11.0541,3.57434,0,0,0,0,0,0,0,-1,1854,1548,11.0541,-3.57438
637,-524,11.6067,3.20728,0,0,0,0,0,0,0,-1,1861,1548,11.6067,-3.20724
644,-524,12.2134,0.727173,0,0,0,0,0,0,0,-1,1868,1548,12.2134,-0.727222
651,-524,0,0,0,0,0,0,0,0,0,-1,1875,1548,0,0
658,-524,0,0,0,0,0,0,0,0,0,-1,1882,1548,0,0
665,-524,0,0,0,0,0,0,0,0,0,-1,1889,1548,0,0
672,-524,0,0,0,0,0,0,0,0,0,-1,1896,1548,0,0
679,-524,0,0,0,0,0,0,0,0,0,-1,1903,1548,0,0
686,-524,0,0,0,0,0,0,0,0,0,-1,1910,1548,0,0
693,-524,0,0,0,0,0,0,0,0,0,-1,1917,1548,0,0
700,-524,0,0,0,0,0,0,0,0,0,-1,1924,1548,0,0
707,-524,0,0,0,0,0,0,0,0,0,-1,1931,1548,0,0
714,-524,0,0,0,0,0,0,0,0,0,-1,1938,1548,0,0
721,-524,0,0,0,0,0,0,0,0,0,-1,1945,1548,0,0
728,-524,0,0,0,0,0,0,0,0,0,-1,1952,1548,0,0
735,-524,0,0,0,0,0,0,0,0,0,-1,1959,1548,0,0
742,-524,0,0,0,0,0,0,0,0,0,-1,1966,1548,0,0
749,-524,0,0,0,0,0,0,0,0,0,-1,1973,1548,0,0
756,-524,0,0,0,0,0,0,0,0,0,-1,1980,1548,0,0
763,-524,0,0,0,0,0,0,0,0,0,-1,1987,1548,0,0
770,-524,0,0,0,0,0,0,0,0,0,-1,1994,1548,0,0
777,-524,0,0,0,0,0,0,0,0,0,-1,2001,1548,0,0
784,-524,0,0,0,0,0,0,0,0,0,-1,2008,1548,0,0
791,-524,0,0,0,0,0,0,0,0,0,-1,2015,1548,0,0
798,-524,0,0,0,0,0,0,0,0,0,-1,2022,1548,0,0
805,-524,0,0,0,0,0,0,0,0,0,-1,2029,1548,0,0
812,-524,0,0,0,0,0,0,0,0,0,-1,2036,1548,0,0
-700,-531,0,0,0,0,0,0,0,0,0,-1,524,1555,0,0
-693,-531,0,0,0,0,0,0,0,0,0,-1,531,1555,0,0
-686,-531,0,0,0,0,0,0,0,0,0,-1,538,1555,0,0
-679,-531,0,0,0,0,0,0,0,0,0,-1,545,1555,0,0
-672,-531,0,0,0,0,0,0,0,0,0,-1,552,1555,0,0
-665,-531,0,0,0,0,0,0,0,0,0,-1,559,1555,0,0
-658,-531,0,0,0,0,0,0,0,0,0,-1,566,1555,0,0
-651,-531,0,0,0,0,0,0,0,0,0,-1,573,1555,0,0
-644,-531,0,0,0,0,0,0,0,0,0,-1,580,1555,0,0
-637,-531,0,0,0,0,0,0,0,0,0,-1,587,1555,0,0
-630,-531,0,0,0,0,0,0,0,0,0,-1,594,1555,0,0
-623,-531,0,0,0,0,0,0,0,0,0,-1,601,1555,0,0
-616,-531,0,0,0,0,0,0,0,0,0,-1,608,1555,0,0
-609,-531,0,0,0,0,0,0,0,0,0,-1,615,1555,0,0
-602,-531,0,0,0,0,0,0,0,0,0,-1,622,1555,0,0
-595,-531,0,0,0,0,0,0,0,0,0,-1,629,1555,0,0
-588,-531,0,0,0,0,0,0,0,0,0,-1,636,1555,0,0
-581,-531,0,0,0,0,0,0,0,0,0,-1,643,1555,0,0
-574,-531,0,0,0,0,0,0,0,0,0,-1,650,1555,0,0
-567,-531,0,0,0,0,0,0,0,0,0,-1,657,1555,0,0
-560,-531,0,0,0,0,0,0,0,0,0,-1,664,1555,0,0
-553,-531,0,0,0,0,0,0,0,0,0,-1,671,1555,0,0
-546,-531,0,0,0,0,0,0,0,0,0,-1,678,1555,0,0
-539,-531,0,0,0,0,0,0,0,0,0,-1,685,1555,0,0
-532,-531,0,0,0,0,0,0,0,0,0,-1,692,1555,0,0
-525,-531,0,0,0,0,0,0,0,0,0,-1,699,1555,0,0
-518,-531,-1.63983,4.03821,0,0,0,0,0,0,0,-1,706,1555,-1.63982,-4.03821
-511,-531,-2.9682,8.07483,0,0,0,0,0,0,0,-1,713,1555,-2.9682,-8.07479
-504,-531,-2.95978,0.557861,0,0,0,0,0,0,0,-1,720,1555,-2.95978,-0.557917
-497,-531,-2.46039,8.07422,0,0,0,0,0,0,0,-1,727,1555,-2.46039,-8.07423
-490,-531,-0.423462,7.92065,0,0,0,0,0,0,0,-1,734,1555,-0.42344,-7.92066
-483,-531,-1.30933,11.4504,0,0,0,0,0,0,0,-1,741,1555,-1.30932,-11.4504
-476,-531,-1.38367,13.8569,0,0,0,0,0,0,0,-1,748,1555,-1.38369,-13.8569
-469,-531,-1.47632,14.0643,0,0,0,0,0,0,0,-1,755,1555,-1.47631,-14.0643
-462,-531,-1.48938,14.3907,0,0,0,0,0,0,0,-1,762,1555,-1.48937,-14.3908
-455,-531,-1.45111,14.76,0,0,0,0,0,0,0,-1,769,1555,-1.45109,-14.76
-448,-531,-1.56793,15.1252,-0.00145743,0.00471397,0.00264909,0.00569512,-0.00243857,1.21609,0.00481982,0.016377,776,1555,-1.56796,-15.1252
-441,-531,-1.64117,15.5673,-0.000975963,0.0042242,0.00252005,0.00524504,-0.00199681,1.18591,0.00431901,0.0119591,783,1555,-1.64117,-15.5673
-434,-531,-1.64508,16.046,-0.000390115,0.00374589,0.00236584,0.00482015,-0.00146438,1.14456,0.00379689,0.0113941,790,1555,-1.64506,-16.0461
-427,-531,-1.65155,16.5072,0.000105434,0.00357454,0.00243441,0.00482914,-0.00114916,1.09494,0.00366306,0.0137823,797,1555,-1.65157,-16.5073
-420,-531,-1.66187,16.9672,0.000861949,0.00346658,0.00247327,0.00495945,-0.000630929,1.02773,0.00353543,0.0122916,804,1555,-1.66186,-16.9672
-413,-531,-1.66992,17.4226,0.00164064,0.00361508,0.00256909,0.0053801,-0.000124375,0.968834,0.0036289,0.00977932,811,1555,-1.66991,-17.4227
-406,-531,-1.69061,17.8628,0.00229892,0.00417172,0.00295401,0.00633419,0.000136444,0.938885,0.00417806,0.0105819,818,1555,-1.6906,-17.8628
-399,-531,-1.70245,18.2906,0.00279091,0.00518238,0.00336105,0.00755406,0.000419235,0.956298,0.00490228,0.0124809,825,1555,-1.70247,-18.2906
-392,-531,-1.71436,18.7344,0.00321979,0.00719448,0.0036185,0.00933546,0.00107881,1.03652,0.00589702,0.0168878,832,1555,-1.71437,-18.7344
-385,-531,-1.76056,19.1917,0.00344977,0.0109629,0.00278012,0.0118797,0.00253291,1.25224,0.00722507,0.0146972,839,1555,-1.76059,-19.1916
-378,-531,-1.76648,19.5706,0.00298939,0.0165993,0.000588226,0.0166247,0.00296401,1.52768,0.0102391,0.0155797,846,1555,-1.7665,-19.5705
-371,-531,-1.65961,20.146,0.00131302,0.0241013,-0.00370135,0.0246874,0.000726907,-1.41375,0.0162214,0.0310706,853,1555,-1.65961,-20.146
-364,-531,-1.40784,21.0011,0,0,0,0,0,0,0,-1,860,1555,-1.40786,-21.0011
-357,-531,-1.64343,21.1938,0,0,0,0,0,0,0,-1,867,1555,-1.64344,-21.1938
-350,-531,-2.4519,22.1495,0,0,0,0,0,0,0,-1,874,1555,-2.45188,-22.1496
-343,-531,-2.65607,22.6963,0,0,0,0,0,0,0,-1,881,1555,-2.65606,-22.6963
-336,-531,-2.6015,23.2935,-0.0171294,0.0850917,-0.0460684,0.10279,-0.0348272,-1.20402,0.0826196,0.0458159,888,1555,-2.60152,-23.2934
-329,-531,-2.69495,23.4913,-0.0225288,0.100449,-0.0584656,0.123808,-0.0458875,-1.1907,0.101358,0.0484548,895,1555,-2.69492,-23.4914
-322,-531,-3.13885,23.1285,-0.027925,0.115782,-0.0705201,0.144606,-0.0567493,-1.18278,0.119884,0.0490348,902,1555,-3.13885,-23.1285
-315,-531,-3.1756,23.0961,0,0,0,0,0,0,0,-1,909,1555,-3.17559,-23.096
-308,-531,-1.66455,19.0624,0,0,0,0,0,0,0,-1,916,1555,-1.66455,-19.0623
-301,-531,-2.02405,18.8912,0,0,0,0,0,0,0,-1,923,1555,-2.02407,-18.8913
-294,-531,-1.3244,8.1825,0,0,0,0,0,0,0,-1,930,1555,-1.3244,-8.18251
-287,-531,-1.78192,10.1661,0,0,0,0,0,0,0,-1,937,1555,-1.78192,-10.1661
-280,-531,-2.14508,10.3945,0,0,0,0,0,0,0,-1,944,1555,-2.14506,-10.3945
-273,-531,-2.50818,10.6229,0,0,0,0,0,0,0,-1,951,1555,-2.5082,-10.6229
-266,-531,-4.97742,17.9215,0,0,0,0,0,0,0,-1,958,1555,-4.97744,-17.9215
-259,-531,0,0,0,0,0,0,0,0,0,-1,965,1555,0,0
-252,-531,0,0,0,0,0,0,0,0,0,-1,972,1555,0,0
-245,-531,0,0,0,0,0,0,0,0,0,-1,979,1555,0,0
-238,-531,0,0,0,0,0,0,0,0,0,-1,986,1555,0,0
-231,-531,0,0,0,0,0,0,0,0,0,-1,993,1555,0,0
-224,-531,0,0,0,0,0,0,0,0,0,-1,1000,1555,0,0
-217,-531,0,0,0,0,0,0,0,0,0,-1,1007,1555,0,0
-210,-531,0,0,0,0,0,0,0,0,0,-1,1014,1555,0,0
-203,-531,0,0,0,0,0,0,0,0,0,-1,1021,1555,0,0
-196,-531,0,0,0,0,0,0,0,0,0,-1,1028,1555,0,0
-189,-531,0,0,0,0,0,0,0,0,0,-1,1035,1555,0,0
-182,-531,0,0,0,0,0,0,0,0,0,-1,1042,1555,0,0
-175,-531,0,0,0,0,0,0,0,0,0,-1,1049,1555,0,0
-168,-531,0,0,0,0,0,0,0,0,0,-1,1056,1555,0,0
-161,-531,0,0,0,0,0,0,0,0,0,-1,1063,1555,0,0
-154,-531,0,0,0,0,0,0,0,0,0,-1,1070,1555,0,0
-147,-531,0,0,0,0,0,0,0,0,0,-1,1077,1555,0,0
-140,-531,0,0,0,0,0,0,0,0,0,-1,1084,1555,0,0
-133,-531,0,0,0,0,0,0,0,0,0,-1,1091,1555,0,0
-126,-531,0,0,0,0,0,0,0,0,0,-1,1098,1555,0,0
-119,-531,0,0,0,0,0,0,0,0,0,-1,1105,1555,0,0
-112,-531,0,0,0,0,0,0,0,0,0,-1,1112,1555,0,0
-105,-531,0,0,0,0,0,0,0,0,0,-1,1119,1555,0,0
-98,-531,0,0,0,0,0,0,0,0,0,-1,1126,1555,0,0
-91,-531,0,0,0,0,0,0,0,0,0,-1,1133,1555,0,0
-84,-531,0,0,0,0,0,0,0,0,0,-1,1140,1555,0,0
-77,-531,0,0,0,0,0,0,0,0,0,-1,1147,1555,0,0
-70,-531,0,0,0,0,0,0,0,0,0,-1,1154,1555,0,0
-63,-531,0,0,0,0,0,0,0,0,0,-1,1161,1555,0,0
-56,-531,0,0,0,0,0,0,0,0,0,-1,1168,1555,0,0
-49,-531,0,0,0,0,0,0,0,0,0,-1,1175,1555,0,0
-42,-531,0,0,0,0,0,0,0,0,0,-1,1182,1555,0,0
-35,-531,0,0,0,0,0,0,0,0,0,-1,1189,1555,0,0
-28,-531,0,0,0,0,0,0,0,0,0,-1,1196,1555,0,0
-21,-531,0,0,0,0,0,0,0,0,0,-1,1203,1555,0,0
-14,-531,0,0,0,0,0,0,0,0,0,-1,1210,1555,0,0
-7,-531,0,0,0,0,0,0,0,0,0,-1,1217,1555,0,0
0,-531,0,0,0,0,0,0,0,0,0,-1,1224,1555,0,0
7,-531,0,0,0,0,0,0,0,0,0,-1,1231,1555,0,0
14,-531,0,0,0,0,0,0,0,0,0,-1,1238,1555,0,0
21,-531,0,0,0,0,0,0,0,0,0,-1,1245,1555,0,0
28,-531,0,0,0,0,0,0,0,0,0,-1,1252,1555,0,0
35,-531,0,0,0,0,0,0,0,0,0,-1,1259,1555,0,0
42,-531,0,0,0,0,0,0,0,0,0,-1,1266,1555,0,0
49,-531,0,0,0,0,0,0,0,0,0,-1,1273,1555,0,0
56,-531,0,0,0,0,0,0,0,0,0,-1,1280,1555,0,0
63,-531,0,0,0,0,0,0,0,0,0,-1,1287,1555,0,0
70,-531,0,0,0,0,0,0,0,0,0,-1,1294,1555,0,0
77,-531,0,0,0,0,0,0,0,0,0,-1,1301,1555,0,0
84,-531,0,0,0,0,0,0,0,0,0,-1,1308,1555,0,0
91,-531,0,0,0,0,0,0,0,0,0,-1,1315,1555,0,0
98,-531,0,0,0,0,0,0,0,0,0,-1,1322,1555,0,0
105,-531,0,0,0,0,0,0,0,0,0,-1,1329,1555,0,0
112,-531,0,0,0,0,0,0,0,0,0,-1,1336,1555,0,0
119,-531,0,0,0,0,0,0,0,0,0,-1,1343,1555,0,0
126,-531,0,0,0,0,0,0,0,0,0,-1,1350,1555,0,0
133,-531,0,0,0,0,0,0,0,0,0,-1,1357,1555,0,0
140,-531,0,0,0,0,0,0,0,0,0,-1,1364,1555,0,0
147,-531,0,0,0,0,0,0,0,0,0,-1,1371,1555,0,0
154,-531,0,0,0,0,0,0,0,0,0,-1,1378,1555,0,0
161,-531,0,0,0,0,0,0,0,0,0,-1,1385,1555,0,0
168,-531,0,0,0,0,0,0,0,0,0,-1,1392,1555,0,0
175,-531,0,0,0,0,0,0,0,0,0,-1,1399,1555,0,0
182,-531,0,0,0,0,0,0,0,0,0,-1,1406,1555,0,0
189,-531,0,0,0,0,0,0,0,0,0,-1,1413,1555,0,0
196,-531,0,0,0,0,0,0,0,0,0,-1,1420,1555,0,0
203,-531,0,0,0,0,0,0,0,0,0,-1,1427,1555,0,0
210,-531,0,0,0,0,0,0,0,0,0,-1,1434,1555,0,0
217,-531,0,0,0,0,0,0,0,0,0,-1,1441,1555,0,0
224,-531,0,0,0,0,0,0,0,0,0,-1,1448,1555,0,0
231,-531,0,0,0,0,0,0,0,0,0,-1,1455,1555,0,0
238,-531,0,0,0,0,0,0,0,0,0,-1,1462,1555,0,0
245,-531,0,0,0,0,0,0,0,0,0,-1,1469,1555,0,0
252,-531,0,0,0,0,0,0,0,0,0,-1,1476,1555,0,0
259,-531,0,0,0,0,0,0,0,0,0,-1,1483,1555,0,0
266,-531,0,0,0,0,0,0,0,0,0,-1,1490,1555,0,0
273,-531,0,0,0,0,0,0,0,0,0,-1,1497,1555,0,0
280,-531,0,0,0,0,0,0,0,0,0,-1,1504,1555,0,0
287,-531,0,0,0,0,0,0,0,0,0,-1,1511,1555,0,0
294,-531,0,0,0,0,0,0,0,0,0,-1,1518,1555,0,0
301,-531,0,0,0,0,0,0,0,0,0,-1,1525,1555,0,0
308,-531,0,0,0,0,0,0,0,0,0,-1,1532,1555,0,0
315,-531,0,0,0,0,0,0,0,0,0,-1,1539,1555,0,0
322,-531,0,0,0,0,0,0,0,0,0,-1,1546,1555,0,0
329,-531,0,0,0,0,0,0,0,0,0,-1,1553,1555,0,0
336,-531,0,0,0,0,0,0,0,0,0,-1,1560,1555,0,0
343,-531,0,0,0,0,0,0,0,0,0,-1,1567,1555,0,0
350,-531,0,0,0,0,0,0,0,0,0,-1,1574,1555,0,0
357,-531,0,0,0,0,0,0,0,0,0,-1,1581,1555,0,0
364,-531,0,0,0,0,0,0,0,0,0,-1,1588,1555,0,0
371,-531,0,0,0,0,0,0,0,0,0,-1,1595,1555,0,0
378,-531,0,0,0,0,0,0,0,0,0,-1,1602,1555,0,0
385,-531,3.48169,1.78625,0,0,0,0,0,0,0,-1,1609,1555,3.48165,-1.78624
392,-531,10.8781,9.09204,0,0,0,0,0,0,0,-1,1616,1555,10.8781,-9.09205
399,-531,8.26306,5.29602,0,0,0,0,0,0,0,-1,1623,1555,8.26302,-5.29607
406,-531,8.26147,5.42712,0,0,0,0,0,0,0,-1,1630,1555,8.26145,-5.42716
413,-531,8.20618,5.75012,0,0,0,0,0,0,0,-1,1637,1555,8.20619,-5.75017
420,-531,7.64868,7.09558,0,0,0,0,0,0,0,-1,1644,1555,7.64867,-7.09564
427,-531,9.93054,11.8412,0,0,0,0,0,0,0,-1,1651,1555,9.93059,-11.8412
434,-531,10.244,11.7072,0,0,0,0,0,0,0,-1,1658,1555,10.244,-11.7071
441,-531,11.4528,12.9397,0,0,0,0,0,0,0,-1,1665,1555,11.4528,-12.9397
448,-531,11.928,18.8029,0,0,0,0,0,0,0,-1,1672,1555,11.928,-18.8028
455,-531,14.4877,9.67065,0,0,0,0,0,0,0,-1,1679,1555,14.4876,-9.67066
462,-531,13.5253,12.2002,0,0,0,0,0,0,0,-1,1686,1555,13.5252,-12.2002
469,-531,15.5087,15.7894,0,0,0,0,0,0,0,-1,1693,1555,15.5086,-15.7895
476,-531,14.6582,16.2264,0,0,0,0,0,0,0,-1,1700,1555,14.6582,-16.2264
483,-531,14.755,18.5994,0,0,0,0,0,0,0,-1,1707,1555,14.7551,-18.5994
490,-531,15.4741,22.5215,0,0,0,0,0,0,0,-1,1714,1555,15.4741,-22.5214
497,-531,15.7551,21.7872,0,0,0,0,0,0,0,-1,1721,1555,15.7551,-21.7873
504,-531,15.8397,21.2054,0.00610226,0.00861619,-0.0050274,0.0125414,0.00217707,-0.907898,0.00773799,0.0277664,1728,1555,15.8397,-21.2055
511,-531,15.916,20.7367,0.0055482,0.00662118,-0.00452497,0.0106414,0.00152803,-0.844404,0.00664373,0.0149988,1735,1555,15.916,-20.7367
518,-531,15.9338,20.3054,0.00447029,0.00493225,-0.00347845,0.00818739,0.00121516,-0.818551,0.00510168,0.0139789,1742,1555,15.9338,-20.3055
525,-531,15.9352,19.8881,0.00325923,0.00347772,-0.00241369,0.00578464,0.000952317,-0.808013,0.00358144,0.0128306,1749,1555,15.9352,-19.8881
532,-531,15.9442,19.4686,0.00211469,0.00233787,-0.00139446,0.0036252,0.000827361,-0.825326,0.00219365,0.0101463,1756,1555,15.9443,-19.4686
539,-531,15.9242,19.0521,0.00121357,0.00134733,-0.000462425,0.00174768,0.000813211,-0.857216,0.00100984,0.0124439,1763,1555,15.9242,-19.0521
546,-531,15.9038,18.6255,0.000287562,0.000604706,0.000476298,0.000948135,-5.58678e-05,0.94609,0.000651511,0.0161201,1770,1555,15.9038,-18.6255
553,-531,15.9478,18.2756,-0.000517018,-8.41886e-05,0.00138361,0.00109983,-0.00170103,0.862976,0.00162945,0.0310173,1777,1555,15.9478,-18.2757
560,-531,15.8674,17.8995,-0.00106197,-0.000569356,0.00212989,0.00132842,-0.00295974,0.842964,0.00253479,0.0344575,1784,1555,15.8675,-17.8996
567,-531,15.8169,17.416,-0.00109417,-0.00113238,0.00268006,0.00156685,-0.00379341,0.781834,0.0031825,0.0192868,1791,1555,15.8169,-17.416
574,-531,15.8345,16.9788,-0.000205313,-0.00122995,0.00234362,0.00168133,-0.00311659,0.677791,0.00281109,0.0138156,1798,1555,15.8345,-16.9787
581,-531,15.8743,16.5293,0.00110523,-0.00119913,0.00181041,0.002099,-0.0021929,0.502014,0.00247812,0.0173013,1805,1555,15.8743,-16.5293
588,-531,15.936,16.0273,0.00317702,-0.00120135,0.000728927,0.00329518,-0.00131951,0.160711,0.00274448,0.0332006,1812,1555,15.9361,-16.0273
595,-531,15.9663,15.4396,0,0,0,0,0,0,0,-1,1819,1555,15.9663,-15.4396
602,-531,13.701,11.8346,0,0,0,0,0,0,0,-1,1826,1555,13.701,-11.8347
609,-531,10.9072,8.50903,0,0,0,0,0,0,0,-1,1833,1555,10.9073,-8.50902
616,-531,10.5723,7.17859,0,0,0,0,0,0,0,-1,1840,1555,10.5723,-7.17855
623,-531,10.0674,5.08984,0,0,0,0,0,0,0,-1,1847,1555,10.0674,-5.08981
630,-531,11.672,3.18909,0,0,0,0,0,0,0,-1,1854,1555,11.672,-3.18904
637,-531,13.2546,1.38965,0,0,0,0,0,0,0,-1,1861,1555,13.2547,-1.3896
644,-531,0,0,0,0,0,0,0,0,0,-1,1868,1555,0,0
651,-531,0,0,0,0,0,0,0,0,0,-1,1875,1555,0,0
658,-531,0,0,0,0,0,0,0,0,0,-1,1882,1555,0,0
665,-531,0,0,0,0,0,0,0,0,0,-1,1889,1555,0,0
672,-531,0,0,0,0,0,0,0,0,0,-1,1896,1555,0,0
679,-531,0,0,0,0,0,0,0,0,0,-1,1903,1555,0,0
686,-531,0,0,0,0,0,0,0,0,0,-1,1910,1555,0,0
693,-531,0,0,0,0,0,0,0,0,0,-1,1917,1555,0,0
700,-531,0,0,0,0,0,0,0,0,0,-1,1924,1555,0,0
707,-531,0,0,0,0,0,0,0,0,0,-1,1931,1555,0,0
714,-531,0,0,0,0,0,0,0,0,0,-1,1938,1555,0,0
721,-531,0,0,0,0,0,0,0,0,0,-1,1945,1555,0,0
728,-531,0,0,0,0,0,0,0,0,0,-1,1952,1555,0,0
735,-531,0,0,0,0,0,0,0,0,0,-1,1959,1555,0,0
742,-531,0,0,0,0,0,0,0,0,0,-1,1966,1555,0,0
749,-531,0,0,0,0,0,0,0,0,0,-1,1973,1555,0,0
756,-531,0,0,0,0,0,0,0,0,0,-1,1980,1555,0,0
763,-531,0,0,0,0,0,0,0,0,0,-1,1987,1555,0,0
770,-531,0,0,0,0,0,0,0,0,0,-1,1994,1555,0,0
777,-531,0,0,0,0,0,0,0,0,0,-1,2001,1555,0,0
784,-531,0,0,0,0,0,0,0,0,0,-1,2008,1555,0,0
791,-531,0,0,0,0,0,0,0,0,0,-1,2015,1555,0,0
798,-531,0,0,0,0,0,0,0,0,0,-1,2022,1555,0,0
805,-531,0,0,0,0,0,0,0,0,0,-1,2029,1555,0,0
812,-531,0,0,0,0,0,0,0,0,0,-1,2036,1555,0,0
-700,-538,0,0,0,0,0,0,0,0,0,-1,524,1562,0,0
-693,-538,0,0,0,0,0,0,0,0,0,-1,531,1562,0,0
-686,-538,0,0,0,0,0,0,0,0,0,-1,538,1562,0,0
-679,-538,0,0,0,0,0,0,0,0,0,-1,545,1562,0,0
-672,-538,0,0,0,0,0,0,0,0,0,-1,552,1562,0,0
-665,-538,0,0,0,0,0,0,0,0,0,-1,559,1562,0,0
-658,-538,0,0,0,0,0,0,0,0,0,-1,566,1562,0,0
-651,-538,0,0,0,0,0,0,0,0,0,-1,573,1562,0,0
-644,-538,0,0,0,0,0,0,0,0,0,-1,580,1562,0,0
-637,-538,0,0,0,0,0,0,0,0,0,-1,587,1562,0,0
-630,-538,0,0,0,0,0,0,0,0,0,-1,594,1562,0,0
-623,-538,0,0,0,0,0,0,0,0,0,-1,601,1562,0,0
-616,-538,0,0,0,0,0,0,0,0,0,-1,608,1562,0,0
-609,-538,0,0,0,0,0,0,0,0,0,-1,615,1562,0,0
-602,-538,0,0,0,0,0,0,0,0,0,-1,622,1562,0,0
-595,-538,0,0,0,0,0,0,0,0,0,-1,629,1562,0,0
-588,-538,0,0,0,0,0,0,0,0,0,-1,636,1562,0,0
-581,-538,0,0,0,0,0,0,0,0,0,-1,643,1562,0,0
-574,-538,0,0,0,0,0,0,0,0,0,-1,650,1562,0,0
-567,-538,0,0,0,0,0,0,0,0,0,-1,657,1562,0,0
-560,-538,0,0,0,0,0,0,0,0,0,-1,664,1562,0,0
-553,-538,0,0,0,0,0,0,0,0,0,-1,671,1562,0,0
-546,-538,0,0,0,0,0,0,0,0,0,-1,678,1562,0,0
-539,-538,0,0,0,0,0,0,0,0,0,-1,685,1562,0,0
-532,-538,0,0,0,0,0,0,0,0,0,-1,692,1562,0,0
-525,-538,0,0,0,0,0,0,0,0,0,-1,699,1562,0,0
-518,-538,0,0,0,0,0,0,0,0,0,-1,706,1562,0,0
-511,-538,-2.6582,-1.54321,0,0,0,0,0,0,0,-1,713,1562,-2.65821,1.54327
-504,-538,-2.66455,-0.71167,0,0,0,0,0,0,0,-1,720,1562,-2.66456,0.711667
-497,-538,-0.763855,6.77747,0,0,0,0,0,0,0,-1,727,1562,-0.76385,-6.77743
-490,-538,-2.70453,8.01465,0,0,0,0,0,0,0,-1,734,1562,-2.70451,-8.0147
-483,-538,-0.933533,7.84644,0,0,0,0,0,0,0,-1,741,1562,-0.933548,-7.84638
-476,-538,-1.89648,11.1104,0,0,0,0,0,0,0,-1,748,1562,-1.89646,-11.1104
-469,-538,-0.931702,13.5428,0,0,0,0,0,0,0,-1,755,1562,-0.931715,-13.5428
-462,-538,-1.02264,14.1628,0,0,0,0,0,0,0,-1,762,1562,-1.02267,-14.1629
-455,-538,-1.0011,14.6847,-0.00125154,0.00955335,0.00583024,0.0120994,-0.00379756,1.15906,0.0095862,0.038512,769,1562,-1.00112,-14.6847
-448,-538,-1.06281,15.2135,-0.00109879,0.00824364,0.00504802,0.0104501,-0.00330528,1.15872,0.00829111,0.0188422,776,1562,-1.06279,-15.2135
-441,-538,-1.1626,15.6843,-0.00091636,0.0067949,0.00415894,0.00861048,-0.00273194,1.15918,0.00683544,0.0205469,783,1562,-1.16263,-15.6843
-434,-538,-1.21606,16.0721,-0.000623095,0.00544759,0.00334684,0.0069305,-0.00210601,1.15371,0.00545946,0.0126448,790,1562,-1.21608,-16.0722
-427,-538,-1.23938,16.533,-0.000381035,0.00455553,0.00289119,0.00588875,-0.00171425,1.13872,0.00460487,0.0140862,797,1562,-1.23939,-16.533
-420,-538,-1.25488,16.9924,0.000168486,0.00391022,0.00249576,0.00515848,-0.00107978,1.10703,0.00384972,0.0181535,804,1562,-1.2549,-16.9925
-413,-538,-1.2619,17.426,0.000770498,0.00358445,0.00222499,0.00481,-0.000455049,1.06733,0.00336861,0.0174404,811,1562,-1.26191,-17.426
-406,-538,-1.24847,17.848,0.0012983,0.00369781,0.00229791,0.00509031,-9.4203e-05,1.02599,0.00342537,0.0131906,818,1562,-1.24849,-17.848
-399,-538,-1.25281,18.2917,0.00173041,0.00415877,0.00244394,0.00567352,0.000215652,1.01595,0.00371255,0.0125497,825,1562,-1.25279,-18.2918
-392,-538,-1.2619,18.7354,0.00206324,0.00542064,0.00239104,0.00666343,0.00082045,1.09146,0.00419563,0.0139618,832,1562,-1.26191,-18.7354
-385,-538,-1.31122,19.1908,0.00233224,0.00835625,0.00169321,0.00879955,0.00188894,1.31473,0.00534908,0.0118021,839,1562,-1.31123,-19.1908
-378,-538,-1.31805,19.6074,0.00212975,0.0127053,5.64431e-05,0.0127056,0.00212945,1.56546,0.00785739,0.00957635,846,1562,-1.31807,-19.6074
-371,-538,-1.32135,20.0159,0.000996734,0.018481,-0.00320266,0.0190492,0.000428556,-1.39521,0.0125591,0.01286,853,1562,-1.32136,-20.0158
-364,-538,-1.25934,20.5363,-0.000474104,0.0253856,-0.00715708,0.0272343,-0.00232278,-1.31802,0.0189779,0.0163934,860,1562,-1.25932,-20.5363
-357,-538,-1.24323,21.0587,-0.00238435,0.0334134,-0.0121443,0.0371445,-0.00611542,-1.27272,0.027033,0.0364998,867,1562,-1.24322,-21.0587
-350,-538,-1.60406,21.5841,-0.00491162,0.0429378,-0.0185009,0.0492567,-0.0112305,-1.24167,0.0371515,0.0449377,874,1562,-1.60404,-21.5841
-343,-538,-1.77753,22.1998,-0.00824827,0.0539076,-0.0264943,0.0636682,-0.0180089,-1.21782,0.0495516,0.0474261,881,1562,-1.77753,-22.1998
-336,-538,-1.77222,22.696,-0.012039,0.0659504,-0.0355162,0.0797003,-0.0257889,-1.20142,0.0635001,0.04634,888,1562,-1.77222,-22.6961
-329,-538,-1.71466,22.5756,-0.0159284,0.0784539,-0.0449269,0.0964197,-0.0338942,-1.19039,0.0780702,0.0481961,895,1562,-1.71465,-22.5756
-322,-538,-1.9845,22.4153,-0.019871,0.0913033,-0.0541928,0.113349,-0.0419163,-1.18445,0.0927506,0.0480243,902,1562,-1.98452,-22.4153
-315,-538,-2.25354,22.3262,-0.0238147,0.104545,-0.063149,0.130403,-0.0496729,-1.18214,0.107393,0.0442021,909,1562,-2.25351,-22.3262
-308,-538,-2.52136,21.9954,0,0,0,0,0,0,0,-1,916,1562,-2.52134,-21.9954
-301,-538,-0.452393,18.5101,0,0,0,0,0,0,0,-1,923,1562,-0.452367,-18.5102
-294,-538,1.23138,14.0757,0,0,0,0,0,0,0,-1,930,1562,1.23137,-14.0757
-287,-538,-2.60419,10.2361,0,0,0,0,0,0,0,-1,937,1562,-2.6042,-10.2361
-280,-538,-2.93475,10.5106,0,0,0,0,0,0,0,-1,944,1562,-2.93475,-10.5106
-273,-538,-3.26532,10.785,0,0,0,0,0,0,0,-1,951,1562,-3.26531,-10.785
-266,-538,-5.03412,15.9951,0,0,0,0,0,0,0,-1,958,1562,-5.03409,-15.9951
-259,-538,-5.89642,16.5184,0,0,0,0,0,0,0,-1,965,1562,-5.89644,-16.5184
-252,-538,0,0,0,0,0,0,0,0,0,-1,972,1562,0,0
-245,-538,0,0,0,0,0,0,0,0,0,-1,979,1562,0,0
-238,-538,0,0,0,0,0,0,0,0,0,-1,986,1562,0,0
-231,-538,0,0,0,0,0,0,0,0,0,-1,993,1562,0,0
-224,-538,0,0,0,0,0,0,0,0,0,-1,1000,1562,0,0
-217,-538,0,0,0,0,0,0,0,0,0,-1,1007,1562,0,0
-210,-538,0,0,0,0,0,0,0,0,0,-1,1014,1562,0,0
-203,-538,0,0,0,0,0,0,0,0,0,-1,1021,1562,0,0
-196,-538,0,0,0,0,0,0,0,0,0,-1,1028,1562,0,0
-189,-538,0,0,0,0,0,0,0,0,0,-1,1035,1562,0,0
-182,-538,0,0,0,0,0,0,0,0,0,-1,1042,1562,0,0
-175,-538,0,0,0,0,0,0,0,0,0,-1,1049,1562,0,0
-168,-538,0,0,0,0,0,0,0,0,0,-1,1056,1562,0,0
-161,-538,0,0,0,0,0,0,0,0,0,-1,1063,1562,0,0
-154,-538,0,0,0,0,0,0,0,0,0,-1,1070,1562,0,0
-147,-538,0,0,0,0,0,0,0,0,0,-1,1077,1562,0,0
-140,-538,0,0,0,0,0,0,0,0,0,-1,1084,1562,0,0
-133,-538,0,0,0,0,0,0,0,0,0,-1,1091,1562,0,0
-126,-538,0,0,0,0,0,0,0,0,0,-1,1098,1562,0,0
-119,-538,0,0,0,0,0,0,0,0,0,-1,1105,1562,0,0
-112,-538,0,0,0,0,0,0,0,0,0,-1,1112,1562,0,0
-105,-538,0,0,0,0,0,0,0,0,0,-1,1119,1562,0,0
-98,-538,0,0,0,0,0,0,0,0,0,-1,1126,1562,0,0
-91,-538,0,0,0,0,0,0,0,0,0,-1,1133,1562,0,0
-84,-538,0,0,0,0,0,0,0,0,0,-1,1140,1562,0,0
-77,-538,0,0,0,0,0,0,0,0,0,-1,1147,1562,0,0
-70,-538,0,0,0,0,0,0,0,0,0,-1,1154,1562,0,0
-63,-538,0,0,0,0,0,0,0,0,0,-1,1161,1562,0,0
-56,-538,0,0,0,0,0,0,0,0,0,-1,1168,1562,0,0
-49,-538,0,0,0,0,0,0,0,0,0,-1,1175,1562,0,0
-42,-538,0,0,0,0,0,0,0,0,0,-1,1182,1562,0,0
-35,-538,0,0,0,0,0,0,0,0,0,-1,1189,1562,0,0
-28,-538,0,0,0,0,0,0,0,0,0,-1,1196,1562,0,0
-21,-538,0,0,0,0,0,0,0,0,0,-1,1203,1562,0,0
-14,-538,0,0,0,0,0,0,0,0,0,-1,1210,1562,0,0
-7,-538,0,0,0,0,0,0,0,0,0,-1,1217,1562,0,0
0,-538,0,0,0,0,0,0,0,0,0,-1,1224,1562,0,0
7,-538,0,0,0,0,0,0,0,0,0,-1,1231,1562,0,0
14,-538,0,0,0,0,0,0,0,0,0,-1,1238,1562,0,0
21,-538,0,0,0,0,0,0,0,0,0,-1,1245,1562,0,0
28,-538,0,0,0,0,0,0,0,0,0,-1,1252,1562,0,0
35,-538,0,0,0,0,0,0,0,0,0,-1,1259,1562,0,0
42,-538,0,0,0,0,0,0,0,0,0,-1,1266,1562,0,0
49,-538,0,0,0,0,0,0,0,0,0,-1,1273,1562,0,0
56,-538,0,0,0,0,0,0,0,0,0,-1,1280,1562,0,0
63,-538,0,0,0,0,0,0,0,0,0,-1,1287,1562,0,0
70,-538,0,0,0,0,0,0,0,0,0,-1,1294,1562,0,0
77,-538,0,0,0,0,0,0,0,0,0,-1,1301,1562,0,0
84,-538,0,0,0,0,0,0,0,0,0,-1,1308,1562,0,0
91,-538,0,0,0,0,0,0,0,0,0,-1,1315,1562,0,0
98,-538,0,0,0,0,0,0,0,0,0,-1,1322,1562,0,0
105,-538,0,0,0,0,0,0,0,0,0,-1,1329,1562,0,0
112,-538,0,0,0,0,0,0,0,0,0,-1,1336,1562,0,0
119,-538,0,0,0,0,0,0,0,0,0,-1,1343,1562,0,0
126,-538,0,0,0,0,0,0,0,0,0,-1,1350,1562,0,0
133,-538,0,0,0,0,0,0,0,0,0,-1,1357,1562,0,0
140,-538,0,0,0,0,0,0,0,0,0,-1,1364,1562,0,0
147,-538,0,0,0,0,0,0,0,0,0,-1,1371,1562,0,0
154,-538,0,0,0,0,0,0,0,0,0,-1,1378,1562,0,0
161,-538,0,0,0,0,0,0,0,0,0,-1,1385,1562,0,0
168,-538,0,0,0,0,0,0,0,0,0,-1,1392,1562,0,0
175,-538,0,0,0,0,0,0,0,0,0,-1,1399,1562,0,0
182,-538,0,0,0,0,0,0,0,0,0,-1,1406,1562,0,0
189,-538,0,0,0,0,0,0,0,0,0,-1,1413,1562,0,0
196,-538,0,0,0,0,0,0,0,0,0,-1,1420,1562,0,0
203,-538,0,0,0,0,0,0,0,0,0,-1,1427,1562,0,0
210,-538,0,0,0,0,0,0,0,0,0,-1,1434,1562,0,0
217,-538,0,0,0,0,0,0,0,0,0,-1,1441,1562,0,0
224,-538,0,0,0,0,0,0,0,0,0,-1,1448,1562,0,0
231,-538,0,0,0,0,0,0,0,0,0,-1,1455,1562,0,0
238,-538,0,0,0,0,0,0,0,0,0,-1,1462,1562,0,0
245,-538,0,0,0,0,0,0,0,0,0,-1,1469,1562,0,0
252,-538,0,0,0,0,0,0,0,0,0,-1,1476,1562,0,0
259,-538,0,0,0,0,0,0,0,0,0,-1,1483,1562,0,0
266,-538,0,0,0,0,0,0,0,0,0,-1,1490,1562,0,0
273,-538,0,0,0,0,0,0,0,0,0,-1,1497,1562,0,0
280,-538,0,0,0,0,0,0,0,0,0,-1,1504,1562,0,0
287,-538,0,0,0,0,0,0,0,0,0,-1,1511,1562,0,0
294,-538,0,0,0,0,0,0,0,0,0,-1,1518,1562,0,0
301,-538,0,0,0,0,0,0,0,0,0,-1,1525,1562,0,0
308,-538,0,0,0,0,0,0,0,0,0,-1,1532,1562,0,0
315,-538,0,0,0,0,0,0,0,0,0,-1,1539,1562,0,0
322,-538,0,0,0,0,0,0,0,0,0,-1,1546,1562,0,0
329,-538,0,0,0,0,0,0,0,0,0,-1,1553,1562,0,0
336,-538,0,0,0,0,0,0,0,0,0,-1,1560,1562,0,0
343,-538,0,0,0,0,0,0,0,0,0,-1,1567,1562,0,0
350,-538,0,0,0,0,0,0,0,0,0,-1,1574,1562,0,0
357,-538,0,0,0,0,0,0,0,0,0,-1,1581,1562,0,0
364,-538,0,0,0,0,0,0,0,0,0,-1,1588,1562,0,0
371,-538,0,0,0,0,0,0,0,0,0,-1,1595,1562,0,0
378,-538,9.65479,5.82434,0,0,0,0,0,0,0,-1,1602,1562,9.6548,-5.82439
385,-538,10.5449,7.9502,0,0,0,0,0,0,0,-1,1609,1562,10.5449,-7.95014
392,-538,8.20361,7.07214,0,0,0,0,0,0,0,-1,1616,1562,8.20362,-7.07211
399,-538,7.85425,4.70508,0,0,0,0,0,0,0,-1,1623,1562,7.85425,-4.70512
406,-538,7.77734,4.96094,0,0,0,0,0,0,0,-1,1630,1562,7.77729,-4.96097
413,-538,13.0446,13.1765,0,0,0,0,0,0,0,-1,1637,1562,13.0446,-13.1765
420,-538,9.96216,12.7653,0,0,0,0,0,0,0,-1,1644,1562,9.96221,-12.7653
427,-538,10.1732,14.5863,0,0,0,0,0,0,0,-1,1651,1562,10.1732,-14.5863
434,-538,9.64331,14.7745,0,0,0,0,0,0,0,-1,1658,1562,9.64326,-14.7746
441,-538,11.5039,20.5195,0,0,0,0,0,0,0,-1,1665,1562,11.5039,-20.5195
448,-538,12.8766,22.4932,0,0,0,0,0,0,0,-1,1672,1562,12.8766,-22.4932
455,-538,12.5693,17.4128,0,0,0,0,0,0,0,-1,1679,1562,12.5694,-17.4128
462,-538,12.1389,17.017,0,0,0,0,0,0,0,-1,1686,1562,12.1389,-17.017
469,-538,14.3802,16.6945,0,0,0,0,0,0,0,-1,1693,1562,14.3803,-16.6945
476,-538,13.724,19.0608,0,0,0,0,0,0,0,-1,1700,1562,13.724,-19.0608
483,-538,15.4834,22.4271,0,0,0,0,0,0,0,-1,1707,1562,15.4834,-22.4271
490,-538,15.4061,21.9124,0.0054271,0.0125007,-0.00569101,0.0156644,0.0022634,-1.06343,0.00977617,0.0401004,1714,1562,15.4062,-21.9123
497,-538,15.4507,21.6106,0.00526027,0.00973058,-0.00477436,0.0127671,0.00222376,-1.00432,0.0078755,0.0283221,1721,1562,15.4507,-21.6106
504,-538,15.5356,21.0961,0.00498702,0.00751534,-0.00411348,0.0105545,0.00194783,-0.934478,0.00648532,0.0133166,1728,1562,15.5356,-21.0961
511,-538,15.5206,20.6938,0.00441482,0.00569776,-0.00354143,0.00865534,0.00145724,-0.874993,0.00535104,0.00906507,1735,1562,15.5206,-20.6938
518,-538,15.5161,20.2827,0.0033999,0.00411599,-0.00254927,0.00633224,0.00118366,-0.855167,0.00388748,0.0100457,1742,1562,15.5161,-20.2827
525,-538,15.5078,19.8719,0.00224722,0.00274637,-0.00150473,0.00402208,0.000971501,-0.86758,0.00242336,0.0117643,1749,1562,15.5079,-19.872
532,-538,15.5195,19.4692,0.00110929,0.00165109,-0.000459742,0.00191381,0.000846569,-1.05164,0.00110739,0.0131563,1756,1562,15.5196,-19.4692
539,-538,15.5066,19.0798,0.000143578,0.000669108,0.000562512,0.0010272,-0.000214515,1.0039,0.00076638,0.015996,1763,1562,15.5065,-19.0798
546,-538,15.4799,18.6499,-0.000950642,-0.000125623,0.00168906,0.00120057,-0.00227684,0.905166,0.00203949,0.0170694,1770,1562,15.4799,-18.6499
553,-538,15.5443,18.2069,-0.00197943,-0.000879607,0.0028537,0.00147669,-0.00433572,0.880582,0.0034885,0.0265094,1777,1562,15.5444,-18.2069
560,-538,15.4762,17.8539,-0.00277499,-0.00144275,0.00389461,0.0018423,-0.00606003,0.870097,0.00477412,0.0287311,1784,1562,15.4762,-17.8539
567,-538,15.3811,17.4525,-0.00307506,-0.00209125,0.00477143,0.00221356,-0.00737987,0.836763,0.00580031,0.021686,1791,1562,15.3811,-17.4525
574,-538,15.3732,16.9968,-0.00241179,-0.00230887,0.00476736,0.00240731,-0.00712798,0.790795,0.00572567,0.0215849,1798,1562,15.3732,-16.9968
581,-538,15.4413,16.5525,-0.00114873,-0.00227422,0.00446903,0.00279285,-0.0062158,0.722767,0.00532483,0.0283904,1805,1562,15.4413,-16.5525
588,-538,15.4374,16.124,0.00101418,-0.00233346,0.00357618,0.00328887,-0.00460815,0.566518,0.00458051,0.0498838,1812,1562,15.4374,-16.1241
595,-538,15.4939,15.5507,0,0,0,0,0,0,0,-1,1819,1562,15.4939,-15.5507
602,-538,10.314,8.94238,0,0,0,0,0,0,0,-1,1826,1562,10.314,-8.94238
609,-538,10.1046,7.05713,0,0,0,0,0,0,0,-1,1833,1562,10.1046,-7.05719
616,-538,9.92249,5.43506,0,0,0,0,0,0,0,-1,1840,1562,9.92254,-5.43507
623,-538,11.1711,4.31604,0,0,0,0,0,0,0,-1,1847,1562,11.1711,-4.316
630,-538,12.6112,2.61633,0,0,0,0,0,0,0,-1,1854,1562,12.6112,-2.61637
637,-538,0,0,0,0,0,0,0,0,0,-1,1861,1562,0,0
644,-538,0,0,0,0,0,0,0,0,0,-1,1868,1562,0,0
651,-538,0,0,0,0,0,0,0,0,0,-1,1875,1562,0,0
658,-538,0,0,0,0,0,0,0,0,0,-1,1882,1562,0,0
665,-538,0,0,0,0,0,0,0,0,0,-1,1889,1562,0,0
672,-538,0,0,0,0,0,0,0,0,0,-1,1896,1562,0,0
679,-538,0,0,0,0,0,0,0,0,0,-1,1903,1562,0,0
686,-538,0,0,0,0,0,0,0,0,0,-1,1910,1562,0,0
693,-538,0,0,0,0,0,0,0,0,0,-1,1917,1562,0,0
700,-538,0,0,0,0,0,0,0,0,0,-1,1924,1562,0,0
707,-538,0,0,0,0,0,0,0,0,0,-1,1931,1562,0,0
714,-538,0,0,0,0,0,0,0,0,0,-1,1938,1562,0,0
721,-538,0,0,0,0,0,0,0,0,0,-1,1945,1562,0,0
728,-538,0,0,0,0,0,0,0,0,0,-1,1952,1562,0,0
735,-538,0,0,0,0,0,0,0,0,0,-1,1959,1562,0,0
742,-538,0,0,0,0,0,0,0,0,0,-1,1966,1562,0,0
749,-538,0,0,0,0,0,0,0,0,0,-1,1973,1562,0,0
756,-538,0,0,0,0,0,0,0,0,0,-1,1980,1562,0,0
763,-538,0,0,0,0,0,0,0,0,0,-1,1987,1562,0,0
770,-538,0,0,0,0,0,0,0,0,0,-1,1994,1562,0,0
777,-538,0,0,0,0,0,0,0,0,0,-1,2001,1562,0,0
784,-538,0,0,0,0,0,0,0,0,0,-1,2008,1562,0,0
791,-538,0,0,0,0,0,0,0,0,0,-1,2015,1562,0,0
798,-538,0,0,0,0,0,0,0,0,0,-1,2022,1562,0,0
805,-538,0,0,0,0,0,0,0,0,0,-1,2029,1562,0,0
812,-538,0,0,0,0,0,0,0,0,0,-1,2036,1562,0,0
-700,-545,0,0,0,0,0,0,0,0,0,-1,524,1569,0,0
-693,-545,0,0,0,0,0,0,0,0,0,-1,531,1569,0,0
-686,-545,0,0,0,0,0,0,0,0,0,-1,538,1569,0,0
-679,-545,0,0,0,0,0,0,0,0,0,-1,545,1569,0,0
-672,-545,0,0,0,0,0,0,0,0,0,-1,552,1569,0,0
-665,-545,0,0,0,0,0,0,0,0,0,-1,559,1569,0,0
-658,-545,0,0,0,0,0,0,0,0,0,-1,566,1569,0,0
-651,-545,0,0,0,0,0,0,0,0,0,-1,573,1569,0,0
-644,-545,0,0,0,0,0,0,0,0,0,-1,580,1569,0,0
-637,-545,0,0,0,0,0,0,0,0,0,-1,587,1569,0,0
-630,-545,0,0,0,0,0,0,0,0,0,-1,594,1569,0,0
-623,-545,0,0,0,0,0,0,0,0,0,-1,601,1569,0,0
-616,-545,0,0,0,0,0,0,0,0,0,-1,608,1569,0,0
-609,-545,0,0,0,0,0,0,0,0,0,-1,615,1569,0,0
-602,-545,0,0,0,0,0,0,0,0,0,-1,622,1569,0,0
-595,-545,0,0,0,0,0,0,0,0,0,-1,629,1569,0,0
-588,-545,0,0,0,0,0,0,0,0,0,-1,636,1569,0,0
-581,-545,0,0,0,0,0,0,0,0,0,-1,643,1569,0,0
-574,-545,0,0,0,0,0,0,0,0,0,-1,650,1569,0,0
-567,-545,0,0,0,0,0,0,0,0,0,-1,657,1569,0,0
-560,-545,0,0,0,0,0,0,0,0,0,-1,664,1569,0,0
-553,-545,0,0,0,0,0,0,0,0,0,-1,671,1569,0,0
-546,-545,0,0,0,0,0,0,0,0,0,-1,678,1569,0,0
-539,-545,0,0,0,0,0,0,0,0,0,-1,685,1569,0,0
-532,-545,0,0,0,0,0,0,0,0,0,-1,692,1569,0,0
-525,-545,0,0,0,0,0,0,0,0,0,-1,699,1569,0,0
-518,-545,0,0,0,0,0,0,0,0,0,-1,706,1569,0,0
-511,-545,0,0,0,0,0,0,0,0,0,-1,713,1569,0,0
-504,-545,-3.55237,-2.5354,0,0,0,0,0,0,0,-1,720,1569,-3.55236,2.53545
-497,-545,2.26575,5.69214,0,0,0,0,0,0,0,-1,727,1569,2.26573,-5.6922
-490,-545,-2.17334,7.81396,0,0,0,0,0,0,0,-1,734,1569,-2.17334,-7.81399
-483,-545,-1.88336,5.8446,0,0,0,0,0,0,0,-1,741,1569,-1.88334,-5.84466
-476,-545,-1.13147,6.5741,0,0,0,0,0,0,0,-1,748,1569,-1.13149,-6.57405
-469,-545,-1.47662,10.9404,0,0,0,0,0,0,0,-1,755,1569,-1.47659,-10.9405
-462,-545,-0.369446,13.6357,0,0,0,0,0,0,0,-1,762,1569,-0.369433,-13.6357
-455,-545,-0.472778,14.3718,6.12236e-05,0.0161427,0.0105452,0.021363,-0.0051591,1.11112,0.0162373,0.043671,769,1569,-0.472788,-14.3719
-448,-545,-0.563354,15.0867,-0.000309044,0.0131145,0.0084267,0.0171757,-0.00437025,1.1217,0.0131515,0.0299546,776,1569,-0.56337,-15.0866
-441,-545,-0.652344,15.7662,-0.000653727,0.0102122,0.00647505,0.0132316,-0.00367319,1.13445,0.0102669,0.0242387,783,1569,-0.652367,-15.7663
-434,-545,-0.81543,16.1295,-0.000761984,0.00768519,0.00481764,0.00986851,-0.00294529,1.14529,0.00774963,0.0214291,790,1569,-0.815417,-16.1296
-427,-545,-0.809143,16.556,-0.000806671,0.00584685,0.00371161,0.0075044,-0.00246422,1.15079,0.00599559,0.0202636,797,1569,-0.809139,-16.556
-420,-545,-0.783325,16.9764,-0.00046941,0.00454794,0.00282327,0.00581607,-0.00173755,1.14863,0.00456808,0.0256278,804,1569,-0.783333,-16.9765
-413,-545,-0.784851,17.399,-4.22406e-05,0.00368613,0.00216425,0.00467837,-0.00103448,1.14092,0.00351486,0.0236467,811,1569,-0.784858,-17.3991
-406,-545,-0.794678,17.8481,0.000373211,0.00332864,0.00191338,0.0042685,-0.000566651,1.11421,0.00305213,0.0172143,818,1569,-0.794687,-17.8481
-399,-545,-0.792419,18.2854,0.000771501,0.00326455,0.00181618,0.00422082,-0.000184774,1.08615,0.00287745,0.0113263,825,1569,-0.792445,-18.2854
-392,-545,-0.813049,18.7256,0.0010288,0.00383989,0.00149943,0.00448954,0.000379143,1.16194,0.00287499,0.0110811,832,1569,-0.813053,-18.7256
-385,-545,-0.848999,19.1797,0.00133932,0.00604143,0.000958219,0.00622921,0.00115155,1.37729,0.00382715,0.00961747,839,1569,-0.849018,-19.1797
-378,-545,-0.880188,19.6178,0.00136696,0.00931236,-0.00019629,0.00931721,0.00136211,-1.54611,0.0058109,0.011508,846,1569,-0.880174,-19.6178
-371,-545,-0.88678,20.0638,0.000689599,0.0136658,-0.00259904,0.014167,0.000188389,-1.38029,0.00938249,0.0147018,853,1569,-0.886754,-20.0638
-364,-545,-0.884644,20.467,-0.000268937,0.018988,-0.00557093,0.0204835,-0.00176444,-1.30853,0.0142802,0.0101627,860,1569,-0.884668,-20.4671
-357,-545,-0.817871,20.97,-0.00150247,0.0250978,-0.0092944,0.0280236,-0.00442822,-1.26583,0.0203199,0.0161544,867,1569,-0.817884,-20.97
-350,-545,-0.789734,21.4746,-0.0031482,0.0322922,-0.0139712,0.0371374,-0.00799346,-1.23697,0.0278084,0.024117,874,1569,-0.789764,-21.4746
-343,-545,-0.849182,21.8666,-0.00528887,0.0405105,-0.019697,0.0478162,-0.0125946,-1.21562,0.0368012,0.0354863,881,1569,-0.849171,-21.8666
-336,-545,-0.848633,21.799,-0.00783478,0.0498095,-0.0262488,0.0599709,-0.0179962,-1.20144,0.0471387,0.0473636,888,1569,-0.848641,-21.7989
-329,-545,-0.740845,21.635,0,0,0,0,0,0,0,-1,895,1569,-0.74083,-21.635
-322,-545,-0.992737,21.5034,0,0,0,0,0,0,0,-1,902,1569,-0.992735,-21.5034
-315,-545,-1.29688,21.5935,0,0,0,0,0,0,0,-1,909,1569,-1.2969,-21.5935
-308,-545,-1.54358,21.4457,0,0,0,0,0,0,0,-1,916,1569,-1.54357,-21.4457
-301,-545,1.52191,17.5009,0,0,0,0,0,0,0,-1,923,1569,1.52192,-17.5008
-294,-545,-2.69287,8.42102,0,0,0,0,0,0,0,-1,930,1569,-2.69287,-8.42097
-287,-545,-3.47784,9.96021,0,0,0,0,0,0,0,-1,937,1569,-3.47785,-9.96021
-280,-545,-3.7879,10.5448,0,0,0,0,0,0,0,-1,944,1569,-3.78793,-10.5448
-273,-545,-5.10333,12.864,0,0,0,0,0,0,0,-1,951,1569,-5.10331,-12.864
-266,-545,-5.78955,13.3704,0,0,0,0,0,0,0,-1,958,1569,-5.78952,-13.3703
-259,-545,-6.32184,13.8101,0,0,0,0,0,0,0,-1,965,1569,-6.32182,-13.81
-252,-545,0.369263,7.54053,0,0,0,0,0,0,0,-1,972,1569,0.369276,-7.54056
-245,-545,-0.236633,6.65564,0,0,0,0,0,0,0,-1,979,1569,-0.236605,-6.65566
-238,-545,0,0,0,0,0,0,0,0,0,-1,986,1569,0,0
-231,-545,0,0,0,0,0,0,0,0,0,-1,993,1569,0,0
-224,-545,0,0,0,0,0,0,0,0,0,-1,1000,1569,0,0
-217,-545,0,0,0,0,0,0,0,0,0,-1,1007,1569,0,0
-210,-545,0,0,0,0,0,0,0,0,0,-1,1014,1569,0,0
-203,-545,0,0,0,0,0,0,0,0,0,-1,1021,1569,0,0
-196,-545,0,0,0,0,0,0,0,0,0,-1,1028,1569,0,0
-189,-545,0,0,0,0,0,0,0,0,0,-1,1035,1569,0,0
-182,-545,0,0,0,0,0,0,0,0,0,-1,1042,1569,0,0
-175,-545,0,0,0,0,0,0,0,0,0,-1,1049,1569,0,0
-168,-545,0,0,0,0,0,0,0,0,0,-1,1056,1569,0,0
-161,-545,0,0,0,0,0,0,0,0,0,-1,1063,1569,0,0
-154,-545,0,0,0,0,0,0,0,0,0,-1,1070,1569,0,0
-147,-545,0,0,0,0,0,0,0,0,0,-1,1077,1569,0,0
-140,-545,0,0,0,0,0,0,0,0,0,-1,1084,1569,0,0
-133,-545,0,0,0,0,0,0,0,0,0,-1,1091,1569,0,0
-126,-545,0,0,0,0,0,0,0,0,0,-1,1098,1569,0,0
-119,-545,0,0,0,0,0,0,0,0,0,-1,1105,1569,0,0
-112,-545,0,0,0,0,0,0,0,0,0,-1,1112,1569,0,0
-105,-545,0,0,0,0,0,0,0,0,0,-1,1119,1569,0,0
-98,-545,0,0,0,0,0,0,0,0,0,-1,1126,1569,0,0
-91,-545,0,0,0,0,0,0,0,0,0,-1,1133,1569,0,0
-84,-545,0,0,0,0,0,0,0,0,0,-1,1140,1569,0,0
-77,-545,0,0,0,0,0,0,0,0,0,-1,1147,1569,0,0
-70,-545,0,0,0,0,0,0,0,0,0,-1,1154,1569,0,0
-63,-545,0,0,0,0,0,0,0,0,0,-1,1161,1569,0,0
-56,-545,0,0,0,0,0,0,0,0,0,-1,1168,1569,0,0
-49,-545,0,0,0,0,0,0,0,0,0,-1,1175,1569,0,0
-42,-545,0,0,0,0,0,0,0,0,0,-1,1182,1569,0,0
-35,-545,0,0,0,0,0,0,0,0,0,-1,1189,1569,0,0
-28,-545,0,0,0,0,0,0,0,0,0,-1,1196,1569,0,0
-21,-545,0,0,0,0,0,0,0,0,0,-1,1203,1569,0,0
-14,-545,0,0,0,0,0,0,0,0,0,-1,1210,1569,0,0
-7,-545,0,0,0,0,0,0,0,0,0,-1,1217,1569,0,0
0,-545,0,0,0,0,0,0,0,0,0,-1,1224,1569,0,0
7,-545,0,0,0,0,0,0,0,0,0,-1,1231,1569,0,0
14,-545,0,0,0,0,0,0,0,0,0,-1,1238,1569,0,0
21,-545,0,0,0,0,0,0,0,0,0,-1,1245,1569,0,0
28,-545,0,0,0,0,0,0,0,0,0,-1,1252,1569,0,0
35,-545,0,0,0,0,0,0,0,0,0,-1,1259,1569,0,0
42,-545,0,0,0,0,0,0,0,0,0,-1,1266,1569,0,0
49,-545,0,0,0,0,0,0,0,0,0,-1,1273,1569,0,0
56,-545,0,0,0,0,0,0,0,0,0,-1,1280,1569,0,0
63,-545,0,0,0,0,0,0,0,0,0,-1,1287,1569,0,0
70,-545,0,0,0,0,0,0,0,0,0,-1,1294,1569,0,0
77,-545,0,0,0,0,0,0,0,0,0,-1,1301,1569,0,0
84,-545,0,0,0,0,0,0,0,0,0,-1,1308,1569,0,0
91,-545,0,0,0,0,0,0,0,0,0,-1,1315,1569,0,0
98,-545,0,0,0,0,0,0,0,0,0,-1,1322,1569,0,0
105,-545,0,0,0,0,0,0,0,0,0,-1,1329,1569,0,0
112,-545,0,0,0,0,0,0,0,0,0,-1,1336,1569,0,0
119,-545,0,0,0,0,0,0,0,0,0,-1,1343,1569,0,0
126,-545,0,0,0,0,0,0,0,0,0,-1,1350,1569,0,0
133,-545,0,0,0,0,0,0,0,0,0,-1,1357,1569,0,0
140,-545,0,0,0,0,0,0,0,0,0,-1,1364,1569,0,0
147,-545,0,0,0,0,0,0,0,0,0,-1,1371,1569,0,0
154,-545,0,0,0,0,0,0,0,0,0,-1,1378,1569,0,0
161,-545,0,0,0,0,0,0,0,0,0,-1,1385,1569,0,0
168,-545,0,0,0,0,0,0,0,0,0,-1,1392,1569,0,0
175,-545,0,0,0,0,0,0,0,0,0,-1,1399,1569,0,0
182,-545,0,0,0,0,0,0,0,0,0,-1,1406,1569,0,0
189,-545,0,0,0,0,0,0,0,0,0,-1,1413,1569,0,0
196,-545,0,0,0,0,0,0,0,0,0,-1,1420,1569,0,0
203,-545,0,0,0,0,0,0,0,0,0,-1,1427,1569,0,0
210,-545,0,0,0,0,0,0,0,0,0,-1,1434,1569,0,0
217,-545,0,0,0,0,0,0,0,0,0,-1,1441,1569,0,0
224,-545,0,0,0,0,0,0,0,0,0,-1,1448,1569,0,0
231,-545,0,0,0,0,0,0,0,0,0,-1,1455,1569,0,0
238,-545,0,0,0,0,0,0,0,0,0,-1,1462,1569,0,0
245,-545,0,0,0,0,0,0,0,0,0,-1,1469,1569,0,0
252,-545,0,0,0,0,0,0,0,0,0,-1,1476,1569,0,0
259,-545,0,0,0,0,0,0,0,0,0,-1,1483,1569,0,0
266,-545,0,0,0,0,0,0,0,0,0,-1,1490,1569,0,0
273,-545,0,0,0,0,0,0,0,0,0,-1,1497,1569,0,0
280,-545,0,0,0,0,0,0,0,0,0,-1,1504,1569,0,0
287,-545,0,0,0,0,0,0,0,0,0,-1,1511,1569,0,0
294,-545,0,0,0,0,0,0,0,0,0,-1,1518,1569,0,0
301,-545,0,0,0,0,0,0,0,0,0,-1,1525,1569,0,0
308,-545,0,0,0,0,0,0,0,0,0,-1,1532,1569,0,0
315,-545,0,0,0,0,0,0,0,0,0,-1,1539,1569,0,0
322,-545,0,0,0,0,0,0,0,0,0,-1,1546,1569,0,0
329,-545,0,0,0,0,0,0,0,0,0,-1,1553,1569,0,0
336,-545,0,0,0,0,0,0,0,0,0,-1,1560,1569,0,0
343,-545,0,0,0,0,0,0,0,0,0,-1,1567,1569,0,0
350,-545,0,0,0,0,0,0,0,0,0,-1,1574,1569,0,0
357,-545,0,0,0,0,0,0,0,0,0,-1,1581,1569,0,0
364,-545,7.19495,4.88098,0,0,0,0,0,0,0,-1,1588,1569,7.19497,-4.88095
371,-545,7.82324,3.84302,0,0,0,0,0,0,0,-1,1595,1569,7.82324,-3.84307
378,-545,7.65674,5.52673,0,0,0,0,0,0,0,-1,1602,1569,7.6567,-5.52667
385,-545,8.58447,1.16125,0,0,0,0,0,0,0,-1,1609,1569,8.5845,-1.1612
392,-545,12.5654,3.89526,0,0,0,0,0,0,0,-1,1616,1569,12.5655,-3.89532
399,-545,11.5869,5.6333,0,0,0,0,0,0,0,-1,1623,1569,11.5869,-5.63326
406,-545,11.234,6.36414,0,0,0,0,0,0,0,-1,1630,1569,11.234,-6.3641
413,-545,12.1521,13.4817,0,0,0,0,0,0,0,-1,1637,1569,12.1521,-13.4817
420,-545,11.1954,13.6047,0,0,0,0,0,0,0,-1,1644,1569,11.1954,-13.6047
427,-545,9.61072,14.9135,0,0,0,0,0,0,0,-1,1651,1569,9.61076,-14.9134
434,-545,13.1598,23.9921,0,0,0,0,0,0,0,-1,1658,1569,13.1598,-23.992
441,-545,12.2833,22.2238,0,0,0,0,0,0,0,-1,1665,1569,12.2833,-22.2237
448,-545,13.0082,21.941,0,0,0,0,0,0,0,-1,1672,1569,13.0082,-21.941
455,-545,13.733,21.6583,0,0,0,0,0,0,0,-1,1679,1569,13.733,-21.6583
462,-545,12.449,20.7413,0,0,0,0,0,0,0,-1,1686,1569,12.4489,-20.7413
469,-545,12.7837,17.7919,0,0,0,0,0,0,0,-1,1693,1569,12.7837,-17.7919
476,-545,15.0416,23.1802,0,0,0,0,0,0,0,-1,1700,1569,15.0416,-23.1802
483,-545,15.2069,22.3722,0.00455701,0.013302,-0.00558449,0.0160221,0.00183688,-1.11753,0.0101248,0.0435789,1707,1569,15.207,-22.3722
490,-545,15.079,21.947,0.00433002,0.0103774,-0.00454511,0.0128127,0.0018947,-1.07891,0.00798553,0.0234799,1714,1569,15.0789,-21.947
497,-545,15.0858,21.5408,0.0042181,0.00791703,-0.00382146,0.010313,0.00182209,-1.01077,0.00635566,0.0207484,1721,1569,15.0858,-21.5407
504,-545,15.1768,21.1237,0.00389063,0.00592884,-0.00314976,0.00822026,0.00159922,-0.941858,0.00503253,0.0154116,1728,1569,15.1768,-21.1237
511,-545,15.1498,20.6937,0.00321919,0.0043159,-0.00245634,0.00628435,0.00125074,-0.895218,0.00384114,0.0112546,1735,1569,15.1497,-20.6937
518,-545,15.1307,20.283,0.00220924,0.00286704,-0.00147956,0.00405382,0.00102246,-0.894767,0.00243438,0.0123561,1742,1569,15.1307,-20.283
525,-545,15.1014,19.87,0.00104076,0.00161776,-0.000409833,0.00183046,0.000828068,-1.09208,0.00105841,0.0133934,1749,1569,15.1014,-19.87
532,-545,15.0824,19.4752,-0.00016957,0.000613238,0.000717059,0.00103876,-0.000595094,1.03522,0.000954829,0.0142497,1756,1569,15.0824,-19.4752
539,-545,15.0842,19.0734,-0.00129395,-0.000300084,0.00190004,0.00116693,-0.00276096,0.913302,0.00232919,0.0168504,1763,1569,15.0843,-19.0734
546,-545,15.0448,18.6593,-0.00264399,-0.00107968,0.00329299,0.00152277,-0.00524644,0.901998,0.00410057,0.0179256,1770,1569,15.0448,-18.6593
553,-545,15.0764,18.2274,-0.00398832,-0.00181065,0.0047993,0.00202179,-0.00782075,0.896947,0.00600236,0.0249248,1777,1569,15.0765,-18.2274
560,-545,15.0801,17.785,-0.00516,-0.00236512,0.00624085,0.00263283,-0.010158,0.895541,0.00779914,0.0259066,1784,1569,15.0801,-17.785
567,-545,15.0724,17.3677,0,0,0,0,0,0,0,-1,1791,1569,15.0724,-17.3676
574,-545,15.0664,16.8627,0,0,0,0,0,0,0,-1,1798,1569,15.0664,-16.8627
581,-545,15.1022,16.4404,0,0,0,0,0,0,0,-1,1805,1569,15.1022,-16.4405
588,-545,15.0491,16.1117,0,0,0,0,0,0,0,-1,1812,1569,15.049,-16.1117
595,-545,10.2859,9.11218,0,0,0,0,0,0,0,-1,1819,1569,10.2858,-9.11215
602,-545,8.82117,6.32214,0,0,0,0,0,0,0,-1,1826,1569,8.82121,-6.32217
609,-545,10.2406,5.22351,0,0,0,0,0,0,0,-1,1833,1569,10.2406,-5.22353
616,-545,11.701,3.93188,0,0,0,0,0,0,0,-1,1840,1569,11.701,-3.93191
623,-545,13.2139,2.32043,0,0,0,0,0,0,0,-1,1847,1569,13.2139,-2.32042
630,-545,0,0,0,0,0,0,0,0,0,-1,1854,1569,0,0
637,-545,0,0,0,0,0,0,0,0,0,-1,1861,1569,0,0
644,-545,0,0,0,0,0,0,0,0,0,-1,1868,1569,0,0
651,-545,0,0,0,0,0,0,0,0,0,-1,1875,1569,0,0
658,-545,0,0,0,0,0,0,0,0,0,-1,1882,1569,0,0
665,-545,0,0,0,0,0,0,0,0,0,-1,1889,1569,0,0
672,-545,0,0,0,0,0,0,0,0,0,-1,1896,1569,0,0
679,-545,0,0,0,0,0,0,0,0,0,-1,1903,1569,0,0
686,-545,0,0,0,0,0,0,0,0,0,-1,1910,1569,0,0
693,-545,0,0,0,0,0,0,0,0,0,-1,1917,1569,0,0
700,-545,0,0,0,0,0,0,0,0,0,-1,1924,1569,0,0
707,-545,0,0,0,0,0,0,0,0,0,-1,1931,1569,0,0
714,-545,0,0,0,0,0,0,0,0,0,-1,1938,1569,0,0
721,-545,0,0,0,0,0,0,0,0,0,-1,1945,1569,0,0
728,-545,0,0,0,0,0,0,0,0,0,-1,1952,1569,0,0
735,-545,0,0,0,0,0,0,0,0,0,-1,1959,1569,0,0
742,-545,0,0,0,0,0,0,0,0,0,-1,1966,1569,0,0
749,-545,0,0,0,0,0,0,0,0,0,-1,1973,1569,0,0
756,-545,0,0,0,0,0,0,0,0,0,-1,1980,1569,0,0
763,-545,0,0,0,0,0,0,0,0,0,-1,1987,1569,0,0
770,-545,0,0,0,0,0,0,0,0,0,-1,1994,1569,0,0
777,-545,0,0,0,0,0,0,0,0,0,-1,2001,1569,0,0
784,-545,0,0,0,0,0,0,0,0,0,-1,2008,1569,0,0
791,-545,0,0,0,0,0,0,0,0,0,-1,2015,1569,0,0
798,-545,0,0,0,0,0,0,0,0,0,-1,2022,1569,0,0
805,-545,0,0,0,0,0,0,0,0,0,-1,2029,1569,0,0
812,-545,0,0,0,0,0,0,0,0,0,-1,2036,1569,0,0
-700,-552,0,0,0,0,0,0,0,0,0,-1,524,1576,0,0
-693,-552,0,0,0,0,0,0,0,0,0,-1,531,1576,0,0
-686,-552,0,0,0,0,0,0,0,0,0,-1,538,1576,0,0
-679,-552,0,0,0,0,0,0,0,0,0,-1,545,1576,0,0
-672,-552,0,0,0,0,0,0,0,0,0,-1,552,1576,0,0
-665,-552,0,0,0,0,0,0,0,0,0,-1,559,1576,0,0
-658,-552,0,0,0,0,0,0,0,0,0,-1,566,1576,0,0
-651,-552,0,0,0,0,0,0,0,0,0,-1,573,1576,0,0
-644,-552,0,0,0,0,0,0,0,0,0,-1,580,1576,0,0
-637,-552,0,0,0,0,0,0,0,0,0,-1,587,1576,0,0
-630,-552,0,0,0,0,0,0,0,0,0,-1,594,1576,0,0
-623,-552,0,0,0,0,0,0,0,0,0,-1,601,1576,0,0
-616,-552,0,0,0,0,0,0,0,0,0,-1,608,1576,0,0
-609,-552,0,0,0,0,0,0,0,0,0,-1,615,1576,0,0
-602,-552,0,0,0,0,0,0,0,0,0,-1,622,1576,0,0
-595,-552,0,0,0,0,0,0,0,0,0,-1,629,1576,0,0
-588,-552,0,0,0,0,0,0,0,0,0,-1,636,1576,0,0
-581,-552,0,0,0,0,0,0,0,0,0,-1,643,1576,0,0
-574,-552,0,0,0,0,0,0,0,0,0,-1,650,1576,0,0
-567,-552,0,0,0,0,0,0,0,0,0,-1,657,1576,0,0
-560,-552,0,0,0,0,0,0,0,0,0,-1,664,1576,0,0
-553,-552,0,0,0,0,0,0,0,0,0,-1,671,1576,0,0
-546,-552,0,0,0,0,0,0,0,0,0,-1,678,1576,0,0
-539,-552,0,0,0,0,0,0,0,0,0,-1,685,1576,0,0
-532,-552,0,0,0,0,0,0,0,0,0,-1,692,1576,0,0
-525,-552,0,0,0,0,0,0,0,0,0,-1,699,1576,0,0
-518,-552,0,0,0,0,0,0,0,0,0,-1,706,1576,0,0
-511,-552,0,0,0,0,0,0,0,0,0,-1,713,1576,0,0
-504,-552,0,0,0,0,0,0,0,0,0,-1,720,1576,0,0
-497,-552,1.51282,3.96924,0,0,0,0,0,0,0,-1,727,1576,1.5128,-3.96924
-490,-552,-3.82312,6.32104,0,0,0,0,0,0,0,-1,734,1576,-3.82314,-6.3211
-483,-552,-3.50586,6.47986,0,0,0,0,0,0,0,-1,741,1576,-3.50587,-6.47983
-476,-552,-1.95129,4.43054,0,0,0,0,0,0,0,-1,748,1576,-1.95128,-4.43054
-469,-552,-1.40491,7.9895,0,0,0,0,0,0,0,-1,755,1576,-1.40491,-7.98947
-462,-552,-1.99573,11.4446,0,0,0,0,0,0,0,-1,762,1576,-1.99571,-11.4445
-455,-552,0.00354004,14.2009,0,0,0,0,0,0,0,-1,769,1576,0.00355957,-14.2009
-448,-552,-0.472168,14.3013,0.00109149,0.0194953,0.0127254,0.0259972,-0.00541044,1.09843,0.0193882,0.0459757,776,1576,-0.472186,-14.3013
-441,-552,-0.207153,15.693,-2.68201e-05,0.0145895,0.00932205,0.0191266,-0.0045639,1.11784,0.0145136,0.0421782,783,1576,-0.207125,-15.693
-434,-552,-0.194763,16.2583,-0.000712944,0.0106013,0.00662037,0.0136524,-0.00376399,1.13895,0.0105818,0.0310439,790,1576,-0.194736,-16.2583
-427,-552,-0.384949,16.4802,-0.00114738,0.00758165,0.00474351,0.00966306,-0.00322879,1.1573,0.00774596,0.0276421,797,1576,-0.384966,-16.4802
-420,-552,-0.333923,16.9847,-0.00108958,0.00553624,0.00331512,0.00691005,-0.00246339,1.17793,0.00561107,0.023193,804,1576,-0.333932,-16.9848
-413,-552,-0.319336,17.4214,-0.000869366,0.00411255,0.00227185,0.00499297,-0.00174978,1.20108,0.00404025,0.0187244,811,1576,-0.319316,-17.4214
-406,-552,-0.353333,17.879,-0.000565687,0.0032799,0.00171827,0.00393578,-0.00122157,1.20615,0.00311202,0.0145111,818,1576,-0.353328,-17.879
-399,-552,-0.366211,18.3083,-0.000186857,0.00272749,0.00142572,0.00330895,-0.000768315,1.18355,0.00250171,0.0139493,825,1576,-0.366189,-18.3084
-392,-552,-0.395142,18.7327,9.95288e-06,0.00268533,0.000918142,0.00297011,-0.000274824,1.27004,0.00207775,0.0152753,832,1576,-0.395134,-18.7327
-385,-552,-0.42041,19.1849,0.00036481,0.00423771,0.000547101,0.00431351,0.000289008,1.43312,0.00278434,0.0148203,839,1576,-0.420406,-19.185
-378,-552,-0.439758,19.6244,0.000597227,0.00660159,-0.000202909,0.00660844,0.000590378,-1.53705,0.00422261,0.0159679,846,1576,-0.439746,-19.6243
-371,-552,-0.446899,20.0656,0.000310365,0.00977341,-0.00191427,0.010146,-6.22012e-05,-1.37857,0.00678481,0.0191176,853,1576,-0.446891,-20.0656
-364,-552,-0.441895,20.4661,-0.000202315,0.0137696,-0.00409403,0.0148808,-0.00131356,-1.30575,0.0103861,0.0147457,860,1576,-0.441912,-20.466
-357,-552,-0.432678,20.8887,-0.000872547,0.0183067,-0.00678489,0.0204643,-0.00303008,-1.26292,0.0147569,0.0104467,867,1576,-0.432674,-20.8886
-350,-552,-0.425476,21.3619,-0.0018149,0.0236082,-0.0101152,0.0271417,-0.0053484,-1.23472,0.0201157,0.0123325,874,1576,-0.425482,-21.362
-343,-552,-0.445618,21.7543,-0.00304555,0.0295861,-0.0140666,0.0348127,-0.00827213,-1.21505,0.0264014,0.014804,881,1576,-0.445637,-21.7543
-336,-552,-0.375977,22.0437,-0.00456472,0.0364259,-0.0186041,0.0436103,-0.0117492,-1.20226,0.0336801,0.0274305,888,1576,-0.376003,-22.0437
-329,-552,-0.439453,22.4625,-0.00620881,0.043885,-0.0233755,0.0530984,-0.0154221,-1.19535,0.0415059,0.0480044,895,1576,-0.439425,-22.4625
-322,-552,-0.241272,23.2867,0,0,0,0,0,0,0,-1,902,1576,-0.241261,-23.2868
-315,-552,-0.265259,20.8276,0,0,0,0,0,0,0,-1,909,1576,-0.265259,-20.8276
-308,-552,1.48743,24.9044,0,0,0,0,0,0,0,-1,916,1576,1.48745,-24.9045
-301,-552,1.39453,18.4995,0,0,0,0,0,0,0,-1,923,1576,1.3945,-18.4995
-294,-552,0.842163,13.7863,0,0,0,0,0,0,0,-1,930,1576,0.842149,-13.7863
-287,-552,-0.663757,13.3474,0,0,0,0,0,0,0,-1,937,1576,-0.663744,-13.3474
-280,-552,-5.47241,8.96765,0,0,0,0,0,0,0,-1,944,1576,-5.47239,-8.96766
-273,-552,1.64587,10.6685,0,0,0,0,0,0,0,-1,951,1576,1.6459,-10.6685
-266,-552,-1.32678,8.05688,0,0,0,0,0,0,0,-1,958,1576,-1.32677,-8.05683
-259,-552,-5.54321,8.31213,0,0,0,0,0,0,0,-1,965,1576,-5.54324,-8.31214
-252,-552,-1.93445,7.81543,0,0,0,0,0,0,0,-1,972,1576,-1.93445,-7.81546
-245,-552,-2.53613,6.92212,0,0,0,0,0,0,0,-1,979,1576,-2.53614,-6.92216
-238,-552,-6.5365,2.81885,0,0,0,0,0,0,0,-1,986,1576,-6.53649,-2.8188
-231,-552,-4.32239,4.34583,0,0,0,0,0,0,0,-1,993,1576,-4.32239,-4.34587
-224,-552,0,0,0,0,0,0,0,0,0,-1,1000,1576,0,0
-217,-552,0,0,0,0,0,0,0,0,0,-1,1007,1576,0,0
-210,-552,0,0,0,0,0,0,0,0,0,-1,1014,1576,0,0
-203,-552,0,0,0,0,0,0,0,0,0,-1,1021,1576,0,0
-196,-552,0,0,0,0,0,0,0,0,0,-1,1028,1576,0,0
-189,-552,0,0,0,0,0,0,0,0,0,-1,1035,1576,0,0
-182,-552,0,0,0,0,0,0,0,0,0,-1,1042,1576,0,0
-175,-552,0,0,0,0,0,0,0,0,0,-1,1049,1576,0,0
-168,-552,0,0,0,0,0,0,0,0,0,-1,1056,1576,0,0
-161,-552,0,0,0,0,0,0,0,0,0,-1,1063,1576,0,0
-154,-552,0,0,0,0,0,0,0,0,0,-1,1070,1576,0,0
-147,-552,0,0,0,0,0,0,0,0,0,-1,1077,1576,0,0
-140,-552,0,0,0,0,0,0,0,0,0,-1,1084,1576,0,0
-133,-552,0,0,0,0,0,0,0,0,0,-1,1091,1576,0,0
-126,-552,0,0,0,0,0,0,0,0,0,-1,1098,1576,0,0
-119,-552,0,0,0,0,0,0,0,0,0,-1,1105,1576,0,0
-112,-552,0,0,0,0,0,0,0,0,0,-1,1112,1576,0,0
-105,-552,0,0,0,0,0,0,0,0,0,-1,1119,1576,0,0
-98,-552,0,0,0,0,0,0,0,0,0,-1,1126,1576,0,0
-91,-552,0,0,0,0,0,0,0,0,0,-1,1133,1576,0,0
-84,-552,0,0,0,0,0,0,0,0,0,-1,1140,1576,0,0
-77,-552,0,0,0,0,0,0,0,0,0,-1,1147,1576,0,0
-70,-552,0,0,0,0,0,0,0,0,0,-1,1154,1576,0,0
-63,-552,0,0,0,0,0,0,0,0,0,-1,1161,1576,0,0
-56,-552,0,0,0,0,0,0,0,0,0,-1,1168,1576,0,0
-49,-552,0,0,0,0,0,0,0,0,0,-1,1175,1576,0,0
-42,-552,0,0,0,0,0,0,0,0,0,-1,1182,1576,0,0
-35,-552,0,0,0,0,0,0,0,0,0,-1,1189,1576,0,0
-28,-552,0,0,0,0,0,0,0,0,0,-1,1196,1576,0,0
-21,-552,0,0,0,0,0,0,0,0,0,-1,1203,1576,0,0
-14,-552,0,0,0,0,0,0,0,0,0,-1,1210,1576,0,0
-7,-552,0,0,0,0,0,0,0,0,0,-1,1217,1576,0,0
0,-552,0,0,0,0,0,0,0,0,0,-1,1224,1576,0,0
7,-552,0,0,0,0,0,0,0,0,0,-1,1231,1576,0,0
14,-552,0,0,0,0,0,0,0,0,0,-1,1238,1576,0,0
21,-552,0,0,0,0,0,0,0,0,0,-1,1245,1576,0,0
28,-552,0,0,0,0,0,0,0,0,0,-1,1252,1576,0,0
35,-552,0,0,0,0,0,0,0,0,0,-1,1259,1576,0,0
42,-552,0,0,0,0,0,0,0,0,0,-1,1266,1576,0,0
49,-552,0,0,0,0,0,0,0,0,0,-1,1273,1576,0,0
56,-552,0,0,0,0,0,0,0,0,0,-1,1280,1576,0,0
63,-552,0,0,0,0,0,0,0,0,0,-1,1287,1576,0,0
70,-552,0,0,0,0,0,0,0,0,0,-1,1294,1576,0,0
77,-552,0,0,0,0,0,0,0,0,0,-1,1301,1576,0,0
84,-552,0,0,0,0,0,0,0,0,0,-1,1308,1576,0,0
91,-552,0,0,0,0,0,0,0,0,0,-1,1315,1576,0,0
98,-552,0,0,0,0,0,0,0,0,0,-1,1322,1576,0,0
105,-552,0,0,0,0,0,0,0,0,0,-1,1329,1576,0,0
112,-552,0,0,0,0,0,0,0,0,0,-1,1336,1576,0,0
119,-552,0,0,0,0,0,0,0,0,0,-1,1343,1576,0,0
126,-552,0,0,0,0,0,0,0,0,0,-1,1350,1576,0,0
133,-552,0,0,0,0,0,0,0,0,0,-1,1357,1576,0,0
140,-552,0,0,0,0,0,0,0,0,0,-1,1364,1576,0,0
147,-552,0,0,0,0,0,0,0,0,0,-1,1371,1576,0,0
154,-552,0,0,0,0,0,0,0,0,0,-1,1378,1576,0,0
161,-552,0,0,0,0,0,0,0,0,0,-1,1385,1576,0,0
168,-552,0,0,0,0,0,0,0,0,0,-1,1392,1576,0,0
175,-552,0,0,0,0,0,0,0,0,0,-1,1399,1576,0,0
182,-552,0,0,0,0,0,0,0,0,0,-1,1406,1576,0,0
189,-552,0,0,0,0,0,0,0,0,0,-1,1413,1576,0,0
196,-552,0,0,0,0,0,0,0,0,0,-1,1420,1576,0,0
203,-552,0,0,0,0,0,0,0,0,0,-1,1427,1576,0,0
210,-552,0,0,0,0,0,0,0,0,0,-1,1434,1576,0,0
217,-552,0,0,0,0,0,0,0,0,0,-1,1441,1576,0,0
224,-552,0,0,0,0,0,0,0,0,0,-1,1448,1576,0,0
231,-552,0,0,0,0,0,0,0,0,0,-1,1455,1576,0,0
238,-552,0,0,0,0,0,0,0,0,0,-1,1462,1576,0,0
245,-552,0,0,0,0,0,0,0,0,0,-1,1469,1576,0,0
252,-552,0,0,0,0,0,0,0,0,0,-1,1476,1576,0,0
259,-552,0,0,0,0,0,0,0,0,0,-1,1483,1576,0,0
266,-552,0,0,0,0,0,0,0,0,0,-1,1490,1576,0,0
273,-552,0,0,0,0,0,0,0,0,0,-1,1497,1576,0,0
280,-552,0,0,0,0,0,0,0,0,0,-1,1504,1576,0,0
287,-552,0,0,0,0,0,0,0,0,0,-1,1511,1576,0,0
294,-552,0,0,0,0,0,0,0,0,0,-1,1518,1576,0,0
301,-552,0,0,0,0,0,0,0,0,0,-1,1525,1576,0,0
308,-552,0,0,0,0,0,0,0,0,0,-1,1532,1576,0,0
315,-552,0,0,0,0,0,0,0,0,0,-1,1539,1576,0,0
322,-552,0,0,0,0,0,0,0,0,0,-1,1546,1576,0,0
329,-552,0,0,0,0,0,0,0,0,0,-1,1553,1576,0,0
336,-552,0,0,0,0,0,0,0,0,0,-1,1560,1576,0,0
343,-552,0,0,0,0,0,0,0,0,0,-1,1567,1576,0,0
350,-552,4.97876,4.09888,0,0,0,0,0,0,0,-1,1574,1576,4.97875,-4.09883
357,-552,5.18469,4.10706,0,0,0,0,0,0,0,-1,1581,1576,5.1847,-4.10702
364,-552,5.80872,5.07031,0,0,0,0,0,0,0,-1,1588,1576,5.80874,-5.07037
371,-552,7.10657,5.64783,0,0,0,0,0,0,0,-1,1595,1576,7.10651,-5.64786
378,-552,6.44446,4.91492,0,0,0,0,0,0,0,-1,1602,1576,6.44448,-4.91496
385,-552,12.8276,3.16504,0,0,0,0,0,0,0,-1,1609,1576,12.8276,-3.16503
392,-552,12.1301,4.3363,0,0,0,0,0,0,0,-1,1616,1576,12.1302,-4.33631
399,-552,11.3486,5.6012,0,0,0,0,0,0,0,-1,1623,1576,11.3486,-5.60115
406,-552,10.7863,6.42542,0,0,0,0,0,0,0,-1,1630,1576,10.7863,-6.42536
413,-552,8.39307,10.365,0,0,0,0,0,0,0,-1,1637,1576,8.3931,-10.365
420,-552,10.2306,12.7225,0,0,0,0,0,0,0,-1,1644,1576,10.2305,-12.7226
427,-552,9.73267,14.783,0,0,0,0,0,0,0,-1,1651,1576,9.73269,-14.783
434,-552,12.0377,20.1364,0,0,0,0,0,0,0,-1,1658,1576,12.0377,-20.1364
441,-552,12.4963,21.5277,0,0,0,0,0,0,0,-1,1665,1576,12.4964,-21.5277
448,-552,12.9141,21.5482,0,0,0,0,0,0,0,-1,1672,1576,12.9141,-21.5482
455,-552,13.3318,21.5687,0,0,0,0,0,0,0,-1,1679,1576,13.3317,-21.5687
462,-552,12.745,20.5947,0,0,0,0,0,0,0,-1,1686,1576,12.745,-20.5947
469,-552,14.1967,23.5895,0,0,0,0,0,0,0,-1,1693,1576,14.1966,-23.5894
476,-552,14.6298,22.833,0,0,0,0,0,0,0,-1,1700,1576,14.6298,-22.8331
483,-552,14.7616,22.2319,0.00363042,0.0112457,-0.00449943,0.0133323,0.00154374,-1.13655,0.00842095,0.0283099,1707,1576,14.7616,-22.2319
490,-552,14.7268,21.874,0.00353373,0.00861851,-0.00365895,0.0105316,0.0016206,-1.08903,0.00654809,0.0155536,1714,1576,14.7268,-21.874
497,-552,14.7994,21.5011,0.00343375,0.00635343,-0.00307567,0.00829813,0.00148905,-1.00698,0.0051086,0.0222694,1721,1576,14.7995,-21.5011
504,-552,14.7905,21.1168,0.00300816,0.00448114,-0.00238022,0.00623621,0.0012531,-0.935437,0.00380911,0.0236997,1728,1576,14.7905,-21.1168
511,-552,14.7584,20.6954,0.00219336,0.0029927,-0.00153502,0.00417923,0.00100683,-0.912755,0.00251854,0.0174509,1735,1576,14.7584,-20.6954
518,-552,14.7509,20.2765,0.001133,0.00161695,-0.000528375,0.00195612,0.000793827,-1.00013,0.00113603,0.0150387,1742,1576,14.7508,-20.2765
525,-552,14.7124,19.8822,-0.000130738,0.000438494,0.000621243,0.000837214,-0.000529459,1.0002,0.00079569,0.0143343,1749,1576,14.7123,-19.8822
532,-552,14.6957,19.4746,-0.00151662,-0.000515979,0.00190594,0.000954215,-0.00298681,0.913755,0.00237409,0.0152035,1756,1576,14.6957,-19.4746
539,-552,14.699,19.0615,-0.00294357,-0.00138297,0.00335753,0.00128374,-0.00561028,0.899573,0.00423349,0.0182431,1763,1576,14.6989,-19.0616
546,-552,14.6771,18.683,-0.00471764,-0.00215566,0.00515623,0.00187632,-0.00874962,0.907151,0.00654874,0.0210744,1770,1576,14.6771,-18.683
553,-552,14.7048,18.2606,-0.00658303,-0.00284536,0.00718544,0.0027103,-0.0121387,0.912623,0.00913097,0.0244065,1777,1576,14.7049,-18.2606
560,-552,14.6809,17.9515,-0.00840288,-0.00335073,0.00927045,0.00373165,-0.0154853,0.918412,0.0117663,0.0453711,1784,1576,14.6809,-17.9516
567,-552,14.738,17.2787,0,0,0,0,0,0,0,-1,1791,1576,14.7381,-17.2787
574,-552,12.8835,14.8463,0,0,0,0,0,0,0,-1,1798,1576,12.8836,-14.8463
581,-552,9.74841,9.98645,0,0,0,0,0,0,0,-1,1805,1576,9.74847,-9.9864
588,-552,10.5619,9.34924,0,0,0,0,0,0,0,-1,1812,1576,10.5619,-9.34921
595,-552,5.36194,6.62744,0,0,0,0,0,0,0,-1,1819,1576,5.36193,-6.62742
602,-552,10.6863,4.31616,0,0,0,0,0,0,0,-1,1826,1576,10.6862,-4.31619
609,-552,12.146,3.18286,0,0,0,0,0,0,0,-1,1833,1576,12.1459,-3.18281
616,-552,13.8762,2.08167,0,0,0,0,0,0,0,-1,1840,1576,13.8763,-2.08167
623,-552,0,0,0,0,0,0,0,0,0,-1,1847,1576,0,0
630,-552,0,0,0,0,0,0,0,0,0,-1,1854,1576,0,0
637,-552,0,0,0,0,0,0,0,0,0,-1,1861,1576,0,0
644,-552,0,0,0,0,0,0,0,0,0,-1,1868,1576,0,0
651,-552,0,0,0,0,0,0,0,0,0,-1,1875,1576,0,0
658,-552,0,0,0,0,0,0,0,0,0,-1,1882,1576,0,0
665,-552,0,0,0,0,0,0,0,0,0,-1,1889,1576,0,0
672,-552,0,0,0,0,0,0,0,0,0,-1,1896,1576,0,0
679,-552,0,0,0,0,0,0,0,0,0,-1,1903,1576,0,0
686,-552,0,0,0,0,0,0,0,0,0,-1,1910,1576,0,0
693,-552,0,0,0,0,0,0,0,0,0,-1,1917,1576,0,0
700,-552,0,0,0,0,0,0,0,0,0,-1,1924,1576,0,0
707,-552,0,0,0,0,0,0,0,0,0,-1,1931,1576,0,0
714,-552,0,0,0,0,0,0,0,0,0,-1,1938,1576,0,0
721,-552,0,0,0,0,0,0,0,0,0,-1,1945,1576,0,0
728,-552,0,0,0,0,0,0,0,0,0,-1,1952,1576,0,0
735,-552,0,0,0,0,0,0,0,0,0,-1,1959,1576,0,0
742,-552,0,0,0,0,0,0,0,0,0,-1,1966,1576,0,0
749,-552,0,0,0,0,0,0,0,0,0,-1,1973,1576,0,0
756,-552,0,0,0,0,0,0,0,0,0,-1,1980,1576,0,0
763,-552,0,0,0,0,0,0,0,0,0,-1,1987,1576,0,0
770,-552,0,0,0,0,0,0,0,0,0,-1,1994,1576,0,0
777,-552,0,0,0,0,0,0,0,0,0,-1,2001,1576,0,0
784,-552,0,0,0,0,0,0,0,0,0,-1,2008,1576,0,0
791,-552,0,0,0,0,0,0,0,0,0,-1,2015,1576,0,0
798,-552,0,0,0,0,0,0,0,0,0,-1,2022,1576,0,0
805,-552,0,0,0,0,0,0,0,0,0,-1,2029,1576,0,0
812,-552,0,0,0,0,0,0,0,0,0,-1,2036,1576,0,0
-700,-559,0,0,0,0,0,0,0,0,0,-1,524,1583,0,0
-693,-559,0,0,0,0,0,0,0,0,0,-1,531,1583,0,0
-686,-559,0,0,0,0,0,0,0,0,0,-1,538,1583,0,0
-679,-559,0,0,0,0,0,0,0,0,0,-1,545,1583,0,0
-672,-559,0,0,0,0,0,0,0,0,0,-1,552,1583,0,0
-665,-559,0,0,0,0,0,0,0,0,0,-1,559,1583,0,0
-658,-559,0,0,0,0,0,0,0,0,0,-1,566,1583,0,0
-651,-559,0,0,0,0,0,0,0,0,0,-1,573,1583,0,0
-644,-559,0,0,0,0,0,0,0,0,0,-1,580,1583,0,0
-637,-559,0,0,0,0,0,0,0,0,0,-1,587,1583,0,0
-630,-559,0,0,0,0,0,0,0,0,0,-1,594,1583,0,0
-623,-559,0,0,0,0,0,0,0,0,0,-1,601,1583,0,0
-616,-559,0,0,0,0,0,0,0,0,0,-1,608,1583,0,0
-609,-559,0,0,0,0,0,0,0,0,0,-1,615,1583,0,0
-602,-559,0,0,0,0,0,0,0,0,0,-1,622,1583,0,0
-595,-559,0,0,0,0,0,0,0,0,0,-1,629,1583,0,0
-588,-559,0,0,0,0,0,0,0,0,0,-1,636,1583,0,0
-581,-559,0,0,0,0,0,0,0,0,0,-1,643,1583,0,0
-574,-559,0,0,0,0,0,0,0,0,0,-1,650,1583,0,0
-567,-559,0,0,0,0,0,0,0,0,0,-1,657,1583,0,0
-560,-559,0,0,0,0,0,0,0,0,0,-1,664,1583,0,0
-553,-559,0,0,0,0,0,0,0,0,0,-1,671,1583,0,0
-546,-559,0,0,0,0,0,0,0,0,0,-1,678,1583,0,0
-539,-559,0,0,0,0,0,0,0,0,0,-1,685,1583,0,0
-532,-559,0,0,0,0,0,0,0,0,0,-1,692,1583,0,0
-525,-559,0,0,0,0,0,0,0,0,0,-1,699,1583,0,0
-518,-559,0,0,0,0,0,0,0,0,0,-1,706,1583,0,0
-511,-559,0,0,0,0,0,0,0,0,0,-1,713,1583,0,0
-504,-559,0,0,0,0,0,0,0,0,0,-1,720,1583,0,0
-497,-559,0,0,0,0,0,0,0,0,0,-1,727,1583,0,0
-490,-559,-5.49835,4.47424,0,0,0,0,0,0,0,-1,734,1583,-5.49833,-4.4743
-483,-559,-5.24078,4.74561,0,0,0,0,0,0,0,-1,741,1583,-5.24079,-4.74563
-476,-559,-4.98022,4.99316,0,0,0,0,0,0,0,-1,748,1583,-4.98024,-4.99321
-469,-559,-4.6424,5.38062,0,0,0,0,0,0,0,-1,755,1583,-4.64237,-5.38058
-462,-559,-0.161865,6.49438,0,0,0,0,0,0,0,-1,762,1583,-0.161835,-6.49444
-455,-559,1.08826,7.02527,0,0,0,0,0,0,0,-1,769,1583,1.08823,-7.02529
-448,-559,-0.301758,13.7728,0,0,0,0,0,0,0,-1,776,1583,-0.301761,-13.7728
-441,-559,0.185608,15.5543,0,0,0,0,0,0,0,-1,783,1583,0.185631,-15.5543
-434,-559,0.381775,16.3276,0,0,0,0,0,0,0,-1,790,1583,0.381787,-16.3276
-427,-559,0.109314,16.3561,0,0,0,0,0,0,0,-1,797,1583,0.109327,-16.3561
-420,-559,0.118713,16.9033,0,0,0,0,0,0,0,-1,804,1583,0.118688,-16.9033
-413,-559,0.0894775,17.4379,-0.0017296,0.00470928,0.00251961,0.00557802,-0.00259834,1.23877,0.00482398,0.0169406,811,1583,0.0894914,-17.4379
-406,-559,0.0723877,17.9056,-0.00154244,0.00333265,0.00162005,0.00382191,-0.0020317,1.2775,0.00343186,0.0104181,818,1583,0.0723874,-17.9057
-399,-559,0.0612793,18.3423,-0.00117341,0.00229584,0.00113659,0.00263505,-0.00151261,1.28077,0.0024237,0.0132403,825,1583,0.061258,-18.3423
-392,-559,0.0335083,18.755,-0.0010175,0.00169817,0.000481607,0.00178105,-0.00110038,1.40037,0.00167899,0.0171548,832,1583,0.0334919,-18.755
-385,-559,0.0137329,19.1923,-0.000610523,0.00270004,0.000283261,0.0027241,-0.000634585,1.48605,0.00206043,0.0175618,839,1583,0.0137442,-19.1922
-378,-559,0.0159912,19.6302,-0.000195335,0.00434551,-0.000119938,0.00434868,-0.000198501,-1.54441,0.0029675,0.0154159,846,1583,0.0159683,-19.6302
-371,-559,-0.00286865,20.0831,-0.000146096,0.006592,-0.00125876,0.00681948,-0.000373567,-1.39201,0.00467582,0.0215058,853,1583,-0.00285686,-20.0831
-364,-559,0.00177002,20.4764,-0.000286348,0.00955017,-0.00278636,0.0102846,-0.00102079,-1.31307,0.00722076,0.0197701,860,1583,0.00177068,-20.4765
-357,-559,-0.00463867,20.8822,-0.000520426,0.012915,-0.00466813,0.0143777,-0.00198312,-1.26715,0.0103099,0.0123833,867,1583,-0.00463092,-20.8822
-350,-559,-0.0090332,21.311,-0.000911261,0.0167868,-0.0069572,0.0191942,-0.00331869,-1.23766,0.0140338,0.0100921,874,1583,-0.00903498,-21.311
-343,-559,-0.0239868,21.718,-0.00145832,0.0210918,-0.00956933,0.0246052,-0.00497174,-1.21892,0.0182874,0.0114479,881,1583,-0.0239641,-21.718
-336,-559,-0.0796509,22.0754,-0.00223266,0.0260551,-0.0126324,0.030875,-0.00705259,-1.20629,0.0232929,0.0188181,888,1583,-0.0796788,-22.0754
-329,-559,0.0409546,22.6882,-0.00308721,0.0314661,-0.0158015,0.0376024,-0.00922357,-1.20038,0.0286422,0.0321826,895,1583,0.0409609,-22.6883
-322,-559,0.205261,23.4425,0,0,0,0,0,0,0,-1,902,1583,0.205254,-23.4425
-315,-559,0.349487,22.6481,0,0,0,0,0,0,0,-1,909,1583,0.349459,-22.6481
-308,-559,0.141052,23.3381,0,0,0,0,0,0,0,-1,916,1583,0.141065,-23.3382
-301,-559,1.97064,24.717,0,0,0,0,0,0,0,-1,923,1583,1.97066,-24.717
-294,-559,0.945129,18.5165,0,0,0,0,0,0,0,-1,930,1583,0.945117,-18.5165
-287,-559,-0.11792,15.4912,0,0,0,0,0,0,0,-1,937,1583,-0.117939,-15.4912
-280,-559,0.191467,13.5093,0,0,0,0,0,0,0,-1,944,1583,0.191441,-13.5093
-273,-559,2.12836,10.3059,0,0,0,0,0,0,0,-1,951,1583,2.12839,-10.3059
-266,-559,-0.597046,6.68933,0,0,0,0,0,0,0,-1,958,1583,-0.597031,-6.68937
-259,-559,-7.00311,8.62756,0,0,0,0,0,0,0,-1,965,1583,-7.00312,-8.6275
-252,-559,-9.4483,2.87805,0,0,0,0,0,0,0,-1,972,1583,-9.44829,-2.87805
-245,-559,-4.80804,7.1803,0,0,0,0,0,0,0,-1,979,1583,-4.80804,-7.18027
-238,-559,-8.45764,2.54858,0,0,0,0,0,0,0,-1,986,1583,-8.45763,-2.54862
-231,-559,-5.86914,4.34021,0,0,0,0,0,0,0,-1,993,1583,-5.86914,-4.34019
-224,-559,-3.30505,6.22864,0,0,0,0,0,0,0,-1,1000,1583,-3.30505,-6.22859
-217,-559,0,0,0,0,0,0,0,0,0,-1,1007,1583,0,0
-210,-559,0,0,0,0,0,0,0,0,0,-1,1014,1583,0,0
-203,-559,0,0,0,0,0,0,0,0,0,-1,1021,1583,0,0
-196,-559,0,0,0,0,0,0,0,0,0,-1,1028,1583,0,0
-189,-559,0,0,0,0,0,0,0,0,0,-1,1035,1583,0,0
-182,-559,0,0,0,0,0,0,0,0,0,-1,1042,1583,0,0
-175,-559,0,0,0,0,0,0,0,0,0,-1,1049,1583,0,0
-168,-559,0,0,0,0,0,0,0,0,0,-1,1056,1583,0,0
-161,-559,0,0,0,0,0,0,0,0,0,-1,1063,1583,0,0
-154,-559,0,0,0,0,0,0,0,0,0,-1,1070,1583,0,0
-147,-559,0,0,0,0,0,0,0,0,0,-1,1077,1583,0,0
-140,-559,0,0,0,0,0,0,0,0,0,-1,1084,1583,0,0
-133,-559,0,0,0,0,0,0,0,0,0,-1,1091,1583,0,0
-126,-559,0,0,0,0,0,0,0,0,0,-1,1098,1583,0,0
-119,-559,0,0,0,0,0,0,0,0,0,-1,1105,1583,0,0
-112,-559,0,0,0,0,0,0,0,0,0,-1,1112,1583,0,0
-105,-559,0,0,0,0,0,0,0,0,0,-1,1119,1583,0,0
-98,-559,0,0,0,0,0,0,0,0,0,-1,1126,1583,0,0
-91,-559,0,0,0,0,0,0,0,0,0,-1,1133,1583,0,0
-84,-559,0,0,0,0,0,0,0,0,0,-1,1140,1583,0,0
-77,-559,0,0,0,0,0,0,0,0,0,-1,1147,1583,0,0
-70,-559,0,0,0,0,0,0,0,0,0,-1,1154,1583,0,0
-63,-559,0,0,0,0,0,0,0,0,0,-1,1161,1583,0,0
-56,-559,0,0,0,0,0,0,0,0,0,-1,1168,1583,0,0
-49,-559,0,0,0,0,0,0,0,0,0,-1,1175,1583,0,0
-42,-559,0,0,0,0,0,0,0,0,0,-1,1182,1583,0,0
-35,-559,0,0,0,0,0,0,0,0,0,-1,1189,1583,0,0
-28,-559,0,0,0,0,0,0,0,0,0,-1,1196,1583,0,0
-21,-559,0,0,0,0,0,0,0,0,0,-1,1203,1583,0,0
-14,-559,0,0,0,0,0,0,0,0,0,-1,1210,1583,0,0
-7,-559,0,0,0,0,0,0,0,0,0,-1,1217,1583,0,0
0,-559,0,0,0,0,0,0,0,0,0,-1,1224,1583,0,0
7,-559,0,0,0,0,0,0,0,0,0,-1,1231,1583,0,0
14,-559,0,0,0,0,0,0,0,0,0,-1,1238,1583,0,0
21,-559,0,0,0,0,0,0,0,0,0,-1,1245,1583,0,0
28,-559,0,0,0,0,0,0,0,0,0,-1,1252,1583,0,0
35,-559,0,0,0,0,0,0,0,0,0,-1,1259,1583,0,0
42,-559,0,0,0,0,0,0,0,0,0,-1,1266,1583,0,0
49,-559,0,0,0,0,0,0,0,0,0,-1,1273,1583,0,0
56,-559,0,0,0,0,0,0,0,0,0,-1,1280,1583,0,0
63,-559,0,0,0,0,0,0,0,0,0,-1,1287,1583,0,0
70,-559,0,0,0,0,0,0,0,0,0,-1,1294,1583,0,0
77,-559,0,0,0,0,0,0,0,0,0,-1,1301,1583,0,0
84,-559,0,0,0,0,0,0,0,0,0,-1,1308,1583,0,0
91,-559,0,0,0,0,0,0,0,0,0,-1,1315,1583,0,0
98,-559,0,0,0,0,0,0,0,0,0,-1,1322,1583,0,0
105,-559,0,0,0,0,0,0,0,0,0,-1,1329,1583,0,0
112,-559,0,0,0,0,0,0,0,0,0,-1,1336,1583,0,0
119,-559,0,0,0,0,0,0,0,0,0,-1,1343,1583,0,0
126,-559,0,0,0,0,0,0,0,0,0,-1,1350,1583,0,0
133,-559,0,0,0,0,0,0,0,0,0,-1,1357,1583,0,0
140,-559,0,0,0,0,0,0,0,0,0,-1,1364,1583,0,0
147,-559,0,0,0,0,0,0,0,0,0,-1,1371,1583,0,0
154,-559,0,0,0,0,0,0,0,0,0,-1,1378,1583,0,0
161,-559,0,0,0,0,0,0,0,0,0,-1,1385,1583,0,0
168,-559,0,0,0,0,0,0,0,0,0,-1,1392,1583,0,0
175,-559,0,0,0,0,0,0,0,0,0,-1,1399,1583,0,0
182,-559,0,0,0,0,0,0,0,0,0,-1,1406,1583,0,0
189,-559,0,0,0,0,0,0,0,0,0,-1,1413,1583,0,0
196,-559,0,0,0,0,0,0,0,0,0,-1,1420,1583,0,0
203,-559,0,0,0,0,0,0,0,0,0,-1,1427,1583,0,0
210,-559,0,0,0,0,0,0,0,0,0,-1,1434,1583,0,0
217,-559,0,0,0,0,0,0,0,0,0,-1,1441,1583,0,0
224,-559,0,0,0,0,0,0,0,0,0,-1,1448,1583,0,0
231,-559,0,0,0,0,0,0,0,0,0,-1,1455,1583,0,0
238,-559,0,0,0,0,0,0,0,0,0,-1,1462,1583,0,0
245,-559,0,0,0,0,0,0,0,0,0,-1,1469,1583,0,0
252,-559,0,0,0,0,0,0,0,0,0,-1,1476,1583,0,0
259,-559,0,0,0,0,0,0,0,0,0,-1,1483,1583,0,0
266,-559,0,0,0,0,0,0,0,0,0,-1,1490,1583,0,0
273,-559,0,0,0,0,0,0,0,0,0,-1,1497,1583,0,0
280,-559,0,0,0,0,0,0,0,0,0,-1,1504,1583,0,0
287,-559,0,0,0,0,0,0,0,0,0,-1,1511,1583,0,0
294,-559,0,0,0,0,0,0,0,0,0,-1,1518,1583,0,0
301,-559,0,0,0,0,0,0,0,0,0,-1,1525,1583,0,0
308,-559,0,0,0,0,0,0,0,0,0,-1,1532,1583,0,0
315,-559,0,0,0,0,0,0,0,0,0,-1,1539,1583,0,0
322,-559,0,0,0,0,0,0,0,0,0,-1,1546,1583,0,0
329,-559,0,0,0,0,0,0,0,0,0,-1,1553,1583,0,0
336,-559,5.97668,3.09827,0,0,0,0,0,0,0,-1,1560,1583,5.97667,-3.09824
343,-559,5.44824,2.88696,0,0,0,0,0,0,0,-1,1567,1583,5.44819,-2.88693
350,-559,4.69775,3.27051,0,0,0,0,0,0,0,-1,1574,1583,4.69771,-3.27048
357,-559,3.88025,3.60999,0,0,0,0,0,0,0,-1,1581,1583,3.88027,-3.60998
364,-559,5.00928,5.32605,0,0,0,0,0,0,0,-1,1588,1583,5.00928,-5.32607
371,-559,1.84436,2.52441,0,0,0,0,0,0,0,-1,1595,1583,1.84441,-2.52447
378,-559,6.34753,1.53137,0,0,0,0,0,0,0,-1,1602,1583,6.34752,-1.53139
385,-559,6.95911,1.48181,0,0,0,0,0,0,0,-1,1609,1583,6.95916,-1.48175
392,-559,11.6949,4.77734,0,0,0,0,0,0,0,-1,1616,1583,11.6949,-4.77731
399,-559,11.1104,5.56909,0,0,0,0,0,0,0,-1,1623,1583,11.1103,-5.56905
406,-559,10.3385,6.48657,0,0,0,0,0,0,0,-1,1630,1583,10.3385,-6.48661
413,-559,9.76147,6.97571,0,0,0,0,0,0,0,-1,1637,1583,9.76143,-6.97574
420,-559,7.77124,10.5851,0,0,0,0,0,0,0,-1,1644,1583,7.77128,-10.585
427,-559,10.1022,12.5565,0,0,0,0,0,0,0,-1,1651,1583,10.1021,-12.5565
434,-559,9.62769,14.6309,0,0,0,0,0,0,0,-1,1658,1583,9.62771,-14.6309
441,-559,12.6149,21.3678,0,0,0,0,0,0,0,-1,1665,1583,12.6149,-21.3678
448,-559,13.7046,22.6677,0,0,0,0,0,0,0,-1,1672,1583,13.7046,-22.6677
455,-559,13.9427,23.0509,0,0,0,0,0,0,0,-1,1679,1583,13.9427,-23.0509
462,-559,14.1029,23.9397,0,0,0,0,0,0,0,-1,1686,1583,14.103,-23.9397
469,-559,14.1257,23.3302,0.001633,0.0151339,-0.00455032,0.0165244,0.000242572,-1.27424,0.0109363,0.0396729,1693,1583,14.1257,-23.3302
476,-559,14.2703,22.7572,0.00234281,0.0120185,-0.00410292,0.0135241,0.000837259,-1.21911,0.00875033,0.0182209,1700,1583,14.2702,-22.7572
483,-559,14.3359,22.2534,0.00288367,0.0092449,-0.00369744,0.0109415,0.00118705,-1.1406,0.00693262,0.0138488,1707,1583,14.336,-22.2535
490,-559,14.3291,21.8615,0.00286215,0.00689302,-0.00297927,0.00847453,0.00128064,-1.08278,0.00527489,0.0161005,1714,1583,14.3291,-21.8615
497,-559,14.39,21.5187,0.00275538,0.00482267,-0.00247363,0.00646993,0.00110812,-0.983305,0.00399547,0.0186509,1721,1583,14.3901,-21.5186
504,-559,14.392,21.1243,0.00223186,0.00305852,-0.00172473,0.00441875,0.000871627,-0.903005,0.00270256,0.023233,1728,1583,14.3919,-21.1242
511,-559,14.3678,20.7017,0.00126309,0.00168713,-0.000697566,0.00220418,0.000746032,-0.932932,0.00129453,0.0210737,1735,1583,14.3678,-20.7017
518,-559,14.3665,20.2982,0.000126324,0.000385076,0.000384791,0.000661658,-0.000150258,0.947573,0.000498793,0.0143296,1742,1583,14.3665,-20.2983
525,-559,14.3286,19.906,-0.00127918,-0.000724917,0.0016649,0.000685763,-0.00268986,0.867869,0.00206023,0.0126302,1749,1583,14.3286,-19.906
532,-559,14.3055,19.5187,-0.00291324,-0.00164186,0.00317499,0.00096045,-0.00551555,0.884201,0.00403547,0.0139134,1756,1583,14.3056,-19.5186
539,-559,14.2993,19.1056,-0.00476385,-0.00247429,0.00499299,0.00150348,-0.00874161,0.898089,0.00638815,0.0183149,1763,1583,14.2993,-19.1056
546,-559,14.2809,18.6876,-0.0071214,-0.00325632,0.00732844,0.00239011,-0.0127678,0.914315,0.00941032,0.0159771,1770,1583,14.2809,-18.6877
553,-559,14.3538,18.2562,-0.00972274,-0.00390615,0.0100541,0.00365182,-0.0172807,0.926188,0.0129111,0.0206191,1777,1583,14.3538,-18.2563
560,-559,14.3348,18.0313,-0.012473,-0.00436267,0.0130125,0.00521185,-0.0220476,0.936448,0.0167088,0.0435891,1784,1583,14.3348,-18.0313
567,-559,14.2765,17.6023,0,0,0,0,0,0,0,-1,1791,1583,14.2765,-17.6023
574,-559,10.5109,10.7317,0,0,0,0,0,0,0,-1,1798,1583,10.5108,-10.7317
581,-559,5.97095,5.96179,0,0,0,0,0,0,0,-1,1805,1583,5.97093,-5.96181
588,-559,5.79102,5.89954,0,0,0,0,0,0,0,-1,1812,1583,5.79098,-5.89949
595,-559,5.79089,6.24231,0,0,0,0,0,0,0,-1,1819,1583,5.7909,-6.24227
602,-559,12.478,2.35669,0,0,0,0,0,0,0,-1,1826,1583,12.4781,-2.35675
609,-559,14.0479,1.22681,0,0,0,0,0,0,0,-1,1833,1583,14.0479,-1.22681
616,-559,0,0,0,0,0,0,0,0,0,-1,1840,1583,0,0
623,-559,0,0,0,0,0,0,0,0,0,-1,1847,1583,0,0
630,-559,0,0,0,0,0,0,0,0,0,-1,1854,1583,0,0
637,-559,0,0,0,0,0,0,0,0,0,-1,1861,1583,0,0
644,-559,0,0,0,0,0,0,0,0,0,-1,1868,1583,0,0
651,-559,0,0,0,0,0,0,0,0,0,-1,1875,1583,0,0
658,-559,0,0,0,0,0,0,0,0,0,-1,1882,1583,0,0
665,-559,0,0,0,0,0,0,0,0,0,-1,1889,1583,0,0
672,-559,0,0,0,0,0,0,0,0,0,-1,1896,1583,0,0
679,-559,0,0,0,0,0,0,0,0,0,-1,1903,1583,0,0
686,-559,0,0,0,0,0,0,0,0,0,-1,1910,1583,0,0
693,-559,0,0,0,0,0,0,0,0,0,-1,1917,1583,0,0
700,-559,0,0,0,0,0,0,0,0,0,-1,1924,1583,0,0
707,-559,0,0,0,0,0,0,0,0,0,-1,1931,1583,0,0
714,-559,0,0,0,0,0,0,0,0,0,-1,1938,1583,0,0
721,-559,0,0,0,0,0,0,0,0,0,-1,1945,1583,0,0
728,-559,0,0,0,0,0,0,0,0,0,-1,1952,1583,0,0
735,-559,0,0,0,0,0,0,0,0,0,-1,1959,1583,0,0
742,-559,0,0,0,0,0,0,0,0,0,-1,1966,1583,0,0
749,-559,0,0,0,0,0,0,0,0,0,-1,1973,1583,0,0
756,-559,0,0,0,0,0,0,0,0,0,-1,1980,1583,0,0
763,-559,0,0,0,0,0,0,0,0,0,-1,1987,1583,0,0
770,-559,0,0,0,0,0,0,0,0,0,-1,1994,1583,0,0
777,-559,0,0,0,0,0,0,0,0,0,-1,2001,1583,0,0
784,-559,0,0,0,0,0,0,0,0,0,-1,2008,1583,0,0
791,-559,0,0,0,0,0,0,0,0,0,-1,2015,1583,0,0
798,-559,0,0,0,0,0,0,0,0,0,-1,2022,1583,0,0
805,-559,0,0,0,0,0,0,0,0,0,-1,2029,1583,0,0
812,-559,0,0,0,0,0,0,0,0,0,-1,2036,1583,0,0
-700,-566,0,0,0,0,0,0,0,0,0,-1,524,1590,0,0
-693,-566,0,0,0,0,0,0,0,0,0,-1,531,1590,0,0
-686,-566,0,0,0,0,0,0,0,0,0,-1,538,1590,0,0
-679,-566,0,0,0,0,0,0,0,0,0,-1,545,1590,0,0
-672,-566,0,0,0,0,0,0,0,0,0,-1,552,1590,0,0
-665,-566,0,0,0,0,0,0,0,0,0,-1,559,1590,0,0
-658,-566,0,0,0,0,0,0,0,0,0,-1,566,1590,0,0
-651,-566,0,0,0,0,0,0,0,0,0,-1,573,1590,0,0
-644,-566,0,0,0,0,0,0,0,0,0,-1,580,1590,0,0
-637,-566,0,0,0,0,0,0,0,0,0,-1,587,1590,0,0
-630,-566,0,0,0,0,0,0,0,0,0,-1,594,1590,0,0
-623,-566,0,0,0,0,0,0,0,0,0,-1,601,1590,0,0
-616,-566,0,0,0,0,0,0,0,0,0,-1,608,1590,0,0
-609,-566,0,0,0,0,0,0,0,0,0,-1,615,1590,0,0
-602,-566,0,0,0,0,0,0,0,0,0,-1,622,1590,0,0
-595,-566,0,0,0,0,0,0,0,0,0,-1,629,1590,0,0
-588,-566,0,0,0,0,0,0,0,0,0,-1,636,1590,0,0
-581,-566,0,0,0,0,0,0,0,0,0,-1,643,1590,0,0
-574,-566,0,0,0,0,0,0,0,0,0,-1,650,1590,0,0
-567,-566,0,0,0,0,0,0,0,0,0,-1,657,1590,0,0
-560,-566,0,0,0,0,0,0,0,0,0,-1,664,1590,0,0
-553,-566,0,0,0,0,0,0,0,0,0,-1,671,1590,0,0
-546,-566,0,0,0,0,0,0,0,0,0,-1,678,1590,0,0
-539,-566,0,0,0,0,0,0,0,0,0,-1,685,1590,0,0
-532,-566,0,0,0,0,0,0,0,0,0,-1,692,1590,0,0
-525,-566,0,0,0,0,0,0,0,0,0,-1,699,1590,0,0
-518,-566,0,0,0,0,0,0,0,0,0,-1,706,1590,0,0
-511,-566,0,0,0,0,0,0,0,0,0,-1,713,1590,0,0
-504,-566,0,0,0,0,0,0,0,0,0,-1,720,1590,0,0
-497,-566,0,0,0,0,0,0,0,0,0,-1,727,1590,0,0
-490,-566,0,0,0,0,0,0,0,0,0,-1,734,1590,0,0
-483,-566,-7.17084,2.78613,0,0,0,0,0,0,0,-1,741,1590,-7.17083,-2.78618
-476,-566,-7.13971,2.87183,0,0,0,0,0,0,0,-1,748,1590,-7.13971,-2.87184
-469,-566,-6.43829,3.2998,0,0,0,0,0,0,0,-1,755,1590,-6.43829,-3.2998
-462,-566,-0.459106,3.89343,0,0,0,0,0,0,0,-1,762,1590,-0.459095,-3.89341
-455,-566,0.280212,4.74023,0,0,0,0,0,0,0,-1,769,1590,0.280207,-4.74023
-448,-566,0.436951,5.51306,0,0,0,0,0,0,0,-1,776,1590,0.436971,-5.51301
-441,-566,-0.440735,12.4063,0,0,0,0,0,0,0,-1,783,1590,-0.440753,-12.4062
-434,-566,0.756165,16.4674,0,0,0,0,0,0,0,-1,790,1590,0.756186,-16.4674
-427,-566,-0.0559082,16.3832,0,0,0,0,0,0,0,-1,797,1590,-0.0559087,-16.3831
-420,-566,0.359131,16.9286,0,0,0,0,0,0,0,-1,804,1590,0.35915,-16.9286
-413,-566,0.483765,17.4648,-0.00263434,0.00551565,0.00294448,0.00646814,-0.00358683,1.25794,0.00588415,0.0255856,811,1590,0.483777,-17.4648
-406,-566,0.490479,17.9192,-0.00250379,0.00351038,0.0016881,0.00395181,-0.00294522,1.31503,0.00399611,0.0110131,818,1590,0.490462,-17.9192
-399,-566,0.478699,18.3472,-0.00211274,0.00198044,0.00102764,0.00222395,-0.00235626,1.33812,0.00264475,0.00970274,825,1590,0.478683,-18.3472
-392,-566,0.471741,18.7637,-0.00194775,0.000864417,0.000270213,0.000890146,-0.00197348,1.47587,0.00169229,0.0127088,832,1590,0.471748,-18.7636
-385,-566,0.484192,19.2251,-0.00146706,0.00136818,0.000223408,0.00138568,-0.00148456,1.49264,0.00165746,0.0155084,839,1590,0.484169,-19.2252
-378,-566,0.47583,19.6771,-0.000891662,0.00241567,8.19791e-05,0.0024177,-0.000893693,1.54603,0.00197818,0.0153717,846,1590,0.475845,-19.6771
-371,-566,0.410156,20.1031,-0.000566794,0.00391204,-0.000618255,0.00399581,-0.000650571,-1.43611,0.00290512,0.0206332,853,1590,0.410186,-20.1032
-364,-566,0.4151,20.5011,-0.000413678,0.00603615,-0.00163694,0.00642781,-0.000805344,-1.33594,0.00457733,0.0222372,860,1590,0.41509,-20.5012
-357,-566,0.396484,20.8837,-0.000327729,0.00850871,-0.00290529,0.00937834,-0.00119736,-1.27996,0.00668718,0.0191886,867,1590,0.396481,-20.8837
-350,-566,0.404663,21.3308,-0.000335081,0.0113227,-0.00442369,0.0128112,-0.00182364,-1.2462,0.00920909,0.020863,874,1590,0.40466,-21.3308
-343,-566,0.422668,21.7373,-0.00042387,0.014394,-0.00606829,0.016562,-0.0025918,-1.22767,0.0119989,0.0255814,881,1590,0.422676,-21.7373
-336,-566,0.319824,22.0952,-0.0006581,0.017943,-0.00801193,0.0209181,-0.00363319,-1.21525,0.0153009,0.0263554,888,1590,0.319828,-22.0953
-329,-566,0.398132,22.4637,-0.000960093,0.0217853,-0.00998761,0.0255483,-0.00472314,-1.21047,0.0188053,0.0210456,895,1590,0.398115,-22.4637
-322,-566,0.478577,23.0385,-0.00135108,0.0257662,-0.0119733,0.0302961,-0.00588098,-1.2091,0.0224164,0.0288289,902,1590,0.478566,-23.0384
-315,-566,0.73822,23.5964,0,0,0,0,0,0,0,-1,909,1590,0.738234,-23.5964
-308,-566,0.698425,23.1536,0,0,0,0,0,0,0,-1,916,1590,0.698422,-23.1536
-301,-566,1.16071,23.8297,0,0,0,0,0,0,0,-1,923,1590,1.1607,-23.8297
-294,-566,0.958862,24.8931,0,0,0,0,0,0,0,-1,930,1590,0.958877,-24.8931
-287,-566,1.25391,23.4589,0,0,0,0,0,0,0,-1,937,1590,1.2539,-23.4589
-280,-566,1.59406,17.8762,0,0,0,0,0,0,0,-1,944,1590,1.59405,-17.8762
-273,-566,0.49762,11.2427,0,0,0,0,0,0,0,-1,951,1590,0.497591,-11.2426
-266,-566,0.392151,6.90295,0,0,0,0,0,0,0,-1,958,1590,0.392151,-6.90294
-259,-566,0.343628,6.47437,0,0,0,0,0,0,0,-1,965,1590,0.34363,-6.47438
-252,-566,-7.68311,1.01343,0,0,0,0,0,0,0,-1,972,1590,-7.68308,-1.01348
-245,-566,-11.1835,1.97522,0,0,0,0,0,0,0,-1,979,1590,-11.1835,-1.97527
-238,-566,-10.4883,2.40491,0,0,0,0,0,0,0,-1,986,1590,-10.4883,-2.40487
-231,-566,-7.41827,4.22803,0,0,0,0,0,0,0,-1,993,1590,-7.41827,-4.22803
-224,-566,-4.67188,6.30859,0,0,0,0,0,0,0,-1,1000,1590,-4.67185,-6.30853
-217,-566,-2.82867,7.52527,0,0,0,0,0,0,0,-1,1007,1590,-2.82869,-7.52531
-210,-566,-1.03436,8.67737,0,0,0,0,0,0,0,-1,1014,1590,-1.03439,-8.67733
-203,-566,0,0,0,0,0,0,0,0,0,-1,1021,1590,0,0
-196,-566,0,0,0,0,0,0,0,0,0,-1,1028,1590,0,0
-189,-566,0,0,0,0,0,0,0,0,0,-1,1035,1590,0,0
-182,-566,0,0,0,0,0,0,0,0,0,-1,1042,1590,0,0
-175,-566,0,0,0,0,0,0,0,0,0,-1,1049,1590,0,0
-168,-566,0,0,0,0,0,0,0,0,0,-1,1056,1590,0,0
-161,-566,0,0,0,0,0,0,0,0,0,-1,1063,1590,0,0
-154,-566,0,0,0,0,0,0,0,0,0,-1,1070,1590,0,0
-147,-566,0,0,0,0,0,0,0,0,0,-1,1077,1590,0,0
-140,-566,0,0,0,0,0,0,0,0,0,-1,1084,1590,0,0
-133,-566,0,0,0,0,0,0,0,0,0,-1,1091,1590,0,0
-126,-566,0,0,0,0,0,0,0,0,0,-1,1098,1590,0,0
-119,-566,0,0,0,0,0,0,0,0,0,-1,1105,1590,0,0
-112,-566,0,0,0,0,0,0,0,0,0,-1,1112,1590,0,0
-105,-566,0,0,0,0,0,0,0,0,0,-1,1119,1590,0,0
-98,-566,0,0,0,0,0,0,0,0,0,-1,1126,1590,0,0
-91,-566,0,0,0,0,0,0,0,0,0,-1,1133,1590,0,0
-84,-566,0,0,0,0,0,0,0,0,0,-1,1140,1590,0,0
-77,-566,0,0,0,0,0,0,0,0,0,-1,1147,1590,0,0
-70,-566,0,0,0,0,0,0,0,0,0,-1,1154,1590,0,0
-63,-566,0,0,0,0,0,0,0,0,0,-1,1161,1590,0,0
-56,-566,0,0,0,0,0,0,0,0,0,-1,1168,1590,0,0
-49,-566,0,0,0,0,0,0,0,0,0,-1,1175,1590,0,0
-42,-566,0,0,0,0,0,0,0,0,0,-1,1182,1590,0,0
-35,-566,0,0,0,0,0,0,0,0,0,-1,1189,1590,0,0
-28,-566,0,0,0,0,0,0,0,0,0,-1,1196,1590,0,0
-21,-566,0,0,0,0,0,0,0,0,0,-1,1203,1590,0,0
-14,-566,0,0,0,0,0,0,0,0,0,-1,1210,1590,0,0
-7,-566,0,0,0,0,0,0,0,0,0,-1,1217,1590,0,0
0,-566,0,0,0,0,0,0,0,0,0,-1,1224,1590,0,0
7,-566,0,0,0,0,0,0,0,0,0,-1,1231,1590,0,0
14,-566,0,0,0,0,0,0,0,0,0,-1,1238,1590,0,0
21,-566,0,0,0,0,0,0,0,0,0,-1,1245,1590,0,0
28,-566,0,0,0,0,0,0,0,0,0,-1,1252,1590,0,0
35,-566,0,0,0,0,0,0,0,0,0,-1,1259,1590,0,0
42,-566,0,0,0,0,0,0,0,0,0,-1,1266,1590,0,0
49,-566,0,0,0,0,0,0,0,0,0,-1,1273,1590,0,0
56,-566,0,0,0,0,0,0,0,0,0,-1,1280,1590,0,0
63,-566,0,0,0,0,0,0,0,0,0,-1,1287,1590,0,0
70,-566,0,0,0,0,0,0,0,0,0,-1,1294,1590,0,0
77,-566,0,0,0,0,0,0,0,0,0,-1,1301,1590,0,0
84,-566,0,0,0,0,0,0,0,0,0,-1,1308,1590,0,0
91,-566,0,0,0,0,0,0,0,0,0,-1,1315,1590,0,0
98,-566,0,0,0,0,0,0,0,0,0,-1,1322,1590,0,0
105,-566,0,0,0,0,0,0,0,0,0,-1,1329,1590,0,0
112,-566,0,0,0,0,0,0,0,0,0,-1,1336,1590,0,0
119,-566,0,0,0,0,0,0,0,0,0,-1,1343,1590,0,0
126,-566,0,0,0,0,0,0,0,0,0,-1,1350,1590,0,0
133,-566,0,0,0,0,0,0,0,0,0,-1,1357,1590,0,0
140,-566,0,0,0,0,0,0,0,0,0,-1,1364,1590,0,0
147,-566,0,0,0,0,0,0,0,0,0,-1,1371,1590,0,0
154,-566,0,0,0,0,0,0,0,0,0,-1,1378,1590,0,0
161,-566,0,0,0,0,0,0,0,0,0,-1,1385,1590,0,0
168,-566,0,0,0,0,0,0,0,0,0,-1,1392,1590,0,0
175,-566,0,0,0,0,0,0,0,0,0,-1,1399,1590,0,0
182,-566,0,0,0,0,0,0,0,0,0,-1,1406,1590,0,0
189,-566,0,0,0,0,0,0,0,0,0,-1,1413,1590,0,0
196,-566,0,0,0,0,0,0,0,0,0,-1,1420,1590,0,0
203,-566,0,0,0,0,0,0,0,0,0,-1,1427,1590,0,0
210,-566,0,0,0,0,0,0,0,0,0,-1,1434,1590,0,0
217,-566,0,0,0,0,0,0,0,0,0,-1,1441,1590,0,0
224,-566,0,0,0,0,0,0,0,0,0,-1,1448,1590,0,0
231,-566,0,0,0,0,0,0,0,0,0,-1,1455,1590,0,0
238,-566,0,0,0,0,0,0,0,0,0,-1,1462,1590,0,0
245,-566,0,0,0,0,0,0,0,0,0,-1,1469,1590,0,0
252,-566,0,0,0,0,0,0,0,0,0,-1,1476,1590,0,0
259,-566,0,0,0,0,0,0,0,0,0,-1,1483,1590,0,0
266,-566,0,0,0,0,0,0,0,0,0,-1,1490,1590,0,0
273,-566,0,0,0,0,0,0,0,0,0,-1,1497,1590,0,0
280,-566,0,0,0,0,0,0,0,0,0,-1,1504,1590,0,0
287,-566,0,0,0,0,0,0,0,0,0,-1,1511,1590,0,0
294,-566,0,0,0,0,0,0,0,0,0,-1,1518,1590,0,0
301,-566,0,0,0,0,0,0,0,0,0,-1,1525,1590,0,0
308,-566,0,0,0,0,0,0,0,0,0,-1,1532,1590,0,0
315,-566,0,0,0,0,0,0,0,0,0,-1,1539,1590,0,0
322,-566,6.07983,4.44873,0,0,0,0,0,0,0,-1,1546,1590,6.07983,-4.44873
329,-566,5.77026,3.47534,0,0,0,0,0,0,0,-1,1553,1590,5.77026,-3.47535
336,-566,5.41138,2.62915,0,0,0,0,0,0,0,-1,1560,1590,5.41138,-2.62909
343,-566,4.81873,1.79089,0,0,0,0,0,0,0,-1,1567,1590,4.81878,-1.79095
350,-566,4.41663,2.44214,0,0,0,0,0,0,0,-1,1574,1590,4.41666,-2.44214
357,-566,6.34058,5.18579,0,0,0,0,0,0,0,-1,1581,1590,6.34059,-5.1858
364,-566,6.06262,4.20251,0,0,0,0,0,0,0,-1,1588,1590,6.06259,-4.20246
371,-566,5.78455,3.21912,0,0,0,0,0,0,0,-1,1595,1590,5.7846,-3.21912
378,-566,5.7439,0.695557,0,0,0,0,0,0,0,-1,1602,1590,5.74392,-0.695531
385,-566,5.67615,-0.573975,0,0,0,0,0,0,0,-1,1609,1590,5.67612,0.573956
392,-566,5.78638,1.82434,0,0,0,0,0,0,0,-1,1616,1590,5.78637,-1.82439
399,-566,5.36621,1.7373,0,0,0,0,0,0,0,-1,1623,1590,5.36627,-1.7373
406,-566,4.30359,5.26868,0,0,0,0,0,0,0,-1,1630,1590,4.30364,-5.26867
413,-566,4.27124,5.79492,0,0,0,0,0,0,0,-1,1637,1590,4.27123,-5.7949
420,-566,7.19812,8.25146,0,0,0,0,0,0,0,-1,1644,1590,7.19817,-8.25149
427,-566,10.455,10.6842,0,0,0,0,0,0,0,-1,1651,1590,10.455,-10.6842
434,-566,9.18567,14.3304,0,0,0,0,0,0,0,-1,1658,1590,9.18571,-14.3305
441,-566,14.4832,25.2123,0,0,0,0,0,0,0,-1,1665,1590,14.4831,-25.2123
448,-566,14.0482,24.9771,0,0,0,0,0,0,0,-1,1672,1590,14.0483,-24.977
455,-566,13.7222,24.2007,0,0,0,0,0,0,0,-1,1679,1590,13.7222,-24.2007
462,-566,13.7933,23.6703,0.00042401,0.0150569,-0.00368792,0.0159338,-0.000452903,-1.33735,0.0107767,0.0308751,1686,1590,13.7933,-23.6703
469,-566,13.8788,23.0685,0.00129044,0.012237,-0.0035737,0.0133004,0.000227044,-1.28158,0.00879222,0.0150829,1693,1590,13.8787,-23.0685
476,-566,13.9413,22.6462,0.00183394,0.00960147,-0.00323524,0.0107724,0.000662962,-1.22352,0.00697116,0.010488,1700,1590,13.9413,-22.6463
483,-566,13.9559,22.257,0.00228922,0.00720153,-0.00293288,0.00857088,0.000919871,-1.13398,0.00543331,0.0108496,1707,1590,13.9559,-22.2569
490,-566,13.955,21.8744,0.00229148,0.0051021,-0.00232959,0.00641743,0.000976151,-1.0568,0.00399288,0.0118331,1714,1590,13.9549,-21.8744
497,-566,14.0034,21.5179,0.00214626,0.00322395,-0.00189528,0.00465549,0.00071472,-0.923898,0.00289498,0.0152073,1721,1590,14.0034,-21.5179
504,-566,13.9833,21.1327,0.00151452,0.00158063,-0.00111811,0.00266617,0.00042897,-0.800176,0.00165312,0.019991,1728,1590,13.9833,-21.1326
511,-566,13.9646,20.7286,0.000386614,0.000345103,6.04575e-05,0.00042978,0.000301937,0.620046,0.000254829,0.0205965,1735,1590,13.9646,-20.7287
518,-566,13.9421,20.3414,-0.000839231,-0.000849533,0.00121218,0.000367808,-0.00205657,0.783273,0.00150867,0.0127513,1742,1590,13.9421,-20.3414
525,-566,13.9076,19.9337,-0.0024068,-0.00185719,0.00262931,0.000511632,-0.00477562,0.837468,0.00336727,0.0117015,1749,1590,13.9076,-19.9337
532,-566,13.9045,19.5327,-0.00433683,-0.00270961,0.00439596,0.000947396,-0.00799384,0.876903,0.00567146,0.0132472,1756,1590,13.9045,-19.5327
539,-566,13.9097,19.1111,-0.0067282,-0.00347456,0.00666066,0.00175507,-0.0119578,0.905175,0.0086167,0.0176107,1763,1590,13.9097,-19.1111
546,-566,13.9694,18.6353,-0.00986086,-0.00423459,0.00968568,0.00303822,-0.0171337,0.926731,0.0125583,0.0210785,1770,1590,13.9694,-18.6352
553,-566,13.9246,18.3865,-0.0134587,-0.00478504,0.013304,0.00487111,-0.0231149,0.942958,0.0172642,0.0344736,1777,1590,13.9246,-18.3865
560,-566,13.6246,18.33,-0.0176065,-0.00512654,0.0174592,0.00717432,-0.0299073,0.957025,0.0227106,0.0439976,1784,1590,13.6246,-18.3299
567,-566,13.498,18.2067,0,0,0,0,0,0,0,-1,1791,1590,13.498,-18.2067
574,-566,7.99548,3.14514,0,0,0,0,0,0,0,-1,1798,1590,7.99543,-3.14511
581,-566,2.54102,5.1311,0,0,0,0,0,0,0,-1,1805,1590,2.54099,-5.13111
588,-566,-1.91321,8.39197,0,0,0,0,0,0,0,-1,1812,1590,-1.91316,-8.39199
595,-566,9.0271,4.66467,0,0,0,0,0,0,0,-1,1819,1590,9.02705,-4.66468
602,-566,9.953,3.54895,0,0,0,0,0,0,0,-1,1826,1590,9.953,-3.54898
609,-566,0,0,0,0,0,0,0,0,0,-1,1833,1590,0,0
616,-566,0,0,0,0,0,0,0,0,0,-1,1840,1590,0,0
623,-566,0,0,0,0,0,0,0,0,0,-1,1847,1590,0,0
630,-566,0,0,0,0,0,0,0,0,0,-1,1854,1590,0,0
637,-566,0,0,0,0,0,0,0,0,0,-1,1861,1590,0,0
644,-566,0,0,0,0,0,0,0,0,0,-1,1868,1590,0,0
651,-566,0,0,0,0,0,0,0,0,0,-1,1875,1590,0,0
658,-566,0,0,0,0,0,0,0,0,0,-1,1882,1590,0,0
665,-566,0,0,0,0,0,0,0,0,0,-1,1889,1590,0,0
672,-566,0,0,0,0,0,0,0,0,0,-1,1896,1590,0,0
679,-566,0,0,0,0,0,0,0,0,0,-1,1903,1590,0,0
686,-566,0,0,0,0,0,0,0,0,0,-1,1910,1590,0,0
693,-566,0,0,0,0,0,0,0,0,0,-1,1917,1590,0,0
700,-566,0,0,0,0,0,0,0,0,0,-1,1924,1590,0,0
707,-566,0,0,0,0,0,0,0,0,0,-1,1931,1590,0,0
714,-566,0,0,0,0,0,0,0,0,0,-1,1938,1590,0,0
721,-566,0,0,0,0,0,0,0,0,0,-1,1945,1590,0,0
728,-566,0,0,0,0,0,0,0,0,0,-1,1952,1590,0,0
735,-566,0,0,0,0,0,0,0,0,0,-1,1959,1590,0,0
742,-566,0,0,0,0,0,0,0,0,0,-1,1966,1590,0,0
749,-566,0,0,0,0,0,0,0,0,0,-1,1973,1590,0,0
756,-566,0,0,0,0,0,0,0,0,0,-1,1980,1590,0,0
763,-566,0,0,0,0,0,0,0,0,0,-1,1987,1590,0,0
770,-566,0,0,0,0,0,0,0,0,0,-1,1994,1590,0,0
777,-566,0,0,0,0,0,0,0,0,0,-1,2001,1590,0,0
784,-566,0,0,0,0,0,0,0,0,0,-1,2008,1590,0,0
791,-566,0,0,0,0,0,0,0,0,0,-1,2015,1590,0,0
798,-566,0,0,0,0,0,0,0,0,0,-1,2022,1590,0,0
805,-566,0,0,0,0,0,0,0,0,0,-1,2029,1590,0,0
812,-566,0,0,0,0,0,0,0,0,0,-1,2036,1590,0,0
-700,-573,0,0,0,0,0,0,0,0,0,-1,524,1597,0,0
-693,-573,0,0,0,0,0,0,0,0,0,-1,531,1597,0,0
-686,-573,0,0,0,0,0,0,0,0,0,-1,538,1597,0,0
-679,-573,0,0,0,0,0,0,0,0,0,-1,545,1597,0,0
-672,-573,0,0,0,0,0,0,0,0,0,-1,552,1597,0,0
-665,-573,0,0,0,0,0,0,0,0,0,-1,559,1597,0,0
-658,-573,0,0,0,0,0,0,0,0,0,-1,566,1597,0,0
-651,-573,0,0,0,0,0,0,0,0,0,-1,573,1597,0,0
-644,-573,0,0,0,0,0,0,0,0,0,-1,580,1597,0,0
-637,-573,0,0,0,0,0,0,0,0,0,-1,587,1597,0,0
-630,-573,0,0,0,0,0,0,0,0,0,-1,594,1597,0,0
-623,-573,0,0,0,0,0,0,0,0,0,-1,601,1597,0,0
-616,-573,0,0,0,0,0,0,0,0,0,-1,608,1597,0,0
-609,-573,0,0,0,0,0,0,0,0,0,-1,615,1597,0,0
-602,-573,0,0,0,0,0,0,0,0,0,-1,622,1597,0,0
-595,-573,0,0,0,0,0,0,0,0,0,-1,629,1597,0,0
-588,-573,0,0,0,0,0,0,0,0,0,-1,636,1597,0,0
-581,-573,0,0,0,0,0,0,0,0,0,-1,643,1597,0,0
-574,-573,0,0,0,0,0,0,0,0,0,-1,650,1597,0,0
-567,-573,0,0,0,0,0,0,0,0,0,-1,657,1597,0,0
-560,-573,0,0,0,0,0,0,0,0,0,-1,664,1597,0,0
-553,-573,0,0,0,0,0,0,0,0,0,-1,671,1597,0,0
-546,-573,0,0,0,0,0,0,0,0,0,-1,678,1597,0,0
-539,-573,0,0,0,0,0,0,0,0,0,-1,685,1597,0,0
-532,-573,0,0,0,0,0,0,0,0,0,-1,692,1597,0,0
-525,-573,0,0,0,0,0,0,0,0,0,-1,699,1597,0,0
-518,-573,0,0,0,0,0,0,0,0,0,-1,706,1597,0,0
-511,-573,0,0,0,0,0,0,0,0,0,-1,713,1597,0,0
-504,-573,0,0,0,0,0,0,0,0,0,-1,720,1597,0,0
-497,-573,0,0,0,0,0,0,0,0,0,-1,727,1597,0,0
-490,-573,0,0,0,0,0,0,0,0,0,-1,734,1597,0,0
-483,-573,0,0,0,0,0,0,0,0,0,-1,741,1597,0,0
-476,-573,-9.3327,0.972778,0,0,0,0,0,0,0,-1,748,1597,-9.33268,-0.972776
-469,-573,-1.41681,1.13379,0,0,0,0,0,0,0,-1,755,1597,-1.41681,-1.13382
-462,-573,-0.748535,2.02588,0,0,0,0,0,0,0,-1,762,1597,-0.748533,-2.02584
-455,-573,-0.112976,2.70703,0,0,0,0,0,0,0,-1,769,1597,-0.112988,-2.70697
-448,-573,-1.26172,3.33252,0,0,0,0,0,0,0,-1,776,1597,-1.26173,-3.33248
-441,-573,0.108582,5.06726,0,0,0,0,0,0,0,-1,783,1597,0.108584,-5.06721
-434,-573,1.61768,7.05444,0,0,0,0,0,0,0,-1,790,1597,1.61767,-7.05446
-427,-573,-0.425781,16.5232,0,0,0,0,0,0,0,-1,797,1597,-0.425804,-16.5231
-420,-573,1.23413,16.411,0,0,0,0,0,0,0,-1,804,1597,1.23413,-16.411
-413,-573,0.827515,17.2933,0,0,0,0,0,0,0,-1,811,1597,0.827538,-17.2933
-406,-573,0.91925,17.8883,-0.00378655,0.00406338,0.00184644,0.00447601,-0.00419917,1.35094,0.00500947,0.0262598,818,1597,0.919239,-17.8883
-399,-573,0.888733,18.3605,-0.00329605,0.00203425,0.00104047,0.00223015,-0.00349195,1.3847,0.00333032,0.0120613,825,1597,0.88871,-18.3605
-392,-573,0.89978,18.7933,-0.00302077,0.000422146,0.000231848,0.000437688,-0.00303631,1.50386,0.00218476,0.0112811,832,1597,0.89978,-18.7934
-385,-573,0.902832,19.2354,-0.00239674,0.000449461,0.000315866,0.000484094,-0.00243137,1.46159,0.00180406,0.014198,839,1597,0.902848,-19.2353
-378,-573,0.892212,19.666,-0.00163632,0.000961696,0.000364037,0.00101174,-0.00168637,1.43418,0.0015739,0.0157765,846,1597,0.892186,-19.6661
-371,-573,0.870239,20.1001,-0.0010501,0.00181661,-7.05966e-06,0.00181663,-0.00105012,-1.56833,0.00167472,0.0162479,853,1597,0.87021,-20.1001
-364,-573,0.848816,20.4879,-0.000635589,0.00323916,-0.00064586,0.00334398,-0.000740408,-1.40991,0.00251275,0.019517,860,1597,0.848844,-20.488
-357,-573,0.842407,20.8932,-0.000290613,0.00500303,-0.00147126,0.00538446,-0.000672036,-1.31713,0.00383334,0.0235594,867,1597,0.842437,-20.8932
-350,-573,0.817261,21.3329,-1.26202e-05,0.007014,-0.00244871,0.00778316,-0.000781778,-1.26645,0.00546803,0.0181033,874,1597,0.817261,-21.3329
-343,-573,0.840698,21.7467,0.000207424,0.00918495,-0.00344195,0.0103527,-0.000960313,-1.24372,0.00724315,0.0214029,881,1597,0.840727,-21.7467
-336,-573,0.80542,22.158,0.000324704,0.0117127,-0.0046512,0.013371,-0.00133352,-1.22833,0.00939009,0.0170453,888,1597,0.805427,-22.1579
-329,-573,0.835327,22.5623,0.000397739,0.0144251,-0.00581598,0.0165228,-0.00169997,-1.22464,0.0116234,0.016621,895,1597,0.835353,-22.5623
-322,-573,0.825378,22.9984,0.000365508,0.0172278,-0.00697258,0.0197375,-0.00214414,-1.2253,0.0139282,0.014572,902,1597,0.825372,-22.9985
-315,-573,0.945435,23.573,0.000379537,0.0199964,-0.00801276,0.0228533,-0.00247733,-1.22831,0.0161248,0.033437,909,1597,0.945439,-23.573
-308,-573,1.25513,24.1942,0,0,0,0,0,0,0,-1,916,1597,1.25514,-24.1942
-301,-573,1.10358,24.3672,0,0,0,0,0,0,0,-1,923,1597,1.1036,-24.3672
-294,-573,1.14587,24.619,0,0,0,0,0,0,0,-1,930,1597,1.14586,-24.619
-287,-573,1.30176,25.1985,0,0,0,0,0,0,0,-1,937,1597,1.30174,-25.1985
-280,-573,1.9707,26.4362,0,0,0,0,0,0,0,-1,944,1597,1.97069,-26.4362
-273,-573,2.24805,25.4375,0,0,0,0,0,0,0,-1,951,1597,2.24803,-25.4374
-266,-573,1.31116,7.1814,0,0,0,0,0,0,0,-1,958,1597,1.31118,-7.18142
-259,-573,1.2514,6.70959,0,0,0,0,0,0,0,-1,965,1597,1.25137,-6.70965
-252,-573,2.07874,5.27161,0,0,0,0,0,0,0,-1,972,1597,2.07875,-5.27157
-245,-573,-10.2592,1.09827,0,0,0,0,0,0,0,-1,979,1597,-10.2592,-1.09823
-238,-573,-11.5463,4.44141,0,0,0,0,0,0,0,-1,986,1597,-11.5463,-4.44146
-231,-573,-9.23431,4.14539,0,0,0,0,0,0,0,-1,993,1597,-9.23431,-4.14534
-224,-573,-6.70044,7.40857,0,0,0,0,0,0,0,-1,1000,1597,-6.70045,-7.40851
-217,-573,-4.25824,8.59119,0,0,0,0,0,0,0,-1,1007,1597,-4.25824,-8.59122
-210,-573,-2.39661,9.73914,0,0,0,0,0,0,0,-1,1014,1597,-2.39658,-9.73915
-203,-573,-0.557373,10.9005,0,0,0,0,0,0,0,-1,1021,1597,-0.557387,-10.9006
-196,-573,-1.65344,9.02246,0,0,0,0,0,0,0,-1,1028,1597,-1.65349,-9.02241
-189,-573,-6.12915,6.66882,0,0,0,0,0,0,0,-1,1035,1597,-6.12913,-6.66884
-182,-573,0,0,0,0,0,0,0,0,0,-1,1042,1597,0,0
-175,-573,0,0,0,0,0,0,0,0,0,-1,1049,1597,0,0
-168,-573,0,0,0,0,0,0,0,0,0,-1,1056,1597,0,0
-161,-573,0,0,0,0,0,0,0,0,0,-1,1063,1597,0,0
-154,-573,0,0,0,0,0,0,0,0,0,-1,1070,1597,0,0
-147,-573,0,0,0,0,0,0,0,0,0,-1,1077,1597,0,0
-140,-573,0,0,0,0,0,0,0,0,0,-1,1084,1597,0,0
-133,-573,0,0,0,0,0,0,0,0,0,-1,1091,1597,0,0
-126,-573,0,0,0,0,0,0,0,0,0,-1,1098,1597,0,0
-119,-573,0,0,0,0,0,0,0,0,0,-1,1105,1597,0,0
-112,-573,0,0,0,0,0,0,0,0,0,-1,1112,1597,0,0
-105,-573,0,0,0,0,0,0,0,0,0,-1,1119,1597,0,0
-98,-573,0,0,0,0,0,0,0,0,0,-1,1126,1597,0,0
-91,-573,0,0,0,0,0,0,0,0,0,-1,1133,1597,0,0
-84,-573,0,0,0,0,0,0,0,0,0,-1,1140,1597,0,0
-77,-573,0,0,0,0,0,0,0,0,0,-1,1147,1597,0,0
-70,-573,0,0,0,0,0,0,0,0,0,-1,1154,1597,0,0
-63,-573,0,0,0,0,0,0,0,0,0,-1,1161,1597,0,0
-56,-573,0,0,0,0,0,0,0,0,0,-1,1168,1597,0,0
-49,-573,0,0,0,0,0,0,0,0,0,-1,1175,1597,0,0
-42,-573,0,0,0,0,0,0,0,0,0,-1,1182,1597,0,0
-35,-573,0,0,0,0,0,0,0,0,0,-1,1189,1597,0,0
-28,-573,0,0,0,0,0,0,0,0,0,-1,1196,1597,0,0
-21,-573,0,0,0,0,0,0,0,0,0,-1,1203,1597,0,0
-14,-573,0,0,0,0,0,0,0,0,0,-1,1210,1597,0,0
-7,-573,0,0,0,0,0,0,0,0,0,-1,1217,1597,0,0
0,-573,0,0,0,0,0,0,0,0,0,-1,1224,1597,0,0
7,-573,0,0,0,0,0,0,0,0,0,-1,1231,1597,0,0
14,-573,0,0,0,0,0,0,0,0,0,-1,1238,1597,0,0
21,-573,0,0,0,0,0,0,0,0,0,-1,1245,1597,0,0
28,-573,0,0,0,0,0,0,0,0,0,-1,1252,1597,0,0
35,-573,0,0,0,0,0,0,0,0,0,-1,1259,1597,0,0
42,-573,0,0,0,0,0,0,0,0,0,-1,1266,1597,0,0
49,-573,0,0,0,0,0,0,0,0,0,-1,1273,1597,0,0
56,-573,0,0,0,0,0,0,0,0,0,-1,1280,1597,0,0
63,-573,0,0,0,0,0,0,0,0,0,-1,1287,1597,0,0
70,-573,0,0,0,0,0,0,0,0,0,-1,1294,1597,0,0
77,-573,0,0,0,0,0,0,0,0,0,-1,1301,1597,0,0
84,-573,0,0,0,0,0,0,0,0,0,-1,1308,1597,0,0
91,-573,0,0,0,0,0,0,0,0,0,-1,1315,1597,0,0
98,-573,0,0,0,0,0,0,0,0,0,-1,1322,1597,0,0
105,-573,0,0,0,0,0,0,0,0,0,-1,1329,1597,0,0
112,-573,0,0,0,0,0,0,0,0,0,-1,1336,1597,0,0
119,-573,0,0,0,0,0,0,0,0,0,-1,1343,1597,0,0
126,-573,0,0,0,0,0,0,0,0,0,-1,1350,1597,0,0
133,-573,0,0,0,0,0,0,0,0,0,-1,1357,1597,0,0
140,-573,0,0,0,0,0,0,0,0,0,-1,1364,1597,0,0
147,-573,0,0,0,0,0,0,0,0,0,-1,1371,1597,0,0
154,-573,0,0,0,0,0,0,0,0,0,-1,1378,1597,0,0
161,-573,0,0,0,0,0,0,0,0,0,-1,1385,1597,0,0
168,-573,0,0,0,0,0,0,0,0,0,-1,1392,1597,0,0
175,-573,0,0,0,0,0,0,0,0,0,-1,1399,1597,0,0
182,-573,0,0,0,0,0,0,0,0,0,-1,1406,1597,0,0
189,-573,0,0,0,0,0,0,0,0,0,-1,1413,1597,0,0
196,-573,0,0,0,0,0,0,0,0,0,-1,1420,1597,0,0
203,-573,0,0,0,0,0,0,0,0,0,-1,1427,1597,0,0
210,-573,0,0,0,0,0,0,0,0,0,-1,1434,1597,0,0
217,-573,0,0,0,0,0,0,0,0,0,-1,1441,1597,0,0
224,-573,0,0,0,0,0,0,0,0,0,-1,1448,1597,0,0
231,-573,0,0,0,0,0,0,0,0,0,-1,1455,1597,0,0
238,-573,0,0,0,0,0,0,0,0,0,-1,1462,1597,0,0
245,-573,0,0,0,0,0,0,0,0,0,-1,1469,1597,0,0
252,-573,0,0,0,0,0,0,0,0,0,-1,1476,1597,0,0
259,-573,0,0,0,0,0,0,0,0,0,-1,1483,1597,0,0
266,-573,0,0,0,0,0,0,0,0,0,-1,1490,1597,0,0
273,-573,0,0,0,0,0,0,0,0,0,-1,1497,1597,0,0
280,-573,0,0,0,0,0,0,0,0,0,-1,1504,1597,0,0
287,-573,0,0,0,0,0,0,0,0,0,-1,1511,1597,0,0
294,-573,0,0,0,0,0,0,0,0,0,-1,1518,1597,0,0
301,-573,0,0,0,0,0,0,0,0,0,-1,1525,1597,0,0
308,-573,5.93042,9.71143,0,0,0,0,0,0,0,-1,1532,1597,5.93046,-9.71144
315,-573,4.34204,11.719,0,0,0,0,0,0,0,-1,1539,1597,4.34205,-11.719
322,-573,10.3269,7.77563,0,0,0,0,0,0,0,-1,1546,1597,10.327,-7.77565
329,-573,4.99573,3.80273,0,0,0,0,0,0,0,-1,1553,1597,4.9957,-3.80273
336,-573,4.85693,2.53455,0,0,0,0,0,0,0,-1,1560,1597,4.8569,-2.53459
343,-573,5.5946,2.15894,0,0,0,0,0,0,0,-1,1567,1597,5.59456,-2.1589
350,-573,2.53748,1.56433,0,0,0,0,0,0,0,-1,1574,1597,2.53753,-1.5643
357,-573,7.40247,4.03613,0,0,0,0,0,0,0,-1,1581,1597,7.40244,-4.03614
364,-573,7.14551,3.02087,0,0,0,0,0,0,0,-1,1588,1597,7.14556,-3.02084
371,-573,6.88867,2.00549,0,0,0,0,0,0,0,-1,1595,1597,6.88868,-2.00553
378,-573,8.62012,6.09106,0,0,0,0,0,0,0,-1,1602,1597,8.62012,-6.09103
385,-573,6.54346,-0.951904,0,0,0,0,0,0,0,-1,1609,1597,6.54349,0.951901
392,-573,6.41833,-2.18225,0,0,0,0,0,0,0,-1,1616,1597,6.41831,2.18228
399,-573,4.26282,4.73657,0,0,0,0,0,0,0,-1,1623,1597,4.26285,-4.73652
406,-573,6.82715,10.823,0,0,0,0,0,0,0,-1,1630,1597,6.82719,-10.823
413,-573,8.90552,13.1737,0,0,0,0,0,0,0,-1,1637,1597,8.90553,-13.1737
420,-573,13.7928,23.4659,0,0,0,0,0,0,0,-1,1644,1597,13.7928,-23.466
427,-573,14.465,25.6603,0,0,0,0,0,0,0,-1,1651,1597,14.4649,-25.6602
434,-573,14.099,25.2026,0,0,0,0,0,0,0,-1,1658,1597,14.0989,-25.2026
441,-573,13.8247,24.8008,-0.00331605,0.0184611,-0.00161238,0.0185798,-0.00343478,-1.49729,0.013676,0.0491405,1665,1597,13.8247,-24.8008
448,-573,13.5103,24.4629,-0.00186582,0.0161281,-0.00207469,0.0163642,-0.00210194,-1.45748,0.0116734,0.0384754,1672,1597,13.5102,-24.4629
455,-573,13.4847,23.905,-0.000761483,0.0139159,-0.00248057,0.0143238,-0.00116938,-1.40782,0.00996187,0.0270152,1679,1597,13.4847,-23.9051
462,-573,13.547,23.3732,0.000154806,0.0117721,-0.00274404,0.0123876,-0.000460733,-1.35013,0.00841618,0.0205374,1686,1597,13.547,-23.3731
469,-573,13.5549,22.9982,0.000895477,0.00949505,-0.0027298,0.0102884,0.000102134,-1.28796,0.00682514,0.0159293,1693,1597,13.5549,-22.9982
476,-573,13.5836,22.6281,0.00137594,0.00730427,-0.00251036,0.00822445,0.000455752,-1.21945,0.00533754,0.0148354,1700,1597,13.5836,-22.6281
483,-573,13.6064,22.2677,0.00181119,0.00524377,-0.00231604,0.00641013,0.000644821,-1.10427,0.00407552,0.0122773,1707,1597,13.6064,-22.2676
490,-573,13.5865,21.876,0.00187911,0.00338393,-0.00183729,0.0046169,0.000646137,-0.979743,0.00288676,0.0119269,1714,1597,13.5866,-21.8759
497,-573,13.5859,21.4686,0.00173711,0.00169247,-0.00147902,0.00319398,0.000235606,-0.777852,0.00205529,0.0178758,1721,1597,13.5859,-21.4686
504,-573,13.5695,21.0762,0.00104657,0.000172098,-0.000708955,0.00144228,-0.000223608,-0.509082,0.00104407,0.0172635,1728,1597,13.5694,-21.0761
511,-573,13.5427,20.671,-0.00020588,-0.000937719,0.000581438,0.0001152,-0.0012588,0.504543,0.000880115,0.0185714,1735,1597,13.5427,-20.671
518,-573,13.525,20.3303,-0.00151707,-0.0020262,0.00179638,4.26905e-05,-0.00358597,0.715012,0.002405,0.0147125,1742,1597,13.525,-20.3303
525,-573,13.514,19.9661,-0.00326362,-0.00293886,0.00336828,0.000270954,-0.00647343,0.809483,0.00440871,0.0171364,1749,1597,13.5141,-19.9661
532,-573,13.5223,19.5436,-0.00554052,-0.00374221,0.00544273,0.00087514,-0.0101579,0.86726,0.00708167,0.0155285,1756,1597,13.5224,-19.5436
539,-573,13.5151,19.1427,-0.00859115,-0.0044587,0.0082531,0.00198289,-0.0150327,0.908056,0.010744,0.0230367,1763,1597,13.5152,-19.1427
546,-573,13.5641,18.787,-0.012663,-0.00518281,0.0121105,0.00375198,-0.0215978,0.935167,0.0157984,0.0417143,1770,1597,13.5641,-18.787
553,-573,12.8562,18.5859,-0.0174892,-0.00561797,0.0168345,0.00629665,-0.0294038,0.954887,0.0220038,0.0472881,1777,1597,12.8562,-18.586
560,-573,12.1431,18.2371,-0.0234535,-0.00578859,0.0225356,0.00958361,-0.0388257,0.972165,0.0296001,0.0480855,1784,1597,12.1431,-18.237
567,-573,11.6273,18.1356,0,0,0,0,0,0,0,-1,1791,1597,11.6274,-18.1356
574,-573,0.83374,5.7041,0,0,0,0,0,0,0,-1,1798,1597,0.833718,-5.70405
581,-573,-0.224854,7.41602,0,0,0,0,0,0,0,-1,1805,1597,-0.224904,-7.41596
588,-573,-0.134033,7.67065,0,0,0,0,0,0,0,-1,1812,1597,-0.134037,-7.67063
595,-573,-0.0825195,8.35083,0,0,0,0,0,0,0,-1,1819,1597,-0.0824684,-8.35088
602,-573,0,0,0,0,0,0,0,0,0,-1,1826,1597,0,0
609,-573,0,0,0,0,0,0,0,0,0,-1,1833,1597,0,0
616,-573,0,0,0,0,0,0,0,0,0,-1,1840,1597,0,0
623,-573,0,0,0,0,0,0,0,0,0,-1,1847,1597,0,0
630,-573,0,0,0,0,0,0,0,0,0,-1,1854,1597,0,0
637,-573,0,0,0,0,0,0,0,0,0,-1,1861,1597,0,0
644,-573,0,0,0,0,0,0,0,0,0,-1,1868,1597,0,0
651,-573,0,0,0,0,0,0,0,0,0,-1,1875,1597,0,0
658,-573,0,0,0,0,0,0,0,0,0,-1,1882,1597,0,0
665,-573,0,0,0,0,0,0,0,0,0,-1,1889,1597,0,0
672,-573,0,0,0,0,0,0,0,0,0,-1,1896,1597,0,0
679,-573,0,0,0,0,0,0,0,0,0,-1,1903,1597,0,0
686,-573,0,0,0,0,0,0,0,0,0,-1,1910,1597,0,0
693,-573,0,0,0,0,0,0,0,0,0,-1,1917,1597,0,0
700,-573,0,0,0,0,0,0,0,0,0,-1,1924,1597,0,0
707,-573,0,0,0,0,0,0,0,0,0,-1,1931,1597,0,0
714,-573,0,0,0,0,0,0,0,0,0,-1,1938,1597,0,0
721,-573,0,0,0,0,0,0,0,0,0,-1,1945,1597,0,0
728,-573,0,0,0,0,0,0,0,0,0,-1,1952,1597,0,0
735,-573,0,0,0,0,0,0,0,0,0,-1,1959,1597,0,0
742,-573,0,0,0,0,0,0,0,0,0,-1,1966,1597,0,0
749,-573,0,0,0,0,0,0,0,0,0,-1,1973,1597,0,0
756,-573,0,0,0,0,0,0,0,0,0,-1,1980,1597,0,0
763,-573,0,0,0,0,0,0,0,0,0,-1,1987,1597,0,0
770,-573,0,0,0,0,0,0,0,0,0,-1,1994,1597,0,0
777,-573,0,0,0,0,0,0,0,0,0,-1,2001,1597,0,0
784,-573,0,0,0,0,0,0,0,0,0,-1,2008,1597,0,0
791,-573,0,0,0,0,0,0,0,0,0,-1,2015,1597,0,0
798,-573,0,0,0,0,0,0,0,0,0,-1,2022,1597,0,0
805,-573,0,0,0,0,0,0,0,0,0,-1,2029,1597,0,0
812,-573,0,0,0,0,0,0,0,0,0,-1,2036,1597,0,0
-700,-580,0,0,0,0,0,0,0,0,0,-1,524,1604,0,0
-693,-580,0,0,0,0,0,0,0,0,0,-1,531,1604,0,0
-686,-580,0,0,0,0,0,0,0,0,0,-1,538,1604,0,0
-679,-580,0,0,0,0,0,0,0,0,0,-1,545,1604,0,0
-672,-580,0,0,0,0,0,0,0,0,0,-1,552,1604,0,0
-665,-580,0,0,0,0,0,0,0,0,0,-1,559,1604,0,0
-658,-580,0,0,0,0,0,0,0,0,0,-1,566,1604,0,0
-651,-580,0,0,0,0,0,0,0,0,0,-1,573,1604,0,0
-644,-580,0,0,0,0,0,0,0,0,0,-1,580,1604,0,0
-637,-580,0,0,0,0,0,0,0,0,0,-1,587,1604,0,0
-630,-580,0,0,0,0,0,0,0,0,0,-1,594,1604,0,0
-623,-580,0,0,0,0,0,0,0,0,0,-1,601,1604,0,0
-616,-580,0,0,0,0,0,0,0,0,0,-1,608,1604,0,0
-609,-580,0,0,0,0,0,0,0,0,0,-1,615,1604,0,0
-602,-580,0,0,0,0,0,0,0,0,0,-1,622,1604,0,0
-595,-580,0,0,0,0,0,0,0,0,0,-1,629,1604,0,0
-588,-580,0,0,0,0,0,0,0,0,0,-1,636,1604,0,0
-581,-580,0,0,0,0,0,0,0,0,0,-1,643,1604,0,0
-574,-580,0,0,0,0,0,0,0,0,0,-1,650,1604,0,0
-567,-580,0,0,0,0,0,0,0,0,0,-1,657,1604,0,0
-560,-580,0,0,0,0,0,0,0,0,0,-1,664,1604,0,0
-553,-580,0,0,0,0,0,0,0,0,0,-1,671,1604,0,0
-546,-580,0,0,0,0,0,0,0,0,0,-1,678,1604,0,0
-539,-580,0,0,0,0,0,0,0,0,0,-1,685,1604,0,0
-532,-580,0,0,0,0,0,0,0,0,0,-1,692,1604,0,0
-525,-580,0,0,0,0,0,0,0,0,0,-1,699,1604,0,0
-518,-580,0,0,0,0,0,0,0,0,0,-1,706,1604,0,0
-511,-580,0,0,0,0,0,0,0,0,0,-1,713,1604,0,0
-504,-580,0,0,0,0,0,0,0,0,0,-1,720,1604,0,0
-497,-580,0,0,0,0,0,0,0,0,0,-1,727,1604,0,0
-490,-580,0,0,0,0,0,0,0,0,0,-1,734,1604,0,0
-483,-580,0,0,0,0,0,0,0,0,0,-1,741,1604,0,0
-476,-580,0,0,0,0,0,0,0,0,0,-1,748,1604,0,0
-469,-580,-1.69189,-0.38916,0,0,0,0,0,0,0,-1,755,1604,-1.69192,0.389188
-462,-580,-0.859863,0.675293,0,0,0,0,0,0,0,-1,762,1604,-0.859834,-0.675245
-455,-580,-0.730164,0.651978,0,0,0,0,0,0,0,-1,769,1604,-0.730153,-0.651957
-448,-580,-3.31891,2.07544,0,0,0,0,0,0,0,-1,776,1604,-3.3189,-2.07539
-441,-580,-1.63843,3.9469,0,0,0,0,0,0,0,-1,783,1604,-1.63842,-3.94695
-434,-580,0.23291,5.97876,0,0,0,0,0,0,0,-1,790,1604,0.232901,-5.97878
-427,-580,1.62756,8.05493,0,0,0,0,0,0,0,-1,797,1604,1.62758,-8.05488
-420,-580,0.986572,11.2383,0,0,0,0,0,0,0,-1,804,1604,0.986544,-11.2382
-413,-580,1.54639,16.7146,0,0,0,0,0,0,0,-1,811,1604,1.54639,-16.7147
-406,-580,1.33679,17.8873,0,0,0,0,0,0,0,-1,818,1604,1.33682,-17.8874
-399,-580,1.32513,18.3903,-0.00476643,0.0024412,0.00118831,0.00263205,-0.00495728,1.41154,0.00444973,0.0270262,825,1604,1.32512,-18.3903
-392,-580,1.30725,18.8173,-0.00424204,0.00029844,0.000349812,0.000325232,-0.00426884,1.49435,0.00296026,0.0145708,832,1604,1.30725,-18.8173
-385,-580,1.31006,19.2515,-0.00338456,-0.000159756,0.000523996,-7.6749e-05,-0.00346757,1.41369,0.00228656,0.0119083,839,1604,1.31005,-19.2515
-378,-580,1.29962,19.6854,-0.00241041,-0.000133391,0.000678455,5.34311e-05,-0.00259723,1.30209,0.00174957,0.0144759,846,1604,1.29963,-19.6854
-371,-580,1.27515,20.1243,-0.00158379,0.000189045,0.000511707,0.000326141,-0.00172088,1.30902,0.00127,0.0133493,853,1604,1.27518,-20.1242
-364,-580,1.2627,20.5143,-0.000953512,0.00104479,0.000114107,0.00105129,-0.000960006,1.51394,0.00116162,0.0194169,860,1604,1.26271,-20.5143
-357,-580,1.27692,20.923,-0.000415657,0.00226684,-0.00042425,0.00233234,-0.000481155,-1.41762,0.00173763,0.0140117,867,1604,1.2769,-20.923
-350,-580,1.24622,21.3677,6.11955e-05,0.00369772,-0.00104867,0.00397845,-0.000219537,-1.30923,0.00272842,0.0114379,874,1604,1.24619,-21.3677
-343,-580,1.22675,21.761,0.000482245,0.005244,-0.00161522,0.00574019,-1.39412e-05,-1.27275,0.00383145,0.0121155,881,1604,1.22676,-21.761
-336,-580,1.242,22.1375,0.000825058,0.00704977,-0.00234635,0.00783513,3.97081e-05,-1.24781,0.00521023,0.0196041,888,1604,1.24202,-22.1374
-329,-580,1.23352,22.5907,0.00112859,0.00895611,-0.00298439,0.00996415,0.00012055,-1.24506,0.00660295,0.0168335,895,1604,1.23354,-22.5907
-322,-580,1.24707,23.002,0.00132637,0.0109496,-0.00355295,0.0121192,0.000156752,-1.25277,0.00802772,0.0182037,902,1604,1.24706,-23.0019
-315,-580,1.25385,23.371,0.00156295,0.0128373,-0.00402318,0.0141257,0.000274546,-1.26087,0.00932697,0.0190181,909,1604,1.25388,-23.3709
-308,-580,1.3407,23.9003,0.00191058,0.0143373,-0.00432687,0.0156954,0.000552437,-1.26665,0.0102844,0.0282471,916,1604,1.34069,-23.9002
-301,-580,1.40601,24.1696,0.00249899,0.0155148,-0.00433143,0.0168244,0.00118934,-1.27718,0.0108416,0.0272817,923,1604,1.40601,-24.1696
-294,-580,1.32281,24.4786,0.00351618,0.0170406,-0.00348835,0.0178873,0.00266944,-1.33267,0.0111422,0.0309394,930,1604,1.32281,-24.4787
-287,-580,1.46832,25.1583,0,0,0,0,0,0,0,-1,937,1604,1.46833,-25.1583
-280,-580,1.82416,26.0596,0,0,0,0,0,0,0,-1,944,1604,1.82417,-26.0596
-273,-580,2.07397,26.7665,0,0,0,0,0,0,0,-1,951,1604,2.07396,-26.7665
-266,-580,1.71777,25.6515,0,0,0,0,0,0,0,-1,958,1604,1.71775,-25.6515
-259,-580,1.31091,9.11536,0,0,0,0,0,0,0,-1,965,1604,1.31092,-9.11539
-252,-580,1.07629,7.74097,0,0,0,0,0,0,0,-1,972,1604,1.07627,-7.74101
-245,-580,3.80304,9.16028,0,0,0,0,0,0,0,-1,979,1604,3.80306,-9.16034
-238,-580,-10.3588,1.57556,0,0,0,0,0,0,0,-1,986,1604,-10.3588,-1.5755
-231,-580,-10.576,6.43787,0,0,0,0,0,0,0,-1,993,1604,-10.576,-6.43783
-224,-580,-8.27435,7.58972,0,0,0,0,0,0,0,-1,1000,1604,-8.27435,-7.5897
-217,-580,-5.85632,9.51221,0,0,0,0,0,0,0,-1,1007,1604,-5.85632,-9.5122
-210,-580,-3.6684,11.1569,0,0,0,0,0,0,0,-1,1014,1604,-3.66839,-11.1569
-203,-580,-1.92474,12.7845,0,0,0,0,0,0,0,-1,1021,1604,-1.92477,-12.7845
-196,-580,-2.28552,10.3289,0,0,0,0,0,0,0,-1,1028,1604,-2.28552,-10.3288
-189,-580,-4.58252,7.59058,0,0,0,0,0,0,0,-1,1035,1604,-4.58256,-7.59057
-182,-580,-5.45874,7.65942,0,0,0,0,0,0,0,-1,1042,1604,-5.45876,-7.65939
-175,-580,-6.38977,7.55005,0,0,0,0,0,0,0,-1,1049,1604,-6.38981,-7.5501
-168,-580,0,0,0,0,0,0,0,0,0,-1,1056,1604,0,0
-161,-580,0,0,0,0,0,0,0,0,0,-1,1063,1604,0,0
-154,-580,0,0,0,0,0,0,0,0,0,-1,1070,1604,0,0
-147,-580,0,0,0,0,0,0,0,0,0,-1,1077,1604,0,0
-140,-580,0,0,0,0,0,0,0,0,0,-1,1084,1604,0,0
-133,-580,0,0,0,0,0,0,0,0,0,-1,1091,1604,0,0
-126,-580,0,0,0,0,0,0,0,0,0,-1,1098,1604,0,0
-119,-580,0,0,0,0,0,0,0,0,0,-1,1105,1604,0,0
-112,-580,0,0,0,0,0,0,0,0,0,-1,1112,1604,0,0
-105,-580,0,0,0,0,0,0,0,0,0,-1,1119,1604,0,0
-98,-580,0,0,0,0,0,0,0,0,0,-1,1126,1604,0,0
-91,-580,0,0,0,0,0,0,0,0,0,-1,1133,1604,0,0
-84,-580,0,0,0,0,0,0,0,0,0,-1,1140,1604,0,0
-77,-580,0,0,0,0,0,0,0,0,0,-1,1147,1604,0,0
-70,-580,0,0,0,0,0,0,0,0,0,-1,1154,1604,0,0
-63,-580,0,0,0,0,0,0,0,0,0,-1,1161,1604,0,0
-56,-580,0,0,0,0,0,0,0,0,0,-1,1168,1604,0,0
-49,-580,0,0,0,0,0,0,0,0,0,-1,1175,1604,0,0
-42,-580,0,0,0,0,0,0,0,0,0,-1,1182,1604,0,0
-35,-580,0,0,0,0,0,0,0,0,0,-1,1189,1604,0,0
-28,-580,0,0,0,0,0,0,0,0,0,-1,1196,1604,0,0
-21,-580,0,0,0,0,0,0,0,0,0,-1,1203,1604,0,0
-14,-580,0,0,0,0,0,0,0,0,0,-1,1210,1604,0,0
-7,-580,0,0,0,0,0,0,0,0,0,-1,1217,1604,0,0
0,-580,0,0,0,0,0,0,0,0,0,-1,1224,1604,0,0
7,-580,0,0,0,0,0,0,0,0,0,-1,1231,1604,0,0
14,-580,0,0,0,0,0,0,0,0,0,-1,1238,1604,0,0
21,-580,0,0,0,0,0,0,0,0,0,-1,1245,1604,0,0
28,-580,0,0,0,0,0,0,0,0,0,-1,1252,1604,0,0
35,-580,0,0,0,0,0,0,0,0,0,-1,1259,1604,0,0
42,-580,0,0,0,0,0,0,0,0,0,-1,1266,1604,0,0
49,-580,0,0,0,0,0,0,0,0,0,-1,1273,1604,0,0
56,-580,0,0,0,0,0,0,0,0,0,-1,1280,1604,0,0
63,-580,0,0,0,0,0,0,0,0,0,-1,1287,1604,0,0
70,-580,0,0,0,0,0,0,0,0,0,-1,1294,1604,0,0
77,-580,0,0,0,0,0,0,0,0,0,-1,1301,1604,0,0
84,-580,0,0,0,0,0,0,0,0,0,-1,1308,1604,0,0
91,-580,0,0,0,0,0,0,0,0,0,-1,1315,1604,0,0
98,-580,0,0,0,0,0,0,0,0,0,-1,1322,1604,0,0
105,-580,0,0,0,0,0,0,0,0,0,-1,1329,1604,0,0
112,-580,0,0,0,0,0,0,0,0,0,-1,1336,1604,0,0
119,-580,0,0,0,0,0,0,0,0,0,-1,1343,1604,0,0
126,-580,0,0,0,0,0,0,0,0,0,-1,1350,1604,0,0
133,-580,0,0,0,0,0,0,0,0,0,-1,1357,1604,0,0
140,-580,0,0,0,0,0,0,0,0,0,-1,1364,1604,0,0
147,-580,0,0,0,0,0,0,0,0,0,-1,1371,1604,0,0
154,-580,0,0,0,0,0,0,0,0,0,-1,1378,1604,0,0
161,-580,0,0,0,0,0,0,0,0,0,-1,1385,1604,0,0
168,-580,0,0,0,0,0,0,0,0,0,-1,1392,1604,0,0
175,-580,0,0,0,0,0,0,0,0,0,-1,1399,1604,0,0
182,-580,0,0,0,0,0,0,0,0,0,-1,1406,1604,0,0
189,-580,0,0,0,0,0,0,0,0,0,-1,1413,1604,0,0
196,-580,0,0,0,0,0,0,0,0,0,-1,1420,1604,0,0
203,-580,0,0,0,0,0,0,0,0,0,-1,1427,1604,0,0
210,-580,0,0,0,0,0,0,0,0,0,-1,1434,1604,0,0
217,-580,0,0,0,0,0,0,0,0,0,-1,1441,1604,0,0
224,-580,0,0,0,0,0,0,0,0,0,-1,1448,1604,0,0
231,-580,0,0,0,0,0,0,0,0,0,-1,1455,1604,0,0
238,-580,0,0,0,0,0,0,0,0,0,-1,1462,1604,0,0
245,-580,0,0,0,0,0,0,0,0,0,-1,1469,1604,0,0
252,-580,0,0,0,0,0,0,0,0,0,-1,1476,1604,0,0
259,-580,0,0,0,0,0,0,0,0,0,-1,1483,1604,0,0
266,-580,0,0,0,0,0,0,0,0,0,-1,1490,1604,0,0
273,-580,0,0,0,0,0,0,0,0,0,-1,1497,1604,0,0
280,-580,0,0,0,0,0,0,0,0,0,-1,1504,1604,0,0
287,-580,0,0,0,0,0,0,0,0,0,-1,1511,1604,0,0
294,-580,4.0437,0.177368,0,0,0,0,0,0,0,-1,1518,1604,4.04369,-0.177371
301,-580,7.55164,8.05798,0,0,0,0,0,0,0,-1,1525,1604,7.55158,-8.05802
308,-580,5.9126,9.99341,0,0,0,0,0,0,0,-1,1532,1604,5.91255,-9.99337
315,-580,4.27356,11.9287,0,0,0,0,0,0,0,-1,1539,1604,4.27352,-11.9287
322,-580,10.2366,7.50281,0,0,0,0,0,0,0,-1,1546,1604,10.2366,-7.50282
329,-580,10.5962,8.69641,0,0,0,0,0,0,0,-1,1553,1604,10.5962,-8.69642
336,-580,3.66431,1.58862,0,0,0,0,0,0,0,-1,1560,1604,3.6643,-1.58864
343,-580,3.32227,1.39636,0,0,0,0,0,0,0,-1,1567,1604,3.32222,-1.39633
350,-580,8.71277,4.0564,0,0,0,0,0,0,0,-1,1574,1604,8.71271,-4.05638
357,-580,8.52332,3.08154,0,0,0,0,0,0,0,-1,1581,1604,8.52332,-3.08157
364,-580,8.25818,2.07605,0,0,0,0,0,0,0,-1,1588,1604,8.25812,-2.07608
371,-580,7.42114,7.14282,0,0,0,0,0,0,0,-1,1595,1604,7.42119,-7.14281
378,-580,7.9718,6.6731,0,0,0,0,0,0,0,-1,1602,1604,7.9718,-6.67307
385,-580,8.52246,6.20337,0,0,0,0,0,0,0,-1,1609,1604,8.52241,-6.20334
392,-580,11.9287,23.7726,0,0,0,0,0,0,0,-1,1616,1604,11.9287,-23.7725
399,-580,12.8627,24.5559,0,0,0,0,0,0,0,-1,1623,1604,12.8627,-24.5559
406,-580,13.3499,26.4197,0,0,0,0,0,0,0,-1,1630,1604,13.3499,-26.4196
413,-580,13.3549,26.0168,0,0,0,0,0,0,0,-1,1637,1604,13.3549,-26.0169
420,-580,13.7826,25.6243,0,0,0,0,0,0,0,-1,1644,1604,13.7826,-25.6242
427,-580,13.6016,25.4434,-0.00363287,0.0179703,-0.00051383,0.0179825,-0.00364508,-1.54703,0.01337,0.0413604,1651,1604,13.6016,-25.4434
434,-580,13.2209,25.0518,-0.00311081,0.015847,-0.000765609,0.0158778,-0.00314168,-1.5305,0.011773,0.030259,1658,1604,13.2209,-25.0517
441,-580,13.1226,24.5686,-0.00224401,0.0139694,-0.00113554,0.0140485,-0.00232315,-1.50121,0.0102284,0.0158792,1665,1604,13.1225,-24.5686
448,-580,13.1802,24.1371,-0.00130409,0.0122266,-0.00150399,0.0123918,-0.00146925,-1.46142,0.00879196,0.0144511,1672,1604,13.1802,-24.1371
455,-580,13.2295,23.7643,-0.000548427,0.0105394,-0.001837,0.0108358,-0.000844853,-1.41081,0.00752131,0.019039,1679,1604,13.2295,-23.7643
462,-580,13.1609,23.384,0.000130597,0.00880518,-0.00207022,0.00927391,-0.000338142,-1.34813,0.00629835,0.0230667,1686,1604,13.1609,-23.384
469,-580,13.1429,23.0035,0.000722544,0.00696885,-0.00209747,0.00760781,8.35876e-05,-1.2751,0.00504424,0.0212291,1693,1604,13.143,-23.0035
476,-580,13.1948,22.6274,0.00113162,0.00516787,-0.00194554,0.00595295,0.000346543,-1.18725,0.00385831,0.0155189,1700,1604,13.1949,-22.6275
483,-580,13.2052,22.2772,0.00150943,0.00340901,-0.00180228,0.00449645,0.000421988,-1.0279,0.00286734,0.013061,1707,1604,13.2052,-22.2772
490,-580,13.1619,21.9127,0.00160008,0.00176824,-0.0014083,0.00309497,0.000273348,-0.815215,0.0019785,0.01618,1714,1604,13.1618,-21.9127
497,-580,13.1547,21.5144,0.00144402,0.00025189,-0.00109535,0.00209499,-0.000399079,-0.536218,0.00154694,0.0131358,1721,1604,13.1547,-21.5144
504,-580,13.1537,21.0872,0.00070773,-0.00115298,-0.000341285,0.000768352,-0.00121361,-0.175795,0.00115387,0.0174301,1728,1604,13.1537,-21.0872
511,-580,13.1476,20.7192,-0.000648927,-0.00216395,0.00102289,-0.000133596,-0.00267928,0.466682,0.00174336,0.0176494,1735,1604,13.1475,-20.7192
518,-580,13.1462,20.3424,-0.00204374,-0.00317353,0.00228099,-0.000258738,-0.00495853,0.664014,0.00322291,0.015835,1742,1604,13.1462,-20.3424
525,-580,13.1216,19.9771,-0.00398297,-0.00403068,0.00399174,-1.50185e-05,-0.00799864,0.78241,0.00532743,0.0168649,1749,1604,13.1216,-19.9771
532,-580,13.1224,19.5801,-0.00666286,-0.00483159,0.00637803,0.000696193,-0.0121906,0.856692,0.00836882,0.0191236,1756,1604,13.1224,-19.5801
539,-580,13.1587,19.2771,-0.0105236,-0.00556057,0.00979991,0.00206711,-0.0181513,0.909402,0.0128455,0.030935,1763,1604,13.1587,-19.2771
546,-580,13.2104,18.9385,0,0,0,0,0,0,0,-1,1770,1604,13.2105,-18.9384
553,-580,11.7383,18.7018,0,0,0,0,0,0,0,-1,1777,1604,11.7383,-18.7018
560,-580,10.9452,18.1364,0,0,0,0,0,0,0,-1,1784,1604,10.9452,-18.1363
567,-580,3.87708,4.0647,0,0,0,0,0,0,0,-1,1791,1604,3.87711,-4.06471
574,-580,2.31653,5.62952,0,0,0,0,0,0,0,-1,1798,1604,2.31654,-5.62947
581,-580,1.60876,6.67664,0,0,0,0,0,0,0,-1,1805,1604,1.60873,-6.67667
588,-580,1.38684,7.14441,0,0,0,0,0,0,0,-1,1812,1604,1.38689,-7.14443
595,-580,0,0,0,0,0,0,0,0,0,-1,1819,1604,0,0
602,-580,0,0,0,0,0,0,0,0,0,-1,1826,1604,0,0
609,-580,0,0,0,0,0,0,0,0,0,-1,1833,1604,0,0
616,-580,0,0,0,0,0,0,0,0,0,-1,1840,1604,0,0
623,-580,0,0,0,0,0,0,0,0,0,-1,1847,1604,0,0
630,-580,0,0,0,0,0,0,0,0,0,-1,1854,1604,0,0
637,-580,0,0,0,0,0,0,0,0,0,-1,1861,1604,0,0
644,-580,0,0,0,0,0,0,0,0,0,-1,1868,1604,0,0
651,-580,0,0,0,0,0,0,0,0,0,-1,1875,1604,0,0
658,-580,0,0,0,0,0,0,0,0,0,-1,1882,1604,0,0
665,-580,0,0,0,0,0,0,0,0,0,-1,1889,1604,0,0
672,-580,0,0,0,0,0,0,0,0,0,-1,1896,1604,0,0
679,-580,0,0,0,0,0,0,0,0,0,-1,1903,1604,0,0
686,-580,0,0,0,0,0,0,0,0,0,-1,1910,1604,0,0
693,-580,0,0,0,0,0,0,0,0,0,-1,1917,1604,0,0
700,-580,0,0,0,0,0,0,0,0,0,-1,1924,1604,0,0
707,-580,0,0,0,0,0,0,0,0,0,-1,1931,1604,0,0
714,-580,0,0,0,0,0,0,0,0,0,-1,1938,1604,0,0
721,-580,0,0,0,0,0,0,0,0,0,-1,1945,1604,0,0
728,-580,0,0,0,0,0,0,0,0,0,-1,1952,1604,0,0
735,-580,0,0,0,0,0,0,0,0,0,-1,1959,1604,0,0
742,-580,0,0,0,0,0,0,0,0,0,-1,1966,1604,0,0
749,-580,0,0,0,0,0,0,0,0,0,-1,1973,1604,0,0
756,-580,0,0,0,0,0,0,0,0,0,-1,1980,1604,0,0
763,-580,0,0,0,0,0,0,0,0,0,-1,1987,1604,0,0
770,-580,0,0,0,0,0,0,0,0,0,-1,1994,1604,0,0
777,-580,0,0,0,0,0,0,0,0,0,-1,2001,1604,0,0
784,-580,0,0,0,0,0,0,0,0,0,-1,2008,1604,0,0
791,-580,0,0,0,0,0,0,0,0,0,-1,2015,1604,0,0
798,-580,0,0,0,0,0,0,0,0,0,-1,2022,1604,0,0
805,-580,0,0,0,0,0,0,0,0,0,-1,2029,1604,0,0
812,-580,0,0,0,0,0,0,0,0,0,-1,2036,1604,0,0
-700,-587,0,0,0,0,0,0,0,0,0,-1,524,1611,0,0
-693,-587,0,0,0,0,0,0,0,0,0,-1,531,1611,0,0
-686,-587,0,0,0,0,0,0,0,0,0,-1,538,1611,0,0
-679,-587,0,0,0,0,0,0,0,0,0,-1,545,1611,0,0
-672,-587,0,0,0,0,0,0,0,0,0,-1,552,1611,0,0
-665,-587,0,0,0,0,0,0,0,0,0,-1,559,1611,0,0
-658,-587,0,0,0,0,0,0,0,0,0,-1,566,1611,0,0
-651,-587,0,0,0,0,0,0,0,0,0,-1,573,1611,0,0
-644,-587,0,0,0,0,0,0,0,0,0,-1,580,1611,0,0
-637,-587,0,0,0,0,0,0,0,0,0,-1,587,1611,0,0
-630,-587,0,0,0,0,0,0,0,0,0,-1,594,1611,0,0
-623,-587,0,0,0,0,0,0,0,0,0,-1,601,1611,0,0
-616,-587,0,0,0,0,0,0,0,0,0,-1,608,1611,0,0
-609,-587,0,0,0,0,0,0,0,0,0,-1,615,1611,0,0
-602,-587,0,0,0,0,0,0,0,0,0,-1,622,1611,0,0
-595,-587,0,0,0,0,0,0,0,0,0,-1,629,1611,0,0
-588,-587,0,0,0,0,0,0,0,0,0,-1,636,1611,0,0
-581,-587,0,0,0,0,0,0,0,0,0,-1,643,1611,0,0
-574,-587,0,0,0,0,0,0,0,0,0,-1,650,1611,0,0
-567,-587,0,0,0,0,0,0,0,0,0,-1,657,1611,0,0
-560,-587,0,0,0,0,0,0,0,0,0,-1,664,1611,0,0
-553,-587,0,0,0,0,0,0,0,0,0,-1,671,1611,0,0
-546,-587,0,0,0,0,0,0,0,0,0,-1,678,1611,0,0
-539,-587,0,0,0,0,0,0,0,0,0,-1,685,1611,0,0
-532,-587,0,0,0,0,0,0,0,0,0,-1,692,1611,0,0
-525,-587,0,0,0,0,0,0,0,0,0,-1,699,1611,0,0
-518,-587,0,0,0,0,0,0,0,0,0,-1,706,1611,0,0
-511,-587,0,0,0,0,0,0,0,0,0,-1,713,1611,0,0
-504,-587,0,0,0,0,0,0,0,0,0,-1,720,1611,0,0
-497,-587,0,0,0,0,0,0,0,0,0,-1,727,1611,0,0
-490,-587,0,0,0,0,0,0,0,0,0,-1,734,1611,0,0
-483,-587,0,0,0,0,0,0,0,0,0,-1,741,1611,0,0
-476,-587,0,0,0,0,0,0,0,0,0,-1,748,1611,0,0
-469,-587,0,0,0,0,0,0,0,0,0,-1,755,1611,0,0
-462,-587,-0.714355,-0.418457,0,0,0,0,0,0,0,-1,762,1611,-0.714359,0.418483
-455,-587,-0.619812,-0.522461,0,0,0,0,0,0,0,-1,769,1611,-0.619802,0.522515
-448,-587,-0.461731,-0.686523,0,0,0,0,0,0,0,-1,776,1611,-0.461739,0.686559
-441,-587,-3.56555,2.72253,0,0,0,0,0,0,0,-1,783,1611,-3.56555,-2.72259
-434,-587,-1.77319,4.76318,0,0,0,0,0,0,0,-1,790,1611,-1.77318,-4.76323
-427,-587,0.0346069,6.92944,0,0,0,0,0,0,0,-1,797,1611,0.034587,-6.92941
-420,-587,-0.647156,10.1157,0,0,0,0,0,0,0,-1,804,1611,-0.647128,-10.1158
-413,-587,2.13971,10.3901,0,0,0,0,0,0,0,-1,811,1611,2.13971,-10.3902
-406,-587,2.34845,17.8341,0,0,0,0,0,0,0,-1,818,1611,2.34846,-17.8341
-399,-587,2.07947,18.3523,-0.00652908,0.00306039,0.0013107,0.00323631,-0.006705,1.43737,0.00585492,0.0465884,825,1611,2.07948,-18.3523
-392,-587,1.86713,18.7577,-0.0056221,0.000407122,0.000539416,0.000455001,-0.00566998,1.48227,0.00394042,0.0368349,832,1611,1.86712,-18.7577
-385,-587,1.65186,19.2357,-0.00447659,-0.000365734,0.000744042,-0.00023521,-0.00460711,1.39714,0.00299608,0.0183445,839,1611,1.65183,-19.2357
-378,-587,1.65643,19.7087,-0.00329542,-0.000644584,0.000909517,-0.000362534,-0.00357747,1.27009,0.00227379,0.0122979,846,1611,1.65645,-19.7088
-371,-587,1.65527,20.1454,-0.00225829,-0.000766056,0.000841681,-0.000387399,-0.00263695,1.14804,0.00164412,0.0129891,853,1611,1.65527,-20.1454
-364,-587,1.67242,20.5479,-0.00140353,-0.000499437,0.000656221,-0.000154632,-0.00174833,1.087,0.00111758,0.0173382,860,1611,1.67245,-20.5479
-357,-587,1.66003,20.9485,-0.000667021,0.00015213,0.00038013,0.000301348,-0.00081624,1.19673,0.000667676,0.0169221,867,1611,1.66005,-20.9485
-350,-587,1.63098,21.3671,1.41604e-05,0.000985272,8.26004e-05,0.000992248,7.18475e-06,1.48655,0.000659117,0.0102165,874,1611,1.631,-21.3671
-343,-587,1.60321,21.7725,0.000640207,0.00191088,-9.94552e-05,0.00191862,0.000632469,-1.49316,0.00112894,0.0134026,881,1611,1.6032,-21.7725
-336,-587,1.5899,22.161,0.0012134,0.00301314,-0.000399759,0.00309794,0.0011286,-1.36177,0.00181042,0.012901,888,1611,1.58991,-22.161
-329,-587,1.59821,22.5647,0.00173932,0.00416478,-0.000590335,0.00430083,0.00160327,-1.34429,0.00250973,0.0142863,895,1611,1.59821,-22.5648
-322,-587,1.63232,22.9762,0.00215263,0.00543354,-0.000677081,0.00556777,0.0020184,-1.37508,0.00325481,0.0182779,902,1611,1.63231,-22.9761
-315,-587,1.60901,23.3564,0.00260074,0.00660435,-0.000670617,0.0067137,0.0024914,-1.40917,0.00391886,0.0146408,909,1611,1.60901,-23.3564
-308,-587,1.59698,23.7515,0.00312536,0.00745053,-0.000559564,0.00752175,0.00305414,-1.4442,0.00436817,0.0139381,916,1611,1.59696,-23.7515
-301,-587,1.67462,24.1642,0.00385919,0.00810139,-0.000214028,0.00811216,0.00384842,-1.52051,0.0046856,0.0155207,923,1611,1.6746,-24.1641
-294,-587,1.71771,24.6014,0.00492551,0.00914894,0.000776422,0.00928715,0.0047873,1.39463,0.0053628,0.0265584,930,1611,1.71768,-24.6015
-287,-587,1.67346,25.0304,0,0,0,0,0,0,0,-1,937,1611,1.67345,-25.0304
-280,-587,2.01282,25.8126,0,0,0,0,0,0,0,-1,944,1611,2.0128,-25.8126
-273,-587,1.84216,25.6163,0,0,0,0,0,0,0,-1,951,1611,1.84218,-25.6164
-266,-587,1.84888,26.5267,0,0,0,0,0,0,0,-1,958,1611,1.84891,-26.5267
-259,-587,0.317444,23.6786,0,0,0,0,0,0,0,-1,965,1611,0.317428,-23.6785
-252,-587,1.30188,10.3103,0,0,0,0,0,0,0,-1,972,1611,1.30188,-10.3104
-245,-587,1.9494,25.2325,0,0,0,0,0,0,0,-1,979,1611,1.94942,-25.2326
-238,-587,2.87799,9.53821,0,0,0,0,0,0,0,-1,986,1611,2.87797,-9.53823
-231,-587,2.49548,9.14465,0,0,0,0,0,0,0,-1,993,1611,2.49551,-9.14468
-224,-587,-9.72528,9.21069,0,0,0,0,0,0,0,-1,1000,1611,-9.72529,-9.21072
-217,-587,-7.07495,10.7847,0,0,0,0,0,0,0,-1,1007,1611,-7.07495,-10.7847
-210,-587,-4.72308,12.5889,0,0,0,0,0,0,0,-1,1014,1611,-4.72307,-12.5888
-203,-587,-3.2583,13.7289,0,0,0,0,0,0,0,-1,1021,1611,-3.25828,-13.7289
-196,-587,-1.953,14.8145,0,0,0,0,0,0,0,-1,1028,1611,-1.95302,-14.8144
-189,-587,-3.04138,8.66638,0,0,0,0,0,0,0,-1,1035,1611,-3.04136,-8.66635
-182,-587,-3.97095,9.7146,0,0,0,0,0,0,0,-1,1042,1611,-3.97093,-9.71461
-175,-587,-4.80969,8.37878,0,0,0,0,0,0,0,-1,1049,1611,-4.80964,-8.37883
-168,-587,-5.91394,8.72546,0,0,0,0,0,0,0,-1,1056,1611,-5.91398,-8.72542
-161,-587,-7.06946,8.88501,0,0,0,0,0,0,0,-1,1063,1611,-7.06947,-8.885
-154,-587,-2.24731,6.56519,0,0,0,0,0,0,0,-1,1070,1611,-2.24728,-6.56517
-147,-587,0,0,0,0,0,0,0,0,0,-1,1077,1611,0,0
-140,-587,0,0,0,0,0,0,0,0,0,-1,1084,1611,0,0
-133,-587,0,0,0,0,0,0,0,0,0,-1,1091,1611,0,0
-126,-587,0,0,0,0,0,0,0,0,0,-1,1098,1611,0,0
-119,-587,0,0,0,0,0,0,0,0,0,-1,1105,1611,0,0
-112,-587,0,0,0,0,0,0,0,0,0,-1,1112,1611,0,0
-105,-587,0,0,0,0,0,0,0,0,0,-1,1119,1611,0,0
-98,-587,0,0,0,0,0,0,0,0,0,-1,1126,1611,0,0
-91,-587,0,0,0,0,0,0,0,0,0,-1,1133,1611,0,0
-84,-587,0,0,0,0,0,0,0,0,0,-1,1140,1611,0,0
-77,-587,0,0,0,0,0,0,0,0,0,-1,1147,1611,0,0
-70,-587,0,0,0,0,0,0,0,0,0,-1,1154,1611,0,0
-63,-587,0,0,0,0,0,0,0,0,0,-1,1161,1611,0,0
-56,-587,0,0,0,0,0,0,0,0,0,-1,1168,1611,0,0
-49,-587,0,0,0,0,0,0,0,0,0,-1,1175,1611,0,0
-42,-587,0,0,0,0,0,0,0,0,0,-1,1182,1611,0,0
-35,-587,0,0,0,0,0,0,0,0,0,-1,1189,1611,0,0
-28,-587,0,0,0,0,0,0,0,0,0,-1,1196,1611,0,0
-21,-587,0,0,0,0,0,0,0,0,0,-1,1203,1611,0,0
-14,-587,0,0,0,0,0,0,0,0,0,-1,1210,1611,0,0
-7,-587,0,0,0,0,0,0,0,0,0,-1,1217,1611,0,0
0,-587,0,0,0,0,0,0,0,0,0,-1,1224,1611,0,0
7,-587,0,0,0,0,0,0,0,0,0,-1,1231,1611,0,0
14,-587,0,0,0,0,0,0,0,0,0,-1,1238,1611,0,0
21,-587,0,0,0,0,0,0,0,0,0,-1,1245,1611,0,0
28,-587,0,0,0,0,0,0,0,0,0,-1,1252,1611,0,0
35,-587,0,0,0,0,0,0,0,0,0,-1,1259,1611,0,0
42,-587,0,0,0,0,0,0,0,0,0,-1,1266,1611,0,0
49,-587,0,0,0,0,0,0,0,0,0,-1,1273,1611,0,0
56,-587,0,0,0,0,0,0,0,0,0,-1,1280,1611,0,0
63,-587,0,0,0,0,0,0,0,0,0,-1,1287,1611,0,0
70,-587,0,0,0,0,0,0,0,0,0,-1,1294,1611,0,0
77,-587,0,0,0,0,0,0,0,0,0,-1,1301,1611,0,0
84,-587,0,0,0,0,0,0,0,0,0,-1,1308,1611,0,0
91,-587,0,0,0,0,0,0,0,0,0,-1,1315,1611,0,0
98,-587,0,0,0,0,0,0,0,0,0,-1,1322,1611,0,0
105,-587,0,0,0,0,0,0,0,0,0,-1,1329,1611,0,0
112,-587,0,0,0,0,0,0,0,0,0,-1,1336,1611,0,0
119,-587,0,0,0,0,0,0,0,0,0,-1,1343,1611,0,0
126,-587,0,0,0,0,0,0,0,0,0,-1,1350,1611,0,0
133,-587,0,0,0,0,0,0,0,0,0,-1,1357,1611,0,0
140,-587,0,0,0,0,0,0,0,0,0,-1,1364,1611,0,0
147,-587,0,0,0,0,0,0,0,0,0,-1,1371,1611,0,0
154,-587,0,0,0,0,0,0,0,0,0,-1,1378,1611,0,0
161,-587,0,0,0,0,0,0,0,0,0,-1,1385,1611,0,0
168,-587,0,0,0,0,0,0,0,0,0,-1,1392,1611,0,0
175,-587,0,0,0,0,0,0,0,0,0,-1,1399,1611,0,0
182,-587,0,0,0,0,0,0,0,0,0,-1,1406,1611,0,0
189,-587,0,0,0,0,0,0,0,0,0,-1,1413,1611,0,0
196,-587,0,0,0,0,0,0,0,0,0,-1,1420,1611,0,0
203,-587,0,0,0,0,0,0,0,0,0,-1,1427,1611,0,0
210,-587,0,0,0,0,0,0,0,0,0,-1,1434,1611,0,0
217,-587,0,0,0,0,0,0,0,0,0,-1,1441,1611,0,0
224,-587,0,0,0,0,0,0,0,0,0,-1,1448,1611,0,0
231,-587,0,0,0,0,0,0,0,0,0,-1,1455,1611,0,0
238,-587,0,0,0,0,0,0,0,0,0,-1,1462,1611,0,0
245,-587,0,0,0,0,0,0,0,0,0,-1,1469,1611,0,0
252,-587,0,0,0,0,0,0,0,0,0,-1,1476,1611,0,0
259,-587,0,0,0,0,0,0,0,0,0,-1,1483,1611,0,0
266,-587,0,0,0,0,0,0,0,0,0,-1,1490,1611,0,0
273,-587,10.2936,6.35083,0,0,0,0,0,0,0,-1,1497,1611,10.2936,-6.35087
280,-587,2.09204,1.1217,0,0,0,0,0,0,0,-1,1504,1611,2.092,-1.12176
287,-587,3.2865,0.671509,0,0,0,0,0,0,0,-1,1511,1611,3.28656,-0.671538
294,-587,4.24646,1.58765,0,0,0,0,0,0,0,-1,1518,1611,4.24648,-1.58761
301,-587,7.60474,8.37085,0,0,0,0,0,0,0,-1,1525,1611,7.60478,-8.37084
308,-587,5.99316,10.2291,0,0,0,0,0,0,0,-1,1532,1611,5.99315,-10.2291
315,-587,4.34558,12.3289,0,0,0,0,0,0,0,-1,1539,1611,4.34556,-12.3288
322,-587,10.4526,6.38245,0,0,0,0,0,0,0,-1,1546,1611,10.4526,-6.38245
329,-587,10.7738,8.42444,0,0,0,0,0,0,0,-1,1553,1611,10.7738,-8.42438
336,-587,7.5531,5.96619,0,0,0,0,0,0,0,-1,1560,1611,7.55311,-5.96617
343,-587,9.57495,4.38391,0,0,0,0,0,0,0,-1,1567,1611,9.57494,-4.38397
350,-587,9.50378,3.45093,0,0,0,0,0,0,0,-1,1574,1611,9.50376,-3.4509
357,-587,9.40027,2.50806,0,0,0,0,0,0,0,-1,1581,1611,9.40022,-2.50803
364,-587,9.26477,1.34131,0,0,0,0,0,0,0,-1,1588,1611,9.26479,-1.34126
371,-587,6.98926,7.87561,0,0,0,0,0,0,0,-1,1595,1611,6.98928,-7.87564
378,-587,9.25146,13.8358,0,0,0,0,0,0,0,-1,1602,1611,9.2515,-13.8359
385,-587,11.6848,24.6086,0,0,0,0,0,0,0,-1,1609,1611,11.6848,-24.6087
392,-587,12.1812,25.2693,0,0,0,0,0,0,0,-1,1616,1611,12.1811,-25.2692
399,-587,12.8494,26.7051,0,0,0,0,0,0,0,-1,1623,1611,12.8494,-26.7051
406,-587,12.91,26.3578,-0.000877199,0.0182802,-0.000589232,0.0182983,-0.000895306,-1.54008,0.012508,0.0445221,1630,1611,12.91,-26.3577
413,-587,12.9225,26.0099,-0.00180825,0.0164873,-0.00013818,0.0164884,-0.00180929,-1.56324,0.0116423,0.0371627,1637,1611,12.9224,-26.0099
420,-587,12.8541,25.6639,-0.00201941,0.0149636,-0.000143009,0.0149648,-0.00202061,-1.56238,0.0107138,0.0306649,1644,1611,12.8541,-25.664
427,-587,12.8077,25.3263,-0.00191565,0.0135648,-0.000408752,0.0135756,-0.00192644,-1.54442,0.00975616,0.0224309,1651,1611,12.8078,-25.3263
434,-587,12.8141,24.8662,-0.00177671,0.0117803,-0.000500503,0.0117988,-0.00179516,-1.53394,0.00852746,0.0157038,1658,1611,12.8141,-24.8662
441,-587,12.8163,24.4777,-0.00132728,0.0103715,-0.000785102,0.0104239,-0.00137973,-1.50408,0.00745188,0.0185583,1665,1611,12.8163,-24.4777
448,-587,12.8514,24.1638,-0.000777064,0.00901455,-0.0010642,0.00912888,-0.000891392,-1.46378,0.00640376,0.015564,1672,1611,12.8514,-24.1638
455,-587,12.8624,23.7899,-0.000318449,0.00768667,-0.00132223,0.00789941,-0.000531192,-1.41127,0.00545197,0.0146903,1679,1611,12.8624,-23.79
462,-587,12.8256,23.4232,0.000139069,0.00623987,-0.00151308,0.00659452,-0.000215576,-1.34057,0.00446994,0.0190412,1686,1611,12.8256,-23.4233
469,-587,12.7905,23.0615,0.000573294,0.0047102,-0.00155111,0.00522718,5.63182e-05,-1.24908,0.00346617,0.0173122,1693,1611,12.7905,-23.0616
476,-587,12.8135,22.676,0.000892062,0.00320052,-0.00144356,0.00389456,0.000198019,-1.12264,0.00253295,0.0108772,1700,1611,12.8135,-22.6761
483,-587,12.7961,22.3025,0.00118895,0.00167268,-0.00132546,0.00277817,8.34648e-05,-0.875641,0.00182493,0.0129505,1707,1611,12.7962,-22.3025
490,-587,12.7642,21.9324,0.00128385,0.000204062,-0.00100323,0.00188323,-0.000395318,-0.538545,0.00140591,0.0160133,1714,1611,12.7642,-21.9323
497,-587,12.7662,21.557,0.00112194,-0.00116754,-0.000727021,0.0013333,-0.00137889,-0.282913,0.00156596,0.0131749,1721,1611,12.7662,-21.557
504,-587,12.7556,21.1809,0.000388715,-0.00247317,-1.83007e-05,0.000388832,-0.00247329,-0.00639427,0.00179258,0.0123199,1728,1611,12.7556,-21.1809
511,-587,12.7418,20.7942,-0.00100341,-0.00341258,0.0013636,-0.000388537,-0.00402746,0.423619,0.00256529,0.0135856,1735,1611,12.7418,-20.7941
518,-587,12.7637,20.3927,-0.00242109,-0.004348,0.00262937,-0.000584211,-0.00618487,0.609784,0.00394296,0.0131543,1742,1611,12.7637,-20.3927
525,-587,12.7681,20.0228,-0.00447766,-0.00512477,0.00444502,-0.000344437,-0.009258,0.749067,0.00606045,0.0168914,1749,1611,12.7681,-20.0228
532,-587,12.8254,19.626,-0.00751254,-0.00594597,0.00710608,0.000419865,-0.0138784,0.84029,0.00939533,0.0287326,1756,1611,12.8254,-19.6259
539,-587,12.9307,19.186,0,0,0,0,0,0,0,-1,1763,1611,12.9307,-19.186
546,-587,14.033,19.1957,0,0,0,0,0,0,0,-1,1770,1611,14.0329,-19.1956
553,-587,7.5813,8.45068,0,0,0,0,0,0,0,-1,1777,1611,7.58125,-8.45068
560,-587,4.21179,5.23547,0,0,0,0,0,0,0,-1,1784,1611,4.21185,-5.23553
567,-587,4.03711,5.46387,0,0,0,0,0,0,0,-1,1791,1611,4.03715,-5.46382
574,-587,3.83142,5.68884,0,0,0,0,0,0,0,-1,1798,1611,3.83141,-5.68881
581,-587,3.47168,6.00977,0,0,0,0,0,0,0,-1,1805,1611,3.47167,-6.00983
588,-587,0,0,0,0,0,0,0,0,0,-1,1812,1611,0,0
595,-587,0,0,0,0,0,0,0,0,0,-1,1819,1611,0,0
602,-587,0,0,0,0,0,0,0,0,0,-1,1826,1611,0,0
609,-587,0,0,0,0,0,0,0,0,0,-1,1833,1611,0,0
616,-587,0,0,0,0,0,0,0,0,0,-1,1840,1611,0,0
623,-587,0,0,0,0,0,0,0,0,0,-1,1847,1611,0,0
630,-587,0,0,0,0,0,0,0,0,0,-1,1854,1611,0,0
637,-587,0,0,0,0,0,0,0,0,0,-1,1861,1611,0,0
644,-587,0,0,0,0,0,0,0,0,0,-1,1868,1611,0,0
651,-587,0,0,0,0,0,0,0,0,0,-1,1875,1611,0,0
658,-587,0,0,0,0,0,0,0,0,0,-1,1882,1611,0,0
665,-587,0,0,0,0,0,0,0,0,0,-1,1889,1611,0,0
672,-587,0,0,0,0,0,0,0,0,0,-1,1896,1611,0,0
679,-587,0,0,0,0,0,0,0,0,0,-1,1903,1611,0,0
686,-587,0,0,0,0,0,0,0,0,0,-1,1910,1611,0,0
693,-587,0,0,0,0,0,0,0,0,0,-1,1917,1611,0,0
700,-587,0,0,0,0,0,0,0,0,0,-1,1924,1611,0,0
707,-587,0,0,0,0,0,0,0,0,0,-1,1931,1611,0,0
714,-587,0,0,0,0,0,0,0,0,0,-1,1938,1611,0,0
721,-587,0,0,0,0,0,0,0,0,0,-1,1945,1611,0,0
728,-587,0,0,0,0,0,0,0,0,0,-1,1952,1611,0,0
735,-587,0,0,0,0,0,0,0,0,0,-1,1959,1611,0,0
742,-587,0,0,0,0,0,0,0,0,0,-1,1966,1611,0,0
749,-587,0,0,0,0,0,0,0,0,0,-1,1973,1611,0,0
756,-587,0,0,0,0,0,0,0,0,0,-1,1980,1611,0,0
763,-587,0,0,0,0,0,0,0,0,0,-1,1987,1611,0,0
770,-587,0,0,0,0,0,0,0,0,0,-1,1994,1611,0,0
777,-587,0,0,0,0,0,0,0,0,0,-1,2001,1611,0,0
784,-587,0,0,0,0,0,0,0,0,0,-1,2008,1611,0,0
791,-587,0,0,0,0,0,0,0,0,0,-1,2015,1611,0,0
798,-587,0,0,0,0,0,0,0,0,0,-1,2022,1611,0,0
805,-587,0,0,0,0,0,0,0,0,0,-1,2029,1611,0,0
812,-587,0,0,0,0,0,0,0,0,0,-1,2036,1611,0,0
-700,-594,0,0,0,0,0,0,0,0,0,-1,524,1618,0,0
-693,-594,0,0,0,0,0,0,0,0,0,-1,531,1618,0,0
-686,-594,0,0,0,0,0,0,0,0,0,-1,538,1618,0,0
-679,-594,0,0,0,0,0,0,0,0,0,-1,545,1618,0,0
-672,-594,0,0,0,0,0,0,0,0,0,-1,552,1618,0,0
-665,-594,0,0,0,0,0,0,0,0,0,-1,559,1618,0,0
-658,-594,0,0,0,0,0,0,0,0,0,-1,566,1618,0,0
-651,-594,0,0,0,0,0,0,0,0,0,-1,573,1618,0,0
-644,-594,0,0,0,0,0,0,0,0,0,-1,580,1618,0,0
-637,-594,0,0,0,0,0,0,0,0,0,-1,587,1618,0,0
-630,-594,0,0,0,0,0,0,0,0,0,-1,594,1618,0,0
-623,-594,0,0,0,0,0,0,0,0,0,-1,601,1618,0,0
-616,-594,0,0,0,0,0,0,0,0,0,-1,608,1618,0,0
-609,-594,0,0,0,0,0,0,0,0,0,-1,615,1618,0,0
-602,-594,0,0,0,0,0,0,0,0,0,-1,622,1618,0,0
-595,-594,0,0,0,0,0,0,0,0,0,-1,629,1618,0,0
-588,-594,0,0,0,0,0,0,0,0,0,-1,636,1618,0,0
-581,-594,0,0,0,0,0,0,0,0,0,-1,643,1618,0,0
-574,-594,0,0,0,0,0,0,0,0,0,-1,650,1618,0,0
-567,-594,0,0,0,0,0,0,0,0,0,-1,657,1618,0,0
-560,-594,0,0,0,0,0,0,0,0,0,-1,664,1618,0,0
-553,-594,0,0,0,0,0,0,0,0,0,-1,671,1618,0,0
-546,-594,0,0,0,0,0,0,0,0,0,-1,678,1618,0,0
-539,-594,0,0,0,0,0,0,0,0,0,-1,685,1618,0,0
-532,-594,0,0,0,0,0,0,0,0,0,-1,692,1618,0,0
-525,-594,0,0,0,0,0,0,0,0,0,-1,699,1618,0,0
-518,-594,0,0,0,0,0,0,0,0,0,-1,706,1618,0,0
-511,-594,0,0,0,0,0,0,0,0,0,-1,713,1618,0,0
-504,-594,0,0,0,0,0,0,0,0,0,-1,720,1618,0,0
-497,-594,0,0,0,0,0,0,0,0,0,-1,727,1618,0,0
-490,-594,0,0,0,0,0,0,0,0,0,-1,734,1618,0,0
-483,-594,0,0,0,0,0,0,0,0,0,-1,741,1618,0,0
-476,-594,0,0,0,0,0,0,0,0,0,-1,748,1618,0,0
-469,-594,0,0,0,0,0,0,0,0,0,-1,755,1618,0,0
-462,-594,0,0,0,0,0,0,0,0,0,-1,762,1618,0,0
-455,-594,-0.509216,-1.58411,0,0,0,0,0,0,0,-1,769,1618,-0.509245,1.58415
-448,-594,-7.71887,-0.0559082,0,0,0,0,0,0,0,-1,776,1618,-7.71885,0.055939
-441,-594,-5.78473,1.18298,0,0,0,0,0,0,0,-1,783,1618,-5.78474,-1.18295
-434,-594,-3.93628,3.06213,0,0,0,0,0,0,0,-1,790,1618,-3.93631,-3.06208
-427,-594,-3.97693,6.77759,0,0,0,0,0,0,0,-1,797,1618,-3.97695,-6.77764
-420,-594,-2.53046,7.71606,0,0,0,0,0,0,0,-1,804,1618,-2.53047,-7.71609
-413,-594,-0.860413,8.00391,0,0,0,0,0,0,0,-1,811,1618,-0.860423,-8.00389
-406,-594,2.45746,13.6218,0,0,0,0,0,0,0,-1,818,1618,2.45747,-13.6218
-399,-594,2.46295,18.2565,0,0,0,0,0,0,0,-1,825,1618,2.46292,-18.2565
-392,-594,2.37659,18.7694,-0.00768671,0.000993161,0.000699729,0.00104921,-0.00774275,1.49087,0.00554476,0.048165,832,1618,2.37659,-18.7694
-385,-594,2.14941,19.3824,-0.00597611,-1.16255e-06,0.000889948,0.000128575,-0.00610584,1.42603,0.00411409,0.032387,839,1618,2.14941,-19.3824
-378,-594,2.03265,19.7256,-0.00440536,-0.00048653,0.000954312,-0.000266491,-0.00462539,1.34418,0.00299872,0.0143596,846,1618,2.03267,-19.7256
-371,-594,2.07227,20.1724,-0.00309345,-0.000938049,0.000858586,-0.00063785,-0.00339365,1.23444,0.00208263,0.0117198,853,1618,2.07224,-20.1724
-364,-594,2.08588,20.576,-0.00202335,-0.00113704,0.000743121,-0.000714967,-0.00244542,1.05426,0.00145187,0.0106282,860,1618,2.08585,-20.576
-357,-594,2.07587,20.9728,-0.00108972,-0.00101426,0.000646525,-0.000404361,-0.00169961,0.814544,0.00102522,0.0108971,867,1618,2.07589,-20.9727
-350,-594,2.03461,21.4031,-0.000237578,-0.000725511,0.000594398,0.000160973,-0.00112406,0.59066,0.000808392,0.015176,874,1618,2.03461,-21.4031
-343,-594,2.00537,21.8339,0.000536867,-0.0003484,0.00070492,0.000926602,-0.000738135,0.50505,0.000963187,0.0170303,881,1618,2.00539,-21.8339
-336,-594,1.98102,22.1904,0.00125378,0.000150965,0.000728269,0.00161585,-0.000211096,0.461367,0.00115405,0.0141797,888,1618,1.98103,-22.1905
-329,-594,1.99072,22.5969,0.00188894,0.000681226,0.000853028,0.00233021,0.000239951,0.477395,0.00147999,0.0141232,895,1618,1.99075,-22.597
-322,-594,2.01953,23.0004,0.00238118,0.00138225,0.00108681,0.0030778,0.000685626,0.570005,0.0018658,0.0169615,902,1618,2.0195,-23.0004
-315,-594,2.01617,23.377,0.00288314,0.00204803,0.00137436,0.00390198,0.00102919,0.637922,0.00233512,0.0165627,909,1618,2.01618,-23.377
-308,-594,2.01221,23.7704,0.0034297,0.00252125,0.0016871,0.00472265,0.0012283,0.6539,0.00282932,0.0141757,916,1618,2.01221,-23.7704
-301,-594,2.00806,24.1172,0.00412388,0.00295438,0.00214494,0.00576235,0.00131591,0.652324,0.00348671,0.0116707,923,1618,2.00804,-24.1172
-294,-594,2.03473,24.4822,0.0050446,0.00384684,0.00300881,0.00751355,0.00137789,0.687162,0.00461876,0.014447,930,1618,2.03471,-24.4822
-287,-594,1.97467,24.8579,0.00598677,0.00463764,0.00388252,0.00925289,0.00137152,0.699385,0.00576605,0.0240433,937,1618,1.97469,-24.858
-280,-594,2.09912,25.2828,0.0070803,0.00569852,0.0050006,0.0114375,0.00134131,0.716752,0.00721956,0.0296211,944,1618,2.09911,-25.2829
-273,-594,2.0899,25.8456,0,0,0,0,0,0,0,-1,951,1618,2.0899,-25.8456
-266,-594,2.08844,26.1736,0,0,0,0,0,0,0,-1,958,1618,2.08842,-26.1736
-259,-594,2.12885,26.3339,0,0,0,0,0,0,0,-1,965,1618,2.12883,-26.3339
-252,-594,2.21661,26.7833,0,0,0,0,0,0,0,-1,972,1618,2.21664,-26.7833
-245,-594,2.38184,27.489,0,0,0,0,0,0,0,-1,979,1618,2.38181,-27.4891
-238,-594,2.10962,25.5623,0,0,0,0,0,0,0,-1,986,1618,2.10965,-25.5622
-231,-594,1.93774,9.35388,0,0,0,0,0,0,0,-1,993,1618,1.93776,-9.35393
-224,-594,1.81824,8.62744,0,0,0,0,0,0,0,-1,1000,1618,1.81822,-8.62745
-217,-594,-8.24066,12.0752,0,0,0,0,0,0,0,-1,1007,1618,-8.24068,-12.0751
-210,-594,-5.61438,14.2119,0,0,0,0,0,0,0,-1,1014,1618,-5.6144,-14.212
-203,-594,-3.94507,15.5768,0,0,0,0,0,0,0,-1,1021,1618,-3.94506,-15.5768
-196,-594,2.78613,10.5815,0,0,0,0,0,0,0,-1,1028,1618,2.78612,-10.5815
-189,-594,2.60913,9.48865,0,0,0,0,0,0,0,-1,1035,1618,2.6091,-9.48871
-182,-594,1.2395,9.38806,0,0,0,0,0,0,0,-1,1042,1618,1.23951,-9.38804
-175,-594,0.234863,8.73792,0,0,0,0,0,0,0,-1,1049,1618,0.234812,-8.73786
-168,-594,-0.495483,8.46289,0,0,0,0,0,0,0,-1,1056,1618,-0.495513,-8.46285
-161,-594,-1.39734,8.28699,0,0,0,0,0,0,0,-1,1063,1618,-1.39729,-8.28699
-154,-594,-0.000854492,7.68445,0,0,0,0,0,0,0,-1,1070,1618,-0.000805755,-7.6845
-147,-594,0.348267,9.3385,0,0,0,0,0,0,0,-1,1077,1618,0.348237,-9.33849
-140,-594,0.675171,11.5884,0,0,0,0,0,0,0,-1,1084,1618,0.675204,-11.5884
-133,-594,0,0,0,0,0,0,0,0,0,-1,1091,1618,0,0
-126,-594,0,0,0,0,0,0,0,0,0,-1,1098,1618,0,0
-119,-594,0,0,0,0,0,0,0,0,0,-1,1105,1618,0,0
-112,-594,0,0,0,0,0,0,0,0,0,-1,1112,1618,0,0
-105,-594,0,0,0,0,0,0,0,0,0,-1,1119,1618,0,0
-98,-594,0,0,0,0,0,0,0,0,0,-1,1126,1618,0,0
-91,-594,0,0,0,0,0,0,0,0,0,-1,1133,1618,0,0
-84,-594,0,0,0,0,0,0,0,0,0,-1,1140,1618,0,0
-77,-594,0,0,0,0,0,0,0,0,0,-1,1147,1618,0,0
-70,-594,0,0,0,0,0,0,0,0,0,-1,1154,1618,0,0
-63,-594,0,0,0,0,0,0,0,0,0,-1,1161,1618,0,0
-56,-594,0,0,0,0,0,0,0,0,0,-1,1168,1618,0,0
-49,-594,0,0,0,0,0,0,0,0,0,-1,1175,1618,0,0
-42,-594,0,0,0,0,0,0,0,0,0,-1,1182,1618,0,0
-35,-594,0,0,0,0,0,0,0,0,0,-1,1189,1618,0,0
-28,-594,0,0,0,0,0,0,0,0,0,-1,1196,1618,0,0
-21,-594,0,0,0,0,0,0,0,0,0,-1,1203,1618,0,0
-14,-594,0,0,0,0,0,0,0,0,0,-1,1210,1618,0,0
-7,-594,0,0,0,0,0,0,0,0,0,-1,1217,1618,0,0
0,-594,0,0,0,0,0,0,0,0,0,-1,1224,1618,0,0
7,-594,0,0,0,0,0,0,0,0,0,-1,1231,1618,0,0
14,-594,0,0,0,0,0,0,0,0,0,-1,1238,1618,0,0
21,-594,0,0,0,0,0,0,0,0,0,-1,1245,1618,0,0
28,-594,0,0,0,0,0,0,0,0,0,-1,1252,1618,0,0
35,-594,0,0,0,0,0,0,0,0,0,-1,1259,1618,0,0
42,-594,0,0,0,0,0,0,0,0,0,-1,1266,1618,0,0
49,-594,0,0,0,0,0,0,0,0,0,-1,1273,1618,0,0
56,-594,0,0,0,0,0,0,0,0,0,-1,1280,1618,0,0
63,-594,0,0,0,0,0,0,0,0,0,-1,1287,1618,0,0
70,-594,0,0,0,0,0,0,0,0,0,-1,1294,1618,0,0
77,-594,0,0,0,0,0,0,0,0,0,-1,1301,1618,0,0
84,-594,0,0,0,0,0,0,0,0,0,-1,1308,1618,0,0
91,-594,0,0,0,0,0,0,0,0,0,-1,1315,1618,0,0
98,-594,0,0,0,0,0,0,0,0,0,-1,1322,1618,0,0
105,-594,0,0,0,0,0,0,0,0,0,-1,1329,1618,0,0
112,-594,0,0,0,0,0,0,0,0,0,-1,1336,1618,0,0
119,-594,0,0,0,0,0,0,0,0,0,-1,1343,1618,0,0
126,-594,0,0,0,0,0,0,0,0,0,-1,1350,1618,0,0
133,-594,0,0,0,0,0,0,0,0,0,-1,1357,1618,0,0
140,-594,0,0,0,0,0,0,0,0,0,-1,1364,1618,0,0
147,-594,0,0,0,0,0,0,0,0,0,-1,1371,1618,0,0
154,-594,0,0,0,0,0,0,0,0,0,-1,1378,1618,0,0
161,-594,0,0,0,0,0,0,0,0,0,-1,1385,1618,0,0
168,-594,0,0,0,0,0,0,0,0,0,-1,1392,1618,0,0
175,-594,0,0,0,0,0,0,0,0,0,-1,1399,1618,0,0
182,-594,0,0,0,0,0,0,0,0,0,-1,1406,1618,0,0
189,-594,0,0,0,0,0,0,0,0,0,-1,1413,1618,0,0
196,-594,0,0,0,0,0,0,0,0,0,-1,1420,1618,0,0
203,-594,0,0,0,0,0,0,0,0,0,-1,1427,1618,0,0
210,-594,0,0,0,0,0,0,0,0,0,-1,1434,1618,0,0
217,-594,0,0,0,0,0,0,0,0,0,-1,1441,1618,0,0
224,-594,0,0,0,0,0,0,0,0,0,-1,1448,1618,0,0
231,-594,0,0,0,0,0,0,0,0,0,-1,1455,1618,0,0
238,-594,0,0,0,0,0,0,0,0,0,-1,1462,1618,0,0
245,-594,0,0,0,0,0,0,0,0,0,-1,1469,1618,0,0
252,-594,3.03674,1.20996,0,0,0,0,0,0,0,-1,1476,1618,3.0368,-1.20999
259,-594,4.79834,1.53113,0,0,0,0,0,0,0,-1,1483,1618,4.79837,-1.53118
266,-594,3.71606,2.68152,0,0,0,0,0,0,0,-1,1490,1618,3.71609,-2.68149
273,-594,9.7655,6.33557,0,0,0,0,0,0,0,-1,1497,1618,9.76555,-6.33554
280,-594,3.13281,0.911255,0,0,0,0,0,0,0,-1,1504,1618,3.13277,-0.911207
287,-594,4.42749,1.51563,0,0,0,0,0,0,0,-1,1511,1618,4.42747,-1.51564
294,-594,5.36475,3.34937,0,0,0,0,0,0,0,-1,1518,1618,5.36475,-3.3494
301,-594,7.97144,9.04333,0,0,0,0,0,0,0,-1,1525,1618,7.9714,-9.04328
308,-594,6.30347,10.4633,0,0,0,0,0,0,0,-1,1532,1618,6.30351,-10.4633
315,-594,4.62012,11.934,0,0,0,0,0,0,0,-1,1539,1618,4.62006,-11.934
322,-594,2.91528,13.3134,0,0,0,0,0,0,0,-1,1546,1618,2.91523,-13.3133
329,-594,4.19861,9.77258,0,0,0,0,0,0,0,-1,1553,1618,4.19865,-9.77264
336,-594,10.1353,4.66528,0,0,0,0,0,0,0,-1,1560,1618,10.1353,-4.66533
343,-594,10.5729,3.71228,0,0,0,0,0,0,0,-1,1567,1618,10.5729,-3.71232
350,-594,10.219,2.98792,0,0,0,0,0,0,0,-1,1574,1618,10.219,-2.98797
357,-594,9.83154,1.96326,0,0,0,0,0,0,0,-1,1581,1618,9.8315,-1.96321
364,-594,9.74939,0.700562,0,0,0,0,0,0,0,-1,1588,1618,9.74939,-0.700615
371,-594,8.54297,14.3988,0,0,0,0,0,0,0,-1,1595,1618,8.54296,-14.3989
378,-594,8.9137,16.3073,0,0,0,0,0,0,0,-1,1602,1618,8.91369,-16.3072
385,-594,11.3333,26.4623,0,0,0,0,0,0,0,-1,1609,1618,11.3333,-26.4623
392,-594,12.2207,27.1134,0,0,0,0,0,0,0,-1,1616,1618,12.2207,-27.1133
399,-594,12.3943,26.6735,0.00201923,0.0175166,-0.00201396,0.017774,0.00176178,-1.44365,0.0113079,0.0411854,1623,1618,12.3942,-26.6735
406,-594,12.4788,26.3232,0.000639022,0.0149562,-0.00101968,0.0150284,0.000566764,-1.50005,0.00983548,0.0255341,1630,1618,12.4788,-26.3232
413,-594,12.4829,25.9834,-0.000262293,0.0131203,-0.000517449,0.0131402,-0.00028227,-1.53221,0.00885576,0.0189099,1637,1618,12.4829,-25.9834
420,-594,12.502,25.613,-0.000631817,0.0115872,-0.000301667,0.0115946,-0.00063926,-1.54613,0.00795142,0.0152814,1644,1618,12.502,-25.613
427,-594,12.4917,25.2802,-0.000787501,0.0102523,-0.000375142,0.0102651,-0.000800234,-1.53687,0.00712512,0.0117024,1651,1618,12.4917,-25.2801
434,-594,12.4639,24.9143,-0.000871809,0.00866154,-0.000344579,0.00867398,-0.000884247,-1.53471,0.00609881,0.0161758,1658,1618,12.4638,-24.9143
441,-594,12.4496,24.5432,-0.000702296,0.00753269,-0.000551335,0.00756944,-0.000739044,-1.50424,0.00530981,0.0163367,1665,1618,12.4496,-24.5432
448,-594,12.4893,24.1794,-0.000436478,0.00641158,-0.000745682,0.00649183,-0.000516734,-1.46358,0.00451001,0.0154376,1672,1618,12.4893,-24.1794
455,-594,12.4794,23.7935,-0.000182289,0.00531051,-0.000934405,0.00546512,-0.000336893,-1.40682,0.00376074,0.0120148,1679,1618,12.4794,-23.7935
462,-594,12.4666,23.4296,0.000114798,0.00404526,-0.00107389,0.00431953,-0.000159475,-1.32074,0.00293429,0.0138033,1686,1618,12.4666,-23.4295
469,-594,12.4448,23.0736,0.000430591,0.00272497,-0.00110631,0.00317151,-1.59445e-05,-1.18717,0.00211967,0.0124515,1693,1618,12.4448,-23.0736
476,-594,12.4399,22.6917,0.000687004,0.00142533,-0.0010234,0.00214411,-3.17796e-05,-0.958496,0.00144012,0.0127417,1700,1618,12.4399,-22.6917
483,-594,12.423,22.3132,0.000919631,7.09212e-05,-0.000911098,0.00150035,-0.000509799,-0.567456,0.00120662,0.0150425,1707,1618,12.423,-22.3133
490,-594,12.4047,21.9391,0.00102389,-0.00127121,-0.000646159,0.0011933,-0.00144062,-0.256415,0.00152293,0.013638,1714,1618,12.4047,-21.9391
497,-594,12.3966,21.5551,0.000881341,-0.00253347,-0.000388992,0.000925092,-0.00257722,-0.112002,0.00209571,0.010633,1721,1618,12.3966,-21.555
504,-594,12.4011,21.1632,0.000198073,-0.00376331,0.000270718,0.000216488,-0.00378172,0.0679184,0.00259632,0.00995647,1728,1618,12.4012,-21.1633
511,-594,12.4027,20.7618,-0.00118994,-0.00468339,0.0016189,-0.000555097,-0.00531824,0.373718,0.00337571,0.0130977,1735,1618,12.4027,-20.7618
518,-594,12.3723,20.3759,-0.00261621,-0.0055954,0.00286061,-0.000880595,-0.00733101,0.545352,0.00462186,0.018173,1742,1618,12.3724,-20.3758
525,-594,12.4237,19.9567,-0.00470519,-0.00626279,0.00479422,-0.000626923,-0.0103411,0.704879,0.00669485,0.0308596,1749,1618,12.4237,-19.9567
532,-594,12.5726,19.5938,0,0,0,0,0,0,0,-1,1756,1618,12.5727,-19.5938
539,-594,13.3728,19.2012,0,0,0,0,0,0,0,-1,1763,1618,13.3728,-19.2012
546,-594,7.48645,8.54785,0,0,0,0,0,0,0,-1,1770,1618,7.48639,-8.54789
553,-594,3.69714,5.68762,0,0,0,0,0,0,0,-1,1777,1618,3.69715,-5.68764
560,-594,6.06616,4.44482,0,0,0,0,0,0,0,-1,1784,1618,6.06621,-4.44477
567,-594,5.97266,4.73303,0,0,0,0,0,0,0,-1,1791,1618,5.97271,-4.73309
574,-594,5.9906,4.96326,0,0,0,0,0,0,0,-1,1798,1618,5.99065,-4.96326
581,-594,0,0,0,0,0,0,0,0,0,-1,1805,1618,0,0
588,-594,0,0,0,0,0,0,0,0,0,-1,1812,1618,0,0
595,-594,0,0,0,0,0,0,0,0,0,-1,1819,1618,0,0
602,-594,0,0,0,0,0,0,0,0,0,-1,1826,1618,0,0
609,-594,0,0,0,0,0,0,0,0,0,-1,1833,1618,0,0
616,-594,0,0,0,0,0,0,0,0,0,-1,1840,1618,0,0
623,-594,0,0,0,0,0,0,0,0,0,-1,1847,1618,0,0
630,-594,0,0,0,0,0,0,0,0,0,-1,1854,1618,0,0
637,-594,0,0,0,0,0,0,0,0,0,-1,1861,1618,0,0
644,-594,0,0,0,0,0,0,0,0,0,-1,1868,1618,0,0
651,-594,0,0,0,0,0,0,0,0,0,-1,1875,1618,0,0
658,-594,0,0,0,0,0,0,0,0,0,-1,1882,1618,0,0
665,-594,0,0,0,0,0,0,0,0,0,-1,1889,1618,0,0
672,-594,0,0,0,0,0,0,0,0,0,-1,1896,1618,0,0
679,-594,0,0,0,0,0,0,0,0,0,-1,1903,1618,0,0
686,-594,0,0,0,0,0,0,0,0,0,-1,1910,1618,0,0
693,-594,0,0,0,0,0,0,0,0,0,-1,1917,1618,0,0
700,-594,0,0,0,0,0,0,0,0,0,-1,1924,1618,0,0
707,-594,0,0,0,0,0,0,0,0,0,-1,1931,1618,0,0
714,-594,0,0,0,0,0,0,0,0,0,-1,1938,1618,0,0
721,-594,0,0,0,0,0,0,0,0,0,-1,1945,1618,0,0
728,-594,0,0,0,0,0,0,0,0,0,-1,1952,1618,0,0
735,-594,0,0,0,0,0,0,0,0,0,-1,1959,1618,0,0
742,-594,0,0,0,0,0,0,0,0,0,-1,1966,1618,0,0
749,-594,0,0,0,0,0,0,0,0,0,-1,1973,1618,0,0
756,-594,0,0,0,0,0,0,0,0,0,-1,1980,1618,0,0
763,-594,0,0,0,0,0,0,0,0,0,-1,1987,1618,0,0
770,-594,0,0,0,0,0,0,0,0,0,-1,1994,1618,0,0
777,-594,0,0,0,0,0,0,0,0,0,-1,2001,1618,0,0
784,-594,0,0,0,0,0,0,0,0,0,-1,2008,1618,0,0
791,-594,0,0,0,0,0,0,0,0,0,-1,2015,1618,0,0
798,-594,0,0,0,0,0,0,0,0,0,-1,2022,1618,0,0
805,-594,0,0,0,0,0,0,0,0,0,-1,2029,1618,0,0
812,-594,0,0,0,0,0,0,0,0,0,-1,2036,1618,0,0
-700,-601,0,0,0,0,0,0,0,0,0,-1,524,1625,0,0
-693,-601,0,0,0,0,0,0,0,0,0,-1,531,1625,0,0
-686,-601,0,0,0,0,0,0,0,0,0,-1,538,1625,0,0
-679,-601,0,0,0,0,0,0,0,0,0,-1,545,1625,0,0
-672,-601,0,0,0,0,0,0,0,0,0,-1,552,1625,0,0
-665,-601,0,0,0,0,0,0,0,0,0,-1,559,1625,0,0
-658,-601,0,0,0,0,0,0,0,0,0,-1,566,1625,0,0
-651,-601,0,0,0,0,0,0,0,0,0,-1,573,1625,0,0
-644,-601,0,0,0,0,0,0,0,0,0,-1,580,1625,0,0
-637,-601,0,0,0,0,0,0,0,0,0,-1,587,1625,0,0
-630,-601,0,0,0,0,0,0,0,0,0,-1,594,1625,0,0
-623,-601,0,0,0,0,0,0,0,0,0,-1,601,1625,0,0
-616,-601,0,0,0,0,0,0,0,0,0,-1,608,1625,0,0
-609,-601,0,0,0,0,0,0,0,0,0,-1,615,1625,0,0
-602,-601,0,0,0,0,0,0,0,0,0,-1,622,1625,0,0
-595,-601,0,0,0,0,0,0,0,0,0,-1,629,1625,0,0
-588,-601,0,0,0,0,0,0,0,0,0,-1,636,1625,0,0
-581,-601,0,0,0,0,0,0,0,0,0,-1,643,1625,0,0
-574,-601,0,0,0,0,0,0,0,0,0,-1,650,1625,0,0
-567,-601,0,0,0,0,0,0,0,0,0,-1,657,1625,0,0
-560,-601,0,0,0,0,0,0,0,0,0,-1,664,1625,0,0
-553,-601,0,0,0,0,0,0,0,0,0,-1,671,1625,0,0
-546,-601,0,0,0,0,0,0,0,0,0,-1,678,1625,0,0
-539,-601,0,0,0,0,0,0,0,0,0,-1,685,1625,0,0
-532,-601,0,0,0,0,0,0,0,0,0,-1,692,1625,0,0
-525,-601,0,0,0,0,0,0,0,0,0,-1,699,1625,0,0
-518,-601,0,0,0,0,0,0,0,0,0,-1,706,1625,0,0
-511,-601,0,0,0,0,0,0,0,0,0,-1,713,1625,0,0
-504,-601,0,0,0,0,0,0,0,0,0,-1,720,1625,0,0
-497,-601,0,0,0,0,0,0,0,0,0,-1,727,1625,0,0
-490,-601,0,0,0,0,0,0,0,0,0,-1,734,1625,0,0
-483,-601,0,0,0,0,0,0,0,0,0,-1,741,1625,0,0
-476,-601,0,0,0,0,0,0,0,0,0,-1,748,1625,0,0
-469,-601,0,0,0,0,0,0,0,0,0,-1,755,1625,0,0
-462,-601,0,0,0,0,0,0,0,0,0,-1,762,1625,0,0
-455,-601,0,0,0,0,0,0,0,0,0,-1,769,1625,0,0
-448,-601,-7.07623,2.7616,0,0,0,0,0,0,0,-1,776,1625,-7.07626,-2.76161
-441,-601,-6.06689,3.33447,0,0,0,0,0,0,0,-1,783,1625,-6.06691,-3.33448
-434,-601,-5.02655,3.8468,0,0,0,0,0,0,0,-1,790,1625,-5.02657,-3.84674
-427,-601,-5.78601,4.2406,0,0,0,0,0,0,0,-1,797,1625,-5.786,-4.24058
-420,-601,-5.5191,5.60364,0,0,0,0,0,0,0,-1,804,1625,-5.51907,-5.60368
-413,-601,-4.30756,5.86047,0,0,0,0,0,0,0,-1,811,1625,-4.30757,-5.86046
-406,-601,-1.67493,7.20422,0,0,0,0,0,0,0,-1,818,1625,-1.67493,-7.20428
-399,-601,1.40094,15.3108,0,0,0,0,0,0,0,-1,825,1625,1.40096,-15.3107
-392,-601,2.69354,18.5447,0,0,0,0,0,0,0,-1,832,1625,2.69356,-18.5447
-385,-601,2.65283,19.1704,-0.00730453,0.000381492,0.000822237,0.000468469,-0.00739151,1.46541,0.00509102,0.0465961,839,1625,2.65281,-19.1704
-378,-601,2.5285,19.7842,-0.00533015,-0.000504412,0.000872794,-0.000351408,-0.00548315,1.39726,0.00354411,0.0376433,846,1625,2.52852,-19.7842
-371,-601,2.47589,20.1454,-0.0038156,-0.0012637,0.000788227,-0.00103986,-0.00403943,1.29411,0.00242192,0.0198392,853,1625,2.47589,-20.1454
-364,-601,2.46387,20.5607,-0.00263471,-0.00175059,0.000679325,-0.00138215,-0.00300315,1.07385,0.00173569,0.011648,860,1625,2.46387,-20.5606
-357,-601,2.43518,20.9641,-0.0016441,-0.00181885,0.000613966,-0.00111132,-0.00235163,0.714716,0.00135839,0.0106313,867,1625,2.43519,-20.9642
-350,-601,2.45972,21.4391,-0.000778526,-0.00166488,0.000615864,-0.000462958,-0.00198045,0.473517,0.00119622,0.0209855,874,1625,2.45974,-21.439
-343,-601,2.41248,21.8802,-5.99776e-06,-0.00136869,0.000775803,0.000345179,-0.00171987,0.425065,0.00127728,0.0222877,881,1625,2.4125,-21.8802
-336,-601,2.3645,22.2302,0.000697912,-0.00092866,0.000821679,0.00104074,-0.00127148,0.395266,0.00133717,0.0189149,888,1625,2.36447,-22.2303
-329,-601,2.383,22.6302,0.00128512,-0.000457977,0.000922323,0.00168253,-0.000855396,0.406848,0.00149099,0.0154542,895,1625,2.38297,-22.6302
-322,-601,2.40704,23.005,0.00170572,0.00024391,0.00111457,0.00230766,-0.000358034,0.495187,0.00167062,0.0126418,902,1625,2.40706,-23.005
-315,-601,2.41199,23.366,0.00212187,0.000913075,0.00132876,0.00297723,5.77094e-05,0.571956,0.00196587,0.0127175,909,1625,2.41198,-23.366
-308,-601,2.38281,23.7671,0.00257123,0.00145676,0.00152125,0.00363409,0.000393899,0.609836,0.00230268,0.0117351,916,1625,2.38281,-23.767
-301,-601,2.40302,24.1465,0.00317034,0.00199435,0.00184501,0.00451879,0.000645901,0.631139,0.00282197,0.00995643,923,1625,2.40304,-24.1465
-294,-601,2.39905,24.5007,0.00394745,0.00289568,0.00245452,0.00593179,0.000911341,0.679868,0.00368847,0.0100613,930,1625,2.39904,-24.5008
-287,-601,2.35724,24.8832,0.00469175,0.00373933,0.00300274,0.00725581,0.00117527,0.706757,0.00449694,0.00983986,937,1625,2.35722,-24.8831
-280,-601,2.38971,25.2838,0.00554689,0.00479302,0.00366447,0.00885376,0.00148615,0.734148,0.00547478,0.0144198,944,1625,2.38969,-25.2838
-273,-601,2.39636,25.6935,0.00647186,0.00581942,0.00440902,0.0105667,0.00172456,0.748471,0.00654579,0.0170884,951,1625,2.39634,-25.6935
-266,-601,2.43903,26.0853,0.00739788,0.00694456,0.0052916,0.0124677,0.00187477,0.763994,0.0077627,0.0202921,958,1625,2.439,-26.0854
-259,-601,2.46515,26.3174,0.00847549,0.00811812,0.00633668,0.014636,0.0019576,0.771302,0.00917469,0.0281293,965,1625,2.46512,-26.3174
-252,-601,2.48096,26.7734,0.00977933,0.0096967,0.00759689,0.017335,0.00214101,0.782679,0.0109132,0.0424615,972,1625,2.48098,-26.7735
-245,-601,2.65063,27.4983,0.011308,0.0115069,0.00908314,0.0204911,0.00232375,0.790874,0.0129558,0.0445477,979,1625,2.65063,-27.4983
-238,-601,2.88245,28.2253,0,0,0,0,0,0,0,-1,986,1625,2.88243,-28.2254
-231,-601,2.66772,13.7051,0,0,0,0,0,0,0,-1,993,1625,2.6677,-13.7051
-224,-601,-0.0305176,9.13684,0,0,0,0,0,0,0,-1,1000,1625,-0.030498,-9.13681
-217,-601,3.39429,10.3898,0,0,0,0,0,0,0,-1,1007,1625,3.39431,-10.3898
-210,-601,-6.53699,15.7931,0,0,0,0,0,0,0,-1,1014,1625,-6.53697,-15.7931
-203,-601,2.69348,15.9099,0,0,0,0,0,0,0,-1,1021,1625,2.69351,-15.91
-196,-601,2.66992,16.1815,0,0,0,0,0,0,0,-1,1028,1625,2.66995,-16.1815
-189,-601,2.849,16.6105,0,0,0,0,0,0,0,-1,1035,1625,2.84902,-16.6104
-182,-601,1.82153,13.9752,0,0,0,0,0,0,0,-1,1042,1625,1.82155,-13.9752
-175,-601,0.544922,9.28687,0,0,0,0,0,0,0,-1,1049,1625,0.544879,-9.28685
-168,-601,-0.247559,8.97461,0,0,0,0,0,0,0,-1,1056,1625,-0.247598,-8.97466
-161,-601,-1.16833,8.80078,0,0,0,0,0,0,0,-1,1063,1625,-1.16837,-8.80081
-154,-601,1.12756,7.94861,0,0,0,0,0,0,0,-1,1070,1625,1.12762,-7.94855
-147,-601,1.35352,9.55432,0,0,0,0,0,0,0,-1,1077,1625,1.35351,-9.55429
-140,-601,1.72437,11.1498,0,0,0,0,0,0,0,-1,1084,1625,1.72432,-11.1498
-133,-601,2.13281,12.8347,0,0,0,0,0,0,0,-1,1091,1625,2.13287,-12.8348
-126,-601,3.09534,15.427,0,0,0,0,0,0,0,-1,1098,1625,3.0953,-15.4271
-119,-601,1.22485,9.43457,0,0,0,0,0,0,0,-1,1105,1625,1.22489,-9.43456
-112,-601,0,0,0,0,0,0,0,0,0,-1,1112,1625,0,0
-105,-601,0,0,0,0,0,0,0,0,0,-1,1119,1625,0,0
-98,-601,0,0,0,0,0,0,0,0,0,-1,1126,1625,0,0
-91,-601,0,0,0,0,0,0,0,0,0,-1,1133,1625,0,0
-84,-601,0,0,0,0,0,0,0,0,0,-1,1140,1625,0,0
-77,-601,0,0,0,0,0,0,0,0,0,-1,1147,1625,0,0
-70,-601,0,0,0,0,0,0,0,0,0,-1,1154,1625,0,0
-63,-601,0,0,0,0,0,0,0,0,0,-1,1161,1625,0,0
-56,-601,0,0,0,0,0,0,0,0,0,-1,1168,1625,0,0
-49,-601,0,0,0,0,0,0,0,0,0,-1,1175,1625,0,0
-42,-601,0,0,0,0,0,0,0,0,0,-1,1182,1625,0,0
-35,-601,0,0,0,0,0,0,0,0,0,-1,1189,1625,0,0
-28,-601,0,0,0,0,0,0,0,0,0,-1,1196,1625,0,0
-21,-601,0,0,0,0,0,0,0,0,0,-1,1203,1625,0,0
-14,-601,0,0,0,0,0,0,0,0,0,-1,1210,1625,0,0
-7,-601,0,0,0,0,0,0,0,0,0,-1,1217,1625,0,0
0,-601,0,0,0,0,0,0,0,0,0,-1,1224,1625,0,0
7,-601,0,0,0,0,0,0,0,0,0,-1,1231,1625,0,0
14,-601,0,0,0,0,0,0,0,0,0,-1,1238,1625,0,0
21,-601,0,0,0,0,0,0,0,0,0,-1,1245,1625,0,0
28,-601,0,0,0,0,0,0,0,0,0,-1,1252,1625,0,0
35,-601,0,0,0,0,0,0,0,0,0,-1,1259,1625,0,0
42,-601,0,0,0,0,0,0,0,0,0,-1,1266,1625,0,0
49,-601,0,0,0,0,0,0,0,0,0,-1,1273,1625,0,0
56,-601,0,0,0,0,0,0,0,0,0,-1,1280,1625,0,0
63,-601,0,0,0,0,0,0,0,0,0,-1,1287,1625,0,0
70,-601,0,0,0,0,0,0,0,0,0,-1,1294,1625,0,0
77,-601,0,0,0,0,0,0,0,0,0,-1,1301,1625,0,0
84,-601,0,0,0,0,0,0,0,0,0,-1,1308,1625,0,0
91,-601,0,0,0,0,0,0,0,0,0,-1,1315,1625,0,0
98,-601,0,0,0,0,0,0,0,0,0,-1,1322,1625,0,0
105,-601,0,0,0,0,0,0,0,0,0,-1,1329,1625,0,0
112,-601,0,0,0,0,0,0,0,0,0,-1,1336,1625,0,0
119,-601,0,0,0,0,0,0,0,0,0,-1,1343,1625,0,0
126,-601,0,0,0,0,0,0,0,0,0,-1,1350,1625,0,0
133,-601,0,0,0,0,0,0,0,0,0,-1,1357,1625,0,0
140,-601,0,0,0,0,0,0,0,0,0,-1,1364,1625,0,0
147,-601,0,0,0,0,0,0,0,0,0,-1,1371,1625,0,0
154,-601,0,0,0,0,0,0,0,0,0,-1,1378,1625,0,0
161,-601,0,0,0,0,0,0,0,0,0,-1,1385,1625,0,0
168,-601,0,0,0,0,0,0,0,0,0,-1,1392,1625,0,0
175,-601,0,0,0,0,0,0,0,0,0,-1,1399,1625,0,0
182,-601,0,0,0,0,0,0,0,0,0,-1,1406,1625,0,0
189,-601,0,0,0,0,0,0,0,0,0,-1,1413,1625,0,0
196,-601,0,0,0,0,0,0,0,0,0,-1,1420,1625,0,0
203,-601,0,0,0,0,0,0,0,0,0,-1,1427,1625,0,0
210,-601,0,0,0,0,0,0,0,0,0,-1,1434,1625,0,0
217,-601,0,0,0,0,0,0,0,0,0,-1,1441,1625,0,0
224,-601,0,0,0,0,0,0,0,0,0,-1,1448,1625,0,0
231,-601,-0.0371094,0.525879,0,0,0,0,0,0,0,-1,1455,1625,-0.0371518,-0.525824
238,-601,2.03369,-1.32861,0,0,0,0,0,0,0,-1,1462,1625,2.03364,1.32858
245,-601,2.71375,2.44983,0,0,0,0,0,0,0,-1,1469,1625,2.71371,-2.44979
252,-601,4.66943,2.28381,0,0,0,0,0,0,0,-1,1476,1625,4.66947,-2.28376
259,-601,6.42712,2.61987,0,0,0,0,0,0,0,-1,1483,1625,6.42711,-2.61985
266,-601,6.75317,1.68701,0,0,0,0,0,0,0,-1,1490,1625,6.75323,-1.687
273,-601,5.4314,2.92053,0,0,0,0,0,0,0,-1,1497,1625,5.43144,-2.92051
280,-601,4.64722,1.17786,0,0,0,0,0,0,0,-1,1504,1625,4.64722,-1.1779
287,-601,5.32532,2.6217,0,0,0,0,0,0,0,-1,1511,1625,5.32535,-2.62171
294,-601,5.97693,4.22693,0,0,0,0,0,0,0,-1,1518,1625,5.97697,-4.22694
301,-601,7.28162,9.50024,0,0,0,0,0,0,0,-1,1525,1625,7.28162,-9.50025
308,-601,6.53528,10.3927,0,0,0,0,0,0,0,-1,1532,1625,6.53529,-10.3927
315,-601,4.88013,11.7184,0,0,0,0,0,0,0,-1,1539,1625,4.88015,-11.7184
322,-601,3.38098,12.7864,0,0,0,0,0,0,0,-1,1546,1625,3.38104,-12.7864
329,-601,1.8772,13.8768,0,0,0,0,0,0,0,-1,1553,1625,1.87716,-13.8768
336,-601,4.67847,9.53308,0,0,0,0,0,0,0,-1,1560,1625,4.67848,-9.53309
343,-601,11.1404,3.14575,0,0,0,0,0,0,0,-1,1567,1625,11.1404,-3.1458
350,-601,10.9462,2.37769,0,0,0,0,0,0,0,-1,1574,1625,10.9461,-2.37764
357,-601,10.7518,1.6095,0,0,0,0,0,0,0,-1,1581,1625,10.7518,-1.60948
364,-601,5.33643,9.74426,0,0,0,0,0,0,0,-1,1588,1625,5.33637,-9.74429
371,-601,8.46387,16.2725,0,0,0,0,0,0,0,-1,1595,1625,8.46385,-16.2725
378,-601,11.8759,28.6617,0,0,0,0,0,0,0,-1,1602,1625,11.8758,-28.6617
385,-601,11.8563,27.4983,0,0,0,0,0,0,0,-1,1609,1625,11.8563,-27.4983
392,-601,11.9596,27.1047,0.00366267,0.0166314,-0.00323085,0.0173917,0.00290235,-1.33967,0.0107583,0.0413123,1616,1625,11.9596,-27.1047
399,-601,12.0741,26.6459,0.00253358,0.0141941,-0.00200357,0.0145288,0.00219892,-1.40529,0.00904244,0.021017,1623,1625,12.0741,-26.6459
406,-601,12.1096,26.2643,0.00157382,0.0120027,-0.0011954,0.012138,0.00143855,-1.45812,0.00765763,0.0126404,1630,1625,12.1097,-26.2643
413,-601,12.1157,25.9011,0.000751957,0.0103113,-0.000699816,0.0103623,0.000700996,-1.49811,0.00668676,0.0119483,1637,1625,12.1157,-25.9011
420,-601,12.1256,25.559,0.000256599,0.00880355,-0.000400356,0.00882227,0.000237886,-1.52409,0.00580384,0.0103063,1644,1625,12.1256,-25.5589
427,-601,12.1227,25.2441,-7.66499e-05,0.00757845,-0.000343829,0.00759386,-9.20617e-05,-1.526,0.00509354,0.0140821,1651,1625,12.1226,-25.2442
434,-601,12.1046,24.8848,-0.000326132,0.00611531,-0.000232405,0.00612368,-0.000334507,-1.53478,0.0041984,0.0159665,1658,1625,12.1047,-24.8848
441,-601,12.106,24.51,-0.000366012,0.005113,-0.000364759,0.00513717,-0.000390188,-1.50461,0.00356198,0.0186411,1665,1625,12.106,-24.51
448,-601,12.1246,24.1606,-0.000333702,0.004113,-0.000480432,0.00416432,-0.000385017,-1.46439,0.00291304,0.0155637,1672,1625,12.1247,-24.1606
455,-601,12.1313,23.7844,-0.000261953,0.00313509,-0.000604503,0.00323945,-0.000366317,-1.39984,0.00229152,0.0130462,1679,1625,12.1314,-23.7844
462,-601,12.1093,23.4219,-0.000115323,0.00197358,-0.000684744,0.00217803,-0.000319773,-1.28064,0.0015695,0.0109972,1686,1625,12.1092,-23.4219
469,-601,12.0859,23.0737,8.84655e-05,0.00079341,-0.000698911,0.0012237,-0.000341822,-1.01895,0.000950454,0.011035,1693,1625,12.086,-23.0738
476,-601,12.0688,22.7046,0.000288969,-0.000349939,-0.00062484,0.000671281,-0.000732252,-0.549092,0.000810585,0.013239,1700,1625,12.0688,-22.7046
483,-601,12.0569,22.327,0.000461983,-0.00155771,-0.000502599,0.000580142,-0.00167587,-0.230902,0.00135275,0.0156874,1707,1625,12.0569,-22.327
490,-601,12.043,21.9546,0.000572145,-0.00278049,-0.000289024,0.000596879,-0.00280522,-0.0853686,0.00209761,0.0124203,1714,1625,12.0429,-21.9546
497,-601,12.0417,21.5635,0.000460428,-0.00391188,-5.09082e-05,0.000461021,-0.00391248,-0.0116412,0.00277479,0.0101153,1721,1625,12.0418,-21.5635
504,-601,12.0928,21.1631,-0.000101695,-0.00502353,0.000546731,-4.16939e-05,-0.00508353,0.109307,0.00337521,0.0188319,1728,1625,12.0928,-21.1631
511,-601,12.049,20.8629,-0.00135049,-0.00589867,0.00178047,-0.00073641,-0.00651275,0.332125,0.00411837,0.0327966,1735,1625,12.0489,-20.8629
518,-601,12.0422,20.4429,-0.00282551,-0.00680236,0.00295174,-0.00125491,-0.00837295,0.488989,0.00521425,0.0438791,1742,1625,12.0423,-20.4429
525,-601,12.0405,19.8175,0,0,0,0,0,0,0,-1,1749,1625,12.0405,-19.8175
532,-601,12.8561,17.8351,0,0,0,0,0,0,0,-1,1756,1625,12.8561,-17.8351
539,-601,7.77112,11.4299,0,0,0,0,0,0,0,-1,1763,1625,7.77116,-11.4299
546,-601,6.56873,3.62354,0,0,0,0,0,0,0,-1,1770,1625,6.56867,-3.62352
553,-601,7.03015,4.25049,0,0,0,0,0,0,0,-1,1777,1625,7.03011,-4.25048
560,-601,7.50745,4.83374,0,0,0,0,0,0,0,-1,1784,1625,7.50744,-4.83376
567,-601,7.82043,3.83301,0,0,0,0,0,0,0,-1,1791,1625,7.82041,-3.83303
574,-601,0,0,0,0,0,0,0,0,0,-1,1798,1625,0,0
581,-601,0,0,0,0,0,0,0,0,0,-1,1805,1625,0,0
588,-601,0,0,0,0,0,0,0,0,0,-1,1812,1625,0,0
595,-601,0,0,0,0,0,0,0,0,0,-1,1819,1625,0,0
602,-601,0,0,0,0,0,0,0,0,0,-1,1826,1625,0,0
609,-601,0,0,0,0,0,0,0,0,0,-1,1833,1625,0,0
616,-601,0,0,0,0,0,0,0,0,0,-1,1840,1625,0,0
623,-601,0,0,0,0,0,0,0,0,0,-1,1847,1625,0,0
630,-601,0,0,0,0,0,0,0,0,0,-1,1854,1625,0,0
637,-601,0,0,0,0,0,0,0,0,0,-1,1861,1625,0,0
644,-601,0,0,0,0,0,0,0,0,0,-1,1868,1625,0,0
651,-601,0,0,0,0,0,0,0,0,0,-1,1875,1625,0,0
658,-601,0,0,0,0,0,0,0,0,0,-1,1882,1625,0,0
665,-601,0,0,0,0,0,0,0,0,0,-1,1889,1625,0,0
672,-601,0,0,0,0,0,0,0,0,0,-1,1896,1625,0,0
679,-601,0,0,0,0,0,0,0,0,0,-1,1903,1625,0,0
686,-601,0,0,0,0,0,0,0,0,0,-1,1910,1625,0,0
693,-601,0,0,0,0,0,0,0,0,0,-1,1917,1625,0,0
700,-601,0,0,0,0,0,0,0,0,0,-1,1924,1625,0,0
707,-601,0,0,0,0,0,0,0,0,0,-1,1931,1625,0,0
714,-601,0,0,0,0,0,0,0,0,0,-1,1938,1625,0,0
721,-601,0,0,0,0,0,0,0,0,0,-1,1945,1625,0,0
728,-601,0,0,0,0,0,0,0,0,0,-1,1952,1625,0,0
735,-601,0,0,0,0,0,0,0,0,0,-1,1959,1625,0,0
742,-601,0,0,0,0,0,0,0,0,0,-1,1966,1625,0,0
749,-601,0,0,0,0,0,0,0,0,0,-1,1973,1625,0,0
756,-601,0,0,0,0,0,0,0,0,0,-1,1980,1625,0,0
763,-601,0,0,0,0,0,0,0,0,0,-1,1987,1625,0,0
770,-601,0,0,0,0,0,0,0,0,0,-1,1994,1625,0,0
777,-601,0,0,0,0,0,0,0,0,0,-1,2001,1625,0,0
784,-601,0,0,0,0,0,0,0,0,0,-1,2008,1625,0,0
791,-601,0,0,0,0,0,0,0,0,0,-1,2015,1625,0,0
798,-601,0,0,0,0,0,0,0,0,0,-1,2022,1625,0,0
805,-601,0,0,0,0,0,0,0,0,0,-1,2029,1625,0,0
812,-601,0,0,0,0,0,0,0,0,0,-1,2036,1625,0,0
-700,-608,0,0,0,0,0,0,0,0,0,-1,524,1632,0,0
-693,-608,0,0,0,0,0,0,0,0,0,-1,531,1632,0,0
-686,-608,0,0,0,0,0,0,0,0,0,-1,538,1632,0,0
-679,-608,0,0,0,0,0,0,0,0,0,-1,545,1632,0,0
-672,-608,0,0,0,0,0,0,0,0,0,-1,552,1632,0,0
-665,-608,0,0,0,0,0,0,0,0,0,-1,559,1632,0,0
-658,-608,0,0,0,0,0,0,0,0,0,-1,566,1632,0,0
-651,-608,0,0,0,0,0,0,0,0,0,-1,573,1632,0,0
-644,-608,0,0,0,0,0,0,0,0,0,-1,580,1632,0,0
-637,-608,0,0,0,0,0,0,0,0,0,-1,587,1632,0,0
-630,-608,0,0,0,0,0,0,0,0,0,-1,594,1632,0,0
-623,-608,0,0,0,0,0,0,0,0,0,-1,601,1632,0,0
-616,-608,0,0,0,0,0,0,0,0,0,-1,608,1632,0,0
-609,-608,0,0,0,0,0,0,0,0,0,-1,615,1632,0,0
-602,-608,0,0,0,0,0,0,0,0,0,-1,622,1632,0,0
-595,-608,0,0,0,0,0,0,0,0,0,-1,629,1632,0,0
-588,-608,0,0,0,0,0,0,0,0,0,-1,636,1632,0,0
-581,-608,0,0,0,0,0,0,0,0,0,-1,643,1632,0,0
-574,-608,0,0,0,0,0,0,0,0,0,-1,650,1632,0,0
-567,-608,0,0,0,0,0,0,0,0,0,-1,657,1632,0,0
-560,-608,0,0,0,0,0,0,0,0,0,-1,664,1632,0,0
-553,-608,0,0,0,0,0,0,0,0,0,-1,671,1632,0,0
-546,-608,0,0,0,0,0,0,0,0,0,-1,678,1632,0,0
-539,-608,0,0,0,0,0,0,0,0,0,-1,685,1632,0,0
-532,-608,0,0,0,0,0,0,0,0,0,-1,692,1632,0,0
-525,-608,0,0,0,0,0,0,0,0,0,-1,699,1632,0,0
-518,-608,0,0,0,0,0,0,0,0,0,-1,706,1632,0,0
-511,-608,0,0,0,0,0,0,0,0,0,-1,713,1632,0,0
-504,-608,0,0,0,0,0,0,0,0,0,-1,720,1632,0,0
-497,-608,0,0,0,0,0,0,0,0,0,-1,727,1632,0,0
-490,-608,0,0,0,0,0,0,0,0,0,-1,734,1632,0,0
-483,-608,0,0,0,0,0,0,0,0,0,-1,741,1632,0,0
-476,-608,0,0,0,0,0,0,0,0,0,-1,748,1632,0,0
-469,-608,0,0,0,0,0,0,0,0,0,-1,755,1632,0,0
-462,-608,0,0,0,0,0,0,0,0,0,-1,762,1632,0,0
-455,-608,0,0,0,0,0,0,0,0,0,-1,769,1632,0,0
-448,-608,0,0,0,0,0,0,0,0,0,-1,776,1632,0,0
-441,-608,-7.34601,2.78052,0,0,0,0,0,0,0,-1,783,1632,-7.346,-2.78056
-434,-608,-6.34558,3.27405,0,0,0,0,0,0,0,-1,790,1632,-6.34555,-3.27406
-427,-608,-7.74335,4.17688,0,0,0,0,0,0,0,-1,797,1632,-7.74334,-4.17693
-420,-608,-6.82794,4.34839,0,0,0,0,0,0,0,-1,804,1632,-6.82794,-4.34838
-413,-608,-5.41919,5.66138,0,0,0,0,0,0,0,-1,811,1632,-5.41917,-5.66133
-406,-608,-4.79681,4.98999,0,0,0,0,0,0,0,-1,818,1632,-4.79684,-4.98997
-399,-608,-2.60645,6.34167,0,0,0,0,0,0,0,-1,825,1632,-2.60643,-6.34169
-392,-608,2.08356,15.437,0,0,0,0,0,0,0,-1,832,1632,2.08354,-15.437
-385,-608,3.17004,18.9482,0,0,0,0,0,0,0,-1,839,1632,3.17001,-18.9483
-378,-608,3.04456,19.7507,0,0,0,0,0,0,0,-1,846,1632,3.04453,-19.7508
-371,-608,2.98669,20.0408,0,0,0,0,0,0,0,-1,853,1632,2.9867,-20.0408
-364,-608,2.90338,20.4557,-0.00313408,-0.00281271,0.000672575,-0.00228189,-0.0036649,0.902658,0.00213704,0.0299581,860,1632,2.90338,-20.4557
-357,-608,2.8385,20.9066,-0.0020948,-0.00287618,0.000575898,-0.00178958,-0.00318141,0.487358,0.00184156,0.0207145,867,1632,2.8385,-20.9066
-350,-608,2.84241,21.3964,-0.00123028,-0.00267772,0.000559946,-0.00103895,-0.00286904,0.32925,0.0016773,0.0186826,874,1632,2.84239,-21.3964
-343,-608,2.83081,21.8097,-0.000467575,-0.00229975,0.000694164,-0.00023428,-0.00253305,0.324221,0.00161627,0.0235401,881,1632,2.8308,-21.8097
-336,-608,2.79742,22.2383,0.00021213,-0.0017774,0.000708894,0.000438876,-0.00200414,0.309575,0.00150389,0.016201,888,1632,2.79741,-22.2383
-329,-608,2.7832,22.6626,0.000741992,-0.00126155,0.000757142,0.000995931,-0.00151549,0.323602,0.00146028,0.0141338,895,1632,2.7832,-22.6626
-322,-608,2.79108,23.0223,0.00109101,-0.000500999,0.000900114,0.0014966,-0.000906588,0.423351,0.00140135,0.01427,902,1632,2.79109,-23.0223
-315,-608,2.79675,23.3618,0.00142364,0.000195115,0.00105451,0.00202975,-0.000410993,0.521668,0.00150894,0.0137169,909,1632,2.79673,-23.3619
-308,-608,2.74011,23.7706,0.00177937,0.000796037,0.00116029,0.00254787,2.75408e-05,0.584995,0.00168947,0.0143417,916,1632,2.74012,-23.7706
-301,-608,2.75854,24.165,0.00228549,0.00138808,0.0013925,0.0032998,0.000373772,0.629537,0.00208646,0.010672,923,1632,2.75853,-24.1651
-294,-608,2.78241,24.5131,0.00294368,0.0022365,0.00183798,0.00446178,0.000718401,0.690369,0.00276632,0.00991004,930,1632,2.78238,-24.5131
-287,-608,2.7558,24.88,0.00355203,0.00303912,0.00222575,0.00553605,0.0010551,0.72804,0.00339411,0.00947035,937,1632,2.75579,-24.88
-280,-608,2.76715,25.2336,0.00424569,0.00394756,0.00269303,0.00679378,0.00139947,0.75775,0.00414226,0.00816361,944,1632,2.76714,-25.2336
-273,-608,2.76013,25.6086,0.00497723,0.00477453,0.00320469,0.00808217,0.00166958,0.76959,0.0049268,0.00962594,951,1632,2.76016,-25.6087
-266,-608,2.77228,26.011,0.00571997,0.00575889,0.00383682,0.0095763,0.00190256,0.787934,0.00585399,0.0105718,958,1632,2.77227,-26.011
-259,-608,2.82611,26.3673,0.00660801,0.00681513,0.00458089,0.0112936,0.00212951,0.7967,0.0069292,0.0134703,965,1632,2.8261,-26.3673
-252,-608,2.85406,26.7715,0.00764505,0.00814182,0.00548652,0.0133856,0.0024013,0.808019,0.00824075,0.0258049,972,1632,2.85404,-26.7715
-245,-608,2.89429,27.3209,0.00879221,0.0095075,0.00649688,0.0156566,0.00264314,0.812895,0.00967773,0.036792,979,1632,2.89429,-27.3209
-238,-608,2.92792,27.7084,0,0,0,0,0,0,0,-1,986,1632,2.92789,-27.7083
-231,-608,3.26025,27.5262,0,0,0,0,0,0,0,-1,993,1632,3.26023,-27.5263
-224,-608,2.51642,15.3452,0,0,0,0,0,0,0,-1,1000,1632,2.5164,-15.3452
-217,-608,1.04419,12.8451,0,0,0,0,0,0,0,-1,1007,1632,1.04418,-12.8451
-210,-608,2.75903,15.9414,0,0,0,0,0,0,0,-1,1014,1632,2.75903,-15.9414
-203,-608,2.76776,16.217,0,0,0,0,0,0,0,-1,1021,1632,2.76773,-16.217
-196,-608,1.53955,18.6058,0,0,0,0,0,0,0,-1,1028,1632,1.53959,-18.6058
-189,-608,1.37634,19.119,0,0,0,0,0,0,0,-1,1035,1632,1.37634,-19.1191
-182,-608,2.89221,16.7092,0,0,0,0,0,0,0,-1,1042,1632,2.89224,-16.7093
-175,-608,0.219116,15.1643,0,0,0,0,0,0,0,-1,1049,1632,0.219173,-15.1644
-168,-608,0.000366211,9.48645,0,0,0,0,0,0,0,-1,1056,1632,0.000317105,-9.48648
-161,-608,2.27832,15.4423,0,0,0,0,0,0,0,-1,1063,1632,2.27826,-15.4423
-154,-608,1.3999,16.4037,0,0,0,0,0,0,0,-1,1070,1632,1.39987,-16.4037
-147,-608,2.4386,9.50317,0,0,0,0,0,0,0,-1,1077,1632,2.43858,-9.50313
-140,-608,2.60132,10.8401,0,0,0,0,0,0,0,-1,1084,1632,2.60134,-10.8401
-133,-608,3.2312,12.4738,0,0,0,0,0,0,0,-1,1091,1632,3.23116,-12.4738
-126,-608,3.76465,13.9644,0,0,0,0,0,0,0,-1,1098,1632,3.76466,-13.9644
-119,-608,4.28906,15.4196,0,0,0,0,0,0,0,-1,1105,1632,4.28911,-15.4195
-112,-608,0.745117,10.5587,0,0,0,0,0,0,0,-1,1112,1632,0.745145,-10.5587
-105,-608,-0.252319,1.42419,0,0,0,0,0,0,0,-1,1119,1632,-0.252331,-1.42418
-98,-608,-2.8595,3.0863,0,0,0,0,0,0,0,-1,1126,1632,-2.85948,-3.08625
-91,-608,-3.71948,1.73608,0,0,0,0,0,0,0,-1,1133,1632,-3.7195,-1.73607
-84,-608,0,0,0,0,0,0,0,0,0,-1,1140,1632,0,0
-77,-608,0,0,0,0,0,0,0,0,0,-1,1147,1632,0,0
-70,-608,0,0,0,0,0,0,0,0,0,-1,1154,1632,0,0
-63,-608,0,0,0,0,0,0,0,0,0,-1,1161,1632,0,0
-56,-608,0,0,0,0,0,0,0,0,0,-1,1168,1632,0,0
-49,-608,0,0,0,0,0,0,0,0,0,-1,1175,1632,0,0
-42,-608,0,0,0,0,0,0,0,0,0,-1,1182,1632,0,0
-35,-608,0,0,0,0,0,0,0,0,0,-1,1189,1632,0,0
-28,-608,0,0,0,0,0,0,0,0,0,-1,1196,1632,0,0
-21,-608,0,0,0,0,0,0,0,0,0,-1,1203,1632,0,0
-14,-608,0,0,0,0,0,0,0,0,0,-1,1210,1632,0,0
-7,-608,0,0,0,0,0,0,0,0,0,-1,1217,1632,0,0
0,-608,0,0,0,0,0,0,0,0,0,-1,1224,1632,0,0
7,-608,0,0,0,0,0,0,0,0,0,-1,1231,1632,0,0
14,-608,0,0,0,0,0,0,0,0,0,-1,1238,1632,0,0
21,-608,0,0,0,0,0,0,0,0,0,-1,1245,1632,0,0
28,-608,0,0,0,0,0,0,0,0,0,-1,1252,1632,0,0
35,-608,0,0,0,0,0,0,0,0,0,-1,1259,1632,0,0
42,-608,0,0,0,0,0,0,0,0,0,-1,1266,1632,0,0
49,-608,0,0,0,0,0,0,0,0,0,-1,1273,1632,0,0
56,-608,0,0,0,0,0,0,0,0,0,-1,1280,1632,0,0
63,-608,0,0,0,0,0,0,0,0,0,-1,1287,1632,0,0
70,-608,0,0,0,0,0,0,0,0,0,-1,1294,1632,0,0
77,-608,0,0,0,0,0,0,0,0,0,-1,1301,1632,0,0
84,-608,0,0,0,0,0,0,0,0,0,-1,1308,1632,0,0
91,-608,0,0,0,0,0,0,0,0,0,-1,1315,1632,0,0
98,-608,0,0,0,0,0,0,0,0,0,-1,1322,1632,0,0
105,-608,0,0,0,0,0,0,0,0,0,-1,1329,1632,0,0
112,-608,0,0,0,0,0,0,0,0,0,-1,1336,1632,0,0
119,-608,0,0,0,0,0,0,0,0,0,-1,1343,1632,0,0
126,-608,0,0,0,0,0,0,0,0,0,-1,1350,1632,0,0
133,-608,0,0,0,0,0,0,0,0,0,-1,1357,1632,0,0
140,-608,0,0,0,0,0,0,0,0,0,-1,1364,1632,0,0
147,-608,0,0,0,0,0,0,0,0,0,-1,1371,1632,0,0
154,-608,0,0,0,0,0,0,0,0,0,-1,1378,1632,0,0
161,-608,0,0,0,0,0,0,0,0,0,-1,1385,1632,0,0
168,-608,0,0,0,0,0,0,0,0,0,-1,1392,1632,0,0
175,-608,0,0,0,0,0,0,0,0,0,-1,1399,1632,0,0
182,-608,0,0,0,0,0,0,0,0,0,-1,1406,1632,0,0
189,-608,0,0,0,0,0,0,0,0,0,-1,1413,1632,0,0
196,-608,0,0,0,0,0,0,0,0,0,-1,1420,1632,0,0
203,-608,0,0,0,0,0,0,0,0,0,-1,1427,1632,0,0
210,-608,5.7157,-0.333008,0,0,0,0,0,0,0,-1,1434,1632,5.71566,0.333004
217,-608,4.49402,-0.831787,0,0,0,0,0,0,0,-1,1441,1632,4.49396,0.831738
224,-608,4.18018,-1.11792,0,0,0,0,0,0,0,-1,1448,1632,4.1802,1.11796
231,-608,0.361816,0.825195,0,0,0,0,0,0,0,-1,1455,1632,0.36185,-0.825226
238,-608,2.85388,-0.28833,0,0,0,0,0,0,0,-1,1462,1632,2.85391,0.288282
245,-608,3.87537,4.02173,0,0,0,0,0,0,0,-1,1469,1632,3.87538,-4.02168
252,-608,5.66956,3.5282,0,0,0,0,0,0,0,-1,1476,1632,5.6696,-3.52815
259,-608,7.47437,3.07178,0,0,0,0,0,0,0,-1,1483,1632,7.4744,-3.07172
266,-608,9.46936,2.34766,0,0,0,0,0,0,0,-1,1490,1632,9.46932,-2.34764
273,-608,6.03003,3.34241,0,0,0,0,0,0,0,-1,1497,1632,6.02997,-3.34245
280,-608,5.72461,2.0769,0,0,0,0,0,0,0,-1,1504,1632,5.72457,-2.07688
287,-608,6.20581,3.59338,0,0,0,0,0,0,0,-1,1511,1632,6.20585,-3.59341
294,-608,6.94922,5.17151,0,0,0,0,0,0,0,-1,1518,1632,6.94925,-5.17151
301,-608,7.60083,6.68018,0,0,0,0,0,0,0,-1,1525,1632,7.60086,-6.68013
308,-608,7.64746,9.93848,0,0,0,0,0,0,0,-1,1532,1632,7.64745,-9.93842
315,-608,5.30688,11.2054,0,0,0,0,0,0,0,-1,1539,1632,5.30694,-11.2054
322,-608,5.32617,13.7581,0,0,0,0,0,0,0,-1,1546,1632,5.32613,-13.758
329,-608,7.12231,13.9607,0,0,0,0,0,0,0,-1,1553,1632,7.12231,-13.9607
336,-608,5.48633,7.82446,0,0,0,0,0,0,0,-1,1560,1632,5.48634,-7.82446
343,-608,5.47192,5.61047,0,0,0,0,0,0,0,-1,1567,1632,5.47192,-5.61045
350,-608,11.6957,1.71387,0,0,0,0,0,0,0,-1,1574,1632,11.6957,-1.71388
357,-608,3.77002,5.10046,0,0,0,0,0,0,0,-1,1581,1632,3.77002,-5.10043
364,-608,5.6925,11.2163,0,0,0,0,0,0,0,-1,1588,1632,5.69255,-11.2163
371,-608,11.7126,28.6393,0,0,0,0,0,0,0,-1,1595,1632,11.7126,-28.6393
378,-608,11.6273,28.1406,0.00534508,0.0178988,-0.00458531,0.0193953,0.00384866,-1.25534,0.0118573,0.0410918,1602,1632,11.6273,-28.1406
385,-608,11.719,27.4124,0.00433166,0.0154509,-0.00372704,0.0165846,0.00319799,-1.27551,0.0101596,0.0345303,1609,1632,11.719,-27.4124
392,-608,11.7034,26.9729,0.00330346,0.013295,-0.00275926,0.0140064,0.00259211,-1.31849,0.0086047,0.0210056,1616,1632,11.7034,-26.9729
399,-608,11.7389,26.6021,0.00248658,0.0112667,-0.00186079,0.0116448,0.0021085,-1.37034,0.00716452,0.0107156,1623,1632,11.7389,-26.602
406,-608,11.7745,26.231,0.00171767,0.00939022,-0.00120355,0.00957458,0.00153331,-1.41879,0.00593831,0.00923733,1630,1632,11.7746,-26.231
413,-608,11.7706,25.8804,0.00101825,0.00785492,-0.000758584,0.00793808,0.000935088,-1.46161,0.00500953,0.0102352,1637,1632,11.7706,-25.8804
420,-608,11.7262,25.5496,0.000510732,0.00639052,-0.000444115,0.00642388,0.000477376,-1.49583,0.00413266,0.0163253,1644,1632,11.7262,-25.5496
427,-608,11.7568,25.2074,0.000131641,0.00525781,-0.000308193,0.00527627,0.000113178,-1.51096,0.0034804,0.0180826,1651,1632,11.7568,-25.2074
434,-608,11.7587,24.8805,-0.00017931,0.00390665,-0.00014778,0.00391199,-0.000184647,-1.53469,0.00267167,0.015585,1658,1632,11.7587,-24.8805
441,-608,11.7542,24.5118,-0.000320049,0.00297732,-0.000223546,0.00299241,-0.000335136,-1.50341,0.00211552,0.0148431,1665,1632,11.7541,-24.5119
448,-608,11.762,24.1854,-0.000412316,0.00206292,-0.000272355,0.00209253,-0.00044193,-1.46249,0.00156329,0.0170558,1672,1632,11.7619,-24.1854
455,-608,11.7925,23.8112,-0.000438267,0.00117416,-0.000332924,0.00124019,-0.000504303,-1.37499,0.00103663,0.0121382,1679,1632,11.7924,-23.8111
462,-608,11.765,23.4437,-0.000382956,0.000102063,-0.000350006,0.000285364,-0.000566257,-1.08836,0.00050052,0.0102227,1686,1632,11.7651,-23.4437
469,-608,11.7231,23.0891,-0.000251336,-0.000956851,-0.000334208,-0.000118158,-0.00109003,-0.379201,0.000690677,0.00833251,1693,1632,11.7231,-23.0891
476,-608,11.7029,22.7136,-8.30313e-05,-0.00196816,-0.00024899,-5.06991e-05,-0.0020005,-0.129131,0.00131709,0.00863835,1700,1632,11.7029,-22.7137
483,-608,11.7067,22.3346,4.26764e-05,-0.00305546,-9.4842e-05,4.55771e-05,-0.00305836,-0.0305744,0.00205427,0.00811868,1707,1632,11.7067,-22.3345
490,-608,11.7142,21.9623,0.000160393,-0.00414483,9.53707e-05,0.000162505,-0.00414694,0.0221378,0.00282036,0.00886929,1714,1632,11.7142,-21.9622
497,-608,11.7124,21.5657,0.000100735,-0.00515458,0.000322138,0.000120408,-0.00517425,0.0609932,0.00349033,0.0184765,1721,1632,11.7124,-21.5657
504,-608,11.7146,21.2456,-0.000297199,-0.00619817,0.000884461,-0.000167483,-0.00632789,0.145622,0.00416389,0.0434311,1728,1632,11.7146,-21.2456
511,-608,11.7314,21.0557,-0.00136529,-0.00708618,0.00199646,-0.000737468,-0.00771401,0.304676,0.00491532,0.0490885,1735,1632,11.7314,-21.0557
518,-608,11.8247,20.4683,0,0,0,0,0,0,0,-1,1742,1632,11.8247,-20.4683
525,-608,11.2109,16.2579,0,0,0,0,0,0,0,-1,1749,1632,11.2109,-16.2579
532,-608,8.27917,11.6693,0,0,0,0,0,0,0,-1,1756,1632,8.27919,-11.6694
539,-608,9.40796,1.43457,0,0,0,0,0,0,0,-1,1763,1632,9.40801,-1.43463
546,-608,9.94031,2.1134,0,0,0,0,0,0,0,-1,1770,1632,9.94031,-2.11346
553,-608,10.363,2.81335,0,0,0,0,0,0,0,-1,1777,1632,10.3631,-2.81333
560,-608,9.23999,4.5636,0,0,0,0,0,0,0,-1,1784,1632,9.24,-4.56354
567,-608,0,0,0,0,0,0,0,0,0,-1,1791,1632,0,0
574,-608,0,0,0,0,0,0,0,0,0,-1,1798,1632,0,0
581,-608,0,0,0,0,0,0,0,0,0,-1,1805,1632,0,0
588,-608,0,0,0,0,0,0,0,0,0,-1,1812,1632,0,0
595,-608,0,0,0,0,0,0,0,0,0,-1,1819,1632,0,0
602,-608,0,0,0,0,0,0,0,0,0,-1,1826,1632,0,0
609,-608,0,0,0,0,0,0,0,0,0,-1,1833,1632,0,0
616,-608,0,0,0,0,0,0,0,0,0,-1,1840,1632,0,0
623,-608,0,0,0,0,0,0,0,0,0,-1,1847,1632,0,0
630,-608,0,0,0,0,0,0,0,0,0,-1,1854,1632,0,0
637,-608,0,0,0,0,0,0,0,0,0,-1,1861,1632,0,0
644,-608,0,0,0,0,0,0,0,0,0,-1,1868,1632,0,0
651,-608,0,0,0,0,0,0,0,0,0,-1,1875,1632,0,0
658,-608,0,0,0,0,0,0,0,0,0,-1,1882,1632,0,0
665,-608,0,0,0,0,0,0,0,0,0,-1,1889,1632,0,0
672,-608,0,0,0,0,0,0,0,0,0,-1,1896,1632,0,0
679,-608,0,0,0,0,0,0,0,0,0,-1,1903,1632,0,0
686,-608,0,0,0,0,0,0,0,0,0,-1,1910,1632,0,0
693,-608,0,0,0,0,0,0,0,0,0,-1,1917,1632,0,0
700,-608,0,0,0,0,0,0,0,0,0,-1,1924,1632,0,0
707,-608,0,0,0,0,0,0,0,0,0,-1,1931,1632,0,0
714,-608,0,0,0,0,0,0,0,0,0,-1,1938,1632,0,0
721,-608,0,0,0,0,0,0,0,0,0,-1,1945,1632,0,0
728,-608,0,0,0,0,0,0,0,0,0,-1,1952,1632,0,0
735,-608,0,0,0,0,0,0,0,0,0,-1,1959,1632,0,0
742,-608,0,0,0,0,0,0,0,0,0,-1,1966,1632,0,0
749,-608,0,0,0,0,0,0,0,0,0,-1,1973,1632,0,0
756,-608,0,0,0,0,0,0,0,0,0,-1,1980,1632,0,0
763,-608,0,0,0,0,0,0,0,0,0,-1,1987,1632,0,0
770,-608,0,0,0,0,0,0,0,0,0,-1,1994,1632,0,0
777,-608,0,0,0,0,0,0,0,0,0,-1,2001,1632,0,0
784,-608,0,0,0,0,0,0,0,0,0,-1,2008,1632,0,0
791,-608,0,0,0,0,0,0,0,0,0,-1,2015,1632,0,0
798,-608,0,0,0,0,0,0,0,0,0,-1,2022,1632,0,0
805,-608,0,0,0,0,0,0,0,0,0,-1,2029,1632,0,0
812,-608,0,0,0,0,0,0,0,0,0,-1,2036,1632,0,0
-700,-615,0,0,0,0,0,0,0,0,0,-1,524,1639,0,0
-693,-615,0,0,0,0,0,0,0,0,0,-1,531,1639,0,0
-686,-615,0,0,0,0,0,0,0,0,0,-1,538,1639,0,0
-679,-615,0,0,0,0,0,0,0,0,0,-1,545,1639,0,0
-672,-615,0,0,0,0,0,0,0,0,0,-1,552,1639,0,0
-665,-615,0,0,0,0,0,0,0,0,0,-1,559,1639,0,0
-658,-615,0,0,0,0,0,0,0,0,0,-1,566,1639,0,0
-651,-615,0,0,0,0,0,0,0,0,0,-1,573,1639,0,0
-644,-615,0,0,0,0,0,0,0,0,0,-1,580,1639,0,0
-637,-615,0,0,0,0,0,0,0,0,0,-1,587,1639,0,0
-630,-615,0,0,0,0,0,0,0,0,0,-1,594,1639,0,0
-623,-615,0,0,0,0,0,0,0,0,0,-1,601,1639,0,0
-616,-615,0,0,0,0,0,0,0,0,0,-1,608,1639,0,0
-609,-615,0,0,0,0,0,0,0,0,0,-1,615,1639,0,0
-602,-615,0,0,0,0,0,0,0,0,0,-1,622,1639,0,0
-595,-615,0,0,0,0,0,0,0,0,0,-1,629,1639,0,0
-588,-615,0,0,0,0,0,0,0,0,0,-1,636,1639,0,0
-581,-615,0,0,0,0,0,0,0,0,0,-1,643,1639,0,0
-574,-615,0,0,0,0,0,0,0,0,0,-1,650,1639,0,0
-567,-615,0,0,0,0,0,0,0,0,0,-1,657,1639,0,0
-560,-615,0,0,0,0,0,0,0,0,0,-1,664,1639,0,0
-553,-615,0,0,0,0,0,0,0,0,0,-1,671,1639,0,0
-546,-615,0,0,0,0,0,0,0,0,0,-1,678,1639,0,0
-539,-615,0,0,0,0,0,0,0,0,0,-1,685,1639,0,0
-532,-615,0,0,0,0,0,0,0,0,0,-1,692,1639,0,0
-525,-615,0,0,0,0,0,0,0,0,0,-1,699,1639,0,0
-518,-615,0,0,0,0,0,0,0,0,0,-1,706,1639,0,0
-511,-615,0,0,0,0,0,0,0,0,0,-1,713,1639,0,0
-504,-615,0,0,0,0,0,0,0,0,0,-1,720,1639,0,0
-497,-615,0,0,0,0,0,0,0,0,0,-1,727,1639,0,0
-490,-615,0,0,0,0,0,0,0,0,0,-1,734,1639,0,0
-483,-615,0,0,0,0,0,0,0,0,0,-1,741,1639,0,0
-476,-615,0,0,0,0,0,0,0,0,0,-1,748,1639,0,0
-469,-615,0,0,0,0,0,0,0,0,0,-1,755,1639,0,0
-462,-615,0,0,0,0,0,0,0,0,0,-1,762,1639,0,0
-455,-615,0,0,0,0,0,0,0,0,0,-1,769,1639,0,0
-448,-615,0,0,0,0,0,0,0,0,0,-1,776,1639,0,0
-441,-615,0,0,0,0,0,0,0,0,0,-1,783,1639,0,0
-434,-615,-7.64508,2.98596,0,0,0,0,0,0,0,-1,790,1639,-7.64505,-2.98594
-427,-615,-9.0011,2.89404,0,0,0,0,0,0,0,-1,797,1639,-9.00107,-2.89399
-420,-615,-8.07568,3.0752,0,0,0,0,0,0,0,-1,804,1639,-8.07569,-3.07514
-413,-615,-7.09149,3.396,0,0,0,0,0,0,0,-1,811,1639,-7.09147,-3.39599
-406,-615,-6.21368,3.7312,0,0,0,0,0,0,0,-1,818,1639,-6.21366,-3.73114
-399,-615,-4.84875,3.91907,0,0,0,0,0,0,0,-1,825,1639,-4.84877,-3.91901
-392,-615,1.7395,13.3127,0,0,0,0,0,0,0,-1,832,1639,1.73953,-13.3128
-385,-615,3.42297,14.9401,0,0,0,0,0,0,0,-1,839,1639,3.42296,-14.94
-378,-615,2.54102,17.2609,0,0,0,0,0,0,0,-1,846,1639,2.54099,-17.2608
-371,-615,3.18335,20.0781,0,0,0,0,0,0,0,-1,853,1639,3.18334,-20.0782
-364,-615,3.17334,20.658,-0.00337515,-0.00412973,0.00076329,-0.00290099,-0.00460388,0.555862,0.00268789,0.0438213,860,1639,3.17336,-20.658
-357,-615,3.33765,21.1619,-0.00233382,-0.00412309,0.000608755,-0.00214635,-0.00431056,0.298742,0.00248871,0.0419243,867,1639,3.33766,-21.1619
-350,-615,3.21234,21.4855,-0.00153049,-0.00383448,0.000547408,-0.00140705,-0.00395792,0.221799,0.0023167,0.0350931,874,1639,3.21233,-21.4855
-343,-615,3.18848,21.7954,-0.000816209,-0.00337958,0.000616608,-0.0006756,-0.00352019,0.224204,0.00215715,0.0185788,881,1639,3.18848,-21.7954
-336,-615,3.20599,22.2245,-0.000205334,-0.00277229,0.000573977,-8.28367e-05,-0.00289478,0.210264,0.00190284,0.0100081,888,1639,3.20599,-22.2245
-329,-615,3.16992,22.6417,0.000232306,-0.00222548,0.000552927,0.000350968,-0.00234414,0.211402,0.00169193,0.0101116,895,1639,3.16991,-22.6417
-322,-615,3.17316,23.0376,0.000498346,-0.00143151,0.000641748,0.000692265,-0.00162543,0.293449,0.0013738,0.0113585,902,1639,3.17314,-23.0375
-315,-615,3.17407,23.4065,0.000743939,-0.000725582,0.000747638,0.00105743,-0.00103908,0.397043,0.00121043,0.0137798,909,1639,3.17405,-23.4065
-308,-615,3.09857,23.7931,0.00101592,-7.59258e-05,0.000800434,0.00143888,-0.000498882,0.486115,0.00116181,0.0206228,916,1639,3.09856,-23.7931
-301,-615,3.14215,24.1566,0.00144355,0.000555627,0.000980945,0.00207632,-7.71442e-05,0.572897,0.00141063,0.0131984,923,1639,3.14215,-24.1566
-294,-615,3.15222,24.5208,0.00200735,0.0013432,0.00131831,0.00303477,0.000315792,0.662017,0.00192656,0.00979434,930,1639,3.15221,-24.5208
-287,-615,3.12445,24.8796,0.00251715,0.00210977,0.00162516,0.00395134,0.000675585,0.723055,0.0024404,0.0075466,937,1639,3.12444,-24.8796
-280,-615,3.13025,25.2319,0.00310505,0.00294543,0.00199544,0.00502228,0.00102821,0.76541,0.00306352,0.00866012,944,1639,3.13022,-25.2319
-273,-615,3.11841,25.6062,0.00372995,0.00369644,0.00238955,0.00610281,0.00132358,0.781892,0.00370697,0.010165,951,1639,3.11844,-25.6062
-266,-615,3.10144,25.9728,0.0043369,0.00457555,0.0028541,0.00731282,0.00159963,0.80629,0.00443914,0.0108454,958,1639,3.10145,-25.9727
-259,-615,3.13391,26.3103,0.00507314,0.00552748,0.0033923,0.00870021,0.00190041,0.818831,0.00528189,0.01177,965,1639,3.1339,-26.3103
-252,-615,3.1618,26.6992,0.00589184,0.00663732,0.00400963,0.0102915,0.00223767,0.831745,0.00625009,0.0139787,972,1639,3.1618,-26.6992
-245,-615,3.22034,27.1093,0.00675542,0.00771896,0.00466352,0.0119255,0.00254886,0.836869,0.00725162,0.0209462,979,1639,3.22035,-27.1093
-238,-615,3.22888,27.4812,0.00778295,0.00862279,0.00517204,0.0133919,0.00301381,0.825904,0.00811216,0.0316649,986,1639,3.2289,-27.4812
-231,-615,3.22742,27.9688,0,0,0,0,0,0,0,-1,993,1639,3.22742,-27.9688
-224,-615,3.5014,27.928,0,0,0,0,0,0,0,-1,1000,1639,3.5014,-27.928
-217,-615,3.99097,27.3737,0,0,0,0,0,0,0,-1,1007,1639,3.99096,-27.3736
-210,-615,2.48901,18.9324,0,0,0,0,0,0,0,-1,1014,1639,2.48902,-18.9323
-203,-615,2.13684,18.6173,0,0,0,0,0,0,0,-1,1021,1639,2.13683,-18.6173
-196,-615,4.27161,21.3264,0,0,0,0,0,0,0,-1,1028,1639,4.27165,-21.3264
-189,-615,1.8269,19.6761,0,0,0,0,0,0,0,-1,1035,1639,1.82691,-19.6761
-182,-615,1.63489,20.2278,0,0,0,0,0,0,0,-1,1042,1639,1.63492,-20.2277
-175,-615,-0.609985,13.8434,0,0,0,0,0,0,0,-1,1049,1639,-0.610016,-13.8434
-168,-615,3.85754,15.472,0,0,0,0,0,0,0,-1,1056,1639,3.85757,-15.472
-161,-615,1.03137,24.9369,0,0,0,0,0,0,0,-1,1063,1639,1.03133,-24.9368
-154,-615,2.42737,24.3593,0,0,0,0,0,0,0,-1,1070,1639,2.42742,-24.3593
-147,-615,1.52502,17.3442,0,0,0,0,0,0,0,-1,1077,1639,1.52501,-17.3442
-140,-615,3.73401,10.2349,0,0,0,0,0,0,0,-1,1084,1639,3.73402,-10.2348
-133,-615,2.6178,17.45,0,0,0,0,0,0,0,-1,1091,1639,2.61776,-17.4499
-126,-615,4.43408,12.5017,0,0,0,0,0,0,0,-1,1098,1639,4.43403,-12.5018
-119,-615,4.82983,13.9279,0,0,0,0,0,0,0,-1,1105,1639,4.82986,-13.9278
-112,-615,3.65698,14.4874,0,0,0,0,0,0,0,-1,1112,1639,3.65695,-14.4875
-105,-615,0.958496,2.45398,0,0,0,0,0,0,0,-1,1119,1639,0.958452,-2.45398
-98,-615,-0.647705,2.12109,0,0,0,0,0,0,0,-1,1126,1639,-0.647756,-2.12105
-91,-615,-3.07983,2.97375,0,0,0,0,0,0,0,-1,1133,1639,-3.07989,-2.97376
-84,-615,-2.46509,0.703247,0,0,0,0,0,0,0,-1,1140,1639,-2.46505,-0.703273
-77,-615,-3.17859,1.23755,0,0,0,0,0,0,0,-1,1147,1639,-3.17865,-1.23752
-70,-615,-4.03943,1.43335,0,0,0,0,0,0,0,-1,1154,1639,-4.03942,-1.43339
-63,-615,-4.8877,1.45544,0,0,0,0,0,0,0,-1,1161,1639,-4.88766,-1.45549
-56,-615,0,0,0,0,0,0,0,0,0,-1,1168,1639,0,0
-49,-615,0,0,0,0,0,0,0,0,0,-1,1175,1639,0,0
-42,-615,0,0,0,0,0,0,0,0,0,-1,1182,1639,0,0
-35,-615,0,0,0,0,0,0,0,0,0,-1,1189,1639,0,0
-28,-615,0,0,0,0,0,0,0,0,0,-1,1196,1639,0,0
-21,-615,0,0,0,0,0,0,0,0,0,-1,1203,1639,0,0
-14,-615,0,0,0,0,0,0,0,0,0,-1,1210,1639,0,0
-7,-615,0,0,0,0,0,0,0,0,0,-1,1217,1639,0,0
0,-615,0,0,0,0,0,0,0,0,0,-1,1224,1639,0,0
7,-615,0,0,0,0,0,0,0,0,0,-1,1231,1639,0,0
14,-615,0,0,0,0,0,0,0,0,0,-1,1238,1639,0,0
21,-615,0,0,0,0,0,0,0,0,0,-1,1245,1639,0,0
28,-615,0,0,0,0,0,0,0,0,0,-1,1252,1639,0,0
35,-615,0,0,0,0,0,0,0,0,0,-1,1259,1639,0,0
42,-615,0,0,0,0,0,0,0,0,0,-1,1266,1639,0,0
49,-615,0,0,0,0,0,0,0,0,0,-1,1273,1639,0,0
56,-615,0,0,0,0,0,0,0,0,0,-1,1280,1639,0,0
63,-615,0,0,0,0,0,0,0,0,0,-1,1287,1639,0,0
70,-615,0,0,0,0,0,0,0,0,0,-1,1294,1639,0,0
77,-615,0,0,0,0,0,0,0,0,0,-1,1301,1639,0,0
84,-615,0,0,0,0,0,0,0,0,0,-1,1308,1639,0,0
91,-615,0,0,0,0,0,0,0,0,0,-1,1315,1639,0,0
98,-615,0,0,0,0,0,0,0,0,0,-1,1322,1639,0,0
105,-615,0,0,0,0,0,0,0,0,0,-1,1329,1639,0,0
112,-615,0,0,0,0,0,0,0,0,0,-1,1336,1639,0,0
119,-615,0,0,0,0,0,0,0,0,0,-1,1343,1639,0,0
126,-615,0,0,0,0,0,0,0,0,0,-1,1350,1639,0,0
133,-615,0,0,0,0,0,0,0,0,0,-1,1357,1639,0,0
140,-615,0,0,0,0,0,0,0,0,0,-1,1364,1639,0,0
147,-615,0,0,0,0,0,0,0,0,0,-1,1371,1639,0,0
154,-615,0,0,0,0,0,0,0,0,0,-1,1378,1639,0,0
161,-615,0,0,0,0,0,0,0,0,0,-1,1385,1639,0,0
168,-615,0,0,0,0,0,0,0,0,0,-1,1392,1639,0,0
175,-615,5.39648,-2.00879,0,0,0,0,0,0,0,-1,1399,1639,5.3965,2.00881
182,-615,5.65393,-1.51025,0,0,0,0,0,0,0,-1,1406,1639,5.65388,1.51028
189,-615,5.58972,-1.35608,0,0,0,0,0,0,0,-1,1413,1639,5.58967,1.35607
196,-615,5.49915,-0.693604,0,0,0,0,0,0,0,-1,1420,1639,5.4991,0.693602
203,-615,5.33411,-0.226685,0,0,0,0,0,0,0,-1,1427,1639,5.33414,0.226689
210,-615,5.60278,0.108276,0,0,0,0,0,0,0,-1,1434,1639,5.60284,-0.10831
217,-615,6.26331,-0.307373,0,0,0,0,0,0,0,-1,1441,1639,6.26331,0.307372
224,-615,5.45422,-0.333984,0,0,0,0,0,0,0,-1,1448,1639,5.45422,0.333992
231,-615,4.92542,1.80298,0,0,0,0,0,0,0,-1,1455,1639,4.92537,-1.80297
238,-615,4.76355,1.96729,0,0,0,0,0,0,0,-1,1462,1639,4.76357,-1.96734
245,-615,4.08643,3.15906,0,0,0,0,0,0,0,-1,1469,1639,4.08638,-3.159
252,-615,6.37805,3.73889,0,0,0,0,0,0,0,-1,1476,1639,6.37806,-3.73891
259,-615,8.35974,3.16443,0,0,0,0,0,0,0,-1,1483,1639,8.35975,-3.16444
266,-615,10.3414,2.58997,0,0,0,0,0,0,0,-1,1490,1639,10.3414,-2.58996
273,-615,6.57043,1.84766,0,0,0,0,0,0,0,-1,1497,1639,6.5704,-1.84771
280,-615,7.10449,3.23438,0,0,0,0,0,0,0,-1,1504,1639,7.10447,-3.23435
287,-615,7.35779,4.68542,0,0,0,0,0,0,0,-1,1511,1639,7.35776,-4.68546
294,-615,7.63733,6.29114,0,0,0,0,0,0,0,-1,1518,1639,7.63735,-6.29109
301,-615,8.47925,11.452,0,0,0,0,0,0,0,-1,1525,1639,8.47922,-11.452
308,-615,6.8114,10.9059,0,0,0,0,0,0,0,-1,1532,1639,6.81137,-10.9058
315,-615,5.1427,14.7251,0,0,0,0,0,0,0,-1,1539,1639,5.14269,-14.7251
322,-615,7.17981,17.6864,0,0,0,0,0,0,0,-1,1546,1639,7.17985,-17.6864
329,-615,7.62134,20.4354,0,0,0,0,0,0,0,-1,1553,1639,7.62139,-20.4354
336,-615,6.45007,14.1138,0,0,0,0,0,0,0,-1,1560,1639,6.45011,-14.1138
343,-615,2.40491,6.50134,0,0,0,0,0,0,0,-1,1567,1639,2.40489,-6.50137
350,-615,6.4458,15.4594,0,0,0,0,0,0,0,-1,1574,1639,6.44578,-15.4593
357,-615,10.077,27.4594,0,0,0,0,0,0,0,-1,1581,1639,10.0771,-27.4594
364,-615,11.3313,28.8103,0,0,0,0,0,0,0,-1,1588,1639,11.3313,-28.8103
371,-615,11.4382,27.9432,0,0,0,0,0,0,0,-1,1595,1639,11.4383,-27.9433
378,-615,11.3842,27.5717,0.00421743,0.0138845,-0.00344062,0.014984,0.00311793,-1.26149,0.00912926,0.0206076,1602,1639,11.3841,-27.5717
385,-615,11.377,27.2222,0.00355054,0.0120878,-0.002927,0.0129949,0.00264341,-1.27026,0.00793039,0.0111759,1609,1639,11.377,-27.2222
392,-615,11.3945,26.8878,0.00285899,0.0103851,-0.00230484,0.0110349,0.00220924,-1.29602,0.00674194,0.00896622,1616,1639,11.3945,-26.8878
399,-615,11.4006,26.5658,0.00225189,0.00866196,-0.00165219,0.00906275,0.0018511,-1.33281,0.00552908,0.0100037,1623,1639,11.4006,-26.5658
406,-615,11.4187,26.2448,0.00161358,0.00703071,-0.00111415,0.00725091,0.00139338,-1.37567,0.00444292,0.0110107,1630,1639,11.4187,-26.2447
413,-615,11.4172,25.9155,0.00101944,0.00563732,-0.000729598,0.00574985,0.00090691,-1.41777,0.00356954,0.0126423,1637,1639,11.4172,-25.9156
420,-615,11.3984,25.5812,0.000496254,0.00420589,-0.000421158,0.00425311,0.000449041,-1.45916,0.00269821,0.0136865,1644,1639,11.3985,-25.5812
427,-615,11.3998,25.2389,7.71699e-05,0.00315174,-0.00022526,0.00316816,6.07538e-05,-1.49805,0.00209215,0.0143661,1651,1639,11.3998,-25.2389
434,-615,11.4164,24.8898,-0.000290712,0.00190645,-2.76942e-05,0.0019068,-0.000291061,-1.55819,0.0013785,0.0135121,1658,1639,11.4164,-24.8898
441,-615,11.4207,24.5137,-0.000520564,0.0010262,-5.11469e-05,0.00102789,-0.000522253,-1.53778,0.000910707,0.0144157,1665,1639,11.4207,-24.5136
448,-615,11.4033,24.1798,-0.000727728,0.000176345,-3.61817e-05,0.000177791,-0.000729174,-1.53086,0.000554955,0.0156106,1672,1639,11.4033,-24.1798
455,-615,11.4017,23.8416,-0.000851929,-0.000639309,-3.1861e-05,-0.000634637,-0.000856601,-1.42521,0.000513333,0.0142357,1679,1639,11.4017,-23.8416
462,-615,11.3921,23.4863,-0.000880266,-0.0016198,1.19047e-05,-0.000880074,-0.00161999,0.0160921,0.000936467,0.0139413,1686,1639,11.3921,-23.4864
469,-615,11.3652,23.1139,-0.000801141,-0.00254011,4.78354e-05,-0.000799826,-0.00254143,0.0274801,0.0015005,0.012005,1693,1639,11.3652,-23.1139
476,-615,11.3551,22.7157,-0.000629999,-0.00341395,0.00013173,-0.00062378,-0.00342017,0.047177,0.00210325,0.0109437,1700,1639,11.3551,-22.7156
483,-615,11.387,22.3136,-0.00047814,-0.00435875,0.000289115,-0.000456719,-0.00438017,0.0739583,0.00278041,0.017277,1707,1639,11.387,-22.3136
490,-615,11.3768,21.9487,-0.000265196,-0.00530083,0.000421226,-0.000230204,-0.00533582,0.0828815,0.00348302,0.024089,1714,1639,11.3769,-21.9488
497,-615,11.2871,21.6599,-0.000159281,-0.00618004,0.000607006,-9.86927e-05,-0.00624063,0.099485,0.00412791,0.0357005,1721,1639,11.2871,-21.6599
504,-615,11.1016,21.2898,0,0,0,0,0,0,0,-1,1728,1639,11.1016,-21.2898
511,-615,11.4196,21.1694,0,0,0,0,0,0,0,-1,1735,1639,11.4196,-21.1694
518,-615,13.2416,9.81812,0,0,0,0,0,0,0,-1,1742,1639,13.2416,-9.81813
525,-615,4.37524,3.90491,0,0,0,0,0,0,0,-1,1749,1639,4.37518,-3.90495
532,-615,7.3645,0.848145,0,0,0,0,0,0,0,-1,1756,1639,7.36451,-0.848093
539,-615,12.8112,-0.0476074,0,0,0,0,0,0,0,-1,1763,1639,12.8111,0.0475553
546,-615,8.33813,2.94556,0,0,0,0,0,0,0,-1,1770,1639,8.33813,-2.9455
553,-615,5.82532,-2.04199,0,0,0,0,0,0,0,-1,1777,1639,5.82534,2.04195
560,-615,0,0,0,0,0,0,0,0,0,-1,1784,1639,0,0
567,-615,0,0,0,0,0,0,0,0,0,-1,1791,1639,0,0
574,-615,0,0,0,0,0,0,0,0,0,-1,1798,1639,0,0
581,-615,0,0,0,0,0,0,0,0,0,-1,1805,1639,0,0
588,-615,0,0,0,0,0,0,0,0,0,-1,1812,1639,0,0
595,-615,0,0,0,0,0,0,0,0,0,-1,1819,1639,0,0
602,-615,0,0,0,0,0,0,0,0,0,-1,1826,1639,0,0
609,-615,0,0,0,0,0,0,0,0,0,-1,1833,1639,0,0
616,-615,0,0,0,0,0,0,0,0,0,-1,1840,1639,0,0
623,-615,0,0,0,0,0,0,0,0,0,-1,1847,1639,0,0
630,-615,0,0,0,0,0,0,0,0,0,-1,1854,1639,0,0
637,-615,0,0,0,0,0,0,0,0,0,-1,1861,1639,0,0
644,-615,0,0,0,0,0,0,0,0,0,-1,1868,1639,0,0
651,-615,0,0,0,0,0,0,0,0,0,-1,1875,1639,0,0
658,-615,0,0,0,0,0,0,0,0,0,-1,1882,1639,0,0
665,-615,0,0,0,0,0,0,0,0,0,-1,1889,1639,0,0
672,-615,0,0,0,0,0,0,0,0,0,-1,1896,1639,0,0
679,-615,0,0,0,0,0,0,0,0,0,-1,1903,1639,0,0
686,-615,0,0,0,0,0,0,0,0,0,-1,1910,1639,0,0
693,-615,0,0,0,0,0,0,0,0,0,-1,1917,1639,0,0
700,-615,0,0,0,0,0,0,0,0,0,-1,1924,1639,0,0
707,-615,0,0,0,0,0,0,0,0,0,-1,1931,1639,0,0
714,-615,0,0,0,0,0,0,0,0,0,-1,1938,1639,0,0
721,-615,0,0,0,0,0,0,0,0,0,-1,1945,1639,0,0
728,-615,0,0,0,0,0,0,0,0,0,-1,1952,1639,0,0
735,-615,0,0,0,0,0,0,0,0,0,-1,1959,1639,0,0
742,-615,0,0,0,0,0,0,0,0,0,-1,1966,1639,0,0
749,-615,0,0,0,0,0,0,0,0,0,-1,1973,1639,0,0
756,-615,0,0,0,0,0,0,0,0,0,-1,1980,1639,0,0
763,-615,0,0,0,0,0,0,0,0,0,-1,1987,1639,0,0
770,-615,0,0,0,0,0,0,0,0,0,-1,1994,1639,0,0
777,-615,0,0,0,0,0,0,0,0,0,-1,2001,1639,0,0
784,-615,0,0,0,0,0,0,0,0,0,-1,2008,1639,0,0
791,-615,0,0,0,0,0,0,0,0,0,-1,2015,1639,0,0
798,-615,0,0,0,0,0,0,0,0,0,-1,2022,1639,0,0
805,-615,0,0,0,0,0,0,0,0,0,-1,2029,1639,0,0
812,-615,0,0,0,0,0,0,0,0,0,-1,2036,1639,0,0
-700,-622,0,0,0,0,0,0,0,0,0,-1,524,1646,0,0
-693,-622,0,0,0,0,0,0,0,0,0,-1,531,1646,0,0
-686,-622,0,0,0,0,0,0,0,0,0,-1,538,1646,0,0
-679,-622,0,0,0,0,0,0,0,0,0,-1,545,1646,0,0
-672,-622,0,0,0,0,0,0,0,0,0,-1,552,1646,0,0
-665,-622,0,0,0,0,0,0,0,0,0,-1,559,1646,0,0
-658,-622,0,0,0,0,0,0,0,0,0,-1,566,1646,0,0
-651,-622,0,0,0,0,0,0,0,0,0,-1,573,1646,0,0
-644,-622,0,0,0,0,0,0,0,0,0,-1,580,1646,0,0
-637,-622,0,0,0,0,0,0,0,0,0,-1,587,1646,0,0
-630,-622,0,0,0,0,0,0,0,0,0,-1,594,1646,0,0
-623,-622,0,0,0,0,0,0,0,0,0,-1,601,1646,0,0
-616,-622,0,0,0,0,0,0,0,0,0,-1,608,1646,0,0
-609,-622,0,0,0,0,0,0,0,0,0,-1,615,1646,0,0
-602,-622,0,0,0,0,0,0,0,0,0,-1,622,1646,0,0
-595,-622,0,0,0,0,0,0,0,0,0,-1,629,1646,0,0
-588,-622,0,0,0,0,0,0,0,0,0,-1,636,1646,0,0
-581,-622,0,0,0,0,0,0,0,0,0,-1,643,1646,0,0
-574,-622,0,0,0,0,0,0,0,0,0,-1,650,1646,0,0
-567,-622,0,0,0,0,0,0,0,0,0,-1,657,1646,0,0
-560,-622,0,0,0,0,0,0,0,0,0,-1,664,1646,0,0
-553,-622,0,0,0,0,0,0,0,0,0,-1,671,1646,0,0
-546,-622,0,0,0,0,0,0,0,0,0,-1,678,1646,0,0
-539,-622,0,0,0,0,0,0,0,0,0,-1,685,1646,0,0
-532,-622,0,0,0,0,0,0,0,0,0,-1,692,1646,0,0
-525,-622,0,0,0,0,0,0,0,0,0,-1,699,1646,0,0
-518,-622,0,0,0,0,0,0,0,0,0,-1,706,1646,0,0
-511,-622,0,0,0,0,0,0,0,0,0,-1,713,1646,0,0
-504,-622,0,0,0,0,0,0,0,0,0,-1,720,1646,0,0
-497,-622,0,0,0,0,0,0,0,0,0,-1,727,1646,0,0
-490,-622,0,0,0,0,0,0,0,0,0,-1,734,1646,0,0
-483,-622,0,0,0,0,0,0,0,0,0,-1,741,1646,0,0
-476,-622,0,0,0,0,0,0,0,0,0,-1,748,1646,0,0
-469,-622,0,0,0,0,0,0,0,0,0,-1,755,1646,0,0
-462,-622,0,0,0,0,0,0,0,0,0,-1,762,1646,0,0
-455,-622,0,0,0,0,0,0,0,0,0,-1,769,1646,0,0
-448,-622,0,0,0,0,0,0,0,0,0,-1,776,1646,0,0
-441,-622,0,0,0,0,0,0,0,0,0,-1,783,1646,0,0
-434,-622,0,0,0,0,0,0,0,0,0,-1,790,1646,0,0
-427,-622,-7.62891,3.48096,0,0,0,0,0,0,0,-1,797,1646,-7.62892,-3.48092
-420,-622,-9.35791,1.77185,0,0,0,0,0,0,0,-1,804,1646,-9.35789,-1.77183
-413,-622,-8.46075,1.96777,0,0,0,0,0,0,0,-1,811,1646,-8.46074,-1.96774
-406,-622,-4.44318,2.16858,0,0,0,0,0,0,0,-1,818,1646,-4.44315,-2.16859
-399,-622,-7.06976,1.51001,0,0,0,0,0,0,0,-1,825,1646,-7.06976,-1.51005
-392,-622,3.89551,5.85376,0,0,0,0,0,0,0,-1,832,1646,3.8955,-5.85379
-385,-622,2.00543,14.0448,0,0,0,0,0,0,0,-1,839,1646,2.00544,-14.0448
-378,-622,1.49036,15.3436,0,0,0,0,0,0,0,-1,846,1646,1.49033,-15.3436
-371,-622,3.3562,19.241,0,0,0,0,0,0,0,-1,853,1646,3.35619,-19.241
-364,-622,3.22522,20.5151,0,0,0,0,0,0,0,-1,860,1646,3.22521,-20.5151
-357,-622,3.60913,21.0435,0,0,0,0,0,0,0,-1,867,1646,3.60911,-21.0435
-350,-622,3.46454,21.4589,0,0,0,0,0,0,0,-1,874,1646,3.46454,-21.4588
-343,-622,3.54266,21.8617,-0.0010601,-0.00456273,0.000599994,-0.000960173,-0.00466266,0.165032,0.00284295,0.0246253,881,1646,3.54265,-21.8616
-336,-622,3.58051,22.2461,-0.000531863,-0.00381878,0.000557539,-0.000439866,-0.00391078,0.163532,0.00247363,0.00894628,888,1646,3.58052,-22.2461
-329,-622,3.54797,22.6392,-0.000188989,-0.00323285,0.000502012,-0.000108332,-0.00331351,0.159307,0.00217379,0.00849033,895,1646,3.54796,-22.6392
-322,-622,3.53302,23.0503,5.88081e-06,-0.00240818,0.000559437,0.000129223,-0.00253153,0.217004,0.00173237,0.0107103,902,1646,3.53303,-23.0503
-315,-622,3.54095,23.4343,0.000171459,-0.00169899,0.000630287,0.000364023,-0.00189155,0.296512,0.00139826,0.0141827,909,1646,3.54095,-23.4343
-308,-622,3.51807,23.7837,0.00036813,-0.00101327,0.000638265,0.000617881,-0.00126302,0.372981,0.00110703,0.0146116,916,1646,3.51807,-23.7837
-301,-622,3.52155,24.1523,0.000729193,-0.000363021,0.000765705,0.00112358,-0.000757412,0.47563,0.00109283,0.0138709,923,1646,3.52156,-24.1523
-294,-622,3.5097,24.5233,0.00121464,0.000350956,0.000995413,0.00186785,-0.000302254,0.580735,0.00135725,0.0100726,930,1646,3.50973,-24.5233
-287,-622,3.49695,24.8802,0.00165188,0.00107442,0.00122264,0.00261942,0.000106874,0.669445,0.00171177,0.00800748,937,1646,3.49695,-24.8803
-280,-622,3.48425,25.2286,0.0021533,0.00184582,0.00148781,0.00349529,0.000503821,0.733915,0.00218173,0.00877252,944,1646,3.48422,-25.2286
-273,-622,3.48297,25.5918,0.00268387,0.0025478,0.0017648,0.00438195,0.000849723,0.766133,0.00268329,0.0129079,951,1646,3.48296,-25.5918
-266,-622,3.4541,25.9575,0.00320539,0.00334915,0.00209358,0.00537208,0.00118246,0.802559,0.00325953,0.0128926,958,1646,3.45408,-25.9575
-259,-622,3.47601,26.3116,0.0038275,0.00421492,0.0024622,0.00649102,0.0015514,0.824653,0.00391408,0.0116205,965,1646,3.47599,-26.3117
-252,-622,3.50464,26.6396,0.0044898,0.00516599,0.00286236,0.00771016,0.00194563,0.844184,0.0046299,0.0120198,972,1646,3.50464,-26.6396
-245,-622,3.54004,26.9819,0.0051698,0.00606463,0.00326889,0.00891658,0.00231785,0.853411,0.0053421,0.0100331,979,1646,3.54002,-26.9819
-238,-622,3.53833,27.3325,0.00599262,0.00675732,0.00355134,0.00994684,0.00280311,0.839023,0.00592227,0.0122377,986,1646,3.5383,-27.3325
-231,-622,3.59637,27.7577,0.00695392,0.0068704,0.00386553,0.0107779,0.00304641,0.779997,0.00641561,0.0219816,993,1646,3.59637,-27.7577
-224,-622,3.69183,27.9379,0.00755418,0.00720716,0.00414419,0.0115285,0.00323285,0.764477,0.00686659,0.037602,1000,1646,3.69182,-27.9379
-217,-622,3.78711,28.1666,0,0,0,0,0,0,0,-1,1007,1646,3.7871,-28.1667
-210,-622,3.87927,28.0903,0,0,0,0,0,0,0,-1,1014,1646,3.87925,-28.0903
-203,-622,4.21375,20.9574,0,0,0,0,0,0,0,-1,1021,1646,4.21375,-20.9574
-196,-622,4.18518,21.2491,0,0,0,0,0,0,0,-1,1028,1646,4.18521,-21.2491
-189,-622,4.98254,25.8979,0,0,0,0,0,0,0,-1,1035,1646,4.98255,-25.8979
-182,-622,2.21411,20.6752,0,0,0,0,0,0,0,-1,1042,1646,2.21416,-20.6751
-175,-622,2.56091,11.0195,0,0,0,0,0,0,0,-1,1049,1646,2.56095,-11.0195
-168,-622,3.06982,25.405,0,0,0,0,0,0,0,-1,1056,1646,3.06986,-25.4051
-161,-622,2.50171,30.2614,0,0,0,0,0,0,0,-1,1063,1646,2.50167,-30.2613
-154,-622,3.0719,30.4347,0,0,0,0,0,0,0,-1,1070,1646,3.07195,-30.4347
-147,-622,3.7146,25.5477,0,0,0,0,0,0,0,-1,1077,1646,3.71464,-25.5478
-140,-622,3.27515,16.0353,0,0,0,0,0,0,0,-1,1084,1646,3.27519,-16.0353
-133,-622,3.09644,17.677,0,0,0,0,0,0,0,-1,1091,1646,3.09638,-17.677
-126,-622,3.5061,19.5251,0,0,0,0,0,0,0,-1,1098,1646,3.50616,-19.5252
-119,-622,4.06384,13.1715,0,0,0,0,0,0,0,-1,1105,1646,4.06379,-13.1716
-112,-622,4.33276,14.6605,0,0,0,0,0,0,0,-1,1112,1646,4.33281,-14.6605
-105,-622,0.306519,4.38159,0,0,0,0,0,0,0,-1,1119,1646,0.306536,-4.38159
-98,-622,-0.510376,3.5033,0,0,0,0,0,0,0,-1,1126,1646,-0.510393,-3.50324
-91,-622,-1.146,0.975952,0,0,0,0,0,0,0,-1,1133,1646,-1.14599,-0.97597
-84,-622,-2.04895,1.31787,0,0,0,0,0,0,0,-1,1140,1646,-2.0489,-1.31781
-77,-622,-1.80627,0.332275,0,0,0,0,0,0,0,-1,1147,1646,-1.80622,-0.33223
-70,-622,-3.65588,2.28149,0,0,0,0,0,0,0,-1,1154,1646,-3.65589,-2.28155
-63,-622,-2.49683,1.27087,0,0,0,0,0,0,0,-1,1161,1646,-2.49679,-1.27093
-56,-622,-2.44238,-0.575562,0,0,0,0,0,0,0,-1,1168,1646,-2.44242,0.575508
-49,-622,-2.41089,1.38818,0,0,0,0,0,0,0,-1,1175,1646,-2.41088,-1.38815
-42,-622,-2.71497,2.85242,0,0,0,0,0,0,0,-1,1182,1646,-2.71491,-2.85247
-35,-622,-3.0177,4.25842,0,0,0,0,0,0,0,-1,1189,1646,-3.01773,-4.25838
-28,-622,-0.896606,0.678833,0,0,0,0,0,0,0,-1,1196,1646,-0.89661,-0.678835
-21,-622,3.69312,26.7708,0,0,0,0,0,0,0,-1,1203,1646,3.69309,-26.7708
-14,-622,14.3806,35.9073,0,0,0,0,0,0,0,-1,1210,1646,14.3806,-35.9073
-7,-622,13.6726,36.5836,0,0,0,0,0,0,0,-1,1217,1646,13.6727,-36.5836
0,-622,0,0,0,0,0,0,0,0,0,-1,1224,1646,0,0
7,-622,0,0,0,0,0,0,0,0,0,-1,1231,1646,0,0
14,-622,0,0,0,0,0,0,0,0,0,-1,1238,1646,0,0
21,-622,0,0,0,0,0,0,0,0,0,-1,1245,1646,0,0
28,-622,0,0,0,0,0,0,0,0,0,-1,1252,1646,0,0
35,-622,0,0,0,0,0,0,0,0,0,-1,1259,1646,0,0
42,-622,0,0,0,0,0,0,0,0,0,-1,1266,1646,0,0
49,-622,0,0,0,0,0,0,0,0,0,-1,1273,1646,0,0
56,-622,0,0,0,0,0,0,0,0,0,-1,1280,1646,0,0
63,-622,0,0,0,0,0,0,0,0,0,-1,1287,1646,0,0
70,-622,0,0,0,0,0,0,0,0,0,-1,1294,1646,0,0
77,-622,0,0,0,0,0,0,0,0,0,-1,1301,1646,0,0
84,-622,0,0,0,0,0,0,0,0,0,-1,1308,1646,0,0
91,-622,0,0,0,0,0,0,0,0,0,-1,1315,1646,0,0
98,-622,0,0,0,0,0,0,0,0,0,-1,1322,1646,0,0
105,-622,0,0,0,0,0,0,0,0,0,-1,1329,1646,0,0
112,-622,0,0,0,0,0,0,0,0,0,-1,1336,1646,0,0
119,-622,0,0,0,0,0,0,0,0,0,-1,1343,1646,0,0
126,-622,7.58459,33.537,0.018015,0.00184939,0.050934,0.0615035,-0.0416391,0.706708,0.0599164,0.0448556,1350,1646,7.58455,-33.537
133,-622,7.24866,34.1083,0.0202017,-0.00358521,0.050845,0.0605258,-0.0439093,0.670506,0.0605494,0.0470229,1357,1646,7.2486,-34.1082
140,-622,7.08752,33.1385,0,0,0,0,0,0,0,-1,1364,1646,7.08756,-33.1385
147,-622,5.38354,32.3008,0,0,0,0,0,0,0,-1,1371,1646,5.38357,-32.3008
154,-622,9.93933,36.5293,0,0,0,0,0,0,0,-1,1378,1646,9.93937,-36.5293
161,-622,10.6884,6.46448,0,0,0,0,0,0,0,-1,1385,1646,10.6883,-6.46442
168,-622,12.2402,5.18091,0,0,0,0,0,0,0,-1,1392,1646,12.2403,-5.1809
175,-622,5.64355,-1.77075,0,0,0,0,0,0,0,-1,1399,1646,5.64351,1.77077
182,-622,5.88586,-1.32251,0,0,0,0,0,0,0,-1,1406,1646,5.88587,1.32256
189,-622,5.97986,-1.18005,0,0,0,0,0,0,0,-1,1413,1646,5.97986,1.18003
196,-622,5.85022,-0.244507,0,0,0,0,0,0,0,-1,1420,1646,5.85026,0.244478
203,-622,5.25159,0.138794,0,0,0,0,0,0,0,-1,1427,1646,5.25162,-0.138822
210,-622,6.66833,0.0397949,0,0,0,0,0,0,0,-1,1434,1646,6.6684,-0.0398278
217,-622,6.12061,0.0506592,0,0,0,0,0,0,0,-1,1441,1646,6.12058,-0.0507181
224,-622,5.57275,0.0616455,0,0,0,0,0,0,0,-1,1448,1646,5.57276,-0.0616084
231,-622,5.31348,1.3949,0,0,0,0,0,0,0,-1,1455,1646,5.31342,-1.39495
238,-622,3.76477,2.90686,0,0,0,0,0,0,0,-1,1462,1646,3.7648,-2.90686
245,-622,5.13794,2.67993,0,0,0,0,0,0,0,-1,1469,1646,5.13796,-2.67992
252,-622,6.66528,2.53992,0,0,0,0,0,0,0,-1,1476,1646,6.66522,-2.53991
259,-622,8.93787,3.31458,0,0,0,0,0,0,0,-1,1483,1646,8.93791,-3.31454
266,-622,5.72644,3.11926,0,0,0,0,0,0,0,-1,1490,1646,5.72647,-3.1192
273,-622,7.28076,3.61218,0,0,0,0,0,0,0,-1,1497,1646,7.28071,-3.61212
280,-622,8.43127,4.4447,0,0,0,0,0,0,0,-1,1504,1646,8.43123,-4.44467
287,-622,8.60315,5.94617,0,0,0,0,0,0,0,-1,1511,1646,8.60319,-5.94622
294,-622,7.62756,11.5143,0,0,0,0,0,0,0,-1,1518,1646,7.62762,-11.5143
301,-622,7.36548,11.6569,0,0,0,0,0,0,0,-1,1525,1646,7.36549,-11.6569
308,-622,7.10339,11.7994,0,0,0,0,0,0,0,-1,1532,1646,7.10335,-11.7995
315,-622,8.28687,16.5842,0,0,0,0,0,0,0,-1,1539,1646,8.28689,-16.5843
322,-622,7.43689,20.5786,0,0,0,0,0,0,0,-1,1546,1646,7.43685,-20.5786
329,-622,9.76477,26.4202,0,0,0,0,0,0,0,-1,1553,1646,9.7648,-26.4202
336,-622,10.4526,28.8552,0,0,0,0,0,0,0,-1,1560,1646,10.4526,-28.8552
343,-622,10.7416,28.4885,0,0,0,0,0,0,0,-1,1567,1646,10.7415,-28.4885
350,-622,11.0479,28.8821,0,0,0,0,0,0,0,-1,1574,1646,11.0479,-28.882
357,-622,11.155,28.4076,0,0,0,0,0,0,0,-1,1581,1646,11.155,-28.4076
364,-622,11.033,28.4032,0.00452566,0.0130725,-0.00335044,0.0142293,0.00336883,-1.23834,0.00858644,0.0377035,1588,1646,11.0329,-28.4032
371,-622,11.0781,27.8741,0.00399097,0.0118935,-0.00299565,0.0129007,0.00298376,-1.24645,0.00779855,0.022262,1595,1646,11.0781,-27.8741
378,-622,11.062,27.5288,0.00336171,0.0106633,-0.00259408,0.0114911,0.00253394,-1.26191,0.00697131,0.0103364,1602,1646,11.062,-27.5289
385,-622,11.0577,27.1969,0.00289676,0.0092478,-0.00229314,0.00998922,0.00215535,-1.25808,0.00606995,0.00855701,1609,1646,11.0577,-27.1969
392,-622,11.057,26.8927,0.00239997,0.00779561,-0.00188005,0.00838607,0.00180951,-1.26648,0.00509579,0.0095947,1616,1646,11.057,-26.8927
399,-622,11.0521,26.5724,0.0019002,0.00624201,-0.00139468,0.00665141,0.0014908,-1.28528,0.00403032,0.0109058,1623,1646,11.0521,-26.5724
406,-622,11.0513,26.2175,0.0013188,0.00475537,-0.00092906,0.00499045,0.00108372,-1.32296,0.00303101,0.0144702,1630,1646,11.0512,-26.2175
413,-622,11.0505,25.8809,0.000779001,0.0034353,-0.000568922,0.00355203,0.000662279,-1.36844,0.00218104,0.0156701,1637,1646,11.0506,-25.8808
420,-622,11.0487,25.5802,0.000239182,0.00203602,-0.00028623,0.00208052,0.000194688,-1.41658,0.00132688,0.0161257,1644,1646,11.0487,-25.5802
427,-622,11.0402,25.2407,-0.000205001,0.00105447,-5.51099e-05,0.00105688,-0.000207408,-1.52715,0.000782932,0.0129839,1651,1646,11.0401,-25.2407
434,-622,11.0569,24.8776,-0.000617784,-8.46661e-05,0.000156677,-4.20301e-05,-0.00066042,1.3051,0.00042696,0.0132565,1658,1646,11.0569,-24.8775
441,-622,11.0721,24.5211,-0.000919701,-0.000917564,0.000168084,-0.000750545,-0.00108672,0.788577,0.000642442,0.014303,1665,1646,11.0721,-24.5211
448,-622,11.0562,24.2001,-0.00122261,-0.00169775,0.000229225,-0.00113006,-0.0017903,0.383764,0.00104543,0.0135837,1672,1646,11.0561,-24.2
455,-622,11.0502,23.8541,-0.00143877,-0.00241598,0.000283184,-0.00136264,-0.00249211,0.262634,0.00144092,0.0159848,1679,1646,11.0502,-23.8542
462,-622,11.0449,23.5065,-0.00154384,-0.00325635,0.000362616,-0.00147023,-0.00332997,0.200296,0.00192694,0.0165332,1686,1646,11.0449,-23.5065
469,-622,11.0269,23.1372,-0.00150713,-0.00399367,0.000393741,-0.00144627,-0.00405453,0.153353,0.00237271,0.0181041,1693,1646,11.0268,-23.1372
476,-622,11.0413,22.7301,-0.00133834,-0.00470619,0.000483702,-0.00127025,-0.00477428,0.139858,0.00285523,0.0212616,1700,1646,11.0413,-22.7301
483,-622,11.0638,22.4158,-0.00116116,-0.00546817,0.000651165,-0.00106486,-0.00556447,0.146817,0.00341056,0.0330539,1707,1646,11.0638,-22.4157
490,-622,11.1958,22.0062,-0.00086243,-0.00618873,0.00074042,-0.000761419,-0.00628975,0.135588,0.00396381,0.0404435,1714,1646,11.1958,-22.0062
497,-622,10.9738,21.8903,0,0,0,0,0,0,0,-1,1721,1646,10.9737,-21.8903
504,-622,10.8306,19.8021,0,0,0,0,0,0,0,-1,1728,1646,10.8306,-19.8022
511,-622,5.29004,4.14587,0,0,0,0,0,0,0,-1,1735,1646,5.29008,-4.14589
518,-622,5.6001,1.55359,0,0,0,0,0,0,0,-1,1742,1646,5.60015,-1.5536
525,-622,5.83093,2.01807,0,0,0,0,0,0,0,-1,1749,1646,5.83097,-2.01802
532,-622,5.44202,0.57373,0,0,0,0,0,0,0,-1,1756,1646,5.44196,-0.573705
539,-622,9.32129,1.06116,0,0,0,0,0,0,0,-1,1763,1646,9.32131,-1.0612
546,-622,6.50977,-3.45618,0,0,0,0,0,0,0,-1,1770,1646,6.50981,3.4562
553,-622,0,0,0,0,0,0,0,0,0,-1,1777,1646,0,0
560,-622,0,0,0,0,0,0,0,0,0,-1,1784,1646,0,0
567,-622,0,0,0,0,0,0,0,0,0,-1,1791,1646,0,0
574,-622,0,0,0,0,0,0,0,0,0,-1,1798,1646,0,0
581,-622,0,0,0,0,0,0,0,0,0,-1,1805,1646,0,0
588,-622,0,0,0,0,0,0,0,0,0,-1,1812,1646,0,0
595,-622,0,0,0,0,0,0,0,0,0,-1,1819,1646,0,0
602,-622,0,0,0,0,0,0,0,0,0,-1,1826,1646,0,0
609,-622,0,0,0,0,0,0,0,0,0,-1,1833,1646,0,0
616,-622,0,0,0,0,0,0,0,0,0,-1,1840,1646,0,0
623,-622,0,0,0,0,0,0,0,0,0,-1,1847,1646,0,0
630,-622,0,0,0,0,0,0,0,0,0,-1,1854,1646,0,0
637,-622,0,0,0,0,0,0,0,0,0,-1,1861,1646,0,0
644,-622,0,0,0,0,0,0,0,0,0,-1,1868,1646,0,0
651,-622,0,0,0,0,0,0,0,0,0,-1,1875,1646,0,0
658,-622,0,0,0,0,0,0,0,0,0,-1,1882,1646,0,0
665,-622,0,0,0,0,0,0,0,0,0,-1,1889,1646,0,0
672,-622,0,0,0,0,0,0,0,0,0,-1,1896,1646,0,0
679,-622,0,0,0,0,0,0,0,0,0,-1,1903,1646,0,0
686,-622,0,0,0,0,0,0,0,0,0,-1,1910,1646,0,0
693,-622,0,0,0,0,0,0,0,0,0,-1,1917,1646,0,0
700,-622,0,0,0,0,0,0,0,0,0,-1,1924,1646,0,0
707,-622,0,0,0,0,0,0,0,0,0,-1,1931,1646,0,0
714,-622,0,0,0,0,0,0,0,0,0,-1,1938,1646,0,0
721,-622,0,0,0,0,0,0,0,0,0,-1,1945,1646,0,0
728,-622,0,0,0,0,0,0,0,0,0,-1,1952,1646,0,0
735,-622,0,0,0,0,0,0,0,0,0,-1,1959,1646,0,0
742,-622,0,0,0,0,0,0,0,0,0,-1,1966,1646,0,0
749,-622,0,0,0,0,0,0,0,0,0,-1,1973,1646,0,0
756,-622,0,0,0,0,0,0,0,0,0,-1,1980,1646,0,0
763,-622,0,0,0,0,0,0,0,0,0,-1,1987,1646,0,0
770,-622,0,0,0,0,0,0,0,0,0,-1,1994,1646,0,0
777,-622,0,0,0,0,0,0,0,0,0,-1,2001,1646,0,0
784,-622,0,0,0,0,0,0,0,0,0,-1,2008,1646,0,0
791,-622,0,0,0,0,0,0,0,0,0,-1,2015,1646,0,0
798,-622,0,0,0,0,0,0,0,0,0,-1,2022,1646,0,0
805,-622,0,0,0,0,0,0,0,0,0,-1,2029,1646,0,0
812,-622,0,0,0,0,0,0,0,0,0,-1,2036,1646,0,0
-700,-629,0,0,0,0,0,0,0,0,0,-1,524,1653,0,0
-693,-629,0,0,0,0,0,0,0,0,0,-1,531,1653,0,0
-686,-629,0,0,0,0,0,0,0,0,0,-1,538,1653,0,0
-679,-629,0,0,0,0,0,0,0,0,0,-1,545,1653,0,0
-672,-629,0,0,0,0,0,0,0,0,0,-1,552,1653,0,0
-665,-629,0,0,0,0,0,0,0,0,0,-1,559,1653,0,0
-658,-629,0,0,0,0,0,0,0,0,0,-1,566,1653,0,0
-651,-629,0,0,0,0,0,0,0,0,0,-1,573,1653,0,0
-644,-629,0,0,0,0,0,0,0,0,0,-1,580,1653,0,0
-637,-629,0,0,0,0,0,0,0,0,0,-1,587,1653,0,0
-630,-629,0,0,0,0,0,0,0,0,0,-1,594,1653,0,0
-623,-629,0,0,0,0,0,0,0,0,0,-1,601,1653,0,0
-616,-629,0,0,0,0,0,0,0,0,0,-1,608,1653,0,0
-609,-629,0,0,0,0,0,0,0,0,0,-1,615,1653,0,0
-602,-629,0,0,0,0,0,0,0,0,0,-1,622,1653,0,0
-595,-629,0,0,0,0,0,0,0,0,0,-1,629,1653,0,0
-588,-629,0,0,0,0,0,0,0,0,0,-1,636,1653,0,0
-581,-629,0,0,0,0,0,0,0,0,0,-1,643,1653,0,0
-574,-629,0,0,0,0,0,0,0,0,0,-1,650,1653,0,0
-567,-629,0,0,0,0,0,0,0,0,0,-1,657,1653,0,0
-560,-629,0,0,0,0,0,0,0,0,0,-1,664,1653,0,0
-553,-629,0,0,0,0,0,0,0,0,0,-1,671,1653,0,0
-546,-629,0,0,0,0,0,0,0,0,0,-1,678,1653,0,0
-539,-629,0,0,0,0,0,0,0,0,0,-1,685,1653,0,0
-532,-629,0,0,0,0,0,0,0,0,0,-1,692,1653,0,0
-525,-629,0,0,0,0,0,0,0,0,0,-1,699,1653,0,0
-518,-629,0,0,0,0,0,0,0,0,0,-1,706,1653,0,0
-511,-629,0,0,0,0,0,0,0,0,0,-1,713,1653,0,0
-504,-629,0,0,0,0,0,0,0,0,0,-1,720,1653,0,0
-497,-629,0,0,0,0,0,0,0,0,0,-1,727,1653,0,0
-490,-629,0,0,0,0,0,0,0,0,0,-1,734,1653,0,0
-483,-629,0,0,0,0,0,0,0,0,0,-1,741,1653,0,0
-476,-629,0,0,0,0,0,0,0,0,0,-1,748,1653,0,0
-469,-629,0,0,0,0,0,0,0,0,0,-1,755,1653,0,0
-462,-629,0,0,0,0,0,0,0,0,0,-1,762,1653,0,0
-455,-629,0,0,0,0,0,0,0,0,0,-1,769,1653,0,0
-448,-629,0,0,0,0,0,0,0,0,0,-1,776,1653,0,0
-441,-629,0,0,0,0,0,0,0,0,0,-1,783,1653,0,0
-434,-629,0,0,0,0,0,0,0,0,0,-1,790,1653,0,0
-427,-629,0,0,0,0,0,0,0,0,0,-1,797,1653,0,0
-420,-629,-3.87103,3.37634,0,0,0,0,0,0,0,-1,804,1653,-3.87101,-3.37633
-413,-629,-5.69751,1.33582,0,0,0,0,0,0,0,-1,811,1653,-5.69754,-1.3358
-406,-629,2.85406,6.01501,0,0,0,0,0,0,0,-1,818,1653,2.85405,-6.01507
-399,-629,-0.455627,10.8687,0,0,0,0,0,0,0,-1,825,1653,-0.455625,-10.8687
-392,-629,1.15369,11.1295,0,0,0,0,0,0,0,-1,832,1653,1.1537,-11.1295
-385,-629,1.81976,11.6935,0,0,0,0,0,0,0,-1,839,1653,1.81975,-11.6935
-378,-629,2.19452,14.7941,0,0,0,0,0,0,0,-1,846,1653,2.19451,-14.7941
-371,-629,3.60114,14.7299,0,0,0,0,0,0,0,-1,853,1653,3.60113,-14.7299
-364,-629,3.34198,19.8982,0,0,0,0,0,0,0,-1,860,1653,3.34201,-19.8981
-357,-629,4.38782,16.3444,0,0,0,0,0,0,0,-1,867,1653,4.38783,-16.3443
-350,-629,3.92706,21.631,0,0,0,0,0,0,0,-1,874,1653,3.92703,-21.631
-343,-629,3.93842,21.9658,-0.00116649,-0.00584658,0.000712227,-0.0010605,-0.00595257,0.147728,0.00366637,0.0415467,881,1653,3.93844,-21.9658
-336,-629,3.92255,22.2513,-0.000740489,-0.00492013,0.000740853,-0.000613057,-0.00504756,0.170341,0.00318045,0.0185668,888,1653,3.92255,-22.2514
-329,-629,3.94702,22.6533,-0.000505151,-0.00432037,0.000647356,-0.000398302,-0.00442722,0.16358,0.00282808,0.0120133,895,1653,3.94704,-22.6534
-322,-629,3.93787,23.0458,-0.00037246,-0.00348367,0.000672458,-0.000233336,-0.0036228,0.20401,0.0023413,0.0124588,902,1653,3.93788,-23.0458
-315,-629,3.91144,23.4285,-0.00027598,-0.00278945,0.000711444,-8.85765e-05,-0.00297685,0.257562,0.00195571,0.01548,909,1653,3.91141,-23.4285
-308,-629,3.87671,23.8022,-0.000147583,-0.00209347,0.000670728,6.12084e-05,-0.00230226,0.301782,0.00155564,0.0129188,916,1653,3.8767,-23.8023
-301,-629,3.89734,24.192,0.000152602,-0.00145591,0.000737918,0.000439836,-0.00174315,0.371204,0.00133312,0.0112655,923,1653,3.89734,-24.1921
-294,-629,3.88837,24.5486,0.000567964,-0.000821372,0.000860898,0.00097951,-0.00123292,0.445928,0.00128014,0.0119992,930,1653,3.88837,-24.5486
-287,-629,3.8623,24.9005,0.00094986,-0.000136794,0.00101048,0.00155382,-0.000740754,0.538725,0.00135221,0.00967473,937,1653,3.86228,-24.9005
-280,-629,3.8587,25.2612,0.00137927,0.000589071,0.00118041,0.00222895,-0.000260607,0.623902,0.00158001,0.00956131,944,1653,3.85868,-25.2612
-273,-629,3.83533,25.6143,0.00182207,0.0012635,0.00135083,0.00292219,0.00016338,0.683459,0.00189601,0.0128223,951,1653,3.83531,-25.6142
-266,-629,3.81158,25.9709,0.00227416,0.00203069,0.00156057,0.00371774,0.000587116,0.746475,0.00230782,0.012876,958,1653,3.81157,-25.971
-259,-629,3.82275,26.3247,0.00280754,0.00286713,0.00180674,0.00464432,0.00103035,0.793642,0.0028163,0.0137885,965,1653,3.82276,-26.3247
-252,-629,3.84406,26.6494,0.00334154,0.00372757,0.00204683,0.00559046,0.00147864,0.832408,0.00334487,0.0109656,972,1653,3.84407,-26.6494
-245,-629,3.85968,26.9908,0.00388258,0.00454545,0.0022869,0.00652481,0.00190322,0.857361,0.00387455,0.00820203,979,1653,3.85968,-26.9908
-238,-629,3.86908,27.3262,0.00454506,0.00516591,0.00243926,0.00731441,0.00239655,0.848689,0.0043058,0.00999969,986,1653,3.86907,-27.3261
-231,-629,3.85156,27.6544,0.00534007,0.0052979,0.00266255,0.00798162,0.00265635,0.781439,0.00469328,0.0136362,993,1653,3.85155,-27.6544
-224,-629,3.92419,28.0532,0.00583383,0.00560788,0.00283701,0.00856011,0.0028816,0.765498,0.00502935,0.0173312,1000,1653,3.9242,-28.0532
-217,-629,3.88263,28.3292,0.00612303,0.00594908,0.00278437,0.00882178,0.00325033,0.769785,0.00515169,0.0306514,1007,1653,3.88262,-28.3292
-210,-629,4.06128,28.7937,0,0,0,0,0,0,0,-1,1014,1653,4.06125,-28.7937
-203,-629,4.2052,29.5886,0,0,0,0,0,0,0,-1,1021,1653,4.20514,-29.5886
-196,-629,4.35474,29.4808,0,0,0,0,0,0,0,-1,1028,1653,4.3547,-29.4809
-189,-629,4.30347,29.5155,0,0,0,0,0,0,0,-1,1035,1653,4.30344,-29.5154
-182,-629,4.51965,29.6514,0,0,0,0,0,0,0,-1,1042,1653,4.51967,-29.6514
-175,-629,3.29102,19.1411,0,0,0,0,0,0,0,-1,1049,1653,3.29096,-19.1411
-168,-629,2.44592,30.6863,0,0,0,0,0,0,0,-1,1056,1653,2.44587,-30.6863
-161,-629,3.18347,30.6105,0,0,0,0,0,0,0,-1,1063,1653,3.1835,-30.6105
-154,-629,3.69458,30.7759,0,0,0,0,0,0,0,-1,1070,1653,3.6946,-30.7759
-147,-629,4.46606,30.7166,0,0,0,0,0,0,0,-1,1077,1653,4.46604,-30.7166
-140,-629,2.34851,19.2911,0,0,0,0,0,0,0,-1,1084,1653,2.34853,-19.2911
-133,-629,3.41248,17.6686,0,0,0,0,0,0,0,-1,1091,1653,3.41243,-17.6686
-126,-629,4.01025,19.5328,0,0,0,0,0,0,0,-1,1098,1653,4.01022,-19.5328
-119,-629,4.94177,13.5525,0,0,0,0,0,0,0,-1,1105,1653,4.94172,-13.5525
-112,-629,5.63123,15.9187,0,0,0,0,0,0,0,-1,1112,1653,5.63118,-15.9187
-105,-629,2.15881,4.38342,0,0,0,0,0,0,0,-1,1119,1653,2.15878,-4.38347
-98,-629,0.825806,4.19385,0,0,0,0,0,0,0,-1,1126,1653,0.825779,-4.1939
-91,-629,-0.452271,3.64465,0,0,0,0,0,0,0,-1,1133,1653,-0.452278,-3.6446
-84,-629,-2.6084,0.466797,0,0,0,0,0,0,0,-1,1140,1653,-2.6084,-0.466786
-77,-629,-3.50903,2.10706,0,0,0,0,0,0,0,-1,1147,1653,-3.509,-2.10707
-70,-629,-1.20886,2.52502,0,0,0,0,0,0,0,-1,1154,1653,-1.20886,-2.525
-63,-629,-0.960693,4.30212,0,0,0,0,0,0,0,-1,1161,1653,-0.960691,-4.30215
-56,-629,-1.31934,5.64343,0,0,0,0,0,0,0,-1,1168,1653,-1.31928,-5.6434
-49,-629,-2.15662,2.57458,0,0,0,0,0,0,0,-1,1175,1653,-2.15656,-2.57459
-42,-629,-2.46326,3.91467,0,0,0,0,0,0,0,-1,1182,1653,-2.4633,-3.91466
-35,-629,-2.67261,5.24292,0,0,0,0,0,0,0,-1,1189,1653,-2.67257,-5.24298
-28,-629,-0.402954,-0.866577,0,0,0,0,0,0,0,-1,1196,1653,-0.402943,0.866612
-21,-629,3.45508,27.0596,0,0,0,0,0,0,0,-1,1203,1653,3.45508,-27.0596
-14,-629,13.6486,34.8652,0,0,0,0,0,0,0,-1,1210,1653,13.6486,-34.8652
-7,-629,15.4038,39.6086,0,0,0,0,0,0,0,-1,1217,1653,15.4038,-39.6087
0,-629,15.2155,39.1974,0,0,0,0,0,0,0,-1,1224,1653,15.2155,-39.1974
7,-629,13.4359,34.3279,0,0,0,0,0,0,0,-1,1231,1653,13.4359,-34.3279
14,-629,12.8469,35.5558,0,0,0,0,0,0,0,-1,1238,1653,12.847,-35.5558
21,-629,12.2742,36.8396,-0.0704481,0.0468489,0.0790369,0.0866203,-0.110219,1.10459,0.113917,0.0479867,1245,1653,12.2741,-36.8396
28,-629,11.6447,38.1072,-0.0698773,0.035734,0.0837255,0.0819151,-0.116059,1.06674,0.114865,0.0438836,1252,1653,11.6447,-38.1072
35,-629,10.5548,39.1888,0,0,0,0,0,0,0,-1,1259,1653,10.5548,-39.1888
42,-629,3.95691,28.6138,0,0,0,0,0,0,0,-1,1266,1653,3.95688,-28.6138
49,-629,3.44653,29.834,-0.0510388,0.0124704,0.0767469,0.0637726,-0.102341,0.981553,0.0967636,0.0423599,1273,1653,3.44655,-29.834
56,-629,3.10095,31.1649,-0.0422534,0.00787597,0.0709482,0.0580568,-0.0924342,0.955196,0.0876384,0.043381,1280,1653,3.10095,-31.1649
63,-629,2.75903,32.4908,-0.0325432,0.0042218,0.0636424,0.0520833,-0.0804047,0.925992,0.0770723,0.0417,1287,1653,2.75901,-32.4908
70,-629,2.49768,33.7168,0,0,0,0,0,0,0,-1,1294,1653,2.49764,-33.7168
77,-629,1.55176,34.4023,0,0,0,0,0,0,0,-1,1301,1653,1.55176,-34.4024
84,-629,1.43628,34.918,0,0,0,0,0,0,0,-1,1308,1653,1.43632,-34.918
91,-629,1.63855,34.9318,0,0,0,0,0,0,0,-1,1315,1653,1.63855,-34.9318
98,-629,2.12561,34.955,0,0,0,0,0,0,0,-1,1322,1653,2.12566,-34.9549
105,-629,2.36975,34.745,0,0,0,0,0,0,0,-1,1329,1653,2.36975,-34.7449
112,-629,6.09216,32.7601,0,0,0,0,0,0,0,-1,1336,1653,6.09212,-32.7601
119,-629,6.46387,33.2123,0.0144265,0.00925627,0.0401916,0.052116,-0.0284332,0.753282,0.0471704,0.0433985,1343,1653,6.46392,-33.2123
126,-629,6.76697,33.5996,0.0172104,0.00688928,0.0406007,0.0529772,-0.0288775,0.722185,0.0479367,0.0420565,1350,1653,6.76692,-33.5997
133,-629,7.07092,34.2203,0.0206746,0.00209015,0.0408083,0.0532352,-0.0304705,0.673455,0.0489196,0.0470225,1357,1653,7.07087,-34.2203
140,-629,7.1095,33.2134,0.024646,-0.00666422,0.04136,0.0532145,-0.0352328,0.604477,0.0514157,0.0447576,1364,1653,7.10955,-33.2133
147,-629,7.83032,32.8462,0,0,0,0,0,0,0,-1,1371,1653,7.8303,-32.8462
154,-629,10.6113,33.5126,0,0,0,0,0,0,0,-1,1378,1653,10.6113,-33.5126
161,-629,10.5461,6.83752,0,0,0,0,0,0,0,-1,1385,1653,10.5461,-6.83758
168,-629,12.0059,5.56348,0,0,0,0,0,0,0,-1,1392,1653,12.0059,-5.56352
175,-629,5.84485,-1.78845,0,0,0,0,0,0,0,-1,1399,1653,5.84479,1.7884
182,-629,5.99036,-1.27783,0,0,0,0,0,0,0,-1,1406,1653,5.99041,1.27778
189,-629,5.97668,-0.748535,0,0,0,0,0,0,0,-1,1413,1653,5.97671,0.748544
196,-629,4.52869,9.24695,0,0,0,0,0,0,0,-1,1420,1653,4.52869,-9.2469
203,-629,3.75085,6.88037,0,0,0,0,0,0,0,-1,1427,1653,3.75087,-6.88032
210,-629,3.5907,6.52637,0,0,0,0,0,0,0,-1,1434,1653,3.59067,-6.52642
217,-629,2.4585,4.84448,0,0,0,0,0,0,0,-1,1441,1653,2.45855,-4.84448
224,-629,1.31982,3.68481,0,0,0,0,0,0,0,-1,1448,1653,1.31986,-3.68487
231,-629,3.63025,1.73499,0,0,0,0,0,0,0,-1,1455,1653,3.6303,-1.735
238,-629,4.26428,2.11255,0,0,0,0,0,0,0,-1,1462,1653,4.26429,-2.11253
245,-629,5.61816,1.95361,0,0,0,0,0,0,0,-1,1469,1653,5.61815,-1.95359
252,-629,7.27136,2.18982,0,0,0,0,0,0,0,-1,1476,1653,7.27131,-2.18985
259,-629,8.67334,2.18628,0,0,0,0,0,0,0,-1,1483,1653,8.6733,-2.18633
266,-629,6.86475,3.72058,0,0,0,0,0,0,0,-1,1490,1653,6.86479,-3.72063
273,-629,7.9021,3.8717,0,0,0,0,0,0,0,-1,1497,1653,7.90205,-3.87171
280,-629,9.70837,4.39087,0,0,0,0,0,0,0,-1,1504,1653,9.7084,-4.39082
287,-629,9.82947,7.19348,0,0,0,0,0,0,0,-1,1511,1653,9.8295,-7.19347
294,-629,6.56555,11.6359,0,0,0,0,0,0,0,-1,1518,1653,6.5656,-11.6358
301,-629,6.93835,15.6102,0,0,0,0,0,0,0,-1,1525,1653,6.93835,-15.6103
308,-629,6.08264,12.1423,0,0,0,0,0,0,0,-1,1532,1653,6.08263,-12.1423
315,-629,6.82043,18.2764,0,0,0,0,0,0,0,-1,1539,1653,6.82049,-18.2764
322,-629,10.3922,29.9829,0,0,0,0,0,0,0,-1,1546,1653,10.3922,-29.9829
329,-629,10.8607,29.8242,0,0,0,0,0,0,0,-1,1553,1653,10.8608,-29.8243
336,-629,10.808,29.3485,0,0,0,0,0,0,0,-1,1560,1653,10.808,-29.3485
343,-629,10.5637,29.2811,0,0,0,0,0,0,0,-1,1567,1653,10.5638,-29.2811
350,-629,10.6907,28.8181,0.0044607,0.0107802,-0.00263588,0.0117353,0.00350561,-1.22317,0.00695597,0.0310497,1574,1653,10.6907,-28.8181
357,-629,10.7731,28.4178,0.00400371,0.0105388,-0.00254907,0.0114155,0.00312703,-1.23955,0.00681158,0.0157881,1581,1653,10.7731,-28.4179
364,-629,10.7355,28.1063,0.0035497,0.00976569,-0.00231544,0.0105334,0.00278201,-1.25065,0.006303,0.0130812,1588,1653,10.7354,-28.1063
371,-629,10.7273,27.8163,0.00308677,0.00886647,-0.00210664,0.00955281,0.00240043,-1.25584,0.00573827,0.0109674,1595,1653,10.7272,-27.8162
378,-629,10.7365,27.5035,0.00260494,0.00786044,-0.00187506,0.00846083,0.00200454,-1.26091,0.00510528,0.0098296,1602,1653,10.7365,-27.5035
385,-629,10.7445,27.1947,0.00225567,0.00658666,-0.00168647,0.0071659,0.00167643,-1.23996,0.00432807,0.0110719,1609,1653,10.7445,-27.1947
392,-629,10.7151,26.9048,0.0019024,0.0051785,-0.00140863,0.00570088,0.00138002,-1.21568,0.00343428,0.0102531,1616,1653,10.715,-26.9048
399,-629,10.7229,26.5824,0.0014672,0.00363325,-0.00104166,0.00405289,0.00104756,-1.18783,0.00242923,0.0111559,1623,1653,10.7228,-26.5824
406,-629,10.733,26.1965,0.000898821,0.00217888,-0.000620417,0.00243023,0.000647473,-1.18588,0.00145323,0.0142932,1630,1653,10.733,-26.1965
413,-629,10.7253,25.8629,0.000397311,0.000898808,-0.000301029,0.00103984,0.000256278,-1.13266,0.000625552,0.0215993,1637,1653,10.7253,-25.863
420,-629,10.6967,25.5812,-0.000167088,-0.000460526,-7.19166e-05,-0.00015041,-0.000477203,-0.227874,0.000281717,0.0207594,1644,1653,10.6966,-25.5812
427,-629,10.707,25.2522,-0.000641797,-0.00134529,0.000168697,-0.000603435,-0.00138365,0.223596,0.000801023,0.0138522,1651,1653,10.7071,-25.2522
434,-629,10.7261,24.9001,-0.00111578,-0.00233242,0.000368051,-0.0010131,-0.00243509,0.272054,0.00141249,0.0110656,1658,1653,10.7261,-24.9001
441,-629,10.7263,24.5691,-0.00151663,-0.00305854,0.000394103,-0.00142174,-0.00315343,0.236279,0.00182356,0.0146302,1665,1653,10.7263,-24.569
448,-629,10.7085,24.2052,-0.00195568,-0.00368058,0.00048243,-0.00182992,-0.00380634,0.255005,0.00219813,0.0144274,1672,1653,10.7084,-24.2052
455,-629,10.693,23.8333,-0.00232128,-0.00418184,0.000583063,-0.00215366,-0.00434946,0.279933,0.0025112,0.0143067,1679,1653,10.693,-23.8333
462,-629,10.694,23.507,-0.00257825,-0.004747,0.000717209,-0.00236253,-0.00496272,0.292176,0.00286632,0.0166968,1686,1653,10.6939,-23.5069
469,-629,10.662,23.1278,-0.00268169,-0.00521777,0.000793657,-0.0024538,-0.00544566,0.279621,0.00314917,0.0199348,1693,1653,10.6619,-23.1278
476,-629,10.696,22.7889,-0.00262862,-0.00572179,0.000954608,-0.00235773,-0.00599268,0.276498,0.00348597,0.0308127,1700,1653,10.696,-22.7889
483,-629,10.6727,22.4521,-0.00251827,-0.00624402,0.00120249,-0.00216388,-0.00659841,0.286603,0.00388405,0.0468622,1707,1653,10.6727,-22.4522
490,-629,11.2576,21.9529,0,0,0,0,0,0,0,-1,1714,1653,11.2576,-21.9529
497,-629,10.3662,19.8605,0,0,0,0,0,0,0,-1,1721,1653,10.3662,-19.8605
504,-629,7.89453,15.5316,0,0,0,0,0,0,0,-1,1728,1653,7.89447,-15.5316
511,-629,6.29138,3.40295,0,0,0,0,0,0,0,-1,1735,1653,6.29137,-3.403
518,-629,5.84387,1.41858,0,0,0,0,0,0,0,-1,1742,1653,5.84391,-1.4186
525,-629,6.4729,1.02319,0,0,0,0,0,0,0,-1,1749,1653,6.47284,-1.02316
532,-629,6.86511,0.903687,0,0,0,0,0,0,0,-1,1756,1653,6.86514,-0.903691
539,-629,6.60803,0.746704,0,0,0,0,0,0,0,-1,1763,1653,6.60809,-0.746691
546,-629,0,0,0,0,0,0,0,0,0,-1,1770,1653,0,0
553,-629,0,0,0,0,0,0,0,0,0,-1,1777,1653,0,0
560,-629,0,0,0,0,0,0,0,0,0,-1,1784,1653,0,0
567,-629,0,0,0,0,0,0,0,0,0,-1,1791,1653,0,0
574,-629,0,0,0,0,0,0,0,0,0,-1,1798,1653,0,0
581,-629,0,0,0,0,0,0,0,0,0,-1,1805,1653,0,0
588,-629,0,0,0,0,0,0,0,0,0,-1,1812,1653,0,0
595,-629,0,0,0,0,0,0,0,0,0,-1,1819,1653,0,0
602,-629,0,0,0,0,0,0,0,0,0,-1,1826,1653,0,0
609,-629,0,0,0,0,0,0,0,0,0,-1,1833,1653,0,0
616,-629,0,0,0,0,0,0,0,0,0,-1,1840,1653,0,0
623,-629,0,0,0,0,0,0,0,0,0,-1,1847,1653,0,0
630,-629,0,0,0,0,0,0,0,0,0,-1,1854,1653,0,0
637,-629,0,0,0,0,0,0,0,0,0,-1,1861,1653,0,0
644,-629,0,0,0,0,0,0,0,0,0,-1,1868,1653,0,0
651,-629,0,0,0,0,0,0,0,0,0,-1,1875,1653,0,0
658,-629,0,0,0,0,0,0,0,0,0,-1,1882,1653,0,0
665,-629,0,0,0,0,0,0,0,0,0,-1,1889,1653,0,0
672,-629,0,0,0,0,0,0,0,0,0,-1,1896,1653,0,0
679,-629,0,0,0,0,0,0,0,0,0,-1,1903,1653,0,0
686,-629,0,0,0,0,0,0,0,0,0,-1,1910,1653,0,0
693,-629,0,0,0,0,0,0,0,0,0,-1,1917,1653,0,0
700,-629,0,0,0,0,0,0,0,0,0,-1,1924,1653,0,0
707,-629,0,0,0,0,0,0,0,0,0,-1,1931,1653,0,0
714,-629,0,0,0,0,0,0,0,0,0,-1,1938,1653,0,0
721,-629,0,0,0,0,0,0,0,0,0,-1,1945,1653,0,0
728,-629,0,0,0,0,0,0,0,0,0,-1,1952,1653,0,0
735,-629,0,0,0,0,0,0,0,0,0,-1,1959,1653,0,0
742,-629,0,0,0,0,0,0,0,0,0,-1,1966,1653,0,0
749,-629,0,0,0,0,0,0,0,0,0,-1,1973,1653,0,0
756,-629,0,0,0,0,0,0,0,0,0,-1,1980,1653,0,0
763,-629,0,0,0,0,0,0,0,0,0,-1,1987,1653,0,0
770,-629,0,0,0,0,0,0,0,0,0,-1,1994,1653,0,0
777,-629,0,0,0,0,0,0,0,0,0,-1,2001,1653,0,0
784,-629,0,0,0,0,0,0,0,0,0,-1,2008,1653,0,0
791,-629,0,0,0,0,0,0,0,0,0,-1,2015,1653,0,0
798,-629,0,0,0,0,0,0,0,0,0,-1,2022,1653,0,0
805,-629,0,0,0,0,0,0,0,0,0,-1,2029,1653,0,0
812,-629,0,0,0,0,0,0,0,0,0,-1,2036,1653,0,0
-700,-636,0,0,0,0,0,0,0,0,0,-1,524,1660,0,0
-693,-636,0,0,0,0,0,0,0,0,0,-1,531,1660,0,0
-686,-636,0,0,0,0,0,0,0,0,0,-1,538,1660,0,0
-679,-636,0,0,0,0,0,0,0,0,0,-1,545,1660,0,0
-672,-636,0,0,0,0,0,0,0,0,0,-1,552,1660,0,0
-665,-636,0,0,0,0,0,0,0,0,0,-1,559,1660,0,0
-658,-636,0,0,0,0,0,0,0,0,0,-1,566,1660,0,0
-651,-636,0,0,0,0,0,0,0,0,0,-1,573,1660,0,0
-644,-636,0,0,0,0,0,0,0,0,0,-1,580,1660,0,0
-637,-636,0,0,0,0,0,0,0,0,0,-1,587,1660,0,0
-630,-636,0,0,0,0,0,0,0,0,0,-1,594,1660,0,0
-623,-636,0,0,0,0,0,0,0,0,0,-1,601,1660,0,0
-616,-636,0,0,0,0,0,0,0,0,0,-1,608,1660,0,0
-609,-636,0,0,0,0,0,0,0,0,0,-1,615,1660,0,0
-602,-636,0,0,0,0,0,0,0,0,0,-1,622,1660,0,0
-595,-636,0,0,0,0,0,0,0,0,0,-1,629,1660,0,0
-588,-636,0,0,0,0,0,0,0,0,0,-1,636,1660,0,0
-581,-636,0,0,0,0,0,0,0,0,0,-1,643,1660,0,0
-574,-636,0,0,0,0,0,0,0,0,0,-1,650,1660,0,0
-567,-636,0,0,0,0,0,0,0,0,0,-1,657,1660,0,0
-560,-636,0,0,0,0,0,0,0,0,0,-1,664,1660,0,0
-553,-636,0,0,0,0,0,0,0,0,0,-1,671,1660,0,0
-546,-636,0,0,0,0,0,0,0,0,0,-1,678,1660,0,0
-539,-636,0,0,0,0,0,0,0,0,0,-1,685,1660,0,0
-532,-636,0,0,0,0,0,0,0,0,0,-1,692,1660,0,0
-525,-636,0,0,0,0,0,0,0,0,0,-1,699,1660,0,0
-518,-636,0,0,0,0,0,0,0,0,0,-1,706,1660,0,0
-511,-636,0,0,0,0,0,0,0,0,0,-1,713,1660,0,0
-504,-636,0,0,0,0,0,0,0,0,0,-1,720,1660,0,0
-497,-636,0,0,0,0,0,0,0,0,0,-1,727,1660,0,0
-490,-636,0,0,0,0,0,0,0,0,0,-1,734,1660,0,0
-483,-636,0,0,0,0,0,0,0,0,0,-1,741,1660,0,0
-476,-636,0,0,0,0,0,0,0,0,0,-1,748,1660,0,0
-469,-636,0,0,0,0,0,0,0,0,0,-1,755,1660,0,0
-462,-636,0,0,0,0,0,0,0,0,0,-1,762,1660,0,0
-455,-636,0,0,0,0,0,0,0,0,0,-1,769,1660,0,0
-448,-636,0,0,0,0,0,0,0,0,0,-1,776,1660,0,0
-441,-636,0,0,0,0,0,0,0,0,0,-1,783,1660,0,0
-434,-636,0,0,0,0,0,0,0,0,0,-1,790,1660,0,0
-427,-636,0,0,0,0,0,0,0,0,0,-1,797,1660,0,0
-420,-636,0,0,0,0,0,0,0,0,0,-1,804,1660,0,0
-413,-636,0,0,0,0,0,0,0,0,0,-1,811,1660,0,0
-406,-636,-0.591125,10.6943,0,0,0,0,0,0,0,-1,818,1660,-0.59115,-10.6943
-399,-636,0.0766602,11.2408,0,0,0,0,0,0,0,-1,825,1660,0.076685,-11.2409
-392,-636,0.75946,11.9233,0,0,0,0,0,0,0,-1,832,1660,0.759481,-11.9233
-385,-636,1.68878,12.517,0,0,0,0,0,0,0,-1,839,1660,1.6888,-12.5169
-378,-636,2.22107,13.0013,0,0,0,0,0,0,0,-1,846,1660,2.22107,-13.0014
-371,-636,2.52185,11.9684,0,0,0,0,0,0,0,-1,853,1660,2.52184,-11.9684
-364,-636,4.51947,14.8503,0,0,0,0,0,0,0,-1,860,1660,4.51949,-14.8504
-357,-636,4.55682,15.8809,0,0,0,0,0,0,0,-1,867,1660,4.55681,-15.8808
-350,-636,2.63104,14.4946,0,0,0,0,0,0,0,-1,874,1660,2.63102,-14.4946
-343,-636,4.40857,22.0061,0,0,0,0,0,0,0,-1,881,1660,4.40857,-22.0061
-336,-636,4.34277,22.3201,-0.000904154,-0.00614336,0.00109121,-0.000685967,-0.00636155,0.197348,0.00403187,0.0339323,888,1660,4.34279,-22.3201
-329,-636,4.3158,22.6608,-0.000911617,-0.0056528,0.000832566,-0.000769666,-0.00579475,0.168874,0.00363388,0.01943,895,1660,4.31581,-22.6608
-322,-636,4.3244,23.0702,-0.000942124,-0.00496202,0.000639138,-0.000842951,-0.00506119,0.153938,0.0031312,0.0122339,902,1660,4.32442,-23.0701
-315,-636,4.28149,23.4363,-0.000943843,-0.00431816,0.000581915,-0.000846308,-0.00441569,0.166066,0.00270617,0.0124543,909,1660,4.28147,-23.4363
-308,-636,4.25244,23.8126,-0.000923389,-0.00364403,0.00044035,-0.000853891,-0.00371353,0.156533,0.00224583,0.0110599,916,1660,4.25242,-23.8127
-301,-636,4.24683,24.1956,-0.000707568,-0.00304934,0.000409074,-0.000638166,-0.00311874,0.168058,0.00190246,0.0104959,923,1660,4.2468,-24.1956
-294,-636,4.22638,24.584,-0.000359102,-0.00249055,0.000418757,-0.000279783,-0.00256987,0.187199,0.00162802,0.0136723,930,1660,4.2264,-24.584
-287,-636,4.21558,24.9282,-8.07689e-06,-0.00182763,0.000504464,0.000122424,-0.00195813,0.253143,0.00134808,0.0120682,937,1660,4.21555,-24.9282
-280,-636,4.22485,25.2755,0.0003906,-0.00110999,0.000625345,0.000617034,-0.00133642,0.347408,0.00115304,0.0110701,944,1660,4.22483,-25.2755
-273,-636,4.19965,25.621,0.000808418,-0.000398401,0.00076196,0.00117696,-0.000766941,0.450501,0.0011306,0.0114546,951,1660,4.19967,-25.6209
-266,-636,4.18243,25.9807,0.00127184,0.000408589,0.000946317,0.00188032,-0.000199889,0.571436,0.00132521,0.012318,958,1660,4.18244,-25.9807
-259,-636,4.19397,26.3324,0.00180477,0.00128996,0.00117918,0.00275431,0.000340415,0.677938,0.00173391,0.0134771,965,1660,4.19395,-26.3324
-252,-636,4.18359,26.6682,0.00232509,0.00218092,0.00139758,0.00365244,0.000853564,0.759632,0.00220618,0.0108596,972,1660,4.18356,-26.6682
-245,-636,4.19421,27.0066,0.00283603,0.00304133,0.00160635,0.0045483,0.00132906,0.817307,0.00270049,0.00984557,979,1660,4.19419,-27.0066
-238,-636,4.21747,27.3284,0.00343514,0.00370799,0.00175024,0.00532711,0.00181602,0.824293,0.00312708,0.010265,986,1660,4.21745,-27.3284
-231,-636,4.22583,27.6501,0.00412563,0.00395635,0.00193017,0.00597302,0.00210896,0.763487,0.00349779,0.0100878,993,1660,4.22584,-27.6502
-224,-636,4.21796,27.9727,0.0045215,0.00433578,0.00205286,0.0064836,0.00237367,0.762797,0.00378779,0.00952629,1000,1660,4.21795,-27.9727
-217,-636,4.19659,28.3456,0.00472131,0.00467393,0.00192555,0.00662332,0.00277192,0.779247,0.00384087,0.0164851,1007,1660,4.19659,-28.3456
-210,-636,4.21149,28.6819,0.00495127,0.00493365,0.00159971,0.0065422,0.00334272,0.782643,0.00377744,0.0281521,1014,1660,4.2115,-28.6819
-203,-636,4.28516,29.0538,0.00513795,0.00505835,0.000907376,0.0060064,0.0041899,0.76348,0.0035569,0.0340108,1021,1660,4.28519,-29.0538
-196,-636,4.40369,29.2714,0.00513763,0.00515526,0.000275446,0.00542203,0.00487086,0.801392,0.00344569,0.0342362,1028,1660,4.40367,-29.2713
-189,-636,4.43921,29.4692,0.00489822,0.00514549,-0.000726633,0.00575893,0.00428478,-0.869666,0.00345439,0.031016,1035,1660,4.43925,-29.4692
-182,-636,4.61169,29.5906,0.00474397,0.00561898,-0.00156229,0.00680387,0.00355908,-0.921923,0.00392961,0.0461869,1042,1660,4.61171,-29.5906
-175,-636,4.61487,30.4088,0,0,0,0,0,0,0,-1,1049,1660,4.61489,-30.4088
-168,-636,4.21252,30.703,0,0,0,0,0,0,0,-1,1056,1660,4.21253,-30.703
-161,-636,4.07617,30.7421,0,0,0,0,0,0,0,-1,1063,1660,4.07618,-30.7421
-154,-636,4.02502,30.8583,0,0,0,0,0,0,0,-1,1070,1660,4.02502,-30.8583
-147,-636,4.72229,30.8823,0,0,0,0,0,0,0,-1,1077,1660,4.72233,-30.8824
-140,-636,3.4729,27.1271,0,0,0,0,0,0,0,-1,1084,1660,3.47287,-27.1271
-133,-636,4.68311,18.0922,0,0,0,0,0,0,0,-1,1091,1660,4.68316,-18.0921
-126,-636,3.79028,18.2225,0,0,0,0,0,0,0,-1,1098,1660,3.79025,-18.2226
-119,-636,1.8667,13.8916,0,0,0,0,0,0,0,-1,1105,1660,1.86668,-13.8916
-112,-636,-1.24963,9.7998,0,0,0,0,0,0,0,-1,1112,1660,-1.24968,-9.79978
-105,-636,3.51624,4.72791,0,0,0,0,0,0,0,-1,1119,1660,3.51618,-4.7279
-98,-636,1.54504,5.11914,0,0,0,0,0,0,0,-1,1126,1660,1.54503,-5.11912
-91,-636,-1.87964,-2.25012,0,0,0,0,0,0,0,-1,1133,1660,-1.87966,2.25016
-84,-636,-2.84143,0.133667,0,0,0,0,0,0,0,-1,1140,1660,-2.84144,-0.133701
-77,-636,-3.57349,2.45935,0,0,0,0,0,0,0,-1,1147,1660,-3.57345,-2.45939
-70,-636,-4.23682,4.82312,0,0,0,0,0,0,0,-1,1154,1660,-4.23681,-4.82307
-63,-636,-2.21033,6.97168,0,0,0,0,0,0,0,-1,1161,1660,-2.21034,-6.97165
-56,-636,-2.51917,8.80359,0,0,0,0,0,0,0,-1,1168,1660,-2.51916,-8.80361
-49,-636,-3.13,10.4113,0,0,0,0,0,0,0,-1,1175,1660,-3.12996,-10.4112
-42,-636,-2.27771,4.90173,0,0,0,0,0,0,0,-1,1182,1660,-2.27775,-4.90173
-35,-636,-2.27698,5.89685,0,0,0,0,0,0,0,-1,1189,1660,-2.27695,-5.89686
-28,-636,-1.70654,4.83936,0,0,0,0,0,0,0,-1,1196,1660,-1.70656,-4.8393
-21,-636,4.24683,27.7834,0,0,0,0,0,0,0,-1,1203,1660,4.24687,-27.7835
-14,-636,14.7451,38.999,0,0,0,0,0,0,0,-1,1210,1660,14.7452,-38.999
-7,-636,14.6692,38.7853,-0.0625269,0.119961,0.0331647,0.125802,-0.0683672,1.39648,0.113727,0.0490627,1217,1660,14.6692,-38.7853
0,-636,14.399,38.5192,-0.0696333,0.101349,0.0473758,0.113598,-0.0818827,1.31778,0.113355,0.046621,1224,1660,14.399,-38.5192
7,-636,14.1403,38.1321,-0.0742619,0.0849575,0.0583558,0.104055,-0.0933593,1.25452,0.114033,0.0446934,1231,1660,14.1403,-38.1321
14,-636,12.2703,35.1405,0,0,0,0,0,0,0,-1,1238,1660,12.2702,-35.1405
21,-636,11.6709,36.4471,-0.0779147,0.0587823,0.0747724,0.0917374,-0.11087,1.15567,0.117149,0.0456804,1245,1660,11.6709,-36.4471
28,-636,11.0502,37.7039,-0.0766503,0.0485132,0.078406,0.0862508,-0.114388,1.12221,0.116218,0.0468404,1252,1660,11.0502,-37.7039
35,-636,10.1772,38.657,-0.071732,0.040241,0.0776918,0.0800172,-0.111508,1.09761,0.111074,0.047381,1259,1660,10.1773,-38.657
42,-636,9.33875,39.6187,0,0,0,0,0,0,0,-1,1266,1660,9.33879,-39.6187
49,-636,3.59045,30.4205,-0.0532861,0.0260709,0.0664626,0.0637982,-0.0910134,1.05451,0.0898397,0.0456541,1273,1660,3.5905,-30.4205
56,-636,3.04248,31.2102,-0.043911,0.0212033,0.060496,0.0573465,-0.0800542,1.03226,0.0796886,0.0460302,1280,1660,3.04249,-31.2102
63,-636,2.79309,32.3513,-0.0349501,0.0174112,0.05385,0.0511075,-0.0686463,1.01166,0.0693866,0.0413231,1287,1660,2.7931,-32.3513
70,-636,2.2655,33.7786,0,0,0,0,0,0,0,-1,1294,1660,2.26551,-33.7785
77,-636,2.0885,34.3008,-0.0144834,0.0197727,0.0423552,0.048332,-0.0430427,0.977541,0.0527847,0.0467072,1301,1660,2.08847,-34.3008
84,-636,1.901,34.8121,-0.00741567,0.0199365,0.0364465,0.0451883,-0.0326675,0.964887,0.0451434,0.0447112,1308,1660,1.90103,-34.8122
91,-636,2.05273,34.8536,0.00186021,0.0187476,0.0298206,0.0412969,-0.0206891,0.923361,0.0364409,0.0421916,1315,1660,2.05279,-34.8536
98,-636,2.50293,34.7181,0.00966133,0.018037,0.0264697,0.0406481,-0.0129498,0.863854,0.0322927,0.0459256,1322,1660,2.50291,-34.7182
105,-636,2.91614,34.5607,0,0,0,0,0,0,0,-1,1329,1660,2.91619,-34.5607
112,-636,2.08252,36.6622,0,0,0,0,0,0,0,-1,1336,1660,2.08254,-36.6622
119,-636,5.96667,32.8607,0.0210652,0.0216362,0.0214409,0.0427935,-9.2037e-05,0.792055,0.0285597,0.0456008,1343,1660,5.96664,-32.8607
126,-636,6.78992,33.3427,0.0242033,0.0193931,0.0228752,0.0447994,-0.00120305,0.73302,0.0302753,0.0437969,1350,1660,6.7899,-33.3427
133,-636,7.02173,33.7089,0.0275999,0.0142016,0.0247925,0.0465824,-0.00478091,0.653445,0.032765,0.0455937,1357,1660,7.02168,-33.7088
140,-636,7.10095,33.3422,0.030866,0.00484353,0.0278255,0.048572,-0.0128625,0.566701,0.0374133,0.0424987,1364,1660,7.1009,-33.3421
147,-636,7.81848,32.9159,0.0356139,-0.0158773,0.0309504,0.050127,-0.0303904,0.438472,0.04695,0.0455757,1371,1660,7.81853,-32.9159
154,-636,8.50647,32.5771,0,0,0,0,0,0,0,-1,1378,1660,8.50644,-32.5772
161,-636,10.2961,7.13025,0,0,0,0,0,0,0,-1,1385,1660,10.2961,-7.13021
168,-636,11.7659,5.83899,0,0,0,0,0,0,0,-1,1392,1660,11.7658,-5.83899
175,-636,5.94592,-1.72888,0,0,0,0,0,0,0,-1,1399,1660,5.94598,1.72886
182,-636,5.93994,-1.11938,0,0,0,0,0,0,0,-1,1406,1660,5.93998,1.11936
189,-636,5.32544,11.9595,0,0,0,0,0,0,0,-1,1413,1660,5.32542,-11.9595
196,-636,5.3623,9.38025,0,0,0,0,0,0,0,-1,1420,1660,5.36225,-9.38027
203,-636,5.18542,9.02429,0,0,0,0,0,0,0,-1,1427,1660,5.18547,-9.0243
210,-636,4.09167,7.17041,0,0,0,0,0,0,0,-1,1434,1660,4.09173,-7.17041
217,-636,2.94897,5.28992,0,0,0,0,0,0,0,-1,1441,1660,2.94899,-5.28991
224,-636,1.49194,3.63916,0,0,0,0,0,0,0,-1,1448,1660,1.49197,-3.63918
231,-636,0.17749,2.24854,0,0,0,0,0,0,0,-1,1455,1660,0.177501,-2.24855
238,-636,-0.764648,1.00598,0,0,0,0,0,0,0,-1,1462,1660,-0.764704,-1.00595
245,-636,6.21204,1.18005,0,0,0,0,0,0,0,-1,1469,1660,6.21206,-1.18001
252,-636,7.70251,0.865723,0,0,0,0,0,0,0,-1,1476,1660,7.7025,-0.865692
259,-636,9.03601,0.787231,0,0,0,0,0,0,0,-1,1483,1660,9.03598,-0.787243
266,-636,10.1071,3.24109,0,0,0,0,0,0,0,-1,1490,1660,10.1071,-3.24103
273,-636,8.48535,5.02466,0,0,0,0,0,0,0,-1,1497,1660,8.48533,-5.02472
280,-636,11.908,32.0698,0,0,0,0,0,0,0,-1,1504,1660,11.9079,-32.0698
287,-636,6.08606,11.49,0,0,0,0,0,0,0,-1,1511,1660,6.08606,-11.49
294,-636,6.69592,15.9669,0,0,0,0,0,0,0,-1,1518,1660,6.69595,-15.9669
301,-636,8.25903,23.0582,0,0,0,0,0,0,0,-1,1525,1660,8.25903,-23.0583
308,-636,9.86597,31.0615,0,0,0,0,0,0,0,-1,1532,1660,9.86592,-31.0615
315,-636,10.1041,30.4717,0,0,0,0,0,0,0,-1,1539,1660,10.1042,-30.4717
322,-636,10.5093,29.9279,0,0,0,0,0,0,0,-1,1546,1660,10.5092,-29.9278
329,-636,10.4636,29.5342,0.00560853,0.00694746,-0.00178512,0.00818452,0.00437147,-0.964794,0.004729,0.0348337,1553,1660,10.4636,-29.5342
336,-636,10.4338,29.2507,0.00464602,0.00737056,-0.00180698,0.00827124,0.00374534,-1.10839,0.00478249,0.0253784,1560,1660,10.4338,-29.2507
343,-636,10.3689,29.08,0.00403932,0.00761167,-0.00184086,0.00839049,0.0032605,-1.17056,0.00488417,0.02404,1567,1660,10.3688,-29.08
350,-636,10.3561,28.7471,0.00347972,0.00761167,-0.00176649,0.00826392,0.00282747,-1.21709,0.00484979,0.0130874,1574,1660,10.3561,-28.747
357,-636,10.4165,28.4117,0.00307391,0.00746129,-0.00176426,0.00808272,0.00245248,-1.23213,0.00478527,0.0102373,1581,1660,10.4166,-28.4118
364,-636,10.4174,28.1127,0.00266136,0.00680639,-0.00158379,0.00734226,0.00212548,-1.24454,0.0043625,0.0106155,1588,1660,10.4173,-28.1127
371,-636,10.4113,27.8263,0.00224553,0.0060105,-0.00140501,0.00647701,0.00177901,-1.25021,0.00386401,0.00945304,1595,1660,10.4112,-27.8263
378,-636,10.4381,27.5074,0.00190738,0.00507547,-0.00123205,0.0054982,0.00148465,-1.24027,0.00328441,0.00948419,1602,1660,10.4381,-27.5074
385,-636,10.4436,27.1885,0.00167631,0.00382307,-0.00105217,0.00425275,0.00124663,-1.18309,0.0025244,0.0143524,1609,1660,10.4436,-27.1885
392,-636,10.4136,26.8823,0.00141254,0.00239918,-0.00078365,0.00283185,0.00097986,-1.06632,0.00166062,0.0151589,1616,1660,10.4135,-26.8823
399,-636,10.4159,26.5684,0.00101331,0.000846228,-0.000468742,0.0014059,0.000453642,-0.69721,0.000828538,0.0117708,1623,1660,10.4159,-26.5684
406,-636,10.4258,26.224,0.000442696,-0.000585576,-6.9707e-05,0.0004474,-0.00059028,-0.0673796,0.000600995,0.0137804,1630,1660,10.4257,-26.224
413,-636,10.4257,25.8719,-4.36891e-05,-0.00181335,0.000218147,-1.71947e-05,-0.00183985,0.12086,0.00122087,0.0217301,1637,1660,10.4256,-25.872
420,-636,10.3855,25.5713,-0.000675969,-0.00310947,0.000389004,-0.000615298,-0.00317014,0.154719,0.00194111,0.023194,1644,1660,10.3855,-25.5712
427,-636,10.3845,25.2449,-0.00123249,-0.00387391,0.000627566,-0.00109097,-0.00401543,0.221795,0.00239751,0.0140635,1651,1660,10.3846,-25.2449
434,-636,10.3667,24.9128,-0.00182997,-0.00468571,0.000795293,-0.00162343,-0.00489225,0.254093,0.0028773,0.0116697,1658,1660,10.3667,-24.9129
441,-636,10.3713,24.5729,-0.00240352,-0.0052913,0.000806839,-0.00219338,-0.00550144,0.254786,0.00319792,0.0125435,1665,1660,10.3713,-24.5728
448,-636,10.384,24.235,-0.00307354,-0.00571058,0.000883523,-0.00280489,-0.00597923,0.295184,0.0034543,0.0146538,1672,1660,10.384,-24.2349
455,-636,10.3467,23.8882,-0.00370869,-0.00591138,0.0010076,-0.00331731,-0.00630276,0.370488,0.00364058,0.0157931,1679,1660,10.3467,-23.8881
462,-636,10.3489,23.5195,-0.00420707,-0.00624649,0.00124529,-0.00361726,-0.0068363,0.442332,0.00394917,0.0205057,1686,1660,10.3489,-23.5196
469,-636,10.254,23.1108,-0.0045345,-0.00649334,0.00143168,-0.00377928,-0.00724856,0.485409,0.00418623,0.0288366,1693,1660,10.254,-23.1108
476,-636,10.1754,22.7634,-0.00466331,-0.00685861,0.00176589,-0.00368173,-0.00784019,0.507328,0.00452932,0.0408918,1700,1660,10.1755,-22.7634
483,-636,10.2021,22.4611,0,0,0,0,0,0,0,-1,1707,1660,10.2022,-22.461
490,-636,11.0208,21.9213,0,0,0,0,0,0,0,-1,1714,1660,11.0208,-21.9213
497,-636,9.55579,18.0111,0,0,0,0,0,0,0,-1,1721,1660,9.55574,-18.0111
504,-636,6.26428,19.4268,0,0,0,0,0,0,0,-1,1728,1660,6.26433,-19.4268
511,-636,5.65466,9.23218,0,0,0,0,0,0,0,-1,1735,1660,5.65461,-9.23216
518,-636,6.72791,1.07605,0,0,0,0,0,0,0,-1,1742,1660,6.7279,-1.0761
525,-636,7.04309,0.93335,0,0,0,0,0,0,0,-1,1749,1660,7.04308,-0.933298
532,-636,0,0,0,0,0,0,0,0,0,-1,1756,1660,0,0
539,-636,0,0,0,0,0,0,0,0,0,-1,1763,1660,0,0
546,-636,0,0,0,0,0,0,0,0,0,-1,1770,1660,0,0
553,-636,0,0,0,0,0,0,0,0,0,-1,1777,1660,0,0
560,-636,0,0,0,0,0,0,0,0,0,-1,1784,1660,0,0
567,-636,0,0,0,0,0,0,0,0,0,-1,1791,1660,0,0
574,-636,0,0,0,0,0,0,0,0,0,-1,1798,1660,0,0
581,-636,0,0,0,0,0,0,0,0,0,-1,1805,1660,0,0
588,-636,0,0,0,0,0,0,0,0,0,-1,1812,1660,0,0
595,-636,0,0,0,0,0,0,0,0,0,-1,1819,1660,0,0
602,-636,0,0,0,0,0,0,0,0,0,-1,1826,1660,0,0
609,-636,0,0,0,0,0,0,0,0,0,-1,1833,1660,0,0
616,-636,0,0,0,0,0,0,0,0,0,-1,1840,1660,0,0
623,-636,0,0,0,0,0,0,0,0,0,-1,1847,1660,0,0
630,-636,0,0,0,0,0,0,0,0,0,-1,1854,1660,0,0
637,-636,0,0,0,0,0,0,0,0,0,-1,1861,1660,0,0
644,-636,0,0,0,0,0,0,0,0,0,-1,1868,1660,0,0
651,-636,0,0,0,0,0,0,0,0,0,-1,1875,1660,0,0
658,-636,0,0,0,0,0,0,0,0,0,-1,1882,1660,0,0
665,-636,0,0,0,0,0,0,0,0,0,-1,1889,1660,0,0
672,-636,0,0,0,0,0,0,0,0,0,-1,1896,1660,0,0
679,-636,0,0,0,0,0,0,0,0,0,-1,1903,1660,0,0
686,-636,0,0,0,0,0,0,0,0,0,-1,1910,1660,0,0
693,-636,0,0,0,0,0,0,0,0,0,-1,1917,1660,0,0
700,-636,0,0,0,0,0,0,0,0,0,-1,1924,1660,0,0
707,-636,0,0,0,0,0,0,0,0,0,-1,1931,1660,0,0
714,-636,0,0,0,0,0,0,0,0,0,-1,1938,1660,0,0
721,-636,0,0,0,0,0,0,0,0,0,-1,1945,1660,0,0
728,-636,0,0,0,0,0,0,0,0,0,-1,1952,1660,0,0
735,-636,0,0,0,0,0,0,0,0,0,-1,1959,1660,0,0
742,-636,0,0,0,0,0,0,0,0,0,-1,1966,1660,0,0
749,-636,0,0,0,0,0,0,0,0,0,-1,1973,1660,0,0
756,-636,0,0,0,0,0,0,0,0,0,-1,1980,1660,0,0
763,-636,0,0,0,0,0,0,0,0,0,-1,1987,1660,0,0
770,-636,0,0,0,0,0,0,0,0,0,-1,1994,1660,0,0
777,-636,0,0,0,0,0,0,0,0,0,-1,2001,1660,0,0
784,-636,0,0,0,0,0,0,0,0,0,-1,2008,1660,0,0
791,-636,0,0,0,0,0,0,0,0,0,-1,2015,1660,0,0
798,-636,0,0,0,0,0,0,0,0,0,-1,2022,1660,0,0
805,-636,0,0,0,0,0,0,0,0,0,-1,2029,1660,0,0
812,-636,0,0,0,0,0,0,0,0,0,-1,2036,1660,0,0
-700,-643,0,0,0,0,0,0,0,0,0,-1,524,1667,0,0
-693,-643,0,0,0,0,0,0,0,0,0,-1,531,1667,0,0
-686,-643,0,0,0,0,0,0,0,0,0,-1,538,1667,0,0
-679,-643,0,0,0,0,0,0,0,0,0,-1,545,1667,0,0
-672,-643,0,0,0,0,0,0,0,0,0,-1,552,1667,0,0
-665,-643,0,0,0,0,0,0,0,0,0,-1,559,1667,0,0
-658,-643,0,0,0,0,0,0,0,0,0,-1,566,1667,0,0
-651,-643,0,0,0,0,0,0,0,0,0,-1,573,1667,0,0
-644,-643,0,0,0,0,0,0,0,0,0,-1,580,1667,0,0
-637,-643,0,0,0,0,0,0,0,0,0,-1,587,1667,0,0
-630,-643,0,0,0,0,0,0,0,0,0,-1,594,1667,0,0
-623,-643,0,0,0,0,0,0,0,0,0,-1,601,1667,0,0
-616,-643,0,0,0,0,0,0,0,0,0,-1,608,1667,0,0
-609,-643,0,0,0,0,0,0,0,0,0,-1,615,1667,0,0
-602,-643,0,0,0,0,0,0,0,0,0,-1,622,1667,0,0
-595,-643,0,0,0,0,0,0,0,0,0,-1,629,1667,0,0
-588,-643,0,0,0,0,0,0,0,0,0,-1,636,1667,0,0
-581,-643,0,0,0,0,0,0,0,0,0,-1,643,1667,0,0
-574,-643,0,0,0,0,0,0,0,0,0,-1,650,1667,0,0
-567,-643,0,0,0,0,0,0,0,0,0,-1,657,1667,0,0
-560,-643,0,0,0,0,0,0,0,0,0,-1,664,1667,0,0
-553,-643,0,0,0,0,0,0,0,0,0,-1,671,1667,0,0
-546,-643,0,0,0,0,0,0,0,0,0,-1,678,1667,0,0
-539,-643,0,0,0,0,0,0,0,0,0,-1,685,1667,0,0
-532,-643,0,0,0,0,0,0,0,0,0,-1,692,1667,0,0
-525,-643,0,0,0,0,0,0,0,0,0,-1,699,1667,0,0
-518,-643,0,0,0,0,0,0,0,0,0,-1,706,1667,0,0
-511,-643,0,0,0,0,0,0,0,0,0,-1,713,1667,0,0
-504,-643,0,0,0,0,0,0,0,0,0,-1,720,1667,0,0
-497,-643,0,0,0,0,0,0,0,0,0,-1,727,1667,0,0
-490,-643,0,0,0,0,0,0,0,0,0,-1,734,1667,0,0
-483,-643,0,0,0,0,0,0,0,0,0,-1,741,1667,0,0
-476,-643,0,0,0,0,0,0,0,0,0,-1,748,1667,0,0
-469,-643,0,0,0,0,0,0,0,0,0,-1,755,1667,0,0
-462,-643,0,0,0,0,0,0,0,0,0,-1,762,1667,0,0
-455,-643,0,0,0,0,0,0,0,0,0,-1,769,1667,0,0
-448,-643,0,0,0,0,0,0,0,0,0,-1,776,1667,0,0
-441,-643,0,0,0,0,0,0,0,0,0,-1,783,1667,0,0
-434,-643,0,0,0,0,0,0,0,0,0,-1,790,1667,0,0
-427,-643,0,0,0,0,0,0,0,0,0,-1,797,1667,0,0
-420,-643,0,0,0,0,0,0,0,0,0,-1,804,1667,0,0
-413,-643,0,0,0,0,0,0,0,0,0,-1,811,1667,0,0
-406,-643,0,0,0,0,0,0,0,0,0,-1,818,1667,0,0
-399,-643,0.589417,11.6465,0,0,0,0,0,0,0,-1,825,1667,0.58939,-11.6465
-392,-643,0.865295,12.6523,0,0,0,0,0,0,0,-1,832,1667,0.865315,-12.6523
-385,-643,1.72968,13.2692,0,0,0,0,0,0,0,-1,839,1667,1.72967,-13.2692
-378,-643,2.66522,13.8193,0,0,0,0,0,0,0,-1,846,1667,2.66524,-13.8193
-371,-643,0.466125,3.35095,0,0,0,0,0,0,0,-1,853,1667,0.466148,-3.351
-364,-643,1.69513,9.922,0,0,0,0,0,0,0,-1,860,1667,1.69511,-9.92205
-357,-643,1.14227,10.8429,0,0,0,0,0,0,0,-1,867,1667,1.14228,-10.8429
-350,-643,2.50061,9.96948,0,0,0,0,0,0,0,-1,874,1667,2.50059,-9.96954
-343,-643,2.61505,6.17407,0,0,0,0,0,0,0,-1,881,1667,2.61504,-6.17412
-336,-643,4.77258,22.455,0,0,0,0,0,0,0,-1,888,1667,4.77261,-22.4549
-329,-643,4.66895,22.7231,-0.00052348,-0.00750632,0.0012839,-0.000294897,-0.0077349,0.176191,0.00506117,0.0411902,895,1667,4.66897,-22.7232
-322,-643,4.71997,23.0958,-9.0287e-05,-0.00732143,0.000569531,-4.57054e-05,-0.00736601,0.0781189,0.00489551,0.027151,902,1667,4.71997,-23.0959
-315,-643,4.65875,23.4629,-1.27781e-05,-0.00677926,0.000372399,7.65524e-06,-0.00679969,0.0548152,0.00453568,0.017033,909,1667,4.65874,-23.4629
-308,-643,4.62476,23.801,8.4777e-06,-0.00616049,9.55056e-05,9.95607e-06,-0.00616196,0.0154767,0.0041113,0.0123108,916,1667,4.62475,-23.801
-301,-643,4.60126,24.181,0.000190056,-0.00562578,-6.58961e-05,0.000190802,-0.00562653,-0.0113285,0.00381621,0.0129167,923,1667,4.60127,-24.181
-294,-643,4.58948,24.5729,0.000493049,-0.00513224,-0.000175648,0.000498528,-0.00513772,-0.0311841,0.00360284,0.011623,930,1667,4.58947,-24.5729
-287,-643,4.57886,24.9346,0.000758567,-0.0044612,-0.000165562,0.000763813,-0.00446645,-0.0316759,0.00326218,0.00983358,937,1667,4.57887,-24.9346
-280,-643,4.57397,25.2828,0.000990096,-0.00370934,-8.94835e-05,0.000991799,-0.00371105,-0.0190321,0.00286249,0.0130382,944,1667,4.57399,-25.2828
-273,-643,4.55774,25.621,0.00119062,-0.00287309,2.39892e-05,0.00119076,-0.00287323,0.00590301,0.00241244,0.0118031,951,1667,4.55772,-25.621
-266,-643,4.52423,25.9694,0.00143117,-0.00192063,0.000209305,0.00144419,-0.00193365,0.0621237,0.00195701,0.0123298,958,1667,4.52424,-25.9693
-259,-643,4.51984,26.3278,0.00168395,-0.000881099,0.000459876,0.00176391,-0.000961056,0.172145,0.00159586,0.0116522,965,1667,4.51983,-26.3277
-252,-643,4.52588,26.6876,0.00191366,0.000162775,0.000697316,0.00215743,-8.10006e-05,0.336311,0.00146604,0.0123409,972,1667,4.52588,-26.6877
-245,-643,4.53015,27.0214,0.00215304,0.00120415,0.000932919,0.00272523,0.000631964,0.550162,0.00164708,0.0109261,979,1667,4.53012,-27.0214
-238,-643,4.57129,27.3285,0.00249087,0.0020584,0.00111709,0.00341246,0.0011368,0.689797,0.00200643,0.0135247,986,1667,4.57131,-27.3285
-231,-643,4.5495,27.6603,0.00294903,0.00250723,0.00129693,0.00404374,0.00141253,0.701045,0.00236973,0.0104781,993,1667,4.54951,-27.6602
-224,-643,4.53979,27.964,0.00326099,0.00305792,0.00145408,0.00461707,0.00170184,0.750539,0.00269618,0.00939163,1000,1667,4.53978,-27.964
-217,-643,4.53076,28.2526,0.00348809,0.00346565,0.00134408,0.004821,0.00213274,0.781225,0.00278956,0.00844646,1007,1667,4.53076,-28.2526
-210,-643,4.52686,28.5824,0.00369788,0.00380401,0.0010689,0.00482116,0.00268073,0.810201,0.00278932,0.0108017,1014,1667,4.52683,-28.5824
-203,-643,4.5376,28.9601,0.00386987,0.00398724,0.000518449,0.00445032,0.0034068,0.841753,0.00268744,0.0146998,1021,1667,4.53759,-28.9601
-196,-643,4.56067,29.2633,0.00390503,0.00416594,6.76665e-05,0.00418245,0.00388853,1.33155,0.00269567,0.0152832,1028,1667,4.56064,-29.2633
-189,-643,4.67029,29.5151,0.00382692,0.00440041,-0.000574325,0.00475559,0.00347173,-1.01693,0.00284085,0.0159537,1035,1667,4.67028,-29.5151
-182,-643,4.73682,29.7988,0.00377604,0.0049123,-0.00119243,0.00566503,0.00302332,-1.00771,0.00327318,0.0240334,1042,1667,4.73676,-29.7988
-175,-643,4.77808,30.1997,0.00348827,0.00596358,-0.00179087,0.00690285,0.002549,-1.08776,0.00403052,0.0353978,1049,1667,4.77807,-30.1997
-168,-643,4.52039,30.5116,0.00311481,0.00776866,-0.00246122,0.00882879,0.00205467,-1.16408,0.00533454,0.0409145,1056,1667,4.52044,-30.5115
-161,-643,4.42834,30.6768,0.0030404,0.00972065,-0.0029234,0.0108193,0.00194176,-1.21131,0.00666063,0.0445634,1063,1667,4.42835,-30.6768
-154,-643,4.42529,30.769,0.00284399,0.0122431,-0.00329882,0.0132853,0.00180176,-1.26478,0.00832155,0.0449423,1070,1667,4.42528,-30.769
-147,-643,4.46509,30.8793,0,0,0,0,0,0,0,-1,1077,1667,4.46506,-30.8792
-140,-643,4.30322,22.9166,0,0,0,0,0,0,0,-1,1084,1667,4.30327,-22.9167
-133,-643,3.66748,21.6034,0,0,0,0,0,0,0,-1,1091,1667,3.66743,-21.6034
-126,-643,3.13904,17.689,0,0,0,0,0,0,0,-1,1098,1667,3.13909,-17.689
-119,-643,3.76282,14.1458,0,0,0,0,0,0,0,-1,1105,1667,3.76283,-14.1458
-112,-643,3.81458,16.2069,0,0,0,0,0,0,0,-1,1112,1667,3.81463,-16.2069
-105,-643,-2.23413,10.0996,0,0,0,0,0,0,0,-1,1119,1667,-2.23415,-10.0996
-98,-643,3.11035,4.68066,0,0,0,0,0,0,0,-1,1126,1667,3.11041,-4.68071
-91,-643,-1.74146,-2.5885,0,0,0,0,0,0,0,-1,1133,1667,-1.74146,2.58856
-84,-643,-3.07446,-0.199341,0,0,0,0,0,0,0,-1,1140,1667,-3.07449,0.199383
-77,-643,-3.63794,2.81165,0,0,0,0,0,0,0,-1,1147,1667,-3.63791,-2.8117
-70,-643,-3.36938,4.45203,0,0,0,0,0,0,0,-1,1154,1667,-3.36941,-4.452
-63,-643,-3.67822,6.26855,0,0,0,0,0,0,0,-1,1161,1667,-3.67823,-6.26856
-56,-643,-3.95142,8.1073,0,0,0,0,0,0,0,-1,1168,1667,-3.95139,-8.10732
-49,-643,-4.23535,9.90552,0,0,0,0,0,0,0,-1,1175,1667,-4.23537,-9.90557
-42,-643,-4.25195,10.7059,0,0,0,0,0,0,0,-1,1182,1667,-4.25192,-10.706
-35,-643,-4.10986,11.6588,0,0,0,0,0,0,0,-1,1189,1667,-4.10982,-11.6589
-28,-643,-1.38513,5.604,0,0,0,0,0,0,0,-1,1196,1667,-1.3851,-5.60403
-21,-643,1.61011,23.1276,0,0,0,0,0,0,0,-1,1203,1667,1.61011,-23.1275
-14,-643,13.8832,38.4816,0,0,0,0,0,0,0,-1,1210,1667,13.8832,-38.4816
-7,-643,13.7449,38.1957,-0.0626735,0.115805,0.0333053,0.121818,-0.0686859,1.39219,0.111404,0.0476793,1217,1667,13.7448,-38.1956
0,-643,13.5918,37.8815,-0.0688398,0.100416,0.0453817,0.111816,-0.0802399,1.32468,0.111382,0.044876,1224,1667,13.5918,-37.8815
7,-643,13.3248,37.4724,-0.0729841,0.0866692,0.0547303,0.103629,-0.0899444,1.27029,0.111853,0.0437656,1231,1667,13.3248,-37.4725
14,-643,11.8563,34.7626,-0.0749163,0.0749764,0.0622303,0.0974444,-0.0973843,1.22431,0.112484,0.0405038,1238,1667,11.8563,-34.7626
21,-643,11.2046,35.9006,-0.0761414,0.0646835,0.0682615,0.0923402,-0.103798,1.18585,0.113305,0.0432682,1245,1667,11.2046,-35.9006
28,-643,10.5575,37.0703,-0.0746285,0.0558713,0.0708665,0.0869521,-0.105709,1.15748,0.111409,0.0455138,1252,1667,10.5574,-37.0703
35,-643,9.81067,38.0776,-0.0696092,0.0486224,0.0694163,0.080684,-0.101671,1.13811,0.105515,0.0443395,1259,1667,9.81066,-38.0777
42,-643,7.73682,38.7112,0,0,0,0,0,0,0,-1,1266,1667,7.73681,-38.7112
49,-643,3.48633,31.5111,0,0,0,0,0,0,0,-1,1273,1667,3.4863,-31.5111
56,-643,2.99707,31.2041,0,0,0,0,0,0,0,-1,1280,1667,2.99702,-31.2041
63,-643,2.81982,32.2574,-0.0334162,0.0252955,0.0442028,0.0490024,-0.057123,1.07852,0.0613313,0.0433817,1287,1667,2.81978,-32.2574
70,-643,2.60413,33.3715,0,0,0,0,0,0,0,-1,1294,1667,2.60412,-33.3714
77,-643,2.44409,34.0688,-0.0131893,0.0271987,0.0296222,0.0428555,-0.028846,1.08457,0.0416594,0.044761,1301,1667,2.44412,-34.0689
84,-643,2.27625,34.6017,-0.00480113,0.0263584,0.0227476,0.03835,-0.0167928,1.08566,0.0326376,0.0440326,1308,1667,2.27623,-34.6016
91,-643,2.47437,34.7737,0.00477186,0.0242829,0.0157136,0.033023,-0.00396822,1.0632,0.0234502,0.0462642,1315,1667,2.47439,-34.7737
98,-643,2.9126,34.6422,0.0129698,0.0228874,0.011606,0.0305496,0.00530757,0.987291,0.018848,0.0454748,1322,1667,2.91258,-34.6423
105,-643,3.10437,35.8005,0.0178226,0.0261533,0.00880734,0.0317306,0.0122453,1.00628,0.0184779,0.0456895,1329,1667,3.10434,-35.8005
112,-643,2.70813,36.5771,0.0218239,0.027446,0.00696997,0.0321504,0.0171195,0.977077,0.0185751,0.0466973,1336,1667,2.70813,-36.5771
119,-643,2.03235,37.2445,0,0,0,0,0,0,0,-1,1343,1667,2.03239,-37.2445
126,-643,6.98535,32.7677,0.0284761,0.0255408,0.00912046,0.0362463,0.0177707,0.705622,0.0209281,0.0453528,1350,1667,6.9854,-32.7677
133,-643,6.87512,33.1442,0.0313385,0.020373,0.0129279,0.0398982,0.0118133,0.584842,0.0236652,0.0449964,1357,1667,6.87512,-33.1442
140,-643,6.9613,33.1248,0.033412,0.0110459,0.0187588,0.0440682,0.000389704,0.516606,0.0292497,0.0429329,1364,1667,6.96134,-33.1247
147,-643,7.22021,33.8246,0.0347429,-0.00716069,0.02593,0.0471279,-0.0195457,0.445594,0.0395768,0.0424679,1371,1667,7.22019,-33.8245
154,-643,7.25732,34.7566,0,0,0,0,0,0,0,-1,1378,1667,7.2573,-34.7566
161,-643,5.57935,26.2754,0,0,0,0,0,0,0,-1,1385,1667,5.57931,-26.2754
168,-643,10.5563,10.9818,0,0,0,0,0,0,0,-1,1392,1667,10.5562,-10.9819
175,-643,5.88525,-1.1698,0,0,0,0,0,0,0,-1,1399,1667,5.88526,1.16977
182,-643,5.80945,-0.418701,0,0,0,0,0,0,0,-1,1406,1667,5.80949,0.418712
189,-643,5.42297,12.9208,0,0,0,0,0,0,0,-1,1413,1667,5.42298,-12.9208
196,-643,5.51953,11.2415,0,0,0,0,0,0,0,-1,1420,1667,5.51948,-11.2414
203,-643,5.60828,9.82153,0,0,0,0,0,0,0,-1,1427,1667,5.60833,-9.82148
210,-643,4.73218,7.58728,0,0,0,0,0,0,0,-1,1434,1667,4.73222,-7.58728
217,-643,3.8031,5.28955,0,0,0,0,0,0,0,-1,1441,1667,3.80305,-5.28955
224,-643,2.96436,2.97095,0,0,0,0,0,0,0,-1,1448,1667,2.96432,-2.97095
231,-643,2.13403,1.08472,0,0,0,0,0,0,0,-1,1455,1667,2.13403,-1.08467
238,-643,1.18152,-0.261963,0,0,0,0,0,0,0,-1,1462,1667,1.18152,0.26192
245,-643,-0.157471,-1.79016,0,0,0,0,0,0,0,-1,1469,1667,-0.157517,1.7901
252,-643,8.08789,0.0202637,0,0,0,0,0,0,0,-1,1476,1667,8.08791,-0.0203056
259,-643,9.02979,-0.46936,0,0,0,0,0,0,0,-1,1483,1667,9.02974,0.46933
266,-643,4.55066,5.17554,0,0,0,0,0,0,0,-1,1490,1667,4.55063,-5.17556
273,-643,10.74,31.432,0,0,0,0,0,0,0,-1,1497,1667,10.7399,-31.4319
280,-643,9.49475,31.1777,0,0,0,0,0,0,0,-1,1504,1667,9.49481,-31.1777
287,-643,9.47559,31.0104,0,0,0,0,0,0,0,-1,1511,1667,9.47554,-31.0104
294,-643,9.46802,30.9288,0,0,0,0,0,0,0,-1,1518,1667,9.46797,-30.9289
301,-643,9.90479,30.6989,0,0,0,0,0,0,0,-1,1525,1667,9.90485,-30.6989
308,-643,9.83179,30.537,0.00803877,0.00442256,-0.00229931,0.00915574,0.00330558,-0.452212,0.00535369,0.0474823,1532,1667,9.83174,-30.537
315,-643,9.92517,30.1554,0.00659811,0.00463291,-0.00178411,0.00765231,0.00357871,-0.533688,0.00442114,0.0427661,1539,1667,9.9252,-30.1554
322,-643,10.0815,29.7415,0.00537857,0.00443564,-0.00124078,0.00623444,0.00357977,-0.603835,0.00361264,0.0289894,1546,1667,10.0815,-29.7414
329,-643,10.0972,29.4867,0.00450777,0.00494161,-0.00111476,0.00586036,0.00358902,-0.881491,0.00341187,0.017882,1553,1667,10.0972,-29.4867
336,-643,10.031,29.2941,0.00368255,0.00514586,-0.00109091,0.00572775,0.00310066,-1.08079,0.00331068,0.0130183,1560,1667,10.031,-29.294
343,-643,10.0466,29.0511,0.00312222,0.00519766,-0.00107407,0.00565342,0.00266646,-1.16949,0.00326575,0.0136004,1567,1667,10.0466,-29.0511
350,-643,10.095,28.7133,0.00262299,0.00504775,-0.00101205,0.00541464,0.00225609,-1.22301,0.00314058,0.0131604,1574,1667,10.095,-28.7133
357,-643,10.1064,28.4172,0.00227158,0.00479766,-0.00104593,0.00517451,0.00189474,-1.22497,0.00302297,0.0112814,1581,1667,10.1064,-28.4172
364,-643,10.1074,28.1178,0.00191014,0.0041141,-0.000903062,0.00443686,0.00158739,-1.22754,0.00259594,0.00967711,1588,1667,10.1075,-28.1178
371,-643,10.1129,27.8416,0.00155673,0.00331521,-0.000756801,0.00359606,0.00127588,-1.21545,0.00210517,0.00791399,1595,1667,10.113,-27.8415
378,-643,10.1229,27.5515,0.00127113,0.00237984,-0.00060747,0.00264788,0.00100309,-1.15526,0.00154365,0.00986327,1602,1667,10.1229,-27.5515
385,-643,10.1357,27.2238,0.00107587,0.00111938,-0.000437279,0.00153545,0.00065981,-0.810252,0.000889406,0.015854,1609,1667,10.1358,-27.2238
392,-643,10.1229,26.9004,0.000842325,-0.000325402,-0.000168693,0.000866207,-0.000349283,-0.140633,0.000722608,0.0160341,1616,1667,10.123,-26.9004
399,-643,10.0956,26.5996,0.000430752,-0.0018836,0.000103779,0.000435397,-0.00188824,0.044722,0.00142629,0.0133817,1623,1667,10.0956,-26.5996
406,-643,10.095,26.2448,-0.00019242,-0.00331167,0.000496356,-0.000115341,-0.00338875,0.154059,0.00222171,0.0124584,1630,1667,10.0949,-26.2448
413,-643,10.1283,25.9053,-0.000706266,-0.00452872,0.000780563,-0.000553015,-0.00468197,0.193867,0.00295428,0.0195346,1637,1667,10.1283,-25.9053
420,-643,10.0897,25.5933,-0.00144178,-0.00580772,0.000924843,-0.00125395,-0.00599555,0.200369,0.00365154,0.0197974,1644,1667,10.0897,-25.5933
427,-643,10.0581,25.2626,-0.00210928,-0.00654566,0.00119182,-0.00180937,-0.00684556,0.246517,0.00409604,0.0154477,1651,1667,10.0582,-25.2626
434,-643,10.0559,24.9382,-0.00284589,-0.00727079,0.00135751,-0.00246262,-0.00765406,0.275171,0.00451172,0.0158619,1658,1667,10.0558,-24.9383
441,-643,10.0649,24.6034,-0.00361127,-0.00786229,0.00138793,-0.00319825,-0.00827531,0.289236,0.00481862,0.0166882,1665,1667,10.0649,-24.6034
448,-643,10.0009,24.2531,-0.00453835,-0.00819272,0.00148052,-0.00401382,-0.00871725,0.340487,0.00503815,0.0226917,1672,1667,10.0009,-24.2531
455,-643,9.9314,23.811,-0.00548833,-0.00818345,0.00165612,-0.00470079,-0.00897099,0.443882,0.00518139,0.0296594,1679,1667,9.93143,-23.811
462,-643,9.98792,23.5082,-0.00627444,-0.00833602,0.0020095,-0.00504678,-0.00956369,0.548418,0.00552442,0.0417258,1686,1667,9.98791,-23.5082
469,-643,9.98364,23.3628,-0.00688462,-0.00842255,0.00232024,-0.00520924,-0.0100979,0.625385,0.00583102,0.0492083,1693,1667,9.98359,-23.3628
476,-643,9.58118,22.6656,-0.00726253,-0.00876078,0.00290058,-0.0050159,-0.0110074,0.659026,0.00636345,0.0462114,1700,1667,9.58124,-22.6657
483,-643,10.0189,22.4143,0,0,0,0,0,0,0,-1,1707,1667,10.019,-22.4143
490,-643,10.6475,22.152,0,0,0,0,0,0,0,-1,1714,1667,10.6475,-22.1519
497,-643,11.2279,21.8638,0,0,0,0,0,0,0,-1,1721,1667,11.2279,-21.8637
504,-643,8.05591,19.0656,0,0,0,0,0,0,0,-1,1728,1667,8.0559,-19.0655
511,-643,7.74719,18.1564,0,0,0,0,0,0,0,-1,1735,1667,7.74724,-18.1563
518,-643,7.40564,0.922607,0,0,0,0,0,0,0,-1,1742,1667,7.4057,-0.922598
525,-643,0,0,0,0,0,0,0,0,0,-1,1749,1667,0,0
532,-643,0,0,0,0,0,0,0,0,0,-1,1756,1667,0,0
539,-643,0,0,0,0,0,0,0,0,0,-1,1763,1667,0,0
546,-643,0,0,0,0,0,0,0,0,0,-1,1770,1667,0,0
553,-643,0,0,0,0,0,0,0,0,0,-1,1777,1667,0,0
560,-643,0,0,0,0,0,0,0,0,0,-1,1784,1667,0,0
567,-643,0,0,0,0,0,0,0,0,0,-1,1791,1667,0,0
574,-643,0,0,0,0,0,0,0,0,0,-1,1798,1667,0,0
581,-643,0,0,0,0,0,0,0,0,0,-1,1805,1667,0,0
588,-643,0,0,0,0,0,0,0,0,0,-1,1812,1667,0,0
595,-643,0,0,0,0,0,0,0,0,0,-1,1819,1667,0,0
602,-643,0,0,0,0,0,0,0,0,0,-1,1826,1667,0,0
609,-643,0,0,0,0,0,0,0,0,0,-1,1833,1667,0,0
616,-643,0,0,0,0,0,0,0,0,0,-1,1840,1667,0,0
623,-643,0,0,0,0,0,0,0,0,0,-1,1847,1667,0,0
630,-643,0,0,0,0,0,0,0,0,0,-1,1854,1667,0,0
637,-643,0,0,0,0,0,0,0,0,0,-1,1861,1667,0,0
644,-643,0,0,0,0,0,0,0,0,0,-1,1868,1667,0,0
651,-643,0,0,0,0,0,0,0,0,0,-1,1875,1667,0,0
658,-643,0,0,0,0,0,0,0,0,0,-1,1882,1667,0,0
665,-643,0,0,0,0,0,0,0,0,0,-1,1889,1667,0,0
672,-643,0,0,0,0,0,0,0,0,0,-1,1896,1667,0,0
679,-643,0,0,0,0,0,0,0,0,0,-1,1903,1667,0,0
686,-643,0,0,0,0,0,0,0,0,0,-1,1910,1667,0,0
693,-643,0,0,0,0,0,0,0,0,0,-1,1917,1667,0,0
700,-643,0,0,0,0,0,0,0,0,0,-1,1924,1667,0,0
707,-643,0,0,0,0,0,0,0,0,0,-1,1931,1667,0,0
714,-643,0,0,0,0,0,0,0,0,0,-1,1938,1667,0,0
721,-643,0,0,0,0,0,0,0,0,0,-1,1945,1667,0,0
728,-643,0,0,0,0,0,0,0,0,0,-1,1952,1667,0,0
735,-643,0,0,0,0,0,0,0,0,0,-1,1959,1667,0,0
742,-643,0,0,0,0,0,0,0,0,0,-1,1966,1667,0,0
749,-643,0,0,0,0,0,0,0,0,0,-1,1973,1667,0,0
756,-643,0,0,0,0,0,0,0,0,0,-1,1980,1667,0,0
763,-643,0,0,0,0,0,0,0,0,0,-1,1987,1667,0,0
770,-643,0,0,0,0,0,0,0,0,0,-1,1994,1667,0,0
777,-643,0,0,0,0,0,0,0,0,0,-1,2001,1667,0,0
784,-643,0,0,0,0,0,0,0,0,0,-1,2008,1667,0,0
791,-643,0,0,0,0,0,0,0,0,0,-1,2015,1667,0,0
798,-643,0,0,0,0,0,0,0,0,0,-1,2022,1667,0,0
805,-643,0,0,0,0,0,0,0,0,0,-1,2029,1667,0,0
812,-643,0,0,0,0,0,0,0,0,0,-1,2036,1667,0,0
-700,-650,0,0,0,0,0,0,0,0,0,-1,524,1674,0,0
-693,-650,0,0,0,0,0,0,0,0,0,-1,531,1674,0,0
-686,-650,0,0,0,0,0,0,0,0,0,-1,538,1674,0,0
-679,-650,0,0,0,0,0,0,0,0,0,-1,545,1674,0,0
-672,-650,0,0,0,0,0,0,0,0,0,-1,552,1674,0,0
-665,-650,0,0,0,0,0,0,0,0,0,-1,559,1674,0,0
-658,-650,0,0,0,0,0,0,0,0,0,-1,566,1674,0,0
-651,-650,0,0,0,0,0,0,0,0,0,-1,573,1674,0,0
-644,-650,0,0,0,0,0,0,0,0,0,-1,580,1674,0,0
-637,-650,0,0,0,0,0,0,0,0,0,-1,587,1674,0,0
-630,-650,0,0,0,0,0,0,0,0,0,-1,594,1674,0,0
-623,-650,0,0,0,0,0,0,0,0,0,-1,601,1674,0,0
-616,-650,0,0,0,0,0,0,0,0,0,-1,608,1674,0,0
-609,-650,0,0,0,0,0,0,0,0,0,-1,615,1674,0,0
-602,-650,0,0,0,0,0,0,0,0,0,-1,622,1674,0,0
-595,-650,0,0,0,0,0,0,0,0,0,-1,629,1674,0,0
-588,-650,0,0,0,0,0,0,0,0,0,-1,636,1674,0,0
-581,-650,0,0,0,0,0,0,0,0,0,-1,643,1674,0,0
-574,-650,0,0,0,0,0,0,0,0,0,-1,650,1674,0,0
-567,-650,0,0,0,0,0,0,0,0,0,-1,657,1674,0,0
-560,-650,0,0,0,0,0,0,0,0,0,-1,664,1674,0,0
-553,-650,0,0,0,0,0,0,0,0,0,-1,671,1674,0,0
-546,-650,0,0,0,0,0,0,0,0,0,-1,678,1674,0,0
-539,-650,0,0,0,0,0,0,0,0,0,-1,685,1674,0,0
-532,-650,0,0,0,0,0,0,0,0,0,-1,692,1674,0,0
-525,-650,0,0,0,0,0,0,0,0,0,-1,699,1674,0,0
-518,-650,0,0,0,0,0,0,0,0,0,-1,706,1674,0,0
-511,-650,0,0,0,0,0,0,0,0,0,-1,713,1674,0,0
-504,-650,0,0,0,0,0,0,0,0,0,-1,720,1674,0,0
-497,-650,0,0,0,0,0,0,0,0,0,-1,727,1674,0,0
-490,-650,0,0,0,0,0,0,0,0,0,-1,734,1674,0,0
-483,-650,0,0,0,0,0,0,0,0,0,-1,741,1674,0,0
-476,-650,0,0,0,0,0,0,0,0,0,-1,748,1674,0,0
-469,-650,0,0,0,0,0,0,0,0,0,-1,755,1674,0,0
-462,-650,0,0,0,0,0,0,0,0,0,-1,762,1674,0,0
-455,-650,0,0,0,0,0,0,0,0,0,-1,769,1674,0,0
-448,-650,0,0,0,0,0,0,0,0,0,-1,776,1674,0,0
-441,-650,0,0,0,0,0,0,0,0,0,-1,783,1674,0,0
-434,-650,0,0,0,0,0,0,0,0,0,-1,790,1674,0,0
-427,-650,0,0,0,0,0,0,0,0,0,-1,797,1674,0,0
-420,-650,0,0,0,0,0,0,0,0,0,-1,804,1674,0,0
-413,-650,0,0,0,0,0,0,0,0,0,-1,811,1674,0,0
-406,-650,0,0,0,0,0,0,0,0,0,-1,818,1674,0,0
-399,-650,0,0,0,0,0,0,0,0,0,-1,825,1674,0,0
-392,-650,5.44415,6.85669,0,0,0,0,0,0,0,-1,832,1674,5.44414,-6.85674
-385,-650,1.74451,14.0183,0,0,0,0,0,0,0,-1,839,1674,1.74453,-14.0183
-378,-650,0.997986,4.11108,0,0,0,0,0,0,0,-1,846,1674,0.998006,-4.11113
-371,-650,-1.80096,3.78625,0,0,0,0,0,0,0,-1,853,1674,-1.80094,-3.78625
-364,-650,-2.95679,2.57507,0,0,0,0,0,0,0,-1,860,1674,-2.95681,-2.57506
-357,-650,1.97833,10.8362,0,0,0,0,0,0,0,-1,867,1674,1.97835,-10.8362
-350,-650,-5.30243,0.159912,0,0,0,0,0,0,0,-1,874,1674,-5.30244,-0.159866
-343,-650,-6.21338,-1.4425,0,0,0,0,0,0,0,-1,881,1674,-6.21341,1.44248
-336,-650,5.54797,19.9131,0,0,0,0,0,0,0,-1,888,1674,5.54798,-19.9131
-329,-650,5.2041,22.691,0,0,0,0,0,0,0,-1,895,1674,5.20411,-22.6911
-322,-650,5.07874,23.1434,0.000650277,-0.0102186,0.000488701,0.000672207,-0.0102405,0.0448427,0.00706175,0.0454501,902,1674,5.07875,-23.1434
-315,-650,4.95123,23.5111,0.000752594,-0.00967835,0.000163761,0.000755165,-0.00968092,0.0156944,0.00671983,0.0388361,909,1674,4.95122,-23.5112
-308,-650,4.98627,23.777,0.000697421,-0.00902877,-0.000238405,0.000703261,-0.00903462,-0.024492,0.00627066,0.0235188,916,1674,4.98624,-23.777
-301,-650,4.97571,24.1982,0.000788921,-0.00848936,-0.000523572,0.000818373,-0.00851881,-0.056192,0.00597072,0.0135748,923,1674,4.97568,-24.1983
-294,-650,4.94934,24.5764,0.00100646,-0.00798913,-0.000745916,0.00106789,-0.00805056,-0.0821723,0.00575612,0.0106535,930,1674,4.94932,-24.5764
-287,-650,4.93182,24.9362,0.00118449,-0.00725893,-0.000811037,0.00126169,-0.00733612,-0.0948993,0.00536103,0.0132747,937,1674,4.93182,-24.9362
-280,-650,4.91522,25.2755,0.0013008,-0.0064526,-0.000798902,0.00138226,-0.00653407,-0.101616,0.00488246,0.0144457,944,1674,4.9152,-25.2756
-273,-650,4.90454,25.6295,0.00136621,-0.00546442,-0.000729154,0.00144318,-0.00554139,-0.105169,0.00425765,0.0135763,951,1674,4.90452,-25.6296
-266,-650,4.83801,25.9771,0.00149038,-0.00435579,-0.000554041,0.00154242,-0.00440783,-0.0936589,0.00356569,0.0120059,958,1674,4.83802,-25.977
-259,-650,4.8504,26.3291,0.00159483,-0.00316496,-0.000297938,0.00161341,-0.00318354,-0.0622707,0.00281854,0.0145741,965,1674,4.85037,-26.3291
-252,-650,4.86493,26.6664,0.00166992,-0.00198968,-5.21824e-05,0.00167067,-0.00199042,-0.0142552,0.00211642,0.0123702,972,1674,4.86492,-26.6664
-245,-650,4.87769,26.9851,0.00176311,-0.000780754,0.000211372,0.00178056,-0.000798197,0.0823383,0.00152443,0.0114355,979,1674,4.87767,-26.9851
-238,-650,4.8772,27.34,0.00194036,0.00025985,0.000452053,0.00205424,0.000145966,0.24679,0.00132352,0.0128982,986,1674,4.87719,-27.34
-231,-650,4.84137,27.6866,0.00223803,0.000902557,0.000659011,0.00250847,0.000632121,0.389411,0.00150648,0.0178684,993,1674,4.84136,-27.6867
-224,-650,4.8454,27.99,0.00241091,0.00167325,0.000890892,0.0030063,0.00107786,0.589138,0.00175869,0.0146932,1000,1674,4.84541,-27.99
-217,-650,4.84235,28.2662,0.00253866,0.0022725,0.000937669,0.00335264,0.00145851,0.714904,0.00194109,0.00955166,1007,1674,4.84235,-28.2662
-210,-650,4.84015,28.5636,0.00272209,0.00268619,0.000742174,0.00344653,0.00196175,0.773307,0.0019962,0.00890477,1014,1674,4.84014,-28.5636
-203,-650,4.87683,28.8774,0.00287417,0.00294509,0.00033788,0.00324936,0.00256989,0.83768,0.00197902,0.0131213,1021,1674,4.87689,-28.8775
-196,-650,4.90564,29.1721,0.00292158,0.0032049,3.05923e-05,0.00320816,0.00291832,1.46445,0.00204901,0.0133712,1028,1674,4.90565,-29.1721
-189,-650,4.90576,29.4659,0.00288409,0.00358797,-0.000389231,0.00376078,0.00271128,-1.15296,0.00224083,0.0113358,1035,1674,4.90571,-29.4659
-182,-650,4.94604,29.7843,0.00289057,0.0041121,-0.000829863,0.00453173,0.00247095,-1.10263,0.00261996,0.0104382,1042,1674,4.94601,-29.7843
-175,-650,4.9635,30.0408,0.00282826,0.00505374,-0.00122783,0.00559803,0.00228396,-1.15353,0.00325021,0.0157376,1049,1674,4.96351,-30.0407
-168,-650,4.89941,30.3362,0.00271638,0.00657634,-0.00166314,0.00719407,0.00209864,-1.21516,0.00427194,0.0203601,1056,1674,4.89942,-30.3361
-161,-650,4.8479,30.6204,0.00282569,0.00826319,-0.00186958,0.00884398,0.0022449,-1.2696,0.00530834,0.0280623,1063,1674,4.84785,-30.6204
-154,-650,4.92065,30.8069,0.00286258,0.0104485,-0.00199065,0.0109392,0.00237194,-1.32914,0.00664477,0.0305562,1070,1674,4.92069,-30.8069
-147,-650,5.02625,31.1018,0,0,0,0,0,0,0,-1,1077,1674,5.0262,-31.1018
-140,-650,4.9054,31.8766,0,0,0,0,0,0,0,-1,1084,1674,4.90539,-31.8766
-133,-650,4.16492,30.6198,0,0,0,0,0,0,0,-1,1091,1674,4.16494,-30.6198
-126,-650,5.25488,26.2078,0,0,0,0,0,0,0,-1,1098,1674,5.25489,-26.2078
-119,-650,5.16663,20.6232,0,0,0,0,0,0,0,-1,1105,1674,5.16665,-20.6232
-112,-650,3.86292,14.4513,0,0,0,0,0,0,0,-1,1112,1674,3.8629,-14.4513
-105,-650,4.9259,12.0626,0,0,0,0,0,0,0,-1,1119,1674,4.92591,-12.0626
-98,-650,3.3761,6.78003,0,0,0,0,0,0,0,-1,1126,1674,3.37611,-6.78009
-91,-650,3.66809,7.04443,0,0,0,0,0,0,0,-1,1133,1674,3.66806,-7.04439
-84,-650,-3.82666,-1.59521,0,0,0,0,0,0,0,-1,1140,1674,-3.82661,1.59517
-77,-650,-4.70557,1.90198,0,0,0,0,0,0,0,-1,1147,1674,-4.7056,-1.90194
-70,-650,-4.88171,3.81653,0,0,0,0,0,0,0,-1,1154,1674,-4.88176,-3.81651
-63,-650,-5.14612,5.56543,0,0,0,0,0,0,0,-1,1161,1674,-5.14612,-5.56547
-56,-650,-5.38367,7.41101,0,0,0,0,0,0,0,-1,1168,1674,-5.38361,-7.41102
-49,-650,-5.11316,8.23706,0,0,0,0,0,0,0,-1,1175,1674,-5.11317,-8.23708
-42,-650,-4.99487,9.6792,0,0,0,0,0,0,0,-1,1182,1674,-4.99484,-9.67921
-35,-650,-4.77771,11.3369,0,0,0,0,0,0,0,-1,1189,1674,-4.77769,-11.3369
-28,-650,-4.1936,13.1501,0,0,0,0,0,0,0,-1,1196,1674,-4.19358,-13.1501
-21,-650,14.001,37.6479,0,0,0,0,0,0,0,-1,1203,1674,14.0009,-37.6479
-14,-650,13.5011,37.6248,-0.0551758,0.117763,0.023319,0.120852,-0.0582649,1.43909,0.105497,0.0478384,1210,1674,13.5011,-37.6248
-7,-650,13.0851,37.5062,-0.0588674,0.105212,0.0336037,0.111827,-0.0654828,1.37642,0.103529,0.0474643,1217,1674,13.0851,-37.5063
0,-650,12.1316,37.5364,0,0,0,0,0,0,0,-1,1224,1674,12.1316,-37.5364
7,-650,11.5509,37.877,0,0,0,0,0,0,0,-1,1231,1674,11.5509,-37.877
14,-650,11.2004,34.7898,-0.0687214,0.0747018,0.0564786,0.0942721,-0.0882917,1.23724,0.105422,0.0398009,1238,1674,11.2005,-34.7898
21,-650,10.7017,35.6497,-0.0697254,0.0668581,0.061076,0.0901854,-0.0930526,1.20596,0.105797,0.0440436,1245,1674,10.7016,-35.6497
28,-650,10.1379,36.5413,-0.0683388,0.0597859,0.0628194,0.0854469,-0.0939997,1.183,0.103643,0.0445703,1252,1674,10.1379,-36.5412
35,-650,9.4502,37.5895,-0.0638442,0.0536245,0.0610409,0.0795998,-0.0898194,1.16847,0.0978735,0.0447159,1259,1674,9.45016,-37.5895
42,-650,7.79675,38.3804,-0.0556867,0.0466479,0.0545739,0.0702897,-0.0793286,1.16199,0.0864347,0.047541,1266,1674,7.79679,-38.3803
49,-650,6.04614,39.3315,0,0,0,0,0,0,0,-1,1273,1674,6.04613,-39.3316
56,-650,3.04224,31.0635,0,0,0,0,0,0,0,-1,1280,1674,3.04229,-31.0635
63,-650,2.88074,32.1234,0,0,0,0,0,0,0,-1,1287,1674,2.88077,-32.1234
70,-650,2.81555,33.2292,0,0,0,0,0,0,0,-1,1294,1674,2.81558,-33.2293
77,-650,2.51501,34.0391,0,0,0,0,0,0,0,-1,1301,1674,2.51507,-34.0391
84,-650,2.77393,34.2693,-0.00223173,0.0290913,0.012649,0.0335613,-0.00670178,1.2311,0.0249105,0.0480211,1308,1674,2.77394,-34.2692
91,-650,3.04724,34.4958,0.00691515,0.0263882,0.00565507,0.0279113,0.00539202,1.3077,0.017096,0.048294,1315,1674,3.0472,-34.4958
98,-650,3.28418,34.2612,0.0148834,0.0244253,0.00120119,0.0245742,0.0147345,1.44747,0.0142814,0.0436442,1322,1674,3.28414,-34.2613
105,-650,3.68787,35.5765,0.0197952,0.0270746,-0.00206329,0.0276187,0.0192511,-1.31294,0.0163532,0.0421401,1329,1674,3.68782,-35.5765
112,-650,3.3634,36.4362,0.0239392,0.0286486,-0.00399489,0.0309311,0.0216567,-1.0517,0.0183288,0.0418847,1336,1674,3.36344,-36.4362
119,-650,2.38245,36.7939,0,0,0,0,0,0,0,-1,1343,1674,2.38241,-36.794
126,-650,2.02246,36.9979,0,0,0,0,0,0,0,-1,1350,1674,2.02243,-36.9979
133,-650,7.00269,32.7731,0.0321599,0.0233087,0.00431635,0.0339163,0.0215523,0.386449,0.0198197,0.0474874,1357,1674,7.00263,-32.7731
140,-650,7.04517,33.0037,0.0324181,0.0151743,0.0117884,0.0384011,0.00919129,0.469656,0.0231533,0.0446997,1364,1674,7.04514,-33.0036
147,-650,7.08911,33.4913,0,0,0,0,0,0,0,-1,1371,1674,7.08911,-33.4914
154,-650,8.03918,37.9056,0,0,0,0,0,0,0,-1,1378,1674,8.03922,-37.9056
161,-650,4.09106,30.3021,0,0,0,0,0,0,0,-1,1385,1674,4.09104,-30.3021
168,-650,11.2113,7.87231,0,0,0,0,0,0,0,-1,1392,1674,11.2113,-7.87236
175,-650,5.62537,-0.230713,0,0,0,0,0,0,0,-1,1399,1674,5.62538,0.230745
182,-650,5.56006,0.421631,0,0,0,0,0,0,0,-1,1406,1674,5.56,-0.421652
189,-650,4.81543,11.0654,0,0,0,0,0,0,0,-1,1413,1674,4.81542,-11.0654
196,-650,5.39575,11.9077,0,0,0,0,0,0,0,-1,1420,1674,5.39575,-11.9078
203,-650,3.93628,11.8215,0,0,0,0,0,0,0,-1,1427,1674,3.93624,-11.8216
210,-650,5.40955,8.08594,0,0,0,0,0,0,0,-1,1434,1674,5.40958,-8.086
217,-650,5.12451,4.69739,0,0,0,0,0,0,0,-1,1441,1674,5.12451,-4.69738
224,-650,4.79041,1.45813,0,0,0,0,0,0,0,-1,1448,1674,4.79046,-1.45816
231,-650,4.04102,-0.642212,0,0,0,0,0,0,0,-1,1455,1674,4.04101,0.642209
238,-650,3.23022,-1.43396,0,0,0,0,0,0,0,-1,1462,1674,3.23023,1.43394
245,-650,1.65894,-2.55042,0,0,0,0,0,0,0,-1,1469,1674,1.65889,2.55036
252,-650,8.75342,0.355103,0,0,0,0,0,0,0,-1,1476,1674,8.75337,-0.355147
259,-650,5.61255,3.17566,0,0,0,0,0,0,0,-1,1483,1674,5.61257,-3.17572
266,-650,4.00403,6.10229,0,0,0,0,0,0,0,-1,1490,1674,4.00401,-6.10225
273,-650,9.20288,31.1371,0,0,0,0,0,0,0,-1,1497,1674,9.20292,-31.1371
280,-650,9.24207,31.187,0.0110786,0.00404549,-0.00313576,0.0122737,0.00285045,-0.364108,0.00741717,0.0498375,1504,1674,9.2421,-31.187
287,-650,9.39417,31.1154,0,0,0,0,0,0,0,-1,1511,1674,9.39415,-31.1154
294,-650,9.52808,30.9622,0.00847714,0.00344094,-0.00245103,0.00947306,0.00244502,-0.385951,0.00567862,0.0429601,1518,1674,9.52809,-30.9622
301,-650,9.70386,30.5946,0.00745539,0.00324751,-0.00211066,0.00833163,0.00237127,-0.393497,0.00495681,0.0344819,1525,1674,9.70385,-30.5946
308,-650,9.7583,30.3384,0.00634795,0.00308938,-0.00167746,0.00705714,0.00238019,-0.399983,0.00414574,0.0217326,1532,1674,9.75829,-30.3383
315,-650,9.75476,30.116,0.00523206,0.00331525,-0.00133191,0.00591454,0.00263276,-0.473528,0.00342161,0.0169567,1539,1674,9.7548,-30.116
322,-650,9.75488,29.8661,0.00428205,0.00319859,-0.000955311,0.00483854,0.0026421,-0.52747,0.00279748,0.0139459,1546,1674,9.75482,-29.866
329,-650,9.77808,29.5188,0.00356518,0.00340847,-0.000813134,0.00430373,0.00266992,-0.737366,0.00250865,0.0169155,1553,1674,9.77813,-29.5188
336,-650,9.77014,29.2836,0.0028708,0.00347902,-0.000741187,0.00397606,0.00237376,-0.980076,0.00230994,0.0141614,1560,1674,9.77009,-29.2836
343,-650,9.78345,29.0267,0.00237261,0.00335901,-0.000650495,0.00368214,0.00204948,-1.10976,0.00213042,0.0134601,1567,1674,9.78348,-29.0267
350,-650,9.80432,28.7258,0.0019294,0.00300304,-0.000538482,0.00322658,0.00170587,-1.17732,0.00186389,0.0159798,1574,1674,9.80434,-28.7258
357,-650,9.80554,28.4208,0.00160452,0.00253625,-0.000516203,0.00276572,0.00137505,-1.15249,0.0015968,0.0133085,1581,1674,9.80549,-28.4208
364,-650,9.80652,28.1284,0.00125419,0.00168763,-0.000324056,0.00186076,0.00108106,-1.08013,0.00107899,0.00911622,1588,1674,9.80653,-28.1284
371,-650,9.79626,27.8407,0.000923801,0.000744272,-0.000138259,0.000998879,0.000669194,-0.497474,0.000587702,0.0112728,1595,1674,9.79622,-27.8408
378,-650,9.80042,27.5383,0.000656928,-0.000326191,6.60684e-05,0.000661348,-0.000330611,0.0668026,0.000583222,0.0121138,1602,1674,9.80043,-27.5383
385,-650,9.81665,27.23,0.000465584,-0.00172011,0.000286842,0.000502601,-0.00175713,0.128341,0.00137004,0.0132099,1609,1674,9.81665,-27.2299
392,-650,9.8103,26.9307,0.000234085,-0.00331047,0.000607566,0.000335335,-0.00341172,0.165131,0.0023941,0.0171575,1616,1674,9.81031,-26.9306
399,-650,9.78064,26.6034,-0.0002023,-0.00498924,0.00088346,-4.44567e-05,-0.00514709,0.176799,0.00341667,0.0156779,1623,1674,9.78068,-26.6034
406,-650,9.77466,26.2522,-0.000881265,-0.00650831,0.00130287,-0.000594242,-0.00679533,0.216837,0.00434571,0.0140849,1630,1674,9.77469,-26.2523
413,-650,9.80493,25.9207,-0.00143196,-0.00779826,0.00160355,-0.00105087,-0.00817935,0.233326,0.00513855,0.0156804,1637,1674,9.80493,-25.9206
420,-650,9.76904,25.6237,-0.00229138,-0.00910461,0.00173547,-0.00187479,-0.00952119,0.235586,0.005824,0.016564,1644,1674,9.76908,-25.6237
427,-650,9.74036,25.291,-0.00308609,-0.00989981,0.00204106,-0.00252147,-0.0104644,0.26988,0.00630613,0.0149886,1651,1674,9.74038,-25.291
434,-650,9.73035,24.9889,-0.00400147,-0.0106143,0.00220987,-0.00333097,-0.0112848,0.294585,0.00669505,0.0177334,1658,1674,9.73031,-24.9889
441,-650,9.75916,24.7385,-0.00502744,-0.01126,0.00225271,-0.00429847,-0.011989,0.312961,0.00701357,0.0297391,1665,1674,9.7591,-24.7386
448,-650,9.75024,24.4768,-0.00632509,-0.0115197,0.00233334,-0.00543091,-0.0124139,0.365958,0.00718579,0.0472325,1672,1674,9.75023,-24.4768
455,-650,9.20471,24.0187,-0.00776536,-0.0111829,0.00252218,-0.00642761,-0.0125207,0.487666,0.00722966,0.0470977,1679,1674,9.20473,-24.0187
462,-650,9.48425,23.5582,0,0,0,0,0,0,0,-1,1686,1674,9.48427,-23.5582
469,-650,9.52747,23.5498,0,0,0,0,0,0,0,-1,1693,1674,9.52744,-23.5498
476,-650,8.80078,22.457,0,0,0,0,0,0,0,-1,1700,1674,8.80079,-22.457
483,-650,9.58289,22.5995,0,0,0,0,0,0,0,-1,1707,1674,9.58287,-22.5995
490,-650,10.2742,22.3826,0,0,0,0,0,0,0,-1,1714,1674,10.2742,-22.3826
497,-650,10.4985,20.1362,0,0,0,0,0,0,0,-1,1721,1674,10.4986,-20.1362
504,-650,9.69458,18.7721,0,0,0,0,0,0,0,-1,1728,1674,9.6946,-18.772
511,-650,9.37158,17.7506,0,0,0,0,0,0,0,-1,1735,1674,9.37159,-17.7506
518,-650,0,0,0,0,0,0,0,0,0,-1,1742,1674,0,0
525,-650,0,0,0,0,0,0,0,0,0,-1,1749,1674,0,0
532,-650,0,0,0,0,0,0,0,0,0,-1,1756,1674,0,0
539,-650,0,0,0,0,0,0,0,0,0,-1,1763,1674,0,0
546,-650,0,0,0,0,0,0,0,0,0,-1,1770,1674,0,0
553,-650,0,0,0,0,0,0,0,0,0,-1,1777,1674,0,0
560,-650,0,0,0,0,0,0,0,0,0,-1,1784,1674,0,0
567,-650,0,0,0,0,0,0,0,0,0,-1,1791,1674,0,0
574,-650,0,0,0,0,0,0,0,0,0,-1,1798,1674,0,0
581,-650,0,0,0,0,0,0,0,0,0,-1,1805,1674,0,0
588,-650,0,0,0,0,0,0,0,0,0,-1,1812,1674,0,0
595,-650,0,0,0,0,0,0,0,0,0,-1,1819,1674,0,0
602,-650,0,0,0,0,0,0,0,0,0,-1,1826,1674,0,0
609,-650,0,0,0,0,0,0,0,0,0,-1,1833,1674,0,0
616,-650,0,0,0,0,0,0,0,0,0,-1,1840,1674,0,0
623,-650,0,0,0,0,0,0,0,0,0,-1,1847,1674,0,0
630,-650,0,0,0,0,0,0,0,0,0,-1,1854,1674,0,0
637,-650,0,0,0,0,0,0,0,0,0,-1,1861,1674,0,0
644,-650,0,0,0,0,0,0,0,0,0,-1,1868,1674,0,0
651,-650,0,0,0,0,0,0,0,0,0,-1,1875,1674,0,0
658,-650,0,0,0,0,0,0,0,0,0,-1,1882,1674,0,0
665,-650,0,0,0,0,0,0,0,0,0,-1,1889,1674,0,0
672,-650,0,0,0,0,0,0,0,0,0,-1,1896,1674,0,0
679,-650,0,0,0,0,0,0,0,0,0,-1,1903,1674,0,0
686,-650,0,0,0,0,0,0,0,0,0,-1,1910,1674,0,0
693,-650,0,0,0,0,0,0,0,0,0,-1,1917,1674,0,0
700,-650,0,0,0,0,0,0,0,0,0,-1,1924,1674,0,0
707,-650,0,0,0,0,0,0,0,0,0,-1,1931,1674,0,0
714,-650,0,0,0,0,0,0,0,0,0,-1,1938,1674,0,0
721,-650,0,0,0,0,0,0,0,0,0,-1,1945,1674,0,0
728,-650,0,0,0,0,0,0,0,0,0,-1,1952,1674,0,0
735,-650,0,0,0,0,0,0,0,0,0,-1,1959,1674,0,0
742,-650,0,0,0,0,0,0,0,0,0,-1,1966,1674,0,0
749,-650,0,0,0,0,0,0,0,0,0,-1,1973,1674,0,0
756,-650,0,0,0,0,0,0,0,0,0,-1,1980,1674,0,0
763,-650,0,0,0,0,0,0,0,0,0,-1,1987,1674,0,0
770,-650,0,0,0,0,0,0,0,0,0,-1,1994,1674,0,0
777,-650,0,0,0,0,0,0,0,0,0,-1,2001,1674,0,0
784,-650,0,0,0,0,0,0,0,0,0,-1,2008,1674,0,0
791,-650,0,0,0,0,0,0,0,0,0,-1,2015,1674,0,0
798,-650,0,0,0,0,0,0,0,0,0,-1,2022,1674,0,0
805,-650,0,0,0,0,0,0,0,0,0,-1,2029,1674,0,0
812,-650,0,0,0,0,0,0,0,0,0,-1,2036,1674,0,0
-700,-657,0,0,0,0,0,0,0,0,0,-1,524,1681,0,0
-693,-657,0,0,0,0,0,0,0,0,0,-1,531,1681,0,0
-686,-657,0,0,0,0,0,0,0,0,0,-1,538,1681,0,0
-679,-657,0,0,0,0,0,0,0,0,0,-1,545,1681,0,0
-672,-657,0,0,0,0,0,0,0,0,0,-1,552,1681,0,0
-665,-657,0,0,0,0,0,0,0,0,0,-1,559,1681,0,0
-658,-657,0,0,0,0,0,0,0,0,0,-1,566,1681,0,0
-651,-657,0,0,0,0,0,0,0,0,0,-1,573,1681,0,0
-644,-657,0,0,0,0,0,0,0,0,0,-1,580,1681,0,0
-637,-657,0,0,0,0,0,0,0,0,0,-1,587,1681,0,0
-630,-657,0,0,0,0,0,0,0,0,0,-1,594,1681,0,0
-623,-657,0,0,0,0,0,0,0,0,0,-1,601,1681,0,0
-616,-657,0,0,0,0,0,0,0,0,0,-1,608,1681,0,0
-609,-657,0,0,0,0,0,0,0,0,0,-1,615,1681,0,0
-602,-657,0,0,0,0,0,0,0,0,0,-1,622,1681,0,0
-595,-657,0,0,0,0,0,0,0,0,0,-1,629,1681,0,0
-588,-657,0,0,0,0,0,0,0,0,0,-1,636,1681,0,0
-581,-657,0,0,0,0,0,0,0,0,0,-1,643,1681,0,0
-574,-657,0,0,0,0,0,0,0,0,0,-1,650,1681,0,0
-567,-657,0,0,0,0,0,0,0,0,0,-1,657,1681,0,0
-560,-657,0,0,0,0,0,0,0,0,0,-1,664,1681,0,0
-553,-657,0,0,0,0,0,0,0,0,0,-1,671,1681,0,0
-546,-657,0,0,0,0,0,0,0,0,0,-1,678,1681,0,0
-539,-657,0,0,0,0,0,0,0,0,0,-1,685,1681,0,0
-532,-657,0,0,0,0,0,0,0,0,0,-1,692,1681,0,0
-525,-657,0,0,0,0,0,0,0,0,0,-1,699,1681,0,0
-518,-657,0,0,0,0,0,0,0,0,0,-1,706,1681,0,0
-511,-657,0,0,0,0,0,0,0,0,0,-1,713,1681,0,0
-504,-657,0,0,0,0,0,0,0,0,0,-1,720,1681,0,0
-497,-657,0,0,0,0,0,0,0,0,0,-1,727,1681,0,0
-490,-657,0,0,0,0,0,0,0,0,0,-1,734,1681,0,0
-483,-657,0,0,0,0,0,0,0,0,0,-1,741,1681,0,0
-476,-657,0,0,0,0,0,0,0,0,0,-1,748,1681,0,0
-469,-657,0,0,0,0,0,0,0,0,0,-1,755,1681,0,0
-462,-657,0,0,0,0,0,0,0,0,0,-1,762,1681,0,0
-455,-657,0,0,0,0,0,0,0,0,0,-1,769,1681,0,0
-448,-657,0,0,0,0,0,0,0,0,0,-1,776,1681,0,0
-441,-657,0,0,0,0,0,0,0,0,0,-1,783,1681,0,0
-434,-657,0,0,0,0,0,0,0,0,0,-1,790,1681,0,0
-427,-657,0,0,0,0,0,0,0,0,0,-1,797,1681,0,0
-420,-657,0,0,0,0,0,0,0,0,0,-1,804,1681,0,0
-413,-657,0,0,0,0,0,0,0,0,0,-1,811,1681,0,0
-406,-657,0,0,0,0,0,0,0,0,0,-1,818,1681,0,0
-399,-657,0,0,0,0,0,0,0,0,0,-1,825,1681,0,0
-392,-657,0,0,0,0,0,0,0,0,0,-1,832,1681,0,0
-385,-657,1.09814,6.18896,0,0,0,0,0,0,0,-1,839,1681,1.09814,-6.18894
-378,-657,0.31488,4.46753,0,0,0,0,0,0,0,-1,846,1681,0.31487,-4.46755
-371,-657,-0.519043,2.69421,0,0,0,0,0,0,0,-1,853,1681,-0.519064,-2.69422
-364,-657,-3.42017,4.18323,0,0,0,0,0,0,0,-1,860,1681,-3.42019,-4.18319
-357,-657,-4.41913,2.97168,0,0,0,0,0,0,0,-1,867,1681,-4.41913,-2.97165
-350,-657,-5.42291,1.70276,0,0,0,0,0,0,0,-1,874,1681,-5.42291,-1.70277
-343,-657,-6.51294,0.397339,0,0,0,0,0,0,0,-1,881,1681,-6.51295,-0.397335
-336,-657,4.4566,20.7173,0,0,0,0,0,0,0,-1,888,1681,4.45662,-20.7173
-329,-657,5.44714,22.7966,0,0,0,0,0,0,0,-1,895,1681,5.44713,-22.7966
-322,-657,5.31763,23.2975,0,0,0,0,0,0,0,-1,902,1681,5.31762,-23.2974
-315,-657,5.18811,23.7983,0,0,0,0,0,0,0,-1,909,1681,5.18812,-23.7983
-308,-657,5.3111,23.7645,0.00221514,-0.0131644,-0.000972109,0.00227634,-0.0132256,-0.0628744,0.00966562,0.0388906,916,1681,5.31112,-23.7645
-301,-657,5.28284,24.3228,0.00220517,-0.0125632,-0.00136729,0.00233069,-0.0126887,-0.0915455,0.00933356,0.0326835,923,1681,5.28286,-24.3227
-294,-657,5.27802,24.649,0.00232082,-0.0119259,-0.00164838,0.00250905,-0.0121141,-0.113701,0.00902939,0.0201573,930,1681,5.278,-24.6491
-287,-657,5.25146,24.9717,0.00233581,-0.0110086,-0.00177267,0.00256727,-0.0112401,-0.12984,0.0084797,0.0144986,937,1681,5.25146,-24.9717
-280,-657,5.22626,25.2834,0.00224286,-0.0100086,-0.00178588,0.00249788,-0.0102636,-0.141837,0.00780937,0.0150839,944,1681,5.22624,-25.2835
-273,-657,5.22406,25.6318,0.00207536,-0.00873079,-0.00171098,0.00233979,-0.00899523,-0.153339,0.00691008,0.0105614,951,1681,5.22403,-25.6318
-266,-657,5.16577,25.9818,0.00198708,-0.00733706,-0.00149663,0.00222142,-0.0075714,-0.155316,0.00592846,0.0151291,958,1681,5.16577,-25.9819
-259,-657,5.18756,26.3243,0.00185536,-0.00587694,-0.00118808,0.00203379,-0.00605537,-0.149071,0.00485886,0.0191859,965,1681,5.18758,-26.3243
-252,-657,5.19495,26.6423,0.00169964,-0.00445362,-0.000886501,0.00182481,-0.00457879,-0.140271,0.00380938,0.0123696,972,1681,5.19494,-26.6423
-245,-657,5.19171,26.9761,0.00158425,-0.00299263,-0.000560982,0.00165201,-0.00306038,-0.120199,0.0027609,0.0141481,979,1681,5.19173,-26.976
-238,-657,5.1839,27.3583,0.0015588,-0.00170011,-0.000246133,0.00157729,-0.0017186,-0.0749594,0.00190346,0.01974,986,1681,5.18392,-27.3583
-231,-657,5.17499,27.691,0.00167144,-0.000806808,-2.25393e-06,0.00167144,-0.00080681,-0.000909485,0.00145955,0.022018,993,1681,5.175,-27.691
-224,-657,5.16345,27.9991,0.00167204,0.000258657,0.000309481,0.00173683,0.000193862,0.206386,0.00109898,0.017246,1000,1681,5.16346,-27.9992
-217,-657,5.15063,28.3109,0.0017016,0.00110469,0.000535919,0.00201657,0.000789729,0.531334,0.00117335,0.0102623,1007,1681,5.15063,-28.3109
-210,-657,5.15869,28.6057,0.00187964,0.00160516,0.000407184,0.00217209,0.00131271,0.622852,0.00126313,0.0105746,1014,1681,5.15869,-28.6057
-203,-657,5.19336,28.9077,0.00203106,0.00194802,0.000132122,0.00212804,0.00185105,0.633147,0.00133597,0.0126888,1021,1681,5.19339,-28.9077
-196,-657,5.21326,29.1836,0.00210554,0.00228603,-5.54212e-05,0.00230169,0.00208988,-1.29542,0.00146895,0.0138649,1028,1681,5.21329,-29.1835
-189,-657,5.21838,29.462,0.00211384,0.002764,-0.000299809,0.00288114,0.0019967,-1.19831,0.00170424,0.0103789,1035,1681,5.21835,-29.4621
-182,-657,5.20691,29.7386,0.00216626,0.00327397,-0.000605428,0.00354066,0.00189957,-1.15587,0.00204602,0.00854306,1042,1681,5.2069,-29.7386
-175,-657,5.21838,30.0177,0.00223475,0.00414073,-0.000834339,0.00445436,0.00192113,-1.21124,0.0025798,0.010494,1049,1681,5.21833,-30.0177
-168,-657,5.19165,30.3018,0.0022849,0.00539479,-0.00107882,0.00573238,0.0019473,-1.26752,0.00336581,0.0126554,1056,1681,5.19162,-30.3017
-161,-657,5.20032,30.5614,0.00250813,0.00679844,-0.00113195,0.00707878,0.00222779,-1.32802,0.00417943,0.0127857,1063,1681,5.20026,-30.5614
-154,-657,5.27026,30.7964,0.00269367,0.00862638,-0.00111777,0.00882999,0.00249006,-1.39062,0.00525704,0.0128402,1070,1681,5.2703,-30.7963
-147,-657,5.2771,31.0759,0.00287691,0.0107322,-0.00107904,0.0108778,0.00273138,-1.43674,0.00653451,0.0212453,1077,1681,5.27707,-31.0759
-140,-657,5.24158,31.5559,0.00317907,0.0131566,-0.000807587,0.0132216,0.00311412,-1.49055,0.00798149,0.0388204,1084,1681,5.24162,-31.5559
-133,-657,5.203,32.0991,0,0,0,0,0,0,0,-1,1091,1681,5.20298,-32.0991
-126,-657,5.29028,32.6863,0,0,0,0,0,0,0,-1,1098,1681,5.29026,-32.6863
-119,-657,5.31067,32.8914,0,0,0,0,0,0,0,-1,1105,1681,5.31073,-32.8914
-112,-657,4.6051,21.3439,0,0,0,0,0,0,0,-1,1112,1681,4.60512,-21.3438
-105,-657,3.82434,14.4906,0,0,0,0,0,0,0,-1,1119,1681,3.8244,-14.4906
-98,-657,3.78662,8.16785,0,0,0,0,0,0,0,-1,1126,1681,3.78663,-8.16786
-91,-657,3.6521,16.6017,0,0,0,0,0,0,0,-1,1133,1681,3.65215,-16.6017
-84,-657,4.08008,10.4579,0,0,0,0,0,0,0,-1,1140,1681,4.08006,-10.4579
-77,-657,-5.29846,0.396606,0,0,0,0,0,0,0,-1,1147,1681,-5.29842,-0.396573
-70,-657,-4.14893,2.14575,0,0,0,0,0,0,0,-1,1154,1681,-4.14893,-2.1458
-63,-657,-4.1239,3.177,0,0,0,0,0,0,0,-1,1161,1681,-4.12391,-3.17698
-56,-657,-6.40576,5.73987,0,0,0,0,0,0,0,-1,1168,1681,-6.40577,-5.7399
-49,-657,-5.98462,7.54053,0,0,0,0,0,0,0,-1,1175,1681,-5.98466,-7.5405
-42,-657,-5.71948,9.28955,0,0,0,0,0,0,0,-1,1182,1681,-5.71951,-9.2895
-35,-657,-5.44556,11.015,0,0,0,0,0,0,0,-1,1189,1681,-5.44555,-11.015
-28,-657,-1.3446,8.92847,0,0,0,0,0,0,0,-1,1196,1681,-1.34459,-8.92848
-21,-657,13.9696,36.5872,0,0,0,0,0,0,0,-1,1203,1681,13.9696,-36.5872
-14,-657,13.3602,36.6177,-0.0502303,0.101258,0.0253129,0.105375,-0.0543481,1.40954,0.0937718,0.0448269,1210,1681,13.3602,-36.6177
-7,-657,12.7816,36.6035,-0.0528208,0.0927288,0.0328291,0.0997908,-0.0598828,1.35891,0.0931425,0.0473375,1217,1681,12.7816,-36.6035
0,-657,11.9087,36.7201,-0.0561409,0.0846258,0.0399072,0.0951522,-0.0666674,1.3129,0.0939079,0.0472991,1224,1681,11.9087,-36.7201
7,-657,11.3281,36.9858,-0.0587544,0.0773013,0.0457089,0.0912313,-0.0726844,1.27498,0.0948385,0.0469249,1231,1681,11.3282,-36.9859
14,-657,10.6772,37.1357,-0.0601272,0.0708603,0.050307,0.0879512,-0.0772182,1.2433,0.0954277,0.0445078,1238,1681,10.6772,-37.1357
21,-657,10.0527,37.1387,-0.0609373,0.065405,0.0536225,0.085095,-0.0806273,1.21888,0.0956914,0.043039,1245,1681,10.0527,-37.1387
28,-657,9.76257,36.8086,-0.059832,0.0601794,0.0546606,0.081343,-0.0809956,1.20139,0.0937263,0.0426699,1252,1681,9.76259,-36.8086
35,-657,8.92126,37.1475,-0.0561857,0.055261,0.0528032,0.0763053,-0.07723,1.19155,0.0886442,0.0408876,1259,1681,8.92128,-37.1474
42,-657,7.802,37.8765,-0.0491351,0.0488668,0.0466601,0.0675287,-0.067797,1.19033,0.0781304,0.0451727,1266,1681,7.80202,-37.8765
49,-657,6.90906,38.5564,0,0,0,0,0,0,0,-1,1273,1681,6.90901,-38.5564
56,-657,7.40295,36.2634,0,0,0,0,0,0,0,-1,1280,1681,7.40293,-36.2634
63,-657,2.9884,32.0116,0,0,0,0,0,0,0,-1,1287,1681,2.98845,-32.0115
70,-657,8.81128,34.1412,0,0,0,0,0,0,0,-1,1294,1681,8.81134,-34.1412
77,-657,9.28528,33.6285,0,0,0,0,0,0,0,-1,1301,1681,9.28523,-33.6285
84,-657,3.43359,34.2549,0,0,0,0,0,0,0,-1,1308,1681,3.43353,-34.2549
91,-657,3.68152,34.6674,0.00855203,0.0266612,-0.001543,0.0267917,0.0084215,-1.4864,0.0158197,0.0466993,1315,1681,3.68152,-34.6673
98,-657,3.9967,34.1206,0.0159383,0.0243554,-0.00603192,0.0275018,0.0127919,-1.08999,0.0158911,0.0418152,1322,1681,3.99673,-34.1206
105,-657,4.18262,35.403,0.0206871,0.0263363,-0.00951048,0.0334328,0.0135906,-0.92975,0.0194146,0.0413715,1329,1681,4.1826,-35.4029
112,-657,3.82446,36.3239,0.0247671,0.0279375,-0.0115193,0.0379801,0.0147245,-0.853775,0.0221115,0.0398508,1336,1681,3.82449,-36.3239
119,-657,3.19958,36.6033,0.0282159,0.0290052,-0.0113655,0.0399829,0.0172382,-0.802751,0.023157,0.0426793,1343,1681,3.19958,-36.6033
126,-657,2.81311,36.903,0,0,0,0,0,0,0,-1,1350,1681,2.81311,-36.903
133,-657,2.33215,37.27,0,0,0,0,0,0,0,-1,1357,1681,2.33217,-37.2701
140,-657,7.22485,33.2286,0,0,0,0,0,0,0,-1,1364,1681,7.22485,-33.2286
147,-657,7.29395,33.9133,0,0,0,0,0,0,0,-1,1371,1681,7.294,-33.9133
154,-657,7.35938,36.8209,0,0,0,0,0,0,0,-1,1378,1681,7.35935,-36.821
161,-657,4.2926,24.9226,0,0,0,0,0,0,0,-1,1385,1681,4.29264,-24.9226
168,-657,5.21643,0.70105,0,0,0,0,0,0,0,-1,1392,1681,5.21648,-0.7011
175,-657,5.52771,0.649048,0,0,0,0,0,0,0,-1,1399,1681,5.52774,-0.649019
182,-657,5.73999,1.02612,0,0,0,0,0,0,0,-1,1406,1681,5.73995,-1.02611
189,-657,5.92126,1.44116,0,0,0,0,0,0,0,-1,1413,1681,5.92126,-1.44115
196,-657,4.92834,9.59021,0,0,0,0,0,0,0,-1,1420,1681,4.9284,-9.59018
203,-657,6.26343,5.16492,0,0,0,0,0,0,0,-1,1427,1681,6.26345,-5.16488
210,-657,3.9856,5.28088,0,0,0,0,0,0,0,-1,1434,1681,3.98555,-5.28084
217,-657,3.95178,5.2843,0,0,0,0,0,0,0,-1,1441,1681,3.95174,-5.28431
224,-657,6.66736,-0.250244,0,0,0,0,0,0,0,-1,1448,1681,6.66737,0.250229
231,-657,6.85498,-1.70752,0,0,0,0,0,0,0,-1,1455,1681,6.855,1.70758
238,-657,5.34143,-2.89819,0,0,0,0,0,0,0,-1,1462,1681,5.34143,2.89813
245,-657,8.66003,-0.102783,0,0,0,0,0,0,0,-1,1469,1681,8.66,0.102824
252,-657,4.78955,0.623779,0,0,0,0,0,0,0,-1,1476,1681,4.7895,-0.623826
259,-657,2.61523,4.31909,0,0,0,0,0,0,0,-1,1483,1681,2.61523,-4.31908
266,-657,5.35437,11.4742,0,0,0,0,0,0,0,-1,1490,1681,5.35441,-11.4742
273,-657,9.07385,31.2715,0,0,0,0,0,0,0,-1,1497,1681,9.07385,-31.2715
280,-657,9.0105,31.2422,0,0,0,0,0,0,0,-1,1504,1681,9.01056,-31.2422
287,-657,9.23889,31.0424,0,0,0,0,0,0,0,-1,1511,1681,9.23887,-31.0424
294,-657,9.4696,30.8594,0.00649854,0.00198388,-0.00155992,0.00698509,0.00149733,-0.302345,0.00424654,0.0276829,1518,1681,9.46959,-30.8594
301,-657,9.44592,30.6224,0.00576694,0.00188966,-0.00139665,0.00621764,0.00143896,-0.312152,0.00375841,0.0179054,1525,1681,9.44595,-30.6225
308,-657,9.45313,30.3638,0.00494854,0.00188298,-0.00117136,0.00534488,0.00148665,-0.326266,0.00318552,0.0124882,1532,1681,9.45307,-30.3637
315,-657,9.46741,30.0903,0.00409988,0.00208281,-0.000968413,0.00448955,0.00169314,-0.382552,0.002618,0.0107212,1539,1681,9.46744,-30.0903
322,-657,9.5011,29.8075,0.00335027,0.00207292,-0.000735533,0.00368572,0.00173747,-0.427881,0.00212911,0.0132009,1546,1681,9.50104,-29.8075
329,-657,9.5033,29.5232,0.00275327,0.00218448,-0.000628566,0.00315879,0.00177896,-0.572951,0.00182857,0.0197419,1553,1681,9.50325,-29.5232
336,-657,9.48987,29.2692,0.00216326,0.00220938,-0.000541915,0.00272872,0.00164391,-0.806659,0.00158641,0.0172956,1560,1681,9.48986,-29.2691
343,-657,9.51465,29.0133,0.00170594,0.00197683,-0.000388721,0.00225303,0.00142974,-0.953038,0.0013164,0.0135347,1567,1681,9.51465,-29.0133
350,-657,9.50842,28.7322,0.00131569,0.00140926,-0.000211215,0.00157881,0.00114614,-0.894395,0.000942039,0.0149868,1574,1681,9.50838,-28.7322
357,-657,9.51074,28.4313,0.00100609,0.000688542,-9.55517e-05,0.00103262,0.000662007,-0.270876,0.000604045,0.014185,1581,1681,9.5108,-28.4313
364,-657,9.52979,28.1393,0.000652592,-0.000399,0.000192432,0.000686699,-0.000433107,0.175421,0.000652023,0.0105596,1588,1681,9.52975,-28.1393
371,-657,9.50977,27.8475,0.000338815,-0.00159363,0.000466506,0.000445539,-0.00170036,0.224902,0.00130763,0.0148772,1595,1681,9.50973,-27.8475
378,-657,9.49304,27.5361,7.72692e-05,-0.00294665,0.000782734,0.000267865,-0.00313725,0.238852,0.00218626,0.0143073,1602,1681,9.49298,-27.5362
385,-657,9.49426,27.2319,-0.000123017,-0.00462495,0.00111914,0.000139845,-0.00488781,0.230696,0.00330614,0.0118338,1609,1681,9.49429,-27.2319
392,-657,9.47998,26.9187,-0.000357293,-0.00653672,0.00154481,7.38027e-06,-0.00690139,0.231818,0.00460339,0.012978,1616,1681,9.47998,-26.9187
399,-657,9.48901,26.5957,-0.000820326,-0.00851181,0.00186588,-0.00039158,-0.00894056,0.225861,0.00583423,0.0134815,1623,1681,9.48904,-26.5957
406,-657,9.48547,26.2711,-0.00155435,-0.0102455,0.00234009,-0.000964334,-0.0108355,0.246985,0.00692466,0.0147147,1630,1681,9.48542,-26.2712
413,-657,9.47754,25.9343,-0.00215135,-0.0117367,0.00268799,-0.00144902,-0.012439,0.255571,0.00785433,0.0153637,1637,1681,9.47756,-25.9344
420,-657,9.4668,25.5801,-0.00315554,-0.0131849,0.0028391,-0.00240763,-0.0139328,0.257582,0.00859908,0.0180942,1644,1681,9.46679,-25.5801
427,-657,9.4408,25.213,-0.00412245,-0.0141486,0.00321128,-0.00318211,-0.015089,0.284862,0.00918425,0.0228053,1651,1681,9.44074,-25.213
434,-657,9.51013,24.941,-0.00527452,-0.0149472,0.00341006,-0.00419321,-0.0160286,0.307066,0.0095983,0.0303751,1658,1681,9.51012,-24.941
441,-657,9.5199,24.941,-0.00665898,-0.0157322,0.00348215,-0.00547666,-0.0169145,0.327325,0.0099657,0.048594,1665,1681,9.51985,-24.941
448,-657,9.5907,24.9143,0,0,0,0,0,0,0,-1,1672,1681,9.59068,-24.9144
455,-657,8.47217,24.173,0,0,0,0,0,0,0,-1,1679,1681,8.47222,-24.173
462,-657,6.51733,15.4801,0,0,0,0,0,0,0,-1,1686,1681,6.51737,-15.4801
469,-657,9.70483,21.9269,0,0,0,0,0,0,0,-1,1693,1681,9.70488,-21.9269
476,-657,8.9519,20.5712,0,0,0,0,0,0,0,-1,1700,1681,8.95194,-20.5712
483,-657,10.0663,21.8628,0,0,0,0,0,0,0,-1,1707,1681,10.0663,-21.8628
490,-657,11.6039,21.2185,0,0,0,0,0,0,0,-1,1714,1681,11.6038,-21.2185
497,-657,9.20862,17.8127,0,0,0,0,0,0,0,-1,1721,1681,9.2086,-17.8127
504,-657,0,0,0,0,0,0,0,0,0,-1,1728,1681,0,0
511,-657,0,0,0,0,0,0,0,0,0,-1,1735,1681,0,0
518,-657,0,0,0,0,0,0,0,0,0,-1,1742,1681,0,0
525,-657,0,0,0,0,0,0,0,0,0,-1,1749,1681,0,0
532,-657,0,0,0,0,0,0,0,0,0,-1,1756,1681,0,0
539,-657,0,0,0,0,0,0,0,0,0,-1,1763,1681,0,0
546,-657,0,0,0,0,0,0,0,0,0,-1,1770,1681,0,0
553,-657,0,0,0,0,0,0,0,0,0,-1,1777,1681,0,0
560,-657,0,0,0,0,0,0,0,0,0,-1,1784,1681,0,0
567,-657,0,0,0,0,0,0,0,0,0,-1,1791,1681,0,0
574,-657,0,0,0,0,0,0,0,0,0,-1,1798,1681,0,0
581,-657,0,0,0,0,0,0,0,0,0,-1,1805,1681,0,0
588,-657,0,0,0,0,0,0,0,0,0,-1,1812,1681,0,0
595,-657,0,0,0,0,0,0,0,0,0,-1,1819,1681,0,0
602,-657,0,0,0,0,0,0,0,0,0,-1,1826,1681,0,0
609,-657,0,0,0,0,0,0,0,0,0,-1,1833,1681,0,0
616,-657,0,0,0,0,0,0,0,0,0,-1,1840,1681,0,0
623,-657,0,0,0,0,0,0,0,0,0,-1,1847,1681,0,0
630,-657,0,0,0,0,0,0,0,0,0,-1,1854,1681,0,0
637,-657,0,0,0,0,0,0,0,0,0,-1,1861,1681,0,0
644,-657,0,0,0,0,0,0,0,0,0,-1,1868,1681,0,0
651,-657,0,0,0,0,0,0,0,0,0,-1,1875,1681,0,0
658,-657,0,0,0,0,0,0,0,0,0,-1,1882,1681,0,0
665,-657,0,0,0,0,0,0,0,0,0,-1,1889,1681,0,0
672,-657,0,0,0,0,0,0,0,0,0,-1,1896,1681,0,0
679,-657,0,0,0,0,0,0,0,0,0,-1,1903,1681,0,0
686,-657,0,0,0,0,0,0,0,0,0,-1,1910,1681,0,0
693,-657,0,0,0,0,0,0,0,0,0,-1,1917,1681,0,0
700,-657,0,0,0,0,0,0,0,0,0,-1,1924,1681,0,0
707,-657,0,0,0,0,0,0,0,0,0,-1,1931,1681,0,0
714,-657,0,0,0,0,0,0,0,0,0,-1,1938,1681,0,0
721,-657,0,0,0,0,0,0,0,0,0,-1,1945,1681,0,0
728,-657,0,0,0,0,0,0,0,0,0,-1,1952,1681,0,0
735,-657,0,0,0,0,0,0,0,0,0,-1,1959,1681,0,0
742,-657,0,0,0,0,0,0,0,0,0,-1,1966,1681,0,0
749,-657,0,0,0,0,0,0,0,0,0,-1,1973,1681,0,0
756,-657,0,0,0,0,0,0,0,0,0,-1,1980,1681,0,0
763,-657,0,0,0,0,0,0,0,0,0,-1,1987,1681,0,0
770,-657,0,0,0,0,0,0,0,0,0,-1,1994,1681,0,0
777,-657,0,0,0,0,0,0,0,0,0,-1,2001,1681,0,0
784,-657,0,0,0,0,0,0,0,0,0,-1,2008,1681,0,0
791,-657,0,0,0,0,0,0,0,0,0,-1,2015,1681,0,0
798,-657,0,0,0,0,0,0,0,0,0,-1,2022,1681,0,0
805,-657,0,0,0,0,0,0,0,0,0,-1,2029,1681,0,0
812,-657,0,0,0,0,0,0,0,0,0,-1,2036,1681,0,0
-700,-664,0,0,0,0,0,0,0,0,0,-1,524,1688,0,0
-693,-664,0,0,0,0,0,0,0,0,0,-1,531,1688,0,0
-686,-664,0,0,0,0,0,0,0,0,0,-1,538,1688,0,0
-679,-664,0,0,0,0,0,0,0,0,0,-1,545,1688,0,0
-672,-664,0,0,0,0,0,0,0,0,0,-1,552,1688,0,0
-665,-664,0,0,0,0,0,0,0,0,0,-1,559,1688,0,0
-658,-664,0,0,0,0,0,0,0,0,0,-1,566,1688,0,0
-651,-664,0,0,0,0,0,0,0,0,0,-1,573,1688,0,0
-644,-664,0,0,0,0,0,0,0,0,0,-1,580,1688,0,0
-637,-664,0,0,0,0,0,0,0,0,0,-1,587,1688,0,0
-630,-664,0,0,0,0,0,0,0,0,0,-1,594,1688,0,0
-623,-664,0,0,0,0,0,0,0,0,0,-1,601,1688,0,0
-616,-664,0,0,0,0,0,0,0,0,0,-1,608,1688,0,0
-609,-664,0,0,0,0,0,0,0,0,0,-1,615,1688,0,0
-602,-664,0,0,0,0,0,0,0,0,0,-1,622,1688,0,0
-595,-664,0,0,0,0,0,0,0,0,0,-1,629,1688,0,0
-588,-664,0,0,0,0,0,0,0,0,0,-1,636,1688,0,0
-581,-664,0,0,0,0,0,0,0,0,0,-1,643,1688,0,0
-574,-664,0,0,0,0,0,0,0,0,0,-1,650,1688,0,0
-567,-664,0,0,0,0,0,0,0,0,0,-1,657,1688,0,0
-560,-664,0,0,0,0,0,0,0,0,0,-1,664,1688,0,0
-553,-664,0,0,0,0,0,0,0,0,0,-1,671,1688,0,0
-546,-664,0,0,0,0,0,0,0,0,0,-1,678,1688,0,0
-539,-664,0,0,0,0,0,0,0,0,0,-1,685,1688,0,0
-532,-664,0,0,0,0,0,0,0,0,0,-1,692,1688,0,0
-525,-664,0,0,0,0,0,0,0,0,0,-1,699,1688,0,0
-518,-664,0,0,0,0,0,0,0,0,0,-1,706,1688,0,0
-511,-664,0,0,0,0,0,0,0,0,0,-1,713,1688,0,0
-504,-664,0,0,0,0,0,0,0,0,0,-1,720,1688,0,0
-497,-664,0,0,0,0,0,0,0,0,0,-1,727,1688,0,0
-490,-664,0,0,0,0,0,0,0,0,0,-1,734,1688,0,0
-483,-664,0,0,0,0,0,0,0,0,0,-1,741,1688,0,0
-476,-664,0,0,0,0,0,0,0,0,0,-1,748,1688,0,0
-469,-664,0,0,0,0,0,0,0,0,0,-1,755,1688,0,0
-462,-664,0,0,0,0,0,0,0,0,0,-1,762,1688,0,0
-455,-664,0,0,0,0,0,0,0,0,0,-1,769,1688,0,0
-448,-664,0,0,0,0,0,0,0,0,0,-1,776,1688,0,0
-441,-664,0,0,0,0,0,0,0,0,0,-1,783,1688,0,0
-434,-664,0,0,0,0,0,0,0,0,0,-1,790,1688,0,0
-427,-664,0,0,0,0,0,0,0,0,0,-1,797,1688,0,0
-420,-664,0,0,0,0,0,0,0,0,0,-1,804,1688,0,0
-413,-664,0,0,0,0,0,0,0,0,0,-1,811,1688,0,0
-406,-664,0,0,0,0,0,0,0,0,0,-1,818,1688,0,0
-399,-664,0,0,0,0,0,0,0,0,0,-1,825,1688,0,0
-392,-664,0,0,0,0,0,0,0,0,0,-1,832,1688,0,0
-385,-664,0,0,0,0,0,0,0,0,0,-1,839,1688,0,0
-378,-664,0,0,0,0,0,0,0,0,0,-1,846,1688,0,0
-371,-664,-1.61676,5.92737,0,0,0,0,0,0,0,-1,853,1688,-1.61675,-5.92735
-364,-664,-3.901,5.87024,0,0,0,0,0,0,0,-1,860,1688,-3.90097,-5.87027
-357,-664,-4.81012,4.53479,0,0,0,0,0,0,0,-1,867,1688,-4.81012,-4.5348
-350,-664,-5.7193,3.19934,0,0,0,0,0,0,0,-1,874,1688,-5.71927,-3.19932
-343,-664,2.96515,14.8083,0,0,0,0,0,0,0,-1,881,1688,2.96517,-14.8083
-336,-664,2.79852,15.5814,0,0,0,0,0,0,0,-1,888,1688,2.79853,-15.5814
-329,-664,4.664,21.8123,0,0,0,0,0,0,0,-1,895,1688,4.66403,-21.8122
-322,-664,5.61554,23.4279,0,0,0,0,0,0,0,-1,902,1688,5.61557,-23.4279
-315,-664,5.47772,22.7406,0,0,0,0,0,0,0,-1,909,1688,5.47773,-22.7406
-308,-664,5.60242,23.7133,0,0,0,0,0,0,0,-1,916,1688,5.60244,-23.7133
-301,-664,5.56354,24.3929,0,0,0,0,0,0,0,-1,923,1688,5.56357,-24.393
-294,-664,5.55219,24.8317,0.00477098,-0.0173108,-0.00315635,0.00521329,-0.0177531,-0.139226,0.0139029,0.0473242,930,1688,5.55218,-24.8316
-287,-664,5.59222,25.0688,0.00450331,-0.0160446,-0.0032843,0.0050155,-0.0165568,-0.154703,0.0130354,0.0358439,937,1688,5.5922,-25.0688
-280,-664,5.52399,25.3435,0.00408585,-0.0146949,-0.00325023,0.00463243,-0.0152414,-0.166609,0.0120068,0.0237218,944,1688,5.52398,-25.3435
-273,-664,5.56506,25.6367,0.00357401,-0.0129513,-0.00308774,0.0041321,-0.0135094,-0.178814,0.0106542,0.016997,951,1688,5.56509,-25.6367
-266,-664,5.5202,25.9773,0.00317066,-0.0111049,-0.00274232,0.00367933,-0.0116136,-0.183405,0.00921697,0.0223069,958,1688,5.52022,-25.9773
-259,-664,5.49811,26.3395,0.00270159,-0.0092958,-0.00221306,0.0030968,-0.00969101,-0.176716,0.0077033,0.0195152,965,1688,5.49813,-26.3395
-252,-664,5.53625,26.6844,0.00223965,-0.00747664,-0.00173533,0.00254028,-0.00777727,-0.171537,0.00620736,0.0147538,972,1688,5.53627,-26.6844
-245,-664,5.49347,27.0308,0.00186034,-0.00565492,-0.00123899,0.00205933,-0.00585391,-0.159251,0.00474057,0.0180911,979,1688,5.49347,-27.0308
-238,-664,5.52399,27.3815,0.00159168,-0.00402475,-0.000773041,0.00169614,-0.00412921,-0.134312,0.00345967,0.0223718,986,1688,5.52401,-27.3814
-231,-664,5.51062,27.7019,0.00148499,-0.0028147,-0.000440776,0.00152971,-0.00285942,-0.101112,0.00257254,0.0200052,993,1688,5.51064,-27.7019
-224,-664,5.48071,28.0024,0.00126336,-0.00138935,-1.5957e-05,0.00126346,-0.00138945,-0.00601507,0.00153223,0.0141048,1000,1688,5.48072,-28.0025
-217,-664,5.4787,28.3154,0.00115202,-0.000232981,0.000422039,0.00127049,-0.000351452,0.273666,0.000985266,0.0101669,1007,1688,5.47868,-28.3154
-210,-664,5.48279,28.6177,0.00129677,0.00039049,0.000345495,0.00141346,0.000273803,0.325709,0.000865595,0.0114595,1014,1688,5.48276,-28.6177
-203,-664,5.47339,28.9086,0.00142138,0.000869791,0.00016284,0.00146586,0.000825305,0.266681,0.000848554,0.0139229,1021,1688,5.4734,-28.9086
-196,-664,5.48181,29.1735,0.00147532,0.00132629,2.66996e-05,0.00147996,0.00132165,0.172024,0.000938333,0.0144685,1028,1688,5.48178,-29.1734
-189,-664,5.48108,29.4672,0.00145934,0.00188613,-0.000152873,0.00193524,0.00141023,-1.25997,0.00115562,0.010108,1035,1688,5.48109,-29.4672
-182,-664,5.48254,29.7285,0.001524,0.00241256,-0.000380769,0.0025534,0.00138316,-1.21651,0.00147592,0.0100623,1042,1688,5.48256,-29.7285
-175,-664,5.49573,29.9745,0.0016596,0.00323953,-0.000518186,0.00339432,0.00150481,-1.28052,0.0019639,0.0132713,1049,1688,5.49574,-29.9745
-168,-664,5.49731,30.2545,0.00179922,0.00429629,-0.000660736,0.00446035,0.00163517,-1.32743,0.00260556,0.0147667,1056,1688,5.49737,-30.2545
-161,-664,5.4939,30.5165,0.00207452,0.00548755,-0.00065942,0.00561052,0.00195154,-1.38643,0.00328886,0.0111577,1063,1688,5.49384,-30.5164
-154,-664,5.53992,30.7719,0.00234019,0.00700306,-0.000574527,0.00707281,0.00227044,-1.44999,0.00416979,0.0101587,1070,1688,5.53995,-30.7719
-147,-664,5.53821,31.0398,0.00261608,0.00877765,-0.000516507,0.00882065,0.00257308,-1.48774,0.00523783,0.0134148,1077,1688,5.53826,-31.0398
-140,-664,5.55688,31.3279,0.00299909,0.0107339,-0.000287333,0.0107445,0.00298843,-1.53372,0.00640369,0.0165879,1084,1688,5.55685,-31.3279
-133,-664,5.52258,31.6454,0.00340255,0.0128169,1.94498e-05,0.0128169,0.00340251,1.56873,0.00766639,0.020378,1091,1688,5.52262,-31.6454
-126,-664,5.65527,32.1018,0.00379608,0.0152393,0.000325274,0.0152486,0.00378685,1.5424,0.00916794,0.0340841,1098,1688,5.65528,-32.1018
-119,-664,5.61621,32.3881,0.00454235,0.0169082,0.000550911,0.0169327,0.00451785,1.52636,0.0101243,0.043854,1105,1688,5.6162,-32.3881
-112,-664,6.17224,32.3003,0,0,0,0,0,0,0,-1,1112,1688,6.17226,-32.3003
-105,-664,4.48108,21.4276,0,0,0,0,0,0,0,-1,1119,1688,4.48104,-21.4276
-98,-664,4.98584,19.8645,0,0,0,0,0,0,0,-1,1126,1688,4.98586,-19.8645
-91,-664,5.41931,25.6302,0,0,0,0,0,0,0,-1,1133,1688,5.41932,-25.6302
-84,-664,3.48389,16.6913,0,0,0,0,0,0,0,-1,1140,1688,3.4839,-16.6913
-77,-664,4.52014,11.2122,0,0,0,0,0,0,0,-1,1147,1688,4.5202,-11.2122
-70,-664,4.20374,8.24524,0,0,0,0,0,0,0,-1,1154,1688,4.20379,-8.24519
-63,-664,-4.677,2.40503,0,0,0,0,0,0,0,-1,1161,1688,-4.67702,-2.40498
-56,-664,-4.66504,3.32727,0,0,0,0,0,0,0,-1,1168,1688,-4.6651,-3.32724
-49,-664,-2.54297,3.31848,0,0,0,0,0,0,0,-1,1175,1688,-2.54297,-3.31852
-42,-664,-0.359253,4.38684,0,0,0,0,0,0,0,-1,1182,1688,-0.359261,-4.38685
-35,-664,-0.705566,3.55017,0,0,0,0,0,0,0,-1,1189,1688,-0.705567,-3.55023
-28,-664,-1.54236,10.2538,0,0,0,0,0,0,0,-1,1196,1688,-1.54236,-10.2538
-21,-664,13.6136,35.1345,0,0,0,0,0,0,0,-1,1203,1688,13.6136,-35.1345
-14,-664,13.0199,35.2686,-0.0435752,0.0852113,0.0255112,0.0900807,-0.0484446,1.38219,0.0811728,0.0453372,1210,1688,13.0199,-35.2685
-7,-664,12.3973,35.324,-0.045399,0.0794599,0.0309831,0.0867254,-0.0526645,1.34046,0.0812738,0.0488837,1217,1688,12.3973,-35.324
0,-664,11.5839,35.748,-0.0475856,0.0737581,0.0361921,0.0837329,-0.0575604,1.30187,0.0820409,0.0475502,1224,1688,11.5839,-35.7481
7,-664,10.98,35.9218,-0.049432,0.068843,0.0405403,0.0814046,-0.0619936,1.27032,0.0830434,0.0456476,1231,1688,10.98,-35.9217
14,-664,10.2489,36.0922,-0.050454,0.0646038,0.0439123,0.079448,-0.0652982,1.24481,0.0837022,0.0450474,1238,1688,10.2489,-36.0922
21,-664,9.57312,36.1859,-0.0510639,0.0612178,0.0461557,0.0777553,-0.0676014,1.22675,0.0839899,0.0453791,1245,1688,9.57307,-36.1859
28,-664,8.89795,36.2394,-0.0502553,0.0577343,0.0466428,0.0750907,-0.0676116,1.21456,0.0824269,0.0431977,1252,1688,8.89791,-36.2394
35,-664,8.24329,36.4229,-0.0475454,0.0541421,0.0448545,0.0710996,-0.064503,1.20935,0.0783211,0.0428591,1259,1688,8.24325,-36.4228
42,-664,7.62561,37.0972,-0.0418268,0.0485654,0.0393248,0.0632786,-0.05654,1.21277,0.0692138,0.042851,1266,1688,7.62566,-37.0972
49,-664,7.18152,36.9403,-0.0345931,0.0421976,0.0335295,0.0547771,-0.0471726,1.21187,0.0589152,0.0435233,1273,1688,7.18149,-36.9403
56,-664,7.14136,36.1307,0,0,0,0,0,0,0,-1,1280,1688,7.1414,-36.1307
63,-664,7.07727,35.441,0,0,0,0,0,0,0,-1,1287,1688,7.07723,-35.441
70,-664,8.82568,34.6044,0,0,0,0,0,0,0,-1,1294,1688,8.82573,-34.6044
77,-664,9.44507,34.4424,0,0,0,0,0,0,0,-1,1301,1688,9.44506,-34.4424
84,-664,4.26428,34.4949,0,0,0,0,0,0,0,-1,1308,1688,4.26426,-34.4948
91,-664,4.3385,34.8187,0.00974037,0.0256604,-0.00667326,0.0280876,0.00731318,-1.22195,0.0168258,0.0434249,1315,1688,4.33845,-34.8188
98,-664,4.43481,35.1467,0.0163458,0.0232113,-0.0109641,0.0312675,0.0082897,-0.93711,0.0187044,0.0497735,1322,1688,4.43485,-35.1467
105,-664,4.41577,35.5089,0.0207656,0.0245277,-0.0144129,0.0371817,0.0081115,-0.850287,0.0225751,0.048725,1329,1688,4.41579,-35.5089
112,-664,4.42004,36.0149,0.0246082,0.0259344,-0.0164059,0.0416906,0.00885202,-0.805596,0.0253633,0.041996,1336,1688,4.42008,-36.0149
119,-664,4.09766,36.3577,0.0278159,0.0271952,-0.0162999,0.0438084,0.0112027,-0.775881,0.0262797,0.0455592,1343,1688,4.09763,-36.3577
126,-664,3.7594,36.6688,0,0,0,0,0,0,0,-1,1350,1688,3.75935,-36.6688
133,-664,7.29285,32.71,0,0,0,0,0,0,0,-1,1357,1688,7.29279,-32.71
140,-664,7.36548,33.4298,0,0,0,0,0,0,0,-1,1364,1688,7.3655,-33.4298
147,-664,7.43823,34.1497,0,0,0,0,0,0,0,-1,1371,1688,7.43821,-34.1496
154,-664,4.76721,26.2594,0,0,0,0,0,0,0,-1,1378,1688,4.76723,-26.2594
161,-664,4.60132,1.56238,0,0,0,0,0,0,0,-1,1385,1688,4.60134,-1.56233
168,-664,5.172,1.25488,0,0,0,0,0,0,0,-1,1392,1688,5.17203,-1.25484
175,-664,5.58313,1.16467,0,0,0,0,0,0,0,-1,1399,1688,5.58317,-1.16466
182,-664,5.74268,1.41113,0,0,0,0,0,0,0,-1,1406,1688,5.74263,-1.41115
189,-664,5.87744,1.87061,0,0,0,0,0,0,0,-1,1413,1688,5.87745,-1.87065
196,-664,6.7594,5.97473,0,0,0,0,0,0,0,-1,1420,1688,6.75943,-5.97478
203,-664,5.38452,5.22034,0,0,0,0,0,0,0,-1,1427,1688,5.38453,-5.2203
210,-664,5.25549,6.45715,0,0,0,0,0,0,0,-1,1434,1688,5.25549,-6.45721
217,-664,5.72009,6.73975,0,0,0,0,0,0,0,-1,1441,1688,5.72014,-6.73972
224,-664,5.05725,7.42908,0,0,0,0,0,0,0,-1,1448,1688,5.05723,-7.42912
231,-664,5.13318,7.60864,0,0,0,0,0,0,0,-1,1455,1688,5.13313,-7.60862
238,-664,4.23193,6.45471,0,0,0,0,0,0,0,-1,1462,1688,4.23197,-6.45476
245,-664,4.42004,6.80896,0,0,0,0,0,0,0,-1,1469,1688,4.4201,-6.80901
252,-664,3.67346,6.85461,0,0,0,0,0,0,0,-1,1476,1688,3.6734,-6.85462
259,-664,4.55823,11.7435,0,0,0,0,0,0,0,-1,1483,1688,4.55826,-11.7435
266,-664,8.90796,31.3124,0,0,0,0,0,0,0,-1,1490,1688,8.90799,-31.3123
273,-664,9.06396,31.4281,0,0,0,0,0,0,0,-1,1497,1688,9.06392,-31.4281
280,-664,9.05627,31.2399,0.00602742,0.00123008,-0.00104376,0.00624467,0.00101282,-0.205215,0.00386994,0.0295789,1504,1688,9.0563,-31.2399
287,-664,9.07495,31.0151,0.00544082,0.000998981,-0.000932585,0.00562868,0.000811125,-0.198775,0.00351343,0.0218765,1511,1688,9.07489,-31.0152
294,-664,9.15247,30.8165,0.00483461,0.00102735,-0.000927501,0.00504855,0.000813417,-0.226689,0.00312999,0.0157607,1518,1688,9.15244,-30.8165
301,-664,9.17761,30.5902,0.0043087,0.00109231,-0.000920328,0.00455342,0.000847587,-0.259892,0.00279624,0.0113279,1525,1688,9.17764,-30.5902
308,-664,9.20105,30.3346,0.00370454,0.00124386,-0.000870973,0.00398162,0.000966771,-0.308008,0.00239802,0.0112599,1532,1688,9.20105,-30.3345
315,-664,9.21008,30.0687,0.00307117,0.00145011,-0.000802151,0.00340099,0.00112028,-0.390101,0.0020013,0.0119109,1539,1688,9.21004,-30.0687
322,-664,9.23975,29.826,0.00249453,0.00151443,-0.000697178,0.00285666,0.0011523,-0.479062,0.00165953,0.0153056,1546,1688,9.23974,-29.826
329,-664,9.23022,29.5775,0.00199881,0.00148986,-0.000609922,0.00240522,0.00108345,-0.587763,0.00139092,0.0176049,1553,1688,9.23023,-29.5775
336,-664,9.22253,29.2961,0.00150294,0.00139171,-0.00049231,0.00194277,0.000951884,-0.729155,0.00112173,0.0146343,1560,1688,9.22254,-29.2962
343,-664,9.22546,29.0116,0.00111038,0.000959083,-0.000272276,0.00131732,0.000752142,-0.649897,0.000763105,0.011163,1567,1688,9.22549,-29.0117
350,-664,9.21863,28.7416,0.000787601,5.65422e-05,2.61163e-06,0.00078761,5.65329e-05,0.00357233,0.00050728,0.0123758,1574,1688,9.21862,-28.7416
357,-664,9.22388,28.4335,0.000496621,-0.00103054,0.000246319,0.000535368,-0.00106928,0.156023,0.000943384,0.0126521,1581,1688,9.22382,-28.4335
364,-664,9.23853,28.1309,0.000145963,-0.00245744,0.000668279,0.000307485,-0.00261896,0.237151,0.00185697,0.0107344,1588,1688,9.23852,-28.1309
371,-664,9.23242,27.8518,-0.000146062,-0.00400197,0.00107912,0.000135398,-0.00428343,0.255139,0.00290181,0.0133963,1595,1688,9.23236,-27.8519
378,-664,9.20825,27.5527,-0.000410457,-0.00575997,0.00156,1.1222e-05,-0.00618165,0.263999,0.00412484,0.0129944,1602,1688,9.20819,-27.5527
385,-664,9.19336,27.2542,-0.000631632,-0.00779899,0.00203902,-9.21628e-05,-0.00833846,0.258647,0.00552851,0.0134283,1609,1688,9.19336,-27.2542
392,-664,9.13879,26.9614,-0.000886889,-0.0101124,0.00260156,-0.00020383,-0.0107955,0.256762,0.00713,0.0168026,1616,1688,9.13884,-26.9614
399,-664,9.15918,26.6198,-0.00138692,-0.0124847,0.00301357,-0.000621395,-0.0132502,0.248764,0.00863378,0.0148995,1623,1688,9.15913,-26.6198
406,-664,9.1842,26.2841,-0.00218908,-0.0145703,0.00358219,-0.00122736,-0.015532,0.262287,0.00997074,0.0147429,1630,1688,9.18415,-26.284
413,-664,9.18665,25.9154,-0.00286732,-0.0164233,0.00402292,-0.00176336,-0.0175273,0.267823,0.0111437,0.0181143,1637,1688,9.18662,-25.9154
420,-664,9.21118,25.6165,-0.00407749,-0.0181726,0.00425329,-0.00289349,-0.0193566,0.2715,0.0120562,0.0403781,1644,1688,9.21113,-25.6165
427,-664,9.35718,25.6895,0,0,0,0,0,0,0,-1,1651,1688,9.35723,-25.6894
434,-664,9.59546,25.4589,0,0,0,0,0,0,0,-1,1658,1688,9.59541,-25.4588
441,-664,9.12744,25.0005,0,0,0,0,0,0,0,-1,1665,1688,9.12741,-25.0005
448,-664,7.27502,19.7417,0,0,0,0,0,0,0,-1,1672,1688,7.27505,-19.7417
455,-664,7.53198,11.3838,0,0,0,0,0,0,0,-1,1679,1688,7.53195,-11.3838
462,-664,4.3147,4.25439,0,0,0,0,0,0,0,-1,1686,1688,4.31467,-4.25435
469,-664,6.05469,7.49341,0,0,0,0,0,0,0,-1,1693,1688,6.05474,-7.49339
476,-664,10.2377,22.7128,0,0,0,0,0,0,0,-1,1700,1688,10.2377,-22.7128
483,-664,8.41895,10.9768,0,0,0,0,0,0,0,-1,1707,1688,8.41897,-10.9769
490,-664,3.90771,13.2842,0,0,0,0,0,0,0,-1,1714,1688,3.90776,-13.2841
497,-664,0,0,0,0,0,0,0,0,0,-1,1721,1688,0,0
504,-664,0,0,0,0,0,0,0,0,0,-1,1728,1688,0,0
511,-664,0,0,0,0,0,0,0,0,0,-1,1735,1688,0,0
518,-664,0,0,0,0,0,0,0,0,0,-1,1742,1688,0,0
525,-664,0,0,0,0,0,0,0,0,0,-1,1749,1688,0,0
532,-664,0,0,0,0,0,0,0,0,0,-1,1756,1688,0,0
539,-664,0,0,0,0,0,0,0,0,0,-1,1763,1688,0,0
546,-664,0,0,0,0,0,0,0,0,0,-1,1770,1688,0,0
553,-664,0,0,0,0,0,0,0,0,0,-1,1777,1688,0,0
560,-664,0,0,0,0,0,0,0,0,0,-1,1784,1688,0,0
567,-664,0,0,0,0,0,0,0,0,0,-1,1791,1688,0,0
574,-664,0,0,0,0,0,0,0,0,0,-1,1798,1688,0,0
581,-664,0,0,0,0,0,0,0,0,0,-1,1805,1688,0,0
588,-664,0,0,0,0,0,0,0,0,0,-1,1812,1688,0,0
595,-664,0,0,0,0,0,0,0,0,0,-1,1819,1688,0,0
602,-664,0,0,0,0,0,0,0,0,0,-1,1826,1688,0,0
609,-664,0,0,0,0,0,0,0,0,0,-1,1833,1688,0,0
616,-664,0,0,0,0,0,0,0,0,0,-1,1840,1688,0,0
623,-664,0,0,0,0,0,0,0,0,0,-1,1847,1688,0,0
630,-664,0,0,0,0,0,0,0,0,0,-1,1854,1688,0,0
637,-664,0,0,0,0,0,0,0,0,0,-1,1861,1688,0,0
644,-664,0,0,0,0,0,0,0,0,0,-1,1868,1688,0,0
651,-664,0,0,0,0,0,0,0,0,0,-1,1875,1688,0,0
658,-664,0,0,0,0,0,0,0,0,0,-1,1882,1688,0,0
665,-664,0,0,0,0,0,0,0,0,0,-1,1889,1688,0,0
672,-664,0,0,0,0,0,0,0,0,0,-1,1896,1688,0,0
679,-664,0,0,0,0,0,0,0,0,0,-1,1903,1688,0,0
686,-664,0,0,0,0,0,0,0,0,0,-1,1910,1688,0,0
693,-664,0,0,0,0,0,0,0,0,0,-1,1917,1688,0,0
700,-664,0,0,0,0,0,0,0,0,0,-1,1924,1688,0,0
707,-664,0,0,0,0,0,0,0,0,0,-1,1931,1688,0,0
714,-664,0,0,0,0,0,0,0,0,0,-1,1938,1688,0,0
721,-664,0,0,0,0,0,0,0,0,0,-1,1945,1688,0,0
728,-664,0,0,0,0,0,0,0,0,0,-1,1952,1688,0,0
735,-664,0,0,0,0,0,0,0,0,0,-1,1959,1688,0,0
742,-664,0,0,0,0,0,0,0,0,0,-1,1966,1688,0,0
749,-664,0,0,0,0,0,0,0,0,0,-1,1973,1688,0,0
756,-664,0,0,0,0,0,0,0,0,0,-1,1980,1688,0,0
763,-664,0,0,0,0,0,0,0,0,0,-1,1987,1688,0,0
770,-664,0,0,0,0,0,0,0,0,0,-1,1994,1688,0,0
777,-664,0,0,0,0,0,0,0,0,0,-1,2001,1688,0,0
784,-664,0,0,0,0,0,0,0,0,0,-1,2008,1688,0,0
791,-664,0,0,0,0,0,0,0,0,0,-1,2015,1688,0,0
798,-664,0,0,0,0,0,0,0,0,0,-1,2022,1688,0,0
805,-664,0,0,0,0,0,0,0,0,0,-1,2029,1688,0,0
812,-664,0,0,0,0,0,0,0,0,0,-1,2036,1688,0,0
-700,-671,0,0,0,0,0,0,0,0,0,-1,524,1695,0,0
-693,-671,0,0,0,0,0,0,0,0,0,-1,531,1695,0,0
-686,-671,0,0,0,0,0,0,0,0,0,-1,538,1695,0,0
-679,-671,0,0,0,0,0,0,0,0,0,-1,545,1695,0,0
-672,-671,0,0,0,0,0,0,0,0,0,-1,552,1695,0,0
-665,-671,0,0,0,0,0,0,0,0,0,-1,559,1695,0,0
-658,-671,0,0,0,0,0,0,0,0,0,-1,566,1695,0,0
-651,-671,0,0,0,0,0,0,0,0,0,-1,573,1695,0,0
-644,-671,0,0,0,0,0,0,0,0,0,-1,580,1695,0,0
-637,-671,0,0,0,0,0,0,0,0,0,-1,587,1695,0,0
-630,-671,0,0,0,0,0,0,0,0,0,-1,594,1695,0,0
-623,-671,0,0,0,0,0,0,0,0,0,-1,601,1695,0,0
-616,-671,0,0,0,0,0,0,0,0,0,-1,608,1695,0,0
-609,-671,0,0,0,0,0,0,0,0,0,-1,615,1695,0,0
-602,-671,0,0,0,0,0,0,0,0,0,-1,622,1695,0,0
-595,-671,0,0,0,0,0,0,0,0,0,-1,629,1695,0,0
-588,-671,0,0,0,0,0,0,0,0,0,-1,636,1695,0,0
-581,-671,0,0,0,0,0,0,0,0,0,-1,643,1695,0,0
-574,-671,0,0,0,0,0,0,0,0,0,-1,650,1695,0,0
-567,-671,0,0,0,0,0,0,0,0,0,-1,657,1695,0,0
-560,-671,0,0,0,0,0,0,0,0,0,-1,664,1695,0,0
-553,-671,0,0,0,0,0,0,0,0,0,-1,671,1695,0,0
-546,-671,0,0,0,0,0,0,0,0,0,-1,678,1695,0,0
-539,-671,0,0,0,0,0,0,0,0,0,-1,685,1695,0,0
-532,-671,0,0,0,0,0,0,0,0,0,-1,692,1695,0,0
-525,-671,0,0,0,0,0,0,0,0,0,-1,699,1695,0,0
-518,-671,0,0,0,0,0,0,0,0,0,-1,706,1695,0,0
-511,-671,0,0,0,0,0,0,0,0,0,-1,713,1695,0,0
-504,-671,0,0,0,0,0,0,0,0,0,-1,720,1695,0,0
-497,-671,0,0,0,0,0,0,0,0,0,-1,727,1695,0,0
-490,-671,0,0,0,0,0,0,0,0,0,-1,734,1695,0,0
-483,-671,0,0,0,0,0,0,0,0,0,-1,741,1695,0,0
-476,-671,0,0,0,0,0,0,0,0,0,-1,748,1695,0,0
-469,-671,0,0,0,0,0,0,0,0,0,-1,755,1695,0,0
-462,-671,0,0,0,0,0,0,0,0,0,-1,762,1695,0,0
-455,-671,0,0,0,0,0,0,0,0,0,-1,769,1695,0,0
-448,-671,0,0,0,0,0,0,0,0,0,-1,776,1695,0,0
-441,-671,0,0,0,0,0,0,0,0,0,-1,783,1695,0,0
-434,-671,0,0,0,0,0,0,0,0,0,-1,790,1695,0,0
-427,-671,0,0,0,0,0,0,0,0,0,-1,797,1695,0,0
-420,-671,0,0,0,0,0,0,0,0,0,-1,804,1695,0,0
-413,-671,0,0,0,0,0,0,0,0,0,-1,811,1695,0,0
-406,-671,0,0,0,0,0,0,0,0,0,-1,818,1695,0,0
-399,-671,0,0,0,0,0,0,0,0,0,-1,825,1695,0,0
-392,-671,0,0,0,0,0,0,0,0,0,-1,832,1695,0,0
-385,-671,0,0,0,0,0,0,0,0,0,-1,839,1695,0,0
-378,-671,0,0,0,0,0,0,0,0,0,-1,846,1695,0,0
-371,-671,0,0,0,0,0,0,0,0,0,-1,853,1695,0,0
-364,-671,-4.18738,7.51416,0,0,0,0,0,0,0,-1,860,1695,-4.18739,-7.51419
-357,-671,-5.02393,6.07129,0,0,0,0,0,0,0,-1,867,1695,-5.0239,-6.07135
-350,-671,-5.72333,4.58386,0,0,0,0,0,0,0,-1,874,1695,-5.72333,-4.58386
-343,-671,-6.4884,3.11353,0,0,0,0,0,0,0,-1,881,1695,-6.48839,-3.11349
-336,-671,2.55884,15.6338,0,0,0,0,0,0,0,-1,888,1695,2.55886,-15.6338
-329,-671,2.71729,16.1058,0,0,0,0,0,0,0,-1,895,1695,2.71729,-16.1058
-322,-671,4.3988,21.1218,0,0,0,0,0,0,0,-1,902,1695,4.39879,-21.1219
-315,-671,5.78625,22.6537,0,0,0,0,0,0,0,-1,909,1695,5.78625,-22.6537
-308,-671,5.76251,23.4701,0,0,0,0,0,0,0,-1,916,1695,5.76252,-23.4701
-301,-671,6.5365,22.9943,0,0,0,0,0,0,0,-1,923,1695,6.53648,-22.9943
-294,-671,5.80701,24.9493,0,0,0,0,0,0,0,-1,930,1695,5.80699,-24.9493
-287,-671,5.89996,25.0428,0.00819422,-0.0228254,-0.00567495,0.00919984,-0.0238311,-0.175382,0.0196841,0.0480352,937,1695,5.89997,-25.0429
-280,-671,5.88525,25.4631,0.00723754,-0.0208799,-0.00547744,0.0082669,-0.0219092,-0.18576,0.0180059,0.0401226,944,1695,5.88525,-25.4631
-273,-671,5.93774,25.7054,0.00617149,-0.0184037,-0.00510129,0.00718833,-0.0194205,-0.196752,0.0158945,0.033848,951,1695,5.93777,-25.7055
-266,-671,5.93372,26.0688,0.00525457,-0.015853,-0.00449184,0.00617071,-0.0167692,-0.201195,0.0137074,0.0257683,958,1695,5.93374,-26.0688
-259,-671,5.81714,26.3694,0.00427192,-0.013455,-0.00362444,0.00498434,-0.0141674,-0.194086,0.0114731,0.0239717,965,1695,5.81714,-26.3694
-252,-671,5.83807,26.6848,0.0033456,-0.0110297,-0.00285954,0.00389354,-0.0115776,-0.189322,0.00929225,0.0162205,972,1695,5.83806,-26.6848
-245,-671,5.81793,27.0493,0.00256548,-0.00868226,-0.00210308,0.00294585,-0.00906263,-0.178928,0.00722669,0.0189155,979,1695,5.81793,-27.0493
-238,-671,5.83459,27.3817,0.00194555,-0.00658732,-0.00141932,0.00217544,-0.00681721,-0.160577,0.00541756,0.0195523,986,1695,5.83457,-27.3818
-231,-671,5.81366,27.6906,0.00156636,-0.00494633,-0.000897479,0.00168777,-0.00506774,-0.134466,0.00405976,0.0145524,993,1695,5.81365,-27.6906
-224,-671,5.78436,27.9769,0.00104944,-0.0030758,-0.000299002,0.001071,-0.00309736,-0.0719797,0.00249959,0.0113215,1000,1695,5.78439,-27.977
-217,-671,5.78308,28.2825,0.000750519,-0.00148378,0.000437213,0.000833027,-0.00156629,0.18652,0.00140664,0.0106563,1007,1695,5.78306,-28.2825
-210,-671,5.78711,28.6134,0.000874077,-0.000721884,0.000458625,0.000996482,-0.000844289,0.260817,0.00106398,0.0109581,1014,1695,5.7871,-28.6134
-203,-671,5.75378,28.8813,0.00099206,-9.2573e-05,0.000397048,0.00112187,-0.000222383,0.315984,0.000832007,0.0193989,1021,1695,5.75374,-28.8813
-196,-671,5.7522,29.1797,0.00103824,0.000498627,0.000325339,0.00119109,0.000345774,0.439218,0.000707552,0.0165743,1028,1695,5.75214,-29.1797
-189,-671,5.76282,29.5117,0.00100147,0.00112234,0.000195287,0.00126633,0.000857479,0.935462,0.000746253,0.0125342,1035,1695,5.7628,-29.5117
-182,-671,5.75146,29.757,0.00106896,0.00166809,2.87206e-05,0.00166947,0.00106759,1.52301,0.000976288,0.0103894,1042,1695,5.7515,-29.757
-175,-671,5.76147,29.9873,0.00123197,0.00243697,-6.55602e-05,0.00244053,0.00122841,-1.5166,0.00140905,0.0129572,1049,1695,5.76151,-29.9873
-168,-671,5.76233,30.2535,0.00140082,0.00328232,-0.000176252,0.00329869,0.00138445,-1.47819,0.00191267,0.0145487,1056,1695,5.76227,-30.2536
-161,-671,5.75208,30.5343,0.00166093,0.00423161,-0.000203652,0.00424764,0.00164489,-1.49223,0.00247307,0.0100433,1063,1695,5.75214,-30.5343
-154,-671,5.77356,30.7728,0.00191964,0.00545957,-0.000189608,0.00546969,0.00190951,-1.51744,0.0032055,0.00804772,1070,1695,5.77353,-30.7728
-147,-671,5.77441,31.0409,0.00217657,0.00680527,-0.000190642,0.00681311,0.00216873,-1.5297,0.00401918,0.00917135,1077,1695,5.77438,-31.0409
-140,-671,5.81592,31.2847,0.00251027,0.00823424,-6.53499e-05,0.00823499,0.00250953,-1.55938,0.00487382,0.0122309,1084,1695,5.81598,-31.2847
-133,-671,5.81604,31.515,0.00287224,0.0096984,0.000111535,0.00970022,0.00287042,1.55446,0.00575384,0.0160358,1091,1695,5.81602,-31.515
-126,-671,5.86011,31.7711,0.00327655,0.0114021,0.000357512,0.0114178,0.00326085,1.52691,0.00679109,0.0225585,1098,1695,5.86016,-31.7712
-119,-671,5.96082,32.1833,0.00385261,0.0125362,0.000472649,0.0125618,0.00382696,1.51658,0.00743479,0.0389838,1105,1695,5.96082,-32.1834
-112,-671,6.0802,32.4734,0.00442591,0.0135529,0.000661926,0.0136007,0.00437816,1.49877,0.00801667,0.0488685,1112,1695,6.08026,-32.4734
-105,-671,6.1853,32.5544,0,0,0,0,0,0,0,-1,1119,1695,6.18526,-32.5544
-98,-671,5.84021,32.8326,0,0,0,0,0,0,0,-1,1126,1695,5.84027,-32.8326
-91,-671,5.89795,31.6277,0,0,0,0,0,0,0,-1,1133,1695,5.89796,-31.6277
-84,-671,5.4209,26.2415,0,0,0,0,0,0,0,-1,1140,1695,5.42096,-26.2414
-77,-671,4.31763,16.489,0,0,0,0,0,0,0,-1,1147,1695,4.31757,-16.489
-70,-671,3.06067,10.7737,0,0,0,0,0,0,0,-1,1154,1695,3.0607,-10.7737
-63,-671,2.94592,6.90198,0,0,0,0,0,0,0,-1,1161,1695,2.94594,-6.90198
-56,-671,-3.07678,2.87976,0,0,0,0,0,0,0,-1,1168,1695,-3.07675,-2.87979
-49,-671,-1.05957,4.76917,0,0,0,0,0,0,0,-1,1175,1695,-1.05958,-4.76921
-42,-671,0.539307,3.7865,0,0,0,0,0,0,0,-1,1182,1695,0.539266,-3.78648
-35,-671,-0.272461,0.347534,0,0,0,0,0,0,0,-1,1189,1695,-0.272434,-0.347569
-28,-671,-10.4878,17.2009,0,0,0,0,0,0,0,-1,1196,1695,-10.4878,-17.2009
-21,-671,6.10059,34.9904,0,0,0,0,0,0,0,-1,1203,1695,6.10056,-34.9904
-14,-671,12.6121,33.9678,0,0,0,0,0,0,0,-1,1210,1695,12.612,-33.9678
-7,-671,7.349,35.0479,0,0,0,0,0,0,0,-1,1217,1695,7.34903,-35.0478
0,-671,11.157,34.4871,0,0,0,0,0,0,0,-1,1224,1695,11.157,-34.487
7,-671,7.20435,33.2399,0,0,0,0,0,0,0,-1,1231,1695,7.20437,-33.2399
14,-671,10.2308,34.8306,-0.0405773,0.0568562,0.0374623,0.0695947,-0.0533158,1.24303,0.0711696,0.0445176,1238,1695,10.2308,-34.8306
21,-671,9.47485,35.165,-0.0409881,0.0551004,0.0388592,0.0688485,-0.0547361,1.23075,0.0715065,0.0447142,1245,1695,9.47484,-35.165
28,-671,8.60938,35.5243,-0.0404177,0.0530848,0.0389431,0.0671796,-0.0545125,1.22353,0.0703857,0.0439624,1252,1695,8.60943,-35.5243
35,-671,7.82996,35.8369,-0.0385556,0.0507533,0.0373053,0.0642857,-0.052088,1.22281,0.0673113,0.0445206,1259,1695,7.82992,-35.8369
42,-671,7.30823,36.0081,-0.0341962,0.0461829,0.0325323,0.0576997,-0.045713,1.23055,0.0598389,0.0481991,1266,1695,7.30827,-36.0081
49,-671,6.98804,36.2457,-0.0283416,0.0405073,0.0273936,0.0500766,-0.037911,1.23472,0.0509613,0.0484182,1273,1695,6.98801,-36.2458
56,-671,7.39648,37.1887,0,0,0,0,0,0,0,-1,1280,1695,7.39648,-37.1887
63,-671,8.4989,35.316,0,0,0,0,0,0,0,-1,1287,1695,8.49886,-35.316
70,-671,8.80408,34.9313,0,0,0,0,0,0,0,-1,1294,1695,8.80413,-34.9313
77,-671,5.23438,34.2413,0,0,0,0,0,0,0,-1,1301,1695,5.23435,-34.2413
84,-671,5.05298,34.554,0,0,0,0,0,0,0,-1,1308,1695,5.05303,-34.5539
91,-671,4.9989,34.8782,0.0104542,0.0236947,-0.0101045,0.0291545,0.00499442,-1.0754,0.018004,0.0454242,1315,1695,4.99895,-34.8782
98,-671,5.02917,35.2014,0.0161737,0.0212655,-0.0140343,0.032983,0.00445626,-0.875126,0.020664,0.0437193,1322,1695,5.02912,-35.2014
105,-671,5.04834,35.5369,0.0201432,0.0219781,-0.0172556,0.0383407,0.00378072,-0.811957,0.024398,0.0452205,1329,1695,5.0484,-35.5369
112,-671,5.14734,35.818,0.0236125,0.0230498,-0.0191163,0.0424495,0.00421273,-0.77804,0.0270052,0.0428473,1336,1695,5.14728,-35.818
119,-671,5.09351,36.1927,0.0264886,0.0243026,-0.0191141,0.0445409,0.00625027,-0.756839,0.0278453,0.0446595,1343,1695,5.09352,-36.1927
126,-671,4.68188,36.7737,0.0282053,0.0243737,-0.016488,0.0428884,0.00969052,-0.72756,0.0259719,0.0499178,1350,1695,4.68184,-36.7736
133,-671,7.48486,32.9463,0.0288582,0.0227343,-0.0121298,0.0383065,0.0132859,-0.661765,0.0224595,0.0452177,1357,1695,7.48485,-32.9463
140,-671,7.51196,33.6567,0.0280142,0.0193123,-0.00622881,0.0312612,0.0160653,-0.48053,0.018051,0.0426278,1364,1695,7.51193,-33.6568
147,-671,7.65125,34.3972,0.0258376,0.0147664,-0.000221557,0.025842,0.0147619,-0.0200014,0.0149703,0.0461693,1371,1695,7.6513,-34.3972
154,-671,7.66968,35.1843,0,0,0,0,0,0,0,-1,1378,1695,7.66973,-35.1843
161,-671,4.49292,4.91272,0,0,0,0,0,0,0,-1,1385,1695,4.49297,-4.91273
168,-671,5.17639,6.1416,0,0,0,0,0,0,0,-1,1392,1695,5.1764,-6.14164
175,-671,5.6731,1.64685,0,0,0,0,0,0,0,-1,1399,1695,5.67313,-1.64691
182,-671,5.56812,1.71692,0,0,0,0,0,0,0,-1,1406,1695,5.56809,-1.71686
189,-671,6.98315,6.36169,0,0,0,0,0,0,0,-1,1413,1695,6.98312,-6.36175
196,-671,5.38123,5.69775,0,0,0,0,0,0,0,-1,1420,1695,5.38125,-5.69769
203,-671,5.95117,8.11658,0,0,0,0,0,0,0,-1,1427,1695,5.9512,-8.11662
210,-671,4.73596,8.39624,0,0,0,0,0,0,0,-1,1434,1695,4.736,-8.39618
217,-671,5.37097,11.863,0,0,0,0,0,0,0,-1,1441,1695,5.37094,-11.863
224,-671,5.08167,13.6694,0,0,0,0,0,0,0,-1,1448,1695,5.08165,-13.6695
231,-671,5.66663,15.3348,0,0,0,0,0,0,0,-1,1455,1695,5.66667,-15.3349
238,-671,6.32959,16.2036,0,0,0,0,0,0,0,-1,1462,1695,6.32961,-16.2037
245,-671,9.09692,31.6698,0,0,0,0,0,0,0,-1,1469,1695,9.09694,-31.6698
252,-671,8.81018,31.8845,0,0,0,0,0,0,0,-1,1476,1695,8.81019,-31.8845
259,-671,8.83032,31.9718,0,0,0,0,0,0,0,-1,1483,1695,8.83029,-31.9719
266,-671,8.84033,31.6686,0.00476437,0.000458122,-0.000589302,0.00484355,0.000378934,-0.133577,0.00311043,0.0360733,1490,1695,8.84033,-31.6685
273,-671,8.89539,31.5012,0.00460865,0.000246671,-0.000605095,0.00469103,0.000164288,-0.135317,0.00307405,0.0117783,1497,1695,8.89544,-31.5012
280,-671,8.90259,31.283,0.0042826,0.000350425,-0.000615797,0.00437678,0.000256243,-0.151766,0.0028363,0.00912154,1504,1695,8.90262,-31.283
287,-671,8.90869,30.9917,0.00389944,0.000367699,-0.000615112,0.00400351,0.000263633,-0.167595,0.00258561,0.0103325,1511,1695,8.90871,-30.9917
294,-671,8.91174,30.7556,0.00349547,0.000618616,-0.000700907,0.00365715,0.000456937,-0.226707,0.00230096,0.0105957,1518,1695,8.9117,-30.7557
301,-671,8.9165,30.5662,0.00311415,0.000851694,-0.000798593,0.00336763,0.000598211,-0.307355,0.00207464,0.0107683,1525,1695,8.91649,-30.5662
308,-671,8.93701,30.3406,0.00266367,0.00113483,-0.000859661,0.00304962,0.000748877,-0.421987,0.00183512,0.0118942,1532,1695,8.93702,-30.3406
315,-671,8.97107,30.0762,0.00219582,0.00133412,-0.000873416,0.00273888,0.000791069,-0.556264,0.00162762,0.013381,1539,1695,8.97103,-30.0762
322,-671,8.97205,29.844,0.00175704,0.00142962,-0.000847434,0.00245643,0.000730229,-0.689985,0.00145656,0.0156559,1546,1695,8.97208,-29.844
329,-671,8.93896,29.6028,0.00136084,0.00134692,-0.000799649,0.00215356,0.000554199,-0.781045,0.00129124,0.0144987,1553,1695,8.93896,-29.6028
336,-671,8.94861,29.3054,0.000957697,0.00113363,-0.000667803,0.00171924,0.000372092,-0.850884,0.00104446,0.0110246,1560,1695,8.94859,-29.3054
343,-671,8.96997,29.0028,0.00061936,0.000478907,-0.000388377,0.000943808,0.000154459,-0.695955,0.000584562,0.0099635,1567,1695,8.96993,-29.0028
350,-671,8.96399,28.7445,0.000360347,-0.000798334,-1.85561e-06,0.00036035,-0.000798337,-0.00160148,0.000684714,0.0101819,1574,1695,8.96393,-28.7445
357,-671,8.94373,28.4304,9.08675e-05,-0.00231228,0.000385879,0.000151309,-0.00237272,0.155371,0.00163458,0.0102928,1581,1695,8.9437,-28.4304
364,-671,8.93359,28.1361,-0.000263506,-0.00416801,0.000977355,-3.25239e-05,-0.004399,0.232075,0.00292188,0.012556,1588,1695,8.93358,-28.1362
371,-671,8.92224,27.8646,-0.000535479,-0.00619966,0.00159268,-0.000118358,-0.00661678,0.256145,0.00437227,0.0143027,1595,1695,8.9222,-27.8647
378,-671,8.91162,27.5645,-0.000817986,-0.00852295,0.00231699,-0.000174908,-0.00916603,0.270734,0.00605322,0.0117953,1602,1695,8.91164,-27.5644
385,-671,8.87842,27.2401,-0.00109331,-0.0111309,0.00305408,-0.000237099,-0.0119871,0.273334,0.00791356,0.0135595,1609,1695,8.87844,-27.2401
392,-671,8.82263,26.9845,-0.00141094,-0.0141035,0.00388276,-0.000317386,-0.015197,0.274532,0.0100272,0.0184796,1616,1695,8.82258,-26.9846
399,-671,8.80505,26.6377,-0.00198465,-0.0171683,0.00453774,-0.000731876,-0.018421,0.269369,0.0120441,0.0165885,1623,1695,8.80507,-26.6377
406,-671,8.86108,26.2878,-0.00288139,-0.0198899,0.00535169,-0.00133762,-0.0214337,0.280841,0.0138648,0.0290747,1630,1695,8.86108,-26.2879
413,-671,8.76611,26.1782,-0.00368995,-0.0224089,0.00603661,-0.00191208,-0.0241868,0.286416,0.0155265,0.0468056,1637,1695,8.76613,-26.1783
420,-671,8.79431,26.0878,0,0,0,0,0,0,0,-1,1644,1695,8.79426,-26.0878
427,-671,9.31738,21.7188,0,0,0,0,0,0,0,-1,1651,1695,9.31735,-21.7187
434,-671,9.66528,26.177,0,0,0,0,0,0,0,-1,1658,1695,9.66528,-26.177
441,-671,8.34961,20.6522,0,0,0,0,0,0,0,-1,1665,1695,8.34964,-20.6522
448,-671,7.44873,20.2306,0,0,0,0,0,0,0,-1,1672,1695,7.44872,-20.2306
455,-671,6.62805,19.8612,0,0,0,0,0,0,0,-1,1679,1695,6.62811,-19.8612
462,-671,5.86255,4.47961,0,0,0,0,0,0,0,-1,1686,1695,5.8625,-4.4796
469,-671,3.71301,3.76978,0,0,0,0,0,0,0,-1,1693,1695,3.71297,-3.76974
476,-671,3.75574,3.18848,0,0,0,0,0,0,0,-1,1700,1695,3.7558,-3.18847
483,-671,7.81824,12.1041,0,0,0,0,0,0,0,-1,1707,1695,7.81826,-12.1041
490,-671,0,0,0,0,0,0,0,0,0,-1,1714,1695,0,0
497,-671,0,0,0,0,0,0,0,0,0,-1,1721,1695,0,0
504,-671,0,0,0,0,0,0,0,0,0,-1,1728,1695,0,0
511,-671,0,0,0,0,0,0,0,0,0,-1,1735,1695,0,0
518,-671,0,0,0,0,0,0,0,0,0,-1,1742,1695,0,0
525,-671,0,0,0,0,0,0,0,0,0,-1,1749,1695,0,0
532,-671,0,0,0,0,0,0,0,0,0,-1,1756,1695,0,0
539,-671,0,0,0,0,0,0,0,0,0,-1,1763,1695,0,0
546,-671,0,0,0,0,0,0,0,0,0,-1,1770,1695,0,0
553,-671,0,0,0,0,0,0,0,0,0,-1,1777,1695,0,0
560,-671,0,0,0,0,0,0,0,0,0,-1,1784,1695,0,0
567,-671,0,0,0,0,0,0,0,0,0,-1,1791,1695,0,0
574,-671,0,0,0,0,0,0,0,0,0,-1,1798,1695,0,0
581,-671,0,0,0,0,0,0,0,0,0,-1,1805,1695,0,0
588,-671,0,0,0,0,0,0,0,0,0,-1,1812,1695,0,0
595,-671,0,0,0,0,0,0,0,0,0,-1,1819,1695,0,0
602,-671,0,0,0,0,0,0,0,0,0,-1,1826,1695,0,0
609,-671,0,0,0,0,0,0,0,0,0,-1,1833,1695,0,0
616,-671,0,0,0,0,0,0,0,0,0,-1,1840,1695,0,0
623,-671,0,0,0,0,0,0,0,0,0,-1,1847,1695,0,0
630,-671,0,0,0,0,0,0,0,0,0,-1,1854,1695,0,0
637,-671,0,0,0,0,0,0,0,0,0,-1,1861,1695,0,0
644,-671,0,0,0,0,0,0,0,0,0,-1,1868,1695,0,0
651,-671,0,0,0,0,0,0,0,0,0,-1,1875,1695,0,0
658,-671,0,0,0,0,0,0,0,0,0,-1,1882,1695,0,0
665,-671,0,0,0,0,0,0,0,0,0,-1,1889,1695,0,0
672,-671,0,0,0,0,0,0,0,0,0,-1,1896,1695,0,0
679,-671,0,0,0,0,0,0,0,0,0,-1,1903,1695,0,0
686,-671,0,0,0,0,0,0,0,0,0,-1,1910,1695,0,0
693,-671,0,0,0,0,0,0,0,0,0,-1,1917,1695,0,0
700,-671,0,0,0,0,0,0,0,0,0,-1,1924,1695,0,0
707,-671,0,0,0,0,0,0,0,0,0,-1,1931,1695,0,0
714,-671,0,0,0,0,0,0,0,0,0,-1,1938,1695,0,0
721,-671,0,0,0,0,0,0,0,0,0,-1,1945,1695,0,0
728,-671,0,0,0,0,0,0,0,0,0,-1,1952,1695,0,0
735,-671,0,0,0,0,0,0,0,0,0,-1,1959,1695,0,0
742,-671,0,0,0,0,0,0,0,0,0,-1,1966,1695,0,0
749,-671,0,0,0,0,0,0,0,0,0,-1,1973,1695,0,0
756,-671,0,0,0,0,0,0,0,0,0,-1,1980,1695,0,0
763,-671,0,0,0,0,0,0,0,0,0,-1,1987,1695,0,0
770,-671,0,0,0,0,0,0,0,0,0,-1,1994,1695,0,0
777,-671,0,0,0,0,0,0,0,0,0,-1,2001,1695,0,0
784,-671,0,0,0,0,0,0,0,0,0,-1,2008,1695,0,0
791,-671,0,0,0,0,0,0,0,0,0,-1,2015,1695,0,0
798,-671,0,0,0,0,0,0,0,0,0,-1,2022,1695,0,0
805,-671,0,0,0,0,0,0,0,0,0,-1,2029,1695,0,0
812,-671,0,0,0,0,0,0,0,0,0,-1,2036,1695,0,0
-700,-678,0,0,0,0,0,0,0,0,0,-1,524,1702,0,0
-693,-678,0,0,0,0,0,0,0,0,0,-1,531,1702,0,0
-686,-678,0,0,0,0,0,0,0,0,0,-1,538,1702,0,0
-679,-678,0,0,0,0,0,0,0,0,0,-1,545,1702,0,0
-672,-678,0,0,0,0,0,0,0,0,0,-1,552,1702,0,0
-665,-678,0,0,0,0,0,0,0,0,0,-1,559,1702,0,0
-658,-678,0,0,0,0,0,0,0,0,0,-1,566,1702,0,0
-651,-678,0,0,0,0,0,0,0,0,0,-1,573,1702,0,0
-644,-678,0,0,0,0,0,0,0,0,0,-1,580,1702,0,0
-637,-678,0,0,0,0,0,0,0,0,0,-1,587,1702,0,0
-630,-678,0,0,0,0,0,0,0,0,0,-1,594,1702,0,0
-623,-678,0,0,0,0,0,0,0,0,0,-1,601,1702,0,0
-616,-678,0,0,0,0,0,0,0,0,0,-1,608,1702,0,0
-609,-678,0,0,0,0,0,0,0,0,0,-1,615,1702,0,0
-602,-678,0,0,0,0,0,0,0,0,0,-1,622,1702,0,0
-595,-678,0,0,0,0,0,0,0,0,0,-1,629,1702,0,0
-588,-678,0,0,0,0,0,0,0,0,0,-1,636,1702,0,0
-581,-678,0,0,0,0,0,0,0,0,0,-1,643,1702,0,0
-574,-678,0,0,0,0,0,0,0,0,0,-1,650,1702,0,0
-567,-678,0,0,0,0,0,0,0,0,0,-1,657,1702,0,0
-560,-678,0,0,0,0,0,0,0,0,0,-1,664,1702,0,0
-553,-678,0,0,0,0,0,0,0,0,0,-1,671,1702,0,0
-546,-678,0,0,0,0,0,0,0,0,0,-1,678,1702,0,0
-539,-678,0,0,0,0,0,0,0,0,0,-1,685,1702,0,0
-532,-678,0,0,0,0,0,0,0,0,0,-1,692,1702,0,0
-525,-678,0,0,0,0,0,0,0,0,0,-1,699,1702,0,0
-518,-678,0,0,0,0,0,0,0,0,0,-1,706,1702,0,0
-511,-678,0,0,0,0,0,0,0,0,0,-1,713,1702,0,0
-504,-678,0,0,0,0,0,0,0,0,0,-1,720,1702,0,0
-497,-678,0,0,0,0,0,0,0,0,0,-1,727,1702,0,0
-490,-678,0,0,0,0,0,0,0,0,0,-1,734,1702,0,0
-483,-678,0,0,0,0,0,0,0,0,0,-1,741,1702,0,0
-476,-678,0,0,0,0,0,0,0,0,0,-1,748,1702,0,0
-469,-678,0,0,0,0,0,0,0,0,0,-1,755,1702,0,0
-462,-678,0,0,0,0,0,0,0,0,0,-1,762,1702,0,0
-455,-678,0,0,0,0,0,0,0,0,0,-1,769,1702,0,0
-448,-678,0,0,0,0,0,0,0,0,0,-1,776,1702,0,0
-441,-678,0,0,0,0,0,0,0,0,0,-1,783,1702,0,0
-434,-678,0,0,0,0,0,0,0,0,0,-1,790,1702,0,0
-427,-678,0,0,0,0,0,0,0,0,0,-1,797,1702,0,0
-420,-678,0,0,0,0,0,0,0,0,0,-1,804,1702,0,0
-413,-678,0,0,0,0,0,0,0,0,0,-1,811,1702,0,0
-406,-678,0,0,0,0,0,0,0,0,0,-1,818,1702,0,0
-399,-678,0,0,0,0,0,0,0,0,0,-1,825,1702,0,0
-392,-678,0,0,0,0,0,0,0,0,0,-1,832,1702,0,0
-385,-678,0,0,0,0,0,0,0,0,0,-1,839,1702,0,0
-378,-678,0,0,0,0,0,0,0,0,0,-1,846,1702,0,0
-371,-678,0,0,0,0,0,0,0,0,0,-1,853,1702,0,0
-364,-678,0,0,0,0,0,0,0,0,0,-1,860,1702,0,0
-357,-678,0,0,0,0,0,0,0,0,0,-1,867,1702,0,0
-350,-678,-5.79944,6.11865,0,0,0,0,0,0,0,-1,874,1702,-5.79942,-6.11864
-343,-678,-6.44891,4.52759,0,0,0,0,0,0,0,-1,881,1702,-6.4489,-4.52758
-336,-678,-6.91888,2.99438,0,0,0,0,0,0,0,-1,888,1702,-6.9189,-2.99435
-329,-678,-7.14575,1.29761,0,0,0,0,0,0,0,-1,895,1702,-7.14577,-1.29755
-322,-678,3.78455,20.3917,0,0,0,0,0,0,0,-1,902,1702,3.78457,-20.3917
-315,-678,4.74176,22.3245,0,0,0,0,0,0,0,-1,909,1702,4.74178,-22.3244
-308,-678,6.20105,22.7914,0,0,0,0,0,0,0,-1,916,1702,6.20108,-22.7914
-301,-678,5.29895,22.3046,0,0,0,0,0,0,0,-1,923,1702,5.29895,-22.3045
-294,-678,6.36548,24.2921,0,0,0,0,0,0,0,-1,930,1702,6.36551,-24.2921
-287,-678,6.15948,25.0936,0.0141037,-0.0321258,-0.00933362,0.015917,-0.0339391,-0.191887,0.0294046,0.0473401,937,1702,6.15948,-25.0936
-280,-678,6.15283,25.7181,0.0123431,-0.0292523,-0.00882403,0.0141376,-0.0310468,-0.20063,0.0266892,0.0435099,944,1702,6.15284,-25.7181
-273,-678,6.15967,25.799,0.0104476,-0.0257349,-0.0080886,0.0121735,-0.0274607,-0.21022,0.0234434,0.0417673,951,1702,6.15968,-25.7989
-266,-678,6.17676,26.1218,0.00869383,-0.0220857,-0.00702914,0.0102231,-0.0236149,-0.214223,0.0200399,0.0374413,958,1702,6.17674,-26.1218
-259,-678,6.14807,26.4329,0.00689701,-0.0187875,-0.00558906,0.00806051,-0.019951,-0.205243,0.016651,0.0247121,965,1702,6.14809,-26.4329
-252,-678,6.12579,26.708,0.00524472,-0.0154175,-0.00434725,0.00612211,-0.0162949,-0.199151,0.0133793,0.0177243,972,1702,6.1258,-26.7081
-245,-678,6.12946,27.0471,0.00385201,-0.0122905,-0.00318045,0.00445603,-0.0128945,-0.187682,0.0104048,0.0178014,979,1702,6.12947,-27.0472
-238,-678,6.11761,27.3669,0.00272054,-0.00953783,-0.00217362,0.00309455,-0.00991184,-0.170399,0.00784555,0.0141611,986,1702,6.11762,-27.367
-231,-678,6.08826,27.6844,0.00195081,-0.00733356,-0.00139162,0.00215491,-0.00753766,-0.145626,0.00587662,0.0116193,993,1702,6.08829,-27.6845
-224,-678,6.06604,27.9779,0.00103014,-0.00491109,-0.00056869,0.00108408,-0.00496503,-0.094575,0.00372435,0.0123509,1000,1702,6.06602,-27.9779
-217,-678,6.07245,28.2816,0.000455251,-0.00272909,0.000578708,0.000557162,-0.002831,0.174313,0.00209786,0.0123366,1007,1702,6.07247,-28.2816
-210,-678,6.0578,28.6331,0.000508079,-0.00179616,0.000769925,0.000741659,-0.00202974,0.294555,0.00165668,0.0128886,1014,1702,6.05779,-28.633
-203,-678,6.05713,28.9032,0.000589781,-0.000979876,0.00085573,0.000966085,-0.00135618,0.414294,0.00134705,0.0181779,1021,1702,6.0571,-28.9032
-196,-678,6.04468,29.1843,0.000589954,-0.00017842,0.000873021,0.00115958,-0.000748049,0.578117,0.00110988,0.0185143,1028,1702,6.04469,-29.1843
-189,-678,6.0282,29.5007,0.000507494,0.000564102,0.00081206,0.00134835,-0.000276755,0.802818,0.00100395,0.0109679,1035,1702,6.02816,-29.5007
-182,-678,6.03284,29.7867,0.000564954,0.00118472,0.000711897,0.00165125,9.84184e-05,0.990675,0.00106954,0.010305,1042,1702,6.03289,-29.7867
-175,-678,6.04138,30.0408,0.0007353,0.00196513,0.000655812,0.00224922,0.00045121,1.16201,0.001374,0.0108763,1049,1702,6.04136,-30.0408
-168,-678,6.03552,30.2961,0.000926367,0.00265485,0.000547544,0.0028137,0.000767516,1.28843,0.00167947,0.0107549,1056,1702,6.03554,-30.2961
-161,-678,6.02747,30.5482,0.00117765,0.00341639,0.000443894,0.00350119,0.00109284,1.38203,0.00206843,0.00904026,1063,1702,6.02746,-30.5482
-154,-678,6.01672,30.7985,0.00144664,0.00441037,0.00032863,0.00444637,0.00141064,1.46168,0.00262364,0.00748006,1070,1702,6.01675,-30.7985
-147,-678,6.02856,31.0463,0.00171784,0.00538666,0.000216189,0.00539936,0.00170514,1.51214,0.00318705,0.00913391,1077,1702,6.02854,-31.0463
-140,-678,6.06006,31.298,0.00204719,0.00637615,0.000190332,0.0063845,0.00203884,1.52694,0.00376544,0.0117273,1084,1702,6.06002,-31.298
-133,-678,6.05981,31.5251,0.00240677,0.00733346,0.000209559,0.00734236,0.00239787,1.52836,0.00432327,0.0123194,1091,1702,6.05977,-31.5252
-126,-678,6.0675,31.7506,0.00279578,0.00840502,0.000280919,0.00841905,0.00278175,1.52088,0.00495306,0.0109205,1098,1702,6.06753,-31.7506
-119,-678,6.13867,32.1467,0.0032686,0.0090851,0.000290269,0.00909955,0.00325415,1.52106,0.00532416,0.0278048,1105,1702,6.13866,-32.1467
-112,-678,6.19458,32.4059,0.00368944,0.00971229,0.000409542,0.00974001,0.00366172,1.50321,0.0056808,0.0429947,1112,1702,6.19462,-32.4059
-105,-678,6.22961,32.6196,0.00390175,0.00987613,0.000611694,0.00993811,0.00383976,1.46981,0.00578695,0.0438247,1119,1702,6.22956,-32.6196
-98,-678,6.15479,32.6442,0.00403294,0.00987659,0.000656417,0.00994942,0.00396011,1.4603,0.00578399,0.0253791,1126,1702,6.1548,-32.6442
-91,-678,6.23657,32.5931,0,0,0,0,0,0,0,-1,1133,1702,6.23662,-32.5932
-84,-678,6.32349,33.0784,0,0,0,0,0,0,0,-1,1140,1702,6.32345,-33.0784
-77,-678,5.95154,29.1879,0,0,0,0,0,0,0,-1,1147,1702,5.95156,-29.1878
-70,-678,4.75891,19.6552,0,0,0,0,0,0,0,-1,1154,1702,4.75895,-19.6551
-63,-678,3.41687,11.0365,0,0,0,0,0,0,0,-1,1161,1702,3.41682,-11.0365
-56,-678,1.72388,6.13159,0,0,0,0,0,0,0,-1,1168,1702,1.72388,-6.13157
-49,-678,-0.241699,5.29895,0,0,0,0,0,0,0,-1,1175,1702,-0.241682,-5.29897
-42,-678,0.297119,3.90649,0,0,0,0,0,0,0,-1,1182,1702,0.297139,-3.90655
-35,-678,0.498413,3.64038,0,0,0,0,0,0,0,-1,1189,1702,0.498471,-3.64038
-28,-678,0.132446,3.55994,0,0,0,0,0,0,0,-1,1196,1702,0.132432,-3.55993
-21,-678,6.85706,34.2125,0,0,0,0,0,0,0,-1,1203,1702,6.85707,-34.2126
-14,-678,7.04578,34.4022,-0.027768,0.0553516,0.0217417,0.060695,-0.0331114,1.3298,0.0549341,0.0419437,1210,1702,7.04582,-34.4022
-7,-678,7.33093,34.7196,-0.0288914,0.0532377,0.0246516,0.0600689,-0.0357226,1.30047,0.0558975,0.0414688,1217,1702,7.3309,-34.7196
0,-678,7.7677,34.902,0,0,0,0,0,0,0,-1,1224,1702,7.76769,-34.902
7,-678,7.16968,33.8129,-0.0306468,0.0494716,0.0295215,0.0591744,-0.0403496,1.25325,0.0578018,0.0434575,1231,1702,7.16969,-33.8128
14,-678,6.3042,34.0236,-0.03114,0.0483285,0.0311114,0.0590593,-0.0418708,1.23866,0.0585531,0.0436257,1238,1702,6.30416,-34.0235
21,-678,7.40588,36.3552,-0.0313796,0.0477417,0.0318895,0.0589942,-0.0426322,1.23157,0.058927,0.0438531,1245,1702,7.40594,-36.3553
28,-678,7.24524,34.6774,-0.0309749,0.046826,0.0317114,0.0581138,-0.0422627,1.22883,0.0581927,0.0451333,1252,1702,7.24519,-34.6773
35,-678,7.27893,35.2744,-0.0297774,0.0455417,0.0302665,0.0561967,-0.0404325,1.2323,0.0560358,0.0408152,1259,1702,7.27894,-35.2744
42,-678,7.15662,35.4908,-0.0266421,0.0420455,0.0262875,0.0509513,-0.0355479,1.24415,0.0502036,0.0440949,1266,1702,7.15664,-35.4909
49,-678,7.35828,36.199,-0.0221499,0.0372842,0.0218801,0.0444702,-0.029336,1.25347,0.0429096,0.04665,1273,1702,7.35828,-36.199
56,-678,7.38831,36.4425,-0.0174775,0.0326675,0.0176653,0.0382657,-0.0230757,1.2639,0.0357756,0.046879,1280,1702,7.38833,-36.4425
63,-678,7.22339,36.1866,0,0,0,0,0,0,0,-1,1287,1702,7.22336,-36.1866
70,-678,7.50049,35.8113,0,0,0,0,0,0,0,-1,1294,1702,7.50054,-35.8113
77,-678,7.95129,34.9871,0,0,0,0,0,0,0,-1,1301,1702,7.95125,-34.987
84,-678,7.73926,35.1025,0,0,0,0,0,0,0,-1,1308,1702,7.7392,-35.1025
91,-678,5.69641,34.6819,0,0,0,0,0,0,0,-1,1315,1702,5.69647,-34.6819
98,-678,6.40894,34.4319,0,0,0,0,0,0,0,-1,1322,1702,6.40896,-34.4319
105,-678,6.85217,34.6063,0,0,0,0,0,0,0,-1,1329,1702,6.8522,-34.6063
112,-678,7.29053,34.433,0,0,0,0,0,0,0,-1,1336,1702,7.29047,-34.433
119,-678,6.1366,36.3757,0.025045,0.0211681,-0.0207747,0.0439715,0.00224162,-0.738878,0.0285964,0.0431691,1343,1702,6.13655,-36.3757
126,-678,7.90576,32.8016,0.0266264,0.0215579,-0.0188084,0.0430705,0.00511372,-0.718431,0.02717,0.0458548,1350,1702,7.90577,-32.8016
133,-678,8.08118,33.015,0.0273304,0.0207389,-0.0154547,0.0398369,0.00823237,-0.680346,0.0242835,0.0478493,1357,1702,8.08121,-33.015
140,-678,7.5979,33.8279,0.0268601,0.018565,-0.0108921,0.0343677,0.0110575,-0.603482,0.0202581,0.046562,1364,1702,7.59785,-33.8279
147,-678,7.40186,34.6154,0.0253131,0.0157179,-0.00612347,0.0282945,0.0127364,-0.453106,0.0163629,0.0455211,1371,1702,7.40182,-34.6153
154,-678,7.24976,35.3761,0,0,0,0,0,0,0,-1,1378,1702,7.2498,-35.3761
161,-678,8.81226,34.8624,0,0,0,0,0,0,0,-1,1385,1702,8.81229,-34.8624
168,-678,4.21863,5.25781,0,0,0,0,0,0,0,-1,1392,1702,4.21865,-5.25781
175,-678,5.21899,5.9635,0,0,0,0,0,0,0,-1,1399,1702,5.21894,-5.96346
182,-678,7.31262,6.75122,0,0,0,0,0,0,0,-1,1406,1702,7.3126,-6.75123
189,-678,5.96021,6.36853,0,0,0,0,0,0,0,-1,1413,1702,5.96018,-6.36851
196,-678,5.01599,8.15771,0,0,0,0,0,0,0,-1,1420,1702,5.01596,-8.15767
203,-678,4.64771,13.0559,0,0,0,0,0,0,0,-1,1427,1702,4.64766,-13.0559
210,-678,5.6532,18.5957,0,0,0,0,0,0,0,-1,1434,1702,5.65318,-18.5958
217,-678,6.88049,23.4835,0,0,0,0,0,0,0,-1,1441,1702,6.88047,-23.4835
224,-678,8.521,32.0977,0,0,0,0,0,0,0,-1,1448,1702,8.52098,-32.0977
231,-678,8.41162,32.8462,0,0,0,0,0,0,0,-1,1455,1702,8.41158,-32.8462
238,-678,8.67676,32.6547,0,0,0,0,0,0,0,-1,1462,1702,8.6767,-32.6547
245,-678,8.63782,32.4017,0.00286224,0.00055887,-1.40875e-05,0.00286233,0.000558784,-0.0061157,0.00175192,0.0437314,1469,1702,8.63787,-32.4017
252,-678,8.62012,32.1279,0.00281908,0.000146514,-0.00017915,0.00283103,0.000134558,-0.0666357,0.00184414,0.0302758,1476,1702,8.62014,-32.1279
259,-678,8.62903,31.9526,0.00282397,7.92505e-05,-0.000397946,0.00288051,2.27182e-05,-0.141116,0.00191281,0.0161499,1483,1702,8.62899,-31.9527
266,-678,8.65869,31.7355,0.00289715,-1.69232e-06,-0.000522977,0.00298861,-9.31562e-05,-0.17314,0.00202418,0.0112883,1490,1702,8.65874,-31.7355
273,-678,8.67017,31.5269,0.00293155,-2.54381e-05,-0.000546134,0.00302919,-0.000123081,-0.17692,0.00206171,0.0118238,1497,1702,8.67014,-31.5269
280,-678,8.67114,31.2998,0.0028721,0.000179971,-0.000576901,0.00299052,6.15552e-05,-0.202451,0.00197348,0.0121681,1504,1702,8.67116,-31.2998
287,-678,8.70288,31.0314,0.00275906,0.000379119,-0.000597925,0.00290083,0.000237345,-0.232811,0.00185983,0.0110072,1511,1702,8.70283,-31.0313
294,-678,8.69775,30.7856,0.0025909,0.000792802,-0.000694891,0.00282814,0.000555557,-0.329004,0.00173023,0.0115035,1518,1702,8.6977,-30.7857
301,-678,8.67114,30.5778,0.00236408,0.00114043,-0.000831454,0.00278455,0.000719951,-0.468206,0.00166898,0.0122837,1525,1702,8.67109,-30.5777
308,-678,8.6886,30.3484,0.00203911,0.00149025,-0.000946003,0.00274969,0.000779678,-0.644227,0.00163636,0.0134667,1532,1702,8.68855,-30.3483
315,-678,8.70898,30.0928,0.00168384,0.00161385,-0.000999274,0.00264873,0.000648957,-0.767897,0.00159416,0.0144873,1539,1702,8.70898,-30.0927
322,-678,8.68774,29.8645,0.00132285,0.00168212,-0.00102558,0.00254368,0.000461295,-0.872096,0.00156485,0.0176712,1546,1702,8.68778,-29.8645
329,-678,8.67871,29.5686,0.000956517,0.00154687,-0.00100751,0.00230155,0.000201839,-0.927899,0.00147171,0.0154294,1553,1702,8.67876,-29.5686
336,-678,8.66504,29.2806,0.000594521,0.00120216,-0.000866678,0.00181673,-2.00478e-05,-0.953983,0.00121789,0.0126454,1560,1702,8.66504,-29.2806
343,-678,8.67163,29.0135,0.000231974,0.000275534,-0.000564385,0.00081856,-0.000311051,-0.804684,0.000673765,0.0119938,1567,1702,8.67157,-29.0136
350,-678,8.6803,28.7405,-2.9407e-05,-0.00139356,-5.91087e-05,-2.68506e-05,-0.00139611,-0.0432221,0.000921922,0.0117035,1574,1702,8.68026,-28.7405
357,-678,8.66504,28.4562,-0.000273304,-0.00335008,0.000488759,-0.000197529,-0.00342585,0.153812,0.00222099,0.00929033,1581,1702,8.66499,-28.4562
364,-678,8.65405,28.1667,-0.00062302,-0.00568297,0.00127137,-0.000321538,-0.00598445,0.232831,0.00388689,0.0115993,1588,1702,8.65409,-28.1668
371,-678,8.62891,27.8679,-0.000868339,-0.00831135,0.00213372,-0.000300048,-0.00887964,0.260296,0.00582232,0.0124928,1595,1702,8.62893,-27.8679
378,-678,8.60693,27.5602,-0.00117338,-0.0114058,0.0031775,-0.000266962,-0.0123123,0.277881,0.00812065,0.0124753,1602,1702,8.60697,-27.5601
385,-678,8.59021,27.2629,-0.00151433,-0.014824,0.00426649,-0.000264117,-0.0160743,0.28505,0.0106292,0.0148035,1609,1702,8.59026,-27.2629
392,-678,8.5863,27.0438,-0.00191635,-0.0187895,0.00546904,-0.000298764,-0.0204071,0.287573,0.0135062,0.0270325,1616,1702,8.58636,-27.0438
399,-678,8.56274,26.9659,-0.00258987,-0.0229558,0.00650397,-0.000690018,-0.0248556,0.284199,0.0163453,0.0353373,1623,1702,8.56274,-26.9659
406,-678,8.47058,26.7883,-0.00359994,-0.0267115,0.00771492,-0.00126126,-0.0290502,0.294333,0.0189604,0.0453341,1630,1702,8.47056,-26.7884
413,-678,8.34595,26.3998,-0.00458954,-0.0303345,0.00880681,-0.00186521,-0.0330589,0.300007,0.0214446,0.0466973,1637,1702,8.34591,-26.3998
420,-678,8.14063,26.0012,0,0,0,0,0,0,0,-1,1644,1702,8.14064,-26.0012
427,-678,4.57483,10.1555,0,0,0,0,0,0,0,-1,1651,1702,4.57485,-10.1555
434,-678,9.48169,21.6665,0,0,0,0,0,0,0,-1,1658,1702,9.48169,-21.6665
441,-678,8.64539,21.1864,0,0,0,0,0,0,0,-1,1665,1702,8.64536,-21.1865
448,-678,7.62244,20.7195,0,0,0,0,0,0,0,-1,1672,1702,7.6224,-20.7195
455,-678,5.44678,5.54297,0,0,0,0,0,0,0,-1,1679,1702,5.44676,-5.54294
462,-678,3.86792,2.87402,0,0,0,0,0,0,0,-1,1686,1702,3.86796,-2.87406
469,-678,2.26587,1.98755,0,0,0,0,0,0,0,-1,1693,1702,2.26592,-1.98755
476,-678,0,0,0,0,0,0,0,0,0,-1,1700,1702,0,0
483,-678,0,0,0,0,0,0,0,0,0,-1,1707,1702,0,0
490,-678,0,0,0,0,0,0,0,0,0,-1,1714,1702,0,0
497,-678,0,0,0,0,0,0,0,0,0,-1,1721,1702,0,0
504,-678,0,0,0,0,0,0,0,0,0,-1,1728,1702,0,0
511,-678,0,0,0,0,0,0,0,0,0,-1,1735,1702,0,0
518,-678,0,0,0,0,0,0,0,0,0,-1,1742,1702,0,0
525,-678,0,0,0,0,0,0,0,0,0,-1,1749,1702,0,0
532,-678,0,0,0,0,0,0,0,0,0,-1,1756,1702,0,0
539,-678,0,0,0,0,0,0,0,0,0,-1,1763,1702,0,0
546,-678,0,0,0,0,0,0,0,0,0,-1,1770,1702,0,0
553,-678,0,0,0,0,0,0,0,0,0,-1,1777,1702,0,0
560,-678,0,0,0,0,0,0,0,0,0,-1,1784,1702,0,0
567,-678,0,0,0,0,0,0,0,0,0,-1,1791,1702,0,0
574,-678,0,0,0,0,0,0,0,0,0,-1,1798,1702,0,0
581,-678,0,0,0,0,0,0,0,0,0,-1,1805,1702,0,0
588,-678,0,0,0,0,0,0,0,0,0,-1,1812,1702,0,0
595,-678,0,0,0,0,0,0,0,0,0,-1,1819,1702,0,0
602,-678,0,0,0,0,0,0,0,0,0,-1,1826,1702,0,0
609,-678,0,0,0,0,0,0,0,0,0,-1,1833,1702,0,0
616,-678,0,0,0,0,0,0,0,0,0,-1,1840,1702,0,0
623,-678,0,0,0,0,0,0,0,0,0,-1,1847,1702,0,0
630,-678,0,0,0,0,0,0,0,0,0,-1,1854,1702,0,0
637,-678,0,0,0,0,0,0,0,0,0,-1,1861,1702,0,0
644,-678,0,0,0,0,0,0,0,0,0,-1,1868,1702,0,0
651,-678,0,0,0,0,0,0,0,0,0,-1,1875,1702,0,0
658,-678,0,0,0,0,0,0,0,0,0,-1,1882,1702,0,0
665,-678,0,0,0,0,0,0,0,0,0,-1,1889,1702,0,0
672,-678,0,0,0,0,0,0,0,0,0,-1,1896,1702,0,0
679,-678,0,0,0,0,0,0,0,0,0,-1,1903,1702,0,0
686,-678,0,0,0,0,0,0,0,0,0,-1,1910,1702,0,0
693,-678,0,0,0,0,0,0,0,0,0,-1,1917,1702,0,0
700,-678,0,0,0,0,0,0,0,0,0,-1,1924,1702,0,0
707,-678,0,0,0,0,0,0,0,0,0,-1,1931,1702,0,0
714,-678,0,0,0,0,0,0,0,0,0,-1,1938,1702,0,0
721,-678,0,0,0,0,0,0,0,0,0,-1,1945,1702,0,0
728,-678,0,0,0,0,0,0,0,0,0,-1,1952,1702,0,0
735,-678,0,0,0,0,0,0,0,0,0,-1,1959,1702,0,0
742,-678,0,0,0,0,0,0,0,0,0,-1,1966,1702,0,0
749,-678,0,0,0,0,0,0,0,0,0,-1,1973,1702,0,0
756,-678,0,0,0,0,0,0,0,0,0,-1,1980,1702,0,0
763,-678,0,0,0,0,0,0,0,0,0,-1,1987,1702,0,0
770,-678,0,0,0,0,0,0,0,0,0,-1,1994,1702,0,0
777,-678,0,0,0,0,0,0,0,0,0,-1,2001,1702,0,0
784,-678,0,0,0,0,0,0,0,0,0,-1,2008,1702,0,0
791,-678,0,0,0,0,0,0,0,0,0,-1,2015,1702,0,0
798,-678,0,0,0,0,0,0,0,0,0,-1,2022,1702,0,0
805,-678,0,0,0,0,0,0,0,0,0,-1,2029,1702,0,0
812,-678,0,0,0,0,0,0,0,0,0,-1,2036,1702,0,0
-700,-685,0,0,0,0,0,0,0,0,0,-1,524,1709,0,0
-693,-685,0,0,0,0,0,0,0,0,0,-1,531,1709,0,0
-686,-685,0,0,0,0,0,0,0,0,0,-1,538,1709,0,0
-679,-685,0,0,0,0,0,0,0,0,0,-1,545,1709,0,0
-672,-685,0,0,0,0,0,0,0,0,0,-1,552,1709,0,0
-665,-685,0,0,0,0,0,0,0,0,0,-1,559,1709,0,0
-658,-685,0,0,0,0,0,0,0,0,0,-1,566,1709,0,0
-651,-685,0,0,0,0,0,0,0,0,0,-1,573,1709,0,0
-644,-685,0,0,0,0,0,0,0,0,0,-1,580,1709,0,0
-637,-685,0,0,0,0,0,0,0,0,0,-1,587,1709,0,0
-630,-685,0,0,0,0,0,0,0,0,0,-1,594,1709,0,0
-623,-685,0,0,0,0,0,0,0,0,0,-1,601,1709,0,0
-616,-685,0,0,0,0,0,0,0,0,0,-1,608,1709,0,0
-609,-685,0,0,0,0,0,0,0,0,0,-1,615,1709,0,0
-602,-685,0,0,0,0,0,0,0,0,0,-1,622,1709,0,0
-595,-685,0,0,0,0,0,0,0,0,0,-1,629,1709,0,0
-588,-685,0,0,0,0,0,0,0,0,0,-1,636,1709,0,0
-581,-685,0,0,0,0,0,0,0,0,0,-1,643,1709,0,0
-574,-685,0,0,0,0,0,0,0,0,0,-1,650,1709,0,0
-567,-685,0,0,0,0,0,0,0,0,0,-1,657,1709,0,0
-560,-685,0,0,0,0,0,0,0,0,0,-1,664,1709,0,0
-553,-685,0,0,0,0,0,0,0,0,0,-1,671,1709,0,0
-546,-685,0,0,0,0,0,0,0,0,0,-1,678,1709,0,0
-539,-685,0,0,0,0,0,0,0,0,0,-1,685,1709,0,0
-532,-685,0,0,0,0,0,0,0,0,0,-1,692,1709,0,0
-525,-685,0,0,0,0,0,0,0,0,0,-1,699,1709,0,0
-518,-685,0,0,0,0,0,0,0,0,0,-1,706,1709,0,0
-511,-685,0,0,0,0,0,0,0,0,0,-1,713,1709,0,0
-504,-685,0,0,0,0,0,0,0,0,0,-1,720,1709,0,0
-497,-685,0,0,0,0,0,0,0,0,0,-1,727,1709,0,0
-490,-685,0,0,0,0,0,0,0,0,0,-1,734,1709,0,0
-483,-685,0,0,0,0,0,0,0,0,0,-1,741,1709,0,0
-476,-685,0,0,0,0,0,0,0,0,0,-1,748,1709,0,0
-469,-685,0,0,0,0,0,0,0,0,0,-1,755,1709,0,0
-462,-685,0,0,0,0,0,0,0,0,0,-1,762,1709,0,0
-455,-685,0,0,0,0,0,0,0,0,0,-1,769,1709,0,0
-448,-685,0,0,0,0,0,0,0,0,0,-1,776,1709,0,0
-441,-685,0,0,0,0,0,0,0,0,0,-1,783,1709,0,0
-434,-685,0,0,0,0,0,0,0,0,0,-1,790,1709,0,0
-427,-685,0,0,0,0,0,0,0,0,0,-1,797,1709,0,0
-420,-685,0,0,0,0,0,0,0,0,0,-1,804,1709,0,0
-413,-685,0,0,0,0,0,0,0,0,0,-1,811,1709,0,0
-406,-685,0,0,0,0,0,0,0,0,0,-1,818,1709,0,0
-399,-685,0,0,0,0,0,0,0,0,0,-1,825,1709,0,0
-392,-685,0,0,0,0,0,0,0,0,0,-1,832,1709,0,0
-385,-685,0,0,0,0,0,0,0,0,0,-1,839,1709,0,0
-378,-685,0,0,0,0,0,0,0,0,0,-1,846,1709,0,0
-371,-685,0,0,0,0,0,0,0,0,0,-1,853,1709,0,0
-364,-685,0,0,0,0,0,0,0,0,0,-1,860,1709,0,0
-357,-685,0,0,0,0,0,0,0,0,0,-1,867,1709,0,0
-350,-685,0,0,0,0,0,0,0,0,0,-1,874,1709,0,0
-343,-685,-5.98505,6.56335,0,0,0,0,0,0,0,-1,881,1709,-5.98505,-6.56329
-336,-685,-6.51312,5.10571,0,0,0,0,0,0,0,-1,888,1709,-6.51311,-5.10575
-329,-685,-6.81384,3.34106,0,0,0,0,0,0,0,-1,895,1709,-6.81385,-3.341
-322,-685,3.83191,16.7219,0,0,0,0,0,0,0,-1,902,1709,3.8319,-16.7219
-315,-685,5.15784,21.4388,0,0,0,0,0,0,0,-1,909,1709,5.15783,-21.4389
-308,-685,6.36969,21.0303,0,0,0,0,0,0,0,-1,916,1709,6.36968,-21.0302
-301,-685,7.71271,20.1454,0,0,0,0,0,0,0,-1,923,1709,7.71272,-20.1454
-294,-685,5.5744,23.4772,0,0,0,0,0,0,0,-1,930,1709,5.57441,-23.4771
-287,-685,6.64423,25.4269,0,0,0,0,0,0,0,-1,937,1709,6.64421,-25.4269
-280,-685,6.72589,25.9862,0.0201616,-0.0405942,-0.0137041,0.0231096,-0.0435422,-0.211893,0.0390795,0.0459871,944,1709,6.72589,-25.9862
-273,-685,6.37463,25.8768,0.0169903,-0.0355676,-0.0123824,0.0197615,-0.0383387,-0.220168,0.0341109,0.0467109,951,1709,6.37462,-25.8768
-266,-685,6.60535,26.1677,0,0,0,0,0,0,0,-1,958,1709,6.60535,-26.1677
-259,-685,6.51959,26.5396,0.0109014,-0.0258229,-0.00830565,0.0126925,-0.027614,-0.212392,0.0237966,0.0449085,965,1709,6.5196,-26.5396
-252,-685,6.39679,26.8892,0.00814298,-0.0210499,-0.00632125,0.00945296,-0.0223599,-0.204342,0.0188643,0.0369905,972,1709,6.39677,-26.8892
-245,-685,6.41644,27.0981,0.00585319,-0.0168061,-0.0045414,0.00672949,-0.0176824,-0.190616,0.0145594,0.0324999,979,1709,6.41644,-27.0982
-238,-685,6.48096,27.3832,0.00400639,-0.0131403,-0.00307222,0.00454023,-0.0136741,-0.172046,0.0109479,0.0247874,986,1709,6.48097,-27.3832
-231,-685,6.41772,27.7269,0.00272272,-0.0101696,-0.00189683,0.002996,-0.0104429,-0.14309,0.00814635,0.0164337,993,1709,6.41771,-27.7269
-224,-685,6.36969,27.9995,0.00128017,-0.00704636,-0.00077675,0.00135201,-0.0071182,-0.0922258,0.00525444,0.0142316,1000,1709,6.36971,-27.9995
-217,-685,6.35681,28.2964,0.000365341,-0.00413688,0.000847233,0.000519496,-0.00429104,0.179982,0.00304865,0.0101434,1007,1709,6.35682,-28.2964
-210,-685,6.34546,28.6425,0.000339968,-0.00297385,0.00121231,0.000736114,-0.00337,0.315832,0.00252802,0.0136968,1014,1709,6.34545,-28.6425
-203,-685,6.34583,28.9364,0.000375915,-0.00192539,0.00143872,0.00106752,-0.00261699,0.448096,0.00218906,0.0150658,1021,1709,6.34587,-28.9364
-196,-685,6.33142,29.1979,0.000318062,-0.000881425,0.00153731,0.00136847,-0.00193184,0.599416,0.00191467,0.0139681,1028,1709,6.33145,-29.1979
-189,-685,6.31519,29.4789,0.000183893,2.397e-05,0.00152135,0.00162738,-0.00141951,0.759142,0.00176049,0.00971088,1035,1709,6.31518,-29.4789
-182,-685,6.30273,29.7742,0.000191735,0.000758031,0.0014552,0.00195738,-0.00100761,0.881486,0.00174087,0.0139046,1042,1709,6.30279,-29.7742
-175,-685,6.29626,30.0408,0.000306522,0.00159808,0.00141924,0.00251155,-0.000606953,0.998907,0.00190912,0.0136702,1049,1709,6.29625,-30.0407
-168,-685,6.30359,30.3018,0.000463831,0.0022025,0.00130599,0.00290204,-0.000235701,1.07905,0.00201785,0.0105666,1056,1709,6.30361,-30.3017
-161,-685,6.30481,30.5725,0.000652732,0.00284052,0.00112295,0.00331431,0.000178943,1.17154,0.00215237,0.0110811,1063,1709,6.3048,-30.5725
-154,-685,6.30273,30.8326,0.00087851,0.00369212,0.000884724,0.00394719,0.000623438,1.2901,0.00245023,0.00992674,1070,1709,6.30279,-30.8326
-147,-685,6.30188,31.0668,0.0011155,0.00441958,0.000691201,0.00455834,0.000976734,1.37267,0.0027713,0.00912483,1077,1709,6.3019,-31.0668
-140,-685,6.29517,31.2823,0.00139559,0.00514506,0.000561099,0.00522723,0.00131342,1.42539,0.00313995,0.0118818,1084,1709,6.29512,-31.2824
-133,-685,6.3064,31.5118,0.00171713,0.005808,0.000483224,0.00586431,0.00166082,1.4548,0.00349023,0.0111495,1091,1709,6.30635,-31.5119
-126,-685,6.31824,31.7439,0.00206538,0.00649414,0.000429885,0.00653549,0.00202404,1.47492,0.00386329,0.00956363,1098,1709,6.31818,-31.7438
-119,-685,6.3396,31.954,0.00246485,0.00691358,0.000373808,0.00694477,0.00243366,1.48755,0.00406893,0.0134524,1105,1709,6.33962,-31.954
-112,-685,6.34546,32.1572,0.00281771,0.00721816,0.000396784,0.00725365,0.00278222,1.48159,0.00422558,0.0134412,1112,1709,6.34543,-32.1573
-105,-685,6.34131,32.3588,0.00303412,0.00711376,0.000464218,0.00716592,0.00298196,1.45891,0.0041566,0.0130178,1119,1709,6.34133,-32.3588
-98,-685,6.42761,32.5223,0.00320409,0.00677432,0.000426339,0.00682453,0.00315389,1.45358,0.00394391,0.0172255,1126,1709,6.42759,-32.5223
-91,-685,6.39624,32.658,0.00333296,0.0061829,8.388e-05,0.00618537,0.00333049,1.5414,0.00357464,0.0244089,1133,1709,6.39623,-32.658
-84,-685,6.39502,32.8218,0.0036167,0.00505363,-0.000325793,0.00512405,0.00354628,-1.35793,0.00303027,0.0401227,1140,1709,6.39502,-32.8218
-77,-685,6.43628,33.125,0,0,0,0,0,0,0,-1,1147,1709,6.43629,-33.125
-70,-685,6.54846,33.3485,0,0,0,0,0,0,0,-1,1154,1709,6.5485,-33.3485
-63,-685,6.03015,29.7728,0,0,0,0,0,0,0,-1,1161,1709,6.0302,-29.7728
-56,-685,3.93909,15.8704,0,0,0,0,0,0,0,-1,1168,1709,3.93905,-15.8704
-49,-685,3.07471,9.86011,0,0,0,0,0,0,0,-1,1175,1709,3.07467,-9.86009
-42,-685,2.70618,7.54504,0,0,0,0,0,0,0,-1,1182,1709,2.7062,-7.54504
-35,-685,2.95264,7.91516,0,0,0,0,0,0,0,-1,1189,1709,2.95262,-7.91517
-28,-685,6.71448,34.2811,0,0,0,0,0,0,0,-1,1196,1709,6.71445,-34.2812
-21,-685,6.81482,34.2012,-0.0188059,0.0430893,0.0158759,0.0469238,-0.0226405,1.3338,0.0409706,0.0497651,1203,1709,6.81478,-34.2012
-14,-685,6.93542,34.2892,-0.0200566,0.0425134,0.0181867,0.0474155,-0.0249588,1.30751,0.0424505,0.0298942,1210,1709,6.93547,-34.2892
-7,-685,7.01074,34.4229,-0.0210997,0.0415838,0.0203254,0.0475974,-0.0271134,1.28313,0.0436714,0.0420796,1217,1709,7.0107,-34.4229
0,-685,7.22937,34.4153,-0.0218242,0.0406699,0.0221609,0.0477306,-0.0288849,1.26235,0.0446778,0.0446666,1224,1709,7.22938,-34.4152
7,-685,6.96021,34.5107,-0.0224865,0.0403536,0.0236937,0.048286,-0.0304188,1.24774,0.0458288,0.0412366,1231,1709,6.96018,-34.5108
14,-685,7.39832,35.3629,-0.0229321,0.040296,0.0247091,0.0488066,-0.0314427,1.23909,0.0466921,0.0449065,1238,1709,7.39834,-35.3629
21,-685,7.32922,35.4241,-0.0231344,0.0406259,0.0250537,0.0492925,-0.0318009,1.23776,0.0471809,0.0418945,1245,1709,7.32922,-35.4241
28,-685,7.22559,35.4802,-0.0229194,0.040608,0.0247036,0.0490836,-0.031395,1.24029,0.0468369,0.041625,1252,1709,7.22559,-35.4802
35,-685,7.203,35.0668,-0.0222437,0.0402367,0.0234119,0.0480359,-0.0300428,1.24923,0.045476,0.0404828,1259,1709,7.20304,-35.0668
42,-685,7.29724,35.1388,-0.0200606,0.0377634,0.0200809,0.0440529,-0.0263501,1.26727,0.0410733,0.0434685,1266,1709,7.29721,-35.1388
49,-685,7.36755,35.3624,-0.0166841,0.033944,0.0163345,0.0387566,-0.0214968,1.28427,0.0352598,0.0487145,1273,1709,7.36757,-35.3625
56,-685,7.39001,35.5497,-0.0129952,0.0299589,0.012695,0.0334303,-0.0164667,1.30387,0.0293577,0.0461086,1280,1709,7.39007,-35.5497
63,-685,7.3689,35.5071,-0.00964123,0.0261416,0.00892661,0.0282448,-0.0117445,1.3394,0.0237339,0.0440097,1287,1709,7.36892,-35.5071
70,-685,7.5177,35.2899,-0.00490735,0.0234842,0.00249596,0.0237019,-0.0051251,1.48377,0.0177579,0.0461793,1294,1709,7.51769,-35.2899
77,-685,7.72107,34.8024,0.000740038,0.0236767,-0.00457881,0.024557,-0.000140237,-1.38086,0.0164183,0.0483388,1301,1709,7.72112,-34.8024
84,-685,7.58777,34.8387,0.0061441,0.0208468,-0.00947446,0.0254874,0.00150346,-1.11534,0.0165133,0.0490975,1308,1709,7.58781,-34.8387
91,-685,6.54626,34.5479,0.0105847,0.0182244,-0.0136486,0.0285776,0.000231494,-0.921843,0.0189751,0.0405552,1315,1709,6.54623,-34.5478
98,-685,6.9541,34.4642,0.0145557,0.0160989,-0.0166196,0.0319647,-0.00131019,-0.808594,0.0217597,0.0361634,1322,1709,6.95405,-34.4643
105,-685,7.2572,34.4843,0.0174693,0.0159184,-0.0190255,0.0357351,-0.00234748,-0.76503,0.0246432,0.0415302,1329,1709,7.25724,-34.4842
112,-685,7.40552,34.3823,0.0200207,0.0163467,-0.0203581,0.0386246,-0.00225713,-0.740403,0.0265341,0.044532,1336,1709,7.40548,-34.3823
119,-685,7.38684,34.2186,0.0221584,0.0173414,-0.0205069,0.0403978,-0.00089795,-0.726943,0.0272361,0.0415631,1343,1709,7.38683,-34.2187
126,-685,7.77478,33.3905,0.0234835,0.0178641,-0.0190386,0.0399186,0.00142902,-0.712137,0.0261491,0.0438435,1350,1709,7.77483,-33.3905
133,-685,8.09546,33.5925,0.0241255,0.0175898,-0.0164881,0.0376664,0.00404884,-0.687568,0.0238761,0.0494591,1357,1709,8.09549,-33.5925
140,-685,7.87256,34.1971,0.0239065,0.0162871,-0.0129835,0.0336277,0.0065659,-0.64269,0.0205819,0.0494181,1364,1709,7.87257,-34.1972
147,-685,7.98816,34.6288,0,0,0,0,0,0,0,-1,1371,1709,7.98822,-34.6288
154,-685,8.07642,34.2667,0,0,0,0,0,0,0,-1,1378,1709,8.0764,-34.2667
161,-685,8.43494,34.2271,0,0,0,0,0,0,0,-1,1385,1709,8.43495,-34.227
168,-685,4.37524,10.8778,0,0,0,0,0,0,0,-1,1392,1709,4.37525,-10.8778
175,-685,3.97522,8.94324,0,0,0,0,0,0,0,-1,1399,1709,3.97519,-8.94328
182,-685,3.98218,9.19739,0,0,0,0,0,0,0,-1,1406,1709,3.98221,-9.1974
189,-685,4.53479,15.2343,0,0,0,0,0,0,0,-1,1413,1709,4.53474,-15.2343
196,-685,8.22852,33.7607,0,0,0,0,0,0,0,-1,1420,1709,8.22855,-33.7607
203,-685,8.25818,33.5291,0,0,0,0,0,0,0,-1,1427,1709,8.25824,-33.5291
210,-685,8.40356,33.2664,0,0,0,0,0,0,0,-1,1434,1709,8.40353,-33.2664
217,-685,8.32544,32.991,0,0,0,0,0,0,0,-1,1441,1709,8.32541,-32.991
224,-685,8.31238,32.8569,0,0,0,0,0,0,0,-1,1448,1709,8.3124,-32.857
231,-685,8.34863,32.7935,0.00256055,0.00132537,0.000922234,0.00305289,0.000833038,0.49036,0.0018222,0.0307009,1455,1709,8.34868,-32.7935
238,-685,8.39075,32.5145,0.0022371,0.00084718,0.000480891,0.00238726,0.000697021,0.302657,0.00141749,0.0190884,1462,1709,8.3908,-32.5145
245,-685,8.39697,32.2899,0.00201435,0.000622441,0.000123819,0.00202527,0.000611512,0.0880353,0.00119948,0.0197165,1469,1709,8.39696,-32.2899
252,-685,8.39063,32.1302,0.00198549,0.000285224,-9.26275e-05,0.00199052,0.000280193,-0.0542643,0.00124417,0.0141969,1476,1709,8.39057,-32.1303
259,-685,8.40515,31.9515,0.00202587,0.000149704,-0.000307701,0.00207504,0.000100528,-0.158477,0.0013511,0.0106305,1483,1709,8.4052,-31.9515
266,-685,8.42358,31.7356,0.0021087,7.66196e-05,-0.000454119,0.00220557,-2.02467e-05,-0.210157,0.00147717,0.0125668,1490,1709,8.42359,-31.7357
273,-685,8.42847,31.5063,0.00216894,0.000149555,-0.000530028,0.00229961,1.88929e-05,-0.241699,0.00152681,0.015446,1497,1709,8.42843,-31.5064
280,-685,8.43237,31.2776,0.00217775,0.000396808,-0.000616231,0.00237018,0.000204376,-0.302677,0.00151659,0.0169333,1504,1709,8.43242,-31.2776
287,-685,8.45276,31.0714,0.00215022,0.0007339,-0.000692467,0.00243252,0.000451605,-0.387097,0.00149407,0.0118849,1511,1709,8.45281,-31.0714
294,-685,8.45959,30.837,0.0020607,0.00129522,-0.000821171,0.00258395,0.000771976,-0.567322,0.00153159,0.0103761,1518,1709,8.45965,-30.837
301,-685,8.44775,30.5848,0.00186251,0.00175199,-0.00100749,0.00281626,0.000798239,-0.758,0.00167603,0.0125593,1525,1709,8.44778,-30.5848
308,-685,8.44971,30.3362,0.00157168,0.00216591,-0.0011788,0.00308446,0.000653134,-0.908851,0.00187687,0.0140161,1532,1709,8.44967,-30.3362
315,-685,8.46155,30.0959,0.00127354,0.00224851,-0.00129251,0.00314241,0.000379639,-0.965731,0.00198056,0.0124796,1539,1709,8.4616,-30.096
322,-685,8.42053,29.8269,0.000957709,0.00231065,-0.00137702,0.00316839,9.99711e-05,-1.01371,0.00207974,0.0196903,1546,1709,8.42051,-29.8269
329,-685,8.4082,29.5562,0.000609257,0.00213142,-0.00138809,0.00295339,-0.000212711,-1.03616,0.00204353,0.0199211,1553,1709,8.40817,-29.5561
336,-685,8.41797,29.2762,0.000285903,0.00166055,-0.00123924,0.00239031,-0.00044386,-1.03859,0.00176025,0.0136312,1560,1709,8.41792,-29.2763
343,-685,8.401,29.007,-9.02413e-05,0.000460549,-0.00090019,0.00112653,-0.00075622,-0.933842,0.00109399,0.0121312,1567,1709,8.40095,-29.0069
350,-685,8.38843,28.7311,-0.000347722,-0.00162545,-0.000248786,-0.00030099,-0.00167218,-0.185675,0.00102924,0.0125455,1574,1709,8.38839,-28.7311
357,-685,8.38147,28.472,-0.000560824,-0.00408604,0.000496461,-0.000492241,-0.00415463,0.137275,0.00262112,0.010291,1581,1709,8.38149,-28.4721
364,-685,8.37537,28.1898,-0.000896309,-0.00700624,0.00153247,-0.000533485,-0.00736906,0.232477,0.00474489,0.0100747,1588,1709,8.37538,-28.1898
371,-685,8.37976,27.8982,-0.001105,-0.0104252,0.00274782,-0.000355201,-0.011175,0.266387,0.00733446,0.0152466,1595,1709,8.37977,-27.8982
378,-685,8.32349,27.5997,-0.00144417,-0.0145882,0.0042536,-0.000187738,-0.0158446,0.287213,0.010501,0.021114,1602,1709,8.32344,-27.5997
385,-685,8.23682,27.3475,-0.00186812,-0.0191507,0.0058596,-6.87782e-05,-0.02095,0.297936,0.0139438,0.0382002,1609,1709,8.23681,-27.3475
392,-685,8.1792,27.4165,-0.00238411,-0.0245726,0.00761831,-2.0233e-05,-0.0269365,0.300869,0.0179509,0.0398008,1616,1709,8.17918,-27.4165
399,-685,8.23926,27.5472,-0.00320112,-0.0304153,0.00924576,-0.000357162,-0.0332592,0.298411,0.0220547,0.0408193,1623,1709,8.23924,-27.5472
406,-685,8.19641,27.3352,0,0,0,0,0,0,0,-1,1630,1709,8.19639,-27.3353
413,-685,8.19556,26.8784,0,0,0,0,0,0,0,-1,1637,1709,8.19555,-26.8784
420,-685,4.84631,10.3781,0,0,0,0,0,0,0,-1,1644,1709,4.84634,-10.378
427,-685,6.05151,9.21155,0,0,0,0,0,0,0,-1,1651,1709,6.05156,-9.21156
434,-685,4.87769,8.91418,0,0,0,0,0,0,0,-1,1658,1709,4.87768,-8.91413
441,-685,5.62,8.75549,0,0,0,0,0,0,0,-1,1665,1709,5.61996,-8.75545
448,-685,6.4043,8.58972,0,0,0,0,0,0,0,-1,1672,1709,6.40435,-8.58971
455,-685,2.31958,4.09802,0,0,0,0,0,0,0,-1,1679,1709,2.31957,-4.09803
462,-685,0,0,0,0,0,0,0,0,0,-1,1686,1709,0,0
469,-685,0,0,0,0,0,0,0,0,0,-1,1693,1709,0,0
476,-685,0,0,0,0,0,0,0,0,0,-1,1700,1709,0,0
483,-685,0,0,0,0,0,0,0,0,0,-1,1707,1709,0,0
490,-685,0,0,0,0,0,0,0,0,0,-1,1714,1709,0,0
497,-685,0,0,0,0,0,0,0,0,0,-1,1721,1709,0,0
504,-685,0,0,0,0,0,0,0,0,0,-1,1728,1709,0,0
511,-685,0,0,0,0,0,0,0,0,0,-1,1735,1709,0,0
518,-685,0,0,0,0,0,0,0,0,0,-1,1742,1709,0,0
525,-685,0,0,0,0,0,0,0,0,0,-1,1749,1709,0,0
532,-685,0,0,0,0,0,0,0,0,0,-1,1756,1709,0,0
539,-685,0,0,0,0,0,0,0,0,0,-1,1763,1709,0,0
546,-685,0,0,0,0,0,0,0,0,0,-1,1770,1709,0,0
553,-685,0,0,0,0,0,0,0,0,0,-1,1777,1709,0,0
560,-685,0,0,0,0,0,0,0,0,0,-1,1784,1709,0,0
567,-685,0,0,0,0,0,0,0,0,0,-1,1791,1709,0,0
574,-685,0,0,0,0,0,0,0,0,0,-1,1798,1709,0,0
581,-685,0,0,0,0,0,0,0,0,0,-1,1805,1709,0,0
588,-685,0,0,0,0,0,0,0,0,0,-1,1812,1709,0,0
595,-685,0,0,0,0,0,0,0,0,0,-1,1819,1709,0,0
602,-685,0,0,0,0,0,0,0,0,0,-1,1826,1709,0,0
609,-685,0,0,0,0,0,0,0,0,0,-1,1833,1709,0,0
616,-685,0,0,0,0,0,0,0,0,0,-1,1840,1709,0,0
623,-685,0,0,0,0,0,0,0,0,0,-1,1847,1709,0,0
630,-685,0,0,0,0,0,0,0,0,0,-1,1854,1709,0,0
637,-685,0,0,0,0,0,0,0,0,0,-1,1861,1709,0,0
644,-685,0,0,0,0,0,0,0,0,0,-1,1868,1709,0,0
651,-685,0,0,0,0,0,0,0,0,0,-1,1875,1709,0,0
658,-685,0,0,0,0,0,0,0,0,0,-1,1882,1709,0,0
665,-685,0,0,0,0,0,0,0,0,0,-1,1889,1709,0,0
672,-685,0,0,0,0,0,0,0,0,0,-1,1896,1709,0,0
679,-685,0,0,0,0,0,0,0,0,0,-1,1903,1709,0,0
686,-685,0,0,0,0,0,0,0,0,0,-1,1910,1709,0,0
693,-685,0,0,0,0,0,0,0,0,0,-1,1917,1709,0,0
700,-685,0,0,0,0,0,0,0,0,0,-1,1924,1709,0,0
707,-685,0,0,0,0,0,0,0,0,0,-1,1931,1709,0,0
714,-685,0,0,0,0,0,0,0,0,0,-1,1938,1709,0,0
721,-685,0,0,0,0,0,0,0,0,0,-1,1945,1709,0,0
728,-685,0,0,0,0,0,0,0,0,0,-1,1952,1709,0,0
735,-685,0,0,0,0,0,0,0,0,0,-1,1959,1709,0,0
742,-685,0,0,0,0,0,0,0,0,0,-1,1966,1709,0,0
749,-685,0,0,0,0,0,0,0,0,0,-1,1973,1709,0,0
756,-685,0,0,0,0,0,0,0,0,0,-1,1980,1709,0,0
763,-685,0,0,0,0,0,0,0,0,0,-1,1987,1709,0,0
770,-685,0,0,0,0,0,0,0,0,0,-1,1994,1709,0,0
777,-685,0,0,0,0,0,0,0,0,0,-1,2001,1709,0,0
784,-685,0,0,0,0,0,0,0,0,0,-1,2008,1709,0,0
791,-685,0,0,0,0,0,0,0,0,0,-1,2015,1709,0,0
798,-685,0,0,0,0,0,0,0,0,0,-1,2022,1709,0,0
805,-685,0,0,0,0,0,0,0,0,0,-1,2029,1709,0,0
812,-685,0,0,0,0,0,0,0,0,0,-1,2036,1709,0,0
-700,-692,0,0,0,0,0,0,0,0,0,-1,524,1716,0,0
-693,-692,0,0,0,0,0,0,0,0,0,-1,531,1716,0,0
-686,-692,0,0,0,0,0,0,0,0,0,-1,538,1716,0,0
-679,-692,0,0,0,0,0,0,0,0,0,-1,545,1716,0,0
-672,-692,0,0,0,0,0,0,0,0,0,-1,552,1716,0,0
-665,-692,0,0,0,0,0,0,0,0,0,-1,559,1716,0,0
-658,-692,0,0,0,0,0,0,0,0,0,-1,566,1716,0,0
-651,-692,0,0,0,0,0,0,0,0,0,-1,573,1716,0,0
-644,-692,0,0,0,0,0,0,0,0,0,-1,580,1716,0,0
-637,-692,0,0,0,0,0,0,0,0,0,-1,587,1716,0,0
-630,-692,0,0,0,0,0,0,0,0,0,-1,594,1716,0,0
-623,-692,0,0,0,0,0,0,0,0,0,-1,601,1716,0,0
-616,-692,0,0,0,0,0,0,0,0,0,-1,608,1716,0,0
-609,-692,0,0,0,0,0,0,0,0,0,-1,615,1716,0,0
-602,-692,0,0,0,0,0,0,0,0,0,-1,622,1716,0,0
-595,-692,0,0,0,0,0,0,0,0,0,-1,629,1716,0,0
-588,-692,0,0,0,0,0,0,0,0,0,-1,636,1716,0,0
-581,-692,0,0,0,0,0,0,0,0,0,-1,643,1716,0,0
-574,-692,0,0,0,0,0,0,0,0,0,-1,650,1716,0,0
-567,-692,0,0,0,0,0,0,0,0,0,-1,657,1716,0,0
-560,-692,0,0,0,0,0,0,0,0,0,-1,664,1716,0,0
-553,-692,0,0,0,0,0,0,0,0,0,-1,671,1716,0,0
-546,-692,0,0,0,0,0,0,0,0,0,-1,678,1716,0,0
-539,-692,0,0,0,0,0,0,0,0,0,-1,685,1716,0,0
-532,-692,0,0,0,0,0,0,0,0,0,-1,692,1716,0,0
-525,-692,0,0,0,0,0,0,0,0,0,-1,699,1716,0,0
-518,-692,0,0,0,0,0,0,0,0,0,-1,706,1716,0,0
-511,-692,0,0,0,0,0,0,0,0,0,-1,713,1716,0,0
-504,-692,0,0,0,0,0,0,0,0,0,-1,720,1716,0,0
-497,-692,0,0,0,0,0,0,0,0,0,-1,727,1716,0,0
-490,-692,0,0,0,0,0,0,0,0,0,-1,734,1716,0,0
-483,-692,0,0,0,0,0,0,0,0,0,-1,741,1716,0,0
-476,-692,0,0,0,0,0,0,0,0,0,-1,748,1716,0,0
-469,-692,0,0,0,0,0,0,0,0,0,-1,755,1716,0,0
-462,-692,0,0,0,0,0,0,0,0,0,-1,762,1716,0,0
-455,-692,0,0,0,0,0,0,0,0,0,-1,769,1716,0,0
-448,-692,0,0,0,0,0,0,0,0,0,-1,776,1716,0,0
-441,-692,0,0,0,0,0,0,0,0,0,-1,783,1716,0,0
-434,-692,0,0,0,0,0,0,0,0,0,-1,790,1716,0,0
-427,-692,0,0,0,0,0,0,0,0,0,-1,797,1716,0,0
-420,-692,0,0,0,0,0,0,0,0,0,-1,804,1716,0,0
-413,-692,0,0,0,0,0,0,0,0,0,-1,811,1716,0,0
-406,-692,0,0,0,0,0,0,0,0,0,-1,818,1716,0,0
-399,-692,0,0,0,0,0,0,0,0,0,-1,825,1716,0,0
-392,-692,0,0,0,0,0,0,0,0,0,-1,832,1716,0,0
-385,-692,0,0,0,0,0,0,0,0,0,-1,839,1716,0,0
-378,-692,0,0,0,0,0,0,0,0,0,-1,846,1716,0,0
-371,-692,0,0,0,0,0,0,0,0,0,-1,853,1716,0,0
-364,-692,0,0,0,0,0,0,0,0,0,-1,860,1716,0,0
-357,-692,0,0,0,0,0,0,0,0,0,-1,867,1716,0,0
-350,-692,0,0,0,0,0,0,0,0,0,-1,874,1716,0,0
-343,-692,0,0,0,0,0,0,0,0,0,-1,881,1716,0,0
-336,-692,0,0,0,0,0,0,0,0,0,-1,888,1716,0,0
-329,-692,3.03107,4.10266,0,0,0,0,0,0,0,-1,895,1716,3.03105,-4.10267
-322,-692,4.43713,18.5242,0,0,0,0,0,0,0,-1,902,1716,4.43711,-18.5241
-315,-692,5.38965,17.975,0,0,0,0,0,0,0,-1,909,1716,5.38963,-17.975
-308,-692,5.86938,17.4392,0,0,0,0,0,0,0,-1,916,1716,5.86937,-17.4392
-301,-692,8.65558,20.7662,0,0,0,0,0,0,0,-1,923,1716,8.65556,-20.7663
-294,-692,6.66138,19.0796,0,0,0,0,0,0,0,-1,930,1716,6.66141,-19.0796
-287,-692,6.11749,26.0485,0,0,0,0,0,0,0,-1,937,1716,6.11747,-26.0485
-280,-692,7.08832,26.5676,0.0319699,-0.0554961,-0.0206339,0.0365932,-0.0601194,-0.220424,0.056385,0.0488945,944,1716,7.08832,-26.5677
-273,-692,8.05707,27.1677,0.0268561,-0.0484131,-0.0184688,0.0311435,-0.0527005,-0.228106,0.0489378,0.0491053,951,1716,8.05704,-27.1677
-266,-692,9.28333,27.7848,0,0,0,0,0,0,0,-1,958,1716,9.28332,-27.7848
-259,-692,6.88586,26.6563,0,0,0,0,0,0,0,-1,965,1716,6.88586,-26.6563
-252,-692,6.69513,27.1115,0,0,0,0,0,0,0,-1,972,1716,6.69515,-27.1115
-245,-692,6.56989,27.2427,0.00901995,-0.0225254,-0.006287,0.0102268,-0.0237323,-0.18965,0.0201165,0.0471125,979,1716,6.56991,-27.2426
-238,-692,6.81561,27.5242,0.00616347,-0.0176689,-0.00417499,0.00687369,-0.0183791,-0.168499,0.0150757,0.0445439,986,1716,6.81561,-27.5242
-231,-692,6.82916,27.8285,0.00418619,-0.0137238,-0.00241191,0.00450531,-0.0140429,-0.131547,0.0111708,0.0379176,993,1716,6.82918,-27.8285
-224,-692,6.67383,28.0297,0.00200314,-0.00968107,-0.000878715,0.00206885,-0.00974678,-0.0746458,0.00728605,0.0184672,1000,1716,6.67384,-28.0297
-217,-692,6.63617,28.3018,0.000594029,-0.00577119,0.00137081,0.000876693,-0.00605385,0.203352,0.00435763,0.0114525,1007,1716,6.63614,-28.3018
-210,-692,6.63184,28.6178,0.000416415,-0.00428363,0.00196376,0.0011289,-0.00499612,0.348047,0.00376391,0.0125462,1014,1716,6.63182,-28.6179
-203,-692,6.62573,28.9182,0.000350552,-0.0029172,0.00233571,0.00156713,-0.00413378,0.480196,0.0034008,0.015357,1021,1716,6.62573,-28.9182
-196,-692,6.60205,29.2191,0.000174086,-0.0015322,0.00250651,0.00196867,-0.00332678,0.621363,0.00309066,0.0177858,1028,1716,6.60207,-29.2191
-189,-692,6.56152,29.4608,-6.40667e-05,-0.0003883,0.00251518,0.00229421,-0.00274658,0.753215,0.00291421,0.00913916,1035,1716,6.56156,-29.4608
-182,-692,6.54761,29.7562,-0.000148651,0.00052116,0.00245461,0.00266361,-0.0022911,0.853199,0.0028633,0.0132309,1042,1716,6.54763,-29.7563
-175,-692,6.53296,30.0499,-0.000131332,0.00146766,0.00240655,0.00320404,-0.00186771,0.945771,0.00296186,0.0143157,1049,1716,6.53296,-30.05
-168,-692,6.54675,30.3071,-4.15846e-05,0.0020311,0.00225235,0.00347409,-0.00148458,1.00102,0.00293869,0.0112188,1056,1716,6.54673,-30.3071
-161,-692,6.56555,30.5903,6.91319e-05,0.00258203,0.00196037,0.00365404,-0.00100288,1.07038,0.00283018,0.0134282,1063,1716,6.5655,-30.5903
-154,-692,6.56885,30.8616,0.000235549,0.003336,0.00156434,0.00398813,-0.000416576,1.17583,0.00280793,0.0143368,1070,1716,6.56884,-30.8615
-147,-692,6.55615,31.0836,0.000426814,0.00384028,0.00126726,0.00425932,7.78167e-06,1.25145,0.00283695,0.0130925,1077,1716,6.55609,-31.0837
-140,-692,6.54102,31.2985,0.000650145,0.00434082,0.00101115,0.00459969,0.000391272,1.32016,0.00294472,0.00992289,1084,1716,6.54101,-31.2984
-133,-692,6.55005,31.5081,0.000927462,0.00476622,0.000813795,0.00493161,0.000762068,1.37029,0.00306546,0.00966367,1091,1716,6.55004,-31.5081
-126,-692,6.55273,31.7311,0.00122932,0.00515041,0.00061105,0.00524343,0.00113631,1.41973,0.00318514,0.00801815,1098,1716,6.55271,-31.731
-119,-692,6.54407,31.9504,0.00156429,0.00541643,0.000477187,0.00547466,0.00150606,1.44937,0.00326564,0.0112283,1105,1716,6.54409,-31.9504
-112,-692,6.56079,32.1626,0.00186766,0.0055592,0.000404009,0.0056029,0.00182396,1.46305,0.00329982,0.0108512,1112,1716,6.56075,-32.1626
-105,-692,6.59741,32.3613,0.00208341,0.00545277,0.000367811,0.00549245,0.00204372,1.46332,0.00320547,0.0155389,1119,1716,6.59736,-32.3613
-98,-692,6.6416,32.5563,0.00227161,0.00513659,0.000305362,0.00516878,0.00223943,1.46578,0.00299304,0.0184379,1126,1716,6.64161,-32.5562
-91,-692,6.6123,32.7269,0.00243565,0.00464032,7.19601e-05,0.00464267,0.0024333,1.5382,0.00268149,0.0199243,1133,1716,6.61225,-32.7269
-84,-692,6.60901,32.8845,0.00269417,0.00378589,-0.000208428,0.00382433,0.00265573,-1.38842,0.00226294,0.0203803,1140,1716,6.60905,-32.8846
-77,-692,6.63013,33.1139,0.00297371,0.00313613,-0.000727083,0.00378652,0.00232331,-0.841013,0.00220487,0.0170718,1147,1716,6.63016,-33.1139
-70,-692,6.68616,33.2633,0.00332624,0.00211999,-0.00123602,0.00409844,0.0013478,-0.558414,0.002412,0.0323748,1154,1716,6.68614,-33.2633
-63,-692,6.71326,33.389,0,0,0,0,0,0,0,-1,1161,1716,6.71322,-33.3891
-56,-692,6.65857,33.5383,0,0,0,0,0,0,0,-1,1168,1716,6.6586,-33.5383
-49,-692,6.72949,33.7158,0,0,0,0,0,0,0,-1,1175,1716,6.72944,-33.7158
-42,-692,6.78955,33.993,0,0,0,0,0,0,0,-1,1182,1716,6.7896,-33.993
-35,-692,6.8894,34.125,0,0,0,0,0,0,0,-1,1189,1716,6.88938,-34.125
-28,-692,6.83264,34.2137,-0.0106251,0.0299722,0.0107057,0.0326224,-0.0132753,1.32813,0.0272725,0.047628,1196,1716,6.83264,-34.2138
-21,-692,6.92859,34.1283,-0.0120137,0.0306752,0.0124836,0.0340577,-0.0153963,1.30619,0.029222,0.0324087,1203,1716,6.92865,-34.1282
-14,-692,6.94446,34.2358,-0.013291,0.0309278,0.0144059,0.035207,-0.0175702,1.28206,0.0310328,0.0166082,1210,1716,6.94449,-34.2359
-7,-692,6.96619,34.3956,-0.0143185,0.0309334,0.016071,0.0360601,-0.0194452,1.262,0.0325211,0.015951,1217,1716,6.9662,-34.3956
0,-692,6.99426,34.4714,-0.0149449,0.0310337,0.0174129,0.0368839,-0.0207951,1.24668,0.0337301,0.01929,1224,1716,6.9943,-34.4715
7,-692,7.01733,34.4805,-0.0154713,0.0315596,0.0184835,0.0379543,-0.021866,1.23772,0.0349511,0.02305,1231,1716,7.01738,-34.4805
14,-692,7.11218,34.6927,-0.0158173,0.0322045,0.0191049,0.0388778,-0.0224905,1.23475,0.0358496,0.0269471,1238,1716,7.11218,-34.6927
21,-692,7.24829,34.776,-0.0158699,0.033035,0.0191594,0.0396471,-0.022482,1.23849,0.0363238,0.0278024,1245,1716,7.24834,-34.776
28,-692,7.25696,34.7555,-0.0156805,0.033584,0.018749,0.0399078,-0.0220043,1.24549,0.0362397,0.0285171,1252,1716,7.25701,-34.7555
35,-692,7.25281,34.87,-0.0152948,0.0338738,0.0176752,0.0395682,-0.0209892,1.25913,0.0355071,0.0256991,1259,1716,7.25277,-34.87
42,-692,7.34583,34.9922,-0.0138829,0.0323742,0.0150206,0.0368237,-0.0183324,1.28281,0.0324354,0.0224098,1266,1716,7.34578,-34.9922
49,-692,7.42419,34.995,-0.0115378,0.0295811,0.0119877,0.0328208,-0.0147774,1.30685,0.0281313,0.0276885,1273,1716,7.42425,-34.995
56,-692,7.4082,34.9313,-0.00880424,0.0263503,0.00896462,0.0285044,-0.0109583,1.33498,0.0235225,0.0363474,1280,1716,7.40815,-34.9313
63,-692,7.39624,34.931,-0.00628359,0.0230529,0.00581591,0.0241639,-0.00739452,1.38206,0.0190584,0.0365351,1287,1716,7.3962,-34.931
70,-692,7.45764,35.0146,-0.00263452,0.0204906,0.000135882,0.0204914,-0.00263531,1.56492,0.0146187,0.0316194,1294,1716,7.45765,-35.0146
77,-692,7.57263,34.9773,0.00186945,0.0203616,-0.00597119,0.0221221,0.000108935,-1.28409,0.0147119,0.0361524,1301,1716,7.57264,-34.9772
84,-692,7.51086,34.8495,0.00619588,0.0175458,-0.0100875,0.0234451,0.000296572,-1.04162,0.0155321,0.0428799,1308,1716,7.51082,-34.8495
91,-692,7.57605,34.7894,0.00954967,0.0150632,-0.0135113,0.026096,-0.00148322,-0.886033,0.0179123,0.0394226,1315,1716,7.57602,-34.7895
98,-692,7.62122,34.7107,0.0125844,0.0131395,-0.0160398,0.0289041,-0.00318024,-0.794048,0.0204122,0.0318224,1322,1716,7.62125,-34.7107
105,-692,7.66833,34.7169,0.0147752,0.0125751,-0.018004,0.0317128,-0.00436244,-0.754887,0.0227359,0.0392972,1329,1716,7.66832,-34.7169
112,-692,7.63196,34.6622,0.0166765,0.0126708,-0.0190313,0.0338101,-0.0044628,-0.732972,0.0241654,0.0428377,1336,1716,7.63196,-34.6623
119,-692,7.66614,34.5214,0.0182301,0.0134025,-0.0191608,0.0351285,-0.00349589,-0.722739,0.024667,0.0339838,1343,1716,7.66609,-34.5213
126,-692,7.78748,34.4904,0.0191492,0.0139139,-0.0181315,0.034851,-0.00178789,-0.713707,0.0238523,0.0330929,1350,1716,7.78742,-34.4903
133,-692,7.90967,34.4513,0.0194818,0.0139436,-0.0162366,0.0331837,0.000241661,-0.700938,0.0220424,0.0267879,1357,1716,7.90963,-34.4512
140,-692,7.88721,34.4883,0.0191961,0.0132089,-0.0135991,0.0301272,0.00227777,-0.677059,0.0193703,0.0311334,1364,1716,7.88718,-34.4883
147,-692,7.8855,34.4666,0.0182185,0.012185,-0.0104817,0.026109,0.00429457,-0.64528,0.0161657,0.0355861,1371,1716,7.88545,-34.4665
154,-692,7.90173,34.2542,0.016828,0.0111161,-0.00784391,0.0223197,0.00562439,-0.61081,0.0134043,0.031404,1378,1716,7.90178,-34.2542
161,-692,8.12549,34.1942,0.0157681,0.0097204,-0.00587595,0.0193526,0.00613588,-0.547763,0.0114198,0.0390416,1385,1716,8.12551,-34.1942
168,-692,8.00452,34.104,0,0,0,0,0,0,0,-1,1392,1716,8.00448,-34.104
175,-692,8.06885,33.9548,0,0,0,0,0,0,0,-1,1399,1716,8.06891,-33.9548
182,-692,8.05286,33.7634,0,0,0,0,0,0,0,-1,1406,1716,8.05281,-33.7634
189,-692,8.2135,33.7161,0,0,0,0,0,0,0,-1,1413,1716,8.21351,-33.7161
196,-692,8.09619,33.5261,0.00423393,-0.000694908,0.0052217,0.00754354,-0.00400452,0.564917,0.00677084,0.0368874,1420,1716,8.09625,-33.5262
203,-692,8.10571,33.4076,0.00362219,0.00151611,0.00199461,0.00482467,0.000313631,0.542522,0.00311717,0.0239384,1427,1716,8.10573,-33.4075
210,-692,8.17163,33.2565,0.00291027,0.00171827,0.00176782,0.00417985,0.000448691,0.622812,0.0026497,0.019598,1434,1716,8.17159,-33.2565
217,-692,8.15698,33.0594,0.002212,0.00161459,0.00123312,0.00318207,0.000644516,0.666569,0.00194252,0.01747,1441,1716,8.15696,-33.0594
224,-692,8.16187,32.8953,0.00194516,0.00158696,0.00101209,0.00279388,0.000738247,0.697823,0.00167175,0.013484,1448,1716,8.16181,-32.8953
231,-692,8.17004,32.7329,0.0018477,0.00131517,0.000706484,0.00233643,0.000826439,0.605184,0.00136805,0.0120309,1455,1716,8.17007,-32.7329
238,-692,8.16919,32.5073,0.00161739,0.000919551,0.000322275,0.00174345,0.00079349,0.372862,0.00100793,0.018035,1462,1716,8.16921,-32.5073
245,-692,8.17578,32.2889,0.00147494,0.000645008,-9.45772e-06,0.00147505,0.0006449,-0.0113938,0.000853857,0.0205191,1469,1716,8.17572,-32.289
252,-692,8.19177,32.1327,0.0014787,0.000337701,-0.000242895,0.00152825,0.000288146,-0.201257,0.000937662,0.0176024,1476,1716,8.19175,-32.1327
259,-692,8.18909,31.9596,0.0015574,0.000187206,-0.000448322,0.00169106,5.35542e-05,-0.289728,0.00110995,0.00975471,1483,1716,8.18903,-31.9596
266,-692,8.19678,31.7482,0.00165521,0.000176954,-0.000604917,0.00187119,-3.90276e-05,-0.342936,0.00126067,0.0102769,1490,1716,8.19683,-31.7482
273,-692,8.20959,31.5146,0.00174806,0.000401509,-0.000719649,0.00206028,8.92939e-05,-0.409338,0.00134474,0.0148248,1497,1716,8.20956,-31.5146
280,-692,8.2229,31.2797,0.00181968,0.000757481,-0.000846531,0.00228792,0.000289242,-0.505242,0.00143859,0.0140688,1504,1716,8.22288,-31.2797
287,-692,8.23254,31.0912,0.00186511,0.00130271,-0.000969171,0.00259305,0.000574767,-0.644202,0.00157252,0.011071,1511,1716,8.2326,-31.0912
294,-692,8.22083,30.8669,0.00183909,0.00208388,-0.00110812,0.00307635,0.000846624,-0.8404,0.00183499,0.0107258,1518,1716,8.22082,-30.867
301,-692,8.23315,30.6213,0.00166795,0.00272942,-0.00133106,0.00363165,0.000765717,-0.975104,0.00221052,0.0124293,1525,1716,8.23316,-30.6214
308,-692,8.21045,30.3792,0.00139924,0.00327072,-0.00154562,0.00414179,0.000528174,-1.05759,0.00260306,0.0163415,1532,1716,8.21043,-30.3791
315,-692,8.21619,30.1318,0.0011237,0.00334294,-0.0017185,0.00427892,0.000187715,-1.07207,0.00279215,0.0157015,1539,1716,8.21623,-30.1319
322,-692,8.14465,29.8212,0.000817037,0.00342019,-0.00185589,0.00438542,-0.000148197,-1.0912,0.00297425,0.0197098,1546,1716,8.14471,-29.8212
329,-692,8.13525,29.5453,0.000445972,0.00321375,-0.0018836,0.0041672,-0.000507469,-1.10222,0.00296181,0.0184702,1553,1716,8.13525,-29.5453
336,-692,8.14758,29.285,0.000124649,0.00261547,-0.00171924,0.00349299,-0.000752871,-1.09885,0.00261599,0.0129704,1560,1716,8.14761,-29.285
343,-692,8.15881,29.0387,-0.000327776,0.00109586,-0.00134448,0.00190533,-0.00113724,-1.02886,0.00177519,0.0127291,1567,1716,8.1588,-29.0387
350,-692,8.14221,28.7631,-0.000643861,-0.00146748,-0.000505157,-0.000403927,-0.00170742,-0.443423,0.00103038,0.0146474,1574,1716,8.1422,-28.7631
357,-692,8.09753,28.4426,-0.00083281,-0.00455761,0.000499349,-0.000767029,-0.00462339,0.13098,0.00286106,0.0198008,1581,1716,8.09757,-28.4426
364,-692,8.08398,28.1392,-0.00114777,-0.00827114,0.0018776,-0.000683171,-0.00873574,0.242572,0.00560999,0.0255499,1588,1716,8.08394,-28.1392
371,-692,8.16394,27.9163,-0.00130128,-0.012807,0.00358502,-0.000275663,-0.0138326,0.278642,0.00913122,0.0377589,1595,1716,8.16396,-27.9163
378,-692,8.05371,27.7031,0,0,0,0,0,0,0,-1,1602,1716,8.05372,-27.7031
385,-692,7.87476,27.4352,0,0,0,0,0,0,0,-1,1609,1716,7.87476,-27.4352
392,-692,7.57104,27.6626,0,0,0,0,0,0,0,-1,1616,1716,7.57099,-27.6626
399,-692,7.80542,28.2725,0,0,0,0,0,0,0,-1,1623,1716,7.80543,-28.2725
406,-692,7.84009,28.0695,0,0,0,0,0,0,0,-1,1630,1716,7.8401,-28.0694
413,-692,4.25085,10.5685,0,0,0,0,0,0,0,-1,1637,1716,4.2508,-10.5685
420,-692,5.48901,10.4845,0,0,0,0,0,0,0,-1,1644,1716,5.48906,-10.4845
427,-692,3.79578,8.60339,0,0,0,0,0,0,0,-1,1651,1716,3.79577,-8.6034
434,-692,4.78516,8.64636,0,0,0,0,0,0,0,-1,1658,1716,4.78512,-8.64634
441,-692,5.8208,8.74036,0,0,0,0,0,0,0,-1,1665,1716,5.82084,-8.7404
448,-692,6.73792,8.51013,0,0,0,0,0,0,0,-1,1672,1716,6.73793,-8.5101
455,-692,0,0,0,0,0,0,0,0,0,-1,1679,1716,0,0
462,-692,0,0,0,0,0,0,0,0,0,-1,1686,1716,0,0
469,-692,0,0,0,0,0,0,0,0,0,-1,1693,1716,0,0
476,-692,0,0,0,0,0,0,0,0,0,-1,1700,1716,0,0
483,-692,0,0,0,0,0,0,0,0,0,-1,1707,1716,0,0
490,-692,0,0,0,0,0,0,0,0,0,-1,1714,1716,0,0
497,-692,0,0,0,0,0,0,0,0,0,-1,1721,1716,0,0
504,-692,0,0,0,0,0,0,0,0,0,-1,1728,1716,0,0
511,-692,0,0,0,0,0,0,0,0,0,-1,1735,1716,0,0
518,-692,0,0,0,0,0,0,0,0,0,-1,1742,1716,0,0
525,-692,0,0,0,0,0,0,0,0,0,-1,1749,1716,0,0
532,-692,0,0,0,0,0,0,0,0,0,-1,1756,1716,0,0
539,-692,0,0,0,0,0,0,0,0,0,-1,1763,1716,0,0
546,-692,0,0,0,0,0,0,0,0,0,-1,1770,1716,0,0
553,-692,0,0,0,0,0,0,0,0,0,-1,1777,1716,0,0
560,-692,0,0,0,0,0,0,0,0,0,-1,1784,1716,0,0
567,-692,0,0,0,0,0,0,0,0,0,-1,1791,1716,0,0
574,-692,0,0,0,0,0,0,0,0,0,-1,1798,1716,0,0
581,-692,0,0,0,0,0,0,0,0,0,-1,1805,1716,0,0
588,-692,0,0,0,0,0,0,0,0,0,-1,1812,1716,0,0
595,-692,0,0,0,0,0,0,0,0,0,-1,1819,1716,0,0
602,-692,0,0,0,0,0,0,0,0,0,-1,1826,1716,0,0
609,-692,0,0,0,0,0,0,0,0,0,-1,1833,1716,0,0
616,-692,0,0,0,0,0,0,0,0,0,-1,1840,1716,0,0
623,-692,0,0,0,0,0,0,0,0,0,-1,1847,1716,0,0
630,-692,0,0,0,0,0,0,0,0,0,-1,1854,1716,0,0
637,-692,0,0,0,0,0,0,0,0,0,-1,1861,1716,0,0
644,-692,0,0,0,0,0,0,0,0,0,-1,1868,1716,0,0
651,-692,0,0,0,0,0,0,0,0,0,-1,1875,1716,0,0
658,-692,0,0,0,0,0,0,0,0,0,-1,1882,1716,0,0
665,-692,0,0,0,0,0,0,0,0,0,-1,1889,1716,0,0
672,-692,0,0,0,0,0,0,0,0,0,-1,1896,1716,0,0
679,-692,0,0,0,0,0,0,0,0,0,-1,1903,1716,0,0
686,-692,0,0,0,0,0,0,0,0,0,-1,1910,1716,0,0
693,-692,0,0,0,0,0,0,0,0,0,-1,1917,1716,0,0
700,-692,0,0,0,0,0,0,0,0,0,-1,1924,1716,0,0
707,-692,0,0,0,0,0,0,0,0,0,-1,1931,1716,0,0
714,-692,0,0,0,0,0,0,0,0,0,-1,1938,1716,0,0
721,-692,0,0,0,0,0,0,0,0,0,-1,1945,1716,0,0
728,-692,0,0,0,0,0,0,0,0,0,-1,1952,1716,0,0
735,-692,0,0,0,0,0,0,0,0,0,-1,1959,1716,0,0
742,-692,0,0,0,0,0,0,0,0,0,-1,1966,1716,0,0
749,-692,0,0,0,0,0,0,0,0,0,-1,1973,1716,0,0
756,-692,0,0,0,0,0,0,0,0,0,-1,1980,1716,0,0
763,-692,0,0,0,0,0,0,0,0,0,-1,1987,1716,0,0
770,-692,0,0,0,0,0,0,0,0,0,-1,1994,1716,0,0
777,-692,0,0,0,0,0,0,0,0,0,-1,2001,1716,0,0
784,-692,0,0,0,0,0,0,0,0,0,-1,2008,1716,0,0
791,-692,0,0,0,0,0,0,0,0,0,-1,2015,1716,0,0
798,-692,0,0,0,0,0,0,0,0,0,-1,2022,1716,0,0
805,-692,0,0,0,0,0,0,0,0,0,-1,2029,1716,0,0
812,-692,0,0,0,0,0,0,0,0,0,-1,2036,1716,0,0
-700,-699,0,0,0,0,0,0,0,0,0,-1,524,1723,0,0
-693,-699,0,0,0,0,0,0,0,0,0,-1,531,1723,0,0
-686,-699,0,0,0,0,0,0,0,0,0,-1,538,1723,0,0
-679,-699,0,0,0,0,0,0,0,0,0,-1,545,1723,0,0
-672,-699,0,0,0,0,0,0,0,0,0,-1,552,1723,0,0
-665,-699,0,0,0,0,0,0,0,0,0,-1,559,1723,0,0
-658,-699,0,0,0,0,0,0,0,0,0,-1,566,1723,0,0
-651,-699,0,0,0,0,0,0,0,0,0,-1,573,1723,0,0
-644,-699,0,0,0,0,0,0,0,0,0,-1,580,1723,0,0
-637,-699,0,0,0,0,0,0,0,0,0,-1,587,1723,0,0
-630,-699,0,0,0,0,0,0,0,0,0,-1,594,1723,0,0
-623,-699,0,0,0,0,0,0,0,0,0,-1,601,1723,0,0
-616,-699,0,0,0,0,0,0,0,0,0,-1,608,1723,0,0
-609,-699,0,0,0,0,0,0,0,0,0,-1,615,1723,0,0
-602,-699,0,0,0,0,0,0,0,0,0,-1,622,1723,0,0
-595,-699,0,0,0,0,0,0,0,0,0,-1,629,1723,0,0
-588,-699,0,0,0,0,0,0,0,0,0,-1,636,1723,0,0
-581,-699,0,0,0,0,0,0,0,0,0,-1,643,1723,0,0
-574,-699,0,0,0,0,0,0,0,0,0,-1,650,1723,0,0
-567,-699,0,0,0,0,0,0,0,0,0,-1,657,1723,0,0
-560,-699,0,0,0,0,0,0,0,0,0,-1,664,1723,0,0
-553,-699,0,0,0,0,0,0,0,0,0,-1,671,1723,0,0
-546,-699,0,0,0,0,0,0,0,0,0,-1,678,1723,0,0
-539,-699,0,0,0,0,0,0,0,0,0,-1,685,1723,0,0
-532,-699,0,0,0,0,0,0,0,0,0,-1,692,1723,0,0
-525,-699,0,0,0,0,0,0,0,0,0,-1,699,1723,0,0
-518,-699,0,0,0,0,0,0,0,0,0,-1,706,1723,0,0
-511,-699,0,0,0,0,0,0,0,0,0,-1,713,1723,0,0
-504,-699,0,0,0,0,0,0,0,0,0,-1,720,1723,0,0
-497,-699,0,0,0,0,0,0,0,0,0,-1,727,1723,0,0
-490,-699,0,0,0,0,0,0,0,0,0,-1,734,1723,0,0
-483,-699,0,0,0,0,0,0,0,0,0,-1,741,1723,0,0
-476,-699,0,0,0,0,0,0,0,0,0,-1,748,1723,0,0
-469,-699,0,0,0,0,0,0,0,0,0,-1,755,1723,0,0
-462,-699,0,0,0,0,0,0,0,0,0,-1,762,1723,0,0
-455,-699,0,0,0,0,0,0,0,0,0,-1,769,1723,0,0
-448,-699,0,0,0,0,0,0,0,0,0,-1,776,1723,0,0
-441,-699,0,0,0,0,0,0,0,0,0,-1,783,1723,0,0
-434,-699,0,0,0,0,0,0,0,0,0,-1,790,1723,0,0
-427,-699,0,0,0,0,0,0,0,0,0,-1,797,1723,0,0
-420,-699,0,0,0,0,0,0,0,0,0,-1,804,1723,0,0
-413,-699,0,0,0,0,0,0,0,0,0,-1,811,1723,0,0
-406,-699,0,0,0,0,0,0,0,0,0,-1,818,1723,0,0
-399,-699,0,0,0,0,0,0,0,0,0,-1,825,1723,0,0
-392,-699,0,0,0,0,0,0,0,0,0,-1,832,1723,0,0
-385,-699,0,0,0,0,0,0,0,0,0,-1,839,1723,0,0
-378,-699,0,0,0,0,0,0,0,0,0,-1,846,1723,0,0
-371,-699,0,0,0,0,0,0,0,0,0,-1,853,1723,0,0
-364,-699,0,0,0,0,0,0,0,0,0,-1,860,1723,0,0
-357,-699,0,0,0,0,0,0,0,0,0,-1,867,1723,0,0
-350,-699,0,0,0,0,0,0,0,0,0,-1,874,1723,0,0
-343,-699,0,0,0,0,0,0,0,0,0,-1,881,1723,0,0
-336,-699,0,0,0,0,0,0,0,0,0,-1,888,1723,0,0
-329,-699,0,0,0,0,0,0,0,0,0,-1,895,1723,0,0
-322,-699,0,0,0,0,0,0,0,0,0,-1,902,1723,0,0
-315,-699,6.20001,19.5193,0,0,0,0,0,0,0,-1,909,1723,6.20001,-19.5193
-308,-699,6.98151,18.9218,0,0,0,0,0,0,0,-1,916,1723,6.98151,-18.9217
-301,-699,4.72729,12.8752,0,0,0,0,0,0,0,-1,923,1723,4.72732,-12.8752
-294,-699,6.90332,19.8601,0,0,0,0,0,0,0,-1,930,1723,6.90332,-19.8601
-287,-699,7.09802,22.7235,0,0,0,0,0,0,0,-1,937,1723,7.09805,-22.7235
-280,-699,7.50189,27.2051,0,0,0,0,0,0,0,-1,944,1723,7.50189,-27.2051
-273,-699,8.39404,27.785,0,0,0,0,0,0,0,-1,951,1723,8.39406,-27.785
-266,-699,6.81915,20.8951,0,0,0,0,0,0,0,-1,958,1723,6.81914,-20.8952
-259,-699,5.39758,14.5466,0,0,0,0,0,0,0,-1,965,1723,5.39759,-14.5466
-252,-699,8.71167,24.6536,0,0,0,0,0,0,0,-1,972,1723,8.71167,-24.6535
-245,-699,6.89502,27.4138,0,0,0,0,0,0,0,-1,979,1723,6.89502,-27.4139
-238,-699,7.04065,28.4467,0,0,0,0,0,0,0,-1,986,1723,7.04067,-28.4467
-231,-699,6.8645,28.2095,0.00639583,-0.0181098,-0.00278249,0.00670779,-0.0184217,-0.111652,0.0150248,0.0426546,993,1723,6.86453,-28.2095
-224,-699,6.97223,28.0026,0.00317488,-0.0128613,-0.000680055,0.00320367,-0.0128901,-0.0423062,0.00983676,0.0406504,1000,1723,6.97222,-28.0025
-217,-699,6.96411,28.2841,0.00104339,-0.00753036,0.00237251,0.00165612,-0.00814309,0.252738,0.00605672,0.0274231,1007,1723,6.96409,-28.284
-210,-699,6.94788,28.6318,0.000660362,-0.00560436,0.00323439,0.00203055,-0.00697455,0.400711,0.00545404,0.0175248,1014,1723,6.94786,-28.6318
-203,-699,6.90198,28.9036,0.000475453,-0.00383033,0.00372821,0.00262773,-0.00598261,0.523557,0.00509541,0.0211386,1021,1723,6.902,-28.9035
-196,-699,6.87646,29.1798,0.000154567,-0.00199073,0.00395137,0.0031763,-0.00501246,0.652861,0.00476723,0.0175823,1028,1723,6.87642,-29.1798
-189,-699,6.83154,29.4733,-0.000194262,-0.000539307,0.00393682,0.00357382,-0.00430738,0.763501,0.00455678,0.00875787,1035,1723,6.83158,-29.4732
-182,-699,6.81335,29.7484,-0.000387,0.000574831,0.00382116,0.00394522,-0.00375738,0.847997,0.00444754,0.0118889,1042,1723,6.81339,-29.7485
-175,-699,6.80737,30.0573,-0.000491049,0.00163531,0.00370654,0.00442814,-0.00328387,0.925068,0.00446884,0.0139737,1049,1723,6.80732,-30.0573
-168,-699,6.81641,30.3333,-0.00047989,0.00215242,0.00345519,0.00453364,-0.00286112,0.967374,0.00430561,0.0145418,1056,1723,6.81638,-30.3332
-161,-699,6.82214,30.5854,-0.000456381,0.00261548,0.00300984,0.00445864,-0.00229953,1.02133,0.00396765,0.012971,1063,1723,6.82212,-30.5854
-154,-699,6.80652,30.8462,-0.000362812,0.00328851,0.00241976,0.00449406,-0.00156837,1.10858,0.00363347,0.0130388,1070,1723,6.80654,-30.8462
-147,-699,6.78101,31.0704,-0.0002339,0.00358763,0.00199966,0.00444267,-0.00108894,1.16673,0.00338368,0.0141517,1077,1723,6.78106,-31.0704
-140,-699,6.76184,31.2858,-7.97601e-05,0.00390849,0.00160419,0.00447365,-0.000644926,1.23207,0.00321902,0.00938181,1084,1723,6.76179,-31.2857
-133,-699,6.77271,31.5237,0.000138711,0.00415369,0.00128392,0.00452915,-0.000236751,1.28629,0.00310136,0.00880321,1091,1723,6.7727,-31.5236
-126,-699,6.77148,31.7378,0.000369659,0.00431174,0.000918979,0.00451545,0.000165953,1.35266,0.00295653,0.0113817,1098,1723,6.77144,-31.7378
-119,-699,6.76489,31.9503,0.000644729,0.00445844,0.000699029,0.00458253,0.00052064,1.39511,0.00289711,0.0158598,1105,1723,6.76491,-31.9503
-112,-699,6.76123,32.1593,0.000906098,0.00446481,0.0005139,0.00453753,0.000833374,1.43022,0.00278905,0.0108632,1112,1723,6.76118,-32.1593
-105,-699,6.78137,32.365,0.00111984,0.00440587,0.000361621,0.0044452,0.00108052,1.46248,0.002677,0.0122915,1119,1723,6.78139,-32.365
-98,-699,6.81445,32.5665,0.0013157,0.00415266,0.000277538,0.00417956,0.0012888,1.47419,0.00247145,0.0149889,1126,1723,6.81442,-32.5665
-91,-699,6.81665,32.7417,0.0015167,0.00375349,0.000133404,0.00376142,0.00150878,1.51144,0.00218577,0.0198885,1133,1723,6.81669,-32.7418
-84,-699,6.81396,32.9429,0.00175479,0.00314922,-3.93769e-05,0.00315033,0.00175368,-1.54259,0.00182273,0.0221286,1140,1723,6.81398,-32.9429
-77,-699,6.81653,33.103,0.00202545,0.00267031,-0.000381594,0.00284745,0.0018483,-1.13618,0.00166817,0.0152058,1147,1723,6.81653,-33.1031
-70,-699,6.83423,33.2526,0.00233477,0.00196494,-0.000726982,0.00289999,0.00139972,-0.660862,0.00167464,0.0168811,1154,1723,6.83417,-33.2525
-63,-699,6.8512,33.4132,0.00143318,0.0052251,-1.71978e-05,0.00522518,0.00143311,-1.56626,0.00311755,0.0146175,1161,1723,6.85118,-33.4132
-56,-699,6.8269,33.5669,0.000213037,0.00938889,0.00125464,0.00955734,4.45801e-05,1.43733,0.00635675,0.0100105,1168,1723,6.82695,-33.5669
-49,-699,6.87988,33.7273,-0.00122164,0.012535,0.00242833,0.0129511,-0.00163771,1.40111,0.00922855,0.0222819,1175,1723,6.87984,-33.7273
-42,-699,6.91736,33.8964,-0.00295489,0.0148904,0.00384844,0.015685,-0.00374945,1.36719,0.0119049,0.0280235,1182,1723,6.91734,-33.8964
-35,-699,6.94177,34.0083,-0.00414732,0.0175266,0.00629398,0.0192218,-0.00584248,1.30771,0.0151425,0.0253448,1189,1723,6.94183,-34.0083
-28,-699,6.99438,34.0979,-0.00513708,0.0192741,0.00803653,0.0216823,-0.00754526,1.27966,0.0175201,0.0197712,1196,1723,6.99437,-34.0979
-21,-699,6.98926,34.1466,-0.0062742,0.0202778,0.00944974,0.0232975,-0.0092939,1.2615,0.019387,0.0131371,1203,1723,6.98922,-34.1466
-14,-699,6.98877,34.254,-0.00737627,0.0210156,0.0109981,0.0247775,-0.0111382,1.24122,0.0212285,0.011262,1210,1723,6.9888,-34.254
-7,-699,7.01086,34.3688,-0.00832056,0.0216527,0.0123142,0.0260629,-0.0127308,1.22689,0.0228342,0.00898386,1217,1723,7.0109,-34.3687
0,-699,7.04785,34.4561,-0.00890914,0.0223525,0.0133194,0.0272577,-0.0138144,1.21793,0.0241327,0.0104001,1224,1723,7.04784,-34.4561
7,-699,7.09705,34.5078,-0.0093752,0.0233333,0.0140758,0.0285566,-0.0145985,1.21546,0.0253463,0.0152728,1231,1723,7.09703,-34.5078
14,-699,7.14771,34.5862,-0.00969406,0.0243175,0.0144273,0.0296129,-0.0149895,1.21902,0.0262085,0.0166472,1238,1723,7.14768,-34.5862
21,-699,7.18335,34.6267,-0.00971354,0.0252791,0.0143089,0.0303851,-0.0148196,1.22804,0.0266097,0.0156127,1245,1723,7.18337,-34.6267
28,-699,7.22119,34.6753,-0.00956564,0.0259419,0.0138647,0.0307142,-0.014338,1.23929,0.0265775,0.015014,1252,1723,7.2212,-34.6753
35,-699,7.26294,34.7716,-0.00936734,0.0263888,0.0129587,0.0305913,-0.0135699,1.2572,0.0261202,0.0128575,1259,1723,7.26297,-34.7716
42,-699,7.29199,34.811,-0.00853567,0.0254739,0.0108931,0.0286637,-0.0117255,1.28593,0.0239925,0.0117929,1266,1723,7.29198,-34.811
49,-699,7.32324,34.8269,-0.00705325,0.0234927,0.00848708,0.0256924,-0.00925295,1.31719,0.0209066,0.0141866,1273,1723,7.32327,-34.8269
56,-699,7.3783,34.8438,-0.00525113,0.0210463,0.00606019,0.0223756,-0.00658049,1.35486,0.0175273,0.0152011,1280,1723,7.37827,-34.8438
63,-699,7.4198,34.8428,-0.00354574,0.0184109,0.00346711,0.0189454,-0.00408022,1.41785,0.0141873,0.0136978,1287,1723,7.41985,-34.8428
70,-699,7.41504,34.8358,-0.000858356,0.0161164,-0.00122344,0.0162041,-0.000946081,-1.49922,0.0111315,0.0117257,1294,1723,7.4151,-34.8358
77,-699,7.43542,34.8351,0.0026355,0.0157609,-0.00619163,0.0182207,0.000175708,-1.19264,0.012089,0.0113986,1301,1723,7.43538,-34.8351
84,-699,7.46411,34.7981,0.0060252,0.0132762,-0.00951156,0.0198298,-0.000528396,-0.967482,0.0133995,0.0136005,1308,1723,7.46413,-34.7981
91,-699,7.51953,34.7725,0.00858388,0.0111579,-0.0122556,0.0221939,-0.00245207,-0.837714,0.0156773,0.0123909,1315,1723,7.51949,-34.7724
98,-699,7.58704,34.7675,0.0109951,0.00961193,-0.014427,0.0247471,-0.00414002,-0.761448,0.0180371,0.0111169,1322,1723,7.58707,-34.7675
105,-699,7.60376,34.7471,0.0128074,0.00899188,-0.0160786,0.027091,-0.00529181,-0.726349,0.0200587,0.0161851,1329,1723,7.60375,-34.7471
112,-699,7.63367,34.7035,0.0143381,0.00887595,-0.0169093,0.0287355,-0.00552141,-0.705333,0.021238,0.0221909,1336,1723,7.63369,-34.7035
119,-699,7.65771,34.6343,0.0155089,0.0093193,-0.0169584,0.0296526,-0.00482444,-0.695145,0.0215573,0.0162535,1343,1723,7.65767,-34.6342
126,-699,7.68542,34.574,0.0161779,0.00968579,-0.0162126,0.0294662,-0.00360256,-0.686596,0.0209485,0.0183154,1350,1723,7.68537,-34.5739
133,-699,7.74146,34.5237,0.0163274,0.00978034,-0.0147697,0.028182,-0.00207421,-0.676341,0.0195162,0.0166151,1357,1723,7.74139,-34.5237
140,-699,7.78479,34.4357,0.016029,0.00932064,-0.0127631,0.0258713,-0.000521713,-0.656903,0.0174241,0.0173247,1364,1723,7.78482,-34.4357
147,-699,7.78491,34.3564,0.0151512,0.00867588,-0.0102731,0.0226847,0.00114233,-0.632746,0.0147571,0.0146091,1371,1723,7.78486,-34.3564
154,-699,7.77539,34.2545,0.0138288,0.00802215,-0.00806705,0.0194991,0.00235189,-0.612664,0.0122907,0.0146822,1378,1723,7.77541,-34.2546
161,-699,7.82874,34.1492,0.0126324,0.00706636,-0.00624517,0.0166866,0.00301218,-0.575792,0.0102687,0.0107069,1385,1723,7.82869,-34.1491
168,-699,7.85181,34.0659,0.0118248,0.00581507,-0.0044406,0.0141817,0.00345821,-0.487946,0.00853844,0.01216,1392,1723,7.85185,-34.0659
175,-699,7.90259,33.9679,0.00922178,0.00313212,-0.000429453,0.00925192,0.00310198,-0.0700594,0.00543736,0.0145047,1399,1723,7.90254,-33.9679
182,-699,7.91626,33.7977,0.00494896,-0.00287496,0.00413407,0.00672857,-0.00465457,0.406498,0.00660832,0.0150585,1406,1723,7.91626,-33.7977
189,-699,7.92773,33.6517,0.00250341,-0.00104962,0.00435105,0.00542664,-0.00397285,0.591579,0.00544839,0.0168409,1413,1723,7.9277,-33.6518
196,-699,7.94385,33.5145,0.00289147,0.000547548,0.00279994,0.00475483,-0.00131581,0.587193,0.00368759,0.0158891,1420,1723,7.94382,-33.5145
203,-699,7.92896,33.3859,0.00260428,0.0011449,0.00123553,0.00330951,0.00043968,0.518662,0.00207536,0.0128326,1427,1723,7.92893,-33.3858
210,-699,7.9491,33.239,0.00207455,0.00126365,0.00101946,0.00276622,0.000571971,0.596132,0.00168614,0.0133349,1434,1723,7.94912,-33.239
217,-699,7.9845,33.092,0.00155427,0.00116323,0.00056969,0.00196106,0.00075644,0.620091,0.00114203,0.0140398,1441,1723,7.98446,-33.0921
224,-699,8.01013,32.905,0.00134526,0.00107858,0.000310401,0.00154975,0.00087409,0.582529,0.000897189,0.0159272,1448,1723,8.01015,-32.905
231,-699,8.01221,32.7272,0.00120828,0.000821694,1.02815e-05,0.00120855,0.000821421,0.0265707,0.000712617,0.0129831,1455,1723,8.01217,-32.7272
238,-699,7.99182,32.5325,0.00108515,0.000552455,-0.000263236,0.00119328,0.000444323,-0.389763,0.000696383,0.0108081,1462,1723,7.99179,-32.5325
245,-699,7.99683,32.3291,0.00107091,0.000352392,-0.000507407,0.00133337,8.99371e-05,-0.477351,0.0008605,0.012111,1469,1723,7.99681,-32.3291
252,-699,7.98376,32.1525,0.00115197,0.000182742,-0.000671632,0.00149557,-0.00016086,-0.472879,0.00105476,0.0101125,1476,1723,7.98373,-32.1524
259,-699,7.98511,31.9681,0.00130608,0.000145879,-0.000779534,0.00169767,-0.000245715,-0.465521,0.00122195,0.0104921,1483,1723,7.98514,-31.9682
266,-699,7.9906,31.77,0.00145524,0.000315708,-0.000876193,0.00193063,-0.00015968,-0.497113,0.00134348,0.0128688,1490,1723,7.99061,-31.77
273,-699,8.00269,31.5577,0.00161627,0.00078925,-0.000986643,0.00227255,0.000132967,-0.586964,0.00147271,0.0117046,1497,1723,8.00273,-31.5577
280,-699,8.01733,31.3162,0.00176652,0.00134121,-0.00112506,0.00269885,0.000408883,-0.69199,0.00167961,0.0115078,1504,1723,8.01731,-31.3162
287,-699,7.99365,31.0588,0.00188925,0.00216168,-0.00127894,0.00331164,0.000739294,-0.83845,0.00200723,0.0105665,1511,1723,7.99366,-31.0588
294,-699,7.98645,30.8438,0.00192621,0.00323128,-0.00143392,0.00415416,0.00100333,-0.998929,0.00250295,0.0108859,1518,1723,7.98643,-30.8437
301,-699,7.99377,30.6301,0.00178791,0.00413987,-0.00171334,0.00504198,0.000885801,-1.08616,0.00310841,0.0119013,1525,1723,7.99376,-30.6301
308,-699,7.9834,30.4099,0.00154393,0.00488,-0.00199829,0.00581495,0.000608987,-1.13318,0.00369042,0.0165987,1532,1723,7.98339,-30.4099
315,-699,7.97852,30.1523,0.00128709,0.00501066,-0.00226399,0.00608007,0.000217682,-1.12951,0.0039828,0.0190692,1539,1723,7.97848,-30.1523
322,-699,7.93237,29.8431,0.000989042,0.0051649,-0.00249177,0.00632787,-0.00017393,-1.13412,0.00427773,0.0195666,1546,1723,7.93243,-29.8431
329,-699,7.89417,29.5718,0.000596861,0.00496379,-0.00256848,0.00615147,-0.000590813,-1.13767,0.00431143,0.0169552,1553,1723,7.89421,-29.5718
336,-699,7.89014,29.3335,0.000290298,0.00423256,-0.00242607,0.00538731,-0.000864457,-1.12655,0.00391166,0.0188777,1560,1723,7.89008,-29.3334
343,-699,7.95032,29.0868,-0.000270393,0.00231171,-0.0020638,0.00345501,-0.00141369,-1.0649,0.00289213,0.0238023,1567,1723,7.9503,-29.0868
350,-699,7.94495,28.7943,-0.000684716,-0.000830094,-0.00100846,0.000253673,-0.00176848,-0.749421,0.00127201,0.0322829,1574,1723,7.94496,-28.7943
357,-699,7.8667,28.5835,-0.000812019,-0.00473513,0.000327405,-0.000784883,-0.00476227,0.0826932,0.00294825,0.0417368,1581,1723,7.86674,-28.5835
364,-699,7.91907,28.5107,-0.00110012,-0.00953139,0.00220662,-0.000557525,-0.010074,0.241111,0.00653807,0.0449725,1588,1723,7.91909,-28.5107
371,-699,7.92273,27.9718,0,0,0,0,0,0,0,-1,1595,1723,7.92271,-27.9718
378,-699,7.3009,26.9484,0,0,0,0,0,0,0,-1,1602,1723,7.30092,-26.9483
385,-699,6.32727,24.7136,0,0,0,0,0,0,0,-1,1609,1723,6.32725,-24.7136
392,-699,7.7124,26.755,0,0,0,0,0,0,0,-1,1616,1723,7.7124,-26.7551
399,-699,7.28809,29.0607,0,0,0,0,0,0,0,-1,1623,1723,7.28812,-29.0606
406,-699,5.50757,21.6672,0,0,0,0,0,0,0,-1,1630,1723,5.50755,-21.6672
413,-699,9.31396,23.2781,0,0,0,0,0,0,0,-1,1637,1723,9.31396,-23.278
420,-699,2.15076,7.65527,0,0,0,0,0,0,0,-1,1644,1723,2.15079,-7.65522
427,-699,3.36328,8.2428,0,0,0,0,0,0,0,-1,1651,1723,3.36332,-8.24283
434,-699,4.66455,8.90222,0,0,0,0,0,0,0,-1,1658,1723,4.66456,-8.90223
441,-699,0,0,0,0,0,0,0,0,0,-1,1665,1723,0,0
448,-699,0,0,0,0,0,0,0,0,0,-1,1672,1723,0,0
455,-699,0,0,0,0,0,0,0,0,0,-1,1679,1723,0,0
462,-699,0,0,0,0,0,0,0,0,0,-1,1686,1723,0,0
469,-699,0,0,0,0,0,0,0,0,0,-1,1693,1723,0,0
476,-699,0,0,0,0,0,0,0,0,0,-1,1700,1723,0,0
483,-699,0,0,0,0,0,0,0,0,0,-1,1707,1723,0,0
490,-699,0,0,0,0,0,0,0,0,0,-1,1714,1723,0,0
497,-699,0,0,0,0,0,0,0,0,0,-1,1721,1723,0,0
504,-699,0,0,0,0,0,0,0,0,0,-1,1728,1723,0,0
511,-699,0,0,0,0,0,0,0,0,0,-1,1735,1723,0,0
518,-699,0,0,0,0,0,0,0,0,0,-1,1742,1723,0,0
525,-699,0,0,0,0,0,0,0,0,0,-1,1749,1723,0,0
532,-699,0,0,0,0,0,0,0,0,0,-1,1756,1723,0,0
539,-699,0,0,0,0,0,0,0,0,0,-1,1763,1723,0,0
546,-699,0,0,0,0,0,0,0,0,0,-1,1770,1723,0,0
553,-699,0,0,0,0,0,0,0,0,0,-1,1777,1723,0,0
560,-699,0,0,0,0,0,0,0,0,0,-1,1784,1723,0,0
567,-699,0,0,0,0,0,0,0,0,0,-1,1791,1723,0,0
574,-699,0,0,0,0,0,0,0,0,0,-1,1798,1723,0,0
581,-699,0,0,0,0,0,0,0,0,0,-1,1805,1723,0,0
588,-699,0,0,0,0,0,0,0,0,0,-1,1812,1723,0,0
595,-699,0,0,0,0,0,0,0,0,0,-1,1819,1723,0,0
602,-699,0,0,0,0,0,0,0,0,0,-1,1826,1723,0,0
609,-699,0,0,0,0,0,0,0,0,0,-1,1833,1723,0,0
616,-699,0,0,0,0,0,0,0,0,0,-1,1840,1723,0,0
623,-699,0,0,0,0,0,0,0,0,0,-1,1847,1723,0,0
630,-699,0,0,0,0,0,0,0,0,0,-1,1854,1723,0,0
637,-699,0,0,0,0,0,0,0,0,0,-1,1861,1723,0,0
644,-699,0,0,0,0,0,0,0,0,0,-1,1868,1723,0,0
651,-699,0,0,0,0,0,0,0,0,0,-1,1875,1723,0,0
658,-699,0,0,0,0,0,0,0,0,0,-1,1882,1723,0,0
665,-699,0,0,0,0,0,0,0,0,0,-1,1889,1723,0,0
672,-699,0,0,0,0,0,0,0,0,0,-1,1896,1723,0,0
679,-699,0,0,0,0,0,0,0,0,0,-1,1903,1723,0,0
686,-699,0,0,0,0,0,0,0,0,0,-1,1910,1723,0,0
693,-699,0,0,0,0,0,0,0,0,0,-1,1917,1723,0,0
700,-699,0,0,0,0,0,0,0,0,0,-1,1924,1723,0,0
707,-699,0,0,0,0,0,0,0,0,0,-1,1931,1723,0,0
714,-699,0,0,0,0,0,0,0,0,0,-1,1938,1723,0,0
721,-699,0,0,0,0,0,0,0,0,0,-1,1945,1723,0,0
728,-699,0,0,0,0,0,0,0,0,0,-1,1952,1723,0,0
735,-699,0,0,0,0,0,0,0,0,0,-1,1959,1723,0,0
742,-699,0,0,0,0,0,0,0,0,0,-1,1966,1723,0,0
749,-699,0,0,0,0,0,0,0,0,0,-1,1973,1723,0,0
756,-699,0,0,0,0,0,0,0,0,0,-1,1980,1723,0,0
763,-699,0,0,0,0,0,0,0,0,0,-1,1987,1723,0,0
770,-699,0,0,0,0,0,0,0,0,0,-1,1994,1723,0,0
777,-699,0,0,0,0,0,0,0,0,0,-1,2001,1723,0,0
784,-699,0,0,0,0,0,0,0,0,0,-1,2008,1723,0,0
791,-699,0,0,0,0,0,0,0,0,0,-1,2015,1723,0,0
798,-699,0,0,0,0,0,0,0,0,0,-1,2022,1723,0,0
805,-699,0,0,0,0,0,0,0,0,0,-1,2029,1723,0,0
812,-699,0,0,0,0,0,0,0,0,0,-1,2036,1723,0,0
-700,-706,0,0,0,0,0,0,0,0,0,-1,524,1730,0,0
-693,-706,0,0,0,0,0,0,0,0,0,-1,531,1730,0,0
-686,-706,0,0,0,0,0,0,0,0,0,-1,538,1730,0,0
-679,-706,0,0,0,0,0,0,0,0,0,-1,545,1730,0,0
-672,-706,0,0,0,0,0,0,0,0,0,-1,552,1730,0,0
-665,-706,0,0,0,0,0,0,0,0,0,-1,559,1730,0,0
-658,-706,0,0,0,0,0,0,0,0,0,-1,566,1730,0,0
-651,-706,0,0,0,0,0,0,0,0,0,-1,573,1730,0,0
-644,-706,0,0,0,0,0,0,0,0,0,-1,580,1730,0,0
-637,-706,0,0,0,0,0,0,0,0,0,-1,587,1730,0,0
-630,-706,0,0,0,0,0,0,0,0,0,-1,594,1730,0,0
-623,-706,0,0,0,0,0,0,0,0,0,-1,601,1730,0,0
-616,-706,0,0,0,0,0,0,0,0,0,-1,608,1730,0,0
-609,-706,0,0,0,0,0,0,0,0,0,-1,615,1730,0,0
-602,-706,0,0,0,0,0,0,0,0,0,-1,622,1730,0,0
-595,-706,0,0,0,0,0,0,0,0,0,-1,629,1730,0,0
-588,-706,0,0,0,0,0,0,0,0,0,-1,636,1730,0,0
-581,-706,0,0,0,0,0,0,0,0,0,-1,643,1730,0,0
-574,-706,0,0,0,0,0,0,0,0,0,-1,650,1730,0,0
-567,-706,0,0,0,0,0,0,0,0,0,-1,657,1730,0,0
-560,-706,0,0,0,0,0,0,0,0,0,-1,664,1730,0,0
-553,-706,0,0,0,0,0,0,0,0,0,-1,671,1730,0,0
-546,-706,0,0,0,0,0,0,0,0,0,-1,678,1730,0,0
-539,-706,0,0,0,0,0,0,0,0,0,-1,685,1730,0,0
-532,-706,0,0,0,0,0,0,0,0,0,-1,692,1730,0,0
-525,-706,0,0,0,0,0,0,0,0,0,-1,699,1730,0,0
-518,-706,0,0,0,0,0,0,0,0,0,-1,706,1730,0,0
-511,-706,0,0,0,0,0,0,0,0,0,-1,713,1730,0,0
-504,-706,0,0,0,0,0,0,0,0,0,-1,720,1730,0,0
-497,-706,0,0,0,0,0,0,0,0,0,-1,727,1730,0,0
-490,-706,0,0,0,0,0,0,0,0,0,-1,734,1730,0,0
-483,-706,0,0,0,0,0,0,0,0,0,-1,741,1730,0,0
-476,-706,0,0,0,0,0,0,0,0,0,-1,748,1730,0,0
-469,-706,0,0,0,0,0,0,0,0,0,-1,755,1730,0,0
-462,-706,0,0,0,0,0,0,0,0,0,-1,762,1730,0,0
-455,-706,0,0,0,0,0,0,0,0,0,-1,769,1730,0,0
-448,-706,0,0,0,0,0,0,0,0,0,-1,776,1730,0,0
-441,-706,0,0,0,0,0,0,0,0,0,-1,783,1730,0,0
-434,-706,0,0,0,0,0,0,0,0,0,-1,790,1730,0,0
-427,-706,0,0,0,0,0,0,0,0,0,-1,797,1730,0,0
-420,-706,0,0,0,0,0,0,0,0,0,-1,804,1730,0,0
-413,-706,0,0,0,0,0,0,0,0,0,-1,811,1730,0,0
-406,-706,0,0,0,0,0,0,0,0,0,-1,818,1730,0,0
-399,-706,0,0,0,0,0,0,0,0,0,-1,825,1730,0,0
-392,-706,0,0,0,0,0,0,0,0,0,-1,832,1730,0,0
-385,-706,0,0,0,0,0,0,0,0,0,-1,839,1730,0,0
-378,-706,0,0,0,0,0,0,0,0,0,-1,846,1730,0,0
-371,-706,0,0,0,0,0,0,0,0,0,-1,853,1730,0,0
-364,-706,0,0,0,0,0,0,0,0,0,-1,860,1730,0,0
-357,-706,0,0,0,0,0,0,0,0,0,-1,867,1730,0,0
-350,-706,0,0,0,0,0,0,0,0,0,-1,874,1730,0,0
-343,-706,0,0,0,0,0,0,0,0,0,-1,881,1730,0,0
-336,-706,0,0,0,0,0,0,0,0,0,-1,888,1730,0,0
-329,-706,0,0,0,0,0,0,0,0,0,-1,895,1730,0,0
-322,-706,0,0,0,0,0,0,0,0,0,-1,902,1730,0,0
-315,-706,0,0,0,0,0,0,0,0,0,-1,909,1730,0,0
-308,-706,5.08191,14.6245,0,0,0,0,0,0,0,-1,916,1730,5.08188,-14.6245
-301,-706,7.45007,21.1975,0,0,0,0,0,0,0,-1,923,1730,7.45005,-21.1976
-294,-706,11.8603,21.026,0,0,0,0,0,0,0,-1,930,1730,11.8603,-21.026
-287,-706,10.3292,20.8425,0,0,0,0,0,0,0,-1,937,1730,10.3292,-20.8425
-280,-706,7.9162,21.8951,0,0,0,0,0,0,0,-1,944,1730,7.9162,-21.8952
-273,-706,7.38953,20.6355,0,0,0,0,0,0,0,-1,951,1730,7.38955,-20.6355
-266,-706,9.66724,22.8231,0,0,0,0,0,0,0,-1,958,1730,9.66722,-22.8231
-259,-706,3.47852,20.7363,0,0,0,0,0,0,0,-1,965,1730,3.47851,-20.7364
-252,-706,3.84259,20.1979,0,0,0,0,0,0,0,-1,972,1730,3.84256,-20.1979
-245,-706,4.698,19.2992,0,0,0,0,0,0,0,-1,979,1730,4.69799,-19.2991
-238,-706,7.07745,28.6687,0,0,0,0,0,0,0,-1,986,1730,7.07745,-28.6687
-231,-706,6.97345,28.3457,0,0,0,0,0,0,0,-1,993,1730,6.97342,-28.3458
-224,-706,7.31531,28.026,0,0,0,0,0,0,0,-1,1000,1730,7.31533,-28.026
-217,-706,7.32318,28.266,0,0,0,0,0,0,0,-1,1007,1730,7.32317,-28.266
-210,-706,7.99194,28.4081,0,0,0,0,0,0,0,-1,1014,1730,7.99195,-28.4081
-203,-706,7.16736,28.9917,0.000860118,-0.00467536,0.00579298,0.00451258,-0.00832783,0.562543,0.00752171,0.0286957,1021,1730,7.16732,-28.9917
-196,-706,7.13904,29.2227,0.000315516,-0.00217254,0.0060521,0.00525013,-0.00710715,0.684034,0.00716128,0.0237852,1028,1730,7.13899,-29.2226
-189,-706,7.11755,29.4785,-0.000195842,-0.000273428,0.00595341,0.0057189,-0.00618817,0.78214,0.00687633,0.0172592,1035,1730,7.11759,-29.4785
-182,-706,7.06616,29.7717,-0.000567473,0.0011238,0.00570002,0.00604057,-0.00548424,0.85904,0.00665643,0.0137452,1042,1730,7.0662,-29.7717
-175,-706,7.05774,30.0656,-0.000868846,0.00233462,0.00543879,0.00640263,-0.00493685,0.928601,0.00656506,0.015355,1049,1730,7.05774,-30.0656
-168,-706,7.07239,30.3318,-0.000991522,0.00281199,0.0049997,0.00625941,-0.00443895,0.967135,0.00620644,0.0158953,1056,1730,7.07236,-30.3317
-161,-706,7.0697,30.5875,-0.00110006,0.00317634,0.00431273,0.00585182,-0.00377554,1.01553,0.00560128,0.0130636,1063,1730,7.0697,-30.5875
-154,-706,7.03821,30.842,-0.00111056,0.00376338,0.00344578,0.00554686,-0.00289404,1.09318,0.00495293,0.0130332,1070,1730,7.03818,-30.842
-147,-706,7.00256,31.0516,-0.00105896,0.0038368,0.00283997,0.00513826,-0.00236042,1.14109,0.00442728,0.0128857,1077,1730,7.00256,-31.0517
-140,-706,6.99707,31.2931,-0.000980487,0.00397393,0.0022562,0.0048474,-0.00185395,1.20143,0.00399562,0.0111276,1084,1730,6.99712,-31.2931
-133,-706,7.0094,31.5167,-0.000816383,0.00404375,0.00178062,0.0046263,-0.00139893,1.25461,0.00364121,0.00798685,1091,1730,7.00936,-31.5168
-126,-706,7,31.7272,-0.000640913,0.00399259,0.00122511,0.00429657,-0.000944895,1.32758,0.00322581,0.0126495,1098,1730,6.99997,-31.7271
-119,-706,6.97034,31.9518,-0.000382956,0.00402242,0.00090751,0.00420204,-0.00056258,1.37539,0.00300648,0.0173062,1105,1730,6.9703,-31.9517
-112,-706,6.97046,32.1709,-0.000109844,0.00389626,0.000620985,0.00399031,-0.000203894,1.42048,0.00273071,0.0119411,1112,1730,6.9704,-32.171
-105,-706,6.97742,32.387,0.000126553,0.00393222,0.000380814,0.00396996,8.88213e-05,1.47204,0.00261753,0.00905621,1119,1730,6.97742,-32.387
-98,-706,6.99023,32.5748,0.000339559,0.00379232,0.000323826,0.00382243,0.000309451,1.47809,0.00245166,0.0106697,1126,1730,6.99024,-32.5749
-91,-706,6.98987,32.7551,0.000579386,0.00349135,0.000252769,0.00351313,0.000557608,1.48485,0.00218012,0.0136427,1133,1730,6.9899,-32.7551
-84,-706,6.98059,32.9282,0.000799483,0.00311166,0.00016988,0.00312407,0.000787069,1.49785,0.00187622,0.0159056,1140,1730,6.98063,-32.9282
-77,-706,6.9939,33.1025,0.00107408,0.00278332,-2.07649e-05,0.00278357,0.00107383,-1.55865,0.00162101,0.0152335,1147,1730,6.99395,-33.1025
-70,-706,6.97339,33.2942,0.00136071,0.00229382,-0.000255973,0.00235943,0.0012951,-1.3199,0.00136439,0.017993,1154,1730,6.97339,-33.2942
-63,-706,6.97192,33.422,0.00126171,0.00335087,6.03718e-05,0.00335262,0.00125997,1.54193,0.00195543,0.0134707,1161,1730,6.97195,-33.422
-56,-706,6.9856,33.5692,0.00101686,0.00515594,0.00072135,0.00527805,0.000894745,1.4031,0.00326162,0.0120623,1168,1730,6.98556,-33.5693
-49,-706,6.99854,33.7201,0.000443667,0.00669649,0.00141157,0.00700038,0.000139776,1.35875,0.00462103,0.0129423,1175,1730,6.99859,-33.7201
-42,-706,7.03162,33.8679,-0.000429989,0.00782595,0.00233145,0.00843884,-0.00104288,1.31373,0.00600379,0.0178545,1182,1730,7.03162,-33.868
-35,-706,7.04004,33.9772,-0.0009704,0.00977206,0.00392152,0.0110513,-0.00224962,1.25548,0.00822064,0.015307,1189,1730,7.04004,-33.9771
-28,-706,7.06604,34.0701,-0.00150522,0.0112979,0.00512916,0.0130992,-0.00330661,1.23305,0.0100186,0.00996899,1196,1730,7.06603,-34.07
-21,-706,7.08521,34.1704,-0.00228223,0.0123648,0.00613887,0.0145974,-0.00451484,1.22198,0.011535,0.0106388,1203,1730,7.08526,-34.1704
-14,-706,7.09509,34.2572,-0.003056,0.0132935,0.00727464,0.0160616,-0.00582414,1.20719,0.0130884,0.0102759,1210,1730,7.09515,-34.2572
-7,-706,7.11951,34.3673,-0.0037337,0.0142697,0.00826857,0.0174909,-0.00695492,1.19931,0.0145442,0.00870787,1217,1730,7.11956,-34.3673
0,-706,7.15015,34.465,-0.00423699,0.0153539,0.00904553,0.0188916,-0.00777467,1.19799,0.0158355,0.0117801,1224,1730,7.15009,-34.465
7,-706,7.1698,34.5277,-0.00461973,0.0166193,0.00962243,0.0203303,-0.00833079,1.20271,0.0170241,0.0133635,1231,1730,7.16985,-34.5277
14,-706,7.20178,34.5812,-0.00486366,0.0177746,0.00987621,0.0214775,-0.00856658,1.21208,0.0178719,0.0137612,1238,1730,7.20179,-34.5812
21,-706,7.23291,34.6381,-0.00484881,0.0187793,0.00976232,0.0222909,-0.00836037,1.2255,0.0182956,0.0115924,1245,1730,7.23286,-34.6381
28,-706,7.26501,34.6998,-0.00470253,0.0194268,0.00940931,0.0226622,-0.0079379,1.23961,0.0183361,0.0116925,1252,1730,7.26501,-34.6999
35,-706,7.29553,34.7671,-0.00459579,0.0198576,0.00875132,0.0226668,-0.00740497,1.26019,0.0180919,0.0131564,1259,1730,7.29558,-34.767
42,-706,7.32336,34.8075,-0.00412471,0.0193014,0.00726039,0.0213691,-0.0061924,1.29335,0.0166974,0.0116059,1266,1730,7.32339,-34.8075
49,-706,7.32983,34.8237,-0.00328664,0.0178754,0.00553833,0.0192372,-0.00464845,1.32969,0.0146227,0.013423,1273,1730,7.32981,-34.8238
56,-706,7.37415,34.8364,-0.00225073,0.0160266,0.00379084,0.0167816,-0.00300578,1.37419,0.0123126,0.0124981,1280,1730,7.37408,-34.8364
63,-706,7.41443,34.8403,-0.00125365,0.0139674,0.00189944,0.0142009,-0.0014871,1.4485,0.00999988,0.0110623,1287,1730,7.41438,-34.8404
70,-706,7.40491,34.8329,0.000465421,0.0119467,-0.00158702,0.0121621,0.000250091,-1.43594,0.00802598,0.0120646,1294,1730,7.40485,-34.8328
77,-706,7.40796,34.8278,0.00281867,0.0113517,-0.00527443,0.0138692,0.000301177,-1.12547,0.0091474,0.0107676,1301,1730,7.40794,-34.8278
84,-706,7.43933,34.8225,0.00513755,0.00929756,-0.00775902,0.0152505,-0.000815428,-0.916357,0.0104494,0.00870693,1308,1730,7.43929,-34.8225
91,-706,7.50647,34.8167,0.00684555,0.00764874,-0.00982221,0.0170776,-0.00258328,-0.80583,0.0123366,0.0090951,1315,1730,7.50646,-34.8166
98,-706,7.52344,34.8079,0.00846866,0.00643346,-0.0114486,0.0189448,-0.00404264,-0.741072,0.0141709,0.0133563,1322,1730,7.52339,-34.8079
105,-706,7.53601,34.7793,0.00987665,0.00581016,-0.0127535,0.020758,-0.00507116,-0.70635,0.0158026,0.0166532,1329,1730,7.53597,-34.7792
112,-706,7.55042,34.7377,0.0110495,0.00554031,-0.013362,0.0219379,-0.00534804,-0.683746,0.0166959,0.0155945,1336,1730,7.55036,-34.7377
119,-706,7.6001,34.6945,0.0118925,0.00570605,-0.0133287,0.0224822,-0.00488361,-0.67138,0.0168535,0.0130064,1343,1730,7.60009,-34.6944
126,-706,7.59753,34.6228,0.0123051,0.00584554,-0.0126399,0.0221213,-0.00397064,-0.660312,0.0162338,0.0148053,1350,1730,7.59756,-34.6228
133,-706,7.61682,34.5405,0.0122894,0.00583735,-0.0113974,0.0209085,-0.00278175,-0.64748,0.0149528,0.0126612,1357,1730,7.61687,-34.5406
140,-706,7.65955,34.4253,0.0119189,0.00544783,-0.00968988,0.0188992,-0.00153243,-0.624264,0.0131401,0.0120908,1364,1730,7.65952,-34.4253
147,-706,7.72595,34.314,0.0110588,0.00493207,-0.00760236,0.0161918,-0.000200915,-0.593876,0.0108621,0.0218094,1371,1730,7.72597,-34.314
154,-706,7.73792,34.2483,0.00984109,0.00446962,-0.00574393,0.0134962,0.000814544,-0.56671,0.00873859,0.0201074,1378,1730,7.73797,-34.2482
161,-706,7.70459,34.1637,0.00869256,0.0038423,-0.00417286,0.0110938,0.00144105,-0.52217,0.0069654,0.0105708,1385,1730,7.70461,-34.1637
168,-706,7.71765,34.0583,0.00775112,0.00309437,-0.00274249,0.00902033,0.00182517,-0.433441,0.00550692,0.0105005,1392,1730,7.71771,-34.0583
175,-706,7.75305,33.9474,0.00579127,0.00147128,-0.000109944,0.00579407,0.00146848,-0.025428,0.00347813,0.0105593,1399,1730,7.75301,-33.9474
182,-706,7.75891,33.8031,0.00311106,-0.0016882,0.00248893,0.00416874,-0.00274588,0.401831,0.00402023,0.0108665,1406,1730,7.75892,-33.8032
189,-706,7.77356,33.6399,0.00169395,-0.000292536,0.00235387,0.00325555,-0.00185414,0.58575,0.00298684,0.0133557,1413,1730,7.7735,-33.6398
196,-706,7.78418,33.5082,0.00184117,0.000595941,0.00132514,0.00268267,-0.000245563,0.56578,0.00187567,0.0118071,1420,1730,7.78423,-33.5081
203,-706,7.77576,33.3855,0.00161599,0.000836861,0.000398161,0.00178347,0.000669386,0.398154,0.0010403,0.0128971,1427,1730,7.77574,-33.3855
210,-706,7.77063,33.2321,0.00125825,0.000868239,0.000163104,0.00131747,0.00080902,0.348276,0.00076721,0.0125726,1434,1730,7.77059,-33.232
217,-706,7.79346,33.0801,0.000913377,0.000727601,-0.000243763,0.00108135,0.000559627,-0.603362,0.000624446,0.0134957,1441,1730,7.79344,-33.0801
224,-706,7.83606,32.9059,0.00077241,0.000554134,-0.00055321,0.00122715,9.93987e-05,-0.688008,0.000787059,0.0194133,1448,1730,7.83608,-32.9059
231,-706,7.83191,32.7241,0.000608708,0.000268107,-0.000862332,0.00131739,-0.000440579,-0.687909,0.00105621,0.0147896,1455,1730,7.8319,-32.7241
238,-706,7.80188,32.5381,0.000615768,0.000104086,-0.00102982,0.00142105,-0.000701197,-0.663647,0.00124855,0.00945482,1462,1730,7.80184,-32.5381
245,-706,7.80115,32.33,0.000758019,-1.91204e-05,-0.00118024,0.00161201,-0.000873112,-0.626372,0.00145577,0.0114766,1469,1730,7.80113,-32.33
252,-706,7.79822,32.1453,0.000943164,-4.24922e-05,-0.00125873,0.00180211,-0.000901438,-0.598808,0.0015895,0.011107,1476,1730,7.79822,-32.1453
259,-706,7.80725,31.9633,0.00122483,0.000108234,-0.00128929,0.00207151,-0.000738443,-0.581072,0.00168208,0.0121721,1483,1730,7.8073,-31.9632
266,-706,7.79309,31.7727,0.00149749,0.000520602,-0.00133673,0.00243222,-0.000414132,-0.610234,0.0017757,0.0123543,1490,1730,7.79311,-31.7727
273,-706,7.78601,31.5613,0.00180529,0.00129248,-0.00143554,0.00300715,9.06192e-05,-0.697023,0.00197525,0.012253,1497,1730,7.786,-31.5613
280,-706,7.76807,31.3246,0.00210171,0.00212034,-0.00157125,0.0036823,0.000539741,-0.788362,0.0022962,0.00992802,1504,1730,7.76812,-31.3245
287,-706,7.73975,31.067,0.00236812,0.00330709,-0.00175129,0.00465073,0.00102447,-0.916358,0.00282169,0.0106392,1511,1730,7.7397,-31.067
294,-706,7.74097,30.8485,0.00253286,0.00478132,-0.00191742,0.00587979,0.00143439,-1.05055,0.00353996,0.010784,1518,1730,7.74101,-30.8485
301,-706,7.74316,30.6295,0.00248788,0.00609078,-0.00225488,0.00717545,0.0014032,-1.12244,0.00439128,0.0104406,1525,1730,7.74317,-30.6296
308,-706,7.73828,30.3929,0.00230645,0.0071745,-0.00262237,0.00831837,0.00116258,-1.15948,0.00520154,0.0121924,1532,1730,7.73828,-30.3929
315,-706,7.71777,30.1392,0.00206165,0.00746656,-0.00301061,0.00880972,0.000718486,-1.15115,0.0056489,0.0195091,1539,1730,7.71782,-30.1392
322,-706,7.67041,29.9193,0.00174582,0.00779039,-0.00335657,0.00928483,0.000251382,-1.15192,0.00610782,0.0278087,1546,1730,7.67035,-29.9193
329,-706,7.71521,29.5594,0.00128353,0.00764196,-0.00349903,0.00919039,-0.0002649,-1.15417,0.00621711,0.0272574,1553,1730,7.71521,-29.5594
336,-706,7.5752,29.0957,0.000910063,0.00678261,-0.00341957,0.00835357,-0.0006609,-1.14015,0.00580191,0.0386122,1560,1730,7.57522,-29.0957
343,-706,7.58105,28.8221,0.000126769,0.00437005,-0.00312627,0.00602663,-0.00152981,-1.08352,0.00461304,0.0394409,1567,1730,7.58102,-28.8222
350,-706,7.71533,28.5641,0,0,0,0,0,0,0,-1,1574,1730,7.71528,-28.5641
357,-706,7.62634,28.8475,0,0,0,0,0,0,0,-1,1581,1730,7.62633,-28.8475
364,-706,7.63281,28.8717,0,0,0,0,0,0,0,-1,1588,1730,7.63281,-28.8717
371,-706,6.27881,24.0759,0,0,0,0,0,0,0,-1,1595,1730,6.27883,-24.0759
378,-706,4.80444,25.0989,0,0,0,0,0,0,0,-1,1602,1730,4.80445,-25.0989
385,-706,5.55212,24.9753,0,0,0,0,0,0,0,-1,1609,1730,5.55214,-24.9753
392,-706,6.2998,24.8518,0,0,0,0,0,0,0,-1,1616,1730,6.29983,-24.8518
399,-706,3.9502,25.5428,0,0,0,0,0,0,0,-1,1623,1730,3.95019,-25.5428
406,-706,6.04211,18.8085,0,0,0,0,0,0,0,-1,1630,1730,6.04216,-18.8085
413,-706,6.23413,20.7725,0,0,0,0,0,0,0,-1,1637,1730,6.23413,-20.7725
420,-706,6.51294,21.9171,0,0,0,0,0,0,0,-1,1644,1730,6.51292,-21.9171
427,-706,0,0,0,0,0,0,0,0,0,-1,1651,1730,0,0
434,-706,0,0,0,0,0,0,0,0,0,-1,1658,1730,0,0
441,-706,0,0,0,0,0,0,0,0,0,-1,1665,1730,0,0
448,-706,0,0,0,0,0,0,0,0,0,-1,1672,1730,0,0
455,-706,0,0,0,0,0,0,0,0,0,-1,1679,1730,0,0
462,-706,0,0,0,0,0,0,0,0,0,-1,1686,1730,0,0
469,-706,0,0,0,0,0,0,0,0,0,-1,1693,1730,0,0
476,-706,0,0,0,0,0,0,0,0,0,-1,1700,1730,0,0
483,-706,0,0,0,0,0,0,0,0,0,-1,1707,1730,0,0
490,-706,0,0,0,0,0,0,0,0,0,-1,1714,1730,0,0
497,-706,0,0,0,0,0,0,0,0,0,-1,1721,1730,0,0
504,-706,0,0,0,0,0,0,0,0,0,-1,1728,1730,0,0
511,-706,0,0,0,0,0,0,0,0,0,-1,1735,1730,0,0
518,-706,0,0,0,0,0,0,0,0,0,-1,1742,1730,0,0
525,-706,0,0,0,0,0,0,0,0,0,-1,1749,1730,0,0
532,-706,0,0,0,0,0,0,0,0,0,-1,1756,1730,0,0
539,-706,0,0,0,0,0,0,0,0,0,-1,1763,1730,0,0
546,-706,0,0,0,0,0,0,0,0,0,-1,1770,1730,0,0
553,-706,0,0,0,0,0,0,0,0,0,-1,1777,1730,0,0
560,-706,0,0,0,0,0,0,0,0,0,-1,1784,1730,0,0
567,-706,0,0,0,0,0,0,0,0,0,-1,1791,1730,0,0
574,-706,0,0,0,0,0,0,0,0,0,-1,1798,1730,0,0
581,-706,0,0,0,0,0,0,0,0,0,-1,1805,1730,0,0
588,-706,0,0,0,0,0,0,0,0,0,-1,1812,1730,0,0
595,-706,0,0,0,0,0,0,0,0,0,-1,1819,1730,0,0
602,-706,0,0,0,0,0,0,0,0,0,-1,1826,1730,0,0
609,-706,0,0,0,0,0,0,0,0,0,-1,1833,1730,0,0
616,-706,0,0,0,0,0,0,0,0,0,-1,1840,1730,0,0
623,-706,0,0,0,0,0,0,0,0,0,-1,1847,1730,0,0
630,-706,0,0,0,0,0,0,0,0,0,-1,1854,1730,0,0
637,-706,0,0,0,0,0,0,0,0,0,-1,1861,1730,0,0
644,-706,0,0,0,0,0,0,0,0,0,-1,1868,1730,0,0
651,-706,0,0,0,0,0,0,0,0,0,-1,1875,1730,0,0
658,-706,0,0,0,0,0,0,0,0,0,-1,1882,1730,0,0
665,-706,0,0,0,0,0,0,0,0,0,-1,1889,1730,0,0
672,-706,0,0,0,0,0,0,0,0,0,-1,1896,1730,0,0
679,-706,0,0,0,0,0,0,0,0,0,-1,1903,1730,0,0
686,-706,0,0,0,0,0,0,0,0,0,-1,1910,1730,0,0
693,-706,0,0,0,0,0,0,0,0,0,-1,1917,1730,0,0
700,-706,0,0,0,0,0,0,0,0,0,-1,1924,1730,0,0
707,-706,0,0,0,0,0,0,0,0,0,-1,1931,1730,0,0
714,-706,0,0,0,0,0,0,0,0,0,-1,1938,1730,0,0
721,-706,0,0,0,0,0,0,0,0,0,-1,1945,1730,0,0
728,-706,0,0,0,0,0,0,0,0,0,-1,1952,1730,0,0
735,-706,0,0,0,0,0,0,0,0,0,-1,1959,1730,0,0
742,-706,0,0,0,0,0,0,0,0,0,-1,1966,1730,0,0
749,-706,0,0,0,0,0,0,0,0,0,-1,1973,1730,0,0
756,-706,0,0,0,0,0,0,0,0,0,-1,1980,1730,0,0
763,-706,0,0,0,0,0,0,0,0,0,-1,1987,1730,0,0
770,-706,0,0,0,0,0,0,0,0,0,-1,1994,1730,0,0
777,-706,0,0,0,0,0,0,0,0,0,-1,2001,1730,0,0
784,-706,0,0,0,0,0,0,0,0,0,-1,2008,1730,0,0
791,-706,0,0,0,0,0,0,0,0,0,-1,2015,1730,0,0
798,-706,0,0,0,0,0,0,0,0,0,-1,2022,1730,0,0
805,-706,0,0,0,0,0,0,0,0,0,-1,2029,1730,0,0
812,-706,0,0,0,0,0,0,0,0,0,-1,2036,1730,0,0
-700,-713,0,0,0,0,0,0,0,0,0,-1,524,1737,0,0
-693,-713,0,0,0,0,0,0,0,0,0,-1,531,1737,0,0
-686,-713,0,0,0,0,0,0,0,0,0,-1,538,1737,0,0
-679,-713,0,0,0,0,0,0,0,0,0,-1,545,1737,0,0
-672,-713,0,0,0,0,0,0,0,0,0,-1,552,1737,0,0
-665,-713,0,0,0,0,0,0,0,0,0,-1,559,1737,0,0
-658,-713,0,0,0,0,0,0,0,0,0,-1,566,1737,0,0
-651,-713,0,0,0,0,0,0,0,0,0,-1,573,1737,0,0
-644,-713,0,0,0,0,0,0,0,0,0,-1,580,1737,0,0
-637,-713,0,0,0,0,0,0,0,0,0,-1,587,1737,0,0
-630,-713,0,0,0,0,0,0,0,0,0,-1,594,1737,0,0
-623,-713,0,0,0,0,0,0,0,0,0,-1,601,1737,0,0
-616,-713,0,0,0,0,0,0,0,0,0,-1,608,1737,0,0
-609,-713,0,0,0,0,0,0,0,0,0,-1,615,1737,0,0
-602,-713,0,0,0,0,0,0,0,0,0,-1,622,1737,0,0
-595,-713,0,0,0,0,0,0,0,0,0,-1,629,1737,0,0
-588,-713,0,0,0,0,0,0,0,0,0,-1,636,1737,0,0
-581,-713,0,0,0,0,0,0,0,0,0,-1,643,1737,0,0
-574,-713,0,0,0,0,0,0,0,0,0,-1,650,1737,0,0
-567,-713,0,0,0,0,0,0,0,0,0,-1,657,1737,0,0
-560,-713,0,0,0,0,0,0,0,0,0,-1,664,1737,0,0
-553,-713,0,0,0,0,0,0,0,0,0,-1,671,1737,0,0
-546,-713,0,0,0,0,0,0,0,0,0,-1,678,1737,0,0
-539,-713,0,0,0,0,0,0,0,0,0,-1,685,1737,0,0
-532,-713,0,0,0,0,0,0,0,0,0,-1,692,1737,0,0
-525,-713,0,0,0,0,0,0,0,0,0,-1,699,1737,0,0
-518,-713,0,0,0,0,0,0,0,0,0,-1,706,1737,0,0
-511,-713,0,0,0,0,0,0,0,0,0,-1,713,1737,0,0
-504,-713,0,0,0,0,0,0,0,0,0,-1,720,1737,0,0
-497,-713,0,0,0,0,0,0,0,0,0,-1,727,1737,0,0
-490,-713,0,0,0,0,0,0,0,0,0,-1,734,1737,0,0
-483,-713,0,0,0,0,0,0,0,0,0,-1,741,1737,0,0
-476,-713,0,0,0,0,0,0,0,0,0,-1,748,1737,0,0
-469,-713,0,0,0,0,0,0,0,0,0,-1,755,1737,0,0
-462,-713,0,0,0,0,0,0,0,0,0,-1,762,1737,0,0
-455,-713,0,0,0,0,0,0,0,0,0,-1,769,1737,0,0
-448,-713,0,0,0,0,0,0,0,0,0,-1,776,1737,0,0
-441,-713,0,0,0,0,0,0,0,0,0,-1,783,1737,0,0
-434,-713,0,0,0,0,0,0,0,0,0,-1,790,1737,0,0
-427,-713,0,0,0,0,0,0,0,0,0,-1,797,1737,0,0
-420,-713,0,0,0,0,0,0,0,0,0,-1,804,1737,0,0
-413,-713,0,0,0,0,0,0,0,0,0,-1,811,1737,0,0
-406,-713,0,0,0,0,0,0,0,0,0,-1,818,1737,0,0
-399,-713,0,0,0,0,0,0,0,0,0,-1,825,1737,0,0
-392,-713,0,0,0,0,0,0,0,0,0,-1,832,1737,0,0
-385,-713,0,0,0,0,0,0,0,0,0,-1,839,1737,0,0
-378,-713,0,0,0,0,0,0,0,0,0,-1,846,1737,0,0
-371,-713,0,0,0,0,0,0,0,0,0,-1,853,1737,0,0
-364,-713,0,0,0,0,0,0,0,0,0,-1,860,1737,0,0
-357,-713,0,0,0,0,0,0,0,0,0,-1,867,1737,0,0
-350,-713,0,0,0,0,0,0,0,0,0,-1,874,1737,0,0
-343,-713,0,0,0,0,0,0,0,0,0,-1,881,1737,0,0
-336,-713,0,0,0,0,0,0,0,0,0,-1,888,1737,0,0
-329,-713,0,0,0,0,0,0,0,0,0,-1,895,1737,0,0
-322,-713,0,0,0,0,0,0,0,0,0,-1,902,1737,0,0
-315,-713,0,0,0,0,0,0,0,0,0,-1,909,1737,0,0
-308,-713,0,0,0,0,0,0,0,0,0,-1,916,1737,0,0
-301,-713,0,0,0,0,0,0,0,0,0,-1,923,1737,0,0
-294,-713,7.17883,22.0453,0,0,0,0,0,0,0,-1,930,1737,7.17881,-22.0453
-287,-713,11.8916,21.5834,0,0,0,0,0,0,0,-1,937,1737,11.8916,-21.5833
-280,-713,10.2786,21.3551,0,0,0,0,0,0,0,-1,944,1737,10.2787,-21.3551
-273,-713,11.1981,23.8683,0,0,0,0,0,0,0,-1,951,1737,11.198,-23.8683
-266,-713,3.17981,19.8851,0,0,0,0,0,0,0,-1,958,1737,3.17983,-19.8851
-259,-713,3.5921,19.6868,0,0,0,0,0,0,0,-1,965,1737,3.59207,-19.6868
-252,-713,4.55469,20.5758,0,0,0,0,0,0,0,-1,972,1737,4.55466,-20.5758
-245,-713,3.89014,25.9825,0,0,0,0,0,0,0,-1,979,1737,3.89013,-25.9826
-238,-713,6.62506,30.5463,0,0,0,0,0,0,0,-1,986,1737,6.62509,-30.5462
-231,-713,7.10999,28.2686,0,0,0,0,0,0,0,-1,993,1737,7.10999,-28.2685
-224,-713,7.59491,25.9907,0,0,0,0,0,0,0,-1,1000,1737,7.59488,-25.9908
-217,-713,7.51563,28.8781,0,0,0,0,0,0,0,-1,1007,1737,7.51561,-28.8781
-210,-713,7.30768,28.8979,0.00211586,-0.00883835,0.0081089,0.00642409,-0.0131466,0.488371,0.0115192,0.0457861,1014,1737,7.3077,-28.898
-203,-713,7.2876,28.92,0.00156096,-0.00560612,0.00887879,0.00755211,-0.0115973,0.593592,0.0111378,0.042851,1021,1737,7.28763,-28.9201
-196,-713,7.39343,29.2809,0.000693039,-0.00214269,0.00915803,0.00854232,-0.00999196,0.708597,0.0107117,0.046917,1028,1737,7.39347,-29.2809
-189,-713,7.44971,29.5549,-4.21839e-05,0.000484302,0.00890793,0.00913288,-0.00869076,0.80017,0.0102915,0.0427217,1035,1737,7.44975,-29.5549
-182,-713,7.17078,29.5642,0,0,0,0,0,0,0,-1,1042,1737,7.17075,-29.5642
-175,-713,7.30896,29.9111,0,0,0,0,0,0,0,-1,1049,1737,7.30895,-29.9111
-168,-713,7.3313,30.3387,0,0,0,0,0,0,0,-1,1056,1737,7.33131,-30.3388
-161,-713,7.33582,30.5507,-0.00182091,0.00441464,0.00604924,0.00810229,-0.00550856,1.02334,0.00790565,0.0187157,1063,1737,7.33583,-30.5507
-154,-713,7.26563,30.826,-0.00195128,0.00488856,0.00479263,0.00735635,-0.00441907,1.09529,0.00686869,0.0129092,1070,1737,7.26562,-30.826
-147,-713,7.23254,31.084,-0.0019777,0.0046864,0.00390993,0.00649148,-0.00378278,1.13828,0.00600017,0.0192339,1077,1737,7.2325,-31.0839
-140,-713,7.24316,31.339,-0.00196676,0.00460133,0.00306452,0.00580909,-0.00317451,1.19538,0.0052605,0.0182931,1084,1737,7.24312,-31.339
-133,-713,7.21252,31.5372,-0.00184514,0.00446893,0.00237949,0.00526523,-0.00264144,1.24786,0.00464794,0.0109467,1091,1737,7.21249,-31.5372
-126,-713,7.19543,31.7136,-0.0017131,0.00419547,0.00159772,0.00459983,-0.00211747,1.32291,0.00396552,0.0173034,1098,1737,7.19539,-31.7137
-119,-713,7.18066,31.8994,-0.00145134,0.00411254,0.0011632,0.00434593,-0.00168473,1.37278,0.00359303,0.0254091,1105,1737,7.18063,-31.8995
-112,-713,7.18347,32.1776,-0.00114302,0.00386451,0.000764621,0.00397866,-0.00125717,1.4226,0.00315609,0.0128504,1112,1737,7.18344,-32.1776
-105,-713,7.18494,32.3799,-0.000876794,0.00402688,0.000438943,0.00406586,-0.000915776,1.48222,0.00306183,0.0102033,1119,1737,7.18499,-32.3799
-98,-713,7.16809,32.5767,-0.000653572,0.00402399,0.000423195,0.00406197,-0.000691552,1.48129,0.0029655,0.00895995,1126,1737,7.16803,-32.5766
-91,-713,7.1571,32.7443,-0.000373639,0.00382147,0.000413264,0.00386179,-0.000413962,1.47353,0.00272303,0.00913193,1133,1737,7.15704,-32.7443
-84,-713,7.15686,32.9163,-0.000172082,0.00364449,0.000408758,0.00368778,-0.00021537,1.46529,0.00253336,0.00891791,1140,1737,7.15689,-32.9163
-77,-713,7.16724,33.1229,0.000118182,0.00343498,0.000349162,0.00347134,8.18238e-05,1.46704,0.00228744,0.0122911,1147,1737,7.16726,-33.123
-70,-713,7.14966,33.2991,0.000397686,0.00307778,0.000186264,0.00309067,0.000384803,1.50174,0.00194491,0.0145011,1154,1737,7.14964,-33.2991
-63,-713,7.15173,33.4329,0.000588602,0.00302934,0.000212193,0.00304766,0.000570292,1.48472,0.00187087,0.0125311,1161,1737,7.15178,-33.4329
-56,-713,7.16809,33.5764,0.000806795,0.00329329,0.000425734,0.00336416,0.000735921,1.40584,0.00204216,0.0122465,1168,1737,7.16812,-33.5764
-49,-713,7.13733,33.7145,0.000866697,0.00348521,0.000685106,0.00365362,0.000698279,1.32975,0.00223957,0.0153156,1175,1737,7.13734,-33.7145
-42,-713,7.14709,33.8369,0.000734858,0.00351061,0.00113692,0.00391683,0.000328638,1.22763,0.00250886,0.0177953,1182,1737,7.14708,-33.8369
-35,-713,7.17578,33.9463,0.000750666,0.00432186,0.00202469,0.00523584,-0.000163316,1.14676,0.00354625,0.0140912,1189,1737,7.17583,-33.9463
-28,-713,7.18469,34.0779,0.000664934,0.0051148,0.00279993,0.00646617,-0.000686438,1.12113,0.00455686,0.0122976,1196,1737,7.18475,-34.0779
-21,-713,7.19971,34.1887,0.00033567,0.00578196,0.00353234,0.00751896,-0.00140133,1.11378,0.00553916,0.00949935,1203,1737,7.19966,-34.1888
-14,-713,7.20166,34.2616,-4.0855e-05,0.00642866,0.00438532,0.00864318,-0.00225538,1.10317,0.00664279,0.0106385,1210,1737,7.20164,-34.2617
-7,-713,7.22461,34.3689,-0.000432928,0.00728142,0.00516739,0.00987248,-0.00302399,1.10601,0.00778787,0.00931727,1217,1737,7.22462,-34.3689
0,-713,7.23389,34.4716,-0.000813473,0.00838563,0.00583477,0.0112158,-0.00364362,1.11918,0.00894268,0.0139939,1224,1737,7.23395,-34.4715
7,-713,7.25037,34.5298,-0.00113434,0.009681,0.00635019,0.0126141,-0.0040674,1.1381,0.0100436,0.017405,1231,1737,7.2504,-34.5297
14,-713,7.28125,34.5994,-0.001378,0.0108998,0.00661306,0.0137841,-0.00426233,1.15951,0.0108918,0.012736,1238,1737,7.28125,-34.5993
21,-713,7.29407,34.6666,-0.0014463,0.0119718,0.00658273,0.0146619,-0.00413638,1.18285,0.0114062,0.0110717,1245,1737,7.29407,-34.6667
28,-713,7.29724,34.7294,-0.00142964,0.0127159,0.00636324,0.015157,-0.00387081,1.20448,0.011612,0.0116909,1252,1737,7.29726,-34.7294
35,-713,7.31384,34.7676,-0.00145245,0.0132393,0.005893,0.0153109,-0.00352407,1.23275,0.0115624,0.0114664,1259,1737,7.3139,-34.7675
42,-713,7.34351,34.8137,-0.00131821,0.0131137,0.00486707,0.0146017,-0.00280618,1.2741,0.0107922,0.0108638,1266,1737,7.34351,-34.8137
49,-713,7.354,34.8328,-0.000972959,0.0123615,0.00366882,0.0133043,-0.00191573,1.31927,0.00957224,0.0110122,1273,1737,7.35399,-34.8328
56,-713,7.37549,34.8256,-0.000484544,0.0112417,0.00243359,0.0117267,-0.000969537,1.37408,0.00816019,0.0113042,1280,1737,7.37551,-34.8255
63,-713,7.38232,34.8496,3.30206e-05,0.00991346,0.00109168,0.0100326,-8.61604e-05,1.46205,0.00671733,0.0113626,1287,1737,7.38228,-34.8496
70,-713,7.39331,34.8658,0.00110116,0.00843712,-0.00137962,0.00868799,0.00085028,-1.39092,0.0055304,0.0112957,1294,1737,7.3933,-34.8658
77,-713,7.40979,34.8539,0.00262366,0.00789283,-0.00400764,0.0100543,0.000462186,-1.07617,0.00655424,0.0119108,1301,1737,7.40984,-34.8539
84,-713,7.44177,34.8467,0.00413508,0.00638582,-0.00578306,0.011152,-0.000631094,-0.881496,0.00765371,0.0113468,1308,1737,7.44173,-34.8467
91,-713,7.45886,34.8323,0.00522847,0.005202,-0.00725604,0.0124713,-0.00204082,-0.784486,0.00907131,0.0108165,1315,1737,7.45886,-34.8322
98,-713,7.46484,34.7917,0.0062997,0.00429942,-0.00842575,0.0137845,-0.00318534,-0.726325,0.0104151,0.0114318,1322,1737,7.46487,-34.7917
105,-713,7.48096,34.7618,0.00732437,0.00370676,-0.00940408,0.015092,-0.00406089,-0.690387,0.0116533,0.0137449,1329,1737,7.48093,-34.7618
112,-713,7.50024,34.7499,0.00814347,0.00334199,-0.00983413,0.0158657,-0.0043802,-0.665678,0.0123,0.0138601,1336,1737,7.50022,-34.7499
119,-713,7.53247,34.7129,0.00865558,0.00328371,-0.00975183,0.0160846,-0.00414532,-0.651016,0.0123392,0.0145451,1343,1737,7.53248,-34.7129
126,-713,7.52966,34.6586,0.00879276,0.00322743,-0.00912613,0.015551,-0.00353084,-0.63742,0.0117229,0.0136505,1350,1737,7.52964,-34.6586
133,-713,7.53418,34.5624,0.00856737,0.00310453,-0.008055,0.0143415,-0.00266956,-0.621934,0.0105639,0.0115516,1357,1737,7.5342,-34.5623
140,-713,7.5708,34.4476,0.00805751,0.00273739,-0.00662404,0.0125356,-0.00174074,-0.594465,0.00899368,0.0135082,1364,1737,7.57076,-34.4476
147,-713,7.58569,34.3428,0.00717155,0.00229268,-0.00495172,0.0102521,-0.000787884,-0.556525,0.00711193,0.0147639,1371,1737,7.58575,-34.3428
154,-713,7.58118,34.2642,0.00604772,0.00191289,-0.00349837,0.0080439,-8.32891e-05,-0.518523,0.00539058,0.0137348,1378,1737,7.58113,-34.2642
161,-713,7.59851,34.1685,0.00500347,0.00154445,-0.00230921,0.00615904,0.00038889,-0.46398,0.00398273,0.0100933,1385,1737,7.59855,-34.1685
168,-713,7.60498,34.0652,0.00413028,0.00121095,-0.0013745,0.00467558,0.000665656,-0.377679,0.00292056,0.0102387,1392,1737,7.60498,-34.0652
175,-713,7.61548,33.9431,0.0028301,0.000521795,-4.48313e-05,0.00283097,0.000520925,-0.0194119,0.00173987,0.0135585,1399,1737,7.61545,-33.9431
182,-713,7.61133,33.8202,0.00146673,-0.000589761,0.00101487,0.00188322,-0.00100625,0.389425,0.00169365,0.0118097,1406,1737,7.61127,-33.8202
189,-713,7.62244,33.6653,0.000828426,0.000155494,0.000709982,0.00127763,-0.000293714,0.56412,0.000964682,0.0108778,1413,1737,7.62246,-33.6653
196,-713,7.63916,33.5343,0.000825571,0.000538165,4.9285e-05,0.000833788,0.000529948,0.165197,0.000487252,0.0125139,1420,1737,7.63917,-33.5344
203,-713,7.64014,33.4131,0.000654657,0.000547896,-0.000529678,0.00113364,6.89153e-05,-0.735178,0.000733866,0.0172565,1427,1737,7.64012,-33.4131
210,-713,7.62769,33.2382,0.000463089,0.000498736,-0.000815135,0.00129624,-0.000334417,-0.796329,0.000994556,0.0147671,1434,1737,7.62769,-33.2381
217,-713,7.64355,33.0693,0.000289011,0.00027636,-0.00121967,0.00150237,-0.000936998,-0.782805,0.00142092,0.011595,1441,1737,7.64359,-33.0693
224,-713,7.65967,32.9214,0.000225557,-1.90093e-05,-0.00159517,0.00170313,-0.00149658,-0.747144,0.00184863,0.0124286,1448,1737,7.65971,-32.9214
231,-713,7.64246,32.7474,8.75727e-05,-0.000400542,-0.00191752,0.00177651,-0.00208948,-0.7221,0.00223446,0.0116864,1455,1737,7.6424,-32.7475
238,-713,7.62512,32.5422,0.000253948,-0.000496664,-0.00198584,0.00189964,-0.00214235,-0.692004,0.00233505,0.00854713,1462,1737,7.62506,-32.5422
245,-713,7.62622,32.3423,0.000626343,-0.000540655,-0.00207611,0.00219939,-0.00211371,-0.648405,0.00249033,0.0108084,1469,1737,7.62622,-32.3423
252,-713,7.62817,32.1426,0.000982276,-0.000421032,-0.00207031,0.0024666,-0.00190536,-0.622017,0.00253108,0.0117342,1476,1737,7.62813,-32.1426
259,-713,7.625,31.948,0.00145027,-3.93545e-05,-0.00201316,0.00285198,-0.00144106,-0.60822,0.00252281,0.0118163,1483,1737,7.62497,-31.948
266,-713,7.59058,31.7677,0.00190541,0.000680422,-0.00199161,0.00337659,-0.000790752,-0.636219,0.00255575,0.00984682,1490,1737,7.59055,-31.7677
273,-713,7.56311,31.5696,0.00241664,0.00182735,-0.00205326,0.00419629,4.77042e-05,-0.714135,0.00278176,0.00840809,1497,1737,7.56314,-31.5696
280,-713,7.54724,31.343,0.00290116,0.00303116,-0.00215808,0.00512522,0.000807097,-0.800453,0.00318209,0.00979923,1504,1737,7.54726,-31.343
287,-713,7.52197,31.121,0.00333935,0.0047,-0.00234396,0.00646037,0.00157898,-0.92664,0.00388894,0.011189,1511,1737,7.52196,-31.121
294,-713,7.51941,30.9105,0.00364636,0.00671784,-0.00249155,0.00810893,0.00225527,-1.06159,0.0048329,0.0181473,1518,1737,7.51939,-30.9105
301,-713,7.54297,30.6765,0.00370914,0.00859577,-0.002859,0.00991326,0.00239165,-1.13898,0.00597341,0.0214568,1525,1737,7.54297,-30.6765
308,-713,7.5752,30.4241,0.00359938,0.010217,-0.00330076,0.0115819,0.00223452,-1.17871,0.00709469,0.0229917,1532,1737,7.57521,-30.4241
315,-713,7.50769,30.1083,0.00333608,0.0108277,-0.00384158,0.0124474,0.00171637,-1.17179,0.00778943,0.0299528,1539,1737,7.50765,-30.1083
322,-713,7.53992,29.6415,0.00296278,0.0114828,-0.00434048,0.0133045,0.00114106,-1.17342,0.00851486,0.0405768,1546,1737,7.53988,-29.6415
329,-713,7.79089,29.3773,0,0,0,0,0,0,0,-1,1553,1737,7.79086,-29.3773
336,-713,7.38708,28.9225,0,0,0,0,0,0,0,-1,1560,1737,7.38705,-28.9225
343,-713,6.97815,28.6418,0,0,0,0,0,0,0,-1,1567,1737,6.97817,-28.6418
350,-713,6.98633,28.3644,0,0,0,0,0,0,0,-1,1574,1737,6.9863,-28.3644
357,-713,6.8197,26.0476,0,0,0,0,0,0,0,-1,1581,1737,6.81968,-26.0477
364,-713,7.35474,20.9537,0,0,0,0,0,0,0,-1,1588,1737,7.35472,-20.9537
371,-713,3.07507,25.4108,0,0,0,0,0,0,0,-1,1595,1737,3.07502,-25.4107
378,-713,4.21838,25.306,0,0,0,0,0,0,0,-1,1602,1737,4.21837,-25.306
385,-713,5.078,25.3104,0,0,0,0,0,0,0,-1,1609,1737,5.07795,-25.3104
392,-713,5.92114,25.3118,0,0,0,0,0,0,0,-1,1616,1737,5.92112,-25.3118
399,-713,3.14368,25.2808,0,0,0,0,0,0,0,-1,1623,1737,3.14369,-25.2808
406,-713,1.82678,26.7354,0,0,0,0,0,0,0,-1,1630,1737,1.82679,-26.7354
413,-713,3.24731,18.2787,0,0,0,0,0,0,0,-1,1637,1737,3.24726,-18.2787
420,-713,0,0,0,0,0,0,0,0,0,-1,1644,1737,0,0
427,-713,0,0,0,0,0,0,0,0,0,-1,1651,1737,0,0
434,-713,0,0,0,0,0,0,0,0,0,-1,1658,1737,0,0
441,-713,0,0,0,0,0,0,0,0,0,-1,1665,1737,0,0
448,-713,0,0,0,0,0,0,0,0,0,-1,1672,1737,0,0
455,-713,0,0,0,0,0,0,0,0,0,-1,1679,1737,0,0
462,-713,0,0,0,0,0,0,0,0,0,-1,1686,1737,0,0
469,-713,0,0,0,0,0,0,0,0,0,-1,1693,1737,0,0
476,-713,0,0,0,0,0,0,0,0,0,-1,1700,1737,0,0
483,-713,0,0,0,0,0,0,0,0,0,-1,1707,1737,0,0
490,-713,0,0,0,0,0,0,0,0,0,-1,1714,1737,0,0
497,-713,0,0,0,0,0,0,0,0,0,-1,1721,1737,0,0
504,-713,0,0,0,0,0,0,0,0,0,-1,1728,1737,0,0
511,-713,0,0,0,0,0,0,0,0,0,-1,1735,1737,0,0
518,-713,0,0,0,0,0,0,0,0,0,-1,1742,1737,0,0
525,-713,0,0,0,0,0,0,0,0,0,-1,1749,1737,0,0
532,-713,0,0,0,0,0,0,0,0,0,-1,1756,1737,0,0
539,-713,0,0,0,0,0,0,0,0,0,-1,1763,1737,0,0
546,-713,0,0,0,0,0,0,0,0,0,-1,1770,1737,0,0
553,-713,0,0,0,0,0,0,0,0,0,-1,1777,1737,0,0
560,-713,0,0,0,0,0,0,0,0,0,-1,1784,1737,0,0
567,-713,0,0,0,0,0,0,0,0,0,-1,1791,1737,0,0
574,-713,0,0,0,0,0,0,0,0,0,-1,1798,1737,0,0
581,-713,0,0,0,0,0,0,0,0,0,-1,1805,1737,0,0
588,-713,0,0,0,0,0,0,0,0,0,-1,1812,1737,0,0
595,-713,0,0,0,0,0,0,0,0,0,-1,1819,1737,0,0
602,-713,0,0,0,0,0,0,0,0,0,-1,1826,1737,0,0
609,-713,0,0,0,0,0,0,0,0,0,-1,1833,1737,0,0
616,-713,0,0,0,0,0,0,0,0,0,-1,1840,1737,0,0
623,-713,0,0,0,0,0,0,0,0,0,-1,1847,1737,0,0
630,-713,0,0,0,0,0,0,0,0,0,-1,1854,1737,0,0
637,-713,0,0,0,0,0,0,0,0,0,-1,1861,1737,0,0
644,-713,0,0,0,0,0,0,0,0,0,-1,1868,1737,0,0
651,-713,0,0,0,0,0,0,0,0,0,-1,1875,1737,0,0
658,-713,0,0,0,0,0,0,0,0,0,-1,1882,1737,0,0
665,-713,0,0,0,0,0,0,0,0,0,-1,1889,1737,0,0
672,-713,0,0,0,0,0,0,0,0,0,-1,1896,1737,0,0
679,-713,0,0,0,0,0,0,0,0,0,-1,1903,1737,0,0
686,-713,0,0,0,0,0,0,0,0,0,-1,1910,1737,0,0
693,-713,0,0,0,0,0,0,0,0,0,-1,1917,1737,0,0
700,-713,0,0,0,0,0,0,0,0,0,-1,1924,1737,0,0
707,-713,0,0,0,0,0,0,0,0,0,-1,1931,1737,0,0
714,-713,0,0,0,0,0,0,0,0,0,-1,1938,1737,0,0
721,-713,0,0,0,0,0,0,0,0,0,-1,1945,1737,0,0
728,-713,0,0,0,0,0,0,0,0,0,-1,1952,1737,0,0
735,-713,0,0,0,0,0,0,0,0,0,-1,1959,1737,0,0
742,-713,0,0,0,0,0,0,0,0,0,-1,1966,1737,0,0
749,-713,0,0,0,0,0,0,0,0,0,-1,1973,1737,0,0
756,-713,0,0,0,0,0,0,0,0,0,-1,1980,1737,0,0
763,-713,0,0,0,0,0,0,0,0,0,-1,1987,1737,0,0
770,-713,0,0,0,0,0,0,0,0,0,-1,1994,1737,0,0
777,-713,0,0,0,0,0,0,0,0,0,-1,2001,1737,0,0
784,-713,0,0,0,0,0,0,0,0,0,-1,2008,1737,0,0
791,-713,0,0,0,0,0,0,0,0,0,-1,2015,1737,0,0
798,-713,0,0,0,0,0,0,0,0,0,-1,2022,1737,0,0
805,-713,0,0,0,0,0,0,0,0,0,-1,2029,1737,0,0
812,-713,0,0,0,0,0,0,0,0,0,-1,2036,1737,0,0
-700,-720,0,0,0,0,0,0,0,0,0,-1,524,1744,0,0
-693,-720,0,0,0,0,0,0,0,0,0,-1,531,1744,0,0
-686,-720,0,0,0,0,0,0,0,0,0,-1,538,1744,0,0
-679,-720,0,0,0,0,0,0,0,0,0,-1,545,1744,0,0
-672,-720,0,0,0,0,0,0,0,0,0,-1,552,1744,0,0
-665,-720,0,0,0,0,0,0,0,0,0,-1,559,1744,0,0
-658,-720,0,0,0,0,0,0,0,0,0,-1,566,1744,0,0
-651,-720,0,0,0,0,0,0,0,0,0,-1,573,1744,0,0
-644,-720,0,0,0,0,0,0,0,0,0,-1,580,1744,0,0
-637,-720,0,0,0,0,0,0,0,0,0,-1,587,1744,0,0
-630,-720,0,0,0,0,0,0,0,0,0,-1,594,1744,0,0
-623,-720,0,0,0,0,0,0,0,0,0,-1,601,1744,0,0
-616,-720,0,0,0,0,0,0,0,0,0,-1,608,1744,0,0
-609,-720,0,0,0,0,0,0,0,0,0,-1,615,1744,0,0
-602,-720,0,0,0,0,0,0,0,0,0,-1,622,1744,0,0
-595,-720,0,0,0,0,0,0,0,0,0,-1,629,1744,0,0
-588,-720,0,0,0,0,0,0,0,0,0,-1,636,1744,0,0
-581,-720,0,0,0,0,0,0,0,0,0,-1,643,1744,0,0
-574,-720,0,0,0,0,0,0,0,0,0,-1,650,1744,0,0
-567,-720,0,0,0,0,0,0,0,0,0,-1,657,1744,0,0
-560,-720,0,0,0,0,0,0,0,0,0,-1,664,1744,0,0
-553,-720,0,0,0,0,0,0,0,0,0,-1,671,1744,0,0
-546,-720,0,0,0,0,0,0,0,0,0,-1,678,1744,0,0
-539,-720,0,0,0,0,0,0,0,0,0,-1,685,1744,0,0
-532,-720,0,0,0,0,0,0,0,0,0,-1,692,1744,0,0
-525,-720,0,0,0,0,0,0,0,0,0,-1,699,1744,0,0
-518,-720,0,0,0,0,0,0,0,0,0,-1,706,1744,0,0
-511,-720,0,0,0,0,0,0,0,0,0,-1,713,1744,0,0
-504,-720,0,0,0,0,0,0,0,0,0,-1,720,1744,0,0
-497,-720,0,0,0,0,0,0,0,0,0,-1,727,1744,0,0
-490,-720,0,0,0,0,0,0,0,0,0,-1,734,1744,0,0
-483,-720,0,0,0,0,0,0,0,0,0,-1,741,1744,0,0
-476,-720,0,0,0,0,0,0,0,0,0,-1,748,1744,0,0
-469,-720,0,0,0,0,0,0,0,0,0,-1,755,1744,0,0
-462,-720,0,0,0,0,0,0,0,0,0,-1,762,1744,0,0
-455,-720,0,0,0,0,0,0,0,0,0,-1,769,1744,0,0
-448,-720,0,0,0,0,0,0,0,0,0,-1,776,1744,0,0
-441,-720,0,0,0,0,0,0,0,0,0,-1,783,1744,0,0
-434,-720,0,0,0,0,0,0,0,0,0,-1,790,1744,0,0
-427,-720,0,0,0,0,0,0,0,0,0,-1,797,1744,0,0
-420,-720,0,0,0,0,0,0,0,0,0,-1,804,1744,0,0
-413,-720,0,0,0,0,0,0,0,0,0,-1,811,1744,0,0
-406,-720,0,0,0,0,0,0,0,0,0,-1,818,1744,0,0
-399,-720,0,0,0,0,0,0,0,0,0,-1,825,1744,0,0
-392,-720,0,0,0,0,0,0,0,0,0,-1,832,1744,0,0
-385,-720,0,0,0,0,0,0,0,0,0,-1,839,1744,0,0
-378,-720,0,0,0,0,0,0,0,0,0,-1,846,1744,0,0
-371,-720,0,0,0,0,0,0,0,0,0,-1,853,1744,0,0
-364,-720,0,0,0,0,0,0,0,0,0,-1,860,1744,0,0
-357,-720,0,0,0,0,0,0,0,0,0,-1,867,1744,0,0
-350,-720,0,0,0,0,0,0,0,0,0,-1,874,1744,0,0
-343,-720,0,0,0,0,0,0,0,0,0,-1,881,1744,0,0
-336,-720,0,0,0,0,0,0,0,0,0,-1,888,1744,0,0
-329,-720,0,0,0,0,0,0,0,0,0,-1,895,1744,0,0
-322,-720,0,0,0,0,0,0,0,0,0,-1,902,1744,0,0
-315,-720,0,0,0,0,0,0,0,0,0,-1,909,1744,0,0
-308,-720,0,0,0,0,0,0,0,0,0,-1,916,1744,0,0
-301,-720,0,0,0,0,0,0,0,0,0,-1,923,1744,0,0
-294,-720,0,0,0,0,0,0,0,0,0,-1,930,1744,0,0
-287,-720,0,0,0,0,0,0,0,0,0,-1,937,1744,0,0
-280,-720,6.46796,22.6417,0,0,0,0,0,0,0,-1,944,1744,6.46793,-22.6417
-273,-720,8.54633,13.262,0,0,0,0,0,0,0,-1,951,1744,8.54636,-13.2619
-266,-720,7.28027,13.3165,0,0,0,0,0,0,0,-1,958,1744,7.28026,-13.3166
-259,-720,3.70563,18.6372,0,0,0,0,0,0,0,-1,965,1744,3.70564,-18.6372
-252,-720,4.00989,18.5059,0,0,0,0,0,0,0,-1,972,1744,4.00988,-18.5058
-245,-720,4.63318,20.3199,0,0,0,0,0,0,0,-1,979,1744,4.6332,-20.32
-238,-720,5.02216,24.1455,0,0,0,0,0,0,0,-1,986,1744,5.02217,-24.1455
-231,-720,7.35455,28.3225,0,0,0,0,0,0,0,-1,993,1744,7.35453,-28.3225
-224,-720,7.65991,19.4061,0,0,0,0,0,0,0,-1,1000,1744,7.6599,-19.4061
-217,-720,6.90515,29.4521,0,0,0,0,0,0,0,-1,1007,1744,6.90515,-29.4521
-210,-720,6.63446,29.4844,0,0,0,0,0,0,0,-1,1014,1744,6.63445,-29.4844
-203,-720,7.40564,28.9584,0,0,0,0,0,0,0,-1,1021,1744,7.40564,-28.9584
-196,-720,7.67883,29.3771,0,0,0,0,0,0,0,-1,1028,1744,7.67878,-29.3771
-189,-720,6.95874,29.2913,0,0,0,0,0,0,0,-1,1035,1744,6.95872,-29.2913
-182,-720,7.17493,29.7662,-0.000654525,0.00421404,0.0121475,0.0141687,-0.0106092,0.884285,0.0143547,0.0461481,1042,1744,7.17495,-29.7662
-175,-720,7.3053,30.1141,0,0,0,0,0,0,0,-1,1049,1744,7.30533,-30.1142
-168,-720,7.32996,30.2677,-0.00212619,0.00656911,0.0100189,0.0131431,-0.00870013,0.990109,0.0126978,0.0446375,1056,1744,7.32998,-30.2677
-161,-720,7.29468,30.5302,-0.00260915,0.00668602,0.00842617,0.0116613,-0.00758447,1.03742,0.0111944,0.0378823,1063,1744,7.29467,-30.5302
-154,-720,7.50854,30.8881,-0.00289264,0.00702659,0.00663414,0.0103501,-0.00621611,1.10638,0.00966324,0.031098,1070,1744,7.50856,-30.8881
-147,-720,7.45337,31.196,-0.00301054,0.00647899,0.00535467,0.00888861,-0.00542016,1.14794,0.00834169,0.0274919,1077,1744,7.45336,-31.196
-140,-720,7.48022,31.4216,-0.00306871,0.00610337,0.00414706,0.00770036,-0.00466569,1.20321,0.00721085,0.0204762,1084,1744,7.48026,-31.4216
-133,-720,7.42151,31.5648,-0.00298191,0.00570251,0.00317643,0.00674031,-0.00401971,1.25501,0.00627815,0.0139295,1091,1744,7.42147,-31.5648
-126,-720,7.39734,31.754,-0.00288163,0.00515403,0.00211748,0.00567786,-0.00340546,1.32828,0.00529868,0.0136214,1098,1744,7.3974,-31.7541
-119,-720,7.38684,31.9657,-0.0025967,0.0049343,0.00153246,0.00523419,-0.00289659,1.37754,0.00475854,0.0154692,1105,1744,7.38683,-31.9657
-112,-720,7.3634,32.1746,-0.0022318,0.00455692,0.000997464,0.00470044,-0.00237532,1.42789,0.00415806,0.0139127,1112,1744,7.36345,-32.1746
-105,-720,7.34802,32.3633,-0.00192453,0.00484423,0.000575562,0.00489282,-0.00197312,1.48657,0.00408177,0.0131923,1119,1744,7.34802,-32.3633
-98,-720,7.33069,32.5493,-0.0016863,0.00496169,0.00059272,0.00501413,-0.00173873,1.48257,0.00404875,0.00997665,1126,1744,7.33065,-32.5493
-91,-720,7.33533,32.7306,-0.00135703,0.00482956,0.000624527,0.00489197,-0.00141945,1.47119,0.00382333,0.00928408,1133,1744,7.33534,-32.7306
-84,-720,7.33057,32.9531,-0.00116535,0.00477489,0.000675662,0.00485077,-0.00124123,1.45896,0.00371732,0.010027,1140,1744,7.3306,-32.9531
-77,-720,7.3252,33.1456,-0.000844453,0.00460603,0.000724165,0.0047006,-0.000939026,1.44093,0.00348912,0.012756,1147,1744,7.32522,-33.1457
-70,-720,7.32141,33.2845,-0.00055413,0.00427009,0.000596695,0.00434279,-0.000626838,1.44954,0.00312517,0.0114737,1154,1744,7.32137,-33.2846
-63,-720,7.30029,33.4407,-0.000413332,0.00382221,0.000444276,0.00386831,-0.000459431,1.4674,0.00274486,0.0109994,1161,1744,7.30026,-33.4407
-56,-720,7.31567,33.6002,-0.000188884,0.00332503,0.000380495,0.00336576,-0.000229613,1.46416,0.00232416,0.0131111,1168,1744,7.31567,-33.6002
-49,-720,7.29602,33.7224,3.61256e-05,0.00276625,0.000363623,0.00281385,-1.14752e-05,1.44063,0.00187974,0.0192022,1175,1744,7.29597,-33.7224
-42,-720,7.28992,33.8094,0.00026932,0.00211994,0.000491115,0.0022422,0.000147065,1.32682,0.00144827,0.0215459,1182,1744,7.28988,-33.8094
-35,-720,7.3031,33.9218,0.000594924,0.00173721,0.000782435,0.00213478,0.000197352,1.10067,0.00136218,0.0193108,1189,1744,7.30315,-33.9217
-28,-720,7.30115,34.0724,0.000847435,0.00152718,0.00112623,0.00236371,1.09082e-05,0.931943,0.00157218,0.0107592,1196,1744,7.30117,-34.0723
-21,-720,7.29871,34.2054,0.000947695,0.00144212,0.00158112,0.00279524,-0.000405423,0.862947,0.00201229,0.00913174,1203,1744,7.2987,-34.2054
-14,-720,7.29883,34.2794,0.000983432,0.00140717,0.00217183,0.00337744,-0.000986839,0.834021,0.00264272,0.0110714,1210,1744,7.29888,-34.2794
-7,-720,7.31128,34.3756,0.000933597,0.00168276,0.0027445,0.00407812,-0.00146176,0.853222,0.00331522,0.0115553,1217,1744,7.31129,-34.3756
0,-720,7.32959,34.4751,0.000801886,0.002356,0.00330079,0.00496997,-0.00181208,0.901001,0.00405464,0.0123039,1224,1744,7.32958,-34.4752
7,-720,7.32422,34.5505,0.000631402,0.00331749,0.00375913,0.00596629,-0.0020174,0.956969,0.00479365,0.0152728,1231,1744,7.32416,-34.5506
14,-720,7.3479,34.6099,0.000456193,0.00435855,0.00405563,0.00690795,-0.00209321,1.00961,0.005439,0.0143596,1238,1744,7.34788,-34.6099
21,-720,7.35364,34.6825,0.000358025,0.00538261,0.00415072,0.00772213,-0.00198149,1.05754,0.00592017,0.0118385,1245,1744,7.35365,-34.6825
28,-720,7.34741,34.7449,0.000295913,0.00620777,0.00412989,0.00833057,-0.00182689,1.096,0.00625229,0.0117399,1252,1744,7.34738,-34.7448
35,-720,7.35706,34.7781,0.000192788,0.00686684,0.00388733,0.00865301,-0.00159338,1.14008,0.00636661,0.0116128,1259,1744,7.35712,-34.7781
42,-720,7.35645,34.8109,0.000113772,0.00718775,0.00323704,0.00844542,-0.0011439,1.20022,0.00604775,0.0120363,1266,1744,7.35644,-34.8109
49,-720,7.34863,34.825,0.000156998,0.00713095,0.00246675,0.00791525,-0.00062731,1.26295,0.00549788,0.0115308,1273,1744,7.34864,-34.8249
56,-720,7.37561,34.8378,0.000347414,0.00674014,0.00166539,0.00714798,-6.04256e-05,1.33063,0.00478559,0.00997358,1280,1744,7.37559,-34.8377
63,-720,7.3866,34.8645,0.000637419,0.00615633,0.000714316,0.00624729,0.000546464,1.44415,0.00399518,0.0117518,1287,1744,7.38654,-34.8645
70,-720,7.41101,34.8846,0.00129589,0.00538308,-0.000995696,0.00561274,0.00106623,-1.34411,0.00344191,0.0121591,1294,1744,7.41103,-34.8847
77,-720,7.42822,34.8707,0.00227005,0.00508709,-0.00283493,0.00684413,0.000513016,-1.01596,0.00440172,0.014315,1301,1744,7.42825,-34.8707
84,-720,7.44165,34.8341,0.00324429,0.00411724,-0.00410789,0.00781177,-0.000450251,-0.838326,0.00536424,0.0144429,1308,1744,7.44171,-34.8341
91,-720,7.4292,34.839,0.00395889,0.00334217,-0.00517485,0.00883456,-0.0015335,-0.755639,0.00646182,0.0133547,1315,1744,7.42921,-34.839
98,-720,7.41321,34.8032,0.0046546,0.0027294,-0.00601293,0.00978149,-0.00239749,-0.706027,0.00744988,0.0118019,1322,1744,7.4132,-34.8032
105,-720,7.42859,34.7535,0.00530274,0.00223798,-0.00670304,0.0106463,-0.0031056,-0.673024,0.00832806,0.0110382,1329,1744,7.42861,-34.7536
112,-720,7.44775,34.7228,0.00578227,0.00184559,-0.00697308,0.0110595,-0.00343163,-0.647839,0.00874428,0.0106325,1336,1744,7.44773,-34.7228
119,-720,7.46838,34.6971,0.00595526,0.00163946,-0.00685974,0.0109885,-0.00339378,-0.633011,0.00868095,0.011176,1343,1744,7.4684,-34.6971
126,-720,7.46985,34.6365,0.00579938,0.00145514,-0.00632104,0.0103111,-0.00305658,-0.619902,0.00808779,0.0107914,1350,1744,7.46987,-34.6365
133,-720,7.47754,34.5627,0.00534205,0.0012698,-0.00545181,0.00912555,-0.0025137,-0.606681,0.00707211,0.0114299,1357,1744,7.47757,-34.5628
140,-720,7.49133,34.4888,0.00467306,0.000967976,-0.00429619,0.0074991,-0.00185807,-0.581841,0.00572025,0.0186565,1364,1744,7.49128,-34.4888
147,-720,7.49182,34.3978,0.00377371,0.000615084,-0.00301153,0.00559492,-0.00120612,-0.543901,0.00419025,0.0192332,1371,1744,7.49188,-34.3978
154,-720,7.47827,34.2799,0.00277376,0.000308094,-0.00197843,0.00387203,-0.000790179,-0.506769,0.0028811,0.0123216,1378,1744,7.47823,-34.2799
161,-720,7.51392,34.1592,0.0018669,0.000139106,-0.00122244,0.0024999,-0.000493889,-0.477795,0.00185329,0.00903339,1385,1744,7.51388,-34.1592
168,-720,7.50867,34.0643,0.00113253,6.06115e-05,-0.000683849,0.00146542,-0.00027228,-0.453025,0.00107922,0.00968537,1392,1744,7.50862,-34.0643
175,-720,7.48669,33.9335,0.000490316,2.19883e-05,-0.000303918,0.000639818,-0.000127513,-0.457157,0.000474792,0.015648,1399,1744,7.48664,-33.9335
182,-720,7.49402,33.8143,3.10616e-05,0.000159295,-0.000229805,0.00033376,-0.000143404,-0.921441,0.000282704,0.0148423,1406,1744,7.49408,-33.8143
189,-720,7.50659,33.6941,-7.64108e-05,0.000389188,-0.000623014,0.000821476,-0.000508699,-0.964199,0.000775022,0.0127414,1413,1744,7.50662,-33.6941
196,-720,7.51111,33.5497,-0.000154614,0.000405836,-0.00110481,0.0012654,-0.00101418,-0.9096,0.00131878,0.0143837,1420,1744,7.5111,-33.5497
203,-720,7.47925,33.3867,-0.000281947,0.000250365,-0.00155369,0.00156053,-0.00159211,-0.870228,0.00182021,0.0166729,1427,1744,7.47928,-33.3867
210,-720,7.46228,33.2444,-0.000313625,0.000118192,-0.00192562,0.00183997,-0.0020354,-0.841227,0.00223839,0.0149603,1434,1744,7.46225,-33.2443
217,-720,7.47717,33.0831,-0.000319307,-0.000224261,-0.00237249,0.00210118,-0.00264475,-0.795412,0.00274604,0.0135372,1441,1744,7.47723,-33.0832
224,-720,7.48059,32.9038,-0.000296924,-0.000676707,-0.00283439,0.00235393,-0.00332756,-0.75195,0.00329622,0.00963638,1448,1744,7.48062,-32.9039
231,-720,7.46826,32.7249,-0.000398774,-0.00120115,-0.0031971,0.00242221,-0.00402213,-0.722982,0.00375867,0.00954807,1455,1744,7.46821,-32.7248
238,-720,7.45325,32.5322,-5.90095e-05,-0.00127351,-0.00318663,0.00257771,-0.00391023,-0.691246,0.00377206,0.00809587,1462,1744,7.45324,-32.5323
245,-720,7.4425,32.3547,0.000562104,-0.0012588,-0.0032241,0.00300183,-0.00369853,-0.647786,0.00387542,0.0105079,1469,1744,7.44247,-32.3547
252,-720,7.43738,32.1538,0.0011191,-0.00100796,-0.00313082,0.0033621,-0.00325096,-0.621665,0.00381823,0.011282,1476,1744,7.4374,-32.1538
259,-720,7.43005,31.9508,0.00182231,-0.000380466,-0.00296941,0.00388801,-0.00244617,-0.607808,0.00368849,0.00993601,1483,1744,7.43,-31.9509
266,-720,7.39331,31.7705,0.00253319,0.000691856,-0.00285393,0.00461128,-0.00138623,-0.62937,0.0036257,0.00786648,1490,1744,7.39333,-31.7705
273,-720,7.37585,31.5522,0.00334268,0.00228382,-0.00284416,0.00570627,-7.97615e-05,-0.693378,0.00383104,0.0141886,1497,1744,7.37589,-31.5523
280,-720,7.28796,31.3363,0.00412655,0.00397282,-0.0028796,0.00693031,0.00116906,-0.772055,0.00428403,0.0215743,1504,1744,7.28802,-31.3362
287,-720,7.20605,31.0525,0.00486543,0.00626802,-0.00304321,0.00868969,0.00244375,-0.898644,0.00517461,0.0366945,1511,1744,7.20608,-31.0525
294,-720,7.41492,30.7375,0.00545373,0.00902829,-0.00313104,0.0108463,0.00363577,-1.04474,0.00637445,0.0392154,1518,1744,7.4149,-30.7376
301,-720,7.34241,30.5181,0.0057817,0.0117418,-0.00349105,0.0133518,0.00417175,-1.1387,0.00788735,0.0412231,1525,1744,7.34241,-30.5181
308,-720,7.42639,30.2701,0.00589868,0.0142263,-0.00400104,0.0158371,0.00428793,-1.18806,0.00945846,0.0403481,1532,1744,7.42638,-30.2702
315,-720,7.39746,29.9677,0.00567979,0.0154095,-0.00475168,0.0173451,0.00374426,-1.18398,0.0105394,0.0441672,1539,1744,7.39743,-29.9676
322,-720,7.29089,29.6851,0,0,0,0,0,0,0,-1,1546,1744,7.29087,-29.685
329,-720,7.79773,28.8168,0,0,0,0,0,0,0,-1,1553,1744,7.79771,-28.8167
336,-720,6.14148,26.5682,0,0,0,0,0,0,0,-1,1560,1744,6.14151,-26.5683
343,-720,6.78552,21.3625,0,0,0,0,0,0,0,-1,1567,1744,6.78551,-21.3625
350,-720,4.0741,11.1836,0,0,0,0,0,0,0,-1,1574,1744,4.07412,-11.1836
357,-720,6.90833,21.4504,0,0,0,0,0,0,0,-1,1581,1744,6.90827,-21.4505
364,-720,5.83777,24.1599,0,0,0,0,0,0,0,-1,1588,1744,5.83773,-24.1599
371,-720,5.46997,23.6176,0,0,0,0,0,0,0,-1,1595,1744,5.47001,-23.6176
378,-720,3.88257,25.5404,0,0,0,0,0,0,0,-1,1602,1744,3.88262,-25.5404
385,-720,4.63611,25.6746,0,0,0,0,0,0,0,-1,1609,1744,4.63612,-25.6746
392,-720,3.49377,23.5042,0,0,0,0,0,0,0,-1,1616,1744,3.4938,-23.5042
399,-720,2.37317,24.7166,0,0,0,0,0,0,0,-1,1623,1744,2.37317,-24.7166
406,-720,0,0,0,0,0,0,0,0,0,-1,1630,1744,0,0
413,-720,0,0,0,0,0,0,0,0,0,-1,1637,1744,0,0
420,-720,0,0,0,0,0,0,0,0,0,-1,1644,1744,0,0
427,-720,0,0,0,0,0,0,0,0,0,-1,1651,1744,0,0
434,-720,0,0,0,0,0,0,0,0,0,-1,1658,1744,0,0
441,-720,0,0,0,0,0,0,0,0,0,-1,1665,1744,0,0
448,-720,0,0,0,0,0,0,0,0,0,-1,1672,1744,0,0
455,-720,0,0,0,0,0,0,0,0,0,-1,1679,1744,0,0
462,-720,0,0,0,0,0,0,0,0,0,-1,1686,1744,0,0
469,-720,0,0,0,0,0,0,0,0,0,-1,1693,1744,0,0
476,-720,0,0,0,0,0,0,0,0,0,-1,1700,1744,0,0
483,-720,0,0,0,0,0,0,0,0,0,-1,1707,1744,0,0
490,-720,0,0,0,0,0,0,0,0,0,-1,1714,1744,0,0
497,-720,0,0,0,0,0,0,0,0,0,-1,1721,1744,0,0
504,-720,0,0,0,0,0,0,0,0,0,-1,1728,1744,0,0
511,-720,0,0,0,0,0,0,0,0,0,-1,1735,1744,0,0
518,-720,0,0,0,0,0,0,0,0,0,-1,1742,1744,0,0
525,-720,0,0,0,0,0,0,0,0,0,-1,1749,1744,0,0
532,-720,0,0,0,0,0,0,0,0,0,-1,1756,1744,0,0
539,-720,0,0,0,0,0,0,0,0,0,-1,1763,1744,0,0
546,-720,0,0,0,0,0,0,0,0,0,-1,1770,1744,0,0
553,-720,0,0,0,0,0,0,0,0,0,-1,1777,1744,0,0
560,-720,0,0,0,0,0,0,0,0,0,-1,1784,1744,0,0
567,-720,0,0,0,0,0,0,0,0,0,-1,1791,1744,0,0
574,-720,0,0,0,0,0,0,0,0,0,-1,1798,1744,0,0
581,-720,0,0,0,0,0,0,0,0,0,-1,1805,1744,0,0
588,-720,0,0,0,0,0,0,0,0,0,-1,1812,1744,0,0
595,-720,0,0,0,0,0,0,0,0,0,-1,1819,1744,0,0
602,-720,0,0,0,0,0,0,0,0,0,-1,1826,1744,0,0
609,-720,0,0,0,0,0,0,0,0,0,-1,1833,1744,0,0
616,-720,0,0,0,0,0,0,0,0,0,-1,1840,1744,0,0
623,-720,0,0,0,0,0,0,0,0,0,-1,1847,1744,0,0
630,-720,0,0,0,0,0,0,0,0,0,-1,1854,1744,0,0
637,-720,0,0,0,0,0,0,0,0,0,-1,1861,1744,0,0
644,-720,0,0,0,0,0,0,0,0,0,-1,1868,1744,0,0
651,-720,0,0,0,0,0,0,0,0,0,-1,1875,1744,0,0
658,-720,0,0,0,0,0,0,0,0,0,-1,1882,1744,0,0
665,-720,0,0,0,0,0,0,0,0,0,-1,1889,1744,0,0
672,-720,0,0,0,0,0,0,0,0,0,-1,1896,1744,0,0
679,-720,0,0,0,0,0,0,0,0,0,-1,1903,1744,0,0
686,-720,0,0,0,0,0,0,0,0,0,-1,1910,1744,0,0
693,-720,0,0,0,0,0,0,0,0,0,-1,1917,1744,0,0
700,-720,0,0,0,0,0,0,0,0,0,-1,1924,1744,0,0
707,-720,0,0,0,0,0,0,0,0,0,-1,1931,1744,0,0
714,-720,0,0,0,0,0,0,0,0,0,-1,1938,1744,0,0
721,-720,0,0,0,0,0,0,0,0,0,-1,1945,1744,0,0
728,-720,0,0,0,0,0,0,0,0,0,-1,1952,1744,0,0
735,-720,0,0,0,0,0,0,0,0,0,-1,1959,1744,0,0
742,-720,0,0,0,0,0,0,0,0,0,-1,1966,1744,0,0
749,-720,0,0,0,0,0,0,0,0,0,-1,1973,1744,0,0
756,-720,0,0,0,0,0,0,0,0,0,-1,1980,1744,0,0
763,-720,0,0,0,0,0,0,0,0,0,-1,1987,1744,0,0
770,-720,0,0,0,0,0,0,0,0,0,-1,1994,1744,0,0
777,-720,0,0,0,0,0,0,0,0,0,-1,2001,1744,0,0
784,-720,0,0,0,0,0,0,0,0,0,-1,2008,1744,0,0
791,-720,0,0,0,0,0,0,0,0,0,-1,2015,1744,0,0
798,-720,0,0,0,0,0,0,0,0,0,-1,2022,1744,0,0
805,-720,0,0,0,0,0,0,0,0,0,-1,2029,1744,0,0
812,-720,0,0,0,0,0,0,0,0,0,-1,2036,1744,0,0
-700,-727,0,0,0,0,0,0,0,0,0,-1,524,1751,0,0
-693,-727,0,0,0,0,0,0,0,0,0,-1,531,1751,0,0
-686,-727,0,0,0,0,0,0,0,0,0,-1,538,1751,0,0
-679,-727,0,0,0,0,0,0,0,0,0,-1,545,1751,0,0
-672,-727,0,0,0,0,0,0,0,0,0,-1,552,1751,0,0
-665,-727,0,0,0,0,0,0,0,0,0,-1,559,1751,0,0
-658,-727,0,0,0,0,0,0,0,0,0,-1,566,1751,0,0
-651,-727,0,0,0,0,0,0,0,0,0,-1,573,1751,0,0
-644,-727,0,0,0,0,0,0,0,0,0,-1,580,1751,0,0
-637,-727,0,0,0,0,0,0,0,0,0,-1,587,1751,0,0
-630,-727,0,0,0,0,0,0,0,0,0,-1,594,1751,0,0
-623,-727,0,0,0,0,0,0,0,0,0,-1,601,1751,0,0
-616,-727,0,0,0,0,0,0,0,0,0,-1,608,1751,0,0
-609,-727,0,0,0,0,0,0,0,0,0,-1,615,1751,0,0
-602,-727,0,0,0,0,0,0,0,0,0,-1,622,1751,0,0
-595,-727,0,0,0,0,0,0,0,0,0,-1,629,1751,0,0
-588,-727,0,0,0,0,0,0,0,0,0,-1,636,1751,0,0
-581,-727,0,0,0,0,0,0,0,0,0,-1,643,1751,0,0
-574,-727,0,0,0,0,0,0,0,0,0,-1,650,1751,0,0
-567,-727,0,0,0,0,0,0,0,0,0,-1,657,1751,0,0
-560,-727,0,0,0,0,0,0,0,0,0,-1,664,1751,0,0
-553,-727,0,0,0,0,0,0,0,0,0,-1,671,1751,0,0
-546,-727,0,0,0,0,0,0,0,0,0,-1,678,1751,0,0
-539,-727,0,0,0,0,0,0,0,0,0,-1,685,1751,0,0
-532,-727,0,0,0,0,0,0,0,0,0,-1,692,1751,0,0
-525,-727,0,0,0,0,0,0,0,0,0,-1,699,1751,0,0
-518,-727,0,0,0,0,0,0,0,0,0,-1,706,1751,0,0
-511,-727,0,0,0,0,0,0,0,0,0,-1,713,1751,0,0
-504,-727,0,0,0,0,0,0,0,0,0,-1,720,1751,0,0
-497,-727,0,0,0,0,0,0,0,0,0,-1,727,1751,0,0
-490,-727,0,0,0,0,0,0,0,0,0,-1,734,1751,0,0
-483,-727,0,0,0,0,0,0,0,0,0,-1,741,1751,0,0
-476,-727,0,0,0,0,0,0,0,0,0,-1,748,1751,0,0
-469,-727,0,0,0,0,0,0,0,0,0,-1,755,1751,0,0
-462,-727,0,0,0,0,0,0,0,0,0,-1,762,1751,0,0
-455,-727,0,0,0,0,0,0,0,0,0,-1,769,1751,0,0
-448,-727,0,0,0,0,0,0,0,0,0,-1,776,1751,0,0
-441,-727,0,0,0,0,0,0,0,0,0,-1,783,1751,0,0
-434,-727,0,0,0,0,0,0,0,0,0,-1,790,1751,0,0
-427,-727,0,0,0,0,0,0,0,0,0,-1,797,1751,0,0
-420,-727,0,0,0,0,0,0,0,0,0,-1,804,1751,0,0
-413,-727,0,0,0,0,0,0,0,0,0,-1,811,1751,0,0
-406,-727,0,0,0,0,0,0,0,0,0,-1,818,1751,0,0
-399,-727,0,0,0,0,0,0,0,0,0,-1,825,1751,0,0
-392,-727,0,0,0,0,0,0,0,0,0,-1,832,1751,0,0
-385,-727,0,0,0,0,0,0,0,0,0,-1,839,1751,0,0
-378,-727,0,0,0,0,0,0,0,0,0,-1,846,1751,0,0
-371,-727,0,0,0,0,0,0,0,0,0,-1,853,1751,0,0
-364,-727,0,0,0,0,0,0,0,0,0,-1,860,1751,0,0
-357,-727,0,0,0,0,0,0,0,0,0,-1,867,1751,0,0
-350,-727,0,0,0,0,0,0,0,0,0,-1,874,1751,0,0
-343,-727,0,0,0,0,0,0,0,0,0,-1,881,1751,0,0
-336,-727,0,0,0,0,0,0,0,0,0,-1,888,1751,0,0
-329,-727,0,0,0,0,0,0,0,0,0,-1,895,1751,0,0
-322,-727,0,0,0,0,0,0,0,0,0,-1,902,1751,0,0
-315,-727,0,0,0,0,0,0,0,0,0,-1,909,1751,0,0
-308,-727,0,0,0,0,0,0,0,0,0,-1,916,1751,0,0
-301,-727,0,0,0,0,0,0,0,0,0,-1,923,1751,0,0
-294,-727,0,0,0,0,0,0,0,0,0,-1,930,1751,0,0
-287,-727,0,0,0,0,0,0,0,0,0,-1,937,1751,0,0
-280,-727,0,0,0,0,0,0,0,0,0,-1,944,1751,0,0
-273,-727,0,0,0,0,0,0,0,0,0,-1,951,1751,0,0
-266,-727,4.24805,7.61145,0,0,0,0,0,0,0,-1,958,1751,4.24802,-7.6115
-259,-727,3.65228,5.4082,0,0,0,0,0,0,0,-1,965,1751,3.65229,-5.40818
-252,-727,6.35193,19.5046,0,0,0,0,0,0,0,-1,972,1751,6.35193,-19.5046
-245,-727,6.6543,20.9005,0,0,0,0,0,0,0,-1,979,1751,6.65433,-20.9005
-238,-727,4.31769,18.0181,0,0,0,0,0,0,0,-1,986,1751,4.31766,-18.018
-231,-727,6.50403,21.7985,0,0,0,0,0,0,0,-1,993,1751,6.50403,-21.7985
-224,-727,7.89355,29.2025,0,0,0,0,0,0,0,-1,1000,1751,7.89356,-29.2026
-217,-727,6.96588,30.0333,0,0,0,0,0,0,0,-1,1007,1751,6.96586,-30.0333
-210,-727,6.24988,30.1333,0,0,0,0,0,0,0,-1,1014,1751,6.24989,-30.1333
-203,-727,4.43604,24.287,0,0,0,0,0,0,0,-1,1021,1751,4.43608,-24.287
-196,-727,5.16003,26.0752,0,0,0,0,0,0,0,-1,1028,1751,5.16001,-26.0752
-189,-727,6.14868,28.0311,0,0,0,0,0,0,0,-1,1035,1751,6.14867,-28.0311
-182,-727,6.95361,29.6855,0,0,0,0,0,0,0,-1,1042,1751,6.95359,-29.6856
-175,-727,7.30688,30.3802,0,0,0,0,0,0,0,-1,1049,1751,7.3069,-30.3802
-168,-727,7.50061,29.9025,-0.00266615,0.00970698,0.0138933,0.0187288,-0.011688,0.994864,0.0177173,0.0472878,1056,1751,7.50065,-29.9025
-161,-727,7.34912,30.6604,-0.00333813,0.0097446,0.0116141,0.0165328,-0.0101263,1.04187,0.0155391,0.0453918,1063,1751,7.34911,-30.6604
-154,-727,7.71606,30.8313,0,0,0,0,0,0,0,-1,1070,1751,7.71601,-30.8313
-147,-727,7.74243,30.8688,-0.00399131,0.00901501,0.00726027,0.0122588,-0.00723507,1.15062,0.0113787,0.0481802,1077,1751,7.74245,-30.8687
-140,-727,7.60706,31.14,-0.00411443,0.00832455,0.00556322,0.0104496,-0.00623949,1.20592,0.00973711,0.0339519,1084,1751,7.60708,-31.14
-133,-727,7.67053,31.4377,-0.00405751,0.00764025,0.00421403,0.00900021,-0.00541748,1.25863,0.00840929,0.0241361,1091,1751,7.67057,-31.4378
-126,-727,7.58777,31.7197,-0.0039816,0.00681448,0.00282442,0.00750874,-0.00467586,1.32977,0.00709788,0.0158448,1098,1751,7.5878,-31.7198
-119,-727,7.56274,31.9884,-0.00366411,0.00648495,0.00205292,0.00688448,-0.00406364,1.37858,0.00639045,0.0119932,1105,1751,7.56271,-31.9884
-112,-727,7.54968,32.174,-0.00322927,0.00601447,0.00135916,0.00621017,-0.00342498,1.42779,0.00563979,0.0134525,1112,1751,7.54972,-32.1739
-105,-727,7.50342,32.3688,-0.00287871,0.00644866,0.000836722,0.00652312,-0.00295317,1.48203,0.00559906,0.0140113,1119,1751,7.50341,-32.3688
-98,-727,7.50757,32.5643,-0.00263467,0.00668082,0.000877442,0.00676274,-0.00271659,1.4777,0.00563663,0.0114868,1126,1751,7.50753,-32.5643
-91,-727,7.51172,32.7534,-0.0022701,0.00659502,0.000936079,0.00669279,-0.00236786,1.46673,0.00542618,0.0109003,1133,1751,7.51166,-32.7534
-84,-727,7.48816,32.9374,-0.00210808,0.00659542,0.00102558,0.00671464,-0.0022273,1.45507,0.00537495,0.0111221,1140,1751,7.48812,-32.9374
-77,-727,7.47205,33.1223,-0.00176094,0.00633781,0.00114698,0.00649711,-0.00192025,1.43279,0.00509361,0.011719,1147,1751,7.47199,-33.1224
-70,-727,7.4696,33.2833,-0.00146618,0.00585983,0.000996625,0.00599299,-0.00159934,1.43797,0.00462162,0.0120704,1154,1751,7.46961,-33.2834
-63,-727,7.44971,33.4489,-0.00148747,0.00515736,0.000700741,0.00523045,-0.00156057,1.46686,0.0041072,0.0103816,1161,1751,7.44974,-33.4489
-56,-727,7.43335,33.5967,-0.00141968,0.00424831,0.000472808,0.00428748,-0.00145885,1.48814,0.00344903,0.010944,1168,1751,7.4333,-33.5966
-49,-727,7.42786,33.7299,-0.00125644,0.00330216,0.000315514,0.0033239,-0.00127817,1.50202,0.00274311,0.0134391,1175,1751,7.42781,-33.7299
-42,-727,7.41064,33.8464,-0.000976313,0.00236991,0.000280915,0.00239333,-0.000999732,1.48762,0.00201331,0.01683,1182,1751,7.4107,-33.8464
-35,-727,7.39209,33.9479,-0.000705588,0.00143787,0.000237703,0.00146392,-0.000731632,1.46167,0.00129089,0.0156492,1189,1751,7.39214,-33.9478
-28,-727,7.39246,34.0681,-0.000460275,0.000653784,0.00026861,0.000715166,-0.000521657,1.34614,0.000716988,0.00894894,1196,1751,7.39247,-34.0681
-21,-727,7.37817,34.1919,-0.000238785,0.00015322,0.000500707,0.000494921,-0.000580486,0.971956,0.000621541,0.0101796,1203,1751,7.3782,-34.1919
-14,-727,7.38208,34.28,-1.46812e-05,-0.0003498,0.000851759,0.000685843,-0.00105032,0.688278,0.00100971,0.0118454,1210,1751,7.3821,-34.28
-7,-727,7.41675,34.3912,0.000168174,-0.00055233,0.00116471,0.00102707,-0.00141123,0.635412,0.00141357,0.0144914,1217,1751,7.41674,-34.3912
0,-727,7.41638,34.4878,0.000284013,-0.000356338,0.00149327,0.00149104,-0.00156337,0.679791,0.00176363,0.0143903,1224,1751,7.41637,-34.4877
7,-727,7.40137,34.5635,0.000345511,0.000109117,0.00179143,0.00202264,-0.00156801,0.752456,0.00207859,0.013881,1231,1751,7.40132,-34.5635
14,-727,7.4071,34.6207,0.000377089,0.000754812,0.00201818,0.00259294,-0.00146104,0.832052,0.00237079,0.0135599,1238,1751,7.40713,-34.6207
21,-727,7.39771,34.687,0.000425367,0.00147454,0.00213997,0.00315328,-0.00125337,0.905596,0.00262182,0.0120474,1245,1751,7.39774,-34.687
28,-727,7.39929,34.7314,0.000634123,0.00209564,0.0022242,0.00370606,-0.00097629,0.944117,0.00285238,0.0108736,1252,1751,7.39932,-34.7315
35,-727,7.41638,34.7581,0.000800716,0.00262544,0.00212089,0.00402188,-0.000595727,0.988523,0.0029003,0.0120262,1259,1751,7.41633,-34.7581
42,-727,7.39795,34.7825,0.000858105,0.0030084,0.00170803,0.0039515,-8.49926e-05,1.0663,0.00266312,0.0126659,1266,1751,7.39789,-34.7824
49,-727,7.36499,34.806,0.000906311,0.00328766,0.00124936,0.00382285,0.00037112,1.16607,0.00243431,0.0111703,1273,1751,7.36495,-34.8061
56,-727,7.36646,34.8507,0.00114922,0.00330216,0.000797473,0.00356537,0.000886005,1.252,0.00214351,0.00962541,1280,1751,7.36646,-34.8507
63,-727,7.40393,34.8691,0.00152105,0.00320792,0.000110848,0.00321517,0.0015138,1.50546,0.00185733,0.011332,1287,1751,7.40388,-34.8692
70,-727,7.42847,34.8733,0.00199369,0.00298897,-0.000967124,0.00357898,0.00140369,-1.02301,0.00208227,0.0130398,1294,1751,7.42844,-34.8732
77,-727,7.4425,34.8785,0.00251367,0.00248175,-0.00200532,0.00450309,0.00049233,-0.781418,0.00285215,0.0154783,1301,1751,7.4425,-34.8785
84,-727,7.42151,34.8479,0.00293129,0.00179432,-0.00278059,0.00520091,-0.000475306,-0.684564,0.00363608,0.0171382,1308,1751,7.4215,-34.8479
91,-727,7.40991,34.8092,0.00325028,0.00116832,-0.00350267,0.00586338,-0.00144478,-0.640957,0.00446905,0.017539,1315,1751,7.40987,-34.8092
98,-727,7.40405,34.8031,0.00351314,0.000607513,-0.00405125,0.00636419,-0.00224354,-0.613236,0.005156,0.0138275,1322,1751,7.4041,-34.8031
105,-727,7.41443,34.7469,0.00368818,6.49622e-05,-0.00444551,0.00667704,-0.0029239,-0.591915,0.00568253,0.012631,1329,1751,7.41439,-34.7469
112,-727,7.42065,34.7004,0.00372548,-0.000371641,-0.00455503,0.0066714,-0.00331757,-0.574081,0.00587449,0.010975,1336,1751,7.42069,-34.7004
119,-727,7.42834,34.6606,0.00349757,-0.00063415,-0.00441796,0.00630882,-0.0034454,-0.5667,0.00571191,0.00885274,1343,1751,7.4283,-34.6606
126,-727,7.42871,34.5927,0.0030443,-0.000773647,-0.00400622,0.00557312,-0.00330247,-0.563062,0.00517992,0.00990048,1350,1751,7.42874,-34.5927
133,-727,7.42725,34.5339,0.00232007,-0.000764873,-0.00341241,0.00452243,-0.00296723,-0.573133,0.00435512,0.0139048,1357,1751,7.42721,-34.5339
140,-727,7.4281,34.4856,0.00157417,-0.000730215,-0.00262237,0.0032863,-0.00244235,-0.578408,0.00331938,0.0202128,1364,1751,7.4281,-34.4857
147,-727,7.42627,34.3975,0.000878474,-0.000702432,-0.0017943,0.00204872,-0.00187268,-0.57792,0.00226478,0.0173646,1371,1751,7.42628,-34.3975
154,-727,7.40918,34.276,0.000247016,-0.000710596,-0.00127113,0.00112653,-0.00159011,-0.605278,0.00157604,0.0108925,1378,1751,7.40919,-34.276
161,-727,7.41296,34.1588,-0.00043923,-0.000501007,-0.00101277,0.000543123,-0.00148336,-0.770153,0.00121124,0.00894924,1385,1751,7.41297,-34.1588
168,-727,7.39392,34.0588,-0.00105427,-0.000333227,-0.000733569,0.000123624,-0.00151112,-1.0138,0.00105105,0.0121056,1392,1751,7.3939,-34.0588
175,-727,7.3905,33.9435,-0.00105442,0.000127095,-0.00102971,0.000723474,-0.0016508,-1.04583,0.00140521,0.0172639,1399,1751,7.39045,-33.9435
182,-727,7.40051,33.814,-0.00102058,0.000560122,-0.0013078,0.00129784,-0.0017583,-1.0572,0.00177112,0.0180031,1406,1751,7.40054,-33.8139
189,-727,7.36548,33.6736,-0.00097075,0.00038568,-0.00163795,0.00148027,-0.00206534,-0.981684,0.00205633,0.0115069,1413,1751,7.36549,-33.6736
196,-727,7.36011,33.5449,-0.00107976,0.000152072,-0.00213549,0.00175869,-0.00268638,-0.925797,0.00258493,0.013653,1420,1751,7.36016,-33.545
203,-727,7.32666,33.3783,-0.00120044,-0.000101094,-0.00267923,0.00208426,-0.0033858,-0.886575,0.0031878,0.0166876,1427,1751,7.3267,-33.3784
210,-727,7.30566,33.2356,-0.00107435,-0.000312684,-0.00317968,0.00250888,-0.00389592,-0.845,0.00372661,0.0161932,1434,1751,7.30565,-33.2356
217,-727,7.3064,33.0901,-0.000907309,-0.000821182,-0.00372131,0.00285732,-0.00458581,-0.791184,0.00433574,0.0121662,1441,1751,7.3064,-33.0901
224,-727,7.30676,32.8926,-0.000788317,-0.00147678,-0.00429784,0.00317906,-0.00544416,-0.745436,0.00503554,0.0124784,1448,1751,7.30673,-32.8925
231,-727,7.30127,32.7211,-0.000841289,-0.00220597,-0.00474118,0.0032664,-0.00631366,-0.71393,0.00562355,0.00971079,1455,1751,7.30132,-32.721
238,-727,7.29114,32.5314,-0.000320274,-0.00232841,-0.00469501,0.00347684,-0.00612551,-0.680056,0.00561378,0.00972402,1462,1751,7.29116,-32.5313
245,-727,7.26892,32.3573,0.000569128,-0.00231326,-0.00469575,0.00403987,-0.00578401,-0.636504,0.00570154,0.00984831,1469,1751,7.26893,-32.3573
252,-727,7.24316,32.1648,0.00136834,-0.00197465,-0.00451958,0.00451561,-0.00512192,-0.608281,0.0055679,0.011001,1476,1751,7.24318,-32.1648
259,-727,7.24658,31.9556,0.002374,-0.00111544,-0.00423911,0.0052134,-0.00395484,-0.590175,0.00530988,0.0145203,1483,1751,7.24664,-31.9555
266,-727,7.25049,31.7971,0.00344065,0.000331917,-0.00399923,0.00617696,-0.00240439,-0.600049,0.00511154,0.0196404,1490,1751,7.25047,-31.7971
273,-727,7.36426,31.6102,0.00467514,0.0024277,-0.00387016,0.00758142,-0.000478574,-0.644106,0.00522112,0.0383942,1497,1751,7.36423,-31.6102
280,-727,6.95483,31.3658,0,0,0,0,0,0,0,-1,1504,1751,6.95478,-31.3658
287,-727,6.82727,30.7819,0.00711889,0.0078285,-0.00388253,0.0113724,0.00357498,-0.830964,0.00671502,0.0474487,1511,1751,6.82724,-30.7818
294,-727,7.21069,30.6296,0.00817258,0.0115918,-0.00384515,0.0140903,0.00567413,-0.994584,0.00818622,0.0476596,1518,1751,7.21066,-30.6296
301,-727,6.98352,30.5129,0,0,0,0,0,0,0,-1,1525,1751,6.98346,-30.513
308,-727,7.28931,30.2998,0,0,0,0,0,0,0,-1,1532,1751,7.28925,-30.2998
315,-727,7.27002,29.8754,0,0,0,0,0,0,0,-1,1539,1751,7.26997,-29.8753
322,-727,5.75818,18.2477,0,0,0,0,0,0,0,-1,1546,1751,5.75815,-18.2477
329,-727,6.61853,11.6267,0,0,0,0,0,0,0,-1,1553,1751,6.61859,-11.6267
336,-727,5.55823,20.2439,0,0,0,0,0,0,0,-1,1560,1751,5.55829,-20.2438
343,-727,2.41699,8.72095,0,0,0,0,0,0,0,-1,1567,1751,2.41702,-8.72098
350,-727,3.89783,7.50195,0,0,0,0,0,0,0,-1,1574,1751,3.89782,-7.50193
357,-727,4.48462,10.2948,0,0,0,0,0,0,0,-1,1581,1751,4.48464,-10.2948
364,-727,6.96729,17.2365,0,0,0,0,0,0,0,-1,1588,1751,6.96732,-17.2365
371,-727,5.04565,23.2227,0,0,0,0,0,0,0,-1,1595,1751,5.04564,-23.2227
378,-727,4.56726,23.0574,0,0,0,0,0,0,0,-1,1602,1751,4.56727,-23.0574
385,-727,3.52307,22.6431,0,0,0,0,0,0,0,-1,1609,1751,3.52303,-22.643
392,-727,0,0,0,0,0,0,0,0,0,-1,1616,1751,0,0
399,-727,0,0,0,0,0,0,0,0,0,-1,1623,1751,0,0
406,-727,0,0,0,0,0,0,0,0,0,-1,1630,1751,0,0
413,-727,0,0,0,0,0,0,0,0,0,-1,1637,1751,0,0
420,-727,0,0,0,0,0,0,0,0,0,-1,1644,1751,0,0
427,-727,0,0,0,0,0,0,0,0,0,-1,1651,1751,0,0
434,-727,0,0,0,0,0,0,0,0,0,-1,1658,1751,0,0
441,-727,0,0,0,0,0,0,0,0,0,-1,1665,1751,0,0
448,-727,0,0,0,0,0,0,0,0,0,-1,1672,1751,0,0
455,-727,0,0,0,0,0,0,0,0,0,-1,1679,1751,0,0
462,-727,0,0,0,0,0,0,0,0,0,-1,1686,1751,0,0
469,-727,0,0,0,0,0,0,0,0,0,-1,1693,1751,0,0
476,-727,0,0,0,0,0,0,0,0,0,-1,1700,1751,0,0
483,-727,0,0,0,0,0,0,0,0,0,-1,1707,1751,0,0
490,-727,0,0,0,0,0,0,0,0,0,-1,1714,1751,0,0
497,-727,0,0,0,0,0,0,0,0,0,-1,1721,1751,0,0
504,-727,0,0,0,0,0,0,0,0,0,-1,1728,1751,0,0
511,-727,0,0,0,0,0,0,0,0,0,-1,1735,1751,0,0
518,-727,0,0,0,0,0,0,0,0,0,-1,1742,1751,0,0
525,-727,0,0,0,0,0,0,0,0,0,-1,1749,1751,0,0
532,-727,0,0,0,0,0,0,0,0,0,-1,1756,1751,0,0
539,-727,0,0,0,0,0,0,0,0,0,-1,1763,1751,0,0
546,-727,0,0,0,0,0,0,0,0,0,-1,1770,1751,0,0
553,-727,0,0,0,0,0,0,0,0,0,-1,1777,1751,0,0
560,-727,0,0,0,0,0,0,0,0,0,-1,1784,1751,0,0
567,-727,0,0,0,0,0,0,0,0,0,-1,1791,1751,0,0
574,-727,0,0,0,0,0,0,0,0,0,-1,1798,1751,0,0
581,-727,0,0,0,0,0,0,0,0,0,-1,1805,1751,0,0
588,-727,0,0,0,0,0,0,0,0,0,-1,1812,1751,0,0
595,-727,0,0,0,0,0,0,0,0,0,-1,1819,1751,0,0
602,-727,0,0,0,0,0,0,0,0,0,-1,1826,1751,0,0
609,-727,0,0,0,0,0,0,0,0,0,-1,1833,1751,0,0
616,-727,0,0,0,0,0,0,0,0,0,-1,1840,1751,0,0
623,-727,0,0,0,0,0,0,0,0,0,-1,1847,1751,0,0
630,-727,0,0,0,0,0,0,0,0,0,-1,1854,1751,0,0
637,-727,0,0,0,0,0,0,0,0,0,-1,1861,1751,0,0
644,-727,0,0,0,0,0,0,0,0,0,-1,1868,1751,0,0
651,-727,0,0,0,0,0,0,0,0,0,-1,1875,1751,0,0
658,-727,0,0,0,0,0,0,0,0,0,-1,1882,1751,0,0
665,-727,0,0,0,0,0,0,0,0,0,-1,1889,1751,0,0
672,-727,0,0,0,0,0,0,0,0,0,-1,1896,1751,0,0
679,-727,0,0,0,0,0,0,0,0,0,-1,1903,1751,0,0
686,-727,0,0,0,0,0,0,0,0,0,-1,1910,1751,0,0
693,-727,0,0,0,0,0,0,0,0,0,-1,1917,1751,0,0
700,-727,0,0,0,0,0,0,0,0,0,-1,1924,1751,0,0
707,-727,0,0,0,0,0,0,0,0,0,-1,1931,1751,0,0
714,-727,0,0,0,0,0,0,0,0,0,-1,1938,1751,0,0
721,-727,0,0,0,0,0,0,0,0,0,-1,1945,1751,0,0
728,-727,0,0,0,0,0,0,0,0,0,-1,1952,1751,0,0
735,-727,0,0,0,0,0,0,0,0,0,-1,1959,1751,0,0
742,-727,0,0,0,0,0,0,0,0,0,-1,1966,1751,0,0
749,-727,0,0,0,0,0,0,0,0,0,-1,1973,1751,0,0
756,-727,0,0,0,0,0,0,0,0,0,-1,1980,1751,0,0
763,-727,0,0,0,0,0,0,0,0,0,-1,1987,1751,0,0
770,-727,0,0,0,0,0,0,0,0,0,-1,1994,1751,0,0
777,-727,0,0,0,0,0,0,0,0,0,-1,2001,1751,0,0
784,-727,0,0,0,0,0,0,0,0,0,-1,2008,1751,0,0
791,-727,0,0,0,0,0,0,0,0,0,-1,2015,1751,0,0
798,-727,0,0,0,0,0,0,0,0,0,-1,2022,1751,0,0
805,-727,0,0,0,0,0,0,0,0,0,-1,2029,1751,0,0
812,-727,0,0,0,0,0,0,0,0,0,-1,2036,1751,0,0
-700,-734,0,0,0,0,0,0,0,0,0,-1,524,1758,0,0
-693,-734,0,0,0,0,0,0,0,0,0,-1,531,1758,0,0
-686,-734,0,0,0,0,0,0,0,0,0,-1,538,1758,0,0
-679,-734,0,0,0,0,0,0,0,0,0,-1,545,1758,0,0
-672,-734,0,0,0,0,0,0,0,0,0,-1,552,1758,0,0
-665,-734,0,0,0,0,0,0,0,0,0,-1,559,1758,0,0
-658,-734,0,0,0,0,0,0,0,0,0,-1,566,1758,0,0
-651,-734,0,0,0,0,0,0,0,0,0,-1,573,1758,0,0
-644,-734,0,0,0,0,0,0,0,0,0,-1,580,1758,0,0
-637,-734,0,0,0,0,0,0,0,0,0,-1,587,1758,0,0
-630,-734,0,0,0,0,0,0,0,0,0,-1,594,1758,0,0
-623,-734,0,0,0,0,0,0,0,0,0,-1,601,1758,0,0
-616,-734,0,0,0,0,0,0,0,0,0,-1,608,1758,0,0
-609,-734,0,0,0,0,0,0,0,0,0,-1,615,1758,0,0
-602,-734,0,0,0,0,0,0,0,0,0,-1,622,1758,0,0
-595,-734,0,0,0,0,0,0,0,0,0,-1,629,1758,0,0
-588,-734,0,0,0,0,0,0,0,0,0,-1,636,1758,0,0
-581,-734,0,0,0,0,0,0,0,0,0,-1,643,1758,0,0
-574,-734,0,0,0,0,0,0,0,0,0,-1,650,1758,0,0
-567,-734,0,0,0,0,0,0,0,0,0,-1,657,1758,0,0
-560,-734,0,0,0,0,0,0,0,0,0,-1,664,1758,0,0
-553,-734,0,0,0,0,0,0,0,0,0,-1,671,1758,0,0
-546,-734,0,0,0,0,0,0,0,0,0,-1,678,1758,0,0
-539,-734,0,0,0,0,0,0,0,0,0,-1,685,1758,0,0
-532,-734,0,0,0,0,0,0,0,0,0,-1,692,1758,0,0
-525,-734,0,0,0,0,0,0,0,0,0,-1,699,1758,0,0
-518,-734,0,0,0,0,0,0,0,0,0,-1,706,1758,0,0
-511,-734,0,0,0,0,0,0,0,0,0,-1,713,1758,0,0
-504,-734,0,0,0,0,0,0,0,0,0,-1,720,1758,0,0
-497,-734,0,0,0,0,0,0,0,0,0,-1,727,1758,0,0
-490,-734,0,0,0,0,0,0,0,0,0,-1,734,1758,0,0
-483,-734,0,0,0,0,0,0,0,0,0,-1,741,1758,0,0
-476,-734,0,0,0,0,0,0,0,0,0,-1,748,1758,0,0
-469,-734,0,0,0,0,0,0,0,0,0,-1,755,1758,0,0
-462,-734,0,0,0,0,0,0,0,0,0,-1,762,1758,0,0
-455,-734,0,0,0,0,0,0,0,0,0,-1,769,1758,0,0
-448,-734,0,0,0,0,0,0,0,0,0,-1,776,1758,0,0
-441,-734,0,0,0,0,0,0,0,0,0,-1,783,1758,0,0
-434,-734,0,0,0,0,0,0,0,0,0,-1,790,1758,0,0
-427,-734,0,0,0,0,0,0,0,0,0,-1,797,1758,0,0
-420,-734,0,0,0,0,0,0,0,0,0,-1,804,1758,0,0
-413,-734,0,0,0,0,0,0,0,0,0,-1,811,1758,0,0
-406,-734,0,0,0,0,0,0,0,0,0,-1,818,1758,0,0
-399,-734,0,0,0,0,0,0,0,0,0,-1,825,1758,0,0
-392,-734,0,0,0,0,0,0,0,0,0,-1,832,1758,0,0
-385,-734,0,0,0,0,0,0,0,0,0,-1,839,1758,0,0
-378,-734,0,0,0,0,0,0,0,0,0,-1,846,1758,0,0
-371,-734,0,0,0,0,0,0,0,0,0,-1,853,1758,0,0
-364,-734,0,0,0,0,0,0,0,0,0,-1,860,1758,0,0
-357,-734,0,0,0,0,0,0,0,0,0,-1,867,1758,0,0
-350,-734,0,0,0,0,0,0,0,0,0,-1,874,1758,0,0
-343,-734,0,0,0,0,0,0,0,0,0,-1,881,1758,0,0
-336,-734,0,0,0,0,0,0,0,0,0,-1,888,1758,0,0
-329,-734,0,0,0,0,0,0,0,0,0,-1,895,1758,0,0
-322,-734,0,0,0,0,0,0,0,0,0,-1,902,1758,0,0
-315,-734,0,0,0,0,0,0,0,0,0,-1,909,1758,0,0
-308,-734,0,0,0,0,0,0,0,0,0,-1,916,1758,0,0
-301,-734,0,0,0,0,0,0,0,0,0,-1,923,1758,0,0
-294,-734,0,0,0,0,0,0,0,0,0,-1,930,1758,0,0
-287,-734,0,0,0,0,0,0,0,0,0,-1,937,1758,0,0
-280,-734,0,0,0,0,0,0,0,0,0,-1,944,1758,0,0
-273,-734,0,0,0,0,0,0,0,0,0,-1,951,1758,0,0
-266,-734,0,0,0,0,0,0,0,0,0,-1,958,1758,0,0
-259,-734,0,0,0,0,0,0,0,0,0,-1,965,1758,0,0
-252,-734,6.93439,18.351,0,0,0,0,0,0,0,-1,972,1758,6.93438,-18.3509
-245,-734,6.95746,19.5341,0,0,0,0,0,0,0,-1,979,1758,6.95746,-19.5341
-238,-734,6.216,17.1718,0,0,0,0,0,0,0,-1,986,1758,6.216,-17.1717
-231,-734,7.25604,16.8156,0,0,0,0,0,0,0,-1,993,1758,7.25602,-16.8156
-224,-734,7.80121,16.9666,0,0,0,0,0,0,0,-1,1000,1758,7.8012,-16.9666
-217,-734,6.38855,30.5729,0,0,0,0,0,0,0,-1,1007,1758,6.38854,-30.5729
-210,-734,7.38232,31.0132,0,0,0,0,0,0,0,-1,1014,1758,7.38233,-31.0132
-203,-734,8.3761,31.4535,0,0,0,0,0,0,0,-1,1021,1758,8.37611,-31.4535
-196,-734,4.22339,27.3916,0,0,0,0,0,0,0,-1,1028,1758,4.22341,-27.3916
-189,-734,5.65881,28.0665,0,0,0,0,0,0,0,-1,1035,1758,5.65876,-28.0665
-182,-734,6.72888,29.6884,0,0,0,0,0,0,0,-1,1042,1758,6.72887,-29.6884
-175,-734,7.3667,26.2832,0,0,0,0,0,0,0,-1,1049,1758,7.3667,-26.2832
-168,-734,7.76843,29.7156,0,0,0,0,0,0,0,-1,1056,1758,7.76848,-29.7156
-161,-734,7.48755,30.9458,0,0,0,0,0,0,0,-1,1063,1758,7.48751,-30.9458
-154,-734,8.13965,29.5726,0,0,0,0,0,0,0,-1,1070,1758,8.13968,-29.5727
-147,-734,8.29443,30.8038,0,0,0,0,0,0,0,-1,1077,1758,8.29438,-30.8038
-140,-734,8.01941,31.069,-0.0054537,0.0116757,0.00726599,0.0143426,-0.00812059,1.21902,0.0131339,0.0488927,1084,1758,8.0194,-31.0689
-133,-734,8.07031,31.4226,-0.00540457,0.0106733,0.00539496,0.0123158,-0.00704707,1.27526,0.0113163,0.0470189,1091,1758,8.07035,-31.4226
-126,-734,7.77466,31.6504,-0.0053313,0.00957093,0.00359233,0.0103917,-0.00615207,1.34618,0.00965552,0.0404926,1098,1758,7.77463,-31.6504
-119,-734,7.74365,31.9491,-0.0049529,0.00917885,0.00258278,0.00963609,-0.00541015,1.39558,0.00880042,0.0380537,1105,1758,7.74362,-31.9491
-112,-734,7.7522,32.1503,-0.0044235,0.00869562,0.00170086,0.00891254,-0.00464043,1.44394,0.00795334,0.0350976,1112,1758,7.75218,-32.1503
-105,-734,7.66553,32.3595,-0.00401027,0.00932511,0.00108037,0.00941207,-0.00409723,1.49048,0.00799827,0.0280121,1119,1758,7.66551,-32.3594
-98,-734,7.73657,32.4675,-0.0037512,0.00967412,0.00114221,0.00977061,-0.00384769,1.48652,0.00810661,0.0279973,1126,1758,7.73652,-32.4676
-91,-734,7.72974,32.6215,-0.00335076,0.00960047,0.00121951,0.0097143,-0.0034646,1.47772,0.00788887,0.0339226,1133,1758,7.7297,-32.6214
-84,-734,7.64368,32.8008,-0.00320983,0.00953023,0.00133852,0.00966934,-0.00334894,1.46724,0.0078058,0.0360772,1140,1758,7.64373,-32.8008
-77,-734,7.61768,33.0552,-0.00278574,0.00892536,0.00151871,0.0091191,-0.00297948,1.44391,0.00727875,0.0453231,1147,1758,7.61767,-33.0552
-70,-734,7.56091,33.0345,-0.00244064,0.0080561,0.00131833,0.00821914,-0.00260368,1.44775,0.0065229,0.0391487,1154,1758,7.56095,-33.0345
-63,-734,7.55237,33.2001,-0.00251817,0.00692935,0.000953918,0.00702471,-0.00261352,1.47117,0.00575562,0.0268724,1161,1758,7.55239,-33.2001
-56,-734,7.57898,33.5316,-0.00247103,0.00561333,0.000732157,0.0056791,-0.00253681,1.4812,0.00485773,0.016563,1168,1758,7.57896,-33.5317
-49,-734,7.55823,33.7194,-0.00229638,0.00418324,0.00051751,0.00422431,-0.00233745,1.4916,0.00384029,0.0126805,1175,1758,7.55823,-33.7194
-42,-734,7.52563,33.8553,-0.00215477,0.00270259,0.000442982,0.00274266,-0.00219484,1.48059,0.00285651,0.0137092,1182,1758,7.52563,-33.8554
-35,-734,7.51965,33.9504,-0.00193083,0.00128591,0.000391322,0.00133283,-0.00197775,1.45146,0.00192341,0.0136917,1189,1758,7.51961,-33.9504
-28,-734,7.50854,34.0703,-0.00168115,-3.53336e-05,0.000277449,1.01799e-05,-0.00172666,1.4082,0.00115452,0.00930194,1196,1758,7.50852,-34.0703
-21,-734,7.48853,34.1952,-0.00149735,-0.000851352,0.000338791,-0.000706262,-0.00164244,1.16617,0.000951357,0.0145389,1203,1758,7.48852,-34.1952
-14,-734,7.46082,34.3247,-0.00129587,-0.00165394,0.000515023,-0.000929649,-0.00202016,0.618115,0.00116757,0.0154711,1210,1758,7.46078,-34.3247
-7,-734,7.50513,34.4031,-0.00111519,-0.00209765,0.000596671,-0.00083355,-0.00237929,0.441007,0.00139405,0.0177095,1217,1758,7.50513,-34.4031
0,-734,7.48157,34.4745,-0.00101658,-0.00213469,0.000700591,-0.000679323,-0.00247194,0.448644,0.00147464,0.0169153,1224,1758,7.48156,-34.4744
7,-734,7.45764,34.5654,-0.000976062,-0.00194085,0.000833194,-0.000495691,-0.00242122,0.522991,0.00147691,0.0127973,1231,1758,7.45768,-34.5654
14,-734,7.46155,34.6245,-0.00100713,-0.00143521,0.000912009,-0.000284382,-0.00215796,0.67014,0.00135384,0.0133087,1238,1758,7.46156,-34.6245
21,-734,7.44238,34.6846,-0.00098078,-0.00086402,0.00100548,8.47746e-05,-0.00192957,0.814396,0.00131555,0.011848,1245,1758,7.44242,-34.6846
28,-734,7.44226,34.7332,-0.000625605,-0.000357709,0.00101799,0.000535103,-0.00151842,0.850813,0.00123007,0.0111885,1252,1758,7.44228,-34.7332
35,-734,7.43225,34.767,-0.000254079,7.58629e-05,0.000851755,0.000778476,-0.000956693,0.881056,0.00100356,0.0136394,1259,1758,7.43221,-34.767
42,-734,7.43518,34.78,-7.40542e-05,0.00046954,0.000403978,0.000684643,-0.000289157,1.08152,0.000577473,0.0117272,1266,1758,7.43514,-34.78
49,-734,7.41382,34.8119,-1.0303e-05,0.000929805,-8.97283e-05,0.000938292,-1.87905e-05,-1.47649,0.000631885,0.0100771,1273,1758,7.41378,-34.8119
56,-734,7.39453,34.8455,0.000360956,0.00114113,-0.000508019,0.00139155,0.000110534,-1.11282,0.000893139,0.00944984,1280,1758,7.39448,-34.8455
63,-734,7.39624,34.8628,0.000882872,0.00129775,-0.00121423,0.00232213,-0.000141508,-0.870002,0.00159735,0.0117052,1287,1758,7.39621,-34.8628
70,-734,7.38782,34.8842,0.00126899,0.00130479,-0.00190808,0.00319506,-0.000621272,-0.790088,0.00236449,0.0125635,1294,1758,7.38776,-34.8842
77,-734,7.41943,34.9309,0.00166203,0.000966072,-0.00261392,0.00395103,-0.00132293,-0.719225,0.00316843,0.0171923,1301,1758,7.4194,-34.931
84,-734,7.38916,34.892,0.0019225,0.000558255,-0.00323277,0.00454432,-0.00206357,-0.681422,0.00390366,0.0171974,1308,1758,7.38912,-34.8919
91,-734,7.38477,34.8414,0.002072,0.000175407,-0.00376317,0.00500452,-0.00275711,-0.661971,0.00454336,0.0187746,1315,1758,7.38475,-34.8414
98,-734,7.40552,34.8046,0.00215054,-0.000211829,-0.00411996,0.00525529,-0.00331658,-0.645794,0.00499099,0.013608,1322,1758,7.40547,-34.8045
105,-734,7.40454,34.7473,0.00214393,-0.000593182,-0.00431989,0.00530687,-0.00375612,-0.631998,0.00525799,0.0140668,1329,1758,7.40456,-34.7473
112,-734,7.39417,34.6926,0.00204176,-0.000842581,-0.00433126,0.00516464,-0.00396546,-0.624687,0.0052864,0.0118699,1336,1758,7.39417,-34.6926
119,-734,7.38843,34.6364,0.00179438,-0.00102409,-0.00418655,0.00480251,-0.00403222,-0.623049,0.00510719,0.0129437,1343,1758,7.38842,-34.6363
126,-734,7.39111,34.5518,0.00138579,-0.00101605,-0.00391883,0.00428358,-0.00391383,-0.636717,0.00473438,0.0159158,1350,1758,7.3911,-34.5518
133,-734,7.35742,34.4846,0.00071269,-0.000794015,-0.00352452,0.00356347,-0.00364479,-0.680109,0.00416178,0.0136563,1357,1758,7.35738,-34.4846
140,-734,7.34241,34.426,8.32602e-05,-0.000519992,-0.00298495,0.00278179,-0.00321852,-0.735045,0.00346733,0.0179359,1364,1758,7.3424,-34.426
147,-734,7.33875,34.3373,-0.000312115,-0.000317509,-0.00240517,0.00209036,-0.00271998,-0.784837,0.00278517,0.0132319,1371,1758,7.33874,-34.3373
154,-734,7.32593,34.2709,-0.000566537,-0.000300587,-0.00208499,0.00165566,-0.00252279,-0.817244,0.00242968,0.00917992,1378,1758,7.32588,-34.2709
161,-734,7.29968,34.1692,-0.00128261,-1.43662e-05,-0.00209409,0.00153951,-0.00283648,-0.932417,0.0025632,0.00860039,1385,1758,7.29963,-34.1692
168,-734,7.25488,34.0632,-0.00213344,8.21293e-05,-0.00175607,0.00105063,-0.00310195,-1.06679,0.0024931,0.014229,1392,1758,7.25488,-34.0633
175,-734,7.26245,33.9445,-0.00225688,0.000539498,-0.00197602,0.00156197,-0.00327935,-1.0933,0.00285315,0.0169337,1399,1758,7.26244,-33.9445
182,-734,7.28418,33.8027,-0.00229075,0.000489482,-0.00196849,0.00150922,-0.00331049,-1.09283,0.0028467,0.0149728,1406,1758,7.28422,-33.8028
189,-734,7.24731,33.6628,-0.00204228,8.67367e-05,-0.00232323,0.00157773,-0.00353327,-1.00022,0.00302197,0.0109885,1413,1758,7.24731,-33.6628
196,-734,7.22351,33.527,-0.00203614,-0.000254739,-0.00305213,0.002034,-0.00432488,-0.92737,0.00374988,0.0134462,1420,1758,7.22346,-33.5269
203,-734,7.23694,33.3585,-0.00212925,-0.000524729,-0.0039264,0.00268053,-0.00533451,-0.886173,0.00471129,0.0184235,1427,1758,7.23698,-33.3585
210,-734,7.23157,33.2063,-0.00185116,-0.000782998,-0.00461822,0.00333192,-0.00596608,-0.842966,0.00543954,0.0240832,1434,1758,7.23153,-33.2063
217,-734,7.17371,33.0353,-0.00151443,-0.00148158,-0.00533624,0.00383826,-0.00683427,-0.786937,0.00624219,0.0224158,1441,1758,7.17368,-33.0353
224,-734,7.22815,32.8121,-0.00129811,-0.00238207,-0.00608324,0.00426725,-0.00794742,-0.740969,0.00715804,0.0229375,1448,1758,7.22811,-32.8122
231,-734,7.19934,32.6969,-0.00128818,-0.00338351,-0.00666477,0.00441077,-0.00908246,-0.707439,0.00794443,0.0193816,1455,1758,7.19935,-32.6969
238,-734,7.11536,32.5658,-0.000589286,-0.00367521,-0.00665267,0.00469701,-0.00896151,-0.671447,0.00801285,0.0198139,1462,1758,7.11534,-32.5658
245,-734,7.13232,32.3075,0.000578604,-0.00376257,-0.00665212,0.00540531,-0.00858927,-0.627695,0.00814918,0.0261816,1469,1758,7.13236,-32.3074
252,-734,7.10999,32.1052,0.00167035,-0.00340542,-0.00640798,0.00602471,-0.00775978,-0.59685,0.00797947,0.0289318,1476,1758,7.11,-32.1052
259,-734,7.12744,32.012,0.00307446,-0.00232577,-0.00598876,0.00694366,-0.00619497,-0.573612,0.00758969,0.0369296,1483,1758,7.12743,-32.012
266,-734,7.17126,31.8572,0.00464639,-0.000448614,-0.00557549,0.0082288,-0.00403103,-0.571105,0.0072152,0.0484261,1490,1758,7.17127,-31.8572
273,-734,7.36243,31.764,0,0,0,0,0,0,0,-1,1497,1758,7.36246,-31.764
280,-734,5.34766,30.4954,0,0,0,0,0,0,0,-1,1504,1758,5.34769,-30.4954
287,-734,5.86389,30.3633,0,0,0,0,0,0,0,-1,1511,1758,5.86393,-30.3633
294,-734,7.01501,30.6506,0,0,0,0,0,0,0,-1,1518,1758,7.01504,-30.6506
301,-734,5.44165,27.9336,0,0,0,0,0,0,0,-1,1525,1758,5.44169,-27.9335
308,-734,9.00854,5.43774,0,0,0,0,0,0,0,-1,1532,1758,9.00857,-5.4377
315,-734,5.3158,17.4298,0,0,0,0,0,0,0,-1,1539,1758,5.31581,-17.4299
322,-734,9.85913,7.48096,0,0,0,0,0,0,0,-1,1546,1758,9.85916,-7.48098
329,-734,5.45972,12.4125,0,0,0,0,0,0,0,-1,1553,1758,5.45969,-12.4125
336,-734,5.92188,13.8751,0,0,0,0,0,0,0,-1,1560,1758,5.92183,-13.8751
343,-734,5.54968,5.14221,0,0,0,0,0,0,0,-1,1567,1758,5.54973,-5.14225
350,-734,5.07397,6.73242,0,0,0,0,0,0,0,-1,1574,1758,5.07402,-6.73243
357,-734,5.05542,7.19189,0,0,0,0,0,0,0,-1,1581,1758,5.05541,-7.19184
364,-734,4.43896,10.4904,0,0,0,0,0,0,0,-1,1588,1758,4.43893,-10.4904
371,-734,7.36975,17.4751,0,0,0,0,0,0,0,-1,1595,1758,7.36972,-17.4752
378,-734,0,0,0,0,0,0,0,0,0,-1,1602,1758,0,0
385,-734,0,0,0,0,0,0,0,0,0,-1,1609,1758,0,0
392,-734,0,0,0,0,0,0,0,0,0,-1,1616,1758,0,0
399,-734,0,0,0,0,0,0,0,0,0,-1,1623,1758,0,0
406,-734,0,0,0,0,0,0,0,0,0,-1,1630,1758,0,0
413,-734,0,0,0,0,0,0,0,0,0,-1,1637,1758,0,0
420,-734,0,0,0,0,0,0,0,0,0,-1,1644,1758,0,0
427,-734,0,0,0,0,0,0,0,0,0,-1,1651,1758,0,0
434,-734,0,0,0,0,0,0,0,0,0,-1,1658,1758,0,0
441,-734,0,0,0,0,0,0,0,0,0,-1,1665,1758,0,0
448,-734,0,0,0,0,0,0,0,0,0,-1,1672,1758,0,0
455,-734,0,0,0,0,0,0,0,0,0,-1,1679,1758,0,0
462,-734,0,0,0,0,0,0,0,0,0,-1,1686,1758,0,0
469,-734,0,0,0,0,0,0,0,0,0,-1,1693,1758,0,0
476,-734,0,0,0,0,0,0,0,0,0,-1,1700,1758,0,0
483,-734,0,0,0,0,0,0,0,0,0,-1,1707,1758,0,0
490,-734,0,0,0,0,0,0,0,0,0,-1,1714,1758,0,0
497,-734,0,0,0,0,0,0,0,0,0,-1,1721,1758,0,0
504,-734,0,0,0,0,0,0,0,0,0,-1,1728,1758,0,0
511,-734,0,0,0,0,0,0,0,0,0,-1,1735,1758,0,0
518,-734,0,0,0,0,0,0,0,0,0,-1,1742,1758,0,0
525,-734,0,0,0,0,0,0,0,0,0,-1,1749,1758,0,0
532,-734,0,0,0,0,0,0,0,0,0,-1,1756,1758,0,0
539,-734,0,0,0,0,0,0,0,0,0,-1,1763,1758,0,0
546,-734,0,0,0,0,0,0,0,0,0,-1,1770,1758,0,0
553,-734,0,0,0,0,0,0,0,0,0,-1,1777,1758,0,0
560,-734,0,0,0,0,0,0,0,0,0,-1,1784,1758,0,0
567,-734,0,0,0,0,0,0,0,0,0,-1,1791,1758,0,0
574,-734,0,0,0,0,0,0,0,0,0,-1,1798,1758,0,0
581,-734,0,0,0,0,0,0,0,0,0,-1,1805,1758,0,0
588,-734,0,0,0,0,0,0,0,0,0,-1,1812,1758,0,0
595,-734,0,0,0,0,0,0,0,0,0,-1,1819,1758,0,0
602,-734,0,0,0,0,0,0,0,0,0,-1,1826,1758,0,0
609,-734,0,0,0,0,0,0,0,0,0,-1,1833,1758,0,0
616,-734,0,0,0,0,0,0,0,0,0,-1,1840,1758,0,0
623,-734,0,0,0,0,0,0,0,0,0,-1,1847,1758,0,0
630,-734,0,0,0,0,0,0,0,0,0,-1,1854,1758,0,0
637,-734,0,0,0,0,0,0,0,0,0,-1,1861,1758,0,0
644,-734,0,0,0,0,0,0,0,0,0,-1,1868,1758,0,0
651,-734,0,0,0,0,0,0,0,0,0,-1,1875,1758,0,0
658,-734,0,0,0,0,0,0,0,0,0,-1,1882,1758,0,0
665,-734,0,0,0,0,0,0,0,0,0,-1,1889,1758,0,0
672,-734,0,0,0,0,0,0,0,0,0,-1,1896,1758,0,0
679,-734,0,0,0,0,0,0,0,0,0,-1,1903,1758,0,0
686,-734,0,0,0,0,0,0,0,0,0,-1,1910,1758,0,0
693,-734,0,0,0,0,0,0,0,0,0,-1,1917,1758,0,0
700,-734,0,0,0,0,0,0,0,0,0,-1,1924,1758,0,0
707,-734,0,0,0,0,0,0,0,0,0,-1,1931,1758,0,0
714,-734,0,0,0,0,0,0,0,0,0,-1,1938,1758,0,0
721,-734,0,0,0,0,0,0,0,0,0,-1,1945,1758,0,0
728,-734,0,0,0,0,0,0,0,0,0,-1,1952,1758,0,0
735,-734,0,0,0,0,0,0,0,0,0,-1,1959,1758,0,0
742,-734,0,0,0,0,0,0,0,0,0,-1,1966,1758,0,0
749,-734,0,0,0,0,0,0,0,0,0,-1,1973,1758,0,0
756,-734,0,0,0,0,0,0,0,0,0,-1,1980,1758,0,0
763,-734,0,0,0,0,0,0,0,0,0,-1,1987,1758,0,0
770,-734,0,0,0,0,0,0,0,0,0,-1,1994,1758,0,0
777,-734,0,0,0,0,0,0,0,0,0,-1,2001,1758,0,0
784,-734,0,0,0,0,0,0,0,0,0,-1,2008,1758,0,0
791,-734,0,0,0,0,0,0,0,0,0,-1,2015,1758,0,0
798,-734,0,0,0,0,0,0,0,0,0,-1,2022,1758,0,0
805,-734,0,0,0,0,0,0,0,0,0,-1,2029,1758,0,0
812,-734,0,0,0,0,0,0,0,0,0,-1,2036,1758,0,0
-700,-741,0,0,0,0,0,0,0,0,0,-1,524,1765,0,0
-693,-741,0,0,0,0,0,0,0,0,0,-1,531,1765,0,0
-686,-741,0,0,0,0,0,0,0,0,0,-1,538,1765,0,0
-679,-741,0,0,0,0,0,0,0,0,0,-1,545,1765,0,0
-672,-741,0,0,0,0,0,0,0,0,0,-1,552,1765,0,0
-665,-741,0,0,0,0,0,0,0,0,0,-1,559,1765,0,0
-658,-741,0,0,0,0,0,0,0,0,0,-1,566,1765,0,0
-651,-741,0,0,0,0,0,0,0,0,0,-1,573,1765,0,0
-644,-741,0,0,0,0,0,0,0,0,0,-1,580,1765,0,0
-637,-741,0,0,0,0,0,0,0,0,0,-1,587,1765,0,0
-630,-741,0,0,0,0,0,0,0,0,0,-1,594,1765,0,0
-623,-741,0,0,0,0,0,0,0,0,0,-1,601,1765,0,0
-616,-741,0,0,0,0,0,0,0,0,0,-1,608,1765,0,0
-609,-741,0,0,0,0,0,0,0,0,0,-1,615,1765,0,0
-602,-741,0,0,0,0,0,0,0,0,0,-1,622,1765,0,0
-595,-741,0,0,0,0,0,0,0,0,0,-1,629,1765,0,0
-588,-741,0,0,0,0,0,0,0,0,0,-1,636,1765,0,0
-581,-741,0,0,0,0,0,0,0,0,0,-1,643,1765,0,0
-574,-741,0,0,0,0,0,0,0,0,0,-1,650,1765,0,0
-567,-741,0,0,0,0,0,0,0,0,0,-1,657,1765,0,0
-560,-741,0,0,0,0,0,0,0,0,0,-1,664,1765,0,0
-553,-741,0,0,0,0,0,0,0,0,0,-1,671,1765,0,0
-546,-741,0,0,0,0,0,0,0,0,0,-1,678,1765,0,0
-539,-741,0,0,0,0,0,0,0,0,0,-1,685,1765,0,0
-532,-741,0,0,0,0,0,0,0,0,0,-1,692,1765,0,0
-525,-741,0,0,0,0,0,0,0,0,0,-1,699,1765,0,0
-518,-741,0,0,0,0,0,0,0,0,0,-1,706,1765,0,0
-511,-741,0,0,0,0,0,0,0,0,0,-1,713,1765,0,0
-504,-741,0,0,0,0,0,0,0,0,0,-1,720,1765,0,0
-497,-741,0,0,0,0,0,0,0,0,0,-1,727,1765,0,0
-490,-741,0,0,0,0,0,0,0,0,0,-1,734,1765,0,0
-483,-741,0,0,0,0,0,0,0,0,0,-1,741,1765,0,0
-476,-741,0,0,0,0,0,0,0,0,0,-1,748,1765,0,0
-469,-741,0,0,0,0,0,0,0,0,0,-1,755,1765,0,0
-462,-741,0,0,0,0,0,0,0,0,0,-1,762,1765,0,0
-455,-741,0,0,0,0,0,0,0,0,0,-1,769,1765,0,0
-448,-741,0,0,0,0,0,0,0,0,0,-1,776,1765,0,0
-441,-741,0,0,0,0,0,0,0,0,0,-1,783,1765,0,0
-434,-741,0,0,0,0,0,0,0,0,0,-1,790,1765,0,0
-427,-741,0,0,0,0,0,0,0,0,0,-1,797,1765,0,0
-420,-741,0,0,0,0,0,0,0,0,0,-1,804,1765,0,0
-413,-741,0,0,0,0,0,0,0,0,0,-1,811,1765,0,0
-406,-741,0,0,0,0,0,0,0,0,0,-1,818,1765,0,0
-399,-741,0,0,0,0,0,0,0,0,0,-1,825,1765,0,0
-392,-741,0,0,0,0,0,0,0,0,0,-1,832,1765,0,0
-385,-741,0,0,0,0,0,0,0,0,0,-1,839,1765,0,0
-378,-741,0,0,0,0,0,0,0,0,0,-1,846,1765,0,0
-371,-741,0,0,0,0,0,0,0,0,0,-1,853,1765,0,0
-364,-741,0,0,0,0,0,0,0,0,0,-1,860,1765,0,0
-357,-741,0,0,0,0,0,0,0,0,0,-1,867,1765,0,0
-350,-741,0,0,0,0,0,0,0,0,0,-1,874,1765,0,0
-343,-741,0,0,0,0,0,0,0,0,0,-1,881,1765,0,0
-336,-741,0,0,0,0,0,0,0,0,0,-1,888,1765,0,0
-329,-741,0,0,0,0,0,0,0,0,0,-1,895,1765,0,0
-322,-741,0,0,0,0,0,0,0,0,0,-1,902,1765,0,0
-315,-741,0,0,0,0,0,0,0,0,0,-1,909,1765,0,0
-308,-741,0,0,0,0,0,0,0,0,0,-1,916,1765,0,0
-301,-741,0,0,0,0,0,0,0,0,0,-1,923,1765,0,0
-294,-741,0,0,0,0,0,0,0,0,0,-1,930,1765,0,0
-287,-741,0,0,0,0,0,0,0,0,0,-1,937,1765,0,0
-280,-741,0,0,0,0,0,0,0,0,0,-1,944,1765,0,0
-273,-741,0,0,0,0,0,0,0,0,0,-1,951,1765,0,0
-266,-741,0,0,0,0,0,0,0,0,0,-1,958,1765,0,0
-259,-741,0,0,0,0,0,0,0,0,0,-1,965,1765,0,0
-252,-741,0,0,0,0,0,0,0,0,0,-1,972,1765,0,0
-245,-741,0,0,0,0,0,0,0,0,0,-1,979,1765,0,0
-238,-741,4.71777,14.9655,0,0,0,0,0,0,0,-1,986,1765,4.71776,-14.9654
-231,-741,6.00446,15.8785,0,0,0,0,0,0,0,-1,993,1765,6.00443,-15.8785
-224,-741,6.57977,16.5416,0,0,0,0,0,0,0,-1,1000,1765,6.57975,-16.5416
-217,-741,8.46582,30.9797,0,0,0,0,0,0,0,-1,1007,1765,8.4658,-30.9797
-210,-741,7.27338,32.062,0,0,0,0,0,0,0,-1,1014,1765,7.27339,-32.062
-203,-741,7.27783,31.1265,0,0,0,0,0,0,0,-1,1021,1765,7.27788,-31.1264
-196,-741,6.77002,31.2357,0,0,0,0,0,0,0,-1,1028,1765,6.76996,-31.2357
-189,-741,7.14319,22.3441,0,0,0,0,0,0,0,-1,1035,1765,7.1432,-22.3441
-182,-741,7.4458,23.6536,0,0,0,0,0,0,0,-1,1042,1765,7.44582,-23.6536
-175,-741,7.26477,24.616,0,0,0,0,0,0,0,-1,1049,1765,7.26471,-24.616
-168,-741,5.4801,16.3933,0,0,0,0,0,0,0,-1,1056,1765,5.4801,-16.3933
-161,-741,3.73047,14.4974,0,0,0,0,0,0,0,-1,1063,1765,3.73043,-14.4974
-154,-741,2.46143,9.75415,0,0,0,0,0,0,0,-1,1070,1765,2.46145,-9.75416
-147,-741,8.11609,30.2606,0,0,0,0,0,0,0,-1,1077,1765,8.11608,-30.2607
-140,-741,8.3584,31.1451,0,0,0,0,0,0,0,-1,1084,1765,8.35843,-31.1451
-133,-741,8.59277,31.59,0,0,0,0,0,0,0,-1,1091,1765,8.59278,-31.59
-126,-741,8.01575,31.7194,0,0,0,0,0,0,0,-1,1098,1765,8.0158,-31.7194
-119,-741,7.93335,31.9844,0,0,0,0,0,0,0,-1,1105,1765,7.93335,-31.9844
-112,-741,7.96545,32.1031,0,0,0,0,0,0,0,-1,1112,1765,7.96544,-32.1031
-105,-741,7.84009,32.3015,0,0,0,0,0,0,0,-1,1119,1765,7.84011,-32.3015
-98,-741,7.94067,32.4037,0,0,0,0,0,0,0,-1,1126,1765,7.94068,-32.4037
-91,-741,7.83997,32.4587,0,0,0,0,0,0,0,-1,1133,1765,7.83999,-32.4588
-84,-741,7.63232,32.264,0,0,0,0,0,0,0,-1,1140,1765,7.63228,-32.2641
-77,-741,7.66589,31.6727,0,0,0,0,0,0,0,-1,1147,1765,7.66584,-31.6727
-70,-741,7.5437,32.0275,0,0,0,0,0,0,0,-1,1154,1765,7.5437,-32.0275
-63,-741,7.52698,32.8102,0,0,0,0,0,0,0,-1,1161,1765,7.52695,-32.8101
-56,-741,7.76526,33.4207,0,0,0,0,0,0,0,-1,1168,1765,7.7653,-33.4207
-49,-741,7.70972,33.7384,0,0,0,0,0,0,0,-1,1175,1765,7.70969,-33.7384
-42,-741,7.63379,33.6758,0,0,0,0,0,0,0,-1,1182,1765,7.63381,-33.6757
-35,-741,7.64063,33.948,-0.00146517,0.00150627,-2.62505e-05,0.0015065,-0.0014654,-1.56196,0.00171588,0.0241469,1189,1765,7.64067,-33.948
-28,-741,7.62427,34.0869,-0.00101313,-0.0001454,-0.000357563,-1.70465e-05,-0.00114149,-1.22615,0.000755374,0.014091,1196,1765,7.62423,-34.087
-21,-741,7.59705,34.202,-0.00066846,-0.0012511,-0.000502453,-0.000378982,-0.00154058,-0.522684,0.000926919,0.0174747,1203,1765,7.5971,-34.202
-14,-741,7.56665,34.3113,-0.0003088,-0.00229862,-0.000481464,-0.000198426,-0.002409,-0.225353,0.00154411,0.0181401,1210,1765,7.5666,-34.3112
-7,-741,7.59229,34.386,-9.37704e-06,-0.00291785,-0.000534916,8.5883e-05,-0.00301311,-0.176236,0.00203797,0.0158363,1217,1765,7.59224,-34.386
0,-741,7.55774,34.4528,0.000116967,-0.0030905,-0.000514902,0.000197599,-0.00317113,-0.155334,0.00218294,0.0148823,1224,1765,7.55772,-34.4528
7,-741,7.52356,34.5402,8.82676e-05,-0.00305263,-0.000387979,0.000135483,-0.00309984,-0.1211,0.00211317,0.0163334,1231,1765,7.52354,-34.5402
14,-741,7.52405,34.6327,-0.00013765,-0.00263524,-0.000275119,-0.000107703,-0.00266519,-0.108422,0.001742,0.0164757,1238,1765,7.52401,-34.6327
21,-741,7.49573,34.673,-0.000323958,-0.00217087,-5.21815e-05,-0.000322485,-0.00217234,-0.0282234,0.0013536,0.0132038,1245,1765,7.49576,-34.6729
28,-741,7.47461,34.7378,-1.93476e-05,-0.00179116,7.21186e-05,-1.6417e-05,-0.00179409,0.0406137,0.00119063,0.0132297,1252,1765,7.47456,-34.7378
35,-741,7.47205,34.7703,0.000327945,-0.0015016,-1.37745e-05,0.000328048,-0.0015017,-0.00752838,0.00112652,0.0141602,1259,1765,7.47207,-34.7703
42,-741,7.44885,34.7856,0.000335247,-0.00115241,-0.000490334,0.000482321,-0.00129949,-0.291408,0.00106418,0.0138032,1266,1765,7.44884,-34.7857
49,-741,7.45154,34.8262,8.40183e-05,-0.000625662,-0.00103234,0.000820802,-0.00136245,-0.619862,0.00127336,0.00950436,1273,1765,7.45154,-34.8261
56,-741,7.42456,34.8511,0.000374434,-0.000328455,-0.0014078,0.001474,-0.00142802,-0.663078,0.00167555,0.00959941,1280,1765,7.42457,-34.851
63,-741,7.37415,34.8582,0.000793571,-4.14619e-05,-0.00217414,0.00258992,-0.00183781,-0.690534,0.00256862,0.0139351,1287,1765,7.37415,-34.8581
70,-741,7.36963,34.8868,0.00075704,6.87836e-05,-0.00272539,0.00315994,-0.00233412,-0.722597,0.00318392,0.0163332,1294,1765,7.36966,-34.8868
77,-741,7.38184,34.9218,0.00106055,0.000121121,-0.00351221,0.00413431,-0.00295264,-0.718924,0.00411057,0.014014,1301,1765,7.38187,-34.9217
84,-741,7.35718,34.9009,0.00117414,3.13496e-05,-0.00424303,0.00488408,-0.00367859,-0.718468,0.00495996,0.0160896,1308,1765,7.35721,-34.9008
91,-741,7.33264,34.8644,0.00114943,-5.44452e-05,-0.00488055,0.00546503,-0.00437004,-0.724041,0.00569,0.0125766,1315,1765,7.33268,-34.8644
98,-741,7.33716,34.807,0.00102361,-0.000211958,-0.00530346,0.00574514,-0.0049335,-0.727416,0.00617125,0.0101665,1322,1765,7.33721,-34.8071
105,-741,7.34851,34.7456,0.000805502,-0.000381581,-0.00557264,0.00581612,-0.0053922,-0.732343,0.00647267,0.0102506,1329,1765,7.34851,-34.7456
112,-741,7.34668,34.6919,0.000501539,-0.000473233,-0.00567839,0.00571343,-0.00568512,-0.742587,0.00658096,0.0098193,1336,1765,7.34668,-34.6919
119,-741,7.3429,34.6105,9.98211e-05,-0.00060115,-0.00562016,0.00538042,-0.00588175,-0.754257,0.00650436,0.0125708,1343,1765,7.34284,-34.6105
126,-741,7.33667,34.5215,-0.000442128,-0.000591401,-0.00543345,0.0049172,-0.00595073,-0.77853,0.00628405,0.0183182,1350,1765,7.33665,-34.5215
133,-741,7.29932,34.4877,-0.00130443,-0.000408233,-0.00506582,0.00422927,-0.00594193,-0.829511,0.00590003,0.0137482,1357,1765,7.29928,-34.4877
140,-741,7.25415,34.4148,-0.00202126,-0.000239016,-0.00448437,0.00344191,-0.00570219,-0.883479,0.00533284,0.0104525,1364,1765,7.25416,-34.4148
147,-741,7.25098,34.3433,-0.0022658,-0.000235687,-0.00368696,0.0025734,-0.00507488,-0.919725,0.00449377,0.0101147,1371,1765,7.25103,-34.3433
154,-741,7.24182,34.2697,-0.00221451,-0.000482434,-0.00312796,0.00189717,-0.00459411,-0.92045,0.00385405,0.00832276,1378,1765,7.24184,-34.2697
161,-741,7.21265,34.1696,-0.00310095,-0.00035174,-0.00314924,0.00170983,-0.00516251,-0.991178,0.00413129,0.00987716,1385,1765,7.21266,-34.1695
168,-741,7.17883,34.0713,-0.00390678,-0.000281571,-0.00253343,0.00102092,-0.00520927,-1.09592,0.00385844,0.0247071,1392,1765,7.17885,-34.0713
175,-741,7.09814,33.9386,0,0,0,0,0,0,0,-1,1399,1765,7.09817,-33.9386
182,-741,7.16577,33.8029,0,0,0,0,0,0,0,-1,1406,1765,7.16579,-33.8029
189,-741,7.11536,33.6962,0,0,0,0,0,0,0,-1,1413,1765,7.11539,-33.6961
196,-741,7.09155,33.5319,0,0,0,0,0,0,0,-1,1420,1765,7.09149,-33.5318
203,-741,7.12317,33.2924,0,0,0,0,0,0,0,-1,1427,1765,7.12321,-33.2924
210,-741,7.06274,33.0283,0,0,0,0,0,0,0,-1,1434,1765,7.06274,-33.0283
217,-741,7.20471,32.8019,0,0,0,0,0,0,0,-1,1441,1765,7.20473,-32.8019
224,-741,7.26807,32.594,0,0,0,0,0,0,0,-1,1448,1765,7.26811,-32.594
231,-741,7.24194,32.7813,0,0,0,0,0,0,0,-1,1455,1765,7.24194,-32.7813
238,-741,7.25452,32.6851,-0.000757679,-0.00546558,-0.00926681,0.00644948,-0.0126727,-0.661019,0.0112334,0.0479504,1462,1765,7.25446,-32.685
245,-741,7.28027,32.4882,0.000703556,-0.00582172,-0.00930587,0.00730215,-0.0124203,-0.616793,0.0115139,0.0478196,1469,1765,7.28028,-32.4882
252,-741,7.21106,32.3359,0.00216642,-0.00556985,-0.00900799,0.00810167,-0.0115051,-0.582597,0.0113767,0.045624,1476,1765,7.21103,-32.3359
259,-741,6.95325,32.1586,0,0,0,0,0,0,0,-1,1483,1765,6.95322,-32.1586
266,-741,7.01135,32.0221,0,0,0,0,0,0,0,-1,1490,1765,7.01139,-32.0221
273,-741,17.0328,7.54468,0,0,0,0,0,0,0,-1,1497,1765,17.0328,-7.54474
280,-741,16.2363,9.84546,0,0,0,0,0,0,0,-1,1504,1765,16.2363,-9.84547
287,-741,4.6532,30.1832,0,0,0,0,0,0,0,-1,1511,1765,4.65319,-30.1832
294,-741,4.56812,29.4258,0,0,0,0,0,0,0,-1,1518,1765,4.56806,-29.4258
301,-741,11.036,7.02612,0,0,0,0,0,0,0,-1,1525,1765,11.036,-7.02617
308,-741,10.4718,6.09814,0,0,0,0,0,0,0,-1,1532,1765,10.4718,-6.0981
315,-741,9.70715,6.86963,0,0,0,0,0,0,0,-1,1539,1765,9.70712,-6.86963
322,-741,9.21252,8.54858,0,0,0,0,0,0,0,-1,1546,1765,9.21251,-8.54858
329,-741,8.5603,10.1146,0,0,0,0,0,0,0,-1,1553,1765,8.56033,-10.1146
336,-741,4.74475,14.6453,0,0,0,0,0,0,0,-1,1560,1765,4.7447,-14.6452
343,-741,5.42297,5.93701,0,0,0,0,0,0,0,-1,1567,1765,5.42296,-5.937
350,-741,4.90369,5.44666,0,0,0,0,0,0,0,-1,1574,1765,4.90368,-5.44664
357,-741,4.02063,5.16626,0,0,0,0,0,0,0,-1,1581,1765,4.02058,-5.1662
364,-741,0,0,0,0,0,0,0,0,0,-1,1588,1765,0,0
371,-741,0,0,0,0,0,0,0,0,0,-1,1595,1765,0,0
378,-741,0,0,0,0,0,0,0,0,0,-1,1602,1765,0,0
385,-741,0,0,0,0,0,0,0,0,0,-1,1609,1765,0,0
392,-741,0,0,0,0,0,0,0,0,0,-1,1616,1765,0,0
399,-741,0,0,0,0,0,0,0,0,0,-1,1623,1765,0,0
406,-741,0,0,0,0,0,0,0,0,0,-1,1630,1765,0,0
413,-741,0,0,0,0,0,0,0,0,0,-1,1637,1765,0,0
420,-741,0,0,0,0,0,0,0,0,0,-1,1644,1765,0,0
427,-741,0,0,0,0,0,0,0,0,0,-1,1651,1765,0,0
434,-741,0,0,0,0,0,0,0,0,0,-1,1658,1765,0,0
441,-741,0,0,0,0,0,0,0,0,0,-1,1665,1765,0,0
448,-741,0,0,0,0,0,0,0,0,0,-1,1672,1765,0,0
455,-741,0,0,0,0,0,0,0,0,0,-1,1679,1765,0,0
462,-741,0,0,0,0,0,0,0,0,0,-1,1686,1765,0,0
469,-741,0,0,0,0,0,0,0,0,0,-1,1693,1765,0,0
476,-741,0,0,0,0,0,0,0,0,0,-1,1700,1765,0,0
483,-741,0,0,0,0,0,0,0,0,0,-1,1707,1765,0,0
490,-741,0,0,0,0,0,0,0,0,0,-1,1714,1765,0,0
497,-741,0,0,0,0,0,0,0,0,0,-1,1721,1765,0,0
504,-741,0,0,0,0,0,0,0,0,0,-1,1728,1765,0,0
511,-741,0,0,0,0,0,0,0,0,0,-1,1735,1765,0,0
518,-741,0,0,0,0,0,0,0,0,0,-1,1742,1765,0,0
525,-741,0,0,0,0,0,0,0,0,0,-1,1749,1765,0,0
532,-741,0,0,0,0,0,0,0,0,0,-1,1756,1765,0,0
539,-741,0,0,0,0,0,0,0,0,0,-1,1763,1765,0,0
546,-741,0,0,0,0,0,0,0,0,0,-1,1770,1765,0,0
553,-741,0,0,0,0,0,0,0,0,0,-1,1777,1765,0,0
560,-741,0,0,0,0,0,0,0,0,0,-1,1784,1765,0,0
567,-741,0,0,0,0,0,0,0,0,0,-1,1791,1765,0,0
574,-741,0,0,0,0,0,0,0,0,0,-1,1798,1765,0,0
581,-741,0,0,0,0,0,0,0,0,0,-1,1805,1765,0,0
588,-741,0,0,0,0,0,0,0,0,0,-1,1812,1765,0,0
595,-741,0,0,0,0,0,0,0,0,0,-1,1819,1765,0,0
602,-741,0,0,0,0,0,0,0,0,0,-1,1826,1765,0,0
609,-741,0,0,0,0,0,0,0,0,0,-1,1833,1765,0,0
616,-741,0,0,0,0,0,0,0,0,0,-1,1840,1765,0,0
623,-741,0,0,0,0,0,0,0,0,0,-1,1847,1765,0,0
630,-741,0,0,0,0,0,0,0,0,0,-1,1854,1765,0,0
637,-741,0,0,0,0,0,0,0,0,0,-1,1861,1765,0,0
644,-741,0,0,0,0,0,0,0,0,0,-1,1868,1765,0,0
651,-741,0,0,0,0,0,0,0,0,0,-1,1875,1765,0,0
658,-741,0,0,0,0,0,0,0,0,0,-1,1882,1765,0,0
665,-741,0,0,0,0,0,0,0,0,0,-1,1889,1765,0,0
672,-741,0,0,0,0,0,0,0,0,0,-1,1896,1765,0,0
679,-741,0,0,0,0,0,0,0,0,0,-1,1903,1765,0,0
686,-741,0,0,0,0,0,0,0,0,0,-1,1910,1765,0,0
693,-741,0,0,0,0,0,0,0,0,0,-1,1917,1765,0,0
700,-741,0,0,0,0,0,0,0,0,0,-1,1924,1765,0,0
707,-741,0,0,0,0,0,0,0,0,0,-1,1931,1765,0,0
714,-741,0,0,0,0,0,0,0,0,0,-1,1938,1765,0,0
721,-741,0,0,0,0,0,0,0,0,0,-1,1945,1765,0,0
728,-741,0,0,0,0,0,0,0,0,0,-1,1952,1765,0,0
735,-741,0,0,0,0,0,0,0,0,0,-1,1959,1765,0,0
742,-741,0,0,0,0,0,0,0,0,0,-1,1966,1765,0,0
749,-741,0,0,0,0,0,0,0,0,0,-1,1973,1765,0,0
756,-741,0,0,0,0,0,0,0,0,0,-1,1980,1765,0,0
763,-741,0,0,0,0,0,0,0,0,0,-1,1987,1765,0,0
770,-741,0,0,0,0,0,0,0,0,0,-1,1994,1765,0,0
777,-741,0,0,0,0,0,0,0,0,0,-1,2001,1765,0,0
784,-741,0,0,0,0,0,0,0,0,0,-1,2008,1765,0,0
791,-741,0,0,0,0,0,0,0,0,0,-1,2015,1765,0,0
798,-741,0,0,0,0,0,0,0,0,0,-1,2022,1765,0,0
805,-741,0,0,0,0,0,0,0,0,0,-1,2029,1765,0,0
812,-741,0,0,0,0,0,0,0,0,0,-1,2036,1765,0,0
-700,-748,0,0,0,0,0,0,0,0,0,-1,524,1772,0,0
-693,-748,0,0,0,0,0,0,0,0,0,-1,531,1772,0,0
-686,-748,0,0,0,0,0,0,0,0,0,-1,538,1772,0,0
-679,-748,0,0,0,0,0,0,0,0,0,-1,545,1772,0,0
-672,-748,0,0,0,0,0,0,0,0,0,-1,552,1772,0,0
-665,-748,0,0,0,0,0,0,0,0,0,-1,559,1772,0,0
-658,-748,0,0,0,0,0,0,0,0,0,-1,566,1772,0,0
-651,-748,0,0,0,0,0,0,0,0,0,-1,573,1772,0,0
-644,-748,0,0,0,0,0,0,0,0,0,-1,580,1772,0,0
-637,-748,0,0,0,0,0,0,0,0,0,-1,587,1772,0,0
-630,-748,0,0,0,0,0,0,0,0,0,-1,594,1772,0,0
-623,-748,0,0,0,0,0,0,0,0,0,-1,601,1772,0,0
-616,-748,0,0,0,0,0,0,0,0,0,-1,608,1772,0,0
-609,-748,0,0,0,0,0,0,0,0,0,-1,615,1772,0,0
-602,-748,0,0,0,0,0,0,0,0,0,-1,622,1772,0,0
-595,-748,0,0,0,0,0,0,0,0,0,-1,629,1772,0,0
-588,-748,0,0,0,0,0,0,0,0,0,-1,636,1772,0,0
-581,-748,0,0,0,0,0,0,0,0,0,-1,643,1772,0,0
-574,-748,0,0,0,0,0,0,0,0,0,-1,650,1772,0,0
-567,-748,0,0,0,0,0,0,0,0,0,-1,657,1772,0,0
-560,-748,0,0,0,0,0,0,0,0,0,-1,664,1772,0,0
-553,-748,0,0,0,0,0,0,0,0,0,-1,671,1772,0,0
-546,-748,0,0,0,0,0,0,0,0,0,-1,678,1772,0,0
-539,-748,0,0,0,0,0,0,0,0,0,-1,685,1772,0,0
-532,-748,0,0,0,0,0,0,0,0,0,-1,692,1772,0,0
-525,-748,0,0,0,0,0,0,0,0,0,-1,699,1772,0,0
-518,-748,0,0,0,0,0,0,0,0,0,-1,706,1772,0,0
-511,-748,0,0,0,0,0,0,0,0,0,-1,713,1772,0,0
-504,-748,0,0,0,0,0,0,0,0,0,-1,720,1772,0,0
-497,-748,0,0,0,0,0,0,0,0,0,-1,727,1772,0,0
-490,-748,0,0,0,0,0,0,0,0,0,-1,734,1772,0,0
-483,-748,0,0,0,0,0,0,0,0,0,-1,741,1772,0,0
-476,-748,0,0,0,0,0,0,0,0,0,-1,748,1772,0,0
-469,-748,0,0,0,0,0,0,0,0,0,-1,755,1772,0,0
-462,-748,0,0,0,0,0,0,0,0,0,-1,762,1772,0,0
-455,-748,0,0,0,0,0,0,0,0,0,-1,769,1772,0,0
-448,-748,0,0,0,0,0,0,0,0,0,-1,776,1772,0,0
-441,-748,0,0,0,0,0,0,0,0,0,-1,783,1772,0,0
-434,-748,0,0,0,0,0,0,0,0,0,-1,790,1772,0,0
-427,-748,0,0,0,0,0,0,0,0,0,-1,797,1772,0,0
-420,-748,0,0,0,0,0,0,0,0,0,-1,804,1772,0,0
-413,-748,0,0,0,0,0,0,0,0,0,-1,811,1772,0,0
-406,-748,0,0,0,0,0,0,0,0,0,-1,818,1772,0,0
-399,-748,0,0,0,0,0,0,0,0,0,-1,825,1772,0,0
-392,-748,0,0,0,0,0,0,0,0,0,-1,832,1772,0,0
-385,-748,0,0,0,0,0,0,0,0,0,-1,839,1772,0,0
-378,-748,0,0,0,0,0,0,0,0,0,-1,846,1772,0,0
-371,-748,0,0,0,0,0,0,0,0,0,-1,853,1772,0,0
-364,-748,0,0,0,0,0,0,0,0,0,-1,860,1772,0,0
-357,-748,0,0,0,0,0,0,0,0,0,-1,867,1772,0,0
-350,-748,0,0,0,0,0,0,0,0,0,-1,874,1772,0,0
-343,-748,0,0,0,0,0,0,0,0,0,-1,881,1772,0,0
-336,-748,0,0,0,0,0,0,0,0,0,-1,888,1772,0,0
-329,-748,0,0,0,0,0,0,0,0,0,-1,895,1772,0,0
-322,-748,0,0,0,0,0,0,0,0,0,-1,902,1772,0,0
-315,-748,0,0,0,0,0,0,0,0,0,-1,909,1772,0,0
-308,-748,0,0,0,0,0,0,0,0,0,-1,916,1772,0,0
-301,-748,0,0,0,0,0,0,0,0,0,-1,923,1772,0,0
-294,-748,0,0,0,0,0,0,0,0,0,-1,930,1772,0,0
-287,-748,0,0,0,0,0,0,0,0,0,-1,937,1772,0,0
-280,-748,0,0,0,0,0,0,0,0,0,-1,944,1772,0,0
-273,-748,0,0,0,0,0,0,0,0,0,-1,951,1772,0,0
-266,-748,0,0,0,0,0,0,0,0,0,-1,958,1772,0,0
-259,-748,0,0,0,0,0,0,0,0,0,-1,965,1772,0,0
-252,-748,0,0,0,0,0,0,0,0,0,-1,972,1772,0,0
-245,-748,0,0,0,0,0,0,0,0,0,-1,979,1772,0,0
-238,-748,0,0,0,0,0,0,0,0,0,-1,986,1772,0,0
-231,-748,0,0,0,0,0,0,0,0,0,-1,993,1772,0,0
-224,-748,0,0,0,0,0,0,0,0,0,-1,1000,1772,0,0
-217,-748,6.45807,16.5496,0,0,0,0,0,0,0,-1,1007,1772,6.45805,-16.5495
-210,-748,8.08215,31.9536,0,0,0,0,0,0,0,-1,1014,1772,8.08215,-31.9537
-203,-748,7.7262,31.4922,0,0,0,0,0,0,0,-1,1021,1772,7.72624,-31.4922
-196,-748,5.15344,22.8755,0,0,0,0,0,0,0,-1,1028,1772,5.15342,-22.8754
-189,-748,7.13208,21.4095,0,0,0,0,0,0,0,-1,1035,1772,7.13211,-21.4095
-182,-748,3.94958,20.8662,0,0,0,0,0,0,0,-1,1042,1772,3.94959,-20.8662
-175,-748,3.56726,19.4518,0,0,0,0,0,0,0,-1,1049,1772,3.5673,-19.4518
-168,-748,3.04858,18.0109,0,0,0,0,0,0,0,-1,1056,1772,3.04853,-18.0108
-161,-748,3.50562,13.2729,0,0,0,0,0,0,0,-1,1063,1772,3.5056,-13.2729
-154,-748,-3.38562,10.6989,0,0,0,0,0,0,0,-1,1070,1772,-3.38564,-10.6989
-147,-748,-6.38733,11.0702,0,0,0,0,0,0,0,-1,1077,1772,-6.38731,-11.0702
-140,-748,7.42126,23.8113,0,0,0,0,0,0,0,-1,1084,1772,7.42133,-23.8113
-133,-748,7.44727,22.0308,0,0,0,0,0,0,0,-1,1091,1772,7.44728,-22.0308
-126,-748,5.98035,22.6067,0,0,0,0,0,0,0,-1,1098,1772,5.9803,-22.6067
-119,-748,6.63342,26.309,0,0,0,0,0,0,0,-1,1105,1772,6.6334,-26.3089
-112,-748,6.91333,24.923,0,0,0,0,0,0,0,-1,1112,1772,6.91339,-24.923
-105,-748,6.83313,25.0537,0,0,0,0,0,0,0,-1,1119,1772,6.83311,-25.0537
-98,-748,8.13623,30.8743,0,0,0,0,0,0,0,-1,1126,1772,8.13628,-30.8742
-91,-748,4.85352,15.3033,0,0,0,0,0,0,0,-1,1133,1772,4.85351,-15.3033
-84,-748,-0.192017,7.26196,0,0,0,0,0,0,0,-1,1140,1772,-0.192047,-7.26201
-77,-748,4.42615,13.5537,0,0,0,0,0,0,0,-1,1147,1772,4.4261,-13.5538
-70,-748,4.46191,13.7446,0,0,0,0,0,0,0,-1,1154,1772,4.4619,-13.7446
-63,-748,4.49768,13.9355,0,0,0,0,0,0,0,-1,1161,1772,4.49769,-13.9355
-56,-748,3.05762,7.87817,0,0,0,0,0,0,0,-1,1168,1772,3.05768,-7.87822
-49,-748,3.04102,7.82471,0,0,0,0,0,0,0,-1,1175,1772,3.04096,-7.82468
-42,-748,0.793457,14.9474,0,0,0,0,0,0,0,-1,1182,1772,0.793413,-14.9474
-35,-748,7.64709,34.0723,0,0,0,0,0,0,0,-1,1189,1772,7.64707,-34.0723
-28,-748,7.72266,34.1631,-4.54028e-05,6.01285e-05,-0.00105661,0.00106529,-0.00105056,-0.810347,0.0012216,0.048685,1196,1772,7.72271,-34.1631
-21,-748,7.73914,34.2236,0.000456532,-0.00128532,-0.00129014,0.0011422,-0.00197098,-0.488501,0.0018185,0.0233577,1203,1772,7.73916,-34.2237
-14,-748,7.69153,34.2847,0.000954694,-0.00266016,-0.00130927,0.00137908,-0.00308454,-0.313451,0.00263903,0.0168783,1210,1772,7.69151,-34.2847
-7,-748,7.67151,34.3585,0.00133933,-0.00353895,-0.00141353,0.00171932,-0.00391894,-0.262612,0.0033368,0.0154642,1217,1772,7.67156,-34.3585
0,-748,7.63391,34.4277,0.00143449,-0.00390308,-0.00143576,0.00179619,-0.00426477,-0.246784,0.00359474,0.0146852,1224,1772,7.63395,-34.4278
7,-748,7.61169,34.5066,0.00126213,-0.00401484,-0.00129894,0.00156453,-0.00431725,-0.228737,0.00351763,0.013705,1231,1772,7.61171,-34.5066
14,-748,7.58301,34.6123,0.000738637,-0.00356453,-0.00118933,0.00104547,-0.00387136,-0.252483,0.00299094,0.0145398,1238,1772,7.58295,-34.6123
21,-748,7.56165,34.6758,0.00026936,-0.0030748,-0.00104953,0.000571452,-0.00337689,-0.280261,0.00246394,0.0110539,1245,1772,7.56163,-34.6757
28,-748,7.526,34.7178,0.000564428,-0.00273488,-0.00114644,0.000923673,-0.00309412,-0.303666,0.00242988,0.0117463,1252,1772,7.52603,-34.7177
35,-748,7.51855,34.761,0.000912317,-0.00249953,-0.00138733,0.00140522,-0.00299244,-0.341382,0.00259353,0.0124515,1259,1772,7.51858,-34.761
42,-748,7.49182,34.7855,0.000735527,-0.00212064,-0.00223409,0.00195897,-0.00334408,-0.501017,0.00309634,0.0125455,1266,1772,7.49183,-34.7855
49,-748,7.47192,34.8004,0.000192013,-0.00151035,-0.00315247,0.00260619,-0.00392454,-0.65354,0.00379604,0.0103654,1273,1772,7.47198,-34.8004
56,-748,7.44202,34.8373,0.000457019,-0.00113794,-0.00372632,0.00347024,-0.00415116,-0.679982,0.00440607,0.0108788,1280,1772,7.44196,-34.8372
63,-748,7.39209,34.8484,0.000641318,-0.000820508,-0.00477226,0.00473831,-0.0049175,-0.709409,0.00557511,0.0123159,1287,1772,7.39211,-34.8484
70,-748,7.37988,34.8596,6.39765e-05,-0.000586398,-0.00541365,0.0051622,-0.00568462,-0.7554,0.00626483,0.0135877,1294,1772,7.37989,-34.8596
77,-748,7.37695,34.8669,0.000217267,-0.00034494,-0.00638324,0.00632559,-0.00645326,-0.763394,0.007378,0.0128907,1301,1772,7.37701,-34.867
84,-748,7.32874,34.8936,8.05508e-05,-0.000259471,-0.00725833,0.00717086,-0.00734978,-0.773689,0.00838371,0.0142837,1308,1772,7.32879,-34.8935
91,-748,7.30652,34.8656,-0.000281802,-0.00019859,-0.00799057,0.00775048,-0.00823087,-0.788002,0.00922823,0.0109931,1315,1772,7.30648,-34.8656
98,-748,7.28943,34.8015,-0.000796728,-0.000256842,-0.00844794,0.00792547,-0.00897904,-0.80137,0.00976614,0.0104793,1322,1772,7.2894,-34.8015
105,-748,7.29553,34.7301,-0.0014527,-0.000356624,-0.0087131,0.00782565,-0.00963498,-0.816806,0.0100989,0.011793,1329,1772,7.29558,-34.7301
112,-748,7.29443,34.6802,-0.00222484,-0.000436055,-0.00879401,0.00750892,-0.0101698,-0.836076,0.0102453,0.0148015,1336,1772,7.29448,-34.6802
119,-748,7.29053,34.6097,-0.00306717,-0.000647504,-0.00866497,0.00689169,-0.0106064,-0.854761,0.0101781,0.0128314,1343,1772,7.29058,-34.6097
126,-748,7.27136,34.552,-0.00402598,-0.000760159,-0.00831782,0.00608352,-0.0108697,-0.882323,0.00991709,0.013994,1350,1772,7.27134,-34.552
133,-748,7.2124,34.5178,-0.0053231,-0.000745118,-0.00772436,0.00502227,-0.0110905,-0.929443,0.00952007,0.0087181,1357,1772,7.21244,-34.5179
140,-748,7.17993,34.4491,-0.0063004,-0.000811226,-0.00695298,0.00391926,-0.0110309,-0.973378,0.00895108,0.0113883,1364,1772,7.17988,-34.4491
147,-748,7.18408,34.3564,-0.00653821,-0.0011002,-0.00572973,0.00252294,-0.0101613,-1.00694,0.00775327,0.0136227,1371,1772,7.18411,-34.3565
154,-748,7.15552,34.266,-0.00612047,-0.00159155,-0.00465098,0.00131693,-0.00902896,-1.01195,0.00650288,0.0119236,1378,1772,7.15555,-34.266
161,-748,7.11755,34.1897,-0.0069424,-0.0015105,-0.00461805,0.00113105,-0.00958395,-1.05122,0.00679776,0.017217,1385,1772,7.11761,-34.1897
168,-748,7.12732,34.0898,0,0,0,0,0,0,0,-1,1392,1772,7.1273,-34.0899
175,-748,11.6235,16.8242,0,0,0,0,0,0,0,-1,1399,1772,11.6236,-16.8242
182,-748,7.62476,10.3058,0,0,0,0,0,0,0,-1,1406,1772,7.62476,-10.3058
189,-748,6.15857,6.95898,0,0,0,0,0,0,0,-1,1413,1772,6.15862,-6.95896
196,-748,3.9425,8.46021,0,0,0,0,0,0,0,-1,1420,1772,3.9425,-8.46026
203,-748,3.9668,12.9835,0,0,0,0,0,0,0,-1,1427,1772,3.96678,-12.9836
210,-748,4.71472,16.8318,0,0,0,0,0,0,0,-1,1434,1772,4.71471,-16.8317
217,-748,5.38452,21.5551,0,0,0,0,0,0,0,-1,1441,1772,5.38455,-21.555
224,-748,6.14258,25.2345,0,0,0,0,0,0,0,-1,1448,1772,6.14263,-25.2345
231,-748,6.46045,29.7867,0,0,0,0,0,0,0,-1,1455,1772,6.46049,-29.7867
238,-748,7.41565,32.8574,0,0,0,0,0,0,0,-1,1462,1772,7.41562,-32.8574
245,-748,7.43799,32.662,0,0,0,0,0,0,0,-1,1469,1772,7.43796,-32.662
252,-748,7.30652,32.498,0,0,0,0,0,0,0,-1,1476,1772,7.30653,-32.4981
259,-748,6.74219,31.5342,0,0,0,0,0,0,0,-1,1483,1772,6.74221,-31.5342
266,-748,17.9011,7.59448,0,0,0,0,0,0,0,-1,1490,1772,17.9011,-7.59452
273,-748,16.4131,7.57129,0,0,0,0,0,0,0,-1,1497,1772,16.413,-7.57125
280,-748,15.2177,7.24829,0,0,0,0,0,0,0,-1,1504,1772,15.2176,-7.24833
287,-748,14.161,8.32813,0,0,0,0,0,0,0,-1,1511,1772,14.161,-8.32808
294,-748,12.2117,7.453,0,0,0,0,0,0,0,-1,1518,1772,12.2116,-7.45297
301,-748,11.7134,7.3595,0,0,0,0,0,0,0,-1,1525,1772,11.7133,-7.35949
308,-748,9.92456,7.80225,0,0,0,0,0,0,0,-1,1532,1772,9.92453,-7.80224
315,-748,8.91541,8.29773,0,0,0,0,0,0,0,-1,1539,1772,8.91544,-8.29773
322,-748,7.83618,8.87122,0,0,0,0,0,0,0,-1,1546,1772,7.83613,-8.87124
329,-748,3.48315,14.6533,0,0,0,0,0,0,0,-1,1553,1772,3.48316,-14.6534
336,-748,3.76001,15.8163,0,0,0,0,0,0,0,-1,1560,1772,3.75995,-15.8163
343,-748,0,0,0,0,0,0,0,0,0,-1,1567,1772,0,0
350,-748,0,0,0,0,0,0,0,0,0,-1,1574,1772,0,0
357,-748,0,0,0,0,0,0,0,0,0,-1,1581,1772,0,0
364,-748,0,0,0,0,0,0,0,0,0,-1,1588,1772,0,0
371,-748,0,0,0,0,0,0,0,0,0,-1,1595,1772,0,0
378,-748,0,0,0,0,0,0,0,0,0,-1,1602,1772,0,0
385,-748,0,0,0,0,0,0,0,0,0,-1,1609,1772,0,0
392,-748,0,0,0,0,0,0,0,0,0,-1,1616,1772,0,0
399,-748,0,0,0,0,0,0,0,0,0,-1,1623,1772,0,0
406,-748,0,0,0,0,0,0,0,0,0,-1,1630,1772,0,0
413,-748,0,0,0,0,0,0,0,0,0,-1,1637,1772,0,0
420,-748,0,0,0,0,0,0,0,0,0,-1,1644,1772,0,0
427,-748,0,0,0,0,0,0,0,0,0,-1,1651,1772,0,0
434,-748,0,0,0,0,0,0,0,0,0,-1,1658,1772,0,0
441,-748,0,0,0,0,0,0,0,0,0,-1,1665,1772,0,0
448,-748,0,0,0,0,0,0,0,0,0,-1,1672,1772,0,0
455,-748,0,0,0,0,0,0,0,0,0,-1,1679,1772,0,0
462,-748,0,0,0,0,0,0,0,0,0,-1,1686,1772,0,0
469,-748,0,0,0,0,0,0,0,0,0,-1,1693,1772,0,0
476,-748,0,0,0,0,0,0,0,0,0,-1,1700,1772,0,0
483,-748,0,0,0,0,0,0,0,0,0,-1,1707,1772,0,0
490,-748,0,0,0,0,0,0,0,0,0,-1,1714,1772,0,0
497,-748,0,0,0,0,0,0,0,0,0,-1,1721,1772,0,0
504,-748,0,0,0,0,0,0,0,0,0,-1,1728,1772,0,0
511,-748,0,0,0,0,0,0,0,0,0,-1,1735,1772,0,0
518,-748,0,0,0,0,0,0,0,0,0,-1,1742,1772,0,0
525,-748,0,0,0,0,0,0,0,0,0,-1,1749,1772,0,0
532,-748,0,0,0,0,0,0,0,0,0,-1,1756,1772,0,0
539,-748,0,0,0,0,0,0,0,0,0,-1,1763,1772,0,0
546,-748,0,0,0,0,0,0,0,0,0,-1,1770,1772,0,0
553,-748,0,0,0,0,0,0,0,0,0,-1,1777,1772,0,0
560,-748,0,0,0,0,0,0,0,0,0,-1,1784,1772,0,0
567,-748,0,0,0,0,0,0,0,0,0,-1,1791,1772,0,0
574,-748,0,0,0,0,0,0,0,0,0,-1,1798,1772,0,0
581,-748,0,0,0,0,0,0,0,0,0,-1,1805,1772,0,0
588,-748,0,0,0,0,0,0,0,0,0,-1,1812,1772,0,0
595,-748,0,0,0,0,0,0,0,0,0,-1,1819,1772,0,0
602,-748,0,0,0,0,0,0,0,0,0,-1,1826,1772,0,0
609,-748,0,0,0,0,0,0,0,0,0,-1,1833,1772,0,0
616,-748,0,0,0,0,0,0,0,0,0,-1,1840,1772,0,0
623,-748,0,0,0,0,0,0,0,0,0,-1,1847,1772,0,0
630,-748,0,0,0,0,0,0,0,0,0,-1,1854,1772,0,0
637,-748,0,0,0,0,0,0,0,0,0,-1,1861,1772,0,0
644,-748,0,0,0,0,0,0,0,0,0,-1,1868,1772,0,0
651,-748,0,0,0,0,0,0,0,0,0,-1,1875,1772,0,0
658,-748,0,0,0,0,0,0,0,0,0,-1,1882,1772,0,0
665,-748,0,0,0,0,0,0,0,0,0,-1,1889,1772,0,0
672,-748,0,0,0,0,0,0,0,0,0,-1,1896,1772,0,0
679,-748,0,0,0,0,0,0,0,0,0,-1,1903,1772,0,0
686,-748,0,0,0,0,0,0,0,0,0,-1,1910,1772,0,0
693,-748,0,0,0,0,0,0,0,0,0,-1,1917,1772,0,0
700,-748,0,0,0,0,0,0,0,0,0,-1,1924,1772,0,0
707,-748,0,0,0,0,0,0,0,0,0,-1,1931,1772,0,0
714,-748,0,0,0,0,0,0,0,0,0,-1,1938,1772,0,0
721,-748,0,0,0,0,0,0,0,0,0,-1,1945,1772,0,0
728,-748,0,0,0,0,0,0,0,0,0,-1,1952,1772,0,0
735,-748,0,0,0,0,0,0,0,0,0,-1,1959,1772,0,0
742,-748,0,0,0,0,0,0,0,0,0,-1,1966,1772,0,0
749,-748,0,0,0,0,0,0,0,0,0,-1,1973,1772,0,0
756,-748,0,0,0,0,0,0,0,0,0,-1,1980,1772,0,0
763,-748,0,0,0,0,0,0,0,0,0,-1,1987,1772,0,0
770,-748,0,0,0,0,0,0,0,0,0,-1,1994,1772,0,0
777,-748,0,0,0,0,0,0,0,0,0,-1,2001,1772,0,0
784,-748,0,0,0,0,0,0,0,0,0,-1,2008,1772,0,0
791,-748,0,0,0,0,0,0,0,0,0,-1,2015,1772,0,0
798,-748,0,0,0,0,0,0,0,0,0,-1,2022,1772,0,0
805,-748,0,0,0,0,0,0,0,0,0,-1,2029,1772,0,0
812,-748,0,0,0,0,0,0,0,0,0,-1,2036,1772,0,0
-700,-755,0,0,0,0,0,0,0,0,0,-1,524,1779,0,0
-693,-755,0,0,0,0,0,0,0,0,0,-1,531,1779,0,0
-686,-755,0,0,0,0,0,0,0,0,0,-1,538,1779,0,0
-679,-755,0,0,0,0,0,0,0,0,0,-1,545,1779,0,0
-672,-755,0,0,0,0,0,0,0,0,0,-1,552,1779,0,0
-665,-755,0,0,0,0,0,0,0,0,0,-1,559,1779,0,0
-658,-755,0,0,0,0,0,0,0,0,0,-1,566,1779,0,0
-651,-755,0,0,0,0,0,0,0,0,0,-1,573,1779,0,0
-644,-755,0,0,0,0,0,0,0,0,0,-1,580,1779,0,0
-637,-755,0,0,0,0,0,0,0,0,0,-1,587,1779,0,0
-630,-755,0,0,0,0,0,0,0,0,0,-1,594,1779,0,0
-623,-755,0,0,0,0,0,0,0,0,0,-1,601,1779,0,0
-616,-755,0,0,0,0,0,0,0,0,0,-1,608,1779,0,0
-609,-755,0,0,0,0,0,0,0,0,0,-1,615,1779,0,0
-602,-755,0,0,0,0,0,0,0,0,0,-1,622,1779,0,0
-595,-755,0,0,0,0,0,0,0,0,0,-1,629,1779,0,0
-588,-755,0,0,0,0,0,0,0,0,0,-1,636,1779,0,0
-581,-755,0,0,0,0,0,0,0,0,0,-1,643,1779,0,0
-574,-755,0,0,0,0,0,0,0,0,0,-1,650,1779,0,0
-567,-755,0,0,0,0,0,0,0,0,0,-1,657,1779,0,0
-560,-755,0,0,0,0,0,0,0,0,0,-1,664,1779,0,0
-553,-755,0,0,0,0,0,0,0,0,0,-1,671,1779,0,0
-546,-755,0,0,0,0,0,0,0,0,0,-1,678,1779,0,0
-539,-755,0,0,0,0,0,0,0,0,0,-1,685,1779,0,0
-532,-755,0,0,0,0,0,0,0,0,0,-1,692,1779,0,0
-525,-755,0,0,0,0,0,0,0,0,0,-1,699,1779,0,0
-518,-755,0,0,0,0,0,0,0,0,0,-1,706,1779,0,0
-511,-755,0,0,0,0,0,0,0,0,0,-1,713,1779,0,0
-504,-755,0,0,0,0,0,0,0,0,0,-1,720,1779,0,0
-497,-755,0,0,0,0,0,0,0,0,0,-1,727,1779,0,0
-490,-755,0,0,0,0,0,0,0,0,0,-1,734,1779,0,0
-483,-755,0,0,0,0,0,0,0,0,0,-1,741,1779,0,0
-476,-755,0,0,0,0,0,0,0,0,0,-1,748,1779,0,0
-469,-755,0,0,0,0,0,0,0,0,0,-1,755,1779,0,0
-462,-755,0,0,0,0,0,0,0,0,0,-1,762,1779,0,0
-455,-755,0,0,0,0,0,0,0,0,0,-1,769,1779,0,0
-448,-755,0,0,0,0,0,0,0,0,0,-1,776,1779,0,0
-441,-755,0,0,0,0,0,0,0,0,0,-1,783,1779,0,0
-434,-755,0,0,0,0,0,0,0,0,0,-1,790,1779,0,0
-427,-755,0,0,0,0,0,0,0,0,0,-1,797,1779,0,0
-420,-755,0,0,0,0,0,0,0,0,0,-1,804,1779,0,0
-413,-755,0,0,0,0,0,0,0,0,0,-1,811,1779,0,0
-406,-755,0,0,0,0,0,0,0,0,0,-1,818,1779,0,0
-399,-755,0,0,0,0,0,0,0,0,0,-1,825,1779,0,0
-392,-755,0,0,0,0,0,0,0,0,0,-1,832,1779,0,0
-385,-755,0,0,0,0,0,0,0,0,0,-1,839,1779,0,0
-378,-755,0,0,0,0,0,0,0,0,0,-1,846,1779,0,0
-371,-755,0,0,0,0,0,0,0,0,0,-1,853,1779,0,0
-364,-755,0,0,0,0,0,0,0,0,0,-1,860,1779,0,0
-357,-755,0,0,0,0,0,0,0,0,0,-1,867,1779,0,0
-350,-755,0,0,0,0,0,0,0,0,0,-1,874,1779,0,0
-343,-755,0,0,0,0,0,0,0,0,0,-1,881,1779,0,0
-336,-755,0,0,0,0,0,0,0,0,0,-1,888,1779,0,0
-329,-755,0,0,0,0,0,0,0,0,0,-1,895,1779,0,0
-322,-755,0,0,0,0,0,0,0,0,0,-1,902,1779,0,0
-315,-755,0,0,0,0,0,0,0,0,0,-1,909,1779,0,0
-308,-755,0,0,0,0,0,0,0,0,0,-1,916,1779,0,0
-301,-755,0,0,0,0,0,0,0,0,0,-1,923,1779,0,0
-294,-755,0,0,0,0,0,0,0,0,0,-1,930,1779,0,0
-287,-755,0,0,0,0,0,0,0,0,0,-1,937,1779,0,0
-280,-755,0,0,0,0,0,0,0,0,0,-1,944,1779,0,0
-273,-755,0,0,0,0,0,0,0,0,0,-1,951,1779,0,0
-266,-755,0,0,0,0,0,0,0,0,0,-1,958,1779,0,0
-259,-755,0,0,0,0,0,0,0,0,0,-1,965,1779,0,0
-252,-755,0,0,0,0,0,0,0,0,0,-1,972,1779,0,0
-245,-755,0,0,0,0,0,0,0,0,0,-1,979,1779,0,0
-238,-755,0,0,0,0,0,0,0,0,0,-1,986,1779,0,0
-231,-755,0,0,0,0,0,0,0,0,0,-1,993,1779,0,0
-224,-755,0,0,0,0,0,0,0,0,0,-1,1000,1779,0,0
-217,-755,0,0,0,0,0,0,0,0,0,-1,1007,1779,0,0
-210,-755,0,0,0,0,0,0,0,0,0,-1,1014,1779,0,0
-203,-755,5.47998,25.527,0,0,0,0,0,0,0,-1,1021,1779,5.47993,-25.527
-196,-755,5.18445,23.9307,0,0,0,0,0,0,0,-1,1028,1779,5.1844,-23.9306
-189,-755,4.8175,22.4788,0,0,0,0,0,0,0,-1,1035,1779,4.81745,-22.4788
-182,-755,4.021,20.8032,0,0,0,0,0,0,0,-1,1042,1779,4.02094,-20.8032
-175,-755,3.79993,18.8242,0,0,0,0,0,0,0,-1,1049,1779,3.79995,-18.8242
-168,-755,3.14294,16.9865,0,0,0,0,0,0,0,-1,1056,1779,3.14291,-16.9864
-161,-755,-2.85889,11.5868,0,0,0,0,0,0,0,-1,1063,1779,-2.85887,-11.5868
-154,-755,-5.39026,8.51416,0,0,0,0,0,0,0,-1,1070,1779,-5.3903,-8.51417
-147,-755,-6.45593,10.2422,0,0,0,0,0,0,0,-1,1077,1779,-6.45594,-10.2422
-140,-755,1.33521,21.3856,0,0,0,0,0,0,0,-1,1084,1779,1.33522,-21.3857
-133,-755,2.89417,21.0964,0,0,0,0,0,0,0,-1,1091,1779,2.89422,-21.0964
-126,-755,3.26404,20.9304,0,0,0,0,0,0,0,-1,1098,1779,3.26399,-20.9305
-119,-755,5.17761,21.9325,0,0,0,0,0,0,0,-1,1105,1779,5.17761,-21.9325
-112,-755,5.40247,24.5646,0,0,0,0,0,0,0,-1,1112,1779,5.40244,-24.5646
-105,-755,7.01294,20.1539,0,0,0,0,0,0,0,-1,1119,1779,7.01295,-20.154
-98,-755,6.39063,16.4839,0,0,0,0,0,0,0,-1,1126,1779,6.39058,-16.4839
-91,-755,5.51025,12.0438,0,0,0,0,0,0,0,-1,1133,1779,5.51022,-12.0439
-84,-755,0.169312,8.66443,0,0,0,0,0,0,0,-1,1140,1779,0.16932,-8.66446
-77,-755,-0.0491943,6.87439,0,0,0,0,0,0,0,-1,1147,1779,-0.0491385,-6.87443
-70,-755,4.5686,13.2169,0,0,0,0,0,0,0,-1,1154,1779,4.56865,-13.2169
-63,-755,-1.36316,7.3147,0,0,0,0,0,0,0,-1,1161,1779,-1.36312,-7.31473
-56,-755,0.0483398,5.06079,0,0,0,0,0,0,0,-1,1168,1779,0.0483138,-5.06084
-49,-755,-1.32263,5.33716,0,0,0,0,0,0,0,-1,1175,1779,-1.32264,-5.33718
-42,-755,-2.03613,4.01672,0,0,0,0,0,0,0,-1,1182,1779,-2.0361,-4.01671
-35,-755,-2.72498,2.37476,0,0,0,0,0,0,0,-1,1189,1779,-2.72502,-2.37473
-28,-755,7.66675,34.3018,0,0,0,0,0,0,0,-1,1196,1779,7.66676,-34.3018
-21,-755,7.90027,34.2113,0,0,0,0,0,0,0,-1,1203,1779,7.90022,-34.2113
-14,-755,7.82935,34.2838,0.00446649,-0.00301904,-0.00328536,0.00570387,-0.00425642,-0.360204,0.00577078,0.0341906,1210,1779,7.82931,-34.2838
-7,-755,7.70496,34.3402,0.00493244,-0.00407189,-0.00338927,0.00606558,-0.00520503,-0.322648,0.00651341,0.0228492,1217,1779,7.70496,-34.3402
0,-755,7.69055,34.4272,0.00494852,-0.0045409,-0.00337904,0.00602877,-0.00562115,-0.309424,0.00672746,0.0139283,1224,1779,7.69058,-34.4273
7,-755,7.68384,34.506,0.00451962,-0.00471863,-0.00314607,0.00548924,-0.00568825,-0.298963,0.00645367,0.0124377,1231,1779,7.68388,-34.506
14,-755,7.65015,34.5941,0.00343288,-0.00406177,-0.0029786,0.00447246,-0.00510135,-0.335799,0.00553142,0.0109161,1238,1779,7.65015,-34.5941
21,-755,7.62,34.6638,0.0024236,-0.0034304,-0.00307388,0.00374114,-0.00474793,-0.404935,0.00491264,0.01482,1245,1779,7.61995,-34.6639
28,-755,7.5741,34.7175,0.00248905,-0.00309085,-0.00355163,0.0042155,-0.00481731,-0.452467,0.00521895,0.0189824,1252,1779,7.57413,-34.7176
35,-755,7.53394,34.7798,0.00265045,-0.00287677,-0.00399964,0.00474838,-0.00497471,-0.48308,0.00561414,0.0190069,1259,1779,7.53396,-34.7798
42,-755,7.51831,34.7841,0.00203645,-0.00247172,-0.00526179,0.00550665,-0.00594191,-0.58303,0.00661142,0.0137479,1266,1779,7.51827,-34.7841
49,-755,7.49719,34.781,0.000946559,-0.00182056,-0.00656304,0.00627028,-0.00714429,-0.681514,0.00775038,0.0103697,1273,1779,7.49724,-34.781
56,-755,7.45557,34.8198,0.00103785,-0.00142414,-0.00734579,0.00725508,-0.00764137,-0.70238,0.00860143,0.0103279,1280,1779,7.45557,-34.8199
63,-755,7.4364,34.8341,0.000904133,-0.00114642,-0.00863548,0.00857498,-0.00881727,-0.72631,0.0100417,0.00995423,1287,1779,7.43638,-34.8341
70,-755,7.42224,34.8376,-0.000332837,-0.000955083,-0.00929113,0.00865238,-0.0099403,-0.768661,0.0107431,0.0125714,1294,1779,7.42222,-34.8376
77,-755,7.38171,34.8296,-0.000304911,-0.000682156,-0.010431,0.00993915,-0.0109262,-0.776358,0.0120511,0.0118806,1301,1779,7.38174,-34.8296
84,-755,7.33813,34.8444,-0.00067506,-0.000596585,-0.0114227,0.0107869,-0.0120585,-0.787116,0.0131966,0.012249,1308,1779,7.33816,-34.8444
91,-755,7.31689,34.8068,-0.00139013,-0.000535304,-0.0122114,0.0112561,-0.0131816,-0.802892,0.0141237,0.0123171,1315,1779,7.3169,-34.8068
98,-755,7.27161,34.7791,-0.00233073,-0.000609284,-0.0126461,0.0112053,-0.0141454,-0.819377,0.014669,0.0132638,1322,1779,7.27155,-34.779
105,-755,7.26929,34.7705,-0.00347926,-0.000735252,-0.012824,0.0107899,-0.0150044,-0.838689,0.0149585,0.0167129,1329,1779,7.26923,-34.7705
112,-755,7.25208,34.7058,-0.00479474,-0.0008505,-0.012764,0.0100928,-0.0157381,-0.862045,0.0150317,0.0220944,1336,1779,7.25206,-34.7058
119,-755,7.22705,34.611,-0.0061896,-0.00114047,-0.0124233,0.00901215,-0.0163422,-0.885639,0.0148409,0.0221995,1343,1779,7.227,-34.6109
126,-755,7.21936,34.6207,-0.00775327,-0.00131078,-0.0117178,0.00762048,-0.0166845,-0.919536,0.0143541,0.0243935,1350,1779,7.21932,-34.6207
133,-755,7.15906,34.5554,-0.00968255,-0.00136702,-0.0107091,0.00596312,-0.0170127,-0.970564,0.0137669,0.0252018,1357,1779,7.15901,-34.5554
140,-755,7.05383,34.4828,-0.0111096,-0.00154986,-0.00963289,0.00442387,-0.0170833,-1.0157,0.0131146,0.0316585,1364,1779,7.05377,-34.4828
147,-755,7.17371,34.4487,-0.0115476,-0.00198396,-0.00792397,0.00248923,-0.0160208,-1.05688,0.0115996,0.0338437,1371,1779,7.17365,-34.4487
154,-755,7.11487,34.3782,-0.0108572,-0.0025466,-0.00623302,0.000789226,-0.0141931,-1.0794,0.00973578,0.0341664,1378,1779,7.11491,-34.3782
161,-755,7.02148,34.2458,0,0,0,0,0,0,0,-1,1385,1779,7.0215,-34.2459
168,-755,3.98181,7.35901,0,0,0,0,0,0,0,-1,1392,1779,3.98184,-7.35904
175,-755,8.17065,1.34363,0,0,0,0,0,0,0,-1,1399,1779,8.1706,-1.34368
182,-755,8.09216,2.96924,0,0,0,0,0,0,0,-1,1406,1779,8.09213,-2.9693
189,-755,8.04419,4.68042,0,0,0,0,0,0,0,-1,1413,1779,8.04419,-4.68046
196,-755,7.74841,7.4541,0,0,0,0,0,0,0,-1,1420,1779,7.74842,-7.45405
203,-755,4.80554,6.88696,0,0,0,0,0,0,0,-1,1427,1779,4.80554,-6.88697
210,-755,25.1694,7.35693,0,0,0,0,0,0,0,-1,1434,1779,25.1694,-7.35688
217,-755,5.01648,16.411,0,0,0,0,0,0,0,-1,1441,1779,5.01646,-16.411
224,-755,5.18103,22.6283,0,0,0,0,0,0,0,-1,1448,1779,5.18101,-22.6283
231,-755,5.7489,30.15,0,0,0,0,0,0,0,-1,1455,1779,5.74885,-30.15
238,-755,6.56323,29.2726,0,0,0,0,0,0,0,-1,1462,1779,6.56327,-29.2726
245,-755,5.76453,29.2085,0,0,0,0,0,0,0,-1,1469,1779,5.76455,-29.2085
252,-755,5.57678,29.0841,0,0,0,0,0,0,0,-1,1476,1779,5.57682,-29.0841
259,-755,5.37292,29.1577,0,0,0,0,0,0,0,-1,1483,1779,5.37293,-29.1577
266,-755,17.255,7.86096,0,0,0,0,0,0,0,-1,1490,1779,17.255,-7.86092
273,-755,15.7932,7.59778,0,0,0,0,0,0,0,-1,1497,1779,15.7932,-7.59777
280,-755,14.6255,7.34802,0,0,0,0,0,0,0,-1,1504,1779,14.6254,-7.34806
287,-755,13.8279,7.83105,0,0,0,0,0,0,0,-1,1511,1779,13.8279,-7.83104
294,-755,12.5695,7.96814,0,0,0,0,0,0,0,-1,1518,1779,12.5694,-7.9682
301,-755,11.2659,8.27087,0,0,0,0,0,0,0,-1,1525,1779,11.2658,-8.27087
308,-755,9.94434,8.55811,0,0,0,0,0,0,0,-1,1532,1779,9.94428,-8.55806
315,-755,8.64502,9.04492,0,0,0,0,0,0,0,-1,1539,1779,8.64497,-9.04488
322,-755,0,0,0,0,0,0,0,0,0,-1,1546,1779,0,0
329,-755,0,0,0,0,0,0,0,0,0,-1,1553,1779,0,0
336,-755,0,0,0,0,0,0,0,0,0,-1,1560,1779,0,0
343,-755,0,0,0,0,0,0,0,0,0,-1,1567,1779,0,0
350,-755,0,0,0,0,0,0,0,0,0,-1,1574,1779,0,0
357,-755,0,0,0,0,0,0,0,0,0,-1,1581,1779,0,0
364,-755,0,0,0,0,0,0,0,0,0,-1,1588,1779,0,0
371,-755,0,0,0,0,0,0,0,0,0,-1,1595,1779,0,0
378,-755,0,0,0,0,0,0,0,0,0,-1,1602,1779,0,0
385,-755,0,0,0,0,0,0,0,0,0,-1,1609,1779,0,0
392,-755,0,0,0,0,0,0,0,0,0,-1,1616,1779,0,0
399,-755,0,0,0,0,0,0,0,0,0,-1,1623,1779,0,0
406,-755,0,0,0,0,0,0,0,0,0,-1,1630,1779,0,0
413,-755,0,0,0,0,0,0,0,0,0,-1,1637,1779,0,0
420,-755,0,0,0,0,0,0,0,0,0,-1,1644,1779,0,0
427,-755,0,0,0,0,0,0,0,0,0,-1,1651,1779,0,0
434,-755,0,0,0,0,0,0,0,0,0,-1,1658,1779,0,0
441,-755,0,0,0,0,0,0,0,0,0,-1,1665,1779,0,0
448,-755,0,0,0,0,0,0,0,0,0,-1,1672,1779,0,0
455,-755,0,0,0,0,0,0,0,0,0,-1,1679,1779,0,0
462,-755,0,0,0,0,0,0,0,0,0,-1,1686,1779,0,0
469,-755,0,0,0,0,0,0,0,0,0,-1,1693,1779,0,0
476,-755,0,0,0,0,0,0,0,0,0,-1,1700,1779,0,0
483,-755,0,0,0,0,0,0,0,0,0,-1,1707,1779,0,0
490,-755,0,0,0,0,0,0,0,0,0,-1,1714,1779,0,0
497,-755,0,0,0,0,0,0,0,0,0,-1,1721,1779,0,0
504,-755,0,0,0,0,0,0,0,0,0,-1,1728,1779,0,0
511,-755,0,0,0,0,0,0,0,0,0,-1,1735,1779,0,0
518,-755,0,0,0,0,0,0,0,0,0,-1,1742,1779,0,0
525,-755,0,0,0,0,0,0,0,0,0,-1,1749,1779,0,0
532,-755,0,0,0,0,0,0,0,0,0,-1,1756,1779,0,0
539,-755,0,0,0,0,0,0,0,0,0,-1,1763,1779,0,0
546,-755,0,0,0,0,0,0,0,0,0,-1,1770,1779,0,0
553,-755,0,0,0,0,0,0,0,0,0,-1,1777,1779,0,0
560,-755,0,0,0,0,0,0,0,0,0,-1,1784,1779,0,0
567,-755,0,0,0,0,0,0,0,0,0,-1,1791,1779,0,0
574,-755,0,0,0,0,0,0,0,0,0,-1,1798,1779,0,0
581,-755,0,0,0,0,0,0,0,0,0,-1,1805,1779,0,0
588,-755,0,0,0,0,0,0,0,0,0,-1,1812,1779,0,0
595,-755,0,0,0,0,0,0,0,0,0,-1,1819,1779,0,0
602,-755,0,0,0,0,0,0,0,0,0,-1,1826,1779,0,0
609,-755,0,0,0,0,0,0,0,0,0,-1,1833,1779,0,0
616,-755,0,0,0,0,0,0,0,0,0,-1,1840,1779,0,0
623,-755,0,0,0,0,0,0,0,0,0,-1,1847,1779,0,0
630,-755,0,0,0,0,0,0,0,0,0,-1,1854,1779,0,0
637,-755,0,0,0,0,0,0,0,0,0,-1,1861,1779,0,0
644,-755,0,0,0,0,0,0,0,0,0,-1,1868,1779,0,0
651,-755,0,0,0,0,0,0,0,0,0,-1,1875,1779,0,0
658,-755,0,0,0,0,0,0,0,0,0,-1,1882,1779,0,0
665,-755,0,0,0,0,0,0,0,0,0,-1,1889,1779,0,0
672,-755,0,0,0,0,0,0,0,0,0,-1,1896,1779,0,0
679,-755,0,0,0,0,0,0,0,0,0,-1,1903,1779,0,0
686,-755,0,0,0,0,0,0,0,0,0,-1,1910,1779,0,0
693,-755,0,0,0,0,0,0,0,0,0,-1,1917,1779,0,0
700,-755,0,0,0,0,0,0,0,0,0,-1,1924,1779,0,0
707,-755,0,0,0,0,0,0,0,0,0,-1,1931,1779,0,0
714,-755,0,0,0,0,0,0,0,0,0,-1,1938,1779,0,0
721,-755,0,0,0,0,0,0,0,0,0,-1,1945,1779,0,0
728,-755,0,0,0,0,0,0,0,0,0,-1,1952,1779,0,0
735,-755,0,0,0,0,0,0,0,0,0,-1,1959,1779,0,0
742,-755,0,0,0,0,0,0,0,0,0,-1,1966,1779,0,0
749,-755,0,0,0,0,0,0,0,0,0,-1,1973,1779,0,0
756,-755,0,0,0,0,0,0,0,0,0,-1,1980,1779,0,0
763,-755,0,0,0,0,0,0,0,0,0,-1,1987,1779,0,0
770,-755,0,0,0,0,0,0,0,0,0,-1,1994,1779,0,0
777,-755,0,0,0,0,0,0,0,0,0,-1,2001,1779,0,0
784,-755,0,0,0,0,0,0,0,0,0,-1,2008,1779,0,0
791,-755,0,0,0,0,0,0,0,0,0,-1,2015,1779,0,0
798,-755,0,0,0,0,0,0,0,0,0,-1,2022,1779,0,0
805,-755,0,0,0,0,0,0,0,0,0,-1,2029,1779,0,0
812,-755,0,0,0,0,0,0,0,0,0,-1,2036,1779,0,0
-700,-762,0,0,0,0,0,0,0,0,0,-1,524,1786,0,0
-693,-762,0,0,0,0,0,0,0,0,0,-1,531,1786,0,0
-686,-762,0,0,0,0,0,0,0,0,0,-1,538,1786,0,0
-679,-762,0,0,0,0,0,0,0,0,0,-1,545,1786,0,0
-672,-762,0,0,0,0,0,0,0,0,0,-1,552,1786,0,0
-665,-762,0,0,0,0,0,0,0,0,0,-1,559,1786,0,0
-658,-762,0,0,0,0,0,0,0,0,0,-1,566,1786,0,0
-651,-762,0,0,0,0,0,0,0,0,0,-1,573,1786,0,0
-644,-762,0,0,0,0,0,0,0,0,0,-1,580,1786,0,0
-637,-762,0,0,0,0,0,0,0,0,0,-1,587,1786,0,0
-630,-762,0,0,0,0,0,0,0,0,0,-1,594,1786,0,0
-623,-762,0,0,0,0,0,0,0,0,0,-1,601,1786,0,0
-616,-762,0,0,0,0,0,0,0,0,0,-1,608,1786,0,0
-609,-762,0,0,0,0,0,0,0,0,0,-1,615,1786,0,0
-602,-762,0,0,0,0,0,0,0,0,0,-1,622,1786,0,0
-595,-762,0,0,0,0,0,0,0,0,0,-1,629,1786,0,0
-588,-762,0,0,0,0,0,0,0,0,0,-1,636,1786,0,0
-581,-762,0,0,0,0,0,0,0,0,0,-1,643,1786,0,0
-574,-762,0,0,0,0,0,0,0,0,0,-1,650,1786,0,0
-567,-762,0,0,0,0,0,0,0,0,0,-1,657,1786,0,0
-560,-762,0,0,0,0,0,0,0,0,0,-1,664,1786,0,0
-553,-762,0,0,0,0,0,0,0,0,0,-1,671,1786,0,0
-546,-762,0,0,0,0,0,0,0,0,0,-1,678,1786,0,0
-539,-762,0,0,0,0,0,0,0,0,0,-1,685,1786,0,0
-532,-762,0,0,0,0,0,0,0,0,0,-1,692,1786,0,0
-525,-762,0,0,0,0,0,0,0,0,0,-1,699,1786,0,0
-518,-762,0,0,0,0,0,0,0,0,0,-1,706,1786,0,0
-511,-762,0,0,0,0,0,0,0,0,0,-1,713,1786,0,0
-504,-762,0,0,0,0,0,0,0,0,0,-1,720,1786,0,0
-497,-762,0,0,0,0,0,0,0,0,0,-1,727,1786,0,0
-490,-762,0,0,0,0,0,0,0,0,0,-1,734,1786,0,0
-483,-762,0,0,0,0,0,0,0,0,0,-1,741,1786,0,0
-476,-762,0,0,0,0,0,0,0,0,0,-1,748,1786,0,0
-469,-762,0,0,0,0,0,0,0,0,0,-1,755,1786,0,0
-462,-762,0,0,0,0,0,0,0,0,0,-1,762,1786,0,0
-455,-762,0,0,0,0,0,0,0,0,0,-1,769,1786,0,0
-448,-762,0,0,0,0,0,0,0,0,0,-1,776,1786,0,0
-441,-762,0,0,0,0,0,0,0,0,0,-1,783,1786,0,0
-434,-762,0,0,0,0,0,0,0,0,0,-1,790,1786,0,0
-427,-762,0,0,0,0,0,0,0,0,0,-1,797,1786,0,0
-420,-762,0,0,0,0,0,0,0,0,0,-1,804,1786,0,0
-413,-762,0,0,0,0,0,0,0,0,0,-1,811,1786,0,0
-406,-762,0,0,0,0,0,0,0,0,0,-1,818,1786,0,0
-399,-762,0,0,0,0,0,0,0,0,0,-1,825,1786,0,0
-392,-762,0,0,0,0,0,0,0,0,0,-1,832,1786,0,0
-385,-762,0,0,0,0,0,0,0,0,0,-1,839,1786,0,0
-378,-762,0,0,0,0,0,0,0,0,0,-1,846,1786,0,0
-371,-762,0,0,0,0,0,0,0,0,0,-1,853,1786,0,0
-364,-762,0,0,0,0,0,0,0,0,0,-1,860,1786,0,0
-357,-762,0,0,0,0,0,0,0,0,0,-1,867,1786,0,0
-350,-762,0,0,0,0,0,0,0,0,0,-1,874,1786,0,0
-343,-762,0,0,0,0,0,0,0,0,0,-1,881,1786,0,0
-336,-762,0,0,0,0,0,0,0,0,0,-1,888,1786,0,0
-329,-762,0,0,0,0,0,0,0,0,0,-1,895,1786,0,0
-322,-762,0,0,0,0,0,0,0,0,0,-1,902,1786,0,0
-315,-762,0,0,0,0,0,0,0,0,0,-1,909,1786,0,0
-308,-762,0,0,0,0,0,0,0,0,0,-1,916,1786,0,0
-301,-762,0,0,0,0,0,0,0,0,0,-1,923,1786,0,0
-294,-762,0,0,0,0,0,0,0,0,0,-1,930,1786,0,0
-287,-762,0,0,0,0,0,0,0,0,0,-1,937,1786,0,0
-280,-762,0,0,0,0,0,0,0,0,0,-1,944,1786,0,0
-273,-762,0,0,0,0,0,0,0,0,0,-1,951,1786,0,0
-266,-762,0,0,0,0,0,0,0,0,0,-1,958,1786,0,0
-259,-762,0,0,0,0,0,0,0,0,0,-1,965,1786,0,0
-252,-762,0,0,0,0,0,0,0,0,0,-1,972,1786,0,0
-245,-762,0,0,0,0,0,0,0,0,0,-1,979,1786,0,0
-238,-762,0,0,0,0,0,0,0,0,0,-1,986,1786,0,0
-231,-762,0,0,0,0,0,0,0,0,0,-1,993,1786,0,0
-224,-762,0,0,0,0,0,0,0,0,0,-1,1000,1786,0,0
-217,-762,0,0,0,0,0,0,0,0,0,-1,1007,1786,0,0
-210,-762,0,0,0,0,0,0,0,0,0,-1,1014,1786,0,0
-203,-762,0,0,0,0,0,0,0,0,0,-1,1021,1786,0,0
-196,-762,0,0,0,0,0,0,0,0,0,-1,1028,1786,0,0
-189,-762,0,0,0,0,0,0,0,0,0,-1,1035,1786,0,0
-182,-762,4.44226,13.2462,0,0,0,0,0,0,0,-1,1042,1786,4.44227,-13.2462
-175,-762,4.3219,18.3975,0,0,0,0,0,0,0,-1,1049,1786,4.32192,-18.3974
-168,-762,-2.08618,13.0768,0,0,0,0,0,0,0,-1,1056,1786,-2.08623,-13.0768
-161,-762,-3.29077,11.9508,0,0,0,0,0,0,0,-1,1063,1786,-3.29076,-11.9508
-154,-762,-4.55823,11.1176,0,0,0,0,0,0,0,-1,1070,1786,-4.55828,-11.1175
-147,-762,-6.52454,9.41418,0,0,0,0,0,0,0,-1,1077,1786,-6.52458,-9.41419
-140,-762,4.99792,5.28589,0,0,0,0,0,0,0,-1,1084,1786,4.99793,-5.28587
-133,-762,0.689819,19.2172,0,0,0,0,0,0,0,-1,1091,1786,0.689867,-19.2171
-126,-762,1.48743,19.9288,0,0,0,0,0,0,0,-1,1098,1786,1.48738,-19.9289
-119,-762,2.65637,20.208,0,0,0,0,0,0,0,-1,1105,1786,2.65632,-20.208
-112,-762,6.84705,25.5554,0,0,0,0,0,0,0,-1,1112,1786,6.84706,-25.5554
-105,-762,6.14661,21.8407,0,0,0,0,0,0,0,-1,1119,1786,6.14664,-21.8407
-98,-762,5.55115,18.0452,0,0,0,0,0,0,0,-1,1126,1786,5.5511,-18.0451
-91,-762,5.00549,14.2571,0,0,0,0,0,0,0,-1,1133,1786,5.00554,-14.257
-84,-762,3.96375,10.4547,0,0,0,0,0,0,0,-1,1140,1786,3.96371,-10.4548
-77,-762,0.305054,8.49365,0,0,0,0,0,0,0,-1,1147,1786,0.305008,-8.49362
-70,-762,0.183716,6.74622,0,0,0,0,0,0,0,-1,1154,1786,0.183696,-6.74621
-63,-762,-0.883057,9.08813,0,0,0,0,0,0,0,-1,1161,1786,-0.88311,-9.08808
-56,-762,-0.578979,5.10254,0,0,0,0,0,0,0,-1,1168,1786,-0.578951,-5.10249
-49,-762,-2.04541,3.66321,0,0,0,0,0,0,0,-1,1175,1786,-2.0454,-3.66319
-42,-762,-2.23462,3.474,0,0,0,0,0,0,0,-1,1182,1786,-2.23459,-3.47399
-35,-762,-3.28992,1.68164,0,0,0,0,0,0,0,-1,1189,1786,-3.28998,-1.68164
-28,-762,-3.75378,1.37769,0,0,0,0,0,0,0,-1,1196,1786,-3.75373,-1.37767
-21,-762,8.27515,33.7308,0,0,0,0,0,0,0,-1,1203,1786,8.27517,-33.7308
-14,-762,7.97412,34.2822,0,0,0,0,0,0,0,-1,1210,1786,7.97417,-34.2822
-7,-762,7.69348,34.3246,0,0,0,0,0,0,0,-1,1217,1786,7.69342,-34.3246
0,-762,7.6925,34.5282,0.0123866,-0.00473333,-0.00736135,0.0151165,-0.0074633,-0.355129,0.0132837,0.0363813,1224,1786,7.69256,-34.5281
7,-762,7.73267,34.5898,0.0114597,-0.00500209,-0.00690485,0.0139724,-0.00751477,-0.349005,0.012591,0.0218662,1231,1786,7.73263,-34.5898
14,-762,7.70935,34.7936,0.00931776,-0.00405378,-0.00656255,0.0120004,-0.00673639,-0.388049,0.0109591,0.0356653,1238,1786,7.70935,-34.7936
21,-762,7.62524,34.9437,0.00717299,-0.00330151,-0.00681125,0.0105277,-0.00665622,-0.45765,0.0100047,0.0420694,1245,1786,7.62525,-34.9437
28,-762,7.54529,34.8923,0.00653049,-0.00306959,-0.00762939,0.0107442,-0.00728331,-0.504609,0.0104719,0.0441191,1252,1786,7.54523,-34.8924
35,-762,7.31433,34.9636,0.00611911,-0.00293711,-0.00817366,0.0109351,-0.00775312,-0.532448,0.0108417,0.0453553,1259,1786,7.31431,-34.9637
42,-762,7.53088,34.856,0.00459425,-0.00254732,-0.00978307,0.0114378,-0.0093909,-0.610412,0.0120448,0.0468065,1266,1786,7.53088,-34.856
49,-762,7.51318,34.8387,0.00252317,-0.00193612,-0.0114084,0.0119177,-0.0113307,-0.688895,0.0134239,0.0400054,1273,1786,7.51322,-34.8388
56,-762,7.51306,34.8267,0.002182,-0.00155061,-0.0123285,0.0127846,-0.0121532,-0.710278,0.0143994,0.0277763,1280,1786,7.51309,-34.8267
63,-762,7.51404,34.8281,0.00137753,-0.00139489,-0.0137688,0.0138297,-0.013847,-0.735228,0.0159792,0.0240163,1287,1786,7.514,-34.8281
70,-762,7.47815,34.8442,-0.000999872,-0.00134538,-0.0142749,0.0131033,-0.0154486,-0.779348,0.016503,0.0244841,1294,1786,7.47811,-34.8443
77,-762,7.42761,34.8354,-0.00122612,-0.00109143,-0.0155624,0.0144037,-0.0167213,-0.787562,0.0179866,0.0309775,1301,1786,7.42757,-34.8355
84,-762,7.45398,34.8489,-0.0020003,-0.00107104,-0.0166469,0.0151178,-0.0181891,-0.79935,0.019257,0.0362298,1308,1786,7.45402,-34.8489
91,-762,7.41309,34.8809,-0.00330073,-0.00107878,-0.0174638,0.0153094,-0.0196889,-0.817163,0.0202589,0.0455212,1315,1786,7.41306,-34.8808
98,-762,7.28638,34.8109,-0.00494786,-0.00122323,-0.0178406,0.014852,-0.0210231,-0.837403,0.0208144,0.0474088,1322,1786,7.2864,-34.8109
105,-762,7.28113,34.8032,-0.00691711,-0.00142008,-0.0178827,0.0139241,-0.0222613,-0.86165,0.0210757,0.0437774,1329,1786,7.28109,-34.8033
112,-762,7.2959,34.7352,-0.00914574,-0.00159812,-0.0176093,0.0126372,-0.0233811,-0.890955,0.0211013,0.0436149,1336,1786,7.29596,-34.7352
119,-762,7.39783,34.5852,-0.0114827,-0.00196944,-0.0169654,0.0108936,-0.0243457,-0.922075,0.0208337,0.0452669,1343,1786,7.39785,-34.5852
126,-762,7.5365,34.5942,-0.0140526,-0.00218806,-0.0158102,0.00876622,-0.0250069,-0.964879,0.0202365,0.0479112,1350,1786,7.53653,-34.5943
133,-762,7.41443,34.5182,-0.0169604,-0.00234403,-0.0142597,0.00637113,-0.0256755,-1.0222,0.0195892,0.0479188,1357,1786,7.41447,-34.5182
140,-762,7.21606,34.4662,-0.0191136,-0.00271031,-0.012806,0.00429528,-0.0261192,-1.07022,0.019007,0.0465252,1364,1786,7.21609,-34.4662
147,-762,7.19836,34.5098,-0.0201451,-0.0033621,-0.010565,0.00173848,-0.0252457,-1.12102,0.0174389,0.0462657,1371,1786,7.19841,-34.5098
154,-762,7.03406,34.5315,0,0,0,0,0,0,0,-1,1378,1786,7.03402,-34.5315
161,-762,7.45508,33.2467,0,0,0,0,0,0,0,-1,1385,1786,7.45514,-33.2467
168,-762,8.19287,0.880615,0,0,0,0,0,0,0,-1,1392,1786,8.19291,-0.880603
175,-762,8.33997,1.95947,0,0,0,0,0,0,0,-1,1399,1786,8.33997,-1.95942
182,-762,8.28418,3.56482,0,0,0,0,0,0,0,-1,1406,1786,8.28415,-3.56485
189,-762,8.21179,5.23389,0,0,0,0,0,0,0,-1,1413,1786,8.21183,-5.23383
196,-762,8.05969,6.95483,0,0,0,0,0,0,0,-1,1420,1786,8.05972,-6.9548
203,-762,24.0077,7.10425,0,0,0,0,0,0,0,-1,1427,1786,24.0077,-7.10426
210,-762,23.8073,7.6499,0,0,0,0,0,0,0,-1,1434,1786,23.8073,-7.64987
217,-762,23.3193,8.24426,0,0,0,0,0,0,0,-1,1441,1786,23.3194,-8.2442
224,-762,2.65149,20.6106,0,0,0,0,0,0,0,-1,1448,1786,2.65153,-20.6106
231,-762,5.46655,23.521,0,0,0,0,0,0,0,-1,1455,1786,5.46653,-23.521
238,-762,5.35632,29.7203,0,0,0,0,0,0,0,-1,1462,1786,5.35629,-29.7203
245,-762,5.84509,28.6954,0,0,0,0,0,0,0,-1,1469,1786,5.84509,-28.6954
252,-762,5.82837,27.7246,0,0,0,0,0,0,0,-1,1476,1786,5.82839,-27.7247
259,-762,10.7311,18.3031,0,0,0,0,0,0,0,-1,1483,1786,10.7311,-18.3031
266,-762,16.451,7.67773,0,0,0,0,0,0,0,-1,1490,1786,16.4511,-7.67773
273,-762,15.287,7.5304,0,0,0,0,0,0,0,-1,1497,1786,15.2869,-7.53044
280,-762,14.1501,7.38379,0,0,0,0,0,0,0,-1,1504,1786,14.1502,-7.38376
287,-762,12.6891,7.99133,0,0,0,0,0,0,0,-1,1511,1786,12.6891,-7.99135
294,-762,12.6959,8.30371,0,0,0,0,0,0,0,-1,1518,1786,12.6959,-8.30368
301,-762,11.4222,8.84143,0,0,0,0,0,0,0,-1,1525,1786,11.4223,-8.84149
308,-762,0,0,0,0,0,0,0,0,0,-1,1532,1786,0,0
315,-762,0,0,0,0,0,0,0,0,0,-1,1539,1786,0,0
322,-762,0,0,0,0,0,0,0,0,0,-1,1546,1786,0,0
329,-762,0,0,0,0,0,0,0,0,0,-1,1553,1786,0,0
336,-762,0,0,0,0,0,0,0,0,0,-1,1560,1786,0,0
343,-762,0,0,0,0,0,0,0,0,0,-1,1567,1786,0,0
350,-762,0,0,0,0,0,0,0,0,0,-1,1574,1786,0,0
357,-762,0,0,0,0,0,0,0,0,0,-1,1581,1786,0,0
364,-762,0,0,0,0,0,0,0,0,0,-1,1588,1786,0,0
371,-762,0,0,0,0,0,0,0,0,0,-1,1595,1786,0,0
378,-762,0,0,0,0,0,0,0,0,0,-1,1602,1786,0,0
385,-762,0,0,0,0,0,0,0,0,0,-1,1609,1786,0,0
392,-762,0,0,0,0,0,0,0,0,0,-1,1616,1786,0,0
399,-762,0,0,0,0,0,0,0,0,0,-1,1623,1786,0,0
406,-762,0,0,0,0,0,0,0,0,0,-1,1630,1786,0,0
413,-762,0,0,0,0,0,0,0,0,0,-1,1637,1786,0,0
420,-762,0,0,0,0,0,0,0,0,0,-1,1644,1786,0,0
427,-762,0,0,0,0,0,0,0,0,0,-1,1651,1786,0,0
434,-762,0,0,0,0,0,0,0,0,0,-1,1658,1786,0,0
441,-762,0,0,0,0,0,0,0,0,0,-1,1665,1786,0,0
448,-762,0,0,0,0,0,0,0,0,0,-1,1672,1786,0,0
455,-762,0,0,0,0,0,0,0,0,0,-1,1679,1786,0,0
462,-762,0,0,0,0,0,0,0,0,0,-1,1686,1786,0,0
469,-762,0,0,0,0,0,0,0,0,0,-1,1693,1786,0,0
476,-762,0,0,0,0,0,0,0,0,0,-1,1700,1786,0,0
483,-762,0,0,0,0,0,0,0,0,0,-1,1707,1786,0,0
490,-762,0,0,0,0,0,0,0,0,0,-1,1714,1786,0,0
497,-762,0,0,0,0,0,0,0,0,0,-1,1721,1786,0,0
504,-762,0,0,0,0,0,0,0,0,0,-1,1728,1786,0,0
511,-762,0,0,0,0,0,0,0,0,0,-1,1735,1786,0,0
518,-762,0,0,0,0,0,0,0,0,0,-1,1742,1786,0,0
525,-762,0,0,0,0,0,0,0,0,0,-1,1749,1786,0,0
532,-762,0,0,0,0,0,0,0,0,0,-1,1756,1786,0,0
539,-762,0,0,0,0,0,0,0,0,0,-1,1763,1786,0,0
546,-762,0,0,0,0,0,0,0,0,0,-1,1770,1786,0,0
553,-762,0,0,0,0,0,0,0,0,0,-1,1777,1786,0,0
560,-762,0,0,0,0,0,0,0,0,0,-1,1784,1786,0,0
567,-762,0,0,0,0,0,0,0,0,0,-1,1791,1786,0,0
574,-762,0,0,0,0,0,0,0,0,0,-1,1798,1786,0,0
581,-762,0,0,0,0,0,0,0,0,0,-1,1805,1786,0,0
588,-762,0,0,0,0,0,0,0,0,0,-1,1812,1786,0,0
595,-762,0,0,0,0,0,0,0,0,0,-1,1819,1786,0,0
602,-762,0,0,0,0,0,0,0,0,0,-1,1826,1786,0,0
609,-762,0,0,0,0,0,0,0,0,0,-1,1833,1786,0,0
616,-762,0,0,0,0,0,0,0,0,0,-1,1840,1786,0,0
623,-762,0,0,0,0,0,0,0,0,0,-1,1847,1786,0,0
630,-762,0,0,0,0,0,0,0,0,0,-1,1854,1786,0,0
637,-762,0,0,0,0,0,0,0,0,0,-1,1861,1786,0,0
644,-762,0,0,0,0,0,0,0,0,0,-1,1868,1786,0,0
651,-762,0,0,0,0,0,0,0,0,0,-1,1875,1786,0,0
658,-762,0,0,0,0,0,0,0,0,0,-1,1882,1786,0,0
665,-762,0,0,0,0,0,0,0,0,0,-1,1889,1786,0,0
672,-762,0,0,0,0,0,0,0,0,0,-1,1896,1786,0,0
679,-762,0,0,0,0,0,0,0,0,0,-1,1903,1786,0,0
686,-762,0,0,0,0,0,0,0,0,0,-1,1910,1786,0,0
693,-762,0,0,0,0,0,0,0,0,0,-1,1917,1786,0,0
700,-762,0,0,0,0,0,0,0,0,0,-1,1924,1786,0,0
707,-762,0,0,0,0,0,0,0,0,0,-1,1931,1786,0,0
714,-762,0,0,0,0,0,0,0,0,0,-1,1938,1786,0,0
721,-762,0,0,0,0,0,0,0,0,0,-1,1945,1786,0,0
728,-762,0,0,0,0,0,0,0,0,0,-1,1952,1786,0,0
735,-762,0,0,0,0,0,0,0,0,0,-1,1959,1786,0,0
742,-762,0,0,0,0,0,0,0,0,0,-1,1966,1786,0,0
749,-762,0,0,0,0,0,0,0,0,0,-1,1973,1786,0,0
756,-762,0,0,0,0,0,0,0,0,0,-1,1980,1786,0,0
763,-762,0,0,0,0,0,0,0,0,0,-1,1987,1786,0,0
770,-762,0,0,0,0,0,0,0,0,0,-1,1994,1786,0,0
777,-762,0,0,0,0,0,0,0,0,0,-1,2001,1786,0,0
784,-762,0,0,0,0,0,0,0,0,0,-1,2008,1786,0,0
791,-762,0,0,0,0,0,0,0,0,0,-1,2015,1786,0,0
798,-762,0,0,0,0,0,0,0,0,0,-1,2022,1786,0,0
805,-762,0,0,0,0,0,0,0,0,0,-1,2029,1786,0,0
812,-762,0,0,0,0,0,0,0,0,0,-1,2036,1786,0,0
-700,-769,0,0,0,0,0,0,0,0,0,-1,524,1793,0,0
-693,-769,0,0,0,0,0,0,0,0,0,-1,531,1793,0,0
-686,-769,0,0,0,0,0,0,0,0,0,-1,538,1793,0,0
-679,-769,0,0,0,0,0,0,0,0,0,-1,545,1793,0,0
-672,-769,0,0,0,0,0,0,0,0,0,-1,552,1793,0,0
-665,-769,0,0,0,0,0,0,0,0,0,-1,559,1793,0,0
-658,-769,0,0,0,0,0,0,0,0,0,-1,566,1793,0,0
-651,-769,0,0,0,0,0,0,0,0,0,-1,573,1793,0,0
-644,-769,0,0,0,0,0,0,0,0,0,-1,580,1793,0,0
-637,-769,0,0,0,0,0,0,0,0,0,-1,587,1793,0,0
-630,-769,0,0,0,0,0,0,0,0,0,-1,594,1793,0,0
-623,-769,0,0,0,0,0,0,0,0,0,-1,601,1793,0,0
-616,-769,0,0,0,0,0,0,0,0,0,-1,608,1793,0,0
-609,-769,0,0,0,0,0,0,0,0,0,-1,615,1793,0,0
-602,-769,0,0,0,0,0,0,0,0,0,-1,622,1793,0,0
-595,-769,0,0,0,0,0,0,0,0,0,-1,629,1793,0,0
-588,-769,0,0,0,0,0,0,0,0,0,-1,636,1793,0,0
-581,-769,0,0,0,0,0,0,0,0,0,-1,643,1793,0,0
-574,-769,0,0,0,0,0,0,0,0,0,-1,650,1793,0,0
-567,-769,0,0,0,0,0,0,0,0,0,-1,657,1793,0,0
-560,-769,0,0,0,0,0,0,0,0,0,-1,664,1793,0,0
-553,-769,0,0,0,0,0,0,0,0,0,-1,671,1793,0,0
-546,-769,0,0,0,0,0,0,0,0,0,-1,678,1793,0,0
-539,-769,0,0,0,0,0,0,0,0,0,-1,685,1793,0,0
-532,-769,0,0,0,0,0,0,0,0,0,-1,692,1793,0,0
-525,-769,0,0,0,0,0,0,0,0,0,-1,699,1793,0,0
-518,-769,0,0,0,0,0,0,0,0,0,-1,706,1793,0,0
-511,-769,0,0,0,0,0,0,0,0,0,-1,713,1793,0,0
-504,-769,0,0,0,0,0,0,0,0,0,-1,720,1793,0,0
-497,-769,0,0,0,0,0,0,0,0,0,-1,727,1793,0,0
-490,-769,0,0,0,0,0,0,0,0,0,-1,734,1793,0,0
-483,-769,0,0,0,0,0,0,0,0,0,-1,741,1793,0,0
-476,-769,0,0,0,0,0,0,0,0,0,-1,748,1793,0,0
-469,-769,0,0,0,0,0,0,0,0,0,-1,755,1793,0,0
-462,-769,0,0,0,0,0,0,0,0,0,-1,762,1793,0,0
-455,-769,0,0,0,0,0,0,0,0,0,-1,769,1793,0,0
-448,-769,0,0,0,0,0,0,0,0,0,-1,776,1793,0,0
-441,-769,0,0,0,0,0,0,0,0,0,-1,783,1793,0,0
-434,-769,0,0,0,0,0,0,0,0,0,-1,790,1793,0,0
-427,-769,0,0,0,0,0,0,0,0,0,-1,797,1793,0,0
-420,-769,0,0,0,0,0,0,0,0,0,-1,804,1793,0,0
-413,-769,0,0,0,0,0,0,0,0,0,-1,811,1793,0,0
-406,-769,0,0,0,0,0,0,0,0,0,-1,818,1793,0,0
-399,-769,0,0,0,0,0,0,0,0,0,-1,825,1793,0,0
-392,-769,0,0,0,0,0,0,0,0,0,-1,832,1793,0,0
-385,-769,0,0,0,0,0,0,0,0,0,-1,839,1793,0,0
-378,-769,0,0,0,0,0,0,0,0,0,-1,846,1793,0,0
-371,-769,0,0,0,0,0,0,0,0,0,-1,853,1793,0,0
-364,-769,0,0,0,0,0,0,0,0,0,-1,860,1793,0,0
-357,-769,0,0,0,0,0,0,0,0,0,-1,867,1793,0,0
-350,-769,0,0,0,0,0,0,0,0,0,-1,874,1793,0,0
-343,-769,0,0,0,0,0,0,0,0,0,-1,881,1793,0,0
-336,-769,0,0,0,0,0,0,0,0,0,-1,888,1793,0,0
-329,-769,0,0,0,0,0,0,0,0,0,-1,895,1793,0,0
-322,-769,0,0,0,0,0,0,0,0,0,-1,902,1793,0,0
-315,-769,0,0,0,0,0,0,0,0,0,-1,909,1793,0,0
-308,-769,0,0,0,0,0,0,0,0,0,-1,916,1793,0,0
-301,-769,0,0,0,0,0,0,0,0,0,-1,923,1793,0,0
-294,-769,0,0,0,0,0,0,0,0,0,-1,930,1793,0,0
-287,-769,0,0,0,0,0,0,0,0,0,-1,937,1793,0,0
-280,-769,0,0,0,0,0,0,0,0,0,-1,944,1793,0,0
-273,-769,0,0,0,0,0,0,0,0,0,-1,951,1793,0,0
-266,-769,0,0,0,0,0,0,0,0,0,-1,958,1793,0,0
-259,-769,0,0,0,0,0,0,0,0,0,-1,965,1793,0,0
-252,-769,0,0,0,0,0,0,0,0,0,-1,972,1793,0,0
-245,-769,0,0,0,0,0,0,0,0,0,-1,979,1793,0,0
-238,-769,0,0,0,0,0,0,0,0,0,-1,986,1793,0,0
-231,-769,0,0,0,0,0,0,0,0,0,-1,993,1793,0,0
-224,-769,0,0,0,0,0,0,0,0,0,-1,1000,1793,0,0
-217,-769,0,0,0,0,0,0,0,0,0,-1,1007,1793,0,0
-210,-769,0,0,0,0,0,0,0,0,0,-1,1014,1793,0,0
-203,-769,0,0,0,0,0,0,0,0,0,-1,1021,1793,0,0
-196,-769,0,0,0,0,0,0,0,0,0,-1,1028,1793,0,0
-189,-769,0,0,0,0,0,0,0,0,0,-1,1035,1793,0,0
-182,-769,0,0,0,0,0,0,0,0,0,-1,1042,1793,0,0
-175,-769,0,0,0,0,0,0,0,0,0,-1,1049,1793,0,0
-168,-769,0,0,0,0,0,0,0,0,0,-1,1056,1793,0,0
-161,-769,-3.61145,12.4761,0,0,0,0,0,0,0,-1,1063,1793,-3.6114,-12.476
-154,-769,-0.813232,5.32874,0,0,0,0,0,0,0,-1,1070,1793,-0.813269,-5.32872
-147,-769,4.26587,4.7002,0,0,0,0,0,0,0,-1,1077,1793,4.26593,-4.70022
-140,-769,4.10376,5.28589,0,0,0,0,0,0,0,-1,1084,1793,4.10371,-5.28584
-133,-769,6.422,8.21777,0,0,0,0,0,0,0,-1,1091,1793,6.42198,-8.21773
-126,-769,-0.352295,19.326,0,0,0,0,0,0,0,-1,1098,1793,-0.352235,-19.326
-119,-769,6.01685,16.2577,0,0,0,0,0,0,0,-1,1105,1793,6.01689,-16.2576
-112,-769,5.76416,27.2615,0,0,0,0,0,0,0,-1,1112,1793,5.7642,-27.2615
-105,-769,5.27551,23.3029,0,0,0,0,0,0,0,-1,1119,1793,5.27548,-23.3029
-98,-769,4.7771,19.2936,0,0,0,0,0,0,0,-1,1126,1793,4.77706,-19.2936
-91,-769,4.32886,15.3048,0,0,0,0,0,0,0,-1,1133,1793,4.32881,-15.3048
-84,-769,3.2207,12.4565,0,0,0,0,0,0,0,-1,1140,1793,3.22066,-12.4565
-77,-769,2.48816,8.98486,0,0,0,0,0,0,0,-1,1147,1793,2.48815,-8.98489
-70,-769,1.04944,11.9852,0,0,0,0,0,0,0,-1,1154,1793,1.04947,-11.9852
-63,-769,-2.39709,9.60339,0,0,0,0,0,0,0,-1,1161,1793,-2.39706,-9.6034
-56,-769,-5.84363,7.22156,0,0,0,0,0,0,0,-1,1168,1793,-5.84359,-7.22157
-49,-769,-2.41443,3.95471,0,0,0,0,0,0,0,-1,1175,1793,-2.41446,-3.95471
-42,-769,-3.1991,2.64941,0,0,0,0,0,0,0,-1,1182,1793,-3.19914,-2.64944
-35,-769,-3.50183,1.73389,0,0,0,0,0,0,0,-1,1189,1793,-3.50189,-1.7339
-28,-769,-3.96985,1.14075,0,0,0,0,0,0,0,-1,1196,1793,-3.96985,-1.14078
-21,-769,7.97278,33.8591,0,0,0,0,0,0,0,-1,1203,1793,7.97275,-33.8592
-14,-769,7.97534,33.5166,0,0,0,0,0,0,0,-1,1210,1793,7.97537,-33.5166
-7,-769,4.73779,36.8745,0,0,0,0,0,0,0,-1,1217,1793,4.73781,-36.8745
0,-769,7.68433,34.6349,0,0,0,0,0,0,0,-1,1224,1793,7.68438,-34.6349
7,-769,7.7666,34.7582,0.0246832,-0.00397916,-0.0140272,0.0304056,-0.00970154,-0.38734,0.0241624,0.0490687,1231,1793,7.76655,-34.7581
14,-769,7.7594,34.9366,0.0206284,-0.00271721,-0.0132884,0.0266428,-0.00873156,-0.425015,0.0212782,0.0438079,1238,1793,7.75935,-34.9366
21,-769,7.73035,35.0469,0,0,0,0,0,0,0,-1,1245,1793,7.73039,-35.0468
28,-769,7.55249,34.9642,0,0,0,0,0,0,0,-1,1252,1793,7.55249,-34.9642
35,-769,6.98376,35.0249,0,0,0,0,0,0,0,-1,1259,1793,6.98377,-35.0249
42,-769,7.56409,34.9031,0.00883712,-0.00216439,-0.0170822,0.0212824,-0.0146097,-0.629633,0.0208413,0.0494621,1266,1793,7.56412,-34.9031
49,-769,7.56934,34.9039,0.00518093,-0.00181734,-0.0188365,0.0208405,-0.017477,-0.693563,0.022151,0.0467419,1273,1793,7.56928,-34.904
56,-769,7.36035,34.7709,0.00397851,-0.0015407,-0.0197533,0.021164,-0.0187262,-0.715996,0.023045,0.0442435,1280,1793,7.36031,-34.7709
63,-769,7.09497,34.6306,0.00199645,-0.00164789,-0.0211121,0.0213649,-0.0210163,-0.74235,0.024469,0.0444051,1287,1793,7.09503,-34.6307
70,-769,7.16357,34.6705,-0.00212508,-0.0018815,-0.021169,0.0191661,-0.0231727,-0.788275,0.0244807,0.044466,1294,1793,7.16356,-34.6705
77,-769,7.16516,34.9747,-0.00278256,-0.00169933,-0.0224608,0.0202264,-0.0247083,-0.797453,0.0259861,0.043954,1301,1793,7.16519,-34.9748
84,-769,7.56897,35.2631,-0.00419964,-0.00180287,-0.0234962,0.0205254,-0.026528,-0.810878,0.0272399,0.0438351,1308,1793,7.56902,-35.263
91,-769,7.62488,34.9604,-0.0064089,-0.00193961,-0.024197,0.0201257,-0.0284742,-0.831444,0.0281969,0.0449137,1315,1793,7.62493,-34.9604
98,-769,7.42322,34.6346,-0.00915779,-0.00219328,-0.0243746,0.0189465,-0.0302976,-0.85635,0.0286818,0.046529,1322,1793,7.42327,-34.6346
105,-769,7.24854,34.7493,-0.0124273,-0.00248503,-0.0241306,0.0171812,-0.0320935,-0.886982,0.0288798,0.0470931,1329,1793,7.24848,-34.7493
112,-769,7.89331,34.606,-0.0161238,-0.00273488,-0.023479,0.0149854,-0.033844,-0.924275,0.028884,0.0461338,1336,1793,7.89326,-34.606
119,-769,7.63367,34.4908,0,0,0,0,0,0,0,-1,1343,1793,7.63363,-34.4909
126,-769,8.17175,34.4899,0,0,0,0,0,0,0,-1,1350,1793,8.17172,-34.4898
133,-769,7.66541,34.4276,0,0,0,0,0,0,0,-1,1357,1793,7.66537,-34.4276
140,-769,7.4812,34.4269,0,0,0,0,0,0,0,-1,1364,1793,7.48118,-34.4269
147,-769,7.12048,34.5219,0,0,0,0,0,0,0,-1,1371,1793,7.12054,-34.5218
154,-769,7.4093,33.5405,0,0,0,0,0,0,0,-1,1378,1793,7.40928,-33.5405
161,-769,6.57019,1.53223,0,0,0,0,0,0,0,-1,1385,1793,6.57019,-1.53226
168,-769,8.27637,0.756958,0,0,0,0,0,0,0,-1,1392,1793,8.27639,-0.756944
175,-769,8.47144,2.41174,0,0,0,0,0,0,0,-1,1399,1793,8.47147,-2.4118
182,-769,8.41479,4.05994,0,0,0,0,0,0,0,-1,1406,1793,8.41479,-4.05997
189,-769,8.25049,5.68433,0,0,0,0,0,0,0,-1,1413,1793,8.25054,-5.68428
196,-769,7.97729,7.42847,0,0,0,0,0,0,0,-1,1420,1793,7.9773,-7.42848
203,-769,22.0977,6.73889,0,0,0,0,0,0,0,-1,1427,1793,22.0977,-6.7389
210,-769,22.1115,7.77246,0,0,0,0,0,0,0,-1,1434,1793,22.1115,-7.77248
217,-769,22.4723,8.79102,0,0,0,0,0,0,0,-1,1441,1793,22.4723,-8.79099
224,-769,22.1348,9.35278,0,0,0,0,0,0,0,-1,1448,1793,22.1348,-9.35283
231,-769,3.13318,19.7184,0,0,0,0,0,0,0,-1,1455,1793,3.13323,-19.7184
238,-769,5.74512,18.6597,0,0,0,0,0,0,0,-1,1462,1793,5.74512,-18.6596
245,-769,5.80798,22.87,0,0,0,0,0,0,0,-1,1469,1793,5.80796,-22.87
252,-769,8.39099,20.3199,0,0,0,0,0,0,0,-1,1476,1793,8.39098,-20.3199
259,-769,10.974,17.7698,0,0,0,0,0,0,0,-1,1483,1793,10.974,-17.7698
266,-769,15.8488,7.3905,0,0,0,0,0,0,0,-1,1490,1793,15.8488,-7.39046
273,-769,14.8075,7.56152,0,0,0,0,0,0,0,-1,1497,1793,14.8075,-7.56152
280,-769,13.6519,7.43054,0,0,0,0,0,0,0,-1,1504,1793,13.6518,-7.43058
287,-769,0,0,0,0,0,0,0,0,0,-1,1511,1793,0,0
294,-769,0,0,0,0,0,0,0,0,0,-1,1518,1793,0,0
301,-769,0,0,0,0,0,0,0,0,0,-1,1525,1793,0,0
308,-769,0,0,0,0,0,0,0,0,0,-1,1532,1793,0,0
315,-769,0,0,0,0,0,0,0,0,0,-1,1539,1793,0,0
322,-769,0,0,0,0,0,0,0,0,0,-1,1546,1793,0,0
329,-769,0,0,0,0,0,0,0,0,0,-1,1553,1793,0,0
336,-769,0,0,0,0,0,0,0,0,0,-1,1560,1793,0,0
343,-769,0,0,0,0,0,0,0,0,0,-1,1567,1793,0,0
350,-769,0,0,0,0,0,0,0,0,0,-1,1574,1793,0,0
357,-769,0,0,0,0,0,0,0,0,0,-1,1581,1793,0,0
364,-769,0,0,0,0,0,0,0,0,0,-1,1588,1793,0,0
371,-769,0,0,0,0,0,0,0,0,0,-1,1595,1793,0,0
378,-769,0,0,0,0,0,0,0,0,0,-1,1602,1793,0,0
385,-769,0,0,0,0,0,0,0,0,0,-1,1609,1793,0,0
392,-769,0,0,0,0,0,0,0,0,0,-1,1616,1793,0,0
399,-769,0,0,0,0,0,0,0,0,0,-1,1623,1793,0,0
406,-769,0,0,0,0,0,0,0,0,0,-1,1630,1793,0,0
413,-769,0,0,0,0,0,0,0,0,0,-1,1637,1793,0,0
420,-769,0,0,0,0,0,0,0,0,0,-1,1644,1793,0,0
427,-769,0,0,0,0,0,0,0,0,0,-1,1651,1793,0,0
434,-769,0,0,0,0,0,0,0,0,0,-1,1658,1793,0,0
441,-769,0,0,0,0,0,0,0,0,0,-1,1665,1793,0,0
448,-769,0,0,0,0,0,0,0,0,0,-1,1672,1793,0,0
455,-769,0,0,0,0,0,0,0,0,0,-1,1679,1793,0,0
462,-769,0,0,0,0,0,0,0,0,0,-1,1686,1793,0,0
469,-769,0,0,0,0,0,0,0,0,0,-1,1693,1793,0,0
476,-769,0,0,0,0,0,0,0,0,0,-1,1700,1793,0,0
483,-769,0,0,0,0,0,0,0,0,0,-1,1707,1793,0,0
490,-769,0,0,0,0,0,0,0,0,0,-1,1714,1793,0,0
497,-769,0,0,0,0,0,0,0,0,0,-1,1721,1793,0,0
504,-769,0,0,0,0,0,0,0,0,0,-1,1728,1793,0,0
511,-769,0,0,0,0,0,0,0,0,0,-1,1735,1793,0,0
518,-769,0,0,0,0,0,0,0,0,0,-1,1742,1793,0,0
525,-769,0,0,0,0,0,0,0,0,0,-1,1749,1793,0,0
532,-769,0,0,0,0,0,0,0,0,0,-1,1756,1793,0,0
539,-769,0,0,0,0,0,0,0,0,0,-1,1763,1793,0,0
546,-769,0,0,0,0,0,0,0,0,0,-1,1770,1793,0,0
553,-769,0,0,0,0,0,0,0,0,0,-1,1777,1793,0,0
560,-769,0,0,0,0,0,0,0,0,0,-1,1784,1793,0,0
567,-769,0,0,0,0,0,0,0,0,0,-1,1791,1793,0,0
574,-769,0,0,0,0,0,0,0,0,0,-1,1798,1793,0,0
581,-769,0,0,0,0,0,0,0,0,0,-1,1805,1793,0,0
588,-769,0,0,0,0,0,0,0,0,0,-1,1812,1793,0,0
595,-769,0,0,0,0,0,0,0,0,0,-1,1819,1793,0,0
602,-769,0,0,0,0,0,0,0,0,0,-1,1826,1793,0,0
609,-769,0,0,0,0,0,0,0,0,0,-1,1833,1793,0,0
616,-769,0,0,0,0,0,0,0,0,0,-1,1840,1793,0,0
623,-769,0,0,0,0,0,0,0,0,0,-1,1847,1793,0,0
630,-769,0,0,0,0,0,0,0,0,0,-1,1854,1793,0,0
637,-769,0,0,0,0,0,0,0,0,0,-1,1861,1793,0,0
644,-769,0,0,0,0,0,0,0,0,0,-1,1868,1793,0,0
651,-769,0,0,0,0,0,0,0,0,0,-1,1875,1793,0,0
658,-769,0,0,0,0,0,0,0,0,0,-1,1882,1793,0,0
665,-769,0,0,0,0,0,0,0,0,0,-1,1889,1793,0,0
672,-769,0,0,0,0,0,0,0,0,0,-1,1896,1793,0,0
679,-769,0,0,0,0,0,0,0,0,0,-1,1903,1793,0,0
686,-769,0,0,0,0,0,0,0,0,0,-1,1910,1793,0,0
693,-769,0,0,0,0,0,0,0,0,0,-1,1917,1793,0,0
700,-769,0,0,0,0,0,0,0,0,0,-1,1924,1793,0,0
707,-769,0,0,0,0,0,0,0,0,0,-1,1931,1793,0,0
714,-769,0,0,0,0,0,0,0,0,0,-1,1938,1793,0,0
721,-769,0,0,0,0,0,0,0,0,0,-1,1945,1793,0,0
728,-769,0,0,0,0,0,0,0,0,0,-1,1952,1793,0,0
735,-769,0,0,0,0,0,0,0,0,0,-1,1959,1793,0,0
742,-769,0,0,0,0,0,0,0,0,0,-1,1966,1793,0,0
749,-769,0,0,0,0,0,0,0,0,0,-1,1973,1793,0,0
756,-769,0,0,0,0,0,0,0,0,0,-1,1980,1793,0,0
763,-769,0,0,0,0,0,0,0,0,0,-1,1987,1793,0,0
770,-769,0,0,0,0,0,0,0,0,0,-1,1994,1793,0,0
777,-769,0,0,0,0,0,0,0,0,0,-1,2001,1793,0,0
784,-769,0,0,0,0,0,0,0,0,0,-1,2008,1793,0,0
791,-769,0,0,0,0,0,0,0,0,0,-1,2015,1793,0,0
798,-769,0,0,0,0,0,0,0,0,0,-1,2022,1793,0,0
805,-769,0,0,0,0,0,0,0,0,0,-1,2029,1793,0,0
812,-769,0,0,0,0,0,0,0,0,0,-1,2036,1793,0,0
-700,-776,0,0,0,0,0,0,0,0,0,-1,524,1800,0,0
-693,-776,0,0,0,0,0,0,0,0,0,-1,531,1800,0,0
-686,-776,0,0,0,0,0,0,0,0,0,-1,538,1800,0,0
-679,-776,0,0,0,0,0,0,0,0,0,-1,545,1800,0,0
-672,-776,0,0,0,0,0,0,0,0,0,-1,552,1800,0,0
-665,-776,0,0,0,0,0,0,0,0,0,-1,559,1800,0,0
-658,-776,0,0,0,0,0,0,0,0,0,-1,566,1800,0,0
-651,-776,0,0,0,0,0,0,0,0,0,-1,573,1800,0,0
-644,-776,0,0,0,0,0,0,0,0,0,-1,580,1800,0,0
-637,-776,0,0,0,0,0,0,0,0,0,-1,587,1800,0,0
-630,-776,0,0,0,0,0,0,0,0,0,-1,594,1800,0,0
-623,-776,0,0,0,0,0,0,0,0,0,-1,601,1800,0,0
-616,-776,0,0,0,0,0,0,0,0,0,-1,608,1800,0,0
-609,-776,0,0,0,0,0,0,0,0,0,-1,615,1800,0,0
-602,-776,0,0,0,0,0,0,0,0,0,-1,622,1800,0,0
-595,-776,0,0,0,0,0,0,0,0,0,-1,629,1800,0,0
-588,-776,0,0,0,0,0,0,0,0,0,-1,636,1800,0,0
-581,-776,0,0,0,0,0,0,0,0,0,-1,643,1800,0,0
-574,-776,0,0,0,0,0,0,0,0,0,-1,650,1800,0,0
-567,-776,0,0,0,0,0,0,0,0,0,-1,657,1800,0,0
-560,-776,0,0,0,0,0,0,0,0,0,-1,664,1800,0,0
-553,-776,0,0,0,0,0,0,0,0,0,-1,671,1800,0,0
-546,-776,0,0,0,0,0,0,0,0,0,-1,678,1800,0,0
-539,-776,0,0,0,0,0,0,0,0,0,-1,685,1800,0,0
-532,-776,0,0,0,0,0,0,0,0,0,-1,692,1800,0,0
-525,-776,0,0,0,0,0,0,0,0,0,-1,699,1800,0,0
-518,-776,0,0,0,0,0,0,0,0,0,-1,706,1800,0,0
-511,-776,0,0,0,0,0,0,0,0,0,-1,713,1800,0,0
-504,-776,0,0,0,0,0,0,0,0,0,-1,720,1800,0,0
-497,-776,0,0,0,0,0,0,0,0,0,-1,727,1800,0,0
-490,-776,0,0,0,0,0,0,0,0,0,-1,734,1800,0,0
-483,-776,0,0,0,0,0,0,0,0,0,-1,741,1800,0,0
-476,-776,0,0,0,0,0,0,0,0,0,-1,748,1800,0,0
-469,-776,0,0,0,0,0,0,0,0,0,-1,755,1800,0,0
-462,-776,0,0,0,0,0,0,0,0,0,-1,762,1800,0,0
-455,-776,0,0,0,0,0,0,0,0,0,-1,769,1800,0,0
-448,-776,0,0,0,0,0,0,0,0,0,-1,776,1800,0,0
-441,-776,0,0,0,0,0,0,0,0,0,-1,783,1800,0,0
-434,-776,0,0,0,0,0,0,0,0,0,-1,790,1800,0,0
-427,-776,0,0,0,0,0,0,0,0,0,-1,797,1800,0,0
-420,-776,0,0,0,0,0,0,0,0,0,-1,804,1800,0,0
-413,-776,0,0,0,0,0,0,0,0,0,-1,811,1800,0,0
-406,-776,0,0,0,0,0,0,0,0,0,-1,818,1800,0,0
-399,-776,0,0,0,0,0,0,0,0,0,-1,825,1800,0,0
-392,-776,0,0,0,0,0,0,0,0,0,-1,832,1800,0,0
-385,-776,0,0,0,0,0,0,0,0,0,-1,839,1800,0,0
-378,-776,0,0,0,0,0,0,0,0,0,-1,846,1800,0,0
-371,-776,0,0,0,0,0,0,0,0,0,-1,853,1800,0,0
-364,-776,0,0,0,0,0,0,0,0,0,-1,860,1800,0,0
-357,-776,0,0,0,0,0,0,0,0,0,-1,867,1800,0,0
-350,-776,0,0,0,0,0,0,0,0,0,-1,874,1800,0,0
-343,-776,0,0,0,0,0,0,0,0,0,-1,881,1800,0,0
-336,-776,0,0,0,0,0,0,0,0,0,-1,888,1800,0,0
-329,-776,0,0,0,0,0,0,0,0,0,-1,895,1800,0,0
-322,-776,0,0,0,0,0,0,0,0,0,-1,902,1800,0,0
-315,-776,0,0,0,0,0,0,0,0,0,-1,909,1800,0,0
-308,-776,0,0,0,0,0,0,0,0,0,-1,916,1800,0,0
-301,-776,0,0,0,0,0,0,0,0,0,-1,923,1800,0,0
-294,-776,0,0,0,0,0,0,0,0,0,-1,930,1800,0,0
-287,-776,0,0,0,0,0,0,0,0,0,-1,937,1800,0,0
-280,-776,0,0,0,0,0,0,0,0,0,-1,944,1800,0,0
-273,-776,0,0,0,0,0,0,0,0,0,-1,951,1800,0,0
-266,-776,0,0,0,0,0,0,0,0,0,-1,958,1800,0,0
-259,-776,0,0,0,0,0,0,0,0,0,-1,965,1800,0,0
-252,-776,0,0,0,0,0,0,0,0,0,-1,972,1800,0,0
-245,-776,0,0,0,0,0,0,0,0,0,-1,979,1800,0,0
-238,-776,0,0,0,0,0,0,0,0,0,-1,986,1800,0,0
-231,-776,0,0,0,0,0,0,0,0,0,-1,993,1800,0,0
-224,-776,0,0,0,0,0,0,0,0,0,-1,1000,1800,0,0
-217,-776,0,0,0,0,0,0,0,0,0,-1,1007,1800,0,0
-210,-776,0,0,0,0,0,0,0,0,0,-1,1014,1800,0,0
-203,-776,0,0,0,0,0,0,0,0,0,-1,1021,1800,0,0
-196,-776,0,0,0,0,0,0,0,0,0,-1,1028,1800,0,0
-189,-776,0,0,0,0,0,0,0,0,0,-1,1035,1800,0,0
-182,-776,0,0,0,0,0,0,0,0,0,-1,1042,1800,0,0
-175,-776,0,0,0,0,0,0,0,0,0,-1,1049,1800,0,0
-168,-776,0,0,0,0,0,0,0,0,0,-1,1056,1800,0,0
-161,-776,0,0,0,0,0,0,0,0,0,-1,1063,1800,0,0
-154,-776,0,0,0,0,0,0,0,0,0,-1,1070,1800,0,0
-147,-776,0,0,0,0,0,0,0,0,0,-1,1077,1800,0,0
-140,-776,2.98499,5.20911,0,0,0,0,0,0,0,-1,1084,1800,2.98493,-5.2091
-133,-776,6.72363,9.35828,0,0,0,0,0,0,0,-1,1091,1800,6.72358,-9.35824
-126,-776,6.55029,13.7832,0,0,0,0,0,0,0,-1,1098,1800,6.55029,-13.7832
-119,-776,5.72107,13.7787,0,0,0,0,0,0,0,-1,1105,1800,5.72106,-13.7787
-112,-776,6.84998,20.4421,0,0,0,0,0,0,0,-1,1112,1800,6.84993,-20.4421
-105,-776,4.46863,24.6742,0,0,0,0,0,0,0,-1,1119,1800,4.46868,-24.6742
-98,-776,3.99658,20.5574,0,0,0,0,0,0,0,-1,1126,1800,3.99662,-20.5574
-91,-776,3.30225,18.134,0,0,0,0,0,0,0,-1,1133,1800,3.30222,-18.134
-84,-776,2.67932,14.3162,0,0,0,0,0,0,0,-1,1140,1800,2.67926,-14.3161
-77,-776,0.580078,11.1272,0,0,0,0,0,0,0,-1,1147,1800,0.58002,-11.1272
-70,-776,-0.562866,12.3163,0,0,0,0,0,0,0,-1,1154,1800,-0.562897,-12.3163
-63,-776,-3.96106,9.97656,0,0,0,0,0,0,0,-1,1161,1800,-3.961,-9.97654
-56,-776,-7.35913,7.63672,0,0,0,0,0,0,0,-1,1168,1800,-7.3591,-7.63676
-49,-776,-7.62952,3.1908,0,0,0,0,0,0,0,-1,1175,1800,-7.62955,-3.19076
-42,-776,-3.41272,3.0249,0,0,0,0,0,0,0,-1,1182,1800,-3.41269,-3.02488
-35,-776,-3.71753,1.63635,0,0,0,0,0,0,0,-1,1189,1800,-3.71755,-1.63631
-28,-776,-4.03979,0.716064,0,0,0,0,0,0,0,-1,1196,1800,-4.03977,-0.716055
-21,-776,3.09473,39.1016,0,0,0,0,0,0,0,-1,1203,1800,3.09474,-39.1015
-14,-776,3.87598,38.4272,0,0,0,0,0,0,0,-1,1210,1800,3.87594,-38.4272
-7,-776,4.46021,37.5078,0,0,0,0,0,0,0,-1,1217,1800,4.46023,-37.5078
0,-776,4.56067,37.3699,0,0,0,0,0,0,0,-1,1224,1800,4.56072,-37.3699
7,-776,7.79773,34.8934,0,0,0,0,0,0,0,-1,1231,1800,7.79767,-34.8935
14,-776,7.80078,35.1119,0,0,0,0,0,0,0,-1,1238,1800,7.80073,-35.1119
21,-776,7.46118,33.7167,0,0,0,0,0,0,0,-1,1245,1800,7.46124,-33.7166
28,-776,7.96277,33.2952,0,0,0,0,0,0,0,-1,1252,1800,7.96278,-33.2951
35,-776,7.12244,34.0542,0,0,0,0,0,0,0,-1,1259,1800,7.12239,-34.0543
42,-776,7.50281,34.8428,0,0,0,0,0,0,0,-1,1266,1800,7.50281,-34.8428
49,-776,7.80286,34.7587,0,0,0,0,0,0,0,-1,1273,1800,7.80284,-34.7587
56,-776,8.47583,37.8868,0,0,0,0,0,0,0,-1,1280,1800,8.47583,-37.8869
63,-776,8.3938,37.3079,0,0,0,0,0,0,0,-1,1287,1800,8.3938,-37.3078
70,-776,6.92432,34.3517,0,0,0,0,0,0,0,-1,1294,1800,6.92433,-34.3516
77,-776,6.53723,34.9628,-0.00522935,-0.00247979,-0.0314062,0.0275817,-0.0352908,-0.807271,0.0363903,0.0465531,1301,1800,6.53722,-34.9628
84,-776,7.75671,35.4961,-0.00760423,-0.0027776,-0.0321682,0.0270677,-0.0374495,-0.822839,0.0374094,0.0456885,1308,1800,7.75677,-35.4962
91,-776,8.12805,35.0212,-0.0111558,-0.00311584,-0.0325293,0.0256409,-0.0399126,-0.846876,0.0381451,0.0455167,1315,1800,8.12802,-35.0212
98,-776,7.505,34.1246,-0.0155459,-0.00353179,-0.0322897,0.0233049,-0.0423826,-0.877365,0.0384541,0.0436109,1322,1800,7.50505,-34.1246
105,-776,7.125,34.9023,-0.0207714,-0.00395418,-0.0315312,0.0202703,-0.0449959,-0.915703,0.0385723,0.0437332,1329,1800,7.12498,-34.9024
112,-776,8.43921,34.5344,-0.0267,-0.00428773,-0.0302572,0.0167718,-0.0477595,-0.962747,0.0386626,0.0441494,1336,1800,8.4392,-34.5345
119,-776,8.60327,34.2122,0,0,0,0,0,0,0,-1,1343,1800,8.6033,-34.2121
126,-776,8.55103,34.3435,0,0,0,0,0,0,0,-1,1350,1800,8.55097,-34.3435
133,-776,8.47693,34.4158,0,0,0,0,0,0,0,-1,1357,1800,8.47695,-34.4157
140,-776,8.25549,34.4935,0,0,0,0,0,0,0,-1,1364,1800,8.25546,-34.4936
147,-776,5.58093,28.9237,0,0,0,0,0,0,0,-1,1371,1800,5.58088,-28.9237
154,-776,38.4338,21.854,0,0,0,0,0,0,0,-1,1378,1800,38.4339,-21.854
161,-776,6.50293,1.1731,0,0,0,0,0,0,0,-1,1385,1800,6.5029,-1.17313
168,-776,8.44971,1.22913,0,0,0,0,0,0,0,-1,1392,1800,8.44974,-1.22915
175,-776,8.61523,2.87061,0,0,0,0,0,0,0,-1,1399,1800,8.6152,-2.87063
182,-776,8.54065,4.60645,0,0,0,0,0,0,0,-1,1406,1800,8.5407,-4.60643
189,-776,8.35303,6.28223,0,0,0,0,0,0,0,-1,1413,1800,8.35297,-6.28225
196,-776,8.0387,8.21704,0,0,0,0,0,0,0,-1,1420,1800,8.03865,-8.217
203,-776,7.91736,9.79919,0,0,0,0,0,0,0,-1,1427,1800,7.91735,-9.79922
210,-776,20.2479,7.85718,0,0,0,0,0,0,0,-1,1434,1800,20.248,-7.85719
217,-776,21.5171,9.3418,0,0,0,0,0,0,0,-1,1441,1800,21.5171,-9.34182
224,-776,3.09253,14.9313,0,0,0,0,0,0,0,-1,1448,1800,3.09254,-14.9313
231,-776,20.8671,9.21057,0,0,0,0,0,0,0,-1,1455,1800,20.867,-9.21054
238,-776,20.7511,9.05847,0,0,0,0,0,0,0,-1,1462,1800,20.7511,-9.05848
245,-776,3.80823,15.4108,0,0,0,0,0,0,0,-1,1469,1800,3.80826,-15.4108
252,-776,8.57837,20.2009,0,0,0,0,0,0,0,-1,1476,1800,8.57841,-20.2009
259,-776,14.1882,7.69055,0,0,0,0,0,0,0,-1,1483,1800,14.1882,-7.69061
266,-776,0,0,0,0,0,0,0,0,0,-1,1490,1800,0,0
273,-776,0,0,0,0,0,0,0,0,0,-1,1497,1800,0,0
280,-776,0,0,0,0,0,0,0,0,0,-1,1504,1800,0,0
287,-776,0,0,0,0,0,0,0,0,0,-1,1511,1800,0,0
294,-776,0,0,0,0,0,0,0,0,0,-1,1518,1800,0,0
301,-776,0,0,0,0,0,0,0,0,0,-1,1525,1800,0,0
308,-776,0,0,0,0,0,0,0,0,0,-1,1532,1800,0,0
315,-776,0,0,0,0,0,0,0,0,0,-1,1539,1800,0,0
322,-776,0,0,0,0,0,0,0,0,0,-1,1546,1800,0,0
329,-776,0,0,0,0,0,0,0,0,0,-1,1553,1800,0,0
336,-776,0,0,0,0,0,0,0,0,0,-1,1560,1800,0,0
343,-776,0,0,0,0,0,0,0,0,0,-1,1567,1800,0,0
350,-776,0,0,0,0,0,0,0,0,0,-1,1574,1800,0,0
357,-776,0,0,0,0,0,0,0,0,0,-1,1581,1800,0,0
364,-776,0,0,0,0,0,0,0,0,0,-1,1588,1800,0,0
371,-776,0,0,0,0,0,0,0,0,0,-1,1595,1800,0,0
378,-776,0,0,0,0,0,0,0,0,0,-1,1602,1800,0,0
385,-776,0,0,0,0,0,0,0,0,0,-1,1609,1800,0,0
392,-776,0,0,0,0,0,0,0,0,0,-1,1616,1800,0,0
399,-776,0,0,0,0,0,0,0,0,0,-1,1623,1800,0,0
406,-776,0,0,0,0,0,0,0,0,0,-1,1630,1800,0,0
413,-776,0,0,0,0,0,0,0,0,0,-1,1637,1800,0,0
420,-776,0,0,0,0,0,0,0,0,0,-1,1644,1800,0,0
427,-776,0,0,0,0,0,0,0,0,0,-1,1651,1800,0,0
434,-776,0,0,0,0,0,0,0,0,0,-1,1658,1800,0,0
441,-776,0,0,0,0,0,0,0,0,0,-1,1665,1800,0,0
448,-776,0,0,0,0,0,0,0,0,0,-1,1672,1800,0,0
455,-776,0,0,0,0,0,0,0,0,0,-1,1679,1800,0,0
462,-776,0,0,0,0,0,0,0,0,0,-1,1686,1800,0,0
469,-776,0,0,0,0,0,0,0,0,0,-1,1693,1800,0,0
476,-776,0,0,0,0,0,0,0,0,0,-1,1700,1800,0,0
483,-776,0,0,0,0,0,0,0,0,0,-1,1707,1800,0,0
490,-776,0,0,0,0,0,0,0,0,0,-1,1714,1800,0,0
497,-776,0,0,0,0,0,0,0,0,0,-1,1721,1800,0,0
504,-776,0,0,0,0,0,0,0,0,0,-1,1728,1800,0,0
511,-776,0,0,0,0,0,0,0,0,0,-1,1735,1800,0,0
518,-776,0,0,0,0,0,0,0,0,0,-1,1742,1800,0,0
525,-776,0,0,0,0,0,0,0,0,0,-1,1749,1800,0,0
532,-776,0,0,0,0,0,0,0,0,0,-1,1756,1800,0,0
539,-776,0,0,0,0,0,0,0,0,0,-1,1763,1800,0,0
546,-776,0,0,0,0,0,0,0,0,0,-1,1770,1800,0,0
553,-776,0,0,0,0,0,0,0,0,0,-1,1777,1800,0,0
560,-776,0,0,0,0,0,0,0,0,0,-1,1784,1800,0,0
567,-776,0,0,0,0,0,0,0,0,0,-1,1791,1800,0,0
574,-776,0,0,0,0,0,0,0,0,0,-1,1798,1800,0,0
581,-776,0,0,0,0,0,0,0,0,0,-1,1805,1800,0,0
588,-776,0,0,0,0,0,0,0,0,0,-1,1812,1800,0,0
595,-776,0,0,0,0,0,0,0,0,0,-1,1819,1800,0,0
602,-776,0,0,0,0,0,0,0,0,0,-1,1826,1800,0,0
609,-776,0,0,0,0,0,0,0,0,0,-1,1833,1800,0,0
616,-776,0,0,0,0,0,0,0,0,0,-1,1840,1800,0,0
623,-776,0,0,0,0,0,0,0,0,0,-1,1847,1800,0,0
630,-776,0,0,0,0,0,0,0,0,0,-1,1854,1800,0,0
637,-776,0,0,0,0,0,0,0,0,0,-1,1861,1800,0,0
644,-776,0,0,0,0,0,0,0,0,0,-1,1868,1800,0,0
651,-776,0,0,0,0,0,0,0,0,0,-1,1875,1800,0,0
658,-776,0,0,0,0,0,0,0,0,0,-1,1882,1800,0,0
665,-776,0,0,0,0,0,0,0,0,0,-1,1889,1800,0,0
672,-776,0,0,0,0,0,0,0,0,0,-1,1896,1800,0,0
679,-776,0,0,0,0,0,0,0,0,0,-1,1903,1800,0,0
686,-776,0,0,0,0,0,0,0,0,0,-1,1910,1800,0,0
693,-776,0,0,0,0,0,0,0,0,0,-1,1917,1800,0,0
700,-776,0,0,0,0,0,0,0,0,0,-1,1924,1800,0,0
707,-776,0,0,0,0,0,0,0,0,0,-1,1931,1800,0,0
714,-776,0,0,0,0,0,0,0,0,0,-1,1938,1800,0,0
721,-776,0,0,0,0,0,0,0,0,0,-1,1945,1800,0,0
728,-776,0,0,0,0,0,0,0,0,0,-1,1952,1800,0,0
735,-776,0,0,0,0,0,0,0,0,0,-1,1959,1800,0,0
742,-776,0,0,0,0,0,0,0,0,0,-1,1966,1800,0,0
749,-776,0,0,0,0,0,0,0,0,0,-1,1973,1800,0,0
756,-776,0,0,0,0,0,0,0,0,0,-1,1980,1800,0,0
763,-776,0,0,0,0,0,0,0,0,0,-1,1987,1800,0,0
770,-776,0,0,0,0,0,0,0,0,0,-1,1994,1800,0,0
777,-776,0,0,0,0,0,0,0,0,0,-1,2001,1800,0,0
784,-776,0,0,0,0,0,0,0,0,0,-1,2008,1800,0,0
791,-776,0,0,0,0,0,0,0,0,0,-1,2015,1800,0,0
798,-776,0,0,0,0,0,0,0,0,0,-1,2022,1800,0,0
805,-776,0,0,0,0,0,0,0,0,0,-1,2029,1800,0,0
812,-776,0,0,0,0,0,0,0,0,0,-1,2036,1800,0,0
-700,-783,0,0,0,0,0,0,0,0,0,-1,524,1807,0,0
-693,-783,0,0,0,0,0,0,0,0,0,-1,531,1807,0,0
-686,-783,0,0,0,0,0,0,0,0,0,-1,538,1807,0,0
-679,-783,0,0,0,0,0,0,0,0,0,-1,545,1807,0,0
-672,-783,0,0,0,0,0,0,0,0,0,-1,552,1807,0,0
-665,-783,0,0,0,0,0,0,0,0,0,-1,559,1807,0,0
-658,-783,0,0,0,0,0,0,0,0,0,-1,566,1807,0,0
-651,-783,0,0,0,0,0,0,0,0,0,-1,573,1807,0,0
-644,-783,0,0,0,0,0,0,0,0,0,-1,580,1807,0,0
-637,-783,0,0,0,0,0,0,0,0,0,-1,587,1807,0,0
-630,-783,0,0,0,0,0,0,0,0,0,-1,594,1807,0,0
-623,-783,0,0,0,0,0,0,0,0,0,-1,601,1807,0,0
-616,-783,0,0,0,0,0,0,0,0,0,-1,608,1807,0,0
-609,-783,0,0,0,0,0,0,0,0,0,-1,615,1807,0,0
-602,-783,0,0,0,0,0,0,0,0,0,-1,622,1807,0,0
-595,-783,0,0,0,0,0,0,0,0,0,-1,629,1807,0,0
-588,-783,0,0,0,0,0,0,0,0,0,-1,636,1807,0,0
-581,-783,0,0,0,0,0,0,0,0,0,-1,643,1807,0,0
-574,-783,0,0,0,0,0,0,0,0,0,-1,650,1807,0,0
-567,-783,0,0,0,0,0,0,0,0,0,-1,657,1807,0,0
-560,-783,0,0,0,0,0,0,0,0,0,-1,664,1807,0,0
-553,-783,0,0,0,0,0,0,0,0,0,-1,671,1807,0,0
-546,-783,0,0,0,0,0,0,0,0,0,-1,678,1807,0,0
-539,-783,0,0,0,0,0,0,0,0,0,-1,685,1807,0,0
-532,-783,0,0,0,0,0,0,0,0,0,-1,692,1807,0,0
-525,-783,0,0,0,0,0,0,0,0,0,-1,699,1807,0,0
-518,-783,0,0,0,0,0,0,0,0,0,-1,706,1807,0,0
-511,-783,0,0,0,0,0,0,0,0,0,-1,713,1807,0,0
-504,-783,0,0,0,0,0,0,0,0,0,-1,720,1807,0,0
-497,-783,0,0,0,0,0,0,0,0,0,-1,727,1807,0,0
-490,-783,0,0,0,0,0,0,0,0,0,-1,734,1807,0,0
-483,-783,0,0,0,0,0,0,0,0,0,-1,741,1807,0,0
-476,-783,0,0,0,0,0,0,0,0,0,-1,748,1807,0,0
-469,-783,0,0,0,0,0,0,0,0,0,-1,755,1807,0,0
-462,-783,0,0,0,0,0,0,0,0,0,-1,762,1807,0,0
-455,-783,0,0,0,0,0,0,0,0,0,-1,769,1807,0,0
-448,-783,0,0,0,0,0,0,0,0,0,-1,776,1807,0,0
-441,-783,0,0,0,0,0,0,0,0,0,-1,783,1807,0,0
-434,-783,0,0,0,0,0,0,0,0,0,-1,790,1807,0,0
-427,-783,0,0,0,0,0,0,0,0,0,-1,797,1807,0,0
-420,-783,0,0,0,0,0,0,0,0,0,-1,804,1807,0,0
-413,-783,0,0,0,0,0,0,0,0,0,-1,811,1807,0,0
-406,-783,0,0,0,0,0,0,0,0,0,-1,818,1807,0,0
-399,-783,0,0,0,0,0,0,0,0,0,-1,825,1807,0,0
-392,-783,0,0,0,0,0,0,0,0,0,-1,832,1807,0,0
-385,-783,0,0,0,0,0,0,0,0,0,-1,839,1807,0,0
-378,-783,0,0,0,0,0,0,0,0,0,-1,846,1807,0,0
-371,-783,0,0,0,0,0,0,0,0,0,-1,853,1807,0,0
-364,-783,0,0,0,0,0,0,0,0,0,-1,860,1807,0,0
-357,-783,0,0,0,0,0,0,0,0,0,-1,867,1807,0,0
-350,-783,0,0,0,0,0,0,0,0,0,-1,874,1807,0,0
-343,-783,0,0,0,0,0,0,0,0,0,-1,881,1807,0,0
-336,-783,0,0,0,0,0,0,0,0,0,-1,888,1807,0,0
-329,-783,0,0,0,0,0,0,0,0,0,-1,895,1807,0,0
-322,-783,0,0,0,0,0,0,0,0,0,-1,902,1807,0,0
-315,-783,0,0,0,0,0,0,0,0,0,-1,909,1807,0,0
-308,-783,0,0,0,0,0,0,0,0,0,-1,916,1807,0,0
-301,-783,0,0,0,0,0,0,0,0,0,-1,923,1807,0,0
-294,-783,0,0,0,0,0,0,0,0,0,-1,930,1807,0,0
-287,-783,0,0,0,0,0,0,0,0,0,-1,937,1807,0,0
-280,-783,0,0,0,0,0,0,0,0,0,-1,944,1807,0,0
-273,-783,0,0,0,0,0,0,0,0,0,-1,951,1807,0,0
-266,-783,0,0,0,0,0,0,0,0,0,-1,958,1807,0,0
-259,-783,0,0,0,0,0,0,0,0,0,-1,965,1807,0,0
-252,-783,0,0,0,0,0,0,0,0,0,-1,972,1807,0,0
-245,-783,0,0,0,0,0,0,0,0,0,-1,979,1807,0,0
-238,-783,0,0,0,0,0,0,0,0,0,-1,986,1807,0,0
-231,-783,0,0,0,0,0,0,0,0,0,-1,993,1807,0,0
-224,-783,0,0,0,0,0,0,0,0,0,-1,1000,1807,0,0
-217,-783,0,0,0,0,0,0,0,0,0,-1,1007,1807,0,0
-210,-783,0,0,0,0,0,0,0,0,0,-1,1014,1807,0,0
-203,-783,0,0,0,0,0,0,0,0,0,-1,1021,1807,0,0
-196,-783,0,0,0,0,0,0,0,0,0,-1,1028,1807,0,0
-189,-783,0,0,0,0,0,0,0,0,0,-1,1035,1807,0,0
-182,-783,0,0,0,0,0,0,0,0,0,-1,1042,1807,0,0
-175,-783,0,0,0,0,0,0,0,0,0,-1,1049,1807,0,0
-168,-783,0,0,0,0,0,0,0,0,0,-1,1056,1807,0,0
-161,-783,0,0,0,0,0,0,0,0,0,-1,1063,1807,0,0
-154,-783,0,0,0,0,0,0,0,0,0,-1,1070,1807,0,0
-147,-783,0,0,0,0,0,0,0,0,0,-1,1077,1807,0,0
-140,-783,0,0,0,0,0,0,0,0,0,-1,1084,1807,0,0
-133,-783,0,0,0,0,0,0,0,0,0,-1,1091,1807,0,0
-126,-783,0,0,0,0,0,0,0,0,0,-1,1098,1807,0,0
-119,-783,0,0,0,0,0,0,0,0,0,-1,1105,1807,0,0
-112,-783,5.33936,14.7699,0,0,0,0,0,0,0,-1,1112,1807,5.33931,-14.7699
-105,-783,6.44263,21.2224,0,0,0,0,0,0,0,-1,1119,1807,6.44263,-21.2224
-98,-783,5.54773,20.5695,0,0,0,0,0,0,0,-1,1126,1807,5.54772,-20.5695
-91,-783,2.6106,20.2491,0,0,0,0,0,0,0,-1,1133,1807,2.61056,-20.2492
-84,-783,-0.0491943,14.5743,0,0,0,0,0,0,0,-1,1140,1807,-0.0491562,-14.5743
-77,-783,0.332764,12.7788,0,0,0,0,0,0,0,-1,1147,1807,0.332743,-12.7788
-70,-783,-1.93176,5.12817,0,0,0,0,0,0,0,-1,1154,1807,-1.93171,-5.12813
-63,-783,-5.31702,10.54,0,0,0,0,0,0,0,-1,1161,1807,-5.31703,-10.54
-56,-783,-6.26135,6.9679,0,0,0,0,0,0,0,-1,1168,1807,-6.26136,-6.96785
-49,-783,-3.17688,4.59705,0,0,0,0,0,0,0,-1,1175,1807,-3.17685,-4.5971
-42,-783,-3.72876,3.1405,0,0,0,0,0,0,0,-1,1182,1807,-3.72874,-3.14055
-35,-783,-3.97046,1.59399,0,0,0,0,0,0,0,-1,1189,1807,-3.97041,-1.59401
-28,-783,-4.12195,0.270386,0,0,0,0,0,0,0,-1,1196,1807,-4.12197,-0.270408
-21,-783,2.88953,39.3629,0,0,0,0,0,0,0,-1,1203,1807,2.88947,-39.363
-14,-783,3.59534,38.7173,0,0,0,0,0,0,0,-1,1210,1807,3.59528,-38.7173
-7,-783,4.19812,38.1011,0,0,0,0,0,0,0,-1,1217,1807,4.19812,-38.101
0,-783,4.52917,37.52,0,0,0,0,0,0,0,-1,1224,1807,4.5292,-37.5201
7,-783,4.95361,36.8368,0,0,0,0,0,0,0,-1,1231,1807,4.95362,-36.8368
14,-783,-0.253906,48.5167,0,0,0,0,0,0,0,-1,1238,1807,-0.253851,-48.5167
21,-783,1.61108,47.2976,0,0,0,0,0,0,0,-1,1245,1807,1.61109,-47.2977
28,-783,2.88074,45.8706,0,0,0,0,0,0,0,-1,1252,1807,2.88074,-45.8706
35,-783,6.88269,34.1899,0,0,0,0,0,0,0,-1,1259,1807,6.88274,-34.1899
42,-783,9.55835,38.0981,0,0,0,0,0,0,0,-1,1266,1807,9.5584,-38.0982
49,-783,9.37988,37.6194,0,0,0,0,0,0,0,-1,1273,1807,9.37992,-37.6194
56,-783,8.94971,37.4373,0,0,0,0,0,0,0,-1,1280,1807,8.94968,-37.4372
63,-783,8.82422,36.894,0.00332577,-0.00179989,-0.0441811,0.0450183,-0.0434925,-0.756427,0.0511043,0.0496813,1287,1807,8.8242,-36.8941
70,-783,8.40137,36.476,0,0,0,0,0,0,0,-1,1294,1807,8.40133,-36.476
77,-783,8.14185,35.8873,-0.00874592,-0.00343079,-0.0425788,0.0365733,-0.04875,-0.816565,0.0494284,0.0471099,1301,1807,8.14189,-35.8873
84,-783,8.21021,35.5292,-0.0124902,-0.00400197,-0.0427742,0.0347381,-0.0512303,-0.834847,0.0499374,0.046794,1308,1807,8.21022,-35.5292
91,-783,8.30078,35.0576,-0.017945,-0.00462536,-0.0424905,0.031724,-0.0542944,-0.863134,0.0502294,0.0444822,1315,1807,8.3008,-35.0576
98,-783,7.505,33.8043,-0.0246777,-0.00527402,-0.0415256,0.027668,-0.0576198,-0.900157,0.0502429,0.0421111,1322,1807,7.50506,-33.8044
105,-783,6.81897,35.3643,0,0,0,0,0,0,0,-1,1329,1807,6.81899,-35.3643
112,-783,8.8219,34.4187,0,0,0,0,0,0,0,-1,1336,1807,8.82192,-34.4187
119,-783,8.93323,34.0597,0,0,0,0,0,0,0,-1,1343,1807,8.93317,-34.0597
126,-783,8.87744,34.2166,0,0,0,0,0,0,0,-1,1350,1807,8.87741,-34.2166
133,-783,8.76221,34.2491,0,0,0,0,0,0,0,-1,1357,1807,8.76219,-34.2491
140,-783,7.7168,35.9272,0,0,0,0,0,0,0,-1,1364,1807,7.71683,-35.9272
147,-783,5.98328,32.6539,0,0,0,0,0,0,0,-1,1371,1807,5.98324,-32.6539
154,-783,38.2109,17.545,0,0,0,0,0,0,0,-1,1378,1807,38.2109,-17.545
161,-783,39.5087,17.5449,0,0,0,0,0,0,0,-1,1385,1807,39.5087,-17.545
168,-783,8.62561,1.79944,0,0,0,0,0,0,0,-1,1392,1807,8.62561,-1.79946
175,-783,8.78699,3.40857,0,0,0,0,0,0,0,-1,1399,1807,8.78697,-3.40854
182,-783,8.70984,5.14661,0,0,0,0,0,0,0,-1,1406,1807,8.70989,-5.14666
189,-783,8.55762,6.79871,0,0,0,0,0,0,0,-1,1413,1807,8.55766,-6.79872
196,-783,8.25488,8.66626,0,0,0,0,0,0,0,-1,1420,1807,8.25492,-8.66628
203,-783,7.86755,10.5735,0,0,0,0,0,0,0,-1,1427,1807,7.8676,-10.5734
210,-783,5.6969,8.99231,0,0,0,0,0,0,0,-1,1434,1807,5.69693,-8.99234
217,-783,5.28503,3.80872,0,0,0,0,0,0,0,-1,1441,1807,5.285,-3.80868
224,-783,3.22571,6.62903,0,0,0,0,0,0,0,-1,1448,1807,3.2257,-6.62907
231,-783,4.27942,4.56262,0,0,0,0,0,0,0,-1,1455,1807,4.27948,-4.56267
238,-783,0,0,0,0,0,0,0,0,0,-1,1462,1807,0,0
245,-783,0,0,0,0,0,0,0,0,0,-1,1469,1807,0,0
252,-783,0,0,0,0,0,0,0,0,0,-1,1476,1807,0,0
259,-783,0,0,0,0,0,0,0,0,0,-1,1483,1807,0,0
266,-783,0,0,0,0,0,0,0,0,0,-1,1490,1807,0,0
273,-783,0,0,0,0,0,0,0,0,0,-1,1497,1807,0,0
280,-783,0,0,0,0,0,0,0,0,0,-1,1504,1807,0,0
287,-783,0,0,0,0,0,0,0,0,0,-1,1511,1807,0,0
294,-783,0,0,0,0,0,0,0,0,0,-1,1518,1807,0,0
301,-783,0,0,0,0,0,0,0,0,0,-1,1525,1807,0,0
308,-783,0,0,0,0,0,0,0,0,0,-1,1532,1807,0,0
315,-783,0,0,0,0,0,0,0,0,0,-1,1539,1807,0,0
322,-783,0,0,0,0,0,0,0,0,0,-1,1546,1807,0,0
329,-783,0,0,0,0,0,0,0,0,0,-1,1553,1807,0,0
336,-783,0,0,0,0,0,0,0,0,0,-1,1560,1807,0,0
343,-783,0,0,0,0,0,0,0,0,0,-1,1567,1807,0,0
350,-783,0,0,0,0,0,0,0,0,0,-1,1574,1807,0,0
357,-783,0,0,0,0,0,0,0,0,0,-1,1581,1807,0,0
364,-783,0,0,0,0,0,0,0,0,0,-1,1588,1807,0,0
371,-783,0,0,0,0,0,0,0,0,0,-1,1595,1807,0,0
378,-783,0,0,0,0,0,0,0,0,0,-1,1602,1807,0,0
385,-783,0,0,0,0,0,0,0,0,0,-1,1609,1807,0,0
392,-783,0,0,0,0,0,0,0,0,0,-1,1616,1807,0,0
399,-783,0,0,0,0,0,0,0,0,0,-1,1623,1807,0,0
406,-783,0,0,0,0,0,0,0,0,0,-1,1630,1807,0,0
413,-783,0,0,0,0,0,0,0,0,0,-1,1637,1807,0,0
420,-783,0,0,0,0,0,0,0,0,0,-1,1644,1807,0,0
427,-783,0,0,0,0,0,0,0,0,0,-1,1651,1807,0,0
434,-783,0,0,0,0,0,0,0,0,0,-1,1658,1807,0,0
441,-783,0,0,0,0,0,0,0,0,0,-1,1665,1807,0,0
448,-783,0,0,0,0,0,0,0,0,0,-1,1672,1807,0,0
455,-783,0,0,0,0,0,0,0,0,0,-1,1679,1807,0,0
462,-783,0,0,0,0,0,0,0,0,0,-1,1686,1807,0,0
469,-783,0,0,0,0,0,0,0,0,0,-1,1693,1807,0,0
476,-783,0,0,0,0,0,0,0,0,0,-1,1700,1807,0,0
483,-783,0,0,0,0,0,0,0,0,0,-1,1707,1807,0,0
490,-783,0,0,0,0,0,0,0,0,0,-1,1714,1807,0,0
497,-783,0,0,0,0,0,0,0,0,0,-1,1721,1807,0,0
504,-783,0,0,0,0,0,0,0,0,0,-1,1728,1807,0,0
511,-783,0,0,0,0,0,0,0,0,0,-1,1735,1807,0,0
518,-783,0,0,0,0,0,0,0,0,0,-1,1742,1807,0,0
525,-783,0,0,0,0,0,0,0,0,0,-1,1749,1807,0,0
532,-783,0,0,0,0,0,0,0,0,0,-1,1756,1807,0,0
539,-783,0,0,0,0,0,0,0,0,0,-1,1763,1807,0,0
546,-783,0,0,0,0,0,0,0,0,0,-1,1770,1807,0,0
553,-783,0,0,0,0,0,0,0,0,0,-1,1777,1807,0,0
560,-783,0,0,0,0,0,0,0,0,0,-1,1784,1807,0,0
567,-783,0,0,0,0,0,0,0,0,0,-1,1791,1807,0,0
574,-783,0,0,0,0,0,0,0,0,0,-1,1798,1807,0,0
581,-783,0,0,0,0,0,0,0,0,0,-1,1805,1807,0,0
588,-783,0,0,0,0,0,0,0,0,0,-1,1812,1807,0,0
595,-783,0,0,0,0,0,0,0,0,0,-1,1819,1807,0,0
602,-783,0,0,0,0,0,0,0,0,0,-1,1826,1807,0,0
609,-783,0,0,0,0,0,0,0,0,0,-1,1833,1807,0,0
616,-783,0,0,0,0,0,0,0,0,0,-1,1840,1807,0,0
623,-783,0,0,0,0,0,0,0,0,0,-1,1847,1807,0,0
630,-783,0,0,0,0,0,0,0,0,0,-1,1854,1807,0,0
637,-783,0,0,0,0,0,0,0,0,0,-1,1861,1807,0,0
644,-783,0,0,0,0,0,0,0,0,0,-1,1868,1807,0,0
651,-783,0,0,0,0,0,0,0,0,0,-1,1875,1807,0,0
658,-783,0,0,0,0,0,0,0,0,0,-1,1882,1807,0,0
665,-783,0,0,0,0,0,0,0,0,0,-1,1889,1807,0,0
672,-783,0,0,0,0,0,0,0,0,0,-1,1896,1807,0,0
679,-783,0,0,0,0,0,0,0,0,0,-1,1903,1807,0,0
686,-783,0,0,0,0,0,0,0,0,0,-1,1910,1807,0,0
693,-783,0,0,0,0,0,0,0,0,0,-1,1917,1807,0,0
700,-783,0,0,0,0,0,0,0,0,0,-1,1924,1807,0,0
707,-783,0,0,0,0,0,0,0,0,0,-1,1931,1807,0,0
714,-783,0,0,0,0,0,0,0,0,0,-1,1938,1807,0,0
721,-783,0,0,0,0,0,0,0,0,0,-1,1945,1807,0,0
728,-783,0,0,0,0,0,0,0,0,0,-1,1952,1807,0,0
735,-783,0,0,0,0,0,0,0,0,0,-1,1959,1807,0,0
742,-783,0,0,0,0,0,0,0,0,0,-1,1966,1807,0,0
749,-783,0,0,0,0,0,0,0,0,0,-1,1973,1807,0,0
756,-783,0,0,0,0,0,0,0,0,0,-1,1980,1807,0,0
763,-783,0,0,0,0,0,0,0,0,0,-1,1987,1807,0,0
770,-783,0,0,0,0,0,0,0,0,0,-1,1994,1807,0,0
777,-783,0,0,0,0,0,0,0,0,0,-1,2001,1807,0,0
784,-783,0,0,0,0,0,0,0,0,0,-1,2008,1807,0,0
791,-783,0,0,0,0,0,0,0,0,0,-1,2015,1807,0,0
798,-783,0,0,0,0,0,0,0,0,0,-1,2022,1807,0,0
805,-783,0,0,0,0,0,0,0,0,0,-1,2029,1807,0,0
812,-783,0,0,0,0,0,0,0,0,0,-1,2036,1807,0,0
-700,-790,0,0,0,0,0,0,0,0,0,-1,524,1814,0,0
-693,-790,0,0,0,0,0,0,0,0,0,-1,531,1814,0,0
-686,-790,0,0,0,0,0,0,0,0,0,-1,538,1814,0,0
-679,-790,0,0,0,0,0,0,0,0,0,-1,545,1814,0,0
-672,-790,0,0,0,0,0,0,0,0,0,-1,552,1814,0,0
-665,-790,0,0,0,0,0,0,0,0,0,-1,559,1814,0,0
-658,-790,0,0,0,0,0,0,0,0,0,-1,566,1814,0,0
-651,-790,0,0,0,0,0,0,0,0,0,-1,573,1814,0,0
-644,-790,0,0,0,0,0,0,0,0,0,-1,580,1814,0,0
-637,-790,0,0,0,0,0,0,0,0,0,-1,587,1814,0,0
-630,-790,0,0,0,0,0,0,0,0,0,-1,594,1814,0,0
-623,-790,0,0,0,0,0,0,0,0,0,-1,601,1814,0,0
-616,-790,0,0,0,0,0,0,0,0,0,-1,608,1814,0,0
-609,-790,0,0,0,0,0,0,0,0,0,-1,615,1814,0,0
-602,-790,0,0,0,0,0,0,0,0,0,-1,622,1814,0,0
-595,-790,0,0,0,0,0,0,0,0,0,-1,629,1814,0,0
-588,-790,0,0,0,0,0,0,0,0,0,-1,636,1814,0,0
-581,-790,0,0,0,0,0,0,0,0,0,-1,643,1814,0,0
-574,-790,0,0,0,0,0,0,0,0,0,-1,650,1814,0,0
-567,-790,0,0,0,0,0,0,0,0,0,-1,657,1814,0,0
-560,-790,0,0,0,0,0,0,0,0,0,-1,664,1814,0,0
-553,-790,0,0,0,0,0,0,0,0,0,-1,671,1814,0,0
-546,-790,0,0,0,0,0,0,0,0,0,-1,678,1814,0,0
-539,-790,0,0,0,0,0,0,0,0,0,-1,685,1814,0,0
-532,-790,0,0,0,0,0,0,0,0,0,-1,692,1814,0,0
-525,-790,0,0,0,0,0,0,0,0,0,-1,699,1814,0,0
-518,-790,0,0,0,0,0,0,0,0,0,-1,706,1814,0,0
-511,-790,0,0,0,0,0,0,0,0,0,-1,713,1814,0,0
-504,-790,0,0,0,0,0,0,0,0,0,-1,720,1814,0,0
-497,-790,0,0,0,0,0,0,0,0,0,-1,727,1814,0,0
-490,-790,0,0,0,0,0,0,0,0,0,-1,734,1814,0,0
-483,-790,0,0,0,0,0,0,0,0,0,-1,741,1814,0,0
-476,-790,0,0,0,0,0,0,0,0,0,-1,748,1814,0,0
-469,-790,0,0,0,0,0,0,0,0,0,-1,755,1814,0,0
-462,-790,0,0,0,0,0,0,0,0,0,-1,762,1814,0,0
-455,-790,0,0,0,0,0,0,0,0,0,-1,769,1814,0,0
-448,-790,0,0,0,0,0,0,0,0,0,-1,776,1814,0,0
-441,-790,0,0,0,0,0,0,0,0,0,-1,783,1814,0,0
-434,-790,0,0,0,0,0,0,0,0,0,-1,790,1814,0,0
-427,-790,0,0,0,0,0,0,0,0,0,-1,797,1814,0,0
-420,-790,0,0,0,0,0,0,0,0,0,-1,804,1814,0,0
-413,-790,0,0,0,0,0,0,0,0,0,-1,811,1814,0,0
-406,-790,0,0,0,0,0,0,0,0,0,-1,818,1814,0,0
-399,-790,0,0,0,0,0,0,0,0,0,-1,825,1814,0,0
-392,-790,0,0,0,0,0,0,0,0,0,-1,832,1814,0,0
-385,-790,0,0,0,0,0,0,0,0,0,-1,839,1814,0,0
-378,-790,0,0,0,0,0,0,0,0,0,-1,846,1814,0,0
-371,-790,0,0,0,0,0,0,0,0,0,-1,853,1814,0,0
-364,-790,0,0,0,0,0,0,0,0,0,-1,860,1814,0,0
-357,-790,0,0,0,0,0,0,0,0,0,-1,867,1814,0,0
-350,-790,0,0,0,0,0,0,0,0,0,-1,874,1814,0,0
-343,-790,0,0,0,0,0,0,0,0,0,-1,881,1814,0,0
-336,-790,0,0,0,0,0,0,0,0,0,-1,888,1814,0,0
-329,-790,0,0,0,0,0,0,0,0,0,-1,895,1814,0,0
-322,-790,0,0,0,0,0,0,0,0,0,-1,902,1814,0,0
-315,-790,0,0,0,0,0,0,0,0,0,-1,909,1814,0,0
-308,-790,0,0,0,0,0,0,0,0,0,-1,916,1814,0,0
-301,-790,0,0,0,0,0,0,0,0,0,-1,923,1814,0,0
-294,-790,0,0,0,0,0,0,0,0,0,-1,930,1814,0,0
-287,-790,0,0,0,0,0,0,0,0,0,-1,937,1814,0,0
-280,-790,0,0,0,0,0,0,0,0,0,-1,944,1814,0,0
-273,-790,0,0,0,0,0,0,0,0,0,-1,951,1814,0,0
-266,-790,0,0,0,0,0,0,0,0,0,-1,958,1814,0,0
-259,-790,0,0,0,0,0,0,0,0,0,-1,965,1814,0,0
-252,-790,0,0,0,0,0,0,0,0,0,-1,972,1814,0,0
-245,-790,0,0,0,0,0,0,0,0,0,-1,979,1814,0,0
-238,-790,0,0,0,0,0,0,0,0,0,-1,986,1814,0,0
-231,-790,0,0,0,0,0,0,0,0,0,-1,993,1814,0,0
-224,-790,0,0,0,0,0,0,0,0,0,-1,1000,1814,0,0
-217,-790,0,0,0,0,0,0,0,0,0,-1,1007,1814,0,0
-210,-790,0,0,0,0,0,0,0,0,0,-1,1014,1814,0,0
-203,-790,0,0,0,0,0,0,0,0,0,-1,1021,1814,0,0
-196,-790,0,0,0,0,0,0,0,0,0,-1,1028,1814,0,0
-189,-790,0,0,0,0,0,0,0,0,0,-1,1035,1814,0,0
-182,-790,0,0,0,0,0,0,0,0,0,-1,1042,1814,0,0
-175,-790,0,0,0,0,0,0,0,0,0,-1,1049,1814,0,0
-168,-790,0,0,0,0,0,0,0,0,0,-1,1056,1814,0,0
-161,-790,0,0,0,0,0,0,0,0,0,-1,1063,1814,0,0
-154,-790,0,0,0,0,0,0,0,0,0,-1,1070,1814,0,0
-147,-790,0,0,0,0,0,0,0,0,0,-1,1077,1814,0,0
-140,-790,0,0,0,0,0,0,0,0,0,-1,1084,1814,0,0
-133,-790,0,0,0,0,0,0,0,0,0,-1,1091,1814,0,0
-126,-790,0,0,0,0,0,0,0,0,0,-1,1098,1814,0,0
-119,-790,0,0,0,0,0,0,0,0,0,-1,1105,1814,0,0
-112,-790,0,0,0,0,0,0,0,0,0,-1,1112,1814,0,0
-105,-790,0,0,0,0,0,0,0,0,0,-1,1119,1814,0,0
-98,-790,0,0,0,0,0,0,0,0,0,-1,1126,1814,0,0
-91,-790,0,0,0,0,0,0,0,0,0,-1,1133,1814,0,0
-84,-790,0,0,0,0,0,0,0,0,0,-1,1140,1814,0,0
-77,-790,-0.969238,5.30847,0,0,0,0,0,0,0,-1,1147,1814,-0.969277,-5.3085
-70,-790,-1.23169,4.98914,0,0,0,0,0,0,0,-1,1154,1814,-1.23163,-4.98916
-63,-790,-1.69128,4.32263,0,0,0,0,0,0,0,-1,1161,1814,-1.69128,-4.32258
-56,-790,-2.24756,3.75305,0,0,0,0,0,0,0,-1,1168,1814,-2.24758,-3.75302
-49,-790,-3.11011,3.35779,0,0,0,0,0,0,0,-1,1175,1814,-3.11006,-3.35781
-42,-790,0.593262,1.19165,0,0,0,0,0,0,0,-1,1182,1814,0.593225,-1.19165
-35,-790,0.307129,-0.20105,0,0,0,0,0,0,0,-1,1189,1814,0.307178,0.201006
-28,-790,-2.78467,0.785156,0,0,0,0,0,0,0,-1,1196,1814,-2.78471,-0.785183
-21,-790,2.55396,39.5785,0,0,0,0,0,0,0,-1,1203,1814,2.55397,-39.5785
-14,-790,3.31738,38.923,0,0,0,0,0,0,0,-1,1210,1814,3.31736,-38.923
-7,-790,3.88867,38.1063,0,0,0,0,0,0,0,-1,1217,1814,3.88864,-38.1064
0,-790,4.37109,37.4211,0,0,0,0,0,0,0,-1,1224,1814,4.3711,-37.4211
7,-790,-0.884888,49.2472,0,0,0,0,0,0,0,-1,1231,1814,-0.884915,-49.2472
14,-790,0.674805,48.0123,0.128357,0.0275292,-0.0777575,0.170614,-0.0147272,-0.497791,0.118956,0.0471646,1238,1814,0.674774,-48.0123
21,-790,2.40344,46.9197,0,0,0,0,0,0,0,-1,1245,1814,2.40343,-46.9197
28,-790,3.63892,45.5708,0,0,0,0,0,0,0,-1,1252,1814,3.63888,-45.5708
35,-790,4.75867,44.3269,0,0,0,0,0,0,0,-1,1259,1814,4.75871,-44.3269
42,-790,7.41443,33.4716,0,0,0,0,0,0,0,-1,1266,1814,7.41449,-33.4716
49,-790,9.854,37.109,0,0,0,0,0,0,0,-1,1273,1814,9.85402,-37.109
56,-790,9.42358,36.9875,0,0,0,0,0,0,0,-1,1280,1814,9.42354,-36.9876
63,-790,9.22839,36.5275,0,0,0,0,0,0,0,-1,1287,1814,9.22837,-36.5275
70,-790,8.8844,36.0371,0,0,0,0,0,0,0,-1,1294,1814,8.88441,-36.0371
77,-790,8.58411,35.5181,0,0,0,0,0,0,0,-1,1301,1814,8.58409,-35.518
84,-790,8.37,35.6346,0,0,0,0,0,0,0,-1,1308,1814,8.37004,-35.6346
91,-790,8.44775,35.1239,-0.0271349,-0.00650617,-0.0539905,0.0381464,-0.0717874,-0.879781,0.0644533,0.0445517,1315,1814,8.44779,-35.1239
98,-790,8.18274,34.4171,-0.0371052,-0.00746872,-0.0518933,0.0316806,-0.0762544,-0.924473,0.0640631,0.0440109,1322,1814,8.18279,-34.4171
105,-790,7.297,34.1794,0,0,0,0,0,0,0,-1,1329,1814,7.29704,-34.1795
112,-790,6.20264,34.1493,-0.0624759,-0.00894255,-0.0452934,0.016902,-0.0883205,-1.05227,0.0652482,0.0454823,1336,1814,6.20262,-34.1493
119,-790,5.0166,34.4858,-0.0771362,-0.00912665,-0.0406453,0.00986262,-0.0961254,-1.13374,0.0676114,0.0433586,1343,1814,5.01657,-34.4858
126,-790,3.80347,35.0618,0,0,0,0,0,0,0,-1,1350,1814,3.80344,-35.0618
133,-790,5.02026,35.2189,0,0,0,0,0,0,0,-1,1357,1814,5.02029,-35.2189
140,-790,6.80005,35.4452,0,0,0,0,0,0,0,-1,1364,1814,6.80003,-35.4452
147,-790,7.55127,35.892,0,0,0,0,0,0,0,-1,1371,1814,7.55129,-35.8919
154,-790,38.121,13.0201,0,0,0,0,0,0,0,-1,1378,1814,38.1209,-13.0202
161,-790,39.3429,13.0336,0,0,0,0,0,0,0,-1,1385,1814,39.3429,-13.0336
168,-790,7.04077,2.23279,0,0,0,0,0,0,0,-1,1392,1814,7.04082,-2.23275
175,-790,9.03918,3.98535,0,0,0,0,0,0,0,-1,1399,1814,9.0392,-3.98535
182,-790,8.96997,5.67896,0,0,0,0,0,0,0,-1,1406,1814,8.97001,-5.6789
189,-790,8.59729,6.86975,0,0,0,0,0,0,0,-1,1413,1814,8.59728,-6.86972
196,-790,8.21924,9.29053,0,0,0,0,0,0,0,-1,1420,1814,8.21924,-9.29048
203,-790,0,0,0,0,0,0,0,0,0,-1,1427,1814,0,0
210,-790,0,0,0,0,0,0,0,0,0,-1,1434,1814,0,0
217,-790,0,0,0,0,0,0,0,0,0,-1,1441,1814,0,0
224,-790,0,0,0,0,0,0,0,0,0,-1,1448,1814,0,0
231,-790,0,0,0,0,0,0,0,0,0,-1,1455,1814,0,0
238,-790,0,0,0,0,0,0,0,0,0,-1,1462,1814,0,0
245,-790,0,0,0,0,0,0,0,0,0,-1,1469,1814,0,0
252,-790,0,0,0,0,0,0,0,0,0,-1,1476,1814,0,0
259,-790,0,0,0,0,0,0,0,0,0,-1,1483,1814,0,0
266,-790,0,0,0,0,0,0,0,0,0,-1,1490,1814,0,0
273,-790,0,0,0,0,0,0,0,0,0,-1,1497,1814,0,0
280,-790,0,0,0,0,0,0,0,0,0,-1,1504,1814,0,0
287,-790,0,0,0,0,0,0,0,0,0,-1,1511,1814,0,0
294,-790,0,0,0,0,0,0,0,0,0,-1,1518,1814,0,0
301,-790,0,0,0,0,0,0,0,0,0,-1,1525,1814,0,0
308,-790,0,0,0,0,0,0,0,0,0,-1,1532,1814,0,0
315,-790,0,0,0,0,0,0,0,0,0,-1,1539,1814,0,0
322,-790,0,0,0,0,0,0,0,0,0,-1,1546,1814,0,0
329,-790,0,0,0,0,0,0,0,0,0,-1,1553,1814,0,0
336,-790,0,0,0,0,0,0,0,0,0,-1,1560,1814,0,0
343,-790,0,0,0,0,0,0,0,0,0,-1,1567,1814,0,0
350,-790,0,0,0,0,0,0,0,0,0,-1,1574,1814,0,0
357,-790,0,0,0,0,0,0,0,0,0,-1,1581,1814,0,0
364,-790,0,0,0,0,0,0,0,0,0,-1,1588,1814,0,0
371,-790,0,0,0,0,0,0,0,0,0,-1,1595,1814,0,0
378,-790,0,0,0,0,0,0,0,0,0,-1,1602,1814,0,0
385,-790,0,0,0,0,0,0,0,0,0,-1,1609,1814,0,0
392,-790,0,0,0,0,0,0,0,0,0,-1,1616,1814,0,0
399,-790,0,0,0,0,0,0,0,0,0,-1,1623,1814,0,0
406,-790,0,0,0,0,0,0,0,0,0,-1,1630,1814,0,0
413,-790,0,0,0,0,0,0,0,0,0,-1,1637,1814,0,0
420,-790,0,0,0,0,0,0,0,0,0,-1,1644,1814,0,0
427,-790,0,0,0,0,0,0,0,0,0,-1,1651,1814,0,0
434,-790,0,0,0,0,0,0,0,0,0,-1,1658,1814,0,0
441,-790,0,0,0,0,0,0,0,0,0,-1,1665,1814,0,0
448,-790,0,0,0,0,0,0,0,0,0,-1,1672,1814,0,0
455,-790,0,0,0,0,0,0,0,0,0,-1,1679,1814,0,0
462,-790,0,0,0,0,0,0,0,0,0,-1,1686,1814,0,0
469,-790,0,0,0,0,0,0,0,0,0,-1,1693,1814,0,0
476,-790,0,0,0,0,0,0,0,0,0,-1,1700,1814,0,0
483,-790,0,0,0,0,0,0,0,0,0,-1,1707,1814,0,0
490,-790,0,0,0,0,0,0,0,0,0,-1,1714,1814,0,0
497,-790,0,0,0,0,0,0,0,0,0,-1,1721,1814,0,0
504,-790,0,0,0,0,0,0,0,0,0,-1,1728,1814,0,0
511,-790,0,0,0,0,0,0,0,0,0,-1,1735,1814,0,0
518,-790,0,0,0,0,0,0,0,0,0,-1,1742,1814,0,0
525,-790,0,0,0,0,0,0,0,0,0,-1,1749,1814,0,0
532,-790,0,0,0,0,0,0,0,0,0,-1,1756,1814,0,0
539,-790,0,0,0,0,0,0,0,0,0,-1,1763,1814,0,0
546,-790,0,0,0,0,0,0,0,0,0,-1,1770,1814,0,0
553,-790,0,0,0,0,0,0,0,0,0,-1,1777,1814,0,0
560,-790,0,0,0,0,0,0,0,0,0,-1,1784,1814,0,0
567,-790,0,0,0,0,0,0,0,0,0,-1,1791,1814,0,0
574,-790,0,0,0,0,0,0,0,0,0,-1,1798,1814,0,0
581,-790,0,0,0,0,0,0,0,0,0,-1,1805,1814,0,0
588,-790,0,0,0,0,0,0,0,0,0,-1,1812,1814,0,0
595,-790,0,0,0,0,0,0,0,0,0,-1,1819,1814,0,0
602,-790,0,0,0,0,0,0,0,0,0,-1,1826,1814,0,0
609,-790,0,0,0,0,0,0,0,0,0,-1,1833,1814,0,0
616,-790,0,0,0,0,0,0,0,0,0,-1,1840,1814,0,0
623,-790,0,0,0,0,0,0,0,0,0,-1,1847,1814,0,0
630,-790,0,0,0,0,0,0,0,0,0,-1,1854,1814,0,0
637,-790,0,0,0,0,0,0,0,0,0,-1,1861,1814,0,0
644,-790,0,0,0,0,0,0,0,0,0,-1,1868,1814,0,0
651,-790,0,0,0,0,0,0,0,0,0,-1,1875,1814,0,0
658,-790,0,0,0,0,0,0,0,0,0,-1,1882,1814,0,0
665,-790,0,0,0,0,0,0,0,0,0,-1,1889,1814,0,0
672,-790,0,0,0,0,0,0,0,0,0,-1,1896,1814,0,0
679,-790,0,0,0,0,0,0,0,0,0,-1,1903,1814,0,0
686,-790,0,0,0,0,0,0,0,0,0,-1,1910,1814,0,0
693,-790,0,0,0,0,0,0,0,0,0,-1,1917,1814,0,0
700,-790,0,0,0,0,0,0,0,0,0,-1,1924,1814,0,0
707,-790,0,0,0,0,0,0,0,0,0,-1,1931,1814,0,0
714,-790,0,0,0,0,0,0,0,0,0,-1,1938,1814,0,0
721,-790,0,0,0,0,0,0,0,0,0,-1,1945,1814,0,0
728,-790,0,0,0,0,0,0,0,0,0,-1,1952,1814,0,0
735,-790,0,0,0,0,0,0,0,0,0,-1,1959,1814,0,0
742,-790,0,0,0,0,0,0,0,0,0,-1,1966,1814,0,0
749,-790,0,0,0,0,0,0,0,0,0,-1,1973,1814,0,0
756,-790,0,0,0,0,0,0,0,0,0,-1,1980,1814,0,0
763,-790,0,0,0,0,0,0,0,0,0,-1,1987,1814,0,0
770,-790,0,0,0,0,0,0,0,0,0,-1,1994,1814,0,0
777,-790,0,0,0,0,0,0,0,0,0,-1,2001,1814,0,0
784,-790,0,0,0,0,0,0,0,0,0,-1,2008,1814,0,0
791,-790,0,0,0,0,0,0,0,0,0,-1,2015,1814,0,0
798,-790,0,0,0,0,0,0,0,0,0,-1,2022,1814,0,0
805,-790,0,0,0,0,0,0,0,0,0,-1,2029,1814,0,0
812,-790,0,0,0,0,0,0,0,0,0,-1,2036,1814,0,0
-700,-797,0,0,0,0,0,0,0,0,0,-1,524,1821,0,0
-693,-797,0,0,0,0,0,0,0,0,0,-1,531,1821,0,0
-686,-797,0,0,0,0,0,0,0,0,0,-1,538,1821,0,0
-679,-797,0,0,0,0,0,0,0,0,0,-1,545,1821,0,0
-672,-797,0,0,0,0,0,0,0,0,0,-1,552,1821,0,0
-665,-797,0,0,0,0,0,0,0,0,0,-1,559,1821,0,0
-658,-797,0,0,0,0,0,0,0,0,0,-1,566,1821,0,0
-651,-797,0,0,0,0,0,0,0,0,0,-1,573,1821,0,0
-644,-797,0,0,0,0,0,0,0,0,0,-1,580,1821,0,0
-637,-797,0,0,0,0,0,0,0,0,0,-1,587,1821,0,0
-630,-797,0,0,0,0,0,0,0,0,0,-1,594,1821,0,0
-623,-797,0,0,0,0,0,0,0,0,0,-1,601,1821,0,0
-616,-797,0,0,0,0,0,0,0,0,0,-1,608,1821,0,0
-609,-797,0,0,0,0,0,0,0,0,0,-1,615,1821,0,0
-602,-797,0,0,0,0,0,0,0,0,0,-1,622,1821,0,0
-595,-797,0,0,0,0,0,0,0,0,0,-1,629,1821,0,0
-588,-797,0,0,0,0,0,0,0,0,0,-1,636,1821,0,0
-581,-797,0,0,0,0,0,0,0,0,0,-1,643,1821,0,0
-574,-797,0,0,0,0,0,0,0,0,0,-1,650,1821,0,0
-567,-797,0,0,0,0,0,0,0,0,0,-1,657,1821,0,0
-560,-797,0,0,0,0,0,0,0,0,0,-1,664,1821,0,0
-553,-797,0,0,0,0,0,0,0,0,0,-1,671,1821,0,0
-546,-797,0,0,0,0,0,0,0,0,0,-1,678,1821,0,0
-539,-797,0,0,0,0,0,0,0,0,0,-1,685,1821,0,0
-532,-797,0,0,0,0,0,0,0,0,0,-1,692,1821,0,0
-525,-797,0,0,0,0,0,0,0,0,0,-1,699,1821,0,0
-518,-797,0,0,0,0,0,0,0,0,0,-1,706,1821,0,0
-511,-797,0,0,0,0,0,0,0,0,0,-1,713,1821,0,0
-504,-797,0,0,0,0,0,0,0,0,0,-1,720,1821,0,0
-497,-797,0,0,0,0,0,0,0,0,0,-1,727,1821,0,0
-490,-797,0,0,0,0,0,0,0,0,0,-1,734,1821,0,0
-483,-797,0,0,0,0,0,0,0,0,0,-1,741,1821,0,0
-476,-797,0,0,0,0,0,0,0,0,0,-1,748,1821,0,0
-469,-797,0,0,0,0,0,0,0,0,0,-1,755,1821,0,0
-462,-797,0,0,0,0,0,0,0,0,0,-1,762,1821,0,0
-455,-797,0,0,0,0,0,0,0,0,0,-1,769,1821,0,0
-448,-797,0,0,0,0,0,0,0,0,0,-1,776,1821,0,0
-441,-797,0,0,0,0,0,0,0,0,0,-1,783,1821,0,0
-434,-797,0,0,0,0,0,0,0,0,0,-1,790,1821,0,0
-427,-797,0,0,0,0,0,0,0,0,0,-1,797,1821,0,0
-420,-797,0,0,0,0,0,0,0,0,0,-1,804,1821,0,0
-413,-797,0,0,0,0,0,0,0,0,0,-1,811,1821,0,0
-406,-797,0,0,0,0,0,0,0,0,0,-1,818,1821,0,0
-399,-797,0,0,0,0,0,0,0,0,0,-1,825,1821,0,0
-392,-797,0,0,0,0,0,0,0,0,0,-1,832,1821,0,0
-385,-797,0,0,0,0,0,0,0,0,0,-1,839,1821,0,0
-378,-797,0,0,0,0,0,0,0,0,0,-1,846,1821,0,0
-371,-797,0,0,0,0,0,0,0,0,0,-1,853,1821,0,0
-364,-797,0,0,0,0,0,0,0,0,0,-1,860,1821,0,0
-357,-797,0,0,0,0,0,0,0,0,0,-1,867,1821,0,0
-350,-797,0,0,0,0,0,0,0,0,0,-1,874,1821,0,0
-343,-797,0,0,0,0,0,0,0,0,0,-1,881,1821,0,0
-336,-797,0,0,0,0,0,0,0,0,0,-1,888,1821,0,0
-329,-797,0,0,0,0,0,0,0,0,0,-1,895,1821,0,0
-322,-797,0,0,0,0,0,0,0,0,0,-1,902,1821,0,0
-315,-797,0,0,0,0,0,0,0,0,0,-1,909,1821,0,0
-308,-797,0,0,0,0,0,0,0,0,0,-1,916,1821,0,0
-301,-797,0,0,0,0,0,0,0,0,0,-1,923,1821,0,0
-294,-797,0,0,0,0,0,0,0,0,0,-1,930,1821,0,0
-287,-797,0,0,0,0,0,0,0,0,0,-1,937,1821,0,0
-280,-797,0,0,0,0,0,0,0,0,0,-1,944,1821,0,0
-273,-797,0,0,0,0,0,0,0,0,0,-1,951,1821,0,0
-266,-797,0,0,0,0,0,0,0,0,0,-1,958,1821,0,0
-259,-797,0,0,0,0,0,0,0,0,0,-1,965,1821,0,0
-252,-797,0,0,0,0,0,0,0,0,0,-1,972,1821,0,0
-245,-797,0,0,0,0,0,0,0,0,0,-1,979,1821,0,0
-238,-797,0,0,0,0,0,0,0,0,0,-1,986,1821,0,0
-231,-797,0,0,0,0,0,0,0,0,0,-1,993,1821,0,0
-224,-797,0,0,0,0,0,0,0,0,0,-1,1000,1821,0,0
-217,-797,0,0,0,0,0,0,0,0,0,-1,1007,1821,0,0
-210,-797,0,0,0,0,0,0,0,0,0,-1,1014,1821,0,0
-203,-797,0,0,0,0,0,0,0,0,0,-1,1021,1821,0,0
-196,-797,0,0,0,0,0,0,0,0,0,-1,1028,1821,0,0
-189,-797,0,0,0,0,0,0,0,0,0,-1,1035,1821,0,0
-182,-797,0,0,0,0,0,0,0,0,0,-1,1042,1821,0,0
-175,-797,0,0,0,0,0,0,0,0,0,-1,1049,1821,0,0
-168,-797,0,0,0,0,0,0,0,0,0,-1,1056,1821,0,0
-161,-797,0,0,0,0,0,0,0,0,0,-1,1063,1821,0,0
-154,-797,0,0,0,0,0,0,0,0,0,-1,1070,1821,0,0
-147,-797,0,0,0,0,0,0,0,0,0,-1,1077,1821,0,0
-140,-797,0,0,0,0,0,0,0,0,0,-1,1084,1821,0,0
-133,-797,0,0,0,0,0,0,0,0,0,-1,1091,1821,0,0
-126,-797,0,0,0,0,0,0,0,0,0,-1,1098,1821,0,0
-119,-797,0,0,0,0,0,0,0,0,0,-1,1105,1821,0,0
-112,-797,0,0,0,0,0,0,0,0,0,-1,1112,1821,0,0
-105,-797,0,0,0,0,0,0,0,0,0,-1,1119,1821,0,0
-98,-797,0,0,0,0,0,0,0,0,0,-1,1126,1821,0,0
-91,-797,0,0,0,0,0,0,0,0,0,-1,1133,1821,0,0
-84,-797,0,0,0,0,0,0,0,0,0,-1,1140,1821,0,0
-77,-797,0,0,0,0,0,0,0,0,0,-1,1147,1821,0,0
-70,-797,0,0,0,0,0,0,0,0,0,-1,1154,1821,0,0
-63,-797,0,0,0,0,0,0,0,0,0,-1,1161,1821,0,0
-56,-797,0,0,0,0,0,0,0,0,0,-1,1168,1821,0,0
-49,-797,0,0,0,0,0,0,0,0,0,-1,1175,1821,0,0
-42,-797,0.579834,0.692871,0,0,0,0,0,0,0,-1,1182,1821,0.579856,-0.692816
-35,-797,-0.185425,5.55396,0,0,0,0,0,0,0,-1,1189,1821,-0.18542,-5.55396
-28,-797,-0.310181,4.71509,0,0,0,0,0,0,0,-1,1196,1821,-0.310228,-4.71503
-21,-797,6.22522,29.062,0,0,0,0,0,0,0,-1,1203,1821,6.22523,-29.062
-14,-797,2.98376,39.1731,0,0,0,0,0,0,0,-1,1210,1821,2.98382,-39.173
-7,-797,3.52551,38.0029,0,0,0,0,0,0,0,-1,1217,1821,3.52553,-38.0029
0,-797,4.31543,37.3457,0,0,0,0,0,0,0,-1,1224,1821,4.31538,-37.3457
7,-797,0.0683594,48.7567,0,0,0,0,0,0,0,-1,1231,1821,0.0683785,-48.7568
14,-797,1.62488,47.485,0,0,0,0,0,0,0,-1,1238,1821,1.62492,-47.485
21,-797,3.20166,46.5458,0,0,0,0,0,0,0,-1,1245,1821,3.20167,-46.5457
28,-797,4.33289,45.2902,0,0,0,0,0,0,0,-1,1252,1821,4.33284,-45.2901
35,-797,5.43066,44.0464,0,0,0,0,0,0,0,-1,1259,1821,5.43067,-44.0464
42,-797,7.28918,42.2852,0,0,0,0,0,0,0,-1,1266,1821,7.28915,-42.2851
49,-797,7.9491,40.7604,0,0,0,0,0,0,0,-1,1273,1821,7.94912,-40.7603
56,-797,8.62988,39.9232,0,0,0,0,0,0,0,-1,1280,1821,8.62984,-39.9232
63,-797,9.6543,36.1019,0,0,0,0,0,0,0,-1,1287,1821,9.65436,-36.1019
70,-797,9.18018,36.515,-0.0138919,-0.00458985,-0.0728965,0.0638038,-0.0822856,-0.817257,0.0845695,0.04308,1294,1821,9.18012,-36.515
77,-797,9.03381,35.4216,-0.0192164,-0.00560981,-0.0715446,0.0594542,-0.0842805,-0.832802,0.0833969,0.043182,1301,1821,9.03387,-35.4216
84,-797,8.67395,35.5137,0,0,0,0,0,0,0,-1,1308,1821,8.67393,-35.5137
91,-797,8.70386,35.0291,-0.0391242,-0.00865324,-0.0668666,0.0446916,-0.0924691,-0.89741,0.0807753,0.0477442,1315,1821,8.70382,-35.029
98,-797,8.74146,34.5242,-0.0534583,-0.0100313,-0.0631308,0.0350158,-0.0985054,-0.951033,0.0799407,0.0468602,1322,1821,8.74149,-34.5241
105,-797,8.7467,34.0774,0,0,0,0,0,0,0,-1,1329,1821,8.74673,-34.0774
112,-797,6.56299,34.6149,-0.0896587,-0.0120037,-0.0525606,0.0145155,-0.116178,-1.10352,0.0827161,0.0432555,1336,1821,6.56301,-34.6149
119,-797,4.97852,34.3269,-0.110784,-0.0119037,-0.0455069,0.00585141,-0.128539,-1.1988,0.0877083,0.0422536,1343,1821,4.97849,-34.3269
126,-797,3.14514,33.8641,0,0,0,0,0,0,0,-1,1350,1821,3.14512,-33.8641
133,-797,1.48999,33.3485,0,0,0,0,0,0,0,-1,1357,1821,1.48998,-33.3486
140,-797,5.70447,34.9968,0,0,0,0,0,0,0,-1,1364,1821,5.70443,-34.9968
147,-797,6.39868,35.2681,0,0,0,0,0,0,0,-1,1371,1821,6.39869,-35.268
154,-797,37.9336,8.93274,0,0,0,0,0,0,0,-1,1378,1821,37.9336,-8.93275
161,-797,39.0011,8.83545,0,0,0,0,0,0,0,-1,1385,1821,39.0011,-8.8354
168,-797,0,0,0,0,0,0,0,0,0,-1,1392,1821,0,0
175,-797,0,0,0,0,0,0,0,0,0,-1,1399,1821,0,0
182,-797,0,0,0,0,0,0,0,0,0,-1,1406,1821,0,0
189,-797,0,0,0,0,0,0,0,0,0,-1,1413,1821,0,0
196,-797,0,0,0,0,0,0,0,0,0,-1,1420,1821,0,0
203,-797,0,0,0,0,0,0,0,0,0,-1,1427,1821,0,0
210,-797,0,0,0,0,0,0,0,0,0,-1,1434,1821,0,0
217,-797,0,0,0,0,0,0,0,0,0,-1,1441,1821,0,0
224,-797,0,0,0,0,0,0,0,0,0,-1,1448,1821,0,0
231,-797,0,0,0,0,0,0,0,0,0,-1,1455,1821,0,0
238,-797,0,0,0,0,0,0,0,0,0,-1,1462,1821,0,0
245,-797,0,0,0,0,0,0,0,0,0,-1,1469,1821,0,0
252,-797,0,0,0,0,0,0,0,0,0,-1,1476,1821,0,0
259,-797,0,0,0,0,0,0,0,0,0,-1,1483,1821,0,0
266,-797,0,0,0,0,0,0,0,0,0,-1,1490,1821,0,0
273,-797,0,0,0,0,0,0,0,0,0,-1,1497,1821,0,0
280,-797,0,0,0,0,0,0,0,0,0,-1,1504,1821,0,0
287,-797,0,0,0,0,0,0,0,0,0,-1,1511,1821,0,0
294,-797,0,0,0,0,0,0,0,0,0,-1,1518,1821,0,0
301,-797,0,0,0,0,0,0,0,0,0,-1,1525,1821,0,0
308,-797,0,0,0,0,0,0,0,0,0,-1,1532,1821,0,0
315,-797,0,0,0,0,0,0,0,0,0,-1,1539,1821,0,0
322,-797,0,0,0,0,0,0,0,0,0,-1,1546,1821,0,0
329,-797,0,0,0,0,0,0,0,0,0,-1,1553,1821,0,0
336,-797,0,0,0,0,0,0,0,0,0,-1,1560,1821,0,0
343,-797,0,0,0,0,0,0,0,0,0,-1,1567,1821,0,0
350,-797,0,0,0,0,0,0,0,0,0,-1,1574,1821,0,0
357,-797,0,0,0,0,0,0,0,0,0,-1,1581,1821,0,0
364,-797,0,0,0,0,0,0,0,0,0,-1,1588,1821,0,0
371,-797,0,0,0,0,0,0,0,0,0,-1,1595,1821,0,0
378,-797,0,0,0,0,0,0,0,0,0,-1,1602,1821,0,0
385,-797,0,0,0,0,0,0,0,0,0,-1,1609,1821,0,0
392,-797,0,0,0,0,0,0,0,0,0,-1,1616,1821,0,0
399,-797,0,0,0,0,0,0,0,0,0,-1,1623,1821,0,0
406,-797,0,0,0,0,0,0,0,0,0,-1,1630,1821,0,0
413,-797,0,0,0,0,0,0,0,0,0,-1,1637,1821,0,0
420,-797,0,0,0,0,0,0,0,0,0,-1,1644,1821,0,0
427,-797,0,0,0,0,0,0,0,0,0,-1,1651,1821,0,0
434,-797,0,0,0,0,0,0,0,0,0,-1,1658,1821,0,0
441,-797,0,0,0,0,0,0,0,0,0,-1,1665,1821,0,0
448,-797,0,0,0,0,0,0,0,0,0,-1,1672,1821,0,0
455,-797,0,0,0,0,0,0,0,0,0,-1,1679,1821,0,0
462,-797,0,0,0,0,0,0,0,0,0,-1,1686,1821,0,0
469,-797,0,0,0,0,0,0,0,0,0,-1,1693,1821,0,0
476,-797,0,0,0,0,0,0,0,0,0,-1,1700,1821,0,0
483,-797,0,0,0,0,0,0,0,0,0,-1,1707,1821,0,0
490,-797,0,0,0,0,0,0,0,0,0,-1,1714,1821,0,0
497,-797,0,0,0,0,0,0,0,0,0,-1,1721,1821,0,0
504,-797,0,0,0,0,0,0,0,0,0,-1,1728,1821,0,0
511,-797,0,0,0,0,0,0,0,0,0,-1,1735,1821,0,0
518,-797,0,0,0,0,0,0,0,0,0,-1,1742,1821,0,0
525,-797,0,0,0,0,0,0,0,0,0,-1,1749,1821,0,0
532,-797,0,0,0,0,0,0,0,0,0,-1,1756,1821,0,0
539,-797,0,0,0,0,0,0,0,0,0,-1,1763,1821,0,0
546,-797,0,0,0,0,0,0,0,0,0,-1,1770,1821,0,0
553,-797,0,0,0,0,0,0,0,0,0,-1,1777,1821,0,0
560,-797,0,0,0,0,0,0,0,0,0,-1,1784,1821,0,0
567,-797,0,0,0,0,0,0,0,0,0,-1,1791,1821,0,0
574,-797,0,0,0,0,0,0,0,0,0,-1,1798,1821,0,0
581,-797,0,0,0,0,0,0,0,0,0,-1,1805,1821,0,0
588,-797,0,0,0,0,0,0,0,0,0,-1,1812,1821,0,0
595,-797,0,0,0,0,0,0,0,0,0,-1,1819,1821,0,0
602,-797,0,0,0,0,0,0,0,0,0,-1,1826,1821,0,0
609,-797,0,0,0,0,0,0,0,0,0,-1,1833,1821,0,0
616,-797,0,0,0,0,0,0,0,0,0,-1,1840,1821,0,0
623,-797,0,0,0,0,0,0,0,0,0,-1,1847,1821,0,0
630,-797,0,0,0,0,0,0,0,0,0,-1,1854,1821,0,0
637,-797,0,0,0,0,0,0,0,0,0,-1,1861,1821,0,0
644,-797,0,0,0,0,0,0,0,0,0,-1,1868,1821,0,0
651,-797,0,0,0,0,0,0,0,0,0,-1,1875,1821,0,0
658,-797,0,0,0,0,0,0,0,0,0,-1,1882,1821,0,0
665,-797,0,0,0,0,0,0,0,0,0,-1,1889,1821,0,0
672,-797,0,0,0,0,0,0,0,0,0,-1,1896,1821,0,0
679,-797,0,0,0,0,0,0,0,0,0,-1,1903,1821,0,0
686,-797,0,0,0,0,0,0,0,0,0,-1,1910,1821,0,0
693,-797,0,0,0,0,0,0,0,0,0,-1,1917,1821,0,0
700,-797,0,0,0,0,0,0,0,0,0,-1,1924,1821,0,0
707,-797,0,0,0,0,0,0,0,0,0,-1,1931,1821,0,0
714,-797,0,0,0,0,0,0,0,0,0,-1,1938,1821,0,0
721,-797,0,0,0,0,0,0,0,0,0,-1,1945,1821,0,0
728,-797,0,0,0,0,0,0,0,0,0,-1,1952,1821,0,0
735,-797,0,0,0,0,0,0,0,0,0,-1,1959,1821,0,0
742,-797,0,0,0,0,0,0,0,0,0,-1,1966,1821,0,0
749,-797,0,0,0,0,0,0,0,0,0,-1,1973,1821,0,0
756,-797,0,0,0,0,0,0,0,0,0,-1,1980,1821,0,0
763,-797,0,0,0,0,0,0,0,0,0,-1,1987,1821,0,0
770,-797,0,0,0,0,0,0,0,0,0,-1,1994,1821,0,0
777,-797,0,0,0,0,0,0,0,0,0,-1,2001,1821,0,0
784,-797,0,0,0,0,0,0,0,0,0,-1,2008,1821,0,0
791,-797,0,0,0,0,0,0,0,0,0,-1,2015,1821,0,0
798,-797,0,0,0,0,0,0,0,0,0,-1,2022,1821,0,0
805,-797,0,0,0,0,0,0,0,0,0,-1,2029,1821,0,0
812,-797,0,0,0,0,0,0,0,0,0,-1,2036,1821,0,0
-700,-804,0,0,0,0,0,0,0,0,0,-1,524,1828,0,0
-693,-804,0,0,0,0,0,0,0,0,0,-1,531,1828,0,0
-686,-804,0,0,0,0,0,0,0,0,0,-1,538,1828,0,0
-679,-804,0,0,0,0,0,0,0,0,0,-1,545,1828,0,0
-672,-804,0,0,0,0,0,0,0,0,0,-1,552,1828,0,0
-665,-804,0,0,0,0,0,0,0,0,0,-1,559,1828,0,0
-658,-804,0,0,0,0,0,0,0,0,0,-1,566,1828,0,0
-651,-804,0,0,0,0,0,0,0,0,0,-1,573,1828,0,0
-644,-804,0,0,0,0,0,0,0,0,0,-1,580,1828,0,0
-637,-804,0,0,0,0,0,0,0,0,0,-1,587,1828,0,0
-630,-804,0,0,0,0,0,0,0,0,0,-1,594,1828,0,0
-623,-804,0,0,0,0,0,0,0,0,0,-1,601,1828,0,0
-616,-804,0,0,0,0,0,0,0,0,0,-1,608,1828,0,0
-609,-804,0,0,0,0,0,0,0,0,0,-1,615,1828,0,0
-602,-804,0,0,0,0,0,0,0,0,0,-1,622,1828,0,0
-595,-804,0,0,0,0,0,0,0,0,0,-1,629,1828,0,0
-588,-804,0,0,0,0,0,0,0,0,0,-1,636,1828,0,0
-581,-804,0,0,0,0,0,0,0,0,0,-1,643,1828,0,0
-574,-804,0,0,0,0,0,0,0,0,0,-1,650,1828,0,0
-567,-804,0,0,0,0,0,0,0,0,0,-1,657,1828,0,0
-560,-804,0,0,0,0,0,0,0,0,0,-1,664,1828,0,0
-553,-804,0,0,0,0,0,0,0,0,0,-1,671,1828,0,0
-546,-804,0,0,0,0,0,0,0,0,0,-1,678,1828,0,0
-539,-804,0,0,0,0,0,0,0,0,0,-1,685,1828,0,0
-532,-804,0,0,0,0,0,0,0,0,0,-1,692,1828,0,0
-525,-804,0,0,0,0,0,0,0,0,0,-1,699,1828,0,0
-518,-804,0,0,0,0,0,0,0,0,0,-1,706,1828,0,0
-511,-804,0,0,0,0,0,0,0,0,0,-1,713,1828,0,0
-504,-804,0,0,0,0,0,0,0,0,0,-1,720,1828,0,0
-497,-804,0,0,0,0,0,0,0,0,0,-1,727,1828,0,0
-490,-804,0,0,0,0,0,0,0,0,0,-1,734,1828,0,0
-483,-804,0,0,0,0,0,0,0,0,0,-1,741,1828,0,0
-476,-804,0,0,0,0,0,0,0,0,0,-1,748,1828,0,0
-469,-804,0,0,0,0,0,0,0,0,0,-1,755,1828,0,0
-462,-804,0,0,0,0,0,0,0,0,0,-1,762,1828,0,0
-455,-804,0,0,0,0,0,0,0,0,0,-1,769,1828,0,0
-448,-804,0,0,0,0,0,0,0,0,0,-1,776,1828,0,0
-441,-804,0,0,0,0,0,0,0,0,0,-1,783,1828,0,0
-434,-804,0,0,0,0,0,0,0,0,0,-1,790,1828,0,0
-427,-804,0,0,0,0,0,0,0,0,0,-1,797,1828,0,0
-420,-804,0,0,0,0,0,0,0,0,0,-1,804,1828,0,0
-413,-804,0,0,0,0,0,0,0,0,0,-1,811,1828,0,0
-406,-804,0,0,0,0,0,0,0,0,0,-1,818,1828,0,0
-399,-804,0,0,0,0,0,0,0,0,0,-1,825,1828,0,0
-392,-804,0,0,0,0,0,0,0,0,0,-1,832,1828,0,0
-385,-804,0,0,0,0,0,0,0,0,0,-1,839,1828,0,0
-378,-804,0,0,0,0,0,0,0,0,0,-1,846,1828,0,0
-371,-804,0,0,0,0,0,0,0,0,0,-1,853,1828,0,0
-364,-804,0,0,0,0,0,0,0,0,0,-1,860,1828,0,0
-357,-804,0,0,0,0,0,0,0,0,0,-1,867,1828,0,0
-350,-804,0,0,0,0,0,0,0,0,0,-1,874,1828,0,0
-343,-804,0,0,0,0,0,0,0,0,0,-1,881,1828,0,0
-336,-804,0,0,0,0,0,0,0,0,0,-1,888,1828,0,0
-329,-804,0,0,0,0,0,0,0,0,0,-1,895,1828,0,0
-322,-804,0,0,0,0,0,0,0,0,0,-1,902,1828,0,0
-315,-804,0,0,0,0,0,0,0,0,0,-1,909,1828,0,0
-308,-804,0,0,0,0,0,0,0,0,0,-1,916,1828,0,0
-301,-804,0,0,0,0,0,0,0,0,0,-1,923,1828,0,0
-294,-804,0,0,0,0,0,0,0,0,0,-1,930,1828,0,0
-287,-804,0,0,0,0,0,0,0,0,0,-1,937,1828,0,0
-280,-804,0,0,0,0,0,0,0,0,0,-1,944,1828,0,0
-273,-804,0,0,0,0,0,0,0,0,0,-1,951,1828,0,0
-266,-804,0,0,0,0,0,0,0,0,0,-1,958,1828,0,0
-259,-804,0,0,0,0,0,0,0,0,0,-1,965,1828,0,0
-252,-804,0,0,0,0,0,0,0,0,0,-1,972,1828,0,0
-245,-804,0,0,0,0,0,0,0,0,0,-1,979,1828,0,0
-238,-804,0,0,0,0,0,0,0,0,0,-1,986,1828,0,0
-231,-804,0,0,0,0,0,0,0,0,0,-1,993,1828,0,0
-224,-804,0,0,0,0,0,0,0,0,0,-1,1000,1828,0,0
-217,-804,0,0,0,0,0,0,0,0,0,-1,1007,1828,0,0
-210,-804,0,0,0,0,0,0,0,0,0,-1,1014,1828,0,0
-203,-804,0,0,0,0,0,0,0,0,0,-1,1021,1828,0,0
-196,-804,0,0,0,0,0,0,0,0,0,-1,1028,1828,0,0
-189,-804,0,0,0,0,0,0,0,0,0,-1,1035,1828,0,0
-182,-804,0,0,0,0,0,0,0,0,0,-1,1042,1828,0,0
-175,-804,0,0,0,0,0,0,0,0,0,-1,1049,1828,0,0
-168,-804,0,0,0,0,0,0,0,0,0,-1,1056,1828,0,0
-161,-804,0,0,0,0,0,0,0,0,0,-1,1063,1828,0,0
-154,-804,0,0,0,0,0,0,0,0,0,-1,1070,1828,0,0
-147,-804,0,0,0,0,0,0,0,0,0,-1,1077,1828,0,0
-140,-804,0,0,0,0,0,0,0,0,0,-1,1084,1828,0,0
-133,-804,0,0,0,0,0,0,0,0,0,-1,1091,1828,0,0
-126,-804,0,0,0,0,0,0,0,0,0,-1,1098,1828,0,0
-119,-804,0,0,0,0,0,0,0,0,0,-1,1105,1828,0,0
-112,-804,0,0,0,0,0,0,0,0,0,-1,1112,1828,0,0
-105,-804,0,0,0,0,0,0,0,0,0,-1,1119,1828,0,0
-98,-804,0,0,0,0,0,0,0,0,0,-1,1126,1828,0,0
-91,-804,0,0,0,0,0,0,0,0,0,-1,1133,1828,0,0
-84,-804,0,0,0,0,0,0,0,0,0,-1,1140,1828,0,0
-77,-804,0,0,0,0,0,0,0,0,0,-1,1147,1828,0,0
-70,-804,0,0,0,0,0,0,0,0,0,-1,1154,1828,0,0
-63,-804,0,0,0,0,0,0,0,0,0,-1,1161,1828,0,0
-56,-804,0,0,0,0,0,0,0,0,0,-1,1168,1828,0,0
-49,-804,0,0,0,0,0,0,0,0,0,-1,1175,1828,0,0
-42,-804,0,0,0,0,0,0,0,0,0,-1,1182,1828,0,0
-35,-804,0,0,0,0,0,0,0,0,0,-1,1189,1828,0,0
-28,-804,0,0,0,0,0,0,0,0,0,-1,1196,1828,0,0
-21,-804,0,0,0,0,0,0,0,0,0,-1,1203,1828,0,0
-14,-804,0,0,0,0,0,0,0,0,0,-1,1210,1828,0,0
-7,-804,0,0,0,0,0,0,0,0,0,-1,1217,1828,0,0
0,-804,0,0,0,0,0,0,0,0,0,-1,1224,1828,0,0
7,-804,0,0,0,0,0,0,0,0,0,-1,1231,1828,0,0
14,-804,0,0,0,0,0,0,0,0,0,-1,1238,1828,0,0
21,-804,0,0,0,0,0,0,0,0,0,-1,1245,1828,0,0
28,-804,0,0,0,0,0,0,0,0,0,-1,1252,1828,0,0
35,-804,6.3595,43.9788,0,0,0,0,0,0,0,-1,1259,1828,6.35951,-43.9788
42,-804,7.59753,42.3296,0,0,0,0,0,0,0,-1,1266,1828,7.59752,-42.3296
49,-804,8.2301,40.7401,0,0,0,0,0,0,0,-1,1273,1828,8.2301,-40.7401
56,-804,8.79639,39.2505,0,0,0,0,0,0,0,-1,1280,1828,8.79637,-39.2505
63,-804,9.10254,37.9471,0,0,0,0,0,0,0,-1,1287,1828,9.10259,-37.9471
70,-804,9.38928,36.5707,-0.0184545,-0.00459246,-0.0917395,0.0804774,-0.103524,-0.823102,0.106511,0.0463528,1294,1828,9.38931,-36.5707
77,-804,9.38916,35.4269,-0.026361,-0.00641353,-0.0890779,0.0732472,-0.106022,-0.841149,0.104076,0.0454764,1301,1828,9.38918,-35.4269
84,-804,9.17639,35.0865,0,0,0,0,0,0,0,-1,1308,1828,9.17637,-35.0865
91,-804,0,0,0,0,0,0,0,0,0,-1,1315,1828,0,0
98,-804,0,0,0,0,0,0,0,0,0,-1,1322,1828,0,0
105,-804,0,0,0,0,0,0,0,0,0,-1,1329,1828,0,0
112,-804,0,0,0,0,0,0,0,0,0,-1,1336,1828,0,0
119,-804,0,0,0,0,0,0,0,0,0,-1,1343,1828,0,0
126,-804,0,0,0,0,0,0,0,0,0,-1,1350,1828,0,0
133,-804,0,0,0,0,0,0,0,0,0,-1,1357,1828,0,0
140,-804,0,0,0,0,0,0,0,0,0,-1,1364,1828,0,0
147,-804,0,0,0,0,0,0,0,0,0,-1,1371,1828,0,0
154,-804,0,0,0,0,0,0,0,0,0,-1,1378,1828,0,0
161,-804,0,0,0,0,0,0,0,0,0,-1,1385,1828,0,0
168,-804,0,0,0,0,0,0,0,0,0,-1,1392,1828,0,0
175,-804,0,0,0,0,0,0,0,0,0,-1,1399,1828,0,0
182,-804,0,0,0,0,0,0,0,0,0,-1,1406,1828,0,0
189,-804,0,0,0,0,0,0,0,0,0,-1,1413,1828,0,0
196,-804,0,0,0,0,0,0,0,0,0,-1,1420,1828,0,0
203,-804,0,0,0,0,0,0,0,0,0,-1,1427,1828,0,0
210,-804,0,0,0,0,0,0,0,0,0,-1,1434,1828,0,0
217,-804,0,0,0,0,0,0,0,0,0,-1,1441,1828,0,0
224,-804,0,0,0,0,0,0,0,0,0,-1,1448,1828,0,0
231,-804,0,0,0,0,0,0,0,0,0,-1,1455,1828,0,0
238,-804,0,0,0,0,0,0,0,0,0,-1,1462,1828,0,0
245,-804,0,0,0,0,0,0,0,0,0,-1,1469,1828,0,0
252,-804,0,0,0,0,0,0,0,0,0,-1,1476,1828,0,0
259,-804,0,0,0,0,0,0,0,0,0,-1,1483,1828,0,0
266,-804,0,0,0,0,0,0,0,0,0,-1,1490,1828,0,0
273,-804,0,0,0,0,0,0,0,0,0,-1,1497,1828,0,0
280,-804,0,0,0,0,0,0,0,0,0,-1,1504,1828,0,0
287,-804,0,0,0,0,0,0,0,0,0,-1,1511,1828,0,0
294,-804,0,0,0,0,0,0,0,0,0,-1,1518,1828,0,0
301,-804,0,0,0,0,0,0,0,0,0,-1,1525,1828,0,0
308,-804,0,0,0,0,0,0,0,0,0,-1,1532,1828,0,0
315,-804,0,0,0,0,0,0,0,0,0,-1,1539,1828,0,0
322,-804,0,0,0,0,0,0,0,0,0,-1,1546,1828,0,0
329,-804,0,0,0,0,0,0,0,0,0,-1,1553,1828,0,0
336,-804,0,0,0,0,0,0,0,0,0,-1,1560,1828,0,0
343,-804,0,0,0,0,0,0,0,0,0,-1,1567,1828,0,0
350,-804,0,0,0,0,0,0,0,0,0,-1,1574,1828,0,0
357,-804,0,0,0,0,0,0,0,0,0,-1,1581,1828,0,0
364,-804,0,0,0,0,0,0,0,0,0,-1,1588,1828,0,0
371,-804,0,0,0,0,0,0,0,0,0,-1,1595,1828,0,0
378,-804,0,0,0,0,0,0,0,0,0,-1,1602,1828,0,0
385,-804,0,0,0,0,0,0,0,0,0,-1,1609,1828,0,0
392,-804,0,0,0,0,0,0,0,0,0,-1,1616,1828,0,0
399,-804,0,0,0,0,0,0,0,0,0,-1,1623,1828,0,0
406,-804,0,0,0,0,0,0,0,0,0,-1,1630,1828,0,0
413,-804,0,0,0,0,0,0,0,0,0,-1,1637,1828,0,0
420,-804,0,0,0,0,0,0,0,0,0,-1,1644,1828,0,0
427,-804,0,0,0,0,0,0,0,0,0,-1,1651,1828,0,0
434,-804,0,0,0,0,0,0,0,0,0,-1,1658,1828,0,0
441,-804,0,0,0,0,0,0,0,0,0,-1,1665,1828,0,0
448,-804,0,0,0,0,0,0,0,0,0,-1,1672,1828,0,0
455,-804,0,0,0,0,0,0,0,0,0,-1,1679,1828,0,0
462,-804,0,0,0,0,0,0,0,0,0,-1,1686,1828,0,0
469,-804,0,0,0,0,0,0,0,0,0,-1,1693,1828,0,0
476,-804,0,0,0,0,0,0,0,0,0,-1,1700,1828,0,0
483,-804,0,0,0,0,0,0,0,0,0,-1,1707,1828,0,0
490,-804,0,0,0,0,0,0,0,0,0,-1,1714,1828,0,0
497,-804,0,0,0,0,0,0,0,0,0,-1,1721,1828,0,0
504,-804,0,0,0,0,0,0,0,0,0,-1,1728,1828,0,0
511,-804,0,0,0,0,0,0,0,0,0,-1,1735,1828,0,0
518,-804,0,0,0,0,0,0,0,0,0,-1,1742,1828,0,0
525,-804,0,0,0,0,0,0,0,0,0,-1,1749,1828,0,0
532,-804,0,0,0,0,0,0,0,0,0,-1,1756,1828,0,0
539,-804,0,0,0,0,0,0,0,0,0,-1,1763,1828,0,0
546,-804,0,0,0,0,0,0,0,0,0,-1,1770,1828,0,0
553,-804,0,0,0,0,0,0,0,0,0,-1,1777,1828,0,0
560,-804,0,0,0,0,0,0,0,0,0,-1,1784,1828,0,0
567,-804,0,0,0,0,0,0,0,0,0,-1,1791,1828,0,0
574,-804,0,0,0,0,0,0,0,0,0,-1,1798,1828,0,0
581,-804,0,0,0,0,0,0,0,0,0,-1,1805,1828,0,0
588,-804,0,0,0,0,0,0,0,0,0,-1,1812,1828,0,0
595,-804,0,0,0,0,0,0,0,0,0,-1,1819,1828,0,0
602,-804,0,0,0,0,0,0,0,0,0,-1,1826,1828,0,0
609,-804,0,0,0,0,0,0,0,0,0,-1,1833,1828,0,0
616,-804,0,0,0,0,0,0,0,0,0,-1,1840,1828,0,0
623,-804,0,0,0,0,0,0,0,0,0,-1,1847,1828,0,0
630,-804,0,0,0,0,0,0,0,0,0,-1,1854,1828,0,0
637,-804,0,0,0,0,0,0,0,0,0,-1,1861,1828,0,0
644,-804,0,0,0,0,0,0,0,0,0,-1,1868,1828,0,0
651,-804,0,0,0,0,0,0,0,0,0,-1,1875,1828,0,0
658,-804,0,0,0,0,0,0,0,0,0,-1,1882,1828,0,0
665,-804,0,0,0,0,0,0,0,0,0,-1,1889,1828,0,0
672,-804,0,0,0,0,0,0,0,0,0,-1,1896,1828,0,0
679,-804,0,0,0,0,0,0,0,0,0,-1,1903,1828,0,0
686,-804,0,0,0,0,0,0,0,0,0,-1,1910,1828,0,0
693,-804,0,0,0,0,0,0,0,0,0,-1,1917,1828,0,0
700,-804,0,0,0,0,0,0,0,0,0,-1,1924,1828,0,0
707,-804,0,0,0,0,0,0,0,0,0,-1,1931,1828,0,0
714,-804,0,0,0,0,0,0,0,0,0,-1,1938,1828,0,0
721,-804,0,0,0,0,0,0,0,0,0,-1,1945,1828,0,0
728,-804,0,0,0,0,0,0,0,0,0,-1,1952,1828,0,0
735,-804,0,0,0,0,0,0,0,0,0,-1,1959,1828,0,0
742,-804,0,0,0,0,0,0,0,0,0,-1,1966,1828,0,0
749,-804,0,0,0,0,0,0,0,0,0,-1,1973,1828,0,0
756,-804,0,0,0,0,0,0,0,0,0,-1,1980,1828,0,0
763,-804,0,0,0,0,0,0,0,0,0,-1,1987,1828,0,0
770,-804,0,0,0,0,0,0,0,0,0,-1,1994,1828,0,0
777,-804,0,0,0,0,0,0,0,0,0,-1,2001,1828,0,0
784,-804,0,0,0,0,0,0,0,0,0,-1,2008,1828,0,0
791,-804,0,0,0,0,0,0,0,0,0,-1,2015,1828,0,0
798,-804,0,0,0,0,0,0,0,0,0,-1,2022,1828,0,0
805,-804,0,0,0,0,0,0,0,0,0,-1,2029,1828,0,0
812,-804,0,0,0,0,0,0,0,0,0,-1,2036,1828,0,0

