 "x_c",  "y_c",  "u_c",  "v_c",  "exx",  "eyy",  "exy",  "e1",  "e2",  "gamma",  "e_vonmises",  "sigma",  "x",  "y",  "u",  "v"
-700,715,0,0,0,0,0,0,0,0,0,-1,524,309,0,0
-693,715,0,0,0,0,0,0,0,0,0,-1,531,309,0,0
-686,715,0,0,0,0,0,0,0,0,0,-1,538,309,0,0
-679,715,0,0,0,0,0,0,0,0,0,-1,545,309,0,0
-672,715,0,0,0,0,0,0,0,0,0,-1,552,309,0,0
-665,715,0,0,0,0,0,0,0,0,0,-1,559,309,0,0
-658,715,0,0,0,0,0,0,0,0,0,-1,566,309,0,0
-651,715,0,0,0,0,0,0,0,0,0,-1,573,309,0,0
-644,715,0,0,0,0,0,0,0,0,0,-1,580,309,0,0
-637,715,0,0,0,0,0,0,0,0,0,-1,587,309,0,0
-630,715,0,0,0,0,0,0,0,0,0,-1,594,309,0,0
-623,715,0,0,0,0,0,0,0,0,0,-1,601,309,0,0
-616,715,0,0,0,0,0,0,0,0,0,-1,608,309,0,0
-609,715,0,0,0,0,0,0,0,0,0,-1,615,309,0,0
-602,715,0,0,0,0,0,0,0,0,0,-1,622,309,0,0
-595,715,0,0,0,0,0,0,0,0,0,-1,629,309,0,0
-588,715,0,0,0,0,0,0,0,0,0,-1,636,309,0,0
-581,715,0,0,0,0,0,0,0,0,0,-1,643,309,0,0
-574,715,0,0,0,0,0,0,0,0,0,-1,650,309,0,0
-567,715,0,0,0,0,0,0,0,0,0,-1,657,309,0,0
-560,715,0,0,0,0,0,0,0,0,0,-1,664,309,0,0
-553,715,0,0,0,0,0,0,0,0,0,-1,671,309,0,0
-546,715,0,0,0,0,0,0,0,0,0,-1,678,309,0,0
-539,715,0,0,0,0,0,0,0,0,0,-1,685,309,0,0
-532,715,0,0,0,0,0,0,0,0,0,-1,692,309,0,0
-525,715,0,0,0,0,0,0,0,0,0,-1,699,309,0,0
-518,715,0,0,0,0,0,0,0,0,0,-1,706,309,0,0
-511,715,0,0,0,0,0,0,0,0,0,-1,713,309,0,0
-504,715,0,0,0,0,0,0,0,0,0,-1,720,309,0,0
-497,715,0,0,0,0,0,0,0,0,0,-1,727,309,0,0
-490,715,0,0,0,0,0,0,0,0,0,-1,734,309,0,0
-483,715,0,0,0,0,0,0,0,0,0,-1,741,309,0,0
-476,715,0,0,0,0,0,0,0,0,0,-1,748,309,0,0
-469,715,0,0,0,0,0,0,0,0,0,-1,755,309,0,0
-462,715,0,0,0,0,0,0,0,0,0,-1,762,309,0,0
-455,715,0,0,0,0,0,0,0,0,0,-1,769,309,0,0
-448,715,0,0,0,0,0,0,0,0,0,-1,776,309,0,0
-441,715,0,0,0,0,0,0,0,0,0,-1,783,309,0,0
-434,715,0,0,0,0,0,0,0,0,0,-1,790,309,0,0
-427,715,0,0,0,0,0,0,0,0,0,-1,797,309,0,0
-420,715,0,0,0,0,0,0,0,0,0,-1,804,309,0,0
-413,715,0,0,0,0,0,0,0,0,0,-1,811,309,0,0
-406,715,0,0,0,0,0,0,0,0,0,-1,818,309,0,0
-399,715,0,0,0,0,0,0,0,0,0,-1,825,309,0,0
-392,715,0,0,0,0,0,0,0,0,0,-1,832,309,0,0
-385,715,0,0,0,0,0,0,0,0,0,-1,839,309,0,0
-378,715,0,0,0,0,0,0,0,0,0,-1,846,309,0,0
-371,715,0,0,0,0,0,0,0,0,0,-1,853,309,0,0
-364,715,0,0,0,0,0,0,0,0,0,-1,860,309,0,0
-357,715,0,0,0,0,0,0,0,0,0,-1,867,309,0,0
-350,715,0,0,0,0,0,0,0,0,0,-1,874,309,0,0
-343,715,0,0,0,0,0,0,0,0,0,-1,881,309,0,0
-336,715,0,0,0,0,0,0,0,0,0,-1,888,309,0,0
-329,715,0,0,0,0,0,0,0,0,0,-1,895,309,0,0
-322,715,0,0,0,0,0,0,0,0,0,-1,902,309,0,0
-315,715,0,0,0,0,0,0,0,0,0,-1,909,309,0,0
-308,715,0,0,0,0,0,0,0,0,0,-1,916,309,0,0
-301,715,0,0,0,0,0,0,0,0,0,-1,923,309,0,0
-294,715,0,0,0,0,0,0,0,0,0,-1,930,309,0,0
-287,715,0,0,0,0,0,0,0,0,0,-1,937,309,0,0
-280,715,0,0,0,0,0,0,0,0,0,-1,944,309,0,0
-273,715,0,0,0,0,0,0,0,0,0,-1,951,309,0,0
-266,715,0,0,0,0,0,0,0,0,0,-1,958,309,0,0
-259,715,0,0,0,0,0,0,0,0,0,-1,965,309,0,0
-252,715,0,0,0,0,0,0,0,0,0,-1,972,309,0,0
-245,715,0,0,0,0,0,0,0,0,0,-1,979,309,0,0
-238,715,0,0,0,0,0,0,0,0,0,-1,986,309,0,0
-231,715,0,0,0,0,0,0,0,0,0,-1,993,309,0,0
-224,715,0,0,0,0,0,0,0,0,0,-1,1000,309,0,0
-217,715,0,0,0,0,0,0,0,0,0,-1,1007,309,0,0
-210,715,0,0,0,0,0,0,0,0,0,-1,1014,309,0,0
-203,715,0,0,0,0,0,0,0,0,0,-1,1021,309,0,0
-196,715,0,0,0,0,0,0,0,0,0,-1,1028,309,0,0
-189,715,0,0,0,0,0,0,0,0,0,-1,1035,309,0,0
-182,715,0,0,0,0,0,0,0,0,0,-1,1042,309,0,0
-175,715,0,0,0,0,0,0,0,0,0,-1,1049,309,0,0
-168,715,0,0,0,0,0,0,0,0,0,-1,1056,309,0,0
-161,715,0,0,0,0,0,0,0,0,0,-1,1063,309,0,0
-154,715,0,0,0,0,0,0,0,0,0,-1,1070,309,0,0
-147,715,0,0,0,0,0,0,0,0,0,-1,1077,309,0,0
-140,715,0,0,0,0,0,0,0,0,0,-1,1084,309,0,0
-133,715,0,0,0,0,0,0,0,0,0,-1,1091,309,0,0
-126,715,0,0,0,0,0,0,0,0,0,-1,1098,309,0,0
-119,715,0,0,0,0,0,0,0,0,0,-1,1105,309,0,0
-112,715,0,0,0,0,0,0,0,0,0,-1,1112,309,0,0
-105,715,0,0,0,0,0,0,0,0,0,-1,1119,309,0,0
-98,715,0,0,0,0,0,0,0,0,0,-1,1126,309,0,0
-91,715,0,0,0,0,0,0,0,0,0,-1,1133,309,0,0
-84,715,0,0,0,0,0,0,0,0,0,-1,1140,309,0,0
-77,715,0,0,0,0,0,0,0,0,0,-1,1147,309,0,0
-70,715,0,0,0,0,0,0,0,0,0,-1,1154,309,0,0
-63,715,0,0,0,0,0,0,0,0,0,-1,1161,309,0,0
-56,715,0,0,0,0,0,0,0,0,0,-1,1168,309,0,0
-49,715,0,0,0,0,0,0,0,0,0,-1,1175,309,0,0
-42,715,0,0,0,0,0,0,0,0,0,-1,1182,309,0,0
-35,715,0,0,0,0,0,0,0,0,0,-1,1189,309,0,0
-28,715,0,0,0,0,0,0,0,0,0,-1,1196,309,0,0
-21,715,0,0,0,0,0,0,0,0,0,-1,1203,309,0,0
-14,715,0,0,0,0,0,0,0,0,0,-1,1210,309,0,0
-7,715,0,0,0,0,0,0,0,0,0,-1,1217,309,0,0
0,715,0,0,0,0,0,0,0,0,0,-1,1224,309,0,0
7,715,0,0,0,0,0,0,0,0,0,-1,1231,309,0,0
14,715,0,0,0,0,0,0,0,0,0,-1,1238,309,0,0
21,715,0,0,0,0,0,0,0,0,0,-1,1245,309,0,0
28,715,0,0,0,0,0,0,0,0,0,-1,1252,309,0,0
35,715,0,0,0,0,0,0,0,0,0,-1,1259,309,0,0
42,715,0,0,0,0,0,0,0,0,0,-1,1266,309,0,0
49,715,0,0,0,0,0,0,0,0,0,-1,1273,309,0,0
56,715,0,0,0,0,0,0,0,0,0,-1,1280,309,0,0
63,715,1.49011,-10.3693,0.0783648,-0.0190337,-0.00651003,0.078798,-0.0194669,-0.0664452,0.0600816,0.0432342,1287,309,1.4901,10.3692
70,715,2.19458,-10.7763,0.0752766,-0.0172742,0.00104068,0.0752883,-0.0172859,0.0112425,0.0568372,0.0435029,1294,309,2.19462,10.7764
77,715,0,0,0,0,0,0,0,0,0,-1,1301,309,0,0
84,715,0,0,0,0,0,0,0,0,0,-1,1308,309,0,0
91,715,0,0,0,0,0,0,0,0,0,-1,1315,309,0,0
98,715,0,0,0,0,0,0,0,0,0,-1,1322,309,0,0
105,715,0,0,0,0,0,0,0,0,0,-1,1329,309,0,0
112,715,0,0,0,0,0,0,0,0,0,-1,1336,309,0,0
119,715,0,0,0,0,0,0,0,0,0,-1,1343,309,0,0
126,715,0,0,0,0,0,0,0,0,0,-1,1350,309,0,0
133,715,0,0,0,0,0,0,0,0,0,-1,1357,309,0,0
140,715,0,0,0,0,0,0,0,0,0,-1,1364,309,0,0
147,715,0,0,0,0,0,0,0,0,0,-1,1371,309,0,0
154,715,0,0,0,0,0,0,0,0,0,-1,1378,309,0,0
161,715,0,0,0,0,0,0,0,0,0,-1,1385,309,0,0
168,715,0,0,0,0,0,0,0,0,0,-1,1392,309,0,0
175,715,0,0,0,0,0,0,0,0,0,-1,1399,309,0,0
182,715,0,0,0,0,0,0,0,0,0,-1,1406,309,0,0
189,715,0,0,0,0,0,0,0,0,0,-1,1413,309,0,0
196,715,0,0,0,0,0,0,0,0,0,-1,1420,309,0,0
203,715,0,0,0,0,0,0,0,0,0,-1,1427,309,0,0
210,715,0,0,0,0,0,0,0,0,0,-1,1434,309,0,0
217,715,0,0,0,0,0,0,0,0,0,-1,1441,309,0,0
224,715,0,0,0,0,0,0,0,0,0,-1,1448,309,0,0
231,715,0,0,0,0,0,0,0,0,0,-1,1455,309,0,0
238,715,0,0,0,0,0,0,0,0,0,-1,1462,309,0,0
245,715,0,0,0,0,0,0,0,0,0,-1,1469,309,0,0
252,715,0,0,0,0,0,0,0,0,0,-1,1476,309,0,0
259,715,0,0,0,0,0,0,0,0,0,-1,1483,309,0,0
266,715,0,0,0,0,0,0,0,0,0,-1,1490,309,0,0
273,715,0,0,0,0,0,0,0,0,0,-1,1497,309,0,0
280,715,0,0,0,0,0,0,0,0,0,-1,1504,309,0,0
287,715,0,0,0,0,0,0,0,0,0,-1,1511,309,0,0
294,715,0,0,0,0,0,0,0,0,0,-1,1518,309,0,0
301,715,0,0,0,0,0,0,0,0,0,-1,1525,309,0,0
308,715,0,0,0,0,0,0,0,0,0,-1,1532,309,0,0
315,715,0,0,0,0,0,0,0,0,0,-1,1539,309,0,0
322,715,0,0,0,0,0,0,0,0,0,-1,1546,309,0,0
329,715,0,0,0,0,0,0,0,0,0,-1,1553,309,0,0
336,715,0,0,0,0,0,0,0,0,0,-1,1560,309,0,0
343,715,0,0,0,0,0,0,0,0,0,-1,1567,309,0,0
350,715,0,0,0,0,0,0,0,0,0,-1,1574,309,0,0
357,715,0,0,0,0,0,0,0,0,0,-1,1581,309,0,0
364,715,0,0,0,0,0,0,0,0,0,-1,1588,309,0,0
371,715,0,0,0,0,0,0,0,0,0,-1,1595,309,0,0
378,715,0,0,0,0,0,0,0,0,0,-1,1602,309,0,0
385,715,0,0,0,0,0,0,0,0,0,-1,1609,309,0,0
392,715,0,0,0,0,0,0,0,0,0,-1,1616,309,0,0
399,715,0,0,0,0,0,0,0,0,0,-1,1623,309,0,0
406,715,0,0,0,0,0,0,0,0,0,-1,1630,309,0,0
413,715,0,0,0,0,0,0,0,0,0,-1,1637,309,0,0
420,715,0,0,0,0,0,0,0,0,0,-1,1644,309,0,0
427,715,0,0,0,0,0,0,0,0,0,-1,1651,309,0,0
434,715,0,0,0,0,0,0,0,0,0,-1,1658,309,0,0
441,715,0,0,0,0,0,0,0,0,0,-1,1665,309,0,0
448,715,0,0,0,0,0,0,0,0,0,-1,1672,309,0,0
455,715,0,0,0,0,0,0,0,0,0,-1,1679,309,0,0
462,715,0,0,0,0,0,0,0,0,0,-1,1686,309,0,0
469,715,0,0,0,0,0,0,0,0,0,-1,1693,309,0,0
476,715,0,0,0,0,0,0,0,0,0,-1,1700,309,0,0
483,715,0,0,0,0,0,0,0,0,0,-1,1707,309,0,0
490,715,0,0,0,0,0,0,0,0,0,-1,1714,309,0,0
497,715,0,0,0,0,0,0,0,0,0,-1,1721,309,0,0
504,715,0,0,0,0,0,0,0,0,0,-1,1728,309,0,0
511,715,0,0,0,0,0,0,0,0,0,-1,1735,309,0,0
518,715,0,0,0,0,0,0,0,0,0,-1,1742,309,0,0
525,715,0,0,0,0,0,0,0,0,0,-1,1749,309,0,0
532,715,0,0,0,0,0,0,0,0,0,-1,1756,309,0,0
539,715,0,0,0,0,0,0,0,0,0,-1,1763,309,0,0
546,715,0,0,0,0,0,0,0,0,0,-1,1770,309,0,0
553,715,0,0,0,0,0,0,0,0,0,-1,1777,309,0,0
560,715,0,0,0,0,0,0,0,0,0,-1,1784,309,0,0
567,715,0,0,0,0,0,0,0,0,0,-1,1791,309,0,0
574,715,0,0,0,0,0,0,0,0,0,-1,1798,309,0,0
581,715,0,0,0,0,0,0,0,0,0,-1,1805,309,0,0
588,715,0,0,0,0,0,0,0,0,0,-1,1812,309,0,0
595,715,0,0,0,0,0,0,0,0,0,-1,1819,309,0,0
602,715,0,0,0,0,0,0,0,0,0,-1,1826,309,0,0
609,715,0,0,0,0,0,0,0,0,0,-1,1833,309,0,0
616,715,0,0,0,0,0,0,0,0,0,-1,1840,309,0,0
623,715,0,0,0,0,0,0,0,0,0,-1,1847,309,0,0
630,715,0,0,0,0,0,0,0,0,0,-1,1854,309,0,0
637,715,0,0,0,0,0,0,0,0,0,-1,1861,309,0,0
644,715,0,0,0,0,0,0,0,0,0,-1,1868,309,0,0
651,715,0,0,0,0,0,0,0,0,0,-1,1875,309,0,0
658,715,0,0,0,0,0,0,0,0,0,-1,1882,309,0,0
665,715,0,0,0,0,0,0,0,0,0,-1,1889,309,0,0
672,715,0,0,0,0,0,0,0,0,0,-1,1896,309,0,0
679,715,0,0,0,0,0,0,0,0,0,-1,1903,309,0,0
686,715,0,0,0,0,0,0,0,0,0,-1,1910,309,0,0
693,715,0,0,0,0,0,0,0,0,0,-1,1917,309,0,0
700,715,0,0,0,0,0,0,0,0,0,-1,1924,309,0,0
707,715,0,0,0,0,0,0,0,0,0,-1,1931,309,0,0
714,715,0,0,0,0,0,0,0,0,0,-1,1938,309,0,0
721,715,0,0,0,0,0,0,0,0,0,-1,1945,309,0,0
728,715,0,0,0,0,0,0,0,0,0,-1,1952,309,0,0
735,715,0,0,0,0,0,0,0,0,0,-1,1959,309,0,0
742,715,0,0,0,0,0,0,0,0,0,-1,1966,309,0,0
749,715,0,0,0,0,0,0,0,0,0,-1,1973,309,0,0
756,715,0,0,0,0,0,0,0,0,0,-1,1980,309,0,0
763,715,0,0,0,0,0,0,0,0,0,-1,1987,309,0,0
770,715,0,0,0,0,0,0,0,0,0,-1,1994,309,0,0
777,715,0,0,0,0,0,0,0,0,0,-1,2001,309,0,0
784,715,0,0,0,0,0,0,0,0,0,-1,2008,309,0,0
791,715,0,0,0,0,0,0,0,0,0,-1,2015,309,0,0
798,715,0,0,0,0,0,0,0,0,0,-1,2022,309,0,0
805,715,0,0,0,0,0,0,0,0,0,-1,2029,309,0,0
812,715,0,0,0,0,0,0,0,0,0,-1,2036,309,0,0
-700,708,0,0,0,0,0,0,0,0,0,-1,524,316,0,0
-693,708,0,0,0,0,0,0,0,0,0,-1,531,316,0,0
-686,708,0,0,0,0,0,0,0,0,0,-1,538,316,0,0
-679,708,0,0,0,0,0,0,0,0,0,-1,545,316,0,0
-672,708,0,0,0,0,0,0,0,0,0,-1,552,316,0,0
-665,708,0,0,0,0,0,0,0,0,0,-1,559,316,0,0
-658,708,0,0,0,0,0,0,0,0,0,-1,566,316,0,0
-651,708,0,0,0,0,0,0,0,0,0,-1,573,316,0,0
-644,708,0,0,0,0,0,0,0,0,0,-1,580,316,0,0
-637,708,0,0,0,0,0,0,0,0,0,-1,587,316,0,0
-630,708,0,0,0,0,0,0,0,0,0,-1,594,316,0,0
-623,708,0,0,0,0,0,0,0,0,0,-1,601,316,0,0
-616,708,0,0,0,0,0,0,0,0,0,-1,608,316,0,0
-609,708,0,0,0,0,0,0,0,0,0,-1,615,316,0,0
-602,708,0,0,0,0,0,0,0,0,0,-1,622,316,0,0
-595,708,0,0,0,0,0,0,0,0,0,-1,629,316,0,0
-588,708,0,0,0,0,0,0,0,0,0,-1,636,316,0,0
-581,708,0,0,0,0,0,0,0,0,0,-1,643,316,0,0
-574,708,0,0,0,0,0,0,0,0,0,-1,650,316,0,0
-567,708,0,0,0,0,0,0,0,0,0,-1,657,316,0,0
-560,708,0,0,0,0,0,0,0,0,0,-1,664,316,0,0
-553,708,0,0,0,0,0,0,0,0,0,-1,671,316,0,0
-546,708,0,0,0,0,0,0,0,0,0,-1,678,316,0,0
-539,708,0,0,0,0,0,0,0,0,0,-1,685,316,0,0
-532,708,0,0,0,0,0,0,0,0,0,-1,692,316,0,0
-525,708,0,0,0,0,0,0,0,0,0,-1,699,316,0,0
-518,708,0,0,0,0,0,0,0,0,0,-1,706,316,0,0
-511,708,0,0,0,0,0,0,0,0,0,-1,713,316,0,0
-504,708,0,0,0,0,0,0,0,0,0,-1,720,316,0,0
-497,708,0,0,0,0,0,0,0,0,0,-1,727,316,0,0
-490,708,0,0,0,0,0,0,0,0,0,-1,734,316,0,0
-483,708,0,0,0,0,0,0,0,0,0,-1,741,316,0,0
-476,708,0,0,0,0,0,0,0,0,0,-1,748,316,0,0
-469,708,0,0,0,0,0,0,0,0,0,-1,755,316,0,0
-462,708,0,0,0,0,0,0,0,0,0,-1,762,316,0,0
-455,708,0,0,0,0,0,0,0,0,0,-1,769,316,0,0
-448,708,0,0,0,0,0,0,0,0,0,-1,776,316,0,0
-441,708,0,0,0,0,0,0,0,0,0,-1,783,316,0,0
-434,708,0,0,0,0,0,0,0,0,0,-1,790,316,0,0
-427,708,0,0,0,0,0,0,0,0,0,-1,797,316,0,0
-420,708,0,0,0,0,0,0,0,0,0,-1,804,316,0,0
-413,708,0,0,0,0,0,0,0,0,0,-1,811,316,0,0
-406,708,0,0,0,0,0,0,0,0,0,-1,818,316,0,0
-399,708,0,0,0,0,0,0,0,0,0,-1,825,316,0,0
-392,708,0,0,0,0,0,0,0,0,0,-1,832,316,0,0
-385,708,0,0,0,0,0,0,0,0,0,-1,839,316,0,0
-378,708,0,0,0,0,0,0,0,0,0,-1,846,316,0,0
-371,708,0,0,0,0,0,0,0,0,0,-1,853,316,0,0
-364,708,0,0,0,0,0,0,0,0,0,-1,860,316,0,0
-357,708,0,0,0,0,0,0,0,0,0,-1,867,316,0,0
-350,708,0,0,0,0,0,0,0,0,0,-1,874,316,0,0
-343,708,0,0,0,0,0,0,0,0,0,-1,881,316,0,0
-336,708,0,0,0,0,0,0,0,0,0,-1,888,316,0,0
-329,708,0,0,0,0,0,0,0,0,0,-1,895,316,0,0
-322,708,0,0,0,0,0,0,0,0,0,-1,902,316,0,0
-315,708,0,0,0,0,0,0,0,0,0,-1,909,316,0,0
-308,708,0,0,0,0,0,0,0,0,0,-1,916,316,0,0
-301,708,0,0,0,0,0,0,0,0,0,-1,923,316,0,0
-294,708,0,0,0,0,0,0,0,0,0,-1,930,316,0,0
-287,708,0,0,0,0,0,0,0,0,0,-1,937,316,0,0
-280,708,0,0,0,0,0,0,0,0,0,-1,944,316,0,0
-273,708,0,0,0,0,0,0,0,0,0,-1,951,316,0,0
-266,708,0,0,0,0,0,0,0,0,0,-1,958,316,0,0
-259,708,0,0,0,0,0,0,0,0,0,-1,965,316,0,0
-252,708,0,0,0,0,0,0,0,0,0,-1,972,316,0,0
-245,708,0,0,0,0,0,0,0,0,0,-1,979,316,0,0
-238,708,0,0,0,0,0,0,0,0,0,-1,986,316,0,0
-231,708,0,0,0,0,0,0,0,0,0,-1,993,316,0,0
-224,708,0,0,0,0,0,0,0,0,0,-1,1000,316,0,0
-217,708,0,0,0,0,0,0,0,0,0,-1,1007,316,0,0
-210,708,0,0,0,0,0,0,0,0,0,-1,1014,316,0,0
-203,708,0,0,0,0,0,0,0,0,0,-1,1021,316,0,0
-196,708,0,0,0,0,0,0,0,0,0,-1,1028,316,0,0
-189,708,0,0,0,0,0,0,0,0,0,-1,1035,316,0,0
-182,708,0,0,0,0,0,0,0,0,0,-1,1042,316,0,0
-175,708,0,0,0,0,0,0,0,0,0,-1,1049,316,0,0
-168,708,0,0,0,0,0,0,0,0,0,-1,1056,316,0,0
-161,708,0,0,0,0,0,0,0,0,0,-1,1063,316,0,0
-154,708,0,0,0,0,0,0,0,0,0,-1,1070,316,0,0
-147,708,0,0,0,0,0,0,0,0,0,-1,1077,316,0,0
-140,708,0,0,0,0,0,0,0,0,0,-1,1084,316,0,0
-133,708,0,0,0,0,0,0,0,0,0,-1,1091,316,0,0
-126,708,0,0,0,0,0,0,0,0,0,-1,1098,316,0,0
-119,708,0,0,0,0,0,0,0,0,0,-1,1105,316,0,0
-112,708,0,0,0,0,0,0,0,0,0,-1,1112,316,0,0
-105,708,0,0,0,0,0,0,0,0,0,-1,1119,316,0,0
-98,708,0,0,0,0,0,0,0,0,0,-1,1126,316,0,0
-91,708,0,0,0,0,0,0,0,0,0,-1,1133,316,0,0
-84,708,0,0,0,0,0,0,0,0,0,-1,1140,316,0,0
-77,708,0,0,0,0,0,0,0,0,0,-1,1147,316,0,0
-70,708,0,0,0,0,0,0,0,0,0,-1,1154,316,0,0
-63,708,0,0,0,0,0,0,0,0,0,-1,1161,316,0,0
-56,708,0,0,0,0,0,0,0,0,0,-1,1168,316,0,0
-49,708,0,0,0,0,0,0,0,0,0,-1,1175,316,0,0
-42,708,0,0,0,0,0,0,0,0,0,-1,1182,316,0,0
-35,708,-2.71204,-6.31558,0,0,0,0,0,0,0,-1,1189,316,-2.712,6.3156
-28,708,-2.92371,-5.53253,0,0,0,0,0,0,0,-1,1196,316,-2.92375,5.53254
-21,708,-5.32227,-7.36841,0,0,0,0,0,0,0,-1,1203,316,-5.32232,7.3684
-14,708,2.39282,-4.41992,0,0,0,0,0,0,0,-1,1210,316,2.3928,4.41993
-7,708,2.43909,-12.894,0,0,0,0,0,0,0,-1,1217,316,2.43904,12.894
0,708,1.71216,-4.50299,0,0,0,0,0,0,0,-1,1224,316,1.71212,4.503
7,708,1.47607,-5.00687,0,0,0,0,0,0,0,-1,1231,316,1.47604,5.00686
14,708,0.113281,-5.6813,0,0,0,0,0,0,0,-1,1238,316,0.11332,5.68131
21,708,0.427856,-10.7416,0,0,0,0,0,0,0,-1,1245,316,0.427892,10.7416
28,708,0.70874,-10.681,0.0670908,-0.0143222,0.00910504,0.0680967,-0.015328,0.110027,0.0512766,0.0480151,1252,316,0.708684,10.681
35,708,1.15149,-10.4976,0.0668764,-0.0111823,0.00158061,0.0669084,-0.0112143,0.0202379,0.0487753,0.0459706,1259,316,1.15148,10.4976
42,708,1.37109,-10.3848,0.0660824,-0.0107109,-0.00289011,0.066191,-0.0108196,-0.0375641,0.0481409,0.0441792,1266,316,1.37107,10.3848
49,708,1.35498,-10.1973,0,0,0,0,0,0,0,-1,1273,316,1.35496,10.1973
56,708,1.41614,-10.1348,0.0654871,-0.010659,-0.00407149,0.0657042,-0.0108761,-0.0532669,0.0478421,0.0445188,1280,316,1.4162,10.1348
63,708,1.97778,-10.1772,0.0630491,-0.0104993,0.00188712,0.0630975,-0.0105477,0.0256357,0.0459859,0.0433015,1287,316,1.97782,10.1772
70,708,2.51648,-10.3265,0.0603742,-0.00955719,0.00823607,0.0613311,-0.0105141,0.115665,0.0448052,0.0420695,1294,316,2.51651,10.3265
77,708,2.79395,-10.4502,0,0,0,0,0,0,0,-1,1301,316,2.79394,10.4502
84,708,3.0625,-10.5313,0,0,0,0,0,0,0,-1,1308,316,3.0625,10.5313
91,708,1.80566,-11.7596,0,0,0,0,0,0,0,-1,1315,316,1.80567,11.7596
98,708,1.80042,-11.3742,0.0457247,0.00768517,0.0417368,0.0725711,-0.0191613,0.571603,0.055874,0.0479075,1322,316,1.80038,11.3742
105,708,2.4978,-10.2678,0.0404486,0.0157317,0.0487669,0.0783986,-0.0222183,0.661301,0.0610351,0.0477265,1329,316,2.49778,10.2678
112,708,2.39136,-9.1944,0.0348484,0.0244724,0.0561333,0.086033,-0.0267121,0.739317,0.0680305,0.0462348,1336,316,2.39133,9.1944
119,708,2.16553,-8.10147,0,0,0,0,0,0,0,-1,1343,316,2.16551,8.10146
126,708,1.58252,-8.17392,0,0,0,0,0,0,0,-1,1350,316,1.58255,8.17392
133,708,1.53015,-7.51224,0,0,0,0,0,0,0,-1,1357,316,1.53018,7.51225
140,708,1.64429,-6.78156,0,0,0,0,0,0,0,-1,1364,316,1.64426,6.78155
147,708,1.67053,-5.44888,0,0,0,0,0,0,0,-1,1371,316,1.67051,5.44888
154,708,0,0,0,0,0,0,0,0,0,-1,1378,316,0,0
161,708,0,0,0,0,0,0,0,0,0,-1,1385,316,0,0
168,708,0,0,0,0,0,0,0,0,0,-1,1392,316,0,0
175,708,0,0,0,0,0,0,0,0,0,-1,1399,316,0,0
182,708,0,0,0,0,0,0,0,0,0,-1,1406,316,0,0
189,708,0,0,0,0,0,0,0,0,0,-1,1413,316,0,0
196,708,0,0,0,0,0,0,0,0,0,-1,1420,316,0,0
203,708,0,0,0,0,0,0,0,0,0,-1,1427,316,0,0
210,708,0,0,0,0,0,0,0,0,0,-1,1434,316,0,0
217,708,0,0,0,0,0,0,0,0,0,-1,1441,316,0,0
224,708,0,0,0,0,0,0,0,0,0,-1,1448,316,0,0
231,708,0,0,0,0,0,0,0,0,0,-1,1455,316,0,0
238,708,0,0,0,0,0,0,0,0,0,-1,1462,316,0,0
245,708,0,0,0,0,0,0,0,0,0,-1,1469,316,0,0
252,708,0,0,0,0,0,0,0,0,0,-1,1476,316,0,0
259,708,0,0,0,0,0,0,0,0,0,-1,1483,316,0,0
266,708,0,0,0,0,0,0,0,0,0,-1,1490,316,0,0
273,708,0,0,0,0,0,0,0,0,0,-1,1497,316,0,0
280,708,0,0,0,0,0,0,0,0,0,-1,1504,316,0,0
287,708,0,0,0,0,0,0,0,0,0,-1,1511,316,0,0
294,708,0,0,0,0,0,0,0,0,0,-1,1518,316,0,0
301,708,0,0,0,0,0,0,0,0,0,-1,1525,316,0,0
308,708,0,0,0,0,0,0,0,0,0,-1,1532,316,0,0
315,708,0,0,0,0,0,0,0,0,0,-1,1539,316,0,0
322,708,0,0,0,0,0,0,0,0,0,-1,1546,316,0,0
329,708,0,0,0,0,0,0,0,0,0,-1,1553,316,0,0
336,708,0,0,0,0,0,0,0,0,0,-1,1560,316,0,0
343,708,0,0,0,0,0,0,0,0,0,-1,1567,316,0,0
350,708,0,0,0,0,0,0,0,0,0,-1,1574,316,0,0
357,708,0,0,0,0,0,0,0,0,0,-1,1581,316,0,0
364,708,0,0,0,0,0,0,0,0,0,-1,1588,316,0,0
371,708,0,0,0,0,0,0,0,0,0,-1,1595,316,0,0
378,708,0,0,0,0,0,0,0,0,0,-1,1602,316,0,0
385,708,0,0,0,0,0,0,0,0,0,-1,1609,316,0,0
392,708,0,0,0,0,0,0,0,0,0,-1,1616,316,0,0
399,708,0,0,0,0,0,0,0,0,0,-1,1623,316,0,0
406,708,0,0,0,0,0,0,0,0,0,-1,1630,316,0,0
413,708,0,0,0,0,0,0,0,0,0,-1,1637,316,0,0
420,708,0,0,0,0,0,0,0,0,0,-1,1644,316,0,0
427,708,0,0,0,0,0,0,0,0,0,-1,1651,316,0,0
434,708,0,0,0,0,0,0,0,0,0,-1,1658,316,0,0
441,708,0,0,0,0,0,0,0,0,0,-1,1665,316,0,0
448,708,0,0,0,0,0,0,0,0,0,-1,1672,316,0,0
455,708,0,0,0,0,0,0,0,0,0,-1,1679,316,0,0
462,708,0,0,0,0,0,0,0,0,0,-1,1686,316,0,0
469,708,0,0,0,0,0,0,0,0,0,-1,1693,316,0,0
476,708,0,0,0,0,0,0,0,0,0,-1,1700,316,0,0
483,708,0,0,0,0,0,0,0,0,0,-1,1707,316,0,0
490,708,0,0,0,0,0,0,0,0,0,-1,1714,316,0,0
497,708,0,0,0,0,0,0,0,0,0,-1,1721,316,0,0
504,708,0,0,0,0,0,0,0,0,0,-1,1728,316,0,0
511,708,0,0,0,0,0,0,0,0,0,-1,1735,316,0,0
518,708,0,0,0,0,0,0,0,0,0,-1,1742,316,0,0
525,708,0,0,0,0,0,0,0,0,0,-1,1749,316,0,0
532,708,0,0,0,0,0,0,0,0,0,-1,1756,316,0,0
539,708,0,0,0,0,0,0,0,0,0,-1,1763,316,0,0
546,708,0,0,0,0,0,0,0,0,0,-1,1770,316,0,0
553,708,0,0,0,0,0,0,0,0,0,-1,1777,316,0,0
560,708,0,0,0,0,0,0,0,0,0,-1,1784,316,0,0
567,708,0,0,0,0,0,0,0,0,0,-1,1791,316,0,0
574,708,0,0,0,0,0,0,0,0,0,-1,1798,316,0,0
581,708,0,0,0,0,0,0,0,0,0,-1,1805,316,0,0
588,708,0,0,0,0,0,0,0,0,0,-1,1812,316,0,0
595,708,0,0,0,0,0,0,0,0,0,-1,1819,316,0,0
602,708,0,0,0,0,0,0,0,0,0,-1,1826,316,0,0
609,708,0,0,0,0,0,0,0,0,0,-1,1833,316,0,0
616,708,0,0,0,0,0,0,0,0,0,-1,1840,316,0,0
623,708,0,0,0,0,0,0,0,0,0,-1,1847,316,0,0
630,708,0,0,0,0,0,0,0,0,0,-1,1854,316,0,0
637,708,0,0,0,0,0,0,0,0,0,-1,1861,316,0,0
644,708,0,0,0,0,0,0,0,0,0,-1,1868,316,0,0
651,708,0,0,0,0,0,0,0,0,0,-1,1875,316,0,0
658,708,0,0,0,0,0,0,0,0,0,-1,1882,316,0,0
665,708,0,0,0,0,0,0,0,0,0,-1,1889,316,0,0
672,708,0,0,0,0,0,0,0,0,0,-1,1896,316,0,0
679,708,0,0,0,0,0,0,0,0,0,-1,1903,316,0,0
686,708,0,0,0,0,0,0,0,0,0,-1,1910,316,0,0
693,708,0,0,0,0,0,0,0,0,0,-1,1917,316,0,0
700,708,0,0,0,0,0,0,0,0,0,-1,1924,316,0,0
707,708,0,0,0,0,0,0,0,0,0,-1,1931,316,0,0
714,708,0,0,0,0,0,0,0,0,0,-1,1938,316,0,0
721,708,0,0,0,0,0,0,0,0,0,-1,1945,316,0,0
728,708,0,0,0,0,0,0,0,0,0,-1,1952,316,0,0
735,708,0,0,0,0,0,0,0,0,0,-1,1959,316,0,0
742,708,0,0,0,0,0,0,0,0,0,-1,1966,316,0,0
749,708,0,0,0,0,0,0,0,0,0,-1,1973,316,0,0
756,708,0,0,0,0,0,0,0,0,0,-1,1980,316,0,0
763,708,0,0,0,0,0,0,0,0,0,-1,1987,316,0,0
770,708,0,0,0,0,0,0,0,0,0,-1,1994,316,0,0
777,708,0,0,0,0,0,0,0,0,0,-1,2001,316,0,0
784,708,0,0,0,0,0,0,0,0,0,-1,2008,316,0,0
791,708,0,0,0,0,0,0,0,0,0,-1,2015,316,0,0
798,708,0,0,0,0,0,0,0,0,0,-1,2022,316,0,0
805,708,0,0,0,0,0,0,0,0,0,-1,2029,316,0,0
812,708,0,0,0,0,0,0,0,0,0,-1,2036,316,0,0
-700,701,0,0,0,0,0,0,0,0,0,-1,524,323,0,0
-693,701,0,0,0,0,0,0,0,0,0,-1,531,323,0,0
-686,701,0,0,0,0,0,0,0,0,0,-1,538,323,0,0
-679,701,0,0,0,0,0,0,0,0,0,-1,545,323,0,0
-672,701,0,0,0,0,0,0,0,0,0,-1,552,323,0,0
-665,701,0,0,0,0,0,0,0,0,0,-1,559,323,0,0
-658,701,0,0,0,0,0,0,0,0,0,-1,566,323,0,0
-651,701,0,0,0,0,0,0,0,0,0,-1,573,323,0,0
-644,701,0,0,0,0,0,0,0,0,0,-1,580,323,0,0
-637,701,0,0,0,0,0,0,0,0,0,-1,587,323,0,0
-630,701,0,0,0,0,0,0,0,0,0,-1,594,323,0,0
-623,701,0,0,0,0,0,0,0,0,0,-1,601,323,0,0
-616,701,0,0,0,0,0,0,0,0,0,-1,608,323,0,0
-609,701,0,0,0,0,0,0,0,0,0,-1,615,323,0,0
-602,701,0,0,0,0,0,0,0,0,0,-1,622,323,0,0
-595,701,0,0,0,0,0,0,0,0,0,-1,629,323,0,0
-588,701,0,0,0,0,0,0,0,0,0,-1,636,323,0,0
-581,701,0,0,0,0,0,0,0,0,0,-1,643,323,0,0
-574,701,0,0,0,0,0,0,0,0,0,-1,650,323,0,0
-567,701,0,0,0,0,0,0,0,0,0,-1,657,323,0,0
-560,701,0,0,0,0,0,0,0,0,0,-1,664,323,0,0
-553,701,0,0,0,0,0,0,0,0,0,-1,671,323,0,0
-546,701,0,0,0,0,0,0,0,0,0,-1,678,323,0,0
-539,701,0,0,0,0,0,0,0,0,0,-1,685,323,0,0
-532,701,0,0,0,0,0,0,0,0,0,-1,692,323,0,0
-525,701,0,0,0,0,0,0,0,0,0,-1,699,323,0,0
-518,701,0,0,0,0,0,0,0,0,0,-1,706,323,0,0
-511,701,0,0,0,0,0,0,0,0,0,-1,713,323,0,0
-504,701,0,0,0,0,0,0,0,0,0,-1,720,323,0,0
-497,701,0,0,0,0,0,0,0,0,0,-1,727,323,0,0
-490,701,0,0,0,0,0,0,0,0,0,-1,734,323,0,0
-483,701,0,0,0,0,0,0,0,0,0,-1,741,323,0,0
-476,701,0,0,0,0,0,0,0,0,0,-1,748,323,0,0
-469,701,0,0,0,0,0,0,0,0,0,-1,755,323,0,0
-462,701,0,0,0,0,0,0,0,0,0,-1,762,323,0,0
-455,701,0,0,0,0,0,0,0,0,0,-1,769,323,0,0
-448,701,0,0,0,0,0,0,0,0,0,-1,776,323,0,0
-441,701,0,0,0,0,0,0,0,0,0,-1,783,323,0,0
-434,701,0,0,0,0,0,0,0,0,0,-1,790,323,0,0
-427,701,0,0,0,0,0,0,0,0,0,-1,797,323,0,0
-420,701,0,0,0,0,0,0,0,0,0,-1,804,323,0,0
-413,701,0,0,0,0,0,0,0,0,0,-1,811,323,0,0
-406,701,0,0,0,0,0,0,0,0,0,-1,818,323,0,0
-399,701,0,0,0,0,0,0,0,0,0,-1,825,323,0,0
-392,701,0,0,0,0,0,0,0,0,0,-1,832,323,0,0
-385,701,0,0,0,0,0,0,0,0,0,-1,839,323,0,0
-378,701,0,0,0,0,0,0,0,0,0,-1,846,323,0,0
-371,701,0,0,0,0,0,0,0,0,0,-1,853,323,0,0
-364,701,0,0,0,0,0,0,0,0,0,-1,860,323,0,0
-357,701,0,0,0,0,0,0,0,0,0,-1,867,323,0,0
-350,701,0,0,0,0,0,0,0,0,0,-1,874,323,0,0
-343,701,0,0,0,0,0,0,0,0,0,-1,881,323,0,0
-336,701,0,0,0,0,0,0,0,0,0,-1,888,323,0,0
-329,701,0,0,0,0,0,0,0,0,0,-1,895,323,0,0
-322,701,0,0,0,0,0,0,0,0,0,-1,902,323,0,0
-315,701,0,0,0,0,0,0,0,0,0,-1,909,323,0,0
-308,701,0,0,0,0,0,0,0,0,0,-1,916,323,0,0
-301,701,0,0,0,0,0,0,0,0,0,-1,923,323,0,0
-294,701,0,0,0,0,0,0,0,0,0,-1,930,323,0,0
-287,701,0,0,0,0,0,0,0,0,0,-1,937,323,0,0
-280,701,0,0,0,0,0,0,0,0,0,-1,944,323,0,0
-273,701,0,0,0,0,0,0,0,0,0,-1,951,323,0,0
-266,701,0,0,0,0,0,0,0,0,0,-1,958,323,0,0
-259,701,0,0,0,0,0,0,0,0,0,-1,965,323,0,0
-252,701,0,0,0,0,0,0,0,0,0,-1,972,323,0,0
-245,701,0,0,0,0,0,0,0,0,0,-1,979,323,0,0
-238,701,0,0,0,0,0,0,0,0,0,-1,986,323,0,0
-231,701,0,0,0,0,0,0,0,0,0,-1,993,323,0,0
-224,701,0,0,0,0,0,0,0,0,0,-1,1000,323,0,0
-217,701,0,0,0,0,0,0,0,0,0,-1,1007,323,0,0
-210,701,0,0,0,0,0,0,0,0,0,-1,1014,323,0,0
-203,701,0,0,0,0,0,0,0,0,0,-1,1021,323,0,0
-196,701,0,0,0,0,0,0,0,0,0,-1,1028,323,0,0
-189,701,0,0,0,0,0,0,0,0,0,-1,1035,323,0,0
-182,701,0,0,0,0,0,0,0,0,0,-1,1042,323,0,0
-175,701,0,0,0,0,0,0,0,0,0,-1,1049,323,0,0
-168,701,0,0,0,0,0,0,0,0,0,-1,1056,323,0,0
-161,701,0,0,0,0,0,0,0,0,0,-1,1063,323,0,0
-154,701,0,0,0,0,0,0,0,0,0,-1,1070,323,0,0
-147,701,0,0,0,0,0,0,0,0,0,-1,1077,323,0,0
-140,701,0,0,0,0,0,0,0,0,0,-1,1084,323,0,0
-133,701,0,0,0,0,0,0,0,0,0,-1,1091,323,0,0
-126,701,0,0,0,0,0,0,0,0,0,-1,1098,323,0,0
-119,701,0,0,0,0,0,0,0,0,0,-1,1105,323,0,0
-112,701,0,0,0,0,0,0,0,0,0,-1,1112,323,0,0
-105,701,0,0,0,0,0,0,0,0,0,-1,1119,323,0,0
-98,701,0,0,0,0,0,0,0,0,0,-1,1126,323,0,0
-91,701,0,0,0,0,0,0,0,0,0,-1,1133,323,0,0
-84,701,0,0,0,0,0,0,0,0,0,-1,1140,323,0,0
-77,701,0,0,0,0,0,0,0,0,0,-1,1147,323,0,0
-70,701,-2.36731,-1.49271,0,0,0,0,0,0,0,-1,1154,323,-2.36729,1.4927
-63,701,-2.479,-0.295959,0,0,0,0,0,0,0,-1,1161,323,-2.47895,0.295961
-56,701,-0.420166,-0.101776,0,0,0,0,0,0,0,-1,1168,323,-0.420119,0.101777
-49,701,-1.09021,-0.155762,0,0,0,0,0,0,0,-1,1175,323,-1.09024,0.155768
-42,701,-0.210327,-0.299133,0,0,0,0,0,0,0,-1,1182,323,-0.210379,0.29914
-35,701,-2.9635,-7.98676,0,0,0,0,0,0,0,-1,1189,323,-2.9635,7.98676
-28,701,-6.64417,-5.4917,0,0,0,0,0,0,0,-1,1196,323,-6.64411,5.4917
-21,701,3.47998,-4.31433,0,0,0,0,0,0,0,-1,1203,323,3.48,4.31434
-14,701,1.66541,-13.8488,0,0,0,0,0,0,0,-1,1210,323,1.6654,13.8488
-7,701,2.09106,-12.2408,0,0,0,0,0,0,0,-1,1217,323,2.09112,12.2408
0,701,2.51685,-10.6329,0,0,0,0,0,0,0,-1,1224,323,2.51683,10.6329
7,701,2.68701,-9.24908,0,0,0,0,0,0,0,-1,1231,323,2.687,9.24909
14,701,2.85205,-10.1478,0,0,0,0,0,0,0,-1,1238,323,2.85204,10.1478
21,701,1.0011,-10.4878,0,0,0,0,0,0,0,-1,1245,323,1.00106,10.4878
28,701,1.23499,-10.5524,0.0531594,-0.00832138,0.0110637,0.0550898,-0.0102517,0.172737,0.0405778,0.0495169,1252,323,1.23497,10.5524
35,701,1.46375,-10.5356,0.052949,-0.00622364,0.00504997,0.0533769,-0.00665152,0.0845284,0.0379963,0.0446168,1259,323,1.46379,10.5355
42,701,1.66785,-10.4482,0.0522866,-0.00546831,0.00192137,0.0523505,-0.00553216,0.0332187,0.0368829,0.0451905,1266,323,1.66788,10.4482
49,701,2.97571,-10.3562,0,0,0,0,0,0,0,-1,1273,323,2.97574,10.3562
56,701,1.63525,-9.86987,0.0517807,-0.00503924,0.00130966,0.0518108,-0.00506942,0.023033,0.0363484,0.0440807,1280,323,1.63524,9.86989
63,701,2.1344,-9.65637,0.0499105,-0.00489383,0.00624289,0.0506126,-0.00559598,0.112001,0.0357534,0.044701,1287,323,2.1344,9.65637
70,701,2.22571,-9.60202,0.0477754,-0.00450704,0.0114365,0.0501677,-0.00689925,0.206201,0.0359661,0.0432186,1294,323,2.22565,9.60203
77,701,4.66821,-8.70779,0,0,0,0,0,0,0,-1,1301,323,4.6682,8.70781
84,701,1.7561,-12.9289,0,0,0,0,0,0,0,-1,1308,323,1.75608,12.9289
91,701,1.79419,-12.1542,0.0393862,0.00168293,0.030348,0.0562611,-0.015192,0.507474,0.0434656,0.044388,1315,323,1.79422,12.1542
98,701,1.83606,-11.5806,0.036364,0.00646803,0.0369069,0.0612351,-0.0184031,0.592986,0.0481449,0.0448902,1322,323,1.83606,11.5806
105,701,2.69128,-10.7445,0.0327176,0.0118231,0.041502,0.0650671,-0.0205264,0.662095,0.0515996,0.0463624,1329,323,2.69123,10.7445
112,701,2.41577,-9.73346,0.0286779,0.0183351,0.0468196,0.0706108,-0.0235978,0.730395,0.0566039,0.0413871,1336,323,2.41573,9.73345
119,701,2.04041,-8.7807,0.0245345,0.0248247,0.0513058,0.0759856,-0.0266264,0.786812,0.0614853,0.0422134,1343,323,2.0404,8.7807
126,701,1.97974,-8.20053,0.0210441,0.0308217,0.0533913,0.0795476,-0.0276818,0.831054,0.0642776,0.0475717,1350,323,1.9797,8.20053
133,701,2.14893,-7.68283,0,0,0,0,0,0,0,-1,1357,323,2.1489,7.68284
140,701,2.12415,-6.95059,0.0168216,0.0376558,0.0485177,0.0768621,-0.0223847,0.891146,0.0601088,0.0467083,1364,323,2.1241,6.95059
147,701,2.03052,-5.87152,0.0153267,0.0396107,0.0454159,0.0744797,-0.0195423,0.916019,0.0572893,0.0469301,1371,323,2.03051,5.87151
154,701,2.01648,-4.89157,0,0,0,0,0,0,0,-1,1378,323,2.01649,4.89157
161,701,2.00525,-3.9213,0,0,0,0,0,0,0,-1,1385,323,2.0052,3.92129
168,701,6.88513,-0.0237427,0,0,0,0,0,0,0,-1,1392,323,6.88517,0.0237498
175,701,6.94556,0.0693054,0,0,0,0,0,0,0,-1,1399,323,6.94555,-0.0692958
182,701,8.80652,5.42807,0,0,0,0,0,0,0,-1,1406,323,8.8065,-5.42808
189,701,8.58081,4.24493,0,0,0,0,0,0,0,-1,1413,323,8.58082,-4.24494
196,701,0,0,0,0,0,0,0,0,0,-1,1420,323,0,0
203,701,0,0,0,0,0,0,0,0,0,-1,1427,323,0,0
210,701,0,0,0,0,0,0,0,0,0,-1,1434,323,0,0
217,701,0,0,0,0,0,0,0,0,0,-1,1441,323,0,0
224,701,0,0,0,0,0,0,0,0,0,-1,1448,323,0,0
231,701,0,0,0,0,0,0,0,0,0,-1,1455,323,0,0
238,701,0,0,0,0,0,0,0,0,0,-1,1462,323,0,0
245,701,0,0,0,0,0,0,0,0,0,-1,1469,323,0,0
252,701,0,0,0,0,0,0,0,0,0,-1,1476,323,0,0
259,701,0,0,0,0,0,0,0,0,0,-1,1483,323,0,0
266,701,0,0,0,0,0,0,0,0,0,-1,1490,323,0,0
273,701,0,0,0,0,0,0,0,0,0,-1,1497,323,0,0
280,701,0,0,0,0,0,0,0,0,0,-1,1504,323,0,0
287,701,0,0,0,0,0,0,0,0,0,-1,1511,323,0,0
294,701,0,0,0,0,0,0,0,0,0,-1,1518,323,0,0
301,701,0,0,0,0,0,0,0,0,0,-1,1525,323,0,0
308,701,0,0,0,0,0,0,0,0,0,-1,1532,323,0,0
315,701,0,0,0,0,0,0,0,0,0,-1,1539,323,0,0
322,701,0,0,0,0,0,0,0,0,0,-1,1546,323,0,0
329,701,0,0,0,0,0,0,0,0,0,-1,1553,323,0,0
336,701,0,0,0,0,0,0,0,0,0,-1,1560,323,0,0
343,701,0,0,0,0,0,0,0,0,0,-1,1567,323,0,0
350,701,0,0,0,0,0,0,0,0,0,-1,1574,323,0,0
357,701,0,0,0,0,0,0,0,0,0,-1,1581,323,0,0
364,701,0,0,0,0,0,0,0,0,0,-1,1588,323,0,0
371,701,0,0,0,0,0,0,0,0,0,-1,1595,323,0,0
378,701,0,0,0,0,0,0,0,0,0,-1,1602,323,0,0
385,701,0,0,0,0,0,0,0,0,0,-1,1609,323,0,0
392,701,0,0,0,0,0,0,0,0,0,-1,1616,323,0,0
399,701,0,0,0,0,0,0,0,0,0,-1,1623,323,0,0
406,701,0,0,0,0,0,0,0,0,0,-1,1630,323,0,0
413,701,0,0,0,0,0,0,0,0,0,-1,1637,323,0,0
420,701,0,0,0,0,0,0,0,0,0,-1,1644,323,0,0
427,701,0,0,0,0,0,0,0,0,0,-1,1651,323,0,0
434,701,0,0,0,0,0,0,0,0,0,-1,1658,323,0,0
441,701,0,0,0,0,0,0,0,0,0,-1,1665,323,0,0
448,701,0,0,0,0,0,0,0,0,0,-1,1672,323,0,0
455,701,0,0,0,0,0,0,0,0,0,-1,1679,323,0,0
462,701,0,0,0,0,0,0,0,0,0,-1,1686,323,0,0
469,701,0,0,0,0,0,0,0,0,0,-1,1693,323,0,0
476,701,0,0,0,0,0,0,0,0,0,-1,1700,323,0,0
483,701,0,0,0,0,0,0,0,0,0,-1,1707,323,0,0
490,701,0,0,0,0,0,0,0,0,0,-1,1714,323,0,0
497,701,0,0,0,0,0,0,0,0,0,-1,1721,323,0,0
504,701,0,0,0,0,0,0,0,0,0,-1,1728,323,0,0
511,701,0,0,0,0,0,0,0,0,0,-1,1735,323,0,0
518,701,0,0,0,0,0,0,0,0,0,-1,1742,323,0,0
525,701,0,0,0,0,0,0,0,0,0,-1,1749,323,0,0
532,701,0,0,0,0,0,0,0,0,0,-1,1756,323,0,0
539,701,0,0,0,0,0,0,0,0,0,-1,1763,323,0,0
546,701,0,0,0,0,0,0,0,0,0,-1,1770,323,0,0
553,701,0,0,0,0,0,0,0,0,0,-1,1777,323,0,0
560,701,0,0,0,0,0,0,0,0,0,-1,1784,323,0,0
567,701,0,0,0,0,0,0,0,0,0,-1,1791,323,0,0
574,701,0,0,0,0,0,0,0,0,0,-1,1798,323,0,0
581,701,0,0,0,0,0,0,0,0,0,-1,1805,323,0,0
588,701,0,0,0,0,0,0,0,0,0,-1,1812,323,0,0
595,701,0,0,0,0,0,0,0,0,0,-1,1819,323,0,0
602,701,0,0,0,0,0,0,0,0,0,-1,1826,323,0,0
609,701,0,0,0,0,0,0,0,0,0,-1,1833,323,0,0
616,701,0,0,0,0,0,0,0,0,0,-1,1840,323,0,0
623,701,0,0,0,0,0,0,0,0,0,-1,1847,323,0,0
630,701,0,0,0,0,0,0,0,0,0,-1,1854,323,0,0
637,701,0,0,0,0,0,0,0,0,0,-1,1861,323,0,0
644,701,0,0,0,0,0,0,0,0,0,-1,1868,323,0,0
651,701,0,0,0,0,0,0,0,0,0,-1,1875,323,0,0
658,701,0,0,0,0,0,0,0,0,0,-1,1882,323,0,0
665,701,0,0,0,0,0,0,0,0,0,-1,1889,323,0,0
672,701,0,0,0,0,0,0,0,0,0,-1,1896,323,0,0
679,701,0,0,0,0,0,0,0,0,0,-1,1903,323,0,0
686,701,0,0,0,0,0,0,0,0,0,-1,1910,323,0,0
693,701,0,0,0,0,0,0,0,0,0,-1,1917,323,0,0
700,701,0,0,0,0,0,0,0,0,0,-1,1924,323,0,0
707,701,0,0,0,0,0,0,0,0,0,-1,1931,323,0,0
714,701,0,0,0,0,0,0,0,0,0,-1,1938,323,0,0
721,701,0,0,0,0,0,0,0,0,0,-1,1945,323,0,0
728,701,0,0,0,0,0,0,0,0,0,-1,1952,323,0,0
735,701,0,0,0,0,0,0,0,0,0,-1,1959,323,0,0
742,701,0,0,0,0,0,0,0,0,0,-1,1966,323,0,0
749,701,0,0,0,0,0,0,0,0,0,-1,1973,323,0,0
756,701,0,0,0,0,0,0,0,0,0,-1,1980,323,0,0
763,701,0,0,0,0,0,0,0,0,0,-1,1987,323,0,0
770,701,0,0,0,0,0,0,0,0,0,-1,1994,323,0,0
777,701,0,0,0,0,0,0,0,0,0,-1,2001,323,0,0
784,701,0,0,0,0,0,0,0,0,0,-1,2008,323,0,0
791,701,0,0,0,0,0,0,0,0,0,-1,2015,323,0,0
798,701,0,0,0,0,0,0,0,0,0,-1,2022,323,0,0
805,701,0,0,0,0,0,0,0,0,0,-1,2029,323,0,0
812,701,0,0,0,0,0,0,0,0,0,-1,2036,323,0,0
-700,694,0,0,0,0,0,0,0,0,0,-1,524,330,0,0
-693,694,0,0,0,0,0,0,0,0,0,-1,531,330,0,0
-686,694,0,0,0,0,0,0,0,0,0,-1,538,330,0,0
-679,694,0,0,0,0,0,0,0,0,0,-1,545,330,0,0
-672,694,0,0,0,0,0,0,0,0,0,-1,552,330,0,0
-665,694,0,0,0,0,0,0,0,0,0,-1,559,330,0,0
-658,694,0,0,0,0,0,0,0,0,0,-1,566,330,0,0
-651,694,0,0,0,0,0,0,0,0,0,-1,573,330,0,0
-644,694,0,0,0,0,0,0,0,0,0,-1,580,330,0,0
-637,694,0,0,0,0,0,0,0,0,0,-1,587,330,0,0
-630,694,0,0,0,0,0,0,0,0,0,-1,594,330,0,0
-623,694,0,0,0,0,0,0,0,0,0,-1,601,330,0,0
-616,694,0,0,0,0,0,0,0,0,0,-1,608,330,0,0
-609,694,0,0,0,0,0,0,0,0,0,-1,615,330,0,0
-602,694,0,0,0,0,0,0,0,0,0,-1,622,330,0,0
-595,694,0,0,0,0,0,0,0,0,0,-1,629,330,0,0
-588,694,0,0,0,0,0,0,0,0,0,-1,636,330,0,0
-581,694,0,0,0,0,0,0,0,0,0,-1,643,330,0,0
-574,694,0,0,0,0,0,0,0,0,0,-1,650,330,0,0
-567,694,0,0,0,0,0,0,0,0,0,-1,657,330,0,0
-560,694,0,0,0,0,0,0,0,0,0,-1,664,330,0,0
-553,694,0,0,0,0,0,0,0,0,0,-1,671,330,0,0
-546,694,0,0,0,0,0,0,0,0,0,-1,678,330,0,0
-539,694,0,0,0,0,0,0,0,0,0,-1,685,330,0,0
-532,694,0,0,0,0,0,0,0,0,0,-1,692,330,0,0
-525,694,0,0,0,0,0,0,0,0,0,-1,699,330,0,0
-518,694,0,0,0,0,0,0,0,0,0,-1,706,330,0,0
-511,694,0,0,0,0,0,0,0,0,0,-1,713,330,0,0
-504,694,0,0,0,0,0,0,0,0,0,-1,720,330,0,0
-497,694,0,0,0,0,0,0,0,0,0,-1,727,330,0,0
-490,694,0,0,0,0,0,0,0,0,0,-1,734,330,0,0
-483,694,0,0,0,0,0,0,0,0,0,-1,741,330,0,0
-476,694,0,0,0,0,0,0,0,0,0,-1,748,330,0,0
-469,694,0,0,0,0,0,0,0,0,0,-1,755,330,0,0
-462,694,0,0,0,0,0,0,0,0,0,-1,762,330,0,0
-455,694,0,0,0,0,0,0,0,0,0,-1,769,330,0,0
-448,694,0,0,0,0,0,0,0,0,0,-1,776,330,0,0
-441,694,0,0,0,0,0,0,0,0,0,-1,783,330,0,0
-434,694,0,0,0,0,0,0,0,0,0,-1,790,330,0,0
-427,694,0,0,0,0,0,0,0,0,0,-1,797,330,0,0
-420,694,0,0,0,0,0,0,0,0,0,-1,804,330,0,0
-413,694,0,0,0,0,0,0,0,0,0,-1,811,330,0,0
-406,694,0,0,0,0,0,0,0,0,0,-1,818,330,0,0
-399,694,0,0,0,0,0,0,0,0,0,-1,825,330,0,0
-392,694,0,0,0,0,0,0,0,0,0,-1,832,330,0,0
-385,694,0,0,0,0,0,0,0,0,0,-1,839,330,0,0
-378,694,0,0,0,0,0,0,0,0,0,-1,846,330,0,0
-371,694,0,0,0,0,0,0,0,0,0,-1,853,330,0,0
-364,694,0,0,0,0,0,0,0,0,0,-1,860,330,0,0
-357,694,0,0,0,0,0,0,0,0,0,-1,867,330,0,0
-350,694,0,0,0,0,0,0,0,0,0,-1,874,330,0,0
-343,694,0,0,0,0,0,0,0,0,0,-1,881,330,0,0
-336,694,0,0,0,0,0,0,0,0,0,-1,888,330,0,0
-329,694,0,0,0,0,0,0,0,0,0,-1,895,330,0,0
-322,694,0,0,0,0,0,0,0,0,0,-1,902,330,0,0
-315,694,0,0,0,0,0,0,0,0,0,-1,909,330,0,0
-308,694,0,0,0,0,0,0,0,0,0,-1,916,330,0,0
-301,694,0,0,0,0,0,0,0,0,0,-1,923,330,0,0
-294,694,0,0,0,0,0,0,0,0,0,-1,930,330,0,0
-287,694,0,0,0,0,0,0,0,0,0,-1,937,330,0,0
-280,694,0,0,0,0,0,0,0,0,0,-1,944,330,0,0
-273,694,0,0,0,0,0,0,0,0,0,-1,951,330,0,0
-266,694,0,0,0,0,0,0,0,0,0,-1,958,330,0,0
-259,694,0,0,0,0,0,0,0,0,0,-1,965,330,0,0
-252,694,0,0,0,0,0,0,0,0,0,-1,972,330,0,0
-245,694,0,0,0,0,0,0,0,0,0,-1,979,330,0,0
-238,694,0,0,0,0,0,0,0,0,0,-1,986,330,0,0
-231,694,0,0,0,0,0,0,0,0,0,-1,993,330,0,0
-224,694,0,0,0,0,0,0,0,0,0,-1,1000,330,0,0
-217,694,0,0,0,0,0,0,0,0,0,-1,1007,330,0,0
-210,694,0,0,0,0,0,0,0,0,0,-1,1014,330,0,0
-203,694,0,0,0,0,0,0,0,0,0,-1,1021,330,0,0
-196,694,0,0,0,0,0,0,0,0,0,-1,1028,330,0,0
-189,694,0,0,0,0,0,0,0,0,0,-1,1035,330,0,0
-182,694,0,0,0,0,0,0,0,0,0,-1,1042,330,0,0
-175,694,0,0,0,0,0,0,0,0,0,-1,1049,330,0,0
-168,694,0,0,0,0,0,0,0,0,0,-1,1056,330,0,0
-161,694,0,0,0,0,0,0,0,0,0,-1,1063,330,0,0
-154,694,0,0,0,0,0,0,0,0,0,-1,1070,330,0,0
-147,694,0,0,0,0,0,0,0,0,0,-1,1077,330,0,0
-140,694,0,0,0,0,0,0,0,0,0,-1,1084,330,0,0
-133,694,0,0,0,0,0,0,0,0,0,-1,1091,330,0,0
-126,694,0,0,0,0,0,0,0,0,0,-1,1098,330,0,0
-119,694,0,0,0,0,0,0,0,0,0,-1,1105,330,0,0
-112,694,0,0,0,0,0,0,0,0,0,-1,1112,330,0,0
-105,694,-1.35962,-7.57141,0,0,0,0,0,0,0,-1,1119,330,-1.3596,7.57142
-98,694,1.34875,-10.1051,0,0,0,0,0,0,0,-1,1126,330,1.34874,10.1051
-91,694,1.35474,-9.22229,0,0,0,0,0,0,0,-1,1133,330,1.35476,9.22229
-84,694,-4.39136,-4.62332,0,0,0,0,0,0,0,-1,1140,330,-4.3914,4.62331
-77,694,-4.93396,-10.2672,0,0,0,0,0,0,0,-1,1147,330,-4.9339,10.2672
-70,694,-6.49402,-10.0714,0,0,0,0,0,0,0,-1,1154,330,-6.49399,10.0714
-63,694,-5.80835,-4.75275,0,0,0,0,0,0,0,-1,1161,330,-5.80834,4.75274
-56,694,-6.50623,-0.649139,0,0,0,0,0,0,0,-1,1168,330,-6.5062,0.649126
-49,694,-1.11426,0.0341797,0,0,0,0,0,0,0,-1,1175,330,-1.11424,-0.0341846
-42,694,-0.346313,-0.709595,0,0,0,0,0,0,0,-1,1182,330,-0.346298,0.709581
-35,694,-0.459106,-1.24713,0,0,0,0,0,0,0,-1,1189,330,-0.459142,1.24714
-28,694,-6.48413,-3.95972,0,0,0,0,0,0,0,-1,1196,330,-6.48414,3.9597
-21,694,-5.01636,-4.28162,0,0,0,0,0,0,0,-1,1203,330,-5.01641,4.28162
-14,694,1.81946,-13.1778,0,0,0,0,0,0,0,-1,1210,330,1.81946,13.1778
-7,694,2.07166,-11.7176,0.0364897,-0.0366531,0.0568194,0.0674898,-0.0676532,0.499451,0.0780249,0.0467556,1217,330,2.07164,11.7176
0,694,2.30835,-10.2467,0.0375046,-0.027905,0.0456285,0.0609386,-0.0513391,0.474455,0.0649024,0.0487224,1224,330,2.30836,10.2467
7,694,2.35388,-8.80698,0,0,0,0,0,0,0,-1,1231,330,2.35394,8.80697
14,694,2.47632,-10.6925,0,0,0,0,0,0,0,-1,1238,330,2.47634,10.6925
21,694,1.40857,-11.352,0,0,0,0,0,0,0,-1,1245,330,1.40853,11.352
28,694,1.4198,-11.2023,0.0409125,-0.00417525,0.0110819,0.043489,-0.00675177,0.22844,0.0314855,0.0498934,1252,330,1.41979,11.2023
35,694,1.92627,-10.7627,0.0408213,-0.0027474,0.0064633,0.0417599,-0.00368599,0.144211,0.0291464,0.0465486,1259,330,1.9263,10.7627
42,694,2.87573,-10.6293,0.0403962,-0.00188758,0.00434696,0.0408385,-0.00232984,0.101391,0.0280346,0.0471307,1266,330,2.87579,10.6293
49,694,3.64746,-10.3924,0.0403835,-0.00178406,0.00307873,0.0406071,-0.00200766,0.0724994,0.0277648,0.0487264,1273,330,3.64742,10.3924
56,694,1.78479,-10.3416,0,0,0,0,0,0,0,-1,1280,330,1.78483,10.3416
63,694,1.93054,-10.1597,0,0,0,0,0,0,0,-1,1287,330,1.93049,10.1597
70,694,2.97791,-9.50574,0.0371612,-0.00118048,0.0123274,0.0407826,-0.00480185,0.285729,0.0289222,0.0430035,1294,330,2.97794,9.50575
77,694,3.15393,-9.43521,0.0351992,-0.000753043,0.0167854,0.0418176,-0.00737146,0.375579,0.0306326,0.0445446,1301,330,3.1539,9.43521
84,694,1.41113,-12.8959,0.0329325,0.00017278,0.021809,0.0438278,-0.0107225,0.463309,0.0333719,0.0445259,1308,330,1.41118,12.8959
91,694,1.4823,-12.2679,0.0306035,0.0023717,0.0267242,0.0467108,-0.0137356,0.542419,0.0365888,0.0457531,1315,330,1.48229,12.2679
98,694,1.64038,-11.5833,0.0284764,0.00561953,0.0315084,0.0505649,-0.016469,0.611422,0.0403363,0.0453673,1322,330,1.6404,11.5833
105,694,2.11768,-10.9351,0.0260024,0.00912496,0.0344508,0.053033,-0.0179056,0.665288,0.0425974,0.0436212,1329,330,2.1177,10.9351
112,694,2.32422,-10.0193,0.0231327,0.0138846,0.0381729,0.0569606,-0.0199433,0.725124,0.0460832,0.0417429,1336,330,2.32427,10.0193
119,694,2.20728,-9.08456,0.0202579,0.0186145,0.0410712,0.0605156,-0.0216432,0.775396,0.0491723,0.0427947,1343,330,2.20733,9.08456
126,694,2.0752,-8.15924,0.0179153,0.022711,0.0421166,0.062498,-0.0218717,0.813834,0.0505582,0.0476662,1350,330,2.07516,8.15924
133,694,1.97705,-7.29147,0,0,0,0,0,0,0,-1,1357,330,1.97701,7.29148
140,694,2.4989,-7.33252,0.0154062,0.0278668,0.0385625,0.0606991,-0.017426,0.865488,0.0473558,0.0457576,1364,330,2.49893,7.33253
147,694,2.47473,-6.29376,0.0146282,0.0289743,0.0359633,0.058473,-0.0148704,0.883834,0.0447697,0.0458787,1371,330,2.47477,6.29375
154,694,2.50647,-5.23154,0,0,0,0,0,0,0,-1,1378,330,2.50652,5.23153
161,694,1.6925,-10.4743,0,0,0,0,0,0,0,-1,1385,330,1.69248,10.4743
168,694,6.77161,1.01288,0,0,0,0,0,0,0,-1,1392,330,6.77156,-1.01287
175,694,6.72839,0.473175,0,0,0,0,0,0,0,-1,1399,330,6.72838,-0.473182
182,694,8.29028,5.75238,0,0,0,0,0,0,0,-1,1406,330,8.29034,-5.75237
189,694,7.9801,4.46118,0,0,0,0,0,0,0,-1,1413,330,7.9801,-4.46118
196,694,7.39331,3.32632,0,0,0,0,0,0,0,-1,1420,330,7.39329,-3.32633
203,694,7.04492,2.20529,0,0,0,0,0,0,0,-1,1427,330,7.04496,-2.20529
210,694,6.44714,0.646912,0,0,0,0,0,0,0,-1,1434,330,6.44717,-0.646903
217,694,7.12061,-0.644958,0,0,0,0,0,0,0,-1,1441,330,7.12059,0.644961
224,694,6.74011,-1.70544,0,0,0,0,0,0,0,-1,1448,330,6.74013,1.70546
231,694,0,0,0,0,0,0,0,0,0,-1,1455,330,0,0
238,694,0,0,0,0,0,0,0,0,0,-1,1462,330,0,0
245,694,0,0,0,0,0,0,0,0,0,-1,1469,330,0,0
252,694,0,0,0,0,0,0,0,0,0,-1,1476,330,0,0
259,694,0,0,0,0,0,0,0,0,0,-1,1483,330,0,0
266,694,0,0,0,0,0,0,0,0,0,-1,1490,330,0,0
273,694,0,0,0,0,0,0,0,0,0,-1,1497,330,0,0
280,694,0,0,0,0,0,0,0,0,0,-1,1504,330,0,0
287,694,0,0,0,0,0,0,0,0,0,-1,1511,330,0,0
294,694,0,0,0,0,0,0,0,0,0,-1,1518,330,0,0
301,694,0,0,0,0,0,0,0,0,0,-1,1525,330,0,0
308,694,0,0,0,0,0,0,0,0,0,-1,1532,330,0,0
315,694,0,0,0,0,0,0,0,0,0,-1,1539,330,0,0
322,694,0,0,0,0,0,0,0,0,0,-1,1546,330,0,0
329,694,0,0,0,0,0,0,0,0,0,-1,1553,330,0,0
336,694,0,0,0,0,0,0,0,0,0,-1,1560,330,0,0
343,694,0,0,0,0,0,0,0,0,0,-1,1567,330,0,0
350,694,0,0,0,0,0,0,0,0,0,-1,1574,330,0,0
357,694,0,0,0,0,0,0,0,0,0,-1,1581,330,0,0
364,694,0,0,0,0,0,0,0,0,0,-1,1588,330,0,0
371,694,0,0,0,0,0,0,0,0,0,-1,1595,330,0,0
378,694,0,0,0,0,0,0,0,0,0,-1,1602,330,0,0
385,694,0,0,0,0,0,0,0,0,0,-1,1609,330,0,0
392,694,0,0,0,0,0,0,0,0,0,-1,1616,330,0,0
399,694,0,0,0,0,0,0,0,0,0,-1,1623,330,0,0
406,694,0,0,0,0,0,0,0,0,0,-1,1630,330,0,0
413,694,0,0,0,0,0,0,0,0,0,-1,1637,330,0,0
420,694,0,0,0,0,0,0,0,0,0,-1,1644,330,0,0
427,694,0,0,0,0,0,0,0,0,0,-1,1651,330,0,0
434,694,0,0,0,0,0,0,0,0,0,-1,1658,330,0,0
441,694,0,0,0,0,0,0,0,0,0,-1,1665,330,0,0
448,694,0,0,0,0,0,0,0,0,0,-1,1672,330,0,0
455,694,0,0,0,0,0,0,0,0,0,-1,1679,330,0,0
462,694,0,0,0,0,0,0,0,0,0,-1,1686,330,0,0
469,694,0,0,0,0,0,0,0,0,0,-1,1693,330,0,0
476,694,0,0,0,0,0,0,0,0,0,-1,1700,330,0,0
483,694,0,0,0,0,0,0,0,0,0,-1,1707,330,0,0
490,694,0,0,0,0,0,0,0,0,0,-1,1714,330,0,0
497,694,0,0,0,0,0,0,0,0,0,-1,1721,330,0,0
504,694,0,0,0,0,0,0,0,0,0,-1,1728,330,0,0
511,694,0,0,0,0,0,0,0,0,0,-1,1735,330,0,0
518,694,0,0,0,0,0,0,0,0,0,-1,1742,330,0,0
525,694,0,0,0,0,0,0,0,0,0,-1,1749,330,0,0
532,694,0,0,0,0,0,0,0,0,0,-1,1756,330,0,0
539,694,0,0,0,0,0,0,0,0,0,-1,1763,330,0,0
546,694,0,0,0,0,0,0,0,0,0,-1,1770,330,0,0
553,694,0,0,0,0,0,0,0,0,0,-1,1777,330,0,0
560,694,0,0,0,0,0,0,0,0,0,-1,1784,330,0,0
567,694,0,0,0,0,0,0,0,0,0,-1,1791,330,0,0
574,694,0,0,0,0,0,0,0,0,0,-1,1798,330,0,0
581,694,0,0,0,0,0,0,0,0,0,-1,1805,330,0,0
588,694,0,0,0,0,0,0,0,0,0,-1,1812,330,0,0
595,694,0,0,0,0,0,0,0,0,0,-1,1819,330,0,0
602,694,0,0,0,0,0,0,0,0,0,-1,1826,330,0,0
609,694,0,0,0,0,0,0,0,0,0,-1,1833,330,0,0
616,694,0,0,0,0,0,0,0,0,0,-1,1840,330,0,0
623,694,0,0,0,0,0,0,0,0,0,-1,1847,330,0,0
630,694,0,0,0,0,0,0,0,0,0,-1,1854,330,0,0
637,694,0,0,0,0,0,0,0,0,0,-1,1861,330,0,0
644,694,0,0,0,0,0,0,0,0,0,-1,1868,330,0,0
651,694,0,0,0,0,0,0,0,0,0,-1,1875,330,0,0
658,694,0,0,0,0,0,0,0,0,0,-1,1882,330,0,0
665,694,0,0,0,0,0,0,0,0,0,-1,1889,330,0,0
672,694,0,0,0,0,0,0,0,0,0,-1,1896,330,0,0
679,694,0,0,0,0,0,0,0,0,0,-1,1903,330,0,0
686,694,0,0,0,0,0,0,0,0,0,-1,1910,330,0,0
693,694,0,0,0,0,0,0,0,0,0,-1,1917,330,0,0
700,694,0,0,0,0,0,0,0,0,0,-1,1924,330,0,0
707,694,0,0,0,0,0,0,0,0,0,-1,1931,330,0,0
714,694,0,0,0,0,0,0,0,0,0,-1,1938,330,0,0
721,694,0,0,0,0,0,0,0,0,0,-1,1945,330,0,0
728,694,0,0,0,0,0,0,0,0,0,-1,1952,330,0,0
735,694,0,0,0,0,0,0,0,0,0,-1,1959,330,0,0
742,694,0,0,0,0,0,0,0,0,0,-1,1966,330,0,0
749,694,0,0,0,0,0,0,0,0,0,-1,1973,330,0,0
756,694,0,0,0,0,0,0,0,0,0,-1,1980,330,0,0
763,694,0,0,0,0,0,0,0,0,0,-1,1987,330,0,0
770,694,0,0,0,0,0,0,0,0,0,-1,1994,330,0,0
777,694,0,0,0,0,0,0,0,0,0,-1,2001,330,0,0
784,694,0,0,0,0,0,0,0,0,0,-1,2008,330,0,0
791,694,0,0,0,0,0,0,0,0,0,-1,2015,330,0,0
798,694,0,0,0,0,0,0,0,0,0,-1,2022,330,0,0
805,694,0,0,0,0,0,0,0,0,0,-1,2029,330,0,0
812,694,0,0,0,0,0,0,0,0,0,-1,2036,330,0,0
-700,687,0,0,0,0,0,0,0,0,0,-1,524,337,0,0
-693,687,0,0,0,0,0,0,0,0,0,-1,531,337,0,0
-686,687,0,0,0,0,0,0,0,0,0,-1,538,337,0,0
-679,687,0,0,0,0,0,0,0,0,0,-1,545,337,0,0
-672,687,0,0,0,0,0,0,0,0,0,-1,552,337,0,0
-665,687,0,0,0,0,0,0,0,0,0,-1,559,337,0,0
-658,687,0,0,0,0,0,0,0,0,0,-1,566,337,0,0
-651,687,0,0,0,0,0,0,0,0,0,-1,573,337,0,0
-644,687,0,0,0,0,0,0,0,0,0,-1,580,337,0,0
-637,687,0,0,0,0,0,0,0,0,0,-1,587,337,0,0
-630,687,0,0,0,0,0,0,0,0,0,-1,594,337,0,0
-623,687,0,0,0,0,0,0,0,0,0,-1,601,337,0,0
-616,687,0,0,0,0,0,0,0,0,0,-1,608,337,0,0
-609,687,0,0,0,0,0,0,0,0,0,-1,615,337,0,0
-602,687,0,0,0,0,0,0,0,0,0,-1,622,337,0,0
-595,687,0,0,0,0,0,0,0,0,0,-1,629,337,0,0
-588,687,0,0,0,0,0,0,0,0,0,-1,636,337,0,0
-581,687,0,0,0,0,0,0,0,0,0,-1,643,337,0,0
-574,687,0,0,0,0,0,0,0,0,0,-1,650,337,0,0
-567,687,0,0,0,0,0,0,0,0,0,-1,657,337,0,0
-560,687,0,0,0,0,0,0,0,0,0,-1,664,337,0,0
-553,687,0,0,0,0,0,0,0,0,0,-1,671,337,0,0
-546,687,0,0,0,0,0,0,0,0,0,-1,678,337,0,0
-539,687,0,0,0,0,0,0,0,0,0,-1,685,337,0,0
-532,687,0,0,0,0,0,0,0,0,0,-1,692,337,0,0
-525,687,0,0,0,0,0,0,0,0,0,-1,699,337,0,0
-518,687,0,0,0,0,0,0,0,0,0,-1,706,337,0,0
-511,687,0,0,0,0,0,0,0,0,0,-1,713,337,0,0
-504,687,0,0,0,0,0,0,0,0,0,-1,720,337,0,0
-497,687,0,0,0,0,0,0,0,0,0,-1,727,337,0,0
-490,687,0,0,0,0,0,0,0,0,0,-1,734,337,0,0
-483,687,0,0,0,0,0,0,0,0,0,-1,741,337,0,0
-476,687,0,0,0,0,0,0,0,0,0,-1,748,337,0,0
-469,687,0,0,0,0,0,0,0,0,0,-1,755,337,0,0
-462,687,0,0,0,0,0,0,0,0,0,-1,762,337,0,0
-455,687,0,0,0,0,0,0,0,0,0,-1,769,337,0,0
-448,687,0,0,0,0,0,0,0,0,0,-1,776,337,0,0
-441,687,0,0,0,0,0,0,0,0,0,-1,783,337,0,0
-434,687,0,0,0,0,0,0,0,0,0,-1,790,337,0,0
-427,687,0,0,0,0,0,0,0,0,0,-1,797,337,0,0
-420,687,0,0,0,0,0,0,0,0,0,-1,804,337,0,0
-413,687,0,0,0,0,0,0,0,0,0,-1,811,337,0,0
-406,687,0,0,0,0,0,0,0,0,0,-1,818,337,0,0
-399,687,0,0,0,0,0,0,0,0,0,-1,825,337,0,0
-392,687,0,0,0,0,0,0,0,0,0,-1,832,337,0,0
-385,687,0,0,0,0,0,0,0,0,0,-1,839,337,0,0
-378,687,0,0,0,0,0,0,0,0,0,-1,846,337,0,0
-371,687,0,0,0,0,0,0,0,0,0,-1,853,337,0,0
-364,687,0,0,0,0,0,0,0,0,0,-1,860,337,0,0
-357,687,0,0,0,0,0,0,0,0,0,-1,867,337,0,0
-350,687,0,0,0,0,0,0,0,0,0,-1,874,337,0,0
-343,687,0,0,0,0,0,0,0,0,0,-1,881,337,0,0
-336,687,0,0,0,0,0,0,0,0,0,-1,888,337,0,0
-329,687,0,0,0,0,0,0,0,0,0,-1,895,337,0,0
-322,687,0,0,0,0,0,0,0,0,0,-1,902,337,0,0
-315,687,0,0,0,0,0,0,0,0,0,-1,909,337,0,0
-308,687,0,0,0,0,0,0,0,0,0,-1,916,337,0,0
-301,687,0,0,0,0,0,0,0,0,0,-1,923,337,0,0
-294,687,0,0,0,0,0,0,0,0,0,-1,930,337,0,0
-287,687,0,0,0,0,0,0,0,0,0,-1,937,337,0,0
-280,687,0,0,0,0,0,0,0,0,0,-1,944,337,0,0
-273,687,0,0,0,0,0,0,0,0,0,-1,951,337,0,0
-266,687,0,0,0,0,0,0,0,0,0,-1,958,337,0,0
-259,687,0,0,0,0,0,0,0,0,0,-1,965,337,0,0
-252,687,0,0,0,0,0,0,0,0,0,-1,972,337,0,0
-245,687,0,0,0,0,0,0,0,0,0,-1,979,337,0,0
-238,687,0,0,0,0,0,0,0,0,0,-1,986,337,0,0
-231,687,0,0,0,0,0,0,0,0,0,-1,993,337,0,0
-224,687,0,0,0,0,0,0,0,0,0,-1,1000,337,0,0
-217,687,0,0,0,0,0,0,0,0,0,-1,1007,337,0,0
-210,687,0,0,0,0,0,0,0,0,0,-1,1014,337,0,0
-203,687,0,0,0,0,0,0,0,0,0,-1,1021,337,0,0
-196,687,0,0,0,0,0,0,0,0,0,-1,1028,337,0,0
-189,687,0,0,0,0,0,0,0,0,0,-1,1035,337,0,0
-182,687,0,0,0,0,0,0,0,0,0,-1,1042,337,0,0
-175,687,0,0,0,0,0,0,0,0,0,-1,1049,337,0,0
-168,687,0,0,0,0,0,0,0,0,0,-1,1056,337,0,0
-161,687,0,0,0,0,0,0,0,0,0,-1,1063,337,0,0
-154,687,0,0,0,0,0,0,0,0,0,-1,1070,337,0,0
-147,687,0,0,0,0,0,0,0,0,0,-1,1077,337,0,0
-140,687,0,0,0,0,0,0,0,0,0,-1,1084,337,0,0
-133,687,1.63049,-10.3847,0,0,0,0,0,0,0,-1,1091,337,1.63044,10.3847
-126,687,0.941284,-10.8708,0,0,0,0,0,0,0,-1,1098,337,0.941263,10.8708
-119,687,0.577881,-11.4252,0,0,0,0,0,0,0,-1,1105,337,0.57784,11.4252
-112,687,0.14917,-11.9645,0,0,0,0,0,0,0,-1,1112,337,0.149153,11.9645
-105,687,-0.227173,-12.5151,0,0,0,0,0,0,0,-1,1119,337,-0.227166,12.5151
-98,687,-1.97437,-6.83603,0,0,0,0,0,0,0,-1,1126,337,-1.97434,6.83603
-91,687,2.28162,-7.72437,0,0,0,0,0,0,0,-1,1133,337,2.28167,7.72437
-84,687,-0.867676,-5.7392,0,0,0,0,0,0,0,-1,1140,337,-0.867619,5.73919
-77,687,-3.63806,-12.9185,0,0,0,0,0,0,0,-1,1147,337,-3.6381,12.9185
-70,687,-5.26892,-13.0977,0,0,0,0,0,0,0,-1,1154,337,-5.26893,13.0977
-63,687,-6.97571,-13.2155,0,0,0,0,0,0,0,-1,1161,337,-6.97575,13.2154
-56,687,-7.86511,-5.93417,0,0,0,0,0,0,0,-1,1168,337,-7.86511,5.93419
-49,687,-7.44934,-0.550262,0,0,0,0,0,0,0,-1,1175,337,-7.44938,0.550261
-42,687,-4.2019,-0.405609,0,0,0,0,0,0,0,-1,1182,337,-4.20192,0.405614
-35,687,-4.42273,-0.688171,0,0,0,0,0,0,0,-1,1189,337,-4.42276,0.688178
-28,687,-1.14038,-1.39072,0,0,0,0,0,0,0,-1,1196,337,-1.14035,1.3907
-21,687,1.3429,-14.1957,0,0,0,0,0,0,0,-1,1203,337,1.34295,14.1957
-14,687,1.56201,-12.7672,0,0,0,0,0,0,0,-1,1210,337,1.56207,12.7672
-7,687,1.7605,-11.2753,0.0258321,-0.0269792,0.0399001,0.0472729,-0.0484199,0.493087,0.0552496,0.0454611,1217,337,1.76054,11.2753
0,687,1.88123,-9.52469,0.0268844,-0.0204402,0.0330554,0.0438738,-0.0374296,0.47476,0.0469897,0.0479287,1224,337,1.88126,9.52468
7,687,1.8938,-7.65259,0,0,0,0,0,0,0,-1,1231,337,1.89374,7.65259
14,687,1.97864,-11.0937,0,0,0,0,0,0,0,-1,1238,337,1.97858,11.0937
21,687,1.48792,-10.9702,0,0,0,0,0,0,0,-1,1245,337,1.48795,10.9701
28,687,1.56909,-11.0739,0.0305066,-0.0014454,0.0100279,0.033393,-0.00433185,0.280265,0.0238375,0.048659,1252,337,1.56904,11.0739
35,687,2.18042,-10.8535,0.0305481,-0.000441577,0.00662271,0.0319041,-0.00179757,0.201957,0.0218932,0.0494903,1259,337,2.18036,10.8535
42,687,2.02441,-10.6823,0.0303542,0.000413473,0.00526399,0.0312528,-0.000485041,0.169062,0.0209987,0.0472032,1266,337,2.02442,10.6823
49,687,1.57544,-10.3594,0.0303956,0.000560746,0.00443587,0.0310411,-8.48155e-05,0.144517,0.0207224,0.0470867,1273,337,1.57547,10.3594
56,687,1.62195,-10.0645,0,0,0,0,0,0,0,-1,1280,337,1.62197,10.0645
63,687,1.70081,-9.89398,0,0,0,0,0,0,0,-1,1287,337,1.70075,9.89399
70,687,1.62976,-10.0002,0.0282716,0.000906745,0.0118495,0.0326894,-0.00351106,0.356864,0.0230526,0.0407728,1294,337,1.62973,10.0002
77,687,1.81274,-10.0735,0.0267945,0.000985101,0.0153045,0.0339088,-0.00612915,0.435132,0.0249016,0.0437524,1301,337,1.81273,10.0736
84,687,2.16736,-10.7587,0.0249969,0.00143004,0.0191028,0.0356583,-0.0092313,0.509043,0.0273731,0.0430453,1308,337,2.16737,10.7587
91,687,1.5575,-11.9198,0,0,0,0,0,0,0,-1,1315,337,1.55755,11.9198
98,687,1.73083,-11.3631,0.0218399,0.00493305,0.0260868,0.0408088,-0.0140359,0.628712,0.0328982,0.0461713,1322,337,1.73087,11.3631
105,687,2.05261,-10.7612,0.0202083,0.00716988,0.0279121,0.0423524,-0.0149742,0.670674,0.0343326,0.044577,1329,337,2.05265,10.7612
112,687,2.34534,-9.95209,0.0182134,0.010575,0.0304216,0.0450547,-0.0162662,0.722954,0.0366811,0.0453493,1336,337,2.34528,9.95208
119,687,2.47546,-9.07614,0.016251,0.013938,0.0322051,0.0473203,-0.0171314,0.767451,0.0385479,0.0431709,1343,337,2.47545,9.07614
126,687,2.65869,-8.24512,0.0146899,0.0166464,0.0325879,0.0482708,-0.0169345,0.800403,0.0390685,0.0445496,1350,337,2.65865,8.24512
133,687,2.8938,-7.62579,0,0,0,0,0,0,0,-1,1357,337,2.89383,7.62579
140,687,0.790527,-10.6338,0,0,0,0,0,0,0,-1,1364,337,0.790523,10.6338
147,687,1.34729,-10.5385,0,0,0,0,0,0,0,-1,1371,337,1.34733,10.5385
154,687,1.70386,-10.6394,0,0,0,0,0,0,0,-1,1378,337,1.70383,10.6394
161,687,6.5564,1.68158,0,0,0,0,0,0,0,-1,1385,337,6.55636,-1.68157
168,687,6.66968,1.37039,0,0,0,0,0,0,0,-1,1392,337,6.6697,-1.37039
175,687,6.64075,0.771606,0,0,0,0,0,0,0,-1,1399,337,6.64073,-0.771595
182,687,6.67249,0.289917,0,0,0,0,0,0,0,-1,1406,337,6.67247,-0.289916
189,687,7.76062,4.53635,0,0,0,0,0,0,0,-1,1413,337,7.76064,-4.53636
196,687,6.99048,3.2966,0,0,0,0,0,0,0,-1,1420,337,6.99046,-3.2966
203,687,6.36499,2.1445,0,0,0,0,0,0,0,-1,1427,337,6.36499,-2.14451
210,687,6.68066,0.674652,0,0,0,0,0,0,0,-1,1434,337,6.68062,-0.674655
217,687,5.99683,-0.630493,0,0,0,0,0,0,0,-1,1441,337,5.99684,0.630497
224,687,5.52917,0.524902,0,0,0,0,0,0,0,-1,1448,337,5.5292,-0.524915
231,687,5.85583,-1.73651,0,0,0,0,0,0,0,-1,1455,337,5.85577,1.73651
238,687,5.96582,-2.96774,0,0,0,0,0,0,0,-1,1462,337,5.96577,2.96773
245,687,1.28259,2.32211,0,0,0,0,0,0,0,-1,1469,337,1.28258,-2.32211
252,687,1.97278,3.88422,0,0,0,0,0,0,0,-1,1476,337,1.97281,-3.88421
259,687,0,0,0,0,0,0,0,0,0,-1,1483,337,0,0
266,687,0,0,0,0,0,0,0,0,0,-1,1490,337,0,0
273,687,0,0,0,0,0,0,0,0,0,-1,1497,337,0,0
280,687,0,0,0,0,0,0,0,0,0,-1,1504,337,0,0
287,687,0,0,0,0,0,0,0,0,0,-1,1511,337,0,0
294,687,0,0,0,0,0,0,0,0,0,-1,1518,337,0,0
301,687,0,0,0,0,0,0,0,0,0,-1,1525,337,0,0
308,687,0,0,0,0,0,0,0,0,0,-1,1532,337,0,0
315,687,0,0,0,0,0,0,0,0,0,-1,1539,337,0,0
322,687,0,0,0,0,0,0,0,0,0,-1,1546,337,0,0
329,687,0,0,0,0,0,0,0,0,0,-1,1553,337,0,0
336,687,0,0,0,0,0,0,0,0,0,-1,1560,337,0,0
343,687,0,0,0,0,0,0,0,0,0,-1,1567,337,0,0
350,687,0,0,0,0,0,0,0,0,0,-1,1574,337,0,0
357,687,0,0,0,0,0,0,0,0,0,-1,1581,337,0,0
364,687,0,0,0,0,0,0,0,0,0,-1,1588,337,0,0
371,687,0,0,0,0,0,0,0,0,0,-1,1595,337,0,0
378,687,0,0,0,0,0,0,0,0,0,-1,1602,337,0,0
385,687,0,0,0,0,0,0,0,0,0,-1,1609,337,0,0
392,687,0,0,0,0,0,0,0,0,0,-1,1616,337,0,0
399,687,0,0,0,0,0,0,0,0,0,-1,1623,337,0,0
406,687,0,0,0,0,0,0,0,0,0,-1,1630,337,0,0
413,687,0,0,0,0,0,0,0,0,0,-1,1637,337,0,0
420,687,0,0,0,0,0,0,0,0,0,-1,1644,337,0,0
427,687,0,0,0,0,0,0,0,0,0,-1,1651,337,0,0
434,687,0,0,0,0,0,0,0,0,0,-1,1658,337,0,0
441,687,0,0,0,0,0,0,0,0,0,-1,1665,337,0,0
448,687,0,0,0,0,0,0,0,0,0,-1,1672,337,0,0
455,687,0,0,0,0,0,0,0,0,0,-1,1679,337,0,0
462,687,0,0,0,0,0,0,0,0,0,-1,1686,337,0,0
469,687,0,0,0,0,0,0,0,0,0,-1,1693,337,0,0
476,687,0,0,0,0,0,0,0,0,0,-1,1700,337,0,0
483,687,0,0,0,0,0,0,0,0,0,-1,1707,337,0,0
490,687,0,0,0,0,0,0,0,0,0,-1,1714,337,0,0
497,687,0,0,0,0,0,0,0,0,0,-1,1721,337,0,0
504,687,0,0,0,0,0,0,0,0,0,-1,1728,337,0,0
511,687,0,0,0,0,0,0,0,0,0,-1,1735,337,0,0
518,687,0,0,0,0,0,0,0,0,0,-1,1742,337,0,0
525,687,0,0,0,0,0,0,0,0,0,-1,1749,337,0,0
532,687,0,0,0,0,0,0,0,0,0,-1,1756,337,0,0
539,687,0,0,0,0,0,0,0,0,0,-1,1763,337,0,0
546,687,0,0,0,0,0,0,0,0,0,-1,1770,337,0,0
553,687,0,0,0,0,0,0,0,0,0,-1,1777,337,0,0
560,687,0,0,0,0,0,0,0,0,0,-1,1784,337,0,0
567,687,0,0,0,0,0,0,0,0,0,-1,1791,337,0,0
574,687,0,0,0,0,0,0,0,0,0,-1,1798,337,0,0
581,687,0,0,0,0,0,0,0,0,0,-1,1805,337,0,0
588,687,0,0,0,0,0,0,0,0,0,-1,1812,337,0,0
595,687,0,0,0,0,0,0,0,0,0,-1,1819,337,0,0
602,687,0,0,0,0,0,0,0,0,0,-1,1826,337,0,0
609,687,0,0,0,0,0,0,0,0,0,-1,1833,337,0,0
616,687,0,0,0,0,0,0,0,0,0,-1,1840,337,0,0
623,687,0,0,0,0,0,0,0,0,0,-1,1847,337,0,0
630,687,0,0,0,0,0,0,0,0,0,-1,1854,337,0,0
637,687,0,0,0,0,0,0,0,0,0,-1,1861,337,0,0
644,687,0,0,0,0,0,0,0,0,0,-1,1868,337,0,0
651,687,0,0,0,0,0,0,0,0,0,-1,1875,337,0,0
658,687,0,0,0,0,0,0,0,0,0,-1,1882,337,0,0
665,687,0,0,0,0,0,0,0,0,0,-1,1889,337,0,0
672,687,0,0,0,0,0,0,0,0,0,-1,1896,337,0,0
679,687,0,0,0,0,0,0,0,0,0,-1,1903,337,0,0
686,687,0,0,0,0,0,0,0,0,0,-1,1910,337,0,0
693,687,0,0,0,0,0,0,0,0,0,-1,1917,337,0,0
700,687,0,0,0,0,0,0,0,0,0,-1,1924,337,0,0
707,687,0,0,0,0,0,0,0,0,0,-1,1931,337,0,0
714,687,0,0,0,0,0,0,0,0,0,-1,1938,337,0,0
721,687,0,0,0,0,0,0,0,0,0,-1,1945,337,0,0
728,687,0,0,0,0,0,0,0,0,0,-1,1952,337,0,0
735,687,0,0,0,0,0,0,0,0,0,-1,1959,337,0,0
742,687,0,0,0,0,0,0,0,0,0,-1,1966,337,0,0
749,687,0,0,0,0,0,0,0,0,0,-1,1973,337,0,0
756,687,0,0,0,0,0,0,0,0,0,-1,1980,337,0,0
763,687,0,0,0,0,0,0,0,0,0,-1,1987,337,0,0
770,687,0,0,0,0,0,0,0,0,0,-1,1994,337,0,0
777,687,0,0,0,0,0,0,0,0,0,-1,2001,337,0,0
784,687,0,0,0,0,0,0,0,0,0,-1,2008,337,0,0
791,687,0,0,0,0,0,0,0,0,0,-1,2015,337,0,0
798,687,0,0,0,0,0,0,0,0,0,-1,2022,337,0,0
805,687,0,0,0,0,0,0,0,0,0,-1,2029,337,0,0
812,687,0,0,0,0,0,0,0,0,0,-1,2036,337,0,0
-700,680,0,0,0,0,0,0,0,0,0,-1,524,344,0,0
-693,680,0,0,0,0,0,0,0,0,0,-1,531,344,0,0
-686,680,0,0,0,0,0,0,0,0,0,-1,538,344,0,0
-679,680,0,0,0,0,0,0,0,0,0,-1,545,344,0,0
-672,680,0,0,0,0,0,0,0,0,0,-1,552,344,0,0
-665,680,0,0,0,0,0,0,0,0,0,-1,559,344,0,0
-658,680,0,0,0,0,0,0,0,0,0,-1,566,344,0,0
-651,680,0,0,0,0,0,0,0,0,0,-1,573,344,0,0
-644,680,0,0,0,0,0,0,0,0,0,-1,580,344,0,0
-637,680,0,0,0,0,0,0,0,0,0,-1,587,344,0,0
-630,680,0,0,0,0,0,0,0,0,0,-1,594,344,0,0
-623,680,0,0,0,0,0,0,0,0,0,-1,601,344,0,0
-616,680,0,0,0,0,0,0,0,0,0,-1,608,344,0,0
-609,680,0,0,0,0,0,0,0,0,0,-1,615,344,0,0
-602,680,0,0,0,0,0,0,0,0,0,-1,622,344,0,0
-595,680,0,0,0,0,0,0,0,0,0,-1,629,344,0,0
-588,680,0,0,0,0,0,0,0,0,0,-1,636,344,0,0
-581,680,0,0,0,0,0,0,0,0,0,-1,643,344,0,0
-574,680,0,0,0,0,0,0,0,0,0,-1,650,344,0,0
-567,680,0,0,0,0,0,0,0,0,0,-1,657,344,0,0
-560,680,0,0,0,0,0,0,0,0,0,-1,664,344,0,0
-553,680,0,0,0,0,0,0,0,0,0,-1,671,344,0,0
-546,680,0,0,0,0,0,0,0,0,0,-1,678,344,0,0
-539,680,0,0,0,0,0,0,0,0,0,-1,685,344,0,0
-532,680,0,0,0,0,0,0,0,0,0,-1,692,344,0,0
-525,680,0,0,0,0,0,0,0,0,0,-1,699,344,0,0
-518,680,0,0,0,0,0,0,0,0,0,-1,706,344,0,0
-511,680,0,0,0,0,0,0,0,0,0,-1,713,344,0,0
-504,680,0,0,0,0,0,0,0,0,0,-1,720,344,0,0
-497,680,0,0,0,0,0,0,0,0,0,-1,727,344,0,0
-490,680,0,0,0,0,0,0,0,0,0,-1,734,344,0,0
-483,680,0,0,0,0,0,0,0,0,0,-1,741,344,0,0
-476,680,0,0,0,0,0,0,0,0,0,-1,748,344,0,0
-469,680,0,0,0,0,0,0,0,0,0,-1,755,344,0,0
-462,680,0,0,0,0,0,0,0,0,0,-1,762,344,0,0
-455,680,0,0,0,0,0,0,0,0,0,-1,769,344,0,0
-448,680,0,0,0,0,0,0,0,0,0,-1,776,344,0,0
-441,680,0,0,0,0,0,0,0,0,0,-1,783,344,0,0
-434,680,0,0,0,0,0,0,0,0,0,-1,790,344,0,0
-427,680,0,0,0,0,0,0,0,0,0,-1,797,344,0,0
-420,680,0,0,0,0,0,0,0,0,0,-1,804,344,0,0
-413,680,0,0,0,0,0,0,0,0,0,-1,811,344,0,0
-406,680,0,0,0,0,0,0,0,0,0,-1,818,344,0,0
-399,680,0,0,0,0,0,0,0,0,0,-1,825,344,0,0
-392,680,0,0,0,0,0,0,0,0,0,-1,832,344,0,0
-385,680,0,0,0,0,0,0,0,0,0,-1,839,344,0,0
-378,680,0,0,0,0,0,0,0,0,0,-1,846,344,0,0
-371,680,0,0,0,0,0,0,0,0,0,-1,853,344,0,0
-364,680,0,0,0,0,0,0,0,0,0,-1,860,344,0,0
-357,680,0,0,0,0,0,0,0,0,0,-1,867,344,0,0
-350,680,0,0,0,0,0,0,0,0,0,-1,874,344,0,0
-343,680,0,0,0,0,0,0,0,0,0,-1,881,344,0,0
-336,680,0,0,0,0,0,0,0,0,0,-1,888,344,0,0
-329,680,0,0,0,0,0,0,0,0,0,-1,895,344,0,0
-322,680,0,0,0,0,0,0,0,0,0,-1,902,344,0,0
-315,680,0,0,0,0,0,0,0,0,0,-1,909,344,0,0
-308,680,0,0,0,0,0,0,0,0,0,-1,916,344,0,0
-301,680,0,0,0,0,0,0,0,0,0,-1,923,344,0,0
-294,680,0,0,0,0,0,0,0,0,0,-1,930,344,0,0
-287,680,0,0,0,0,0,0,0,0,0,-1,937,344,0,0
-280,680,0,0,0,0,0,0,0,0,0,-1,944,344,0,0
-273,680,0,0,0,0,0,0,0,0,0,-1,951,344,0,0
-266,680,0,0,0,0,0,0,0,0,0,-1,958,344,0,0
-259,680,0,0,0,0,0,0,0,0,0,-1,965,344,0,0
-252,680,0,0,0,0,0,0,0,0,0,-1,972,344,0,0
-245,680,0,0,0,0,0,0,0,0,0,-1,979,344,0,0
-238,680,0,0,0,0,0,0,0,0,0,-1,986,344,0,0
-231,680,0,0,0,0,0,0,0,0,0,-1,993,344,0,0
-224,680,0,0,0,0,0,0,0,0,0,-1,1000,344,0,0
-217,680,0,0,0,0,0,0,0,0,0,-1,1007,344,0,0
-210,680,0,0,0,0,0,0,0,0,0,-1,1014,344,0,0
-203,680,0,0,0,0,0,0,0,0,0,-1,1021,344,0,0
-196,680,0,0,0,0,0,0,0,0,0,-1,1028,344,0,0
-189,680,0,0,0,0,0,0,0,0,0,-1,1035,344,0,0
-182,680,0,0,0,0,0,0,0,0,0,-1,1042,344,0,0
-175,680,0,0,0,0,0,0,0,0,0,-1,1049,344,0,0
-168,680,0,0,0,0,0,0,0,0,0,-1,1056,344,0,0
-161,680,0,0,0,0,0,0,0,0,0,-1,1063,344,0,0
-154,680,-1.22534,-3.19229,0,0,0,0,0,0,0,-1,1070,344,-1.22529,3.1923
-147,680,2.94312,-15.6088,0,0,0,0,0,0,0,-1,1077,344,2.94309,15.6088
-140,680,2.14502,-11.7579,0,0,0,0,0,0,0,-1,1084,344,2.145,11.7579
-133,680,3.11047,-11.7595,0,0,0,0,0,0,0,-1,1091,344,3.11044,11.7595
-126,680,1.31165,-10.1951,0,0,0,0,0,0,0,-1,1098,344,1.31166,10.1951
-119,680,1.04834,-10.3552,0,0,0,0,0,0,0,-1,1105,344,1.04835,10.3552
-112,680,0.719482,-10.732,0,0,0,0,0,0,0,-1,1112,344,0.719423,10.732
-105,680,3.65027,-10.3892,0,0,0,0,0,0,0,-1,1119,344,3.65033,10.3892
-98,680,2.23914,-7.96515,0,0,0,0,0,0,0,-1,1126,344,2.23908,7.96514
-91,680,3.59216,-9.33444,0,0,0,0,0,0,0,-1,1133,344,3.59216,9.33444
-84,680,0.921143,-8.11185,0,0,0,0,0,0,0,-1,1140,344,0.92115,8.11186
-77,680,-0.118652,-5.75586,0,0,0,0,0,0,0,-1,1147,344,-0.118628,5.75586
-70,680,-4.04382,-16.124,0,0,0,0,0,0,0,-1,1154,344,-4.04388,16.124
-63,680,-5.41333,-13.0013,0,0,0,0,0,0,0,-1,1161,344,-5.41332,13.0013
-56,680,-6.96912,-8.83356,0,0,0,0,0,0,0,-1,1168,344,-6.96907,8.83354
-49,680,-6.7677,-2.24063,0,0,0,0,0,0,0,-1,1175,344,-6.76772,2.24063
-42,680,-1.02368,0.618805,0,0,0,0,0,0,0,-1,1182,344,-1.0237,-0.618797
-35,680,-0.947876,-0.942719,0,0,0,0,0,0,0,-1,1189,344,-0.947842,0.942731
-28,680,-1.46118,-1.10574,0,0,0,0,0,0,0,-1,1196,344,-1.4612,1.10575
-21,680,1.07629,-9.82751,0,0,0,0,0,0,0,-1,1203,344,1.07629,9.82752
-14,680,2.11426,-10.968,0,0,0,0,0,0,0,-1,1210,344,2.11426,10.9681
-7,680,1.40796,-11.1518,0,0,0,0,0,0,0,-1,1217,344,1.40793,11.1518
0,680,1.30176,-10.6297,0,0,0,0,0,0,0,-1,1224,344,1.30177,10.6297
7,680,2.00134,-11.3007,0.0196203,-0.0103178,0.0183734,0.0283505,-0.0190481,0.443574,0.0275407,0.0466017,1231,344,2.0014,11.3007
14,680,1.79944,-11.1106,0.0207952,-0.0066844,0.0139334,0.0266238,-0.012513,0.396197,0.02308,0.0421414,1238,344,1.79938,11.1106
21,680,1.75757,-10.9803,0.0215828,-0.00349534,0.01077,0.0255732,-0.00748569,0.354824,0.0200162,0.0415375,1245,344,1.75754,10.9803
28,680,1.81384,-11.0735,0.0219457,0.000192232,0.00845293,0.0248442,-0.0027062,0.330328,0.0175346,0.0432455,1252,344,1.81384,11.0735
35,680,2.05225,-10.9911,0.0220939,0.000937139,0.00605348,0.0237035,-0.000672454,0.259882,0.0160312,0.047458,1259,344,2.05219,10.9911
42,680,2.01282,-10.5693,0.022079,0.00172834,0.00524512,0.0233513,0.000456021,0.237975,0.0154178,0.0441012,1266,344,2.01279,10.5693
49,680,1.99048,-10.7104,0.0221542,0.00190127,0.00474649,0.0232114,0.00084407,0.219157,0.0152007,0.0391174,1273,344,1.99045,10.7104
56,680,1.45911,-9.78732,0,0,0,0,0,0,0,-1,1280,344,1.45911,9.78733
63,680,1.47095,-9.62827,0,0,0,0,0,0,0,-1,1287,344,1.47101,9.62825
70,680,0.42334,-10.2928,0,0,0,0,0,0,0,-1,1294,344,0.423382,10.2928
77,680,2.1322,-10.6118,0,0,0,0,0,0,0,-1,1301,344,2.13226,10.6119
84,680,1.854,-10.9663,0,0,0,0,0,0,0,-1,1308,344,1.85404,10.9663
91,680,1.75012,-11.5975,0,0,0,0,0,0,0,-1,1315,344,1.75014,11.5975
98,680,1.896,-11.1074,0.0163199,0.00433291,0.0209448,0.0321118,-0.011459,0.646044,0.0260806,0.0455179,1322,344,1.89594,11.1074
105,680,2.04993,-10.6009,0.0152848,0.00571159,0.0220279,0.0330402,-0.0120438,0.678412,0.0269538,0.0433237,1329,344,2.04987,10.6009
112,680,2.16443,-10.0985,0.0139372,0.00808725,0.0236457,0.0348382,-0.0128137,0.72386,0.0284745,0.0471721,1336,344,2.16437,10.0985
119,680,2.29504,-9.61252,0,0,0,0,0,0,0,-1,1343,344,2.2951,9.61252
126,680,3.07886,-7.82593,0,0,0,0,0,0,0,-1,1350,344,3.07888,7.82591
133,680,0.661377,-11.1968,0,0,0,0,0,0,0,-1,1357,344,0.661372,11.1968
140,680,1.06274,-10.9457,0.0107792,0.014649,0.0226126,0.0354093,-0.00998107,0.828078,0.0275428,0.0474049,1364,344,1.06271,10.9457
147,680,1.50134,-10.6936,0.0106225,0.0147486,0.0207292,0.0335171,-0.00814609,0.834997,0.0254976,0.0456466,1371,344,1.50132,10.6936
154,680,1.73425,-10.6191,0.00985975,0.014639,0.0192686,0.0316655,-0.00716682,0.847091,0.0238608,0.0495975,1378,344,1.7342,10.6191
161,680,1.86206,-10.5127,0,0,0,0,0,0,0,-1,1385,344,1.8621,10.5127
168,680,6.85046,1.69257,0,0,0,0,0,0,0,-1,1392,344,6.85045,-1.69257
175,680,6.66541,0.942078,0,0,0,0,0,0,0,-1,1399,344,6.66538,-0.942088
182,680,6.52917,0.532379,0,0,0,0,0,0,0,-1,1406,344,6.52922,-0.532385
189,680,7.55884,4.77695,0,0,0,0,0,0,0,-1,1413,344,7.55886,-4.77694
196,680,6.55627,3.35254,0,0,0,0,0,0,0,-1,1420,344,6.55622,-3.35255
203,680,5.7334,1.90753,0,0,0,0,0,0,0,-1,1427,344,5.73341,-1.90754
210,680,5.27515,0.493622,0,0,0,0,0,0,0,-1,1434,344,5.27514,-0.493632
217,680,3.96936,1.3656,0,0,0,0,0,0,0,-1,1441,344,3.96942,-1.36559
224,680,3.9491,-0.640228,0,0,0,0,0,0,0,-1,1448,344,3.94908,0.64024
231,680,4.24866,-1.96881,0,0,0,0,0,0,0,-1,1455,344,4.2486,1.96882
238,680,4.29333,-3.23984,0,0,0,0,0,0,0,-1,1462,344,4.29332,3.23984
245,680,2.44397,0.985382,0,0,0,0,0,0,0,-1,1469,344,2.44402,-0.985394
252,680,3.07349,2.18951,0,0,0,0,0,0,0,-1,1476,344,3.0735,-2.18952
259,680,2.82971,1.30682,0,0,0,0,0,0,0,-1,1483,344,2.82972,-1.30684
266,680,2.67554,1.44067,0,0,0,0,0,0,0,-1,1490,344,2.67551,-1.44066
273,680,2.46411,1.54666,0,0,0,0,0,0,0,-1,1497,344,2.46407,-1.54666
280,680,0,0,0,0,0,0,0,0,0,-1,1504,344,0,0
287,680,0,0,0,0,0,0,0,0,0,-1,1511,344,0,0
294,680,0,0,0,0,0,0,0,0,0,-1,1518,344,0,0
301,680,0,0,0,0,0,0,0,0,0,-1,1525,344,0,0
308,680,0,0,0,0,0,0,0,0,0,-1,1532,344,0,0
315,680,0,0,0,0,0,0,0,0,0,-1,1539,344,0,0
322,680,0,0,0,0,0,0,0,0,0,-1,1546,344,0,0
329,680,0,0,0,0,0,0,0,0,0,-1,1553,344,0,0
336,680,0,0,0,0,0,0,0,0,0,-1,1560,344,0,0
343,680,0,0,0,0,0,0,0,0,0,-1,1567,344,0,0
350,680,0,0,0,0,0,0,0,0,0,-1,1574,344,0,0
357,680,0,0,0,0,0,0,0,0,0,-1,1581,344,0,0
364,680,0,0,0,0,0,0,0,0,0,-1,1588,344,0,0
371,680,0,0,0,0,0,0,0,0,0,-1,1595,344,0,0
378,680,0,0,0,0,0,0,0,0,0,-1,1602,344,0,0
385,680,0,0,0,0,0,0,0,0,0,-1,1609,344,0,0
392,680,0,0,0,0,0,0,0,0,0,-1,1616,344,0,0
399,680,0,0,0,0,0,0,0,0,0,-1,1623,344,0,0
406,680,0,0,0,0,0,0,0,0,0,-1,1630,344,0,0
413,680,0,0,0,0,0,0,0,0,0,-1,1637,344,0,0
420,680,0,0,0,0,0,0,0,0,0,-1,1644,344,0,0
427,680,0,0,0,0,0,0,0,0,0,-1,1651,344,0,0
434,680,0,0,0,0,0,0,0,0,0,-1,1658,344,0,0
441,680,0,0,0,0,0,0,0,0,0,-1,1665,344,0,0
448,680,0,0,0,0,0,0,0,0,0,-1,1672,344,0,0
455,680,0,0,0,0,0,0,0,0,0,-1,1679,344,0,0
462,680,0,0,0,0,0,0,0,0,0,-1,1686,344,0,0
469,680,0,0,0,0,0,0,0,0,0,-1,1693,344,0,0
476,680,0,0,0,0,0,0,0,0,0,-1,1700,344,0,0
483,680,0,0,0,0,0,0,0,0,0,-1,1707,344,0,0
490,680,0,0,0,0,0,0,0,0,0,-1,1714,344,0,0
497,680,0,0,0,0,0,0,0,0,0,-1,1721,344,0,0
504,680,0,0,0,0,0,0,0,0,0,-1,1728,344,0,0
511,680,0,0,0,0,0,0,0,0,0,-1,1735,344,0,0
518,680,0,0,0,0,0,0,0,0,0,-1,1742,344,0,0
525,680,0,0,0,0,0,0,0,0,0,-1,1749,344,0,0
532,680,0,0,0,0,0,0,0,0,0,-1,1756,344,0,0
539,680,0,0,0,0,0,0,0,0,0,-1,1763,344,0,0
546,680,0,0,0,0,0,0,0,0,0,-1,1770,344,0,0
553,680,0,0,0,0,0,0,0,0,0,-1,1777,344,0,0
560,680,0,0,0,0,0,0,0,0,0,-1,1784,344,0,0
567,680,0,0,0,0,0,0,0,0,0,-1,1791,344,0,0
574,680,0,0,0,0,0,0,0,0,0,-1,1798,344,0,0
581,680,0,0,0,0,0,0,0,0,0,-1,1805,344,0,0
588,680,0,0,0,0,0,0,0,0,0,-1,1812,344,0,0
595,680,0,0,0,0,0,0,0,0,0,-1,1819,344,0,0
602,680,0,0,0,0,0,0,0,0,0,-1,1826,344,0,0
609,680,0,0,0,0,0,0,0,0,0,-1,1833,344,0,0
616,680,0,0,0,0,0,0,0,0,0,-1,1840,344,0,0
623,680,0,0,0,0,0,0,0,0,0,-1,1847,344,0,0
630,680,0,0,0,0,0,0,0,0,0,-1,1854,344,0,0
637,680,0,0,0,0,0,0,0,0,0,-1,1861,344,0,0
644,680,0,0,0,0,0,0,0,0,0,-1,1868,344,0,0
651,680,0,0,0,0,0,0,0,0,0,-1,1875,344,0,0
658,680,0,0,0,0,0,0,0,0,0,-1,1882,344,0,0
665,680,0,0,0,0,0,0,0,0,0,-1,1889,344,0,0
672,680,0,0,0,0,0,0,0,0,0,-1,1896,344,0,0
679,680,0,0,0,0,0,0,0,0,0,-1,1903,344,0,0
686,680,0,0,0,0,0,0,0,0,0,-1,1910,344,0,0
693,680,0,0,0,0,0,0,0,0,0,-1,1917,344,0,0
700,680,0,0,0,0,0,0,0,0,0,-1,1924,344,0,0
707,680,0,0,0,0,0,0,0,0,0,-1,1931,344,0,0
714,680,0,0,0,0,0,0,0,0,0,-1,1938,344,0,0
721,680,0,0,0,0,0,0,0,0,0,-1,1945,344,0,0
728,680,0,0,0,0,0,0,0,0,0,-1,1952,344,0,0
735,680,0,0,0,0,0,0,0,0,0,-1,1959,344,0,0
742,680,0,0,0,0,0,0,0,0,0,-1,1966,344,0,0
749,680,0,0,0,0,0,0,0,0,0,-1,1973,344,0,0
756,680,0,0,0,0,0,0,0,0,0,-1,1980,344,0,0
763,680,0,0,0,0,0,0,0,0,0,-1,1987,344,0,0
770,680,0,0,0,0,0,0,0,0,0,-1,1994,344,0,0
777,680,0,0,0,0,0,0,0,0,0,-1,2001,344,0,0
784,680,0,0,0,0,0,0,0,0,0,-1,2008,344,0,0
791,680,0,0,0,0,0,0,0,0,0,-1,2015,344,0,0
798,680,0,0,0,0,0,0,0,0,0,-1,2022,344,0,0
805,680,0,0,0,0,0,0,0,0,0,-1,2029,344,0,0
812,680,0,0,0,0,0,0,0,0,0,-1,2036,344,0,0
-700,673,0,0,0,0,0,0,0,0,0,-1,524,351,0,0
-693,673,0,0,0,0,0,0,0,0,0,-1,531,351,0,0
-686,673,0,0,0,0,0,0,0,0,0,-1,538,351,0,0
-679,673,0,0,0,0,0,0,0,0,0,-1,545,351,0,0
-672,673,0,0,0,0,0,0,0,0,0,-1,552,351,0,0
-665,673,0,0,0,0,0,0,0,0,0,-1,559,351,0,0
-658,673,0,0,0,0,0,0,0,0,0,-1,566,351,0,0
-651,673,0,0,0,0,0,0,0,0,0,-1,573,351,0,0
-644,673,0,0,0,0,0,0,0,0,0,-1,580,351,0,0
-637,673,0,0,0,0,0,0,0,0,0,-1,587,351,0,0
-630,673,0,0,0,0,0,0,0,0,0,-1,594,351,0,0
-623,673,0,0,0,0,0,0,0,0,0,-1,601,351,0,0
-616,673,0,0,0,0,0,0,0,0,0,-1,608,351,0,0
-609,673,0,0,0,0,0,0,0,0,0,-1,615,351,0,0
-602,673,0,0,0,0,0,0,0,0,0,-1,622,351,0,0
-595,673,0,0,0,0,0,0,0,0,0,-1,629,351,0,0
-588,673,0,0,0,0,0,0,0,0,0,-1,636,351,0,0
-581,673,0,0,0,0,0,0,0,0,0,-1,643,351,0,0
-574,673,0,0,0,0,0,0,0,0,0,-1,650,351,0,0
-567,673,0,0,0,0,0,0,0,0,0,-1,657,351,0,0
-560,673,0,0,0,0,0,0,0,0,0,-1,664,351,0,0
-553,673,0,0,0,0,0,0,0,0,0,-1,671,351,0,0
-546,673,0,0,0,0,0,0,0,0,0,-1,678,351,0,0
-539,673,0,0,0,0,0,0,0,0,0,-1,685,351,0,0
-532,673,0,0,0,0,0,0,0,0,0,-1,692,351,0,0
-525,673,0,0,0,0,0,0,0,0,0,-1,699,351,0,0
-518,673,0,0,0,0,0,0,0,0,0,-1,706,351,0,0
-511,673,0,0,0,0,0,0,0,0,0,-1,713,351,0,0
-504,673,0,0,0,0,0,0,0,0,0,-1,720,351,0,0
-497,673,0,0,0,0,0,0,0,0,0,-1,727,351,0,0
-490,673,0,0,0,0,0,0,0,0,0,-1,734,351,0,0
-483,673,0,0,0,0,0,0,0,0,0,-1,741,351,0,0
-476,673,0,0,0,0,0,0,0,0,0,-1,748,351,0,0
-469,673,0,0,0,0,0,0,0,0,0,-1,755,351,0,0
-462,673,0,0,0,0,0,0,0,0,0,-1,762,351,0,0
-455,673,0,0,0,0,0,0,0,0,0,-1,769,351,0,0
-448,673,0,0,0,0,0,0,0,0,0,-1,776,351,0,0
-441,673,0,0,0,0,0,0,0,0,0,-1,783,351,0,0
-434,673,0,0,0,0,0,0,0,0,0,-1,790,351,0,0
-427,673,0,0,0,0,0,0,0,0,0,-1,797,351,0,0
-420,673,0,0,0,0,0,0,0,0,0,-1,804,351,0,0
-413,673,0,0,0,0,0,0,0,0,0,-1,811,351,0,0
-406,673,0,0,0,0,0,0,0,0,0,-1,818,351,0,0
-399,673,0,0,0,0,0,0,0,0,0,-1,825,351,0,0
-392,673,0,0,0,0,0,0,0,0,0,-1,832,351,0,0
-385,673,0,0,0,0,0,0,0,0,0,-1,839,351,0,0
-378,673,0,0,0,0,0,0,0,0,0,-1,846,351,0,0
-371,673,0,0,0,0,0,0,0,0,0,-1,853,351,0,0
-364,673,0,0,0,0,0,0,0,0,0,-1,860,351,0,0
-357,673,0,0,0,0,0,0,0,0,0,-1,867,351,0,0
-350,673,0,0,0,0,0,0,0,0,0,-1,874,351,0,0
-343,673,0,0,0,0,0,0,0,0,0,-1,881,351,0,0
-336,673,0,0,0,0,0,0,0,0,0,-1,888,351,0,0
-329,673,0,0,0,0,0,0,0,0,0,-1,895,351,0,0
-322,673,0,0,0,0,0,0,0,0,0,-1,902,351,0,0
-315,673,0,0,0,0,0,0,0,0,0,-1,909,351,0,0
-308,673,0,0,0,0,0,0,0,0,0,-1,916,351,0,0
-301,673,0,0,0,0,0,0,0,0,0,-1,923,351,0,0
-294,673,0,0,0,0,0,0,0,0,0,-1,930,351,0,0
-287,673,0,0,0,0,0,0,0,0,0,-1,937,351,0,0
-280,673,0,0,0,0,0,0,0,0,0,-1,944,351,0,0
-273,673,0,0,0,0,0,0,0,0,0,-1,951,351,0,0
-266,673,0,0,0,0,0,0,0,0,0,-1,958,351,0,0
-259,673,0,0,0,0,0,0,0,0,0,-1,965,351,0,0
-252,673,0,0,0,0,0,0,0,0,0,-1,972,351,0,0
-245,673,0,0,0,0,0,0,0,0,0,-1,979,351,0,0
-238,673,0,0,0,0,0,0,0,0,0,-1,986,351,0,0
-231,673,0,0,0,0,0,0,0,0,0,-1,993,351,0,0
-224,673,0,0,0,0,0,0,0,0,0,-1,1000,351,0,0
-217,673,0,0,0,0,0,0,0,0,0,-1,1007,351,0,0
-210,673,0,0,0,0,0,0,0,0,0,-1,1014,351,0,0
-203,673,0,0,0,0,0,0,0,0,0,-1,1021,351,0,0
-196,673,0,0,0,0,0,0,0,0,0,-1,1028,351,0,0
-189,673,0,0,0,0,0,0,0,0,0,-1,1035,351,0,0
-182,673,0,0,0,0,0,0,0,0,0,-1,1042,351,0,0
-175,673,5.71729,-7.07901,0,0,0,0,0,0,0,-1,1049,351,5.71723,7.079
-168,673,0.501221,-5.83353,0,0,0,0,0,0,0,-1,1056,351,0.501161,5.83354
-161,673,3.87073,-11.1271,0,0,0,0,0,0,0,-1,1063,351,3.87074,11.1271
-154,673,2.62036,-14.0723,0,0,0,0,0,0,0,-1,1070,351,2.62035,14.0723
-147,673,3.1095,-14.4338,0,0,0,0,0,0,0,-1,1077,351,3.10944,14.4338
-140,673,4.25342,-14.4467,0,0,0,0,0,0,0,-1,1084,351,4.25338,14.4467
-133,673,2.93616,-10.9825,0,0,0,0,0,0,0,-1,1091,351,2.93615,10.9825
-126,673,3.91003,-10.2144,0,0,0,0,0,0,0,-1,1098,351,3.91004,10.2144
-119,673,2.2644,-9.51627,0,0,0,0,0,0,0,-1,1105,351,2.26435,9.51626
-112,673,2.00281,-8.89026,0,0,0,0,0,0,0,-1,1112,351,2.00286,8.89025
-105,673,2.1936,-8.58463,0,0,0,0,0,0,0,-1,1119,351,2.19365,8.58463
-98,673,2.27002,-8.4639,0,0,0,0,0,0,0,-1,1126,351,2.27002,8.46388
-91,673,3.24036,-9.75107,0,0,0,0,0,0,0,-1,1133,351,3.24032,9.75107
-84,673,3.05737,-9.37473,0,0,0,0,0,0,0,-1,1140,351,3.05738,9.37473
-77,673,2.36157,-7.52881,0,0,0,0,0,0,0,-1,1147,351,2.36159,7.5288
-70,673,1.88684,-4.7381,0,0,0,0,0,0,0,-1,1154,351,1.88682,4.73809
-63,673,1.11719,-2.95016,0,0,0,0,0,0,0,-1,1161,351,1.11724,2.95016
-56,673,-6.18872,-9.52338,0,0,0,0,0,0,0,-1,1168,351,-6.18874,9.52336
-49,673,-0.926758,-0.115448,0,0,0,0,0,0,0,-1,1175,351,-0.926732,0.115444
-42,673,-1.15015,0.289917,0,0,0,0,0,0,0,-1,1182,351,-1.15017,-0.289932
-35,673,-0.919556,-1.00711,0,0,0,0,0,0,0,-1,1189,351,-0.919514,1.00711
-28,673,1.03564,-2.58228,0,0,0,0,0,0,0,-1,1196,351,1.0356,2.58229
-21,673,2.20679,-10.8426,0,0,0,0,0,0,0,-1,1203,351,2.20675,10.8426
-14,673,2.06116,-10.9716,0.0103091,-0.0162366,0.0207822,0.0216952,-0.0276228,0.501215,0.0285423,0.0469213,1210,351,2.06111,10.9716
-7,673,1.62378,-11.1771,0.0112134,-0.0133452,0.0174222,0.0202487,-0.0223806,0.478426,0.0246223,0.0419404,1217,351,1.6238,11.1771
0,673,1.88232,-11.1692,0.0120923,-0.0100009,0.0153063,0.0199219,-0.0178305,0.472827,0.0218075,0.0434986,1224,351,1.88232,11.1692
7,673,2.08496,-11.1343,0.0131069,-0.00706818,0.012578,0.0191428,-0.0131041,0.447419,0.0187263,0.0425937,1231,351,2.085,11.1343
14,673,2.09741,-11.1154,0.0140993,-0.00443146,0.00990191,0.0183947,-0.00872688,0.409298,0.0159868,0.0360442,1238,351,2.09741,11.1155
21,673,2.09045,-11.0017,0.0148083,-0.00190875,0.00807227,0.0180698,-0.00517032,0.38399,0.0140898,0.0224297,1245,351,2.09044,11.0017
28,673,2.02966,-11.0179,0.0151711,0.00104032,0.0067108,0.0178502,-0.00163876,0.379833,0.0124823,0.0158648,1252,351,2.02964,11.0178
35,673,2.00378,-11.0403,0.0153804,0.00162766,0.00510366,0.0170674,-5.93737e-05,0.319246,0.0113981,0.0234287,1259,351,2.00375,11.0403
42,673,2.00854,-11.0358,0.0154779,0.00232525,0.00467655,0.0169711,0.000831987,0.309075,0.0110472,0.0257784,1266,351,2.00855,11.0358
49,673,2.00562,-11.0342,0.0155651,0.00251668,0.00441442,0.0169182,0.00116355,0.297432,0.0109116,0.0163015,1273,351,2.00566,11.0342
56,673,1.96692,-11.0214,0.0155547,0.00286473,0.00503893,0.0173122,0.00110727,0.335585,0.0111906,0.0131151,1280,351,1.96694,11.0214
63,673,2.00537,-11.0172,0.0153544,0.00299769,0.00696457,0.0184861,-0.000134017,0.422573,0.012369,0.0149633,1287,351,2.00539,11.0172
70,673,1.9491,-11.0026,0.0150079,0.00265859,0.00890362,0.0196684,-0.00200192,0.482223,0.013828,0.0230395,1294,351,1.94905,11.0026
77,673,1.95508,-10.9233,0.0142812,0.00248498,0.010896,0.0207731,-0.00400689,0.537326,0.0153595,0.0324946,1301,351,1.95506,10.9233
84,673,1.93872,-10.9864,0.0132471,0.00250996,0.0129351,0.0218835,-0.00612644,0.588697,0.0170031,0.0386731,1308,351,1.93874,10.9864
91,673,1.93018,-11.1944,0.0124308,0.00291075,0.014658,0.0230823,-0.00774077,0.6284,0.0185159,0.0443585,1315,351,1.9302,11.1944
98,673,1.89929,-11.0033,0.0118225,0.00378484,0.0162735,0.0245661,-0.00895875,0.664342,0.0200426,0.0458131,1322,351,1.89924,11.0033
105,673,1.72375,-10.6245,0.0111978,0.00459764,0.0168806,0.0250978,-0.00930244,0.688868,0.0205471,0.0405974,1329,351,1.72372,10.6245
112,673,2.06689,-10.4141,0.0103195,0.0062078,0.0178712,0.0262527,-0.00972543,0.728132,0.0214901,0.042596,1336,351,2.06688,10.4141
119,673,2.17908,-10.5144,0,0,0,0,0,0,0,-1,1343,351,2.17913,10.5144
126,673,2.12378,-10.4662,0.00878633,0.00876539,0.018105,0.0268809,-0.00932913,0.785109,0.0217091,0.0407687,1350,351,2.12383,10.4662
133,673,1.60168,-10.6167,0.00849431,0.00901287,0.0172248,0.0259804,-0.00847321,0.792924,0.0207302,0.0412983,1357,351,1.60163,10.6167
140,673,1.68604,-10.7553,0.00832102,0.0103814,0.0165119,0.0258952,-0.00719275,0.816554,0.0200948,0.0409012,1364,351,1.68599,10.7553
147,673,1.61365,-10.7662,0.00825759,0.010245,0.0149272,0.0242116,-0.00570896,0.818635,0.0183426,0.0383611,1371,351,1.61362,10.7662
154,673,1.74097,-10.6086,0.00763424,0.00994215,0.0135614,0.0223986,-0.00482219,0.827841,0.0167725,0.0377694,1378,351,1.74091,10.6086
161,673,1.88708,-10.5257,0,0,0,0,0,0,0,-1,1385,351,1.88709,10.5257
168,673,6.87061,1.83954,0,0,0,0,0,0,0,-1,1392,351,6.87063,-1.83953
175,673,6.6228,1.1459,0,0,0,0,0,0,0,-1,1399,351,6.62276,-1.14591
182,673,6.37244,0.796112,0,0,0,0,0,0,0,-1,1406,351,6.3724,-0.796102
189,673,6.12097,0.265472,0,0,0,0,0,0,0,-1,1413,351,6.121,-0.265482
196,673,6.02173,3.12717,0,0,0,0,0,0,0,-1,1420,351,6.02176,-3.12717
203,673,5.04456,1.6351,0,0,0,0,0,0,0,-1,1427,351,5.04455,-1.63509
210,673,4.79224,0.447479,0,0,0,0,0,0,0,-1,1434,351,4.79229,-0.447469
217,673,2.01648,0.972687,0,0,0,0,0,0,0,-1,1441,351,2.01644,-0.972691
224,673,2.3689,-1.80539,0,0,0,0,0,0,0,-1,1448,351,2.36896,1.80539
231,673,2.65857,-2.18497,0,0,0,0,0,0,0,-1,1455,351,2.65852,2.18496
238,673,3.24146,-1.01593,0,0,0,0,0,0,0,-1,1462,351,3.24142,1.01593
245,673,3.5376,-0.190399,0,0,0,0,0,0,0,-1,1469,351,3.53759,0.1904
252,673,3.80518,0.55603,0,0,0,0,0,0,0,-1,1476,351,3.80519,-0.556022
259,673,3.88562,1.29617,0,0,0,0,0,0,0,-1,1483,351,3.88562,-1.29618
266,673,4.22424,2.04834,0,0,0,0,0,0,0,-1,1490,351,4.22429,-2.04834
273,673,6.07886,0.385895,0,0,0,0,0,0,0,-1,1497,351,6.0789,-0.385906
280,673,6.97534,-0.0820007,0,0,0,0,0,0,0,-1,1504,351,6.97536,0.0820122
287,673,7.66968,-0.348541,0,0,0,0,0,0,0,-1,1511,351,7.66969,0.348534
294,673,8.20996,0.28537,0,0,0,0,0,0,0,-1,1518,351,8.20993,-0.28536
301,673,0,0,0,0,0,0,0,0,0,-1,1525,351,0,0
308,673,0,0,0,0,0,0,0,0,0,-1,1532,351,0,0
315,673,0,0,0,0,0,0,0,0,0,-1,1539,351,0,0
322,673,0,0,0,0,0,0,0,0,0,-1,1546,351,0,0
329,673,0,0,0,0,0,0,0,0,0,-1,1553,351,0,0
336,673,0,0,0,0,0,0,0,0,0,-1,1560,351,0,0
343,673,0,0,0,0,0,0,0,0,0,-1,1567,351,0,0
350,673,0,0,0,0,0,0,0,0,0,-1,1574,351,0,0
357,673,0,0,0,0,0,0,0,0,0,-1,1581,351,0,0
364,673,0,0,0,0,0,0,0,0,0,-1,1588,351,0,0
371,673,0,0,0,0,0,0,0,0,0,-1,1595,351,0,0
378,673,0,0,0,0,0,0,0,0,0,-1,1602,351,0,0
385,673,0,0,0,0,0,0,0,0,0,-1,1609,351,0,0
392,673,0,0,0,0,0,0,0,0,0,-1,1616,351,0,0
399,673,0,0,0,0,0,0,0,0,0,-1,1623,351,0,0
406,673,0,0,0,0,0,0,0,0,0,-1,1630,351,0,0
413,673,0,0,0,0,0,0,0,0,0,-1,1637,351,0,0
420,673,0,0,0,0,0,0,0,0,0,-1,1644,351,0,0
427,673,0,0,0,0,0,0,0,0,0,-1,1651,351,0,0
434,673,0,0,0,0,0,0,0,0,0,-1,1658,351,0,0
441,673,0,0,0,0,0,0,0,0,0,-1,1665,351,0,0
448,673,0,0,0,0,0,0,0,0,0,-1,1672,351,0,0
455,673,0,0,0,0,0,0,0,0,0,-1,1679,351,0,0
462,673,0,0,0,0,0,0,0,0,0,-1,1686,351,0,0
469,673,0,0,0,0,0,0,0,0,0,-1,1693,351,0,0
476,673,0,0,0,0,0,0,0,0,0,-1,1700,351,0,0
483,673,0,0,0,0,0,0,0,0,0,-1,1707,351,0,0
490,673,0,0,0,0,0,0,0,0,0,-1,1714,351,0,0
497,673,0,0,0,0,0,0,0,0,0,-1,1721,351,0,0
504,673,0,0,0,0,0,0,0,0,0,-1,1728,351,0,0
511,673,0,0,0,0,0,0,0,0,0,-1,1735,351,0,0
518,673,0,0,0,0,0,0,0,0,0,-1,1742,351,0,0
525,673,0,0,0,0,0,0,0,0,0,-1,1749,351,0,0
532,673,0,0,0,0,0,0,0,0,0,-1,1756,351,0,0
539,673,0,0,0,0,0,0,0,0,0,-1,1763,351,0,0
546,673,0,0,0,0,0,0,0,0,0,-1,1770,351,0,0
553,673,0,0,0,0,0,0,0,0,0,-1,1777,351,0,0
560,673,0,0,0,0,0,0,0,0,0,-1,1784,351,0,0
567,673,0,0,0,0,0,0,0,0,0,-1,1791,351,0,0
574,673,0,0,0,0,0,0,0,0,0,-1,1798,351,0,0
581,673,0,0,0,0,0,0,0,0,0,-1,1805,351,0,0
588,673,0,0,0,0,0,0,0,0,0,-1,1812,351,0,0
595,673,0,0,0,0,0,0,0,0,0,-1,1819,351,0,0
602,673,0,0,0,0,0,0,0,0,0,-1,1826,351,0,0
609,673,0,0,0,0,0,0,0,0,0,-1,1833,351,0,0
616,673,0,0,0,0,0,0,0,0,0,-1,1840,351,0,0
623,673,0,0,0,0,0,0,0,0,0,-1,1847,351,0,0
630,673,0,0,0,0,0,0,0,0,0,-1,1854,351,0,0
637,673,0,0,0,0,0,0,0,0,0,-1,1861,351,0,0
644,673,0,0,0,0,0,0,0,0,0,-1,1868,351,0,0
651,673,0,0,0,0,0,0,0,0,0,-1,1875,351,0,0
658,673,0,0,0,0,0,0,0,0,0,-1,1882,351,0,0
665,673,0,0,0,0,0,0,0,0,0,-1,1889,351,0,0
672,673,0,0,0,0,0,0,0,0,0,-1,1896,351,0,0
679,673,0,0,0,0,0,0,0,0,0,-1,1903,351,0,0
686,673,0,0,0,0,0,0,0,0,0,-1,1910,351,0,0
693,673,0,0,0,0,0,0,0,0,0,-1,1917,351,0,0
700,673,0,0,0,0,0,0,0,0,0,-1,1924,351,0,0
707,673,0,0,0,0,0,0,0,0,0,-1,1931,351,0,0
714,673,0,0,0,0,0,0,0,0,0,-1,1938,351,0,0
721,673,0,0,0,0,0,0,0,0,0,-1,1945,351,0,0
728,673,0,0,0,0,0,0,0,0,0,-1,1952,351,0,0
735,673,0,0,0,0,0,0,0,0,0,-1,1959,351,0,0
742,673,0,0,0,0,0,0,0,0,0,-1,1966,351,0,0
749,673,0,0,0,0,0,0,0,0,0,-1,1973,351,0,0
756,673,0,0,0,0,0,0,0,0,0,-1,1980,351,0,0
763,673,0,0,0,0,0,0,0,0,0,-1,1987,351,0,0
770,673,0,0,0,0,0,0,0,0,0,-1,1994,351,0,0
777,673,0,0,0,0,0,0,0,0,0,-1,2001,351,0,0
784,673,0,0,0,0,0,0,0,0,0,-1,2008,351,0,0
791,673,0,0,0,0,0,0,0,0,0,-1,2015,351,0,0
798,673,0,0,0,0,0,0,0,0,0,-1,2022,351,0,0
805,673,0,0,0,0,0,0,0,0,0,-1,2029,351,0,0
812,673,0,0,0,0,0,0,0,0,0,-1,2036,351,0,0
-700,666,0,0,0,0,0,0,0,0,0,-1,524,358,0,0
-693,666,0,0,0,0,0,0,0,0,0,-1,531,358,0,0
-686,666,0,0,0,0,0,0,0,0,0,-1,538,358,0,0
-679,666,0,0,0,0,0,0,0,0,0,-1,545,358,0,0
-672,666,0,0,0,0,0,0,0,0,0,-1,552,358,0,0
-665,666,0,0,0,0,0,0,0,0,0,-1,559,358,0,0
-658,666,0,0,0,0,0,0,0,0,0,-1,566,358,0,0
-651,666,0,0,0,0,0,0,0,0,0,-1,573,358,0,0
-644,666,0,0,0,0,0,0,0,0,0,-1,580,358,0,0
-637,666,0,0,0,0,0,0,0,0,0,-1,587,358,0,0
-630,666,0,0,0,0,0,0,0,0,0,-1,594,358,0,0
-623,666,0,0,0,0,0,0,0,0,0,-1,601,358,0,0
-616,666,0,0,0,0,0,0,0,0,0,-1,608,358,0,0
-609,666,0,0,0,0,0,0,0,0,0,-1,615,358,0,0
-602,666,0,0,0,0,0,0,0,0,0,-1,622,358,0,0
-595,666,0,0,0,0,0,0,0,0,0,-1,629,358,0,0
-588,666,0,0,0,0,0,0,0,0,0,-1,636,358,0,0
-581,666,0,0,0,0,0,0,0,0,0,-1,643,358,0,0
-574,666,0,0,0,0,0,0,0,0,0,-1,650,358,0,0
-567,666,0,0,0,0,0,0,0,0,0,-1,657,358,0,0
-560,666,0,0,0,0,0,0,0,0,0,-1,664,358,0,0
-553,666,0,0,0,0,0,0,0,0,0,-1,671,358,0,0
-546,666,0,0,0,0,0,0,0,0,0,-1,678,358,0,0
-539,666,0,0,0,0,0,0,0,0,0,-1,685,358,0,0
-532,666,0,0,0,0,0,0,0,0,0,-1,692,358,0,0
-525,666,0,0,0,0,0,0,0,0,0,-1,699,358,0,0
-518,666,0,0,0,0,0,0,0,0,0,-1,706,358,0,0
-511,666,0,0,0,0,0,0,0,0,0,-1,713,358,0,0
-504,666,0,0,0,0,0,0,0,0,0,-1,720,358,0,0
-497,666,0,0,0,0,0,0,0,0,0,-1,727,358,0,0
-490,666,0,0,0,0,0,0,0,0,0,-1,734,358,0,0
-483,666,0,0,0,0,0,0,0,0,0,-1,741,358,0,0
-476,666,0,0,0,0,0,0,0,0,0,-1,748,358,0,0
-469,666,0,0,0,0,0,0,0,0,0,-1,755,358,0,0
-462,666,0,0,0,0,0,0,0,0,0,-1,762,358,0,0
-455,666,0,0,0,0,0,0,0,0,0,-1,769,358,0,0
-448,666,0,0,0,0,0,0,0,0,0,-1,776,358,0,0
-441,666,0,0,0,0,0,0,0,0,0,-1,783,358,0,0
-434,666,0,0,0,0,0,0,0,0,0,-1,790,358,0,0
-427,666,0,0,0,0,0,0,0,0,0,-1,797,358,0,0
-420,666,0,0,0,0,0,0,0,0,0,-1,804,358,0,0
-413,666,0,0,0,0,0,0,0,0,0,-1,811,358,0,0
-406,666,0,0,0,0,0,0,0,0,0,-1,818,358,0,0
-399,666,0,0,0,0,0,0,0,0,0,-1,825,358,0,0
-392,666,0,0,0,0,0,0,0,0,0,-1,832,358,0,0
-385,666,0,0,0,0,0,0,0,0,0,-1,839,358,0,0
-378,666,0,0,0,0,0,0,0,0,0,-1,846,358,0,0
-371,666,0,0,0,0,0,0,0,0,0,-1,853,358,0,0
-364,666,0,0,0,0,0,0,0,0,0,-1,860,358,0,0
-357,666,0,0,0,0,0,0,0,0,0,-1,867,358,0,0
-350,666,0,0,0,0,0,0,0,0,0,-1,874,358,0,0
-343,666,0,0,0,0,0,0,0,0,0,-1,881,358,0,0
-336,666,0,0,0,0,0,0,0,0,0,-1,888,358,0,0
-329,666,0,0,0,0,0,0,0,0,0,-1,895,358,0,0
-322,666,0,0,0,0,0,0,0,0,0,-1,902,358,0,0
-315,666,0,0,0,0,0,0,0,0,0,-1,909,358,0,0
-308,666,0,0,0,0,0,0,0,0,0,-1,916,358,0,0
-301,666,0,0,0,0,0,0,0,0,0,-1,923,358,0,0
-294,666,0,0,0,0,0,0,0,0,0,-1,930,358,0,0
-287,666,0,0,0,0,0,0,0,0,0,-1,937,358,0,0
-280,666,0,0,0,0,0,0,0,0,0,-1,944,358,0,0
-273,666,0,0,0,0,0,0,0,0,0,-1,951,358,0,0
-266,666,0,0,0,0,0,0,0,0,0,-1,958,358,0,0
-259,666,0,0,0,0,0,0,0,0,0,-1,965,358,0,0
-252,666,0,0,0,0,0,0,0,0,0,-1,972,358,0,0
-245,666,0,0,0,0,0,0,0,0,0,-1,979,358,0,0
-238,666,0,0,0,0,0,0,0,0,0,-1,986,358,0,0
-231,666,0,0,0,0,0,0,0,0,0,-1,993,358,0,0
-224,666,0,0,0,0,0,0,0,0,0,-1,1000,358,0,0
-217,666,0,0,0,0,0,0,0,0,0,-1,1007,358,0,0
-210,666,0,0,0,0,0,0,0,0,0,-1,1014,358,0,0
-203,666,0,0,0,0,0,0,0,0,0,-1,1021,358,0,0
-196,666,1.68958,-9.41406,0,0,0,0,0,0,0,-1,1028,358,1.68961,9.41406
-189,666,1.56323,-9.65897,0,0,0,0,0,0,0,-1,1035,358,1.56321,9.65897
-182,666,6.93665,-11.2356,0,0,0,0,0,0,0,-1,1042,358,6.93664,11.2356
-175,666,5.12952,-7.58682,0,0,0,0,0,0,0,-1,1049,358,5.12951,7.58683
-168,666,6.8667,-7.13138,0,0,0,0,0,0,0,-1,1056,358,6.86666,7.13138
-161,666,2.34302,-12.1108,0,0,0,0,0,0,0,-1,1063,358,2.34296,12.1108
-154,666,2.68201,-12.9164,0,0,0,0,0,0,0,-1,1070,358,2.68206,12.9163
-147,666,3.27344,-13.1083,0,0,0,0,0,0,0,-1,1077,358,3.27341,13.1083
-140,666,0.235962,-10.2043,0,0,0,0,0,0,0,-1,1084,358,0.235957,10.2044
-133,666,2.51575,-9.9046,0,0,0,0,0,0,0,-1,1091,358,2.5158,9.9046
-126,666,2.31409,-9.62122,0,0,0,0,0,0,0,-1,1098,358,2.31404,9.62122
-119,666,1.94739,-9.4274,0.0140021,0.0546796,0.00296814,0.0548951,0.0137866,1.49834,0.0329762,0.042414,1105,358,1.94745,9.42739
-112,666,2.0083,-9.27197,0.0124788,0.0584957,0.00376494,0.0588017,0.0121728,1.4897,0.0358394,0.0425497,1112,358,2.00831,9.27197
-105,666,2.11023,-9.23627,0.0112923,0.0612041,0.00396522,0.0615172,0.0109792,1.49201,0.0378858,0.0422352,1119,358,2.11025,9.23628
-98,666,2.17871,-9.16019,0.0100941,0.0615493,0.00437092,0.0619179,0.00972547,1.48665,0.038449,0.044696,1126,358,2.17871,9.1602
-91,666,2.78149,-9.87106,0.00853579,0.0598855,0.00494578,0.0603576,0.00806377,1.47565,0.037838,0.0412648,1133,358,2.78151,9.87107
-84,666,2.55566,-9.64783,0.00703479,0.055401,0.00523962,0.0559621,0.00647368,1.46411,0.0353483,0.0432468,1140,358,2.55564,9.64783
-77,666,2.49316,-9.16669,0,0,0,0,0,0,0,-1,1147,358,2.4931,9.16668
-70,666,2.05957,-6.51086,0,0,0,0,0,0,0,-1,1154,358,2.05959,6.51088
-63,666,1.47485,-3.79593,0,0,0,0,0,0,0,-1,1161,358,1.47481,3.79593
-56,666,0.424683,-2.04132,0,0,0,0,0,0,0,-1,1168,358,0.424665,2.04132
-49,666,0.754395,-2.23169,0,0,0,0,0,0,0,-1,1175,358,0.754383,2.23169
-42,666,1.34473,-3.53897,0,0,0,0,0,0,0,-1,1182,358,1.34476,3.53896
-35,666,1.84949,-11.1099,0,0,0,0,0,0,0,-1,1189,358,1.84951,11.1099
-28,666,2.17041,-10.8818,0,0,0,0,0,0,0,-1,1196,358,2.17043,10.8818
-21,666,2.13623,-10.8998,0.004878,-0.0119108,0.014021,0.0128254,-0.0198582,0.515666,0.0190149,0.0319051,1203,358,2.13624,10.8998
-14,666,2.06677,-10.9828,0.00602105,-0.0107853,0.0125757,0.0127428,-0.017507,0.490865,0.0175367,0.0240517,1210,358,2.06678,10.9828
-7,666,2.05737,-11.0049,0.00681568,-0.00894975,0.0107952,0.0122999,-0.014434,0.470043,0.0154512,0.0168775,1217,358,2.05732,11.005
0,666,2.06628,-10.9997,0.0075415,-0.00667626,0.00977126,0.0125162,-0.011651,0.470916,0.0139559,0.0115381,1224,358,2.06623,10.9997
7,666,2.07129,-11.0099,0.00835897,-0.00469732,0.00825562,0.0123556,-0.008694,0.45086,0.0122142,0.014435,1231,358,2.07131,11.0099
14,666,2.08215,-11.0067,0.00913848,-0.00284057,0.00673856,0.0121646,-0.00586673,0.42209,0.01062,0.0142964,1238,358,2.08209,11.0067
21,666,2.04468,-11.033,0.00972437,-0.000914137,0.00576847,0.0122518,-0.00344152,0.412945,0.00952457,0.0101788,1245,358,2.04464,11.033
28,666,2.01501,-11.058,0.0100548,0.00134806,0.00503216,0.0123553,-0.000952483,0.428798,0.00857203,0.010295,1252,358,2.01507,11.058
35,666,2.01709,-11.0486,0.0102835,0.00182818,0.00400981,0.0118827,0.000229031,0.379479,0.00784655,0.00899021,1259,358,2.01707,11.0486
42,666,1.99976,-11.0526,0.0104341,0.00241487,0.00382441,0.0119655,0.00088345,0.38088,0.00769946,0.0100484,1266,358,1.99972,11.0526
49,666,1.96533,-11.0513,0.0105158,0.00261381,0.00371949,0.0119911,0.00113848,0.377614,0.00764288,0.00986853,1273,358,1.96533,11.0513
56,666,1.94299,-11.0516,0.0105459,0.00291631,0.00421337,0.0124149,0.00104734,0.417503,0.00795049,0.0110934,1280,358,1.94301,11.0516
63,666,1.93665,-11.0421,0.0105263,0.00306173,0.0056479,0.0135637,2.43229e-05,0.493424,0.00903436,0.0111712,1287,358,1.93668,11.0421
70,666,1.92529,-11.0239,0.0103942,0.00275988,0.00708409,0.0146241,-0.00147,0.538281,0.0102745,0.0110159,1294,358,1.92531,11.0239
77,666,1.91248,-11.002,0.00992197,0.00258695,0.00856041,0.0155674,-0.0030585,0.583013,0.0115338,0.0146649,1301,358,1.91249,11.002
84,666,1.9314,-10.9836,0.0091731,0.00255425,0.0099994,0.0163965,-0.00466915,0.625591,0.012775,0.0207607,1308,358,1.93144,10.9836
91,666,1.91711,-10.9712,0.00863935,0.00273614,0.0111418,0.0172139,-0.00583841,0.655916,0.0138389,0.0213798,1315,358,1.91714,10.9712
98,666,1.89465,-10.951,0.0082709,0.00326034,0.0121987,0.0182189,-0.00668764,0.68412,0.0148846,0.0185518,1322,358,1.89465,10.951
105,666,1.84583,-10.8862,0.00791496,0.00371872,0.0125173,0.0185087,-0.00687505,0.702361,0.0151597,0.0193279,1329,358,1.84584,10.8862
112,666,1.80298,-10.8486,0.00736588,0.00478096,0.0130924,0.0192294,-0.00708258,0.736198,0.0157216,0.0233267,1336,358,1.80293,10.8486
119,666,1.88831,-10.8155,0,0,0,0,0,0,0,-1,1343,358,1.88828,10.8155
126,666,1.82312,-10.6929,0.00638755,0.00631153,0.0129089,0.0192585,-0.00655945,0.783926,0.0154954,0.0238975,1350,358,1.82316,10.6929
133,666,1.81116,-10.6529,0.0062103,0.00629532,0.0121705,0.0184234,-0.00591778,0.787144,0.0146586,0.0211753,1357,358,1.8111,10.6529
140,666,1.7915,-10.6907,0.00610946,0.00723691,0.0116326,0.0183194,-0.00497304,0.80961,0.0141647,0.0200197,1364,358,1.79152,10.6907
147,666,1.74084,-10.6667,0.00608067,0.00697368,0.0103469,0.0168837,-0.0038293,0.806962,0.0127257,0.0190129,1371,358,1.74085,10.6666
154,666,1.76147,-10.5768,0.00559119,0.00655296,0.00914827,0.015233,-0.00308882,0.811657,0.0113262,0.0175323,1378,358,1.76147,10.5768
161,666,1.84863,-10.5248,0.00517074,0.00556923,0.0078709,0.0132434,-0.00250344,0.798053,0.00977091,0.0255585,1385,358,1.84865,10.5248
168,666,1.90503,-10.5018,0,0,0,0,0,0,0,-1,1392,358,1.90499,10.5018
175,666,2.01416,-10.6524,0,0,0,0,0,0,0,-1,1399,358,2.01418,10.6524
182,666,2.60876,-5.17068,0,0,0,0,0,0,0,-1,1406,358,2.6088,5.17068
189,666,2.46973,-5.49979,0,0,0,0,0,0,0,-1,1413,358,2.46975,5.49979
196,666,2.32458,-5.23651,0,0,0,0,0,0,0,-1,1420,358,2.32461,5.23653
203,666,2.28064,-3.88004,0,0,0,0,0,0,0,-1,1427,358,2.28059,3.88003
210,666,3.02576,-5.83548,0,0,0,0,0,0,0,-1,1434,358,3.02581,5.83547
217,666,2.30444,-5.36011,0,0,0,0,0,0,0,-1,1441,358,2.30447,5.3601
224,666,1.82324,-6.03101,0,0,0,0,0,0,0,-1,1448,358,1.82322,6.031
231,666,1.79346,-9.52975,0,0,0,0,0,0,0,-1,1455,358,1.79348,9.52976
238,666,2.52429,-6.10568,0,0,0,0,0,0,0,-1,1462,358,2.52423,6.10567
245,666,4.53345,-1.38205,0,0,0,0,0,0,0,-1,1469,358,4.53349,1.38204
252,666,4.77405,-0.246979,0,0,0,0,0,0,0,-1,1476,358,4.77405,0.246993
259,666,4.83655,1.14087,0,0,0,0,0,0,0,-1,1483,358,4.83652,-1.14087
266,666,6.14148,0.749512,0,0,0,0,0,0,0,-1,1490,358,6.14144,-0.749519
273,666,2.61304,-1.53772,0,0,0,0,0,0,0,-1,1497,358,2.613,1.53773
280,666,8.70898,-0.836975,0,0,0,0,0,0,0,-1,1504,358,8.70894,0.836988
287,666,2.27039,-4.09058,0,0,0,0,0,0,0,-1,1511,358,2.27042,4.09059
294,666,9.87,-1.10745,0,0,0,0,0,0,0,-1,1518,358,9.87,1.10745
301,666,3.61511,-3.23752,0,0,0,0,0,0,0,-1,1525,358,3.61511,3.23753
308,666,1.08496,-1.87576,0,0,0,0,0,0,0,-1,1532,358,1.08491,1.87575
315,666,1.76294,-0.284027,0,0,0,0,0,0,0,-1,1539,358,1.76291,0.284016
322,666,0,0,0,0,0,0,0,0,0,-1,1546,358,0,0
329,666,0,0,0,0,0,0,0,0,0,-1,1553,358,0,0
336,666,0,0,0,0,0,0,0,0,0,-1,1560,358,0,0
343,666,0,0,0,0,0,0,0,0,0,-1,1567,358,0,0
350,666,0,0,0,0,0,0,0,0,0,-1,1574,358,0,0
357,666,0,0,0,0,0,0,0,0,0,-1,1581,358,0,0
364,666,0,0,0,0,0,0,0,0,0,-1,1588,358,0,0
371,666,0,0,0,0,0,0,0,0,0,-1,1595,358,0,0
378,666,0,0,0,0,0,0,0,0,0,-1,1602,358,0,0
385,666,0,0,0,0,0,0,0,0,0,-1,1609,358,0,0
392,666,0,0,0,0,0,0,0,0,0,-1,1616,358,0,0
399,666,0,0,0,0,0,0,0,0,0,-1,1623,358,0,0
406,666,0,0,0,0,0,0,0,0,0,-1,1630,358,0,0
413,666,0,0,0,0,0,0,0,0,0,-1,1637,358,0,0
420,666,0,0,0,0,0,0,0,0,0,-1,1644,358,0,0
427,666,0,0,0,0,0,0,0,0,0,-1,1651,358,0,0
434,666,0,0,0,0,0,0,0,0,0,-1,1658,358,0,0
441,666,0,0,0,0,0,0,0,0,0,-1,1665,358,0,0
448,666,0,0,0,0,0,0,0,0,0,-1,1672,358,0,0
455,666,0,0,0,0,0,0,0,0,0,-1,1679,358,0,0
462,666,0,0,0,0,0,0,0,0,0,-1,1686,358,0,0
469,666,0,0,0,0,0,0,0,0,0,-1,1693,358,0,0
476,666,0,0,0,0,0,0,0,0,0,-1,1700,358,0,0
483,666,0,0,0,0,0,0,0,0,0,-1,1707,358,0,0
490,666,0,0,0,0,0,0,0,0,0,-1,1714,358,0,0
497,666,0,0,0,0,0,0,0,0,0,-1,1721,358,0,0
504,666,0,0,0,0,0,0,0,0,0,-1,1728,358,0,0
511,666,0,0,0,0,0,0,0,0,0,-1,1735,358,0,0
518,666,0,0,0,0,0,0,0,0,0,-1,1742,358,0,0
525,666,0,0,0,0,0,0,0,0,0,-1,1749,358,0,0
532,666,0,0,0,0,0,0,0,0,0,-1,1756,358,0,0
539,666,0,0,0,0,0,0,0,0,0,-1,1763,358,0,0
546,666,0,0,0,0,0,0,0,0,0,-1,1770,358,0,0
553,666,0,0,0,0,0,0,0,0,0,-1,1777,358,0,0
560,666,0,0,0,0,0,0,0,0,0,-1,1784,358,0,0
567,666,0,0,0,0,0,0,0,0,0,-1,1791,358,0,0
574,666,0,0,0,0,0,0,0,0,0,-1,1798,358,0,0
581,666,0,0,0,0,0,0,0,0,0,-1,1805,358,0,0
588,666,0,0,0,0,0,0,0,0,0,-1,1812,358,0,0
595,666,0,0,0,0,0,0,0,0,0,-1,1819,358,0,0
602,666,0,0,0,0,0,0,0,0,0,-1,1826,358,0,0
609,666,0,0,0,0,0,0,0,0,0,-1,1833,358,0,0
616,666,0,0,0,0,0,0,0,0,0,-1,1840,358,0,0
623,666,0,0,0,0,0,0,0,0,0,-1,1847,358,0,0
630,666,0,0,0,0,0,0,0,0,0,-1,1854,358,0,0
637,666,0,0,0,0,0,0,0,0,0,-1,1861,358,0,0
644,666,0,0,0,0,0,0,0,0,0,-1,1868,358,0,0
651,666,0,0,0,0,0,0,0,0,0,-1,1875,358,0,0
658,666,0,0,0,0,0,0,0,0,0,-1,1882,358,0,0
665,666,0,0,0,0,0,0,0,0,0,-1,1889,358,0,0
672,666,0,0,0,0,0,0,0,0,0,-1,1896,358,0,0
679,666,0,0,0,0,0,0,0,0,0,-1,1903,358,0,0
686,666,0,0,0,0,0,0,0,0,0,-1,1910,358,0,0
693,666,0,0,0,0,0,0,0,0,0,-1,1917,358,0,0
700,666,0,0,0,0,0,0,0,0,0,-1,1924,358,0,0
707,666,0,0,0,0,0,0,0,0,0,-1,1931,358,0,0
714,666,0,0,0,0,0,0,0,0,0,-1,1938,358,0,0
721,666,0,0,0,0,0,0,0,0,0,-1,1945,358,0,0
728,666,0,0,0,0,0,0,0,0,0,-1,1952,358,0,0
735,666,0,0,0,0,0,0,0,0,0,-1,1959,358,0,0
742,666,0,0,0,0,0,0,0,0,0,-1,1966,358,0,0
749,666,0,0,0,0,0,0,0,0,0,-1,1973,358,0,0
756,666,0,0,0,0,0,0,0,0,0,-1,1980,358,0,0
763,666,0,0,0,0,0,0,0,0,0,-1,1987,358,0,0
770,666,0,0,0,0,0,0,0,0,0,-1,1994,358,0,0
777,666,0,0,0,0,0,0,0,0,0,-1,2001,358,0,0
784,666,0,0,0,0,0,0,0,0,0,-1,2008,358,0,0
791,666,0,0,0,0,0,0,0,0,0,-1,2015,358,0,0
798,666,0,0,0,0,0,0,0,0,0,-1,2022,358,0,0
805,666,0,0,0,0,0,0,0,0,0,-1,2029,358,0,0
812,666,0,0,0,0,0,0,0,0,0,-1,2036,358,0,0
-700,659,0,0,0,0,0,0,0,0,0,-1,524,365,0,0
-693,659,0,0,0,0,0,0,0,0,0,-1,531,365,0,0
-686,659,0,0,0,0,0,0,0,0,0,-1,538,365,0,0
-679,659,0,0,0,0,0,0,0,0,0,-1,545,365,0,0
-672,659,0,0,0,0,0,0,0,0,0,-1,552,365,0,0
-665,659,0,0,0,0,0,0,0,0,0,-1,559,365,0,0
-658,659,0,0,0,0,0,0,0,0,0,-1,566,365,0,0
-651,659,0,0,0,0,0,0,0,0,0,-1,573,365,0,0
-644,659,0,0,0,0,0,0,0,0,0,-1,580,365,0,0
-637,659,0,0,0,0,0,0,0,0,0,-1,587,365,0,0
-630,659,0,0,0,0,0,0,0,0,0,-1,594,365,0,0
-623,659,0,0,0,0,0,0,0,0,0,-1,601,365,0,0
-616,659,0,0,0,0,0,0,0,0,0,-1,608,365,0,0
-609,659,0,0,0,0,0,0,0,0,0,-1,615,365,0,0
-602,659,0,0,0,0,0,0,0,0,0,-1,622,365,0,0
-595,659,0,0,0,0,0,0,0,0,0,-1,629,365,0,0
-588,659,0,0,0,0,0,0,0,0,0,-1,636,365,0,0
-581,659,0,0,0,0,0,0,0,0,0,-1,643,365,0,0
-574,659,0,0,0,0,0,0,0,0,0,-1,650,365,0,0
-567,659,0,0,0,0,0,0,0,0,0,-1,657,365,0,0
-560,659,0,0,0,0,0,0,0,0,0,-1,664,365,0,0
-553,659,0,0,0,0,0,0,0,0,0,-1,671,365,0,0
-546,659,0,0,0,0,0,0,0,0,0,-1,678,365,0,0
-539,659,0,0,0,0,0,0,0,0,0,-1,685,365,0,0
-532,659,0,0,0,0,0,0,0,0,0,-1,692,365,0,0
-525,659,0,0,0,0,0,0,0,0,0,-1,699,365,0,0
-518,659,0,0,0,0,0,0,0,0,0,-1,706,365,0,0
-511,659,0,0,0,0,0,0,0,0,0,-1,713,365,0,0
-504,659,0,0,0,0,0,0,0,0,0,-1,720,365,0,0
-497,659,0,0,0,0,0,0,0,0,0,-1,727,365,0,0
-490,659,0,0,0,0,0,0,0,0,0,-1,734,365,0,0
-483,659,0,0,0,0,0,0,0,0,0,-1,741,365,0,0
-476,659,0,0,0,0,0,0,0,0,0,-1,748,365,0,0
-469,659,0,0,0,0,0,0,0,0,0,-1,755,365,0,0
-462,659,0,0,0,0,0,0,0,0,0,-1,762,365,0,0
-455,659,0,0,0,0,0,0,0,0,0,-1,769,365,0,0
-448,659,0,0,0,0,0,0,0,0,0,-1,776,365,0,0
-441,659,0,0,0,0,0,0,0,0,0,-1,783,365,0,0
-434,659,0,0,0,0,0,0,0,0,0,-1,790,365,0,0
-427,659,0,0,0,0,0,0,0,0,0,-1,797,365,0,0
-420,659,0,0,0,0,0,0,0,0,0,-1,804,365,0,0
-413,659,0,0,0,0,0,0,0,0,0,-1,811,365,0,0
-406,659,0,0,0,0,0,0,0,0,0,-1,818,365,0,0
-399,659,0,0,0,0,0,0,0,0,0,-1,825,365,0,0
-392,659,0,0,0,0,0,0,0,0,0,-1,832,365,0,0
-385,659,0,0,0,0,0,0,0,0,0,-1,839,365,0,0
-378,659,0,0,0,0,0,0,0,0,0,-1,846,365,0,0
-371,659,0,0,0,0,0,0,0,0,0,-1,853,365,0,0
-364,659,0,0,0,0,0,0,0,0,0,-1,860,365,0,0
-357,659,0,0,0,0,0,0,0,0,0,-1,867,365,0,0
-350,659,0,0,0,0,0,0,0,0,0,-1,874,365,0,0
-343,659,0,0,0,0,0,0,0,0,0,-1,881,365,0,0
-336,659,0,0,0,0,0,0,0,0,0,-1,888,365,0,0
-329,659,0,0,0,0,0,0,0,0,0,-1,895,365,0,0
-322,659,0,0,0,0,0,0,0,0,0,-1,902,365,0,0
-315,659,0,0,0,0,0,0,0,0,0,-1,909,365,0,0
-308,659,0,0,0,0,0,0,0,0,0,-1,916,365,0,0
-301,659,0,0,0,0,0,0,0,0,0,-1,923,365,0,0
-294,659,0,0,0,0,0,0,0,0,0,-1,930,365,0,0
-287,659,0,0,0,0,0,0,0,0,0,-1,937,365,0,0
-280,659,0,0,0,0,0,0,0,0,0,-1,944,365,0,0
-273,659,0,0,0,0,0,0,0,0,0,-1,951,365,0,0
-266,659,0,0,0,0,0,0,0,0,0,-1,958,365,0,0
-259,659,0,0,0,0,0,0,0,0,0,-1,965,365,0,0
-252,659,0,0,0,0,0,0,0,0,0,-1,972,365,0,0
-245,659,0,0,0,0,0,0,0,0,0,-1,979,365,0,0
-238,659,0,0,0,0,0,0,0,0,0,-1,986,365,0,0
-231,659,0,0,0,0,0,0,0,0,0,-1,993,365,0,0
-224,659,0,0,0,0,0,0,0,0,0,-1,1000,365,0,0
-217,659,1.62122,-1.10727,0,0,0,0,0,0,0,-1,1007,365,1.62123,1.10728
-210,659,0.368042,-7.90527,0,0,0,0,0,0,0,-1,1014,365,0.368058,7.90528
-203,659,2.09253,-9.38916,0,0,0,0,0,0,0,-1,1021,365,2.09255,9.38917
-196,659,-0.828369,-10.2602,0,0,0,0,0,0,0,-1,1028,365,-0.828398,10.2602
-189,659,6.19006,-10.8313,0,0,0,0,0,0,0,-1,1035,365,6.19,10.8313
-182,659,6.17236,-10.318,0,0,0,0,0,0,0,-1,1042,365,6.17233,10.318
-175,659,6.74561,-9.49478,0,0,0,0,0,0,0,-1,1049,365,6.74565,9.49478
-168,659,5.89404,-7.63193,0,0,0,0,0,0,0,-1,1056,365,5.89403,7.63193
-161,659,7.35437,-7.78851,0,0,0,0,0,0,0,-1,1063,365,7.35443,7.78851
-154,659,2.65515,-11.7267,0,0,0,0,0,0,0,-1,1070,365,2.65516,11.7267
-147,659,0.278442,-10.155,0,0,0,0,0,0,0,-1,1077,365,0.278452,10.155
-140,659,1.90051,-10.3462,0,0,0,0,0,0,0,-1,1084,365,1.90048,10.3461
-133,659,2.33276,-9.54184,0,0,0,0,0,0,0,-1,1091,365,2.33281,9.54183
-126,659,2.11499,-10.1382,0,0,0,0,0,0,0,-1,1098,365,2.11502,10.1382
-119,659,1.71008,-9.73206,0.00936751,0.0386943,0.00157257,0.0387783,0.00928342,1.51738,0.0233804,0.0405093,1105,365,1.71013,9.73207
-112,659,2.03284,-9.76996,0.00834291,0.0418379,0.00229994,0.0419951,0.00818572,1.50256,0.0257063,0.0384883,1112,365,2.03279,9.76997
-105,659,2.11389,-9.80911,0.00755204,0.0441785,0.00244765,0.0443413,0.0073892,1.50436,0.0274316,0.0386303,1119,365,2.1139,9.8091
-98,659,2.28833,-10.1323,0.00680449,0.0445625,0.00269559,0.044754,0.00661302,1.49988,0.0278942,0.0425691,1126,365,2.28829,10.1323
-91,659,2.25208,-10.2439,0.00578204,0.0432618,0.00308715,0.0435144,0.00552945,1.48916,0.0273534,0.0418581,1133,365,2.25212,10.2439
-84,659,2.14734,-10.2343,0.00469867,0.0398816,0.00331339,0.0401909,0.00438935,1.47771,0.0254572,0.042185,1140,365,2.14733,10.2343
-77,659,2.14612,-10.228,0,0,0,0,0,0,0,-1,1147,365,2.14611,10.228
-70,659,2.20105,-10.2509,0,0,0,0,0,0,0,-1,1154,365,2.2011,10.2508
-63,659,2.11267,-9.7796,0,0,0,0,0,0,0,-1,1161,365,2.11266,9.7796
-56,659,2.11182,-9.91541,0,0,0,0,0,0,0,-1,1168,365,2.11178,9.91541
-49,659,2.08911,-10.7469,0,0,0,0,0,0,0,-1,1175,365,2.08911,10.7469
-42,659,1.83813,-11.0777,0,0,0,0,0,0,0,-1,1182,365,1.83811,11.0777
-35,659,2.03271,-10.9526,0.000395114,-0.00420851,0.00871006,0.00710238,-0.0109158,0.656216,0.0104802,0.0433877,1189,365,2.0327,10.9526
-28,659,2.08691,-10.9236,0.00132815,-0.00750064,0.00829375,0.00630914,-0.0124816,0.540839,0.0110422,0.0161291,1196,365,2.08694,10.9236
-21,659,2.07361,-10.9261,0.00240008,-0.00742846,0.00786077,0.00675628,-0.0117847,0.506039,0.0108351,0.0107098,1203,365,2.07357,10.926
-14,659,2.04639,-10.9665,0.00326404,-0.00691134,0.00725665,0.00703883,-0.0106861,0.479664,0.0103055,0.00821598,1210,365,2.04635,10.9665
-7,659,2.0343,-10.9927,0.00391011,-0.00582197,0.00639737,0.00708178,-0.00899363,0.460263,0.009303,0.00839687,1217,365,2.03431,10.9927
0,659,2.03479,-11.0063,0.00448014,-0.00434472,0.00597464,0.00749508,-0.00735967,0.467339,0.00857651,0.00776035,1224,365,2.03475,11.0063
7,659,2.03345,-11.0132,0.00510358,-0.00306035,0.00518699,0.00762217,-0.00557893,0.452028,0.00765203,0.00722671,1231,365,2.03345,11.0132
14,659,2.04248,-11.0275,0.0056201,-0.00177812,0.00443868,0.00769899,-0.00385701,0.438015,0.00679366,0.00992839,1238,365,2.04245,11.0275
21,659,2.03052,-11.0433,0.00599434,-0.00030867,0.00403901,0.00796588,-0.00228021,0.454102,0.00621176,0.0101969,1245,365,2.03052,11.0433
28,659,2.01355,-11.0605,0.00622605,0.00138782,0.00371249,0.00823804,-0.000624166,0.496643,0.00571146,0.00926194,1252,365,2.01355,11.0605
35,659,2.00269,-11.0645,0.00638556,0.00180095,0.00312426,0.00796826,0.000218253,0.468901,0.00524094,0.00890493,1259,365,2.00271,11.0644
42,659,1.97229,-11.0709,0.00648176,0.00229633,0.00311608,0.00814263,0.000635463,0.489698,0.00522948,0.00973249,1266,365,1.97229,11.0709
49,659,1.94666,-11.0693,0.00649888,0.00250765,0.00314146,0.00822499,0.000781539,0.50243,0.00524227,0.0110823,1273,365,1.9467,11.0693
56,659,1.92371,-11.0567,0.00650956,0.00277924,0.00354642,0.00865138,0.000637414,0.543311,0.00556729,0.0146466,1280,365,1.92374,11.0567
63,659,1.92371,-11.0438,0.00657143,0.00293568,0.00460142,0.00970105,-0.000193939,0.597274,0.00653297,0.0144737,1287,365,1.92377,11.0438
70,659,1.93811,-11.0525,0.00655697,0.00269272,0.005643,0.0105894,-0.00133976,0.620457,0.00754597,0.0141197,1294,365,1.93807,11.0525
77,659,1.89465,-11.0439,0.00628204,0.00253851,0.00670011,0.0113669,-0.00254637,0.649189,0.00855402,0.0160906,1301,365,1.89469,11.0439
84,659,1.91016,-11.0104,0.0057783,0.00248173,0.00767051,0.0119756,-0.00371559,0.679565,0.00946849,0.0117661,1308,365,1.91018,11.0104
91,659,1.91736,-10.9812,0.00548689,0.002521,0.00836269,0.0124971,-0.00448922,0.697646,0.0101638,0.0104803,1315,365,1.91732,10.9812
98,659,1.91724,-10.9556,0.00532778,0.00279382,0.00898265,0.0131324,-0.00501076,0.715337,0.0108191,0.00803639,1322,365,1.91725,10.9556
105,659,1.90002,-10.9203,0.00519589,0.00301324,0.00908382,0.0132537,-0.00504458,0.725615,0.0109131,0.00876315,1329,365,1.90007,10.9203
112,659,1.87451,-10.8819,0.00492409,0.0036798,0.00935764,0.0136802,-0.00507636,0.752204,0.0112025,0.0100087,1336,365,1.87445,10.8819
119,659,1.85681,-10.8322,0.00468275,0.00426496,0.00930897,0.0137852,-0.00483746,0.77418,0.0111578,0.0110896,1343,365,1.85682,10.8322
126,659,1.84851,-10.7747,0.00446293,0.00447844,0.00886629,0.013337,-0.00439562,0.785836,0.0106629,0.0119722,1350,365,1.84849,10.7747
133,659,1.82922,-10.7273,0.00435174,0.00434997,0.00827939,0.0126302,-0.00392853,0.785345,0.00999054,0.0106453,1357,365,1.82927,10.7273
140,659,1.81665,-10.6971,0.00428502,0.00496156,0.00787438,0.0125049,-0.00325835,0.806864,0.00960869,0.00878446,1364,365,1.8167,10.697
147,659,1.80334,-10.6508,0.00426321,0.00467631,0.00689037,0.0113632,-0.00242371,0.800382,0.00849937,0.00822669,1371,365,1.80337,10.6508
154,659,1.78333,-10.5874,0.00389488,0.00423751,0.00592917,0.00999784,-0.00186544,0.799841,0.0073662,0.0091485,1378,365,1.78335,10.5874
161,659,1.79834,-10.528,0.00352284,0.00332782,0.00491027,0.00833657,-0.00148591,0.77547,0.00611351,0.0110171,1385,365,1.79832,10.528
168,659,1.84314,-10.4796,0.00341021,0.00219757,0.00397554,0.0068254,-0.00121762,0.709725,0.00500575,0.0188425,1392,365,1.84315,10.4796
175,659,1.85596,-10.458,0.00333813,0.00161845,0.00362736,0.00620616,-0.00124958,0.669025,0.00461076,0.0420526,1399,365,1.85598,10.458
182,659,1.70837,-10.472,0,0,0,0,0,0,0,-1,1406,365,1.70836,10.472
189,659,1.79395,-10.2141,0,0,0,0,0,0,0,-1,1413,365,1.79396,10.2141
196,659,1.79883,-9.90793,0,0,0,0,0,0,0,-1,1420,365,1.79888,9.90794
203,659,1.73767,-10.0132,0,0,0,0,0,0,0,-1,1427,365,1.73768,10.0132
210,659,1.69592,-10.1159,0,0,0,0,0,0,0,-1,1434,365,1.69589,10.1159
217,659,1.7572,-9.77753,0,0,0,0,0,0,0,-1,1441,365,1.75725,9.77753
224,659,1.77954,-9.86771,0,0,0,0,0,0,0,-1,1448,365,1.77956,9.86769
231,659,1.96387,-9.7793,0,0,0,0,0,0,0,-1,1455,365,1.96381,9.7793
238,659,2.16797,-9.83395,0,0,0,0,0,0,0,-1,1462,365,2.16794,9.83396
245,659,1.78687,-9.97699,0,0,0,0,0,0,0,-1,1469,365,1.78691,9.97699
252,659,1.27161,-10.3122,0,0,0,0,0,0,0,-1,1476,365,1.2716,10.3122
259,659,2.33069,-3.36703,0,0,0,0,0,0,0,-1,1483,365,2.33073,3.36702
266,659,1.58777,-8.81137,0,0,0,0,0,0,0,-1,1490,365,1.58774,8.81138
273,659,1.59216,-8.69092,0,0,0,0,0,0,0,-1,1497,365,1.59212,8.69091
280,659,1.5481,-7.45435,0,0,0,0,0,0,0,-1,1504,365,1.54807,7.45436
287,659,2.19702,-8.34235,0,0,0,0,0,0,0,-1,1511,365,2.19698,8.34235
294,659,0.483398,-9.42966,0,0,0,0,0,0,0,-1,1518,365,0.483458,9.42967
301,659,1.29089,-7.68558,0,0,0,0,0,0,0,-1,1525,365,1.29086,7.68556
308,659,1.86377,-6.24152,0,0,0,0,0,0,0,-1,1532,365,1.8638,6.24151
315,659,2.89124,-1.09567,0,0,0,0,0,0,0,-1,1539,365,2.89121,1.09566
322,659,2.88672,-0.266174,0,0,0,0,0,0,0,-1,1546,365,2.88671,0.266163
329,659,5.20154,-4.3071,0,0,0,0,0,0,0,-1,1553,365,5.20158,4.3071
336,659,2.09851,-1.17941,0,0,0,0,0,0,0,-1,1560,365,2.09857,1.17942
343,659,0,0,0,0,0,0,0,0,0,-1,1567,365,0,0
350,659,0,0,0,0,0,0,0,0,0,-1,1574,365,0,0
357,659,0,0,0,0,0,0,0,0,0,-1,1581,365,0,0
364,659,0,0,0,0,0,0,0,0,0,-1,1588,365,0,0
371,659,0,0,0,0,0,0,0,0,0,-1,1595,365,0,0
378,659,0,0,0,0,0,0,0,0,0,-1,1602,365,0,0
385,659,0,0,0,0,0,0,0,0,0,-1,1609,365,0,0
392,659,0,0,0,0,0,0,0,0,0,-1,1616,365,0,0
399,659,0,0,0,0,0,0,0,0,0,-1,1623,365,0,0
406,659,0,0,0,0,0,0,0,0,0,-1,1630,365,0,0
413,659,0,0,0,0,0,0,0,0,0,-1,1637,365,0,0
420,659,0,0,0,0,0,0,0,0,0,-1,1644,365,0,0
427,659,0,0,0,0,0,0,0,0,0,-1,1651,365,0,0
434,659,0,0,0,0,0,0,0,0,0,-1,1658,365,0,0
441,659,0,0,0,0,0,0,0,0,0,-1,1665,365,0,0
448,659,0,0,0,0,0,0,0,0,0,-1,1672,365,0,0
455,659,0,0,0,0,0,0,0,0,0,-1,1679,365,0,0
462,659,0,0,0,0,0,0,0,0,0,-1,1686,365,0,0
469,659,0,0,0,0,0,0,0,0,0,-1,1693,365,0,0
476,659,0,0,0,0,0,0,0,0,0,-1,1700,365,0,0
483,659,0,0,0,0,0,0,0,0,0,-1,1707,365,0,0
490,659,0,0,0,0,0,0,0,0,0,-1,1714,365,0,0
497,659,0,0,0,0,0,0,0,0,0,-1,1721,365,0,0
504,659,0,0,0,0,0,0,0,0,0,-1,1728,365,0,0
511,659,0,0,0,0,0,0,0,0,0,-1,1735,365,0,0
518,659,0,0,0,0,0,0,0,0,0,-1,1742,365,0,0
525,659,0,0,0,0,0,0,0,0,0,-1,1749,365,0,0
532,659,0,0,0,0,0,0,0,0,0,-1,1756,365,0,0
539,659,0,0,0,0,0,0,0,0,0,-1,1763,365,0,0
546,659,0,0,0,0,0,0,0,0,0,-1,1770,365,0,0
553,659,0,0,0,0,0,0,0,0,0,-1,1777,365,0,0
560,659,0,0,0,0,0,0,0,0,0,-1,1784,365,0,0
567,659,0,0,0,0,0,0,0,0,0,-1,1791,365,0,0
574,659,0,0,0,0,0,0,0,0,0,-1,1798,365,0,0
581,659,0,0,0,0,0,0,0,0,0,-1,1805,365,0,0
588,659,0,0,0,0,0,0,0,0,0,-1,1812,365,0,0
595,659,0,0,0,0,0,0,0,0,0,-1,1819,365,0,0
602,659,0,0,0,0,0,0,0,0,0,-1,1826,365,0,0
609,659,0,0,0,0,0,0,0,0,0,-1,1833,365,0,0
616,659,0,0,0,0,0,0,0,0,0,-1,1840,365,0,0
623,659,0,0,0,0,0,0,0,0,0,-1,1847,365,0,0
630,659,0,0,0,0,0,0,0,0,0,-1,1854,365,0,0
637,659,0,0,0,0,0,0,0,0,0,-1,1861,365,0,0
644,659,0,0,0,0,0,0,0,0,0,-1,1868,365,0,0
651,659,0,0,0,0,0,0,0,0,0,-1,1875,365,0,0
658,659,0,0,0,0,0,0,0,0,0,-1,1882,365,0,0
665,659,0,0,0,0,0,0,0,0,0,-1,1889,365,0,0
672,659,0,0,0,0,0,0,0,0,0,-1,1896,365,0,0
679,659,0,0,0,0,0,0,0,0,0,-1,1903,365,0,0
686,659,0,0,0,0,0,0,0,0,0,-1,1910,365,0,0
693,659,0,0,0,0,0,0,0,0,0,-1,1917,365,0,0
700,659,0,0,0,0,0,0,0,0,0,-1,1924,365,0,0
707,659,0,0,0,0,0,0,0,0,0,-1,1931,365,0,0
714,659,0,0,0,0,0,0,0,0,0,-1,1938,365,0,0
721,659,0,0,0,0,0,0,0,0,0,-1,1945,365,0,0
728,659,0,0,0,0,0,0,0,0,0,-1,1952,365,0,0
735,659,0,0,0,0,0,0,0,0,0,-1,1959,365,0,0
742,659,0,0,0,0,0,0,0,0,0,-1,1966,365,0,0
749,659,0,0,0,0,0,0,0,0,0,-1,1973,365,0,0
756,659,0,0,0,0,0,0,0,0,0,-1,1980,365,0,0
763,659,0,0,0,0,0,0,0,0,0,-1,1987,365,0,0
770,659,0,0,0,0,0,0,0,0,0,-1,1994,365,0,0
777,659,0,0,0,0,0,0,0,0,0,-1,2001,365,0,0
784,659,0,0,0,0,0,0,0,0,0,-1,2008,365,0,0
791,659,0,0,0,0,0,0,0,0,0,-1,2015,365,0,0
798,659,0,0,0,0,0,0,0,0,0,-1,2022,365,0,0
805,659,0,0,0,0,0,0,0,0,0,-1,2029,365,0,0
812,659,0,0,0,0,0,0,0,0,0,-1,2036,365,0,0
-700,652,0,0,0,0,0,0,0,0,0,-1,524,372,0,0
-693,652,0,0,0,0,0,0,0,0,0,-1,531,372,0,0
-686,652,0,0,0,0,0,0,0,0,0,-1,538,372,0,0
-679,652,0,0,0,0,0,0,0,0,0,-1,545,372,0,0
-672,652,0,0,0,0,0,0,0,0,0,-1,552,372,0,0
-665,652,0,0,0,0,0,0,0,0,0,-1,559,372,0,0
-658,652,0,0,0,0,0,0,0,0,0,-1,566,372,0,0
-651,652,0,0,0,0,0,0,0,0,0,-1,573,372,0,0
-644,652,0,0,0,0,0,0,0,0,0,-1,580,372,0,0
-637,652,0,0,0,0,0,0,0,0,0,-1,587,372,0,0
-630,652,0,0,0,0,0,0,0,0,0,-1,594,372,0,0
-623,652,0,0,0,0,0,0,0,0,0,-1,601,372,0,0
-616,652,0,0,0,0,0,0,0,0,0,-1,608,372,0,0
-609,652,0,0,0,0,0,0,0,0,0,-1,615,372,0,0
-602,652,0,0,0,0,0,0,0,0,0,-1,622,372,0,0
-595,652,0,0,0,0,0,0,0,0,0,-1,629,372,0,0
-588,652,0,0,0,0,0,0,0,0,0,-1,636,372,0,0
-581,652,0,0,0,0,0,0,0,0,0,-1,643,372,0,0
-574,652,0,0,0,0,0,0,0,0,0,-1,650,372,0,0
-567,652,0,0,0,0,0,0,0,0,0,-1,657,372,0,0
-560,652,0,0,0,0,0,0,0,0,0,-1,664,372,0,0
-553,652,0,0,0,0,0,0,0,0,0,-1,671,372,0,0
-546,652,0,0,0,0,0,0,0,0,0,-1,678,372,0,0
-539,652,0,0,0,0,0,0,0,0,0,-1,685,372,0,0
-532,652,0,0,0,0,0,0,0,0,0,-1,692,372,0,0
-525,652,0,0,0,0,0,0,0,0,0,-1,699,372,0,0
-518,652,0,0,0,0,0,0,0,0,0,-1,706,372,0,0
-511,652,0,0,0,0,0,0,0,0,0,-1,713,372,0,0
-504,652,0,0,0,0,0,0,0,0,0,-1,720,372,0,0
-497,652,0,0,0,0,0,0,0,0,0,-1,727,372,0,0
-490,652,0,0,0,0,0,0,0,0,0,-1,734,372,0,0
-483,652,0,0,0,0,0,0,0,0,0,-1,741,372,0,0
-476,652,0,0,0,0,0,0,0,0,0,-1,748,372,0,0
-469,652,0,0,0,0,0,0,0,0,0,-1,755,372,0,0
-462,652,0,0,0,0,0,0,0,0,0,-1,762,372,0,0
-455,652,0,0,0,0,0,0,0,0,0,-1,769,372,0,0
-448,652,0,0,0,0,0,0,0,0,0,-1,776,372,0,0
-441,652,0,0,0,0,0,0,0,0,0,-1,783,372,0,0
-434,652,0,0,0,0,0,0,0,0,0,-1,790,372,0,0
-427,652,0,0,0,0,0,0,0,0,0,-1,797,372,0,0
-420,652,0,0,0,0,0,0,0,0,0,-1,804,372,0,0
-413,652,0,0,0,0,0,0,0,0,0,-1,811,372,0,0
-406,652,0,0,0,0,0,0,0,0,0,-1,818,372,0,0
-399,652,0,0,0,0,0,0,0,0,0,-1,825,372,0,0
-392,652,0,0,0,0,0,0,0,0,0,-1,832,372,0,0
-385,652,0,0,0,0,0,0,0,0,0,-1,839,372,0,0
-378,652,0,0,0,0,0,0,0,0,0,-1,846,372,0,0
-371,652,0,0,0,0,0,0,0,0,0,-1,853,372,0,0
-364,652,0,0,0,0,0,0,0,0,0,-1,860,372,0,0
-357,652,0,0,0,0,0,0,0,0,0,-1,867,372,0,0
-350,652,0,0,0,0,0,0,0,0,0,-1,874,372,0,0
-343,652,0,0,0,0,0,0,0,0,0,-1,881,372,0,0
-336,652,0,0,0,0,0,0,0,0,0,-1,888,372,0,0
-329,652,0,0,0,0,0,0,0,0,0,-1,895,372,0,0
-322,652,0,0,0,0,0,0,0,0,0,-1,902,372,0,0
-315,652,0,0,0,0,0,0,0,0,0,-1,909,372,0,0
-308,652,0,0,0,0,0,0,0,0,0,-1,916,372,0,0
-301,652,0,0,0,0,0,0,0,0,0,-1,923,372,0,0
-294,652,0,0,0,0,0,0,0,0,0,-1,930,372,0,0
-287,652,0,0,0,0,0,0,0,0,0,-1,937,372,0,0
-280,652,0,0,0,0,0,0,0,0,0,-1,944,372,0,0
-273,652,0,0,0,0,0,0,0,0,0,-1,951,372,0,0
-266,652,0,0,0,0,0,0,0,0,0,-1,958,372,0,0
-259,652,0,0,0,0,0,0,0,0,0,-1,965,372,0,0
-252,652,0,0,0,0,0,0,0,0,0,-1,972,372,0,0
-245,652,0,0,0,0,0,0,0,0,0,-1,979,372,0,0
-238,652,0,0,0,0,0,0,0,0,0,-1,986,372,0,0
-231,652,-3.17596,-5.87796,0,0,0,0,0,0,0,-1,993,372,-3.17597,5.87796
-224,652,-3.74396,-5.71695,0,0,0,0,0,0,0,-1,1000,372,-3.74397,5.71694
-217,652,-4.52545,-5.19208,0,0,0,0,0,0,0,-1,1007,372,-4.52543,5.19207
-210,652,2.33746,-9.61121,0,0,0,0,0,0,0,-1,1014,372,2.33747,9.61121
-203,652,-2.37793,-10.4327,0,0,0,0,0,0,0,-1,1021,372,-2.37792,10.4327
-196,652,5.04004,-11.144,0,0,0,0,0,0,0,-1,1028,372,5.03999,11.144
-189,652,5.25171,-10.3595,0.03299,-0.0607726,0.0879372,0.0857621,-0.113545,0.540501,0.115442,0.0460066,1035,372,5.25168,10.3595
-182,652,5.49646,-9.36972,0.029583,-0.0545031,0.0750592,0.0735719,-0.098492,0.530104,0.0996879,0.0430517,1042,372,5.49642,9.36972
-175,652,5.99719,-8.55704,0,0,0,0,0,0,0,-1,1049,372,5.99715,8.55703
-168,652,1.98633,-9.58405,0,0,0,0,0,0,0,-1,1056,372,1.98638,9.58406
-161,652,2.6637,-10.1715,0,0,0,0,0,0,0,-1,1063,372,2.66367,10.1715
-154,652,2.60742,-10.2586,0,0,0,0,0,0,0,-1,1070,372,2.60745,10.2586
-147,652,2.19434,-9.98535,0,0,0,0,0,0,0,-1,1077,372,2.19434,9.98535
-140,652,1.95679,-10.0831,0,0,0,0,0,0,0,-1,1084,372,1.95681,10.0831
-133,652,1.98059,-10.0242,0,0,0,0,0,0,0,-1,1091,372,1.98053,10.0242
-126,652,2.14917,-10.0555,0,0,0,0,0,0,0,-1,1098,372,2.14916,10.0555
-119,652,2.15344,-10.145,0,0,0,0,0,0,0,-1,1105,372,2.15346,10.145
-112,652,2.1969,-10.1379,0.00539127,0.0293234,0.00133734,0.0293979,0.00531677,1.51515,0.0180887,0.0250742,1112,372,2.19688,10.1379
-105,652,2.17053,-10.2051,0.00488651,0.0313033,0.00144264,0.0313819,0.00480796,1.5164,0.019517,0.0219655,1119,372,2.17059,10.2051
-98,652,2.15771,-10.2654,0.00445559,0.0317429,0.00158476,0.0318346,0.00436386,1.51298,0.0199284,0.0248429,1126,372,2.15769,10.2654
-91,652,2.14209,-10.3478,0.00381926,0.0308234,0.0018623,0.0309513,0.00369144,1.50227,0.0195204,0.0228178,1133,372,2.14211,10.3478
-84,652,2.10364,-10.4172,0.003061,0.028393,0.00206479,0.0285602,0.0028938,1.49,0.0181526,0.0193193,1140,372,2.10359,10.4172
-77,652,2.1062,-10.4758,0.00222468,0.0251433,0.00216225,0.0253455,0.00202247,1.47755,0.0162648,0.0183875,1147,372,2.10624,10.4758
-70,652,2.14124,-10.5397,0.00135222,0.0212546,0.00204421,0.0214624,0.00114442,1.46949,0.0139424,0.0251083,1154,372,2.14128,10.5397
-63,652,2.13672,-10.6609,0,0,0,0,0,0,0,-1,1161,372,2.13668,10.661
-56,652,2.1062,-10.7231,0,0,0,0,0,0,0,-1,1168,372,2.10619,10.7231
-49,652,2.09375,-10.7716,-6.83649e-06,0.00537869,0.00398608,0.00749631,-0.00212445,1.08246,0.00583604,0.0259338,1175,372,2.09378,10.7716
-42,652,2.06165,-10.8035,-0.000395226,0.000524109,0.00471793,0.00480471,-0.00467583,0.83396,0.00547376,0.0102221,1182,372,2.06159,10.8035
-35,652,2.06055,-10.844,-0.000277911,-0.00204615,0.00451513,0.00343885,-0.00576291,0.688715,0.00536882,0.00853724,1189,372,2.06052,10.844
-28,652,2.05469,-10.8842,0.000336715,-0.0042886,0.00421753,0.00283405,-0.00678593,0.534613,0.00570817,0.00706676,1196,372,2.05468,10.8842
-21,652,2.03418,-10.9221,0.000953203,-0.00445049,0.00420148,0.0032466,-0.00674389,0.499654,0.00588463,0.007252,1203,372,2.03414,10.9221
-14,652,2.03625,-10.9569,0.00151556,-0.00432941,0.00407265,0.0036058,-0.00641965,0.474182,0.0058637,0.00887466,1210,372,2.03627,10.9569
-7,652,2.03882,-11.0049,0.0019949,-0.00377118,0.00377431,0.00386131,-0.00563759,0.459242,0.00551606,0.0115559,1217,372,2.03885,11.0049
0,652,2.02209,-11.0286,0.00242168,-0.00284599,0.00369108,0.00432229,-0.0047466,0.475511,0.00523783,0.0114813,1224,372,2.02213,11.0286
7,652,2.01624,-11.0222,0.00282324,-0.00199734,0.00335489,0.00454391,-0.00371801,0.473901,0.00477796,0.0125421,1231,372,2.01619,11.0222
14,652,2.01416,-11.0464,0.00312763,-0.0010887,0.00301647,0.00469961,-0.00266068,0.480409,0.00430347,0.010656,1238,372,2.01411,11.0463
21,652,2.01233,-11.058,0.00333619,5.49689e-05,0.00285571,0.00498901,-0.00159785,0.524668,0.00396736,0.00962245,1245,372,2.01229,11.058
28,652,2.00574,-11.0705,0.00346442,0.00131774,0.00268514,0.0052828,-0.000500635,0.59526,0.00370005,0.00874314,1252,372,2.00572,11.0705
35,652,1.9884,-11.0742,0.00354057,0.00166914,0.00228424,0.00507332,0.000136388,0.591004,0.00333768,0.00904292,1259,372,1.98845,11.0742
42,652,1.95776,-11.0876,0.00356849,0.00227851,0.00213156,0.00515051,0.000696487,0.638483,0.00322667,0.0103599,1266,372,1.95773,11.0876
49,652,1.95557,-11.0984,0.00348136,0.00256489,0.00203447,0.00510856,0.00093769,0.674628,0.00314016,0.0129177,1273,372,1.95557,11.0984
56,652,1.92371,-11.077,0.00344182,0.00285435,0.00214834,0.00531641,0.000979756,0.717457,0.00326703,0.0148487,1280,372,1.92374,11.077
63,652,1.91882,-11.0501,0.00353061,0.00303308,0.00268139,0.00597475,0.000588939,0.739144,0.00380209,0.0177145,1287,372,1.91885,11.0501
70,652,1.9458,-11.052,0.00355612,0.00288515,0.00322801,0.00646604,-2.47625e-05,0.733619,0.00431897,0.0148757,1294,372,1.94585,11.052
77,652,1.93152,-11.0384,0.00340588,0.00276855,0.0038273,0.00692776,-0.000753332,0.743864,0.004889,0.0147213,1301,372,1.93148,11.0384
84,652,1.93567,-11.0024,0.00309418,0.00265507,0.00435923,0.00723938,-0.00149013,0.760237,0.00539204,0.0120439,1308,372,1.93565,11.0024
91,652,1.93335,-11.0011,0.00296145,0.00254458,0.00471856,0.00747617,-0.00197014,0.763326,0.00575437,0.0141006,1315,372,1.93339,11.0011
98,652,1.92261,-10.9721,0.00292107,0.0025722,0.00509171,0.00784133,-0.00234806,0.768276,0.00616124,0.0115183,1322,372,1.92261,10.9722
105,652,1.92151,-10.9251,0.00292888,0.00253705,0.00518727,0.00792393,-0.002458,0.766523,0.0062648,0.00943026,1329,372,1.92155,10.9252
112,652,1.92456,-10.8959,0.00288665,0.00279126,0.00543009,0.00826926,-0.00259134,0.781007,0.00654978,0.00808627,1336,372,1.92454,10.8959
119,652,1.89917,-10.8454,0.00284839,0.00298301,0.00547712,0.00839323,-0.00256183,0.791542,0.00661686,0.00883189,1343,372,1.89923,10.8454
126,652,1.87085,-10.7932,0.00278319,0.00289922,0.00526144,0.00810296,-0.00242055,0.790911,0.00636416,0.0111508,1350,372,1.87083,10.7932
133,652,1.84143,-10.7424,0.0027636,0.00267609,0.00496661,0.00768664,-0.00224696,0.780993,0.00601498,0.0124651,1357,372,1.84149,10.7424
140,652,1.84583,-10.6916,0.00276462,0.00302725,0.00479695,0.00769468,-0.00190281,0.799082,0.00586781,0.0097447,1364,372,1.84586,10.6916
147,652,1.85571,-10.6493,0.00277956,0.0028014,0.00415921,0.00694971,-0.00136875,0.786711,0.00515037,0.00917432,1371,372,1.85573,10.6493
154,652,1.85791,-10.5926,0.00260133,0.00248348,0.0035156,0.0060585,-0.000973689,0.777019,0.00439962,0.00946359,1378,372,1.85788,10.5926
161,652,1.85168,-10.5215,0.0023448,0.00183339,0.0028525,0.00495303,-0.000774842,0.740696,0.0035883,0.010817,1385,372,1.8517,10.5215
168,652,1.84485,-10.4534,0.00214685,0.00105125,0.00231628,0.00397922,-0.00078113,0.669281,0.00294789,0.0115145,1392,372,1.84488,10.4534
175,652,1.84412,-10.3832,0.00200804,0.000664241,0.00214592,0.0035848,-0.000912512,0.63368,0.00274506,0.011082,1399,372,1.84409,10.3832
182,652,1.80847,-10.3305,0.00207252,0.000340231,0.00210232,0.00348013,-0.00106738,0.589996,0.00274592,0.0163663,1406,372,1.80842,10.3305
189,652,1.82605,-10.2423,0.00186252,-1.25186e-05,0.00258273,0.00367263,-0.00182263,0.611296,0.00323206,0.0213839,1413,372,1.82602,10.2423
196,652,1.81226,-10.2115,0.00085907,-0.000673181,0.00282583,0.00302079,-0.0028349,0.653023,0.00338135,0.0341347,1420,372,1.81226,10.2116
203,652,1.80908,-10.2358,-0.000435269,-0.0022802,0.0023626,0.00117857,-0.00389404,0.599278,0.00306536,0.039412,1427,372,1.80911,10.2358
210,652,1.76648,-10.1063,-0.0016121,-0.0024351,0.00239692,0.000408382,-0.00445559,0.700388,0.00311545,0.0279642,1434,372,1.76651,10.1063
217,652,1.7959,-9.83557,-0.00216458,-0.00216766,0.0022953,0.000129177,-0.00446142,0.785062,0.00301826,0.0274332,1441,372,1.79584,9.83559
224,652,1.80725,-9.71896,-0.00247947,-0.00154994,0.002202,0.000235808,-0.00426521,0.889405,0.00292525,0.0269642,1448,372,1.80724,9.71896
231,652,1.86938,-9.62558,-0.00268558,-0.000963739,0.00213042,0.000473133,-0.00412245,0.97742,0.00291882,0.0347414,1455,372,1.86934,9.62559
238,652,1.9408,-9.61642,-0.00283206,-7.02044e-05,0.00216927,0.00112039,-0.00402265,1.06884,0.00312296,0.0373028,1462,372,1.9408,9.61642
245,652,1.78479,-9.62448,-0.00319844,0.000850783,0.00208584,0.00173302,-0.00408068,1.17065,0.00344656,0.0375217,1469,372,1.78477,9.62448
252,652,1.52185,-9.66943,-0.00326839,0.00226289,0.00210434,0.00297245,-0.00397795,1.24558,0.00402679,0.0440217,1476,372,1.52183,9.66943
259,652,1.66406,-9.13297,0,0,0,0,0,0,0,-1,1483,372,1.66403,9.13297
266,652,1.68835,-8.91165,-0.00404202,0.00313074,0.00442638,0.00524128,-0.00615257,1.12587,0.00658525,0.0490938,1490,372,1.68835,8.91164
273,652,1.71814,-8.82831,-0.00444729,0.00313552,0.00597115,0.00641726,-0.00772903,1.06826,0.00817906,0.0490565,1497,372,1.71819,8.8283
280,652,1.72485,-8.89874,0,0,0,0,0,0,0,-1,1504,372,1.72487,8.89874
287,652,2.27295,-8.45529,0,0,0,0,0,0,0,-1,1511,372,2.2729,8.45528
294,652,0.38855,-9.03693,0,0,0,0,0,0,0,-1,1518,372,0.388587,9.03694
301,652,1.48267,-7.53867,0,0,0,0,0,0,0,-1,1525,372,1.48265,7.53866
308,652,2.43115,-5.88388,0,0,0,0,0,0,0,-1,1532,372,2.4311,5.88387
315,652,2.28442,-9.12979,0,0,0,0,0,0,0,-1,1539,372,2.28441,9.1298
322,652,1.30774,-9.2442,0,0,0,0,0,0,0,-1,1546,372,1.30777,9.24419
329,652,0.594604,-8.61166,0,0,0,0,0,0,0,-1,1553,372,0.594565,8.61167
336,652,4.32825,-3.46991,0,0,0,0,0,0,0,-1,1560,372,4.3282,3.46991
343,652,4.18225,-6.7092,0,0,0,0,0,0,0,-1,1567,372,4.18231,6.70921
350,652,4.64563,-7.2074,0,0,0,0,0,0,0,-1,1574,372,4.6456,7.2074
357,652,0,0,0,0,0,0,0,0,0,-1,1581,372,0,0
364,652,0,0,0,0,0,0,0,0,0,-1,1588,372,0,0
371,652,0,0,0,0,0,0,0,0,0,-1,1595,372,0,0
378,652,0,0,0,0,0,0,0,0,0,-1,1602,372,0,0
385,652,0,0,0,0,0,0,0,0,0,-1,1609,372,0,0
392,652,0,0,0,0,0,0,0,0,0,-1,1616,372,0,0
399,652,0,0,0,0,0,0,0,0,0,-1,1623,372,0,0
406,652,0,0,0,0,0,0,0,0,0,-1,1630,372,0,0
413,652,0,0,0,0,0,0,0,0,0,-1,1637,372,0,0
420,652,0,0,0,0,0,0,0,0,0,-1,1644,372,0,0
427,652,0,0,0,0,0,0,0,0,0,-1,1651,372,0,0
434,652,0,0,0,0,0,0,0,0,0,-1,1658,372,0,0
441,652,0,0,0,0,0,0,0,0,0,-1,1665,372,0,0
448,652,0,0,0,0,0,0,0,0,0,-1,1672,372,0,0
455,652,0,0,0,0,0,0,0,0,0,-1,1679,372,0,0
462,652,0,0,0,0,0,0,0,0,0,-1,1686,372,0,0
469,652,0,0,0,0,0,0,0,0,0,-1,1693,372,0,0
476,652,0,0,0,0,0,0,0,0,0,-1,1700,372,0,0
483,652,0,0,0,0,0,0,0,0,0,-1,1707,372,0,0
490,652,0,0,0,0,0,0,0,0,0,-1,1714,372,0,0
497,652,0,0,0,0,0,0,0,0,0,-1,1721,372,0,0
504,652,0,0,0,0,0,0,0,0,0,-1,1728,372,0,0
511,652,0,0,0,0,0,0,0,0,0,-1,1735,372,0,0
518,652,0,0,0,0,0,0,0,0,0,-1,1742,372,0,0
525,652,0,0,0,0,0,0,0,0,0,-1,1749,372,0,0
532,652,0,0,0,0,0,0,0,0,0,-1,1756,372,0,0
539,652,0,0,0,0,0,0,0,0,0,-1,1763,372,0,0
546,652,0,0,0,0,0,0,0,0,0,-1,1770,372,0,0
553,652,0,0,0,0,0,0,0,0,0,-1,1777,372,0,0
560,652,0,0,0,0,0,0,0,0,0,-1,1784,372,0,0
567,652,0,0,0,0,0,0,0,0,0,-1,1791,372,0,0
574,652,0,0,0,0,0,0,0,0,0,-1,1798,372,0,0
581,652,0,0,0,0,0,0,0,0,0,-1,1805,372,0,0
588,652,0,0,0,0,0,0,0,0,0,-1,1812,372,0,0
595,652,0,0,0,0,0,0,0,0,0,-1,1819,372,0,0
602,652,0,0,0,0,0,0,0,0,0,-1,1826,372,0,0
609,652,0,0,0,0,0,0,0,0,0,-1,1833,372,0,0
616,652,0,0,0,0,0,0,0,0,0,-1,1840,372,0,0
623,652,0,0,0,0,0,0,0,0,0,-1,1847,372,0,0
630,652,0,0,0,0,0,0,0,0,0,-1,1854,372,0,0
637,652,0,0,0,0,0,0,0,0,0,-1,1861,372,0,0
644,652,0,0,0,0,0,0,0,0,0,-1,1868,372,0,0
651,652,0,0,0,0,0,0,0,0,0,-1,1875,372,0,0
658,652,0,0,0,0,0,0,0,0,0,-1,1882,372,0,0
665,652,0,0,0,0,0,0,0,0,0,-1,1889,372,0,0
672,652,0,0,0,0,0,0,0,0,0,-1,1896,372,0,0
679,652,0,0,0,0,0,0,0,0,0,-1,1903,372,0,0
686,652,0,0,0,0,0,0,0,0,0,-1,1910,372,0,0
693,652,0,0,0,0,0,0,0,0,0,-1,1917,372,0,0
700,652,0,0,0,0,0,0,0,0,0,-1,1924,372,0,0
707,652,0,0,0,0,0,0,0,0,0,-1,1931,372,0,0
714,652,0,0,0,0,0,0,0,0,0,-1,1938,372,0,0
721,652,0,0,0,0,0,0,0,0,0,-1,1945,372,0,0
728,652,0,0,0,0,0,0,0,0,0,-1,1952,372,0,0
735,652,0,0,0,0,0,0,0,0,0,-1,1959,372,0,0
742,652,0,0,0,0,0,0,0,0,0,-1,1966,372,0,0
749,652,0,0,0,0,0,0,0,0,0,-1,1973,372,0,0
756,652,0,0,0,0,0,0,0,0,0,-1,1980,372,0,0
763,652,0,0,0,0,0,0,0,0,0,-1,1987,372,0,0
770,652,0,0,0,0,0,0,0,0,0,-1,1994,372,0,0
777,652,0,0,0,0,0,0,0,0,0,-1,2001,372,0,0
784,652,0,0,0,0,0,0,0,0,0,-1,2008,372,0,0
791,652,0,0,0,0,0,0,0,0,0,-1,2015,372,0,0
798,652,0,0,0,0,0,0,0,0,0,-1,2022,372,0,0
805,652,0,0,0,0,0,0,0,0,0,-1,2029,372,0,0
812,652,0,0,0,0,0,0,0,0,0,-1,2036,372,0,0
-700,645,0,0,0,0,0,0,0,0,0,-1,524,379,0,0
-693,645,0,0,0,0,0,0,0,0,0,-1,531,379,0,0
-686,645,0,0,0,0,0,0,0,0,0,-1,538,379,0,0
-679,645,0,0,0,0,0,0,0,0,0,-1,545,379,0,0
-672,645,0,0,0,0,0,0,0,0,0,-1,552,379,0,0
-665,645,0,0,0,0,0,0,0,0,0,-1,559,379,0,0
-658,645,0,0,0,0,0,0,0,0,0,-1,566,379,0,0
-651,645,0,0,0,0,0,0,0,0,0,-1,573,379,0,0
-644,645,0,0,0,0,0,0,0,0,0,-1,580,379,0,0
-637,645,0,0,0,0,0,0,0,0,0,-1,587,379,0,0
-630,645,0,0,0,0,0,0,0,0,0,-1,594,379,0,0
-623,645,0,0,0,0,0,0,0,0,0,-1,601,379,0,0
-616,645,0,0,0,0,0,0,0,0,0,-1,608,379,0,0
-609,645,0,0,0,0,0,0,0,0,0,-1,615,379,0,0
-602,645,0,0,0,0,0,0,0,0,0,-1,622,379,0,0
-595,645,0,0,0,0,0,0,0,0,0,-1,629,379,0,0
-588,645,0,0,0,0,0,0,0,0,0,-1,636,379,0,0
-581,645,0,0,0,0,0,0,0,0,0,-1,643,379,0,0
-574,645,0,0,0,0,0,0,0,0,0,-1,650,379,0,0
-567,645,0,0,0,0,0,0,0,0,0,-1,657,379,0,0
-560,645,0,0,0,0,0,0,0,0,0,-1,664,379,0,0
-553,645,0,0,0,0,0,0,0,0,0,-1,671,379,0,0
-546,645,0,0,0,0,0,0,0,0,0,-1,678,379,0,0
-539,645,0,0,0,0,0,0,0,0,0,-1,685,379,0,0
-532,645,0,0,0,0,0,0,0,0,0,-1,692,379,0,0
-525,645,0,0,0,0,0,0,0,0,0,-1,699,379,0,0
-518,645,0,0,0,0,0,0,0,0,0,-1,706,379,0,0
-511,645,0,0,0,0,0,0,0,0,0,-1,713,379,0,0
-504,645,0,0,0,0,0,0,0,0,0,-1,720,379,0,0
-497,645,0,0,0,0,0,0,0,0,0,-1,727,379,0,0
-490,645,0,0,0,0,0,0,0,0,0,-1,734,379,0,0
-483,645,0,0,0,0,0,0,0,0,0,-1,741,379,0,0
-476,645,0,0,0,0,0,0,0,0,0,-1,748,379,0,0
-469,645,0,0,0,0,0,0,0,0,0,-1,755,379,0,0
-462,645,0,0,0,0,0,0,0,0,0,-1,762,379,0,0
-455,645,0,0,0,0,0,0,0,0,0,-1,769,379,0,0
-448,645,0,0,0,0,0,0,0,0,0,-1,776,379,0,0
-441,645,0,0,0,0,0,0,0,0,0,-1,783,379,0,0
-434,645,0,0,0,0,0,0,0,0,0,-1,790,379,0,0
-427,645,0,0,0,0,0,0,0,0,0,-1,797,379,0,0
-420,645,0,0,0,0,0,0,0,0,0,-1,804,379,0,0
-413,645,0,0,0,0,0,0,0,0,0,-1,811,379,0,0
-406,645,0,0,0,0,0,0,0,0,0,-1,818,379,0,0
-399,645,0,0,0,0,0,0,0,0,0,-1,825,379,0,0
-392,645,0,0,0,0,0,0,0,0,0,-1,832,379,0,0
-385,645,0,0,0,0,0,0,0,0,0,-1,839,379,0,0
-378,645,0,0,0,0,0,0,0,0,0,-1,846,379,0,0
-371,645,0,0,0,0,0,0,0,0,0,-1,853,379,0,0
-364,645,0,0,0,0,0,0,0,0,0,-1,860,379,0,0
-357,645,0,0,0,0,0,0,0,0,0,-1,867,379,0,0
-350,645,0,0,0,0,0,0,0,0,0,-1,874,379,0,0
-343,645,0,0,0,0,0,0,0,0,0,-1,881,379,0,0
-336,645,0,0,0,0,0,0,0,0,0,-1,888,379,0,0
-329,645,0,0,0,0,0,0,0,0,0,-1,895,379,0,0
-322,645,0,0,0,0,0,0,0,0,0,-1,902,379,0,0
-315,645,0,0,0,0,0,0,0,0,0,-1,909,379,0,0
-308,645,0,0,0,0,0,0,0,0,0,-1,916,379,0,0
-301,645,0,0,0,0,0,0,0,0,0,-1,923,379,0,0
-294,645,0,0,0,0,0,0,0,0,0,-1,930,379,0,0
-287,645,0,0,0,0,0,0,0,0,0,-1,937,379,0,0
-280,645,0,0,0,0,0,0,0,0,0,-1,944,379,0,0
-273,645,0,0,0,0,0,0,0,0,0,-1,951,379,0,0
-266,645,0,0,0,0,0,0,0,0,0,-1,958,379,0,0
-259,645,0,0,0,0,0,0,0,0,0,-1,965,379,0,0
-252,645,0.0778198,-6.9191,0,0,0,0,0,0,0,-1,972,379,0.0778175,6.9191
-245,645,0.52948,-6.83511,0,0,0,0,0,0,0,-1,979,379,0.529504,6.83511
-238,645,0.53125,-7.3454,0,0,0,0,0,0,0,-1,986,379,0.531259,7.34541
-231,645,1.97729,-7.08783,0,0,0,0,0,0,0,-1,993,379,1.97729,7.08784
-224,645,-2.62988,-5.69568,0,0,0,0,0,0,0,-1,1000,379,-2.62987,5.69567
-217,645,-3.33527,-5.9166,0,0,0,0,0,0,0,-1,1007,379,-3.33529,5.91658
-210,645,2.6474,-10.0573,0,0,0,0,0,0,0,-1,1014,379,2.6474,10.0572
-203,645,-1.62756,-9.95602,0,0,0,0,0,0,0,-1,1021,379,-1.62759,9.95603
-196,645,4.12805,-10.8973,0,0,0,0,0,0,0,-1,1028,379,4.12804,10.8973
-189,645,4.33667,-10.0272,0.0208969,-0.04339,0.0629367,0.0594233,-0.0819164,0.549302,0.0819462,0.0405771,1035,379,4.33665,10.0272
-182,645,4.82617,-8.70578,0.0187978,-0.0390663,0.053905,0.0510443,-0.0713128,0.539102,0.0709652,0.0410943,1042,379,4.82612,8.70577
-175,645,1.41272,-8.87369,0,0,0,0,0,0,0,-1,1049,379,1.41268,8.87369
-168,645,1.97437,-9.33411,0.0139724,-0.0273896,0.0354051,0.0342941,-0.0477113,0.521066,0.0475566,0.0438534,1056,379,1.97435,9.33411
-161,645,2.42468,-9.82721,0.0113224,-0.0191416,0.0266034,0.0267458,-0.034565,0.5254,0.0354936,0.0441671,1063,379,2.42462,9.8272
-154,645,2.39136,-9.90958,0.00896572,-0.0109221,0.0191449,0.0205951,-0.0225515,0.545873,0.0249192,0.0412101,1070,379,2.39142,9.90956
-147,645,2.1438,-9.81451,0.00761469,-0.0028277,0.0126784,0.0161049,-0.0113179,0.590071,0.0159127,0.0396831,1077,379,2.14382,9.81452
-140,645,2.00708,-9.92856,0.00679285,0.00455945,0.00794741,0.0137016,-0.00234933,0.715599,0.0100099,0.0350545,1084,379,2.00705,9.92855
-133,645,2.10291,-9.98804,0.00479769,0.0107446,0.00250914,0.0116618,0.00388048,1.22034,0.00685734,0.0289518,1091,379,2.10293,9.98805
-126,645,2.20215,-10.0217,0.00361623,0.0156555,-0.000122076,0.0156567,0.003615,-1.56066,0.00946578,0.0222996,1098,379,2.2022,10.0217
-119,645,2.15942,-10.101,0.00381749,0.0182108,0.000185367,0.0182132,0.00381511,1.55792,0.0110913,0.0156801,1105,379,2.15947,10.101
-112,645,2.13391,-10.194,0.00340884,0.0201765,0.000695428,0.0202053,0.00338005,1.52942,0.0124968,0.0117005,1112,379,2.13386,10.194
-105,645,2.11035,-10.2664,0.00309746,0.0217912,0.000751414,0.0218214,0.00306731,1.53069,0.0136406,0.011816,1119,379,2.11034,10.2664
-98,645,2.0907,-10.3317,0.00287164,0.0222252,0.000810947,0.0222591,0.00283772,1.52899,0.0139897,0.0126233,1126,379,2.09072,10.3317
-91,645,2.08008,-10.4001,0.00249918,0.0215956,0.000994736,0.0216472,0.0024475,1.51889,0.0136888,0.0126941,1133,379,2.08007,10.4001
-84,645,2.05872,-10.4701,0.00199393,0.0199089,0.00116481,0.0199844,0.00191851,1.50614,0.0127317,0.0124519,1140,379,2.0587,10.4701
-77,645,2.05359,-10.5392,0.00140521,0.0176346,0.00125808,0.0177315,0.00130826,1.49389,0.0114099,0.0110679,1147,379,2.05359,10.5393
-70,645,2.07568,-10.6074,0.00083237,0.0149435,0.00120536,0.0150457,0.000730151,1.48619,0.00979616,0.00993841,1154,379,2.07569,10.6074
-63,645,2.07214,-10.6592,-0.000176243,0.0119608,0.00075151,0.0120071,-0.000222598,1.50919,0.00807998,0.0105589,1161,379,2.07216,10.6592
-56,645,2.05652,-10.6987,-0.000371487,0.00816896,0.00125574,0.00834977,-0.000552297,1.42779,0.00575944,0.0118023,1168,379,2.05657,10.6987
-49,645,2.05139,-10.7595,-0.000219768,0.00425975,0.0020449,0.00505284,-0.00101285,1.20082,0.00375203,0.00990245,1175,379,2.05138,10.7595
-42,645,2.03809,-10.8087,-0.000480226,0.000985802,0.00242856,0.00278956,-0.00228399,0.931966,0.00293406,0.00912066,1182,379,2.03811,10.8087
-35,645,2.03223,-10.8538,-0.000388038,-0.000753942,0.00223526,0.00167174,-0.00281372,0.744565,0.00261751,0.00895913,1189,379,2.03224,10.8538
-28,645,2.02002,-10.9072,1.52912e-05,-0.00227586,0.00204055,0.00120984,-0.00347041,0.52962,0.00280524,0.00745535,1196,379,2.01996,10.9072
-21,645,2.00098,-10.9337,0.000384233,-0.00258568,0.00215285,0.00151459,-0.00371604,0.483487,0.00310778,0.00896994,1203,379,2.00097,10.9337
-14,645,2.01001,-10.965,0.00076299,-0.00271093,0.00221162,0.0018382,-0.00378614,0.452517,0.0033115,0.00940814,1210,379,2.01007,10.965
-7,645,2.02588,-11.0191,0.00112628,-0.00253486,0.00218137,0.0021434,-0.00355199,0.436308,0.00332159,0.0126511,1217,379,2.0259,11.0191
0,645,1.99951,-11.0369,0.00148257,-0.00203333,0.00221821,0.00255496,-0.00310572,0.45032,0.00327334,0.0229459,1224,379,1.99947,11.0369
7,645,1.9801,-11.0573,0.00179039,-0.0015156,0.00207647,0.00279148,-0.00251668,0.449231,0.00306603,0.0157703,1231,379,1.98008,11.0572
14,645,1.98682,-11.0641,0.00202498,-0.000883123,0.00190392,0.00296659,-0.00182473,0.459288,0.00279233,0.0143929,1238,379,1.98685,11.0641
21,645,1.98853,-11.0723,0.0021794,6.8638e-05,0.0017841,0.00319691,-0.000948866,0.518308,0.00250812,0.00990964,1245,379,1.98847,11.0723
28,645,1.97766,-11.0715,0.00226696,0.00117733,0.00157018,0.00338416,6.01298e-05,0.618409,0.00223633,0.00853913,1252,379,1.97767,11.0715
35,645,1.97461,-11.0811,0.00272733,0.00161941,0.00115247,0.00345206,0.00089467,0.561365,0.00206868,0.00821197,1259,379,1.97462,11.0811
42,645,1.97412,-11.1063,0.00377764,0.00267469,0.000398879,0.00390677,0.00254555,0.313095,0.00228986,0.00855828,1266,379,1.97409,11.1063
49,645,1.97729,-11.1147,0.00422245,0.00325125,-3.2979e-05,0.00422357,0.00325013,-0.0339048,0.00255384,0.0114356,1273,379,1.97735,11.1148
56,645,1.96814,-11.0919,0.00478117,0.0041582,-0.000565363,0.00511517,0.00382419,-0.533614,0.00307159,0.0113985,1280,379,1.96812,11.0919
63,645,1.9635,-11.0808,0.00551988,0.00473608,-0.000734782,0.00596074,0.00429522,-0.540413,0.00355132,0.0111632,1287,379,1.96355,11.0808
70,645,1.96252,-11.0634,0.00615848,0.00500006,-0.000875061,0.00662866,0.00452989,-0.493048,0.00391191,0.0148327,1294,379,1.96246,11.0634
77,645,1.95251,-11.0455,0.00653876,0.00523275,-0.000873829,0.00697662,0.00479489,-0.464517,0.00412106,0.0177985,1301,379,1.95247,11.0455
84,645,1.98352,-11.0053,0.00655193,0.00529144,-0.000793095,0.00693471,0.00490867,-0.449658,0.00411744,0.0123391,1308,379,1.98348,11.0053
91,645,1.96411,-11.0008,0.00648966,0.00512862,-0.000714718,0.00679602,0.00482226,-0.404951,0.00403694,0.0118723,1315,379,1.96416,11.0008
98,645,1.94849,-10.9726,0.00622073,0.0048902,-0.000455676,0.00636182,0.00474911,-0.300279,0.00381889,0.0111303,1322,379,1.94847,10.9726
105,645,1.94263,-10.9275,0.00577204,0.00447348,-0.000174757,0.00579514,0.00445038,-0.131463,0.00350232,0.00919037,1329,379,1.94266,10.9275
112,645,1.93738,-10.8971,0.00515069,0.00411781,0.000346904,0.00525639,0.00401211,0.295747,0.00317192,0.00780463,1336,379,1.93738,10.8971
119,645,1.92651,-10.8451,0.00439507,0.00362316,0.000838584,0.00493225,0.00308598,0.569726,0.00287747,0.00768078,1343,379,1.92654,10.8451
126,645,1.90955,-10.7981,0.00363328,0.00287897,0.00116903,0.00448449,0.00202777,0.629358,0.00259307,0.010329,1350,379,1.90961,10.7981
133,645,1.90759,-10.7489,0.00295195,0.00211936,0.00146296,0.00405669,0.00101462,0.646783,0.00243769,0.012169,1357,379,1.90762,10.7489
140,645,1.91687,-10.6902,0.00230148,0.00191595,0.00176876,0.00388795,0.000329487,0.731121,0.00248942,0.0121041,1364,379,1.91682,10.6902
147,645,1.91333,-10.6598,0.001912,0.00128338,0.00176545,0.0033909,-0.000195525,0.697304,0.00232852,0.0122097,1371,379,1.91332,10.6598
154,645,1.91553,-10.6074,0.00182047,0.000870519,0.00144382,0.00286544,-0.000174446,0.626488,0.00197102,0.0111052,1378,379,1.91553,10.6074
161,645,1.91028,-10.5259,0.00165317,0.000394164,0.00109629,0.00228784,-0.000240504,0.524777,0.00161139,0.0134061,1385,379,1.91033,10.526
168,645,1.91077,-10.4585,0.00143565,-0.000112546,0.000854344,0.00181444,-0.000491327,0.417317,0.00140239,0.0159197,1392,379,1.91071,10.4585
175,645,1.92627,-10.3967,0.0012748,-0.000276985,0.000874398,0.00166791,-0.000670102,0.422509,0.00139023,0.0132756,1399,379,1.92622,10.3967
182,645,1.89648,-10.3192,0.00129782,-0.0004577,0.000983954,0.00173863,-0.000898511,0.421189,0.00154809,0.0095047,1406,379,1.89654,10.3192
189,645,1.88403,-10.2286,0.00110305,-0.000580043,0.00143766,0.00192736,-0.00140435,0.520606,0.00193145,0.0103681,1413,379,1.88404,10.2286
196,645,1.86768,-10.1589,0.000378615,-0.000752812,0.00183673,0.00173478,-0.00210898,0.636008,0.0022227,0.0101468,1420,379,1.8677,10.1589
203,645,1.85706,-10.0731,-0.000499817,-0.00148251,0.00174149,0.000818314,-0.00280064,0.647902,0.0021914,0.0104141,1427,379,1.857,10.0731
210,645,1.86682,-10.0008,-0.00126332,-0.00150355,0.00179292,0.000413505,-0.00318038,0.751952,0.00227067,0.0135397,1434,379,1.86685,10.0008
217,645,1.84863,-9.91141,-0.00165997,-0.00122986,0.00173635,0.000304709,-0.00319453,0.847012,0.00223818,0.0123715,1441,379,1.84869,9.9114
224,645,1.81421,-9.77606,-0.00189222,-0.000707843,0.00170468,0.000504574,-0.00310464,0.952573,0.00225683,0.0111727,1448,379,1.81418,9.77605
231,645,1.81055,-9.6698,-0.00198373,-0.000203791,0.00172042,0.000843218,-0.00303074,1.02409,0.00235249,0.0132804,1455,379,1.81058,9.66979
238,645,1.80396,-9.582,-0.00203783,0.000568181,0.00186752,0.00154233,-0.00301198,1.09,0.00267468,0.010988,1462,379,1.80396,9.58199
245,645,1.81348,-9.49155,-0.00230789,0.00131308,0.00190342,0.00212955,-0.00312436,1.16559,0.00305142,0.0116824,1469,379,1.81351,9.49155
252,645,1.84143,-9.3111,-0.00233953,0.00244117,0.00200558,0.0031711,-0.00306945,1.22175,0.00360314,0.0185203,1476,379,1.84146,9.3111
259,645,1.80823,-9.15353,-0.00225518,0.0031393,0.00249269,0.00411475,-0.00323063,1.19779,0.00425108,0.0286839,1483,379,1.80822,9.15354
266,645,1.7843,-9.04666,-0.00288934,0.00306415,0.00393179,0.00501893,-0.00484412,1.10941,0.00569474,0.0254209,1490,379,1.78431,9.04666
273,645,1.81787,-8.97412,-0.00315296,0.00309048,0.00512782,0.00597207,-0.00603454,1.05882,0.00693205,0.0244164,1497,379,1.81788,8.97412
280,645,1.99146,-8.68182,0,0,0,0,0,0,0,-1,1504,379,1.99149,8.68181
287,645,2.30029,-8.45007,0,0,0,0,0,0,0,-1,1511,379,2.30029,8.45006
294,645,2.60913,-8.21832,0,0,0,0,0,0,0,-1,1518,379,2.60908,8.21832
301,645,1.67444,-7.39175,0,0,0,0,0,0,0,-1,1525,379,1.67444,7.39176
308,645,2.50342,-8.96283,0,0,0,0,0,0,0,-1,1532,379,2.50345,8.96282
315,645,2.36182,-8.70764,-0.00804824,-0.00682093,0.0203584,0.0129331,-0.0278023,0.800465,0.0240352,0.0457981,1539,379,2.36183,8.70765
322,645,1.95166,-8.05463,0,0,0,0,0,0,0,-1,1546,379,1.95169,8.05462
329,645,1.23096,-7.2207,0,0,0,0,0,0,0,-1,1553,379,1.23091,7.22072
336,645,0.61792,-6.51047,0,0,0,0,0,0,0,-1,1560,379,0.617879,6.51047
343,645,3.48962,-5.22675,0,0,0,0,0,0,0,-1,1567,379,3.48959,5.22675
350,645,3.93213,-5.72198,0,0,0,0,0,0,0,-1,1574,379,3.9321,5.72198
357,645,1.63928,-6.465,0,0,0,0,0,0,0,-1,1581,379,1.63926,6.46499
364,645,-0.0794678,-3.22021,0,0,0,0,0,0,0,-1,1588,379,-0.0794987,3.22021
371,645,0,0,0,0,0,0,0,0,0,-1,1595,379,0,0
378,645,0,0,0,0,0,0,0,0,0,-1,1602,379,0,0
385,645,0,0,0,0,0,0,0,0,0,-1,1609,379,0,0
392,645,0,0,0,0,0,0,0,0,0,-1,1616,379,0,0
399,645,0,0,0,0,0,0,0,0,0,-1,1623,379,0,0
406,645,0,0,0,0,0,0,0,0,0,-1,1630,379,0,0
413,645,0,0,0,0,0,0,0,0,0,-1,1637,379,0,0
420,645,0,0,0,0,0,0,0,0,0,-1,1644,379,0,0
427,645,0,0,0,0,0,0,0,0,0,-1,1651,379,0,0
434,645,0,0,0,0,0,0,0,0,0,-1,1658,379,0,0
441,645,0,0,0,0,0,0,0,0,0,-1,1665,379,0,0
448,645,0,0,0,0,0,0,0,0,0,-1,1672,379,0,0
455,645,0,0,0,0,0,0,0,0,0,-1,1679,379,0,0
462,645,0,0,0,0,0,0,0,0,0,-1,1686,379,0,0
469,645,0,0,0,0,0,0,0,0,0,-1,1693,379,0,0
476,645,0,0,0,0,0,0,0,0,0,-1,1700,379,0,0
483,645,0,0,0,0,0,0,0,0,0,-1,1707,379,0,0
490,645,0,0,0,0,0,0,0,0,0,-1,1714,379,0,0
497,645,0,0,0,0,0,0,0,0,0,-1,1721,379,0,0
504,645,0,0,0,0,0,0,0,0,0,-1,1728,379,0,0
511,645,0,0,0,0,0,0,0,0,0,-1,1735,379,0,0
518,645,0,0,0,0,0,0,0,0,0,-1,1742,379,0,0
525,645,0,0,0,0,0,0,0,0,0,-1,1749,379,0,0
532,645,0,0,0,0,0,0,0,0,0,-1,1756,379,0,0
539,645,0,0,0,0,0,0,0,0,0,-1,1763,379,0,0
546,645,0,0,0,0,0,0,0,0,0,-1,1770,379,0,0
553,645,0,0,0,0,0,0,0,0,0,-1,1777,379,0,0
560,645,0,0,0,0,0,0,0,0,0,-1,1784,379,0,0
567,645,0,0,0,0,0,0,0,0,0,-1,1791,379,0,0
574,645,0,0,0,0,0,0,0,0,0,-1,1798,379,0,0
581,645,0,0,0,0,0,0,0,0,0,-1,1805,379,0,0
588,645,0,0,0,0,0,0,0,0,0,-1,1812,379,0,0
595,645,0,0,0,0,0,0,0,0,0,-1,1819,379,0,0
602,645,0,0,0,0,0,0,0,0,0,-1,1826,379,0,0
609,645,0,0,0,0,0,0,0,0,0,-1,1833,379,0,0
616,645,0,0,0,0,0,0,0,0,0,-1,1840,379,0,0
623,645,0,0,0,0,0,0,0,0,0,-1,1847,379,0,0
630,645,0,0,0,0,0,0,0,0,0,-1,1854,379,0,0
637,645,0,0,0,0,0,0,0,0,0,-1,1861,379,0,0
644,645,0,0,0,0,0,0,0,0,0,-1,1868,379,0,0
651,645,0,0,0,0,0,0,0,0,0,-1,1875,379,0,0
658,645,0,0,0,0,0,0,0,0,0,-1,1882,379,0,0
665,645,0,0,0,0,0,0,0,0,0,-1,1889,379,0,0
672,645,0,0,0,0,0,0,0,0,0,-1,1896,379,0,0
679,645,0,0,0,0,0,0,0,0,0,-1,1903,379,0,0
686,645,0,0,0,0,0,0,0,0,0,-1,1910,379,0,0
693,645,0,0,0,0,0,0,0,0,0,-1,1917,379,0,0
700,645,0,0,0,0,0,0,0,0,0,-1,1924,379,0,0
707,645,0,0,0,0,0,0,0,0,0,-1,1931,379,0,0
714,645,0,0,0,0,0,0,0,0,0,-1,1938,379,0,0
721,645,0,0,0,0,0,0,0,0,0,-1,1945,379,0,0
728,645,0,0,0,0,0,0,0,0,0,-1,1952,379,0,0
735,645,0,0,0,0,0,0,0,0,0,-1,1959,379,0,0
742,645,0,0,0,0,0,0,0,0,0,-1,1966,379,0,0
749,645,0,0,0,0,0,0,0,0,0,-1,1973,379,0,0
756,645,0,0,0,0,0,0,0,0,0,-1,1980,379,0,0
763,645,0,0,0,0,0,0,0,0,0,-1,1987,379,0,0
770,645,0,0,0,0,0,0,0,0,0,-1,1994,379,0,0
777,645,0,0,0,0,0,0,0,0,0,-1,2001,379,0,0
784,645,0,0,0,0,0,0,0,0,0,-1,2008,379,0,0
791,645,0,0,0,0,0,0,0,0,0,-1,2015,379,0,0
798,645,0,0,0,0,0,0,0,0,0,-1,2022,379,0,0
805,645,0,0,0,0,0,0,0,0,0,-1,2029,379,0,0
812,645,0,0,0,0,0,0,0,0,0,-1,2036,379,0,0
-700,638,0,0,0,0,0,0,0,0,0,-1,524,386,0,0
-693,638,0,0,0,0,0,0,0,0,0,-1,531,386,0,0
-686,638,0,0,0,0,0,0,0,0,0,-1,538,386,0,0
-679,638,0,0,0,0,0,0,0,0,0,-1,545,386,0,0
-672,638,0,0,0,0,0,0,0,0,0,-1,552,386,0,0
-665,638,0,0,0,0,0,0,0,0,0,-1,559,386,0,0
-658,638,0,0,0,0,0,0,0,0,0,-1,566,386,0,0
-651,638,0,0,0,0,0,0,0,0,0,-1,573,386,0,0
-644,638,0,0,0,0,0,0,0,0,0,-1,580,386,0,0
-637,638,0,0,0,0,0,0,0,0,0,-1,587,386,0,0
-630,638,0,0,0,0,0,0,0,0,0,-1,594,386,0,0
-623,638,0,0,0,0,0,0,0,0,0,-1,601,386,0,0
-616,638,0,0,0,0,0,0,0,0,0,-1,608,386,0,0
-609,638,0,0,0,0,0,0,0,0,0,-1,615,386,0,0
-602,638,0,0,0,0,0,0,0,0,0,-1,622,386,0,0
-595,638,0,0,0,0,0,0,0,0,0,-1,629,386,0,0
-588,638,0,0,0,0,0,0,0,0,0,-1,636,386,0,0
-581,638,0,0,0,0,0,0,0,0,0,-1,643,386,0,0
-574,638,0,0,0,0,0,0,0,0,0,-1,650,386,0,0
-567,638,0,0,0,0,0,0,0,0,0,-1,657,386,0,0
-560,638,0,0,0,0,0,0,0,0,0,-1,664,386,0,0
-553,638,0,0,0,0,0,0,0,0,0,-1,671,386,0,0
-546,638,0,0,0,0,0,0,0,0,0,-1,678,386,0,0
-539,638,0,0,0,0,0,0,0,0,0,-1,685,386,0,0
-532,638,0,0,0,0,0,0,0,0,0,-1,692,386,0,0
-525,638,0,0,0,0,0,0,0,0,0,-1,699,386,0,0
-518,638,0,0,0,0,0,0,0,0,0,-1,706,386,0,0
-511,638,0,0,0,0,0,0,0,0,0,-1,713,386,0,0
-504,638,0,0,0,0,0,0,0,0,0,-1,720,386,0,0
-497,638,0,0,0,0,0,0,0,0,0,-1,727,386,0,0
-490,638,0,0,0,0,0,0,0,0,0,-1,734,386,0,0
-483,638,0,0,0,0,0,0,0,0,0,-1,741,386,0,0
-476,638,0,0,0,0,0,0,0,0,0,-1,748,386,0,0
-469,638,0,0,0,0,0,0,0,0,0,-1,755,386,0,0
-462,638,0,0,0,0,0,0,0,0,0,-1,762,386,0,0
-455,638,0,0,0,0,0,0,0,0,0,-1,769,386,0,0
-448,638,0,0,0,0,0,0,0,0,0,-1,776,386,0,0
-441,638,0,0,0,0,0,0,0,0,0,-1,783,386,0,0
-434,638,0,0,0,0,0,0,0,0,0,-1,790,386,0,0
-427,638,0,0,0,0,0,0,0,0,0,-1,797,386,0,0
-420,638,0,0,0,0,0,0,0,0,0,-1,804,386,0,0
-413,638,0,0,0,0,0,0,0,0,0,-1,811,386,0,0
-406,638,0,0,0,0,0,0,0,0,0,-1,818,386,0,0
-399,638,0,0,0,0,0,0,0,0,0,-1,825,386,0,0
-392,638,0,0,0,0,0,0,0,0,0,-1,832,386,0,0
-385,638,0,0,0,0,0,0,0,0,0,-1,839,386,0,0
-378,638,0,0,0,0,0,0,0,0,0,-1,846,386,0,0
-371,638,0,0,0,0,0,0,0,0,0,-1,853,386,0,0
-364,638,0,0,0,0,0,0,0,0,0,-1,860,386,0,0
-357,638,0,0,0,0,0,0,0,0,0,-1,867,386,0,0
-350,638,0,0,0,0,0,0,0,0,0,-1,874,386,0,0
-343,638,0,0,0,0,0,0,0,0,0,-1,881,386,0,0
-336,638,0,0,0,0,0,0,0,0,0,-1,888,386,0,0
-329,638,0,0,0,0,0,0,0,0,0,-1,895,386,0,0
-322,638,0,0,0,0,0,0,0,0,0,-1,902,386,0,0
-315,638,0,0,0,0,0,0,0,0,0,-1,909,386,0,0
-308,638,0,0,0,0,0,0,0,0,0,-1,916,386,0,0
-301,638,0,0,0,0,0,0,0,0,0,-1,923,386,0,0
-294,638,0,0,0,0,0,0,0,0,0,-1,930,386,0,0
-287,638,0,0,0,0,0,0,0,0,0,-1,937,386,0,0
-280,638,0,0,0,0,0,0,0,0,0,-1,944,386,0,0
-273,638,0,0,0,0,0,0,0,0,0,-1,951,386,0,0
-266,638,0.603821,-10.3962,0,0,0,0,0,0,0,-1,958,386,0.603829,10.3962
-259,638,0.491272,-10.2385,0,0,0,0,0,0,0,-1,965,386,0.491282,10.2385
-252,638,0.300537,-6.37717,0,0,0,0,0,0,0,-1,972,386,0.300563,6.37716
-245,638,1.41455,-7.90482,0,0,0,0,0,0,0,-1,979,386,1.41455,7.90482
-238,638,0.552917,-6.91696,0,0,0,0,0,0,0,-1,986,386,0.552911,6.91695
-231,638,0.577515,-7.05582,0,0,0,0,0,0,0,-1,993,386,0.577542,7.05582
-224,638,3.45862,-6.89499,0,0,0,0,0,0,0,-1,1000,386,3.45865,6.89498
-217,638,3.35602,-8.43051,0,0,0,0,0,0,0,-1,1007,386,3.35604,8.43051
-210,638,3.63702,-10.4718,0,0,0,0,0,0,0,-1,1014,386,3.637,10.4718
-203,638,3.40991,-10.8563,0,0,0,0,0,0,0,-1,1021,386,3.40993,10.8563
-196,638,3.38245,-10.14,0.0127284,-0.0299171,0.0475732,0.0435388,-0.0607275,0.574716,0.0604702,0.0448127,1028,386,3.38249,10.14
-189,638,3.37012,-9.40939,0.0125914,-0.0299847,0.0440908,0.0402644,-0.0576576,0.560492,0.0568318,0.0425979,1035,386,3.37011,9.4094
-182,638,2.65613,-9.15189,0,0,0,0,0,0,0,-1,1042,386,2.6561,9.15189
-175,638,2.22839,-9.32745,0.0102117,-0.0240151,0.0314432,0.028897,-0.0427003,0.536183,0.041592,0.0404605,1049,386,2.2284,9.32746
-168,638,2.11194,-9.34256,0.00855298,-0.0196443,0.025189,0.0233206,-0.0344118,0.530263,0.0335362,0.0299282,1056,386,2.11196,9.34255
-161,638,2.12231,-9.46359,0.00677847,-0.0141829,0.0189878,0.0179861,-0.0253905,0.533222,0.0251648,0.0264283,1063,386,2.12229,9.4636
-154,638,2.15247,-9.59488,0.0052368,-0.00858382,0.0136286,0.0136069,-0.0169539,0.550765,0.0176796,0.0206418,1070,386,2.15243,9.59487
-147,638,2.0885,-9.73602,0.00442865,-0.00309267,0.00897438,0.0103985,-0.00906248,0.586991,0.0112446,0.0171391,1077,386,2.08853,9.73604
-140,638,2.08252,-9.81076,0.00405706,0.0022636,0.00547833,0.00871157,-0.0023909,0.704274,0.00674739,0.0138922,1084,386,2.08257,9.81077
-133,638,2.1062,-9.94244,0.00280594,0.00669907,0.00151568,0.00721957,0.00228544,1.24001,0.0042607,0.0109666,1091,386,2.10626,9.94244
-126,638,2.1001,-10.0253,0.00207396,0.0101815,-0.000347222,0.0101963,0.00205912,-1.52807,0.00622572,0.0128303,1098,386,2.10009,10.0253
-119,638,2.08472,-10.104,0.00234113,0.0120867,-0.000127096,0.0120883,0.00233947,-1.55776,0.00740333,0.0149317,1105,386,2.08471,10.104
-112,638,2.05237,-10.2,0.002121,0.0135868,0.000252639,0.0135924,0.00211544,1.54878,0.00844524,0.0133178,1112,386,2.0524,10.2
-105,638,2.02417,-10.2791,0.0019448,0.014841,0.00026666,0.0148466,0.00193929,1.55013,0.00931878,0.0150618,1119,386,2.02422,10.2791
-98,638,2.03711,-10.3635,0.00184542,0.0152106,0.000265244,0.0152159,0.00184016,1.55096,0.00958955,0.0152589,1126,386,2.03708,10.3635
-91,638,2.02368,-10.4289,0.00164267,0.0147659,0.000368211,0.0147762,0.00163235,1.54277,0.0093543,0.0118054,1133,386,2.02367,10.4289
-84,638,1.99023,-10.4913,0.00132024,0.0135849,0.000493052,0.0136047,0.00130045,1.53068,0.00866892,0.0134294,1140,386,1.99022,10.4913
-77,638,1.99902,-10.5642,0.000921635,0.0119946,0.000566709,0.0120235,0.000892707,1.51979,0.00773532,0.0110876,1147,386,1.99902,10.5642
-70,638,2.01575,-10.6197,0.000564826,0.0101468,0.00054988,0.0101782,0.000533373,1.51366,0.00661486,0.00956185,1154,386,2.01577,10.6197
-63,638,2.00659,-10.6609,-7.62319e-08,0.00813131,0.000313824,0.00814341,-1.21701e-05,1.53228,0.005433,0.00992438,1161,386,2.00655,10.6609
-56,638,2.00049,-10.7062,-0.000203768,0.00582038,0.000385046,0.00584489,-0.000228279,1.50722,0.00397487,0.0133967,1168,386,2.0005,10.7062
-49,638,2.00195,-10.773,-0.000227176,0.00351432,0.00057502,0.0036007,-0.000313555,1.42169,0.00251152,0.0116888,1175,386,2.00195,10.773
-42,638,1.99023,-10.8156,-0.000410973,0.00146019,0.000717596,0.0017037,-0.000654483,1.24365,0.0014057,0.0106439,1182,386,1.99022,10.8155
-35,638,1.99792,-10.8587,-0.000342171,0.000325087,0.000549553,0.000634355,-0.000651439,1.05821,0.000742376,0.00953176,1189,386,1.99792,10.8587
-28,638,1.99365,-10.9076,-6.92247e-05,-0.000741955,0.00042812,0.000138863,-0.000950042,0.452424,0.000684361,0.00897973,1196,386,1.99362,10.9076
-21,638,1.96265,-10.9411,0.000142489,-0.00116009,0.000547601,0.000342107,-0.00135971,0.349562,0.00103945,0.0107512,1203,386,1.96261,10.9411
-14,638,1.96191,-10.9769,0.000381064,-0.001466,0.000647113,0.000585214,-0.00167015,0.305596,0.00135142,0.0110319,1210,386,1.96191,10.9769
-7,638,1.99683,-11.0285,0.000657291,-0.00159058,0.000703831,0.00085948,-0.00179277,0.279738,0.00156256,0.0160491,1217,386,1.99677,11.0285
0,638,2.01965,-11.0119,0.000953046,-0.00143667,0.00069249,0.00113921,-0.00162284,0.262626,0.0016028,0.028804,1224,386,2.01959,11.0119
7,638,1.9646,-11.0432,0.0012653,-0.00119015,0.000597104,0.0014028,-0.00132765,0.226333,0.00157663,0.0213208,1231,386,1.96464,11.0431
14,638,1.96204,-11.0615,0.00150329,-0.000841722,0.00045995,0.00159028,-0.000928709,0.186916,0.00147096,0.0115433,1238,386,1.96202,11.0615
21,638,1.97217,-11.0689,0.00170384,-6.47404e-05,0.00020487,0.00172726,-8.81621e-05,0.11383,0.00118199,0.0105874,1245,386,1.97214,11.0689
28,638,1.95032,-11.0633,0.0019068,0.000981289,-0.00020401,0.00194977,0.000938314,-0.207614,0.00112596,0.00827488,1252,386,1.95036,11.0633
35,638,1.95264,-11.0872,0.00271078,0.00163137,-0.00068195,0.00304075,0.0013014,-0.450657,0.00176164,0.00944943,1259,386,1.95268,11.0872
42,638,1.98157,-11.1159,0.00454752,0.00316938,-0.0018981,0.00587776,0.00183914,-0.611279,0.00347182,0.00913238,1266,386,1.98158,11.1159
49,638,1.98499,-11.0886,0.00551388,0.0041088,-0.00256838,0.00747407,0.00214861,-0.651897,0.00444319,0.00817227,1273,386,1.985,11.0886
56,638,1.96948,-11.0688,0.00625929,0.00616804,-0.00329065,0.00950463,0.0029227,-0.778466,0.00562143,0.0109667,1280,386,1.96944,11.0688
63,638,1.97339,-11.0742,0.00715718,0.0074642,-0.00377582,0.0110896,0.00353175,-0.805715,0.00654174,0.0129215,1287,386,1.97345,11.0742
70,638,1.96765,-11.0577,0.00790322,0.00844647,-0.00416673,0.0123504,0.00399927,-0.817947,0.00727658,0.0174775,1294,386,1.96767,11.0577
77,638,1.96057,-11.0388,0.0082675,0.0104511,-0.00455998,0.0140482,0.00467045,-0.902902,0.0082611,0.0179575,1301,386,1.96058,11.0388
84,638,2.00293,-10.9999,0.00824173,0.0114517,-0.00461098,0.014729,0.00496439,-0.952879,0.00865304,0.0127424,1308,386,2.0029,11
91,638,1.99585,-10.9807,0.00789317,0.0120193,-0.00456301,0.014964,0.00494853,-0.997712,0.00880301,0.0129345,1315,386,1.99585,10.9807
98,638,1.98804,-10.9625,0.00716971,0.0122701,-0.00428988,0.0147106,0.00472926,-1.05357,0.0086717,0.0118779,1322,386,1.98805,10.9625
105,638,1.96338,-10.9388,0.00623637,0.0120931,-0.00384161,0.0139952,0.00433428,-1.11105,0.0082729,0.00915712,1329,386,1.96337,10.9388
112,638,1.95789,-10.9098,0.00513454,0.0115815,-0.00324308,0.0129306,0.00378545,-1.17658,0.00767627,0.00903079,1336,386,1.95787,10.9098
119,638,1.9613,-10.8645,0.00402188,0.0106139,-0.00260027,0.0115161,0.00311967,-1.23682,0.00687755,0.0109202,1343,386,1.96127,10.8645
126,638,1.96924,-10.7978,0.00304097,0.00913668,-0.0020107,0.00974017,0.00243747,-1.27921,0.00585267,0.0140386,1350,386,1.9692,10.7978
133,638,1.9906,-10.736,0.00223701,0.00734689,-0.00143909,0.0077243,0.0018596,-1.31431,0.00465517,0.0149005,1357,386,1.9906,10.736
140,638,1.98755,-10.7046,0.00142766,0.00575693,-0.000934758,0.00595013,0.00123445,-1.36697,0.003626,0.0155552,1364,386,1.98751,10.7046
147,638,1.96985,-10.6747,0.000764233,0.00369199,-0.000318999,0.00372634,0.000729879,-1.46352,0.00228021,0.017645,1371,386,1.96979,10.6747
154,638,1.96204,-10.6173,0.00098195,0.00217944,-0.000304553,0.00225244,0.000908944,-1.33552,0.00130849,0.0162041,1378,386,1.96207,10.6173
161,638,1.96094,-10.5338,0.00110692,0.00061199,-0.000208411,0.00118299,0.000535922,-0.34997,0.000684002,0.0179231,1385,386,1.96096,10.5338
168,638,1.98779,-10.429,0.00100669,-0.000237585,-0.000116762,0.00101755,-0.000248447,-0.0927608,0.000774578,0.0227734,1392,386,1.98774,10.429
175,638,1.99536,-10.3907,0.00085809,-0.000632153,0.000118679,0.000867482,-0.000641545,0.0789741,0.000874486,0.0186388,1399,386,1.99534,10.3907
182,638,1.95325,-10.3265,0.000812945,-0.000741321,0.000324815,0.000878095,-0.000806471,0.197949,0.000972877,0.0119388,1406,386,1.9532,10.3265
189,638,1.93201,-10.2557,0.000653982,-0.000735014,0.00071826,0.000958596,-0.00103963,0.401108,0.00115399,0.0101527,1413,386,1.93205,10.2557
196,638,1.94763,-10.1575,0.000196916,-0.000676462,0.00112622,0.000968144,-0.00144769,0.600448,0.00140391,0.0127521,1420,386,1.94758,10.1575
203,638,1.94409,-10.0751,-0.00034873,-0.00095015,0.00120124,0.000588865,-0.00188775,0.662752,0.00149398,0.0193986,1427,386,1.94407,10.0751
210,638,1.94702,-10.0093,-0.000847656,-0.000881388,0.00129185,0.000427441,-0.00215648,0.778871,0.00159929,0.0159253,1434,386,1.94704,10.0093
217,638,1.93848,-9.92538,-0.00115912,-0.000623378,0.00129691,0.000433039,-0.00221554,0.887239,0.00164053,0.0110934,1441,386,1.93853,9.92539
224,638,1.91101,-9.81268,-0.00134074,-0.000214272,0.00131956,0.000657228,-0.00221224,0.987111,0.00173589,0.00930003,1448,386,1.91098,9.81268
231,638,1.89453,-9.69131,-0.00137215,0.000192511,0.00139738,0.00101165,-0.00219129,1.04059,0.00189057,0.0104556,1455,386,1.89456,9.6913
238,638,1.8949,-9.60754,-0.00138234,0.000825308,0.00159811,0.00166375,-0.00222078,1.08763,0.00225041,0.0120134,1462,386,1.89496,9.60755
245,638,1.90051,-9.51151,-0.00158755,0.00141002,0.0016973,0.00217556,-0.00235309,1.14708,0.00261529,0.0139082,1469,386,1.90046,9.51149
252,638,1.89856,-9.39294,-0.00160316,0.00228752,0.00183355,0.00301543,-0.00233107,1.19288,0.00309522,0.0156667,1476,386,1.89859,9.39294
259,638,1.89478,-9.2662,-0.00154685,0.00277952,0.0022708,0.00375256,-0.00251989,1.16597,0.00364463,0.0145695,1483,386,1.89481,9.2662
266,638,1.87585,-9.15955,-0.00201457,0.0027055,0.00336743,0.00445757,-0.00376664,1.09104,0.00475383,0.0105992,1490,386,1.87586,9.15954
273,638,1.86182,-9.05652,-0.00219503,0.00274845,0.00426369,0.00520505,-0.00465164,1.04808,0.00569375,0.0104192,1497,386,1.86185,9.05653
280,638,1.90503,-8.87479,-0.00235649,0.00248215,0.00552674,0.00609591,-0.00597024,0.991708,0.00696652,0.0205819,1504,386,1.905,8.87479
287,638,2.18176,-8.57733,-0.00276764,0.00183676,0.00704745,0.00694851,-0.00787939,0.94327,0.00856651,0.034108,1511,386,2.18179,8.57733
294,638,2.00012,-8.62198,-0.00324405,0.000933436,0.00882414,0.00791267,-0.0102233,0.901613,0.0104991,0.0435687,1518,386,2.00009,8.62197
301,638,1.7915,-8.36084,0,0,0,0,0,0,0,-1,1525,386,1.79152,8.36085
308,638,2.24585,-8.62521,-0.00414022,-0.00161595,0.0131255,0.010308,-0.0160641,0.83333,0.0153464,0.0460542,1532,386,2.24582,8.6252
315,638,2.19373,-8.53076,-0.00494472,-0.00388362,0.0149275,0.0105228,-0.0193511,0.803162,0.017497,0.0430973,1539,386,2.19367,8.53077
322,638,2.01807,-8.35648,0,0,0,0,0,0,0,-1,1546,386,2.01811,8.35649
329,638,1.86731,-5.82977,0,0,0,0,0,0,0,-1,1553,386,1.86725,5.82976
336,638,2.75012,-8.26135,0,0,0,0,0,0,0,-1,1560,386,2.75016,8.26134
343,638,1.04028,-10.3387,0,0,0,0,0,0,0,-1,1567,386,1.04031,10.3387
350,638,2.3783,-11.33,0,0,0,0,0,0,0,-1,1574,386,2.37831,11.33
357,638,0.130371,-3.02618,0,0,0,0,0,0,0,-1,1581,386,0.130345,3.0262
364,638,3.78149,-6.45215,0,0,0,0,0,0,0,-1,1588,386,3.78155,6.45216
371,638,4.18604,-6.71164,0,0,0,0,0,0,0,-1,1595,386,4.18598,6.71164
378,638,4.59045,-6.97113,0,0,0,0,0,0,0,-1,1602,386,4.5904,6.97112
385,638,0,0,0,0,0,0,0,0,0,-1,1609,386,0,0
392,638,0,0,0,0,0,0,0,0,0,-1,1616,386,0,0
399,638,0,0,0,0,0,0,0,0,0,-1,1623,386,0,0
406,638,0,0,0,0,0,0,0,0,0,-1,1630,386,0,0
413,638,0,0,0,0,0,0,0,0,0,-1,1637,386,0,0
420,638,0,0,0,0,0,0,0,0,0,-1,1644,386,0,0
427,638,0,0,0,0,0,0,0,0,0,-1,1651,386,0,0
434,638,0,0,0,0,0,0,0,0,0,-1,1658,386,0,0
441,638,0,0,0,0,0,0,0,0,0,-1,1665,386,0,0
448,638,0,0,0,0,0,0,0,0,0,-1,1672,386,0,0
455,638,0,0,0,0,0,0,0,0,0,-1,1679,386,0,0
462,638,0,0,0,0,0,0,0,0,0,-1,1686,386,0,0
469,638,0,0,0,0,0,0,0,0,0,-1,1693,386,0,0
476,638,0,0,0,0,0,0,0,0,0,-1,1700,386,0,0
483,638,0,0,0,0,0,0,0,0,0,-1,1707,386,0,0
490,638,0,0,0,0,0,0,0,0,0,-1,1714,386,0,0
497,638,0,0,0,0,0,0,0,0,0,-1,1721,386,0,0
504,638,0,0,0,0,0,0,0,0,0,-1,1728,386,0,0
511,638,0,0,0,0,0,0,0,0,0,-1,1735,386,0,0
518,638,0,0,0,0,0,0,0,0,0,-1,1742,386,0,0
525,638,0,0,0,0,0,0,0,0,0,-1,1749,386,0,0
532,638,0,0,0,0,0,0,0,0,0,-1,1756,386,0,0
539,638,0,0,0,0,0,0,0,0,0,-1,1763,386,0,0
546,638,0,0,0,0,0,0,0,0,0,-1,1770,386,0,0
553,638,0,0,0,0,0,0,0,0,0,-1,1777,386,0,0
560,638,0,0,0,0,0,0,0,0,0,-1,1784,386,0,0
567,638,0,0,0,0,0,0,0,0,0,-1,1791,386,0,0
574,638,0,0,0,0,0,0,0,0,0,-1,1798,386,0,0
581,638,0,0,0,0,0,0,0,0,0,-1,1805,386,0,0
588,638,0,0,0,0,0,0,0,0,0,-1,1812,386,0,0
595,638,0,0,0,0,0,0,0,0,0,-1,1819,386,0,0
602,638,0,0,0,0,0,0,0,0,0,-1,1826,386,0,0
609,638,0,0,0,0,0,0,0,0,0,-1,1833,386,0,0
616,638,0,0,0,0,0,0,0,0,0,-1,1840,386,0,0
623,638,0,0,0,0,0,0,0,0,0,-1,1847,386,0,0
630,638,0,0,0,0,0,0,0,0,0,-1,1854,386,0,0
637,638,0,0,0,0,0,0,0,0,0,-1,1861,386,0,0
644,638,0,0,0,0,0,0,0,0,0,-1,1868,386,0,0
651,638,0,0,0,0,0,0,0,0,0,-1,1875,386,0,0
658,638,0,0,0,0,0,0,0,0,0,-1,1882,386,0,0
665,638,0,0,0,0,0,0,0,0,0,-1,1889,386,0,0
672,638,0,0,0,0,0,0,0,0,0,-1,1896,386,0,0
679,638,0,0,0,0,0,0,0,0,0,-1,1903,386,0,0
686,638,0,0,0,0,0,0,0,0,0,-1,1910,386,0,0
693,638,0,0,0,0,0,0,0,0,0,-1,1917,386,0,0
700,638,0,0,0,0,0,0,0,0,0,-1,1924,386,0,0
707,638,0,0,0,0,0,0,0,0,0,-1,1931,386,0,0
714,638,0,0,0,0,0,0,0,0,0,-1,1938,386,0,0
721,638,0,0,0,0,0,0,0,0,0,-1,1945,386,0,0
728,638,0,0,0,0,0,0,0,0,0,-1,1952,386,0,0
735,638,0,0,0,0,0,0,0,0,0,-1,1959,386,0,0
742,638,0,0,0,0,0,0,0,0,0,-1,1966,386,0,0
749,638,0,0,0,0,0,0,0,0,0,-1,1973,386,0,0
756,638,0,0,0,0,0,0,0,0,0,-1,1980,386,0,0
763,638,0,0,0,0,0,0,0,0,0,-1,1987,386,0,0
770,638,0,0,0,0,0,0,0,0,0,-1,1994,386,0,0
777,638,0,0,0,0,0,0,0,0,0,-1,2001,386,0,0
784,638,0,0,0,0,0,0,0,0,0,-1,2008,386,0,0
791,638,0,0,0,0,0,0,0,0,0,-1,2015,386,0,0
798,638,0,0,0,0,0,0,0,0,0,-1,2022,386,0,0
805,638,0,0,0,0,0,0,0,0,0,-1,2029,386,0,0
812,638,0,0,0,0,0,0,0,0,0,-1,2036,386,0,0
-700,631,0,0,0,0,0,0,0,0,0,-1,524,393,0,0
-693,631,0,0,0,0,0,0,0,0,0,-1,531,393,0,0
-686,631,0,0,0,0,0,0,0,0,0,-1,538,393,0,0
-679,631,0,0,0,0,0,0,0,0,0,-1,545,393,0,0
-672,631,0,0,0,0,0,0,0,0,0,-1,552,393,0,0
-665,631,0,0,0,0,0,0,0,0,0,-1,559,393,0,0
-658,631,0,0,0,0,0,0,0,0,0,-1,566,393,0,0
-651,631,0,0,0,0,0,0,0,0,0,-1,573,393,0,0
-644,631,0,0,0,0,0,0,0,0,0,-1,580,393,0,0
-637,631,0,0,0,0,0,0,0,0,0,-1,587,393,0,0
-630,631,0,0,0,0,0,0,0,0,0,-1,594,393,0,0
-623,631,0,0,0,0,0,0,0,0,0,-1,601,393,0,0
-616,631,0,0,0,0,0,0,0,0,0,-1,608,393,0,0
-609,631,0,0,0,0,0,0,0,0,0,-1,615,393,0,0
-602,631,0,0,0,0,0,0,0,0,0,-1,622,393,0,0
-595,631,0,0,0,0,0,0,0,0,0,-1,629,393,0,0
-588,631,0,0,0,0,0,0,0,0,0,-1,636,393,0,0
-581,631,0,0,0,0,0,0,0,0,0,-1,643,393,0,0
-574,631,0,0,0,0,0,0,0,0,0,-1,650,393,0,0
-567,631,0,0,0,0,0,0,0,0,0,-1,657,393,0,0
-560,631,0,0,0,0,0,0,0,0,0,-1,664,393,0,0
-553,631,0,0,0,0,0,0,0,0,0,-1,671,393,0,0
-546,631,0,0,0,0,0,0,0,0,0,-1,678,393,0,0
-539,631,0,0,0,0,0,0,0,0,0,-1,685,393,0,0
-532,631,0,0,0,0,0,0,0,0,0,-1,692,393,0,0
-525,631,0,0,0,0,0,0,0,0,0,-1,699,393,0,0
-518,631,0,0,0,0,0,0,0,0,0,-1,706,393,0,0
-511,631,0,0,0,0,0,0,0,0,0,-1,713,393,0,0
-504,631,0,0,0,0,0,0,0,0,0,-1,720,393,0,0
-497,631,0,0,0,0,0,0,0,0,0,-1,727,393,0,0
-490,631,0,0,0,0,0,0,0,0,0,-1,734,393,0,0
-483,631,0,0,0,0,0,0,0,0,0,-1,741,393,0,0
-476,631,0,0,0,0,0,0,0,0,0,-1,748,393,0,0
-469,631,0,0,0,0,0,0,0,0,0,-1,755,393,0,0
-462,631,0,0,0,0,0,0,0,0,0,-1,762,393,0,0
-455,631,0,0,0,0,0,0,0,0,0,-1,769,393,0,0
-448,631,0,0,0,0,0,0,0,0,0,-1,776,393,0,0
-441,631,0,0,0,0,0,0,0,0,0,-1,783,393,0,0
-434,631,0,0,0,0,0,0,0,0,0,-1,790,393,0,0
-427,631,0,0,0,0,0,0,0,0,0,-1,797,393,0,0
-420,631,0,0,0,0,0,0,0,0,0,-1,804,393,0,0
-413,631,0,0,0,0,0,0,0,0,0,-1,811,393,0,0
-406,631,0,0,0,0,0,0,0,0,0,-1,818,393,0,0
-399,631,0,0,0,0,0,0,0,0,0,-1,825,393,0,0
-392,631,0,0,0,0,0,0,0,0,0,-1,832,393,0,0
-385,631,0,0,0,0,0,0,0,0,0,-1,839,393,0,0
-378,631,0,0,0,0,0,0,0,0,0,-1,846,393,0,0
-371,631,0,0,0,0,0,0,0,0,0,-1,853,393,0,0
-364,631,0,0,0,0,0,0,0,0,0,-1,860,393,0,0
-357,631,0,0,0,0,0,0,0,0,0,-1,867,393,0,0
-350,631,0,0,0,0,0,0,0,0,0,-1,874,393,0,0
-343,631,0,0,0,0,0,0,0,0,0,-1,881,393,0,0
-336,631,0,0,0,0,0,0,0,0,0,-1,888,393,0,0
-329,631,0,0,0,0,0,0,0,0,0,-1,895,393,0,0
-322,631,0,0,0,0,0,0,0,0,0,-1,902,393,0,0
-315,631,0,0,0,0,0,0,0,0,0,-1,909,393,0,0
-308,631,0,0,0,0,0,0,0,0,0,-1,916,393,0,0
-301,631,0,0,0,0,0,0,0,0,0,-1,923,393,0,0
-294,631,0,0,0,0,0,0,0,0,0,-1,930,393,0,0
-287,631,0,0,0,0,0,0,0,0,0,-1,937,393,0,0
-280,631,1.12305,-12.4633,0,0,0,0,0,0,0,-1,944,393,1.12305,12.4633
-273,631,1.05743,-9.98688,0,0,0,0,0,0,0,-1,951,393,1.05741,9.98687
-266,631,0.616394,-9.4404,0,0,0,0,0,0,0,-1,958,393,0.616411,9.4404
-259,631,2.58789,-7.96832,0,0,0,0,0,0,0,-1,965,393,2.58792,7.96833
-252,631,1.86224,-7.96524,0,0,0,0,0,0,0,-1,972,393,1.86223,7.96525
-245,631,2.88428,-6.70004,0,0,0,0,0,0,0,-1,979,393,2.88426,6.70004
-238,631,2.55652,-7.30154,0,0,0,0,0,0,0,-1,986,393,2.5565,7.30155
-231,631,2.80286,-8.38925,0,0,0,0,0,0,0,-1,993,393,2.80283,8.38926
-224,631,2.19391,-7.561,0,0,0,0,0,0,0,-1,1000,393,2.19391,7.561
-217,631,2.77722,-7.90506,0,0,0,0,0,0,0,-1,1007,393,2.77721,7.90506
-210,631,2.14532,-8.9137,0,0,0,0,0,0,0,-1,1014,393,2.1453,8.9137
-203,631,2.78796,-8.64273,0,0,0,0,0,0,0,-1,1021,393,2.78796,8.64272
-196,631,2.90381,-8.94919,0.00687603,-0.0190923,0.0322308,0.0286397,-0.040856,0.593918,0.0403295,0.0488103,1028,393,2.90382,8.94919
-189,631,2.5636,-9.08667,0.00709816,-0.0199107,0.0302122,0.0266867,-0.0394993,0.575225,0.0384504,0.0473609,1035,393,2.56363,9.08666
-182,631,2.41785,-9.16336,0.00654396,-0.0182861,0.0262267,0.0231457,-0.0348878,0.564338,0.0337335,0.0433708,1042,393,2.41788,9.16337
-175,631,2.32434,-9.27383,0.00602532,-0.0162751,0.0218189,0.019378,-0.0296277,0.54918,0.028499,0.0327915,1049,393,2.32437,9.27382
-168,631,2.05627,-9.42545,0.00499963,-0.0136491,0.0176534,0.0156399,-0.0242894,0.542426,0.0232328,0.0164393,1056,393,2.05628,9.42544
-161,631,2.05115,-9.54416,0.00383529,-0.0101351,0.0133882,0.011951,-0.0182508,0.544954,0.017563,0.00863136,1063,393,2.05118,9.54417
-154,631,2.04822,-9.6362,0.00285228,-0.00642007,0.0096118,0.00888761,-0.0124554,0.560687,0.0123796,0.00873516,1070,393,2.0482,9.6362
-147,631,2.02649,-9.73419,0.00241165,-0.00281369,0.00630474,0.00662363,-0.00702567,0.58897,0.00788156,0.0098578,1077,393,2.02644,9.73419
-140,631,1.99976,-9.83978,0.00232894,0.00095193,0.00374755,0.00545071,-0.00216984,0.69455,0.00453361,0.00920125,1084,393,1.99978,9.83977
-133,631,1.99878,-9.94797,0.0016039,0.00403013,0.000894843,0.00432446,0.00130957,1.25302,0.00256062,0.00785987,1091,393,1.9988,9.94796
-126,631,2.0033,-10.0304,0.00117788,0.00641976,-0.00041361,0.00645219,0.00114544,-1.49254,0.00397505,0.0129681,1098,393,2.00332,10.0304
-119,631,2.00134,-10.1104,0.00145285,0.00778632,-0.000270786,0.00779788,0.00144129,-1.52815,0.00479097,0.0166707,1105,393,2.00137,10.1104
-112,631,1.97864,-10.1993,0.00135266,0.0088979,-1.00734e-05,0.00889791,0.00135265,-1.56946,0.00553642,0.0139363,1112,393,1.97863,10.1993
-105,631,1.98901,-10.2801,0.00125936,0.00983507,-2.81983e-05,0.00983516,0.00125926,-1.56751,0.00617993,0.0166849,1119,393,1.98896,10.2801
-98,631,1.98682,-10.3721,0.00122401,0.0101267,-6.952e-05,0.0101272,0.00122347,-1.56299,0.00638285,0.0154729,1126,393,1.9868,10.3721
-91,631,1.96167,-10.4361,0.00112049,0.0098093,-2.98943e-05,0.0098094,0.00112039,-1.56736,0.00619997,0.0159102,1133,393,1.96171,10.4361
-84,631,1.94897,-10.4899,0.000927882,0.00897029,4.89671e-05,0.00897059,0.000927583,1.56471,0.00569643,0.0152841,1140,393,1.94897,10.4899
-77,631,1.94238,-10.5567,0.000676891,0.00785036,0.000102076,0.00785182,0.000675439,1.55657,0.00502455,0.0106679,1147,393,1.94239,10.5567
-70,631,1.94849,-10.6106,0.000477056,0.00658933,0.00010668,0.00659119,0.000475195,1.55335,0.00424461,0.0104967,1154,393,1.94847,10.6106
-63,631,1.94604,-10.6656,0.000230252,0.00528482,2.2549e-05,0.00528492,0.000230152,1.56634,0.00344912,0.009647,1161,393,1.94602,10.6656
-56,631,1.9502,-10.7325,0.000154443,0.00394447,-2.61545e-05,0.00394465,0.000154263,-1.5639,0.00257988,0.011394,1168,393,1.95015,10.7325
-49,631,1.94849,-10.799,0.000114827,0.00266598,-2.59852e-05,0.00266624,0.000114563,-1.56061,0.00174056,0.0105746,1175,393,1.94846,10.799
-42,631,1.93884,-10.8378,0.000149561,0.0013756,0.000188827,0.00140402,0.000121138,1.42139,0.000898363,0.00825499,1182,393,1.93887,10.8378
-35,631,1.95313,-10.869,0.000424041,0.000535156,0.000180355,0.000668316,0.000290881,0.934808,0.00038693,0.0090212,1189,393,1.95315,10.869
-28,631,1.94788,-10.8975,0.000843172,-0.000350093,0.000174674,0.000868216,-0.000375137,0.142404,0.000736426,0.0115992,1196,393,1.94793,10.8975
-21,631,1.92114,-10.9421,0.00117155,-0.000881243,0.000256901,0.00120321,-0.000912905,0.122628,0.00122557,0.0108531,1203,393,1.92115,10.9421
-14,631,1.91809,-10.9919,0.00154617,-0.0013141,0.000258161,0.00156929,-0.00133721,0.089296,0.00167985,0.0126517,1210,393,1.91811,10.9919
-7,631,1.9502,-11.049,0.00203008,-0.00162132,0.000217642,0.00204301,-0.00163425,0.059325,0.00212743,0.0190003,1217,393,1.95015,11.049
0,631,1.98303,-11.0414,0.00253004,-0.00163758,8.47597e-05,0.00253177,-0.0016393,0.0203265,0.00242647,0.0200899,1224,393,1.98304,11.0414
7,631,1.96643,-11.0537,0.00300188,-0.00148391,-0.000117208,0.00300494,-0.00148698,-0.0261049,0.00264231,0.0159499,1231,393,1.96648,11.0537
14,631,1.94861,-11.0747,0.00335025,-0.00124332,-0.000342134,0.00337559,-0.00126866,-0.0739374,0.00277181,0.00934383,1238,393,1.94867,11.0747
21,631,1.95801,-11.0674,0.00368162,-0.000483291,-0.000796262,0.00382866,-0.000630332,-0.182607,0.00278642,0.0118706,1245,393,1.95798,11.0674
28,631,1.93311,-11.0656,0.00399536,0.000621208,-0.00145719,0.00453755,7.90211e-05,-0.356207,0.00299904,0.0131608,1252,393,1.93306,11.0656
35,631,1.93762,-11.0812,0.00517735,0.00141647,-0.00206783,0.0060919,0.000501915,-0.416412,0.00390473,0.0124275,1259,393,1.93759,11.0812
42,631,1.97205,-11.097,0.00790261,0.00351126,-0.00373863,0.0100426,0.00137123,-0.519886,0.00628805,0.011398,1266,393,1.972,11.097
49,631,1.98438,-11.0739,0.00941725,0.00484126,-0.00466926,0.012329,0.00192955,-0.557585,0.00765759,0.010589,1273,393,1.98443,11.0739
56,631,1.9906,-11.0717,0.0103386,0.00804598,-0.00530494,0.0146197,0.00376492,-0.678991,0.00876528,0.0124256,1280,393,1.99064,11.0717
63,631,1.98706,-11.0776,0.0113074,0.0105747,-0.00591076,0.0168631,0.00501895,-0.754449,0.00999823,0.0139592,1287,393,1.98707,11.0776
70,631,1.98975,-11.0544,0.0126547,0.0130608,-0.00677908,0.0196399,0.00607564,-0.800369,0.0116106,0.0139619,1294,393,1.98975,11.0544
77,631,1.98108,-11.0397,0.0137943,0.0174466,-0.00796768,0.0237947,0.0074462,-0.898049,0.0140547,0.013686,1301,393,1.98103,11.0397
84,631,1.98682,-11.0226,0.0141869,0.0200933,-0.00837876,0.0260241,0.00825612,-0.954831,0.0153559,0.0114597,1308,393,1.98681,11.0226
91,631,1.99097,-10.9883,0.0140065,0.0222192,-0.00863609,0.0276755,0.00855023,-1.00732,0.0163627,0.014672,1315,393,1.99094,10.9883
98,631,1.99768,-10.9589,0.013203,0.0237963,-0.00866407,0.0286545,0.00834484,-1.05975,0.0170176,0.0126589,1322,393,1.99767,10.9589
105,631,1.99878,-10.9493,0.0120579,0.0245863,-0.00847131,0.0288579,0.00778626,-1.10376,0.0172396,0.00995129,1329,393,1.99876,10.9493
112,631,2.00989,-10.9156,0.0106639,0.0244773,-0.00807803,0.0281988,0.00694248,-1.13909,0.0169653,0.0105766,1336,393,2.00992,10.9156
119,631,2.0177,-10.8768,0.00911732,0.0233638,-0.00748798,0.0265755,0.00590566,-1.16562,0.0161133,0.0115757,1343,393,2.01767,10.8768
126,631,2.02917,-10.8179,0.00764297,0.0214425,-0.00677916,0.0242156,0.0048699,-1.18251,0.0147901,0.0161559,1350,393,2.02923,10.8179
133,631,2.05103,-10.7374,0.00620966,0.018613,-0.00588447,0.0209604,0.00386219,-1.19122,0.0128807,0.0171259,1357,393,2.05107,10.7374
140,631,2.05139,-10.6971,0.00443438,0.0155017,-0.00498955,0.0174191,0.00251707,-1.20393,0.0108712,0.0180415,1364,393,2.05142,10.6971
147,631,2.03162,-10.6576,0.00247772,0.0114201,-0.00351919,0.0126389,0.00125891,-1.23739,0.00803925,0.0217619,1371,393,2.03166,10.6576
154,631,2.0094,-10.6183,0.00226158,0.00819778,-0.00290609,0.00938359,0.00107577,-1.18338,0.00592976,0.02116,1378,393,2.00939,10.6183
161,631,2.03943,-10.5522,0.00222835,0.00456095,-0.00236207,0.00602897,0.000760328,-1.01472,0.00379137,0.0225416,1385,393,2.03942,10.5522
168,631,2.05908,-10.4282,0.00182914,0.00257914,-0.00175616,0.00399989,0.000408387,-0.890585,0.00254143,0.0266214,1392,393,2.05911,10.4282
175,631,2.05054,-10.3779,0.00110205,0.001193,-0.000900769,0.00204944,0.000245612,-0.810618,0.00129223,0.0211062,1399,393,2.05052,10.3779
182,631,2.02673,-10.3334,0.00068121,-0.000515626,-9.73049e-05,0.00068907,-0.000523485,-0.0805964,0.000702241,0.0109993,1406,393,2.02673,10.3334
189,631,2.03149,-10.2387,0.000546149,-0.000476657,0.000194712,0.000581962,-0.00051247,0.181897,0.000632295,0.00995325,1413,393,2.03146,10.2387
196,631,2.04114,-10.1632,0.000283415,-0.000428162,0.000495019,0.00053724,-0.000681988,0.473803,0.000705573,0.0108168,1420,393,2.04118,10.1632
203,631,2.03833,-10.0884,-5.20627e-05,-0.000576026,0.000614779,0.000354227,-0.000982316,0.58398,0.000799551,0.0131099,1427,393,2.03834,10.0884
210,631,2.0166,-10.0182,-0.000410934,-0.000440474,0.000745246,0.000319689,-0.0011711,0.77549,0.000906288,0.0148701,1434,393,2.01665,10.0182
217,631,2.02002,-9.96051,-0.000693437,-0.00018457,0.000823111,0.000422535,-0.00130054,0.935296,0.00103698,0.0152216,1441,393,2.02008,9.96052
224,631,2.00537,-9.83762,-0.000842156,0.000134748,0.000898417,0.00066891,-0.00137632,1.03439,0.00120413,0.0119628,1448,393,2.00537,9.83763
231,631,1.98938,-9.70593,-0.000838891,0.000465536,0.00102958,0.0010321,-0.00140545,1.06773,0.00141281,0.0109635,1455,393,1.98934,9.70594
238,631,1.99573,-9.59915,-0.000821234,0.000976049,0.00126289,0.00162739,-0.00147257,1.09463,0.00179051,0.0167759,1462,393,1.99568,9.59916
245,631,2.01306,-9.50739,-0.00096694,0.00144103,0.00140676,0.00208868,-0.00161459,1.13934,0.00214392,0.0188379,1469,393,2.01306,9.5074
252,631,1.99878,-9.40771,-0.000965221,0.00212695,0.00156469,0.00278055,-0.00161882,1.17511,0.00256933,0.0187213,1476,393,1.99879,9.40773
259,631,1.97803,-9.29184,-0.000930256,0.00248641,0.0019483,0.00336927,-0.00181311,1.14533,0.00303668,0.012866,1483,393,1.97802,9.29184
266,631,1.97339,-9.18536,-0.00128552,0.00242404,0.00277752,0.00390915,-0.00277062,1.07979,0.00387519,0.0108831,1490,393,1.97338,9.18537
273,631,1.96338,-9.06024,-0.00143406,0.00247369,0.00345583,0.00448975,-0.00345012,1.04269,0.00459716,0.0132179,1497,393,1.96344,9.06023
280,631,1.95544,-8.96127,-0.00153752,0.00228002,0.00439516,0.005163,-0.0044205,0.990254,0.00553857,0.0125824,1504,393,1.9555,8.96127
287,631,1.9884,-8.80136,-0.00181077,0.0018077,0.00548095,0.00577031,-0.00577337,0.944815,0.00666475,0.0141244,1511,393,1.98846,8.80137
294,631,1.9613,-8.60425,-0.00211499,0.00119337,0.00672272,0.00646244,-0.00738406,0.906031,0.00800018,0.017929,1518,393,1.96136,8.60425
301,631,1.90369,-8.42654,-0.00235768,0.000297866,0.0080741,0.00715264,-0.00921245,0.866893,0.00947331,0.0249107,1525,393,1.90371,8.42653
308,631,1.96973,-8.30054,-0.00257542,-0.00053434,0.00960665,0.00810583,-0.0112156,0.838316,0.0112033,0.0295305,1532,393,1.96968,8.30053
315,631,1.98633,-8.2822,-0.00299031,-0.00195093,0.0108013,0.00834317,-0.0132844,0.809436,0.0125949,0.035138,1539,393,1.98637,8.2822
322,631,1.93933,-8.07504,-0.00329169,-0.00334867,0.0119901,0.00866996,-0.0153103,0.78421,0.0140208,0.0436093,1546,393,1.93935,8.07504
329,631,2.24719,-7.95679,0,0,0,0,0,0,0,-1,1553,393,2.24722,7.95677
336,631,2.17493,-7.47534,0,0,0,0,0,0,0,-1,1560,393,2.1749,7.47534
343,631,2.39612,-6.96481,0,0,0,0,0,0,0,-1,1567,393,2.39608,6.96482
350,631,2.1344,-9.23401,0,0,0,0,0,0,0,-1,1574,393,2.13439,9.23401
357,631,2.6449,-9.60303,0,0,0,0,0,0,0,-1,1581,393,2.64491,9.60304
364,631,3.39136,-5.7594,0,0,0,0,0,0,0,-1,1588,393,3.39137,5.75939
371,631,3.72839,-6.0574,0,0,0,0,0,0,0,-1,1595,393,3.72845,6.05742
378,631,4.06555,-6.35544,0,0,0,0,0,0,0,-1,1602,393,4.06553,6.35544
385,631,3.90442,-3.58298,0,0,0,0,0,0,0,-1,1609,393,3.90437,3.58299
392,631,0.352295,-2.21301,0,0,0,0,0,0,0,-1,1616,393,0.352345,2.213
399,631,0,0,0,0,0,0,0,0,0,-1,1623,393,0,0
406,631,0,0,0,0,0,0,0,0,0,-1,1630,393,0,0
413,631,0,0,0,0,0,0,0,0,0,-1,1637,393,0,0
420,631,0,0,0,0,0,0,0,0,0,-1,1644,393,0,0
427,631,0,0,0,0,0,0,0,0,0,-1,1651,393,0,0
434,631,0,0,0,0,0,0,0,0,0,-1,1658,393,0,0
441,631,0,0,0,0,0,0,0,0,0,-1,1665,393,0,0
448,631,0,0,0,0,0,0,0,0,0,-1,1672,393,0,0
455,631,0,0,0,0,0,0,0,0,0,-1,1679,393,0,0
462,631,0,0,0,0,0,0,0,0,0,-1,1686,393,0,0
469,631,0,0,0,0,0,0,0,0,0,-1,1693,393,0,0
476,631,0,0,0,0,0,0,0,0,0,-1,1700,393,0,0
483,631,0,0,0,0,0,0,0,0,0,-1,1707,393,0,0
490,631,0,0,0,0,0,0,0,0,0,-1,1714,393,0,0
497,631,0,0,0,0,0,0,0,0,0,-1,1721,393,0,0
504,631,0,0,0,0,0,0,0,0,0,-1,1728,393,0,0
511,631,0,0,0,0,0,0,0,0,0,-1,1735,393,0,0
518,631,0,0,0,0,0,0,0,0,0,-1,1742,393,0,0
525,631,0,0,0,0,0,0,0,0,0,-1,1749,393,0,0
532,631,0,0,0,0,0,0,0,0,0,-1,1756,393,0,0
539,631,0,0,0,0,0,0,0,0,0,-1,1763,393,0,0
546,631,0,0,0,0,0,0,0,0,0,-1,1770,393,0,0
553,631,0,0,0,0,0,0,0,0,0,-1,1777,393,0,0
560,631,0,0,0,0,0,0,0,0,0,-1,1784,393,0,0
567,631,0,0,0,0,0,0,0,0,0,-1,1791,393,0,0
574,631,0,0,0,0,0,0,0,0,0,-1,1798,393,0,0
581,631,0,0,0,0,0,0,0,0,0,-1,1805,393,0,0
588,631,0,0,0,0,0,0,0,0,0,-1,1812,393,0,0
595,631,0,0,0,0,0,0,0,0,0,-1,1819,393,0,0
602,631,0,0,0,0,0,0,0,0,0,-1,1826,393,0,0
609,631,0,0,0,0,0,0,0,0,0,-1,1833,393,0,0
616,631,0,0,0,0,0,0,0,0,0,-1,1840,393,0,0
623,631,0,0,0,0,0,0,0,0,0,-1,1847,393,0,0
630,631,0,0,0,0,0,0,0,0,0,-1,1854,393,0,0
637,631,0,0,0,0,0,0,0,0,0,-1,1861,393,0,0
644,631,0,0,0,0,0,0,0,0,0,-1,1868,393,0,0
651,631,0,0,0,0,0,0,0,0,0,-1,1875,393,0,0
658,631,0,0,0,0,0,0,0,0,0,-1,1882,393,0,0
665,631,0,0,0,0,0,0,0,0,0,-1,1889,393,0,0
672,631,0,0,0,0,0,0,0,0,0,-1,1896,393,0,0
679,631,0,0,0,0,0,0,0,0,0,-1,1903,393,0,0
686,631,0,0,0,0,0,0,0,0,0,-1,1910,393,0,0
693,631,0,0,0,0,0,0,0,0,0,-1,1917,393,0,0
700,631,0,0,0,0,0,0,0,0,0,-1,1924,393,0,0
707,631,0,0,0,0,0,0,0,0,0,-1,1931,393,0,0
714,631,0,0,0,0,0,0,0,0,0,-1,1938,393,0,0
721,631,0,0,0,0,0,0,0,0,0,-1,1945,393,0,0
728,631,0,0,0,0,0,0,0,0,0,-1,1952,393,0,0
735,631,0,0,0,0,0,0,0,0,0,-1,1959,393,0,0
742,631,0,0,0,0,0,0,0,0,0,-1,1966,393,0,0
749,631,0,0,0,0,0,0,0,0,0,-1,1973,393,0,0
756,631,0,0,0,0,0,0,0,0,0,-1,1980,393,0,0
763,631,0,0,0,0,0,0,0,0,0,-1,1987,393,0,0
770,631,0,0,0,0,0,0,0,0,0,-1,1994,393,0,0
777,631,0,0,0,0,0,0,0,0,0,-1,2001,393,0,0
784,631,0,0,0,0,0,0,0,0,0,-1,2008,393,0,0
791,631,0,0,0,0,0,0,0,0,0,-1,2015,393,0,0
798,631,0,0,0,0,0,0,0,0,0,-1,2022,393,0,0
805,631,0,0,0,0,0,0,0,0,0,-1,2029,393,0,0
812,631,0,0,0,0,0,0,0,0,0,-1,2036,393,0,0
-700,624,0,0,0,0,0,0,0,0,0,-1,524,400,0,0
-693,624,0,0,0,0,0,0,0,0,0,-1,531,400,0,0
-686,624,0,0,0,0,0,0,0,0,0,-1,538,400,0,0
-679,624,0,0,0,0,0,0,0,0,0,-1,545,400,0,0
-672,624,0,0,0,0,0,0,0,0,0,-1,552,400,0,0
-665,624,0,0,0,0,0,0,0,0,0,-1,559,400,0,0
-658,624,0,0,0,0,0,0,0,0,0,-1,566,400,0,0
-651,624,0,0,0,0,0,0,0,0,0,-1,573,400,0,0
-644,624,0,0,0,0,0,0,0,0,0,-1,580,400,0,0
-637,624,0,0,0,0,0,0,0,0,0,-1,587,400,0,0
-630,624,0,0,0,0,0,0,0,0,0,-1,594,400,0,0
-623,624,0,0,0,0,0,0,0,0,0,-1,601,400,0,0
-616,624,0,0,0,0,0,0,0,0,0,-1,608,400,0,0
-609,624,0,0,0,0,0,0,0,0,0,-1,615,400,0,0
-602,624,0,0,0,0,0,0,0,0,0,-1,622,400,0,0
-595,624,0,0,0,0,0,0,0,0,0,-1,629,400,0,0
-588,624,0,0,0,0,0,0,0,0,0,-1,636,400,0,0
-581,624,0,0,0,0,0,0,0,0,0,-1,643,400,0,0
-574,624,0,0,0,0,0,0,0,0,0,-1,650,400,0,0
-567,624,0,0,0,0,0,0,0,0,0,-1,657,400,0,0
-560,624,0,0,0,0,0,0,0,0,0,-1,664,400,0,0
-553,624,0,0,0,0,0,0,0,0,0,-1,671,400,0,0
-546,624,0,0,0,0,0,0,0,0,0,-1,678,400,0,0
-539,624,0,0,0,0,0,0,0,0,0,-1,685,400,0,0
-532,624,0,0,0,0,0,0,0,0,0,-1,692,400,0,0
-525,624,0,0,0,0,0,0,0,0,0,-1,699,400,0,0
-518,624,0,0,0,0,0,0,0,0,0,-1,706,400,0,0
-511,624,0,0,0,0,0,0,0,0,0,-1,713,400,0,0
-504,624,0,0,0,0,0,0,0,0,0,-1,720,400,0,0
-497,624,0,0,0,0,0,0,0,0,0,-1,727,400,0,0
-490,624,0,0,0,0,0,0,0,0,0,-1,734,400,0,0
-483,624,0,0,0,0,0,0,0,0,0,-1,741,400,0,0
-476,624,0,0,0,0,0,0,0,0,0,-1,748,400,0,0
-469,624,0,0,0,0,0,0,0,0,0,-1,755,400,0,0
-462,624,0,0,0,0,0,0,0,0,0,-1,762,400,0,0
-455,624,0,0,0,0,0,0,0,0,0,-1,769,400,0,0
-448,624,0,0,0,0,0,0,0,0,0,-1,776,400,0,0
-441,624,0,0,0,0,0,0,0,0,0,-1,783,400,0,0
-434,624,0,0,0,0,0,0,0,0,0,-1,790,400,0,0
-427,624,0,0,0,0,0,0,0,0,0,-1,797,400,0,0
-420,624,0,0,0,0,0,0,0,0,0,-1,804,400,0,0
-413,624,0,0,0,0,0,0,0,0,0,-1,811,400,0,0
-406,624,0,0,0,0,0,0,0,0,0,-1,818,400,0,0
-399,624,0,0,0,0,0,0,0,0,0,-1,825,400,0,0
-392,624,0,0,0,0,0,0,0,0,0,-1,832,400,0,0
-385,624,0,0,0,0,0,0,0,0,0,-1,839,400,0,0
-378,624,0,0,0,0,0,0,0,0,0,-1,846,400,0,0
-371,624,0,0,0,0,0,0,0,0,0,-1,853,400,0,0
-364,624,0,0,0,0,0,0,0,0,0,-1,860,400,0,0
-357,624,0,0,0,0,0,0,0,0,0,-1,867,400,0,0
-350,624,0,0,0,0,0,0,0,0,0,-1,874,400,0,0
-343,624,0,0,0,0,0,0,0,0,0,-1,881,400,0,0
-336,624,0,0,0,0,0,0,0,0,0,-1,888,400,0,0
-329,624,0,0,0,0,0,0,0,0,0,-1,895,400,0,0
-322,624,0,0,0,0,0,0,0,0,0,-1,902,400,0,0
-315,624,0,0,0,0,0,0,0,0,0,-1,909,400,0,0
-308,624,0,0,0,0,0,0,0,0,0,-1,916,400,0,0
-301,624,0,0,0,0,0,0,0,0,0,-1,923,400,0,0
-294,624,1.59058,-11.9451,0,0,0,0,0,0,0,-1,930,400,1.59057,11.9451
-287,624,1.05115,-11.63,0,0,0,0,0,0,0,-1,937,400,1.05116,11.63
-280,624,1.66888,-10.3219,0,0,0,0,0,0,0,-1,944,400,1.66888,10.3219
-273,624,1.08618,-9.31528,0,0,0,0,0,0,0,-1,951,400,1.0862,9.31527
-266,624,2.59027,-7.27963,0,0,0,0,0,0,0,-1,958,400,2.59027,7.27962
-259,624,3.39539,-5.76038,0,0,0,0,0,0,0,-1,965,400,3.3954,5.76036
-252,624,2.93842,-5.97864,0,0,0,0,0,0,0,-1,972,400,2.93842,5.97864
-245,624,2.71362,-6.76627,-0.0163224,0.016497,-0.00699467,0.0179255,-0.0177509,-1.36933,0.0205979,0.0465715,979,400,2.71363,6.76626
-238,624,2.50812,-7.49622,0,0,0,0,0,0,0,-1,986,400,2.50811,7.49622
-231,624,2.12384,-8.25943,0,0,0,0,0,0,0,-1,993,400,2.12386,8.25944
-224,624,0.88385,-7.60666,0,0,0,0,0,0,0,-1,1000,400,0.883823,7.60666
-217,624,1.60925,-8.24472,0,0,0,0,0,0,0,-1,1007,400,1.60927,8.24472
-210,624,1.99878,-8.83566,0.00217906,-0.00783571,0.0210941,0.018852,-0.0245086,0.668864,0.0251052,0.0475212,1014,400,1.9988,8.83567
-203,624,2.36584,-8.73032,0.00288205,-0.0102405,0.0218384,0.0191235,-0.026482,0.639464,0.0264444,0.0392546,1021,400,2.36582,8.73031
-196,624,2.2655,-8.86682,0.00325074,-0.0114526,0.0212879,0.0184207,-0.0266226,0.619137,0.0261491,0.0354464,1028,400,2.26555,8.86683
-189,624,2.10095,-8.9968,0.00364007,-0.0126865,0.0202126,0.0172756,-0.026322,0.593478,0.0253511,0.0335151,1035,400,2.10094,8.99678
-182,624,2.05042,-9.17279,0.00346156,-0.011864,0.0177124,0.0150977,-0.0235002,0.581244,0.0224598,0.0289014,1042,400,2.05044,9.17278
-175,624,2.00635,-9.32703,0.00337158,-0.0107026,0.0148338,0.0127529,-0.0200839,0.563921,0.0191152,0.0183041,1049,400,2.00638,9.32701
-168,624,1.97607,-9.45569,0.00277474,-0.00925534,0.0121654,0.0103309,-0.0168115,0.555805,0.0158189,0.0109136,1056,400,1.97605,9.45568
-161,624,1.95117,-9.57687,0.00201916,-0.00709247,0.00931727,0.00783479,-0.0129081,0.558008,0.0120947,0.00918236,1063,400,1.95114,9.57689
-154,624,1.94507,-9.65579,0.00141889,-0.00470538,0.00670821,0.00573082,-0.0090173,0.571285,0.00858502,0.00971722,1070,400,1.94509,9.6558
-147,624,1.9364,-9.74014,0.00122707,-0.00242655,0.00439106,0.00415616,-0.00535564,0.588274,0.00550618,0.0109566,1077,400,1.93642,9.74016
-140,624,1.91492,-9.84326,0.00130936,0.00013241,0.00254277,0.00333087,-0.0018891,0.671685,0.00305183,0.00925545,1084,400,1.9149,9.84326
-133,624,1.91772,-9.94916,0.000930563,0.0021936,0.000516617,0.00237799,0.000746172,1.22797,0.00140431,0.0101482,1091,400,1.91775,9.94915
-126,624,1.91785,-10.027,0.000715204,0.00377652,-0.000404561,0.00382908,0.000662643,-1.4416,0.00236301,0.0127753,1098,400,1.91784,10.027
-119,624,1.90674,-10.1101,0.000981764,0.00471989,-0.00034173,0.00475087,0.000950781,-1.48038,0.0029027,0.0152529,1105,400,1.90672,10.1101
-112,624,1.90735,-10.1921,0.000971783,0.00552637,-0.000201987,0.00553531,0.000962843,-1.52656,0.00341481,0.0160377,1112,400,1.90731,10.1921
-105,624,1.90942,-10.2758,0.00094259,0.0061989,-0.000262655,0.00621199,0.000929498,-1.52099,0.00386889,0.0108859,1119,400,1.9094,10.2758
-98,624,1.90247,-10.3553,0.000942331,0.00640885,-0.00034362,0.00643037,0.000920816,-1.50827,0.00401532,0.0121014,1126,400,1.90246,10.3554
-91,624,1.88489,-10.4204,0.000895947,0.00618244,-0.000361028,0.00620698,0.000871405,-1.50292,0.00388027,0.0172483,1133,400,1.88486,10.4204
-84,624,1.90308,-10.4869,0.000788376,0.00558154,-0.000321745,0.00560304,0.000766875,-1.50407,0.00350779,0.0163136,1140,400,1.90309,10.4869
-77,624,1.90283,-10.5592,0.000638293,0.00480333,-0.000276112,0.00482155,0.000620068,-1.50489,0.00302891,0.0126904,1147,400,1.90289,10.5592
-70,624,1.89783,-10.6233,0.000546539,0.00398155,-0.000244788,0.00399891,0.000529182,-1.50001,0.00250822,0.0124051,1154,400,1.89784,10.6233
-63,624,1.90552,-10.6863,0.000542745,0.00322915,-0.000202373,0.00324431,0.000527586,-1.49603,0.00201022,0.0112457,1161,400,1.90552,10.6863
-56,624,1.90271,-10.7458,0.000657716,0.00257624,-0.000129836,0.00258499,0.00064897,-1.50353,0.00155288,0.0096985,1168,400,1.90276,10.7458
-49,624,1.89795,-10.7982,0.000699321,0.00190993,1.66622e-05,0.00191016,0.000699092,1.55704,0.00111595,0.0100787,1175,400,1.89794,10.7982
-42,624,1.90356,-10.8393,0.00108844,0.00102043,0.000556383,0.00161186,0.000497014,0.75488,0.000953121,0.00959188,1182,400,1.90362,10.8393
-35,624,1.92456,-10.8724,0.0017319,0.000166357,0.000695718,0.00199639,-9.81323e-05,0.363294,0.00136481,0.0136315,1189,400,1.9245,10.8724
-28,624,1.89185,-10.9032,0.00241727,-0.000763224,0.000758162,0.00258875,-0.000934707,0.222441,0.00210766,0.0184394,1196,400,1.89188,10.9032
-21,624,1.88733,-10.938,0.00293634,-0.00149372,0.000731151,0.00305389,-0.00161127,0.159413,0.00273602,0.013442,1203,400,1.88736,10.938
-14,624,1.9259,-10.9866,0.00342822,-0.00206534,0.000551606,0.00348306,-0.00212018,0.0990914,0.00326677,0.0137498,1210,400,1.92586,10.9866
-7,624,1.92163,-11.0104,0.00402673,-0.00253807,0.000333557,0.00404363,-0.00255497,0.0506361,0.00384189,0.0171353,1217,400,1.92165,11.0104
0,624,1.94006,-11.0243,0.00467957,-0.00263622,8.59714e-06,0.00467958,-0.00263623,0.00117515,0.00427835,0.0166872,1224,400,1.94009,11.0243
7,624,1.92969,-11.045,0.00529142,-0.00250866,-0.000402381,0.00531212,-0.00252937,-0.0514049,0.00462133,0.0126324,1231,400,1.92974,11.045
14,624,1.92944,-11.0766,0.00577462,-0.0022848,-0.00080828,0.00585488,-0.00236506,-0.0989767,0.00488628,0.0109855,1238,400,1.92939,11.0766
21,624,1.94092,-11.0692,0.00633437,-0.00138682,-0.00142844,0.00659016,-0.00164262,-0.177192,0.00503117,0.0111505,1245,400,1.94094,11.0692
28,624,1.93274,-11.0673,0.00693265,4.14135e-05,-0.00227829,0.00761775,-0.000643694,-0.292109,0.0053061,0.0100929,1252,400,1.93275,11.0673
35,624,1.93811,-11.0791,0.00875142,0.0011871,-0.00297875,0.00978359,0.00015494,-0.333561,0.00647136,0.0148741,1259,400,1.93811,11.0791
42,624,1.97546,-11.0796,0.0125893,0.00401044,-0.00505448,0.0149291,0.00167062,-0.433546,0.00944526,0.0180009,1266,400,1.97546,11.0796
49,624,1.9801,-11.0688,0.0149684,0.00592374,-0.00619829,0.0181188,0.00277338,-0.470236,0.0112691,0.0185121,1273,400,1.98014,11.0688
56,624,1.99597,-11.0689,0.0164374,0.0104381,-0.00690118,0.0209627,0.00591284,-0.580387,0.0124801,0.0167054,1280,400,1.99592,11.0689
63,624,2.01758,-11.0657,0.0179124,0.0146931,-0.00775189,0.02422,0.00838549,-0.68303,0.0142022,0.0132996,1287,400,2.01754,11.0657
70,624,2.00806,-11.069,0.0200256,0.0193379,-0.00914305,0.0288312,0.0105322,-0.766603,0.0168459,0.0114103,1294,400,2.00801,11.069
77,624,2.00012,-11.0519,0.0219279,0.0264141,-0.0111038,0.0354991,0.0128428,-0.885062,0.0207548,0.011405,1301,400,2.00014,11.0519
84,624,2.00342,-11.0356,0.0227248,0.0312305,-0.0120166,0.0397247,0.0142307,-0.955477,0.0232403,0.0112009,1308,400,2.00338,11.0356
91,624,2.01379,-11.0031,0.0225658,0.0353961,-0.0127129,0.0432208,0.0147412,-1.01907,0.0253703,0.0123729,1315,400,2.01383,11.0031
98,624,2.04175,-10.9845,0.021376,0.0384955,-0.0131934,0.0456626,0.0142089,-1.07316,0.0269827,0.0121213,1322,400,2.04178,10.9845
105,624,2.04846,-10.9733,0.0196388,0.0402653,-0.0133903,0.0468536,0.0130505,-1.11355,0.0279214,0.012763,1329,400,2.04846,10.9733
112,624,2.05408,-10.9224,0.0175649,0.0406033,-0.0132388,0.0466328,0.0115354,-1.14342,0.0280457,0.012997,1336,400,2.05409,10.9224
119,624,2.0658,-10.8618,0.015225,0.0392533,-0.0127427,0.0447525,0.00972581,-1.16339,0.0271794,0.0137305,1343,400,2.06582,10.8618
126,624,2.09216,-10.7944,0.0130318,0.0367009,-0.0120248,0.041738,0.0079947,-1.17411,0.0255803,0.0171253,1350,400,2.09214,10.7944
133,624,2.08862,-10.7212,0.010873,0.0325758,-0.0109136,0.0371146,0.00633413,-1.17667,0.0229253,0.0168153,1357,400,2.08868,10.7212
140,624,2.08972,-10.6675,0.00815599,0.0277621,-0.00971115,0.0317578,0.00416026,-1.18045,0.0199304,0.0164321,1364,400,2.08972,10.6675
147,624,2.07617,-10.6364,0.00510403,0.0214655,-0.00752767,0.0244018,0.00216765,-1.19887,0.0155956,0.021008,1371,400,2.07611,10.6364
154,624,2.06128,-10.6207,0.00455521,0.016327,-0.00647503,0.0191915,0.00169069,-1.15428,0.0122697,0.0231564,1378,400,2.0613,10.6207
161,624,2.08777,-10.5654,0.00448524,0.0103484,-0.00562436,0.0137593,0.00107429,-1.02564,0.00883658,0.021295,1385,400,2.08775,10.5654
168,624,2.12427,-10.4809,0.00380107,0.00641676,-0.00450057,0.00979566,0.000422171,-0.926802,0.00639436,0.0210024,1392,400,2.12432,10.4809
175,624,2.12646,-10.4219,0.00220216,0.00324791,-0.00269798,0.00547322,-2.31462e-05,-0.881113,0.00365655,0.0166746,1399,400,2.12651,10.4219
182,624,2.11804,-10.3487,0.000958608,-0.00071678,-0.000849768,0.00131416,-0.00107233,-0.396277,0.0013802,0.0103448,1406,400,2.1181,10.3487
189,624,2.11218,-10.2556,0.000758906,-0.000563635,-0.000556698,0.000962037,-0.000766767,-0.349875,0.00100025,0.0102306,1413,400,2.11218,10.2556
196,624,2.10986,-10.1905,0.000585909,-0.000460771,-0.000281922,0.000657014,-0.000531877,-0.247062,0.000687673,0.0106608,1420,400,2.1099,10.1904
203,624,2.11609,-10.1149,0.000309718,-0.000444809,-3.00754e-05,0.000310915,-0.000446006,-0.0397758,0.000439322,0.0133786,1427,400,2.11603,10.1149
210,624,2.11096,-10.0286,-4.52924e-05,-0.000153873,0.000174741,8.3398e-05,-0.000282563,0.634781,0.000221472,0.0169914,1434,400,2.11095,10.0286
217,624,2.099,-9.93091,-0.000342981,9.83446e-05,0.000322666,0.000268585,-0.000513221,1.08531,0.000458683,0.0190241,1441,400,2.099,9.9309
224,624,2.09387,-9.83081,-0.000471924,0.000338102,0.000444087,0.000534129,-0.000667951,1.1551,0.000695453,0.0149741,1448,400,2.09384,9.83082
231,624,2.10083,-9.7377,-0.000454554,0.000589862,0.00061585,0.000875103,-0.000739795,1.13705,0.000933452,0.0119444,1455,400,2.10079,9.73769
238,624,2.104,-9.62805,-0.000419267,0.000978858,0.000862083,0.00138969,-0.000830103,1.12607,0.0012951,0.0171939,1462,400,2.10406,9.62804
245,624,2.12048,-9.54214,-0.000508232,0.00133947,0.0010315,0.00180035,-0.00096912,1.1506,0.00162279,0.0180888,1469,400,2.12053,9.54213
252,624,2.09912,-9.41159,-0.000489335,0.0018659,0.00119812,0.00236824,-0.00099168,1.17378,0.00199338,0.0135183,1476,400,2.09907,9.41158
259,624,2.07642,-9.29871,-0.000466034,0.00213462,0.00152917,0.00284158,-0.00117299,1.13775,0.00238361,0.00932078,1483,400,2.07643,9.29869
266,624,2.06665,-9.17712,-0.00073208,0.00208947,0.00215637,0.00325556,-0.00189817,1.07507,0.00300971,0.0126687,1490,400,2.06668,9.17711
273,624,2.07104,-9.06268,-0.000849194,0.00212592,0.00268127,0.00370464,-0.00242791,1.03866,0.00356611,0.0156502,1497,400,2.07105,9.06269
280,624,2.06787,-8.96347,-0.000907678,0.00200562,0.0033968,0.00424493,-0.00314699,0.987953,0.00428339,0.0137326,1504,400,2.06783,8.96348
287,624,2.06543,-8.83621,-0.00107913,0.00166973,0.0041873,0.00470241,-0.00411181,0.943977,0.00509269,0.0103673,1511,400,2.06546,8.83621
294,624,2.04358,-8.68069,-0.00127824,0.00125338,0.00505816,0.00520171,-0.00522657,0.908006,0.00602077,0.0091559,1518,400,2.04354,8.68069
301,624,2.02246,-8.54764,-0.00143165,0.000642494,0.0059712,0.00566601,-0.00645518,0.87138,0.00700311,0.0106407,1525,400,2.02241,8.54764
308,624,2.03857,-8.39233,-0.00152721,9.99079e-05,0.00699087,0.0063244,-0.0077517,0.843325,0.00814075,0.0138128,1532,400,2.03858,8.39233
315,624,2.04126,-8.25336,-0.00171485,-0.000779243,0.00776295,0.00652998,-0.00902407,0.815492,0.00901854,0.0158047,1539,400,2.04127,8.25336
322,624,2.03857,-8.12585,-0.00178832,-0.00163092,0.00850368,0.00679442,-0.0102137,0.790025,0.00988555,0.0227502,1546,400,2.03853,8.12586
329,624,2.19519,-7.97473,-0.0017965,-0.00238174,0.00923748,0.00715299,-0.0113312,0.769565,0.0107624,0.0390711,1553,400,2.19515,7.97474
336,624,2.29968,-7.73578,0,0,0,0,0,0,0,-1,1560,400,2.29968,7.73579
343,624,2.30334,-6.85135,0,0,0,0,0,0,0,-1,1567,400,2.3033,6.85134
350,624,1.99194,-7.29742,0,0,0,0,0,0,0,-1,1574,400,1.99198,7.29741
357,624,2.64075,-3.13092,0,0,0,0,0,0,0,-1,1581,400,2.64076,3.13091
364,624,3.16565,-4.9458,0,0,0,0,0,0,0,-1,1588,400,3.16564,4.94579
371,624,3.37561,-5.23529,0,0,0,0,0,0,0,-1,1595,400,3.37563,5.23529
378,624,1.50439,-5.22165,0,0,0,0,0,0,0,-1,1602,400,1.50438,5.22164
385,624,0.724731,-2.43875,0,0,0,0,0,0,0,-1,1609,400,0.724746,2.43875
392,624,4.26819,-5.14236,0,0,0,0,0,0,0,-1,1616,400,4.26818,5.14236
399,624,3.86841,-2.36917,0,0,0,0,0,0,0,-1,1623,400,3.86838,2.36916
406,624,4.35376,-2.6962,0,0,0,0,0,0,0,-1,1630,400,4.35373,2.69619
413,624,0,0,0,0,0,0,0,0,0,-1,1637,400,0,0
420,624,0,0,0,0,0,0,0,0,0,-1,1644,400,0,0
427,624,0,0,0,0,0,0,0,0,0,-1,1651,400,0,0
434,624,0,0,0,0,0,0,0,0,0,-1,1658,400,0,0
441,624,0,0,0,0,0,0,0,0,0,-1,1665,400,0,0
448,624,0,0,0,0,0,0,0,0,0,-1,1672,400,0,0
455,624,0,0,0,0,0,0,0,0,0,-1,1679,400,0,0
462,624,0,0,0,0,0,0,0,0,0,-1,1686,400,0,0
469,624,0,0,0,0,0,0,0,0,0,-1,1693,400,0,0
476,624,0,0,0,0,0,0,0,0,0,-1,1700,400,0,0
483,624,0,0,0,0,0,0,0,0,0,-1,1707,400,0,0
490,624,0,0,0,0,0,0,0,0,0,-1,1714,400,0,0
497,624,0,0,0,0,0,0,0,0,0,-1,1721,400,0,0
504,624,0,0,0,0,0,0,0,0,0,-1,1728,400,0,0
511,624,0,0,0,0,0,0,0,0,0,-1,1735,400,0,0
518,624,0,0,0,0,0,0,0,0,0,-1,1742,400,0,0
525,624,0,0,0,0,0,0,0,0,0,-1,1749,400,0,0
532,624,0,0,0,0,0,0,0,0,0,-1,1756,400,0,0
539,624,0,0,0,0,0,0,0,0,0,-1,1763,400,0,0
546,624,0,0,0,0,0,0,0,0,0,-1,1770,400,0,0
553,624,0,0,0,0,0,0,0,0,0,-1,1777,400,0,0
560,624,0,0,0,0,0,0,0,0,0,-1,1784,400,0,0
567,624,0,0,0,0,0,0,0,0,0,-1,1791,400,0,0
574,624,0,0,0,0,0,0,0,0,0,-1,1798,400,0,0
581,624,0,0,0,0,0,0,0,0,0,-1,1805,400,0,0
588,624,0,0,0,0,0,0,0,0,0,-1,1812,400,0,0
595,624,0,0,0,0,0,0,0,0,0,-1,1819,400,0,0
602,624,0,0,0,0,0,0,0,0,0,-1,1826,400,0,0
609,624,0,0,0,0,0,0,0,0,0,-1,1833,400,0,0
616,624,0,0,0,0,0,0,0,0,0,-1,1840,400,0,0
623,624,0,0,0,0,0,0,0,0,0,-1,1847,400,0,0
630,624,0,0,0,0,0,0,0,0,0,-1,1854,400,0,0
637,624,0,0,0,0,0,0,0,0,0,-1,1861,400,0,0
644,624,0,0,0,0,0,0,0,0,0,-1,1868,400,0,0
651,624,0,0,0,0,0,0,0,0,0,-1,1875,400,0,0
658,624,0,0,0,0,0,0,0,0,0,-1,1882,400,0,0
665,624,0,0,0,0,0,0,0,0,0,-1,1889,400,0,0
672,624,0,0,0,0,0,0,0,0,0,-1,1896,400,0,0
679,624,0,0,0,0,0,0,0,0,0,-1,1903,400,0,0
686,624,0,0,0,0,0,0,0,0,0,-1,1910,400,0,0
693,624,0,0,0,0,0,0,0,0,0,-1,1917,400,0,0
700,624,0,0,0,0,0,0,0,0,0,-1,1924,400,0,0
707,624,0,0,0,0,0,0,0,0,0,-1,1931,400,0,0
714,624,0,0,0,0,0,0,0,0,0,-1,1938,400,0,0
721,624,0,0,0,0,0,0,0,0,0,-1,1945,400,0,0
728,624,0,0,0,0,0,0,0,0,0,-1,1952,400,0,0
735,624,0,0,0,0,0,0,0,0,0,-1,1959,400,0,0
742,624,0,0,0,0,0,0,0,0,0,-1,1966,400,0,0
749,624,0,0,0,0,0,0,0,0,0,-1,1973,400,0,0
756,624,0,0,0,0,0,0,0,0,0,-1,1980,400,0,0
763,624,0,0,0,0,0,0,0,0,0,-1,1987,400,0,0
770,624,0,0,0,0,0,0,0,0,0,-1,1994,400,0,0
777,624,0,0,0,0,0,0,0,0,0,-1,2001,400,0,0
784,624,0,0,0,0,0,0,0,0,0,-1,2008,400,0,0
791,624,0,0,0,0,0,0,0,0,0,-1,2015,400,0,0
798,624,0,0,0,0,0,0,0,0,0,-1,2022,400,0,0
805,624,0,0,0,0,0,0,0,0,0,-1,2029,400,0,0
812,624,0,0,0,0,0,0,0,0,0,-1,2036,400,0,0
-700,617,0,0,0,0,0,0,0,0,0,-1,524,407,0,0
-693,617,0,0,0,0,0,0,0,0,0,-1,531,407,0,0
-686,617,0,0,0,0,0,0,0,0,0,-1,538,407,0,0
-679,617,0,0,0,0,0,0,0,0,0,-1,545,407,0,0
-672,617,0,0,0,0,0,0,0,0,0,-1,552,407,0,0
-665,617,0,0,0,0,0,0,0,0,0,-1,559,407,0,0
-658,617,0,0,0,0,0,0,0,0,0,-1,566,407,0,0
-651,617,0,0,0,0,0,0,0,0,0,-1,573,407,0,0
-644,617,0,0,0,0,0,0,0,0,0,-1,580,407,0,0
-637,617,0,0,0,0,0,0,0,0,0,-1,587,407,0,0
-630,617,0,0,0,0,0,0,0,0,0,-1,594,407,0,0
-623,617,0,0,0,0,0,0,0,0,0,-1,601,407,0,0
-616,617,0,0,0,0,0,0,0,0,0,-1,608,407,0,0
-609,617,0,0,0,0,0,0,0,0,0,-1,615,407,0,0
-602,617,0,0,0,0,0,0,0,0,0,-1,622,407,0,0
-595,617,0,0,0,0,0,0,0,0,0,-1,629,407,0,0
-588,617,0,0,0,0,0,0,0,0,0,-1,636,407,0,0
-581,617,0,0,0,0,0,0,0,0,0,-1,643,407,0,0
-574,617,0,0,0,0,0,0,0,0,0,-1,650,407,0,0
-567,617,0,0,0,0,0,0,0,0,0,-1,657,407,0,0
-560,617,0,0,0,0,0,0,0,0,0,-1,664,407,0,0
-553,617,0,0,0,0,0,0,0,0,0,-1,671,407,0,0
-546,617,0,0,0,0,0,0,0,0,0,-1,678,407,0,0
-539,617,0,0,0,0,0,0,0,0,0,-1,685,407,0,0
-532,617,0,0,0,0,0,0,0,0,0,-1,692,407,0,0
-525,617,0,0,0,0,0,0,0,0,0,-1,699,407,0,0
-518,617,0,0,0,0,0,0,0,0,0,-1,706,407,0,0
-511,617,0,0,0,0,0,0,0,0,0,-1,713,407,0,0
-504,617,0,0,0,0,0,0,0,0,0,-1,720,407,0,0
-497,617,0,0,0,0,0,0,0,0,0,-1,727,407,0,0
-490,617,0,0,0,0,0,0,0,0,0,-1,734,407,0,0
-483,617,0,0,0,0,0,0,0,0,0,-1,741,407,0,0
-476,617,0,0,0,0,0,0,0,0,0,-1,748,407,0,0
-469,617,0,0,0,0,0,0,0,0,0,-1,755,407,0,0
-462,617,0,0,0,0,0,0,0,0,0,-1,762,407,0,0
-455,617,0,0,0,0,0,0,0,0,0,-1,769,407,0,0
-448,617,0,0,0,0,0,0,0,0,0,-1,776,407,0,0
-441,617,0,0,0,0,0,0,0,0,0,-1,783,407,0,0
-434,617,0,0,0,0,0,0,0,0,0,-1,790,407,0,0
-427,617,0,0,0,0,0,0,0,0,0,-1,797,407,0,0
-420,617,0,0,0,0,0,0,0,0,0,-1,804,407,0,0
-413,617,0,0,0,0,0,0,0,0,0,-1,811,407,0,0
-406,617,0,0,0,0,0,0,0,0,0,-1,818,407,0,0
-399,617,0,0,0,0,0,0,0,0,0,-1,825,407,0,0
-392,617,0,0,0,0,0,0,0,0,0,-1,832,407,0,0
-385,617,0,0,0,0,0,0,0,0,0,-1,839,407,0,0
-378,617,0,0,0,0,0,0,0,0,0,-1,846,407,0,0
-371,617,0,0,0,0,0,0,0,0,0,-1,853,407,0,0
-364,617,0,0,0,0,0,0,0,0,0,-1,860,407,0,0
-357,617,0,0,0,0,0,0,0,0,0,-1,867,407,0,0
-350,617,0,0,0,0,0,0,0,0,0,-1,874,407,0,0
-343,617,0,0,0,0,0,0,0,0,0,-1,881,407,0,0
-336,617,0,0,0,0,0,0,0,0,0,-1,888,407,0,0
-329,617,0,0,0,0,0,0,0,0,0,-1,895,407,0,0
-322,617,0,0,0,0,0,0,0,0,0,-1,902,407,0,0
-315,617,0,0,0,0,0,0,0,0,0,-1,909,407,0,0
-308,617,0,0,0,0,0,0,0,0,0,-1,916,407,0,0
-301,617,6.54834,-7.83475,0,0,0,0,0,0,0,-1,923,407,6.54833,7.83475
-294,617,0.739624,-10.7959,0,0,0,0,0,0,0,-1,930,407,0.739635,10.7959
-287,617,0.250366,-10.4579,0,0,0,0,0,0,0,-1,937,407,0.250386,10.4578
-280,617,1.40863,-9.25067,0,0,0,0,0,0,0,-1,944,407,1.40864,9.25066
-273,617,1.00061,-8.57419,0,0,0,0,0,0,0,-1,951,407,1.00064,8.57419
-266,617,1.45044,-7.79102,0,0,0,0,0,0,0,-1,958,407,1.45044,7.79101
-259,617,3.2804,-5.37106,0,0,0,0,0,0,0,-1,965,407,3.28038,5.37105
-252,617,2.89386,-6.23529,0,0,0,0,0,0,0,-1,972,407,2.89384,6.23529
-245,617,2.56354,-7.01233,0,0,0,0,0,0,0,-1,979,407,2.56356,7.01232
-238,617,2.24622,-8.26004,0,0,0,0,0,0,0,-1,986,407,2.24619,8.26005
-231,617,2.09381,-8.25009,-0.00277374,0.00689364,0.00610119,0.00984385,-0.00572395,1.1204,0.00909238,0.0474197,993,407,2.09379,8.25009
-224,617,1.30457,-7.95538,-0.00188673,0.00287921,0.00924745,0.0100458,-0.00905331,0.9115,0.0110318,0.0409396,1000,407,1.30458,7.95537
-217,617,1.70172,-8.40775,-0.000556774,-0.000272232,0.0112283,0.0108147,-0.0116437,0.791733,0.0129693,0.0361426,1007,407,1.70174,8.40775
-210,617,1.91449,-8.71722,0.000248362,-0.00301748,0.0129489,0.0116669,-0.0144361,0.722677,0.0150988,0.0236803,1014,407,1.91447,8.71722
-203,617,1.93152,-8.84158,0.000788,-0.00511413,0.0137732,0.0119227,-0.0162489,0.679863,0.0163287,0.0179459,1021,407,1.9315,8.84159
-196,617,1.90149,-8.9693,0.00116537,-0.00637592,0.0136644,0.0115698,-0.0167803,0.650775,0.0164598,0.0147286,1028,407,1.90149,8.9693
-189,617,1.87695,-9.09412,0.0016074,-0.0077265,0.0131717,0.0109145,-0.0170336,0.615141,0.0162643,0.0125471,1035,407,1.87701,9.09412
-182,617,1.87744,-9.20975,0.00165032,-0.00738156,0.0116928,0.00966897,-0.0154002,0.601115,0.0145992,0.0136766,1042,407,1.87747,9.20975
-175,617,1.88123,-9.32162,0.00179949,-0.00676828,0.00988714,0.00829091,-0.0132597,0.580967,0.012552,0.0115036,1049,407,1.88122,9.32162
-168,617,1.86963,-9.466,0.00146701,-0.00604936,0.00824902,0.00677361,-0.011356,0.571651,0.010578,0.00936126,1056,407,1.86966,9.466
-161,617,1.85254,-9.59064,0.000976588,-0.00475474,0.00639804,0.00512141,-0.00889956,0.574846,0.00819239,0.0103844,1063,407,1.85251,9.59065
-154,617,1.84021,-9.66846,0.000634499,-0.00323426,0.00461948,0.00370825,-0.00630801,0.587118,0.00584746,0.0109139,1070,407,1.84025,9.66844
-147,617,1.82922,-9.74591,0.000597135,-0.00183157,0.00302021,0.00263798,-0.00387241,0.594251,0.00378123,0.0145419,1077,407,1.82921,9.74591
-140,617,1.83667,-9.86111,0.000755188,-0.000160289,0.00170929,0.00206697,-0.00147207,0.654571,0.00205287,0.0105927,1084,407,1.83665,9.86111
-133,617,1.83472,-9.9472,0.000598075,0.0011412,0.000318967,0.00128855,0.000450727,1.13805,0.000755052,0.012825,1091,407,1.83468,9.9472
-126,617,1.83435,-10.0094,0.00052177,0.00210916,-0.000313376,0.00216879,0.000462144,-1.38278,0.00131908,0.0133225,1098,407,1.83431,10.0094
-119,617,1.82007,-10.1075,0.000758866,0.00269686,-0.000319459,0.00274816,0.000707564,-1.41157,0.0016477,0.0131408,1105,407,1.82012,10.1075
-112,617,1.82178,-10.2081,0.00081368,0.00323507,-0.000291041,0.00326956,0.00077919,-1.45284,0.00197198,0.0137329,1112,407,1.8218,10.2081
-105,617,1.82336,-10.2978,0.000832694,0.00366379,-0.00039394,0.00371758,0.000778901,-1.43508,0.00226387,0.0141907,1119,407,1.82334,10.2978
-98,617,1.83667,-10.3643,0.000850289,0.00377725,-0.000516763,0.00386581,0.000761733,-1.40108,0.00236455,0.0122003,1126,407,1.83671,10.3643
-91,617,1.8241,-10.426,0.000842825,0.00358574,-0.000596126,0.0037097,0.000718869,-1.36578,0.00227174,0.0168882,1133,407,1.8241,10.426
-84,617,1.84192,-10.492,0.000803173,0.0031341,-0.000603691,0.00328117,0.000656102,-1.33183,0.00200486,0.0167406,1140,407,1.84196,10.492
-77,617,1.854,-10.5671,0.000730519,0.00263016,-0.000557726,0.0027818,0.000578878,-1.30532,0.00169486,0.0134207,1147,407,1.85403,10.5671
-70,617,1.85803,-10.6403,0.000719139,0.00215127,-0.000492514,0.00230429,0.000566113,-1.26955,0.00138656,0.0135912,1154,407,1.85804,10.6403
-63,617,1.86707,-10.705,0.000921748,0.00183054,-0.00033513,0.00194075,0.000811531,-1.25306,0.00112549,0.01373,1161,407,1.86712,10.705
-56,617,1.85303,-10.7495,0.00119522,0.00171304,-0.000169946,0.00176383,0.00114443,-1.28037,0.00103328,0.0103809,1168,407,1.85302,10.7495
-49,617,1.8446,-10.7958,0.00128656,0.00147003,8.75804e-05,0.00150512,0.00125147,1.18967,0.00093046,0.00976782,1175,407,1.8446,10.7958
-42,617,1.85535,-10.8544,0.00212872,0.000645572,0.00106009,0.00268087,9.34193e-05,0.480191,0.00175693,0.0117755,1182,407,1.8554,10.8544
-35,617,1.88696,-10.8792,0.00330625,-0.000436928,0.00128351,0.00370407,-0.000834754,0.300562,0.00278958,0.0161301,1189,407,1.887,10.8792
-28,617,1.88257,-10.8945,0.00442328,-0.00155864,0.00136603,0.00472047,-0.00185582,0.214215,0.00391506,0.0185962,1196,407,1.88258,10.8945
-21,617,1.89319,-10.9371,0.00516538,-0.00258254,0.00117367,0.00533927,-0.00275643,0.147087,0.00475268,0.0134568,1203,407,1.89316,10.9371
-14,617,1.8894,-10.9678,0.00572917,-0.00332399,0.000778323,0.0057956,-0.00339041,0.08514,0.0053638,0.0146215,1210,407,1.88938,10.9678
-7,617,1.88843,-10.994,0.00639632,-0.00406588,0.000326654,0.00640651,-0.00407607,0.0311818,0.00610177,0.0167255,1217,407,1.88843,10.9941
0,617,1.90637,-11.0133,0.00717135,-0.00418778,-0.000186497,0.00717441,-0.00419084,-0.0164123,0.00663667,0.0134302,1224,407,1.90632,11.0133
7,617,1.91284,-11.0357,0.00788201,-0.00405837,-0.000814426,0.0079373,-0.00411366,-0.0677893,0.0070734,0.00999849,1231,407,1.91282,11.0357
14,617,1.9043,-11.0541,0.00845316,-0.003828,-0.00144315,0.00862046,-0.0039953,-0.115415,0.00744509,0.0120464,1238,407,1.90433,11.0541
21,617,1.91541,-11.0575,0.00915869,-0.00276561,-0.00227976,0.00957969,-0.0031866,-0.182609,0.00767251,0.010728,1245,407,1.91535,11.0575
28,617,1.93359,-11.0764,0.00995411,-0.000930545,-0.00338585,0.0109214,-0.00189782,-0.278268,0.00798902,0.00909497,1252,407,1.93354,11.0764
35,617,1.94238,-11.0934,0.0122721,0.000666129,-0.00420743,0.0136369,-0.000698668,-0.313669,0.00933286,0.0128197,1259,407,1.94239,11.0933
42,617,1.98035,-11.0784,0.017096,0.00424367,-0.00664397,0.0199131,0.00142657,-0.401031,0.0128263,0.0207962,1266,407,1.98039,11.0784
49,617,1.96667,-11.0678,0.0202633,0.00678245,-0.00795579,0.0239501,0.0030956,-0.433956,0.0150414,0.0203366,1273,407,1.96669,11.0678
56,617,1.97754,-11.0577,0.0222051,0.0126863,-0.00859986,0.0272747,0.00761666,-0.532663,0.0162505,0.0132234,1280,407,1.97748,11.0577
63,617,2.0105,-11.0826,0.0244637,0.0183865,-0.0092899,0.0311993,0.0116509,-0.62734,0.0182043,0.00952602,1287,407,2.01055,11.0825
70,617,1.99963,-11.1023,0.0278202,0.0247666,-0.0106745,0.0370765,0.0155103,-0.714363,0.0215011,0.0138898,1294,407,1.99958,11.1023
77,617,2.02234,-11.0692,0.0308557,0.0343495,-0.0130205,0.0457398,0.0194654,-0.852083,0.0265052,0.0120105,1301,407,2.02234,11.0692
84,617,2.03528,-11.0342,0.0326422,0.0412886,-0.0140099,0.0516272,0.0223036,-0.935053,0.0298987,0.0105921,1308,407,2.03533,11.0342
91,617,2.05933,-11.0077,0.0332659,0.0475673,-0.0148079,0.0568606,0.0239725,-1.01033,0.0329627,0.00992393,1315,407,2.05932,11.0077
98,617,2.08972,-10.9912,0.0323954,0.0523887,-0.0154795,0.0608189,0.0239652,-1.07211,0.0353757,0.0104795,1322,407,2.08967,10.9912
105,617,2.09131,-10.9708,0.0306309,0.0552514,-0.015947,0.0630869,0.0227954,-1.1141,0.0368872,0.0121821,1329,407,2.09133,10.9708
112,617,2.07959,-10.9316,0.0283453,0.0564248,-0.0160784,0.0637305,0.0210396,-1.14431,0.0374959,0.0146781,1336,407,2.07965,10.9316
119,617,2.09485,-10.8724,0.0254595,0.0552572,-0.0158503,0.0621117,0.018605,-1.16263,0.0368083,0.0185204,1343,407,2.09485,10.8724
126,617,2.11121,-10.7816,0.0226188,0.0522904,-0.0153303,0.0587881,0.0161211,-1.1699,0.0350758,0.0215161,1350,407,2.11119,10.7816
133,617,2.10156,-10.7172,0.0196456,0.047205,-0.0143546,0.0533234,0.0135273,-1.16788,0.0320073,0.0170785,1357,407,2.10162,10.7172
140,617,2.12268,-10.6981,0.0157079,0.040922,-0.0133057,0.0466447,0.00998523,-1.16462,0.0283602,0.0144278,1364,407,2.12265,10.6981
147,617,2.1073,-10.6641,0.0111367,0.0326189,-0.0109024,0.0371825,0.00657309,-1.17437,0.0229137,0.0187045,1371,407,2.10735,10.6641
154,617,2.09009,-10.6342,0.00971989,0.0255378,-0.00981811,0.0302363,0.00502143,-1.12446,0.0187097,0.0217369,1378,407,2.09004,10.6342
161,617,2.11292,-10.5552,0.00919022,0.0169821,-0.00901896,0.0229106,0.00326169,-0.989278,0.0143109,0.0220428,1385,407,2.11291,10.5552
168,617,2.17456,-10.5029,0.00735117,0.0109013,-0.00779845,0.0171242,0.00112834,-0.897302,0.0110592,0.0201723,1392,407,2.17458,10.5029
175,617,2.18494,-10.4352,0.00393769,0.00552724,-0.00515998,0.0099533,-0.000488362,-0.861811,0.00680416,0.0164231,1399,407,2.18497,10.4352
182,617,2.18799,-10.3657,0.00159138,-0.00139978,-0.00188582,0.00250268,-0.00231108,-0.450149,0.00277996,0.0111389,1406,407,2.18795,10.3657
189,617,2.18762,-10.2693,0.00128274,-0.00106269,-0.00153064,0.00203826,-0.00181822,-0.458517,0.00222775,0.0109431,1413,407,2.1876,10.2693
196,617,2.19128,-10.1902,0.00108329,-0.000831022,-0.00120305,0.0016635,-0.00141123,-0.44937,0.00177719,0.013931,1420,407,2.19125,10.1902
203,617,2.177,-10.1234,0.000740683,-0.000583861,-0.000741741,0.00107279,-0.000915965,-0.42097,0.0011494,0.014333,1427,407,2.17704,10.1235
210,617,2.1936,-10.0261,0.000278065,1.31843e-05,-0.000426037,0.000591772,-0.000300523,-0.6347,0.000524235,0.0138893,1434,407,2.19359,10.0261
217,617,2.18225,-9.9071,-6.7362e-05,0.000276939,-0.000201102,0.000369511,-0.000159934,-1.13939,0.000313556,0.0183025,1441,407,2.18225,9.9071
224,617,2.18762,-9.83005,-0.000179934,0.000453056,-3.4893e-05,0.000454974,-0.000181851,-1.51589,0.000378775,0.0180719,1448,407,2.18768,9.83005
231,617,2.21545,-9.75604,-0.000152747,0.000632297,0.000173829,0.000669065,-0.000189516,1.36235,0.000520838,0.0134661,1455,407,2.21545,9.75606
238,617,2.21716,-9.65244,-9.47154e-05,0.000904901,0.000422475,0.00105953,-0.000249348,1.21992,0.000802491,0.0143717,1462,407,2.21715,9.65245
245,617,2.22522,-9.55746,-0.00012073,0.00116542,0.000607344,0.00140688,-0.000362196,1.19238,0.00107911,0.0126129,1469,407,2.2252,9.55747
252,617,2.21399,-9.4231,-7.94141e-05,0.00155041,0.000773394,0.00185899,-0.000387987,1.19116,0.00138686,0.0135631,1476,407,2.21394,9.42309
259,617,2.19067,-9.30435,-6.04678e-05,0.00174733,0.00104887,0.00222805,-0.000541183,1.14105,0.00169481,0.0114987,1483,407,2.1907,9.30436
266,617,2.17578,-9.17502,-0.000253789,0.00171906,0.0015042,0.00253143,-0.00106616,1.07561,0.00213372,0.0140951,1490,407,2.17575,9.17502
273,617,2.18799,-9.06763,-0.000349488,0.00173583,0.0019069,0.00286651,-0.00148016,1.03558,0.00255175,0.0144932,1497,407,2.18801,9.06762
280,617,2.18469,-8.965,-0.000388139,0.00167873,0.00245197,0.00330616,-0.00201556,0.984837,0.00310247,0.0121538,1504,407,2.18464,8.965
287,617,2.17102,-8.83307,-0.000500023,0.00144818,0.0030321,0.00365881,-0.00271065,0.940823,0.00369096,0.0114567,1511,407,2.17105,8.83307
294,617,2.16626,-8.69241,-0.000646544,0.00116917,0.0036496,0.00402214,-0.00349952,0.907301,0.00434612,0.00969044,1518,407,2.16621,8.69242
301,617,2.15906,-8.56726,-0.000769576,0.000759467,0.0042843,0.00434693,-0.00435704,0.873692,0.00502524,0.00837023,1525,407,2.15908,8.56726
308,617,2.16516,-8.43756,-0.000818485,0.000401387,0.00498778,0.00481638,-0.00523348,0.846239,0.00580396,0.00871687,1532,407,2.16513,8.43755
315,617,2.15222,-8.28976,-0.000895871,-0.000137604,0.00551063,0.00500692,-0.00604039,0.819744,0.00638746,0.00891929,1539,407,2.15226,8.28978
322,617,2.14246,-8.13242,-0.000878761,-0.00063055,0.00599026,0.00523689,-0.0067462,0.795756,0.00693671,0.0108495,1546,407,2.14246,8.13243
329,617,2.15015,-8.00119,-0.000820435,-0.00106885,0.00647836,0.00553491,-0.00742419,0.775813,0.0075084,0.0125424,1553,407,2.15016,8.0012
336,617,2.18335,-7.85822,-0.000908736,-0.00100734,0.00681568,0.00585782,-0.0077739,0.781781,0.00789615,0.028232,1560,407,2.18335,7.85823
343,617,2.29395,-7.56201,0,0,0,0,0,0,0,-1,1567,407,2.29399,7.56202
350,617,2.15881,-7.47989,0,0,0,0,0,0,0,-1,1574,407,2.15887,7.4799
357,617,2.1748,-7.16504,0,0,0,0,0,0,0,-1,1581,407,2.1748,7.16505
364,617,2.38245,-6.70764,0,0,0,0,0,0,0,-1,1588,407,2.38239,6.70766
371,617,2.60266,-6.20667,0,0,0,0,0,0,0,-1,1595,407,2.60261,6.20668
378,617,2.7627,-7.43756,0,0,0,0,0,0,0,-1,1602,407,2.76265,7.43757
385,617,1.37012,-5.41284,0,0,0,0,0,0,0,-1,1609,407,1.37016,5.41286
392,617,3.40723,-2.54929,0,0,0,0,0,0,0,-1,1616,407,3.40725,2.54929
399,617,3.25,-2.14835,0,0,0,0,0,0,0,-1,1623,407,3.25006,2.14836
406,617,3.02429,-3.19577,0,0,0,0,0,0,0,-1,1630,407,3.02431,3.19577
413,617,2.92786,-3.80649,0,0,0,0,0,0,0,-1,1637,407,2.92788,3.8065
420,617,3.42737,-4.47391,0,0,0,0,0,0,0,-1,1644,407,3.42737,4.47391
427,617,0,0,0,0,0,0,0,0,0,-1,1651,407,0,0
434,617,0,0,0,0,0,0,0,0,0,-1,1658,407,0,0
441,617,0,0,0,0,0,0,0,0,0,-1,1665,407,0,0
448,617,0,0,0,0,0,0,0,0,0,-1,1672,407,0,0
455,617,0,0,0,0,0,0,0,0,0,-1,1679,407,0,0
462,617,0,0,0,0,0,0,0,0,0,-1,1686,407,0,0
469,617,0,0,0,0,0,0,0,0,0,-1,1693,407,0,0
476,617,0,0,0,0,0,0,0,0,0,-1,1700,407,0,0
483,617,0,0,0,0,0,0,0,0,0,-1,1707,407,0,0
490,617,0,0,0,0,0,0,0,0,0,-1,1714,407,0,0
497,617,0,0,0,0,0,0,0,0,0,-1,1721,407,0,0
504,617,0,0,0,0,0,0,0,0,0,-1,1728,407,0,0
511,617,0,0,0,0,0,0,0,0,0,-1,1735,407,0,0
518,617,0,0,0,0,0,0,0,0,0,-1,1742,407,0,0
525,617,0,0,0,0,0,0,0,0,0,-1,1749,407,0,0
532,617,0,0,0,0,0,0,0,0,0,-1,1756,407,0,0
539,617,0,0,0,0,0,0,0,0,0,-1,1763,407,0,0
546,617,0,0,0,0,0,0,0,0,0,-1,1770,407,0,0
553,617,0,0,0,0,0,0,0,0,0,-1,1777,407,0,0
560,617,0,0,0,0,0,0,0,0,0,-1,1784,407,0,0
567,617,0,0,0,0,0,0,0,0,0,-1,1791,407,0,0
574,617,0,0,0,0,0,0,0,0,0,-1,1798,407,0,0
581,617,0,0,0,0,0,0,0,0,0,-1,1805,407,0,0
588,617,0,0,0,0,0,0,0,0,0,-1,1812,407,0,0
595,617,0,0,0,0,0,0,0,0,0,-1,1819,407,0,0
602,617,0,0,0,0,0,0,0,0,0,-1,1826,407,0,0
609,617,0,0,0,0,0,0,0,0,0,-1,1833,407,0,0
616,617,0,0,0,0,0,0,0,0,0,-1,1840,407,0,0
623,617,0,0,0,0,0,0,0,0,0,-1,1847,407,0,0
630,617,0,0,0,0,0,0,0,0,0,-1,1854,407,0,0
637,617,0,0,0,0,0,0,0,0,0,-1,1861,407,0,0
644,617,0,0,0,0,0,0,0,0,0,-1,1868,407,0,0
651,617,0,0,0,0,0,0,0,0,0,-1,1875,407,0,0
658,617,0,0,0,0,0,0,0,0,0,-1,1882,407,0,0
665,617,0,0,0,0,0,0,0,0,0,-1,1889,407,0,0
672,617,0,0,0,0,0,0,0,0,0,-1,1896,407,0,0
679,617,0,0,0,0,0,0,0,0,0,-1,1903,407,0,0
686,617,0,0,0,0,0,0,0,0,0,-1,1910,407,0,0
693,617,0,0,0,0,0,0,0,0,0,-1,1917,407,0,0
700,617,0,0,0,0,0,0,0,0,0,-1,1924,407,0,0
707,617,0,0,0,0,0,0,0,0,0,-1,1931,407,0,0
714,617,0,0,0,0,0,0,0,0,0,-1,1938,407,0,0
721,617,0,0,0,0,0,0,0,0,0,-1,1945,407,0,0
728,617,0,0,0,0,0,0,0,0,0,-1,1952,407,0,0
735,617,0,0,0,0,0,0,0,0,0,-1,1959,407,0,0
742,617,0,0,0,0,0,0,0,0,0,-1,1966,407,0,0
749,617,0,0,0,0,0,0,0,0,0,-1,1973,407,0,0
756,617,0,0,0,0,0,0,0,0,0,-1,1980,407,0,0
763,617,0,0,0,0,0,0,0,0,0,-1,1987,407,0,0
770,617,0,0,0,0,0,0,0,0,0,-1,1994,407,0,0
777,617,0,0,0,0,0,0,0,0,0,-1,2001,407,0,0
784,617,0,0,0,0,0,0,0,0,0,-1,2008,407,0,0
791,617,0,0,0,0,0,0,0,0,0,-1,2015,407,0,0
798,617,0,0,0,0,0,0,0,0,0,-1,2022,407,0,0
805,617,0,0,0,0,0,0,0,0,0,-1,2029,407,0,0
812,617,0,0,0,0,0,0,0,0,0,-1,2036,407,0,0
-700,610,0,0,0,0,0,0,0,0,0,-1,524,414,0,0
-693,610,0,0,0,0,0,0,0,0,0,-1,531,414,0,0
-686,610,0,0,0,0,0,0,0,0,0,-1,538,414,0,0
-679,610,0,0,0,0,0,0,0,0,0,-1,545,414,0,0
-672,610,0,0,0,0,0,0,0,0,0,-1,552,414,0,0
-665,610,0,0,0,0,0,0,0,0,0,-1,559,414,0,0
-658,610,0,0,0,0,0,0,0,0,0,-1,566,414,0,0
-651,610,0,0,0,0,0,0,0,0,0,-1,573,414,0,0
-644,610,0,0,0,0,0,0,0,0,0,-1,580,414,0,0
-637,610,0,0,0,0,0,0,0,0,0,-1,587,414,0,0
-630,610,0,0,0,0,0,0,0,0,0,-1,594,414,0,0
-623,610,0,0,0,0,0,0,0,0,0,-1,601,414,0,0
-616,610,0,0,0,0,0,0,0,0,0,-1,608,414,0,0
-609,610,0,0,0,0,0,0,0,0,0,-1,615,414,0,0
-602,610,0,0,0,0,0,0,0,0,0,-1,622,414,0,0
-595,610,0,0,0,0,0,0,0,0,0,-1,629,414,0,0
-588,610,0,0,0,0,0,0,0,0,0,-1,636,414,0,0
-581,610,0,0,0,0,0,0,0,0,0,-1,643,414,0,0
-574,610,0,0,0,0,0,0,0,0,0,-1,650,414,0,0
-567,610,0,0,0,0,0,0,0,0,0,-1,657,414,0,0
-560,610,0,0,0,0,0,0,0,0,0,-1,664,414,0,0
-553,610,0,0,0,0,0,0,0,0,0,-1,671,414,0,0
-546,610,0,0,0,0,0,0,0,0,0,-1,678,414,0,0
-539,610,0,0,0,0,0,0,0,0,0,-1,685,414,0,0
-532,610,0,0,0,0,0,0,0,0,0,-1,692,414,0,0
-525,610,0,0,0,0,0,0,0,0,0,-1,699,414,0,0
-518,610,0,0,0,0,0,0,0,0,0,-1,706,414,0,0
-511,610,0,0,0,0,0,0,0,0,0,-1,713,414,0,0
-504,610,0,0,0,0,0,0,0,0,0,-1,720,414,0,0
-497,610,0,0,0,0,0,0,0,0,0,-1,727,414,0,0
-490,610,0,0,0,0,0,0,0,0,0,-1,734,414,0,0
-483,610,0,0,0,0,0,0,0,0,0,-1,741,414,0,0
-476,610,0,0,0,0,0,0,0,0,0,-1,748,414,0,0
-469,610,0,0,0,0,0,0,0,0,0,-1,755,414,0,0
-462,610,0,0,0,0,0,0,0,0,0,-1,762,414,0,0
-455,610,0,0,0,0,0,0,0,0,0,-1,769,414,0,0
-448,610,0,0,0,0,0,0,0,0,0,-1,776,414,0,0
-441,610,0,0,0,0,0,0,0,0,0,-1,783,414,0,0
-434,610,0,0,0,0,0,0,0,0,0,-1,790,414,0,0
-427,610,0,0,0,0,0,0,0,0,0,-1,797,414,0,0
-420,610,0,0,0,0,0,0,0,0,0,-1,804,414,0,0
-413,610,0,0,0,0,0,0,0,0,0,-1,811,414,0,0
-406,610,0,0,0,0,0,0,0,0,0,-1,818,414,0,0
-399,610,0,0,0,0,0,0,0,0,0,-1,825,414,0,0
-392,610,0,0,0,0,0,0,0,0,0,-1,832,414,0,0
-385,610,0,0,0,0,0,0,0,0,0,-1,839,414,0,0
-378,610,0,0,0,0,0,0,0,0,0,-1,846,414,0,0
-371,610,0,0,0,0,0,0,0,0,0,-1,853,414,0,0
-364,610,0,0,0,0,0,0,0,0,0,-1,860,414,0,0
-357,610,0,0,0,0,0,0,0,0,0,-1,867,414,0,0
-350,610,0,0,0,0,0,0,0,0,0,-1,874,414,0,0
-343,610,0,0,0,0,0,0,0,0,0,-1,881,414,0,0
-336,610,0,0,0,0,0,0,0,0,0,-1,888,414,0,0
-329,610,0,0,0,0,0,0,0,0,0,-1,895,414,0,0
-322,610,0,0,0,0,0,0,0,0,0,-1,902,414,0,0
-315,610,5.08582,-8.12537,-0.0143188,0.0665389,0.105283,0.138889,-0.0866686,0.968718,0.131384,0.0493794,909,414,5.0858,8.12536
-308,610,5.10077,-7.96866,-0.0179054,0.0539904,0.0920669,0.116879,-0.0807935,0.971523,0.114758,0.043246,916,414,5.10077,7.96864
-301,610,4.89014,-7.88992,0,0,0,0,0,0,0,-1,923,414,4.89014,7.88993
-294,610,2.96265,-8.92026,0,0,0,0,0,0,0,-1,930,414,2.96264,8.92027
-287,610,1.91785,-9.43823,0,0,0,0,0,0,0,-1,937,414,1.91787,9.43822
-280,610,0.260254,-8.42371,0,0,0,0,0,0,0,-1,944,414,0.260239,8.4237
-273,610,0.990784,-7.65683,0,0,0,0,0,0,0,-1,951,414,0.990778,7.65682
-266,610,1.28931,-7.56485,0,0,0,0,0,0,0,-1,958,414,1.28931,7.56484
-259,610,1.70959,-7.7601,0,0,0,0,0,0,0,-1,965,414,1.70959,7.76009
-252,610,1.91083,-7.95078,0,0,0,0,0,0,0,-1,972,414,1.91083,7.95077
-245,610,2.33643,-7.39706,-0.00878434,0.010148,-0.00444071,0.0111379,-0.00977418,-1.35148,0.0120821,0.0448443,979,414,2.33642,7.39708
-238,610,2.10687,-8.15811,-0.00497568,0.00919232,-0.000730984,0.00922993,-0.00501329,-1.51938,0.00834258,0.0410811,986,414,2.10688,8.1581
-231,610,1.85522,-8.24481,-0.00240635,0.00710955,0.00248208,0.00771805,-0.00301486,1.33038,0.00639189,0.0349888,993,414,1.8552,8.2448
-224,610,1.80829,-8.4137,-0.00194111,0.0042192,0.0046962,0.00675524,-0.00447715,1.07565,0.00652933,0.0254772,1000,414,1.80829,8.4137
-217,610,1.82013,-8.5853,-0.00110985,0.00184097,0.00622025,0.0067584,-0.00602727,0.901844,0.00738583,0.0152764,1007,414,1.82014,8.5853
-210,610,1.81097,-8.72015,-0.000603498,-0.000286752,0.00762705,0.00718357,-0.00807382,0.795779,0.00881386,0.0099141,1014,414,1.811,8.72015
-203,610,1.79816,-8.85498,-0.000212117,-0.00197798,0.00840708,0.00735827,-0.00954836,0.733079,0.00978831,0.011845,1021,414,1.79819,8.85498
-196,610,1.79443,-8.98325,0.000114328,-0.00308768,0.00853227,0.0071945,-0.0101678,0.692656,0.010073,0.0130423,1028,414,1.79446,8.98324
-189,610,1.77942,-9.10629,0.000516579,-0.0043052,0.00838744,0.00683274,-0.0106214,0.645451,0.010156,0.0111213,1035,414,1.77945,9.10631
-182,610,1.78125,-9.21939,0.000636385,-0.00416967,0.00756988,0.0061755,-0.00970879,0.631706,0.00924612,0.0115896,1042,414,1.78129,9.21939
-175,610,1.77612,-9.32379,0.000861138,-0.00383667,0.00648846,0.00541277,-0.00838831,0.61173,0.00802955,0.011372,1049,414,1.77608,9.3238
-168,610,1.75317,-9.45462,0.000651258,-0.00353813,0.00552672,0.00446693,-0.0073538,0.604257,0.00689221,0.0110246,1056,414,1.75315,9.45463
-161,610,1.75195,-9.59067,0.000298985,-0.00281991,0.00436047,0.00337048,-0.0058914,0.613669,0.00541297,0.0109343,1063,414,1.75189,9.59068
-154,610,1.74597,-9.67389,0.00010426,-0.00192268,0.00316332,0.00241249,-0.00423091,0.630374,0.00388317,0.0128098,1070,414,1.74592,9.6739
-147,610,1.73926,-9.75204,0.000118011,-0.00120752,0.00209605,0.00165358,-0.00274309,0.632273,0.00256426,0.0140536,1077,414,1.73931,9.75204
-140,610,1.75769,-9.85709,0.000265565,-0.000280374,0.00117971,0.00120347,-0.00121828,0.671705,0.00139821,0.0109632,1084,414,1.75768,9.8571
-133,610,1.75708,-9.95105,0.000242851,0.000356829,0.000236371,0.000542984,5.66956e-05,0.90369,0.000344649,0.0121873,1091,414,1.75703,9.95105
-126,610,1.74475,-10.0241,0.000255781,0.000800412,-0.000205781,0.00086942,0.000186773,-1.24724,0.000528474,0.0118028,1098,414,1.74475,10.0241
-119,610,1.74084,-10.0971,0.00047474,0.0010577,-0.00028189,0.00117171,0.00036073,-1.18646,0.000692938,0.0103791,1105,414,1.74083,10.0971
-112,610,1.7522,-10.1938,0.000608405,0.0013705,-0.000359129,0.00151307,0.00046584,-1.1929,0.000894807,0.0174518,1112,414,1.75221,10.1937
-105,610,1.75842,-10.2913,0.000720185,0.00164979,-0.000506793,0.00187265,0.000497325,-1.1565,0.00112009,0.017055,1119,414,1.75848,10.2913
-98,610,1.77637,-10.3799,0.000807802,0.00178937,-0.000657723,0.00211924,0.000477935,-1.10593,0.00128353,0.0123642,1126,414,1.77636,10.3799
-91,610,1.77795,-10.4303,0.00089238,0.00173227,-0.000781819,0.00219979,0.000424858,-1.03185,0.00134742,0.0134913,1133,414,1.778,10.4303
-84,610,1.78772,-10.4911,0.000975406,0.00153541,-0.000839627,0.00214049,0.000370323,-0.94634,0.00132097,0.0145636,1140,414,1.78772,10.4911
-77,610,1.77795,-10.5778,0.000991703,0.00145028,-0.000749087,0.00200438,0.000437597,-0.933915,0.00121691,0.0117596,1147,414,1.77793,10.5778
-70,610,1.7981,-10.6516,0.00106043,0.00139112,-0.000605122,0.00185308,0.000598474,-0.918764,0.001092,0.0131517,1154,414,1.79814,10.6516
-63,610,1.81152,-10.6973,0.00140746,0.00143937,-0.000337904,0.00176169,0.00108513,-0.808991,0.00102619,0.0116819,1161,414,1.8115,10.6973
-56,610,1.81018,-10.7429,0.00180534,0.00167714,-0.000110713,0.00186917,0.00161331,-0.522985,0.00117019,0.0099127,1168,414,1.81016,10.7429
-49,610,1.81079,-10.7931,0.00191077,0.00159458,0.00024014,0.00204018,0.00146517,0.49429,0.0012147,0.0108082,1175,414,1.81077,10.7931
-42,610,1.80554,-10.8452,0.00338201,0.000324309,0.0018133,0.00422496,-0.000518642,0.435152,0.00300448,0.0146983,1182,414,1.80549,10.8452
-35,610,1.82178,-10.8856,0.00534878,-0.00134039,0.00194337,0.00587239,-0.001864,0.263184,0.00466217,0.0145788,1189,414,1.8218,10.8856
-28,610,1.84814,-10.908,0.00712379,-0.00287464,0.00191502,0.00747803,-0.00322888,0.182911,0.00634182,0.0124014,1196,414,1.84812,10.908
-21,610,1.85486,-10.9361,0.00825864,-0.00435097,0.00142735,0.00841819,-0.00451052,0.111319,0.00757719,0.0105313,1203,414,1.85485,10.9361
-14,610,1.8512,-10.9579,0.00895288,-0.0053593,0.000666903,0.00898389,-0.00539031,0.0464627,0.00838495,0.0117671,1210,414,1.85121,10.958
-7,610,1.86719,-10.9847,0.00962729,-0.00651055,-0.000141957,0.00962854,-0.0065118,-0.00879562,0.00937637,0.0133432,1217,414,1.86719,10.9847
0,610,1.90027,-11.0181,0.0104478,-0.00662829,-0.000906687,0.0104958,-0.0066763,-0.0528986,0.00999573,0.00926711,1224,414,1.90032,11.0181
7,610,1.90247,-11.0206,0.0112152,-0.00643649,-0.00177487,0.0113919,-0.00661318,-0.0992258,0.0105166,0.00980063,1231,414,1.90246,11.0206
14,610,1.91467,-11.0327,0.0118324,-0.00609915,-0.00263868,0.0122126,-0.00647938,-0.143112,0.0109597,0.0118738,1238,414,1.9147,11.0328
21,610,1.95081,-11.0406,0.0126648,-0.0047961,-0.0036385,0.0133926,-0.00552395,-0.197435,0.011232,0.0103667,1245,414,1.95077,11.0406
28,610,1.97729,-11.0703,0.0136214,-0.0024965,-0.00488564,0.0149867,-0.00386178,-0.272496,0.0114967,0.010533,1252,414,1.97731,11.0703
35,610,1.9906,-11.0785,0.0163148,-0.000409712,-0.00573567,0.0180928,-0.00218774,-0.3006,0.0128533,0.0142284,1259,414,1.99063,11.0785
42,610,1.9906,-11.0676,0.021908,0.0038267,-0.00831514,0.0251504,0.000584226,-0.371811,0.0165757,0.0150314,1266,414,1.99065,11.0676
49,610,1.98303,-11.0732,0.0257486,0.00696688,-0.00965472,0.0298263,0.00288918,-0.399626,0.0189945,0.0155453,1273,414,1.98305,11.0732
56,610,2.01953,-11.0653,0.0281414,0.0141461,-0.0100907,0.0334234,0.0088641,-0.482232,0.0199936,0.0129189,1280,414,2.01955,11.0653
63,610,2.03918,-11.0583,0.0308618,0.0211547,-0.0105908,0.0376582,0.0143583,-0.570539,0.0219453,0.0151129,1287,414,2.03922,11.0583
70,610,2.10535,-11.0703,0.0350599,0.0291787,-0.0119247,0.0444012,0.0198374,-0.664511,0.0256834,0.0207845,1294,414,2.10538,11.0703
77,610,2.12842,-11.067,0.0389332,0.0409483,-0.0145954,0.0545709,0.0253106,-0.819859,0.031534,0.0257725,1301,414,2.12845,11.067
84,610,2.08167,-11.0097,0.0413904,0.0496775,-0.0156507,0.0617239,0.029344,-0.914805,0.0356507,0.0290913,1308,414,2.08162,11.0097
91,610,2.06567,-10.9833,0.0426078,0.0579914,-0.016592,0.0685878,0.0320114,-1.00244,0.0396284,0.023757,1315,414,2.06572,10.9833
98,610,2.1123,-10.9951,0.0419736,0.0644535,-0.017545,0.0740501,0.032377,-1.07028,0.042865,0.0214196,1322,414,2.11229,10.9951
105,610,2.125,-10.96,0.0401786,0.0684057,-0.0184034,0.0774844,0.0311,-1.11251,0.0450248,0.01728,1329,414,2.12502,10.96
112,610,2.11804,-10.9301,0.0376394,0.0703568,-0.0189361,0.0790218,0.0289745,-1.14165,0.0461608,0.0117604,1336,414,2.11808,10.9301
119,610,2.11572,-10.8945,0.0343147,0.0694619,-0.0191232,0.07786,0.0259167,-1.157,0.045782,0.0183336,1343,414,2.11578,10.8945
126,610,2.11963,-10.8055,0.0309441,0.0661101,-0.018937,0.0743684,0.0226858,-1.15957,0.0440111,0.0267274,1350,414,2.11961,10.8055
133,610,2.14612,-10.7273,0.0273744,0.0600831,-0.0181962,0.0681944,0.0192631,-1.15147,0.0405951,0.0192066,1357,414,2.14611,10.7273
140,610,2.18359,-10.7295,0.0226394,0.0524458,-0.0173344,0.0604027,0.0146825,-1.14046,0.0363758,0.0146822,1364,414,2.18362,10.7295
147,610,2.18347,-10.6847,0.0171658,0.0424604,-0.0148816,0.049343,0.0102833,-1.1376,0.0300597,0.0165685,1371,414,2.1835,10.6847
154,610,2.14539,-10.6073,0.0151353,0.0336976,-0.0137274,0.0409869,0.00784596,-1.08265,0.0251211,0.0219161,1378,414,2.14533,10.6073
161,610,2.16248,-10.5323,0.0141887,0.0231187,-0.0129249,0.0323281,0.00497929,-0.95171,0.020099,0.026678,1385,414,2.16251,10.5323
168,610,2.22644,-10.4738,0.0114964,0.0153953,-0.0115766,0.0251854,0.0017062,-0.868813,0.0162514,0.025824,1392,414,2.22648,10.4738
175,610,2.24402,-10.3998,0.00640397,0.00797726,-0.00823035,0.0154585,-0.00107725,-0.833043,0.0106829,0.0204858,1399,414,2.244,10.3998
182,610,2.26123,-10.3531,0.00267128,-0.00162518,-0.00344408,0.00458219,-0.00353609,-0.50655,0.00470004,0.0150408,1406,414,2.26122,10.353
189,610,2.2865,-10.2622,0.00204985,-0.00101041,-0.00289297,0.00379242,-0.00275298,-0.542143,0.00379484,0.0134432,1413,414,2.2865,10.2622
196,610,2.28113,-10.1718,0.00176742,-0.000799406,-0.00241603,0.00321976,-0.00225174,-0.541247,0.00317541,0.0136275,1420,414,2.28117,10.1718
203,610,2.25513,-10.1125,0.0012962,-0.000399873,-0.00161631,0.00227344,-0.00137711,-0.543803,0.00212872,0.0148823,1427,414,2.25518,10.1125
210,610,2.26563,-10.0276,0.000598612,0.000351761,-0.00110055,0.00158264,-0.000632267,-0.729557,0.00131743,0.0107366,1434,414,2.26566,10.0277
217,610,2.27466,-9.92307,0.000116847,0.000381743,-0.000763304,0.00102401,-0.000525415,-0.871303,0.000909866,0.0160804,1441,414,2.27462,9.92306
224,610,2.28259,-9.84668,2.24793e-05,0.000508441,-0.000551798,0.000868386,-0.000337466,-0.992796,0.000718341,0.0196758,1448,414,2.28257,9.84667
231,610,2.29224,-9.76733,6.24578e-05,0.000619555,-0.000306722,0.000755334,-7.33217e-05,-1.15405,0.000529691,0.0149757,1455,414,2.29224,9.76733
238,610,2.29895,-9.65192,0.00015223,0.000784923,-5.75798e-05,0.00079012,0.000147032,-1.48077,0.000485219,0.0110067,1462,414,2.29892,9.65191
245,610,2.30286,-9.53772,0.00021636,0.000933069,0.000129438,0.000955729,0.0001937,1.39749,0.000583405,0.0123496,1469,414,2.30283,9.53772
252,610,2.31763,-9.42151,0.000297728,0.00119496,0.000279839,0.00127509,0.000217605,1.29194,0.000787608,0.0135177,1476,414,2.31761,9.42152
259,610,2.30908,-9.30533,0.00031954,0.00133286,0.00049847,0.00153696,0.000115443,1.18217,0.000988408,0.0118493,1483,414,2.30908,9.30533
266,610,2.29736,-9.18652,0.000187812,0.00131961,0.000807575,0.00173982,-0.000232402,1.09101,0.0012446,0.0125758,1490,414,2.29741,9.18652
273,610,2.30347,-9.07889,0.000109445,0.00130325,0.00110902,0.0019658,-0.000553106,1.03228,0.00152863,0.00989949,1497,414,2.30349,9.0789
280,610,2.29077,-8.95023,7.54585e-05,0.00130299,0.0015235,0.00233171,-0.000953257,0.976886,0.00195144,0.00955103,1504,414,2.29072,8.95024
287,610,2.29102,-8.81271,-6.62999e-06,0.00116024,0.00195319,0.00261527,-0.00146167,0.930533,0.00238503,0.0125809,1511,414,2.29096,8.81271
294,610,2.31116,-8.67728,-0.000140153,0.000984214,0.00239905,0.00288607,-0.00204201,0.900489,0.00285911,0.0107659,1518,414,2.31112,8.67728
301,610,2.31079,-8.57339,-0.000275455,0.00073383,0.00286571,0.00313899,-0.00268062,0.872553,0.00336343,0.0104635,1525,414,2.31085,8.57339
308,610,2.32263,-8.44843,-0.000327035,0.000505485,0.00338528,0.0035,-0.00332155,0.846572,0.00393888,0.0121742,1532,414,2.32261,8.44844
315,610,2.30078,-8.31201,-0.000367055,0.000196801,0.003777,0.00370238,-0.00387263,0.822651,0.0043738,0.0125551,1539,414,2.30083,8.312
322,610,2.26843,-8.16241,-0.000336002,-5.46345e-05,0.00413236,0.00393944,-0.00433007,0.802414,0.00477618,0.0125525,1546,414,2.26841,8.16241
329,610,2.25586,-8.00513,-0.00027268,-0.000286188,0.00450655,0.00422713,-0.00478599,0.784649,0.00520706,0.0114528,1553,414,2.25591,8.00514
336,610,2.2749,-7.82169,-0.000339574,-0.000143636,0.00479059,0.00454999,-0.0050332,0.795622,0.0055352,0.0122374,1560,414,2.27485,7.82167
343,610,2.29236,-7.65054,-0.000388032,-0.000127084,0.00487595,0.00462014,-0.00513525,0.798774,0.00563489,0.0243727,1567,414,2.29237,7.65053
350,610,2.25317,-7.58167,-0.000205815,0.00024629,0.005099,0.00512424,-0.00508377,0.80755,0.00589361,0.0422729,1574,414,2.25321,7.58168
357,610,2.39355,-7.10391,0,0,0,0,0,0,0,-1,1581,414,2.3935,7.10391
364,610,2.32886,-7.08145,0,0,0,0,0,0,0,-1,1588,414,2.32885,7.08146
371,610,2.26416,-7.05899,0,0,0,0,0,0,0,-1,1595,414,2.26421,7.059
378,610,2.59131,-7.19379,0,0,0,0,0,0,0,-1,1602,414,2.59133,7.19378
385,610,2.29053,-6.48016,0,0,0,0,0,0,0,-1,1609,414,2.29056,6.48016
392,610,2.54626,0.0437622,0,0,0,0,0,0,0,-1,1616,414,2.54632,-0.0437683
399,610,3.03833,-2.82547,0,0,0,0,0,0,0,-1,1623,414,3.03827,2.82546
406,610,2.91687,-2.9166,0,0,0,0,0,0,0,-1,1630,414,2.91688,2.91659
413,610,3.01929,-3.20306,0,0,0,0,0,0,0,-1,1637,414,3.01929,3.20306
420,610,4.78149,-3.64041,0,0,0,0,0,0,0,-1,1644,414,4.78152,3.64042
427,610,5.20764,-4.67545,0,0,0,0,0,0,0,-1,1651,414,5.20759,4.67545
434,610,5.39233,-5.45441,0,0,0,0,0,0,0,-1,1658,414,5.39228,5.4544
441,610,0,0,0,0,0,0,0,0,0,-1,1665,414,0,0
448,610,0,0,0,0,0,0,0,0,0,-1,1672,414,0,0
455,610,0,0,0,0,0,0,0,0,0,-1,1679,414,0,0
462,610,0,0,0,0,0,0,0,0,0,-1,1686,414,0,0
469,610,0,0,0,0,0,0,0,0,0,-1,1693,414,0,0
476,610,0,0,0,0,0,0,0,0,0,-1,1700,414,0,0
483,610,0,0,0,0,0,0,0,0,0,-1,1707,414,0,0
490,610,0,0,0,0,0,0,0,0,0,-1,1714,414,0,0
497,610,0,0,0,0,0,0,0,0,0,-1,1721,414,0,0
504,610,0,0,0,0,0,0,0,0,0,-1,1728,414,0,0
511,610,0,0,0,0,0,0,0,0,0,-1,1735,414,0,0
518,610,0,0,0,0,0,0,0,0,0,-1,1742,414,0,0
525,610,0,0,0,0,0,0,0,0,0,-1,1749,414,0,0
532,610,0,0,0,0,0,0,0,0,0,-1,1756,414,0,0
539,610,0,0,0,0,0,0,0,0,0,-1,1763,414,0,0
546,610,0,0,0,0,0,0,0,0,0,-1,1770,414,0,0
553,610,0,0,0,0,0,0,0,0,0,-1,1777,414,0,0
560,610,0,0,0,0,0,0,0,0,0,-1,1784,414,0,0
567,610,0,0,0,0,0,0,0,0,0,-1,1791,414,0,0
574,610,0,0,0,0,0,0,0,0,0,-1,1798,414,0,0
581,610,0,0,0,0,0,0,0,0,0,-1,1805,414,0,0
588,610,0,0,0,0,0,0,0,0,0,-1,1812,414,0,0
595,610,0,0,0,0,0,0,0,0,0,-1,1819,414,0,0
602,610,0,0,0,0,0,0,0,0,0,-1,1826,414,0,0
609,610,0,0,0,0,0,0,0,0,0,-1,1833,414,0,0
616,610,0,0,0,0,0,0,0,0,0,-1,1840,414,0,0
623,610,0,0,0,0,0,0,0,0,0,-1,1847,414,0,0
630,610,0,0,0,0,0,0,0,0,0,-1,1854,414,0,0
637,610,0,0,0,0,0,0,0,0,0,-1,1861,414,0,0
644,610,0,0,0,0,0,0,0,0,0,-1,1868,414,0,0
651,610,0,0,0,0,0,0,0,0,0,-1,1875,414,0,0
658,610,0,0,0,0,0,0,0,0,0,-1,1882,414,0,0
665,610,0,0,0,0,0,0,0,0,0,-1,1889,414,0,0
672,610,0,0,0,0,0,0,0,0,0,-1,1896,414,0,0
679,610,0,0,0,0,0,0,0,0,0,-1,1903,414,0,0
686,610,0,0,0,0,0,0,0,0,0,-1,1910,414,0,0
693,610,0,0,0,0,0,0,0,0,0,-1,1917,414,0,0
700,610,0,0,0,0,0,0,0,0,0,-1,1924,414,0,0
707,610,0,0,0,0,0,0,0,0,0,-1,1931,414,0,0
714,610,0,0,0,0,0,0,0,0,0,-1,1938,414,0,0
721,610,0,0,0,0,0,0,0,0,0,-1,1945,414,0,0
728,610,0,0,0,0,0,0,0,0,0,-1,1952,414,0,0
735,610,0,0,0,0,0,0,0,0,0,-1,1959,414,0,0
742,610,0,0,0,0,0,0,0,0,0,-1,1966,414,0,0
749,610,0,0,0,0,0,0,0,0,0,-1,1973,414,0,0
756,610,0,0,0,0,0,0,0,0,0,-1,1980,414,0,0
763,610,0,0,0,0,0,0,0,0,0,-1,1987,414,0,0
770,610,0,0,0,0,0,0,0,0,0,-1,1994,414,0,0
777,610,0,0,0,0,0,0,0,0,0,-1,2001,414,0,0
784,610,0,0,0,0,0,0,0,0,0,-1,2008,414,0,0
791,610,0,0,0,0,0,0,0,0,0,-1,2015,414,0,0
798,610,0,0,0,0,0,0,0,0,0,-1,2022,414,0,0
805,610,0,0,0,0,0,0,0,0,0,-1,2029,414,0,0
812,610,0,0,0,0,0,0,0,0,0,-1,2036,414,0,0
-700,603,0,0,0,0,0,0,0,0,0,-1,524,421,0,0
-693,603,0,0,0,0,0,0,0,0,0,-1,531,421,0,0
-686,603,0,0,0,0,0,0,0,0,0,-1,538,421,0,0
-679,603,0,0,0,0,0,0,0,0,0,-1,545,421,0,0
-672,603,0,0,0,0,0,0,0,0,0,-1,552,421,0,0
-665,603,0,0,0,0,0,0,0,0,0,-1,559,421,0,0
-658,603,0,0,0,0,0,0,0,0,0,-1,566,421,0,0
-651,603,0,0,0,0,0,0,0,0,0,-1,573,421,0,0
-644,603,0,0,0,0,0,0,0,0,0,-1,580,421,0,0
-637,603,0,0,0,0,0,0,0,0,0,-1,587,421,0,0
-630,603,0,0,0,0,0,0,0,0,0,-1,594,421,0,0
-623,603,0,0,0,0,0,0,0,0,0,-1,601,421,0,0
-616,603,0,0,0,0,0,0,0,0,0,-1,608,421,0,0
-609,603,0,0,0,0,0,0,0,0,0,-1,615,421,0,0
-602,603,0,0,0,0,0,0,0,0,0,-1,622,421,0,0
-595,603,0,0,0,0,0,0,0,0,0,-1,629,421,0,0
-588,603,0,0,0,0,0,0,0,0,0,-1,636,421,0,0
-581,603,0,0,0,0,0,0,0,0,0,-1,643,421,0,0
-574,603,0,0,0,0,0,0,0,0,0,-1,650,421,0,0
-567,603,0,0,0,0,0,0,0,0,0,-1,657,421,0,0
-560,603,0,0,0,0,0,0,0,0,0,-1,664,421,0,0
-553,603,0,0,0,0,0,0,0,0,0,-1,671,421,0,0
-546,603,0,0,0,0,0,0,0,0,0,-1,678,421,0,0
-539,603,0,0,0,0,0,0,0,0,0,-1,685,421,0,0
-532,603,0,0,0,0,0,0,0,0,0,-1,692,421,0,0
-525,603,0,0,0,0,0,0,0,0,0,-1,699,421,0,0
-518,603,0,0,0,0,0,0,0,0,0,-1,706,421,0,0
-511,603,0,0,0,0,0,0,0,0,0,-1,713,421,0,0
-504,603,0,0,0,0,0,0,0,0,0,-1,720,421,0,0
-497,603,0,0,0,0,0,0,0,0,0,-1,727,421,0,0
-490,603,0,0,0,0,0,0,0,0,0,-1,734,421,0,0
-483,603,0,0,0,0,0,0,0,0,0,-1,741,421,0,0
-476,603,0,0,0,0,0,0,0,0,0,-1,748,421,0,0
-469,603,0,0,0,0,0,0,0,0,0,-1,755,421,0,0
-462,603,0,0,0,0,0,0,0,0,0,-1,762,421,0,0
-455,603,0,0,0,0,0,0,0,0,0,-1,769,421,0,0
-448,603,0,0,0,0,0,0,0,0,0,-1,776,421,0,0
-441,603,0,0,0,0,0,0,0,0,0,-1,783,421,0,0
-434,603,0,0,0,0,0,0,0,0,0,-1,790,421,0,0
-427,603,0,0,0,0,0,0,0,0,0,-1,797,421,0,0
-420,603,0,0,0,0,0,0,0,0,0,-1,804,421,0,0
-413,603,0,0,0,0,0,0,0,0,0,-1,811,421,0,0
-406,603,0,0,0,0,0,0,0,0,0,-1,818,421,0,0
-399,603,0,0,0,0,0,0,0,0,0,-1,825,421,0,0
-392,603,0,0,0,0,0,0,0,0,0,-1,832,421,0,0
-385,603,0,0,0,0,0,0,0,0,0,-1,839,421,0,0
-378,603,0,0,0,0,0,0,0,0,0,-1,846,421,0,0
-371,603,0,0,0,0,0,0,0,0,0,-1,853,421,0,0
-364,603,0,0,0,0,0,0,0,0,0,-1,860,421,0,0
-357,603,0,0,0,0,0,0,0,0,0,-1,867,421,0,0
-350,603,0,0,0,0,0,0,0,0,0,-1,874,421,0,0
-343,603,0,0,0,0,0,0,0,0,0,-1,881,421,0,0
-336,603,0,0,0,0,0,0,0,0,0,-1,888,421,0,0
-329,603,-0.281372,-9.72894,0,0,0,0,0,0,0,-1,895,421,-0.281389,9.72894
-322,603,3.12054,-8.90198,0,0,0,0,0,0,0,-1,902,421,3.12057,8.90198
-315,603,3.60059,-8.64035,-0.0144675,0.0473014,0.0806698,0.102797,-0.0699628,0.968216,0.100341,0.0467934,909,421,3.60056,8.64036
-308,603,3.69904,-8.42126,-0.0174489,0.0368375,0.0696735,0.0844683,-0.0650797,0.971143,0.0865831,0.0432671,916,421,3.69901,8.42128
-301,603,3.51367,-8.64993,0,0,0,0,0,0,0,-1,923,421,3.51368,8.64993
-294,603,2.67664,-8.46191,0,0,0,0,0,0,0,-1,930,421,2.67662,8.46191
-287,603,1.62622,-8.36215,0,0,0,0,0,0,0,-1,937,421,1.62623,8.36215
-280,603,0.57959,-8.59814,0,0,0,0,0,0,0,-1,944,421,0.579607,8.59814
-273,603,1.04431,-7.55811,0,0,0,0,0,0,0,-1,951,421,1.0443,7.5581
-266,603,1.30487,-7.51923,-0.0130963,0.0115744,0.0075004,0.0136757,-0.0151976,1.29764,0.0166777,0.049845,958,421,1.30484,7.51923
-259,603,1.53888,-7.73813,-0.0108333,0.00824804,-0.000243435,0.00825114,-0.0108364,-1.55804,0.0110539,0.0457234,965,421,1.53886,7.73811
-252,603,1.72589,-7.93445,-0.00816704,0.00747432,-0.00452199,0.00868754,-0.00938026,-1.30867,0.010434,0.039486,972,421,1.72586,7.93444
-245,603,1.73303,-8.11499,-0.00636717,0.00738121,-0.00341699,0.00818362,-0.00716959,-1.34014,0.00887062,0.0309218,979,421,1.73301,8.11499
-238,603,1.74896,-8.1691,-0.00361396,0.00750626,-0.00146989,0.00769727,-0.00380497,-1.44157,0.00676638,0.0186846,986,421,1.74896,8.1691
-231,603,1.71899,-8.32101,-0.00182741,0.00649525,0.000530236,0.0065289,-0.00186105,1.50743,0.0050877,0.0131295,993,421,1.719,8.32101
-224,603,1.68237,-8.48328,-0.00161227,0.00448403,0.00205638,0.00511283,-0.00224106,1.27405,0.00435235,0.0135208,1000,421,1.68238,8.48326
-217,603,1.6748,-8.60056,-0.00112308,0.00273878,0.00319383,0.00454001,-0.00292431,1.05729,0.00434305,0.0119247,1007,421,1.6748,8.60055
-210,603,1.67902,-8.72842,-0.000848365,0.00109992,0.00430122,0.00453593,-0.00428437,0.89676,0.00509309,0.00968892,1014,421,1.679,8.72842
-203,603,1.68323,-8.86591,-0.000588807,-0.000243368,0.00495759,0.00454451,-0.00537669,0.802811,0.00573472,0.0151992,1021,421,1.68324,8.86592
-196,603,1.69617,-9.00656,-0.000340815,-0.00111138,0.00515705,0.00444532,-0.00589752,0.748112,0.00599103,0.017112,1028,421,1.69611,9.00657
-189,603,1.68713,-9.10275,-3.06698e-05,-0.00205993,0.00518217,0.00423526,-0.00632587,0.688725,0.00613716,0.0143145,1035,421,1.68709,9.10275
-182,603,1.66089,-9.2439,0.000100536,-0.00198568,0.00474307,0.00391385,-0.00579899,0.67716,0.00564281,0.0105962,1042,421,1.66087,9.24391
-175,603,1.65771,-9.37109,0.000324694,-0.00177504,0.00411757,0.00352413,-0.00497448,0.660572,0.00493044,0.0112765,1049,421,1.65772,9.37109
-168,603,1.64551,-9.44992,0.000163732,-0.00166232,0.00358941,0.00295442,-0.00445301,0.660856,0.00430576,0.014127,1056,421,1.64546,9.44993
-161,603,1.64075,-9.56186,-0.000105069,-0.00126797,0.00290785,0.00227889,-0.00365194,0.68672,0.00345462,0.013301,1063,421,1.6407,9.56185
-154,603,1.64209,-9.69937,-0.000192941,-0.000743683,0.00215595,0.00170516,-0.00264178,0.721879,0.00252905,0.0120973,1070,421,1.64204,9.69938
-147,603,1.65063,-9.78116,-0.000113926,-0.000407742,0.00149039,0.00123678,-0.00175844,0.736272,0.00173801,0.0131617,1077,421,1.65068,9.78115
-140,603,1.66833,-9.84604,4.5917e-05,2.33684e-05,0.000897285,0.000931999,-0.000862713,0.779116,0.00103644,0.0111977,1084,421,1.66829,9.84603
-133,603,1.65674,-9.94131,0.000123802,0.000255661,0.000328406,0.000524691,-0.000145227,0.884459,0.000406935,0.0110856,1091,421,1.65674,9.94131
-126,603,1.64246,-10.0133,0.000230733,0.000353737,2.94287e-05,0.000360415,0.000224055,1.34765,0.000210129,0.0106275,1098,421,1.64242,10.0133
-119,603,1.66174,-10.0929,0.000463266,0.000406771,-0.000113031,0.000551526,0.000318512,-0.662951,0.000319697,0.0107659,1105,421,1.66175,10.0929
-112,603,1.65833,-10.1839,0.000694532,0.000619108,-0.000292991,0.000952228,0.000361412,-0.721393,0.000555062,0.0150333,1112,421,1.65835,10.1839
-105,603,1.672,-10.2977,0.000913108,0.000859998,-0.000496196,0.00138346,0.000389647,-0.758665,0.000823737,0.0148018,1119,421,1.67199,10.2977
-98,603,1.68823,-10.354,0.00107372,0.00109344,-0.000693326,0.00177698,0.000390185,-0.792509,0.00107838,0.0127986,1126,421,1.68829,10.354
-91,603,1.68347,-10.4109,0.00123494,0.00119902,-0.000883488,0.00210065,0.000333308,-0.775236,0.00130361,0.00953064,1133,421,1.68347,10.4109
-84,603,1.69934,-10.5022,0.00139581,0.00122659,-0.00100758,0.00232233,0.000300078,-0.74351,0.00145852,0.00960636,1140,421,1.69934,10.5022
-77,603,1.70654,-10.5914,0.00143884,0.0014728,-0.000875669,0.00233165,0.000579984,-0.795093,0.00140169,0.0107471,1147,421,1.70659,10.5914
-70,603,1.75537,-10.7336,0.00152275,0.00168333,-0.000646985,0.00225499,0.00095109,-0.847133,0.00130722,0.0222179,1154,421,1.75534,10.7336
-63,603,1.80444,-10.8856,0.00193922,0.00185864,-0.000268484,0.00217042,0.00162744,-0.710925,0.00130419,0.0415444,1161,421,1.80445,10.8856
-56,603,1.74841,-10.7116,0,0,0,0,0,0,0,-1,1168,421,1.74847,10.7116
-49,603,1.78296,-10.7689,0,0,0,0,0,0,0,-1,1175,421,1.78298,10.7689
-42,603,1.7677,-10.793,0,0,0,0,0,0,0,-1,1182,421,1.76771,10.793
-35,603,1.69812,-10.846,0.00826326,-0.00270315,0.00282915,0.00895012,-0.00339,0.238169,0.00736169,0.0381242,1189,421,1.69817,10.846
-28,603,1.68506,-10.8792,0.0110014,-0.00484,0.00253465,0.011397,-0.00523567,0.154853,0.00982007,0.0235885,1196,421,1.68508,10.8792
-21,603,1.73523,-10.9093,0.0124843,-0.00683099,0.00160634,0.012617,-0.00696367,0.0824098,0.0114609,0.019889,1203,421,1.73525,10.9093
-14,603,1.80969,-10.9255,0.0129664,-0.00812492,0.000342688,0.0129719,-0.00813049,0.0162421,0.0122899,0.0200486,1210,421,1.80973,10.9255
-7,603,1.86426,-10.9718,0.0132507,-0.00984736,-0.000958018,0.0132904,-0.00988702,-0.0413813,0.0134295,0.0222386,1217,421,1.86432,10.9718
0,603,1.87976,-11.0083,0.0138144,-0.00992404,-0.00203129,0.013987,-0.0100966,-0.0847485,0.013965,0.0239228,1224,421,1.87981,11.0083
7,603,1.8512,-10.9772,0.0144322,-0.0096096,-0.00313285,0.0148337,-0.0100111,-0.127473,0.014434,0.0286218,1231,421,1.8512,10.9772
14,603,1.92297,-10.9948,0.0149054,-0.00906849,-0.00420944,0.015623,-0.00978612,-0.168858,0.0147984,0.0260731,1238,421,1.92299,10.9948
21,603,1.99609,-11.0132,0.0157169,-0.00751069,-0.00530806,0.0168725,-0.00866622,-0.214349,0.0149964,0.0193215,1245,421,1.99614,11.0132
28,603,2.04968,-11.0137,0.0167514,-0.00474149,-0.00662624,0.01863,-0.00662015,-0.276268,0.0151179,0.0227706,1252,421,2.04972,11.0137
35,603,2.0426,-10.9731,0.019661,-0.00204663,-0.00742042,0.0219551,-0.00434074,-0.29984,0.0162778,0.0303859,1259,421,2.0426,10.9731
42,603,1.98657,-11.0287,0,0,0,0,0,0,0,-1,1266,421,1.98652,11.0287
49,603,2.12244,-11.0272,0,0,0,0,0,0,0,-1,1273,421,2.12246,11.0272
56,603,2.36145,-11.0668,0,0,0,0,0,0,0,-1,1280,421,2.36143,11.0668
63,603,2.64087,-11.0753,0,0,0,0,0,0,0,-1,1287,421,2.64084,11.0753
70,603,2.38391,-10.823,0.0416682,0.0328163,-0.0127931,0.0507793,0.0237051,-0.618861,0.029339,0.0386538,1294,421,2.38388,10.823
77,603,2.45581,-10.906,0.0464761,0.0465371,-0.0157044,0.062211,0.0308022,-0.78637,0.0359181,0.0410031,1301,421,2.45579,10.906
84,603,2.43176,-10.9415,0.0496909,0.0567003,-0.0167706,0.0703285,0.0360627,-0.888404,0.0406086,0.0423002,1308,421,2.43174,10.9415
91,603,2.2605,-10.8872,0.0517005,0.0668096,-0.0178243,0.0786142,0.0398959,-0.98584,0.0453896,0.0438485,1315,421,2.26051,10.8872
98,603,2.1106,-10.9981,0.0516254,0.0748571,-0.019059,0.0855611,0.0409214,-1.05907,0.0494142,0.0451348,1322,421,2.11064,10.9981
105,603,2.18958,-10.8386,0.0500233,0.079742,-0.0203114,0.0900491,0.0397162,-1.1012,0.0521102,0.0378676,1329,421,2.18962,10.8386
112,603,2.17627,-10.8243,0.0474171,0.0823613,-0.0212879,0.0924291,0.0373493,-1.12903,0.0536903,0.0309989,1336,421,2.17624,10.8243
119,603,2.17053,-10.8479,0.0438322,0.0817059,-0.0219772,0.0917794,0.0337587,-1.14101,0.0536025,0.0345965,1343,421,2.17056,10.8479
126,603,2.2749,-10.8031,0.0399984,0.0778488,-0.0221923,0.0880898,0.0297575,-1.13845,0.0517429,0.0414013,1350,421,2.27494,10.8031
133,603,2.34741,-10.7294,0.0358027,0.0706537,-0.0216964,0.081056,0.0254005,-1.12373,0.047872,0.0347162,1357,421,2.34736,10.7294
140,603,2.30786,-10.6708,0.0304206,0.0616857,-0.0210517,0.0722744,0.0198319,-1.10476,0.0431203,0.021592,1364,421,2.30786,10.6708
147,603,2.26965,-10.6459,0.0243403,0.0503097,-0.0187233,0.0601102,0.0145398,-1.08858,0.0362132,0.0170834,1371,421,2.26963,10.6459
154,603,2.17712,-10.5803,0.0215486,0.0401235,-0.0174682,0.0506197,0.0110523,-1.02973,0.0307321,0.0254299,1378,421,2.17716,10.5803
161,603,2.23523,-10.5193,0.0198691,0.0282518,-0.0165572,0.0411399,0.00698092,-0.909366,0.0254212,0.0298199,1385,421,2.23522,10.5194
168,603,2.31348,-10.4539,0.0162464,0.0196628,-0.0151872,0.0332375,0.00267165,-0.841402,0.0213237,0.027629,1392,421,2.31342,10.4539
175,603,2.4093,-10.3814,0.00945765,0.0109266,-0.0113816,0.0215974,-0.00121311,-0.81762,0.0148192,0.029092,1399,421,2.40934,10.3814
182,603,2.45471,-10.3483,0.00412431,-0.000702798,-0.00525666,0.00749502,-0.00407351,-0.570183,0.00677577,0.0345066,1406,421,2.45474,10.3483
189,603,2.45691,-10.2446,0.00290632,0.000236973,-0.00447488,0.00624133,-0.00309803,-0.640469,0.00549294,0.0297257,1413,421,2.45689,10.2446
196,603,2.37915,-10.1348,0.00251736,0.00016067,-0.00382293,0.00533942,-0.00266139,-0.635903,0.00470474,0.0220967,1420,421,2.37912,10.1348
203,603,2.3429,-10.0816,0.00185897,0.000516149,-0.00262619,0.00389821,-0.0015231,-0.660249,0.00322857,0.0121126,1427,421,2.34294,10.0816
210,603,2.35767,-10.0238,0.000850733,0.00103289,-0.00183768,0.00278175,-0.000898121,-0.810159,0.00221541,0.0102156,1434,421,2.35766,10.0238
217,603,2.37354,-9.92368,0.000187685,0.000442308,-0.00138059,0.00170144,-0.00107145,-0.831376,0.00161465,0.0127928,1441,421,2.37352,9.92369
224,603,2.37708,-9.84033,0.000118805,0.000531449,-0.00112152,0.00146547,-0.000815217,-0.876364,0.00133448,0.0167015,1448,421,2.37707,9.84032
231,603,2.37659,-9.75226,0.000182452,0.000574202,-0.000837938,0.00123885,-0.000482201,-0.900215,0.00102516,0.0146074,1455,421,2.37663,9.75227
238,603,2.37073,-9.63654,0.000321077,0.000638818,-0.000587158,0.00108822,-0.000128324,-0.917522,0.000771818,0.0109278,1462,421,2.37068,9.63655
245,603,2.38745,-9.53577,0.000488473,0.000681153,-0.000396144,0.000992504,0.000177123,-0.90468,0.000611243,0.0114708,1469,421,2.38742,9.53577
252,603,2.41626,-9.4303,0.000622842,0.000836358,-0.000256795,0.0010077,0.000451497,-0.982395,0.000582843,0.0099498,1476,421,2.41631,9.43031
259,603,2.41455,-9.31506,0.000661744,0.000924864,-8.3223e-05,0.000948977,0.000637631,-1.28878,0.000558583,0.00988474,1483,421,2.4145,9.31507
266,603,2.40417,-9.20306,0.000588105,0.000921055,0.000112014,0.000955231,0.000553928,1.27466,0.000553845,0.0107863,1490,421,2.40417,9.20308
273,603,2.41797,-9.08395,0.00050495,0.000839436,0.000322008,0.00103504,0.000309344,1.02491,0.000613486,0.00996151,1497,421,2.41796,9.08395
280,603,2.43494,-8.94638,0.000454283,0.000882005,0.000631977,0.00133533,9.61532e-07,0.94855,0.000889897,0.0118734,1504,421,2.43494,8.94638
287,603,2.43994,-8.80731,0.000379113,0.000802058,0.000947462,0.00156136,-0.00038019,0.895198,0.00118809,0.0114255,1511,421,2.43998,8.80732
294,603,2.4314,-8.6796,0.000231666,0.000693858,0.00126553,0.00174922,-0.000823692,0.875707,0.00151717,0.00964274,1518,421,2.43136,8.67959
301,603,2.422,-8.56769,6.04559e-05,0.000567504,0.00162284,0.00195651,-0.00132855,0.862883,0.00190814,0.0118432,1525,421,2.42195,8.56769
308,603,2.43042,-8.43893,-1.43688e-05,0.000422223,0.00202916,0.00224479,-0.00183694,0.838982,0.00236051,0.0170384,1532,421,2.43048,8.43894
315,603,2.41772,-8.31961,-4.37717e-05,0.000263697,0.00235374,0.00246871,-0.00224879,0.818009,0.00272464,0.015187,1539,421,2.41776,8.3196
322,603,2.4021,-8.17007,-1.7267e-05,0.000169646,0.00266107,0.0027389,-0.00258652,0.802951,0.00307505,0.0151045,1546,421,2.40216,8.17007
329,603,2.38635,-8,4.88994e-05,7.22407e-05,0.00299634,0.00305693,-0.00293579,0.787346,0.00346014,0.0110269,1553,421,2.38638,8
336,603,2.3927,-7.8356,1.40772e-05,0.000263173,0.00328025,0.00342124,-0.00314399,0.804374,0.00379157,0.00976513,1560,421,2.39273,7.83561
343,603,2.41296,-7.69644,-2.24056e-05,0.000341915,0.00340793,0.00357255,-0.00325304,0.812099,0.0039422,0.0117778,1567,421,2.41293,7.69643
350,603,2.39905,-7.5383,8.48717e-05,0.00067809,0.0036244,0.004018,-0.00325504,0.826226,0.00420678,0.0181808,1574,421,2.39901,7.53829
357,603,2.40247,-7.33313,-3.13248e-05,0.00114277,0.00384926,0.00444949,-0.00333805,0.861069,0.00451137,0.0209923,1581,421,2.40246,7.33313
364,603,2.38477,-7.17175,-0.000262573,0.00190674,0.00394742,0.00491581,-0.00327164,0.919477,0.00475869,0.0194426,1588,421,2.38477,7.17176
371,603,2.43933,-7.03891,-0.000230033,0.00290717,0.0038392,0.00548585,-0.00280871,0.979337,0.00487131,0.0217078,1595,421,2.43939,7.0389
378,603,2.50903,-6.93985,-0.000848661,0.00319242,0.00408085,0.00572555,-0.00338179,1.01527,0.00531585,0.0310382,1602,421,2.50909,6.93983
385,603,2.43579,-6.60245,-0.00166909,0.00359712,0.00411887,0.0058526,-0.00392457,1.0698,0.00568132,0.0458789,1609,421,2.43579,6.60244
392,603,2.43823,-6.41202,0,0,0,0,0,0,0,-1,1616,421,2.43826,6.412
399,603,2.38013,-5.37076,0,0,0,0,0,0,0,-1,1623,421,2.38016,5.37075
406,603,3.01917,-2.37219,0,0,0,0,0,0,0,-1,1630,421,3.01915,2.37219
413,603,2.38928,-2.41275,0,0,0,0,0,0,0,-1,1637,421,2.38926,2.41274
420,603,2.74866,-2.30066,0,0,0,0,0,0,0,-1,1644,421,2.74867,2.30065
427,603,7.11548,-3.35352,0,0,0,0,0,0,0,-1,1651,421,7.11549,3.35351
434,603,7.32153,-4.50525,0,0,0,0,0,0,0,-1,1658,421,7.32149,4.50525
441,603,3.18213,-0.250946,0,0,0,0,0,0,0,-1,1665,421,3.18212,0.250944
448,603,2.95667,-0.066925,0,0,0,0,0,0,0,-1,1672,421,2.95662,0.0669226
455,603,0,0,0,0,0,0,0,0,0,-1,1679,421,0,0
462,603,0,0,0,0,0,0,0,0,0,-1,1686,421,0,0
469,603,0,0,0,0,0,0,0,0,0,-1,1693,421,0,0
476,603,0,0,0,0,0,0,0,0,0,-1,1700,421,0,0
483,603,0,0,0,0,0,0,0,0,0,-1,1707,421,0,0
490,603,0,0,0,0,0,0,0,0,0,-1,1714,421,0,0
497,603,0,0,0,0,0,0,0,0,0,-1,1721,421,0,0
504,603,0,0,0,0,0,0,0,0,0,-1,1728,421,0,0
511,603,0,0,0,0,0,0,0,0,0,-1,1735,421,0,0
518,603,0,0,0,0,0,0,0,0,0,-1,1742,421,0,0
525,603,0,0,0,0,0,0,0,0,0,-1,1749,421,0,0
532,603,0,0,0,0,0,0,0,0,0,-1,1756,421,0,0
539,603,0,0,0,0,0,0,0,0,0,-1,1763,421,0,0
546,603,0,0,0,0,0,0,0,0,0,-1,1770,421,0,0
553,603,0,0,0,0,0,0,0,0,0,-1,1777,421,0,0
560,603,0,0,0,0,0,0,0,0,0,-1,1784,421,0,0
567,603,0,0,0,0,0,0,0,0,0,-1,1791,421,0,0
574,603,0,0,0,0,0,0,0,0,0,-1,1798,421,0,0
581,603,0,0,0,0,0,0,0,0,0,-1,1805,421,0,0
588,603,0,0,0,0,0,0,0,0,0,-1,1812,421,0,0
595,603,0,0,0,0,0,0,0,0,0,-1,1819,421,0,0
602,603,0,0,0,0,0,0,0,0,0,-1,1826,421,0,0
609,603,0,0,0,0,0,0,0,0,0,-1,1833,421,0,0
616,603,0,0,0,0,0,0,0,0,0,-1,1840,421,0,0
623,603,0,0,0,0,0,0,0,0,0,-1,1847,421,0,0
630,603,0,0,0,0,0,0,0,0,0,-1,1854,421,0,0
637,603,0,0,0,0,0,0,0,0,0,-1,1861,421,0,0
644,603,0,0,0,0,0,0,0,0,0,-1,1868,421,0,0
651,603,0,0,0,0,0,0,0,0,0,-1,1875,421,0,0
658,603,0,0,0,0,0,0,0,0,0,-1,1882,421,0,0
665,603,0,0,0,0,0,0,0,0,0,-1,1889,421,0,0
672,603,0,0,0,0,0,0,0,0,0,-1,1896,421,0,0
679,603,0,0,0,0,0,0,0,0,0,-1,1903,421,0,0
686,603,0,0,0,0,0,0,0,0,0,-1,1910,421,0,0
693,603,0,0,0,0,0,0,0,0,0,-1,1917,421,0,0
700,603,0,0,0,0,0,0,0,0,0,-1,1924,421,0,0
707,603,0,0,0,0,0,0,0,0,0,-1,1931,421,0,0
714,603,0,0,0,0,0,0,0,0,0,-1,1938,421,0,0
721,603,0,0,0,0,0,0,0,0,0,-1,1945,421,0,0
728,603,0,0,0,0,0,0,0,0,0,-1,1952,421,0,0
735,603,0,0,0,0,0,0,0,0,0,-1,1959,421,0,0
742,603,0,0,0,0,0,0,0,0,0,-1,1966,421,0,0
749,603,0,0,0,0,0,0,0,0,0,-1,1973,421,0,0
756,603,0,0,0,0,0,0,0,0,0,-1,1980,421,0,0
763,603,0,0,0,0,0,0,0,0,0,-1,1987,421,0,0
770,603,0,0,0,0,0,0,0,0,0,-1,1994,421,0,0
777,603,0,0,0,0,0,0,0,0,0,-1,2001,421,0,0
784,603,0,0,0,0,0,0,0,0,0,-1,2008,421,0,0
791,603,0,0,0,0,0,0,0,0,0,-1,2015,421,0,0
798,603,0,0,0,0,0,0,0,0,0,-1,2022,421,0,0
805,603,0,0,0,0,0,0,0,0,0,-1,2029,421,0,0
812,603,0,0,0,0,0,0,0,0,0,-1,2036,421,0,0
-700,596,0,0,0,0,0,0,0,0,0,-1,524,428,0,0
-693,596,0,0,0,0,0,0,0,0,0,-1,531,428,0,0
-686,596,0,0,0,0,0,0,0,0,0,-1,538,428,0,0
-679,596,0,0,0,0,0,0,0,0,0,-1,545,428,0,0
-672,596,0,0,0,0,0,0,0,0,0,-1,552,428,0,0
-665,596,0,0,0,0,0,0,0,0,0,-1,559,428,0,0
-658,596,0,0,0,0,0,0,0,0,0,-1,566,428,0,0
-651,596,0,0,0,0,0,0,0,0,0,-1,573,428,0,0
-644,596,0,0,0,0,0,0,0,0,0,-1,580,428,0,0
-637,596,0,0,0,0,0,0,0,0,0,-1,587,428,0,0
-630,596,0,0,0,0,0,0,0,0,0,-1,594,428,0,0
-623,596,0,0,0,0,0,0,0,0,0,-1,601,428,0,0
-616,596,0,0,0,0,0,0,0,0,0,-1,608,428,0,0
-609,596,0,0,0,0,0,0,0,0,0,-1,615,428,0,0
-602,596,0,0,0,0,0,0,0,0,0,-1,622,428,0,0
-595,596,0,0,0,0,0,0,0,0,0,-1,629,428,0,0
-588,596,0,0,0,0,0,0,0,0,0,-1,636,428,0,0
-581,596,0,0,0,0,0,0,0,0,0,-1,643,428,0,0
-574,596,0,0,0,0,0,0,0,0,0,-1,650,428,0,0
-567,596,0,0,0,0,0,0,0,0,0,-1,657,428,0,0
-560,596,0,0,0,0,0,0,0,0,0,-1,664,428,0,0
-553,596,0,0,0,0,0,0,0,0,0,-1,671,428,0,0
-546,596,0,0,0,0,0,0,0,0,0,-1,678,428,0,0
-539,596,0,0,0,0,0,0,0,0,0,-1,685,428,0,0
-532,596,0,0,0,0,0,0,0,0,0,-1,692,428,0,0
-525,596,0,0,0,0,0,0,0,0,0,-1,699,428,0,0
-518,596,0,0,0,0,0,0,0,0,0,-1,706,428,0,0
-511,596,0,0,0,0,0,0,0,0,0,-1,713,428,0,0
-504,596,0,0,0,0,0,0,0,0,0,-1,720,428,0,0
-497,596,0,0,0,0,0,0,0,0,0,-1,727,428,0,0
-490,596,0,0,0,0,0,0,0,0,0,-1,734,428,0,0
-483,596,0,0,0,0,0,0,0,0,0,-1,741,428,0,0
-476,596,0,0,0,0,0,0,0,0,0,-1,748,428,0,0
-469,596,0,0,0,0,0,0,0,0,0,-1,755,428,0,0
-462,596,0,0,0,0,0,0,0,0,0,-1,762,428,0,0
-455,596,0,0,0,0,0,0,0,0,0,-1,769,428,0,0
-448,596,0,0,0,0,0,0,0,0,0,-1,776,428,0,0
-441,596,0,0,0,0,0,0,0,0,0,-1,783,428,0,0
-434,596,0,0,0,0,0,0,0,0,0,-1,790,428,0,0
-427,596,0,0,0,0,0,0,0,0,0,-1,797,428,0,0
-420,596,0,0,0,0,0,0,0,0,0,-1,804,428,0,0
-413,596,0,0,0,0,0,0,0,0,0,-1,811,428,0,0
-406,596,0,0,0,0,0,0,0,0,0,-1,818,428,0,0
-399,596,0,0,0,0,0,0,0,0,0,-1,825,428,0,0
-392,596,0,0,0,0,0,0,0,0,0,-1,832,428,0,0
-385,596,0,0,0,0,0,0,0,0,0,-1,839,428,0,0
-378,596,0,0,0,0,0,0,0,0,0,-1,846,428,0,0
-371,596,0,0,0,0,0,0,0,0,0,-1,853,428,0,0
-364,596,0,0,0,0,0,0,0,0,0,-1,860,428,0,0
-357,596,0,0,0,0,0,0,0,0,0,-1,867,428,0,0
-350,596,0,0,0,0,0,0,0,0,0,-1,874,428,0,0
-343,596,0,0,0,0,0,0,0,0,0,-1,881,428,0,0
-336,596,1.89813,-9.66019,0,0,0,0,0,0,0,-1,888,428,1.89813,9.6602
-329,596,1.54865,-9.16202,0,0,0,0,0,0,0,-1,895,428,1.54866,9.16203
-322,596,1.10236,-8.44147,0,0,0,0,0,0,0,-1,902,428,1.10236,8.44147
-315,596,3.0094,-6.54013,0,0,0,0,0,0,0,-1,909,428,3.00938,6.54014
-308,596,1.93823,-8.72583,0,0,0,0,0,0,0,-1,916,428,1.93824,8.72582
-301,596,3.19141,-7.82736,0,0,0,0,0,0,0,-1,923,428,3.19142,7.82736
-294,596,2.51715,-7.95404,-0.0160034,0.0135535,0.0325069,0.0344836,-0.0369335,0.998745,0.0412408,0.0463911,930,428,2.51717,7.95404
-287,596,1.72388,-7.97232,-0.0147428,0.00984697,0.0240393,0.024553,-0.0294489,1.02178,0.0312207,0.0465204,937,428,1.7239,7.97231
-280,596,1.0462,-8.01758,0,0,0,0,0,0,0,-1,944,428,1.04619,8.01758
-273,596,0.693542,-8.21182,0,0,0,0,0,0,0,-1,951,428,0.693555,8.21182
-266,596,1.36115,-7.52136,-0.0104238,0.00652672,0.00527896,0.00803631,-0.0119334,1.29226,0.0116025,0.0398809,958,428,1.36116,7.52137
-259,596,1.48981,-7.77881,-0.00826832,0.00470826,-0.000219106,0.00471196,-0.00827201,-1.55392,0.00758965,0.0313584,965,428,1.48979,7.77882
-252,596,1.57001,-7.94427,-0.00596463,0.00461275,-0.00318006,0.00549521,-0.00684708,-1.30011,0.00714006,0.0159078,972,428,1.56999,7.94427
-245,596,1.59015,-8.06732,-0.00453022,0.00511962,-0.00262137,0.00578574,-0.00519633,-1.32195,0.00634354,0.0116669,979,428,1.59013,8.06732
-238,596,1.57428,-8.19189,-0.0025724,0.00582705,-0.0018489,0.00621602,-0.00296137,-1.36344,0.0054085,0.0111233,986,428,1.5743,8.19189
-231,596,1.56519,-8.32867,-0.00138519,0.00557125,-0.000762698,0.00565389,-0.00146783,-1.46287,0.00434204,0.0131626,993,428,1.56517,8.32867
-224,596,1.5575,-8.4805,-0.00131954,0.00419151,0.000243717,0.00420227,-0.0013303,1.52669,0.0033346,0.0134666,1000,428,1.5575,8.4805
-217,596,1.55188,-8.63324,-0.0010479,0.00291728,0.00105684,0.00318137,-0.00131199,1.32592,0.00266803,0.0137445,1007,428,1.55186,8.63324
-210,596,1.56781,-8.75653,-0.000914594,0.00163548,0.00190289,0.00265101,-0.00193013,1.08057,0.00265582,0.011445,1014,428,1.56781,8.75652
-203,596,1.5484,-8.85605,-0.000727654,0.000541286,0.00244739,0.00243511,-0.00262148,0.912228,0.00292008,0.014019,1021,428,1.54841,8.85606
-196,596,1.56128,-8.98401,-0.000519082,-0.000126858,0.00270017,0.00238431,-0.00303025,0.821649,0.0031335,0.0140584,1028,428,1.56123,8.98401
-189,596,1.54333,-9.11053,-0.000272943,-0.000805064,0.00286102,0.00233436,-0.00341237,0.739034,0.00333728,0.0112628,1035,428,1.54329,9.11053
-182,596,1.53552,-9.24512,-0.000117491,-0.000750534,0.00272099,0.00230532,-0.00317335,0.727495,0.00317632,0.0118425,1042,428,1.53552,9.24512
-175,596,1.54565,-9.37244,0.000100223,-0.000580963,0.0024571,0.00224022,-0.00272096,0.716529,0.00286882,0.0148952,1049,428,1.54566,9.37242
-168,596,1.55859,-9.45059,4.45362e-06,-0.000477875,0.00225863,0.00203476,-0.00250818,0.732212,0.00262761,0.0171409,1056,428,1.55865,9.45059
-161,596,1.55005,-9.54956,-0.000173307,-0.000185378,0.00194853,0.00176919,-0.00212788,0.783849,0.00225315,0.015209,1063,428,1.5501,9.54957
-154,596,1.53845,-9.69141,-0.000154665,0.000223936,0.00153153,0.00157782,-0.00150855,0.846887,0.00178207,0.0129754,1070,428,1.53845,9.69139
-147,596,1.56409,-9.77539,-1.27053e-05,0.000477884,0.00116374,0.0014219,-0.00095672,0.889269,0.00138202,0.0130175,1077,428,1.56404,9.7754
-140,596,1.56604,-9.84406,0.000144308,0.000690221,0.000821343,0.00128278,-0.000448246,0.945822,0.0010374,0.013075,1084,428,1.5661,9.84405
-133,596,1.53235,-9.94351,0.000258014,0.000801205,0.000529463,0.00112467,-6.54492e-05,1.02238,0.00077252,0.0132382,1091,428,1.53232,9.94352
-126,596,1.547,-10.007,0.000385426,0.000751341,0.000303223,0.000922527,0.00021424,1.05685,0.0005575,0.011027,1098,428,1.54698,10.007
-119,596,1.57239,-10.1089,0.000620017,0.000630369,8.61797e-05,0.000711528,0.000538858,0.815392,0.000428552,0.0133704,1105,428,1.57242,10.1089
-112,596,1.57654,-10.1942,0.000912709,0.000730092,-0.000202944,0.00104394,0.000598862,-0.574004,0.000604895,0.0144794,1112,428,1.57655,10.1942
-105,596,1.58838,-10.273,0.00118973,0.000889822,-0.000478837,0.00154154,0.000538008,-0.633654,0.000903438,0.0151418,1119,428,1.58835,10.273
-98,596,1.6145,-10.3288,0.00136265,0.00111545,-0.000737706,0.00198704,0.000491059,-0.702394,0.00119512,0.0106146,1126,428,1.61452,10.3288
-91,596,1.61157,-10.41,0.00153796,0.0012003,-0.00101137,0.00239449,0.000343764,-0.702694,0.00149497,0.0108265,1133,428,1.61161,10.41
-84,596,1.64868,-10.5514,0.00173587,0.00124405,-0.00123211,0.00274637,0.000233553,-0.6869,0.00175824,0.016006,1140,428,1.64874,10.5514
-77,596,1.65588,-10.6588,0.00176373,0.00169533,-0.00105141,0.0027815,0.00067757,-0.76914,0.0016748,0.0282839,1147,428,1.65588,10.6588
-70,596,1.68542,-10.8614,0,0,0,0,0,0,0,-1,1154,428,1.68546,10.8614
-63,596,1.77466,-11.1256,0,0,0,0,0,0,0,-1,1161,428,1.77469,11.1256
-56,596,1.60107,-10.5827,0,0,0,0,0,0,0,-1,1168,428,1.60108,10.5827
-49,596,1.59473,-10.0393,0,0,0,0,0,0,0,-1,1175,428,1.59472,10.0393
-42,596,1.99585,-6.6246,0,0,0,0,0,0,0,-1,1182,428,1.99586,6.62459
-35,596,1.41724,-10.72,0,0,0,0,0,0,0,-1,1189,428,1.41721,10.72
-28,596,1.4917,-10.8224,0,0,0,0,0,0,0,-1,1196,428,1.49174,10.8224
-21,596,1.59534,-10.8467,0,0,0,0,0,0,0,-1,1203,428,1.59537,10.8467
-14,596,1.63135,-10.9398,0.0182461,-0.01189,-0.000438017,0.0182525,-0.0118964,-0.0145305,0.0175349,0.0478012,1210,428,1.63139,10.9399
-7,596,1.74329,-11.0745,0.0179132,-0.0143034,-0.00226331,0.0180714,-0.0144616,-0.0697962,0.0188214,0.0497151,1217,428,1.74329,11.0745
0,596,1.83496,-11.1408,0,0,0,0,0,0,0,-1,1224,428,1.83502,11.1408
7,596,1.70557,-10.9268,0.0184491,-0.0138008,-0.004905,0.0191786,-0.0145303,-0.147647,0.0195234,0.0440321,1231,428,1.7056,10.9268
14,596,1.72644,-10.9418,0.018729,-0.012942,-0.00617916,0.0198919,-0.0141049,-0.186019,0.0197226,0.0401062,1238,428,1.72642,10.9418
21,596,1.91443,-10.9336,0.0194708,-0.0110991,-0.00732634,0.0211359,-0.0127643,-0.223483,0.0197702,0.0419654,1245,428,1.91444,10.9336
28,596,2.07092,-10.9508,0.0205889,-0.0077857,-0.0086239,0.0230043,-0.0102011,-0.27309,0.0196405,0.0418854,1252,428,2.07091,10.9508
35,596,2.15283,-11.1946,0.023665,-0.00427255,-0.00927494,0.0264638,-0.00707134,-0.293069,0.0204121,0.0423175,1259,428,2.15283,11.1947
42,596,2.27466,-11.3385,0.0302437,0.00124173,-0.0115297,0.0342687,-0.00278327,-0.335872,0.0238278,0.0438384,1266,428,2.27465,11.3385
49,596,2.57202,-11.3177,0.0355919,0.00587549,-0.0126055,0.0402187,0.00124869,-0.351779,0.0264061,0.0415932,1273,428,2.57201,11.3177
56,596,2.89355,-11.4511,0.0392215,0.0156344,-0.0122707,0.0444473,0.0104085,-0.402613,0.0268433,0.0404664,1280,428,2.89353,11.4511
63,596,3.06824,-11.4758,0,0,0,0,0,0,0,-1,1287,428,3.06823,11.4758
70,596,3.33582,-11.4215,0.0494559,0.037263,-0.0130711,0.0577824,0.0289365,-0.56719,0.0333607,0.0459368,1294,428,3.33579,11.4215
77,596,3.02002,-10.4584,0.0554136,0.0535295,-0.0162371,0.070736,0.0382072,-0.756421,0.0408833,0.0412875,1301,428,3.02005,10.4584
84,596,2.81921,-10.6906,0.0595839,0.0657518,-0.0172949,0.0802356,0.0451001,-0.873629,0.046443,0.0406371,1308,428,2.8192,10.6907
91,596,9.15649,-12.1148,0.0625625,0.0782593,-0.0184716,0.0904808,0.0503411,-0.986286,0.0523497,0.0477462,1315,428,9.15652,12.1148
98,596,10.2064,-12.5235,0,0,0,0,0,0,0,-1,1322,428,10.2064,12.5235
105,596,2.19751,-10.6742,0.0618159,0.0942175,-0.0218723,0.105236,0.0507979,-1.10416,0.0607699,0.0467769,1329,428,2.19745,10.6742
112,596,2.28357,-10.5815,0.0592586,0.0977283,-0.0234744,0.108842,0.048145,-1.12863,0.062979,0.0402526,1336,428,2.28357,10.5815
119,596,2.4248,-10.6955,0.0554589,0.0973213,-0.0248832,0.108906,0.0438741,-1.13507,0.0632712,0.0443458,1343,428,2.42482,10.6955
126,596,2.44128,-10.8148,0,0,0,0,0,0,0,-1,1350,428,2.44129,10.8149
133,596,2.47864,-10.7278,0.0460875,0.0838273,-0.0256354,0.096789,0.0331258,-1.10267,0.0568007,0.0467702,1357,428,2.47868,10.7278
140,596,2.37549,-10.561,0.0398475,0.0725474,-0.0252644,0.0862908,0.0261041,-1.07258,0.051099,0.0399002,1364,428,2.37552,10.561
147,596,2.26111,-10.5152,0.0330683,0.0588016,-0.0231385,0.0724103,0.0194596,-1.03914,0.043271,0.0354016,1371,428,2.26109,10.5152
154,596,2.19653,-10.4009,0.0291669,0.0461824,-0.0216664,0.0609515,0.0143977,-0.972484,0.0367866,0.041049,1378,428,2.19655,10.4009
161,596,2.30603,-10.36,0.0263084,0.0327641,-0.0204785,0.0502676,0.00880487,-0.863567,0.0309965,0.0435501,1385,428,2.30609,10.3599
168,596,2.44763,-10.3786,0,0,0,0,0,0,0,-1,1392,428,2.44763,10.3786
175,596,2.60852,-10.2813,0,0,0,0,0,0,0,-1,1399,428,2.60857,10.2813
182,596,2.63013,-10.3304,0,0,0,0,0,0,0,-1,1406,428,2.63009,10.3304
189,596,2.58887,-10.2343,0,0,0,0,0,0,0,-1,1413,428,2.58884,10.2344
196,596,2.5116,-10.0034,0,0,0,0,0,0,0,-1,1420,428,2.51163,10.0034
203,596,2.43665,-10.3309,0,0,0,0,0,0,0,-1,1427,428,2.43665,10.3309
210,596,2.43567,-10.0557,0.000965785,0.00176717,-0.00270941,0.00410535,-0.0013724,-0.85881,0.00329117,0.0272594,1434,428,2.43566,10.0557
217,596,2.44958,-9.9263,-1.56905e-05,0.000279079,-0.00210954,0.00224638,-0.00198299,-0.820274,0.0024434,0.0118736,1441,428,2.44954,9.92629
224,596,2.47095,-9.84146,-3.33972e-05,0.000396067,-0.00180696,0.00200101,-0.00163834,-0.844539,0.00210466,0.0120229,1448,428,2.47093,9.84146
231,596,2.48071,-9.75177,8.60029e-05,0.000402506,-0.00148188,0.00173456,-0.00124605,-0.838592,0.00172855,0.0122119,1455,428,2.4807,9.75177
238,596,2.46338,-9.6348,0.000322673,0.000399378,-0.00122472,0.00158634,-0.000864292,-0.801051,0.0014352,0.0144515,1462,428,2.46338,9.63478
245,596,2.48572,-9.52783,0.000652563,0.00035374,-0.00102359,0.00153759,-0.00053129,-0.712926,0.00124068,0.0127413,1469,428,2.48572,9.52784
252,596,2.52759,-9.42081,0.00088384,0.000443734,-0.000886144,0.00157684,-0.00024927,-0.663697,0.00114341,0.00969929,1476,428,2.52759,9.42081
259,596,2.53418,-9.31668,0.000973348,0.000509937,-0.000733557,0.00151092,-2.76379e-05,-0.632424,0.00101662,0.0086059,1483,428,2.53413,9.31668
266,596,2.52332,-9.2095,0.000972832,0.000525502,-0.000608485,0.00139746,0.000100877,-0.609275,0.000899899,0.00946139,1490,428,2.52328,9.20951
273,596,2.53906,-9.08746,0.000904263,0.000381827,-0.000450306,0.00116363,0.000122459,-0.522572,0.000738327,0.0112163,1497,428,2.53904,9.08745
280,596,2.55994,-8.96146,0.000849366,0.000467458,-0.000192409,0.000929492,0.000387332,-0.394597,0.000539118,0.0125535,1504,428,2.56,8.96144
287,596,2.56653,-8.82877,0.000782612,0.000418204,7.8338e-05,0.000798738,0.000402077,0.203027,0.000461155,0.011416,1511,428,2.56658,8.82877
294,596,2.53833,-8.69647,0.000609682,0.000346322,0.000319063,0.00082317,0.000132835,0.589692,0.000510298,0.00897405,1518,428,2.53832,8.69648
301,596,2.52734,-8.56042,0.000375911,0.000290128,0.000606679,0.000941212,-0.000275174,0.750108,0.000736538,0.0105954,1525,428,2.52731,8.56043
308,596,2.54785,-8.42239,0.00024496,0.000160432,0.000933304,0.00113696,-0.000731564,0.762772,0.00108722,0.0165598,1532,428,2.54784,8.4224
315,596,2.5354,-8.29883,0.000196382,8.86023e-05,0.00122327,0.00136695,-0.00108197,0.763386,0.00141707,0.0166297,1539,428,2.5354,8.29883
322,596,2.52893,-8.15411,0.000181049,9.9299e-05,0.00150567,0.0016464,-0.00136605,0.771828,0.00174174,0.0134169,1546,428,2.52887,8.1541
329,596,2.52454,-8.00204,0.000207862,9.74135e-05,0.0018117,0.00196517,-0.0016599,0.770162,0.00209541,0.00982691,1553,428,2.52453,8.00203
336,596,2.52551,-7.84772,0.000160598,0.000316686,0.00209272,0.00233281,-0.00185553,0.804036,0.00242337,0.00910462,1560,428,2.52545,7.8477
343,596,2.53137,-7.703,9.45711e-05,0.000446247,0.00225384,0.00253109,-0.00199027,0.824328,0.00261663,0.0117298,1567,428,2.53136,7.70299
350,596,2.53369,-7.54309,0.000111923,0.00077854,0.00247195,0.00293955,-0.00204909,0.852412,0.00289544,0.0117126,1574,428,2.53371,7.54309
357,596,2.52966,-7.3775,-2.03345e-05,0.00119964,0.0027053,0.00336287,-0.00218356,0.896283,0.00322627,0.00912439,1581,428,2.52972,7.37752
364,596,2.53369,-7.21509,-0.000242444,0.0017744,0.00285442,0.00379329,-0.00226134,0.955197,0.00353275,0.0085443,1588,428,2.53368,7.21509
371,596,2.52588,-7.05725,-0.000360011,0.00246856,0.0029131,0.00429254,-0.00218399,1.01138,0.00380471,0.00929503,1595,428,2.52586,7.05724
378,596,2.53333,-6.88605,-0.00084372,0.0027456,0.003095,0.00452863,-0.00262674,1.04814,0.00417951,0.0139719,1602,428,2.53336,6.88605
385,596,2.57593,-6.70615,-0.00139191,0.00302803,0.00310281,0.00462744,-0.00299132,1.09485,0.00443237,0.0244735,1609,428,2.57588,6.70615
392,596,2.49744,-6.5369,-0.00135377,0.00324483,0.00334567,0.00500512,-0.00311406,1.08646,0.0047298,0.0366934,1616,428,2.49744,6.53691
399,596,2.42175,-6.22925,0,0,0,0,0,0,0,-1,1623,428,2.42171,6.22924
406,596,2.45422,-6.02411,0,0,0,0,0,0,0,-1,1630,428,2.4542,6.0241
413,596,3.39124,-2.63528,0,0,0,0,0,0,0,-1,1637,428,3.39122,2.6353
420,596,2.6344,-3.06308,0,0,0,0,0,0,0,-1,1644,428,2.63439,3.06308
427,596,2.99329,-1.90512,0,0,0,0,0,0,0,-1,1651,428,2.99327,1.90512
434,596,3.80896,-0.253998,0,0,0,0,0,0,0,-1,1658,428,3.80902,0.254004
441,596,3.86401,-0.131622,0,0,0,0,0,0,0,-1,1665,428,3.86406,0.131613
448,596,1.0769,0.0083313,0,0,0,0,0,0,0,-1,1672,428,1.07684,-0.00832231
455,596,2.00769,-1.43329,0,0,0,0,0,0,0,-1,1679,428,2.00765,1.4333
462,596,0,0,0,0,0,0,0,0,0,-1,1686,428,0,0
469,596,0,0,0,0,0,0,0,0,0,-1,1693,428,0,0
476,596,0,0,0,0,0,0,0,0,0,-1,1700,428,0,0
483,596,0,0,0,0,0,0,0,0,0,-1,1707,428,0,0
490,596,0,0,0,0,0,0,0,0,0,-1,1714,428,0,0
497,596,0,0,0,0,0,0,0,0,0,-1,1721,428,0,0
504,596,0,0,0,0,0,0,0,0,0,-1,1728,428,0,0
511,596,0,0,0,0,0,0,0,0,0,-1,1735,428,0,0
518,596,0,0,0,0,0,0,0,0,0,-1,1742,428,0,0
525,596,0,0,0,0,0,0,0,0,0,-1,1749,428,0,0
532,596,0,0,0,0,0,0,0,0,0,-1,1756,428,0,0
539,596,0,0,0,0,0,0,0,0,0,-1,1763,428,0,0
546,596,0,0,0,0,0,0,0,0,0,-1,1770,428,0,0
553,596,0,0,0,0,0,0,0,0,0,-1,1777,428,0,0
560,596,0,0,0,0,0,0,0,0,0,-1,1784,428,0,0
567,596,0,0,0,0,0,0,0,0,0,-1,1791,428,0,0
574,596,0,0,0,0,0,0,0,0,0,-1,1798,428,0,0
581,596,0,0,0,0,0,0,0,0,0,-1,1805,428,0,0
588,596,0,0,0,0,0,0,0,0,0,-1,1812,428,0,0
595,596,0,0,0,0,0,0,0,0,0,-1,1819,428,0,0
602,596,0,0,0,0,0,0,0,0,0,-1,1826,428,0,0
609,596,0,0,0,0,0,0,0,0,0,-1,1833,428,0,0
616,596,0,0,0,0,0,0,0,0,0,-1,1840,428,0,0
623,596,0,0,0,0,0,0,0,0,0,-1,1847,428,0,0
630,596,0,0,0,0,0,0,0,0,0,-1,1854,428,0,0
637,596,0,0,0,0,0,0,0,0,0,-1,1861,428,0,0
644,596,0,0,0,0,0,0,0,0,0,-1,1868,428,0,0
651,596,0,0,0,0,0,0,0,0,0,-1,1875,428,0,0
658,596,0,0,0,0,0,0,0,0,0,-1,1882,428,0,0
665,596,0,0,0,0,0,0,0,0,0,-1,1889,428,0,0
672,596,0,0,0,0,0,0,0,0,0,-1,1896,428,0,0
679,596,0,0,0,0,0,0,0,0,0,-1,1903,428,0,0
686,596,0,0,0,0,0,0,0,0,0,-1,1910,428,0,0
693,596,0,0,0,0,0,0,0,0,0,-1,1917,428,0,0
700,596,0,0,0,0,0,0,0,0,0,-1,1924,428,0,0
707,596,0,0,0,0,0,0,0,0,0,-1,1931,428,0,0
714,596,0,0,0,0,0,0,0,0,0,-1,1938,428,0,0
721,596,0,0,0,0,0,0,0,0,0,-1,1945,428,0,0
728,596,0,0,0,0,0,0,0,0,0,-1,1952,428,0,0
735,596,0,0,0,0,0,0,0,0,0,-1,1959,428,0,0
742,596,0,0,0,0,0,0,0,0,0,-1,1966,428,0,0
749,596,0,0,0,0,0,0,0,0,0,-1,1973,428,0,0
756,596,0,0,0,0,0,0,0,0,0,-1,1980,428,0,0
763,596,0,0,0,0,0,0,0,0,0,-1,1987,428,0,0
770,596,0,0,0,0,0,0,0,0,0,-1,1994,428,0,0
777,596,0,0,0,0,0,0,0,0,0,-1,2001,428,0,0
784,596,0,0,0,0,0,0,0,0,0,-1,2008,428,0,0
791,596,0,0,0,0,0,0,0,0,0,-1,2015,428,0,0
798,596,0,0,0,0,0,0,0,0,0,-1,2022,428,0,0
805,596,0,0,0,0,0,0,0,0,0,-1,2029,428,0,0
812,596,0,0,0,0,0,0,0,0,0,-1,2036,428,0,0
-700,589,0,0,0,0,0,0,0,0,0,-1,524,435,0,0
-693,589,0,0,0,0,0,0,0,0,0,-1,531,435,0,0
-686,589,0,0,0,0,0,0,0,0,0,-1,538,435,0,0
-679,589,0,0,0,0,0,0,0,0,0,-1,545,435,0,0
-672,589,0,0,0,0,0,0,0,0,0,-1,552,435,0,0
-665,589,0,0,0,0,0,0,0,0,0,-1,559,435,0,0
-658,589,0,0,0,0,0,0,0,0,0,-1,566,435,0,0
-651,589,0,0,0,0,0,0,0,0,0,-1,573,435,0,0
-644,589,0,0,0,0,0,0,0,0,0,-1,580,435,0,0
-637,589,0,0,0,0,0,0,0,0,0,-1,587,435,0,0
-630,589,0,0,0,0,0,0,0,0,0,-1,594,435,0,0
-623,589,0,0,0,0,0,0,0,0,0,-1,601,435,0,0
-616,589,0,0,0,0,0,0,0,0,0,-1,608,435,0,0
-609,589,0,0,0,0,0,0,0,0,0,-1,615,435,0,0
-602,589,0,0,0,0,0,0,0,0,0,-1,622,435,0,0
-595,589,0,0,0,0,0,0,0,0,0,-1,629,435,0,0
-588,589,0,0,0,0,0,0,0,0,0,-1,636,435,0,0
-581,589,0,0,0,0,0,0,0,0,0,-1,643,435,0,0
-574,589,0,0,0,0,0,0,0,0,0,-1,650,435,0,0
-567,589,0,0,0,0,0,0,0,0,0,-1,657,435,0,0
-560,589,0,0,0,0,0,0,0,0,0,-1,664,435,0,0
-553,589,0,0,0,0,0,0,0,0,0,-1,671,435,0,0
-546,589,0,0,0,0,0,0,0,0,0,-1,678,435,0,0
-539,589,0,0,0,0,0,0,0,0,0,-1,685,435,0,0
-532,589,0,0,0,0,0,0,0,0,0,-1,692,435,0,0
-525,589,0,0,0,0,0,0,0,0,0,-1,699,435,0,0
-518,589,0,0,0,0,0,0,0,0,0,-1,706,435,0,0
-511,589,0,0,0,0,0,0,0,0,0,-1,713,435,0,0
-504,589,0,0,0,0,0,0,0,0,0,-1,720,435,0,0
-497,589,0,0,0,0,0,0,0,0,0,-1,727,435,0,0
-490,589,0,0,0,0,0,0,0,0,0,-1,734,435,0,0
-483,589,0,0,0,0,0,0,0,0,0,-1,741,435,0,0
-476,589,0,0,0,0,0,0,0,0,0,-1,748,435,0,0
-469,589,0,0,0,0,0,0,0,0,0,-1,755,435,0,0
-462,589,0,0,0,0,0,0,0,0,0,-1,762,435,0,0
-455,589,0,0,0,0,0,0,0,0,0,-1,769,435,0,0
-448,589,0,0,0,0,0,0,0,0,0,-1,776,435,0,0
-441,589,0,0,0,0,0,0,0,0,0,-1,783,435,0,0
-434,589,0,0,0,0,0,0,0,0,0,-1,790,435,0,0
-427,589,0,0,0,0,0,0,0,0,0,-1,797,435,0,0
-420,589,0,0,0,0,0,0,0,0,0,-1,804,435,0,0
-413,589,0,0,0,0,0,0,0,0,0,-1,811,435,0,0
-406,589,0,0,0,0,0,0,0,0,0,-1,818,435,0,0
-399,589,0,0,0,0,0,0,0,0,0,-1,825,435,0,0
-392,589,0,0,0,0,0,0,0,0,0,-1,832,435,0,0
-385,589,0,0,0,0,0,0,0,0,0,-1,839,435,0,0
-378,589,0,0,0,0,0,0,0,0,0,-1,846,435,0,0
-371,589,0,0,0,0,0,0,0,0,0,-1,853,435,0,0
-364,589,0,0,0,0,0,0,0,0,0,-1,860,435,0,0
-357,589,0,0,0,0,0,0,0,0,0,-1,867,435,0,0
-350,589,-0.262695,-13.5742,0,0,0,0,0,0,0,-1,874,435,-0.262715,13.5742
-343,589,0.187195,-13.2853,0,0,0,0,0,0,0,-1,881,435,0.187181,13.2853
-336,589,0.677856,-12.7685,0,0,0,0,0,0,0,-1,888,435,0.677838,12.7685
-329,589,-0.00494385,-7.86029,0,0,0,0,0,0,0,-1,895,435,-0.00491452,7.86029
-322,589,2.04016,-6.44177,0,0,0,0,0,0,0,-1,902,435,2.04016,6.44177
-315,589,2.45123,-6.57489,0,0,0,0,0,0,0,-1,909,435,2.45126,6.57489
-308,589,1.60767,-6.71039,0,0,0,0,0,0,0,-1,916,435,1.60766,6.71039
-301,589,2.69171,-7.02237,0,0,0,0,0,0,0,-1,923,435,2.69172,7.02236
-294,589,2.15588,-7.42401,-0.0134894,0.00710144,0.0228132,0.0218348,-0.0282228,0.997362,0.0289791,0.0493574,930,435,2.15586,7.424
-287,589,1.68274,-7.58951,-0.0122995,0.00462039,0.0167259,0.0149042,-0.0225833,1.01954,0.0217943,0.0407815,937,435,1.68272,7.5895
-280,589,1.42358,-7.51758,0,0,0,0,0,0,0,-1,944,435,1.42356,7.51759
-273,589,1.46179,-7.47821,-0.00985463,0.003103,0.00706948,0.00621338,-0.012965,1.15631,0.011299,0.0187849,951,435,1.46181,7.4782
-266,589,1.45801,-7.62509,-0.00813445,0.00332321,0.0036054,0.00436331,-0.00917454,1.28994,0.00797892,0.016293,958,435,1.45801,7.62509
-259,589,1.43378,-7.76843,-0.00619411,0.00244759,-0.000216032,0.00245299,-0.00619951,-1.54582,0.00514926,0.0145005,965,435,1.43376,7.76845
-252,589,1.44897,-7.92612,-0.00426375,0.00268921,-0.00221807,0.00333653,-0.00491107,-1.28684,0.00479059,0.0101519,972,435,1.44897,7.92613
-245,589,1.46222,-8.05331,-0.00314026,0.00336553,-0.00193857,0.00389937,-0.0036741,-1.30208,0.00437319,0.0101432,979,435,1.46222,8.05332
-238,589,1.44604,-8.18448,-0.00173221,0.00419051,-0.00171417,0.00465085,-0.00219255,-1.30844,0.00403512,0.0138691,986,435,1.44605,8.18449
-231,589,1.45026,-8.32816,-0.000935378,0.00424818,-0.00112546,0.004482,-0.00116919,-1.36596,0.00344452,0.0153139,993,435,1.45028,8.32817
-224,589,1.43933,-8.48459,-0.000959924,0.00328393,-0.000442418,0.00332956,-0.00100556,-1.46802,0.00262002,0.0141305,1000,435,1.4393,8.4846
-217,589,1.43036,-8.65436,-0.000888284,0.00234437,0.000183694,0.00235477,-0.000898689,1.51421,0.00194008,0.0147181,1007,435,1.43036,8.65437
-210,589,1.43854,-8.78534,-0.000895252,0.00135742,0.00084011,0.00163622,-0.00117406,1.25037,0.00162981,0.0138685,1014,435,1.43852,8.78535
-203,589,1.41919,-8.88089,-0.000784725,0.00050078,0.00128368,0.00129364,-0.00157758,1.01751,0.0016604,0.0103056,1021,435,1.41921,8.88089
-196,589,1.40662,-9.005,-0.000627352,7.1963e-05,0.00155624,0.00131734,-0.00187273,0.895904,0.00185107,0.0125329,1028,435,1.40656,9.00501
-189,589,1.39429,-9.14206,-0.000460377,-0.00026269,0.00181262,0.00145378,-0.00217685,0.812636,0.00210996,0.0157978,1035,435,1.39426,9.14204
-182,589,1.41504,-9.22931,-0.000296298,-0.000137461,0.00187088,0.00165568,-0.00208944,0.80661,0.00216707,0.0130396,1042,435,1.41501,9.2293
-175,589,1.44165,-9.34042,-8.38409e-05,7.94141e-05,0.00185057,0.00185016,-0.00185459,0.807439,0.00213894,0.0175879,1049,435,1.44162,9.34042
-168,589,1.47107,-9.4614,-0.000106555,0.000257012,0.00184034,0.00192453,-0.00177407,0.834627,0.00213597,0.0146199,1056,435,1.47109,9.46138
-161,589,1.44641,-9.55212,-0.000182867,0.000561681,0.0017394,0.0019682,-0.00158939,0.89082,0.00205785,0.0133504,1063,435,1.44642,9.55211
-154,589,1.43323,-9.65497,-5.26405e-05,0.000984285,0.00149834,0.00205133,-0.00111969,0.951962,0.00185694,0.0139428,1070,435,1.43325,9.65497
-147,589,1.46838,-9.76874,0.000146883,0.00128856,0.00128135,0.00212047,-0.000685027,0.99495,0.00168895,0.0131043,1077,435,1.46837,9.76874
-140,589,1.47278,-9.8475,0.000287003,0.00141892,0.00105717,0.0020521,-0.000346172,1.03116,0.00149686,0.0129082,1084,435,1.47273,9.84751
-133,589,1.44885,-9.92038,0.000371298,0.00153111,0.000870441,0.00199712,-9.47211e-05,1.07924,0.00136409,0.012747,1091,435,1.44889,9.92038
-126,589,1.46802,-10.0195,0.000442377,0.00151411,0.000602896,0.00178486,0.000171623,1.1487,0.00113703,0.010435,1098,435,1.46802,10.0195
-119,589,1.48621,-10.1128,0.000688313,0.00117737,0.000302628,0.00132191,0.000543768,1.1252,0.000767195,0.015945,1105,435,1.48625,10.1128
-112,589,1.49927,-10.1974,0.00100872,0.00108889,-8.27567e-05,0.00114076,0.000956849,-1.01093,0.000707218,0.0171141,1112,435,1.49928,10.1975
-105,589,1.5188,-10.2961,0.00133506,0.00113271,-0.00045521,0.0017002,0.000767568,-0.676045,0.000983154,0.0173671,1119,435,1.51883,10.2961
-98,589,1.57886,-10.3432,0.00155373,0.00130101,-0.000806572,0.00224378,0.000610961,-0.707698,0.00133948,0.018209,1126,435,1.57885,10.3432
-91,589,1.58496,-10.4396,0.00179363,0.00121471,-0.00117959,0.00271876,0.000289584,-0.66508,0.0017241,0.0233619,1133,435,1.585,10.4396
-84,589,1.62402,-10.6017,0.00203723,0.00114393,-0.0015041,0.0031596,2.15622e-05,-0.641068,0.00209925,0.0319069,1140,435,1.62398,10.6017
-77,589,1.64172,-10.6883,0,0,0,0,0,0,0,-1,1147,435,1.64172,10.6883
-70,589,1.48267,-9.90961,0,0,0,0,0,0,0,-1,1154,435,1.48264,9.9096
-63,589,0.880127,-5.50586,0,0,0,0,0,0,0,-1,1161,435,0.880186,5.50587
-56,589,-2.78052,-7.28082,0,0,0,0,0,0,0,-1,1168,435,-2.78053,7.28082
-49,589,-0.525757,-2.76703,0,0,0,0,0,0,0,-1,1175,435,-0.525771,2.76702
-42,589,-2.7738,-2.87921,0,0,0,0,0,0,0,-1,1182,435,-2.77383,2.87922
-35,589,-2.55225,-3.27551,0,0,0,0,0,0,0,-1,1189,435,-2.55223,3.27552
-28,589,-0.0632324,-3.42938,0,0,0,0,0,0,0,-1,1196,435,-0.063241,3.42938
-21,589,1.13721,-10.2825,0,0,0,0,0,0,0,-1,1203,435,1.13723,10.2825
-14,589,1.48108,-10.9548,0,0,0,0,0,0,0,-1,1210,435,1.48102,10.9548
-7,589,1.67224,-11.159,0,0,0,0,0,0,0,-1,1217,435,1.67222,11.159
0,589,1.80591,-10.9781,0,0,0,0,0,0,0,-1,1224,435,1.80588,10.9781
7,589,1.47998,-10.8176,0.0225706,-0.0194345,-0.00738901,0.0238325,-0.0206964,-0.169145,0.02573,0.0470776,1231,435,1.47996,10.8176
14,589,1.49426,-10.7113,0.022484,-0.018112,-0.00881365,0.0243149,-0.0199429,-0.204824,0.0255938,0.0439222,1238,435,1.49429,10.7113
21,589,1.95972,-10.5808,0.0229728,-0.0159816,-0.00991552,0.0253515,-0.0183603,-0.235444,0.0253444,0.0447061,1245,435,1.95969,10.5808
28,589,2.1709,-10.8044,0.0240778,-0.0121588,-0.0110291,0.0271706,-0.0152516,-0.273406,0.0248127,0.0442961,1252,435,2.17086,10.8043
35,589,2.34814,-11.2368,0.0270704,-0.00768577,-0.0113984,0.0304751,-0.0110904,-0.290258,0.0248525,0.0422363,1259,435,2.34815,11.2368
42,589,2.54236,-11.5297,0.0336755,-0.00159715,-0.013021,0.0379615,-0.0058831,-0.317987,0.0274794,0.044549,1266,435,2.54237,11.5297
49,589,2.7887,-11.5607,0.0398023,0.00394726,-0.013699,0.044437,-0.000687532,-0.326242,0.0298565,0.0452994,1273,435,2.7887,11.5607
56,589,3.13818,-11.6153,0.0442104,0.0148117,-0.0127181,0.0489487,0.0100735,-0.35663,0.0298468,0.0443814,1280,435,3.13824,11.6153
63,589,3.49561,-11.8764,0,0,0,0,0,0,0,-1,1287,435,3.49562,11.8764
70,589,5.37695,-12.4972,0.0564092,0.040004,-0.0124411,0.0631084,0.0333048,-0.49395,0.0364543,0.0475564,1294,435,5.37701,12.4972
77,589,6.02893,-12.8156,0.063553,0.0583977,-0.0156389,0.0768252,0.0451255,-0.70372,0.0445803,0.0454644,1301,435,6.02891,12.8156
84,589,7.31238,-12.356,0,0,0,0,0,0,0,-1,1308,435,7.31232,12.356
91,589,8.47778,-12.5035,0.0729008,0.0870204,-0.0177515,0.0990645,0.0608568,-0.97466,0.057691,0.0432619,1315,435,8.47774,12.5035
98,589,9.50378,-12.8506,0,0,0,0,0,0,0,-1,1322,435,9.50374,12.8506
105,589,10.4541,-13.1918,0.0735304,0.105333,-0.0220282,0.116599,0.0622637,-1.09802,0.0673705,0.046574,1329,435,10.4541,13.1918
112,589,2.48438,-10.6454,0.07123,0.10956,-0.024316,0.121355,0.0594342,-1.11914,0.0700695,0.0406503,1336,435,2.48441,10.6454
119,589,2.67493,-10.5695,0.067446,0.109329,-0.0265681,0.122217,0.0545584,-1.11916,0.0706969,0.0431642,1343,435,2.67492,10.5695
126,589,2.00952,-10.3586,0.0626118,0.103882,-0.0281715,0.118168,0.0483264,-1.1015,0.0685999,0.046635,1350,435,2.00946,10.3587
133,589,2.54407,-10.8084,0,0,0,0,0,0,0,-1,1357,435,2.54406,10.8084
140,589,2.38062,-10.6722,0.049655,0.0793368,-0.0286594,0.0967699,0.0322219,-1.02431,0.0568997,0.0440982,1364,435,2.38066,10.6722
147,589,2.32043,-10.7188,0.0423139,0.0631129,-0.0269318,0.0815833,0.0238435,-0.96965,0.0484383,0.0431512,1371,435,2.32042,10.7189
154,589,2.53003,-10.475,0.036945,0.0478712,-0.0251622,0.0681565,0.0166597,-0.892297,0.0410279,0.0439373,1378,435,2.53005,10.475
161,589,2.68823,-10.3053,0.0322767,0.033624,-0.0233839,0.0563439,0.00955675,-0.799798,0.034817,0.0498085,1385,435,2.6882,10.3053
168,589,2.98206,-10.2466,0,0,0,0,0,0,0,-1,1392,435,2.98202,10.2466
175,589,8.66992,-7.65527,0,0,0,0,0,0,0,-1,1399,435,8.66994,7.65528
182,589,3.8136,-2.45389,0,0,0,0,0,0,0,-1,1406,435,3.81363,2.4539
189,589,3.69983,-3.68149,0,0,0,0,0,0,0,-1,1413,435,3.69987,3.68147
196,589,3.31055,-5.31677,0,0,0,0,0,0,0,-1,1420,435,3.31059,5.31678
203,589,2.72559,-8.84338,0,0,0,0,0,0,0,-1,1427,435,2.72558,8.84338
210,589,2.47131,-10.0397,0,0,0,0,0,0,0,-1,1434,435,2.47134,10.0397
217,589,2.55225,-9.91443,-0.000406999,0.000199865,-0.00290633,0.00281856,-0.00302569,-0.837412,0.00337489,0.0275802,1441,435,2.5522,9.91442
224,589,2.60437,-9.82874,-0.000323858,0.000339151,-0.00254501,0.00257415,-0.00255886,-0.850162,0.00296355,0.0220701,1448,435,2.60442,9.82874
231,589,2.58777,-9.77286,-0.000115675,0.000272176,-0.00217277,0.00225966,-0.00210316,-0.829907,0.00251941,0.0194568,1455,435,2.58774,9.77284
238,589,2.57483,-9.66943,0.000251382,0.000171292,-0.00191901,0.00213076,-0.00170809,-0.774966,0.00222083,0.0213379,1462,435,2.57477,9.66943
245,589,2.5791,-9.49857,0.000783139,-1.6611e-05,-0.00172905,0.00215795,-0.00139143,-0.671762,0.0020651,0.0191851,1469,435,2.57906,9.49858
252,589,2.62903,-9.40292,0.00111914,5.97198e-06,-0.00161675,0.00227243,-0.00114732,-0.619622,0.00200969,0.0128679,1476,435,2.62906,9.40292
259,589,2.64404,-9.3179,0.00125462,5.18971e-05,-0.00149224,0.00226211,-0.000955595,-0.593857,0.00190811,0.00906344,1483,435,2.64408,9.3179
266,589,2.65332,-9.19543,0.00128883,7.04793e-05,-0.00139785,0.00220448,-0.000845167,-0.579909,0.00181808,0.00928153,1490,435,2.65327,9.19544
273,589,2.66345,-9.08356,0.0012152,-0.000165317,-0.00128683,0.00198521,-0.000935327,-0.539226,0.00172211,0.0116015,1497,435,2.66349,9.08356
280,589,2.66919,-8.96832,0.00114759,-3.58689e-05,-0.00106175,0.00177137,-0.000659643,-0.531176,0.00145164,0.0123118,1504,435,2.66915,8.96833
287,589,2.68408,-8.85663,0.00108856,-5.06991e-05,-0.000817527,0.00151534,-0.000477478,-0.481121,0.00120144,0.0108393,1511,435,2.68404,8.85663
294,589,2.67554,-8.70853,0.00090419,-8.05031e-05,-0.000634429,0.0012149,-0.000391216,-0.455416,0.000967087,0.00999643,1518,435,2.67549,8.70852
301,589,2.67078,-8.55347,0.000611391,-9.12283e-05,-0.00042092,0.000808344,-0.000288182,-0.437649,0.000656394,0.0110864,1525,435,2.67075,8.55348
308,589,2.68542,-8.42038,0.000430989,-0.000218084,-0.00016888,0.0004723,-0.000259395,-0.239906,0.000428364,0.0109289,1532,435,2.68546,8.42037
315,589,2.68628,-8.28735,0.000348278,-0.000240853,7.41068e-05,0.000357457,-0.000250032,0.123233,0.000352557,0.0115574,1539,435,2.68628,8.28737
322,589,2.68665,-8.14969,0.000287901,-0.000171535,0.00034099,0.000469333,-0.000352967,0.488977,0.000476337,0.0120293,1546,435,2.68666,8.14968
329,589,2.69592,-8.0061,0.000288191,-0.000121068,0.000641357,0.000756771,-0.000589649,0.630974,0.00077935,0.00988678,1553,435,2.69587,8.0061
336,589,2.68921,-7.85995,0.00025385,0.000111411,0.000945261,0.00113057,-0.00076531,0.747797,0.00110134,0.00924073,1560,435,2.68923,7.85996
343,589,2.67297,-7.70853,0.000200962,0.000275971,0.001178,0.00141706,-0.00094013,0.801312,0.00137018,0.0107119,1567,435,2.67292,7.70853
350,589,2.67114,-7.57126,0.000200914,0.00061578,0.00146093,0.00188393,-0.00106723,0.85592,0.00172546,0.01547,1574,435,2.67117,7.57125
357,589,2.68787,-7.40686,0.000116633,0.001009,0.00176817,0.00238641,-0.00126078,0.908989,0.00213887,0.0127127,1581,435,2.68785,7.40686
364,589,2.6958,-7.2236,-3.07555e-05,0.00149065,0.00201211,0.00288105,-0.00142116,0.966124,0.0025311,0.0107961,1588,435,2.6958,7.22361
371,589,2.69226,-7.06271,-0.000206649,0.00200732,0.00226403,0.0034205,-0.00161983,1.01278,0.00297129,0.0108112,1595,435,2.6922,7.06272
378,589,2.68872,-6.89224,-0.000527675,0.00231323,0.00245327,0.0037276,-0.00194205,1.04782,0.00332704,0.012177,1602,435,2.68867,6.89225
385,589,2.69189,-6.7229,-0.000868067,0.00255019,0.00245908,0.00383576,-0.00215363,1.08909,0.00350314,0.0149587,1609,435,2.69184,6.72289
392,589,2.66345,-6.52466,-0.000757822,0.0026851,0.00262914,0.00410622,-0.00217894,1.07526,0.00368517,0.0159399,1616,435,2.66349,6.52467
399,589,2.62805,-6.30429,-0.000331283,0.00312586,0.0030405,0.0048948,-0.00210023,1.04387,0.00414462,0.0200789,1623,435,2.62808,6.3043
406,589,2.61414,-6.09482,1.72026e-05,0.00340121,0.00317991,0.00531125,-0.00189284,1.02989,0.00431254,0.04899,1630,435,2.6141,6.09483
413,589,2.61365,-5.85785,0,0,0,0,0,0,0,-1,1637,435,2.61363,5.85785
420,589,2.79724,-5.79956,0,0,0,0,0,0,0,-1,1644,435,2.7973,5.79955
427,589,2.87976,-5.28177,0,0,0,0,0,0,0,-1,1651,435,2.87972,5.28177
434,589,2.52734,-2.73029,0,0,0,0,0,0,0,-1,1658,435,2.52736,2.73029
441,589,3.17639,-2.02435,0,0,0,0,0,0,0,-1,1665,435,3.17643,2.02435
448,589,0.453735,-3.2868,0,0,0,0,0,0,0,-1,1672,435,0.453701,3.28681
455,589,0.664307,-3.46848,0,0,0,0,0,0,0,-1,1679,435,0.66425,3.46846
462,589,3.46716,-4.41891,0,0,0,0,0,0,0,-1,1686,435,3.4672,4.41891
469,589,3.20557,-4.54208,0,0,0,0,0,0,0,-1,1693,435,3.20556,4.54207
476,589,0,0,0,0,0,0,0,0,0,-1,1700,435,0,0
483,589,0,0,0,0,0,0,0,0,0,-1,1707,435,0,0
490,589,0,0,0,0,0,0,0,0,0,-1,1714,435,0,0
497,589,0,0,0,0,0,0,0,0,0,-1,1721,435,0,0
504,589,0,0,0,0,0,0,0,0,0,-1,1728,435,0,0
511,589,0,0,0,0,0,0,0,0,0,-1,1735,435,0,0
518,589,0,0,0,0,0,0,0,0,0,-1,1742,435,0,0
525,589,0,0,0,0,0,0,0,0,0,-1,1749,435,0,0
532,589,0,0,0,0,0,0,0,0,0,-1,1756,435,0,0
539,589,0,0,0,0,0,0,0,0,0,-1,1763,435,0,0
546,589,0,0,0,0,0,0,0,0,0,-1,1770,435,0,0
553,589,0,0,0,0,0,0,0,0,0,-1,1777,435,0,0
560,589,0,0,0,0,0,0,0,0,0,-1,1784,435,0,0
567,589,0,0,0,0,0,0,0,0,0,-1,1791,435,0,0
574,589,0,0,0,0,0,0,0,0,0,-1,1798,435,0,0
581,589,0,0,0,0,0,0,0,0,0,-1,1805,435,0,0
588,589,0,0,0,0,0,0,0,0,0,-1,1812,435,0,0
595,589,0,0,0,0,0,0,0,0,0,-1,1819,435,0,0
602,589,0,0,0,0,0,0,0,0,0,-1,1826,435,0,0
609,589,0,0,0,0,0,0,0,0,0,-1,1833,435,0,0
616,589,0,0,0,0,0,0,0,0,0,-1,1840,435,0,0
623,589,0,0,0,0,0,0,0,0,0,-1,1847,435,0,0
630,589,0,0,0,0,0,0,0,0,0,-1,1854,435,0,0
637,589,0,0,0,0,0,0,0,0,0,-1,1861,435,0,0
644,589,0,0,0,0,0,0,0,0,0,-1,1868,435,0,0
651,589,0,0,0,0,0,0,0,0,0,-1,1875,435,0,0
658,589,0,0,0,0,0,0,0,0,0,-1,1882,435,0,0
665,589,0,0,0,0,0,0,0,0,0,-1,1889,435,0,0
672,589,0,0,0,0,0,0,0,0,0,-1,1896,435,0,0
679,589,0,0,0,0,0,0,0,0,0,-1,1903,435,0,0
686,589,0,0,0,0,0,0,0,0,0,-1,1910,435,0,0
693,589,0,0,0,0,0,0,0,0,0,-1,1917,435,0,0
700,589,0,0,0,0,0,0,0,0,0,-1,1924,435,0,0
707,589,0,0,0,0,0,0,0,0,0,-1,1931,435,0,0
714,589,0,0,0,0,0,0,0,0,0,-1,1938,435,0,0
721,589,0,0,0,0,0,0,0,0,0,-1,1945,435,0,0
728,589,0,0,0,0,0,0,0,0,0,-1,1952,435,0,0
735,589,0,0,0,0,0,0,0,0,0,-1,1959,435,0,0
742,589,0,0,0,0,0,0,0,0,0,-1,1966,435,0,0
749,589,0,0,0,0,0,0,0,0,0,-1,1973,435,0,0
756,589,0,0,0,0,0,0,0,0,0,-1,1980,435,0,0
763,589,0,0,0,0,0,0,0,0,0,-1,1987,435,0,0
770,589,0,0,0,0,0,0,0,0,0,-1,1994,435,0,0
777,589,0,0,0,0,0,0,0,0,0,-1,2001,435,0,0
784,589,0,0,0,0,0,0,0,0,0,-1,2008,435,0,0
791,589,0,0,0,0,0,0,0,0,0,-1,2015,435,0,0
798,589,0,0,0,0,0,0,0,0,0,-1,2022,435,0,0
805,589,0,0,0,0,0,0,0,0,0,-1,2029,435,0,0
812,589,0,0,0,0,0,0,0,0,0,-1,2036,435,0,0
-700,582,0,0,0,0,0,0,0,0,0,-1,524,442,0,0
-693,582,0,0,0,0,0,0,0,0,0,-1,531,442,0,0
-686,582,0,0,0,0,0,0,0,0,0,-1,538,442,0,0
-679,582,0,0,0,0,0,0,0,0,0,-1,545,442,0,0
-672,582,0,0,0,0,0,0,0,0,0,-1,552,442,0,0
-665,582,0,0,0,0,0,0,0,0,0,-1,559,442,0,0
-658,582,0,0,0,0,0,0,0,0,0,-1,566,442,0,0
-651,582,0,0,0,0,0,0,0,0,0,-1,573,442,0,0
-644,582,0,0,0,0,0,0,0,0,0,-1,580,442,0,0
-637,582,0,0,0,0,0,0,0,0,0,-1,587,442,0,0
-630,582,0,0,0,0,0,0,0,0,0,-1,594,442,0,0
-623,582,0,0,0,0,0,0,0,0,0,-1,601,442,0,0
-616,582,0,0,0,0,0,0,0,0,0,-1,608,442,0,0
-609,582,0,0,0,0,0,0,0,0,0,-1,615,442,0,0
-602,582,0,0,0,0,0,0,0,0,0,-1,622,442,0,0
-595,582,0,0,0,0,0,0,0,0,0,-1,629,442,0,0
-588,582,0,0,0,0,0,0,0,0,0,-1,636,442,0,0
-581,582,0,0,0,0,0,0,0,0,0,-1,643,442,0,0
-574,582,0,0,0,0,0,0,0,0,0,-1,650,442,0,0
-567,582,0,0,0,0,0,0,0,0,0,-1,657,442,0,0
-560,582,0,0,0,0,0,0,0,0,0,-1,664,442,0,0
-553,582,0,0,0,0,0,0,0,0,0,-1,671,442,0,0
-546,582,0,0,0,0,0,0,0,0,0,-1,678,442,0,0
-539,582,0,0,0,0,0,0,0,0,0,-1,685,442,0,0
-532,582,0,0,0,0,0,0,0,0,0,-1,692,442,0,0
-525,582,0,0,0,0,0,0,0,0,0,-1,699,442,0,0
-518,582,0,0,0,0,0,0,0,0,0,-1,706,442,0,0
-511,582,0,0,0,0,0,0,0,0,0,-1,713,442,0,0
-504,582,0,0,0,0,0,0,0,0,0,-1,720,442,0,0
-497,582,0,0,0,0,0,0,0,0,0,-1,727,442,0,0
-490,582,0,0,0,0,0,0,0,0,0,-1,734,442,0,0
-483,582,0,0,0,0,0,0,0,0,0,-1,741,442,0,0
-476,582,0,0,0,0,0,0,0,0,0,-1,748,442,0,0
-469,582,0,0,0,0,0,0,0,0,0,-1,755,442,0,0
-462,582,0,0,0,0,0,0,0,0,0,-1,762,442,0,0
-455,582,0,0,0,0,0,0,0,0,0,-1,769,442,0,0
-448,582,0,0,0,0,0,0,0,0,0,-1,776,442,0,0
-441,582,0,0,0,0,0,0,0,0,0,-1,783,442,0,0
-434,582,0,0,0,0,0,0,0,0,0,-1,790,442,0,0
-427,582,0,0,0,0,0,0,0,0,0,-1,797,442,0,0
-420,582,0,0,0,0,0,0,0,0,0,-1,804,442,0,0
-413,582,0,0,0,0,0,0,0,0,0,-1,811,442,0,0
-406,582,0,0,0,0,0,0,0,0,0,-1,818,442,0,0
-399,582,0,0,0,0,0,0,0,0,0,-1,825,442,0,0
-392,582,0,0,0,0,0,0,0,0,0,-1,832,442,0,0
-385,582,0,0,0,0,0,0,0,0,0,-1,839,442,0,0
-378,582,0,0,0,0,0,0,0,0,0,-1,846,442,0,0
-371,582,0,0,0,0,0,0,0,0,0,-1,853,442,0,0
-364,582,0,0,0,0,0,0,0,0,0,-1,860,442,0,0
-357,582,6.4043,-4.18127,0,0,0,0,0,0,0,-1,867,442,6.40427,4.18126
-350,582,-1.12933,-15.713,0,0,0,0,0,0,0,-1,874,442,-1.12935,15.713
-343,582,-0.551086,-15.4312,0,0,0,0,0,0,0,-1,881,442,-0.5511,15.4311
-336,582,0.0556641,-4.78558,0,0,0,0,0,0,0,-1,888,442,0.0556634,4.78559
-329,582,1.69775,-6.19214,0,0,0,0,0,0,0,-1,895,442,1.69775,6.19215
-322,582,1.75208,-6.35352,-0.00772826,0.0190687,0.0349188,0.0430713,-0.0317309,0.968588,0.0433522,0.0468965,902,442,1.75205,6.3535
-315,582,2.0694,-6.48798,-0.00995895,0.0134735,0.0301234,0.0340789,-0.0305643,0.970867,0.0373402,0.0454174,909,442,2.06941,6.48799
-308,582,1.45038,-6.70972,-0.0111469,0.00885372,0.0252485,0.0260103,-0.0283035,0.973957,0.0313674,0.0475778,916,442,1.45036,6.70972
-301,582,1.53094,-6.92926,0,0,0,0,0,0,0,-1,923,442,1.53095,6.92925
-294,582,1.44629,-7.11313,-0.0108323,0.00315572,0.0155696,0.0132301,-0.0209066,0.996495,0.0198743,0.0442218,930,442,1.44631,7.11311
-287,582,1.26617,-7.17426,-0.00981796,0.00155782,0.01133,0.00854755,-0.0168077,1.01803,0.0148955,0.0336027,937,442,1.26619,7.17425
-280,582,1.35767,-7.285,-0.00872745,0.000865953,0.00783225,0.00525361,-0.0131151,1.06015,0.0109241,0.014378,944,442,1.35765,7.28502
-273,582,1.3443,-7.44156,-0.0076158,0.00100971,0.00474833,0.00311151,-0.00971759,1.15408,0.00772728,0.00956099,951,442,1.34428,7.44156
-266,582,1.33734,-7.61795,-0.0061985,0.00140359,0.00239545,0.00209544,-0.00689035,1.28963,0.00542857,0.00947507,958,442,1.33734,7.61794
-259,582,1.3316,-7.78336,-0.00454352,0.00107328,-0.000191799,0.00107982,-0.00455007,-1.5367,0.00345011,0.00856511,965,442,1.33159,7.78337
-252,582,1.32983,-7.93582,-0.00297866,0.00143367,-0.00149407,0.00189198,-0.00343696,-1.27316,0.00311947,0.00824433,972,442,1.32986,7.93581
-245,582,1.33875,-8.05301,-0.00212521,0.00221104,-0.00139981,0.00262366,-0.00253783,-1.28415,0.00298012,0.0114097,979,442,1.33876,8.053
-238,582,1.32208,-8.16791,-0.00103306,0.0029604,-0.00137478,0.00338792,-0.00146058,-1.26931,0.00287206,0.0163097,986,442,1.32207,8.1679
-231,582,1.33099,-8.33081,-0.000384449,0.00302685,-0.000948461,0.00327282,-0.000630419,-1.31705,0.00241955,0.0137116,993,442,1.33101,8.33081
-224,582,1.33459,-8.49109,-0.000383178,0.00231688,-0.000424969,0.00238218,-0.000448485,-1.41831,0.0017568,0.0107194,1000,442,1.33458,8.4911
-217,582,1.31128,-8.64453,-0.000311593,0.00157078,8.69766e-05,0.00157479,-0.000315603,1.52472,0.00116934,0.0123585,1007,442,1.31126,8.64454
-210,582,1.31042,-8.77051,-0.00029995,0.000723193,0.000633821,0.00102614,-0.000602893,1.12493,0.000951043,0.0122422,1014,442,1.31042,8.7705
-203,582,1.30383,-8.8884,-0.00017324,-3.266e-05,0.00103199,0.000931432,-0.00113733,0.819401,0.00119637,0.0098982,1021,442,1.30382,8.8884
-196,582,1.30383,-9.02133,-2.76722e-05,-0.000297205,0.00133718,0.00118152,-0.00150639,0.735176,0.00155564,0.0149089,1028,442,1.30385,9.02133
-189,582,1.2793,-9.14816,6.87785e-05,-0.000339687,0.0016835,0.00156039,-0.0018313,0.725036,0.00196028,0.0208449,1035,442,1.27927,9.14815
-182,582,1.28943,-9.25183,0.000200161,-0.000156125,0.00188734,0.00191774,-0.00187371,0.738343,0.00218904,0.0149952,1042,442,1.28943,9.25184
-175,582,1.32446,-9.32706,0.000331404,0.000137702,0.00204535,0.00228219,-0.00181309,0.76174,0.00236957,0.013663,1049,442,1.32444,9.32705
-168,582,1.3396,-9.45181,0.000265566,0.000446895,0.00212546,0.00248362,-0.00177116,0.806713,0.00246795,0.0113498,1056,442,1.33962,9.45181
-161,582,1.33301,-9.55939,0.000150912,0.000870804,0.00212149,0.00266267,-0.00164095,0.869431,0.00250793,0.0125821,1063,442,1.33306,9.55938
-154,582,1.3302,-9.64603,0.000246916,0.00144916,0.00194942,0.00288804,-0.00119196,0.934952,0.00242248,0.0127853,1070,442,1.33021,9.64603
-147,582,1.35059,-9.75052,0.000380851,0.00196909,0.00178403,0.00312776,-0.00077782,0.994795,0.00238707,0.0118285,1077,442,1.35056,9.75051
-140,582,1.36011,-9.83347,0.000395354,0.00225528,0.00155718,0.00313905,-0.000488419,1.05458,0.00227306,0.0115699,1084,442,1.36016,9.83346
-133,582,1.37549,-9.92807,0.000341157,0.00257588,0.00132442,0.00319132,-0.000274281,1.1358,0.00222462,0.0141435,1091,442,1.37545,9.92808
-126,582,1.4104,-9.99826,0.000277119,0.00270083,0.000972138,0.00304257,-6.46166e-05,1.23276,0.00205026,0.0129721,1098,442,1.41037,9.99827
-119,582,1.41663,-10.0485,0.000537557,0.00213515,0.000575997,0.00232117,0.000351545,1.25843,0.00144459,0.0166199,1105,442,1.41665,10.0485
-112,582,1.35864,-10.1773,0.000909086,0.00179164,6.46093e-05,0.00179634,0.000904382,1.49811,0.00103713,0.0253638,1112,442,1.35868,10.1773
-105,582,1.276,-10.2988,0.00130992,0.00166178,-0.000448319,0.00196745,0.00100425,-0.972376,0.00113599,0.0350239,1119,442,1.276,10.2988
-98,582,1.47668,-10.4457,0.00157588,0.00167773,-0.000912553,0.00254078,0.000712831,-0.813272,0.00151328,0.0370859,1126,442,1.47668,10.4457
-91,582,1.42395,-10.4283,0.00187424,0.00120253,-0.00140056,0.00297865,9.81203e-05,-0.66772,0.00195388,0.0376606,1133,442,1.42389,10.4282
-84,582,1.31506,-10.6027,0.00217065,0.000801393,-0.00188624,0.00349266,-0.000520619,-0.611311,0.00251997,0.0426527,1140,442,1.31503,10.6027
-77,582,1.43994,-10.8594,0,0,0,0,0,0,0,-1,1147,442,1.43997,10.8594
-70,582,1.49255,-6.36548,0,0,0,0,0,0,0,-1,1154,442,1.49251,6.36549
-63,582,-4.62915,-4.0347,0,0,0,0,0,0,0,-1,1161,442,-4.6292,4.03471
-56,582,-5.81714,-5.24149,0,0,0,0,0,0,0,-1,1168,442,-5.81718,5.24149
-49,582,-3.88672,-10.1064,0,0,0,0,0,0,0,-1,1175,442,-3.88678,10.1064
-42,582,-0.948975,1.13968,0,0,0,0,0,0,0,-1,1182,442,-0.949003,-1.13969
-35,582,-2.58435,-3.86911,0,0,0,0,0,0,0,-1,1189,442,-2.58437,3.86912
-28,582,-0.825317,-3.45941,0,0,0,0,0,0,0,-1,1196,442,-0.825377,3.45942
-21,582,1.73914,-10.1727,0,0,0,0,0,0,0,-1,1203,442,1.73913,10.1727
-14,582,0.911743,-10.7302,0,0,0,0,0,0,0,-1,1210,442,0.911708,10.7302
-7,582,3.51917,-8.49551,0,0,0,0,0,0,0,-1,1217,442,3.5192,8.49551
0,582,-0.900391,-9.85138,0,0,0,0,0,0,0,-1,1224,442,-0.900401,9.85137
7,582,0.199707,-10.1097,0.0263201,-0.0268786,-0.0107562,0.0284125,-0.0289711,-0.192138,0.033131,0.0466704,1231,442,0.199757,10.1097
14,582,1.32617,-10.405,0.0256699,-0.0249477,-0.0122746,0.0284893,-0.0277672,-0.225785,0.0324806,0.043952,1238,442,1.32615,10.405
21,582,1.89392,-10.5519,0.0256624,-0.0225275,-0.0132258,0.0290536,-0.0259187,-0.251001,0.0317555,0.0447323,1245,442,1.89387,10.5519
28,582,2.18469,-10.8484,0.0266317,-0.0182608,-0.0139465,0.0306115,-0.0222407,-0.277977,0.0306415,0.0450246,1252,442,2.18465,10.8484
35,582,2.31177,-11.2679,0.0292466,-0.012686,-0.0138744,0.0334216,-0.0168609,-0.292294,0.0295508,0.0452599,1259,442,2.31173,11.2679
42,582,2.35046,-11.5239,0.0353609,-0.00615176,-0.0144212,0.0398789,-0.0106698,-0.303609,0.0307656,0.0456791,1266,442,2.35043,11.5239
49,582,2.44421,-11.7359,0.0421905,0.000349903,-0.0144514,0.0466966,-0.00415621,-0.302257,0.0326049,0.0450797,1273,442,2.44423,11.7359
56,582,2.65588,-12.0343,0.0475196,0.0118848,-0.0126597,0.0515592,0.00784525,-0.308877,0.0320791,0.0462939,1280,442,2.65583,12.0343
63,582,2.8103,-12.3136,0,0,0,0,0,0,0,-1,1287,442,2.81033,12.3136
70,582,4.90576,-12.4828,0.061766,0.0400469,-0.0107964,0.0662196,0.0355933,-0.391241,0.0382678,0.0467994,1294,442,4.90576,12.4828
77,582,5.7168,-12.7104,0.0700754,0.0597776,-0.0137033,0.0795652,0.0502878,-0.605688,0.0464678,0.0458998,1301,442,5.71685,12.7104
84,582,6.71289,-12.6288,0.0763813,0.074817,-0.014328,0.0899485,0.0612499,-0.758132,0.0530532,0.0453528,1308,442,6.7129,12.6288
91,582,7.58191,-13.0149,0.0818658,0.0911021,-0.0153907,0.102553,0.0704153,-0.931154,0.060568,0.045596,1315,442,7.58188,13.0149
98,582,8.39905,-13.4684,0,0,0,0,0,0,0,-1,1322,442,8.39899,13.4684
105,582,6.86218,-15.563,0.0843206,0.110585,-0.0203954,0.12171,0.0731953,-1.07143,0.0707495,0.0441444,1329,442,6.86222,15.5631
112,582,2.51111,-10.5287,0.0824942,0.115235,-0.0233738,0.127401,0.0703282,-1.09088,0.0736875,0.0435333,1336,442,2.51114,10.5288
119,582,2.93018,-10.3837,0.0789913,0.115077,-0.0265321,0.12912,0.0649483,-1.084,0.0745478,0.0439522,1343,442,2.93015,10.3837
126,582,8.18799,-16.3882,0.0738057,0.108837,-0.0290564,0.125249,0.0573939,-1.05664,0.0723964,0.0408946,1350,442,8.18797,16.3882
133,582,9.51538,-17.2757,0,0,0,0,0,0,0,-1,1357,442,9.5154,17.2757
140,582,2.34961,-10.693,0,0,0,0,0,0,0,-1,1364,442,2.34958,10.693
147,582,2.9884,-11.401,0,0,0,0,0,0,0,-1,1371,442,2.9884,11.401
154,582,2.9856,-10.71,0,0,0,0,0,0,0,-1,1378,442,2.98556,10.71
161,582,3.2605,-10.3582,0,0,0,0,0,0,0,-1,1385,442,3.26047,10.3582
168,582,2.99744,-9.47592,0,0,0,0,0,0,0,-1,1392,442,2.99746,9.47593
175,582,6.50549,-2.00424,0,0,0,0,0,0,0,-1,1399,442,6.50546,2.00425
182,582,5.18958,-2.18652,0,0,0,0,0,0,0,-1,1406,442,5.1896,2.18652
189,582,6.19751,-0.880951,0,0,0,0,0,0,0,-1,1413,442,6.19754,0.88096
196,582,4.87354,-2.22327,0,0,0,0,0,0,0,-1,1420,442,4.87348,2.22325
203,582,3.11401,-4.48257,0,0,0,0,0,0,0,-1,1427,442,3.11404,4.48259
210,582,2.81714,-10.231,0,0,0,0,0,0,0,-1,1434,442,2.81709,10.231
217,582,2.9425,-10.0714,-0.00122239,0.000521357,-0.00405695,0.00379906,-0.00450009,-0.891243,0.00479722,0.0472929,1441,442,2.94247,10.0714
224,582,2.86096,-9.74042,-0.000956582,0.000610429,-0.00355786,0.00347004,-0.00381619,-0.893777,0.00420829,0.0464639,1448,442,2.86094,9.74043
231,582,2.71265,-9.73151,-0.000502813,0.000423494,-0.00304968,0.00304499,-0.00312431,-0.860757,0.00356195,0.0434127,1455,442,2.71264,9.73151
238,582,2.6283,-9.6911,0.000114927,0.000246782,-0.0027032,0.00288486,-0.00252315,-0.79759,0.00312464,0.0404248,1462,442,2.62827,9.6911
245,582,2.65808,-9.68561,0.000911546,-0.000191126,-0.00250308,0.00292329,-0.00220287,-0.676998,0.00296932,0.0374677,1469,442,2.65809,9.68561
252,582,2.78577,-9.51617,0.00140568,-0.000255702,-0.00239979,0.00311448,-0.0019645,-0.618777,0.0029573,0.0229756,1476,442,2.78578,9.51618
259,582,2.72876,-9.38675,0.00159458,-0.000327617,-0.0022474,0.00307777,-0.0018108,-0.583342,0.00285384,0.016626,1483,442,2.72876,9.38674
266,582,2.74097,-9.2482,0.00167392,-0.000371701,-0.00215247,0.00303423,-0.00173201,-0.5636,0.00278581,0.0131293,1490,442,2.74101,9.24821
273,582,2.79163,-9.09772,0.00156513,-0.000781413,-0.00208467,0.00278402,-0.0020003,-0.529086,0.00277455,0.0121699,1497,442,2.79168,9.09771
280,582,2.79065,-8.97714,0.00145241,-0.000641929,-0.00187199,0.00255021,-0.00173973,-0.530386,0.00249149,0.0108041,1504,442,2.79062,8.97715
287,582,2.81384,-8.84628,0.00136545,-0.00065634,-0.00162315,0.00226676,-0.00155765,-0.506891,0.00222064,0.0106444,1511,442,2.81388,8.8463
294,582,2.81421,-8.70923,0.00112688,-0.000655107,-0.00147196,0.0019565,-0.00148473,-0.513241,0.00199301,0.00915112,1518,442,2.81424,8.70923
301,582,2.82935,-8.55359,0.000738016,-0.000615376,-0.00129716,0.00152438,-0.00140174,-0.544979,0.00168989,0.0101372,1525,442,2.82931,8.55359
308,582,2.84631,-8.41302,0.000431189,-0.000758748,-0.00111874,0.00110333,-0.00143089,-0.54101,0.0014672,0.0131183,1532,442,2.84636,8.41302
315,582,2.83167,-8.26428,0.000242892,-0.000742454,-0.000916253,0.00079053,-0.00129009,-0.538721,0.00121273,0.0138311,1539,442,2.83162,8.2643
322,582,2.82983,-8.12747,8.20746e-05,-0.000622211,-0.000648641,0.000467997,-0.00100813,-0.536713,0.000871055,0.0106826,1546,442,2.82982,8.12746
329,582,2.84546,-7.99481,2.47386e-05,-0.000532131,-0.00034718,0.000191343,-0.000698736,-0.447422,0.000541004,0.00990006,1553,442,2.8455,7.9948
336,582,2.84558,-7.8476,-7.92108e-06,-0.000278805,-3.47603e-05,-3.53169e-06,-0.000283194,-0.125611,0.00018763,0.0100684,1560,442,2.84561,7.8476
343,582,2.83545,-7.6803,-5.76392e-05,-8.60956e-05,0.000243578,0.000172126,-0.00031586,0.756225,0.000285784,0.0121381,1567,442,2.83539,7.68029
350,582,2.82983,-7.55518,-7.9885e-05,0.000239589,0.000556693,0.000659009,-0.000499305,0.925114,0.000670869,0.0150855,1574,442,2.82984,7.55516
357,582,2.84644,-7.39395,-9.69745e-05,0.000575849,0.000904814,0.00120477,-0.000725892,0.96338,0.00112604,0.0131206,1581,442,2.84642,7.39394
364,582,2.84656,-7.21973,-0.00014863,0.00094763,0.00121475,0.00173219,-0.000933195,0.997335,0.00156174,0.0105022,1588,442,2.84652,7.21974
371,582,2.84167,-7.06406,-0.000224011,0.0013589,0.00152044,0.00228155,-0.00114666,1.02537,0.0020151,0.0143284,1595,442,2.84173,7.06404
378,582,2.83472,-6.91412,-0.000381906,0.00167155,0.00174654,0.00267079,-0.00138115,1.05112,0.00237856,0.015171,1602,442,2.83466,6.91414
385,582,2.81189,-6.73199,-0.00054793,0.00186467,0.0017857,0.00281334,-0.0014966,1.08246,0.00252676,0.0105667,1609,442,2.81187,6.73199
392,582,2.8042,-6.54926,-0.000373923,0.00194372,0.00194053,0.0030451,-0.00147531,1.05457,0.0026618,0.00920668,1616,442,2.80416,6.54925
399,582,2.79468,-6.37552,4.97674e-05,0.00229781,0.00234268,0.00377216,-0.00142459,1.00908,0.00310071,0.0117269,1623,442,2.79473,6.37551
406,582,2.78198,-6.1821,0.000366964,0.00252257,0.00250966,0.00417608,-0.00128655,0.98822,0.00329764,0.0176018,1630,442,2.78196,6.1821
413,582,2.76404,-6.02023,-0.000702718,0.00385327,0.00257505,0.00501331,-0.00186276,1.14753,0.00410646,0.0374645,1637,442,2.76407,6.02022
420,582,2.75671,-5.79266,0,0,0,0,0,0,0,-1,1644,442,2.7567,5.79266
427,582,2.67297,-5.63562,0,0,0,0,0,0,0,-1,1651,442,2.67293,5.63563
434,582,2.45996,-5.46985,0,0,0,0,0,0,0,-1,1658,442,2.45992,5.46983
441,582,2.66785,-5.35794,0,0,0,0,0,0,0,-1,1665,442,2.66788,5.35795
448,582,1.52722,-2.85928,0,0,0,0,0,0,0,-1,1672,442,1.52724,2.85927
455,582,3.6698,-4.4032,0,0,0,0,0,0,0,-1,1679,442,3.66983,4.40319
462,582,2.52869,-3.50668,0,0,0,0,0,0,0,-1,1686,442,2.52868,3.5067
469,582,2.05164,-3.24896,0,0,0,0,0,0,0,-1,1693,442,2.05162,3.24897
476,582,0.503418,-3.24838,0,0,0,0,0,0,0,-1,1700,442,0.503396,3.24837
483,582,0,0,0,0,0,0,0,0,0,-1,1707,442,0,0
490,582,0,0,0,0,0,0,0,0,0,-1,1714,442,0,0
497,582,0,0,0,0,0,0,0,0,0,-1,1721,442,0,0
504,582,0,0,0,0,0,0,0,0,0,-1,1728,442,0,0
511,582,0,0,0,0,0,0,0,0,0,-1,1735,442,0,0
518,582,0,0,0,0,0,0,0,0,0,-1,1742,442,0,0
525,582,0,0,0,0,0,0,0,0,0,-1,1749,442,0,0
532,582,0,0,0,0,0,0,0,0,0,-1,1756,442,0,0
539,582,0,0,0,0,0,0,0,0,0,-1,1763,442,0,0
546,582,0,0,0,0,0,0,0,0,0,-1,1770,442,0,0
553,582,0,0,0,0,0,0,0,0,0,-1,1777,442,0,0
560,582,0,0,0,0,0,0,0,0,0,-1,1784,442,0,0
567,582,0,0,0,0,0,0,0,0,0,-1,1791,442,0,0
574,582,0,0,0,0,0,0,0,0,0,-1,1798,442,0,0
581,582,0,0,0,0,0,0,0,0,0,-1,1805,442,0,0
588,582,0,0,0,0,0,0,0,0,0,-1,1812,442,0,0
595,582,0,0,0,0,0,0,0,0,0,-1,1819,442,0,0
602,582,0,0,0,0,0,0,0,0,0,-1,1826,442,0,0
609,582,0,0,0,0,0,0,0,0,0,-1,1833,442,0,0
616,582,0,0,0,0,0,0,0,0,0,-1,1840,442,0,0
623,582,0,0,0,0,0,0,0,0,0,-1,1847,442,0,0
630,582,0,0,0,0,0,0,0,0,0,-1,1854,442,0,0
637,582,0,0,0,0,0,0,0,0,0,-1,1861,442,0,0
644,582,0,0,0,0,0,0,0,0,0,-1,1868,442,0,0
651,582,0,0,0,0,0,0,0,0,0,-1,1875,442,0,0
658,582,0,0,0,0,0,0,0,0,0,-1,1882,442,0,0
665,582,0,0,0,0,0,0,0,0,0,-1,1889,442,0,0
672,582,0,0,0,0,0,0,0,0,0,-1,1896,442,0,0
679,582,0,0,0,0,0,0,0,0,0,-1,1903,442,0,0
686,582,0,0,0,0,0,0,0,0,0,-1,1910,442,0,0
693,582,0,0,0,0,0,0,0,0,0,-1,1917,442,0,0
700,582,0,0,0,0,0,0,0,0,0,-1,1924,442,0,0
707,582,0,0,0,0,0,0,0,0,0,-1,1931,442,0,0
714,582,0,0,0,0,0,0,0,0,0,-1,1938,442,0,0
721,582,0,0,0,0,0,0,0,0,0,-1,1945,442,0,0
728,582,0,0,0,0,0,0,0,0,0,-1,1952,442,0,0
735,582,0,0,0,0,0,0,0,0,0,-1,1959,442,0,0
742,582,0,0,0,0,0,0,0,0,0,-1,1966,442,0,0
749,582,0,0,0,0,0,0,0,0,0,-1,1973,442,0,0
756,582,0,0,0,0,0,0,0,0,0,-1,1980,442,0,0
763,582,0,0,0,0,0,0,0,0,0,-1,1987,442,0,0
770,582,0,0,0,0,0,0,0,0,0,-1,1994,442,0,0
777,582,0,0,0,0,0,0,0,0,0,-1,2001,442,0,0
784,582,0,0,0,0,0,0,0,0,0,-1,2008,442,0,0
791,582,0,0,0,0,0,0,0,0,0,-1,2015,442,0,0
798,582,0,0,0,0,0,0,0,0,0,-1,2022,442,0,0
805,582,0,0,0,0,0,0,0,0,0,-1,2029,442,0,0
812,582,0,0,0,0,0,0,0,0,0,-1,2036,442,0,0
-700,575,0,0,0,0,0,0,0,0,0,-1,524,449,0,0
-693,575,0,0,0,0,0,0,0,0,0,-1,531,449,0,0
-686,575,0,0,0,0,0,0,0,0,0,-1,538,449,0,0
-679,575,0,0,0,0,0,0,0,0,0,-1,545,449,0,0
-672,575,0,0,0,0,0,0,0,0,0,-1,552,449,0,0
-665,575,0,0,0,0,0,0,0,0,0,-1,559,449,0,0
-658,575,0,0,0,0,0,0,0,0,0,-1,566,449,0,0
-651,575,0,0,0,0,0,0,0,0,0,-1,573,449,0,0
-644,575,0,0,0,0,0,0,0,0,0,-1,580,449,0,0
-637,575,0,0,0,0,0,0,0,0,0,-1,587,449,0,0
-630,575,0,0,0,0,0,0,0,0,0,-1,594,449,0,0
-623,575,0,0,0,0,0,0,0,0,0,-1,601,449,0,0
-616,575,0,0,0,0,0,0,0,0,0,-1,608,449,0,0
-609,575,0,0,0,0,0,0,0,0,0,-1,615,449,0,0
-602,575,0,0,0,0,0,0,0,0,0,-1,622,449,0,0
-595,575,0,0,0,0,0,0,0,0,0,-1,629,449,0,0
-588,575,0,0,0,0,0,0,0,0,0,-1,636,449,0,0
-581,575,0,0,0,0,0,0,0,0,0,-1,643,449,0,0
-574,575,0,0,0,0,0,0,0,0,0,-1,650,449,0,0
-567,575,0,0,0,0,0,0,0,0,0,-1,657,449,0,0
-560,575,0,0,0,0,0,0,0,0,0,-1,664,449,0,0
-553,575,0,0,0,0,0,0,0,0,0,-1,671,449,0,0
-546,575,0,0,0,0,0,0,0,0,0,-1,678,449,0,0
-539,575,0,0,0,0,0,0,0,0,0,-1,685,449,0,0
-532,575,0,0,0,0,0,0,0,0,0,-1,692,449,0,0
-525,575,0,0,0,0,0,0,0,0,0,-1,699,449,0,0
-518,575,0,0,0,0,0,0,0,0,0,-1,706,449,0,0
-511,575,0,0,0,0,0,0,0,0,0,-1,713,449,0,0
-504,575,0,0,0,0,0,0,0,0,0,-1,720,449,0,0
-497,575,0,0,0,0,0,0,0,0,0,-1,727,449,0,0
-490,575,0,0,0,0,0,0,0,0,0,-1,734,449,0,0
-483,575,0,0,0,0,0,0,0,0,0,-1,741,449,0,0
-476,575,0,0,0,0,0,0,0,0,0,-1,748,449,0,0
-469,575,0,0,0,0,0,0,0,0,0,-1,755,449,0,0
-462,575,0,0,0,0,0,0,0,0,0,-1,762,449,0,0
-455,575,0,0,0,0,0,0,0,0,0,-1,769,449,0,0
-448,575,0,0,0,0,0,0,0,0,0,-1,776,449,0,0
-441,575,0,0,0,0,0,0,0,0,0,-1,783,449,0,0
-434,575,0,0,0,0,0,0,0,0,0,-1,790,449,0,0
-427,575,0,0,0,0,0,0,0,0,0,-1,797,449,0,0
-420,575,0,0,0,0,0,0,0,0,0,-1,804,449,0,0
-413,575,0,0,0,0,0,0,0,0,0,-1,811,449,0,0
-406,575,0,0,0,0,0,0,0,0,0,-1,818,449,0,0
-399,575,0,0,0,0,0,0,0,0,0,-1,825,449,0,0
-392,575,0,0,0,0,0,0,0,0,0,-1,832,449,0,0
-385,575,0,0,0,0,0,0,0,0,0,-1,839,449,0,0
-378,575,0,0,0,0,0,0,0,0,0,-1,846,449,0,0
-371,575,0.56897,-3.52304,0,0,0,0,0,0,0,-1,853,449,0.568955,3.52306
-364,575,1.49805,-4.67191,0,0,0,0,0,0,0,-1,860,449,1.49803,4.6719
-357,575,7.00562,-3.99518,0,0,0,0,0,0,0,-1,867,449,7.0056,3.99517
-350,575,-1.09674,-6.20343,0,0,0,0,0,0,0,-1,874,449,-1.09671,6.20344
-343,575,0.29834,-5.3349,0,0,0,0,0,0,0,-1,881,449,0.298367,5.33489
-336,575,1.26105,-6.05438,0,0,0,0,0,0,0,-1,888,449,1.26103,6.05439
-329,575,1.44586,-6.17297,-0.00396342,0.0173045,0.0268568,0.035556,-0.0222149,0.973903,0.0336492,0.0474684,895,449,1.44586,6.17298
-322,575,1.65869,-6.30402,-0.00635833,0.0123179,0.023899,0.0286384,-0.0226788,0.971644,0.0296945,0.0445603,902,449,1.65869,6.30403
-315,575,1.27765,-6.59033,-0.00786748,0.00825865,0.0204678,0.0221943,-0.0218031,0.973033,0.0254023,0.0436576,909,449,1.27766,6.59035
-308,575,1.29987,-6.75259,-0.00868496,0.00494955,0.0170571,0.0165013,-0.0202367,0.97551,0.0212472,0.0445238,916,449,1.29986,6.7526
-301,575,1.30255,-6.896,-0.00877708,0.0024538,0.0137188,0.0116619,-0.0179852,0.979658,0.0172461,0.0312272,923,449,1.30256,6.89601
-294,575,1.2522,-6.97632,-0.00831166,0.000965124,0.0103859,0.0077013,-0.0150478,0.995412,0.0133606,0.022924,930,449,1.25221,6.97632
-287,575,1.21808,-7.15417,-0.00750391,-3.97853e-05,0.00750457,0.00460949,-0.0121532,1.01614,0.00999927,0.015707,937,449,1.21809,7.15417
-280,575,1.21759,-7.31628,-0.00656893,-0.000326085,0.00516254,0.00258533,-0.00948035,1.05731,0.00733548,0.0107779,944,449,1.21758,7.31628
-273,575,1.20801,-7.47116,-0.00570688,-7.13956e-05,0.00312073,0.00131546,-0.00709374,1.15261,0.00522316,0.00988941,951,449,1.208,7.47116
-266,575,1.19904,-7.63953,-0.00458191,0.000352929,0.00155063,0.000799718,-0.0050287,1.29026,0.00364837,0.0114554,958,449,1.19904,7.63952
-259,575,1.19751,-7.79565,-0.00320445,0.000309559,-0.000162815,0.000317086,-0.00321197,-1.5246,0.00225446,0.0120325,965,449,1.19749,7.79566
-252,575,1.18787,-7.9404,-0.00194679,0.000668211,-0.000963999,0.000985165,-0.00226374,-1.25314,0.00192357,0.0107013,972,449,1.18787,7.9404
-245,575,1.18677,-8.08127,-0.00125146,0.00129385,-0.000880498,0.00156875,-0.00152636,-1.26818,0.00178702,0.0139271,979,449,1.18676,8.08127
-238,575,1.1889,-8.2092,-0.000370562,0.00178154,-0.000830665,0.00206486,-0.000653882,-1.24209,0.00163862,0.0145571,986,449,1.18891,8.20919
-231,575,1.18634,-8.34015,0.000209541,0.00167714,-0.000441499,0.00179972,8.69627e-05,-1.29998,0.0011719,0.0126274,993,449,1.18633,8.34015
-224,575,1.19135,-8.4541,0.000289731,0.00102767,4.00278e-05,0.00102983,0.000287566,1.51676,0.000613587,0.0122816,1000,449,1.19136,8.4541
-217,575,1.20361,-8.59045,0.000409106,0.000306997,0.000537215,0.000897687,-0.000181584,0.738023,0.000667273,0.010404,1007,449,1.20363,8.59047
-210,575,1.1994,-8.74933,0.000471698,-0.000563729,0.00106056,0.00113416,-0.00122619,0.558336,0.00136309,0.00852604,1014,449,1.19938,8.74933
-203,575,1.18506,-8.88409,0.000622704,-0.00135043,0.00146808,0.00140491,-0.00213264,0.489551,0.00205676,0.0104641,1021,449,1.18507,8.88408
-196,575,1.19751,-9.01788,0.000740937,-0.00151975,0.00182702,0.00175901,-0.00253782,0.508377,0.00249432,0.0126851,1028,449,1.19753,9.01787
-189,575,1.21326,-9.12332,0.000723774,-0.00130578,0.00226427,0.00219026,-0.00277227,0.574732,0.00287168,0.0142835,1035,449,1.21327,9.12333
-182,575,1.20081,-9.22775,0.000751832,-0.00102727,0.00257452,0.00258615,-0.00286159,0.619058,0.00314659,0.0139688,1042,449,1.20077,9.22775
-175,575,1.22485,-9.32739,0.000724486,-0.00054834,0.00285796,0.00301603,-0.00283988,0.675845,0.00338142,0.0115397,1049,449,1.2248,9.32738
-168,575,1.20898,-9.43643,0.00053175,4.6486e-05,0.00296353,0.00326257,-0.00268433,0.744553,0.00343885,0.0102669,1056,449,1.20897,9.43642
-161,575,1.21704,-9.56531,0.000299753,0.000784416,0.00298832,0.00354022,-0.00245605,0.825856,0.00348076,0.0135945,1063,449,1.21707,9.56532
-154,575,1.23462,-9.66266,0.000295025,0.00175132,0.00281231,0.00392822,-0.00188188,0.912074,0.00342311,0.0152002,1070,449,1.23465,9.66265
-147,575,1.25659,-9.70416,0.000318607,0.00274633,0.00263034,0.00442939,-0.00136446,1.00158,0.00349762,0.0153372,1077,449,1.25663,9.70415
-140,575,1.20569,-9.75562,0.000204395,0.00350718,0.00231561,0.00469992,-0.000988352,1.09515,0.00350944,0.0248786,1084,449,1.20573,9.7556
-133,575,1.30627,-9.90204,-1.4322e-05,0.00430525,0.00197525,0.00507229,-0.000781361,1.2004,0.00366981,0.0343858,1091,449,1.30625,9.90203
-126,575,1.37427,-9.8071,-0.000294019,0.00483618,0.00148482,0.00523493,-0.000692775,1.30843,0.00374231,0.0405663,1098,449,1.37422,9.8071
-119,575,1.39478,-9.81876,2.80204e-05,0.00397692,0.000975545,0.00420478,-0.000199833,1.34134,0.00287211,0.0405473,1105,449,1.39479,9.81874
-112,575,1.19519,-10.0029,0.000501647,0.00324573,0.000316348,0.00328173,0.000465649,1.45749,0.00205031,0.0446514,1112,449,1.19513,10.0029
-105,575,1.37805,-10.3468,0.00101034,0.0027699,-0.000366504,0.00284319,0.000937048,-1.37344,0.001673,0.0491979,1119,449,1.3781,10.3468
-98,575,1.41797,-10.4471,0.00134836,0.00241264,-0.000968889,0.0029859,0.000775096,-1.03652,0.00178911,0.0478658,1126,449,1.41802,10.4471
-91,575,1.29541,-10.3049,0,0,0,0,0,0,0,-1,1133,449,1.29537,10.3049
-84,575,0.968018,-10.5175,0,0,0,0,0,0,0,-1,1140,449,0.96801,10.5175
-77,575,0.205078,-11.2584,0,0,0,0,0,0,0,-1,1147,449,0.205117,11.2584
-70,575,-4.2467,-1.78738,0,0,0,0,0,0,0,-1,1154,449,-4.24674,1.78739
-63,575,-4.52209,-3.48798,0,0,0,0,0,0,0,-1,1161,449,-4.5221,3.48796
-56,575,-5.5968,-5.4928,0,0,0,0,0,0,0,-1,1168,449,-5.59683,5.49281
-49,575,-5.96863,-7.17612,0,0,0,0,0,0,0,-1,1175,449,-5.96868,7.1761
-42,575,-0.830322,0.773499,0,0,0,0,0,0,0,-1,1182,449,-0.83038,-0.77351
-35,575,-0.62085,0.205139,0,0,0,0,0,0,0,-1,1189,449,-0.620855,-0.205126
-28,575,0.49292,-3.87988,0,0,0,0,0,0,0,-1,1196,449,0.492941,3.87989
-21,575,1.49268,-10.9491,0,0,0,0,0,0,0,-1,1203,449,1.49267,10.9491
-14,575,4.37744,-8.2244,0,0,0,0,0,0,0,-1,1210,449,4.37738,8.22439
-7,575,3.88403,-8.32343,0,0,0,0,0,0,0,-1,1217,449,3.88403,8.32344
0,575,3.3833,-8.44949,0,0,0,0,0,0,0,-1,1224,449,3.38325,8.44949
7,575,1.86487,-9.46948,0,0,0,0,0,0,0,-1,1231,449,1.86489,9.46948
14,575,2.00635,-9.94925,0.027541,-0.0338515,-0.016772,0.0318242,-0.0381347,-0.250032,0.0404455,0.04905,1238,449,2.00635,9.94924
21,575,2.10913,-10.419,0.0267249,-0.0311096,-0.0174658,0.0315902,-0.0359749,-0.271675,0.0390361,0.0462472,1245,449,2.10916,10.419
28,575,2.19165,-10.8831,0.0274155,-0.026487,-0.0175318,0.032616,-0.0316875,-0.288364,0.0371269,0.043747,1252,449,2.1916,10.8831
35,575,2.21448,-11.3062,0.0293365,-0.0196888,-0.0168355,0.0345611,-0.0249134,-0.30091,0.0344879,0.0451962,1259,449,2.21453,11.3062
42,575,2.28821,-11.7095,0,0,0,0,0,0,0,-1,1266,449,2.28824,11.7095
49,575,2.27197,-11.4925,0.0418072,-0.00539372,-0.0148759,0.0461043,-0.00969082,-0.281209,0.0344242,0.0429061,1273,449,2.272,11.4924
56,575,2.82043,-11.757,0.048244,0.0061837,-0.0121287,0.0514908,0.00293688,-0.261566,0.0333913,0.0423128,1280,449,2.8204,11.757
63,575,3.39539,-12.1233,0.0547598,0.0198587,-0.00939253,0.057127,0.0174916,-0.246883,0.0337981,0.0439251,1287,449,3.39543,12.1233
70,575,4.15869,-12.2797,0.0645638,0.0361659,-0.00807706,0.0667003,0.0340293,-0.2586,0.0385121,0.0461691,1294,449,4.15867,12.2797
77,575,5.14233,-12.5011,0.0739408,0.0559532,-0.0102443,0.0785791,0.0513149,-0.425154,0.0460705,0.0458294,1301,449,5.14232,12.5011
84,575,6.07886,-12.866,0.0813764,0.0710553,-0.0103894,0.0878163,0.0646154,-0.554892,0.0525466,0.0433233,1308,449,6.0788,12.866
91,575,6.80481,-13.3287,0,0,0,0,0,0,0,-1,1315,449,6.80477,13.3287
98,575,6.11243,-15.0029,0.0922613,0.10042,-0.0133335,0.110284,0.0823969,-0.933845,0.0662143,0.0440688,1322,449,6.11246,15.0029
105,575,6.7981,-15.5892,0.0931286,0.106984,-0.0165756,0.118021,0.0820912,-0.983338,0.0698554,0.0431594,1329,449,6.79811,15.5892
112,575,7.41089,-16.13,0.0920129,0.111714,-0.0201837,0.124323,0.0794043,-1.01242,0.0726924,0.0416687,1336,449,7.4109,16.13
119,575,8.04041,-16.6161,0.0891024,0.111593,-0.0242333,0.127063,0.0736324,-1.00264,0.0736684,0.0416965,1343,449,8.04038,16.6161
126,575,8.79639,-16.7548,0.0837563,0.104876,-0.0277927,0.124048,0.0645849,-0.966951,0.0716392,0.0437359,1350,449,8.79635,16.7548
133,575,2.48071,-11.6344,0,0,0,0,0,0,0,-1,1357,449,2.48066,11.6344
140,575,3.2074,-11.7798,0,0,0,0,0,0,0,-1,1364,449,3.20744,11.7797
147,575,3.75793,-11.8197,0.0585657,0.0525244,-0.0305471,0.0862411,0.024849,-0.736116,0.0512597,0.0496811,1371,449,3.75792,11.8197
154,575,4.19238,-11.7101,0.0486677,0.0320483,-0.0278525,0.0694236,0.0112923,-0.640429,0.0430153,0.0478596,1378,449,4.19234,11.7101
161,575,4.34106,-11.8484,0,0,0,0,0,0,0,-1,1385,449,4.34101,11.8485
168,575,9.2522,-0.307129,0,0,0,0,0,0,0,-1,1392,449,9.25225,0.307127
175,575,4.32617,1.93634,0,0,0,0,0,0,0,-1,1399,449,4.32612,-1.93634
182,575,6.3147,-2.88345,0,0,0,0,0,0,0,-1,1406,449,6.31466,2.88346
189,575,6.10449,-1.30817,0,0,0,0,0,0,0,-1,1413,449,6.10455,1.30817
196,575,5.79895,0.818359,0,0,0,0,0,0,0,-1,1420,449,5.79895,-0.81837
203,575,3.29724,-1.46378,0,0,0,0,0,0,0,-1,1427,449,3.29722,1.46377
210,575,2.32739,-7.74503,0,0,0,0,0,0,0,-1,1434,449,2.32741,7.74502
217,575,3.25366,-10.1662,0,0,0,0,0,0,0,-1,1441,449,3.2537,10.1662
224,575,3.1416,-9.70151,0,0,0,0,0,0,0,-1,1448,449,3.1416,9.7015
231,575,2.85681,-9.82117,0,0,0,0,0,0,0,-1,1455,449,2.85678,9.82116
238,575,2.82947,-9.82312,0,0,0,0,0,0,0,-1,1462,449,2.82951,9.82313
245,575,3.04004,-9.03223,0,0,0,0,0,0,0,-1,1469,449,3.03999,9.03224
252,575,3.48096,-9.07199,0,0,0,0,0,0,0,-1,1476,449,3.48092,9.072
259,575,2.83313,-9.57202,0,0,0,0,0,0,0,-1,1483,449,2.83315,9.57201
266,575,2.91125,-9.20068,0.00210343,-0.000841024,-0.00299853,0.00397166,-0.00270925,-0.557194,0.00388011,0.0488002,1490,449,2.91131,9.20069
273,575,2.97424,-9.11047,0.00194883,-0.00145203,-0.00294535,0.00364936,-0.00315256,-0.523607,0.00393058,0.0332711,1497,449,2.97421,9.11048
280,575,2.98157,-8.88678,0.0017954,-0.00128824,-0.00269222,0.00335604,-0.00284888,-0.525348,0.0035864,0.0212208,1504,449,2.98152,8.88677
287,575,2.92822,-8.83423,0.00167809,-0.00132585,-0.00237854,0.00298919,-0.00263695,-0.503779,0.00325038,0.0135688,1511,449,2.92827,8.83422
294,575,2.95129,-8.70233,0.00136741,-0.00131623,-0.00222317,0.00262231,-0.00257114,-0.513881,0.00299848,0.010157,1518,449,2.95124,8.70234
301,575,2.95825,-8.56992,0.000843252,-0.00129229,-0.00208083,0.00211429,-0.00256332,-0.548344,0.00270476,0.00964814,1525,449,2.95831,8.56993
308,575,2.979,-8.42426,0.000382135,-0.00151283,-0.00196672,0.00161771,-0.00274841,-0.560925,0.0025488,0.0107227,1532,449,2.97904,8.42426
315,575,2.96606,-8.27148,7.34796e-05,-0.00150643,-0.00179227,0.00124216,-0.00267511,-0.577827,0.00231153,0.0100497,1539,449,2.96609,8.2715
322,575,2.97839,-8.12796,-0.000190567,-0.00136975,-0.00152128,0.000851376,-0.00241169,-0.600529,0.00195441,0.00899031,1546,449,2.97835,8.12797
329,575,2.97375,-7.99628,-0.000309252,-0.00125614,-0.00122939,0.000534709,-0.0021001,-0.601599,0.00160821,0.0100016,1553,449,2.9737,7.99627
336,575,2.97375,-7.84079,-0.000353951,-0.000949376,-0.000915938,0.000311444,-0.00161477,-0.628266,0.00119395,0.0112608,1560,449,2.97371,7.8408
343,575,3.00769,-7.67984,-0.000410612,-0.000728152,-0.000618237,6.89168e-05,-0.00120768,-0.659709,0.000829048,0.0115397,1567,449,3.00769,7.67983
350,575,3.00256,-7.54187,-0.000446931,-0.000374452,-0.000286098,-0.000122308,-0.000699076,-0.848397,0.000431104,0.0111119,1574,449,3.00256,7.54186
357,575,2.99426,-7.38144,-0.000418729,-4.89763e-05,8.06116e-05,-3.2166e-05,-0.000435539,1.36521,0.000280254,0.0105579,1581,449,2.99429,7.38145
364,575,2.97607,-7.21994,-0.000392906,0.000316658,0.000410462,0.000504415,-0.000580664,1.14178,0.000626986,0.00979992,1588,449,2.97602,7.21993
371,575,2.97021,-7.08856,-0.000392509,0.000707832,0.000740069,0.00107983,-0.000764504,1.10503,0.00107,0.0181947,1595,449,2.97019,7.08857
378,575,2.99048,-6.91031,-0.000437844,0.00105923,0.0010062,0.00156478,-0.000943402,1.1052,0.00146284,0.0180673,1602,449,2.99043,6.91031
385,575,2.96851,-6.72427,-0.000492795,0.00125146,0.00107968,0.00176725,-0.00100859,1.12513,0.00162246,0.0109472,1609,449,2.96846,6.72428
392,575,2.95825,-6.55347,-0.000290027,0.00132739,0.00123199,0.00199239,-0.000955025,1.07584,0.00173647,0.00917652,1616,449,2.95824,6.55348
399,575,2.95679,-6.39587,0.000120925,0.00162895,0.00162822,0.00266927,-0.000919394,1.00224,0.00215246,0.00986849,1623,449,2.95677,6.39586
406,575,2.95703,-6.20889,0.000426712,0.00184547,0.00183282,0.0031014,-0.000829222,0.970041,0.0023924,0.0103706,1630,449,2.95708,6.2089
413,575,2.94556,-6.0275,-0.000355571,0.00294126,0.0019443,0.00384188,-0.00125619,1.13701,0.00306697,0.0105632,1637,449,2.94559,6.02751
420,575,2.92224,-5.82941,-0.0015686,0.00505356,0.00152703,0.00538872,-0.00190376,1.35474,0.00436763,0.0125302,1644,449,2.92226,5.82942
427,575,2.87817,-5.68188,-0.00317914,0.00777775,2.53338e-05,0.00777781,-0.0031792,1.56848,0.0065091,0.01945,1651,449,2.87818,5.68187
434,575,2.81055,-5.57333,-0.00484759,0.0108559,-0.0010337,0.0109237,-0.00491534,-1.50535,0.0093614,0.0277936,1658,449,2.81052,5.57333
441,575,2.99072,-5.39178,-0.00712595,0.0147232,-0.00256746,0.0150208,-0.00742359,-1.45538,0.0132034,0.0424451,1665,449,2.99067,5.39179
448,575,3.21265,-5.16525,0,0,0,0,0,0,0,-1,1672,449,3.21267,5.16525
455,575,3.34387,-4.25815,0,0,0,0,0,0,0,-1,1679,449,3.34389,4.25815
462,575,2.90796,-3.99854,-0.0188456,0.0307272,-0.0103212,0.0327903,-0.0209087,-1.37351,0.031255,0.047585,1686,449,2.90793,3.99853
469,575,2.44849,-3.7377,-0.0238354,0.036908,-0.0142837,0.0400992,-0.0270265,-1.35099,0.0389993,0.0447821,1693,449,2.44854,3.73771
476,575,1.93127,-3.87283,-0.0289391,0.0426819,-0.0191114,0.0474625,-0.0337197,-1.32568,0.0470939,0.0475563,1700,449,1.93131,3.87284
483,575,1.51794,-3.79193,0,0,0,0,0,0,0,-1,1707,449,1.51794,3.79193
490,575,1.07385,-3.62668,0,0,0,0,0,0,0,-1,1714,449,1.07384,3.62667
497,575,0,0,0,0,0,0,0,0,0,-1,1721,449,0,0
504,575,0,0,0,0,0,0,0,0,0,-1,1728,449,0,0
511,575,0,0,0,0,0,0,0,0,0,-1,1735,449,0,0
518,575,0,0,0,0,0,0,0,0,0,-1,1742,449,0,0
525,575,0,0,0,0,0,0,0,0,0,-1,1749,449,0,0
532,575,0,0,0,0,0,0,0,0,0,-1,1756,449,0,0
539,575,0,0,0,0,0,0,0,0,0,-1,1763,449,0,0
546,575,0,0,0,0,0,0,0,0,0,-1,1770,449,0,0
553,575,0,0,0,0,0,0,0,0,0,-1,1777,449,0,0
560,575,0,0,0,0,0,0,0,0,0,-1,1784,449,0,0
567,575,0,0,0,0,0,0,0,0,0,-1,1791,449,0,0
574,575,0,0,0,0,0,0,0,0,0,-1,1798,449,0,0
581,575,0,0,0,0,0,0,0,0,0,-1,1805,449,0,0
588,575,0,0,0,0,0,0,0,0,0,-1,1812,449,0,0
595,575,0,0,0,0,0,0,0,0,0,-1,1819,449,0,0
602,575,0,0,0,0,0,0,0,0,0,-1,1826,449,0,0
609,575,0,0,0,0,0,0,0,0,0,-1,1833,449,0,0
616,575,0,0,0,0,0,0,0,0,0,-1,1840,449,0,0
623,575,0,0,0,0,0,0,0,0,0,-1,1847,449,0,0
630,575,0,0,0,0,0,0,0,0,0,-1,1854,449,0,0
637,575,0,0,0,0,0,0,0,0,0,-1,1861,449,0,0
644,575,0,0,0,0,0,0,0,0,0,-1,1868,449,0,0
651,575,0,0,0,0,0,0,0,0,0,-1,1875,449,0,0
658,575,0,0,0,0,0,0,0,0,0,-1,1882,449,0,0
665,575,0,0,0,0,0,0,0,0,0,-1,1889,449,0,0
672,575,0,0,0,0,0,0,0,0,0,-1,1896,449,0,0
679,575,0,0,0,0,0,0,0,0,0,-1,1903,449,0,0
686,575,0,0,0,0,0,0,0,0,0,-1,1910,449,0,0
693,575,0,0,0,0,0,0,0,0,0,-1,1917,449,0,0
700,575,0,0,0,0,0,0,0,0,0,-1,1924,449,0,0
707,575,0,0,0,0,0,0,0,0,0,-1,1931,449,0,0
714,575,0,0,0,0,0,0,0,0,0,-1,1938,449,0,0
721,575,0,0,0,0,0,0,0,0,0,-1,1945,449,0,0
728,575,0,0,0,0,0,0,0,0,0,-1,1952,449,0,0
735,575,0,0,0,0,0,0,0,0,0,-1,1959,449,0,0
742,575,0,0,0,0,0,0,0,0,0,-1,1966,449,0,0
749,575,0,0,0,0,0,0,0,0,0,-1,1973,449,0,0
756,575,0,0,0,0,0,0,0,0,0,-1,1980,449,0,0
763,575,0,0,0,0,0,0,0,0,0,-1,1987,449,0,0
770,575,0,0,0,0,0,0,0,0,0,-1,1994,449,0,0
777,575,0,0,0,0,0,0,0,0,0,-1,2001,449,0,0
784,575,0,0,0,0,0,0,0,0,0,-1,2008,449,0,0
791,575,0,0,0,0,0,0,0,0,0,-1,2015,449,0,0
798,575,0,0,0,0,0,0,0,0,0,-1,2022,449,0,0
805,575,0,0,0,0,0,0,0,0,0,-1,2029,449,0,0
812,575,0,0,0,0,0,0,0,0,0,-1,2036,449,0,0
-700,568,0,0,0,0,0,0,0,0,0,-1,524,456,0,0
-693,568,0,0,0,0,0,0,0,0,0,-1,531,456,0,0
-686,568,0,0,0,0,0,0,0,0,0,-1,538,456,0,0
-679,568,0,0,0,0,0,0,0,0,0,-1,545,456,0,0
-672,568,0,0,0,0,0,0,0,0,0,-1,552,456,0,0
-665,568,0,0,0,0,0,0,0,0,0,-1,559,456,0,0
-658,568,0,0,0,0,0,0,0,0,0,-1,566,456,0,0
-651,568,0,0,0,0,0,0,0,0,0,-1,573,456,0,0
-644,568,0,0,0,0,0,0,0,0,0,-1,580,456,0,0
-637,568,0,0,0,0,0,0,0,0,0,-1,587,456,0,0
-630,568,0,0,0,0,0,0,0,0,0,-1,594,456,0,0
-623,568,0,0,0,0,0,0,0,0,0,-1,601,456,0,0
-616,568,0,0,0,0,0,0,0,0,0,-1,608,456,0,0
-609,568,0,0,0,0,0,0,0,0,0,-1,615,456,0,0
-602,568,0,0,0,0,0,0,0,0,0,-1,622,456,0,0
-595,568,0,0,0,0,0,0,0,0,0,-1,629,456,0,0
-588,568,0,0,0,0,0,0,0,0,0,-1,636,456,0,0
-581,568,0,0,0,0,0,0,0,0,0,-1,643,456,0,0
-574,568,0,0,0,0,0,0,0,0,0,-1,650,456,0,0
-567,568,0,0,0,0,0,0,0,0,0,-1,657,456,0,0
-560,568,0,0,0,0,0,0,0,0,0,-1,664,456,0,0
-553,568,0,0,0,0,0,0,0,0,0,-1,671,456,0,0
-546,568,0,0,0,0,0,0,0,0,0,-1,678,456,0,0
-539,568,0,0,0,0,0,0,0,0,0,-1,685,456,0,0
-532,568,0,0,0,0,0,0,0,0,0,-1,692,456,0,0
-525,568,0,0,0,0,0,0,0,0,0,-1,699,456,0,0
-518,568,0,0,0,0,0,0,0,0,0,-1,706,456,0,0
-511,568,0,0,0,0,0,0,0,0,0,-1,713,456,0,0
-504,568,0,0,0,0,0,0,0,0,0,-1,720,456,0,0
-497,568,0,0,0,0,0,0,0,0,0,-1,727,456,0,0
-490,568,0,0,0,0,0,0,0,0,0,-1,734,456,0,0
-483,568,0,0,0,0,0,0,0,0,0,-1,741,456,0,0
-476,568,0,0,0,0,0,0,0,0,0,-1,748,456,0,0
-469,568,0,0,0,0,0,0,0,0,0,-1,755,456,0,0
-462,568,0,0,0,0,0,0,0,0,0,-1,762,456,0,0
-455,568,0,0,0,0,0,0,0,0,0,-1,769,456,0,0
-448,568,0,0,0,0,0,0,0,0,0,-1,776,456,0,0
-441,568,0,0,0,0,0,0,0,0,0,-1,783,456,0,0
-434,568,0,0,0,0,0,0,0,0,0,-1,790,456,0,0
-427,568,0,0,0,0,0,0,0,0,0,-1,797,456,0,0
-420,568,0,0,0,0,0,0,0,0,0,-1,804,456,0,0
-413,568,0,0,0,0,0,0,0,0,0,-1,811,456,0,0
-406,568,0,0,0,0,0,0,0,0,0,-1,818,456,0,0
-399,568,0,0,0,0,0,0,0,0,0,-1,825,456,0,0
-392,568,0,0,0,0,0,0,0,0,0,-1,832,456,0,0
-385,568,0,0,0,0,0,0,0,0,0,-1,839,456,0,0
-378,568,0.0559082,-3.97311,0,0,0,0,0,0,0,-1,846,456,0.0559355,3.97311
-371,568,0.428345,-4.25775,0,0,0,0,0,0,0,-1,853,456,0.428339,4.25776
-364,568,1.06445,-4.49878,0,0,0,0,0,0,0,-1,860,456,1.06443,4.49877
-357,568,1.77771,-4.88425,0,0,0,0,0,0,0,-1,867,456,1.7777,4.88425
-350,568,1.60272,-5.48975,0,0,0,0,0,0,0,-1,874,456,1.60272,5.48974
-343,568,1.71948,-5.34241,0,0,0,0,0,0,0,-1,881,456,1.71945,5.34241
-336,568,1.04987,-6.06311,0,0,0,0,0,0,0,-1,888,456,1.04984,6.0631
-329,568,1.16144,-6.18802,-0.00339796,0.0115607,0.0180812,0.0236485,-0.0154857,0.981508,0.0227574,0.0428437,895,456,1.16142,6.18803
-322,568,1.43213,-6.33334,-0.0049348,0.0079483,0.0160072,0.0187615,-0.0157479,0.976692,0.0199493,0.039137,902,456,1.43212,6.33333
-315,568,1.37714,-6.48981,-0.00592494,0.00505917,0.0136306,0.0142626,-0.0151283,0.976909,0.0169713,0.0368136,909,456,1.37711,6.4898
-308,568,1.17548,-6.67529,-0.00648113,0.00271479,0.0113202,0.0103352,-0.0141015,0.978306,0.0141643,0.0283659,916,456,1.17547,6.6753
-301,568,1.12787,-6.84119,-0.00649662,0.00104902,0.00905557,0.00708628,-0.0125339,0.982778,0.0114723,0.0143691,923,456,1.12785,6.84119
-294,568,1.09375,-6.97717,-0.00608644,-8.77125e-05,0.00686719,0.00440656,-0.0105807,0.991296,0.00889428,0.0102598,930,456,1.09373,6.97719
-287,568,1.0766,-7.147,-0.00544412,-0.00074365,0.00494434,0.00238061,-0.00856838,1.00726,0.00664939,0.00920257,937,456,1.07657,7.14701
-280,568,1.073,-7.30914,-0.00467252,-0.000855865,0.00340796,0.00114169,-0.00667007,1.04063,0.00487207,0.00971947,944,456,1.07302,7.30916
-273,568,1.07397,-7.47028,-0.00400966,-0.000605597,0.00207356,0.000375012,-0.00499027,1.12905,0.00345863,0.0106272,951,456,1.07396,7.47028
-266,568,1.05475,-7.64691,-0.00312062,-0.000242515,0.00104415,9.63891e-05,-0.00345952,1.25695,0.00233914,0.0105742,958,456,1.05474,7.64692
-259,568,1.05133,-7.79391,-0.00203383,-0.000152212,-5.26619e-05,-0.000150739,-0.0020353,-1.54284,0.00130952,0.0118761,965,456,1.05132,7.79392
-252,568,1.04218,-7.9245,-0.00108003,0.000131516,-0.000507612,0.000316079,-0.00126459,-1.22207,0.000965817,0.0117035,972,456,1.04216,7.92451
-245,568,1.04449,-8.05664,-0.00058201,0.000517247,-0.000389869,0.00064148,-0.000706243,-1.26232,0.000778408,0.0134506,979,456,1.04448,8.05665
-238,568,1.04224,-8.20728,5.23721e-05,0.000675641,-0.000258374,0.000768819,-4.08058e-05,-1.22468,0.000526675,0.0120023,986,456,1.04223,8.20726
-231,568,1.0473,-8.3476,0.000531075,0.000305546,0.000151681,0.000607316,0.000229306,0.465756,0.00035412,0.00983972,993,456,1.04732,8.3476
-224,568,1.05505,-8.4563,0.000634973,-0.000386578,0.000643725,0.000945948,-0.000697553,0.450025,0.000952482,0.011548,1000,456,1.05508,8.45631
-217,568,1.08453,-8.591,0.000772465,-0.00117659,0.00118567,0.00133271,-0.00173683,0.441416,0.00177731,0.0106856,1007,456,1.08451,8.59101
-210,568,1.09149,-8.72098,0.000885701,-0.00216059,0.00175292,0.00168477,-0.00295966,0.42771,0.00271493,0.0102061,1014,456,1.09151,8.72097
-203,568,1.07605,-8.86594,0.00108421,-0.00307059,0.00223633,0.00205914,-0.00404553,0.411112,0.00358619,0.00882277,1021,456,1.07604,8.86593
-196,568,1.09167,-8.97308,0.00122793,-0.00321056,0.00271023,0.0025116,-0.00449423,0.442336,0.00409845,0.0110948,1028,456,1.09165,8.97309
-189,568,1.08813,-9.09015,0.00116646,-0.00277707,0.00331446,0.00305132,-0.00466193,0.517068,0.00448549,0.0117649,1035,456,1.08808,9.09016
-182,568,1.09668,-9.20642,0.00116487,-0.00238219,0.00378313,0.00356955,-0.00478687,0.56621,0.00484162,0.0138618,1042,456,1.0967,9.20643
-175,568,1.11951,-9.32486,0.00104936,-0.00164878,0.00423417,0.00414419,-0.0047436,0.631175,0.00513526,0.012308,1049,456,1.11948,9.32485
-168,568,1.1095,-9.42484,0.000773696,-0.000658609,0.00438587,0.0045015,-0.00438641,0.704469,0.00513158,0.0159987,1056,456,1.10947,9.42484
-161,568,1.08459,-9.51276,0.000439004,0.000547209,0.00443648,0.00492992,-0.00394371,0.791495,0.00513373,0.0238742,1063,456,1.08463,9.51275
-154,568,1.1405,-9.73599,0.000257798,0.00211857,0.00420796,0.00549777,-0.00312141,0.894198,0.00503894,0.0325435,1070,456,1.14048,9.73598
-147,568,1.16113,-9.83362,0.000116797,0.00380176,0.00392487,0.0062951,-0.00237654,1.00485,0.00517416,0.0400106,1077,456,1.16111,9.83362
-140,568,1.12183,-10.0021,-0.00016103,0.00527546,0.00344184,0.00694301,-0.00182857,1.11963,0.00534353,0.0439565,1084,456,1.12187,10.0021
-133,568,0.955078,-10.2186,0,0,0,0,0,0,0,-1,1091,456,0.955032,10.2186
-126,568,1.3009,-9.4772,0,0,0,0,0,0,0,-1,1098,456,1.30087,9.47721
-119,568,1.30481,-9.47635,0,0,0,0,0,0,0,-1,1105,456,1.30482,9.47635
-112,568,1.07361,-9.76785,0,0,0,0,0,0,0,-1,1112,456,1.07355,9.76786
-105,568,1.27783,-10.3012,0,0,0,0,0,0,0,-1,1119,456,1.27782,10.3012
-98,568,1.21753,-10.2556,0,0,0,0,0,0,0,-1,1126,456,1.21749,10.2556
-91,568,1.52979,-6.79303,0,0,0,0,0,0,0,-1,1133,456,1.52976,6.79303
-84,568,0.461792,-9.7959,0,0,0,0,0,0,0,-1,1140,456,0.461793,9.7959
-77,568,-1.13806,-8.57822,0,0,0,0,0,0,0,-1,1147,456,-1.13807,8.57821
-70,568,-4.09766,-1.42911,0,0,0,0,0,0,0,-1,1154,456,-4.09767,1.4291
-63,568,-5.92273,-3.70752,0,0,0,0,0,0,0,-1,1161,456,-5.92272,3.70751
-56,568,-5.24158,-6.01385,0,0,0,0,0,0,0,-1,1168,456,-5.24161,6.01386
-49,568,-5.24365,-8.33557,0,0,0,0,0,0,0,-1,1175,456,-5.24371,8.33557
-42,568,-0.664795,0.521973,0,0,0,0,0,0,0,-1,1182,456,-0.664829,-0.521984
-35,568,-0.153076,-1.67731,0,0,0,0,0,0,0,-1,1189,456,-0.153068,1.67731
-28,568,1.25439,-4.48798,0,0,0,0,0,0,0,-1,1196,456,1.2544,4.48797
-21,568,0.67749,-12.1535,0,0,0,0,0,0,0,-1,1203,456,0.677509,12.1535
-14,568,0.554199,-11.7061,0,0,0,0,0,0,0,-1,1210,456,0.554181,11.7061
-7,568,4.2489,-8.15137,0,0,0,0,0,0,0,-1,1217,456,4.24886,8.15136
0,568,4.00354,-7.68661,0,0,0,0,0,0,0,-1,1224,456,4.00349,7.68661
7,568,3.59229,-8.06165,0,0,0,0,0,0,0,-1,1231,456,3.59225,8.06164
14,568,2.15747,-9.96646,0,0,0,0,0,0,0,-1,1238,456,2.15744,9.96646
21,568,2.26965,-10.4068,0,0,0,0,0,0,0,-1,1245,456,2.26965,10.4068
28,568,2.24036,-10.5204,0.0252431,-0.037251,-0.0219623,0.0321892,-0.0441971,-0.306321,0.0442829,0.0411581,1252,456,2.24032,10.5204
35,568,2.14172,-11.1278,0.0261567,-0.0291398,-0.020444,0.0328943,-0.0358774,-0.318352,0.0397178,0.0434892,1259,456,2.14177,11.1278
42,568,1.70764,-11.8149,0.0295393,-0.0221811,-0.0172167,0.0347462,-0.027388,-0.293687,0.035957,0.0415386,1266,456,1.70762,11.8149
49,568,2.04224,-11.5914,0.0373691,-0.0138165,-0.0150307,0.0414564,-0.0179039,-0.265515,0.0351594,0.0445393,1273,456,2.04223,11.5914
56,568,2.46143,-11.6684,0.0451607,-0.00305908,-0.0112339,0.0476494,-0.00554781,-0.218017,0.0337678,0.0450688,1280,456,2.4614,11.6684
63,568,2.97656,-12.1144,0.0527564,0.0104501,-0.00723044,0.053958,0.00924853,-0.164682,0.0333198,0.0483445,1287,456,2.9766,12.1144
70,568,3.48218,-12.5543,0,0,0,0,0,0,0,-1,1294,456,3.48221,12.5543
77,568,4.47241,-13.2354,0.0736872,0.0446468,-0.00510651,0.074559,0.0437751,-0.169087,0.0432639,0.0448618,1301,456,4.47236,13.2354
84,568,4.70911,-14.3385,0.0822366,0.0582494,-0.00454017,0.0830672,0.0574188,-0.180939,0.0491142,0.0455863,1308,456,4.7091,14.3385
91,568,4.75659,-14.5034,0.090919,0.0743724,-0.00467459,0.0921483,0.0731431,-0.257152,0.0561791,0.0423807,1315,456,4.75654,14.5034
98,568,5.15417,-14.9506,0.0964,0.0853863,-0.00666519,0.099539,0.0822473,-0.440138,0.0614123,0.0473877,1322,456,5.15422,14.9506
105,568,5.53674,-15.4057,0,0,0,0,0,0,0,-1,1329,456,5.53678,15.4057
112,568,5.14014,-16.9789,0.0983534,0.0951096,-0.0141608,0.110985,0.0824782,-0.728379,0.0665548,0.0442808,1336,456,5.14012,16.9788
119,568,8.20422,-16.4628,0.0964299,0.0951648,-0.0189783,0.114786,0.0768085,-0.768739,0.067524,0.0430665,1343,456,8.20427,16.4628
126,568,8.85449,-17.0987,0,0,0,0,0,0,0,-1,1350,456,8.85443,17.0986
133,568,6.11157,-20.094,0,0,0,0,0,0,0,-1,1357,456,6.11158,20.094
140,568,4.18433,-11.9583,0,0,0,0,0,0,0,-1,1364,456,4.18429,11.9584
147,568,4.89136,-11.4262,0.0636866,0.0354168,-0.0293529,0.0821307,0.0169727,-0.561009,0.0500646,0.0442154,1371,456,4.8913,11.4262
154,568,4.86792,-10.8735,0.0505587,0.0133226,-0.0262425,0.0641168,-0.00023542,-0.476874,0.0428232,0.0430956,1378,456,4.8679,10.8735
161,568,4.83813,-10.4826,0,0,0,0,0,0,0,-1,1385,456,4.8381,10.4826
168,568,9.09583,-0.563782,0,0,0,0,0,0,0,-1,1392,456,9.09586,0.563788
175,568,10.5151,0.747498,0,0,0,0,0,0,0,-1,1399,456,10.5152,-0.747501
182,568,6.35095,-3.63361,0,0,0,0,0,0,0,-1,1406,456,6.35093,3.63359
189,568,6.17493,-1.70911,0,0,0,0,0,0,0,-1,1413,456,6.17497,1.70911
196,568,6.04724,0.200836,0,0,0,0,0,0,0,-1,1420,456,6.04724,-0.200835
203,568,5.9281,2.08649,0,0,0,0,0,0,0,-1,1427,456,5.92812,-2.08648
210,568,1.46216,-2.50446,0,0,0,0,0,0,0,-1,1434,456,1.46219,2.50446
217,568,2.62366,-7.86703,0,0,0,0,0,0,0,-1,1441,456,2.62365,7.86704
224,568,1.89819,-7.62418,0,0,0,0,0,0,0,-1,1448,456,1.89817,7.62418
231,568,4.38245,-9.3205,0,0,0,0,0,0,0,-1,1455,456,4.38244,9.32048
238,568,3.88123,-9.43616,0,0,0,0,0,0,0,-1,1462,456,3.88117,9.43617
245,568,3.55066,-8.6441,0,0,0,0,0,0,0,-1,1469,456,3.55063,8.6441
252,568,3.55286,-8.37546,0,0,0,0,0,0,0,-1,1476,456,3.5529,8.37544
259,568,3.38843,-8.73068,0,0,0,0,0,0,0,-1,1483,456,3.38842,8.73068
266,568,3.104,-9.16876,0,0,0,0,0,0,0,-1,1490,456,3.10397,9.16876
273,568,3.05359,-9.21542,0,0,0,0,0,0,0,-1,1497,456,3.05361,9.21542
280,568,3.01965,-8.96881,0,0,0,0,0,0,0,-1,1504,456,3.0196,8.9688
287,568,3.11096,-8.82257,0.00214407,-0.00205424,-0.0033179,0.0039711,-0.00388127,-0.503348,0.00453366,0.0362437,1511,456,3.11091,8.82258
294,568,3.15454,-8.72076,0.00175354,-0.00201115,-0.00307532,0.00347686,-0.00373447,-0.510771,0.00416435,0.0263056,1518,456,3.15451,8.72078
301,568,3.12988,-8.57379,0.00104397,-0.00205076,-0.00293008,0.00281017,-0.00381696,-0.542462,0.00384086,0.0197977,1525,456,3.12993,8.5738
308,568,3.11243,-8.4259,0.000346525,-0.002409,-0.00287562,0.0021574,-0.00421988,-0.561997,0.00374556,0.0121062,1532,456,3.11246,8.4259
315,568,3.11597,-8.29175,-0.000152673,-0.00244175,-0.00271574,0.00164986,-0.00424428,-0.58597,0.00351115,0.00745486,1539,456,3.11594,8.29176
322,568,3.11914,-8.15057,-0.000567415,-0.00230985,-0.00242925,0.00114212,-0.00401938,-0.613225,0.00313053,0.00911057,1546,456,3.11909,8.15056
329,568,3.12256,-8.00388,-0.000778881,-0.00218617,-0.00214501,0.000774948,-0.00374,-0.62691,0.00278778,0.010398,1553,456,3.12256,8.00387
336,568,3.1344,-7.83444,-0.000860845,-0.00183079,-0.00183954,0.000556575,-0.00324821,-0.656511,0.00237286,0.0106291,1560,456,3.13446,7.83445
343,568,3.1665,-7.67807,-0.000956355,-0.00161716,-0.00154451,0.000292699,-0.00286621,-0.680026,0.00201547,0.0111904,1567,456,3.16656,7.67808
350,568,3.15417,-7.54483,-0.00101886,-0.00125339,-0.00120749,7.70444e-05,-0.00234929,-0.736992,0.0015925,0.0100241,1574,456,3.15414,7.54482
357,568,3.13855,-7.38943,-0.000941854,-0.000939423,-0.000819488,-0.000121149,-0.00176013,-0.78614,0.00113519,0.00893162,1581,456,3.13857,7.38945
364,568,3.14246,-7.24506,-0.000830925,-0.000534315,-0.000462082,-0.000197322,-0.00116792,-0.940681,0.000721884,0.0107949,1588,456,3.14249,7.24505
371,568,3.12915,-7.07721,-0.000733388,-0.000108515,-9.29069e-05,-9.49939e-05,-0.000746909,-1.42628,0.000469489,0.019049,1595,456,3.12915,7.07719
378,568,3.14319,-6.88611,-0.000636657,0.000321207,0.000246381,0.000380866,-0.000696315,1.33323,0.000630737,0.0189828,1602,456,3.14316,6.88612
385,568,3.13391,-6.72495,-0.000566928,0.00058253,0.000402141,0.00070925,-0.000693647,1.26553,0.00080998,0.00961669,1609,456,3.13393,6.72494
392,568,3.11365,-6.56366,-0.000326913,0.000747672,0.000598358,0.00101457,-0.000593807,1.15124,0.000939126,0.0106803,1616,456,3.11363,6.56367
399,568,3.10205,-6.43307,8.74361e-05,0.00108273,0.00102529,0.00172476,-0.000554595,1.01134,0.00137258,0.0170752,1623,456,3.10206,6.43308
406,568,3.125,-6.22504,0.000416146,0.00139444,0.00131107,0.00230464,-0.000494054,0.963945,0.00172486,0.0148133,1630,456,3.12502,6.22503
413,568,3.12549,-6.00558,-8.94539e-05,0.00235903,0.00149972,0.00307074,-0.000801167,1.1277,0.00235999,0.010798,1637,456,3.12549,6.00557
420,568,3.10742,-5.82642,-0.000909858,0.00402527,0.00124853,0.00432315,-0.00120774,1.33659,0.00335788,0.00951897,1644,456,3.10742,5.82642
427,568,3.10083,-5.63882,-0.00201604,0.00609547,0.000186833,0.00609977,-0.00202034,1.54778,0.00488137,0.0117433,1651,456,3.10086,5.63882
434,568,3.10974,-5.50949,-0.00317484,0.00838454,-0.000518341,0.00840773,-0.00319804,-1.52607,0.00692197,0.0144977,1658,456,3.10972,5.50949
441,568,3.09448,-5.37421,-0.00477033,0.0112394,-0.00155853,0.0113897,-0.00492064,-1.47465,0.00966054,0.0217098,1665,456,3.09452,5.37422
448,568,3.38037,-4.87009,-0.00701292,0.01475,-0.00295304,0.0151436,-0.0074065,-1.4383,0.0132723,0.0400418,1672,456,3.38038,4.87008
455,568,3.51306,-4.57193,0,0,0,0,0,0,0,-1,1679,456,3.51308,4.57193
462,568,3.12561,-4.32278,-0.0130813,0.022929,-0.00726839,0.0243407,-0.0144931,-1.37896,0.0226597,0.0472169,1686,456,3.12556,4.32279
469,568,2.84436,-4.17923,-0.0164835,0.0274332,-0.0101188,0.0296525,-0.0187028,-1.35489,0.0281555,0.0404289,1693,456,2.84433,4.17922
476,568,2.79297,-4.30838,-0.0199346,0.031615,-0.013556,0.0349625,-0.0232821,-1.3287,0.0338521,0.04594,1700,456,2.79297,4.30837
483,568,2.78064,-4.29929,0,0,0,0,0,0,0,-1,1707,456,2.78065,4.29928
490,568,5.52991,-3.68573,0,0,0,0,0,0,0,-1,1714,456,5.52992,3.68573
497,568,6.58289,-3.47745,0,0,0,0,0,0,0,-1,1721,456,6.58294,3.47744
504,568,0,0,0,0,0,0,0,0,0,-1,1728,456,0,0
511,568,0,0,0,0,0,0,0,0,0,-1,1735,456,0,0
518,568,0,0,0,0,0,0,0,0,0,-1,1742,456,0,0
525,568,0,0,0,0,0,0,0,0,0,-1,1749,456,0,0
532,568,0,0,0,0,0,0,0,0,0,-1,1756,456,0,0
539,568,0,0,0,0,0,0,0,0,0,-1,1763,456,0,0
546,568,0,0,0,0,0,0,0,0,0,-1,1770,456,0,0
553,568,0,0,0,0,0,0,0,0,0,-1,1777,456,0,0
560,568,0,0,0,0,0,0,0,0,0,-1,1784,456,0,0
567,568,0,0,0,0,0,0,0,0,0,-1,1791,456,0,0
574,568,0,0,0,0,0,0,0,0,0,-1,1798,456,0,0
581,568,0,0,0,0,0,0,0,0,0,-1,1805,456,0,0
588,568,0,0,0,0,0,0,0,0,0,-1,1812,456,0,0
595,568,0,0,0,0,0,0,0,0,0,-1,1819,456,0,0
602,568,0,0,0,0,0,0,0,0,0,-1,1826,456,0,0
609,568,0,0,0,0,0,0,0,0,0,-1,1833,456,0,0
616,568,0,0,0,0,0,0,0,0,0,-1,1840,456,0,0
623,568,0,0,0,0,0,0,0,0,0,-1,1847,456,0,0
630,568,0,0,0,0,0,0,0,0,0,-1,1854,456,0,0
637,568,0,0,0,0,0,0,0,0,0,-1,1861,456,0,0
644,568,0,0,0,0,0,0,0,0,0,-1,1868,456,0,0
651,568,0,0,0,0,0,0,0,0,0,-1,1875,456,0,0
658,568,0,0,0,0,0,0,0,0,0,-1,1882,456,0,0
665,568,0,0,0,0,0,0,0,0,0,-1,1889,456,0,0
672,568,0,0,0,0,0,0,0,0,0,-1,1896,456,0,0
679,568,0,0,0,0,0,0,0,0,0,-1,1903,456,0,0
686,568,0,0,0,0,0,0,0,0,0,-1,1910,456,0,0
693,568,0,0,0,0,0,0,0,0,0,-1,1917,456,0,0
700,568,0,0,0,0,0,0,0,0,0,-1,1924,456,0,0
707,568,0,0,0,0,0,0,0,0,0,-1,1931,456,0,0
714,568,0,0,0,0,0,0,0,0,0,-1,1938,456,0,0
721,568,0,0,0,0,0,0,0,0,0,-1,1945,456,0,0
728,568,0,0,0,0,0,0,0,0,0,-1,1952,456,0,0
735,568,0,0,0,0,0,0,0,0,0,-1,1959,456,0,0
742,568,0,0,0,0,0,0,0,0,0,-1,1966,456,0,0
749,568,0,0,0,0,0,0,0,0,0,-1,1973,456,0,0
756,568,0,0,0,0,0,0,0,0,0,-1,1980,456,0,0
763,568,0,0,0,0,0,0,0,0,0,-1,1987,456,0,0
770,568,0,0,0,0,0,0,0,0,0,-1,1994,456,0,0
777,568,0,0,0,0,0,0,0,0,0,-1,2001,456,0,0
784,568,0,0,0,0,0,0,0,0,0,-1,2008,456,0,0
791,568,0,0,0,0,0,0,0,0,0,-1,2015,456,0,0
798,568,0,0,0,0,0,0,0,0,0,-1,2022,456,0,0
805,568,0,0,0,0,0,0,0,0,0,-1,2029,456,0,0
812,568,0,0,0,0,0,0,0,0,0,-1,2036,456,0,0
-700,561,0,0,0,0,0,0,0,0,0,-1,524,463,0,0
-693,561,0,0,0,0,0,0,0,0,0,-1,531,463,0,0
-686,561,0,0,0,0,0,0,0,0,0,-1,538,463,0,0
-679,561,0,0,0,0,0,0,0,0,0,-1,545,463,0,0
-672,561,0,0,0,0,0,0,0,0,0,-1,552,463,0,0
-665,561,0,0,0,0,0,0,0,0,0,-1,559,463,0,0
-658,561,0,0,0,0,0,0,0,0,0,-1,566,463,0,0
-651,561,0,0,0,0,0,0,0,0,0,-1,573,463,0,0
-644,561,0,0,0,0,0,0,0,0,0,-1,580,463,0,0
-637,561,0,0,0,0,0,0,0,0,0,-1,587,463,0,0
-630,561,0,0,0,0,0,0,0,0,0,-1,594,463,0,0
-623,561,0,0,0,0,0,0,0,0,0,-1,601,463,0,0
-616,561,0,0,0,0,0,0,0,0,0,-1,608,463,0,0
-609,561,0,0,0,0,0,0,0,0,0,-1,615,463,0,0
-602,561,0,0,0,0,0,0,0,0,0,-1,622,463,0,0
-595,561,0,0,0,0,0,0,0,0,0,-1,629,463,0,0
-588,561,0,0,0,0,0,0,0,0,0,-1,636,463,0,0
-581,561,0,0,0,0,0,0,0,0,0,-1,643,463,0,0
-574,561,0,0,0,0,0,0,0,0,0,-1,650,463,0,0
-567,561,0,0,0,0,0,0,0,0,0,-1,657,463,0,0
-560,561,0,0,0,0,0,0,0,0,0,-1,664,463,0,0
-553,561,0,0,0,0,0,0,0,0,0,-1,671,463,0,0
-546,561,0,0,0,0,0,0,0,0,0,-1,678,463,0,0
-539,561,0,0,0,0,0,0,0,0,0,-1,685,463,0,0
-532,561,0,0,0,0,0,0,0,0,0,-1,692,463,0,0
-525,561,0,0,0,0,0,0,0,0,0,-1,699,463,0,0
-518,561,0,0,0,0,0,0,0,0,0,-1,706,463,0,0
-511,561,0,0,0,0,0,0,0,0,0,-1,713,463,0,0
-504,561,0,0,0,0,0,0,0,0,0,-1,720,463,0,0
-497,561,0,0,0,0,0,0,0,0,0,-1,727,463,0,0
-490,561,0,0,0,0,0,0,0,0,0,-1,734,463,0,0
-483,561,0,0,0,0,0,0,0,0,0,-1,741,463,0,0
-476,561,0,0,0,0,0,0,0,0,0,-1,748,463,0,0
-469,561,0,0,0,0,0,0,0,0,0,-1,755,463,0,0
-462,561,0,0,0,0,0,0,0,0,0,-1,762,463,0,0
-455,561,0,0,0,0,0,0,0,0,0,-1,769,463,0,0
-448,561,0,0,0,0,0,0,0,0,0,-1,776,463,0,0
-441,561,0,0,0,0,0,0,0,0,0,-1,783,463,0,0
-434,561,0,0,0,0,0,0,0,0,0,-1,790,463,0,0
-427,561,0,0,0,0,0,0,0,0,0,-1,797,463,0,0
-420,561,0,0,0,0,0,0,0,0,0,-1,804,463,0,0
-413,561,0,0,0,0,0,0,0,0,0,-1,811,463,0,0
-406,561,0,0,0,0,0,0,0,0,0,-1,818,463,0,0
-399,561,0,0,0,0,0,0,0,0,0,-1,825,463,0,0
-392,561,-0.498413,-4.28265,0,0,0,0,0,0,0,-1,832,463,-0.49843,4.28265
-385,561,-0.50647,-4.17508,0,0,0,0,0,0,0,-1,839,463,-0.506441,4.17507
-378,561,-0.194885,-3.97186,0,0,0,0,0,0,0,-1,846,463,-0.194871,3.97187
-371,561,0.185974,-4.26169,0,0,0,0,0,0,0,-1,853,463,0.185967,4.2617
-364,561,0.57135,-4.56784,0,0,0,0,0,0,0,-1,860,463,0.571359,4.56785
-357,561,1.47864,-5.69629,0,0,0,0,0,0,0,-1,867,463,1.47864,5.69629
-350,561,1.30566,-5.60342,-0.00194014,0.020196,0.0172436,0.029618,-0.0113622,1.07072,0.0244299,0.0470784,874,463,1.30566,5.60343
-343,561,1.25446,-5.53802,-0.000588533,0.0150718,0.0145922,0.0238019,-0.00931866,1.03165,0.0197222,0.0449099,881,463,1.25445,5.53804
-336,561,1.56464,-5.45969,0,0,0,0,0,0,0,-1,888,463,1.56461,5.4597
-329,561,0.891663,-6.24609,-0.00268719,0.00784305,0.0119318,0.0156198,-0.0104639,0.993182,0.0151572,0.0320735,895,463,0.891684,6.2461
-322,561,0.983704,-6.38165,-0.00364654,0.00524497,0.0105134,0.012214,-0.0106155,0.985429,0.0131914,0.026707,902,463,0.983699,6.38165
-315,561,1.02332,-6.47174,-0.00427052,0.0032009,0.00892613,0.00914151,-0.0102111,0.98358,0.0111789,0.0201444,909,463,1.02331,6.47175
-308,561,0.977051,-6.64905,-0.00463095,0.00152044,0.00742147,0.0064783,-0.00958882,0.981841,0.00933412,0.0155627,916,463,0.977034,6.64905
-301,561,0.950684,-6.83582,-0.0045815,0.000403727,0.00589288,0.00430949,-0.00848726,0.98548,0.00751831,0.0118925,923,463,0.9507,6.8358
-294,561,0.926758,-6.98203,-0.00420908,-0.000448868,0.00439689,0.00245301,-0.00711096,0.987433,0.0057359,0.00978247,930,463,0.926771,6.98201
-287,561,0.910645,-7.13971,-0.00368541,-0.000895502,0.00309926,0.00110827,-0.00568918,0.996863,0.00421111,0.00847629,937,463,0.910645,7.13969
-280,561,0.915466,-7.29245,-0.00299559,-0.0009453,0.00206242,0.0003327,-0.00427359,1.01604,0.00296619,0.0114018,944,463,0.915495,7.29246
-273,561,0.911316,-7.44641,-0.00245427,-0.000777285,0.00120799,-0.000145298,-0.00308625,1.08878,0.00201082,0.0136907,951,463,0.911328,7.4464
-266,561,0.91449,-7.61319,-0.00176086,-0.000523531,0.000564473,-0.000304713,-0.00197967,1.20098,0.00123085,0.00913885,958,463,0.914481,7.6132
-259,561,0.903687,-7.76471,-0.000893805,-0.000410962,-6.75319e-05,-0.000401694,-0.000903073,-1.43442,0.000522447,0.009721,965,463,0.903695,7.76471
-252,561,0.899658,-7.90881,-0.000184158,-0.000244693,-0.000230693,1.82446e-05,-0.000447095,-0.720169,0.000304327,0.0133289,972,463,0.89965,7.90881
-245,561,0.897034,-8.04526,0.000145518,-9.65313e-05,-3.95059e-06,0.000145582,-9.65958e-05,-0.0163156,0.000140772,0.0158184,979,463,0.897032,8.04525
-238,561,0.907959,-8.1983,0.000559342,-0.000276516,0.000284728,0.000647116,-0.000364289,0.299027,0.000591496,0.0126146,986,463,0.907952,8.19831
-231,561,0.912781,-8.34512,0.000945702,-0.000959339,0.000803013,0.00123902,-0.00125266,0.35022,0.00143858,0.00971285,993,463,0.912763,8.34513
-224,561,0.916565,-8.48706,0.00104308,-0.0017457,0.00139774,0.00162302,-0.00232565,0.393299,0.00229177,0.00974729,1000,463,0.916563,8.48705
-217,561,0.94873,-8.6069,0.00117805,-0.00265598,0.00206166,0.00207624,-0.00355417,0.410869,0.00328784,0.0102387,1007,463,0.948714,8.60691
-210,561,0.96637,-8.72794,0.00133153,-0.00380473,0.00275099,0.00252681,-0.00500001,0.409881,0.00442312,0.0112835,1014,463,0.966385,8.72793
-203,561,0.967163,-8.87204,0.00156902,-0.0049262,0.00335956,0.00299405,-0.00635124,0.40117,0.00551033,0.012609,1021,463,0.967166,8.87203
-196,561,0.946411,-8.99768,0.00174272,-0.0051295,0.00397927,0.00356413,-0.00695091,0.429258,0.00617493,0.012834,1028,463,0.94647,8.99768
-189,561,0.936646,-9.10309,0.00164816,-0.0045608,0.00477597,0.00423997,-0.00715261,0.497203,0.00664877,0.014509,1035,463,0.936675,9.1031
-182,561,0.947754,-9.24811,0.00162578,-0.00410121,0.00541589,0.00488858,-0.00736401,0.542218,0.00712199,0.0164559,1042,463,0.94778,9.2481
-175,561,0.98291,-9.39072,0.00153906,-0.00311622,0.00601389,0.00566004,-0.0072372,0.600754,0.00746477,0.0258801,1049,463,0.982947,9.39072
-168,561,1.01965,-9.48511,0.00121262,-0.0017931,0.00626874,0.00615613,-0.00673661,0.667749,0.00744614,0.0388759,1056,463,1.01968,9.4851
-161,561,0.911377,-9.43738,0.000682578,-7.15109e-05,0.00640098,0.00671761,-0.00610654,0.75598,0.00740683,0.0416088,1063,463,0.911389,9.43738
-154,561,0.746948,-9.70212,0.000269367,0.00230081,0.00612046,0.00748926,-0.00491909,0.867626,0.00721501,0.0427539,1070,463,0.746963,9.70213
-147,561,0.7229,-10.3769,-9.01824e-05,0.00495301,0.00569788,0.00866232,-0.0037995,0.993719,0.00737517,0.0462005,1077,463,0.722941,10.3769
-140,561,0.542969,-10.4558,-0.000640349,0.00751927,0.00499456,0.00988853,-0.00300961,1.12786,0.00779178,0.0492226,1084,463,0.542994,10.4558
-133,561,0.363892,-10.474,0,0,0,0,0,0,0,-1,1091,463,0.363924,10.474
-126,561,0.151367,-9.30923,0,0,0,0,0,0,0,-1,1098,463,0.151417,9.30923
-119,561,2.01538,-9.17401,0,0,0,0,0,0,0,-1,1105,463,2.0154,9.17402
-112,561,1.86108,-8.67709,0,0,0,0,0,0,0,-1,1112,463,1.86106,8.6771
-105,561,1.69824,-8.1608,0,0,0,0,0,0,0,-1,1119,463,1.69822,8.1608
-98,561,1.5387,-7.54352,0,0,0,0,0,0,0,-1,1126,463,1.53871,7.54351
-91,561,1.29553,-6.57968,0,0,0,0,0,0,0,-1,1133,463,1.29549,6.5797
-84,561,1.23364,-5.84555,0,0,0,0,0,0,0,-1,1140,463,1.23363,5.84556
-77,561,-2.36023,1.00204,0,0,0,0,0,0,0,-1,1147,463,-2.3602,-1.00205
-70,561,-3.90015,-1.41541,0,0,0,0,0,0,0,-1,1154,463,-3.90009,1.4154
-63,561,-6.41077,-3.87982,0,0,0,0,0,0,0,-1,1161,463,-6.41074,3.87982
-56,561,-5.37988,-6.66855,0,0,0,0,0,0,0,-1,1168,463,-5.37988,6.66854
-49,561,-5.7439,-9.11029,0,0,0,0,0,0,0,-1,1175,463,-5.74387,9.1103
-42,561,-1.72644,-5.63065,0,0,0,0,0,0,0,-1,1182,463,-1.72648,5.63064
-35,561,-1.65674,-4.87994,0,0,0,0,0,0,0,-1,1189,463,-1.6567,4.87993
-28,561,-1.91418,-3.86896,0,0,0,0,0,0,0,-1,1196,463,-1.91414,3.86895
-21,561,-0.554443,-12.6676,0,0,0,0,0,0,0,-1,1203,463,-0.554392,12.6676
-14,561,-0.569946,-12.357,0,0,0,0,0,0,0,-1,1210,463,-0.569943,12.357
-7,561,-0.585449,-12.0464,0,0,0,0,0,0,0,-1,1217,463,-0.585495,12.0464
0,561,4.43335,-7.66449,0,0,0,0,0,0,0,-1,1224,463,4.43341,7.6645
7,561,3.65271,-7.90839,0,0,0,0,0,0,0,-1,1231,463,3.65276,7.90838
14,561,1.42859,-7.98685,0,0,0,0,0,0,0,-1,1238,463,1.42853,7.98684
21,561,1.63586,-9.16238,0,0,0,0,0,0,0,-1,1245,463,1.63591,9.16238
28,561,2.01599,-10.1568,0.0183031,-0.0511151,-0.0275496,0.0279076,-0.0607197,-0.335452,0.0523249,0.0438502,1252,463,2.01602,10.1568
35,561,2.46399,-10.7126,0.0179141,-0.0416541,-0.0249607,0.0269904,-0.0507304,-0.348759,0.0455645,0.0400372,1259,463,2.46401,10.7126
42,561,2.50415,-10.8831,0.0189675,-0.034797,-0.0188515,0.0249187,-0.0407482,-0.305786,0.0382782,0.0422672,1266,463,2.50419,10.8831
49,561,1.94958,-11.6613,0.0269068,-0.0257196,-0.0150156,0.0308897,-0.0297025,-0.259279,0.0349851,0.042979,1273,463,1.94964,11.6613
56,561,2.27649,-11.585,0.0363908,-0.0169889,-0.0101575,0.0382583,-0.0188565,-0.181825,0.0336034,0.043289,1280,463,2.27652,11.585
63,561,2.67419,-12.1057,0.0451605,-0.00513566,-0.00467234,0.0455909,-0.00556602,-0.0918493,0.032409,0.046662,1287,463,2.67422,12.1057
70,561,3.203,-12.6223,0.056357,0.00943322,0.00049459,0.0563622,0.009428,0.0105387,0.0348597,0.0497097,1294,463,3.20299,12.6223
77,561,3.67798,-13.3352,0.0669867,0.0223813,0.00190418,0.0670678,0.0223001,0.0425861,0.0394392,0.0464261,1301,463,3.67795,13.3352
84,561,3.91699,-13.871,0.0765246,0.0321109,0.00349455,0.0767979,0.0318377,0.0780417,0.0445545,0.0428783,1308,463,3.91696,13.871
91,561,4.18396,-14.3358,0.0869706,0.0451205,0.00436566,0.0874212,0.0446699,0.102841,0.0504767,0.0413503,1315,463,4.18401,14.3358
98,561,4.47839,-14.9992,0.0943442,0.0528307,0.00304118,0.0945658,0.0526091,0.0727401,0.0547129,0.0442751,1322,463,4.47842,14.9992
105,561,4.55798,-15.7648,0,0,0,0,0,0,0,-1,1329,463,4.55802,15.7648
112,561,4.42542,-16.3691,0.0992083,0.0596377,-0.00440183,0.099692,0.059154,-0.109457,0.0578908,0.0487366,1336,463,4.42544,16.3692
119,561,4.50525,-17.2572,0.0988264,0.0602559,-0.00969604,0.101127,0.0579556,-0.23293,0.0585931,0.044913,1343,463,4.50525,17.2572
126,561,4.99768,-18.4114,0.0943551,0.0550434,-0.0153384,0.0996315,0.049767,-0.331322,0.0575223,0.043622,1350,463,4.9977,18.4114
133,561,5.4967,-19.514,0.0856762,0.0435624,-0.020058,0.0937005,0.0355381,-0.380554,0.0546211,0.0490525,1357,463,5.49666,19.514
140,561,5.87488,-11.5816,0,0,0,0,0,0,0,-1,1364,463,5.8749,11.5816
147,561,5.74475,-11.0649,0.0655263,0.00844449,-0.025106,0.0749972,-0.00102641,-0.360729,0.0503438,0.0480432,1371,463,5.74469,11.065
154,561,5.64124,-10.649,0.0486388,-0.0130324,-0.022032,0.0557011,-0.0200946,-0.310196,0.0453416,0.0453814,1378,463,5.64118,10.649
161,561,5.8053,-10.0399,0.0259974,-0.0229531,-0.0125941,0.0290476,-0.0260033,-0.237616,0.0317998,0.0491356,1385,463,5.80535,10.0399
168,561,6.14331,-9.40823,0,0,0,0,0,0,0,-1,1392,463,6.14337,9.40823
175,561,10.4185,0.276398,0,0,0,0,0,0,0,-1,1399,463,10.4185,-0.276394
182,561,6.45703,-4.02127,0,0,0,0,0,0,0,-1,1406,463,6.45704,4.02127
189,561,6.50854,-2.08685,0,0,0,0,0,0,0,-1,1413,463,6.50851,2.08686
196,561,6.44775,-0.27182,0,0,0,0,0,0,0,-1,1420,463,6.44773,0.271814
203,561,6.18591,1.1301,0,0,0,0,0,0,0,-1,1427,463,6.18592,-1.13009
210,561,5.68713,2.68427,0,0,0,0,0,0,0,-1,1434,463,5.6871,-2.68425
217,561,3.61743,-7.33582,0,0,0,0,0,0,0,-1,1441,463,3.61738,7.33581
224,561,4.27466,-8.59171,0,0,0,0,0,0,0,-1,1448,463,4.27466,8.59171
231,561,4.93188,-9.8476,0,0,0,0,0,0,0,-1,1455,463,4.93193,9.84761
238,561,2.18018,-5.18359,0,0,0,0,0,0,0,-1,1462,463,2.18023,5.18359
245,561,3.07568,-3.50238,0,0,0,0,0,0,0,-1,1469,463,3.0757,3.50238
252,561,3.47412,-3.71109,0,0,0,0,0,0,0,-1,1476,463,3.47413,3.71109
259,561,3.42212,-3.2334,0,0,0,0,0,0,0,-1,1483,463,3.42214,3.2334
266,561,4.44373,-5.90027,0,0,0,0,0,0,0,-1,1490,463,4.44372,5.90026
273,561,2.59485,-3.65268,0,0,0,0,0,0,0,-1,1497,463,2.5948,3.65268
280,561,3.10767,-6.38235,0,0,0,0,0,0,0,-1,1504,463,3.10766,6.38235
287,561,3.34119,-8.75229,0,0,0,0,0,0,0,-1,1511,463,3.34117,8.75229
294,561,3.27234,-8.56726,0.00208716,-0.00304224,-0.00415656,0.00440659,-0.00536167,-0.508976,0.00564869,0.0479887,1518,463,3.27229,8.56725
301,561,3.40771,-8.62228,0.00114547,-0.00315117,-0.00398757,0.00352661,-0.00553231,-0.538314,0.00527273,0.0420813,1525,463,3.40767,8.62229
308,561,3.3186,-8.42944,0.000135905,-0.00365807,-0.00400849,0.00267362,-0.00619578,-0.564392,0.00525361,0.0303282,1532,463,3.31857,8.42944
315,561,3.27209,-8.30646,-0.000587468,-0.00368941,-0.00384769,0.00201008,-0.00628696,-0.593814,0.00499794,0.0205882,1539,463,3.27208,8.30646
322,561,3.27271,-8.18787,-0.0011492,-0.00352269,-0.00351969,0.00137843,-0.00605032,-0.622797,0.00456296,0.0200142,1546,463,3.27273,8.18787
329,561,3.27161,-8.00055,-0.00143319,-0.00335678,-0.0032232,0.000968651,-0.00575862,-0.640405,0.00419937,0.0127583,1553,463,3.27159,8.00054
336,561,3.30542,-7.82339,-0.00152824,-0.00289361,-0.0029027,0.000770974,-0.00519282,-0.669903,0.00374542,0.0103844,1560,463,3.3054,7.8234
343,561,3.3125,-7.68292,-0.00164069,-0.00271906,-0.00257972,0.000455594,-0.00481534,-0.682376,0.00337237,0.0100813,1567,463,3.31244,7.68294
350,561,3.29395,-7.54114,-0.00171164,-0.00239897,-0.00222966,0.000200689,-0.0043113,-0.708934,0.00294338,0.00967612,1574,463,3.29397,7.54112
357,561,3.2948,-7.37891,-0.00157501,-0.00213495,-0.00182043,-1.31385e-05,-0.00369681,-0.709099,0.00246018,0.00941008,1581,463,3.29474,7.37891
364,561,3.31494,-7.25278,-0.00136758,-0.00170016,-0.00144161,-8.27081e-05,-0.00298504,-0.727977,0.00196304,0.00894764,1588,463,3.31495,7.25277
371,561,3.27502,-7.09448,-0.0011623,-0.00124085,-0.00102443,-0.000176388,-0.00222676,-0.766237,0.00142934,0.015357,1595,463,3.27506,7.09448
378,561,3.27502,-6.90237,-0.000934487,-0.000734716,-0.000601485,-0.000224879,-0.00144432,-0.86768,0.000897365,0.0116252,1602,463,3.27498,6.90238
385,561,3.29333,-6.72748,-0.000768247,-0.000392564,-0.000359247,-0.000175013,-0.000985798,-1.02629,0.000607325,0.010363,1609,463,3.29332,6.72748
392,561,3.29785,-6.53955,-0.000494646,-0.000112176,-0.000104389,-8.55397e-05,-0.000521282,-1.32096,0.000322808,0.0144483,1616,463,3.29786,6.53954
399,561,3.31494,-6.37811,-8.38738e-05,0.000288317,0.000362865,0.000510024,-0.000305581,1.02234,0.000475795,0.0201143,1623,463,3.31491,6.37812
406,561,3.31702,-6.19968,0.000268193,0.000738342,0.000747329,0.0012867,-0.000280161,0.937775,0.000964839,0.0176411,1630,463,3.31697,6.19967
413,561,3.31104,-5.99057,5.08777e-06,0.00163979,0.00103522,0.00214143,-0.000496554,1.11956,0.00161873,0.0168974,1637,463,3.31098,5.99056
420,561,3.28003,-5.82974,-0.000508167,0.00299009,0.000950858,0.00323183,-0.000749914,1.32183,0.0024432,0.0140384,1644,463,3.27997,5.82975
427,561,3.28931,-5.63913,-0.00124581,0.00459653,0.000253045,0.00460747,-0.00125675,1.52759,0.00356518,0.0105992,1651,463,3.28931,5.63912
434,561,3.31042,-5.46799,-0.00203595,0.00633109,-0.000177073,0.00633484,-0.00203969,-1.54965,0.00504256,0.0110386,1658,463,3.3104,5.46798
441,561,3.29492,-5.30972,-0.00312457,0.00842128,-0.000849928,0.00848351,-0.0031868,-1.49771,0.00696534,0.0136309,1665,463,3.29498,5.30973
448,561,3.28125,-5.1041,-0.00467277,0.0109548,-0.00180568,0.0111607,-0.0048787,-1.45724,0.00949417,0.0183506,1672,463,3.2813,5.10408
455,561,3.32581,-4.77838,-0.00661489,0.0136978,-0.00315635,0.0141769,-0.00709405,-1.42014,0.0125057,0.0354341,1679,463,3.32579,4.77837
462,561,3.21094,-4.56976,-0.00877136,0.0166506,-0.00488353,0.0175564,-0.00967721,-1.38739,0.0159412,0.0358361,1686,463,3.21099,4.56975
469,561,3.14404,-4.38724,-0.0109525,0.0198062,-0.00689939,0.0212829,-0.0124292,-1.35995,0.0196862,0.0235406,1693,463,3.14402,4.38724
476,561,3.13245,-4.22171,-0.0131339,0.0227144,-0.00927568,0.0249723,-0.0153917,-1.33202,0.023522,0.0414235,1700,463,3.13241,4.22171
483,561,3.13403,-4.06128,0,0,0,0,0,0,0,-1,1707,463,3.13402,4.06127
490,561,6.13135,-2.58374,0,0,0,0,0,0,0,-1,1714,463,6.13139,2.58373
497,561,7.30652,-2.46649,0,0,0,0,0,0,0,-1,1721,463,7.30649,2.4665
504,561,6.45044,-2.35263,0,0,0,0,0,0,0,-1,1728,463,6.4504,2.35263
511,561,0,0,0,0,0,0,0,0,0,-1,1735,463,0,0
518,561,0,0,0,0,0,0,0,0,0,-1,1742,463,0,0
525,561,0,0,0,0,0,0,0,0,0,-1,1749,463,0,0
532,561,0,0,0,0,0,0,0,0,0,-1,1756,463,0,0
539,561,0,0,0,0,0,0,0,0,0,-1,1763,463,0,0
546,561,0,0,0,0,0,0,0,0,0,-1,1770,463,0,0
553,561,0,0,0,0,0,0,0,0,0,-1,1777,463,0,0
560,561,0,0,0,0,0,0,0,0,0,-1,1784,463,0,0
567,561,0,0,0,0,0,0,0,0,0,-1,1791,463,0,0
574,561,0,0,0,0,0,0,0,0,0,-1,1798,463,0,0
581,561,0,0,0,0,0,0,0,0,0,-1,1805,463,0,0
588,561,0,0,0,0,0,0,0,0,0,-1,1812,463,0,0
595,561,0,0,0,0,0,0,0,0,0,-1,1819,463,0,0
602,561,0,0,0,0,0,0,0,0,0,-1,1826,463,0,0
609,561,0,0,0,0,0,0,0,0,0,-1,1833,463,0,0
616,561,0,0,0,0,0,0,0,0,0,-1,1840,463,0,0
623,561,0,0,0,0,0,0,0,0,0,-1,1847,463,0,0
630,561,0,0,0,0,0,0,0,0,0,-1,1854,463,0,0
637,561,0,0,0,0,0,0,0,0,0,-1,1861,463,0,0
644,561,0,0,0,0,0,0,0,0,0,-1,1868,463,0,0
651,561,0,0,0,0,0,0,0,0,0,-1,1875,463,0,0
658,561,0,0,0,0,0,0,0,0,0,-1,1882,463,0,0
665,561,0,0,0,0,0,0,0,0,0,-1,1889,463,0,0
672,561,0,0,0,0,0,0,0,0,0,-1,1896,463,0,0
679,561,0,0,0,0,0,0,0,0,0,-1,1903,463,0,0
686,561,0,0,0,0,0,0,0,0,0,-1,1910,463,0,0
693,561,0,0,0,0,0,0,0,0,0,-1,1917,463,0,0
700,561,0,0,0,0,0,0,0,0,0,-1,1924,463,0,0
707,561,0,0,0,0,0,0,0,0,0,-1,1931,463,0,0
714,561,0,0,0,0,0,0,0,0,0,-1,1938,463,0,0
721,561,0,0,0,0,0,0,0,0,0,-1,1945,463,0,0
728,561,0,0,0,0,0,0,0,0,0,-1,1952,463,0,0
735,561,0,0,0,0,0,0,0,0,0,-1,1959,463,0,0
742,561,0,0,0,0,0,0,0,0,0,-1,1966,463,0,0
749,561,0,0,0,0,0,0,0,0,0,-1,1973,463,0,0
756,561,0,0,0,0,0,0,0,0,0,-1,1980,463,0,0
763,561,0,0,0,0,0,0,0,0,0,-1,1987,463,0,0
770,561,0,0,0,0,0,0,0,0,0,-1,1994,463,0,0
777,561,0,0,0,0,0,0,0,0,0,-1,2001,463,0,0
784,561,0,0,0,0,0,0,0,0,0,-1,2008,463,0,0
791,561,0,0,0,0,0,0,0,0,0,-1,2015,463,0,0
798,561,0,0,0,0,0,0,0,0,0,-1,2022,463,0,0
805,561,0,0,0,0,0,0,0,0,0,-1,2029,463,0,0
812,561,0,0,0,0,0,0,0,0,0,-1,2036,463,0,0
-700,554,0,0,0,0,0,0,0,0,0,-1,524,470,0,0
-693,554,0,0,0,0,0,0,0,0,0,-1,531,470,0,0
-686,554,0,0,0,0,0,0,0,0,0,-1,538,470,0,0
-679,554,0,0,0,0,0,0,0,0,0,-1,545,470,0,0
-672,554,0,0,0,0,0,0,0,0,0,-1,552,470,0,0
-665,554,0,0,0,0,0,0,0,0,0,-1,559,470,0,0
-658,554,0,0,0,0,0,0,0,0,0,-1,566,470,0,0
-651,554,0,0,0,0,0,0,0,0,0,-1,573,470,0,0
-644,554,0,0,0,0,0,0,0,0,0,-1,580,470,0,0
-637,554,0,0,0,0,0,0,0,0,0,-1,587,470,0,0
-630,554,0,0,0,0,0,0,0,0,0,-1,594,470,0,0
-623,554,0,0,0,0,0,0,0,0,0,-1,601,470,0,0
-616,554,0,0,0,0,0,0,0,0,0,-1,608,470,0,0
-609,554,0,0,0,0,0,0,0,0,0,-1,615,470,0,0
-602,554,0,0,0,0,0,0,0,0,0,-1,622,470,0,0
-595,554,0,0,0,0,0,0,0,0,0,-1,629,470,0,0
-588,554,0,0,0,0,0,0,0,0,0,-1,636,470,0,0
-581,554,0,0,0,0,0,0,0,0,0,-1,643,470,0,0
-574,554,0,0,0,0,0,0,0,0,0,-1,650,470,0,0
-567,554,0,0,0,0,0,0,0,0,0,-1,657,470,0,0
-560,554,0,0,0,0,0,0,0,0,0,-1,664,470,0,0
-553,554,0,0,0,0,0,0,0,0,0,-1,671,470,0,0
-546,554,0,0,0,0,0,0,0,0,0,-1,678,470,0,0
-539,554,0,0,0,0,0,0,0,0,0,-1,685,470,0,0
-532,554,0,0,0,0,0,0,0,0,0,-1,692,470,0,0
-525,554,0,0,0,0,0,0,0,0,0,-1,699,470,0,0
-518,554,0,0,0,0,0,0,0,0,0,-1,706,470,0,0
-511,554,0,0,0,0,0,0,0,0,0,-1,713,470,0,0
-504,554,0,0,0,0,0,0,0,0,0,-1,720,470,0,0
-497,554,0,0,0,0,0,0,0,0,0,-1,727,470,0,0
-490,554,0,0,0,0,0,0,0,0,0,-1,734,470,0,0
-483,554,0,0,0,0,0,0,0,0,0,-1,741,470,0,0
-476,554,0,0,0,0,0,0,0,0,0,-1,748,470,0,0
-469,554,0,0,0,0,0,0,0,0,0,-1,755,470,0,0
-462,554,0,0,0,0,0,0,0,0,0,-1,762,470,0,0
-455,554,0,0,0,0,0,0,0,0,0,-1,769,470,0,0
-448,554,0,0,0,0,0,0,0,0,0,-1,776,470,0,0
-441,554,0,0,0,0,0,0,0,0,0,-1,783,470,0,0
-434,554,0,0,0,0,0,0,0,0,0,-1,790,470,0,0
-427,554,0,0,0,0,0,0,0,0,0,-1,797,470,0,0
-420,554,0,0,0,0,0,0,0,0,0,-1,804,470,0,0
-413,554,0,0,0,0,0,0,0,0,0,-1,811,470,0,0
-406,554,0,0,0,0,0,0,0,0,0,-1,818,470,0,0
-399,554,1.22241,-4.88776,0,0,0,0,0,0,0,-1,825,470,1.2224,4.88775
-392,554,-0.667969,-3.71759,0,0,0,0,0,0,0,-1,832,470,-0.667998,3.71759
-385,554,-0.377991,-4.06265,0,0,0,0,0,0,0,-1,839,470,-0.37801,4.06266
-378,554,-0.0618286,-4.44217,0,0,0,0,0,0,0,-1,846,470,-0.0618537,4.44217
-371,554,0.0684204,-4.48541,0,0,0,0,0,0,0,-1,853,470,0.0684178,4.4854
-364,554,0.372986,-4.60822,0,0,0,0,0,0,0,-1,860,470,0.372991,4.60821
-357,554,1.0163,-5.8754,0,0,0,0,0,0,0,-1,867,470,1.01628,5.87539
-350,554,1.03088,-5.94366,-0.00212951,0.0139366,0.0105339,0.0191509,-0.00734383,1.11115,0.0157949,0.048861,874,470,1.03086,5.94367
-343,554,0.8526,-5.78918,-0.000813759,0.00985471,0.00840028,0.0144713,-0.00543034,1.06828,0.0118789,0.0408686,881,470,0.852613,5.78917
-336,554,0.894226,-5.95743,-0.00142759,0.00686935,0.00762982,0.0114056,-0.00596382,1.0344,0.010191,0.0297547,888,470,0.894206,5.95743
-329,554,0.819946,-6.20215,-0.00202999,0.00455631,0.00682041,0.00883699,-0.00631067,1.01031,0.00878595,0.014733,895,470,0.819933,6.20214
-322,554,0.796204,-6.35553,-0.00260636,0.00273118,0.00592937,0.00656471,-0.00643988,0.996864,0.00750832,0.00991728,902,470,0.796218,6.35553
-315,554,0.795837,-6.51492,-0.00297882,0.00134772,0.0049556,0.00459164,-0.00622274,0.991196,0.00626732,0.0105073,909,470,0.795832,6.51491
-308,554,0.771484,-6.68887,-0.00317834,0.000224212,0.00407318,0.00293713,-0.00589126,0.983224,0.00519132,0.0133403,916,470,0.771461,6.68887
-301,554,0.783325,-6.84134,-0.00304998,-0.000400737,0.00313398,0.00167706,-0.00512777,0.985343,0.00409369,0.0136803,923,470,0.78333,6.84134
-294,554,0.778503,-6.98325,-0.00266107,-0.000985823,0.00222572,0.000554668,-0.00420156,0.96537,0.00300306,0.0110191,930,470,0.778506,6.98326
-287,554,0.76001,-7.14731,-0.00217139,-0.0012084,0.00146935,-0.000143663,-0.00323613,0.94373,0.00211116,0.0106814,937,470,0.760016,7.14732
-280,554,0.754883,-7.28845,-0.001589,-0.00117473,0.000901445,-0.00045693,-0.0023068,0.898327,0.00141045,0.0112264,944,470,0.754866,7.28844
-273,554,0.752747,-7.44431,-0.00115215,-0.00100281,0.000459176,-0.00061227,-0.00154269,0.866003,0.000896961,0.0137235,951,470,0.75277,7.44429
-266,554,0.757263,-7.61011,-0.000605036,-0.000792727,0.000150068,-0.000521886,-0.000875878,0.505972,0.000508776,0.0108036,958,470,0.757284,7.61012
-259,554,0.74646,-7.75388,5.65886e-05,-0.000633372,-7.59689e-05,6.48542e-05,-0.000641638,-0.108376,0.000450934,0.0105861,965,470,0.746441,7.75388
-252,554,0.741516,-7.88321,0.000529284,-0.00053517,1.38877e-05,0.000529466,-0.000535351,0.0130438,0.000614776,0.0129479,972,470,0.741494,7.8832
-245,554,0.743835,-8.03668,0.000698336,-0.00055025,0.000353237,0.000791342,-0.000643256,0.257453,0.000829735,0.0146742,979,470,0.743809,8.0367
-238,554,0.761292,-8.2002,0.000910619,-0.000983697,0.000794637,0.00119981,-0.00127289,0.349028,0.00142782,0.0111406,986,470,0.761272,8.2002
-231,554,0.771912,-8.34741,0.00122191,-0.00195755,0.00143289,0.00177237,-0.00250802,0.366779,0.00248342,0.00950336,993,470,0.771912,8.34742
-224,554,0.777527,-8.47815,0.00131963,-0.00284949,0.00215478,0.00223315,-0.00376301,0.40098,0.00349924,0.00941747,1000,470,0.777539,8.47816
-217,554,0.798279,-8.60129,0.00146935,-0.00393056,0.0029829,0.00279276,-0.00525397,0.417573,0.00471766,0.00968219,1007,470,0.798289,8.60129
-210,554,0.838196,-8.75092,0.00168598,-0.00533837,0.00385336,0.00338762,-0.00704,0.415844,0.00614225,0.0122168,1014,470,0.838181,8.75093
-203,554,0.841614,-8.91916,0.0019951,-0.00682432,0.00466187,0.00400244,-0.00883166,0.406594,0.00758261,0.0188482,1021,470,0.841615,8.91917
-196,554,0.817505,-9.01044,0.00224486,-0.00727755,0.00550817,0.00476438,-0.00979708,0.429004,0.0085728,0.0251221,1028,470,0.817523,9.01043
-189,554,0.818604,-9.06732,0.00217767,-0.0068645,0.00658803,0.00564672,-0.0103336,0.484677,0.00935756,0.0293625,1035,470,0.818595,9.06731
-182,554,1.11169,-8.7793,0,0,0,0,0,0,0,-1,1042,470,1.11169,8.7793
-175,554,0.776978,-9.49811,0,0,0,0,0,0,0,-1,1049,470,0.777013,9.49811
-168,554,0.920776,-9.54614,0,0,0,0,0,0,0,-1,1056,470,0.920718,9.54613
-161,554,0.719238,-9.29572,0,0,0,0,0,0,0,-1,1063,470,0.719297,9.29571
-154,554,0.535767,-9.60202,0,0,0,0,0,0,0,-1,1070,470,0.535708,9.60203
-147,554,0.409058,-10.8249,0,0,0,0,0,0,0,-1,1077,470,0.40907,10.8249
-140,554,0.188477,-11.0021,0,0,0,0,0,0,0,-1,1084,470,0.188525,11.0021
-133,554,-0.0616455,-8.79828,0,0,0,0,0,0,0,-1,1091,470,-0.0616165,8.79827
-126,554,0.447144,-9.54794,0,0,0,0,0,0,0,-1,1098,470,0.447187,9.54795
-119,554,2.17236,-8.56604,0,0,0,0,0,0,0,-1,1105,470,2.17232,8.56604
-112,554,2.0874,-8.1922,0,0,0,0,0,0,0,-1,1112,470,2.08734,8.19219
-105,554,1.73535,-7.61667,0,0,0,0,0,0,0,-1,1119,470,1.73531,7.61666
-98,554,1.51929,-7.3624,0,0,0,0,0,0,0,-1,1126,470,1.51928,7.36241
-91,554,1.41089,-6.5864,0,0,0,0,0,0,0,-1,1133,470,1.41093,6.58638
-84,554,1.62305,-5.87186,0,0,0,0,0,0,0,-1,1140,470,1.62299,5.87186
-77,554,-2.56958,1.33258,0,0,0,0,0,0,0,-1,1147,470,-2.56959,-1.33257
-70,554,-3.68164,-1.18332,0,0,0,0,0,0,0,-1,1154,470,-3.68158,1.18331
-63,554,-4.86853,-3.88708,0,0,0,0,0,0,0,-1,1161,470,-4.86853,3.88708
-56,554,-5.69958,-6.45422,0,0,0,0,0,0,0,-1,1168,470,-5.69955,6.45422
-49,554,-6.23645,-8.8569,0,0,0,0,0,0,0,-1,1175,470,-6.23643,8.85689
-42,554,-6.62524,-11.5382,0,0,0,0,0,0,0,-1,1182,470,-6.62522,11.5382
-35,554,-2.40173,-4.59482,0,0,0,0,0,0,0,-1,1189,470,-2.40169,4.59481
-28,554,-0.760132,-1.65555,0,0,0,0,0,0,0,-1,1196,470,-0.760095,1.65556
-21,554,6.67249,-10.1976,0,0,0,0,0,0,0,-1,1203,470,6.67249,10.1976
-14,554,-1.6366,-13.1124,0,0,0,0,0,0,0,-1,1210,470,-1.63664,13.1124
-7,554,-3.35938,-10.5908,0,0,0,0,0,0,0,-1,1217,470,-3.35932,10.5908
0,554,3.57056,-8.06766,0,0,0,0,0,0,0,-1,1224,470,3.57054,8.06765
7,554,3.1897,-8.06714,0,0,0,0,0,0,0,-1,1231,470,3.18964,8.06715
14,554,3.17273,-7.72336,0,0,0,0,0,0,0,-1,1238,470,3.17278,7.72335
21,554,1.4834,-8.90137,0,0,0,0,0,0,0,-1,1245,470,1.48336,8.90137
28,554,1.8418,-9.81842,0,0,0,0,0,0,0,-1,1252,470,1.84176,9.81841
35,554,2.93628,-10.4618,0.00151539,-0.0585831,-0.0309045,0.0145712,-0.0716389,-0.399714,0.0532847,0.0417558,1259,470,2.93631,10.4618
42,554,2.8009,-10.2599,-0.000621099,-0.0522368,-0.0210601,0.00688128,-0.0597392,-0.342221,0.0423068,0.0417153,1266,470,2.80092,10.2599
49,554,1.8645,-11.5376,0.00681434,-0.0429069,-0.0151581,0.011071,-0.0471636,-0.273769,0.0357094,0.0433429,1273,470,1.86447,11.5376
56,554,2.12622,-11.657,0.0184771,-0.0380526,-0.00939184,0.0199966,-0.0395721,-0.160401,0.0350055,0.0416313,1280,470,2.12627,11.657
63,554,2.29822,-12.0856,0.0284233,-0.0303787,-0.00225379,0.0285096,-0.030465,-0.0382535,0.0340552,0.0422624,1287,470,2.29821,12.0856
70,554,2.58374,-12.7064,0.0392678,-0.0206294,0.00594458,0.0398521,-0.0212137,0.0979728,0.0357996,0.0446731,1294,470,2.58379,12.7064
77,554,3.07434,-13.1664,0,0,0,0,0,0,0,-1,1301,470,3.07437,13.1665
84,554,3.30542,-13.6563,0.0595767,-0.0153978,0.0139106,0.0620744,-0.0178956,0.177663,0.0484623,0.0450418,1308,470,3.30543,13.6563
91,554,3.64429,-14.1922,0.0716996,-0.00919728,0.016411,0.074902,-0.0123997,0.192717,0.0545398,0.0412004,1315,470,3.64425,14.1922
98,554,4.03418,-14.8711,0.0813198,-0.00764145,0.0165193,0.0842882,-0.0106099,0.177797,0.0600421,0.0428928,1322,470,4.03417,14.8711
105,554,4.27539,-15.4649,0,0,0,0,0,0,0,-1,1329,470,4.27541,15.4649
112,554,3.66589,-15.8071,0.0901499,-0.00556613,0.0104768,0.0912832,-0.00669947,0.107757,0.0632071,0.0436526,1336,470,3.66595,15.8071
119,554,3.78528,-16.5623,0.0921644,-0.00375646,0.00533903,0.0924606,-0.00405272,0.0554326,0.0630348,0.0422147,1343,470,3.78529,16.5623
126,554,4.27454,-17.5687,0.0892487,-0.00638492,-0.000829217,0.0892559,-0.00639211,-0.00866989,0.061745,0.0433718,1350,470,4.27451,17.5687
133,554,4.91858,-18.6602,0.0812785,-0.0127928,-0.00694418,0.0817884,-0.0133027,-0.0732888,0.0594579,0.0451783,1357,470,4.91862,18.6602
140,554,5.66833,-19.7638,0,0,0,0,0,0,0,-1,1364,470,5.6684,19.7638
147,554,6.56396,-10.7626,0,0,0,0,0,0,0,-1,1371,470,6.56394,10.7626
154,554,6.68494,-11.3695,0.0419322,-0.0499813,-0.0138799,0.0439825,-0.0520316,-0.146655,0.0554986,0.0490257,1378,470,6.68494,11.3695
161,554,6.68738,-10.667,0.0107449,-0.0546919,-0.00202,0.0108072,-0.0547542,-0.0308304,0.0405876,0.048421,1385,470,6.68734,10.667
168,554,7.00391,-9.96918,0,0,0,0,0,0,0,-1,1392,470,7.00395,9.96916
175,554,10.663,0.286957,0,0,0,0,0,0,0,-1,1399,470,10.663,-0.286966
182,554,6.71106,-4.50217,0,0,0,0,0,0,0,-1,1406,470,6.71107,4.50215
189,554,6.90479,-2.50348,0,0,0,0,0,0,0,-1,1413,470,6.90477,2.50348
196,554,6.96216,-0.740906,0,0,0,0,0,0,0,-1,1420,470,6.96214,0.740912
203,554,6.43518,0.414154,0,0,0,0,0,0,0,-1,1427,470,6.43523,-0.414141
210,554,6.21167,1.96707,0,0,0,0,0,0,0,-1,1434,470,6.21165,-1.96706
217,554,5.64551,3.4989,0,0,0,0,0,0,0,-1,1441,470,5.64555,-3.49891
224,554,4.85144,-8.85172,0,0,0,0,0,0,0,-1,1448,470,4.85146,8.85173
231,554,3.25073,-5.29642,0,0,0,0,0,0,0,-1,1455,470,3.25078,5.29642
238,554,4.28625,-3.25253,0,0,0,0,0,0,0,-1,1462,470,4.28622,3.25252
245,554,4.0752,-2.90033,0,0,0,0,0,0,0,-1,1469,470,4.07515,2.90032
252,554,3.52112,-0.934998,0,0,0,0,0,0,0,-1,1476,470,3.52113,0.934996
259,554,3.96448,-2.16425,0,0,0,0,0,0,0,-1,1483,470,3.96446,2.16424
266,554,3.0592,-2.71716,0,0,0,0,0,0,0,-1,1490,470,3.05923,2.71718
273,554,2.58521,-3.06876,0,0,0,0,0,0,0,-1,1497,470,2.58524,3.06874
280,554,2.83301,-0.991699,0,0,0,0,0,0,0,-1,1504,470,2.83303,0.991704
287,554,3.54126,-4.12277,0,0,0,0,0,0,0,-1,1511,470,3.54123,4.12277
294,554,3.42407,-8.22385,0,0,0,0,0,0,0,-1,1518,470,3.42401,8.22386
301,554,3.67419,-8.5881,0,0,0,0,0,0,0,-1,1525,470,3.67415,8.5881
308,554,3.54834,-8.49176,0,0,0,0,0,0,0,-1,1532,470,3.54829,8.49177
315,554,3.43213,-8.33017,0,0,0,0,0,0,0,-1,1539,470,3.43215,8.33017
322,554,3.57324,-8.00473,-0.00215336,-0.00518518,-0.00496646,0.00152339,-0.00886193,-0.637275,0.00647575,0.042446,1546,470,3.57318,8.00472
329,554,3.41577,-7.96262,-0.00248751,-0.0049204,-0.00462377,0.00107716,-0.00848507,-0.65677,0.00604782,0.0208249,1553,470,3.41571,7.96261
336,554,3.43896,-7.82925,-0.00255065,-0.00424781,-0.00423967,0.000924527,-0.00772299,-0.686627,0.00548288,0.0103514,1560,470,3.43899,7.82926
343,554,3.44385,-7.69769,-0.00263931,-0.0040687,-0.00384517,0.000557015,-0.00726503,-0.693512,0.0050393,0.00956411,1567,470,3.44387,7.69768
350,554,3.44629,-7.54251,-0.00267564,-0.00374387,-0.00343776,0.000269253,-0.00668876,-0.70833,0.00455158,0.00948402,1574,470,3.44631,7.5425
357,554,3.46655,-7.38309,-0.00231321,-0.00353403,-0.00301398,0.000151556,-0.00599879,-0.685487,0.00405066,0.0105057,1581,470,3.46656,7.3831
364,554,3.46851,-7.23996,-0.00193182,-0.00302519,-0.00265012,0.000227415,-0.00518442,-0.683681,0.00353453,0.00879438,1588,470,3.46847,7.23995
371,554,3.45532,-7.07993,-0.0015953,-0.00250172,-0.00217688,0.000175041,-0.00427207,-0.682768,0.00290815,0.00847561,1595,470,3.45538,7.07991
378,554,3.45813,-6.89316,-0.00120735,-0.00190177,-0.00166796,0.000149159,-0.00325827,-0.682781,0.00222357,0.0096437,1602,470,3.45818,6.89317
385,554,3.48181,-6.72192,-0.000932576,-0.00147484,-0.00134304,0.000166421,-0.00257384,-0.685796,0.00177397,0.00948179,1609,470,3.48187,6.72191
392,554,3.48315,-6.5531,-0.000627127,-0.00108349,-0.00102702,0.000196759,-0.00190738,-0.676085,0.00134199,0.0137521,1616,470,3.48312,6.5531
399,554,3.4928,-6.36185,-0.000230754,-0.000644815,-0.000519731,0.000121664,-0.000997233,-0.59586,0.000708865,0.0180819,1623,470,3.49284,6.36184
406,554,3.48035,-6.18832,0.000126619,-9.85326e-05,-3.28196e-05,0.000131305,-0.000103219,-0.141836,0.000135726,0.0159284,1630,470,3.48037,6.18833
413,554,3.47913,-6.00214,5.29442e-05,0.0007385,0.000370438,0.000900421,-0.000108977,1.15872,0.000639708,0.0151248,1637,470,3.47912,6.00213
420,554,3.4552,-5.85101,-0.00024274,0.00183917,0.000457021,0.00193508,-0.000338648,1.36394,0.00141649,0.0164959,1644,470,3.45516,5.851
427,554,3.47046,-5.66443,-0.000728815,0.00311326,7.55856e-05,0.00311475,-0.000730302,1.55113,0.00235794,0.0114681,1651,470,3.47042,5.66443
434,554,3.46619,-5.48093,-0.00126729,0.00445757,-0.000113411,0.00445981,-0.00126953,-1.551,0.00347458,0.00925191,1658,470,3.46618,5.48093
441,554,3.46338,-5.29788,-0.00199046,0.00598568,-0.000480036,0.00601446,-0.00201925,-1.5109,0.00482566,0.0101148,1665,470,3.46339,5.29789
448,554,3.46667,-5.10419,-0.00300492,0.00783577,-0.00105512,0.00793751,-0.00310666,-1.47467,0.00657654,0.011394,1672,470,3.46668,5.1042
455,554,3.45581,-4.90244,-0.00425705,0.00974999,-0.0019105,0.0100059,-0.00451296,-1.43764,0.00858011,0.0135708,1679,470,3.4558,4.90242
462,554,3.44019,-4.69476,-0.00553561,0.0116802,-0.00305818,0.0122073,-0.00606272,-1.40011,0.0107452,0.01758,1686,470,3.44023,4.69477
469,554,3.42163,-4.48834,-0.00678548,0.0137938,-0.00443595,0.0147093,-0.00770095,-1.36728,0.0131478,0.0238265,1693,470,3.42167,4.48834
476,554,3.43445,-4.23975,-0.00808312,0.0157128,-0.00598111,0.0171316,-0.00950188,-1.33789,0.0155857,0.0465034,1700,470,3.4345,4.23976
483,554,3.46948,-4.00589,0,0,0,0,0,0,0,-1,1707,470,3.46949,4.0059
490,554,7.31543,-3.51794,0,0,0,0,0,0,0,-1,1714,470,7.3154,3.51794
497,554,7.9751,-2.43454,0,0,0,0,0,0,0,-1,1721,470,7.97505,2.43453
504,554,2.13257,-3.81628,0,0,0,0,0,0,0,-1,1728,470,2.1326,3.8163
511,554,1.31396,-4.02713,0,0,0,0,0,0,0,-1,1735,470,1.31398,4.02712
518,554,-1.15686,-2.436,0,0,0,0,0,0,0,-1,1742,470,-1.15691,2.43599
525,554,0,0,0,0,0,0,0,0,0,-1,1749,470,0,0
532,554,0,0,0,0,0,0,0,0,0,-1,1756,470,0,0
539,554,0,0,0,0,0,0,0,0,0,-1,1763,470,0,0
546,554,0,0,0,0,0,0,0,0,0,-1,1770,470,0,0
553,554,0,0,0,0,0,0,0,0,0,-1,1777,470,0,0
560,554,0,0,0,0,0,0,0,0,0,-1,1784,470,0,0
567,554,0,0,0,0,0,0,0,0,0,-1,1791,470,0,0
574,554,0,0,0,0,0,0,0,0,0,-1,1798,470,0,0
581,554,0,0,0,0,0,0,0,0,0,-1,1805,470,0,0
588,554,0,0,0,0,0,0,0,0,0,-1,1812,470,0,0
595,554,0,0,0,0,0,0,0,0,0,-1,1819,470,0,0
602,554,0,0,0,0,0,0,0,0,0,-1,1826,470,0,0
609,554,0,0,0,0,0,0,0,0,0,-1,1833,470,0,0
616,554,0,0,0,0,0,0,0,0,0,-1,1840,470,0,0
623,554,0,0,0,0,0,0,0,0,0,-1,1847,470,0,0
630,554,0,0,0,0,0,0,0,0,0,-1,1854,470,0,0
637,554,0,0,0,0,0,0,0,0,0,-1,1861,470,0,0
644,554,0,0,0,0,0,0,0,0,0,-1,1868,470,0,0
651,554,0,0,0,0,0,0,0,0,0,-1,1875,470,0,0
658,554,0,0,0,0,0,0,0,0,0,-1,1882,470,0,0
665,554,0,0,0,0,0,0,0,0,0,-1,1889,470,0,0
672,554,0,0,0,0,0,0,0,0,0,-1,1896,470,0,0
679,554,0,0,0,0,0,0,0,0,0,-1,1903,470,0,0
686,554,0,0,0,0,0,0,0,0,0,-1,1910,470,0,0
693,554,0,0,0,0,0,0,0,0,0,-1,1917,470,0,0
700,554,0,0,0,0,0,0,0,0,0,-1,1924,470,0,0
707,554,0,0,0,0,0,0,0,0,0,-1,1931,470,0,0
714,554,0,0,0,0,0,0,0,0,0,-1,1938,470,0,0
721,554,0,0,0,0,0,0,0,0,0,-1,1945,470,0,0
728,554,0,0,0,0,0,0,0,0,0,-1,1952,470,0,0
735,554,0,0,0,0,0,0,0,0,0,-1,1959,470,0,0
742,554,0,0,0,0,0,0,0,0,0,-1,1966,470,0,0
749,554,0,0,0,0,0,0,0,0,0,-1,1973,470,0,0
756,554,0,0,0,0,0,0,0,0,0,-1,1980,470,0,0
763,554,0,0,0,0,0,0,0,0,0,-1,1987,470,0,0
770,554,0,0,0,0,0,0,0,0,0,-1,1994,470,0,0
777,554,0,0,0,0,0,0,0,0,0,-1,2001,470,0,0
784,554,0,0,0,0,0,0,0,0,0,-1,2008,470,0,0
791,554,0,0,0,0,0,0,0,0,0,-1,2015,470,0,0
798,554,0,0,0,0,0,0,0,0,0,-1,2022,470,0,0
805,554,0,0,0,0,0,0,0,0,0,-1,2029,470,0,0
812,554,0,0,0,0,0,0,0,0,0,-1,2036,470,0,0
-700,547,0,0,0,0,0,0,0,0,0,-1,524,477,0,0
-693,547,0,0,0,0,0,0,0,0,0,-1,531,477,0,0
-686,547,0,0,0,0,0,0,0,0,0,-1,538,477,0,0
-679,547,0,0,0,0,0,0,0,0,0,-1,545,477,0,0
-672,547,0,0,0,0,0,0,0,0,0,-1,552,477,0,0
-665,547,0,0,0,0,0,0,0,0,0,-1,559,477,0,0
-658,547,0,0,0,0,0,0,0,0,0,-1,566,477,0,0
-651,547,0,0,0,0,0,0,0,0,0,-1,573,477,0,0
-644,547,0,0,0,0,0,0,0,0,0,-1,580,477,0,0
-637,547,0,0,0,0,0,0,0,0,0,-1,587,477,0,0
-630,547,0,0,0,0,0,0,0,0,0,-1,594,477,0,0
-623,547,0,0,0,0,0,0,0,0,0,-1,601,477,0,0
-616,547,0,0,0,0,0,0,0,0,0,-1,608,477,0,0
-609,547,0,0,0,0,0,0,0,0,0,-1,615,477,0,0
-602,547,0,0,0,0,0,0,0,0,0,-1,622,477,0,0
-595,547,0,0,0,0,0,0,0,0,0,-1,629,477,0,0
-588,547,0,0,0,0,0,0,0,0,0,-1,636,477,0,0
-581,547,0,0,0,0,0,0,0,0,0,-1,643,477,0,0
-574,547,0,0,0,0,0,0,0,0,0,-1,650,477,0,0
-567,547,0,0,0,0,0,0,0,0,0,-1,657,477,0,0
-560,547,0,0,0,0,0,0,0,0,0,-1,664,477,0,0
-553,547,0,0,0,0,0,0,0,0,0,-1,671,477,0,0
-546,547,0,0,0,0,0,0,0,0,0,-1,678,477,0,0
-539,547,0,0,0,0,0,0,0,0,0,-1,685,477,0,0
-532,547,0,0,0,0,0,0,0,0,0,-1,692,477,0,0
-525,547,0,0,0,0,0,0,0,0,0,-1,699,477,0,0
-518,547,0,0,0,0,0,0,0,0,0,-1,706,477,0,0
-511,547,0,0,0,0,0,0,0,0,0,-1,713,477,0,0
-504,547,0,0,0,0,0,0,0,0,0,-1,720,477,0,0
-497,547,0,0,0,0,0,0,0,0,0,-1,727,477,0,0
-490,547,0,0,0,0,0,0,0,0,0,-1,734,477,0,0
-483,547,0,0,0,0,0,0,0,0,0,-1,741,477,0,0
-476,547,0,0,0,0,0,0,0,0,0,-1,748,477,0,0
-469,547,0,0,0,0,0,0,0,0,0,-1,755,477,0,0
-462,547,0,0,0,0,0,0,0,0,0,-1,762,477,0,0
-455,547,0,0,0,0,0,0,0,0,0,-1,769,477,0,0
-448,547,0,0,0,0,0,0,0,0,0,-1,776,477,0,0
-441,547,0,0,0,0,0,0,0,0,0,-1,783,477,0,0
-434,547,0,0,0,0,0,0,0,0,0,-1,790,477,0,0
-427,547,0,0,0,0,0,0,0,0,0,-1,797,477,0,0
-420,547,0,0,0,0,0,0,0,0,0,-1,804,477,0,0
-413,547,0,0,0,0,0,0,0,0,0,-1,811,477,0,0
-406,547,1.9328,-2.89697,0,0,0,0,0,0,0,-1,818,477,1.93281,2.89698
-399,547,1.61487,-2.37161,0,0,0,0,0,0,0,-1,825,477,1.61489,2.37162
-392,547,1.35889,-1.38098,0,0,0,0,0,0,0,-1,832,477,1.35886,1.38098
-385,547,-0.308533,-4.51331,0,0,0,0,0,0,0,-1,839,477,-0.308519,4.51331
-378,547,-0.17926,-4.71603,0,0,0,0,0,0,0,-1,846,477,-0.179287,4.71602
-371,547,-0.116943,-4.61679,0,0,0,0,0,0,0,-1,853,477,-0.116958,4.61679
-364,547,0.271729,-4.58582,0,0,0,0,0,0,0,-1,860,477,0.271753,4.5858
-357,547,0.805603,-5.70532,0,0,0,0,0,0,0,-1,867,477,0.805629,5.70533
-350,547,0.604248,-5.56805,0,0,0,0,0,0,0,-1,874,477,0.60425,5.56804
-343,547,0.620667,-5.78064,-0.000946319,0.00655619,0.00441729,0.00860014,-0.00299027,1.13742,0.00694809,0.0329756,881,477,0.620677,5.78064
-336,547,0.646057,-5.98279,-0.0012273,0.004376,0.00398346,0.00644438,-0.00329568,1.09187,0.00572053,0.0138584,888,477,0.646076,5.98279
-329,547,0.634705,-6.16858,-0.00153817,0.00271257,0.00350447,0.0046858,-0.00351139,1.05798,0.00474881,0.00818757,895,477,0.634734,6.16859
-322,547,0.636536,-6.33817,-0.00183983,0.00144801,0.00296417,0.0031936,-0.00358542,1.03858,0.00391605,0.0102286,902,477,0.636526,6.33817
-315,547,0.633667,-6.5022,-0.00205089,0.000513982,0.00241799,0.00196857,-0.00350548,1.02922,0.00320169,0.0104642,909,477,0.63368,6.50218
-308,547,0.605835,-6.67096,-0.00214164,-0.000246216,0.00196381,0.000986607,-0.00337446,1.01021,0.00264068,0.0119074,916,477,0.605836,6.67096
-301,547,0.621155,-6.83496,-0.00195962,-0.000573414,0.0014264,0.000319365,-0.00285239,1.01155,0.0020165,0.0112198,923,477,0.621161,6.83497
-294,547,0.617126,-6.98145,-0.00156546,-0.000928207,0.000901107,-0.000291052,-0.00220261,0.955334,0.00138165,0.00914494,930,477,0.617117,6.98144
-287,547,0.609436,-7.14746,-0.00109784,-0.00101891,0.000489812,-0.000566973,-0.00154977,0.825599,0.000905434,0.0106196,937,477,0.609463,7.14747
-280,547,0.605774,-7.30228,-0.000589109,-0.000980362,0.000205974,-0.000500666,-0.0010688,0.405579,0.000617484,0.0126321,944,477,0.605797,7.30227
-273,547,0.605042,-7.44461,-0.000203752,-0.000819874,3.12732e-06,-0.000203736,-0.00081989,0.00507564,0.000492922,0.0118884,951,477,0.605027,7.4446
-266,547,0.599792,-7.61182,0.000250368,-0.000661188,-0.000106295,0.000262599,-0.000673419,-0.114561,0.00055749,0.0111377,958,477,0.599778,7.61181
-259,547,0.596924,-7.75638,0.000753818,-0.000524279,-0.00010885,0.000763022,-0.000533483,-0.0843563,0.000752438,0.0105239,965,477,0.596914,7.75639
-252,547,0.606201,-7.8877,0.00105408,-0.000526622,0.000123548,0.00106367,-0.00053622,0.0775329,0.000940283,0.0106176,972,477,0.606213,7.88769
-245,547,0.618774,-8.03802,0.00112665,-0.000680738,0.000581005,0.00129731,-0.000851395,0.285692,0.00124943,0.0112751,979,477,0.618787,8.03801
-238,547,0.631653,-8.19846,0.00120178,-0.00135163,0.00119884,0.00167642,-0.00182626,0.376979,0.00202289,0.00809143,986,477,0.631654,8.19845
-231,547,0.638062,-8.34991,0.00148898,-0.00267544,0.00201067,0.00230132,-0.00348778,0.38396,0.00336565,0.00780659,993,477,0.638087,8.3499
-224,547,0.637085,-8.47491,0.00162169,-0.00377566,0.00294326,0.00291621,-0.00507018,0.414362,0.00466651,0.0101772,1000,477,0.637082,8.47492
-217,547,0.652466,-8.61911,0.00183242,-0.00516545,0.00404239,0.00367983,-0.00701286,0.428669,0.00627261,0.0131831,1007,477,0.652451,8.61911
-210,547,0.6604,-8.7598,0.00213805,-0.00699599,0.00523586,0.00451883,-0.00937676,0.426761,0.00818442,0.0201725,1014,477,0.660371,8.7598
-203,547,0.6875,-8.78476,0.00253339,-0.00907358,0.00638118,0.00535544,-0.0118956,0.416387,0.0101957,0.0323609,1021,477,0.687493,8.78476
-196,547,0.63562,-8.75128,0.0029033,-0.010026,0.00757392,0.00639636,-0.0135191,0.432125,0.0117407,0.039181,1028,477,0.635586,8.75129
-189,547,0.638062,-8.5737,0.00289986,-0.0100491,0.00899633,0.00750928,-0.0146585,0.473492,0.0130186,0.0413697,1035,477,0.638117,8.57369
-182,547,0.952026,-8.30106,0.00298639,-0.0100216,0.0102309,0.00860567,-0.0156409,0.502263,0.0141938,0.0475829,1042,477,0.952079,8.30106
-175,547,1.18774,-8.07523,0,0,0,0,0,0,0,-1,1049,477,1.18772,8.07524
-168,547,1.12463,-8.66785,0,0,0,0,0,0,0,-1,1056,477,1.12461,8.66786
-161,547,1.79089,-9.59091,0,0,0,0,0,0,0,-1,1063,477,1.7909,9.59091
-154,547,1.9436,-9.80563,0,0,0,0,0,0,0,-1,1070,477,1.94362,9.80563
-147,547,1.62793,-8.29166,0,0,0,0,0,0,0,-1,1077,477,1.62791,8.29165
-140,547,1.22449,-6.90436,0,0,0,0,0,0,0,-1,1084,477,1.22449,6.90436
-133,547,0.376709,-8.79092,0,0,0,0,0,0,0,-1,1091,477,0.376746,8.79092
-126,547,0.784302,-9.76431,0,0,0,0,0,0,0,-1,1098,477,0.78428,9.76432
-119,547,1.1709,-11.2859,0,0,0,0,0,0,0,-1,1105,477,1.1709,11.2859
-112,547,2.46338,-7.99307,0,0,0,0,0,0,0,-1,1112,477,2.46333,7.99308
-105,547,-0.50647,-7.05853,0,0,0,0,0,0,0,-1,1119,477,-0.506446,7.05853
-98,547,1.50391,-7.20621,0,0,0,0,0,0,0,-1,1126,477,1.50395,7.20621
-91,547,1.37805,-7.12024,0,0,0,0,0,0,0,-1,1133,477,1.37804,7.12025
-84,547,1.94202,-6.66241,0,0,0,0,0,0,0,-1,1140,477,1.94201,6.66241
-77,547,-2.28357,1.8588,0,0,0,0,0,0,0,-1,1147,477,-2.28356,-1.85879
-70,547,-3.70178,-0.874908,0,0,0,0,0,0,0,-1,1154,477,-3.70182,0.874918
-63,547,-5.12012,-3.60861,0,0,0,0,0,0,0,-1,1161,477,-5.12009,3.60862
-56,547,-6.01917,-6.2399,0,0,0,0,0,0,0,-1,1168,477,-6.01921,6.23991
-49,547,-6.729,-8.60349,0,0,0,0,0,0,0,-1,1175,477,-6.72899,8.60348
-42,547,-2.41736,-5.53012,0,0,0,0,0,0,0,-1,1182,477,-2.41734,5.53011
-35,547,-2.96838,-4.45734,0,0,0,0,0,0,0,-1,1189,477,-2.96839,4.45734
-28,547,-0.869141,-1.29901,0,0,0,0,0,0,0,-1,1196,477,-0.869135,1.29901
-21,547,7.02197,-10.6903,0,0,0,0,0,0,0,-1,1203,477,7.02195,10.6903
-14,547,6.62952,-10.9412,0,0,0,0,0,0,0,-1,1210,477,6.62958,10.9412
-7,547,2.73438,-8.29916,0,0,0,0,0,0,0,-1,1217,477,2.73433,8.29915
0,547,2.85889,-8.3385,0,0,0,0,0,0,0,-1,1224,477,2.85884,8.33852
7,547,2.8324,-8.38541,0,0,0,0,0,0,0,-1,1231,477,2.83238,8.3854
14,547,0,0,0,0,0,0,0,0,0,-1,1238,477,0,0
21,547,0,0,0,0,0,0,0,0,0,-1,1245,477,0,0
28,547,0,0,0,0,0,0,0,0,0,-1,1252,477,0,0
35,547,0,0,0,0,0,0,0,0,0,-1,1259,477,0,0
42,547,0,0,0,0,0,0,0,0,0,-1,1266,477,0,0
49,547,0,0,0,0,0,0,0,0,0,-1,1273,477,0,0
56,547,0,0,0,0,0,0,0,0,0,-1,1280,477,0,0
63,547,0,0,0,0,0,0,0,0,0,-1,1287,477,0,0
70,547,0,0,0,0,0,0,0,0,0,-1,1294,477,0,0
77,547,0,0,0,0,0,0,0,0,0,-1,1301,477,0,0
84,547,0,0,0,0,0,0,0,0,0,-1,1308,477,0,0
91,547,0,0,0,0,0,0,0,0,0,-1,1315,477,0,0
98,547,0,0,0,0,0,0,0,0,0,-1,1322,477,0,0
105,547,2.74011,-14.9494,0,0,0,0,0,0,0,-1,1329,477,2.74014,14.9494
112,547,3.24463,-15.4162,0,0,0,0,0,0,0,-1,1336,477,3.24464,15.4162
119,547,3.56555,-15.886,0,0,0,0,0,0,0,-1,1343,477,3.56557,15.886
126,547,3.4845,-16.7411,0,0,0,0,0,0,0,-1,1350,477,3.48453,16.741
133,547,4.13647,-17.816,0,0,0,0,0,0,0,-1,1357,477,4.13642,17.816
140,547,4.74683,-19.0848,0,0,0,0,0,0,0,-1,1364,477,4.74677,19.0848
147,547,-1.40405,-18.2494,0,0,0,0,0,0,0,-1,1371,477,-1.40407,18.2494
154,547,7.93311,-12.0421,0,0,0,0,0,0,0,-1,1378,477,7.9331,12.0421
161,547,7.54163,-11.2094,0,0,0,0,0,0,0,-1,1385,477,7.5416,11.2094
168,547,-6.75854,-16.465,0,0,0,0,0,0,0,-1,1392,477,-6.75852,16.465
175,547,3.35034,-0.26532,0,0,0,0,0,0,0,-1,1399,477,3.3503,0.265306
182,547,4.26038,3.72672,0,0,0,0,0,0,0,-1,1406,477,4.26039,-3.7267
189,547,3.40454,1.28671,0,0,0,0,0,0,0,-1,1413,477,3.40457,-1.28673
196,547,3.53931,1.87793,0,0,0,0,0,0,0,-1,1420,477,3.53928,-1.87794
203,547,6.49414,-0.425842,0,0,0,0,0,0,0,-1,1427,477,6.4941,0.425844
210,547,4.82092,0.53595,0,0,0,0,0,0,0,-1,1434,477,4.82096,-0.535942
217,547,4.68579,0.480072,0,0,0,0,0,0,0,-1,1441,477,4.68577,-0.480069
224,547,4.55615,0.739807,0,0,0,0,0,0,0,-1,1448,477,4.55613,-0.73981
231,547,5.90869,-3.57721,0,0,0,0,0,0,0,-1,1455,477,5.90871,3.57722
238,547,5.50049,-3.15356,0,0,0,0,0,0,0,-1,1462,477,5.50045,3.15356
245,547,5.13708,-2.65213,0,0,0,0,0,0,0,-1,1469,477,5.13708,2.65212
252,547,3.73511,-0.645233,0,0,0,0,0,0,0,-1,1476,477,3.73515,0.645237
259,547,5.86816,-3.20816,0,0,0,0,0,0,0,-1,1483,477,5.86815,3.20816
266,547,5.40222,-2.45731,0,0,0,0,0,0,0,-1,1490,477,5.40221,2.45732
273,547,3.05737,0.495789,0,0,0,0,0,0,0,-1,1497,477,3.05742,-0.49578
280,547,2.0885,1.47797,0,0,0,0,0,0,0,-1,1504,477,2.08848,-1.47795
287,547,2.31177,-2.21716,0,0,0,0,0,0,0,-1,1511,477,2.31174,2.21717
294,547,2.4823,-3.03659,0,0,0,0,0,0,0,-1,1518,477,2.48229,3.0366
301,547,4.72119,-3.93454,0,0,0,0,0,0,0,-1,1525,477,4.72119,3.93453
308,547,4.07471,-5.42175,0,0,0,0,0,0,0,-1,1532,477,4.07468,5.42174
315,547,3.58496,-6.62112,0,0,0,0,0,0,0,-1,1539,477,3.58497,6.62113
322,547,3.41418,-8.16849,0,0,0,0,0,0,0,-1,1546,477,3.41423,8.16849
329,547,3.49658,-7.94089,-0.00405963,-0.00706413,-0.00641674,0.00102837,-0.0121521,-0.670412,0.00846505,0.0440312,1553,477,3.49661,7.94088
336,547,3.53381,-7.80206,-0.00408012,-0.00600187,-0.00590137,0.000938087,-0.0110201,-0.704695,0.00767854,0.0284544,1560,477,3.53376,7.80207
343,547,3.6178,-7.73776,-0.00410028,-0.00582228,-0.00537502,0.000482267,-0.0104048,-0.70598,0.00710277,0.0237656,1567,477,3.61779,7.73777
350,547,3.63843,-7.61029,-0.00405177,-0.0055002,-0.00487269,0.000150234,-0.0097022,-0.711624,0.00651879,0.0185861,1574,477,3.63848,7.61029
357,547,3.63208,-7.4267,-0.0034036,-0.0053051,-0.00439339,0.000140733,-0.00884943,-0.678839,0.00594709,0.0139701,1581,477,3.63204,7.4267
364,547,3.62341,-7.23975,-0.00279344,-0.00466902,-0.00399848,0.000375758,-0.00783821,-0.670212,0.00535512,0.0100158,1588,477,3.62337,7.23976
371,547,3.63525,-7.05612,-0.00227218,-0.0040392,-0.00343066,0.000386912,-0.00669829,-0.65937,0.00459992,0.00862978,1595,477,3.63524,7.05614
378,547,3.65125,-6.88632,-0.00168253,-0.00329403,-0.00280552,0.000430655,-0.00540721,-0.645561,0.00375659,0.00965516,1602,477,3.65131,6.88631
385,547,3.65723,-6.72202,-0.0012731,-0.00273681,-0.00238609,0.000490853,-0.00450076,-0.636595,0.00317679,0.0104428,1609,477,3.65718,6.72201
392,547,3.65588,-6.56442,-0.000905411,-0.00219152,-0.0020061,0.000558177,-0.00365511,-0.630297,0.00264252,0.0117715,1616,477,3.65584,6.56442
399,547,3.64038,-6.39117,-0.000483114,-0.00168613,-0.00146699,0.000500899,-0.00267014,-0.590838,0.00196842,0.0134033,1623,477,3.64039,6.39116
406,547,3.64038,-6.20877,-7.51823e-05,-0.00101964,-0.00089597,0.000465388,-0.00156021,-0.542868,0.0012251,0.0124952,1630,477,3.64041,6.20876
413,547,3.65491,-6.0376,4.51561e-05,-0.000204197,-0.000401692,0.000341075,-0.000500116,-0.634922,0.000488547,0.0119678,1637,477,3.65487,6.03759
420,547,3.65759,-5.87234,-6.18814e-05,0.000723512,-0.000180584,0.000763043,-0.000101413,-1.35529,0.00054565,0.0147387,1644,477,3.65765,5.87234
427,547,3.66699,-5.66605,-0.000356978,0.00176989,-0.000309549,0.00181402,-0.000401114,-1.42917,0.00136287,0.0138692,1651,477,3.66695,5.66604
434,547,3.63318,-5.48468,-0.000715511,0.00284356,-0.000308366,0.00287008,-0.000742031,-1.48501,0.00220279,0.00901944,1658,477,3.63316,5.48468
441,547,3.63904,-5.3064,-0.00118146,0.00397399,-0.000433858,0.00401025,-0.00121772,-1.48742,0.00315864,0.00978231,1665,477,3.63908,5.3064
448,547,3.63879,-5.1102,-0.0018115,0.00535032,-0.000713034,0.00542062,-0.0018818,-1.47252,0.00437796,0.0107342,1672,477,3.63882,5.11021
455,547,3.62646,-4.89883,-0.00258031,0.00667725,-0.00118426,0.00682634,-0.0027294,-1.44556,0.00568352,0.0104829,1679,477,3.6265,4.89884
462,547,3.62488,-4.70087,-0.00329504,0.00789768,-0.00184389,0.00819361,-0.00359097,-1.41166,0.00697467,0.0108548,1686,477,3.62483,4.70088
469,547,3.62439,-4.52832,-0.0038947,0.0092144,-0.00265904,0.00973322,-0.00441353,-1.3781,0.0083579,0.0198785,1693,477,3.62434,4.52833
476,547,3.6759,-4.30356,-0.00453667,0.0103597,-0.00357821,0.0111746,-0.0053516,-1.34687,0.00973684,0.0428331,1700,477,3.67586,4.30356
483,547,3.67944,-4.26865,0,0,0,0,0,0,0,-1,1707,477,3.67941,4.26865
490,547,3.65271,-3.71707,0,0,0,0,0,0,0,-1,1714,477,3.65277,3.71708
497,547,2.55481,-3.81421,0,0,0,0,0,0,0,-1,1721,477,2.55476,3.8142
504,547,4.01953,-2.22714,0,0,0,0,0,0,0,-1,1728,477,4.0195,2.22713
511,547,3.96277,-2.31235,0,0,0,0,0,0,0,-1,1735,477,3.96282,2.31235
518,547,4.81726,-1.81863,0,0,0,0,0,0,0,-1,1742,477,4.81721,1.81864
525,547,0.781616,-3.76355,0,0,0,0,0,0,0,-1,1749,477,0.781645,3.76354
532,547,0,0,0,0,0,0,0,0,0,-1,1756,477,0,0
539,547,0,0,0,0,0,0,0,0,0,-1,1763,477,0,0
546,547,0,0,0,0,0,0,0,0,0,-1,1770,477,0,0
553,547,0,0,0,0,0,0,0,0,0,-1,1777,477,0,0
560,547,0,0,0,0,0,0,0,0,0,-1,1784,477,0,0
567,547,0,0,0,0,0,0,0,0,0,-1,1791,477,0,0
574,547,0,0,0,0,0,0,0,0,0,-1,1798,477,0,0
581,547,0,0,0,0,0,0,0,0,0,-1,1805,477,0,0
588,547,0,0,0,0,0,0,0,0,0,-1,1812,477,0,0
595,547,0,0,0,0,0,0,0,0,0,-1,1819,477,0,0
602,547,0,0,0,0,0,0,0,0,0,-1,1826,477,0,0
609,547,0,0,0,0,0,0,0,0,0,-1,1833,477,0,0
616,547,0,0,0,0,0,0,0,0,0,-1,1840,477,0,0
623,547,0,0,0,0,0,0,0,0,0,-1,1847,477,0,0
630,547,0,0,0,0,0,0,0,0,0,-1,1854,477,0,0
637,547,0,0,0,0,0,0,0,0,0,-1,1861,477,0,0
644,547,0,0,0,0,0,0,0,0,0,-1,1868,477,0,0
651,547,0,0,0,0,0,0,0,0,0,-1,1875,477,0,0
658,547,0,0,0,0,0,0,0,0,0,-1,1882,477,0,0
665,547,0,0,0,0,0,0,0,0,0,-1,1889,477,0,0
672,547,0,0,0,0,0,0,0,0,0,-1,1896,477,0,0
679,547,0,0,0,0,0,0,0,0,0,-1,1903,477,0,0
686,547,0,0,0,0,0,0,0,0,0,-1,1910,477,0,0
693,547,0,0,0,0,0,0,0,0,0,-1,1917,477,0,0
700,547,0,0,0,0,0,0,0,0,0,-1,1924,477,0,0
707,547,0,0,0,0,0,0,0,0,0,-1,1931,477,0,0
714,547,0,0,0,0,0,0,0,0,0,-1,1938,477,0,0
721,547,0,0,0,0,0,0,0,0,0,-1,1945,477,0,0
728,547,0,0,0,0,0,0,0,0,0,-1,1952,477,0,0
735,547,0,0,0,0,0,0,0,0,0,-1,1959,477,0,0
742,547,0,0,0,0,0,0,0,0,0,-1,1966,477,0,0
749,547,0,0,0,0,0,0,0,0,0,-1,1973,477,0,0
756,547,0,0,0,0,0,0,0,0,0,-1,1980,477,0,0
763,547,0,0,0,0,0,0,0,0,0,-1,1987,477,0,0
770,547,0,0,0,0,0,0,0,0,0,-1,1994,477,0,0
777,547,0,0,0,0,0,0,0,0,0,-1,2001,477,0,0
784,547,0,0,0,0,0,0,0,0,0,-1,2008,477,0,0
791,547,0,0,0,0,0,0,0,0,0,-1,2015,477,0,0
798,547,0,0,0,0,0,0,0,0,0,-1,2022,477,0,0
805,547,0,0,0,0,0,0,0,0,0,-1,2029,477,0,0
812,547,0,0,0,0,0,0,0,0,0,-1,2036,477,0,0
-700,540,0,0,0,0,0,0,0,0,0,-1,524,484,0,0
-693,540,0,0,0,0,0,0,0,0,0,-1,531,484,0,0
-686,540,0,0,0,0,0,0,0,0,0,-1,538,484,0,0
-679,540,0,0,0,0,0,0,0,0,0,-1,545,484,0,0
-672,540,0,0,0,0,0,0,0,0,0,-1,552,484,0,0
-665,540,0,0,0,0,0,0,0,0,0,-1,559,484,0,0
-658,540,0,0,0,0,0,0,0,0,0,-1,566,484,0,0
-651,540,0,0,0,0,0,0,0,0,0,-1,573,484,0,0
-644,540,0,0,0,0,0,0,0,0,0,-1,580,484,0,0
-637,540,0,0,0,0,0,0,0,0,0,-1,587,484,0,0
-630,540,0,0,0,0,0,0,0,0,0,-1,594,484,0,0
-623,540,0,0,0,0,0,0,0,0,0,-1,601,484,0,0
-616,540,0,0,0,0,0,0,0,0,0,-1,608,484,0,0
-609,540,0,0,0,0,0,0,0,0,0,-1,615,484,0,0
-602,540,0,0,0,0,0,0,0,0,0,-1,622,484,0,0
-595,540,0,0,0,0,0,0,0,0,0,-1,629,484,0,0
-588,540,0,0,0,0,0,0,0,0,0,-1,636,484,0,0
-581,540,0,0,0,0,0,0,0,0,0,-1,643,484,0,0
-574,540,0,0,0,0,0,0,0,0,0,-1,650,484,0,0
-567,540,0,0,0,0,0,0,0,0,0,-1,657,484,0,0
-560,540,0,0,0,0,0,0,0,0,0,-1,664,484,0,0
-553,540,0,0,0,0,0,0,0,0,0,-1,671,484,0,0
-546,540,0,0,0,0,0,0,0,0,0,-1,678,484,0,0
-539,540,0,0,0,0,0,0,0,0,0,-1,685,484,0,0
-532,540,0,0,0,0,0,0,0,0,0,-1,692,484,0,0
-525,540,0,0,0,0,0,0,0,0,0,-1,699,484,0,0
-518,540,0,0,0,0,0,0,0,0,0,-1,706,484,0,0
-511,540,0,0,0,0,0,0,0,0,0,-1,713,484,0,0
-504,540,0,0,0,0,0,0,0,0,0,-1,720,484,0,0
-497,540,0,0,0,0,0,0,0,0,0,-1,727,484,0,0
-490,540,0,0,0,0,0,0,0,0,0,-1,734,484,0,0
-483,540,0,0,0,0,0,0,0,0,0,-1,741,484,0,0
-476,540,0,0,0,0,0,0,0,0,0,-1,748,484,0,0
-469,540,0,0,0,0,0,0,0,0,0,-1,755,484,0,0
-462,540,0,0,0,0,0,0,0,0,0,-1,762,484,0,0
-455,540,0,0,0,0,0,0,0,0,0,-1,769,484,0,0
-448,540,0,0,0,0,0,0,0,0,0,-1,776,484,0,0
-441,540,0,0,0,0,0,0,0,0,0,-1,783,484,0,0
-434,540,0,0,0,0,0,0,0,0,0,-1,790,484,0,0
-427,540,0,0,0,0,0,0,0,0,0,-1,797,484,0,0
-420,540,2.38129,-3.12601,-0.0411517,0.0505477,0.0302525,0.0596289,-0.050233,1.27917,0.0635061,0.0486744,804,484,2.3813,3.12601
-413,540,1.94592,-3.173,-0.0456675,0.0503784,0.034651,0.0615745,-0.0568636,1.25827,0.0683983,0.0451885,811,484,1.9459,3.17301
-406,540,1.53131,-3.0473,-0.0450841,0.0469659,0.0341156,0.0582312,-0.0563494,1.25186,0.0661561,0.0405353,818,484,1.53129,3.04731
-399,540,1.13806,-2.86685,-0.0379264,0.0426159,0.029618,0.0523346,-0.0476452,1.25373,0.0577446,0.0440995,825,484,1.13804,2.86685
-392,540,0.883789,-2.51743,0,0,0,0,0,0,0,-1,832,484,0.883774,2.51744
-385,540,0.769104,-2.28012,0,0,0,0,0,0,0,-1,839,484,0.769126,2.28011
-378,540,-3.828,-3.2016,0,0,0,0,0,0,0,-1,846,484,-3.82798,3.20159
-371,540,-0.0177002,-4.21246,0,0,0,0,0,0,0,-1,853,484,-0.0176722,4.21247
-364,540,0.105103,-4.80014,0,0,0,0,0,0,0,-1,860,484,0.105086,4.80015
-357,540,0.586548,-5.54889,-0.00478034,0.0115285,0.00710174,0.0141875,-0.0074393,1.21254,0.0126872,0.0491196,867,484,0.586571,5.54889
-350,540,0.477478,-5.66315,-0.00192335,0.00750059,0.00413828,0.00905982,-0.00348259,1.21046,0.0074762,0.0296037,874,484,0.477482,5.66315
-343,540,0.457825,-5.79254,-0.000637092,0.00507823,0.00274785,0.00618503,-0.00174389,1.18789,0.00481118,0.0128498,881,484,0.457833,5.79254
-336,540,0.439087,-5.991,-0.000566133,0.00356124,0.00252432,0.00475807,-0.00176297,1.12807,0.00389505,0.0107479,888,484,0.439061,5.991
-329,540,0.448303,-6.15143,-0.000615839,0.00239148,0.00222808,0.00357582,-0.00180018,1.08223,0.00315976,0.00897188,895,484,0.448317,6.15144
-322,540,0.454468,-6.31662,-0.000678578,0.0015198,0.00185306,0.00257515,-0.00173393,1.05309,0.0025036,0.0127587,902,484,0.454447,6.31661
-315,540,0.454407,-6.48044,-0.000726308,0.000851851,0.00148122,0.00174106,-0.00161552,1.03014,0.00193837,0.0122999,909,484,0.454417,6.48044
-308,540,0.447388,-6.65286,-0.000699943,0.000278585,0.001179,0.00106581,-0.00148717,0.982075,0.00148064,0.0117114,916,484,0.447358,6.65286
-301,540,0.438965,-6.81506,-0.000480889,4.31807e-05,0.000773338,0.000597671,-0.00103538,0.948746,0.000954065,0.0112434,923,484,0.438979,6.81506
-294,540,0.451599,-6.97821,-0.000113461,-0.000215179,0.000402168,0.000241051,-0.000569691,0.722501,0.00048073,0.0104618,930,484,0.451597,6.97821
-287,540,0.465393,-7.15915,0.000298007,-0.000334855,0.000118679,0.00031953,-0.000356379,0.17941,0.00039043,0.00791049,937,484,0.465389,7.15915
-280,540,0.462097,-7.32474,0.000690105,-0.00044243,-8.63794e-05,0.000696655,-0.00044898,-0.0756874,0.000666566,0.00926133,944,484,0.462075,7.32474
-273,540,0.46405,-7.47607,0.000982269,-0.000411052,-0.000203019,0.00101125,-0.000440031,-0.141782,0.000859258,0.0115071,951,484,0.464065,7.47608
-266,540,0.459106,-7.63004,0.00130544,-0.000401337,-0.00021866,0.00133301,-0.000428904,-0.125415,0.00106095,0.0124586,958,484,0.459097,7.63004
-259,540,0.462524,-7.77087,0.00159431,-0.000395766,-0.000122385,0.00160181,-0.000403264,-0.0611905,0.00122463,0.0120597,965,484,0.462543,7.77088
-252,540,0.467651,-7.90179,0.00166901,-0.000562482,0.00020398,0.0016875,-0.000580975,0.0904111,0.00136065,0.0118524,972,484,0.467636,7.90179
-245,540,0.477234,-8.04144,0.00162796,-0.000867178,0.000786641,0.00185526,-0.00109448,0.281287,0.00172181,0.0125698,979,484,0.477234,8.04143
-238,540,0.486023,-8.18628,0.00160708,-0.00174416,0.00157656,0.00223216,-0.00236924,0.377474,0.00265701,0.00943121,986,484,0.486027,8.18627
-231,540,0.488586,-8.33371,0.00192222,-0.00343417,0.00258125,0.00296365,-0.00447559,0.383484,0.00432451,0.0111418,993,484,0.488579,8.33371
-224,540,0.494263,-8.4841,0.00204109,-0.00482754,0.00377144,0.00370759,-0.00649404,0.416075,0.0059627,0.0170732,1000,484,0.494232,8.48411
-217,540,0.459595,-8.66998,0.00228836,-0.00663692,0.00521214,0.00468732,-0.00903588,0.431356,0.00805459,0.0279203,1007,484,0.459614,8.66997
-210,540,0.439209,-8.76617,0.00267408,-0.00903061,0.00685047,0.00583167,-0.0121882,0.431906,0.0106173,0.0409206,1014,484,0.439179,8.76619
-203,540,0.414185,-8.70996,0.00316574,-0.011913,0.00845294,0.00695308,-0.0157003,0.421232,0.0134,0.0439263,1021,484,0.414187,8.70996
-196,540,0.40271,-8.68842,0.00371952,-0.0136478,0.0101169,0.00836845,-0.0182967,0.430743,0.0157468,0.0446256,1028,484,0.402764,8.68841
-189,540,0.396362,-8.20865,0,0,0,0,0,0,0,-1,1035,484,0.396305,8.20866
-182,540,0.889893,-7.7973,0.00409622,-0.0150365,0.0137757,0.0113014,-0.0222417,0.481905,0.0197065,0.0469942,1042,484,0.889893,7.79729
-175,540,1.02588,-7.74042,0,0,0,0,0,0,0,-1,1049,484,1.02589,7.74043
-168,540,1.18164,-7.65347,0,0,0,0,0,0,0,-1,1056,484,1.18163,7.65347
-161,540,-1.31653,-9.93869,0,0,0,0,0,0,0,-1,1063,484,-1.31651,9.93868
-154,540,2.05408,-10.0554,0,0,0,0,0,0,0,-1,1070,484,2.05407,10.0554
-147,540,1.22168,-8.1449,0,0,0,0,0,0,0,-1,1077,484,1.22172,8.14489
-140,540,0.466797,-8.22092,0,0,0,0,0,0,0,-1,1084,484,0.466834,8.22091
-133,540,0.733276,-8.80582,0,0,0,0,0,0,0,-1,1091,484,0.733219,8.80582
-126,540,1.06201,-9.57385,0,0,0,0,0,0,0,-1,1098,484,1.06204,9.57385
-119,540,1.95288,-11.9641,0,0,0,0,0,0,0,-1,1105,484,1.95286,11.9641
-112,540,2.54956,-13.5836,0,0,0,0,0,0,0,-1,1112,484,2.5495,13.5836
-105,540,1.73462,-4.61615,0,0,0,0,0,0,0,-1,1119,484,1.73465,4.61616
-98,540,0.73877,-3.08093,0,0,0,0,0,0,0,-1,1126,484,0.738754,3.08092
-91,540,1.56519,-7.48666,0,0,0,0,0,0,0,-1,1133,484,1.56514,7.48667
-84,540,-0.945923,4.43073,0,0,0,0,0,0,0,-1,1140,484,-0.945891,-4.43074
-77,540,-2.28894,2.14368,0,0,0,0,0,0,0,-1,1147,484,-2.28894,-2.14368
-70,540,-3.75244,-0.452576,0,0,0,0,0,0,0,-1,1154,484,-3.75244,0.452576
-63,540,-5.26257,-3.04767,0,0,0,0,0,0,0,-1,1161,484,-5.26262,3.04766
-56,540,-5.19055,-6.12595,0,0,0,0,0,0,0,-1,1168,484,-5.19057,6.12595
-49,540,-5.63867,-8.52298,0,0,0,0,0,0,0,-1,1175,484,-5.63871,8.52298
-42,540,0,0,0,0,0,0,0,0,0,-1,1182,484,0,0
-35,540,0,0,0,0,0,0,0,0,0,-1,1189,484,0,0
-28,540,0,0,0,0,0,0,0,0,0,-1,1196,484,0,0
-21,540,0,0,0,0,0,0,0,0,0,-1,1203,484,0,0
-14,540,0,0,0,0,0,0,0,0,0,-1,1210,484,0,0
-7,540,0,0,0,0,0,0,0,0,0,-1,1217,484,0,0
0,540,0,0,0,0,0,0,0,0,0,-1,1224,484,0,0
7,540,0,0,0,0,0,0,0,0,0,-1,1231,484,0,0
14,540,0,0,0,0,0,0,0,0,0,-1,1238,484,0,0
21,540,0,0,0,0,0,0,0,0,0,-1,1245,484,0,0
28,540,0,0,0,0,0,0,0,0,0,-1,1252,484,0,0
35,540,0,0,0,0,0,0,0,0,0,-1,1259,484,0,0
42,540,0,0,0,0,0,0,0,0,0,-1,1266,484,0,0
49,540,0,0,0,0,0,0,0,0,0,-1,1273,484,0,0
56,540,0,0,0,0,0,0,0,0,0,-1,1280,484,0,0
63,540,0,0,0,0,0,0,0,0,0,-1,1287,484,0,0
70,540,0,0,0,0,0,0,0,0,0,-1,1294,484,0,0
77,540,0,0,0,0,0,0,0,0,0,-1,1301,484,0,0
84,540,0,0,0,0,0,0,0,0,0,-1,1308,484,0,0
91,540,0,0,0,0,0,0,0,0,0,-1,1315,484,0,0
98,540,0,0,0,0,0,0,0,0,0,-1,1322,484,0,0
105,540,0,0,0,0,0,0,0,0,0,-1,1329,484,0,0
112,540,0,0,0,0,0,0,0,0,0,-1,1336,484,0,0
119,540,0,0,0,0,0,0,0,0,0,-1,1343,484,0,0
126,540,0,0,0,0,0,0,0,0,0,-1,1350,484,0,0
133,540,0,0,0,0,0,0,0,0,0,-1,1357,484,0,0
140,540,0,0,0,0,0,0,0,0,0,-1,1364,484,0,0
147,540,0,0,0,0,0,0,0,0,0,-1,1371,484,0,0
154,540,0,0,0,0,0,0,0,0,0,-1,1378,484,0,0
161,540,0,0,0,0,0,0,0,0,0,-1,1385,484,0,0
168,540,3.05078,-0.0010376,0,0,0,0,0,0,0,-1,1392,484,3.05084,0.00102554
175,540,3.37708,0.617035,0,0,0,0,0,0,0,-1,1399,484,3.37707,-0.617046
182,540,3.32678,1.23267,0,0,0,0,0,0,0,-1,1406,484,3.32678,-1.23266
189,540,3.5813,2.15619,0,0,0,0,0,0,0,-1,1413,484,3.58129,-2.1562
196,540,1.84448,-0.801483,0,0,0,0,0,0,0,-1,1420,484,1.84446,0.80148
203,540,4.14648,0.702087,0,0,0,0,0,0,0,-1,1427,484,4.14645,-0.702089
210,540,4.50671,-0.56076,0,0,0,0,0,0,0,-1,1434,484,4.50667,0.560771
217,540,5.00452,-0.278717,0,0,0,0,0,0,0,-1,1441,484,5.00452,0.278709
224,540,6.44458,-2.83527,0,0,0,0,0,0,0,-1,1448,484,6.44457,2.83525
231,540,6.9231,-3.10504,0,0,0,0,0,0,0,-1,1455,484,6.92307,3.10505
238,540,6.4823,-2.58365,0,0,0,0,0,0,0,-1,1462,484,6.48225,2.58363
245,540,6.02087,-1.97916,0,0,0,0,0,0,0,-1,1469,484,6.02088,1.97915
252,540,6.50647,-3.56006,0,0,0,0,0,0,0,-1,1476,484,6.50649,3.56006
259,540,6.01941,-2.798,0,0,0,0,0,0,0,-1,1483,484,6.01941,2.79801
266,540,5.5332,-2.02853,0,0,0,0,0,0,0,-1,1490,484,5.53323,2.02855
273,540,5.06787,-1.28137,0,0,0,0,0,0,0,-1,1497,484,5.06786,1.28136
280,540,1.62903,-2.14609,0,0,0,0,0,0,0,-1,1504,484,1.62906,2.1461
287,540,1.97156,-2.45053,0,0,0,0,0,0,0,-1,1511,484,1.97159,2.45053
294,540,2.44165,-2.6185,0,0,0,0,0,0,0,-1,1518,484,2.44167,2.6185
301,540,4.36169,-2.54272,0,0,0,0,0,0,0,-1,1525,484,4.36165,2.54272
308,540,4.2019,-4.30469,0,0,0,0,0,0,0,-1,1532,484,4.20193,4.3047
315,540,4.45923,-5.32101,0,0,0,0,0,0,0,-1,1539,484,4.45923,5.32103
322,540,4.71655,-6.33737,0,0,0,0,0,0,0,-1,1546,484,4.71653,6.33736
329,540,3.57336,-7.98721,0,0,0,0,0,0,0,-1,1553,484,3.5734,7.98722
336,540,3.12817,-7.58746,0,0,0,0,0,0,0,-1,1560,484,3.1282,7.58747
343,540,3.78479,-7.83466,0,0,0,0,0,0,0,-1,1567,484,3.78473,7.83465
350,540,4.12244,-7.30771,-0.00603764,-0.00787585,-0.00673435,-0.000159969,-0.0137535,-0.717577,0.00911616,0.0461923,1574,484,4.12243,7.3077
357,540,3.9386,-7.29028,-0.00488995,-0.00769381,-0.00615219,1.80178e-05,-0.0126018,-0.673374,0.0084072,0.0340166,1581,484,3.93857,7.2903
364,540,3.79919,-7.17282,-0.00392711,-0.00684976,-0.00569671,0.000492716,-0.0112696,-0.659845,0.00768256,0.0195144,1588,484,3.79924,7.17281
371,540,3.78406,-7.04919,-0.00314329,-0.00604724,-0.00496827,0.000580825,-0.00977136,-0.643232,0.00671622,0.0141267,1595,484,3.78401,7.04918
378,540,3.80994,-6.88669,-0.00228712,-0.00509941,-0.00417327,0.000710535,-0.00809706,-0.622901,0.0056498,0.0116251,1602,484,3.80989,6.88669
385,540,3.81677,-6.72598,-0.00174024,-0.00433097,-0.00362393,0.00081288,-0.00688409,-0.613751,0.00488296,0.0134172,1609,484,3.81679,6.72598
392,540,3.8075,-6.55304,-0.0013057,-0.00355237,-0.00314302,0.000908699,-0.00576677,-0.61377,0.00418046,0.0125424,1616,484,3.80754,6.55304
399,540,3.80774,-6.38672,-0.000851387,-0.00291301,-0.00254396,0.000862676,-0.00462707,-0.592908,0.00340885,0.0164988,1623,484,3.8078,6.38671
406,540,3.83765,-6.21896,-0.000392113,-0.00207015,-0.00187204,0.000820327,-0.00328259,-0.574726,0.00250698,0.0170247,1630,484,3.83761,6.21898
413,540,3.84021,-6.03763,-0.00010742,-0.00120497,-0.00127038,0.000727649,-0.00204004,-0.581516,0.00165672,0.012786,1637,484,3.84015,6.03762
420,540,3.84192,-5.83008,-7.29162e-05,-0.000355718,-0.000909075,0.00070569,-0.00113432,-0.708245,0.0010719,0.0118296,1644,484,3.84195,5.83008
427,540,3.83459,-5.64438,-0.000235971,0.000569821,-0.00080995,0.00107155,-0.000737699,-1.01619,0.00105048,0.0127097,1651,484,3.83457,5.64439
434,540,3.82166,-5.47382,-0.000458648,0.00149334,-0.000644218,0.00168679,-0.000652089,-1.27909,0.0013937,0.0151753,1658,484,3.82166,5.47383
441,540,3.85205,-5.26398,-0.00072129,0.0023545,-0.000573006,0.00245778,-0.00082457,-1.39247,0.00197172,0.0187754,1665,484,3.85202,5.26398
448,540,3.83777,-5.09097,-0.0010561,0.00342236,-0.000605208,0.00350271,-0.00113644,-1.43881,0.00279214,0.0117054,1672,484,3.83781,5.09097
455,540,3.81738,-4.89081,-0.00145948,0.00435592,-0.000769252,0.00445596,-0.00155951,-1.44148,0.00360473,0.0103857,1679,484,3.81733,4.89081
462,540,3.80725,-4.70114,-0.00177555,0.00510124,-0.00105657,0.00525992,-0.00193423,-1.42173,0.00429893,0.0103016,1686,484,3.80726,4.70114
469,540,3.80847,-4.53751,-0.00191899,0.00586377,-0.00146279,0.00612962,-0.00218484,-1.39101,0.0049772,0.0136704,1693,484,3.80849,4.5375
476,540,3.79492,-4.42087,-0.00209372,0.00647693,-0.00195389,0.00690135,-0.00251814,-1.3569,0.0056312,0.0201973,1700,484,3.79487,4.42086
483,540,3.84009,-4.22302,-0.00209827,0.0069925,-0.00246922,0.00761989,-0.00272566,-1.32198,0.00619179,0.031887,1707,484,3.84003,4.22304
490,540,3.99976,-3.95071,0,0,0,0,0,0,0,-1,1714,484,3.99972,3.95073
497,540,4.27393,-2.67752,0,0,0,0,0,0,0,-1,1721,484,4.27395,2.67751
504,540,4.03247,-3.39139,0,0,0,0,0,0,0,-1,1728,484,4.03242,3.39138
511,540,4.84961,-2.19421,0,0,0,0,0,0,0,-1,1735,484,4.84959,2.19422
518,540,4.7207,-2.31189,0,0,0,0,0,0,0,-1,1742,484,4.72067,2.3119
525,540,4.5918,-2.4296,0,0,0,0,0,0,0,-1,1749,484,4.59174,2.42958
532,540,2.84265,-1.07925,0,0,0,0,0,0,0,-1,1756,484,2.84269,1.07927
539,540,0,0,0,0,0,0,0,0,0,-1,1763,484,0,0
546,540,0,0,0,0,0,0,0,0,0,-1,1770,484,0,0
553,540,0,0,0,0,0,0,0,0,0,-1,1777,484,0,0
560,540,0,0,0,0,0,0,0,0,0,-1,1784,484,0,0
567,540,0,0,0,0,0,0,0,0,0,-1,1791,484,0,0
574,540,0,0,0,0,0,0,0,0,0,-1,1798,484,0,0
581,540,0,0,0,0,0,0,0,0,0,-1,1805,484,0,0
588,540,0,0,0,0,0,0,0,0,0,-1,1812,484,0,0
595,540,0,0,0,0,0,0,0,0,0,-1,1819,484,0,0
602,540,0,0,0,0,0,0,0,0,0,-1,1826,484,0,0
609,540,0,0,0,0,0,0,0,0,0,-1,1833,484,0,0
616,540,0,0,0,0,0,0,0,0,0,-1,1840,484,0,0
623,540,0,0,0,0,0,0,0,0,0,-1,1847,484,0,0
630,540,0,0,0,0,0,0,0,0,0,-1,1854,484,0,0
637,540,0,0,0,0,0,0,0,0,0,-1,1861,484,0,0
644,540,0,0,0,0,0,0,0,0,0,-1,1868,484,0,0
651,540,0,0,0,0,0,0,0,0,0,-1,1875,484,0,0
658,540,0,0,0,0,0,0,0,0,0,-1,1882,484,0,0
665,540,0,0,0,0,0,0,0,0,0,-1,1889,484,0,0
672,540,0,0,0,0,0,0,0,0,0,-1,1896,484,0,0
679,540,0,0,0,0,0,0,0,0,0,-1,1903,484,0,0
686,540,0,0,0,0,0,0,0,0,0,-1,1910,484,0,0
693,540,0,0,0,0,0,0,0,0,0,-1,1917,484,0,0
700,540,0,0,0,0,0,0,0,0,0,-1,1924,484,0,0
707,540,0,0,0,0,0,0,0,0,0,-1,1931,484,0,0
714,540,0,0,0,0,0,0,0,0,0,-1,1938,484,0,0
721,540,0,0,0,0,0,0,0,0,0,-1,1945,484,0,0
728,540,0,0,0,0,0,0,0,0,0,-1,1952,484,0,0
735,540,0,0,0,0,0,0,0,0,0,-1,1959,484,0,0
742,540,0,0,0,0,0,0,0,0,0,-1,1966,484,0,0
749,540,0,0,0,0,0,0,0,0,0,-1,1973,484,0,0
756,540,0,0,0,0,0,0,0,0,0,-1,1980,484,0,0
763,540,0,0,0,0,0,0,0,0,0,-1,1987,484,0,0
770,540,0,0,0,0,0,0,0,0,0,-1,1994,484,0,0
777,540,0,0,0,0,0,0,0,0,0,-1,2001,484,0,0
784,540,0,0,0,0,0,0,0,0,0,-1,2008,484,0,0
791,540,0,0,0,0,0,0,0,0,0,-1,2015,484,0,0
798,540,0,0,0,0,0,0,0,0,0,-1,2022,484,0,0
805,540,0,0,0,0,0,0,0,0,0,-1,2029,484,0,0
812,540,0,0,0,0,0,0,0,0,0,-1,2036,484,0,0
-700,533,0,0,0,0,0,0,0,0,0,-1,524,491,0,0
-693,533,0,0,0,0,0,0,0,0,0,-1,531,491,0,0
-686,533,0,0,0,0,0,0,0,0,0,-1,538,491,0,0
-679,533,0,0,0,0,0,0,0,0,0,-1,545,491,0,0
-672,533,0,0,0,0,0,0,0,0,0,-1,552,491,0,0
-665,533,0,0,0,0,0,0,0,0,0,-1,559,491,0,0
-658,533,0,0,0,0,0,0,0,0,0,-1,566,491,0,0
-651,533,0,0,0,0,0,0,0,0,0,-1,573,491,0,0
-644,533,0,0,0,0,0,0,0,0,0,-1,580,491,0,0
-637,533,0,0,0,0,0,0,0,0,0,-1,587,491,0,0
-630,533,0,0,0,0,0,0,0,0,0,-1,594,491,0,0
-623,533,0,0,0,0,0,0,0,0,0,-1,601,491,0,0
-616,533,0,0,0,0,0,0,0,0,0,-1,608,491,0,0
-609,533,0,0,0,0,0,0,0,0,0,-1,615,491,0,0
-602,533,0,0,0,0,0,0,0,0,0,-1,622,491,0,0
-595,533,0,0,0,0,0,0,0,0,0,-1,629,491,0,0
-588,533,0,0,0,0,0,0,0,0,0,-1,636,491,0,0
-581,533,0,0,0,0,0,0,0,0,0,-1,643,491,0,0
-574,533,0,0,0,0,0,0,0,0,0,-1,650,491,0,0
-567,533,0,0,0,0,0,0,0,0,0,-1,657,491,0,0
-560,533,0,0,0,0,0,0,0,0,0,-1,664,491,0,0
-553,533,0,0,0,0,0,0,0,0,0,-1,671,491,0,0
-546,533,0,0,0,0,0,0,0,0,0,-1,678,491,0,0
-539,533,0,0,0,0,0,0,0,0,0,-1,685,491,0,0
-532,533,0,0,0,0,0,0,0,0,0,-1,692,491,0,0
-525,533,0,0,0,0,0,0,0,0,0,-1,699,491,0,0
-518,533,0,0,0,0,0,0,0,0,0,-1,706,491,0,0
-511,533,0,0,0,0,0,0,0,0,0,-1,713,491,0,0
-504,533,0,0,0,0,0,0,0,0,0,-1,720,491,0,0
-497,533,0,0,0,0,0,0,0,0,0,-1,727,491,0,0
-490,533,0,0,0,0,0,0,0,0,0,-1,734,491,0,0
-483,533,0,0,0,0,0,0,0,0,0,-1,741,491,0,0
-476,533,0,0,0,0,0,0,0,0,0,-1,748,491,0,0
-469,533,0,0,0,0,0,0,0,0,0,-1,755,491,0,0
-462,533,0,0,0,0,0,0,0,0,0,-1,762,491,0,0
-455,533,0,0,0,0,0,0,0,0,0,-1,769,491,0,0
-448,533,0,0,0,0,0,0,0,0,0,-1,776,491,0,0
-441,533,0,0,0,0,0,0,0,0,0,-1,783,491,0,0
-434,533,0,0,0,0,0,0,0,0,0,-1,790,491,0,0
-427,533,1.93567,-3.11438,0,0,0,0,0,0,0,-1,797,491,1.93568,3.11438
-420,533,1.66962,-3.27048,-0.0195105,0.0407806,0.0164723,0.0449875,-0.0237174,1.32075,0.0402955,0.0488816,804,491,1.6696,3.27048
-413,533,1.4718,-3.42236,-0.025725,0.0405081,0.0218646,0.0470749,-0.0322918,1.27903,0.0460866,0.0468763,811,491,1.4718,3.42237
-406,533,1.15082,-3.2709,-0.0277629,0.0378542,0.0232266,0.0452436,-0.0351523,1.26278,0.0465383,0.0430346,818,491,1.15081,3.2709
-399,533,0.856262,-3.04358,-0.0249326,0.0347858,0.0213531,0.0416353,-0.0317821,1.26039,0.0425146,0.0443783,825,491,0.856241,3.04357
-392,533,0.584106,-2.77829,0,0,0,0,0,0,0,-1,832,491,0.584081,2.77828
-385,533,0.109924,-4.41916,0,0,0,0,0,0,0,-1,839,491,0.109918,4.41915
-378,533,-0.761414,-5.15549,0,0,0,0,0,0,0,-1,846,491,-0.761387,5.15549
-371,533,0.0639648,-4.8757,0,0,0,0,0,0,0,-1,853,491,0.0639538,4.8757
-364,533,0.165649,-5.00104,-0.00668932,0.0125529,0.0072072,0.014953,-0.00908942,1.24933,0.0140178,0.0416087,860,491,0.165642,5.00103
-357,533,0.358459,-5.4761,-0.00384147,0.00894546,0.0050203,0.0106809,-0.00557696,1.23796,0.00953944,0.0243407,867,491,0.358455,5.4761
-350,533,0.322327,-5.58972,-0.00155482,0.00568398,0.00260676,0.00652499,-0.00239583,1.25871,0.00533118,0.0114423,874,491,0.322335,5.58972
-343,533,0.319031,-5.79877,-0.00038589,0.00383248,0.00147817,0.00429888,-0.000852294,1.26516,0.00318822,0.0104642,881,491,0.319042,5.79877
-336,533,0.288391,-5.99905,-0.000139153,0.00277315,0.00137115,0.0033171,-0.000683107,1.19313,0.00247078,0.0146194,888,491,0.288416,5.99906
-329,533,0.294983,-6.15671,-3.28462e-05,0.0019625,0.00119005,0.00251775,-0.000588092,1.13424,0.00190503,0.0126466,895,491,0.294967,6.15672
-322,533,0.295349,-6.30533,4.14605e-05,0.00137755,0.000932316,0.00185645,-0.000437446,1.09627,0.00140632,0.0100713,902,491,0.295323,6.30533
-315,533,0.281189,-6.4762,0.000101447,0.000903726,0.000669832,0.00128335,-0.000278174,1.05519,0.000961794,0.0113495,909,491,0.281194,6.4762
-308,533,0.284302,-6.65027,0.000223615,0.000480358,0.000465562,0.000834922,-0.00013095,0.919923,0.000605007,0.0113974,916,491,0.284327,6.65027
-301,533,0.267029,-6.79376,0.000478297,0.000302518,0.00016284,0.000575452,0.000205363,0.537937,0.000336744,0.0127433,923,491,0.267037,6.79375
-294,533,0.287537,-6.96454,0.000837736,0.000126752,-7.39241e-05,0.000845341,0.000119147,-0.102513,0.000528342,0.011739,930,491,0.287544,6.96454
-287,533,0.2995,-7.15781,0.00124146,-1.63955e-05,-0.000247095,0.00128826,-6.31938e-05,-0.187178,0.000880661,0.00937952,937,491,0.299527,7.15779
-280,533,0.301147,-7.32965,0.00159486,-0.000259347,-0.000391988,0.00167433,-0.00033881,-0.200007,0.00124462,0.00895728,944,491,0.301134,7.32965
-273,533,0.3078,-7.48434,0.00186958,-0.000361967,-0.000434819,0.00195131,-0.000443698,-0.185798,0.00147125,0.0118911,951,491,0.307826,7.48433
-266,533,0.311157,-7.63388,0.00213173,-0.000480364,-0.000367303,0.0021824,-0.00053103,-0.137076,0.00166049,0.0111421,958,491,0.311166,7.63387
-259,533,0.317444,-7.78653,0.00228489,-0.000589576,-0.000183299,0.00229653,-0.000601218,-0.0634255,0.00176588,0.0117849,965,491,0.317459,7.78653
-252,533,0.320618,-7.90869,0.00219419,-0.000901424,0.000237558,0.00221231,-0.000919548,0.076146,0.00185882,0.0134947,972,491,0.320634,7.9087
-245,533,0.376953,-8.02536,0.0020785,-0.00133971,0.000953797,0.00232663,-0.00158784,0.254509,0.00227339,0.0196218,979,491,0.376925,8.02536
-238,533,0.370483,-8.12521,0.00202537,-0.0023354,0.00190414,0.00273978,-0.00304981,0.358935,0.00334422,0.0210957,986,491,0.370499,8.12521
-231,533,0.442383,-8.27875,0.00241488,-0.00435133,0.00312034,0.00363416,-0.00557061,0.372508,0.00535343,0.0284082,993,491,0.442354,8.27876
-224,533,0.265015,-8.53479,0.00247356,-0.00609311,0.00462933,0.00449718,-0.00811673,0.4121,0.00738191,0.037736,1000,491,0.265011,8.53479
-217,533,0.202393,-8.66653,0.00273502,-0.00835707,0.00647792,0.0057167,-0.0113387,0.431373,0.0100237,0.0433424,1007,491,0.202392,8.66654
-210,533,0.208984,-8.69571,0,0,0,0,0,0,0,-1,1014,491,0.208975,8.69572
-203,533,0.151611,-8.64478,0,0,0,0,0,0,0,-1,1021,491,0.151583,8.64478
-196,533,-0.0411377,-8.76099,0,0,0,0,0,0,0,-1,1028,491,-0.0411046,8.76098
-189,533,0.377808,-8.96536,0,0,0,0,0,0,0,-1,1035,491,0.37775,8.96535
-182,533,0.805786,-7.42383,0,0,0,0,0,0,0,-1,1042,491,0.805827,7.42383
-175,533,0.937744,-7.36966,0,0,0,0,0,0,0,-1,1049,491,0.937769,7.36965
-168,533,2.64807,-2.7543,0,0,0,0,0,0,0,-1,1056,491,2.64812,2.7543
-161,533,1.91833,-1.76553,0,0,0,0,0,0,0,-1,1063,491,1.91836,1.76554
-154,533,-1.24805,-5.92294,0,0,0,0,0,0,0,-1,1070,491,-1.24806,5.92295
-147,533,-0.449951,-7.10913,0,0,0,0,0,0,0,-1,1077,491,-0.449921,7.10912
-140,533,0.481812,-8.27359,0,0,0,0,0,0,0,-1,1084,491,0.481827,8.2736
-133,533,1.23474,-8.92532,0,0,0,0,0,0,0,-1,1091,491,1.2347,8.92532
-126,533,2.89612,-2.59003,0,0,0,0,0,0,0,-1,1098,491,2.89608,2.59003
-119,533,3.00842,-12.8239,0,0,0,0,0,0,0,-1,1105,491,3.00841,12.8239
-112,533,1.69788,-3.8486,0,0,0,0,0,0,0,-1,1112,491,1.69793,3.84862
-105,533,3.84839,1.12769,0,0,0,0,0,0,0,-1,1119,491,3.84843,-1.12769
-98,533,-1.39392,-5.16367,0,0,0,0,0,0,0,-1,1126,491,-1.39394,5.16367
-91,533,0.367432,4.49753,0,0,0,0,0,0,0,-1,1133,491,0.367468,-4.49754
-84,533,-0.88623,3.03604,0,0,0,0,0,0,0,-1,1140,491,-0.886288,-3.03605
-77,533,0,0,0,0,0,0,0,0,0,-1,1147,491,0,0
-70,533,0,0,0,0,0,0,0,0,0,-1,1154,491,0,0
-63,533,0,0,0,0,0,0,0,0,0,-1,1161,491,0,0
-56,533,0,0,0,0,0,0,0,0,0,-1,1168,491,0,0
-49,533,0,0,0,0,0,0,0,0,0,-1,1175,491,0,0
-42,533,0,0,0,0,0,0,0,0,0,-1,1182,491,0,0
-35,533,0,0,0,0,0,0,0,0,0,-1,1189,491,0,0
-28,533,0,0,0,0,0,0,0,0,0,-1,1196,491,0,0
-21,533,0,0,0,0,0,0,0,0,0,-1,1203,491,0,0
-14,533,0,0,0,0,0,0,0,0,0,-1,1210,491,0,0
-7,533,0,0,0,0,0,0,0,0,0,-1,1217,491,0,0
0,533,0,0,0,0,0,0,0,0,0,-1,1224,491,0,0
7,533,0,0,0,0,0,0,0,0,0,-1,1231,491,0,0
14,533,0,0,0,0,0,0,0,0,0,-1,1238,491,0,0
21,533,0,0,0,0,0,0,0,0,0,-1,1245,491,0,0
28,533,0,0,0,0,0,0,0,0,0,-1,1252,491,0,0
35,533,0,0,0,0,0,0,0,0,0,-1,1259,491,0,0
42,533,0,0,0,0,0,0,0,0,0,-1,1266,491,0,0
49,533,0,0,0,0,0,0,0,0,0,-1,1273,491,0,0
56,533,0,0,0,0,0,0,0,0,0,-1,1280,491,0,0
63,533,0,0,0,0,0,0,0,0,0,-1,1287,491,0,0
70,533,0,0,0,0,0,0,0,0,0,-1,1294,491,0,0
77,533,0,0,0,0,0,0,0,0,0,-1,1301,491,0,0
84,533,0,0,0,0,0,0,0,0,0,-1,1308,491,0,0
91,533,0,0,0,0,0,0,0,0,0,-1,1315,491,0,0
98,533,0,0,0,0,0,0,0,0,0,-1,1322,491,0,0
105,533,0,0,0,0,0,0,0,0,0,-1,1329,491,0,0
112,533,0,0,0,0,0,0,0,0,0,-1,1336,491,0,0
119,533,0,0,0,0,0,0,0,0,0,-1,1343,491,0,0
126,533,0,0,0,0,0,0,0,0,0,-1,1350,491,0,0
133,533,0,0,0,0,0,0,0,0,0,-1,1357,491,0,0
140,533,0,0,0,0,0,0,0,0,0,-1,1364,491,0,0
147,533,0,0,0,0,0,0,0,0,0,-1,1371,491,0,0
154,533,0,0,0,0,0,0,0,0,0,-1,1378,491,0,0
161,533,0,0,0,0,0,0,0,0,0,-1,1385,491,0,0
168,533,0,0,0,0,0,0,0,0,0,-1,1392,491,0,0
175,533,0,0,0,0,0,0,0,0,0,-1,1399,491,0,0
182,533,0,0,0,0,0,0,0,0,0,-1,1406,491,0,0
189,533,0,0,0,0,0,0,0,0,0,-1,1413,491,0,0
196,533,0,0,0,0,0,0,0,0,0,-1,1420,491,0,0
203,533,3.7887,1.16193,0,0,0,0,0,0,0,-1,1427,491,3.78872,-1.16193
210,533,5.09558,-0.216034,0,0,0,0,0,0,0,-1,1434,491,5.09559,0.216028
217,533,6.91614,-2.46814,0,0,0,0,0,0,0,-1,1441,491,6.91618,2.46814
224,533,7.23621,-2.1857,0,0,0,0,0,0,0,-1,1448,491,7.23621,2.1857
231,533,7.23474,-1.92282,0,0,0,0,0,0,0,-1,1455,491,7.2347,1.92282
238,533,7.23535,-1.67258,0,0,0,0,0,0,0,-1,1462,491,7.23539,1.67258
245,533,6.86682,-1.2301,0,0,0,0,0,0,0,-1,1469,491,6.86686,1.23011
252,533,6.63354,-3.07825,0,0,0,0,0,0,0,-1,1476,491,6.6335,3.07824
259,533,6.16431,-2.35037,0,0,0,0,0,0,0,-1,1483,491,6.1643,2.35037
266,533,5.68884,-1.6214,0,0,0,0,0,0,0,-1,1490,491,5.68885,1.6214
273,533,5.21399,-0.864227,0,0,0,0,0,0,0,-1,1497,491,5.21403,0.864227
280,533,1.41089,-1.97946,0,0,0,0,0,0,0,-1,1504,491,1.41087,1.97946
287,533,1.6814,-2.44443,0,0,0,0,0,0,0,-1,1511,491,1.6814,2.44444
294,533,2.2384,-2.57626,0,0,0,0,0,0,0,-1,1518,491,2.23839,2.57625
301,533,3.39941,-4.0817,0,0,0,0,0,0,0,-1,1525,491,3.3994,4.08171
308,533,4.13733,-4.14752,0,0,0,0,0,0,0,-1,1532,491,4.13727,4.14752
315,533,4.80762,-5.29349,0,0,0,0,0,0,0,-1,1539,491,4.80762,5.29347
322,533,5.47803,-6.43942,0,0,0,0,0,0,0,-1,1546,491,5.47798,6.43943
329,533,3.88477,-3.86301,0,0,0,0,0,0,0,-1,1553,491,3.88475,3.86299
336,533,2.52332,-7.37228,0,0,0,0,0,0,0,-1,1560,491,2.52334,7.37227
343,533,5.87952,-6.38858,0,0,0,0,0,0,0,-1,1567,491,5.87953,6.38857
350,533,4.48535,-6.888,0,0,0,0,0,0,0,-1,1574,491,4.48536,6.88799
357,533,4.35986,-7.08221,-0.00687249,-0.0110155,-0.00844777,-0.000245947,-0.017642,-0.665165,0.0116802,0.0469483,1581,491,4.35988,7.08222
364,533,4.11218,-7.17279,-0.00538013,-0.00980322,-0.00790549,0.000617321,-0.0158007,-0.649011,0.0107455,0.0376511,1588,491,4.11224,7.17278
371,533,3.92383,-7.07248,-0.00423497,-0.00871039,-0.00693478,0.000814192,-0.0137595,-0.629332,0.00945612,0.0317945,1595,491,3.92378,7.07247
378,533,3.92017,-6.87485,-0.00302716,-0.00744844,-0.00590177,0.00106441,-0.01154,-0.6062,0.00807157,0.0224968,1602,491,3.92018,6.87484
385,533,4.00439,-6.69885,-0.00228243,-0.00637595,-0.00517048,0.00123166,-0.00989005,-0.596934,0.00703993,0.0198328,1609,491,4.0044,6.69884
392,533,3.98083,-6.5488,-0.00173334,-0.00529024,-0.00454695,0.00137059,-0.00839417,-0.59898,0.00610449,0.0138424,1616,491,3.98083,6.54881
399,533,3.98376,-6.39883,-0.00122383,-0.00443498,-0.00384826,0.00134036,-0.00699917,-0.587767,0.00517113,0.0133102,1623,491,3.9838,6.39883
406,533,4.01587,-6.22781,-0.000698668,-0.00335281,-0.00305004,0.0013005,-0.00535198,-0.580201,0.00407132,0.0164329,1630,491,4.01585,6.2278
413,533,4.01611,-6.02368,-0.000264359,-0.00235139,-0.00230966,0.00122658,-0.00384233,-0.573221,0.00305366,0.0131912,1637,491,4.01607,6.02367
420,533,4.00757,-5.81665,-0.000122282,-0.00147952,-0.00178715,0.00111076,-0.00271255,-0.603947,0.00227105,0.0117783,1644,491,4.00755,5.81666
427,533,4.02075,-5.62192,-0.000198561,-0.000567224,-0.00146527,0.00109392,-0.00185971,-0.722826,0.00172428,0.0131265,1651,491,4.02073,5.62191
434,533,4.01648,-5.45291,-0.000336972,0.000319622,-0.00113604,0.00117385,-0.0011912,-0.926058,0.00136547,0.0135459,1658,491,4.01643,5.4529
441,533,4.03577,-5.26517,-0.000465504,0.00103744,-0.000882729,0.00144525,-0.000873307,-1.13802,0.00135213,0.0147627,1665,491,4.03571,5.26517
448,533,4.04114,-5.08612,-0.000594552,0.00195215,-0.000701847,0.00213276,-0.000775166,-1.31892,0.00173881,0.015123,1672,491,4.04118,5.08611
455,533,4.01904,-4.92081,-0.000763581,0.00265865,-0.000616921,0.00276647,-0.000871396,-1.39778,0.00219326,0.0152214,1679,491,4.01907,4.92082
462,533,3.99927,-4.71268,-0.000855352,0.00312178,-0.000620623,0.00321638,-0.000949949,-1.41954,0.00252128,0.0142834,1686,491,3.99925,4.71267
469,533,4.00256,-4.53262,-0.000737797,0.00351732,-0.000735614,0.00364091,-0.000861379,-1.40435,0.00275958,0.00916393,1693,491,4.00254,4.53262
476,533,3.99963,-4.33966,-0.000643335,0.00378472,-0.000945781,0.00397827,-0.000836883,-1.36894,0.0029707,0.010226,1700,491,3.99963,4.33967
483,533,4.02136,-4.12497,-0.000428057,0.00395452,-0.00117213,0.00424831,-0.00072185,-1.32521,0.00310096,0.0165701,1707,491,4.02131,4.12496
490,533,4.10291,-4.04199,-0.000171176,0.00402903,-0.00139825,0.00445193,-0.000594074,-1.2771,0.0031845,0.0370679,1714,491,4.10288,4.04199
497,533,4.08997,-3.74997,0,0,0,0,0,0,0,-1,1721,491,4.08991,3.74996
504,533,4.13843,-3.47226,0,0,0,0,0,0,0,-1,1728,491,4.13845,3.47226
511,533,4.24316,-3.33386,0,0,0,0,0,0,0,-1,1735,491,4.24314,3.33385
518,533,4.59766,-2.81537,0,0,0,0,0,0,0,-1,1742,491,4.5976,2.81538
525,533,4.39819,-2.94946,0,0,0,0,0,0,0,-1,1749,491,4.39814,2.94946
532,533,3.24243,0.0737,0,0,0,0,0,0,0,-1,1756,491,3.24239,-0.0737072
539,533,3.61609,1.62427,0,0,0,0,0,0,0,-1,1763,491,3.61606,-1.62426
546,533,3.59607,1.65799,0,0,0,0,0,0,0,-1,1770,491,3.59605,-1.658
553,533,0,0,0,0,0,0,0,0,0,-1,1777,491,0,0
560,533,0,0,0,0,0,0,0,0,0,-1,1784,491,0,0
567,533,0,0,0,0,0,0,0,0,0,-1,1791,491,0,0
574,533,0,0,0,0,0,0,0,0,0,-1,1798,491,0,0
581,533,0,0,0,0,0,0,0,0,0,-1,1805,491,0,0
588,533,0,0,0,0,0,0,0,0,0,-1,1812,491,0,0
595,533,0,0,0,0,0,0,0,0,0,-1,1819,491,0,0
602,533,0,0,0,0,0,0,0,0,0,-1,1826,491,0,0
609,533,0,0,0,0,0,0,0,0,0,-1,1833,491,0,0
616,533,0,0,0,0,0,0,0,0,0,-1,1840,491,0,0
623,533,0,0,0,0,0,0,0,0,0,-1,1847,491,0,0
630,533,0,0,0,0,0,0,0,0,0,-1,1854,491,0,0
637,533,0,0,0,0,0,0,0,0,0,-1,1861,491,0,0
644,533,0,0,0,0,0,0,0,0,0,-1,1868,491,0,0
651,533,0,0,0,0,0,0,0,0,0,-1,1875,491,0,0
658,533,0,0,0,0,0,0,0,0,0,-1,1882,491,0,0
665,533,0,0,0,0,0,0,0,0,0,-1,1889,491,0,0
672,533,0,0,0,0,0,0,0,0,0,-1,1896,491,0,0
679,533,0,0,0,0,0,0,0,0,0,-1,1903,491,0,0
686,533,0,0,0,0,0,0,0,0,0,-1,1910,491,0,0
693,533,0,0,0,0,0,0,0,0,0,-1,1917,491,0,0
700,533,0,0,0,0,0,0,0,0,0,-1,1924,491,0,0
707,533,0,0,0,0,0,0,0,0,0,-1,1931,491,0,0
714,533,0,0,0,0,0,0,0,0,0,-1,1938,491,0,0
721,533,0,0,0,0,0,0,0,0,0,-1,1945,491,0,0
728,533,0,0,0,0,0,0,0,0,0,-1,1952,491,0,0
735,533,0,0,0,0,0,0,0,0,0,-1,1959,491,0,0
742,533,0,0,0,0,0,0,0,0,0,-1,1966,491,0,0
749,533,0,0,0,0,0,0,0,0,0,-1,1973,491,0,0
756,533,0,0,0,0,0,0,0,0,0,-1,1980,491,0,0
763,533,0,0,0,0,0,0,0,0,0,-1,1987,491,0,0
770,533,0,0,0,0,0,0,0,0,0,-1,1994,491,0,0
777,533,0,0,0,0,0,0,0,0,0,-1,2001,491,0,0
784,533,0,0,0,0,0,0,0,0,0,-1,2008,491,0,0
791,533,0,0,0,0,0,0,0,0,0,-1,2015,491,0,0
798,533,0,0,0,0,0,0,0,0,0,-1,2022,491,0,0
805,533,0,0,0,0,0,0,0,0,0,-1,2029,491,0,0
812,533,0,0,0,0,0,0,0,0,0,-1,2036,491,0,0
-700,526,0,0,0,0,0,0,0,0,0,-1,524,498,0,0
-693,526,0,0,0,0,0,0,0,0,0,-1,531,498,0,0
-686,526,0,0,0,0,0,0,0,0,0,-1,538,498,0,0
-679,526,0,0,0,0,0,0,0,0,0,-1,545,498,0,0
-672,526,0,0,0,0,0,0,0,0,0,-1,552,498,0,0
-665,526,0,0,0,0,0,0,0,0,0,-1,559,498,0,0
-658,526,0,0,0,0,0,0,0,0,0,-1,566,498,0,0
-651,526,0,0,0,0,0,0,0,0,0,-1,573,498,0,0
-644,526,0,0,0,0,0,0,0,0,0,-1,580,498,0,0
-637,526,0,0,0,0,0,0,0,0,0,-1,587,498,0,0
-630,526,0,0,0,0,0,0,0,0,0,-1,594,498,0,0
-623,526,0,0,0,0,0,0,0,0,0,-1,601,498,0,0
-616,526,0,0,0,0,0,0,0,0,0,-1,608,498,0,0
-609,526,0,0,0,0,0,0,0,0,0,-1,615,498,0,0
-602,526,0,0,0,0,0,0,0,0,0,-1,622,498,0,0
-595,526,0,0,0,0,0,0,0,0,0,-1,629,498,0,0
-588,526,0,0,0,0,0,0,0,0,0,-1,636,498,0,0
-581,526,0,0,0,0,0,0,0,0,0,-1,643,498,0,0
-574,526,0,0,0,0,0,0,0,0,0,-1,650,498,0,0
-567,526,0,0,0,0,0,0,0,0,0,-1,657,498,0,0
-560,526,0,0,0,0,0,0,0,0,0,-1,664,498,0,0
-553,526,0,0,0,0,0,0,0,0,0,-1,671,498,0,0
-546,526,0,0,0,0,0,0,0,0,0,-1,678,498,0,0
-539,526,0,0,0,0,0,0,0,0,0,-1,685,498,0,0
-532,526,0,0,0,0,0,0,0,0,0,-1,692,498,0,0
-525,526,0,0,0,0,0,0,0,0,0,-1,699,498,0,0
-518,526,0,0,0,0,0,0,0,0,0,-1,706,498,0,0
-511,526,0,0,0,0,0,0,0,0,0,-1,713,498,0,0
-504,526,0,0,0,0,0,0,0,0,0,-1,720,498,0,0
-497,526,0,0,0,0,0,0,0,0,0,-1,727,498,0,0
-490,526,0,0,0,0,0,0,0,0,0,-1,734,498,0,0
-483,526,0,0,0,0,0,0,0,0,0,-1,741,498,0,0
-476,526,0,0,0,0,0,0,0,0,0,-1,748,498,0,0
-469,526,0,0,0,0,0,0,0,0,0,-1,755,498,0,0
-462,526,0,0,0,0,0,0,0,0,0,-1,762,498,0,0
-455,526,0,0,0,0,0,0,0,0,0,-1,769,498,0,0
-448,526,0,0,0,0,0,0,0,0,0,-1,776,498,0,0
-441,526,0,0,0,0,0,0,0,0,0,-1,783,498,0,0
-434,526,2.6192,-2.73575,0,0,0,0,0,0,0,-1,790,498,2.6192,2.73576
-427,526,1.59717,-4.03464,0,0,0,0,0,0,0,-1,797,498,1.59715,4.03463
-420,526,1.39111,-3.854,-0.0016553,0.0330681,0.00410077,0.0335458,-0.00213302,1.45482,0.0231077,0.0491178,804,498,1.39109,3.854
-413,526,1.15778,-3.81345,-0.00906674,0.0324551,0.0103823,0.0349064,-0.0115181,1.33894,0.027914,0.0490513,811,498,1.15775,3.81344
-406,526,0.838013,-3.51831,-0.0132232,0.030285,0.0132787,0.0340175,-0.0169557,1.29678,0.0299739,0.042781,818,498,0.838007,3.51832
-399,526,0.447754,-3.36685,0,0,0,0,0,0,0,-1,825,498,0.447775,3.36686
-392,526,0.758972,-4.1546,0,0,0,0,0,0,0,-1,832,498,0.758973,4.15459
-385,526,0.2229,-4.42041,0,0,0,0,0,0,0,-1,839,498,0.222912,4.42041
-378,526,0.175232,-4.7627,0,0,0,0,0,0,0,-1,846,498,0.175257,4.76269
-371,526,0.0740356,-5.00293,-0.00813727,0.0134744,0.00728562,0.0157011,-0.0103639,1.27419,0.0151535,0.0414999,853,498,0.07405,5.00292
-364,526,0.172058,-5.28018,-0.00518798,0.00968018,0.00502894,0.0112214,-0.00672918,1.27342,0.0104714,0.0227056,860,498,0.172084,5.28019
-357,526,0.115784,-5.42801,-0.00286188,0.00681331,0.00337308,0.00787317,-0.00392174,1.26635,0.00693601,0.0146525,867,498,0.115792,5.42802
-350,526,0.144348,-5.61075,-0.0010744,0.00424484,0.00142809,0.004604,-0.00143355,1.32441,0.00364246,0.0110308,874,498,0.144366,5.61075
-343,526,0.147217,-5.79446,-0.000114314,0.00280966,0.000523667,0.00290062,-0.00020527,1.39882,0.00200567,0.0148208,881,498,0.147237,5.79446
-336,526,0.111816,-5.99481,0.000151048,0.00203695,0.000488924,0.00215617,3.18304e-05,1.33163,0.00142696,0.014842,888,498,0.111795,5.99482
-329,526,0.121338,-6.15649,0.000303909,0.0014638,0.000393691,0.0015848,0.000182905,1.2726,0.00100115,0.0143131,895,498,0.121332,6.15648
-322,526,0.129089,-6.32355,0.000423261,0.00105978,0.000226497,0.00113215,0.000350894,1.26154,0.000669205,0.00965126,902,498,0.129098,6.32354
-315,526,0.130493,-6.492,0.000521854,0.000709205,3.99927e-05,0.000717385,0.000513674,1.36905,0.000426875,0.00845154,909,498,0.130474,6.49201
-308,526,0.131592,-6.66132,0.000697541,0.000398125,-9.88222e-05,0.000727216,0.00036845,-0.291721,0.000419871,0.00837875,916,498,0.131572,6.66131
-301,526,0.118225,-6.80798,0.000966551,0.000248969,-0.000316519,0.00108621,0.000129309,-0.361442,0.000685117,0.00978406,923,498,0.118197,6.80797
-294,526,0.119507,-6.97705,0.00132096,0.000147942,-0.000431925,0.00146284,6.06111e-06,-0.317381,0.000973212,0.00931234,930,498,0.119519,6.97706
-287,526,0.123535,-7.15613,0.00175101,-8.78169e-07,-0.000503663,0.00188549,-0.000135357,-0.260915,0.00130445,0.0098633,937,498,0.123527,7.15614
-280,526,0.117249,-7.32465,0.00213982,-0.00035246,-0.000600656,0.00227703,-0.000489669,-0.224577,0.00170485,0.0127451,944,498,0.117222,7.32463
-273,526,0.139038,-7.47879,0.00252618,-0.000558412,-0.000586421,0.0026339,-0.000666136,-0.181672,0.00201502,0.00995278,951,498,0.139021,7.47879
-266,526,0.161865,-7.62793,0.00286743,-0.000781368,-0.000471944,0.00292748,-0.000841422,-0.126568,0.00228438,0.00957849,958,498,0.161851,7.62792
-259,526,0.17218,-7.772,0.00297569,-0.00101975,-0.000247392,0.00299095,-0.00103501,-0.0616049,0.0024141,0.0171453,965,498,0.172178,7.772
-252,526,0.201843,-7.88327,0.00286737,-0.00149122,0.00029458,0.00288719,-0.00151104,0.0671788,0.00258042,0.0333768,972,498,0.201872,7.88326
-245,526,0.172485,-8.1026,0.00270859,-0.00207663,0.00114866,0.00297003,-0.00233808,0.223796,0.00307187,0.0432593,979,498,0.17251,8.1026
-238,526,0.338928,-8.14734,0.00263727,-0.00313931,0.00222237,0.0033933,-0.00389535,0.327914,0.00421143,0.0415611,986,498,0.33894,8.14735
-231,526,0.421631,-8.16681,0.00304592,-0.00549349,0.00363802,0.00438563,-0.00683321,0.352843,0.00652838,0.0455949,993,498,0.421657,8.1668
-224,526,0.563232,-8.33392,0,0,0,0,0,0,0,-1,1000,498,0.563243,8.33394
-217,526,-0.0976563,-8.63815,0,0,0,0,0,0,0,-1,1007,498,-0.0976389,8.63816
-210,526,0.171021,-8.39801,0,0,0,0,0,0,0,-1,1014,498,0.170997,8.398
-203,526,0.151733,-8.55411,0,0,0,0,0,0,0,-1,1021,498,0.151747,8.5541
-196,526,-0.391235,-8.80576,0,0,0,0,0,0,0,-1,1028,498,-0.391266,8.80575
-189,526,0.401245,-5.96826,0,0,0,0,0,0,0,-1,1035,498,0.401197,5.96826
-182,526,1.7323,-2.99405,0,0,0,0,0,0,0,-1,1042,498,1.73226,2.99404
-175,526,2.27637,-2.07983,0,0,0,0,0,0,0,-1,1049,498,2.27639,2.07984
-168,526,2.12036,-1.66049,0,0,0,0,0,0,0,-1,1056,498,2.12035,1.66048
-161,526,2.09082,-1.20572,0,0,0,0,0,0,0,-1,1063,498,2.09086,1.2057
-154,526,-1.3446,-5.37799,0,0,0,0,0,0,0,-1,1070,498,-1.34457,5.37799
-147,526,-0.472656,-6.64996,0,0,0,0,0,0,0,-1,1077,498,-0.472659,6.64997
-140,526,0.422852,-8.03339,0,0,0,0,0,0,0,-1,1084,498,0.422844,8.0334
-133,526,1.09583,-9.2215,0,0,0,0,0,0,0,-1,1091,498,1.09581,9.2215
-126,526,3.42529,-2.36053,0,0,0,0,0,0,0,-1,1098,498,3.42523,2.36052
-119,526,2.7771,-0.764099,0,0,0,0,0,0,0,-1,1105,498,2.7771,0.764107
-112,526,2.57715,-1.1893,0,0,0,0,0,0,0,-1,1112,498,2.57718,1.1893
-105,526,0,0,0,0,0,0,0,0,0,-1,1119,498,0,0
-98,526,0,0,0,0,0,0,0,0,0,-1,1126,498,0,0
-91,526,0,0,0,0,0,0,0,0,0,-1,1133,498,0,0
-84,526,0,0,0,0,0,0,0,0,0,-1,1140,498,0,0
-77,526,0,0,0,0,0,0,0,0,0,-1,1147,498,0,0
-70,526,0,0,0,0,0,0,0,0,0,-1,1154,498,0,0
-63,526,0,0,0,0,0,0,0,0,0,-1,1161,498,0,0
-56,526,0,0,0,0,0,0,0,0,0,-1,1168,498,0,0
-49,526,0,0,0,0,0,0,0,0,0,-1,1175,498,0,0
-42,526,0,0,0,0,0,0,0,0,0,-1,1182,498,0,0
-35,526,0,0,0,0,0,0,0,0,0,-1,1189,498,0,0
-28,526,0,0,0,0,0,0,0,0,0,-1,1196,498,0,0
-21,526,0,0,0,0,0,0,0,0,0,-1,1203,498,0,0
-14,526,0,0,0,0,0,0,0,0,0,-1,1210,498,0,0
-7,526,0,0,0,0,0,0,0,0,0,-1,1217,498,0,0
0,526,0,0,0,0,0,0,0,0,0,-1,1224,498,0,0
7,526,0,0,0,0,0,0,0,0,0,-1,1231,498,0,0
14,526,0,0,0,0,0,0,0,0,0,-1,1238,498,0,0
21,526,0,0,0,0,0,0,0,0,0,-1,1245,498,0,0
28,526,0,0,0,0,0,0,0,0,0,-1,1252,498,0,0
35,526,0,0,0,0,0,0,0,0,0,-1,1259,498,0,0
42,526,0,0,0,0,0,0,0,0,0,-1,1266,498,0,0
49,526,0,0,0,0,0,0,0,0,0,-1,1273,498,0,0
56,526,0,0,0,0,0,0,0,0,0,-1,1280,498,0,0
63,526,0,0,0,0,0,0,0,0,0,-1,1287,498,0,0
70,526,0,0,0,0,0,0,0,0,0,-1,1294,498,0,0
77,526,0,0,0,0,0,0,0,0,0,-1,1301,498,0,0
84,526,0,0,0,0,0,0,0,0,0,-1,1308,498,0,0
91,526,0,0,0,0,0,0,0,0,0,-1,1315,498,0,0
98,526,0,0,0,0,0,0,0,0,0,-1,1322,498,0,0
105,526,0,0,0,0,0,0,0,0,0,-1,1329,498,0,0
112,526,0,0,0,0,0,0,0,0,0,-1,1336,498,0,0
119,526,0,0,0,0,0,0,0,0,0,-1,1343,498,0,0
126,526,0,0,0,0,0,0,0,0,0,-1,1350,498,0,0
133,526,0,0,0,0,0,0,0,0,0,-1,1357,498,0,0
140,526,0,0,0,0,0,0,0,0,0,-1,1364,498,0,0
147,526,0,0,0,0,0,0,0,0,0,-1,1371,498,0,0
154,526,0,0,0,0,0,0,0,0,0,-1,1378,498,0,0
161,526,0,0,0,0,0,0,0,0,0,-1,1385,498,0,0
168,526,0,0,0,0,0,0,0,0,0,-1,1392,498,0,0
175,526,0,0,0,0,0,0,0,0,0,-1,1399,498,0,0
182,526,0,0,0,0,0,0,0,0,0,-1,1406,498,0,0
189,526,0,0,0,0,0,0,0,0,0,-1,1413,498,0,0
196,526,0,0,0,0,0,0,0,0,0,-1,1420,498,0,0
203,526,0,0,0,0,0,0,0,0,0,-1,1427,498,0,0
210,526,0,0,0,0,0,0,0,0,0,-1,1434,498,0,0
217,526,0,0,0,0,0,0,0,0,0,-1,1441,498,0,0
224,526,0,0,0,0,0,0,0,0,0,-1,1448,498,0,0
231,526,7.93237,-1.30618,0,0,0,0,0,0,0,-1,1455,498,7.93238,1.30618
238,526,7.97717,-1.08197,0,0,0,0,0,0,0,-1,1462,498,7.97723,1.08196
245,526,7.2793,-0.792938,0,0,0,0,0,0,0,-1,1469,498,7.27931,0.792926
252,526,6.73523,-2.23608,0,0,0,0,0,0,0,-1,1476,498,6.73525,2.23608
259,526,6.22949,-1.84967,0,0,0,0,0,0,0,-1,1483,498,6.22953,1.84968
266,526,5.72375,-1.46329,0,0,0,0,0,0,0,-1,1490,498,5.72381,1.46328
273,526,4.33984,0.49173,0,0,0,0,0,0,0,-1,1497,498,4.33979,-0.491727
280,526,1.4585,-1.59897,0,0,0,0,0,0,0,-1,1504,498,1.45846,1.59895
287,526,1.46411,-2.40134,0,0,0,0,0,0,0,-1,1511,498,1.46406,2.40133
294,526,5.57471,-4.59085,0,0,0,0,0,0,0,-1,1518,498,5.57466,4.59084
301,526,4.42786,-3.99677,0,0,0,0,0,0,0,-1,1525,498,4.42788,3.99676
308,526,5.79529,-4.19366,0,0,0,0,0,0,0,-1,1532,498,5.79528,4.19368
315,526,5.09851,-5.20068,0,0,0,0,0,0,0,-1,1539,498,5.09851,5.20068
322,526,5.50708,-4.72348,0,0,0,0,0,0,0,-1,1546,498,5.50713,4.72347
329,526,3.88672,-4.345,0,0,0,0,0,0,0,-1,1553,498,3.88674,4.34501
336,526,4.97876,-2.23828,0,0,0,0,0,0,0,-1,1560,498,4.97877,2.23828
343,526,3.31665,-2.69696,0,0,0,0,0,0,0,-1,1567,498,3.31667,2.69696
350,526,6.06287,-6.12015,0,0,0,0,0,0,0,-1,1574,498,6.06286,6.12014
357,526,4.70313,-7.03238,0,0,0,0,0,0,0,-1,1581,498,4.70315,7.03237
364,526,4.39111,-7.38828,0,0,0,0,0,0,0,-1,1588,498,4.3911,7.38826
371,526,4.11096,-7.41415,0,0,0,0,0,0,0,-1,1595,498,4.11101,7.41416
378,526,4.04736,-7.17712,0,0,0,0,0,0,0,-1,1602,498,4.04734,7.17712
385,526,4.21667,-6.90689,0.0235355,-0.00385165,0.00519342,0.0244872,-0.00480341,0.18125,0.0181392,0.0464606,1609,498,4.21662,6.90689
392,526,4.22583,-6.57794,0.0180096,-0.00359451,0.00309399,0.018444,-0.00402887,0.139479,0.0138359,0.0271224,1616,498,4.22581,6.57793
399,526,4.15759,-6.41046,0.0131498,-0.00346722,0.00140059,0.013267,-0.00358444,0.0835013,0.0102506,0.0173453,1623,498,4.15757,6.41045
406,526,4.18994,-6.20639,0.00930971,-0.00289847,0.000292732,0.00931672,-0.00290548,0.02396,0.00737301,0.0133365,1630,498,4.18995,6.20638
413,526,4.18835,-6.02319,0.0064247,-0.00228148,-0.000374127,0.00644075,-0.00229752,-0.0428673,0.00523067,0.0130983,1637,498,4.18841,6.02318
420,526,4.18494,-5.83282,0.00410219,-0.00173963,-0.000826358,0.00421683,-0.00185427,-0.137853,0.00359253,0.0131683,1644,498,4.18492,5.83284
427,526,4.20386,-5.62329,0.00233223,-0.00106084,-0.00107736,0.0026454,-0.00137401,-0.282891,0.00235899,0.0133636,1651,498,4.20386,5.62328
434,526,4.20544,-5.43246,0.000495909,-0.000440963,-0.00138774,0.00149215,-0.0014372,-0.622627,0.00169136,0.0121162,1658,498,4.20549,5.43245
441,526,4.19458,-5.25827,-0.000446563,5.71646e-05,-0.00134933,0.00117793,-0.00156733,-0.877666,0.00159028,0.0105834,1665,498,4.19461,5.25828
448,526,4.1958,-5.09103,-0.000426048,0.000924875,-0.000977997,0.00143799,-0.000939168,-1.08761,0.00138249,0.00988274,1672,498,4.19577,5.09104
455,526,4.1908,-4.93454,-0.000432073,0.00151839,-0.00068547,0.00173519,-0.000648875,-1.26447,0.00142328,0.0129617,1679,498,4.19079,4.93453
462,526,4.18933,-4.71887,-0.000395796,0.0018304,-0.000468606,0.00192501,-0.000490414,-1.37156,0.00147426,0.00977948,1686,498,4.18934,4.71887
469,526,4.1864,-4.51807,-0.000115975,0.00197781,-0.000369068,0.00204096,-0.000179125,-1.40133,0.00142411,0.00736936,1693,498,4.18635,4.51808
476,526,4.18652,-4.31949,0.000151653,0.00202245,-0.000398584,0.00210383,7.02724e-05,-1.36939,0.00137973,0.00939808,1700,498,4.18656,4.3195
483,526,4.19702,-4.09753,0.000486432,0.00197547,-0.000455868,0.00210395,0.000357953,-1.29609,0.00129985,0.0107046,1707,498,4.19707,4.09754
490,526,4.2572,-3.88034,0.000839719,0.00183736,-0.000521804,0.00206042,0.000616666,-1.16684,0.00122111,0.018281,1714,498,4.25719,3.88034
497,526,4.20251,-3.75879,0.00127886,0.0017183,-0.000483043,0.00202924,0.00096791,-0.998845,0.001172,0.023163,1721,498,4.20257,3.7588
504,526,4.23071,-3.52844,0.00224794,0.00158238,-0.000221994,0.00231519,0.00151513,-0.294148,0.00135776,0.0269751,1728,498,4.23067,3.52845
511,526,4.37927,-3.2998,0.00417638,0.001608,0.000561725,0.00429386,0.00149052,0.206169,0.00251739,0.0368668,1735,498,4.37923,3.29981
518,526,4.48352,-3.05969,0.00732032,0.00172679,0.00195041,0.00793325,0.00111386,0.304482,0.00495941,0.0461554,1742,498,4.48349,3.05968
525,526,4.58813,-2.82324,0,0,0,0,0,0,0,-1,1749,498,4.58816,2.82325
532,526,3.54285,-2.81274,0,0,0,0,0,0,0,-1,1756,498,3.54284,2.81273
539,526,3.29407,0.932312,0,0,0,0,0,0,0,-1,1763,498,3.2941,-0.93232
546,526,3.36731,1.07721,0,0,0,0,0,0,0,-1,1770,498,3.36735,-1.07719
553,526,3.40796,1.37137,0,0,0,0,0,0,0,-1,1777,498,3.40792,-1.37138
560,526,0,0,0,0,0,0,0,0,0,-1,1784,498,0,0
567,526,0,0,0,0,0,0,0,0,0,-1,1791,498,0,0
574,526,0,0,0,0,0,0,0,0,0,-1,1798,498,0,0
581,526,0,0,0,0,0,0,0,0,0,-1,1805,498,0,0
588,526,0,0,0,0,0,0,0,0,0,-1,1812,498,0,0
595,526,0,0,0,0,0,0,0,0,0,-1,1819,498,0,0
602,526,0,0,0,0,0,0,0,0,0,-1,1826,498,0,0
609,526,0,0,0,0,0,0,0,0,0,-1,1833,498,0,0
616,526,0,0,0,0,0,0,0,0,0,-1,1840,498,0,0
623,526,0,0,0,0,0,0,0,0,0,-1,1847,498,0,0
630,526,0,0,0,0,0,0,0,0,0,-1,1854,498,0,0
637,526,0,0,0,0,0,0,0,0,0,-1,1861,498,0,0
644,526,0,0,0,0,0,0,0,0,0,-1,1868,498,0,0
651,526,0,0,0,0,0,0,0,0,0,-1,1875,498,0,0
658,526,0,0,0,0,0,0,0,0,0,-1,1882,498,0,0
665,526,0,0,0,0,0,0,0,0,0,-1,1889,498,0,0
672,526,0,0,0,0,0,0,0,0,0,-1,1896,498,0,0
679,526,0,0,0,0,0,0,0,0,0,-1,1903,498,0,0
686,526,0,0,0,0,0,0,0,0,0,-1,1910,498,0,0
693,526,0,0,0,0,0,0,0,0,0,-1,1917,498,0,0
700,526,0,0,0,0,0,0,0,0,0,-1,1924,498,0,0
707,526,0,0,0,0,0,0,0,0,0,-1,1931,498,0,0
714,526,0,0,0,0,0,0,0,0,0,-1,1938,498,0,0
721,526,0,0,0,0,0,0,0,0,0,-1,1945,498,0,0
728,526,0,0,0,0,0,0,0,0,0,-1,1952,498,0,0
735,526,0,0,0,0,0,0,0,0,0,-1,1959,498,0,0
742,526,0,0,0,0,0,0,0,0,0,-1,1966,498,0,0
749,526,0,0,0,0,0,0,0,0,0,-1,1973,498,0,0
756,526,0,0,0,0,0,0,0,0,0,-1,1980,498,0,0
763,526,0,0,0,0,0,0,0,0,0,-1,1987,498,0,0
770,526,0,0,0,0,0,0,0,0,0,-1,1994,498,0,0
777,526,0,0,0,0,0,0,0,0,0,-1,2001,498,0,0
784,526,0,0,0,0,0,0,0,0,0,-1,2008,498,0,0
791,526,0,0,0,0,0,0,0,0,0,-1,2015,498,0,0
798,526,0,0,0,0,0,0,0,0,0,-1,2022,498,0,0
805,526,0,0,0,0,0,0,0,0,0,-1,2029,498,0,0
812,526,0,0,0,0,0,0,0,0,0,-1,2036,498,0,0
-700,519,0,0,0,0,0,0,0,0,0,-1,524,505,0,0
-693,519,0,0,0,0,0,0,0,0,0,-1,531,505,0,0
-686,519,0,0,0,0,0,0,0,0,0,-1,538,505,0,0
-679,519,0,0,0,0,0,0,0,0,0,-1,545,505,0,0
-672,519,0,0,0,0,0,0,0,0,0,-1,552,505,0,0
-665,519,0,0,0,0,0,0,0,0,0,-1,559,505,0,0
-658,519,0,0,0,0,0,0,0,0,0,-1,566,505,0,0
-651,519,0,0,0,0,0,0,0,0,0,-1,573,505,0,0
-644,519,0,0,0,0,0,0,0,0,0,-1,580,505,0,0
-637,519,0,0,0,0,0,0,0,0,0,-1,587,505,0,0
-630,519,0,0,0,0,0,0,0,0,0,-1,594,505,0,0
-623,519,0,0,0,0,0,0,0,0,0,-1,601,505,0,0
-616,519,0,0,0,0,0,0,0,0,0,-1,608,505,0,0
-609,519,0,0,0,0,0,0,0,0,0,-1,615,505,0,0
-602,519,0,0,0,0,0,0,0,0,0,-1,622,505,0,0
-595,519,0,0,0,0,0,0,0,0,0,-1,629,505,0,0
-588,519,0,0,0,0,0,0,0,0,0,-1,636,505,0,0
-581,519,0,0,0,0,0,0,0,0,0,-1,643,505,0,0
-574,519,0,0,0,0,0,0,0,0,0,-1,650,505,0,0
-567,519,0,0,0,0,0,0,0,0,0,-1,657,505,0,0
-560,519,0,0,0,0,0,0,0,0,0,-1,664,505,0,0
-553,519,0,0,0,0,0,0,0,0,0,-1,671,505,0,0
-546,519,0,0,0,0,0,0,0,0,0,-1,678,505,0,0
-539,519,0,0,0,0,0,0,0,0,0,-1,685,505,0,0
-532,519,0,0,0,0,0,0,0,0,0,-1,692,505,0,0
-525,519,0,0,0,0,0,0,0,0,0,-1,699,505,0,0
-518,519,0,0,0,0,0,0,0,0,0,-1,706,505,0,0
-511,519,0,0,0,0,0,0,0,0,0,-1,713,505,0,0
-504,519,0,0,0,0,0,0,0,0,0,-1,720,505,0,0
-497,519,0,0,0,0,0,0,0,0,0,-1,727,505,0,0
-490,519,0,0,0,0,0,0,0,0,0,-1,734,505,0,0
-483,519,0,0,0,0,0,0,0,0,0,-1,741,505,0,0
-476,519,0,0,0,0,0,0,0,0,0,-1,748,505,0,0
-469,519,0,0,0,0,0,0,0,0,0,-1,755,505,0,0
-462,519,0,0,0,0,0,0,0,0,0,-1,762,505,0,0
-455,519,0,0,0,0,0,0,0,0,0,-1,769,505,0,0
-448,519,0,0,0,0,0,0,0,0,0,-1,776,505,0,0
-441,519,-2.5506,-0.187225,0,0,0,0,0,0,0,-1,783,505,-2.55062,0.187236
-434,519,1.90027,-2.51999,0,0,0,0,0,0,0,-1,790,505,1.90025,2.51998
-427,519,1.73914,-4.63583,0,0,0,0,0,0,0,-1,797,505,1.73913,4.63585
-420,519,1.36261,-4.46365,0,0,0,0,0,0,0,-1,804,505,1.36262,4.46364
-413,519,0.897217,-4.43924,0,0,0,0,0,0,0,-1,811,505,0.897194,4.43923
-406,519,0.602783,-4.19702,-0.0020857,0.0237026,0.00528827,0.0247449,-0.00312801,1.37619,0.017632,0.0437009,818,505,0.60276,4.19701
-399,519,0.298584,-4.02509,-0.00508327,0.0219702,0.00727959,0.0238047,-0.00691768,1.32394,0.0186093,0.0488366,825,505,0.298587,4.0251
-392,519,0.0576782,-4.33371,-0.00637667,0.0192715,0.00829241,0.021719,-0.00882417,1.2838,0.0181504,0.0488795,832,505,0.0576594,4.33371
-385,519,0.020874,-4.53415,-0.00659604,0.0157823,0.00752512,0.0180774,-0.00889112,1.27477,0.0158685,0.0427792,839,505,0.0208519,4.53414
-378,519,-0.000183105,-4.81805,-0.00708241,0.0125106,0.00683558,0.0146597,-0.00923147,1.26619,0.0139117,0.0313233,846,505,-0.000174165,4.81804
-371,519,-0.00836182,-5.05615,-0.00613369,0.0103068,0.00519792,0.0118123,-0.00763923,1.28887,0.0113162,0.0197107,853,505,-0.00838069,5.05616
-364,519,-0.0377197,-5.22696,-0.00385563,0.0072627,0.00344438,0.00824326,-0.00483619,1.29345,0.00763635,0.0123079,860,505,-0.0376918,5.22696
-357,519,-0.0293579,-5.43082,-0.00208043,0.00505575,0.00219866,0.00567877,-0.00270345,1.29467,0.00494005,0.00980177,867,505,-0.029362,5.4308
-350,519,-0.0256348,-5.61536,-0.00071096,0.00310434,0.000642444,0.00320961,-0.000816234,1.40838,0.00245743,0.0112315,874,505,-0.0256465,5.61537
-343,519,-0.0287476,-5.78717,4.7441e-05,0.00198646,-7.88758e-05,0.00198967,4.42378e-05,-1.53021,0.00131195,0.0136488,881,505,-0.0287288,5.78718
-336,519,-0.0507202,-5.96777,0.000315643,0.00138996,-9.07719e-05,0.00139757,0.000308028,-1.48709,0.000847898,0.0136324,888,505,-0.0506956,5.96778
-329,519,-0.0449829,-6.14746,0.000508243,0.000970908,-0.00015587,0.00101852,0.00046063,-1.27434,0.000588936,0.0118726,895,505,-0.0449988,6.14745
-322,519,-0.0314941,-6.32959,0.000669544,0.000673032,-0.000286176,0.000957469,0.000385107,-0.788445,0.000556308,0.00990291,902,505,-0.0315198,6.32958
-315,519,-0.0221558,-6.50684,0.000815299,0.000387535,-0.000452067,0.00110153,0.000101307,-0.564441,0.00070302,0.0083158,909,505,-0.0221622,6.50685
-308,519,-0.0325928,-6.67224,0.00106669,0.000157104,-0.000584429,0.00135243,-0.000128639,-0.45475,0.000947418,0.00732676,916,505,-0.0326035,6.67226
-301,519,-0.0498047,-6.84113,0.00137459,5.37072e-07,-0.00076721,0.00171743,-0.000342299,-0.42024,0.00127447,0.0110132,923,505,-0.0498145,6.84114
-294,519,-0.0517578,-6.98831,0.00174911,-5.00695e-05,-0.00080963,0.00205979,-0.000360754,-0.366408,0.0015079,0.0132161,930,505,-0.0517628,6.9883
-287,519,-0.0559082,-7.16174,0.00225444,-0.000201886,-0.000826849,0.00250684,-0.000454286,-0.29627,0.00184143,0.00992698,937,505,-0.0559231,7.16171
-280,519,-0.0397339,-7.34027,0.00272988,-0.000650676,-0.000926094,0.00296696,-0.000887751,-0.250612,0.00233094,0.0135197,944,505,-0.0397253,7.3403
-273,519,0.0188599,-7.51672,0.0032376,-0.000877876,-0.000908575,0.00342926,-0.00106954,-0.207898,0.00271387,0.0198322,951,505,0.018876,7.51672
-266,519,-0.0114136,-7.67303,0.00379939,-0.00124295,-0.000699391,0.0038946,-0.00133816,-0.135301,0.00313902,0.0274778,958,505,-0.0114047,7.67304
-259,519,0.0489502,-7.73413,0.0039263,-0.00163199,-0.000442461,0.0039613,-0.00166699,-0.0789413,0.00333828,0.0461534,965,505,0.048952,7.73414
-252,519,0.158508,-7.75635,0,0,0,0,0,0,0,-1,972,505,0.158494,7.75636
-245,519,-0.107605,-8.2666,0,0,0,0,0,0,0,-1,979,505,-0.107619,8.26662
-238,519,0.275391,-8.15491,0,0,0,0,0,0,0,-1,986,505,0.275381,8.15488
-231,519,0.336426,-7.99628,0,0,0,0,0,0,0,-1,993,505,0.336454,7.99626
-224,519,-0.0494995,-7.97394,0,0,0,0,0,0,0,-1,1000,505,-0.0495123,7.97392
-217,519,-2.97125,-4.84393,0,0,0,0,0,0,0,-1,1007,505,-2.97128,4.84393
-210,519,-2.14398,-4.74774,0,0,0,0,0,0,0,-1,1014,505,-2.14397,4.74775
-203,519,-0.513611,-5.39017,0,0,0,0,0,0,0,-1,1021,505,-0.513585,5.39017
-196,519,-0.374023,-5.41635,0,0,0,0,0,0,0,-1,1028,505,-0.374047,5.41635
-189,519,-0.234497,-5.44254,0,0,0,0,0,0,0,-1,1035,505,-0.234508,5.44253
-182,519,2.76697,-1.19659,0,0,0,0,0,0,0,-1,1042,505,2.76696,1.19661
-175,519,2.31323,-0.960938,0,0,0,0,0,0,0,-1,1049,505,2.31319,0.960941
-168,519,2.01074,-0.721405,0,0,0,0,0,0,0,-1,1056,505,2.01072,0.721407
-161,519,2.32056,-0.522339,0,0,0,0,0,0,0,-1,1063,505,2.32057,0.522328
-154,519,2.55566,0.116669,0,0,0,0,0,0,0,-1,1070,505,2.55563,-0.116661
-147,519,-0.55127,-6.14001,0,0,0,0,0,0,0,-1,1077,505,-0.551252,6.14001
-140,519,0.240601,-7.53503,0,0,0,0,0,0,0,-1,1084,505,0.240653,7.53501
-133,519,2.70911,-4.4516,0,0,0,0,0,0,0,-1,1091,505,2.70915,4.45161
-126,519,0,0,0,0,0,0,0,0,0,-1,1098,505,0,0
-119,519,0,0,0,0,0,0,0,0,0,-1,1105,505,0,0
-112,519,0,0,0,0,0,0,0,0,0,-1,1112,505,0,0
-105,519,0,0,0,0,0,0,0,0,0,-1,1119,505,0,0
-98,519,0,0,0,0,0,0,0,0,0,-1,1126,505,0,0
-91,519,0,0,0,0,0,0,0,0,0,-1,1133,505,0,0
-84,519,0,0,0,0,0,0,0,0,0,-1,1140,505,0,0
-77,519,0,0,0,0,0,0,0,0,0,-1,1147,505,0,0
-70,519,0,0,0,0,0,0,0,0,0,-1,1154,505,0,0
-63,519,0,0,0,0,0,0,0,0,0,-1,1161,505,0,0
-56,519,0,0,0,0,0,0,0,0,0,-1,1168,505,0,0
-49,519,0,0,0,0,0,0,0,0,0,-1,1175,505,0,0
-42,519,0,0,0,0,0,0,0,0,0,-1,1182,505,0,0
-35,519,0,0,0,0,0,0,0,0,0,-1,1189,505,0,0
-28,519,0,0,0,0,0,0,0,0,0,-1,1196,505,0,0
-21,519,0,0,0,0,0,0,0,0,0,-1,1203,505,0,0
-14,519,0,0,0,0,0,0,0,0,0,-1,1210,505,0,0
-7,519,0,0,0,0,0,0,0,0,0,-1,1217,505,0,0
0,519,0,0,0,0,0,0,0,0,0,-1,1224,505,0,0
7,519,0,0,0,0,0,0,0,0,0,-1,1231,505,0,0
14,519,0,0,0,0,0,0,0,0,0,-1,1238,505,0,0
21,519,0,0,0,0,0,0,0,0,0,-1,1245,505,0,0
28,519,0,0,0,0,0,0,0,0,0,-1,1252,505,0,0
35,519,0,0,0,0,0,0,0,0,0,-1,1259,505,0,0
42,519,0,0,0,0,0,0,0,0,0,-1,1266,505,0,0
49,519,0,0,0,0,0,0,0,0,0,-1,1273,505,0,0
56,519,0,0,0,0,0,0,0,0,0,-1,1280,505,0,0
63,519,0,0,0,0,0,0,0,0,0,-1,1287,505,0,0
70,519,0,0,0,0,0,0,0,0,0,-1,1294,505,0,0
77,519,0,0,0,0,0,0,0,0,0,-1,1301,505,0,0
84,519,0,0,0,0,0,0,0,0,0,-1,1308,505,0,0
91,519,0,0,0,0,0,0,0,0,0,-1,1315,505,0,0
98,519,0,0,0,0,0,0,0,0,0,-1,1322,505,0,0
105,519,0,0,0,0,0,0,0,0,0,-1,1329,505,0,0
112,519,0,0,0,0,0,0,0,0,0,-1,1336,505,0,0
119,519,0,0,0,0,0,0,0,0,0,-1,1343,505,0,0
126,519,0,0,0,0,0,0,0,0,0,-1,1350,505,0,0
133,519,0,0,0,0,0,0,0,0,0,-1,1357,505,0,0
140,519,0,0,0,0,0,0,0,0,0,-1,1364,505,0,0
147,519,0,0,0,0,0,0,0,0,0,-1,1371,505,0,0
154,519,0,0,0,0,0,0,0,0,0,-1,1378,505,0,0
161,519,0,0,0,0,0,0,0,0,0,-1,1385,505,0,0
168,519,0,0,0,0,0,0,0,0,0,-1,1392,505,0,0
175,519,0,0,0,0,0,0,0,0,0,-1,1399,505,0,0
182,519,0,0,0,0,0,0,0,0,0,-1,1406,505,0,0
189,519,0,0,0,0,0,0,0,0,0,-1,1413,505,0,0
196,519,0,0,0,0,0,0,0,0,0,-1,1420,505,0,0
203,519,0,0,0,0,0,0,0,0,0,-1,1427,505,0,0
210,519,0,0,0,0,0,0,0,0,0,-1,1434,505,0,0
217,519,0,0,0,0,0,0,0,0,0,-1,1441,505,0,0
224,519,0,0,0,0,0,0,0,0,0,-1,1448,505,0,0
231,519,0,0,0,0,0,0,0,0,0,-1,1455,505,0,0
238,519,0,0,0,0,0,0,0,0,0,-1,1462,505,0,0
245,519,0,0,0,0,0,0,0,0,0,-1,1469,505,0,0
252,519,5.26208,0.0938416,0,0,0,0,0,0,0,-1,1476,505,5.26207,-0.0938493
259,519,6.14246,-1.36441,0,0,0,0,0,0,0,-1,1483,505,6.14241,1.36441
266,519,5.31909,-0.400787,0,0,0,0,0,0,0,-1,1490,505,5.31912,0.400773
273,519,4.02393,0.325531,0,0,0,0,0,0,0,-1,1497,505,4.0239,-0.325522
280,519,4.68848,0.53006,0,0,0,0,0,0,0,-1,1504,505,4.68842,-0.530073
287,519,7.9519,-3.80801,0,0,0,0,0,0,0,-1,1511,505,7.95193,3.808
294,519,6.92273,-3.38889,0,0,0,0,0,0,0,-1,1518,505,6.92268,3.38888
301,519,5.35669,-2.92661,0,0,0,0,0,0,0,-1,1525,505,5.35675,2.9266
308,519,7.37549,-5.64529,0,0,0,0,0,0,0,-1,1532,505,7.3755,5.64529
315,519,6.30029,-4.53754,0,0,0,0,0,0,0,-1,1539,505,6.30024,4.53753
322,519,5.84302,-5.45117,0,0,0,0,0,0,0,-1,1546,505,5.84303,5.45116
329,519,4.92407,0.62384,0,0,0,0,0,0,0,-1,1553,505,4.92403,-0.623832
336,519,3.10095,-0.329285,0,0,0,0,0,0,0,-1,1560,505,3.1009,0.329283
343,519,2.49146,-2.31119,0,0,0,0,0,0,0,-1,1567,505,2.49145,2.31119
350,519,3.47729,-2.22516,0,0,0,0,0,0,0,-1,1574,505,3.47726,2.22515
357,519,4.51917,-4.51691,0,0,0,0,0,0,0,-1,1581,505,4.51914,4.51691
364,519,3.54626,-7.20673,0,0,0,0,0,0,0,-1,1588,505,3.54622,7.20675
371,519,4.98901,-6.8652,0,0,0,0,0,0,0,-1,1595,505,4.98897,6.8652
378,519,4.81213,-6.69592,0,0,0,0,0,0,0,-1,1602,505,4.81218,6.69591
385,519,4.39575,-7.19702,0,0,0,0,0,0,0,-1,1609,505,4.39576,7.19704
392,519,4.52002,-6.36462,0.0616522,0.00184571,0.0201141,0.0677875,-0.00428964,0.296063,0.0466873,0.0402852,1616,505,4.52,6.36462
399,519,4.39209,-6.30923,0.0457927,0.000328336,0.0137687,0.0496374,-0.00351634,0.272297,0.0343238,0.0309476,1623,505,4.39205,6.30925
406,519,4.37219,-6.22241,0.0325924,-0.000419023,0.00875871,0.0347724,-0.00259896,0.243932,0.0240947,0.0185351,1630,505,4.37223,6.22243
413,519,4.39526,-6.04092,0.0221963,-0.000774295,0.00505162,0.0232582,-0.00183614,0.207184,0.0161523,0.0131758,1637,505,4.39522,6.04093
420,519,4.37378,-5.84769,0.0141389,-0.000974029,0.00235196,0.0144964,-0.0013316,0.150874,0.0101374,0.0145736,1644,505,4.37381,5.84769
427,519,4.401,-5.65839,0.00833228,-0.000828939,0.000611858,0.00837297,-0.000869623,0.0663948,0.00589328,0.0135196,1651,505,4.40102,5.65837
434,519,4.40723,-5.46231,0.00250529,-0.000797027,-0.00124285,0.00292077,-0.00121251,-0.322617,0.00245335,0.0126055,1658,505,4.40724,5.46231
441,519,4.37817,-5.26724,-0.000518454,-0.000708486,-0.00188003,0.00126896,-0.0024959,-0.76015,0.00221179,0.0115048,1665,505,4.37816,5.26725
448,519,4.3678,-5.09058,-0.00029301,0.000121088,-0.00128716,0.00121775,-0.00138967,-0.865143,0.00150648,0.00925412,1672,505,4.3678,5.09059
455,519,4.37,-4.92212,-7.3944e-05,0.000599124,-0.000769083,0.00110208,-0.0005769,-0.991636,0.00098504,0.0104689,1679,505,4.36994,4.92211
462,519,4.38513,-4.71652,0.000134336,0.000761382,-0.000327169,0.000900999,-5.28092e-06,-1.16745,0.000602434,0.00943331,1686,505,4.38509,4.71652
469,519,4.40527,-4.51498,0.000604979,0.000662088,-2.20104e-05,0.000669586,0.00059748,-1.24245,0.000424402,0.00991763,1693,505,4.40524,4.51498
476,519,4.40979,-4.31378,0.00106893,0.000482303,0.000101456,0.00108598,0.000465252,0.166506,0.000629131,0.0128743,1700,505,4.40984,4.31377
483,519,4.39307,-4.10147,0.00151792,0.000235849,0.000165934,0.00153904,0.000214721,0.126647,0.000962473,0.0133361,1707,505,4.3931,4.10148
490,519,4.3938,-3.86798,0.00194673,-7.72325e-05,0.00019598,0.00196553,-9.60346e-05,0.0956461,0.00134351,0.0112232,1714,505,4.39378,3.86797
497,519,4.3894,-3.69232,0.00239478,-0.000335093,0.000295687,0.00242644,-0.000366754,0.106667,0.00175271,0.0132941,1721,505,4.3894,3.69231
504,519,4.36584,-3.49765,0.00326391,-0.00052551,0.000588709,0.00335327,-0.000614863,0.150628,0.00246615,0.0131212,1728,505,4.36582,3.49765
511,519,4.39429,-3.29172,0.00494449,-0.000558449,0.0013101,0.00524046,-0.000854427,0.222191,0.00381052,0.0183067,1735,505,4.39426,3.29172
518,519,4.4386,-3.2467,0.00732965,-0.000163296,0.00261611,0.00815265,-0.0009863,0.304788,0.00579193,0.0398673,1742,505,4.43864,3.2467
525,519,4.5791,-3.19379,0,0,0,0,0,0,0,-1,1749,505,4.57906,3.19378
532,519,3.5155,-2.86511,0,0,0,0,0,0,0,-1,1756,505,3.51554,2.8651
539,519,3.30005,0.0229797,0,0,0,0,0,0,0,-1,1763,505,3.30008,-0.0229869
546,519,4.62024,-2.89774,0,0,0,0,0,0,0,-1,1770,505,4.62023,2.89775
553,519,4.14136,0.0667419,0,0,0,0,0,0,0,-1,1777,505,4.14141,-0.0667503
560,519,3.77856,0.279724,0,0,0,0,0,0,0,-1,1784,505,3.77861,-0.279731
567,519,0,0,0,0,0,0,0,0,0,-1,1791,505,0,0
574,519,0,0,0,0,0,0,0,0,0,-1,1798,505,0,0
581,519,0,0,0,0,0,0,0,0,0,-1,1805,505,0,0
588,519,0,0,0,0,0,0,0,0,0,-1,1812,505,0,0
595,519,0,0,0,0,0,0,0,0,0,-1,1819,505,0,0
602,519,0,0,0,0,0,0,0,0,0,-1,1826,505,0,0
609,519,0,0,0,0,0,0,0,0,0,-1,1833,505,0,0
616,519,0,0,0,0,0,0,0,0,0,-1,1840,505,0,0
623,519,0,0,0,0,0,0,0,0,0,-1,1847,505,0,0
630,519,0,0,0,0,0,0,0,0,0,-1,1854,505,0,0
637,519,0,0,0,0,0,0,0,0,0,-1,1861,505,0,0
644,519,0,0,0,0,0,0,0,0,0,-1,1868,505,0,0
651,519,0,0,0,0,0,0,0,0,0,-1,1875,505,0,0
658,519,0,0,0,0,0,0,0,0,0,-1,1882,505,0,0
665,519,0,0,0,0,0,0,0,0,0,-1,1889,505,0,0
672,519,0,0,0,0,0,0,0,0,0,-1,1896,505,0,0
679,519,0,0,0,0,0,0,0,0,0,-1,1903,505,0,0
686,519,0,0,0,0,0,0,0,0,0,-1,1910,505,0,0
693,519,0,0,0,0,0,0,0,0,0,-1,1917,505,0,0
700,519,0,0,0,0,0,0,0,0,0,-1,1924,505,0,0
707,519,0,0,0,0,0,0,0,0,0,-1,1931,505,0,0
714,519,0,0,0,0,0,0,0,0,0,-1,1938,505,0,0
721,519,0,0,0,0,0,0,0,0,0,-1,1945,505,0,0
728,519,0,0,0,0,0,0,0,0,0,-1,1952,505,0,0
735,519,0,0,0,0,0,0,0,0,0,-1,1959,505,0,0
742,519,0,0,0,0,0,0,0,0,0,-1,1966,505,0,0
749,519,0,0,0,0,0,0,0,0,0,-1,1973,505,0,0
756,519,0,0,0,0,0,0,0,0,0,-1,1980,505,0,0
763,519,0,0,0,0,0,0,0,0,0,-1,1987,505,0,0
770,519,0,0,0,0,0,0,0,0,0,-1,1994,505,0,0
777,519,0,0,0,0,0,0,0,0,0,-1,2001,505,0,0
784,519,0,0,0,0,0,0,0,0,0,-1,2008,505,0,0
791,519,0,0,0,0,0,0,0,0,0,-1,2015,505,0,0
798,519,0,0,0,0,0,0,0,0,0,-1,2022,505,0,0
805,519,0,0,0,0,0,0,0,0,0,-1,2029,505,0,0
812,519,0,0,0,0,0,0,0,0,0,-1,2036,505,0,0
-700,512,0,0,0,0,0,0,0,0,0,-1,524,512,0,0
-693,512,0,0,0,0,0,0,0,0,0,-1,531,512,0,0
-686,512,0,0,0,0,0,0,0,0,0,-1,538,512,0,0
-679,512,0,0,0,0,0,0,0,0,0,-1,545,512,0,0
-672,512,0,0,0,0,0,0,0,0,0,-1,552,512,0,0
-665,512,0,0,0,0,0,0,0,0,0,-1,559,512,0,0
-658,512,0,0,0,0,0,0,0,0,0,-1,566,512,0,0
-651,512,0,0,0,0,0,0,0,0,0,-1,573,512,0,0
-644,512,0,0,0,0,0,0,0,0,0,-1,580,512,0,0
-637,512,0,0,0,0,0,0,0,0,0,-1,587,512,0,0
-630,512,0,0,0,0,0,0,0,0,0,-1,594,512,0,0
-623,512,0,0,0,0,0,0,0,0,0,-1,601,512,0,0
-616,512,0,0,0,0,0,0,0,0,0,-1,608,512,0,0
-609,512,0,0,0,0,0,0,0,0,0,-1,615,512,0,0
-602,512,0,0,0,0,0,0,0,0,0,-1,622,512,0,0
-595,512,0,0,0,0,0,0,0,0,0,-1,629,512,0,0
-588,512,0,0,0,0,0,0,0,0,0,-1,636,512,0,0
-581,512,0,0,0,0,0,0,0,0,0,-1,643,512,0,0
-574,512,0,0,0,0,0,0,0,0,0,-1,650,512,0,0
-567,512,0,0,0,0,0,0,0,0,0,-1,657,512,0,0
-560,512,0,0,0,0,0,0,0,0,0,-1,664,512,0,0
-553,512,0,0,0,0,0,0,0,0,0,-1,671,512,0,0
-546,512,0,0,0,0,0,0,0,0,0,-1,678,512,0,0
-539,512,0,0,0,0,0,0,0,0,0,-1,685,512,0,0
-532,512,0,0,0,0,0,0,0,0,0,-1,692,512,0,0
-525,512,0,0,0,0,0,0,0,0,0,-1,699,512,0,0
-518,512,0,0,0,0,0,0,0,0,0,-1,706,512,0,0
-511,512,0,0,0,0,0,0,0,0,0,-1,713,512,0,0
-504,512,0,0,0,0,0,0,0,0,0,-1,720,512,0,0
-497,512,0,0,0,0,0,0,0,0,0,-1,727,512,0,0
-490,512,0,0,0,0,0,0,0,0,0,-1,734,512,0,0
-483,512,0,0,0,0,0,0,0,0,0,-1,741,512,0,0
-476,512,0,0,0,0,0,0,0,0,0,-1,748,512,0,0
-469,512,0,0,0,0,0,0,0,0,0,-1,755,512,0,0
-462,512,0,0,0,0,0,0,0,0,0,-1,762,512,0,0
-455,512,0,0,0,0,0,0,0,0,0,-1,769,512,0,0
-448,512,-2.58203,0.595734,0.0540638,0.0375728,-0.0623828,0.108744,-0.017107,-0.719691,0.0788194,0.0445848,776,512,-2.58205,-0.595738
-441,512,-2.4433,-0.107666,0,0,0,0,0,0,0,-1,783,512,-2.44328,0.107654
-434,512,-1.42706,-0.911743,0,0,0,0,0,0,0,-1,790,512,-1.42706,0.911772
-427,512,1.11102,-4.14606,0,0,0,0,0,0,0,-1,797,512,1.11105,4.14607
-420,512,0.625488,-4.3891,0,0,0,0,0,0,0,-1,804,512,0.625504,4.38907
-413,512,-0.191345,-5.38458,0,0,0,0,0,0,0,-1,811,512,-0.191364,5.3846
-406,512,0.0116577,-4.95581,0.00567343,0.0181692,-0.000664526,0.0182044,0.00563819,-1.51782,0.010761,0.0434151,818,512,0.011666,4.95584
-399,512,0.0915527,-4.37067,0.00115273,0.0168475,0.00239629,0.0172052,0.000795015,1.42261,0.0112145,0.041964,825,512,0.0915795,4.37066
-392,512,-0.0755005,-4.42511,-0.00163403,0.0146339,0.00447406,0.0157832,-0.0027833,1.31936,0.0115621,0.0326611,832,512,-0.0754996,4.4251
-385,512,-0.169556,-4.65271,-0.00308722,0.0117097,0.00468548,0.0130685,-0.00444609,1.28852,0.0105126,0.0169844,839,512,-0.169529,4.65273
-378,512,-0.197815,-4.86115,-0.00461512,0.00914841,0.00469049,0.0105949,-0.00606159,1.27167,0.00973461,0.0131495,846,512,-0.197817,4.86115
-371,512,-0.201538,-5.0603,-0.0044554,0.00756475,0.00356083,0.00854041,-0.00543106,1.30336,0.00813275,0.0115604,853,512,-0.201511,5.0603
-364,512,-0.194824,-5.25702,-0.0027524,0.00519613,0.00223584,0.00578188,-0.00333815,1.31457,0.00532809,0.00901153,860,512,-0.194837,5.25701
-357,512,-0.19458,-5.43188,-0.00138925,0.00354718,0.00129006,0.00386399,-0.00170606,1.32999,0.00329533,0.00974547,867,512,-0.194568,5.4319
-350,512,-0.191162,-5.61835,-0.000341698,0.00212502,4.8325e-05,0.00212597,-0.000342644,1.55122,0.00154425,0.0104147,874,512,-0.191179,5.61837
-343,512,-0.211243,-5.79407,0.000263739,0.00127876,-0.000537811,0.00151071,3.17844e-05,-1.16361,0.000996715,0.0106208,881,512,-0.211261,5.79407
-336,512,-0.203918,-5.97418,0.000546889,0.000831875,-0.000566906,0.00127392,0.000104842,-0.908523,0.00081658,0.0109903,888,512,-0.203945,5.9742
-329,512,-0.191345,-6.13989,0.000790507,0.000549862,-0.000634357,0.00131585,2.45171e-05,-0.691673,0.000869177,0.011834,895,512,-0.191323,6.1399
-322,512,-0.202942,-6.33069,0.00100676,0.000342979,-0.000753553,0.00149827,-0.000148534,-0.577962,0.00105186,0.00995921,902,512,-0.202944,6.33071
-315,512,-0.19574,-6.51465,0.00121389,0.00010662,-0.000922449,0.00173609,-0.000415581,-0.515123,0.00131795,0.00929094,909,512,-0.195726,6.51467
-308,512,-0.200562,-6.68237,0.00155672,-5.24532e-05,-0.00107077,0.00209151,-0.000587237,-0.463197,0.00162583,0.00987988,916,512,-0.200548,6.68236
-301,512,-0.197144,-6.85822,0.00190692,-0.000248859,-0.00122838,0.00246328,-0.000805218,-0.42528,0.00196634,0.0139384,923,512,-0.197159,6.8582
-294,512,-0.20166,-7.00311,0.00228082,-0.000287157,-0.00120904,0.00276046,-0.000766803,-0.377672,0.00214216,0.0134241,930,512,-0.201649,7.00314
-287,512,-0.269409,-7.13739,0.00282153,-0.000469049,-0.00118981,0.00320667,-0.000854182,-0.31305,0.00247219,0.0187864,937,512,-0.269418,7.1374
-280,512,-0.145996,-7.34961,0.00335464,-0.00109245,-0.00127117,0.00369235,-0.00143016,-0.259669,0.0030521,0.0254369,944,512,-0.146022,7.34959
-273,512,-0.0136719,-7.39337,0.00395832,-0.00142711,-0.00128487,0.00424916,-0.00171795,-0.222607,0.00354693,0.0438945,951,512,-0.0137009,7.39337
-266,512,-0.0430298,-7.51868,0.00481552,-0.0020472,-0.00105943,0.00497535,-0.00220703,-0.149732,0.00424818,0.0443357,958,512,-0.0430229,7.51866
-259,512,-0.158203,-7.86908,0,0,0,0,0,0,0,-1,965,512,-0.158211,7.8691
-252,512,1.45941,-3.43475,0,0,0,0,0,0,0,-1,972,512,1.45938,3.43475
-245,512,4.12927,-11.272,0,0,0,0,0,0,0,-1,979,512,4.1293,11.272
-238,512,0.182556,-8.05957,0,0,0,0,0,0,0,-1,986,512,0.18258,8.05957
-231,512,-2.54437,-10.169,0,0,0,0,0,0,0,-1,993,512,-2.54439,10.169
-224,512,-4.84601,-7.52783,0,0,0,0,0,0,0,-1,1000,512,-4.84602,7.52786
-217,512,-7.37274,-3.89563,0,0,0,0,0,0,0,-1,1007,512,-7.37274,3.89561
-210,512,-3.76642,-1.94702,0,0,0,0,0,0,0,-1,1014,512,-3.76641,1.94702
-203,512,-2.48328,-5.19061,0,0,0,0,0,0,0,-1,1021,512,-2.48328,5.19059
-196,512,-1.14929,-4.63202,0,0,0,0,0,0,0,-1,1028,512,-1.14934,4.632
-189,512,0.197998,4.55505,0,0,0,0,0,0,0,-1,1035,512,0.197996,-4.55506
-182,512,2.73938,0.0778503,0,0,0,0,0,0,0,-1,1042,512,2.73944,-0.077852
-175,512,2.29565,0.209808,0,0,0,0,0,0,0,-1,1049,512,2.29565,-0.209813
-168,512,2.09399,-0.302856,0,0,0,0,0,0,0,-1,1056,512,2.09403,0.302826
-161,512,2.76636,0.0921021,0,0,0,0,0,0,0,-1,1063,512,2.76633,-0.0921104
-154,512,3.41382,0.466187,0,0,0,0,0,0,0,-1,1070,512,3.41382,-0.466178
-147,512,0,0,0,0,0,0,0,0,0,-1,1077,512,0,0
-140,512,0,0,0,0,0,0,0,0,0,-1,1084,512,0,0
-133,512,0,0,0,0,0,0,0,0,0,-1,1091,512,0,0
-126,512,0,0,0,0,0,0,0,0,0,-1,1098,512,0,0
-119,512,0,0,0,0,0,0,0,0,0,-1,1105,512,0,0
-112,512,0,0,0,0,0,0,0,0,0,-1,1112,512,0,0
-105,512,0,0,0,0,0,0,0,0,0,-1,1119,512,0,0
-98,512,0,0,0,0,0,0,0,0,0,-1,1126,512,0,0
-91,512,0,0,0,0,0,0,0,0,0,-1,1133,512,0,0
-84,512,0,0,0,0,0,0,0,0,0,-1,1140,512,0,0
-77,512,0,0,0,0,0,0,0,0,0,-1,1147,512,0,0
-70,512,0,0,0,0,0,0,0,0,0,-1,1154,512,0,0
-63,512,0,0,0,0,0,0,0,0,0,-1,1161,512,0,0
-56,512,0,0,0,0,0,0,0,0,0,-1,1168,512,0,0
-49,512,0,0,0,0,0,0,0,0,0,-1,1175,512,0,0
-42,512,0,0,0,0,0,0,0,0,0,-1,1182,512,0,0
-35,512,0,0,0,0,0,0,0,0,0,-1,1189,512,0,0
-28,512,0,0,0,0,0,0,0,0,0,-1,1196,512,0,0
-21,512,0,0,0,0,0,0,0,0,0,-1,1203,512,0,0
-14,512,0,0,0,0,0,0,0,0,0,-1,1210,512,0,0
-7,512,0,0,0,0,0,0,0,0,0,-1,1217,512,0,0
0,512,0,0,0,0,0,0,0,0,0,-1,1224,512,0,0
7,512,0,0,0,0,0,0,0,0,0,-1,1231,512,0,0
14,512,0,0,0,0,0,0,0,0,0,-1,1238,512,0,0
21,512,0,0,0,0,0,0,0,0,0,-1,1245,512,0,0
28,512,0,0,0,0,0,0,0,0,0,-1,1252,512,0,0
35,512,0,0,0,0,0,0,0,0,0,-1,1259,512,0,0
42,512,0,0,0,0,0,0,0,0,0,-1,1266,512,0,0
49,512,0,0,0,0,0,0,0,0,0,-1,1273,512,0,0
56,512,0,0,0,0,0,0,0,0,0,-1,1280,512,0,0
63,512,0,0,0,0,0,0,0,0,0,-1,1287,512,0,0
70,512,0,0,0,0,0,0,0,0,0,-1,1294,512,0,0
77,512,0,0,0,0,0,0,0,0,0,-1,1301,512,0,0
84,512,0,0,0,0,0,0,0,0,0,-1,1308,512,0,0
91,512,0,0,0,0,0,0,0,0,0,-1,1315,512,0,0
98,512,0,0,0,0,0,0,0,0,0,-1,1322,512,0,0
105,512,0,0,0,0,0,0,0,0,0,-1,1329,512,0,0
112,512,0,0,0,0,0,0,0,0,0,-1,1336,512,0,0
119,512,0,0,0,0,0,0,0,0,0,-1,1343,512,0,0
126,512,0,0,0,0,0,0,0,0,0,-1,1350,512,0,0
133,512,0,0,0,0,0,0,0,0,0,-1,1357,512,0,0
140,512,0,0,0,0,0,0,0,0,0,-1,1364,512,0,0
147,512,0,0,0,0,0,0,0,0,0,-1,1371,512,0,0
154,512,0,0,0,0,0,0,0,0,0,-1,1378,512,0,0
161,512,0,0,0,0,0,0,0,0,0,-1,1385,512,0,0
168,512,0,0,0,0,0,0,0,0,0,-1,1392,512,0,0
175,512,0,0,0,0,0,0,0,0,0,-1,1399,512,0,0
182,512,0,0,0,0,0,0,0,0,0,-1,1406,512,0,0
189,512,0,0,0,0,0,0,0,0,0,-1,1413,512,0,0
196,512,0,0,0,0,0,0,0,0,0,-1,1420,512,0,0
203,512,0,0,0,0,0,0,0,0,0,-1,1427,512,0,0
210,512,0,0,0,0,0,0,0,0,0,-1,1434,512,0,0
217,512,0,0,0,0,0,0,0,0,0,-1,1441,512,0,0
224,512,0,0,0,0,0,0,0,0,0,-1,1448,512,0,0
231,512,0,0,0,0,0,0,0,0,0,-1,1455,512,0,0
238,512,0,0,0,0,0,0,0,0,0,-1,1462,512,0,0
245,512,0,0,0,0,0,0,0,0,0,-1,1469,512,0,0
252,512,0,0,0,0,0,0,0,0,0,-1,1476,512,0,0
259,512,0,0,0,0,0,0,0,0,0,-1,1483,512,0,0
266,512,0,0,0,0,0,0,0,0,0,-1,1490,512,0,0
273,512,4.00745,0.618622,0,0,0,0,0,0,0,-1,1497,512,4.00747,-0.618611
280,512,4.49609,0.649841,0,0,0,0,0,0,0,-1,1504,512,4.49612,-0.649834
287,512,4.77234,0.458069,0,0,0,0,0,0,0,-1,1511,512,4.77233,-0.458083
294,512,8.54956,-2.36273,0,0,0,0,0,0,0,-1,1518,512,8.54952,2.36274
301,512,6.302,-1.69092,0,0,0,0,0,0,0,-1,1525,512,6.30196,1.69093
308,512,8.2439,-6.22754,0,0,0,0,0,0,0,-1,1532,512,8.24394,6.22757
315,512,7.53687,-6.04211,0,0,0,0,0,0,0,-1,1539,512,7.53691,6.04211
322,512,6.82983,-5.85663,0,0,0,0,0,0,0,-1,1546,512,6.82988,5.85666
329,512,4.38147,-0.329651,0,0,0,0,0,0,0,-1,1553,512,4.38144,0.329662
336,512,4.41467,-0.741455,0,0,0,0,0,0,0,-1,1560,512,4.41467,0.741442
343,512,4.44727,-1.21667,0,0,0,0,0,0,0,-1,1567,512,4.44732,1.21666
350,512,4.55469,-1.65082,0,0,0,0,0,0,0,-1,1574,512,4.5547,1.65083
357,512,5.79993,-2.67456,0,0,0,0,0,0,0,-1,1581,512,5.79991,2.67454
364,512,5.18298,-6.80133,0,0,0,0,0,0,0,-1,1588,512,5.18296,6.80132
371,512,5.06628,-6.83221,0,0,0,0,0,0,0,-1,1595,512,5.06627,6.83222
378,512,4.69849,-6.34399,0,0,0,0,0,0,0,-1,1602,512,4.69846,6.34402
385,512,4.66479,-6.17712,0,0,0,0,0,0,0,-1,1609,512,4.66474,6.1771
392,512,4.63928,-6.03186,0.11159,0.00826232,0.0400719,0.125309,-0.00545667,0.329851,0.0854163,0.0464337,1616,512,4.63932,6.03188
399,512,4.5979,-5.90991,0.0845663,0.00509492,0.0289086,0.0939695,-0.00430827,0.314479,0.0641306,0.0447145,1623,512,4.59791,5.90992
406,512,4.56018,-6.078,0.0608231,0.00285012,0.0193903,0.0667107,-0.00303748,0.294789,0.0455201,0.0331363,1630,512,4.56018,6.07801
413,512,4.52234,-6.05109,0.0416526,0.00137511,0.0120408,0.0449776,-0.00194992,0.269433,0.0306557,0.0263667,1637,512,4.5224,6.0511
420,512,4.59314,-5.86755,0.0266392,0.000316074,0.00652767,0.0281691,-0.00121376,0.230207,0.0191968,0.0169856,1644,512,4.59316,5.86753
427,512,4.60095,-5.67389,0.0157563,-0.000152293,0.0028105,0.0162382,-0.000634213,0.16982,0.0110429,0.0146492,1651,512,4.60101,5.67391
434,512,4.58008,-5.47375,0.00489651,-0.000743274,-0.00104497,0.00508391,-0.000930666,-0.177441,0.00373831,0.0113781,1658,512,4.5801,5.47377
441,512,4.56409,-5.27887,-0.000912008,-0.00105059,-0.00263385,0.00165346,-0.00361606,-0.772247,0.0031119,0.0124805,1665,512,4.5641,5.27889
448,512,4.54858,-5.09534,-0.000604211,-0.000145905,-0.00184393,0.00148306,-0.00223318,-0.847218,0.00216009,0.00892825,1672,512,4.54857,5.09533
455,512,4.55176,-4.89648,-0.000297926,0.000329387,-0.00113383,0.00119215,-0.00116069,-0.92034,0.00135845,0.00844852,1679,512,4.55174,4.89651
462,512,4.57703,-4.69592,-7.00813e-05,0.00046481,-0.000501701,0.000765898,-0.00037117,-1.03028,0.000669542,0.00894379,1686,512,4.577,4.69595
469,512,4.58606,-4.49384,0.000452432,0.000236352,-2.95907e-05,0.000456411,0.000232373,-0.133666,0.000263523,0.0105576,1693,512,4.58606,4.49384
476,512,4.57568,-4.29535,0.000976559,-3.92507e-05,0.000189472,0.00101075,-7.34407e-05,0.178528,0.000699599,0.0132319,1700,512,4.57563,4.29537
483,512,4.56812,-4.08319,0.00142068,-0.000360369,0.000316869,0.00147537,-0.000415064,0.170927,0.00114724,0.0121973,1707,512,4.56808,4.08321
490,512,4.58264,-3.87531,0.00181796,-0.000735636,0.000380776,0.00187352,-0.000791206,0.144915,0.00158022,0.0101887,1714,512,4.58259,3.87533
497,512,4.59229,-3.68262,0.00218428,-0.00104199,0.000463685,0.0022496,-0.00110731,0.139949,0.00197516,0.0111367,1721,512,4.59229,3.68261
504,512,4.57605,-3.46057,0.00293597,-0.00119519,0.000739067,0.00306421,-0.00132343,0.171804,0.00259881,0.0114758,1728,512,4.57608,3.46058
511,512,4.53564,-3.22644,0.00436394,-0.00123777,0.00133856,0.00466736,-0.00154119,0.222911,0.00373291,0.0126329,1735,512,4.53562,3.22644
518,512,4.60242,-3.07733,0.00626134,-0.000729231,0.00242006,0.00701737,-0.00148527,0.302796,0.00524393,0.0197323,1742,512,4.60237,3.0773
525,512,4.59766,-3.15546,0,0,0,0,0,0,0,-1,1749,512,4.59765,3.15543
532,512,4.85229,-3.00751,0,0,0,0,0,0,0,-1,1756,512,4.85224,3.00752
539,512,4.39929,-3.11737,0,0,0,0,0,0,0,-1,1763,512,4.3993,3.11735
546,512,2.77551,-0.66449,0,0,0,0,0,0,0,-1,1770,512,2.77548,0.664503
553,512,3.927,-0.448853,0,0,0,0,0,0,0,-1,1777,512,3.92704,0.448843
560,512,3.55762,-0.201233,0,0,0,0,0,0,0,-1,1784,512,3.55768,0.201259
567,512,3.09045,0.191193,0,0,0,0,0,0,0,-1,1791,512,3.09045,-0.191203
574,512,0,0,0,0,0,0,0,0,0,-1,1798,512,0,0
581,512,0,0,0,0,0,0,0,0,0,-1,1805,512,0,0
588,512,0,0,0,0,0,0,0,0,0,-1,1812,512,0,0
595,512,0,0,0,0,0,0,0,0,0,-1,1819,512,0,0
602,512,0,0,0,0,0,0,0,0,0,-1,1826,512,0,0
609,512,0,0,0,0,0,0,0,0,0,-1,1833,512,0,0
616,512,0,0,0,0,0,0,0,0,0,-1,1840,512,0,0
623,512,0,0,0,0,0,0,0,0,0,-1,1847,512,0,0
630,512,0,0,0,0,0,0,0,0,0,-1,1854,512,0,0
637,512,0,0,0,0,0,0,0,0,0,-1,1861,512,0,0
644,512,0,0,0,0,0,0,0,0,0,-1,1868,512,0,0
651,512,0,0,0,0,0,0,0,0,0,-1,1875,512,0,0
658,512,0,0,0,0,0,0,0,0,0,-1,1882,512,0,0
665,512,0,0,0,0,0,0,0,0,0,-1,1889,512,0,0
672,512,0,0,0,0,0,0,0,0,0,-1,1896,512,0,0
679,512,0,0,0,0,0,0,0,0,0,-1,1903,512,0,0
686,512,0,0,0,0,0,0,0,0,0,-1,1910,512,0,0
693,512,0,0,0,0,0,0,0,0,0,-1,1917,512,0,0
700,512,0,0,0,0,0,0,0,0,0,-1,1924,512,0,0
707,512,0,0,0,0,0,0,0,0,0,-1,1931,512,0,0
714,512,0,0,0,0,0,0,0,0,0,-1,1938,512,0,0
721,512,0,0,0,0,0,0,0,0,0,-1,1945,512,0,0
728,512,0,0,0,0,0,0,0,0,0,-1,1952,512,0,0
735,512,0,0,0,0,0,0,0,0,0,-1,1959,512,0,0
742,512,0,0,0,0,0,0,0,0,0,-1,1966,512,0,0
749,512,0,0,0,0,0,0,0,0,0,-1,1973,512,0,0
756,512,0,0,0,0,0,0,0,0,0,-1,1980,512,0,0
763,512,0,0,0,0,0,0,0,0,0,-1,1987,512,0,0
770,512,0,0,0,0,0,0,0,0,0,-1,1994,512,0,0
777,512,0,0,0,0,0,0,0,0,0,-1,2001,512,0,0
784,512,0,0,0,0,0,0,0,0,0,-1,2008,512,0,0
791,512,0,0,0,0,0,0,0,0,0,-1,2015,512,0,0
798,512,0,0,0,0,0,0,0,0,0,-1,2022,512,0,0
805,512,0,0,0,0,0,0,0,0,0,-1,2029,512,0,0
812,512,0,0,0,0,0,0,0,0,0,-1,2036,512,0,0
-700,505,0,0,0,0,0,0,0,0,0,-1,524,519,0,0
-693,505,0,0,0,0,0,0,0,0,0,-1,531,519,0,0
-686,505,0,0,0,0,0,0,0,0,0,-1,538,519,0,0
-679,505,0,0,0,0,0,0,0,0,0,-1,545,519,0,0
-672,505,0,0,0,0,0,0,0,0,0,-1,552,519,0,0
-665,505,0,0,0,0,0,0,0,0,0,-1,559,519,0,0
-658,505,0,0,0,0,0,0,0,0,0,-1,566,519,0,0
-651,505,0,0,0,0,0,0,0,0,0,-1,573,519,0,0
-644,505,0,0,0,0,0,0,0,0,0,-1,580,519,0,0
-637,505,0,0,0,0,0,0,0,0,0,-1,587,519,0,0
-630,505,0,0,0,0,0,0,0,0,0,-1,594,519,0,0
-623,505,0,0,0,0,0,0,0,0,0,-1,601,519,0,0
-616,505,0,0,0,0,0,0,0,0,0,-1,608,519,0,0
-609,505,0,0,0,0,0,0,0,0,0,-1,615,519,0,0
-602,505,0,0,0,0,0,0,0,0,0,-1,622,519,0,0
-595,505,0,0,0,0,0,0,0,0,0,-1,629,519,0,0
-588,505,0,0,0,0,0,0,0,0,0,-1,636,519,0,0
-581,505,0,0,0,0,0,0,0,0,0,-1,643,519,0,0
-574,505,0,0,0,0,0,0,0,0,0,-1,650,519,0,0
-567,505,0,0,0,0,0,0,0,0,0,-1,657,519,0,0
-560,505,0,0,0,0,0,0,0,0,0,-1,664,519,0,0
-553,505,0,0,0,0,0,0,0,0,0,-1,671,519,0,0
-546,505,0,0,0,0,0,0,0,0,0,-1,678,519,0,0
-539,505,0,0,0,0,0,0,0,0,0,-1,685,519,0,0
-532,505,0,0,0,0,0,0,0,0,0,-1,692,519,0,0
-525,505,0,0,0,0,0,0,0,0,0,-1,699,519,0,0
-518,505,0,0,0,0,0,0,0,0,0,-1,706,519,0,0
-511,505,0,0,0,0,0,0,0,0,0,-1,713,519,0,0
-504,505,0,0,0,0,0,0,0,0,0,-1,720,519,0,0
-497,505,0,0,0,0,0,0,0,0,0,-1,727,519,0,0
-490,505,0,0,0,0,0,0,0,0,0,-1,734,519,0,0
-483,505,0,0,0,0,0,0,0,0,0,-1,741,519,0,0
-476,505,0,0,0,0,0,0,0,0,0,-1,748,519,0,0
-469,505,0,0,0,0,0,0,0,0,0,-1,755,519,0,0
-462,505,0,0,0,0,0,0,0,0,0,-1,762,519,0,0
-455,505,-2.41327,1.46393,0.0628193,0.0492249,-0.0803639,0.136673,-0.0246288,-0.743208,0.100338,0.045032,769,519,-2.41324,-1.46391
-448,505,-2.37469,0.555176,0.0590974,0.0402,-0.0660885,0.116409,-0.0171118,-0.714394,0.0838938,0.0442859,776,519,-2.37471,-0.555172
-441,505,-1.85565,-0.317322,0,0,0,0,0,0,0,-1,783,519,-1.85568,0.317329
-434,505,-1.3653,-1.11212,0.0452887,0.0262044,-0.0393599,0.0762466,-0.00475349,-0.666476,0.0524873,0.04592,790,519,-1.3653,1.11213
-427,505,0.498047,-3.62354,0.036229,0.0211771,-0.0275473,0.0572598,0.000146236,-0.652052,0.0381246,0.0459719,797,519,0.498075,3.62352
-420,505,0.15625,-3.92999,0,0,0,0,0,0,0,-1,804,519,0.156274,3.93001
-413,505,-0.356934,-3.94556,0.0176846,0.0151444,-0.00989932,0.026395,0.00643407,-0.721595,0.0158922,0.0475807,811,519,-0.356947,3.94553
-406,505,-0.391357,-4.92188,0.0104609,0.0137227,-0.00470074,0.0170674,0.00711614,-0.952374,0.00989908,0.0424906,818,519,-0.391338,4.92189
-399,505,-0.296143,-4.39252,0.00511807,0.0126385,-0.00104882,0.0127821,0.00497453,-1.43479,0.0074399,0.0405399,825,519,-0.296168,4.3925
-392,505,-0.265808,-4.45935,0.00152241,0.0107635,0.00162258,0.0110401,0.00124579,1.40194,0.00698196,0.0208086,832,519,-0.265817,4.45937
-385,505,-0.342163,-4.6712,-0.00062267,0.00830927,0.00248609,0.00895461,-0.00126801,1.31682,0.0064342,0.00906914,839,519,-0.342176,4.67122
-378,505,-0.387146,-4.87195,-0.00262836,0.00628391,0.002931,0.00716143,-0.00350589,1.2799,0.00627816,0.010377,846,519,-0.387141,4.87195
-371,505,-0.378906,-5.09528,-0.00293304,0.00512941,0.00218101,0.00568159,-0.00348522,1.32283,0.00534286,0.0135422,853,519,-0.378926,5.09529
-364,505,-0.382568,-5.27026,-0.0016481,0.00329318,0.00116739,0.0035551,-0.00191002,1.35009,0.00320258,0.0143433,860,519,-0.38256,5.27028
-357,505,-0.368835,-5.41528,-0.000559526,0.00206127,0.000414923,0.0021254,-0.000623647,1.41747,0.00166423,0.0112132,867,519,-0.368843,5.41527
-350,505,-0.376404,-5.60175,0.000280934,0.00105026,-0.000589297,0.00136933,-3.81341e-05,-1.07455,0.000925857,0.0106559,874,519,-0.376388,5.60173
-343,505,-0.392761,-5.79907,0.000798846,0.000434369,-0.00107871,0.0017106,-0.000477388,-0.701718,0.00132844,0.00868604,881,519,-0.392761,5.7991
-336,505,-0.380127,-5.96838,0.00110208,0.000137756,-0.0011318,0.00185014,-0.000610308,-0.584035,0.00147944,0.0100395,888,519,-0.380118,5.96838
-329,505,-0.375,-6.12836,0.0013838,1.58396e-05,-0.00119897,0.00208017,-0.000680527,-0.526185,0.00166077,0.0133579,895,519,-0.374977,6.12838
-322,505,-0.402283,-6.30981,0.00163754,-6.0707e-05,-0.00129709,0.00233873,-0.000761892,-0.495584,0.00186571,0.0144733,902,519,-0.402266,6.30979
-315,505,-0.391541,-6.49982,0.00188952,-0.000206777,-0.00145691,0.00263613,-0.000953397,-0.473573,0.00214698,0.0115787,909,519,-0.391528,6.49982
-308,505,-0.380188,-6.67432,0.00231113,-0.000254087,-0.00160656,0.00308427,-0.00102723,-0.448529,0.00247082,0.0114547,916,519,-0.380174,6.67434
-301,505,-0.342407,-6.8819,0.00268751,-0.000465133,-0.00171241,0.00343867,-0.00121628,-0.413377,0.00278776,0.0163979,923,519,-0.342402,6.88191
-294,505,-0.35498,-7.02515,0,0,0,0,0,0,0,-1,930,519,-0.355007,7.02515
-287,505,-0.454285,-7.11761,0,0,0,0,0,0,0,-1,937,519,-0.454283,7.11764
-280,505,-0.299744,-7.24237,0,0,0,0,0,0,0,-1,944,519,-0.29977,7.24236
-273,505,-0.209839,-7.35693,0,0,0,0,0,0,0,-1,951,519,-0.209854,7.35696
-266,505,-0.119934,-7.47156,0,0,0,0,0,0,0,-1,958,519,-0.119937,7.47156
-259,505,0.10321,-6.69824,0,0,0,0,0,0,0,-1,965,519,0.103235,6.69826
-252,505,6.82312,-15.6972,0,0,0,0,0,0,0,-1,972,519,6.82314,15.6972
-245,505,4.26727,-12.9861,0,0,0,0,0,0,0,-1,979,519,4.2673,12.9861
-238,505,1.67432,-11.2307,0,0,0,0,0,0,0,-1,986,519,1.67429,11.2307
-231,505,-0.958435,-8.3075,0,0,0,0,0,0,0,-1,993,519,-0.958421,8.30751
-224,505,-3.69653,-5.12732,0,0,0,0,0,0,0,-1,1000,519,-3.69653,5.12733
-217,505,-6.34302,-1.65533,0,0,0,0,0,0,0,-1,1007,519,-6.34299,1.65535
-210,505,-3.06128,-0.396301,0,0,0,0,0,0,0,-1,1014,519,-3.06129,0.396294
-203,505,-4.26465,2.03607,0,0,0,0,0,0,0,-1,1021,519,-4.26462,-2.03606
-196,505,-5.47595,4.27295,0,0,0,0,0,0,0,-1,1028,519,-5.47597,-4.27292
-189,505,1.51526,5.56207,0,0,0,0,0,0,0,-1,1035,519,1.51523,-5.56209
-182,505,2.97815,7.5097,0,0,0,0,0,0,0,-1,1042,519,2.97812,-7.5097
-175,505,-2.38416,-2.17548,0,0,0,0,0,0,0,-1,1049,519,-2.38411,2.1755
-168,505,0,0,0,0,0,0,0,0,0,-1,1056,519,0,0
-161,505,0,0,0,0,0,0,0,0,0,-1,1063,519,0,0
-154,505,0,0,0,0,0,0,0,0,0,-1,1070,519,0,0
-147,505,0,0,0,0,0,0,0,0,0,-1,1077,519,0,0
-140,505,0,0,0,0,0,0,0,0,0,-1,1084,519,0,0
-133,505,0,0,0,0,0,0,0,0,0,-1,1091,519,0,0
-126,505,0,0,0,0,0,0,0,0,0,-1,1098,519,0,0
-119,505,0,0,0,0,0,0,0,0,0,-1,1105,519,0,0
-112,505,0,0,0,0,0,0,0,0,0,-1,1112,519,0,0
-105,505,0,0,0,0,0,0,0,0,0,-1,1119,519,0,0
-98,505,0,0,0,0,0,0,0,0,0,-1,1126,519,0,0
-91,505,0,0,0,0,0,0,0,0,0,-1,1133,519,0,0
-84,505,0,0,0,0,0,0,0,0,0,-1,1140,519,0,0
-77,505,0,0,0,0,0,0,0,0,0,-1,1147,519,0,0
-70,505,0,0,0,0,0,0,0,0,0,-1,1154,519,0,0
-63,505,0,0,0,0,0,0,0,0,0,-1,1161,519,0,0
-56,505,0,0,0,0,0,0,0,0,0,-1,1168,519,0,0
-49,505,0,0,0,0,0,0,0,0,0,-1,1175,519,0,0
-42,505,0,0,0,0,0,0,0,0,0,-1,1182,519,0,0
-35,505,0,0,0,0,0,0,0,0,0,-1,1189,519,0,0
-28,505,0,0,0,0,0,0,0,0,0,-1,1196,519,0,0
-21,505,0,0,0,0,0,0,0,0,0,-1,1203,519,0,0
-14,505,0,0,0,0,0,0,0,0,0,-1,1210,519,0,0
-7,505,0,0,0,0,0,0,0,0,0,-1,1217,519,0,0
0,505,0,0,0,0,0,0,0,0,0,-1,1224,519,0,0
7,505,0,0,0,0,0,0,0,0,0,-1,1231,519,0,0
14,505,0,0,0,0,0,0,0,0,0,-1,1238,519,0,0
21,505,0,0,0,0,0,0,0,0,0,-1,1245,519,0,0
28,505,0,0,0,0,0,0,0,0,0,-1,1252,519,0,0
35,505,0,0,0,0,0,0,0,0,0,-1,1259,519,0,0
42,505,0,0,0,0,0,0,0,0,0,-1,1266,519,0,0
49,505,0,0,0,0,0,0,0,0,0,-1,1273,519,0,0
56,505,0,0,0,0,0,0,0,0,0,-1,1280,519,0,0
63,505,0,0,0,0,0,0,0,0,0,-1,1287,519,0,0
70,505,0,0,0,0,0,0,0,0,0,-1,1294,519,0,0
77,505,0,0,0,0,0,0,0,0,0,-1,1301,519,0,0
84,505,0,0,0,0,0,0,0,0,0,-1,1308,519,0,0
91,505,0,0,0,0,0,0,0,0,0,-1,1315,519,0,0
98,505,0,0,0,0,0,0,0,0,0,-1,1322,519,0,0
105,505,0,0,0,0,0,0,0,0,0,-1,1329,519,0,0
112,505,0,0,0,0,0,0,0,0,0,-1,1336,519,0,0
119,505,0,0,0,0,0,0,0,0,0,-1,1343,519,0,0
126,505,0,0,0,0,0,0,0,0,0,-1,1350,519,0,0
133,505,0,0,0,0,0,0,0,0,0,-1,1357,519,0,0
140,505,0,0,0,0,0,0,0,0,0,-1,1364,519,0,0
147,505,0,0,0,0,0,0,0,0,0,-1,1371,519,0,0
154,505,0,0,0,0,0,0,0,0,0,-1,1378,519,0,0
161,505,0,0,0,0,0,0,0,0,0,-1,1385,519,0,0
168,505,0,0,0,0,0,0,0,0,0,-1,1392,519,0,0
175,505,0,0,0,0,0,0,0,0,0,-1,1399,519,0,0
182,505,0,0,0,0,0,0,0,0,0,-1,1406,519,0,0
189,505,0,0,0,0,0,0,0,0,0,-1,1413,519,0,0
196,505,0,0,0,0,0,0,0,0,0,-1,1420,519,0,0
203,505,0,0,0,0,0,0,0,0,0,-1,1427,519,0,0
210,505,0,0,0,0,0,0,0,0,0,-1,1434,519,0,0
217,505,0,0,0,0,0,0,0,0,0,-1,1441,519,0,0
224,505,0,0,0,0,0,0,0,0,0,-1,1448,519,0,0
231,505,0,0,0,0,0,0,0,0,0,-1,1455,519,0,0
238,505,0,0,0,0,0,0,0,0,0,-1,1462,519,0,0
245,505,0,0,0,0,0,0,0,0,0,-1,1469,519,0,0
252,505,0,0,0,0,0,0,0,0,0,-1,1476,519,0,0
259,505,0,0,0,0,0,0,0,0,0,-1,1483,519,0,0
266,505,0,0,0,0,0,0,0,0,0,-1,1490,519,0,0
273,505,0,0,0,0,0,0,0,0,0,-1,1497,519,0,0
280,505,0,0,0,0,0,0,0,0,0,-1,1504,519,0,0
287,505,4.39478,0.499512,0,0,0,0,0,0,0,-1,1511,519,4.39476,-0.499506
294,505,4.88867,0.0822754,0,0,0,0,0,0,0,-1,1518,519,4.88871,-0.0822748
301,505,4.82153,-0.0704346,0,0,0,0,0,0,0,-1,1525,519,4.82156,0.0704312
308,505,4.67761,-0.29187,0,0,0,0,0,0,0,-1,1532,519,4.67762,0.291845
315,505,8.44055,-6.54352,0,0,0,0,0,0,0,-1,1539,519,8.44059,6.54349
322,505,4.78955,-0.594116,0,0,0,0,0,0,0,-1,1546,519,4.78957,0.594096
329,505,5.16321,0.434631,0,0,0,0,0,0,0,-1,1553,519,5.16316,-0.434614
336,505,4.94495,-0.920471,0,0,0,0,0,0,0,-1,1560,519,4.945,0.920495
343,505,5.01855,-1.4823,0,0,0,0,0,0,0,-1,1567,519,5.01851,1.48227
350,505,5.33154,-1.77838,0,0,0,0,0,0,0,-1,1574,519,5.33152,1.77838
357,505,5.56567,-1.9425,0,0,0,0,0,0,0,-1,1581,519,5.56562,1.94248
364,505,5.85205,-2.6579,0,0,0,0,0,0,0,-1,1588,519,5.85211,2.65788
371,505,5.88477,-7.00922,0,0,0,0,0,0,0,-1,1595,519,5.88473,7.00924
378,505,4.90271,-6.53369,0,0,0,0,0,0,0,-1,1602,519,4.90273,6.53369
385,505,4.61255,-5.71558,0,0,0,0,0,0,0,-1,1609,519,4.61252,5.71559
392,505,4.62109,-5.58307,0,0,0,0,0,0,0,-1,1616,519,4.62107,5.58307
399,505,4.69592,-5.43323,0,0,0,0,0,0,0,-1,1623,519,4.69587,5.4332
406,505,4.7981,-5.75861,0.105163,0.00908967,0.0369836,0.117751,-0.00349797,0.328059,0.0796919,0.0457907,1630,519,4.79814,5.75858
413,505,5.20715,-6.04144,0.0734978,0.00582464,0.0243319,0.081338,-0.00201559,0.311716,0.0549095,0.0458968,1637,519,5.20721,6.04144
420,505,4.83167,-5.88062,0.0478378,0.00328156,0.0143948,0.0520837,-0.000964342,0.286828,0.0350484,0.0321264,1644,519,4.83172,5.88064
427,505,4.78381,-5.65582,0.0287071,0.00167449,0.00733736,0.0305703,-0.000188644,0.248669,0.0204433,0.0139094,1651,519,4.78383,5.65581
434,505,4.76526,-5.46869,0.00931013,-5.54941e-05,-7.31685e-05,0.0093107,-5.60656e-05,-0.00781182,0.00622591,0.00989182,1658,519,4.7652,5.4687
441,505,4.75366,-5.26569,-0.00145468,-0.00106153,-0.00350399,0.0022514,-0.00476761,-0.813419,0.00413831,0.010165,1665,519,4.75363,5.26571
448,505,4.75977,-5.08112,-0.00104897,-1.01183e-05,-0.0025133,0.00203687,-0.00309595,-0.887299,0.00298439,0.0104953,1672,519,4.75978,5.08109
455,505,4.76135,-4.89331,-0.000652593,0.00052139,-0.00163495,0.00167153,-0.00180273,-0.957745,0.00200634,0.0103253,1679,519,4.76134,4.89328
462,505,4.75256,-4.67725,-0.000419499,0.000694005,-0.000858193,0.00116022,-0.000885718,-1.07315,0.00118476,0.0104807,1686,519,4.75251,4.67725
469,505,4.74951,-4.46857,0.000138769,0.000402731,-0.000269852,0.000571149,-2.96481e-05,-1.01284,0.000391023,0.0107059,1693,519,4.74945,4.46856
476,505,4.75232,-4.28113,0.000706318,9.91316e-05,-1.0597e-05,0.000706503,9.89468e-05,-0.0174456,0.000441729,0.0107958,1700,519,4.75231,4.28115
483,505,4.75452,-4.08948,0.00113921,-0.000235816,0.000144296,0.00115419,-0.000250795,0.103439,0.000865259,0.0121339,1707,519,4.75456,4.08946
490,505,4.77478,-3.88672,0.00152025,-0.000618086,0.00023134,0.00154499,-0.000642828,0.106544,0.00129844,0.0119241,1714,519,4.77484,3.88671
497,505,4.79565,-3.68652,0.00181741,-0.000940404,0.000288076,0.00184719,-0.000970174,0.102977,0.00165266,0.0116525,1721,519,4.79566,3.68654
504,505,4.78015,-3.46173,0.00244914,-0.0010835,0.000522002,0.00252466,-0.00115902,0.143676,0.00217495,0.0128024,1728,519,4.78016,3.46174
511,505,4.75171,-3.23865,0.00370798,-0.00112508,0.00107092,0.00393465,-0.00135174,0.208578,0.00317121,0.01426,1735,519,4.75167,3.23867
518,505,4.82983,-3.07776,0.00534963,-0.00062499,0.00202924,0.00597366,-0.00124903,0.298344,0.0044575,0.0246534,1742,519,4.82982,3.07776
525,505,4.86792,-2.98322,0,0,0,0,0,0,0,-1,1749,519,4.86789,2.98319
532,505,4.56433,-2.66394,0,0,0,0,0,0,0,-1,1756,519,4.56432,2.66391
539,505,4.51416,-2.44727,0,0,0,0,0,0,0,-1,1763,519,4.51422,2.44726
546,505,4.69727,-1.47705,0,0,0,0,0,0,0,-1,1770,519,4.69723,1.47703
553,505,2.82837,0.162659,0,0,0,0,0,0,0,-1,1777,519,2.82841,-0.162672
560,505,3.66223,-0.479797,0,0,0,0,0,0,0,-1,1784,519,3.66219,0.47982
567,505,4.65271,-0.950256,0,0,0,0,0,0,0,-1,1791,519,4.65274,0.95028
574,505,5.54443,-1.19977,0,0,0,0,0,0,0,-1,1798,519,5.54443,1.19974
581,505,0,0,0,0,0,0,0,0,0,-1,1805,519,0,0
588,505,0,0,0,0,0,0,0,0,0,-1,1812,519,0,0
595,505,0,0,0,0,0,0,0,0,0,-1,1819,519,0,0
602,505,0,0,0,0,0,0,0,0,0,-1,1826,519,0,0
609,505,0,0,0,0,0,0,0,0,0,-1,1833,519,0,0
616,505,0,0,0,0,0,0,0,0,0,-1,1840,519,0,0
623,505,0,0,0,0,0,0,0,0,0,-1,1847,519,0,0
630,505,0,0,0,0,0,0,0,0,0,-1,1854,519,0,0
637,505,0,0,0,0,0,0,0,0,0,-1,1861,519,0,0
644,505,0,0,0,0,0,0,0,0,0,-1,1868,519,0,0
651,505,0,0,0,0,0,0,0,0,0,-1,1875,519,0,0
658,505,0,0,0,0,0,0,0,0,0,-1,1882,519,0,0
665,505,0,0,0,0,0,0,0,0,0,-1,1889,519,0,0
672,505,0,0,0,0,0,0,0,0,0,-1,1896,519,0,0
679,505,0,0,0,0,0,0,0,0,0,-1,1903,519,0,0
686,505,0,0,0,0,0,0,0,0,0,-1,1910,519,0,0
693,505,0,0,0,0,0,0,0,0,0,-1,1917,519,0,0
700,505,0,0,0,0,0,0,0,0,0,-1,1924,519,0,0
707,505,0,0,0,0,0,0,0,0,0,-1,1931,519,0,0
714,505,0,0,0,0,0,0,0,0,0,-1,1938,519,0,0
721,505,0,0,0,0,0,0,0,0,0,-1,1945,519,0,0
728,505,0,0,0,0,0,0,0,0,0,-1,1952,519,0,0
735,505,0,0,0,0,0,0,0,0,0,-1,1959,519,0,0
742,505,0,0,0,0,0,0,0,0,0,-1,1966,519,0,0
749,505,0,0,0,0,0,0,0,0,0,-1,1973,519,0,0
756,505,0,0,0,0,0,0,0,0,0,-1,1980,519,0,0
763,505,0,0,0,0,0,0,0,0,0,-1,1987,519,0,0
770,505,0,0,0,0,0,0,0,0,0,-1,1994,519,0,0
777,505,0,0,0,0,0,0,0,0,0,-1,2001,519,0,0
784,505,0,0,0,0,0,0,0,0,0,-1,2008,519,0,0
791,505,0,0,0,0,0,0,0,0,0,-1,2015,519,0,0
798,505,0,0,0,0,0,0,0,0,0,-1,2022,519,0,0
805,505,0,0,0,0,0,0,0,0,0,-1,2029,519,0,0
812,505,0,0,0,0,0,0,0,0,0,-1,2036,519,0,0
-700,498,0,0,0,0,0,0,0,0,0,-1,524,526,0,0
-693,498,0,0,0,0,0,0,0,0,0,-1,531,526,0,0
-686,498,0,0,0,0,0,0,0,0,0,-1,538,526,0,0
-679,498,0,0,0,0,0,0,0,0,0,-1,545,526,0,0
-672,498,0,0,0,0,0,0,0,0,0,-1,552,526,0,0
-665,498,0,0,0,0,0,0,0,0,0,-1,559,526,0,0
-658,498,0,0,0,0,0,0,0,0,0,-1,566,526,0,0
-651,498,0,0,0,0,0,0,0,0,0,-1,573,526,0,0
-644,498,0,0,0,0,0,0,0,0,0,-1,580,526,0,0
-637,498,0,0,0,0,0,0,0,0,0,-1,587,526,0,0
-630,498,0,0,0,0,0,0,0,0,0,-1,594,526,0,0
-623,498,0,0,0,0,0,0,0,0,0,-1,601,526,0,0
-616,498,0,0,0,0,0,0,0,0,0,-1,608,526,0,0
-609,498,0,0,0,0,0,0,0,0,0,-1,615,526,0,0
-602,498,0,0,0,0,0,0,0,0,0,-1,622,526,0,0
-595,498,0,0,0,0,0,0,0,0,0,-1,629,526,0,0
-588,498,0,0,0,0,0,0,0,0,0,-1,636,526,0,0
-581,498,0,0,0,0,0,0,0,0,0,-1,643,526,0,0
-574,498,0,0,0,0,0,0,0,0,0,-1,650,526,0,0
-567,498,0,0,0,0,0,0,0,0,0,-1,657,526,0,0
-560,498,0,0,0,0,0,0,0,0,0,-1,664,526,0,0
-553,498,0,0,0,0,0,0,0,0,0,-1,671,526,0,0
-546,498,0,0,0,0,0,0,0,0,0,-1,678,526,0,0
-539,498,0,0,0,0,0,0,0,0,0,-1,685,526,0,0
-532,498,0,0,0,0,0,0,0,0,0,-1,692,526,0,0
-525,498,0,0,0,0,0,0,0,0,0,-1,699,526,0,0
-518,498,0,0,0,0,0,0,0,0,0,-1,706,526,0,0
-511,498,0,0,0,0,0,0,0,0,0,-1,713,526,0,0
-504,498,0,0,0,0,0,0,0,0,0,-1,720,526,0,0
-497,498,0,0,0,0,0,0,0,0,0,-1,727,526,0,0
-490,498,0,0,0,0,0,0,0,0,0,-1,734,526,0,0
-483,498,0,0,0,0,0,0,0,0,0,-1,741,526,0,0
-476,498,0,0,0,0,0,0,0,0,0,-1,748,526,0,0
-469,498,0,0,0,0,0,0,0,0,0,-1,755,526,0,0
-462,498,-2.67242,2.76251,0,0,0,0,0,0,0,-1,762,526,-2.6724,-2.76253
-455,498,-2.30255,1.69763,0.0627343,0.0543752,-0.0809382,0.139601,-0.0224912,-0.759602,0.101399,0.0418551,769,526,-2.30256,-1.69766
-448,498,-2.18317,0.814575,0.0588212,0.0424457,-0.0664404,0.117576,-0.0163095,-0.72409,0.084348,0.0419084,776,526,-2.18318,-0.814567
-441,498,-1.9007,-0.398865,0.0528014,0.0328058,-0.0529295,0.0966691,-0.0110619,-0.692053,0.068432,0.0445117,783,526,-1.90067,0.398838
-434,498,-1.31573,-1.29767,0.0456758,0.0249629,-0.0404065,0.077032,-0.00639328,-0.659945,0.053613,0.0420285,790,526,-1.31571,1.29764
-427,498,-0.48877,-2.39844,0.037335,0.0188275,-0.0290937,0.0586112,-0.00244868,-0.631424,0.0399154,0.0449586,797,526,-0.488765,2.39845
-420,498,-0.588074,-3.70703,0,0,0,0,0,0,0,-1,804,526,-0.588085,3.70704
-413,498,-0.558655,-3.92944,0.0198603,0.0116047,-0.0121401,0.0285552,0.00290981,-0.621524,0.0181448,0.0449491,811,526,-0.55865,3.92942
-406,498,-0.538086,-4.18201,0.0127757,0.0102976,-0.00701142,0.0186567,0.00441659,-0.697939,0.0112582,0.0387099,818,526,-0.5381,4.18202
-399,498,-0.504639,-4.32965,0.00728978,0.00933567,-0.00322616,0.0116972,0.00492827,-0.938924,0.00678118,0.0247488,825,526,-0.504626,4.32964
-392,498,-0.510437,-4.48767,0.00347967,0.00771995,-0.000329142,0.00774534,0.00345427,-1.49379,0.00448047,0.0129796,832,526,-0.510466,4.48767
-385,498,-0.540161,-4.66229,0.00109868,0.00566996,0.000922085,0.00584895,0.000919688,1.37907,0.00363176,0.00852388,839,526,-0.540183,4.66232
-378,498,-0.560791,-4.85828,-0.000976269,0.00405903,0.00162009,0.00453524,-0.00145249,1.2849,0.00360651,0.00931894,846,526,-0.560769,4.85829
-371,498,-0.545105,-5.07141,-0.00148646,0.00319178,0.0011696,0.00346789,-0.00176257,1.33897,0.00307284,0.0152148,853,526,-0.545128,5.07141
-364,498,-0.556885,-5.25836,-0.000483019,0.00178547,0.000422404,0.00186157,-0.00055912,1.39255,0.00146346,0.0162946,860,526,-0.55687,5.25836
-357,498,-0.553345,-5.41705,0.000423712,0.000865274,-0.000179319,0.000928921,0.000360065,-1.22973,0.00054081,0.0113169,867,526,-0.553342,5.41708
-350,498,-0.556763,-5.60205,0.00111161,0.000160582,-0.000967099,0.00171378,-0.000441584,-0.556909,0.00131467,0.0107138,874,526,-0.556783,5.60203
-343,498,-0.560059,-5.78674,0.00154483,-0.000296071,-0.00136486,0.00227061,-0.00102185,-0.488731,0.00194594,0.0111624,881,526,-0.560041,5.78675
-336,498,-0.538757,-5.9707,0.00181974,-0.000507398,-0.00145133,0.00251635,-0.00120401,-0.447502,0.00219204,0.0141685,888,526,-0.538728,5.97072
-329,498,-0.520874,-6.15521,0.00207755,-0.000532017,-0.00154468,0.00279477,-0.00124923,-0.434695,0.00239097,0.0187813,895,526,-0.520873,6.15518
-322,498,-0.557617,-6.32135,0.0023085,-0.000529923,-0.00166114,0.00307413,-0.00129556,-0.431889,0.00259157,0.0181175,902,526,-0.557614,6.32134
-315,498,-0.560486,-6.4953,0.00254954,-0.00063064,-0.00186339,0.00340907,-0.00149017,-0.432186,0.00289999,0.014635,909,526,-0.560466,6.49529
-308,498,-0.551331,-6.67896,0.00298493,-0.000607986,-0.00207602,0.00393385,-0.00155691,-0.428733,0.00326761,0.0163109,916,526,-0.551303,6.67896
-301,498,-0.468933,-6.94696,0.00331979,-0.00085841,-0.00219183,0.00425864,-0.00179726,-0.404696,0.00359135,0.0266936,923,526,-0.468923,6.94697
-294,498,-0.511597,-6.93646,0,0,0,0,0,0,0,-1,930,526,-0.511574,6.93645
-287,498,-0.610535,-7.20032,0,0,0,0,0,0,0,-1,937,526,-0.610507,7.20033
-280,498,-0.692749,-7.4967,0,0,0,0,0,0,0,-1,944,526,-0.692771,7.49672
-273,498,-0.46814,-7.38452,0,0,0,0,0,0,0,-1,951,526,-0.468131,7.38451
-266,498,0.362488,-6.33545,0,0,0,0,0,0,0,-1,958,526,0.362478,6.33547
-259,498,10.9454,-17.3615,0,0,0,0,0,0,0,-1,965,526,10.9454,17.3614
-252,498,8.56586,-14.6886,0,0,0,0,0,0,0,-1,972,526,8.56584,14.6886
-245,498,5.97382,-11.928,0,0,0,0,0,0,0,-1,979,526,5.97381,11.928
-238,498,3.31403,-9.40442,0,0,0,0,0,0,0,-1,986,526,3.31405,9.40443
-231,498,0.675598,-6.60547,0,0,0,0,0,0,0,-1,993,526,0.675587,6.60545
-224,498,-2.11243,-4.76312,0,0,0,0,0,0,0,-1,1000,526,-2.11245,4.76314
-217,498,-3.82239,-1.42841,0,0,0,0,0,0,0,-1,1007,526,-3.82241,1.42843
-210,498,-1.80591,-0.358215,0,0,0,0,0,0,0,-1,1014,526,-1.8059,0.3582
-203,498,-3.17316,1.06641,0,0,0,0,0,0,0,-1,1021,526,-3.17313,-1.0664
-196,498,-0.103271,5.40527,0,0,0,0,0,0,0,-1,1028,526,-0.103285,-5.40528
-189,498,3.00256,6.47137,0,0,0,0,0,0,0,-1,1035,526,3.00256,-6.47139
-182,498,0,0,0,0,0,0,0,0,0,-1,1042,526,0,0
-175,498,0,0,0,0,0,0,0,0,0,-1,1049,526,0,0
-168,498,0,0,0,0,0,0,0,0,0,-1,1056,526,0,0
-161,498,0,0,0,0,0,0,0,0,0,-1,1063,526,0,0
-154,498,0,0,0,0,0,0,0,0,0,-1,1070,526,0,0
-147,498,0,0,0,0,0,0,0,0,0,-1,1077,526,0,0
-140,498,0,0,0,0,0,0,0,0,0,-1,1084,526,0,0
-133,498,0,0,0,0,0,0,0,0,0,-1,1091,526,0,0
-126,498,0,0,0,0,0,0,0,0,0,-1,1098,526,0,0
-119,498,0,0,0,0,0,0,0,0,0,-1,1105,526,0,0
-112,498,0,0,0,0,0,0,0,0,0,-1,1112,526,0,0
-105,498,0,0,0,0,0,0,0,0,0,-1,1119,526,0,0
-98,498,0,0,0,0,0,0,0,0,0,-1,1126,526,0,0
-91,498,0,0,0,0,0,0,0,0,0,-1,1133,526,0,0
-84,498,0,0,0,0,0,0,0,0,0,-1,1140,526,0,0
-77,498,0,0,0,0,0,0,0,0,0,-1,1147,526,0,0
-70,498,0,0,0,0,0,0,0,0,0,-1,1154,526,0,0
-63,498,0,0,0,0,0,0,0,0,0,-1,1161,526,0,0
-56,498,0,0,0,0,0,0,0,0,0,-1,1168,526,0,0
-49,498,0,0,0,0,0,0,0,0,0,-1,1175,526,0,0
-42,498,0,0,0,0,0,0,0,0,0,-1,1182,526,0,0
-35,498,0,0,0,0,0,0,0,0,0,-1,1189,526,0,0
-28,498,0,0,0,0,0,0,0,0,0,-1,1196,526,0,0
-21,498,0,0,0,0,0,0,0,0,0,-1,1203,526,0,0
-14,498,0,0,0,0,0,0,0,0,0,-1,1210,526,0,0
-7,498,0,0,0,0,0,0,0,0,0,-1,1217,526,0,0
0,498,0,0,0,0,0,0,0,0,0,-1,1224,526,0,0
7,498,0,0,0,0,0,0,0,0,0,-1,1231,526,0,0
14,498,0,0,0,0,0,0,0,0,0,-1,1238,526,0,0
21,498,0,0,0,0,0,0,0,0,0,-1,1245,526,0,0
28,498,0,0,0,0,0,0,0,0,0,-1,1252,526,0,0
35,498,0,0,0,0,0,0,0,0,0,-1,1259,526,0,0
42,498,0,0,0,0,0,0,0,0,0,-1,1266,526,0,0
49,498,0,0,0,0,0,0,0,0,0,-1,1273,526,0,0
56,498,0,0,0,0,0,0,0,0,0,-1,1280,526,0,0
63,498,0,0,0,0,0,0,0,0,0,-1,1287,526,0,0
70,498,0,0,0,0,0,0,0,0,0,-1,1294,526,0,0
77,498,0,0,0,0,0,0,0,0,0,-1,1301,526,0,0
84,498,0,0,0,0,0,0,0,0,0,-1,1308,526,0,0
91,498,0,0,0,0,0,0,0,0,0,-1,1315,526,0,0
98,498,0,0,0,0,0,0,0,0,0,-1,1322,526,0,0
105,498,0,0,0,0,0,0,0,0,0,-1,1329,526,0,0
112,498,0,0,0,0,0,0,0,0,0,-1,1336,526,0,0
119,498,0,0,0,0,0,0,0,0,0,-1,1343,526,0,0
126,498,0,0,0,0,0,0,0,0,0,-1,1350,526,0,0
133,498,0,0,0,0,0,0,0,0,0,-1,1357,526,0,0
140,498,0,0,0,0,0,0,0,0,0,-1,1364,526,0,0
147,498,0,0,0,0,0,0,0,0,0,-1,1371,526,0,0
154,498,0,0,0,0,0,0,0,0,0,-1,1378,526,0,0
161,498,0,0,0,0,0,0,0,0,0,-1,1385,526,0,0
168,498,0,0,0,0,0,0,0,0,0,-1,1392,526,0,0
175,498,0,0,0,0,0,0,0,0,0,-1,1399,526,0,0
182,498,0,0,0,0,0,0,0,0,0,-1,1406,526,0,0
189,498,0,0,0,0,0,0,0,0,0,-1,1413,526,0,0
196,498,0,0,0,0,0,0,0,0,0,-1,1420,526,0,0
203,498,0,0,0,0,0,0,0,0,0,-1,1427,526,0,0
210,498,0,0,0,0,0,0,0,0,0,-1,1434,526,0,0
217,498,0,0,0,0,0,0,0,0,0,-1,1441,526,0,0
224,498,0,0,0,0,0,0,0,0,0,-1,1448,526,0,0
231,498,0,0,0,0,0,0,0,0,0,-1,1455,526,0,0
238,498,0,0,0,0,0,0,0,0,0,-1,1462,526,0,0
245,498,0,0,0,0,0,0,0,0,0,-1,1469,526,0,0
252,498,0,0,0,0,0,0,0,0,0,-1,1476,526,0,0
259,498,0,0,0,0,0,0,0,0,0,-1,1483,526,0,0
266,498,0,0,0,0,0,0,0,0,0,-1,1490,526,0,0
273,498,0,0,0,0,0,0,0,0,0,-1,1497,526,0,0
280,498,0,0,0,0,0,0,0,0,0,-1,1504,526,0,0
287,498,0,0,0,0,0,0,0,0,0,-1,1511,526,0,0
294,498,0,0,0,0,0,0,0,0,0,-1,1518,526,0,0
301,498,0,0,0,0,0,0,0,0,0,-1,1525,526,0,0
308,498,4.77942,-0.293884,0,0,0,0,0,0,0,-1,1532,526,4.77939,0.293899
315,498,4.56091,-0.564148,0,0,0,0,0,0,0,-1,1539,526,4.56097,0.564142
322,498,4.52344,-0.447266,0,0,0,0,0,0,0,-1,1546,526,4.52341,0.447295
329,498,4.63232,-0.156982,0,0,0,0,0,0,0,-1,1553,526,4.63238,0.156991
336,498,5.22644,0.0925903,0,0,0,0,0,0,0,-1,1560,526,5.22648,-0.0926188
343,498,6.22607,-1.67615,0,0,0,0,0,0,0,-1,1567,526,6.22605,1.67617
350,498,6.19373,-1.59906,0,0,0,0,0,0,0,-1,1574,526,6.19367,1.59906
357,498,6.21472,-1.58929,0,0,0,0,0,0,0,-1,1581,526,6.21476,1.58927
364,498,5.73547,-1.2019,0,0,0,0,0,0,0,-1,1588,526,5.73547,1.20192
371,498,3.27087,-4.55334,0,0,0,0,0,0,0,-1,1595,526,3.27089,4.55332
378,498,8.42944,-4.70624,0,0,0,0,0,0,0,-1,1602,526,8.42942,4.70624
385,498,4.7793,-5.15314,0,0,0,0,0,0,0,-1,1609,526,4.77935,5.15311
392,498,3.44421,-4.27454,0,0,0,0,0,0,0,-1,1616,526,3.44416,4.27456
399,498,6.10608,-5.52478,0,0,0,0,0,0,0,-1,1623,526,6.10608,5.5248
406,498,5.01733,-5.53522,0,0,0,0,0,0,0,-1,1630,526,5.01732,5.53523
413,498,6.07056,-6.0672,0,0,0,0,0,0,0,-1,1637,526,6.07055,6.06722
420,498,4.9967,-5.87195,0,0,0,0,0,0,0,-1,1644,526,4.99671,5.87197
427,498,5.05322,-5.68793,0.0500702,0.0051649,0.0154343,0.0548634,0.000371652,0.301115,0.0364524,0.0356147,1651,526,5.05317,5.68794
434,498,5.05383,-5.47217,0.0171163,0.00150715,0.0022334,0.0174296,0.00119388,0.139358,0.0112429,0.0181891,1658,526,5.05382,5.47217
441,498,4.96362,-5.25098,-0.00214905,-0.000767091,-0.00446814,0.00306318,-0.00597932,-0.862114,0.00531041,0.00975494,1665,526,4.96367,5.25099
448,498,4.96729,-5.06921,-0.00162229,0.000449237,-0.00323191,0.0028073,-0.00398035,-0.940468,0.00393831,0.00938079,1672,526,4.96728,5.0692
455,498,4.97314,-4.89166,-0.00109341,0.0010442,-0.00215432,0.00238028,-0.00242949,-1.01567,0.00277697,0.0127168,1679,526,4.97314,4.89164
462,498,4.95593,-4.69641,-0.000824503,0.00125395,-0.00121759,0.00181551,-0.00138606,-1.13866,0.00185396,0.0155714,1686,526,4.95592,4.69642
469,498,4.94556,-4.48096,-0.000211577,0.000896227,-0.000508308,0.00109411,-0.000409463,-1.19955,0.000897587,0.0136565,1693,526,4.94561,4.48098
476,498,4.9585,-4.27393,0.000411621,0.000555338,-0.000205572,0.000701248,0.00026571,-0.953537,0.000408804,0.00983589,1700,526,4.95846,4.27392
483,498,4.96545,-4.0697,0.00084673,0.000192917,-1.45528e-05,0.000847054,0.000192593,-0.0222436,0.000512708,0.00851075,1707,526,4.96549,4.06968
490,498,4.9751,-3.88647,0.00122954,-0.000208423,0.000108475,0.00123767,-0.00021656,0.0748719,0.000905971,0.0106223,1714,526,4.97514,3.88645
497,498,4.98975,-3.67914,0.00147621,-0.000562818,0.000153169,0.00148765,-0.00057426,0.0745611,0.00122876,0.0121142,1721,526,4.98975,3.67912
504,498,4.97644,-3.47491,0.00199005,-0.000737313,0.000343327,0.0020326,-0.000779868,0.123319,0.00167662,0.0141355,1728,526,4.97644,3.47494
511,498,4.94763,-3.25751,0.00307808,-0.000814019,0.000849709,0.00325549,-0.000991437,0.205841,0.00256548,0.0152525,1735,526,4.9476,3.25749
518,498,5.01208,-3.04413,0.00449295,-0.000382214,0.00171322,0.00503478,-0.000924047,0.306313,0.00370317,0.0172435,1742,526,5.01206,3.04414
525,498,4.95422,-2.85883,0.00623483,-7.60416e-06,0.00262341,0.0071909,-0.000963679,0.34948,0.00514533,0.0285474,1749,526,4.95419,2.85885
532,498,4.83862,-2.71088,0.00881589,0.000754426,0.00411806,0.0105476,-0.000977238,0.398057,0.00737905,0.038209,1756,526,4.83858,2.71089
539,498,4.85986,-2.56927,0.0125485,0.00226194,0.00646088,0.0156633,-0.000852891,0.449231,0.0107378,0.0457995,1763,526,4.85989,2.56928
546,498,5.01904,-2.2345,0,0,0,0,0,0,0,-1,1770,526,5.01902,2.23449
553,498,5.49207,-1.86108,0,0,0,0,0,0,0,-1,1777,526,5.49211,1.86111
560,498,3.69385,-0.615112,0,0,0,0,0,0,0,-1,1784,526,3.69381,0.615118
567,498,5.12695,-0.581604,0,0,0,0,0,0,0,-1,1791,526,5.12699,0.58159
574,498,3.88,0.0286255,0,0,0,0,0,0,0,-1,1798,526,3.87999,-0.0286535
581,498,10.8722,2.58551,0,0,0,0,0,0,0,-1,1805,526,10.8723,-2.58551
588,498,0,0,0,0,0,0,0,0,0,-1,1812,526,0,0
595,498,0,0,0,0,0,0,0,0,0,-1,1819,526,0,0
602,498,0,0,0,0,0,0,0,0,0,-1,1826,526,0,0
609,498,0,0,0,0,0,0,0,0,0,-1,1833,526,0,0
616,498,0,0,0,0,0,0,0,0,0,-1,1840,526,0,0
623,498,0,0,0,0,0,0,0,0,0,-1,1847,526,0,0
630,498,0,0,0,0,0,0,0,0,0,-1,1854,526,0,0
637,498,0,0,0,0,0,0,0,0,0,-1,1861,526,0,0
644,498,0,0,0,0,0,0,0,0,0,-1,1868,526,0,0
651,498,0,0,0,0,0,0,0,0,0,-1,1875,526,0,0
658,498,0,0,0,0,0,0,0,0,0,-1,1882,526,0,0
665,498,0,0,0,0,0,0,0,0,0,-1,1889,526,0,0
672,498,0,0,0,0,0,0,0,0,0,-1,1896,526,0,0
679,498,0,0,0,0,0,0,0,0,0,-1,1903,526,0,0
686,498,0,0,0,0,0,0,0,0,0,-1,1910,526,0,0
693,498,0,0,0,0,0,0,0,0,0,-1,1917,526,0,0
700,498,0,0,0,0,0,0,0,0,0,-1,1924,526,0,0
707,498,0,0,0,0,0,0,0,0,0,-1,1931,526,0,0
714,498,0,0,0,0,0,0,0,0,0,-1,1938,526,0,0
721,498,0,0,0,0,0,0,0,0,0,-1,1945,526,0,0
728,498,0,0,0,0,0,0,0,0,0,-1,1952,526,0,0
735,498,0,0,0,0,0,0,0,0,0,-1,1959,526,0,0
742,498,0,0,0,0,0,0,0,0,0,-1,1966,526,0,0
749,498,0,0,0,0,0,0,0,0,0,-1,1973,526,0,0
756,498,0,0,0,0,0,0,0,0,0,-1,1980,526,0,0
763,498,0,0,0,0,0,0,0,0,0,-1,1987,526,0,0
770,498,0,0,0,0,0,0,0,0,0,-1,1994,526,0,0
777,498,0,0,0,0,0,0,0,0,0,-1,2001,526,0,0
784,498,0,0,0,0,0,0,0,0,0,-1,2008,526,0,0
791,498,0,0,0,0,0,0,0,0,0,-1,2015,526,0,0
798,498,0,0,0,0,0,0,0,0,0,-1,2022,526,0,0
805,498,0,0,0,0,0,0,0,0,0,-1,2029,526,0,0
812,498,0,0,0,0,0,0,0,0,0,-1,2036,526,0,0
-700,491,0,0,0,0,0,0,0,0,0,-1,524,533,0,0
-693,491,0,0,0,0,0,0,0,0,0,-1,531,533,0,0
-686,491,0,0,0,0,0,0,0,0,0,-1,538,533,0,0
-679,491,0,0,0,0,0,0,0,0,0,-1,545,533,0,0
-672,491,0,0,0,0,0,0,0,0,0,-1,552,533,0,0
-665,491,0,0,0,0,0,0,0,0,0,-1,559,533,0,0
-658,491,0,0,0,0,0,0,0,0,0,-1,566,533,0,0
-651,491,0,0,0,0,0,0,0,0,0,-1,573,533,0,0
-644,491,0,0,0,0,0,0,0,0,0,-1,580,533,0,0
-637,491,0,0,0,0,0,0,0,0,0,-1,587,533,0,0
-630,491,0,0,0,0,0,0,0,0,0,-1,594,533,0,0
-623,491,0,0,0,0,0,0,0,0,0,-1,601,533,0,0
-616,491,0,0,0,0,0,0,0,0,0,-1,608,533,0,0
-609,491,0,0,0,0,0,0,0,0,0,-1,615,533,0,0
-602,491,0,0,0,0,0,0,0,0,0,-1,622,533,0,0
-595,491,0,0,0,0,0,0,0,0,0,-1,629,533,0,0
-588,491,0,0,0,0,0,0,0,0,0,-1,636,533,0,0
-581,491,0,0,0,0,0,0,0,0,0,-1,643,533,0,0
-574,491,0,0,0,0,0,0,0,0,0,-1,650,533,0,0
-567,491,0,0,0,0,0,0,0,0,0,-1,657,533,0,0
-560,491,0,0,0,0,0,0,0,0,0,-1,664,533,0,0
-553,491,0,0,0,0,0,0,0,0,0,-1,671,533,0,0
-546,491,0,0,0,0,0,0,0,0,0,-1,678,533,0,0
-539,491,0,0,0,0,0,0,0,0,0,-1,685,533,0,0
-532,491,0,0,0,0,0,0,0,0,0,-1,692,533,0,0
-525,491,0,0,0,0,0,0,0,0,0,-1,699,533,0,0
-518,491,0,0,0,0,0,0,0,0,0,-1,706,533,0,0
-511,491,0,0,0,0,0,0,0,0,0,-1,713,533,0,0
-504,491,0,0,0,0,0,0,0,0,0,-1,720,533,0,0
-497,491,0,0,0,0,0,0,0,0,0,-1,727,533,0,0
-490,491,0,0,0,0,0,0,0,0,0,-1,734,533,0,0
-483,491,0,0,0,0,0,0,0,0,0,-1,741,533,0,0
-476,491,0,0,0,0,0,0,0,0,0,-1,748,533,0,0
-469,491,-5.84094,3.46936,0,0,0,0,0,0,0,-1,755,533,-5.84097,-3.46934
-462,491,-3.32318,3.43024,0,0,0,0,0,0,0,-1,762,533,-3.3232,-3.43025
-455,491,-2.95135,2.11237,0.0582009,0.057292,-0.0776384,0.135386,-0.0198933,-0.782471,0.0975669,0.0439866,769,533,-2.95136,-2.11239
-448,491,-2.58044,0.77948,0.0545783,0.0436181,-0.0635723,0.112906,-0.0147099,-0.742403,0.0806227,0.0413853,776,533,-2.58043,-0.779456
-441,491,-1.98682,-0.46521,0.0490692,0.0327667,-0.050732,0.0923006,-0.0104647,-0.705742,0.0653021,0.0444158,783,533,-1.98681,0.465197
-434,491,-1.43463,-1.60718,0.0427286,0.0239337,-0.0389284,0.0733778,-0.0067155,-0.666962,0.0513038,0.044621,790,533,-1.43466,1.60719
-427,491,-0.830811,-2.56305,0.0353479,0.0170494,-0.0283692,0.0560067,-0.00360938,-0.629411,0.0385972,0.0499901,797,533,-0.830816,2.56305
-420,491,-0.697937,-3.52698,0.0272816,0.0116817,-0.0194307,0.0404195,-0.00145618,-0.594531,0.0274446,0.0484414,804,533,-0.697943,3.52697
-413,491,-0.679199,-3.85773,0.0196962,0.00895424,-0.0127015,0.0281156,0.000534789,-0.58537,0.0185681,0.0378246,811,533,-0.679212,3.85772
-406,491,-0.701416,-4.12152,0.0131903,0.00772577,-0.00792909,0.0188447,0.00207141,-0.619475,0.0119327,0.0203296,818,533,-0.701441,4.12151
-399,491,-0.718445,-4.3009,0.0080227,0.00682379,-0.00431227,0.011777,0.00306951,-0.716335,0.00705438,0.0110052,825,533,-0.718441,4.30092
-392,491,-0.741882,-4.48706,0.00439444,0.0053992,-0.00146854,0.00644892,0.00334472,-0.950205,0.00372415,0.00969464,832,533,-0.741852,4.48703
-385,491,-0.75293,-4.66956,0.0021179,0.00367385,-7.27447e-05,0.00367724,0.00211451,-1.52418,0.00213101,0.00840059,839,533,-0.752919,4.66956
-378,491,-0.755859,-4.86829,0.000238675,0.00236771,0.000710286,0.00258292,2.34641e-05,1.2766,0.00171418,0.0117677,846,533,-0.755837,4.86829
-371,491,-0.731934,-5.05585,-0.000302038,0.0016683,0.000463721,0.00177198,-0.000405719,1.35083,0.00133724,0.0140281,853,533,-0.731961,5.05587
-364,491,-0.727905,-5.22968,0.000506759,0.000600374,-8.43801e-05,0.000650059,0.000457073,-1.03863,0.000385497,0.0138967,860,533,-0.727877,5.22966
-357,491,-0.744141,-5.40778,0.00129651,-9.22563e-05,-0.00059519,0.00151669,-0.000312432,-0.354315,0.00112976,0.0121845,867,533,-0.744153,5.40777
-350,491,-0.739319,-5.60913,0.00189056,-0.000583094,-0.00121981,0.00239088,-0.00108341,-0.389235,0.00205269,0.0135924,874,533,-0.739328,5.60914
-343,491,-0.732483,-5.79315,0.00228453,-0.000944571,-0.00157713,0.00292699,-0.00158703,-0.386836,0.00264417,0.0211874,881,533,-0.732494,5.79313
-336,491,-0.71106,-5.96332,0.00256037,-0.00113646,-0.00175458,0.00326052,-0.00183661,-0.379679,0.00298086,0.0222978,888,533,-0.711075,5.96335
-329,491,-0.690186,-6.14154,0.00282829,-0.00114596,-0.00194348,0.0036207,-0.00193837,-0.387147,0.00325815,0.0239376,895,533,-0.690186,6.14154
-322,491,-0.711792,-6.32849,0.00308182,-0.00114951,-0.00214903,0.00398185,-0.00204953,-0.396611,0.00354129,0.0223448,902,533,-0.711793,6.32852
-315,491,-0.76001,-6.48505,0.00335067,-0.00127275,-0.0024554,0.00441135,-0.00233343,-0.407765,0.00395522,0.0180031,909,533,-0.759997,6.48506
-308,491,-0.616333,-6.72656,0.00381722,-0.00124017,-0.00279007,0.005054,-0.00247695,-0.41725,0.00443204,0.0375161,916,533,-0.616303,6.72656
-301,491,-0.654297,-7.32813,0,0,0,0,0,0,0,-1,923,533,-0.654284,7.32811
-294,491,-0.76123,-7.19275,0,0,0,0,0,0,0,-1,930,533,-0.761261,7.19275
-287,491,-0.694824,-7.48352,0,0,0,0,0,0,0,-1,937,533,-0.694839,7.48353
-280,491,0.2948,-5.99219,0,0,0,0,0,0,0,-1,944,533,0.294811,5.99221
-273,491,0.369995,-5.33691,0,0,0,0,0,0,0,-1,951,533,0.369985,5.33693
-266,491,1.1167,-5.0321,0,0,0,0,0,0,0,-1,958,533,1.11668,5.0321
-259,491,12.0862,-16.9615,0,0,0,0,0,0,0,-1,965,533,12.0862,16.9615
-252,491,9.72443,-13.8417,0,0,0,0,0,0,0,-1,972,533,9.72444,13.8418
-245,491,7.36926,-10.7169,0,0,0,0,0,0,0,-1,979,533,7.36924,10.7169
-238,491,4.84167,-7.53986,0,0,0,0,0,0,0,-1,986,533,4.84169,7.53984
-231,491,2.15582,-5.05225,0,0,0,0,0,0,0,-1,993,533,2.1558,5.05223
-224,491,-0.429749,-3.09216,0,0,0,0,0,0,0,-1,1000,533,-0.429743,3.09215
-217,491,-2.92743,-1.0766,0,0,0,0,0,0,0,-1,1007,533,-2.92743,1.07659
-210,491,-0.92395,0.374512,0,0,0,0,0,0,0,-1,1014,533,-0.923959,-0.374531
-203,491,0.417419,4.77161,0,0,0,0,0,0,0,-1,1021,533,0.417446,-4.77162
-196,491,0,0,0,0,0,0,0,0,0,-1,1028,533,0,0
-189,491,0,0,0,0,0,0,0,0,0,-1,1035,533,0,0
-182,491,0,0,0,0,0,0,0,0,0,-1,1042,533,0,0
-175,491,0,0,0,0,0,0,0,0,0,-1,1049,533,0,0
-168,491,0,0,0,0,0,0,0,0,0,-1,1056,533,0,0
-161,491,0,0,0,0,0,0,0,0,0,-1,1063,533,0,0
-154,491,0,0,0,0,0,0,0,0,0,-1,1070,533,0,0
-147,491,0,0,0,0,0,0,0,0,0,-1,1077,533,0,0
-140,491,0,0,0,0,0,0,0,0,0,-1,1084,533,0,0
-133,491,0,0,0,0,0,0,0,0,0,-1,1091,533,0,0
-126,491,0,0,0,0,0,0,0,0,0,-1,1098,533,0,0
-119,491,0,0,0,0,0,0,0,0,0,-1,1105,533,0,0
-112,491,0,0,0,0,0,0,0,0,0,-1,1112,533,0,0
-105,491,0,0,0,0,0,0,0,0,0,-1,1119,533,0,0
-98,491,0,0,0,0,0,0,0,0,0,-1,1126,533,0,0
-91,491,0,0,0,0,0,0,0,0,0,-1,1133,533,0,0
-84,491,0,0,0,0,0,0,0,0,0,-1,1140,533,0,0
-77,491,0,0,0,0,0,0,0,0,0,-1,1147,533,0,0
-70,491,0,0,0,0,0,0,0,0,0,-1,1154,533,0,0
-63,491,0,0,0,0,0,0,0,0,0,-1,1161,533,0,0
-56,491,0,0,0,0,0,0,0,0,0,-1,1168,533,0,0
-49,491,0,0,0,0,0,0,0,0,0,-1,1175,533,0,0
-42,491,0,0,0,0,0,0,0,0,0,-1,1182,533,0,0
-35,491,0,0,0,0,0,0,0,0,0,-1,1189,533,0,0
-28,491,0,0,0,0,0,0,0,0,0,-1,1196,533,0,0
-21,491,0,0,0,0,0,0,0,0,0,-1,1203,533,0,0
-14,491,0,0,0,0,0,0,0,0,0,-1,1210,533,0,0
-7,491,0,0,0,0,0,0,0,0,0,-1,1217,533,0,0
0,491,0,0,0,0,0,0,0,0,0,-1,1224,533,0,0
7,491,0,0,0,0,0,0,0,0,0,-1,1231,533,0,0
14,491,0,0,0,0,0,0,0,0,0,-1,1238,533,0,0
21,491,0,0,0,0,0,0,0,0,0,-1,1245,533,0,0
28,491,0,0,0,0,0,0,0,0,0,-1,1252,533,0,0
35,491,0,0,0,0,0,0,0,0,0,-1,1259,533,0,0
42,491,0,0,0,0,0,0,0,0,0,-1,1266,533,0,0
49,491,0,0,0,0,0,0,0,0,0,-1,1273,533,0,0
56,491,0,0,0,0,0,0,0,0,0,-1,1280,533,0,0
63,491,0,0,0,0,0,0,0,0,0,-1,1287,533,0,0
70,491,0,0,0,0,0,0,0,0,0,-1,1294,533,0,0
77,491,0,0,0,0,0,0,0,0,0,-1,1301,533,0,0
84,491,0,0,0,0,0,0,0,0,0,-1,1308,533,0,0
91,491,0,0,0,0,0,0,0,0,0,-1,1315,533,0,0
98,491,0,0,0,0,0,0,0,0,0,-1,1322,533,0,0
105,491,0,0,0,0,0,0,0,0,0,-1,1329,533,0,0
112,491,0,0,0,0,0,0,0,0,0,-1,1336,533,0,0
119,491,0,0,0,0,0,0,0,0,0,-1,1343,533,0,0
126,491,0,0,0,0,0,0,0,0,0,-1,1350,533,0,0
133,491,0,0,0,0,0,0,0,0,0,-1,1357,533,0,0
140,491,0,0,0,0,0,0,0,0,0,-1,1364,533,0,0
147,491,0,0,0,0,0,0,0,0,0,-1,1371,533,0,0
154,491,0,0,0,0,0,0,0,0,0,-1,1378,533,0,0
161,491,0,0,0,0,0,0,0,0,0,-1,1385,533,0,0
168,491,0,0,0,0,0,0,0,0,0,-1,1392,533,0,0
175,491,0,0,0,0,0,0,0,0,0,-1,1399,533,0,0
182,491,0,0,0,0,0,0,0,0,0,-1,1406,533,0,0
189,491,0,0,0,0,0,0,0,0,0,-1,1413,533,0,0
196,491,0,0,0,0,0,0,0,0,0,-1,1420,533,0,0
203,491,0,0,0,0,0,0,0,0,0,-1,1427,533,0,0
210,491,0,0,0,0,0,0,0,0,0,-1,1434,533,0,0
217,491,0,0,0,0,0,0,0,0,0,-1,1441,533,0,0
224,491,0,0,0,0,0,0,0,0,0,-1,1448,533,0,0
231,491,0,0,0,0,0,0,0,0,0,-1,1455,533,0,0
238,491,0,0,0,0,0,0,0,0,0,-1,1462,533,0,0
245,491,0,0,0,0,0,0,0,0,0,-1,1469,533,0,0
252,491,0,0,0,0,0,0,0,0,0,-1,1476,533,0,0
259,491,0,0,0,0,0,0,0,0,0,-1,1483,533,0,0
266,491,0,0,0,0,0,0,0,0,0,-1,1490,533,0,0
273,491,0,0,0,0,0,0,0,0,0,-1,1497,533,0,0
280,491,0,0,0,0,0,0,0,0,0,-1,1504,533,0,0
287,491,0,0,0,0,0,0,0,0,0,-1,1511,533,0,0
294,491,0,0,0,0,0,0,0,0,0,-1,1518,533,0,0
301,491,0,0,0,0,0,0,0,0,0,-1,1525,533,0,0
308,491,0,0,0,0,0,0,0,0,0,-1,1532,533,0,0
315,491,0,0,0,0,0,0,0,0,0,-1,1539,533,0,0
322,491,4.26331,-0.734314,0,0,0,0,0,0,0,-1,1546,533,4.26326,0.734324
329,491,4.25354,-0.783752,0,0,0,0,0,0,0,-1,1553,533,4.25359,0.783734
336,491,4.81604,-0.722107,0,0,0,0,0,0,0,-1,1560,533,4.81605,0.722115
343,491,6.14478,-1.44281,0,0,0,0,0,0,0,-1,1567,533,6.14474,1.44281
350,491,6.36353,-1.30792,0,0,0,0,0,0,0,-1,1574,533,6.36352,1.3079
357,491,6.69482,-1.06018,0,0,0,0,0,0,0,-1,1581,533,6.69489,1.06018
364,491,8.01086,-1.69604,0,0,0,0,0,0,0,-1,1588,533,8.01087,1.69607
371,491,8.2135,-0.539307,0,0,0,0,0,0,0,-1,1595,533,8.21348,0.53929
378,491,13.3589,2.17267,0,0,0,0,0,0,0,-1,1602,533,13.3589,-2.17264
385,491,8.08228,-4.95471,0,0,0,0,0,0,0,-1,1609,533,8.08227,4.95474
392,491,2.88721,-4.30988,0,0,0,0,0,0,0,-1,1616,533,2.88716,4.30986
399,491,7.08691,-4.86603,0,0,0,0,0,0,0,-1,1623,533,7.08696,4.86606
406,491,5.62842,-4.76996,0,0,0,0,0,0,0,-1,1630,533,5.62843,4.76998
413,491,5.31848,-3.7124,0,0,0,0,0,0,0,-1,1637,533,5.31849,3.7124
420,491,4.86389,-3.95892,0,0,0,0,0,0,0,-1,1644,533,4.86387,3.95893
427,491,5.43237,-5.63159,0,0,0,0,0,0,0,-1,1651,533,5.43239,5.63159
434,491,5.43933,-5.49811,0.0302913,0.00426758,0.00672593,0.0319269,0.00263203,0.238541,0.0204637,0.0377183,1658,533,5.43934,5.49809
441,491,5.22766,-5.30798,-0.00295271,-0.000197744,-0.00549915,0.00409382,-0.00724428,-0.908118,0.00662975,0.0229375,1665,533,5.22762,5.30799
448,491,5.17212,-5.0473,-0.00226143,0.00118892,-0.00396746,0.00379006,-0.00486257,-0.990482,0.00500837,0.0122495,1672,533,5.17208,5.04729
455,491,5.15076,-4.86255,-0.00155904,0.00182582,-0.0026648,0.0032902,-0.00302343,-1.06832,0.00364626,0.0111926,1679,533,5.15079,4.86256
462,491,5.1449,-4.68903,-0.00119888,0.00202358,-0.00153742,0.00263939,-0.00181469,-1.18982,0.00258622,0.0153509,1686,533,5.14489,4.68904
469,491,5.14331,-4.49133,-0.000504418,0.0015759,-0.000695113,0.00178679,-0.000715304,-1.27624,0.00148808,0.0144051,1693,533,5.14337,4.49133
476,491,5.17395,-4.28546,0.000187755,0.00117243,-0.000335103,0.00127565,8.45339e-05,-1.27199,0.000823701,0.00982708,1700,533,5.17398,4.28546
483,491,5.17664,-4.06183,0.00064272,0.000759393,-8.94643e-05,0.00080786,0.000594253,-1.07431,0.000483368,0.0118594,1707,533,5.17658,4.06186
490,491,5.17871,-3.88904,0.00104761,0.000319386,8.33261e-05,0.00105702,0.000309973,0.112487,0.000627419,0.0107304,1714,533,5.17876,3.88902
497,491,5.19141,-3.69293,0.00126247,-8.80193e-05,0.000126118,0.00127415,-9.96961e-05,0.092323,0.000884539,0.011677,1721,533,5.19139,3.69295
504,491,5.19299,-3.48645,0.00166116,-0.000317241,0.000274109,0.00169843,-0.000354517,0.13516,0.0012671,0.0130072,1728,533,5.19303,3.48643
511,491,5.17712,-3.26196,0.00256422,-0.000450473,0.000725834,0.00272987,-0.000616126,0.224382,0.00205629,0.0117055,1735,533,5.17708,3.26198
518,491,5.17993,-3.06543,0.00374878,-0.000112933,0.00148183,0.00425186,-0.000616012,0.327288,0.00306064,0.00924477,1742,533,5.17993,3.06546
525,491,5.1947,-2.8551,0.00519789,0.000181588,0.00224655,0.00605691,-0.000677427,0.365217,0.00428165,0.00893212,1749,533,5.19474,2.85512
532,491,5.2135,-2.65314,0.0073431,0.000835076,0.00351497,0.00887904,-0.000700863,0.411966,0.00616627,0.0154192,1756,533,5.21354,2.65312
539,491,5.1759,-2.51123,0.0104039,0.00203541,0.00545796,0.0130969,-0.00065765,0.458369,0.00895854,0.0237236,1763,533,5.17593,2.51122
546,491,5.12878,-2.22076,0.014504,0.00371359,0.00813899,0.0188736,-0.000656012,0.492709,0.0128067,0.0368184,1770,533,5.12874,2.22074
553,491,5.34705,-1.82922,0.0199409,0.00605376,0.0117423,0.0266389,-0.000644331,0.518389,0.0179779,0.0451525,1777,533,5.34702,1.82923
560,491,5.89343,-1.41431,0,0,0,0,0,0,0,-1,1784,533,5.8934,1.41432
567,491,5.67651,-1.3562,0,0,0,0,0,0,0,-1,1791,533,5.67649,1.3562
574,491,8.0719,1.58325,0,0,0,0,0,0,0,-1,1798,533,8.07195,-1.58326
581,491,9.44812,1.60931,0,0,0,0,0,0,0,-1,1805,533,9.44808,-1.60933
588,491,11.0497,1.54962,0,0,0,0,0,0,0,-1,1812,533,11.0496,-1.54963
595,491,0,0,0,0,0,0,0,0,0,-1,1819,533,0,0
602,491,0,0,0,0,0,0,0,0,0,-1,1826,533,0,0
609,491,0,0,0,0,0,0,0,0,0,-1,1833,533,0,0
616,491,0,0,0,0,0,0,0,0,0,-1,1840,533,0,0
623,491,0,0,0,0,0,0,0,0,0,-1,1847,533,0,0
630,491,0,0,0,0,0,0,0,0,0,-1,1854,533,0,0
637,491,0,0,0,0,0,0,0,0,0,-1,1861,533,0,0
644,491,0,0,0,0,0,0,0,0,0,-1,1868,533,0,0
651,491,0,0,0,0,0,0,0,0,0,-1,1875,533,0,0
658,491,0,0,0,0,0,0,0,0,0,-1,1882,533,0,0
665,491,0,0,0,0,0,0,0,0,0,-1,1889,533,0,0
672,491,0,0,0,0,0,0,0,0,0,-1,1896,533,0,0
679,491,0,0,0,0,0,0,0,0,0,-1,1903,533,0,0
686,491,0,0,0,0,0,0,0,0,0,-1,1910,533,0,0
693,491,0,0,0,0,0,0,0,0,0,-1,1917,533,0,0
700,491,0,0,0,0,0,0,0,0,0,-1,1924,533,0,0
707,491,0,0,0,0,0,0,0,0,0,-1,1931,533,0,0
714,491,0,0,0,0,0,0,0,0,0,-1,1938,533,0,0
721,491,0,0,0,0,0,0,0,0,0,-1,1945,533,0,0
728,491,0,0,0,0,0,0,0,0,0,-1,1952,533,0,0
735,491,0,0,0,0,0,0,0,0,0,-1,1959,533,0,0
742,491,0,0,0,0,0,0,0,0,0,-1,1966,533,0,0
749,491,0,0,0,0,0,0,0,0,0,-1,1973,533,0,0
756,491,0,0,0,0,0,0,0,0,0,-1,1980,533,0,0
763,491,0,0,0,0,0,0,0,0,0,-1,1987,533,0,0
770,491,0,0,0,0,0,0,0,0,0,-1,1994,533,0,0
777,491,0,0,0,0,0,0,0,0,0,-1,2001,533,0,0
784,491,0,0,0,0,0,0,0,0,0,-1,2008,533,0,0
791,491,0,0,0,0,0,0,0,0,0,-1,2015,533,0,0
798,491,0,0,0,0,0,0,0,0,0,-1,2022,533,0,0
805,491,0,0,0,0,0,0,0,0,0,-1,2029,533,0,0
812,491,0,0,0,0,0,0,0,0,0,-1,2036,533,0,0
-700,484,0,0,0,0,0,0,0,0,0,-1,524,540,0,0
-693,484,0,0,0,0,0,0,0,0,0,-1,531,540,0,0
-686,484,0,0,0,0,0,0,0,0,0,-1,538,540,0,0
-679,484,0,0,0,0,0,0,0,0,0,-1,545,540,0,0
-672,484,0,0,0,0,0,0,0,0,0,-1,552,540,0,0
-665,484,0,0,0,0,0,0,0,0,0,-1,559,540,0,0
-658,484,0,0,0,0,0,0,0,0,0,-1,566,540,0,0
-651,484,0,0,0,0,0,0,0,0,0,-1,573,540,0,0
-644,484,0,0,0,0,0,0,0,0,0,-1,580,540,0,0
-637,484,0,0,0,0,0,0,0,0,0,-1,587,540,0,0
-630,484,0,0,0,0,0,0,0,0,0,-1,594,540,0,0
-623,484,0,0,0,0,0,0,0,0,0,-1,601,540,0,0
-616,484,0,0,0,0,0,0,0,0,0,-1,608,540,0,0
-609,484,0,0,0,0,0,0,0,0,0,-1,615,540,0,0
-602,484,0,0,0,0,0,0,0,0,0,-1,622,540,0,0
-595,484,0,0,0,0,0,0,0,0,0,-1,629,540,0,0
-588,484,0,0,0,0,0,0,0,0,0,-1,636,540,0,0
-581,484,0,0,0,0,0,0,0,0,0,-1,643,540,0,0
-574,484,0,0,0,0,0,0,0,0,0,-1,650,540,0,0
-567,484,0,0,0,0,0,0,0,0,0,-1,657,540,0,0
-560,484,0,0,0,0,0,0,0,0,0,-1,664,540,0,0
-553,484,0,0,0,0,0,0,0,0,0,-1,671,540,0,0
-546,484,0,0,0,0,0,0,0,0,0,-1,678,540,0,0
-539,484,0,0,0,0,0,0,0,0,0,-1,685,540,0,0
-532,484,0,0,0,0,0,0,0,0,0,-1,692,540,0,0
-525,484,0,0,0,0,0,0,0,0,0,-1,699,540,0,0
-518,484,0,0,0,0,0,0,0,0,0,-1,706,540,0,0
-511,484,0,0,0,0,0,0,0,0,0,-1,713,540,0,0
-504,484,0,0,0,0,0,0,0,0,0,-1,720,540,0,0
-497,484,0,0,0,0,0,0,0,0,0,-1,727,540,0,0
-490,484,0,0,0,0,0,0,0,0,0,-1,734,540,0,0
-483,484,0,0,0,0,0,0,0,0,0,-1,741,540,0,0
-476,484,-5.57245,3.58289,0,0,0,0,0,0,0,-1,748,540,-5.57242,-3.58286
-469,484,-5.33441,2.38483,0,0,0,0,0,0,0,-1,755,540,-5.3344,-2.3848
-462,484,-4.07019,3.21344,0,0,0,0,0,0,0,-1,762,540,-4.07017,-3.21346
-455,484,-3.69708,2.07971,0.0526618,0.0575619,-0.0726564,0.12781,-0.0175859,-0.802252,0.0916326,0.0472337,769,540,-3.69708,-2.07969
-448,484,-2.65674,0.426331,0.0496369,0.0431497,-0.059459,0.105941,-0.0131541,-0.758149,0.0753953,0.0479772,776,540,-2.65674,-0.426339
-441,484,-1.96875,-1.25421,0.0448001,0.0318035,-0.047542,0.0862859,-0.00968229,-0.717476,0.061008,0.0498232,783,540,-1.96876,1.25424
-434,484,-1.10211,-2.66174,0,0,0,0,0,0,0,-1,790,540,-1.1021,2.66177
-427,484,-0.97644,-3.06805,0.0328593,0.015318,-0.0269351,0.0524158,-0.00423847,-0.628001,0.0364389,0.0425371,797,540,-0.976446,3.06803
-420,484,-0.786865,-3.62915,0.0257828,0.00968135,-0.0188263,0.0382075,-0.00274338,-0.58335,0.0264336,0.0317641,804,540,-0.786874,3.62915
-413,484,-0.841675,-3.85071,0.0190683,0.00679065,-0.0127314,0.0270636,-0.00120464,-0.560753,0.0184571,0.0192694,811,540,-0.841682,3.85072
-406,484,-0.858459,-4.09869,0.0132167,0.00562605,-0.00837103,0.0186126,0.000230141,-0.572565,0.0123324,0.0120912,818,540,-0.858455,4.09871
-399,484,-0.886902,-4.315,0.00846556,0.00474005,-0.00498096,0.0119207,0.00128493,-0.606462,0.00755532,0.015215,825,540,-0.886929,4.31503
-392,484,-0.913086,-4.48138,0.00510908,0.00343121,-0.00225588,0.00667697,0.00186332,-0.607379,0.00397842,0.0171425,832,540,-0.913103,4.48141
-385,484,-0.938721,-4.6687,0.00300787,0.00192946,-0.000787601,0.00342315,0.00151417,-0.485236,0.00198074,0.0117489,839,540,-0.938715,4.66869
-378,484,-0.939819,-4.87225,0.00136886,0.000805419,5.14614e-05,0.00137352,0.000800757,0.0903387,0.000796635,0.0131077,846,540,-0.939809,4.87224
-371,484,-0.927002,-5.04559,0.000862655,0.000165013,-2.10514e-05,0.00086329,0.000164378,-0.0301385,0.000529311,0.0151058,853,540,-0.927028,5.04557
-364,484,-0.920349,-5.2002,0.00151366,-0.000696978,-0.000384156,0.00157851,-0.000761833,-0.167246,0.00137835,0.0111203,860,540,-0.920346,5.20021
-357,484,-0.931519,-5.38202,0.00222301,-0.00127535,-0.00082252,0.00240675,-0.00145909,-0.219775,0.00225418,0.0120346,867,540,-0.931524,5.38199
-350,484,-0.927307,-5.58466,0.00277362,-0.00167901,-0.00132455,0.00313785,-0.00204323,-0.268349,0.00301347,0.0139252,874,540,-0.927299,5.58467
-343,484,-0.899292,-5.78882,0.0031677,-0.0020201,-0.00167493,0.00366147,-0.00251387,-0.28668,0.0035858,0.0203248,881,540,-0.899283,5.78879
-336,484,-0.859131,-5.94086,0.0034442,-0.00223483,-0.00196486,0.00405773,-0.00284836,-0.302658,0.00400756,0.0233503,888,540,-0.859147,5.94086
-329,484,-0.863342,-6.0965,0.00370532,-0.00226366,-0.00228674,0.00448066,-0.00303901,-0.326897,0.004368,0.0297445,895,540,-0.863354,6.0965
-322,484,-0.783325,-6.3717,0.00396429,-0.00228552,-0.00264051,0.00493051,-0.00325174,-0.350789,0.00475706,0.0350764,902,540,-0.783327,6.37172
-315,484,-0.7677,-6.59924,0,0,0,0,0,0,0,-1,909,540,-0.767705,6.59926
-308,484,-0.465027,-6.71832,0,0,0,0,0,0,0,-1,916,540,-0.465025,6.71833
-301,484,-1.33453,-6.52667,0,0,0,0,0,0,0,-1,923,540,-1.33454,6.5267
-294,484,-0.860168,-6.3125,0,0,0,0,0,0,0,-1,930,540,-0.86019,6.31251
-287,484,-0.715759,-5.62103,0,0,0,0,0,0,0,-1,937,540,-0.715772,5.62105
-280,484,2.66742,-1.6795,0,0,0,0,0,0,0,-1,944,540,2.6674,1.67949
-273,484,2.53125,-2.22296,0,0,0,0,0,0,0,-1,951,540,2.53128,2.22295
-266,484,2.6778,-2.72058,0,0,0,0,0,0,0,-1,958,540,2.6778,2.72061
-259,484,2.41718,-2.59894,0,0,0,0,0,0,0,-1,965,540,2.41717,2.59892
-252,484,10.6069,-11.696,0,0,0,0,0,0,0,-1,972,540,10.6069,11.696
-245,484,8.0415,-9.22931,0,0,0,0,0,0,0,-1,979,540,8.0415,9.2293
-238,484,5.56836,-6.82672,0,0,0,0,0,0,0,-1,986,540,5.56834,6.82672
-231,484,3.39185,-3.8576,0,0,0,0,0,0,0,-1,993,540,3.39183,3.85763
-224,484,1.14313,-1.21228,0,0,0,0,0,0,0,-1,1000,540,1.14312,1.21226
-217,484,-0.745056,1.17358,0,0,0,0,0,0,0,-1,1007,540,-0.745043,-1.17359
-210,484,0,0,0,0,0,0,0,0,0,-1,1014,540,0,0
-203,484,0,0,0,0,0,0,0,0,0,-1,1021,540,0,0
-196,484,0,0,0,0,0,0,0,0,0,-1,1028,540,0,0
-189,484,0,0,0,0,0,0,0,0,0,-1,1035,540,0,0
-182,484,0,0,0,0,0,0,0,0,0,-1,1042,540,0,0
-175,484,0,0,0,0,0,0,0,0,0,-1,1049,540,0,0
-168,484,0,0,0,0,0,0,0,0,0,-1,1056,540,0,0
-161,484,0,0,0,0,0,0,0,0,0,-1,1063,540,0,0
-154,484,0,0,0,0,0,0,0,0,0,-1,1070,540,0,0
-147,484,0,0,0,0,0,0,0,0,0,-1,1077,540,0,0
-140,484,0,0,0,0,0,0,0,0,0,-1,1084,540,0,0
-133,484,0,0,0,0,0,0,0,0,0,-1,1091,540,0,0
-126,484,0,0,0,0,0,0,0,0,0,-1,1098,540,0,0
-119,484,0,0,0,0,0,0,0,0,0,-1,1105,540,0,0
-112,484,0,0,0,0,0,0,0,0,0,-1,1112,540,0,0
-105,484,0,0,0,0,0,0,0,0,0,-1,1119,540,0,0
-98,484,0,0,0,0,0,0,0,0,0,-1,1126,540,0,0
-91,484,0,0,0,0,0,0,0,0,0,-1,1133,540,0,0
-84,484,0,0,0,0,0,0,0,0,0,-1,1140,540,0,0
-77,484,0,0,0,0,0,0,0,0,0,-1,1147,540,0,0
-70,484,0,0,0,0,0,0,0,0,0,-1,1154,540,0,0
-63,484,0,0,0,0,0,0,0,0,0,-1,1161,540,0,0
-56,484,0,0,0,0,0,0,0,0,0,-1,1168,540,0,0
-49,484,0,0,0,0,0,0,0,0,0,-1,1175,540,0,0
-42,484,0,0,0,0,0,0,0,0,0,-1,1182,540,0,0
-35,484,0,0,0,0,0,0,0,0,0,-1,1189,540,0,0
-28,484,0,0,0,0,0,0,0,0,0,-1,1196,540,0,0
-21,484,0,0,0,0,0,0,0,0,0,-1,1203,540,0,0
-14,484,0,0,0,0,0,0,0,0,0,-1,1210,540,0,0
-7,484,0,0,0,0,0,0,0,0,0,-1,1217,540,0,0
0,484,0,0,0,0,0,0,0,0,0,-1,1224,540,0,0
7,484,0,0,0,0,0,0,0,0,0,-1,1231,540,0,0
14,484,0,0,0,0,0,0,0,0,0,-1,1238,540,0,0
21,484,0,0,0,0,0,0,0,0,0,-1,1245,540,0,0
28,484,0,0,0,0,0,0,0,0,0,-1,1252,540,0,0
35,484,0,0,0,0,0,0,0,0,0,-1,1259,540,0,0
42,484,0,0,0,0,0,0,0,0,0,-1,1266,540,0,0
49,484,0,0,0,0,0,0,0,0,0,-1,1273,540,0,0
56,484,0,0,0,0,0,0,0,0,0,-1,1280,540,0,0
63,484,0,0,0,0,0,0,0,0,0,-1,1287,540,0,0
70,484,0,0,0,0,0,0,0,0,0,-1,1294,540,0,0
77,484,0,0,0,0,0,0,0,0,0,-1,1301,540,0,0
84,484,0,0,0,0,0,0,0,0,0,-1,1308,540,0,0
91,484,0,0,0,0,0,0,0,0,0,-1,1315,540,0,0
98,484,0,0,0,0,0,0,0,0,0,-1,1322,540,0,0
105,484,0,0,0,0,0,0,0,0,0,-1,1329,540,0,0
112,484,0,0,0,0,0,0,0,0,0,-1,1336,540,0,0
119,484,0,0,0,0,0,0,0,0,0,-1,1343,540,0,0
126,484,0,0,0,0,0,0,0,0,0,-1,1350,540,0,0
133,484,0,0,0,0,0,0,0,0,0,-1,1357,540,0,0
140,484,0,0,0,0,0,0,0,0,0,-1,1364,540,0,0
147,484,0,0,0,0,0,0,0,0,0,-1,1371,540,0,0
154,484,0,0,0,0,0,0,0,0,0,-1,1378,540,0,0
161,484,0,0,0,0,0,0,0,0,0,-1,1385,540,0,0
168,484,0,0,0,0,0,0,0,0,0,-1,1392,540,0,0
175,484,0,0,0,0,0,0,0,0,0,-1,1399,540,0,0
182,484,0,0,0,0,0,0,0,0,0,-1,1406,540,0,0
189,484,0,0,0,0,0,0,0,0,0,-1,1413,540,0,0
196,484,0,0,0,0,0,0,0,0,0,-1,1420,540,0,0
203,484,0,0,0,0,0,0,0,0,0,-1,1427,540,0,0
210,484,0,0,0,0,0,0,0,0,0,-1,1434,540,0,0
217,484,0,0,0,0,0,0,0,0,0,-1,1441,540,0,0
224,484,0,0,0,0,0,0,0,0,0,-1,1448,540,0,0
231,484,0,0,0,0,0,0,0,0,0,-1,1455,540,0,0
238,484,0,0,0,0,0,0,0,0,0,-1,1462,540,0,0
245,484,0,0,0,0,0,0,0,0,0,-1,1469,540,0,0
252,484,0,0,0,0,0,0,0,0,0,-1,1476,540,0,0
259,484,0,0,0,0,0,0,0,0,0,-1,1483,540,0,0
266,484,0,0,0,0,0,0,0,0,0,-1,1490,540,0,0
273,484,0,0,0,0,0,0,0,0,0,-1,1497,540,0,0
280,484,0,0,0,0,0,0,0,0,0,-1,1504,540,0,0
287,484,0,0,0,0,0,0,0,0,0,-1,1511,540,0,0
294,484,0,0,0,0,0,0,0,0,0,-1,1518,540,0,0
301,484,0,0,0,0,0,0,0,0,0,-1,1525,540,0,0
308,484,0,0,0,0,0,0,0,0,0,-1,1532,540,0,0
315,484,0,0,0,0,0,0,0,0,0,-1,1539,540,0,0
322,484,0,0,0,0,0,0,0,0,0,-1,1546,540,0,0
329,484,0,0,0,0,0,0,0,0,0,-1,1553,540,0,0
336,484,4.38708,-1.64136,0,0,0,0,0,0,0,-1,1560,540,4.38704,1.64138
343,484,7.57996,-1.05457,0,0,0,0,0,0,0,-1,1567,540,7.57995,1.05454
350,484,8.10425,-1.18878,0,0,0,0,0,0,0,-1,1574,540,8.1043,1.18877
357,484,7.74902,-3.80286,0,0,0,0,0,0,0,-1,1581,540,7.74901,3.80287
364,484,6.31262,-3.87213,0,0,0,0,0,0,0,-1,1588,540,6.31263,3.87215
371,484,7.21008,0.973511,0,0,0,0,0,0,0,-1,1595,540,7.21014,-0.973541
378,484,11.0563,1.5014,0,0,0,0,0,0,0,-1,1602,540,11.0563,-1.5014
385,484,14.3469,2.5545,0,0,0,0,0,0,0,-1,1609,540,14.3469,-2.55453
392,484,7.39453,-4.95026,0,0,0,0,0,0,0,-1,1616,540,7.39448,4.95023
399,484,7.14417,-2.5639,0,0,0,0,0,0,0,-1,1623,540,7.14417,2.56391
406,484,7.88953,-2.47321,0,0,0,0,0,0,0,-1,1630,540,7.88954,2.47323
413,484,4.4895,-1.08673,0,0,0,0,0,0,0,-1,1637,540,4.48952,1.08674
420,484,4.50012,-2.11255,0,0,0,0,0,0,0,-1,1644,540,4.50012,2.11256
427,484,5.28601,-3.54053,0,0,0,0,0,0,0,-1,1651,540,5.28599,3.54051
434,484,5.93225,-5.48993,0,0,0,0,0,0,0,-1,1658,540,5.9323,5.48992
441,484,5.57129,-5.36932,0,0,0,0,0,0,0,-1,1665,540,5.57129,5.36931
448,484,5.39026,-5.04694,-0.00299834,0.00213063,-0.00476915,0.00498107,-0.00584878,-1.03208,0.0062593,0.0398888,1672,540,5.39024,5.04691
455,484,5.33142,-4.86029,-0.00203535,0.00277002,-0.00318018,0.00435311,-0.00361844,-1.10891,0.00460889,0.0197404,1679,540,5.33138,4.86027
462,484,5.35876,-4.66235,-0.00144295,0.00285652,-0.001817,0.00352154,-0.00210797,-1.21994,0.00328417,0.0146159,1686,540,5.35874,4.66236
469,484,5.40112,-4.4837,-0.000600059,0.00229922,-0.000824424,0.00251725,-0.000818091,-1.31225,0.00200723,0.0160705,1693,540,5.40109,4.48368
476,484,5.38782,-4.28723,0.000190914,0.00182778,-0.000381719,0.00191242,0.000106273,-1.35259,0.00124104,0.0148425,1700,540,5.38787,4.28725
483,484,5.39124,-4.08649,0.00069569,0.00135867,-5.83653e-05,0.00136377,0.000690591,-1.48365,0.000787394,0.0122628,1707,540,5.3912,4.08649
490,484,5.38794,-3.89508,0.00114432,0.000881741,0.000178411,0.00123454,0.000791519,0.468196,0.000722167,0.0124719,1714,540,5.38797,3.89508
497,484,5.38342,-3.69897,0.00133388,0.000421216,0.000227036,0.00138724,0.000367858,0.230832,0.000829845,0.0137502,1721,540,5.3834,3.69899
504,484,5.39465,-3.48248,0.00159492,0.000126229,0.000327364,0.00166458,5.65653e-05,0.209674,0.00109135,0.0153936,1728,540,5.39462,3.48251
511,484,5.39709,-3.26459,0.00226427,-7.2585e-05,0.000703661,0.00245979,-0.000268108,0.271028,0.00173615,0.0170924,1735,540,5.3971,3.26458
518,484,5.3728,-3.07257,0.00317457,0.00014521,0.00132997,0.0036756,-0.000355819,0.360279,0.0025772,0.014222,1742,540,5.37279,3.07259
525,484,5.38464,-2.85181,0.00429444,0.000348676,0.00194675,0.00509322,-0.000450104,0.389366,0.00355503,0.0123271,1749,540,5.38465,2.85181
532,484,5.42517,-2.63623,0.00597084,0.000867465,0.00298543,0.00734649,-0.000508175,0.431786,0.00507554,0.0148622,1756,540,5.42515,2.63625
539,484,5.4187,-2.39697,0.00835624,0.00177494,0.00454452,0.0106764,-0.000545205,0.472042,0.00730611,0.0190167,1763,540,5.41876,2.39696
546,484,5.33337,-2.22638,0.0115286,0.00311218,0.00667549,0.0152116,-0.000570817,0.504162,0.0103366,0.020892,1770,540,5.33336,2.22638
553,484,5.31079,-1.94086,0.0156069,0.00485949,0.00940425,0.0210645,-0.00059808,0.525831,0.0142465,0.0339931,1777,540,5.31074,1.94087
560,484,5.98181,-1.58081,0.0207911,0.00712707,0.0128952,0.0285524,-0.000634175,0.541793,0.0192498,0.0441141,1784,540,5.98186,1.58081
567,484,6.55957,-1.25061,0,0,0,0,0,0,0,-1,1791,540,6.55956,1.2506
574,484,5.74463,1.50922,0,0,0,0,0,0,0,-1,1798,540,5.74463,-1.50924
581,484,10.34,2.9491,0,0,0,0,0,0,0,-1,1805,540,10.34,-2.94912
588,484,10.6669,2.88568,0,0,0,0,0,0,0,-1,1812,540,10.6669,-2.88567
595,484,10.7233,1.04767,0,0,0,0,0,0,0,-1,1819,540,10.7233,-1.04766
602,484,0,0,0,0,0,0,0,0,0,-1,1826,540,0,0
609,484,0,0,0,0,0,0,0,0,0,-1,1833,540,0,0
616,484,0,0,0,0,0,0,0,0,0,-1,1840,540,0,0
623,484,0,0,0,0,0,0,0,0,0,-1,1847,540,0,0
630,484,0,0,0,0,0,0,0,0,0,-1,1854,540,0,0
637,484,0,0,0,0,0,0,0,0,0,-1,1861,540,0,0
644,484,0,0,0,0,0,0,0,0,0,-1,1868,540,0,0
651,484,0,0,0,0,0,0,0,0,0,-1,1875,540,0,0
658,484,0,0,0,0,0,0,0,0,0,-1,1882,540,0,0
665,484,0,0,0,0,0,0,0,0,0,-1,1889,540,0,0
672,484,0,0,0,0,0,0,0,0,0,-1,1896,540,0,0
679,484,0,0,0,0,0,0,0,0,0,-1,1903,540,0,0
686,484,0,0,0,0,0,0,0,0,0,-1,1910,540,0,0
693,484,0,0,0,0,0,0,0,0,0,-1,1917,540,0,0
700,484,0,0,0,0,0,0,0,0,0,-1,1924,540,0,0
707,484,0,0,0,0,0,0,0,0,0,-1,1931,540,0,0
714,484,0,0,0,0,0,0,0,0,0,-1,1938,540,0,0
721,484,0,0,0,0,0,0,0,0,0,-1,1945,540,0,0
728,484,0,0,0,0,0,0,0,0,0,-1,1952,540,0,0
735,484,0,0,0,0,0,0,0,0,0,-1,1959,540,0,0
742,484,0,0,0,0,0,0,0,0,0,-1,1966,540,0,0
749,484,0,0,0,0,0,0,0,0,0,-1,1973,540,0,0
756,484,0,0,0,0,0,0,0,0,0,-1,1980,540,0,0
763,484,0,0,0,0,0,0,0,0,0,-1,1987,540,0,0
770,484,0,0,0,0,0,0,0,0,0,-1,1994,540,0,0
777,484,0,0,0,0,0,0,0,0,0,-1,2001,540,0,0
784,484,0,0,0,0,0,0,0,0,0,-1,2008,540,0,0
791,484,0,0,0,0,0,0,0,0,0,-1,2015,540,0,0
798,484,0,0,0,0,0,0,0,0,0,-1,2022,540,0,0
805,484,0,0,0,0,0,0,0,0,0,-1,2029,540,0,0
812,484,0,0,0,0,0,0,0,0,0,-1,2036,540,0,0
-700,477,0,0,0,0,0,0,0,0,0,-1,524,547,0,0
-693,477,0,0,0,0,0,0,0,0,0,-1,531,547,0,0
-686,477,0,0,0,0,0,0,0,0,0,-1,538,547,0,0
-679,477,0,0,0,0,0,0,0,0,0,-1,545,547,0,0
-672,477,0,0,0,0,0,0,0,0,0,-1,552,547,0,0
-665,477,0,0,0,0,0,0,0,0,0,-1,559,547,0,0
-658,477,0,0,0,0,0,0,0,0,0,-1,566,547,0,0
-651,477,0,0,0,0,0,0,0,0,0,-1,573,547,0,0
-644,477,0,0,0,0,0,0,0,0,0,-1,580,547,0,0
-637,477,0,0,0,0,0,0,0,0,0,-1,587,547,0,0
-630,477,0,0,0,0,0,0,0,0,0,-1,594,547,0,0
-623,477,0,0,0,0,0,0,0,0,0,-1,601,547,0,0
-616,477,0,0,0,0,0,0,0,0,0,-1,608,547,0,0
-609,477,0,0,0,0,0,0,0,0,0,-1,615,547,0,0
-602,477,0,0,0,0,0,0,0,0,0,-1,622,547,0,0
-595,477,0,0,0,0,0,0,0,0,0,-1,629,547,0,0
-588,477,0,0,0,0,0,0,0,0,0,-1,636,547,0,0
-581,477,0,0,0,0,0,0,0,0,0,-1,643,547,0,0
-574,477,0,0,0,0,0,0,0,0,0,-1,650,547,0,0
-567,477,0,0,0,0,0,0,0,0,0,-1,657,547,0,0
-560,477,0,0,0,0,0,0,0,0,0,-1,664,547,0,0
-553,477,0,0,0,0,0,0,0,0,0,-1,671,547,0,0
-546,477,0,0,0,0,0,0,0,0,0,-1,678,547,0,0
-539,477,0,0,0,0,0,0,0,0,0,-1,685,547,0,0
-532,477,0,0,0,0,0,0,0,0,0,-1,692,547,0,0
-525,477,0,0,0,0,0,0,0,0,0,-1,699,547,0,0
-518,477,0,0,0,0,0,0,0,0,0,-1,706,547,0,0
-511,477,0,0,0,0,0,0,0,0,0,-1,713,547,0,0
-504,477,0,0,0,0,0,0,0,0,0,-1,720,547,0,0
-497,477,0,0,0,0,0,0,0,0,0,-1,727,547,0,0
-490,477,0,0,0,0,0,0,0,0,0,-1,734,547,0,0
-483,477,-5.02893,2.836,0.0330657,0.14698,-0.124187,0.226648,-0.0466024,-1.00041,0.168791,0.044212,741,547,-5.02894,-2.83599
-476,477,-5.00543,2.39917,0.0400559,0.118572,-0.108136,0.194355,-0.0357275,-0.959522,0.142975,0.0453966,748,547,-5.00541,-2.39917
-469,477,-4.89209,1.42383,0.0443727,0.0940507,-0.0929604,0.165433,-0.02701,-0.915948,0.120307,0.0463619,755,547,-4.89206,-1.42383
-462,477,-4.75995,0.59967,0,0,0,0,0,0,0,-1,762,547,-4.75996,-0.599652
-455,477,-4.60034,1.84247,0,0,0,0,0,0,0,-1,769,547,-4.60035,-1.8425
-448,477,-2.61957,-0.672974,0,0,0,0,0,0,0,-1,776,547,-2.61958,0.673001
-441,477,-1.93024,-2.34674,0,0,0,0,0,0,0,-1,783,547,-1.93021,2.34671
-434,477,-1.27002,-3.18549,0.0337679,0.0206612,-0.0325649,0.0604324,-0.00600321,-0.686104,0.0424311,0.0417375,790,547,-1.26999,3.18546
-427,477,-1.0473,-3.49451,0.0283561,0.0134917,-0.023917,0.0459691,-0.00412126,-0.634753,0.0321081,0.0213139,797,547,-1.04731,3.49448
-420,477,-1.08575,-3.63452,0.0223644,0.00786949,-0.0167633,0.0333799,-0.003146,-0.581362,0.0233726,0.0175082,804,547,-1.08578,3.63455
-413,477,-1.078,-3.86072,0.0166778,0.00492524,-0.0114213,0.0236458,-0.00204283,-0.547808,0.0164871,0.0144471,811,547,-1.07803,3.86069
-406,477,-1.07867,-4.08746,0.0116906,0.00379856,-0.00759322,0.0163019,-0.000812767,-0.545767,0.0111487,0.0101733,818,547,-1.07865,4.08749
-399,477,-1.07141,-4.31506,0.00758886,0.00284693,-0.0045557,0.0103536,8.21482e-05,-0.545466,0.00687521,0.0168203,825,547,-1.07143,4.31506
-392,477,-1.09521,-4.50385,0.00470732,0.00156802,-0.00206855,0.00573434,0.000540997,-0.460838,0.00365593,0.016447,832,547,-1.0952,4.50387
-385,477,-1.10944,-4.65033,0.00296519,0.000187724,-0.000642496,0.00310662,4.63004e-05,-0.216661,0.00205582,0.0138635,839,547,-1.10941,4.65035
-378,477,-1.099,-4.85254,0.00170265,-0.000894478,0.000191643,0.00171672,-0.000908543,0.0732615,0.00153945,0.0126792,846,547,-1.09902,4.85254
-371,477,-1.10559,-5.0365,0.00135281,-0.00160664,0.000244393,0.00137286,-0.00162668,0.0818416,0.00173385,0.0127736,853,547,-1.1056,5.03651
-364,477,-1.13409,-5.20166,0.00196109,-0.00241529,1.13128e-05,0.00196112,-0.00241532,0.00258495,0.00253127,0.0121226,860,547,-1.13409,5.20168
-357,477,-1.12347,-5.38507,0.00269282,-0.00301383,-0.000403913,0.00272127,-0.00304227,-0.0703123,0.0033293,0.0101196,867,547,-1.12348,5.38508
-350,477,-1.1051,-5.57446,0.00332167,-0.00345561,-0.000867827,0.00343103,-0.00356497,-0.125355,0.00403939,0.00979412,874,547,-1.10507,5.57447
-343,477,-1.03882,-5.77594,0.00384774,-0.0038276,-0.0013065,0.00406404,-0.0040439,-0.164066,0.00468112,0.0175411,881,547,-1.03881,5.77595
-336,477,-0.966309,-5.96344,0.00424473,-0.00405856,-0.00180717,0.004621,-0.00443483,-0.205278,0.00522875,0.0256709,888,547,-0.966318,5.96346
-329,477,-0.970337,-6.26886,0.0046249,-0.00407861,-0.00240207,0.00524383,-0.00469754,-0.25218,0.00574254,0.0451647,895,547,-0.970337,6.26886
-322,477,-1.22266,-6.25452,0.00502596,-0.00404683,-0.0030916,0.00597927,-0.00500014,-0.299105,0.00634737,0.0494154,902,547,-1.22268,6.25454
-315,477,-1.51318,-6.20551,0,0,0,0,0,0,0,-1,909,547,-1.51318,6.20552
-308,477,-1.30127,-6.55188,0,0,0,0,0,0,0,-1,916,547,-1.30128,6.55185
-301,477,-1.21185,-6.28351,0,0,0,0,0,0,0,-1,923,547,-1.21184,6.28352
-294,477,-0.352905,3.27142,0,0,0,0,0,0,0,-1,930,547,-0.35292,-3.27144
-287,477,3.54364,2.15399,0,0,0,0,0,0,0,-1,937,547,3.54362,-2.15396
-280,477,1.97308,-0.954163,0,0,0,0,0,0,0,-1,944,547,1.9731,0.954178
-273,477,2.11621,-3.76709,0,0,0,0,0,0,0,-1,951,547,2.11619,3.76706
-266,477,2.04669,-3.42389,0,0,0,0,0,0,0,-1,958,547,2.04671,3.42391
-259,477,-1.33478,-3.41205,0,0,0,0,0,0,0,-1,965,547,-1.3348,3.41206
-252,477,0.597168,-5.32922,0,0,0,0,0,0,0,-1,972,547,0.597144,5.32924
-245,477,2.27161,-7.02875,0,0,0,0,0,0,0,-1,979,547,2.27158,7.02873
-238,477,7.29095,-4.50336,0,0,0,0,0,0,0,-1,986,547,7.29093,4.50335
-231,477,4.88141,-2.23413,0,0,0,0,0,0,0,-1,993,547,4.88143,2.23413
-224,477,0,0,0,0,0,0,0,0,0,-1,1000,547,0,0
-217,477,0,0,0,0,0,0,0,0,0,-1,1007,547,0,0
-210,477,0,0,0,0,0,0,0,0,0,-1,1014,547,0,0
-203,477,0,0,0,0,0,0,0,0,0,-1,1021,547,0,0
-196,477,0,0,0,0,0,0,0,0,0,-1,1028,547,0,0
-189,477,0,0,0,0,0,0,0,0,0,-1,1035,547,0,0
-182,477,0,0,0,0,0,0,0,0,0,-1,1042,547,0,0
-175,477,0,0,0,0,0,0,0,0,0,-1,1049,547,0,0
-168,477,0,0,0,0,0,0,0,0,0,-1,1056,547,0,0
-161,477,0,0,0,0,0,0,0,0,0,-1,1063,547,0,0
-154,477,0,0,0,0,0,0,0,0,0,-1,1070,547,0,0
-147,477,0,0,0,0,0,0,0,0,0,-1,1077,547,0,0
-140,477,0,0,0,0,0,0,0,0,0,-1,1084,547,0,0
-133,477,0,0,0,0,0,0,0,0,0,-1,1091,547,0,0
-126,477,0,0,0,0,0,0,0,0,0,-1,1098,547,0,0
-119,477,0,0,0,0,0,0,0,0,0,-1,1105,547,0,0
-112,477,0,0,0,0,0,0,0,0,0,-1,1112,547,0,0
-105,477,0,0,0,0,0,0,0,0,0,-1,1119,547,0,0
-98,477,0,0,0,0,0,0,0,0,0,-1,1126,547,0,0
-91,477,0,0,0,0,0,0,0,0,0,-1,1133,547,0,0
-84,477,0,0,0,0,0,0,0,0,0,-1,1140,547,0,0
-77,477,0,0,0,0,0,0,0,0,0,-1,1147,547,0,0
-70,477,0,0,0,0,0,0,0,0,0,-1,1154,547,0,0
-63,477,0,0,0,0,0,0,0,0,0,-1,1161,547,0,0
-56,477,0,0,0,0,0,0,0,0,0,-1,1168,547,0,0
-49,477,0,0,0,0,0,0,0,0,0,-1,1175,547,0,0
-42,477,0,0,0,0,0,0,0,0,0,-1,1182,547,0,0
-35,477,0,0,0,0,0,0,0,0,0,-1,1189,547,0,0
-28,477,0,0,0,0,0,0,0,0,0,-1,1196,547,0,0
-21,477,0,0,0,0,0,0,0,0,0,-1,1203,547,0,0
-14,477,0,0,0,0,0,0,0,0,0,-1,1210,547,0,0
-7,477,0,0,0,0,0,0,0,0,0,-1,1217,547,0,0
0,477,0,0,0,0,0,0,0,0,0,-1,1224,547,0,0
7,477,0,0,0,0,0,0,0,0,0,-1,1231,547,0,0
14,477,0,0,0,0,0,0,0,0,0,-1,1238,547,0,0
21,477,0,0,0,0,0,0,0,0,0,-1,1245,547,0,0
28,477,0,0,0,0,0,0,0,0,0,-1,1252,547,0,0
35,477,0,0,0,0,0,0,0,0,0,-1,1259,547,0,0
42,477,0,0,0,0,0,0,0,0,0,-1,1266,547,0,0
49,477,0,0,0,0,0,0,0,0,0,-1,1273,547,0,0
56,477,0,0,0,0,0,0,0,0,0,-1,1280,547,0,0
63,477,0,0,0,0,0,0,0,0,0,-1,1287,547,0,0
70,477,0,0,0,0,0,0,0,0,0,-1,1294,547,0,0
77,477,0,0,0,0,0,0,0,0,0,-1,1301,547,0,0
84,477,0,0,0,0,0,0,0,0,0,-1,1308,547,0,0
91,477,0,0,0,0,0,0,0,0,0,-1,1315,547,0,0
98,477,0,0,0,0,0,0,0,0,0,-1,1322,547,0,0
105,477,0,0,0,0,0,0,0,0,0,-1,1329,547,0,0
112,477,0,0,0,0,0,0,0,0,0,-1,1336,547,0,0
119,477,0,0,0,0,0,0,0,0,0,-1,1343,547,0,0
126,477,0,0,0,0,0,0,0,0,0,-1,1350,547,0,0
133,477,0,0,0,0,0,0,0,0,0,-1,1357,547,0,0
140,477,0,0,0,0,0,0,0,0,0,-1,1364,547,0,0
147,477,0,0,0,0,0,0,0,0,0,-1,1371,547,0,0
154,477,0,0,0,0,0,0,0,0,0,-1,1378,547,0,0
161,477,0,0,0,0,0,0,0,0,0,-1,1385,547,0,0
168,477,0,0,0,0,0,0,0,0,0,-1,1392,547,0,0
175,477,0,0,0,0,0,0,0,0,0,-1,1399,547,0,0
182,477,0,0,0,0,0,0,0,0,0,-1,1406,547,0,0
189,477,0,0,0,0,0,0,0,0,0,-1,1413,547,0,0
196,477,0,0,0,0,0,0,0,0,0,-1,1420,547,0,0
203,477,0,0,0,0,0,0,0,0,0,-1,1427,547,0,0
210,477,0,0,0,0,0,0,0,0,0,-1,1434,547,0,0
217,477,0,0,0,0,0,0,0,0,0,-1,1441,547,0,0
224,477,0,0,0,0,0,0,0,0,0,-1,1448,547,0,0
231,477,0,0,0,0,0,0,0,0,0,-1,1455,547,0,0
238,477,0,0,0,0,0,0,0,0,0,-1,1462,547,0,0
245,477,0,0,0,0,0,0,0,0,0,-1,1469,547,0,0
252,477,0,0,0,0,0,0,0,0,0,-1,1476,547,0,0
259,477,0,0,0,0,0,0,0,0,0,-1,1483,547,0,0
266,477,0,0,0,0,0,0,0,0,0,-1,1490,547,0,0
273,477,0,0,0,0,0,0,0,0,0,-1,1497,547,0,0
280,477,0,0,0,0,0,0,0,0,0,-1,1504,547,0,0
287,477,0,0,0,0,0,0,0,0,0,-1,1511,547,0,0
294,477,0,0,0,0,0,0,0,0,0,-1,1518,547,0,0
301,477,0,0,0,0,0,0,0,0,0,-1,1525,547,0,0
308,477,0,0,0,0,0,0,0,0,0,-1,1532,547,0,0
315,477,0,0,0,0,0,0,0,0,0,-1,1539,547,0,0
322,477,0,0,0,0,0,0,0,0,0,-1,1546,547,0,0
329,477,0,0,0,0,0,0,0,0,0,-1,1553,547,0,0
336,477,0,0,0,0,0,0,0,0,0,-1,1560,547,0,0
343,477,0,0,0,0,0,0,0,0,0,-1,1567,547,0,0
350,477,1.7699,-3.32275,0,0,0,0,0,0,0,-1,1574,547,1.7699,3.32272
357,477,3.073,-4.83313,0,0,0,0,0,0,0,-1,1581,547,3.07303,4.83316
364,477,4.30127,-4.22864,0,0,0,0,0,0,0,-1,1588,547,4.30125,4.22865
371,477,4.57703,0.283264,0,0,0,0,0,0,0,-1,1595,547,4.57706,-0.283262
378,477,8.57947,1.05969,0.684237,0.100185,0.287909,0.802297,-0.0178748,0.38915,0.540922,0.0449103,1602,547,8.5795,-1.05972
385,477,12.3726,2.02356,0.633932,0.0947288,0.261988,0.740259,-0.0115987,0.385538,0.497417,0.0435964,1609,547,12.3725,-2.02355
392,477,16.4678,2.76843,0,0,0,0,0,0,0,-1,1616,547,16.4678,-2.76845
399,477,8.00037,-2.29523,0,0,0,0,0,0,0,-1,1623,547,8.00031,2.2952
406,477,4.82495,2.7475,0,0,0,0,0,0,0,-1,1630,547,4.825,-2.74752
413,477,4.88171,-0.336426,0,0,0,0,0,0,0,-1,1637,547,4.88169,0.336398
420,477,3.34875,0.102722,0,0,0,0,0,0,0,-1,1644,547,3.34871,-0.1027
427,477,1.66772,-0.373108,0,0,0,0,0,0,0,-1,1651,547,1.66768,0.373104
434,477,3.76978,-2.30798,0,0,0,0,0,0,0,-1,1658,547,3.76974,2.30801
441,477,4.05444,-2.80402,0,0,0,0,0,0,0,-1,1665,547,4.05444,2.804
448,477,5.59045,-5.0849,0,0,0,0,0,0,0,-1,1672,547,5.59048,5.08493
455,477,5.69507,-4.88989,-0.00239735,0.00379467,-0.00365651,0.00548984,-0.00409251,-1.13669,0.00555194,0.0463139,1679,547,5.69507,4.8899
462,477,5.62341,-4.76031,-0.00152091,0.00368644,-0.0020238,0.00438048,-0.00221494,-1.24043,0.00387568,0.0327362,1686,547,5.62336,4.76034
469,477,5.62634,-4.46759,-0.000530605,0.00301543,-0.000872893,0.00321865,-0.00073383,-1.34205,0.00242764,0.0214121,1693,547,5.62638,4.4676
476,477,5.59863,-4.29767,0.000357417,0.00250015,-0.000308936,0.00254381,0.000313765,-1.43043,0.00160156,0.0169659,1700,547,5.59866,4.29767
483,477,5.599,-4.09741,0.000910844,0.00199587,0.000120645,0.00200913,0.000897591,1.46139,0.00116216,0.0116038,1707,547,5.59903,4.09739
490,477,5.59656,-3.88049,0.00139862,0.00150318,0.000431448,0.0018855,0.0010163,0.845695,0.0010897,0.0115502,1714,547,5.59655,3.88049
497,477,5.59448,-3.66534,0.00155976,0.00100131,0.000490515,0.00184495,0.00071611,0.526646,0.00107403,0.0130846,1721,547,5.59452,3.66537
504,477,5.60876,-3.44824,0.00167136,0.000632308,0.0005337,0.00189665,0.000407023,0.399427,0.00115296,0.0173489,1728,547,5.60882,3.44827
511,477,5.6366,-3.26245,0.00208881,0.000348774,0.000802817,0.00240262,3.49653e-05,0.372624,0.00159022,0.0211247,1735,547,5.63656,3.26245
518,477,5.62329,-3.07251,0.00273165,0.000406532,0.0012626,0.00328539,-0.000147212,0.413313,0.00224094,0.0182454,1742,547,5.62324,3.07249
525,477,5.58716,-2.83746,0.00356309,0.000496688,0.00172141,0.00433508,-0.000275311,0.421581,0.00298606,0.0162559,1749,547,5.5872,2.83748
532,477,5.60864,-2.61932,0.00483286,0.000849056,0.00251868,0.0060521,-0.000370186,0.45083,0.00416362,0.0191877,1756,547,5.60858,2.6193
539,477,5.60779,-2.37927,0.00664866,0.00147954,0.00370401,0.0085807,-0.000452497,0.480783,0.00587711,0.016757,1763,547,5.60775,2.37925
546,477,5.59424,-2.19635,0.00906941,0.00248014,0.00533729,0.012047,-0.000497488,0.508882,0.00820222,0.0186791,1770,547,5.59422,2.19634
553,477,5.55994,-1.97552,0.0120874,0.00373286,0.00735759,0.0163709,-0.00055057,0.527213,0.011102,0.0186393,1777,547,5.5599,1.97555
560,477,5.64502,-1.66962,0.0158271,0.00535197,0.00987475,0.0217673,-0.000588252,0.541564,0.0147115,0.0326047,1784,547,5.64507,1.66962
567,477,6.21899,-1.0957,0.0205795,0.00721532,0.013024,0.0285356,-0.00074074,0.548378,0.0192754,0.0476851,1791,547,6.21904,1.09568
574,477,6.37549,-0.504822,0,0,0,0,0,0,0,-1,1798,547,6.37548,0.504828
581,477,9.29321,-0.557007,0,0,0,0,0,0,0,-1,1805,547,9.29324,0.55703
588,477,9.75195,0.422729,0,0,0,0,0,0,0,-1,1812,547,9.75198,-0.42273
595,477,9.89172,1.21326,0,0,0,0,0,0,0,-1,1819,547,9.89174,-1.21328
602,477,6.5271,-0.964417,0,0,0,0,0,0,0,-1,1826,547,6.52706,0.964427
609,477,0,0,0,0,0,0,0,0,0,-1,1833,547,0,0
616,477,0,0,0,0,0,0,0,0,0,-1,1840,547,0,0
623,477,0,0,0,0,0,0,0,0,0,-1,1847,547,0,0
630,477,0,0,0,0,0,0,0,0,0,-1,1854,547,0,0
637,477,0,0,0,0,0,0,0,0,0,-1,1861,547,0,0
644,477,0,0,0,0,0,0,0,0,0,-1,1868,547,0,0
651,477,0,0,0,0,0,0,0,0,0,-1,1875,547,0,0
658,477,0,0,0,0,0,0,0,0,0,-1,1882,547,0,0
665,477,0,0,0,0,0,0,0,0,0,-1,1889,547,0,0
672,477,0,0,0,0,0,0,0,0,0,-1,1896,547,0,0
679,477,0,0,0,0,0,0,0,0,0,-1,1903,547,0,0
686,477,0,0,0,0,0,0,0,0,0,-1,1910,547,0,0
693,477,0,0,0,0,0,0,0,0,0,-1,1917,547,0,0
700,477,0,0,0,0,0,0,0,0,0,-1,1924,547,0,0
707,477,0,0,0,0,0,0,0,0,0,-1,1931,547,0,0
714,477,0,0,0,0,0,0,0,0,0,-1,1938,547,0,0
721,477,0,0,0,0,0,0,0,0,0,-1,1945,547,0,0
728,477,0,0,0,0,0,0,0,0,0,-1,1952,547,0,0
735,477,0,0,0,0,0,0,0,0,0,-1,1959,547,0,0
742,477,0,0,0,0,0,0,0,0,0,-1,1966,547,0,0
749,477,0,0,0,0,0,0,0,0,0,-1,1973,547,0,0
756,477,0,0,0,0,0,0,0,0,0,-1,1980,547,0,0
763,477,0,0,0,0,0,0,0,0,0,-1,1987,547,0,0
770,477,0,0,0,0,0,0,0,0,0,-1,1994,547,0,0
777,477,0,0,0,0,0,0,0,0,0,-1,2001,547,0,0
784,477,0,0,0,0,0,0,0,0,0,-1,2008,547,0,0
791,477,0,0,0,0,0,0,0,0,0,-1,2015,547,0,0
798,477,0,0,0,0,0,0,0,0,0,-1,2022,547,0,0
805,477,0,0,0,0,0,0,0,0,0,-1,2029,547,0,0
812,477,0,0,0,0,0,0,0,0,0,-1,2036,547,0,0
-700,470,0,0,0,0,0,0,0,0,0,-1,524,554,0,0
-693,470,0,0,0,0,0,0,0,0,0,-1,531,554,0,0
-686,470,0,0,0,0,0,0,0,0,0,-1,538,554,0,0
-679,470,0,0,0,0,0,0,0,0,0,-1,545,554,0,0
-672,470,0,0,0,0,0,0,0,0,0,-1,552,554,0,0
-665,470,0,0,0,0,0,0,0,0,0,-1,559,554,0,0
-658,470,0,0,0,0,0,0,0,0,0,-1,566,554,0,0
-651,470,0,0,0,0,0,0,0,0,0,-1,573,554,0,0
-644,470,0,0,0,0,0,0,0,0,0,-1,580,554,0,0
-637,470,0,0,0,0,0,0,0,0,0,-1,587,554,0,0
-630,470,0,0,0,0,0,0,0,0,0,-1,594,554,0,0
-623,470,0,0,0,0,0,0,0,0,0,-1,601,554,0,0
-616,470,0,0,0,0,0,0,0,0,0,-1,608,554,0,0
-609,470,0,0,0,0,0,0,0,0,0,-1,615,554,0,0
-602,470,0,0,0,0,0,0,0,0,0,-1,622,554,0,0
-595,470,0,0,0,0,0,0,0,0,0,-1,629,554,0,0
-588,470,0,0,0,0,0,0,0,0,0,-1,636,554,0,0
-581,470,0,0,0,0,0,0,0,0,0,-1,643,554,0,0
-574,470,0,0,0,0,0,0,0,0,0,-1,650,554,0,0
-567,470,0,0,0,0,0,0,0,0,0,-1,657,554,0,0
-560,470,0,0,0,0,0,0,0,0,0,-1,664,554,0,0
-553,470,0,0,0,0,0,0,0,0,0,-1,671,554,0,0
-546,470,0,0,0,0,0,0,0,0,0,-1,678,554,0,0
-539,470,0,0,0,0,0,0,0,0,0,-1,685,554,0,0
-532,470,0,0,0,0,0,0,0,0,0,-1,692,554,0,0
-525,470,0,0,0,0,0,0,0,0,0,-1,699,554,0,0
-518,470,0,0,0,0,0,0,0,0,0,-1,706,554,0,0
-511,470,0,0,0,0,0,0,0,0,0,-1,713,554,0,0
-504,470,0,0,0,0,0,0,0,0,0,-1,720,554,0,0
-497,470,0,0,0,0,0,0,0,0,0,-1,727,554,0,0
-490,470,-4.36005,2.89722,0.0246643,0.162115,-0.129074,0.23962,-0.0528404,-1.03003,0.179965,0.0488258,734,554,-4.36007,-2.8972
-483,470,-4.34045,1.8327,0.0306932,0.134609,-0.11239,0.20647,-0.0411675,-1.00192,0.153224,0.0444072,741,554,-4.34045,-1.83271
-476,470,-4.24176,0.641296,0.0354094,0.10922,-0.0969722,0.176072,-0.0314427,-0.967224,0.129145,0.0452124,748,554,-4.24175,-0.641299
-469,470,-4.27612,0.289063,0.0382372,0.0868193,-0.0826119,0.148637,-0.0235808,-0.928387,0.107815,0.0483323,755,554,-4.27612,-0.289039
-462,470,-4.30823,-0.455444,0,0,0,0,0,0,0,-1,762,554,-4.30822,0.455461
-455,470,-5.36963,-3.09192,0,0,0,0,0,0,0,-1,769,554,-5.36963,3.0919
-448,470,-1.41095,-2.75354,0,0,0,0,0,0,0,-1,776,554,-1.41095,2.75357
-441,470,-1.12323,-3.02338,0.0316672,0.0269958,-0.0363905,0.0657969,-0.00713384,-0.75335,0.0464256,0.0490174,783,554,-1.12321,3.0234
-434,470,-1.19012,-3.31818,0.0276369,0.0182955,-0.0276309,0.0509891,-0.00505668,-0.70167,0.0357976,0.0247286,790,554,-1.19013,3.31817
-427,470,-1.27856,-3.49146,0.0230999,0.0114988,-0.0200655,0.0381864,-0.00358776,-0.644693,0.0267339,0.0117762,797,554,-1.27853,3.49148
-420,470,-1.25427,-3.69098,0.0181236,0.00613297,-0.0138919,0.0272587,-0.00300212,-0.581688,0.0192514,0.0120025,804,554,-1.2543,3.691
-413,470,-1.25726,-3.88861,0.013455,0.00323784,-0.00934951,0.0190006,-0.00230772,-0.535359,0.0135022,0.012143,811,554,-1.25727,3.88861
-406,470,-1.30072,-4.08514,0.00932775,0.00204599,-0.00607809,0.012772,-0.00139827,-0.51555,0.00901698,0.00913445,818,554,-1.30071,4.08516
-399,470,-1.276,-4.29425,0.00589698,0.000910954,-0.00343082,0.00764492,-0.000836983,-0.471203,0.00539728,0.0120578,825,554,-1.27602,4.29424
-392,470,-1.28064,-4.48297,0.00347688,-0.000497809,-0.0012149,0.00381881,-0.000839737,-0.27435,0.00286707,0.0133994,832,554,-1.28063,4.48295
-385,470,-1.2691,-4.64929,0.00204161,-0.00196089,0.000139615,0.00204647,-0.00196576,0.0348254,0.00231662,0.0107207,839,554,-1.26911,4.6493
-378,470,-1.24963,-4.85724,0.00103589,-0.0032638,0.00100225,0.00125804,-0.00348594,0.21812,0.00283783,0.0148225,846,554,-1.24961,4.85723
-371,470,-1.26544,-5.03461,0.000722111,-0.00431032,0.00122705,0.00100536,-0.00459357,0.226863,0.00344673,0.0125061,853,554,-1.26544,5.0346
-364,470,-1.31097,-5.20233,0.00114869,-0.00540925,0.00119438,0.00135945,-0.00562001,0.174658,0.00427253,0.0121648,860,554,-1.31096,5.2023
-357,470,-1.31812,-5.38116,0.00175636,-0.00636035,0.00089948,0.00185484,-0.00645883,0.109055,0.00503927,0.0127638,867,554,-1.31813,5.38115
-350,470,-1.2691,-5.58093,0.00232986,-0.00719484,0.0005506,0.00236158,-0.00722657,0.057552,0.00576836,0.00955639,874,554,-1.26912,5.58091
-343,470,-1.19366,-5.79047,0.00285239,-0.00787789,0.000135872,0.00285411,-0.00787961,0.0126597,0.00641954,0.0196446,881,554,-1.19367,5.79048
-336,470,-1.29462,-5.93237,0.00327011,-0.00835211,-0.000474646,0.00328947,-0.00837146,-0.0407491,0.00694229,0.0302783,888,554,-1.29462,5.93239
-329,470,-1.17126,-5.98212,0.00370164,-0.00852704,-0.00128615,0.00383545,-0.00866085,-0.103663,0.00739186,0.0389528,895,554,-1.17127,5.98213
-322,470,-1.23279,-6.27887,0.00417425,-0.00854422,-0.00228759,0.00457319,-0.00894316,-0.172657,0.00793845,0.0469772,902,554,-1.23276,6.27884
-315,470,-1.23785,-6.49792,0,0,0,0,0,0,0,-1,909,554,-1.23786,6.4979
-308,470,-1.39368,-6.68152,0,0,0,0,0,0,0,-1,916,554,-1.39369,6.68149
-301,470,-0.0340576,3.34888,0,0,0,0,0,0,0,-1,923,554,-0.0340496,-3.3489
-294,470,-1.18378,3.22266,0,0,0,0,0,0,0,-1,930,554,-1.18376,-3.22268
-287,470,-2.15454,3.2204,0,0,0,0,0,0,0,-1,937,554,-2.15452,-3.22037
-280,470,-3.00537,3.099,0,0,0,0,0,0,0,-1,944,554,-3.00536,-3.09898
-273,470,1.05981,-2.39728,0,0,0,0,0,0,0,-1,951,554,1.05983,2.39727
-266,470,-3.55084,-1.16742,0,0,0,0,0,0,0,-1,958,554,-3.55086,1.16744
-259,470,-2.06311,-2.73199,0,0,0,0,0,0,0,-1,965,554,-2.0631,2.732
-252,470,-0.369019,-4.24976,0,0,0,0,0,0,0,-1,972,554,-0.36901,4.24977
-245,470,1.01324,-5.88599,0,0,0,0,0,0,0,-1,979,554,1.01325,5.88597
-238,470,0,0,0,0,0,0,0,0,0,-1,986,554,0,0
-231,470,0,0,0,0,0,0,0,0,0,-1,993,554,0,0
-224,470,0,0,0,0,0,0,0,0,0,-1,1000,554,0,0
-217,470,0,0,0,0,0,0,0,0,0,-1,1007,554,0,0
-210,470,0,0,0,0,0,0,0,0,0,-1,1014,554,0,0
-203,470,0,0,0,0,0,0,0,0,0,-1,1021,554,0,0
-196,470,0,0,0,0,0,0,0,0,0,-1,1028,554,0,0
-189,470,0,0,0,0,0,0,0,0,0,-1,1035,554,0,0
-182,470,0,0,0,0,0,0,0,0,0,-1,1042,554,0,0
-175,470,0,0,0,0,0,0,0,0,0,-1,1049,554,0,0
-168,470,0,0,0,0,0,0,0,0,0,-1,1056,554,0,0
-161,470,0,0,0,0,0,0,0,0,0,-1,1063,554,0,0
-154,470,0,0,0,0,0,0,0,0,0,-1,1070,554,0,0
-147,470,0,0,0,0,0,0,0,0,0,-1,1077,554,0,0
-140,470,0,0,0,0,0,0,0,0,0,-1,1084,554,0,0
-133,470,0,0,0,0,0,0,0,0,0,-1,1091,554,0,0
-126,470,0,0,0,0,0,0,0,0,0,-1,1098,554,0,0
-119,470,0,0,0,0,0,0,0,0,0,-1,1105,554,0,0
-112,470,0,0,0,0,0,0,0,0,0,-1,1112,554,0,0
-105,470,0,0,0,0,0,0,0,0,0,-1,1119,554,0,0
-98,470,0,0,0,0,0,0,0,0,0,-1,1126,554,0,0
-91,470,0,0,0,0,0,0,0,0,0,-1,1133,554,0,0
-84,470,0,0,0,0,0,0,0,0,0,-1,1140,554,0,0
-77,470,0,0,0,0,0,0,0,0,0,-1,1147,554,0,0
-70,470,0,0,0,0,0,0,0,0,0,-1,1154,554,0,0
-63,470,0,0,0,0,0,0,0,0,0,-1,1161,554,0,0
-56,470,0,0,0,0,0,0,0,0,0,-1,1168,554,0,0
-49,470,0,0,0,0,0,0,0,0,0,-1,1175,554,0,0
-42,470,0,0,0,0,0,0,0,0,0,-1,1182,554,0,0
-35,470,0,0,0,0,0,0,0,0,0,-1,1189,554,0,0
-28,470,0,0,0,0,0,0,0,0,0,-1,1196,554,0,0
-21,470,0,0,0,0,0,0,0,0,0,-1,1203,554,0,0
-14,470,0,0,0,0,0,0,0,0,0,-1,1210,554,0,0
-7,470,0,0,0,0,0,0,0,0,0,-1,1217,554,0,0
0,470,0,0,0,0,0,0,0,0,0,-1,1224,554,0,0
7,470,0,0,0,0,0,0,0,0,0,-1,1231,554,0,0
14,470,0,0,0,0,0,0,0,0,0,-1,1238,554,0,0
21,470,0,0,0,0,0,0,0,0,0,-1,1245,554,0,0
28,470,0,0,0,0,0,0,0,0,0,-1,1252,554,0,0
35,470,0,0,0,0,0,0,0,0,0,-1,1259,554,0,0
42,470,0,0,0,0,0,0,0,0,0,-1,1266,554,0,0
49,470,0,0,0,0,0,0,0,0,0,-1,1273,554,0,0
56,470,0,0,0,0,0,0,0,0,0,-1,1280,554,0,0
63,470,0,0,0,0,0,0,0,0,0,-1,1287,554,0,0
70,470,0,0,0,0,0,0,0,0,0,-1,1294,554,0,0
77,470,0,0,0,0,0,0,0,0,0,-1,1301,554,0,0
84,470,0,0,0,0,0,0,0,0,0,-1,1308,554,0,0
91,470,0,0,0,0,0,0,0,0,0,-1,1315,554,0,0
98,470,0,0,0,0,0,0,0,0,0,-1,1322,554,0,0
105,470,0,0,0,0,0,0,0,0,0,-1,1329,554,0,0
112,470,0,0,0,0,0,0,0,0,0,-1,1336,554,0,0
119,470,0,0,0,0,0,0,0,0,0,-1,1343,554,0,0
126,470,0,0,0,0,0,0,0,0,0,-1,1350,554,0,0
133,470,0,0,0,0,0,0,0,0,0,-1,1357,554,0,0
140,470,0,0,0,0,0,0,0,0,0,-1,1364,554,0,0
147,470,0,0,0,0,0,0,0,0,0,-1,1371,554,0,0
154,470,0,0,0,0,0,0,0,0,0,-1,1378,554,0,0
161,470,0,0,0,0,0,0,0,0,0,-1,1385,554,0,0
168,470,0,0,0,0,0,0,0,0,0,-1,1392,554,0,0
175,470,0,0,0,0,0,0,0,0,0,-1,1399,554,0,0
182,470,0,0,0,0,0,0,0,0,0,-1,1406,554,0,0
189,470,0,0,0,0,0,0,0,0,0,-1,1413,554,0,0
196,470,0,0,0,0,0,0,0,0,0,-1,1420,554,0,0
203,470,0,0,0,0,0,0,0,0,0,-1,1427,554,0,0
210,470,0,0,0,0,0,0,0,0,0,-1,1434,554,0,0
217,470,0,0,0,0,0,0,0,0,0,-1,1441,554,0,0
224,470,0,0,0,0,0,0,0,0,0,-1,1448,554,0,0
231,470,0,0,0,0,0,0,0,0,0,-1,1455,554,0,0
238,470,0,0,0,0,0,0,0,0,0,-1,1462,554,0,0
245,470,0,0,0,0,0,0,0,0,0,-1,1469,554,0,0
252,470,0,0,0,0,0,0,0,0,0,-1,1476,554,0,0
259,470,0,0,0,0,0,0,0,0,0,-1,1483,554,0,0
266,470,0,0,0,0,0,0,0,0,0,-1,1490,554,0,0
273,470,0,0,0,0,0,0,0,0,0,-1,1497,554,0,0
280,470,0,0,0,0,0,0,0,0,0,-1,1504,554,0,0
287,470,0,0,0,0,0,0,0,0,0,-1,1511,554,0,0
294,470,0,0,0,0,0,0,0,0,0,-1,1518,554,0,0
301,470,0,0,0,0,0,0,0,0,0,-1,1525,554,0,0
308,470,0,0,0,0,0,0,0,0,0,-1,1532,554,0,0
315,470,0,0,0,0,0,0,0,0,0,-1,1539,554,0,0
322,470,0,0,0,0,0,0,0,0,0,-1,1546,554,0,0
329,470,0,0,0,0,0,0,0,0,0,-1,1553,554,0,0
336,470,0,0,0,0,0,0,0,0,0,-1,1560,554,0,0
343,470,0,0,0,0,0,0,0,0,0,-1,1567,554,0,0
350,470,0,0,0,0,0,0,0,0,0,-1,1574,554,0,0
357,470,0,0,0,0,0,0,0,0,0,-1,1581,554,0,0
364,470,1.33423,0.293335,0,0,0,0,0,0,0,-1,1588,554,1.33422,-0.293348
371,470,2.22498,-0.0305176,0,0,0,0,0,0,0,-1,1595,554,2.22494,0.0305046
378,470,6.27051,0.710083,0.791934,0.121935,0.332082,0.928637,-0.0147679,0.390513,0.624072,0.0447981,1602,554,6.27054,-0.710093
385,470,10.3657,1.47296,0.742683,0.119881,0.308018,0.869284,-0.00672051,0.389968,0.581776,0.0462934,1609,554,10.3657,-1.47299
392,470,14.4915,2.24756,0,0,0,0,0,0,0,-1,1616,554,14.4915,-2.24757
399,470,18.4479,2.93793,0,0,0,0,0,0,0,-1,1623,554,18.4479,-2.93792
406,470,15.1896,1.36676,0,0,0,0,0,0,0,-1,1630,554,15.1896,-1.36679
413,470,6.55383,1.99207,0,0,0,0,0,0,0,-1,1637,554,6.5538,-1.99208
420,470,4.47095,0.845703,0,0,0,0,0,0,0,-1,1644,554,4.47098,-0.845718
427,470,3.51038,1.19684,0,0,0,0,0,0,0,-1,1651,554,3.51039,-1.19684
434,470,3.31775,-1.37427,0,0,0,0,0,0,0,-1,1658,554,3.31781,1.37426
441,470,2.55457,-2.05902,0,0,0,0,0,0,0,-1,1665,554,2.55461,2.05904
448,470,3.27258,-2.64032,0,0,0,0,0,0,0,-1,1672,554,3.27257,2.64029
455,470,6.15369,-5.01141,0,0,0,0,0,0,0,-1,1679,554,6.15367,5.01141
462,470,5.91016,-4.82953,0,0,0,0,0,0,0,-1,1686,554,5.91011,4.82955
469,470,5.7345,-4.54944,0,0,0,0,0,0,0,-1,1693,554,5.73448,4.54943
476,470,5.76514,-4.28998,0.000907284,0.0032834,0.000104756,0.00328801,0.000902675,1.52682,0.00196161,0.027845,1700,554,5.76519,4.29
483,470,5.80835,-4.08319,0.00152865,0.0027079,0.00061096,0.00296735,0.0012692,1.16921,0.00171916,0.0136317,1707,554,5.80832,4.08321
490,470,5.80103,-3.86591,0.00203351,0.00217568,0.000933793,0.00304109,0.0011681,0.823389,0.00177143,0.0108887,1714,554,5.80103,3.8659
497,470,5.82275,-3.66064,0.00211259,0.00159104,0.00092698,0.00281477,0.000888851,0.648284,0.00166147,0.011825,1721,554,5.82275,3.66062
504,470,5.85193,-3.49133,0.00200186,0.00110656,0.000833205,0.00250005,0.000608368,0.538893,0.00150546,0.0191183,1728,554,5.85192,3.49131
511,470,5.89478,-3.29852,0.00209888,0.00070511,0.000917233,0.00255393,0.000250054,0.460537,0.00162569,0.0262602,1735,554,5.89476,3.2985
518,470,5.88501,-3.05963,0.00243667,0.000571945,0.00115691,0.00299015,1.84618e-05,0.446232,0.00198731,0.0254985,1742,554,5.88502,3.05962
525,470,5.82532,-2.80957,0.00297695,0.000551505,0.00145096,0.00365525,-0.0001268,0.4373,0.00248018,0.0163789,1749,554,5.82537,2.80959
532,470,5.81323,-2.58521,0.00386447,0.000753819,0.00201874,0.00485754,-0.000239257,0.45717,0.00332099,0.0141359,1756,554,5.81327,2.5852
539,470,5.81812,-2.40265,0.00517268,0.00114783,0.00287813,0.00667216,-0.000351651,0.480299,0.00456984,0.0145287,1763,554,5.81816,2.40267
546,470,5.81799,-2.18951,0.0069542,0.00187966,0.00410146,0.00923976,-0.000405908,0.508397,0.00629951,0.0134265,1770,554,5.81798,2.18952
553,470,5.8197,-1.96393,0.00912326,0.0027305,0.00555294,0.0123341,-0.000480305,0.524249,0.0083874,0.0109202,1777,554,5.8197,1.9639
560,470,5.81628,-1.72937,0.0117616,0.00384823,0.00732412,0.0161295,-0.000519622,0.537743,0.0109303,0.0137254,1784,554,5.81623,1.72937
567,470,5.80981,-1.50092,0.015018,0.00504225,0.00945246,0.0207179,-0.000657618,0.542625,0.0140363,0.0182092,1791,554,5.80986,1.50091
574,470,5.91418,-1.1911,0,0,0,0,0,0,0,-1,1798,554,5.91422,1.1911
581,470,8.24646,-4.06317,0,0,0,0,0,0,0,-1,1805,554,8.24648,4.06318
588,470,8.83704,-2.04022,0,0,0,0,0,0,0,-1,1812,554,8.83707,2.04021
595,470,4.72192,3.44116,0,0,0,0,0,0,0,-1,1819,554,4.72191,-3.44116
602,470,14.4307,2.76141,0,0,0,0,0,0,0,-1,1826,554,14.4306,-2.76139
609,470,16.2076,2.45117,0,0,0,0,0,0,0,-1,1833,554,16.2077,-2.45116
616,470,0,0,0,0,0,0,0,0,0,-1,1840,554,0,0
623,470,0,0,0,0,0,0,0,0,0,-1,1847,554,0,0
630,470,0,0,0,0,0,0,0,0,0,-1,1854,554,0,0
637,470,0,0,0,0,0,0,0,0,0,-1,1861,554,0,0
644,470,0,0,0,0,0,0,0,0,0,-1,1868,554,0,0
651,470,0,0,0,0,0,0,0,0,0,-1,1875,554,0,0
658,470,0,0,0,0,0,0,0,0,0,-1,1882,554,0,0
665,470,0,0,0,0,0,0,0,0,0,-1,1889,554,0,0
672,470,0,0,0,0,0,0,0,0,0,-1,1896,554,0,0
679,470,0,0,0,0,0,0,0,0,0,-1,1903,554,0,0
686,470,0,0,0,0,0,0,0,0,0,-1,1910,554,0,0
693,470,0,0,0,0,0,0,0,0,0,-1,1917,554,0,0
700,470,0,0,0,0,0,0,0,0,0,-1,1924,554,0,0
707,470,0,0,0,0,0,0,0,0,0,-1,1931,554,0,0
714,470,0,0,0,0,0,0,0,0,0,-1,1938,554,0,0
721,470,0,0,0,0,0,0,0,0,0,-1,1945,554,0,0
728,470,0,0,0,0,0,0,0,0,0,-1,1952,554,0,0
735,470,0,0,0,0,0,0,0,0,0,-1,1959,554,0,0
742,470,0,0,0,0,0,0,0,0,0,-1,1966,554,0,0
749,470,0,0,0,0,0,0,0,0,0,-1,1973,554,0,0
756,470,0,0,0,0,0,0,0,0,0,-1,1980,554,0,0
763,470,0,0,0,0,0,0,0,0,0,-1,1987,554,0,0
770,470,0,0,0,0,0,0,0,0,0,-1,1994,554,0,0
777,470,0,0,0,0,0,0,0,0,0,-1,2001,554,0,0
784,470,0,0,0,0,0,0,0,0,0,-1,2008,554,0,0
791,470,0,0,0,0,0,0,0,0,0,-1,2015,554,0,0
798,470,0,0,0,0,0,0,0,0,0,-1,2022,554,0,0
805,470,0,0,0,0,0,0,0,0,0,-1,2029,554,0,0
812,470,0,0,0,0,0,0,0,0,0,-1,2036,554,0,0
-700,463,0,0,0,0,0,0,0,0,0,-1,524,561,0,0
-693,463,0,0,0,0,0,0,0,0,0,-1,531,561,0,0
-686,463,0,0,0,0,0,0,0,0,0,-1,538,561,0,0
-679,463,0,0,0,0,0,0,0,0,0,-1,545,561,0,0
-672,463,0,0,0,0,0,0,0,0,0,-1,552,561,0,0
-665,463,0,0,0,0,0,0,0,0,0,-1,559,561,0,0
-658,463,0,0,0,0,0,0,0,0,0,-1,566,561,0,0
-651,463,0,0,0,0,0,0,0,0,0,-1,573,561,0,0
-644,463,0,0,0,0,0,0,0,0,0,-1,580,561,0,0
-637,463,0,0,0,0,0,0,0,0,0,-1,587,561,0,0
-630,463,0,0,0,0,0,0,0,0,0,-1,594,561,0,0
-623,463,0,0,0,0,0,0,0,0,0,-1,601,561,0,0
-616,463,0,0,0,0,0,0,0,0,0,-1,608,561,0,0
-609,463,0,0,0,0,0,0,0,0,0,-1,615,561,0,0
-602,463,0,0,0,0,0,0,0,0,0,-1,622,561,0,0
-595,463,0,0,0,0,0,0,0,0,0,-1,629,561,0,0
-588,463,0,0,0,0,0,0,0,0,0,-1,636,561,0,0
-581,463,0,0,0,0,0,0,0,0,0,-1,643,561,0,0
-574,463,0,0,0,0,0,0,0,0,0,-1,650,561,0,0
-567,463,0,0,0,0,0,0,0,0,0,-1,657,561,0,0
-560,463,0,0,0,0,0,0,0,0,0,-1,664,561,0,0
-553,463,0,0,0,0,0,0,0,0,0,-1,671,561,0,0
-546,463,0,0,0,0,0,0,0,0,0,-1,678,561,0,0
-539,463,0,0,0,0,0,0,0,0,0,-1,685,561,0,0
-532,463,0,0,0,0,0,0,0,0,0,-1,692,561,0,0
-525,463,0,0,0,0,0,0,0,0,0,-1,699,561,0,0
-518,463,0,0,0,0,0,0,0,0,0,-1,706,561,0,0
-511,463,0,0,0,0,0,0,0,0,0,-1,713,561,0,0
-504,463,0,0,0,0,0,0,0,0,0,-1,720,561,0,0
-497,463,-3.89935,2.79175,0,0,0,0,0,0,0,-1,727,561,-3.89933,-2.79177
-490,463,-3.61798,1.99011,0.024603,0.1428,-0.115239,0.213211,-0.0458079,-1.02233,0.159616,0.0487374,734,561,-3.61801,-1.9901
-483,463,-3.70703,1.14771,0.0283645,0.119174,-0.0996605,0.183285,-0.035747,-0.999146,0.135685,0.0458009,741,561,-3.70705,-1.14769
-476,463,-3.57037,-0.149292,0.0311474,0.0970093,-0.0852034,0.155424,-0.0272674,-0.969805,0.113799,0.0473204,748,561,-3.57037,0.149293
-469,463,-3.07709,-1.4928,0,0,0,0,0,0,0,-1,755,561,-3.07709,1.49279
-462,463,-1.36017,-1.14777,0,0,0,0,0,0,0,-1,762,561,-1.36016,1.14774
-455,463,-1.40381,-2.61658,0,0,0,0,0,0,0,-1,769,561,-1.40379,2.61659
-448,463,-1.44653,-2.83246,0.0282427,0.033057,-0.0383671,0.0690924,-0.0077926,-0.816727,0.0488667,0.045197,776,561,-1.44652,2.83245
-441,463,-1.38245,-3.0943,0.0249223,0.0235514,-0.0298595,0.0541042,-0.00563049,-0.773923,0.0380853,0.0316065,783,561,-1.38244,3.09428
-434,463,-1.45673,-3.28894,0.0215035,0.0157284,-0.022273,0.0410754,-0.00384345,-0.720936,0.0287505,0.0131512,790,561,-1.45672,3.28893
-427,463,-1.46179,-3.48175,0.0177844,0.00956895,-0.0158229,0.0300241,-0.00267077,-0.658399,0.0209631,0.00922427,797,561,-1.46177,3.48177
-420,463,-1.44385,-3.68481,0.0137545,0.00461565,-0.0106423,0.0207669,-0.00239677,-0.582618,0.0147087,0.00970939,804,561,-1.44387,3.68481
-413,463,-1.46082,-3.89398,0.0100292,0.00175567,-0.00685159,0.013896,-0.00211114,-0.513806,0.0100419,0.00865418,811,561,-1.46084,3.89397
-406,463,-1.49731,-4.09723,0.00668946,0.000328834,-0.00407263,0.00867642,-0.00165813,-0.453906,0.00640889,0.00794149,818,561,-1.49733,4.09722
-399,463,-1.47064,-4.27423,0.00387283,-0.00113273,-0.00175998,0.0044297,-0.0016896,-0.306439,0.00364913,0.00935074,825,561,-1.47061,4.27423
-392,463,-1.46155,-4.45953,0.00179459,-0.00286269,0.000263907,0.0018095,-0.00287759,0.0564247,0.00272941,0.00929866,832,561,-1.46156,4.45951
-385,463,-1.47272,-4.66901,0.000472898,-0.00460153,0.00166338,0.000969538,-0.00509817,0.290148,0.00376382,0.0103444,839,561,-1.47271,4.66899
-378,463,-1.45703,-4.87793,-0.000561765,-0.00634208,0.00271937,0.000516454,-0.0074203,0.377481,0.0051277,0.0110211,846,561,-1.45701,4.87794
-371,463,-1.44983,-5.0592,-0.00113681,-0.00791009,0.00329032,0.000198368,-0.00924527,0.385487,0.00623069,0.0102261,853,561,-1.44986,5.05921
-364,463,-1.46014,-5.20972,-0.00120628,-0.00953654,0.00367352,0.000182244,-0.0109251,0.361382,0.00734488,0.0128976,860,561,-1.46012,5.20973
-357,463,-1.48364,-5.38702,-0.00112906,-0.0110371,0.00379383,0.000156754,-0.0123229,0.326772,0.00826799,0.0160798,867,561,-1.48364,5.38705
-350,463,-1.43201,-5.60785,-0.00107776,-0.0124765,0.0038528,0.000102325,-0.0136565,0.297221,0.00913866,0.0169109,874,561,-1.43203,5.60785
-343,463,-1.30603,-5.76385,-0.00106032,-0.0136468,0.00381488,5.66524e-06,-0.0147127,0.272479,0.00981039,0.029296,881,561,-1.30605,5.76384
-336,463,-1.22302,-5.91351,-0.00118994,-0.0144618,0.00354895,-0.000300542,-0.0153512,0.245552,0.0101355,0.0408369,888,561,-1.22303,5.91352
-329,463,-1.03436,-6.15808,0,0,0,0,0,0,0,-1,895,561,-1.03437,6.15806
-322,463,-1.22382,-6.1048,0,0,0,0,0,0,0,-1,902,561,-1.2238,6.1048
-315,463,-0.944763,-5.96234,0,0,0,0,0,0,0,-1,909,561,-0.94479,5.96237
-308,463,-1.1535,-3.17889,0,0,0,0,0,0,0,-1,916,561,-1.15352,3.17889
-301,463,-1.50366,-3.15338,0,0,0,0,0,0,0,-1,923,561,-1.50364,3.15341
-294,463,-2.35889,-3.93463,0,0,0,0,0,0,0,-1,930,561,-2.35886,3.93465
-287,463,-2.80322,2.73999,0,0,0,0,0,0,0,-1,937,561,-2.80322,-2.74
-280,463,-3.29858,2.24219,0,0,0,0,0,0,0,-1,944,561,-3.29859,-2.24221
-273,463,-5.54578,0.486755,0,0,0,0,0,0,0,-1,951,561,-5.54576,-0.486736
-266,463,-3.96259,-0.93335,0,0,0,0,0,0,0,-1,958,561,-3.96258,0.933349
-259,463,-2.54156,-2.28058,0,0,0,0,0,0,0,-1,965,561,-2.54159,2.28059
-252,463,0,0,0,0,0,0,0,0,0,-1,972,561,0,0
-245,463,0,0,0,0,0,0,0,0,0,-1,979,561,0,0
-238,463,0,0,0,0,0,0,0,0,0,-1,986,561,0,0
-231,463,0,0,0,0,0,0,0,0,0,-1,993,561,0,0
-224,463,0,0,0,0,0,0,0,0,0,-1,1000,561,0,0
-217,463,0,0,0,0,0,0,0,0,0,-1,1007,561,0,0
-210,463,0,0,0,0,0,0,0,0,0,-1,1014,561,0,0
-203,463,0,0,0,0,0,0,0,0,0,-1,1021,561,0,0
-196,463,0,0,0,0,0,0,0,0,0,-1,1028,561,0,0
-189,463,0,0,0,0,0,0,0,0,0,-1,1035,561,0,0
-182,463,0,0,0,0,0,0,0,0,0,-1,1042,561,0,0
-175,463,0,0,0,0,0,0,0,0,0,-1,1049,561,0,0
-168,463,0,0,0,0,0,0,0,0,0,-1,1056,561,0,0
-161,463,0,0,0,0,0,0,0,0,0,-1,1063,561,0,0
-154,463,0,0,0,0,0,0,0,0,0,-1,1070,561,0,0
-147,463,0,0,0,0,0,0,0,0,0,-1,1077,561,0,0
-140,463,0,0,0,0,0,0,0,0,0,-1,1084,561,0,0
-133,463,0,0,0,0,0,0,0,0,0,-1,1091,561,0,0
-126,463,0,0,0,0,0,0,0,0,0,-1,1098,561,0,0
-119,463,0,0,0,0,0,0,0,0,0,-1,1105,561,0,0
-112,463,0,0,0,0,0,0,0,0,0,-1,1112,561,0,0
-105,463,0,0,0,0,0,0,0,0,0,-1,1119,561,0,0
-98,463,0,0,0,0,0,0,0,0,0,-1,1126,561,0,0
-91,463,0,0,0,0,0,0,0,0,0,-1,1133,561,0,0
-84,463,0,0,0,0,0,0,0,0,0,-1,1140,561,0,0
-77,463,0,0,0,0,0,0,0,0,0,-1,1147,561,0,0
-70,463,0,0,0,0,0,0,0,0,0,-1,1154,561,0,0
-63,463,0,0,0,0,0,0,0,0,0,-1,1161,561,0,0
-56,463,0,0,0,0,0,0,0,0,0,-1,1168,561,0,0
-49,463,0,0,0,0,0,0,0,0,0,-1,1175,561,0,0
-42,463,0,0,0,0,0,0,0,0,0,-1,1182,561,0,0
-35,463,0,0,0,0,0,0,0,0,0,-1,1189,561,0,0
-28,463,0,0,0,0,0,0,0,0,0,-1,1196,561,0,0
-21,463,0,0,0,0,0,0,0,0,0,-1,1203,561,0,0
-14,463,0,0,0,0,0,0,0,0,0,-1,1210,561,0,0
-7,463,0,0,0,0,0,0,0,0,0,-1,1217,561,0,0
0,463,0,0,0,0,0,0,0,0,0,-1,1224,561,0,0
7,463,0,0,0,0,0,0,0,0,0,-1,1231,561,0,0
14,463,0,0,0,0,0,0,0,0,0,-1,1238,561,0,0
21,463,0,0,0,0,0,0,0,0,0,-1,1245,561,0,0
28,463,0,0,0,0,0,0,0,0,0,-1,1252,561,0,0
35,463,0,0,0,0,0,0,0,0,0,-1,1259,561,0,0
42,463,0,0,0,0,0,0,0,0,0,-1,1266,561,0,0
49,463,0,0,0,0,0,0,0,0,0,-1,1273,561,0,0
56,463,0,0,0,0,0,0,0,0,0,-1,1280,561,0,0
63,463,0,0,0,0,0,0,0,0,0,-1,1287,561,0,0
70,463,0,0,0,0,0,0,0,0,0,-1,1294,561,0,0
77,463,0,0,0,0,0,0,0,0,0,-1,1301,561,0,0
84,463,0,0,0,0,0,0,0,0,0,-1,1308,561,0,0
91,463,0,0,0,0,0,0,0,0,0,-1,1315,561,0,0
98,463,0,0,0,0,0,0,0,0,0,-1,1322,561,0,0
105,463,0,0,0,0,0,0,0,0,0,-1,1329,561,0,0
112,463,0,0,0,0,0,0,0,0,0,-1,1336,561,0,0
119,463,0,0,0,0,0,0,0,0,0,-1,1343,561,0,0
126,463,0,0,0,0,0,0,0,0,0,-1,1350,561,0,0
133,463,0,0,0,0,0,0,0,0,0,-1,1357,561,0,0
140,463,0,0,0,0,0,0,0,0,0,-1,1364,561,0,0
147,463,0,0,0,0,0,0,0,0,0,-1,1371,561,0,0
154,463,0,0,0,0,0,0,0,0,0,-1,1378,561,0,0
161,463,0,0,0,0,0,0,0,0,0,-1,1385,561,0,0
168,463,0,0,0,0,0,0,0,0,0,-1,1392,561,0,0
175,463,0,0,0,0,0,0,0,0,0,-1,1399,561,0,0
182,463,0,0,0,0,0,0,0,0,0,-1,1406,561,0,0
189,463,0,0,0,0,0,0,0,0,0,-1,1413,561,0,0
196,463,0,0,0,0,0,0,0,0,0,-1,1420,561,0,0
203,463,0,0,0,0,0,0,0,0,0,-1,1427,561,0,0
210,463,0,0,0,0,0,0,0,0,0,-1,1434,561,0,0
217,463,0,0,0,0,0,0,0,0,0,-1,1441,561,0,0
224,463,0,0,0,0,0,0,0,0,0,-1,1448,561,0,0
231,463,0,0,0,0,0,0,0,0,0,-1,1455,561,0,0
238,463,0,0,0,0,0,0,0,0,0,-1,1462,561,0,0
245,463,0,0,0,0,0,0,0,0,0,-1,1469,561,0,0
252,463,0,0,0,0,0,0,0,0,0,-1,1476,561,0,0
259,463,0,0,0,0,0,0,0,0,0,-1,1483,561,0,0
266,463,0,0,0,0,0,0,0,0,0,-1,1490,561,0,0
273,463,0,0,0,0,0,0,0,0,0,-1,1497,561,0,0
280,463,0,0,0,0,0,0,0,0,0,-1,1504,561,0,0
287,463,0,0,0,0,0,0,0,0,0,-1,1511,561,0,0
294,463,0,0,0,0,0,0,0,0,0,-1,1518,561,0,0
301,463,0,0,0,0,0,0,0,0,0,-1,1525,561,0,0
308,463,0,0,0,0,0,0,0,0,0,-1,1532,561,0,0
315,463,0,0,0,0,0,0,0,0,0,-1,1539,561,0,0
322,463,0,0,0,0,0,0,0,0,0,-1,1546,561,0,0
329,463,0,0,0,0,0,0,0,0,0,-1,1553,561,0,0
336,463,0,0,0,0,0,0,0,0,0,-1,1560,561,0,0
343,463,0,0,0,0,0,0,0,0,0,-1,1567,561,0,0
350,463,0,0,0,0,0,0,0,0,0,-1,1574,561,0,0
357,463,0,0,0,0,0,0,0,0,0,-1,1581,561,0,0
364,463,0,0,0,0,0,0,0,0,0,-1,1588,561,0,0
371,463,1.75842,0.152588,0,0,0,0,0,0,0,-1,1595,561,1.75844,-0.152558
378,463,4.30493,0.169861,0,0,0,0,0,0,0,-1,1602,561,4.30489,-0.169877
385,463,8.44202,0.988647,0,0,0,0,0,0,0,-1,1609,561,8.44205,-0.988639
392,463,12.6002,1.78589,0,0,0,0,0,0,0,-1,1616,561,12.6002,-1.78588
399,463,14.4622,3.409,0,0,0,0,0,0,0,-1,1623,561,14.4622,-3.409
406,463,7.28088,1.38538,0,0,0,0,0,0,0,-1,1630,561,7.28091,-1.38537
413,463,8.05847,1.82239,0,0,0,0,0,0,0,-1,1637,561,8.05851,-1.82241
420,463,8.849,2.26611,0,0,0,0,0,0,0,-1,1644,561,8.84899,-2.26613
427,463,5.12207,1.69183,0,0,0,0,0,0,0,-1,1651,561,5.12206,-1.69184
434,463,4.59814,1.81995,0,0,0,0,0,0,0,-1,1658,561,4.59812,-1.81994
441,463,1.76392,-5.99225,0,0,0,0,0,0,0,-1,1665,561,1.7639,5.99225
448,463,2.49939,-4.30536,0,0,0,0,0,0,0,-1,1672,561,2.49941,4.30536
455,463,4.40295,-3.02557,0,0,0,0,0,0,0,-1,1679,561,4.40299,3.02558
462,463,5.38293,-4.06445,0,0,0,0,0,0,0,-1,1686,561,5.38289,4.06444
469,463,5.94373,-4.50647,0,0,0,0,0,0,0,-1,1693,561,5.94368,4.50646
476,463,5.88342,-4.48328,0,0,0,0,0,0,0,-1,1700,561,5.88337,4.48328
483,463,5.92773,-4.2467,0.00238591,0.00339081,0.0012591,0.00424401,0.00153271,0.975244,0.00248158,0.0340412,1707,561,5.92776,4.2467
490,463,6.02014,-3.89178,0.0029036,0.00285134,0.00159781,0.00447549,0.00127944,0.777222,0.00266174,0.0171853,1714,561,6.02013,3.8918
497,463,6.01599,-3.65033,0.00290523,0.00219464,0.0015321,0.00412269,0.000977178,0.671461,0.00248756,0.0118402,1721,561,6.01605,3.65035
504,463,6.03638,-3.46832,0.00256386,0.00160914,0.00130769,0.0034786,0.000694402,0.610394,0.00212575,0.0160899,1728,561,6.03639,3.46833
511,463,6.03662,-3.2627,0.00232609,0.00110882,0.00120391,0.00306646,0.000368447,0.551361,0.00193323,0.0230273,1735,561,6.03662,3.26272
518,463,6.04785,-2.98627,0.00236049,0.00079533,0.00122476,0.00303135,0.000124475,0.501109,0.00198071,0.0241528,1742,561,6.04784,2.98629
525,463,6.03992,-2.80731,0.00263571,0.000701768,0.00138085,0.0033545,-1.70184e-05,0.479944,0.00224202,0.0189223,1749,561,6.03997,2.80733
532,463,6.04114,-2.61084,0.00317997,0.000787953,0.00174049,0.00409577,-0.000127844,0.484366,0.00277411,0.0160098,1756,561,6.04116,2.61082
539,463,6.04346,-2.38751,0.00404403,0.000987013,0.00230326,0.00527982,-0.000248776,0.49245,0.00360567,0.0154881,1763,561,6.04349,2.38754
546,463,6.03857,-2.17639,0.00529757,0.00149711,0.00316057,0.00708517,-0.000290486,0.514737,0.00482319,0.0122571,1770,561,6.03862,2.17637
553,463,6.03125,-1.95178,0.00681629,0.00201186,0.00413481,0.00919605,-0.000367895,0.522242,0.00625694,0.0103759,1777,561,6.0312,1.95177
560,463,6.02661,-1.69684,0.0086311,0.00272009,0.00530539,0.0117487,-0.000397475,0.531268,0.00796824,0.0112622,1784,561,6.02655,1.69685
567,463,5.97827,-1.49438,0.0108297,0.00340473,0.00665639,0.0147389,-0.000504472,0.531018,0.00999832,0.0157668,1791,561,5.97826,1.49439
574,463,5.99146,-1.44043,0.0131075,0.00415617,0.00801634,0.017813,-0.000549306,0.530795,0.0120626,0.0419836,1798,561,5.99145,1.44043
581,463,6.19763,-1.34296,0,0,0,0,0,0,0,-1,1805,561,6.19763,1.34295
588,463,1.97424,2.16016,0,0,0,0,0,0,0,-1,1812,561,1.97422,-2.16013
595,463,9.98657,2.99854,0,0,0,0,0,0,0,-1,1819,561,9.98662,-2.99856
602,463,12.1405,2.82471,0,0,0,0,0,0,0,-1,1826,561,12.1405,-2.82468
609,463,15.4412,2.81427,0,0,0,0,0,0,0,-1,1833,561,15.4411,-2.81429
616,463,16.8923,2.79462,0,0,0,0,0,0,0,-1,1840,561,16.8923,-2.79464
623,463,0,0,0,0,0,0,0,0,0,-1,1847,561,0,0
630,463,0,0,0,0,0,0,0,0,0,-1,1854,561,0,0
637,463,0,0,0,0,0,0,0,0,0,-1,1861,561,0,0
644,463,0,0,0,0,0,0,0,0,0,-1,1868,561,0,0
651,463,0,0,0,0,0,0,0,0,0,-1,1875,561,0,0
658,463,0,0,0,0,0,0,0,0,0,-1,1882,561,0,0
665,463,0,0,0,0,0,0,0,0,0,-1,1889,561,0,0
672,463,0,0,0,0,0,0,0,0,0,-1,1896,561,0,0
679,463,0,0,0,0,0,0,0,0,0,-1,1903,561,0,0
686,463,0,0,0,0,0,0,0,0,0,-1,1910,561,0,0
693,463,0,0,0,0,0,0,0,0,0,-1,1917,561,0,0
700,463,0,0,0,0,0,0,0,0,0,-1,1924,561,0,0
707,463,0,0,0,0,0,0,0,0,0,-1,1931,561,0,0
714,463,0,0,0,0,0,0,0,0,0,-1,1938,561,0,0
721,463,0,0,0,0,0,0,0,0,0,-1,1945,561,0,0
728,463,0,0,0,0,0,0,0,0,0,-1,1952,561,0,0
735,463,0,0,0,0,0,0,0,0,0,-1,1959,561,0,0
742,463,0,0,0,0,0,0,0,0,0,-1,1966,561,0,0
749,463,0,0,0,0,0,0,0,0,0,-1,1973,561,0,0
756,463,0,0,0,0,0,0,0,0,0,-1,1980,561,0,0
763,463,0,0,0,0,0,0,0,0,0,-1,1987,561,0,0
770,463,0,0,0,0,0,0,0,0,0,-1,1994,561,0,0
777,463,0,0,0,0,0,0,0,0,0,-1,2001,561,0,0
784,463,0,0,0,0,0,0,0,0,0,-1,2008,561,0,0
791,463,0,0,0,0,0,0,0,0,0,-1,2015,561,0,0
798,463,0,0,0,0,0,0,0,0,0,-1,2022,561,0,0
805,463,0,0,0,0,0,0,0,0,0,-1,2029,561,0,0
812,463,0,0,0,0,0,0,0,0,0,-1,2036,561,0,0
-700,456,0,0,0,0,0,0,0,0,0,-1,524,568,0,0
-693,456,0,0,0,0,0,0,0,0,0,-1,531,568,0,0
-686,456,0,0,0,0,0,0,0,0,0,-1,538,568,0,0
-679,456,0,0,0,0,0,0,0,0,0,-1,545,568,0,0
-672,456,0,0,0,0,0,0,0,0,0,-1,552,568,0,0
-665,456,0,0,0,0,0,0,0,0,0,-1,559,568,0,0
-658,456,0,0,0,0,0,0,0,0,0,-1,566,568,0,0
-651,456,0,0,0,0,0,0,0,0,0,-1,573,568,0,0
-644,456,0,0,0,0,0,0,0,0,0,-1,580,568,0,0
-637,456,0,0,0,0,0,0,0,0,0,-1,587,568,0,0
-630,456,0,0,0,0,0,0,0,0,0,-1,594,568,0,0
-623,456,0,0,0,0,0,0,0,0,0,-1,601,568,0,0
-616,456,0,0,0,0,0,0,0,0,0,-1,608,568,0,0
-609,456,0,0,0,0,0,0,0,0,0,-1,615,568,0,0
-602,456,0,0,0,0,0,0,0,0,0,-1,622,568,0,0
-595,456,0,0,0,0,0,0,0,0,0,-1,629,568,0,0
-588,456,0,0,0,0,0,0,0,0,0,-1,636,568,0,0
-581,456,0,0,0,0,0,0,0,0,0,-1,643,568,0,0
-574,456,0,0,0,0,0,0,0,0,0,-1,650,568,0,0
-567,456,0,0,0,0,0,0,0,0,0,-1,657,568,0,0
-560,456,0,0,0,0,0,0,0,0,0,-1,664,568,0,0
-553,456,0,0,0,0,0,0,0,0,0,-1,671,568,0,0
-546,456,0,0,0,0,0,0,0,0,0,-1,678,568,0,0
-539,456,0,0,0,0,0,0,0,0,0,-1,685,568,0,0
-532,456,0,0,0,0,0,0,0,0,0,-1,692,568,0,0
-525,456,0,0,0,0,0,0,0,0,0,-1,699,568,0,0
-518,456,0,0,0,0,0,0,0,0,0,-1,706,568,0,0
-511,456,0,0,0,0,0,0,0,0,0,-1,713,568,0,0
-504,456,-1.43451,-1.86499,0,0,0,0,0,0,0,-1,720,568,-1.43452,1.86499
-497,456,-3.49609,2.13831,0,0,0,0,0,0,0,-1,727,568,-3.49611,-2.13831
-490,456,-3.24377,1.26471,0.0235081,0.120576,-0.0988742,0.182186,-0.0381018,-1.01355,0.135949,0.0495485,734,568,-3.24377,-1.2647
-483,456,-3.01416,0.376221,0.0258976,0.101423,-0.0854164,0.157052,-0.0297312,-0.993532,0.11589,0.0480068,741,568,-3.01418,-0.376224
-476,456,-2.79028,-0.512268,0,0,0,0,0,0,0,-1,748,568,-2.79029,0.512242
-469,456,-2.81238,-3.51501,0,0,0,0,0,0,0,-1,755,568,-2.81237,3.51501
-462,456,-2.12482,-2.64148,0,0,0,0,0,0,0,-1,762,568,-2.1248,2.64149
-455,456,-1.66821,-2.51563,0,0,0,0,0,0,0,-1,769,568,-1.66821,2.51563
-448,456,-1.61285,-2.81085,0.022145,0.0280077,-0.0310494,0.0562638,-0.00611109,-0.832463,0.0397033,0.0341221,776,568,-1.61284,2.81083
-441,456,-1.62421,-3.09308,0.0191778,0.0198563,-0.0238482,0.0433677,-0.00433361,-0.792511,0.0304593,0.0153357,783,568,-1.6242,3.09307
-434,456,-1.66797,-3.28961,0.0162166,0.0130816,-0.0174396,0.032159,-0.00286078,-0.740578,0.0224538,0.00949735,790,568,-1.66795,3.28958
-427,456,-1.65863,-3.47852,0.0131045,0.00770842,-0.0120592,0.0227638,-0.00195086,-0.675344,0.0158662,0.00869988,797,568,-1.65862,3.4785
-420,456,-1.64716,-3.68396,0.00974561,0.0032443,-0.00775561,0.0149042,-0.00191434,-0.586951,0.0106319,0.00924956,804,568,-1.64718,3.68395
-413,456,-1.66864,-3.89221,0.00667896,0.000427536,-0.0045674,0.0090878,-0.0019813,-0.485325,0.00681564,0.00829563,811,568,-1.66861,3.89222
-406,456,-1.69165,-4.08026,0.00388574,-0.0013,-0.0021429,0.00465665,-0.0020709,-0.345333,0.00397864,0.0081379,818,568,-1.69167,4.08026
-399,456,-1.66797,-4.25647,0.00150048,-0.00315954,-3.86396e-05,0.0015008,-0.00315986,-0.00829098,0.00274707,0.00955973,825,568,-1.66794,4.25648
-392,456,-1.6521,-4.44574,-0.000439479,-0.00534878,0.00189742,0.000208372,-0.00599663,0.329027,0.00406899,0.00891888,832,568,-1.65207,4.44576
-385,456,-1.65942,-4.65369,-0.001862,-0.00750584,0.00344665,-0.00022941,-0.00913842,0.442365,0.00601727,0.00926679,839,568,-1.65941,4.65367
-378,456,-1.66565,-4.88177,-0.00314832,-0.00985797,0.00481844,-0.00063184,-0.0123744,0.481297,0.00804729,0.0102886,846,568,-1.66564,4.88177
-371,456,-1.65643,-5.07043,-0.0042197,-0.0121018,0.00584128,-0.00111431,-0.0152072,0.488629,0.00978788,0.0103571,853,568,-1.65643,5.07043
-364,456,-1.63898,-5.22058,-0.00504331,-0.0143938,0.00672188,-0.00153067,-0.0179065,0.481538,0.0114615,0.013723,860,568,-1.63896,5.22057
-357,456,-1.61151,-5.3916,-0.00584536,-0.016512,0.00732478,-0.00211796,-0.0202394,0.470723,0.0128453,0.0161982,867,568,-1.61153,5.39161
-350,456,-1.47498,-5.53162,-0.00677718,-0.018464,0.00772983,-0.0029306,-0.0223106,0.461747,0.0139995,0.0296338,874,568,-1.475,5.53163
-343,456,-1.41986,-5.65448,-0.00779702,-0.0198786,0.00792795,-0.00387068,-0.0238049,0.459842,0.01475,0.0398377,881,568,-1.41985,5.65448
-336,456,-1.14374,-5.99017,-0.00905087,-0.0206176,0.00780291,-0.00512173,-0.0245468,0.466481,0.0149526,0.0487976,888,568,-1.14375,5.99018
-329,456,-0.993408,-6.23468,0,0,0,0,0,0,0,-1,895,568,-0.993433,6.2347
-322,456,-1.53802,-4.8894,0,0,0,0,0,0,0,-1,902,568,-1.53801,4.8894
-315,456,-0.675476,-3.38397,0,0,0,0,0,0,0,-1,909,568,-0.675473,3.38399
-308,456,-1.1618,-3.15314,0,0,0,0,0,0,0,-1,916,568,-1.16178,3.15314
-301,456,-1.83551,-3.26447,0,0,0,0,0,0,0,-1,923,568,-1.8355,3.26449
-294,456,-2.93414,-3.35449,0,0,0,0,0,0,0,-1,930,568,-2.93413,3.35451
-287,456,-3.7569,-3.53101,0,0,0,0,0,0,0,-1,937,568,-3.75692,3.53101
-280,456,-3.58478,1.37744,0,0,0,0,0,0,0,-1,944,568,-3.58476,-1.37746
-273,456,-5.48199,0.679199,0,0,0,0,0,0,0,-1,951,568,-5.482,-0.679176
-266,456,-3.95667,-0.68927,0,0,0,0,0,0,0,-1,958,568,-3.95667,0.689273
-259,456,0,0,0,0,0,0,0,0,0,-1,965,568,0,0
-252,456,0,0,0,0,0,0,0,0,0,-1,972,568,0,0
-245,456,0,0,0,0,0,0,0,0,0,-1,979,568,0,0
-238,456,0,0,0,0,0,0,0,0,0,-1,986,568,0,0
-231,456,0,0,0,0,0,0,0,0,0,-1,993,568,0,0
-224,456,0,0,0,0,0,0,0,0,0,-1,1000,568,0,0
-217,456,0,0,0,0,0,0,0,0,0,-1,1007,568,0,0
-210,456,0,0,0,0,0,0,0,0,0,-1,1014,568,0,0
-203,456,0,0,0,0,0,0,0,0,0,-1,1021,568,0,0
-196,456,0,0,0,0,0,0,0,0,0,-1,1028,568,0,0
-189,456,0,0,0,0,0,0,0,0,0,-1,1035,568,0,0
-182,456,0,0,0,0,0,0,0,0,0,-1,1042,568,0,0
-175,456,0,0,0,0,0,0,0,0,0,-1,1049,568,0,0
-168,456,0,0,0,0,0,0,0,0,0,-1,1056,568,0,0
-161,456,0,0,0,0,0,0,0,0,0,-1,1063,568,0,0
-154,456,0,0,0,0,0,0,0,0,0,-1,1070,568,0,0
-147,456,0,0,0,0,0,0,0,0,0,-1,1077,568,0,0
-140,456,0,0,0,0,0,0,0,0,0,-1,1084,568,0,0
-133,456,0,0,0,0,0,0,0,0,0,-1,1091,568,0,0
-126,456,0,0,0,0,0,0,0,0,0,-1,1098,568,0,0
-119,456,0,0,0,0,0,0,0,0,0,-1,1105,568,0,0
-112,456,0,0,0,0,0,0,0,0,0,-1,1112,568,0,0
-105,456,0,0,0,0,0,0,0,0,0,-1,1119,568,0,0
-98,456,0,0,0,0,0,0,0,0,0,-1,1126,568,0,0
-91,456,0,0,0,0,0,0,0,0,0,-1,1133,568,0,0
-84,456,0,0,0,0,0,0,0,0,0,-1,1140,568,0,0
-77,456,0,0,0,0,0,0,0,0,0,-1,1147,568,0,0
-70,456,0,0,0,0,0,0,0,0,0,-1,1154,568,0,0
-63,456,0,0,0,0,0,0,0,0,0,-1,1161,568,0,0
-56,456,0,0,0,0,0,0,0,0,0,-1,1168,568,0,0
-49,456,0,0,0,0,0,0,0,0,0,-1,1175,568,0,0
-42,456,0,0,0,0,0,0,0,0,0,-1,1182,568,0,0
-35,456,0,0,0,0,0,0,0,0,0,-1,1189,568,0,0
-28,456,0,0,0,0,0,0,0,0,0,-1,1196,568,0,0
-21,456,0,0,0,0,0,0,0,0,0,-1,1203,568,0,0
-14,456,0,0,0,0,0,0,0,0,0,-1,1210,568,0,0
-7,456,0,0,0,0,0,0,0,0,0,-1,1217,568,0,0
0,456,0,0,0,0,0,0,0,0,0,-1,1224,568,0,0
7,456,0,0,0,0,0,0,0,0,0,-1,1231,568,0,0
14,456,0,0,0,0,0,0,0,0,0,-1,1238,568,0,0
21,456,0,0,0,0,0,0,0,0,0,-1,1245,568,0,0
28,456,0,0,0,0,0,0,0,0,0,-1,1252,568,0,0
35,456,0,0,0,0,0,0,0,0,0,-1,1259,568,0,0
42,456,0,0,0,0,0,0,0,0,0,-1,1266,568,0,0
49,456,0,0,0,0,0,0,0,0,0,-1,1273,568,0,0
56,456,0,0,0,0,0,0,0,0,0,-1,1280,568,0,0
63,456,0,0,0,0,0,0,0,0,0,-1,1287,568,0,0
70,456,0,0,0,0,0,0,0,0,0,-1,1294,568,0,0
77,456,0,0,0,0,0,0,0,0,0,-1,1301,568,0,0
84,456,0,0,0,0,0,0,0,0,0,-1,1308,568,0,0
91,456,0,0,0,0,0,0,0,0,0,-1,1315,568,0,0
98,456,0,0,0,0,0,0,0,0,0,-1,1322,568,0,0
105,456,0,0,0,0,0,0,0,0,0,-1,1329,568,0,0
112,456,0,0,0,0,0,0,0,0,0,-1,1336,568,0,0
119,456,0,0,0,0,0,0,0,0,0,-1,1343,568,0,0
126,456,0,0,0,0,0,0,0,0,0,-1,1350,568,0,0
133,456,0,0,0,0,0,0,0,0,0,-1,1357,568,0,0
140,456,0,0,0,0,0,0,0,0,0,-1,1364,568,0,0
147,456,0,0,0,0,0,0,0,0,0,-1,1371,568,0,0
154,456,0,0,0,0,0,0,0,0,0,-1,1378,568,0,0
161,456,0,0,0,0,0,0,0,0,0,-1,1385,568,0,0
168,456,0,0,0,0,0,0,0,0,0,-1,1392,568,0,0
175,456,0,0,0,0,0,0,0,0,0,-1,1399,568,0,0
182,456,0,0,0,0,0,0,0,0,0,-1,1406,568,0,0
189,456,0,0,0,0,0,0,0,0,0,-1,1413,568,0,0
196,456,0,0,0,0,0,0,0,0,0,-1,1420,568,0,0
203,456,0,0,0,0,0,0,0,0,0,-1,1427,568,0,0
210,456,0,0,0,0,0,0,0,0,0,-1,1434,568,0,0
217,456,0,0,0,0,0,0,0,0,0,-1,1441,568,0,0
224,456,0,0,0,0,0,0,0,0,0,-1,1448,568,0,0
231,456,0,0,0,0,0,0,0,0,0,-1,1455,568,0,0
238,456,0,0,0,0,0,0,0,0,0,-1,1462,568,0,0
245,456,0,0,0,0,0,0,0,0,0,-1,1469,568,0,0
252,456,0,0,0,0,0,0,0,0,0,-1,1476,568,0,0
259,456,0,0,0,0,0,0,0,0,0,-1,1483,568,0,0
266,456,0,0,0,0,0,0,0,0,0,-1,1490,568,0,0
273,456,0,0,0,0,0,0,0,0,0,-1,1497,568,0,0
280,456,0,0,0,0,0,0,0,0,0,-1,1504,568,0,0
287,456,0,0,0,0,0,0,0,0,0,-1,1511,568,0,0
294,456,0,0,0,0,0,0,0,0,0,-1,1518,568,0,0
301,456,0,0,0,0,0,0,0,0,0,-1,1525,568,0,0
308,456,0,0,0,0,0,0,0,0,0,-1,1532,568,0,0
315,456,0,0,0,0,0,0,0,0,0,-1,1539,568,0,0
322,456,0,0,0,0,0,0,0,0,0,-1,1546,568,0,0
329,456,0,0,0,0,0,0,0,0,0,-1,1553,568,0,0
336,456,0,0,0,0,0,0,0,0,0,-1,1560,568,0,0
343,456,0,0,0,0,0,0,0,0,0,-1,1567,568,0,0
350,456,0,0,0,0,0,0,0,0,0,-1,1574,568,0,0
357,456,0,0,0,0,0,0,0,0,0,-1,1581,568,0,0
364,456,0,0,0,0,0,0,0,0,0,-1,1588,568,0,0
371,456,0,0,0,0,0,0,0,0,0,-1,1595,568,0,0
378,456,0,0,0,0,0,0,0,0,0,-1,1602,568,0,0
385,456,5.66284,0.660645,0,0,0,0,0,0,0,-1,1609,568,5.66285,-0.660615
392,456,11.1426,3.43079,0,0,0,0,0,0,0,-1,1616,568,11.1425,-3.43079
399,456,13.5647,3.49213,0,0,0,0,0,0,0,-1,1623,568,13.5647,-3.49213
406,456,15.9868,3.55347,0,0,0,0,0,0,0,-1,1630,568,15.9868,-3.55348
413,456,9.55115,1.49933,0,0,0,0,0,0,0,-1,1637,568,9.55119,-1.49933
420,456,6.33875,1.88824,0,0,0,0,0,0,0,-1,1644,568,6.33876,-1.88827
427,456,6.21375,2.02905,0,0,0,0,0,0,0,-1,1651,568,6.21372,-2.02904
434,456,3.0719,-4.86285,0,0,0,0,0,0,0,-1,1658,568,3.07184,4.86287
441,456,2.90344,-4.70459,0,0,0,0,0,0,0,-1,1665,568,2.90346,4.7046
448,456,3.06995,-4.93689,0,0,0,0,0,0,0,-1,1672,568,3.06991,4.93687
455,456,3.46582,-3.43701,0,0,0,0,0,0,0,-1,1679,568,3.46585,3.43698
462,456,4.68445,-4.45831,0,0,0,0,0,0,0,-1,1686,568,4.68439,4.45833
469,456,4.93201,-2.289,0,0,0,0,0,0,0,-1,1693,568,4.93197,2.28903
476,456,4.8363,-2.79364,0,0,0,0,0,0,0,-1,1700,568,4.83636,2.79363
483,456,5.94861,-4.6037,0,0,0,0,0,0,0,-1,1707,568,5.9486,4.60371
490,456,6.28516,-4.10266,0,0,0,0,0,0,0,-1,1714,568,6.28519,4.10268
497,456,6.25037,-3.73151,0.00396872,0.00274547,0.00218576,0.00562682,0.00108737,0.648977,0.00344642,0.0309831,1721,568,6.25034,3.73148
504,456,6.21887,-3.45349,0.00334362,0.00205444,0.00180999,0.00462037,0.00077769,0.614336,0.00285653,0.0110364,1728,568,6.21887,3.45351
511,456,6.22192,-3.22156,0.0027364,0.00145882,0.00150073,0.00372864,0.000466582,0.584187,0.00234575,0.013549,1735,568,6.2219,3.22156
518,456,6.24463,-3.00238,0.00245141,0.000967291,0.0012984,0.00320484,0.000213858,0.525791,0.00206896,0.0154753,1742,568,6.24466,3.00236
525,456,6.26672,-2.81573,0.00246733,0.00082529,0.00133685,0.00321515,7.74723e-05,0.510021,0.00211808,0.0151895,1749,568,6.26672,2.81572
532,456,6.25842,-2.591,0.00269673,0.000819603,0.00151577,0.00354099,-2.46548e-05,0.508189,0.00236892,0.0151527,1756,568,6.25845,2.59103
539,456,6.25403,-2.34991,0.00317571,0.000865758,0.00182902,0.0041839,-0.000142435,0.503779,0.00283794,0.0182487,1763,568,6.25403,2.3499
546,456,6.24646,-2.15717,0.00398994,0.00119962,0.00238821,0.00536065,-0.000171086,0.521043,0.00363214,0.0205066,1770,568,6.24649,2.15717
553,456,6.23083,-1.93518,0.00499812,0.00146633,0.00300654,0.00671901,-0.000254557,0.519865,0.00456656,0.0134147,1777,568,6.23089,1.93519
560,456,6.23145,-1.7099,0.00619372,0.00187722,0.00375133,0.00836335,-0.000292404,0.524357,0.00567554,0.00934504,1784,568,6.23149,1.70993
567,456,6.23914,-1.48395,0.00763765,0.00224662,0.00460462,0.0102777,-0.000393434,0.520593,0.00698665,0.0120272,1791,568,6.2391,1.48394
574,456,6.22241,-1.3996,0.00914515,0.00259366,0.00542888,0.01221,-0.000471195,0.513943,0.00830153,0.032264,1798,568,6.22247,1.39957
581,456,6.26758,-1.27979,0,0,0,0,0,0,0,-1,1805,568,6.26759,1.27976
588,456,5.23901,-0.0901489,0,0,0,0,0,0,0,-1,1812,568,5.23906,0.0901656
595,456,6.90063,3.14886,0,0,0,0,0,0,0,-1,1819,568,6.90066,-3.14887
602,456,9.85046,2.88794,0,0,0,0,0,0,0,-1,1826,568,9.85047,-2.88796
609,456,13.1351,2.96027,0,0,0,0,0,0,0,-1,1833,568,13.1351,-2.96027
616,456,16.0509,2.8313,0,0,0,0,0,0,0,-1,1840,568,16.0509,-2.8313
623,456,11.7659,2.72815,0,0,0,0,0,0,0,-1,1847,568,11.7658,-2.72815
630,456,0,0,0,0,0,0,0,0,0,-1,1854,568,0,0
637,456,0,0,0,0,0,0,0,0,0,-1,1861,568,0,0
644,456,0,0,0,0,0,0,0,0,0,-1,1868,568,0,0
651,456,0,0,0,0,0,0,0,0,0,-1,1875,568,0,0
658,456,0,0,0,0,0,0,0,0,0,-1,1882,568,0,0
665,456,0,0,0,0,0,0,0,0,0,-1,1889,568,0,0
672,456,0,0,0,0,0,0,0,0,0,-1,1896,568,0,0
679,456,0,0,0,0,0,0,0,0,0,-1,1903,568,0,0
686,456,0,0,0,0,0,0,0,0,0,-1,1910,568,0,0
693,456,0,0,0,0,0,0,0,0,0,-1,1917,568,0,0
700,456,0,0,0,0,0,0,0,0,0,-1,1924,568,0,0
707,456,0,0,0,0,0,0,0,0,0,-1,1931,568,0,0
714,456,0,0,0,0,0,0,0,0,0,-1,1938,568,0,0
721,456,0,0,0,0,0,0,0,0,0,-1,1945,568,0,0
728,456,0,0,0,0,0,0,0,0,0,-1,1952,568,0,0
735,456,0,0,0,0,0,0,0,0,0,-1,1959,568,0,0
742,456,0,0,0,0,0,0,0,0,0,-1,1966,568,0,0
749,456,0,0,0,0,0,0,0,0,0,-1,1973,568,0,0
756,456,0,0,0,0,0,0,0,0,0,-1,1980,568,0,0
763,456,0,0,0,0,0,0,0,0,0,-1,1987,568,0,0
770,456,0,0,0,0,0,0,0,0,0,-1,1994,568,0,0
777,456,0,0,0,0,0,0,0,0,0,-1,2001,568,0,0
784,456,0,0,0,0,0,0,0,0,0,-1,2008,568,0,0
791,456,0,0,0,0,0,0,0,0,0,-1,2015,568,0,0
798,456,0,0,0,0,0,0,0,0,0,-1,2022,568,0,0
805,456,0,0,0,0,0,0,0,0,0,-1,2029,568,0,0
812,456,0,0,0,0,0,0,0,0,0,-1,2036,568,0,0
-700,449,0,0,0,0,0,0,0,0,0,-1,524,575,0,0
-693,449,0,0,0,0,0,0,0,0,0,-1,531,575,0,0
-686,449,0,0,0,0,0,0,0,0,0,-1,538,575,0,0
-679,449,0,0,0,0,0,0,0,0,0,-1,545,575,0,0
-672,449,0,0,0,0,0,0,0,0,0,-1,552,575,0,0
-665,449,0,0,0,0,0,0,0,0,0,-1,559,575,0,0
-658,449,0,0,0,0,0,0,0,0,0,-1,566,575,0,0
-651,449,0,0,0,0,0,0,0,0,0,-1,573,575,0,0
-644,449,0,0,0,0,0,0,0,0,0,-1,580,575,0,0
-637,449,0,0,0,0,0,0,0,0,0,-1,587,575,0,0
-630,449,0,0,0,0,0,0,0,0,0,-1,594,575,0,0
-623,449,0,0,0,0,0,0,0,0,0,-1,601,575,0,0
-616,449,0,0,0,0,0,0,0,0,0,-1,608,575,0,0
-609,449,0,0,0,0,0,0,0,0,0,-1,615,575,0,0
-602,449,0,0,0,0,0,0,0,0,0,-1,622,575,0,0
-595,449,0,0,0,0,0,0,0,0,0,-1,629,575,0,0
-588,449,0,0,0,0,0,0,0,0,0,-1,636,575,0,0
-581,449,0,0,0,0,0,0,0,0,0,-1,643,575,0,0
-574,449,0,0,0,0,0,0,0,0,0,-1,650,575,0,0
-567,449,0,0,0,0,0,0,0,0,0,-1,657,575,0,0
-560,449,0,0,0,0,0,0,0,0,0,-1,664,575,0,0
-553,449,0,0,0,0,0,0,0,0,0,-1,671,575,0,0
-546,449,0,0,0,0,0,0,0,0,0,-1,678,575,0,0
-539,449,0,0,0,0,0,0,0,0,0,-1,685,575,0,0
-532,449,0,0,0,0,0,0,0,0,0,-1,692,575,0,0
-525,449,0,0,0,0,0,0,0,0,0,-1,699,575,0,0
-518,449,0,0,0,0,0,0,0,0,0,-1,706,575,0,0
-511,449,-0.941345,-4.4519,0,0,0,0,0,0,0,-1,713,575,-0.941356,4.45191
-504,449,-0.813354,-1.30457,0,0,0,0,0,0,0,-1,720,575,-0.813353,1.30454
-497,449,-1.06378,-0.79657,0,0,0,0,0,0,0,-1,727,575,-1.06381,0.796591
-490,449,-3.24335,0.601135,0,0,0,0,0,0,0,-1,734,575,-3.24333,-0.601148
-483,449,-2.80957,-0.204163,0,0,0,0,0,0,0,-1,741,575,-2.80955,0.204142
-476,449,-2.15967,-1.25562,0,0,0,0,0,0,0,-1,748,575,-2.15967,1.2556
-469,449,-2.43646,-2.45367,0,0,0,0,0,0,0,-1,755,575,-2.43647,2.45367
-462,449,-2.21454,-2.68829,0.0208546,0.0429713,-0.0397248,0.0731481,-0.0093223,-0.921148,0.0521513,0.0490557,762,575,-2.21455,2.68828
-455,449,-1.99493,-2.74933,0.018588,0.0323884,-0.0312003,0.0574424,-0.00646603,-0.894225,0.0406222,0.044533,769,575,-1.99496,2.74935
-448,449,-1.84454,-2.8783,0.0160228,0.023714,-0.0238898,0.0440657,-0.00432896,-0.8652,0.0309213,0.0225541,776,575,-1.84456,2.87827
-441,449,-1.8443,-3.11749,0.0133748,0.01694,-0.0178959,0.0331419,-0.00282708,-0.835039,0.0230947,0.0130851,783,575,-1.84432,3.11751
-434,449,-1.86194,-3.29749,0.0108456,0.0112242,-0.0125511,0.0235874,-0.0015176,-0.792939,0.0162544,0.0115408,790,575,-1.86195,3.29749
-427,449,-1.85669,-3.47534,0.00835202,0.00660772,-0.00811873,0.0156453,-0.000685577,-0.731891,0.0106661,0.0114592,797,575,-1.85666,3.47532
-420,449,-1.84393,-3.67316,0.00568015,0.00254029,-0.00453043,0.00890495,-0.000684515,-0.618608,0.00617746,0.0111672,804,575,-1.84394,3.67316
-413,449,-1.86877,-3.88416,0.00329152,-0.000363838,-0.0017931,0.00402423,-0.00109655,-0.387924,0.00311339,0.00954267,811,575,-1.86877,3.88415
-406,449,-1.89813,-4.07764,0.00107687,-0.00256454,0.000396605,0.00111956,-0.00260724,0.10724,0.00220807,0.00869455,818,575,-1.89814,4.07764
-399,449,-1.88092,-4.26349,-0.000848545,-0.00502181,0.0023792,0.000229411,-0.00609977,0.425408,0.0041451,0.00803644,825,575,-1.8809,4.26348
-392,449,-1.86176,-4.45105,-0.00262134,-0.00788641,0.00433557,-0.000181658,-0.0103261,0.512552,0.00682431,0.00870295,832,575,-1.86176,4.45104
-385,449,-1.85272,-4.64325,-0.00412234,-0.010723,0.00610982,-0.000478452,-0.0143668,0.537768,0.00942246,0.0098527,839,575,-1.85274,4.64323
-378,449,-1.8606,-4.84869,-0.00563333,-0.0139728,0.00785856,-0.000906796,-0.0186994,0.541485,0.0121752,0.00927001,846,575,-1.86058,4.84867
-371,449,-1.85907,-5.05096,-0.00721193,-0.0171551,0.00940899,-0.00154181,-0.0228252,0.542349,0.0147298,0.00958984,853,575,-1.85908,5.05095
-364,449,-1.80603,-5.20801,-0.00873209,-0.0203398,0.0108354,-0.00224405,-0.0268278,0.539523,0.0171861,0.0185595,860,575,-1.80605,5.208
-357,449,-1.61487,-5.30139,-0.0102738,-0.0232222,0.0119609,-0.00314733,-0.0303486,0.537336,0.0192692,0.0307452,867,575,-1.61485,5.30141
-350,449,-1.44836,-5.28931,-0.0119673,-0.025654,0.0127318,-0.00435627,-0.0332651,0.538799,0.0208767,0.047824,874,575,-1.44837,5.2893
-343,449,-1.24329,-5.47003,0,0,0,0,0,0,0,-1,881,575,-1.24327,5.47002
-336,449,-1.02875,-6.03204,0,0,0,0,0,0,0,-1,888,575,-1.02876,6.03205
-329,449,-1.21906,-3.34039,0,0,0,0,0,0,0,-1,895,575,-1.21906,3.34039
-322,449,-0.628845,-3.16669,0,0,0,0,0,0,0,-1,902,575,-0.628861,3.16667
-315,449,-0.540344,-3.21918,0,0,0,0,0,0,0,-1,909,575,-0.540336,3.21917
-308,449,-1.04413,-2.99341,0,0,0,0,0,0,0,-1,916,575,-1.04415,2.99338
-301,449,-1.58691,-2.80725,0,0,0,0,0,0,0,-1,923,575,-1.58692,2.80728
-294,449,-3.71118,-2.76086,0,0,0,0,0,0,0,-1,930,575,-3.71119,2.76087
-287,449,-4.4082,-2.69525,0,0,0,0,0,0,0,-1,937,575,-4.40822,2.69526
-280,449,-5.09955,-2.96295,0,0,0,0,0,0,0,-1,944,575,-5.09953,2.96297
-273,449,0,0,0,0,0,0,0,0,0,-1,951,575,0,0
-266,449,0,0,0,0,0,0,0,0,0,-1,958,575,0,0
-259,449,0,0,0,0,0,0,0,0,0,-1,965,575,0,0
-252,449,0,0,0,0,0,0,0,0,0,-1,972,575,0,0
-245,449,0,0,0,0,0,0,0,0,0,-1,979,575,0,0
-238,449,0,0,0,0,0,0,0,0,0,-1,986,575,0,0
-231,449,0,0,0,0,0,0,0,0,0,-1,993,575,0,0
-224,449,0,0,0,0,0,0,0,0,0,-1,1000,575,0,0
-217,449,0,0,0,0,0,0,0,0,0,-1,1007,575,0,0
-210,449,0,0,0,0,0,0,0,0,0,-1,1014,575,0,0
-203,449,0,0,0,0,0,0,0,0,0,-1,1021,575,0,0
-196,449,0,0,0,0,0,0,0,0,0,-1,1028,575,0,0
-189,449,0,0,0,0,0,0,0,0,0,-1,1035,575,0,0
-182,449,0,0,0,0,0,0,0,0,0,-1,1042,575,0,0
-175,449,0,0,0,0,0,0,0,0,0,-1,1049,575,0,0
-168,449,0,0,0,0,0,0,0,0,0,-1,1056,575,0,0
-161,449,0,0,0,0,0,0,0,0,0,-1,1063,575,0,0
-154,449,0,0,0,0,0,0,0,0,0,-1,1070,575,0,0
-147,449,0,0,0,0,0,0,0,0,0,-1,1077,575,0,0
-140,449,0,0,0,0,0,0,0,0,0,-1,1084,575,0,0
-133,449,0,0,0,0,0,0,0,0,0,-1,1091,575,0,0
-126,449,0,0,0,0,0,0,0,0,0,-1,1098,575,0,0
-119,449,0,0,0,0,0,0,0,0,0,-1,1105,575,0,0
-112,449,0,0,0,0,0,0,0,0,0,-1,1112,575,0,0
-105,449,0,0,0,0,0,0,0,0,0,-1,1119,575,0,0
-98,449,0,0,0,0,0,0,0,0,0,-1,1126,575,0,0
-91,449,0,0,0,0,0,0,0,0,0,-1,1133,575,0,0
-84,449,0,0,0,0,0,0,0,0,0,-1,1140,575,0,0
-77,449,0,0,0,0,0,0,0,0,0,-1,1147,575,0,0
-70,449,0,0,0,0,0,0,0,0,0,-1,1154,575,0,0
-63,449,0,0,0,0,0,0,0,0,0,-1,1161,575,0,0
-56,449,0,0,0,0,0,0,0,0,0,-1,1168,575,0,0
-49,449,0,0,0,0,0,0,0,0,0,-1,1175,575,0,0
-42,449,0,0,0,0,0,0,0,0,0,-1,1182,575,0,0
-35,449,0,0,0,0,0,0,0,0,0,-1,1189,575,0,0
-28,449,0,0,0,0,0,0,0,0,0,-1,1196,575,0,0
-21,449,0,0,0,0,0,0,0,0,0,-1,1203,575,0,0
-14,449,0,0,0,0,0,0,0,0,0,-1,1210,575,0,0
-7,449,0,0,0,0,0,0,0,0,0,-1,1217,575,0,0
0,449,0,0,0,0,0,0,0,0,0,-1,1224,575,0,0
7,449,0,0,0,0,0,0,0,0,0,-1,1231,575,0,0
14,449,0,0,0,0,0,0,0,0,0,-1,1238,575,0,0
21,449,0,0,0,0,0,0,0,0,0,-1,1245,575,0,0
28,449,0,0,0,0,0,0,0,0,0,-1,1252,575,0,0
35,449,0,0,0,0,0,0,0,0,0,-1,1259,575,0,0
42,449,0,0,0,0,0,0,0,0,0,-1,1266,575,0,0
49,449,0,0,0,0,0,0,0,0,0,-1,1273,575,0,0
56,449,0,0,0,0,0,0,0,0,0,-1,1280,575,0,0
63,449,0,0,0,0,0,0,0,0,0,-1,1287,575,0,0
70,449,0,0,0,0,0,0,0,0,0,-1,1294,575,0,0
77,449,0,0,0,0,0,0,0,0,0,-1,1301,575,0,0
84,449,0,0,0,0,0,0,0,0,0,-1,1308,575,0,0
91,449,0,0,0,0,0,0,0,0,0,-1,1315,575,0,0
98,449,0,0,0,0,0,0,0,0,0,-1,1322,575,0,0
105,449,0,0,0,0,0,0,0,0,0,-1,1329,575,0,0
112,449,0,0,0,0,0,0,0,0,0,-1,1336,575,0,0
119,449,0,0,0,0,0,0,0,0,0,-1,1343,575,0,0
126,449,0,0,0,0,0,0,0,0,0,-1,1350,575,0,0
133,449,0,0,0,0,0,0,0,0,0,-1,1357,575,0,0
140,449,0,0,0,0,0,0,0,0,0,-1,1364,575,0,0
147,449,0,0,0,0,0,0,0,0,0,-1,1371,575,0,0
154,449,0,0,0,0,0,0,0,0,0,-1,1378,575,0,0
161,449,0,0,0,0,0,0,0,0,0,-1,1385,575,0,0
168,449,0,0,0,0,0,0,0,0,0,-1,1392,575,0,0
175,449,0,0,0,0,0,0,0,0,0,-1,1399,575,0,0
182,449,0,0,0,0,0,0,0,0,0,-1,1406,575,0,0
189,449,0,0,0,0,0,0,0,0,0,-1,1413,575,0,0
196,449,0,0,0,0,0,0,0,0,0,-1,1420,575,0,0
203,449,0,0,0,0,0,0,0,0,0,-1,1427,575,0,0
210,449,0,0,0,0,0,0,0,0,0,-1,1434,575,0,0
217,449,0,0,0,0,0,0,0,0,0,-1,1441,575,0,0
224,449,0,0,0,0,0,0,0,0,0,-1,1448,575,0,0
231,449,0,0,0,0,0,0,0,0,0,-1,1455,575,0,0
238,449,0,0,0,0,0,0,0,0,0,-1,1462,575,0,0
245,449,0,0,0,0,0,0,0,0,0,-1,1469,575,0,0
252,449,0,0,0,0,0,0,0,0,0,-1,1476,575,0,0
259,449,0,0,0,0,0,0,0,0,0,-1,1483,575,0,0
266,449,0,0,0,0,0,0,0,0,0,-1,1490,575,0,0
273,449,0,0,0,0,0,0,0,0,0,-1,1497,575,0,0
280,449,0,0,0,0,0,0,0,0,0,-1,1504,575,0,0
287,449,0,0,0,0,0,0,0,0,0,-1,1511,575,0,0
294,449,0,0,0,0,0,0,0,0,0,-1,1518,575,0,0
301,449,0,0,0,0,0,0,0,0,0,-1,1525,575,0,0
308,449,0,0,0,0,0,0,0,0,0,-1,1532,575,0,0
315,449,0,0,0,0,0,0,0,0,0,-1,1539,575,0,0
322,449,0,0,0,0,0,0,0,0,0,-1,1546,575,0,0
329,449,0,0,0,0,0,0,0,0,0,-1,1553,575,0,0
336,449,0,0,0,0,0,0,0,0,0,-1,1560,575,0,0
343,449,0,0,0,0,0,0,0,0,0,-1,1567,575,0,0
350,449,0,0,0,0,0,0,0,0,0,-1,1574,575,0,0
357,449,0,0,0,0,0,0,0,0,0,-1,1581,575,0,0
364,449,0,0,0,0,0,0,0,0,0,-1,1588,575,0,0
371,449,0,0,0,0,0,0,0,0,0,-1,1595,575,0,0
378,449,0,0,0,0,0,0,0,0,0,-1,1602,575,0,0
385,449,0,0,0,0,0,0,0,0,0,-1,1609,575,0,0
392,449,7.95471,3.66217,0,0,0,0,0,0,0,-1,1616,575,7.95471,-3.66218
399,449,12.6671,3.57526,0,0,0,0,0,0,0,-1,1623,575,12.6672,-3.57527
406,449,13.342,2.82446,0,0,0,0,0,0,0,-1,1630,575,13.342,-2.82445
413,449,13.4187,1.65594,0,0,0,0,0,0,0,-1,1637,575,13.4187,-1.65591
420,449,4.70264,2.21893,0,0,0,0,0,0,0,-1,1644,575,4.70263,-2.21894
427,449,8.96924,-4.53351,0,0,0,0,0,0,0,-1,1651,575,8.96925,4.53353
434,449,4.12927,-7.06952,0,0,0,0,0,0,0,-1,1658,575,4.12932,7.06952
441,449,3.89856,-6.06458,0,0,0,0,0,0,0,-1,1665,575,3.89855,6.06459
448,449,4.03198,-5.18207,0,0,0,0,0,0,0,-1,1672,575,4.03197,5.18207
455,449,4.21948,-4.09467,0,0,0,0,0,0,0,-1,1679,575,4.21952,4.09465
462,449,4.23181,-2.96924,0,0,0,0,0,0,0,-1,1686,575,4.23185,2.96926
469,449,4.51672,-2.95135,0,0,0,0,0,0,0,-1,1693,575,4.51672,2.95135
476,449,4.71838,-1.86688,0,0,0,0,0,0,0,-1,1700,575,4.71842,1.86689
483,449,4.87878,-1.73126,0,0,0,0,0,0,0,-1,1707,575,4.87875,1.73128
490,449,5.73279,-2.74573,0,0,0,0,0,0,0,-1,1714,575,5.73282,2.74575
497,449,6.44165,-3.89948,0,0,0,0,0,0,0,-1,1721,575,6.44169,3.89948
504,449,6.39429,-3.47687,0.00432161,0.00247179,0.00233375,0.00590705,0.000886353,0.596733,0.00367835,0.0325729,1728,575,6.3943,3.47687
511,449,6.45227,-3.25171,0.00328274,0.00174897,0.00178956,0.00446281,0.000568897,0.582968,0.00280487,0.0112132,1735,575,6.45229,3.25169
518,449,6.47705,-3.03033,0.00264691,0.00106035,0.0013586,0.00342687,0.000280385,0.521152,0.00219709,0.013504,1742,575,6.477,3.03034
525,449,6.46167,-2.81635,0.00240473,0.000873946,0.0012938,0.00314259,0.000136094,0.518294,0.0020512,0.0127618,1749,575,6.46165,2.81635
532,449,6.43274,-2.59155,0.00235426,0.000785363,0.00131854,0.00310405,3.55686e-05,0.517054,0.00205761,0.0108592,1756,575,6.43278,2.59155
539,449,6.41101,-2.37665,0.00251436,0.000713231,0.00143187,0.00330533,-7.77373e-05,0.504684,0.00222992,0.0135933,1763,575,6.411,2.37666
546,449,6.41919,-2.16492,0.00298049,0.000909036,0.00175695,0.00398428,-9.47494e-05,0.519066,0.00268833,0.0228112,1770,575,6.41921,2.1649
553,449,6.41785,-1.94177,0.00361067,0.00100883,0.00211797,0.00479534,-0.000175848,0.50999,0.00325709,0.0161327,1777,575,6.41787,1.94179
560,449,6.43713,-1.72296,0.00436268,0.00122502,0.00256403,0.00579976,-0.000212057,0.510851,0.0039391,0.0127734,1784,575,6.43708,1.72295
567,449,6.4447,-1.51019,0.00529601,0.00141954,0.00308421,0.00700046,-0.000284905,0.504864,0.00476478,0.0094066,1791,575,6.44467,1.51019
574,449,6.46423,-1.28101,0.00636539,0.00156452,0.00361985,0.00830839,-0.000378472,0.492622,0.00566929,0.017404,1798,575,6.46421,1.28103
581,449,6.44434,-1.05609,0.00742182,0.00168716,0.0042117,0.00964959,-0.000540609,0.486536,0.00662063,0.0391184,1805,575,6.4443,1.05608
588,449,6.49719,-0.909973,0,0,0,0,0,0,0,-1,1812,575,6.49721,0.909985
595,449,6.79968,-0.355225,0,0,0,0,0,0,0,-1,1819,575,6.79967,0.355198
602,449,8.14661,-0.394287,0,0,0,0,0,0,0,-1,1826,575,8.14662,0.394303
609,449,10.9318,3.04095,0,0,0,0,0,0,0,-1,1833,575,10.9318,-3.04097
616,449,8.89563,1.21643,0,0,0,0,0,0,0,-1,1840,575,8.89568,-1.21645
623,449,9.83789,-0.0820313,0,0,0,0,0,0,0,-1,1847,575,9.83794,0.0820443
630,449,8.90686,4.99329,0,0,0,0,0,0,0,-1,1854,575,8.90685,-4.99327
637,449,0,0,0,0,0,0,0,0,0,-1,1861,575,0,0
644,449,0,0,0,0,0,0,0,0,0,-1,1868,575,0,0
651,449,0,0,0,0,0,0,0,0,0,-1,1875,575,0,0
658,449,0,0,0,0,0,0,0,0,0,-1,1882,575,0,0
665,449,0,0,0,0,0,0,0,0,0,-1,1889,575,0,0
672,449,0,0,0,0,0,0,0,0,0,-1,1896,575,0,0
679,449,0,0,0,0,0,0,0,0,0,-1,1903,575,0,0
686,449,0,0,0,0,0,0,0,0,0,-1,1910,575,0,0
693,449,0,0,0,0,0,0,0,0,0,-1,1917,575,0,0
700,449,0,0,0,0,0,0,0,0,0,-1,1924,575,0,0
707,449,0,0,0,0,0,0,0,0,0,-1,1931,575,0,0
714,449,0,0,0,0,0,0,0,0,0,-1,1938,575,0,0
721,449,0,0,0,0,0,0,0,0,0,-1,1945,575,0,0
728,449,0,0,0,0,0,0,0,0,0,-1,1952,575,0,0
735,449,0,0,0,0,0,0,0,0,0,-1,1959,575,0,0
742,449,0,0,0,0,0,0,0,0,0,-1,1966,575,0,0
749,449,0,0,0,0,0,0,0,0,0,-1,1973,575,0,0
756,449,0,0,0,0,0,0,0,0,0,-1,1980,575,0,0
763,449,0,0,0,0,0,0,0,0,0,-1,1987,575,0,0
770,449,0,0,0,0,0,0,0,0,0,-1,1994,575,0,0
777,449,0,0,0,0,0,0,0,0,0,-1,2001,575,0,0
784,449,0,0,0,0,0,0,0,0,0,-1,2008,575,0,0
791,449,0,0,0,0,0,0,0,0,0,-1,2015,575,0,0
798,449,0,0,0,0,0,0,0,0,0,-1,2022,575,0,0
805,449,0,0,0,0,0,0,0,0,0,-1,2029,575,0,0
812,449,0,0,0,0,0,0,0,0,0,-1,2036,575,0,0
-700,442,0,0,0,0,0,0,0,0,0,-1,524,582,0,0
-693,442,0,0,0,0,0,0,0,0,0,-1,531,582,0,0
-686,442,0,0,0,0,0,0,0,0,0,-1,538,582,0,0
-679,442,0,0,0,0,0,0,0,0,0,-1,545,582,0,0
-672,442,0,0,0,0,0,0,0,0,0,-1,552,582,0,0
-665,442,0,0,0,0,0,0,0,0,0,-1,559,582,0,0
-658,442,0,0,0,0,0,0,0,0,0,-1,566,582,0,0
-651,442,0,0,0,0,0,0,0,0,0,-1,573,582,0,0
-644,442,0,0,0,0,0,0,0,0,0,-1,580,582,0,0
-637,442,0,0,0,0,0,0,0,0,0,-1,587,582,0,0
-630,442,0,0,0,0,0,0,0,0,0,-1,594,582,0,0
-623,442,0,0,0,0,0,0,0,0,0,-1,601,582,0,0
-616,442,0,0,0,0,0,0,0,0,0,-1,608,582,0,0
-609,442,0,0,0,0,0,0,0,0,0,-1,615,582,0,0
-602,442,0,0,0,0,0,0,0,0,0,-1,622,582,0,0
-595,442,0,0,0,0,0,0,0,0,0,-1,629,582,0,0
-588,442,0,0,0,0,0,0,0,0,0,-1,636,582,0,0
-581,442,0,0,0,0,0,0,0,0,0,-1,643,582,0,0
-574,442,0,0,0,0,0,0,0,0,0,-1,650,582,0,0
-567,442,0,0,0,0,0,0,0,0,0,-1,657,582,0,0
-560,442,0,0,0,0,0,0,0,0,0,-1,664,582,0,0
-553,442,0,0,0,0,0,0,0,0,0,-1,671,582,0,0
-546,442,0,0,0,0,0,0,0,0,0,-1,678,582,0,0
-539,442,0,0,0,0,0,0,0,0,0,-1,685,582,0,0
-532,442,0,0,0,0,0,0,0,0,0,-1,692,582,0,0
-525,442,0,0,0,0,0,0,0,0,0,-1,699,582,0,0
-518,442,-3.98541,-5.81055,0,0,0,0,0,0,0,-1,706,582,-3.98541,5.81057
-511,442,-2.64435,-5.87549,0,0,0,0,0,0,0,-1,713,582,-2.64437,5.87549
-504,442,-2.36841,-6.06586,0,0,0,0,0,0,0,-1,720,582,-2.36838,6.06589
-497,442,-4.27875,-4.42181,0,0,0,0,0,0,0,-1,727,582,-4.27876,4.42182
-490,442,-3.33893,-0.272705,0,0,0,0,0,0,0,-1,734,582,-3.33895,0.272695
-483,442,-2.92401,-0.862793,0,0,0,0,0,0,0,-1,741,582,-2.92402,0.862785
-476,442,-2.52551,-1.31866,0.0195112,0.0550291,-0.047741,0.0882072,-0.0136669,-0.96346,0.0638499,0.0456405,748,582,-2.52553,1.31868
-469,442,-2.32007,-1.88147,0.0181092,0.0441439,-0.0389506,0.0721948,-0.00994172,-0.946664,0.051763,0.0464392,755,582,-2.32009,1.88146
-462,442,-2.05164,-2.49426,0.0161851,0.0343477,-0.0309294,0.0575014,-0.00696864,-0.928192,0.0408557,0.0346469,762,582,-2.05163,2.49425
-455,442,-2.07581,-2.74274,0.0139067,0.0259083,-0.0238959,0.0445453,-0.00473038,-0.908416,0.0313927,0.0237453,769,582,-2.07579,2.74273
-448,442,-2.03784,-2.90588,0.0115649,0.0189812,-0.0179552,0.0336072,-0.00306108,-0.887228,0.0234917,0.0134092,776,582,-2.03784,2.90591
-441,442,-2.04572,-3.09692,0.00925178,0.0135385,-0.0131137,0.0246829,-0.00189262,-0.866403,0.017121,0.0126645,783,582,-2.04574,3.09691
-434,442,-2.05566,-3.28607,0.00705113,0.00887783,-0.0087553,0.0167673,-0.000838333,-0.83737,0.0114679,0.0119585,790,582,-2.05566,3.2861
-427,442,-2.06775,-3.49255,0.00497778,0.00503181,-0.00515784,0.0101627,-0.000153113,-0.788017,0.00682674,0.011355,797,582,-2.06774,3.49253
-420,442,-2.05121,-3.70166,0.00266664,0.00136163,-0.00210053,0.00421368,-0.000185413,-0.634805,0.00287292,0.0114312,804,582,-2.0512,3.70168
-413,442,-2.05084,-3.88898,0.000560376,-0.0016161,0.000402993,0.000632597,-0.00168832,0.177329,0.00138542,0.0101151,811,582,-2.05086,3.88896
-406,442,-2.06567,-4.07465,-0.00150437,-0.00429772,0.00257967,3.24494e-05,-0.00583454,0.537284,0.00390055,0.00885942,818,582,-2.06569,4.07463
-399,442,-2.06152,-4.276,-0.00333935,-0.00736252,0.00465833,-0.000276832,-0.010425,0.581579,0.00685961,0.00756835,825,582,-2.06154,4.27598
-392,442,-2.06311,-4.46539,-0.00530477,-0.0109544,0.00683011,-0.000738362,-0.0155208,0.589319,0.0101101,0.0091552,832,582,-2.06313,4.46536
-385,442,-2.05261,-4.65131,-0.00723101,-0.0145431,0.00900283,-0.00117018,-0.0206039,0.592522,0.013363,0.0114964,839,582,-2.05264,4.65128
-378,442,-2.05334,-4.84851,-0.00935554,-0.0187904,0.0113233,-0.00180632,-0.0263396,0.588025,0.0169897,0.0120445,846,582,-2.05332,4.8485
-371,442,-2.05859,-5.06049,-0.0116957,-0.0230033,0.0135209,-0.00269412,-0.0320049,0.587368,0.0204976,0.0216757,853,582,-2.05858,5.06049
-364,442,-1.95044,-5.2348,-0.0140888,-0.027166,0.0155758,-0.00373477,-0.03752,0.586673,0.023866,0.0376947,860,582,-1.95045,5.23481
-357,442,-1.82086,-5.42816,0,0,0,0,0,0,0,-1,867,582,-1.82088,5.42815
-350,442,-1.41217,-5.12109,0,0,0,0,0,0,0,-1,874,582,-1.41215,5.12108
-343,442,-1.15009,-3.37183,0,0,0,0,0,0,0,-1,881,582,-1.15006,3.3718
-336,442,-1.4054,-2.64313,0,0,0,0,0,0,0,-1,888,582,-1.40539,2.64315
-329,442,-0.952576,-2.76923,0,0,0,0,0,0,0,-1,895,582,-0.952571,2.7692
-322,442,-0.972534,-2.63208,0,0,0,0,0,0,0,-1,902,582,-0.972512,2.6321
-315,442,-0.445557,-2.89764,0,0,0,0,0,0,0,-1,909,582,-0.445582,2.89765
-308,442,-0.654175,-3.07831,0,0,0,0,0,0,0,-1,916,582,-0.654145,3.07832
-301,442,-1.37427,-2.41455,0,0,0,0,0,0,0,-1,923,582,-1.37425,2.41453
-294,442,-1.67377,-2.23328,0,0,0,0,0,0,0,-1,930,582,-1.67378,2.23326
-287,442,-5.00836,-2.38507,0,0,0,0,0,0,0,-1,937,582,-5.00839,2.38506
-280,442,0,0,0,0,0,0,0,0,0,-1,944,582,0,0
-273,442,0,0,0,0,0,0,0,0,0,-1,951,582,0,0
-266,442,0,0,0,0,0,0,0,0,0,-1,958,582,0,0
-259,442,0,0,0,0,0,0,0,0,0,-1,965,582,0,0
-252,442,0,0,0,0,0,0,0,0,0,-1,972,582,0,0
-245,442,0,0,0,0,0,0,0,0,0,-1,979,582,0,0
-238,442,0,0,0,0,0,0,0,0,0,-1,986,582,0,0
-231,442,0,0,0,0,0,0,0,0,0,-1,993,582,0,0
-224,442,0,0,0,0,0,0,0,0,0,-1,1000,582,0,0
-217,442,0,0,0,0,0,0,0,0,0,-1,1007,582,0,0
-210,442,0,0,0,0,0,0,0,0,0,-1,1014,582,0,0
-203,442,0,0,0,0,0,0,0,0,0,-1,1021,582,0,0
-196,442,0,0,0,0,0,0,0,0,0,-1,1028,582,0,0
-189,442,0,0,0,0,0,0,0,0,0,-1,1035,582,0,0
-182,442,0,0,0,0,0,0,0,0,0,-1,1042,582,0,0
-175,442,0,0,0,0,0,0,0,0,0,-1,1049,582,0,0
-168,442,0,0,0,0,0,0,0,0,0,-1,1056,582,0,0
-161,442,0,0,0,0,0,0,0,0,0,-1,1063,582,0,0
-154,442,0,0,0,0,0,0,0,0,0,-1,1070,582,0,0
-147,442,0,0,0,0,0,0,0,0,0,-1,1077,582,0,0
-140,442,0,0,0,0,0,0,0,0,0,-1,1084,582,0,0
-133,442,0,0,0,0,0,0,0,0,0,-1,1091,582,0,0
-126,442,0,0,0,0,0,0,0,0,0,-1,1098,582,0,0
-119,442,0,0,0,0,0,0,0,0,0,-1,1105,582,0,0
-112,442,0,0,0,0,0,0,0,0,0,-1,1112,582,0,0
-105,442,0,0,0,0,0,0,0,0,0,-1,1119,582,0,0
-98,442,0,0,0,0,0,0,0,0,0,-1,1126,582,0,0
-91,442,0,0,0,0,0,0,0,0,0,-1,1133,582,0,0
-84,442,0,0,0,0,0,0,0,0,0,-1,1140,582,0,0
-77,442,0,0,0,0,0,0,0,0,0,-1,1147,582,0,0
-70,442,0,0,0,0,0,0,0,0,0,-1,1154,582,0,0
-63,442,0,0,0,0,0,0,0,0,0,-1,1161,582,0,0
-56,442,0,0,0,0,0,0,0,0,0,-1,1168,582,0,0
-49,442,0,0,0,0,0,0,0,0,0,-1,1175,582,0,0
-42,442,0,0,0,0,0,0,0,0,0,-1,1182,582,0,0
-35,442,0,0,0,0,0,0,0,0,0,-1,1189,582,0,0
-28,442,0,0,0,0,0,0,0,0,0,-1,1196,582,0,0
-21,442,0,0,0,0,0,0,0,0,0,-1,1203,582,0,0
-14,442,0,0,0,0,0,0,0,0,0,-1,1210,582,0,0
-7,442,0,0,0,0,0,0,0,0,0,-1,1217,582,0,0
0,442,0,0,0,0,0,0,0,0,0,-1,1224,582,0,0
7,442,0,0,0,0,0,0,0,0,0,-1,1231,582,0,0
14,442,0,0,0,0,0,0,0,0,0,-1,1238,582,0,0
21,442,0,0,0,0,0,0,0,0,0,-1,1245,582,0,0
28,442,0,0,0,0,0,0,0,0,0,-1,1252,582,0,0
35,442,0,0,0,0,0,0,0,0,0,-1,1259,582,0,0
42,442,0,0,0,0,0,0,0,0,0,-1,1266,582,0,0
49,442,0,0,0,0,0,0,0,0,0,-1,1273,582,0,0
56,442,0,0,0,0,0,0,0,0,0,-1,1280,582,0,0
63,442,0,0,0,0,0,0,0,0,0,-1,1287,582,0,0
70,442,0,0,0,0,0,0,0,0,0,-1,1294,582,0,0
77,442,0,0,0,0,0,0,0,0,0,-1,1301,582,0,0
84,442,0,0,0,0,0,0,0,0,0,-1,1308,582,0,0
91,442,0,0,0,0,0,0,0,0,0,-1,1315,582,0,0
98,442,0,0,0,0,0,0,0,0,0,-1,1322,582,0,0
105,442,0,0,0,0,0,0,0,0,0,-1,1329,582,0,0
112,442,0,0,0,0,0,0,0,0,0,-1,1336,582,0,0
119,442,0,0,0,0,0,0,0,0,0,-1,1343,582,0,0
126,442,0,0,0,0,0,0,0,0,0,-1,1350,582,0,0
133,442,0,0,0,0,0,0,0,0,0,-1,1357,582,0,0
140,442,0,0,0,0,0,0,0,0,0,-1,1364,582,0,0
147,442,0,0,0,0,0,0,0,0,0,-1,1371,582,0,0
154,442,0,0,0,0,0,0,0,0,0,-1,1378,582,0,0
161,442,0,0,0,0,0,0,0,0,0,-1,1385,582,0,0
168,442,0,0,0,0,0,0,0,0,0,-1,1392,582,0,0
175,442,0,0,0,0,0,0,0,0,0,-1,1399,582,0,0
182,442,0,0,0,0,0,0,0,0,0,-1,1406,582,0,0
189,442,0,0,0,0,0,0,0,0,0,-1,1413,582,0,0
196,442,0,0,0,0,0,0,0,0,0,-1,1420,582,0,0
203,442,0,0,0,0,0,0,0,0,0,-1,1427,582,0,0
210,442,0,0,0,0,0,0,0,0,0,-1,1434,582,0,0
217,442,0,0,0,0,0,0,0,0,0,-1,1441,582,0,0
224,442,0,0,0,0,0,0,0,0,0,-1,1448,582,0,0
231,442,0,0,0,0,0,0,0,0,0,-1,1455,582,0,0
238,442,0,0,0,0,0,0,0,0,0,-1,1462,582,0,0
245,442,0,0,0,0,0,0,0,0,0,-1,1469,582,0,0
252,442,0,0,0,0,0,0,0,0,0,-1,1476,582,0,0
259,442,0,0,0,0,0,0,0,0,0,-1,1483,582,0,0
266,442,0,0,0,0,0,0,0,0,0,-1,1490,582,0,0
273,442,0,0,0,0,0,0,0,0,0,-1,1497,582,0,0
280,442,0,0,0,0,0,0,0,0,0,-1,1504,582,0,0
287,442,0,0,0,0,0,0,0,0,0,-1,1511,582,0,0
294,442,0,0,0,0,0,0,0,0,0,-1,1518,582,0,0
301,442,0,0,0,0,0,0,0,0,0,-1,1525,582,0,0
308,442,0,0,0,0,0,0,0,0,0,-1,1532,582,0,0
315,442,0,0,0,0,0,0,0,0,0,-1,1539,582,0,0
322,442,0,0,0,0,0,0,0,0,0,-1,1546,582,0,0
329,442,0,0,0,0,0,0,0,0,0,-1,1553,582,0,0
336,442,0,0,0,0,0,0,0,0,0,-1,1560,582,0,0
343,442,0,0,0,0,0,0,0,0,0,-1,1567,582,0,0
350,442,0,0,0,0,0,0,0,0,0,-1,1574,582,0,0
357,442,0,0,0,0,0,0,0,0,0,-1,1581,582,0,0
364,442,0,0,0,0,0,0,0,0,0,-1,1588,582,0,0
371,442,0,0,0,0,0,0,0,0,0,-1,1595,582,0,0
378,442,0,0,0,0,0,0,0,0,0,-1,1602,582,0,0
385,442,0,0,0,0,0,0,0,0,0,-1,1609,582,0,0
392,442,0,0,0,0,0,0,0,0,0,-1,1616,582,0,0
399,442,0,0,0,0,0,0,0,0,0,-1,1623,582,0,0
406,442,11.4988,3.2121,0,0,0,0,0,0,0,-1,1630,582,11.4988,-3.21209
413,442,3.66699,2.87408,0,0,0,0,0,0,0,-1,1637,582,3.66703,-2.87408
420,442,4.69055,3.09448,0,0,0,0,0,0,0,-1,1644,582,4.69054,-3.0945
427,442,2.44519,-1.35358,0,0,0,0,0,0,0,-1,1651,582,2.44514,1.35361
434,442,8.45898,-3.86719,0,0,0,0,0,0,0,-1,1658,582,8.45904,3.86719
441,442,4.89368,-7.42456,0,0,0,0,0,0,0,-1,1665,582,4.89365,7.42457
448,442,4.7749,-5.88562,0,0,0,0,0,0,0,-1,1672,582,4.7749,5.8856
455,442,4.87024,-4.60687,0,0,0,0,0,0,0,-1,1679,582,4.87019,4.60686
462,442,5.02307,-3.72821,0,0,0,0,0,0,0,-1,1686,582,5.02311,3.7282
469,442,5.12976,-2.98834,0,0,0,0,0,0,0,-1,1693,582,5.12971,2.98834
476,442,5.4624,1.76947,0,0,0,0,0,0,0,-1,1700,582,5.46234,-1.76944
483,442,5.98486,1.87042,0,0,0,0,0,0,0,-1,1707,582,5.98492,-1.87045
490,442,5.04407,-2.35834,0,0,0,0,0,0,0,-1,1714,582,5.04411,2.35837
497,442,6.20984,-3.07831,0,0,0,0,0,0,0,-1,1721,582,6.2098,3.07833
504,442,6.4967,-3.55688,0,0,0,0,0,0,0,-1,1728,582,6.49673,3.55687
511,442,6.60559,-3.2561,0.00365891,0.00179585,0.00175731,0.00471633,0.000738439,0.541685,0.00292926,0.0214539,1735,582,6.6056,3.2561
518,442,6.68469,-3.01172,0.00270183,0.000929679,0.00116721,0.00328119,0.000350318,0.460735,0.00208054,0.0121688,1742,582,6.68465,3.0117
525,442,6.66077,-2.81104,0.0022611,0.00074297,0.00108016,0.00282223,0.000181836,0.479119,0.0018239,0.0109807,1749,582,6.66076,2.81105
532,442,6.65906,-2.6004,0.00201633,0.00061872,0.00103923,0.00256985,6.51982e-05,0.489408,0.00169192,0.0107516,1756,582,6.659,2.60041
539,442,6.65076,-2.37384,0.00196073,0.000495661,0.00105248,0.00251051,-5.4118e-05,0.481378,0.001692,0.0120494,1763,582,6.65072,2.37384
546,442,6.65186,-2.16492,0.00219073,0.000618027,0.00124447,0.00287647,-6.77126e-05,0.503634,0.00194061,0.0149523,1770,582,6.65184,2.16494
553,442,6.63416,-1.94122,0.00258168,0.000648439,0.00146846,0.00337311,-0.00014299,0.49432,0.00229789,0.0154704,1777,582,6.63411,1.94121
560,442,6.646,-1.71332,0.00305965,0.00077264,0.00174759,0.00400461,-0.00017232,0.495691,0.00272899,0.0139287,1784,582,6.64605,1.71334
567,442,6.65479,-1.51093,0.00367279,0.000905826,0.00208481,0.0047914,-0.00021278,0.492459,0.0032675,0.0101069,1791,582,6.65475,1.51092
574,442,6.67249,-1.29279,0.00447885,0.000981358,0.00247735,0.00576248,-0.000302281,0.478063,0.00394628,0.012816,1798,582,6.67252,1.29277
581,442,6.70898,-1.04108,0.00533097,0.00107408,0.00291475,0.00681169,-0.000406641,0.470034,0.00468256,0.0166892,1805,582,6.70896,1.04107
588,442,6.66064,-0.895996,0.00634417,0.00111785,0.00344739,0.00805687,-0.000594854,0.461094,0.00558011,0.0232956,1812,582,6.66069,0.895996
595,442,6.77844,-0.590637,0.00753898,0.00125725,0.00410402,0.00956609,-0.000769863,0.458783,0.00664889,0.0389225,1819,582,6.77842,0.590656
602,442,6.97314,-0.174744,0,0,0,0,0,0,0,-1,1826,582,6.97317,0.174753
609,442,8.64087,-0.567139,0,0,0,0,0,0,0,-1,1833,582,8.64084,0.567151
616,442,7.16003,-1.18372,0,0,0,0,0,0,0,-1,1840,582,7.16,1.18373
623,442,9.23828,0.326721,0,0,0,0,0,0,0,-1,1847,582,9.23829,-0.326727
630,442,7.74304,2.3924,0,0,0,0,0,0,0,-1,1854,582,7.7431,-2.39238
637,442,5.87805,1.84027,0,0,0,0,0,0,0,-1,1861,582,5.87807,-1.84025
644,442,0,0,0,0,0,0,0,0,0,-1,1868,582,0,0
651,442,0,0,0,0,0,0,0,0,0,-1,1875,582,0,0
658,442,0,0,0,0,0,0,0,0,0,-1,1882,582,0,0
665,442,0,0,0,0,0,0,0,0,0,-1,1889,582,0,0
672,442,0,0,0,0,0,0,0,0,0,-1,1896,582,0,0
679,442,0,0,0,0,0,0,0,0,0,-1,1903,582,0,0
686,442,0,0,0,0,0,0,0,0,0,-1,1910,582,0,0
693,442,0,0,0,0,0,0,0,0,0,-1,1917,582,0,0
700,442,0,0,0,0,0,0,0,0,0,-1,1924,582,0,0
707,442,0,0,0,0,0,0,0,0,0,-1,1931,582,0,0
714,442,0,0,0,0,0,0,0,0,0,-1,1938,582,0,0
721,442,0,0,0,0,0,0,0,0,0,-1,1945,582,0,0
728,442,0,0,0,0,0,0,0,0,0,-1,1952,582,0,0
735,442,0,0,0,0,0,0,0,0,0,-1,1959,582,0,0
742,442,0,0,0,0,0,0,0,0,0,-1,1966,582,0,0
749,442,0,0,0,0,0,0,0,0,0,-1,1973,582,0,0
756,442,0,0,0,0,0,0,0,0,0,-1,1980,582,0,0
763,442,0,0,0,0,0,0,0,0,0,-1,1987,582,0,0
770,442,0,0,0,0,0,0,0,0,0,-1,1994,582,0,0
777,442,0,0,0,0,0,0,0,0,0,-1,2001,582,0,0
784,442,0,0,0,0,0,0,0,0,0,-1,2008,582,0,0
791,442,0,0,0,0,0,0,0,0,0,-1,2015,582,0,0
798,442,0,0,0,0,0,0,0,0,0,-1,2022,582,0,0
805,442,0,0,0,0,0,0,0,0,0,-1,2029,582,0,0
812,442,0,0,0,0,0,0,0,0,0,-1,2036,582,0,0
-700,435,0,0,0,0,0,0,0,0,0,-1,524,589,0,0
-693,435,0,0,0,0,0,0,0,0,0,-1,531,589,0,0
-686,435,0,0,0,0,0,0,0,0,0,-1,538,589,0,0
-679,435,0,0,0,0,0,0,0,0,0,-1,545,589,0,0
-672,435,0,0,0,0,0,0,0,0,0,-1,552,589,0,0
-665,435,0,0,0,0,0,0,0,0,0,-1,559,589,0,0
-658,435,0,0,0,0,0,0,0,0,0,-1,566,589,0,0
-651,435,0,0,0,0,0,0,0,0,0,-1,573,589,0,0
-644,435,0,0,0,0,0,0,0,0,0,-1,580,589,0,0
-637,435,0,0,0,0,0,0,0,0,0,-1,587,589,0,0
-630,435,0,0,0,0,0,0,0,0,0,-1,594,589,0,0
-623,435,0,0,0,0,0,0,0,0,0,-1,601,589,0,0
-616,435,0,0,0,0,0,0,0,0,0,-1,608,589,0,0
-609,435,0,0,0,0,0,0,0,0,0,-1,615,589,0,0
-602,435,0,0,0,0,0,0,0,0,0,-1,622,589,0,0
-595,435,0,0,0,0,0,0,0,0,0,-1,629,589,0,0
-588,435,0,0,0,0,0,0,0,0,0,-1,636,589,0,0
-581,435,0,0,0,0,0,0,0,0,0,-1,643,589,0,0
-574,435,0,0,0,0,0,0,0,0,0,-1,650,589,0,0
-567,435,0,0,0,0,0,0,0,0,0,-1,657,589,0,0
-560,435,0,0,0,0,0,0,0,0,0,-1,664,589,0,0
-553,435,0,0,0,0,0,0,0,0,0,-1,671,589,0,0
-546,435,0,0,0,0,0,0,0,0,0,-1,678,589,0,0
-539,435,0,0,0,0,0,0,0,0,0,-1,685,589,0,0
-532,435,0,0,0,0,0,0,0,0,0,-1,692,589,0,0
-525,435,-3.5592,-5.55487,0,0,0,0,0,0,0,-1,699,589,-3.55923,5.55486
-518,435,-3.13428,-5.49969,0,0,0,0,0,0,0,-1,706,589,-3.13427,5.49972
-511,435,-2.49548,-5.25159,0,0,0,0,0,0,0,-1,713,589,-2.49548,5.25157
-504,435,-1.96234,-5.20099,0,0,0,0,0,0,0,-1,720,589,-1.96233,5.20099
-497,435,-2.12518,-2.07733,0,0,0,0,0,0,0,-1,727,589,-2.12521,2.07732
-490,435,-3.00134,-0.44873,0,0,0,0,0,0,0,-1,734,589,-3.00137,0.448712
-483,435,-3.10071,-1.20264,0,0,0,0,0,0,0,-1,741,589,-3.10073,1.20266
-476,435,-2.69348,-1.61621,0.0154592,0.0412794,-0.0360664,0.0666767,-0.00993807,-0.957269,0.0481072,0.0434447,748,589,-2.69351,1.6162
-469,435,-2.29663,-2.13959,0.0138638,0.0329331,-0.0291068,0.0540271,-0.00723023,-0.943677,0.0386542,0.027855,755,589,-2.29662,2.13957
-462,435,-2.19043,-2.50024,0.0119222,0.025435,-0.0227608,0.042421,-0.00506377,-0.929677,0.0301108,0.0148394,762,589,-2.19041,2.50022
-455,435,-2.24207,-2.69171,0.00980996,0.0189875,-0.0172074,0.0322075,-0.00341002,-0.915703,0.0226939,0.0129277,769,589,-2.24207,2.69173
-448,435,-2.23828,-2.8999,0.00780446,0.0136562,-0.0125399,0.023607,-0.00214636,-0.90001,0.0165001,0.0119272,776,589,-2.2383,2.89993
-441,435,-2.2395,-3.09326,0.00589138,0.00947535,-0.00874755,0.0166126,-0.00124585,-0.886428,0.0115128,0.0103919,783,589,-2.23949,3.09326
-434,435,-2.24799,-3.28577,0.00405941,0.00585143,-0.0052948,0.0103255,-0.000414656,-0.869216,0.00702596,0.0108628,790,589,-2.24797,3.28578
-427,435,-2.25983,-3.50586,0.00240669,0.0028037,-0.00245626,0.00506947,0.000140923,-0.825718,0.00333366,0.00875783,797,589,-2.25981,3.50586
-420,435,-2.25488,-3.70087,0.000372456,-0.000480277,0.000192177,0.000413765,-0.000521586,0.211731,0.00054122,0.00926493,804,589,-2.25487,3.70084
-413,435,-2.25031,-3.87225,-0.00160593,-0.00354737,0.00259706,0.000195897,-0.00534921,0.60655,0.0036332,0.010228,811,589,-2.25032,3.87223
-406,435,-2.24506,-4.05469,-0.00373289,-0.00675214,0.0049043,-0.00011113,-0.0103739,0.636092,0.00687919,0.0110073,818,589,-2.24505,4.05471
-399,435,-2.25977,-4.27258,-0.00570672,-0.0104329,0.0072221,-0.00047092,-0.0156687,0.627288,0.0102924,0.00905143,825,589,-2.25974,4.27256
-392,435,-2.25305,-4.46613,-0.00814741,-0.0148115,0.00975683,-0.00116934,-0.0217895,0.620854,0.0141527,0.00945077,832,589,-2.25306,4.46612
-385,435,-2.2395,-4.66846,-0.0108149,-0.0192166,0.0124843,-0.00184365,-0.0281879,0.623102,0.0182085,0.0121189,839,589,-2.23948,4.66844
-378,435,-2.22546,-4.85455,-0.01386,-0.0245337,0.0155111,-0.00279329,-0.0356004,0.619709,0.0228595,0.0191783,846,589,-2.22546,4.85456
-371,435,-2.23102,-4.86499,-0.017204,-0.0298409,0.0184578,-0.00401313,-0.0430317,0.62049,0.0274481,0.0377665,853,589,-2.23101,4.86497
-364,435,-2.23438,-4.89978,-0.0206357,-0.0349355,0.0211779,-0.00543337,-0.0501378,0.622601,0.0317694,0.0461233,860,589,-2.23435,4.8998
-357,435,-2.1933,-5.11475,0,0,0,0,0,0,0,-1,867,589,-2.19332,5.11477
-350,435,-0.86676,-3.69836,0,0,0,0,0,0,0,-1,874,589,-0.866784,3.69834
-343,435,-1.60706,-2.36835,0,0,0,0,0,0,0,-1,881,589,-1.60706,2.36838
-336,435,-2.07263,-1.94012,0,0,0,0,0,0,0,-1,888,589,-2.07265,1.94014
-329,435,-2.55963,-1.5517,0,0,0,0,0,0,0,-1,895,589,-2.5596,1.55168
-322,435,-3.08545,-1.55255,0,0,0,0,0,0,0,-1,902,589,-3.08544,1.55254
-315,435,-0.404297,-2.63763,0,0,0,0,0,0,0,-1,909,589,-0.404276,2.63761
-308,435,-1.70056,-1.90369,0,0,0,0,0,0,0,-1,916,589,-1.70056,1.90367
-301,435,-1.25232,-2.05511,0,0,0,0,0,0,0,-1,923,589,-1.25234,2.05514
-294,435,-1.79974,-1.97321,0,0,0,0,0,0,0,-1,930,589,-1.79973,1.97322
-287,435,0,0,0,0,0,0,0,0,0,-1,937,589,0,0
-280,435,0,0,0,0,0,0,0,0,0,-1,944,589,0,0
-273,435,0,0,0,0,0,0,0,0,0,-1,951,589,0,0
-266,435,0,0,0,0,0,0,0,0,0,-1,958,589,0,0
-259,435,0,0,0,0,0,0,0,0,0,-1,965,589,0,0
-252,435,0,0,0,0,0,0,0,0,0,-1,972,589,0,0
-245,435,0,0,0,0,0,0,0,0,0,-1,979,589,0,0
-238,435,0,0,0,0,0,0,0,0,0,-1,986,589,0,0
-231,435,0,0,0,0,0,0,0,0,0,-1,993,589,0,0
-224,435,0,0,0,0,0,0,0,0,0,-1,1000,589,0,0
-217,435,0,0,0,0,0,0,0,0,0,-1,1007,589,0,0
-210,435,0,0,0,0,0,0,0,0,0,-1,1014,589,0,0
-203,435,0,0,0,0,0,0,0,0,0,-1,1021,589,0,0
-196,435,0,0,0,0,0,0,0,0,0,-1,1028,589,0,0
-189,435,0,0,0,0,0,0,0,0,0,-1,1035,589,0,0
-182,435,0,0,0,0,0,0,0,0,0,-1,1042,589,0,0
-175,435,0,0,0,0,0,0,0,0,0,-1,1049,589,0,0
-168,435,0,0,0,0,0,0,0,0,0,-1,1056,589,0,0
-161,435,0,0,0,0,0,0,0,0,0,-1,1063,589,0,0
-154,435,0,0,0,0,0,0,0,0,0,-1,1070,589,0,0
-147,435,0,0,0,0,0,0,0,0,0,-1,1077,589,0,0
-140,435,0,0,0,0,0,0,0,0,0,-1,1084,589,0,0
-133,435,0,0,0,0,0,0,0,0,0,-1,1091,589,0,0
-126,435,0,0,0,0,0,0,0,0,0,-1,1098,589,0,0
-119,435,0,0,0,0,0,0,0,0,0,-1,1105,589,0,0
-112,435,0,0,0,0,0,0,0,0,0,-1,1112,589,0,0
-105,435,0,0,0,0,0,0,0,0,0,-1,1119,589,0,0
-98,435,0,0,0,0,0,0,0,0,0,-1,1126,589,0,0
-91,435,0,0,0,0,0,0,0,0,0,-1,1133,589,0,0
-84,435,0,0,0,0,0,0,0,0,0,-1,1140,589,0,0
-77,435,0,0,0,0,0,0,0,0,0,-1,1147,589,0,0
-70,435,0,0,0,0,0,0,0,0,0,-1,1154,589,0,0
-63,435,0,0,0,0,0,0,0,0,0,-1,1161,589,0,0
-56,435,0,0,0,0,0,0,0,0,0,-1,1168,589,0,0
-49,435,0,0,0,0,0,0,0,0,0,-1,1175,589,0,0
-42,435,0,0,0,0,0,0,0,0,0,-1,1182,589,0,0
-35,435,0,0,0,0,0,0,0,0,0,-1,1189,589,0,0
-28,435,0,0,0,0,0,0,0,0,0,-1,1196,589,0,0
-21,435,0,0,0,0,0,0,0,0,0,-1,1203,589,0,0
-14,435,0,0,0,0,0,0,0,0,0,-1,1210,589,0,0
-7,435,0,0,0,0,0,0,0,0,0,-1,1217,589,0,0
0,435,0,0,0,0,0,0,0,0,0,-1,1224,589,0,0
7,435,0,0,0,0,0,0,0,0,0,-1,1231,589,0,0
14,435,0,0,0,0,0,0,0,0,0,-1,1238,589,0,0
21,435,0,0,0,0,0,0,0,0,0,-1,1245,589,0,0
28,435,0,0,0,0,0,0,0,0,0,-1,1252,589,0,0
35,435,0,0,0,0,0,0,0,0,0,-1,1259,589,0,0
42,435,0,0,0,0,0,0,0,0,0,-1,1266,589,0,0
49,435,0,0,0,0,0,0,0,0,0,-1,1273,589,0,0
56,435,0,0,0,0,0,0,0,0,0,-1,1280,589,0,0
63,435,0,0,0,0,0,0,0,0,0,-1,1287,589,0,0
70,435,0,0,0,0,0,0,0,0,0,-1,1294,589,0,0
77,435,0,0,0,0,0,0,0,0,0,-1,1301,589,0,0
84,435,0,0,0,0,0,0,0,0,0,-1,1308,589,0,0
91,435,0,0,0,0,0,0,0,0,0,-1,1315,589,0,0
98,435,0,0,0,0,0,0,0,0,0,-1,1322,589,0,0
105,435,0,0,0,0,0,0,0,0,0,-1,1329,589,0,0
112,435,0,0,0,0,0,0,0,0,0,-1,1336,589,0,0
119,435,0,0,0,0,0,0,0,0,0,-1,1343,589,0,0
126,435,0,0,0,0,0,0,0,0,0,-1,1350,589,0,0
133,435,0,0,0,0,0,0,0,0,0,-1,1357,589,0,0
140,435,0,0,0,0,0,0,0,0,0,-1,1364,589,0,0
147,435,0,0,0,0,0,0,0,0,0,-1,1371,589,0,0
154,435,0,0,0,0,0,0,0,0,0,-1,1378,589,0,0
161,435,0,0,0,0,0,0,0,0,0,-1,1385,589,0,0
168,435,0,0,0,0,0,0,0,0,0,-1,1392,589,0,0
175,435,0,0,0,0,0,0,0,0,0,-1,1399,589,0,0
182,435,0,0,0,0,0,0,0,0,0,-1,1406,589,0,0
189,435,0,0,0,0,0,0,0,0,0,-1,1413,589,0,0
196,435,0,0,0,0,0,0,0,0,0,-1,1420,589,0,0
203,435,0,0,0,0,0,0,0,0,0,-1,1427,589,0,0
210,435,0,0,0,0,0,0,0,0,0,-1,1434,589,0,0
217,435,0,0,0,0,0,0,0,0,0,-1,1441,589,0,0
224,435,0,0,0,0,0,0,0,0,0,-1,1448,589,0,0
231,435,0,0,0,0,0,0,0,0,0,-1,1455,589,0,0
238,435,0,0,0,0,0,0,0,0,0,-1,1462,589,0,0
245,435,0,0,0,0,0,0,0,0,0,-1,1469,589,0,0
252,435,0,0,0,0,0,0,0,0,0,-1,1476,589,0,0
259,435,0,0,0,0,0,0,0,0,0,-1,1483,589,0,0
266,435,0,0,0,0,0,0,0,0,0,-1,1490,589,0,0
273,435,0,0,0,0,0,0,0,0,0,-1,1497,589,0,0
280,435,0,0,0,0,0,0,0,0,0,-1,1504,589,0,0
287,435,0,0,0,0,0,0,0,0,0,-1,1511,589,0,0
294,435,0,0,0,0,0,0,0,0,0,-1,1518,589,0,0
301,435,0,0,0,0,0,0,0,0,0,-1,1525,589,0,0
308,435,0,0,0,0,0,0,0,0,0,-1,1532,589,0,0
315,435,0,0,0,0,0,0,0,0,0,-1,1539,589,0,0
322,435,0,0,0,0,0,0,0,0,0,-1,1546,589,0,0
329,435,0,0,0,0,0,0,0,0,0,-1,1553,589,0,0
336,435,0,0,0,0,0,0,0,0,0,-1,1560,589,0,0
343,435,0,0,0,0,0,0,0,0,0,-1,1567,589,0,0
350,435,0,0,0,0,0,0,0,0,0,-1,1574,589,0,0
357,435,0,0,0,0,0,0,0,0,0,-1,1581,589,0,0
364,435,0,0,0,0,0,0,0,0,0,-1,1588,589,0,0
371,435,0,0,0,0,0,0,0,0,0,-1,1595,589,0,0
378,435,0,0,0,0,0,0,0,0,0,-1,1602,589,0,0
385,435,0,0,0,0,0,0,0,0,0,-1,1609,589,0,0
392,435,0,0,0,0,0,0,0,0,0,-1,1616,589,0,0
399,435,0,0,0,0,0,0,0,0,0,-1,1623,589,0,0
406,435,0,0,0,0,0,0,0,0,0,-1,1630,589,0,0
413,435,3.62073,3.42682,0,0,0,0,0,0,0,-1,1637,589,3.62069,-3.4268
420,435,3.6062,3.71564,0,0,0,0,0,0,0,-1,1644,589,3.60616,-3.71562
427,435,3.11963,0.640198,0,0,0,0,0,0,0,-1,1651,589,3.11967,-0.640192
434,435,2.72107,-1.34802,0,0,0,0,0,0,0,-1,1658,589,2.7211,1.34803
441,435,7.33191,-1.57452,0,0,0,0,0,0,0,-1,1665,589,7.33193,1.57452
448,435,7.4585,-0.00292969,0,0,0,0,0,0,0,-1,1672,589,7.45848,0.00294131
455,435,5.49915,-5.047,0,0,0,0,0,0,0,-1,1679,589,5.49914,5.04703
462,435,5.60669,-4.71466,0,0,0,0,0,0,0,-1,1686,589,5.60675,4.71469
469,435,5.87708,1.22351,0,0,0,0,0,0,0,-1,1693,589,5.87703,-1.22351
476,435,6.14136,1.37714,0,0,0,0,0,0,0,-1,1700,589,6.14138,-1.37712
483,435,6.49243,1.36169,0,0,0,0,0,0,0,-1,1707,589,6.49242,-1.36171
490,435,4.38391,-1.36218,0,0,0,0,0,0,0,-1,1714,589,4.38389,1.3622
497,435,7.23499,-3.64551,0,0,0,0,0,0,0,-1,1721,589,7.23495,3.64551
504,435,6.39685,-3.26196,0,0,0,0,0,0,0,-1,1728,589,6.39682,3.26195
511,435,6.69727,-3.15417,0.00446008,0.00178785,0.00197305,0.00550684,0.000741088,0.487775,0.00345083,0.0448318,1735,589,6.69722,3.1542
518,435,6.88477,-3.02777,0.00304835,0.000730916,0.00116438,0.00353231,0.000246953,0.393917,0.00227703,0.0165329,1742,589,6.88481,3.0278
525,435,6.86108,-2.81561,0.00232747,0.000555952,0.00099434,0.00277336,0.000110066,0.421543,0.00181333,0.0124944,1749,589,6.86103,2.81562
532,435,6.86743,-2.59888,0.00184365,0.000404011,0.000838932,0.00222925,1.84138e-05,0.430832,0.00148007,0.0137276,1756,589,6.8674,2.59889
539,435,6.8894,-2.36212,0.00155018,0.000249517,0.000719278,0.00186953,-6.98391e-05,0.417849,0.00127027,0.0149978,1763,589,6.88943,2.36213
546,435,6.88245,-2.13635,0.00153642,0.000307141,0.000756996,0.00189688,-5.33223e-05,0.444407,0.00128273,0.0140106,1770,589,6.88241,2.13634
553,435,6.8667,-1.93127,0.00171431,0.000302395,0.000850838,0.00211393,-9.72245e-05,0.439097,0.00144279,0.0106177,1777,589,6.86666,1.9313
560,435,6.8573,-1.72083,0.00198047,0.000369438,0.000995092,0.00245522,-0.000105305,0.445148,0.00167302,0.00924005,1784,589,6.85727,1.72083
567,435,6.88428,-1.4989,0.00236166,0.000481294,0.00120583,0.00295052,-0.000107563,0.454278,0.00200383,0.00856684,1791,589,6.88425,1.49892
574,435,6.88757,-1.2879,0.0029936,0.000537999,0.00151183,0.0037134,-0.000181798,0.444352,0.00253837,0.0101804,1798,589,6.88763,1.28793
581,435,6.88147,-1.09619,0.00371726,0.000635523,0.00186613,0.00459646,-0.000243679,0.44029,0.00314868,0.0170386,1805,589,6.88143,1.09619
588,435,6.87695,-0.879028,0.00451544,0.000717661,0.00230453,0.00560262,-0.00036952,0.440801,0.00386415,0.0192429,1812,589,6.87701,0.879024
595,435,6.85144,-0.675354,0.00542287,0.000804688,0.00280974,0.00675062,-0.000523054,0.441447,0.00468451,0.0218641,1819,589,6.85148,0.675376
602,435,6.91418,-0.586548,0.00630179,0.000614336,0.00326879,0.0077907,-0.000874575,0.427413,0.00550852,0.0422352,1826,589,6.91413,0.586558
609,435,6.96716,-0.498535,0,0,0,0,0,0,0,-1,1833,589,6.96714,0.498551
616,435,5.05151,-2.75269,0,0,0,0,0,0,0,-1,1840,589,5.05157,2.7527
623,435,10.2273,3.77734,0,0,0,0,0,0,0,-1,1847,589,10.2273,-3.77732
630,435,4.72742,-0.87561,0,0,0,0,0,0,0,-1,1854,589,4.7274,0.875636
637,435,5.05286,1.48792,0,0,0,0,0,0,0,-1,1861,589,5.05291,-1.48792
644,435,0,0,0,0,0,0,0,0,0,-1,1868,589,0,0
651,435,0,0,0,0,0,0,0,0,0,-1,1875,589,0,0
658,435,0,0,0,0,0,0,0,0,0,-1,1882,589,0,0
665,435,0,0,0,0,0,0,0,0,0,-1,1889,589,0,0
672,435,0,0,0,0,0,0,0,0,0,-1,1896,589,0,0
679,435,0,0,0,0,0,0,0,0,0,-1,1903,589,0,0
686,435,0,0,0,0,0,0,0,0,0,-1,1910,589,0,0
693,435,0,0,0,0,0,0,0,0,0,-1,1917,589,0,0
700,435,0,0,0,0,0,0,0,0,0,-1,1924,589,0,0
707,435,0,0,0,0,0,0,0,0,0,-1,1931,589,0,0
714,435,0,0,0,0,0,0,0,0,0,-1,1938,589,0,0
721,435,0,0,0,0,0,0,0,0,0,-1,1945,589,0,0
728,435,0,0,0,0,0,0,0,0,0,-1,1952,589,0,0
735,435,0,0,0,0,0,0,0,0,0,-1,1959,589,0,0
742,435,0,0,0,0,0,0,0,0,0,-1,1966,589,0,0
749,435,0,0,0,0,0,0,0,0,0,-1,1973,589,0,0
756,435,0,0,0,0,0,0,0,0,0,-1,1980,589,0,0
763,435,0,0,0,0,0,0,0,0,0,-1,1987,589,0,0
770,435,0,0,0,0,0,0,0,0,0,-1,1994,589,0,0
777,435,0,0,0,0,0,0,0,0,0,-1,2001,589,0,0
784,435,0,0,0,0,0,0,0,0,0,-1,2008,589,0,0
791,435,0,0,0,0,0,0,0,0,0,-1,2015,589,0,0
798,435,0,0,0,0,0,0,0,0,0,-1,2022,589,0,0
805,435,0,0,0,0,0,0,0,0,0,-1,2029,589,0,0
812,435,0,0,0,0,0,0,0,0,0,-1,2036,589,0,0
-700,428,0,0,0,0,0,0,0,0,0,-1,524,596,0,0
-693,428,0,0,0,0,0,0,0,0,0,-1,531,596,0,0
-686,428,0,0,0,0,0,0,0,0,0,-1,538,596,0,0
-679,428,0,0,0,0,0,0,0,0,0,-1,545,596,0,0
-672,428,0,0,0,0,0,0,0,0,0,-1,552,596,0,0
-665,428,0,0,0,0,0,0,0,0,0,-1,559,596,0,0
-658,428,0,0,0,0,0,0,0,0,0,-1,566,596,0,0
-651,428,0,0,0,0,0,0,0,0,0,-1,573,596,0,0
-644,428,0,0,0,0,0,0,0,0,0,-1,580,596,0,0
-637,428,0,0,0,0,0,0,0,0,0,-1,587,596,0,0
-630,428,0,0,0,0,0,0,0,0,0,-1,594,596,0,0
-623,428,0,0,0,0,0,0,0,0,0,-1,601,596,0,0
-616,428,0,0,0,0,0,0,0,0,0,-1,608,596,0,0
-609,428,0,0,0,0,0,0,0,0,0,-1,615,596,0,0
-602,428,0,0,0,0,0,0,0,0,0,-1,622,596,0,0
-595,428,0,0,0,0,0,0,0,0,0,-1,629,596,0,0
-588,428,0,0,0,0,0,0,0,0,0,-1,636,596,0,0
-581,428,0,0,0,0,0,0,0,0,0,-1,643,596,0,0
-574,428,0,0,0,0,0,0,0,0,0,-1,650,596,0,0
-567,428,0,0,0,0,0,0,0,0,0,-1,657,596,0,0
-560,428,0,0,0,0,0,0,0,0,0,-1,664,596,0,0
-553,428,0,0,0,0,0,0,0,0,0,-1,671,596,0,0
-546,428,0,0,0,0,0,0,0,0,0,-1,678,596,0,0
-539,428,0,0,0,0,0,0,0,0,0,-1,685,596,0,0
-532,428,0,0,0,0,0,0,0,0,0,-1,692,596,0,0
-525,428,-9.94873,5.86664,0,0,0,0,0,0,0,-1,699,596,-9.94875,-5.86666
-518,428,-2.68677,-4.75885,0,0,0,0,0,0,0,-1,706,596,-2.68679,4.75885
-511,428,-2.56293,-4.71069,0,0,0,0,0,0,0,-1,713,596,-2.56291,4.71071
-504,428,-1.73865,-4.52448,0,0,0,0,0,0,0,-1,720,596,-1.73866,4.5245
-497,428,-2.06531,-2.35187,0,0,0,0,0,0,0,-1,727,596,-2.06533,2.35189
-490,428,-2.56122,-1.31586,0,0,0,0,0,0,0,-1,734,596,-2.56124,1.31586
-483,428,-2.81598,-1.53174,0.0123229,0.0355277,-0.0313947,0.0573953,-0.00954471,-0.962397,0.0418099,0.0437084,741,596,-2.81598,1.53175
-476,428,-2.76788,-1.85217,0.0111221,0.028933,-0.025693,0.0472202,-0.00716507,-0.952224,0.0341202,0.033946,748,596,-2.76787,1.85218
-469,428,-2.39972,-2.24255,0.00960618,0.022796,-0.0203495,0.0375926,-0.00519036,-0.942099,0.0269589,0.0173988,755,596,-2.39972,2.24256
-462,428,-2.41425,-2.47278,0.00789456,0.0173272,-0.0155742,0.0288835,-0.00366172,-0.932424,0.0205851,0.0159914,762,596,-2.41422,2.47276
-455,428,-2.44641,-2.69843,0.00614638,0.01266,-0.0114311,0.0212892,-0.0024828,-0.924175,0.0150886,0.012288,769,596,-2.44642,2.69843
-448,428,-2.42639,-2.89606,0.00463839,0.00876359,-0.00798343,0.0149466,-0.00154458,-0.911814,0.0105171,0.0109628,776,596,-2.42636,2.89605
-441,428,-2.43262,-3.10748,0.00320961,0.00574259,-0.00518919,0.0098176,-0.000865403,-0.90509,0.00685178,0.0128267,783,596,-2.43259,3.10747
-434,428,-2.45453,-3.31299,0.00180363,0.00309274,-0.00260116,0.00512802,-0.000231649,-0.906849,0.00349845,0.00925498,790,596,-2.45454,3.31301
-427,428,-2.44208,-3.50519,0.000583801,0.000818747,-0.000471938,0.00118761,0.000214935,-0.907377,0.000730711,0.00911729,797,596,-2.44206,3.50518
-420,428,-2.43958,-3.67767,-0.00125775,-0.0021736,0.00189568,0.000234529,-0.00366588,0.666888,0.00252573,0.0102631,804,596,-2.43959,3.67764
-413,428,-2.43622,-3.84985,-0.00327413,-0.00546149,0.00437123,0.00013816,-0.00887378,0.662815,0.00596244,0.0129335,811,596,-2.43624,3.84985
-406,428,-2.4483,-4.06659,-0.00569198,-0.00935782,0.00701128,-0.000277999,-0.0147718,0.657547,0.00975653,0.0162006,818,596,-2.4483,4.0666
-399,428,-2.4635,-4.27582,-0.00806203,-0.013778,0.00978511,-0.000726074,-0.021114,0.643313,0.0138403,0.0142673,825,596,-2.46349,4.2758
-392,428,-2.42761,-4.47229,-0.0112681,-0.0190875,0.0128957,-0.00170239,-0.0286531,0.638213,0.0185607,0.0129536,832,596,-2.42762,4.47226
-385,428,-2.42511,-4.67645,-0.0149579,-0.0244274,0.0163841,-0.00263815,-0.0367471,0.644737,0.0236678,0.0201353,839,596,-2.42511,4.67646
-378,428,-2.45734,-4.74713,-0.0191528,-0.0309079,0.0202751,-0.00392051,-0.0461403,0.64432,0.0295402,0.035847,846,596,-2.45733,4.74716
-371,428,-2.63916,-4.4281,-0.0236467,-0.0373325,0.0240417,-0.005493,-0.0554862,0.646752,0.0353025,0.0428212,853,596,-2.63916,4.42812
-364,428,-2.92059,-4.35376,-0.0282003,-0.0432708,0.0274297,-0.00728972,-0.0641815,0.651349,0.0405766,0.0475785,860,596,-2.92057,4.35378
-357,428,-3.20996,-4.70966,0,0,0,0,0,0,0,-1,867,596,-3.20997,4.70965
-350,428,-1.62793,-3.94055,0,0,0,0,0,0,0,-1,874,596,-1.62794,3.94055
-343,428,-0.0567017,-4.80994,0,0,0,0,0,0,0,-1,881,596,-0.0567096,4.80996
-336,428,-3.29175,-1.39569,0,0,0,0,0,0,0,-1,888,596,-3.29172,1.39568
-329,428,-3.71564,-0.791321,0,0,0,0,0,0,0,-1,895,596,-3.71564,0.791299
-322,428,-5.52863,-3.59827,0,0,0,0,0,0,0,-1,902,596,-5.52865,3.59829
-315,428,-4.57172,-1.22052,0,0,0,0,0,0,0,-1,909,596,-4.57171,1.22052
-308,428,-5.26538,-1.1521,0,0,0,0,0,0,0,-1,916,596,-5.26539,1.15209
-301,428,0,0,0,0,0,0,0,0,0,-1,923,596,0,0
-294,428,0,0,0,0,0,0,0,0,0,-1,930,596,0,0
-287,428,0,0,0,0,0,0,0,0,0,-1,937,596,0,0
-280,428,0,0,0,0,0,0,0,0,0,-1,944,596,0,0
-273,428,0,0,0,0,0,0,0,0,0,-1,951,596,0,0
-266,428,0,0,0,0,0,0,0,0,0,-1,958,596,0,0
-259,428,0,0,0,0,0,0,0,0,0,-1,965,596,0,0
-252,428,0,0,0,0,0,0,0,0,0,-1,972,596,0,0
-245,428,0,0,0,0,0,0,0,0,0,-1,979,596,0,0
-238,428,0,0,0,0,0,0,0,0,0,-1,986,596,0,0
-231,428,0,0,0,0,0,0,0,0,0,-1,993,596,0,0
-224,428,0,0,0,0,0,0,0,0,0,-1,1000,596,0,0
-217,428,0,0,0,0,0,0,0,0,0,-1,1007,596,0,0
-210,428,0,0,0,0,0,0,0,0,0,-1,1014,596,0,0
-203,428,0,0,0,0,0,0,0,0,0,-1,1021,596,0,0
-196,428,0,0,0,0,0,0,0,0,0,-1,1028,596,0,0
-189,428,0,0,0,0,0,0,0,0,0,-1,1035,596,0,0
-182,428,0,0,0,0,0,0,0,0,0,-1,1042,596,0,0
-175,428,0,0,0,0,0,0,0,0,0,-1,1049,596,0,0
-168,428,0,0,0,0,0,0,0,0,0,-1,1056,596,0,0
-161,428,0,0,0,0,0,0,0,0,0,-1,1063,596,0,0
-154,428,0,0,0,0,0,0,0,0,0,-1,1070,596,0,0
-147,428,0,0,0,0,0,0,0,0,0,-1,1077,596,0,0
-140,428,0,0,0,0,0,0,0,0,0,-1,1084,596,0,0
-133,428,0,0,0,0,0,0,0,0,0,-1,1091,596,0,0
-126,428,0,0,0,0,0,0,0,0,0,-1,1098,596,0,0
-119,428,0,0,0,0,0,0,0,0,0,-1,1105,596,0,0
-112,428,0,0,0,0,0,0,0,0,0,-1,1112,596,0,0
-105,428,0,0,0,0,0,0,0,0,0,-1,1119,596,0,0
-98,428,0,0,0,0,0,0,0,0,0,-1,1126,596,0,0
-91,428,0,0,0,0,0,0,0,0,0,-1,1133,596,0,0
-84,428,0,0,0,0,0,0,0,0,0,-1,1140,596,0,0
-77,428,0,0,0,0,0,0,0,0,0,-1,1147,596,0,0
-70,428,0,0,0,0,0,0,0,0,0,-1,1154,596,0,0
-63,428,0,0,0,0,0,0,0,0,0,-1,1161,596,0,0
-56,428,0,0,0,0,0,0,0,0,0,-1,1168,596,0,0
-49,428,0,0,0,0,0,0,0,0,0,-1,1175,596,0,0
-42,428,0,0,0,0,0,0,0,0,0,-1,1182,596,0,0
-35,428,0,0,0,0,0,0,0,0,0,-1,1189,596,0,0
-28,428,0,0,0,0,0,0,0,0,0,-1,1196,596,0,0
-21,428,0,0,0,0,0,0,0,0,0,-1,1203,596,0,0
-14,428,0,0,0,0,0,0,0,0,0,-1,1210,596,0,0
-7,428,0,0,0,0,0,0,0,0,0,-1,1217,596,0,0
0,428,0,0,0,0,0,0,0,0,0,-1,1224,596,0,0
7,428,0,0,0,0,0,0,0,0,0,-1,1231,596,0,0
14,428,0,0,0,0,0,0,0,0,0,-1,1238,596,0,0
21,428,0,0,0,0,0,0,0,0,0,-1,1245,596,0,0
28,428,0,0,0,0,0,0,0,0,0,-1,1252,596,0,0
35,428,0,0,0,0,0,0,0,0,0,-1,1259,596,0,0
42,428,0,0,0,0,0,0,0,0,0,-1,1266,596,0,0
49,428,0,0,0,0,0,0,0,0,0,-1,1273,596,0,0
56,428,0,0,0,0,0,0,0,0,0,-1,1280,596,0,0
63,428,0,0,0,0,0,0,0,0,0,-1,1287,596,0,0
70,428,0,0,0,0,0,0,0,0,0,-1,1294,596,0,0
77,428,0,0,0,0,0,0,0,0,0,-1,1301,596,0,0
84,428,0,0,0,0,0,0,0,0,0,-1,1308,596,0,0
91,428,0,0,0,0,0,0,0,0,0,-1,1315,596,0,0
98,428,0,0,0,0,0,0,0,0,0,-1,1322,596,0,0
105,428,0,0,0,0,0,0,0,0,0,-1,1329,596,0,0
112,428,0,0,0,0,0,0,0,0,0,-1,1336,596,0,0
119,428,0,0,0,0,0,0,0,0,0,-1,1343,596,0,0
126,428,0,0,0,0,0,0,0,0,0,-1,1350,596,0,0
133,428,0,0,0,0,0,0,0,0,0,-1,1357,596,0,0
140,428,0,0,0,0,0,0,0,0,0,-1,1364,596,0,0
147,428,0,0,0,0,0,0,0,0,0,-1,1371,596,0,0
154,428,0,0,0,0,0,0,0,0,0,-1,1378,596,0,0
161,428,0,0,0,0,0,0,0,0,0,-1,1385,596,0,0
168,428,0,0,0,0,0,0,0,0,0,-1,1392,596,0,0
175,428,0,0,0,0,0,0,0,0,0,-1,1399,596,0,0
182,428,0,0,0,0,0,0,0,0,0,-1,1406,596,0,0
189,428,0,0,0,0,0,0,0,0,0,-1,1413,596,0,0
196,428,0,0,0,0,0,0,0,0,0,-1,1420,596,0,0
203,428,0,0,0,0,0,0,0,0,0,-1,1427,596,0,0
210,428,0,0,0,0,0,0,0,0,0,-1,1434,596,0,0
217,428,0,0,0,0,0,0,0,0,0,-1,1441,596,0,0
224,428,0,0,0,0,0,0,0,0,0,-1,1448,596,0,0
231,428,0,0,0,0,0,0,0,0,0,-1,1455,596,0,0
238,428,0,0,0,0,0,0,0,0,0,-1,1462,596,0,0
245,428,0,0,0,0,0,0,0,0,0,-1,1469,596,0,0
252,428,0,0,0,0,0,0,0,0,0,-1,1476,596,0,0
259,428,0,0,0,0,0,0,0,0,0,-1,1483,596,0,0
266,428,0,0,0,0,0,0,0,0,0,-1,1490,596,0,0
273,428,0,0,0,0,0,0,0,0,0,-1,1497,596,0,0
280,428,0,0,0,0,0,0,0,0,0,-1,1504,596,0,0
287,428,0,0,0,0,0,0,0,0,0,-1,1511,596,0,0
294,428,0,0,0,0,0,0,0,0,0,-1,1518,596,0,0
301,428,0,0,0,0,0,0,0,0,0,-1,1525,596,0,0
308,428,0,0,0,0,0,0,0,0,0,-1,1532,596,0,0
315,428,0,0,0,0,0,0,0,0,0,-1,1539,596,0,0
322,428,0,0,0,0,0,0,0,0,0,-1,1546,596,0,0
329,428,0,0,0,0,0,0,0,0,0,-1,1553,596,0,0
336,428,0,0,0,0,0,0,0,0,0,-1,1560,596,0,0
343,428,0,0,0,0,0,0,0,0,0,-1,1567,596,0,0
350,428,0,0,0,0,0,0,0,0,0,-1,1574,596,0,0
357,428,0,0,0,0,0,0,0,0,0,-1,1581,596,0,0
364,428,0,0,0,0,0,0,0,0,0,-1,1588,596,0,0
371,428,0,0,0,0,0,0,0,0,0,-1,1595,596,0,0
378,428,0,0,0,0,0,0,0,0,0,-1,1602,596,0,0
385,428,0,0,0,0,0,0,0,0,0,-1,1609,596,0,0
392,428,0,0,0,0,0,0,0,0,0,-1,1616,596,0,0
399,428,0,0,0,0,0,0,0,0,0,-1,1623,596,0,0
406,428,0,0,0,0,0,0,0,0,0,-1,1630,596,0,0
413,428,0,0,0,0,0,0,0,0,0,-1,1637,596,0,0
420,428,2.95886,0.551819,0,0,0,0,0,0,0,-1,1644,596,2.9589,-0.551797
427,428,3.19385,0.384705,0,0,0,0,0,0,0,-1,1651,596,3.19383,-0.384692
434,428,8.18152,1.80432,0,0,0,0,0,0,0,-1,1658,596,8.18148,-1.80434
441,428,8.17993,0.607483,0,0,0,0,0,0,0,-1,1665,596,8.17997,-0.607513
448,428,7.84338,-0.385986,0,0,0,0,0,0,0,-1,1672,596,7.84336,0.385978
455,428,6.64038,2.1123,0,0,0,0,0,0,0,-1,1679,596,6.64037,-2.11229
462,428,4.84106,4.12341,0,0,0,0,0,0,0,-1,1686,596,4.84107,-4.12339
469,428,7.83789,3.10083,0,0,0,0,0,0,0,-1,1693,596,7.83785,-3.10086
476,428,7.61255,1.73956,0,0,0,0,0,0,0,-1,1700,596,7.61252,-1.73958
483,428,7.22766,1.05121,0,0,0,0,0,0,0,-1,1707,596,7.2277,-1.05121
490,428,5.4071,-3.2793,0,0,0,0,0,0,0,-1,1714,596,5.40707,3.27929
497,428,7.84106,-3.65491,0,0,0,0,0,0,0,-1,1721,596,7.84107,3.65491
504,428,6.92139,-2.83356,0,0,0,0,0,0,0,-1,1728,596,6.92137,2.83353
511,428,6.8573,-3.24738,0,0,0,0,0,0,0,-1,1735,596,6.85729,3.24739
518,428,7.06165,-3.08325,0,0,0,0,0,0,0,-1,1742,596,7.06161,3.08326
525,428,7.00403,-2.89038,0.0026796,0.000371108,0.00105449,0.00308876,-3.80501e-05,0.370132,0.00207197,0.0310128,1749,596,7.00405,2.89039
532,428,7.05615,-2.5863,0.00185511,0.000211057,0.00075375,0.00214837,-8.22041e-05,0.371048,0.00146042,0.0180429,1756,596,7.05615,2.58632
539,428,7.10632,-2.35492,0.00124102,4.53538e-05,0.000486461,0.00141393,-0.000127559,0.341522,0.000987889,0.0203313,1763,596,7.10637,2.35495
546,428,7.10754,-2.14844,0.00091495,4.20546e-05,0.000360311,0.00104446,-8.74574e-05,0.345064,0.000727216,0.0153758,1770,596,7.1075,2.14845
553,428,7.08606,-1.93561,0.00085035,2.24041e-05,0.000331675,0.000966832,-9.40772e-05,0.337736,0.000678092,0.0106941,1777,596,7.08604,1.93563
560,428,7.08398,-1.72119,0.000912913,4.69912e-05,0.000362897,0.00104489,-8.49811e-05,0.348795,0.000726576,0.0121336,1784,596,7.08404,1.72118
567,428,7.10657,-1.50488,0.00110551,0.000147519,0.000481555,0.00130573,-5.26995e-05,0.394031,0.000888573,0.0110163,1791,596,7.10657,1.50489
574,428,7.11743,-1.2785,0.00161644,0.000198904,0.000736248,0.00192964,-0.000114293,0.402207,0.00132617,0.0123572,1798,596,7.11741,1.27853
581,428,7.08508,-1.07025,0.00227568,0.000306065,0.00105101,0.00273118,-0.000149431,0.408953,0.00187259,0.010761,1805,596,7.08511,1.07026
588,428,7.08069,-0.860718,0.00298752,0.000428145,0.00146105,0.00365007,-0.000234401,0.425738,0.00251516,0.0136229,1812,596,7.08065,0.860694
595,428,7.06616,-0.64386,0.00378229,0.000496047,0.00190313,0.00465348,-0.000375137,0.429292,0.00323462,0.00950988,1819,596,7.06614,0.643883
602,428,7.06567,-0.428345,0.00457732,0.000412545,0.00233952,0.00562697,-0.000637108,0.421741,0.00398071,0.020955,1826,596,7.06562,0.428341
609,428,7.07434,-0.188782,0,0,0,0,0,0,0,-1,1833,596,7.07429,0.188755
616,428,5.88977,-0.239319,0,0,0,0,0,0,0,-1,1840,596,5.88983,0.239293
623,428,6.41541,0.466675,0,0,0,0,0,0,0,-1,1847,596,6.41543,-0.466696
630,428,4.94434,0.773193,0,0,0,0,0,0,0,-1,1854,596,4.9443,-0.773171
637,428,3.95435,1.90857,0,0,0,0,0,0,0,-1,1861,596,3.95439,-1.90858
644,428,5.75476,0.888977,0,0,0,0,0,0,0,-1,1868,596,5.75472,-0.888955
651,428,0,0,0,0,0,0,0,0,0,-1,1875,596,0,0
658,428,0,0,0,0,0,0,0,0,0,-1,1882,596,0,0
665,428,0,0,0,0,0,0,0,0,0,-1,1889,596,0,0
672,428,0,0,0,0,0,0,0,0,0,-1,1896,596,0,0
679,428,0,0,0,0,0,0,0,0,0,-1,1903,596,0,0
686,428,0,0,0,0,0,0,0,0,0,-1,1910,596,0,0
693,428,0,0,0,0,0,0,0,0,0,-1,1917,596,0,0
700,428,0,0,0,0,0,0,0,0,0,-1,1924,596,0,0
707,428,0,0,0,0,0,0,0,0,0,-1,1931,596,0,0
714,428,0,0,0,0,0,0,0,0,0,-1,1938,596,0,0
721,428,0,0,0,0,0,0,0,0,0,-1,1945,596,0,0
728,428,0,0,0,0,0,0,0,0,0,-1,1952,596,0,0
735,428,0,0,0,0,0,0,0,0,0,-1,1959,596,0,0
742,428,0,0,0,0,0,0,0,0,0,-1,1966,596,0,0
749,428,0,0,0,0,0,0,0,0,0,-1,1973,596,0,0
756,428,0,0,0,0,0,0,0,0,0,-1,1980,596,0,0
763,428,0,0,0,0,0,0,0,0,0,-1,1987,596,0,0
770,428,0,0,0,0,0,0,0,0,0,-1,1994,596,0,0
777,428,0,0,0,0,0,0,0,0,0,-1,2001,596,0,0
784,428,0,0,0,0,0,0,0,0,0,-1,2008,596,0,0
791,428,0,0,0,0,0,0,0,0,0,-1,2015,596,0,0
798,428,0,0,0,0,0,0,0,0,0,-1,2022,596,0,0
805,428,0,0,0,0,0,0,0,0,0,-1,2029,596,0,0
812,428,0,0,0,0,0,0,0,0,0,-1,2036,596,0,0
-700,421,0,0,0,0,0,0,0,0,0,-1,524,603,0,0
-693,421,0,0,0,0,0,0,0,0,0,-1,531,603,0,0
-686,421,0,0,0,0,0,0,0,0,0,-1,538,603,0,0
-679,421,0,0,0,0,0,0,0,0,0,-1,545,603,0,0
-672,421,0,0,0,0,0,0,0,0,0,-1,552,603,0,0
-665,421,0,0,0,0,0,0,0,0,0,-1,559,603,0,0
-658,421,0,0,0,0,0,0,0,0,0,-1,566,603,0,0
-651,421,0,0,0,0,0,0,0,0,0,-1,573,603,0,0
-644,421,0,0,0,0,0,0,0,0,0,-1,580,603,0,0
-637,421,0,0,0,0,0,0,0,0,0,-1,587,603,0,0
-630,421,0,0,0,0,0,0,0,0,0,-1,594,603,0,0
-623,421,0,0,0,0,0,0,0,0,0,-1,601,603,0,0
-616,421,0,0,0,0,0,0,0,0,0,-1,608,603,0,0
-609,421,0,0,0,0,0,0,0,0,0,-1,615,603,0,0
-602,421,0,0,0,0,0,0,0,0,0,-1,622,603,0,0
-595,421,0,0,0,0,0,0,0,0,0,-1,629,603,0,0
-588,421,0,0,0,0,0,0,0,0,0,-1,636,603,0,0
-581,421,0,0,0,0,0,0,0,0,0,-1,643,603,0,0
-574,421,0,0,0,0,0,0,0,0,0,-1,650,603,0,0
-567,421,0,0,0,0,0,0,0,0,0,-1,657,603,0,0
-560,421,0,0,0,0,0,0,0,0,0,-1,664,603,0,0
-553,421,0,0,0,0,0,0,0,0,0,-1,671,603,0,0
-546,421,0,0,0,0,0,0,0,0,0,-1,678,603,0,0
-539,421,0,0,0,0,0,0,0,0,0,-1,685,603,0,0
-532,421,-9.85718,5.32794,0,0,0,0,0,0,0,-1,692,603,-9.85718,-5.32797
-525,421,-10.3297,5.08777,0,0,0,0,0,0,0,-1,699,603,-10.3297,-5.08777
-518,421,-1.92688,-3.7323,0,0,0,0,0,0,0,-1,706,603,-1.92685,3.73228
-511,421,-1.95917,-3.88098,0,0,0,0,0,0,0,-1,713,603,-1.95916,3.88096
-504,421,-1.99146,-4.0296,0,0,0,0,0,0,0,-1,720,603,-1.99146,4.02963
-497,421,-3.2666,-2.36914,0,0,0,0,0,0,0,-1,727,603,-3.26661,2.36916
-490,421,-3.08838,-1.98657,0.0102452,0.0250673,-0.0251219,0.0438485,-0.00853603,-0.928831,0.0324541,0.0461195,734,603,-3.08839,1.98659
-483,421,-2.79395,-1.73071,0.00960445,0.0205756,-0.0206415,0.036448,-0.006268,-0.915273,0.026635,0.0355909,741,603,-2.79393,1.73073
-476,421,-2.65356,-2.07727,0.00866271,0.0164837,-0.0166776,0.0297032,-0.00455675,-0.900556,0.0214827,0.020388,748,603,-2.65359,2.07725
-469,421,-2.62268,-2.26831,0.00749058,0.0127244,-0.0130053,0.0233734,-0.00315846,-0.884682,0.0167348,0.0163214,755,603,-2.6227,2.26831
-462,421,-2.64648,-2.49792,0.00610723,0.00947906,-0.00981517,0.0177521,-0.00216576,-0.870451,0.0126187,0.0184619,762,603,-2.64651,2.49794
-455,421,-2.65387,-2.7149,0.00465998,0.006775,-0.00705802,0.0128543,-0.00141931,-0.859761,0.00907969,0.0195159,769,603,-2.65389,2.71488
-448,421,-2.62915,-2.91956,0.00346271,0.00444454,-0.00475352,0.00873242,-0.000825179,-0.836853,0.00611526,0.0191616,776,603,-2.62914,2.91956
-441,421,-2.64038,-3.11816,0.00222458,0.00264439,-0.00282053,0.00526281,-0.00039385,-0.82254,0.00364692,0.0139499,783,603,-2.6404,3.11819
-434,421,-2.65442,-3.32129,0.000946435,0.000953593,-0.000927544,0.00187756,2.24632e-05,-0.787328,0.00124429,0.00989957,790,603,-2.65443,3.32126
-427,421,-2.64813,-3.50537,-0.000191563,-0.000569548,0.000690496,0.000335338,-0.00109645,0.651817,0.000864698,0.00939593,797,603,-2.64811,3.50536
-420,421,-2.64203,-3.67395,-0.00217033,-0.00341439,0.00302747,0.000298357,-0.00588307,0.684078,0.00402519,0.010668,804,603,-2.64201,3.67395
-413,421,-2.62372,-3.86426,-0.00454402,-0.00713879,0.00582943,0.000130655,-0.0118135,0.675904,0.00791955,0.0133085,811,603,-2.62371,3.86425
-406,421,-2.6524,-4.11188,-0.00754693,-0.0119446,0.00904288,-0.000439415,-0.0190522,0.666133,0.0125575,0.0183076,818,603,-2.65242,4.11189
-399,421,-2.63312,-4.33435,-0.0106042,-0.0172875,0.0125093,-0.000997895,-0.0268938,0.654879,0.017606,0.0162957,825,603,-2.6331,4.33436
-392,421,-2.6524,-4.48584,-0.0147757,-0.0236642,0.0163576,-0.00226935,-0.0361706,0.652753,0.023394,0.0179498,832,603,-2.65239,4.48585
-385,421,-2.69781,-4.70789,-0.0196324,-0.029985,0.0207081,-0.00346345,-0.046154,0.662925,0.0296823,0.0391072,839,603,-2.6978,4.70786
-378,421,-2.7254,-4.9566,0,0,0,0,0,0,0,-1,846,603,-2.72542,4.95658
-371,421,-3.39203,-3.53674,-0.0306427,-0.0450824,0.0300549,-0.00695264,-0.0687725,0.66752,0.0437154,0.0472678,853,603,-3.392,3.53675
-364,421,-4.06537,-3.64362,-0.0362589,-0.0517634,0.0340476,-0.00909213,-0.0789301,0.673462,0.0498664,0.0459546,860,603,-4.06539,3.64362
-357,421,-4.77606,-3.73309,-0.0415435,-0.0567223,0.0369661,-0.0113958,-0.0868701,0.684152,0.0545133,0.0470777,867,603,-4.77604,3.73312
-350,421,-5.38019,-3.75024,0,0,0,0,0,0,0,-1,874,603,-5.38017,3.75026
-343,421,-6.22797,-2.57123,0,0,0,0,0,0,0,-1,881,603,-6.22798,2.57121
-336,421,-6.22882,-2.59369,0,0,0,0,0,0,0,-1,888,603,-6.22883,2.5937
-329,421,-4.50134,-1.49469,0,0,0,0,0,0,0,-1,895,603,-4.50137,1.49468
-322,421,-6.30377,-0.285339,0,0,0,0,0,0,0,-1,902,603,-6.30379,0.285355
-315,421,-4.47821,-1.26733,0,0,0,0,0,0,0,-1,909,603,-4.47824,1.26732
-308,421,0,0,0,0,0,0,0,0,0,-1,916,603,0,0
-301,421,0,0,0,0,0,0,0,0,0,-1,923,603,0,0
-294,421,0,0,0,0,0,0,0,0,0,-1,930,603,0,0
-287,421,0,0,0,0,0,0,0,0,0,-1,937,603,0,0
-280,421,0,0,0,0,0,0,0,0,0,-1,944,603,0,0
-273,421,0,0,0,0,0,0,0,0,0,-1,951,603,0,0
-266,421,0,0,0,0,0,0,0,0,0,-1,958,603,0,0
-259,421,0,0,0,0,0,0,0,0,0,-1,965,603,0,0
-252,421,0,0,0,0,0,0,0,0,0,-1,972,603,0,0
-245,421,0,0,0,0,0,0,0,0,0,-1,979,603,0,0
-238,421,0,0,0,0,0,0,0,0,0,-1,986,603,0,0
-231,421,0,0,0,0,0,0,0,0,0,-1,993,603,0,0
-224,421,0,0,0,0,0,0,0,0,0,-1,1000,603,0,0
-217,421,0,0,0,0,0,0,0,0,0,-1,1007,603,0,0
-210,421,0,0,0,0,0,0,0,0,0,-1,1014,603,0,0
-203,421,0,0,0,0,0,0,0,0,0,-1,1021,603,0,0
-196,421,0,0,0,0,0,0,0,0,0,-1,1028,603,0,0
-189,421,0,0,0,0,0,0,0,0,0,-1,1035,603,0,0
-182,421,0,0,0,0,0,0,0,0,0,-1,1042,603,0,0
-175,421,0,0,0,0,0,0,0,0,0,-1,1049,603,0,0
-168,421,0,0,0,0,0,0,0,0,0,-1,1056,603,0,0
-161,421,0,0,0,0,0,0,0,0,0,-1,1063,603,0,0
-154,421,0,0,0,0,0,0,0,0,0,-1,1070,603,0,0
-147,421,0,0,0,0,0,0,0,0,0,-1,1077,603,0,0
-140,421,0,0,0,0,0,0,0,0,0,-1,1084,603,0,0
-133,421,0,0,0,0,0,0,0,0,0,-1,1091,603,0,0
-126,421,0,0,0,0,0,0,0,0,0,-1,1098,603,0,0
-119,421,0,0,0,0,0,0,0,0,0,-1,1105,603,0,0
-112,421,0,0,0,0,0,0,0,0,0,-1,1112,603,0,0
-105,421,0,0,0,0,0,0,0,0,0,-1,1119,603,0,0
-98,421,0,0,0,0,0,0,0,0,0,-1,1126,603,0,0
-91,421,0,0,0,0,0,0,0,0,0,-1,1133,603,0,0
-84,421,0,0,0,0,0,0,0,0,0,-1,1140,603,0,0
-77,421,0,0,0,0,0,0,0,0,0,-1,1147,603,0,0
-70,421,0,0,0,0,0,0,0,0,0,-1,1154,603,0,0
-63,421,0,0,0,0,0,0,0,0,0,-1,1161,603,0,0
-56,421,0,0,0,0,0,0,0,0,0,-1,1168,603,0,0
-49,421,0,0,0,0,0,0,0,0,0,-1,1175,603,0,0
-42,421,0,0,0,0,0,0,0,0,0,-1,1182,603,0,0
-35,421,0,0,0,0,0,0,0,0,0,-1,1189,603,0,0
-28,421,0,0,0,0,0,0,0,0,0,-1,1196,603,0,0
-21,421,0,0,0,0,0,0,0,0,0,-1,1203,603,0,0
-14,421,0,0,0,0,0,0,0,0,0,-1,1210,603,0,0
-7,421,0,0,0,0,0,0,0,0,0,-1,1217,603,0,0
0,421,0,0,0,0,0,0,0,0,0,-1,1224,603,0,0
7,421,0,0,0,0,0,0,0,0,0,-1,1231,603,0,0
14,421,0,0,0,0,0,0,0,0,0,-1,1238,603,0,0
21,421,0,0,0,0,0,0,0,0,0,-1,1245,603,0,0
28,421,0,0,0,0,0,0,0,0,0,-1,1252,603,0,0
35,421,0,0,0,0,0,0,0,0,0,-1,1259,603,0,0
42,421,0,0,0,0,0,0,0,0,0,-1,1266,603,0,0
49,421,0,0,0,0,0,0,0,0,0,-1,1273,603,0,0
56,421,0,0,0,0,0,0,0,0,0,-1,1280,603,0,0
63,421,0,0,0,0,0,0,0,0,0,-1,1287,603,0,0
70,421,0,0,0,0,0,0,0,0,0,-1,1294,603,0,0
77,421,0,0,0,0,0,0,0,0,0,-1,1301,603,0,0
84,421,0,0,0,0,0,0,0,0,0,-1,1308,603,0,0
91,421,0,0,0,0,0,0,0,0,0,-1,1315,603,0,0
98,421,0,0,0,0,0,0,0,0,0,-1,1322,603,0,0
105,421,0,0,0,0,0,0,0,0,0,-1,1329,603,0,0
112,421,0,0,0,0,0,0,0,0,0,-1,1336,603,0,0
119,421,0,0,0,0,0,0,0,0,0,-1,1343,603,0,0
126,421,0,0,0,0,0,0,0,0,0,-1,1350,603,0,0
133,421,0,0,0,0,0,0,0,0,0,-1,1357,603,0,0
140,421,0,0,0,0,0,0,0,0,0,-1,1364,603,0,0
147,421,0,0,0,0,0,0,0,0,0,-1,1371,603,0,0
154,421,0,0,0,0,0,0,0,0,0,-1,1378,603,0,0
161,421,0,0,0,0,0,0,0,0,0,-1,1385,603,0,0
168,421,0,0,0,0,0,0,0,0,0,-1,1392,603,0,0
175,421,0,0,0,0,0,0,0,0,0,-1,1399,603,0,0
182,421,0,0,0,0,0,0,0,0,0,-1,1406,603,0,0
189,421,0,0,0,0,0,0,0,0,0,-1,1413,603,0,0
196,421,0,0,0,0,0,0,0,0,0,-1,1420,603,0,0
203,421,0,0,0,0,0,0,0,0,0,-1,1427,603,0,0
210,421,0,0,0,0,0,0,0,0,0,-1,1434,603,0,0
217,421,0,0,0,0,0,0,0,0,0,-1,1441,603,0,0
224,421,0,0,0,0,0,0,0,0,0,-1,1448,603,0,0
231,421,0,0,0,0,0,0,0,0,0,-1,1455,603,0,0
238,421,0,0,0,0,0,0,0,0,0,-1,1462,603,0,0
245,421,0,0,0,0,0,0,0,0,0,-1,1469,603,0,0
252,421,0,0,0,0,0,0,0,0,0,-1,1476,603,0,0
259,421,0,0,0,0,0,0,0,0,0,-1,1483,603,0,0
266,421,0,0,0,0,0,0,0,0,0,-1,1490,603,0,0
273,421,0,0,0,0,0,0,0,0,0,-1,1497,603,0,0
280,421,0,0,0,0,0,0,0,0,0,-1,1504,603,0,0
287,421,0,0,0,0,0,0,0,0,0,-1,1511,603,0,0
294,421,0,0,0,0,0,0,0,0,0,-1,1518,603,0,0
301,421,0,0,0,0,0,0,0,0,0,-1,1525,603,0,0
308,421,0,0,0,0,0,0,0,0,0,-1,1532,603,0,0
315,421,0,0,0,0,0,0,0,0,0,-1,1539,603,0,0
322,421,0,0,0,0,0,0,0,0,0,-1,1546,603,0,0
329,421,0,0,0,0,0,0,0,0,0,-1,1553,603,0,0
336,421,0,0,0,0,0,0,0,0,0,-1,1560,603,0,0
343,421,0,0,0,0,0,0,0,0,0,-1,1567,603,0,0
350,421,0,0,0,0,0,0,0,0,0,-1,1574,603,0,0
357,421,0,0,0,0,0,0,0,0,0,-1,1581,603,0,0
364,421,0,0,0,0,0,0,0,0,0,-1,1588,603,0,0
371,421,0,0,0,0,0,0,0,0,0,-1,1595,603,0,0
378,421,0,0,0,0,0,0,0,0,0,-1,1602,603,0,0
385,421,0,0,0,0,0,0,0,0,0,-1,1609,603,0,0
392,421,0,0,0,0,0,0,0,0,0,-1,1616,603,0,0
399,421,0,0,0,0,0,0,0,0,0,-1,1623,603,0,0
406,421,0,0,0,0,0,0,0,0,0,-1,1630,603,0,0
413,421,0,0,0,0,0,0,0,0,0,-1,1637,603,0,0
420,421,0,0,0,0,0,0,0,0,0,-1,1644,603,0,0
427,421,0,0,0,0,0,0,0,0,0,-1,1651,603,0,0
434,421,3.68176,-0.0327759,0,0,0,0,0,0,0,-1,1658,603,3.6818,0.0328037
441,421,8.06689,0.527832,0,0,0,0,0,0,0,-1,1665,603,8.06693,-0.527851
448,421,6.93921,0.802246,0,0,0,0,0,0,0,-1,1672,603,6.93923,-0.802251
455,421,7.29456,2.14825,0,0,0,0,0,0,0,-1,1679,603,7.29461,-2.14827
462,421,7.86902,3.53174,0,0,0,0,0,0,0,-1,1686,603,7.869,-3.53173
469,421,8.06604,2.81213,0,0,0,0,0,0,0,-1,1693,603,8.06606,-2.81212
476,421,8.26306,2.09253,0,0,0,0,0,0,0,-1,1700,603,8.26312,-2.09251
483,421,8.05322,0.798096,0,0,0,0,0,0,0,-1,1707,603,8.05323,-0.7981
490,421,7.51233,0.213074,0,0,0,0,0,0,0,-1,1714,603,7.51235,-0.213043
497,421,7.49634,-2.86688,0,0,0,0,0,0,0,-1,1721,603,7.4963,2.86688
504,421,6.90491,-2.18671,0,0,0,0,0,0,0,-1,1728,603,6.90491,2.18669
511,421,6.31348,-1.50653,0,0,0,0,0,0,0,-1,1735,603,6.31353,1.5065
518,421,6.27588,-2.49878,0,0,0,0,0,0,0,-1,1742,603,6.2759,2.4988
525,421,7.11804,-2.97235,0,0,0,0,0,0,0,-1,1749,603,7.11805,2.97235
532,421,7.22314,-2.63715,0.00208914,0.000183399,0.000843685,0.00240897,-0.00013643,0.362348,0.00165334,0.0326698,1756,603,7.22315,2.63717
539,421,7.3335,-2.36938,0.00121184,-1.73577e-05,0.000411633,0.00133695,-0.000142471,0.29507,0.000942389,0.0202072,1763,603,7.33354,2.36942
546,421,7.32593,-2.14508,0.000623261,-0.000117077,0.000100971,0.000636785,-0.000130601,0.133145,0.000474092,0.011627,1770,603,7.32597,2.14511
553,421,7.31555,-1.92303,0.000365762,-0.000172573,-6.28046e-05,0.000372992,-0.000179803,-0.114614,0.000325588,0.0114407,1777,603,7.31556,1.92303
560,421,7.30457,-1.69904,0.000273134,-0.000215886,-0.000150034,0.000315496,-0.000258248,-0.275184,0.0003318,0.0144162,1784,603,7.3046,1.69904
567,421,7.323,-1.49695,0.000312956,-0.000163429,-0.000126002,0.00034423,-0.000194703,-0.243287,0.00031512,0.0162112,1791,603,7.32304,1.49693
574,421,7.33203,-1.27136,0.000704493,-0.000146026,7.34936e-05,0.000710797,-0.00015233,0.085565,0.000531962,0.0172896,1798,603,7.33199,1.27139
581,421,7.31653,-1.01263,0.00127235,-5.53822e-05,0.000349417,0.00135869,-0.000141723,0.242247,0.00095654,0.0146796,1805,603,7.31654,1.01265
588,421,7.28918,-0.845947,0.00187098,7.44402e-05,0.000734663,0.00213315,-0.000187729,0.342769,0.00148863,0.00991096,1812,603,7.28913,0.845943
595,421,7.29443,-0.623535,0.00254293,0.000135449,0.00114057,0.00299747,-0.000319088,0.379228,0.00211272,0.0133302,1819,603,7.29447,0.623529
602,421,7.30042,-0.438354,0.00324074,0.000174063,0.00157011,0.00390203,-0.000487224,0.398624,0.00277804,0.0153157,1826,603,7.3004,0.438351
609,421,7.23242,-0.210205,0,0,0,0,0,0,0,-1,1833,603,7.23247,0.210188
616,421,7.43628,0.13623,0,0,0,0,0,0,0,-1,1840,603,7.43629,-0.136253
623,421,6.19885,0.376648,0,0,0,0,0,0,0,-1,1847,603,6.19881,-0.376624
630,421,6.54993,0.778748,0,0,0,0,0,0,0,-1,1854,603,6.54991,-0.778744
637,421,3.74512,1.65405,0,0,0,0,0,0,0,-1,1861,603,3.74517,-1.65407
644,421,3.58081,0.354675,0,0,0,0,0,0,0,-1,1868,603,3.58082,-0.354704
651,421,3.28687,3.66351,0,0,0,0,0,0,0,-1,1875,603,3.28688,-3.66353
658,421,0,0,0,0,0,0,0,0,0,-1,1882,603,0,0
665,421,0,0,0,0,0,0,0,0,0,-1,1889,603,0,0
672,421,0,0,0,0,0,0,0,0,0,-1,1896,603,0,0
679,421,0,0,0,0,0,0,0,0,0,-1,1903,603,0,0
686,421,0,0,0,0,0,0,0,0,0,-1,1910,603,0,0
693,421,0,0,0,0,0,0,0,0,0,-1,1917,603,0,0
700,421,0,0,0,0,0,0,0,0,0,-1,1924,603,0,0
707,421,0,0,0,0,0,0,0,0,0,-1,1931,603,0,0
714,421,0,0,0,0,0,0,0,0,0,-1,1938,603,0,0
721,421,0,0,0,0,0,0,0,0,0,-1,1945,603,0,0
728,421,0,0,0,0,0,0,0,0,0,-1,1952,603,0,0
735,421,0,0,0,0,0,0,0,0,0,-1,1959,603,0,0
742,421,0,0,0,0,0,0,0,0,0,-1,1966,603,0,0
749,421,0,0,0,0,0,0,0,0,0,-1,1973,603,0,0
756,421,0,0,0,0,0,0,0,0,0,-1,1980,603,0,0
763,421,0,0,0,0,0,0,0,0,0,-1,1987,603,0,0
770,421,0,0,0,0,0,0,0,0,0,-1,1994,603,0,0
777,421,0,0,0,0,0,0,0,0,0,-1,2001,603,0,0
784,421,0,0,0,0,0,0,0,0,0,-1,2008,603,0,0
791,421,0,0,0,0,0,0,0,0,0,-1,2015,603,0,0
798,421,0,0,0,0,0,0,0,0,0,-1,2022,603,0,0
805,421,0,0,0,0,0,0,0,0,0,-1,2029,603,0,0
812,421,0,0,0,0,0,0,0,0,0,-1,2036,603,0,0
-700,414,0,0,0,0,0,0,0,0,0,-1,524,610,0,0
-693,414,0,0,0,0,0,0,0,0,0,-1,531,610,0,0
-686,414,0,0,0,0,0,0,0,0,0,-1,538,610,0,0
-679,414,0,0,0,0,0,0,0,0,0,-1,545,610,0,0
-672,414,0,0,0,0,0,0,0,0,0,-1,552,610,0,0
-665,414,0,0,0,0,0,0,0,0,0,-1,559,610,0,0
-658,414,0,0,0,0,0,0,0,0,0,-1,566,610,0,0
-651,414,0,0,0,0,0,0,0,0,0,-1,573,610,0,0
-644,414,0,0,0,0,0,0,0,0,0,-1,580,610,0,0
-637,414,0,0,0,0,0,0,0,0,0,-1,587,610,0,0
-630,414,0,0,0,0,0,0,0,0,0,-1,594,610,0,0
-623,414,0,0,0,0,0,0,0,0,0,-1,601,610,0,0
-616,414,0,0,0,0,0,0,0,0,0,-1,608,610,0,0
-609,414,0,0,0,0,0,0,0,0,0,-1,615,610,0,0
-602,414,0,0,0,0,0,0,0,0,0,-1,622,610,0,0
-595,414,0,0,0,0,0,0,0,0,0,-1,629,610,0,0
-588,414,0,0,0,0,0,0,0,0,0,-1,636,610,0,0
-581,414,0,0,0,0,0,0,0,0,0,-1,643,610,0,0
-574,414,0,0,0,0,0,0,0,0,0,-1,650,610,0,0
-567,414,0,0,0,0,0,0,0,0,0,-1,657,610,0,0
-560,414,0,0,0,0,0,0,0,0,0,-1,664,610,0,0
-553,414,0,0,0,0,0,0,0,0,0,-1,671,610,0,0
-546,414,0,0,0,0,0,0,0,0,0,-1,678,610,0,0
-539,414,-6.50098,-0.528992,0,0,0,0,0,0,0,-1,685,610,-6.501,0.528994
-532,414,-3.95496,-0.877441,0,0,0,0,0,0,0,-1,692,610,-3.95493,0.877472
-525,414,-9.23834,3.88635,0,0,0,0,0,0,0,-1,699,610,-9.23831,-3.88637
-518,414,-1.50458,-1.36444,0,0,0,0,0,0,0,-1,706,610,-1.50459,1.36443
-511,414,-2.05591,-3.11963,0,0,0,0,0,0,0,-1,713,610,-2.05588,3.1196
-504,414,-2.26416,-2.87775,0,0,0,0,0,0,0,-1,720,610,-2.26415,2.87776
-497,414,-2.92279,-1.57043,0,0,0,0,0,0,0,-1,727,610,-2.92281,1.57044
-490,414,-2.87305,-1.70197,0.00787447,0.0118421,-0.0136261,0.023628,-0.00391143,-0.857686,0.0172047,0.0368959,734,610,-2.87305,1.70199
-483,414,-2.80786,-1.86041,0.00718854,0.00950435,-0.0111222,0.0195288,-0.00283588,-0.837265,0.0140601,0.0148555,741,610,-2.80784,1.86039
-476,414,-2.84351,-2.09106,0.00648056,0.00753789,-0.00904535,0.01607,-0.00205156,-0.814588,0.0114586,0.0103849,748,610,-2.84353,2.09107
-469,414,-2.84583,-2.29004,0.00563323,0.00571466,-0.00704425,0.0127183,-0.00137042,-0.788288,0.00897064,0.0117491,755,610,-2.84585,2.29005
-462,414,-2.84113,-2.5141,0.00457456,0.00421474,-0.00533414,0.00973182,-0.000942527,-0.76854,0.00682379,0.0215911,762,610,-2.84113,2.51407
-455,414,-2.84125,-2.72089,0.00340717,0.00297603,-0.00377948,0.00697723,-0.000594021,-0.756911,0.0048616,0.0248097,769,610,-2.84124,2.72091
-448,414,-2.85016,-2.90643,0.00247779,0.00173761,-0.00240625,0.00454225,-0.000326846,-0.709095,0.00314279,0.0244481,776,610,-2.85018,2.90643
-441,414,-2.85028,-3.09576,0.00136232,0.000740821,-0.00111859,0.00221252,-0.000109375,-0.649911,0.00151279,0.0167403,783,610,-2.85028,3.09575
-434,414,-2.84955,-3.31903,0.000150263,-0.000331791,0.000269483,0.000270782,-0.00045231,0.42054,0.00042184,0.00948588,790,610,-2.84958,3.31901
-427,414,-2.86224,-3.51154,-0.000983363,-0.0014437,0.00159508,0.000398073,-0.00282513,0.713744,0.00202917,0.0100833,797,610,-2.86222,3.51151
-420,414,-2.85504,-3.68146,-0.00316754,-0.00443849,0.00409236,0.000338393,-0.00794442,0.708372,0.0054126,0.00955272,804,610,-2.85502,3.68149
-413,414,-2.83539,-3.8869,-0.00596434,-0.008792,0.00734977,0.000106351,-0.0148627,0.690377,0.0099441,0.0105215,811,610,-2.83541,3.88688
-406,414,-2.83661,-4.15558,-0.00962418,-0.0146072,0.0112174,-0.000624969,-0.0236065,0.676115,0.0155335,0.0154335,818,610,-2.83659,4.15557
-399,414,-2.8504,-4.29791,-0.0134516,-0.0209781,0.0154815,-0.00128249,-0.0331472,0.66617,0.0216833,0.0212818,825,610,-2.85038,4.2979
-392,414,-2.9234,-4.40997,-0.0186324,-0.0284553,0.0201224,-0.00283076,-0.0442569,0.665699,0.0286078,0.0276672,832,610,-2.92343,4.41
-385,414,-3.04279,-4.44562,-0.0246228,-0.0356318,0.0253136,-0.00422213,-0.0560325,0.678339,0.0360302,0.0427656,839,610,-3.04278,4.44563
-378,414,-3.63788,-2.45764,0,0,0,0,0,0,0,-1,846,610,-3.63787,2.45765
-371,414,-4.55841,-2.59821,-0.0378904,-0.0525952,0.0362671,-0.00823793,-0.0822476,0.685389,0.0523025,0.0464231,853,610,-4.55838,2.5982
-364,414,-5.27429,-2.61243,-0.0445776,-0.0598892,0.0408466,-0.0106755,-0.0937912,0.692759,0.0592902,0.04342,860,610,-5.27427,2.61244
-357,414,-5.95874,-2.51605,-0.0508644,-0.0651373,0.0441934,-0.0132349,-0.102767,0.705348,0.0645534,0.044573,867,610,-5.95872,2.51603
-350,414,-6.4502,-2.41821,0,0,0,0,0,0,0,-1,874,610,-6.45021,2.41822
-343,414,-6.80249,-2.32117,-0.0594544,-0.062409,0.0434687,-0.0174379,-0.104425,0.768412,0.0645937,0.0455341,881,610,-6.80252,2.32116
-336,414,-7.11017,-2.52026,-0.0605603,-0.049742,0.0371701,-0.0175895,-0.0927128,0.857653,0.0568596,0.0499819,888,610,-7.11016,2.52026
-329,414,-7.59747,-2.70313,0,0,0,0,0,0,0,-1,895,610,-7.59747,2.70315
-322,414,-4.42236,-1.29163,0,0,0,0,0,0,0,-1,902,610,-4.42238,1.2916
-315,414,0,0,0,0,0,0,0,0,0,-1,909,610,0,0
-308,414,0,0,0,0,0,0,0,0,0,-1,916,610,0,0
-301,414,0,0,0,0,0,0,0,0,0,-1,923,610,0,0
-294,414,0,0,0,0,0,0,0,0,0,-1,930,610,0,0
-287,414,0,0,0,0,0,0,0,0,0,-1,937,610,0,0
-280,414,0,0,0,0,0,0,0,0,0,-1,944,610,0,0
-273,414,0,0,0,0,0,0,0,0,0,-1,951,610,0,0
-266,414,0,0,0,0,0,0,0,0,0,-1,958,610,0,0
-259,414,0,0,0,0,0,0,0,0,0,-1,965,610,0,0
-252,414,0,0,0,0,0,0,0,0,0,-1,972,610,0,0
-245,414,0,0,0,0,0,0,0,0,0,-1,979,610,0,0
-238,414,0,0,0,0,0,0,0,0,0,-1,986,610,0,0
-231,414,0,0,0,0,0,0,0,0,0,-1,993,610,0,0
-224,414,0,0,0,0,0,0,0,0,0,-1,1000,610,0,0
-217,414,0,0,0,0,0,0,0,0,0,-1,1007,610,0,0
-210,414,0,0,0,0,0,0,0,0,0,-1,1014,610,0,0
-203,414,0,0,0,0,0,0,0,0,0,-1,1021,610,0,0
-196,414,0,0,0,0,0,0,0,0,0,-1,1028,610,0,0
-189,414,0,0,0,0,0,0,0,0,0,-1,1035,610,0,0
-182,414,0,0,0,0,0,0,0,0,0,-1,1042,610,0,0
-175,414,0,0,0,0,0,0,0,0,0,-1,1049,610,0,0
-168,414,0,0,0,0,0,0,0,0,0,-1,1056,610,0,0
-161,414,0,0,0,0,0,0,0,0,0,-1,1063,610,0,0
-154,414,0,0,0,0,0,0,0,0,0,-1,1070,610,0,0
-147,414,0,0,0,0,0,0,0,0,0,-1,1077,610,0,0
-140,414,0,0,0,0,0,0,0,0,0,-1,1084,610,0,0
-133,414,0,0,0,0,0,0,0,0,0,-1,1091,610,0,0
-126,414,0,0,0,0,0,0,0,0,0,-1,1098,610,0,0
-119,414,0,0,0,0,0,0,0,0,0,-1,1105,610,0,0
-112,414,0,0,0,0,0,0,0,0,0,-1,1112,610,0,0
-105,414,0,0,0,0,0,0,0,0,0,-1,1119,610,0,0
-98,414,0,0,0,0,0,0,0,0,0,-1,1126,610,0,0
-91,414,0,0,0,0,0,0,0,0,0,-1,1133,610,0,0
-84,414,0,0,0,0,0,0,0,0,0,-1,1140,610,0,0
-77,414,0,0,0,0,0,0,0,0,0,-1,1147,610,0,0
-70,414,0,0,0,0,0,0,0,0,0,-1,1154,610,0,0
-63,414,0,0,0,0,0,0,0,0,0,-1,1161,610,0,0
-56,414,0,0,0,0,0,0,0,0,0,-1,1168,610,0,0
-49,414,0,0,0,0,0,0,0,0,0,-1,1175,610,0,0
-42,414,0,0,0,0,0,0,0,0,0,-1,1182,610,0,0
-35,414,0,0,0,0,0,0,0,0,0,-1,1189,610,0,0
-28,414,0,0,0,0,0,0,0,0,0,-1,1196,610,0,0
-21,414,0,0,0,0,0,0,0,0,0,-1,1203,610,0,0
-14,414,0,0,0,0,0,0,0,0,0,-1,1210,610,0,0
-7,414,0,0,0,0,0,0,0,0,0,-1,1217,610,0,0
0,414,0,0,0,0,0,0,0,0,0,-1,1224,610,0,0
7,414,0,0,0,0,0,0,0,0,0,-1,1231,610,0,0
14,414,0,0,0,0,0,0,0,0,0,-1,1238,610,0,0
21,414,0,0,0,0,0,0,0,0,0,-1,1245,610,0,0
28,414,0,0,0,0,0,0,0,0,0,-1,1252,610,0,0
35,414,0,0,0,0,0,0,0,0,0,-1,1259,610,0,0
42,414,0,0,0,0,0,0,0,0,0,-1,1266,610,0,0
49,414,0,0,0,0,0,0,0,0,0,-1,1273,610,0,0
56,414,0,0,0,0,0,0,0,0,0,-1,1280,610,0,0
63,414,0,0,0,0,0,0,0,0,0,-1,1287,610,0,0
70,414,0,0,0,0,0,0,0,0,0,-1,1294,610,0,0
77,414,0,0,0,0,0,0,0,0,0,-1,1301,610,0,0
84,414,0,0,0,0,0,0,0,0,0,-1,1308,610,0,0
91,414,0,0,0,0,0,0,0,0,0,-1,1315,610,0,0
98,414,0,0,0,0,0,0,0,0,0,-1,1322,610,0,0
105,414,0,0,0,0,0,0,0,0,0,-1,1329,610,0,0
112,414,0,0,0,0,0,0,0,0,0,-1,1336,610,0,0
119,414,0,0,0,0,0,0,0,0,0,-1,1343,610,0,0
126,414,0,0,0,0,0,0,0,0,0,-1,1350,610,0,0
133,414,0,0,0,0,0,0,0,0,0,-1,1357,610,0,0
140,414,0,0,0,0,0,0,0,0,0,-1,1364,610,0,0
147,414,0,0,0,0,0,0,0,0,0,-1,1371,610,0,0
154,414,0,0,0,0,0,0,0,0,0,-1,1378,610,0,0
161,414,0,0,0,0,0,0,0,0,0,-1,1385,610,0,0
168,414,0,0,0,0,0,0,0,0,0,-1,1392,610,0,0
175,414,0,0,0,0,0,0,0,0,0,-1,1399,610,0,0
182,414,0,0,0,0,0,0,0,0,0,-1,1406,610,0,0
189,414,0,0,0,0,0,0,0,0,0,-1,1413,610,0,0
196,414,0,0,0,0,0,0,0,0,0,-1,1420,610,0,0
203,414,0,0,0,0,0,0,0,0,0,-1,1427,610,0,0
210,414,0,0,0,0,0,0,0,0,0,-1,1434,610,0,0
217,414,0,0,0,0,0,0,0,0,0,-1,1441,610,0,0
224,414,0,0,0,0,0,0,0,0,0,-1,1448,610,0,0
231,414,0,0,0,0,0,0,0,0,0,-1,1455,610,0,0
238,414,0,0,0,0,0,0,0,0,0,-1,1462,610,0,0
245,414,0,0,0,0,0,0,0,0,0,-1,1469,610,0,0
252,414,0,0,0,0,0,0,0,0,0,-1,1476,610,0,0
259,414,0,0,0,0,0,0,0,0,0,-1,1483,610,0,0
266,414,0,0,0,0,0,0,0,0,0,-1,1490,610,0,0
273,414,0,0,0,0,0,0,0,0,0,-1,1497,610,0,0
280,414,0,0,0,0,0,0,0,0,0,-1,1504,610,0,0
287,414,0,0,0,0,0,0,0,0,0,-1,1511,610,0,0
294,414,0,0,0,0,0,0,0,0,0,-1,1518,610,0,0
301,414,0,0,0,0,0,0,0,0,0,-1,1525,610,0,0
308,414,0,0,0,0,0,0,0,0,0,-1,1532,610,0,0
315,414,0,0,0,0,0,0,0,0,0,-1,1539,610,0,0
322,414,0,0,0,0,0,0,0,0,0,-1,1546,610,0,0
329,414,0,0,0,0,0,0,0,0,0,-1,1553,610,0,0
336,414,0,0,0,0,0,0,0,0,0,-1,1560,610,0,0
343,414,0,0,0,0,0,0,0,0,0,-1,1567,610,0,0
350,414,0,0,0,0,0,0,0,0,0,-1,1574,610,0,0
357,414,0,0,0,0,0,0,0,0,0,-1,1581,610,0,0
364,414,0,0,0,0,0,0,0,0,0,-1,1588,610,0,0
371,414,0,0,0,0,0,0,0,0,0,-1,1595,610,0,0
378,414,0,0,0,0,0,0,0,0,0,-1,1602,610,0,0
385,414,0,0,0,0,0,0,0,0,0,-1,1609,610,0,0
392,414,0,0,0,0,0,0,0,0,0,-1,1616,610,0,0
399,414,0,0,0,0,0,0,0,0,0,-1,1623,610,0,0
406,414,0,0,0,0,0,0,0,0,0,-1,1630,610,0,0
413,414,0,0,0,0,0,0,0,0,0,-1,1637,610,0,0
420,414,0,0,0,0,0,0,0,0,0,-1,1644,610,0,0
427,414,0,0,0,0,0,0,0,0,0,-1,1651,610,0,0
434,414,0,0,0,0,0,0,0,0,0,-1,1658,610,0,0
441,414,7.84375,0.584412,0,0,0,0,0,0,0,-1,1665,610,7.84379,-0.584394
448,414,7.40808,1.25446,0,0,0,0,0,0,0,-1,1672,610,7.40807,-1.25446
455,414,6.3512,1.73846,0,0,0,0,0,0,0,-1,1679,610,6.3512,-1.73847
462,414,8.18103,3.22113,0,0,0,0,0,0,0,-1,1686,610,8.18108,-3.22112
469,414,8.38513,2.49579,0,0,0,0,0,0,0,-1,1693,610,8.38516,-2.49576
476,414,8.64099,1.71161,0,0,0,0,0,0,0,-1,1700,610,8.64097,-1.71164
483,414,8.62744,0.687622,0,0,0,0,0,0,0,-1,1707,610,8.62749,-0.687615
490,414,8.38831,-0.0302734,0,0,0,0,0,0,0,-1,1714,610,8.38835,0.0302913
497,414,4.71094,-0.110046,0,0,0,0,0,0,0,-1,1721,610,4.71089,0.110024
504,414,7.19568,-1.43835,0,0,0,0,0,0,0,-1,1728,610,7.19563,1.43836
511,414,5.94153,-1.28772,0,0,0,0,0,0,0,-1,1735,610,5.94151,1.28769
518,414,4.53381,-0.0996704,0,0,0,0,0,0,0,-1,1742,610,4.53378,0.0996819
525,414,6.18811,-1.64056,0,0,0,0,0,0,0,-1,1749,610,6.18814,1.64055
532,414,7.448,-2.87158,0,0,0,0,0,0,0,-1,1756,610,7.44802,2.87161
539,414,7.51782,-2.4679,0.000485861,-0.000200433,3.67705e-05,0.000487826,-0.000202398,0.0533747,0.000409701,0.0344342,1763,610,7.51787,2.46792
546,414,7.52429,-2.15656,-9.00859e-05,-0.000287525,-0.00027598,0.0001043,-0.000481911,-0.613637,0.000361097,0.0122016,1770,610,7.52426,2.15653
553,414,7.53455,-1.9389,-0.000280304,-0.000274895,-0.000406217,0.000128627,-0.000683826,-0.788727,0.000504258,0.0118668,1777,610,7.53455,1.93888
560,414,7.54224,-1.6817,-0.00028215,-0.000294786,-0.000458445,0.00017002,-0.000746957,-0.778508,0.000563264,0.0140062,1784,610,7.54228,1.68168
567,414,7.55298,-1.47339,-0.000172368,-0.000224349,-0.000400159,0.000202644,-0.000599361,-0.752968,0.000481551,0.0222069,1791,610,7.55294,1.47337
574,414,7.52319,-1.27625,0.00027779,-0.000182372,-0.000162256,0.000329248,-0.00023383,-0.307108,0.000326646,0.020418,1798,610,7.5232,1.27622
581,414,7.54199,-1.02948,0.000895729,-6.33711e-05,0.000140292,0.000915829,-8.3471e-05,0.142304,0.000640193,0.015461,1805,610,7.54203,1.02949
588,414,7.50439,-0.851501,0.00150627,9.4664e-05,0.000531222,0.00168384,-8.29095e-05,0.322597,0.00115119,0.0146659,1812,610,7.50437,0.85148
595,414,7.53247,-0.612366,0.00217217,0.000157176,0.000908451,0.00252126,-0.000191916,0.366875,0.00174833,0.0201819,1819,610,7.53251,0.612364
602,414,7.57886,-0.407227,0.00283644,0.000278719,0.00130674,0.00338598,-0.000270823,0.398091,0.00235279,0.0223305,1826,610,7.57883,0.407241
609,414,7.5376,-0.225464,0,0,0,0,0,0,0,-1,1833,610,7.53755,0.225491
616,414,7.57373,-0.211121,0,0,0,0,0,0,0,-1,1840,610,7.57378,0.211104
623,414,7.9104,0.0470581,0,0,0,0,0,0,0,-1,1847,610,7.91038,-0.0470323
630,414,5.47144,0.499329,0,0,0,0,0,0,0,-1,1854,610,5.47142,-0.499303
637,414,6.57898,2.38019,0,0,0,0,0,0,0,-1,1861,610,6.579,-2.38019
644,414,5.87073,1.51422,0,0,0,0,0,0,0,-1,1868,610,5.87076,-1.51424
651,414,3.6377,0.820557,0,0,0,0,0,0,0,-1,1875,610,3.6377,-0.820543
658,414,2.29761,3.87323,0,0,0,0,0,0,0,-1,1882,610,2.29758,-3.87325
665,414,0,0,0,0,0,0,0,0,0,-1,1889,610,0,0
672,414,0,0,0,0,0,0,0,0,0,-1,1896,610,0,0
679,414,0,0,0,0,0,0,0,0,0,-1,1903,610,0,0
686,414,0,0,0,0,0,0,0,0,0,-1,1910,610,0,0
693,414,0,0,0,0,0,0,0,0,0,-1,1917,610,0,0
700,414,0,0,0,0,0,0,0,0,0,-1,1924,610,0,0
707,414,0,0,0,0,0,0,0,0,0,-1,1931,610,0,0
714,414,0,0,0,0,0,0,0,0,0,-1,1938,610,0,0
721,414,0,0,0,0,0,0,0,0,0,-1,1945,610,0,0
728,414,0,0,0,0,0,0,0,0,0,-1,1952,610,0,0
735,414,0,0,0,0,0,0,0,0,0,-1,1959,610,0,0
742,414,0,0,0,0,0,0,0,0,0,-1,1966,610,0,0
749,414,0,0,0,0,0,0,0,0,0,-1,1973,610,0,0
756,414,0,0,0,0,0,0,0,0,0,-1,1980,610,0,0
763,414,0,0,0,0,0,0,0,0,0,-1,1987,610,0,0
770,414,0,0,0,0,0,0,0,0,0,-1,1994,610,0,0
777,414,0,0,0,0,0,0,0,0,0,-1,2001,610,0,0
784,414,0,0,0,0,0,0,0,0,0,-1,2008,610,0,0
791,414,0,0,0,0,0,0,0,0,0,-1,2015,610,0,0
798,414,0,0,0,0,0,0,0,0,0,-1,2022,610,0,0
805,414,0,0,0,0,0,0,0,0,0,-1,2029,610,0,0
812,414,0,0,0,0,0,0,0,0,0,-1,2036,610,0,0
-700,407,0,0,0,0,0,0,0,0,0,-1,524,617,0,0
-693,407,0,0,0,0,0,0,0,0,0,-1,531,617,0,0
-686,407,0,0,0,0,0,0,0,0,0,-1,538,617,0,0
-679,407,0,0,0,0,0,0,0,0,0,-1,545,617,0,0
-672,407,0,0,0,0,0,0,0,0,0,-1,552,617,0,0
-665,407,0,0,0,0,0,0,0,0,0,-1,559,617,0,0
-658,407,0,0,0,0,0,0,0,0,0,-1,566,617,0,0
-651,407,0,0,0,0,0,0,0,0,0,-1,573,617,0,0
-644,407,0,0,0,0,0,0,0,0,0,-1,580,617,0,0
-637,407,0,0,0,0,0,0,0,0,0,-1,587,617,0,0
-630,407,0,0,0,0,0,0,0,0,0,-1,594,617,0,0
-623,407,0,0,0,0,0,0,0,0,0,-1,601,617,0,0
-616,407,0,0,0,0,0,0,0,0,0,-1,608,617,0,0
-609,407,0,0,0,0,0,0,0,0,0,-1,615,617,0,0
-602,407,0,0,0,0,0,0,0,0,0,-1,622,617,0,0
-595,407,0,0,0,0,0,0,0,0,0,-1,629,617,0,0
-588,407,0,0,0,0,0,0,0,0,0,-1,636,617,0,0
-581,407,0,0,0,0,0,0,0,0,0,-1,643,617,0,0
-574,407,0,0,0,0,0,0,0,0,0,-1,650,617,0,0
-567,407,0,0,0,0,0,0,0,0,0,-1,657,617,0,0
-560,407,0,0,0,0,0,0,0,0,0,-1,664,617,0,0
-553,407,0,0,0,0,0,0,0,0,0,-1,671,617,0,0
-546,407,-8.54517,-0.658142,0,0,0,0,0,0,0,-1,678,617,-8.54515,0.658112
-539,407,-6.09442,-1.01154,0,0,0,0,0,0,0,-1,685,617,-6.09441,1.01155
-532,407,-3.51044,-1.34229,0,0,0,0,0,0,0,-1,692,617,-3.51045,1.34226
-525,407,-1.84094,0.627808,0,0,0,0,0,0,0,-1,699,617,-1.84093,-0.627793
-518,407,-1.79602,-0.880981,0,0,0,0,0,0,0,-1,706,617,-1.796,0.880991
-511,407,-1.7511,-2.38977,0,0,0,0,0,0,0,-1,713,617,-1.75107,2.38978
-504,407,-2.73737,-1.80426,0,0,0,0,0,0,0,-1,720,617,-2.73737,1.80427
-497,407,-2.81848,-1.77264,0.0056158,0.0060482,-0.00731133,0.0131465,-0.00148253,-0.800179,0.00929801,0.0429086,727,617,-2.81848,1.77266
-490,407,-2.97815,-1.69989,0.00516038,0.00461493,-0.00581465,0.0107087,-0.000933388,-0.761964,0.00746973,0.019465,734,617,-2.97815,1.69988
-483,407,-3.00891,-1.88824,0.00469789,0.00363093,-0.00476765,0.00896181,-0.000632992,-0.729682,0.00619633,0.0107457,741,617,-3.00892,1.88826
-476,407,-3.03088,-2.07446,0.00430869,0.00293695,-0.00402315,0.00770402,-0.000458376,-0.70097,0.00529542,0.00952217,748,617,-3.0309,2.07448
-469,407,-3.04211,-2.2713,0.00382431,0.00221249,-0.00318544,0.00630421,-0.000267409,-0.661499,0.00429472,0.0124243,755,617,-3.04213,2.27131
-462,407,-3.0332,-2.48517,0.00311528,0.00168306,-0.00250788,0.00500729,-0.000208941,-0.646327,0.00340997,0.0199958,762,617,-3.03323,2.48517
-455,407,-3.04211,-2.6933,0.0022406,0.00122989,-0.00175669,0.00356318,-9.26858e-05,-0.645343,0.00240694,0.0221094,769,617,-3.04214,2.69332
-448,407,-3.03607,-2.87878,0.00158686,0.000509498,-0.000987787,0.0021733,-7.69433e-05,-0.535769,0.00147518,0.0190346,776,617,-3.03608,2.87879
-441,407,-3.04089,-3.07092,0.000587535,-0.000147365,-8.23684e-05,0.000596654,-0.000156484,-0.110258,0.000458912,0.0142223,783,617,-3.04087,3.0709
-434,407,-3.04327,-3.28601,-0.000554369,-0.00101555,0.00105317,0.000293152,-0.00186308,0.677623,0.00135042,0.0102844,790,617,-3.04326,3.28599
-427,407,-3.05115,-3.50232,-0.00169764,-0.00200947,0.00228809,0.000439844,-0.00414695,0.75138,0.0029223,0.0106176,797,617,-3.05116,3.50229
-420,407,-3.03467,-3.68793,-0.00411514,-0.00534911,0.00511075,0.00041573,-0.00987998,0.725327,0.00672951,0.0100326,804,617,-3.03467,3.68791
-413,407,-3.00745,-3.88098,-0.00737349,-0.0104329,0.00890558,0.000132832,-0.0179392,0.700345,0.012004,0.0112499,811,617,-3.00742,3.88098
-406,407,-3.03381,-4.03674,-0.0117486,-0.017335,0.0135095,-0.000746511,-0.028337,0.683456,0.0186475,0.0209278,818,617,-3.03384,4.03672
-399,407,-2.99005,-4.04657,-0.0164139,-0.0248014,0.018671,-0.00147149,-0.0397438,0.674925,0.0260192,0.03573,825,617,-2.99006,4.04656
-392,407,-3.26074,-4.32556,-0.0226284,-0.0332643,0.0241151,-0.00325188,-0.0526408,0.676873,0.0340617,0.0460069,832,617,-3.26071,4.32557
-385,407,-3.45959,-4.58112,0,0,0,0,0,0,0,-1,839,617,-3.4596,4.58111
-378,407,-4.83484,-1.5285,0,0,0,0,0,0,0,-1,846,617,-4.83485,1.52848
-371,407,-5.7572,-1.69318,-0.0447073,-0.0591786,0.042222,-0.0091054,-0.0947805,0.700537,0.0603811,0.0499037,853,617,-5.75723,1.69315
-364,407,-6.26666,-1.91302,-0.0522407,-0.0668206,0.0472148,-0.0117564,-0.107305,0.708803,0.0679576,0.0435293,860,617,-6.26669,1.91305
-357,407,-6.64447,-1.83337,-0.0594607,-0.0724044,0.0510084,-0.0145152,-0.11735,0.722296,0.0738718,0.0444962,867,617,-6.64446,1.8334
-350,407,-7.03351,-1.77551,0,0,0,0,0,0,0,-1,874,617,-7.03349,1.77551
-343,407,-7.40967,-1.95026,-0.0706077,-0.0690437,0.0505414,-0.0192783,-0.120373,0.793134,0.074657,0.0465967,881,617,-7.40969,1.95026
-336,407,-8.10229,-2.40662,-0.072569,-0.0541748,0.0435161,-0.0188945,-0.107849,0.88954,0.0665021,0.0458786,888,617,-8.10229,2.40664
-329,407,-8.81232,-2.76331,0,0,0,0,0,0,0,-1,895,617,-8.81235,2.76331
-322,407,0,0,0,0,0,0,0,0,0,-1,902,617,0,0
-315,407,0,0,0,0,0,0,0,0,0,-1,909,617,0,0
-308,407,0,0,0,0,0,0,0,0,0,-1,916,617,0,0
-301,407,0,0,0,0,0,0,0,0,0,-1,923,617,0,0
-294,407,0,0,0,0,0,0,0,0,0,-1,930,617,0,0
-287,407,0,0,0,0,0,0,0,0,0,-1,937,617,0,0
-280,407,0,0,0,0,0,0,0,0,0,-1,944,617,0,0
-273,407,0,0,0,0,0,0,0,0,0,-1,951,617,0,0
-266,407,0,0,0,0,0,0,0,0,0,-1,958,617,0,0
-259,407,0,0,0,0,0,0,0,0,0,-1,965,617,0,0
-252,407,0,0,0,0,0,0,0,0,0,-1,972,617,0,0
-245,407,0,0,0,0,0,0,0,0,0,-1,979,617,0,0
-238,407,0,0,0,0,0,0,0,0,0,-1,986,617,0,0
-231,407,0,0,0,0,0,0,0,0,0,-1,993,617,0,0
-224,407,0,0,0,0,0,0,0,0,0,-1,1000,617,0,0
-217,407,0,0,0,0,0,0,0,0,0,-1,1007,617,0,0
-210,407,0,0,0,0,0,0,0,0,0,-1,1014,617,0,0
-203,407,0,0,0,0,0,0,0,0,0,-1,1021,617,0,0
-196,407,0,0,0,0,0,0,0,0,0,-1,1028,617,0,0
-189,407,0,0,0,0,0,0,0,0,0,-1,1035,617,0,0
-182,407,0,0,0,0,0,0,0,0,0,-1,1042,617,0,0
-175,407,0,0,0,0,0,0,0,0,0,-1,1049,617,0,0
-168,407,0,0,0,0,0,0,0,0,0,-1,1056,617,0,0
-161,407,0,0,0,0,0,0,0,0,0,-1,1063,617,0,0
-154,407,0,0,0,0,0,0,0,0,0,-1,1070,617,0,0
-147,407,0,0,0,0,0,0,0,0,0,-1,1077,617,0,0
-140,407,0,0,0,0,0,0,0,0,0,-1,1084,617,0,0
-133,407,0,0,0,0,0,0,0,0,0,-1,1091,617,0,0
-126,407,0,0,0,0,0,0,0,0,0,-1,1098,617,0,0
-119,407,0,0,0,0,0,0,0,0,0,-1,1105,617,0,0
-112,407,0,0,0,0,0,0,0,0,0,-1,1112,617,0,0
-105,407,0,0,0,0,0,0,0,0,0,-1,1119,617,0,0
-98,407,0,0,0,0,0,0,0,0,0,-1,1126,617,0,0
-91,407,0,0,0,0,0,0,0,0,0,-1,1133,617,0,0
-84,407,0,0,0,0,0,0,0,0,0,-1,1140,617,0,0
-77,407,0,0,0,0,0,0,0,0,0,-1,1147,617,0,0
-70,407,0,0,0,0,0,0,0,0,0,-1,1154,617,0,0
-63,407,0,0,0,0,0,0,0,0,0,-1,1161,617,0,0
-56,407,0,0,0,0,0,0,0,0,0,-1,1168,617,0,0
-49,407,0,0,0,0,0,0,0,0,0,-1,1175,617,0,0
-42,407,0,0,0,0,0,0,0,0,0,-1,1182,617,0,0
-35,407,0,0,0,0,0,0,0,0,0,-1,1189,617,0,0
-28,407,0,0,0,0,0,0,0,0,0,-1,1196,617,0,0
-21,407,0,0,0,0,0,0,0,0,0,-1,1203,617,0,0
-14,407,0,0,0,0,0,0,0,0,0,-1,1210,617,0,0
-7,407,0,0,0,0,0,0,0,0,0,-1,1217,617,0,0
0,407,0,0,0,0,0,0,0,0,0,-1,1224,617,0,0
7,407,0,0,0,0,0,0,0,0,0,-1,1231,617,0,0
14,407,0,0,0,0,0,0,0,0,0,-1,1238,617,0,0
21,407,0,0,0,0,0,0,0,0,0,-1,1245,617,0,0
28,407,0,0,0,0,0,0,0,0,0,-1,1252,617,0,0
35,407,0,0,0,0,0,0,0,0,0,-1,1259,617,0,0
42,407,0,0,0,0,0,0,0,0,0,-1,1266,617,0,0
49,407,0,0,0,0,0,0,0,0,0,-1,1273,617,0,0
56,407,0,0,0,0,0,0,0,0,0,-1,1280,617,0,0
63,407,0,0,0,0,0,0,0,0,0,-1,1287,617,0,0
70,407,0,0,0,0,0,0,0,0,0,-1,1294,617,0,0
77,407,0,0,0,0,0,0,0,0,0,-1,1301,617,0,0
84,407,0,0,0,0,0,0,0,0,0,-1,1308,617,0,0
91,407,0,0,0,0,0,0,0,0,0,-1,1315,617,0,0
98,407,0,0,0,0,0,0,0,0,0,-1,1322,617,0,0
105,407,0,0,0,0,0,0,0,0,0,-1,1329,617,0,0
112,407,0,0,0,0,0,0,0,0,0,-1,1336,617,0,0
119,407,0,0,0,0,0,0,0,0,0,-1,1343,617,0,0
126,407,0,0,0,0,0,0,0,0,0,-1,1350,617,0,0
133,407,0,0,0,0,0,0,0,0,0,-1,1357,617,0,0
140,407,0,0,0,0,0,0,0,0,0,-1,1364,617,0,0
147,407,0,0,0,0,0,0,0,0,0,-1,1371,617,0,0
154,407,0,0,0,0,0,0,0,0,0,-1,1378,617,0,0
161,407,0,0,0,0,0,0,0,0,0,-1,1385,617,0,0
168,407,0,0,0,0,0,0,0,0,0,-1,1392,617,0,0
175,407,0,0,0,0,0,0,0,0,0,-1,1399,617,0,0
182,407,0,0,0,0,0,0,0,0,0,-1,1406,617,0,0
189,407,0,0,0,0,0,0,0,0,0,-1,1413,617,0,0
196,407,0,0,0,0,0,0,0,0,0,-1,1420,617,0,0
203,407,0,0,0,0,0,0,0,0,0,-1,1427,617,0,0
210,407,0,0,0,0,0,0,0,0,0,-1,1434,617,0,0
217,407,0,0,0,0,0,0,0,0,0,-1,1441,617,0,0
224,407,0,0,0,0,0,0,0,0,0,-1,1448,617,0,0
231,407,0,0,0,0,0,0,0,0,0,-1,1455,617,0,0
238,407,0,0,0,0,0,0,0,0,0,-1,1462,617,0,0
245,407,0,0,0,0,0,0,0,0,0,-1,1469,617,0,0
252,407,0,0,0,0,0,0,0,0,0,-1,1476,617,0,0
259,407,0,0,0,0,0,0,0,0,0,-1,1483,617,0,0
266,407,0,0,0,0,0,0,0,0,0,-1,1490,617,0,0
273,407,0,0,0,0,0,0,0,0,0,-1,1497,617,0,0
280,407,0,0,0,0,0,0,0,0,0,-1,1504,617,0,0
287,407,0,0,0,0,0,0,0,0,0,-1,1511,617,0,0
294,407,0,0,0,0,0,0,0,0,0,-1,1518,617,0,0
301,407,0,0,0,0,0,0,0,0,0,-1,1525,617,0,0
308,407,0,0,0,0,0,0,0,0,0,-1,1532,617,0,0
315,407,0,0,0,0,0,0,0,0,0,-1,1539,617,0,0
322,407,0,0,0,0,0,0,0,0,0,-1,1546,617,0,0
329,407,0,0,0,0,0,0,0,0,0,-1,1553,617,0,0
336,407,0,0,0,0,0,0,0,0,0,-1,1560,617,0,0
343,407,0,0,0,0,0,0,0,0,0,-1,1567,617,0,0
350,407,0,0,0,0,0,0,0,0,0,-1,1574,617,0,0
357,407,0,0,0,0,0,0,0,0,0,-1,1581,617,0,0
364,407,0,0,0,0,0,0,0,0,0,-1,1588,617,0,0
371,407,0,0,0,0,0,0,0,0,0,-1,1595,617,0,0
378,407,0,0,0,0,0,0,0,0,0,-1,1602,617,0,0
385,407,0,0,0,0,0,0,0,0,0,-1,1609,617,0,0
392,407,0,0,0,0,0,0,0,0,0,-1,1616,617,0,0
399,407,0,0,0,0,0,0,0,0,0,-1,1623,617,0,0
406,407,0,0,0,0,0,0,0,0,0,-1,1630,617,0,0
413,407,0,0,0,0,0,0,0,0,0,-1,1637,617,0,0
420,407,0,0,0,0,0,0,0,0,0,-1,1644,617,0,0
427,407,0,0,0,0,0,0,0,0,0,-1,1651,617,0,0
434,407,0,0,0,0,0,0,0,0,0,-1,1658,617,0,0
441,407,0,0,0,0,0,0,0,0,0,-1,1665,617,0,0
448,407,7.02893,2.13843,0,0,0,0,0,0,0,-1,1672,617,7.02899,-2.13844
455,407,7.55237,2.29242,0,0,0,0,0,0,0,-1,1679,617,7.55236,-2.29244
462,407,8.2926,2.46173,0,0,0,0,0,0,0,-1,1686,617,8.29261,-2.46174
469,407,8.71509,2.22681,0,0,0,0,0,0,0,-1,1693,617,8.71511,-2.22681
476,407,8.89917,1.47766,0,0,0,0,0,0,0,-1,1700,617,8.89914,-1.47768
483,407,9.02612,0.682983,0,0,0,0,0,0,0,-1,1707,617,9.02608,-0.683004
490,407,9.12659,0.000671387,0,0,0,0,0,0,0,-1,1714,617,9.12653,-0.000675931
497,407,7.76819,0.855835,0,0,0,0,0,0,0,-1,1721,617,7.7682,-0.855865
504,407,4.69336,0.160706,0,0,0,0,0,0,0,-1,1728,617,4.69337,-0.1607
511,407,4.07104,-0.00140381,0,0,0,0,0,0,0,-1,1735,617,4.07109,0.00141425
518,407,6.09534,1.9411,0,0,0,0,0,0,0,-1,1742,617,6.09532,-1.94113
525,407,5.72534,-1.35986,0,0,0,0,0,0,0,-1,1749,617,5.72529,1.35988
532,407,7.31763,-2.34937,0,0,0,0,0,0,0,-1,1756,617,7.31766,2.34937
539,407,7.65332,-2.55383,0,0,0,0,0,0,0,-1,1763,617,7.65327,2.55386
546,407,7.73828,-2.16705,-0.00116225,-0.000898053,-0.000967094,-5.40778e-05,-0.00200623,-0.853275,0.00131983,0.0136276,1770,617,7.73831,2.16708
553,407,7.73938,-1.9552,-0.00121366,-0.000699039,-0.000941634,1.98061e-05,-0.00193251,-0.918773,0.00129499,0.0138813,1777,617,7.73935,1.95518
560,407,7.75708,-1.69489,-0.00106768,-0.000605247,-0.000866586,6.04378e-05,-0.00173336,-0.915767,0.00117624,0.015345,1784,617,7.7571,1.69488
567,407,7.79297,-1.47693,-0.000837034,-0.000438441,-0.000700824,9.0873e-05,-0.00136635,-0.923929,0.000942651,0.0269222,1791,617,7.79303,1.4769
574,407,7.76978,-1.27814,-0.000297701,-0.000288441,-0.000376467,8.34248e-05,-0.000669567,-0.791548,0.000476626,0.0247925,1798,617,7.76975,1.27813
581,407,7.75671,-1.04669,0.00039064,-6.22624e-05,-1.01866e-05,0.000390869,-6.24914e-05,-0.0224766,0.000283713,0.016788,1805,617,7.75674,1.04668
588,407,7.7179,-0.851501,0.0010399,0.000197467,0.000413715,0.00120909,2.82741e-05,0.388206,0.000796806,0.0113949,1812,617,7.71795,0.851511
595,407,7.75024,-0.633118,0.00172233,0.000333212,0.000788228,0.00207835,-2.28077e-05,0.424243,0.00139323,0.0216018,1819,617,7.75023,0.633116
602,407,7.77783,-0.403137,0.00238404,0.000586265,0.00119396,0.00297966,-9.34605e-06,0.462731,0.00198956,0.0177202,1826,617,7.77778,0.403135
609,407,7.76208,-0.156982,0.00286089,0.000583178,0.00155734,0.00365137,-0.000207294,0.469691,0.0025062,0.0146645,1833,617,7.76211,0.156961
616,407,7.79724,0.151917,0.00311615,0.000973006,0.00216043,0.00445616,-0.000367005,0.555178,0.00310036,0.0235355,1840,617,7.79727,-0.151893
623,407,7.97559,0.514404,0,0,0,0,0,0,0,-1,1847,617,7.97564,-0.514427
630,407,7.06177,0.814575,0,0,0,0,0,0,0,-1,1854,617,7.06178,-0.814579
637,407,6.27808,1.17114,0,0,0,0,0,0,0,-1,1861,617,6.27803,-1.17116
644,407,5.09766,2.27747,0,0,0,0,0,0,0,-1,1868,617,5.09764,-2.27746
651,407,8.39294,0.114197,0,0,0,0,0,0,0,-1,1875,617,8.39292,-0.114212
658,407,3.76685,0.594177,0,0,0,0,0,0,0,-1,1882,617,3.76683,-0.594184
665,407,5.76123,0.375061,0,0,0,0,0,0,0,-1,1889,617,5.76118,-0.37509
672,407,0,0,0,0,0,0,0,0,0,-1,1896,617,0,0
679,407,0,0,0,0,0,0,0,0,0,-1,1903,617,0,0
686,407,0,0,0,0,0,0,0,0,0,-1,1910,617,0,0
693,407,0,0,0,0,0,0,0,0,0,-1,1917,617,0,0
700,407,0,0,0,0,0,0,0,0,0,-1,1924,617,0,0
707,407,0,0,0,0,0,0,0,0,0,-1,1931,617,0,0
714,407,0,0,0,0,0,0,0,0,0,-1,1938,617,0,0
721,407,0,0,0,0,0,0,0,0,0,-1,1945,617,0,0
728,407,0,0,0,0,0,0,0,0,0,-1,1952,617,0,0
735,407,0,0,0,0,0,0,0,0,0,-1,1959,617,0,0
742,407,0,0,0,0,0,0,0,0,0,-1,1966,617,0,0
749,407,0,0,0,0,0,0,0,0,0,-1,1973,617,0,0
756,407,0,0,0,0,0,0,0,0,0,-1,1980,617,0,0
763,407,0,0,0,0,0,0,0,0,0,-1,1987,617,0,0
770,407,0,0,0,0,0,0,0,0,0,-1,1994,617,0,0
777,407,0,0,0,0,0,0,0,0,0,-1,2001,617,0,0
784,407,0,0,0,0,0,0,0,0,0,-1,2008,617,0,0
791,407,0,0,0,0,0,0,0,0,0,-1,2015,617,0,0
798,407,0,0,0,0,0,0,0,0,0,-1,2022,617,0,0
805,407,0,0,0,0,0,0,0,0,0,-1,2029,617,0,0
812,407,0,0,0,0,0,0,0,0,0,-1,2036,617,0,0
-700,400,0,0,0,0,0,0,0,0,0,-1,524,624,0,0
-693,400,0,0,0,0,0,0,0,0,0,-1,531,624,0,0
-686,400,0,0,0,0,0,0,0,0,0,-1,538,624,0,0
-679,400,0,0,0,0,0,0,0,0,0,-1,545,624,0,0
-672,400,0,0,0,0,0,0,0,0,0,-1,552,624,0,0
-665,400,0,0,0,0,0,0,0,0,0,-1,559,624,0,0
-658,400,0,0,0,0,0,0,0,0,0,-1,566,624,0,0
-651,400,0,0,0,0,0,0,0,0,0,-1,573,624,0,0
-644,400,0,0,0,0,0,0,0,0,0,-1,580,624,0,0
-637,400,0,0,0,0,0,0,0,0,0,-1,587,624,0,0
-630,400,0,0,0,0,0,0,0,0,0,-1,594,624,0,0
-623,400,0,0,0,0,0,0,0,0,0,-1,601,624,0,0
-616,400,0,0,0,0,0,0,0,0,0,-1,608,624,0,0
-609,400,0,0,0,0,0,0,0,0,0,-1,615,624,0,0
-602,400,0,0,0,0,0,0,0,0,0,-1,622,624,0,0
-595,400,0,0,0,0,0,0,0,0,0,-1,629,624,0,0
-588,400,0,0,0,0,0,0,0,0,0,-1,636,624,0,0
-581,400,0,0,0,0,0,0,0,0,0,-1,643,624,0,0
-574,400,0,0,0,0,0,0,0,0,0,-1,650,624,0,0
-567,400,0,0,0,0,0,0,0,0,0,-1,657,624,0,0
-560,400,0,0,0,0,0,0,0,0,0,-1,664,624,0,0
-553,400,0,0,0,0,0,0,0,0,0,-1,671,624,0,0
-546,400,-8.41174,-1.4599,0,0,0,0,0,0,0,-1,678,624,-8.41173,1.45989
-539,400,-5.69104,-1.7337,0,0,0,0,0,0,0,-1,685,624,-5.69103,1.7337
-532,400,-3.03632,-2.03912,0,0,0,0,0,0,0,-1,692,624,-3.03632,2.03909
-525,400,-0.330627,-2.44366,0,0,0,0,0,0,0,-1,699,624,-0.330601,2.44365
-518,400,-2.65259,-0.450928,0,0,0,0,0,0,0,-1,706,624,-2.65262,0.45091
-511,400,-2.63977,-1.08459,0,0,0,0,0,0,0,-1,713,624,-2.63976,1.08459
-504,400,-2.5838,-1.54175,0,0,0,0,0,0,0,-1,720,624,-2.58382,1.54175
-497,400,-3.14911,-1.55981,0.00257194,0.00225939,-0.00304611,0.00546578,-0.000634454,-0.75977,0.0038727,0.0325153,727,624,-3.14914,1.5598
-490,400,-3.21216,-1.66278,0.00249496,0.00138029,-0.00228114,0.00428586,-0.000410609,-0.665583,0.00300348,0.0145814,734,624,-3.21218,1.66281
-483,400,-3.22369,-1.85205,0.00241536,0.000930544,-0.00187566,0.0036902,-0.000344294,-0.596953,0.00258256,0.0141459,741,624,-3.22372,1.85202
-476,400,-3.21838,-2.06195,0.00242046,0.000777475,-0.00171824,0.00350349,-0.000305553,-0.56241,0.00244388,0.0130362,748,624,-3.21841,2.06195
-469,400,-3.24341,-2.2674,0.00231196,0.000515973,-0.00138805,0.00306717,-0.000239232,-0.498285,0.00212901,0.0143355,755,624,-3.2434,2.26742
-462,400,-3.25659,-2.47614,0.00192592,0.00041628,-0.00118815,0.00257874,-0.000236545,-0.502417,0.00180319,0.0198763,762,624,-3.25661,2.47615
-455,400,-3.24048,-2.64172,0.00129977,0.00032966,-0.000792978,0.00174428,-0.000114849,-0.510912,0.00120297,0.020631,769,624,-3.24047,2.64175
-448,400,-3.2381,-2.8476,0.000866582,-0.000187719,-0.00027496,0.000933982,-0.000255119,-0.240387,0.00072286,0.0149206,776,624,-3.2381,2.84762
-441,400,-3.23828,-3.04816,-7.43349e-05,-0.000738733,0.000509066,0.000201335,-0.0010144,0.49631,0.000752413,0.0134305,783,624,-3.23829,3.04818
-434,400,-3.24261,-3.25311,-0.00119116,-0.00161387,0.00161399,0.000225261,-0.00303029,0.720292,0.00209931,0.0112427,790,624,-3.2426,3.25312
-427,400,-3.24493,-3.46576,-0.00241242,-0.00261467,0.0029307,0.000418896,-0.00544599,0.768153,0.00377804,0.0102466,797,624,-3.24492,3.46577
-420,400,-3.19427,-3.68774,-0.00509663,-0.00629021,0.00612581,0.00046139,-0.0118482,0.73684,0.00805703,0.0114178,804,624,-3.19429,3.68773
-413,400,-3.21149,-3.88477,-0.0088491,-0.0121245,0.0105047,0.000144841,-0.0211184,0.708071,0.0141275,0.0234251,811,624,-3.21147,3.88476
-406,400,-3.58057,-4.0509,-0.013956,-0.0201256,0.0158997,-0.00084462,-0.0332369,0.689581,0.0218818,0.0336493,818,624,-3.58056,4.05089
-399,400,-3.10895,-3.82343,-0.0194515,-0.0286062,0.0220155,-0.00154254,-0.0465151,0.682901,0.0305089,0.0446198,825,624,-3.10896,3.82344
-392,400,-3.5509,-4.26141,0,0,0,0,0,0,0,-1,832,624,-3.55093,4.26144
-385,400,-2.72638,-3.72791,0,0,0,0,0,0,0,-1,839,624,-2.72636,3.7279
-378,400,-6.84064,-1.28662,0,0,0,0,0,0,0,-1,846,624,-6.84062,1.28662
-371,400,-6.98865,-1.2572,-0.0498694,-0.063917,0.0472335,-0.0091403,-0.104646,0.711587,0.0669257,0.0450325,853,624,-6.98865,1.25721
-364,400,-6.97247,-1.24133,-0.057398,-0.0712775,0.0521405,-0.0117374,-0.116938,0.719239,0.0743557,0.0443522,860,624,-6.97249,1.24135
-357,400,-7.18329,-1.23218,-0.0648424,-0.0769978,0.0561784,-0.0144139,-0.127426,0.731515,0.0805771,0.0473442,867,624,-7.18327,1.2322
-350,400,-7.40186,-1.19409,0,0,0,0,0,0,0,-1,874,624,-7.40187,1.19407
-343,400,-8.09357,-1.51147,0,0,0,0,0,0,0,-1,881,624,-8.09355,1.51148
-336,400,0,0,0,0,0,0,0,0,0,-1,888,624,0,0
-329,400,0,0,0,0,0,0,0,0,0,-1,895,624,0,0
-322,400,0,0,0,0,0,0,0,0,0,-1,902,624,0,0
-315,400,0,0,0,0,0,0,0,0,0,-1,909,624,0,0
-308,400,0,0,0,0,0,0,0,0,0,-1,916,624,0,0
-301,400,0,0,0,0,0,0,0,0,0,-1,923,624,0,0
-294,400,0,0,0,0,0,0,0,0,0,-1,930,624,0,0
-287,400,0,0,0,0,0,0,0,0,0,-1,937,624,0,0
-280,400,0,0,0,0,0,0,0,0,0,-1,944,624,0,0
-273,400,0,0,0,0,0,0,0,0,0,-1,951,624,0,0
-266,400,0,0,0,0,0,0,0,0,0,-1,958,624,0,0
-259,400,0,0,0,0,0,0,0,0,0,-1,965,624,0,0
-252,400,0,0,0,0,0,0,0,0,0,-1,972,624,0,0
-245,400,0,0,0,0,0,0,0,0,0,-1,979,624,0,0
-238,400,0,0,0,0,0,0,0,0,0,-1,986,624,0,0
-231,400,0,0,0,0,0,0,0,0,0,-1,993,624,0,0
-224,400,0,0,0,0,0,0,0,0,0,-1,1000,624,0,0
-217,400,0,0,0,0,0,0,0,0,0,-1,1007,624,0,0
-210,400,0,0,0,0,0,0,0,0,0,-1,1014,624,0,0
-203,400,0,0,0,0,0,0,0,0,0,-1,1021,624,0,0
-196,400,0,0,0,0,0,0,0,0,0,-1,1028,624,0,0
-189,400,0,0,0,0,0,0,0,0,0,-1,1035,624,0,0
-182,400,0,0,0,0,0,0,0,0,0,-1,1042,624,0,0
-175,400,0,0,0,0,0,0,0,0,0,-1,1049,624,0,0
-168,400,0,0,0,0,0,0,0,0,0,-1,1056,624,0,0
-161,400,0,0,0,0,0,0,0,0,0,-1,1063,624,0,0
-154,400,0,0,0,0,0,0,0,0,0,-1,1070,624,0,0
-147,400,0,0,0,0,0,0,0,0,0,-1,1077,624,0,0
-140,400,0,0,0,0,0,0,0,0,0,-1,1084,624,0,0
-133,400,0,0,0,0,0,0,0,0,0,-1,1091,624,0,0
-126,400,0,0,0,0,0,0,0,0,0,-1,1098,624,0,0
-119,400,0,0,0,0,0,0,0,0,0,-1,1105,624,0,0
-112,400,0,0,0,0,0,0,0,0,0,-1,1112,624,0,0
-105,400,0,0,0,0,0,0,0,0,0,-1,1119,624,0,0
-98,400,0,0,0,0,0,0,0,0,0,-1,1126,624,0,0
-91,400,0,0,0,0,0,0,0,0,0,-1,1133,624,0,0
-84,400,0,0,0,0,0,0,0,0,0,-1,1140,624,0,0
-77,400,0,0,0,0,0,0,0,0,0,-1,1147,624,0,0
-70,400,0,0,0,0,0,0,0,0,0,-1,1154,624,0,0
-63,400,0,0,0,0,0,0,0,0,0,-1,1161,624,0,0
-56,400,0,0,0,0,0,0,0,0,0,-1,1168,624,0,0
-49,400,0,0,0,0,0,0,0,0,0,-1,1175,624,0,0
-42,400,0,0,0,0,0,0,0,0,0,-1,1182,624,0,0
-35,400,0,0,0,0,0,0,0,0,0,-1,1189,624,0,0
-28,400,0,0,0,0,0,0,0,0,0,-1,1196,624,0,0
-21,400,0,0,0,0,0,0,0,0,0,-1,1203,624,0,0
-14,400,0,0,0,0,0,0,0,0,0,-1,1210,624,0,0
-7,400,0,0,0,0,0,0,0,0,0,-1,1217,624,0,0
0,400,0,0,0,0,0,0,0,0,0,-1,1224,624,0,0
7,400,0,0,0,0,0,0,0,0,0,-1,1231,624,0,0
14,400,0,0,0,0,0,0,0,0,0,-1,1238,624,0,0
21,400,0,0,0,0,0,0,0,0,0,-1,1245,624,0,0
28,400,0,0,0,0,0,0,0,0,0,-1,1252,624,0,0
35,400,0,0,0,0,0,0,0,0,0,-1,1259,624,0,0
42,400,0,0,0,0,0,0,0,0,0,-1,1266,624,0,0
49,400,0,0,0,0,0,0,0,0,0,-1,1273,624,0,0
56,400,0,0,0,0,0,0,0,0,0,-1,1280,624,0,0
63,400,0,0,0,0,0,0,0,0,0,-1,1287,624,0,0
70,400,0,0,0,0,0,0,0,0,0,-1,1294,624,0,0
77,400,0,0,0,0,0,0,0,0,0,-1,1301,624,0,0
84,400,0,0,0,0,0,0,0,0,0,-1,1308,624,0,0
91,400,0,0,0,0,0,0,0,0,0,-1,1315,624,0,0
98,400,0,0,0,0,0,0,0,0,0,-1,1322,624,0,0
105,400,0,0,0,0,0,0,0,0,0,-1,1329,624,0,0
112,400,0,0,0,0,0,0,0,0,0,-1,1336,624,0,0
119,400,0,0,0,0,0,0,0,0,0,-1,1343,624,0,0
126,400,0,0,0,0,0,0,0,0,0,-1,1350,624,0,0
133,400,0,0,0,0,0,0,0,0,0,-1,1357,624,0,0
140,400,0,0,0,0,0,0,0,0,0,-1,1364,624,0,0
147,400,0,0,0,0,0,0,0,0,0,-1,1371,624,0,0
154,400,0,0,0,0,0,0,0,0,0,-1,1378,624,0,0
161,400,0,0,0,0,0,0,0,0,0,-1,1385,624,0,0
168,400,0,0,0,0,0,0,0,0,0,-1,1392,624,0,0
175,400,0,0,0,0,0,0,0,0,0,-1,1399,624,0,0
182,400,0,0,0,0,0,0,0,0,0,-1,1406,624,0,0
189,400,0,0,0,0,0,0,0,0,0,-1,1413,624,0,0
196,400,0,0,0,0,0,0,0,0,0,-1,1420,624,0,0
203,400,0,0,0,0,0,0,0,0,0,-1,1427,624,0,0
210,400,0,0,0,0,0,0,0,0,0,-1,1434,624,0,0
217,400,0,0,0,0,0,0,0,0,0,-1,1441,624,0,0
224,400,0,0,0,0,0,0,0,0,0,-1,1448,624,0,0
231,400,0,0,0,0,0,0,0,0,0,-1,1455,624,0,0
238,400,0,0,0,0,0,0,0,0,0,-1,1462,624,0,0
245,400,0,0,0,0,0,0,0,0,0,-1,1469,624,0,0
252,400,0,0,0,0,0,0,0,0,0,-1,1476,624,0,0
259,400,0,0,0,0,0,0,0,0,0,-1,1483,624,0,0
266,400,0,0,0,0,0,0,0,0,0,-1,1490,624,0,0
273,400,0,0,0,0,0,0,0,0,0,-1,1497,624,0,0
280,400,0,0,0,0,0,0,0,0,0,-1,1504,624,0,0
287,400,0,0,0,0,0,0,0,0,0,-1,1511,624,0,0
294,400,0,0,0,0,0,0,0,0,0,-1,1518,624,0,0
301,400,0,0,0,0,0,0,0,0,0,-1,1525,624,0,0
308,400,0,0,0,0,0,0,0,0,0,-1,1532,624,0,0
315,400,0,0,0,0,0,0,0,0,0,-1,1539,624,0,0
322,400,0,0,0,0,0,0,0,0,0,-1,1546,624,0,0
329,400,0,0,0,0,0,0,0,0,0,-1,1553,624,0,0
336,400,0,0,0,0,0,0,0,0,0,-1,1560,624,0,0
343,400,0,0,0,0,0,0,0,0,0,-1,1567,624,0,0
350,400,0,0,0,0,0,0,0,0,0,-1,1574,624,0,0
357,400,0,0,0,0,0,0,0,0,0,-1,1581,624,0,0
364,400,0,0,0,0,0,0,0,0,0,-1,1588,624,0,0
371,400,0,0,0,0,0,0,0,0,0,-1,1595,624,0,0
378,400,0,0,0,0,0,0,0,0,0,-1,1602,624,0,0
385,400,0,0,0,0,0,0,0,0,0,-1,1609,624,0,0
392,400,0,0,0,0,0,0,0,0,0,-1,1616,624,0,0
399,400,0,0,0,0,0,0,0,0,0,-1,1623,624,0,0
406,400,0,0,0,0,0,0,0,0,0,-1,1630,624,0,0
413,400,0,0,0,0,0,0,0,0,0,-1,1637,624,0,0
420,400,0,0,0,0,0,0,0,0,0,-1,1644,624,0,0
427,400,0,0,0,0,0,0,0,0,0,-1,1651,624,0,0
434,400,0,0,0,0,0,0,0,0,0,-1,1658,624,0,0
441,400,0,0,0,0,0,0,0,0,0,-1,1665,624,0,0
448,400,0,0,0,0,0,0,0,0,0,-1,1672,624,0,0
455,400,8.91309,2.75885,0,0,0,0,0,0,0,-1,1679,624,8.91312,-2.75885
462,400,8.90356,2.37878,0,0,0,0,0,0,0,-1,1686,624,8.90353,-2.37878
469,400,9.14429,1.76849,0,0,0,0,0,0,0,-1,1693,624,9.14432,-1.76847
476,400,9.23254,1.25995,0,0,0,0,0,0,0,-1,1700,624,9.23252,-1.25994
483,400,9.59766,0.562439,0,0,0,0,0,0,0,-1,1707,624,9.59771,-0.56242
490,400,9.92578,-0.213745,0,0,0,0,0,0,0,-1,1714,624,9.92579,0.21376
497,400,9.19141,0.175232,0,0,0,0,0,0,0,-1,1721,624,9.19138,-0.175209
504,400,9.23438,0.00823975,0,0,0,0,0,0,0,-1,1728,624,9.23436,-0.00823766
511,400,6.16687,3.3501,0,0,0,0,0,0,0,-1,1735,624,6.16682,-3.35007
518,400,6.55237,1.74994,0,0,0,0,0,0,0,-1,1742,624,6.55236,-1.74993
525,400,6.99731,1.08783,0,0,0,0,0,0,0,-1,1749,624,6.99736,-1.08785
532,400,6.96582,-1.74982,0,0,0,0,0,0,0,-1,1756,624,6.96585,1.74983
539,400,8.05969,-2.28778,0,0,0,0,0,0,0,-1,1763,624,8.05972,2.28778
546,400,8.02209,-2.15424,-0.00289001,-0.00211095,-0.00219191,-0.000274228,-0.00472673,-0.873336,0.00306384,0.020306,1770,624,8.02206,2.15423
553,400,7.94727,-1.93365,-0.00273401,-0.00165307,-0.00196844,-0.000152252,-0.00423483,-0.91938,0.00277386,0.0130029,1777,624,7.94726,1.93368
560,400,7.96069,-1.69171,-0.00237818,-0.00140191,-0.00174253,-8.0433e-05,-0.00369966,-0.921963,0.00244007,0.0131916,1784,624,7.96066,1.69172
567,400,7.98181,-1.49634,-0.00196067,-0.0011001,-0.00144856,-1.92738e-05,-0.0030415,-0.929769,0.00202127,0.0169804,1791,624,7.98178,1.49633
574,400,7.99158,-1.27875,-0.00127411,-0.000798744,-0.00100863,-1.7311e-07,-0.00207268,-0.901111,0.00138173,0.0195809,1798,624,7.99162,1.27878
581,400,7.96448,-1.03351,-0.000446703,-0.000420644,-0.000524158,9.06467e-05,-0.000957993,-0.797824,0.000670922,0.0178152,1805,624,7.9645,1.03351
588,400,7.94543,-0.804321,0.000331414,-2.11635e-06,6.73037e-06,0.000331549,-2.2521e-06,0.0201683,0.000221787,0.013526,1812,624,7.94539,0.804297
595,400,7.95715,-0.615479,0.00112099,0.00028416,0.000472047,0.00133336,7.17813e-05,0.422779,0.000865974,0.0128134,1819,624,7.95718,0.615474
602,400,7.99341,-0.393066,0.00187998,0.000726193,0.000982417,0.00244237,0.000163812,0.519913,0.00157648,0.0122335,1826,624,7.99335,0.393052
609,400,7.9585,-0.158447,0.00237349,0.000876086,0.00140089,0.0032132,3.63739e-05,0.539987,0.00213011,0.0126916,1833,624,7.95849,0.158429
616,400,7.93286,0.0827637,0.0026019,0.00143346,0.0020252,0.00412546,-9.00999e-05,0.644974,0.00278083,0.016551,1840,624,7.93286,-0.082743
623,400,8.10791,0.391724,0.00279496,0.00185846,0.00248505,0.00485548,-0.000202069,0.692276,0.0033064,0.0349762,1847,624,8.10791,-0.391694
630,400,8.34985,0.665161,0,0,0,0,0,0,0,-1,1854,624,8.34988,-0.665176
637,400,6.92896,1.01917,0,0,0,0,0,0,0,-1,1861,624,6.92899,-1.01918
644,400,7.94214,0.754578,0,0,0,0,0,0,0,-1,1868,624,7.94215,-0.754595
651,400,8.03979,0.363708,0,0,0,0,0,0,0,-1,1875,624,8.03974,-0.363678
658,400,9.40002,0.30603,0,0,0,0,0,0,0,-1,1882,624,9.39999,-0.306017
665,400,5.98438,0.522522,0,0,0,0,0,0,0,-1,1889,624,5.98442,-0.522552
672,400,0,0,0,0,0,0,0,0,0,-1,1896,624,0,0
679,400,0,0,0,0,0,0,0,0,0,-1,1903,624,0,0
686,400,0,0,0,0,0,0,0,0,0,-1,1910,624,0,0
693,400,0,0,0,0,0,0,0,0,0,-1,1917,624,0,0
700,400,0,0,0,0,0,0,0,0,0,-1,1924,624,0,0
707,400,0,0,0,0,0,0,0,0,0,-1,1931,624,0,0
714,400,0,0,0,0,0,0,0,0,0,-1,1938,624,0,0
721,400,0,0,0,0,0,0,0,0,0,-1,1945,624,0,0
728,400,0,0,0,0,0,0,0,0,0,-1,1952,624,0,0
735,400,0,0,0,0,0,0,0,0,0,-1,1959,624,0,0
742,400,0,0,0,0,0,0,0,0,0,-1,1966,624,0,0
749,400,0,0,0,0,0,0,0,0,0,-1,1973,624,0,0
756,400,0,0,0,0,0,0,0,0,0,-1,1980,624,0,0
763,400,0,0,0,0,0,0,0,0,0,-1,1987,624,0,0
770,400,0,0,0,0,0,0,0,0,0,-1,1994,624,0,0
777,400,0,0,0,0,0,0,0,0,0,-1,2001,624,0,0
784,400,0,0,0,0,0,0,0,0,0,-1,2008,624,0,0
791,400,0,0,0,0,0,0,0,0,0,-1,2015,624,0,0
798,400,0,0,0,0,0,0,0,0,0,-1,2022,624,0,0
805,400,0,0,0,0,0,0,0,0,0,-1,2029,624,0,0
812,400,0,0,0,0,0,0,0,0,0,-1,2036,624,0,0
-700,393,0,0,0,0,0,0,0,0,0,-1,524,631,0,0
-693,393,0,0,0,0,0,0,0,0,0,-1,531,631,0,0
-686,393,0,0,0,0,0,0,0,0,0,-1,538,631,0,0
-679,393,0,0,0,0,0,0,0,0,0,-1,545,631,0,0
-672,393,0,0,0,0,0,0,0,0,0,-1,552,631,0,0
-665,393,0,0,0,0,0,0,0,0,0,-1,559,631,0,0
-658,393,0,0,0,0,0,0,0,0,0,-1,566,631,0,0
-651,393,0,0,0,0,0,0,0,0,0,-1,573,631,0,0
-644,393,0,0,0,0,0,0,0,0,0,-1,580,631,0,0
-637,393,0,0,0,0,0,0,0,0,0,-1,587,631,0,0
-630,393,0,0,0,0,0,0,0,0,0,-1,594,631,0,0
-623,393,0,0,0,0,0,0,0,0,0,-1,601,631,0,0
-616,393,0,0,0,0,0,0,0,0,0,-1,608,631,0,0
-609,393,0,0,0,0,0,0,0,0,0,-1,615,631,0,0
-602,393,0,0,0,0,0,0,0,0,0,-1,622,631,0,0
-595,393,0,0,0,0,0,0,0,0,0,-1,629,631,0,0
-588,393,0,0,0,0,0,0,0,0,0,-1,636,631,0,0
-581,393,0,0,0,0,0,0,0,0,0,-1,643,631,0,0
-574,393,0,0,0,0,0,0,0,0,0,-1,650,631,0,0
-567,393,0,0,0,0,0,0,0,0,0,-1,657,631,0,0
-560,393,0,0,0,0,0,0,0,0,0,-1,664,631,0,0
-553,393,-8.83954,-2.02435,0,0,0,0,0,0,0,-1,671,631,-8.83956,2.02438
-546,393,-7.19971,-1.82294,0,0,0,0,0,0,0,-1,678,631,-7.1997,1.82297
-539,393,-5.2113,-2.20245,0,0,0,0,0,0,0,-1,685,631,-5.21128,2.20247
-532,393,-2.83643,-2.01624,0,0,0,0,0,0,0,-1,692,631,-2.83642,2.01626
-525,393,-3.02795,0.58905,0,0,0,0,0,0,0,-1,699,631,-3.02794,-0.589026
-518,393,-2.94037,-0.140625,0,0,0,0,0,0,0,-1,706,631,-2.94036,0.1406
-511,393,-2.67993,-1.47144,0,0,0,0,0,0,0,-1,713,631,-2.67991,1.47144
-504,393,-3.06635,-1.4826,0.00143097,0.00324344,-0.00365583,0.00610369,-0.00142928,-0.906893,0.00461984,0.0447579,720,631,-3.06632,1.4826
-497,393,-3.45691,-1.43695,0.001158,0.00216052,-0.00229253,0.00400595,-0.000687429,-0.893029,0.00292681,0.022911,727,631,-3.45693,1.43696
-490,393,-3.42426,-1.6767,0.00114607,0.0011722,-0.0015391,0.00269829,-0.00038002,-0.789643,0.00193799,0.0139851,734,631,-3.42428,1.67669
-483,393,-3.41492,-1.84741,0.00118394,0.000607604,-0.00115743,0.00208854,-0.000296994,-0.663393,0.00150118,0.0188054,741,631,-3.41489,1.8474
-476,393,-3.40601,-2.04181,0.00133262,0.000379689,-0.0010362,0.00199665,-0.000284343,-0.569904,0.0014353,0.015914,748,631,-3.406,2.04178
-469,393,-3.42957,-2.26782,0.00138672,5.7666e-05,-0.00074694,0.00172195,-0.000277565,-0.421861,0.0012508,0.0133039,755,631,-3.42956,2.26781
-462,393,-3.45099,-2.47797,0.00116691,-5.93398e-05,-0.00063545,0.0014368,-0.000329232,-0.401639,0.0010844,0.0159509,762,631,-3.45101,2.47796
-455,393,-3.45477,-2.66907,0.000679786,-0.00013585,-0.000301407,0.000779079,-0.000235143,-0.318235,0.000612989,0.0151822,769,631,-3.4548,2.66907
-448,393,-3.4502,-2.86865,0.00037933,-0.000708604,0.000194326,0.000412999,-0.000742272,0.171555,0.000675966,0.0138691,776,631,-3.45017,2.86868
-441,393,-3.45154,-3.07141,-0.000543879,-0.00134866,0.00101441,0.000145038,-0.00203758,0.596581,0.00140922,0.012144,783,631,-3.45153,3.07144
-434,393,-3.44507,-3.24792,-0.00164336,-0.00236241,0.00218754,0.000214007,-0.00421978,0.703951,0.00288717,0.0108976,790,631,-3.44506,3.2479
-427,393,-3.40277,-3.45642,-0.0029345,-0.0034169,0.00362645,0.000458764,-0.00681016,0.752192,0.0047005,0.0143811,797,631,-3.40277,3.45641
-420,393,-3.40887,-3.66113,-0.00588912,-0.00744817,0.00724159,0.000614776,-0.0139521,0.731782,0.00951293,0.0258182,804,631,-3.40888,3.66112
-413,393,-3.67413,-3.74487,-0.0101683,-0.014097,0.0122717,0.000295329,-0.0245606,0.706037,0.0164731,0.0390614,811,631,-3.67413,3.74486
-406,393,-4.13995,-4.14923,-0.0160191,-0.0230692,0.0184436,-0.000766724,-0.0383216,0.690973,0.025296,0.0456793,818,631,-4.13993,4.14924
-399,393,-4.57593,-4.58105,0,0,0,0,0,0,0,-1,825,631,-4.57592,4.58105
-392,393,-2.08063,-3.02386,0,0,0,0,0,0,0,-1,832,631,-2.08063,3.02384
-385,393,-3.16931,-0.624756,0,0,0,0,0,0,0,-1,839,631,-3.16928,0.624764
-378,393,-7.33081,-0.872314,0,0,0,0,0,0,0,-1,846,631,-7.33081,0.872325
-371,393,-7.47858,-0.811096,0,0,0,0,0,0,0,-1,853,631,-7.47859,0.811075
-364,393,-7.64917,-0.662415,0,0,0,0,0,0,0,-1,860,631,-7.64917,0.662406
-357,393,-8.09686,-0.726013,0,0,0,0,0,0,0,-1,867,631,-8.09689,0.726029
-350,393,-8.38788,-0.511841,0,0,0,0,0,0,0,-1,874,631,-8.38785,0.511811
-343,393,0,0,0,0,0,0,0,0,0,-1,881,631,0,0
-336,393,0,0,0,0,0,0,0,0,0,-1,888,631,0,0
-329,393,0,0,0,0,0,0,0,0,0,-1,895,631,0,0
-322,393,0,0,0,0,0,0,0,0,0,-1,902,631,0,0
-315,393,0,0,0,0,0,0,0,0,0,-1,909,631,0,0
-308,393,0,0,0,0,0,0,0,0,0,-1,916,631,0,0
-301,393,0,0,0,0,0,0,0,0,0,-1,923,631,0,0
-294,393,0,0,0,0,0,0,0,0,0,-1,930,631,0,0
-287,393,0,0,0,0,0,0,0,0,0,-1,937,631,0,0
-280,393,0,0,0,0,0,0,0,0,0,-1,944,631,0,0
-273,393,0,0,0,0,0,0,0,0,0,-1,951,631,0,0
-266,393,0,0,0,0,0,0,0,0,0,-1,958,631,0,0
-259,393,0,0,0,0,0,0,0,0,0,-1,965,631,0,0
-252,393,0,0,0,0,0,0,0,0,0,-1,972,631,0,0
-245,393,0,0,0,0,0,0,0,0,0,-1,979,631,0,0
-238,393,0,0,0,0,0,0,0,0,0,-1,986,631,0,0
-231,393,0,0,0,0,0,0,0,0,0,-1,993,631,0,0
-224,393,0,0,0,0,0,0,0,0,0,-1,1000,631,0,0
-217,393,0,0,0,0,0,0,0,0,0,-1,1007,631,0,0
-210,393,0,0,0,0,0,0,0,0,0,-1,1014,631,0,0
-203,393,0,0,0,0,0,0,0,0,0,-1,1021,631,0,0
-196,393,0,0,0,0,0,0,0,0,0,-1,1028,631,0,0
-189,393,0,0,0,0,0,0,0,0,0,-1,1035,631,0,0
-182,393,0,0,0,0,0,0,0,0,0,-1,1042,631,0,0
-175,393,0,0,0,0,0,0,0,0,0,-1,1049,631,0,0
-168,393,0,0,0,0,0,0,0,0,0,-1,1056,631,0,0
-161,393,0,0,0,0,0,0,0,0,0,-1,1063,631,0,0
-154,393,0,0,0,0,0,0,0,0,0,-1,1070,631,0,0
-147,393,0,0,0,0,0,0,0,0,0,-1,1077,631,0,0
-140,393,0,0,0,0,0,0,0,0,0,-1,1084,631,0,0
-133,393,0,0,0,0,0,0,0,0,0,-1,1091,631,0,0
-126,393,0,0,0,0,0,0,0,0,0,-1,1098,631,0,0
-119,393,0,0,0,0,0,0,0,0,0,-1,1105,631,0,0
-112,393,0,0,0,0,0,0,0,0,0,-1,1112,631,0,0
-105,393,0,0,0,0,0,0,0,0,0,-1,1119,631,0,0
-98,393,0,0,0,0,0,0,0,0,0,-1,1126,631,0,0
-91,393,0,0,0,0,0,0,0,0,0,-1,1133,631,0,0
-84,393,0,0,0,0,0,0,0,0,0,-1,1140,631,0,0
-77,393,0,0,0,0,0,0,0,0,0,-1,1147,631,0,0
-70,393,0,0,0,0,0,0,0,0,0,-1,1154,631,0,0
-63,393,0,0,0,0,0,0,0,0,0,-1,1161,631,0,0
-56,393,0,0,0,0,0,0,0,0,0,-1,1168,631,0,0
-49,393,0,0,0,0,0,0,0,0,0,-1,1175,631,0,0
-42,393,0,0,0,0,0,0,0,0,0,-1,1182,631,0,0
-35,393,0,0,0,0,0,0,0,0,0,-1,1189,631,0,0
-28,393,0,0,0,0,0,0,0,0,0,-1,1196,631,0,0
-21,393,0,0,0,0,0,0,0,0,0,-1,1203,631,0,0
-14,393,0,0,0,0,0,0,0,0,0,-1,1210,631,0,0
-7,393,0,0,0,0,0,0,0,0,0,-1,1217,631,0,0
0,393,0,0,0,0,0,0,0,0,0,-1,1224,631,0,0
7,393,0,0,0,0,0,0,0,0,0,-1,1231,631,0,0
14,393,0,0,0,0,0,0,0,0,0,-1,1238,631,0,0
21,393,0,0,0,0,0,0,0,0,0,-1,1245,631,0,0
28,393,0,0,0,0,0,0,0,0,0,-1,1252,631,0,0
35,393,0,0,0,0,0,0,0,0,0,-1,1259,631,0,0
42,393,0,0,0,0,0,0,0,0,0,-1,1266,631,0,0
49,393,0,0,0,0,0,0,0,0,0,-1,1273,631,0,0
56,393,0,0,0,0,0,0,0,0,0,-1,1280,631,0,0
63,393,0,0,0,0,0,0,0,0,0,-1,1287,631,0,0
70,393,0,0,0,0,0,0,0,0,0,-1,1294,631,0,0
77,393,0,0,0,0,0,0,0,0,0,-1,1301,631,0,0
84,393,0,0,0,0,0,0,0,0,0,-1,1308,631,0,0
91,393,0,0,0,0,0,0,0,0,0,-1,1315,631,0,0
98,393,0,0,0,0,0,0,0,0,0,-1,1322,631,0,0
105,393,0,0,0,0,0,0,0,0,0,-1,1329,631,0,0
112,393,0,0,0,0,0,0,0,0,0,-1,1336,631,0,0
119,393,0,0,0,0,0,0,0,0,0,-1,1343,631,0,0
126,393,0,0,0,0,0,0,0,0,0,-1,1350,631,0,0
133,393,0,0,0,0,0,0,0,0,0,-1,1357,631,0,0
140,393,0,0,0,0,0,0,0,0,0,-1,1364,631,0,0
147,393,0,0,0,0,0,0,0,0,0,-1,1371,631,0,0
154,393,0,0,0,0,0,0,0,0,0,-1,1378,631,0,0
161,393,0,0,0,0,0,0,0,0,0,-1,1385,631,0,0
168,393,0,0,0,0,0,0,0,0,0,-1,1392,631,0,0
175,393,0,0,0,0,0,0,0,0,0,-1,1399,631,0,0
182,393,0,0,0,0,0,0,0,0,0,-1,1406,631,0,0
189,393,0,0,0,0,0,0,0,0,0,-1,1413,631,0,0
196,393,0,0,0,0,0,0,0,0,0,-1,1420,631,0,0
203,393,0,0,0,0,0,0,0,0,0,-1,1427,631,0,0
210,393,0,0,0,0,0,0,0,0,0,-1,1434,631,0,0
217,393,0,0,0,0,0,0,0,0,0,-1,1441,631,0,0
224,393,0,0,0,0,0,0,0,0,0,-1,1448,631,0,0
231,393,0,0,0,0,0,0,0,0,0,-1,1455,631,0,0
238,393,0,0,0,0,0,0,0,0,0,-1,1462,631,0,0
245,393,0,0,0,0,0,0,0,0,0,-1,1469,631,0,0
252,393,0,0,0,0,0,0,0,0,0,-1,1476,631,0,0
259,393,0,0,0,0,0,0,0,0,0,-1,1483,631,0,0
266,393,0,0,0,0,0,0,0,0,0,-1,1490,631,0,0
273,393,0,0,0,0,0,0,0,0,0,-1,1497,631,0,0
280,393,0,0,0,0,0,0,0,0,0,-1,1504,631,0,0
287,393,0,0,0,0,0,0,0,0,0,-1,1511,631,0,0
294,393,0,0,0,0,0,0,0,0,0,-1,1518,631,0,0
301,393,0,0,0,0,0,0,0,0,0,-1,1525,631,0,0
308,393,0,0,0,0,0,0,0,0,0,-1,1532,631,0,0
315,393,0,0,0,0,0,0,0,0,0,-1,1539,631,0,0
322,393,0,0,0,0,0,0,0,0,0,-1,1546,631,0,0
329,393,0,0,0,0,0,0,0,0,0,-1,1553,631,0,0
336,393,0,0,0,0,0,0,0,0,0,-1,1560,631,0,0
343,393,0,0,0,0,0,0,0,0,0,-1,1567,631,0,0
350,393,0,0,0,0,0,0,0,0,0,-1,1574,631,0,0
357,393,0,0,0,0,0,0,0,0,0,-1,1581,631,0,0
364,393,0,0,0,0,0,0,0,0,0,-1,1588,631,0,0
371,393,0,0,0,0,0,0,0,0,0,-1,1595,631,0,0
378,393,0,0,0,0,0,0,0,0,0,-1,1602,631,0,0
385,393,0,0,0,0,0,0,0,0,0,-1,1609,631,0,0
392,393,0,0,0,0,0,0,0,0,0,-1,1616,631,0,0
399,393,0,0,0,0,0,0,0,0,0,-1,1623,631,0,0
406,393,0,0,0,0,0,0,0,0,0,-1,1630,631,0,0
413,393,0,0,0,0,0,0,0,0,0,-1,1637,631,0,0
420,393,0,0,0,0,0,0,0,0,0,-1,1644,631,0,0
427,393,0,0,0,0,0,0,0,0,0,-1,1651,631,0,0
434,393,0,0,0,0,0,0,0,0,0,-1,1658,631,0,0
441,393,0,0,0,0,0,0,0,0,0,-1,1665,631,0,0
448,393,0,0,0,0,0,0,0,0,0,-1,1672,631,0,0
455,393,0,0,0,0,0,0,0,0,0,-1,1679,631,0,0
462,393,8.51099,1.89502,0,0,0,0,0,0,0,-1,1686,631,8.51103,-1.89504
469,393,9.39465,1.51703,0,0,0,0,0,0,0,-1,1693,631,9.39465,-1.51703
476,393,9.95569,1.185,0,0,0,0,0,0,0,-1,1700,631,9.95575,-1.18497
483,393,10.5267,0.887329,0,0,0,0,0,0,0,-1,1707,631,10.5267,-0.887321
490,393,10.9303,0.761414,0,0,0,0,0,0,0,-1,1714,631,10.9303,-0.761386
497,393,8.32153,1.88104,0,0,0,0,0,0,0,-1,1721,631,8.32148,-1.88103
504,393,9.46985,1.78711,0,0,0,0,0,0,0,-1,1728,631,9.46986,-1.78713
511,393,9.66565,-0.375977,0,0,0,0,0,0,0,-1,1735,631,9.66571,0.375949
518,393,7.01599,1.62482,0,0,0,0,0,0,0,-1,1742,631,7.01597,-1.62483
525,393,7.88245,-1.13422,0,0,0,0,0,0,0,-1,1749,631,7.88246,1.13423
532,393,7.06335,-1.18103,0,0,0,0,0,0,0,-1,1756,631,7.06332,1.18101
539,393,8.57837,-2.05566,0,0,0,0,0,0,0,-1,1763,631,8.57834,2.05566
546,393,8.41541,-1.97211,-0.00493573,-0.00342189,-0.00353851,-0.000560252,-0.00779738,-0.890765,0.00502193,0.0419462,1770,631,8.41535,1.97211
553,393,8.21753,-1.93976,-0.00441728,-0.00266064,-0.00306014,-0.000355267,-0.00672265,-0.925151,0.00436817,0.017725,1777,631,8.21753,1.93978
560,393,8.18774,-1.69952,-0.00376108,-0.00221826,-0.0026613,-0.000218828,-0.00576051,-0.926464,0.00376952,0.0131702,1784,631,8.18777,1.69955
567,393,8.17139,-1.46686,-0.00311019,-0.00178029,-0.00223055,-0.000117686,-0.00477279,-0.930259,0.00314337,0.0137939,1791,631,8.17137,1.46687
574,393,8.18298,-1.255,-0.00227585,-0.00135476,-0.00168846,-6.51628e-05,-0.00356545,-0.918539,0.00235555,0.0157773,1798,631,8.18298,1.25501
581,393,8.17786,-1.0127,-0.00132854,-0.000873611,-0.00111018,3.21675e-05,-0.00223432,-0.886445,0.00150038,0.0140823,1805,631,8.17785,1.0127
588,393,8.15381,-0.790894,-0.000442832,-0.000356486,-0.000507293,0.000109468,-0.000908786,-0.827848,0.000645448,0.0148158,1812,631,8.15386,0.790876
595,393,8.16943,-0.621582,0.000417966,2.39622e-05,1.30852e-05,0.0004184,2.35282e-05,0.0331621,0.000271431,0.0128698,1819,631,8.16942,0.621601
602,393,8.17786,-0.421936,0.00121891,0.0005635,0.000572063,0.00155048,0.000231928,0.52529,0.000965675,0.0143492,1826,631,8.17789,0.421925
609,393,8.16711,-0.188232,0.001693,0.000786631,0.0010005,0.00233817,0.000141466,0.572742,0.00151383,0.0145136,1833,631,8.16705,0.18822
616,393,8.14417,0.0528564,0.00188843,0.00141454,0.00159892,0.00326786,3.51053e-05,0.711837,0.00216697,0.0152092,1840,631,8.14414,-0.0528493
623,393,8.16174,0.336304,0.00202418,0.00189485,0.0019571,0.00391769,1.35181e-06,0.768884,0.00261134,0.0199489,1847,631,8.16174,-0.336311
630,393,8.29871,0.590881,0.0019946,0.00260888,0.00207895,0.00440326,0.000200227,0.858736,0.00287109,0.0349244,1854,631,8.29875,-0.590891
637,393,8.36206,0.891724,0,0,0,0,0,0,0,-1,1861,631,8.36205,-0.891698
644,393,7.89929,0.690796,0,0,0,0,0,0,0,-1,1868,631,7.89935,-0.690818
651,393,8.1178,0.731689,0,0,0,0,0,0,0,-1,1875,631,8.11776,-0.7317
658,393,8.80725,1.08337,0,0,0,0,0,0,0,-1,1882,631,8.80725,-1.08336
665,393,6.1001,2.32129,0,0,0,0,0,0,0,-1,1889,631,6.10012,-2.3213
672,393,7.14575,2.43225,0,0,0,0,0,0,0,-1,1896,631,7.14572,-2.43222
679,393,0,0,0,0,0,0,0,0,0,-1,1903,631,0,0
686,393,0,0,0,0,0,0,0,0,0,-1,1910,631,0,0
693,393,0,0,0,0,0,0,0,0,0,-1,1917,631,0,0
700,393,0,0,0,0,0,0,0,0,0,-1,1924,631,0,0
707,393,0,0,0,0,0,0,0,0,0,-1,1931,631,0,0
714,393,0,0,0,0,0,0,0,0,0,-1,1938,631,0,0
721,393,0,0,0,0,0,0,0,0,0,-1,1945,631,0,0
728,393,0,0,0,0,0,0,0,0,0,-1,1952,631,0,0
735,393,0,0,0,0,0,0,0,0,0,-1,1959,631,0,0
742,393,0,0,0,0,0,0,0,0,0,-1,1966,631,0,0
749,393,0,0,0,0,0,0,0,0,0,-1,1973,631,0,0
756,393,0,0,0,0,0,0,0,0,0,-1,1980,631,0,0
763,393,0,0,0,0,0,0,0,0,0,-1,1987,631,0,0
770,393,0,0,0,0,0,0,0,0,0,-1,1994,631,0,0
777,393,0,0,0,0,0,0,0,0,0,-1,2001,631,0,0
784,393,0,0,0,0,0,0,0,0,0,-1,2008,631,0,0
791,393,0,0,0,0,0,0,0,0,0,-1,2015,631,0,0
798,393,0,0,0,0,0,0,0,0,0,-1,2022,631,0,0
805,393,0,0,0,0,0,0,0,0,0,-1,2029,631,0,0
812,393,0,0,0,0,0,0,0,0,0,-1,2036,631,0,0
-700,386,0,0,0,0,0,0,0,0,0,-1,524,638,0,0
-693,386,0,0,0,0,0,0,0,0,0,-1,531,638,0,0
-686,386,0,0,0,0,0,0,0,0,0,-1,538,638,0,0
-679,386,0,0,0,0,0,0,0,0,0,-1,545,638,0,0
-672,386,0,0,0,0,0,0,0,0,0,-1,552,638,0,0
-665,386,0,0,0,0,0,0,0,0,0,-1,559,638,0,0
-658,386,0,0,0,0,0,0,0,0,0,-1,566,638,0,0
-651,386,0,0,0,0,0,0,0,0,0,-1,573,638,0,0
-644,386,0,0,0,0,0,0,0,0,0,-1,580,638,0,0
-637,386,0,0,0,0,0,0,0,0,0,-1,587,638,0,0
-630,386,0,0,0,0,0,0,0,0,0,-1,594,638,0,0
-623,386,0,0,0,0,0,0,0,0,0,-1,601,638,0,0
-616,386,0,0,0,0,0,0,0,0,0,-1,608,638,0,0
-609,386,0,0,0,0,0,0,0,0,0,-1,615,638,0,0
-602,386,0,0,0,0,0,0,0,0,0,-1,622,638,0,0
-595,386,0,0,0,0,0,0,0,0,0,-1,629,638,0,0
-588,386,0,0,0,0,0,0,0,0,0,-1,636,638,0,0
-581,386,0,0,0,0,0,0,0,0,0,-1,643,638,0,0
-574,386,0,0,0,0,0,0,0,0,0,-1,650,638,0,0
-567,386,0,0,0,0,0,0,0,0,0,-1,657,638,0,0
-560,386,-10.2253,-1.93317,0,0,0,0,0,0,0,-1,664,638,-10.2253,1.93315
-553,386,-8.2019,-1.9751,0,0,0,0,0,0,0,-1,671,638,-8.20189,1.97511
-546,386,-6.20306,-2.06024,0,0,0,0,0,0,0,-1,678,638,-6.20306,2.06022
-539,386,-4.55408,-1.92218,0,0,0,0,0,0,0,-1,685,638,-4.55405,1.92218
-532,386,-4.69666,1.55145,0,0,0,0,0,0,0,-1,692,638,-4.69665,-1.55145
-525,386,-3.65729,0.225037,0,0,0,0,0,0,0,-1,699,638,-3.65726,-0.225043
-518,386,-3.7345,-1.16858,0,0,0,0,0,0,0,-1,706,638,-3.73452,1.16858
-511,386,-3.54663,-1.25134,0.00102808,0.00463337,-0.00497095,0.00811843,-0.00245698,-0.959342,0.00639071,0.0429186,713,638,-3.54661,1.25136
-504,386,-3.58514,-1.32538,0.000458879,0.00286861,-0.00297706,0.00487538,-0.00154788,-0.977682,0.00387079,0.0248691,720,638,-3.58511,1.32541
-497,386,-3.6532,-1.48218,0.000219975,0.00182848,-0.00160403,0.00281859,-0.000770133,-1.01778,0.00218156,0.0118297,727,638,-3.6532,1.48216
-490,386,-3.63123,-1.68976,0.00027176,0.000777721,-0.000842987,0.00140487,-0.000355388,-0.931172,0.00107481,0.0128968,734,638,-3.6312,1.68978
-483,386,-3.60425,-1.89069,0.000422422,0.000139418,-0.000497811,0.000798451,-0.000236612,-0.646926,0.000626253,0.0164598,741,638,-3.60426,1.89068
-476,386,-3.6106,-2.07312,0.000693986,-0.000137065,-0.000436443,0.000881074,-0.000324154,-0.404972,0.000720176,0.0150303,748,638,-3.61061,2.07309
-469,386,-3.6358,-2.26111,0.000885868,-0.000475794,-0.000239297,0.000926697,-0.000516624,-0.168995,0.000844438,0.0115367,755,638,-3.63578,2.26109
-462,386,-3.63593,-2.48547,0.000825175,-0.000574167,-0.000265041,0.000873693,-0.000622685,-0.181053,0.000867976,0.0105717,762,638,-3.63592,2.48546
-455,386,-3.64996,-2.6944,0.000466023,-0.000612912,-4.52901e-05,0.000467921,-0.000614809,-0.0418784,0.000627029,0.0121135,769,638,-3.64996,2.69437
-448,386,-3.64392,-2.88275,0.00025766,-0.00119799,0.000388309,0.000354768,-0.0012951,0.245051,0.0010028,0.0127139,776,638,-3.64393,2.88273
-441,386,-3.65228,-3.06482,-0.000677034,-0.00189987,0.00120243,6.04958e-05,-0.0026374,0.550191,0.00177878,0.0121593,783,638,-3.65231,3.0648
-434,386,-3.61774,-3.29138,-0.00178784,-0.00302987,0.00240136,7.15058e-05,-0.00488922,0.658866,0.00328358,0.0182466,790,638,-3.61773,3.29138
-427,386,-3.54486,-3.48328,-0.00319831,-0.00413414,0.00394286,0.000304302,-0.00763676,0.726337,0.00519558,0.0422106,797,638,-3.54489,3.48327
-420,386,-3.78271,-3.4082,-0.00653131,-0.00861208,0.00804881,0.000544079,-0.0156875,0.721125,0.0106443,0.0435161,804,638,-3.78274,3.40818
-413,386,-3.93481,-3.72693,0,0,0,0,0,0,0,-1,811,638,-3.9348,3.72692
-406,386,-4.51135,-4.10999,0,0,0,0,0,0,0,-1,818,638,-4.51135,4.10996
-399,386,-3.57117,-3.42126,0,0,0,0,0,0,0,-1,825,638,-3.57116,3.42129
-392,386,-4.00977,0.403625,0,0,0,0,0,0,0,-1,832,638,-4.0098,-0.403616
-385,386,-3.2406,-0.118469,0,0,0,0,0,0,0,-1,839,638,-3.24058,0.118485
-378,386,-2.55243,-1.22748,0,0,0,0,0,0,0,-1,846,638,-2.55243,1.22748
-371,386,-7.95807,-0.330261,0,0,0,0,0,0,0,-1,853,638,-7.95806,0.330284
-364,386,-8.90637,-0.665955,0,0,0,0,0,0,0,-1,860,638,-8.90635,0.665951
-357,386,-9.10364,-0.388733,0,0,0,0,0,0,0,-1,867,638,-9.10364,0.388744
-350,386,0,0,0,0,0,0,0,0,0,-1,874,638,0,0
-343,386,0,0,0,0,0,0,0,0,0,-1,881,638,0,0
-336,386,0,0,0,0,0,0,0,0,0,-1,888,638,0,0
-329,386,0,0,0,0,0,0,0,0,0,-1,895,638,0,0
-322,386,0,0,0,0,0,0,0,0,0,-1,902,638,0,0
-315,386,0,0,0,0,0,0,0,0,0,-1,909,638,0,0
-308,386,0,0,0,0,0,0,0,0,0,-1,916,638,0,0
-301,386,0,0,0,0,0,0,0,0,0,-1,923,638,0,0
-294,386,0,0,0,0,0,0,0,0,0,-1,930,638,0,0
-287,386,0,0,0,0,0,0,0,0,0,-1,937,638,0,0
-280,386,0,0,0,0,0,0,0,0,0,-1,944,638,0,0
-273,386,0,0,0,0,0,0,0,0,0,-1,951,638,0,0
-266,386,0,0,0,0,0,0,0,0,0,-1,958,638,0,0
-259,386,0,0,0,0,0,0,0,0,0,-1,965,638,0,0
-252,386,0,0,0,0,0,0,0,0,0,-1,972,638,0,0
-245,386,0,0,0,0,0,0,0,0,0,-1,979,638,0,0
-238,386,0,0,0,0,0,0,0,0,0,-1,986,638,0,0
-231,386,0,0,0,0,0,0,0,0,0,-1,993,638,0,0
-224,386,0,0,0,0,0,0,0,0,0,-1,1000,638,0,0
-217,386,0,0,0,0,0,0,0,0,0,-1,1007,638,0,0
-210,386,0,0,0,0,0,0,0,0,0,-1,1014,638,0,0
-203,386,0,0,0,0,0,0,0,0,0,-1,1021,638,0,0
-196,386,0,0,0,0,0,0,0,0,0,-1,1028,638,0,0
-189,386,0,0,0,0,0,0,0,0,0,-1,1035,638,0,0
-182,386,0,0,0,0,0,0,0,0,0,-1,1042,638,0,0
-175,386,0,0,0,0,0,0,0,0,0,-1,1049,638,0,0
-168,386,0,0,0,0,0,0,0,0,0,-1,1056,638,0,0
-161,386,0,0,0,0,0,0,0,0,0,-1,1063,638,0,0
-154,386,0,0,0,0,0,0,0,0,0,-1,1070,638,0,0
-147,386,0,0,0,0,0,0,0,0,0,-1,1077,638,0,0
-140,386,0,0,0,0,0,0,0,0,0,-1,1084,638,0,0
-133,386,0,0,0,0,0,0,0,0,0,-1,1091,638,0,0
-126,386,0,0,0,0,0,0,0,0,0,-1,1098,638,0,0
-119,386,0,0,0,0,0,0,0,0,0,-1,1105,638,0,0
-112,386,0,0,0,0,0,0,0,0,0,-1,1112,638,0,0
-105,386,0,0,0,0,0,0,0,0,0,-1,1119,638,0,0
-98,386,0,0,0,0,0,0,0,0,0,-1,1126,638,0,0
-91,386,0,0,0,0,0,0,0,0,0,-1,1133,638,0,0
-84,386,0,0,0,0,0,0,0,0,0,-1,1140,638,0,0
-77,386,0,0,0,0,0,0,0,0,0,-1,1147,638,0,0
-70,386,0,0,0,0,0,0,0,0,0,-1,1154,638,0,0
-63,386,0,0,0,0,0,0,0,0,0,-1,1161,638,0,0
-56,386,0,0,0,0,0,0,0,0,0,-1,1168,638,0,0
-49,386,0,0,0,0,0,0,0,0,0,-1,1175,638,0,0
-42,386,0,0,0,0,0,0,0,0,0,-1,1182,638,0,0
-35,386,0,0,0,0,0,0,0,0,0,-1,1189,638,0,0
-28,386,0,0,0,0,0,0,0,0,0,-1,1196,638,0,0
-21,386,0,0,0,0,0,0,0,0,0,-1,1203,638,0,0
-14,386,0,0,0,0,0,0,0,0,0,-1,1210,638,0,0
-7,386,0,0,0,0,0,0,0,0,0,-1,1217,638,0,0
0,386,0,0,0,0,0,0,0,0,0,-1,1224,638,0,0
7,386,0,0,0,0,0,0,0,0,0,-1,1231,638,0,0
14,386,0,0,0,0,0,0,0,0,0,-1,1238,638,0,0
21,386,0,0,0,0,0,0,0,0,0,-1,1245,638,0,0
28,386,0,0,0,0,0,0,0,0,0,-1,1252,638,0,0
35,386,0,0,0,0,0,0,0,0,0,-1,1259,638,0,0
42,386,0,0,0,0,0,0,0,0,0,-1,1266,638,0,0
49,386,0,0,0,0,0,0,0,0,0,-1,1273,638,0,0
56,386,0,0,0,0,0,0,0,0,0,-1,1280,638,0,0
63,386,0,0,0,0,0,0,0,0,0,-1,1287,638,0,0
70,386,0,0,0,0,0,0,0,0,0,-1,1294,638,0,0
77,386,0,0,0,0,0,0,0,0,0,-1,1301,638,0,0
84,386,0,0,0,0,0,0,0,0,0,-1,1308,638,0,0
91,386,0,0,0,0,0,0,0,0,0,-1,1315,638,0,0
98,386,0,0,0,0,0,0,0,0,0,-1,1322,638,0,0
105,386,0,0,0,0,0,0,0,0,0,-1,1329,638,0,0
112,386,0,0,0,0,0,0,0,0,0,-1,1336,638,0,0
119,386,0,0,0,0,0,0,0,0,0,-1,1343,638,0,0
126,386,0,0,0,0,0,0,0,0,0,-1,1350,638,0,0
133,386,0,0,0,0,0,0,0,0,0,-1,1357,638,0,0
140,386,0,0,0,0,0,0,0,0,0,-1,1364,638,0,0
147,386,0,0,0,0,0,0,0,0,0,-1,1371,638,0,0
154,386,0,0,0,0,0,0,0,0,0,-1,1378,638,0,0
161,386,0,0,0,0,0,0,0,0,0,-1,1385,638,0,0
168,386,0,0,0,0,0,0,0,0,0,-1,1392,638,0,0
175,386,0,0,0,0,0,0,0,0,0,-1,1399,638,0,0
182,386,0,0,0,0,0,0,0,0,0,-1,1406,638,0,0
189,386,0,0,0,0,0,0,0,0,0,-1,1413,638,0,0
196,386,0,0,0,0,0,0,0,0,0,-1,1420,638,0,0
203,386,0,0,0,0,0,0,0,0,0,-1,1427,638,0,0
210,386,0,0,0,0,0,0,0,0,0,-1,1434,638,0,0
217,386,0,0,0,0,0,0,0,0,0,-1,1441,638,0,0
224,386,0,0,0,0,0,0,0,0,0,-1,1448,638,0,0
231,386,0,0,0,0,0,0,0,0,0,-1,1455,638,0,0
238,386,0,0,0,0,0,0,0,0,0,-1,1462,638,0,0
245,386,0,0,0,0,0,0,0,0,0,-1,1469,638,0,0
252,386,0,0,0,0,0,0,0,0,0,-1,1476,638,0,0
259,386,0,0,0,0,0,0,0,0,0,-1,1483,638,0,0
266,386,0,0,0,0,0,0,0,0,0,-1,1490,638,0,0
273,386,0,0,0,0,0,0,0,0,0,-1,1497,638,0,0
280,386,0,0,0,0,0,0,0,0,0,-1,1504,638,0,0
287,386,0,0,0,0,0,0,0,0,0,-1,1511,638,0,0
294,386,0,0,0,0,0,0,0,0,0,-1,1518,638,0,0
301,386,0,0,0,0,0,0,0,0,0,-1,1525,638,0,0
308,386,0,0,0,0,0,0,0,0,0,-1,1532,638,0,0
315,386,0,0,0,0,0,0,0,0,0,-1,1539,638,0,0
322,386,0,0,0,0,0,0,0,0,0,-1,1546,638,0,0
329,386,0,0,0,0,0,0,0,0,0,-1,1553,638,0,0
336,386,0,0,0,0,0,0,0,0,0,-1,1560,638,0,0
343,386,0,0,0,0,0,0,0,0,0,-1,1567,638,0,0
350,386,0,0,0,0,0,0,0,0,0,-1,1574,638,0,0
357,386,0,0,0,0,0,0,0,0,0,-1,1581,638,0,0
364,386,0,0,0,0,0,0,0,0,0,-1,1588,638,0,0
371,386,0,0,0,0,0,0,0,0,0,-1,1595,638,0,0
378,386,0,0,0,0,0,0,0,0,0,-1,1602,638,0,0
385,386,0,0,0,0,0,0,0,0,0,-1,1609,638,0,0
392,386,0,0,0,0,0,0,0,0,0,-1,1616,638,0,0
399,386,0,0,0,0,0,0,0,0,0,-1,1623,638,0,0
406,386,0,0,0,0,0,0,0,0,0,-1,1630,638,0,0
413,386,0,0,0,0,0,0,0,0,0,-1,1637,638,0,0
420,386,0,0,0,0,0,0,0,0,0,-1,1644,638,0,0
427,386,0,0,0,0,0,0,0,0,0,-1,1651,638,0,0
434,386,0,0,0,0,0,0,0,0,0,-1,1658,638,0,0
441,386,0,0,0,0,0,0,0,0,0,-1,1665,638,0,0
448,386,0,0,0,0,0,0,0,0,0,-1,1672,638,0,0
455,386,0,0,0,0,0,0,0,0,0,-1,1679,638,0,0
462,386,0,0,0,0,0,0,0,0,0,-1,1686,638,0,0
469,386,9.84692,1.55804,0,0,0,0,0,0,0,-1,1693,638,9.84691,-1.55807
476,386,10.6145,0.986511,0,0,0,0,0,0,0,-1,1700,638,10.6145,-0.986529
483,386,11.4113,0.732971,0,0,0,0,0,0,0,-1,1707,638,11.4112,-0.732958
490,386,7.79785,1.79572,0,0,0,0,0,0,0,-1,1714,638,7.79788,-1.7957
497,386,8.96362,1.77081,0,0,0,0,0,0,0,-1,1721,638,8.96357,-1.77081
504,386,10.0555,1.69427,0,0,0,0,0,0,0,-1,1728,638,10.0555,-1.69426
511,386,11.2172,1.534,0,0,0,0,0,0,0,-1,1735,638,11.2172,-1.53398
518,386,7.41553,1.75238,0,0,0,0,0,0,0,-1,1742,638,7.41547,-1.75238
525,386,8.82422,-1.1449,0,0,0,0,0,0,0,-1,1749,638,8.82426,1.14492
532,386,10.6432,0.617371,0,0,0,0,0,0,0,-1,1756,638,10.6432,-0.617359
539,386,9.62061,-0.393616,0,0,0,0,0,0,0,-1,1763,638,9.62059,0.393634
546,386,8.47876,-1.99207,0,0,0,0,0,0,0,-1,1770,638,8.47876,1.99208
553,386,8.51465,-1.8053,0.0051676,0.00156055,-0.000962002,0.00540813,0.00132002,-0.245005,0.00325587,0.0416668,1777,638,8.51462,1.80531
560,386,8.46521,-1.63708,0.00165223,0.000146545,-0.00168214,0.00274231,-0.000943531,-0.57499,0.00221088,0.0289995,1784,638,8.46517,1.63709
567,386,8.39001,-1.4389,-0.000386276,-0.000657,-0.00193996,0.00142304,-0.00246632,-0.750567,0.00227229,0.0187636,1791,638,8.39005,1.43889
574,386,8.40698,-1.2406,-0.00123119,-0.000978467,-0.00181552,0.000715085,-0.00292474,-0.820142,0.00222679,0.0138106,1798,638,8.407,1.24058
581,386,8.38074,-1.04315,-0.00152019,-0.000981512,-0.00153172,0.000304371,-0.00280607,-0.872428,0.00197998,0.0132862,1805,638,8.38073,1.04317
588,386,8.38257,-0.834717,-0.00111937,-0.000737829,-0.00104888,0.000137483,-0.00199469,-0.875356,0.00137791,0.0115546,1812,638,8.38254,0.83473
595,386,8.38074,-0.650452,-0.000384321,-0.000405524,-0.000514013,0.0001192,-0.000909045,-0.775087,0.00064942,0.0125131,1819,638,8.38076,0.650444
602,386,8.38,-0.4375,0.000467007,0.000203601,7.79022e-05,0.000488322,0.000182286,0.267072,0.000284934,0.0143956,1826,638,8.37998,0.437493
609,386,8.40723,-0.197388,0.000943569,0.000480594,0.000501448,0.00126438,0.000159781,0.569153,0.000795031,0.0144241,1833,638,8.40725,0.19736
616,386,8.4054,0.0484009,0.00113402,0.00113886,0.00105887,0.00219531,7.75739e-05,0.786541,0.00143838,0.0119601,1840,638,8.4054,-0.0484028
623,386,8.37952,0.28186,0.00121936,0.00161715,0.00133233,0.00276536,7.11582e-05,0.859493,0.00182031,0.0111419,1847,638,8.37948,-0.281856
630,386,8.4502,0.474792,0.00116471,0.0022495,0.00138735,0.00319672,0.000217496,0.971742,0.00206247,0.0193195,1854,638,8.45014,-0.474779
637,386,8.4342,0.672058,0.000330263,0.00243074,0.00123719,0.00300335,-0.000242348,1.13732,0.00208771,0.0332572,1861,638,8.4342,-0.672069
644,386,8.15356,0.733093,-0.000657493,0.00313236,0.00120786,0.00348458,-0.00100971,1.28706,0.00272277,0.0409451,1868,638,8.15354,-0.733105
651,386,8.19727,1.06641,0,0,0,0,0,0,0,-1,1875,638,8.19729,-1.06643
658,386,8.39465,1.42334,0,0,0,0,0,0,0,-1,1882,638,8.39466,-1.42334
665,386,6.33167,1.78601,0,0,0,0,0,0,0,-1,1889,638,6.33171,-1.78601
672,386,7.23352,2.14435,0,0,0,0,0,0,0,-1,1896,638,7.23353,-2.14433
679,386,8.07764,2.57104,0,0,0,0,0,0,0,-1,1903,638,8.07758,-2.57103
686,386,0,0,0,0,0,0,0,0,0,-1,1910,638,0,0
693,386,0,0,0,0,0,0,0,0,0,-1,1917,638,0,0
700,386,0,0,0,0,0,0,0,0,0,-1,1924,638,0,0
707,386,0,0,0,0,0,0,0,0,0,-1,1931,638,0,0
714,386,0,0,0,0,0,0,0,0,0,-1,1938,638,0,0
721,386,0,0,0,0,0,0,0,0,0,-1,1945,638,0,0
728,386,0,0,0,0,0,0,0,0,0,-1,1952,638,0,0
735,386,0,0,0,0,0,0,0,0,0,-1,1959,638,0,0
742,386,0,0,0,0,0,0,0,0,0,-1,1966,638,0,0
749,386,0,0,0,0,0,0,0,0,0,-1,1973,638,0,0
756,386,0,0,0,0,0,0,0,0,0,-1,1980,638,0,0
763,386,0,0,0,0,0,0,0,0,0,-1,1987,638,0,0
770,386,0,0,0,0,0,0,0,0,0,-1,1994,638,0,0
777,386,0,0,0,0,0,0,0,0,0,-1,2001,638,0,0
784,386,0,0,0,0,0,0,0,0,0,-1,2008,638,0,0
791,386,0,0,0,0,0,0,0,0,0,-1,2015,638,0,0
798,386,0,0,0,0,0,0,0,0,0,-1,2022,638,0,0
805,386,0,0,0,0,0,0,0,0,0,-1,2029,638,0,0
812,386,0,0,0,0,0,0,0,0,0,-1,2036,638,0,0
-700,379,0,0,0,0,0,0,0,0,0,-1,524,645,0,0
-693,379,0,0,0,0,0,0,0,0,0,-1,531,645,0,0
-686,379,0,0,0,0,0,0,0,0,0,-1,538,645,0,0
-679,379,0,0,0,0,0,0,0,0,0,-1,545,645,0,0
-672,379,0,0,0,0,0,0,0,0,0,-1,552,645,0,0
-665,379,0,0,0,0,0,0,0,0,0,-1,559,645,0,0
-658,379,0,0,0,0,0,0,0,0,0,-1,566,645,0,0
-651,379,0,0,0,0,0,0,0,0,0,-1,573,645,0,0
-644,379,0,0,0,0,0,0,0,0,0,-1,580,645,0,0
-637,379,0,0,0,0,0,0,0,0,0,-1,587,645,0,0
-630,379,0,0,0,0,0,0,0,0,0,-1,594,645,0,0
-623,379,0,0,0,0,0,0,0,0,0,-1,601,645,0,0
-616,379,0,0,0,0,0,0,0,0,0,-1,608,645,0,0
-609,379,0,0,0,0,0,0,0,0,0,-1,615,645,0,0
-602,379,0,0,0,0,0,0,0,0,0,-1,622,645,0,0
-595,379,0,0,0,0,0,0,0,0,0,-1,629,645,0,0
-588,379,0,0,0,0,0,0,0,0,0,-1,636,645,0,0
-581,379,0,0,0,0,0,0,0,0,0,-1,643,645,0,0
-574,379,0,0,0,0,0,0,0,0,0,-1,650,645,0,0
-567,379,-3.03668,1.70319,0,0,0,0,0,0,0,-1,657,645,-3.03668,-1.70321
-560,379,-2.12341,1.35992,0,0,0,0,0,0,0,-1,664,645,-2.12338,-1.35994
-553,379,-4.21802,-1.53235,0,0,0,0,0,0,0,-1,671,645,-4.21804,1.53235
-546,379,-3.03107,-0.732483,0,0,0,0,0,0,0,-1,678,645,-3.03105,0.732484
-539,379,-4.17548,-1.83258,0,0,0,0,0,0,0,-1,685,645,-4.17549,1.83255
-532,379,-3.75507,0.731812,0,0,0,0,0,0,0,-1,692,645,-3.75508,-0.731784
-525,379,-3.83228,0.00390625,0.0032185,0.0107292,-0.0106587,0.0182748,-0.00432705,-0.954772,0.0138527,0.045526,699,645,-3.83226,-0.00393151
-518,379,-3.83539,-0.883789,0.00167193,0.00726215,-0.00705427,0.0120549,-0.0031208,-0.974024,0.00925396,0.0430483,706,645,-3.83538,0.883799
-511,379,-3.74805,-1.18335,0.000647787,0.00474892,-0.00442975,0.00757969,-0.00218299,-1.00217,0.00591659,0.0272547,713,645,-3.74807,1.18334
-504,379,-3.80817,-1.33289,8.03401e-05,0.00291406,-0.00260357,0.00446133,-0.00146693,-1.03459,0.00356526,0.0148559,720,645,-3.80814,1.33287
-497,379,-3.83801,-1.48425,-0.000171977,0.00176902,-0.00133073,0.00244555,-0.000848505,-1.10046,0.00197492,0.0104639,727,645,-3.83801,1.48426
-490,379,-3.82977,-1.67053,-9.82175e-05,0.000589319,-0.000588679,0.000927254,-0.000436152,-1.04967,0.000804005,0.0114005,734,645,-3.82975,1.67054
-483,379,-3.82562,-1.8783,0.00013482,-0.000181082,-0.000252141,0.000274398,-0.000320661,-0.505581,0.000343903,0.012767,741,645,-3.82564,1.87829
-476,379,-3.82123,-2.05237,0.00050408,-0.000573686,-0.000197067,0.000538983,-0.000608589,-0.175294,0.000662957,0.0124924,748,645,-3.82122,2.05234
-469,379,-3.83966,-2.2323,0.000818642,-0.000981034,-5.36747e-05,0.000820242,-0.000982634,-0.0297893,0.0010423,0.0110091,755,645,-3.83965,2.23228
-462,379,-3.8515,-2.46191,0.000912722,-0.00114043,-0.000156255,0.000924546,-0.00115225,-0.0755254,0.00120144,0.00833989,762,645,-3.85148,2.46193
-455,379,-3.85474,-2.67853,0.000679948,-0.00122711,1.28921e-05,0.000680035,-0.0012272,0.00675979,0.00111615,0.00926516,769,645,-3.85471,2.67854
-448,379,-3.83765,-2.85968,0.000537553,-0.00188335,0.000458292,0.000621406,-0.0019672,0.180967,0.00156041,0.0117071,776,645,-3.83764,2.85969
-441,379,-3.82599,-3.07733,-0.000414025,-0.00269927,0.00132557,0.00019342,-0.00330671,0.429693,0.0022717,0.0145414,783,645,-3.82596,3.07735
-434,379,-3.65973,-3.31268,-0.00154512,-0.00398285,0.00260192,0.000109281,-0.00563725,0.566353,0.00379512,0.0409405,790,645,-3.65973,3.31266
-427,379,-3.82251,-2.78784,0,0,0,0,0,0,0,-1,797,645,-3.82251,2.78784
-420,379,-4.33594,-3.28741,0,0,0,0,0,0,0,-1,804,645,-4.33593,3.28744
-413,379,-4.84937,-3.78705,0,0,0,0,0,0,0,-1,811,645,-4.84935,3.78704
-406,379,-4.64063,-4.38489,0,0,0,0,0,0,0,-1,818,645,-4.64065,4.3849
-399,379,-2.93536,-1.40118,0,0,0,0,0,0,0,-1,825,645,-2.93534,1.40119
-392,379,-4.16711,-0.466003,0,0,0,0,0,0,0,-1,832,645,-4.16714,0.465992
-385,379,-3.51862,0.441101,0,0,0,0,0,0,0,-1,839,645,-3.51859,-0.441072
-378,379,-5.3504,0.212219,0,0,0,0,0,0,0,-1,846,645,-5.35038,-0.212241
-371,379,-4.32092,-0.186707,0,0,0,0,0,0,0,-1,853,645,-4.3209,0.186707
-364,379,-3.40887,-0.549805,0,0,0,0,0,0,0,-1,860,645,-3.4089,0.549802
-357,379,0,0,0,0,0,0,0,0,0,-1,867,645,0,0
-350,379,0,0,0,0,0,0,0,0,0,-1,874,645,0,0
-343,379,0,0,0,0,0,0,0,0,0,-1,881,645,0,0
-336,379,0,0,0,0,0,0,0,0,0,-1,888,645,0,0
-329,379,0,0,0,0,0,0,0,0,0,-1,895,645,0,0
-322,379,0,0,0,0,0,0,0,0,0,-1,902,645,0,0
-315,379,0,0,0,0,0,0,0,0,0,-1,909,645,0,0
-308,379,0,0,0,0,0,0,0,0,0,-1,916,645,0,0
-301,379,0,0,0,0,0,0,0,0,0,-1,923,645,0,0
-294,379,0,0,0,0,0,0,0,0,0,-1,930,645,0,0
-287,379,0,0,0,0,0,0,0,0,0,-1,937,645,0,0
-280,379,0,0,0,0,0,0,0,0,0,-1,944,645,0,0
-273,379,0,0,0,0,0,0,0,0,0,-1,951,645,0,0
-266,379,0,0,0,0,0,0,0,0,0,-1,958,645,0,0
-259,379,0,0,0,0,0,0,0,0,0,-1,965,645,0,0
-252,379,0,0,0,0,0,0,0,0,0,-1,972,645,0,0
-245,379,0,0,0,0,0,0,0,0,0,-1,979,645,0,0
-238,379,0,0,0,0,0,0,0,0,0,-1,986,645,0,0
-231,379,0,0,0,0,0,0,0,0,0,-1,993,645,0,0
-224,379,0,0,0,0,0,0,0,0,0,-1,1000,645,0,0
-217,379,0,0,0,0,0,0,0,0,0,-1,1007,645,0,0
-210,379,0,0,0,0,0,0,0,0,0,-1,1014,645,0,0
-203,379,0,0,0,0,0,0,0,0,0,-1,1021,645,0,0
-196,379,0,0,0,0,0,0,0,0,0,-1,1028,645,0,0
-189,379,0,0,0,0,0,0,0,0,0,-1,1035,645,0,0
-182,379,0,0,0,0,0,0,0,0,0,-1,1042,645,0,0
-175,379,0,0,0,0,0,0,0,0,0,-1,1049,645,0,0
-168,379,0,0,0,0,0,0,0,0,0,-1,1056,645,0,0
-161,379,0,0,0,0,0,0,0,0,0,-1,1063,645,0,0
-154,379,0,0,0,0,0,0,0,0,0,-1,1070,645,0,0
-147,379,0,0,0,0,0,0,0,0,0,-1,1077,645,0,0
-140,379,0,0,0,0,0,0,0,0,0,-1,1084,645,0,0
-133,379,0,0,0,0,0,0,0,0,0,-1,1091,645,0,0
-126,379,0,0,0,0,0,0,0,0,0,-1,1098,645,0,0
-119,379,0,0,0,0,0,0,0,0,0,-1,1105,645,0,0
-112,379,0,0,0,0,0,0,0,0,0,-1,1112,645,0,0
-105,379,0,0,0,0,0,0,0,0,0,-1,1119,645,0,0
-98,379,0,0,0,0,0,0,0,0,0,-1,1126,645,0,0
-91,379,0,0,0,0,0,0,0,0,0,-1,1133,645,0,0
-84,379,0,0,0,0,0,0,0,0,0,-1,1140,645,0,0
-77,379,0,0,0,0,0,0,0,0,0,-1,1147,645,0,0
-70,379,0,0,0,0,0,0,0,0,0,-1,1154,645,0,0
-63,379,0,0,0,0,0,0,0,0,0,-1,1161,645,0,0
-56,379,0,0,0,0,0,0,0,0,0,-1,1168,645,0,0
-49,379,0,0,0,0,0,0,0,0,0,-1,1175,645,0,0
-42,379,0,0,0,0,0,0,0,0,0,-1,1182,645,0,0
-35,379,0,0,0,0,0,0,0,0,0,-1,1189,645,0,0
-28,379,0,0,0,0,0,0,0,0,0,-1,1196,645,0,0
-21,379,0,0,0,0,0,0,0,0,0,-1,1203,645,0,0
-14,379,0,0,0,0,0,0,0,0,0,-1,1210,645,0,0
-7,379,0,0,0,0,0,0,0,0,0,-1,1217,645,0,0
0,379,0,0,0,0,0,0,0,0,0,-1,1224,645,0,0
7,379,0,0,0,0,0,0,0,0,0,-1,1231,645,0,0
14,379,0,0,0,0,0,0,0,0,0,-1,1238,645,0,0
21,379,0,0,0,0,0,0,0,0,0,-1,1245,645,0,0
28,379,0,0,0,0,0,0,0,0,0,-1,1252,645,0,0
35,379,0,0,0,0,0,0,0,0,0,-1,1259,645,0,0
42,379,0,0,0,0,0,0,0,0,0,-1,1266,645,0,0
49,379,0,0,0,0,0,0,0,0,0,-1,1273,645,0,0
56,379,0,0,0,0,0,0,0,0,0,-1,1280,645,0,0
63,379,0,0,0,0,0,0,0,0,0,-1,1287,645,0,0
70,379,0,0,0,0,0,0,0,0,0,-1,1294,645,0,0
77,379,0,0,0,0,0,0,0,0,0,-1,1301,645,0,0
84,379,0,0,0,0,0,0,0,0,0,-1,1308,645,0,0
91,379,0,0,0,0,0,0,0,0,0,-1,1315,645,0,0
98,379,0,0,0,0,0,0,0,0,0,-1,1322,645,0,0
105,379,0,0,0,0,0,0,0,0,0,-1,1329,645,0,0
112,379,0,0,0,0,0,0,0,0,0,-1,1336,645,0,0
119,379,0,0,0,0,0,0,0,0,0,-1,1343,645,0,0
126,379,0,0,0,0,0,0,0,0,0,-1,1350,645,0,0
133,379,0,0,0,0,0,0,0,0,0,-1,1357,645,0,0
140,379,0,0,0,0,0,0,0,0,0,-1,1364,645,0,0
147,379,0,0,0,0,0,0,0,0,0,-1,1371,645,0,0
154,379,0,0,0,0,0,0,0,0,0,-1,1378,645,0,0
161,379,0,0,0,0,0,0,0,0,0,-1,1385,645,0,0
168,379,0,0,0,0,0,0,0,0,0,-1,1392,645,0,0
175,379,0,0,0,0,0,0,0,0,0,-1,1399,645,0,0
182,379,0,0,0,0,0,0,0,0,0,-1,1406,645,0,0
189,379,0,0,0,0,0,0,0,0,0,-1,1413,645,0,0
196,379,0,0,0,0,0,0,0,0,0,-1,1420,645,0,0
203,379,0,0,0,0,0,0,0,0,0,-1,1427,645,0,0
210,379,0,0,0,0,0,0,0,0,0,-1,1434,645,0,0
217,379,0,0,0,0,0,0,0,0,0,-1,1441,645,0,0
224,379,0,0,0,0,0,0,0,0,0,-1,1448,645,0,0
231,379,0,0,0,0,0,0,0,0,0,-1,1455,645,0,0
238,379,0,0,0,0,0,0,0,0,0,-1,1462,645,0,0
245,379,0,0,0,0,0,0,0,0,0,-1,1469,645,0,0
252,379,0,0,0,0,0,0,0,0,0,-1,1476,645,0,0
259,379,0,0,0,0,0,0,0,0,0,-1,1483,645,0,0
266,379,0,0,0,0,0,0,0,0,0,-1,1490,645,0,0
273,379,0,0,0,0,0,0,0,0,0,-1,1497,645,0,0
280,379,0,0,0,0,0,0,0,0,0,-1,1504,645,0,0
287,379,0,0,0,0,0,0,0,0,0,-1,1511,645,0,0
294,379,0,0,0,0,0,0,0,0,0,-1,1518,645,0,0
301,379,0,0,0,0,0,0,0,0,0,-1,1525,645,0,0
308,379,0,0,0,0,0,0,0,0,0,-1,1532,645,0,0
315,379,0,0,0,0,0,0,0,0,0,-1,1539,645,0,0
322,379,0,0,0,0,0,0,0,0,0,-1,1546,645,0,0
329,379,0,0,0,0,0,0,0,0,0,-1,1553,645,0,0
336,379,0,0,0,0,0,0,0,0,0,-1,1560,645,0,0
343,379,0,0,0,0,0,0,0,0,0,-1,1567,645,0,0
350,379,0,0,0,0,0,0,0,0,0,-1,1574,645,0,0
357,379,0,0,0,0,0,0,0,0,0,-1,1581,645,0,0
364,379,0,0,0,0,0,0,0,0,0,-1,1588,645,0,0
371,379,0,0,0,0,0,0,0,0,0,-1,1595,645,0,0
378,379,0,0,0,0,0,0,0,0,0,-1,1602,645,0,0
385,379,0,0,0,0,0,0,0,0,0,-1,1609,645,0,0
392,379,0,0,0,0,0,0,0,0,0,-1,1616,645,0,0
399,379,0,0,0,0,0,0,0,0,0,-1,1623,645,0,0
406,379,0,0,0,0,0,0,0,0,0,-1,1630,645,0,0
413,379,0,0,0,0,0,0,0,0,0,-1,1637,645,0,0
420,379,0,0,0,0,0,0,0,0,0,-1,1644,645,0,0
427,379,0,0,0,0,0,0,0,0,0,-1,1651,645,0,0
434,379,0,0,0,0,0,0,0,0,0,-1,1658,645,0,0
441,379,0,0,0,0,0,0,0,0,0,-1,1665,645,0,0
448,379,0,0,0,0,0,0,0,0,0,-1,1672,645,0,0
455,379,0,0,0,0,0,0,0,0,0,-1,1679,645,0,0
462,379,0,0,0,0,0,0,0,0,0,-1,1686,645,0,0
469,379,0,0,0,0,0,0,0,0,0,-1,1693,645,0,0
476,379,11.1787,0.830383,0,0,0,0,0,0,0,-1,1700,645,11.1787,-0.830365
483,379,7.4231,1.54321,0,0,0,0,0,0,0,-1,1707,645,7.42314,-1.54324
490,379,8.52881,1.56677,0,0,0,0,0,0,0,-1,1714,645,8.52878,-1.56677
497,379,9.63599,1.49573,0,0,0,0,0,0,0,-1,1721,645,9.63604,-1.4957
504,379,10.0833,1.35229,0,0,0,0,0,0,0,-1,1728,645,10.0832,-1.35227
511,379,8.14343,1.59912,0,0,0,0,0,0,0,-1,1735,645,8.14347,-1.59912
518,379,12.7955,-0.324097,0,0,0,0,0,0,0,-1,1742,645,12.7955,0.324101
525,379,6.03711,1.10352,0,0,0,0,0,0,0,-1,1749,645,6.03711,-1.10351
532,379,8.70947,0.887817,0,0,0,0,0,0,0,-1,1756,645,8.70953,-0.887808
539,379,9.87097,0.111389,0,0,0,0,0,0,0,-1,1763,645,9.87095,-0.111395
546,379,8.42383,-0.730652,0,0,0,0,0,0,0,-1,1770,645,8.42378,0.730638
553,379,8.72705,-1.67554,0,0,0,0,0,0,0,-1,1777,645,8.727,1.67556
560,379,8.72961,-1.5957,0.0140962,0.00446939,3.37524e-05,0.0140963,0.00446927,0.00350602,0.00831814,0.038825,1784,645,8.72957,1.59573
567,379,8.53162,-1.41174,0.00762234,0.00197836,-0.00101196,0.00779829,0.0018024,-0.172157,0.00471435,0.0218605,1791,645,8.53167,1.41173
574,379,8.61926,-1.24921,0.0033736,0.000404575,-0.00148315,0.00398754,-0.000209368,-0.39247,0.00273083,0.0118396,1798,645,8.61925,1.2492
581,379,8.62012,-1.05652,0.000343994,-0.000535291,-0.00167863,0.0016396,-0.00183089,-0.657322,0.0020047,0.0140517,1805,645,8.6201,1.05654
588,379,8.60583,-0.836609,-0.000840676,-0.000934026,-0.00145135,0.000564748,-0.00233945,-0.769324,0.00177803,0.0162403,1812,645,8.60579,0.836625
595,379,8.59705,-0.639954,-0.000869527,-0.000840327,-0.000968503,0.000113686,-0.00182354,-0.792935,0.00125531,0.0136369,1819,645,8.59708,0.639936
602,379,8.61108,-0.436462,-0.000195907,-0.00021714,-0.000364016,0.000157647,-0.000570694,-0.770819,0.000442474,0.013928,1826,645,8.61107,0.436444
609,379,8.6239,-0.205322,0.000320833,0.000163142,9.02398e-05,0.00036182,0.000122155,0.426343,0.000212537,0.0143745,1833,645,8.62385,0.205303
616,379,8.61401,0.03125,0.000531933,0.000862439,0.000627267,0.00134586,4.8516e-05,0.914196,0.00088151,0.0120933,1840,645,8.61401,-0.03122
623,379,8.61523,0.277832,0.000579595,0.00135335,0.000851485,0.00190173,3.12175e-05,0.998634,0.00125754,0.0121846,1847,645,8.61525,-0.277849
630,379,8.61694,0.48584,0.000532401,0.00192317,0.000865028,0.00233767,0.000117906,1.12395,0.00152067,0.0138702,1854,645,8.61694,-0.485858
637,379,8.64478,0.687134,-5.83392e-05,0.00221552,0.000767625,0.0024504,-0.000293218,1.27386,0.00173959,0.0159384,1861,645,8.64478,-0.687123
644,379,8.60999,0.92511,-0.000850291,0.00285602,0.00067926,0.00297659,-0.000970858,1.39513,0.0023751,0.0276906,1868,645,8.60993,-0.925122
651,379,8.6333,1.60083,0,0,0,0,0,0,0,-1,1875,645,8.63335,-1.60081
658,379,9.17346,0.527832,0,0,0,0,0,0,0,-1,1882,645,9.17341,-0.527807
665,379,9.6123,0.683533,0,0,0,0,0,0,0,-1,1889,645,9.61227,-0.683557
672,379,7.57605,2.15326,0,0,0,0,0,0,0,-1,1896,645,7.57599,-2.15326
679,379,8.55078,2.50409,0,0,0,0,0,0,0,-1,1903,645,8.55073,-2.50406
686,379,0,0,0,0,0,0,0,0,0,-1,1910,645,0,0
693,379,0,0,0,0,0,0,0,0,0,-1,1917,645,0,0
700,379,0,0,0,0,0,0,0,0,0,-1,1924,645,0,0
707,379,0,0,0,0,0,0,0,0,0,-1,1931,645,0,0
714,379,0,0,0,0,0,0,0,0,0,-1,1938,645,0,0
721,379,0,0,0,0,0,0,0,0,0,-1,1945,645,0,0
728,379,0,0,0,0,0,0,0,0,0,-1,1952,645,0,0
735,379,0,0,0,0,0,0,0,0,0,-1,1959,645,0,0
742,379,0,0,0,0,0,0,0,0,0,-1,1966,645,0,0
749,379,0,0,0,0,0,0,0,0,0,-1,1973,645,0,0
756,379,0,0,0,0,0,0,0,0,0,-1,1980,645,0,0
763,379,0,0,0,0,0,0,0,0,0,-1,1987,645,0,0
770,379,0,0,0,0,0,0,0,0,0,-1,1994,645,0,0
777,379,0,0,0,0,0,0,0,0,0,-1,2001,645,0,0
784,379,0,0,0,0,0,0,0,0,0,-1,2008,645,0,0
791,379,0,0,0,0,0,0,0,0,0,-1,2015,645,0,0
798,379,0,0,0,0,0,0,0,0,0,-1,2022,645,0,0
805,379,0,0,0,0,0,0,0,0,0,-1,2029,645,0,0
812,379,0,0,0,0,0,0,0,0,0,-1,2036,645,0,0
-700,372,0,0,0,0,0,0,0,0,0,-1,524,652,0,0
-693,372,0,0,0,0,0,0,0,0,0,-1,531,652,0,0
-686,372,0,0,0,0,0,0,0,0,0,-1,538,652,0,0
-679,372,0,0,0,0,0,0,0,0,0,-1,545,652,0,0
-672,372,0,0,0,0,0,0,0,0,0,-1,552,652,0,0
-665,372,0,0,0,0,0,0,0,0,0,-1,559,652,0,0
-658,372,0,0,0,0,0,0,0,0,0,-1,566,652,0,0
-651,372,0,0,0,0,0,0,0,0,0,-1,573,652,0,0
-644,372,0,0,0,0,0,0,0,0,0,-1,580,652,0,0
-637,372,0,0,0,0,0,0,0,0,0,-1,587,652,0,0
-630,372,0,0,0,0,0,0,0,0,0,-1,594,652,0,0
-623,372,0,0,0,0,0,0,0,0,0,-1,601,652,0,0
-616,372,0,0,0,0,0,0,0,0,0,-1,608,652,0,0
-609,372,0,0,0,0,0,0,0,0,0,-1,615,652,0,0
-602,372,0,0,0,0,0,0,0,0,0,-1,622,652,0,0
-595,372,0,0,0,0,0,0,0,0,0,-1,629,652,0,0
-588,372,0,0,0,0,0,0,0,0,0,-1,636,652,0,0
-581,372,0,0,0,0,0,0,0,0,0,-1,643,652,0,0
-574,372,0,0,0,0,0,0,0,0,0,-1,650,652,0,0
-567,372,-3.59174,1.5957,0,0,0,0,0,0,0,-1,657,652,-3.59171,-1.59573
-560,372,-2.67377,1.25287,0,0,0,0,0,0,0,-1,664,652,-2.67376,-1.25289
-553,372,-1.74988,0.909729,0,0,0,0,0,0,0,-1,671,652,-1.7499,-0.909743
-546,372,-4.18207,0.283447,0,0,0,0,0,0,0,-1,678,652,-4.18205,-0.283449
-539,372,-4.31708,0.628967,0,0,0,0,0,0,0,-1,685,652,-4.31711,-0.628997
-532,372,-3.98096,0.334839,0,0,0,0,0,0,0,-1,692,652,-3.98097,-0.334859
-525,372,-3.98059,-0.203491,0.00331849,0.00969415,-0.00954285,0.0165675,-0.0035549,-0.946598,0.012401,0.044806,699,652,-3.98057,0.203488
-518,372,-4.02753,-0.877014,0.00177206,0.00671645,-0.00636816,0.0110755,-0.00258695,-0.97055,0.00838012,0.0281804,706,652,-4.02752,0.87703
-511,372,-4.03351,-1.12274,0.000743682,0.00449719,-0.00399787,0.0070369,-0.00179603,-1.00485,0.00539062,0.0157026,713,652,-4.0335,1.12271
-504,372,-4.04755,-1.27441,0.000177988,0.00267916,-0.00229731,0.00404421,-0.00118707,-1.03465,0.00316688,0.0110328,720,652,-4.04757,1.27439
-497,372,-4.03589,-1.47546,-6.7917e-05,0.00159152,-0.00114703,0.00217746,-0.000653862,-1.09852,0.00171174,0.0110887,727,652,-4.0359,1.47543
-490,372,-4.04376,-1.66071,1.81795e-05,0.000381898,-0.000464924,0.000699265,-0.000299187,-0.971829,0.000591682,0.0118645,734,652,-4.04377,1.66072
-483,372,-4.03796,-1.86017,0.000302176,-0.000447906,-0.000170256,0.000339012,-0.000484743,-0.213073,0.000478069,0.0119611,741,652,-4.03795,1.86019
-476,372,-4.02283,-2.03845,0.000733956,-0.000907358,-0.000149705,0.000747499,-0.000920901,-0.0902186,0.000964984,0.012838,748,652,-4.02286,2.03848
-469,372,-4.02759,-2.22412,0.00113762,-0.00133735,-9.82105e-05,0.00114151,-0.00134124,-0.0395984,0.00143497,0.0105152,755,652,-4.02756,2.2241
-462,372,-4.0307,-2.44855,0.00135093,-0.00155913,-0.000288838,0.00137932,-0.00158752,-0.0979814,0.00171431,0.00931068,762,652,-4.03069,2.44855
-455,372,-4.05194,-2.65637,0.00121364,-0.0017238,-0.000169219,0.00122335,-0.00173352,-0.0573548,0.0017156,0.0103438,769,652,-4.05191,2.65635
-448,372,-4.04779,-2.8595,0.00108797,-0.00247852,0.000308134,0.00111439,-0.00250494,0.0855523,0.00214041,0.0111849,776,652,-4.0478,2.85951
-441,372,-3.93329,-3.18262,9.25371e-05,-0.00344468,0.00124751,0.000488241,-0.00384039,0.307157,0.00273756,0.0264614,783,652,-3.93331,3.18262
-434,372,-4.22241,-3.17188,0,0,0,0,0,0,0,-1,790,652,-4.22239,3.17186
-427,372,-3.76526,-2.69073,0,0,0,0,0,0,0,-1,797,652,-3.76528,2.69074
-420,372,-4.80786,-3.0542,0,0,0,0,0,0,0,-1,804,652,-4.80788,3.05422
-413,372,-4.74762,-3.29541,0,0,0,0,0,0,0,-1,811,652,-4.74763,3.29542
-406,372,-0.885437,-0.583923,0,0,0,0,0,0,0,-1,818,652,-0.885437,0.5839
-399,372,-3.97357,-0.825012,0,0,0,0,0,0,0,-1,825,652,-3.97359,0.825037
-392,372,-7.64337,0.173035,0,0,0,0,0,0,0,-1,832,652,-7.64337,-0.173019
-385,372,-6.48871,-0.0271606,0,0,0,0,0,0,0,-1,839,652,-6.48874,0.0271353
-378,372,-5.33044,-0.242432,0,0,0,0,0,0,0,-1,846,652,-5.33042,0.242457
-371,372,-4.40802,-0.495667,0,0,0,0,0,0,0,-1,853,652,-4.40802,0.495661
-364,372,0,0,0,0,0,0,0,0,0,-1,860,652,0,0
-357,372,0,0,0,0,0,0,0,0,0,-1,867,652,0,0
-350,372,0,0,0,0,0,0,0,0,0,-1,874,652,0,0
-343,372,0,0,0,0,0,0,0,0,0,-1,881,652,0,0
-336,372,0,0,0,0,0,0,0,0,0,-1,888,652,0,0
-329,372,0,0,0,0,0,0,0,0,0,-1,895,652,0,0
-322,372,0,0,0,0,0,0,0,0,0,-1,902,652,0,0
-315,372,0,0,0,0,0,0,0,0,0,-1,909,652,0,0
-308,372,0,0,0,0,0,0,0,0,0,-1,916,652,0,0
-301,372,0,0,0,0,0,0,0,0,0,-1,923,652,0,0
-294,372,0,0,0,0,0,0,0,0,0,-1,930,652,0,0
-287,372,0,0,0,0,0,0,0,0,0,-1,937,652,0,0
-280,372,0,0,0,0,0,0,0,0,0,-1,944,652,0,0
-273,372,0,0,0,0,0,0,0,0,0,-1,951,652,0,0
-266,372,0,0,0,0,0,0,0,0,0,-1,958,652,0,0
-259,372,0,0,0,0,0,0,0,0,0,-1,965,652,0,0
-252,372,0,0,0,0,0,0,0,0,0,-1,972,652,0,0
-245,372,0,0,0,0,0,0,0,0,0,-1,979,652,0,0
-238,372,0,0,0,0,0,0,0,0,0,-1,986,652,0,0
-231,372,0,0,0,0,0,0,0,0,0,-1,993,652,0,0
-224,372,0,0,0,0,0,0,0,0,0,-1,1000,652,0,0
-217,372,0,0,0,0,0,0,0,0,0,-1,1007,652,0,0
-210,372,0,0,0,0,0,0,0,0,0,-1,1014,652,0,0
-203,372,0,0,0,0,0,0,0,0,0,-1,1021,652,0,0
-196,372,0,0,0,0,0,0,0,0,0,-1,1028,652,0,0
-189,372,0,0,0,0,0,0,0,0,0,-1,1035,652,0,0
-182,372,0,0,0,0,0,0,0,0,0,-1,1042,652,0,0
-175,372,0,0,0,0,0,0,0,0,0,-1,1049,652,0,0
-168,372,0,0,0,0,0,0,0,0,0,-1,1056,652,0,0
-161,372,0,0,0,0,0,0,0,0,0,-1,1063,652,0,0
-154,372,0,0,0,0,0,0,0,0,0,-1,1070,652,0,0
-147,372,0,0,0,0,0,0,0,0,0,-1,1077,652,0,0
-140,372,0,0,0,0,0,0,0,0,0,-1,1084,652,0,0
-133,372,0,0,0,0,0,0,0,0,0,-1,1091,652,0,0
-126,372,0,0,0,0,0,0,0,0,0,-1,1098,652,0,0
-119,372,0,0,0,0,0,0,0,0,0,-1,1105,652,0,0
-112,372,0,0,0,0,0,0,0,0,0,-1,1112,652,0,0
-105,372,0,0,0,0,0,0,0,0,0,-1,1119,652,0,0
-98,372,0,0,0,0,0,0,0,0,0,-1,1126,652,0,0
-91,372,0,0,0,0,0,0,0,0,0,-1,1133,652,0,0
-84,372,0,0,0,0,0,0,0,0,0,-1,1140,652,0,0
-77,372,0,0,0,0,0,0,0,0,0,-1,1147,652,0,0
-70,372,0,0,0,0,0,0,0,0,0,-1,1154,652,0,0
-63,372,0,0,0,0,0,0,0,0,0,-1,1161,652,0,0
-56,372,0,0,0,0,0,0,0,0,0,-1,1168,652,0,0
-49,372,0,0,0,0,0,0,0,0,0,-1,1175,652,0,0
-42,372,0,0,0,0,0,0,0,0,0,-1,1182,652,0,0
-35,372,0,0,0,0,0,0,0,0,0,-1,1189,652,0,0
-28,372,0,0,0,0,0,0,0,0,0,-1,1196,652,0,0
-21,372,0,0,0,0,0,0,0,0,0,-1,1203,652,0,0
-14,372,0,0,0,0,0,0,0,0,0,-1,1210,652,0,0
-7,372,0,0,0,0,0,0,0,0,0,-1,1217,652,0,0
0,372,0,0,0,0,0,0,0,0,0,-1,1224,652,0,0
7,372,0,0,0,0,0,0,0,0,0,-1,1231,652,0,0
14,372,0,0,0,0,0,0,0,0,0,-1,1238,652,0,0
21,372,0,0,0,0,0,0,0,0,0,-1,1245,652,0,0
28,372,0,0,0,0,0,0,0,0,0,-1,1252,652,0,0
35,372,0,0,0,0,0,0,0,0,0,-1,1259,652,0,0
42,372,0,0,0,0,0,0,0,0,0,-1,1266,652,0,0
49,372,0,0,0,0,0,0,0,0,0,-1,1273,652,0,0
56,372,0,0,0,0,0,0,0,0,0,-1,1280,652,0,0
63,372,0,0,0,0,0,0,0,0,0,-1,1287,652,0,0
70,372,0,0,0,0,0,0,0,0,0,-1,1294,652,0,0
77,372,0,0,0,0,0,0,0,0,0,-1,1301,652,0,0
84,372,0,0,0,0,0,0,0,0,0,-1,1308,652,0,0
91,372,0,0,0,0,0,0,0,0,0,-1,1315,652,0,0
98,372,0,0,0,0,0,0,0,0,0,-1,1322,652,0,0
105,372,0,0,0,0,0,0,0,0,0,-1,1329,652,0,0
112,372,0,0,0,0,0,0,0,0,0,-1,1336,652,0,0
119,372,0,0,0,0,0,0,0,0,0,-1,1343,652,0,0
126,372,0,0,0,0,0,0,0,0,0,-1,1350,652,0,0
133,372,0,0,0,0,0,0,0,0,0,-1,1357,652,0,0
140,372,0,0,0,0,0,0,0,0,0,-1,1364,652,0,0
147,372,0,0,0,0,0,0,0,0,0,-1,1371,652,0,0
154,372,0,0,0,0,0,0,0,0,0,-1,1378,652,0,0
161,372,0,0,0,0,0,0,0,0,0,-1,1385,652,0,0
168,372,0,0,0,0,0,0,0,0,0,-1,1392,652,0,0
175,372,0,0,0,0,0,0,0,0,0,-1,1399,652,0,0
182,372,0,0,0,0,0,0,0,0,0,-1,1406,652,0,0
189,372,0,0,0,0,0,0,0,0,0,-1,1413,652,0,0
196,372,0,0,0,0,0,0,0,0,0,-1,1420,652,0,0
203,372,0,0,0,0,0,0,0,0,0,-1,1427,652,0,0
210,372,0,0,0,0,0,0,0,0,0,-1,1434,652,0,0
217,372,0,0,0,0,0,0,0,0,0,-1,1441,652,0,0
224,372,0,0,0,0,0,0,0,0,0,-1,1448,652,0,0
231,372,0,0,0,0,0,0,0,0,0,-1,1455,652,0,0
238,372,0,0,0,0,0,0,0,0,0,-1,1462,652,0,0
245,372,0,0,0,0,0,0,0,0,0,-1,1469,652,0,0
252,372,0,0,0,0,0,0,0,0,0,-1,1476,652,0,0
259,372,0,0,0,0,0,0,0,0,0,-1,1483,652,0,0
266,372,0,0,0,0,0,0,0,0,0,-1,1490,652,0,0
273,372,0,0,0,0,0,0,0,0,0,-1,1497,652,0,0
280,372,0,0,0,0,0,0,0,0,0,-1,1504,652,0,0
287,372,0,0,0,0,0,0,0,0,0,-1,1511,652,0,0
294,372,0,0,0,0,0,0,0,0,0,-1,1518,652,0,0
301,372,0,0,0,0,0,0,0,0,0,-1,1525,652,0,0
308,372,0,0,0,0,0,0,0,0,0,-1,1532,652,0,0
315,372,0,0,0,0,0,0,0,0,0,-1,1539,652,0,0
322,372,0,0,0,0,0,0,0,0,0,-1,1546,652,0,0
329,372,0,0,0,0,0,0,0,0,0,-1,1553,652,0,0
336,372,0,0,0,0,0,0,0,0,0,-1,1560,652,0,0
343,372,0,0,0,0,0,0,0,0,0,-1,1567,652,0,0
350,372,0,0,0,0,0,0,0,0,0,-1,1574,652,0,0
357,372,0,0,0,0,0,0,0,0,0,-1,1581,652,0,0
364,372,0,0,0,0,0,0,0,0,0,-1,1588,652,0,0
371,372,0,0,0,0,0,0,0,0,0,-1,1595,652,0,0
378,372,0,0,0,0,0,0,0,0,0,-1,1602,652,0,0
385,372,0,0,0,0,0,0,0,0,0,-1,1609,652,0,0
392,372,0,0,0,0,0,0,0,0,0,-1,1616,652,0,0
399,372,0,0,0,0,0,0,0,0,0,-1,1623,652,0,0
406,372,0,0,0,0,0,0,0,0,0,-1,1630,652,0,0
413,372,0,0,0,0,0,0,0,0,0,-1,1637,652,0,0
420,372,0,0,0,0,0,0,0,0,0,-1,1644,652,0,0
427,372,0,0,0,0,0,0,0,0,0,-1,1651,652,0,0
434,372,0,0,0,0,0,0,0,0,0,-1,1658,652,0,0
441,372,0,0,0,0,0,0,0,0,0,-1,1665,652,0,0
448,372,0,0,0,0,0,0,0,0,0,-1,1672,652,0,0
455,372,0,0,0,0,0,0,0,0,0,-1,1679,652,0,0
462,372,0,0,0,0,0,0,0,0,0,-1,1686,652,0,0
469,372,0,0,0,0,0,0,0,0,0,-1,1693,652,0,0
476,372,0,0,0,0,0,0,0,0,0,-1,1700,652,0,0
483,372,8.74182,1.53125,0,0,0,0,0,0,0,-1,1707,652,8.74186,-1.53126
490,372,9.78455,1.67096,0,0,0,0,0,0,0,-1,1714,652,9.7846,-1.67093
497,372,9.97644,1.46069,0,0,0,0,0,0,0,-1,1721,652,9.97647,-1.46071
504,372,10.1216,1.28375,0,0,0,0,0,0,0,-1,1728,652,10.1216,-1.28376
511,372,11.7367,-0.0272217,0,0,0,0,0,0,0,-1,1735,652,11.7367,0.0272326
518,372,12.0657,-0.0995483,0,0,0,0,0,0,0,-1,1742,652,12.0657,0.0995285
525,372,12.3947,-0.171814,0,0,0,0,0,0,0,-1,1749,652,12.3946,0.171824
532,372,9.36597,1.72034,0,0,0,0,0,0,0,-1,1756,652,9.36597,-1.72036
539,372,7.82886,-0.0865479,0,0,0,0,0,0,0,-1,1763,652,7.82882,0.0865771
546,372,10.953,-0.187195,0,0,0,0,0,0,0,-1,1770,652,10.953,0.187181
553,372,8.30579,-2.68207,0,0,0,0,0,0,0,-1,1777,652,8.30576,2.68209
560,372,8.81323,-1.64032,0,0,0,0,0,0,0,-1,1784,652,8.81319,1.64029
567,372,8.78113,-1.47217,0.0185718,0.00463778,0.00124785,0.0186826,0.00452691,0.088615,0.0112538,0.0238493,1791,652,8.78109,1.47215
574,372,8.84863,-1.22443,0.0113512,0.00208631,0.000132144,0.0113531,0.00208443,0.014259,0.00697849,0.0156253,1798,652,8.84862,1.22444
581,372,8.85706,-1.0473,0.00544559,0.000272867,-0.000729472,0.00554649,0.000171963,-0.137452,0.00364169,0.0144372,1805,652,8.85708,1.04731
588,372,8.8396,-0.824646,0.00172358,-0.000978501,-0.00108984,0.00210835,-0.00136328,-0.339397,0.00201968,0.0158882,1812,652,8.8396,0.824663
595,372,8.84058,-0.618164,-3.23418e-05,-0.00134123,-0.00100659,0.000513845,-0.00188742,-0.497154,0.00146002,0.0138472,1819,652,8.84055,0.618189
602,372,8.85449,-0.416748,-0.000217182,-0.000853175,-0.000635658,0.000175583,-0.00124594,-0.553469,0.000894916,0.012826,1826,652,8.85455,0.416762
609,372,8.83142,-0.200317,8.65226e-05,-0.000353248,-0.000268662,0.00021381,-0.000480535,-0.442454,0.000410621,0.0124258,1833,652,8.83144,0.200319
616,372,8.81824,0.0355835,0.000153093,0.000378143,0.000170504,0.000469906,6.13299e-05,1.07707,0.00029496,0.0117025,1840,652,8.81825,-0.0355764
623,372,8.84143,0.276367,0.000137927,0.000894572,0.000362627,0.0010403,-7.79878e-06,1.18869,0.000696146,0.0113059,1847,652,8.84142,-0.276355
630,372,8.84277,0.491455,7.03842e-05,0.00142781,0.000356566,0.00151577,-1.75778e-05,1.32893,0.00101643,0.0169612,1854,652,8.84274,-0.491429
637,372,8.85742,0.67511,-0.000382912,0.00183967,0.000310723,0.00188229,-0.000425534,1.43448,0.00141815,0.0221332,1861,652,8.85743,-0.675131
644,372,8.8999,0.948914,-0.0010665,0.00243159,0.00016703,0.00243955,-0.00107445,1.52319,0.00207921,0.0219323,1868,652,8.8999,-0.948943
651,372,8.9104,1.18085,-0.00162017,0.00323918,-4.64254e-05,0.00323963,-0.00162061,-1.56124,0.00285748,0.0452182,1875,652,8.91043,-1.18083
658,372,8.89514,1.32306,0,0,0,0,0,0,0,-1,1882,652,8.89508,-1.32305
665,372,8.57397,2.42328,0,0,0,0,0,0,0,-1,1889,652,8.57392,-2.42327
672,372,8.09216,1.5365,0,0,0,0,0,0,0,-1,1896,652,8.0922,-1.53653
679,372,8.78052,2.13696,0,0,0,0,0,0,0,-1,1903,652,8.78057,-2.13695
686,372,8.96912,2.44781,0,0,0,0,0,0,0,-1,1910,652,8.96913,-2.44781
693,372,0,0,0,0,0,0,0,0,0,-1,1917,652,0,0
700,372,0,0,0,0,0,0,0,0,0,-1,1924,652,0,0
707,372,0,0,0,0,0,0,0,0,0,-1,1931,652,0,0
714,372,0,0,0,0,0,0,0,0,0,-1,1938,652,0,0
721,372,0,0,0,0,0,0,0,0,0,-1,1945,652,0,0
728,372,0,0,0,0,0,0,0,0,0,-1,1952,652,0,0
735,372,0,0,0,0,0,0,0,0,0,-1,1959,652,0,0
742,372,0,0,0,0,0,0,0,0,0,-1,1966,652,0,0
749,372,0,0,0,0,0,0,0,0,0,-1,1973,652,0,0
756,372,0,0,0,0,0,0,0,0,0,-1,1980,652,0,0
763,372,0,0,0,0,0,0,0,0,0,-1,1987,652,0,0
770,372,0,0,0,0,0,0,0,0,0,-1,1994,652,0,0
777,372,0,0,0,0,0,0,0,0,0,-1,2001,652,0,0
784,372,0,0,0,0,0,0,0,0,0,-1,2008,652,0,0
791,372,0,0,0,0,0,0,0,0,0,-1,2015,652,0,0
798,372,0,0,0,0,0,0,0,0,0,-1,2022,652,0,0
805,372,0,0,0,0,0,0,0,0,0,-1,2029,652,0,0
812,372,0,0,0,0,0,0,0,0,0,-1,2036,652,0,0
-700,365,0,0,0,0,0,0,0,0,0,-1,524,659,0,0
-693,365,0,0,0,0,0,0,0,0,0,-1,531,659,0,0
-686,365,0,0,0,0,0,0,0,0,0,-1,538,659,0,0
-679,365,0,0,0,0,0,0,0,0,0,-1,545,659,0,0
-672,365,0,0,0,0,0,0,0,0,0,-1,552,659,0,0
-665,365,0,0,0,0,0,0,0,0,0,-1,559,659,0,0
-658,365,0,0,0,0,0,0,0,0,0,-1,566,659,0,0
-651,365,0,0,0,0,0,0,0,0,0,-1,573,659,0,0
-644,365,0,0,0,0,0,0,0,0,0,-1,580,659,0,0
-637,365,0,0,0,0,0,0,0,0,0,-1,587,659,0,0
-630,365,0,0,0,0,0,0,0,0,0,-1,594,659,0,0
-623,365,0,0,0,0,0,0,0,0,0,-1,601,659,0,0
-616,365,0,0,0,0,0,0,0,0,0,-1,608,659,0,0
-609,365,0,0,0,0,0,0,0,0,0,-1,615,659,0,0
-602,365,0,0,0,0,0,0,0,0,0,-1,622,659,0,0
-595,365,0,0,0,0,0,0,0,0,0,-1,629,659,0,0
-588,365,0,0,0,0,0,0,0,0,0,-1,636,659,0,0
-581,365,0,0,0,0,0,0,0,0,0,-1,643,659,0,0
-574,365,-4.87231,0.185852,0,0,0,0,0,0,0,-1,650,659,-4.87233,-0.185838
-567,365,-3.88232,0.700989,0,0,0,0,0,0,0,-1,657,659,-3.88235,-0.701005
-560,365,-3.2923,0.939636,0,0,0,0,0,0,0,-1,664,659,-3.29231,-0.939665
-553,365,-4.44086,0.697266,0,0,0,0,0,0,0,-1,671,659,-4.44085,-0.69726
-546,365,-4.74017,0.687805,0,0,0,0,0,0,0,-1,678,659,-4.74017,-0.687835
-539,365,-4.52997,0.278809,0.00788104,0.0154737,-0.0167699,0.0288716,-0.00551689,-0.89671,0.0213259,0.0468194,685,659,-4.52995,-0.278794
-532,365,-4.38354,-0.0579834,0.00515265,0.0119709,-0.0121933,0.0212227,-0.00409911,-0.921713,0.0156943,0.0462078,692,659,-4.38352,0.05796
-525,365,-4.216,-0.540039,0.00310155,0.0088901,-0.0086044,0.015074,-0.00308231,-0.947639,0.0112188,0.0403298,699,659,-4.21601,0.54005
-518,365,-4.15692,-0.997253,0.00168895,0.00634648,-0.00583242,0.0102979,-0.00226243,-0.97534,0.00773054,0.0240317,706,659,-4.15695,0.997256
-511,365,-4.25061,-1.10724,0.000707087,0.00432041,-0.00366139,0.00659662,-0.00156912,-1.01459,0.00500348,0.0177309,713,659,-4.25064,1.10723
-504,365,-4.2334,-1.28369,0.00024294,0.00257602,-0.00213453,0.00384197,-0.00102301,-1.03548,0.00296181,0.0120077,720,659,-4.23339,1.28369
-497,365,-4.22168,-1.47595,9.37391e-05,0.00154472,-0.00113384,0.00216531,-0.000526848,-1.07,0.00164748,0.0118701,727,659,-4.2217,1.47597
-490,365,-4.23505,-1.65961,0.000234053,0.000311491,-0.000517334,0.000791553,-0.000246009,-0.82275,0.00062603,0.012205,734,659,-4.23507,1.65958
-483,365,-4.24786,-1.86151,0.000554847,-0.000641248,-0.000302413,0.000626959,-0.000713361,-0.234085,0.00077437,0.0117423,741,659,-4.24787,1.86153
-476,365,-4.22742,-2.05212,0.0010321,-0.00127022,-0.000347282,0.00108334,-0.00132147,-0.146499,0.00139068,0.012583,748,659,-4.22739,2.05215
-469,365,-4.22046,-2.2536,0.00147499,-0.00187317,-0.000446927,0.00153362,-0.0019318,-0.130442,0.00200516,0.0126355,755,659,-4.22046,2.25361
-462,365,-4.20313,-2.45282,0.00170917,-0.00239973,-0.000802582,0.00186037,-0.00255094,-0.186212,0.00255725,0.0131977,762,659,-4.20313,2.4528
-455,365,-4.22607,-2.65479,0.00151363,-0.00296748,-0.000870249,0.0016767,-0.00313055,-0.185237,0.00281746,0.0152322,769,659,-4.22605,2.65477
-448,365,-4.18683,-2.90942,0.00115748,-0.00419954,-0.000595148,0.0012228,-0.00426486,-0.109321,0.00332662,0.0187026,776,659,-4.1868,2.90945
-441,365,-4.25452,-3.11438,-0.000196958,-0.00579024,3.30193e-05,-0.000196764,-0.00579043,0.00590312,0.0037964,0.0408819,783,659,-4.25451,3.11437
-434,365,-4.40192,-3.45142,0,0,0,0,0,0,0,-1,790,659,-4.40189,3.45144
-427,365,-4.42743,-3.96362,0,0,0,0,0,0,0,-1,797,659,-4.42745,3.96364
-420,365,-4.58813,-3.16376,0,0,0,0,0,0,0,-1,804,659,-4.58816,3.16374
-413,365,0.141357,0.672729,0,0,0,0,0,0,0,-1,811,659,0.141365,-0.672714
-406,365,-1.75067,-0.934448,0,0,0,0,0,0,0,-1,818,659,-1.7507,0.934424
-399,365,-4.10242,-1.25439,0,0,0,0,0,0,0,-1,825,659,-4.10244,1.25438
-392,365,-7.46545,-0.779724,0,0,0,0,0,0,0,-1,832,659,-7.46543,0.779744
-385,365,-6.27875,-0.887573,0,0,0,0,0,0,0,-1,839,659,-6.27874,0.887545
-378,365,-5.34503,-0.263306,0,0,0,0,0,0,0,-1,846,659,-5.34504,0.263275
-371,365,0,0,0,0,0,0,0,0,0,-1,853,659,0,0
-364,365,0,0,0,0,0,0,0,0,0,-1,860,659,0,0
-357,365,0,0,0,0,0,0,0,0,0,-1,867,659,0,0
-350,365,0,0,0,0,0,0,0,0,0,-1,874,659,0,0
-343,365,0,0,0,0,0,0,0,0,0,-1,881,659,0,0
-336,365,0,0,0,0,0,0,0,0,0,-1,888,659,0,0
-329,365,0,0,0,0,0,0,0,0,0,-1,895,659,0,0
-322,365,0,0,0,0,0,0,0,0,0,-1,902,659,0,0
-315,365,0,0,0,0,0,0,0,0,0,-1,909,659,0,0
-308,365,0,0,0,0,0,0,0,0,0,-1,916,659,0,0
-301,365,0,0,0,0,0,0,0,0,0,-1,923,659,0,0
-294,365,0,0,0,0,0,0,0,0,0,-1,930,659,0,0
-287,365,0,0,0,0,0,0,0,0,0,-1,937,659,0,0
-280,365,0,0,0,0,0,0,0,0,0,-1,944,659,0,0
-273,365,0,0,0,0,0,0,0,0,0,-1,951,659,0,0
-266,365,0,0,0,0,0,0,0,0,0,-1,958,659,0,0
-259,365,0,0,0,0,0,0,0,0,0,-1,965,659,0,0
-252,365,0,0,0,0,0,0,0,0,0,-1,972,659,0,0
-245,365,0,0,0,0,0,0,0,0,0,-1,979,659,0,0
-238,365,0,0,0,0,0,0,0,0,0,-1,986,659,0,0
-231,365,0,0,0,0,0,0,0,0,0,-1,993,659,0,0
-224,365,0,0,0,0,0,0,0,0,0,-1,1000,659,0,0
-217,365,0,0,0,0,0,0,0,0,0,-1,1007,659,0,0
-210,365,0,0,0,0,0,0,0,0,0,-1,1014,659,0,0
-203,365,0,0,0,0,0,0,0,0,0,-1,1021,659,0,0
-196,365,0,0,0,0,0,0,0,0,0,-1,1028,659,0,0
-189,365,0,0,0,0,0,0,0,0,0,-1,1035,659,0,0
-182,365,0,0,0,0,0,0,0,0,0,-1,1042,659,0,0
-175,365,0,0,0,0,0,0,0,0,0,-1,1049,659,0,0
-168,365,0,0,0,0,0,0,0,0,0,-1,1056,659,0,0
-161,365,0,0,0,0,0,0,0,0,0,-1,1063,659,0,0
-154,365,0,0,0,0,0,0,0,0,0,-1,1070,659,0,0
-147,365,0,0,0,0,0,0,0,0,0,-1,1077,659,0,0
-140,365,0,0,0,0,0,0,0,0,0,-1,1084,659,0,0
-133,365,0,0,0,0,0,0,0,0,0,-1,1091,659,0,0
-126,365,0,0,0,0,0,0,0,0,0,-1,1098,659,0,0
-119,365,0,0,0,0,0,0,0,0,0,-1,1105,659,0,0
-112,365,0,0,0,0,0,0,0,0,0,-1,1112,659,0,0
-105,365,0,0,0,0,0,0,0,0,0,-1,1119,659,0,0
-98,365,0,0,0,0,0,0,0,0,0,-1,1126,659,0,0
-91,365,0,0,0,0,0,0,0,0,0,-1,1133,659,0,0
-84,365,0,0,0,0,0,0,0,0,0,-1,1140,659,0,0
-77,365,0,0,0,0,0,0,0,0,0,-1,1147,659,0,0
-70,365,0,0,0,0,0,0,0,0,0,-1,1154,659,0,0
-63,365,0,0,0,0,0,0,0,0,0,-1,1161,659,0,0
-56,365,0,0,0,0,0,0,0,0,0,-1,1168,659,0,0
-49,365,0,0,0,0,0,0,0,0,0,-1,1175,659,0,0
-42,365,0,0,0,0,0,0,0,0,0,-1,1182,659,0,0
-35,365,0,0,0,0,0,0,0,0,0,-1,1189,659,0,0
-28,365,0,0,0,0,0,0,0,0,0,-1,1196,659,0,0
-21,365,0,0,0,0,0,0,0,0,0,-1,1203,659,0,0
-14,365,0,0,0,0,0,0,0,0,0,-1,1210,659,0,0
-7,365,0,0,0,0,0,0,0,0,0,-1,1217,659,0,0
0,365,0,0,0,0,0,0,0,0,0,-1,1224,659,0,0
7,365,0,0,0,0,0,0,0,0,0,-1,1231,659,0,0
14,365,0,0,0,0,0,0,0,0,0,-1,1238,659,0,0
21,365,0,0,0,0,0,0,0,0,0,-1,1245,659,0,0
28,365,0,0,0,0,0,0,0,0,0,-1,1252,659,0,0
35,365,0,0,0,0,0,0,0,0,0,-1,1259,659,0,0
42,365,0,0,0,0,0,0,0,0,0,-1,1266,659,0,0
49,365,0,0,0,0,0,0,0,0,0,-1,1273,659,0,0
56,365,0,0,0,0,0,0,0,0,0,-1,1280,659,0,0
63,365,0,0,0,0,0,0,0,0,0,-1,1287,659,0,0
70,365,0,0,0,0,0,0,0,0,0,-1,1294,659,0,0
77,365,0,0,0,0,0,0,0,0,0,-1,1301,659,0,0
84,365,0,0,0,0,0,0,0,0,0,-1,1308,659,0,0
91,365,0,0,0,0,0,0,0,0,0,-1,1315,659,0,0
98,365,0,0,0,0,0,0,0,0,0,-1,1322,659,0,0
105,365,0,0,0,0,0,0,0,0,0,-1,1329,659,0,0
112,365,0,0,0,0,0,0,0,0,0,-1,1336,659,0,0
119,365,0,0,0,0,0,0,0,0,0,-1,1343,659,0,0
126,365,0,0,0,0,0,0,0,0,0,-1,1350,659,0,0
133,365,0,0,0,0,0,0,0,0,0,-1,1357,659,0,0
140,365,0,0,0,0,0,0,0,0,0,-1,1364,659,0,0
147,365,0,0,0,0,0,0,0,0,0,-1,1371,659,0,0
154,365,0,0,0,0,0,0,0,0,0,-1,1378,659,0,0
161,365,0,0,0,0,0,0,0,0,0,-1,1385,659,0,0
168,365,0,0,0,0,0,0,0,0,0,-1,1392,659,0,0
175,365,0,0,0,0,0,0,0,0,0,-1,1399,659,0,0
182,365,0,0,0,0,0,0,0,0,0,-1,1406,659,0,0
189,365,0,0,0,0,0,0,0,0,0,-1,1413,659,0,0
196,365,0,0,0,0,0,0,0,0,0,-1,1420,659,0,0
203,365,0,0,0,0,0,0,0,0,0,-1,1427,659,0,0
210,365,0,0,0,0,0,0,0,0,0,-1,1434,659,0,0
217,365,0,0,0,0,0,0,0,0,0,-1,1441,659,0,0
224,365,0,0,0,0,0,0,0,0,0,-1,1448,659,0,0
231,365,0,0,0,0,0,0,0,0,0,-1,1455,659,0,0
238,365,0,0,0,0,0,0,0,0,0,-1,1462,659,0,0
245,365,0,0,0,0,0,0,0,0,0,-1,1469,659,0,0
252,365,0,0,0,0,0,0,0,0,0,-1,1476,659,0,0
259,365,0,0,0,0,0,0,0,0,0,-1,1483,659,0,0
266,365,0,0,0,0,0,0,0,0,0,-1,1490,659,0,0
273,365,0,0,0,0,0,0,0,0,0,-1,1497,659,0,0
280,365,0,0,0,0,0,0,0,0,0,-1,1504,659,0,0
287,365,0,0,0,0,0,0,0,0,0,-1,1511,659,0,0
294,365,0,0,0,0,0,0,0,0,0,-1,1518,659,0,0
301,365,0,0,0,0,0,0,0,0,0,-1,1525,659,0,0
308,365,0,0,0,0,0,0,0,0,0,-1,1532,659,0,0
315,365,0,0,0,0,0,0,0,0,0,-1,1539,659,0,0
322,365,0,0,0,0,0,0,0,0,0,-1,1546,659,0,0
329,365,0,0,0,0,0,0,0,0,0,-1,1553,659,0,0
336,365,0,0,0,0,0,0,0,0,0,-1,1560,659,0,0
343,365,0,0,0,0,0,0,0,0,0,-1,1567,659,0,0
350,365,0,0,0,0,0,0,0,0,0,-1,1574,659,0,0
357,365,0,0,0,0,0,0,0,0,0,-1,1581,659,0,0
364,365,0,0,0,0,0,0,0,0,0,-1,1588,659,0,0
371,365,0,0,0,0,0,0,0,0,0,-1,1595,659,0,0
378,365,0,0,0,0,0,0,0,0,0,-1,1602,659,0,0
385,365,0,0,0,0,0,0,0,0,0,-1,1609,659,0,0
392,365,0,0,0,0,0,0,0,0,0,-1,1616,659,0,0
399,365,0,0,0,0,0,0,0,0,0,-1,1623,659,0,0
406,365,0,0,0,0,0,0,0,0,0,-1,1630,659,0,0
413,365,0,0,0,0,0,0,0,0,0,-1,1637,659,0,0
420,365,0,0,0,0,0,0,0,0,0,-1,1644,659,0,0
427,365,0,0,0,0,0,0,0,0,0,-1,1651,659,0,0
434,365,0,0,0,0,0,0,0,0,0,-1,1658,659,0,0
441,365,0,0,0,0,0,0,0,0,0,-1,1665,659,0,0
448,365,0,0,0,0,0,0,0,0,0,-1,1672,659,0,0
455,365,0,0,0,0,0,0,0,0,0,-1,1679,659,0,0
462,365,0,0,0,0,0,0,0,0,0,-1,1686,659,0,0
469,365,0,0,0,0,0,0,0,0,0,-1,1693,659,0,0
476,365,0,0,0,0,0,0,0,0,0,-1,1700,659,0,0
483,365,0,0,0,0,0,0,0,0,0,-1,1707,659,0,0
490,365,8.39551,0.471252,0,0,0,0,0,0,0,-1,1714,659,8.39551,-0.471241
497,365,9.89233,1.35394,0,0,0,0,0,0,0,-1,1721,659,9.89237,-1.35396
504,365,10.1414,1.18005,0,0,0,0,0,0,0,-1,1728,659,10.1413,-1.18004
511,365,10.5151,0.993896,0,0,0,0,0,0,0,-1,1735,659,10.5152,-0.993894
518,365,11.2029,0.398132,0,0,0,0,0,0,0,-1,1742,659,11.2029,-0.398136
525,365,11.3424,0.597229,0,0,0,0,0,0,0,-1,1749,659,11.3424,-0.597203
532,365,11.2446,1.00629,0,0,0,0,0,0,0,-1,1756,659,11.2446,-1.00631
539,365,12.6301,1.03204,0,0,0,0,0,0,0,-1,1763,659,12.6302,-1.03204
546,365,11.647,0.84198,0,0,0,0,0,0,0,-1,1770,659,11.6469,-0.841955
553,365,12.028,-0.558899,0,0,0,0,0,0,0,-1,1777,659,12.028,0.558873
560,365,8.70642,-2.69946,0,0,0,0,0,0,0,-1,1784,659,8.70638,2.69948
567,365,9.13367,-1.68597,0,0,0,0,0,0,0,-1,1791,659,9.13368,1.68596
574,365,9.21838,-1.36456,0.020927,0.00245781,0.00230844,0.0212111,0.00217365,0.122479,0.0134748,0.0338351,1798,659,9.21844,1.36458
581,365,9.07678,-1.10083,0.0127276,0.000260218,0.00087471,0.0127887,0.000199147,0.0697048,0.00846017,0.0174468,1805,659,9.07678,1.10086
588,365,9.04102,-0.847961,0.00649808,-0.00149558,-9.92326e-05,0.00649931,-0.00149681,-0.0124114,0.00490848,0.0123316,1812,659,9.04096,0.847947
595,365,9.06213,-0.596497,0.00249886,-0.00216791,-0.000535641,0.00255955,-0.0022286,-0.112823,0.00276664,0.0127377,1819,659,9.06208,0.596482
602,365,9.0636,-0.379333,0.000684267,-0.00183505,-0.000578836,0.000810895,-0.00196168,-0.21537,0.00164607,0.0134435,1826,659,9.06354,0.379339
609,365,9.02966,-0.162231,0.00034515,-0.00101203,-0.000413653,0.000461289,-0.00112817,-0.273716,0.000944215,0.0135091,1833,659,9.02972,0.162208
616,365,9.05396,0.0664673,5.81155e-05,-0.000219758,-0.000156022,0.000128096,-0.000289738,-0.421628,0.00024718,0.0136868,1840,659,9.054,-0.0664862
623,365,9.07507,0.266052,-0.000107167,0.000320941,-3.08286e-05,0.00032315,-0.000109376,-1.49928,0.000259687,0.0103356,1847,659,9.07504,-0.266033
630,365,9.04309,0.47345,-0.000140178,0.000828232,-4.21053e-05,0.000830059,-0.000142005,-1.52743,0.000606277,0.0155493,1854,659,9.04308,-0.473468
637,365,9.03613,0.657532,-0.00042673,0.00134863,-5.01039e-05,0.00135004,-0.000428143,-1.5426,0.00107164,0.022521,1861,659,9.03609,-0.657548
644,365,9.07581,0.880127,-0.000974489,0.00188889,-0.000254301,0.0019113,-0.000996899,-1.4829,0.00170649,0.0162418,1868,659,9.07578,-0.880107
651,365,9.17358,1.11292,-0.00141695,0.00259477,-0.000554825,0.00267009,-0.00149227,-1.43587,0.002435,0.0277122,1875,659,9.17356,-1.11289
658,365,8.82227,1.06805,-0.00161899,0.00359539,-0.000924403,0.00375442,-0.00177802,-1.40043,0.00326139,0.0414788,1882,659,8.82225,-1.06808
665,365,8.84436,1.88696,-0.00119177,0.0049299,-0.00135749,0.00521742,-0.0014793,-1.36208,0.00406218,0.0483363,1889,659,8.84432,-1.88699
672,365,9.08179,1.95148,0,0,0,0,0,0,0,-1,1896,659,9.08183,-1.95146
679,365,8.83984,2.01807,0,0,0,0,0,0,0,-1,1903,659,8.83989,-2.01806
686,365,9.10181,2.29803,0,0,0,0,0,0,0,-1,1910,659,9.10176,-2.29803
693,365,15.7997,-3.09222,0,0,0,0,0,0,0,-1,1917,659,15.7997,3.09224
700,365,0,0,0,0,0,0,0,0,0,-1,1924,659,0,0
707,365,0,0,0,0,0,0,0,0,0,-1,1931,659,0,0
714,365,0,0,0,0,0,0,0,0,0,-1,1938,659,0,0
721,365,0,0,0,0,0,0,0,0,0,-1,1945,659,0,0
728,365,0,0,0,0,0,0,0,0,0,-1,1952,659,0,0
735,365,0,0,0,0,0,0,0,0,0,-1,1959,659,0,0
742,365,0,0,0,0,0,0,0,0,0,-1,1966,659,0,0
749,365,0,0,0,0,0,0,0,0,0,-1,1973,659,0,0
756,365,0,0,0,0,0,0,0,0,0,-1,1980,659,0,0
763,365,0,0,0,0,0,0,0,0,0,-1,1987,659,0,0
770,365,0,0,0,0,0,0,0,0,0,-1,1994,659,0,0
777,365,0,0,0,0,0,0,0,0,0,-1,2001,659,0,0
784,365,0,0,0,0,0,0,0,0,0,-1,2008,659,0,0
791,365,0,0,0,0,0,0,0,0,0,-1,2015,659,0,0
798,365,0,0,0,0,0,0,0,0,0,-1,2022,659,0,0
805,365,0,0,0,0,0,0,0,0,0,-1,2029,659,0,0
812,365,0,0,0,0,0,0,0,0,0,-1,2036,659,0,0
-700,358,0,0,0,0,0,0,0,0,0,-1,524,666,0,0
-693,358,0,0,0,0,0,0,0,0,0,-1,531,666,0,0
-686,358,0,0,0,0,0,0,0,0,0,-1,538,666,0,0
-679,358,0,0,0,0,0,0,0,0,0,-1,545,666,0,0
-672,358,0,0,0,0,0,0,0,0,0,-1,552,666,0,0
-665,358,0,0,0,0,0,0,0,0,0,-1,559,666,0,0
-658,358,0,0,0,0,0,0,0,0,0,-1,566,666,0,0
-651,358,0,0,0,0,0,0,0,0,0,-1,573,666,0,0
-644,358,0,0,0,0,0,0,0,0,0,-1,580,666,0,0
-637,358,0,0,0,0,0,0,0,0,0,-1,587,666,0,0
-630,358,0,0,0,0,0,0,0,0,0,-1,594,666,0,0
-623,358,0,0,0,0,0,0,0,0,0,-1,601,666,0,0
-616,358,0,0,0,0,0,0,0,0,0,-1,608,666,0,0
-609,358,0,0,0,0,0,0,0,0,0,-1,615,666,0,0
-602,358,0,0,0,0,0,0,0,0,0,-1,622,666,0,0
-595,358,0,0,0,0,0,0,0,0,0,-1,629,666,0,0
-588,358,0,0,0,0,0,0,0,0,0,-1,636,666,0,0
-581,358,-6.01373,-0.360962,0,0,0,0,0,0,0,-1,643,666,-6.01375,0.360972
-574,358,-5.36548,-0.0447388,0,0,0,0,0,0,0,-1,650,666,-5.36549,0.0447633
-567,358,-4.59875,0.410339,0,0,0,0,0,0,0,-1,657,666,-4.59875,-0.410352
-560,358,-3.80872,0.702148,0,0,0,0,0,0,0,-1,664,666,-3.80869,-0.702162
-553,358,-4.7226,0.441711,0,0,0,0,0,0,0,-1,671,666,-4.72261,-0.441715
-546,358,-4.64435,0.290283,0.00877545,0.0159151,-0.0186626,0.0313463,-0.00665574,-0.879897,0.0234333,0.0453761,678,666,-4.64433,-0.290283
-539,358,-4.65045,0.0228271,0.00617564,0.0130884,-0.0139582,0.0240118,-0.00474773,-0.906769,0.0178027,0.0422287,685,666,-4.65045,-0.0228499
-532,358,-4.58173,-0.341858,0.00417536,0.0103029,-0.0102133,0.0179021,-0.00342381,-0.931117,0.0132246,0.0371518,692,666,-4.58172,0.341854
-525,358,-4.38104,-0.795044,0.00266214,0.00781078,-0.00726521,0.0129443,-0.00247135,-0.955664,0.00956037,0.0269965,699,666,-4.38107,0.795065
-518,358,-4.37146,-0.910156,0.00161062,0.00568471,-0.00497449,0.00902308,-0.00172775,-0.979732,0.00666636,0.0214304,706,666,-4.37146,0.910127
-511,358,-4.42651,-1.10156,0.00090417,0.00385921,-0.00313136,0.00584413,-0.00108075,-1.00583,0.00430183,0.0150644,713,666,-4.42649,1.10157
-504,358,-4.41931,-1.28253,0.000620407,0.00224506,-0.00183547,0.00343993,-0.000574463,-0.993727,0.00250681,0.0111025,720,666,-4.41933,1.2825
-497,358,-4.40033,-1.4801,0.00056369,0.00127677,-0.000998293,0.00198029,-0.00013982,-0.956914,0.00136918,0.010373,727,666,-4.40032,1.48007
-490,358,-4.39813,-1.65521,0.000731741,5.74911e-05,-0.000465756,0.000969579,-0.000180346,-0.47213,0.000714133,0.00960921,734,666,-4.39816,1.65519
-483,358,-4.42499,-1.84052,0.00105191,-0.000982875,-0.000347929,0.00110976,-0.00104072,-0.164756,0.0012418,0.00944628,741,666,-4.42498,1.84053
-476,358,-4.43158,-2.04663,0.00154015,-0.001759,-0.00046062,0.00160325,-0.00182211,-0.13615,0.00197898,0.0104985,748,666,-4.43158,2.04664
-469,358,-4.42853,-2.25262,0.0019831,-0.00253146,-0.000714569,0.0020935,-0.00264186,-0.153291,0.00274007,0.0129071,755,666,-4.42855,2.2526
-462,358,-4.41541,-2.45447,0.00219274,-0.00340128,-0.00121156,0.00244387,-0.00365241,-0.204383,0.00354266,0.0163829,762,666,-4.4154,2.45447
-455,358,-4.37451,-2.672,0.00190202,-0.00443386,-0.0014363,0.00221241,-0.00474425,-0.212833,0.00410414,0.0205331,769,666,-4.37452,2.67198
-448,358,-4.23743,-2.95142,0.00129199,-0.00619148,-0.00133906,0.00152438,-0.00642387,-0.171835,0.00487088,0.0455414,776,666,-4.23742,2.9514
-441,358,-4.10236,-3.11047,0,0,0,0,0,0,0,-1,783,666,-4.10235,3.11045
-434,358,-4.58136,-3.73102,0,0,0,0,0,0,0,-1,790,666,-4.58139,3.73101
-427,358,-3.56189,-3.15729,0,0,0,0,0,0,0,-1,797,666,-3.56192,3.15729
-420,358,0.200195,1.08234,0,0,0,0,0,0,0,-1,804,666,0.200174,-1.08231
-413,358,0.0325317,0.161072,0,0,0,0,0,0,0,-1,811,666,0.0325501,-0.161098
-406,358,-3.85846,0.753113,0,0,0,0,0,0,0,-1,818,666,-3.85846,-0.753129
-399,358,-1.31213,0.190735,0,0,0,0,0,0,0,-1,825,666,-1.31215,-0.190763
-392,358,-3.73914,-0.832214,0,0,0,0,0,0,0,-1,832,666,-3.73915,0.832202
-385,358,-5.95178,-1.69141,0,0,0,0,0,0,0,-1,839,666,-5.9518,1.69143
-378,358,0,0,0,0,0,0,0,0,0,-1,846,666,0,0
-371,358,0,0,0,0,0,0,0,0,0,-1,853,666,0,0
-364,358,0,0,0,0,0,0,0,0,0,-1,860,666,0,0
-357,358,0,0,0,0,0,0,0,0,0,-1,867,666,0,0
-350,358,0,0,0,0,0,0,0,0,0,-1,874,666,0,0
-343,358,0,0,0,0,0,0,0,0,0,-1,881,666,0,0
-336,358,0,0,0,0,0,0,0,0,0,-1,888,666,0,0
-329,358,0,0,0,0,0,0,0,0,0,-1,895,666,0,0
-322,358,0,0,0,0,0,0,0,0,0,-1,902,666,0,0
-315,358,0,0,0,0,0,0,0,0,0,-1,909,666,0,0
-308,358,0,0,0,0,0,0,0,0,0,-1,916,666,0,0
-301,358,0,0,0,0,0,0,0,0,0,-1,923,666,0,0
-294,358,0,0,0,0,0,0,0,0,0,-1,930,666,0,0
-287,358,0,0,0,0,0,0,0,0,0,-1,937,666,0,0
-280,358,0,0,0,0,0,0,0,0,0,-1,944,666,0,0
-273,358,0,0,0,0,0,0,0,0,0,-1,951,666,0,0
-266,358,0,0,0,0,0,0,0,0,0,-1,958,666,0,0
-259,358,0,0,0,0,0,0,0,0,0,-1,965,666,0,0
-252,358,0,0,0,0,0,0,0,0,0,-1,972,666,0,0
-245,358,0,0,0,0,0,0,0,0,0,-1,979,666,0,0
-238,358,0,0,0,0,0,0,0,0,0,-1,986,666,0,0
-231,358,0,0,0,0,0,0,0,0,0,-1,993,666,0,0
-224,358,0,0,0,0,0,0,0,0,0,-1,1000,666,0,0
-217,358,0,0,0,0,0,0,0,0,0,-1,1007,666,0,0
-210,358,0,0,0,0,0,0,0,0,0,-1,1014,666,0,0
-203,358,0,0,0,0,0,0,0,0,0,-1,1021,666,0,0
-196,358,0,0,0,0,0,0,0,0,0,-1,1028,666,0,0
-189,358,0,0,0,0,0,0,0,0,0,-1,1035,666,0,0
-182,358,0,0,0,0,0,0,0,0,0,-1,1042,666,0,0
-175,358,0,0,0,0,0,0,0,0,0,-1,1049,666,0,0
-168,358,0,0,0,0,0,0,0,0,0,-1,1056,666,0,0
-161,358,0,0,0,0,0,0,0,0,0,-1,1063,666,0,0
-154,358,0,0,0,0,0,0,0,0,0,-1,1070,666,0,0
-147,358,0,0,0,0,0,0,0,0,0,-1,1077,666,0,0
-140,358,0,0,0,0,0,0,0,0,0,-1,1084,666,0,0
-133,358,0,0,0,0,0,0,0,0,0,-1,1091,666,0,0
-126,358,0,0,0,0,0,0,0,0,0,-1,1098,666,0,0
-119,358,0,0,0,0,0,0,0,0,0,-1,1105,666,0,0
-112,358,0,0,0,0,0,0,0,0,0,-1,1112,666,0,0
-105,358,0,0,0,0,0,0,0,0,0,-1,1119,666,0,0
-98,358,0,0,0,0,0,0,0,0,0,-1,1126,666,0,0
-91,358,0,0,0,0,0,0,0,0,0,-1,1133,666,0,0
-84,358,0,0,0,0,0,0,0,0,0,-1,1140,666,0,0
-77,358,0,0,0,0,0,0,0,0,0,-1,1147,666,0,0
-70,358,0,0,0,0,0,0,0,0,0,-1,1154,666,0,0
-63,358,0,0,0,0,0,0,0,0,0,-1,1161,666,0,0
-56,358,0,0,0,0,0,0,0,0,0,-1,1168,666,0,0
-49,358,0,0,0,0,0,0,0,0,0,-1,1175,666,0,0
-42,358,0,0,0,0,0,0,0,0,0,-1,1182,666,0,0
-35,358,0,0,0,0,0,0,0,0,0,-1,1189,666,0,0
-28,358,0,0,0,0,0,0,0,0,0,-1,1196,666,0,0
-21,358,0,0,0,0,0,0,0,0,0,-1,1203,666,0,0
-14,358,0,0,0,0,0,0,0,0,0,-1,1210,666,0,0
-7,358,0,0,0,0,0,0,0,0,0,-1,1217,666,0,0
0,358,0,0,0,0,0,0,0,0,0,-1,1224,666,0,0
7,358,0,0,0,0,0,0,0,0,0,-1,1231,666,0,0
14,358,0,0,0,0,0,0,0,0,0,-1,1238,666,0,0
21,358,0,0,0,0,0,0,0,0,0,-1,1245,666,0,0
28,358,0,0,0,0,0,0,0,0,0,-1,1252,666,0,0
35,358,0,0,0,0,0,0,0,0,0,-1,1259,666,0,0
42,358,0,0,0,0,0,0,0,0,0,-1,1266,666,0,0
49,358,0,0,0,0,0,0,0,0,0,-1,1273,666,0,0
56,358,0,0,0,0,0,0,0,0,0,-1,1280,666,0,0
63,358,0,0,0,0,0,0,0,0,0,-1,1287,666,0,0
70,358,0,0,0,0,0,0,0,0,0,-1,1294,666,0,0
77,358,0,0,0,0,0,0,0,0,0,-1,1301,666,0,0
84,358,0,0,0,0,0,0,0,0,0,-1,1308,666,0,0
91,358,0,0,0,0,0,0,0,0,0,-1,1315,666,0,0
98,358,0,0,0,0,0,0,0,0,0,-1,1322,666,0,0
105,358,0,0,0,0,0,0,0,0,0,-1,1329,666,0,0
112,358,0,0,0,0,0,0,0,0,0,-1,1336,666,0,0
119,358,0,0,0,0,0,0,0,0,0,-1,1343,666,0,0
126,358,0,0,0,0,0,0,0,0,0,-1,1350,666,0,0
133,358,0,0,0,0,0,0,0,0,0,-1,1357,666,0,0
140,358,0,0,0,0,0,0,0,0,0,-1,1364,666,0,0
147,358,0,0,0,0,0,0,0,0,0,-1,1371,666,0,0
154,358,0,0,0,0,0,0,0,0,0,-1,1378,666,0,0
161,358,0,0,0,0,0,0,0,0,0,-1,1385,666,0,0
168,358,0,0,0,0,0,0,0,0,0,-1,1392,666,0,0
175,358,0,0,0,0,0,0,0,0,0,-1,1399,666,0,0
182,358,0,0,0,0,0,0,0,0,0,-1,1406,666,0,0
189,358,0,0,0,0,0,0,0,0,0,-1,1413,666,0,0
196,358,0,0,0,0,0,0,0,0,0,-1,1420,666,0,0
203,358,0,0,0,0,0,0,0,0,0,-1,1427,666,0,0
210,358,0,0,0,0,0,0,0,0,0,-1,1434,666,0,0
217,358,0,0,0,0,0,0,0,0,0,-1,1441,666,0,0
224,358,0,0,0,0,0,0,0,0,0,-1,1448,666,0,0
231,358,0,0,0,0,0,0,0,0,0,-1,1455,666,0,0
238,358,0,0,0,0,0,0,0,0,0,-1,1462,666,0,0
245,358,0,0,0,0,0,0,0,0,0,-1,1469,666,0,0
252,358,0,0,0,0,0,0,0,0,0,-1,1476,666,0,0
259,358,0,0,0,0,0,0,0,0,0,-1,1483,666,0,0
266,358,0,0,0,0,0,0,0,0,0,-1,1490,666,0,0
273,358,0,0,0,0,0,0,0,0,0,-1,1497,666,0,0
280,358,0,0,0,0,0,0,0,0,0,-1,1504,666,0,0
287,358,0,0,0,0,0,0,0,0,0,-1,1511,666,0,0
294,358,0,0,0,0,0,0,0,0,0,-1,1518,666,0,0
301,358,0,0,0,0,0,0,0,0,0,-1,1525,666,0,0
308,358,0,0,0,0,0,0,0,0,0,-1,1532,666,0,0
315,358,0,0,0,0,0,0,0,0,0,-1,1539,666,0,0
322,358,0,0,0,0,0,0,0,0,0,-1,1546,666,0,0
329,358,0,0,0,0,0,0,0,0,0,-1,1553,666,0,0
336,358,0,0,0,0,0,0,0,0,0,-1,1560,666,0,0
343,358,0,0,0,0,0,0,0,0,0,-1,1567,666,0,0
350,358,0,0,0,0,0,0,0,0,0,-1,1574,666,0,0
357,358,0,0,0,0,0,0,0,0,0,-1,1581,666,0,0
364,358,0,0,0,0,0,0,0,0,0,-1,1588,666,0,0
371,358,0,0,0,0,0,0,0,0,0,-1,1595,666,0,0
378,358,0,0,0,0,0,0,0,0,0,-1,1602,666,0,0
385,358,0,0,0,0,0,0,0,0,0,-1,1609,666,0,0
392,358,0,0,0,0,0,0,0,0,0,-1,1616,666,0,0
399,358,0,0,0,0,0,0,0,0,0,-1,1623,666,0,0
406,358,0,0,0,0,0,0,0,0,0,-1,1630,666,0,0
413,358,0,0,0,0,0,0,0,0,0,-1,1637,666,0,0
420,358,0,0,0,0,0,0,0,0,0,-1,1644,666,0,0
427,358,0,0,0,0,0,0,0,0,0,-1,1651,666,0,0
434,358,0,0,0,0,0,0,0,0,0,-1,1658,666,0,0
441,358,0,0,0,0,0,0,0,0,0,-1,1665,666,0,0
448,358,0,0,0,0,0,0,0,0,0,-1,1672,666,0,0
455,358,0,0,0,0,0,0,0,0,0,-1,1679,666,0,0
462,358,0,0,0,0,0,0,0,0,0,-1,1686,666,0,0
469,358,0,0,0,0,0,0,0,0,0,-1,1693,666,0,0
476,358,0,0,0,0,0,0,0,0,0,-1,1700,666,0,0
483,358,0,0,0,0,0,0,0,0,0,-1,1707,666,0,0
490,358,0,0,0,0,0,0,0,0,0,-1,1714,666,0,0
497,358,8.57239,1.1322,0,0,0,0,0,0,0,-1,1721,666,8.57234,-1.13219
504,358,10.5972,0.832947,0,0,0,0,0,0,0,-1,1728,666,10.5972,-0.832968
511,358,10.6873,0.868469,0,0,0,0,0,0,0,-1,1735,666,10.6872,-0.868484
518,358,10.7079,0.866211,0,0,0,0,0,0,0,-1,1742,666,10.7079,-0.8662
525,358,10.797,0.692993,0,0,0,0,0,0,0,-1,1749,666,10.797,-0.693009
532,358,13.5295,1.88013,0,0,0,0,0,0,0,-1,1756,666,13.5296,-1.88011
539,358,12.9438,1.70734,0,0,0,0,0,0,0,-1,1763,666,12.9438,-1.70732
546,358,12.3792,1.53558,0,0,0,0,0,0,0,-1,1770,666,12.3792,-1.5356
553,358,11.6584,1.26172,0,0,0,0,0,0,0,-1,1777,666,11.6585,-1.26175
560,358,10.8234,1.43042,0,0,0,0,0,0,0,-1,1784,666,10.8233,-1.43041
567,358,10.1333,-0.955139,0,0,0,0,0,0,0,-1,1791,666,10.1333,0.955132
574,358,9.63074,-1.6347,0,0,0,0,0,0,0,-1,1798,666,9.63076,1.63468
581,358,9.37573,-1.06982,0.0195988,0.000698902,0.000880953,0.0196398,0.000657928,0.0464771,0.0128795,0.0272194,1805,666,9.37579,1.06983
588,358,9.2135,-0.862,0.01177,-0.00120526,-0.000379504,0.0117811,-0.00121635,-0.029215,0.00828931,0.014407,1812,666,9.2135,0.86197
595,358,9.25513,-0.590332,0.00597522,-0.00210262,-0.00100817,0.00609915,-0.00222655,-0.122308,0.00497715,0.0114194,1819,666,9.25513,0.590338
602,358,9.25391,-0.361511,0.00258234,-0.00203272,-0.0011609,0.00285791,-0.00230829,-0.233058,0.00298832,0.0123084,1826,666,9.25386,0.36151
609,358,9.23364,-0.160278,0.00125475,-0.00105943,-0.000962666,0.00160285,-0.00140753,-0.346966,0.00173926,0.015874,1833,666,9.23359,0.160285
616,358,9.24463,0.0734863,0.000331382,-0.000398622,-0.000701061,0.000756768,-0.000824008,-0.545386,0.000912937,0.014543,1840,666,9.24461,-0.0735037
623,358,9.28235,0.264343,-0.000179149,-2.6114e-05,-0.00049176,0.000395046,-0.000600309,-0.862579,0.000578728,0.0126881,1847,666,9.28239,-0.264349
630,358,9.2561,0.447083,-0.000179245,0.0003171,-0.000374748,0.0005184,-0.000380545,-1.07786,0.000521036,0.0166169,1854,666,9.25609,-0.447064
637,358,9.24377,0.64563,-0.0003549,0.000852809,-0.000288342,0.000918119,-0.000420211,-1.34805,0.000790309,0.0227448,1861,666,9.24374,-0.645625
644,358,9.26294,0.868896,-0.000771935,0.00137615,-0.000527028,0.00149849,-0.000894273,-1.34271,0.00139607,0.0186724,1868,666,9.2629,-0.868889
651,358,9.33252,1.14844,-0.00112506,0.00199976,-0.000872077,0.00222666,-0.00135196,-1.31625,0.00208659,0.0204846,1875,666,9.33246,-1.14846
658,358,9.11548,1.32538,-0.00121985,0.00283136,-0.00130803,0.00321698,-0.00160547,-1.28411,0.00283559,0.0321415,1882,666,9.11546,-1.32536
665,358,8.82642,1.4823,-0.00076734,0.00388801,-0.00182169,0.00451611,-0.00139544,-1.23877,0.00356804,0.0399723,1889,666,8.82645,-1.48228
672,358,8.65479,1.68298,0,0,0,0,0,0,0,-1,1896,666,8.65473,-1.68297
679,358,9.20227,1.95892,0,0,0,0,0,0,0,-1,1903,666,9.20225,-1.95895
686,358,13.5322,-2.10199,0,0,0,0,0,0,0,-1,1910,666,13.5322,2.10196
693,358,14.6539,-2.62823,0,0,0,0,0,0,0,-1,1917,666,14.6539,2.62825
700,358,0,0,0,0,0,0,0,0,0,-1,1924,666,0,0
707,358,0,0,0,0,0,0,0,0,0,-1,1931,666,0,0
714,358,0,0,0,0,0,0,0,0,0,-1,1938,666,0,0
721,358,0,0,0,0,0,0,0,0,0,-1,1945,666,0,0
728,358,0,0,0,0,0,0,0,0,0,-1,1952,666,0,0
735,358,0,0,0,0,0,0,0,0,0,-1,1959,666,0,0
742,358,0,0,0,0,0,0,0,0,0,-1,1966,666,0,0
749,358,0,0,0,0,0,0,0,0,0,-1,1973,666,0,0
756,358,0,0,0,0,0,0,0,0,0,-1,1980,666,0,0
763,358,0,0,0,0,0,0,0,0,0,-1,1987,666,0,0
770,358,0,0,0,0,0,0,0,0,0,-1,1994,666,0,0
777,358,0,0,0,0,0,0,0,0,0,-1,2001,666,0,0
784,358,0,0,0,0,0,0,0,0,0,-1,2008,666,0,0
791,358,0,0,0,0,0,0,0,0,0,-1,2015,666,0,0
798,358,0,0,0,0,0,0,0,0,0,-1,2022,666,0,0
805,358,0,0,0,0,0,0,0,0,0,-1,2029,666,0,0
812,358,0,0,0,0,0,0,0,0,0,-1,2036,666,0,0
-700,351,0,0,0,0,0,0,0,0,0,-1,524,673,0,0
-693,351,0,0,0,0,0,0,0,0,0,-1,531,673,0,0
-686,351,0,0,0,0,0,0,0,0,0,-1,538,673,0,0
-679,351,0,0,0,0,0,0,0,0,0,-1,545,673,0,0
-672,351,0,0,0,0,0,0,0,0,0,-1,552,673,0,0
-665,351,0,0,0,0,0,0,0,0,0,-1,559,673,0,0
-658,351,0,0,0,0,0,0,0,0,0,-1,566,673,0,0
-651,351,0,0,0,0,0,0,0,0,0,-1,573,673,0,0
-644,351,0,0,0,0,0,0,0,0,0,-1,580,673,0,0
-637,351,0,0,0,0,0,0,0,0,0,-1,587,673,0,0
-630,351,0,0,0,0,0,0,0,0,0,-1,594,673,0,0
-623,351,0,0,0,0,0,0,0,0,0,-1,601,673,0,0
-616,351,0,0,0,0,0,0,0,0,0,-1,608,673,0,0
-609,351,0,0,0,0,0,0,0,0,0,-1,615,673,0,0
-602,351,0,0,0,0,0,0,0,0,0,-1,622,673,0,0
-595,351,0,0,0,0,0,0,0,0,0,-1,629,673,0,0
-588,351,0,0,0,0,0,0,0,0,0,-1,636,673,0,0
-581,351,-7.97516,-0.949097,0,0,0,0,0,0,0,-1,643,673,-7.97516,0.949095
-574,351,-4.99658,0.663696,0,0,0,0,0,0,0,-1,650,673,-4.99656,-0.663714
-567,351,-4.58691,0.571228,0,0,0,0,0,0,0,-1,657,673,-4.58692,-0.571216
-560,351,-4.3183,0.0581055,0,0,0,0,0,0,0,-1,664,673,-4.31828,-0.0581073
-553,351,-4.7616,0.111755,0,0,0,0,0,0,0,-1,671,673,-4.7616,-0.111749
-546,351,-4.6662,-0.0217896,0.00595365,0.0122639,-0.0144557,0.0239048,-0.00568726,-0.892844,0.0181321,0.0436778,678,673,-4.66618,0.0217631
-539,351,-4.64093,-0.254944,0.00434134,0.0103536,-0.0109561,0.0187085,-0.00401351,-0.919294,0.0140032,0.0403847,685,673,-4.64091,0.254926
-532,351,-4.46704,-0.516357,0.00311288,0.00834899,-0.00815836,0.0142991,-0.0028372,-0.94066,0.0106057,0.027889,692,673,-4.46705,0.516339
-525,351,-4.56769,-0.737061,0.00217207,0.00647798,-0.00591353,0.0106183,-0.00196823,-0.959976,0.00781796,0.0179818,699,673,-4.56771,0.737048
-518,351,-4.61572,-0.866211,0.0015416,0.00483311,-0.00417916,0.00767889,-0.00130418,-0.972973,0.0056048,0.010954,706,673,-4.61575,0.866208
-511,351,-4.60541,-1.06079,0.00111716,0.00326116,-0.00267689,0.00507272,-0.0006944,-0.975851,0.00363546,0.0104154,713,673,-4.60542,1.0608
-504,351,-4.61523,-1.27148,0.00103939,0.00177631,-0.00160485,0.00305445,-0.000238756,-0.898239,0.00212037,0.00981848,720,673,-4.61524,1.27149
-497,351,-4.60004,-1.46057,0.001075,0.000738921,-0.000881428,0.00180426,9.65671e-06,-0.691207,0.00119964,0.00949035,727,673,-4.60005,1.46059
-490,351,-4.58789,-1.64362,0.00126672,-0.000654414,-0.000365868,0.00133404,-0.000721732,-0.181961,0.00120432,0.00893734,734,673,-4.58791,1.64361
-483,351,-4.60461,-1.83716,0.00151202,-0.0021024,-0.000284916,0.00153434,-0.00212472,-0.0781843,0.0021217,0.0112717,741,673,-4.60461,1.83719
-476,351,-4.63068,-2.04614,0.0019119,-0.0034997,-0.00033642,0.00193273,-0.00352054,-0.061849,0.00319262,0.0106885,748,673,-4.63067,2.04616
-469,351,-4.61646,-2.22601,0.00219689,-0.00516036,-0.000542704,0.0022367,-0.00520018,-0.0732362,0.00440585,0.0120582,755,673,-4.61648,2.22599
-462,351,-4.60999,-2.45013,0.00216876,-0.00733307,-0.000923782,0.00225773,-0.00742204,-0.0960234,0.00584774,0.0165974,762,673,-4.60996,2.45011
-455,351,-4.56158,-2.72845,0.00154996,-0.0100516,-0.00107871,0.00164941,-0.0101511,-0.0919292,0.00737889,0.0278516,769,673,-4.5616,2.72843
-448,351,-4.28461,-2.77228,0,0,0,0,0,0,0,-1,776,673,-4.28458,2.77231
-441,351,-4.31567,-2.3009,0,0,0,0,0,0,0,-1,783,673,-4.31565,2.30089
-434,351,-3.81708,-2.28003,0,0,0,0,0,0,0,-1,790,673,-3.81706,2.28006
-427,351,-2.05157,-2.7785,0,0,0,0,0,0,0,-1,797,673,-2.05157,2.77848
-420,351,-1.06989,-2.43665,0,0,0,0,0,0,0,-1,804,673,-1.06991,2.43663
-413,351,-0.392334,-2.06671,0,0,0,0,0,0,0,-1,811,673,-0.392363,2.06672
-406,351,-1.86316,-2.58105,0,0,0,0,0,0,0,-1,818,673,-1.86313,2.58106
-399,351,1.00952,-1.53455,0,0,0,0,0,0,0,-1,825,673,1.00954,1.53457
-392,351,-1.02197,0.877136,0,0,0,0,0,0,0,-1,832,673,-1.02195,-0.877143
-385,351,-1.47205,1.04437,0,0,0,0,0,0,0,-1,839,673,-1.47207,-1.04435
-378,351,0,0,0,0,0,0,0,0,0,-1,846,673,0,0
-371,351,0,0,0,0,0,0,0,0,0,-1,853,673,0,0
-364,351,0,0,0,0,0,0,0,0,0,-1,860,673,0,0
-357,351,0,0,0,0,0,0,0,0,0,-1,867,673,0,0
-350,351,0,0,0,0,0,0,0,0,0,-1,874,673,0,0
-343,351,0,0,0,0,0,0,0,0,0,-1,881,673,0,0
-336,351,0,0,0,0,0,0,0,0,0,-1,888,673,0,0
-329,351,0,0,0,0,0,0,0,0,0,-1,895,673,0,0
-322,351,0,0,0,0,0,0,0,0,0,-1,902,673,0,0
-315,351,0,0,0,0,0,0,0,0,0,-1,909,673,0,0
-308,351,0,0,0,0,0,0,0,0,0,-1,916,673,0,0
-301,351,0,0,0,0,0,0,0,0,0,-1,923,673,0,0
-294,351,0,0,0,0,0,0,0,0,0,-1,930,673,0,0
-287,351,0,0,0,0,0,0,0,0,0,-1,937,673,0,0
-280,351,0,0,0,0,0,0,0,0,0,-1,944,673,0,0
-273,351,0,0,0,0,0,0,0,0,0,-1,951,673,0,0
-266,351,0,0,0,0,0,0,0,0,0,-1,958,673,0,0
-259,351,0,0,0,0,0,0,0,0,0,-1,965,673,0,0
-252,351,0,0,0,0,0,0,0,0,0,-1,972,673,0,0
-245,351,0,0,0,0,0,0,0,0,0,-1,979,673,0,0
-238,351,0,0,0,0,0,0,0,0,0,-1,986,673,0,0
-231,351,0,0,0,0,0,0,0,0,0,-1,993,673,0,0
-224,351,0,0,0,0,0,0,0,0,0,-1,1000,673,0,0
-217,351,0,0,0,0,0,0,0,0,0,-1,1007,673,0,0
-210,351,0,0,0,0,0,0,0,0,0,-1,1014,673,0,0
-203,351,0,0,0,0,0,0,0,0,0,-1,1021,673,0,0
-196,351,0,0,0,0,0,0,0,0,0,-1,1028,673,0,0
-189,351,0,0,0,0,0,0,0,0,0,-1,1035,673,0,0
-182,351,0,0,0,0,0,0,0,0,0,-1,1042,673,0,0
-175,351,0,0,0,0,0,0,0,0,0,-1,1049,673,0,0
-168,351,0,0,0,0,0,0,0,0,0,-1,1056,673,0,0
-161,351,0,0,0,0,0,0,0,0,0,-1,1063,673,0,0
-154,351,0,0,0,0,0,0,0,0,0,-1,1070,673,0,0
-147,351,0,0,0,0,0,0,0,0,0,-1,1077,673,0,0
-140,351,0,0,0,0,0,0,0,0,0,-1,1084,673,0,0
-133,351,0,0,0,0,0,0,0,0,0,-1,1091,673,0,0
-126,351,0,0,0,0,0,0,0,0,0,-1,1098,673,0,0
-119,351,0,0,0,0,0,0,0,0,0,-1,1105,673,0,0
-112,351,0,0,0,0,0,0,0,0,0,-1,1112,673,0,0
-105,351,0,0,0,0,0,0,0,0,0,-1,1119,673,0,0
-98,351,0,0,0,0,0,0,0,0,0,-1,1126,673,0,0
-91,351,0,0,0,0,0,0,0,0,0,-1,1133,673,0,0
-84,351,0,0,0,0,0,0,0,0,0,-1,1140,673,0,0
-77,351,0,0,0,0,0,0,0,0,0,-1,1147,673,0,0
-70,351,0,0,0,0,0,0,0,0,0,-1,1154,673,0,0
-63,351,0,0,0,0,0,0,0,0,0,-1,1161,673,0,0
-56,351,0,0,0,0,0,0,0,0,0,-1,1168,673,0,0
-49,351,0,0,0,0,0,0,0,0,0,-1,1175,673,0,0
-42,351,0,0,0,0,0,0,0,0,0,-1,1182,673,0,0
-35,351,0,0,0,0,0,0,0,0,0,-1,1189,673,0,0
-28,351,0,0,0,0,0,0,0,0,0,-1,1196,673,0,0
-21,351,0,0,0,0,0,0,0,0,0,-1,1203,673,0,0
-14,351,0,0,0,0,0,0,0,0,0,-1,1210,673,0,0
-7,351,0,0,0,0,0,0,0,0,0,-1,1217,673,0,0
0,351,0,0,0,0,0,0,0,0,0,-1,1224,673,0,0
7,351,0,0,0,0,0,0,0,0,0,-1,1231,673,0,0
14,351,0,0,0,0,0,0,0,0,0,-1,1238,673,0,0
21,351,0,0,0,0,0,0,0,0,0,-1,1245,673,0,0
28,351,0,0,0,0,0,0,0,0,0,-1,1252,673,0,0
35,351,0,0,0,0,0,0,0,0,0,-1,1259,673,0,0
42,351,0,0,0,0,0,0,0,0,0,-1,1266,673,0,0
49,351,0,0,0,0,0,0,0,0,0,-1,1273,673,0,0
56,351,0,0,0,0,0,0,0,0,0,-1,1280,673,0,0
63,351,0,0,0,0,0,0,0,0,0,-1,1287,673,0,0
70,351,0,0,0,0,0,0,0,0,0,-1,1294,673,0,0
77,351,0,0,0,0,0,0,0,0,0,-1,1301,673,0,0
84,351,0,0,0,0,0,0,0,0,0,-1,1308,673,0,0
91,351,0,0,0,0,0,0,0,0,0,-1,1315,673,0,0
98,351,0,0,0,0,0,0,0,0,0,-1,1322,673,0,0
105,351,0,0,0,0,0,0,0,0,0,-1,1329,673,0,0
112,351,0,0,0,0,0,0,0,0,0,-1,1336,673,0,0
119,351,0,0,0,0,0,0,0,0,0,-1,1343,673,0,0
126,351,0,0,0,0,0,0,0,0,0,-1,1350,673,0,0
133,351,0,0,0,0,0,0,0,0,0,-1,1357,673,0,0
140,351,0,0,0,0,0,0,0,0,0,-1,1364,673,0,0
147,351,0,0,0,0,0,0,0,0,0,-1,1371,673,0,0
154,351,0,0,0,0,0,0,0,0,0,-1,1378,673,0,0
161,351,0,0,0,0,0,0,0,0,0,-1,1385,673,0,0
168,351,0,0,0,0,0,0,0,0,0,-1,1392,673,0,0
175,351,0,0,0,0,0,0,0,0,0,-1,1399,673,0,0
182,351,0,0,0,0,0,0,0,0,0,-1,1406,673,0,0
189,351,0,0,0,0,0,0,0,0,0,-1,1413,673,0,0
196,351,0,0,0,0,0,0,0,0,0,-1,1420,673,0,0
203,351,0,0,0,0,0,0,0,0,0,-1,1427,673,0,0
210,351,0,0,0,0,0,0,0,0,0,-1,1434,673,0,0
217,351,0,0,0,0,0,0,0,0,0,-1,1441,673,0,0
224,351,0,0,0,0,0,0,0,0,0,-1,1448,673,0,0
231,351,0,0,0,0,0,0,0,0,0,-1,1455,673,0,0
238,351,0,0,0,0,0,0,0,0,0,-1,1462,673,0,0
245,351,0,0,0,0,0,0,0,0,0,-1,1469,673,0,0
252,351,0,0,0,0,0,0,0,0,0,-1,1476,673,0,0
259,351,0,0,0,0,0,0,0,0,0,-1,1483,673,0,0
266,351,0,0,0,0,0,0,0,0,0,-1,1490,673,0,0
273,351,0,0,0,0,0,0,0,0,0,-1,1497,673,0,0
280,351,0,0,0,0,0,0,0,0,0,-1,1504,673,0,0
287,351,0,0,0,0,0,0,0,0,0,-1,1511,673,0,0
294,351,0,0,0,0,0,0,0,0,0,-1,1518,673,0,0
301,351,0,0,0,0,0,0,0,0,0,-1,1525,673,0,0
308,351,0,0,0,0,0,0,0,0,0,-1,1532,673,0,0
315,351,0,0,0,0,0,0,0,0,0,-1,1539,673,0,0
322,351,0,0,0,0,0,0,0,0,0,-1,1546,673,0,0
329,351,0,0,0,0,0,0,0,0,0,-1,1553,673,0,0
336,351,0,0,0,0,0,0,0,0,0,-1,1560,673,0,0
343,351,0,0,0,0,0,0,0,0,0,-1,1567,673,0,0
350,351,0,0,0,0,0,0,0,0,0,-1,1574,673,0,0
357,351,0,0,0,0,0,0,0,0,0,-1,1581,673,0,0
364,351,0,0,0,0,0,0,0,0,0,-1,1588,673,0,0
371,351,0,0,0,0,0,0,0,0,0,-1,1595,673,0,0
378,351,0,0,0,0,0,0,0,0,0,-1,1602,673,0,0
385,351,0,0,0,0,0,0,0,0,0,-1,1609,673,0,0
392,351,0,0,0,0,0,0,0,0,0,-1,1616,673,0,0
399,351,0,0,0,0,0,0,0,0,0,-1,1623,673,0,0
406,351,0,0,0,0,0,0,0,0,0,-1,1630,673,0,0
413,351,0,0,0,0,0,0,0,0,0,-1,1637,673,0,0
420,351,0,0,0,0,0,0,0,0,0,-1,1644,673,0,0
427,351,0,0,0,0,0,0,0,0,0,-1,1651,673,0,0
434,351,0,0,0,0,0,0,0,0,0,-1,1658,673,0,0
441,351,0,0,0,0,0,0,0,0,0,-1,1665,673,0,0
448,351,0,0,0,0,0,0,0,0,0,-1,1672,673,0,0
455,351,0,0,0,0,0,0,0,0,0,-1,1679,673,0,0
462,351,0,0,0,0,0,0,0,0,0,-1,1686,673,0,0
469,351,0,0,0,0,0,0,0,0,0,-1,1693,673,0,0
476,351,0,0,0,0,0,0,0,0,0,-1,1700,673,0,0
483,351,0,0,0,0,0,0,0,0,0,-1,1707,673,0,0
490,351,0,0,0,0,0,0,0,0,0,-1,1714,673,0,0
497,351,0,0,0,0,0,0,0,0,0,-1,1721,673,0,0
504,351,10.8842,1.61615,0,0,0,0,0,0,0,-1,1728,673,10.8842,-1.61618
511,351,15.4548,0.0236816,0,0,0,0,0,0,0,-1,1735,673,15.4549,-0.0236664
518,351,15.4282,0.152954,0,0,0,0,0,0,0,-1,1742,673,15.4282,-0.152972
525,351,15.4595,0.39502,0,0,0,0,0,0,0,-1,1749,673,15.4595,-0.395007
532,351,13.8259,2.63629,0,0,0,0,0,0,0,-1,1756,673,13.8259,-2.63632
539,351,13.2594,2.43634,0,0,0,0,0,0,0,-1,1763,673,13.2594,-2.43634
546,351,12.6396,2.22565,0,0,0,0,0,0,0,-1,1770,673,12.6396,-2.22564
553,351,12.0682,2.02832,0,0,0,0,0,0,0,-1,1777,673,12.0683,-2.02831
560,351,12.0173,0.55304,0,0,0,0,0,0,0,-1,1784,673,12.0174,-0.553028
567,351,10.7827,0.130188,0,0,0,0,0,0,0,-1,1791,673,10.7827,-0.130183
574,351,10.2533,-0.396973,0,0,0,0,0,0,0,-1,1798,673,10.2533,0.396955
581,351,9.82642,-0.531555,0.0257057,0.00231831,-0.000106711,0.0257062,0.00231782,-0.00456261,0.0164195,0.0467888,1805,673,9.82636,0.53156
588,351,9.40125,-0.78479,0.0165555,0.000145622,-0.00164832,0.0167195,-1.83079e-05,-0.0991268,0.0111524,0.0303414,1812,673,9.40123,0.784782
595,351,9.44153,-0.63147,0.00930429,-0.00111983,-0.00238725,0.00982499,-0.00164053,-0.214754,0.00715976,0.0172899,1819,673,9.44156,0.631467
602,351,9.4707,-0.388916,0.00455775,-0.00147627,-0.00250334,0.00546108,-0.0023796,-0.346307,0.00464189,0.0171107,1826,673,9.47068,0.388939
609,351,9.48718,-0.191101,0.00240684,-0.000556427,-0.00207167,0.00347217,-0.00162177,-0.474975,0.00300497,0.0165761,1833,673,9.48716,0.191119
616,351,9.479,0.0424805,0.000861607,-0.000144793,-0.00163779,0.00207176,-0.00135494,-0.636354,0.00199278,0.0136132,1840,673,9.47902,-0.0424901
623,351,9.4856,0.263306,-5.06296e-05,-3.43004e-05,-0.00120233,0.0011599,-0.00124483,-0.788793,0.00138866,0.0144048,1847,673,9.48556,-0.263321
630,351,9.48267,0.446899,-0.000104259,9.12001e-05,-0.000838546,0.000837693,-0.000850752,-0.84341,0.000974834,0.0241191,1854,673,9.48271,-0.446899
637,351,9.48816,0.667175,-0.000129218,0.000444547,-0.0004684,0.000706937,-0.000391608,-1.06017,0.000642896,0.0271803,1861,673,9.48821,-0.667179
644,351,9.46875,0.90155,-0.000484646,0.00087575,-0.000695719,0.00116853,-0.00077743,-1.17246,0.00113104,0.0199808,1868,673,9.4687,-0.901559
651,351,9.48987,1.13812,-0.000581144,0.00143019,-0.000988673,0.00183479,-0.00098574,-1.18236,0.00165284,0.0151968,1875,673,9.48986,-1.1381
658,351,9.48792,1.36133,-0.000454569,0.00211905,-0.00138467,0.00272252,-0.00105804,-1.15979,0.00225212,0.0211317,1882,673,9.48786,-1.36131
665,351,9.28894,1.46051,0.000232695,0.00295485,-0.00182331,0.00386907,-0.000681527,-1.10602,0.00283401,0.0264324,1889,673,9.28899,-1.46049
672,351,9.30615,1.77393,0.00161942,0.00419833,-0.00238412,0.00561935,0.000198393,-1.03329,0.00368189,0.0373503,1896,673,9.30616,-1.77392
679,351,9.51746,1.79559,0.00402085,0.00586973,-0.0029724,0.00805813,0.00183245,-0.936161,0.00487739,0.0447247,1903,673,9.51746,-1.79562
686,351,9.71655,1.78668,0,0,0,0,0,0,0,-1,1910,673,9.71651,-1.7867
693,351,13.3785,-2.0307,0,0,0,0,0,0,0,-1,1917,673,13.3785,2.03069
700,351,14.5629,-2.40173,0,0,0,0,0,0,0,-1,1924,673,14.5629,2.40172
707,351,0,0,0,0,0,0,0,0,0,-1,1931,673,0,0
714,351,0,0,0,0,0,0,0,0,0,-1,1938,673,0,0
721,351,0,0,0,0,0,0,0,0,0,-1,1945,673,0,0
728,351,0,0,0,0,0,0,0,0,0,-1,1952,673,0,0
735,351,0,0,0,0,0,0,0,0,0,-1,1959,673,0,0
742,351,0,0,0,0,0,0,0,0,0,-1,1966,673,0,0
749,351,0,0,0,0,0,0,0,0,0,-1,1973,673,0,0
756,351,0,0,0,0,0,0,0,0,0,-1,1980,673,0,0
763,351,0,0,0,0,0,0,0,0,0,-1,1987,673,0,0
770,351,0,0,0,0,0,0,0,0,0,-1,1994,673,0,0
777,351,0,0,0,0,0,0,0,0,0,-1,2001,673,0,0
784,351,0,0,0,0,0,0,0,0,0,-1,2008,673,0,0
791,351,0,0,0,0,0,0,0,0,0,-1,2015,673,0,0
798,351,0,0,0,0,0,0,0,0,0,-1,2022,673,0,0
805,351,0,0,0,0,0,0,0,0,0,-1,2029,673,0,0
812,351,0,0,0,0,0,0,0,0,0,-1,2036,673,0,0
-700,344,0,0,0,0,0,0,0,0,0,-1,524,680,0,0
-693,344,0,0,0,0,0,0,0,0,0,-1,531,680,0,0
-686,344,0,0,0,0,0,0,0,0,0,-1,538,680,0,0
-679,344,0,0,0,0,0,0,0,0,0,-1,545,680,0,0
-672,344,0,0,0,0,0,0,0,0,0,-1,552,680,0,0
-665,344,0,0,0,0,0,0,0,0,0,-1,559,680,0,0
-658,344,0,0,0,0,0,0,0,0,0,-1,566,680,0,0
-651,344,0,0,0,0,0,0,0,0,0,-1,573,680,0,0
-644,344,0,0,0,0,0,0,0,0,0,-1,580,680,0,0
-637,344,0,0,0,0,0,0,0,0,0,-1,587,680,0,0
-630,344,0,0,0,0,0,0,0,0,0,-1,594,680,0,0
-623,344,0,0,0,0,0,0,0,0,0,-1,601,680,0,0
-616,344,0,0,0,0,0,0,0,0,0,-1,608,680,0,0
-609,344,0,0,0,0,0,0,0,0,0,-1,615,680,0,0
-602,344,0,0,0,0,0,0,0,0,0,-1,622,680,0,0
-595,344,0,0,0,0,0,0,0,0,0,-1,629,680,0,0
-588,344,-8.7923,-1.1908,0,0,0,0,0,0,0,-1,636,680,-8.79228,1.19078
-581,344,-8.20551,-0.296204,0,0,0,0,0,0,0,-1,643,680,-8.20552,0.296182
-574,344,-4.91083,1.61713,0,0,0,0,0,0,0,-1,650,680,-4.91084,-1.6171
-567,344,-4.19086,-0.271179,0,0,0,0,0,0,0,-1,657,680,-4.19083,0.271207
-560,344,-4.56262,-0.327881,0,0,0,0,0,0,0,-1,664,680,-4.56264,0.327902
-553,344,-4.96063,-0.13147,0.00548238,0.00894865,-0.0120012,0.0193412,-0.00491017,-0.857109,0.0148048,0.0493731,671,680,-4.96061,0.131473
-546,344,-4.86487,-0.277344,0.00307841,0.00885191,-0.0104682,0.0168241,-0.00489377,-0.919937,0.0131543,0.044721,678,680,-4.86485,0.277372
-539,344,-4.82648,-0.404175,0.00236411,0.00771841,-0.00805811,0.0135324,-0.00344993,-0.945777,0.0103648,0.0348737,685,680,-4.82647,0.404144
-532,344,-4.68628,-0.494446,0.0018474,0.00637073,-0.00608806,0.0106037,-0.00238552,-0.963244,0.00798396,0.0182426,692,680,-4.68629,0.494444
-525,344,-4.79999,-0.673706,0.00145378,0.00503147,-0.00446409,0.00805179,-0.00156654,-0.975961,0.00595907,0.0164361,699,680,-4.79998,0.673686
-518,344,-4.82324,-0.886414,0.00125365,0.00383886,-0.00323628,0.00603113,-0.000938616,-0.975397,0.00436738,0.0185188,706,680,-4.82324,0.8864
-511,344,-4.82422,-1.06244,0.00112692,0.00247565,-0.00201464,0.0039258,-0.00032322,-0.946902,0.00273132,0.0159631,713,680,-4.82423,1.06243
-504,344,-4.83356,-1.27905,0.00125891,0.00110175,-0.00109961,0.00228275,7.79153e-05,-0.749727,0.00149654,0.0162391,720,680,-4.83357,1.27907
-497,344,-4.80927,-1.46063,0.00140458,-0.000157355,-0.000436663,0.00151837,-0.000271142,-0.254913,0.00111368,0.0139911,727,680,-4.80925,1.46062
-490,344,-4.8111,-1.6601,0.00164669,-0.00188807,0.000113171,0.00165031,-0.00189169,0.0319731,0.00204656,0.0123798,734,680,-4.81107,1.66008
-483,344,-4.81903,-1.84064,0.00186792,-0.00394355,0.000139434,0.00187126,-0.00394689,0.0239745,0.00342963,0.0129873,741,680,-4.81902,1.84063
-476,344,-4.81653,-2.03314,0.00221911,-0.00621582,0.000151706,0.00222184,-0.00621855,0.0179777,0.00505189,0.0138231,748,680,-4.8165,2.03313
-469,344,-4.81409,-2.23895,0.00241567,-0.00908307,-2.72365e-05,0.00241573,-0.00908314,-0.00236864,0.007001,0.0118253,755,680,-4.8141,2.23893
-462,344,-4.8136,-2.48053,0.00232864,-0.0128006,-0.000420412,0.00234032,-0.0128123,-0.0277594,0.00941907,0.0197376,762,680,-4.8136,2.48051
-455,344,-4.8075,-2.38538,0.001663,-0.0173289,-0.000839462,0.00170003,-0.0173659,-0.0440864,0.0121836,0.0413041,769,680,-4.80749,2.38538
-448,344,-4.36591,-1.8421,0,0,0,0,0,0,0,-1,776,680,-4.3659,1.8421
-441,344,-4.37805,-2.03107,0,0,0,0,0,0,0,-1,783,680,-4.37807,2.03104
-434,344,-4.28778,-2.08807,0,0,0,0,0,0,0,-1,790,680,-4.28778,2.08809
-427,344,-3.06506,-1.45404,0,0,0,0,0,0,0,-1,797,680,-3.06505,1.45402
-420,344,-1.96582,-1.57574,0,0,0,0,0,0,0,-1,804,680,-1.96579,1.57574
-413,344,-0.817993,-1.4751,0,0,0,0,0,0,0,-1,811,680,-0.818017,1.47511
-406,344,-0.00714111,-1.25189,0,0,0,0,0,0,0,-1,818,680,-0.00714956,1.25191
-399,344,0.240051,-1.75769,0,0,0,0,0,0,0,-1,825,680,0.240079,1.75767
-392,344,1.11353,-2.05615,0,0,0,0,0,0,0,-1,832,680,1.11351,2.05616
-385,344,0,0,0,0,0,0,0,0,0,-1,839,680,0,0
-378,344,0,0,0,0,0,0,0,0,0,-1,846,680,0,0
-371,344,0,0,0,0,0,0,0,0,0,-1,853,680,0,0
-364,344,0,0,0,0,0,0,0,0,0,-1,860,680,0,0
-357,344,0,0,0,0,0,0,0,0,0,-1,867,680,0,0
-350,344,0,0,0,0,0,0,0,0,0,-1,874,680,0,0
-343,344,0,0,0,0,0,0,0,0,0,-1,881,680,0,0
-336,344,0,0,0,0,0,0,0,0,0,-1,888,680,0,0
-329,344,0,0,0,0,0,0,0,0,0,-1,895,680,0,0
-322,344,0,0,0,0,0,0,0,0,0,-1,902,680,0,0
-315,344,0,0,0,0,0,0,0,0,0,-1,909,680,0,0
-308,344,0,0,0,0,0,0,0,0,0,-1,916,680,0,0
-301,344,0,0,0,0,0,0,0,0,0,-1,923,680,0,0
-294,344,0,0,0,0,0,0,0,0,0,-1,930,680,0,0
-287,344,0,0,0,0,0,0,0,0,0,-1,937,680,0,0
-280,344,0,0,0,0,0,0,0,0,0,-1,944,680,0,0
-273,344,0,0,0,0,0,0,0,0,0,-1,951,680,0,0
-266,344,0,0,0,0,0,0,0,0,0,-1,958,680,0,0
-259,344,0,0,0,0,0,0,0,0,0,-1,965,680,0,0
-252,344,0,0,0,0,0,0,0,0,0,-1,972,680,0,0
-245,344,0,0,0,0,0,0,0,0,0,-1,979,680,0,0
-238,344,0,0,0,0,0,0,0,0,0,-1,986,680,0,0
-231,344,0,0,0,0,0,0,0,0,0,-1,993,680,0,0
-224,344,0,0,0,0,0,0,0,0,0,-1,1000,680,0,0
-217,344,0,0,0,0,0,0,0,0,0,-1,1007,680,0,0
-210,344,0,0,0,0,0,0,0,0,0,-1,1014,680,0,0
-203,344,0,0,0,0,0,0,0,0,0,-1,1021,680,0,0
-196,344,0,0,0,0,0,0,0,0,0,-1,1028,680,0,0
-189,344,0,0,0,0,0,0,0,0,0,-1,1035,680,0,0
-182,344,0,0,0,0,0,0,0,0,0,-1,1042,680,0,0
-175,344,0,0,0,0,0,0,0,0,0,-1,1049,680,0,0
-168,344,0,0,0,0,0,0,0,0,0,-1,1056,680,0,0
-161,344,0,0,0,0,0,0,0,0,0,-1,1063,680,0,0
-154,344,0,0,0,0,0,0,0,0,0,-1,1070,680,0,0
-147,344,0,0,0,0,0,0,0,0,0,-1,1077,680,0,0
-140,344,0,0,0,0,0,0,0,0,0,-1,1084,680,0,0
-133,344,0,0,0,0,0,0,0,0,0,-1,1091,680,0,0
-126,344,0,0,0,0,0,0,0,0,0,-1,1098,680,0,0
-119,344,0,0,0,0,0,0,0,0,0,-1,1105,680,0,0
-112,344,0,0,0,0,0,0,0,0,0,-1,1112,680,0,0
-105,344,0,0,0,0,0,0,0,0,0,-1,1119,680,0,0
-98,344,0,0,0,0,0,0,0,0,0,-1,1126,680,0,0
-91,344,0,0,0,0,0,0,0,0,0,-1,1133,680,0,0
-84,344,0,0,0,0,0,0,0,0,0,-1,1140,680,0,0
-77,344,0,0,0,0,0,0,0,0,0,-1,1147,680,0,0
-70,344,0,0,0,0,0,0,0,0,0,-1,1154,680,0,0
-63,344,0,0,0,0,0,0,0,0,0,-1,1161,680,0,0
-56,344,0,0,0,0,0,0,0,0,0,-1,1168,680,0,0
-49,344,0,0,0,0,0,0,0,0,0,-1,1175,680,0,0
-42,344,0,0,0,0,0,0,0,0,0,-1,1182,680,0,0
-35,344,0,0,0,0,0,0,0,0,0,-1,1189,680,0,0
-28,344,0,0,0,0,0,0,0,0,0,-1,1196,680,0,0
-21,344,0,0,0,0,0,0,0,0,0,-1,1203,680,0,0
-14,344,0,0,0,0,0,0,0,0,0,-1,1210,680,0,0
-7,344,0,0,0,0,0,0,0,0,0,-1,1217,680,0,0
0,344,0,0,0,0,0,0,0,0,0,-1,1224,680,0,0
7,344,0,0,0,0,0,0,0,0,0,-1,1231,680,0,0
14,344,0,0,0,0,0,0,0,0,0,-1,1238,680,0,0
21,344,0,0,0,0,0,0,0,0,0,-1,1245,680,0,0
28,344,0,0,0,0,0,0,0,0,0,-1,1252,680,0,0
35,344,0,0,0,0,0,0,0,0,0,-1,1259,680,0,0
42,344,0,0,0,0,0,0,0,0,0,-1,1266,680,0,0
49,344,0,0,0,0,0,0,0,0,0,-1,1273,680,0,0
56,344,0,0,0,0,0,0,0,0,0,-1,1280,680,0,0
63,344,0,0,0,0,0,0,0,0,0,-1,1287,680,0,0
70,344,0,0,0,0,0,0,0,0,0,-1,1294,680,0,0
77,344,0,0,0,0,0,0,0,0,0,-1,1301,680,0,0
84,344,0,0,0,0,0,0,0,0,0,-1,1308,680,0,0
91,344,0,0,0,0,0,0,0,0,0,-1,1315,680,0,0
98,344,0,0,0,0,0,0,0,0,0,-1,1322,680,0,0
105,344,0,0,0,0,0,0,0,0,0,-1,1329,680,0,0
112,344,0,0,0,0,0,0,0,0,0,-1,1336,680,0,0
119,344,0,0,0,0,0,0,0,0,0,-1,1343,680,0,0
126,344,0,0,0,0,0,0,0,0,0,-1,1350,680,0,0
133,344,0,0,0,0,0,0,0,0,0,-1,1357,680,0,0
140,344,0,0,0,0,0,0,0,0,0,-1,1364,680,0,0
147,344,0,0,0,0,0,0,0,0,0,-1,1371,680,0,0
154,344,0,0,0,0,0,0,0,0,0,-1,1378,680,0,0
161,344,0,0,0,0,0,0,0,0,0,-1,1385,680,0,0
168,344,0,0,0,0,0,0,0,0,0,-1,1392,680,0,0
175,344,0,0,0,0,0,0,0,0,0,-1,1399,680,0,0
182,344,0,0,0,0,0,0,0,0,0,-1,1406,680,0,0
189,344,0,0,0,0,0,0,0,0,0,-1,1413,680,0,0
196,344,0,0,0,0,0,0,0,0,0,-1,1420,680,0,0
203,344,0,0,0,0,0,0,0,0,0,-1,1427,680,0,0
210,344,0,0,0,0,0,0,0,0,0,-1,1434,680,0,0
217,344,0,0,0,0,0,0,0,0,0,-1,1441,680,0,0
224,344,0,0,0,0,0,0,0,0,0,-1,1448,680,0,0
231,344,0,0,0,0,0,0,0,0,0,-1,1455,680,0,0
238,344,0,0,0,0,0,0,0,0,0,-1,1462,680,0,0
245,344,0,0,0,0,0,0,0,0,0,-1,1469,680,0,0
252,344,0,0,0,0,0,0,0,0,0,-1,1476,680,0,0
259,344,0,0,0,0,0,0,0,0,0,-1,1483,680,0,0
266,344,0,0,0,0,0,0,0,0,0,-1,1490,680,0,0
273,344,0,0,0,0,0,0,0,0,0,-1,1497,680,0,0
280,344,0,0,0,0,0,0,0,0,0,-1,1504,680,0,0
287,344,0,0,0,0,0,0,0,0,0,-1,1511,680,0,0
294,344,0,0,0,0,0,0,0,0,0,-1,1518,680,0,0
301,344,0,0,0,0,0,0,0,0,0,-1,1525,680,0,0
308,344,0,0,0,0,0,0,0,0,0,-1,1532,680,0,0
315,344,0,0,0,0,0,0,0,0,0,-1,1539,680,0,0
322,344,0,0,0,0,0,0,0,0,0,-1,1546,680,0,0
329,344,0,0,0,0,0,0,0,0,0,-1,1553,680,0,0
336,344,0,0,0,0,0,0,0,0,0,-1,1560,680,0,0
343,344,0,0,0,0,0,0,0,0,0,-1,1567,680,0,0
350,344,0,0,0,0,0,0,0,0,0,-1,1574,680,0,0
357,344,0,0,0,0,0,0,0,0,0,-1,1581,680,0,0
364,344,0,0,0,0,0,0,0,0,0,-1,1588,680,0,0
371,344,0,0,0,0,0,0,0,0,0,-1,1595,680,0,0
378,344,0,0,0,0,0,0,0,0,0,-1,1602,680,0,0
385,344,0,0,0,0,0,0,0,0,0,-1,1609,680,0,0
392,344,0,0,0,0,0,0,0,0,0,-1,1616,680,0,0
399,344,0,0,0,0,0,0,0,0,0,-1,1623,680,0,0
406,344,0,0,0,0,0,0,0,0,0,-1,1630,680,0,0
413,344,0,0,0,0,0,0,0,0,0,-1,1637,680,0,0
420,344,0,0,0,0,0,0,0,0,0,-1,1644,680,0,0
427,344,0,0,0,0,0,0,0,0,0,-1,1651,680,0,0
434,344,0,0,0,0,0,0,0,0,0,-1,1658,680,0,0
441,344,0,0,0,0,0,0,0,0,0,-1,1665,680,0,0
448,344,0,0,0,0,0,0,0,0,0,-1,1672,680,0,0
455,344,0,0,0,0,0,0,0,0,0,-1,1679,680,0,0
462,344,0,0,0,0,0,0,0,0,0,-1,1686,680,0,0
469,344,0,0,0,0,0,0,0,0,0,-1,1693,680,0,0
476,344,0,0,0,0,0,0,0,0,0,-1,1700,680,0,0
483,344,0,0,0,0,0,0,0,0,0,-1,1707,680,0,0
490,344,0,0,0,0,0,0,0,0,0,-1,1714,680,0,0
497,344,0,0,0,0,0,0,0,0,0,-1,1721,680,0,0
504,344,0,0,0,0,0,0,0,0,0,-1,1728,680,0,0
511,344,15.4819,0.452637,0,0,0,0,0,0,0,-1,1735,680,15.4819,-0.452656
518,344,15.4491,0.723633,0,0,0,0,0,0,0,-1,1742,680,15.4491,-0.723644
525,344,10.8253,3.3877,0,0,0,0,0,0,0,-1,1749,680,10.8253,-3.38772
532,344,11.9792,3.98926,0,0,0,0,0,0,0,-1,1756,680,11.9793,-3.98924
539,344,12.4436,4.46503,0,0,0,0,0,0,0,-1,1763,680,12.4437,-4.46504
546,344,13.3718,1.66003,0,0,0,0,0,0,0,-1,1770,680,13.3718,-1.66001
553,344,12.5339,2.20245,0,0,0,0,0,0,0,-1,1777,680,12.5339,-2.20245
560,344,11.9363,2.14185,0,0,0,0,0,0,0,-1,1784,680,11.9362,-2.14182
567,344,11.397,0.925842,0,0,0,0,0,0,0,-1,1791,680,11.397,-0.92583
574,344,10.0004,0.504639,0,0,0,0,0,0,0,-1,1798,680,10.0004,-0.504645
581,344,10.2731,-0.0720215,0,0,0,0,0,0,0,-1,1805,680,10.2731,0.0720292
588,344,9.5509,-0.817932,0,0,0,0,0,0,0,-1,1812,680,9.5509,0.81795
595,344,9.75037,-0.551758,0.0143476,-0.00110289,-0.00269959,0.0148057,-0.00156099,-0.168092,0.0104298,0.0369583,1819,680,9.75035,0.551745
602,344,9.77991,-0.333191,0.00817931,-0.00158779,-0.00298522,0.00901945,-0.00242793,-0.274337,0.0069648,0.0257284,1826,680,9.77993,0.333212
609,344,9.72131,-0.15918,0.0048583,-0.000430972,-0.00258792,0.00591386,-0.00148653,-0.38728,0.00452031,0.0153425,1833,680,9.72133,0.159195
616,344,9.71497,0.0617676,0.00232164,-3.50309e-05,-0.00219581,0.0036353,-0.00134869,-0.539138,0.00297675,0.0210171,1840,680,9.71495,-0.0617467
623,344,9.70447,0.287598,0.000604261,-1.0287e-05,-0.00169419,0.00201881,-0.00142484,-0.695688,0.00199803,0.0188592,1847,680,9.70448,-0.287601
630,344,9.68945,0.447998,0.000233226,1.36651e-05,-0.00117868,0.00130723,-0.00106034,-0.738963,0.00136939,0.024937,1854,680,9.68945,-0.447973
637,344,9.69824,0.634949,0.000193958,0.000123864,-0.000539451,0.000699499,-0.000381677,-0.75296,0.000633143,0.0240185,1861,680,9.69825,-0.634925
644,344,9.68933,0.895508,-0.00022677,0.000422114,-0.000768631,0.000931972,-0.000736628,-0.985106,0.000965565,0.0161155,1868,680,9.68939,-0.895514
651,344,9.6886,1.13776,-0.000266047,0.000904736,-0.00101006,0.00148678,-0.000848088,-1.04803,0.00136474,0.0113106,1875,680,9.68858,-1.13777
658,344,9.69983,1.37695,-2.16377e-05,0.00148818,-0.00137903,0.00230541,-0.000838863,-1.03583,0.00188001,0.0161987,1882,680,9.69986,-1.37696
665,344,9.66479,1.57867,0.0007885,0.0022166,-0.00183566,0.0034722,-0.000467101,-0.970886,0.00248518,0.0230519,1889,680,9.66481,-1.5787
672,344,9.68213,1.703,0.00223784,0.00321638,-0.00235523,0.00513262,0.000321599,-0.88781,0.00331974,0.0180092,1896,680,9.68216,-1.70298
679,344,9.82886,1.58575,0.00463805,0.00458538,-0.00291061,0.00752244,0.00170098,-0.780874,0.00455509,0.0366164,1903,680,9.82887,-1.58577
686,344,10.0389,1.45709,0,0,0,0,0,0,0,-1,1910,680,10.0389,-1.45708
693,344,12.4362,-1.42346,0,0,0,0,0,0,0,-1,1917,680,12.4361,1.42348
700,344,14.0134,-1.63721,0,0,0,0,0,0,0,-1,1924,680,14.0135,1.63722
707,344,14.8154,-1.64838,0,0,0,0,0,0,0,-1,1931,680,14.8155,1.64837
714,344,0,0,0,0,0,0,0,0,0,-1,1938,680,0,0
721,344,0,0,0,0,0,0,0,0,0,-1,1945,680,0,0
728,344,0,0,0,0,0,0,0,0,0,-1,1952,680,0,0
735,344,0,0,0,0,0,0,0,0,0,-1,1959,680,0,0
742,344,0,0,0,0,0,0,0,0,0,-1,1966,680,0,0
749,344,0,0,0,0,0,0,0,0,0,-1,1973,680,0,0
756,344,0,0,0,0,0,0,0,0,0,-1,1980,680,0,0
763,344,0,0,0,0,0,0,0,0,0,-1,1987,680,0,0
770,344,0,0,0,0,0,0,0,0,0,-1,1994,680,0,0
777,344,0,0,0,0,0,0,0,0,0,-1,2001,680,0,0
784,344,0,0,0,0,0,0,0,0,0,-1,2008,680,0,0
791,344,0,0,0,0,0,0,0,0,0,-1,2015,680,0,0
798,344,0,0,0,0,0,0,0,0,0,-1,2022,680,0,0
805,344,0,0,0,0,0,0,0,0,0,-1,2029,680,0,0
812,344,0,0,0,0,0,0,0,0,0,-1,2036,680,0,0
-700,337,0,0,0,0,0,0,0,0,0,-1,524,687,0,0
-693,337,0,0,0,0,0,0,0,0,0,-1,531,687,0,0
-686,337,0,0,0,0,0,0,0,0,0,-1,538,687,0,0
-679,337,0,0,0,0,0,0,0,0,0,-1,545,687,0,0
-672,337,0,0,0,0,0,0,0,0,0,-1,552,687,0,0
-665,337,0,0,0,0,0,0,0,0,0,-1,559,687,0,0
-658,337,0,0,0,0,0,0,0,0,0,-1,566,687,0,0
-651,337,0,0,0,0,0,0,0,0,0,-1,573,687,0,0
-644,337,0,0,0,0,0,0,0,0,0,-1,580,687,0,0
-637,337,0,0,0,0,0,0,0,0,0,-1,587,687,0,0
-630,337,0,0,0,0,0,0,0,0,0,-1,594,687,0,0
-623,337,0,0,0,0,0,0,0,0,0,-1,601,687,0,0
-616,337,0,0,0,0,0,0,0,0,0,-1,608,687,0,0
-609,337,0,0,0,0,0,0,0,0,0,-1,615,687,0,0
-602,337,0,0,0,0,0,0,0,0,0,-1,622,687,0,0
-595,337,0,0,0,0,0,0,0,0,0,-1,629,687,0,0
-588,337,-9.06604,-0.400452,0,0,0,0,0,0,0,-1,636,687,-9.06606,0.400475
-581,337,-4.935,1.62006,0,0,0,0,0,0,0,-1,643,687,-4.93499,-1.62007
-574,337,-4.87555,1.42041,0,0,0,0,0,0,0,-1,650,687,-4.87557,-1.4204
-567,337,-6.07715,-0.35907,0,0,0,0,0,0,0,-1,657,687,-6.07717,0.359059
-560,337,-4.80701,-0.713928,0,0,0,0,0,0,0,-1,664,687,-4.807,0.71391
-553,337,-4.91101,0.915161,0.00273132,0.0058121,-0.00763625,0.0120618,-0.00351836,-0.884923,0.00943523,0.0447069,671,687,-4.91098,-0.91518
-546,337,-4.88269,0.0968018,0.000944963,0.00621798,-0.00721285,0.0112611,-0.00409814,-0.960619,0.00918347,0.0387386,678,687,-4.88266,-0.0968146
-539,337,-4.91333,-0.242432,0.000896853,0.00557648,-0.00566841,0.00936901,-0.00289567,-0.981136,0.00740249,0.0223845,685,687,-4.91332,0.242442
-532,337,-4.9787,-0.490479,0.000910723,0.00468826,-0.00435843,0.00754958,-0.00195059,-0.989863,0.00579376,0.0123334,692,687,-4.97868,0.490469
-525,337,-5.01117,-0.693787,0.000929836,0.00373361,-0.00324809,0.00586943,-0.00120598,-0.989124,0.00437076,0.0132454,699,687,-5.01116,0.693778
-518,337,-5.02704,-0.897888,0.00106905,0.00289551,-0.00240328,0.00455322,-0.000588669,-0.966969,0.00324953,0.0216347,706,687,-5.02705,0.897897
-511,337,-5.07367,-1.08716,0.00120228,0.00169394,-0.00142215,0.00289135,4.87152e-06,-0.870983,0.00192594,0.0223155,713,687,-5.07369,1.08713
-504,337,-5.06042,-1.27936,0.001513,0.000425318,-0.000657629,0.00182252,0.000115789,-0.439913,0.00117832,0.0221946,720,687,-5.0604,1.27933
-497,337,-5.01337,-1.45776,0.00175106,-0.00109045,-5.23219e-05,0.00175203,-0.00109142,-0.0184051,0.00165636,0.015617,727,687,-5.01338,1.45776
-490,337,-5.01807,-1.66333,0.00202943,-0.00315208,0.000530464,0.00208317,-0.00320583,0.100981,0.00307645,0.0129492,734,687,-5.01809,1.66335
-483,337,-5.01813,-1.86682,0.00216767,-0.00580075,0.000473105,0.00219566,-0.00582874,0.0590958,0.00478856,0.0137884,741,687,-5.01813,1.86684
-476,337,-4.99738,-2.0603,0.00241849,-0.00891582,0.000527835,0.00244301,-0.00894035,0.0464357,0.00691984,0.0127754,748,687,-4.99738,2.06028
-469,337,-4.99731,-2.28088,0.00247508,-0.0129122,0.000337056,0.00248246,-0.0129196,0.0218908,0.00954873,0.0180514,755,687,-4.9973,2.28091
-462,337,-4.97333,-2.41083,0.00227803,-0.0180245,-0.000113647,0.00227867,-0.0180252,-0.00559743,0.0128439,0.0377871,762,687,-4.97331,2.4108
-455,337,-4.7962,-2.1886,0,0,0,0,0,0,0,-1,769,687,-4.79617,2.18858
-448,337,-4.64813,-1.87787,0,0,0,0,0,0,0,-1,776,687,-4.64816,1.87786
-441,337,-4.24762,-1.49597,0,0,0,0,0,0,0,-1,783,687,-4.24762,1.49598
-434,337,-6.86908,1.37531,0,0,0,0,0,0,0,-1,790,687,-6.86908,-1.3753
-427,337,-9.92004,2.487,0,0,0,0,0,0,0,-1,797,687,-9.92002,-2.48701
-420,337,-2.95996,-1.76697,0,0,0,0,0,0,0,-1,804,687,-2.95998,1.76696
-413,337,-1.29169,-1.99487,0,0,0,0,0,0,0,-1,811,687,-1.29171,1.9949
-406,337,-1.02356,-1.89563,0,0,0,0,0,0,0,-1,818,687,-1.02357,1.89564
-399,337,-0.472839,-2.21338,0,0,0,0,0,0,0,-1,825,687,-0.472837,2.2134
-392,337,0,0,0,0,0,0,0,0,0,-1,832,687,0,0
-385,337,0,0,0,0,0,0,0,0,0,-1,839,687,0,0
-378,337,0,0,0,0,0,0,0,0,0,-1,846,687,0,0
-371,337,0,0,0,0,0,0,0,0,0,-1,853,687,0,0
-364,337,0,0,0,0,0,0,0,0,0,-1,860,687,0,0
-357,337,0,0,0,0,0,0,0,0,0,-1,867,687,0,0
-350,337,0,0,0,0,0,0,0,0,0,-1,874,687,0,0
-343,337,0,0,0,0,0,0,0,0,0,-1,881,687,0,0
-336,337,0,0,0,0,0,0,0,0,0,-1,888,687,0,0
-329,337,0,0,0,0,0,0,0,0,0,-1,895,687,0,0
-322,337,0,0,0,0,0,0,0,0,0,-1,902,687,0,0
-315,337,0,0,0,0,0,0,0,0,0,-1,909,687,0,0
-308,337,0,0,0,0,0,0,0,0,0,-1,916,687,0,0
-301,337,0,0,0,0,0,0,0,0,0,-1,923,687,0,0
-294,337,0,0,0,0,0,0,0,0,0,-1,930,687,0,0
-287,337,0,0,0,0,0,0,0,0,0,-1,937,687,0,0
-280,337,0,0,0,0,0,0,0,0,0,-1,944,687,0,0
-273,337,0,0,0,0,0,0,0,0,0,-1,951,687,0,0
-266,337,0,0,0,0,0,0,0,0,0,-1,958,687,0,0
-259,337,0,0,0,0,0,0,0,0,0,-1,965,687,0,0
-252,337,0,0,0,0,0,0,0,0,0,-1,972,687,0,0
-245,337,0,0,0,0,0,0,0,0,0,-1,979,687,0,0
-238,337,0,0,0,0,0,0,0,0,0,-1,986,687,0,0
-231,337,0,0,0,0,0,0,0,0,0,-1,993,687,0,0
-224,337,0,0,0,0,0,0,0,0,0,-1,1000,687,0,0
-217,337,0,0,0,0,0,0,0,0,0,-1,1007,687,0,0
-210,337,0,0,0,0,0,0,0,0,0,-1,1014,687,0,0
-203,337,0,0,0,0,0,0,0,0,0,-1,1021,687,0,0
-196,337,0,0,0,0,0,0,0,0,0,-1,1028,687,0,0
-189,337,0,0,0,0,0,0,0,0,0,-1,1035,687,0,0
-182,337,0,0,0,0,0,0,0,0,0,-1,1042,687,0,0
-175,337,0,0,0,0,0,0,0,0,0,-1,1049,687,0,0
-168,337,0,0,0,0,0,0,0,0,0,-1,1056,687,0,0
-161,337,0,0,0,0,0,0,0,0,0,-1,1063,687,0,0
-154,337,0,0,0,0,0,0,0,0,0,-1,1070,687,0,0
-147,337,0,0,0,0,0,0,0,0,0,-1,1077,687,0,0
-140,337,0,0,0,0,0,0,0,0,0,-1,1084,687,0,0
-133,337,0,0,0,0,0,0,0,0,0,-1,1091,687,0,0
-126,337,0,0,0,0,0,0,0,0,0,-1,1098,687,0,0
-119,337,0,0,0,0,0,0,0,0,0,-1,1105,687,0,0
-112,337,0,0,0,0,0,0,0,0,0,-1,1112,687,0,0
-105,337,0,0,0,0,0,0,0,0,0,-1,1119,687,0,0
-98,337,0,0,0,0,0,0,0,0,0,-1,1126,687,0,0
-91,337,0,0,0,0,0,0,0,0,0,-1,1133,687,0,0
-84,337,0,0,0,0,0,0,0,0,0,-1,1140,687,0,0
-77,337,0,0,0,0,0,0,0,0,0,-1,1147,687,0,0
-70,337,0,0,0,0,0,0,0,0,0,-1,1154,687,0,0
-63,337,0,0,0,0,0,0,0,0,0,-1,1161,687,0,0
-56,337,0,0,0,0,0,0,0,0,0,-1,1168,687,0,0
-49,337,0,0,0,0,0,0,0,0,0,-1,1175,687,0,0
-42,337,0,0,0,0,0,0,0,0,0,-1,1182,687,0,0
-35,337,0,0,0,0,0,0,0,0,0,-1,1189,687,0,0
-28,337,0,0,0,0,0,0,0,0,0,-1,1196,687,0,0
-21,337,0,0,0,0,0,0,0,0,0,-1,1203,687,0,0
-14,337,0,0,0,0,0,0,0,0,0,-1,1210,687,0,0
-7,337,0,0,0,0,0,0,0,0,0,-1,1217,687,0,0
0,337,0,0,0,0,0,0,0,0,0,-1,1224,687,0,0
7,337,0,0,0,0,0,0,0,0,0,-1,1231,687,0,0
14,337,0,0,0,0,0,0,0,0,0,-1,1238,687,0,0
21,337,0,0,0,0,0,0,0,0,0,-1,1245,687,0,0
28,337,0,0,0,0,0,0,0,0,0,-1,1252,687,0,0
35,337,0,0,0,0,0,0,0,0,0,-1,1259,687,0,0
42,337,0,0,0,0,0,0,0,0,0,-1,1266,687,0,0
49,337,0,0,0,0,0,0,0,0,0,-1,1273,687,0,0
56,337,0,0,0,0,0,0,0,0,0,-1,1280,687,0,0
63,337,0,0,0,0,0,0,0,0,0,-1,1287,687,0,0
70,337,0,0,0,0,0,0,0,0,0,-1,1294,687,0,0
77,337,0,0,0,0,0,0,0,0,0,-1,1301,687,0,0
84,337,0,0,0,0,0,0,0,0,0,-1,1308,687,0,0
91,337,0,0,0,0,0,0,0,0,0,-1,1315,687,0,0
98,337,0,0,0,0,0,0,0,0,0,-1,1322,687,0,0
105,337,0,0,0,0,0,0,0,0,0,-1,1329,687,0,0
112,337,0,0,0,0,0,0,0,0,0,-1,1336,687,0,0
119,337,0,0,0,0,0,0,0,0,0,-1,1343,687,0,0
126,337,0,0,0,0,0,0,0,0,0,-1,1350,687,0,0
133,337,0,0,0,0,0,0,0,0,0,-1,1357,687,0,0
140,337,0,0,0,0,0,0,0,0,0,-1,1364,687,0,0
147,337,0,0,0,0,0,0,0,0,0,-1,1371,687,0,0
154,337,0,0,0,0,0,0,0,0,0,-1,1378,687,0,0
161,337,0,0,0,0,0,0,0,0,0,-1,1385,687,0,0
168,337,0,0,0,0,0,0,0,0,0,-1,1392,687,0,0
175,337,0,0,0,0,0,0,0,0,0,-1,1399,687,0,0
182,337,0,0,0,0,0,0,0,0,0,-1,1406,687,0,0
189,337,0,0,0,0,0,0,0,0,0,-1,1413,687,0,0
196,337,0,0,0,0,0,0,0,0,0,-1,1420,687,0,0
203,337,0,0,0,0,0,0,0,0,0,-1,1427,687,0,0
210,337,0,0,0,0,0,0,0,0,0,-1,1434,687,0,0
217,337,0,0,0,0,0,0,0,0,0,-1,1441,687,0,0
224,337,0,0,0,0,0,0,0,0,0,-1,1448,687,0,0
231,337,0,0,0,0,0,0,0,0,0,-1,1455,687,0,0
238,337,0,0,0,0,0,0,0,0,0,-1,1462,687,0,0
245,337,0,0,0,0,0,0,0,0,0,-1,1469,687,0,0
252,337,0,0,0,0,0,0,0,0,0,-1,1476,687,0,0
259,337,0,0,0,0,0,0,0,0,0,-1,1483,687,0,0
266,337,0,0,0,0,0,0,0,0,0,-1,1490,687,0,0
273,337,0,0,0,0,0,0,0,0,0,-1,1497,687,0,0
280,337,0,0,0,0,0,0,0,0,0,-1,1504,687,0,0
287,337,0,0,0,0,0,0,0,0,0,-1,1511,687,0,0
294,337,0,0,0,0,0,0,0,0,0,-1,1518,687,0,0
301,337,0,0,0,0,0,0,0,0,0,-1,1525,687,0,0
308,337,0,0,0,0,0,0,0,0,0,-1,1532,687,0,0
315,337,0,0,0,0,0,0,0,0,0,-1,1539,687,0,0
322,337,0,0,0,0,0,0,0,0,0,-1,1546,687,0,0
329,337,0,0,0,0,0,0,0,0,0,-1,1553,687,0,0
336,337,0,0,0,0,0,0,0,0,0,-1,1560,687,0,0
343,337,0,0,0,0,0,0,0,0,0,-1,1567,687,0,0
350,337,0,0,0,0,0,0,0,0,0,-1,1574,687,0,0
357,337,0,0,0,0,0,0,0,0,0,-1,1581,687,0,0
364,337,0,0,0,0,0,0,0,0,0,-1,1588,687,0,0
371,337,0,0,0,0,0,0,0,0,0,-1,1595,687,0,0
378,337,0,0,0,0,0,0,0,0,0,-1,1602,687,0,0
385,337,0,0,0,0,0,0,0,0,0,-1,1609,687,0,0
392,337,0,0,0,0,0,0,0,0,0,-1,1616,687,0,0
399,337,0,0,0,0,0,0,0,0,0,-1,1623,687,0,0
406,337,0,0,0,0,0,0,0,0,0,-1,1630,687,0,0
413,337,0,0,0,0,0,0,0,0,0,-1,1637,687,0,0
420,337,0,0,0,0,0,0,0,0,0,-1,1644,687,0,0
427,337,0,0,0,0,0,0,0,0,0,-1,1651,687,0,0
434,337,0,0,0,0,0,0,0,0,0,-1,1658,687,0,0
441,337,0,0,0,0,0,0,0,0,0,-1,1665,687,0,0
448,337,0,0,0,0,0,0,0,0,0,-1,1672,687,0,0
455,337,0,0,0,0,0,0,0,0,0,-1,1679,687,0,0
462,337,0,0,0,0,0,0,0,0,0,-1,1686,687,0,0
469,337,0,0,0,0,0,0,0,0,0,-1,1693,687,0,0
476,337,0,0,0,0,0,0,0,0,0,-1,1700,687,0,0
483,337,0,0,0,0,0,0,0,0,0,-1,1707,687,0,0
490,337,0,0,0,0,0,0,0,0,0,-1,1714,687,0,0
497,337,0,0,0,0,0,0,0,0,0,-1,1721,687,0,0
504,337,0,0,0,0,0,0,0,0,0,-1,1728,687,0,0
511,337,0,0,0,0,0,0,0,0,0,-1,1735,687,0,0
518,337,9.59888,2.56732,0,0,0,0,0,0,0,-1,1742,687,9.59894,-2.56731
525,337,10.5148,3.15973,0.158351,0.0667288,0.0257273,0.16508,0.0599989,0.255852,0.0964867,0.044927,1749,687,10.5148,-3.15976
532,337,11.5991,3.53406,0.147481,0.0500469,0.0282698,0.155089,0.0424387,0.262899,0.0925488,0.044098,1756,687,11.5991,-3.53408
539,337,12.4758,3.68073,0.129952,0.03687,0.0233882,0.135498,0.0313238,0.232833,0.0819123,0.0436055,1763,687,12.4758,-3.68074
546,337,13.8673,3.4212,0,0,0,0,0,0,0,-1,1770,687,13.8674,-3.4212
553,337,17.7928,0.383362,0,0,0,0,0,0,0,-1,1777,687,17.7929,-0.38339
560,337,12.347,2.23297,0,0,0,0,0,0,0,-1,1784,687,12.3471,-2.23299
567,337,11.9288,1.38776,0,0,0,0,0,0,0,-1,1791,687,11.9288,-1.38777
574,337,10.704,1.19476,0,0,0,0,0,0,0,-1,1798,687,10.704,-1.19478
581,337,8.50427,0.561768,0,0,0,0,0,0,0,-1,1805,687,8.5043,-0.561754
588,337,8.5885,-0.0536499,0,0,0,0,0,0,0,-1,1812,687,8.58844,0.0536788
595,337,9.67908,-0.471436,0,0,0,0,0,0,0,-1,1819,687,9.67907,0.471427
602,337,9.91162,-0.334717,0.0113976,-0.00175036,-0.0035421,0.0122912,-0.00264388,-0.247103,0.00920288,0.0353964,1826,687,9.91161,0.33474
609,337,9.94141,-0.115662,0.00714987,-0.000363194,-0.00315305,0.00829775,-0.00151107,-0.349139,0.00609825,0.0215476,1833,687,9.94142,0.115644
616,337,9.93103,0.0795288,0.00371729,3.98969e-05,-0.00270779,0.00515166,-0.00139447,-0.487139,0.00398151,0.0178667,1840,687,9.93097,-0.0795468
623,337,9.91174,0.286499,0.00125456,3.34048e-05,-0.00213943,0.00286883,-0.00158087,-0.646397,0.00260466,0.0148669,1847,687,9.91177,-0.286489
630,337,9.9115,0.479309,0.00064023,-1.43881e-06,-0.00145164,0.00180607,-0.00116728,-0.676639,0.00172982,0.0190357,1854,687,9.91147,-0.479328
637,337,9.93445,0.68335,0.000608283,-0.000149121,-0.000501036,0.000857636,-0.000398474,-0.461785,0.00074119,0.0169764,1861,687,9.93449,-0.683347
644,337,9.92627,0.913879,8.57361e-05,3.19647e-05,-0.000722807,0.000782158,-0.000664457,-0.766809,0.000836124,0.0108647,1868,687,9.92622,-0.913895
651,337,9.88916,1.13654,3.03049e-05,0.000453546,-0.000924324,0.00119017,-0.000706314,-0.897932,0.00110675,0.00949988,1875,687,9.88911,-1.13653
658,337,9.89539,1.33459,0.000389298,0.000949995,-0.00127004,0.00197026,-0.000630968,-0.894026,0.00156677,0.0110176,1882,687,9.89533,-1.33461
665,337,9.91736,1.53851,0.00137053,0.00161683,-0.00177805,0.00327598,-0.000288628,-0.819974,0.00228628,0.0126414,1889,687,9.91733,-1.5385
672,337,9.91699,1.71484,0.00294126,0.00244467,-0.00229733,0.00500367,0.000382261,-0.731568,0.00321594,0.0148563,1896,687,9.91703,-1.71487
679,337,9.89478,1.7796,0.00547725,0.00358445,-0.00289997,0.00758135,0.00148035,-0.627673,0.00464017,0.0330118,1903,687,9.89478,-1.77959
686,337,9.94678,1.8689,0,0,0,0,0,0,0,-1,1910,687,9.94677,-1.86888
693,337,11.9225,-0.753662,0,0,0,0,0,0,0,-1,1917,687,11.9225,0.75366
700,337,13.4678,-0.972046,0,0,0,0,0,0,0,-1,1924,687,13.4677,0.972062
707,337,14.9698,-0.898987,0,0,0,0,0,0,0,-1,1931,687,14.9698,0.898974
714,337,0,0,0,0,0,0,0,0,0,-1,1938,687,0,0
721,337,0,0,0,0,0,0,0,0,0,-1,1945,687,0,0
728,337,0,0,0,0,0,0,0,0,0,-1,1952,687,0,0
735,337,0,0,0,0,0,0,0,0,0,-1,1959,687,0,0
742,337,0,0,0,0,0,0,0,0,0,-1,1966,687,0,0
749,337,0,0,0,0,0,0,0,0,0,-1,1973,687,0,0
756,337,0,0,0,0,0,0,0,0,0,-1,1980,687,0,0
763,337,0,0,0,0,0,0,0,0,0,-1,1987,687,0,0
770,337,0,0,0,0,0,0,0,0,0,-1,1994,687,0,0
777,337,0,0,0,0,0,0,0,0,0,-1,2001,687,0,0
784,337,0,0,0,0,0,0,0,0,0,-1,2008,687,0,0
791,337,0,0,0,0,0,0,0,0,0,-1,2015,687,0,0
798,337,0,0,0,0,0,0,0,0,0,-1,2022,687,0,0
805,337,0,0,0,0,0,0,0,0,0,-1,2029,687,0,0
812,337,0,0,0,0,0,0,0,0,0,-1,2036,687,0,0
-700,330,0,0,0,0,0,0,0,0,0,-1,524,694,0,0
-693,330,0,0,0,0,0,0,0,0,0,-1,531,694,0,0
-686,330,0,0,0,0,0,0,0,0,0,-1,538,694,0,0
-679,330,0,0,0,0,0,0,0,0,0,-1,545,694,0,0
-672,330,0,0,0,0,0,0,0,0,0,-1,552,694,0,0
-665,330,0,0,0,0,0,0,0,0,0,-1,559,694,0,0
-658,330,0,0,0,0,0,0,0,0,0,-1,566,694,0,0
-651,330,0,0,0,0,0,0,0,0,0,-1,573,694,0,0
-644,330,0,0,0,0,0,0,0,0,0,-1,580,694,0,0
-637,330,0,0,0,0,0,0,0,0,0,-1,587,694,0,0
-630,330,0,0,0,0,0,0,0,0,0,-1,594,694,0,0
-623,330,0,0,0,0,0,0,0,0,0,-1,601,694,0,0
-616,330,0,0,0,0,0,0,0,0,0,-1,608,694,0,0
-609,330,0,0,0,0,0,0,0,0,0,-1,615,694,0,0
-602,330,0,0,0,0,0,0,0,0,0,-1,622,694,0,0
-595,330,-4.67883,1.65515,0,0,0,0,0,0,0,-1,629,694,-4.67881,-1.65515
-588,330,-4.70923,1.38007,0,0,0,0,0,0,0,-1,636,694,-4.70922,-1.38007
-581,330,-5.1795,0.640747,0,0,0,0,0,0,0,-1,643,694,-5.17952,-0.640773
-574,330,-6.62891,0.268494,0,0,0,0,0,0,0,-1,650,694,-6.6289,-0.268481
-567,330,-5.78021,-0.140808,0,0,0,0,0,0,0,-1,657,694,-5.7802,0.140807
-560,330,-5.48633,-0.00476074,0,0,0,0,0,0,0,-1,664,694,-5.48634,0.00476934
-553,330,-5.31689,-0.00140381,0.000333634,0.00355077,-0.00393777,0.00619585,-0.00231145,-0.979303,0.00507949,0.0382328,671,694,-5.31688,0.00137707
-546,330,-5.14056,-0.148071,-0.000980388,0.00426914,-0.00440664,0.0067735,-0.00348475,-1.054,0.0060232,0.0235646,678,694,-5.14057,0.148096
-539,330,-5.15759,-0.324463,-0.000500758,0.00391551,-0.00356398,0.00589997,-0.00248522,-1.06274,0.0049732,0.0103807,685,694,-5.1576,0.324486
-532,330,-5.2243,-0.502991,-5.12685e-05,0.00332618,-0.00279868,0.00490616,-0.00163124,-1.05686,0.00392906,0.00870295,692,694,-5.22432,0.50301
-525,330,-5.22534,-0.715515,0.000316987,0.00262835,-0.0021106,0.00387896,-0.000933623,-1.03588,0.0029469,0.0104326,699,694,-5.22532,0.715496
-518,330,-5.22192,-0.899475,0.000759219,0.00205832,-0.00155912,0.00309778,-0.00028024,-0.982772,0.00216466,0.0137947,706,694,-5.22194,0.899456
-511,330,-5.26404,-1.09631,0.00112958,0.00110846,-0.000752155,0.00187125,0.000366791,-0.778376,0.00114499,0.0182852,713,694,-5.26402,1.09631
-504,330,-5.23694,-1.28278,0.00157649,0.000171076,-5.59442e-05,0.00157871,0.000168853,-0.0397226,0.00100095,0.0171901,720,694,-5.23692,1.28279
-497,330,-5.1958,-1.46033,0.00181302,-0.00117431,0.00063081,0.00194077,-0.00130205,0.199801,0.00188431,0.0128161,727,694,-5.19577,1.46032
-490,330,-5.19098,-1.66864,0.00202558,-0.0030731,0.00139958,0.00238449,-0.00343201,0.251036,0.00337627,0.012036,734,694,-5.19096,1.66863
-483,330,-5.20551,-1.88086,0.00194742,-0.00563011,0.00144668,0.00221422,-0.00589691,0.182375,0.00484118,0.0120882,741,694,-5.2055,1.88087
-476,330,-5.21338,-2.05969,0.00192159,-0.00855217,0.0017616,0.00220994,-0.00884052,0.162246,0.00675198,0.0186258,748,694,-5.21336,2.0597
-469,330,-5.0835,-2.16809,0.00167603,-0.0123311,0.00178675,0.00190035,-0.0125554,0.124896,0.00907034,0.0320327,755,694,-5.0835,2.16812
-462,330,-5.08191,-2.10199,0.00113582,-0.0172133,0.00150109,0.00125781,-0.0173353,0.0810885,0.0119981,0.0493241,762,694,-5.0819,2.10202
-455,330,-5.02942,-2.05707,0,0,0,0,0,0,0,-1,769,694,-5.02943,2.05706
-448,330,-5.17877,-2.04712,0,0,0,0,0,0,0,-1,776,694,-5.17877,2.04711
-441,330,-5.30676,-2.34045,0,0,0,0,0,0,0,-1,783,694,-5.30679,2.34048
-434,330,-7.20428,1.00024,0,0,0,0,0,0,0,-1,790,694,-7.20431,-1.00027
-427,330,-7.67114,0.451782,0,0,0,0,0,0,0,-1,797,694,-7.67116,-0.451789
-420,330,-9.80774,2.9187,0,0,0,0,0,0,0,-1,804,694,-9.80774,-2.91868
-413,330,-10.4567,2.56183,0,0,0,0,0,0,0,-1,811,694,-10.4567,-2.56182
-406,330,-1.65375,-1.74371,0,0,0,0,0,0,0,-1,818,694,-1.65375,1.74371
-399,330,0,0,0,0,0,0,0,0,0,-1,825,694,0,0
-392,330,0,0,0,0,0,0,0,0,0,-1,832,694,0,0
-385,330,0,0,0,0,0,0,0,0,0,-1,839,694,0,0
-378,330,0,0,0,0,0,0,0,0,0,-1,846,694,0,0
-371,330,0,0,0,0,0,0,0,0,0,-1,853,694,0,0
-364,330,0,0,0,0,0,0,0,0,0,-1,860,694,0,0
-357,330,0,0,0,0,0,0,0,0,0,-1,867,694,0,0
-350,330,0,0,0,0,0,0,0,0,0,-1,874,694,0,0
-343,330,0,0,0,0,0,0,0,0,0,-1,881,694,0,0
-336,330,0,0,0,0,0,0,0,0,0,-1,888,694,0,0
-329,330,0,0,0,0,0,0,0,0,0,-1,895,694,0,0
-322,330,0,0,0,0,0,0,0,0,0,-1,902,694,0,0
-315,330,0,0,0,0,0,0,0,0,0,-1,909,694,0,0
-308,330,0,0,0,0,0,0,0,0,0,-1,916,694,0,0
-301,330,0,0,0,0,0,0,0,0,0,-1,923,694,0,0
-294,330,0,0,0,0,0,0,0,0,0,-1,930,694,0,0
-287,330,0,0,0,0,0,0,0,0,0,-1,937,694,0,0
-280,330,0,0,0,0,0,0,0,0,0,-1,944,694,0,0
-273,330,0,0,0,0,0,0,0,0,0,-1,951,694,0,0
-266,330,0,0,0,0,0,0,0,0,0,-1,958,694,0,0
-259,330,0,0,0,0,0,0,0,0,0,-1,965,694,0,0
-252,330,0,0,0,0,0,0,0,0,0,-1,972,694,0,0
-245,330,0,0,0,0,0,0,0,0,0,-1,979,694,0,0
-238,330,0,0,0,0,0,0,0,0,0,-1,986,694,0,0
-231,330,0,0,0,0,0,0,0,0,0,-1,993,694,0,0
-224,330,0,0,0,0,0,0,0,0,0,-1,1000,694,0,0
-217,330,0,0,0,0,0,0,0,0,0,-1,1007,694,0,0
-210,330,0,0,0,0,0,0,0,0,0,-1,1014,694,0,0
-203,330,0,0,0,0,0,0,0,0,0,-1,1021,694,0,0
-196,330,0,0,0,0,0,0,0,0,0,-1,1028,694,0,0
-189,330,0,0,0,0,0,0,0,0,0,-1,1035,694,0,0
-182,330,0,0,0,0,0,0,0,0,0,-1,1042,694,0,0
-175,330,0,0,0,0,0,0,0,0,0,-1,1049,694,0,0
-168,330,0,0,0,0,0,0,0,0,0,-1,1056,694,0,0
-161,330,0,0,0,0,0,0,0,0,0,-1,1063,694,0,0
-154,330,0,0,0,0,0,0,0,0,0,-1,1070,694,0,0
-147,330,0,0,0,0,0,0,0,0,0,-1,1077,694,0,0
-140,330,0,0,0,0,0,0,0,0,0,-1,1084,694,0,0
-133,330,0,0,0,0,0,0,0,0,0,-1,1091,694,0,0
-126,330,0,0,0,0,0,0,0,0,0,-1,1098,694,0,0
-119,330,0,0,0,0,0,0,0,0,0,-1,1105,694,0,0
-112,330,0,0,0,0,0,0,0,0,0,-1,1112,694,0,0
-105,330,0,0,0,0,0,0,0,0,0,-1,1119,694,0,0
-98,330,0,0,0,0,0,0,0,0,0,-1,1126,694,0,0
-91,330,0,0,0,0,0,0,0,0,0,-1,1133,694,0,0
-84,330,0,0,0,0,0,0,0,0,0,-1,1140,694,0,0
-77,330,0,0,0,0,0,0,0,0,0,-1,1147,694,0,0
-70,330,0,0,0,0,0,0,0,0,0,-1,1154,694,0,0
-63,330,0,0,0,0,0,0,0,0,0,-1,1161,694,0,0
-56,330,0,0,0,0,0,0,0,0,0,-1,1168,694,0,0
-49,330,0,0,0,0,0,0,0,0,0,-1,1175,694,0,0
-42,330,0,0,0,0,0,0,0,0,0,-1,1182,694,0,0
-35,330,0,0,0,0,0,0,0,0,0,-1,1189,694,0,0
-28,330,0,0,0,0,0,0,0,0,0,-1,1196,694,0,0
-21,330,0,0,0,0,0,0,0,0,0,-1,1203,694,0,0
-14,330,0,0,0,0,0,0,0,0,0,-1,1210,694,0,0
-7,330,0,0,0,0,0,0,0,0,0,-1,1217,694,0,0
0,330,0,0,0,0,0,0,0,0,0,-1,1224,694,0,0
7,330,0,0,0,0,0,0,0,0,0,-1,1231,694,0,0
14,330,0,0,0,0,0,0,0,0,0,-1,1238,694,0,0
21,330,0,0,0,0,0,0,0,0,0,-1,1245,694,0,0
28,330,0,0,0,0,0,0,0,0,0,-1,1252,694,0,0
35,330,0,0,0,0,0,0,0,0,0,-1,1259,694,0,0
42,330,0,0,0,0,0,0,0,0,0,-1,1266,694,0,0
49,330,0,0,0,0,0,0,0,0,0,-1,1273,694,0,0
56,330,0,0,0,0,0,0,0,0,0,-1,1280,694,0,0
63,330,0,0,0,0,0,0,0,0,0,-1,1287,694,0,0
70,330,0,0,0,0,0,0,0,0,0,-1,1294,694,0,0
77,330,0,0,0,0,0,0,0,0,0,-1,1301,694,0,0
84,330,0,0,0,0,0,0,0,0,0,-1,1308,694,0,0
91,330,0,0,0,0,0,0,0,0,0,-1,1315,694,0,0
98,330,0,0,0,0,0,0,0,0,0,-1,1322,694,0,0
105,330,0,0,0,0,0,0,0,0,0,-1,1329,694,0,0
112,330,0,0,0,0,0,0,0,0,0,-1,1336,694,0,0
119,330,0,0,0,0,0,0,0,0,0,-1,1343,694,0,0
126,330,0,0,0,0,0,0,0,0,0,-1,1350,694,0,0
133,330,0,0,0,0,0,0,0,0,0,-1,1357,694,0,0
140,330,0,0,0,0,0,0,0,0,0,-1,1364,694,0,0
147,330,0,0,0,0,0,0,0,0,0,-1,1371,694,0,0
154,330,0,0,0,0,0,0,0,0,0,-1,1378,694,0,0
161,330,0,0,0,0,0,0,0,0,0,-1,1385,694,0,0
168,330,0,0,0,0,0,0,0,0,0,-1,1392,694,0,0
175,330,0,0,0,0,0,0,0,0,0,-1,1399,694,0,0
182,330,0,0,0,0,0,0,0,0,0,-1,1406,694,0,0
189,330,0,0,0,0,0,0,0,0,0,-1,1413,694,0,0
196,330,0,0,0,0,0,0,0,0,0,-1,1420,694,0,0
203,330,0,0,0,0,0,0,0,0,0,-1,1427,694,0,0
210,330,0,0,0,0,0,0,0,0,0,-1,1434,694,0,0
217,330,0,0,0,0,0,0,0,0,0,-1,1441,694,0,0
224,330,0,0,0,0,0,0,0,0,0,-1,1448,694,0,0
231,330,0,0,0,0,0,0,0,0,0,-1,1455,694,0,0
238,330,0,0,0,0,0,0,0,0,0,-1,1462,694,0,0
245,330,0,0,0,0,0,0,0,0,0,-1,1469,694,0,0
252,330,0,0,0,0,0,0,0,0,0,-1,1476,694,0,0
259,330,0,0,0,0,0,0,0,0,0,-1,1483,694,0,0
266,330,0,0,0,0,0,0,0,0,0,-1,1490,694,0,0
273,330,0,0,0,0,0,0,0,0,0,-1,1497,694,0,0
280,330,0,0,0,0,0,0,0,0,0,-1,1504,694,0,0
287,330,0,0,0,0,0,0,0,0,0,-1,1511,694,0,0
294,330,0,0,0,0,0,0,0,0,0,-1,1518,694,0,0
301,330,0,0,0,0,0,0,0,0,0,-1,1525,694,0,0
308,330,0,0,0,0,0,0,0,0,0,-1,1532,694,0,0
315,330,0,0,0,0,0,0,0,0,0,-1,1539,694,0,0
322,330,0,0,0,0,0,0,0,0,0,-1,1546,694,0,0
329,330,0,0,0,0,0,0,0,0,0,-1,1553,694,0,0
336,330,0,0,0,0,0,0,0,0,0,-1,1560,694,0,0
343,330,0,0,0,0,0,0,0,0,0,-1,1567,694,0,0
350,330,0,0,0,0,0,0,0,0,0,-1,1574,694,0,0
357,330,0,0,0,0,0,0,0,0,0,-1,1581,694,0,0
364,330,0,0,0,0,0,0,0,0,0,-1,1588,694,0,0
371,330,0,0,0,0,0,0,0,0,0,-1,1595,694,0,0
378,330,0,0,0,0,0,0,0,0,0,-1,1602,694,0,0
385,330,0,0,0,0,0,0,0,0,0,-1,1609,694,0,0
392,330,0,0,0,0,0,0,0,0,0,-1,1616,694,0,0
399,330,0,0,0,0,0,0,0,0,0,-1,1623,694,0,0
406,330,0,0,0,0,0,0,0,0,0,-1,1630,694,0,0
413,330,0,0,0,0,0,0,0,0,0,-1,1637,694,0,0
420,330,0,0,0,0,0,0,0,0,0,-1,1644,694,0,0
427,330,0,0,0,0,0,0,0,0,0,-1,1651,694,0,0
434,330,0,0,0,0,0,0,0,0,0,-1,1658,694,0,0
441,330,0,0,0,0,0,0,0,0,0,-1,1665,694,0,0
448,330,0,0,0,0,0,0,0,0,0,-1,1672,694,0,0
455,330,0,0,0,0,0,0,0,0,0,-1,1679,694,0,0
462,330,0,0,0,0,0,0,0,0,0,-1,1686,694,0,0
469,330,0,0,0,0,0,0,0,0,0,-1,1693,694,0,0
476,330,0,0,0,0,0,0,0,0,0,-1,1700,694,0,0
483,330,0,0,0,0,0,0,0,0,0,-1,1707,694,0,0
490,330,0,0,0,0,0,0,0,0,0,-1,1714,694,0,0
497,330,0,0,0,0,0,0,0,0,0,-1,1721,694,0,0
504,330,0,0,0,0,0,0,0,0,0,-1,1728,694,0,0
511,330,0,0,0,0,0,0,0,0,0,-1,1735,694,0,0
518,330,0,0,0,0,0,0,0,0,0,-1,1742,694,0,0
525,330,10.3538,2.96643,0.166968,0.0611727,0.0253402,0.172725,0.0554165,0.22337,0.101834,0.0424529,1749,694,10.3537,-2.96646
532,330,11.1992,2.99945,0.15702,0.0468307,0.0285567,0.163981,0.0398697,0.239098,0.0987514,0.0431218,1756,694,11.1992,-2.99945
539,330,12.369,3.0929,0.138477,0.0351254,0.0235767,0.143601,0.0300012,0.214016,0.0874661,0.0435019,1763,694,12.369,-3.09288
546,330,13.5215,3.09406,0.119183,0.0260265,0.0184667,0.12271,0.0224994,0.188729,0.0754338,0.0436484,1770,694,13.5215,-3.09407
553,330,14.5492,3.03198,0,0,0,0,0,0,0,-1,1777,694,14.5491,-3.03198
560,330,14.9954,2.69727,0,0,0,0,0,0,0,-1,1784,694,14.9953,-2.69727
567,330,15.6969,2.73596,0,0,0,0,0,0,0,-1,1791,694,15.6969,-2.73596
574,330,12.0454,2.1662,0,0,0,0,0,0,0,-1,1798,694,12.0455,-2.16618
581,330,12.7212,1.9704,0,0,0,0,0,0,0,-1,1805,694,12.7212,-1.97041
588,330,6.45667,-0.0630493,0,0,0,0,0,0,0,-1,1812,694,6.45661,0.0630695
595,330,8.23193,-0.258484,0,0,0,0,0,0,0,-1,1819,694,8.23188,0.258459
602,330,9.86755,-0.492432,0,0,0,0,0,0,0,-1,1826,694,9.86761,0.492458
609,330,10.0546,-0.163025,0.00919258,0.000269576,-0.00408277,0.0107787,-0.00131657,-0.370551,0.00766246,0.0276466,1833,694,10.0546,0.163008
616,330,10.1199,0.067749,0.00519944,0.000517025,-0.00345074,0.00702822,-0.00131176,-0.487335,0.00517842,0.0117937,1840,694,10.1199,-0.0677426
623,330,10.1216,0.274658,0.00207768,0.000387039,-0.00267419,0.00403697,-0.00157225,-0.632316,0.00334107,0.0134469,1847,694,10.1215,-0.274665
630,330,10.1561,0.496399,0.00119963,0.000256169,-0.0017131,0.00250476,-0.00104896,-0.651045,0.00210835,0.0138327,1854,694,10.1562,-0.496372
637,330,10.1844,0.715576,0.00120847,-0.000218675,-0.000368852,0.00129816,-0.00030837,-0.238542,0.000984465,0.0119571,1861,694,10.1845,-0.715582
644,330,10.1373,0.918213,0.000544344,-0.000157588,-0.00056349,0.000857229,-0.000470473,-0.506875,0.000777314,0.00772196,1868,694,10.1373,-0.918183
651,330,10.114,1.12274,0.000414738,0.000228124,-0.000713306,0.00104081,-0.000397952,-0.720363,0.000857866,0.0104919,1875,694,10.1141,-1.12274
658,330,10.1096,1.32684,0.000803757,0.000647843,-0.00101939,0.00174817,-0.000296568,-0.747235,0.00127584,0.0107994,1882,694,10.1097,-1.32684
665,330,10.1149,1.5379,0.00178174,0.00124369,-0.00151071,0.0030472,-2.17599e-05,-0.697282,0.00203876,0.00954064,1889,694,10.1148,-1.53788
672,330,10.1305,1.74579,0.00327311,0.00191223,-0.00197003,0.0046769,0.000508443,-0.619114,0.00296303,0.0123474,1896,694,10.1305,-1.74576
679,330,10.0254,1.9231,0.00564043,0.00282616,-0.00251564,0.00711574,0.00135085,-0.5304,0.0043638,0.0251213,1903,694,10.0254,-1.92312
686,330,10.368,2.15973,0.00940323,0.00405924,-0.00325013,0.0109387,0.00252375,-0.441356,0.00661373,0.0413388,1910,694,10.368,-2.15973
693,330,10.7039,2.19537,0,0,0,0,0,0,0,-1,1917,694,10.7039,-2.19538
700,330,12.2338,-0.0736084,0,0,0,0,0,0,0,-1,1924,694,12.2338,0.0736035
707,330,13.4666,-0.003479,0,0,0,0,0,0,0,-1,1931,694,13.4665,0.00345908
714,330,14.6604,0.0909424,0,0,0,0,0,0,0,-1,1938,694,14.6604,-0.0909463
721,330,0,0,0,0,0,0,0,0,0,-1,1945,694,0,0
728,330,0,0,0,0,0,0,0,0,0,-1,1952,694,0,0
735,330,0,0,0,0,0,0,0,0,0,-1,1959,694,0,0
742,330,0,0,0,0,0,0,0,0,0,-1,1966,694,0,0
749,330,0,0,0,0,0,0,0,0,0,-1,1973,694,0,0
756,330,0,0,0,0,0,0,0,0,0,-1,1980,694,0,0
763,330,0,0,0,0,0,0,0,0,0,-1,1987,694,0,0
770,330,0,0,0,0,0,0,0,0,0,-1,1994,694,0,0
777,330,0,0,0,0,0,0,0,0,0,-1,2001,694,0,0
784,330,0,0,0,0,0,0,0,0,0,-1,2008,694,0,0
791,330,0,0,0,0,0,0,0,0,0,-1,2015,694,0,0
798,330,0,0,0,0,0,0,0,0,0,-1,2022,694,0,0
805,330,0,0,0,0,0,0,0,0,0,-1,2029,694,0,0
812,330,0,0,0,0,0,0,0,0,0,-1,2036,694,0,0
-700,323,0,0,0,0,0,0,0,0,0,-1,524,701,0,0
-693,323,0,0,0,0,0,0,0,0,0,-1,531,701,0,0
-686,323,0,0,0,0,0,0,0,0,0,-1,538,701,0,0
-679,323,0,0,0,0,0,0,0,0,0,-1,545,701,0,0
-672,323,0,0,0,0,0,0,0,0,0,-1,552,701,0,0
-665,323,0,0,0,0,0,0,0,0,0,-1,559,701,0,0
-658,323,0,0,0,0,0,0,0,0,0,-1,566,701,0,0
-651,323,0,0,0,0,0,0,0,0,0,-1,573,701,0,0
-644,323,0,0,0,0,0,0,0,0,0,-1,580,701,0,0
-637,323,0,0,0,0,0,0,0,0,0,-1,587,701,0,0
-630,323,0,0,0,0,0,0,0,0,0,-1,594,701,0,0
-623,323,0,0,0,0,0,0,0,0,0,-1,601,701,0,0
-616,323,0,0,0,0,0,0,0,0,0,-1,608,701,0,0
-609,323,0,0,0,0,0,0,0,0,0,-1,615,701,0,0
-602,323,-4.15833,2.12256,0,0,0,0,0,0,0,-1,622,701,-4.1583,-2.12257
-595,323,-4.052,1.79156,0,0,0,0,0,0,0,-1,629,701,-4.05198,-1.79158
-588,323,-4.07019,1.94543,0,0,0,0,0,0,0,-1,636,701,-4.07019,-1.94542
-581,323,-6.63727,0.562805,0,0,0,0,0,0,0,-1,643,701,-6.63728,-0.56279
-574,323,-6.15887,0.426697,0,0,0,0,0,0,0,-1,650,701,-6.15887,-0.426727
-567,323,-5.70862,0.315918,0.00746755,-0.00359909,0.00360679,0.00853927,-0.00467081,0.28883,0.00773508,0.0469831,657,701,-5.70859,-0.315944
-560,323,-5.52313,0.155212,0.00228303,-0.000621627,0.00106542,0.00263192,-0.000970512,0.316458,0.00215233,0.0486287,664,701,-5.52316,-0.155217
-553,323,-5.42072,-0.0420532,-0.00162196,0.00164074,-0.000730079,0.00179666,-0.00177788,-1.3604,0.00206377,0.0297818,671,701,-5.42074,0.0420449
-546,323,-5.39825,-0.162598,-0.00252815,0.00262901,-0.00187796,0.00324039,-0.00313952,-1.25607,0.00368359,0.0111677,678,701,-5.39826,0.162581
-539,323,-5.39899,-0.31665,-0.001642,0.0024834,-0.0015854,0.00302228,-0.00218088,-1.24315,0.00301711,0.0106447,685,701,-5.39901,0.316655
-532,323,-5.41919,-0.511475,-0.000838765,0.00211503,-0.00126624,0.00258353,-0.00130727,-1.21642,0.00228628,0.00991919,692,701,-5.41919,0.511477
-525,323,-5.42468,-0.705688,-0.000176732,0.00160111,-0.000935093,0.00200237,-0.000577997,-1.16544,0.00156361,0.0085795,699,701,-5.42469,0.705699
-518,323,-5.41809,-0.884827,0.000507477,0.00126719,-0.000625932,0.00161951,0.000155158,-1.05813,0.00103185,0.00998599,706,701,-5.41807,0.884811
-511,323,-5.43829,-1.0835,0.00106454,0.000623265,2.36679e-05,0.00106581,0.000621999,0.0534306,0.000618205,0.012643,713,701,-5.43831,1.08349
-504,323,-5.42645,-1.27972,0.00155574,0.000135848,0.000655258,0.00181192,-0.000120325,0.37268,0.00124998,0.0135481,720,701,-5.42645,1.2797
-497,323,-5.3916,-1.46191,0.00162628,-0.000817255,0.00141997,0.00227775,-0.00146873,0.430143,0.00217978,0.0114955,727,701,-5.3916,1.46189
-490,323,-5.40143,-1.66669,0.00162084,-0.00235432,0.0023532,0.00271352,-0.00344701,0.434715,0.00356518,0.012297,734,701,-5.40142,1.66667
-483,323,-5.41382,-1.86084,0.00117664,-0.00457502,0.0024793,0.00209783,-0.0054962,0.355743,0.00452839,0.0155833,741,701,-5.41383,1.86086
-476,323,-5.32111,-2.07147,0.000678022,-0.00695852,0.0029937,0.0017117,-0.0079922,0.332468,0.00598091,0.0305024,748,701,-5.32111,2.07148
-469,323,-4.99762,-2.33887,0,0,0,0,0,0,0,-1,755,701,-4.99762,2.33887
-462,323,-5.1192,-1.71088,0,0,0,0,0,0,0,-1,762,701,-5.11919,1.71086
-455,323,-5.2627,-1.92554,0,0,0,0,0,0,0,-1,769,701,-5.26268,1.92553
-448,323,-5.78632,-2.30804,0,0,0,0,0,0,0,-1,776,701,-5.78633,2.30804
-441,323,-5.88361,-2.70251,0,0,0,0,0,0,0,-1,783,701,-5.88358,2.70254
-434,323,-7.5022,0.849731,0,0,0,0,0,0,0,-1,790,701,-7.50219,-0.849752
-427,323,-7.61346,-0.0681763,0,0,0,0,0,0,0,-1,797,701,-7.61345,0.0681943
-420,323,-10.3256,2.65674,0,0,0,0,0,0,0,-1,804,701,-10.3256,-2.65675
-413,323,-10.202,3.21863,0,0,0,0,0,0,0,-1,811,701,-10.202,-3.21863
-406,323,0,0,0,0,0,0,0,0,0,-1,818,701,0,0
-399,323,0,0,0,0,0,0,0,0,0,-1,825,701,0,0
-392,323,0,0,0,0,0,0,0,0,0,-1,832,701,0,0
-385,323,0,0,0,0,0,0,0,0,0,-1,839,701,0,0
-378,323,0,0,0,0,0,0,0,0,0,-1,846,701,0,0
-371,323,0,0,0,0,0,0,0,0,0,-1,853,701,0,0
-364,323,0,0,0,0,0,0,0,0,0,-1,860,701,0,0
-357,323,0,0,0,0,0,0,0,0,0,-1,867,701,0,0
-350,323,0,0,0,0,0,0,0,0,0,-1,874,701,0,0
-343,323,0,0,0,0,0,0,0,0,0,-1,881,701,0,0
-336,323,0,0,0,0,0,0,0,0,0,-1,888,701,0,0
-329,323,0,0,0,0,0,0,0,0,0,-1,895,701,0,0
-322,323,0,0,0,0,0,0,0,0,0,-1,902,701,0,0
-315,323,0,0,0,0,0,0,0,0,0,-1,909,701,0,0
-308,323,0,0,0,0,0,0,0,0,0,-1,916,701,0,0
-301,323,0,0,0,0,0,0,0,0,0,-1,923,701,0,0
-294,323,0,0,0,0,0,0,0,0,0,-1,930,701,0,0
-287,323,0,0,0,0,0,0,0,0,0,-1,937,701,0,0
-280,323,0,0,0,0,0,0,0,0,0,-1,944,701,0,0
-273,323,0,0,0,0,0,0,0,0,0,-1,951,701,0,0
-266,323,0,0,0,0,0,0,0,0,0,-1,958,701,0,0
-259,323,0,0,0,0,0,0,0,0,0,-1,965,701,0,0
-252,323,0,0,0,0,0,0,0,0,0,-1,972,701,0,0
-245,323,0,0,0,0,0,0,0,0,0,-1,979,701,0,0
-238,323,0,0,0,0,0,0,0,0,0,-1,986,701,0,0
-231,323,0,0,0,0,0,0,0,0,0,-1,993,701,0,0
-224,323,0,0,0,0,0,0,0,0,0,-1,1000,701,0,0
-217,323,0,0,0,0,0,0,0,0,0,-1,1007,701,0,0
-210,323,0,0,0,0,0,0,0,0,0,-1,1014,701,0,0
-203,323,0,0,0,0,0,0,0,0,0,-1,1021,701,0,0
-196,323,0,0,0,0,0,0,0,0,0,-1,1028,701,0,0
-189,323,0,0,0,0,0,0,0,0,0,-1,1035,701,0,0
-182,323,0,0,0,0,0,0,0,0,0,-1,1042,701,0,0
-175,323,0,0,0,0,0,0,0,0,0,-1,1049,701,0,0
-168,323,0,0,0,0,0,0,0,0,0,-1,1056,701,0,0
-161,323,0,0,0,0,0,0,0,0,0,-1,1063,701,0,0
-154,323,0,0,0,0,0,0,0,0,0,-1,1070,701,0,0
-147,323,0,0,0,0,0,0,0,0,0,-1,1077,701,0,0
-140,323,0,0,0,0,0,0,0,0,0,-1,1084,701,0,0
-133,323,0,0,0,0,0,0,0,0,0,-1,1091,701,0,0
-126,323,0,0,0,0,0,0,0,0,0,-1,1098,701,0,0
-119,323,0,0,0,0,0,0,0,0,0,-1,1105,701,0,0
-112,323,0,0,0,0,0,0,0,0,0,-1,1112,701,0,0
-105,323,0,0,0,0,0,0,0,0,0,-1,1119,701,0,0
-98,323,0,0,0,0,0,0,0,0,0,-1,1126,701,0,0
-91,323,0,0,0,0,0,0,0,0,0,-1,1133,701,0,0
-84,323,0,0,0,0,0,0,0,0,0,-1,1140,701,0,0
-77,323,0,0,0,0,0,0,0,0,0,-1,1147,701,0,0
-70,323,0,0,0,0,0,0,0,0,0,-1,1154,701,0,0
-63,323,0,0,0,0,0,0,0,0,0,-1,1161,701,0,0
-56,323,0,0,0,0,0,0,0,0,0,-1,1168,701,0,0
-49,323,0,0,0,0,0,0,0,0,0,-1,1175,701,0,0
-42,323,0,0,0,0,0,0,0,0,0,-1,1182,701,0,0
-35,323,0,0,0,0,0,0,0,0,0,-1,1189,701,0,0
-28,323,0,0,0,0,0,0,0,0,0,-1,1196,701,0,0
-21,323,0,0,0,0,0,0,0,0,0,-1,1203,701,0,0
-14,323,0,0,0,0,0,0,0,0,0,-1,1210,701,0,0
-7,323,0,0,0,0,0,0,0,0,0,-1,1217,701,0,0
0,323,0,0,0,0,0,0,0,0,0,-1,1224,701,0,0
7,323,0,0,0,0,0,0,0,0,0,-1,1231,701,0,0
14,323,0,0,0,0,0,0,0,0,0,-1,1238,701,0,0
21,323,0,0,0,0,0,0,0,0,0,-1,1245,701,0,0
28,323,0,0,0,0,0,0,0,0,0,-1,1252,701,0,0
35,323,0,0,0,0,0,0,0,0,0,-1,1259,701,0,0
42,323,0,0,0,0,0,0,0,0,0,-1,1266,701,0,0
49,323,0,0,0,0,0,0,0,0,0,-1,1273,701,0,0
56,323,0,0,0,0,0,0,0,0,0,-1,1280,701,0,0
63,323,0,0,0,0,0,0,0,0,0,-1,1287,701,0,0
70,323,0,0,0,0,0,0,0,0,0,-1,1294,701,0,0
77,323,0,0,0,0,0,0,0,0,0,-1,1301,701,0,0
84,323,0,0,0,0,0,0,0,0,0,-1,1308,701,0,0
91,323,0,0,0,0,0,0,0,0,0,-1,1315,701,0,0
98,323,0,0,0,0,0,0,0,0,0,-1,1322,701,0,0
105,323,0,0,0,0,0,0,0,0,0,-1,1329,701,0,0
112,323,0,0,0,0,0,0,0,0,0,-1,1336,701,0,0
119,323,0,0,0,0,0,0,0,0,0,-1,1343,701,0,0
126,323,0,0,0,0,0,0,0,0,0,-1,1350,701,0,0
133,323,0,0,0,0,0,0,0,0,0,-1,1357,701,0,0
140,323,0,0,0,0,0,0,0,0,0,-1,1364,701,0,0
147,323,0,0,0,0,0,0,0,0,0,-1,1371,701,0,0
154,323,0,0,0,0,0,0,0,0,0,-1,1378,701,0,0
161,323,0,0,0,0,0,0,0,0,0,-1,1385,701,0,0
168,323,0,0,0,0,0,0,0,0,0,-1,1392,701,0,0
175,323,0,0,0,0,0,0,0,0,0,-1,1399,701,0,0
182,323,0,0,0,0,0,0,0,0,0,-1,1406,701,0,0
189,323,0,0,0,0,0,0,0,0,0,-1,1413,701,0,0
196,323,0,0,0,0,0,0,0,0,0,-1,1420,701,0,0
203,323,0,0,0,0,0,0,0,0,0,-1,1427,701,0,0
210,323,0,0,0,0,0,0,0,0,0,-1,1434,701,0,0
217,323,0,0,0,0,0,0,0,0,0,-1,1441,701,0,0
224,323,0,0,0,0,0,0,0,0,0,-1,1448,701,0,0
231,323,0,0,0,0,0,0,0,0,0,-1,1455,701,0,0
238,323,0,0,0,0,0,0,0,0,0,-1,1462,701,0,0
245,323,0,0,0,0,0,0,0,0,0,-1,1469,701,0,0
252,323,0,0,0,0,0,0,0,0,0,-1,1476,701,0,0
259,323,0,0,0,0,0,0,0,0,0,-1,1483,701,0,0
266,323,0,0,0,0,0,0,0,0,0,-1,1490,701,0,0
273,323,0,0,0,0,0,0,0,0,0,-1,1497,701,0,0
280,323,0,0,0,0,0,0,0,0,0,-1,1504,701,0,0
287,323,0,0,0,0,0,0,0,0,0,-1,1511,701,0,0
294,323,0,0,0,0,0,0,0,0,0,-1,1518,701,0,0
301,323,0,0,0,0,0,0,0,0,0,-1,1525,701,0,0
308,323,0,0,0,0,0,0,0,0,0,-1,1532,701,0,0
315,323,0,0,0,0,0,0,0,0,0,-1,1539,701,0,0
322,323,0,0,0,0,0,0,0,0,0,-1,1546,701,0,0
329,323,0,0,0,0,0,0,0,0,0,-1,1553,701,0,0
336,323,0,0,0,0,0,0,0,0,0,-1,1560,701,0,0
343,323,0,0,0,0,0,0,0,0,0,-1,1567,701,0,0
350,323,0,0,0,0,0,0,0,0,0,-1,1574,701,0,0
357,323,0,0,0,0,0,0,0,0,0,-1,1581,701,0,0
364,323,0,0,0,0,0,0,0,0,0,-1,1588,701,0,0
371,323,0,0,0,0,0,0,0,0,0,-1,1595,701,0,0
378,323,0,0,0,0,0,0,0,0,0,-1,1602,701,0,0
385,323,0,0,0,0,0,0,0,0,0,-1,1609,701,0,0
392,323,0,0,0,0,0,0,0,0,0,-1,1616,701,0,0
399,323,0,0,0,0,0,0,0,0,0,-1,1623,701,0,0
406,323,0,0,0,0,0,0,0,0,0,-1,1630,701,0,0
413,323,0,0,0,0,0,0,0,0,0,-1,1637,701,0,0
420,323,0,0,0,0,0,0,0,0,0,-1,1644,701,0,0
427,323,0,0,0,0,0,0,0,0,0,-1,1651,701,0,0
434,323,0,0,0,0,0,0,0,0,0,-1,1658,701,0,0
441,323,0,0,0,0,0,0,0,0,0,-1,1665,701,0,0
448,323,0,0,0,0,0,0,0,0,0,-1,1672,701,0,0
455,323,0,0,0,0,0,0,0,0,0,-1,1679,701,0,0
462,323,0,0,0,0,0,0,0,0,0,-1,1686,701,0,0
469,323,0,0,0,0,0,0,0,0,0,-1,1693,701,0,0
476,323,0,0,0,0,0,0,0,0,0,-1,1700,701,0,0
483,323,0,0,0,0,0,0,0,0,0,-1,1707,701,0,0
490,323,0,0,0,0,0,0,0,0,0,-1,1714,701,0,0
497,323,0,0,0,0,0,0,0,0,0,-1,1721,701,0,0
504,323,0,0,0,0,0,0,0,0,0,-1,1728,701,0,0
511,323,0,0,0,0,0,0,0,0,0,-1,1735,701,0,0
518,323,0,0,0,0,0,0,0,0,0,-1,1742,701,0,0
525,323,0,0,0,0,0,0,0,0,0,-1,1749,701,0,0
532,323,11.3792,2.73712,0.157218,0.0436901,0.0252969,0.1626,0.0383084,0.209615,0.0981547,0.0434279,1756,701,11.3792,-2.7371
539,323,12.1517,2.85016,0.140972,0.0324536,0.0214708,0.145066,0.0283599,0.1884,0.0887801,0.0461369,1763,701,12.1518,-2.85017
546,323,13.1392,2.68628,0.12225,0.024321,0.0167197,0.125026,0.0215451,0.164526,0.0771778,0.0437242,1770,701,13.1392,-2.6863
553,323,14.119,1.82935,0,0,0,0,0,0,0,-1,1777,701,14.119,-1.82932
560,323,14.6705,2.24487,0.0857674,0.0124798,0.00677803,0.086389,0.0118582,0.0914518,0.0540751,0.0472746,1784,701,14.6705,-2.24486
567,323,15.3374,2.57843,0.0694272,0.0088253,0.00246187,0.069527,0.00872546,0.0405346,0.043734,0.0479992,1791,701,15.3374,-2.57844
574,323,16.1412,2.82092,0,0,0,0,0,0,0,-1,1798,701,16.1412,-2.82094
581,323,12.8182,1.75861,0,0,0,0,0,0,0,-1,1805,701,12.8182,-1.75861
588,323,13.5166,1.58954,0,0,0,0,0,0,0,-1,1812,701,13.5166,-1.58954
595,323,6.67847,0.06604,0,0,0,0,0,0,0,-1,1819,701,6.67841,-0.0660418
602,323,9.83862,-0.110291,0,0,0,0,0,0,0,-1,1826,701,9.83864,0.110282
609,323,10.158,-0.0524292,0.0103643,0.00202713,-0.00548115,0.0130819,-0.00069052,-0.460296,0.00896032,0.0451603,1833,701,10.158,0.0524449
616,323,10.3304,0.0581665,0.00621997,0.00184999,-0.00461782,0.00914364,-0.00107368,-0.564423,0.00648335,0.0150089,1840,701,10.3304,-0.0581456
623,323,10.354,0.281433,0.00267159,0.0013716,-0.00356368,0.00564406,-0.00160088,-0.695193,0.00439463,0.013529,1847,701,10.354,-0.28144
630,323,10.379,0.505798,0.00156213,0.000962931,-0.00224223,0.00352469,-0.000999622,-0.718983,0.00274437,0.0137383,1854,701,10.3791,-0.505768
637,323,10.3966,0.723572,0.00164331,-4.86763e-05,-0.000426941,0.00174494,-0.000150303,-0.233685,0.00121649,0.0104768,1861,701,10.3967,-0.723551
644,323,10.3778,0.916748,0.000853513,-0.000309612,-0.000481464,0.00102695,-0.000483047,-0.345756,0.000890449,0.00801473,1868,701,10.3778,-0.916772
651,323,10.3607,1.12354,0.000606669,3.75575e-05,-0.000581613,0.000969605,-0.000325378,-0.557892,0.000777887,0.00924183,1875,701,10.3608,-1.12355
658,323,10.3344,1.34094,0.00102581,0.00038971,-0.000848362,0.00161378,-0.00019826,-0.606056,0.00114766,0.0116628,1882,701,10.3343,-1.34094
665,323,10.3202,1.54279,0.00205178,0.000889683,-0.00133675,0.0029283,1.31627e-05,-0.58038,0.00194783,0.0106714,1889,701,10.3202,-1.54277
672,323,10.3329,1.76532,0.00360591,0.00131658,-0.00182147,0.00461253,0.000309967,-0.504867,0.00297708,0.00938479,1896,701,10.3328,-1.7653
679,323,10.2959,1.98206,0.00595383,0.00192863,-0.00240731,0.00707901,0.00080344,-0.437232,0.00447563,0.0188867,1903,701,10.2958,-1.98205
686,323,10.2405,2.1167,0.00961667,0.00269875,-0.00326898,0.010917,0.00139844,-0.378584,0.00685952,0.0420221,1910,701,10.2405,-2.11672
693,323,10.2159,2.26208,0,0,0,0,0,0,0,-1,1917,701,10.216,-2.26211
700,323,10.7705,0.828613,0,0,0,0,0,0,0,-1,1924,701,10.7705,-0.828591
707,323,12.7253,0.564026,0,0,0,0,0,0,0,-1,1931,701,12.7254,-0.564037
714,323,13.9398,0.620789,0,0,0,0,0,0,0,-1,1938,701,13.9399,-0.620761
721,323,0,0,0,0,0,0,0,0,0,-1,1945,701,0,0
728,323,0,0,0,0,0,0,0,0,0,-1,1952,701,0,0
735,323,0,0,0,0,0,0,0,0,0,-1,1959,701,0,0
742,323,0,0,0,0,0,0,0,0,0,-1,1966,701,0,0
749,323,0,0,0,0,0,0,0,0,0,-1,1973,701,0,0
756,323,0,0,0,0,0,0,0,0,0,-1,1980,701,0,0
763,323,0,0,0,0,0,0,0,0,0,-1,1987,701,0,0
770,323,0,0,0,0,0,0,0,0,0,-1,1994,701,0,0
777,323,0,0,0,0,0,0,0,0,0,-1,2001,701,0,0
784,323,0,0,0,0,0,0,0,0,0,-1,2008,701,0,0
791,323,0,0,0,0,0,0,0,0,0,-1,2015,701,0,0
798,323,0,0,0,0,0,0,0,0,0,-1,2022,701,0,0
805,323,0,0,0,0,0,0,0,0,0,-1,2029,701,0,0
812,323,0,0,0,0,0,0,0,0,0,-1,2036,701,0,0
-700,316,0,0,0,0,0,0,0,0,0,-1,524,708,0,0
-693,316,0,0,0,0,0,0,0,0,0,-1,531,708,0,0
-686,316,0,0,0,0,0,0,0,0,0,-1,538,708,0,0
-679,316,0,0,0,0,0,0,0,0,0,-1,545,708,0,0
-672,316,0,0,0,0,0,0,0,0,0,-1,552,708,0,0
-665,316,0,0,0,0,0,0,0,0,0,-1,559,708,0,0
-658,316,0,0,0,0,0,0,0,0,0,-1,566,708,0,0
-651,316,0,0,0,0,0,0,0,0,0,-1,573,708,0,0
-644,316,0,0,0,0,0,0,0,0,0,-1,580,708,0,0
-637,316,0,0,0,0,0,0,0,0,0,-1,587,708,0,0
-630,316,0,0,0,0,0,0,0,0,0,-1,594,708,0,0
-623,316,0,0,0,0,0,0,0,0,0,-1,601,708,0,0
-616,316,0,0,0,0,0,0,0,0,0,-1,608,708,0,0
-609,316,0,0,0,0,0,0,0,0,0,-1,615,708,0,0
-602,316,-0.451782,-0.0494995,0,0,0,0,0,0,0,-1,622,708,-0.451768,0.0495022
-595,316,-3.3761,2.17188,0,0,0,0,0,0,0,-1,629,708,-3.37609,-2.17189
-588,316,-4.63074,-2.20325,0,0,0,0,0,0,0,-1,636,708,-4.63071,2.20326
-581,316,-3.94653,0.393433,0,0,0,0,0,0,0,-1,643,708,-3.94655,-0.39342
-574,316,-5.68884,0.584961,0,0,0,0,0,0,0,-1,650,708,-5.68885,-0.584972
-567,316,-5.37018,0.510925,0.00480671,-0.00472751,0.00704591,0.00854667,-0.00846746,0.487981,0.00982315,0.0484377,657,708,-5.37018,-0.510932
-560,316,-4.98676,-0.172241,0.000401209,-0.00186639,0.0039931,0.00341836,-0.00488353,0.647069,0.00481792,0.0462958,664,708,-4.98676,0.172213
-553,316,-5.51123,0.0528564,-0.00298707,0.000437027,0.00170959,0.00114444,-0.00369448,1.17846,0.0029202,0.0292417,671,708,-5.51121,-0.0528438
-546,316,-5.61499,-0.115906,-0.00354107,0.0014581,6.48624e-05,0.00145894,-0.00354192,1.55782,0.00296956,0.0170877,678,708,-5.61497,0.115896
-539,316,-5.58704,-0.336853,-0.00237841,0.00134323,-6.63951e-05,0.00134441,-0.00237959,-1.55296,0.00217757,0.0125928,685,708,-5.58701,0.336848
-532,316,-5.60944,-0.521545,-0.00137691,0.00118739,-0.000175497,0.00119935,-0.00138886,-1.50278,0.00149564,0.0106243,692,708,-5.60945,0.521553
-525,316,-5.58453,-0.689514,-0.000576968,0.00104635,-0.000255903,0.00108573,-0.000616353,-1.41809,0.000995078,0.00986503,699,708,-5.58456,0.689541
-518,316,-5.58575,-0.880493,0.000176349,0.00117775,-0.000269465,0.00124566,0.000108444,-1.32394,0.000796754,0.0096491,706,708,-5.58574,0.880514
-511,316,-5.61627,-1.08051,0.000737757,0.00118466,0.000105753,0.00120842,0.000713996,1.34978,0.000701509,0.0101223,713,708,-5.61624,1.08052
-504,316,-5.62646,-1.271,0.00109178,0.00153873,0.000536884,0.0018968,0.000733722,0.982614,0.00110443,0.013374,720,708,-5.62648,1.27102
-497,316,-5.59485,-1.44556,0.000906652,0.00122057,0.00122147,0.00229512,-0.000167901,0.849298,0.00158901,0.0121744,727,708,-5.59484,1.44556
-490,316,-5.59998,-1.65015,0.00064468,0.00023725,0.0021509,0.00260149,-0.00171956,0.738183,0.00251202,0.0132558,734,708,-5.59998,1.65017
-483,316,-5.51776,-1.91089,-2.00791e-05,-0.00165183,0.00229481,0.00159957,-0.00327148,0.614601,0.00286699,0.0308187,741,708,-5.51776,1.91087
-476,316,-5.3775,-2.14746,0,0,0,0,0,0,0,-1,748,708,-5.37752,2.14748
-469,316,-5.02399,-0.87915,0,0,0,0,0,0,0,-1,755,708,-5.02401,0.879127
-462,316,-5.37646,-1.03314,0,0,0,0,0,0,0,-1,762,708,-5.37648,1.03313
-455,316,-5.85577,-1.83728,0,0,0,0,0,0,0,-1,769,708,-5.85577,1.83731
-448,316,-6.34174,-2.62506,0,0,0,0,0,0,0,-1,776,708,-6.34174,2.62508
-441,316,-6.29889,-3.49866,0,0,0,0,0,0,0,-1,783,708,-6.29888,3.49865
-434,316,-7.45673,0.935486,-0.00656724,-0.0610603,-0.00797649,-0.00542367,-0.0622039,-0.142397,0.0397848,0.0448829,790,708,-7.45674,-0.935479
-427,316,-7.84717,0.0581055,0,0,0,0,0,0,0,-1,797,708,-7.84716,-0.0581049
-420,316,-8.02203,-0.534973,0,0,0,0,0,0,0,-1,804,708,-8.02205,0.534991
-413,316,0,0,0,0,0,0,0,0,0,-1,811,708,0,0
-406,316,0,0,0,0,0,0,0,0,0,-1,818,708,0,0
-399,316,0,0,0,0,0,0,0,0,0,-1,825,708,0,0
-392,316,0,0,0,0,0,0,0,0,0,-1,832,708,0,0
-385,316,0,0,0,0,0,0,0,0,0,-1,839,708,0,0
-378,316,0,0,0,0,0,0,0,0,0,-1,846,708,0,0
-371,316,0,0,0,0,0,0,0,0,0,-1,853,708,0,0
-364,316,0,0,0,0,0,0,0,0,0,-1,860,708,0,0
-357,316,0,0,0,0,0,0,0,0,0,-1,867,708,0,0
-350,316,0,0,0,0,0,0,0,0,0,-1,874,708,0,0
-343,316,0,0,0,0,0,0,0,0,0,-1,881,708,0,0
-336,316,0,0,0,0,0,0,0,0,0,-1,888,708,0,0
-329,316,0,0,0,0,0,0,0,0,0,-1,895,708,0,0
-322,316,0,0,0,0,0,0,0,0,0,-1,902,708,0,0
-315,316,0,0,0,0,0,0,0,0,0,-1,909,708,0,0
-308,316,0,0,0,0,0,0,0,0,0,-1,916,708,0,0
-301,316,0,0,0,0,0,0,0,0,0,-1,923,708,0,0
-294,316,0,0,0,0,0,0,0,0,0,-1,930,708,0,0
-287,316,0,0,0,0,0,0,0,0,0,-1,937,708,0,0
-280,316,0,0,0,0,0,0,0,0,0,-1,944,708,0,0
-273,316,0,0,0,0,0,0,0,0,0,-1,951,708,0,0
-266,316,0,0,0,0,0,0,0,0,0,-1,958,708,0,0
-259,316,0,0,0,0,0,0,0,0,0,-1,965,708,0,0
-252,316,0,0,0,0,0,0,0,0,0,-1,972,708,0,0
-245,316,0,0,0,0,0,0,0,0,0,-1,979,708,0,0
-238,316,0,0,0,0,0,0,0,0,0,-1,986,708,0,0
-231,316,0,0,0,0,0,0,0,0,0,-1,993,708,0,0
-224,316,0,0,0,0,0,0,0,0,0,-1,1000,708,0,0
-217,316,0,0,0,0,0,0,0,0,0,-1,1007,708,0,0
-210,316,0,0,0,0,0,0,0,0,0,-1,1014,708,0,0
-203,316,0,0,0,0,0,0,0,0,0,-1,1021,708,0,0
-196,316,0,0,0,0,0,0,0,0,0,-1,1028,708,0,0
-189,316,0,0,0,0,0,0,0,0,0,-1,1035,708,0,0
-182,316,0,0,0,0,0,0,0,0,0,-1,1042,708,0,0
-175,316,0,0,0,0,0,0,0,0,0,-1,1049,708,0,0
-168,316,0,0,0,0,0,0,0,0,0,-1,1056,708,0,0
-161,316,0,0,0,0,0,0,0,0,0,-1,1063,708,0,0
-154,316,0,0,0,0,0,0,0,0,0,-1,1070,708,0,0
-147,316,0,0,0,0,0,0,0,0,0,-1,1077,708,0,0
-140,316,0,0,0,0,0,0,0,0,0,-1,1084,708,0,0
-133,316,0,0,0,0,0,0,0,0,0,-1,1091,708,0,0
-126,316,0,0,0,0,0,0,0,0,0,-1,1098,708,0,0
-119,316,0,0,0,0,0,0,0,0,0,-1,1105,708,0,0
-112,316,0,0,0,0,0,0,0,0,0,-1,1112,708,0,0
-105,316,0,0,0,0,0,0,0,0,0,-1,1119,708,0,0
-98,316,0,0,0,0,0,0,0,0,0,-1,1126,708,0,0
-91,316,0,0,0,0,0,0,0,0,0,-1,1133,708,0,0
-84,316,0,0,0,0,0,0,0,0,0,-1,1140,708,0,0
-77,316,0,0,0,0,0,0,0,0,0,-1,1147,708,0,0
-70,316,0,0,0,0,0,0,0,0,0,-1,1154,708,0,0
-63,316,0,0,0,0,0,0,0,0,0,-1,1161,708,0,0
-56,316,0,0,0,0,0,0,0,0,0,-1,1168,708,0,0
-49,316,0,0,0,0,0,0,0,0,0,-1,1175,708,0,0
-42,316,0,0,0,0,0,0,0,0,0,-1,1182,708,0,0
-35,316,0,0,0,0,0,0,0,0,0,-1,1189,708,0,0
-28,316,0,0,0,0,0,0,0,0,0,-1,1196,708,0,0
-21,316,0,0,0,0,0,0,0,0,0,-1,1203,708,0,0
-14,316,0,0,0,0,0,0,0,0,0,-1,1210,708,0,0
-7,316,0,0,0,0,0,0,0,0,0,-1,1217,708,0,0
0,316,0,0,0,0,0,0,0,0,0,-1,1224,708,0,0
7,316,0,0,0,0,0,0,0,0,0,-1,1231,708,0,0
14,316,0,0,0,0,0,0,0,0,0,-1,1238,708,0,0
21,316,0,0,0,0,0,0,0,0,0,-1,1245,708,0,0
28,316,0,0,0,0,0,0,0,0,0,-1,1252,708,0,0
35,316,0,0,0,0,0,0,0,0,0,-1,1259,708,0,0
42,316,0,0,0,0,0,0,0,0,0,-1,1266,708,0,0
49,316,0,0,0,0,0,0,0,0,0,-1,1273,708,0,0
56,316,0,0,0,0,0,0,0,0,0,-1,1280,708,0,0
63,316,0,0,0,0,0,0,0,0,0,-1,1287,708,0,0
70,316,0,0,0,0,0,0,0,0,0,-1,1294,708,0,0
77,316,0,0,0,0,0,0,0,0,0,-1,1301,708,0,0
84,316,0,0,0,0,0,0,0,0,0,-1,1308,708,0,0
91,316,0,0,0,0,0,0,0,0,0,-1,1315,708,0,0
98,316,0,0,0,0,0,0,0,0,0,-1,1322,708,0,0
105,316,0,0,0,0,0,0,0,0,0,-1,1329,708,0,0
112,316,0,0,0,0,0,0,0,0,0,-1,1336,708,0,0
119,316,0,0,0,0,0,0,0,0,0,-1,1343,708,0,0
126,316,0,0,0,0,0,0,0,0,0,-1,1350,708,0,0
133,316,0,0,0,0,0,0,0,0,0,-1,1357,708,0,0
140,316,0,0,0,0,0,0,0,0,0,-1,1364,708,0,0
147,316,0,0,0,0,0,0,0,0,0,-1,1371,708,0,0
154,316,0,0,0,0,0,0,0,0,0,-1,1378,708,0,0
161,316,0,0,0,0,0,0,0,0,0,-1,1385,708,0,0
168,316,0,0,0,0,0,0,0,0,0,-1,1392,708,0,0
175,316,0,0,0,0,0,0,0,0,0,-1,1399,708,0,0
182,316,0,0,0,0,0,0,0,0,0,-1,1406,708,0,0
189,316,0,0,0,0,0,0,0,0,0,-1,1413,708,0,0
196,316,0,0,0,0,0,0,0,0,0,-1,1420,708,0,0
203,316,0,0,0,0,0,0,0,0,0,-1,1427,708,0,0
210,316,0,0,0,0,0,0,0,0,0,-1,1434,708,0,0
217,316,0,0,0,0,0,0,0,0,0,-1,1441,708,0,0
224,316,0,0,0,0,0,0,0,0,0,-1,1448,708,0,0
231,316,0,0,0,0,0,0,0,0,0,-1,1455,708,0,0
238,316,0,0,0,0,0,0,0,0,0,-1,1462,708,0,0
245,316,0,0,0,0,0,0,0,0,0,-1,1469,708,0,0
252,316,0,0,0,0,0,0,0,0,0,-1,1476,708,0,0
259,316,0,0,0,0,0,0,0,0,0,-1,1483,708,0,0
266,316,0,0,0,0,0,0,0,0,0,-1,1490,708,0,0
273,316,0,0,0,0,0,0,0,0,0,-1,1497,708,0,0
280,316,0,0,0,0,0,0,0,0,0,-1,1504,708,0,0
287,316,0,0,0,0,0,0,0,0,0,-1,1511,708,0,0
294,316,0,0,0,0,0,0,0,0,0,-1,1518,708,0,0
301,316,0,0,0,0,0,0,0,0,0,-1,1525,708,0,0
308,316,0,0,0,0,0,0,0,0,0,-1,1532,708,0,0
315,316,0,0,0,0,0,0,0,0,0,-1,1539,708,0,0
322,316,0,0,0,0,0,0,0,0,0,-1,1546,708,0,0
329,316,0,0,0,0,0,0,0,0,0,-1,1553,708,0,0
336,316,0,0,0,0,0,0,0,0,0,-1,1560,708,0,0
343,316,0,0,0,0,0,0,0,0,0,-1,1567,708,0,0
350,316,0,0,0,0,0,0,0,0,0,-1,1574,708,0,0
357,316,0,0,0,0,0,0,0,0,0,-1,1581,708,0,0
364,316,0,0,0,0,0,0,0,0,0,-1,1588,708,0,0
371,316,0,0,0,0,0,0,0,0,0,-1,1595,708,0,0
378,316,0,0,0,0,0,0,0,0,0,-1,1602,708,0,0
385,316,0,0,0,0,0,0,0,0,0,-1,1609,708,0,0
392,316,0,0,0,0,0,0,0,0,0,-1,1616,708,0,0
399,316,0,0,0,0,0,0,0,0,0,-1,1623,708,0,0
406,316,0,0,0,0,0,0,0,0,0,-1,1630,708,0,0
413,316,0,0,0,0,0,0,0,0,0,-1,1637,708,0,0
420,316,0,0,0,0,0,0,0,0,0,-1,1644,708,0,0
427,316,0,0,0,0,0,0,0,0,0,-1,1651,708,0,0
434,316,0,0,0,0,0,0,0,0,0,-1,1658,708,0,0
441,316,0,0,0,0,0,0,0,0,0,-1,1665,708,0,0
448,316,0,0,0,0,0,0,0,0,0,-1,1672,708,0,0
455,316,0,0,0,0,0,0,0,0,0,-1,1679,708,0,0
462,316,0,0,0,0,0,0,0,0,0,-1,1686,708,0,0
469,316,0,0,0,0,0,0,0,0,0,-1,1693,708,0,0
476,316,0,0,0,0,0,0,0,0,0,-1,1700,708,0,0
483,316,0,0,0,0,0,0,0,0,0,-1,1707,708,0,0
490,316,0,0,0,0,0,0,0,0,0,-1,1714,708,0,0
497,316,0,0,0,0,0,0,0,0,0,-1,1721,708,0,0
504,316,0,0,0,0,0,0,0,0,0,-1,1728,708,0,0
511,316,0,0,0,0,0,0,0,0,0,-1,1735,708,0,0
518,316,0,0,0,0,0,0,0,0,0,-1,1742,708,0,0
525,316,0,0,0,0,0,0,0,0,0,-1,1749,708,0,0
532,316,11.9095,2.82928,0,0,0,0,0,0,0,-1,1756,708,11.9095,-2.8293
539,316,11.8356,2.44989,0,0,0,0,0,0,0,-1,1763,708,11.8356,-2.44987
546,316,12.7673,2.26941,0.120286,0.0235017,0.0130117,0.122005,0.021783,0.131335,0.0751355,0.0439249,1770,708,12.7674,-2.26941
553,316,13.6039,2.14166,0.103205,0.0171016,0.00845174,0.104027,0.0162799,0.0969251,0.0646121,0.0474843,1777,708,13.6039,-2.14168
560,316,14.3004,2.39069,0.0859663,0.0124951,0.00380936,0.0861632,0.0122981,0.0516637,0.0538133,0.0452189,1784,708,14.3004,-2.39066
567,316,15.0859,2.55469,0.070064,0.00946872,-0.00020664,0.0700647,0.00946802,-0.0034101,0.0438955,0.0445101,1791,708,15.0859,-2.55468
574,316,15.8795,2.52301,0,0,0,0,0,0,0,-1,1798,708,15.8795,-2.52302
581,316,13.3721,3.98071,0,0,0,0,0,0,0,-1,1805,708,13.3721,-3.9807
588,316,14.0342,4.33374,0,0,0,0,0,0,0,-1,1812,708,14.0342,-4.33372
595,316,12.5363,1.50702,0,0,0,0,0,0,0,-1,1819,708,12.5363,-1.50701
602,316,7.79919,0.0422363,0,0,0,0,0,0,0,-1,1826,708,7.79923,-0.0422066
609,316,10.2771,0.0847168,0,0,0,0,0,0,0,-1,1833,708,10.2771,-0.0847385
616,316,10.5491,0.0618896,0.00800877,0.00324689,-0.00508657,0.0112441,1.15912e-05,-0.566503,0.00749218,0.0173373,1840,708,10.5491,-0.0618966
623,316,10.5657,0.291748,0.00405756,0.0024448,-0.00384251,0.00717739,-0.000675031,-0.68197,0.00502507,0.0108445,1847,708,10.5656,-0.291751
630,316,10.5592,0.491089,0.00249231,0.00177949,-0.0023775,0.00453997,-0.000268161,-0.710997,0.00311987,0.0120551,1854,708,10.5592,-0.491062
637,316,10.5769,0.728088,0.00230343,0.00025671,-0.000292202,0.00234433,0.000215811,-0.139065,0.00149615,0.0118205,1861,708,10.577,-0.728074
644,316,10.5996,0.938782,0.00114689,-0.000378801,-0.000261478,0.00119046,-0.00042237,-0.165109,0.000965723,0.0124437,1868,708,10.5996,-0.938761
651,316,10.5756,1.13373,0.000686846,-0.000109754,-0.000447687,0.000887768,-0.000310675,-0.421855,0.000718164,0.0123744,1875,708,10.5755,-1.13374
658,316,10.5483,1.33118,0.00111146,0.000154012,-0.00073682,0.00151142,-0.000245945,-0.49731,0.00109881,0.0187981,1882,708,10.5483,-1.33117
665,316,10.5256,1.55145,0.00219904,0.000582502,-0.00120482,0.0028416,-6.00568e-05,-0.489948,0.00191473,0.0155309,1889,708,10.5256,-1.55148
672,316,10.5593,1.75891,0.00387855,0.000817545,-0.00165527,0.00460246,9.3638e-05,-0.412271,0.00303758,0.0120483,1896,708,10.5594,-1.7589
679,316,10.5553,1.98431,0.00625797,0.00121624,-0.00221973,0.00709597,0.000378245,-0.36098,0.00460974,0.0182816,1903,708,10.5553,-1.9843
686,316,10.4176,2.17755,0.00988202,0.00165807,-0.0030938,0.0109159,0.000624179,-0.322514,0.00707839,0.0317715,1910,708,10.4176,-2.17756
693,316,10.3458,2.54706,0,0,0,0,0,0,0,-1,1917,708,10.3458,-2.54704
700,316,10.2693,1.54047,0,0,0,0,0,0,0,-1,1924,708,10.2693,-1.54045
707,316,11.7877,1.08746,0,0,0,0,0,0,0,-1,1931,708,11.7877,-1.08746
714,316,11.557,3.63324,0,0,0,0,0,0,0,-1,1938,708,11.557,-3.63323
721,316,11.964,1.98126,0,0,0,0,0,0,0,-1,1945,708,11.964,-1.98124
728,316,0,0,0,0,0,0,0,0,0,-1,1952,708,0,0
735,316,0,0,0,0,0,0,0,0,0,-1,1959,708,0,0
742,316,0,0,0,0,0,0,0,0,0,-1,1966,708,0,0
749,316,0,0,0,0,0,0,0,0,0,-1,1973,708,0,0
756,316,0,0,0,0,0,0,0,0,0,-1,1980,708,0,0
763,316,0,0,0,0,0,0,0,0,0,-1,1987,708,0,0
770,316,0,0,0,0,0,0,0,0,0,-1,1994,708,0,0
777,316,0,0,0,0,0,0,0,0,0,-1,2001,708,0,0
784,316,0,0,0,0,0,0,0,0,0,-1,2008,708,0,0
791,316,0,0,0,0,0,0,0,0,0,-1,2015,708,0,0
798,316,0,0,0,0,0,0,0,0,0,-1,2022,708,0,0
805,316,0,0,0,0,0,0,0,0,0,-1,2029,708,0,0
812,316,0,0,0,0,0,0,0,0,0,-1,2036,708,0,0
-700,309,0,0,0,0,0,0,0,0,0,-1,524,715,0,0
-693,309,0,0,0,0,0,0,0,0,0,-1,531,715,0,0
-686,309,0,0,0,0,0,0,0,0,0,-1,538,715,0,0
-679,309,0,0,0,0,0,0,0,0,0,-1,545,715,0,0
-672,309,0,0,0,0,0,0,0,0,0,-1,552,715,0,0
-665,309,0,0,0,0,0,0,0,0,0,-1,559,715,0,0
-658,309,0,0,0,0,0,0,0,0,0,-1,566,715,0,0
-651,309,0,0,0,0,0,0,0,0,0,-1,573,715,0,0
-644,309,0,0,0,0,0,0,0,0,0,-1,580,715,0,0
-637,309,0,0,0,0,0,0,0,0,0,-1,587,715,0,0
-630,309,0,0,0,0,0,0,0,0,0,-1,594,715,0,0
-623,309,0,0,0,0,0,0,0,0,0,-1,601,715,0,0
-616,309,0,0,0,0,0,0,0,0,0,-1,608,715,0,0
-609,309,-5.95392,-3.93689,0,0,0,0,0,0,0,-1,615,715,-5.95392,3.93686
-602,309,-4.99786,-3.31287,0,0,0,0,0,0,0,-1,622,715,-4.99786,3.31284
-595,309,-4.64679,-2.39764,0,0,0,0,0,0,0,-1,629,715,-4.64681,2.39762
-588,309,-4.7262,-1.69574,0,0,0,0,0,0,0,-1,636,715,-4.72618,1.69571
-581,309,-4.31128,-0.896362,0,0,0,0,0,0,0,-1,643,715,-4.31128,0.896339
-574,309,-4.49304,-0.749634,0,0,0,0,0,0,0,-1,650,715,-4.49303,0.749655
-567,309,-4.66193,-0.450256,0.0032071,-0.00560024,0.00953808,0.00930902,-0.0117022,0.56913,0.012157,0.0467982,657,715,-4.66192,0.450229
-560,309,-5.28204,-0.0930176,-0.000667121,-0.00290381,0.00616517,0.00448032,-0.00805125,0.695675,0.00733237,0.045113,664,715,-5.28202,0.0930211
-553,309,-5.7608,0.0527954,-0.00368688,-0.000617584,0.00358223,0.00174488,-0.00604935,0.987774,0.00472321,0.0288665,671,715,-5.76077,-0.0528167
-546,309,-5.80035,-0.119629,-0.00407652,0.000348304,0.00161206,0.000873316,-0.00460154,1.25595,0.00339643,0.0158256,678,715,-5.80037,0.119617
-539,309,-5.78156,-0.334167,-0.00284321,0.000370631,0.00110762,0.000715379,-0.00318796,1.26905,0.00239958,0.0137358,685,715,-5.78156,0.334196
-532,309,-5.79279,-0.526855,-0.00179122,0.000429768,0.000551278,0.000559074,-0.00192053,1.3404,0.00150181,0.0114808,692,715,-5.79281,0.526878
-525,309,-5.76324,-0.700745,-0.000923298,0.000664806,3.10629e-05,0.000665413,-0.000923905,1.55125,0.00092163,0.0150084,699,715,-5.76327,0.700762
-518,309,-5.77197,-0.890747,-0.000119335,0.00126783,-0.000310987,0.00133436,-0.000185864,-1.36004,0.000957561,0.0145069,706,715,-5.77199,0.890774
-511,309,-5.80426,-1.06006,0.000434556,0.00198717,-0.00021331,0.00201594,0.000405783,-1.43672,0.0012312,0.0111235,713,715,-5.80429,1.06003
-504,309,-5.79138,-1.25507,0.000652823,0.00321093,5.17426e-05,0.00321197,0.000651777,1.55058,0.00196051,0.00925095,720,715,-5.79139,1.25509
-497,309,-5.78235,-1.43536,0.00023695,0.0035794,0.000689246,0.00371595,0.0001004,1.37521,0.00244452,0.0132532,727,715,-5.78232,1.43538
-490,309,-5.76398,-1.62683,-0.000211781,0.00316686,0.00165429,0.00384196,-0.000886879,1.18334,0.00290245,0.0219763,734,715,-5.76395,1.62682
-483,309,-5.6488,-1.91406,0,0,0,0,0,0,0,-1,741,715,-5.64878,1.91405
-476,309,-5.29486,-1.2262,0,0,0,0,0,0,0,-1,748,715,-5.29484,1.22622
-469,309,-4.22717,-0.592896,0,0,0,0,0,0,0,-1,755,715,-4.2272,0.592905
-462,309,-5.28992,-0.849182,0,0,0,0,0,0,0,-1,762,715,-5.28989,0.849164
-455,309,-6.44128,-1.77551,0,0,0,0,0,0,0,-1,769,715,-6.44126,1.77551
-448,309,-6.96637,-2.9151,0,0,0,0,0,0,0,-1,776,715,-6.96635,2.91511
-441,309,-7.34198,1.73737,0,0,0,0,0,0,0,-1,783,715,-7.34199,-1.73737
-434,309,-7.58209,1.37335,0,0,0,0,0,0,0,-1,790,715,-7.58208,-1.37335
-427,309,-7.76324,1.12799,0,0,0,0,0,0,0,-1,797,715,-7.76323,-1.12801
-420,309,-11.6252,2.34113,0,0,0,0,0,0,0,-1,804,715,-11.6252,-2.34114
-413,309,0,0,0,0,0,0,0,0,0,-1,811,715,0,0
-406,309,0,0,0,0,0,0,0,0,0,-1,818,715,0,0
-399,309,0,0,0,0,0,0,0,0,0,-1,825,715,0,0
-392,309,0,0,0,0,0,0,0,0,0,-1,832,715,0,0
-385,309,0,0,0,0,0,0,0,0,0,-1,839,715,0,0
-378,309,0,0,0,0,0,0,0,0,0,-1,846,715,0,0
-371,309,0,0,0,0,0,0,0,0,0,-1,853,715,0,0
-364,309,0,0,0,0,0,0,0,0,0,-1,860,715,0,0
-357,309,0,0,0,0,0,0,0,0,0,-1,867,715,0,0
-350,309,0,0,0,0,0,0,0,0,0,-1,874,715,0,0
-343,309,0,0,0,0,0,0,0,0,0,-1,881,715,0,0
-336,309,0,0,0,0,0,0,0,0,0,-1,888,715,0,0
-329,309,0,0,0,0,0,0,0,0,0,-1,895,715,0,0
-322,309,0,0,0,0,0,0,0,0,0,-1,902,715,0,0
-315,309,0,0,0,0,0,0,0,0,0,-1,909,715,0,0
-308,309,0,0,0,0,0,0,0,0,0,-1,916,715,0,0
-301,309,0,0,0,0,0,0,0,0,0,-1,923,715,0,0
-294,309,0,0,0,0,0,0,0,0,0,-1,930,715,0,0
-287,309,0,0,0,0,0,0,0,0,0,-1,937,715,0,0
-280,309,0,0,0,0,0,0,0,0,0,-1,944,715,0,0
-273,309,0,0,0,0,0,0,0,0,0,-1,951,715,0,0
-266,309,0,0,0,0,0,0,0,0,0,-1,958,715,0,0
-259,309,0,0,0,0,0,0,0,0,0,-1,965,715,0,0
-252,309,0,0,0,0,0,0,0,0,0,-1,972,715,0,0
-245,309,0,0,0,0,0,0,0,0,0,-1,979,715,0,0
-238,309,0,0,0,0,0,0,0,0,0,-1,986,715,0,0
-231,309,0,0,0,0,0,0,0,0,0,-1,993,715,0,0
-224,309,0,0,0,0,0,0,0,0,0,-1,1000,715,0,0
-217,309,0,0,0,0,0,0,0,0,0,-1,1007,715,0,0
-210,309,0,0,0,0,0,0,0,0,0,-1,1014,715,0,0
-203,309,0,0,0,0,0,0,0,0,0,-1,1021,715,0,0
-196,309,0,0,0,0,0,0,0,0,0,-1,1028,715,0,0
-189,309,0,0,0,0,0,0,0,0,0,-1,1035,715,0,0
-182,309,0,0,0,0,0,0,0,0,0,-1,1042,715,0,0
-175,309,0,0,0,0,0,0,0,0,0,-1,1049,715,0,0
-168,309,0,0,0,0,0,0,0,0,0,-1,1056,715,0,0
-161,309,0,0,0,0,0,0,0,0,0,-1,1063,715,0,0
-154,309,0,0,0,0,0,0,0,0,0,-1,1070,715,0,0
-147,309,0,0,0,0,0,0,0,0,0,-1,1077,715,0,0
-140,309,0,0,0,0,0,0,0,0,0,-1,1084,715,0,0
-133,309,0,0,0,0,0,0,0,0,0,-1,1091,715,0,0
-126,309,0,0,0,0,0,0,0,0,0,-1,1098,715,0,0
-119,309,0,0,0,0,0,0,0,0,0,-1,1105,715,0,0
-112,309,0,0,0,0,0,0,0,0,0,-1,1112,715,0,0
-105,309,0,0,0,0,0,0,0,0,0,-1,1119,715,0,0
-98,309,0,0,0,0,0,0,0,0,0,-1,1126,715,0,0
-91,309,0,0,0,0,0,0,0,0,0,-1,1133,715,0,0
-84,309,0,0,0,0,0,0,0,0,0,-1,1140,715,0,0
-77,309,0,0,0,0,0,0,0,0,0,-1,1147,715,0,0
-70,309,0,0,0,0,0,0,0,0,0,-1,1154,715,0,0
-63,309,0,0,0,0,0,0,0,0,0,-1,1161,715,0,0
-56,309,0,0,0,0,0,0,0,0,0,-1,1168,715,0,0
-49,309,0,0,0,0,0,0,0,0,0,-1,1175,715,0,0
-42,309,0,0,0,0,0,0,0,0,0,-1,1182,715,0,0
-35,309,0,0,0,0,0,0,0,0,0,-1,1189,715,0,0
-28,309,0,0,0,0,0,0,0,0,0,-1,1196,715,0,0
-21,309,0,0,0,0,0,0,0,0,0,-1,1203,715,0,0
-14,309,0,0,0,0,0,0,0,0,0,-1,1210,715,0,0
-7,309,0,0,0,0,0,0,0,0,0,-1,1217,715,0,0
0,309,0,0,0,0,0,0,0,0,0,-1,1224,715,0,0
7,309,0,0,0,0,0,0,0,0,0,-1,1231,715,0,0
14,309,0,0,0,0,0,0,0,0,0,-1,1238,715,0,0
21,309,0,0,0,0,0,0,0,0,0,-1,1245,715,0,0
28,309,0,0,0,0,0,0,0,0,0,-1,1252,715,0,0
35,309,0,0,0,0,0,0,0,0,0,-1,1259,715,0,0
42,309,0,0,0,0,0,0,0,0,0,-1,1266,715,0,0
49,309,0,0,0,0,0,0,0,0,0,-1,1273,715,0,0
56,309,0,0,0,0,0,0,0,0,0,-1,1280,715,0,0
63,309,0,0,0,0,0,0,0,0,0,-1,1287,715,0,0
70,309,0,0,0,0,0,0,0,0,0,-1,1294,715,0,0
77,309,0,0,0,0,0,0,0,0,0,-1,1301,715,0,0
84,309,0,0,0,0,0,0,0,0,0,-1,1308,715,0,0
91,309,0,0,0,0,0,0,0,0,0,-1,1315,715,0,0
98,309,0,0,0,0,0,0,0,0,0,-1,1322,715,0,0
105,309,0,0,0,0,0,0,0,0,0,-1,1329,715,0,0
112,309,0,0,0,0,0,0,0,0,0,-1,1336,715,0,0
119,309,0,0,0,0,0,0,0,0,0,-1,1343,715,0,0
126,309,0,0,0,0,0,0,0,0,0,-1,1350,715,0,0
133,309,0,0,0,0,0,0,0,0,0,-1,1357,715,0,0
140,309,0,0,0,0,0,0,0,0,0,-1,1364,715,0,0
147,309,0,0,0,0,0,0,0,0,0,-1,1371,715,0,0
154,309,0,0,0,0,0,0,0,0,0,-1,1378,715,0,0
161,309,0,0,0,0,0,0,0,0,0,-1,1385,715,0,0
168,309,0,0,0,0,0,0,0,0,0,-1,1392,715,0,0
175,309,0,0,0,0,0,0,0,0,0,-1,1399,715,0,0
182,309,0,0,0,0,0,0,0,0,0,-1,1406,715,0,0
189,309,0,0,0,0,0,0,0,0,0,-1,1413,715,0,0
196,309,0,0,0,0,0,0,0,0,0,-1,1420,715,0,0
203,309,0,0,0,0,0,0,0,0,0,-1,1427,715,0,0
210,309,0,0,0,0,0,0,0,0,0,-1,1434,715,0,0
217,309,0,0,0,0,0,0,0,0,0,-1,1441,715,0,0
224,309,0,0,0,0,0,0,0,0,0,-1,1448,715,0,0
231,309,0,0,0,0,0,0,0,0,0,-1,1455,715,0,0
238,309,0,0,0,0,0,0,0,0,0,-1,1462,715,0,0
245,309,0,0,0,0,0,0,0,0,0,-1,1469,715,0,0
252,309,0,0,0,0,0,0,0,0,0,-1,1476,715,0,0
259,309,0,0,0,0,0,0,0,0,0,-1,1483,715,0,0
266,309,0,0,0,0,0,0,0,0,0,-1,1490,715,0,0
273,309,0,0,0,0,0,0,0,0,0,-1,1497,715,0,0
280,309,0,0,0,0,0,0,0,0,0,-1,1504,715,0,0
287,309,0,0,0,0,0,0,0,0,0,-1,1511,715,0,0
294,309,0,0,0,0,0,0,0,0,0,-1,1518,715,0,0
301,309,0,0,0,0,0,0,0,0,0,-1,1525,715,0,0
308,309,0,0,0,0,0,0,0,0,0,-1,1532,715,0,0
315,309,0,0,0,0,0,0,0,0,0,-1,1539,715,0,0
322,309,0,0,0,0,0,0,0,0,0,-1,1546,715,0,0
329,309,0,0,0,0,0,0,0,0,0,-1,1553,715,0,0
336,309,0,0,0,0,0,0,0,0,0,-1,1560,715,0,0
343,309,0,0,0,0,0,0,0,0,0,-1,1567,715,0,0
350,309,0,0,0,0,0,0,0,0,0,-1,1574,715,0,0
357,309,0,0,0,0,0,0,0,0,0,-1,1581,715,0,0
364,309,0,0,0,0,0,0,0,0,0,-1,1588,715,0,0
371,309,0,0,0,0,0,0,0,0,0,-1,1595,715,0,0
378,309,0,0,0,0,0,0,0,0,0,-1,1602,715,0,0
385,309,0,0,0,0,0,0,0,0,0,-1,1609,715,0,0
392,309,0,0,0,0,0,0,0,0,0,-1,1616,715,0,0
399,309,0,0,0,0,0,0,0,0,0,-1,1623,715,0,0
406,309,0,0,0,0,0,0,0,0,0,-1,1630,715,0,0
413,309,0,0,0,0,0,0,0,0,0,-1,1637,715,0,0
420,309,0,0,0,0,0,0,0,0,0,-1,1644,715,0,0
427,309,0,0,0,0,0,0,0,0,0,-1,1651,715,0,0
434,309,0,0,0,0,0,0,0,0,0,-1,1658,715,0,0
441,309,0,0,0,0,0,0,0,0,0,-1,1665,715,0,0
448,309,0,0,0,0,0,0,0,0,0,-1,1672,715,0,0
455,309,0,0,0,0,0,0,0,0,0,-1,1679,715,0,0
462,309,0,0,0,0,0,0,0,0,0,-1,1686,715,0,0
469,309,0,0,0,0,0,0,0,0,0,-1,1693,715,0,0
476,309,0,0,0,0,0,0,0,0,0,-1,1700,715,0,0
483,309,0,0,0,0,0,0,0,0,0,-1,1707,715,0,0
490,309,0,0,0,0,0,0,0,0,0,-1,1714,715,0,0
497,309,0,0,0,0,0,0,0,0,0,-1,1721,715,0,0
504,309,0,0,0,0,0,0,0,0,0,-1,1728,715,0,0
511,309,0,0,0,0,0,0,0,0,0,-1,1735,715,0,0
518,309,0,0,0,0,0,0,0,0,0,-1,1742,715,0,0
525,309,0,0,0,0,0,0,0,0,0,-1,1749,715,0,0
532,309,0,0,0,0,0,0,0,0,0,-1,1756,715,0,0
539,309,15.9861,-0.584656,0,0,0,0,0,0,0,-1,1763,715,15.9861,0.584626
546,309,12.3884,1.86981,0,0,0,0,0,0,0,-1,1770,715,12.3885,-1.86984
553,309,13.269,2.85992,0.0991197,0.0174678,0.00415392,0.0993305,0.017257,0.0506991,0.0612833,0.0459757,1777,715,13.269,-2.85991
560,309,14.0729,2.78278,0.0836349,0.0129371,0.00011974,0.0836351,0.0129369,0.00169369,0.0519838,0.0485731,1784,715,14.0728,-2.78278
567,309,14.9043,2.76593,0.0687539,0.0102173,-0.00331873,0.0689415,0.0100297,-0.0564538,0.0430094,0.0453549,1791,715,14.9042,-2.76594
574,309,15.801,2.80621,0.0553987,0.00868673,-0.00577498,0.056102,0.00798336,-0.121199,0.0350447,0.0453882,1798,715,15.801,-2.80621
581,309,13.7509,3.36176,0.0440943,0.00749337,-0.00730097,0.0454969,0.00609076,-0.189801,0.0285186,0.0476046,1805,715,13.7508,-3.36173
588,309,14.443,3.78363,0.0342703,0.00617079,-0.00797575,0.0363763,0.0040648,-0.258157,0.0230159,0.0488799,1812,715,14.443,-3.78363
595,309,15.082,4.23108,0,0,0,0,0,0,0,-1,1819,715,15.0821,-4.2311
602,309,10.7278,3.23444,0,0,0,0,0,0,0,-1,1826,715,10.7278,-3.23443
609,309,10.8049,-0.191956,0,0,0,0,0,0,0,-1,1833,715,10.805,0.191933
616,309,10.7882,0.0723267,0.00935991,0.00419835,-0.00483139,0.0122566,0.00130165,-0.540095,0.0077736,0.0236471,1840,715,10.7882,-0.0723184
623,309,10.7712,0.300049,0.00520881,0.00324386,-0.00348065,0.00784298,0.000609685,-0.647843,0.00503774,0.0103228,1847,715,10.7712,-0.300071
630,309,10.749,0.51239,0.00330154,0.00246615,-0.00202216,0.00494869,0.000818997,-0.683551,0.00306285,0.00955654,1854,715,10.7491,-0.512375
637,309,10.7452,0.723816,0.00293401,0.00061077,8.78868e-05,0.00293733,0.00060745,0.0377575,0.00179042,0.012876,1861,715,10.7453,-0.723832
644,309,10.7274,0.94165,0.00146893,-0.000334184,9.66712e-05,0.0014741,-0.000339353,0.0534094,0.00111322,0.014882,1868,715,10.7274,-0.941635
651,309,10.7518,1.1601,0.00080984,-0.000145766,-0.000312107,0.000902744,-0.00023867,-0.289315,0.000695179,0.0139683,1875,715,10.7518,-1.16011
658,309,10.7715,1.35864,0.00121295,-2.11004e-05,-0.000753539,0.00156985,-0.000378007,-0.442338,0.00119271,0.0185787,1882,715,10.7714,-1.35861
665,309,10.7755,1.55414,0.0022947,0.000319988,-0.00125805,0.00290658,-0.000291894,-0.452687,0.00204198,0.0156967,1889,715,10.7755,-1.55416
672,309,10.7743,1.7674,0.00395406,0.00039477,-0.00169814,0.00463425,-0.000285425,-0.380983,0.0031889,0.0141592,1896,715,10.7743,-1.76737
679,309,10.7742,1.98053,0.00621457,0.000628265,-0.00226323,0.0070164,-0.000173565,-0.340488,0.00473651,0.0154293,1903,715,10.7742,-1.98051
686,309,10.7572,2.1731,0.0095694,0.000844368,-0.00311282,0.0105661,-0.000152333,-0.309877,0.00709539,0.0211743,1910,715,10.7572,-2.1731
693,309,10.6108,2.41681,0.0141609,0.0011725,-0.00339482,0.0149946,0.000338712,-0.24084,0.00988546,0.0358985,1917,715,10.6109,-2.41683
700,309,10.551,2.75458,0,0,0,0,0,0,0,-1,1924,715,10.5511,-2.75457
707,309,11.4117,3.73376,0,0,0,0,0,0,0,-1,1931,715,11.4118,-3.73377
714,309,10.6967,3.09259,0,0,0,0,0,0,0,-1,1938,715,10.6967,-3.09261
721,309,11.6661,3.68695,0,0,0,0,0,0,0,-1,1945,715,11.6662,-3.68696
728,309,0,0,0,0,0,0,0,0,0,-1,1952,715,0,0
735,309,0,0,0,0,0,0,0,0,0,-1,1959,715,0,0
742,309,0,0,0,0,0,0,0,0,0,-1,1966,715,0,0
749,309,0,0,0,0,0,0,0,0,0,-1,1973,715,0,0
756,309,0,0,0,0,0,0,0,0,0,-1,1980,715,0,0
763,309,0,0,0,0,0,0,0,0,0,-1,1987,715,0,0
770,309,0,0,0,0,0,0,0,0,0,-1,1994,715,0,0
777,309,0,0,0,0,0,0,0,0,0,-1,2001,715,0,0
784,309,0,0,0,0,0,0,0,0,0,-1,2008,715,0,0
791,309,0,0,0,0,0,0,0,0,0,-1,2015,715,0,0
798,309,0,0,0,0,0,0,0,0,0,-1,2022,715,0,0
805,309,0,0,0,0,0,0,0,0,0,-1,2029,715,0,0
812,309,0,0,0,0,0,0,0,0,0,-1,2036,715,0,0
-700,302,0,0,0,0,0,0,0,0,0,-1,524,722,0,0
-693,302,0,0,0,0,0,0,0,0,0,-1,531,722,0,0
-686,302,0,0,0,0,0,0,0,0,0,-1,538,722,0,0
-679,302,0,0,0,0,0,0,0,0,0,-1,545,722,0,0
-672,302,0,0,0,0,0,0,0,0,0,-1,552,722,0,0
-665,302,0,0,0,0,0,0,0,0,0,-1,559,722,0,0
-658,302,0,0,0,0,0,0,0,0,0,-1,566,722,0,0
-651,302,0,0,0,0,0,0,0,0,0,-1,573,722,0,0
-644,302,0,0,0,0,0,0,0,0,0,-1,580,722,0,0
-637,302,0,0,0,0,0,0,0,0,0,-1,587,722,0,0
-630,302,0,0,0,0,0,0,0,0,0,-1,594,722,0,0
-623,302,0,0,0,0,0,0,0,0,0,-1,601,722,0,0
-616,302,0,0,0,0,0,0,0,0,0,-1,608,722,0,0
-609,302,-6.14014,-3.6167,0.0810583,-0.0135556,0.0310868,0.0903583,-0.0228556,0.290686,0.0691285,0.0496928,615,722,-6.14016,3.61669
-602,302,-5.40784,-2.83258,0.0648358,-0.0108837,0.0259016,0.0728482,-0.0188961,0.300003,0.0559383,0.0485345,622,722,-5.40785,2.83259
-595,302,-4.9317,-1.87286,0,0,0,0,0,0,0,-1,629,722,-4.9317,1.87289
-588,302,-4.84222,-1.08582,0,0,0,0,0,0,0,-1,636,722,-4.84222,1.08581
-581,302,-4.77838,-0.683655,0,0,0,0,0,0,0,-1,643,722,-4.77839,0.683652
-574,302,-5.00745,-0.485046,0.00998565,-0.00680126,0.0138022,0.0177462,-0.0145618,0.512212,0.0186832,0.0467359,650,722,-5.00742,0.485059
-567,302,-5.22339,-0.240723,0.00249923,-0.00591991,0.0108723,0.00994844,-0.0133691,0.600694,0.0135106,0.0463393,657,722,-5.22338,0.240743
-560,302,-5.68604,0.0701904,-0.00102223,-0.00352608,0.00747236,0.00530236,-0.00985067,0.702399,0.008879,0.0397234,664,722,-5.68603,-0.0701806
-553,302,-6.06146,0.0836182,0,0,0,0,0,0,0,-1,671,722,-6.06147,-0.0836092
-546,302,-5.99316,-0.113159,-0.00413656,-0.000538556,0.00274335,0.00094305,-0.00561816,1.07561,0.00409614,0.0141353,678,722,-5.99315,0.11318
-539,302,-5.99542,-0.291748,-0.00292601,-0.000345733,0.00188212,0.00064598,-0.00391773,1.08585,0.00285164,0.0135316,685,722,-5.99544,0.291743
-532,302,-5.97559,-0.507324,-0.00191143,-0.00014548,0.000860089,0.000204182,-0.0022611,1.18466,0.00157986,0.0135616,692,722,-5.97557,0.507347
-525,302,-5.99127,-0.701294,-0.0010554,0.000292947,-0.000131315,0.000305616,-0.00106807,-1.47461,0.000832827,0.0198088,699,722,-5.99129,0.701301
-518,302,-5.99963,-0.877258,-0.000305195,0.00118813,-0.000835383,0.0015619,-0.000678964,-1.15009,0.00132682,0.0197176,706,722,-5.99961,0.877277
-511,302,-5.99213,-1.03912,0.000136866,0.00245775,-0.00104799,0.00286093,-0.000266315,-1.20353,0.00200197,0.00954559,713,722,-5.99215,1.03912
-504,302,-5.99213,-1.24719,0.000151263,0.00433544,-0.000983006,0.00455487,-6.81714e-05,-1.35117,0.00305956,0.0090465,720,722,-5.9921,1.24717
-497,302,-6.00183,-1.42773,-0.000555607,0.00531852,-0.000378992,0.00534287,-0.000579958,-1.50663,0.00377013,0.0132112,727,722,-6.00181,1.42773
-490,302,-5.91608,-1.55823,-0.00125711,0.00544228,0.000653206,0.00550537,-0.00132021,1.4745,0.00418039,0.02943,734,722,-5.91605,1.55825
-483,302,-5.64911,-1.57471,0,0,0,0,0,0,0,-1,741,722,-5.64914,1.57473
-476,302,-4.29749,-0.203491,0,0,0,0,0,0,0,-1,748,722,-4.29751,0.203464
-469,302,-7.94531,2.06445,0,0,0,0,0,0,0,-1,755,722,-7.9453,-2.06446
-462,302,-8.0296,2.17834,0,0,0,0,0,0,0,-1,762,722,-8.02957,-2.17832
-455,302,-7.45905,2.4505,0,0,0,0,0,0,0,-1,769,722,-7.45907,-2.45052
-448,302,-7.75775,2.30438,-0.00747222,-0.0242548,0.00679897,-0.00506353,-0.0266635,0.340477,0.0163513,0.0442819,776,722,-7.75775,-2.30438
-441,302,-7.73749,2.30029,-0.00727111,-0.042979,0.00548132,-0.00644865,-0.0438015,0.148937,0.0273064,0.0472383,783,722,-7.73751,-2.30028
-434,302,-7.82263,2.14154,-0.00659893,-0.0627886,-0.000888954,-0.00658487,-0.0628026,-0.0158153,0.0398552,0.0495886,790,722,-7.82261,-2.14154
-427,302,-7.91388,1.72229,0,0,0,0,0,0,0,-1,797,722,-7.91388,-1.72227
-420,302,0,0,0,0,0,0,0,0,0,-1,804,722,0,0
-413,302,0,0,0,0,0,0,0,0,0,-1,811,722,0,0
-406,302,0,0,0,0,0,0,0,0,0,-1,818,722,0,0
-399,302,0,0,0,0,0,0,0,0,0,-1,825,722,0,0
-392,302,0,0,0,0,0,0,0,0,0,-1,832,722,0,0
-385,302,0,0,0,0,0,0,0,0,0,-1,839,722,0,0
-378,302,0,0,0,0,0,0,0,0,0,-1,846,722,0,0
-371,302,0,0,0,0,0,0,0,0,0,-1,853,722,0,0
-364,302,0,0,0,0,0,0,0,0,0,-1,860,722,0,0
-357,302,0,0,0,0,0,0,0,0,0,-1,867,722,0,0
-350,302,0,0,0,0,0,0,0,0,0,-1,874,722,0,0
-343,302,0,0,0,0,0,0,0,0,0,-1,881,722,0,0
-336,302,0,0,0,0,0,0,0,0,0,-1,888,722,0,0
-329,302,0,0,0,0,0,0,0,0,0,-1,895,722,0,0
-322,302,0,0,0,0,0,0,0,0,0,-1,902,722,0,0
-315,302,0,0,0,0,0,0,0,0,0,-1,909,722,0,0
-308,302,0,0,0,0,0,0,0,0,0,-1,916,722,0,0
-301,302,0,0,0,0,0,0,0,0,0,-1,923,722,0,0
-294,302,0,0,0,0,0,0,0,0,0,-1,930,722,0,0
-287,302,0,0,0,0,0,0,0,0,0,-1,937,722,0,0
-280,302,0,0,0,0,0,0,0,0,0,-1,944,722,0,0
-273,302,0,0,0,0,0,0,0,0,0,-1,951,722,0,0
-266,302,0,0,0,0,0,0,0,0,0,-1,958,722,0,0
-259,302,0,0,0,0,0,0,0,0,0,-1,965,722,0,0
-252,302,0,0,0,0,0,0,0,0,0,-1,972,722,0,0
-245,302,0,0,0,0,0,0,0,0,0,-1,979,722,0,0
-238,302,0,0,0,0,0,0,0,0,0,-1,986,722,0,0
-231,302,0,0,0,0,0,0,0,0,0,-1,993,722,0,0
-224,302,0,0,0,0,0,0,0,0,0,-1,1000,722,0,0
-217,302,0,0,0,0,0,0,0,0,0,-1,1007,722,0,0
-210,302,0,0,0,0,0,0,0,0,0,-1,1014,722,0,0
-203,302,0,0,0,0,0,0,0,0,0,-1,1021,722,0,0
-196,302,0,0,0,0,0,0,0,0,0,-1,1028,722,0,0
-189,302,0,0,0,0,0,0,0,0,0,-1,1035,722,0,0
-182,302,0,0,0,0,0,0,0,0,0,-1,1042,722,0,0
-175,302,0,0,0,0,0,0,0,0,0,-1,1049,722,0,0
-168,302,0,0,0,0,0,0,0,0,0,-1,1056,722,0,0
-161,302,0,0,0,0,0,0,0,0,0,-1,1063,722,0,0
-154,302,0,0,0,0,0,0,0,0,0,-1,1070,722,0,0
-147,302,0,0,0,0,0,0,0,0,0,-1,1077,722,0,0
-140,302,0,0,0,0,0,0,0,0,0,-1,1084,722,0,0
-133,302,0,0,0,0,0,0,0,0,0,-1,1091,722,0,0
-126,302,0,0,0,0,0,0,0,0,0,-1,1098,722,0,0
-119,302,0,0,0,0,0,0,0,0,0,-1,1105,722,0,0
-112,302,0,0,0,0,0,0,0,0,0,-1,1112,722,0,0
-105,302,0,0,0,0,0,0,0,0,0,-1,1119,722,0,0
-98,302,0,0,0,0,0,0,0,0,0,-1,1126,722,0,0
-91,302,0,0,0,0,0,0,0,0,0,-1,1133,722,0,0
-84,302,0,0,0,0,0,0,0,0,0,-1,1140,722,0,0
-77,302,0,0,0,0,0,0,0,0,0,-1,1147,722,0,0
-70,302,0,0,0,0,0,0,0,0,0,-1,1154,722,0,0
-63,302,0,0,0,0,0,0,0,0,0,-1,1161,722,0,0
-56,302,0,0,0,0,0,0,0,0,0,-1,1168,722,0,0
-49,302,0,0,0,0,0,0,0,0,0,-1,1175,722,0,0
-42,302,0,0,0,0,0,0,0,0,0,-1,1182,722,0,0
-35,302,0,0,0,0,0,0,0,0,0,-1,1189,722,0,0
-28,302,0,0,0,0,0,0,0,0,0,-1,1196,722,0,0
-21,302,0,0,0,0,0,0,0,0,0,-1,1203,722,0,0
-14,302,0,0,0,0,0,0,0,0,0,-1,1210,722,0,0
-7,302,0,0,0,0,0,0,0,0,0,-1,1217,722,0,0
0,302,0,0,0,0,0,0,0,0,0,-1,1224,722,0,0
7,302,0,0,0,0,0,0,0,0,0,-1,1231,722,0,0
14,302,0,0,0,0,0,0,0,0,0,-1,1238,722,0,0
21,302,0,0,0,0,0,0,0,0,0,-1,1245,722,0,0
28,302,0,0,0,0,0,0,0,0,0,-1,1252,722,0,0
35,302,0,0,0,0,0,0,0,0,0,-1,1259,722,0,0
42,302,0,0,0,0,0,0,0,0,0,-1,1266,722,0,0
49,302,0,0,0,0,0,0,0,0,0,-1,1273,722,0,0
56,302,0,0,0,0,0,0,0,0,0,-1,1280,722,0,0
63,302,0,0,0,0,0,0,0,0,0,-1,1287,722,0,0
70,302,0,0,0,0,0,0,0,0,0,-1,1294,722,0,0
77,302,0,0,0,0,0,0,0,0,0,-1,1301,722,0,0
84,302,0,0,0,0,0,0,0,0,0,-1,1308,722,0,0
91,302,0,0,0,0,0,0,0,0,0,-1,1315,722,0,0
98,302,0,0,0,0,0,0,0,0,0,-1,1322,722,0,0
105,302,0,0,0,0,0,0,0,0,0,-1,1329,722,0,0
112,302,0,0,0,0,0,0,0,0,0,-1,1336,722,0,0
119,302,0,0,0,0,0,0,0,0,0,-1,1343,722,0,0
126,302,0,0,0,0,0,0,0,0,0,-1,1350,722,0,0
133,302,0,0,0,0,0,0,0,0,0,-1,1357,722,0,0
140,302,0,0,0,0,0,0,0,0,0,-1,1364,722,0,0
147,302,0,0,0,0,0,0,0,0,0,-1,1371,722,0,0
154,302,0,0,0,0,0,0,0,0,0,-1,1378,722,0,0
161,302,0,0,0,0,0,0,0,0,0,-1,1385,722,0,0
168,302,0,0,0,0,0,0,0,0,0,-1,1392,722,0,0
175,302,0,0,0,0,0,0,0,0,0,-1,1399,722,0,0
182,302,0,0,0,0,0,0,0,0,0,-1,1406,722,0,0
189,302,0,0,0,0,0,0,0,0,0,-1,1413,722,0,0
196,302,0,0,0,0,0,0,0,0,0,-1,1420,722,0,0
203,302,0,0,0,0,0,0,0,0,0,-1,1427,722,0,0
210,302,0,0,0,0,0,0,0,0,0,-1,1434,722,0,0
217,302,0,0,0,0,0,0,0,0,0,-1,1441,722,0,0
224,302,0,0,0,0,0,0,0,0,0,-1,1448,722,0,0
231,302,0,0,0,0,0,0,0,0,0,-1,1455,722,0,0
238,302,0,0,0,0,0,0,0,0,0,-1,1462,722,0,0
245,302,0,0,0,0,0,0,0,0,0,-1,1469,722,0,0
252,302,0,0,0,0,0,0,0,0,0,-1,1476,722,0,0
259,302,0,0,0,0,0,0,0,0,0,-1,1483,722,0,0
266,302,0,0,0,0,0,0,0,0,0,-1,1490,722,0,0
273,302,0,0,0,0,0,0,0,0,0,-1,1497,722,0,0
280,302,0,0,0,0,0,0,0,0,0,-1,1504,722,0,0
287,302,0,0,0,0,0,0,0,0,0,-1,1511,722,0,0
294,302,0,0,0,0,0,0,0,0,0,-1,1518,722,0,0
301,302,0,0,0,0,0,0,0,0,0,-1,1525,722,0,0
308,302,0,0,0,0,0,0,0,0,0,-1,1532,722,0,0
315,302,0,0,0,0,0,0,0,0,0,-1,1539,722,0,0
322,302,0,0,0,0,0,0,0,0,0,-1,1546,722,0,0
329,302,0,0,0,0,0,0,0,0,0,-1,1553,722,0,0
336,302,0,0,0,0,0,0,0,0,0,-1,1560,722,0,0
343,302,0,0,0,0,0,0,0,0,0,-1,1567,722,0,0
350,302,0,0,0,0,0,0,0,0,0,-1,1574,722,0,0
357,302,0,0,0,0,0,0,0,0,0,-1,1581,722,0,0
364,302,0,0,0,0,0,0,0,0,0,-1,1588,722,0,0
371,302,0,0,0,0,0,0,0,0,0,-1,1595,722,0,0
378,302,0,0,0,0,0,0,0,0,0,-1,1602,722,0,0
385,302,0,0,0,0,0,0,0,0,0,-1,1609,722,0,0
392,302,0,0,0,0,0,0,0,0,0,-1,1616,722,0,0
399,302,0,0,0,0,0,0,0,0,0,-1,1623,722,0,0
406,302,0,0,0,0,0,0,0,0,0,-1,1630,722,0,0
413,302,0,0,0,0,0,0,0,0,0,-1,1637,722,0,0
420,302,0,0,0,0,0,0,0,0,0,-1,1644,722,0,0
427,302,0,0,0,0,0,0,0,0,0,-1,1651,722,0,0
434,302,0,0,0,0,0,0,0,0,0,-1,1658,722,0,0
441,302,0,0,0,0,0,0,0,0,0,-1,1665,722,0,0
448,302,0,0,0,0,0,0,0,0,0,-1,1672,722,0,0
455,302,0,0,0,0,0,0,0,0,0,-1,1679,722,0,0
462,302,0,0,0,0,0,0,0,0,0,-1,1686,722,0,0
469,302,0,0,0,0,0,0,0,0,0,-1,1693,722,0,0
476,302,0,0,0,0,0,0,0,0,0,-1,1700,722,0,0
483,302,0,0,0,0,0,0,0,0,0,-1,1707,722,0,0
490,302,0,0,0,0,0,0,0,0,0,-1,1714,722,0,0
497,302,0,0,0,0,0,0,0,0,0,-1,1721,722,0,0
504,302,0,0,0,0,0,0,0,0,0,-1,1728,722,0,0
511,302,0,0,0,0,0,0,0,0,0,-1,1735,722,0,0
518,302,0,0,0,0,0,0,0,0,0,-1,1742,722,0,0
525,302,0,0,0,0,0,0,0,0,0,-1,1749,722,0,0
532,302,0,0,0,0,0,0,0,0,0,-1,1756,722,0,0
539,302,0,0,0,0,0,0,0,0,0,-1,1763,722,0,0
546,302,15.3757,4.21112,0,0,0,0,0,0,0,-1,1770,722,15.3757,-4.21113
553,302,13.0096,3.05762,0,0,0,0,0,0,0,-1,1777,722,13.0097,-3.05759
560,302,13.832,2.98145,0,0,0,0,0,0,0,-1,1784,722,13.8321,-2.98142
567,302,15.4659,3.29962,0,0,0,0,0,0,0,-1,1791,722,15.4659,-3.29964
574,302,15.9391,2.99695,0.0530203,0.0101091,-0.00828901,0.0545658,0.00856359,-0.184335,0.0338853,0.0450588,1798,722,15.9391,-2.99693
581,302,16.7976,3.13556,0.0426803,0.00897181,-0.00906859,0.0449652,0.00668696,-0.246815,0.0280151,0.0436974,1805,722,16.7976,-3.13556
588,302,15.0543,3.39685,0.0337288,0.00769473,-0.00905408,0.036568,0.00485555,-0.303869,0.0229321,0.0438428,1812,722,15.0543,-3.39685
595,302,15.5348,3.97906,0.0260086,0.0066386,-0.00838195,0.029132,0.00351515,-0.3567,0.0183621,0.0439314,1819,722,15.5348,-3.97909
602,302,15.9238,4.92664,0,0,0,0,0,0,0,-1,1826,722,15.9238,-4.92664
609,302,11.1578,-0.125854,0,0,0,0,0,0,0,-1,1833,722,11.1579,0.125839
616,302,11.048,0.0921631,0.0102698,0.00487243,-0.00451758,0.0128334,0.00230885,-0.516155,0.00789925,0.0476034,1840,722,11.048,-0.0921606
623,302,10.9664,0.296753,0.00605153,0.00380478,-0.00305198,0.00818032,0.00167599,-0.609053,0.00498961,0.0141651,1847,722,10.9665,-0.296765
630,302,10.9574,0.53186,0.00387617,0.0029947,-0.00158878,0.00508421,0.00178666,-0.650098,0.00297826,0.0100117,1854,722,10.9574,-0.531845
637,302,10.9222,0.741394,0.00329554,0.000990282,0.00051924,0.0034071,0.000878726,0.211628,0.0020425,0.0127788,1861,722,10.9222,-0.741406
644,302,10.9257,0.93927,0.00158556,-0.000184638,0.000588976,0.00176361,-0.000362692,0.293575,0.00131344,0.0150546,1868,722,10.9256,-0.939262
651,302,10.9525,1.17401,0.000786088,-2.09659e-06,2.3854e-05,0.000786809,-2.81786e-06,0.0302276,0.000525481,0.0148415,1875,722,10.9525,-1.17401
658,302,10.9723,1.38037,0.00126051,-1.03013e-05,-0.000516341,0.00144386,-0.000193643,-0.341193,0.00103318,0.0151469,1882,722,10.9723,-1.38039
665,302,10.9683,1.56042,0.00239498,0.000240531,-0.00101493,0.00279779,-0.000162278,-0.377816,0.00192157,0.0137373,1889,722,10.9682,-1.56043
672,302,10.9641,1.7572,0.00408914,0.000193173,-0.00144011,0.00456366,-0.000281353,-0.318303,0.00314043,0.0109551,1896,722,10.9641,-1.75719
679,302,10.9653,1.97351,0.00623522,0.000331574,-0.00200777,0.00685333,-0.000286534,-0.29865,0.00466733,0.00912099,1903,722,10.9654,-1.97349
686,302,10.9882,2.16528,0.00930785,0.000465562,-0.00285804,0.0101512,-0.000377791,-0.286937,0.00689685,0.0125125,1910,722,10.9882,-2.16529
693,302,10.8674,2.30029,0.0137633,0.000765419,-0.00265161,0.0142834,0.000245297,-0.193694,0.00944158,0.0261872,1917,722,10.8675,-2.30031
700,302,11.5099,2.526,0.0204091,0.00136807,-0.00191316,0.0205994,0.00117774,-0.0991554,0.0133577,0.0454414,1924,722,11.5099,-2.52602
707,302,11.0677,2.72754,0,0,0,0,0,0,0,-1,1931,722,11.0677,-2.72757
714,302,11.0779,2.83307,0,0,0,0,0,0,0,-1,1938,722,11.0779,-2.83307
721,302,11.271,2.78351,0,0,0,0,0,0,0,-1,1945,722,11.2709,-2.78351
728,302,11.9117,3.16602,0,0,0,0,0,0,0,-1,1952,722,11.9117,-3.16604
735,302,0,0,0,0,0,0,0,0,0,-1,1959,722,0,0
742,302,0,0,0,0,0,0,0,0,0,-1,1966,722,0,0
749,302,0,0,0,0,0,0,0,0,0,-1,1973,722,0,0
756,302,0,0,0,0,0,0,0,0,0,-1,1980,722,0,0
763,302,0,0,0,0,0,0,0,0,0,-1,1987,722,0,0
770,302,0,0,0,0,0,0,0,0,0,-1,1994,722,0,0
777,302,0,0,0,0,0,0,0,0,0,-1,2001,722,0,0
784,302,0,0,0,0,0,0,0,0,0,-1,2008,722,0,0
791,302,0,0,0,0,0,0,0,0,0,-1,2015,722,0,0
798,302,0,0,0,0,0,0,0,0,0,-1,2022,722,0,0
805,302,0,0,0,0,0,0,0,0,0,-1,2029,722,0,0
812,302,0,0,0,0,0,0,0,0,0,-1,2036,722,0,0
-700,295,0,0,0,0,0,0,0,0,0,-1,524,729,0,0
-693,295,0,0,0,0,0,0,0,0,0,-1,531,729,0,0
-686,295,0,0,0,0,0,0,0,0,0,-1,538,729,0,0
-679,295,0,0,0,0,0,0,0,0,0,-1,545,729,0,0
-672,295,0,0,0,0,0,0,0,0,0,-1,552,729,0,0
-665,295,0,0,0,0,0,0,0,0,0,-1,559,729,0,0
-658,295,0,0,0,0,0,0,0,0,0,-1,566,729,0,0
-651,295,0,0,0,0,0,0,0,0,0,-1,573,729,0,0
-644,295,0,0,0,0,0,0,0,0,0,-1,580,729,0,0
-637,295,0,0,0,0,0,0,0,0,0,-1,587,729,0,0
-630,295,0,0,0,0,0,0,0,0,0,-1,594,729,0,0
-623,295,0,0,0,0,0,0,0,0,0,-1,601,729,0,0
-616,295,-6.39587,-4.52765,0,0,0,0,0,0,0,-1,608,729,-6.3959,4.52767
-609,295,-5.96216,-3.49591,0.0752749,0.00036542,0.0217854,0.0811498,-0.00550952,0.263407,0.0560268,0.0484398,615,729,-5.96215,3.49593
-602,295,-5.61359,-2.48157,0.0599316,-0.000329503,0.0195036,0.0656932,-0.00609102,0.287239,0.0459605,0.0491197,622,729,-5.61359,2.48156
-595,295,-5.30798,-1.24542,0,0,0,0,0,0,0,-1,629,729,-5.30801,1.24542
-588,295,-5.05023,-0.610291,0,0,0,0,0,0,0,-1,636,729,-5.05026,0.610269
-581,295,-5.24548,-0.470947,0,0,0,0,0,0,0,-1,643,729,-5.2455,0.470964
-574,295,-5.53009,-0.183777,0.00951867,-0.00515688,0.0131717,0.0172586,-0.0128968,0.531264,0.0174708,0.045643,650,729,-5.53011,0.183774
-567,295,-5.83411,0.210754,0.00244549,-0.00529917,0.010842,0.0100859,-0.0129396,0.613878,0.0133278,0.0402255,657,729,-5.83409,-0.210751
-560,295,-6.1239,0.209473,-0.000939455,-0.00353351,0.00777695,0.00564789,-0.0101209,0.70277,0.00922537,0.0228461,664,729,-6.12388,-0.209477
-553,295,-6.15411,0.0332642,-0.00364085,-0.00178702,0.00533522,0.00270121,-0.00812907,0.871407,0.00650937,0.0159293,671,729,-6.15411,-0.0332766
-546,295,-6.18964,-0.107971,-0.00379474,-0.0010549,0.00326419,0.00111518,-0.00596482,0.984077,0.00439568,0.0188757,678,729,-6.18965,0.10797
-539,295,-6.19043,-0.264648,-0.00263622,-0.000701568,0.00221725,0.000750179,-0.00408797,0.991088,0.00300673,0.0167652,685,729,-6.19043,0.264664
-532,295,-6.17035,-0.485291,-0.00163819,-0.000408171,0.000913892,7.83802e-05,-0.00212474,1.08157,0.00144333,0.014366,692,729,-6.17037,0.485303
-525,295,-6.16553,-0.697937,-0.000762943,0.000200574,-0.000363515,0.000322334,-0.000884703,-1.24759,0.000721655,0.01486,699,729,-6.16552,0.697954
-518,295,-6.17755,-0.862976,-3.70797e-05,0.00136357,-0.00126479,0.00210898,-0.000782491,-1.03824,0.00172696,0.0107056,706,729,-6.17754,0.86299
-511,295,-6.17041,-1.04193,0.000332445,0.003161,-0.00162628,0.00390195,-0.000408498,-1.14329,0.0027476,0.00830074,713,729,-6.17042,1.04191
-504,295,-6.18097,-1.24878,0.000225533,0.00567272,-0.00163592,0.00612626,-0.00022801,-1.30035,0.00416226,0.010069,720,729,-6.18095,1.24877
-497,295,-6.19324,-1.41217,-0.000674788,0.00734089,-0.00105445,0.00747728,-0.000811178,-1.44216,0.00527607,0.0143928,727,729,-6.19326,1.41217
-490,295,-6.08563,-1.40491,-0.00158132,0.0081393,8.21071e-06,0.00813931,-0.00158132,1.56995,0.00602291,0.0464003,734,729,-6.08565,1.4049
-483,295,-5.90698,-1.14026,0,0,0,0,0,0,0,-1,741,729,-5.90698,1.14028
-476,295,-8.06445,2.0451,0,0,0,0,0,0,0,-1,748,729,-8.06444,-2.04513
-469,295,-8.32892,2.57825,-0.00557843,0.00516232,0.00413569,0.00657021,-0.00698632,1.24268,0.00782809,0.0443241,755,729,-8.32893,-2.57826
-462,295,-8.39172,3.05872,0,0,0,0,0,0,0,-1,762,729,-8.39172,-3.05875
-455,295,-8.09265,3.1792,0,0,0,0,0,0,0,-1,769,729,-8.09267,-3.17917
-448,295,-8.11182,3.34344,-0.00922832,-0.0164759,0.00887495,-0.00326583,-0.0224384,0.591572,0.0139979,0.0447766,776,729,-8.11181,-3.34344
-441,295,-8.16797,2.93146,-0.00899019,-0.0337982,0.00876254,-0.00620732,-0.0365811,0.307513,0.0226042,0.047477,783,729,-8.16799,-2.93146
-434,295,-7.9657,2.48993,-0.00830192,-0.0497458,0.0038323,-0.00795053,-0.0500972,0.0914365,0.0310887,0.0470941,790,729,-7.96571,-2.48991
-427,295,0,0,0,0,0,0,0,0,0,-1,797,729,0,0
-420,295,0,0,0,0,0,0,0,0,0,-1,804,729,0,0
-413,295,0,0,0,0,0,0,0,0,0,-1,811,729,0,0
-406,295,0,0,0,0,0,0,0,0,0,-1,818,729,0,0
-399,295,0,0,0,0,0,0,0,0,0,-1,825,729,0,0
-392,295,0,0,0,0,0,0,0,0,0,-1,832,729,0,0
-385,295,0,0,0,0,0,0,0,0,0,-1,839,729,0,0
-378,295,0,0,0,0,0,0,0,0,0,-1,846,729,0,0
-371,295,0,0,0,0,0,0,0,0,0,-1,853,729,0,0
-364,295,0,0,0,0,0,0,0,0,0,-1,860,729,0,0
-357,295,0,0,0,0,0,0,0,0,0,-1,867,729,0,0
-350,295,0,0,0,0,0,0,0,0,0,-1,874,729,0,0
-343,295,0,0,0,0,0,0,0,0,0,-1,881,729,0,0
-336,295,0,0,0,0,0,0,0,0,0,-1,888,729,0,0
-329,295,0,0,0,0,0,0,0,0,0,-1,895,729,0,0
-322,295,0,0,0,0,0,0,0,0,0,-1,902,729,0,0
-315,295,0,0,0,0,0,0,0,0,0,-1,909,729,0,0
-308,295,0,0,0,0,0,0,0,0,0,-1,916,729,0,0
-301,295,0,0,0,0,0,0,0,0,0,-1,923,729,0,0
-294,295,0,0,0,0,0,0,0,0,0,-1,930,729,0,0
-287,295,0,0,0,0,0,0,0,0,0,-1,937,729,0,0
-280,295,0,0,0,0,0,0,0,0,0,-1,944,729,0,0
-273,295,0,0,0,0,0,0,0,0,0,-1,951,729,0,0
-266,295,0,0,0,0,0,0,0,0,0,-1,958,729,0,0
-259,295,0,0,0,0,0,0,0,0,0,-1,965,729,0,0
-252,295,0,0,0,0,0,0,0,0,0,-1,972,729,0,0
-245,295,0,0,0,0,0,0,0,0,0,-1,979,729,0,0
-238,295,0,0,0,0,0,0,0,0,0,-1,986,729,0,0
-231,295,0,0,0,0,0,0,0,0,0,-1,993,729,0,0
-224,295,0,0,0,0,0,0,0,0,0,-1,1000,729,0,0
-217,295,0,0,0,0,0,0,0,0,0,-1,1007,729,0,0
-210,295,0,0,0,0,0,0,0,0,0,-1,1014,729,0,0
-203,295,0,0,0,0,0,0,0,0,0,-1,1021,729,0,0
-196,295,0,0,0,0,0,0,0,0,0,-1,1028,729,0,0
-189,295,0,0,0,0,0,0,0,0,0,-1,1035,729,0,0
-182,295,0,0,0,0,0,0,0,0,0,-1,1042,729,0,0
-175,295,0,0,0,0,0,0,0,0,0,-1,1049,729,0,0
-168,295,0,0,0,0,0,0,0,0,0,-1,1056,729,0,0
-161,295,0,0,0,0,0,0,0,0,0,-1,1063,729,0,0
-154,295,0,0,0,0,0,0,0,0,0,-1,1070,729,0,0
-147,295,0,0,0,0,0,0,0,0,0,-1,1077,729,0,0
-140,295,0,0,0,0,0,0,0,0,0,-1,1084,729,0,0
-133,295,0,0,0,0,0,0,0,0,0,-1,1091,729,0,0
-126,295,0,0,0,0,0,0,0,0,0,-1,1098,729,0,0
-119,295,0,0,0,0,0,0,0,0,0,-1,1105,729,0,0
-112,295,0,0,0,0,0,0,0,0,0,-1,1112,729,0,0
-105,295,0,0,0,0,0,0,0,0,0,-1,1119,729,0,0
-98,295,0,0,0,0,0,0,0,0,0,-1,1126,729,0,0
-91,295,0,0,0,0,0,0,0,0,0,-1,1133,729,0,0
-84,295,0,0,0,0,0,0,0,0,0,-1,1140,729,0,0
-77,295,0,0,0,0,0,0,0,0,0,-1,1147,729,0,0
-70,295,0,0,0,0,0,0,0,0,0,-1,1154,729,0,0
-63,295,0,0,0,0,0,0,0,0,0,-1,1161,729,0,0
-56,295,0,0,0,0,0,0,0,0,0,-1,1168,729,0,0
-49,295,0,0,0,0,0,0,0,0,0,-1,1175,729,0,0
-42,295,0,0,0,0,0,0,0,0,0,-1,1182,729,0,0
-35,295,0,0,0,0,0,0,0,0,0,-1,1189,729,0,0
-28,295,0,0,0,0,0,0,0,0,0,-1,1196,729,0,0
-21,295,0,0,0,0,0,0,0,0,0,-1,1203,729,0,0
-14,295,0,0,0,0,0,0,0,0,0,-1,1210,729,0,0
-7,295,0,0,0,0,0,0,0,0,0,-1,1217,729,0,0
0,295,0,0,0,0,0,0,0,0,0,-1,1224,729,0,0
7,295,0,0,0,0,0,0,0,0,0,-1,1231,729,0,0
14,295,0,0,0,0,0,0,0,0,0,-1,1238,729,0,0
21,295,0,0,0,0,0,0,0,0,0,-1,1245,729,0,0
28,295,0,0,0,0,0,0,0,0,0,-1,1252,729,0,0
35,295,0,0,0,0,0,0,0,0,0,-1,1259,729,0,0
42,295,0,0,0,0,0,0,0,0,0,-1,1266,729,0,0
49,295,0,0,0,0,0,0,0,0,0,-1,1273,729,0,0
56,295,0,0,0,0,0,0,0,0,0,-1,1280,729,0,0
63,295,0,0,0,0,0,0,0,0,0,-1,1287,729,0,0
70,295,0,0,0,0,0,0,0,0,0,-1,1294,729,0,0
77,295,0,0,0,0,0,0,0,0,0,-1,1301,729,0,0
84,295,0,0,0,0,0,0,0,0,0,-1,1308,729,0,0
91,295,0,0,0,0,0,0,0,0,0,-1,1315,729,0,0
98,295,0,0,0,0,0,0,0,0,0,-1,1322,729,0,0
105,295,0,0,0,0,0,0,0,0,0,-1,1329,729,0,0
112,295,0,0,0,0,0,0,0,0,0,-1,1336,729,0,0
119,295,0,0,0,0,0,0,0,0,0,-1,1343,729,0,0
126,295,0,0,0,0,0,0,0,0,0,-1,1350,729,0,0
133,295,0,0,0,0,0,0,0,0,0,-1,1357,729,0,0
140,295,0,0,0,0,0,0,0,0,0,-1,1364,729,0,0
147,295,0,0,0,0,0,0,0,0,0,-1,1371,729,0,0
154,295,0,0,0,0,0,0,0,0,0,-1,1378,729,0,0
161,295,0,0,0,0,0,0,0,0,0,-1,1385,729,0,0
168,295,0,0,0,0,0,0,0,0,0,-1,1392,729,0,0
175,295,0,0,0,0,0,0,0,0,0,-1,1399,729,0,0
182,295,0,0,0,0,0,0,0,0,0,-1,1406,729,0,0
189,295,0,0,0,0,0,0,0,0,0,-1,1413,729,0,0
196,295,0,0,0,0,0,0,0,0,0,-1,1420,729,0,0
203,295,0,0,0,0,0,0,0,0,0,-1,1427,729,0,0
210,295,0,0,0,0,0,0,0,0,0,-1,1434,729,0,0
217,295,0,0,0,0,0,0,0,0,0,-1,1441,729,0,0
224,295,0,0,0,0,0,0,0,0,0,-1,1448,729,0,0
231,295,0,0,0,0,0,0,0,0,0,-1,1455,729,0,0
238,295,0,0,0,0,0,0,0,0,0,-1,1462,729,0,0
245,295,0,0,0,0,0,0,0,0,0,-1,1469,729,0,0
252,295,0,0,0,0,0,0,0,0,0,-1,1476,729,0,0
259,295,0,0,0,0,0,0,0,0,0,-1,1483,729,0,0
266,295,0,0,0,0,0,0,0,0,0,-1,1490,729,0,0
273,295,0,0,0,0,0,0,0,0,0,-1,1497,729,0,0
280,295,0,0,0,0,0,0,0,0,0,-1,1504,729,0,0
287,295,0,0,0,0,0,0,0,0,0,-1,1511,729,0,0
294,295,0,0,0,0,0,0,0,0,0,-1,1518,729,0,0
301,295,0,0,0,0,0,0,0,0,0,-1,1525,729,0,0
308,295,0,0,0,0,0,0,0,0,0,-1,1532,729,0,0
315,295,0,0,0,0,0,0,0,0,0,-1,1539,729,0,0
322,295,0,0,0,0,0,0,0,0,0,-1,1546,729,0,0
329,295,0,0,0,0,0,0,0,0,0,-1,1553,729,0,0
336,295,0,0,0,0,0,0,0,0,0,-1,1560,729,0,0
343,295,0,0,0,0,0,0,0,0,0,-1,1567,729,0,0
350,295,0,0,0,0,0,0,0,0,0,-1,1574,729,0,0
357,295,0,0,0,0,0,0,0,0,0,-1,1581,729,0,0
364,295,0,0,0,0,0,0,0,0,0,-1,1588,729,0,0
371,295,0,0,0,0,0,0,0,0,0,-1,1595,729,0,0
378,295,0,0,0,0,0,0,0,0,0,-1,1602,729,0,0
385,295,0,0,0,0,0,0,0,0,0,-1,1609,729,0,0
392,295,0,0,0,0,0,0,0,0,0,-1,1616,729,0,0
399,295,0,0,0,0,0,0,0,0,0,-1,1623,729,0,0
406,295,0,0,0,0,0,0,0,0,0,-1,1630,729,0,0
413,295,0,0,0,0,0,0,0,0,0,-1,1637,729,0,0
420,295,0,0,0,0,0,0,0,0,0,-1,1644,729,0,0
427,295,0,0,0,0,0,0,0,0,0,-1,1651,729,0,0
434,295,0,0,0,0,0,0,0,0,0,-1,1658,729,0,0
441,295,0,0,0,0,0,0,0,0,0,-1,1665,729,0,0
448,295,0,0,0,0,0,0,0,0,0,-1,1672,729,0,0
455,295,0,0,0,0,0,0,0,0,0,-1,1679,729,0,0
462,295,0,0,0,0,0,0,0,0,0,-1,1686,729,0,0
469,295,0,0,0,0,0,0,0,0,0,-1,1693,729,0,0
476,295,0,0,0,0,0,0,0,0,0,-1,1700,729,0,0
483,295,0,0,0,0,0,0,0,0,0,-1,1707,729,0,0
490,295,0,0,0,0,0,0,0,0,0,-1,1714,729,0,0
497,295,0,0,0,0,0,0,0,0,0,-1,1721,729,0,0
504,295,0,0,0,0,0,0,0,0,0,-1,1728,729,0,0
511,295,0,0,0,0,0,0,0,0,0,-1,1735,729,0,0
518,295,0,0,0,0,0,0,0,0,0,-1,1742,729,0,0
525,295,0,0,0,0,0,0,0,0,0,-1,1749,729,0,0
532,295,0,0,0,0,0,0,0,0,0,-1,1756,729,0,0
539,295,0,0,0,0,0,0,0,0,0,-1,1763,729,0,0
546,295,16.3691,2.68793,0,0,0,0,0,0,0,-1,1770,729,16.3691,-2.68791
553,295,15.347,3.46802,0,0,0,0,0,0,0,-1,1777,729,15.347,-3.46799
560,295,15.1406,3.20544,0,0,0,0,0,0,0,-1,1784,729,15.1406,-3.20542
567,295,15.6483,3.39526,0.0598724,0.0129505,-0.00952527,0.0617323,0.0110905,-0.192836,0.0380014,0.0455088,1791,729,15.6483,-3.39525
574,295,16.168,3.33801,0.0496962,0.0117097,-0.0100998,0.0522146,0.00919129,-0.244365,0.0321864,0.0498514,1798,729,16.168,-3.33799
581,295,16.8429,3.52869,0,0,0,0,0,0,0,-1,1805,729,16.8429,-3.52871
588,295,15.8094,3.0896,0.0327955,0.00931181,-0.00920685,0.0359747,0.00613263,-0.332487,0.0222228,0.044833,1812,729,15.8095,-3.0896
595,295,16.2373,4.03766,0.0258957,0.00814063,-0.00799463,0.0289649,0.00507142,-0.366558,0.0178611,0.0434403,1819,729,16.2373,-4.03768
602,295,16.7006,5.01886,0,0,0,0,0,0,0,-1,1826,729,16.7005,-5.01888
609,295,11.7737,2.19989,0,0,0,0,0,0,0,-1,1833,729,11.7736,-2.19988
616,295,11.2572,0.0906982,0,0,0,0,0,0,0,-1,1840,729,11.2572,-0.0907203
623,295,11.1753,0.313599,0.00720837,0.00435847,-0.00186295,0.00812885,0.00343799,-0.458917,0.00471174,0.0284338,1847,729,11.1753,-0.313593
630,295,11.1549,0.549561,0.00487531,0.00348739,-0.000485664,0.00502838,0.00333432,-0.305309,0.00295417,0.0120386,1854,729,11.1549,-0.549539
637,295,11.1511,0.761902,0.00403697,0.00145924,0.00138738,0.00464178,0.000854425,0.411097,0.00285269,0.0133182,1861,729,11.1511,-0.76191
644,295,11.1597,0.966064,0.00203432,0.000101393,0.00142894,0.00279295,-0.00065723,0.48806,0.00211535,0.0127051,1868,729,11.1596,-0.966047
651,295,11.1674,1.17847,0.000950654,0.000205157,0.000620426,0.00130169,-0.000145883,0.514896,0.000920286,0.0124638,1875,729,11.1674,-1.17849
658,295,11.1628,1.375,0.00122889,2.16729e-05,-0.000114779,0.00123971,1.08568e-05,-0.0939556,0.000822878,0.0121813,1882,729,11.1628,-1.37498
665,295,11.1492,1.56317,0.0022172,0.000154488,-0.000666387,0.00241375,-4.20678e-05,-0.286824,0.00162337,0.0116009,1889,729,11.1492,-1.56317
672,295,11.1432,1.75482,0.00382134,-2.66245e-05,-0.00110882,0.00411799,-0.000323272,-0.261412,0.00285918,0.0123862,1896,729,11.1431,-1.75484
679,295,11.1506,1.96912,0.00580747,7.17809e-06,-0.00168008,0.00625897,-0.00044432,-0.262533,0.00432836,0.0093747,1903,729,11.1506,-1.96913
686,295,11.1693,2.1723,0.00863701,4.02525e-05,-0.00246857,0.00929543,-0.000618172,-0.260655,0.00641295,0.00859325,1910,729,11.1694,-2.17231
693,295,11.1831,2.33179,0.0127915,0.000275098,-0.00198335,0.0130982,-3.1664e-05,-0.153453,0.00874273,0.0184606,1917,729,11.183,-2.3318
700,295,11.1899,2.461,0.0191111,0.000873758,-0.000700262,0.0191379,0.000846909,-0.0383219,0.0124859,0.0321593,1924,729,11.1899,-2.46102
707,295,11.2767,2.63446,0.0271129,0.00186393,0.00141236,0.0271917,0.00178517,0.0557056,0.017563,0.042508,1931,729,11.2767,-2.63449
714,295,11.5011,2.6449,0.0373403,0.00341419,0.00549412,0.0382078,0.00254663,0.156613,0.0246669,0.045213,1938,729,11.5011,-2.64492
721,295,11.7983,2.74445,0,0,0,0,0,0,0,-1,1945,729,11.7984,-2.74447
728,295,12.022,2.81757,0,0,0,0,0,0,0,-1,1952,729,12.022,-2.81756
735,295,0,0,0,0,0,0,0,0,0,-1,1959,729,0,0
742,295,0,0,0,0,0,0,0,0,0,-1,1966,729,0,0
749,295,0,0,0,0,0,0,0,0,0,-1,1973,729,0,0
756,295,0,0,0,0,0,0,0,0,0,-1,1980,729,0,0
763,295,0,0,0,0,0,0,0,0,0,-1,1987,729,0,0
770,295,0,0,0,0,0,0,0,0,0,-1,1994,729,0,0
777,295,0,0,0,0,0,0,0,0,0,-1,2001,729,0,0
784,295,0,0,0,0,0,0,0,0,0,-1,2008,729,0,0
791,295,0,0,0,0,0,0,0,0,0,-1,2015,729,0,0
798,295,0,0,0,0,0,0,0,0,0,-1,2022,729,0,0
805,295,0,0,0,0,0,0,0,0,0,-1,2029,729,0,0
812,295,0,0,0,0,0,0,0,0,0,-1,2036,729,0,0
-700,288,0,0,0,0,0,0,0,0,0,-1,524,736,0,0
-693,288,0,0,0,0,0,0,0,0,0,-1,531,736,0,0
-686,288,0,0,0,0,0,0,0,0,0,-1,538,736,0,0
-679,288,0,0,0,0,0,0,0,0,0,-1,545,736,0,0
-672,288,0,0,0,0,0,0,0,0,0,-1,552,736,0,0
-665,288,0,0,0,0,0,0,0,0,0,-1,559,736,0,0
-658,288,0,0,0,0,0,0,0,0,0,-1,566,736,0,0
-651,288,0,0,0,0,0,0,0,0,0,-1,573,736,0,0
-644,288,0,0,0,0,0,0,0,0,0,-1,580,736,0,0
-637,288,0,0,0,0,0,0,0,0,0,-1,587,736,0,0
-630,288,0,0,0,0,0,0,0,0,0,-1,594,736,0,0
-623,288,0,0,0,0,0,0,0,0,0,-1,601,736,0,0
-616,288,-5.85034,-3.76392,0,0,0,0,0,0,0,-1,608,736,-5.85032,3.76389
-609,288,-5.25836,-2.90033,0,0,0,0,0,0,0,-1,615,736,-5.25835,2.90034
-602,288,-5.49976,-1.93945,0,0,0,0,0,0,0,-1,622,736,-5.49974,1.93946
-595,288,-5.7287,2.38434,0,0,0,0,0,0,0,-1,629,736,-5.72871,-2.38432
-588,288,-6.39954,1.0213,0,0,0,0,0,0,0,-1,636,736,-6.39955,-1.02133
-581,288,-6.33795,0.876221,0.0185894,-0.000304917,0.0126554,0.0249349,-0.00665045,0.464773,0.0192274,0.0475286,643,736,-6.33796,-0.876226
-574,288,-6.17621,0.729492,0.00907732,-0.00286468,0.0120466,0.0165515,-0.0103389,0.555314,0.0156627,0.0339394,650,736,-6.17619,-0.729467
-567,288,-6.2179,0.335938,0.00244627,-0.00380699,0.01027,0.010055,-0.0114157,0.637634,0.0124044,0.0224277,657,736,-6.21791,-0.335909
-560,288,-6.35522,0.194946,-0.000676678,-0.00254223,0.00753654,0.0059846,-0.0092035,0.723828,0.00883425,0.0128278,664,736,-6.35521,-0.194951
-553,288,-6.33386,0.0379639,-0.00314743,-0.00118629,0.00533164,0.0032542,-0.00758792,0.876339,0.00642423,0.0173909,671,736,-6.33388,-0.0379503
-546,288,-6.35211,-0.106262,-0.00324448,-0.000795133,0.0034338,0.00162585,-0.00566547,0.956693,0.00441976,0.0186749,678,736,-6.3521,0.106279
-539,288,-6.36981,-0.266541,-0.00223601,-0.000409226,0.00230244,0.00115438,-0.00379962,0.97423,0.00299302,0.0155359,685,736,-6.36982,0.26654
-532,288,-6.34827,-0.47583,-0.00135279,-0.00014997,0.000823401,0.000268269,-0.00177103,1.10082,0.00127952,0.011659,692,736,-6.34826,0.475848
-525,288,-6.35712,-0.68927,-0.000571941,0.000546344,-0.000633189,0.000831932,-0.000857528,-1.14709,0.000975448,0.0112646,699,736,-6.3571,0.689276
-518,288,-6.36432,-0.876038,1.7694e-05,0.00191,-0.00166657,0.00288026,-0.00095257,-1.04357,0.00230429,0.0110149,706,736,-6.36434,0.876022
-511,288,-6.36249,-1.06006,0.000226225,0.00417105,-0.00213767,0.00510725,-0.000709975,-1.158,0.00366449,0.00821738,713,736,-6.36248,1.06009
-504,288,-6.35199,-1.25775,-3.73616e-05,0.00725304,-0.00225288,0.00789304,-0.000677361,-1.29401,0.00550173,0.00988448,720,736,-6.35197,1.25776
-497,288,-6.32654,-1.39087,-0.00111958,0.00960623,-0.0017679,0.00989011,-0.00140346,-1.41158,0.00710757,0.0197464,727,736,-6.32651,1.39088
-490,288,-6.24969,-1.49359,0,0,0,0,0,0,0,-1,734,736,-6.2497,1.49357
-483,288,-6.32233,-0.240845,0,0,0,0,0,0,0,-1,741,736,-6.32234,0.240838
-476,288,-8.38318,1.95898,0,0,0,0,0,0,0,-1,748,736,-8.38317,-1.95898
-469,288,-8.71753,2.72607,0,0,0,0,0,0,0,-1,755,736,-8.7175,-2.72604
-462,288,-9.03003,3.2464,0,0,0,0,0,0,0,-1,762,736,-9.03002,-3.24638
-455,288,-9.07257,2.96277,0,0,0,0,0,0,0,-1,769,736,-9.07256,-2.96279
-448,288,-9.13623,2.97003,0,0,0,0,0,0,0,-1,776,736,-9.13625,-2.97005
-441,288,-9.08289,2.92322,0,0,0,0,0,0,0,-1,783,736,-9.08291,-2.92322
-434,288,-7.81281,2.84351,0,0,0,0,0,0,0,-1,790,736,-7.81282,-2.84348
-427,288,0,0,0,0,0,0,0,0,0,-1,797,736,0,0
-420,288,0,0,0,0,0,0,0,0,0,-1,804,736,0,0
-413,288,0,0,0,0,0,0,0,0,0,-1,811,736,0,0
-406,288,0,0,0,0,0,0,0,0,0,-1,818,736,0,0
-399,288,0,0,0,0,0,0,0,0,0,-1,825,736,0,0
-392,288,0,0,0,0,0,0,0,0,0,-1,832,736,0,0
-385,288,0,0,0,0,0,0,0,0,0,-1,839,736,0,0
-378,288,0,0,0,0,0,0,0,0,0,-1,846,736,0,0
-371,288,0,0,0,0,0,0,0,0,0,-1,853,736,0,0
-364,288,0,0,0,0,0,0,0,0,0,-1,860,736,0,0
-357,288,0,0,0,0,0,0,0,0,0,-1,867,736,0,0
-350,288,0,0,0,0,0,0,0,0,0,-1,874,736,0,0
-343,288,0,0,0,0,0,0,0,0,0,-1,881,736,0,0
-336,288,0,0,0,0,0,0,0,0,0,-1,888,736,0,0
-329,288,0,0,0,0,0,0,0,0,0,-1,895,736,0,0
-322,288,0,0,0,0,0,0,0,0,0,-1,902,736,0,0
-315,288,0,0,0,0,0,0,0,0,0,-1,909,736,0,0
-308,288,0,0,0,0,0,0,0,0,0,-1,916,736,0,0
-301,288,0,0,0,0,0,0,0,0,0,-1,923,736,0,0
-294,288,0,0,0,0,0,0,0,0,0,-1,930,736,0,0
-287,288,0,0,0,0,0,0,0,0,0,-1,937,736,0,0
-280,288,0,0,0,0,0,0,0,0,0,-1,944,736,0,0
-273,288,0,0,0,0,0,0,0,0,0,-1,951,736,0,0
-266,288,0,0,0,0,0,0,0,0,0,-1,958,736,0,0
-259,288,0,0,0,0,0,0,0,0,0,-1,965,736,0,0
-252,288,0,0,0,0,0,0,0,0,0,-1,972,736,0,0
-245,288,0,0,0,0,0,0,0,0,0,-1,979,736,0,0
-238,288,0,0,0,0,0,0,0,0,0,-1,986,736,0,0
-231,288,0,0,0,0,0,0,0,0,0,-1,993,736,0,0
-224,288,0,0,0,0,0,0,0,0,0,-1,1000,736,0,0
-217,288,0,0,0,0,0,0,0,0,0,-1,1007,736,0,0
-210,288,0,0,0,0,0,0,0,0,0,-1,1014,736,0,0
-203,288,0,0,0,0,0,0,0,0,0,-1,1021,736,0,0
-196,288,0,0,0,0,0,0,0,0,0,-1,1028,736,0,0
-189,288,0,0,0,0,0,0,0,0,0,-1,1035,736,0,0
-182,288,0,0,0,0,0,0,0,0,0,-1,1042,736,0,0
-175,288,0,0,0,0,0,0,0,0,0,-1,1049,736,0,0
-168,288,0,0,0,0,0,0,0,0,0,-1,1056,736,0,0
-161,288,0,0,0,0,0,0,0,0,0,-1,1063,736,0,0
-154,288,0,0,0,0,0,0,0,0,0,-1,1070,736,0,0
-147,288,0,0,0,0,0,0,0,0,0,-1,1077,736,0,0
-140,288,0,0,0,0,0,0,0,0,0,-1,1084,736,0,0
-133,288,0,0,0,0,0,0,0,0,0,-1,1091,736,0,0
-126,288,0,0,0,0,0,0,0,0,0,-1,1098,736,0,0
-119,288,0,0,0,0,0,0,0,0,0,-1,1105,736,0,0
-112,288,0,0,0,0,0,0,0,0,0,-1,1112,736,0,0
-105,288,0,0,0,0,0,0,0,0,0,-1,1119,736,0,0
-98,288,0,0,0,0,0,0,0,0,0,-1,1126,736,0,0
-91,288,0,0,0,0,0,0,0,0,0,-1,1133,736,0,0
-84,288,0,0,0,0,0,0,0,0,0,-1,1140,736,0,0
-77,288,0,0,0,0,0,0,0,0,0,-1,1147,736,0,0
-70,288,0,0,0,0,0,0,0,0,0,-1,1154,736,0,0
-63,288,0,0,0,0,0,0,0,0,0,-1,1161,736,0,0
-56,288,0,0,0,0,0,0,0,0,0,-1,1168,736,0,0
-49,288,0,0,0,0,0,0,0,0,0,-1,1175,736,0,0
-42,288,0,0,0,0,0,0,0,0,0,-1,1182,736,0,0
-35,288,0,0,0,0,0,0,0,0,0,-1,1189,736,0,0
-28,288,0,0,0,0,0,0,0,0,0,-1,1196,736,0,0
-21,288,0,0,0,0,0,0,0,0,0,-1,1203,736,0,0
-14,288,0,0,0,0,0,0,0,0,0,-1,1210,736,0,0
-7,288,0,0,0,0,0,0,0,0,0,-1,1217,736,0,0
0,288,0,0,0,0,0,0,0,0,0,-1,1224,736,0,0
7,288,0,0,0,0,0,0,0,0,0,-1,1231,736,0,0
14,288,0,0,0,0,0,0,0,0,0,-1,1238,736,0,0
21,288,0,0,0,0,0,0,0,0,0,-1,1245,736,0,0
28,288,0,0,0,0,0,0,0,0,0,-1,1252,736,0,0
35,288,0,0,0,0,0,0,0,0,0,-1,1259,736,0,0
42,288,0,0,0,0,0,0,0,0,0,-1,1266,736,0,0
49,288,0,0,0,0,0,0,0,0,0,-1,1273,736,0,0
56,288,0,0,0,0,0,0,0,0,0,-1,1280,736,0,0
63,288,0,0,0,0,0,0,0,0,0,-1,1287,736,0,0
70,288,0,0,0,0,0,0,0,0,0,-1,1294,736,0,0
77,288,0,0,0,0,0,0,0,0,0,-1,1301,736,0,0
84,288,0,0,0,0,0,0,0,0,0,-1,1308,736,0,0
91,288,0,0,0,0,0,0,0,0,0,-1,1315,736,0,0
98,288,0,0,0,0,0,0,0,0,0,-1,1322,736,0,0
105,288,0,0,0,0,0,0,0,0,0,-1,1329,736,0,0
112,288,0,0,0,0,0,0,0,0,0,-1,1336,736,0,0
119,288,0,0,0,0,0,0,0,0,0,-1,1343,736,0,0
126,288,0,0,0,0,0,0,0,0,0,-1,1350,736,0,0
133,288,0,0,0,0,0,0,0,0,0,-1,1357,736,0,0
140,288,0,0,0,0,0,0,0,0,0,-1,1364,736,0,0
147,288,0,0,0,0,0,0,0,0,0,-1,1371,736,0,0
154,288,0,0,0,0,0,0,0,0,0,-1,1378,736,0,0
161,288,0,0,0,0,0,0,0,0,0,-1,1385,736,0,0
168,288,0,0,0,0,0,0,0,0,0,-1,1392,736,0,0
175,288,0,0,0,0,0,0,0,0,0,-1,1399,736,0,0
182,288,0,0,0,0,0,0,0,0,0,-1,1406,736,0,0
189,288,0,0,0,0,0,0,0,0,0,-1,1413,736,0,0
196,288,0,0,0,0,0,0,0,0,0,-1,1420,736,0,0
203,288,0,0,0,0,0,0,0,0,0,-1,1427,736,0,0
210,288,0,0,0,0,0,0,0,0,0,-1,1434,736,0,0
217,288,0,0,0,0,0,0,0,0,0,-1,1441,736,0,0
224,288,0,0,0,0,0,0,0,0,0,-1,1448,736,0,0
231,288,0,0,0,0,0,0,0,0,0,-1,1455,736,0,0
238,288,0,0,0,0,0,0,0,0,0,-1,1462,736,0,0
245,288,0,0,0,0,0,0,0,0,0,-1,1469,736,0,0
252,288,0,0,0,0,0,0,0,0,0,-1,1476,736,0,0
259,288,0,0,0,0,0,0,0,0,0,-1,1483,736,0,0
266,288,0,0,0,0,0,0,0,0,0,-1,1490,736,0,0
273,288,0,0,0,0,0,0,0,0,0,-1,1497,736,0,0
280,288,0,0,0,0,0,0,0,0,0,-1,1504,736,0,0
287,288,0,0,0,0,0,0,0,0,0,-1,1511,736,0,0
294,288,0,0,0,0,0,0,0,0,0,-1,1518,736,0,0
301,288,0,0,0,0,0,0,0,0,0,-1,1525,736,0,0
308,288,0,0,0,0,0,0,0,0,0,-1,1532,736,0,0
315,288,0,0,0,0,0,0,0,0,0,-1,1539,736,0,0
322,288,0,0,0,0,0,0,0,0,0,-1,1546,736,0,0
329,288,0,0,0,0,0,0,0,0,0,-1,1553,736,0,0
336,288,0,0,0,0,0,0,0,0,0,-1,1560,736,0,0
343,288,0,0,0,0,0,0,0,0,0,-1,1567,736,0,0
350,288,0,0,0,0,0,0,0,0,0,-1,1574,736,0,0
357,288,0,0,0,0,0,0,0,0,0,-1,1581,736,0,0
364,288,0,0,0,0,0,0,0,0,0,-1,1588,736,0,0
371,288,0,0,0,0,0,0,0,0,0,-1,1595,736,0,0
378,288,0,0,0,0,0,0,0,0,0,-1,1602,736,0,0
385,288,0,0,0,0,0,0,0,0,0,-1,1609,736,0,0
392,288,0,0,0,0,0,0,0,0,0,-1,1616,736,0,0
399,288,0,0,0,0,0,0,0,0,0,-1,1623,736,0,0
406,288,0,0,0,0,0,0,0,0,0,-1,1630,736,0,0
413,288,0,0,0,0,0,0,0,0,0,-1,1637,736,0,0
420,288,0,0,0,0,0,0,0,0,0,-1,1644,736,0,0
427,288,0,0,0,0,0,0,0,0,0,-1,1651,736,0,0
434,288,0,0,0,0,0,0,0,0,0,-1,1658,736,0,0
441,288,0,0,0,0,0,0,0,0,0,-1,1665,736,0,0
448,288,0,0,0,0,0,0,0,0,0,-1,1672,736,0,0
455,288,0,0,0,0,0,0,0,0,0,-1,1679,736,0,0
462,288,0,0,0,0,0,0,0,0,0,-1,1686,736,0,0
469,288,0,0,0,0,0,0,0,0,0,-1,1693,736,0,0
476,288,0,0,0,0,0,0,0,0,0,-1,1700,736,0,0
483,288,0,0,0,0,0,0,0,0,0,-1,1707,736,0,0
490,288,0,0,0,0,0,0,0,0,0,-1,1714,736,0,0
497,288,0,0,0,0,0,0,0,0,0,-1,1721,736,0,0
504,288,0,0,0,0,0,0,0,0,0,-1,1728,736,0,0
511,288,0,0,0,0,0,0,0,0,0,-1,1735,736,0,0
518,288,0,0,0,0,0,0,0,0,0,-1,1742,736,0,0
525,288,0,0,0,0,0,0,0,0,0,-1,1749,736,0,0
532,288,0,0,0,0,0,0,0,0,0,-1,1756,736,0,0
539,288,0,0,0,0,0,0,0,0,0,-1,1763,736,0,0
546,288,0,0,0,0,0,0,0,0,0,-1,1770,736,0,0
553,288,15.6366,3.00531,0,0,0,0,0,0,0,-1,1777,736,15.6366,-3.00529
560,288,15.3862,3.49615,0.0599239,0.0165223,-0.0119596,0.0630012,0.0134449,-0.251848,0.0383138,0.0423862,1784,736,15.3862,-3.49618
567,288,15.845,3.58722,0.0529516,0.0138711,-0.0123734,0.0565397,0.0102829,-0.282247,0.034776,0.0418805,1791,736,15.845,-3.58722
574,288,16.2458,3.8418,0,0,0,0,0,0,0,-1,1798,736,16.2459,-3.8418
581,288,16.1545,2.75238,0.037279,0.0114721,-0.0106235,0.0410896,0.00766151,-0.344396,0.02523,0.0494918,1805,736,16.1546,-2.75237
588,288,16.1688,3.3681,0.0304127,0.0101853,-0.00911683,0.0339153,0.00668272,-0.366804,0.0207446,0.0458536,1812,736,16.1688,-3.3681
595,288,16.3947,4.0929,0,0,0,0,0,0,0,-1,1819,736,16.3946,-4.09292
602,288,15.8339,4.19501,0,0,0,0,0,0,0,-1,1826,736,15.8339,-4.19499
609,288,17.6804,2.49548,0,0,0,0,0,0,0,-1,1833,736,17.6805,-2.49546
616,288,11.5046,0.83905,0,0,0,0,0,0,0,-1,1840,736,11.5046,-0.839027
623,288,11.3738,0.330688,0,0,0,0,0,0,0,-1,1847,736,11.3738,-0.330677
630,288,11.3422,0.588806,0.00473528,0.00366529,0.000763828,0.00513284,0.00326774,0.479898,0.0030001,0.0207852,1854,736,11.3422,-0.588818
637,288,11.3676,0.759338,0.00375857,0.00188459,0.00238172,0.00538099,0.000262178,0.597993,0.0035032,0.0110368,1861,736,11.3676,-0.75936
644,288,11.3715,0.960938,0.00165695,0.000441191,0.00244686,0.00357031,-0.00147216,0.663646,0.0029941,0.0102669,1868,736,11.3714,-0.960949
651,288,11.3628,1.16364,0.000517786,0.00047658,0.0013836,0.00188094,-0.00088657,0.777953,0.00163184,0.0109287,1875,736,11.3628,-1.1636
658,288,11.3702,1.38489,0.000803126,0.000143076,0.000383621,0.000979146,-3.2944e-05,0.430179,0.000664018,0.0159616,1882,736,11.3703,-1.38488
665,288,11.3701,1.57581,0.0017879,0.000183512,-0.000282137,0.00183607,0.000135344,-0.169097,0.00118152,0.0168951,1889,736,11.3701,-1.57578
672,288,11.3513,1.75037,0.00341992,-9.63547e-05,-0.000798597,0.00359279,-0.000269229,-0.213183,0.00248979,0.0141374,1896,736,11.3514,-1.75035
679,288,11.3645,1.96667,0.00533098,-0.00013982,-0.00139964,0.00566826,-0.000477106,-0.236472,0.0039475,0.0113765,1903,736,11.3645,-1.9667
686,288,11.3754,2.14594,0.00790268,-0.000187466,-0.00213434,0.00843124,-0.000716018,-0.242757,0.00587406,0.00885586,1910,736,11.3754,-2.14592
693,288,11.3896,2.34808,0.0117538,-3.75733e-05,-0.00138253,0.0119137,-0.000197505,-0.115169,0.00800911,0.0106861,1917,736,11.3896,-2.34806
700,288,11.3695,2.5368,0.0177187,0.000610672,0.000271571,0.017723,0.000606362,0.0158685,0.0116185,0.0219121,1924,736,11.3695,-2.53681
707,288,11.5739,2.54297,0.0251329,0.00168232,0.00287266,0.0254797,0.00133555,0.120132,0.0165592,0.0371585,1931,736,11.5739,-2.54297
714,288,12.0525,2.4798,0.0345433,0.00325308,0.00734984,0.0361837,0.00161266,0.219593,0.0236033,0.0460112,1938,736,12.0525,-2.47979
721,288,12.1676,2.65991,0,0,0,0,0,0,0,-1,1945,736,12.1676,-2.65989
728,288,11.4406,1.58142,0,0,0,0,0,0,0,-1,1952,736,11.4405,-1.5814
735,288,14.1078,2.97913,0,0,0,0,0,0,0,-1,1959,736,14.1078,-2.97914
742,288,0,0,0,0,0,0,0,0,0,-1,1966,736,0,0
749,288,0,0,0,0,0,0,0,0,0,-1,1973,736,0,0
756,288,0,0,0,0,0,0,0,0,0,-1,1980,736,0,0
763,288,0,0,0,0,0,0,0,0,0,-1,1987,736,0,0
770,288,0,0,0,0,0,0,0,0,0,-1,1994,736,0,0
777,288,0,0,0,0,0,0,0,0,0,-1,2001,736,0,0
784,288,0,0,0,0,0,0,0,0,0,-1,2008,736,0,0
791,288,0,0,0,0,0,0,0,0,0,-1,2015,736,0,0
798,288,0,0,0,0,0,0,0,0,0,-1,2022,736,0,0
805,288,0,0,0,0,0,0,0,0,0,-1,2029,736,0,0
812,288,0,0,0,0,0,0,0,0,0,-1,2036,736,0,0
-700,281,0,0,0,0,0,0,0,0,0,-1,524,743,0,0
-693,281,0,0,0,0,0,0,0,0,0,-1,531,743,0,0
-686,281,0,0,0,0,0,0,0,0,0,-1,538,743,0,0
-679,281,0,0,0,0,0,0,0,0,0,-1,545,743,0,0
-672,281,0,0,0,0,0,0,0,0,0,-1,552,743,0,0
-665,281,0,0,0,0,0,0,0,0,0,-1,559,743,0,0
-658,281,0,0,0,0,0,0,0,0,0,-1,566,743,0,0
-651,281,0,0,0,0,0,0,0,0,0,-1,573,743,0,0
-644,281,0,0,0,0,0,0,0,0,0,-1,580,743,0,0
-637,281,0,0,0,0,0,0,0,0,0,-1,587,743,0,0
-630,281,0,0,0,0,0,0,0,0,0,-1,594,743,0,0
-623,281,-5.29315,-0.513489,0,0,0,0,0,0,0,-1,601,743,-5.29316,0.513502
-616,281,-4.61572,-2.63434,0,0,0,0,0,0,0,-1,608,743,-4.61574,2.63437
-609,281,-4.3493,-1.72693,0,0,0,0,0,0,0,-1,615,743,-4.3493,1.72696
-602,281,-4.08282,-0.819519,0,0,0,0,0,0,0,-1,622,743,-4.08285,0.819548
-595,281,-5.39661,1.9082,0,0,0,0,0,0,0,-1,629,743,-5.3966,-1.9082
-588,281,-6.70135,0.998291,0,0,0,0,0,0,0,-1,636,743,-6.70136,-0.998287
-581,281,-6.5874,0.790771,0.0180701,0.00274002,0.0101864,0.0231532,-0.00234309,0.462855,0.0162728,0.0443798,643,743,-6.58742,-0.790786
-574,281,-6.44092,0.558472,0.00912756,-0.000973443,0.0103603,0.0156028,-0.00744874,0.558606,0.0135836,0.0247961,650,743,-6.4409,-0.558456
-567,281,-6.52875,0.375,0.00285177,-0.00283749,0.00932128,0.00975281,-0.00973853,0.637299,0.0112533,0.0120393,657,743,-6.52872,-0.375008
-560,281,-6.54919,0.2146,-0.000121719,-0.00217847,0.00711496,0.00603881,-0.00833899,0.713627,0.00833636,0.00791016,664,743,-6.54921,-0.214575
-553,281,-6.52588,0.0527954,-0.00237162,-0.00119996,0.00522218,0.00346915,-0.00704073,0.841255,0.00618357,0.0130879,671,743,-6.5259,-0.0528094
-546,281,-6.52405,-0.100891,-0.00242432,-0.00107618,0.00354806,0.00186128,-0.00536178,0.87927,0.0043304,0.0151018,678,743,-6.52407,0.100891
-539,281,-6.53143,-0.277832,-0.0015814,-0.000520614,0.00232401,0.00133275,-0.00343477,0.897589,0.00284031,0.0128174,685,743,-6.53146,0.277859
-532,281,-6.53778,-0.465088,-0.000826587,-0.000162466,0.000659619,0.00024396,-0.00123301,1.01859,0.000914243,0.0117177,692,743,-6.5378,0.465118
-525,281,-6.55334,-0.678772,-0.000157699,0.000742709,-0.000994457,0.00138412,-0.000799112,-0.997952,0.00127549,0.0134398,699,743,-6.55335,0.678765
-518,281,-6.54529,-0.874329,0.000286777,0.00239948,-0.0022154,0.00379748,-0.00111123,-1.00786,0.00297213,0.0116132,706,743,-6.54528,0.874333
-511,281,-6.54889,-1.07349,0.000344573,0.00515981,-0.00285385,0.00648597,-0.000981586,-1.13579,0.00468557,0.0104846,713,743,-6.54889,1.0735
-504,281,-6.54254,-1.27704,-6.46753e-05,0.00873213,-0.00311446,0.00972314,-0.00105569,-1.26273,0.00686112,0.012629,720,743,-6.54255,1.27706
-497,281,-6.42926,-1.43219,-0.00131323,0.0118008,-0.0028031,0.0123748,-0.00188726,-1.3688,0.00894559,0.0343934,727,743,-6.42925,1.43218
-490,281,-6.26831,-1.44434,0,0,0,0,0,0,0,-1,734,743,-6.26832,1.44431
-483,281,-6.21478,-1.44678,0,0,0,0,0,0,0,-1,741,743,-6.2148,1.44679
-476,281,-9.01056,2.13123,0,0,0,0,0,0,0,-1,748,743,-9.01054,-2.13122
-469,281,-9.26807,2.42468,-0.00792614,0.0171508,0.00316663,0.0175445,-0.00831983,1.44711,0.0152461,0.0490426,755,743,-9.26807,-2.42466
-462,281,-9.3996,2.61243,-0.00989521,0.0156315,0.00592073,0.0169379,-0.0112016,1.35363,0.0163585,0.0473727,762,743,-9.39963,-2.6124
-455,281,-9.50281,2.45471,-0.0117281,0.0119919,0.00890641,0.0149637,-0.0147,1.24874,0.0171266,0.0472722,769,743,-9.50279,-2.45471
-448,281,-9.60077,2.37231,-0.0129378,0.0053027,0.0120996,0.0113343,-0.0189694,1.10835,0.01768,0.0479929,776,743,-9.60077,-2.37229
-441,281,-9.89117,2.07117,0,0,0,0,0,0,0,-1,783,743,-9.89119,-2.0712
-434,281,0,0,0,0,0,0,0,0,0,-1,790,743,0,0
-427,281,0,0,0,0,0,0,0,0,0,-1,797,743,0,0
-420,281,0,0,0,0,0,0,0,0,0,-1,804,743,0,0
-413,281,0,0,0,0,0,0,0,0,0,-1,811,743,0,0
-406,281,0,0,0,0,0,0,0,0,0,-1,818,743,0,0
-399,281,0,0,0,0,0,0,0,0,0,-1,825,743,0,0
-392,281,0,0,0,0,0,0,0,0,0,-1,832,743,0,0
-385,281,0,0,0,0,0,0,0,0,0,-1,839,743,0,0
-378,281,0,0,0,0,0,0,0,0,0,-1,846,743,0,0
-371,281,0,0,0,0,0,0,0,0,0,-1,853,743,0,0
-364,281,0,0,0,0,0,0,0,0,0,-1,860,743,0,0
-357,281,0,0,0,0,0,0,0,0,0,-1,867,743,0,0
-350,281,0,0,0,0,0,0,0,0,0,-1,874,743,0,0
-343,281,0,0,0,0,0,0,0,0,0,-1,881,743,0,0
-336,281,0,0,0,0,0,0,0,0,0,-1,888,743,0,0
-329,281,0,0,0,0,0,0,0,0,0,-1,895,743,0,0
-322,281,0,0,0,0,0,0,0,0,0,-1,902,743,0,0
-315,281,0,0,0,0,0,0,0,0,0,-1,909,743,0,0
-308,281,0,0,0,0,0,0,0,0,0,-1,916,743,0,0
-301,281,0,0,0,0,0,0,0,0,0,-1,923,743,0,0
-294,281,0,0,0,0,0,0,0,0,0,-1,930,743,0,0
-287,281,0,0,0,0,0,0,0,0,0,-1,937,743,0,0
-280,281,0,0,0,0,0,0,0,0,0,-1,944,743,0,0
-273,281,0,0,0,0,0,0,0,0,0,-1,951,743,0,0
-266,281,0,0,0,0,0,0,0,0,0,-1,958,743,0,0
-259,281,0,0,0,0,0,0,0,0,0,-1,965,743,0,0
-252,281,0,0,0,0,0,0,0,0,0,-1,972,743,0,0
-245,281,0,0,0,0,0,0,0,0,0,-1,979,743,0,0
-238,281,0,0,0,0,0,0,0,0,0,-1,986,743,0,0
-231,281,0,0,0,0,0,0,0,0,0,-1,993,743,0,0
-224,281,0,0,0,0,0,0,0,0,0,-1,1000,743,0,0
-217,281,0,0,0,0,0,0,0,0,0,-1,1007,743,0,0
-210,281,0,0,0,0,0,0,0,0,0,-1,1014,743,0,0
-203,281,0,0,0,0,0,0,0,0,0,-1,1021,743,0,0
-196,281,0,0,0,0,0,0,0,0,0,-1,1028,743,0,0
-189,281,0,0,0,0,0,0,0,0,0,-1,1035,743,0,0
-182,281,0,0,0,0,0,0,0,0,0,-1,1042,743,0,0
-175,281,0,0,0,0,0,0,0,0,0,-1,1049,743,0,0
-168,281,0,0,0,0,0,0,0,0,0,-1,1056,743,0,0
-161,281,0,0,0,0,0,0,0,0,0,-1,1063,743,0,0
-154,281,0,0,0,0,0,0,0,0,0,-1,1070,743,0,0
-147,281,0,0,0,0,0,0,0,0,0,-1,1077,743,0,0
-140,281,0,0,0,0,0,0,0,0,0,-1,1084,743,0,0
-133,281,0,0,0,0,0,0,0,0,0,-1,1091,743,0,0
-126,281,0,0,0,0,0,0,0,0,0,-1,1098,743,0,0
-119,281,0,0,0,0,0,0,0,0,0,-1,1105,743,0,0
-112,281,0,0,0,0,0,0,0,0,0,-1,1112,743,0,0
-105,281,0,0,0,0,0,0,0,0,0,-1,1119,743,0,0
-98,281,0,0,0,0,0,0,0,0,0,-1,1126,743,0,0
-91,281,0,0,0,0,0,0,0,0,0,-1,1133,743,0,0
-84,281,0,0,0,0,0,0,0,0,0,-1,1140,743,0,0
-77,281,0,0,0,0,0,0,0,0,0,-1,1147,743,0,0
-70,281,0,0,0,0,0,0,0,0,0,-1,1154,743,0,0
-63,281,0,0,0,0,0,0,0,0,0,-1,1161,743,0,0
-56,281,0,0,0,0,0,0,0,0,0,-1,1168,743,0,0
-49,281,0,0,0,0,0,0,0,0,0,-1,1175,743,0,0
-42,281,0,0,0,0,0,0,0,0,0,-1,1182,743,0,0
-35,281,0,0,0,0,0,0,0,0,0,-1,1189,743,0,0
-28,281,0,0,0,0,0,0,0,0,0,-1,1196,743,0,0
-21,281,0,0,0,0,0,0,0,0,0,-1,1203,743,0,0
-14,281,0,0,0,0,0,0,0,0,0,-1,1210,743,0,0
-7,281,0,0,0,0,0,0,0,0,0,-1,1217,743,0,0
0,281,0,0,0,0,0,0,0,0,0,-1,1224,743,0,0
7,281,0,0,0,0,0,0,0,0,0,-1,1231,743,0,0
14,281,0,0,0,0,0,0,0,0,0,-1,1238,743,0,0
21,281,0,0,0,0,0,0,0,0,0,-1,1245,743,0,0
28,281,0,0,0,0,0,0,0,0,0,-1,1252,743,0,0
35,281,0,0,0,0,0,0,0,0,0,-1,1259,743,0,0
42,281,0,0,0,0,0,0,0,0,0,-1,1266,743,0,0
49,281,0,0,0,0,0,0,0,0,0,-1,1273,743,0,0
56,281,0,0,0,0,0,0,0,0,0,-1,1280,743,0,0
63,281,0,0,0,0,0,0,0,0,0,-1,1287,743,0,0
70,281,0,0,0,0,0,0,0,0,0,-1,1294,743,0,0
77,281,0,0,0,0,0,0,0,0,0,-1,1301,743,0,0
84,281,0,0,0,0,0,0,0,0,0,-1,1308,743,0,0
91,281,0,0,0,0,0,0,0,0,0,-1,1315,743,0,0
98,281,0,0,0,0,0,0,0,0,0,-1,1322,743,0,0
105,281,0,0,0,0,0,0,0,0,0,-1,1329,743,0,0
112,281,0,0,0,0,0,0,0,0,0,-1,1336,743,0,0
119,281,0,0,0,0,0,0,0,0,0,-1,1343,743,0,0
126,281,0,0,0,0,0,0,0,0,0,-1,1350,743,0,0
133,281,0,0,0,0,0,0,0,0,0,-1,1357,743,0,0
140,281,0,0,0,0,0,0,0,0,0,-1,1364,743,0,0
147,281,0,0,0,0,0,0,0,0,0,-1,1371,743,0,0
154,281,0,0,0,0,0,0,0,0,0,-1,1378,743,0,0
161,281,0,0,0,0,0,0,0,0,0,-1,1385,743,0,0
168,281,0,0,0,0,0,0,0,0,0,-1,1392,743,0,0
175,281,0,0,0,0,0,0,0,0,0,-1,1399,743,0,0
182,281,0,0,0,0,0,0,0,0,0,-1,1406,743,0,0
189,281,0,0,0,0,0,0,0,0,0,-1,1413,743,0,0
196,281,0,0,0,0,0,0,0,0,0,-1,1420,743,0,0
203,281,0,0,0,0,0,0,0,0,0,-1,1427,743,0,0
210,281,0,0,0,0,0,0,0,0,0,-1,1434,743,0,0
217,281,0,0,0,0,0,0,0,0,0,-1,1441,743,0,0
224,281,0,0,0,0,0,0,0,0,0,-1,1448,743,0,0
231,281,0,0,0,0,0,0,0,0,0,-1,1455,743,0,0
238,281,0,0,0,0,0,0,0,0,0,-1,1462,743,0,0
245,281,0,0,0,0,0,0,0,0,0,-1,1469,743,0,0
252,281,0,0,0,0,0,0,0,0,0,-1,1476,743,0,0
259,281,0,0,0,0,0,0,0,0,0,-1,1483,743,0,0
266,281,0,0,0,0,0,0,0,0,0,-1,1490,743,0,0
273,281,0,0,0,0,0,0,0,0,0,-1,1497,743,0,0
280,281,0,0,0,0,0,0,0,0,0,-1,1504,743,0,0
287,281,0,0,0,0,0,0,0,0,0,-1,1511,743,0,0
294,281,0,0,0,0,0,0,0,0,0,-1,1518,743,0,0
301,281,0,0,0,0,0,0,0,0,0,-1,1525,743,0,0
308,281,0,0,0,0,0,0,0,0,0,-1,1532,743,0,0
315,281,0,0,0,0,0,0,0,0,0,-1,1539,743,0,0
322,281,0,0,0,0,0,0,0,0,0,-1,1546,743,0,0
329,281,0,0,0,0,0,0,0,0,0,-1,1553,743,0,0
336,281,0,0,0,0,0,0,0,0,0,-1,1560,743,0,0
343,281,0,0,0,0,0,0,0,0,0,-1,1567,743,0,0
350,281,0,0,0,0,0,0,0,0,0,-1,1574,743,0,0
357,281,0,0,0,0,0,0,0,0,0,-1,1581,743,0,0
364,281,0,0,0,0,0,0,0,0,0,-1,1588,743,0,0
371,281,0,0,0,0,0,0,0,0,0,-1,1595,743,0,0
378,281,0,0,0,0,0,0,0,0,0,-1,1602,743,0,0
385,281,0,0,0,0,0,0,0,0,0,-1,1609,743,0,0
392,281,0,0,0,0,0,0,0,0,0,-1,1616,743,0,0
399,281,0,0,0,0,0,0,0,0,0,-1,1623,743,0,0
406,281,0,0,0,0,0,0,0,0,0,-1,1630,743,0,0
413,281,0,0,0,0,0,0,0,0,0,-1,1637,743,0,0
420,281,0,0,0,0,0,0,0,0,0,-1,1644,743,0,0
427,281,0,0,0,0,0,0,0,0,0,-1,1651,743,0,0
434,281,0,0,0,0,0,0,0,0,0,-1,1658,743,0,0
441,281,0,0,0,0,0,0,0,0,0,-1,1665,743,0,0
448,281,0,0,0,0,0,0,0,0,0,-1,1672,743,0,0
455,281,0,0,0,0,0,0,0,0,0,-1,1679,743,0,0
462,281,0,0,0,0,0,0,0,0,0,-1,1686,743,0,0
469,281,0,0,0,0,0,0,0,0,0,-1,1693,743,0,0
476,281,0,0,0,0,0,0,0,0,0,-1,1700,743,0,0
483,281,0,0,0,0,0,0,0,0,0,-1,1707,743,0,0
490,281,0,0,0,0,0,0,0,0,0,-1,1714,743,0,0
497,281,0,0,0,0,0,0,0,0,0,-1,1721,743,0,0
504,281,0,0,0,0,0,0,0,0,0,-1,1728,743,0,0
511,281,0,0,0,0,0,0,0,0,0,-1,1735,743,0,0
518,281,0,0,0,0,0,0,0,0,0,-1,1742,743,0,0
525,281,0,0,0,0,0,0,0,0,0,-1,1749,743,0,0
532,281,0,0,0,0,0,0,0,0,0,-1,1756,743,0,0
539,281,0,0,0,0,0,0,0,0,0,-1,1763,743,0,0
546,281,0,0,0,0,0,0,0,0,0,-1,1770,743,0,0
553,281,0,0,0,0,0,0,0,0,0,-1,1777,743,0,0
560,281,16.2712,3.38446,0.0487426,0.016968,-0.0174163,0.0564293,0.00928131,-0.415639,0.0349391,0.0451675,1784,743,16.2712,-3.38444
567,281,16.192,3.52802,0.0450785,0.0142862,-0.0160822,0.0519462,0.00741849,-0.403594,0.032442,0.0420128,1791,743,16.192,-3.52803
574,281,16.6277,2.88574,0.0396421,0.0130348,-0.0138583,0.0455489,0.0071281,-0.402907,0.0282908,0.0465668,1798,743,16.6277,-2.88571
581,281,16.4133,3.04889,0.0336699,0.011986,-0.011269,0.0384657,0.00719024,-0.402356,0.0236148,0.0450798,1805,743,16.4133,-3.0489
588,281,16.1298,3.40662,0,0,0,0,0,0,0,-1,1812,743,16.1298,-3.40662
595,281,16.2714,3.185,0,0,0,0,0,0,0,-1,1819,743,16.2714,-3.185
602,281,16.0502,3.49261,0,0,0,0,0,0,0,-1,1826,743,16.0502,-3.4926
609,281,15.8187,3.76251,0,0,0,0,0,0,0,-1,1833,743,15.8187,-3.76251
616,281,16.0756,3.79248,0,0,0,0,0,0,0,-1,1840,743,16.0755,-3.79247
623,281,11.3556,0.491882,0,0,0,0,0,0,0,-1,1847,743,11.3556,-0.491864
630,281,11.4879,0.605347,0.00479263,0.00355899,0.00181346,0.0060913,0.00226032,0.621468,0.00355557,0.0344638,1854,743,11.4879,-0.60537
637,281,11.5735,0.750122,0.00367418,0.00201683,0.00310845,0.00606252,-0.000371504,0.655134,0.00417103,0.0131528,1861,743,11.5735,-0.75012
644,281,11.5651,0.952332,0.00150672,0.000548084,0.00323143,0.00429419,-0.00223939,0.71177,0.00383384,0.0104413,1868,743,11.5651,-0.952301
651,281,11.5717,1.15363,0.000307872,0.000555412,0.0019798,0.0024153,-0.00155202,0.816616,0.00230854,0.0111408,1875,743,11.5716,-1.15365
658,281,11.5908,1.38062,0.000531094,0.000115429,0.000739977,0.00109187,-0.000445347,0.648494,0.000913304,0.0189851,1882,743,11.5908,-1.38064
665,281,11.5782,1.56989,0.00143522,0.000116708,-2.47545e-05,0.00143568,0.000116243,-0.0187657,0.000920824,0.0207107,1889,743,11.5783,-1.56991
672,281,11.5585,1.76648,0.00303393,-0.000196747,-0.000607945,0.00314454,-0.000307362,-0.17998,0.00220597,0.011729,1896,743,11.5584,-1.7665
679,281,11.5717,1.95288,0.00484168,-0.000258736,-0.00121752,0.00511741,-0.000534465,-0.222711,0.003603,0.0163474,1903,743,11.5716,-1.9529
686,281,11.571,2.11584,0.00717454,-0.000308983,-0.00191087,0.00763423,-0.000768672,-0.23608,0.0053641,0.0125921,1910,743,11.571,-2.11587
693,281,11.5752,2.31323,0.0107179,-0.000179555,-0.000948486,0.0107998,-0.000261492,-0.086174,0.00728861,0.0096821,1917,743,11.5753,-2.31325
700,281,11.5723,2.5415,0.0164276,0.000439026,0.00109466,0.0165022,0.000364427,0.0680421,0.010882,0.0164068,1924,743,11.5722,-2.54148
707,281,11.6038,2.58099,0.0234346,0.0014325,0.00413749,0.024187,0.000680171,0.179867,0.0159028,0.0335586,1931,743,11.6037,-2.58101
714,281,12.9338,2.38336,0,0,0,0,0,0,0,-1,1938,743,12.9338,-2.38334
721,281,12.0337,2.39545,0,0,0,0,0,0,0,-1,1945,743,12.0336,-2.39548
728,281,12.9244,2.15515,0,0,0,0,0,0,0,-1,1952,743,12.9244,-2.15517
735,281,14.3514,2.78046,0,0,0,0,0,0,0,-1,1959,743,14.3514,-2.78045
742,281,0,0,0,0,0,0,0,0,0,-1,1966,743,0,0
749,281,0,0,0,0,0,0,0,0,0,-1,1973,743,0,0
756,281,0,0,0,0,0,0,0,0,0,-1,1980,743,0,0
763,281,0,0,0,0,0,0,0,0,0,-1,1987,743,0,0
770,281,0,0,0,0,0,0,0,0,0,-1,1994,743,0,0
777,281,0,0,0,0,0,0,0,0,0,-1,2001,743,0,0
784,281,0,0,0,0,0,0,0,0,0,-1,2008,743,0,0
791,281,0,0,0,0,0,0,0,0,0,-1,2015,743,0,0
798,281,0,0,0,0,0,0,0,0,0,-1,2022,743,0,0
805,281,0,0,0,0,0,0,0,0,0,-1,2029,743,0,0
812,281,0,0,0,0,0,0,0,0,0,-1,2036,743,0,0
-700,274,0,0,0,0,0,0,0,0,0,-1,524,750,0,0
-693,274,0,0,0,0,0,0,0,0,0,-1,531,750,0,0
-686,274,0,0,0,0,0,0,0,0,0,-1,538,750,0,0
-679,274,0,0,0,0,0,0,0,0,0,-1,545,750,0,0
-672,274,0,0,0,0,0,0,0,0,0,-1,552,750,0,0
-665,274,0,0,0,0,0,0,0,0,0,-1,559,750,0,0
-658,274,0,0,0,0,0,0,0,0,0,-1,566,750,0,0
-651,274,0,0,0,0,0,0,0,0,0,-1,573,750,0,0
-644,274,0,0,0,0,0,0,0,0,0,-1,580,750,0,0
-637,274,0,0,0,0,0,0,0,0,0,-1,587,750,0,0
-630,274,0,0,0,0,0,0,0,0,0,-1,594,750,0,0
-623,274,-10.5657,6.49908,0,0,0,0,0,0,0,-1,601,750,-10.5657,-6.49907
-616,274,-3.90961,-1.64142,0,0,0,0,0,0,0,-1,608,750,-3.90962,1.64141
-609,274,-3.60339,-0.598083,0.0635794,0.0339292,-1.91798e-05,0.0635794,0.0339292,-0.000646869,0.0367353,0.047701,615,750,-3.60338,0.598106
-602,274,-3.21863,0.718567,0,0,0,0,0,0,0,-1,622,750,-3.2186,-0.718566
-595,274,-2.76154,2.08392,0,0,0,0,0,0,0,-1,629,750,-2.76154,-2.08395
-588,274,-6.68665,1.05457,0,0,0,0,0,0,0,-1,636,750,-6.68664,-1.05456
-581,274,-6.71802,0.751953,0.0172997,0.00500788,0.00725222,0.02066,0.00164764,0.433891,0.0132583,0.0361204,643,750,-6.71801,-0.751929
-574,274,-6.63733,0.532837,0.00899151,0.000549368,0.00798706,0.0138043,-0.00426342,0.542309,0.0109054,0.0171401,650,750,-6.63734,-0.53283
-567,274,-6.71375,0.383301,0.00313916,-0.00202013,0.00757524,0.00856194,-0.00744292,0.621289,0.00924793,0.0154903,657,750,-6.71377,-0.383329
-560,274,-6.70422,0.210083,0.000383106,-0.00198023,0.00598765,0.00530458,-0.0069017,0.687975,0.00706738,0.013446,664,750,-6.7042,-0.210103
-553,274,-6.7027,0.0474243,-0.00159263,-0.00144596,0.00454248,0.00302377,-0.00606236,0.793469,0.00534277,0.00890589,671,750,-6.70269,-0.04744
-546,274,-6.7193,-0.130554,-0.00157295,-0.0016429,0.003226,0.00161826,-0.00483412,0.779978,0.00387644,0.0107219,678,750,-6.71928,0.130541
-539,274,-6.7218,-0.304688,-0.000878092,-0.000981518,0.00206068,0.00113152,-0.00299113,0.772853,0.00245961,0.0109971,685,750,-6.72181,0.30469
-532,274,-6.71899,-0.486755,-0.000235194,-0.000582098,0.000374308,3.8977e-06,-0.00082119,0.56843,0.000548764,0.0112944,692,750,-6.71901,0.486734
-525,274,-6.71844,-0.666199,0.000315651,0.000444602,-0.00133524,0.00171692,-0.00095667,-0.809523,0.00156426,0.0118058,699,750,-6.71846,0.666209
-518,274,-6.71448,-0.851807,0.000600284,0.00230542,-0.00266104,0.00424713,-0.00134143,-0.940426,0.0033688,0.0117972,706,750,-6.71445,0.851814
-511,274,-6.72229,-1.05939,0.000497292,0.00545408,-0.0034479,0.00722192,-0.00127054,-1.09702,0.00528924,0.0112867,713,750,-6.72226,1.05938
-504,274,-6.71387,-1.27814,-5.47748e-05,0.00941599,-0.00388518,0.0108058,-0.00144463,-1.22725,0.00773056,0.0193233,720,750,-6.71385,1.27813
-497,274,-6.60284,-1.30988,-0.00143896,0.0131971,-0.00382311,0.0141356,-0.00237743,-1.33008,0.010308,0.0423743,727,750,-6.60286,1.30989
-490,274,-7.36542,-0.605408,0,0,0,0,0,0,0,-1,734,750,-7.36544,0.605409
-483,274,-8.539,-3.12067,0,0,0,0,0,0,0,-1,741,750,-8.539,3.12068
-476,274,-8.62872,-3.80713,0,0,0,0,0,0,0,-1,748,750,-8.62873,3.80712
-469,274,-9.61383,2.11218,-0.00899344,0.0230951,0.00200046,0.0232193,-0.00911767,1.50877,0.0192524,0.0494036,755,750,-9.61382,-2.11218
-462,274,-9.8136,2.01471,-0.011247,0.0231462,0.00515851,0.0239032,-0.012004,1.42508,0.0211071,0.0465717,762,750,-9.81358,-2.0147
-455,274,-9.82886,2.02399,-0.0133271,0.0212124,0.00889919,0.0233705,-0.0154851,1.33289,0.0225868,0.0459944,769,750,-9.82884,-2.02401
-448,274,-10.2339,1.66052,-0.0146386,0.0163434,0.0135698,0.0214463,-0.0197416,1.2111,0.0237866,0.0446672,776,750,-10.2339,-1.66054
-441,274,0,0,0,0,0,0,0,0,0,-1,783,750,0,0
-434,274,0,0,0,0,0,0,0,0,0,-1,790,750,0,0
-427,274,0,0,0,0,0,0,0,0,0,-1,797,750,0,0
-420,274,0,0,0,0,0,0,0,0,0,-1,804,750,0,0
-413,274,0,0,0,0,0,0,0,0,0,-1,811,750,0,0
-406,274,0,0,0,0,0,0,0,0,0,-1,818,750,0,0
-399,274,0,0,0,0,0,0,0,0,0,-1,825,750,0,0
-392,274,0,0,0,0,0,0,0,0,0,-1,832,750,0,0
-385,274,0,0,0,0,0,0,0,0,0,-1,839,750,0,0
-378,274,0,0,0,0,0,0,0,0,0,-1,846,750,0,0
-371,274,0,0,0,0,0,0,0,0,0,-1,853,750,0,0
-364,274,0,0,0,0,0,0,0,0,0,-1,860,750,0,0
-357,274,0,0,0,0,0,0,0,0,0,-1,867,750,0,0
-350,274,0,0,0,0,0,0,0,0,0,-1,874,750,0,0
-343,274,0,0,0,0,0,0,0,0,0,-1,881,750,0,0
-336,274,0,0,0,0,0,0,0,0,0,-1,888,750,0,0
-329,274,0,0,0,0,0,0,0,0,0,-1,895,750,0,0
-322,274,0,0,0,0,0,0,0,0,0,-1,902,750,0,0
-315,274,0,0,0,0,0,0,0,0,0,-1,909,750,0,0
-308,274,0,0,0,0,0,0,0,0,0,-1,916,750,0,0
-301,274,0,0,0,0,0,0,0,0,0,-1,923,750,0,0
-294,274,0,0,0,0,0,0,0,0,0,-1,930,750,0,0
-287,274,0,0,0,0,0,0,0,0,0,-1,937,750,0,0
-280,274,0,0,0,0,0,0,0,0,0,-1,944,750,0,0
-273,274,0,0,0,0,0,0,0,0,0,-1,951,750,0,0
-266,274,0,0,0,0,0,0,0,0,0,-1,958,750,0,0
-259,274,0,0,0,0,0,0,0,0,0,-1,965,750,0,0
-252,274,0,0,0,0,0,0,0,0,0,-1,972,750,0,0
-245,274,0,0,0,0,0,0,0,0,0,-1,979,750,0,0
-238,274,0,0,0,0,0,0,0,0,0,-1,986,750,0,0
-231,274,0,0,0,0,0,0,0,0,0,-1,993,750,0,0
-224,274,0,0,0,0,0,0,0,0,0,-1,1000,750,0,0
-217,274,0,0,0,0,0,0,0,0,0,-1,1007,750,0,0
-210,274,0,0,0,0,0,0,0,0,0,-1,1014,750,0,0
-203,274,0,0,0,0,0,0,0,0,0,-1,1021,750,0,0
-196,274,0,0,0,0,0,0,0,0,0,-1,1028,750,0,0
-189,274,0,0,0,0,0,0,0,0,0,-1,1035,750,0,0
-182,274,0,0,0,0,0,0,0,0,0,-1,1042,750,0,0
-175,274,0,0,0,0,0,0,0,0,0,-1,1049,750,0,0
-168,274,0,0,0,0,0,0,0,0,0,-1,1056,750,0,0
-161,274,0,0,0,0,0,0,0,0,0,-1,1063,750,0,0
-154,274,0,0,0,0,0,0,0,0,0,-1,1070,750,0,0
-147,274,0,0,0,0,0,0,0,0,0,-1,1077,750,0,0
-140,274,0,0,0,0,0,0,0,0,0,-1,1084,750,0,0
-133,274,0,0,0,0,0,0,0,0,0,-1,1091,750,0,0
-126,274,0,0,0,0,0,0,0,0,0,-1,1098,750,0,0
-119,274,0,0,0,0,0,0,0,0,0,-1,1105,750,0,0
-112,274,0,0,0,0,0,0,0,0,0,-1,1112,750,0,0
-105,274,0,0,0,0,0,0,0,0,0,-1,1119,750,0,0
-98,274,0,0,0,0,0,0,0,0,0,-1,1126,750,0,0
-91,274,0,0,0,0,0,0,0,0,0,-1,1133,750,0,0
-84,274,0,0,0,0,0,0,0,0,0,-1,1140,750,0,0
-77,274,0,0,0,0,0,0,0,0,0,-1,1147,750,0,0
-70,274,0,0,0,0,0,0,0,0,0,-1,1154,750,0,0
-63,274,0,0,0,0,0,0,0,0,0,-1,1161,750,0,0
-56,274,0,0,0,0,0,0,0,0,0,-1,1168,750,0,0
-49,274,0,0,0,0,0,0,0,0,0,-1,1175,750,0,0
-42,274,0,0,0,0,0,0,0,0,0,-1,1182,750,0,0
-35,274,0,0,0,0,0,0,0,0,0,-1,1189,750,0,0
-28,274,0,0,0,0,0,0,0,0,0,-1,1196,750,0,0
-21,274,0,0,0,0,0,0,0,0,0,-1,1203,750,0,0
-14,274,0,0,0,0,0,0,0,0,0,-1,1210,750,0,0
-7,274,0,0,0,0,0,0,0,0,0,-1,1217,750,0,0
0,274,0,0,0,0,0,0,0,0,0,-1,1224,750,0,0
7,274,0,0,0,0,0,0,0,0,0,-1,1231,750,0,0
14,274,0,0,0,0,0,0,0,0,0,-1,1238,750,0,0
21,274,0,0,0,0,0,0,0,0,0,-1,1245,750,0,0
28,274,0,0,0,0,0,0,0,0,0,-1,1252,750,0,0
35,274,0,0,0,0,0,0,0,0,0,-1,1259,750,0,0
42,274,0,0,0,0,0,0,0,0,0,-1,1266,750,0,0
49,274,0,0,0,0,0,0,0,0,0,-1,1273,750,0,0
56,274,0,0,0,0,0,0,0,0,0,-1,1280,750,0,0
63,274,0,0,0,0,0,0,0,0,0,-1,1287,750,0,0
70,274,0,0,0,0,0,0,0,0,0,-1,1294,750,0,0
77,274,0,0,0,0,0,0,0,0,0,-1,1301,750,0,0
84,274,0,0,0,0,0,0,0,0,0,-1,1308,750,0,0
91,274,0,0,0,0,0,0,0,0,0,-1,1315,750,0,0
98,274,0,0,0,0,0,0,0,0,0,-1,1322,750,0,0
105,274,0,0,0,0,0,0,0,0,0,-1,1329,750,0,0
112,274,0,0,0,0,0,0,0,0,0,-1,1336,750,0,0
119,274,0,0,0,0,0,0,0,0,0,-1,1343,750,0,0
126,274,0,0,0,0,0,0,0,0,0,-1,1350,750,0,0
133,274,0,0,0,0,0,0,0,0,0,-1,1357,750,0,0
140,274,0,0,0,0,0,0,0,0,0,-1,1364,750,0,0
147,274,0,0,0,0,0,0,0,0,0,-1,1371,750,0,0
154,274,0,0,0,0,0,0,0,0,0,-1,1378,750,0,0
161,274,0,0,0,0,0,0,0,0,0,-1,1385,750,0,0
168,274,0,0,0,0,0,0,0,0,0,-1,1392,750,0,0
175,274,0,0,0,0,0,0,0,0,0,-1,1399,750,0,0
182,274,0,0,0,0,0,0,0,0,0,-1,1406,750,0,0
189,274,0,0,0,0,0,0,0,0,0,-1,1413,750,0,0
196,274,0,0,0,0,0,0,0,0,0,-1,1420,750,0,0
203,274,0,0,0,0,0,0,0,0,0,-1,1427,750,0,0
210,274,0,0,0,0,0,0,0,0,0,-1,1434,750,0,0
217,274,0,0,0,0,0,0,0,0,0,-1,1441,750,0,0
224,274,0,0,0,0,0,0,0,0,0,-1,1448,750,0,0
231,274,0,0,0,0,0,0,0,0,0,-1,1455,750,0,0
238,274,0,0,0,0,0,0,0,0,0,-1,1462,750,0,0
245,274,0,0,0,0,0,0,0,0,0,-1,1469,750,0,0
252,274,0,0,0,0,0,0,0,0,0,-1,1476,750,0,0
259,274,0,0,0,0,0,0,0,0,0,-1,1483,750,0,0
266,274,0,0,0,0,0,0,0,0,0,-1,1490,750,0,0
273,274,0,0,0,0,0,0,0,0,0,-1,1497,750,0,0
280,274,0,0,0,0,0,0,0,0,0,-1,1504,750,0,0
287,274,0,0,0,0,0,0,0,0,0,-1,1511,750,0,0
294,274,0,0,0,0,0,0,0,0,0,-1,1518,750,0,0
301,274,0,0,0,0,0,0,0,0,0,-1,1525,750,0,0
308,274,0,0,0,0,0,0,0,0,0,-1,1532,750,0,0
315,274,0,0,0,0,0,0,0,0,0,-1,1539,750,0,0
322,274,0,0,0,0,0,0,0,0,0,-1,1546,750,0,0
329,274,0,0,0,0,0,0,0,0,0,-1,1553,750,0,0
336,274,0,0,0,0,0,0,0,0,0,-1,1560,750,0,0
343,274,0,0,0,0,0,0,0,0,0,-1,1567,750,0,0
350,274,0,0,0,0,0,0,0,0,0,-1,1574,750,0,0
357,274,0,0,0,0,0,0,0,0,0,-1,1581,750,0,0
364,274,0,0,0,0,0,0,0,0,0,-1,1588,750,0,0
371,274,0,0,0,0,0,0,0,0,0,-1,1595,750,0,0
378,274,0,0,0,0,0,0,0,0,0,-1,1602,750,0,0
385,274,0,0,0,0,0,0,0,0,0,-1,1609,750,0,0
392,274,0,0,0,0,0,0,0,0,0,-1,1616,750,0,0
399,274,0,0,0,0,0,0,0,0,0,-1,1623,750,0,0
406,274,0,0,0,0,0,0,0,0,0,-1,1630,750,0,0
413,274,0,0,0,0,0,0,0,0,0,-1,1637,750,0,0
420,274,0,0,0,0,0,0,0,0,0,-1,1644,750,0,0
427,274,0,0,0,0,0,0,0,0,0,-1,1651,750,0,0
434,274,0,0,0,0,0,0,0,0,0,-1,1658,750,0,0
441,274,0,0,0,0,0,0,0,0,0,-1,1665,750,0,0
448,274,0,0,0,0,0,0,0,0,0,-1,1672,750,0,0
455,274,0,0,0,0,0,0,0,0,0,-1,1679,750,0,0
462,274,0,0,0,0,0,0,0,0,0,-1,1686,750,0,0
469,274,0,0,0,0,0,0,0,0,0,-1,1693,750,0,0
476,274,0,0,0,0,0,0,0,0,0,-1,1700,750,0,0
483,274,0,0,0,0,0,0,0,0,0,-1,1707,750,0,0
490,274,0,0,0,0,0,0,0,0,0,-1,1714,750,0,0
497,274,0,0,0,0,0,0,0,0,0,-1,1721,750,0,0
504,274,0,0,0,0,0,0,0,0,0,-1,1728,750,0,0
511,274,0,0,0,0,0,0,0,0,0,-1,1735,750,0,0
518,274,0,0,0,0,0,0,0,0,0,-1,1742,750,0,0
525,274,0,0,0,0,0,0,0,0,0,-1,1749,750,0,0
532,274,0,0,0,0,0,0,0,0,0,-1,1756,750,0,0
539,274,0,0,0,0,0,0,0,0,0,-1,1763,750,0,0
546,274,0,0,0,0,0,0,0,0,0,-1,1770,750,0,0
553,274,0,0,0,0,0,0,0,0,0,-1,1777,750,0,0
560,274,16.9296,2.89294,0.0351781,0.0167979,-0.0239474,0.0516382,0.000337772,-0.602182,0.0343135,0.0453502,1784,750,16.9296,-2.89293
567,274,16.5656,3.22266,0.0357534,0.0142021,-0.0202639,0.0479286,0.00202689,-0.54103,0.0312987,0.0432362,1791,750,16.5655,-3.22265
574,274,16.8113,2.75598,0.0335384,0.0129469,-0.0159682,0.0422423,0.00424299,-0.499054,0.0268591,0.0448779,1798,750,16.8112,-2.75595
581,274,16.7079,2.88806,0.0296236,0.0119759,-0.0117348,0.0354819,0.00611756,-0.463027,0.0219021,0.0422462,1805,750,16.7078,-2.88807
588,274,16.4778,3.04645,0.025196,0.0107412,-0.00822329,0.0289166,0.00702063,-0.424883,0.0174158,0.0442947,1812,750,16.4778,-3.04647
595,274,16.3511,2.88727,0,0,0,0,0,0,0,-1,1819,750,16.3511,-2.88725
602,274,19.068,3.13159,0,0,0,0,0,0,0,-1,1826,750,19.068,-3.13161
609,274,19.1045,3.03326,0,0,0,0,0,0,0,-1,1833,750,19.1044,-3.03329
616,274,16.1261,3.18713,0,0,0,0,0,0,0,-1,1840,750,16.1261,-3.18716
623,274,11.7529,0.48114,0,0,0,0,0,0,0,-1,1847,750,11.753,-0.481136
630,274,11.7694,0.608093,0.00444694,0.00300606,0.00278267,0.00660092,0.000852083,0.658728,0.00414588,0.0399826,1854,750,11.7694,-0.608075
637,274,11.7727,0.755188,0.00317928,0.00168915,0.00366858,0.00617769,-0.00130927,0.685214,0.00461718,0.0122194,1861,750,11.7728,-0.755175
644,274,11.7675,0.94873,0.00101693,0.000253779,0.00378313,0.00443768,-0.00316697,0.735137,0.00441093,0.0109989,1868,750,11.7674,-0.948752
651,274,11.7705,1.14575,-0.000181678,0.000245656,0.0023893,0.00243082,-0.00236684,0.829993,0.00277002,0.0123727,1875,750,11.7705,-1.14575
658,274,11.7876,1.35284,-3.95306e-05,-0.000248959,0.000940263,0.000801831,-0.00109032,0.729943,0.00109666,0.015274,1882,750,11.7876,-1.35285
665,274,11.7881,1.59033,0.000764763,-0.000240604,7.75724e-05,0.000770713,-0.000246554,0.0765545,0.000612757,0.0158945,1889,750,11.788,-1.59032
672,274,11.7839,1.77222,0.0022984,-0.000521044,-0.000558903,0.00240515,-0.000627794,-0.188726,0.00184858,0.0131649,1896,750,11.7839,-1.77221
679,274,11.8011,1.94635,0.0039974,-0.000533842,-0.00114769,0.00427151,-0.000807951,-0.234444,0.0031517,0.0133205,1903,750,11.8012,-1.94635
686,274,11.7959,2.13446,0.00613123,-0.00050039,-0.00178343,0.00658042,-0.000949577,-0.246736,0.00473531,0.0135844,1910,750,11.7959,-2.13444
693,274,11.7806,2.32245,0.00942608,-0.000348313,-0.00063439,0.00946708,-0.000389315,-0.0645424,0.00644508,0.0108863,1917,750,11.7807,-2.32245
700,274,11.7751,2.52765,0.0148182,0.000145224,0.00162232,0.0149954,-3.20072e-05,0.108814,0.0100076,0.0124461,1924,750,11.7751,-2.52763
707,274,11.765,2.70911,0.0212713,0.000987867,0.00478762,0.0223446,-8.53911e-05,0.220528,0.0149249,0.0197977,1931,750,11.765,-2.70913
714,274,11.9281,2.61517,0.0293414,0.00215187,0.00958202,0.0323789,-0.000885645,0.306981,0.0218871,0.0393365,1938,750,11.9281,-2.61516
721,274,12.3597,2.38422,0.0394549,0.00418755,0.0170875,0.0463759,-0.0027334,0.384835,0.0318675,0.0449238,1945,750,12.3597,-2.38424
728,274,12.8843,2.12372,0,0,0,0,0,0,0,-1,1952,750,12.8842,-2.12369
735,274,11.4948,2.76038,0,0,0,0,0,0,0,-1,1959,750,11.4948,-2.76039
742,274,11.7815,-0.740234,0,0,0,0,0,0,0,-1,1966,750,11.7815,0.740253
749,274,0,0,0,0,0,0,0,0,0,-1,1973,750,0,0
756,274,0,0,0,0,0,0,0,0,0,-1,1980,750,0,0
763,274,0,0,0,0,0,0,0,0,0,-1,1987,750,0,0
770,274,0,0,0,0,0,0,0,0,0,-1,1994,750,0,0
777,274,0,0,0,0,0,0,0,0,0,-1,2001,750,0,0
784,274,0,0,0,0,0,0,0,0,0,-1,2008,750,0,0
791,274,0,0,0,0,0,0,0,0,0,-1,2015,750,0,0
798,274,0,0,0,0,0,0,0,0,0,-1,2022,750,0,0
805,274,0,0,0,0,0,0,0,0,0,-1,2029,750,0,0
812,274,0,0,0,0,0,0,0,0,0,-1,2036,750,0,0
-700,267,0,0,0,0,0,0,0,0,0,-1,524,757,0,0
-693,267,0,0,0,0,0,0,0,0,0,-1,531,757,0,0
-686,267,0,0,0,0,0,0,0,0,0,-1,538,757,0,0
-679,267,0,0,0,0,0,0,0,0,0,-1,545,757,0,0
-672,267,0,0,0,0,0,0,0,0,0,-1,552,757,0,0
-665,267,0,0,0,0,0,0,0,0,0,-1,559,757,0,0
-658,267,0,0,0,0,0,0,0,0,0,-1,566,757,0,0
-651,267,0,0,0,0,0,0,0,0,0,-1,573,757,0,0
-644,267,0,0,0,0,0,0,0,0,0,-1,580,757,0,0
-637,267,0,0,0,0,0,0,0,0,0,-1,587,757,0,0
-630,267,-10.806,6.01276,0.0999707,0.0842074,-0.0228224,0.116234,0.0679441,-0.619136,0.0674268,0.0438269,594,757,-10.806,-6.01277
-623,267,-10.2936,6.03168,0.0872739,0.0659931,-0.0147866,0.0948505,0.0584164,-0.47352,0.05525,0.0475454,601,757,-10.2936,-6.03165
-616,267,-9.74811,6.0274,0,0,0,0,0,0,0,-1,608,757,-9.74811,-6.02738
-609,267,-2.87665,0.555969,0,0,0,0,0,0,0,-1,615,757,-2.87666,-0.556
-602,267,-2.47418,1.69366,0,0,0,0,0,0,0,-1,622,757,-2.47419,-1.69366
-595,267,-6.83704,1.24377,0,0,0,0,0,0,0,-1,629,757,-6.83706,-1.24379
-588,267,-6.84961,1.00061,0.0251978,0.0137271,0.00388347,0.0263889,0.012536,0.297598,0.015242,0.046569,636,757,-6.84964,-1.00063
-581,267,-6.84027,0.753113,0.016401,0.00706634,0.00515216,0.0186856,0.00478179,0.417365,0.0112085,0.0274723,643,757,-6.84028,-0.753083
-574,267,-6.85461,0.559265,0.00871321,0.00215681,0.00626062,0.012502,-0.00163195,0.544215,0.00892848,0.0137523,650,757,-6.85463,-0.559243
-567,267,-6.89508,0.383118,0.00326722,-0.000892336,0.00630992,0.00783127,-0.00545639,0.626203,0.00771237,0.0193234,657,757,-6.89505,-0.38313
-560,267,-6.87341,0.205444,0.000669325,-0.00144811,0.0052566,0.00497276,-0.00575155,0.686024,0.00619712,0.0204237,664,757,-6.8734,-0.205472
-553,267,-6.89105,0.0645142,-0.00108061,-0.00137485,0.0042369,0.00301173,-0.00546718,0.768043,0.00496325,0.016466,671,757,-6.89106,-0.064524
-546,267,-6.90955,-0.136475,-0.00102701,-0.00189441,0.00327633,0.0018442,-0.00476562,0.719594,0.00393847,0.0108928,678,757,-6.90954,0.136479
-539,267,-6.89752,-0.327576,-0.000487685,-0.0011931,0.00220608,0.00139371,-0.0030745,0.706129,0.00263986,0.00998554,685,757,-6.89752,0.327584
-532,267,-6.88232,-0.503723,5.45448e-05,-0.000794877,0.00056002,0.000332687,-0.00107302,0.460975,0.000848274,0.010013,692,757,-6.88235,0.503743
-525,267,-6.89276,-0.664612,0.000525341,0.000274986,-0.00115132,0.00155827,-0.000757939,-0.731248,0.00136361,0.00989674,699,757,-6.89273,0.664638
-518,267,-6.90454,-0.829468,0.000741657,0.00220674,-0.00257224,0.00414871,-0.00120031,-0.924119,0.00324087,0.0101669,706,757,-6.90452,0.829457
-511,267,-6.89203,-1.03961,0.000610053,0.00546317,-0.00353749,0.00732636,-0.00125314,-1.08602,0.00535109,0.0140202,713,757,-6.89203,1.03962
-504,267,-6.9068,-1.21442,6.71148e-05,0.00954265,-0.00423409,0.0111589,-0.00154917,-1.20614,0.00800579,0.0265414,720,757,-6.9068,1.21444
-497,267,-6.78558,-0.981628,-0.0012845,0.01372,-0.00452381,0.0149783,-0.00254288,-1.29949,0.0109322,0.0427077,727,757,-6.78559,0.981647
-490,267,-6.95703,-0.674622,-0.00284413,0.0176512,-0.0043027,0.0185179,-0.00371077,-1.37204,0.0137501,0.0461542,734,757,-6.95703,0.674605
-483,267,-8.18304,-3.26331,-0.00468266,0.0210552,-0.0036893,0.0215735,-0.00520105,-1.4312,0.0163934,0.0454132,741,757,-8.18303,3.26332
-476,267,-8.29095,-3.99506,-0.00694794,0.024754,-0.00202507,0.0248828,-0.00707678,-1.50726,0.019383,0.0467647,748,757,-8.29095,3.99508
-469,267,-8.41827,-4.74335,0,0,0,0,0,0,0,-1,755,757,-8.41825,4.74333
-462,267,-10.233,1.50781,-0.0120003,0.0291401,0.00411456,0.0295476,-0.0124077,1.47209,0.0248876,0.0455962,762,757,-10.233,-1.50784
-455,267,-10.2388,1.59851,-0.0144422,0.0287327,0.008796,0.0304559,-0.0161654,1.37734,0.0273351,0.0482985,769,757,-10.2388,-1.5985
-448,267,-10.3251,1.63141,0,0,0,0,0,0,0,-1,776,757,-10.3251,-1.6314
-441,267,0,0,0,0,0,0,0,0,0,-1,783,757,0,0
-434,267,0,0,0,0,0,0,0,0,0,-1,790,757,0,0
-427,267,0,0,0,0,0,0,0,0,0,-1,797,757,0,0
-420,267,0,0,0,0,0,0,0,0,0,-1,804,757,0,0
-413,267,0,0,0,0,0,0,0,0,0,-1,811,757,0,0
-406,267,0,0,0,0,0,0,0,0,0,-1,818,757,0,0
-399,267,0,0,0,0,0,0,0,0,0,-1,825,757,0,0
-392,267,0,0,0,0,0,0,0,0,0,-1,832,757,0,0
-385,267,0,0,0,0,0,0,0,0,0,-1,839,757,0,0
-378,267,0,0,0,0,0,0,0,0,0,-1,846,757,0,0
-371,267,0,0,0,0,0,0,0,0,0,-1,853,757,0,0
-364,267,0,0,0,0,0,0,0,0,0,-1,860,757,0,0
-357,267,0,0,0,0,0,0,0,0,0,-1,867,757,0,0
-350,267,0,0,0,0,0,0,0,0,0,-1,874,757,0,0
-343,267,0,0,0,0,0,0,0,0,0,-1,881,757,0,0
-336,267,0,0,0,0,0,0,0,0,0,-1,888,757,0,0
-329,267,0,0,0,0,0,0,0,0,0,-1,895,757,0,0
-322,267,0,0,0,0,0,0,0,0,0,-1,902,757,0,0
-315,267,0,0,0,0,0,0,0,0,0,-1,909,757,0,0
-308,267,0,0,0,0,0,0,0,0,0,-1,916,757,0,0
-301,267,0,0,0,0,0,0,0,0,0,-1,923,757,0,0
-294,267,0,0,0,0,0,0,0,0,0,-1,930,757,0,0
-287,267,0,0,0,0,0,0,0,0,0,-1,937,757,0,0
-280,267,0,0,0,0,0,0,0,0,0,-1,944,757,0,0
-273,267,0,0,0,0,0,0,0,0,0,-1,951,757,0,0
-266,267,0,0,0,0,0,0,0,0,0,-1,958,757,0,0
-259,267,0,0,0,0,0,0,0,0,0,-1,965,757,0,0
-252,267,0,0,0,0,0,0,0,0,0,-1,972,757,0,0
-245,267,0,0,0,0,0,0,0,0,0,-1,979,757,0,0
-238,267,0,0,0,0,0,0,0,0,0,-1,986,757,0,0
-231,267,0,0,0,0,0,0,0,0,0,-1,993,757,0,0
-224,267,0,0,0,0,0,0,0,0,0,-1,1000,757,0,0
-217,267,0,0,0,0,0,0,0,0,0,-1,1007,757,0,0
-210,267,0,0,0,0,0,0,0,0,0,-1,1014,757,0,0
-203,267,0,0,0,0,0,0,0,0,0,-1,1021,757,0,0
-196,267,0,0,0,0,0,0,0,0,0,-1,1028,757,0,0
-189,267,0,0,0,0,0,0,0,0,0,-1,1035,757,0,0
-182,267,0,0,0,0,0,0,0,0,0,-1,1042,757,0,0
-175,267,0,0,0,0,0,0,0,0,0,-1,1049,757,0,0
-168,267,0,0,0,0,0,0,0,0,0,-1,1056,757,0,0
-161,267,0,0,0,0,0,0,0,0,0,-1,1063,757,0,0
-154,267,0,0,0,0,0,0,0,0,0,-1,1070,757,0,0
-147,267,0,0,0,0,0,0,0,0,0,-1,1077,757,0,0
-140,267,0,0,0,0,0,0,0,0,0,-1,1084,757,0,0
-133,267,0,0,0,0,0,0,0,0,0,-1,1091,757,0,0
-126,267,0,0,0,0,0,0,0,0,0,-1,1098,757,0,0
-119,267,0,0,0,0,0,0,0,0,0,-1,1105,757,0,0
-112,267,0,0,0,0,0,0,0,0,0,-1,1112,757,0,0
-105,267,0,0,0,0,0,0,0,0,0,-1,1119,757,0,0
-98,267,0,0,0,0,0,0,0,0,0,-1,1126,757,0,0
-91,267,0,0,0,0,0,0,0,0,0,-1,1133,757,0,0
-84,267,0,0,0,0,0,0,0,0,0,-1,1140,757,0,0
-77,267,0,0,0,0,0,0,0,0,0,-1,1147,757,0,0
-70,267,0,0,0,0,0,0,0,0,0,-1,1154,757,0,0
-63,267,0,0,0,0,0,0,0,0,0,-1,1161,757,0,0
-56,267,0,0,0,0,0,0,0,0,0,-1,1168,757,0,0
-49,267,0,0,0,0,0,0,0,0,0,-1,1175,757,0,0
-42,267,0,0,0,0,0,0,0,0,0,-1,1182,757,0,0
-35,267,0,0,0,0,0,0,0,0,0,-1,1189,757,0,0
-28,267,0,0,0,0,0,0,0,0,0,-1,1196,757,0,0
-21,267,0,0,0,0,0,0,0,0,0,-1,1203,757,0,0
-14,267,0,0,0,0,0,0,0,0,0,-1,1210,757,0,0
-7,267,0,0,0,0,0,0,0,0,0,-1,1217,757,0,0
0,267,0,0,0,0,0,0,0,0,0,-1,1224,757,0,0
7,267,0,0,0,0,0,0,0,0,0,-1,1231,757,0,0
14,267,0,0,0,0,0,0,0,0,0,-1,1238,757,0,0
21,267,0,0,0,0,0,0,0,0,0,-1,1245,757,0,0
28,267,0,0,0,0,0,0,0,0,0,-1,1252,757,0,0
35,267,0,0,0,0,0,0,0,0,0,-1,1259,757,0,0
42,267,0,0,0,0,0,0,0,0,0,-1,1266,757,0,0
49,267,0,0,0,0,0,0,0,0,0,-1,1273,757,0,0
56,267,0,0,0,0,0,0,0,0,0,-1,1280,757,0,0
63,267,0,0,0,0,0,0,0,0,0,-1,1287,757,0,0
70,267,0,0,0,0,0,0,0,0,0,-1,1294,757,0,0
77,267,0,0,0,0,0,0,0,0,0,-1,1301,757,0,0
84,267,0,0,0,0,0,0,0,0,0,-1,1308,757,0,0
91,267,0,0,0,0,0,0,0,0,0,-1,1315,757,0,0
98,267,0,0,0,0,0,0,0,0,0,-1,1322,757,0,0
105,267,0,0,0,0,0,0,0,0,0,-1,1329,757,0,0
112,267,0,0,0,0,0,0,0,0,0,-1,1336,757,0,0
119,267,0,0,0,0,0,0,0,0,0,-1,1343,757,0,0
126,267,0,0,0,0,0,0,0,0,0,-1,1350,757,0,0
133,267,0,0,0,0,0,0,0,0,0,-1,1357,757,0,0
140,267,0,0,0,0,0,0,0,0,0,-1,1364,757,0,0
147,267,0,0,0,0,0,0,0,0,0,-1,1371,757,0,0
154,267,0,0,0,0,0,0,0,0,0,-1,1378,757,0,0
161,267,0,0,0,0,0,0,0,0,0,-1,1385,757,0,0
168,267,0,0,0,0,0,0,0,0,0,-1,1392,757,0,0
175,267,0,0,0,0,0,0,0,0,0,-1,1399,757,0,0
182,267,0,0,0,0,0,0,0,0,0,-1,1406,757,0,0
189,267,0,0,0,0,0,0,0,0,0,-1,1413,757,0,0
196,267,0,0,0,0,0,0,0,0,0,-1,1420,757,0,0
203,267,0,0,0,0,0,0,0,0,0,-1,1427,757,0,0
210,267,0,0,0,0,0,0,0,0,0,-1,1434,757,0,0
217,267,0,0,0,0,0,0,0,0,0,-1,1441,757,0,0
224,267,0,0,0,0,0,0,0,0,0,-1,1448,757,0,0
231,267,0,0,0,0,0,0,0,0,0,-1,1455,757,0,0
238,267,0,0,0,0,0,0,0,0,0,-1,1462,757,0,0
245,267,0,0,0,0,0,0,0,0,0,-1,1469,757,0,0
252,267,0,0,0,0,0,0,0,0,0,-1,1476,757,0,0
259,267,0,0,0,0,0,0,0,0,0,-1,1483,757,0,0
266,267,0,0,0,0,0,0,0,0,0,-1,1490,757,0,0
273,267,0,0,0,0,0,0,0,0,0,-1,1497,757,0,0
280,267,0,0,0,0,0,0,0,0,0,-1,1504,757,0,0
287,267,0,0,0,0,0,0,0,0,0,-1,1511,757,0,0
294,267,0,0,0,0,0,0,0,0,0,-1,1518,757,0,0
301,267,0,0,0,0,0,0,0,0,0,-1,1525,757,0,0
308,267,0,0,0,0,0,0,0,0,0,-1,1532,757,0,0
315,267,0,0,0,0,0,0,0,0,0,-1,1539,757,0,0
322,267,0,0,0,0,0,0,0,0,0,-1,1546,757,0,0
329,267,0,0,0,0,0,0,0,0,0,-1,1553,757,0,0
336,267,0,0,0,0,0,0,0,0,0,-1,1560,757,0,0
343,267,0,0,0,0,0,0,0,0,0,-1,1567,757,0,0
350,267,0,0,0,0,0,0,0,0,0,-1,1574,757,0,0
357,267,0,0,0,0,0,0,0,0,0,-1,1581,757,0,0
364,267,0,0,0,0,0,0,0,0,0,-1,1588,757,0,0
371,267,0,0,0,0,0,0,0,0,0,-1,1595,757,0,0
378,267,0,0,0,0,0,0,0,0,0,-1,1602,757,0,0
385,267,0,0,0,0,0,0,0,0,0,-1,1609,757,0,0
392,267,0,0,0,0,0,0,0,0,0,-1,1616,757,0,0
399,267,0,0,0,0,0,0,0,0,0,-1,1623,757,0,0
406,267,0,0,0,0,0,0,0,0,0,-1,1630,757,0,0
413,267,0,0,0,0,0,0,0,0,0,-1,1637,757,0,0
420,267,0,0,0,0,0,0,0,0,0,-1,1644,757,0,0
427,267,0,0,0,0,0,0,0,0,0,-1,1651,757,0,0
434,267,0,0,0,0,0,0,0,0,0,-1,1658,757,0,0
441,267,0,0,0,0,0,0,0,0,0,-1,1665,757,0,0
448,267,0,0,0,0,0,0,0,0,0,-1,1672,757,0,0
455,267,0,0,0,0,0,0,0,0,0,-1,1679,757,0,0
462,267,0,0,0,0,0,0,0,0,0,-1,1686,757,0,0
469,267,0,0,0,0,0,0,0,0,0,-1,1693,757,0,0
476,267,0,0,0,0,0,0,0,0,0,-1,1700,757,0,0
483,267,0,0,0,0,0,0,0,0,0,-1,1707,757,0,0
490,267,0,0,0,0,0,0,0,0,0,-1,1714,757,0,0
497,267,0,0,0,0,0,0,0,0,0,-1,1721,757,0,0
504,267,0,0,0,0,0,0,0,0,0,-1,1728,757,0,0
511,267,0,0,0,0,0,0,0,0,0,-1,1735,757,0,0
518,267,0,0,0,0,0,0,0,0,0,-1,1742,757,0,0
525,267,0,0,0,0,0,0,0,0,0,-1,1749,757,0,0
532,267,0,0,0,0,0,0,0,0,0,-1,1756,757,0,0
539,267,0,0,0,0,0,0,0,0,0,-1,1763,757,0,0
546,267,0,0,0,0,0,0,0,0,0,-1,1770,757,0,0
553,267,0,0,0,0,0,0,0,0,0,-1,1777,757,0,0
560,267,0,0,0,0,0,0,0,0,0,-1,1784,757,0,0
567,267,17.0786,2.78076,0.0265847,0.0139314,-0.0247726,0.0458258,-0.0053097,-0.660376,0.0324655,0.0398563,1791,757,17.0786,-2.78076
574,267,17.2106,2.68274,0.0275079,0.0125346,-0.0183965,0.0398828,0.000159634,-0.592153,0.0265355,0.0413789,1798,757,17.2106,-2.68277
581,267,17.0531,2.65686,0.0255402,0.0117233,-0.0125832,0.0329867,0.00427681,-0.534353,0.0207132,0.0392835,1805,757,17.0531,-2.65685
588,267,17.9539,2.27496,0.0222661,0.0105074,-0.00794751,0.0262725,0.00650092,-0.466938,0.0158003,0.0455832,1812,757,17.9539,-2.27497
595,267,18.6676,1.67145,0.0186241,0.00914482,-0.00436368,0.020327,0.00744196,-0.37206,0.0118752,0.0475265,1819,757,18.6677,-1.67148
602,267,18.7552,3.11462,0.0150444,0.00760894,-0.00178524,0.0154508,0.00720252,-0.223841,0.00892732,0.0468807,1826,757,18.7553,-3.11461
609,267,18.8087,3.00647,0.0116073,0.00644939,4.20009e-05,0.0116077,0.00644905,0.00814223,0.00671548,0.0449749,1833,757,18.8088,-3.0065
616,267,18.6182,2.88422,0,0,0,0,0,0,0,-1,1840,757,18.6181,-2.88425
623,267,12.0548,0.504578,0,0,0,0,0,0,0,-1,1847,757,12.0548,-0.504551
630,267,12.0654,0.659851,0.00370268,0.00238463,0.00350117,0.0066063,-0.000518999,0.692372,0.004587,0.0372498,1854,757,12.0654,-0.659841
637,267,12.007,0.727844,0.00235881,0.00127193,0.00396179,0.00581426,-0.00218352,0.717238,0.00477349,0.0218035,1861,757,12.0069,-0.727853
644,267,11.9777,0.94104,0.00028122,-9.49917e-05,0.00398465,0.0040822,-0.00389598,0.761812,0.00460662,0.0111546,1868,757,11.9777,-0.941041
651,267,11.9777,1.15564,-0.000819795,-0.000141931,0.00253487,0.00207656,-0.00303829,0.851858,0.00297041,0.0133392,1875,757,11.9777,-1.15562
658,267,11.9797,1.36005,-0.000696415,-0.000683964,0.000989858,0.000299688,-0.00168007,0.788543,0.00123215,0.014039,1882,757,11.9797,-1.36003
665,267,12.0007,1.57135,6.3096e-05,-0.000683256,9.62654e-05,7.53124e-05,-0.000695472,0.126229,0.000490683,0.0145552,1889,757,12.0007,-1.57136
672,267,12.0048,1.7666,0.00156615,-0.000913336,-0.000523687,0.00167222,-0.00101941,-0.19984,0.00156917,0.0126678,1896,757,12.0048,-1.76661
679,267,11.9972,1.94739,0.00321631,-0.000850117,-0.00102217,0.00345879,-0.0010926,-0.232918,0.00274356,0.01228,1903,757,11.9972,-1.94741
686,267,12.0117,2.15521,0.00523609,-0.000694203,-0.00154662,0.00561521,-0.00107332,-0.240389,0.0041478,0.0124577,1910,757,12.0117,-2.1552
693,267,11.9929,2.3269,0.0083599,-0.000451104,-0.000218388,0.00836531,-0.000456513,-0.0247655,0.0057351,0.0120738,1917,757,11.9929,-2.32688
700,267,11.9801,2.51947,0.0134967,4.30136e-05,0.00218956,0.0138441,-0.000304364,0.15734,0.00933248,0.0139069,1924,757,11.9801,-2.51945
707,267,11.9608,2.69867,0.0194817,0.000893386,0.00530659,0.0208899,-0.000514853,0.259396,0.0141014,0.0144144,1931,757,11.9608,-2.69866
714,267,11.9854,2.84894,0.0268386,0.00189002,0.00974302,0.0301926,-0.00146397,0.331539,0.0206337,0.028359,1938,757,11.9854,-2.84894
721,267,12.6666,2.74841,0.0360847,0.00365551,0.0166005,0.0430755,-0.0033353,0.398579,0.0298909,0.0416301,1945,757,12.6666,-2.74838
728,267,13.233,2.59161,0,0,0,0,0,0,0,-1,1952,757,13.233,-2.59159
735,267,13.6224,2.37689,0,0,0,0,0,0,0,-1,1959,757,13.6225,-2.3769
742,267,15.7389,3.70734,0,0,0,0,0,0,0,-1,1966,757,15.7389,-3.70735
749,267,0,0,0,0,0,0,0,0,0,-1,1973,757,0,0
756,267,0,0,0,0,0,0,0,0,0,-1,1980,757,0,0
763,267,0,0,0,0,0,0,0,0,0,-1,1987,757,0,0
770,267,0,0,0,0,0,0,0,0,0,-1,1994,757,0,0
777,267,0,0,0,0,0,0,0,0,0,-1,2001,757,0,0
784,267,0,0,0,0,0,0,0,0,0,-1,2008,757,0,0
791,267,0,0,0,0,0,0,0,0,0,-1,2015,757,0,0
798,267,0,0,0,0,0,0,0,0,0,-1,2022,757,0,0
805,267,0,0,0,0,0,0,0,0,0,-1,2029,757,0,0
812,267,0,0,0,0,0,0,0,0,0,-1,2036,757,0,0
-700,260,0,0,0,0,0,0,0,0,0,-1,524,764,0,0
-693,260,0,0,0,0,0,0,0,0,0,-1,531,764,0,0
-686,260,0,0,0,0,0,0,0,0,0,-1,538,764,0,0
-679,260,0,0,0,0,0,0,0,0,0,-1,545,764,0,0
-672,260,0,0,0,0,0,0,0,0,0,-1,552,764,0,0
-665,260,0,0,0,0,0,0,0,0,0,-1,559,764,0,0
-658,260,0,0,0,0,0,0,0,0,0,-1,566,764,0,0
-651,260,0,0,0,0,0,0,0,0,0,-1,573,764,0,0
-644,260,0,0,0,0,0,0,0,0,0,-1,580,764,0,0
-637,260,0,0,0,0,0,0,0,0,0,-1,587,764,0,0
-630,260,-10.3777,5.40009,0.0930006,0.0918173,-0.024415,0.116831,0.0679868,-0.773284,0.0677536,0.0463536,594,764,-10.3777,-5.40011
-623,260,-9.57245,5.02692,0.0809781,0.0731944,-0.0175996,0.0951111,0.0590615,-0.676584,0.0554456,0.0446494,601,764,-9.57244,-5.0269
-616,260,-8.97943,4.75128,0,0,0,0,0,0,0,-1,608,764,-8.97943,-4.75126
-609,260,-9.07739,5.21985,0,0,0,0,0,0,0,-1,615,764,-9.07739,-5.21987
-602,260,-8.21515,0.145569,0,0,0,0,0,0,0,-1,622,764,-8.21517,-0.145564
-595,260,-7.85883,0.256287,0,0,0,0,0,0,0,-1,629,764,-7.85883,-0.256267
-588,260,-7.47498,0.453674,0.0234844,0.0156921,0.00179732,0.023879,0.0152975,0.216108,0.0139671,0.041498,636,764,-7.47498,-0.45368
-581,260,-7.05896,0.697998,0.0154389,0.00835423,0.00329469,0.0167343,0.0070589,0.374594,0.00970083,0.0239468,643,764,-7.05896,-0.698017
-574,260,-7.08569,0.559998,0.00838142,0.00318496,0.00470317,0.0111563,0.000410052,0.53304,0.0073047,0.0153147,650,764,-7.08568,-0.560024
-567,260,-7.09344,0.372009,0.00335647,-0.000140783,0.00512646,0.00702433,-0.00380864,0.621037,0.00634561,0.0151182,657,764,-7.09346,-0.371995
-560,260,-7.0434,0.192322,0.000883622,-0.00114787,0.00452684,0.00450728,-0.00477152,0.675035,0.00535784,0.0176671,664,764,-7.04341,-0.192338
-553,260,-7.04547,0.0584717,-0.000692256,-0.00146228,0.00388321,0.00282498,-0.00497952,0.735986,0.0045628,0.0158876,671,764,-7.04545,-0.0584651
-546,260,-7.08856,-0.11554,-0.000720259,-0.00222026,0.00324758,0.00186279,-0.00480332,0.671917,0.00397153,0.010509,678,764,-7.08855,0.115552
-539,260,-7.07538,-0.310486,-0.000417957,-0.00149073,0.0023006,0.00140796,-0.00331664,0.670869,0.00280097,0.0103501,685,764,-7.07539,0.31049
-532,260,-7.06531,-0.481995,-1.8032e-05,-0.00110662,0.000761709,0.000373867,-0.00149852,0.47518,0.00114418,0.0124134,692,764,-7.06532,0.481977
-525,260,-7.06708,-0.657776,0.000375367,-6.25244e-05,-0.000883988,0.00106712,-0.000754277,-0.664002,0.00105674,0.0120854,699,764,-7.06709,0.657781
-518,260,-7.07776,-0.816956,0.000561934,0.00182758,-0.0023311,0.00361023,-0.00122071,-0.917938,0.00290065,0.0123492,706,764,-7.07778,0.81698
-511,260,-7.06201,-1.00183,0.000495888,0.0050236,-0.00342945,0.00686903,-0.00134954,-1.07713,0.0050892,0.0202276,713,764,-7.06203,1.00182
-504,260,-7.08215,-1.17102,7.72798e-05,0.00898453,-0.00433145,0.0107435,-0.00168168,-1.18505,0.00778368,0.0390617,720,764,-7.08213,1.17101
-497,260,-7.13104,-1.35394,0,0,0,0,0,0,0,-1,727,764,-7.13105,1.35392
-490,260,-7.89612,-2.47864,-0.00249809,0.0176457,-0.00513673,0.0188799,-0.00373235,-1.33499,0.0139976,0.0456114,734,764,-7.89613,2.47862
-483,260,-7.8371,-3.39435,-0.00425122,0.0219548,-0.00471177,0.0227762,-0.00507264,-1.3982,0.0171272,0.0439832,741,764,-7.83712,3.39438
-476,260,-8.1925,-4.17584,-0.00650509,0.0265378,-0.00323542,0.0268517,-0.00681891,-1.4741,0.0205546,0.0491535,748,764,-8.19253,4.17586
-469,260,-8.61194,-4.8136,0,0,0,0,0,0,0,-1,755,764,-8.61195,4.8136
-462,260,-10.8087,1.26617,-0.0120096,0.0332616,0.00361795,0.033549,-0.0122969,1.49155,0.0274007,0.0416613,762,764,-10.8087,-1.26617
-455,260,-10.8366,1.33331,-0.0147119,0.0338306,0.00966498,0.0356842,-0.0165655,1.38132,0.0308322,0.0460916,769,764,-10.8366,-1.33334
-448,260,0,0,0,0,0,0,0,0,0,-1,776,764,0,0
-441,260,0,0,0,0,0,0,0,0,0,-1,783,764,0,0
-434,260,0,0,0,0,0,0,0,0,0,-1,790,764,0,0
-427,260,0,0,0,0,0,0,0,0,0,-1,797,764,0,0
-420,260,0,0,0,0,0,0,0,0,0,-1,804,764,0,0
-413,260,0,0,0,0,0,0,0,0,0,-1,811,764,0,0
-406,260,0,0,0,0,0,0,0,0,0,-1,818,764,0,0
-399,260,0,0,0,0,0,0,0,0,0,-1,825,764,0,0
-392,260,0,0,0,0,0,0,0,0,0,-1,832,764,0,0
-385,260,0,0,0,0,0,0,0,0,0,-1,839,764,0,0
-378,260,0,0,0,0,0,0,0,0,0,-1,846,764,0,0
-371,260,0,0,0,0,0,0,0,0,0,-1,853,764,0,0
-364,260,0,0,0,0,0,0,0,0,0,-1,860,764,0,0
-357,260,0,0,0,0,0,0,0,0,0,-1,867,764,0,0
-350,260,0,0,0,0,0,0,0,0,0,-1,874,764,0,0
-343,260,0,0,0,0,0,0,0,0,0,-1,881,764,0,0
-336,260,0,0,0,0,0,0,0,0,0,-1,888,764,0,0
-329,260,0,0,0,0,0,0,0,0,0,-1,895,764,0,0
-322,260,0,0,0,0,0,0,0,0,0,-1,902,764,0,0
-315,260,0,0,0,0,0,0,0,0,0,-1,909,764,0,0
-308,260,0,0,0,0,0,0,0,0,0,-1,916,764,0,0
-301,260,0,0,0,0,0,0,0,0,0,-1,923,764,0,0
-294,260,0,0,0,0,0,0,0,0,0,-1,930,764,0,0
-287,260,0,0,0,0,0,0,0,0,0,-1,937,764,0,0
-280,260,0,0,0,0,0,0,0,0,0,-1,944,764,0,0
-273,260,0,0,0,0,0,0,0,0,0,-1,951,764,0,0
-266,260,0,0,0,0,0,0,0,0,0,-1,958,764,0,0
-259,260,0,0,0,0,0,0,0,0,0,-1,965,764,0,0
-252,260,0,0,0,0,0,0,0,0,0,-1,972,764,0,0
-245,260,0,0,0,0,0,0,0,0,0,-1,979,764,0,0
-238,260,0,0,0,0,0,0,0,0,0,-1,986,764,0,0
-231,260,0,0,0,0,0,0,0,0,0,-1,993,764,0,0
-224,260,0,0,0,0,0,0,0,0,0,-1,1000,764,0,0
-217,260,0,0,0,0,0,0,0,0,0,-1,1007,764,0,0
-210,260,0,0,0,0,0,0,0,0,0,-1,1014,764,0,0
-203,260,0,0,0,0,0,0,0,0,0,-1,1021,764,0,0
-196,260,0,0,0,0,0,0,0,0,0,-1,1028,764,0,0
-189,260,0,0,0,0,0,0,0,0,0,-1,1035,764,0,0
-182,260,0,0,0,0,0,0,0,0,0,-1,1042,764,0,0
-175,260,0,0,0,0,0,0,0,0,0,-1,1049,764,0,0
-168,260,0,0,0,0,0,0,0,0,0,-1,1056,764,0,0
-161,260,0,0,0,0,0,0,0,0,0,-1,1063,764,0,0
-154,260,0,0,0,0,0,0,0,0,0,-1,1070,764,0,0
-147,260,0,0,0,0,0,0,0,0,0,-1,1077,764,0,0
-140,260,0,0,0,0,0,0,0,0,0,-1,1084,764,0,0
-133,260,0,0,0,0,0,0,0,0,0,-1,1091,764,0,0
-126,260,0,0,0,0,0,0,0,0,0,-1,1098,764,0,0
-119,260,0,0,0,0,0,0,0,0,0,-1,1105,764,0,0
-112,260,0,0,0,0,0,0,0,0,0,-1,1112,764,0,0
-105,260,0,0,0,0,0,0,0,0,0,-1,1119,764,0,0
-98,260,0,0,0,0,0,0,0,0,0,-1,1126,764,0,0
-91,260,0,0,0,0,0,0,0,0,0,-1,1133,764,0,0
-84,260,0,0,0,0,0,0,0,0,0,-1,1140,764,0,0
-77,260,0,0,0,0,0,0,0,0,0,-1,1147,764,0,0
-70,260,0,0,0,0,0,0,0,0,0,-1,1154,764,0,0
-63,260,0,0,0,0,0,0,0,0,0,-1,1161,764,0,0
-56,260,0,0,0,0,0,0,0,0,0,-1,1168,764,0,0
-49,260,0,0,0,0,0,0,0,0,0,-1,1175,764,0,0
-42,260,0,0,0,0,0,0,0,0,0,-1,1182,764,0,0
-35,260,0,0,0,0,0,0,0,0,0,-1,1189,764,0,0
-28,260,0,0,0,0,0,0,0,0,0,-1,1196,764,0,0
-21,260,0,0,0,0,0,0,0,0,0,-1,1203,764,0,0
-14,260,0,0,0,0,0,0,0,0,0,-1,1210,764,0,0
-7,260,0,0,0,0,0,0,0,0,0,-1,1217,764,0,0
0,260,0,0,0,0,0,0,0,0,0,-1,1224,764,0,0
7,260,0,0,0,0,0,0,0,0,0,-1,1231,764,0,0
14,260,0,0,0,0,0,0,0,0,0,-1,1238,764,0,0
21,260,0,0,0,0,0,0,0,0,0,-1,1245,764,0,0
28,260,0,0,0,0,0,0,0,0,0,-1,1252,764,0,0
35,260,0,0,0,0,0,0,0,0,0,-1,1259,764,0,0
42,260,0,0,0,0,0,0,0,0,0,-1,1266,764,0,0
49,260,0,0,0,0,0,0,0,0,0,-1,1273,764,0,0
56,260,0,0,0,0,0,0,0,0,0,-1,1280,764,0,0
63,260,0,0,0,0,0,0,0,0,0,-1,1287,764,0,0
70,260,0,0,0,0,0,0,0,0,0,-1,1294,764,0,0
77,260,0,0,0,0,0,0,0,0,0,-1,1301,764,0,0
84,260,0,0,0,0,0,0,0,0,0,-1,1308,764,0,0
91,260,0,0,0,0,0,0,0,0,0,-1,1315,764,0,0
98,260,0,0,0,0,0,0,0,0,0,-1,1322,764,0,0
105,260,0,0,0,0,0,0,0,0,0,-1,1329,764,0,0
112,260,0,0,0,0,0,0,0,0,0,-1,1336,764,0,0
119,260,0,0,0,0,0,0,0,0,0,-1,1343,764,0,0
126,260,0,0,0,0,0,0,0,0,0,-1,1350,764,0,0
133,260,0,0,0,0,0,0,0,0,0,-1,1357,764,0,0
140,260,0,0,0,0,0,0,0,0,0,-1,1364,764,0,0
147,260,0,0,0,0,0,0,0,0,0,-1,1371,764,0,0
154,260,0,0,0,0,0,0,0,0,0,-1,1378,764,0,0
161,260,0,0,0,0,0,0,0,0,0,-1,1385,764,0,0
168,260,0,0,0,0,0,0,0,0,0,-1,1392,764,0,0
175,260,0,0,0,0,0,0,0,0,0,-1,1399,764,0,0
182,260,0,0,0,0,0,0,0,0,0,-1,1406,764,0,0
189,260,0,0,0,0,0,0,0,0,0,-1,1413,764,0,0
196,260,0,0,0,0,0,0,0,0,0,-1,1420,764,0,0
203,260,0,0,0,0,0,0,0,0,0,-1,1427,764,0,0
210,260,0,0,0,0,0,0,0,0,0,-1,1434,764,0,0
217,260,0,0,0,0,0,0,0,0,0,-1,1441,764,0,0
224,260,0,0,0,0,0,0,0,0,0,-1,1448,764,0,0
231,260,0,0,0,0,0,0,0,0,0,-1,1455,764,0,0
238,260,0,0,0,0,0,0,0,0,0,-1,1462,764,0,0
245,260,0,0,0,0,0,0,0,0,0,-1,1469,764,0,0
252,260,0,0,0,0,0,0,0,0,0,-1,1476,764,0,0
259,260,0,0,0,0,0,0,0,0,0,-1,1483,764,0,0
266,260,0,0,0,0,0,0,0,0,0,-1,1490,764,0,0
273,260,0,0,0,0,0,0,0,0,0,-1,1497,764,0,0
280,260,0,0,0,0,0,0,0,0,0,-1,1504,764,0,0
287,260,0,0,0,0,0,0,0,0,0,-1,1511,764,0,0
294,260,0,0,0,0,0,0,0,0,0,-1,1518,764,0,0
301,260,0,0,0,0,0,0,0,0,0,-1,1525,764,0,0
308,260,0,0,0,0,0,0,0,0,0,-1,1532,764,0,0
315,260,0,0,0,0,0,0,0,0,0,-1,1539,764,0,0
322,260,0,0,0,0,0,0,0,0,0,-1,1546,764,0,0
329,260,0,0,0,0,0,0,0,0,0,-1,1553,764,0,0
336,260,0,0,0,0,0,0,0,0,0,-1,1560,764,0,0
343,260,0,0,0,0,0,0,0,0,0,-1,1567,764,0,0
350,260,0,0,0,0,0,0,0,0,0,-1,1574,764,0,0
357,260,0,0,0,0,0,0,0,0,0,-1,1581,764,0,0
364,260,0,0,0,0,0,0,0,0,0,-1,1588,764,0,0
371,260,0,0,0,0,0,0,0,0,0,-1,1595,764,0,0
378,260,0,0,0,0,0,0,0,0,0,-1,1602,764,0,0
385,260,0,0,0,0,0,0,0,0,0,-1,1609,764,0,0
392,260,0,0,0,0,0,0,0,0,0,-1,1616,764,0,0
399,260,0,0,0,0,0,0,0,0,0,-1,1623,764,0,0
406,260,0,0,0,0,0,0,0,0,0,-1,1630,764,0,0
413,260,0,0,0,0,0,0,0,0,0,-1,1637,764,0,0
420,260,0,0,0,0,0,0,0,0,0,-1,1644,764,0,0
427,260,0,0,0,0,0,0,0,0,0,-1,1651,764,0,0
434,260,0,0,0,0,0,0,0,0,0,-1,1658,764,0,0
441,260,0,0,0,0,0,0,0,0,0,-1,1665,764,0,0
448,260,0,0,0,0,0,0,0,0,0,-1,1672,764,0,0
455,260,0,0,0,0,0,0,0,0,0,-1,1679,764,0,0
462,260,0,0,0,0,0,0,0,0,0,-1,1686,764,0,0
469,260,0,0,0,0,0,0,0,0,0,-1,1693,764,0,0
476,260,0,0,0,0,0,0,0,0,0,-1,1700,764,0,0
483,260,0,0,0,0,0,0,0,0,0,-1,1707,764,0,0
490,260,0,0,0,0,0,0,0,0,0,-1,1714,764,0,0
497,260,0,0,0,0,0,0,0,0,0,-1,1721,764,0,0
504,260,0,0,0,0,0,0,0,0,0,-1,1728,764,0,0
511,260,0,0,0,0,0,0,0,0,0,-1,1735,764,0,0
518,260,0,0,0,0,0,0,0,0,0,-1,1742,764,0,0
525,260,0,0,0,0,0,0,0,0,0,-1,1749,764,0,0
532,260,0,0,0,0,0,0,0,0,0,-1,1756,764,0,0
539,260,0,0,0,0,0,0,0,0,0,-1,1763,764,0,0
546,260,0,0,0,0,0,0,0,0,0,-1,1770,764,0,0
553,260,0,0,0,0,0,0,0,0,0,-1,1777,764,0,0
560,260,0,0,0,0,0,0,0,0,0,-1,1784,764,0,0
567,260,0,0,0,0,0,0,0,0,0,-1,1791,764,0,0
574,260,17.3789,2.46631,0,0,0,0,0,0,0,-1,1798,764,17.3789,-2.46629
581,260,17.4037,2.53503,0,0,0,0,0,0,0,-1,1805,764,17.4037,-2.53505
588,260,17.984,2.19586,0.0193479,0.0101455,-0.0076731,0.0236936,0.00579976,-0.515315,0.0142612,0.0440296,1812,764,17.984,-2.19585
595,260,18.4602,1.70288,0.0163399,0.00866911,-0.00350037,0.0176971,0.00731193,-0.36988,0.0102686,0.0465617,1819,764,18.4603,-1.70288
602,260,18.1899,2.84839,0.0132141,0.00708452,-0.000593959,0.0132712,0.00702749,-0.0957133,0.00766656,0.0454941,1826,764,18.1899,-2.8484
609,260,18.5381,2.98163,0.0101063,0.00570252,0.00128511,0.0104539,0.00535494,0.26415,0.00603618,0.039498,1833,764,18.5381,-2.98163
616,260,18.4286,2.83997,0.00756706,0.00402165,0.00274035,0.00905809,0.00253061,0.498305,0.00539673,0.0435662,1840,764,18.4285,-2.84
623,260,18.1346,2.73077,0,0,0,0,0,0,0,-1,1847,764,18.1346,-2.73078
630,260,12.1714,0.594727,0,0,0,0,0,0,0,-1,1854,764,12.1713,-0.594757
637,260,12.1653,0.761536,0.00147839,0.000801179,0.00412293,0.0052766,-0.00299703,0.744426,0.00483684,0.0427014,1861,764,12.1653,-0.761509
644,260,12.1755,0.929321,-0.000471747,-0.000428199,0.00404182,0.0035919,-0.00449185,0.788092,0.00467679,0.0224713,1868,764,12.1755,-0.929342
651,260,12.2037,1.16565,-0.00147683,-0.00051077,0.00261244,0.00166292,-0.00365052,0.876814,0.00313844,0.0129352,1875,764,12.2038,-1.16563
658,260,12.2089,1.36993,-0.00140503,-0.00106936,0.00105171,-0.000172179,-0.00230221,0.864522,0.00148076,0.0155018,1882,764,12.2088,-1.36996
665,260,12.2032,1.56195,-0.000739924,-0.00107443,0.000144838,-0.000685927,-0.00112843,0.35685,0.000656531,0.0154574,1889,764,12.2033,-1.56194
672,260,12.2059,1.76123,0.000685456,-0.00126043,-0.000463421,0.000790186,-0.00136516,-0.222258,0.00125906,0.0133432,1896,764,12.206,-1.7612
679,260,12.1849,1.9566,0.00227347,-0.00113187,-0.000880684,0.00248775,-0.00134615,-0.238671,0.00224597,0.0123994,1903,764,12.185,-1.95658
686,260,12.1979,2.15948,0.00418906,-0.000863884,-0.00132015,0.00451318,-0.001188,-0.240753,0.00347319,0.0141183,1910,764,12.1978,-2.15946
693,260,12.1857,2.32446,0.00711888,-0.00050557,9.02212e-05,0.00711995,-0.000506637,0.0118309,0.00492421,0.0141021,1917,764,12.1857,-2.32446
700,260,12.1643,2.5318,0.0118897,8.71901e-05,0.00251967,0.0124051,-0.000428216,0.20177,0.00841646,0.0137015,1924,764,12.1643,-2.53183
707,260,12.1464,2.7204,0.0172922,0.000997547,0.00544258,0.0189429,-0.000653113,0.294469,0.0128518,0.0143893,1931,764,12.1464,-2.72042
714,260,12.1426,2.91058,0.0238036,0.0018827,0.00938394,0.0272719,-0.00158564,0.354031,0.0187322,0.0236719,1938,764,12.1425,-2.91057
721,260,12.1599,3.13257,0.0320399,0.00346598,0.015446,0.0387933,-0.00328741,0.41218,0.0270248,0.0425564,1945,764,12.1599,-3.13254
728,260,12.1594,3.35406,0,0,0,0,0,0,0,-1,1952,764,12.1594,-3.35408
735,260,12.1218,3.64581,0,0,0,0,0,0,0,-1,1959,764,12.1219,-3.64579
742,260,15.2886,3.7005,0.0686725,0.0134492,0.0501088,0.0982735,-0.0161519,0.53358,0.0715103,0.0440716,1966,764,15.2886,-3.70048
749,260,15.0094,4.60071,0.0846973,0.0190577,0.0683988,0.127743,-0.0239877,0.561707,0.0941816,0.0499253,1973,764,15.0094,-4.60074
756,260,0,0,0,0,0,0,0,0,0,-1,1980,764,0,0
763,260,0,0,0,0,0,0,0,0,0,-1,1987,764,0,0
770,260,0,0,0,0,0,0,0,0,0,-1,1994,764,0,0
777,260,0,0,0,0,0,0,0,0,0,-1,2001,764,0,0
784,260,0,0,0,0,0,0,0,0,0,-1,2008,764,0,0
791,260,0,0,0,0,0,0,0,0,0,-1,2015,764,0,0
798,260,0,0,0,0,0,0,0,0,0,-1,2022,764,0,0
805,260,0,0,0,0,0,0,0,0,0,-1,2029,764,0,0
812,260,0,0,0,0,0,0,0,0,0,-1,2036,764,0,0
-700,253,0,0,0,0,0,0,0,0,0,-1,524,771,0,0
-693,253,0,0,0,0,0,0,0,0,0,-1,531,771,0,0
-686,253,0,0,0,0,0,0,0,0,0,-1,538,771,0,0
-679,253,0,0,0,0,0,0,0,0,0,-1,545,771,0,0
-672,253,0,0,0,0,0,0,0,0,0,-1,552,771,0,0
-665,253,0,0,0,0,0,0,0,0,0,-1,559,771,0,0
-658,253,0,0,0,0,0,0,0,0,0,-1,566,771,0,0
-651,253,0,0,0,0,0,0,0,0,0,-1,573,771,0,0
-644,253,0,0,0,0,0,0,0,0,0,-1,580,771,0,0
-637,253,-10.6892,5.04675,0.0943459,0.1208,-0.0277352,0.1383,0.076845,-1.0079,0.0800124,0.0484886,587,771,-10.6892,-5.04676
-630,253,-10.1661,4.7182,0.0853239,0.0973539,-0.0232558,0.11536,0.0673178,-0.911947,0.0669123,0.0492099,594,771,-10.1661,-4.71818
-623,253,-9.4566,4.47656,0.0742627,0.0780558,-0.0180228,0.0942815,0.058037,-0.83782,0.054916,0.0489048,601,771,-9.45658,-4.47655
-616,253,-9.38666,4.68201,0,0,0,0,0,0,0,-1,608,771,-9.38663,-4.68203
-609,253,-8.76379,4.75641,0.0511286,0.0475694,-0.00883235,0.0583588,0.0403391,-0.685986,0.0345051,0.0466896,615,771,-8.76381,-4.75639
-602,253,-8.20404,4.8479,0,0,0,0,0,0,0,-1,622,771,-8.20405,-4.84791
-595,253,-7.45013,0.107117,0,0,0,0,0,0,0,-1,629,771,-7.45015,-0.107122
-588,253,-7.3559,0.365173,0.0222096,0.0168707,-0.000376539,0.0222361,0.0168443,-0.0700648,0.0133936,0.0366109,636,771,-7.35589,-0.365192
-581,253,-7.22961,0.669922,0.0148996,0.00913023,0.00116879,0.0151274,0.00890244,0.192477,0.0087793,0.022372,643,771,-7.2296,-0.669907
-574,253,-7.25739,0.531433,0.00846918,0.00393331,0.00275525,0.00976985,0.00263264,0.441055,0.00583706,0.0190217,650,771,-7.25741,-0.531446
-567,253,-7.26953,0.354004,0.00382909,0.000536979,0.00350901,0.00605894,-0.00169287,0.566088,0.00470619,0.0153563,657,771,-7.26956,-0.353993
-560,253,-7.22614,0.216614,0.00142232,-0.000868864,0.00337691,0.00384266,-0.00328921,0.621868,0.00412172,0.0119812,664,771,-7.22614,-0.216584
-553,253,-7.21741,0.0680542,-2.39615e-06,-0.00150113,0.00312602,0.00246283,-0.00396635,0.667759,0.00374557,0.0112107,671,771,-7.21744,-0.0680615
-546,253,-7.25415,-0.0991821,-0.000131432,-0.00247594,0.00286168,0.00178879,-0.00439617,0.591004,0.00367513,0.0100988,678,771,-7.25417,0.0992053
-539,253,-7.25812,-0.296082,-2.21973e-05,-0.00181821,0.00213915,0.00139979,-0.0032402,0.586671,0.00274824,0.0106878,685,771,-7.2581,0.296069
-532,253,-7.25684,-0.471069,0.000300843,-0.0015031,0.000827298,0.000622788,-0.00182505,0.371121,0.00146898,0.0144074,692,771,-7.25684,0.471098
-525,253,-7.24493,-0.644165,0.000642552,-0.000562801,-0.000634692,0.00091512,-0.000835369,-0.405633,0.00101099,0.0124381,699,771,-7.24493,0.644193
-518,253,-7.2489,-0.801086,0.000803096,0.00117029,-0.0019887,0.00298385,-0.00101046,-0.831428,0.00239809,0.0151942,706,771,-7.24891,0.801093
-511,253,-7.32703,-0.963928,0.000748901,0.00413756,-0.00308016,0.00595864,-0.00107218,-1.03685,0.00437385,0.0332054,713,771,-7.32702,0.963941
-504,253,-7.24622,-1.03986,0.000443176,0.00781081,-0.0040924,0.0096332,-0.00137921,-1.15185,0.00692778,0.0468959,720,771,-7.2462,1.03986
-497,253,-7.30316,-1.61871,-0.000488403,0.0120706,-0.00498042,0.0138059,-0.00222368,-1.23553,0.0100277,0.046202,727,771,-7.30318,1.61871
-490,253,-7.3656,-2.7276,-0.00173035,0.0165969,-0.0055117,0.0181267,-0.00326022,-1.30004,0.0133051,0.0458077,734,771,-7.36558,2.72758
-483,253,-7.30646,-3.67535,0,0,0,0,0,0,0,-1,741,771,-7.30643,3.67533
-476,253,-8.24792,-3.8208,0,0,0,0,0,0,0,-1,748,771,-8.2479,3.82081
-469,253,-10.9627,1.1333,-0.00843599,0.0309216,-0.00162705,0.0309888,-0.00850314,-1.52955,0.024001,0.0424494,755,771,-10.9627,-1.13331
-462,253,-11.1148,0.930237,-0.0118137,0.0343547,0.00295407,0.0345429,-0.0120019,1.50716,0.0279033,0.0419474,762,771,-11.1148,-0.930232
-455,253,-11.1411,0.827698,0,0,0,0,0,0,0,-1,769,771,-11.1411,-0.827673
-448,253,0,0,0,0,0,0,0,0,0,-1,776,771,0,0
-441,253,0,0,0,0,0,0,0,0,0,-1,783,771,0,0
-434,253,0,0,0,0,0,0,0,0,0,-1,790,771,0,0
-427,253,0,0,0,0,0,0,0,0,0,-1,797,771,0,0
-420,253,0,0,0,0,0,0,0,0,0,-1,804,771,0,0
-413,253,0,0,0,0,0,0,0,0,0,-1,811,771,0,0
-406,253,0,0,0,0,0,0,0,0,0,-1,818,771,0,0
-399,253,0,0,0,0,0,0,0,0,0,-1,825,771,0,0
-392,253,0,0,0,0,0,0,0,0,0,-1,832,771,0,0
-385,253,0,0,0,0,0,0,0,0,0,-1,839,771,0,0
-378,253,0,0,0,0,0,0,0,0,0,-1,846,771,0,0
-371,253,0,0,0,0,0,0,0,0,0,-1,853,771,0,0
-364,253,0,0,0,0,0,0,0,0,0,-1,860,771,0,0
-357,253,0,0,0,0,0,0,0,0,0,-1,867,771,0,0
-350,253,0,0,0,0,0,0,0,0,0,-1,874,771,0,0
-343,253,0,0,0,0,0,0,0,0,0,-1,881,771,0,0
-336,253,0,0,0,0,0,0,0,0,0,-1,888,771,0,0
-329,253,0,0,0,0,0,0,0,0,0,-1,895,771,0,0
-322,253,0,0,0,0,0,0,0,0,0,-1,902,771,0,0
-315,253,0,0,0,0,0,0,0,0,0,-1,909,771,0,0
-308,253,0,0,0,0,0,0,0,0,0,-1,916,771,0,0
-301,253,0,0,0,0,0,0,0,0,0,-1,923,771,0,0
-294,253,0,0,0,0,0,0,0,0,0,-1,930,771,0,0
-287,253,0,0,0,0,0,0,0,0,0,-1,937,771,0,0
-280,253,0,0,0,0,0,0,0,0,0,-1,944,771,0,0
-273,253,0,0,0,0,0,0,0,0,0,-1,951,771,0,0
-266,253,0,0,0,0,0,0,0,0,0,-1,958,771,0,0
-259,253,0,0,0,0,0,0,0,0,0,-1,965,771,0,0
-252,253,0,0,0,0,0,0,0,0,0,-1,972,771,0,0
-245,253,0,0,0,0,0,0,0,0,0,-1,979,771,0,0
-238,253,0,0,0,0,0,0,0,0,0,-1,986,771,0,0
-231,253,0,0,0,0,0,0,0,0,0,-1,993,771,0,0
-224,253,0,0,0,0,0,0,0,0,0,-1,1000,771,0,0
-217,253,0,0,0,0,0,0,0,0,0,-1,1007,771,0,0
-210,253,0,0,0,0,0,0,0,0,0,-1,1014,771,0,0
-203,253,0,0,0,0,0,0,0,0,0,-1,1021,771,0,0
-196,253,0,0,0,0,0,0,0,0,0,-1,1028,771,0,0
-189,253,0,0,0,0,0,0,0,0,0,-1,1035,771,0,0
-182,253,0,0,0,0,0,0,0,0,0,-1,1042,771,0,0
-175,253,0,0,0,0,0,0,0,0,0,-1,1049,771,0,0
-168,253,0,0,0,0,0,0,0,0,0,-1,1056,771,0,0
-161,253,0,0,0,0,0,0,0,0,0,-1,1063,771,0,0
-154,253,0,0,0,0,0,0,0,0,0,-1,1070,771,0,0
-147,253,0,0,0,0,0,0,0,0,0,-1,1077,771,0,0
-140,253,0,0,0,0,0,0,0,0,0,-1,1084,771,0,0
-133,253,0,0,0,0,0,0,0,0,0,-1,1091,771,0,0
-126,253,0,0,0,0,0,0,0,0,0,-1,1098,771,0,0
-119,253,0,0,0,0,0,0,0,0,0,-1,1105,771,0,0
-112,253,0,0,0,0,0,0,0,0,0,-1,1112,771,0,0
-105,253,0,0,0,0,0,0,0,0,0,-1,1119,771,0,0
-98,253,0,0,0,0,0,0,0,0,0,-1,1126,771,0,0
-91,253,0,0,0,0,0,0,0,0,0,-1,1133,771,0,0
-84,253,0,0,0,0,0,0,0,0,0,-1,1140,771,0,0
-77,253,0,0,0,0,0,0,0,0,0,-1,1147,771,0,0
-70,253,0,0,0,0,0,0,0,0,0,-1,1154,771,0,0
-63,253,0,0,0,0,0,0,0,0,0,-1,1161,771,0,0
-56,253,0,0,0,0,0,0,0,0,0,-1,1168,771,0,0
-49,253,0,0,0,0,0,0,0,0,0,-1,1175,771,0,0
-42,253,0,0,0,0,0,0,0,0,0,-1,1182,771,0,0
-35,253,0,0,0,0,0,0,0,0,0,-1,1189,771,0,0
-28,253,0,0,0,0,0,0,0,0,0,-1,1196,771,0,0
-21,253,0,0,0,0,0,0,0,0,0,-1,1203,771,0,0
-14,253,0,0,0,0,0,0,0,0,0,-1,1210,771,0,0
-7,253,0,0,0,0,0,0,0,0,0,-1,1217,771,0,0
0,253,0,0,0,0,0,0,0,0,0,-1,1224,771,0,0
7,253,0,0,0,0,0,0,0,0,0,-1,1231,771,0,0
14,253,0,0,0,0,0,0,0,0,0,-1,1238,771,0,0
21,253,0,0,0,0,0,0,0,0,0,-1,1245,771,0,0
28,253,0,0,0,0,0,0,0,0,0,-1,1252,771,0,0
35,253,0,0,0,0,0,0,0,0,0,-1,1259,771,0,0
42,253,0,0,0,0,0,0,0,0,0,-1,1266,771,0,0
49,253,0,0,0,0,0,0,0,0,0,-1,1273,771,0,0
56,253,0,0,0,0,0,0,0,0,0,-1,1280,771,0,0
63,253,0,0,0,0,0,0,0,0,0,-1,1287,771,0,0
70,253,0,0,0,0,0,0,0,0,0,-1,1294,771,0,0
77,253,0,0,0,0,0,0,0,0,0,-1,1301,771,0,0
84,253,0,0,0,0,0,0,0,0,0,-1,1308,771,0,0
91,253,0,0,0,0,0,0,0,0,0,-1,1315,771,0,0
98,253,0,0,0,0,0,0,0,0,0,-1,1322,771,0,0
105,253,0,0,0,0,0,0,0,0,0,-1,1329,771,0,0
112,253,0,0,0,0,0,0,0,0,0,-1,1336,771,0,0
119,253,0,0,0,0,0,0,0,0,0,-1,1343,771,0,0
126,253,0,0,0,0,0,0,0,0,0,-1,1350,771,0,0
133,253,0,0,0,0,0,0,0,0,0,-1,1357,771,0,0
140,253,0,0,0,0,0,0,0,0,0,-1,1364,771,0,0
147,253,0,0,0,0,0,0,0,0,0,-1,1371,771,0,0
154,253,0,0,0,0,0,0,0,0,0,-1,1378,771,0,0
161,253,0,0,0,0,0,0,0,0,0,-1,1385,771,0,0
168,253,0,0,0,0,0,0,0,0,0,-1,1392,771,0,0
175,253,0,0,0,0,0,0,0,0,0,-1,1399,771,0,0
182,253,0,0,0,0,0,0,0,0,0,-1,1406,771,0,0
189,253,0,0,0,0,0,0,0,0,0,-1,1413,771,0,0
196,253,0,0,0,0,0,0,0,0,0,-1,1420,771,0,0
203,253,0,0,0,0,0,0,0,0,0,-1,1427,771,0,0
210,253,0,0,0,0,0,0,0,0,0,-1,1434,771,0,0
217,253,0,0,0,0,0,0,0,0,0,-1,1441,771,0,0
224,253,0,0,0,0,0,0,0,0,0,-1,1448,771,0,0
231,253,0,0,0,0,0,0,0,0,0,-1,1455,771,0,0
238,253,0,0,0,0,0,0,0,0,0,-1,1462,771,0,0
245,253,0,0,0,0,0,0,0,0,0,-1,1469,771,0,0
252,253,0,0,0,0,0,0,0,0,0,-1,1476,771,0,0
259,253,0,0,0,0,0,0,0,0,0,-1,1483,771,0,0
266,253,0,0,0,0,0,0,0,0,0,-1,1490,771,0,0
273,253,0,0,0,0,0,0,0,0,0,-1,1497,771,0,0
280,253,0,0,0,0,0,0,0,0,0,-1,1504,771,0,0
287,253,0,0,0,0,0,0,0,0,0,-1,1511,771,0,0
294,253,0,0,0,0,0,0,0,0,0,-1,1518,771,0,0
301,253,0,0,0,0,0,0,0,0,0,-1,1525,771,0,0
308,253,0,0,0,0,0,0,0,0,0,-1,1532,771,0,0
315,253,0,0,0,0,0,0,0,0,0,-1,1539,771,0,0
322,253,0,0,0,0,0,0,0,0,0,-1,1546,771,0,0
329,253,0,0,0,0,0,0,0,0,0,-1,1553,771,0,0
336,253,0,0,0,0,0,0,0,0,0,-1,1560,771,0,0
343,253,0,0,0,0,0,0,0,0,0,-1,1567,771,0,0
350,253,0,0,0,0,0,0,0,0,0,-1,1574,771,0,0
357,253,0,0,0,0,0,0,0,0,0,-1,1581,771,0,0
364,253,0,0,0,0,0,0,0,0,0,-1,1588,771,0,0
371,253,0,0,0,0,0,0,0,0,0,-1,1595,771,0,0
378,253,0,0,0,0,0,0,0,0,0,-1,1602,771,0,0
385,253,0,0,0,0,0,0,0,0,0,-1,1609,771,0,0
392,253,0,0,0,0,0,0,0,0,0,-1,1616,771,0,0
399,253,0,0,0,0,0,0,0,0,0,-1,1623,771,0,0
406,253,0,0,0,0,0,0,0,0,0,-1,1630,771,0,0
413,253,0,0,0,0,0,0,0,0,0,-1,1637,771,0,0
420,253,0,0,0,0,0,0,0,0,0,-1,1644,771,0,0
427,253,0,0,0,0,0,0,0,0,0,-1,1651,771,0,0
434,253,0,0,0,0,0,0,0,0,0,-1,1658,771,0,0
441,253,0,0,0,0,0,0,0,0,0,-1,1665,771,0,0
448,253,0,0,0,0,0,0,0,0,0,-1,1672,771,0,0
455,253,0,0,0,0,0,0,0,0,0,-1,1679,771,0,0
462,253,0,0,0,0,0,0,0,0,0,-1,1686,771,0,0
469,253,0,0,0,0,0,0,0,0,0,-1,1693,771,0,0
476,253,0,0,0,0,0,0,0,0,0,-1,1700,771,0,0
483,253,0,0,0,0,0,0,0,0,0,-1,1707,771,0,0
490,253,0,0,0,0,0,0,0,0,0,-1,1714,771,0,0
497,253,0,0,0,0,0,0,0,0,0,-1,1721,771,0,0
504,253,0,0,0,0,0,0,0,0,0,-1,1728,771,0,0
511,253,0,0,0,0,0,0,0,0,0,-1,1735,771,0,0
518,253,0,0,0,0,0,0,0,0,0,-1,1742,771,0,0
525,253,0,0,0,0,0,0,0,0,0,-1,1749,771,0,0
532,253,0,0,0,0,0,0,0,0,0,-1,1756,771,0,0
539,253,0,0,0,0,0,0,0,0,0,-1,1763,771,0,0
546,253,0,0,0,0,0,0,0,0,0,-1,1770,771,0,0
553,253,0,0,0,0,0,0,0,0,0,-1,1777,771,0,0
560,253,0,0,0,0,0,0,0,0,0,-1,1784,771,0,0
567,253,0,0,0,0,0,0,0,0,0,-1,1791,771,0,0
574,253,17.3416,2.33014,0,0,0,0,0,0,0,-1,1798,771,17.3416,-2.33016
581,253,17.4961,2.30707,0.0184011,0.0106138,-0.0135215,0.0285784,0.000436491,-0.645211,0.0189085,0.039186,1805,771,17.4961,-2.30707
588,253,17.7875,2.22571,0.0170829,0.00911102,-0.00684095,0.0210144,0.00517949,-0.521613,0.0126419,0.0425721,1812,771,17.7875,-2.22569
595,253,18.1156,2.09125,0.0145626,0.00760148,-0.00214518,0.0151705,0.0069935,-0.276173,0.0087676,0.0442505,1819,771,18.1156,-2.09126
602,253,17.7031,2.6084,0,0,0,0,0,0,0,-1,1826,771,17.7032,-2.6084
609,253,18.3757,2.87091,0,0,0,0,0,0,0,-1,1833,771,18.3757,-2.87091
616,253,18.2148,2.76428,0.00634394,0.00301289,0.00393958,0.0089556,0.000401236,0.58541,0.00584125,0.040914,1840,771,18.2149,-2.76429
623,253,17.9386,2.65295,0.00390062,0.00171061,0.0046005,0.00753463,-0.0019234,0.668562,0.00577205,0.0447516,1847,771,17.9386,-2.65298
630,253,17.8468,2.64948,0,0,0,0,0,0,0,-1,1854,771,17.8468,-2.64946
637,253,12.3314,0.795532,0,0,0,0,0,0,0,-1,1861,771,12.3314,-0.795524
644,253,12.3676,0.870422,-0.00114698,-0.000748887,0.00391447,0.00297159,-0.00486746,0.810801,0.00456978,0.0396274,1868,771,12.3676,-0.870406
651,253,12.3652,1.17108,-0.00200679,-0.00086977,0.00252482,0.00114975,-0.00402631,0.896136,0.00313846,0.0217564,1875,771,12.3652,-1.17106
658,253,12.4039,1.39624,-0.00195252,-0.0014267,0.000999165,-0.000656432,-0.00272278,0.914046,0.00164075,0.0186812,1882,771,12.404,-1.39623
665,253,12.3282,1.573,-0.00137703,-0.00145074,9.08985e-05,-0.0013158,-0.00151197,0.592778,0.000949371,0.0199808,1889,771,12.3283,-1.57301
672,253,12.3342,1.75732,-7.29299e-05,-0.00160318,-0.000500362,7.61545e-05,-0.00175226,-0.289578,0.00119437,0.0156452,1896,771,12.3342,-1.75731
679,253,12.3771,1.97266,0.00141001,-0.00142173,-0.000832751,0.00163675,-0.00164847,-0.265832,0.00189673,0.0131275,1903,771,12.3771,-1.97266
686,253,12.3824,2.17371,0.00319852,-0.0010519,-0.0011914,0.00350969,-0.00136307,-0.255473,0.00290286,0.0180358,1910,771,12.3825,-2.17373
693,253,12.348,2.36658,0.00590894,-0.000598183,0.000220494,0.00591641,-0.000605646,0.0338333,0.00416087,0.0177902,1917,771,12.348,-2.3666
700,253,12.3379,2.53717,0.0102901,8.73128e-05,0.00258582,0.010908,-0.000530616,0.234569,0.0074552,0.0154441,1924,771,12.3378,-2.5372
707,253,12.3466,2.71362,0.0151533,0.00104209,0.00523716,0.0168846,-0.000689198,0.319267,0.011493,0.0145283,1931,771,12.3466,-2.71362
714,253,12.3507,2.90314,0.0208631,0.00177307,0.00860685,0.0241706,-0.00153435,0.366879,0.0166487,0.0183948,1938,771,12.3507,-2.90316
721,253,12.3718,3.10504,0.0281133,0.00316385,0.0137814,0.0342275,-0.00295031,0.417562,0.0238626,0.0322119,1945,771,12.3718,-3.10506
728,253,12.4025,3.31097,0.0370318,0.00515484,0.0209333,0.0474037,-0.00521708,0.460021,0.0334773,0.0440056,1952,771,12.4025,-3.31095
735,253,12.4229,3.55658,0.0478029,0.00784025,0.030351,0.0641594,-0.00851621,0.494289,0.0458759,0.0459448,1959,771,12.4229,-3.55657
742,253,12.6289,4.06567,0.0603881,0.0113037,0.0422524,0.0847088,-0.013017,0.522289,0.0612741,0.0478828,1966,771,12.6289,-4.06567
749,253,14.5313,4.44653,0.0745538,0.0155851,0.0566824,0.108962,-0.0188228,0.545573,0.0796602,0.0472822,1973,771,14.5312,-4.44651
756,253,0,0,0,0,0,0,0,0,0,-1,1980,771,0,0
763,253,0,0,0,0,0,0,0,0,0,-1,1987,771,0,0
770,253,0,0,0,0,0,0,0,0,0,-1,1994,771,0,0
777,253,0,0,0,0,0,0,0,0,0,-1,2001,771,0,0
784,253,0,0,0,0,0,0,0,0,0,-1,2008,771,0,0
791,253,0,0,0,0,0,0,0,0,0,-1,2015,771,0,0
798,253,0,0,0,0,0,0,0,0,0,-1,2022,771,0,0
805,253,0,0,0,0,0,0,0,0,0,-1,2029,771,0,0
812,253,0,0,0,0,0,0,0,0,0,-1,2036,771,0,0
-700,246,0,0,0,0,0,0,0,0,0,-1,524,778,0,0
-693,246,0,0,0,0,0,0,0,0,0,-1,531,778,0,0
-686,246,0,0,0,0,0,0,0,0,0,-1,538,778,0,0
-679,246,0,0,0,0,0,0,0,0,0,-1,545,778,0,0
-672,246,0,0,0,0,0,0,0,0,0,-1,552,778,0,0
-665,246,0,0,0,0,0,0,0,0,0,-1,559,778,0,0
-658,246,0,0,0,0,0,0,0,0,0,-1,566,778,0,0
-651,246,0,0,0,0,0,0,0,0,0,-1,573,778,0,0
-644,246,0,0,0,0,0,0,0,0,0,-1,580,778,0,0
-637,246,-10.3022,4.40955,0.0863566,0.125333,-0.0232317,0.136168,0.0755216,-1.1344,0.0787731,0.0465324,587,778,-10.3022,-4.40952
-630,246,-9.98102,4.22095,0.0775006,0.101533,-0.0213211,0.113991,0.0650427,-1.042,0.0660308,0.048749,594,778,-9.98101,-4.22097
-623,246,-9.68762,4.1084,0,0,0,0,0,0,0,-1,601,778,-9.68763,-4.10837
-616,246,-9.09668,4.12067,0.0562951,0.0646577,-0.0139912,0.0750791,0.0458738,-0.930599,0.0437016,0.0490083,608,778,-9.09669,-4.12069
-609,246,-8.48151,4.1994,0.0458024,0.0500124,-0.0103524,0.0584717,0.0373431,-0.885698,0.0341886,0.0480121,615,778,-8.48153,-4.19941
-602,246,-7.31476,1.17584,0,0,0,0,0,0,0,-1,622,778,-7.31478,-1.17585
-595,246,-7.33838,1.02759,0.0271562,0.0269086,-0.00435863,0.0313928,0.022672,-0.771199,0.0187117,0.0472402,629,778,-7.33836,-1.02757
-588,246,-7.37103,0.854248,0.0197114,0.018051,-0.00242078,0.0214404,0.016322,-0.620211,0.0129297,0.0295942,636,778,-7.37102,-0.854244
-581,246,-7.40179,0.708069,0.0131582,0.00998652,-0.000827365,0.013361,0.00978366,-0.240437,0.00798659,0.0156664,643,778,-7.40181,-0.70809
-574,246,-7.41095,0.490417,0.00745726,0.00484391,0.000922101,0.00774985,0.00455132,0.307266,0.00449704,0.0177701,650,778,-7.41097,-0.49044
-567,246,-7.41467,0.346619,0.00336051,0.00144203,0.00200837,0.00462696,0.000175583,0.562606,0.00302781,0.0157704,657,778,-7.41468,-0.346614
-560,246,-7.41211,0.211548,0.00119063,-0.000340613,0.00233498,0.0028823,-0.00203229,0.626975,0.00285155,0.0123693,664,778,-7.41209,-0.211524
-553,246,-7.40521,0.0753174,4.28327e-05,-0.00128517,0.00248732,0.00195325,-0.00319559,0.654962,0.00300139,0.0122724,671,778,-7.40523,-0.0753123
-546,246,-7.4126,-0.101563,-0.000102932,-0.00247544,0.00261237,0.00157991,-0.00415828,0.572273,0.00342261,0.0106233,678,778,-7.41261,0.101554
-539,246,-7.40887,-0.294495,-0.000108176,-0.00196199,0.00214005,0.00129707,-0.00336724,0.581032,0.00277995,0.0103874,685,778,-7.40889,0.294469
-532,246,-7.427,-0.474792,0.000200886,-0.00173177,0.00108991,0.000691159,-0.00222204,0.422713,0.00175764,0.0120301,692,778,-7.42698,0.474804
-525,246,-7.42157,-0.62262,0.000546861,-0.000934724,-0.00015439,0.000562778,-0.000950641,-0.102735,0.000883286,0.0129587,699,778,-7.42159,0.622599
-518,246,-7.42804,-0.797058,0.000723678,0.000573507,-0.00136112,0.00201178,-0.000714593,-0.757844,0.00163238,0.0190871,706,778,-7.42801,0.797088
-511,246,-7.64459,-0.860107,0.000751139,0.00319195,-0.00240466,0.00466817,-0.000725079,-1.02022,0.00337983,0.0387659,713,778,-7.64461,0.860121
-504,246,-7.36005,-0.767578,0.000618099,0.0064909,-0.00349533,0.00811956,-0.00101056,-1.13476,0.00577942,0.0436182,720,778,-7.36007,0.767567
-497,246,-6.95099,-0.952209,-2.90355e-05,0.0106772,-0.00464819,0.0124136,-0.00176545,-1.21328,0.00892265,0.0498701,727,778,-6.95097,0.952232
-490,246,-6.6413,-1.15021,0,0,0,0,0,0,0,-1,734,778,-6.6413,1.15021
-483,246,-11.2855,1.51276,-0.00262877,0.0207412,-0.0058182,0.0221096,-0.00399715,-1.3398,0.0162369,0.0470381,741,778,-11.2855,-1.51274
-476,246,-10.9311,1.3056,-0.00490326,0.0265319,-0.00497966,0.0273019,-0.00567322,-1.41739,0.0203575,0.0442041,748,778,-10.9311,-1.30563
-469,246,-11.142,0.969421,-0.00794632,0.0321146,-0.00248755,0.0322685,-0.00810019,-1.50902,0.0246599,0.0410713,755,778,-11.142,-0.969445
-462,246,-11.2963,0.771118,-0.0120431,0.0368594,0.00261701,0.0369991,-0.0121828,1.51748,0.0295755,0.0435621,762,778,-11.2963,-0.771092
-455,246,0,0,0,0,0,0,0,0,0,-1,769,778,0,0
-448,246,0,0,0,0,0,0,0,0,0,-1,776,778,0,0
-441,246,0,0,0,0,0,0,0,0,0,-1,783,778,0,0
-434,246,0,0,0,0,0,0,0,0,0,-1,790,778,0,0
-427,246,0,0,0,0,0,0,0,0,0,-1,797,778,0,0
-420,246,0,0,0,0,0,0,0,0,0,-1,804,778,0,0
-413,246,0,0,0,0,0,0,0,0,0,-1,811,778,0,0
-406,246,0,0,0,0,0,0,0,0,0,-1,818,778,0,0
-399,246,0,0,0,0,0,0,0,0,0,-1,825,778,0,0
-392,246,0,0,0,0,0,0,0,0,0,-1,832,778,0,0
-385,246,0,0,0,0,0,0,0,0,0,-1,839,778,0,0
-378,246,0,0,0,0,0,0,0,0,0,-1,846,778,0,0
-371,246,0,0,0,0,0,0,0,0,0,-1,853,778,0,0
-364,246,0,0,0,0,0,0,0,0,0,-1,860,778,0,0
-357,246,0,0,0,0,0,0,0,0,0,-1,867,778,0,0
-350,246,0,0,0,0,0,0,0,0,0,-1,874,778,0,0
-343,246,0,0,0,0,0,0,0,0,0,-1,881,778,0,0
-336,246,0,0,0,0,0,0,0,0,0,-1,888,778,0,0
-329,246,0,0,0,0,0,0,0,0,0,-1,895,778,0,0
-322,246,0,0,0,0,0,0,0,0,0,-1,902,778,0,0
-315,246,0,0,0,0,0,0,0,0,0,-1,909,778,0,0
-308,246,0,0,0,0,0,0,0,0,0,-1,916,778,0,0
-301,246,0,0,0,0,0,0,0,0,0,-1,923,778,0,0
-294,246,0,0,0,0,0,0,0,0,0,-1,930,778,0,0
-287,246,0,0,0,0,0,0,0,0,0,-1,937,778,0,0
-280,246,0,0,0,0,0,0,0,0,0,-1,944,778,0,0
-273,246,0,0,0,0,0,0,0,0,0,-1,951,778,0,0
-266,246,0,0,0,0,0,0,0,0,0,-1,958,778,0,0
-259,246,0,0,0,0,0,0,0,0,0,-1,965,778,0,0
-252,246,0,0,0,0,0,0,0,0,0,-1,972,778,0,0
-245,246,0,0,0,0,0,0,0,0,0,-1,979,778,0,0
-238,246,0,0,0,0,0,0,0,0,0,-1,986,778,0,0
-231,246,0,0,0,0,0,0,0,0,0,-1,993,778,0,0
-224,246,0,0,0,0,0,0,0,0,0,-1,1000,778,0,0
-217,246,0,0,0,0,0,0,0,0,0,-1,1007,778,0,0
-210,246,0,0,0,0,0,0,0,0,0,-1,1014,778,0,0
-203,246,0,0,0,0,0,0,0,0,0,-1,1021,778,0,0
-196,246,0,0,0,0,0,0,0,0,0,-1,1028,778,0,0
-189,246,0,0,0,0,0,0,0,0,0,-1,1035,778,0,0
-182,246,0,0,0,0,0,0,0,0,0,-1,1042,778,0,0
-175,246,0,0,0,0,0,0,0,0,0,-1,1049,778,0,0
-168,246,0,0,0,0,0,0,0,0,0,-1,1056,778,0,0
-161,246,0,0,0,0,0,0,0,0,0,-1,1063,778,0,0
-154,246,0,0,0,0,0,0,0,0,0,-1,1070,778,0,0
-147,246,0,0,0,0,0,0,0,0,0,-1,1077,778,0,0
-140,246,0,0,0,0,0,0,0,0,0,-1,1084,778,0,0
-133,246,0,0,0,0,0,0,0,0,0,-1,1091,778,0,0
-126,246,0,0,0,0,0,0,0,0,0,-1,1098,778,0,0
-119,246,0,0,0,0,0,0,0,0,0,-1,1105,778,0,0
-112,246,0,0,0,0,0,0,0,0,0,-1,1112,778,0,0
-105,246,0,0,0,0,0,0,0,0,0,-1,1119,778,0,0
-98,246,0,0,0,0,0,0,0,0,0,-1,1126,778,0,0
-91,246,0,0,0,0,0,0,0,0,0,-1,1133,778,0,0
-84,246,0,0,0,0,0,0,0,0,0,-1,1140,778,0,0
-77,246,0,0,0,0,0,0,0,0,0,-1,1147,778,0,0
-70,246,0,0,0,0,0,0,0,0,0,-1,1154,778,0,0
-63,246,0,0,0,0,0,0,0,0,0,-1,1161,778,0,0
-56,246,0,0,0,0,0,0,0,0,0,-1,1168,778,0,0
-49,246,0,0,0,0,0,0,0,0,0,-1,1175,778,0,0
-42,246,0,0,0,0,0,0,0,0,0,-1,1182,778,0,0
-35,246,0,0,0,0,0,0,0,0,0,-1,1189,778,0,0
-28,246,0,0,0,0,0,0,0,0,0,-1,1196,778,0,0
-21,246,0,0,0,0,0,0,0,0,0,-1,1203,778,0,0
-14,246,0,0,0,0,0,0,0,0,0,-1,1210,778,0,0
-7,246,0,0,0,0,0,0,0,0,0,-1,1217,778,0,0
0,246,0,0,0,0,0,0,0,0,0,-1,1224,778,0,0
7,246,0,0,0,0,0,0,0,0,0,-1,1231,778,0,0
14,246,0,0,0,0,0,0,0,0,0,-1,1238,778,0,0
21,246,0,0,0,0,0,0,0,0,0,-1,1245,778,0,0
28,246,0,0,0,0,0,0,0,0,0,-1,1252,778,0,0
35,246,0,0,0,0,0,0,0,0,0,-1,1259,778,0,0
42,246,0,0,0,0,0,0,0,0,0,-1,1266,778,0,0
49,246,0,0,0,0,0,0,0,0,0,-1,1273,778,0,0
56,246,0,0,0,0,0,0,0,0,0,-1,1280,778,0,0
63,246,0,0,0,0,0,0,0,0,0,-1,1287,778,0,0
70,246,0,0,0,0,0,0,0,0,0,-1,1294,778,0,0
77,246,0,0,0,0,0,0,0,0,0,-1,1301,778,0,0
84,246,0,0,0,0,0,0,0,0,0,-1,1308,778,0,0
91,246,0,0,0,0,0,0,0,0,0,-1,1315,778,0,0
98,246,0,0,0,0,0,0,0,0,0,-1,1322,778,0,0
105,246,0,0,0,0,0,0,0,0,0,-1,1329,778,0,0
112,246,0,0,0,0,0,0,0,0,0,-1,1336,778,0,0
119,246,0,0,0,0,0,0,0,0,0,-1,1343,778,0,0
126,246,0,0,0,0,0,0,0,0,0,-1,1350,778,0,0
133,246,0,0,0,0,0,0,0,0,0,-1,1357,778,0,0
140,246,0,0,0,0,0,0,0,0,0,-1,1364,778,0,0
147,246,0,0,0,0,0,0,0,0,0,-1,1371,778,0,0
154,246,0,0,0,0,0,0,0,0,0,-1,1378,778,0,0
161,246,0,0,0,0,0,0,0,0,0,-1,1385,778,0,0
168,246,0,0,0,0,0,0,0,0,0,-1,1392,778,0,0
175,246,0,0,0,0,0,0,0,0,0,-1,1399,778,0,0
182,246,0,0,0,0,0,0,0,0,0,-1,1406,778,0,0
189,246,0,0,0,0,0,0,0,0,0,-1,1413,778,0,0
196,246,0,0,0,0,0,0,0,0,0,-1,1420,778,0,0
203,246,0,0,0,0,0,0,0,0,0,-1,1427,778,0,0
210,246,0,0,0,0,0,0,0,0,0,-1,1434,778,0,0
217,246,0,0,0,0,0,0,0,0,0,-1,1441,778,0,0
224,246,0,0,0,0,0,0,0,0,0,-1,1448,778,0,0
231,246,0,0,0,0,0,0,0,0,0,-1,1455,778,0,0
238,246,0,0,0,0,0,0,0,0,0,-1,1462,778,0,0
245,246,0,0,0,0,0,0,0,0,0,-1,1469,778,0,0
252,246,0,0,0,0,0,0,0,0,0,-1,1476,778,0,0
259,246,0,0,0,0,0,0,0,0,0,-1,1483,778,0,0
266,246,0,0,0,0,0,0,0,0,0,-1,1490,778,0,0
273,246,0,0,0,0,0,0,0,0,0,-1,1497,778,0,0
280,246,0,0,0,0,0,0,0,0,0,-1,1504,778,0,0
287,246,0,0,0,0,0,0,0,0,0,-1,1511,778,0,0
294,246,0,0,0,0,0,0,0,0,0,-1,1518,778,0,0
301,246,0,0,0,0,0,0,0,0,0,-1,1525,778,0,0
308,246,0,0,0,0,0,0,0,0,0,-1,1532,778,0,0
315,246,0,0,0,0,0,0,0,0,0,-1,1539,778,0,0
322,246,0,0,0,0,0,0,0,0,0,-1,1546,778,0,0
329,246,0,0,0,0,0,0,0,0,0,-1,1553,778,0,0
336,246,0,0,0,0,0,0,0,0,0,-1,1560,778,0,0
343,246,0,0,0,0,0,0,0,0,0,-1,1567,778,0,0
350,246,0,0,0,0,0,0,0,0,0,-1,1574,778,0,0
357,246,0,0,0,0,0,0,0,0,0,-1,1581,778,0,0
364,246,0,0,0,0,0,0,0,0,0,-1,1588,778,0,0
371,246,0,0,0,0,0,0,0,0,0,-1,1595,778,0,0
378,246,0,0,0,0,0,0,0,0,0,-1,1602,778,0,0
385,246,0,0,0,0,0,0,0,0,0,-1,1609,778,0,0
392,246,0,0,0,0,0,0,0,0,0,-1,1616,778,0,0
399,246,0,0,0,0,0,0,0,0,0,-1,1623,778,0,0
406,246,0,0,0,0,0,0,0,0,0,-1,1630,778,0,0
413,246,0,0,0,0,0,0,0,0,0,-1,1637,778,0,0
420,246,0,0,0,0,0,0,0,0,0,-1,1644,778,0,0
427,246,0,0,0,0,0,0,0,0,0,-1,1651,778,0,0
434,246,0,0,0,0,0,0,0,0,0,-1,1658,778,0,0
441,246,0,0,0,0,0,0,0,0,0,-1,1665,778,0,0
448,246,0,0,0,0,0,0,0,0,0,-1,1672,778,0,0
455,246,0,0,0,0,0,0,0,0,0,-1,1679,778,0,0
462,246,0,0,0,0,0,0,0,0,0,-1,1686,778,0,0
469,246,0,0,0,0,0,0,0,0,0,-1,1693,778,0,0
476,246,0,0,0,0,0,0,0,0,0,-1,1700,778,0,0
483,246,0,0,0,0,0,0,0,0,0,-1,1707,778,0,0
490,246,0,0,0,0,0,0,0,0,0,-1,1714,778,0,0
497,246,0,0,0,0,0,0,0,0,0,-1,1721,778,0,0
504,246,0,0,0,0,0,0,0,0,0,-1,1728,778,0,0
511,246,0,0,0,0,0,0,0,0,0,-1,1735,778,0,0
518,246,0,0,0,0,0,0,0,0,0,-1,1742,778,0,0
525,246,0,0,0,0,0,0,0,0,0,-1,1749,778,0,0
532,246,0,0,0,0,0,0,0,0,0,-1,1756,778,0,0
539,246,0,0,0,0,0,0,0,0,0,-1,1763,778,0,0
546,246,0,0,0,0,0,0,0,0,0,-1,1770,778,0,0
553,246,0,0,0,0,0,0,0,0,0,-1,1777,778,0,0
560,246,0,0,0,0,0,0,0,0,0,-1,1784,778,0,0
567,246,0,0,0,0,0,0,0,0,0,-1,1791,778,0,0
574,246,0,0,0,0,0,0,0,0,0,-1,1798,778,0,0
581,246,17.3757,2.43713,0.0157889,0.00780953,-0.0133565,0.0257388,-0.00214042,-0.640263,0.0179154,0.0375494,1805,778,17.3757,-2.43715
588,246,17.3933,2.42725,0.0151408,0.00685554,-0.00585303,0.0181689,0.00382744,-0.477436,0.0110598,0.0411639,1812,778,17.3933,-2.42727
595,246,17.6846,2.41907,0,0,0,0,0,0,0,-1,1819,778,17.6846,-2.41909
602,246,17.5448,2.5697,0.0102987,0.00462783,0.00236859,0.0111578,0.00376869,0.347966,0.00655405,0.0425342,1826,778,17.5447,-2.56968
609,246,17.8605,2.4953,0.0074866,0.00342897,0.00401704,0.00995809,0.000957482,0.551558,0.0063437,0.0472626,1833,778,17.8605,-2.49528
616,246,17.8888,2.59375,0.00508285,0.00206193,0.00490374,0.00870349,-0.00155871,0.635998,0.00638562,0.0482665,1840,778,17.8887,-2.59374
623,246,17.7288,2.54492,0.00276346,0.000910554,0.00520723,0.00712601,-0.003452,0.697361,0.0062288,0.0436545,1847,778,17.7287,-2.54492
630,246,18.0841,2.10931,0.00100454,0.00011884,0.00481486,0.00539687,-0.00427349,0.739539,0.00559573,0.0455884,1854,778,18.0841,-2.10932
637,246,18.3104,1.67529,0,0,0,0,0,0,0,-1,1861,778,18.3104,-1.67529
644,246,12.4706,0.92572,0,0,0,0,0,0,0,-1,1868,778,12.4706,-0.925718
651,246,12.5184,1.17139,-0.00258843,-0.00131764,0.00232772,0.000459854,-0.00436592,0.918636,0.00307538,0.0300197,1875,778,12.5184,-1.17137
658,246,12.5557,1.40466,-0.00256893,-0.00184263,0.000888849,-0.00124561,-0.00316595,0.979333,0.00184165,0.0204114,1882,778,12.5557,-1.40468
665,246,12.5325,1.57709,-0.00211736,-0.00187754,-1.06681e-05,-0.00187706,-0.00211783,-1.52643,0.00133887,0.0209352,1889,778,12.5325,-1.57711
672,246,12.5385,1.79633,-0.00100313,-0.00198334,-0.000596811,-0.000720973,-0.00226549,-0.441629,0.00133648,0.0195414,1896,778,12.5385,-1.79632
679,246,12.5465,1.96747,0.000304883,-0.00173292,-0.000872645,0.000627499,-0.00205554,-0.354115,0.00162054,0.0198612,1903,778,12.5465,-1.96746
686,246,12.5764,2.172,0.00191599,-0.00124508,-0.00118067,0.00230829,-0.00163738,-0.320792,0.00228898,0.0217925,1910,778,12.5764,-2.17201
693,246,12.5565,2.37061,0.00436522,-0.000683829,0.000146298,0.00436946,-0.000688065,0.0289431,0.00316734,0.0173341,1917,778,12.5566,-2.37061
700,246,12.5439,2.52966,0.0083177,8.06636e-05,0.00235573,0.00894382,-0.000545462,0.259782,0.00615243,0.0138466,1924,778,12.5439,-2.52968
707,246,12.5597,2.69153,0.0126595,0.00104133,0.00468364,0.0143125,-0.000611615,0.339273,0.00975191,0.01259,1931,778,12.5597,-2.69153
714,246,12.5432,2.88165,0.0176461,0.00160264,0.00747099,0.0205863,-0.00133756,0.374932,0.0141911,0.0116985,1938,778,12.5432,-2.88166
721,246,12.5851,3.05969,0.0239149,0.00265047,0.0116519,0.0290565,-0.00249105,0.415562,0.0202525,0.0176042,1945,778,12.5851,-3.05966
728,246,12.7606,3.22479,0.0315619,0.00415393,0.0173309,0.0399523,-0.00423642,0.450868,0.0281534,0.0370016,1952,778,12.7606,-3.22482
735,246,13.0073,3.41199,0.0407327,0.00606164,0.0246434,0.0535272,-0.00673284,0.478877,0.0381278,0.0454847,1959,778,13.0073,-3.41199
742,246,13.1599,3.71991,0.0513568,0.00837433,0.0336327,0.0697784,-0.0100473,0.501097,0.0502043,0.0454323,1966,778,13.1599,-3.71993
749,246,13.7803,4.38593,0.0631915,0.0109836,0.0441269,0.0883574,-0.0141823,0.518301,0.064157,0.0443235,1973,778,13.7803,-4.38595
756,246,14.2316,5.22314,0.0759094,0.0136339,0.055688,0.108574,-0.0190305,0.530479,0.0794891,0.0459237,1980,778,14.2315,-5.22311
763,246,0,0,0,0,0,0,0,0,0,-1,1987,778,0,0
770,246,0,0,0,0,0,0,0,0,0,-1,1994,778,0,0
777,246,0,0,0,0,0,0,0,0,0,-1,2001,778,0,0
784,246,0,0,0,0,0,0,0,0,0,-1,2008,778,0,0
791,246,0,0,0,0,0,0,0,0,0,-1,2015,778,0,0
798,246,0,0,0,0,0,0,0,0,0,-1,2022,778,0,0
805,246,0,0,0,0,0,0,0,0,0,-1,2029,778,0,0
812,246,0,0,0,0,0,0,0,0,0,-1,2036,778,0,0
-700,239,0,0,0,0,0,0,0,0,0,-1,524,785,0,0
-693,239,0,0,0,0,0,0,0,0,0,-1,531,785,0,0
-686,239,0,0,0,0,0,0,0,0,0,-1,538,785,0,0
-679,239,0,0,0,0,0,0,0,0,0,-1,545,785,0,0
-672,239,0,0,0,0,0,0,0,0,0,-1,552,785,0,0
-665,239,0,0,0,0,0,0,0,0,0,-1,559,785,0,0
-658,239,0,0,0,0,0,0,0,0,0,-1,566,785,0,0
-651,239,0,0,0,0,0,0,0,0,0,-1,573,785,0,0
-644,239,0,0,0,0,0,0,0,0,0,-1,580,785,0,0
-637,239,-9.98639,3.71954,0.0802826,0.12309,-0.0138863,0.1272,0.0761727,-1.28304,0.073916,0.0476199,587,785,-9.98639,-3.71953
-630,239,-9.51575,3.6665,0.0708686,0.100872,-0.0154184,0.107382,0.064358,-1.17125,0.0624037,0.0479445,594,785,-9.51573,-3.66652
-623,239,-9.16724,3.60852,0,0,0,0,0,0,0,-1,601,785,-9.16721,-3.60849
-616,239,-8.71674,3.53723,0,0,0,0,0,0,0,-1,608,785,-8.71673,-3.53726
-609,239,-7.54712,1.07294,0,0,0,0,0,0,0,-1,615,785,-7.54715,-1.07292
-602,239,-7.62201,1.14838,0.0319533,0.0373907,-0.0074538,0.0426061,0.0267378,-0.960271,0.024864,0.0494095,622,785,-7.622,-1.14839
-595,239,-7.57715,1.09021,0.0239333,0.0268941,-0.00520206,0.0308223,0.0200051,-0.924025,0.0180569,0.0395556,629,785,-7.57716,-1.09021
-588,239,-7.54468,0.859741,0.0173397,0.0180002,-0.00345419,0.0211399,0.0142,-0.833056,0.0124427,0.0178308,636,785,-7.54468,-0.859758
-581,239,-7.57703,0.705566,0.011445,0.0100114,-0.00192849,0.0127856,0.00867081,-0.607469,0.00753636,0.0112798,643,785,-7.577,-0.705563
-574,239,-7.57751,0.534607,0.00635733,0.00514465,-0.000121685,0.00636942,0.00513256,-0.0990282,0.00389993,0.012208,650,785,-7.5775,-0.534617
-567,239,-7.60022,0.343384,0.00265578,0.00194576,0.00120923,0.00356104,0.0010405,0.642619,0.00211433,0.0121241,657,785,-7.60024,-0.343392
-560,239,-7.5899,0.206116,0.000610964,-1.81729e-05,0.00188589,0.00220834,-0.00161555,0.702758,0.00221655,0.0119301,664,785,-7.58988,-0.206119
-553,239,-7.58105,0.0618286,-0.000421624,-0.00113118,0.00235969,0.00160981,-0.00316261,0.710782,0.00280355,0.013309,671,785,-7.58107,-0.0618147
-546,239,-7.60541,-0.103149,-0.000664533,-0.00235956,0.00278892,0.0014028,-0.00442689,0.637889,0.00351348,0.0143426,678,785,-7.60538,0.103122
-539,239,-7.59558,-0.286865,-0.000770573,-0.00195808,0.00255596,0.00125969,-0.00398834,0.671272,0.00316352,0.0155693,685,785,-7.59555,0.28688
-532,239,-7.58643,-0.468018,-0.000462559,-0.00178281,0.00176952,0.000765953,-0.00301132,0.606866,0.00230567,0.0126487,692,785,-7.58644,0.468042
-525,239,-7.58563,-0.622192,-8.1168e-05,-0.00112435,0.00074325,0.000305249,-0.00151076,0.479442,0.00112284,0.0141738,699,785,-7.58561,0.622173
-518,239,-7.61401,-0.799255,0.000175574,0.0001646,-0.0003542,0.00052433,-0.000184155,-0.777653,0.00042447,0.0350454,706,785,-7.61401,0.799225
-511,239,-7.82147,-0.827087,0.000360882,0.00242745,-0.00136838,0.00310885,-0.000320518,-1.10878,0.00218725,0.0407073,713,785,-7.82149,0.827093
-504,239,-7.40833,-0.601501,0.000489877,0.00532538,-0.00254604,0.00641873,-0.000603476,-1.16518,0.00449384,0.0438524,720,785,-7.40832,0.601506
-497,239,-7.57263,-0.67041,0.000214202,0.00923546,-0.00390164,0.0106888,-0.00123911,-1.21423,0.00757275,0.0479985,727,785,-7.57265,0.670399
-490,239,-7.95331,-0.695496,0,0,0,0,0,0,0,-1,734,785,-7.9533,0.695491
-483,239,-11.3375,1.22058,-0.00184772,0.0194015,-0.00573704,0.0208515,-0.00329771,-1.32324,0.0151206,0.0450999,741,785,-11.3375,-1.22059
-476,239,-11.0889,1.06299,-0.00406658,0.0255255,-0.00522398,0.0264206,-0.00496171,-1.40109,0.0194794,0.0418405,748,785,-11.0889,-1.06302
-469,239,-11.3303,0.722229,-0.00747052,0.0316988,-0.00274547,0.0318903,-0.00766202,-1.50116,0.0242216,0.0431043,755,785,-11.3302,-0.722214
-462,239,-11.4636,0.538391,-0.0125784,0.0374826,0.00313187,0.0376777,-0.0127736,1.50856,0.0302879,0.0455925,762,785,-11.4636,-0.538393
-455,239,0,0,0,0,0,0,0,0,0,-1,769,785,0,0
-448,239,0,0,0,0,0,0,0,0,0,-1,776,785,0,0
-441,239,0,0,0,0,0,0,0,0,0,-1,783,785,0,0
-434,239,0,0,0,0,0,0,0,0,0,-1,790,785,0,0
-427,239,0,0,0,0,0,0,0,0,0,-1,797,785,0,0
-420,239,0,0,0,0,0,0,0,0,0,-1,804,785,0,0
-413,239,0,0,0,0,0,0,0,0,0,-1,811,785,0,0
-406,239,0,0,0,0,0,0,0,0,0,-1,818,785,0,0
-399,239,0,0,0,0,0,0,0,0,0,-1,825,785,0,0
-392,239,0,0,0,0,0,0,0,0,0,-1,832,785,0,0
-385,239,0,0,0,0,0,0,0,0,0,-1,839,785,0,0
-378,239,0,0,0,0,0,0,0,0,0,-1,846,785,0,0
-371,239,0,0,0,0,0,0,0,0,0,-1,853,785,0,0
-364,239,0,0,0,0,0,0,0,0,0,-1,860,785,0,0
-357,239,0,0,0,0,0,0,0,0,0,-1,867,785,0,0
-350,239,0,0,0,0,0,0,0,0,0,-1,874,785,0,0
-343,239,0,0,0,0,0,0,0,0,0,-1,881,785,0,0
-336,239,0,0,0,0,0,0,0,0,0,-1,888,785,0,0
-329,239,0,0,0,0,0,0,0,0,0,-1,895,785,0,0
-322,239,0,0,0,0,0,0,0,0,0,-1,902,785,0,0
-315,239,0,0,0,0,0,0,0,0,0,-1,909,785,0,0
-308,239,0,0,0,0,0,0,0,0,0,-1,916,785,0,0
-301,239,0,0,0,0,0,0,0,0,0,-1,923,785,0,0
-294,239,0,0,0,0,0,0,0,0,0,-1,930,785,0,0
-287,239,0,0,0,0,0,0,0,0,0,-1,937,785,0,0
-280,239,0,0,0,0,0,0,0,0,0,-1,944,785,0,0
-273,239,0,0,0,0,0,0,0,0,0,-1,951,785,0,0
-266,239,0,0,0,0,0,0,0,0,0,-1,958,785,0,0
-259,239,0,0,0,0,0,0,0,0,0,-1,965,785,0,0
-252,239,0,0,0,0,0,0,0,0,0,-1,972,785,0,0
-245,239,0,0,0,0,0,0,0,0,0,-1,979,785,0,0
-238,239,0,0,0,0,0,0,0,0,0,-1,986,785,0,0
-231,239,0,0,0,0,0,0,0,0,0,-1,993,785,0,0
-224,239,0,0,0,0,0,0,0,0,0,-1,1000,785,0,0
-217,239,0,0,0,0,0,0,0,0,0,-1,1007,785,0,0
-210,239,0,0,0,0,0,0,0,0,0,-1,1014,785,0,0
-203,239,0,0,0,0,0,0,0,0,0,-1,1021,785,0,0
-196,239,0,0,0,0,0,0,0,0,0,-1,1028,785,0,0
-189,239,0,0,0,0,0,0,0,0,0,-1,1035,785,0,0
-182,239,0,0,0,0,0,0,0,0,0,-1,1042,785,0,0
-175,239,0,0,0,0,0,0,0,0,0,-1,1049,785,0,0
-168,239,0,0,0,0,0,0,0,0,0,-1,1056,785,0,0
-161,239,0,0,0,0,0,0,0,0,0,-1,1063,785,0,0
-154,239,0,0,0,0,0,0,0,0,0,-1,1070,785,0,0
-147,239,0,0,0,0,0,0,0,0,0,-1,1077,785,0,0
-140,239,0,0,0,0,0,0,0,0,0,-1,1084,785,0,0
-133,239,0,0,0,0,0,0,0,0,0,-1,1091,785,0,0
-126,239,0,0,0,0,0,0,0,0,0,-1,1098,785,0,0
-119,239,0,0,0,0,0,0,0,0,0,-1,1105,785,0,0
-112,239,0,0,0,0,0,0,0,0,0,-1,1112,785,0,0
-105,239,0,0,0,0,0,0,0,0,0,-1,1119,785,0,0
-98,239,0,0,0,0,0,0,0,0,0,-1,1126,785,0,0
-91,239,0,0,0,0,0,0,0,0,0,-1,1133,785,0,0
-84,239,0,0,0,0,0,0,0,0,0,-1,1140,785,0,0
-77,239,0,0,0,0,0,0,0,0,0,-1,1147,785,0,0
-70,239,0,0,0,0,0,0,0,0,0,-1,1154,785,0,0
-63,239,0,0,0,0,0,0,0,0,0,-1,1161,785,0,0
-56,239,0,0,0,0,0,0,0,0,0,-1,1168,785,0,0
-49,239,0,0,0,0,0,0,0,0,0,-1,1175,785,0,0
-42,239,0,0,0,0,0,0,0,0,0,-1,1182,785,0,0
-35,239,0,0,0,0,0,0,0,0,0,-1,1189,785,0,0
-28,239,0,0,0,0,0,0,0,0,0,-1,1196,785,0,0
-21,239,0,0,0,0,0,0,0,0,0,-1,1203,785,0,0
-14,239,0,0,0,0,0,0,0,0,0,-1,1210,785,0,0
-7,239,0,0,0,0,0,0,0,0,0,-1,1217,785,0,0
0,239,0,0,0,0,0,0,0,0,0,-1,1224,785,0,0
7,239,0,0,0,0,0,0,0,0,0,-1,1231,785,0,0
14,239,0,0,0,0,0,0,0,0,0,-1,1238,785,0,0
21,239,0,0,0,0,0,0,0,0,0,-1,1245,785,0,0
28,239,0,0,0,0,0,0,0,0,0,-1,1252,785,0,0
35,239,0,0,0,0,0,0,0,0,0,-1,1259,785,0,0
42,239,0,0,0,0,0,0,0,0,0,-1,1266,785,0,0
49,239,0,0,0,0,0,0,0,0,0,-1,1273,785,0,0
56,239,0,0,0,0,0,0,0,0,0,-1,1280,785,0,0
63,239,0,0,0,0,0,0,0,0,0,-1,1287,785,0,0
70,239,0,0,0,0,0,0,0,0,0,-1,1294,785,0,0
77,239,0,0,0,0,0,0,0,0,0,-1,1301,785,0,0
84,239,0,0,0,0,0,0,0,0,0,-1,1308,785,0,0
91,239,0,0,0,0,0,0,0,0,0,-1,1315,785,0,0
98,239,0,0,0,0,0,0,0,0,0,-1,1322,785,0,0
105,239,0,0,0,0,0,0,0,0,0,-1,1329,785,0,0
112,239,0,0,0,0,0,0,0,0,0,-1,1336,785,0,0
119,239,0,0,0,0,0,0,0,0,0,-1,1343,785,0,0
126,239,0,0,0,0,0,0,0,0,0,-1,1350,785,0,0
133,239,0,0,0,0,0,0,0,0,0,-1,1357,785,0,0
140,239,0,0,0,0,0,0,0,0,0,-1,1364,785,0,0
147,239,0,0,0,0,0,0,0,0,0,-1,1371,785,0,0
154,239,0,0,0,0,0,0,0,0,0,-1,1378,785,0,0
161,239,0,0,0,0,0,0,0,0,0,-1,1385,785,0,0
168,239,0,0,0,0,0,0,0,0,0,-1,1392,785,0,0
175,239,0,0,0,0,0,0,0,0,0,-1,1399,785,0,0
182,239,0,0,0,0,0,0,0,0,0,-1,1406,785,0,0
189,239,0,0,0,0,0,0,0,0,0,-1,1413,785,0,0
196,239,0,0,0,0,0,0,0,0,0,-1,1420,785,0,0
203,239,0,0,0,0,0,0,0,0,0,-1,1427,785,0,0
210,239,0,0,0,0,0,0,0,0,0,-1,1434,785,0,0
217,239,0,0,0,0,0,0,0,0,0,-1,1441,785,0,0
224,239,0,0,0,0,0,0,0,0,0,-1,1448,785,0,0
231,239,0,0,0,0,0,0,0,0,0,-1,1455,785,0,0
238,239,0,0,0,0,0,0,0,0,0,-1,1462,785,0,0
245,239,0,0,0,0,0,0,0,0,0,-1,1469,785,0,0
252,239,0,0,0,0,0,0,0,0,0,-1,1476,785,0,0
259,239,0,0,0,0,0,0,0,0,0,-1,1483,785,0,0
266,239,0,0,0,0,0,0,0,0,0,-1,1490,785,0,0
273,239,0,0,0,0,0,0,0,0,0,-1,1497,785,0,0
280,239,0,0,0,0,0,0,0,0,0,-1,1504,785,0,0
287,239,0,0,0,0,0,0,0,0,0,-1,1511,785,0,0
294,239,0,0,0,0,0,0,0,0,0,-1,1518,785,0,0
301,239,0,0,0,0,0,0,0,0,0,-1,1525,785,0,0
308,239,0,0,0,0,0,0,0,0,0,-1,1532,785,0,0
315,239,0,0,0,0,0,0,0,0,0,-1,1539,785,0,0
322,239,0,0,0,0,0,0,0,0,0,-1,1546,785,0,0
329,239,0,0,0,0,0,0,0,0,0,-1,1553,785,0,0
336,239,0,0,0,0,0,0,0,0,0,-1,1560,785,0,0
343,239,0,0,0,0,0,0,0,0,0,-1,1567,785,0,0
350,239,0,0,0,0,0,0,0,0,0,-1,1574,785,0,0
357,239,0,0,0,0,0,0,0,0,0,-1,1581,785,0,0
364,239,0,0,0,0,0,0,0,0,0,-1,1588,785,0,0
371,239,0,0,0,0,0,0,0,0,0,-1,1595,785,0,0
378,239,0,0,0,0,0,0,0,0,0,-1,1602,785,0,0
385,239,0,0,0,0,0,0,0,0,0,-1,1609,785,0,0
392,239,0,0,0,0,0,0,0,0,0,-1,1616,785,0,0
399,239,0,0,0,0,0,0,0,0,0,-1,1623,785,0,0
406,239,0,0,0,0,0,0,0,0,0,-1,1630,785,0,0
413,239,0,0,0,0,0,0,0,0,0,-1,1637,785,0,0
420,239,0,0,0,0,0,0,0,0,0,-1,1644,785,0,0
427,239,0,0,0,0,0,0,0,0,0,-1,1651,785,0,0
434,239,0,0,0,0,0,0,0,0,0,-1,1658,785,0,0
441,239,0,0,0,0,0,0,0,0,0,-1,1665,785,0,0
448,239,0,0,0,0,0,0,0,0,0,-1,1672,785,0,0
455,239,0,0,0,0,0,0,0,0,0,-1,1679,785,0,0
462,239,0,0,0,0,0,0,0,0,0,-1,1686,785,0,0
469,239,0,0,0,0,0,0,0,0,0,-1,1693,785,0,0
476,239,0,0,0,0,0,0,0,0,0,-1,1700,785,0,0
483,239,0,0,0,0,0,0,0,0,0,-1,1707,785,0,0
490,239,0,0,0,0,0,0,0,0,0,-1,1714,785,0,0
497,239,0,0,0,0,0,0,0,0,0,-1,1721,785,0,0
504,239,0,0,0,0,0,0,0,0,0,-1,1728,785,0,0
511,239,0,0,0,0,0,0,0,0,0,-1,1735,785,0,0
518,239,0,0,0,0,0,0,0,0,0,-1,1742,785,0,0
525,239,0,0,0,0,0,0,0,0,0,-1,1749,785,0,0
532,239,0,0,0,0,0,0,0,0,0,-1,1756,785,0,0
539,239,0,0,0,0,0,0,0,0,0,-1,1763,785,0,0
546,239,0,0,0,0,0,0,0,0,0,-1,1770,785,0,0
553,239,0,0,0,0,0,0,0,0,0,-1,1777,785,0,0
560,239,0,0,0,0,0,0,0,0,0,-1,1784,785,0,0
567,239,0,0,0,0,0,0,0,0,0,-1,1791,785,0,0
574,239,0,0,0,0,0,0,0,0,0,-1,1798,785,0,0
581,239,17.1193,2.76709,0.0133253,0.00545771,-0.0137039,0.0236488,-0.0048658,-0.645628,0.0176133,0.0379504,1805,785,17.1192,-2.76711
588,239,17.1372,2.66998,0.0125789,0.0052225,-0.00611995,0.0160409,0.00176045,-0.514816,0.0101581,0.0393279,1812,785,17.1372,-2.66998
595,239,17.3749,2.4502,0.0105417,0.00470877,-0.000799275,0.0106492,0.00460123,-0.133745,0.00616721,0.0347625,1819,785,17.3748,-2.45021
602,239,17.4553,2.48248,0.00802895,0.00378009,0.00250028,0.00918547,0.00262357,0.433245,0.0054633,0.0382439,1826,785,17.4553,-2.48246
609,239,17.5944,2.42432,0.00546884,0.0026771,0.00415474,0.00845593,-0.000309988,0.623337,0.00574341,0.0456949,1833,785,17.5944,-2.42432
616,239,17.6349,2.46411,0.00324621,0.00139683,0.00490334,0.00731129,-0.00266825,0.692201,0.00596594,0.0471602,1840,785,17.6348,-2.46411
623,239,17.5068,2.46057,0.00123303,0.000269752,0.00499694,0.00577148,-0.00426871,0.737353,0.00581831,0.0433511,1847,785,17.5068,-2.46058
630,239,16.7854,2.34387,-0.000217866,-0.000535994,0.00445545,0.00408136,-0.00483522,0.767555,0.00515411,0.0419845,1854,785,16.7854,-2.34388
637,239,16.1765,2.4743,0,0,0,0,0,0,0,-1,1861,785,16.1766,-2.47431
644,239,12.7306,0.767761,0,0,0,0,0,0,0,-1,1868,785,12.7306,-0.767737
651,239,12.7129,1.08429,-0.00304382,-0.00177906,0.00197958,-0.000333309,-0.00448957,0.94,0.00288836,0.0402797,1875,785,12.713,-1.08428
658,239,12.7196,1.39307,-0.00300564,-0.00221524,0.000684973,-0.00181964,-0.00340125,1.04705,0.00196531,0.0187955,1882,785,12.7196,-1.39304
665,239,12.756,1.61224,-0.00263094,-0.00222309,-0.000152049,-0.00217265,-0.00268139,-1.25045,0.00164446,0.014603,1889,785,12.756,-1.61222
672,239,12.7334,1.81897,-0.00167138,-0.00226305,-0.000700531,-0.00120678,-0.00272765,-0.585609,0.00157828,0.0202101,1896,785,12.7334,-1.819
679,239,12.7424,1.99646,-0.000499589,-0.00196766,-0.000901734,-7.08987e-05,-0.00239635,-0.44378,0.00157447,0.0203201,1903,785,12.7424,-1.99646
686,239,12.7589,2.1969,0.000995275,-0.0014093,-0.00112102,0.00143682,-0.00185085,-0.375216,0.00190314,0.0216979,1910,785,12.759,-2.19689
693,239,12.7351,2.36841,0.0032271,-0.000779682,0.00013108,0.00323138,-0.000783965,0.0326679,0.00245762,0.0146265,1917,785,12.7351,-2.36843
700,239,12.7434,2.53094,0.00674093,2.6917e-05,0.00218663,0.00739028,-0.000622425,0.288666,0.00514689,0.0111834,1924,785,12.7434,-2.53094
707,239,12.759,2.69275,0.0105715,0.000951667,0.00421607,0.0121577,-0.000634552,0.35985,0.00832471,0.0100597,1931,785,12.759,-2.69276
714,239,12.7419,2.86127,0.0149449,0.0012729,0.00640307,0.0174753,-0.00125755,0.376355,0.0120912,0.00937225,1938,785,12.7419,-2.86126
721,239,12.7413,3.05475,0.0204092,0.00191924,0.00964093,0.0245215,-0.00219307,0.40318,0.0171256,0.020019,1945,785,12.7413,-3.05475
728,239,12.8553,3.19977,0.0268977,0.00293325,0.0137761,0.0331735,-0.00334254,0.427465,0.0233098,0.0366745,1952,785,12.8554,-3.19978
735,239,13.0874,3.42664,0.0345975,0.00405483,0.0189615,0.0436726,-0.00502035,0.44639,0.0309247,0.0440516,1959,785,13.0874,-3.42666
742,239,13.2346,3.71637,0.043451,0.00524126,0.0250084,0.055817,-0.00712474,0.459217,0.0397994,0.0448587,1966,785,13.2346,-3.71636
749,239,13.6594,3.97253,0.0532317,0.00630227,0.031585,0.0691142,-0.00958024,0.465925,0.0495791,0.0425928,1973,785,13.6595,-3.97253
756,239,14.0703,4.85236,0.0636463,0.00691489,0.038119,0.0827956,-0.0122344,0.465529,0.0596946,0.0439097,1980,785,14.0703,-4.85233
763,239,0,0,0,0,0,0,0,0,0,-1,1987,785,0,0
770,239,0,0,0,0,0,0,0,0,0,-1,1994,785,0,0
777,239,0,0,0,0,0,0,0,0,0,-1,2001,785,0,0
784,239,0,0,0,0,0,0,0,0,0,-1,2008,785,0,0
791,239,0,0,0,0,0,0,0,0,0,-1,2015,785,0,0
798,239,0,0,0,0,0,0,0,0,0,-1,2022,785,0,0
805,239,0,0,0,0,0,0,0,0,0,-1,2029,785,0,0
812,239,0,0,0,0,0,0,0,0,0,-1,2036,785,0,0
-700,232,0,0,0,0,0,0,0,0,0,-1,524,792,0,0
-693,232,0,0,0,0,0,0,0,0,0,-1,531,792,0,0
-686,232,0,0,0,0,0,0,0,0,0,-1,538,792,0,0
-679,232,0,0,0,0,0,0,0,0,0,-1,545,792,0,0
-672,232,0,0,0,0,0,0,0,0,0,-1,552,792,0,0
-665,232,0,0,0,0,0,0,0,0,0,-1,559,792,0,0
-658,232,0,0,0,0,0,0,0,0,0,-1,566,792,0,0
-651,232,0,0,0,0,0,0,0,0,0,-1,573,792,0,0
-644,232,-10.6758,2.00781,0,0,0,0,0,0,0,-1,580,792,-10.6758,-2.00783
-637,232,-10.0154,2.63171,0.0745735,0.11785,-0.00322023,0.118089,0.0743352,-1.49693,0.0689365,0.0413468,587,792,-10.0154,-2.63169
-630,232,-9.24005,3.10553,0.0642508,0.0966752,-0.00732416,0.0982528,0.0626732,-1.35863,0.0574407,0.0471088,594,792,-9.24003,-3.10556
-623,232,-8.83191,3.05817,0.0542153,0.0777463,-0.0086591,0.0805893,0.0513723,-1.25356,0.0471107,0.0468662,601,792,-8.83189,-3.05814
-616,232,-8.37622,2.96576,0.0446131,0.0611362,-0.00841961,0.0646705,0.0410788,-1.17336,0.0377898,0.0437112,608,792,-8.37622,-2.96574
-609,232,-7.76721,1.3941,0,0,0,0,0,0,0,-1,615,792,-7.76723,-1.39409
-602,232,-7.78278,1.21686,0.0274289,0.0347862,-0.00603678,0.0381769,0.0240383,-1.05904,0.0222871,0.0461149,622,792,-7.7828,-1.21689
-595,232,-7.73645,1.02563,0.0202769,0.0248098,-0.00455287,0.0276292,0.0174575,-1.01635,0.0161355,0.0311474,629,792,-7.73646,-1.02562
-588,232,-7.72675,0.856262,0.0145682,0.0163253,-0.00319749,0.0187627,0.0121307,-0.919468,0.0109866,0.0115942,636,792,-7.72674,-0.856252
-581,232,-7.73621,0.706726,0.0093382,0.00882407,-0.00188246,0.0109811,0.00718121,-0.717539,0.00643933,0.00867127,643,792,-7.73621,-0.706735
-574,232,-7.73499,0.546814,0.00482832,0.00450197,-0.000166746,0.00489845,0.00443184,-0.39811,0.00312174,0.00853077,650,792,-7.73497,-0.546801
-567,232,-7.75427,0.377808,0.00148001,0.00174994,0.00126586,0.00288801,0.000341936,0.838507,0.00182209,0.00932647,657,792,-7.75424,-0.37781
-560,232,-7.76373,0.22406,-0.000475081,-0.000171453,0.00212936,0.0018115,-0.00245803,0.820986,0.00247442,0.0113395,664,792,-7.76373,-0.224036
-553,232,-7.76758,0.0591431,-0.00149905,-0.00126316,0.00279064,0.00141202,-0.00417424,0.806517,0.00335408,0.0126574,671,792,-7.76756,-0.0591595
-546,232,-7.78058,-0.107544,-0.00190003,-0.00241027,0.00340975,0.00126413,-0.00557443,0.748058,0.00420154,0.0205318,678,792,-7.78055,0.107553
-539,232,-7.78412,-0.287109,-0.00211232,-0.00211738,0.00341726,0.00130241,-0.00553211,0.785028,0.00419023,0.025046,685,792,-7.78411,0.287079
-532,232,-7.76385,-0.460876,-0.0018229,-0.00199486,0.0029025,0.000994892,-0.00481265,0.770591,0.00358636,0.015275,692,792,-7.76386,0.46086
-525,232,-7.78027,-0.606812,-0.00140825,-0.00147504,0.00210694,0.000665552,-0.00354885,0.777474,0.00261612,0.023094,699,792,-7.78027,0.606821
-518,232,-7.9079,-0.602295,-0.00105796,-0.000426953,0.00119038,0.000489031,-0.00197394,0.914941,0.00150568,0.0473817,706,792,-7.90792,0.602268
-511,232,-7.98364,-0.864075,-0.000673337,0.00143876,0.000255102,0.00146914,-0.000703712,1.45229,0.00128018,0.0450587,713,792,-7.98361,0.864081
-504,232,-7.58362,-0.935547,-0.000224966,0.00384786,-0.00092631,0.00404864,-0.000425745,-1.35735,0.00285162,0.0450973,720,792,-7.58363,0.935526
-497,232,-7.20349,-1.3089,0,0,0,0,0,0,0,-1,727,792,-7.20347,1.3089
-490,232,-11.3567,1.0733,-0.000229324,0.0110882,-0.003746,0.0122158,-0.00135688,-1.27842,0.00863176,0.0449481,734,792,-11.3567,-1.07331
-483,232,-11.306,0.910278,-0.00104139,0.0158218,-0.00468625,0.0170366,-0.00225618,-1.31716,0.0121796,0.0412122,741,792,-11.3061,-0.910304
-476,232,-11.3106,0.73053,-0.00282976,0.0210985,-0.00457236,0.0219424,-0.00367371,-1.38827,0.0159941,0.0350087,748,792,-11.3106,-0.730502
-469,232,-11.4161,0.542908,-0.00615636,0.0262335,-0.00240364,0.0264109,-0.00633376,-1.49712,0.0200548,0.034684,755,792,-11.4161,-0.542889
-462,232,0,0,0,0,0,0,0,0,0,-1,762,792,0,0
-455,232,0,0,0,0,0,0,0,0,0,-1,769,792,0,0
-448,232,0,0,0,0,0,0,0,0,0,-1,776,792,0,0
-441,232,0,0,0,0,0,0,0,0,0,-1,783,792,0,0
-434,232,0,0,0,0,0,0,0,0,0,-1,790,792,0,0
-427,232,0,0,0,0,0,0,0,0,0,-1,797,792,0,0
-420,232,0,0,0,0,0,0,0,0,0,-1,804,792,0,0
-413,232,0,0,0,0,0,0,0,0,0,-1,811,792,0,0
-406,232,0,0,0,0,0,0,0,0,0,-1,818,792,0,0
-399,232,0,0,0,0,0,0,0,0,0,-1,825,792,0,0
-392,232,0,0,0,0,0,0,0,0,0,-1,832,792,0,0
-385,232,0,0,0,0,0,0,0,0,0,-1,839,792,0,0
-378,232,0,0,0,0,0,0,0,0,0,-1,846,792,0,0
-371,232,0,0,0,0,0,0,0,0,0,-1,853,792,0,0
-364,232,0,0,0,0,0,0,0,0,0,-1,860,792,0,0
-357,232,0,0,0,0,0,0,0,0,0,-1,867,792,0,0
-350,232,0,0,0,0,0,0,0,0,0,-1,874,792,0,0
-343,232,0,0,0,0,0,0,0,0,0,-1,881,792,0,0
-336,232,0,0,0,0,0,0,0,0,0,-1,888,792,0,0
-329,232,0,0,0,0,0,0,0,0,0,-1,895,792,0,0
-322,232,0,0,0,0,0,0,0,0,0,-1,902,792,0,0
-315,232,0,0,0,0,0,0,0,0,0,-1,909,792,0,0
-308,232,0,0,0,0,0,0,0,0,0,-1,916,792,0,0
-301,232,0,0,0,0,0,0,0,0,0,-1,923,792,0,0
-294,232,0,0,0,0,0,0,0,0,0,-1,930,792,0,0
-287,232,0,0,0,0,0,0,0,0,0,-1,937,792,0,0
-280,232,0,0,0,0,0,0,0,0,0,-1,944,792,0,0
-273,232,0,0,0,0,0,0,0,0,0,-1,951,792,0,0
-266,232,0,0,0,0,0,0,0,0,0,-1,958,792,0,0
-259,232,0,0,0,0,0,0,0,0,0,-1,965,792,0,0
-252,232,0,0,0,0,0,0,0,0,0,-1,972,792,0,0
-245,232,0,0,0,0,0,0,0,0,0,-1,979,792,0,0
-238,232,0,0,0,0,0,0,0,0,0,-1,986,792,0,0
-231,232,0,0,0,0,0,0,0,0,0,-1,993,792,0,0
-224,232,0,0,0,0,0,0,0,0,0,-1,1000,792,0,0
-217,232,0,0,0,0,0,0,0,0,0,-1,1007,792,0,0
-210,232,0,0,0,0,0,0,0,0,0,-1,1014,792,0,0
-203,232,0,0,0,0,0,0,0,0,0,-1,1021,792,0,0
-196,232,0,0,0,0,0,0,0,0,0,-1,1028,792,0,0
-189,232,0,0,0,0,0,0,0,0,0,-1,1035,792,0,0
-182,232,0,0,0,0,0,0,0,0,0,-1,1042,792,0,0
-175,232,0,0,0,0,0,0,0,0,0,-1,1049,792,0,0
-168,232,0,0,0,0,0,0,0,0,0,-1,1056,792,0,0
-161,232,0,0,0,0,0,0,0,0,0,-1,1063,792,0,0
-154,232,0,0,0,0,0,0,0,0,0,-1,1070,792,0,0
-147,232,0,0,0,0,0,0,0,0,0,-1,1077,792,0,0
-140,232,0,0,0,0,0,0,0,0,0,-1,1084,792,0,0
-133,232,0,0,0,0,0,0,0,0,0,-1,1091,792,0,0
-126,232,0,0,0,0,0,0,0,0,0,-1,1098,792,0,0
-119,232,0,0,0,0,0,0,0,0,0,-1,1105,792,0,0
-112,232,0,0,0,0,0,0,0,0,0,-1,1112,792,0,0
-105,232,0,0,0,0,0,0,0,0,0,-1,1119,792,0,0
-98,232,0,0,0,0,0,0,0,0,0,-1,1126,792,0,0
-91,232,0,0,0,0,0,0,0,0,0,-1,1133,792,0,0
-84,232,0,0,0,0,0,0,0,0,0,-1,1140,792,0,0
-77,232,0,0,0,0,0,0,0,0,0,-1,1147,792,0,0
-70,232,0,0,0,0,0,0,0,0,0,-1,1154,792,0,0
-63,232,0,0,0,0,0,0,0,0,0,-1,1161,792,0,0
-56,232,0,0,0,0,0,0,0,0,0,-1,1168,792,0,0
-49,232,0,0,0,0,0,0,0,0,0,-1,1175,792,0,0
-42,232,0,0,0,0,0,0,0,0,0,-1,1182,792,0,0
-35,232,0,0,0,0,0,0,0,0,0,-1,1189,792,0,0
-28,232,0,0,0,0,0,0,0,0,0,-1,1196,792,0,0
-21,232,0,0,0,0,0,0,0,0,0,-1,1203,792,0,0
-14,232,0,0,0,0,0,0,0,0,0,-1,1210,792,0,0
-7,232,0,0,0,0,0,0,0,0,0,-1,1217,792,0,0
0,232,0,0,0,0,0,0,0,0,0,-1,1224,792,0,0
7,232,0,0,0,0,0,0,0,0,0,-1,1231,792,0,0
14,232,0,0,0,0,0,0,0,0,0,-1,1238,792,0,0
21,232,0,0,0,0,0,0,0,0,0,-1,1245,792,0,0
28,232,0,0,0,0,0,0,0,0,0,-1,1252,792,0,0
35,232,0,0,0,0,0,0,0,0,0,-1,1259,792,0,0
42,232,0,0,0,0,0,0,0,0,0,-1,1266,792,0,0
49,232,0,0,0,0,0,0,0,0,0,-1,1273,792,0,0
56,232,0,0,0,0,0,0,0,0,0,-1,1280,792,0,0
63,232,0,0,0,0,0,0,0,0,0,-1,1287,792,0,0
70,232,0,0,0,0,0,0,0,0,0,-1,1294,792,0,0
77,232,0,0,0,0,0,0,0,0,0,-1,1301,792,0,0
84,232,0,0,0,0,0,0,0,0,0,-1,1308,792,0,0
91,232,0,0,0,0,0,0,0,0,0,-1,1315,792,0,0
98,232,0,0,0,0,0,0,0,0,0,-1,1322,792,0,0
105,232,0,0,0,0,0,0,0,0,0,-1,1329,792,0,0
112,232,0,0,0,0,0,0,0,0,0,-1,1336,792,0,0
119,232,0,0,0,0,0,0,0,0,0,-1,1343,792,0,0
126,232,0,0,0,0,0,0,0,0,0,-1,1350,792,0,0
133,232,0,0,0,0,0,0,0,0,0,-1,1357,792,0,0
140,232,0,0,0,0,0,0,0,0,0,-1,1364,792,0,0
147,232,0,0,0,0,0,0,0,0,0,-1,1371,792,0,0
154,232,0,0,0,0,0,0,0,0,0,-1,1378,792,0,0
161,232,0,0,0,0,0,0,0,0,0,-1,1385,792,0,0
168,232,0,0,0,0,0,0,0,0,0,-1,1392,792,0,0
175,232,0,0,0,0,0,0,0,0,0,-1,1399,792,0,0
182,232,0,0,0,0,0,0,0,0,0,-1,1406,792,0,0
189,232,0,0,0,0,0,0,0,0,0,-1,1413,792,0,0
196,232,0,0,0,0,0,0,0,0,0,-1,1420,792,0,0
203,232,0,0,0,0,0,0,0,0,0,-1,1427,792,0,0
210,232,0,0,0,0,0,0,0,0,0,-1,1434,792,0,0
217,232,0,0,0,0,0,0,0,0,0,-1,1441,792,0,0
224,232,0,0,0,0,0,0,0,0,0,-1,1448,792,0,0
231,232,0,0,0,0,0,0,0,0,0,-1,1455,792,0,0
238,232,0,0,0,0,0,0,0,0,0,-1,1462,792,0,0
245,232,0,0,0,0,0,0,0,0,0,-1,1469,792,0,0
252,232,0,0,0,0,0,0,0,0,0,-1,1476,792,0,0
259,232,0,0,0,0,0,0,0,0,0,-1,1483,792,0,0
266,232,0,0,0,0,0,0,0,0,0,-1,1490,792,0,0
273,232,0,0,0,0,0,0,0,0,0,-1,1497,792,0,0
280,232,0,0,0,0,0,0,0,0,0,-1,1504,792,0,0
287,232,0,0,0,0,0,0,0,0,0,-1,1511,792,0,0
294,232,0,0,0,0,0,0,0,0,0,-1,1518,792,0,0
301,232,0,0,0,0,0,0,0,0,0,-1,1525,792,0,0
308,232,0,0,0,0,0,0,0,0,0,-1,1532,792,0,0
315,232,0,0,0,0,0,0,0,0,0,-1,1539,792,0,0
322,232,0,0,0,0,0,0,0,0,0,-1,1546,792,0,0
329,232,0,0,0,0,0,0,0,0,0,-1,1553,792,0,0
336,232,0,0,0,0,0,0,0,0,0,-1,1560,792,0,0
343,232,0,0,0,0,0,0,0,0,0,-1,1567,792,0,0
350,232,0,0,0,0,0,0,0,0,0,-1,1574,792,0,0
357,232,0,0,0,0,0,0,0,0,0,-1,1581,792,0,0
364,232,0,0,0,0,0,0,0,0,0,-1,1588,792,0,0
371,232,0,0,0,0,0,0,0,0,0,-1,1595,792,0,0
378,232,0,0,0,0,0,0,0,0,0,-1,1602,792,0,0
385,232,0,0,0,0,0,0,0,0,0,-1,1609,792,0,0
392,232,0,0,0,0,0,0,0,0,0,-1,1616,792,0,0
399,232,0,0,0,0,0,0,0,0,0,-1,1623,792,0,0
406,232,0,0,0,0,0,0,0,0,0,-1,1630,792,0,0
413,232,0,0,0,0,0,0,0,0,0,-1,1637,792,0,0
420,232,0,0,0,0,0,0,0,0,0,-1,1644,792,0,0
427,232,0,0,0,0,0,0,0,0,0,-1,1651,792,0,0
434,232,0,0,0,0,0,0,0,0,0,-1,1658,792,0,0
441,232,0,0,0,0,0,0,0,0,0,-1,1665,792,0,0
448,232,0,0,0,0,0,0,0,0,0,-1,1672,792,0,0
455,232,0,0,0,0,0,0,0,0,0,-1,1679,792,0,0
462,232,0,0,0,0,0,0,0,0,0,-1,1686,792,0,0
469,232,0,0,0,0,0,0,0,0,0,-1,1693,792,0,0
476,232,0,0,0,0,0,0,0,0,0,-1,1700,792,0,0
483,232,0,0,0,0,0,0,0,0,0,-1,1707,792,0,0
490,232,0,0,0,0,0,0,0,0,0,-1,1714,792,0,0
497,232,0,0,0,0,0,0,0,0,0,-1,1721,792,0,0
504,232,0,0,0,0,0,0,0,0,0,-1,1728,792,0,0
511,232,0,0,0,0,0,0,0,0,0,-1,1735,792,0,0
518,232,0,0,0,0,0,0,0,0,0,-1,1742,792,0,0
525,232,0,0,0,0,0,0,0,0,0,-1,1749,792,0,0
532,232,0,0,0,0,0,0,0,0,0,-1,1756,792,0,0
539,232,0,0,0,0,0,0,0,0,0,-1,1763,792,0,0
546,232,0,0,0,0,0,0,0,0,0,-1,1770,792,0,0
553,232,0,0,0,0,0,0,0,0,0,-1,1777,792,0,0
560,232,0,0,0,0,0,0,0,0,0,-1,1784,792,0,0
567,232,0,0,0,0,0,0,0,0,0,-1,1791,792,0,0
574,232,0,0,0,0,0,0,0,0,0,-1,1798,792,0,0
581,232,0,0,0,0,0,0,0,0,0,-1,1805,792,0,0
588,232,17.238,2.58704,0.0103801,0.00339681,-0.00649626,0.0142636,-0.000486713,-0.538807,0.00967538,0.0406061,1812,792,17.238,-2.58706
595,232,17.3622,2.33057,0.00864653,0.00351467,-0.00111147,0.00887691,0.00328429,-0.204382,0.00518252,0.0371485,1819,792,17.3621,-2.33056
602,232,17.3589,2.40338,0.00638068,0.00297764,0.00228786,0.00753039,0.00182794,0.465664,0.00453544,0.0338167,1826,792,17.3589,-2.40341
609,232,17.3953,2.46802,0.00406346,0.00200757,0.00393406,0.00710165,-0.00103063,0.657608,0.00511272,0.0372383,1833,792,17.3953,-2.46804
616,232,17.4844,2.46484,0.00199493,0.000837403,0.00450733,0.0059605,-0.00312817,0.721545,0.0053316,0.0419552,1840,792,17.4843,-2.46483
623,232,17.3939,2.47668,0.000175019,-0.00022758,0.00437925,0.00435759,-0.00441015,0.762431,0.00506209,0.0433344,1847,792,17.3939,-2.47668
630,232,17.3632,2.43884,0,0,0,0,0,0,0,-1,1854,792,17.3632,-2.43885
637,232,17.4155,2.40735,0,0,0,0,0,0,0,-1,1861,792,17.4155,-2.40738
644,232,17.4491,2.35065,0,0,0,0,0,0,0,-1,1868,792,17.4491,-2.35066
651,232,12.9686,1.06323,-0.00337736,-0.00211727,0.00118578,-0.00140454,-0.00409009,1.0296,0.00239971,0.0439108,1875,792,12.9686,-1.06322
658,232,12.9186,1.40637,-0.00331247,-0.00244526,9.0085e-06,-0.00244516,-0.00331256,1.56041,0.0019835,0.022617,1882,792,12.9185,-1.40638
665,232,12.9288,1.60791,-0.00300528,-0.00242653,-0.000778872,-0.00188501,-0.0035468,-0.963263,0.00204909,0.010966,1889,792,12.9289,-1.60792
672,232,12.8911,1.82074,-0.00221738,-0.00241508,-0.00129382,-0.00101863,-0.00361382,-0.747271,0.0021516,0.0169081,1896,792,12.8911,-1.82077
679,232,12.9166,2.00403,-0.00122114,-0.00211639,-0.00142394,-0.000176123,-0.0031614,-0.63311,0.00205142,0.0172462,1903,792,12.9167,-2.004
686,232,12.9384,2.17841,0.000127428,-0.0015302,-0.00151244,0.00102326,-0.00242603,-0.534745,0.00204561,0.0174013,1910,792,12.9384,-2.17843
693,232,12.9346,2.33783,0.00210142,-0.000855918,-0.000299177,0.00213138,-0.00088588,-0.0998167,0.00179081,0.010545,1917,792,12.9346,-2.33783
700,232,12.9403,2.51263,0.00508647,-8.02776e-06,0.00161285,0.00555414,-0.0004757,0.282227,0.00387108,0.0127578,1924,792,12.9403,-2.51266
707,232,12.9514,2.69153,0.00855026,0.000892131,0.00342684,0.00985977,-0.000417383,0.365011,0.00671663,0.0124674,1931,792,12.9514,-2.69151
714,232,12.9587,2.85931,0.0128333,0.0010178,0.00505049,0.0146979,-0.000846764,0.353663,0.0100927,0.0122404,1938,792,12.9588,-2.85934
721,232,12.9415,3.03333,0.0178667,0.00136896,0.0074554,0.0207366,-0.00150093,0.367458,0.0143509,0.0169677,1945,792,12.9416,-3.03331
728,232,12.9478,3.23651,0.0237909,0.00196622,0.0102706,0.0278641,-0.00210692,0.377556,0.0193167,0.0304102,1952,792,12.9477,-3.23652
735,232,13.0752,3.5918,0.0308163,0.0024369,0.0135812,0.0362684,-0.00301512,0.381745,0.025244,0.0433704,1959,792,13.0751,-3.5918
742,232,13.1357,3.88684,0,0,0,0,0,0,0,-1,1966,792,13.1357,-3.88682
749,232,13.783,3.29901,0.0480043,0.00243338,0.0204826,0.0558572,-0.0054196,0.366113,0.0391699,0.0442921,1973,792,13.783,-3.29902
756,232,14.4113,4.74762,0.0577186,0.0013366,0.0230303,0.0659299,-0.00687472,0.342492,0.0464149,0.0433453,1980,792,14.4112,-4.7476
763,232,12.3738,2.21539,0,0,0,0,0,0,0,-1,1987,792,12.3738,-2.2154
770,232,0,0,0,0,0,0,0,0,0,-1,1994,792,0,0
777,232,0,0,0,0,0,0,0,0,0,-1,2001,792,0,0
784,232,0,0,0,0,0,0,0,0,0,-1,2008,792,0,0
791,232,0,0,0,0,0,0,0,0,0,-1,2015,792,0,0
798,232,0,0,0,0,0,0,0,0,0,-1,2022,792,0,0
805,232,0,0,0,0,0,0,0,0,0,-1,2029,792,0,0
812,232,0,0,0,0,0,0,0,0,0,-1,2036,792,0,0
-700,225,0,0,0,0,0,0,0,0,0,-1,524,799,0,0
-693,225,0,0,0,0,0,0,0,0,0,-1,531,799,0,0
-686,225,0,0,0,0,0,0,0,0,0,-1,538,799,0,0
-679,225,0,0,0,0,0,0,0,0,0,-1,545,799,0,0
-672,225,0,0,0,0,0,0,0,0,0,-1,552,799,0,0
-665,225,0,0,0,0,0,0,0,0,0,-1,559,799,0,0
-658,225,0,0,0,0,0,0,0,0,0,-1,566,799,0,0
-651,225,0,0,0,0,0,0,0,0,0,-1,573,799,0,0
-644,225,-11.2614,0.843628,0,0,0,0,0,0,0,-1,580,799,-11.2614,-0.843625
-637,225,-10.5737,1.19641,0,0,0,0,0,0,0,-1,587,799,-10.5737,-1.1964
-630,225,-8.49719,2.60583,0,0,0,0,0,0,0,-1,594,799,-8.49719,-2.60581
-623,225,-8.37115,2.41803,0.0470592,0.07269,-0.00197679,0.0728415,0.0469076,-1.49427,0.0426322,0.0474071,601,799,-8.37118,-2.41801
-616,225,-8.02368,2.42456,0.0382105,0.0567041,-0.00360164,0.0573808,0.0375338,-1.38508,0.0336493,0.0481969,608,799,-8.0237,-2.42455
-609,225,-7.84204,2.00403,0.0301797,0.0429696,-0.00397394,0.0441038,0.0290456,-1.29279,0.0258867,0.0484841,615,799,-7.84203,-2.00402
-602,225,-7.93945,1.53259,0.0228443,0.0316207,-0.00393639,0.0331275,0.0213375,-1.20521,0.0193892,0.0424831,622,799,-7.93947,-1.53261
-595,225,-7.97345,1.06549,0.0166442,0.0222695,-0.00339144,0.0238628,0.0150508,-1.13158,0.0139333,0.0274757,629,799,-7.97344,-1.06546
-588,225,-7.9118,0.864136,0.0117555,0.014294,-0.00255317,0.015876,0.0101735,-1.01607,0.00928638,0.0127039,636,799,-7.91178,-0.864137
-581,225,-7.90015,0.711365,0.00713888,0.00731204,-0.00153381,0.00876171,0.00568921,-0.813592,0.00513322,0.0105678,643,799,-7.90015,-0.711346
-574,225,-7.9068,0.537842,0.00313766,0.00351148,0.000107165,0.00354002,0.00310911,1.3105,0.0022303,0.00803674,650,799,-7.90679,-0.537845
-567,225,-7.92377,0.362915,7.28903e-05,0.00117244,0.00162252,0.00233579,-0.00109047,0.948747,0.00202124,0.00993492,657,799,-7.92378,-0.362924
-560,225,-7.93134,0.208557,-0.00182956,-0.000660375,0.00262383,0.0014432,-0.00393313,0.895009,0.00321307,0.0107669,664,799,-7.93133,-0.208578
-553,225,-7.92572,0.0475464,-0.00289075,-0.00168804,0.00340557,0.00116886,-0.00574765,0.872787,0.00427499,0.011094,671,799,-7.92575,-0.0475686
-546,225,-7.94781,-0.114197,-0.0034392,-0.00269515,0.00412169,0.00107127,-0.00720562,0.830406,0.00519777,0.0196897,678,799,-7.94783,0.114176
-539,225,-7.93872,-0.281555,-0.00374775,-0.00248309,0.00430452,0.00123529,-0.00746613,0.858326,0.00543617,0.0237228,685,799,-7.93872,0.281557
-532,225,-7.93738,-0.437744,-0.00347978,-0.00237644,0.00399128,0.00110112,-0.00695734,0.854073,0.00504548,0.0159818,692,799,-7.9374,0.43776
-525,225,-8.00208,-0.508179,-0.00302921,-0.00193126,0.00335541,0.000919784,-0.00588025,0.866484,0.00425999,0.0344276,699,799,-8.00208,0.508152
-518,225,-7.91803,-0.41333,-0.0025484,-0.00103706,0.00252308,0.000841085,-0.00442654,0.930898,0.00326767,0.0424426,706,799,-7.91805,0.413324
-511,225,-7.55048,-0.374146,-0.00190662,0.000500925,0.00157432,0.00127896,-0.00268466,1.1118,0.00233588,0.0459488,713,799,-7.55049,0.374143
-504,225,-7.56165,-1.24921,0,0,0,0,0,0,0,-1,720,799,-7.56164,1.24923
-497,225,-11.1582,0.571106,-0.000381329,0.00515611,-0.00130765,0.00544938,-0.000674596,-1.35018,0.0038774,0.0432068,727,799,-11.1582,-0.571128
-490,225,-11.2845,0.780334,5.82023e-05,0.00850719,-0.00301858,0.00947483,-0.000909431,-1.26059,0.00664049,0.0388741,734,799,-11.2846,-0.780355
-483,225,-11.3087,0.741333,-0.000114799,0.012462,-0.00439602,0.0138462,-0.00149901,-1.26575,0.00976887,0.0319366,741,799,-11.3087,-0.741345
-476,225,-11.3114,0.621338,-0.00150221,0.016778,-0.00472297,0.0179262,-0.00265035,-1.33233,0.0129251,0.030113,748,799,-11.3114,-0.621366
-469,225,-11.3456,0.494263,-0.0048448,0.0205596,-0.00284232,0.0208737,-0.00515892,-1.46073,0.0159166,0.0341699,755,799,-11.3456,-0.494271
-462,225,0,0,0,0,0,0,0,0,0,-1,762,799,0,0
-455,225,0,0,0,0,0,0,0,0,0,-1,769,799,0,0
-448,225,0,0,0,0,0,0,0,0,0,-1,776,799,0,0
-441,225,0,0,0,0,0,0,0,0,0,-1,783,799,0,0
-434,225,0,0,0,0,0,0,0,0,0,-1,790,799,0,0
-427,225,0,0,0,0,0,0,0,0,0,-1,797,799,0,0
-420,225,0,0,0,0,0,0,0,0,0,-1,804,799,0,0
-413,225,0,0,0,0,0,0,0,0,0,-1,811,799,0,0
-406,225,0,0,0,0,0,0,0,0,0,-1,818,799,0,0
-399,225,0,0,0,0,0,0,0,0,0,-1,825,799,0,0
-392,225,0,0,0,0,0,0,0,0,0,-1,832,799,0,0
-385,225,0,0,0,0,0,0,0,0,0,-1,839,799,0,0
-378,225,0,0,0,0,0,0,0,0,0,-1,846,799,0,0
-371,225,0,0,0,0,0,0,0,0,0,-1,853,799,0,0
-364,225,0,0,0,0,0,0,0,0,0,-1,860,799,0,0
-357,225,0,0,0,0,0,0,0,0,0,-1,867,799,0,0
-350,225,0,0,0,0,0,0,0,0,0,-1,874,799,0,0
-343,225,0,0,0,0,0,0,0,0,0,-1,881,799,0,0
-336,225,0,0,0,0,0,0,0,0,0,-1,888,799,0,0
-329,225,0,0,0,0,0,0,0,0,0,-1,895,799,0,0
-322,225,0,0,0,0,0,0,0,0,0,-1,902,799,0,0
-315,225,0,0,0,0,0,0,0,0,0,-1,909,799,0,0
-308,225,0,0,0,0,0,0,0,0,0,-1,916,799,0,0
-301,225,0,0,0,0,0,0,0,0,0,-1,923,799,0,0
-294,225,0,0,0,0,0,0,0,0,0,-1,930,799,0,0
-287,225,0,0,0,0,0,0,0,0,0,-1,937,799,0,0
-280,225,0,0,0,0,0,0,0,0,0,-1,944,799,0,0
-273,225,0,0,0,0,0,0,0,0,0,-1,951,799,0,0
-266,225,0,0,0,0,0,0,0,0,0,-1,958,799,0,0
-259,225,0,0,0,0,0,0,0,0,0,-1,965,799,0,0
-252,225,0,0,0,0,0,0,0,0,0,-1,972,799,0,0
-245,225,0,0,0,0,0,0,0,0,0,-1,979,799,0,0
-238,225,0,0,0,0,0,0,0,0,0,-1,986,799,0,0
-231,225,0,0,0,0,0,0,0,0,0,-1,993,799,0,0
-224,225,0,0,0,0,0,0,0,0,0,-1,1000,799,0,0
-217,225,0,0,0,0,0,0,0,0,0,-1,1007,799,0,0
-210,225,0,0,0,0,0,0,0,0,0,-1,1014,799,0,0
-203,225,0,0,0,0,0,0,0,0,0,-1,1021,799,0,0
-196,225,0,0,0,0,0,0,0,0,0,-1,1028,799,0,0
-189,225,0,0,0,0,0,0,0,0,0,-1,1035,799,0,0
-182,225,0,0,0,0,0,0,0,0,0,-1,1042,799,0,0
-175,225,0,0,0,0,0,0,0,0,0,-1,1049,799,0,0
-168,225,0,0,0,0,0,0,0,0,0,-1,1056,799,0,0
-161,225,0,0,0,0,0,0,0,0,0,-1,1063,799,0,0
-154,225,0,0,0,0,0,0,0,0,0,-1,1070,799,0,0
-147,225,0,0,0,0,0,0,0,0,0,-1,1077,799,0,0
-140,225,0,0,0,0,0,0,0,0,0,-1,1084,799,0,0
-133,225,0,0,0,0,0,0,0,0,0,-1,1091,799,0,0
-126,225,0,0,0,0,0,0,0,0,0,-1,1098,799,0,0
-119,225,0,0,0,0,0,0,0,0,0,-1,1105,799,0,0
-112,225,0,0,0,0,0,0,0,0,0,-1,1112,799,0,0
-105,225,0,0,0,0,0,0,0,0,0,-1,1119,799,0,0
-98,225,0,0,0,0,0,0,0,0,0,-1,1126,799,0,0
-91,225,0,0,0,0,0,0,0,0,0,-1,1133,799,0,0
-84,225,0,0,0,0,0,0,0,0,0,-1,1140,799,0,0
-77,225,0,0,0,0,0,0,0,0,0,-1,1147,799,0,0
-70,225,0,0,0,0,0,0,0,0,0,-1,1154,799,0,0
-63,225,0,0,0,0,0,0,0,0,0,-1,1161,799,0,0
-56,225,0,0,0,0,0,0,0,0,0,-1,1168,799,0,0
-49,225,0,0,0,0,0,0,0,0,0,-1,1175,799,0,0
-42,225,0,0,0,0,0,0,0,0,0,-1,1182,799,0,0
-35,225,0,0,0,0,0,0,0,0,0,-1,1189,799,0,0
-28,225,0,0,0,0,0,0,0,0,0,-1,1196,799,0,0
-21,225,0,0,0,0,0,0,0,0,0,-1,1203,799,0,0
-14,225,0,0,0,0,0,0,0,0,0,-1,1210,799,0,0
-7,225,0,0,0,0,0,0,0,0,0,-1,1217,799,0,0
0,225,0,0,0,0,0,0,0,0,0,-1,1224,799,0,0
7,225,0,0,0,0,0,0,0,0,0,-1,1231,799,0,0
14,225,0,0,0,0,0,0,0,0,0,-1,1238,799,0,0
21,225,0,0,0,0,0,0,0,0,0,-1,1245,799,0,0
28,225,0,0,0,0,0,0,0,0,0,-1,1252,799,0,0
35,225,0,0,0,0,0,0,0,0,0,-1,1259,799,0,0
42,225,0,0,0,0,0,0,0,0,0,-1,1266,799,0,0
49,225,0,0,0,0,0,0,0,0,0,-1,1273,799,0,0
56,225,0,0,0,0,0,0,0,0,0,-1,1280,799,0,0
63,225,0,0,0,0,0,0,0,0,0,-1,1287,799,0,0
70,225,0,0,0,0,0,0,0,0,0,-1,1294,799,0,0
77,225,0,0,0,0,0,0,0,0,0,-1,1301,799,0,0
84,225,0,0,0,0,0,0,0,0,0,-1,1308,799,0,0
91,225,0,0,0,0,0,0,0,0,0,-1,1315,799,0,0
98,225,0,0,0,0,0,0,0,0,0,-1,1322,799,0,0
105,225,0,0,0,0,0,0,0,0,0,-1,1329,799,0,0
112,225,0,0,0,0,0,0,0,0,0,-1,1336,799,0,0
119,225,0,0,0,0,0,0,0,0,0,-1,1343,799,0,0
126,225,0,0,0,0,0,0,0,0,0,-1,1350,799,0,0
133,225,0,0,0,0,0,0,0,0,0,-1,1357,799,0,0
140,225,0,0,0,0,0,0,0,0,0,-1,1364,799,0,0
147,225,0,0,0,0,0,0,0,0,0,-1,1371,799,0,0
154,225,0,0,0,0,0,0,0,0,0,-1,1378,799,0,0
161,225,0,0,0,0,0,0,0,0,0,-1,1385,799,0,0
168,225,0,0,0,0,0,0,0,0,0,-1,1392,799,0,0
175,225,0,0,0,0,0,0,0,0,0,-1,1399,799,0,0
182,225,0,0,0,0,0,0,0,0,0,-1,1406,799,0,0
189,225,0,0,0,0,0,0,0,0,0,-1,1413,799,0,0
196,225,0,0,0,0,0,0,0,0,0,-1,1420,799,0,0
203,225,0,0,0,0,0,0,0,0,0,-1,1427,799,0,0
210,225,0,0,0,0,0,0,0,0,0,-1,1434,799,0,0
217,225,0,0,0,0,0,0,0,0,0,-1,1441,799,0,0
224,225,0,0,0,0,0,0,0,0,0,-1,1448,799,0,0
231,225,0,0,0,0,0,0,0,0,0,-1,1455,799,0,0
238,225,0,0,0,0,0,0,0,0,0,-1,1462,799,0,0
245,225,0,0,0,0,0,0,0,0,0,-1,1469,799,0,0
252,225,0,0,0,0,0,0,0,0,0,-1,1476,799,0,0
259,225,0,0,0,0,0,0,0,0,0,-1,1483,799,0,0
266,225,0,0,0,0,0,0,0,0,0,-1,1490,799,0,0
273,225,0,0,0,0,0,0,0,0,0,-1,1497,799,0,0
280,225,0,0,0,0,0,0,0,0,0,-1,1504,799,0,0
287,225,0,0,0,0,0,0,0,0,0,-1,1511,799,0,0
294,225,0,0,0,0,0,0,0,0,0,-1,1518,799,0,0
301,225,0,0,0,0,0,0,0,0,0,-1,1525,799,0,0
308,225,0,0,0,0,0,0,0,0,0,-1,1532,799,0,0
315,225,0,0,0,0,0,0,0,0,0,-1,1539,799,0,0
322,225,0,0,0,0,0,0,0,0,0,-1,1546,799,0,0
329,225,0,0,0,0,0,0,0,0,0,-1,1553,799,0,0
336,225,0,0,0,0,0,0,0,0,0,-1,1560,799,0,0
343,225,0,0,0,0,0,0,0,0,0,-1,1567,799,0,0
350,225,0,0,0,0,0,0,0,0,0,-1,1574,799,0,0
357,225,0,0,0,0,0,0,0,0,0,-1,1581,799,0,0
364,225,0,0,0,0,0,0,0,0,0,-1,1588,799,0,0
371,225,0,0,0,0,0,0,0,0,0,-1,1595,799,0,0
378,225,0,0,0,0,0,0,0,0,0,-1,1602,799,0,0
385,225,0,0,0,0,0,0,0,0,0,-1,1609,799,0,0
392,225,0,0,0,0,0,0,0,0,0,-1,1616,799,0,0
399,225,0,0,0,0,0,0,0,0,0,-1,1623,799,0,0
406,225,0,0,0,0,0,0,0,0,0,-1,1630,799,0,0
413,225,0,0,0,0,0,0,0,0,0,-1,1637,799,0,0
420,225,0,0,0,0,0,0,0,0,0,-1,1644,799,0,0
427,225,0,0,0,0,0,0,0,0,0,-1,1651,799,0,0
434,225,0,0,0,0,0,0,0,0,0,-1,1658,799,0,0
441,225,0,0,0,0,0,0,0,0,0,-1,1665,799,0,0
448,225,0,0,0,0,0,0,0,0,0,-1,1672,799,0,0
455,225,0,0,0,0,0,0,0,0,0,-1,1679,799,0,0
462,225,0,0,0,0,0,0,0,0,0,-1,1686,799,0,0
469,225,0,0,0,0,0,0,0,0,0,-1,1693,799,0,0
476,225,0,0,0,0,0,0,0,0,0,-1,1700,799,0,0
483,225,0,0,0,0,0,0,0,0,0,-1,1707,799,0,0
490,225,0,0,0,0,0,0,0,0,0,-1,1714,799,0,0
497,225,0,0,0,0,0,0,0,0,0,-1,1721,799,0,0
504,225,0,0,0,0,0,0,0,0,0,-1,1728,799,0,0
511,225,0,0,0,0,0,0,0,0,0,-1,1735,799,0,0
518,225,0,0,0,0,0,0,0,0,0,-1,1742,799,0,0
525,225,0,0,0,0,0,0,0,0,0,-1,1749,799,0,0
532,225,0,0,0,0,0,0,0,0,0,-1,1756,799,0,0
539,225,0,0,0,0,0,0,0,0,0,-1,1763,799,0,0
546,225,0,0,0,0,0,0,0,0,0,-1,1770,799,0,0
553,225,0,0,0,0,0,0,0,0,0,-1,1777,799,0,0
560,225,0,0,0,0,0,0,0,0,0,-1,1784,799,0,0
567,225,0,0,0,0,0,0,0,0,0,-1,1791,799,0,0
574,225,0,0,0,0,0,0,0,0,0,-1,1798,799,0,0
581,225,0,0,0,0,0,0,0,0,0,-1,1805,799,0,0
588,225,17.3522,2.50275,0.0089208,0.00123345,-0.00658584,0.0127025,-0.0025483,-0.521251,0.00943324,0.0377451,1812,799,17.3522,-2.50274
595,225,17.3872,2.24799,0.00711648,0.0021001,-0.00134039,0.00745217,0.00176441,-0.245396,0.00449688,0.0353445,1819,799,17.3872,-2.24802
602,225,17.2777,2.37231,0.00495419,0.00207933,0.00199093,0.00597237,0.00106116,0.472732,0.00367923,0.0346612,1826,799,17.2777,-2.37234
609,225,17.2485,2.54462,0.00287479,0.00130699,0.00354946,0.00572588,-0.0015441,0.676718,0.00442273,0.0332391,1833,799,17.2485,-2.54459
616,225,17.2604,2.58972,0.000935841,0.00032255,0.00395019,0.00459127,-0.00333288,0.746662,0.0045942,0.0369993,1840,799,17.2603,-2.58972
623,225,17.3212,2.56195,-0.000782281,-0.000632952,0.00355945,0.00285262,-0.00426785,0.795885,0.00413798,0.0384442,1847,799,17.3212,-2.56195
630,225,17.3721,2.48407,-0.00198807,-0.00136127,0.00274871,0.00109185,-0.00444119,0.842162,0.00338398,0.0400717,1854,799,17.372,-2.48409
637,225,17.3539,2.42572,-0.00287556,-0.00173428,0.00182289,-0.000394808,-0.00421504,0.937087,0.00268811,0.0439626,1861,799,17.3538,-2.42573
644,225,13.7689,1.55676,0,0,0,0,0,0,0,-1,1868,799,13.7689,-1.55679
651,225,13.5602,1.59503,-0.00397693,-0.00237052,0.000162358,-0.00235427,-0.00399318,1.47107,0.00231776,0.0431746,1875,799,13.5602,-1.59502
658,225,13.3439,1.59021,-0.00393671,-0.00260524,-0.000899076,-0.00215225,-0.0043897,-1.10408,0.00253455,0.034875,1882,799,13.3439,-1.59018
665,225,13.1311,1.59247,-0.00370327,-0.00256308,-0.00164619,-0.00139106,-0.00487529,-0.952091,0.00289993,0.0127754,1889,799,13.1311,-1.59246
672,225,13.0936,1.8175,-0.00309039,-0.00251425,-0.0021289,-0.00065402,-0.00495062,-0.852647,0.00310545,0.0164457,1896,799,13.0936,-1.81752
679,225,13.0972,2.03204,-0.00226106,-0.00222185,-0.00221825,-2.31168e-05,-0.00445979,-0.789817,0.00296552,0.0163758,1903,799,13.0971,-2.03202
686,225,13.1274,2.16827,-0.000994152,-0.00161817,-0.00221255,0.000928283,-0.0035406,-0.715352,0.00272309,0.0105593,1910,799,13.1274,-2.16826
693,225,13.1177,2.34393,0.000855354,-0.000911301,-0.00108306,0.00136962,-0.00142557,-0.443312,0.00161391,0.0105124,1917,799,13.1177,-2.34396
700,225,13.1123,2.52399,0.00345093,-2.02714e-05,0.000638588,0.00356468,-0.000134023,0.176281,0.00242237,0.0119899,1924,799,13.1123,-2.52402
707,225,13.1135,2.70288,0.00656166,0.000839754,0.00219789,0.00730844,9.29723e-05,0.327535,0.0048416,0.0120107,1931,799,13.1135,-2.70291
714,225,13.134,2.88159,0.0105203,0.00086943,0.00326177,0.0115193,-0.000129561,0.297202,0.00772309,0.0125438,1938,799,13.134,-2.8816
721,225,13.1517,3.04907,0.0150255,0.000980989,0.00487483,0.0165517,-0.00054521,0.303411,0.0112206,0.0128932,1945,799,13.1517,-3.0491
728,225,13.1455,3.21149,0.0201871,0.00126059,0.00650663,0.0222082,-0.000760464,0.301166,0.0150653,0.0213543,1952,799,13.1456,-3.21151
735,225,13.2534,3.49872,0.0261912,0.00123416,0.0081331,0.0286077,-0.0011823,0.288808,0.0194779,0.0411939,1959,799,13.2534,-3.49869
742,225,13.5536,3.85638,0.0331533,0.000761987,0.00948305,0.0357254,-0.00181008,0.264856,0.0244426,0.048761,1966,799,13.5536,-3.85639
749,225,13.7537,4.11462,0.0409369,-0.000426617,0.0101344,0.0432864,-0.00277616,0.227814,0.0298261,0.0492314,1973,799,13.7536,-4.11465
756,225,12.017,2.94861,0,0,0,0,0,0,0,-1,1980,799,12.017,-2.94863
763,225,12.4877,2.23273,0,0,0,0,0,0,0,-1,1987,799,12.4877,-2.23271
770,225,0,0,0,0,0,0,0,0,0,-1,1994,799,0,0
777,225,0,0,0,0,0,0,0,0,0,-1,2001,799,0,0
784,225,0,0,0,0,0,0,0,0,0,-1,2008,799,0,0
791,225,0,0,0,0,0,0,0,0,0,-1,2015,799,0,0
798,225,0,0,0,0,0,0,0,0,0,-1,2022,799,0,0
805,225,0,0,0,0,0,0,0,0,0,-1,2029,799,0,0
812,225,0,0,0,0,0,0,0,0,0,-1,2036,799,0,0
-700,218,0,0,0,0,0,0,0,0,0,-1,524,806,0,0
-693,218,0,0,0,0,0,0,0,0,0,-1,531,806,0,0
-686,218,0,0,0,0,0,0,0,0,0,-1,538,806,0,0
-679,218,0,0,0,0,0,0,0,0,0,-1,545,806,0,0
-672,218,0,0,0,0,0,0,0,0,0,-1,552,806,0,0
-665,218,0,0,0,0,0,0,0,0,0,-1,559,806,0,0
-658,218,0,0,0,0,0,0,0,0,0,-1,566,806,0,0
-651,218,-10.5349,1.38483,0,0,0,0,0,0,0,-1,573,806,-10.5348,-1.38484
-644,218,-11.6824,-0.321899,0,0,0,0,0,0,0,-1,580,806,-11.6824,0.321892
-637,218,-11.0422,0.13623,0,0,0,0,0,0,0,-1,587,806,-11.0422,-0.136248
-630,218,-8.90186,2.50525,0,0,0,0,0,0,0,-1,594,806,-8.90189,-2.50524
-623,218,-8.57251,2.31989,0.0402535,0.0672901,0.00451516,0.0680242,0.0395194,1.40962,0.039445,0.0484799,601,806,-8.57253,-2.31988
-616,218,-8.2066,2.18689,0.0321327,0.0523332,0.00117339,0.0524011,0.0320647,1.51297,0.0305054,0.0487946,608,806,-8.20663,-2.18688
-609,218,-7.91113,1.88568,0.0249809,0.0394867,-0.000717532,0.0395221,0.0249455,-1.52149,0.0230784,0.0458623,615,806,-7.91116,-1.88569
-602,218,-8.03784,1.37579,0.0184937,0.0288942,-0.00192123,0.0292378,0.0181502,-1.39385,0.0170438,0.0366705,622,806,-8.03781,-1.37579
-595,218,-8.12189,1.01172,0.0131323,0.0201502,-0.00217843,0.0207715,0.0125111,-1.293,0.0120758,0.0166586,629,806,-8.1219,-1.01172
-588,218,-8.0813,0.858032,0.00897834,0.0126588,-0.00182419,0.0134097,0.00822741,-1.18028,0.00780836,0.0114812,636,806,-8.08128,-0.858054
-581,218,-8.07385,0.714905,0.0049497,0.00617922,-0.00107323,0.00680129,0.00432763,-1.04549,0.00397506,0.0105596,643,806,-8.07386,-0.714892
-574,218,-8.07727,0.556152,0.0014147,0.00281645,0.000511355,0.00298317,0.00124799,1.25564,0.00172997,0.00980103,650,806,-8.07724,-0.556165
-567,218,-8.06049,0.370361,-0.00138181,0.00083978,0.00207791,0.00208516,-0.00262719,1.03086,0.00272667,0.0158276,657,806,-8.06048,-0.370342
-560,218,-8.07684,0.223938,-0.00321086,-0.000855242,0.00315177,0.0013316,-0.00539771,0.964212,0.0041148,0.0170499,664,806,-8.07682,-0.22394
-553,218,-8.04858,0.0594482,-0.00428469,-0.00181334,0.00398797,0.00112601,-0.00722404,0.935633,0.00523191,0.0179729,671,806,-8.04858,-0.0594502
-546,218,-8.07867,-0.123108,-0.00492964,-0.00261481,0.00471852,0.00108617,-0.00863062,0.90567,0.00614787,0.0148427,678,806,-8.07865,0.123079
-539,218,-8.09869,-0.287476,-0.0053021,-0.00243559,0.00501477,0.00134672,-0.00908441,0.924591,0.00655148,0.0175782,685,806,-8.09869,0.287499
-532,218,-8.11627,-0.375122,-0.00505501,-0.0023138,0.00484231,0.00134814,-0.00871695,0.923315,0.00630888,0.0188994,692,806,-8.1163,0.375092
-525,218,-8.48596,-0.289856,-0.00457228,-0.00190202,0.00430972,0.00127464,-0.00774894,0.935608,0.00563907,0.0446817,699,806,-8.48596,0.289853
-518,218,-8.659,-0.158386,-0.00395948,-0.00110674,0.00353281,0.00127679,-0.006343,0.977266,0.00471228,0.0424134,706,806,-8.65899,0.158371
-511,218,-8.59387,0.0714111,0,0,0,0,0,0,0,-1,713,806,-8.59388,-0.071432
-504,218,-11.4245,0.689636,-0.00185867,0.00184579,0.00120081,0.00220098,-0.00221386,1.28321,0.00254891,0.0444048,720,806,-11.4245,-0.689627
-497,218,-11.2542,0.739868,-0.000590501,0.00396999,-0.000561599,0.00403813,-0.00065864,-1.45006,0.00293636,0.0463858,727,806,-11.2542,-0.739895
-490,218,-11.2664,0.715454,0.00051948,0.00668528,-0.00254266,0.00759855,-0.000393791,-1.22597,0.00520194,0.0339061,734,806,-11.2664,-0.715453
-483,218,-11.2538,0.653687,0.000971178,0.00977832,-0.00426035,0.0115019,-0.000752404,-1.18636,0.00793064,0.0313212,741,806,-11.2538,-0.653696
-476,218,-11.1984,0.650391,5.32688e-05,0.0129183,-0.00490194,0.0145732,-0.00160163,-1.24521,0.010291,0.0356265,748,806,-11.1984,-0.650384
-469,218,0,0,0,0,0,0,0,0,0,-1,755,806,0,0
-462,218,0,0,0,0,0,0,0,0,0,-1,762,806,0,0
-455,218,0,0,0,0,0,0,0,0,0,-1,769,806,0,0
-448,218,0,0,0,0,0,0,0,0,0,-1,776,806,0,0
-441,218,0,0,0,0,0,0,0,0,0,-1,783,806,0,0
-434,218,0,0,0,0,0,0,0,0,0,-1,790,806,0,0
-427,218,0,0,0,0,0,0,0,0,0,-1,797,806,0,0
-420,218,0,0,0,0,0,0,0,0,0,-1,804,806,0,0
-413,218,0,0,0,0,0,0,0,0,0,-1,811,806,0,0
-406,218,0,0,0,0,0,0,0,0,0,-1,818,806,0,0
-399,218,0,0,0,0,0,0,0,0,0,-1,825,806,0,0
-392,218,0,0,0,0,0,0,0,0,0,-1,832,806,0,0
-385,218,0,0,0,0,0,0,0,0,0,-1,839,806,0,0
-378,218,0,0,0,0,0,0,0,0,0,-1,846,806,0,0
-371,218,0,0,0,0,0,0,0,0,0,-1,853,806,0,0
-364,218,0,0,0,0,0,0,0,0,0,-1,860,806,0,0
-357,218,0,0,0,0,0,0,0,0,0,-1,867,806,0,0
-350,218,0,0,0,0,0,0,0,0,0,-1,874,806,0,0
-343,218,0,0,0,0,0,0,0,0,0,-1,881,806,0,0
-336,218,0,0,0,0,0,0,0,0,0,-1,888,806,0,0
-329,218,0,0,0,0,0,0,0,0,0,-1,895,806,0,0
-322,218,0,0,0,0,0,0,0,0,0,-1,902,806,0,0
-315,218,0,0,0,0,0,0,0,0,0,-1,909,806,0,0
-308,218,0,0,0,0,0,0,0,0,0,-1,916,806,0,0
-301,218,0,0,0,0,0,0,0,0,0,-1,923,806,0,0
-294,218,0,0,0,0,0,0,0,0,0,-1,930,806,0,0
-287,218,0,0,0,0,0,0,0,0,0,-1,937,806,0,0
-280,218,0,0,0,0,0,0,0,0,0,-1,944,806,0,0
-273,218,0,0,0,0,0,0,0,0,0,-1,951,806,0,0
-266,218,0,0,0,0,0,0,0,0,0,-1,958,806,0,0
-259,218,0,0,0,0,0,0,0,0,0,-1,965,806,0,0
-252,218,0,0,0,0,0,0,0,0,0,-1,972,806,0,0
-245,218,0,0,0,0,0,0,0,0,0,-1,979,806,0,0
-238,218,0,0,0,0,0,0,0,0,0,-1,986,806,0,0
-231,218,0,0,0,0,0,0,0,0,0,-1,993,806,0,0
-224,218,0,0,0,0,0,0,0,0,0,-1,1000,806,0,0
-217,218,0,0,0,0,0,0,0,0,0,-1,1007,806,0,0
-210,218,0,0,0,0,0,0,0,0,0,-1,1014,806,0,0
-203,218,0,0,0,0,0,0,0,0,0,-1,1021,806,0,0
-196,218,0,0,0,0,0,0,0,0,0,-1,1028,806,0,0
-189,218,0,0,0,0,0,0,0,0,0,-1,1035,806,0,0
-182,218,0,0,0,0,0,0,0,0,0,-1,1042,806,0,0
-175,218,0,0,0,0,0,0,0,0,0,-1,1049,806,0,0
-168,218,0,0,0,0,0,0,0,0,0,-1,1056,806,0,0
-161,218,0,0,0,0,0,0,0,0,0,-1,1063,806,0,0
-154,218,0,0,0,0,0,0,0,0,0,-1,1070,806,0,0
-147,218,0,0,0,0,0,0,0,0,0,-1,1077,806,0,0
-140,218,0,0,0,0,0,0,0,0,0,-1,1084,806,0,0
-133,218,0,0,0,0,0,0,0,0,0,-1,1091,806,0,0
-126,218,0,0,0,0,0,0,0,0,0,-1,1098,806,0,0
-119,218,0,0,0,0,0,0,0,0,0,-1,1105,806,0,0
-112,218,0,0,0,0,0,0,0,0,0,-1,1112,806,0,0
-105,218,0,0,0,0,0,0,0,0,0,-1,1119,806,0,0
-98,218,0,0,0,0,0,0,0,0,0,-1,1126,806,0,0
-91,218,0,0,0,0,0,0,0,0,0,-1,1133,806,0,0
-84,218,0,0,0,0,0,0,0,0,0,-1,1140,806,0,0
-77,218,0,0,0,0,0,0,0,0,0,-1,1147,806,0,0
-70,218,0,0,0,0,0,0,0,0,0,-1,1154,806,0,0
-63,218,0,0,0,0,0,0,0,0,0,-1,1161,806,0,0
-56,218,0,0,0,0,0,0,0,0,0,-1,1168,806,0,0
-49,218,0,0,0,0,0,0,0,0,0,-1,1175,806,0,0
-42,218,0,0,0,0,0,0,0,0,0,-1,1182,806,0,0
-35,218,0,0,0,0,0,0,0,0,0,-1,1189,806,0,0
-28,218,0,0,0,0,0,0,0,0,0,-1,1196,806,0,0
-21,218,0,0,0,0,0,0,0,0,0,-1,1203,806,0,0
-14,218,0,0,0,0,0,0,0,0,0,-1,1210,806,0,0
-7,218,0,0,0,0,0,0,0,0,0,-1,1217,806,0,0
0,218,0,0,0,0,0,0,0,0,0,-1,1224,806,0,0
7,218,0,0,0,0,0,0,0,0,0,-1,1231,806,0,0
14,218,0,0,0,0,0,0,0,0,0,-1,1238,806,0,0
21,218,0,0,0,0,0,0,0,0,0,-1,1245,806,0,0
28,218,0,0,0,0,0,0,0,0,0,-1,1252,806,0,0
35,218,0,0,0,0,0,0,0,0,0,-1,1259,806,0,0
42,218,0,0,0,0,0,0,0,0,0,-1,1266,806,0,0
49,218,0,0,0,0,0,0,0,0,0,-1,1273,806,0,0
56,218,0,0,0,0,0,0,0,0,0,-1,1280,806,0,0
63,218,0,0,0,0,0,0,0,0,0,-1,1287,806,0,0
70,218,0,0,0,0,0,0,0,0,0,-1,1294,806,0,0
77,218,0,0,0,0,0,0,0,0,0,-1,1301,806,0,0
84,218,0,0,0,0,0,0,0,0,0,-1,1308,806,0,0
91,218,0,0,0,0,0,0,0,0,0,-1,1315,806,0,0
98,218,0,0,0,0,0,0,0,0,0,-1,1322,806,0,0
105,218,0,0,0,0,0,0,0,0,0,-1,1329,806,0,0
112,218,0,0,0,0,0,0,0,0,0,-1,1336,806,0,0
119,218,0,0,0,0,0,0,0,0,0,-1,1343,806,0,0
126,218,0,0,0,0,0,0,0,0,0,-1,1350,806,0,0
133,218,0,0,0,0,0,0,0,0,0,-1,1357,806,0,0
140,218,0,0,0,0,0,0,0,0,0,-1,1364,806,0,0
147,218,0,0,0,0,0,0,0,0,0,-1,1371,806,0,0
154,218,0,0,0,0,0,0,0,0,0,-1,1378,806,0,0
161,218,0,0,0,0,0,0,0,0,0,-1,1385,806,0,0
168,218,0,0,0,0,0,0,0,0,0,-1,1392,806,0,0
175,218,0,0,0,0,0,0,0,0,0,-1,1399,806,0,0
182,218,0,0,0,0,0,0,0,0,0,-1,1406,806,0,0
189,218,0,0,0,0,0,0,0,0,0,-1,1413,806,0,0
196,218,0,0,0,0,0,0,0,0,0,-1,1420,806,0,0
203,218,0,0,0,0,0,0,0,0,0,-1,1427,806,0,0
210,218,0,0,0,0,0,0,0,0,0,-1,1434,806,0,0
217,218,0,0,0,0,0,0,0,0,0,-1,1441,806,0,0
224,218,0,0,0,0,0,0,0,0,0,-1,1448,806,0,0
231,218,0,0,0,0,0,0,0,0,0,-1,1455,806,0,0
238,218,0,0,0,0,0,0,0,0,0,-1,1462,806,0,0
245,218,0,0,0,0,0,0,0,0,0,-1,1469,806,0,0
252,218,0,0,0,0,0,0,0,0,0,-1,1476,806,0,0
259,218,0,0,0,0,0,0,0,0,0,-1,1483,806,0,0
266,218,0,0,0,0,0,0,0,0,0,-1,1490,806,0,0
273,218,0,0,0,0,0,0,0,0,0,-1,1497,806,0,0
280,218,0,0,0,0,0,0,0,0,0,-1,1504,806,0,0
287,218,0,0,0,0,0,0,0,0,0,-1,1511,806,0,0
294,218,0,0,0,0,0,0,0,0,0,-1,1518,806,0,0
301,218,0,0,0,0,0,0,0,0,0,-1,1525,806,0,0
308,218,0,0,0,0,0,0,0,0,0,-1,1532,806,0,0
315,218,0,0,0,0,0,0,0,0,0,-1,1539,806,0,0
322,218,0,0,0,0,0,0,0,0,0,-1,1546,806,0,0
329,218,0,0,0,0,0,0,0,0,0,-1,1553,806,0,0
336,218,0,0,0,0,0,0,0,0,0,-1,1560,806,0,0
343,218,0,0,0,0,0,0,0,0,0,-1,1567,806,0,0
350,218,0,0,0,0,0,0,0,0,0,-1,1574,806,0,0
357,218,0,0,0,0,0,0,0,0,0,-1,1581,806,0,0
364,218,0,0,0,0,0,0,0,0,0,-1,1588,806,0,0
371,218,0,0,0,0,0,0,0,0,0,-1,1595,806,0,0
378,218,0,0,0,0,0,0,0,0,0,-1,1602,806,0,0
385,218,0,0,0,0,0,0,0,0,0,-1,1609,806,0,0
392,218,0,0,0,0,0,0,0,0,0,-1,1616,806,0,0
399,218,0,0,0,0,0,0,0,0,0,-1,1623,806,0,0
406,218,0,0,0,0,0,0,0,0,0,-1,1630,806,0,0
413,218,0,0,0,0,0,0,0,0,0,-1,1637,806,0,0
420,218,0,0,0,0,0,0,0,0,0,-1,1644,806,0,0
427,218,0,0,0,0,0,0,0,0,0,-1,1651,806,0,0
434,218,0,0,0,0,0,0,0,0,0,-1,1658,806,0,0
441,218,0,0,0,0,0,0,0,0,0,-1,1665,806,0,0
448,218,0,0,0,0,0,0,0,0,0,-1,1672,806,0,0
455,218,0,0,0,0,0,0,0,0,0,-1,1679,806,0,0
462,218,0,0,0,0,0,0,0,0,0,-1,1686,806,0,0
469,218,0,0,0,0,0,0,0,0,0,-1,1693,806,0,0
476,218,0,0,0,0,0,0,0,0,0,-1,1700,806,0,0
483,218,0,0,0,0,0,0,0,0,0,-1,1707,806,0,0
490,218,0,0,0,0,0,0,0,0,0,-1,1714,806,0,0
497,218,0,0,0,0,0,0,0,0,0,-1,1721,806,0,0
504,218,0,0,0,0,0,0,0,0,0,-1,1728,806,0,0
511,218,0,0,0,0,0,0,0,0,0,-1,1735,806,0,0
518,218,0,0,0,0,0,0,0,0,0,-1,1742,806,0,0
525,218,0,0,0,0,0,0,0,0,0,-1,1749,806,0,0
532,218,0,0,0,0,0,0,0,0,0,-1,1756,806,0,0
539,218,0,0,0,0,0,0,0,0,0,-1,1763,806,0,0
546,218,0,0,0,0,0,0,0,0,0,-1,1770,806,0,0
553,218,0,0,0,0,0,0,0,0,0,-1,1777,806,0,0
560,218,0,0,0,0,0,0,0,0,0,-1,1784,806,0,0
567,218,0,0,0,0,0,0,0,0,0,-1,1791,806,0,0
574,218,0,0,0,0,0,0,0,0,0,-1,1798,806,0,0
581,218,0,0,0,0,0,0,0,0,0,-1,1805,806,0,0
588,218,0,0,0,0,0,0,0,0,0,-1,1812,806,0,0
595,218,17.4052,2.3728,0.00623713,-0.000154035,-0.00142345,0.00653983,-0.000456731,-0.209529,0.00451983,0.0380656,1819,806,17.4051,-2.37283
602,218,17.2988,2.38965,0.00403178,0.00065899,0.00173674,0.00476617,-7.53957e-05,0.400052,0.00320287,0.0382523,1826,806,17.2988,-2.38966
609,218,17.1722,2.55719,0.00217508,0.000270169,0.00317496,0.00453737,-0.00209212,0.639675,0.00391336,0.0321595,1833,806,17.1722,-2.55719
616,218,17.2139,2.58698,0.000372089,-0.000352799,0.00343922,0.00346791,-0.00344862,0.732899,0.00399326,0.0297087,1840,806,17.2138,-2.58698
623,218,17.2346,2.58386,-0.00124505,-0.00109401,0.00286106,0.00169253,-0.00403159,0.798593,0.00339555,0.0335626,1847,806,17.2347,-2.58384
630,218,17.2015,2.66718,-0.00239602,-0.00172141,0.00193556,-9.39856e-05,-0.00402344,0.871666,0.00265152,0.036867,1854,806,17.2015,-2.66716
637,218,16.9675,2.48804,-0.00321502,-0.00203591,0.000976352,-0.00148492,-0.00376601,1.05701,0.00219044,0.0424544,1861,806,16.9675,-2.48805
644,218,16.9489,2.08362,-0.00392407,-0.002391,0.000248108,-0.00235184,-0.00396322,1.41428,0.00230144,0.0431294,1868,806,16.9488,-2.08362
651,218,13.9313,1.76434,0,0,0,0,0,0,0,-1,1875,806,13.9313,-1.76435
658,218,13.6473,1.62964,-0.00410286,-0.00266044,-0.00154592,-0.00167578,-0.00508753,-1.00365,0.00299374,0.0406702,1882,806,13.6473,-1.62962
665,218,13.4038,1.62103,-0.00392126,-0.00257502,-0.00219188,-0.000955232,-0.00554105,-0.934375,0.00342038,0.0282842,1889,806,13.4038,-1.62106
672,218,13.2985,1.80524,-0.00348845,-0.00246521,-0.00258611,-0.000340601,-0.00561306,-0.883055,0.00363383,0.0115058,1896,806,13.2984,-1.80522
679,218,13.3026,1.99182,-0.00285014,-0.00217943,-0.00262873,0.000135249,-0.00516481,-0.848842,0.00348916,0.0112678,1903,806,13.3026,-1.99183
686,218,13.3027,2.17004,-0.00173479,-0.00159376,-0.00256457,0.000901266,-0.00422981,-0.799143,0.00316339,0.0112548,1910,806,13.3028,-2.17004
693,218,13.295,2.35889,-8.59076e-05,-0.000879647,-0.00155858,0.00112554,-0.0020911,-0.66073,0.00188481,0.0114754,1917,806,13.295,-2.35888
700,218,13.2805,2.53027,0.00205584,3.28795e-05,-6.14459e-05,0.00205771,3.10149e-05,-0.0303369,0.00136158,0.00979477,1924,806,13.2806,-2.53029
707,218,13.2756,2.69781,0.00474685,0.000843133,0.00126139,0.00511897,0.000471018,0.286867,0.00326698,0.00807083,1931,806,13.2757,-2.6978
714,218,13.3048,2.8764,0.0084109,0.000780788,0.00188413,0.00885079,0.000340895,0.229364,0.00579024,0.00996967,1938,806,13.3048,-2.8764
721,218,13.3391,3.03809,0.0124555,0.000677822,0.00285179,0.0131097,2.36426e-05,0.225492,0.00873194,0.0127677,1945,806,13.3391,-3.03809
728,218,13.3497,3.18451,0.0170555,0.000687811,0.00358645,0.0178069,-6.35488e-05,0.206513,0.0118925,0.0189962,1952,806,13.3497,-3.1845
735,218,13.4141,3.36786,0.0223472,0.000235556,0.00391956,0.0230215,-0.000438674,0.17035,0.0154959,0.0340909,1959,806,13.4141,-3.36786
742,218,13.7367,3.992,0.0285199,-0.00084247,0.00356732,0.0289471,-0.00126966,0.119183,0.0197349,0.0455068,1966,806,13.7367,-3.99198
749,218,14.0372,4.45587,0,0,0,0,0,0,0,-1,1973,806,14.0373,-4.45585
756,218,12.3632,3.06171,0.0431845,-0.00608656,-0.00114563,0.0432111,-0.00611318,-0.0232347,0.0310464,0.0487879,1980,806,12.3631,-3.06172
763,218,12.5363,2.27869,0.0511539,-0.0111409,-0.0070599,0.051944,-0.0119309,-0.111448,0.039216,0.0439318,1987,806,12.5363,-2.2787
770,218,0,0,0,0,0,0,0,0,0,-1,1994,806,0,0
777,218,0,0,0,0,0,0,0,0,0,-1,2001,806,0,0
784,218,0,0,0,0,0,0,0,0,0,-1,2008,806,0,0
791,218,0,0,0,0,0,0,0,0,0,-1,2015,806,0,0
798,218,0,0,0,0,0,0,0,0,0,-1,2022,806,0,0
805,218,0,0,0,0,0,0,0,0,0,-1,2029,806,0,0
812,218,0,0,0,0,0,0,0,0,0,-1,2036,806,0,0
-700,211,0,0,0,0,0,0,0,0,0,-1,524,813,0,0
-693,211,0,0,0,0,0,0,0,0,0,-1,531,813,0,0
-686,211,0,0,0,0,0,0,0,0,0,-1,538,813,0,0
-679,211,0,0,0,0,0,0,0,0,0,-1,545,813,0,0
-672,211,0,0,0,0,0,0,0,0,0,-1,552,813,0,0
-665,211,0,0,0,0,0,0,0,0,0,-1,559,813,0,0
-658,211,0,0,0,0,0,0,0,0,0,-1,566,813,0,0
-651,211,-11.1656,-1.59961,0,0,0,0,0,0,0,-1,573,813,-11.1656,1.5996
-644,211,-11.3838,-1.52258,0.0629065,0.107622,0.0384706,0.12976,0.0407686,1.04862,0.0766217,0.0428163,580,813,-11.3838,1.52257
-637,211,-11.3981,-1.18549,0.0519404,0.0901413,0.0265977,0.103786,0.0382954,1.09679,0.0606029,0.0439411,587,813,-11.3981,1.18551
-630,211,-8.84888,2.65338,0,0,0,0,0,0,0,-1,594,813,-8.84887,-2.6534
-623,211,-8.61884,2.36725,0,0,0,0,0,0,0,-1,601,813,-8.61884,-2.36722
-616,211,-8.25793,1.70337,0,0,0,0,0,0,0,-1,608,813,-8.25791,-1.70335
-609,211,-8.22369,1.36865,0.0202571,0.0337371,0.00259784,0.0342205,0.0197738,1.38685,0.0198368,0.0364184,615,813,-8.22372,-1.36866
-602,211,-8.2121,1.06714,0.0145805,0.0243717,0.000204826,0.024376,0.0145762,1.54989,0.0141633,0.0187973,622,813,-8.21207,-1.06714
-595,211,-8.25696,0.983459,0.00996369,0.0168963,-0.000886774,0.0170079,0.00985205,-1.44557,0.00986056,0.00975234,629,813,-8.25695,-0.983458
-588,211,-8.23645,0.859558,0.00641808,0.0102441,-0.00100172,0.0104905,0.00617169,-1.32961,0.00608812,0.0100941,636,813,-8.23644,-0.859557
-581,211,-8.23358,0.712402,0.00289014,0.00452937,-0.000504491,0.00467219,0.00274732,-1.29492,0.00271139,0.0111325,643,813,-8.23356,-0.712383
-574,211,-8.23987,0.552856,-0.000283622,0.00176594,0.00100498,0.00217648,-0.00069417,1.18297,0.00172946,0.0125789,650,813,-8.23989,-0.552873
-567,211,-8.23297,0.380249,-0.00290901,0.00032693,0.00257262,0.00174808,-0.00433016,1.0661,0.00361328,0.0188615,657,813,-8.23297,-0.380264
-560,211,-8.23083,0.251831,-0.00473166,-0.00106535,0.00367951,0.00121237,-0.00700938,1.0165,0.00512506,0.0219415,664,813,-8.23081,-0.251802
-553,211,-8.19598,0.0963135,-0.00588217,-0.00179186,0.00451621,0.00112068,-0.00879472,0.998008,0.00627018,0.0183726,671,813,-8.196,-0.096292
-546,211,-8.24384,-0.0258789,-0.00659028,-0.00233703,0.00521284,0.00116629,-0.0100936,0.979072,0.00714961,0.0201651,678,813,-8.24383,0.0258683
-539,211,-8.26349,-0.206177,-0.00697057,-0.0022939,0.00560305,0.00143917,-0.0107036,0.983077,0.00766068,0.0141144,685,813,-8.26348,0.206164
-532,211,-8.67358,0.105469,0,0,0,0,0,0,0,-1,692,813,-8.67356,-0.10549
-525,211,-9.0932,-0.0667114,-0.00605997,-0.00183036,0.00519245,0.00166143,-0.00955176,0.978784,0.0069878,0.0475552,699,813,-9.09318,0.0667394
-518,211,-9.84906,-0.428711,-0.00523463,-0.00112806,0.00448876,0.00175474,-0.00811743,0.999905,0.00608151,0.0444721,706,813,-9.84908,0.42869
-511,211,-10.4554,-0.947937,0,0,0,0,0,0,0,-1,713,813,-10.4554,0.947953
-504,211,-11.3422,0.718384,-0.00234468,0.0013285,0.00208914,0.00227356,-0.00328974,1.14597,0.00322978,0.0448983,720,813,-11.3422,-0.718411
-497,211,-11.4262,0.545471,-0.000511644,0.00313199,0.000229676,0.00314641,-0.000526065,1.50809,0.00229317,0.0459117,727,813,-11.4262,-0.545472
-490,211,-11.29,0.717957,0.00118341,0.00548499,-0.00198775,0.00626285,0.000405539,-1.19779,0.00404683,0.0341352,734,813,-11.29,-0.717977
-483,211,-11.1756,0.952271,0.0018969,0.00820606,-0.00406182,0.0101944,-9.14508e-05,-1.11557,0.00682696,0.0322395,741,813,-11.1756,-0.95228
-476,211,-11.0822,0.826294,0.000829319,0.0110634,-0.0052142,0.0132519,-0.00135926,-1.17339,0.00932081,0.0377208,748,813,-11.0822,-0.826277
-469,211,0,0,0,0,0,0,0,0,0,-1,755,813,0,0
-462,211,0,0,0,0,0,0,0,0,0,-1,762,813,0,0
-455,211,0,0,0,0,0,0,0,0,0,-1,769,813,0,0
-448,211,0,0,0,0,0,0,0,0,0,-1,776,813,0,0
-441,211,0,0,0,0,0,0,0,0,0,-1,783,813,0,0
-434,211,0,0,0,0,0,0,0,0,0,-1,790,813,0,0
-427,211,0,0,0,0,0,0,0,0,0,-1,797,813,0,0
-420,211,0,0,0,0,0,0,0,0,0,-1,804,813,0,0
-413,211,0,0,0,0,0,0,0,0,0,-1,811,813,0,0
-406,211,0,0,0,0,0,0,0,0,0,-1,818,813,0,0
-399,211,0,0,0,0,0,0,0,0,0,-1,825,813,0,0
-392,211,0,0,0,0,0,0,0,0,0,-1,832,813,0,0
-385,211,0,0,0,0,0,0,0,0,0,-1,839,813,0,0
-378,211,0,0,0,0,0,0,0,0,0,-1,846,813,0,0
-371,211,0,0,0,0,0,0,0,0,0,-1,853,813,0,0
-364,211,0,0,0,0,0,0,0,0,0,-1,860,813,0,0
-357,211,0,0,0,0,0,0,0,0,0,-1,867,813,0,0
-350,211,0,0,0,0,0,0,0,0,0,-1,874,813,0,0
-343,211,0,0,0,0,0,0,0,0,0,-1,881,813,0,0
-336,211,0,0,0,0,0,0,0,0,0,-1,888,813,0,0
-329,211,0,0,0,0,0,0,0,0,0,-1,895,813,0,0
-322,211,0,0,0,0,0,0,0,0,0,-1,902,813,0,0
-315,211,0,0,0,0,0,0,0,0,0,-1,909,813,0,0
-308,211,0,0,0,0,0,0,0,0,0,-1,916,813,0,0
-301,211,0,0,0,0,0,0,0,0,0,-1,923,813,0,0
-294,211,0,0,0,0,0,0,0,0,0,-1,930,813,0,0
-287,211,0,0,0,0,0,0,0,0,0,-1,937,813,0,0
-280,211,0,0,0,0,0,0,0,0,0,-1,944,813,0,0
-273,211,0,0,0,0,0,0,0,0,0,-1,951,813,0,0
-266,211,0,0,0,0,0,0,0,0,0,-1,958,813,0,0
-259,211,0,0,0,0,0,0,0,0,0,-1,965,813,0,0
-252,211,0,0,0,0,0,0,0,0,0,-1,972,813,0,0
-245,211,0,0,0,0,0,0,0,0,0,-1,979,813,0,0
-238,211,0,0,0,0,0,0,0,0,0,-1,986,813,0,0
-231,211,0,0,0,0,0,0,0,0,0,-1,993,813,0,0
-224,211,0,0,0,0,0,0,0,0,0,-1,1000,813,0,0
-217,211,0,0,0,0,0,0,0,0,0,-1,1007,813,0,0
-210,211,0,0,0,0,0,0,0,0,0,-1,1014,813,0,0
-203,211,0,0,0,0,0,0,0,0,0,-1,1021,813,0,0
-196,211,0,0,0,0,0,0,0,0,0,-1,1028,813,0,0
-189,211,0,0,0,0,0,0,0,0,0,-1,1035,813,0,0
-182,211,0,0,0,0,0,0,0,0,0,-1,1042,813,0,0
-175,211,0,0,0,0,0,0,0,0,0,-1,1049,813,0,0
-168,211,0,0,0,0,0,0,0,0,0,-1,1056,813,0,0
-161,211,0,0,0,0,0,0,0,0,0,-1,1063,813,0,0
-154,211,0,0,0,0,0,0,0,0,0,-1,1070,813,0,0
-147,211,0,0,0,0,0,0,0,0,0,-1,1077,813,0,0
-140,211,0,0,0,0,0,0,0,0,0,-1,1084,813,0,0
-133,211,0,0,0,0,0,0,0,0,0,-1,1091,813,0,0
-126,211,0,0,0,0,0,0,0,0,0,-1,1098,813,0,0
-119,211,0,0,0,0,0,0,0,0,0,-1,1105,813,0,0
-112,211,0,0,0,0,0,0,0,0,0,-1,1112,813,0,0
-105,211,0,0,0,0,0,0,0,0,0,-1,1119,813,0,0
-98,211,0,0,0,0,0,0,0,0,0,-1,1126,813,0,0
-91,211,0,0,0,0,0,0,0,0,0,-1,1133,813,0,0
-84,211,0,0,0,0,0,0,0,0,0,-1,1140,813,0,0
-77,211,0,0,0,0,0,0,0,0,0,-1,1147,813,0,0
-70,211,0,0,0,0,0,0,0,0,0,-1,1154,813,0,0
-63,211,0,0,0,0,0,0,0,0,0,-1,1161,813,0,0
-56,211,0,0,0,0,0,0,0,0,0,-1,1168,813,0,0
-49,211,0,0,0,0,0,0,0,0,0,-1,1175,813,0,0
-42,211,0,0,0,0,0,0,0,0,0,-1,1182,813,0,0
-35,211,0,0,0,0,0,0,0,0,0,-1,1189,813,0,0
-28,211,0,0,0,0,0,0,0,0,0,-1,1196,813,0,0
-21,211,0,0,0,0,0,0,0,0,0,-1,1203,813,0,0
-14,211,0,0,0,0,0,0,0,0,0,-1,1210,813,0,0
-7,211,0,0,0,0,0,0,0,0,0,-1,1217,813,0,0
0,211,0,0,0,0,0,0,0,0,0,-1,1224,813,0,0
7,211,0,0,0,0,0,0,0,0,0,-1,1231,813,0,0
14,211,0,0,0,0,0,0,0,0,0,-1,1238,813,0,0
21,211,0,0,0,0,0,0,0,0,0,-1,1245,813,0,0
28,211,0,0,0,0,0,0,0,0,0,-1,1252,813,0,0
35,211,0,0,0,0,0,0,0,0,0,-1,1259,813,0,0
42,211,0,0,0,0,0,0,0,0,0,-1,1266,813,0,0
49,211,0,0,0,0,0,0,0,0,0,-1,1273,813,0,0
56,211,0,0,0,0,0,0,0,0,0,-1,1280,813,0,0
63,211,0,0,0,0,0,0,0,0,0,-1,1287,813,0,0
70,211,0,0,0,0,0,0,0,0,0,-1,1294,813,0,0
77,211,0,0,0,0,0,0,0,0,0,-1,1301,813,0,0
84,211,0,0,0,0,0,0,0,0,0,-1,1308,813,0,0
91,211,0,0,0,0,0,0,0,0,0,-1,1315,813,0,0
98,211,0,0,0,0,0,0,0,0,0,-1,1322,813,0,0
105,211,0,0,0,0,0,0,0,0,0,-1,1329,813,0,0
112,211,0,0,0,0,0,0,0,0,0,-1,1336,813,0,0
119,211,0,0,0,0,0,0,0,0,0,-1,1343,813,0,0
126,211,0,0,0,0,0,0,0,0,0,-1,1350,813,0,0
133,211,0,0,0,0,0,0,0,0,0,-1,1357,813,0,0
140,211,0,0,0,0,0,0,0,0,0,-1,1364,813,0,0
147,211,0,0,0,0,0,0,0,0,0,-1,1371,813,0,0
154,211,0,0,0,0,0,0,0,0,0,-1,1378,813,0,0
161,211,0,0,0,0,0,0,0,0,0,-1,1385,813,0,0
168,211,0,0,0,0,0,0,0,0,0,-1,1392,813,0,0
175,211,0,0,0,0,0,0,0,0,0,-1,1399,813,0,0
182,211,0,0,0,0,0,0,0,0,0,-1,1406,813,0,0
189,211,0,0,0,0,0,0,0,0,0,-1,1413,813,0,0
196,211,0,0,0,0,0,0,0,0,0,-1,1420,813,0,0
203,211,0,0,0,0,0,0,0,0,0,-1,1427,813,0,0
210,211,0,0,0,0,0,0,0,0,0,-1,1434,813,0,0
217,211,0,0,0,0,0,0,0,0,0,-1,1441,813,0,0
224,211,0,0,0,0,0,0,0,0,0,-1,1448,813,0,0
231,211,0,0,0,0,0,0,0,0,0,-1,1455,813,0,0
238,211,0,0,0,0,0,0,0,0,0,-1,1462,813,0,0
245,211,0,0,0,0,0,0,0,0,0,-1,1469,813,0,0
252,211,0,0,0,0,0,0,0,0,0,-1,1476,813,0,0
259,211,0,0,0,0,0,0,0,0,0,-1,1483,813,0,0
266,211,0,0,0,0,0,0,0,0,0,-1,1490,813,0,0
273,211,0,0,0,0,0,0,0,0,0,-1,1497,813,0,0
280,211,0,0,0,0,0,0,0,0,0,-1,1504,813,0,0
287,211,0,0,0,0,0,0,0,0,0,-1,1511,813,0,0
294,211,0,0,0,0,0,0,0,0,0,-1,1518,813,0,0
301,211,0,0,0,0,0,0,0,0,0,-1,1525,813,0,0
308,211,0,0,0,0,0,0,0,0,0,-1,1532,813,0,0
315,211,0,0,0,0,0,0,0,0,0,-1,1539,813,0,0
322,211,0,0,0,0,0,0,0,0,0,-1,1546,813,0,0
329,211,0,0,0,0,0,0,0,0,0,-1,1553,813,0,0
336,211,0,0,0,0,0,0,0,0,0,-1,1560,813,0,0
343,211,0,0,0,0,0,0,0,0,0,-1,1567,813,0,0
350,211,0,0,0,0,0,0,0,0,0,-1,1574,813,0,0
357,211,0,0,0,0,0,0,0,0,0,-1,1581,813,0,0
364,211,0,0,0,0,0,0,0,0,0,-1,1588,813,0,0
371,211,0,0,0,0,0,0,0,0,0,-1,1595,813,0,0
378,211,0,0,0,0,0,0,0,0,0,-1,1602,813,0,0
385,211,0,0,0,0,0,0,0,0,0,-1,1609,813,0,0
392,211,0,0,0,0,0,0,0,0,0,-1,1616,813,0,0
399,211,0,0,0,0,0,0,0,0,0,-1,1623,813,0,0
406,211,0,0,0,0,0,0,0,0,0,-1,1630,813,0,0
413,211,0,0,0,0,0,0,0,0,0,-1,1637,813,0,0
420,211,0,0,0,0,0,0,0,0,0,-1,1644,813,0,0
427,211,0,0,0,0,0,0,0,0,0,-1,1651,813,0,0
434,211,0,0,0,0,0,0,0,0,0,-1,1658,813,0,0
441,211,0,0,0,0,0,0,0,0,0,-1,1665,813,0,0
448,211,0,0,0,0,0,0,0,0,0,-1,1672,813,0,0
455,211,0,0,0,0,0,0,0,0,0,-1,1679,813,0,0
462,211,0,0,0,0,0,0,0,0,0,-1,1686,813,0,0
469,211,0,0,0,0,0,0,0,0,0,-1,1693,813,0,0
476,211,0,0,0,0,0,0,0,0,0,-1,1700,813,0,0
483,211,0,0,0,0,0,0,0,0,0,-1,1707,813,0,0
490,211,0,0,0,0,0,0,0,0,0,-1,1714,813,0,0
497,211,0,0,0,0,0,0,0,0,0,-1,1721,813,0,0
504,211,0,0,0,0,0,0,0,0,0,-1,1728,813,0,0
511,211,0,0,0,0,0,0,0,0,0,-1,1735,813,0,0
518,211,0,0,0,0,0,0,0,0,0,-1,1742,813,0,0
525,211,0,0,0,0,0,0,0,0,0,-1,1749,813,0,0
532,211,0,0,0,0,0,0,0,0,0,-1,1756,813,0,0
539,211,0,0,0,0,0,0,0,0,0,-1,1763,813,0,0
546,211,0,0,0,0,0,0,0,0,0,-1,1770,813,0,0
553,211,0,0,0,0,0,0,0,0,0,-1,1777,813,0,0
560,211,0,0,0,0,0,0,0,0,0,-1,1784,813,0,0
567,211,0,0,0,0,0,0,0,0,0,-1,1791,813,0,0
574,211,0,0,0,0,0,0,0,0,0,-1,1798,813,0,0
581,211,0,0,0,0,0,0,0,0,0,-1,1805,813,0,0
588,211,0,0,0,0,0,0,0,0,0,-1,1812,813,0,0
595,211,17.4747,2.36334,0.00352971,-0.00144815,-0.00153086,0.00396281,-0.00188126,-0.275712,0.00344468,0.0378601,1819,813,17.4747,-2.36336
602,211,17.3641,2.39996,0.00189287,-1.04553e-05,0.00114846,0.00243273,-0.000550311,0.439417,0.001833,0.0388408,1826,813,17.3641,-2.39994
609,211,17.2985,2.40802,0.000737518,-0.000175709,0.00239721,0.00272121,-0.00215941,0.691287,0.00282404,0.0373101,1833,813,17.2985,-2.40802
616,211,17.2823,2.49524,-0.00048764,-0.000577199,0.00261166,0.00207963,-0.00314447,0.776826,0.00303695,0.0285534,1840,813,17.2823,-2.49522
623,211,17.2747,2.55548,-0.00175735,-0.00112016,0.00196418,0.000551102,-0.00342861,0.8658,0.00248985,0.029362,1847,813,17.2747,-2.55547
630,211,17.2389,2.6369,-0.00275542,-0.00165562,0.00101081,-0.00105482,-0.00335623,1.03452,0.00198177,0.0352372,1854,813,17.2388,-2.63687
637,211,17.2784,2.66321,-0.00343589,-0.00193463,5.40424e-05,-0.00193269,-0.00343783,1.53486,0.00198994,0.0418847,1861,813,17.2785,-2.66318
644,211,17.2184,2.60651,-0.00399111,-0.00221626,-0.000702117,-0.0019721,-0.00423527,-1.23612,0.00244716,0.0408507,1868,813,17.2183,-2.60649
651,211,14.2405,1.39471,0,0,0,0,0,0,0,-1,1875,813,14.2405,-1.39472
658,211,13.8624,1.48157,-0.00414759,-0.00241336,-0.00220893,-0.000907448,-0.0056535,-0.972432,0.00350589,0.0492574,1882,813,13.8624,-1.48154
665,211,13.6488,1.67365,-0.00403098,-0.0023196,-0.00276604,-0.000279925,-0.00607066,-0.935407,0.0039571,0.0458953,1889,813,13.6488,-1.67367
672,211,13.4434,1.81561,-0.00380342,-0.00220016,-0.00309556,0.00019588,-0.00619946,-0.912095,0.00419979,0.0172955,1896,813,13.4434,-1.81558
679,211,13.4629,1.99292,-0.00336401,-0.00197502,-0.00311719,0.000524106,-0.00586314,-0.895005,0.00409466,0.0127272,1903,813,13.4629,-1.99289
686,211,13.4656,2.203,-0.00240278,-0.00149231,-0.00303083,0.00111729,-0.00501238,-0.859942,0.00376961,0.0111759,1910,813,13.4656,-2.20299
693,211,13.4523,2.36304,-0.000944628,-0.000863623,-0.00217242,0.00126867,-0.00307692,-0.794719,0.00258032,0.0111516,1917,813,13.4522,-2.36305
700,211,13.3986,2.50995,0.000781706,-2.39892e-05,-0.000904832,0.00136932,-0.0006116,-0.575963,0.00117124,0.0132908,1924,813,13.3986,-2.50995
707,211,13.4412,2.70856,0.00308797,0.00067645,0.000220632,0.00310799,0.00065643,0.0904897,0.00189154,0.0200951,1931,813,13.4412,-2.70859
714,211,13.4773,2.89905,0.00651432,0.000536485,0.000471297,0.00655125,0.000499556,0.0781968,0.00421087,0.0207307,1938,813,13.4772,-2.89902
721,211,13.4879,3.03363,0.0101969,0.000264855,0.000867021,0.010272,0.000189736,0.0864241,0.00678566,0.0163166,1945,813,13.4879,-3.03364
728,211,13.5137,3.16522,0.0143987,9.46703e-05,0.000906488,0.0144559,3.74522e-05,0.0630368,0.00962482,0.0155022,1952,813,13.5136,-3.16525
735,211,13.5358,3.30945,0.0192006,-0.000615257,0.000246224,0.0192037,-0.000618316,0.0124231,0.0130134,0.0248916,1959,813,13.5357,-3.30947
742,211,13.655,3.48077,0.0248545,-0.00202443,-0.00137959,0.0249251,-0.00209505,-0.0511468,0.0173573,0.0465567,1966,813,13.655,-3.48079
749,211,13.5045,3.81061,0.0314223,-0.00438127,-0.00437189,0.0319484,-0.00490738,-0.119763,0.0231091,0.0493119,1973,813,13.5046,-3.81062
756,211,12.8221,3.1582,0.0388004,-0.00803578,-0.00936194,0.0406024,-0.00983778,-0.190156,0.0308745,0.0459564,1980,813,12.8221,-3.15818
763,211,12.6852,2.71985,0.0467213,-0.0134221,-0.0171837,0.0512847,-0.0179855,-0.259571,0.0415049,0.0458998,1987,813,12.6852,-2.71985
770,211,12.3638,2.46362,0,0,0,0,0,0,0,-1,1994,813,12.3638,-2.46361
777,211,0,0,0,0,0,0,0,0,0,-1,2001,813,0,0
784,211,0,0,0,0,0,0,0,0,0,-1,2008,813,0,0
791,211,0,0,0,0,0,0,0,0,0,-1,2015,813,0,0
798,211,0,0,0,0,0,0,0,0,0,-1,2022,813,0,0
805,211,0,0,0,0,0,0,0,0,0,-1,2029,813,0,0
812,211,0,0,0,0,0,0,0,0,0,-1,2036,813,0,0
-700,204,0,0,0,0,0,0,0,0,0,-1,524,820,0,0
-693,204,0,0,0,0,0,0,0,0,0,-1,531,820,0,0
-686,204,0,0,0,0,0,0,0,0,0,-1,538,820,0,0
-679,204,0,0,0,0,0,0,0,0,0,-1,545,820,0,0
-672,204,0,0,0,0,0,0,0,0,0,-1,552,820,0,0
-665,204,0,0,0,0,0,0,0,0,0,-1,559,820,0,0
-658,204,0,0,0,0,0,0,0,0,0,-1,566,820,0,0
-651,204,-11.6904,-2.72076,0,0,0,0,0,0,0,-1,573,820,-11.6904,2.72078
-644,204,-11.6718,-2.60388,0.0558827,0.0991412,0.0508776,0.132796,0.0222277,0.986386,0.0821304,0.045841,580,820,-11.6718,2.60389
-637,204,-11.5071,-2.36731,0.0452095,0.0814456,0.0368695,0.104408,0.0222469,1.01377,0.0635024,0.0492713,587,820,-11.5071,2.36733
-630,204,-11.4056,-1.9071,0,0,0,0,0,0,0,-1,594,820,-11.4057,1.90711
-623,204,-8.84991,1.35388,0,0,0,0,0,0,0,-1,601,820,-8.84992,-1.35385
-616,204,-8.7536,1.33997,0.0213438,0.039055,0.0105944,0.0440075,0.0163914,1.13352,0.0256817,0.0413811,608,820,-8.75362,-1.33994
-609,204,-8.3606,1.27466,0.0158482,0.0283826,0.00564506,0.0305501,0.0136806,1.20419,0.0176701,0.0320739,615,820,-8.36059,-1.27464
-602,204,-8.39319,1.11365,0.0108103,0.020214,0.00207925,0.0206532,0.0103711,1.36261,0.0119242,0.0134173,622,820,-8.3932,-1.11366
-595,204,-8.41504,0.989075,0.00676065,0.0139581,0.000221775,0.0139649,0.00675382,1.54002,0.0080641,0.0138496,629,820,-8.41507,-0.9891
-588,204,-8.40906,0.834778,0.00371362,0.00822742,-0.000238876,0.00824003,0.00370102,-1.51807,0.00476557,0.0117298,636,820,-8.40904,-0.83475
-581,204,-8.38965,0.697144,0.000613616,0.00325331,8.41122e-05,0.00325599,0.000610939,1.53898,0.00199839,0.0122872,643,820,-8.38963,-0.697153
-574,204,-8.39313,0.550049,-0.0022331,0.00095241,0.00153419,0.00157113,-0.00285182,1.18746,0.00258903,0.0136791,650,820,-8.39314,-0.550027
-567,204,-8.37299,0.399719,-0.00467802,-0.000119256,0.00307346,0.00142781,-0.00622509,1.10446,0.00469887,0.0137783,657,820,-8.37296,-0.399727
-560,204,-8.37701,0.213257,-0.00645738,-0.00125308,0.00418307,0.00107116,-0.00878161,1.06364,0.00624217,0.0136471,664,820,-8.37701,-0.21327
-553,204,-8.37231,0.0737305,-0.00762,-0.00180429,0.0050087,0.00107946,-0.0105038,1.0484,0.00738865,0.00971941,671,820,-8.37234,-0.0737318
-546,204,-8.38507,-0.0144043,-0.00833788,-0.00217,0.00567421,0.00120418,-0.0117121,1.03432,0.00823882,0.0131789,678,820,-8.38508,0.0144185
-539,204,-8.42133,-0.183289,-0.0087205,-0.00216687,0.00613863,0.00151478,-0.0124022,1.03056,0.00881651,0.0231462,685,820,-8.42131,0.183314
-532,204,-8.40472,-0.433228,0,0,0,0,0,0,0,-1,692,820,-8.40472,0.433206
-525,204,-9.66138,0.33136,0,0,0,0,0,0,0,-1,699,820,-9.66139,-0.331369
-518,204,-10.2091,-0.0133057,0,0,0,0,0,0,0,-1,706,820,-10.2091,0.0132758
-511,204,-11.2608,0.814514,-0.00484577,-7.66634e-05,0.00413862,0.00231521,-0.00723765,1.04676,0.00575424,0.0458372,713,820,-11.2608,-0.814504
-504,204,-11.1123,0.873901,-0.00263253,0.00110497,0.00257449,0.00241745,-0.003945,1.09934,0.00370849,0.0482344,720,820,-11.1123,-0.873896
-497,204,-11.348,0.656799,-6.58785e-05,0.0026871,0.000470118,0.00276516,-0.000143945,1.40624,0.00189325,0.041429,727,820,-11.348,-0.656796
-490,204,-11.3276,0.851807,0.00236496,0.00472257,-0.00212355,0.00597256,0.00111498,-1.03878,0.00366699,0.0344118,734,820,-11.3276,-0.851784
-483,204,-11.1507,1.16028,0.00344097,0.00704282,-0.00468414,0.0102603,0.000223477,-0.968923,0.00676694,0.0396574,741,820,-11.1507,-1.16025
-476,204,0,0,0,0,0,0,0,0,0,-1,748,820,0,0
-469,204,0,0,0,0,0,0,0,0,0,-1,755,820,0,0
-462,204,0,0,0,0,0,0,0,0,0,-1,762,820,0,0
-455,204,0,0,0,0,0,0,0,0,0,-1,769,820,0,0
-448,204,0,0,0,0,0,0,0,0,0,-1,776,820,0,0
-441,204,0,0,0,0,0,0,0,0,0,-1,783,820,0,0
-434,204,0,0,0,0,0,0,0,0,0,-1,790,820,0,0
-427,204,0,0,0,0,0,0,0,0,0,-1,797,820,0,0
-420,204,0,0,0,0,0,0,0,0,0,-1,804,820,0,0
-413,204,0,0,0,0,0,0,0,0,0,-1,811,820,0,0
-406,204,0,0,0,0,0,0,0,0,0,-1,818,820,0,0
-399,204,0,0,0,0,0,0,0,0,0,-1,825,820,0,0
-392,204,0,0,0,0,0,0,0,0,0,-1,832,820,0,0
-385,204,0,0,0,0,0,0,0,0,0,-1,839,820,0,0
-378,204,0,0,0,0,0,0,0,0,0,-1,846,820,0,0
-371,204,0,0,0,0,0,0,0,0,0,-1,853,820,0,0
-364,204,0,0,0,0,0,0,0,0,0,-1,860,820,0,0
-357,204,0,0,0,0,0,0,0,0,0,-1,867,820,0,0
-350,204,0,0,0,0,0,0,0,0,0,-1,874,820,0,0
-343,204,0,0,0,0,0,0,0,0,0,-1,881,820,0,0
-336,204,0,0,0,0,0,0,0,0,0,-1,888,820,0,0
-329,204,0,0,0,0,0,0,0,0,0,-1,895,820,0,0
-322,204,0,0,0,0,0,0,0,0,0,-1,902,820,0,0
-315,204,0,0,0,0,0,0,0,0,0,-1,909,820,0,0
-308,204,0,0,0,0,0,0,0,0,0,-1,916,820,0,0
-301,204,0,0,0,0,0,0,0,0,0,-1,923,820,0,0
-294,204,0,0,0,0,0,0,0,0,0,-1,930,820,0,0
-287,204,0,0,0,0,0,0,0,0,0,-1,937,820,0,0
-280,204,0,0,0,0,0,0,0,0,0,-1,944,820,0,0
-273,204,0,0,0,0,0,0,0,0,0,-1,951,820,0,0
-266,204,0,0,0,0,0,0,0,0,0,-1,958,820,0,0
-259,204,0,0,0,0,0,0,0,0,0,-1,965,820,0,0
-252,204,0,0,0,0,0,0,0,0,0,-1,972,820,0,0
-245,204,0,0,0,0,0,0,0,0,0,-1,979,820,0,0
-238,204,0,0,0,0,0,0,0,0,0,-1,986,820,0,0
-231,204,0,0,0,0,0,0,0,0,0,-1,993,820,0,0
-224,204,0,0,0,0,0,0,0,0,0,-1,1000,820,0,0
-217,204,0,0,0,0,0,0,0,0,0,-1,1007,820,0,0
-210,204,0,0,0,0,0,0,0,0,0,-1,1014,820,0,0
-203,204,0,0,0,0,0,0,0,0,0,-1,1021,820,0,0
-196,204,0,0,0,0,0,0,0,0,0,-1,1028,820,0,0
-189,204,0,0,0,0,0,0,0,0,0,-1,1035,820,0,0
-182,204,0,0,0,0,0,0,0,0,0,-1,1042,820,0,0
-175,204,0,0,0,0,0,0,0,0,0,-1,1049,820,0,0
-168,204,0,0,0,0,0,0,0,0,0,-1,1056,820,0,0
-161,204,0,0,0,0,0,0,0,0,0,-1,1063,820,0,0
-154,204,0,0,0,0,0,0,0,0,0,-1,1070,820,0,0
-147,204,0,0,0,0,0,0,0,0,0,-1,1077,820,0,0
-140,204,0,0,0,0,0,0,0,0,0,-1,1084,820,0,0
-133,204,0,0,0,0,0,0,0,0,0,-1,1091,820,0,0
-126,204,0,0,0,0,0,0,0,0,0,-1,1098,820,0,0
-119,204,0,0,0,0,0,0,0,0,0,-1,1105,820,0,0
-112,204,0,0,0,0,0,0,0,0,0,-1,1112,820,0,0
-105,204,0,0,0,0,0,0,0,0,0,-1,1119,820,0,0
-98,204,0,0,0,0,0,0,0,0,0,-1,1126,820,0,0
-91,204,0,0,0,0,0,0,0,0,0,-1,1133,820,0,0
-84,204,0,0,0,0,0,0,0,0,0,-1,1140,820,0,0
-77,204,0,0,0,0,0,0,0,0,0,-1,1147,820,0,0
-70,204,0,0,0,0,0,0,0,0,0,-1,1154,820,0,0
-63,204,0,0,0,0,0,0,0,0,0,-1,1161,820,0,0
-56,204,0,0,0,0,0,0,0,0,0,-1,1168,820,0,0
-49,204,0,0,0,0,0,0,0,0,0,-1,1175,820,0,0
-42,204,0,0,0,0,0,0,0,0,0,-1,1182,820,0,0
-35,204,0,0,0,0,0,0,0,0,0,-1,1189,820,0,0
-28,204,0,0,0,0,0,0,0,0,0,-1,1196,820,0,0
-21,204,0,0,0,0,0,0,0,0,0,-1,1203,820,0,0
-14,204,0,0,0,0,0,0,0,0,0,-1,1210,820,0,0
-7,204,0,0,0,0,0,0,0,0,0,-1,1217,820,0,0
0,204,0,0,0,0,0,0,0,0,0,-1,1224,820,0,0
7,204,0,0,0,0,0,0,0,0,0,-1,1231,820,0,0
14,204,0,0,0,0,0,0,0,0,0,-1,1238,820,0,0
21,204,0,0,0,0,0,0,0,0,0,-1,1245,820,0,0
28,204,0,0,0,0,0,0,0,0,0,-1,1252,820,0,0
35,204,0,0,0,0,0,0,0,0,0,-1,1259,820,0,0
42,204,0,0,0,0,0,0,0,0,0,-1,1266,820,0,0
49,204,0,0,0,0,0,0,0,0,0,-1,1273,820,0,0
56,204,0,0,0,0,0,0,0,0,0,-1,1280,820,0,0
63,204,0,0,0,0,0,0,0,0,0,-1,1287,820,0,0
70,204,0,0,0,0,0,0,0,0,0,-1,1294,820,0,0
77,204,0,0,0,0,0,0,0,0,0,-1,1301,820,0,0
84,204,0,0,0,0,0,0,0,0,0,-1,1308,820,0,0
91,204,0,0,0,0,0,0,0,0,0,-1,1315,820,0,0
98,204,0,0,0,0,0,0,0,0,0,-1,1322,820,0,0
105,204,0,0,0,0,0,0,0,0,0,-1,1329,820,0,0
112,204,0,0,0,0,0,0,0,0,0,-1,1336,820,0,0
119,204,0,0,0,0,0,0,0,0,0,-1,1343,820,0,0
126,204,0,0,0,0,0,0,0,0,0,-1,1350,820,0,0
133,204,0,0,0,0,0,0,0,0,0,-1,1357,820,0,0
140,204,0,0,0,0,0,0,0,0,0,-1,1364,820,0,0
147,204,0,0,0,0,0,0,0,0,0,-1,1371,820,0,0
154,204,0,0,0,0,0,0,0,0,0,-1,1378,820,0,0
161,204,0,0,0,0,0,0,0,0,0,-1,1385,820,0,0
168,204,0,0,0,0,0,0,0,0,0,-1,1392,820,0,0
175,204,0,0,0,0,0,0,0,0,0,-1,1399,820,0,0
182,204,0,0,0,0,0,0,0,0,0,-1,1406,820,0,0
189,204,0,0,0,0,0,0,0,0,0,-1,1413,820,0,0
196,204,0,0,0,0,0,0,0,0,0,-1,1420,820,0,0
203,204,0,0,0,0,0,0,0,0,0,-1,1427,820,0,0
210,204,0,0,0,0,0,0,0,0,0,-1,1434,820,0,0
217,204,0,0,0,0,0,0,0,0,0,-1,1441,820,0,0
224,204,0,0,0,0,0,0,0,0,0,-1,1448,820,0,0
231,204,0,0,0,0,0,0,0,0,0,-1,1455,820,0,0
238,204,0,0,0,0,0,0,0,0,0,-1,1462,820,0,0
245,204,0,0,0,0,0,0,0,0,0,-1,1469,820,0,0
252,204,0,0,0,0,0,0,0,0,0,-1,1476,820,0,0
259,204,0,0,0,0,0,0,0,0,0,-1,1483,820,0,0
266,204,0,0,0,0,0,0,0,0,0,-1,1490,820,0,0
273,204,0,0,0,0,0,0,0,0,0,-1,1497,820,0,0
280,204,0,0,0,0,0,0,0,0,0,-1,1504,820,0,0
287,204,0,0,0,0,0,0,0,0,0,-1,1511,820,0,0
294,204,0,0,0,0,0,0,0,0,0,-1,1518,820,0,0
301,204,0,0,0,0,0,0,0,0,0,-1,1525,820,0,0
308,204,0,0,0,0,0,0,0,0,0,-1,1532,820,0,0
315,204,0,0,0,0,0,0,0,0,0,-1,1539,820,0,0
322,204,0,0,0,0,0,0,0,0,0,-1,1546,820,0,0
329,204,0,0,0,0,0,0,0,0,0,-1,1553,820,0,0
336,204,0,0,0,0,0,0,0,0,0,-1,1560,820,0,0
343,204,0,0,0,0,0,0,0,0,0,-1,1567,820,0,0
350,204,0,0,0,0,0,0,0,0,0,-1,1574,820,0,0
357,204,0,0,0,0,0,0,0,0,0,-1,1581,820,0,0
364,204,0,0,0,0,0,0,0,0,0,-1,1588,820,0,0
371,204,0,0,0,0,0,0,0,0,0,-1,1595,820,0,0
378,204,0,0,0,0,0,0,0,0,0,-1,1602,820,0,0
385,204,0,0,0,0,0,0,0,0,0,-1,1609,820,0,0
392,204,0,0,0,0,0,0,0,0,0,-1,1616,820,0,0
399,204,0,0,0,0,0,0,0,0,0,-1,1623,820,0,0
406,204,0,0,0,0,0,0,0,0,0,-1,1630,820,0,0
413,204,0,0,0,0,0,0,0,0,0,-1,1637,820,0,0
420,204,0,0,0,0,0,0,0,0,0,-1,1644,820,0,0
427,204,0,0,0,0,0,0,0,0,0,-1,1651,820,0,0
434,204,0,0,0,0,0,0,0,0,0,-1,1658,820,0,0
441,204,0,0,0,0,0,0,0,0,0,-1,1665,820,0,0
448,204,0,0,0,0,0,0,0,0,0,-1,1672,820,0,0
455,204,0,0,0,0,0,0,0,0,0,-1,1679,820,0,0
462,204,0,0,0,0,0,0,0,0,0,-1,1686,820,0,0
469,204,0,0,0,0,0,0,0,0,0,-1,1693,820,0,0
476,204,0,0,0,0,0,0,0,0,0,-1,1700,820,0,0
483,204,0,0,0,0,0,0,0,0,0,-1,1707,820,0,0
490,204,0,0,0,0,0,0,0,0,0,-1,1714,820,0,0
497,204,0,0,0,0,0,0,0,0,0,-1,1721,820,0,0
504,204,0,0,0,0,0,0,0,0,0,-1,1728,820,0,0
511,204,0,0,0,0,0,0,0,0,0,-1,1735,820,0,0
518,204,0,0,0,0,0,0,0,0,0,-1,1742,820,0,0
525,204,0,0,0,0,0,0,0,0,0,-1,1749,820,0,0
532,204,0,0,0,0,0,0,0,0,0,-1,1756,820,0,0
539,204,0,0,0,0,0,0,0,0,0,-1,1763,820,0,0
546,204,0,0,0,0,0,0,0,0,0,-1,1770,820,0,0
553,204,0,0,0,0,0,0,0,0,0,-1,1777,820,0,0
560,204,0,0,0,0,0,0,0,0,0,-1,1784,820,0,0
567,204,0,0,0,0,0,0,0,0,0,-1,1791,820,0,0
574,204,0,0,0,0,0,0,0,0,0,-1,1798,820,0,0
581,204,0,0,0,0,0,0,0,0,0,-1,1805,820,0,0
588,204,0,0,0,0,0,0,0,0,0,-1,1812,820,0,0
595,204,0,0,0,0,0,0,0,0,0,-1,1819,820,0,0
602,204,17.4286,2.43628,0.000832315,0.000645815,-0.000179345,0.000941204,0.000536926,-0.545659,0.0005452,0.0371669,1826,820,17.4286,-2.43626
609,204,17.3497,2.48694,0.000181448,0.00025732,0.00113701,0.00135702,-0.000918256,0.802074,0.00132175,0.0409351,1833,820,17.3498,-2.48692
616,204,17.318,2.55804,-0.000645246,-0.000191227,0.00150488,0.00110367,-0.00194014,0.860258,0.00177933,0.0360008,1840,820,17.318,-2.55804
623,204,17.2975,2.54883,-0.00171581,-0.000727129,0.00104162,-6.84978e-05,-0.00237445,1.00696,0.00156063,0.0274765,1847,820,17.2974,-2.54883
630,204,17.2856,2.52277,-0.00269765,-0.00123872,0.000178733,-0.00121714,-0.00271922,1.45065,0.00157282,0.0278127,1854,820,17.2856,-2.52275
637,204,17.2955,2.57574,-0.00340026,-0.0015241,-0.00071414,-0.00128321,-0.00364116,-1.24545,0.00213253,0.0347015,1861,820,17.2955,-2.57574
644,204,17.2439,2.6286,-0.00392977,-0.00177979,-0.00144407,-0.00105452,-0.00465504,-1.10536,0.0028184,0.0393483,1868,820,17.2439,-2.62861
651,204,17.3212,2.49115,-0.00414378,-0.00189037,-0.00212276,-0.000613832,-0.00542031,-1.02938,0.0034273,0.0425337,1875,820,17.3212,-2.49114
658,204,14.0981,1.51563,0,0,0,0,0,0,0,-1,1882,820,14.0981,-1.51565
665,204,13.6802,1.75049,0,0,0,0,0,0,0,-1,1889,820,13.6802,-1.75048
672,204,13.6212,1.80035,-0.00397952,-0.00174525,-0.00347951,0.000792061,-0.00651684,-0.940731,0.00463121,0.0311792,1896,820,13.6212,-1.80038
679,204,13.6248,1.95502,-0.00369481,-0.00159553,-0.00350144,0.00101021,-0.00630055,-0.931022,0.00457444,0.0180975,1903,820,13.6247,-1.95501
686,204,13.6348,2.19379,-0.00285572,-0.0012402,-0.00341516,0.00146142,-0.00555735,-0.901525,0.00427611,0.0112358,1910,820,13.6347,-2.19376
693,204,13.6019,2.3479,-0.00150745,-0.00076437,-0.00279331,0.001682,-0.00395382,-0.851515,0.0033408,0.0156813,1917,820,13.602,-2.34787
700,204,13.6171,2.50378,-6.11322e-05,-9.06951e-05,-0.00182966,0.00175381,-0.00190564,-0.781359,0.00211339,0.0158979,1924,820,13.6171,-2.50379
707,204,13.6278,2.74384,0.00199434,0.000429832,-0.000948814,0.00244179,-1.76172e-05,-0.440661,0.00163376,0.0137744,1931,820,13.6278,-2.74386
714,204,13.6478,2.94324,0.00535116,0.000194164,-0.00108777,0.00557121,-2.58889e-05,-0.199604,0.0037228,0.0221134,1938,820,13.6478,-2.94327
721,204,13.6312,3.04089,0.00893418,-0.000231688,-0.00129443,0.00911347,-0.000410984,-0.137638,0.00621717,0.0213077,1945,820,13.6312,-3.04087
728,204,13.6219,3.17358,0.0130389,-0.000539634,-0.00190949,0.0133023,-0.000803048,-0.137084,0.00914767,0.0132741,1952,820,13.6219,-3.17358
735,204,13.6287,3.32428,0.0177292,-0.0013898,-0.00343937,0.0183291,-0.0019897,-0.172682,0.0129338,0.0153417,1959,820,13.6286,-3.32426
742,204,13.7241,3.39868,0.0232965,-0.0029413,-0.00610412,0.024647,-0.00429188,-0.217749,0.018033,0.031383,1966,820,13.7241,-3.39866
749,204,13.7621,3.35712,0.0299237,-0.00541103,-0.0102557,0.0326846,-0.00817193,-0.262973,0.0249636,0.04491,1973,820,13.7621,-3.35713
756,204,13.5662,3.21448,0.0375781,-0.00909926,-0.0164692,0.042804,-0.0143251,-0.307258,0.0343224,0.0464345,1980,820,13.5662,-3.21448
763,204,13.2202,3.26007,0.0460569,-0.014372,-0.0254945,0.0553757,-0.0236909,-0.350437,0.046855,0.0445382,1987,820,13.2202,-3.26007
770,204,12.9706,3.32166,0,0,0,0,0,0,0,-1,1994,820,12.9706,-3.32164
777,204,0,0,0,0,0,0,0,0,0,-1,2001,820,0,0
784,204,0,0,0,0,0,0,0,0,0,-1,2008,820,0,0
791,204,0,0,0,0,0,0,0,0,0,-1,2015,820,0,0
798,204,0,0,0,0,0,0,0,0,0,-1,2022,820,0,0
805,204,0,0,0,0,0,0,0,0,0,-1,2029,820,0,0
812,204,0,0,0,0,0,0,0,0,0,-1,2036,820,0,0
-700,197,0,0,0,0,0,0,0,0,0,-1,524,827,0,0
-693,197,0,0,0,0,0,0,0,0,0,-1,531,827,0,0
-686,197,0,0,0,0,0,0,0,0,0,-1,538,827,0,0
-679,197,0,0,0,0,0,0,0,0,0,-1,545,827,0,0
-672,197,0,0,0,0,0,0,0,0,0,-1,552,827,0,0
-665,197,0,0,0,0,0,0,0,0,0,-1,559,827,0,0
-658,197,-7.40338,0.657593,0,0,0,0,0,0,0,-1,566,827,-7.40338,-0.657572
-651,197,-12.0552,-3.97412,0,0,0,0,0,0,0,-1,573,827,-12.0552,3.97411
-644,197,-11.8723,-3.63062,0.0490375,0.0883761,0.0598124,0.13167,0.00574325,0.944253,0.0859298,0.0489484,580,827,-11.8723,3.63061
-637,197,-11.4794,-3.57758,0.0388674,0.071819,0.0444195,0.10272,0.00796659,0.96299,0.0659848,0.0497317,587,827,-11.4794,3.57755
-630,197,-8.3728,1.31342,0,0,0,0,0,0,0,-1,594,827,-8.37279,-1.31342
-623,197,-8.37122,1.1803,0.0228808,0.0442573,0.0218012,0.0578493,0.00928881,1.01331,0.0358731,0.0461592,601,827,-8.37122,-1.18032
-616,197,-8.58191,1.01318,0.0168687,0.0333026,0.014162,0.0414588,0.00871254,1.04827,0.0252413,0.0428119,608,827,-8.58192,-1.0132
-609,197,-8.5116,1.23022,0.0121108,0.0236522,0.00807173,0.0278039,0.00795912,1.09574,0.0165343,0.0288911,615,827,-8.51161,-1.23022
-602,197,-8.56189,1.09491,0.00767849,0.0165498,0.00364419,0.0178548,0.00637349,1.22692,0.0104482,0.0144579,622,827,-8.56188,-1.09493
-595,197,-8.57141,0.973877,0.00414435,0.0113366,0.00122193,0.0115386,0.00394242,1.40702,0.00677221,0.0171443,629,827,-8.57139,-0.973859
-588,197,-8.58203,0.821167,0.00152835,0.00644062,0.000488676,0.00648876,0.00148021,1.4726,0.00392657,0.0177968,636,827,-8.58206,-0.821155
-581,197,-8.54919,0.683533,-0.00117016,0.00221173,0.000659664,0.00233585,-0.00129428,1.38482,0.00212442,0.0109677,643,827,-8.54921,-0.683561
-574,197,-8.5434,0.553467,-0.00373726,0.000295507,0.00204247,0.00114923,-0.00459098,1.17488,0.00350706,0.0130766,650,827,-8.54338,-0.553453
-567,197,-8.54181,0.389648,-0.00598401,-0.000498958,0.00349318,0.00119966,-0.00768263,1.1182,0.00556491,0.0146381,657,827,-8.5418,-0.389626
-560,197,-8.55005,0.239136,-0.00767177,-0.00139002,0.00454358,0.000992615,-0.0100544,1.08782,0.00705712,0.0132112,664,827,-8.55008,-0.239138
-553,197,-8.54749,0.101685,-0.0087956,-0.00177193,0.00533838,0.00110617,-0.0116737,1.07633,0.00817617,0.0122698,671,827,-8.54749,-0.1017
-546,197,-8.51025,-0.0440674,-0.00951127,-0.00193964,0.00600018,0.00136923,-0.0128201,1.06683,0.00903781,0.0196681,678,827,-8.51023,0.044079
-539,197,-8.62573,-0.0864258,-0.00987924,-0.00186149,0.00656022,0.00181778,-0.0135585,1.05966,0.00970187,0.0425676,685,827,-8.62574,0.0863956
-532,197,-8.9054,-0.171021,0,0,0,0,0,0,0,-1,692,827,-8.90537,0.171024
-525,197,-10.0585,0.793579,0,0,0,0,0,0,0,-1,699,827,-10.0585,-0.793587
-518,197,-10.6649,0.453735,0,0,0,0,0,0,0,-1,706,827,-10.6649,-0.453724
-511,197,-11.1524,0.83075,-0.00511829,0.000395481,0.0045814,0.00298552,-0.00770833,1.05625,0.00637164,0.0425827,713,827,-11.1524,-0.830773
-504,197,-11.0596,0.80188,-0.00232324,0.00149107,0.00289381,0.00304965,-0.00388182,1.07675,0.00401149,0.0404388,720,827,-11.0596,-0.801869
-497,197,-11.1471,0.804688,0.00105895,0.00284162,0.000498952,0.00297177,0.0009288,1.31564,0.00175548,0.0420041,727,827,-11.1471,-0.804703
-490,197,-11.3418,0.620728,0,0,0,0,0,0,0,-1,734,827,-11.3418,-0.620729
-483,197,-11.0961,1.20569,0,0,0,0,0,0,0,-1,741,827,-11.0961,-1.20569
-476,197,0,0,0,0,0,0,0,0,0,-1,748,827,0,0
-469,197,0,0,0,0,0,0,0,0,0,-1,755,827,0,0
-462,197,0,0,0,0,0,0,0,0,0,-1,762,827,0,0
-455,197,0,0,0,0,0,0,0,0,0,-1,769,827,0,0
-448,197,0,0,0,0,0,0,0,0,0,-1,776,827,0,0
-441,197,0,0,0,0,0,0,0,0,0,-1,783,827,0,0
-434,197,0,0,0,0,0,0,0,0,0,-1,790,827,0,0
-427,197,0,0,0,0,0,0,0,0,0,-1,797,827,0,0
-420,197,0,0,0,0,0,0,0,0,0,-1,804,827,0,0
-413,197,0,0,0,0,0,0,0,0,0,-1,811,827,0,0
-406,197,0,0,0,0,0,0,0,0,0,-1,818,827,0,0
-399,197,0,0,0,0,0,0,0,0,0,-1,825,827,0,0
-392,197,0,0,0,0,0,0,0,0,0,-1,832,827,0,0
-385,197,0,0,0,0,0,0,0,0,0,-1,839,827,0,0
-378,197,0,0,0,0,0,0,0,0,0,-1,846,827,0,0
-371,197,0,0,0,0,0,0,0,0,0,-1,853,827,0,0
-364,197,0,0,0,0,0,0,0,0,0,-1,860,827,0,0
-357,197,0,0,0,0,0,0,0,0,0,-1,867,827,0,0
-350,197,0,0,0,0,0,0,0,0,0,-1,874,827,0,0
-343,197,0,0,0,0,0,0,0,0,0,-1,881,827,0,0
-336,197,0,0,0,0,0,0,0,0,0,-1,888,827,0,0
-329,197,0,0,0,0,0,0,0,0,0,-1,895,827,0,0
-322,197,0,0,0,0,0,0,0,0,0,-1,902,827,0,0
-315,197,0,0,0,0,0,0,0,0,0,-1,909,827,0,0
-308,197,0,0,0,0,0,0,0,0,0,-1,916,827,0,0
-301,197,0,0,0,0,0,0,0,0,0,-1,923,827,0,0
-294,197,0,0,0,0,0,0,0,0,0,-1,930,827,0,0
-287,197,0,0,0,0,0,0,0,0,0,-1,937,827,0,0
-280,197,0,0,0,0,0,0,0,0,0,-1,944,827,0,0
-273,197,0,0,0,0,0,0,0,0,0,-1,951,827,0,0
-266,197,0,0,0,0,0,0,0,0,0,-1,958,827,0,0
-259,197,0,0,0,0,0,0,0,0,0,-1,965,827,0,0
-252,197,0,0,0,0,0,0,0,0,0,-1,972,827,0,0
-245,197,0,0,0,0,0,0,0,0,0,-1,979,827,0,0
-238,197,0,0,0,0,0,0,0,0,0,-1,986,827,0,0
-231,197,0,0,0,0,0,0,0,0,0,-1,993,827,0,0
-224,197,0,0,0,0,0,0,0,0,0,-1,1000,827,0,0
-217,197,0,0,0,0,0,0,0,0,0,-1,1007,827,0,0
-210,197,0,0,0,0,0,0,0,0,0,-1,1014,827,0,0
-203,197,0,0,0,0,0,0,0,0,0,-1,1021,827,0,0
-196,197,0,0,0,0,0,0,0,0,0,-1,1028,827,0,0
-189,197,0,0,0,0,0,0,0,0,0,-1,1035,827,0,0
-182,197,0,0,0,0,0,0,0,0,0,-1,1042,827,0,0
-175,197,0,0,0,0,0,0,0,0,0,-1,1049,827,0,0
-168,197,0,0,0,0,0,0,0,0,0,-1,1056,827,0,0
-161,197,0,0,0,0,0,0,0,0,0,-1,1063,827,0,0
-154,197,0,0,0,0,0,0,0,0,0,-1,1070,827,0,0
-147,197,0,0,0,0,0,0,0,0,0,-1,1077,827,0,0
-140,197,0,0,0,0,0,0,0,0,0,-1,1084,827,0,0
-133,197,0,0,0,0,0,0,0,0,0,-1,1091,827,0,0
-126,197,0,0,0,0,0,0,0,0,0,-1,1098,827,0,0
-119,197,0,0,0,0,0,0,0,0,0,-1,1105,827,0,0
-112,197,0,0,0,0,0,0,0,0,0,-1,1112,827,0,0
-105,197,0,0,0,0,0,0,0,0,0,-1,1119,827,0,0
-98,197,0,0,0,0,0,0,0,0,0,-1,1126,827,0,0
-91,197,0,0,0,0,0,0,0,0,0,-1,1133,827,0,0
-84,197,0,0,0,0,0,0,0,0,0,-1,1140,827,0,0
-77,197,0,0,0,0,0,0,0,0,0,-1,1147,827,0,0
-70,197,0,0,0,0,0,0,0,0,0,-1,1154,827,0,0
-63,197,0,0,0,0,0,0,0,0,0,-1,1161,827,0,0
-56,197,0,0,0,0,0,0,0,0,0,-1,1168,827,0,0
-49,197,0,0,0,0,0,0,0,0,0,-1,1175,827,0,0
-42,197,0,0,0,0,0,0,0,0,0,-1,1182,827,0,0
-35,197,0,0,0,0,0,0,0,0,0,-1,1189,827,0,0
-28,197,0,0,0,0,0,0,0,0,0,-1,1196,827,0,0
-21,197,0,0,0,0,0,0,0,0,0,-1,1203,827,0,0
-14,197,0,0,0,0,0,0,0,0,0,-1,1210,827,0,0
-7,197,0,0,0,0,0,0,0,0,0,-1,1217,827,0,0
0,197,0,0,0,0,0,0,0,0,0,-1,1224,827,0,0
7,197,0,0,0,0,0,0,0,0,0,-1,1231,827,0,0
14,197,0,0,0,0,0,0,0,0,0,-1,1238,827,0,0
21,197,0,0,0,0,0,0,0,0,0,-1,1245,827,0,0
28,197,0,0,0,0,0,0,0,0,0,-1,1252,827,0,0
35,197,0,0,0,0,0,0,0,0,0,-1,1259,827,0,0
42,197,0,0,0,0,0,0,0,0,0,-1,1266,827,0,0
49,197,0,0,0,0,0,0,0,0,0,-1,1273,827,0,0
56,197,0,0,0,0,0,0,0,0,0,-1,1280,827,0,0
63,197,0,0,0,0,0,0,0,0,0,-1,1287,827,0,0
70,197,0,0,0,0,0,0,0,0,0,-1,1294,827,0,0
77,197,0,0,0,0,0,0,0,0,0,-1,1301,827,0,0
84,197,0,0,0,0,0,0,0,0,0,-1,1308,827,0,0
91,197,0,0,0,0,0,0,0,0,0,-1,1315,827,0,0
98,197,0,0,0,0,0,0,0,0,0,-1,1322,827,0,0
105,197,0,0,0,0,0,0,0,0,0,-1,1329,827,0,0
112,197,0,0,0,0,0,0,0,0,0,-1,1336,827,0,0
119,197,0,0,0,0,0,0,0,0,0,-1,1343,827,0,0
126,197,0,0,0,0,0,0,0,0,0,-1,1350,827,0,0
133,197,0,0,0,0,0,0,0,0,0,-1,1357,827,0,0
140,197,0,0,0,0,0,0,0,0,0,-1,1364,827,0,0
147,197,0,0,0,0,0,0,0,0,0,-1,1371,827,0,0
154,197,0,0,0,0,0,0,0,0,0,-1,1378,827,0,0
161,197,0,0,0,0,0,0,0,0,0,-1,1385,827,0,0
168,197,0,0,0,0,0,0,0,0,0,-1,1392,827,0,0
175,197,0,0,0,0,0,0,0,0,0,-1,1399,827,0,0
182,197,0,0,0,0,0,0,0,0,0,-1,1406,827,0,0
189,197,0,0,0,0,0,0,0,0,0,-1,1413,827,0,0
196,197,0,0,0,0,0,0,0,0,0,-1,1420,827,0,0
203,197,0,0,0,0,0,0,0,0,0,-1,1427,827,0,0
210,197,0,0,0,0,0,0,0,0,0,-1,1434,827,0,0
217,197,0,0,0,0,0,0,0,0,0,-1,1441,827,0,0
224,197,0,0,0,0,0,0,0,0,0,-1,1448,827,0,0
231,197,0,0,0,0,0,0,0,0,0,-1,1455,827,0,0
238,197,0,0,0,0,0,0,0,0,0,-1,1462,827,0,0
245,197,0,0,0,0,0,0,0,0,0,-1,1469,827,0,0
252,197,0,0,0,0,0,0,0,0,0,-1,1476,827,0,0
259,197,0,0,0,0,0,0,0,0,0,-1,1483,827,0,0
266,197,0,0,0,0,0,0,0,0,0,-1,1490,827,0,0
273,197,0,0,0,0,0,0,0,0,0,-1,1497,827,0,0
280,197,0,0,0,0,0,0,0,0,0,-1,1504,827,0,0
287,197,0,0,0,0,0,0,0,0,0,-1,1511,827,0,0
294,197,0,0,0,0,0,0,0,0,0,-1,1518,827,0,0
301,197,0,0,0,0,0,0,0,0,0,-1,1525,827,0,0
308,197,0,0,0,0,0,0,0,0,0,-1,1532,827,0,0
315,197,0,0,0,0,0,0,0,0,0,-1,1539,827,0,0
322,197,0,0,0,0,0,0,0,0,0,-1,1546,827,0,0
329,197,0,0,0,0,0,0,0,0,0,-1,1553,827,0,0
336,197,0,0,0,0,0,0,0,0,0,-1,1560,827,0,0
343,197,0,0,0,0,0,0,0,0,0,-1,1567,827,0,0
350,197,0,0,0,0,0,0,0,0,0,-1,1574,827,0,0
357,197,0,0,0,0,0,0,0,0,0,-1,1581,827,0,0
364,197,0,0,0,0,0,0,0,0,0,-1,1588,827,0,0
371,197,0,0,0,0,0,0,0,0,0,-1,1595,827,0,0
378,197,0,0,0,0,0,0,0,0,0,-1,1602,827,0,0
385,197,0,0,0,0,0,0,0,0,0,-1,1609,827,0,0
392,197,0,0,0,0,0,0,0,0,0,-1,1616,827,0,0
399,197,0,0,0,0,0,0,0,0,0,-1,1623,827,0,0
406,197,0,0,0,0,0,0,0,0,0,-1,1630,827,0,0
413,197,0,0,0,0,0,0,0,0,0,-1,1637,827,0,0
420,197,0,0,0,0,0,0,0,0,0,-1,1644,827,0,0
427,197,0,0,0,0,0,0,0,0,0,-1,1651,827,0,0
434,197,0,0,0,0,0,0,0,0,0,-1,1658,827,0,0
441,197,0,0,0,0,0,0,0,0,0,-1,1665,827,0,0
448,197,0,0,0,0,0,0,0,0,0,-1,1672,827,0,0
455,197,0,0,0,0,0,0,0,0,0,-1,1679,827,0,0
462,197,0,0,0,0,0,0,0,0,0,-1,1686,827,0,0
469,197,0,0,0,0,0,0,0,0,0,-1,1693,827,0,0
476,197,0,0,0,0,0,0,0,0,0,-1,1700,827,0,0
483,197,0,0,0,0,0,0,0,0,0,-1,1707,827,0,0
490,197,0,0,0,0,0,0,0,0,0,-1,1714,827,0,0
497,197,0,0,0,0,0,0,0,0,0,-1,1721,827,0,0
504,197,0,0,0,0,0,0,0,0,0,-1,1728,827,0,0
511,197,0,0,0,0,0,0,0,0,0,-1,1735,827,0,0
518,197,0,0,0,0,0,0,0,0,0,-1,1742,827,0,0
525,197,0,0,0,0,0,0,0,0,0,-1,1749,827,0,0
532,197,0,0,0,0,0,0,0,0,0,-1,1756,827,0,0
539,197,0,0,0,0,0,0,0,0,0,-1,1763,827,0,0
546,197,0,0,0,0,0,0,0,0,0,-1,1770,827,0,0
553,197,0,0,0,0,0,0,0,0,0,-1,1777,827,0,0
560,197,0,0,0,0,0,0,0,0,0,-1,1784,827,0,0
567,197,0,0,0,0,0,0,0,0,0,-1,1791,827,0,0
574,197,0,0,0,0,0,0,0,0,0,-1,1798,827,0,0
581,197,0,0,0,0,0,0,0,0,0,-1,1805,827,0,0
588,197,0,0,0,0,0,0,0,0,0,-1,1812,827,0,0
595,197,0,0,0,0,0,0,0,0,0,-1,1819,827,0,0
602,197,17.3397,2.46332,-0.000181483,0.00126932,-0.000931141,0.00172427,-0.000636434,-1.11631,0.00141036,0.040575,1826,827,17.3398,-2.46333
609,197,17.3065,2.38562,-0.000137821,0.000588625,0.000477392,0.000825264,-0.000374459,1.1106,0.000708773,0.0403263,1833,827,17.3066,-2.38559
616,197,17.2629,2.43823,-0.000436599,5.79913e-05,0.00094408,0.000786628,-0.00116524,0.913492,0.00113395,0.0383483,1840,827,17.2629,-2.43823
623,197,17.2678,2.42462,-0.00120925,-0.000500444,0.00065735,-0.000108047,-0.00160165,1.03263,0.00103363,0.0357966,1847,827,17.2679,-2.42463
630,197,17.3538,2.39874,-0.00217785,-0.00100228,-0.0001889,-0.000972673,-0.00220746,-1.41532,0.00127747,0.0302798,1854,827,17.3538,-2.39874
637,197,17.3115,2.47113,-0.00293486,-0.00129915,-0.0011023,-0.000744432,-0.00348957,-1.10456,0.00212222,0.0281952,1861,827,17.3115,-2.47113
644,197,17.2783,2.53528,-0.00351953,-0.00154373,-0.00185457,-0.000430355,-0.0046329,-1.03012,0.00295561,0.034462,1868,827,17.2783,-2.53529
651,197,17.3699,2.59161,-0.00381119,-0.00165591,-0.002526,1.27156e-05,-0.00547981,-0.98702,0.00365746,0.0426295,1875,827,17.3699,-2.5916
658,197,17.2589,2.74615,0,0,0,0,0,0,0,-1,1882,827,17.259,-2.74613
665,197,14.0618,1.80304,0,0,0,0,0,0,0,-1,1889,827,14.0617,-1.80303
672,197,13.8948,1.75964,0,0,0,0,0,0,0,-1,1896,827,13.8948,-1.75965
679,197,13.8617,2.02814,-0.00381734,-0.00139029,-0.00375066,0.00133827,-0.00654591,-0.941858,0.00487169,0.0213559,1903,827,13.8616,-2.02812
686,197,13.8077,2.19177,-0.00311314,-0.00113712,-0.0036641,0.00166984,-0.00592011,-0.917089,0.00460539,0.0136248,1910,827,13.8077,-2.19179
693,197,13.7974,2.38806,-0.00196014,-0.00078333,-0.00318066,0.00186289,-0.00460636,-0.876861,0.00384535,0.0149869,1917,827,13.7974,-2.38806
700,197,13.7987,2.53949,-0.000921139,-0.000253426,-0.0024029,0.0018387,-0.00301326,-0.854426,0.00282851,0.0195001,1924,827,13.7987,-2.53948
707,197,13.8306,2.71271,0.000765764,0.000107394,-0.0016149,0.00208469,-0.00121153,-0.684854,0.0019252,0.00815918,1931,827,13.8305,-2.71268
714,197,13.813,2.88379,0.0038326,-0.000184051,-0.00190753,0.00459413,-0.000945573,-0.379832,0.00342177,0.0105006,1938,827,13.813,-2.88377
721,197,13.7988,3.02136,0.00704009,-0.00070935,-0.00240024,0.00772329,-0.00139255,-0.277304,0.00567033,0.0115575,1945,827,13.7988,-3.02134
728,197,13.7917,3.16571,0.0107717,-0.001086,-0.0032984,0.0116275,-0.00194174,-0.253845,0.00847339,0.0105851,1952,827,13.7918,-3.16571
735,197,13.7966,3.31946,0.0150542,-0.00196729,-0.00526245,0.0165497,-0.00346285,-0.276895,0.0123503,0.0115317,1959,827,13.7966,-3.31943
742,197,13.8384,3.43628,0.0202215,-0.00350039,-0.00844184,0.0229189,-0.00619784,-0.309279,0.0177105,0.0203876,1966,827,13.8384,-3.43627
749,197,14.0358,3.37006,0.0265913,-0.00587556,-0.0131594,0.0312551,-0.0105394,-0.340596,0.0250986,0.0420052,1973,827,14.0358,-3.37004
756,197,14.2286,3.32922,0.0342538,-0.0093348,-0.0199575,0.0420111,-0.0170921,-0.370717,0.0351197,0.0475773,1980,827,14.2286,-3.32923
763,197,13.9644,3.61224,0.0431387,-0.0141639,-0.0295462,0.0556442,-0.0266693,-0.400387,0.0484952,0.0454936,1987,827,13.9644,-3.61225
770,197,13.741,3.71887,0.0529207,-0.0206475,-0.0429052,0.0726514,-0.0403782,-0.43103,0.0661384,0.0460879,1994,827,13.741,-3.71888
777,197,0,0,0,0,0,0,0,0,0,-1,2001,827,0,0
784,197,0,0,0,0,0,0,0,0,0,-1,2008,827,0,0
791,197,0,0,0,0,0,0,0,0,0,-1,2015,827,0,0
798,197,0,0,0,0,0,0,0,0,0,-1,2022,827,0,0
805,197,0,0,0,0,0,0,0,0,0,-1,2029,827,0,0
812,197,0,0,0,0,0,0,0,0,0,-1,2036,827,0,0
-700,190,0,0,0,0,0,0,0,0,0,-1,524,834,0,0
-693,190,0,0,0,0,0,0,0,0,0,-1,531,834,0,0
-686,190,0,0,0,0,0,0,0,0,0,-1,538,834,0,0
-679,190,0,0,0,0,0,0,0,0,0,-1,545,834,0,0
-672,190,0,0,0,0,0,0,0,0,0,-1,552,834,0,0
-665,190,0,0,0,0,0,0,0,0,0,-1,559,834,0,0
-658,190,-7.91888,0.304077,0.0844347,0.111502,0.108299,0.20711,-0.011173,0.847558,0.141944,0.0499503,566,834,-7.91886,-0.304076
-651,190,-7.20496,1.23413,0.0668366,0.0927349,0.0853408,0.166103,-0.00653191,0.860691,0.112976,0.0485461,573,834,-7.20495,-1.23414
-644,190,-12.0196,-4.66827,0,0,0,0,0,0,0,-1,580,834,-12.0196,4.66829
-637,190,-8.95898,1.68451,0,0,0,0,0,0,0,-1,587,834,-8.95901,-1.68449
-630,190,-8.66882,1.48029,0,0,0,0,0,0,0,-1,594,834,-8.66881,-1.4803
-623,190,-8.58807,1.28955,0.0216372,0.0370527,0.0251782,0.0556765,0.0030134,0.933932,0.0361551,0.0492238,601,834,-8.58807,-1.28955
-616,190,-8.63873,1.22583,0.0151933,0.0276169,0.0167761,0.0392943,0.00351583,0.96271,0.0251064,0.0432008,608,834,-8.63871,-1.22581
-609,190,-8.68488,1.17914,0.00949173,0.0191727,0.00985735,0.0253139,0.00335051,1.01363,0.0158774,0.0217544,615,834,-8.6849,-1.17915
-602,190,-8.68811,1.08453,0.00547647,0.0131194,0.00488111,0.015497,0.00309883,1.11751,0.00946897,0.0136893,622,834,-8.68809,-1.08453
-595,190,-8.70642,0.973755,0.00221355,0.00892827,0.00211679,0.00953988,0.00160194,1.28953,0.00589889,0.0175369,629,834,-8.70645,-0.973772
-588,190,-8.72711,0.840027,-0.000169156,0.00487707,0.00121134,0.00515278,-0.000444872,1.347,0.00359267,0.0153359,636,834,-8.72709,-0.840006
-581,190,-8.70648,0.688904,-0.00258649,0.00136275,0.00128696,0.00174512,-0.00296886,1.28199,0.00275201,0.0105109,643,834,-8.70649,-0.688894
-574,190,-8.69263,0.524109,-0.00494671,-0.000221734,0.00257671,0.000911603,-0.00608005,1.15642,0.0043889,0.0103494,650,834,-8.69266,-0.524113
-567,190,-8.68323,0.36792,-0.0070272,-0.000798711,0.0038765,0.00105954,-0.00888545,1.12379,0.00630656,0.0119723,657,834,-8.68324,-0.367901
-560,190,-8.70361,0.238586,-0.00860691,-0.00143771,0.00480527,0.00097269,-0.0110173,1.10586,0.00768963,0.0164939,664,834,-8.70362,-0.238586
-553,190,-8.70599,0.103333,-0.00973043,-0.00167143,0.00552933,0.00114088,-0.0125427,1.10028,0.0087669,0.0151427,671,834,-8.70602,-0.103331
-546,190,-8.69171,-0.0601196,-0.0105007,-0.00169389,0.00609198,0.00141949,-0.0136141,1.09834,0.00958435,0.0288677,678,834,-8.69173,0.0601047
-539,190,-8.79584,-0.09021,-0.0108956,-0.00153116,0.006564,0.00184944,-0.0142762,1.0952,0.0101901,0.042403,685,834,-8.79586,0.0902309
-532,190,-9.31,0.193054,-0.0105411,-0.00127714,0.00664049,0.00218726,-0.0140055,1.08993,0.010145,0.0452628,692,834,-9.30998,-0.19304
-525,190,-10.3729,1.24225,0,0,0,0,0,0,0,-1,699,834,-10.3729,-1.24225
-518,190,-11.1801,0.815369,-0.00797225,-0.000114201,0.00546202,0.00268514,-0.0107716,1.09719,0.00822356,0.0480499,706,834,-11.1801,-0.815378
-511,190,-11.156,0.652466,-0.00546268,0.000751722,0.00421184,0.00287848,-0.00758943,1.1032,0.00624432,0.0393693,713,834,-11.156,-0.652479
-504,190,-11.1651,0.635803,-0.00201399,0.00169919,0.00233882,0.00282874,-0.00314353,1.12088,0.00344969,0.040583,720,834,-11.1651,-0.635775
-497,190,-11.172,0.663025,0.00231131,0.00272683,-0.000286779,0.0028732,0.00216494,-1.09888,0.00172845,0.0441545,727,834,-11.172,-0.663038
-490,190,-11.2672,0.31958,0,0,0,0,0,0,0,-1,734,834,-11.2671,-0.319556
-483,190,0,0,0,0,0,0,0,0,0,-1,741,834,0,0
-476,190,0,0,0,0,0,0,0,0,0,-1,748,834,0,0
-469,190,0,0,0,0,0,0,0,0,0,-1,755,834,0,0
-462,190,0,0,0,0,0,0,0,0,0,-1,762,834,0,0
-455,190,0,0,0,0,0,0,0,0,0,-1,769,834,0,0
-448,190,0,0,0,0,0,0,0,0,0,-1,776,834,0,0
-441,190,0,0,0,0,0,0,0,0,0,-1,783,834,0,0
-434,190,0,0,0,0,0,0,0,0,0,-1,790,834,0,0
-427,190,0,0,0,0,0,0,0,0,0,-1,797,834,0,0
-420,190,0,0,0,0,0,0,0,0,0,-1,804,834,0,0
-413,190,0,0,0,0,0,0,0,0,0,-1,811,834,0,0
-406,190,0,0,0,0,0,0,0,0,0,-1,818,834,0,0
-399,190,0,0,0,0,0,0,0,0,0,-1,825,834,0,0
-392,190,0,0,0,0,0,0,0,0,0,-1,832,834,0,0
-385,190,0,0,0,0,0,0,0,0,0,-1,839,834,0,0
-378,190,0,0,0,0,0,0,0,0,0,-1,846,834,0,0
-371,190,0,0,0,0,0,0,0,0,0,-1,853,834,0,0
-364,190,0,0,0,0,0,0,0,0,0,-1,860,834,0,0
-357,190,0,0,0,0,0,0,0,0,0,-1,867,834,0,0
-350,190,0,0,0,0,0,0,0,0,0,-1,874,834,0,0
-343,190,0,0,0,0,0,0,0,0,0,-1,881,834,0,0
-336,190,0,0,0,0,0,0,0,0,0,-1,888,834,0,0
-329,190,0,0,0,0,0,0,0,0,0,-1,895,834,0,0
-322,190,0,0,0,0,0,0,0,0,0,-1,902,834,0,0
-315,190,0,0,0,0,0,0,0,0,0,-1,909,834,0,0
-308,190,0,0,0,0,0,0,0,0,0,-1,916,834,0,0
-301,190,0,0,0,0,0,0,0,0,0,-1,923,834,0,0
-294,190,0,0,0,0,0,0,0,0,0,-1,930,834,0,0
-287,190,0,0,0,0,0,0,0,0,0,-1,937,834,0,0
-280,190,0,0,0,0,0,0,0,0,0,-1,944,834,0,0
-273,190,0,0,0,0,0,0,0,0,0,-1,951,834,0,0
-266,190,0,0,0,0,0,0,0,0,0,-1,958,834,0,0
-259,190,0,0,0,0,0,0,0,0,0,-1,965,834,0,0
-252,190,0,0,0,0,0,0,0,0,0,-1,972,834,0,0
-245,190,0,0,0,0,0,0,0,0,0,-1,979,834,0,0
-238,190,0,0,0,0,0,0,0,0,0,-1,986,834,0,0
-231,190,0,0,0,0,0,0,0,0,0,-1,993,834,0,0
-224,190,0,0,0,0,0,0,0,0,0,-1,1000,834,0,0
-217,190,0,0,0,0,0,0,0,0,0,-1,1007,834,0,0
-210,190,0,0,0,0,0,0,0,0,0,-1,1014,834,0,0
-203,190,0,0,0,0,0,0,0,0,0,-1,1021,834,0,0
-196,190,0,0,0,0,0,0,0,0,0,-1,1028,834,0,0
-189,190,0,0,0,0,0,0,0,0,0,-1,1035,834,0,0
-182,190,0,0,0,0,0,0,0,0,0,-1,1042,834,0,0
-175,190,0,0,0,0,0,0,0,0,0,-1,1049,834,0,0
-168,190,0,0,0,0,0,0,0,0,0,-1,1056,834,0,0
-161,190,0,0,0,0,0,0,0,0,0,-1,1063,834,0,0
-154,190,0,0,0,0,0,0,0,0,0,-1,1070,834,0,0
-147,190,0,0,0,0,0,0,0,0,0,-1,1077,834,0,0
-140,190,0,0,0,0,0,0,0,0,0,-1,1084,834,0,0
-133,190,0,0,0,0,0,0,0,0,0,-1,1091,834,0,0
-126,190,0,0,0,0,0,0,0,0,0,-1,1098,834,0,0
-119,190,0,0,0,0,0,0,0,0,0,-1,1105,834,0,0
-112,190,0,0,0,0,0,0,0,0,0,-1,1112,834,0,0
-105,190,0,0,0,0,0,0,0,0,0,-1,1119,834,0,0
-98,190,0,0,0,0,0,0,0,0,0,-1,1126,834,0,0
-91,190,0,0,0,0,0,0,0,0,0,-1,1133,834,0,0
-84,190,0,0,0,0,0,0,0,0,0,-1,1140,834,0,0
-77,190,0,0,0,0,0,0,0,0,0,-1,1147,834,0,0
-70,190,0,0,0,0,0,0,0,0,0,-1,1154,834,0,0
-63,190,0,0,0,0,0,0,0,0,0,-1,1161,834,0,0
-56,190,0,0,0,0,0,0,0,0,0,-1,1168,834,0,0
-49,190,0,0,0,0,0,0,0,0,0,-1,1175,834,0,0
-42,190,0,0,0,0,0,0,0,0,0,-1,1182,834,0,0
-35,190,0,0,0,0,0,0,0,0,0,-1,1189,834,0,0
-28,190,0,0,0,0,0,0,0,0,0,-1,1196,834,0,0
-21,190,0,0,0,0,0,0,0,0,0,-1,1203,834,0,0
-14,190,0,0,0,0,0,0,0,0,0,-1,1210,834,0,0
-7,190,0,0,0,0,0,0,0,0,0,-1,1217,834,0,0
0,190,0,0,0,0,0,0,0,0,0,-1,1224,834,0,0
7,190,0,0,0,0,0,0,0,0,0,-1,1231,834,0,0
14,190,0,0,0,0,0,0,0,0,0,-1,1238,834,0,0
21,190,0,0,0,0,0,0,0,0,0,-1,1245,834,0,0
28,190,0,0,0,0,0,0,0,0,0,-1,1252,834,0,0
35,190,0,0,0,0,0,0,0,0,0,-1,1259,834,0,0
42,190,0,0,0,0,0,0,0,0,0,-1,1266,834,0,0
49,190,0,0,0,0,0,0,0,0,0,-1,1273,834,0,0
56,190,0,0,0,0,0,0,0,0,0,-1,1280,834,0,0
63,190,0,0,0,0,0,0,0,0,0,-1,1287,834,0,0
70,190,0,0,0,0,0,0,0,0,0,-1,1294,834,0,0
77,190,0,0,0,0,0,0,0,0,0,-1,1301,834,0,0
84,190,0,0,0,0,0,0,0,0,0,-1,1308,834,0,0
91,190,0,0,0,0,0,0,0,0,0,-1,1315,834,0,0
98,190,0,0,0,0,0,0,0,0,0,-1,1322,834,0,0
105,190,0,0,0,0,0,0,0,0,0,-1,1329,834,0,0
112,190,0,0,0,0,0,0,0,0,0,-1,1336,834,0,0
119,190,0,0,0,0,0,0,0,0,0,-1,1343,834,0,0
126,190,0,0,0,0,0,0,0,0,0,-1,1350,834,0,0
133,190,0,0,0,0,0,0,0,0,0,-1,1357,834,0,0
140,190,0,0,0,0,0,0,0,0,0,-1,1364,834,0,0
147,190,0,0,0,0,0,0,0,0,0,-1,1371,834,0,0
154,190,0,0,0,0,0,0,0,0,0,-1,1378,834,0,0
161,190,0,0,0,0,0,0,0,0,0,-1,1385,834,0,0
168,190,0,0,0,0,0,0,0,0,0,-1,1392,834,0,0
175,190,0,0,0,0,0,0,0,0,0,-1,1399,834,0,0
182,190,0,0,0,0,0,0,0,0,0,-1,1406,834,0,0
189,190,0,0,0,0,0,0,0,0,0,-1,1413,834,0,0
196,190,0,0,0,0,0,0,0,0,0,-1,1420,834,0,0
203,190,0,0,0,0,0,0,0,0,0,-1,1427,834,0,0
210,190,0,0,0,0,0,0,0,0,0,-1,1434,834,0,0
217,190,0,0,0,0,0,0,0,0,0,-1,1441,834,0,0
224,190,0,0,0,0,0,0,0,0,0,-1,1448,834,0,0
231,190,0,0,0,0,0,0,0,0,0,-1,1455,834,0,0
238,190,0,0,0,0,0,0,0,0,0,-1,1462,834,0,0
245,190,0,0,0,0,0,0,0,0,0,-1,1469,834,0,0
252,190,0,0,0,0,0,0,0,0,0,-1,1476,834,0,0
259,190,0,0,0,0,0,0,0,0,0,-1,1483,834,0,0
266,190,0,0,0,0,0,0,0,0,0,-1,1490,834,0,0
273,190,0,0,0,0,0,0,0,0,0,-1,1497,834,0,0
280,190,0,0,0,0,0,0,0,0,0,-1,1504,834,0,0
287,190,0,0,0,0,0,0,0,0,0,-1,1511,834,0,0
294,190,0,0,0,0,0,0,0,0,0,-1,1518,834,0,0
301,190,0,0,0,0,0,0,0,0,0,-1,1525,834,0,0
308,190,0,0,0,0,0,0,0,0,0,-1,1532,834,0,0
315,190,0,0,0,0,0,0,0,0,0,-1,1539,834,0,0
322,190,0,0,0,0,0,0,0,0,0,-1,1546,834,0,0
329,190,0,0,0,0,0,0,0,0,0,-1,1553,834,0,0
336,190,0,0,0,0,0,0,0,0,0,-1,1560,834,0,0
343,190,0,0,0,0,0,0,0,0,0,-1,1567,834,0,0
350,190,0,0,0,0,0,0,0,0,0,-1,1574,834,0,0
357,190,0,0,0,0,0,0,0,0,0,-1,1581,834,0,0
364,190,0,0,0,0,0,0,0,0,0,-1,1588,834,0,0
371,190,0,0,0,0,0,0,0,0,0,-1,1595,834,0,0
378,190,0,0,0,0,0,0,0,0,0,-1,1602,834,0,0
385,190,0,0,0,0,0,0,0,0,0,-1,1609,834,0,0
392,190,0,0,0,0,0,0,0,0,0,-1,1616,834,0,0
399,190,0,0,0,0,0,0,0,0,0,-1,1623,834,0,0
406,190,0,0,0,0,0,0,0,0,0,-1,1630,834,0,0
413,190,0,0,0,0,0,0,0,0,0,-1,1637,834,0,0
420,190,0,0,0,0,0,0,0,0,0,-1,1644,834,0,0
427,190,0,0,0,0,0,0,0,0,0,-1,1651,834,0,0
434,190,0,0,0,0,0,0,0,0,0,-1,1658,834,0,0
441,190,0,0,0,0,0,0,0,0,0,-1,1665,834,0,0
448,190,0,0,0,0,0,0,0,0,0,-1,1672,834,0,0
455,190,0,0,0,0,0,0,0,0,0,-1,1679,834,0,0
462,190,0,0,0,0,0,0,0,0,0,-1,1686,834,0,0
469,190,0,0,0,0,0,0,0,0,0,-1,1693,834,0,0
476,190,0,0,0,0,0,0,0,0,0,-1,1700,834,0,0
483,190,0,0,0,0,0,0,0,0,0,-1,1707,834,0,0
490,190,0,0,0,0,0,0,0,0,0,-1,1714,834,0,0
497,190,0,0,0,0,0,0,0,0,0,-1,1721,834,0,0
504,190,0,0,0,0,0,0,0,0,0,-1,1728,834,0,0
511,190,0,0,0,0,0,0,0,0,0,-1,1735,834,0,0
518,190,0,0,0,0,0,0,0,0,0,-1,1742,834,0,0
525,190,0,0,0,0,0,0,0,0,0,-1,1749,834,0,0
532,190,0,0,0,0,0,0,0,0,0,-1,1756,834,0,0
539,190,0,0,0,0,0,0,0,0,0,-1,1763,834,0,0
546,190,0,0,0,0,0,0,0,0,0,-1,1770,834,0,0
553,190,0,0,0,0,0,0,0,0,0,-1,1777,834,0,0
560,190,0,0,0,0,0,0,0,0,0,-1,1784,834,0,0
567,190,0,0,0,0,0,0,0,0,0,-1,1791,834,0,0
574,190,0,0,0,0,0,0,0,0,0,-1,1798,834,0,0
581,190,0,0,0,0,0,0,0,0,0,-1,1805,834,0,0
588,190,0,0,0,0,0,0,0,0,0,-1,1812,834,0,0
595,190,0,0,0,0,0,0,0,0,0,-1,1819,834,0,0
602,190,17.2003,2.4328,0.000139742,0.00113797,-0.00141191,0.00213639,-0.000858679,-0.955293,0.00178088,0.0434446,1826,834,17.2003,-2.43279
609,190,17.1714,2.38885,0.000121714,0.0002009,-4.87041e-05,0.000224074,9.854e-05,-1.12669,0.000129682,0.0382993,1833,834,17.1714,-2.38883
616,190,17.1741,2.40955,-9.22336e-05,-0.000315493,0.000405105,0.00021634,-0.000624067,0.650956,0.000503884,0.0379063,1840,834,17.174,-2.40953
623,190,17.2992,2.47327,-0.000757913,-0.000765169,0.000342944,-0.000418577,-0.0011045,0.780109,0.000643883,0.0385577,1847,834,17.2992,-2.47328
630,190,17.4072,2.41193,-0.00179503,-0.00111924,-0.000462359,-0.000884469,-0.00202981,-1.10095,0.00117513,0.038774,1854,834,17.4072,-2.41191
637,190,17.301,2.42944,-0.00265982,-0.00132604,-0.00137391,-0.00046572,-0.00352014,-1.01135,0.00220795,0.0332083,1861,834,17.301,-2.42945
644,190,17.2323,2.59601,-0.00332013,-0.00148418,-0.00216612,-4.95564e-05,-0.00475476,-0.98582,0.00315345,0.0276936,1868,834,17.2323,-2.596
651,190,17.2227,2.66003,-0.00368726,-0.00151875,-0.00284875,0.000445104,-0.00565111,-0.967237,0.0039242,0.0365806,1875,834,17.2226,-2.66004
658,190,17.3043,2.63196,-0.00385408,-0.00148217,-0.00341194,0.000944053,-0.0062803,-0.952661,0.00453443,0.0453337,1882,834,17.3043,-2.63193
665,190,17.4578,2.55853,0,0,0,0,0,0,0,-1,1889,834,17.4578,-2.55852
672,190,14.1498,2.06213,0,0,0,0,0,0,0,-1,1896,834,14.1498,-2.06211
679,190,14.0282,2.16815,-0.00395812,-0.00113,-0.00395204,0.00165334,-0.00674146,-0.957203,0.00513492,0.0267857,1903,834,14.0282,-2.16816
686,190,13.947,2.23889,-0.00335253,-0.000924638,-0.00385534,0.00190336,-0.00618053,-0.937921,0.00488014,0.012182,1910,834,13.947,-2.23888
693,190,13.9678,2.37793,-0.00234001,-0.00063477,-0.00347395,0.00208966,-0.00506444,-0.905736,0.00424778,0.0125821,1917,834,13.9678,-2.37794
700,190,13.99,2.55737,-0.00154021,-0.000210702,-0.00285008,0.00205112,-0.00380203,-0.89997,0.00342935,0.0116073,1924,834,13.99,-2.55739
707,190,13.9872,2.71265,-0.000108103,4.16629e-06,-0.00210963,0.00205841,-0.00216234,-0.798699,0.0024371,0.0124097,1931,834,13.9872,-2.71266
714,190,13.9753,2.86298,0.00281403,-0.000306542,-0.00245596,0.00416342,-0.00165593,-0.50241,0.00346221,0.011097,1938,834,13.9753,-2.86298
721,190,13.9631,3.02283,0.00592036,-0.000909292,-0.00313075,0.00713831,-0.00212724,-0.371013,0.00560418,0.0106024,1945,834,13.9632,-3.02281
728,190,13.9556,3.15454,0.00959696,-0.00133864,-0.00416214,0.0110009,-0.00274254,-0.325319,0.0083987,0.012486,1952,834,13.9555,-3.15452
735,190,13.9741,3.29303,0.0138958,-0.00222631,-0.00640228,0.0161289,-0.00445943,-0.335605,0.0125069,0.0120531,1959,834,13.9741,-3.29303
742,190,13.9551,3.47937,0.0191543,-0.0036674,-0.00989319,0.0228458,-0.00735896,-0.35714,0.0181868,0.0157845,1966,834,13.955,-3.47938
749,190,13.9271,3.67853,0.0257401,-0.00584023,-0.0149055,0.0316641,-0.0117642,-0.378294,0.0259359,0.0390309,1973,834,13.9271,-3.67856
756,190,13.8949,3.79694,0.033837,-0.00890523,-0.0219154,0.0430764,-0.0181447,-0.398986,0.0363099,0.0476,1980,834,13.8948,-3.79692
763,190,13.9125,3.60144,0.0434098,-0.0130121,-0.0314696,0.0574622,-0.0270645,-0.419972,0.0498424,0.0460526,1987,834,13.9125,-3.60141
770,190,14.756,4.46753,0.054178,-0.0182793,-0.044238,0.0751291,-0.0392304,-0.442304,0.0671011,0.0448402,1994,834,14.756,-4.46754
777,190,14.8749,4.7785,0.0656375,-0.0248502,-0.0610009,0.0963418,-0.0555544,-0.466317,0.0887449,0.048778,2001,834,14.8749,-4.77853
784,190,0,0,0,0,0,0,0,0,0,-1,2008,834,0,0
791,190,0,0,0,0,0,0,0,0,0,-1,2015,834,0,0
798,190,0,0,0,0,0,0,0,0,0,-1,2022,834,0,0
805,190,0,0,0,0,0,0,0,0,0,-1,2029,834,0,0
812,190,0,0,0,0,0,0,0,0,0,-1,2036,834,0,0
-700,183,0,0,0,0,0,0,0,0,0,-1,524,841,0,0
-693,183,0,0,0,0,0,0,0,0,0,-1,531,841,0,0
-686,183,0,0,0,0,0,0,0,0,0,-1,538,841,0,0
-679,183,0,0,0,0,0,0,0,0,0,-1,545,841,0,0
-672,183,0,0,0,0,0,0,0,0,0,-1,552,841,0,0
-665,183,0,0,0,0,0,0,0,0,0,-1,559,841,0,0
-658,183,-8.40887,-0.0455322,0.0820601,0.0933665,0.106944,0.194807,-0.01938,0.811804,0.136789,0.0454322,566,841,-8.40888,0.0455041
-651,183,-7.64874,0.831482,0.0646544,0.0773695,0.0853737,0.156622,-0.0145981,0.822563,0.109605,0.0489077,573,841,-7.64877,-0.831466
-644,183,-7.9397,1.1593,0,0,0,0,0,0,0,-1,580,841,-7.93967,-1.1593
-637,183,-7.79895,2.53284,0,0,0,0,0,0,0,-1,587,841,-7.79893,-2.53281
-630,183,-8.76501,1.55682,0,0,0,0,0,0,0,-1,594,841,-8.76504,-1.55682
-623,183,-8.6369,1.60974,0.0199662,0.0304923,0.0262549,0.0520064,-0.00154793,0.884316,0.0351983,0.0457263,601,841,-8.63691,-1.60972
-616,183,-8.82605,1.28955,0.0137321,0.0227524,0.0178993,0.036701,-0.000216544,0.908815,0.0245398,0.0383934,608,841,-8.82607,-1.28954
-609,183,-8.8241,1.20367,0.00793632,0.0154914,0.0107432,0.0231019,0.000325841,0.954457,0.0152938,0.0155435,615,841,-8.8241,-1.20368
-602,183,-8.82739,1.09772,0.00419225,0.0104065,0.00553758,0.0136491,0.000949645,1.04106,0.00879994,0.0102622,622,841,-8.82738,-1.09769
-595,183,-8.84485,0.968445,0.000976898,0.00711711,0.00269258,0.00813058,-3.65656e-05,1.21081,0.00543261,0.00984497,629,841,-8.84487,-0.968461
-588,183,-8.85583,0.828674,-0.00138545,0.00384059,0.00176179,0.00437904,-0.0019239,1.27418,0.00372989,0.0105114,636,841,-8.85581,-0.828665
-581,183,-8.86127,0.677429,-0.00369651,0.000910437,0.00184697,0.00155947,-0.00434554,1.23287,0.00353348,0.0113761,643,841,-8.86127,-0.677432
-574,183,-8.84882,0.52417,-0.00593432,-0.000443667,0.00305982,0.000921882,-0.00729987,1.15104,0.00520118,0.0113804,650,841,-8.84881,-0.5242
-567,183,-8.81323,0.387207,-0.0078639,-0.00088516,0.00420142,0.00108694,-0.009836,1.13194,0.00694804,0.0151929,657,841,-8.81324,-0.38721
-560,183,-8.88196,0.29126,-0.00934497,-0.00138185,0.00500098,0.00102898,-0.0117558,1.12159,0.00820174,0.0174362,664,841,-8.88198,-0.291234
-553,183,-8.83185,0.0872192,-0.0104388,-0.00157072,0.00564275,0.00117169,-0.0131812,1.11841,0.00920292,0.0145421,671,841,-8.83188,-0.087194
-546,183,-8.87799,-0.106873,0,0,0,0,0,0,0,-1,678,841,-8.87796,0.106871
-539,183,-9.11932,-0.144836,-0.0114538,-0.00135077,0.00639168,0.00174459,-0.0145491,1.1198,0.0103302,0.0446036,685,841,-9.11932,0.144843
-532,183,-9.77954,0.186279,-0.0110098,-0.00109489,0.00633139,0.00198898,-0.0140936,1.11754,0.0101241,0.0459643,692,841,-9.77952,-0.186274
-525,183,-10.7061,0.593933,0,0,0,0,0,0,0,-1,699,841,-10.706,-0.593945
-518,183,-11.2404,0.592896,-0.00786926,-8.74303e-06,0.00482144,0.00228138,-0.0101594,1.12736,0.00764767,0.0433331,706,841,-11.2403,-0.592872
-511,183,-11.2529,0.544739,-0.00477642,0.000732278,0.00334337,0.00230974,-0.00635388,1.12995,0.00518041,0.037336,713,841,-11.2529,-0.544739
-504,183,-11.4203,0.777649,-0.000486992,0.00149442,0.00120743,0.00206556,-0.00105814,1.12896,0.00183447,0.0383191,720,841,-11.4203,-0.777619
-497,183,-11.2684,0.589905,0,0,0,0,0,0,0,-1,727,841,-11.2683,-0.589917
-490,183,-11.2377,0.6521,0,0,0,0,0,0,0,-1,734,841,-11.2377,-0.652117
-483,183,0,0,0,0,0,0,0,0,0,-1,741,841,0,0
-476,183,0,0,0,0,0,0,0,0,0,-1,748,841,0,0
-469,183,0,0,0,0,0,0,0,0,0,-1,755,841,0,0
-462,183,0,0,0,0,0,0,0,0,0,-1,762,841,0,0
-455,183,0,0,0,0,0,0,0,0,0,-1,769,841,0,0
-448,183,0,0,0,0,0,0,0,0,0,-1,776,841,0,0
-441,183,0,0,0,0,0,0,0,0,0,-1,783,841,0,0
-434,183,0,0,0,0,0,0,0,0,0,-1,790,841,0,0
-427,183,0,0,0,0,0,0,0,0,0,-1,797,841,0,0
-420,183,0,0,0,0,0,0,0,0,0,-1,804,841,0,0
-413,183,0,0,0,0,0,0,0,0,0,-1,811,841,0,0
-406,183,0,0,0,0,0,0,0,0,0,-1,818,841,0,0
-399,183,0,0,0,0,0,0,0,0,0,-1,825,841,0,0
-392,183,0,0,0,0,0,0,0,0,0,-1,832,841,0,0
-385,183,0,0,0,0,0,0,0,0,0,-1,839,841,0,0
-378,183,0,0,0,0,0,0,0,0,0,-1,846,841,0,0
-371,183,0,0,0,0,0,0,0,0,0,-1,853,841,0,0
-364,183,0,0,0,0,0,0,0,0,0,-1,860,841,0,0
-357,183,0,0,0,0,0,0,0,0,0,-1,867,841,0,0
-350,183,0,0,0,0,0,0,0,0,0,-1,874,841,0,0
-343,183,0,0,0,0,0,0,0,0,0,-1,881,841,0,0
-336,183,0,0,0,0,0,0,0,0,0,-1,888,841,0,0
-329,183,0,0,0,0,0,0,0,0,0,-1,895,841,0,0
-322,183,0,0,0,0,0,0,0,0,0,-1,902,841,0,0
-315,183,0,0,0,0,0,0,0,0,0,-1,909,841,0,0
-308,183,0,0,0,0,0,0,0,0,0,-1,916,841,0,0
-301,183,0,0,0,0,0,0,0,0,0,-1,923,841,0,0
-294,183,0,0,0,0,0,0,0,0,0,-1,930,841,0,0
-287,183,0,0,0,0,0,0,0,0,0,-1,937,841,0,0
-280,183,0,0,0,0,0,0,0,0,0,-1,944,841,0,0
-273,183,0,0,0,0,0,0,0,0,0,-1,951,841,0,0
-266,183,0,0,0,0,0,0,0,0,0,-1,958,841,0,0
-259,183,0,0,0,0,0,0,0,0,0,-1,965,841,0,0
-252,183,0,0,0,0,0,0,0,0,0,-1,972,841,0,0
-245,183,0,0,0,0,0,0,0,0,0,-1,979,841,0,0
-238,183,0,0,0,0,0,0,0,0,0,-1,986,841,0,0
-231,183,0,0,0,0,0,0,0,0,0,-1,993,841,0,0
-224,183,0,0,0,0,0,0,0,0,0,-1,1000,841,0,0
-217,183,0,0,0,0,0,0,0,0,0,-1,1007,841,0,0
-210,183,0,0,0,0,0,0,0,0,0,-1,1014,841,0,0
-203,183,0,0,0,0,0,0,0,0,0,-1,1021,841,0,0
-196,183,0,0,0,0,0,0,0,0,0,-1,1028,841,0,0
-189,183,0,0,0,0,0,0,0,0,0,-1,1035,841,0,0
-182,183,0,0,0,0,0,0,0,0,0,-1,1042,841,0,0
-175,183,0,0,0,0,0,0,0,0,0,-1,1049,841,0,0
-168,183,0,0,0,0,0,0,0,0,0,-1,1056,841,0,0
-161,183,0,0,0,0,0,0,0,0,0,-1,1063,841,0,0
-154,183,0,0,0,0,0,0,0,0,0,-1,1070,841,0,0
-147,183,0,0,0,0,0,0,0,0,0,-1,1077,841,0,0
-140,183,0,0,0,0,0,0,0,0,0,-1,1084,841,0,0
-133,183,0,0,0,0,0,0,0,0,0,-1,1091,841,0,0
-126,183,0,0,0,0,0,0,0,0,0,-1,1098,841,0,0
-119,183,0,0,0,0,0,0,0,0,0,-1,1105,841,0,0
-112,183,0,0,0,0,0,0,0,0,0,-1,1112,841,0,0
-105,183,0,0,0,0,0,0,0,0,0,-1,1119,841,0,0
-98,183,0,0,0,0,0,0,0,0,0,-1,1126,841,0,0
-91,183,0,0,0,0,0,0,0,0,0,-1,1133,841,0,0
-84,183,0,0,0,0,0,0,0,0,0,-1,1140,841,0,0
-77,183,0,0,0,0,0,0,0,0,0,-1,1147,841,0,0
-70,183,0,0,0,0,0,0,0,0,0,-1,1154,841,0,0
-63,183,0,0,0,0,0,0,0,0,0,-1,1161,841,0,0
-56,183,0,0,0,0,0,0,0,0,0,-1,1168,841,0,0
-49,183,0,0,0,0,0,0,0,0,0,-1,1175,841,0,0
-42,183,0,0,0,0,0,0,0,0,0,-1,1182,841,0,0
-35,183,0,0,0,0,0,0,0,0,0,-1,1189,841,0,0
-28,183,0,0,0,0,0,0,0,0,0,-1,1196,841,0,0
-21,183,0,0,0,0,0,0,0,0,0,-1,1203,841,0,0
-14,183,0,0,0,0,0,0,0,0,0,-1,1210,841,0,0
-7,183,0,0,0,0,0,0,0,0,0,-1,1217,841,0,0
0,183,0,0,0,0,0,0,0,0,0,-1,1224,841,0,0
7,183,0,0,0,0,0,0,0,0,0,-1,1231,841,0,0
14,183,0,0,0,0,0,0,0,0,0,-1,1238,841,0,0
21,183,0,0,0,0,0,0,0,0,0,-1,1245,841,0,0
28,183,0,0,0,0,0,0,0,0,0,-1,1252,841,0,0
35,183,0,0,0,0,0,0,0,0,0,-1,1259,841,0,0
42,183,0,0,0,0,0,0,0,0,0,-1,1266,841,0,0
49,183,0,0,0,0,0,0,0,0,0,-1,1273,841,0,0
56,183,0,0,0,0,0,0,0,0,0,-1,1280,841,0,0
63,183,0,0,0,0,0,0,0,0,0,-1,1287,841,0,0
70,183,0,0,0,0,0,0,0,0,0,-1,1294,841,0,0
77,183,0,0,0,0,0,0,0,0,0,-1,1301,841,0,0
84,183,0,0,0,0,0,0,0,0,0,-1,1308,841,0,0
91,183,0,0,0,0,0,0,0,0,0,-1,1315,841,0,0
98,183,0,0,0,0,0,0,0,0,0,-1,1322,841,0,0
105,183,0,0,0,0,0,0,0,0,0,-1,1329,841,0,0
112,183,0,0,0,0,0,0,0,0,0,-1,1336,841,0,0
119,183,0,0,0,0,0,0,0,0,0,-1,1343,841,0,0
126,183,0,0,0,0,0,0,0,0,0,-1,1350,841,0,0
133,183,0,0,0,0,0,0,0,0,0,-1,1357,841,0,0
140,183,0,0,0,0,0,0,0,0,0,-1,1364,841,0,0
147,183,0,0,0,0,0,0,0,0,0,-1,1371,841,0,0
154,183,0,0,0,0,0,0,0,0,0,-1,1378,841,0,0
161,183,0,0,0,0,0,0,0,0,0,-1,1385,841,0,0
168,183,0,0,0,0,0,0,0,0,0,-1,1392,841,0,0
175,183,0,0,0,0,0,0,0,0,0,-1,1399,841,0,0
182,183,0,0,0,0,0,0,0,0,0,-1,1406,841,0,0
189,183,0,0,0,0,0,0,0,0,0,-1,1413,841,0,0
196,183,0,0,0,0,0,0,0,0,0,-1,1420,841,0,0
203,183,0,0,0,0,0,0,0,0,0,-1,1427,841,0,0
210,183,0,0,0,0,0,0,0,0,0,-1,1434,841,0,0
217,183,0,0,0,0,0,0,0,0,0,-1,1441,841,0,0
224,183,0,0,0,0,0,0,0,0,0,-1,1448,841,0,0
231,183,0,0,0,0,0,0,0,0,0,-1,1455,841,0,0
238,183,0,0,0,0,0,0,0,0,0,-1,1462,841,0,0
245,183,0,0,0,0,0,0,0,0,0,-1,1469,841,0,0
252,183,0,0,0,0,0,0,0,0,0,-1,1476,841,0,0
259,183,0,0,0,0,0,0,0,0,0,-1,1483,841,0,0
266,183,0,0,0,0,0,0,0,0,0,-1,1490,841,0,0
273,183,0,0,0,0,0,0,0,0,0,-1,1497,841,0,0
280,183,0,0,0,0,0,0,0,0,0,-1,1504,841,0,0
287,183,0,0,0,0,0,0,0,0,0,-1,1511,841,0,0
294,183,0,0,0,0,0,0,0,0,0,-1,1518,841,0,0
301,183,0,0,0,0,0,0,0,0,0,-1,1525,841,0,0
308,183,0,0,0,0,0,0,0,0,0,-1,1532,841,0,0
315,183,0,0,0,0,0,0,0,0,0,-1,1539,841,0,0
322,183,0,0,0,0,0,0,0,0,0,-1,1546,841,0,0
329,183,0,0,0,0,0,0,0,0,0,-1,1553,841,0,0
336,183,0,0,0,0,0,0,0,0,0,-1,1560,841,0,0
343,183,0,0,0,0,0,0,0,0,0,-1,1567,841,0,0
350,183,0,0,0,0,0,0,0,0,0,-1,1574,841,0,0
357,183,0,0,0,0,0,0,0,0,0,-1,1581,841,0,0
364,183,0,0,0,0,0,0,0,0,0,-1,1588,841,0,0
371,183,0,0,0,0,0,0,0,0,0,-1,1595,841,0,0
378,183,0,0,0,0,0,0,0,0,0,-1,1602,841,0,0
385,183,0,0,0,0,0,0,0,0,0,-1,1609,841,0,0
392,183,0,0,0,0,0,0,0,0,0,-1,1616,841,0,0
399,183,0,0,0,0,0,0,0,0,0,-1,1623,841,0,0
406,183,0,0,0,0,0,0,0,0,0,-1,1630,841,0,0
413,183,0,0,0,0,0,0,0,0,0,-1,1637,841,0,0
420,183,0,0,0,0,0,0,0,0,0,-1,1644,841,0,0
427,183,0,0,0,0,0,0,0,0,0,-1,1651,841,0,0
434,183,0,0,0,0,0,0,0,0,0,-1,1658,841,0,0
441,183,0,0,0,0,0,0,0,0,0,-1,1665,841,0,0
448,183,0,0,0,0,0,0,0,0,0,-1,1672,841,0,0
455,183,0,0,0,0,0,0,0,0,0,-1,1679,841,0,0
462,183,0,0,0,0,0,0,0,0,0,-1,1686,841,0,0
469,183,0,0,0,0,0,0,0,0,0,-1,1693,841,0,0
476,183,0,0,0,0,0,0,0,0,0,-1,1700,841,0,0
483,183,0,0,0,0,0,0,0,0,0,-1,1707,841,0,0
490,183,0,0,0,0,0,0,0,0,0,-1,1714,841,0,0
497,183,0,0,0,0,0,0,0,0,0,-1,1721,841,0,0
504,183,0,0,0,0,0,0,0,0,0,-1,1728,841,0,0
511,183,0,0,0,0,0,0,0,0,0,-1,1735,841,0,0
518,183,0,0,0,0,0,0,0,0,0,-1,1742,841,0,0
525,183,0,0,0,0,0,0,0,0,0,-1,1749,841,0,0
532,183,0,0,0,0,0,0,0,0,0,-1,1756,841,0,0
539,183,0,0,0,0,0,0,0,0,0,-1,1763,841,0,0
546,183,0,0,0,0,0,0,0,0,0,-1,1770,841,0,0
553,183,0,0,0,0,0,0,0,0,0,-1,1777,841,0,0
560,183,0,0,0,0,0,0,0,0,0,-1,1784,841,0,0
567,183,0,0,0,0,0,0,0,0,0,-1,1791,841,0,0
574,183,0,0,0,0,0,0,0,0,0,-1,1798,841,0,0
581,183,0,0,0,0,0,0,0,0,0,-1,1805,841,0,0
588,183,0,0,0,0,0,0,0,0,0,-1,1812,841,0,0
595,183,0,0,0,0,0,0,0,0,0,-1,1819,841,0,0
602,183,0,0,0,0,0,0,0,0,0,-1,1826,841,0,0
609,183,17.1979,2.56195,-0.000285844,-0.000480971,-0.000360692,-9.754e-06,-0.000757062,-0.653314,0.000501488,0.0366122,1833,841,17.1979,-2.56196
616,183,17.0869,2.59009,8.99919e-05,-0.000877216,1.81794e-05,9.03335e-05,-0.000877558,0.0187869,0.000617357,0.0368553,1840,841,17.0869,-2.59008
623,183,17.2891,2.45013,-9.80375e-05,-0.0010961,0.000235474,-4.52714e-05,-0.00114886,0.220443,0.000751273,0.042109,1847,841,17.2891,-2.45012
630,183,17.3837,2.40076,-0.00103819,-0.00118978,-0.000523716,-0.000584814,-0.00164316,-0.713533,0.00096172,0.0402751,1854,841,17.3837,-2.40076
637,183,17.2745,2.42303,-0.00200154,-0.00122981,-0.00143894,-0.000125888,-0.00310545,-0.916395,0.00202964,0.0333938,1861,841,17.2745,-2.42301
644,183,17.1976,2.57275,-0.00285503,-0.00123299,-0.00229793,0.000392842,-0.00448085,-0.955042,0.00312642,0.0269812,1868,841,17.1976,-2.57274
651,183,17.2098,2.60333,-0.00343605,-0.00116326,-0.00301047,0.000918159,-0.00551747,-0.965871,0.00401948,0.023955,1875,841,17.2098,-2.60331
658,183,17.3627,2.50079,-0.00378611,-0.00106873,-0.00357018,0.00139255,-0.0062474,-0.967219,0.00469842,0.0413567,1882,841,17.3626,-2.50078
665,183,14.5859,3.11798,0,0,0,0,0,0,0,-1,1889,841,14.586,-3.11795
672,183,14.2839,2.67737,-0.00418093,-0.000835032,-0.00402327,0.00184925,-0.00686521,-0.982432,0.00530184,0.0468908,1896,841,14.2839,-2.67739
679,183,14.1256,2.22345,-0.00434795,-0.000692665,-0.00405189,0.0019247,-0.00696531,-0.997265,0.00540067,0.0337827,1903,841,14.1256,-2.22342
686,183,14.1479,2.2428,-0.00393672,-0.000522554,-0.00397487,0.0020963,-0.00655558,-0.988223,0.00521163,0.0155448,1910,841,14.148,-2.24282
693,183,14.1659,2.40411,-0.00303724,-0.000312761,-0.0036836,0.00225242,-0.00560241,-0.962505,0.00467045,0.0126846,1917,841,14.1658,-2.40408
700,183,14.1772,2.56708,-0.0023832,-1.75586e-05,-0.00317489,0.00218769,-0.00458844,-0.963711,0.00399321,0.0151911,1924,841,14.1772,-2.56706
707,183,14.1436,2.71234,-0.00110923,7.32751e-05,-0.0024663,0.0020182,-0.00305415,-0.903044,0.00294881,0.0125098,1931,841,14.1435,-2.71234
714,183,14.1187,2.85547,0.00173697,-0.00021949,-0.00279788,0.0037227,-0.00220522,-0.617224,0.00345966,0.0160973,1938,841,14.1186,-2.85547
721,183,14.1257,3.01984,0.00489157,-0.000827992,-0.00351168,0.00656061,-0.00249703,-0.443679,0.00540201,0.014259,1945,841,14.1258,-3.01986
728,183,14.1271,3.1803,0.00865707,-0.00124708,-0.00450209,0.0103977,-0.00298767,-0.368919,0.00811316,0.0120741,1952,841,14.127,-3.18028
735,183,14.1392,3.30682,0.0131438,-0.00205235,-0.00679658,0.01574,-0.00464861,-0.364888,0.0123383,0.0117601,1959,841,14.1392,-3.30682
742,183,14.1323,3.45819,0.0186492,-0.00328802,-0.0103196,0.0227406,-0.00737947,-0.377462,0.018128,0.0109808,1966,841,14.1323,-3.4582
749,183,14.0068,3.7514,0.0255321,-0.00511943,-0.0152541,0.0318296,-0.0114169,-0.391527,0.0258789,0.0313628,1973,841,14.0069,-3.7514
756,183,13.6467,3.64166,0.0340415,-0.00765595,-0.0220546,0.043542,-0.0171564,-0.406748,0.0361311,0.043173,1980,841,13.6467,-3.64164
763,183,17.0504,5.36487,0.0442081,-0.0109691,-0.0311401,0.0582228,-0.0249838,-0.422899,0.0493005,0.0479468,1987,841,17.0504,-5.36485
770,183,15.5743,4.95129,0,0,0,0,0,0,0,-1,1994,841,15.5744,-4.95131
777,183,16.3478,4.62567,0,0,0,0,0,0,0,-1,2001,841,16.3477,-4.62564
784,183,0,0,0,0,0,0,0,0,0,-1,2008,841,0,0
791,183,0,0,0,0,0,0,0,0,0,-1,2015,841,0,0
798,183,0,0,0,0,0,0,0,0,0,-1,2022,841,0,0
805,183,0,0,0,0,0,0,0,0,0,-1,2029,841,0,0
812,183,0,0,0,0,0,0,0,0,0,-1,2036,841,0,0
-700,176,0,0,0,0,0,0,0,0,0,-1,524,848,0,0
-693,176,0,0,0,0,0,0,0,0,0,-1,531,848,0,0
-686,176,0,0,0,0,0,0,0,0,0,-1,538,848,0,0
-679,176,0,0,0,0,0,0,0,0,0,-1,545,848,0,0
-672,176,0,0,0,0,0,0,0,0,0,-1,552,848,0,0
-665,176,-8.02856,-0.529846,0,0,0,0,0,0,0,-1,559,848,-8.02857,0.529819
-658,176,-8.23083,-0.350708,0,0,0,0,0,0,0,-1,566,848,-8.23085,0.35071
-651,176,-8.26056,0.388855,0.0622048,0.0613802,0.0803691,0.142163,-0.0185776,0.782833,0.101536,0.0499858,573,848,-8.26057,-0.388875
-644,176,-8.30389,1.14777,0.0478538,0.050128,0.0639444,0.112945,-0.0149636,0.794288,0.0807483,0.048393,580,848,-8.3039,-1.14774
-637,176,-8.24176,2.40784,0.0358653,0.0401834,0.0493662,0.0874378,-0.0113891,0.807252,0.0624354,0.0485834,587,848,-8.24177,-2.40781
-630,176,-8.68622,1.83331,0,0,0,0,0,0,0,-1,594,848,-8.68621,-1.83332
-623,176,-8.79395,1.5799,0.0181645,0.0241605,0.0265984,0.0479293,-0.00560429,0.841518,0.0339754,0.0397298,601,848,-8.79392,-1.57987
-616,176,-8.92499,1.3222,0.0121482,0.0180778,0.0185905,0.0339384,-0.00371242,0.864472,0.0239592,0.0264734,608,848,-8.92496,-1.32222
-609,176,-8.96594,1.20551,0.00617429,0.0119536,0.0114031,0.0208274,-0.00269956,0.909491,0.0148667,0.0111626,615,848,-8.96592,-1.20553
-602,176,-8.98145,1.07837,0.0027044,0.00779587,0.00607638,0.0118382,-0.00133797,0.983768,0.00837385,0.0114003,622,848,-8.98142,-1.07836
-595,176,-8.98547,0.950867,-0.000418063,0.00538057,0.0032136,0.00680945,-0.00184694,1.15241,0.00526441,0.0102948,629,848,-8.98549,-0.950838
-588,176,-8.97394,0.807251,-0.00272246,0.00286738,0.00226002,0.0036668,-0.00352188,1.23081,0.00415066,0.0110322,636,848,-8.97392,-0.807231
-581,176,-8.98694,0.680237,-0.00490467,0.000498067,0.0023246,0.00136057,-0.00576718,1.21551,0.00436949,0.0113597,643,848,-8.98692,-0.680248
-574,176,-8.99426,0.553955,-0.00698917,-0.000628434,0.00340785,0.000852549,-0.00847016,1.16084,0.00595134,0.0130504,650,848,-8.99425,-0.553968
-567,176,-8.97235,0.456299,-0.00872005,-0.000956447,0.00437259,0.0010088,-0.0106853,1.1484,0.0074825,0.0190192,657,848,-8.97233,-0.456321
-560,176,-9.06573,0.300903,-0.0100302,-0.00134097,0.00507015,0.000991392,-0.0123626,1.13964,0.00859129,0.0154776,664,848,-9.06574,-0.300898
-553,176,-8.97736,0.0957031,-0.0110607,-0.00153522,0.00566488,0.00110302,-0.013699,1.13495,0.00952164,0.0259916,671,848,-8.97734,-0.0956983
-546,176,-8.90338,-0.166138,-0.011658,-0.00151541,0.00600786,0.00127538,-0.0144488,1.13593,0.0100846,0.044038,678,848,-8.90337,0.166108
-539,176,-9.90887,0.11377,-0.0118375,-0.00139582,0.00625776,0.001533,-0.0147663,1.13305,0.0103929,0.0395665,685,848,-9.90888,-0.113798
-532,176,-10.5352,0.229797,0,0,0,0,0,0,0,-1,692,848,-10.5352,-0.22981
-525,176,-11.2271,0.667053,-0.00977992,-0.000850163,0.00550555,0.00177341,-0.0124035,1.1261,0.0089191,0.0451747,699,848,-11.2271,-0.667041
-518,176,-11.207,0.59491,-0.00735865,-0.000323149,0.00444285,0.00182598,-0.00950778,1.12025,0.00702671,0.0406757,706,848,-11.207,-0.594909
-511,176,-11.3186,0.621033,-0.00363538,0.000250321,0.00281699,0.00172948,-0.00511454,1.08728,0.00410934,0.0376315,713,848,-11.3186,-0.621053
-504,176,-11.3412,0.757141,0.00156827,0.000782202,0.000499813,0.00181107,0.000539398,0.452214,0.00107373,0.0386023,720,848,-11.3412,-0.757145
-497,176,-11.3235,0.831482,0.00801267,0.00109932,-0.00253298,0.00884139,0.000270603,-0.316195,0.00580616,0.0402743,727,848,-11.3235,-0.831456
-490,176,-11.1595,0.770264,0,0,0,0,0,0,0,-1,734,848,-11.1595,-0.770273
-483,176,0,0,0,0,0,0,0,0,0,-1,741,848,0,0
-476,176,0,0,0,0,0,0,0,0,0,-1,748,848,0,0
-469,176,0,0,0,0,0,0,0,0,0,-1,755,848,0,0
-462,176,0,0,0,0,0,0,0,0,0,-1,762,848,0,0
-455,176,0,0,0,0,0,0,0,0,0,-1,769,848,0,0
-448,176,0,0,0,0,0,0,0,0,0,-1,776,848,0,0
-441,176,0,0,0,0,0,0,0,0,0,-1,783,848,0,0
-434,176,0,0,0,0,0,0,0,0,0,-1,790,848,0,0
-427,176,0,0,0,0,0,0,0,0,0,-1,797,848,0,0
-420,176,0,0,0,0,0,0,0,0,0,-1,804,848,0,0
-413,176,0,0,0,0,0,0,0,0,0,-1,811,848,0,0
-406,176,0,0,0,0,0,0,0,0,0,-1,818,848,0,0
-399,176,0,0,0,0,0,0,0,0,0,-1,825,848,0,0
-392,176,0,0,0,0,0,0,0,0,0,-1,832,848,0,0
-385,176,0,0,0,0,0,0,0,0,0,-1,839,848,0,0
-378,176,0,0,0,0,0,0,0,0,0,-1,846,848,0,0
-371,176,0,0,0,0,0,0,0,0,0,-1,853,848,0,0
-364,176,0,0,0,0,0,0,0,0,0,-1,860,848,0,0
-357,176,0,0,0,0,0,0,0,0,0,-1,867,848,0,0
-350,176,0,0,0,0,0,0,0,0,0,-1,874,848,0,0
-343,176,0,0,0,0,0,0,0,0,0,-1,881,848,0,0
-336,176,0,0,0,0,0,0,0,0,0,-1,888,848,0,0
-329,176,0,0,0,0,0,0,0,0,0,-1,895,848,0,0
-322,176,0,0,0,0,0,0,0,0,0,-1,902,848,0,0
-315,176,0,0,0,0,0,0,0,0,0,-1,909,848,0,0
-308,176,0,0,0,0,0,0,0,0,0,-1,916,848,0,0
-301,176,0,0,0,0,0,0,0,0,0,-1,923,848,0,0
-294,176,0,0,0,0,0,0,0,0,0,-1,930,848,0,0
-287,176,0,0,0,0,0,0,0,0,0,-1,937,848,0,0
-280,176,0,0,0,0,0,0,0,0,0,-1,944,848,0,0
-273,176,0,0,0,0,0,0,0,0,0,-1,951,848,0,0
-266,176,0,0,0,0,0,0,0,0,0,-1,958,848,0,0
-259,176,0,0,0,0,0,0,0,0,0,-1,965,848,0,0
-252,176,0,0,0,0,0,0,0,0,0,-1,972,848,0,0
-245,176,0,0,0,0,0,0,0,0,0,-1,979,848,0,0
-238,176,0,0,0,0,0,0,0,0,0,-1,986,848,0,0
-231,176,0,0,0,0,0,0,0,0,0,-1,993,848,0,0
-224,176,0,0,0,0,0,0,0,0,0,-1,1000,848,0,0
-217,176,0,0,0,0,0,0,0,0,0,-1,1007,848,0,0
-210,176,0,0,0,0,0,0,0,0,0,-1,1014,848,0,0
-203,176,0,0,0,0,0,0,0,0,0,-1,1021,848,0,0
-196,176,0,0,0,0,0,0,0,0,0,-1,1028,848,0,0
-189,176,0,0,0,0,0,0,0,0,0,-1,1035,848,0,0
-182,176,0,0,0,0,0,0,0,0,0,-1,1042,848,0,0
-175,176,0,0,0,0,0,0,0,0,0,-1,1049,848,0,0
-168,176,0,0,0,0,0,0,0,0,0,-1,1056,848,0,0
-161,176,0,0,0,0,0,0,0,0,0,-1,1063,848,0,0
-154,176,0,0,0,0,0,0,0,0,0,-1,1070,848,0,0
-147,176,0,0,0,0,0,0,0,0,0,-1,1077,848,0,0
-140,176,0,0,0,0,0,0,0,0,0,-1,1084,848,0,0
-133,176,0,0,0,0,0,0,0,0,0,-1,1091,848,0,0
-126,176,0,0,0,0,0,0,0,0,0,-1,1098,848,0,0
-119,176,0,0,0,0,0,0,0,0,0,-1,1105,848,0,0
-112,176,0,0,0,0,0,0,0,0,0,-1,1112,848,0,0
-105,176,0,0,0,0,0,0,0,0,0,-1,1119,848,0,0
-98,176,0,0,0,0,0,0,0,0,0,-1,1126,848,0,0
-91,176,0,0,0,0,0,0,0,0,0,-1,1133,848,0,0
-84,176,0,0,0,0,0,0,0,0,0,-1,1140,848,0,0
-77,176,0,0,0,0,0,0,0,0,0,-1,1147,848,0,0
-70,176,0,0,0,0,0,0,0,0,0,-1,1154,848,0,0
-63,176,0,0,0,0,0,0,0,0,0,-1,1161,848,0,0
-56,176,0,0,0,0,0,0,0,0,0,-1,1168,848,0,0
-49,176,0,0,0,0,0,0,0,0,0,-1,1175,848,0,0
-42,176,0,0,0,0,0,0,0,0,0,-1,1182,848,0,0
-35,176,0,0,0,0,0,0,0,0,0,-1,1189,848,0,0
-28,176,0,0,0,0,0,0,0,0,0,-1,1196,848,0,0
-21,176,0,0,0,0,0,0,0,0,0,-1,1203,848,0,0
-14,176,0,0,0,0,0,0,0,0,0,-1,1210,848,0,0
-7,176,0,0,0,0,0,0,0,0,0,-1,1217,848,0,0
0,176,0,0,0,0,0,0,0,0,0,-1,1224,848,0,0
7,176,0,0,0,0,0,0,0,0,0,-1,1231,848,0,0
14,176,0,0,0,0,0,0,0,0,0,-1,1238,848,0,0
21,176,0,0,0,0,0,0,0,0,0,-1,1245,848,0,0
28,176,0,0,0,0,0,0,0,0,0,-1,1252,848,0,0
35,176,0,0,0,0,0,0,0,0,0,-1,1259,848,0,0
42,176,0,0,0,0,0,0,0,0,0,-1,1266,848,0,0
49,176,0,0,0,0,0,0,0,0,0,-1,1273,848,0,0
56,176,0,0,0,0,0,0,0,0,0,-1,1280,848,0,0
63,176,0,0,0,0,0,0,0,0,0,-1,1287,848,0,0
70,176,0,0,0,0,0,0,0,0,0,-1,1294,848,0,0
77,176,0,0,0,0,0,0,0,0,0,-1,1301,848,0,0
84,176,0,0,0,0,0,0,0,0,0,-1,1308,848,0,0
91,176,0,0,0,0,0,0,0,0,0,-1,1315,848,0,0
98,176,0,0,0,0,0,0,0,0,0,-1,1322,848,0,0
105,176,0,0,0,0,0,0,0,0,0,-1,1329,848,0,0
112,176,0,0,0,0,0,0,0,0,0,-1,1336,848,0,0
119,176,0,0,0,0,0,0,0,0,0,-1,1343,848,0,0
126,176,0,0,0,0,0,0,0,0,0,-1,1350,848,0,0
133,176,0,0,0,0,0,0,0,0,0,-1,1357,848,0,0
140,176,0,0,0,0,0,0,0,0,0,-1,1364,848,0,0
147,176,0,0,0,0,0,0,0,0,0,-1,1371,848,0,0
154,176,0,0,0,0,0,0,0,0,0,-1,1378,848,0,0
161,176,0,0,0,0,0,0,0,0,0,-1,1385,848,0,0
168,176,0,0,0,0,0,0,0,0,0,-1,1392,848,0,0
175,176,0,0,0,0,0,0,0,0,0,-1,1399,848,0,0
182,176,0,0,0,0,0,0,0,0,0,-1,1406,848,0,0
189,176,0,0,0,0,0,0,0,0,0,-1,1413,848,0,0
196,176,0,0,0,0,0,0,0,0,0,-1,1420,848,0,0
203,176,0,0,0,0,0,0,0,0,0,-1,1427,848,0,0
210,176,0,0,0,0,0,0,0,0,0,-1,1434,848,0,0
217,176,0,0,0,0,0,0,0,0,0,-1,1441,848,0,0
224,176,0,0,0,0,0,0,0,0,0,-1,1448,848,0,0
231,176,0,0,0,0,0,0,0,0,0,-1,1455,848,0,0
238,176,0,0,0,0,0,0,0,0,0,-1,1462,848,0,0
245,176,0,0,0,0,0,0,0,0,0,-1,1469,848,0,0
252,176,0,0,0,0,0,0,0,0,0,-1,1476,848,0,0
259,176,0,0,0,0,0,0,0,0,0,-1,1483,848,0,0
266,176,0,0,0,0,0,0,0,0,0,-1,1490,848,0,0
273,176,0,0,0,0,0,0,0,0,0,-1,1497,848,0,0
280,176,0,0,0,0,0,0,0,0,0,-1,1504,848,0,0
287,176,0,0,0,0,0,0,0,0,0,-1,1511,848,0,0
294,176,0,0,0,0,0,0,0,0,0,-1,1518,848,0,0
301,176,0,0,0,0,0,0,0,0,0,-1,1525,848,0,0
308,176,0,0,0,0,0,0,0,0,0,-1,1532,848,0,0
315,176,0,0,0,0,0,0,0,0,0,-1,1539,848,0,0
322,176,0,0,0,0,0,0,0,0,0,-1,1546,848,0,0
329,176,0,0,0,0,0,0,0,0,0,-1,1553,848,0,0
336,176,0,0,0,0,0,0,0,0,0,-1,1560,848,0,0
343,176,0,0,0,0,0,0,0,0,0,-1,1567,848,0,0
350,176,0,0,0,0,0,0,0,0,0,-1,1574,848,0,0
357,176,0,0,0,0,0,0,0,0,0,-1,1581,848,0,0
364,176,0,0,0,0,0,0,0,0,0,-1,1588,848,0,0
371,176,0,0,0,0,0,0,0,0,0,-1,1595,848,0,0
378,176,0,0,0,0,0,0,0,0,0,-1,1602,848,0,0
385,176,0,0,0,0,0,0,0,0,0,-1,1609,848,0,0
392,176,0,0,0,0,0,0,0,0,0,-1,1616,848,0,0
399,176,0,0,0,0,0,0,0,0,0,-1,1623,848,0,0
406,176,0,0,0,0,0,0,0,0,0,-1,1630,848,0,0
413,176,0,0,0,0,0,0,0,0,0,-1,1637,848,0,0
420,176,0,0,0,0,0,0,0,0,0,-1,1644,848,0,0
427,176,0,0,0,0,0,0,0,0,0,-1,1651,848,0,0
434,176,0,0,0,0,0,0,0,0,0,-1,1658,848,0,0
441,176,0,0,0,0,0,0,0,0,0,-1,1665,848,0,0
448,176,0,0,0,0,0,0,0,0,0,-1,1672,848,0,0
455,176,0,0,0,0,0,0,0,0,0,-1,1679,848,0,0
462,176,0,0,0,0,0,0,0,0,0,-1,1686,848,0,0
469,176,0,0,0,0,0,0,0,0,0,-1,1693,848,0,0
476,176,0,0,0,0,0,0,0,0,0,-1,1700,848,0,0
483,176,0,0,0,0,0,0,0,0,0,-1,1707,848,0,0
490,176,0,0,0,0,0,0,0,0,0,-1,1714,848,0,0
497,176,0,0,0,0,0,0,0,0,0,-1,1721,848,0,0
504,176,0,0,0,0,0,0,0,0,0,-1,1728,848,0,0
511,176,0,0,0,0,0,0,0,0,0,-1,1735,848,0,0
518,176,0,0,0,0,0,0,0,0,0,-1,1742,848,0,0
525,176,0,0,0,0,0,0,0,0,0,-1,1749,848,0,0
532,176,0,0,0,0,0,0,0,0,0,-1,1756,848,0,0
539,176,0,0,0,0,0,0,0,0,0,-1,1763,848,0,0
546,176,0,0,0,0,0,0,0,0,0,-1,1770,848,0,0
553,176,0,0,0,0,0,0,0,0,0,-1,1777,848,0,0
560,176,0,0,0,0,0,0,0,0,0,-1,1784,848,0,0
567,176,0,0,0,0,0,0,0,0,0,-1,1791,848,0,0
574,176,0,0,0,0,0,0,0,0,0,-1,1798,848,0,0
581,176,0,0,0,0,0,0,0,0,0,-1,1805,848,0,0
588,176,0,0,0,0,0,0,0,0,0,-1,1812,848,0,0
595,176,0,0,0,0,0,0,0,0,0,-1,1819,848,0,0
602,176,0,0,0,0,0,0,0,0,0,-1,1826,848,0,0
609,176,17.3076,2.54474,0.000646178,-0.00134939,-0.0011447,0.00116692,-0.00187014,-0.426932,0.00176904,0.0363477,1833,848,17.3076,-2.54476
616,176,17.1495,2.50647,0.00105628,-0.00143404,-0.000633681,0.00120826,-0.00158601,-0.235377,0.00161817,0.0358793,1840,848,17.1496,-2.50648
623,176,17.0768,2.30151,0.000991699,-0.00132506,0.000133534,0.000999371,-0.00133273,0.0573851,0.00135102,0.0438791,1847,848,17.0767,-2.30151
630,176,17.4198,2.36938,-5.03436e-05,-0.00110492,-0.000386108,7.59061e-05,-0.00123117,-0.316022,0.000847216,0.0398752,1854,848,17.4198,-2.36937
637,176,17.2854,2.40991,-0.00122717,-0.00092996,-0.00120081,0.000131412,-0.00228854,-0.846961,0.00157133,0.0302754,1861,848,17.2854,-2.40992
644,176,17.1592,2.52344,-0.00237699,-0.000801876,-0.00207742,0.00063226,-0.00381113,-0.96658,0.00277562,0.0297021,1868,848,17.1592,-2.52343
651,176,17.2136,2.57697,-0.00325039,-0.000676027,-0.00281501,0.00113213,-0.00505855,-0.999834,0.00380629,0.0311649,1875,848,17.2137,-2.57698
658,176,17.3179,2.49792,-0.00382635,-0.000579858,-0.00339192,0.00155722,-0.00596343,-1.00857,0.00458373,0.0365696,1882,848,17.3179,-2.49791
665,176,16.2665,3.33917,0,0,0,0,0,0,0,-1,1889,848,16.2665,-3.3392
672,176,15.4161,2.84589,-0.00451461,-0.000434977,-0.00386169,0.00189253,-0.00684212,-1.02838,0.00530598,0.047612,1896,848,15.4162,-2.84586
679,176,14.3458,2.22052,-0.00481447,-0.000326582,-0.00393008,0.00195505,-0.0070961,-1.0448,0.0054995,0.0461889,1903,848,14.3458,-2.2205
686,176,14.3689,2.24817,-0.00458912,-0.000231648,-0.00391992,0.00207433,-0.0068951,-1.03905,0.00542209,0.0209802,1910,848,14.3689,-2.24817
693,176,14.3326,2.43347,-0.00383741,-0.000127427,-0.00371958,0.00217406,-0.00613889,-1.01671,0.00497812,0.0114312,1917,848,14.3327,-2.43344
700,176,14.3424,2.57001,-0.00331013,7.68028e-05,-0.00337365,0.00215816,-0.00539149,-1.01801,0.00449007,0.0150916,1924,848,14.3424,-2.56999
707,176,14.3093,2.71826,-0.00217523,8.84367e-05,-0.00275054,0.00193092,-0.00401771,-0.980586,0.00350417,0.0141128,1931,848,14.3093,-2.71826
714,176,14.3102,2.87012,0.000539289,-0.000125986,-0.00306267,0.00328734,-0.00287403,-0.731305,0.00355993,0.0119808,1938,848,14.3101,-2.87013
721,176,14.3074,3.0307,0.00368557,-0.000616396,-0.00375292,0.00586022,-0.00279105,-0.525177,0.00509851,0.0107653,1945,848,14.3074,-3.03068
728,176,14.2991,3.20898,0.00747092,-0.000908876,-0.00462891,0.00952459,-0.00296254,-0.417569,0.00753397,0.0130247,1952,848,14.2991,-3.20897
735,176,14.2902,3.31732,0.0120303,-0.00149243,-0.00684243,0.0148884,-0.00435057,-0.395679,0.0116498,0.0132339,1959,848,14.2902,-3.31732
742,176,14.2947,3.43188,0.0176117,-0.00238354,-0.0102347,0.0219215,-0.00669331,-0.398557,0.017283,0.0165946,1966,848,14.2947,-3.43191
749,176,14.2676,3.67041,0.0245324,-0.00373514,-0.0148944,0.0309316,-0.0101344,-0.405798,0.0247022,0.0271445,1973,848,14.2676,-3.67043
756,176,18.4807,5.09131,0,0,0,0,0,0,0,-1,1980,848,18.4808,-5.09132
763,176,18.2961,4.81219,0.0434426,-0.00813525,-0.0297949,0.0570593,-0.021752,-0.428672,0.0469991,0.0449795,1987,848,18.2962,-4.81217
770,176,17.9222,4.67944,0,0,0,0,0,0,0,-1,1994,848,17.9222,-4.67941
777,176,17.8452,4.70129,0,0,0,0,0,0,0,-1,2001,848,17.8452,-4.70128
784,176,0,0,0,0,0,0,0,0,0,-1,2008,848,0,0
791,176,0,0,0,0,0,0,0,0,0,-1,2015,848,0,0
798,176,0,0,0,0,0,0,0,0,0,-1,2022,848,0,0
805,176,0,0,0,0,0,0,0,0,0,-1,2029,848,0,0
812,176,0,0,0,0,0,0,0,0,0,-1,2036,848,0,0
-700,169,0,0,0,0,0,0,0,0,0,-1,524,855,0,0
-693,169,0,0,0,0,0,0,0,0,0,-1,531,855,0,0
-686,169,0,0,0,0,0,0,0,0,0,-1,538,855,0,0
-679,169,0,0,0,0,0,0,0,0,0,-1,545,855,0,0
-672,169,0,0,0,0,0,0,0,0,0,-1,552,855,0,0
-665,169,-8.56519,-0.479004,0.0996405,0.0675398,0.099468,0.184345,-0.0171645,0.705407,0.128999,0.0436665,559,855,-8.56517,0.478998
-658,169,-8.34753,0.0980835,0.0800148,0.0573859,0.086659,0.156095,-0.0186941,0.720484,0.110821,0.0490834,566,855,-8.34754,-0.0980961
-651,169,-8.66736,0.269043,0,0,0,0,0,0,0,-1,573,855,-8.66735,-0.269024
-644,169,-8.70618,1.11273,0.048113,0.0395897,0.0591865,0.103191,-0.0154883,0.749458,0.0744955,0.0462468,580,855,-8.70617,-1.11276
-637,169,-8.77722,2.09344,0.0357747,0.0319534,0.0465377,0.080441,-0.0127129,0.764882,0.0583286,0.0456209,587,855,-8.77724,-2.09344
-630,169,-8.97253,1.78986,0,0,0,0,0,0,0,-1,594,855,-8.97256,-1.78986
-623,169,-9.05438,1.54785,0.0177514,0.0195627,0.0261465,0.0448192,-0.00750508,0.80271,0.0326698,0.0380495,601,855,-9.05438,-1.54786
-616,169,-9.11237,1.31549,0.0116781,0.0148244,0.0187989,0.0321158,-0.00561337,0.827143,0.0235061,0.0212815,608,855,-9.1124,-1.31548
-609,169,-9.1192,1.20697,0.00527711,0.0095099,0.0117376,0.0193204,-0.00453337,0.874594,0.0146274,0.0128493,615,855,-9.11919,-1.20696
-602,169,-9.12897,1.07318,0.00195653,0.00601433,0.00649541,0.0107903,-0.00281948,0.936777,0.00829469,0.0125874,622,855,-9.12895,-1.07321
-595,169,-9.13434,0.942993,-0.00117792,0.00418191,0.00372869,0.00609384,-0.00308986,1.09699,0.00539593,0.0112463,629,855,-9.13432,-0.942997
-588,169,-9.10938,0.806519,-0.00348195,0.00224799,0.00274114,0.00334811,-0.00458207,1.18914,0.00459693,0.00931228,636,855,-9.1094,-0.806516
-581,169,-9.13074,0.681702,-0.00557719,0.000207375,0.0027197,0.00128524,-0.00665506,1.19347,0.00492138,0.0101382,643,855,-9.13075,-0.681694
-574,169,-9.17487,0.566162,-0.00750835,-0.000772262,0.0036331,0.000813799,-0.00909441,1.15918,0.00635161,0.0125697,650,855,-9.17484,-0.566161
-567,169,-9.12347,0.475769,-0.00905486,-0.00103516,0.00441403,0.000918422,-0.0110084,1.15413,0.00766347,0.0178203,657,855,-9.12349,-0.475794
-560,169,-9.16528,0.337708,-0.0102204,-0.00131179,0.00500644,0.000935032,-0.0124673,1.14895,0.00864007,0.0175484,664,855,-9.16531,-0.337723
-553,169,-9.09131,0.160217,-0.0111418,-0.00144604,0.00552982,0.00106006,-0.0136478,1.14529,0.00947171,0.0262661,671,855,-9.09129,-0.160198
-546,169,-9.71356,0.293823,-0.0116489,-0.00139094,0.00577962,0.00120734,-0.0142471,1.14831,0.00992505,0.0354418,678,855,-9.71356,-0.293826
-539,169,-10.5109,0.417114,0,0,0,0,0,0,0,-1,685,855,-10.5109,-0.417141
-532,169,-11.2349,0.644714,-0.0109237,-0.00102748,0.00571549,0.00158422,-0.0135354,1.14218,0.00959534,0.0344337,692,855,-11.2348,-0.644692
-525,169,-11.1741,0.646423,-0.0092473,-0.000646863,0.00503288,0.00167272,-0.0115669,1.13893,0.00832503,0.0404949,699,855,-11.1742,-0.64641
-518,169,-11.1063,0.704102,-0.00642098,-0.000121144,0.00390321,0.00174462,-0.00828674,1.1249,0.00618855,0.0385928,706,855,-11.1063,-0.704108
-511,169,-11.1805,0.684692,-0.00208774,0.000404477,0.00220144,0.00168802,-0.00337128,1.04294,0.00297439,0.0372185,713,855,-11.1805,-0.684712
-504,169,-11.2233,0.709167,0.00398551,0.000815477,-0.000130253,0.00399086,0.000810134,-0.0409967,0.00243585,0.0397201,720,855,-11.2233,-0.709182
-497,169,-11.2083,0.768616,0.011361,0.000741972,-0.00298144,0.0121408,-3.78434e-05,-0.255825,0.00810652,0.041395,727,855,-11.2083,-0.76862
-490,169,0,0,0,0,0,0,0,0,0,-1,734,855,0,0
-483,169,0,0,0,0,0,0,0,0,0,-1,741,855,0,0
-476,169,0,0,0,0,0,0,0,0,0,-1,748,855,0,0
-469,169,0,0,0,0,0,0,0,0,0,-1,755,855,0,0
-462,169,0,0,0,0,0,0,0,0,0,-1,762,855,0,0
-455,169,0,0,0,0,0,0,0,0,0,-1,769,855,0,0
-448,169,0,0,0,0,0,0,0,0,0,-1,776,855,0,0
-441,169,0,0,0,0,0,0,0,0,0,-1,783,855,0,0
-434,169,0,0,0,0,0,0,0,0,0,-1,790,855,0,0
-427,169,0,0,0,0,0,0,0,0,0,-1,797,855,0,0
-420,169,0,0,0,0,0,0,0,0,0,-1,804,855,0,0
-413,169,0,0,0,0,0,0,0,0,0,-1,811,855,0,0
-406,169,0,0,0,0,0,0,0,0,0,-1,818,855,0,0
-399,169,0,0,0,0,0,0,0,0,0,-1,825,855,0,0
-392,169,0,0,0,0,0,0,0,0,0,-1,832,855,0,0
-385,169,0,0,0,0,0,0,0,0,0,-1,839,855,0,0
-378,169,0,0,0,0,0,0,0,0,0,-1,846,855,0,0
-371,169,0,0,0,0,0,0,0,0,0,-1,853,855,0,0
-364,169,0,0,0,0,0,0,0,0,0,-1,860,855,0,0
-357,169,0,0,0,0,0,0,0,0,0,-1,867,855,0,0
-350,169,0,0,0,0,0,0,0,0,0,-1,874,855,0,0
-343,169,0,0,0,0,0,0,0,0,0,-1,881,855,0,0
-336,169,0,0,0,0,0,0,0,0,0,-1,888,855,0,0
-329,169,0,0,0,0,0,0,0,0,0,-1,895,855,0,0
-322,169,0,0,0,0,0,0,0,0,0,-1,902,855,0,0
-315,169,0,0,0,0,0,0,0,0,0,-1,909,855,0,0
-308,169,0,0,0,0,0,0,0,0,0,-1,916,855,0,0
-301,169,0,0,0,0,0,0,0,0,0,-1,923,855,0,0
-294,169,0,0,0,0,0,0,0,0,0,-1,930,855,0,0
-287,169,0,0,0,0,0,0,0,0,0,-1,937,855,0,0
-280,169,0,0,0,0,0,0,0,0,0,-1,944,855,0,0
-273,169,0,0,0,0,0,0,0,0,0,-1,951,855,0,0
-266,169,0,0,0,0,0,0,0,0,0,-1,958,855,0,0
-259,169,0,0,0,0,0,0,0,0,0,-1,965,855,0,0
-252,169,0,0,0,0,0,0,0,0,0,-1,972,855,0,0
-245,169,0,0,0,0,0,0,0,0,0,-1,979,855,0,0
-238,169,0,0,0,0,0,0,0,0,0,-1,986,855,0,0
-231,169,0,0,0,0,0,0,0,0,0,-1,993,855,0,0
-224,169,0,0,0,0,0,0,0,0,0,-1,1000,855,0,0
-217,169,0,0,0,0,0,0,0,0,0,-1,1007,855,0,0
-210,169,0,0,0,0,0,0,0,0,0,-1,1014,855,0,0
-203,169,0,0,0,0,0,0,0,0,0,-1,1021,855,0,0
-196,169,0,0,0,0,0,0,0,0,0,-1,1028,855,0,0
-189,169,0,0,0,0,0,0,0,0,0,-1,1035,855,0,0
-182,169,0,0,0,0,0,0,0,0,0,-1,1042,855,0,0
-175,169,0,0,0,0,0,0,0,0,0,-1,1049,855,0,0
-168,169,0,0,0,0,0,0,0,0,0,-1,1056,855,0,0
-161,169,0,0,0,0,0,0,0,0,0,-1,1063,855,0,0
-154,169,0,0,0,0,0,0,0,0,0,-1,1070,855,0,0
-147,169,0,0,0,0,0,0,0,0,0,-1,1077,855,0,0
-140,169,0,0,0,0,0,0,0,0,0,-1,1084,855,0,0
-133,169,0,0,0,0,0,0,0,0,0,-1,1091,855,0,0
-126,169,0,0,0,0,0,0,0,0,0,-1,1098,855,0,0
-119,169,0,0,0,0,0,0,0,0,0,-1,1105,855,0,0
-112,169,0,0,0,0,0,0,0,0,0,-1,1112,855,0,0
-105,169,0,0,0,0,0,0,0,0,0,-1,1119,855,0,0
-98,169,0,0,0,0,0,0,0,0,0,-1,1126,855,0,0
-91,169,0,0,0,0,0,0,0,0,0,-1,1133,855,0,0
-84,169,0,0,0,0,0,0,0,0,0,-1,1140,855,0,0
-77,169,0,0,0,0,0,0,0,0,0,-1,1147,855,0,0
-70,169,0,0,0,0,0,0,0,0,0,-1,1154,855,0,0
-63,169,0,0,0,0,0,0,0,0,0,-1,1161,855,0,0
-56,169,0,0,0,0,0,0,0,0,0,-1,1168,855,0,0
-49,169,0,0,0,0,0,0,0,0,0,-1,1175,855,0,0
-42,169,0,0,0,0,0,0,0,0,0,-1,1182,855,0,0
-35,169,0,0,0,0,0,0,0,0,0,-1,1189,855,0,0
-28,169,0,0,0,0,0,0,0,0,0,-1,1196,855,0,0
-21,169,0,0,0,0,0,0,0,0,0,-1,1203,855,0,0
-14,169,0,0,0,0,0,0,0,0,0,-1,1210,855,0,0
-7,169,0,0,0,0,0,0,0,0,0,-1,1217,855,0,0
0,169,0,0,0,0,0,0,0,0,0,-1,1224,855,0,0
7,169,0,0,0,0,0,0,0,0,0,-1,1231,855,0,0
14,169,0,0,0,0,0,0,0,0,0,-1,1238,855,0,0
21,169,0,0,0,0,0,0,0,0,0,-1,1245,855,0,0
28,169,0,0,0,0,0,0,0,0,0,-1,1252,855,0,0
35,169,0,0,0,0,0,0,0,0,0,-1,1259,855,0,0
42,169,0,0,0,0,0,0,0,0,0,-1,1266,855,0,0
49,169,0,0,0,0,0,0,0,0,0,-1,1273,855,0,0
56,169,0,0,0,0,0,0,0,0,0,-1,1280,855,0,0
63,169,0,0,0,0,0,0,0,0,0,-1,1287,855,0,0
70,169,0,0,0,0,0,0,0,0,0,-1,1294,855,0,0
77,169,0,0,0,0,0,0,0,0,0,-1,1301,855,0,0
84,169,0,0,0,0,0,0,0,0,0,-1,1308,855,0,0
91,169,0,0,0,0,0,0,0,0,0,-1,1315,855,0,0
98,169,0,0,0,0,0,0,0,0,0,-1,1322,855,0,0
105,169,0,0,0,0,0,0,0,0,0,-1,1329,855,0,0
112,169,0,0,0,0,0,0,0,0,0,-1,1336,855,0,0
119,169,0,0,0,0,0,0,0,0,0,-1,1343,855,0,0
126,169,0,0,0,0,0,0,0,0,0,-1,1350,855,0,0
133,169,0,0,0,0,0,0,0,0,0,-1,1357,855,0,0
140,169,0,0,0,0,0,0,0,0,0,-1,1364,855,0,0
147,169,0,0,0,0,0,0,0,0,0,-1,1371,855,0,0
154,169,0,0,0,0,0,0,0,0,0,-1,1378,855,0,0
161,169,0,0,0,0,0,0,0,0,0,-1,1385,855,0,0
168,169,0,0,0,0,0,0,0,0,0,-1,1392,855,0,0
175,169,0,0,0,0,0,0,0,0,0,-1,1399,855,0,0
182,169,0,0,0,0,0,0,0,0,0,-1,1406,855,0,0
189,169,0,0,0,0,0,0,0,0,0,-1,1413,855,0,0
196,169,0,0,0,0,0,0,0,0,0,-1,1420,855,0,0
203,169,0,0,0,0,0,0,0,0,0,-1,1427,855,0,0
210,169,0,0,0,0,0,0,0,0,0,-1,1434,855,0,0
217,169,0,0,0,0,0,0,0,0,0,-1,1441,855,0,0
224,169,0,0,0,0,0,0,0,0,0,-1,1448,855,0,0
231,169,0,0,0,0,0,0,0,0,0,-1,1455,855,0,0
238,169,0,0,0,0,0,0,0,0,0,-1,1462,855,0,0
245,169,0,0,0,0,0,0,0,0,0,-1,1469,855,0,0
252,169,0,0,0,0,0,0,0,0,0,-1,1476,855,0,0
259,169,0,0,0,0,0,0,0,0,0,-1,1483,855,0,0
266,169,0,0,0,0,0,0,0,0,0,-1,1490,855,0,0
273,169,0,0,0,0,0,0,0,0,0,-1,1497,855,0,0
280,169,0,0,0,0,0,0,0,0,0,-1,1504,855,0,0
287,169,0,0,0,0,0,0,0,0,0,-1,1511,855,0,0
294,169,0,0,0,0,0,0,0,0,0,-1,1518,855,0,0
301,169,0,0,0,0,0,0,0,0,0,-1,1525,855,0,0
308,169,0,0,0,0,0,0,0,0,0,-1,1532,855,0,0
315,169,0,0,0,0,0,0,0,0,0,-1,1539,855,0,0
322,169,0,0,0,0,0,0,0,0,0,-1,1546,855,0,0
329,169,0,0,0,0,0,0,0,0,0,-1,1553,855,0,0
336,169,0,0,0,0,0,0,0,0,0,-1,1560,855,0,0
343,169,0,0,0,0,0,0,0,0,0,-1,1567,855,0,0
350,169,0,0,0,0,0,0,0,0,0,-1,1574,855,0,0
357,169,0,0,0,0,0,0,0,0,0,-1,1581,855,0,0
364,169,0,0,0,0,0,0,0,0,0,-1,1588,855,0,0
371,169,0,0,0,0,0,0,0,0,0,-1,1595,855,0,0
378,169,0,0,0,0,0,0,0,0,0,-1,1602,855,0,0
385,169,0,0,0,0,0,0,0,0,0,-1,1609,855,0,0
392,169,0,0,0,0,0,0,0,0,0,-1,1616,855,0,0
399,169,0,0,0,0,0,0,0,0,0,-1,1623,855,0,0
406,169,0,0,0,0,0,0,0,0,0,-1,1630,855,0,0
413,169,0,0,0,0,0,0,0,0,0,-1,1637,855,0,0
420,169,0,0,0,0,0,0,0,0,0,-1,1644,855,0,0
427,169,0,0,0,0,0,0,0,0,0,-1,1651,855,0,0
434,169,0,0,0,0,0,0,0,0,0,-1,1658,855,0,0
441,169,0,0,0,0,0,0,0,0,0,-1,1665,855,0,0
448,169,0,0,0,0,0,0,0,0,0,-1,1672,855,0,0
455,169,0,0,0,0,0,0,0,0,0,-1,1679,855,0,0
462,169,0,0,0,0,0,0,0,0,0,-1,1686,855,0,0
469,169,0,0,0,0,0,0,0,0,0,-1,1693,855,0,0
476,169,0,0,0,0,0,0,0,0,0,-1,1700,855,0,0
483,169,0,0,0,0,0,0,0,0,0,-1,1707,855,0,0
490,169,0,0,0,0,0,0,0,0,0,-1,1714,855,0,0
497,169,0,0,0,0,0,0,0,0,0,-1,1721,855,0,0
504,169,0,0,0,0,0,0,0,0,0,-1,1728,855,0,0
511,169,0,0,0,0,0,0,0,0,0,-1,1735,855,0,0
518,169,0,0,0,0,0,0,0,0,0,-1,1742,855,0,0
525,169,0,0,0,0,0,0,0,0,0,-1,1749,855,0,0
532,169,0,0,0,0,0,0,0,0,0,-1,1756,855,0,0
539,169,0,0,0,0,0,0,0,0,0,-1,1763,855,0,0
546,169,0,0,0,0,0,0,0,0,0,-1,1770,855,0,0
553,169,0,0,0,0,0,0,0,0,0,-1,1777,855,0,0
560,169,0,0,0,0,0,0,0,0,0,-1,1784,855,0,0
567,169,0,0,0,0,0,0,0,0,0,-1,1791,855,0,0
574,169,0,0,0,0,0,0,0,0,0,-1,1798,855,0,0
581,169,0,0,0,0,0,0,0,0,0,-1,1805,855,0,0
588,169,0,0,0,0,0,0,0,0,0,-1,1812,855,0,0
595,169,0,0,0,0,0,0,0,0,0,-1,1819,855,0,0
602,169,0,0,0,0,0,0,0,0,0,-1,1826,855,0,0
609,169,0,0,0,0,0,0,0,0,0,-1,1833,855,0,0
616,169,17.2673,2.45618,0.00150705,-0.00198981,-0.00141404,0.00200729,-0.00249005,-0.340027,0.00260152,0.0422035,1840,855,17.2673,-2.45621
623,169,17.3365,2.26721,0.00158399,-0.00159177,-2.8332e-06,0.00158399,-0.00159178,-0.000892133,0.00183353,0.0453999,1847,855,17.3366,-2.26718
630,169,17.5341,2.46466,0.000549415,-0.00106787,-0.000189431,0.000571306,-0.00108976,-0.115055,0.000974463,0.0407116,1854,855,17.5341,-2.46468
637,169,17.3571,2.51953,-0.000722951,-0.000662371,-0.000824454,0.000132349,-0.00151767,-0.80376,0.00105866,0.0350375,1861,855,17.357,-2.51955
644,169,17.1984,2.61841,-0.00209053,-0.00039733,-0.00167145,0.000629693,-0.00311756,-1.01982,0.00231697,0.0352806,1868,855,17.1984,-2.61839
651,169,17.1938,2.64569,-0.00322724,-0.000221973,-0.00243184,0.00113402,-0.00458323,-1.06214,0.00349536,0.0351271,1875,855,17.1939,-2.64571
658,169,17.2773,2.5296,-0.00401718,-0.00012874,-0.00304253,0.00153771,-0.00568363,-1.06971,0.00439232,0.0337583,1882,855,17.2774,-2.5296
665,169,17.2417,2.72321,-0.00452173,-5.99388e-05,-0.00344286,0.00181163,-0.0063933,-1.07287,0.00497722,0.0483267,1889,855,17.2417,-2.72319
672,169,16.1349,2.85071,0,0,0,0,0,0,0,-1,1896,855,16.1349,-2.85068
679,169,14.5385,2.27539,0,0,0,0,0,0,0,-1,1903,855,14.5384,-2.27536
686,169,14.4037,2.27051,-0.00538243,8.51027e-06,-0.00379524,0.00196808,-0.00734201,-1.09418,0.00566581,0.0218486,1910,855,14.4037,-2.27053
693,169,14.4716,2.43451,-0.00481571,1.70451e-05,-0.00369655,0.00201693,-0.00681559,-1.07488,0.00534444,0.0121593,1917,855,14.4716,-2.43452
700,169,14.49,2.60754,-0.004391,0.000188032,-0.00347927,0.00206352,-0.00626648,-1.0764,0.00500923,0.0126583,1924,855,14.49,-2.60751
707,169,14.4761,2.73016,-0.0033551,0.000150913,-0.00291906,0.0018029,-0.00500708,-1.05581,0.00407423,0.0143274,1931,855,14.476,-2.73017
714,169,14.4542,2.86835,-0.000802816,3.18671e-05,-0.00315732,0.00279931,-0.00357026,-0.851108,0.00368644,0.0132227,1938,855,14.4542,-2.86832
721,169,14.4475,3.03113,0.0023405,-0.000297777,-0.00371046,0.00495933,-0.00291661,-0.614606,0.00459787,0.013565,1945,855,14.4475,-3.03115
728,169,14.463,3.18225,0.00619187,-0.000419499,-0.00432043,0.00832619,-0.00255382,-0.458841,0.00656966,0.0115795,1952,855,14.463,-3.18226
735,169,14.4292,3.28998,0.0108959,-0.000727862,-0.00623991,0.0136113,-0.00344327,-0.410451,0.0104134,0.0174995,1959,855,14.4292,-3.28998
742,169,14.4379,3.45374,0.0166174,-0.00122326,-0.00927603,0.0205663,-0.00517215,-0.402471,0.0157211,0.015063,1966,855,14.4378,-3.45371
749,169,14.491,3.55096,0.0235724,-0.00206003,-0.0134049,0.029302,-0.00778961,-0.403922,0.0225835,0.0238568,1973,855,14.491,-3.55098
756,169,14.5491,3.66284,0.0320786,-0.00331229,-0.0191544,0.0404604,-0.011694,-0.412485,0.0316013,0.0429588,1980,855,14.549,-3.66283
763,169,19.5332,4.40216,0,0,0,0,0,0,0,-1,1987,855,19.5332,-4.40214
770,169,19.0546,4.50317,0,0,0,0,0,0,0,-1,1994,855,19.0546,-4.50316
777,169,19.1134,4.82922,0,0,0,0,0,0,0,-1,2001,855,19.1134,-4.82921
784,169,13.0704,3.83514,0,0,0,0,0,0,0,-1,2008,855,13.0704,-3.83515
791,169,0,0,0,0,0,0,0,0,0,-1,2015,855,0,0
798,169,0,0,0,0,0,0,0,0,0,-1,2022,855,0,0
805,169,0,0,0,0,0,0,0,0,0,-1,2029,855,0,0
812,169,0,0,0,0,0,0,0,0,0,-1,2036,855,0,0
-700,162,0,0,0,0,0,0,0,0,0,-1,524,862,0,0
-693,162,0,0,0,0,0,0,0,0,0,-1,531,862,0,0
-686,162,0,0,0,0,0,0,0,0,0,-1,538,862,0,0
-679,162,0,0,0,0,0,0,0,0,0,-1,545,862,0,0
-672,162,0,0,0,0,0,0,0,0,0,-1,552,862,0,0
-665,162,-9.27875,-0.925842,0.100431,0.0490415,0.0812049,0.15991,-0.0104367,0.632172,0.11025,0.0430498,559,862,-9.27873,0.925819
-658,162,-9.18695,-0.320129,0.0818034,0.0423699,0.0727085,0.137421,-0.0132478,0.652995,0.0963341,0.0456058,566,862,-9.18695,0.3201
-651,162,-9.09863,0.351501,0.0647888,0.0360163,0.0624656,0.114503,-0.0136983,0.672218,0.0812873,0.0481187,573,862,-9.09862,-0.351477
-644,162,-9.0752,1.15662,0.049849,0.0300478,0.0517338,0.0926211,-0.0127243,0.690853,0.0663965,0.0444628,580,862,-9.07517,-1.15664
-637,162,-9.21704,1.96729,0.0371065,0.0245153,0.0413111,0.0725989,-0.0109771,0.709783,0.0524427,0.0428759,587,862,-9.21702,-1.96726
-630,162,-9.37262,2.23602,0.0265739,0.0194793,0.0317535,0.0549776,-0.00892441,0.729772,0.0399601,0.0438088,594,862,-9.37259,-2.23604
-623,162,-9.20508,1.64447,0.0183813,0.015362,0.023947,0.0408661,-0.00712288,0.753919,0.0299025,0.0330647,601,862,-9.2051,-1.64445
-616,162,-9.24634,1.32361,0.0120777,0.0119014,0.0177022,0.029692,-0.0057128,0.782908,0.0219482,0.0180953,608,862,-9.24632,-1.32362
-609,162,-9.25787,1.19104,0.00501369,0.00734831,0.0111182,0.0173603,-0.00499826,0.837702,0.0135504,0.0124037,615,862,-9.2579,-1.19104
-602,162,-9.26379,1.06879,0.00164026,0.00444113,0.00625366,0.00944924,-0.00336786,0.89555,0.00767259,0.0114735,622,862,-9.26381,-1.06882
-595,162,-9.258,0.947205,-0.00170544,0.00310019,0.00384056,0.00522765,-0.00383291,1.06493,0.00525174,0.0106637,629,862,-9.25799,-0.947185
-588,162,-9.26404,0.809326,-0.0041344,0.0016988,0.00295003,0.0029306,-0.0053662,1.17525,0.00485847,0.0103394,636,862,-9.26401,-0.809303
-581,162,-9.31635,0.661377,-0.00612792,-5.28931e-05,0.00289928,0.00110868,-0.00728949,1.18974,0.00526825,0.0121254,643,862,-9.31633,-0.661348
-574,162,-9.36493,0.545776,-0.00786541,-0.000886645,0.00365201,0.000675007,-0.00942707,1.16671,0.00652137,0.0166041,650,862,-9.36493,-0.545749
-567,162,-9.30896,0.445068,-0.0091622,-0.001094,0.00423465,0.000720512,-0.0109767,1.16597,0.00756942,0.0223933,657,862,-9.30898,-0.445063
-560,162,-9.27911,0.238953,-0.0100684,-0.00130015,0.00467759,0.000726678,-0.0120953,1.16191,0.00831632,0.0193457,664,862,-9.27913,-0.238956
-553,162,-9.20245,0.103943,-0.0108198,-0.00137028,0.00510814,0.000863164,-0.0130532,1.15861,0.00900365,0.02792,671,862,-9.20246,-0.103969
-546,162,-10.1129,0.340637,-0.0111672,-0.0012961,0.00524309,0.00096902,-0.0134323,1.16299,0.00929472,0.0371489,678,862,-10.1129,-0.340654
-539,162,-10.9451,0.514954,0,0,0,0,0,0,0,-1,685,862,-10.945,-0.514972
-532,162,-11.179,0.687805,-0.0100271,-0.000897652,0.0049298,0.00125623,-0.012181,1.15888,0.00857013,0.0357034,692,862,-11.179,-0.687785
-525,162,-11.126,0.619385,-0.00812388,-0.000470387,0.0041735,0.00136521,-0.00995947,1.15644,0.00713837,0.0369922,699,862,-11.1261,-0.619376
-518,162,-11.1074,0.394287,-0.0050012,0.000105046,0.00298284,0.00147821,-0.00637437,1.13936,0.0048185,0.03767,706,862,-11.1074,-0.394302
-511,162,-11.0913,0.437012,-0.000362387,0.000727819,0.0013027,0.00159486,-0.00122943,0.98355,0.00163515,0.0406491,713,862,-11.0913,-0.437017
-504,162,-11.1067,0.603088,0.00591978,0.00137913,-0.000793992,0.00605461,0.00124429,-0.168215,0.00369221,0.0433447,720,862,-11.1067,-0.603074
-497,162,-11.1077,0.751404,0.0130469,0.00158514,-0.00299828,0.0137839,0.000848201,-0.241009,0.00891997,0.0432851,727,862,-11.1077,-0.751434
-490,162,0,0,0,0,0,0,0,0,0,-1,734,862,0,0
-483,162,0,0,0,0,0,0,0,0,0,-1,741,862,0,0
-476,162,0,0,0,0,0,0,0,0,0,-1,748,862,0,0
-469,162,0,0,0,0,0,0,0,0,0,-1,755,862,0,0
-462,162,0,0,0,0,0,0,0,0,0,-1,762,862,0,0
-455,162,0,0,0,0,0,0,0,0,0,-1,769,862,0,0
-448,162,0,0,0,0,0,0,0,0,0,-1,776,862,0,0
-441,162,0,0,0,0,0,0,0,0,0,-1,783,862,0,0
-434,162,0,0,0,0,0,0,0,0,0,-1,790,862,0,0
-427,162,0,0,0,0,0,0,0,0,0,-1,797,862,0,0
-420,162,0,0,0,0,0,0,0,0,0,-1,804,862,0,0
-413,162,0,0,0,0,0,0,0,0,0,-1,811,862,0,0
-406,162,0,0,0,0,0,0,0,0,0,-1,818,862,0,0
-399,162,0,0,0,0,0,0,0,0,0,-1,825,862,0,0
-392,162,0,0,0,0,0,0,0,0,0,-1,832,862,0,0
-385,162,0,0,0,0,0,0,0,0,0,-1,839,862,0,0
-378,162,0,0,0,0,0,0,0,0,0,-1,846,862,0,0
-371,162,0,0,0,0,0,0,0,0,0,-1,853,862,0,0
-364,162,0,0,0,0,0,0,0,0,0,-1,860,862,0,0
-357,162,0,0,0,0,0,0,0,0,0,-1,867,862,0,0
-350,162,0,0,0,0,0,0,0,0,0,-1,874,862,0,0
-343,162,0,0,0,0,0,0,0,0,0,-1,881,862,0,0
-336,162,0,0,0,0,0,0,0,0,0,-1,888,862,0,0
-329,162,0,0,0,0,0,0,0,0,0,-1,895,862,0,0
-322,162,0,0,0,0,0,0,0,0,0,-1,902,862,0,0
-315,162,0,0,0,0,0,0,0,0,0,-1,909,862,0,0
-308,162,0,0,0,0,0,0,0,0,0,-1,916,862,0,0
-301,162,0,0,0,0,0,0,0,0,0,-1,923,862,0,0
-294,162,0,0,0,0,0,0,0,0,0,-1,930,862,0,0
-287,162,0,0,0,0,0,0,0,0,0,-1,937,862,0,0
-280,162,0,0,0,0,0,0,0,0,0,-1,944,862,0,0
-273,162,0,0,0,0,0,0,0,0,0,-1,951,862,0,0
-266,162,0,0,0,0,0,0,0,0,0,-1,958,862,0,0
-259,162,0,0,0,0,0,0,0,0,0,-1,965,862,0,0
-252,162,0,0,0,0,0,0,0,0,0,-1,972,862,0,0
-245,162,0,0,0,0,0,0,0,0,0,-1,979,862,0,0
-238,162,0,0,0,0,0,0,0,0,0,-1,986,862,0,0
-231,162,0,0,0,0,0,0,0,0,0,-1,993,862,0,0
-224,162,0,0,0,0,0,0,0,0,0,-1,1000,862,0,0
-217,162,0,0,0,0,0,0,0,0,0,-1,1007,862,0,0
-210,162,0,0,0,0,0,0,0,0,0,-1,1014,862,0,0
-203,162,0,0,0,0,0,0,0,0,0,-1,1021,862,0,0
-196,162,0,0,0,0,0,0,0,0,0,-1,1028,862,0,0
-189,162,0,0,0,0,0,0,0,0,0,-1,1035,862,0,0
-182,162,0,0,0,0,0,0,0,0,0,-1,1042,862,0,0
-175,162,0,0,0,0,0,0,0,0,0,-1,1049,862,0,0
-168,162,0,0,0,0,0,0,0,0,0,-1,1056,862,0,0
-161,162,0,0,0,0,0,0,0,0,0,-1,1063,862,0,0
-154,162,0,0,0,0,0,0,0,0,0,-1,1070,862,0,0
-147,162,0,0,0,0,0,0,0,0,0,-1,1077,862,0,0
-140,162,0,0,0,0,0,0,0,0,0,-1,1084,862,0,0
-133,162,0,0,0,0,0,0,0,0,0,-1,1091,862,0,0
-126,162,0,0,0,0,0,0,0,0,0,-1,1098,862,0,0
-119,162,0,0,0,0,0,0,0,0,0,-1,1105,862,0,0
-112,162,0,0,0,0,0,0,0,0,0,-1,1112,862,0,0
-105,162,0,0,0,0,0,0,0,0,0,-1,1119,862,0,0
-98,162,0,0,0,0,0,0,0,0,0,-1,1126,862,0,0
-91,162,0,0,0,0,0,0,0,0,0,-1,1133,862,0,0
-84,162,0,0,0,0,0,0,0,0,0,-1,1140,862,0,0
-77,162,0,0,0,0,0,0,0,0,0,-1,1147,862,0,0
-70,162,0,0,0,0,0,0,0,0,0,-1,1154,862,0,0
-63,162,0,0,0,0,0,0,0,0,0,-1,1161,862,0,0
-56,162,0,0,0,0,0,0,0,0,0,-1,1168,862,0,0
-49,162,0,0,0,0,0,0,0,0,0,-1,1175,862,0,0
-42,162,0,0,0,0,0,0,0,0,0,-1,1182,862,0,0
-35,162,0,0,0,0,0,0,0,0,0,-1,1189,862,0,0
-28,162,0,0,0,0,0,0,0,0,0,-1,1196,862,0,0
-21,162,0,0,0,0,0,0,0,0,0,-1,1203,862,0,0
-14,162,0,0,0,0,0,0,0,0,0,-1,1210,862,0,0
-7,162,0,0,0,0,0,0,0,0,0,-1,1217,862,0,0
0,162,0,0,0,0,0,0,0,0,0,-1,1224,862,0,0
7,162,0,0,0,0,0,0,0,0,0,-1,1231,862,0,0
14,162,0,0,0,0,0,0,0,0,0,-1,1238,862,0,0
21,162,0,0,0,0,0,0,0,0,0,-1,1245,862,0,0
28,162,0,0,0,0,0,0,0,0,0,-1,1252,862,0,0
35,162,0,0,0,0,0,0,0,0,0,-1,1259,862,0,0
42,162,0,0,0,0,0,0,0,0,0,-1,1266,862,0,0
49,162,0,0,0,0,0,0,0,0,0,-1,1273,862,0,0
56,162,0,0,0,0,0,0,0,0,0,-1,1280,862,0,0
63,162,0,0,0,0,0,0,0,0,0,-1,1287,862,0,0
70,162,0,0,0,0,0,0,0,0,0,-1,1294,862,0,0
77,162,0,0,0,0,0,0,0,0,0,-1,1301,862,0,0
84,162,0,0,0,0,0,0,0,0,0,-1,1308,862,0,0
91,162,0,0,0,0,0,0,0,0,0,-1,1315,862,0,0
98,162,0,0,0,0,0,0,0,0,0,-1,1322,862,0,0
105,162,0,0,0,0,0,0,0,0,0,-1,1329,862,0,0
112,162,0,0,0,0,0,0,0,0,0,-1,1336,862,0,0
119,162,0,0,0,0,0,0,0,0,0,-1,1343,862,0,0
126,162,0,0,0,0,0,0,0,0,0,-1,1350,862,0,0
133,162,0,0,0,0,0,0,0,0,0,-1,1357,862,0,0
140,162,0,0,0,0,0,0,0,0,0,-1,1364,862,0,0
147,162,0,0,0,0,0,0,0,0,0,-1,1371,862,0,0
154,162,0,0,0,0,0,0,0,0,0,-1,1378,862,0,0
161,162,0,0,0,0,0,0,0,0,0,-1,1385,862,0,0
168,162,0,0,0,0,0,0,0,0,0,-1,1392,862,0,0
175,162,0,0,0,0,0,0,0,0,0,-1,1399,862,0,0
182,162,0,0,0,0,0,0,0,0,0,-1,1406,862,0,0
189,162,0,0,0,0,0,0,0,0,0,-1,1413,862,0,0
196,162,0,0,0,0,0,0,0,0,0,-1,1420,862,0,0
203,162,0,0,0,0,0,0,0,0,0,-1,1427,862,0,0
210,162,0,0,0,0,0,0,0,0,0,-1,1434,862,0,0
217,162,0,0,0,0,0,0,0,0,0,-1,1441,862,0,0
224,162,0,0,0,0,0,0,0,0,0,-1,1448,862,0,0
231,162,0,0,0,0,0,0,0,0,0,-1,1455,862,0,0
238,162,0,0,0,0,0,0,0,0,0,-1,1462,862,0,0
245,162,0,0,0,0,0,0,0,0,0,-1,1469,862,0,0
252,162,0,0,0,0,0,0,0,0,0,-1,1476,862,0,0
259,162,0,0,0,0,0,0,0,0,0,-1,1483,862,0,0
266,162,0,0,0,0,0,0,0,0,0,-1,1490,862,0,0
273,162,0,0,0,0,0,0,0,0,0,-1,1497,862,0,0
280,162,0,0,0,0,0,0,0,0,0,-1,1504,862,0,0
287,162,0,0,0,0,0,0,0,0,0,-1,1511,862,0,0
294,162,0,0,0,0,0,0,0,0,0,-1,1518,862,0,0
301,162,0,0,0,0,0,0,0,0,0,-1,1525,862,0,0
308,162,0,0,0,0,0,0,0,0,0,-1,1532,862,0,0
315,162,0,0,0,0,0,0,0,0,0,-1,1539,862,0,0
322,162,0,0,0,0,0,0,0,0,0,-1,1546,862,0,0
329,162,0,0,0,0,0,0,0,0,0,-1,1553,862,0,0
336,162,0,0,0,0,0,0,0,0,0,-1,1560,862,0,0
343,162,0,0,0,0,0,0,0,0,0,-1,1567,862,0,0
350,162,0,0,0,0,0,0,0,0,0,-1,1574,862,0,0
357,162,0,0,0,0,0,0,0,0,0,-1,1581,862,0,0
364,162,0,0,0,0,0,0,0,0,0,-1,1588,862,0,0
371,162,0,0,0,0,0,0,0,0,0,-1,1595,862,0,0
378,162,0,0,0,0,0,0,0,0,0,-1,1602,862,0,0
385,162,0,0,0,0,0,0,0,0,0,-1,1609,862,0,0
392,162,0,0,0,0,0,0,0,0,0,-1,1616,862,0,0
399,162,0,0,0,0,0,0,0,0,0,-1,1623,862,0,0
406,162,0,0,0,0,0,0,0,0,0,-1,1630,862,0,0
413,162,0,0,0,0,0,0,0,0,0,-1,1637,862,0,0
420,162,0,0,0,0,0,0,0,0,0,-1,1644,862,0,0
427,162,0,0,0,0,0,0,0,0,0,-1,1651,862,0,0
434,162,0,0,0,0,0,0,0,0,0,-1,1658,862,0,0
441,162,0,0,0,0,0,0,0,0,0,-1,1665,862,0,0
448,162,0,0,0,0,0,0,0,0,0,-1,1672,862,0,0
455,162,0,0,0,0,0,0,0,0,0,-1,1679,862,0,0
462,162,0,0,0,0,0,0,0,0,0,-1,1686,862,0,0
469,162,0,0,0,0,0,0,0,0,0,-1,1693,862,0,0
476,162,0,0,0,0,0,0,0,0,0,-1,1700,862,0,0
483,162,0,0,0,0,0,0,0,0,0,-1,1707,862,0,0
490,162,0,0,0,0,0,0,0,0,0,-1,1714,862,0,0
497,162,0,0,0,0,0,0,0,0,0,-1,1721,862,0,0
504,162,0,0,0,0,0,0,0,0,0,-1,1728,862,0,0
511,162,0,0,0,0,0,0,0,0,0,-1,1735,862,0,0
518,162,0,0,0,0,0,0,0,0,0,-1,1742,862,0,0
525,162,0,0,0,0,0,0,0,0,0,-1,1749,862,0,0
532,162,0,0,0,0,0,0,0,0,0,-1,1756,862,0,0
539,162,0,0,0,0,0,0,0,0,0,-1,1763,862,0,0
546,162,0,0,0,0,0,0,0,0,0,-1,1770,862,0,0
553,162,0,0,0,0,0,0,0,0,0,-1,1777,862,0,0
560,162,0,0,0,0,0,0,0,0,0,-1,1784,862,0,0
567,162,0,0,0,0,0,0,0,0,0,-1,1791,862,0,0
574,162,0,0,0,0,0,0,0,0,0,-1,1798,862,0,0
581,162,0,0,0,0,0,0,0,0,0,-1,1805,862,0,0
588,162,0,0,0,0,0,0,0,0,0,-1,1812,862,0,0
595,162,0,0,0,0,0,0,0,0,0,-1,1819,862,0,0
602,162,0,0,0,0,0,0,0,0,0,-1,1826,862,0,0
609,162,0,0,0,0,0,0,0,0,0,-1,1833,862,0,0
616,162,17.2003,2.64612,0.00199123,-0.00273623,-0.00242616,0.00301475,-0.00375975,-0.399215,0.00391913,0.047267,1840,862,17.2003,-2.64614
623,162,17.4285,2.44183,0.00206988,-0.00212908,-0.000264019,0.00208641,-0.00214562,-0.0625488,0.00244344,0.0441809,1847,862,17.4284,-2.44182
630,162,17.499,2.36444,0.00102126,-0.00133217,-2.90441e-05,0.00102161,-0.00133253,-0.0123387,0.00136311,0.0392372,1854,862,17.499,-2.36445
637,162,17.3518,2.51642,-0.00034748,-0.000666608,-0.00043208,-4.64426e-05,-0.000967646,-0.608519,0.000630187,0.0386913,1861,862,17.3519,-2.51641
644,162,17.2837,2.59851,-0.001909,-0.000221112,-0.00120019,0.000402153,-0.00253226,-1.09182,0.00183696,0.0369656,1868,862,17.2837,-2.59854
651,162,17.2587,2.62421,-0.00336026,5.15183e-05,-0.00199579,0.000971126,-0.00427987,-1.13902,0.00322605,0.0320946,1875,862,17.2587,-2.62422
658,162,17.2714,2.58661,-0.00438824,0.000191731,-0.00266102,0.00141245,-0.00560896,-1.1407,0.00428837,0.0323766,1882,862,17.2714,-2.5866
665,162,17.1976,2.6637,-0.00508388,0.00027646,-0.00312371,0.00171222,-0.00651964,-1.13996,0.00501555,0.0416206,1889,862,17.1976,-2.66372
672,162,17.1036,3.00653,0,0,0,0,0,0,0,-1,1896,862,17.1037,-3.00654
679,162,15.4857,2.81525,0,0,0,0,0,0,0,-1,1903,862,15.4857,-2.81527
686,162,14.5667,2.31964,-0.00635936,0.000286876,-0.00365758,0.00190552,-0.00797801,-1.15416,0.00605463,0.0298925,1910,862,14.5666,-2.31965
693,162,14.5973,2.44415,-0.00596278,0.0002061,-0.00365636,0.00190525,-0.00766193,-1.13578,0.00584743,0.0168643,1917,862,14.5973,-2.44414
700,162,14.6326,2.60791,-0.00557906,0.000275088,-0.00354449,0.00194488,-0.00724885,-1.13054,0.0055947,0.0157563,1924,862,14.6326,-2.60791
707,162,14.6292,2.724,-0.00461295,0.000208232,-0.00298432,0.00163393,-0.00603865,-1.12512,0.00466675,0.0113402,1931,862,14.6291,-2.72399
714,162,14.6055,2.85681,-0.00224911,0.000147428,-0.00311222,0.00228409,-0.00438577,-0.969161,0.00391405,0.0146805,1938,862,14.6054,-2.85681
721,162,14.576,3.05829,0.000833085,-0.000112782,-0.00351254,0.00390439,-0.00318409,-0.71848,0.00409957,0.024763,1945,862,14.576,-3.05826
728,162,14.5602,3.19568,0.00467127,-0.000163265,-0.00383375,0.0067862,-0.00227819,-0.504118,0.00544479,0.0193184,1952,862,14.5602,-3.19568
735,162,14.6077,3.29193,0.00944231,-0.000377446,-0.00546711,0.0118806,-0.00281578,-0.419523,0.00900695,0.010643,1959,862,14.6077,-3.29195
742,162,14.608,3.44977,0.0151941,-0.000784705,-0.00811958,0.0185958,-0.00418645,-0.39674,0.0140029,0.0136614,1966,862,14.608,-3.44979
749,162,14.5923,3.57367,0.0220227,-0.00143655,-0.0117179,0.026873,-0.00628683,-0.392449,0.0203375,0.0178275,1973,862,14.5923,-3.57366
756,162,14.588,3.67822,0.0301893,-0.00250987,-0.0168546,0.0373213,-0.00964191,-0.400303,0.0286411,0.0360266,1980,862,14.588,-3.67822
763,162,14.6049,3.86975,0.0400987,-0.00410096,-0.0236969,0.0504018,-0.014404,-0.410129,0.0392927,0.0480164,1987,862,14.6048,-3.86977
770,162,14.782,3.90222,0.051825,-0.00631112,-0.0325868,0.0664244,-0.0209106,-0.421204,0.0526558,0.0484332,1994,862,14.782,-3.90221
777,162,14.9674,3.75031,0,0,0,0,0,0,0,-1,2001,862,14.9674,-3.75029
784,162,15.108,3.64789,0,0,0,0,0,0,0,-1,2008,862,15.108,-3.64791
791,162,0,0,0,0,0,0,0,0,0,-1,2015,862,0,0
798,162,0,0,0,0,0,0,0,0,0,-1,2022,862,0,0
805,162,0,0,0,0,0,0,0,0,0,-1,2029,862,0,0
812,162,0,0,0,0,0,0,0,0,0,-1,2036,862,0,0
-700,155,0,0,0,0,0,0,0,0,0,-1,524,869,0,0
-693,155,0,0,0,0,0,0,0,0,0,-1,531,869,0,0
-686,155,0,0,0,0,0,0,0,0,0,-1,538,869,0,0
-679,155,0,0,0,0,0,0,0,0,0,-1,545,869,0,0
-672,155,0,0,0,0,0,0,0,0,0,-1,552,869,0,0
-665,155,-10.0779,-1.56018,0.102268,0.0310007,0.0619392,0.138092,-0.0048234,0.524367,0.0937108,0.0464863,559,869,-10.0779,1.56015
-658,155,-9.99396,-1.06134,0.0839893,0.0276036,0.0579714,0.12026,-0.00866686,0.559075,0.0832127,0.0449291,566,869,-9.99397,1.06136
-651,155,-9.67285,2.22791,0.066887,0.0240165,0.0514462,0.101185,-0.0102814,0.588008,0.0711318,0.0484694,573,869,-9.67288,-2.22791
-644,155,-9.56537,2.07794,0.0516142,0.0204023,0.04365,0.0823641,-0.0103476,0.613716,0.0586636,0.0479285,580,869,-9.56536,-2.07797
-637,155,-9.49182,1.89941,0.0384424,0.01688,0.0354915,0.0647541,-0.00943169,0.637943,0.0466323,0.048241,587,869,-9.49184,-1.89944
-630,155,-9.42395,1.68494,0.0275118,0.013557,0.0276501,0.0490513,-0.00798248,0.661805,0.0356608,0.0421266,594,869,-9.42397,-1.68492
-623,155,-9.35242,1.47113,0.0190359,0.0109606,0.0212483,0.0366267,-0.00663028,0.691506,0.0269017,0.0247393,601,869,-9.35244,-1.47112
-616,155,-9.3645,1.30914,0.0124681,0.00877375,0.0161047,0.0268312,-0.0055894,0.728299,0.0200125,0.0135008,608,869,-9.36452,-1.30916
-609,155,-9.37628,1.1723,0.00481377,0.00513318,0.0101483,0.015123,-0.00517605,0.793266,0.0121797,0.0126732,615,869,-9.37627,-1.17228
-602,155,-9.38,1.06537,0.00139776,0.00292204,0.00578319,0.0079931,-0.00367329,0.850914,0.00688779,0.0112956,622,869,-9.38001,-1.06538
-595,155,-9.39807,0.941284,-0.00205929,0.00208789,0.00375838,0.00430675,-0.00427816,1.03748,0.00495651,0.0103558,629,869,-9.39805,-0.941258
-588,155,-9.4024,0.80658,-0.0045627,0.00128137,0.00298751,0.00253828,-0.0058196,1.17256,0.00494783,0.0120695,636,869,-9.40241,-0.80655
-581,155,-9.46606,0.674805,-0.0064731,-0.00014296,0.00293299,0.00100707,-0.00762313,1.19712,0.00544889,0.0152719,643,869,-9.46604,-0.674793
-574,155,-9.4978,0.578491,-0.00800161,-0.000859616,0.00353745,0.000595875,-0.0094571,1.18046,0.00651245,0.019471,650,869,-9.49779,-0.578464
-567,155,-9.45642,0.403564,-0.0090291,-0.00101761,0.00395198,0.000603739,-0.0106504,1.18148,0.00730986,0.0209776,657,869,-9.45642,-0.403568
-560,155,-9.4281,0.235046,-0.0096843,-0.00120938,0.0042776,0.000574288,-0.011468,1.17574,0.00784375,0.0212454,664,869,-9.42813,-0.235055
-553,155,-9.45007,0.118896,-0.0101925,-0.00123831,0.00464226,0.00073401,-0.0121648,1.16904,0.00836528,0.0382819,671,869,-9.45008,-0.11892
-546,155,-10.339,0.456909,-0.0102872,-0.00116909,0.00469679,0.000817458,-0.0122737,1.17066,0.00846812,0.0438667,678,869,-10.339,-0.456926
-539,155,-11.0427,0.638062,0,0,0,0,0,0,0,-1,685,869,-11.0427,-0.638059
-532,155,-11.1877,0.681702,-0.00856548,-0.000751868,0.00415716,0.00104616,-0.0103635,1.16258,0.00728281,0.0360378,692,869,-11.1877,-0.681718
-525,155,-11.1067,0.730103,-0.00638444,-0.000281446,0.00333352,0.00118635,-0.00785223,1.15603,0.00567178,0.0379313,699,869,-11.1067,-0.730124
-518,155,-11.1414,0.445923,-0.00298269,0.000363592,0.00207146,0.00135322,-0.00397232,1.12511,0.00319624,0.0417933,706,869,-11.1413,-0.445922
-511,155,-11.0226,0.269409,0.00175227,0.00116149,0.000382398,0.00194008,0.000973675,0.456536,0.00112011,0.0425402,713,869,-11.0226,-0.269385
-504,155,-10.9642,0.34967,0.00767593,0.00227112,-0.00152611,0.00807707,0.00186998,-0.257038,0.00488226,0.0398957,720,869,-10.9642,-0.349654
-497,155,0,0,0,0,0,0,0,0,0,-1,727,869,0,0
-490,155,0,0,0,0,0,0,0,0,0,-1,734,869,0,0
-483,155,0,0,0,0,0,0,0,0,0,-1,741,869,0,0
-476,155,0,0,0,0,0,0,0,0,0,-1,748,869,0,0
-469,155,0,0,0,0,0,0,0,0,0,-1,755,869,0,0
-462,155,0,0,0,0,0,0,0,0,0,-1,762,869,0,0
-455,155,0,0,0,0,0,0,0,0,0,-1,769,869,0,0
-448,155,0,0,0,0,0,0,0,0,0,-1,776,869,0,0
-441,155,0,0,0,0,0,0,0,0,0,-1,783,869,0,0
-434,155,0,0,0,0,0,0,0,0,0,-1,790,869,0,0
-427,155,0,0,0,0,0,0,0,0,0,-1,797,869,0,0
-420,155,0,0,0,0,0,0,0,0,0,-1,804,869,0,0
-413,155,0,0,0,0,0,0,0,0,0,-1,811,869,0,0
-406,155,0,0,0,0,0,0,0,0,0,-1,818,869,0,0
-399,155,0,0,0,0,0,0,0,0,0,-1,825,869,0,0
-392,155,0,0,0,0,0,0,0,0,0,-1,832,869,0,0
-385,155,0,0,0,0,0,0,0,0,0,-1,839,869,0,0
-378,155,0,0,0,0,0,0,0,0,0,-1,846,869,0,0
-371,155,0,0,0,0,0,0,0,0,0,-1,853,869,0,0
-364,155,0,0,0,0,0,0,0,0,0,-1,860,869,0,0
-357,155,0,0,0,0,0,0,0,0,0,-1,867,869,0,0
-350,155,0,0,0,0,0,0,0,0,0,-1,874,869,0,0
-343,155,0,0,0,0,0,0,0,0,0,-1,881,869,0,0
-336,155,0,0,0,0,0,0,0,0,0,-1,888,869,0,0
-329,155,0,0,0,0,0,0,0,0,0,-1,895,869,0,0
-322,155,0,0,0,0,0,0,0,0,0,-1,902,869,0,0
-315,155,0,0,0,0,0,0,0,0,0,-1,909,869,0,0
-308,155,0,0,0,0,0,0,0,0,0,-1,916,869,0,0
-301,155,0,0,0,0,0,0,0,0,0,-1,923,869,0,0
-294,155,0,0,0,0,0,0,0,0,0,-1,930,869,0,0
-287,155,0,0,0,0,0,0,0,0,0,-1,937,869,0,0
-280,155,0,0,0,0,0,0,0,0,0,-1,944,869,0,0
-273,155,0,0,0,0,0,0,0,0,0,-1,951,869,0,0
-266,155,0,0,0,0,0,0,0,0,0,-1,958,869,0,0
-259,155,0,0,0,0,0,0,0,0,0,-1,965,869,0,0
-252,155,0,0,0,0,0,0,0,0,0,-1,972,869,0,0
-245,155,0,0,0,0,0,0,0,0,0,-1,979,869,0,0
-238,155,0,0,0,0,0,0,0,0,0,-1,986,869,0,0
-231,155,0,0,0,0,0,0,0,0,0,-1,993,869,0,0
-224,155,0,0,0,0,0,0,0,0,0,-1,1000,869,0,0
-217,155,0,0,0,0,0,0,0,0,0,-1,1007,869,0,0
-210,155,0,0,0,0,0,0,0,0,0,-1,1014,869,0,0
-203,155,0,0,0,0,0,0,0,0,0,-1,1021,869,0,0
-196,155,0,0,0,0,0,0,0,0,0,-1,1028,869,0,0
-189,155,0,0,0,0,0,0,0,0,0,-1,1035,869,0,0
-182,155,0,0,0,0,0,0,0,0,0,-1,1042,869,0,0
-175,155,0,0,0,0,0,0,0,0,0,-1,1049,869,0,0
-168,155,0,0,0,0,0,0,0,0,0,-1,1056,869,0,0
-161,155,0,0,0,0,0,0,0,0,0,-1,1063,869,0,0
-154,155,0,0,0,0,0,0,0,0,0,-1,1070,869,0,0
-147,155,0,0,0,0,0,0,0,0,0,-1,1077,869,0,0
-140,155,0,0,0,0,0,0,0,0,0,-1,1084,869,0,0
-133,155,0,0,0,0,0,0,0,0,0,-1,1091,869,0,0
-126,155,0,0,0,0,0,0,0,0,0,-1,1098,869,0,0
-119,155,0,0,0,0,0,0,0,0,0,-1,1105,869,0,0
-112,155,0,0,0,0,0,0,0,0,0,-1,1112,869,0,0
-105,155,0,0,0,0,0,0,0,0,0,-1,1119,869,0,0
-98,155,0,0,0,0,0,0,0,0,0,-1,1126,869,0,0
-91,155,0,0,0,0,0,0,0,0,0,-1,1133,869,0,0
-84,155,0,0,0,0,0,0,0,0,0,-1,1140,869,0,0
-77,155,0,0,0,0,0,0,0,0,0,-1,1147,869,0,0
-70,155,0,0,0,0,0,0,0,0,0,-1,1154,869,0,0
-63,155,0,0,0,0,0,0,0,0,0,-1,1161,869,0,0
-56,155,0,0,0,0,0,0,0,0,0,-1,1168,869,0,0
-49,155,0,0,0,0,0,0,0,0,0,-1,1175,869,0,0
-42,155,0,0,0,0,0,0,0,0,0,-1,1182,869,0,0
-35,155,0,0,0,0,0,0,0,0,0,-1,1189,869,0,0
-28,155,0,0,0,0,0,0,0,0,0,-1,1196,869,0,0
-21,155,0,0,0,0,0,0,0,0,0,-1,1203,869,0,0
-14,155,0,0,0,0,0,0,0,0,0,-1,1210,869,0,0
-7,155,0,0,0,0,0,0,0,0,0,-1,1217,869,0,0
0,155,0,0,0,0,0,0,0,0,0,-1,1224,869,0,0
7,155,0,0,0,0,0,0,0,0,0,-1,1231,869,0,0
14,155,0,0,0,0,0,0,0,0,0,-1,1238,869,0,0
21,155,0,0,0,0,0,0,0,0,0,-1,1245,869,0,0
28,155,0,0,0,0,0,0,0,0,0,-1,1252,869,0,0
35,155,0,0,0,0,0,0,0,0,0,-1,1259,869,0,0
42,155,0,0,0,0,0,0,0,0,0,-1,1266,869,0,0
49,155,0,0,0,0,0,0,0,0,0,-1,1273,869,0,0
56,155,0,0,0,0,0,0,0,0,0,-1,1280,869,0,0
63,155,0,0,0,0,0,0,0,0,0,-1,1287,869,0,0
70,155,0,0,0,0,0,0,0,0,0,-1,1294,869,0,0
77,155,0,0,0,0,0,0,0,0,0,-1,1301,869,0,0
84,155,0,0,0,0,0,0,0,0,0,-1,1308,869,0,0
91,155,0,0,0,0,0,0,0,0,0,-1,1315,869,0,0
98,155,0,0,0,0,0,0,0,0,0,-1,1322,869,0,0
105,155,0,0,0,0,0,0,0,0,0,-1,1329,869,0,0
112,155,0,0,0,0,0,0,0,0,0,-1,1336,869,0,0
119,155,0,0,0,0,0,0,0,0,0,-1,1343,869,0,0
126,155,0,0,0,0,0,0,0,0,0,-1,1350,869,0,0
133,155,0,0,0,0,0,0,0,0,0,-1,1357,869,0,0
140,155,0,0,0,0,0,0,0,0,0,-1,1364,869,0,0
147,155,0,0,0,0,0,0,0,0,0,-1,1371,869,0,0
154,155,0,0,0,0,0,0,0,0,0,-1,1378,869,0,0
161,155,0,0,0,0,0,0,0,0,0,-1,1385,869,0,0
168,155,0,0,0,0,0,0,0,0,0,-1,1392,869,0,0
175,155,0,0,0,0,0,0,0,0,0,-1,1399,869,0,0
182,155,0,0,0,0,0,0,0,0,0,-1,1406,869,0,0
189,155,0,0,0,0,0,0,0,0,0,-1,1413,869,0,0
196,155,0,0,0,0,0,0,0,0,0,-1,1420,869,0,0
203,155,0,0,0,0,0,0,0,0,0,-1,1427,869,0,0
210,155,0,0,0,0,0,0,0,0,0,-1,1434,869,0,0
217,155,0,0,0,0,0,0,0,0,0,-1,1441,869,0,0
224,155,0,0,0,0,0,0,0,0,0,-1,1448,869,0,0
231,155,0,0,0,0,0,0,0,0,0,-1,1455,869,0,0
238,155,0,0,0,0,0,0,0,0,0,-1,1462,869,0,0
245,155,0,0,0,0,0,0,0,0,0,-1,1469,869,0,0
252,155,0,0,0,0,0,0,0,0,0,-1,1476,869,0,0
259,155,0,0,0,0,0,0,0,0,0,-1,1483,869,0,0
266,155,0,0,0,0,0,0,0,0,0,-1,1490,869,0,0
273,155,0,0,0,0,0,0,0,0,0,-1,1497,869,0,0
280,155,0,0,0,0,0,0,0,0,0,-1,1504,869,0,0
287,155,0,0,0,0,0,0,0,0,0,-1,1511,869,0,0
294,155,0,0,0,0,0,0,0,0,0,-1,1518,869,0,0
301,155,0,0,0,0,0,0,0,0,0,-1,1525,869,0,0
308,155,0,0,0,0,0,0,0,0,0,-1,1532,869,0,0
315,155,0,0,0,0,0,0,0,0,0,-1,1539,869,0,0
322,155,0,0,0,0,0,0,0,0,0,-1,1546,869,0,0
329,155,0,0,0,0,0,0,0,0,0,-1,1553,869,0,0
336,155,0,0,0,0,0,0,0,0,0,-1,1560,869,0,0
343,155,0,0,0,0,0,0,0,0,0,-1,1567,869,0,0
350,155,0,0,0,0,0,0,0,0,0,-1,1574,869,0,0
357,155,0,0,0,0,0,0,0,0,0,-1,1581,869,0,0
364,155,0,0,0,0,0,0,0,0,0,-1,1588,869,0,0
371,155,0,0,0,0,0,0,0,0,0,-1,1595,869,0,0
378,155,0,0,0,0,0,0,0,0,0,-1,1602,869,0,0
385,155,0,0,0,0,0,0,0,0,0,-1,1609,869,0,0
392,155,0,0,0,0,0,0,0,0,0,-1,1616,869,0,0
399,155,0,0,0,0,0,0,0,0,0,-1,1623,869,0,0
406,155,0,0,0,0,0,0,0,0,0,-1,1630,869,0,0
413,155,0,0,0,0,0,0,0,0,0,-1,1637,869,0,0
420,155,0,0,0,0,0,0,0,0,0,-1,1644,869,0,0
427,155,0,0,0,0,0,0,0,0,0,-1,1651,869,0,0
434,155,0,0,0,0,0,0,0,0,0,-1,1658,869,0,0
441,155,0,0,0,0,0,0,0,0,0,-1,1665,869,0,0
448,155,0,0,0,0,0,0,0,0,0,-1,1672,869,0,0
455,155,0,0,0,0,0,0,0,0,0,-1,1679,869,0,0
462,155,0,0,0,0,0,0,0,0,0,-1,1686,869,0,0
469,155,0,0,0,0,0,0,0,0,0,-1,1693,869,0,0
476,155,0,0,0,0,0,0,0,0,0,-1,1700,869,0,0
483,155,0,0,0,0,0,0,0,0,0,-1,1707,869,0,0
490,155,0,0,0,0,0,0,0,0,0,-1,1714,869,0,0
497,155,0,0,0,0,0,0,0,0,0,-1,1721,869,0,0
504,155,0,0,0,0,0,0,0,0,0,-1,1728,869,0,0
511,155,0,0,0,0,0,0,0,0,0,-1,1735,869,0,0
518,155,0,0,0,0,0,0,0,0,0,-1,1742,869,0,0
525,155,0,0,0,0,0,0,0,0,0,-1,1749,869,0,0
532,155,0,0,0,0,0,0,0,0,0,-1,1756,869,0,0
539,155,0,0,0,0,0,0,0,0,0,-1,1763,869,0,0
546,155,0,0,0,0,0,0,0,0,0,-1,1770,869,0,0
553,155,0,0,0,0,0,0,0,0,0,-1,1777,869,0,0
560,155,0,0,0,0,0,0,0,0,0,-1,1784,869,0,0
567,155,0,0,0,0,0,0,0,0,0,-1,1791,869,0,0
574,155,0,0,0,0,0,0,0,0,0,-1,1798,869,0,0
581,155,0,0,0,0,0,0,0,0,0,-1,1805,869,0,0
588,155,0,0,0,0,0,0,0,0,0,-1,1812,869,0,0
595,155,0,0,0,0,0,0,0,0,0,-1,1819,869,0,0
602,155,0,0,0,0,0,0,0,0,0,-1,1826,869,0,0
609,155,0,0,0,0,0,0,0,0,0,-1,1833,869,0,0
616,155,17.2871,2.52118,0.00265248,-0.00276149,-0.00298765,0.00397709,-0.00408611,-0.417322,0.00465543,0.045174,1840,869,17.2871,-2.52115
623,155,17.3254,2.43018,0.00253966,-0.00224035,-0.000332464,0.00256267,-0.00226337,-0.0691093,0.0027881,0.0424735,1847,869,17.3254,-2.4302
630,155,17.4578,2.40619,0.0014223,-0.00146924,0.000178367,0.00143326,-0.0014802,0.0613755,0.00168216,0.040819,1854,869,17.4578,-2.40621
637,155,17.4169,2.45459,-2.61999e-05,-0.000757012,-6.75077e-05,-2.00162e-05,-0.000763195,-0.0913436,0.000502258,0.039781,1861,869,17.4169,-2.45458
644,155,17.2783,2.42432,-0.00171172,-0.000259008,-0.000757004,6.37531e-05,-0.00203449,-1.16777,0.00137807,0.03624,1868,869,17.2783,-2.42431
651,155,17.3197,2.44336,-0.0034734,4.6957e-05,-0.00159174,0.000659934,-0.00408638,-1.2032,0.00296878,0.0318029,1875,869,17.3196,-2.44336
658,155,17.2811,2.48193,-0.00481251,0.000200891,-0.00231887,0.00110897,-0.00572059,-1.19755,0.00423209,0.026314,1882,869,17.2811,-2.48196
665,155,17.1943,2.5589,-0.00575134,0.000292178,-0.00284397,0.00142002,-0.00687918,-1.19325,0.00512546,0.0317603,1889,869,17.1944,-2.55892
672,155,17.149,2.74805,-0.00655578,0.000280236,-0.00311798,0.00148874,-0.00776428,-1.20103,0.00573719,0.0418565,1896,869,17.1491,-2.74802
679,155,17.1522,2.9248,0,0,0,0,0,0,0,-1,1903,869,17.1522,-2.92481
686,155,14.7169,2.32452,0,0,0,0,0,0,0,-1,1910,869,14.717,-2.3245
693,155,14.7532,2.43451,-0.00727712,0.000188348,-0.00359439,0.0016376,-0.00872637,-1.18754,0.0064333,0.0201807,1917,869,14.7531,-2.43452
700,155,14.7925,2.59729,-0.00693263,0.000198625,-0.00353156,0.00165152,-0.00838553,-1.1805,0.00621445,0.0155515,1924,869,14.7925,-2.5973
707,155,14.8354,2.77972,-0.00597064,0.000122621,-0.00298181,0.00133899,-0.00718701,-1.18347,0.00529441,0.0109613,1931,869,14.8354,-2.77975
714,155,14.7832,2.88611,-0.00371488,0.000149585,-0.00301373,0.00179731,-0.0053626,-1.07046,0.00430122,0.0196112,1938,869,14.7832,-2.88611
721,155,14.7283,3.05017,-0.000639382,-3.39635e-05,-0.00327715,0.00295443,-0.00362777,-0.831452,0.00380686,0.0250437,1945,869,14.7282,-3.05014
728,155,14.7201,3.1908,0.00325478,-3.48201e-05,-0.00335226,0.00534402,-0.00212406,-0.557327,0.00444328,0.0180649,1952,869,14.72,-3.19082
735,155,14.757,3.30756,0.00805901,-0.000253534,-0.00469105,0.0101702,-0.00236468,-0.422885,0.00769049,0.0157959,1959,869,14.7569,-3.30756
742,155,14.7777,3.46484,0.0136979,-0.000747387,-0.00695596,0.0165028,-0.0035523,-0.383296,0.0123574,0.0182375,1966,869,14.7777,-3.46485
749,155,14.7438,3.5827,0.0202113,-0.00141073,-0.0100187,0.0241398,-0.0053392,-0.373689,0.0181368,0.0144245,1973,869,14.7438,-3.58273
756,155,14.7955,3.69629,0.0276398,-0.00255343,-0.0145269,0.033494,-0.00840768,-0.383084,0.0255964,0.0241943,1980,869,14.7955,-3.6963
763,155,15.0244,3.86536,0.0363684,-0.00432838,-0.0205893,0.0449678,-0.0129278,-0.395642,0.0350908,0.0437257,1987,869,15.0244,-3.86537
770,155,15.5802,3.89642,0.046577,-0.00689624,-0.0284832,0.0589062,-0.0192254,-0.408508,0.0470085,0.0467086,1994,869,15.5802,-3.89639
777,155,15.797,3.2962,0,0,0,0,0,0,0,-1,2001,869,15.797,-3.29622
784,155,15.3446,3.07574,0,0,0,0,0,0,0,-1,2008,869,15.3446,-3.07572
791,155,0,0,0,0,0,0,0,0,0,-1,2015,869,0,0
798,155,0,0,0,0,0,0,0,0,0,-1,2022,869,0,0
805,155,0,0,0,0,0,0,0,0,0,-1,2029,869,0,0
812,155,0,0,0,0,0,0,0,0,0,-1,2036,869,0,0
-700,148,0,0,0,0,0,0,0,0,0,-1,524,876,0,0
-693,148,0,0,0,0,0,0,0,0,0,-1,531,876,0,0
-686,148,0,0,0,0,0,0,0,0,0,-1,538,876,0,0
-679,148,0,0,0,0,0,0,0,0,0,-1,545,876,0,0
-672,148,-17.8354,-4.39258,0,0,0,0,0,0,0,-1,552,876,-17.8355,4.39255
-665,148,-17.5051,-3.55621,0,0,0,0,0,0,0,-1,559,876,-17.5052,3.55624
-658,148,-10.4447,-1.6568,0,0,0,0,0,0,0,-1,566,876,-10.4447,1.65682
-651,148,-10.356,1.59424,0,0,0,0,0,0,0,-1,573,876,-10.356,-1.59425
-644,148,-10.158,1.6806,0,0,0,0,0,0,0,-1,580,876,-10.1579,-1.68061
-637,148,-9.63678,1.53448,0,0,0,0,0,0,0,-1,587,876,-9.63678,-1.53449
-630,148,-9.53271,1.4707,0.0270973,0.00870558,0.0228273,0.0425114,-0.0067085,0.59392,0.0308214,0.0418995,594,876,-9.53274,-1.47072
-623,148,-9.42609,1.4248,0.0189088,0.00740514,0.0181457,0.0321925,-0.00587853,0.631917,0.0236658,0.0206537,601,876,-9.4261,-1.42482
-616,148,-9.4704,1.29169,0.0124102,0.0063516,0.0142845,0.0239831,-0.00522129,0.680912,0.0179836,0.0119301,608,876,-9.47038,-1.29171
-609,148,-9.49701,1.17255,0.00432337,0.00353001,0.00906765,0.013003,-0.00514963,0.763539,0.0108024,0.0112018,615,876,-9.49702,-1.17252
-602,148,-9.50427,1.06177,0.000906643,0.00190589,0.00526245,0.00669238,-0.00387985,0.832727,0.00617546,0.0108512,622,876,-9.50427,-1.06178
-595,148,-9.52594,0.937378,-0.0025606,0.00144403,0.00361081,0.00357054,-0.00468711,1.03856,0.00478206,0.00948203,629,876,-9.52597,-0.937379
-588,148,-9.54358,0.795471,-0.00502572,0.00110717,0.0029578,0.00230121,-0.00621975,1.18711,0.00509003,0.0132689,636,876,-9.54361,-0.795466
-581,148,-9.58215,0.676697,-0.0067795,-5.32752e-05,0.00289766,0.00102287,-0.00785564,1.2152,0.00560922,0.0181861,643,876,-9.58215,-0.676704
-574,148,-9.49841,0.536743,-0.00813466,-0.000673601,0.00338518,0.000633355,-0.00944162,1.20235,0.0065158,0.0216502,650,876,-9.49839,-0.536752
-567,148,-9.5495,0.427185,-0.00898736,-0.000786949,0.00371495,0.000645709,-0.01042,1.20272,0.00717161,0.0295522,657,876,-9.54948,-0.427207
-560,148,-9.54602,0.285645,-0.00945428,-0.000968109,0.00397403,0.000602297,-0.0110247,1.19446,0.00755856,0.0283884,664,876,-9.54603,-0.285671
-553,148,-9.64734,0.174805,0,0,0,0,0,0,0,-1,671,876,-9.64733,-0.174808
-546,148,-10.6353,0.578918,0,0,0,0,0,0,0,-1,678,876,-10.6352,-0.578923
-539,148,-11.1837,0.660706,-0.00900942,-0.000856906,0.00417641,0.000902783,-0.0107691,1.17203,0.00749847,0.0383632,685,876,-11.1837,-0.660689
-532,148,-11.157,0.680969,-0.00753143,-0.000617155,0.00369448,0.000985451,-0.00913404,1.16151,0.00644301,0.0378391,692,876,-11.157,-0.68097
-525,148,-11.1199,0.826599,-0.0051123,-0.000222056,0.00283032,0.00107305,-0.00640741,1.14165,0.00467056,0.0396225,699,876,-11.12,-0.826603
-518,148,-11.1595,0.530334,-0.00144939,0.000348194,0.00151893,0.00121433,-0.00231552,1.05256,0.00207075,0.0441694,706,876,-11.1596,-0.530351
-511,148,-11.0964,0.319519,0.0033764,0.00110831,-0.000190666,0.00339232,0.00109239,-0.0832855,0.00199949,0.0415847,713,876,-11.0963,-0.319511
-504,148,-11.0315,0.502869,0.00899106,0.00236851,-0.00196303,0.0095292,0.00183037,-0.267566,0.0058391,0.0414324,720,876,-11.0315,-0.502871
-497,148,0,0,0,0,0,0,0,0,0,-1,727,876,0,0
-490,148,0,0,0,0,0,0,0,0,0,-1,734,876,0,0
-483,148,0,0,0,0,0,0,0,0,0,-1,741,876,0,0
-476,148,0,0,0,0,0,0,0,0,0,-1,748,876,0,0
-469,148,0,0,0,0,0,0,0,0,0,-1,755,876,0,0
-462,148,0,0,0,0,0,0,0,0,0,-1,762,876,0,0
-455,148,0,0,0,0,0,0,0,0,0,-1,769,876,0,0
-448,148,0,0,0,0,0,0,0,0,0,-1,776,876,0,0
-441,148,0,0,0,0,0,0,0,0,0,-1,783,876,0,0
-434,148,0,0,0,0,0,0,0,0,0,-1,790,876,0,0
-427,148,0,0,0,0,0,0,0,0,0,-1,797,876,0,0
-420,148,0,0,0,0,0,0,0,0,0,-1,804,876,0,0
-413,148,0,0,0,0,0,0,0,0,0,-1,811,876,0,0
-406,148,0,0,0,0,0,0,0,0,0,-1,818,876,0,0
-399,148,0,0,0,0,0,0,0,0,0,-1,825,876,0,0
-392,148,0,0,0,0,0,0,0,0,0,-1,832,876,0,0
-385,148,0,0,0,0,0,0,0,0,0,-1,839,876,0,0
-378,148,0,0,0,0,0,0,0,0,0,-1,846,876,0,0
-371,148,0,0,0,0,0,0,0,0,0,-1,853,876,0,0
-364,148,0,0,0,0,0,0,0,0,0,-1,860,876,0,0
-357,148,0,0,0,0,0,0,0,0,0,-1,867,876,0,0
-350,148,0,0,0,0,0,0,0,0,0,-1,874,876,0,0
-343,148,0,0,0,0,0,0,0,0,0,-1,881,876,0,0
-336,148,0,0,0,0,0,0,0,0,0,-1,888,876,0,0
-329,148,0,0,0,0,0,0,0,0,0,-1,895,876,0,0
-322,148,0,0,0,0,0,0,0,0,0,-1,902,876,0,0
-315,148,0,0,0,0,0,0,0,0,0,-1,909,876,0,0
-308,148,0,0,0,0,0,0,0,0,0,-1,916,876,0,0
-301,148,0,0,0,0,0,0,0,0,0,-1,923,876,0,0
-294,148,0,0,0,0,0,0,0,0,0,-1,930,876,0,0
-287,148,0,0,0,0,0,0,0,0,0,-1,937,876,0,0
-280,148,0,0,0,0,0,0,0,0,0,-1,944,876,0,0
-273,148,0,0,0,0,0,0,0,0,0,-1,951,876,0,0
-266,148,0,0,0,0,0,0,0,0,0,-1,958,876,0,0
-259,148,0,0,0,0,0,0,0,0,0,-1,965,876,0,0
-252,148,0,0,0,0,0,0,0,0,0,-1,972,876,0,0
-245,148,0,0,0,0,0,0,0,0,0,-1,979,876,0,0
-238,148,0,0,0,0,0,0,0,0,0,-1,986,876,0,0
-231,148,0,0,0,0,0,0,0,0,0,-1,993,876,0,0
-224,148,0,0,0,0,0,0,0,0,0,-1,1000,876,0,0
-217,148,0,0,0,0,0,0,0,0,0,-1,1007,876,0,0
-210,148,0,0,0,0,0,0,0,0,0,-1,1014,876,0,0
-203,148,0,0,0,0,0,0,0,0,0,-1,1021,876,0,0
-196,148,0,0,0,0,0,0,0,0,0,-1,1028,876,0,0
-189,148,0,0,0,0,0,0,0,0,0,-1,1035,876,0,0
-182,148,0,0,0,0,0,0,0,0,0,-1,1042,876,0,0
-175,148,0,0,0,0,0,0,0,0,0,-1,1049,876,0,0
-168,148,0,0,0,0,0,0,0,0,0,-1,1056,876,0,0
-161,148,0,0,0,0,0,0,0,0,0,-1,1063,876,0,0
-154,148,0,0,0,0,0,0,0,0,0,-1,1070,876,0,0
-147,148,0,0,0,0,0,0,0,0,0,-1,1077,876,0,0
-140,148,0,0,0,0,0,0,0,0,0,-1,1084,876,0,0
-133,148,0,0,0,0,0,0,0,0,0,-1,1091,876,0,0
-126,148,0,0,0,0,0,0,0,0,0,-1,1098,876,0,0
-119,148,0,0,0,0,0,0,0,0,0,-1,1105,876,0,0
-112,148,0,0,0,0,0,0,0,0,0,-1,1112,876,0,0
-105,148,0,0,0,0,0,0,0,0,0,-1,1119,876,0,0
-98,148,0,0,0,0,0,0,0,0,0,-1,1126,876,0,0
-91,148,0,0,0,0,0,0,0,0,0,-1,1133,876,0,0
-84,148,0,0,0,0,0,0,0,0,0,-1,1140,876,0,0
-77,148,0,0,0,0,0,0,0,0,0,-1,1147,876,0,0
-70,148,0,0,0,0,0,0,0,0,0,-1,1154,876,0,0
-63,148,0,0,0,0,0,0,0,0,0,-1,1161,876,0,0
-56,148,0,0,0,0,0,0,0,0,0,-1,1168,876,0,0
-49,148,0,0,0,0,0,0,0,0,0,-1,1175,876,0,0
-42,148,0,0,0,0,0,0,0,0,0,-1,1182,876,0,0
-35,148,0,0,0,0,0,0,0,0,0,-1,1189,876,0,0
-28,148,0,0,0,0,0,0,0,0,0,-1,1196,876,0,0
-21,148,0,0,0,0,0,0,0,0,0,-1,1203,876,0,0
-14,148,0,0,0,0,0,0,0,0,0,-1,1210,876,0,0
-7,148,0,0,0,0,0,0,0,0,0,-1,1217,876,0,0
0,148,0,0,0,0,0,0,0,0,0,-1,1224,876,0,0
7,148,0,0,0,0,0,0,0,0,0,-1,1231,876,0,0
14,148,0,0,0,0,0,0,0,0,0,-1,1238,876,0,0
21,148,0,0,0,0,0,0,0,0,0,-1,1245,876,0,0
28,148,0,0,0,0,0,0,0,0,0,-1,1252,876,0,0
35,148,0,0,0,0,0,0,0,0,0,-1,1259,876,0,0
42,148,0,0,0,0,0,0,0,0,0,-1,1266,876,0,0
49,148,0,0,0,0,0,0,0,0,0,-1,1273,876,0,0
56,148,0,0,0,0,0,0,0,0,0,-1,1280,876,0,0
63,148,0,0,0,0,0,0,0,0,0,-1,1287,876,0,0
70,148,0,0,0,0,0,0,0,0,0,-1,1294,876,0,0
77,148,0,0,0,0,0,0,0,0,0,-1,1301,876,0,0
84,148,0,0,0,0,0,0,0,0,0,-1,1308,876,0,0
91,148,0,0,0,0,0,0,0,0,0,-1,1315,876,0,0
98,148,0,0,0,0,0,0,0,0,0,-1,1322,876,0,0
105,148,0,0,0,0,0,0,0,0,0,-1,1329,876,0,0
112,148,0,0,0,0,0,0,0,0,0,-1,1336,876,0,0
119,148,0,0,0,0,0,0,0,0,0,-1,1343,876,0,0
126,148,0,0,0,0,0,0,0,0,0,-1,1350,876,0,0
133,148,0,0,0,0,0,0,0,0,0,-1,1357,876,0,0
140,148,0,0,0,0,0,0,0,0,0,-1,1364,876,0,0
147,148,0,0,0,0,0,0,0,0,0,-1,1371,876,0,0
154,148,0,0,0,0,0,0,0,0,0,-1,1378,876,0,0
161,148,0,0,0,0,0,0,0,0,0,-1,1385,876,0,0
168,148,0,0,0,0,0,0,0,0,0,-1,1392,876,0,0
175,148,0,0,0,0,0,0,0,0,0,-1,1399,876,0,0
182,148,0,0,0,0,0,0,0,0,0,-1,1406,876,0,0
189,148,0,0,0,0,0,0,0,0,0,-1,1413,876,0,0
196,148,0,0,0,0,0,0,0,0,0,-1,1420,876,0,0
203,148,0,0,0,0,0,0,0,0,0,-1,1427,876,0,0
210,148,0,0,0,0,0,0,0,0,0,-1,1434,876,0,0
217,148,0,0,0,0,0,0,0,0,0,-1,1441,876,0,0
224,148,0,0,0,0,0,0,0,0,0,-1,1448,876,0,0
231,148,0,0,0,0,0,0,0,0,0,-1,1455,876,0,0
238,148,0,0,0,0,0,0,0,0,0,-1,1462,876,0,0
245,148,0,0,0,0,0,0,0,0,0,-1,1469,876,0,0
252,148,0,0,0,0,0,0,0,0,0,-1,1476,876,0,0
259,148,0,0,0,0,0,0,0,0,0,-1,1483,876,0,0
266,148,0,0,0,0,0,0,0,0,0,-1,1490,876,0,0
273,148,0,0,0,0,0,0,0,0,0,-1,1497,876,0,0
280,148,0,0,0,0,0,0,0,0,0,-1,1504,876,0,0
287,148,0,0,0,0,0,0,0,0,0,-1,1511,876,0,0
294,148,0,0,0,0,0,0,0,0,0,-1,1518,876,0,0
301,148,0,0,0,0,0,0,0,0,0,-1,1525,876,0,0
308,148,0,0,0,0,0,0,0,0,0,-1,1532,876,0,0
315,148,0,0,0,0,0,0,0,0,0,-1,1539,876,0,0
322,148,0,0,0,0,0,0,0,0,0,-1,1546,876,0,0
329,148,0,0,0,0,0,0,0,0,0,-1,1553,876,0,0
336,148,0,0,0,0,0,0,0,0,0,-1,1560,876,0,0
343,148,0,0,0,0,0,0,0,0,0,-1,1567,876,0,0
350,148,0,0,0,0,0,0,0,0,0,-1,1574,876,0,0
357,148,0,0,0,0,0,0,0,0,0,-1,1581,876,0,0
364,148,0,0,0,0,0,0,0,0,0,-1,1588,876,0,0
371,148,0,0,0,0,0,0,0,0,0,-1,1595,876,0,0
378,148,0,0,0,0,0,0,0,0,0,-1,1602,876,0,0
385,148,0,0,0,0,0,0,0,0,0,-1,1609,876,0,0
392,148,0,0,0,0,0,0,0,0,0,-1,1616,876,0,0
399,148,0,0,0,0,0,0,0,0,0,-1,1623,876,0,0
406,148,0,0,0,0,0,0,0,0,0,-1,1630,876,0,0
413,148,0,0,0,0,0,0,0,0,0,-1,1637,876,0,0
420,148,0,0,0,0,0,0,0,0,0,-1,1644,876,0,0
427,148,0,0,0,0,0,0,0,0,0,-1,1651,876,0,0
434,148,0,0,0,0,0,0,0,0,0,-1,1658,876,0,0
441,148,0,0,0,0,0,0,0,0,0,-1,1665,876,0,0
448,148,0,0,0,0,0,0,0,0,0,-1,1672,876,0,0
455,148,0,0,0,0,0,0,0,0,0,-1,1679,876,0,0
462,148,0,0,0,0,0,0,0,0,0,-1,1686,876,0,0
469,148,0,0,0,0,0,0,0,0,0,-1,1693,876,0,0
476,148,0,0,0,0,0,0,0,0,0,-1,1700,876,0,0
483,148,0,0,0,0,0,0,0,0,0,-1,1707,876,0,0
490,148,0,0,0,0,0,0,0,0,0,-1,1714,876,0,0
497,148,0,0,0,0,0,0,0,0,0,-1,1721,876,0,0
504,148,0,0,0,0,0,0,0,0,0,-1,1728,876,0,0
511,148,0,0,0,0,0,0,0,0,0,-1,1735,876,0,0
518,148,0,0,0,0,0,0,0,0,0,-1,1742,876,0,0
525,148,0,0,0,0,0,0,0,0,0,-1,1749,876,0,0
532,148,0,0,0,0,0,0,0,0,0,-1,1756,876,0,0
539,148,0,0,0,0,0,0,0,0,0,-1,1763,876,0,0
546,148,0,0,0,0,0,0,0,0,0,-1,1770,876,0,0
553,148,0,0,0,0,0,0,0,0,0,-1,1777,876,0,0
560,148,0,0,0,0,0,0,0,0,0,-1,1784,876,0,0
567,148,0,0,0,0,0,0,0,0,0,-1,1791,876,0,0
574,148,0,0,0,0,0,0,0,0,0,-1,1798,876,0,0
581,148,0,0,0,0,0,0,0,0,0,-1,1805,876,0,0
588,148,0,0,0,0,0,0,0,0,0,-1,1812,876,0,0
595,148,0,0,0,0,0,0,0,0,0,-1,1819,876,0,0
602,148,0,0,0,0,0,0,0,0,0,-1,1826,876,0,0
609,148,0,0,0,0,0,0,0,0,0,-1,1833,876,0,0
616,148,0,0,0,0,0,0,0,0,0,-1,1840,876,0,0
623,148,17.1936,2.53735,0.00325109,-0.0017873,-0.000463528,0.00329338,-0.00182959,-0.0909815,0.00299772,0.0418221,1847,876,17.1936,-2.53738
630,148,17.2705,2.59753,0.00189782,-0.00126313,0.000299495,0.00192595,-0.00129125,0.0936383,0.00186946,0.0416949,1854,876,17.2705,-2.59755
637,148,17.2363,2.5896,0.000287819,-0.000665858,0.000231207,0.000340916,-0.000718955,0.225737,0.000624757,0.0378618,1861,876,17.2363,-2.58963
644,148,17.1746,2.44153,-0.0015058,-0.000211001,-0.000314423,-0.000138687,-0.00157812,-1.34474,0.00100903,0.0359721,1868,876,17.1746,-2.44151
651,148,17.2152,2.43036,-0.00360058,8.11216e-05,-0.00114535,0.000408348,-0.0039278,-1.29251,0.00276472,0.0363179,1875,876,17.2152,-2.43034
658,148,17.271,2.38843,-0.00534644,0.000228383,-0.00191821,0.000824634,-0.00594269,-1.26943,0.00426334,0.0295698,1882,876,17.271,-2.38842
665,148,17.1923,2.50476,-0.00661166,0.000310342,-0.00250014,0.00111891,-0.00742023,-1.258,0.00535887,0.0231933,1889,876,17.1923,-2.50474
672,148,17.2324,2.51611,-0.00763981,0.000297458,-0.0028404,0.00120918,-0.00855153,-1.2602,0.00614388,0.0307849,1896,876,17.2324,-2.51613
679,148,17.2391,2.51221,0,0,0,0,0,0,0,-1,1903,876,17.2391,-2.51219
686,148,14.9625,2.41394,0,0,0,0,0,0,0,-1,1910,876,14.9626,-2.41394
693,148,14.8622,2.48535,-0.00884127,0.000190024,-0.00344723,0.00135544,-0.0100067,-1.24479,0.0071658,0.0279594,1917,876,14.8622,-2.48534
700,148,14.9381,2.63867,-0.00853873,0.000189923,-0.00342863,0.00137563,-0.00972443,-1.23785,0.00698679,0.0146126,1924,876,14.9381,-2.63864
707,148,15.0093,2.84088,-0.00757094,0.000109486,-0.00292955,0.00109934,-0.00856079,-1.24496,0.00610671,0.0121382,1931,876,15.0093,-2.84085
714,148,14.9601,2.92999,-0.0054101,0.00020604,-0.0029035,0.00143723,-0.00664129,-1.16974,0.00497627,0.012713,1938,876,14.9601,-2.93002
721,148,14.8685,3.02661,-0.00239736,0.000118487,-0.00305602,0.00216535,-0.00444423,-0.980641,0.00389091,0.0170497,1945,876,14.8685,-3.02662
728,148,14.8845,3.17029,0.00149962,0.000307091,-0.00304015,0.00400143,-0.00219472,-0.688563,0.00362769,0.0188096,1952,876,14.8845,-3.17027
735,148,14.9069,3.31519,0.00630764,0.000145939,-0.00424136,0.00846901,-0.00201542,-0.471291,0.00642407,0.0173425,1959,876,14.9069,-3.31516
742,148,14.9132,3.4743,0.0117896,-0.000377169,-0.00628267,0.0144515,-0.00303904,-0.400756,0.0107909,0.0193635,1966,876,14.9132,-3.47433
749,148,14.9032,3.59198,0.0179229,-0.00109045,-0.00901511,0.0215177,-0.00468527,-0.379433,0.0161352,0.015505,1973,876,14.9032,-3.59197
756,148,14.925,3.7309,0.0246387,-0.00229796,-0.0131495,0.0299934,-0.00765265,-0.386711,0.0229753,0.0207501,1980,876,14.9251,-3.73088
763,148,15.0126,3.91272,0.0322125,-0.00430027,-0.0187383,0.0401176,-0.0122053,-0.399212,0.031609,0.0439156,1987,876,15.0126,-3.91273
770,148,15.0765,4.07941,0,0,0,0,0,0,0,-1,1994,876,15.0765,-4.07938
777,148,15.4849,3.37238,0,0,0,0,0,0,0,-1,2001,876,15.4849,-3.37237
784,148,15.787,3.14368,0,0,0,0,0,0,0,-1,2008,876,15.787,-3.14368
791,148,16.334,2.95679,0,0,0,0,0,0,0,-1,2015,876,16.334,-2.95679
798,148,0,0,0,0,0,0,0,0,0,-1,2022,876,0,0
805,148,0,0,0,0,0,0,0,0,0,-1,2029,876,0,0
812,148,0,0,0,0,0,0,0,0,0,-1,2036,876,0,0
-700,141,0,0,0,0,0,0,0,0,0,-1,524,883,0,0
-693,141,0,0,0,0,0,0,0,0,0,-1,531,883,0,0
-686,141,0,0,0,0,0,0,0,0,0,-1,538,883,0,0
-679,141,0,0,0,0,0,0,0,0,0,-1,545,883,0,0
-672,141,-16.2591,-2.81171,0,0,0,0,0,0,0,-1,552,883,-16.2591,2.81172
-665,141,-16.0133,-2.72913,0.0831239,0.00407465,0.022396,0.0890281,-0.00182955,0.257762,0.0599712,0.0487185,559,883,-16.0133,2.72916
-658,141,-11.1266,1.64233,0,0,0,0,0,0,0,-1,566,883,-11.1266,-1.64236
-651,141,-10.8976,1.61121,0.0580516,0.00650485,0.025969,0.0688659,-0.00430946,0.39459,0.0474124,0.0431676,573,883,-10.8976,-1.61118
-644,141,-10.4507,1.49536,0.0458775,0.00661814,0.0242506,0.0574475,-0.00495179,0.445159,0.0400511,0.0464513,580,883,-10.4507,-1.49539
-637,141,-9.62048,1.53723,0,0,0,0,0,0,0,-1,587,883,-9.62051,-1.53723
-630,141,-9.58209,1.44879,0.0252112,0.00554466,0.0174768,0.0354312,-0.00467525,0.529147,0.0253235,0.0390512,594,883,-9.58211,-1.4488
-623,141,-9.5271,1.34344,0.0179242,0.00518212,0.0144926,0.0273844,-0.00427799,0.578309,0.0198366,0.0205462,601,883,-9.52709,-1.34344
-616,141,-9.5863,1.26318,0.0119092,0.00488351,0.0119701,0.0208713,-0.00407854,0.642671,0.0154541,0.0114832,608,883,-9.58628,-1.26317
-609,141,-9.62677,1.17181,0.00377511,0.00267759,0.00768199,0.0109279,-0.00447521,0.749741,0.00914942,0.0126708,615,883,-9.62678,-1.17182
-602,141,-9.63831,1.06317,0.000461184,0.00136574,0.00458905,0.00552474,-0.00369782,0.834517,0.00535936,0.0114302,622,883,-9.63833,-1.06314
-595,141,-9.64423,0.933289,-0.00294538,0.00107474,0.00334976,0.00297125,-0.00484188,1.05563,0.00455381,0.00971396,629,883,-9.64425,-0.933316
-588,141,-9.72632,0.835815,-0.00533778,0.00106063,0.00282117,0.00212686,-0.00640401,1.20945,0.0051275,0.0147486,636,883,-9.72634,-0.83579
-581,141,-9.72375,0.746582,-0.00695694,8.80372e-05,0.0027558,0.00103795,-0.00790685,1.23885,0.00564909,0.0197017,643,883,-9.72374,-0.74657
-574,141,-9.56805,0.632996,-0.00818566,-0.000436068,0.00315043,0.000683059,-0.00930479,1.22947,0.00644296,0.0216491,650,883,-9.56806,-0.632976
-567,141,-9.59052,0.564209,-0.00889575,-0.000479451,0.00341519,0.000732001,-0.0101072,1.22992,0.00699491,0.0277648,657,883,-9.59054,-0.564223
-560,141,-9.60297,0.548096,0,0,0,0,0,0,0,-1,664,883,-9.60299,-0.548077
-553,141,-10.5569,0.593933,0,0,0,0,0,0,0,-1,671,883,-10.557,-0.593928
-546,141,-11.1589,0.732727,-0.00904931,-0.000632595,0.00394769,0.00092919,-0.0106111,1.19407,0.00740326,0.0332202,678,883,-11.1589,-0.732748
-539,141,-11.1714,0.635559,-0.00811792,-0.000553739,0.00375384,0.000992914,-0.00966458,1.17997,0.00679824,0.0308942,685,883,-11.1714,-0.635583
-532,141,-11.1932,0.63855,-0.00637636,-0.000375916,0.00326229,0.001056,-0.00780828,1.15719,0.00559086,0.0310126,692,883,-11.1932,-0.638526
-525,141,-11.1137,0.764893,-0.00369235,-8.71018e-05,0.00241073,0.00112044,-0.00489989,1.10643,0.0036971,0.0391639,699,883,-11.1137,-0.764866
-518,141,-11.1781,0.659973,0.000208627,0.000328416,0.00113961,0.0014097,-0.000872662,0.811653,0.00132983,0.0432188,706,883,-11.1781,-0.659985
-511,141,-11.2029,0.437012,0.00499137,0.000881204,-0.000422794,0.00503441,0.000838163,-0.10145,0.00311471,0.041434,713,883,-11.203,-0.437008
-504,141,-11.2829,0.552734,0.0100657,0.00207321,-0.00179591,0.0104507,0.00168822,-0.211178,0.00647812,0.0421071,720,883,-11.2829,-0.552728
-497,141,0,0,0,0,0,0,0,0,0,-1,727,883,0,0
-490,141,0,0,0,0,0,0,0,0,0,-1,734,883,0,0
-483,141,0,0,0,0,0,0,0,0,0,-1,741,883,0,0
-476,141,0,0,0,0,0,0,0,0,0,-1,748,883,0,0
-469,141,0,0,0,0,0,0,0,0,0,-1,755,883,0,0
-462,141,0,0,0,0,0,0,0,0,0,-1,762,883,0,0
-455,141,0,0,0,0,0,0,0,0,0,-1,769,883,0,0
-448,141,0,0,0,0,0,0,0,0,0,-1,776,883,0,0
-441,141,0,0,0,0,0,0,0,0,0,-1,783,883,0,0
-434,141,0,0,0,0,0,0,0,0,0,-1,790,883,0,0
-427,141,0,0,0,0,0,0,0,0,0,-1,797,883,0,0
-420,141,0,0,0,0,0,0,0,0,0,-1,804,883,0,0
-413,141,0,0,0,0,0,0,0,0,0,-1,811,883,0,0
-406,141,0,0,0,0,0,0,0,0,0,-1,818,883,0,0
-399,141,0,0,0,0,0,0,0,0,0,-1,825,883,0,0
-392,141,0,0,0,0,0,0,0,0,0,-1,832,883,0,0
-385,141,0,0,0,0,0,0,0,0,0,-1,839,883,0,0
-378,141,0,0,0,0,0,0,0,0,0,-1,846,883,0,0
-371,141,0,0,0,0,0,0,0,0,0,-1,853,883,0,0
-364,141,0,0,0,0,0,0,0,0,0,-1,860,883,0,0
-357,141,0,0,0,0,0,0,0,0,0,-1,867,883,0,0
-350,141,0,0,0,0,0,0,0,0,0,-1,874,883,0,0
-343,141,0,0,0,0,0,0,0,0,0,-1,881,883,0,0
-336,141,0,0,0,0,0,0,0,0,0,-1,888,883,0,0
-329,141,0,0,0,0,0,0,0,0,0,-1,895,883,0,0
-322,141,0,0,0,0,0,0,0,0,0,-1,902,883,0,0
-315,141,0,0,0,0,0,0,0,0,0,-1,909,883,0,0
-308,141,0,0,0,0,0,0,0,0,0,-1,916,883,0,0
-301,141,0,0,0,0,0,0,0,0,0,-1,923,883,0,0
-294,141,0,0,0,0,0,0,0,0,0,-1,930,883,0,0
-287,141,0,0,0,0,0,0,0,0,0,-1,937,883,0,0
-280,141,0,0,0,0,0,0,0,0,0,-1,944,883,0,0
-273,141,0,0,0,0,0,0,0,0,0,-1,951,883,0,0
-266,141,0,0,0,0,0,0,0,0,0,-1,958,883,0,0
-259,141,0,0,0,0,0,0,0,0,0,-1,965,883,0,0
-252,141,0,0,0,0,0,0,0,0,0,-1,972,883,0,0
-245,141,0,0,0,0,0,0,0,0,0,-1,979,883,0,0
-238,141,0,0,0,0,0,0,0,0,0,-1,986,883,0,0
-231,141,0,0,0,0,0,0,0,0,0,-1,993,883,0,0
-224,141,0,0,0,0,0,0,0,0,0,-1,1000,883,0,0
-217,141,0,0,0,0,0,0,0,0,0,-1,1007,883,0,0
-210,141,0,0,0,0,0,0,0,0,0,-1,1014,883,0,0
-203,141,0,0,0,0,0,0,0,0,0,-1,1021,883,0,0
-196,141,0,0,0,0,0,0,0,0,0,-1,1028,883,0,0
-189,141,0,0,0,0,0,0,0,0,0,-1,1035,883,0,0
-182,141,0,0,0,0,0,0,0,0,0,-1,1042,883,0,0
-175,141,0,0,0,0,0,0,0,0,0,-1,1049,883,0,0
-168,141,0,0,0,0,0,0,0,0,0,-1,1056,883,0,0
-161,141,0,0,0,0,0,0,0,0,0,-1,1063,883,0,0
-154,141,0,0,0,0,0,0,0,0,0,-1,1070,883,0,0
-147,141,0,0,0,0,0,0,0,0,0,-1,1077,883,0,0
-140,141,0,0,0,0,0,0,0,0,0,-1,1084,883,0,0
-133,141,0,0,0,0,0,0,0,0,0,-1,1091,883,0,0
-126,141,0,0,0,0,0,0,0,0,0,-1,1098,883,0,0
-119,141,0,0,0,0,0,0,0,0,0,-1,1105,883,0,0
-112,141,0,0,0,0,0,0,0,0,0,-1,1112,883,0,0
-105,141,0,0,0,0,0,0,0,0,0,-1,1119,883,0,0
-98,141,0,0,0,0,0,0,0,0,0,-1,1126,883,0,0
-91,141,0,0,0,0,0,0,0,0,0,-1,1133,883,0,0
-84,141,0,0,0,0,0,0,0,0,0,-1,1140,883,0,0
-77,141,0,0,0,0,0,0,0,0,0,-1,1147,883,0,0
-70,141,0,0,0,0,0,0,0,0,0,-1,1154,883,0,0
-63,141,0,0,0,0,0,0,0,0,0,-1,1161,883,0,0
-56,141,0,0,0,0,0,0,0,0,0,-1,1168,883,0,0
-49,141,0,0,0,0,0,0,0,0,0,-1,1175,883,0,0
-42,141,0,0,0,0,0,0,0,0,0,-1,1182,883,0,0
-35,141,0,0,0,0,0,0,0,0,0,-1,1189,883,0,0
-28,141,0,0,0,0,0,0,0,0,0,-1,1196,883,0,0
-21,141,0,0,0,0,0,0,0,0,0,-1,1203,883,0,0
-14,141,0,0,0,0,0,0,0,0,0,-1,1210,883,0,0
-7,141,0,0,0,0,0,0,0,0,0,-1,1217,883,0,0
0,141,0,0,0,0,0,0,0,0,0,-1,1224,883,0,0
7,141,0,0,0,0,0,0,0,0,0,-1,1231,883,0,0
14,141,0,0,0,0,0,0,0,0,0,-1,1238,883,0,0
21,141,0,0,0,0,0,0,0,0,0,-1,1245,883,0,0
28,141,0,0,0,0,0,0,0,0,0,-1,1252,883,0,0
35,141,0,0,0,0,0,0,0,0,0,-1,1259,883,0,0
42,141,0,0,0,0,0,0,0,0,0,-1,1266,883,0,0
49,141,0,0,0,0,0,0,0,0,0,-1,1273,883,0,0
56,141,0,0,0,0,0,0,0,0,0,-1,1280,883,0,0
63,141,0,0,0,0,0,0,0,0,0,-1,1287,883,0,0
70,141,0,0,0,0,0,0,0,0,0,-1,1294,883,0,0
77,141,0,0,0,0,0,0,0,0,0,-1,1301,883,0,0
84,141,0,0,0,0,0,0,0,0,0,-1,1308,883,0,0
91,141,0,0,0,0,0,0,0,0,0,-1,1315,883,0,0
98,141,0,0,0,0,0,0,0,0,0,-1,1322,883,0,0
105,141,0,0,0,0,0,0,0,0,0,-1,1329,883,0,0
112,141,0,0,0,0,0,0,0,0,0,-1,1336,883,0,0
119,141,0,0,0,0,0,0,0,0,0,-1,1343,883,0,0
126,141,0,0,0,0,0,0,0,0,0,-1,1350,883,0,0
133,141,0,0,0,0,0,0,0,0,0,-1,1357,883,0,0
140,141,0,0,0,0,0,0,0,0,0,-1,1364,883,0,0
147,141,0,0,0,0,0,0,0,0,0,-1,1371,883,0,0
154,141,0,0,0,0,0,0,0,0,0,-1,1378,883,0,0
161,141,0,0,0,0,0,0,0,0,0,-1,1385,883,0,0
168,141,0,0,0,0,0,0,0,0,0,-1,1392,883,0,0
175,141,0,0,0,0,0,0,0,0,0,-1,1399,883,0,0
182,141,0,0,0,0,0,0,0,0,0,-1,1406,883,0,0
189,141,0,0,0,0,0,0,0,0,0,-1,1413,883,0,0
196,141,0,0,0,0,0,0,0,0,0,-1,1420,883,0,0
203,141,0,0,0,0,0,0,0,0,0,-1,1427,883,0,0
210,141,0,0,0,0,0,0,0,0,0,-1,1434,883,0,0
217,141,0,0,0,0,0,0,0,0,0,-1,1441,883,0,0
224,141,0,0,0,0,0,0,0,0,0,-1,1448,883,0,0
231,141,0,0,0,0,0,0,0,0,0,-1,1455,883,0,0
238,141,0,0,0,0,0,0,0,0,0,-1,1462,883,0,0
245,141,0,0,0,0,0,0,0,0,0,-1,1469,883,0,0
252,141,0,0,0,0,0,0,0,0,0,-1,1476,883,0,0
259,141,0,0,0,0,0,0,0,0,0,-1,1483,883,0,0
266,141,0,0,0,0,0,0,0,0,0,-1,1490,883,0,0
273,141,0,0,0,0,0,0,0,0,0,-1,1497,883,0,0
280,141,0,0,0,0,0,0,0,0,0,-1,1504,883,0,0
287,141,0,0,0,0,0,0,0,0,0,-1,1511,883,0,0
294,141,0,0,0,0,0,0,0,0,0,-1,1518,883,0,0
301,141,0,0,0,0,0,0,0,0,0,-1,1525,883,0,0
308,141,0,0,0,0,0,0,0,0,0,-1,1532,883,0,0
315,141,0,0,0,0,0,0,0,0,0,-1,1539,883,0,0
322,141,0,0,0,0,0,0,0,0,0,-1,1546,883,0,0
329,141,0,0,0,0,0,0,0,0,0,-1,1553,883,0,0
336,141,0,0,0,0,0,0,0,0,0,-1,1560,883,0,0
343,141,0,0,0,0,0,0,0,0,0,-1,1567,883,0,0
350,141,0,0,0,0,0,0,0,0,0,-1,1574,883,0,0
357,141,0,0,0,0,0,0,0,0,0,-1,1581,883,0,0
364,141,0,0,0,0,0,0,0,0,0,-1,1588,883,0,0
371,141,0,0,0,0,0,0,0,0,0,-1,1595,883,0,0
378,141,0,0,0,0,0,0,0,0,0,-1,1602,883,0,0
385,141,0,0,0,0,0,0,0,0,0,-1,1609,883,0,0
392,141,0,0,0,0,0,0,0,0,0,-1,1616,883,0,0
399,141,0,0,0,0,0,0,0,0,0,-1,1623,883,0,0
406,141,0,0,0,0,0,0,0,0,0,-1,1630,883,0,0
413,141,0,0,0,0,0,0,0,0,0,-1,1637,883,0,0
420,141,0,0,0,0,0,0,0,0,0,-1,1644,883,0,0
427,141,0,0,0,0,0,0,0,0,0,-1,1651,883,0,0
434,141,0,0,0,0,0,0,0,0,0,-1,1658,883,0,0
441,141,0,0,0,0,0,0,0,0,0,-1,1665,883,0,0
448,141,0,0,0,0,0,0,0,0,0,-1,1672,883,0,0
455,141,0,0,0,0,0,0,0,0,0,-1,1679,883,0,0
462,141,0,0,0,0,0,0,0,0,0,-1,1686,883,0,0
469,141,0,0,0,0,0,0,0,0,0,-1,1693,883,0,0
476,141,0,0,0,0,0,0,0,0,0,-1,1700,883,0,0
483,141,0,0,0,0,0,0,0,0,0,-1,1707,883,0,0
490,141,0,0,0,0,0,0,0,0,0,-1,1714,883,0,0
497,141,0,0,0,0,0,0,0,0,0,-1,1721,883,0,0
504,141,0,0,0,0,0,0,0,0,0,-1,1728,883,0,0
511,141,0,0,0,0,0,0,0,0,0,-1,1735,883,0,0
518,141,0,0,0,0,0,0,0,0,0,-1,1742,883,0,0
525,141,0,0,0,0,0,0,0,0,0,-1,1749,883,0,0
532,141,0,0,0,0,0,0,0,0,0,-1,1756,883,0,0
539,141,0,0,0,0,0,0,0,0,0,-1,1763,883,0,0
546,141,0,0,0,0,0,0,0,0,0,-1,1770,883,0,0
553,141,0,0,0,0,0,0,0,0,0,-1,1777,883,0,0
560,141,0,0,0,0,0,0,0,0,0,-1,1784,883,0,0
567,141,0,0,0,0,0,0,0,0,0,-1,1791,883,0,0
574,141,0,0,0,0,0,0,0,0,0,-1,1798,883,0,0
581,141,0,0,0,0,0,0,0,0,0,-1,1805,883,0,0
588,141,0,0,0,0,0,0,0,0,0,-1,1812,883,0,0
595,141,0,0,0,0,0,0,0,0,0,-1,1819,883,0,0
602,141,0,0,0,0,0,0,0,0,0,-1,1826,883,0,0
609,141,0,0,0,0,0,0,0,0,0,-1,1833,883,0,0
616,141,0,0,0,0,0,0,0,0,0,-1,1840,883,0,0
623,141,17.1311,2.68945,0.00417842,-0.00114162,-0.000657081,0.00425837,-0.00122158,-0.121086,0.00332184,0.0442641,1847,883,17.1311,-2.68948
630,141,17.1536,2.6474,0.00244994,-0.000807392,0.000268551,0.00247193,-0.000829384,0.0817099,0.0019831,0.0463564,1854,883,17.1536,-2.64742
637,141,16.9758,2.75916,0.00067308,-0.000285241,0.000328533,0.000774892,-0.000387052,0.300513,0.000683192,0.044155,1861,883,16.9758,-2.75915
644,141,17.0162,2.74463,-0.00111138,0.000145168,-4.3401e-05,0.000146665,-0.00111288,-1.53631,0.000795326,0.0390591,1868,883,17.0162,-2.74461
651,141,17.2405,2.6438,-0.00348326,0.000427711,-0.000832073,0.000597377,-0.00365293,-1.36965,0.00265689,0.0382906,1875,883,17.2405,-2.64379
658,141,17.3545,2.38953,-0.00567899,0.000567547,-0.00162186,0.000963543,-0.00607498,-1.33132,0.00440643,0.0354523,1882,883,17.3545,-2.38952
665,141,17.2062,2.44879,-0.00734092,0.000623136,-0.00223242,0.00120622,-0.007924,-1.31531,0.00572724,0.0257735,1889,883,17.2061,-2.44878
672,141,17.2131,2.53821,-0.00865497,0.000589142,-0.00262076,0.00128044,-0.00934627,-1.31289,0.00669858,0.0226628,1896,883,17.2131,-2.5382
679,141,17.156,2.61011,-0.00965864,0.00067025,-0.00296447,0.0014606,-0.010449,-1.31025,0.00750041,0.0264115,1903,883,17.156,-2.61011
686,141,15.4209,2.84375,0,0,0,0,0,0,0,-1,1910,883,15.4209,-2.84376
693,141,15.1099,2.73175,-0.0104474,0.000374918,-0.00328542,0.00129421,-0.0113667,-1.29796,0.00804396,0.0456363,1917,883,15.1098,-2.73175
700,141,15.05,2.64709,-0.0102232,0.000360633,-0.00329439,0.00130229,-0.0111648,-1.29238,0.00791311,0.0150036,1924,883,15.0501,-2.64709
707,141,15.0776,2.76587,-0.0092884,0.000265994,-0.00286002,0.00105668,-0.0100791,-1.30107,0.00709789,0.012846,1931,883,15.0776,-2.76589
714,141,15.0229,2.86646,-0.00725191,0.000369599,-0.00280753,0.00129214,-0.00817445,-1.25332,0.00592748,0.0137934,1938,883,15.023,-2.86647
721,141,15.0209,2.99939,-0.00429717,0.000373114,-0.00288689,0.00175106,-0.00567511,-1.12546,0.00448259,0.0123895,1945,883,15.0208,-2.99937
728,141,15.0349,3.12018,-0.000472962,0.000718175,-0.00286938,0.00305314,-0.00280793,-0.887725,0.00338487,0.0147286,1952,883,15.0349,-3.12018
735,141,15.0439,3.3136,0.00419917,0.0005684,-0.00399291,0.00677001,-0.00200244,-0.57204,0.00530825,0.0145818,1959,883,15.044,-3.31362
742,141,15.0294,3.45764,0.00940321,-8.85319e-06,-0.00586937,0.0122202,-0.00282587,-0.447481,0.00923404,0.0147625,1966,883,15.0295,-3.45765
749,141,15.024,3.58142,0.0150585,-0.00081392,-0.00831697,0.0186182,-0.00437359,-0.40441,0.014098,0.0122712,1973,883,15.0241,-3.58145
756,141,15.0428,3.74097,0.0210086,-0.00211654,-0.0120856,0.0261719,-0.00727985,-0.403757,0.0203141,0.0188351,1980,883,15.0429,-3.74098
763,141,15.1464,3.85071,0.027356,-0.00435847,-0.0171741,0.034874,-0.0118765,-0.412623,0.0280589,0.0419358,1987,883,15.1463,-3.85068
770,141,15.4047,3.71466,0.0345636,-0.00787382,-0.0236335,0.0451061,-0.0184163,-0.419592,0.0377383,0.0459602,1994,883,15.4047,-3.71467
777,141,15.9003,3.43042,0,0,0,0,0,0,0,-1,2001,883,15.9003,-3.43042
784,141,16.238,3.21423,0.0506423,-0.0200023,-0.0409546,0.0694027,-0.0387628,-0.429552,0.063279,0.0438374,2008,883,16.2381,-3.21426
791,141,16.7551,3.00659,0.0581136,-0.0292387,-0.0515012,0.0819651,-0.0530902,-0.433714,0.078566,0.0459327,2015,883,16.7551,-3.0066
798,141,0,0,0,0,0,0,0,0,0,-1,2022,883,0,0
805,141,0,0,0,0,0,0,0,0,0,-1,2029,883,0,0
812,141,0,0,0,0,0,0,0,0,0,-1,2036,883,0,0
-700,134,0,0,0,0,0,0,0,0,0,-1,524,890,0,0
-693,134,0,0,0,0,0,0,0,0,0,-1,531,890,0,0
-686,134,0,0,0,0,0,0,0,0,0,-1,538,890,0,0
-679,134,0,0,0,0,0,0,0,0,0,-1,545,890,0,0
-672,134,-14.7686,-2.09485,0.0777985,-0.0111288,-0.00396428,0.0779749,-0.0113052,-0.0444613,0.0561325,0.0481947,552,890,-14.7685,2.09487
-665,134,-14.6057,-2.12695,0.0704441,-0.00527318,0.00563253,0.0708608,-0.00568989,0.0738472,0.0492469,0.0484876,559,890,-14.6056,2.12696
-658,134,-11.5876,1.39795,0,0,0,0,0,0,0,-1,566,890,-11.5876,-1.39797
-651,134,-11.1735,1.336,0.0506701,0.0012863,0.0139319,0.0543293,-0.00237295,0.256851,0.0370359,0.0431513,573,890,-11.1735,-1.336
-644,134,-10.6832,1.26831,0.040491,0.00285666,0.0145839,0.0454809,-0.00213324,0.329666,0.0310561,0.0442123,580,890,-10.6832,-1.26833
-637,134,-10.1882,1.28394,0.0309801,0.00362501,0.0137516,0.0366979,-0.00209283,0.394049,0.0251919,0.04647,587,890,-10.1882,-1.28392
-630,134,-9.74872,1.40002,0.0226319,0.00378576,0.0119655,0.0284393,-0.00202168,0.451856,0.0196681,0.0384015,594,890,-9.74872,-1.40005
-623,134,-9.68274,1.36047,0.0163833,0.00416322,0.0106559,0.0225566,-0.00201013,0.525085,0.0157506,0.0205426,601,890,-9.68272,-1.36046
-616,134,-9.73627,1.2688,0.0109892,0.0043172,0.00948476,0.0177075,-0.00240114,0.616295,0.0126814,0.0115662,608,890,-9.73627,-1.26877
-609,134,-9.76678,1.17157,0.00304255,0.00258315,0.00625137,0.00906844,-0.00344274,0.767034,0.00746278,0.0110667,615,890,-9.76678,-1.17156
-602,134,-9.76648,1.04767,-0.000161407,0.00134474,0.00388334,0.00454735,-0.00336402,0.881171,0.00458463,0.011182,622,890,-9.76645,-1.04765
-595,134,-9.74707,0.955627,-0.00336366,0.00103431,0.0030822,0.00262155,-0.0049509,1.09525,0.00444037,0.0112538,629,890,-9.7471,-0.955643
-588,134,-9.86615,0.905945,-0.00562585,0.00109415,0.0026491,0.00201286,-0.00654456,1.23698,0.00516639,0.019647,636,890,-9.86613,-0.905951
-581,134,-9.83154,0.759521,-0.00707362,0.000162699,0.00253877,0.000964542,-0.00787546,1.26487,0.00559958,0.0237491,643,890,-9.83154,-0.759511
-574,134,-9.77582,0.616577,-0.00814877,-0.000286598,0.00282074,0.000620706,-0.00905607,1.25959,0.00625456,0.0226899,650,890,-9.77583,-0.616565
-567,134,-9.69,0.512634,-0.0087007,-0.000287329,0.00300956,0.000678378,-0.0096664,1.2603,0.00668188,0.0206792,657,890,-9.69002,-0.512625
-560,134,-10.0367,0.693115,-0.00885126,-0.000462851,0.00317222,0.000601681,-0.00991579,1.24703,0.00681994,0.0378602,664,890,-10.0367,-0.693119
-553,134,-10.6517,0.998413,0,0,0,0,0,0,0,-1,671,890,-10.6517,-0.998388
-546,134,-11.1498,0.592102,-0.00826146,-0.000427293,0.00336508,0.000819665,-0.00950842,1.21593,0.00662908,0.0256413,678,890,-11.1498,-0.592128
-539,134,-11.1711,0.59552,-0.00707452,-0.000341429,0.00312423,0.000884897,-0.00830084,1.19675,0.00585121,0.0184705,685,890,-11.1711,-0.595502
-532,134,-11.2044,0.623596,-0.00510429,-0.000171604,0.00261753,0.000958481,-0.00623437,1.16323,0.00450982,0.0236575,692,890,-11.2044,-0.623581
-525,134,-11.1035,0.758484,-0.00222855,9.42255e-05,0.00178787,0.00106481,-0.00319913,1.07344,0.00256253,0.0346457,699,890,-11.1035,-0.758477
-518,134,-11.0369,0.686279,0.0017275,0.000479641,0.000590409,0.00196257,0.000244577,0.3789,0.00123495,0.0406352,706,890,-11.0369,-0.686292
-511,134,-11.0095,0.564758,0.00608546,0.00100153,-0.000741684,0.00619145,0.000895542,-0.141948,0.00386387,0.0435018,713,890,-11.0095,-0.564741
-504,134,0,0,0,0,0,0,0,0,0,-1,720,890,0,0
-497,134,0,0,0,0,0,0,0,0,0,-1,727,890,0,0
-490,134,0,0,0,0,0,0,0,0,0,-1,734,890,0,0
-483,134,0,0,0,0,0,0,0,0,0,-1,741,890,0,0
-476,134,0,0,0,0,0,0,0,0,0,-1,748,890,0,0
-469,134,0,0,0,0,0,0,0,0,0,-1,755,890,0,0
-462,134,0,0,0,0,0,0,0,0,0,-1,762,890,0,0
-455,134,0,0,0,0,0,0,0,0,0,-1,769,890,0,0
-448,134,0,0,0,0,0,0,0,0,0,-1,776,890,0,0
-441,134,0,0,0,0,0,0,0,0,0,-1,783,890,0,0
-434,134,0,0,0,0,0,0,0,0,0,-1,790,890,0,0
-427,134,0,0,0,0,0,0,0,0,0,-1,797,890,0,0
-420,134,0,0,0,0,0,0,0,0,0,-1,804,890,0,0
-413,134,0,0,0,0,0,0,0,0,0,-1,811,890,0,0
-406,134,0,0,0,0,0,0,0,0,0,-1,818,890,0,0
-399,134,0,0,0,0,0,0,0,0,0,-1,825,890,0,0
-392,134,0,0,0,0,0,0,0,0,0,-1,832,890,0,0
-385,134,0,0,0,0,0,0,0,0,0,-1,839,890,0,0
-378,134,0,0,0,0,0,0,0,0,0,-1,846,890,0,0
-371,134,0,0,0,0,0,0,0,0,0,-1,853,890,0,0
-364,134,0,0,0,0,0,0,0,0,0,-1,860,890,0,0
-357,134,0,0,0,0,0,0,0,0,0,-1,867,890,0,0
-350,134,0,0,0,0,0,0,0,0,0,-1,874,890,0,0
-343,134,0,0,0,0,0,0,0,0,0,-1,881,890,0,0
-336,134,0,0,0,0,0,0,0,0,0,-1,888,890,0,0
-329,134,0,0,0,0,0,0,0,0,0,-1,895,890,0,0
-322,134,0,0,0,0,0,0,0,0,0,-1,902,890,0,0
-315,134,0,0,0,0,0,0,0,0,0,-1,909,890,0,0
-308,134,0,0,0,0,0,0,0,0,0,-1,916,890,0,0
-301,134,0,0,0,0,0,0,0,0,0,-1,923,890,0,0
-294,134,0,0,0,0,0,0,0,0,0,-1,930,890,0,0
-287,134,0,0,0,0,0,0,0,0,0,-1,937,890,0,0
-280,134,0,0,0,0,0,0,0,0,0,-1,944,890,0,0
-273,134,0,0,0,0,0,0,0,0,0,-1,951,890,0,0
-266,134,0,0,0,0,0,0,0,0,0,-1,958,890,0,0
-259,134,0,0,0,0,0,0,0,0,0,-1,965,890,0,0
-252,134,0,0,0,0,0,0,0,0,0,-1,972,890,0,0
-245,134,0,0,0,0,0,0,0,0,0,-1,979,890,0,0
-238,134,0,0,0,0,0,0,0,0,0,-1,986,890,0,0
-231,134,0,0,0,0,0,0,0,0,0,-1,993,890,0,0
-224,134,0,0,0,0,0,0,0,0,0,-1,1000,890,0,0
-217,134,0,0,0,0,0,0,0,0,0,-1,1007,890,0,0
-210,134,0,0,0,0,0,0,0,0,0,-1,1014,890,0,0
-203,134,0,0,0,0,0,0,0,0,0,-1,1021,890,0,0
-196,134,0,0,0,0,0,0,0,0,0,-1,1028,890,0,0
-189,134,0,0,0,0,0,0,0,0,0,-1,1035,890,0,0
-182,134,0,0,0,0,0,0,0,0,0,-1,1042,890,0,0
-175,134,0,0,0,0,0,0,0,0,0,-1,1049,890,0,0
-168,134,0,0,0,0,0,0,0,0,0,-1,1056,890,0,0
-161,134,0,0,0,0,0,0,0,0,0,-1,1063,890,0,0
-154,134,0,0,0,0,0,0,0,0,0,-1,1070,890,0,0
-147,134,0,0,0,0,0,0,0,0,0,-1,1077,890,0,0
-140,134,0,0,0,0,0,0,0,0,0,-1,1084,890,0,0
-133,134,0,0,0,0,0,0,0,0,0,-1,1091,890,0,0
-126,134,0,0,0,0,0,0,0,0,0,-1,1098,890,0,0
-119,134,0,0,0,0,0,0,0,0,0,-1,1105,890,0,0
-112,134,0,0,0,0,0,0,0,0,0,-1,1112,890,0,0
-105,134,0,0,0,0,0,0,0,0,0,-1,1119,890,0,0
-98,134,0,0,0,0,0,0,0,0,0,-1,1126,890,0,0
-91,134,0,0,0,0,0,0,0,0,0,-1,1133,890,0,0
-84,134,0,0,0,0,0,0,0,0,0,-1,1140,890,0,0
-77,134,0,0,0,0,0,0,0,0,0,-1,1147,890,0,0
-70,134,0,0,0,0,0,0,0,0,0,-1,1154,890,0,0
-63,134,0,0,0,0,0,0,0,0,0,-1,1161,890,0,0
-56,134,0,0,0,0,0,0,0,0,0,-1,1168,890,0,0
-49,134,0,0,0,0,0,0,0,0,0,-1,1175,890,0,0
-42,134,0,0,0,0,0,0,0,0,0,-1,1182,890,0,0
-35,134,0,0,0,0,0,0,0,0,0,-1,1189,890,0,0
-28,134,0,0,0,0,0,0,0,0,0,-1,1196,890,0,0
-21,134,0,0,0,0,0,0,0,0,0,-1,1203,890,0,0
-14,134,0,0,0,0,0,0,0,0,0,-1,1210,890,0,0
-7,134,0,0,0,0,0,0,0,0,0,-1,1217,890,0,0
0,134,0,0,0,0,0,0,0,0,0,-1,1224,890,0,0
7,134,0,0,0,0,0,0,0,0,0,-1,1231,890,0,0
14,134,0,0,0,0,0,0,0,0,0,-1,1238,890,0,0
21,134,0,0,0,0,0,0,0,0,0,-1,1245,890,0,0
28,134,0,0,0,0,0,0,0,0,0,-1,1252,890,0,0
35,134,0,0,0,0,0,0,0,0,0,-1,1259,890,0,0
42,134,0,0,0,0,0,0,0,0,0,-1,1266,890,0,0
49,134,0,0,0,0,0,0,0,0,0,-1,1273,890,0,0
56,134,0,0,0,0,0,0,0,0,0,-1,1280,890,0,0
63,134,0,0,0,0,0,0,0,0,0,-1,1287,890,0,0
70,134,0,0,0,0,0,0,0,0,0,-1,1294,890,0,0
77,134,0,0,0,0,0,0,0,0,0,-1,1301,890,0,0
84,134,0,0,0,0,0,0,0,0,0,-1,1308,890,0,0
91,134,0,0,0,0,0,0,0,0,0,-1,1315,890,0,0
98,134,0,0,0,0,0,0,0,0,0,-1,1322,890,0,0
105,134,0,0,0,0,0,0,0,0,0,-1,1329,890,0,0
112,134,0,0,0,0,0,0,0,0,0,-1,1336,890,0,0
119,134,0,0,0,0,0,0,0,0,0,-1,1343,890,0,0
126,134,0,0,0,0,0,0,0,0,0,-1,1350,890,0,0
133,134,0,0,0,0,0,0,0,0,0,-1,1357,890,0,0
140,134,0,0,0,0,0,0,0,0,0,-1,1364,890,0,0
147,134,0,0,0,0,0,0,0,0,0,-1,1371,890,0,0
154,134,0,0,0,0,0,0,0,0,0,-1,1378,890,0,0
161,134,0,0,0,0,0,0,0,0,0,-1,1385,890,0,0
168,134,0,0,0,0,0,0,0,0,0,-1,1392,890,0,0
175,134,0,0,0,0,0,0,0,0,0,-1,1399,890,0,0
182,134,0,0,0,0,0,0,0,0,0,-1,1406,890,0,0
189,134,0,0,0,0,0,0,0,0,0,-1,1413,890,0,0
196,134,0,0,0,0,0,0,0,0,0,-1,1420,890,0,0
203,134,0,0,0,0,0,0,0,0,0,-1,1427,890,0,0
210,134,0,0,0,0,0,0,0,0,0,-1,1434,890,0,0
217,134,0,0,0,0,0,0,0,0,0,-1,1441,890,0,0
224,134,0,0,0,0,0,0,0,0,0,-1,1448,890,0,0
231,134,0,0,0,0,0,0,0,0,0,-1,1455,890,0,0
238,134,0,0,0,0,0,0,0,0,0,-1,1462,890,0,0
245,134,0,0,0,0,0,0,0,0,0,-1,1469,890,0,0
252,134,0,0,0,0,0,0,0,0,0,-1,1476,890,0,0
259,134,0,0,0,0,0,0,0,0,0,-1,1483,890,0,0
266,134,0,0,0,0,0,0,0,0,0,-1,1490,890,0,0
273,134,0,0,0,0,0,0,0,0,0,-1,1497,890,0,0
280,134,0,0,0,0,0,0,0,0,0,-1,1504,890,0,0
287,134,0,0,0,0,0,0,0,0,0,-1,1511,890,0,0
294,134,0,0,0,0,0,0,0,0,0,-1,1518,890,0,0
301,134,0,0,0,0,0,0,0,0,0,-1,1525,890,0,0
308,134,0,0,0,0,0,0,0,0,0,-1,1532,890,0,0
315,134,0,0,0,0,0,0,0,0,0,-1,1539,890,0,0
322,134,0,0,0,0,0,0,0,0,0,-1,1546,890,0,0
329,134,0,0,0,0,0,0,0,0,0,-1,1553,890,0,0
336,134,0,0,0,0,0,0,0,0,0,-1,1560,890,0,0
343,134,0,0,0,0,0,0,0,0,0,-1,1567,890,0,0
350,134,0,0,0,0,0,0,0,0,0,-1,1574,890,0,0
357,134,0,0,0,0,0,0,0,0,0,-1,1581,890,0,0
364,134,0,0,0,0,0,0,0,0,0,-1,1588,890,0,0
371,134,0,0,0,0,0,0,0,0,0,-1,1595,890,0,0
378,134,0,0,0,0,0,0,0,0,0,-1,1602,890,0,0
385,134,0,0,0,0,0,0,0,0,0,-1,1609,890,0,0
392,134,0,0,0,0,0,0,0,0,0,-1,1616,890,0,0
399,134,0,0,0,0,0,0,0,0,0,-1,1623,890,0,0
406,134,0,0,0,0,0,0,0,0,0,-1,1630,890,0,0
413,134,0,0,0,0,0,0,0,0,0,-1,1637,890,0,0
420,134,0,0,0,0,0,0,0,0,0,-1,1644,890,0,0
427,134,0,0,0,0,0,0,0,0,0,-1,1651,890,0,0
434,134,0,0,0,0,0,0,0,0,0,-1,1658,890,0,0
441,134,0,0,0,0,0,0,0,0,0,-1,1665,890,0,0
448,134,0,0,0,0,0,0,0,0,0,-1,1672,890,0,0
455,134,0,0,0,0,0,0,0,0,0,-1,1679,890,0,0
462,134,0,0,0,0,0,0,0,0,0,-1,1686,890,0,0
469,134,0,0,0,0,0,0,0,0,0,-1,1693,890,0,0
476,134,0,0,0,0,0,0,0,0,0,-1,1700,890,0,0
483,134,0,0,0,0,0,0,0,0,0,-1,1707,890,0,0
490,134,0,0,0,0,0,0,0,0,0,-1,1714,890,0,0
497,134,0,0,0,0,0,0,0,0,0,-1,1721,890,0,0
504,134,0,0,0,0,0,0,0,0,0,-1,1728,890,0,0
511,134,0,0,0,0,0,0,0,0,0,-1,1735,890,0,0
518,134,0,0,0,0,0,0,0,0,0,-1,1742,890,0,0
525,134,0,0,0,0,0,0,0,0,0,-1,1749,890,0,0
532,134,0,0,0,0,0,0,0,0,0,-1,1756,890,0,0
539,134,0,0,0,0,0,0,0,0,0,-1,1763,890,0,0
546,134,0,0,0,0,0,0,0,0,0,-1,1770,890,0,0
553,134,0,0,0,0,0,0,0,0,0,-1,1777,890,0,0
560,134,0,0,0,0,0,0,0,0,0,-1,1784,890,0,0
567,134,0,0,0,0,0,0,0,0,0,-1,1791,890,0,0
574,134,0,0,0,0,0,0,0,0,0,-1,1798,890,0,0
581,134,0,0,0,0,0,0,0,0,0,-1,1805,890,0,0
588,134,0,0,0,0,0,0,0,0,0,-1,1812,890,0,0
595,134,0,0,0,0,0,0,0,0,0,-1,1819,890,0,0
602,134,0,0,0,0,0,0,0,0,0,-1,1826,890,0,0
609,134,0,0,0,0,0,0,0,0,0,-1,1833,890,0,0
616,134,0,0,0,0,0,0,0,0,0,-1,1840,890,0,0
623,134,17.1327,2.81213,0.0049904,0.000175868,-0.000991235,0.0051865,-2.02248e-05,-0.195305,0.00346442,0.0456729,1847,890,17.1327,-2.81216
630,134,17.0526,2.77966,0.00284483,0.000193592,0.000117812,0.00285006,0.000188367,0.0443203,0.00184047,0.0492042,1854,890,17.0526,-2.77967
637,134,16.9259,2.87231,0.000965367,0.000495713,0.000295349,0.00110787,0.000353214,0.44953,0.000653474,0.0468972,1861,890,16.9259,-2.87234
644,134,17.5944,2.72217,0,0,0,0,0,0,0,-1,1868,890,17.5943,-2.72215
651,134,17.3317,2.604,-0.00316854,0.000891902,-0.000549519,0.000964956,-0.0032416,-1.43863,0.00254446,0.0412938,1875,890,17.3316,-2.60401
658,134,17.318,2.48163,-0.00579338,0.000937591,-0.0013244,0.00118881,-0.00604459,-1.38334,0.0044789,0.0409749,1882,890,17.318,-2.4816
665,134,17.2861,2.47461,-0.00788072,0.000909688,-0.00195165,0.00132351,-0.00829455,-1.36185,0.00601956,0.0322616,1889,890,17.2861,-2.47464
672,134,17.25,2.45691,-0.00952131,0.000817411,-0.00237213,0.00133569,-0.0100396,-1.35569,0.00717982,0.0231692,1896,890,17.25,-2.4569
679,134,17.2152,2.48798,-0.0107623,0.000853194,-0.00274162,0.00146778,-0.0113769,-1.35027,0.00811819,0.0193414,1903,890,17.2153,-2.488
686,134,16.8757,2.58331,0,0,0,0,0,0,0,-1,1910,890,16.8757,-2.5833
693,134,15.8539,2.58771,-0.0119775,0.00047929,-0.00308036,0.00119939,-0.0126976,-1.34115,0.00889186,0.0329067,1917,890,15.8539,-2.58769
700,134,15.1222,2.59503,-0.0118206,0.000462302,-0.00312223,0.00121039,-0.0125687,-1.33563,0.00881034,0.0186257,1924,890,15.1222,-2.59501
707,134,15.0237,2.6344,-0.0109199,0.000359269,-0.00277986,0.00100718,-0.0115678,-1.34181,0.00806855,0.0181628,1931,890,15.0236,-2.63442
714,134,15.0687,2.82593,-0.00903318,0.000492777,-0.00269365,0.0012017,-0.0097421,-1.31345,0.00693012,0.016777,1938,890,15.0687,-2.82591
721,134,15.1746,3.0155,-0.00622349,0.000572546,-0.00272726,0.00153165,-0.00718259,-1.23263,0.00537222,0.0148094,1945,890,15.1745,-3.01551
728,134,15.1853,3.14844,-0.00255574,0.000979054,-0.0026897,0.00243007,-0.00400676,-1.07607,0.00375329,0.0161046,1952,890,15.1853,-3.14842
735,134,15.1698,3.29211,0.00182163,0.000703789,-0.00373866,0.00504292,-0.0025175,-0.711199,0.00444544,0.0210543,1959,890,15.1698,-3.2921
742,134,15.145,3.43719,0.00655159,-0.000121369,-0.00542632,0.00958513,-0.0031549,-0.509758,0.0076614,0.0136155,1966,890,15.1451,-3.4372
749,134,15.1548,3.56,0.0115459,-0.00125447,-0.00755922,0.0150505,-0.00475904,-0.434119,0.0119404,0.0115619,1973,890,15.1548,-3.56
756,134,15.1549,3.70068,0.0165446,-0.00293202,-0.0108793,0.0214075,-0.00779486,-0.420341,0.0174599,0.0160104,1980,890,15.1549,-3.70068
763,134,15.2411,3.80231,0.0214408,-0.00573232,-0.0153855,0.0283801,-0.0126716,-0.423706,0.0242727,0.0373537,1987,890,15.2411,-3.80231
770,134,15.8701,3.90106,0.0268254,-0.0100213,-0.021006,0.0363426,-0.0195385,-0.425403,0.0327456,0.0451329,1994,890,15.8702,-3.90105
777,134,16.5972,4.16913,0,0,0,0,0,0,0,-1,2001,890,16.5972,-4.16913
784,134,16.675,3.27655,0.0387319,-0.0244293,-0.0357913,0.0548834,-0.0405808,-0.423908,0.0553221,0.0483694,2008,890,16.675,-3.27656
791,134,17.1782,3.00006,0.0440804,-0.0351721,-0.0446335,0.0641399,-0.0552316,-0.422378,0.0689831,0.0465648,2015,890,17.1782,-3.00007
798,134,0,0,0,0,0,0,0,0,0,-1,2022,890,0,0
805,134,0,0,0,0,0,0,0,0,0,-1,2029,890,0,0
812,134,0,0,0,0,0,0,0,0,0,-1,2036,890,0,0
-700,127,0,0,0,0,0,0,0,0,0,-1,524,897,0,0
-693,127,0,0,0,0,0,0,0,0,0,-1,531,897,0,0
-686,127,0,0,0,0,0,0,0,0,0,-1,538,897,0,0
-679,127,-13.4906,-1.35516,0.0611823,-0.0309872,-0.0359474,0.0735442,-0.0433491,-0.331222,0.0682348,0.0428538,545,897,-13.4906,1.35519
-672,127,-13.2955,-1.41266,0.0616385,-0.0200186,-0.0190569,0.0658669,-0.0242471,-0.218349,0.0538453,0.0436565,552,897,-13.2955,1.41265
-665,127,-13.202,-1.50226,0.0572474,-0.0122536,-0.00785952,0.0581251,-0.0131313,-0.111214,0.0437885,0.0453179,559,897,-13.202,1.50227
-658,127,-11.3999,0.222229,0,0,0,0,0,0,0,-1,566,897,-11.3999,-0.222225
-651,127,-11.4092,1.07794,0,0,0,0,0,0,0,-1,573,897,-11.4092,-1.07794
-644,127,-10.928,1.04907,0,0,0,0,0,0,0,-1,580,897,-10.928,-1.04909
-637,127,-10.0137,0.622192,0.0264202,0.00137878,0.00758987,0.028541,-0.000742031,0.272477,0.0192795,0.0404466,587,897,-10.0137,-0.622209
-630,127,-9.82068,1.31006,0.0194292,0.00218619,0.00736912,0.0221494,-0.000534018,0.353619,0.0149474,0.0315684,594,897,-9.82067,-1.31008
-623,127,-9.83685,1.35016,0.0142507,0.00307767,0.00736109,0.0179051,-0.000576754,0.460805,0.0121335,0.0137841,601,897,-9.83688,-1.35018
-616,127,-9.86285,1.26825,0.00958739,0.0036083,0.00725195,0.0144418,-0.00124614,0.589891,0.010069,0.0100512,608,897,-9.86288,-1.26824
-609,127,-9.8736,1.14667,0.00219354,0.00236389,0.00501617,0.0072956,-0.00273817,0.793887,0.00598888,0.012994,615,897,-9.87361,-1.14664
-602,127,-9.8576,1.03448,-0.00084075,0.00121409,0.00328726,0.00363075,-0.00325741,0.936861,0.00397883,0.0139121,622,897,-9.85759,-1.03451
-595,127,-9.84894,0.960754,-0.00380022,0.000904309,0.00284596,0.00224429,-0.0051402,1.13075,0.00437135,0.0138138,629,897,-9.84893,-0.960777
-588,127,-9.89606,0.891296,-0.00585934,0.00108511,0.00249595,0.00188911,-0.00666335,1.25917,0.00518788,0.018604,636,897,-9.89606,-0.891302
-581,127,-9.92737,0.75592,-0.00712485,0.000234917,0.00234652,0.000919401,-0.00780933,1.28697,0.00553819,0.0253306,643,897,-9.92738,-0.755909
-574,127,-9.90698,0.618469,-0.00803545,-0.000135216,0.0025182,0.000599193,-0.00876986,1.28703,0.00605619,0.0245532,650,897,-9.90698,-0.618459
-567,127,-9.86371,0.433472,-0.00841227,-4.66959e-05,0.0026127,0.000702242,-0.00916121,1.29163,0.0063545,0.0385342,657,897,-9.8637,-0.433496
-560,127,-10.424,0.512695,-0.00838757,-0.000179657,0.00270626,0.000632312,-0.00919954,1.27931,0.00635429,0.0393476,664,897,-10.4239,-0.512712
-553,127,-11.2554,0.487061,-0.0081055,-0.000137214,0.00285213,0.000778446,-0.00902116,1.26015,0.00628967,0.0370279,671,897,-11.2554,-0.487044
-546,127,-11.1583,0.615234,-0.00730286,-3.79011e-05,0.00274812,0.000884513,-0.00822528,1.24696,0.00580088,0.0231371,678,897,-11.1582,-0.615212
-539,127,-11.1448,0.604614,-0.00584321,0.00011294,0.00244496,0.000988013,-0.00671828,1.22709,0.00484191,0.0209452,685,897,-11.1448,-0.604636
-532,127,-11.1515,0.651245,-0.00364165,0.000346797,0.00190272,0.00110889,-0.00440374,1.18984,0.00336689,0.0172896,692,897,-11.1515,-0.651222
-525,127,-11.0898,0.83844,-0.000597215,0.00067773,0.0010675,0.00128361,-0.0012031,1.05456,0.00143595,0.0323031,699,897,-11.0898,-0.838415
-518,127,-11.0344,0.919922,0.0032887,0.00114648,-8.72268e-05,0.00329225,0.00114294,-0.0406284,0.00193015,0.0376222,706,897,-11.0343,-0.919949
-511,127,-10.876,0.752563,0.00693207,0.00178495,-0.00120768,0.00720135,0.00151568,-0.219379,0.0043839,0.0422634,713,897,-10.8759,-0.752583
-504,127,0,0,0,0,0,0,0,0,0,-1,720,897,0,0
-497,127,0,0,0,0,0,0,0,0,0,-1,727,897,0,0
-490,127,0,0,0,0,0,0,0,0,0,-1,734,897,0,0
-483,127,0,0,0,0,0,0,0,0,0,-1,741,897,0,0
-476,127,0,0,0,0,0,0,0,0,0,-1,748,897,0,0
-469,127,0,0,0,0,0,0,0,0,0,-1,755,897,0,0
-462,127,0,0,0,0,0,0,0,0,0,-1,762,897,0,0
-455,127,0,0,0,0,0,0,0,0,0,-1,769,897,0,0
-448,127,0,0,0,0,0,0,0,0,0,-1,776,897,0,0
-441,127,0,0,0,0,0,0,0,0,0,-1,783,897,0,0
-434,127,0,0,0,0,0,0,0,0,0,-1,790,897,0,0
-427,127,0,0,0,0,0,0,0,0,0,-1,797,897,0,0
-420,127,0,0,0,0,0,0,0,0,0,-1,804,897,0,0
-413,127,0,0,0,0,0,0,0,0,0,-1,811,897,0,0
-406,127,0,0,0,0,0,0,0,0,0,-1,818,897,0,0
-399,127,0,0,0,0,0,0,0,0,0,-1,825,897,0,0
-392,127,0,0,0,0,0,0,0,0,0,-1,832,897,0,0
-385,127,0,0,0,0,0,0,0,0,0,-1,839,897,0,0
-378,127,0,0,0,0,0,0,0,0,0,-1,846,897,0,0
-371,127,0,0,0,0,0,0,0,0,0,-1,853,897,0,0
-364,127,0,0,0,0,0,0,0,0,0,-1,860,897,0,0
-357,127,0,0,0,0,0,0,0,0,0,-1,867,897,0,0
-350,127,0,0,0,0,0,0,0,0,0,-1,874,897,0,0
-343,127,0,0,0,0,0,0,0,0,0,-1,881,897,0,0
-336,127,0,0,0,0,0,0,0,0,0,-1,888,897,0,0
-329,127,0,0,0,0,0,0,0,0,0,-1,895,897,0,0
-322,127,0,0,0,0,0,0,0,0,0,-1,902,897,0,0
-315,127,0,0,0,0,0,0,0,0,0,-1,909,897,0,0
-308,127,0,0,0,0,0,0,0,0,0,-1,916,897,0,0
-301,127,0,0,0,0,0,0,0,0,0,-1,923,897,0,0
-294,127,0,0,0,0,0,0,0,0,0,-1,930,897,0,0
-287,127,0,0,0,0,0,0,0,0,0,-1,937,897,0,0
-280,127,0,0,0,0,0,0,0,0,0,-1,944,897,0,0
-273,127,0,0,0,0,0,0,0,0,0,-1,951,897,0,0
-266,127,0,0,0,0,0,0,0,0,0,-1,958,897,0,0
-259,127,0,0,0,0,0,0,0,0,0,-1,965,897,0,0
-252,127,0,0,0,0,0,0,0,0,0,-1,972,897,0,0
-245,127,0,0,0,0,0,0,0,0,0,-1,979,897,0,0
-238,127,0,0,0,0,0,0,0,0,0,-1,986,897,0,0
-231,127,0,0,0,0,0,0,0,0,0,-1,993,897,0,0
-224,127,0,0,0,0,0,0,0,0,0,-1,1000,897,0,0
-217,127,0,0,0,0,0,0,0,0,0,-1,1007,897,0,0
-210,127,0,0,0,0,0,0,0,0,0,-1,1014,897,0,0
-203,127,0,0,0,0,0,0,0,0,0,-1,1021,897,0,0
-196,127,0,0,0,0,0,0,0,0,0,-1,1028,897,0,0
-189,127,0,0,0,0,0,0,0,0,0,-1,1035,897,0,0
-182,127,0,0,0,0,0,0,0,0,0,-1,1042,897,0,0
-175,127,0,0,0,0,0,0,0,0,0,-1,1049,897,0,0
-168,127,0,0,0,0,0,0,0,0,0,-1,1056,897,0,0
-161,127,0,0,0,0,0,0,0,0,0,-1,1063,897,0,0
-154,127,0,0,0,0,0,0,0,0,0,-1,1070,897,0,0
-147,127,0,0,0,0,0,0,0,0,0,-1,1077,897,0,0
-140,127,0,0,0,0,0,0,0,0,0,-1,1084,897,0,0
-133,127,0,0,0,0,0,0,0,0,0,-1,1091,897,0,0
-126,127,0,0,0,0,0,0,0,0,0,-1,1098,897,0,0
-119,127,0,0,0,0,0,0,0,0,0,-1,1105,897,0,0
-112,127,0,0,0,0,0,0,0,0,0,-1,1112,897,0,0
-105,127,0,0,0,0,0,0,0,0,0,-1,1119,897,0,0
-98,127,0,0,0,0,0,0,0,0,0,-1,1126,897,0,0
-91,127,0,0,0,0,0,0,0,0,0,-1,1133,897,0,0
-84,127,0,0,0,0,0,0,0,0,0,-1,1140,897,0,0
-77,127,0,0,0,0,0,0,0,0,0,-1,1147,897,0,0
-70,127,0,0,0,0,0,0,0,0,0,-1,1154,897,0,0
-63,127,0,0,0,0,0,0,0,0,0,-1,1161,897,0,0
-56,127,0,0,0,0,0,0,0,0,0,-1,1168,897,0,0
-49,127,0,0,0,0,0,0,0,0,0,-1,1175,897,0,0
-42,127,0,0,0,0,0,0,0,0,0,-1,1182,897,0,0
-35,127,0,0,0,0,0,0,0,0,0,-1,1189,897,0,0
-28,127,0,0,0,0,0,0,0,0,0,-1,1196,897,0,0
-21,127,0,0,0,0,0,0,0,0,0,-1,1203,897,0,0
-14,127,0,0,0,0,0,0,0,0,0,-1,1210,897,0,0
-7,127,0,0,0,0,0,0,0,0,0,-1,1217,897,0,0
0,127,0,0,0,0,0,0,0,0,0,-1,1224,897,0,0
7,127,0,0,0,0,0,0,0,0,0,-1,1231,897,0,0
14,127,0,0,0,0,0,0,0,0,0,-1,1238,897,0,0
21,127,0,0,0,0,0,0,0,0,0,-1,1245,897,0,0
28,127,0,0,0,0,0,0,0,0,0,-1,1252,897,0,0
35,127,0,0,0,0,0,0,0,0,0,-1,1259,897,0,0
42,127,0,0,0,0,0,0,0,0,0,-1,1266,897,0,0
49,127,0,0,0,0,0,0,0,0,0,-1,1273,897,0,0
56,127,0,0,0,0,0,0,0,0,0,-1,1280,897,0,0
63,127,0,0,0,0,0,0,0,0,0,-1,1287,897,0,0
70,127,0,0,0,0,0,0,0,0,0,-1,1294,897,0,0
77,127,0,0,0,0,0,0,0,0,0,-1,1301,897,0,0
84,127,0,0,0,0,0,0,0,0,0,-1,1308,897,0,0
91,127,0,0,0,0,0,0,0,0,0,-1,1315,897,0,0
98,127,0,0,0,0,0,0,0,0,0,-1,1322,897,0,0
105,127,0,0,0,0,0,0,0,0,0,-1,1329,897,0,0
112,127,0,0,0,0,0,0,0,0,0,-1,1336,897,0,0
119,127,0,0,0,0,0,0,0,0,0,-1,1343,897,0,0
126,127,0,0,0,0,0,0,0,0,0,-1,1350,897,0,0
133,127,0,0,0,0,0,0,0,0,0,-1,1357,897,0,0
140,127,0,0,0,0,0,0,0,0,0,-1,1364,897,0,0
147,127,0,0,0,0,0,0,0,0,0,-1,1371,897,0,0
154,127,0,0,0,0,0,0,0,0,0,-1,1378,897,0,0
161,127,0,0,0,0,0,0,0,0,0,-1,1385,897,0,0
168,127,0,0,0,0,0,0,0,0,0,-1,1392,897,0,0
175,127,0,0,0,0,0,0,0,0,0,-1,1399,897,0,0
182,127,0,0,0,0,0,0,0,0,0,-1,1406,897,0,0
189,127,0,0,0,0,0,0,0,0,0,-1,1413,897,0,0
196,127,0,0,0,0,0,0,0,0,0,-1,1420,897,0,0
203,127,0,0,0,0,0,0,0,0,0,-1,1427,897,0,0
210,127,0,0,0,0,0,0,0,0,0,-1,1434,897,0,0
217,127,0,0,0,0,0,0,0,0,0,-1,1441,897,0,0
224,127,0,0,0,0,0,0,0,0,0,-1,1448,897,0,0
231,127,0,0,0,0,0,0,0,0,0,-1,1455,897,0,0
238,127,0,0,0,0,0,0,0,0,0,-1,1462,897,0,0
245,127,0,0,0,0,0,0,0,0,0,-1,1469,897,0,0
252,127,0,0,0,0,0,0,0,0,0,-1,1476,897,0,0
259,127,0,0,0,0,0,0,0,0,0,-1,1483,897,0,0
266,127,0,0,0,0,0,0,0,0,0,-1,1490,897,0,0
273,127,0,0,0,0,0,0,0,0,0,-1,1497,897,0,0
280,127,0,0,0,0,0,0,0,0,0,-1,1504,897,0,0
287,127,0,0,0,0,0,0,0,0,0,-1,1511,897,0,0
294,127,0,0,0,0,0,0,0,0,0,-1,1518,897,0,0
301,127,0,0,0,0,0,0,0,0,0,-1,1525,897,0,0
308,127,0,0,0,0,0,0,0,0,0,-1,1532,897,0,0
315,127,0,0,0,0,0,0,0,0,0,-1,1539,897,0,0
322,127,0,0,0,0,0,0,0,0,0,-1,1546,897,0,0
329,127,0,0,0,0,0,0,0,0,0,-1,1553,897,0,0
336,127,0,0,0,0,0,0,0,0,0,-1,1560,897,0,0
343,127,0,0,0,0,0,0,0,0,0,-1,1567,897,0,0
350,127,0,0,0,0,0,0,0,0,0,-1,1574,897,0,0
357,127,0,0,0,0,0,0,0,0,0,-1,1581,897,0,0
364,127,0,0,0,0,0,0,0,0,0,-1,1588,897,0,0
371,127,0,0,0,0,0,0,0,0,0,-1,1595,897,0,0
378,127,0,0,0,0,0,0,0,0,0,-1,1602,897,0,0
385,127,0,0,0,0,0,0,0,0,0,-1,1609,897,0,0
392,127,0,0,0,0,0,0,0,0,0,-1,1616,897,0,0
399,127,0,0,0,0,0,0,0,0,0,-1,1623,897,0,0
406,127,0,0,0,0,0,0,0,0,0,-1,1630,897,0,0
413,127,0,0,0,0,0,0,0,0,0,-1,1637,897,0,0
420,127,0,0,0,0,0,0,0,0,0,-1,1644,897,0,0
427,127,0,0,0,0,0,0,0,0,0,-1,1651,897,0,0
434,127,0,0,0,0,0,0,0,0,0,-1,1658,897,0,0
441,127,0,0,0,0,0,0,0,0,0,-1,1665,897,0,0
448,127,0,0,0,0,0,0,0,0,0,-1,1672,897,0,0
455,127,0,0,0,0,0,0,0,0,0,-1,1679,897,0,0
462,127,0,0,0,0,0,0,0,0,0,-1,1686,897,0,0
469,127,0,0,0,0,0,0,0,0,0,-1,1693,897,0,0
476,127,0,0,0,0,0,0,0,0,0,-1,1700,897,0,0
483,127,0,0,0,0,0,0,0,0,0,-1,1707,897,0,0
490,127,0,0,0,0,0,0,0,0,0,-1,1714,897,0,0
497,127,0,0,0,0,0,0,0,0,0,-1,1721,897,0,0
504,127,0,0,0,0,0,0,0,0,0,-1,1728,897,0,0
511,127,0,0,0,0,0,0,0,0,0,-1,1735,897,0,0
518,127,0,0,0,0,0,0,0,0,0,-1,1742,897,0,0
525,127,0,0,0,0,0,0,0,0,0,-1,1749,897,0,0
532,127,0,0,0,0,0,0,0,0,0,-1,1756,897,0,0
539,127,0,0,0,0,0,0,0,0,0,-1,1763,897,0,0
546,127,0,0,0,0,0,0,0,0,0,-1,1770,897,0,0
553,127,0,0,0,0,0,0,0,0,0,-1,1777,897,0,0
560,127,0,0,0,0,0,0,0,0,0,-1,1784,897,0,0
567,127,0,0,0,0,0,0,0,0,0,-1,1791,897,0,0
574,127,0,0,0,0,0,0,0,0,0,-1,1798,897,0,0
581,127,0,0,0,0,0,0,0,0,0,-1,1805,897,0,0
588,127,0,0,0,0,0,0,0,0,0,-1,1812,897,0,0
595,127,0,0,0,0,0,0,0,0,0,-1,1819,897,0,0
602,127,0,0,0,0,0,0,0,0,0,-1,1826,897,0,0
609,127,0,0,0,0,0,0,0,0,0,-1,1833,897,0,0
616,127,0,0,0,0,0,0,0,0,0,-1,1840,897,0,0
623,127,0,0,0,0,0,0,0,0,0,-1,1847,897,0,0
630,127,17.0117,2.79431,0.00357397,0.0018665,0.000129822,0.00358378,0.00185669,0.0754538,0.00206955,0.0445635,1854,897,17.0117,-2.7943
637,127,17.3895,2.48322,0.00150647,0.00180937,0.000426936,0.00211092,0.00120492,0.955846,0.00122281,0.04196,1861,897,17.3895,-2.48324
644,127,17.4808,2.65002,8.16154e-05,0.00170912,0.00056963,0.00188868,-9.79452e-05,1.26543,0.00129301,0.0388434,1868,897,17.4808,-2.65001
651,127,17.2167,2.59521,-0.0025389,0.00160431,5.66558e-05,0.00160509,-0.00253968,1.55713,0.00241317,0.0428279,1875,897,17.2167,-2.5952
658,127,17.1945,2.5506,-0.00554386,0.00146768,-0.000642433,0.00152606,-0.00560223,-1.48018,0.00433401,0.0429173,1882,897,17.1944,-2.55057
665,127,17.2413,2.45715,-0.00808065,0.0013019,-0.00125633,0.00146721,-0.00824596,-1.43997,0.00604601,0.0380383,1889,897,17.2413,-2.45714
672,127,17.1816,2.38525,-0.0100635,0.00111282,-0.00170813,0.00136806,-0.0103187,-1.42247,0.00737755,0.0317255,1896,897,17.1816,-2.38526
679,127,17.2281,2.38208,-0.0115594,0.00107514,-0.00211122,0.00141859,-0.0119028,-1.40953,0.00844789,0.0249621,1903,897,17.2281,-2.38206
686,127,17.2168,2.43115,0,0,0,0,0,0,0,-1,1910,897,17.2167,-2.43116
693,127,16.2117,2.51105,-0.0131939,0.00058669,-0.00254783,0.00104266,-0.0136498,-1.39371,0.0094666,0.0345146,1917,897,16.2117,-2.51104
700,127,15.3146,2.58673,-0.0130854,0.000537305,-0.00266086,0.00103859,-0.0135867,-1.38459,0.00942308,0.024929,1924,897,15.3146,-2.58675
707,127,15.1633,2.69794,-0.0123428,0.000406799,-0.00247756,0.000871324,-0.0128073,-1.38546,0.00884297,0.0224068,1931,897,15.1633,-2.69796
714,127,15.1937,2.8559,-0.0108933,0.000510015,-0.0024211,0.00100276,-0.0113861,-1.37002,0.0079461,0.0184145,1938,897,15.1937,-2.85589
721,127,15.3386,3.07324,-0.00841472,0.000567688,-0.0024877,0.00121064,-0.00905768,-1.31788,0.00647981,0.0143948,1945,897,15.3386,-3.07323
728,127,15.3217,3.16345,-0.00523976,0.000965144,-0.00261677,0.00192135,-0.00619597,-1.22046,0.00489835,0.0144456,1952,897,15.3217,-3.16345
735,127,15.2994,3.27936,-0.00157836,0.000459322,-0.00369406,0.00327246,-0.00439151,-0.919956,0.00444049,0.0198688,1959,897,15.2994,-3.27937
742,127,15.2805,3.41058,0.00220244,-0.000737104,-0.00530769,0.0062401,-0.00477477,-0.650326,0.00637817,0.0169749,1966,897,15.2805,-3.41057
749,127,15.2886,3.54468,0.00609198,-0.00236288,-0.00732067,0.0103181,-0.00658905,-0.523556,0.00984021,0.0121141,1973,897,15.2886,-3.54469
756,127,15.2867,3.66803,0.00977133,-0.0045196,-0.0103398,0.0151944,-0.00994268,-0.483045,0.0146181,0.0145187,1980,897,15.2867,-3.66802
763,127,15.3103,3.74084,0.0128345,-0.00793693,-0.0144667,0.0202575,-0.0153599,-0.474077,0.0206284,0.0221934,1987,897,15.3103,-3.74082
770,127,15.5254,3.8197,0.0160387,-0.0129449,-0.0195139,0.0258534,-0.0227595,-0.466011,0.0280856,0.0400006,1994,897,15.5254,-3.81973
777,127,15.7897,3.94269,0,0,0,0,0,0,0,-1,2001,897,15.7897,-3.94272
784,127,17.1525,3.33374,0,0,0,0,0,0,0,-1,2008,897,17.1524,-3.33371
791,127,17.6832,3.04382,0,0,0,0,0,0,0,-1,2015,897,17.6833,-3.04384
798,127,0,0,0,0,0,0,0,0,0,-1,2022,897,0,0
805,127,0,0,0,0,0,0,0,0,0,-1,2029,897,0,0
812,127,0,0,0,0,0,0,0,0,0,-1,2036,897,0,0
-700,120,0,0,0,0,0,0,0,0,0,-1,524,904,0,0
-693,120,0,0,0,0,0,0,0,0,0,-1,531,904,0,0
-686,120,0,0,0,0,0,0,0,0,0,-1,538,904,0,0
-679,120,-12.1439,-0.5495,0.0400083,-0.037764,-0.0476051,0.0625906,-0.0603463,-0.442933,0.0709816,0.0401323,545,904,-12.1439,0.549492
-672,120,-11.9402,-0.6521,0.0447477,-0.0255914,-0.0306957,0.0562592,-0.0371029,-0.358789,0.0542796,0.0380469,552,904,-11.9403,0.65213
-665,120,-11.1223,0.205139,0,0,0,0,0,0,0,-1,559,904,-11.1222,-0.205139
-658,120,-11.0963,0.462463,0,0,0,0,0,0,0,-1,566,904,-11.0963,-0.462475
-651,120,-9.63068,-1.28809,0,0,0,0,0,0,0,-1,573,904,-9.6307,1.28806
-644,120,-9.71832,-0.459412,0.0282661,-0.00241033,-0.000129608,0.0282666,-0.00241088,-0.00422489,0.0196973,0.0436739,580,904,-9.71834,0.459394
-637,120,-9.84668,0.410706,0.0220292,-0.00031699,0.00214771,0.0222337,-0.000521535,0.0949524,0.0149994,0.0365839,587,904,-9.84669,-0.410698
-630,120,-9.9765,1.36853,0.0163008,0.000881499,0.00317892,0.0169305,0.00025183,0.195545,0.011204,0.021562,594,904,-9.9765,-1.3685
-623,120,-9.98254,1.32184,0.0121013,0.00209298,0.00420853,0.0136358,0.00055854,0.349624,0.00891018,0.010859,601,904,-9.98253,-1.32185
-616,120,-9.97943,1.23535,0.00809837,0.00284122,0.00495765,0.0110812,-0.000141594,0.541639,0.00743511,0.00931132,608,904,-9.97943,-1.23536
-609,120,-9.97638,1.1369,0.00132996,0.00197144,0.00362884,0.00529369,-0.00199229,0.829477,0.00434812,0.0123469,615,904,-9.97639,-1.13689
-602,120,-9.992,1.03906,-0.00157567,0.000888135,0.00249583,0.00243953,-0.00312707,1.01465,0.00322204,0.0128565,622,904,-9.99201,-1.03909
-595,120,-9.97235,0.954773,-0.00428828,0.000631207,0.00237989,0.00159407,-0.00525114,1.18635,0.00413581,0.0163403,629,904,-9.97235,-0.954795
-588,120,-9.95929,0.843506,-0.00609565,0.00096962,0.0021902,0.00159349,-0.00671952,1.2933,0.0050946,0.0212814,636,904,-9.95931,-0.843501
-581,120,-10.0281,0.740967,-0.00719814,0.000279542,0.00211705,0.000837309,-0.00775591,1.31319,0.00547111,0.0256741,643,904,-10.0281,-0.740946
-574,120,-9.9743,0.601257,-0.00796618,2.05828e-05,0.0022344,0.000603189,-0.00854879,1.31573,0.00591052,0.0223494,650,904,-9.97428,-0.601261
-567,120,-10.1223,0.474548,-0.00819949,0.000256711,0.00229565,0.000839729,-0.00878251,1.32209,0.00615404,0.0430927,657,904,-10.1222,-0.474572
-560,120,-11.3121,0.298889,0,0,0,0,0,0,0,-1,664,904,-11.3121,-0.298889
-553,120,-11.1971,0.521606,-0.00756463,0.00037135,0.00251029,0.00109873,-0.00829201,1.28876,0.00592829,0.0359939,671,904,-11.1972,-0.521593
-546,120,-11.0903,0.718445,-0.00655076,0.000578476,0.00242823,0.00132696,-0.00729924,1.2718,0.00536348,0.0311584,678,904,-11.0903,-0.718444
-539,120,-11.0905,0.669006,-0.00488283,0.000843839,0.00216275,0.00156884,-0.00560784,1.24735,0.0043567,0.0259681,685,904,-11.0905,-0.669022
-532,120,-11.0869,0.662415,-0.00252245,0.0011771,0.00168916,0.0018323,-0.00317765,1.20077,0.00292706,0.0278968,692,904,-11.0869,-0.662403
-525,120,-11.1907,0.808228,0.000605033,0.00158302,0.000941258,0.00215472,3.33273e-05,1.02496,0.0014255,0.0344915,699,904,-11.1907,-0.808235
-518,120,-11.2452,1.07855,0.00425787,0.00209705,-0.000100391,0.00426252,0.00209239,-0.0463266,0.0024611,0.0396081,706,904,-11.2452,-1.07857
-511,120,-11.1974,1.0946,0.0069282,0.00271042,-0.000980321,0.00714491,0.0024937,-0.217568,0.00418734,0.0407556,713,904,-11.1975,-1.09459
-504,120,0,0,0,0,0,0,0,0,0,-1,720,904,0,0
-497,120,0,0,0,0,0,0,0,0,0,-1,727,904,0,0
-490,120,0,0,0,0,0,0,0,0,0,-1,734,904,0,0
-483,120,0,0,0,0,0,0,0,0,0,-1,741,904,0,0
-476,120,0,0,0,0,0,0,0,0,0,-1,748,904,0,0
-469,120,0,0,0,0,0,0,0,0,0,-1,755,904,0,0
-462,120,0,0,0,0,0,0,0,0,0,-1,762,904,0,0
-455,120,0,0,0,0,0,0,0,0,0,-1,769,904,0,0
-448,120,0,0,0,0,0,0,0,0,0,-1,776,904,0,0
-441,120,0,0,0,0,0,0,0,0,0,-1,783,904,0,0
-434,120,0,0,0,0,0,0,0,0,0,-1,790,904,0,0
-427,120,0,0,0,0,0,0,0,0,0,-1,797,904,0,0
-420,120,0,0,0,0,0,0,0,0,0,-1,804,904,0,0
-413,120,0,0,0,0,0,0,0,0,0,-1,811,904,0,0
-406,120,0,0,0,0,0,0,0,0,0,-1,818,904,0,0
-399,120,0,0,0,0,0,0,0,0,0,-1,825,904,0,0
-392,120,0,0,0,0,0,0,0,0,0,-1,832,904,0,0
-385,120,0,0,0,0,0,0,0,0,0,-1,839,904,0,0
-378,120,0,0,0,0,0,0,0,0,0,-1,846,904,0,0
-371,120,0,0,0,0,0,0,0,0,0,-1,853,904,0,0
-364,120,0,0,0,0,0,0,0,0,0,-1,860,904,0,0
-357,120,0,0,0,0,0,0,0,0,0,-1,867,904,0,0
-350,120,0,0,0,0,0,0,0,0,0,-1,874,904,0,0
-343,120,0,0,0,0,0,0,0,0,0,-1,881,904,0,0
-336,120,0,0,0,0,0,0,0,0,0,-1,888,904,0,0
-329,120,0,0,0,0,0,0,0,0,0,-1,895,904,0,0
-322,120,0,0,0,0,0,0,0,0,0,-1,902,904,0,0
-315,120,0,0,0,0,0,0,0,0,0,-1,909,904,0,0
-308,120,0,0,0,0,0,0,0,0,0,-1,916,904,0,0
-301,120,0,0,0,0,0,0,0,0,0,-1,923,904,0,0
-294,120,0,0,0,0,0,0,0,0,0,-1,930,904,0,0
-287,120,0,0,0,0,0,0,0,0,0,-1,937,904,0,0
-280,120,0,0,0,0,0,0,0,0,0,-1,944,904,0,0
-273,120,0,0,0,0,0,0,0,0,0,-1,951,904,0,0
-266,120,0,0,0,0,0,0,0,0,0,-1,958,904,0,0
-259,120,0,0,0,0,0,0,0,0,0,-1,965,904,0,0
-252,120,0,0,0,0,0,0,0,0,0,-1,972,904,0,0
-245,120,0,0,0,0,0,0,0,0,0,-1,979,904,0,0
-238,120,0,0,0,0,0,0,0,0,0,-1,986,904,0,0
-231,120,0,0,0,0,0,0,0,0,0,-1,993,904,0,0
-224,120,0,0,0,0,0,0,0,0,0,-1,1000,904,0,0
-217,120,0,0,0,0,0,0,0,0,0,-1,1007,904,0,0
-210,120,0,0,0,0,0,0,0,0,0,-1,1014,904,0,0
-203,120,0,0,0,0,0,0,0,0,0,-1,1021,904,0,0
-196,120,0,0,0,0,0,0,0,0,0,-1,1028,904,0,0
-189,120,0,0,0,0,0,0,0,0,0,-1,1035,904,0,0
-182,120,0,0,0,0,0,0,0,0,0,-1,1042,904,0,0
-175,120,0,0,0,0,0,0,0,0,0,-1,1049,904,0,0
-168,120,0,0,0,0,0,0,0,0,0,-1,1056,904,0,0
-161,120,0,0,0,0,0,0,0,0,0,-1,1063,904,0,0
-154,120,0,0,0,0,0,0,0,0,0,-1,1070,904,0,0
-147,120,0,0,0,0,0,0,0,0,0,-1,1077,904,0,0
-140,120,0,0,0,0,0,0,0,0,0,-1,1084,904,0,0
-133,120,0,0,0,0,0,0,0,0,0,-1,1091,904,0,0
-126,120,0,0,0,0,0,0,0,0,0,-1,1098,904,0,0
-119,120,0,0,0,0,0,0,0,0,0,-1,1105,904,0,0
-112,120,0,0,0,0,0,0,0,0,0,-1,1112,904,0,0
-105,120,0,0,0,0,0,0,0,0,0,-1,1119,904,0,0
-98,120,0,0,0,0,0,0,0,0,0,-1,1126,904,0,0
-91,120,0,0,0,0,0,0,0,0,0,-1,1133,904,0,0
-84,120,0,0,0,0,0,0,0,0,0,-1,1140,904,0,0
-77,120,0,0,0,0,0,0,0,0,0,-1,1147,904,0,0
-70,120,0,0,0,0,0,0,0,0,0,-1,1154,904,0,0
-63,120,0,0,0,0,0,0,0,0,0,-1,1161,904,0,0
-56,120,0,0,0,0,0,0,0,0,0,-1,1168,904,0,0
-49,120,0,0,0,0,0,0,0,0,0,-1,1175,904,0,0
-42,120,0,0,0,0,0,0,0,0,0,-1,1182,904,0,0
-35,120,0,0,0,0,0,0,0,0,0,-1,1189,904,0,0
-28,120,0,0,0,0,0,0,0,0,0,-1,1196,904,0,0
-21,120,0,0,0,0,0,0,0,0,0,-1,1203,904,0,0
-14,120,0,0,0,0,0,0,0,0,0,-1,1210,904,0,0
-7,120,0,0,0,0,0,0,0,0,0,-1,1217,904,0,0
0,120,0,0,0,0,0,0,0,0,0,-1,1224,904,0,0
7,120,0,0,0,0,0,0,0,0,0,-1,1231,904,0,0
14,120,0,0,0,0,0,0,0,0,0,-1,1238,904,0,0
21,120,0,0,0,0,0,0,0,0,0,-1,1245,904,0,0
28,120,0,0,0,0,0,0,0,0,0,-1,1252,904,0,0
35,120,0,0,0,0,0,0,0,0,0,-1,1259,904,0,0
42,120,0,0,0,0,0,0,0,0,0,-1,1266,904,0,0
49,120,0,0,0,0,0,0,0,0,0,-1,1273,904,0,0
56,120,0,0,0,0,0,0,0,0,0,-1,1280,904,0,0
63,120,0,0,0,0,0,0,0,0,0,-1,1287,904,0,0
70,120,0,0,0,0,0,0,0,0,0,-1,1294,904,0,0
77,120,0,0,0,0,0,0,0,0,0,-1,1301,904,0,0
84,120,0,0,0,0,0,0,0,0,0,-1,1308,904,0,0
91,120,0,0,0,0,0,0,0,0,0,-1,1315,904,0,0
98,120,0,0,0,0,0,0,0,0,0,-1,1322,904,0,0
105,120,0,0,0,0,0,0,0,0,0,-1,1329,904,0,0
112,120,0,0,0,0,0,0,0,0,0,-1,1336,904,0,0
119,120,0,0,0,0,0,0,0,0,0,-1,1343,904,0,0
126,120,0,0,0,0,0,0,0,0,0,-1,1350,904,0,0
133,120,0,0,0,0,0,0,0,0,0,-1,1357,904,0,0
140,120,0,0,0,0,0,0,0,0,0,-1,1364,904,0,0
147,120,0,0,0,0,0,0,0,0,0,-1,1371,904,0,0
154,120,0,0,0,0,0,0,0,0,0,-1,1378,904,0,0
161,120,0,0,0,0,0,0,0,0,0,-1,1385,904,0,0
168,120,0,0,0,0,0,0,0,0,0,-1,1392,904,0,0
175,120,0,0,0,0,0,0,0,0,0,-1,1399,904,0,0
182,120,0,0,0,0,0,0,0,0,0,-1,1406,904,0,0
189,120,0,0,0,0,0,0,0,0,0,-1,1413,904,0,0
196,120,0,0,0,0,0,0,0,0,0,-1,1420,904,0,0
203,120,0,0,0,0,0,0,0,0,0,-1,1427,904,0,0
210,120,0,0,0,0,0,0,0,0,0,-1,1434,904,0,0
217,120,0,0,0,0,0,0,0,0,0,-1,1441,904,0,0
224,120,0,0,0,0,0,0,0,0,0,-1,1448,904,0,0
231,120,0,0,0,0,0,0,0,0,0,-1,1455,904,0,0
238,120,0,0,0,0,0,0,0,0,0,-1,1462,904,0,0
245,120,0,0,0,0,0,0,0,0,0,-1,1469,904,0,0
252,120,0,0,0,0,0,0,0,0,0,-1,1476,904,0,0
259,120,0,0,0,0,0,0,0,0,0,-1,1483,904,0,0
266,120,0,0,0,0,0,0,0,0,0,-1,1490,904,0,0
273,120,0,0,0,0,0,0,0,0,0,-1,1497,904,0,0
280,120,0,0,0,0,0,0,0,0,0,-1,1504,904,0,0
287,120,0,0,0,0,0,0,0,0,0,-1,1511,904,0,0
294,120,0,0,0,0,0,0,0,0,0,-1,1518,904,0,0
301,120,0,0,0,0,0,0,0,0,0,-1,1525,904,0,0
308,120,0,0,0,0,0,0,0,0,0,-1,1532,904,0,0
315,120,0,0,0,0,0,0,0,0,0,-1,1539,904,0,0
322,120,0,0,0,0,0,0,0,0,0,-1,1546,904,0,0
329,120,0,0,0,0,0,0,0,0,0,-1,1553,904,0,0
336,120,0,0,0,0,0,0,0,0,0,-1,1560,904,0,0
343,120,0,0,0,0,0,0,0,0,0,-1,1567,904,0,0
350,120,0,0,0,0,0,0,0,0,0,-1,1574,904,0,0
357,120,0,0,0,0,0,0,0,0,0,-1,1581,904,0,0
364,120,0,0,0,0,0,0,0,0,0,-1,1588,904,0,0
371,120,0,0,0,0,0,0,0,0,0,-1,1595,904,0,0
378,120,0,0,0,0,0,0,0,0,0,-1,1602,904,0,0
385,120,0,0,0,0,0,0,0,0,0,-1,1609,904,0,0
392,120,0,0,0,0,0,0,0,0,0,-1,1616,904,0,0
399,120,0,0,0,0,0,0,0,0,0,-1,1623,904,0,0
406,120,0,0,0,0,0,0,0,0,0,-1,1630,904,0,0
413,120,0,0,0,0,0,0,0,0,0,-1,1637,904,0,0
420,120,0,0,0,0,0,0,0,0,0,-1,1644,904,0,0
427,120,0,0,0,0,0,0,0,0,0,-1,1651,904,0,0
434,120,0,0,0,0,0,0,0,0,0,-1,1658,904,0,0
441,120,0,0,0,0,0,0,0,0,0,-1,1665,904,0,0
448,120,0,0,0,0,0,0,0,0,0,-1,1672,904,0,0
455,120,0,0,0,0,0,0,0,0,0,-1,1679,904,0,0
462,120,0,0,0,0,0,0,0,0,0,-1,1686,904,0,0
469,120,0,0,0,0,0,0,0,0,0,-1,1693,904,0,0
476,120,0,0,0,0,0,0,0,0,0,-1,1700,904,0,0
483,120,0,0,0,0,0,0,0,0,0,-1,1707,904,0,0
490,120,0,0,0,0,0,0,0,0,0,-1,1714,904,0,0
497,120,0,0,0,0,0,0,0,0,0,-1,1721,904,0,0
504,120,0,0,0,0,0,0,0,0,0,-1,1728,904,0,0
511,120,0,0,0,0,0,0,0,0,0,-1,1735,904,0,0
518,120,0,0,0,0,0,0,0,0,0,-1,1742,904,0,0
525,120,0,0,0,0,0,0,0,0,0,-1,1749,904,0,0
532,120,0,0,0,0,0,0,0,0,0,-1,1756,904,0,0
539,120,0,0,0,0,0,0,0,0,0,-1,1763,904,0,0
546,120,0,0,0,0,0,0,0,0,0,-1,1770,904,0,0
553,120,0,0,0,0,0,0,0,0,0,-1,1777,904,0,0
560,120,0,0,0,0,0,0,0,0,0,-1,1784,904,0,0
567,120,0,0,0,0,0,0,0,0,0,-1,1791,904,0,0
574,120,0,0,0,0,0,0,0,0,0,-1,1798,904,0,0
581,120,0,0,0,0,0,0,0,0,0,-1,1805,904,0,0
588,120,0,0,0,0,0,0,0,0,0,-1,1812,904,0,0
595,120,0,0,0,0,0,0,0,0,0,-1,1819,904,0,0
602,120,0,0,0,0,0,0,0,0,0,-1,1826,904,0,0
609,120,0,0,0,0,0,0,0,0,0,-1,1833,904,0,0
616,120,0,0,0,0,0,0,0,0,0,-1,1840,904,0,0
623,120,0,0,0,0,0,0,0,0,0,-1,1847,904,0,0
630,120,17.4189,2.38599,0.00405393,0.00348376,0.000552296,0.00439038,0.00314731,0.547145,0.00261305,0.0389596,1854,904,17.4189,-2.38601
637,120,17.3483,2.26508,0.00196733,0.00313299,0.000798097,0.00353842,0.00156191,1.10078,0.00204758,0.0417799,1861,904,17.3483,-2.26507
644,120,17.3954,2.53076,0.000964158,0.00268618,0.00107789,0.00320473,0.000445607,1.1224,0.00200453,0.0402379,1868,904,17.3954,-2.53076
651,120,16.9802,2.74255,-0.0014635,0.00231967,0.000673719,0.00243607,-0.0015799,1.39972,0.00233612,0.0432469,1875,904,16.9802,-2.74254
658,120,16.9052,2.63593,-0.00463579,0.00199474,1.44165e-05,0.00199478,-0.00463582,1.56862,0.0039281,0.0435684,1882,904,16.9051,-2.63591
665,120,17.167,2.7171,-0.00752479,0.00168924,-0.000609219,0.00172935,-0.0075649,-1.50506,0.00570772,0.039767,1889,904,17.1671,-2.71711
672,120,17.1412,2.55273,-0.00983443,0.00140408,-0.00110233,0.00151118,-0.00994154,-1.47394,0.00718459,0.0368439,1896,904,17.1412,-2.55274
679,120,17.1819,2.40155,-0.0116047,0.00127497,-0.00153597,0.00145561,-0.0117854,-1.45373,0.00838434,0.0312905,1903,904,17.1819,-2.40156
686,120,17.4724,2.49438,0,0,0,0,0,0,0,-1,1910,904,17.4724,-2.49435
693,120,16.6814,2.58643,-0.0137131,0.000664493,-0.00204714,0.000950294,-0.0139989,-1.43208,0.00966493,0.0384367,1917,904,16.6815,-2.5864
700,120,15.7905,2.6192,-0.013745,0.000579441,-0.0022075,0.000911916,-0.0140775,-1.42131,0.00970325,0.0277801,1924,904,15.7905,-2.61918
707,120,15.3951,2.80615,-0.013075,0.000445899,-0.00210553,0.000766193,-0.0133953,-1.41983,0.00919625,0.0188511,1931,904,15.3952,-2.80615
714,120,15.4368,2.96417,-0.0116669,0.000475782,-0.00207132,0.000819389,-0.0120105,-1.40641,0.00829363,0.0160691,1938,904,15.4367,-2.96418
721,120,15.4447,3.05707,-0.00932139,0.000506741,-0.00215522,0.000958589,-0.00977323,-1.36414,0.00685739,0.0140407,1945,904,15.4447,-3.05709
728,120,15.4575,3.18829,-0.00632076,0.000894861,-0.00243037,0.00163711,-0.00706301,-1.27439,0.00533871,0.0108511,1952,904,15.4575,-3.18828
735,120,15.439,3.29974,-0.0029045,0.000178238,-0.00352733,0.00248627,-0.00521253,-0.991384,0.00453685,0.0128733,1959,904,15.439,-3.29974
742,120,15.4282,3.41278,0.000582162,-0.00133949,-0.00506359,0.00477528,-0.0055326,-0.691637,0.00595661,0.0131954,1966,904,15.4282,-3.4128
749,120,15.4166,3.52905,0.00422831,-0.00336339,-0.00695187,0.00835313,-0.00748821,-0.535508,0.00915054,0.010547,1973,904,15.4166,-3.52906
756,120,15.4139,3.63141,0.00763859,-0.00592361,-0.00970999,0.0127009,-0.010986,-0.480585,0.0136876,0.0120531,1980,904,15.4139,-3.63139
763,120,15.4042,3.66736,0.0100829,-0.00984994,-0.0135072,0.0169026,-0.0166696,-0.467555,0.0193831,0.0193997,1987,904,15.4041,-3.66736
770,120,15.4269,3.81238,0.0122634,-0.0154617,-0.0181104,0.0212078,-0.024406,-0.458741,0.0263567,0.0380805,1994,904,15.4269,-3.81238
777,120,15.5023,3.95154,0,0,0,0,0,0,0,-1,2001,904,15.5023,-3.95155
784,120,15.9851,-0.454346,0,0,0,0,0,0,0,-1,2008,904,15.9851,0.454344
791,120,16.3856,-1.39496,0,0,0,0,0,0,0,-1,2015,904,16.3856,1.39495
798,120,16.0553,3.47119,0,0,0,0,0,0,0,-1,2022,904,16.0553,-3.47118
805,120,0,0,0,0,0,0,0,0,0,-1,2029,904,0,0
812,120,0,0,0,0,0,0,0,0,0,-1,2036,904,0,0
-700,113,0,0,0,0,0,0,0,0,0,-1,524,911,0,0
-693,113,0,0,0,0,0,0,0,0,0,-1,531,911,0,0
-686,113,0,0,0,0,0,0,0,0,0,-1,538,911,0,0
-679,113,-10.6911,3.14545,0,0,0,0,0,0,0,-1,545,911,-10.6911,-3.14545
-672,113,-10.6226,0.235107,0.0288221,-0.0272488,-0.0378002,0.0478487,-0.0462755,-0.466322,0.0543452,0.0423305,552,911,-10.6226,-0.235118
-665,113,-10.8275,0.276855,0,0,0,0,0,0,0,-1,559,911,-10.8275,-0.276867
-658,113,-10.7289,0.708008,0,0,0,0,0,0,0,-1,566,911,-10.7289,-0.707999
-651,113,-10.605,0.916748,0.0260313,-0.00655753,-0.0100623,0.0288879,-0.00941405,-0.276606,0.0230467,0.0471864,573,911,-10.605,-0.916731
-644,113,-9.61884,-0.0653687,0.0216995,-0.00313711,-0.0052519,0.0227644,-0.00420201,-0.200052,0.0167535,0.0413452,580,911,-9.61885,0.0653467
-637,113,-9.84979,0.551392,0,0,0,0,0,0,0,-1,587,911,-9.84977,-0.551412
-630,113,-10.0438,1.40308,0.0126819,0.000386642,-7.06942e-05,0.0126824,0.000386235,-0.00574944,0.00832914,0.0151936,594,911,-10.0438,-1.40306
-623,113,-10.0754,1.31567,0.00951698,0.00167143,0.00169523,0.00986761,0.0013208,0.203956,0.00618533,0.0104139,601,911,-10.0754,-1.3157
-616,113,-10.0803,1.21881,0.00627006,0.00238726,0.00304121,0.00793671,0.000720612,0.501323,0.00506804,0.00899636,608,911,-10.0803,-1.21878
-609,113,-10.0839,1.13489,0.000316124,0.00173392,0.00248673,0.00361082,-0.00156078,0.924251,0.00306303,0.0104181,615,911,-10.0839,-1.13486
-602,113,-10.0984,1.03723,-0.00237771,0.000654207,0.0018173,0.00150483,-0.00322834,1.13302,0.00279243,0.013583,622,911,-10.0985,-1.03722
-595,113,-10.1034,0.970032,-0.00477281,0.000337608,0.00189716,0.000964901,-0.0054001,1.25146,0.00396107,0.0158625,629,911,-10.1034,-0.970052
-588,113,-10.082,0.876953,-0.00638434,0.000754646,0.00186712,0.00121348,-0.00684317,1.32983,0.00501578,0.0170835,636,911,-10.082,-0.876926
-581,113,-10.0772,0.7771,-0.00736272,0.00020687,0.00186557,0.000641675,-0.00779752,1.34182,0.00542491,0.018299,643,911,-10.0772,-0.777108
-574,113,-10.0387,0.60614,-0.00801599,6.16689e-05,0.00196332,0.000513583,-0.00846791,1.34456,0.00582402,0.0174237,650,911,-10.0387,-0.606151
-567,113,-10.4189,0.545105,-0.0081494,0.000417705,0.00202189,0.00087091,-0.0086026,1.35029,0.00604632,0.037593,657,911,-10.4189,-0.545093
-560,113,-11.0882,0.613037,0,0,0,0,0,0,0,-1,664,911,-11.0882,-0.613049
-553,113,-11.1348,0.623413,-0.00726413,0.00077402,0.00229197,0.00138162,-0.00787173,1.31166,0.00576382,0.0363343,671,911,-11.1348,-0.623395
-546,113,-11.0883,0.659973,-0.00605734,0.0011444,0.00226921,0.00179977,-0.00671271,1.28964,0.00518035,0.0332452,678,911,-11.0883,-0.659986
-539,113,-11.0667,0.676392,-0.00418631,0.00160889,0.00208059,0.0022785,-0.00485592,1.25943,0.0042077,0.035848,685,911,-11.0667,-0.676418
-532,113,-11.046,0.661072,-0.00162252,0.00217765,0.00169682,0.00282502,-0.00226989,1.20632,0.00294736,0.0383344,692,911,-11.046,-0.661079
-525,113,-11.1751,0.733887,0.00168703,0.00285905,0.00102434,0.00345316,0.00109291,1.04522,0.00203795,0.0378657,699,911,-11.1751,-0.733901
-518,113,-11.2349,0.937866,0.00523718,0.00370046,3.04354e-05,0.00523779,0.00369986,0.0197951,0.00310872,0.0418418,706,911,-11.2349,-0.93786
-511,113,-11.2526,0.930176,0.00719208,0.00467906,-0.000772816,0.00741072,0.00446043,-0.275706,0.00430809,0.0422859,713,911,-11.2526,-0.930195
-504,113,0,0,0,0,0,0,0,0,0,-1,720,911,0,0
-497,113,0,0,0,0,0,0,0,0,0,-1,727,911,0,0
-490,113,0,0,0,0,0,0,0,0,0,-1,734,911,0,0
-483,113,0,0,0,0,0,0,0,0,0,-1,741,911,0,0
-476,113,0,0,0,0,0,0,0,0,0,-1,748,911,0,0
-469,113,0,0,0,0,0,0,0,0,0,-1,755,911,0,0
-462,113,0,0,0,0,0,0,0,0,0,-1,762,911,0,0
-455,113,0,0,0,0,0,0,0,0,0,-1,769,911,0,0
-448,113,0,0,0,0,0,0,0,0,0,-1,776,911,0,0
-441,113,0,0,0,0,0,0,0,0,0,-1,783,911,0,0
-434,113,0,0,0,0,0,0,0,0,0,-1,790,911,0,0
-427,113,0,0,0,0,0,0,0,0,0,-1,797,911,0,0
-420,113,0,0,0,0,0,0,0,0,0,-1,804,911,0,0
-413,113,0,0,0,0,0,0,0,0,0,-1,811,911,0,0
-406,113,0,0,0,0,0,0,0,0,0,-1,818,911,0,0
-399,113,0,0,0,0,0,0,0,0,0,-1,825,911,0,0
-392,113,0,0,0,0,0,0,0,0,0,-1,832,911,0,0
-385,113,0,0,0,0,0,0,0,0,0,-1,839,911,0,0
-378,113,0,0,0,0,0,0,0,0,0,-1,846,911,0,0
-371,113,0,0,0,0,0,0,0,0,0,-1,853,911,0,0
-364,113,0,0,0,0,0,0,0,0,0,-1,860,911,0,0
-357,113,0,0,0,0,0,0,0,0,0,-1,867,911,0,0
-350,113,0,0,0,0,0,0,0,0,0,-1,874,911,0,0
-343,113,0,0,0,0,0,0,0,0,0,-1,881,911,0,0
-336,113,0,0,0,0,0,0,0,0,0,-1,888,911,0,0
-329,113,0,0,0,0,0,0,0,0,0,-1,895,911,0,0
-322,113,0,0,0,0,0,0,0,0,0,-1,902,911,0,0
-315,113,0,0,0,0,0,0,0,0,0,-1,909,911,0,0
-308,113,0,0,0,0,0,0,0,0,0,-1,916,911,0,0
-301,113,0,0,0,0,0,0,0,0,0,-1,923,911,0,0
-294,113,0,0,0,0,0,0,0,0,0,-1,930,911,0,0
-287,113,0,0,0,0,0,0,0,0,0,-1,937,911,0,0
-280,113,0,0,0,0,0,0,0,0,0,-1,944,911,0,0
-273,113,0,0,0,0,0,0,0,0,0,-1,951,911,0,0
-266,113,0,0,0,0,0,0,0,0,0,-1,958,911,0,0
-259,113,0,0,0,0,0,0,0,0,0,-1,965,911,0,0
-252,113,0,0,0,0,0,0,0,0,0,-1,972,911,0,0
-245,113,0,0,0,0,0,0,0,0,0,-1,979,911,0,0
-238,113,0,0,0,0,0,0,0,0,0,-1,986,911,0,0
-231,113,0,0,0,0,0,0,0,0,0,-1,993,911,0,0
-224,113,0,0,0,0,0,0,0,0,0,-1,1000,911,0,0
-217,113,0,0,0,0,0,0,0,0,0,-1,1007,911,0,0
-210,113,0,0,0,0,0,0,0,0,0,-1,1014,911,0,0
-203,113,0,0,0,0,0,0,0,0,0,-1,1021,911,0,0
-196,113,0,0,0,0,0,0,0,0,0,-1,1028,911,0,0
-189,113,0,0,0,0,0,0,0,0,0,-1,1035,911,0,0
-182,113,0,0,0,0,0,0,0,0,0,-1,1042,911,0,0
-175,113,0,0,0,0,0,0,0,0,0,-1,1049,911,0,0
-168,113,0,0,0,0,0,0,0,0,0,-1,1056,911,0,0
-161,113,0,0,0,0,0,0,0,0,0,-1,1063,911,0,0
-154,113,0,0,0,0,0,0,0,0,0,-1,1070,911,0,0
-147,113,0,0,0,0,0,0,0,0,0,-1,1077,911,0,0
-140,113,0,0,0,0,0,0,0,0,0,-1,1084,911,0,0
-133,113,0,0,0,0,0,0,0,0,0,-1,1091,911,0,0
-126,113,0,0,0,0,0,0,0,0,0,-1,1098,911,0,0
-119,113,0,0,0,0,0,0,0,0,0,-1,1105,911,0,0
-112,113,0,0,0,0,0,0,0,0,0,-1,1112,911,0,0
-105,113,0,0,0,0,0,0,0,0,0,-1,1119,911,0,0
-98,113,0,0,0,0,0,0,0,0,0,-1,1126,911,0,0
-91,113,0,0,0,0,0,0,0,0,0,-1,1133,911,0,0
-84,113,0,0,0,0,0,0,0,0,0,-1,1140,911,0,0
-77,113,0,0,0,0,0,0,0,0,0,-1,1147,911,0,0
-70,113,0,0,0,0,0,0,0,0,0,-1,1154,911,0,0
-63,113,0,0,0,0,0,0,0,0,0,-1,1161,911,0,0
-56,113,0,0,0,0,0,0,0,0,0,-1,1168,911,0,0
-49,113,0,0,0,0,0,0,0,0,0,-1,1175,911,0,0
-42,113,0,0,0,0,0,0,0,0,0,-1,1182,911,0,0
-35,113,0,0,0,0,0,0,0,0,0,-1,1189,911,0,0
-28,113,0,0,0,0,0,0,0,0,0,-1,1196,911,0,0
-21,113,0,0,0,0,0,0,0,0,0,-1,1203,911,0,0
-14,113,0,0,0,0,0,0,0,0,0,-1,1210,911,0,0
-7,113,0,0,0,0,0,0,0,0,0,-1,1217,911,0,0
0,113,0,0,0,0,0,0,0,0,0,-1,1224,911,0,0
7,113,0,0,0,0,0,0,0,0,0,-1,1231,911,0,0
14,113,0,0,0,0,0,0,0,0,0,-1,1238,911,0,0
21,113,0,0,0,0,0,0,0,0,0,-1,1245,911,0,0
28,113,0,0,0,0,0,0,0,0,0,-1,1252,911,0,0
35,113,0,0,0,0,0,0,0,0,0,-1,1259,911,0,0
42,113,0,0,0,0,0,0,0,0,0,-1,1266,911,0,0
49,113,0,0,0,0,0,0,0,0,0,-1,1273,911,0,0
56,113,0,0,0,0,0,0,0,0,0,-1,1280,911,0,0
63,113,0,0,0,0,0,0,0,0,0,-1,1287,911,0,0
70,113,0,0,0,0,0,0,0,0,0,-1,1294,911,0,0
77,113,0,0,0,0,0,0,0,0,0,-1,1301,911,0,0
84,113,0,0,0,0,0,0,0,0,0,-1,1308,911,0,0
91,113,0,0,0,0,0,0,0,0,0,-1,1315,911,0,0
98,113,0,0,0,0,0,0,0,0,0,-1,1322,911,0,0
105,113,0,0,0,0,0,0,0,0,0,-1,1329,911,0,0
112,113,0,0,0,0,0,0,0,0,0,-1,1336,911,0,0
119,113,0,0,0,0,0,0,0,0,0,-1,1343,911,0,0
126,113,0,0,0,0,0,0,0,0,0,-1,1350,911,0,0
133,113,0,0,0,0,0,0,0,0,0,-1,1357,911,0,0
140,113,0,0,0,0,0,0,0,0,0,-1,1364,911,0,0
147,113,0,0,0,0,0,0,0,0,0,-1,1371,911,0,0
154,113,0,0,0,0,0,0,0,0,0,-1,1378,911,0,0
161,113,0,0,0,0,0,0,0,0,0,-1,1385,911,0,0
168,113,0,0,0,0,0,0,0,0,0,-1,1392,911,0,0
175,113,0,0,0,0,0,0,0,0,0,-1,1399,911,0,0
182,113,0,0,0,0,0,0,0,0,0,-1,1406,911,0,0
189,113,0,0,0,0,0,0,0,0,0,-1,1413,911,0,0
196,113,0,0,0,0,0,0,0,0,0,-1,1420,911,0,0
203,113,0,0,0,0,0,0,0,0,0,-1,1427,911,0,0
210,113,0,0,0,0,0,0,0,0,0,-1,1434,911,0,0
217,113,0,0,0,0,0,0,0,0,0,-1,1441,911,0,0
224,113,0,0,0,0,0,0,0,0,0,-1,1448,911,0,0
231,113,0,0,0,0,0,0,0,0,0,-1,1455,911,0,0
238,113,0,0,0,0,0,0,0,0,0,-1,1462,911,0,0
245,113,0,0,0,0,0,0,0,0,0,-1,1469,911,0,0
252,113,0,0,0,0,0,0,0,0,0,-1,1476,911,0,0
259,113,0,0,0,0,0,0,0,0,0,-1,1483,911,0,0
266,113,0,0,0,0,0,0,0,0,0,-1,1490,911,0,0
273,113,0,0,0,0,0,0,0,0,0,-1,1497,911,0,0
280,113,0,0,0,0,0,0,0,0,0,-1,1504,911,0,0
287,113,0,0,0,0,0,0,0,0,0,-1,1511,911,0,0
294,113,0,0,0,0,0,0,0,0,0,-1,1518,911,0,0
301,113,0,0,0,0,0,0,0,0,0,-1,1525,911,0,0
308,113,0,0,0,0,0,0,0,0,0,-1,1532,911,0,0
315,113,0,0,0,0,0,0,0,0,0,-1,1539,911,0,0
322,113,0,0,0,0,0,0,0,0,0,-1,1546,911,0,0
329,113,0,0,0,0,0,0,0,0,0,-1,1553,911,0,0
336,113,0,0,0,0,0,0,0,0,0,-1,1560,911,0,0
343,113,0,0,0,0,0,0,0,0,0,-1,1567,911,0,0
350,113,0,0,0,0,0,0,0,0,0,-1,1574,911,0,0
357,113,0,0,0,0,0,0,0,0,0,-1,1581,911,0,0
364,113,0,0,0,0,0,0,0,0,0,-1,1588,911,0,0
371,113,0,0,0,0,0,0,0,0,0,-1,1595,911,0,0
378,113,0,0,0,0,0,0,0,0,0,-1,1602,911,0,0
385,113,0,0,0,0,0,0,0,0,0,-1,1609,911,0,0
392,113,0,0,0,0,0,0,0,0,0,-1,1616,911,0,0
399,113,0,0,0,0,0,0,0,0,0,-1,1623,911,0,0
406,113,0,0,0,0,0,0,0,0,0,-1,1630,911,0,0
413,113,0,0,0,0,0,0,0,0,0,-1,1637,911,0,0
420,113,0,0,0,0,0,0,0,0,0,-1,1644,911,0,0
427,113,0,0,0,0,0,0,0,0,0,-1,1651,911,0,0
434,113,0,0,0,0,0,0,0,0,0,-1,1658,911,0,0
441,113,0,0,0,0,0,0,0,0,0,-1,1665,911,0,0
448,113,0,0,0,0,0,0,0,0,0,-1,1672,911,0,0
455,113,0,0,0,0,0,0,0,0,0,-1,1679,911,0,0
462,113,0,0,0,0,0,0,0,0,0,-1,1686,911,0,0
469,113,0,0,0,0,0,0,0,0,0,-1,1693,911,0,0
476,113,0,0,0,0,0,0,0,0,0,-1,1700,911,0,0
483,113,0,0,0,0,0,0,0,0,0,-1,1707,911,0,0
490,113,0,0,0,0,0,0,0,0,0,-1,1714,911,0,0
497,113,0,0,0,0,0,0,0,0,0,-1,1721,911,0,0
504,113,0,0,0,0,0,0,0,0,0,-1,1728,911,0,0
511,113,0,0,0,0,0,0,0,0,0,-1,1735,911,0,0
518,113,0,0,0,0,0,0,0,0,0,-1,1742,911,0,0
525,113,0,0,0,0,0,0,0,0,0,-1,1749,911,0,0
532,113,0,0,0,0,0,0,0,0,0,-1,1756,911,0,0
539,113,0,0,0,0,0,0,0,0,0,-1,1763,911,0,0
546,113,0,0,0,0,0,0,0,0,0,-1,1770,911,0,0
553,113,0,0,0,0,0,0,0,0,0,-1,1777,911,0,0
560,113,0,0,0,0,0,0,0,0,0,-1,1784,911,0,0
567,113,0,0,0,0,0,0,0,0,0,-1,1791,911,0,0
574,113,0,0,0,0,0,0,0,0,0,-1,1798,911,0,0
581,113,0,0,0,0,0,0,0,0,0,-1,1805,911,0,0
588,113,0,0,0,0,0,0,0,0,0,-1,1812,911,0,0
595,113,0,0,0,0,0,0,0,0,0,-1,1819,911,0,0
602,113,0,0,0,0,0,0,0,0,0,-1,1826,911,0,0
609,113,0,0,0,0,0,0,0,0,0,-1,1833,911,0,0
616,113,0,0,0,0,0,0,0,0,0,-1,1840,911,0,0
623,113,0,0,0,0,0,0,0,0,0,-1,1847,911,0,0
630,113,17.4598,2.38745,0,0,0,0,0,0,0,-1,1854,911,17.4599,-2.38743
637,113,17.6682,2.18134,0,0,0,0,0,0,0,-1,1861,911,17.6682,-2.18136
644,113,17.4977,2.60645,0.00186738,0.00342849,0.00145105,0.0042956,0.00100027,1.03216,0.00259538,0.0378732,1868,911,17.4977,-2.60647
651,113,17.1097,2.78546,-0.000473585,0.0027965,0.000989439,0.00307257,-0.000749655,1.2987,0.00233867,0.0420049,1875,911,17.1097,-2.78546
658,113,17.0121,2.58606,-0.00385604,0.00229419,0.000274556,0.00230642,-0.00386827,1.52627,0.00360277,0.0431446,1882,911,17.0121,-2.58608
665,113,17.1733,2.69507,-0.00712703,0.00184939,-0.000391528,0.00186644,-0.00714408,-1.52729,0.00549163,0.0397642,1889,911,17.1733,-2.69509
672,113,17.2251,2.4715,-0.00981555,0.00147226,-0.000925339,0.00154761,-0.0098909,-1.48954,0.00716573,0.0372469,1896,911,17.2251,-2.47147
679,113,17.265,2.27069,-0.0118999,0.00125554,-0.00136192,0.00139506,-0.0120394,-1.46871,0.00852942,0.0307841,1903,911,17.2651,-2.2707
686,113,17.2513,2.40833,-0.0134146,0.000924185,-0.00159157,0.00109872,-0.0135891,-1.46157,0.00944696,0.0248847,1910,911,17.2514,-2.40834
693,113,17.0636,2.62335,-0.0144303,0.000581081,-0.00182622,0.000800056,-0.0146492,-1.45146,0.0100435,0.034539,1917,911,17.0636,-2.62337
700,113,16.2345,2.72174,-0.0145647,0.000480942,-0.00194367,0.000727979,-0.0148117,-1.44438,0.0101259,0.0404743,1924,911,16.2345,-2.72173
707,113,15.5232,2.79462,0,0,0,0,0,0,0,-1,1931,911,15.5232,-2.79459
714,113,15.5099,2.90112,-0.0125587,0.000384027,-0.00183401,0.00063889,-0.0128136,-1.43272,0.00876312,0.0167773,1938,911,15.5099,-2.90111
721,113,15.5148,3.02429,-0.0103247,0.000436787,-0.00191678,0.000767999,-0.0106559,-1.39969,0.00737328,0.0162089,1945,911,15.5148,-3.02428
728,113,15.5674,3.17902,-0.00748375,0.00088701,-0.00230594,0.0014802,-0.00807695,-1.31901,0.00593983,0.0161092,1952,911,15.5674,-3.17904
735,113,15.5607,3.30658,-0.00437311,7.79859e-05,-0.00345185,0.00195954,-0.00625467,-1.07173,0.00495387,0.0146886,1959,911,15.5607,-3.30657
742,113,15.5547,3.40356,-0.00124441,-0.00160013,-0.00499058,0.00357148,-0.00641601,-0.767586,0.00584372,0.0117743,1966,911,15.5547,-3.40359
749,113,15.5427,3.52557,0.00206561,-0.00384297,-0.00689727,0.00661466,-0.00839202,-0.583055,0.00868435,0.00916304,1973,911,15.5427,-3.52559
756,113,15.5535,3.61169,0.00516964,-0.0065899,-0.00954663,0.0105019,-0.0119222,-0.509384,0.0129552,0.0104243,1980,911,15.5534,-3.61167
763,113,15.5422,3.66718,0.00704268,-0.0107742,-0.0131638,0.0140291,-0.0177606,-0.487926,0.0183959,0.0191996,1987,911,15.5423,-3.66718
770,113,15.6045,3.72784,0.00827321,-0.0167372,-0.0175005,0.0172773,-0.0257413,-0.475182,0.0249965,0.0402664,1994,911,15.6045,-3.72787
777,113,15.6877,3.78625,0,0,0,0,0,0,0,-1,2001,911,15.6877,-3.78623
784,113,15.7916,0.260254,0.00986621,-0.035607,-0.0280209,0.0232146,-0.0489554,-0.444567,0.0425416,0.0453044,2008,911,15.7916,-0.260261
791,113,15.9712,-0.335938,0.00974476,-0.049222,-0.0338027,0.0251155,-0.0645927,-0.426772,0.0534386,0.0431668,2015,911,15.9712,0.335954
798,113,15.7362,-0.784363,0,0,0,0,0,0,0,-1,2022,911,15.7362,0.784341
805,113,0,0,0,0,0,0,0,0,0,-1,2029,911,0,0
812,113,0,0,0,0,0,0,0,0,0,-1,2036,911,0,0
-700,106,0,0,0,0,0,0,0,0,0,-1,524,918,0,0
-693,106,0,0,0,0,0,0,0,0,0,-1,531,918,0,0
-686,106,0,0,0,0,0,0,0,0,0,-1,538,918,0,0
-679,106,-10.3618,2.52344,0,0,0,0,0,0,0,-1,545,918,-10.3617,-2.52346
-672,106,-10.5686,1.74036,0,0,0,0,0,0,0,-1,552,918,-10.5686,-1.74038
-665,106,-11.7324,1.15173,0,0,0,0,0,0,0,-1,559,918,-11.7324,-1.15172
-658,106,-10.3055,0.833191,0,0,0,0,0,0,0,-1,566,918,-10.3055,-0.833221
-651,106,-10.2824,1.00885,0.0182852,-0.00481438,-0.0138228,0.0247484,-0.0112775,-0.437371,0.0212787,0.0456322,573,918,-10.2824,-1.00887
-644,106,-10.1969,1.18512,0.0156024,-0.00175254,-0.00852629,0.0190903,-0.00524044,-0.388306,0.0147865,0.0413899,580,918,-10.1969,-1.18511
-637,106,-10.0928,1.39526,0.0124157,0.000110211,-0.00472388,0.01402,-0.00149406,-0.327387,0.0098824,0.0282518,587,918,-10.0928,-1.39529
-630,106,-10.1324,1.40869,0.00921168,0.00106039,-0.00219674,0.00976599,0.000506077,-0.247176,0.0063487,0.0120245,594,918,-10.1324,-1.40868
-623,106,-10.1758,1.32184,0.0069609,0.00207512,-7.9934e-07,0.0069609,0.00207512,-0.000163606,0.00412664,0.0110224,601,918,-10.1758,-1.32183
-616,106,-10.1819,1.21912,0.0044123,0.00247533,0.00167617,0.00537966,0.00150797,0.523431,0.00320433,0.0111368,608,918,-10.1819,-1.21909
-609,106,-10.1713,1.12683,-0.000697905,0.00179454,0.00167771,0.00263824,-0.00154161,1.10484,0.00244077,0.0108824,615,918,-10.1713,-1.12681
-602,106,-10.1863,1.03564,-0.00315448,0.000610667,0.0012956,0.00101341,-0.00355722,1.26941,0.00277174,0.0120996,622,918,-10.1862,-1.03565
-595,106,-10.2313,0.955383,-0.00521465,0.000104609,0.00149825,0.000497582,-0.00560762,1.31429,0.00391483,0.0150824,629,918,-10.2312,-0.955375
-588,106,-10.2213,0.859314,-0.00660976,0.000550741,0.00155049,0.000872056,-0.00693107,1.36645,0.00493714,0.016131,636,918,-10.2213,-0.859339
-581,106,-10.1602,0.758179,-0.00745636,0.000146261,0.00156632,0.000456314,-0.00776642,1.37537,0.00533622,0.0130445,643,918,-10.1602,-0.758197
-574,106,-10.1582,0.674805,-0.00798673,0.000138459,0.00162908,0.000452917,-0.00830119,1.38011,0.00569111,0.0176841,650,918,-10.1582,-0.674815
-567,106,-10.6187,0.6922,-0.00801663,0.00059371,0.00166488,0.000904416,-0.00832733,1.3863,0.00587627,0.0318935,657,918,-10.6187,-0.692218
-560,106,-11.2178,0.732361,0,0,0,0,0,0,0,-1,664,918,-11.2178,-0.732341
-553,106,-11.1271,0.757874,-0.00688926,0.00116921,0.00193859,0.00161131,-0.00733136,1.34658,0.00550387,0.0346078,671,918,-11.1271,-0.75786
-546,106,-11.0687,0.764954,-0.00549731,0.00169668,0.00194418,0.00218848,-0.0059891,1.32304,0.00488834,0.0378666,678,918,-11.0687,-0.764929
-539,106,-10.987,0.686768,-0.00343914,0.00236012,0.00179798,0.00287232,-0.00395134,1.29327,0.00395603,0.0390526,685,918,-10.987,-0.686765
-532,106,-10.9663,0.675903,-0.000692889,0.00317681,0.00145585,0.00366335,-0.00117943,1.24827,0.002916,0.0386489,692,918,-10.9663,-0.675932
-525,106,-11.1121,0.639099,0.00274195,0.00416854,0.000787708,0.00451792,0.00239257,1.15333,0.00260994,0.0376961,699,918,-11.112,-0.63909
-518,106,-11.1779,0.366638,0.00605383,0.00541,-0.000271178,0.00615282,0.005311,-0.350032,0.00385206,0.0397086,706,918,-11.1779,-0.366639
-511,106,0,0,0,0,0,0,0,0,0,-1,713,918,0,0
-504,106,0,0,0,0,0,0,0,0,0,-1,720,918,0,0
-497,106,0,0,0,0,0,0,0,0,0,-1,727,918,0,0
-490,106,0,0,0,0,0,0,0,0,0,-1,734,918,0,0
-483,106,0,0,0,0,0,0,0,0,0,-1,741,918,0,0
-476,106,0,0,0,0,0,0,0,0,0,-1,748,918,0,0
-469,106,0,0,0,0,0,0,0,0,0,-1,755,918,0,0
-462,106,0,0,0,0,0,0,0,0,0,-1,762,918,0,0
-455,106,0,0,0,0,0,0,0,0,0,-1,769,918,0,0
-448,106,0,0,0,0,0,0,0,0,0,-1,776,918,0,0
-441,106,0,0,0,0,0,0,0,0,0,-1,783,918,0,0
-434,106,0,0,0,0,0,0,0,0,0,-1,790,918,0,0
-427,106,0,0,0,0,0,0,0,0,0,-1,797,918,0,0
-420,106,0,0,0,0,0,0,0,0,0,-1,804,918,0,0
-413,106,0,0,0,0,0,0,0,0,0,-1,811,918,0,0
-406,106,0,0,0,0,0,0,0,0,0,-1,818,918,0,0
-399,106,0,0,0,0,0,0,0,0,0,-1,825,918,0,0
-392,106,0,0,0,0,0,0,0,0,0,-1,832,918,0,0
-385,106,0,0,0,0,0,0,0,0,0,-1,839,918,0,0
-378,106,0,0,0,0,0,0,0,0,0,-1,846,918,0,0
-371,106,0,0,0,0,0,0,0,0,0,-1,853,918,0,0
-364,106,0,0,0,0,0,0,0,0,0,-1,860,918,0,0
-357,106,0,0,0,0,0,0,0,0,0,-1,867,918,0,0
-350,106,0,0,0,0,0,0,0,0,0,-1,874,918,0,0
-343,106,0,0,0,0,0,0,0,0,0,-1,881,918,0,0
-336,106,0,0,0,0,0,0,0,0,0,-1,888,918,0,0
-329,106,0,0,0,0,0,0,0,0,0,-1,895,918,0,0
-322,106,0,0,0,0,0,0,0,0,0,-1,902,918,0,0
-315,106,0,0,0,0,0,0,0,0,0,-1,909,918,0,0
-308,106,0,0,0,0,0,0,0,0,0,-1,916,918,0,0
-301,106,0,0,0,0,0,0,0,0,0,-1,923,918,0,0
-294,106,0,0,0,0,0,0,0,0,0,-1,930,918,0,0
-287,106,0,0,0,0,0,0,0,0,0,-1,937,918,0,0
-280,106,0,0,0,0,0,0,0,0,0,-1,944,918,0,0
-273,106,0,0,0,0,0,0,0,0,0,-1,951,918,0,0
-266,106,0,0,0,0,0,0,0,0,0,-1,958,918,0,0
-259,106,0,0,0,0,0,0,0,0,0,-1,965,918,0,0
-252,106,0,0,0,0,0,0,0,0,0,-1,972,918,0,0
-245,106,0,0,0,0,0,0,0,0,0,-1,979,918,0,0
-238,106,0,0,0,0,0,0,0,0,0,-1,986,918,0,0
-231,106,0,0,0,0,0,0,0,0,0,-1,993,918,0,0
-224,106,0,0,0,0,0,0,0,0,0,-1,1000,918,0,0
-217,106,0,0,0,0,0,0,0,0,0,-1,1007,918,0,0
-210,106,0,0,0,0,0,0,0,0,0,-1,1014,918,0,0
-203,106,0,0,0,0,0,0,0,0,0,-1,1021,918,0,0
-196,106,0,0,0,0,0,0,0,0,0,-1,1028,918,0,0
-189,106,0,0,0,0,0,0,0,0,0,-1,1035,918,0,0
-182,106,0,0,0,0,0,0,0,0,0,-1,1042,918,0,0
-175,106,0,0,0,0,0,0,0,0,0,-1,1049,918,0,0
-168,106,0,0,0,0,0,0,0,0,0,-1,1056,918,0,0
-161,106,0,0,0,0,0,0,0,0,0,-1,1063,918,0,0
-154,106,0,0,0,0,0,0,0,0,0,-1,1070,918,0,0
-147,106,0,0,0,0,0,0,0,0,0,-1,1077,918,0,0
-140,106,0,0,0,0,0,0,0,0,0,-1,1084,918,0,0
-133,106,0,0,0,0,0,0,0,0,0,-1,1091,918,0,0
-126,106,0,0,0,0,0,0,0,0,0,-1,1098,918,0,0
-119,106,0,0,0,0,0,0,0,0,0,-1,1105,918,0,0
-112,106,0,0,0,0,0,0,0,0,0,-1,1112,918,0,0
-105,106,0,0,0,0,0,0,0,0,0,-1,1119,918,0,0
-98,106,0,0,0,0,0,0,0,0,0,-1,1126,918,0,0
-91,106,0,0,0,0,0,0,0,0,0,-1,1133,918,0,0
-84,106,0,0,0,0,0,0,0,0,0,-1,1140,918,0,0
-77,106,0,0,0,0,0,0,0,0,0,-1,1147,918,0,0
-70,106,0,0,0,0,0,0,0,0,0,-1,1154,918,0,0
-63,106,0,0,0,0,0,0,0,0,0,-1,1161,918,0,0
-56,106,0,0,0,0,0,0,0,0,0,-1,1168,918,0,0
-49,106,0,0,0,0,0,0,0,0,0,-1,1175,918,0,0
-42,106,0,0,0,0,0,0,0,0,0,-1,1182,918,0,0
-35,106,0,0,0,0,0,0,0,0,0,-1,1189,918,0,0
-28,106,0,0,0,0,0,0,0,0,0,-1,1196,918,0,0
-21,106,0,0,0,0,0,0,0,0,0,-1,1203,918,0,0
-14,106,0,0,0,0,0,0,0,0,0,-1,1210,918,0,0
-7,106,0,0,0,0,0,0,0,0,0,-1,1217,918,0,0
0,106,0,0,0,0,0,0,0,0,0,-1,1224,918,0,0
7,106,0,0,0,0,0,0,0,0,0,-1,1231,918,0,0
14,106,0,0,0,0,0,0,0,0,0,-1,1238,918,0,0
21,106,0,0,0,0,0,0,0,0,0,-1,1245,918,0,0
28,106,0,0,0,0,0,0,0,0,0,-1,1252,918,0,0
35,106,0,0,0,0,0,0,0,0,0,-1,1259,918,0,0
42,106,0,0,0,0,0,0,0,0,0,-1,1266,918,0,0
49,106,0,0,0,0,0,0,0,0,0,-1,1273,918,0,0
56,106,0,0,0,0,0,0,0,0,0,-1,1280,918,0,0
63,106,0,0,0,0,0,0,0,0,0,-1,1287,918,0,0
70,106,0,0,0,0,0,0,0,0,0,-1,1294,918,0,0
77,106,0,0,0,0,0,0,0,0,0,-1,1301,918,0,0
84,106,0,0,0,0,0,0,0,0,0,-1,1308,918,0,0
91,106,0,0,0,0,0,0,0,0,0,-1,1315,918,0,0
98,106,0,0,0,0,0,0,0,0,0,-1,1322,918,0,0
105,106,0,0,0,0,0,0,0,0,0,-1,1329,918,0,0
112,106,0,0,0,0,0,0,0,0,0,-1,1336,918,0,0
119,106,0,0,0,0,0,0,0,0,0,-1,1343,918,0,0
126,106,0,0,0,0,0,0,0,0,0,-1,1350,918,0,0
133,106,0,0,0,0,0,0,0,0,0,-1,1357,918,0,0
140,106,0,0,0,0,0,0,0,0,0,-1,1364,918,0,0
147,106,0,0,0,0,0,0,0,0,0,-1,1371,918,0,0
154,106,0,0,0,0,0,0,0,0,0,-1,1378,918,0,0
161,106,0,0,0,0,0,0,0,0,0,-1,1385,918,0,0
168,106,0,0,0,0,0,0,0,0,0,-1,1392,918,0,0
175,106,0,0,0,0,0,0,0,0,0,-1,1399,918,0,0
182,106,0,0,0,0,0,0,0,0,0,-1,1406,918,0,0
189,106,0,0,0,0,0,0,0,0,0,-1,1413,918,0,0
196,106,0,0,0,0,0,0,0,0,0,-1,1420,918,0,0
203,106,0,0,0,0,0,0,0,0,0,-1,1427,918,0,0
210,106,0,0,0,0,0,0,0,0,0,-1,1434,918,0,0
217,106,0,0,0,0,0,0,0,0,0,-1,1441,918,0,0
224,106,0,0,0,0,0,0,0,0,0,-1,1448,918,0,0
231,106,0,0,0,0,0,0,0,0,0,-1,1455,918,0,0
238,106,0,0,0,0,0,0,0,0,0,-1,1462,918,0,0
245,106,0,0,0,0,0,0,0,0,0,-1,1469,918,0,0
252,106,0,0,0,0,0,0,0,0,0,-1,1476,918,0,0
259,106,0,0,0,0,0,0,0,0,0,-1,1483,918,0,0
266,106,0,0,0,0,0,0,0,0,0,-1,1490,918,0,0
273,106,0,0,0,0,0,0,0,0,0,-1,1497,918,0,0
280,106,0,0,0,0,0,0,0,0,0,-1,1504,918,0,0
287,106,0,0,0,0,0,0,0,0,0,-1,1511,918,0,0
294,106,0,0,0,0,0,0,0,0,0,-1,1518,918,0,0
301,106,0,0,0,0,0,0,0,0,0,-1,1525,918,0,0
308,106,0,0,0,0,0,0,0,0,0,-1,1532,918,0,0
315,106,0,0,0,0,0,0,0,0,0,-1,1539,918,0,0
322,106,0,0,0,0,0,0,0,0,0,-1,1546,918,0,0
329,106,0,0,0,0,0,0,0,0,0,-1,1553,918,0,0
336,106,0,0,0,0,0,0,0,0,0,-1,1560,918,0,0
343,106,0,0,0,0,0,0,0,0,0,-1,1567,918,0,0
350,106,0,0,0,0,0,0,0,0,0,-1,1574,918,0,0
357,106,0,0,0,0,0,0,0,0,0,-1,1581,918,0,0
364,106,0,0,0,0,0,0,0,0,0,-1,1588,918,0,0
371,106,0,0,0,0,0,0,0,0,0,-1,1595,918,0,0
378,106,0,0,0,0,0,0,0,0,0,-1,1602,918,0,0
385,106,0,0,0,0,0,0,0,0,0,-1,1609,918,0,0
392,106,0,0,0,0,0,0,0,0,0,-1,1616,918,0,0
399,106,0,0,0,0,0,0,0,0,0,-1,1623,918,0,0
406,106,0,0,0,0,0,0,0,0,0,-1,1630,918,0,0
413,106,0,0,0,0,0,0,0,0,0,-1,1637,918,0,0
420,106,0,0,0,0,0,0,0,0,0,-1,1644,918,0,0
427,106,0,0,0,0,0,0,0,0,0,-1,1651,918,0,0
434,106,0,0,0,0,0,0,0,0,0,-1,1658,918,0,0
441,106,0,0,0,0,0,0,0,0,0,-1,1665,918,0,0
448,106,0,0,0,0,0,0,0,0,0,-1,1672,918,0,0
455,106,0,0,0,0,0,0,0,0,0,-1,1679,918,0,0
462,106,0,0,0,0,0,0,0,0,0,-1,1686,918,0,0
469,106,0,0,0,0,0,0,0,0,0,-1,1693,918,0,0
476,106,0,0,0,0,0,0,0,0,0,-1,1700,918,0,0
483,106,0,0,0,0,0,0,0,0,0,-1,1707,918,0,0
490,106,0,0,0,0,0,0,0,0,0,-1,1714,918,0,0
497,106,0,0,0,0,0,0,0,0,0,-1,1721,918,0,0
504,106,0,0,0,0,0,0,0,0,0,-1,1728,918,0,0
511,106,0,0,0,0,0,0,0,0,0,-1,1735,918,0,0
518,106,0,0,0,0,0,0,0,0,0,-1,1742,918,0,0
525,106,0,0,0,0,0,0,0,0,0,-1,1749,918,0,0
532,106,0,0,0,0,0,0,0,0,0,-1,1756,918,0,0
539,106,0,0,0,0,0,0,0,0,0,-1,1763,918,0,0
546,106,0,0,0,0,0,0,0,0,0,-1,1770,918,0,0
553,106,0,0,0,0,0,0,0,0,0,-1,1777,918,0,0
560,106,0,0,0,0,0,0,0,0,0,-1,1784,918,0,0
567,106,0,0,0,0,0,0,0,0,0,-1,1791,918,0,0
574,106,0,0,0,0,0,0,0,0,0,-1,1798,918,0,0
581,106,0,0,0,0,0,0,0,0,0,-1,1805,918,0,0
588,106,0,0,0,0,0,0,0,0,0,-1,1812,918,0,0
595,106,0,0,0,0,0,0,0,0,0,-1,1819,918,0,0
602,106,0,0,0,0,0,0,0,0,0,-1,1826,918,0,0
609,106,0,0,0,0,0,0,0,0,0,-1,1833,918,0,0
616,106,0,0,0,0,0,0,0,0,0,-1,1840,918,0,0
623,106,0,0,0,0,0,0,0,0,0,-1,1847,918,0,0
630,106,17.3135,2.45209,0,0,0,0,0,0,0,-1,1854,918,17.3135,-2.45209
637,106,17.4004,2.45587,0.00345612,0.00529487,0.00196537,0.00654527,0.00220572,1.00417,0.00384527,0.038308,1861,918,17.4004,-2.45584
644,106,17.5188,2.54956,0.00273887,0.00409746,0.00193949,0.00547317,0.00136316,0.953844,0.00328992,0.0374666,1868,918,17.5188,-2.54957
651,106,17.3243,2.54706,0.000609537,0.00322157,0.00142834,0.00385097,-1.98623e-05,1.15574,0.00257396,0.0385582,1875,918,17.3244,-2.54703
658,106,17.1582,2.50287,-0.00280074,0.00257431,0.000692806,0.00266217,-0.0028886,1.44465,0.00320563,0.0410357,1882,918,17.1582,-2.50288
665,106,17.1715,2.61633,-0.00630201,0.0020333,2.55787e-05,0.00203338,-0.00630209,1.56773,0.00501843,0.0420587,1889,918,17.1715,-2.61634
672,106,17.214,2.55792,-0.00925261,0.0015946,-0.000511489,0.00161866,-0.00927667,-1.52378,0.00678863,0.0404992,1896,918,17.214,-2.5579
679,106,17.2686,2.38672,-0.0115795,0.00131314,-0.000922793,0.00137885,-0.0116452,-1.4997,0.00826152,0.0345662,1903,918,17.2686,-2.38675
686,106,17.265,2.40137,-0.0132889,0.000966565,-0.00112802,0.00105527,-0.0133776,-1.49232,0.00929016,0.0285775,1910,918,17.265,-2.40134
693,106,17.1316,2.58575,-0.0144384,0.000620933,-0.00133662,0.000738646,-0.0145561,-1.48295,0.0099594,0.0244289,1917,918,17.1316,-2.58575
700,106,16.7345,2.71729,-0.0146718,0.000517582,-0.00142338,0.000649814,-0.0148041,-1.47816,0.010093,0.0491831,1924,918,16.7345,-2.7173
707,106,15.824,2.74359,-0.0141009,0.000395891,-0.00136424,0.000523157,-0.0142281,-1.47778,0.00966453,0.0338567,1931,918,15.824,-2.74359
714,106,15.6396,2.89648,-0.0128219,0.000420034,-0.0013816,0.000562648,-0.0129645,-1.46794,0.00883653,0.0183549,1938,918,15.6396,-2.8965
721,106,15.6581,3.02716,-0.0107597,0.000465181,-0.00148116,0.000657335,-0.0109519,-1.44178,0.00752992,0.0172066,1945,918,15.6581,-3.02717
728,106,15.7009,3.1676,-0.00816217,0.000929919,-0.00199634,0.00134894,-0.00858119,-1.3639,0.00621939,0.015562,1952,918,15.7009,-3.16761
735,106,15.693,3.27618,-0.00542421,2.58855e-05,-0.00318359,0.00149144,-0.00688976,-1.13937,0.00516263,0.0138434,1959,918,15.693,-3.27616
742,106,15.6737,3.38739,-0.00269736,-0.00177303,-0.00471911,0.00250649,-0.00697688,-0.83421,0.00567438,0.0110231,1966,918,15.6737,-3.38737
749,106,15.6718,3.50842,0.000220577,-0.00420123,-0.00665202,0.00501949,-0.00900014,-0.624959,0.00820227,0.00875088,1973,918,15.6718,-3.50845
756,106,15.6733,3.60162,0.0030136,-0.00709914,-0.00920359,0.00845832,-0.0125439,-0.53421,0.0122019,0.00939979,1980,918,15.6734,-3.60163
763,106,15.66,3.69843,0.00442976,-0.0114828,-0.0126402,0.0114093,-0.0184623,-0.504505,0.0174059,0.0175744,1987,918,15.6601,-3.69844
770,106,15.6661,3.79419,0.00493705,-0.0176969,-0.0167157,0.0138065,-0.0265663,-0.487829,0.0236941,0.0367291,1994,918,15.6661,-3.7942
777,106,15.6755,3.8855,0,0,0,0,0,0,0,-1,2001,918,15.6756,-3.88551
784,106,16.4563,0.746582,0.00454065,-0.0372123,-0.0263276,0.0172643,-0.0499359,-0.450184,0.0402976,0.0469611,2008,918,16.4562,-0.74657
791,106,15.6921,0.420715,0.00331087,-0.0512868,-0.0314653,0.0176688,-0.0656448,-0.42809,0.0506899,0.0436721,2015,918,15.6922,-0.420724
798,106,15.4174,0.480896,0,0,0,0,0,0,0,-1,2022,918,15.4174,-0.480909
805,106,0,0,0,0,0,0,0,0,0,-1,2029,918,0,0
812,106,0,0,0,0,0,0,0,0,0,-1,2036,918,0,0
-700,99,0,0,0,0,0,0,0,0,0,-1,524,925,0,0
-693,99,0,0,0,0,0,0,0,0,0,-1,531,925,0,0
-686,99,0,0,0,0,0,0,0,0,0,-1,538,925,0,0
-679,99,-9.7851,2.15308,-0.0113014,-0.0337695,-0.0557645,0.0343494,-0.0794203,-0.686001,0.0673812,0.046054,545,925,-9.78508,-2.15305
-672,99,-10.4876,1.68036,0.00114807,-0.0232003,-0.043856,0.0344882,-0.0565405,-0.65001,0.053067,0.0469069,552,925,-10.4876,-1.68039
-665,99,-11.6265,1.3056,0,0,0,0,0,0,0,-1,559,925,-11.6264,-1.3056
-658,99,-9.27203,3.43567,0,0,0,0,0,0,0,-1,566,925,-9.27202,-3.43566
-651,99,-10.2047,1.61328,0,0,0,0,0,0,0,-1,573,925,-10.2047,-1.6133
-644,99,-10.1738,1.59082,0.00909475,-0.00137095,-0.0113659,0.0163746,-0.00865078,-0.569665,0.014676,0.044222,580,925,-10.1738,-1.59084
-637,99,-10.1653,1.49518,0.00739096,0.000425804,-0.00700347,0.0117299,-0.00391318,-0.554669,0.00939991,0.0283427,587,925,-10.1653,-1.49519
-630,99,-10.2411,1.40637,0.00544317,0.00129492,-0.00394984,0.00783035,-0.00109226,-0.54363,0.00561982,0.0128426,594,925,-10.2411,-1.40636
-623,99,-10.2862,1.31921,0.00412335,0.00219001,-0.0014223,0.00487638,0.00143698,-0.486929,0.00289342,0.00833066,601,925,-10.2862,-1.3192
-616,99,-10.2914,1.22522,0.00231741,0.0023784,0.000482841,0.00283171,0.0018641,0.816933,0.00166197,0.0097865,608,925,-10.2914,-1.22523
-609,99,-10.2827,1.13153,-0.00181443,0.00189288,0.00101043,0.00215039,-0.00207193,1.32126,0.0024379,0.0101028,615,925,-10.2827,-1.13152
-602,99,-10.2911,1.05194,-0.00392389,0.000630871,0.00082979,0.000777333,-0.00407035,1.39609,0.00300637,0.0104058,622,925,-10.2911,-1.05193
-595,99,-10.3258,0.968079,-0.00560579,3.70265e-05,0.00109377,0.000241617,-0.00581038,1.38588,0.00395658,0.0132842,629,925,-10.3258,-0.968106
-588,99,-10.3188,0.875854,-0.00675878,0.000449926,0.00115847,0.000631523,-0.00694037,1.41531,0.00485114,0.0129314,636,925,-10.3188,-0.87584
-581,99,-10.2505,0.772827,-0.00745617,0.000175004,0.00114985,0.000344497,-0.00762567,1.42445,0.00520241,0.0107356,643,925,-10.2505,-0.77281
-574,99,-10.3224,0.672424,-0.00785664,0.000261212,0.00117035,0.000426574,-0.008022,1.43043,0.00549571,0.0150758,650,925,-10.3224,-0.672425
-567,99,-10.7122,0.545044,-0.00779654,0.000807188,0.00118234,0.000966709,-0.00795607,1.43669,0.0056539,0.0334436,657,925,-10.7121,-0.545066
-560,99,-11.0943,0.425903,0,0,0,0,0,0,0,-1,664,925,-11.0943,-0.425933
-553,99,-11.1319,0.680054,-0.00643709,0.00162175,0.00142203,0.00186531,-0.00668065,1.40116,0.00518853,0.0386515,671,925,-11.1319,-0.680071
-546,99,-11.1086,0.73761,-0.00487237,0.00231005,0.00143322,0.00258548,-0.0051478,1.38093,0.00454577,0.0404472,678,925,-11.1086,-0.737601
-539,99,-11.0537,0.682068,-0.00263514,0.00317864,0.00130842,0.00345954,-0.00291603,1.35932,0.00368539,0.0370224,685,925,-11.0537,-0.682082
-532,99,-11.0008,0.736511,0.000287917,0.0042547,0.000990613,0.00448832,5.4294e-05,1.33919,0.00297428,0.0401778,692,925,-11.0008,-0.736491
-525,99,-11.1098,0.759155,0.00381451,0.00558736,0.000317468,0.0056425,0.00375937,1.39884,0.00331719,0.0411878,699,925,-11.1098,-0.75918
-518,99,-11.2728,0.259949,0,0,0,0,0,0,0,-1,706,925,-11.2728,-0.259957
-511,99,0,0,0,0,0,0,0,0,0,-1,713,925,0,0
-504,99,0,0,0,0,0,0,0,0,0,-1,720,925,0,0
-497,99,0,0,0,0,0,0,0,0,0,-1,727,925,0,0
-490,99,0,0,0,0,0,0,0,0,0,-1,734,925,0,0
-483,99,0,0,0,0,0,0,0,0,0,-1,741,925,0,0
-476,99,0,0,0,0,0,0,0,0,0,-1,748,925,0,0
-469,99,0,0,0,0,0,0,0,0,0,-1,755,925,0,0
-462,99,0,0,0,0,0,0,0,0,0,-1,762,925,0,0
-455,99,0,0,0,0,0,0,0,0,0,-1,769,925,0,0
-448,99,0,0,0,0,0,0,0,0,0,-1,776,925,0,0
-441,99,0,0,0,0,0,0,0,0,0,-1,783,925,0,0
-434,99,0,0,0,0,0,0,0,0,0,-1,790,925,0,0
-427,99,0,0,0,0,0,0,0,0,0,-1,797,925,0,0
-420,99,0,0,0,0,0,0,0,0,0,-1,804,925,0,0
-413,99,0,0,0,0,0,0,0,0,0,-1,811,925,0,0
-406,99,0,0,0,0,0,0,0,0,0,-1,818,925,0,0
-399,99,0,0,0,0,0,0,0,0,0,-1,825,925,0,0
-392,99,0,0,0,0,0,0,0,0,0,-1,832,925,0,0
-385,99,0,0,0,0,0,0,0,0,0,-1,839,925,0,0
-378,99,0,0,0,0,0,0,0,0,0,-1,846,925,0,0
-371,99,0,0,0,0,0,0,0,0,0,-1,853,925,0,0
-364,99,0,0,0,0,0,0,0,0,0,-1,860,925,0,0
-357,99,0,0,0,0,0,0,0,0,0,-1,867,925,0,0
-350,99,0,0,0,0,0,0,0,0,0,-1,874,925,0,0
-343,99,0,0,0,0,0,0,0,0,0,-1,881,925,0,0
-336,99,0,0,0,0,0,0,0,0,0,-1,888,925,0,0
-329,99,0,0,0,0,0,0,0,0,0,-1,895,925,0,0
-322,99,0,0,0,0,0,0,0,0,0,-1,902,925,0,0
-315,99,0,0,0,0,0,0,0,0,0,-1,909,925,0,0
-308,99,0,0,0,0,0,0,0,0,0,-1,916,925,0,0
-301,99,0,0,0,0,0,0,0,0,0,-1,923,925,0,0
-294,99,0,0,0,0,0,0,0,0,0,-1,930,925,0,0
-287,99,0,0,0,0,0,0,0,0,0,-1,937,925,0,0
-280,99,0,0,0,0,0,0,0,0,0,-1,944,925,0,0
-273,99,0,0,0,0,0,0,0,0,0,-1,951,925,0,0
-266,99,0,0,0,0,0,0,0,0,0,-1,958,925,0,0
-259,99,0,0,0,0,0,0,0,0,0,-1,965,925,0,0
-252,99,0,0,0,0,0,0,0,0,0,-1,972,925,0,0
-245,99,0,0,0,0,0,0,0,0,0,-1,979,925,0,0
-238,99,0,0,0,0,0,0,0,0,0,-1,986,925,0,0
-231,99,0,0,0,0,0,0,0,0,0,-1,993,925,0,0
-224,99,0,0,0,0,0,0,0,0,0,-1,1000,925,0,0
-217,99,0,0,0,0,0,0,0,0,0,-1,1007,925,0,0
-210,99,0,0,0,0,0,0,0,0,0,-1,1014,925,0,0
-203,99,0,0,0,0,0,0,0,0,0,-1,1021,925,0,0
-196,99,0,0,0,0,0,0,0,0,0,-1,1028,925,0,0
-189,99,0,0,0,0,0,0,0,0,0,-1,1035,925,0,0
-182,99,0,0,0,0,0,0,0,0,0,-1,1042,925,0,0
-175,99,0,0,0,0,0,0,0,0,0,-1,1049,925,0,0
-168,99,0,0,0,0,0,0,0,0,0,-1,1056,925,0,0
-161,99,0,0,0,0,0,0,0,0,0,-1,1063,925,0,0
-154,99,0,0,0,0,0,0,0,0,0,-1,1070,925,0,0
-147,99,0,0,0,0,0,0,0,0,0,-1,1077,925,0,0
-140,99,0,0,0,0,0,0,0,0,0,-1,1084,925,0,0
-133,99,0,0,0,0,0,0,0,0,0,-1,1091,925,0,0
-126,99,0,0,0,0,0,0,0,0,0,-1,1098,925,0,0
-119,99,0,0,0,0,0,0,0,0,0,-1,1105,925,0,0
-112,99,0,0,0,0,0,0,0,0,0,-1,1112,925,0,0
-105,99,0,0,0,0,0,0,0,0,0,-1,1119,925,0,0
-98,99,0,0,0,0,0,0,0,0,0,-1,1126,925,0,0
-91,99,0,0,0,0,0,0,0,0,0,-1,1133,925,0,0
-84,99,0,0,0,0,0,0,0,0,0,-1,1140,925,0,0
-77,99,0,0,0,0,0,0,0,0,0,-1,1147,925,0,0
-70,99,0,0,0,0,0,0,0,0,0,-1,1154,925,0,0
-63,99,0,0,0,0,0,0,0,0,0,-1,1161,925,0,0
-56,99,0,0,0,0,0,0,0,0,0,-1,1168,925,0,0
-49,99,0,0,0,0,0,0,0,0,0,-1,1175,925,0,0
-42,99,0,0,0,0,0,0,0,0,0,-1,1182,925,0,0
-35,99,0,0,0,0,0,0,0,0,0,-1,1189,925,0,0
-28,99,0,0,0,0,0,0,0,0,0,-1,1196,925,0,0
-21,99,0,0,0,0,0,0,0,0,0,-1,1203,925,0,0
-14,99,0,0,0,0,0,0,0,0,0,-1,1210,925,0,0
-7,99,0,0,0,0,0,0,0,0,0,-1,1217,925,0,0
0,99,0,0,0,0,0,0,0,0,0,-1,1224,925,0,0
7,99,0,0,0,0,0,0,0,0,0,-1,1231,925,0,0
14,99,0,0,0,0,0,0,0,0,0,-1,1238,925,0,0
21,99,0,0,0,0,0,0,0,0,0,-1,1245,925,0,0
28,99,0,0,0,0,0,0,0,0,0,-1,1252,925,0,0
35,99,0,0,0,0,0,0,0,0,0,-1,1259,925,0,0
42,99,0,0,0,0,0,0,0,0,0,-1,1266,925,0,0
49,99,0,0,0,0,0,0,0,0,0,-1,1273,925,0,0
56,99,0,0,0,0,0,0,0,0,0,-1,1280,925,0,0
63,99,0,0,0,0,0,0,0,0,0,-1,1287,925,0,0
70,99,0,0,0,0,0,0,0,0,0,-1,1294,925,0,0
77,99,0,0,0,0,0,0,0,0,0,-1,1301,925,0,0
84,99,0,0,0,0,0,0,0,0,0,-1,1308,925,0,0
91,99,0,0,0,0,0,0,0,0,0,-1,1315,925,0,0
98,99,0,0,0,0,0,0,0,0,0,-1,1322,925,0,0
105,99,0,0,0,0,0,0,0,0,0,-1,1329,925,0,0
112,99,0,0,0,0,0,0,0,0,0,-1,1336,925,0,0
119,99,0,0,0,0,0,0,0,0,0,-1,1343,925,0,0
126,99,0,0,0,0,0,0,0,0,0,-1,1350,925,0,0
133,99,0,0,0,0,0,0,0,0,0,-1,1357,925,0,0
140,99,0,0,0,0,0,0,0,0,0,-1,1364,925,0,0
147,99,0,0,0,0,0,0,0,0,0,-1,1371,925,0,0
154,99,0,0,0,0,0,0,0,0,0,-1,1378,925,0,0
161,99,0,0,0,0,0,0,0,0,0,-1,1385,925,0,0
168,99,0,0,0,0,0,0,0,0,0,-1,1392,925,0,0
175,99,0,0,0,0,0,0,0,0,0,-1,1399,925,0,0
182,99,0,0,0,0,0,0,0,0,0,-1,1406,925,0,0
189,99,0,0,0,0,0,0,0,0,0,-1,1413,925,0,0
196,99,0,0,0,0,0,0,0,0,0,-1,1420,925,0,0
203,99,0,0,0,0,0,0,0,0,0,-1,1427,925,0,0
210,99,0,0,0,0,0,0,0,0,0,-1,1434,925,0,0
217,99,0,0,0,0,0,0,0,0,0,-1,1441,925,0,0
224,99,0,0,0,0,0,0,0,0,0,-1,1448,925,0,0
231,99,0,0,0,0,0,0,0,0,0,-1,1455,925,0,0
238,99,0,0,0,0,0,0,0,0,0,-1,1462,925,0,0
245,99,0,0,0,0,0,0,0,0,0,-1,1469,925,0,0
252,99,0,0,0,0,0,0,0,0,0,-1,1476,925,0,0
259,99,0,0,0,0,0,0,0,0,0,-1,1483,925,0,0
266,99,0,0,0,0,0,0,0,0,0,-1,1490,925,0,0
273,99,0,0,0,0,0,0,0,0,0,-1,1497,925,0,0
280,99,0,0,0,0,0,0,0,0,0,-1,1504,925,0,0
287,99,0,0,0,0,0,0,0,0,0,-1,1511,925,0,0
294,99,0,0,0,0,0,0,0,0,0,-1,1518,925,0,0
301,99,0,0,0,0,0,0,0,0,0,-1,1525,925,0,0
308,99,0,0,0,0,0,0,0,0,0,-1,1532,925,0,0
315,99,0,0,0,0,0,0,0,0,0,-1,1539,925,0,0
322,99,0,0,0,0,0,0,0,0,0,-1,1546,925,0,0
329,99,0,0,0,0,0,0,0,0,0,-1,1553,925,0,0
336,99,0,0,0,0,0,0,0,0,0,-1,1560,925,0,0
343,99,0,0,0,0,0,0,0,0,0,-1,1567,925,0,0
350,99,0,0,0,0,0,0,0,0,0,-1,1574,925,0,0
357,99,0,0,0,0,0,0,0,0,0,-1,1581,925,0,0
364,99,0,0,0,0,0,0,0,0,0,-1,1588,925,0,0
371,99,0,0,0,0,0,0,0,0,0,-1,1595,925,0,0
378,99,0,0,0,0,0,0,0,0,0,-1,1602,925,0,0
385,99,0,0,0,0,0,0,0,0,0,-1,1609,925,0,0
392,99,0,0,0,0,0,0,0,0,0,-1,1616,925,0,0
399,99,0,0,0,0,0,0,0,0,0,-1,1623,925,0,0
406,99,0,0,0,0,0,0,0,0,0,-1,1630,925,0,0
413,99,0,0,0,0,0,0,0,0,0,-1,1637,925,0,0
420,99,0,0,0,0,0,0,0,0,0,-1,1644,925,0,0
427,99,0,0,0,0,0,0,0,0,0,-1,1651,925,0,0
434,99,0,0,0,0,0,0,0,0,0,-1,1658,925,0,0
441,99,0,0,0,0,0,0,0,0,0,-1,1665,925,0,0
448,99,0,0,0,0,0,0,0,0,0,-1,1672,925,0,0
455,99,0,0,0,0,0,0,0,0,0,-1,1679,925,0,0
462,99,0,0,0,0,0,0,0,0,0,-1,1686,925,0,0
469,99,0,0,0,0,0,0,0,0,0,-1,1693,925,0,0
476,99,0,0,0,0,0,0,0,0,0,-1,1700,925,0,0
483,99,0,0,0,0,0,0,0,0,0,-1,1707,925,0,0
490,99,0,0,0,0,0,0,0,0,0,-1,1714,925,0,0
497,99,0,0,0,0,0,0,0,0,0,-1,1721,925,0,0
504,99,0,0,0,0,0,0,0,0,0,-1,1728,925,0,0
511,99,0,0,0,0,0,0,0,0,0,-1,1735,925,0,0
518,99,0,0,0,0,0,0,0,0,0,-1,1742,925,0,0
525,99,0,0,0,0,0,0,0,0,0,-1,1749,925,0,0
532,99,0,0,0,0,0,0,0,0,0,-1,1756,925,0,0
539,99,0,0,0,0,0,0,0,0,0,-1,1763,925,0,0
546,99,0,0,0,0,0,0,0,0,0,-1,1770,925,0,0
553,99,0,0,0,0,0,0,0,0,0,-1,1777,925,0,0
560,99,0,0,0,0,0,0,0,0,0,-1,1784,925,0,0
567,99,0,0,0,0,0,0,0,0,0,-1,1791,925,0,0
574,99,0,0,0,0,0,0,0,0,0,-1,1798,925,0,0
581,99,0,0,0,0,0,0,0,0,0,-1,1805,925,0,0
588,99,0,0,0,0,0,0,0,0,0,-1,1812,925,0,0
595,99,0,0,0,0,0,0,0,0,0,-1,1819,925,0,0
602,99,0,0,0,0,0,0,0,0,0,-1,1826,925,0,0
609,99,0,0,0,0,0,0,0,0,0,-1,1833,925,0,0
616,99,0,0,0,0,0,0,0,0,0,-1,1840,925,0,0
623,99,0,0,0,0,0,0,0,0,0,-1,1847,925,0,0
630,99,0,0,0,0,0,0,0,0,0,-1,1854,925,0,0
637,99,17.1974,2.42816,0.00430771,0.00613462,0.00242407,0.00781163,0.0026307,0.965584,0.00458946,0.0432744,1861,925,17.1974,-2.42814
644,99,17.4093,2.43585,0.00356067,0.00467503,0.00224299,0.00642902,0.00180669,0.907138,0.00382861,0.0372352,1868,925,17.4093,-2.43585
651,99,17.4047,2.36267,0.00165656,0.0036363,0.00170764,0.00462023,0.000672631,1.04807,0.00288222,0.0387629,1875,925,17.4047,-2.36267
658,99,17.1355,2.74097,-0.0016297,0.00290726,0.00100221,0.00311879,-0.00184123,1.36279,0.00289515,0.0421331,1882,925,17.1355,-2.74094
665,99,17.0929,2.91052,-0.00521,0.00233696,0.000386453,0.0023567,-0.00522973,1.51977,0.00448351,0.0422913,1889,925,17.0928,-2.91051
672,99,17.189,2.7782,-0.008332,0.00190629,-0.000108275,0.00190744,-0.00833315,-1.56022,0.00628842,0.0408804,1896,925,17.189,-2.77821
679,99,17.213,2.54315,-0.0108303,0.00160412,-0.000460593,0.00162116,-0.0108473,-1.53382,0.00782809,0.0372726,1903,925,17.2131,-2.54317
686,99,17.1851,2.43951,-0.0126871,0.00126745,-0.000631755,0.001296,-0.0127156,-1.52565,0.00894046,0.0286207,1910,925,17.1851,-2.43952
693,99,17.1777,2.58453,-0.0139651,0.000941577,-0.00081508,0.000986011,-0.0140096,-1.51633,0.00968512,0.0240138,1917,925,17.1778,-2.58452
700,99,17.076,2.69952,-0.0143336,0.000855153,-0.000874639,0.000905354,-0.0143838,-1.51346,0.00990478,0.0435875,1924,925,17.0761,-2.69951
707,99,16.1425,2.7619,-0.0139082,0.000750085,-0.000851001,0.000799326,-0.0139574,-1.513,0.00958251,0.0379937,1931,925,16.1425,-2.76189
714,99,15.809,2.92163,-0.0128097,0.000760887,-0.000918099,0.000822718,-0.0128716,-1.50355,0.008868,0.016943,1938,925,15.8089,-2.92162
721,99,15.757,3.0307,-0.0110101,0.000769658,-0.00106265,0.000864752,-0.0111052,-1.48155,0.00770789,0.0190008,1945,925,15.7569,-3.03069
728,99,15.8171,3.1499,-0.00873368,0.00118884,-0.00170695,0.00147428,-0.00901911,-1.40511,0.00655962,0.0150576,1952,925,15.8172,-3.14988
735,99,15.8177,3.25232,-0.0064167,0.000173494,-0.00291979,0.00128099,-0.00752419,-1.20825,0.00549314,0.0129469,1959,925,15.8177,-3.25235
742,99,15.8049,3.362,-0.00411483,-0.00171096,-0.00443081,0.00167805,-0.00750383,-0.917845,0.00564565,0.0112044,1966,925,15.805,-3.36198
749,99,15.7915,3.48401,-0.00161925,-0.00419529,-0.00633122,0.00355364,-0.00936818,-0.685048,0.00770807,0.00923397,1973,925,15.7915,-3.48398
756,99,15.7802,3.57007,0.000868187,-0.00696194,-0.00869265,0.00648674,-0.0125805,-0.57381,0.0111943,0.0106673,1980,925,15.7801,-3.5701
763,99,15.7849,3.65045,0.00196701,-0.0112023,-0.0118393,0.00892956,-0.0181648,-0.531615,0.015943,0.0136776,1987,925,15.785,-3.65044
770,99,15.7904,3.75629,0.0019984,-0.0171189,-0.0154979,0.0106483,-0.0257688,-0.509068,0.0216211,0.027052,1994,925,15.7904,-3.7563
777,99,15.8274,3.85144,0.00148732,-0.0249891,-0.0195119,0.011828,-0.0353298,-0.487333,0.0283312,0.0427125,2001,925,15.8274,-3.85147
784,99,16.3538,1.36188,0.000516444,-0.0351817,-0.0237169,0.0123504,-0.0470157,-0.46282,0.0361704,0.045235,2008,925,16.3537,-1.36189
791,99,15.6669,1.30927,-0.00103355,-0.0478911,-0.0278096,0.0119009,-0.0608255,-0.435345,0.0450444,0.045375,2015,925,15.6669,-1.30925
798,99,15.3978,1.14459,-0.00330848,-0.0631762,-0.0311495,0.0099587,-0.0764434,-0.402649,0.0545855,0.0474913,2022,925,15.3978,-1.14459
805,99,0,0,0,0,0,0,0,0,0,-1,2029,925,0,0
812,99,0,0,0,0,0,0,0,0,0,-1,2036,925,0,0
-700,92,0,0,0,0,0,0,0,0,0,-1,524,932,0,0
-693,92,0,0,0,0,0,0,0,0,0,-1,531,932,0,0
-686,92,-8.79352,1.60803,0,0,0,0,0,0,0,-1,538,932,-8.79351,-1.60804
-679,92,-9.65729,1.84851,-0.0237793,-0.0215513,-0.0467924,0.0241404,-0.069471,-0.7973,0.056119,0.0443126,545,932,-9.65727,-1.8485
-672,92,-10.6191,1.81372,-0.0104995,-0.0128642,-0.0365558,0.0248931,-0.0482568,-0.769232,0.0429452,0.0435982,552,932,-10.6191,-1.81371
-665,92,-9.13898,3.74353,0,0,0,0,0,0,0,-1,559,932,-9.13899,-3.74353
-658,92,-9.42035,3.21265,0.00117916,-0.00223782,-0.020092,0.0196352,-0.0206938,-0.742983,0.0232866,0.0462341,566,932,-9.42036,-3.21264
-651,92,-9.73999,2.73254,0.00304736,0.000602327,-0.0139607,0.015839,-0.0121893,-0.741725,0.0162278,0.0461566,573,932,-9.74002,-2.73252
-644,92,-9.99054,2.17645,0.00351271,0.00220895,-0.00915883,0.0120428,-0.00632116,-0.749871,0.0107726,0.0384825,580,932,-9.99055,-2.17645
-637,92,-10.2828,1.51868,0.00316495,0.00287021,-0.0055948,0.00861432,-0.00257917,-0.772231,0.00676843,0.0236504,587,932,-10.2828,-1.51867
-630,92,-10.3486,1.39117,0.00231252,0.00288749,-0.00314243,0.00575556,-0.000555553,-0.831014,0.00403499,0.0120195,594,932,-10.3486,-1.39119
-623,92,-10.3619,1.30212,0.00173412,0.00314417,-0.00111063,0.00375465,0.00112364,-1.06821,0.00222522,0.00855733,601,932,-10.3619,-1.30211
-616,92,-10.3763,1.20209,0.000539565,0.00280066,0.000390069,0.00286606,0.000474164,1.40468,0.0017739,0.00820432,608,932,-10.3763,-1.20209
-609,92,-10.3861,1.11554,-0.00266112,0.00205214,0.000766114,0.00217354,-0.00278252,1.41364,0.00286857,0.00837734,615,932,-10.3861,-1.11555
-602,92,-10.3732,1.03717,-0.00451385,0.000686607,0.00048291,0.000731069,-0.00455831,1.47898,0.00330959,0.00864495,622,932,-10.3732,-1.03719
-595,92,-10.3177,0.934631,-0.00594179,5.34927e-05,0.000666919,0.000126785,-0.00601509,1.46134,0.00405298,0.0139295,629,932,-10.3178,-0.93461
-588,92,-10.3104,0.857666,-0.00690643,0.000433634,0.000721895,0.000503959,-0.00697676,1.47369,0.00482793,0.0159996,636,932,-10.3104,-0.857694
-581,92,-10.3256,0.783325,-0.00750518,0.000243157,0.000701129,0.000306089,-0.00756811,1.48128,0.00515047,0.0139326,643,932,-10.3256,-0.783344
-574,92,-10.5194,0.693787,-0.00782028,0.000370763,0.000701116,0.000430342,-0.00787986,1.48602,0.0054024,0.0200699,650,932,-10.5194,-0.693782
-567,92,-10.9227,0.540649,-0.00771233,0.000949436,0.000697543,0.00100525,-0.00776815,1.49095,0.00554431,0.0365523,657,932,-10.9227,-0.540637
-560,92,-11.0764,0.492615,-0.00720515,0.00133582,0.000786774,0.00140769,-0.00727702,1.4797,0.00538229,0.0377779,664,932,-11.0763,-0.492612
-553,92,-11.1719,0.435059,-0.00615119,0.0019451,0.000877518,0.00203912,-0.00624521,1.46406,0.00498421,0.0397999,671,932,-11.1719,-0.435053
-546,92,-11.2719,0.518433,-0.00439201,0.00275725,0.000865551,0.00286055,-0.00449531,1.45201,0.00428172,0.038083,678,932,-11.2719,-0.51843
-539,92,-11.2451,0.696289,-0.00190191,0.00379985,0.00071024,0.00388699,-0.00198905,1.44872,0.00345102,0.0346444,685,932,-11.245,-0.696317
-532,92,-11.1841,0.764587,0.00133491,0.00512163,0.000329334,0.00515006,0.00130648,1.48469,0.00309132,0.0409927,692,932,-11.1841,-0.76456
-525,92,-11.2701,0.795715,0.00513748,0.00682413,-0.000482025,0.00695217,0.00500944,-1.31117,0.00414196,0.0398858,699,932,-11.2701,-0.795694
-518,92,-11.21,0.826965,0.00821487,0.00906683,-0.00184726,0.0105366,0.00674511,-0.898717,0.00616246,0.0402222,706,932,-11.21,-0.826971
-511,92,0,0,0,0,0,0,0,0,0,-1,713,932,0,0
-504,92,0,0,0,0,0,0,0,0,0,-1,720,932,0,0
-497,92,0,0,0,0,0,0,0,0,0,-1,727,932,0,0
-490,92,0,0,0,0,0,0,0,0,0,-1,734,932,0,0
-483,92,0,0,0,0,0,0,0,0,0,-1,741,932,0,0
-476,92,0,0,0,0,0,0,0,0,0,-1,748,932,0,0
-469,92,0,0,0,0,0,0,0,0,0,-1,755,932,0,0
-462,92,0,0,0,0,0,0,0,0,0,-1,762,932,0,0
-455,92,0,0,0,0,0,0,0,0,0,-1,769,932,0,0
-448,92,0,0,0,0,0,0,0,0,0,-1,776,932,0,0
-441,92,0,0,0,0,0,0,0,0,0,-1,783,932,0,0
-434,92,0,0,0,0,0,0,0,0,0,-1,790,932,0,0
-427,92,0,0,0,0,0,0,0,0,0,-1,797,932,0,0
-420,92,0,0,0,0,0,0,0,0,0,-1,804,932,0,0
-413,92,0,0,0,0,0,0,0,0,0,-1,811,932,0,0
-406,92,0,0,0,0,0,0,0,0,0,-1,818,932,0,0
-399,92,0,0,0,0,0,0,0,0,0,-1,825,932,0,0
-392,92,0,0,0,0,0,0,0,0,0,-1,832,932,0,0
-385,92,0,0,0,0,0,0,0,0,0,-1,839,932,0,0
-378,92,0,0,0,0,0,0,0,0,0,-1,846,932,0,0
-371,92,0,0,0,0,0,0,0,0,0,-1,853,932,0,0
-364,92,0,0,0,0,0,0,0,0,0,-1,860,932,0,0
-357,92,0,0,0,0,0,0,0,0,0,-1,867,932,0,0
-350,92,0,0,0,0,0,0,0,0,0,-1,874,932,0,0
-343,92,0,0,0,0,0,0,0,0,0,-1,881,932,0,0
-336,92,0,0,0,0,0,0,0,0,0,-1,888,932,0,0
-329,92,0,0,0,0,0,0,0,0,0,-1,895,932,0,0
-322,92,0,0,0,0,0,0,0,0,0,-1,902,932,0,0
-315,92,0,0,0,0,0,0,0,0,0,-1,909,932,0,0
-308,92,0,0,0,0,0,0,0,0,0,-1,916,932,0,0
-301,92,0,0,0,0,0,0,0,0,0,-1,923,932,0,0
-294,92,0,0,0,0,0,0,0,0,0,-1,930,932,0,0
-287,92,0,0,0,0,0,0,0,0,0,-1,937,932,0,0
-280,92,0,0,0,0,0,0,0,0,0,-1,944,932,0,0
-273,92,0,0,0,0,0,0,0,0,0,-1,951,932,0,0
-266,92,0,0,0,0,0,0,0,0,0,-1,958,932,0,0
-259,92,0,0,0,0,0,0,0,0,0,-1,965,932,0,0
-252,92,0,0,0,0,0,0,0,0,0,-1,972,932,0,0
-245,92,0,0,0,0,0,0,0,0,0,-1,979,932,0,0
-238,92,0,0,0,0,0,0,0,0,0,-1,986,932,0,0
-231,92,0,0,0,0,0,0,0,0,0,-1,993,932,0,0
-224,92,0,0,0,0,0,0,0,0,0,-1,1000,932,0,0
-217,92,0,0,0,0,0,0,0,0,0,-1,1007,932,0,0
-210,92,0,0,0,0,0,0,0,0,0,-1,1014,932,0,0
-203,92,0,0,0,0,0,0,0,0,0,-1,1021,932,0,0
-196,92,0,0,0,0,0,0,0,0,0,-1,1028,932,0,0
-189,92,0,0,0,0,0,0,0,0,0,-1,1035,932,0,0
-182,92,0,0,0,0,0,0,0,0,0,-1,1042,932,0,0
-175,92,0,0,0,0,0,0,0,0,0,-1,1049,932,0,0
-168,92,0,0,0,0,0,0,0,0,0,-1,1056,932,0,0
-161,92,0,0,0,0,0,0,0,0,0,-1,1063,932,0,0
-154,92,0,0,0,0,0,0,0,0,0,-1,1070,932,0,0
-147,92,0,0,0,0,0,0,0,0,0,-1,1077,932,0,0
-140,92,0,0,0,0,0,0,0,0,0,-1,1084,932,0,0
-133,92,0,0,0,0,0,0,0,0,0,-1,1091,932,0,0
-126,92,0,0,0,0,0,0,0,0,0,-1,1098,932,0,0
-119,92,0,0,0,0,0,0,0,0,0,-1,1105,932,0,0
-112,92,0,0,0,0,0,0,0,0,0,-1,1112,932,0,0
-105,92,0,0,0,0,0,0,0,0,0,-1,1119,932,0,0
-98,92,0,0,0,0,0,0,0,0,0,-1,1126,932,0,0
-91,92,0,0,0,0,0,0,0,0,0,-1,1133,932,0,0
-84,92,0,0,0,0,0,0,0,0,0,-1,1140,932,0,0
-77,92,0,0,0,0,0,0,0,0,0,-1,1147,932,0,0
-70,92,0,0,0,0,0,0,0,0,0,-1,1154,932,0,0
-63,92,0,0,0,0,0,0,0,0,0,-1,1161,932,0,0
-56,92,0,0,0,0,0,0,0,0,0,-1,1168,932,0,0
-49,92,0,0,0,0,0,0,0,0,0,-1,1175,932,0,0
-42,92,0,0,0,0,0,0,0,0,0,-1,1182,932,0,0
-35,92,0,0,0,0,0,0,0,0,0,-1,1189,932,0,0
-28,92,0,0,0,0,0,0,0,0,0,-1,1196,932,0,0
-21,92,0,0,0,0,0,0,0,0,0,-1,1203,932,0,0
-14,92,0,0,0,0,0,0,0,0,0,-1,1210,932,0,0
-7,92,0,0,0,0,0,0,0,0,0,-1,1217,932,0,0
0,92,0,0,0,0,0,0,0,0,0,-1,1224,932,0,0
7,92,0,0,0,0,0,0,0,0,0,-1,1231,932,0,0
14,92,0,0,0,0,0,0,0,0,0,-1,1238,932,0,0
21,92,0,0,0,0,0,0,0,0,0,-1,1245,932,0,0
28,92,0,0,0,0,0,0,0,0,0,-1,1252,932,0,0
35,92,0,0,0,0,0,0,0,0,0,-1,1259,932,0,0
42,92,0,0,0,0,0,0,0,0,0,-1,1266,932,0,0
49,92,0,0,0,0,0,0,0,0,0,-1,1273,932,0,0
56,92,0,0,0,0,0,0,0,0,0,-1,1280,932,0,0
63,92,0,0,0,0,0,0,0,0,0,-1,1287,932,0,0
70,92,0,0,0,0,0,0,0,0,0,-1,1294,932,0,0
77,92,0,0,0,0,0,0,0,0,0,-1,1301,932,0,0
84,92,0,0,0,0,0,0,0,0,0,-1,1308,932,0,0
91,92,0,0,0,0,0,0,0,0,0,-1,1315,932,0,0
98,92,0,0,0,0,0,0,0,0,0,-1,1322,932,0,0
105,92,0,0,0,0,0,0,0,0,0,-1,1329,932,0,0
112,92,0,0,0,0,0,0,0,0,0,-1,1336,932,0,0
119,92,0,0,0,0,0,0,0,0,0,-1,1343,932,0,0
126,92,0,0,0,0,0,0,0,0,0,-1,1350,932,0,0
133,92,0,0,0,0,0,0,0,0,0,-1,1357,932,0,0
140,92,0,0,0,0,0,0,0,0,0,-1,1364,932,0,0
147,92,0,0,0,0,0,0,0,0,0,-1,1371,932,0,0
154,92,0,0,0,0,0,0,0,0,0,-1,1378,932,0,0
161,92,0,0,0,0,0,0,0,0,0,-1,1385,932,0,0
168,92,0,0,0,0,0,0,0,0,0,-1,1392,932,0,0
175,92,0,0,0,0,0,0,0,0,0,-1,1399,932,0,0
182,92,0,0,0,0,0,0,0,0,0,-1,1406,932,0,0
189,92,0,0,0,0,0,0,0,0,0,-1,1413,932,0,0
196,92,0,0,0,0,0,0,0,0,0,-1,1420,932,0,0
203,92,0,0,0,0,0,0,0,0,0,-1,1427,932,0,0
210,92,0,0,0,0,0,0,0,0,0,-1,1434,932,0,0
217,92,0,0,0,0,0,0,0,0,0,-1,1441,932,0,0
224,92,0,0,0,0,0,0,0,0,0,-1,1448,932,0,0
231,92,0,0,0,0,0,0,0,0,0,-1,1455,932,0,0
238,92,0,0,0,0,0,0,0,0,0,-1,1462,932,0,0
245,92,0,0,0,0,0,0,0,0,0,-1,1469,932,0,0
252,92,0,0,0,0,0,0,0,0,0,-1,1476,932,0,0
259,92,0,0,0,0,0,0,0,0,0,-1,1483,932,0,0
266,92,0,0,0,0,0,0,0,0,0,-1,1490,932,0,0
273,92,0,0,0,0,0,0,0,0,0,-1,1497,932,0,0
280,92,0,0,0,0,0,0,0,0,0,-1,1504,932,0,0
287,92,0,0,0,0,0,0,0,0,0,-1,1511,932,0,0
294,92,0,0,0,0,0,0,0,0,0,-1,1518,932,0,0
301,92,0,0,0,0,0,0,0,0,0,-1,1525,932,0,0
308,92,0,0,0,0,0,0,0,0,0,-1,1532,932,0,0
315,92,0,0,0,0,0,0,0,0,0,-1,1539,932,0,0
322,92,0,0,0,0,0,0,0,0,0,-1,1546,932,0,0
329,92,0,0,0,0,0,0,0,0,0,-1,1553,932,0,0
336,92,0,0,0,0,0,0,0,0,0,-1,1560,932,0,0
343,92,0,0,0,0,0,0,0,0,0,-1,1567,932,0,0
350,92,0,0,0,0,0,0,0,0,0,-1,1574,932,0,0
357,92,0,0,0,0,0,0,0,0,0,-1,1581,932,0,0
364,92,0,0,0,0,0,0,0,0,0,-1,1588,932,0,0
371,92,0,0,0,0,0,0,0,0,0,-1,1595,932,0,0
378,92,0,0,0,0,0,0,0,0,0,-1,1602,932,0,0
385,92,0,0,0,0,0,0,0,0,0,-1,1609,932,0,0
392,92,0,0,0,0,0,0,0,0,0,-1,1616,932,0,0
399,92,0,0,0,0,0,0,0,0,0,-1,1623,932,0,0
406,92,0,0,0,0,0,0,0,0,0,-1,1630,932,0,0
413,92,0,0,0,0,0,0,0,0,0,-1,1637,932,0,0
420,92,0,0,0,0,0,0,0,0,0,-1,1644,932,0,0
427,92,0,0,0,0,0,0,0,0,0,-1,1651,932,0,0
434,92,0,0,0,0,0,0,0,0,0,-1,1658,932,0,0
441,92,0,0,0,0,0,0,0,0,0,-1,1665,932,0,0
448,92,0,0,0,0,0,0,0,0,0,-1,1672,932,0,0
455,92,0,0,0,0,0,0,0,0,0,-1,1679,932,0,0
462,92,0,0,0,0,0,0,0,0,0,-1,1686,932,0,0
469,92,0,0,0,0,0,0,0,0,0,-1,1693,932,0,0
476,92,0,0,0,0,0,0,0,0,0,-1,1700,932,0,0
483,92,0,0,0,0,0,0,0,0,0,-1,1707,932,0,0
490,92,0,0,0,0,0,0,0,0,0,-1,1714,932,0,0
497,92,0,0,0,0,0,0,0,0,0,-1,1721,932,0,0
504,92,0,0,0,0,0,0,0,0,0,-1,1728,932,0,0
511,92,0,0,0,0,0,0,0,0,0,-1,1735,932,0,0
518,92,0,0,0,0,0,0,0,0,0,-1,1742,932,0,0
525,92,0,0,0,0,0,0,0,0,0,-1,1749,932,0,0
532,92,0,0,0,0,0,0,0,0,0,-1,1756,932,0,0
539,92,0,0,0,0,0,0,0,0,0,-1,1763,932,0,0
546,92,0,0,0,0,0,0,0,0,0,-1,1770,932,0,0
553,92,0,0,0,0,0,0,0,0,0,-1,1777,932,0,0
560,92,0,0,0,0,0,0,0,0,0,-1,1784,932,0,0
567,92,0,0,0,0,0,0,0,0,0,-1,1791,932,0,0
574,92,0,0,0,0,0,0,0,0,0,-1,1798,932,0,0
581,92,0,0,0,0,0,0,0,0,0,-1,1805,932,0,0
588,92,0,0,0,0,0,0,0,0,0,-1,1812,932,0,0
595,92,0,0,0,0,0,0,0,0,0,-1,1819,932,0,0
602,92,0,0,0,0,0,0,0,0,0,-1,1826,932,0,0
609,92,0,0,0,0,0,0,0,0,0,-1,1833,932,0,0
616,92,0,0,0,0,0,0,0,0,0,-1,1840,932,0,0
623,92,0,0,0,0,0,0,0,0,0,-1,1847,932,0,0
630,92,0,0,0,0,0,0,0,0,0,-1,1854,932,0,0
637,92,17.1095,2.43286,0.00540162,0.00676727,0.00243806,0.00861632,0.00355257,0.921934,0.00500007,0.0469679,1861,932,17.1095,-2.43288
644,92,17.3496,2.37714,0.00439618,0.00508495,0.00221752,0.00698467,0.00249646,0.862434,0.00408689,0.0397378,1868,932,17.3495,-2.37713
651,92,17.483,2.27814,0.00262262,0.0039446,0.00173791,0.00514297,0.00142424,0.967119,0.00306622,0.0414112,1875,932,17.483,-2.27814
658,92,17.3546,2.50775,-0.000476988,0.00318041,0.00114208,0.00350774,-0.000804324,1.29166,0.00264765,0.0453696,1882,932,17.3546,-2.50778
665,92,17.1244,2.66937,-0.00400835,0.00261513,0.000648018,0.00267794,-0.00407116,1.47418,0.00392417,0.0417183,1889,932,17.1244,-2.66935
672,92,16.9966,2.65265,-0.00718689,0.002207,0.000265006,0.00221447,-0.00719436,1.54262,0.00568016,0.0389892,1896,932,16.9966,-2.65263
679,92,17.1576,2.60846,-0.00977875,0.00190404,1.43672e-05,0.00190406,-0.00977877,1.56957,0.00723784,0.0378181,1903,932,17.1576,-2.60843
686,92,17.2249,2.4505,-0.0117294,0.00159013,-9.57885e-05,0.00159081,-0.0117301,-1.56361,0.00840068,0.0302091,1910,932,17.2249,-2.4505
693,92,17.22,2.53375,-0.0131042,0.0012713,-0.000238569,0.00127526,-0.0131082,-1.55421,0.00919341,0.0241944,1917,932,17.22,-2.53373
700,92,17.2075,2.6012,-0.0136188,0.0011874,-0.000266823,0.00119221,-0.0136236,-1.55278,0.00950477,0.0399242,1924,932,17.2075,-2.60121
707,92,16.4292,2.75812,-0.0133705,0.0010898,-0.000272499,0.00109493,-0.0133757,-1.55196,0.0093036,0.0413554,1931,932,16.4292,-2.75812
714,92,15.8607,2.98114,-0.0124524,0.00106706,-0.000390248,0.00107831,-0.0124637,-1.54196,0.00869087,0.0311536,1938,932,15.8607,-2.98115
721,92,15.927,3.08447,-0.0108669,0.00103539,-0.000613546,0.00106694,-0.0108984,-1.51943,0.0076461,0.0226664,1945,932,15.927,-3.08448
728,92,15.9076,3.21906,-0.00890349,0.00138485,-0.00137714,0.001566,-0.00908464,-1.44001,0.00664026,0.0169324,1952,932,15.9076,-3.21905
735,92,15.9119,3.27936,-0.0069745,0.000290578,-0.00260078,0.00112563,-0.00780956,-1.26011,0.00561929,0.0150632,1959,932,15.9119,-3.27936
742,92,15.9249,3.34271,-0.00500545,-0.0015976,-0.00409186,0.00113093,-0.00773398,-0.982688,0.00557136,0.0154605,1966,932,15.9249,-3.34268
749,92,15.8861,3.4649,-0.00280436,-0.00401108,-0.00597616,0.00259882,-0.00941426,-0.735088,0.00729835,0.0133891,1973,932,15.8861,-3.4649
756,92,15.869,3.57562,-0.000464407,-0.00647392,-0.00819781,0.00526196,-0.0122003,-0.609735,0.0103437,0.0135801,1980,932,15.869,-3.57559
763,92,15.8958,3.65558,0.000641218,-0.0101795,-0.0110564,0.00754008,-0.0170783,-0.557857,0.0145647,0.0151797,1987,932,15.8958,-3.6556
770,92,15.8822,3.75024,0.000639504,-0.0153452,-0.0143096,0.00903742,-0.0237431,-0.530712,0.0195504,0.0245939,1994,932,15.8822,-3.75026
777,92,16.2511,2.82123,0.000128833,-0.0219791,-0.0177268,0.00996574,-0.031816,-0.506611,0.0251983,0.0390432,2001,932,16.2511,-2.82123
784,92,16.1965,1.9176,-0.000685611,-0.0302763,-0.0211445,0.0103259,-0.0412878,-0.480127,0.0315358,0.0438211,2008,932,16.1966,-1.91762
791,92,15.8381,1.90717,-0.00171079,-0.0401599,-0.0242348,0.00999859,-0.0518693,-0.450088,0.0383494,0.0444084,2015,932,15.8381,-1.90716
798,92,15.3999,1.79492,-0.0028478,-0.0512595,-0.0263889,0.0087555,-0.0628628,-0.414259,0.0451111,0.0453034,2022,932,15.3999,-1.79494
805,92,0,0,0,0,0,0,0,0,0,-1,2029,932,0,0
812,92,0,0,0,0,0,0,0,0,0,-1,2036,932,0,0
-700,85,0,0,0,0,0,0,0,0,0,-1,524,939,0,0
-693,85,0,0,0,0,0,0,0,0,0,-1,531,939,0,0
-686,85,-9.1319,4.1283,0,0,0,0,0,0,0,-1,538,939,-9.13191,-4.12829
-679,85,-9.76154,2.76031,-0.0381508,-0.00904936,-0.0382604,0.0173338,-0.064534,-0.967106,0.0498162,0.042287,545,939,-9.76151,-2.76031
-672,85,-10.5009,1.72247,-0.025344,-0.00263833,-0.0298516,0.0179464,-0.0459287,-0.967107,0.0380396,0.0418173,552,939,-10.5009,-1.72245
-665,85,-11.1273,1.11383,-0.0166539,0.00154059,-0.0224208,0.0166395,-0.0317528,-0.978125,0.0283898,0.0403014,559,939,-11.1273,-1.11382
-658,85,-9.25293,2.41962,-0.0106956,0.00406188,-0.0161474,0.0144366,-0.0210703,-0.999712,0.0206188,0.0495358,566,939,-9.25292,-2.4196
-651,85,-9.63788,2.07794,-0.00667521,0.00530469,-0.0110623,0.0118947,-0.0132652,-1.03353,0.0145332,0.0433344,573,939,-9.63791,-2.07797
-644,85,-10.0534,1.74762,-0.0040705,0.00558046,-0.00711842,0.00935482,-0.00784485,-1.08326,0.00994298,0.0314352,580,939,-10.0534,-1.74765
-637,85,-10.4067,1.45862,-0.00249371,0.00518866,-0.00424394,0.00707161,-0.00437666,-1.15321,0.00667043,0.0164352,587,939,-10.4067,-1.45861
-630,85,-10.4363,1.34943,-0.00177963,0.00442396,-0.0023259,0.00519914,-0.00255482,-1.24909,0.0045627,0.0111497,594,939,-10.4363,-1.34946
-623,85,-10.4437,1.27679,-0.00129536,0.00408866,-0.000765502,0.00419538,-0.00140208,-1.43227,0.00336316,0.00980091,601,939,-10.4436,-1.2768
-616,85,-10.4575,1.19757,-0.00161813,0.0032537,0.000338495,0.00327711,-0.00164154,1.50176,0.00289164,0.00911731,608,939,-10.4575,-1.19757
-609,85,-10.459,1.11414,-0.00336519,0.00223762,0.000567242,0.00229447,-0.00342204,1.4709,0.00332176,0.0108946,615,939,-10.459,-1.11415
-602,85,-10.4603,1.03125,-0.00492783,0.000773704,0.000122734,0.000776345,-0.00493047,1.54928,0.00357398,0.0144197,622,939,-10.4603,-1.03123
-595,85,-10.4231,0.970825,-0.00606679,0.000107561,0.000194143,0.000113659,-0.00607289,1.53939,0.00408701,0.0157191,629,939,-10.4231,-0.970813
-588,85,-10.3852,0.89386,-0.00680361,0.000414459,0.000228271,0.00042167,-0.00681082,1.53921,0.00468743,0.0155778,636,939,-10.3852,-0.893871
-581,85,-10.4026,0.802124,-0.00729437,0.000265868,0.000178525,0.000270081,-0.00729858,1.5472,0.0049582,0.0158016,643,939,-10.4027,-0.802132
-574,85,-10.6284,0.694153,-0.00752389,0.00041255,0.000138981,0.000414983,-0.00752633,1.55329,0.00516144,0.0256648,650,939,-10.6284,-0.694145
-567,85,-11.0251,0.63269,-0.00734755,0.000971602,0.000112727,0.000973128,-0.00734908,1.55725,0.00525389,0.0347892,657,939,-11.0251,-0.632702
-560,85,-10.987,0.499512,-0.00674641,0.00139713,0.000182263,0.00140121,-0.00675049,1.54843,0.00503284,0.0356903,664,939,-10.987,-0.499516
-553,85,-11.0541,0.283203,-0.00554141,0.00204804,0.000226561,0.0020548,-0.00554816,1.54098,0.0045414,0.0410926,671,939,-11.0541,-0.283224
-546,85,-11.2957,0.458435,-0.00359949,0.00292809,0.000175212,0.00293279,-0.00360419,1.54398,0.00378076,0.0396066,678,939,-11.2957,-0.458445
-539,85,-11.2577,0.762268,-0.000890324,0.00408679,-3.66808e-05,0.00408706,-0.000890595,-1.56343,0.00306501,0.0360052,685,939,-11.2577,-0.76225
-532,85,-11.1962,0.813965,0.00259472,0.00560522,-0.000527889,0.0056951,0.00250483,-1.40215,0.00329599,0.0380535,692,939,-11.1962,-0.813988
-525,85,-11.1712,0.677124,0.00655994,0.00764775,-0.00155143,0.00874785,0.00545984,-0.953995,0.0051022,0.0359491,699,939,-11.1712,-0.677109
-518,85,-11.1091,0.679382,0.00962619,0.0104396,-0.00331834,0.0133761,0.00668972,-0.846375,0.00772268,0.0361069,706,939,-11.1091,-0.679401
-511,85,0,0,0,0,0,0,0,0,0,-1,713,939,0,0
-504,85,0,0,0,0,0,0,0,0,0,-1,720,939,0,0
-497,85,0,0,0,0,0,0,0,0,0,-1,727,939,0,0
-490,85,0,0,0,0,0,0,0,0,0,-1,734,939,0,0
-483,85,0,0,0,0,0,0,0,0,0,-1,741,939,0,0
-476,85,0,0,0,0,0,0,0,0,0,-1,748,939,0,0
-469,85,0,0,0,0,0,0,0,0,0,-1,755,939,0,0
-462,85,0,0,0,0,0,0,0,0,0,-1,762,939,0,0
-455,85,0,0,0,0,0,0,0,0,0,-1,769,939,0,0
-448,85,0,0,0,0,0,0,0,0,0,-1,776,939,0,0
-441,85,0,0,0,0,0,0,0,0,0,-1,783,939,0,0
-434,85,0,0,0,0,0,0,0,0,0,-1,790,939,0,0
-427,85,0,0,0,0,0,0,0,0,0,-1,797,939,0,0
-420,85,0,0,0,0,0,0,0,0,0,-1,804,939,0,0
-413,85,0,0,0,0,0,0,0,0,0,-1,811,939,0,0
-406,85,0,0,0,0,0,0,0,0,0,-1,818,939,0,0
-399,85,0,0,0,0,0,0,0,0,0,-1,825,939,0,0
-392,85,0,0,0,0,0,0,0,0,0,-1,832,939,0,0
-385,85,0,0,0,0,0,0,0,0,0,-1,839,939,0,0
-378,85,0,0,0,0,0,0,0,0,0,-1,846,939,0,0
-371,85,0,0,0,0,0,0,0,0,0,-1,853,939,0,0
-364,85,0,0,0,0,0,0,0,0,0,-1,860,939,0,0
-357,85,0,0,0,0,0,0,0,0,0,-1,867,939,0,0
-350,85,0,0,0,0,0,0,0,0,0,-1,874,939,0,0
-343,85,0,0,0,0,0,0,0,0,0,-1,881,939,0,0
-336,85,0,0,0,0,0,0,0,0,0,-1,888,939,0,0
-329,85,0,0,0,0,0,0,0,0,0,-1,895,939,0,0
-322,85,0,0,0,0,0,0,0,0,0,-1,902,939,0,0
-315,85,0,0,0,0,0,0,0,0,0,-1,909,939,0,0
-308,85,0,0,0,0,0,0,0,0,0,-1,916,939,0,0
-301,85,0,0,0,0,0,0,0,0,0,-1,923,939,0,0
-294,85,0,0,0,0,0,0,0,0,0,-1,930,939,0,0
-287,85,0,0,0,0,0,0,0,0,0,-1,937,939,0,0
-280,85,0,0,0,0,0,0,0,0,0,-1,944,939,0,0
-273,85,0,0,0,0,0,0,0,0,0,-1,951,939,0,0
-266,85,0,0,0,0,0,0,0,0,0,-1,958,939,0,0
-259,85,0,0,0,0,0,0,0,0,0,-1,965,939,0,0
-252,85,0,0,0,0,0,0,0,0,0,-1,972,939,0,0
-245,85,0,0,0,0,0,0,0,0,0,-1,979,939,0,0
-238,85,0,0,0,0,0,0,0,0,0,-1,986,939,0,0
-231,85,0,0,0,0,0,0,0,0,0,-1,993,939,0,0
-224,85,0,0,0,0,0,0,0,0,0,-1,1000,939,0,0
-217,85,0,0,0,0,0,0,0,0,0,-1,1007,939,0,0
-210,85,0,0,0,0,0,0,0,0,0,-1,1014,939,0,0
-203,85,0,0,0,0,0,0,0,0,0,-1,1021,939,0,0
-196,85,0,0,0,0,0,0,0,0,0,-1,1028,939,0,0
-189,85,0,0,0,0,0,0,0,0,0,-1,1035,939,0,0
-182,85,0,0,0,0,0,0,0,0,0,-1,1042,939,0,0
-175,85,0,0,0,0,0,0,0,0,0,-1,1049,939,0,0
-168,85,0,0,0,0,0,0,0,0,0,-1,1056,939,0,0
-161,85,0,0,0,0,0,0,0,0,0,-1,1063,939,0,0
-154,85,0,0,0,0,0,0,0,0,0,-1,1070,939,0,0
-147,85,0,0,0,0,0,0,0,0,0,-1,1077,939,0,0
-140,85,0,0,0,0,0,0,0,0,0,-1,1084,939,0,0
-133,85,0,0,0,0,0,0,0,0,0,-1,1091,939,0,0
-126,85,0,0,0,0,0,0,0,0,0,-1,1098,939,0,0
-119,85,0,0,0,0,0,0,0,0,0,-1,1105,939,0,0
-112,85,0,0,0,0,0,0,0,0,0,-1,1112,939,0,0
-105,85,0,0,0,0,0,0,0,0,0,-1,1119,939,0,0
-98,85,0,0,0,0,0,0,0,0,0,-1,1126,939,0,0
-91,85,0,0,0,0,0,0,0,0,0,-1,1133,939,0,0
-84,85,0,0,0,0,0,0,0,0,0,-1,1140,939,0,0
-77,85,0,0,0,0,0,0,0,0,0,-1,1147,939,0,0
-70,85,0,0,0,0,0,0,0,0,0,-1,1154,939,0,0
-63,85,0,0,0,0,0,0,0,0,0,-1,1161,939,0,0
-56,85,0,0,0,0,0,0,0,0,0,-1,1168,939,0,0
-49,85,0,0,0,0,0,0,0,0,0,-1,1175,939,0,0
-42,85,0,0,0,0,0,0,0,0,0,-1,1182,939,0,0
-35,85,0,0,0,0,0,0,0,0,0,-1,1189,939,0,0
-28,85,0,0,0,0,0,0,0,0,0,-1,1196,939,0,0
-21,85,0,0,0,0,0,0,0,0,0,-1,1203,939,0,0
-14,85,0,0,0,0,0,0,0,0,0,-1,1210,939,0,0
-7,85,0,0,0,0,0,0,0,0,0,-1,1217,939,0,0
0,85,0,0,0,0,0,0,0,0,0,-1,1224,939,0,0
7,85,0,0,0,0,0,0,0,0,0,-1,1231,939,0,0
14,85,0,0,0,0,0,0,0,0,0,-1,1238,939,0,0
21,85,0,0,0,0,0,0,0,0,0,-1,1245,939,0,0
28,85,0,0,0,0,0,0,0,0,0,-1,1252,939,0,0
35,85,0,0,0,0,0,0,0,0,0,-1,1259,939,0,0
42,85,0,0,0,0,0,0,0,0,0,-1,1266,939,0,0
49,85,0,0,0,0,0,0,0,0,0,-1,1273,939,0,0
56,85,0,0,0,0,0,0,0,0,0,-1,1280,939,0,0
63,85,0,0,0,0,0,0,0,0,0,-1,1287,939,0,0
70,85,0,0,0,0,0,0,0,0,0,-1,1294,939,0,0
77,85,0,0,0,0,0,0,0,0,0,-1,1301,939,0,0
84,85,0,0,0,0,0,0,0,0,0,-1,1308,939,0,0
91,85,0,0,0,0,0,0,0,0,0,-1,1315,939,0,0
98,85,0,0,0,0,0,0,0,0,0,-1,1322,939,0,0
105,85,0,0,0,0,0,0,0,0,0,-1,1329,939,0,0
112,85,0,0,0,0,0,0,0,0,0,-1,1336,939,0,0
119,85,0,0,0,0,0,0,0,0,0,-1,1343,939,0,0
126,85,0,0,0,0,0,0,0,0,0,-1,1350,939,0,0
133,85,0,0,0,0,0,0,0,0,0,-1,1357,939,0,0
140,85,0,0,0,0,0,0,0,0,0,-1,1364,939,0,0
147,85,0,0,0,0,0,0,0,0,0,-1,1371,939,0,0
154,85,0,0,0,0,0,0,0,0,0,-1,1378,939,0,0
161,85,0,0,0,0,0,0,0,0,0,-1,1385,939,0,0
168,85,0,0,0,0,0,0,0,0,0,-1,1392,939,0,0
175,85,0,0,0,0,0,0,0,0,0,-1,1399,939,0,0
182,85,0,0,0,0,0,0,0,0,0,-1,1406,939,0,0
189,85,0,0,0,0,0,0,0,0,0,-1,1413,939,0,0
196,85,0,0,0,0,0,0,0,0,0,-1,1420,939,0,0
203,85,0,0,0,0,0,0,0,0,0,-1,1427,939,0,0
210,85,0,0,0,0,0,0,0,0,0,-1,1434,939,0,0
217,85,0,0,0,0,0,0,0,0,0,-1,1441,939,0,0
224,85,0,0,0,0,0,0,0,0,0,-1,1448,939,0,0
231,85,0,0,0,0,0,0,0,0,0,-1,1455,939,0,0
238,85,0,0,0,0,0,0,0,0,0,-1,1462,939,0,0
245,85,0,0,0,0,0,0,0,0,0,-1,1469,939,0,0
252,85,0,0,0,0,0,0,0,0,0,-1,1476,939,0,0
259,85,0,0,0,0,0,0,0,0,0,-1,1483,939,0,0
266,85,0,0,0,0,0,0,0,0,0,-1,1490,939,0,0
273,85,0,0,0,0,0,0,0,0,0,-1,1497,939,0,0
280,85,0,0,0,0,0,0,0,0,0,-1,1504,939,0,0
287,85,0,0,0,0,0,0,0,0,0,-1,1511,939,0,0
294,85,0,0,0,0,0,0,0,0,0,-1,1518,939,0,0
301,85,0,0,0,0,0,0,0,0,0,-1,1525,939,0,0
308,85,0,0,0,0,0,0,0,0,0,-1,1532,939,0,0
315,85,0,0,0,0,0,0,0,0,0,-1,1539,939,0,0
322,85,0,0,0,0,0,0,0,0,0,-1,1546,939,0,0
329,85,0,0,0,0,0,0,0,0,0,-1,1553,939,0,0
336,85,0,0,0,0,0,0,0,0,0,-1,1560,939,0,0
343,85,0,0,0,0,0,0,0,0,0,-1,1567,939,0,0
350,85,0,0,0,0,0,0,0,0,0,-1,1574,939,0,0
357,85,0,0,0,0,0,0,0,0,0,-1,1581,939,0,0
364,85,0,0,0,0,0,0,0,0,0,-1,1588,939,0,0
371,85,0,0,0,0,0,0,0,0,0,-1,1595,939,0,0
378,85,0,0,0,0,0,0,0,0,0,-1,1602,939,0,0
385,85,0,0,0,0,0,0,0,0,0,-1,1609,939,0,0
392,85,0,0,0,0,0,0,0,0,0,-1,1616,939,0,0
399,85,0,0,0,0,0,0,0,0,0,-1,1623,939,0,0
406,85,0,0,0,0,0,0,0,0,0,-1,1630,939,0,0
413,85,0,0,0,0,0,0,0,0,0,-1,1637,939,0,0
420,85,0,0,0,0,0,0,0,0,0,-1,1644,939,0,0
427,85,0,0,0,0,0,0,0,0,0,-1,1651,939,0,0
434,85,0,0,0,0,0,0,0,0,0,-1,1658,939,0,0
441,85,0,0,0,0,0,0,0,0,0,-1,1665,939,0,0
448,85,0,0,0,0,0,0,0,0,0,-1,1672,939,0,0
455,85,0,0,0,0,0,0,0,0,0,-1,1679,939,0,0
462,85,0,0,0,0,0,0,0,0,0,-1,1686,939,0,0
469,85,0,0,0,0,0,0,0,0,0,-1,1693,939,0,0
476,85,0,0,0,0,0,0,0,0,0,-1,1700,939,0,0
483,85,0,0,0,0,0,0,0,0,0,-1,1707,939,0,0
490,85,0,0,0,0,0,0,0,0,0,-1,1714,939,0,0
497,85,0,0,0,0,0,0,0,0,0,-1,1721,939,0,0
504,85,0,0,0,0,0,0,0,0,0,-1,1728,939,0,0
511,85,0,0,0,0,0,0,0,0,0,-1,1735,939,0,0
518,85,0,0,0,0,0,0,0,0,0,-1,1742,939,0,0
525,85,0,0,0,0,0,0,0,0,0,-1,1749,939,0,0
532,85,0,0,0,0,0,0,0,0,0,-1,1756,939,0,0
539,85,0,0,0,0,0,0,0,0,0,-1,1763,939,0,0
546,85,0,0,0,0,0,0,0,0,0,-1,1770,939,0,0
553,85,0,0,0,0,0,0,0,0,0,-1,1777,939,0,0
560,85,0,0,0,0,0,0,0,0,0,-1,1784,939,0,0
567,85,0,0,0,0,0,0,0,0,0,-1,1791,939,0,0
574,85,0,0,0,0,0,0,0,0,0,-1,1798,939,0,0
581,85,0,0,0,0,0,0,0,0,0,-1,1805,939,0,0
588,85,0,0,0,0,0,0,0,0,0,-1,1812,939,0,0
595,85,0,0,0,0,0,0,0,0,0,-1,1819,939,0,0
602,85,0,0,0,0,0,0,0,0,0,-1,1826,939,0,0
609,85,0,0,0,0,0,0,0,0,0,-1,1833,939,0,0
616,85,0,0,0,0,0,0,0,0,0,-1,1840,939,0,0
623,85,0,0,0,0,0,0,0,0,0,-1,1847,939,0,0
630,85,0,0,0,0,0,0,0,0,0,-1,1854,939,0,0
637,85,17.1844,2.63391,0.00658949,0.00740857,0.00260364,0.00963469,0.00436338,0.863406,0.00557082,0.0468495,1861,939,17.1844,-2.63389
644,85,17.2784,2.46124,0.00519164,0.00541258,0.00225132,0.00755614,0.00304808,0.809912,0.0043896,0.0440359,1868,939,17.2785,-2.46123
651,85,17.3749,2.17566,0.00349605,0.00408853,0.00178756,0.00560423,0.00198035,0.867513,0.00328166,0.0450774,1875,939,17.3749,-2.17567
658,85,17.3568,2.47064,0.000644105,0.00322019,0.00130088,0.00376282,0.000101477,1.17562,0.00247541,0.0446765,1882,939,17.3568,-2.47064
665,85,17.1545,2.6698,-0.00271715,0.002605,0.000946005,0.00276815,-0.0028803,1.40001,0.00326135,0.0417411,1889,939,17.1546,-2.66977
672,85,17.075,2.55646,-0.00584714,0.00218356,0.000704214,0.00224485,-0.00590842,1.48399,0.00486312,0.0388822,1896,939,17.075,-2.55645
679,85,17.2997,2.18988,-0.00845901,0.00187165,0.000577187,0.0019038,-0.00849116,1.51516,0.0063906,0.0400398,1903,939,17.2997,-2.1899
686,85,17.2499,2.42438,-0.0104606,0.00158298,0.000549388,0.00160799,-0.0104856,1.52531,0.00758345,0.0352652,1910,939,17.2499,-2.42435
693,85,17.1997,2.52704,-0.0119117,0.00127884,0.000463857,0.00129513,-0.011928,1.53569,0.00841696,0.0279674,1917,939,17.1997,-2.52701
700,85,17.2101,2.56702,-0.0125729,0.00119864,0.000472716,0.00121485,-0.0125891,1.53652,0.00882562,0.0294047,1924,939,17.2101,-2.56699
707,85,16.6554,2.74182,-0.0125318,0.00113138,0.000440822,0.00114559,-0.012546,1.53858,0.00877083,0.041548,1931,939,16.6554,-2.74184
714,85,16.0122,2.95575,0,0,0,0,0,0,0,-1,1938,939,16.0122,-2.95576
721,85,16.0206,3.08521,-0.0105334,0.00107705,1.66013e-06,0.00107705,-0.0105334,1.57065,0.00740743,0.0227738,1945,939,16.0206,-3.0852
728,85,16.0111,3.23779,-0.00891312,0.00138324,-0.000819736,0.00144809,-0.00897797,-1.49184,0.00652182,0.0176912,1952,939,16.0111,-3.23781
735,85,15.9963,3.28699,-0.007388,0.000307574,-0.00198346,0.000788711,-0.00786914,-1.33282,0.00552778,0.0168832,1959,939,15.9963,-3.287
742,85,16.017,3.36322,-0.00580107,-0.00149049,-0.00339768,0.000377841,-0.0076694,-1.06804,0.00524342,0.0145208,1966,939,16.017,-3.36319
749,85,15.9824,3.47479,-0.00395356,-0.00373044,-0.00521526,0.00137446,-0.00905846,-0.796092,0.00654541,0.0131066,1973,939,15.9824,-3.4748
756,85,15.9718,3.57056,-0.00184509,-0.0058321,-0.00724946,0.00367996,-0.0113572,-0.651221,0.00905099,0.0126336,1980,939,15.9718,-3.57056
763,85,15.9827,3.66797,-0.00078051,-0.00889762,-0.00974766,0.00571976,-0.0153979,-0.588132,0.0126119,0.0122828,1987,939,15.9827,-3.66795
770,85,15.963,3.71863,-0.000798995,-0.0132197,-0.012536,0.00698061,-0.0209993,-0.555417,0.0168165,0.0179541,1994,939,15.963,-3.71862
777,85,16.1259,2.96588,-0.00127444,-0.0185675,-0.0153551,0.00770124,-0.0275432,-0.528974,0.0213963,0.0359832,2001,939,16.1259,-2.96587
784,85,16.0361,2.47461,-0.00192168,-0.0249864,-0.0180727,0.00798467,-0.0348927,-0.501413,0.0263301,0.0420967,2008,939,16.0362,-2.47463
791,85,15.7778,2.47498,-0.00247458,-0.0322402,-0.0204048,0.00789841,-0.0426132,-0.470313,0.0313747,0.0460186,2015,939,15.7778,-2.47498
798,85,15.4454,2.42517,-0.00266934,-0.0397533,-0.0218469,0.00744337,-0.049866,-0.433522,0.0359827,0.0472215,2022,939,15.4454,-2.42518
805,85,15.1033,2.3504,0,0,0,0,0,0,0,-1,2029,939,15.1032,-2.35043
812,85,0,0,0,0,0,0,0,0,0,-1,2036,939,0,0
-700,78,0,0,0,0,0,0,0,0,0,-1,524,946,0,0
-693,78,0,0,0,0,0,0,0,0,0,-1,531,946,0,0
-686,78,-9.69995,1.49274,0,0,0,0,0,0,0,-1,538,946,-9.69995,-1.49275
-679,78,-9.90637,2.47858,0,0,0,0,0,0,0,-1,545,946,-9.90639,-2.47855
-672,78,-10.353,1.74402,-0.0272093,0.00599438,-0.0186205,0.0143393,-0.0355543,-1.14947,0.0296614,0.044774,552,946,-10.353,-1.74403
-665,78,-10.324,1.65424,-0.0190073,0.00878782,-0.0135098,0.0142722,-0.0244916,-1.18517,0.022638,0.0443919,559,946,-10.324,-1.65422
-658,78,-10.311,1.88544,-0.013199,0.00977997,-0.00925761,0.0130455,-0.0164646,-1.23168,0.0170757,0.049391,566,946,-10.3109,-1.88546
-651,78,-9.85516,1.72162,-0.00911064,0.00957074,-0.0059012,0.0112787,-0.0108186,-1.28907,0.0127588,0.0458979,573,946,-9.85518,-1.72164
-644,78,-10.4065,1.49298,-0.00628734,0.00859349,-0.00339693,0.00933225,-0.0070261,-1.35665,0.00947573,0.0270412,580,946,-10.4065,-1.49298
-637,78,-10.4832,1.40881,-0.00436606,0.0072916,-0.00173545,0.00754447,-0.00461893,-1.42611,0.00708992,0.013074,587,946,-10.4832,-1.4088
-630,78,-10.5047,1.30518,-0.00336225,0.00575498,-0.000692161,0.00580723,-0.00341449,-1.49545,0.00538357,0.0123314,594,946,-10.5047,-1.30516
-623,78,-10.5351,1.23822,-0.00265496,0.00484354,0.000157731,0.00484686,-0.00265828,1.54977,0.00439408,0.0128557,601,946,-10.5351,-1.23823
-616,78,-10.5568,1.17877,-0.00267936,0.00352054,0.000649019,0.00358776,-0.00274658,1.4676,0.00366786,0.0110606,608,946,-10.5568,-1.17879
-609,78,-10.5117,1.10345,-0.00397866,0.00226994,0.000497413,0.00230929,-0.00401801,1.49186,0.00369721,0.0102245,615,946,-10.5117,-1.10344
-602,78,-10.507,1.01135,-0.00519929,0.000712997,-0.000179906,0.000718466,-0.00520476,-1.5404,0.00373245,0.0148187,622,946,-10.5069,-1.01136
-595,78,-10.5046,0.949036,-0.00601861,4.21955e-05,-0.000288443,5.58919e-05,-0.00603231,-1.52335,0.0040403,0.0151255,629,946,-10.5045,-0.949046
-588,78,-10.5041,0.928772,-0.00649407,0.000288799,-0.000298103,0.000301875,-0.00650715,-1.52696,0.00444214,0.0131074,636,946,-10.5041,-0.92877
-581,78,-10.527,0.82666,-0.00681667,0.000231455,-0.000383378,0.000252248,-0.00683747,-1.51662,0.00464468,0.0170982,643,946,-10.527,-0.826657
-574,78,-10.7648,0.666138,-0.0069179,0.000408544,-0.000452076,0.000436334,-0.00694569,-1.5094,0.00478255,0.0223084,650,946,-10.7648,-0.666123
-567,78,-11.062,0.550781,0,0,0,0,0,0,0,-1,657,946,-11.062,-0.550809
-560,78,-11.0046,0.544434,-0.00593271,0.00145039,-0.000426315,0.00147492,-0.00595724,-1.51331,0.00454365,0.0336044,664,946,-11.0046,-0.544431
-553,78,-11.0171,0.394287,-0.00458491,0.00217727,-0.000376321,0.00219815,-0.00460579,-1.51537,0.0040094,0.0411235,671,946,-11.0171,-0.394279
-546,78,-11.2234,0.450317,-0.00248989,0.00317599,-0.000398609,0.0032039,-0.0025178,-1.5009,0.00331133,0.0411883,678,946,-11.2234,-0.450314
-539,78,-11.1407,0.782532,0.0003831,0.00450942,-0.000560577,0.00458422,0.000308299,-1.43814,0.00295874,0.038572,685,946,-11.1407,-0.78256
-532,78,-11.1477,0.918579,0.00402339,0.00628386,-0.00100422,0.00666554,0.00364171,-1.20758,0.00385386,0.0385128,692,946,-11.1477,-0.918556
-525,78,-11.1149,0.641174,0.00802507,0.00871387,-0.00200384,0.0104027,0.00633625,-0.870502,0.00605347,0.0363033,699,946,-11.1149,-0.641181
-518,78,-10.9565,0.550232,0.010972,0.012061,-0.0038243,0.0153793,0.00765361,-0.856115,0.0088793,0.0383637,706,946,-10.9565,-0.550218
-511,78,0,0,0,0,0,0,0,0,0,-1,713,946,0,0
-504,78,0,0,0,0,0,0,0,0,0,-1,720,946,0,0
-497,78,0,0,0,0,0,0,0,0,0,-1,727,946,0,0
-490,78,0,0,0,0,0,0,0,0,0,-1,734,946,0,0
-483,78,0,0,0,0,0,0,0,0,0,-1,741,946,0,0
-476,78,0,0,0,0,0,0,0,0,0,-1,748,946,0,0
-469,78,0,0,0,0,0,0,0,0,0,-1,755,946,0,0
-462,78,0,0,0,0,0,0,0,0,0,-1,762,946,0,0
-455,78,0,0,0,0,0,0,0,0,0,-1,769,946,0,0
-448,78,0,0,0,0,0,0,0,0,0,-1,776,946,0,0
-441,78,0,0,0,0,0,0,0,0,0,-1,783,946,0,0
-434,78,0,0,0,0,0,0,0,0,0,-1,790,946,0,0
-427,78,0,0,0,0,0,0,0,0,0,-1,797,946,0,0
-420,78,0,0,0,0,0,0,0,0,0,-1,804,946,0,0
-413,78,0,0,0,0,0,0,0,0,0,-1,811,946,0,0
-406,78,0,0,0,0,0,0,0,0,0,-1,818,946,0,0
-399,78,0,0,0,0,0,0,0,0,0,-1,825,946,0,0
-392,78,0,0,0,0,0,0,0,0,0,-1,832,946,0,0
-385,78,0,0,0,0,0,0,0,0,0,-1,839,946,0,0
-378,78,0,0,0,0,0,0,0,0,0,-1,846,946,0,0
-371,78,0,0,0,0,0,0,0,0,0,-1,853,946,0,0
-364,78,0,0,0,0,0,0,0,0,0,-1,860,946,0,0
-357,78,0,0,0,0,0,0,0,0,0,-1,867,946,0,0
-350,78,0,0,0,0,0,0,0,0,0,-1,874,946,0,0
-343,78,0,0,0,0,0,0,0,0,0,-1,881,946,0,0
-336,78,0,0,0,0,0,0,0,0,0,-1,888,946,0,0
-329,78,0,0,0,0,0,0,0,0,0,-1,895,946,0,0
-322,78,0,0,0,0,0,0,0,0,0,-1,902,946,0,0
-315,78,0,0,0,0,0,0,0,0,0,-1,909,946,0,0
-308,78,0,0,0,0,0,0,0,0,0,-1,916,946,0,0
-301,78,0,0,0,0,0,0,0,0,0,-1,923,946,0,0
-294,78,0,0,0,0,0,0,0,0,0,-1,930,946,0,0
-287,78,0,0,0,0,0,0,0,0,0,-1,937,946,0,0
-280,78,0,0,0,0,0,0,0,0,0,-1,944,946,0,0
-273,78,0,0,0,0,0,0,0,0,0,-1,951,946,0,0
-266,78,0,0,0,0,0,0,0,0,0,-1,958,946,0,0
-259,78,0,0,0,0,0,0,0,0,0,-1,965,946,0,0
-252,78,0,0,0,0,0,0,0,0,0,-1,972,946,0,0
-245,78,0,0,0,0,0,0,0,0,0,-1,979,946,0,0
-238,78,0,0,0,0,0,0,0,0,0,-1,986,946,0,0
-231,78,0,0,0,0,0,0,0,0,0,-1,993,946,0,0
-224,78,0,0,0,0,0,0,0,0,0,-1,1000,946,0,0
-217,78,0,0,0,0,0,0,0,0,0,-1,1007,946,0,0
-210,78,0,0,0,0,0,0,0,0,0,-1,1014,946,0,0
-203,78,0,0,0,0,0,0,0,0,0,-1,1021,946,0,0
-196,78,0,0,0,0,0,0,0,0,0,-1,1028,946,0,0
-189,78,0,0,0,0,0,0,0,0,0,-1,1035,946,0,0
-182,78,0,0,0,0,0,0,0,0,0,-1,1042,946,0,0
-175,78,0,0,0,0,0,0,0,0,0,-1,1049,946,0,0
-168,78,0,0,0,0,0,0,0,0,0,-1,1056,946,0,0
-161,78,0,0,0,0,0,0,0,0,0,-1,1063,946,0,0
-154,78,0,0,0,0,0,0,0,0,0,-1,1070,946,0,0
-147,78,0,0,0,0,0,0,0,0,0,-1,1077,946,0,0
-140,78,0,0,0,0,0,0,0,0,0,-1,1084,946,0,0
-133,78,0,0,0,0,0,0,0,0,0,-1,1091,946,0,0
-126,78,0,0,0,0,0,0,0,0,0,-1,1098,946,0,0
-119,78,0,0,0,0,0,0,0,0,0,-1,1105,946,0,0
-112,78,0,0,0,0,0,0,0,0,0,-1,1112,946,0,0
-105,78,0,0,0,0,0,0,0,0,0,-1,1119,946,0,0
-98,78,0,0,0,0,0,0,0,0,0,-1,1126,946,0,0
-91,78,0,0,0,0,0,0,0,0,0,-1,1133,946,0,0
-84,78,0,0,0,0,0,0,0,0,0,-1,1140,946,0,0
-77,78,0,0,0,0,0,0,0,0,0,-1,1147,946,0,0
-70,78,0,0,0,0,0,0,0,0,0,-1,1154,946,0,0
-63,78,0,0,0,0,0,0,0,0,0,-1,1161,946,0,0
-56,78,0,0,0,0,0,0,0,0,0,-1,1168,946,0,0
-49,78,0,0,0,0,0,0,0,0,0,-1,1175,946,0,0
-42,78,0,0,0,0,0,0,0,0,0,-1,1182,946,0,0
-35,78,0,0,0,0,0,0,0,0,0,-1,1189,946,0,0
-28,78,0,0,0,0,0,0,0,0,0,-1,1196,946,0,0
-21,78,0,0,0,0,0,0,0,0,0,-1,1203,946,0,0
-14,78,0,0,0,0,0,0,0,0,0,-1,1210,946,0,0
-7,78,0,0,0,0,0,0,0,0,0,-1,1217,946,0,0
0,78,0,0,0,0,0,0,0,0,0,-1,1224,946,0,0
7,78,0,0,0,0,0,0,0,0,0,-1,1231,946,0,0
14,78,0,0,0,0,0,0,0,0,0,-1,1238,946,0,0
21,78,0,0,0,0,0,0,0,0,0,-1,1245,946,0,0
28,78,0,0,0,0,0,0,0,0,0,-1,1252,946,0,0
35,78,0,0,0,0,0,0,0,0,0,-1,1259,946,0,0
42,78,0,0,0,0,0,0,0,0,0,-1,1266,946,0,0
49,78,0,0,0,0,0,0,0,0,0,-1,1273,946,0,0
56,78,0,0,0,0,0,0,0,0,0,-1,1280,946,0,0
63,78,0,0,0,0,0,0,0,0,0,-1,1287,946,0,0
70,78,0,0,0,0,0,0,0,0,0,-1,1294,946,0,0
77,78,0,0,0,0,0,0,0,0,0,-1,1301,946,0,0
84,78,0,0,0,0,0,0,0,0,0,-1,1308,946,0,0
91,78,0,0,0,0,0,0,0,0,0,-1,1315,946,0,0
98,78,0,0,0,0,0,0,0,0,0,-1,1322,946,0,0
105,78,0,0,0,0,0,0,0,0,0,-1,1329,946,0,0
112,78,0,0,0,0,0,0,0,0,0,-1,1336,946,0,0
119,78,0,0,0,0,0,0,0,0,0,-1,1343,946,0,0
126,78,0,0,0,0,0,0,0,0,0,-1,1350,946,0,0
133,78,0,0,0,0,0,0,0,0,0,-1,1357,946,0,0
140,78,0,0,0,0,0,0,0,0,0,-1,1364,946,0,0
147,78,0,0,0,0,0,0,0,0,0,-1,1371,946,0,0
154,78,0,0,0,0,0,0,0,0,0,-1,1378,946,0,0
161,78,0,0,0,0,0,0,0,0,0,-1,1385,946,0,0
168,78,0,0,0,0,0,0,0,0,0,-1,1392,946,0,0
175,78,0,0,0,0,0,0,0,0,0,-1,1399,946,0,0
182,78,0,0,0,0,0,0,0,0,0,-1,1406,946,0,0
189,78,0,0,0,0,0,0,0,0,0,-1,1413,946,0,0
196,78,0,0,0,0,0,0,0,0,0,-1,1420,946,0,0
203,78,0,0,0,0,0,0,0,0,0,-1,1427,946,0,0
210,78,0,0,0,0,0,0,0,0,0,-1,1434,946,0,0
217,78,0,0,0,0,0,0,0,0,0,-1,1441,946,0,0
224,78,0,0,0,0,0,0,0,0,0,-1,1448,946,0,0
231,78,0,0,0,0,0,0,0,0,0,-1,1455,946,0,0
238,78,0,0,0,0,0,0,0,0,0,-1,1462,946,0,0
245,78,0,0,0,0,0,0,0,0,0,-1,1469,946,0,0
252,78,0,0,0,0,0,0,0,0,0,-1,1476,946,0,0
259,78,0,0,0,0,0,0,0,0,0,-1,1483,946,0,0
266,78,0,0,0,0,0,0,0,0,0,-1,1490,946,0,0
273,78,0,0,0,0,0,0,0,0,0,-1,1497,946,0,0
280,78,0,0,0,0,0,0,0,0,0,-1,1504,946,0,0
287,78,0,0,0,0,0,0,0,0,0,-1,1511,946,0,0
294,78,0,0,0,0,0,0,0,0,0,-1,1518,946,0,0
301,78,0,0,0,0,0,0,0,0,0,-1,1525,946,0,0
308,78,0,0,0,0,0,0,0,0,0,-1,1532,946,0,0
315,78,0,0,0,0,0,0,0,0,0,-1,1539,946,0,0
322,78,0,0,0,0,0,0,0,0,0,-1,1546,946,0,0
329,78,0,0,0,0,0,0,0,0,0,-1,1553,946,0,0
336,78,0,0,0,0,0,0,0,0,0,-1,1560,946,0,0
343,78,0,0,0,0,0,0,0,0,0,-1,1567,946,0,0
350,78,0,0,0,0,0,0,0,0,0,-1,1574,946,0,0
357,78,0,0,0,0,0,0,0,0,0,-1,1581,946,0,0
364,78,0,0,0,0,0,0,0,0,0,-1,1588,946,0,0
371,78,0,0,0,0,0,0,0,0,0,-1,1595,946,0,0
378,78,0,0,0,0,0,0,0,0,0,-1,1602,946,0,0
385,78,0,0,0,0,0,0,0,0,0,-1,1609,946,0,0
392,78,0,0,0,0,0,0,0,0,0,-1,1616,946,0,0
399,78,0,0,0,0,0,0,0,0,0,-1,1623,946,0,0
406,78,0,0,0,0,0,0,0,0,0,-1,1630,946,0,0
413,78,0,0,0,0,0,0,0,0,0,-1,1637,946,0,0
420,78,0,0,0,0,0,0,0,0,0,-1,1644,946,0,0
427,78,0,0,0,0,0,0,0,0,0,-1,1651,946,0,0
434,78,0,0,0,0,0,0,0,0,0,-1,1658,946,0,0
441,78,0,0,0,0,0,0,0,0,0,-1,1665,946,0,0
448,78,0,0,0,0,0,0,0,0,0,-1,1672,946,0,0
455,78,0,0,0,0,0,0,0,0,0,-1,1679,946,0,0
462,78,0,0,0,0,0,0,0,0,0,-1,1686,946,0,0
469,78,0,0,0,0,0,0,0,0,0,-1,1693,946,0,0
476,78,0,0,0,0,0,0,0,0,0,-1,1700,946,0,0
483,78,0,0,0,0,0,0,0,0,0,-1,1707,946,0,0
490,78,0,0,0,0,0,0,0,0,0,-1,1714,946,0,0
497,78,0,0,0,0,0,0,0,0,0,-1,1721,946,0,0
504,78,0,0,0,0,0,0,0,0,0,-1,1728,946,0,0
511,78,0,0,0,0,0,0,0,0,0,-1,1735,946,0,0
518,78,0,0,0,0,0,0,0,0,0,-1,1742,946,0,0
525,78,0,0,0,0,0,0,0,0,0,-1,1749,946,0,0
532,78,0,0,0,0,0,0,0,0,0,-1,1756,946,0,0
539,78,0,0,0,0,0,0,0,0,0,-1,1763,946,0,0
546,78,0,0,0,0,0,0,0,0,0,-1,1770,946,0,0
553,78,0,0,0,0,0,0,0,0,0,-1,1777,946,0,0
560,78,0,0,0,0,0,0,0,0,0,-1,1784,946,0,0
567,78,0,0,0,0,0,0,0,0,0,-1,1791,946,0,0
574,78,0,0,0,0,0,0,0,0,0,-1,1798,946,0,0
581,78,0,0,0,0,0,0,0,0,0,-1,1805,946,0,0
588,78,0,0,0,0,0,0,0,0,0,-1,1812,946,0,0
595,78,0,0,0,0,0,0,0,0,0,-1,1819,946,0,0
602,78,0,0,0,0,0,0,0,0,0,-1,1826,946,0,0
609,78,0,0,0,0,0,0,0,0,0,-1,1833,946,0,0
616,78,0,0,0,0,0,0,0,0,0,-1,1840,946,0,0
623,78,0,0,0,0,0,0,0,0,0,-1,1847,946,0,0
630,78,0,0,0,0,0,0,0,0,0,-1,1854,946,0,0
637,78,17.0232,2.51007,0.00795686,0.00777583,0.00321932,0.0110869,0.00464575,0.771343,0.00642896,0.0456493,1861,946,17.0232,-2.51004
644,78,17.1555,2.51733,0.00598628,0.00555474,0.00263,0.00840935,0.00313168,0.744469,0.00490755,0.0466356,1868,946,17.1555,-2.51731
651,78,17.2032,2.11304,0.00432237,0.00409941,0.00205612,0.00627003,0.00215175,0.758316,0.00367887,0.0459491,1875,946,17.2032,-2.11303
658,78,17.2358,2.33765,0.00178983,0.00316582,0.00159053,0.00421078,0.000744872,0.989525,0.00259478,0.0405444,1882,946,17.2358,-2.33762
665,78,17.1781,2.52893,-0.00127359,0.00254614,0.00131961,0.00295769,-0.00168514,1.26848,0.00271389,0.0384166,1889,946,17.1781,-2.52895
672,78,17.1248,2.5484,-0.00424528,0.00215886,0.00118513,0.00237114,-0.00445756,1.39356,0.00400342,0.0381818,1896,946,17.1247,-2.54841
679,78,17.1053,2.422,-0.00680253,0.00188476,0.00116279,0.00203771,-0.00695548,1.44001,0.00544484,0.0395336,1903,946,17.1053,-2.422
686,78,17.2109,2.39246,-0.00880421,0.0016516,0.00120776,0.0017893,-0.00894191,1.45728,0.00663857,0.0379425,1910,946,17.211,-2.39243
693,78,17.1924,2.51758,-0.01031,0.00139761,0.00117268,0.00151391,-0.0104263,1.47194,0.00750654,0.031623,1917,946,17.1924,-2.5176
700,78,17.1873,2.53198,-0.0111339,0.00133722,0.00121148,0.00145382,-0.0112505,1.47485,0.00802892,0.0241803,1924,946,17.1873,-2.53196
707,78,16.985,2.78241,-0.011334,0.00129466,0.00117012,0.00140216,-0.0114415,1.47918,0.00813543,0.0353416,1931,946,16.985,-2.78239
714,78,16.0247,3.04779,0,0,0,0,0,0,0,-1,1938,946,16.0247,-3.04778
721,78,16.0797,3.10199,-0.0099357,0.00124206,0.00062292,0.00127666,-0.00997031,1.5153,0.00711073,0.0206303,1945,946,16.0797,-3.10198
728,78,16.141,3.2149,-0.00868676,0.00146763,-0.000232065,0.00147293,-0.00869206,-1.54796,0.00634295,0.0203931,1952,946,16.141,-3.21489
735,78,16.1056,3.28937,-0.00755881,0.00044493,-0.00132336,0.000658063,-0.00777195,-1.41111,0.005414,0.0141158,1959,946,16.1056,-3.28936
742,78,16.1044,3.3941,-0.00633723,-0.00122149,-0.00265905,-8.97457e-05,-0.00746898,-1.1684,0.00494967,0.0128293,1966,946,16.1043,-3.39413
749,78,16.0886,3.48431,-0.00484352,-0.00321495,-0.00439774,0.000443258,-0.00850173,-0.876941,0.0058212,0.0125342,1973,946,16.0886,-3.48432
756,78,16.1194,3.57092,-0.00298567,-0.00490689,-0.00630633,0.0024328,-0.0103254,-0.709817,0.00782165,0.0133754,1980,946,16.1194,-3.57095
763,78,16.1072,3.64813,-0.00198195,-0.00731902,-0.00861589,0.00436919,-0.0136702,-0.635222,0.0108667,0.0120556,1987,946,16.1072,-3.64811
770,78,16.0687,3.7052,-0.00193792,-0.0107264,-0.0111024,0.00560821,-0.0182725,-0.596961,0.0144193,0.0160409,1994,946,16.0687,-3.70521
777,78,15.9978,3.56122,-0.00233028,-0.0147555,-0.0135831,0.00639352,-0.0234793,-0.570911,0.0181631,0.0381651,2001,946,15.9978,-3.56121
784,78,16.0214,3.23132,-0.00286309,-0.0193404,-0.0160011,0.00689579,-0.0290993,-0.547658,0.0220603,0.0448561,2008,946,16.0213,-3.23135
791,78,16.0795,3.24115,-0.00318443,-0.024198,-0.0181838,0.00730979,-0.0346923,-0.523426,0.0259108,0.0436868,2015,946,16.0795,-3.24113
798,78,16.339,3.16571,-0.00299737,-0.0287268,-0.0198104,0.0077589,-0.0394831,-0.497424,0.0292534,0.0438397,2022,946,16.339,-3.16572
805,78,16.9604,3.17773,-0.00202987,-0.0319142,-0.0203689,0.00828978,-0.0422339,-0.468944,0.0312874,0.0457617,2029,946,16.9604,-3.17776
812,78,0,0,0,0,0,0,0,0,0,-1,2036,946,0,0
-700,71,0,0,0,0,0,0,0,0,0,-1,524,953,0,0
-693,71,0,0,0,0,0,0,0,0,0,-1,531,953,0,0
-686,71,-9.0705,0.758911,0,0,0,0,0,0,0,-1,538,953,-9.07048,-0.758938
-679,71,-10.3839,2.2699,0,0,0,0,0,0,0,-1,545,953,-10.3838,-2.26989
-672,71,-10.3596,1.88892,0,0,0,0,0,0,0,-1,552,953,-10.3595,-1.8889
-665,71,-10.1953,1.87341,0,0,0,0,0,0,0,-1,559,953,-10.1952,-1.87339
-658,71,-10.348,1.79822,-0.0139079,0.0160537,-0.00262426,0.0162818,-0.014136,-1.48409,0.0175763,0.0471526,566,953,-10.3479,-1.7982
-651,71,-10.4259,1.5415,-0.0098342,0.0141979,-0.000961266,0.0142362,-0.00987259,-1.53088,0.013995,0.0443856,573,953,-10.4259,-1.54151
-644,71,-10.4935,1.46954,-0.00697313,0.0118368,0.00010672,0.0118374,-0.00697374,1.56512,0.010981,0.0317767,580,953,-10.4935,-1.46953
-637,71,-10.5561,1.40442,-0.004962,0.00951174,0.000591606,0.00953588,-0.00498614,1.53001,0.00852035,0.0136724,587,953,-10.5561,-1.40443
-630,71,-10.5856,1.30713,-0.0038959,0.00718766,0.000755057,0.00723886,-0.0039471,1.50309,0.00655076,0.0121027,594,953,-10.5857,-1.30713
-623,71,-10.6205,1.22784,-0.00314951,0.00564542,0.000866902,0.00573005,-0.00323414,1.47348,0.00524192,0.0131395,601,953,-10.6205,-1.22787
-616,71,-10.6364,1.14478,-0.00304873,0.00389711,0.000814554,0.00399136,-0.00314297,1.45561,0.0041287,0.0131381,608,953,-10.6364,-1.14478
-609,71,-10.5865,1.10553,-0.00403892,0.00243815,0.000357292,0.0024578,-0.00405857,1.51586,0.00379988,0.0128956,615,953,-10.5865,-1.10555
-602,71,-10.5698,1.03345,-0.00500838,0.000831692,-0.000486189,0.00087189,-0.00504857,-1.4883,0.00369084,0.0157172,622,953,-10.5698,-1.03342
-595,71,-10.5934,0.992981,-0.00561516,0.000164513,-0.000761879,0.000263257,-0.00571391,-1.44191,0.00389999,0.0169721,629,953,-10.5935,-0.993009
-588,71,-10.5953,0.943237,-0.00591491,0.000328992,-0.000824272,0.000435974,-0.00602189,-1.44173,0.00416753,0.016766,636,953,-10.5953,-0.94321
-581,71,-10.6798,0.787598,-0.00610181,0.000329395,-0.000918185,0.000457917,-0.00623033,-1.43173,0.0043143,0.0216016,643,953,-10.6798,-0.787622
-574,71,-10.9515,0.620544,-0.0060857,0.000538338,-0.00101283,0.000689741,-0.0062371,-1.42241,0.00440601,0.026376,650,953,-10.9516,-0.620571
-567,71,-11.1115,0.500549,-0.00573755,0.00107385,-0.00108704,0.00124312,-0.00590682,-1.41632,0.00441104,0.021091,657,953,-11.1115,-0.500526
-560,71,-11.1489,0.57019,-0.00496146,0.00161197,-0.00104689,0.00177467,-0.00512416,-1.41662,0.00413657,0.0287689,664,953,-11.1489,-0.570219
-553,71,-11.178,0.458557,-0.00356241,0.0023795,-0.00102175,0.00255029,-0.0037332,-1.40517,0.00364914,0.0403189,671,953,-11.1781,-0.458545
-546,71,-11.2277,0.468384,-0.00146107,0.0034391,-0.00105922,0.00365826,-0.00168023,-1.36677,0.00315191,0.0406735,678,953,-11.2277,-0.468368
-539,71,-11.1801,0.645935,0.00136868,0.00486359,-0.00123281,0.00525469,0.000977578,-1.2636,0.00322701,0.0402982,685,953,-11.1801,-0.645911
-532,71,-11.1232,0.913574,0.00488575,0.00678564,-0.00171261,0.00779412,0.00387728,-1.03861,0.00449996,0.0441052,692,953,-11.1232,-0.913558
-525,71,-11.0914,0.879395,0.00858839,0.00947752,-0.00280215,0.0118702,0.00619576,-0.864068,0.00685544,0.0431324,699,953,-11.0914,-0.879385
-518,71,0,0,0,0,0,0,0,0,0,-1,706,953,0,0
-511,71,0,0,0,0,0,0,0,0,0,-1,713,953,0,0
-504,71,0,0,0,0,0,0,0,0,0,-1,720,953,0,0
-497,71,0,0,0,0,0,0,0,0,0,-1,727,953,0,0
-490,71,0,0,0,0,0,0,0,0,0,-1,734,953,0,0
-483,71,0,0,0,0,0,0,0,0,0,-1,741,953,0,0
-476,71,0,0,0,0,0,0,0,0,0,-1,748,953,0,0
-469,71,0,0,0,0,0,0,0,0,0,-1,755,953,0,0
-462,71,0,0,0,0,0,0,0,0,0,-1,762,953,0,0
-455,71,0,0,0,0,0,0,0,0,0,-1,769,953,0,0
-448,71,0,0,0,0,0,0,0,0,0,-1,776,953,0,0
-441,71,0,0,0,0,0,0,0,0,0,-1,783,953,0,0
-434,71,0,0,0,0,0,0,0,0,0,-1,790,953,0,0
-427,71,0,0,0,0,0,0,0,0,0,-1,797,953,0,0
-420,71,0,0,0,0,0,0,0,0,0,-1,804,953,0,0
-413,71,0,0,0,0,0,0,0,0,0,-1,811,953,0,0
-406,71,0,0,0,0,0,0,0,0,0,-1,818,953,0,0
-399,71,0,0,0,0,0,0,0,0,0,-1,825,953,0,0
-392,71,0,0,0,0,0,0,0,0,0,-1,832,953,0,0
-385,71,0,0,0,0,0,0,0,0,0,-1,839,953,0,0
-378,71,0,0,0,0,0,0,0,0,0,-1,846,953,0,0
-371,71,0,0,0,0,0,0,0,0,0,-1,853,953,0,0
-364,71,0,0,0,0,0,0,0,0,0,-1,860,953,0,0
-357,71,0,0,0,0,0,0,0,0,0,-1,867,953,0,0
-350,71,0,0,0,0,0,0,0,0,0,-1,874,953,0,0
-343,71,0,0,0,0,0,0,0,0,0,-1,881,953,0,0
-336,71,0,0,0,0,0,0,0,0,0,-1,888,953,0,0
-329,71,0,0,0,0,0,0,0,0,0,-1,895,953,0,0
-322,71,0,0,0,0,0,0,0,0,0,-1,902,953,0,0
-315,71,0,0,0,0,0,0,0,0,0,-1,909,953,0,0
-308,71,0,0,0,0,0,0,0,0,0,-1,916,953,0,0
-301,71,0,0,0,0,0,0,0,0,0,-1,923,953,0,0
-294,71,0,0,0,0,0,0,0,0,0,-1,930,953,0,0
-287,71,0,0,0,0,0,0,0,0,0,-1,937,953,0,0
-280,71,0,0,0,0,0,0,0,0,0,-1,944,953,0,0
-273,71,0,0,0,0,0,0,0,0,0,-1,951,953,0,0
-266,71,0,0,0,0,0,0,0,0,0,-1,958,953,0,0
-259,71,0,0,0,0,0,0,0,0,0,-1,965,953,0,0
-252,71,0,0,0,0,0,0,0,0,0,-1,972,953,0,0
-245,71,0,0,0,0,0,0,0,0,0,-1,979,953,0,0
-238,71,0,0,0,0,0,0,0,0,0,-1,986,953,0,0
-231,71,0,0,0,0,0,0,0,0,0,-1,993,953,0,0
-224,71,0,0,0,0,0,0,0,0,0,-1,1000,953,0,0
-217,71,0,0,0,0,0,0,0,0,0,-1,1007,953,0,0
-210,71,0,0,0,0,0,0,0,0,0,-1,1014,953,0,0
-203,71,0,0,0,0,0,0,0,0,0,-1,1021,953,0,0
-196,71,0,0,0,0,0,0,0,0,0,-1,1028,953,0,0
-189,71,0,0,0,0,0,0,0,0,0,-1,1035,953,0,0
-182,71,0,0,0,0,0,0,0,0,0,-1,1042,953,0,0
-175,71,0,0,0,0,0,0,0,0,0,-1,1049,953,0,0
-168,71,0,0,0,0,0,0,0,0,0,-1,1056,953,0,0
-161,71,0,0,0,0,0,0,0,0,0,-1,1063,953,0,0
-154,71,0,0,0,0,0,0,0,0,0,-1,1070,953,0,0
-147,71,0,0,0,0,0,0,0,0,0,-1,1077,953,0,0
-140,71,0,0,0,0,0,0,0,0,0,-1,1084,953,0,0
-133,71,0,0,0,0,0,0,0,0,0,-1,1091,953,0,0
-126,71,0,0,0,0,0,0,0,0,0,-1,1098,953,0,0
-119,71,0,0,0,0,0,0,0,0,0,-1,1105,953,0,0
-112,71,0,0,0,0,0,0,0,0,0,-1,1112,953,0,0
-105,71,0,0,0,0,0,0,0,0,0,-1,1119,953,0,0
-98,71,0,0,0,0,0,0,0,0,0,-1,1126,953,0,0
-91,71,0,0,0,0,0,0,0,0,0,-1,1133,953,0,0
-84,71,0,0,0,0,0,0,0,0,0,-1,1140,953,0,0
-77,71,0,0,0,0,0,0,0,0,0,-1,1147,953,0,0
-70,71,0,0,0,0,0,0,0,0,0,-1,1154,953,0,0
-63,71,0,0,0,0,0,0,0,0,0,-1,1161,953,0,0
-56,71,0,0,0,0,0,0,0,0,0,-1,1168,953,0,0
-49,71,0,0,0,0,0,0,0,0,0,-1,1175,953,0,0
-42,71,0,0,0,0,0,0,0,0,0,-1,1182,953,0,0
-35,71,0,0,0,0,0,0,0,0,0,-1,1189,953,0,0
-28,71,0,0,0,0,0,0,0,0,0,-1,1196,953,0,0
-21,71,0,0,0,0,0,0,0,0,0,-1,1203,953,0,0
-14,71,0,0,0,0,0,0,0,0,0,-1,1210,953,0,0
-7,71,0,0,0,0,0,0,0,0,0,-1,1217,953,0,0
0,71,0,0,0,0,0,0,0,0,0,-1,1224,953,0,0
7,71,0,0,0,0,0,0,0,0,0,-1,1231,953,0,0
14,71,0,0,0,0,0,0,0,0,0,-1,1238,953,0,0
21,71,0,0,0,0,0,0,0,0,0,-1,1245,953,0,0
28,71,0,0,0,0,0,0,0,0,0,-1,1252,953,0,0
35,71,0,0,0,0,0,0,0,0,0,-1,1259,953,0,0
42,71,0,0,0,0,0,0,0,0,0,-1,1266,953,0,0
49,71,0,0,0,0,0,0,0,0,0,-1,1273,953,0,0
56,71,0,0,0,0,0,0,0,0,0,-1,1280,953,0,0
63,71,0,0,0,0,0,0,0,0,0,-1,1287,953,0,0
70,71,0,0,0,0,0,0,0,0,0,-1,1294,953,0,0
77,71,0,0,0,0,0,0,0,0,0,-1,1301,953,0,0
84,71,0,0,0,0,0,0,0,0,0,-1,1308,953,0,0
91,71,0,0,0,0,0,0,0,0,0,-1,1315,953,0,0
98,71,0,0,0,0,0,0,0,0,0,-1,1322,953,0,0
105,71,0,0,0,0,0,0,0,0,0,-1,1329,953,0,0
112,71,0,0,0,0,0,0,0,0,0,-1,1336,953,0,0
119,71,0,0,0,0,0,0,0,0,0,-1,1343,953,0,0
126,71,0,0,0,0,0,0,0,0,0,-1,1350,953,0,0
133,71,0,0,0,0,0,0,0,0,0,-1,1357,953,0,0
140,71,0,0,0,0,0,0,0,0,0,-1,1364,953,0,0
147,71,0,0,0,0,0,0,0,0,0,-1,1371,953,0,0
154,71,0,0,0,0,0,0,0,0,0,-1,1378,953,0,0
161,71,0,0,0,0,0,0,0,0,0,-1,1385,953,0,0
168,71,0,0,0,0,0,0,0,0,0,-1,1392,953,0,0
175,71,0,0,0,0,0,0,0,0,0,-1,1399,953,0,0
182,71,0,0,0,0,0,0,0,0,0,-1,1406,953,0,0
189,71,0,0,0,0,0,0,0,0,0,-1,1413,953,0,0
196,71,0,0,0,0,0,0,0,0,0,-1,1420,953,0,0
203,71,0,0,0,0,0,0,0,0,0,-1,1427,953,0,0
210,71,0,0,0,0,0,0,0,0,0,-1,1434,953,0,0
217,71,0,0,0,0,0,0,0,0,0,-1,1441,953,0,0
224,71,0,0,0,0,0,0,0,0,0,-1,1448,953,0,0
231,71,0,0,0,0,0,0,0,0,0,-1,1455,953,0,0
238,71,0,0,0,0,0,0,0,0,0,-1,1462,953,0,0
245,71,0,0,0,0,0,0,0,0,0,-1,1469,953,0,0
252,71,0,0,0,0,0,0,0,0,0,-1,1476,953,0,0
259,71,0,0,0,0,0,0,0,0,0,-1,1483,953,0,0
266,71,0,0,0,0,0,0,0,0,0,-1,1490,953,0,0
273,71,0,0,0,0,0,0,0,0,0,-1,1497,953,0,0
280,71,0,0,0,0,0,0,0,0,0,-1,1504,953,0,0
287,71,0,0,0,0,0,0,0,0,0,-1,1511,953,0,0
294,71,0,0,0,0,0,0,0,0,0,-1,1518,953,0,0
301,71,0,0,0,0,0,0,0,0,0,-1,1525,953,0,0
308,71,0,0,0,0,0,0,0,0,0,-1,1532,953,0,0
315,71,0,0,0,0,0,0,0,0,0,-1,1539,953,0,0
322,71,0,0,0,0,0,0,0,0,0,-1,1546,953,0,0
329,71,0,0,0,0,0,0,0,0,0,-1,1553,953,0,0
336,71,0,0,0,0,0,0,0,0,0,-1,1560,953,0,0
343,71,0,0,0,0,0,0,0,0,0,-1,1567,953,0,0
350,71,0,0,0,0,0,0,0,0,0,-1,1574,953,0,0
357,71,0,0,0,0,0,0,0,0,0,-1,1581,953,0,0
364,71,0,0,0,0,0,0,0,0,0,-1,1588,953,0,0
371,71,0,0,0,0,0,0,0,0,0,-1,1595,953,0,0
378,71,0,0,0,0,0,0,0,0,0,-1,1602,953,0,0
385,71,0,0,0,0,0,0,0,0,0,-1,1609,953,0,0
392,71,0,0,0,0,0,0,0,0,0,-1,1616,953,0,0
399,71,0,0,0,0,0,0,0,0,0,-1,1623,953,0,0
406,71,0,0,0,0,0,0,0,0,0,-1,1630,953,0,0
413,71,0,0,0,0,0,0,0,0,0,-1,1637,953,0,0
420,71,0,0,0,0,0,0,0,0,0,-1,1644,953,0,0
427,71,0,0,0,0,0,0,0,0,0,-1,1651,953,0,0
434,71,0,0,0,0,0,0,0,0,0,-1,1658,953,0,0
441,71,0,0,0,0,0,0,0,0,0,-1,1665,953,0,0
448,71,0,0,0,0,0,0,0,0,0,-1,1672,953,0,0
455,71,0,0,0,0,0,0,0,0,0,-1,1679,953,0,0
462,71,0,0,0,0,0,0,0,0,0,-1,1686,953,0,0
469,71,0,0,0,0,0,0,0,0,0,-1,1693,953,0,0
476,71,0,0,0,0,0,0,0,0,0,-1,1700,953,0,0
483,71,0,0,0,0,0,0,0,0,0,-1,1707,953,0,0
490,71,0,0,0,0,0,0,0,0,0,-1,1714,953,0,0
497,71,0,0,0,0,0,0,0,0,0,-1,1721,953,0,0
504,71,0,0,0,0,0,0,0,0,0,-1,1728,953,0,0
511,71,0,0,0,0,0,0,0,0,0,-1,1735,953,0,0
518,71,0,0,0,0,0,0,0,0,0,-1,1742,953,0,0
525,71,0,0,0,0,0,0,0,0,0,-1,1749,953,0,0
532,71,0,0,0,0,0,0,0,0,0,-1,1756,953,0,0
539,71,0,0,0,0,0,0,0,0,0,-1,1763,953,0,0
546,71,0,0,0,0,0,0,0,0,0,-1,1770,953,0,0
553,71,0,0,0,0,0,0,0,0,0,-1,1777,953,0,0
560,71,0,0,0,0,0,0,0,0,0,-1,1784,953,0,0
567,71,0,0,0,0,0,0,0,0,0,-1,1791,953,0,0
574,71,0,0,0,0,0,0,0,0,0,-1,1798,953,0,0
581,71,0,0,0,0,0,0,0,0,0,-1,1805,953,0,0
588,71,0,0,0,0,0,0,0,0,0,-1,1812,953,0,0
595,71,0,0,0,0,0,0,0,0,0,-1,1819,953,0,0
602,71,0,0,0,0,0,0,0,0,0,-1,1826,953,0,0
609,71,0,0,0,0,0,0,0,0,0,-1,1833,953,0,0
616,71,0,0,0,0,0,0,0,0,0,-1,1840,953,0,0
623,71,0,0,0,0,0,0,0,0,0,-1,1847,953,0,0
630,71,0,0,0,0,0,0,0,0,0,-1,1854,953,0,0
637,71,16.8904,2.21167,0.00791362,0.00671453,0.00411883,0.0114763,0.00315184,0.713125,0.00684652,0.0431028,1861,953,16.8904,-2.21167
644,71,16.809,2.25281,0.00586452,0.00486627,0.00314453,0.00854929,0.0021815,0.70669,0.00512939,0.0444945,1868,953,16.8089,-2.25279
651,71,17.0887,2.27942,0.00446597,0.00367353,0.00232364,0.00642693,0.00171257,0.700953,0.00384313,0.0411837,1875,953,17.0887,-2.27942
658,71,17.243,2.35437,0.00241608,0.00292103,0.00178895,0.00447524,0.000861876,0.8555,0.00274173,0.0379277,1882,953,17.243,-2.35436
665,71,17.1455,2.45172,-0.000186672,0.0024696,0.00155318,0.00318507,-0.000902139,1.13912,0.00247942,0.0373943,1889,953,17.1455,-2.45171
672,71,17.0945,2.42981,-0.00286924,0.00223707,0.00150949,0.00264991,-0.00328208,1.30383,0.00343132,0.0394349,1896,953,17.0945,-2.42981
679,71,17.1755,2.34399,-0.00528017,0.00208417,0.00159938,0.00241652,-0.00561253,1.36591,0.00475641,0.0398425,1903,953,17.1755,-2.34401
686,71,17.188,2.40204,-0.00720563,0.00195531,0.00172724,0.00227015,-0.00752047,1.3905,0.00591734,0.0381697,1910,953,17.188,-2.40202
693,71,17.1813,2.44653,-0.00872092,0.00176696,0.0017741,0.00205894,-0.00901289,1.40768,0.00679962,0.0350441,1917,953,17.1813,-2.44655
700,71,17.1589,2.46686,-0.00968687,0.0017282,0.0018791,0.00202957,-0.00998824,1.41177,0.00742835,0.0305589,1924,953,17.1589,-2.46688
707,71,17.1187,2.69556,-0.0101205,0.00169176,0.00186282,0.00197857,-0.0104073,1.41803,0.00768312,0.0271301,1931,953,17.1187,-2.69557
714,71,16.3698,3.07416,0,0,0,0,0,0,0,-1,1938,953,16.3697,-3.07415
721,71,16.2667,3.11908,-0.00921987,0.00158807,0.00126859,0.00173498,-0.00936677,1.45551,0.00689598,0.0274506,1945,953,16.2668,-3.11905
728,71,16.1984,3.2207,-0.00828261,0.00169821,0.00042811,0.00171654,-0.00830094,1.52801,0.00618604,0.0177476,1952,953,16.1984,-3.2207
735,71,16.196,3.28796,-0.00741324,0.000726005,-0.000570887,0.000765852,-0.00745309,-1.50111,0.00524269,0.011824,1959,953,16.196,-3.28795
742,71,16.2029,3.36835,-0.00640093,-0.00079347,-0.00183209,-0.000247953,-0.00694645,-1.2814,0.00455057,0.0129328,1966,953,16.2029,-3.36837
749,71,16.2294,3.46191,-0.00512078,-0.00247438,-0.00347444,-7.97014e-05,-0.00751546,-0.967337,0.00498395,0.0148069,1973,953,16.2294,-3.46194
756,71,16.2292,3.56915,-0.0033455,-0.00366552,-0.00526461,0.00176153,-0.00877255,-0.770206,0.00651541,0.0145198,1980,953,16.2293,-3.56916
763,71,16.2119,3.64502,-0.00215037,-0.00534435,-0.00740546,0.00382834,-0.0113231,-0.679199,0.00909741,0.0127632,1987,953,16.2119,-3.64499
770,71,16.1813,3.69086,-0.00171493,-0.0076853,-0.00962393,0.00537616,-0.0147764,-0.635012,0.0120496,0.0147736,1994,953,16.1813,-3.69084
777,71,16.0798,3.63849,-0.00162836,-0.0102315,-0.0118094,0.0066385,-0.0184984,-0.610741,0.0150416,0.033851,2001,953,16.0798,-3.63851
784,71,16.0536,3.52429,-0.00162175,-0.012826,-0.0139731,0.00783044,-0.0222782,-0.594748,0.018038,0.0440563,2008,953,16.0535,-3.52428
791,71,16.0493,3.31665,-0.00126978,-0.0151676,-0.0160345,0.00925683,-0.0256942,-0.580929,0.0209096,0.0439973,2015,953,16.0494,-3.31664
798,71,15.9706,3.11584,0,0,0,0,0,0,0,-1,2022,953,15.9706,-3.11587
805,71,16.9558,3.14136,0,0,0,0,0,0,0,-1,2029,953,16.9559,-3.14135
812,71,0,0,0,0,0,0,0,0,0,-1,2036,953,0,0
-700,64,0,0,0,0,0,0,0,0,0,-1,524,960,0,0
-693,64,0,0,0,0,0,0,0,0,0,-1,531,960,0,0
-686,64,-10.4832,1.96832,0,0,0,0,0,0,0,-1,538,960,-10.4831,-1.96831
-679,64,-10.5311,1.84363,0,0,0,0,0,0,0,-1,545,960,-10.5311,-1.84365
-672,64,-10.5933,1.71783,-0.0268712,0.0185035,0.00247236,0.0186379,-0.0270055,1.51652,0.0264994,0.0471278,552,960,-10.5932,-1.7178
-665,64,-10.6593,1.74023,-0.0193452,0.0199379,0.00328594,0.0202109,-0.0196182,1.48792,0.0229962,0.0450266,559,960,-10.6593,-1.74023
-658,64,-10.3648,1.74182,0,0,0,0,0,0,0,-1,566,960,-10.3648,-1.74184
-651,64,-10.5765,1.59875,-0.00993945,0.0165827,0.00354159,0.0170474,-0.0104042,1.44031,0.0160032,0.0416393,573,960,-10.5765,-1.59876
-644,64,-10.6116,1.41919,-0.00712541,0.0136664,0.00322073,0.0141539,-0.00761288,1.42058,0.0127548,0.0294419,580,960,-10.6116,-1.41918
-637,64,-10.6395,1.37048,-0.00507531,0.0109568,0.00256753,0.0113579,-0.00547646,1.41581,0.00991509,0.014546,587,960,-10.6395,-1.37045
-630,64,-10.6655,1.30353,-0.00399918,0.00825569,0.00192355,0.00855053,-0.00429401,1.41871,0.00755031,0.0116396,594,960,-10.6655,-1.30354
-623,64,-10.6653,1.23987,-0.00327462,0.00628495,0.00139083,0.00648319,-0.00347286,1.42921,0.00583506,0.0129795,601,960,-10.6654,-1.23987
-616,64,-10.6796,1.16571,-0.00310886,0.0043212,0.000862325,0.00441997,-0.00320763,1.45676,0.0044223,0.0162767,608,960,-10.6796,-1.16573
-609,64,-10.6619,1.11316,-0.00389913,0.00276444,0.0002046,0.00277072,-0.0039054,1.54013,0.00387297,0.0153487,615,960,-10.6619,-1.11316
-602,64,-10.6492,1.05054,-0.00471045,0.00113502,-0.000809631,0.00124509,-0.00482052,-1.43568,0.00369923,0.0166787,622,960,-10.6492,-1.05055
-595,64,-10.6616,0.99707,-0.00518979,0.000487448,-0.00125265,0.000751552,-0.0054539,-1.363,0.0039106,0.0176205,629,960,-10.6616,-0.99709
-588,64,-10.6718,0.977417,-0.00540272,0.000536586,-0.00135913,0.000832828,-0.00569897,-1.35619,0.00410518,0.0227936,636,960,-10.6717,-0.97741
-581,64,-10.7874,0.866089,-0.00553726,0.000542392,-0.00147239,0.000880209,-0.00587508,-1.34526,0.00424068,0.0270313,643,960,-10.7873,-0.866075
-574,64,-10.9971,0.705627,-0.0054454,0.000756151,-0.00159416,0.00114194,-0.00583119,-1.33336,0.00431873,0.0319477,650,960,-10.9971,-0.705598
-567,64,-11.0604,0.562012,-0.00503702,0.00120906,-0.00170164,0.00164256,-0.00547051,-1.32135,0.0043004,0.0256922,657,960,-11.0604,-0.56204
-560,64,-11.1189,0.656555,-0.00419773,0.0016829,-0.00171219,0.00214509,-0.00465992,-1.30714,0.00401731,0.0325622,664,960,-11.1189,-0.656552
-553,64,-11.2067,0.588806,-0.00273877,0.00234962,-0.00173908,0.0028872,-0.00327634,-1.271,0.00356089,0.0372006,671,960,-11.2067,-0.588806
-546,64,-11.2811,0.425659,-0.000591072,0.00327572,-0.00183991,0.00401127,-0.00132662,-1.19048,0.00320913,0.0397014,678,960,-11.2811,-0.425679
-539,64,-11.3287,0.49353,0.00227369,0.00453557,-0.0021034,0.00579279,0.00101647,-1.03206,0.00357158,0.0414079,685,960,-11.3287,-0.493532
-532,64,-11.2062,0.655884,0.00578817,0.00629055,-0.0027408,0.00879165,0.00328707,-0.831094,0.0051294,0.042575,692,960,-11.2062,-0.655886
-525,64,-11.1079,0.778381,0.00939359,0.00885225,-0.00408044,0.0132123,0.00503351,-0.75228,0.00769986,0.041137,699,960,-11.1079,-0.77841
-518,64,0,0,0,0,0,0,0,0,0,-1,706,960,0,0
-511,64,0,0,0,0,0,0,0,0,0,-1,713,960,0,0
-504,64,0,0,0,0,0,0,0,0,0,-1,720,960,0,0
-497,64,0,0,0,0,0,0,0,0,0,-1,727,960,0,0
-490,64,0,0,0,0,0,0,0,0,0,-1,734,960,0,0
-483,64,0,0,0,0,0,0,0,0,0,-1,741,960,0,0
-476,64,0,0,0,0,0,0,0,0,0,-1,748,960,0,0
-469,64,0,0,0,0,0,0,0,0,0,-1,755,960,0,0
-462,64,0,0,0,0,0,0,0,0,0,-1,762,960,0,0
-455,64,0,0,0,0,0,0,0,0,0,-1,769,960,0,0
-448,64,0,0,0,0,0,0,0,0,0,-1,776,960,0,0
-441,64,0,0,0,0,0,0,0,0,0,-1,783,960,0,0
-434,64,0,0,0,0,0,0,0,0,0,-1,790,960,0,0
-427,64,0,0,0,0,0,0,0,0,0,-1,797,960,0,0
-420,64,0,0,0,0,0,0,0,0,0,-1,804,960,0,0
-413,64,0,0,0,0,0,0,0,0,0,-1,811,960,0,0
-406,64,0,0,0,0,0,0,0,0,0,-1,818,960,0,0
-399,64,0,0,0,0,0,0,0,0,0,-1,825,960,0,0
-392,64,0,0,0,0,0,0,0,0,0,-1,832,960,0,0
-385,64,0,0,0,0,0,0,0,0,0,-1,839,960,0,0
-378,64,0,0,0,0,0,0,0,0,0,-1,846,960,0,0
-371,64,0,0,0,0,0,0,0,0,0,-1,853,960,0,0
-364,64,0,0,0,0,0,0,0,0,0,-1,860,960,0,0
-357,64,0,0,0,0,0,0,0,0,0,-1,867,960,0,0
-350,64,0,0,0,0,0,0,0,0,0,-1,874,960,0,0
-343,64,0,0,0,0,0,0,0,0,0,-1,881,960,0,0
-336,64,0,0,0,0,0,0,0,0,0,-1,888,960,0,0
-329,64,0,0,0,0,0,0,0,0,0,-1,895,960,0,0
-322,64,0,0,0,0,0,0,0,0,0,-1,902,960,0,0
-315,64,0,0,0,0,0,0,0,0,0,-1,909,960,0,0
-308,64,0,0,0,0,0,0,0,0,0,-1,916,960,0,0
-301,64,0,0,0,0,0,0,0,0,0,-1,923,960,0,0
-294,64,0,0,0,0,0,0,0,0,0,-1,930,960,0,0
-287,64,0,0,0,0,0,0,0,0,0,-1,937,960,0,0
-280,64,0,0,0,0,0,0,0,0,0,-1,944,960,0,0
-273,64,0,0,0,0,0,0,0,0,0,-1,951,960,0,0
-266,64,0,0,0,0,0,0,0,0,0,-1,958,960,0,0
-259,64,0,0,0,0,0,0,0,0,0,-1,965,960,0,0
-252,64,0,0,0,0,0,0,0,0,0,-1,972,960,0,0
-245,64,0,0,0,0,0,0,0,0,0,-1,979,960,0,0
-238,64,0,0,0,0,0,0,0,0,0,-1,986,960,0,0
-231,64,0,0,0,0,0,0,0,0,0,-1,993,960,0,0
-224,64,0,0,0,0,0,0,0,0,0,-1,1000,960,0,0
-217,64,0,0,0,0,0,0,0,0,0,-1,1007,960,0,0
-210,64,0,0,0,0,0,0,0,0,0,-1,1014,960,0,0
-203,64,0,0,0,0,0,0,0,0,0,-1,1021,960,0,0
-196,64,0,0,0,0,0,0,0,0,0,-1,1028,960,0,0
-189,64,0,0,0,0,0,0,0,0,0,-1,1035,960,0,0
-182,64,0,0,0,0,0,0,0,0,0,-1,1042,960,0,0
-175,64,0,0,0,0,0,0,0,0,0,-1,1049,960,0,0
-168,64,0,0,0,0,0,0,0,0,0,-1,1056,960,0,0
-161,64,0,0,0,0,0,0,0,0,0,-1,1063,960,0,0
-154,64,0,0,0,0,0,0,0,0,0,-1,1070,960,0,0
-147,64,0,0,0,0,0,0,0,0,0,-1,1077,960,0,0
-140,64,0,0,0,0,0,0,0,0,0,-1,1084,960,0,0
-133,64,0,0,0,0,0,0,0,0,0,-1,1091,960,0,0
-126,64,0,0,0,0,0,0,0,0,0,-1,1098,960,0,0
-119,64,0,0,0,0,0,0,0,0,0,-1,1105,960,0,0
-112,64,0,0,0,0,0,0,0,0,0,-1,1112,960,0,0
-105,64,0,0,0,0,0,0,0,0,0,-1,1119,960,0,0
-98,64,0,0,0,0,0,0,0,0,0,-1,1126,960,0,0
-91,64,0,0,0,0,0,0,0,0,0,-1,1133,960,0,0
-84,64,0,0,0,0,0,0,0,0,0,-1,1140,960,0,0
-77,64,0,0,0,0,0,0,0,0,0,-1,1147,960,0,0
-70,64,0,0,0,0,0,0,0,0,0,-1,1154,960,0,0
-63,64,0,0,0,0,0,0,0,0,0,-1,1161,960,0,0
-56,64,0,0,0,0,0,0,0,0,0,-1,1168,960,0,0
-49,64,0,0,0,0,0,0,0,0,0,-1,1175,960,0,0
-42,64,0,0,0,0,0,0,0,0,0,-1,1182,960,0,0
-35,64,0,0,0,0,0,0,0,0,0,-1,1189,960,0,0
-28,64,0,0,0,0,0,0,0,0,0,-1,1196,960,0,0
-21,64,0,0,0,0,0,0,0,0,0,-1,1203,960,0,0
-14,64,0,0,0,0,0,0,0,0,0,-1,1210,960,0,0
-7,64,0,0,0,0,0,0,0,0,0,-1,1217,960,0,0
0,64,0,0,0,0,0,0,0,0,0,-1,1224,960,0,0
7,64,0,0,0,0,0,0,0,0,0,-1,1231,960,0,0
14,64,0,0,0,0,0,0,0,0,0,-1,1238,960,0,0
21,64,0,0,0,0,0,0,0,0,0,-1,1245,960,0,0
28,64,0,0,0,0,0,0,0,0,0,-1,1252,960,0,0
35,64,0,0,0,0,0,0,0,0,0,-1,1259,960,0,0
42,64,0,0,0,0,0,0,0,0,0,-1,1266,960,0,0
49,64,0,0,0,0,0,0,0,0,0,-1,1273,960,0,0
56,64,0,0,0,0,0,0,0,0,0,-1,1280,960,0,0
63,64,0,0,0,0,0,0,0,0,0,-1,1287,960,0,0
70,64,0,0,0,0,0,0,0,0,0,-1,1294,960,0,0
77,64,0,0,0,0,0,0,0,0,0,-1,1301,960,0,0
84,64,0,0,0,0,0,0,0,0,0,-1,1308,960,0,0
91,64,0,0,0,0,0,0,0,0,0,-1,1315,960,0,0
98,64,0,0,0,0,0,0,0,0,0,-1,1322,960,0,0
105,64,0,0,0,0,0,0,0,0,0,-1,1329,960,0,0
112,64,0,0,0,0,0,0,0,0,0,-1,1336,960,0,0
119,64,0,0,0,0,0,0,0,0,0,-1,1343,960,0,0
126,64,0,0,0,0,0,0,0,0,0,-1,1350,960,0,0
133,64,0,0,0,0,0,0,0,0,0,-1,1357,960,0,0
140,64,0,0,0,0,0,0,0,0,0,-1,1364,960,0,0
147,64,0,0,0,0,0,0,0,0,0,-1,1371,960,0,0
154,64,0,0,0,0,0,0,0,0,0,-1,1378,960,0,0
161,64,0,0,0,0,0,0,0,0,0,-1,1385,960,0,0
168,64,0,0,0,0,0,0,0,0,0,-1,1392,960,0,0
175,64,0,0,0,0,0,0,0,0,0,-1,1399,960,0,0
182,64,0,0,0,0,0,0,0,0,0,-1,1406,960,0,0
189,64,0,0,0,0,0,0,0,0,0,-1,1413,960,0,0
196,64,0,0,0,0,0,0,0,0,0,-1,1420,960,0,0
203,64,0,0,0,0,0,0,0,0,0,-1,1427,960,0,0
210,64,0,0,0,0,0,0,0,0,0,-1,1434,960,0,0
217,64,0,0,0,0,0,0,0,0,0,-1,1441,960,0,0
224,64,0,0,0,0,0,0,0,0,0,-1,1448,960,0,0
231,64,0,0,0,0,0,0,0,0,0,-1,1455,960,0,0
238,64,0,0,0,0,0,0,0,0,0,-1,1462,960,0,0
245,64,0,0,0,0,0,0,0,0,0,-1,1469,960,0,0
252,64,0,0,0,0,0,0,0,0,0,-1,1476,960,0,0
259,64,0,0,0,0,0,0,0,0,0,-1,1483,960,0,0
266,64,0,0,0,0,0,0,0,0,0,-1,1490,960,0,0
273,64,0,0,0,0,0,0,0,0,0,-1,1497,960,0,0
280,64,0,0,0,0,0,0,0,0,0,-1,1504,960,0,0
287,64,0,0,0,0,0,0,0,0,0,-1,1511,960,0,0
294,64,0,0,0,0,0,0,0,0,0,-1,1518,960,0,0
301,64,0,0,0,0,0,0,0,0,0,-1,1525,960,0,0
308,64,0,0,0,0,0,0,0,0,0,-1,1532,960,0,0
315,64,0,0,0,0,0,0,0,0,0,-1,1539,960,0,0
322,64,0,0,0,0,0,0,0,0,0,-1,1546,960,0,0
329,64,0,0,0,0,0,0,0,0,0,-1,1553,960,0,0
336,64,0,0,0,0,0,0,0,0,0,-1,1560,960,0,0
343,64,0,0,0,0,0,0,0,0,0,-1,1567,960,0,0
350,64,0,0,0,0,0,0,0,0,0,-1,1574,960,0,0
357,64,0,0,0,0,0,0,0,0,0,-1,1581,960,0,0
364,64,0,0,0,0,0,0,0,0,0,-1,1588,960,0,0
371,64,0,0,0,0,0,0,0,0,0,-1,1595,960,0,0
378,64,0,0,0,0,0,0,0,0,0,-1,1602,960,0,0
385,64,0,0,0,0,0,0,0,0,0,-1,1609,960,0,0
392,64,0,0,0,0,0,0,0,0,0,-1,1616,960,0,0
399,64,0,0,0,0,0,0,0,0,0,-1,1623,960,0,0
406,64,0,0,0,0,0,0,0,0,0,-1,1630,960,0,0
413,64,0,0,0,0,0,0,0,0,0,-1,1637,960,0,0
420,64,0,0,0,0,0,0,0,0,0,-1,1644,960,0,0
427,64,0,0,0,0,0,0,0,0,0,-1,1651,960,0,0
434,64,0,0,0,0,0,0,0,0,0,-1,1658,960,0,0
441,64,0,0,0,0,0,0,0,0,0,-1,1665,960,0,0
448,64,0,0,0,0,0,0,0,0,0,-1,1672,960,0,0
455,64,0,0,0,0,0,0,0,0,0,-1,1679,960,0,0
462,64,0,0,0,0,0,0,0,0,0,-1,1686,960,0,0
469,64,0,0,0,0,0,0,0,0,0,-1,1693,960,0,0
476,64,0,0,0,0,0,0,0,0,0,-1,1700,960,0,0
483,64,0,0,0,0,0,0,0,0,0,-1,1707,960,0,0
490,64,0,0,0,0,0,0,0,0,0,-1,1714,960,0,0
497,64,0,0,0,0,0,0,0,0,0,-1,1721,960,0,0
504,64,0,0,0,0,0,0,0,0,0,-1,1728,960,0,0
511,64,0,0,0,0,0,0,0,0,0,-1,1735,960,0,0
518,64,0,0,0,0,0,0,0,0,0,-1,1742,960,0,0
525,64,0,0,0,0,0,0,0,0,0,-1,1749,960,0,0
532,64,0,0,0,0,0,0,0,0,0,-1,1756,960,0,0
539,64,0,0,0,0,0,0,0,0,0,-1,1763,960,0,0
546,64,0,0,0,0,0,0,0,0,0,-1,1770,960,0,0
553,64,0,0,0,0,0,0,0,0,0,-1,1777,960,0,0
560,64,0,0,0,0,0,0,0,0,0,-1,1784,960,0,0
567,64,0,0,0,0,0,0,0,0,0,-1,1791,960,0,0
574,64,0,0,0,0,0,0,0,0,0,-1,1798,960,0,0
581,64,0,0,0,0,0,0,0,0,0,-1,1805,960,0,0
588,64,0,0,0,0,0,0,0,0,0,-1,1812,960,0,0
595,64,0,0,0,0,0,0,0,0,0,-1,1819,960,0,0
602,64,0,0,0,0,0,0,0,0,0,-1,1826,960,0,0
609,64,0,0,0,0,0,0,0,0,0,-1,1833,960,0,0
616,64,0,0,0,0,0,0,0,0,0,-1,1840,960,0,0
623,64,0,0,0,0,0,0,0,0,0,-1,1847,960,0,0
630,64,0,0,0,0,0,0,0,0,0,-1,1854,960,0,0
637,64,0,0,0,0,0,0,0,0,0,-1,1861,960,0,0
644,64,17.1283,2.43158,0.00649504,0.004133,0.00312503,0.00865477,0.00197327,0.604733,0.0052375,0.0431076,1868,960,17.1283,-2.43159
651,64,17.222,2.42566,0.00498422,0.00317424,0.00222098,0.00647752,0.00168095,0.591932,0.00388132,0.0398771,1875,960,17.222,-2.42568
658,64,17.2241,2.42419,0.00315457,0.00258523,0.00171804,0.00461136,0.00112843,0.703297,0.00277564,0.0365523,1882,960,17.2241,-2.42419
665,64,17.082,2.58362,0.000883216,0.00229056,0.00158115,0.00331755,-0.000143775,0.994758,0.00226115,0.0393957,1889,960,17.0821,-2.58362
672,64,17.0089,2.72949,-0.00156052,0.00221055,0.00168025,0.00285058,-0.00220055,1.20685,0.00292431,0.0444894,1896,960,17.0089,-2.72946
679,64,17.114,2.64624,-0.00385013,0.00218169,0.00191935,0.00274064,-0.00440908,1.28742,0.00416519,0.0415677,1903,960,17.114,-2.64625
686,64,17.1588,2.32635,-0.00572791,0.00216011,0.0021697,0.00271752,-0.00628533,1.31933,0.00533211,0.0381393,1910,960,17.1588,-2.32634
693,64,17.1484,2.28717,-0.00724403,0.0020437,0.00233277,0.00259669,-0.00779702,1.33804,0.00624617,0.0355597,1917,960,17.1484,-2.28718
700,64,17.1765,2.41791,-0.00831925,0.00203501,0.00251293,0.00261266,-0.0088969,1.34485,0.0069674,0.0292249,1924,960,17.1765,-2.41792
707,64,17.1399,2.69073,-0.00895631,0.00202607,0.0025353,0.0025831,-0.00951334,1.35452,0.00735602,0.0292249,1931,960,17.1399,-2.6907
714,64,16.8877,3.04016,-0.00899357,0.00198221,0.00236462,0.00246997,-0.00948133,1.36738,0.00728515,0.0382522,1938,960,16.8877,-3.04018
721,64,16.3579,3.11127,-0.00847417,0.00190027,0.00194511,0.00225297,-0.00882687,1.39142,0.00676186,0.0285157,1945,960,16.3579,-3.11124
728,64,16.2518,3.24066,-0.00780744,0.00191528,0.00115153,0.0020498,-0.00794196,1.4545,0.00609393,0.0142561,1952,960,16.2519,-3.24067
735,64,16.2424,3.3316,-0.0071756,0.00102084,0.000256944,0.00102889,-0.00718365,1.53949,0.00516632,0.0166146,1959,960,16.2425,-3.33158
742,64,16.2969,3.37366,-0.0063387,-0.000320762,-0.000920981,-0.000182971,-0.00647649,-1.42228,0.00425798,0.0163185,1966,960,16.2969,-3.37367
749,64,16.2908,3.45758,-0.00520892,-0.00165429,-0.00244074,-0.000412327,-0.00645089,-1.1001,0.00416995,0.0137806,1973,960,16.2908,-3.45759
756,64,16.2988,3.53937,-0.0035289,-0.00233903,-0.00410968,0.00121856,-0.00708648,-0.857281,0.00517852,0.0141575,1980,960,16.2988,-3.53935
763,64,16.2947,3.61035,-0.00221187,-0.00321223,-0.0061286,0.00343693,-0.00886102,-0.744681,0.00732681,0.0133322,1987,960,16.2947,-3.61036
770,64,16.2661,3.66992,-0.00143861,-0.00446118,-0.00813481,0.0053241,-0.0112239,-0.693555,0.00975429,0.0126806,1994,960,16.2661,-3.66991
777,64,16.1498,3.63916,-0.000928318,-0.00552754,-0.010111,0.00714131,-0.0135972,-0.673582,0.0121652,0.0277246,2001,960,16.1498,-3.63913
784,64,16.1411,3.44507,-0.000486806,-0.00618377,-0.0121344,0.00912894,-0.0157995,-0.670113,0.0145632,0.0425973,2008,960,16.1411,-3.44504
791,64,16.1458,3.237,0,0,0,0,0,0,0,-1,2015,960,16.1458,-3.237
798,64,16.2791,1.6203,0,0,0,0,0,0,0,-1,2022,960,16.279,-1.62031
805,64,18.4546,6.55841,0,0,0,0,0,0,0,-1,2029,960,18.4546,-6.55843
812,64,0,0,0,0,0,0,0,0,0,-1,2036,960,0,0
-700,57,0,0,0,0,0,0,0,0,0,-1,524,967,0,0
-693,57,0,0,0,0,0,0,0,0,0,-1,531,967,0,0
-686,57,-9.22522,1.20569,0,0,0,0,0,0,0,-1,538,967,-9.22519,-1.20572
-679,57,-10.6133,1.42487,0,0,0,0,0,0,0,-1,545,967,-10.6134,-1.42488
-672,57,-10.6845,1.29889,-0.0254873,0.0181092,0.010586,0.0205437,-0.0279218,1.34475,0.0280895,0.0490249,552,967,-10.6845,-1.2989
-665,57,-10.7887,1.26581,-0.0190879,0.0202164,0.010109,0.022664,-0.0215355,1.33325,0.0255214,0.0456325,559,967,-10.7887,-1.26579
-658,57,-10.7241,1.00726,-0.0142474,0.0196035,0.00915014,0.0219185,-0.0165624,1.32299,0.0222886,0.04813,566,967,-10.724,-1.00728
-651,57,-10.731,1.10944,-0.0105953,0.0173917,0.0079124,0.0194737,-0.0126774,1.31349,0.0187002,0.0448057,573,967,-10.7309,-1.10944
-644,57,-10.7326,1.34076,-0.00785758,0.0144295,0.00653529,0.0162045,-0.00963257,1.30559,0.015077,0.0278263,580,967,-10.7326,-1.34077
-637,57,-10.7126,1.33453,-0.00573815,0.0117372,0.00489514,0.013015,-0.00701593,1.31546,0.0117364,0.0140466,587,967,-10.7126,-1.33453
-630,57,-10.7463,1.28864,-0.0045379,0.00889395,0.00349643,0.00974959,-0.00539355,1.33079,0.00886265,0.011518,594,967,-10.7463,-1.28864
-623,57,-10.7202,1.24109,-0.00370845,0.00670974,0.00235546,0.00721753,-0.00421624,1.35846,0.00667667,0.0117756,601,967,-10.7202,-1.24107
-616,57,-10.7256,1.19299,-0.00337602,0.00453273,0.00131056,0.00474425,-0.00358754,1.41078,0.00482579,0.0135516,608,967,-10.7256,-1.19301
-609,57,-10.7395,1.11133,-0.00387732,0.00290629,0.000348882,0.00292419,-0.00389521,1.51955,0.00395047,0.0136815,615,967,-10.7395,-1.11133
-602,57,-10.7327,1.05548,-0.00442933,0.00129148,-0.000902492,0.00143047,-0.00456832,-1.41798,0.0036179,0.0113019,622,967,-10.7326,-1.05549
-595,57,-10.7405,1.01263,-0.0046676,0.000689773,-0.00159145,0.00112687,-0.00510469,-1.30276,0.00383435,0.0122739,629,967,-10.7405,-1.01265
-588,57,-10.7827,1.00427,-0.00470758,0.000626307,-0.00181076,0.00118294,-0.00526422,-1.27256,0.00396308,0.0166974,636,967,-10.7827,-1.00426
-581,57,-10.8912,0.894348,-0.00476804,0.000609112,-0.00197852,0.00125865,-0.00541758,-1.25359,0.00409624,0.023041,643,967,-10.8912,-0.894365
-574,57,-11.013,0.699585,-0.00459992,0.000825715,-0.00212693,0.0015601,-0.00533431,-1.23833,0.00417457,0.0287132,650,967,-11.013,-0.699575
-567,57,-11.0623,0.455811,-0.0041376,0.0011723,-0.00222829,0.00198348,-0.00494878,-1.22167,0.00412259,0.0320459,657,967,-11.0623,-0.45583
-560,57,-11.0149,0.603638,-0.00324843,0.00154237,-0.00224014,0.00242663,-0.00413269,-1.19484,0.00382948,0.036242,664,967,-11.0149,-0.603658
-553,57,-11.1155,0.701965,-0.00176672,0.00206571,-0.00227006,0.00312019,-0.0028212,-1.13594,0.00343171,0.0383581,671,967,-11.1156,-0.701944
-546,57,-11.2801,0.342896,0.000369644,0.00278405,-0.00238084,0.00424625,-0.00109256,-1.02003,0.0032567,0.0434092,678,967,-11.2801,-0.342883
-539,57,-11.3358,0.319031,0.00319407,0.00375807,-0.00268356,0.0061744,0.000777735,-0.837748,0.00388307,0.044601,685,967,-11.3358,-0.319055
-532,57,-11.2184,0.41626,0.00660451,0.00515035,-0.00343721,0.00939071,0.00236416,-0.681169,0.00564007,0.0425448,692,967,-11.2184,-0.416288
-525,57,-11.1762,0.420776,0.010025,0.00727225,-0.00497316,0.0138087,0.0034885,-0.650399,0.00829132,0.0412272,699,967,-11.1762,-0.420793
-518,57,0,0,0,0,0,0,0,0,0,-1,706,967,0,0
-511,57,0,0,0,0,0,0,0,0,0,-1,713,967,0,0
-504,57,0,0,0,0,0,0,0,0,0,-1,720,967,0,0
-497,57,0,0,0,0,0,0,0,0,0,-1,727,967,0,0
-490,57,0,0,0,0,0,0,0,0,0,-1,734,967,0,0
-483,57,0,0,0,0,0,0,0,0,0,-1,741,967,0,0
-476,57,0,0,0,0,0,0,0,0,0,-1,748,967,0,0
-469,57,0,0,0,0,0,0,0,0,0,-1,755,967,0,0
-462,57,0,0,0,0,0,0,0,0,0,-1,762,967,0,0
-455,57,0,0,0,0,0,0,0,0,0,-1,769,967,0,0
-448,57,0,0,0,0,0,0,0,0,0,-1,776,967,0,0
-441,57,0,0,0,0,0,0,0,0,0,-1,783,967,0,0
-434,57,0,0,0,0,0,0,0,0,0,-1,790,967,0,0
-427,57,0,0,0,0,0,0,0,0,0,-1,797,967,0,0
-420,57,0,0,0,0,0,0,0,0,0,-1,804,967,0,0
-413,57,0,0,0,0,0,0,0,0,0,-1,811,967,0,0
-406,57,0,0,0,0,0,0,0,0,0,-1,818,967,0,0
-399,57,0,0,0,0,0,0,0,0,0,-1,825,967,0,0
-392,57,0,0,0,0,0,0,0,0,0,-1,832,967,0,0
-385,57,0,0,0,0,0,0,0,0,0,-1,839,967,0,0
-378,57,0,0,0,0,0,0,0,0,0,-1,846,967,0,0
-371,57,0,0,0,0,0,0,0,0,0,-1,853,967,0,0
-364,57,0,0,0,0,0,0,0,0,0,-1,860,967,0,0
-357,57,0,0,0,0,0,0,0,0,0,-1,867,967,0,0
-350,57,0,0,0,0,0,0,0,0,0,-1,874,967,0,0
-343,57,0,0,0,0,0,0,0,0,0,-1,881,967,0,0
-336,57,0,0,0,0,0,0,0,0,0,-1,888,967,0,0
-329,57,0,0,0,0,0,0,0,0,0,-1,895,967,0,0
-322,57,0,0,0,0,0,0,0,0,0,-1,902,967,0,0
-315,57,0,0,0,0,0,0,0,0,0,-1,909,967,0,0
-308,57,0,0,0,0,0,0,0,0,0,-1,916,967,0,0
-301,57,0,0,0,0,0,0,0,0,0,-1,923,967,0,0
-294,57,0,0,0,0,0,0,0,0,0,-1,930,967,0,0
-287,57,0,0,0,0,0,0,0,0,0,-1,937,967,0,0
-280,57,0,0,0,0,0,0,0,0,0,-1,944,967,0,0
-273,57,0,0,0,0,0,0,0,0,0,-1,951,967,0,0
-266,57,0,0,0,0,0,0,0,0,0,-1,958,967,0,0
-259,57,0,0,0,0,0,0,0,0,0,-1,965,967,0,0
-252,57,0,0,0,0,0,0,0,0,0,-1,972,967,0,0
-245,57,0,0,0,0,0,0,0,0,0,-1,979,967,0,0
-238,57,0,0,0,0,0,0,0,0,0,-1,986,967,0,0
-231,57,0,0,0,0,0,0,0,0,0,-1,993,967,0,0
-224,57,0,0,0,0,0,0,0,0,0,-1,1000,967,0,0
-217,57,0,0,0,0,0,0,0,0,0,-1,1007,967,0,0
-210,57,0,0,0,0,0,0,0,0,0,-1,1014,967,0,0
-203,57,0,0,0,0,0,0,0,0,0,-1,1021,967,0,0
-196,57,0,0,0,0,0,0,0,0,0,-1,1028,967,0,0
-189,57,0,0,0,0,0,0,0,0,0,-1,1035,967,0,0
-182,57,0,0,0,0,0,0,0,0,0,-1,1042,967,0,0
-175,57,0,0,0,0,0,0,0,0,0,-1,1049,967,0,0
-168,57,0,0,0,0,0,0,0,0,0,-1,1056,967,0,0
-161,57,0,0,0,0,0,0,0,0,0,-1,1063,967,0,0
-154,57,0,0,0,0,0,0,0,0,0,-1,1070,967,0,0
-147,57,0,0,0,0,0,0,0,0,0,-1,1077,967,0,0
-140,57,0,0,0,0,0,0,0,0,0,-1,1084,967,0,0
-133,57,0,0,0,0,0,0,0,0,0,-1,1091,967,0,0
-126,57,0,0,0,0,0,0,0,0,0,-1,1098,967,0,0
-119,57,0,0,0,0,0,0,0,0,0,-1,1105,967,0,0
-112,57,0,0,0,0,0,0,0,0,0,-1,1112,967,0,0
-105,57,0,0,0,0,0,0,0,0,0,-1,1119,967,0,0
-98,57,0,0,0,0,0,0,0,0,0,-1,1126,967,0,0
-91,57,0,0,0,0,0,0,0,0,0,-1,1133,967,0,0
-84,57,0,0,0,0,0,0,0,0,0,-1,1140,967,0,0
-77,57,0,0,0,0,0,0,0,0,0,-1,1147,967,0,0
-70,57,0,0,0,0,0,0,0,0,0,-1,1154,967,0,0
-63,57,0,0,0,0,0,0,0,0,0,-1,1161,967,0,0
-56,57,0,0,0,0,0,0,0,0,0,-1,1168,967,0,0
-49,57,0,0,0,0,0,0,0,0,0,-1,1175,967,0,0
-42,57,0,0,0,0,0,0,0,0,0,-1,1182,967,0,0
-35,57,0,0,0,0,0,0,0,0,0,-1,1189,967,0,0
-28,57,0,0,0,0,0,0,0,0,0,-1,1196,967,0,0
-21,57,0,0,0,0,0,0,0,0,0,-1,1203,967,0,0
-14,57,0,0,0,0,0,0,0,0,0,-1,1210,967,0,0
-7,57,0,0,0,0,0,0,0,0,0,-1,1217,967,0,0
0,57,0,0,0,0,0,0,0,0,0,-1,1224,967,0,0
7,57,0,0,0,0,0,0,0,0,0,-1,1231,967,0,0
14,57,0,0,0,0,0,0,0,0,0,-1,1238,967,0,0
21,57,0,0,0,0,0,0,0,0,0,-1,1245,967,0,0
28,57,0,0,0,0,0,0,0,0,0,-1,1252,967,0,0
35,57,0,0,0,0,0,0,0,0,0,-1,1259,967,0,0
42,57,0,0,0,0,0,0,0,0,0,-1,1266,967,0,0
49,57,0,0,0,0,0,0,0,0,0,-1,1273,967,0,0
56,57,0,0,0,0,0,0,0,0,0,-1,1280,967,0,0
63,57,0,0,0,0,0,0,0,0,0,-1,1287,967,0,0
70,57,0,0,0,0,0,0,0,0,0,-1,1294,967,0,0
77,57,0,0,0,0,0,0,0,0,0,-1,1301,967,0,0
84,57,0,0,0,0,0,0,0,0,0,-1,1308,967,0,0
91,57,0,0,0,0,0,0,0,0,0,-1,1315,967,0,0
98,57,0,0,0,0,0,0,0,0,0,-1,1322,967,0,0
105,57,0,0,0,0,0,0,0,0,0,-1,1329,967,0,0
112,57,0,0,0,0,0,0,0,0,0,-1,1336,967,0,0
119,57,0,0,0,0,0,0,0,0,0,-1,1343,967,0,0
126,57,0,0,0,0,0,0,0,0,0,-1,1350,967,0,0
133,57,0,0,0,0,0,0,0,0,0,-1,1357,967,0,0
140,57,0,0,0,0,0,0,0,0,0,-1,1364,967,0,0
147,57,0,0,0,0,0,0,0,0,0,-1,1371,967,0,0
154,57,0,0,0,0,0,0,0,0,0,-1,1378,967,0,0
161,57,0,0,0,0,0,0,0,0,0,-1,1385,967,0,0
168,57,0,0,0,0,0,0,0,0,0,-1,1392,967,0,0
175,57,0,0,0,0,0,0,0,0,0,-1,1399,967,0,0
182,57,0,0,0,0,0,0,0,0,0,-1,1406,967,0,0
189,57,0,0,0,0,0,0,0,0,0,-1,1413,967,0,0
196,57,0,0,0,0,0,0,0,0,0,-1,1420,967,0,0
203,57,0,0,0,0,0,0,0,0,0,-1,1427,967,0,0
210,57,0,0,0,0,0,0,0,0,0,-1,1434,967,0,0
217,57,0,0,0,0,0,0,0,0,0,-1,1441,967,0,0
224,57,0,0,0,0,0,0,0,0,0,-1,1448,967,0,0
231,57,0,0,0,0,0,0,0,0,0,-1,1455,967,0,0
238,57,0,0,0,0,0,0,0,0,0,-1,1462,967,0,0
245,57,0,0,0,0,0,0,0,0,0,-1,1469,967,0,0
252,57,0,0,0,0,0,0,0,0,0,-1,1476,967,0,0
259,57,0,0,0,0,0,0,0,0,0,-1,1483,967,0,0
266,57,0,0,0,0,0,0,0,0,0,-1,1490,967,0,0
273,57,0,0,0,0,0,0,0,0,0,-1,1497,967,0,0
280,57,0,0,0,0,0,0,0,0,0,-1,1504,967,0,0
287,57,0,0,0,0,0,0,0,0,0,-1,1511,967,0,0
294,57,0,0,0,0,0,0,0,0,0,-1,1518,967,0,0
301,57,0,0,0,0,0,0,0,0,0,-1,1525,967,0,0
308,57,0,0,0,0,0,0,0,0,0,-1,1532,967,0,0
315,57,0,0,0,0,0,0,0,0,0,-1,1539,967,0,0
322,57,0,0,0,0,0,0,0,0,0,-1,1546,967,0,0
329,57,0,0,0,0,0,0,0,0,0,-1,1553,967,0,0
336,57,0,0,0,0,0,0,0,0,0,-1,1560,967,0,0
343,57,0,0,0,0,0,0,0,0,0,-1,1567,967,0,0
350,57,0,0,0,0,0,0,0,0,0,-1,1574,967,0,0
357,57,0,0,0,0,0,0,0,0,0,-1,1581,967,0,0
364,57,0,0,0,0,0,0,0,0,0,-1,1588,967,0,0
371,57,0,0,0,0,0,0,0,0,0,-1,1595,967,0,0
378,57,0,0,0,0,0,0,0,0,0,-1,1602,967,0,0
385,57,0,0,0,0,0,0,0,0,0,-1,1609,967,0,0
392,57,0,0,0,0,0,0,0,0,0,-1,1616,967,0,0
399,57,0,0,0,0,0,0,0,0,0,-1,1623,967,0,0
406,57,0,0,0,0,0,0,0,0,0,-1,1630,967,0,0
413,57,0,0,0,0,0,0,0,0,0,-1,1637,967,0,0
420,57,0,0,0,0,0,0,0,0,0,-1,1644,967,0,0
427,57,0,0,0,0,0,0,0,0,0,-1,1651,967,0,0
434,57,0,0,0,0,0,0,0,0,0,-1,1658,967,0,0
441,57,0,0,0,0,0,0,0,0,0,-1,1665,967,0,0
448,57,0,0,0,0,0,0,0,0,0,-1,1672,967,0,0
455,57,0,0,0,0,0,0,0,0,0,-1,1679,967,0,0
462,57,0,0,0,0,0,0,0,0,0,-1,1686,967,0,0
469,57,0,0,0,0,0,0,0,0,0,-1,1693,967,0,0
476,57,0,0,0,0,0,0,0,0,0,-1,1700,967,0,0
483,57,0,0,0,0,0,0,0,0,0,-1,1707,967,0,0
490,57,0,0,0,0,0,0,0,0,0,-1,1714,967,0,0
497,57,0,0,0,0,0,0,0,0,0,-1,1721,967,0,0
504,57,0,0,0,0,0,0,0,0,0,-1,1728,967,0,0
511,57,0,0,0,0,0,0,0,0,0,-1,1735,967,0,0
518,57,0,0,0,0,0,0,0,0,0,-1,1742,967,0,0
525,57,0,0,0,0,0,0,0,0,0,-1,1749,967,0,0
532,57,0,0,0,0,0,0,0,0,0,-1,1756,967,0,0
539,57,0,0,0,0,0,0,0,0,0,-1,1763,967,0,0
546,57,0,0,0,0,0,0,0,0,0,-1,1770,967,0,0
553,57,0,0,0,0,0,0,0,0,0,-1,1777,967,0,0
560,57,0,0,0,0,0,0,0,0,0,-1,1784,967,0,0
567,57,0,0,0,0,0,0,0,0,0,-1,1791,967,0,0
574,57,0,0,0,0,0,0,0,0,0,-1,1798,967,0,0
581,57,0,0,0,0,0,0,0,0,0,-1,1805,967,0,0
588,57,0,0,0,0,0,0,0,0,0,-1,1812,967,0,0
595,57,0,0,0,0,0,0,0,0,0,-1,1819,967,0,0
602,57,0,0,0,0,0,0,0,0,0,-1,1826,967,0,0
609,57,0,0,0,0,0,0,0,0,0,-1,1833,967,0,0
616,57,0,0,0,0,0,0,0,0,0,-1,1840,967,0,0
623,57,0,0,0,0,0,0,0,0,0,-1,1847,967,0,0
630,57,0,0,0,0,0,0,0,0,0,-1,1854,967,0,0
637,57,0,0,0,0,0,0,0,0,0,-1,1861,967,0,0
644,57,17.106,2.45093,0.00670666,0.00364611,0.00306655,0.00860355,0.00174923,0.553966,0.00525066,0.0441081,1868,967,17.1059,-2.45093
651,57,17.1395,2.43298,0.00515209,0.00271462,0.00211658,0.00637573,0.00149097,0.524179,0.00385094,0.0368818,1875,967,17.1395,-2.43299
658,57,17.186,2.50555,0.00355002,0.00215335,0.00162473,0.00462014,0.00108323,0.582427,0.00279001,0.0345199,1882,967,17.186,-2.50555
665,57,17.1348,2.60706,0.00161024,0.00191758,0.00153625,0.00330782,0.000219997,0.835247,0.00213566,0.0408776,1889,967,17.1348,-2.60703
672,57,17.1176,2.78308,-0.00057569,0.00192952,0.00173123,0.00281377,-0.00145994,1.09857,0.00250836,0.0449974,1896,967,17.1176,-2.78306
679,57,17.2306,2.65698,-0.00273368,0.00199573,0.00208562,0.00278406,-0.00352201,1.20941,0.00364911,0.0424076,1903,967,17.2306,-2.65699
686,57,17.1542,2.41449,-0.00454814,0.00206214,0.00245053,0.00287149,-0.0053575,1.2518,0.00482273,0.0391523,1910,967,17.1542,-2.41446
693,57,17.1281,2.27869,-0.00605285,0.00202693,0.00271996,0.00285724,-0.00688316,1.27451,0.00578153,0.0350752,1917,967,17.128,-2.27872
700,57,17.1906,2.40155,-0.00721746,0.00206955,0.00297693,0.00294186,-0.00808978,1.28575,0.00659623,0.0261171,1924,967,17.1905,-2.40155
707,57,17.1293,2.7428,-0.00802064,0.0021272,0.00305182,0.00297429,-0.00886772,1.30005,0.00711362,0.032038,1931,967,17.1293,-2.7428
714,57,17.01,3.1438,-0.00824771,0.00213074,0.00292672,0.00289918,-0.00901615,1.31403,0.00717513,0.0488979,1938,967,17.0101,-3.1438
721,57,16.375,3.12988,0,0,0,0,0,0,0,-1,1945,967,16.375,-3.12989
728,57,16.321,3.2608,-0.00748252,0.00203933,0.00185102,0.00238651,-0.00782969,1.38539,0.00617108,0.0189897,1952,967,16.321,-3.26081
735,57,16.3419,3.36249,-0.00704943,0.00129047,0.00112339,0.00143914,-0.0071981,1.43922,0.00534344,0.0193034,1959,967,16.3419,-3.36251
742,57,16.3921,3.41882,-0.00636702,0.00020091,5.59432e-05,0.000201386,-0.00636749,1.56228,0.00431369,0.0161792,1966,967,16.3921,-3.41879
749,57,16.3585,3.48389,-0.00535132,-0.000746244,-0.00130241,-0.000403417,-0.00569415,-1.31341,0.00366903,0.0138137,1973,967,16.3586,-3.48388
756,57,16.3427,3.52869,-0.00366739,-0.000840229,-0.00293284,0.00100191,-0.00550953,-1.00996,0.00404853,0.0113045,1980,967,16.3426,-3.52868
763,57,16.3601,3.57635,-0.00208228,-0.000898251,-0.00499132,0.00353604,-0.00651657,-0.844427,0.0058883,0.011427,1987,967,16.3601,-3.57633
770,57,16.334,3.63348,-0.000853952,-0.0010849,-0.00698463,0.00601615,-0.00795501,-0.777133,0.0080921,0.0107917,1994,967,16.334,-3.6335
777,57,16.2567,3.61603,0.000276586,-0.000760566,-0.00903921,0.00881208,-0.00929606,-0.756745,0.010456,0.0252292,2001,967,16.2567,-3.61605
784,57,16.2263,3.42834,0.0014359,0.000338977,-0.0113026,0.0122033,-0.0104285,-0.761154,0.0130799,0.0435034,2008,967,16.2263,-3.42837
791,57,16.1537,3.17432,0,0,0,0,0,0,0,-1,2015,967,16.1537,-3.17431
798,57,16.0432,3.00873,0,0,0,0,0,0,0,-1,2022,967,16.0432,-3.00873
805,57,18.2926,5.96997,0,0,0,0,0,0,0,-1,2029,967,18.2926,-5.96998
812,57,0,0,0,0,0,0,0,0,0,-1,2036,967,0,0
-700,50,0,0,0,0,0,0,0,0,0,-1,524,974,0,0
-693,50,-8.96625,1.04828,0,0,0,0,0,0,0,-1,531,974,-8.96625,-1.0483
-686,50,-9.34912,1.21405,0,0,0,0,0,0,0,-1,538,974,-9.34914,-1.21403
-679,50,-10.9442,1.18201,0,0,0,0,0,0,0,-1,545,974,-10.9441,-1.18198
-672,50,-10.8586,0.961731,-0.0223526,0.0148907,0.014636,0.019954,-0.027416,1.23773,0.027462,0.0488193,552,974,-10.8587,-0.961702
-665,50,-10.8955,0.64386,-0.0168497,0.0177221,0.0132988,0.0222458,-0.0213734,1.24291,0.0251853,0.0488778,559,974,-10.8955,-0.643888
-658,50,-10.8917,0.743225,-0.0126439,0.0178434,0.0116609,0.021792,-0.0165926,1.24429,0.022229,0.0486414,566,974,-10.8916,-0.743254
-651,50,-10.7546,1.12512,-0.00944536,0.0162337,0.00986096,0.0195835,-0.0127951,1.24333,0.0188302,0.0459537,573,974,-10.7546,-1.12515
-644,50,-10.7662,1.25854,-0.00702662,0.0137028,0.00799613,0.0164287,-0.00975257,1.24224,0.0152787,0.026291,580,974,-10.7662,-1.25854
-637,50,-10.788,1.29761,-0.00509914,0.0114777,0.00582482,0.0133198,-0.00694119,1.26451,0.0118893,0.0132093,587,974,-10.788,-1.29762
-630,50,-10.8015,1.26758,-0.00402712,0.00880696,0.00404288,0.00997434,-0.00519449,1.28969,0.00890148,0.00937162,594,974,-10.8015,-1.26756
-623,50,-10.7834,1.2334,-0.00331655,0.0066098,0.0026356,0.00726619,-0.00397294,1.32672,0.00658112,0.0105091,601,974,-10.7834,-1.23343
-616,50,-10.7728,1.19189,-0.00301667,0.00439942,0.00138726,0.00465042,-0.00326768,1.3918,0.0045947,0.0106749,608,974,-10.7728,-1.1919
-609,50,-10.785,1.12555,-0.00342137,0.00279504,0.000244003,0.0028046,-0.00343093,1.53163,0.00360614,0.00998218,615,974,-10.785,-1.12555
-602,50,-10.7966,1.07288,-0.0038337,0.00122583,-0.00115913,0.00147875,-0.00408661,-1.35597,0.00332867,0.0108011,622,974,-10.7966,-1.07286
-595,50,-10.801,1.02771,-0.00397843,0.000683919,-0.00198557,0.00141491,-0.00470942,-1.21804,0.00370249,0.0105863,629,974,-10.8011,-1.02773
-588,50,-10.8535,0.96283,-0.00394818,0.000542408,-0.00226226,0.00148446,-0.00489023,-1.17622,0.00385154,0.0109373,636,974,-10.8535,-0.962831
-581,50,-10.9731,0.795105,-0.00392843,0.00050455,-0.002472,0.00160824,-0.00503213,-1.15088,0.00400009,0.0183476,643,974,-10.9731,-0.795093
-574,50,-11.0601,0.604309,-0.00369883,0.000725238,-0.00262698,0.00194746,-0.00492105,-1.13533,0.00408754,0.0261218,650,974,-11.0601,-0.604295
-567,50,-11.0572,0.42511,-0.00320159,0.000981902,-0.00269426,0.00230109,-0.00452077,-1.11548,0.0040075,0.0358303,657,974,-11.0572,-0.42514
-560,50,-10.9537,0.444275,-0.00229371,0.00130009,-0.00268166,0.00273122,-0.00372483,-1.08058,0.00374209,0.0396945,664,974,-10.9537,-0.444258
-553,50,-11.0196,0.577148,-0.000839791,0.0017514,-0.00267992,0.00343247,-0.00252086,-1.01056,0.00345056,0.0392311,671,974,-11.0196,-0.577171
-546,50,-11.1525,0.576904,0.00121631,0.00236661,-0.0027544,0.00460527,-0.00102235,-0.888325,0.00346166,0.0424961,678,974,-11.1525,-0.576876
-539,50,-11.1639,0.420288,0.00390884,0.00319705,-0.00303458,0.00660832,0.000497572,-0.727025,0.00424941,0.0451805,685,974,-11.1639,-0.420285
-532,50,-11.1179,0.329224,0.00709453,0.00440668,-0.00382364,0.00980355,0.00169766,-0.616403,0.00604974,0.0442493,692,974,-11.1179,-0.329219
-525,50,-10.992,0.40625,0.0102165,0.00630457,-0.00543902,0.0140406,0.00248051,-0.61279,0.00865288,0.042285,699,974,-10.992,-0.406262
-518,50,0,0,0,0,0,0,0,0,0,-1,706,974,0,0
-511,50,0,0,0,0,0,0,0,0,0,-1,713,974,0,0
-504,50,0,0,0,0,0,0,0,0,0,-1,720,974,0,0
-497,50,0,0,0,0,0,0,0,0,0,-1,727,974,0,0
-490,50,0,0,0,0,0,0,0,0,0,-1,734,974,0,0
-483,50,0,0,0,0,0,0,0,0,0,-1,741,974,0,0
-476,50,0,0,0,0,0,0,0,0,0,-1,748,974,0,0
-469,50,0,0,0,0,0,0,0,0,0,-1,755,974,0,0
-462,50,0,0,0,0,0,0,0,0,0,-1,762,974,0,0
-455,50,0,0,0,0,0,0,0,0,0,-1,769,974,0,0
-448,50,0,0,0,0,0,0,0,0,0,-1,776,974,0,0
-441,50,0,0,0,0,0,0,0,0,0,-1,783,974,0,0
-434,50,0,0,0,0,0,0,0,0,0,-1,790,974,0,0
-427,50,0,0,0,0,0,0,0,0,0,-1,797,974,0,0
-420,50,0,0,0,0,0,0,0,0,0,-1,804,974,0,0
-413,50,0,0,0,0,0,0,0,0,0,-1,811,974,0,0
-406,50,0,0,0,0,0,0,0,0,0,-1,818,974,0,0
-399,50,0,0,0,0,0,0,0,0,0,-1,825,974,0,0
-392,50,0,0,0,0,0,0,0,0,0,-1,832,974,0,0
-385,50,0,0,0,0,0,0,0,0,0,-1,839,974,0,0
-378,50,0,0,0,0,0,0,0,0,0,-1,846,974,0,0
-371,50,0,0,0,0,0,0,0,0,0,-1,853,974,0,0
-364,50,0,0,0,0,0,0,0,0,0,-1,860,974,0,0
-357,50,0,0,0,0,0,0,0,0,0,-1,867,974,0,0
-350,50,0,0,0,0,0,0,0,0,0,-1,874,974,0,0
-343,50,0,0,0,0,0,0,0,0,0,-1,881,974,0,0
-336,50,0,0,0,0,0,0,0,0,0,-1,888,974,0,0
-329,50,0,0,0,0,0,0,0,0,0,-1,895,974,0,0
-322,50,0,0,0,0,0,0,0,0,0,-1,902,974,0,0
-315,50,0,0,0,0,0,0,0,0,0,-1,909,974,0,0
-308,50,0,0,0,0,0,0,0,0,0,-1,916,974,0,0
-301,50,0,0,0,0,0,0,0,0,0,-1,923,974,0,0
-294,50,0,0,0,0,0,0,0,0,0,-1,930,974,0,0
-287,50,0,0,0,0,0,0,0,0,0,-1,937,974,0,0
-280,50,0,0,0,0,0,0,0,0,0,-1,944,974,0,0
-273,50,0,0,0,0,0,0,0,0,0,-1,951,974,0,0
-266,50,0,0,0,0,0,0,0,0,0,-1,958,974,0,0
-259,50,0,0,0,0,0,0,0,0,0,-1,965,974,0,0
-252,50,0,0,0,0,0,0,0,0,0,-1,972,974,0,0
-245,50,0,0,0,0,0,0,0,0,0,-1,979,974,0,0
-238,50,0,0,0,0,0,0,0,0,0,-1,986,974,0,0
-231,50,0,0,0,0,0,0,0,0,0,-1,993,974,0,0
-224,50,0,0,0,0,0,0,0,0,0,-1,1000,974,0,0
-217,50,0,0,0,0,0,0,0,0,0,-1,1007,974,0,0
-210,50,0,0,0,0,0,0,0,0,0,-1,1014,974,0,0
-203,50,0,0,0,0,0,0,0,0,0,-1,1021,974,0,0
-196,50,0,0,0,0,0,0,0,0,0,-1,1028,974,0,0
-189,50,0,0,0,0,0,0,0,0,0,-1,1035,974,0,0
-182,50,0,0,0,0,0,0,0,0,0,-1,1042,974,0,0
-175,50,0,0,0,0,0,0,0,0,0,-1,1049,974,0,0
-168,50,0,0,0,0,0,0,0,0,0,-1,1056,974,0,0
-161,50,0,0,0,0,0,0,0,0,0,-1,1063,974,0,0
-154,50,0,0,0,0,0,0,0,0,0,-1,1070,974,0,0
-147,50,0,0,0,0,0,0,0,0,0,-1,1077,974,0,0
-140,50,0,0,0,0,0,0,0,0,0,-1,1084,974,0,0
-133,50,0,0,0,0,0,0,0,0,0,-1,1091,974,0,0
-126,50,0,0,0,0,0,0,0,0,0,-1,1098,974,0,0
-119,50,0,0,0,0,0,0,0,0,0,-1,1105,974,0,0
-112,50,0,0,0,0,0,0,0,0,0,-1,1112,974,0,0
-105,50,0,0,0,0,0,0,0,0,0,-1,1119,974,0,0
-98,50,0,0,0,0,0,0,0,0,0,-1,1126,974,0,0
-91,50,0,0,0,0,0,0,0,0,0,-1,1133,974,0,0
-84,50,0,0,0,0,0,0,0,0,0,-1,1140,974,0,0
-77,50,0,0,0,0,0,0,0,0,0,-1,1147,974,0,0
-70,50,0,0,0,0,0,0,0,0,0,-1,1154,974,0,0
-63,50,0,0,0,0,0,0,0,0,0,-1,1161,974,0,0
-56,50,0,0,0,0,0,0,0,0,0,-1,1168,974,0,0
-49,50,0,0,0,0,0,0,0,0,0,-1,1175,974,0,0
-42,50,0,0,0,0,0,0,0,0,0,-1,1182,974,0,0
-35,50,0,0,0,0,0,0,0,0,0,-1,1189,974,0,0
-28,50,0,0,0,0,0,0,0,0,0,-1,1196,974,0,0
-21,50,0,0,0,0,0,0,0,0,0,-1,1203,974,0,0
-14,50,0,0,0,0,0,0,0,0,0,-1,1210,974,0,0
-7,50,0,0,0,0,0,0,0,0,0,-1,1217,974,0,0
0,50,0,0,0,0,0,0,0,0,0,-1,1224,974,0,0
7,50,0,0,0,0,0,0,0,0,0,-1,1231,974,0,0
14,50,0,0,0,0,0,0,0,0,0,-1,1238,974,0,0
21,50,0,0,0,0,0,0,0,0,0,-1,1245,974,0,0
28,50,0,0,0,0,0,0,0,0,0,-1,1252,974,0,0
35,50,0,0,0,0,0,0,0,0,0,-1,1259,974,0,0
42,50,0,0,0,0,0,0,0,0,0,-1,1266,974,0,0
49,50,0,0,0,0,0,0,0,0,0,-1,1273,974,0,0
56,50,0,0,0,0,0,0,0,0,0,-1,1280,974,0,0
63,50,0,0,0,0,0,0,0,0,0,-1,1287,974,0,0
70,50,0,0,0,0,0,0,0,0,0,-1,1294,974,0,0
77,50,0,0,0,0,0,0,0,0,0,-1,1301,974,0,0
84,50,0,0,0,0,0,0,0,0,0,-1,1308,974,0,0
91,50,0,0,0,0,0,0,0,0,0,-1,1315,974,0,0
98,50,0,0,0,0,0,0,0,0,0,-1,1322,974,0,0
105,50,0,0,0,0,0,0,0,0,0,-1,1329,974,0,0
112,50,0,0,0,0,0,0,0,0,0,-1,1336,974,0,0
119,50,0,0,0,0,0,0,0,0,0,-1,1343,974,0,0
126,50,0,0,0,0,0,0,0,0,0,-1,1350,974,0,0
133,50,0,0,0,0,0,0,0,0,0,-1,1357,974,0,0
140,50,0,0,0,0,0,0,0,0,0,-1,1364,974,0,0
147,50,0,0,0,0,0,0,0,0,0,-1,1371,974,0,0
154,50,0,0,0,0,0,0,0,0,0,-1,1378,974,0,0
161,50,0,0,0,0,0,0,0,0,0,-1,1385,974,0,0
168,50,0,0,0,0,0,0,0,0,0,-1,1392,974,0,0
175,50,0,0,0,0,0,0,0,0,0,-1,1399,974,0,0
182,50,0,0,0,0,0,0,0,0,0,-1,1406,974,0,0
189,50,0,0,0,0,0,0,0,0,0,-1,1413,974,0,0
196,50,0,0,0,0,0,0,0,0,0,-1,1420,974,0,0
203,50,0,0,0,0,0,0,0,0,0,-1,1427,974,0,0
210,50,0,0,0,0,0,0,0,0,0,-1,1434,974,0,0
217,50,0,0,0,0,0,0,0,0,0,-1,1441,974,0,0
224,50,0,0,0,0,0,0,0,0,0,-1,1448,974,0,0
231,50,0,0,0,0,0,0,0,0,0,-1,1455,974,0,0
238,50,0,0,0,0,0,0,0,0,0,-1,1462,974,0,0
245,50,0,0,0,0,0,0,0,0,0,-1,1469,974,0,0
252,50,0,0,0,0,0,0,0,0,0,-1,1476,974,0,0
259,50,0,0,0,0,0,0,0,0,0,-1,1483,974,0,0
266,50,0,0,0,0,0,0,0,0,0,-1,1490,974,0,0
273,50,0,0,0,0,0,0,0,0,0,-1,1497,974,0,0
280,50,0,0,0,0,0,0,0,0,0,-1,1504,974,0,0
287,50,0,0,0,0,0,0,0,0,0,-1,1511,974,0,0
294,50,0,0,0,0,0,0,0,0,0,-1,1518,974,0,0
301,50,0,0,0,0,0,0,0,0,0,-1,1525,974,0,0
308,50,0,0,0,0,0,0,0,0,0,-1,1532,974,0,0
315,50,0,0,0,0,0,0,0,0,0,-1,1539,974,0,0
322,50,0,0,0,0,0,0,0,0,0,-1,1546,974,0,0
329,50,0,0,0,0,0,0,0,0,0,-1,1553,974,0,0
336,50,0,0,0,0,0,0,0,0,0,-1,1560,974,0,0
343,50,0,0,0,0,0,0,0,0,0,-1,1567,974,0,0
350,50,0,0,0,0,0,0,0,0,0,-1,1574,974,0,0
357,50,0,0,0,0,0,0,0,0,0,-1,1581,974,0,0
364,50,0,0,0,0,0,0,0,0,0,-1,1588,974,0,0
371,50,0,0,0,0,0,0,0,0,0,-1,1595,974,0,0
378,50,0,0,0,0,0,0,0,0,0,-1,1602,974,0,0
385,50,0,0,0,0,0,0,0,0,0,-1,1609,974,0,0
392,50,0,0,0,0,0,0,0,0,0,-1,1616,974,0,0
399,50,0,0,0,0,0,0,0,0,0,-1,1623,974,0,0
406,50,0,0,0,0,0,0,0,0,0,-1,1630,974,0,0
413,50,0,0,0,0,0,0,0,0,0,-1,1637,974,0,0
420,50,0,0,0,0,0,0,0,0,0,-1,1644,974,0,0
427,50,0,0,0,0,0,0,0,0,0,-1,1651,974,0,0
434,50,0,0,0,0,0,0,0,0,0,-1,1658,974,0,0
441,50,0,0,0,0,0,0,0,0,0,-1,1665,974,0,0
448,50,0,0,0,0,0,0,0,0,0,-1,1672,974,0,0
455,50,0,0,0,0,0,0,0,0,0,-1,1679,974,0,0
462,50,0,0,0,0,0,0,0,0,0,-1,1686,974,0,0
469,50,0,0,0,0,0,0,0,0,0,-1,1693,974,0,0
476,50,0,0,0,0,0,0,0,0,0,-1,1700,974,0,0
483,50,0,0,0,0,0,0,0,0,0,-1,1707,974,0,0
490,50,0,0,0,0,0,0,0,0,0,-1,1714,974,0,0
497,50,0,0,0,0,0,0,0,0,0,-1,1721,974,0,0
504,50,0,0,0,0,0,0,0,0,0,-1,1728,974,0,0
511,50,0,0,0,0,0,0,0,0,0,-1,1735,974,0,0
518,50,0,0,0,0,0,0,0,0,0,-1,1742,974,0,0
525,50,0,0,0,0,0,0,0,0,0,-1,1749,974,0,0
532,50,0,0,0,0,0,0,0,0,0,-1,1756,974,0,0
539,50,0,0,0,0,0,0,0,0,0,-1,1763,974,0,0
546,50,0,0,0,0,0,0,0,0,0,-1,1770,974,0,0
553,50,0,0,0,0,0,0,0,0,0,-1,1777,974,0,0
560,50,0,0,0,0,0,0,0,0,0,-1,1784,974,0,0
567,50,0,0,0,0,0,0,0,0,0,-1,1791,974,0,0
574,50,0,0,0,0,0,0,0,0,0,-1,1798,974,0,0
581,50,0,0,0,0,0,0,0,0,0,-1,1805,974,0,0
588,50,0,0,0,0,0,0,0,0,0,-1,1812,974,0,0
595,50,0,0,0,0,0,0,0,0,0,-1,1819,974,0,0
602,50,0,0,0,0,0,0,0,0,0,-1,1826,974,0,0
609,50,0,0,0,0,0,0,0,0,0,-1,1833,974,0,0
616,50,0,0,0,0,0,0,0,0,0,-1,1840,974,0,0
623,50,0,0,0,0,0,0,0,0,0,-1,1847,974,0,0
630,50,0,0,0,0,0,0,0,0,0,-1,1854,974,0,0
637,50,0,0,0,0,0,0,0,0,0,-1,1861,974,0,0
644,50,17.1146,2.4198,0.00657624,0.00330204,0.00293221,0.00829741,0.00158087,0.530796,0.0050872,0.0393072,1868,974,17.1147,-2.41979
651,50,17.0369,2.39209,0.00506261,0.00246079,0.00188145,0.0060491,0.00147429,0.482919,0.00364216,0.033113,1875,974,17.0369,-2.39206
658,50,17.1422,2.59015,0.00365624,0.0019295,0.00134703,0.00439284,0.00119291,0.500407,0.00262296,0.0363804,1882,974,17.1422,-2.59014
665,50,17.0691,2.46057,0.0020428,0.00172658,0.00127214,0.00316662,0.000602761,0.723572,0.0019416,0.040849,1889,974,17.0691,-2.4606
672,50,17.1221,2.52753,0.000129732,0.00178506,0.00155986,0.00272324,-0.000808449,1.02931,0.00213658,0.0428192,1896,974,17.1221,-2.52753
679,50,17.1669,2.62018,-0.00188235,0.00189533,0.00204847,0.00279287,-0.00277989,1.15784,0.00321744,0.0434117,1903,974,17.1669,-2.62016
686,50,17.1278,2.40118,-0.00361275,0.00200037,0.00255485,0.00298908,-0.00460145,1.20155,0.00441523,0.0410081,1910,974,17.1278,-2.40121
693,50,17.1281,2.28156,-0.00507538,0.0020115,0.00297024,0.00309173,-0.00615561,1.22198,0.00543576,0.0402738,1917,974,17.1281,-2.28157
700,50,17.1786,2.42096,-0.00627694,0.00206916,0.00332762,0.00323347,-0.00744125,1.23422,0.00632064,0.022601,1924,974,17.1786,-2.42097
707,50,17.1411,2.67017,-0.00720093,0.00215722,0.00348467,0.00331224,-0.00835595,1.25073,0.00694325,0.0280352,1931,974,17.1411,-2.67014
714,50,17.1013,2.9577,-0.00759079,0.00217454,0.00344082,0.00326512,-0.00868137,1.26386,0.00712969,0.042112,1938,974,17.1013,-2.9577
721,50,16.5713,3.16187,-0.00742831,0.00213191,0.00313705,0.00306936,-0.00836577,1.28041,0.00683405,0.033505,1945,974,16.5713,-3.16187
728,50,16.4121,3.23218,-0.00716545,0.0020574,0.00255913,0.00271991,-0.00782796,1.31748,0.00632337,0.0200943,1952,974,16.4121,-3.23218
735,50,16.4458,3.31488,-0.00682365,0.00146343,0.00196639,0.00190635,-0.00726657,1.34925,0.00558927,0.0171465,1959,974,16.4458,-3.3149
742,50,16.4674,3.39612,-0.00618216,0.000637095,0.000985491,0.000776658,-0.00632172,1.43011,0.00449578,0.0139435,1966,974,16.4674,-3.39612
749,50,16.4614,3.45782,-0.00518659,6.58943e-05,-0.000248014,7.75792e-05,-0.00519828,-1.52372,0.00349166,0.0146413,1973,974,16.4615,-3.45785
756,50,16.4491,3.51062,-0.0034525,0.000555211,-0.00187049,0.00129255,-0.00418985,-1.1953,0.00330932,0.0118234,1980,974,16.4491,-3.51063
763,50,16.4515,3.56427,-0.00165581,0.00120611,-0.00396474,0.00399022,-0.00443992,-0.958584,0.00486945,0.011087,1987,974,16.4516,-3.56424
770,50,16.4222,3.60211,-8.06693e-06,0.00193243,-0.00596797,0.00700851,-0.00508415,-0.865981,0.0070111,0.0108592,1994,974,16.4222,-3.60214
777,50,16.418,3.61591,0.00169133,0.003424,-0.00808857,0.0106925,-0.00557717,-0.838748,0.0095468,0.0222375,2001,974,16.418,-3.61588
784,50,16.3704,3.56586,0.0034515,0.00594329,-0.0105033,0.0152743,-0.00587949,-0.844432,0.0126082,0.0398939,2008,974,16.3704,-3.56588
791,50,16.2286,3.17297,0,0,0,0,0,0,0,-1,2015,974,16.2286,-3.17296
798,50,17.7327,5.53461,0.00906933,0.0153167,-0.01682,0.0293006,-0.00491456,-0.877208,0.0213612,0.044244,2022,974,17.7326,-5.53461
805,50,17.8127,5.47125,0.0134841,0.0232074,-0.0208928,0.0397968,-0.00310526,-0.89971,0.0276245,0.0443396,2029,974,17.8127,-5.47122
812,50,0,0,0,0,0,0,0,0,0,-1,2036,974,0,0
-700,43,0,0,0,0,0,0,0,0,0,-1,524,981,0,0
-693,43,-10.5667,4.57434,0,0,0,0,0,0,0,-1,531,981,-10.5666,-4.57437
-686,43,-10.6957,0.987427,0,0,0,0,0,0,0,-1,538,981,-10.6957,-0.987455
-679,43,-11.338,1.28455,0,0,0,0,0,0,0,-1,545,981,-11.338,-1.28457
-672,43,-11.0416,0.0970459,0,0,0,0,0,0,0,-1,552,981,-11.0416,-0.0970726
-665,43,-11.0114,0.00915527,0,0,0,0,0,0,0,-1,559,981,-11.0113,-0.00914488
-658,43,-10.7224,-0.0390625,-0.00938669,0.0144867,0.0135964,0.0206427,-0.0155427,1.14564,0.0209607,0.046661,566,981,-10.7224,0.0390477
-651,43,-10.9127,0.855042,-0.00711951,0.0135688,0.0112975,0.0185424,-0.0120931,1.15609,0.0178176,0.0404687,573,981,-10.9127,-0.855038
-644,43,-10.8616,1.29144,-0.0053871,0.011688,0.00904449,0.015588,-0.00928709,1.16368,0.0145144,0.018457,580,981,-10.8616,-1.29145
-637,43,-10.8532,1.30261,-0.0039097,0.0102115,0.00641931,0.0126934,-0.00639162,1.20187,0.0112172,0.0117223,587,981,-10.8532,-1.30261
-630,43,-10.8589,1.25177,-0.00318094,0.00794035,0.0043678,0.00945066,-0.00469125,1.23788,0.00831754,0.0112693,594,981,-10.8589,-1.25175
-623,43,-10.8473,1.20642,-0.00276825,0.00594606,0.00277196,0.00675307,-0.00357526,1.28749,0.00605641,0.0111613,601,981,-10.8473,-1.20645
-616,43,-10.8308,1.16052,-0.00258991,0.0039252,0.00138153,0.00420605,-0.00287076,1.37024,0.00410997,0.0103969,608,981,-10.8308,-1.16052
-609,43,-10.8284,1.11499,-0.002905,0.00248604,0.0001122,0.00248838,-0.00290733,1.55,0.00311834,0.0124006,615,981,-10.8284,-1.11497
-602,43,-10.8315,1.08307,-0.00319239,0.00105601,-0.00139023,0.00147051,-0.00360688,-1.28104,0.00301669,0.0146944,622,981,-10.8315,-1.08304
-595,43,-10.8445,1.03973,-0.00326062,0.000610761,-0.00230906,0.00168815,-0.00433801,-1.13423,0.00358958,0.0125693,629,981,-10.8445,-1.03971
-588,43,-10.8649,0.909668,-0.00317715,0.000432388,-0.00265609,0.00183885,-0.00458361,-1.08381,0.00381922,0.0116363,636,981,-10.865,-0.909665
-581,43,-10.9785,0.70575,-0.00310453,0.000368567,-0.00290611,0.00201744,-0.00475341,-1.05471,0.00401412,0.0181043,643,981,-10.9785,-0.705775
-574,43,-11.0601,0.597412,-0.00283354,0.000577264,-0.00307612,0.00238909,-0.00464537,-1.03851,0.0041304,0.0271214,650,981,-11.0601,-0.597427
-567,43,-11.0025,0.489502,-0.00232811,0.000799461,-0.00314243,0.0027457,-0.00427435,-1.01628,0.00408493,0.0367508,657,981,-11.0025,-0.489514
-560,43,-10.9024,0.429016,-0.00144811,0.00109721,-0.00314398,0.00321634,-0.00356724,-0.977714,0.00391825,0.0406405,664,981,-10.9024,-0.428993
-553,43,-10.9753,0.493835,-9.2123e-05,0.00153358,-0.00316857,0.0039919,-0.00255045,-0.910958,0.00380766,0.0406557,671,981,-10.9754,-0.49385
-546,43,-11.0587,0.673096,0.00178066,0.00214353,-0.00328761,0.0052547,-0.00133051,-0.812964,0.0040207,0.0452979,678,981,-11.0586,-0.673102
-539,43,-10.8816,0.404236,0.00419406,0.00298794,-0.00365303,0.00729347,-0.000111467,-0.703593,0.00489989,0.0479022,685,981,-10.8816,-0.404231
-532,43,-10.8754,0.309631,0.00695135,0.00426805,-0.00461654,0.0104172,0.000802157,-0.643984,0.00669348,0.0458925,692,981,-10.8754,-0.309645
-525,43,-10.7698,0.408813,0.00953521,0.00631842,-0.00646178,0.0145858,0.00126787,-0.663422,0.00932997,0.0444977,699,981,-10.7698,-0.408819
-518,43,0,0,0,0,0,0,0,0,0,-1,706,981,0,0
-511,43,0,0,0,0,0,0,0,0,0,-1,713,981,0,0
-504,43,0,0,0,0,0,0,0,0,0,-1,720,981,0,0
-497,43,0,0,0,0,0,0,0,0,0,-1,727,981,0,0
-490,43,0,0,0,0,0,0,0,0,0,-1,734,981,0,0
-483,43,0,0,0,0,0,0,0,0,0,-1,741,981,0,0
-476,43,0,0,0,0,0,0,0,0,0,-1,748,981,0,0
-469,43,0,0,0,0,0,0,0,0,0,-1,755,981,0,0
-462,43,0,0,0,0,0,0,0,0,0,-1,762,981,0,0
-455,43,0,0,0,0,0,0,0,0,0,-1,769,981,0,0
-448,43,0,0,0,0,0,0,0,0,0,-1,776,981,0,0
-441,43,0,0,0,0,0,0,0,0,0,-1,783,981,0,0
-434,43,0,0,0,0,0,0,0,0,0,-1,790,981,0,0
-427,43,0,0,0,0,0,0,0,0,0,-1,797,981,0,0
-420,43,0,0,0,0,0,0,0,0,0,-1,804,981,0,0
-413,43,0,0,0,0,0,0,0,0,0,-1,811,981,0,0
-406,43,0,0,0,0,0,0,0,0,0,-1,818,981,0,0
-399,43,0,0,0,0,0,0,0,0,0,-1,825,981,0,0
-392,43,0,0,0,0,0,0,0,0,0,-1,832,981,0,0
-385,43,0,0,0,0,0,0,0,0,0,-1,839,981,0,0
-378,43,0,0,0,0,0,0,0,0,0,-1,846,981,0,0
-371,43,0,0,0,0,0,0,0,0,0,-1,853,981,0,0
-364,43,0,0,0,0,0,0,0,0,0,-1,860,981,0,0
-357,43,0,0,0,0,0,0,0,0,0,-1,867,981,0,0
-350,43,0,0,0,0,0,0,0,0,0,-1,874,981,0,0
-343,43,0,0,0,0,0,0,0,0,0,-1,881,981,0,0
-336,43,0,0,0,0,0,0,0,0,0,-1,888,981,0,0
-329,43,0,0,0,0,0,0,0,0,0,-1,895,981,0,0
-322,43,0,0,0,0,0,0,0,0,0,-1,902,981,0,0
-315,43,0,0,0,0,0,0,0,0,0,-1,909,981,0,0
-308,43,0,0,0,0,0,0,0,0,0,-1,916,981,0,0
-301,43,0,0,0,0,0,0,0,0,0,-1,923,981,0,0
-294,43,0,0,0,0,0,0,0,0,0,-1,930,981,0,0
-287,43,0,0,0,0,0,0,0,0,0,-1,937,981,0,0
-280,43,0,0,0,0,0,0,0,0,0,-1,944,981,0,0
-273,43,0,0,0,0,0,0,0,0,0,-1,951,981,0,0
-266,43,0,0,0,0,0,0,0,0,0,-1,958,981,0,0
-259,43,0,0,0,0,0,0,0,0,0,-1,965,981,0,0
-252,43,0,0,0,0,0,0,0,0,0,-1,972,981,0,0
-245,43,0,0,0,0,0,0,0,0,0,-1,979,981,0,0
-238,43,0,0,0,0,0,0,0,0,0,-1,986,981,0,0
-231,43,0,0,0,0,0,0,0,0,0,-1,993,981,0,0
-224,43,0,0,0,0,0,0,0,0,0,-1,1000,981,0,0
-217,43,0,0,0,0,0,0,0,0,0,-1,1007,981,0,0
-210,43,0,0,0,0,0,0,0,0,0,-1,1014,981,0,0
-203,43,0,0,0,0,0,0,0,0,0,-1,1021,981,0,0
-196,43,0,0,0,0,0,0,0,0,0,-1,1028,981,0,0
-189,43,0,0,0,0,0,0,0,0,0,-1,1035,981,0,0
-182,43,0,0,0,0,0,0,0,0,0,-1,1042,981,0,0
-175,43,0,0,0,0,0,0,0,0,0,-1,1049,981,0,0
-168,43,0,0,0,0,0,0,0,0,0,-1,1056,981,0,0
-161,43,0,0,0,0,0,0,0,0,0,-1,1063,981,0,0
-154,43,0,0,0,0,0,0,0,0,0,-1,1070,981,0,0
-147,43,0,0,0,0,0,0,0,0,0,-1,1077,981,0,0
-140,43,0,0,0,0,0,0,0,0,0,-1,1084,981,0,0
-133,43,0,0,0,0,0,0,0,0,0,-1,1091,981,0,0
-126,43,0,0,0,0,0,0,0,0,0,-1,1098,981,0,0
-119,43,0,0,0,0,0,0,0,0,0,-1,1105,981,0,0
-112,43,0,0,0,0,0,0,0,0,0,-1,1112,981,0,0
-105,43,0,0,0,0,0,0,0,0,0,-1,1119,981,0,0
-98,43,0,0,0,0,0,0,0,0,0,-1,1126,981,0,0
-91,43,0,0,0,0,0,0,0,0,0,-1,1133,981,0,0
-84,43,0,0,0,0,0,0,0,0,0,-1,1140,981,0,0
-77,43,0,0,0,0,0,0,0,0,0,-1,1147,981,0,0
-70,43,0,0,0,0,0,0,0,0,0,-1,1154,981,0,0
-63,43,0,0,0,0,0,0,0,0,0,-1,1161,981,0,0
-56,43,0,0,0,0,0,0,0,0,0,-1,1168,981,0,0
-49,43,0,0,0,0,0,0,0,0,0,-1,1175,981,0,0
-42,43,0,0,0,0,0,0,0,0,0,-1,1182,981,0,0
-35,43,0,0,0,0,0,0,0,0,0,-1,1189,981,0,0
-28,43,0,0,0,0,0,0,0,0,0,-1,1196,981,0,0
-21,43,0,0,0,0,0,0,0,0,0,-1,1203,981,0,0
-14,43,0,0,0,0,0,0,0,0,0,-1,1210,981,0,0
-7,43,0,0,0,0,0,0,0,0,0,-1,1217,981,0,0
0,43,0,0,0,0,0,0,0,0,0,-1,1224,981,0,0
7,43,0,0,0,0,0,0,0,0,0,-1,1231,981,0,0
14,43,0,0,0,0,0,0,0,0,0,-1,1238,981,0,0
21,43,0,0,0,0,0,0,0,0,0,-1,1245,981,0,0
28,43,0,0,0,0,0,0,0,0,0,-1,1252,981,0,0
35,43,0,0,0,0,0,0,0,0,0,-1,1259,981,0,0
42,43,0,0,0,0,0,0,0,0,0,-1,1266,981,0,0
49,43,0,0,0,0,0,0,0,0,0,-1,1273,981,0,0
56,43,0,0,0,0,0,0,0,0,0,-1,1280,981,0,0
63,43,0,0,0,0,0,0,0,0,0,-1,1287,981,0,0
70,43,0,0,0,0,0,0,0,0,0,-1,1294,981,0,0
77,43,0,0,0,0,0,0,0,0,0,-1,1301,981,0,0
84,43,0,0,0,0,0,0,0,0,0,-1,1308,981,0,0
91,43,0,0,0,0,0,0,0,0,0,-1,1315,981,0,0
98,43,0,0,0,0,0,0,0,0,0,-1,1322,981,0,0
105,43,0,0,0,0,0,0,0,0,0,-1,1329,981,0,0
112,43,0,0,0,0,0,0,0,0,0,-1,1336,981,0,0
119,43,0,0,0,0,0,0,0,0,0,-1,1343,981,0,0
126,43,0,0,0,0,0,0,0,0,0,-1,1350,981,0,0
133,43,0,0,0,0,0,0,0,0,0,-1,1357,981,0,0
140,43,0,0,0,0,0,0,0,0,0,-1,1364,981,0,0
147,43,0,0,0,0,0,0,0,0,0,-1,1371,981,0,0
154,43,0,0,0,0,0,0,0,0,0,-1,1378,981,0,0
161,43,0,0,0,0,0,0,0,0,0,-1,1385,981,0,0
168,43,0,0,0,0,0,0,0,0,0,-1,1392,981,0,0
175,43,0,0,0,0,0,0,0,0,0,-1,1399,981,0,0
182,43,0,0,0,0,0,0,0,0,0,-1,1406,981,0,0
189,43,0,0,0,0,0,0,0,0,0,-1,1413,981,0,0
196,43,0,0,0,0,0,0,0,0,0,-1,1420,981,0,0
203,43,0,0,0,0,0,0,0,0,0,-1,1427,981,0,0
210,43,0,0,0,0,0,0,0,0,0,-1,1434,981,0,0
217,43,0,0,0,0,0,0,0,0,0,-1,1441,981,0,0
224,43,0,0,0,0,0,0,0,0,0,-1,1448,981,0,0
231,43,0,0,0,0,0,0,0,0,0,-1,1455,981,0,0
238,43,0,0,0,0,0,0,0,0,0,-1,1462,981,0,0
245,43,0,0,0,0,0,0,0,0,0,-1,1469,981,0,0
252,43,0,0,0,0,0,0,0,0,0,-1,1476,981,0,0
259,43,0,0,0,0,0,0,0,0,0,-1,1483,981,0,0
266,43,0,0,0,0,0,0,0,0,0,-1,1490,981,0,0
273,43,0,0,0,0,0,0,0,0,0,-1,1497,981,0,0
280,43,0,0,0,0,0,0,0,0,0,-1,1504,981,0,0
287,43,0,0,0,0,0,0,0,0,0,-1,1511,981,0,0
294,43,0,0,0,0,0,0,0,0,0,-1,1518,981,0,0
301,43,0,0,0,0,0,0,0,0,0,-1,1525,981,0,0
308,43,0,0,0,0,0,0,0,0,0,-1,1532,981,0,0
315,43,0,0,0,0,0,0,0,0,0,-1,1539,981,0,0
322,43,0,0,0,0,0,0,0,0,0,-1,1546,981,0,0
329,43,0,0,0,0,0,0,0,0,0,-1,1553,981,0,0
336,43,0,0,0,0,0,0,0,0,0,-1,1560,981,0,0
343,43,0,0,0,0,0,0,0,0,0,-1,1567,981,0,0
350,43,0,0,0,0,0,0,0,0,0,-1,1574,981,0,0
357,43,0,0,0,0,0,0,0,0,0,-1,1581,981,0,0
364,43,0,0,0,0,0,0,0,0,0,-1,1588,981,0,0
371,43,0,0,0,0,0,0,0,0,0,-1,1595,981,0,0
378,43,0,0,0,0,0,0,0,0,0,-1,1602,981,0,0
385,43,0,0,0,0,0,0,0,0,0,-1,1609,981,0,0
392,43,0,0,0,0,0,0,0,0,0,-1,1616,981,0,0
399,43,0,0,0,0,0,0,0,0,0,-1,1623,981,0,0
406,43,0,0,0,0,0,0,0,0,0,-1,1630,981,0,0
413,43,0,0,0,0,0,0,0,0,0,-1,1637,981,0,0
420,43,0,0,0,0,0,0,0,0,0,-1,1644,981,0,0
427,43,0,0,0,0,0,0,0,0,0,-1,1651,981,0,0
434,43,0,0,0,0,0,0,0,0,0,-1,1658,981,0,0
441,43,0,0,0,0,0,0,0,0,0,-1,1665,981,0,0
448,43,0,0,0,0,0,0,0,0,0,-1,1672,981,0,0
455,43,0,0,0,0,0,0,0,0,0,-1,1679,981,0,0
462,43,0,0,0,0,0,0,0,0,0,-1,1686,981,0,0
469,43,0,0,0,0,0,0,0,0,0,-1,1693,981,0,0
476,43,0,0,0,0,0,0,0,0,0,-1,1700,981,0,0
483,43,0,0,0,0,0,0,0,0,0,-1,1707,981,0,0
490,43,0,0,0,0,0,0,0,0,0,-1,1714,981,0,0
497,43,0,0,0,0,0,0,0,0,0,-1,1721,981,0,0
504,43,0,0,0,0,0,0,0,0,0,-1,1728,981,0,0
511,43,0,0,0,0,0,0,0,0,0,-1,1735,981,0,0
518,43,0,0,0,0,0,0,0,0,0,-1,1742,981,0,0
525,43,0,0,0,0,0,0,0,0,0,-1,1749,981,0,0
532,43,0,0,0,0,0,0,0,0,0,-1,1756,981,0,0
539,43,0,0,0,0,0,0,0,0,0,-1,1763,981,0,0
546,43,0,0,0,0,0,0,0,0,0,-1,1770,981,0,0
553,43,0,0,0,0,0,0,0,0,0,-1,1777,981,0,0
560,43,0,0,0,0,0,0,0,0,0,-1,1784,981,0,0
567,43,0,0,0,0,0,0,0,0,0,-1,1791,981,0,0
574,43,0,0,0,0,0,0,0,0,0,-1,1798,981,0,0
581,43,0,0,0,0,0,0,0,0,0,-1,1805,981,0,0
588,43,0,0,0,0,0,0,0,0,0,-1,1812,981,0,0
595,43,0,0,0,0,0,0,0,0,0,-1,1819,981,0,0
602,43,0,0,0,0,0,0,0,0,0,-1,1826,981,0,0
609,43,0,0,0,0,0,0,0,0,0,-1,1833,981,0,0
616,43,0,0,0,0,0,0,0,0,0,-1,1840,981,0,0
623,43,0,0,0,0,0,0,0,0,0,-1,1847,981,0,0
630,43,0,0,0,0,0,0,0,0,0,-1,1854,981,0,0
637,43,0,0,0,0,0,0,0,0,0,-1,1861,981,0,0
644,43,17.0839,2.49976,0.00632439,0.00350972,0.00289553,0.00813648,0.00169763,0.55919,0.00495632,0.0379488,1868,981,17.0838,-2.49978
651,43,17.1631,2.49371,0.00485827,0.00264257,0.00173651,0.00581023,0.00169061,0.50146,0.00345086,0.0370974,1875,981,17.1631,-2.4937
658,43,17.3744,2.5094,0.00357813,0.0020349,0.00113241,0.00417682,0.00143621,0.486333,0.00245038,0.0368951,1882,981,17.3743,-2.50942
665,43,17.1974,2.32837,0.00222274,0.00176105,0.00103329,0.00305066,0.000933137,0.675499,0.001805,0.039335,1889,981,17.1974,-2.32837
672,43,16.8656,2.29767,0.000550915,0.0017652,0.0013837,0.0026691,-0.000352982,0.992142,0.00190797,0.0411406,1896,981,16.8656,-2.29766
679,43,17.0558,2.32111,-0.00132831,0.00183847,0.00198427,0.00279368,-0.00228351,1.12215,0.00293624,0.042209,1903,981,17.0558,-2.32113
686,43,17.28,2.315,-0.00297533,0.00192133,0.00261515,0.00305537,-0.00410937,1.16163,0.00415146,0.0405339,1910,981,17.28,-2.31503
693,43,17.2885,2.27338,-0.00438663,0.0019343,0.00316293,0.00324515,-0.00569748,1.1779,0.00522734,0.0377898,1917,981,17.2884,-2.27337
700,43,17.209,2.39325,-0.00559387,0.0019789,0.00361753,0.00342924,-0.00704421,1.1895,0.00616574,0.0318749,1924,981,17.209,-2.39323
707,43,17.1821,2.52307,-0.00659691,0.00206243,0.00386412,0.00353599,-0.00807047,1.20648,0.00686935,0.0254754,1931,981,17.1821,-2.52307
714,43,17.1962,2.63849,-0.00711369,0.00208791,0.00390552,0.00352204,-0.00854783,1.21888,0.00716708,0.0301705,1938,981,17.1961,-2.6385
721,43,16.9338,3.00684,-0.00707577,0.00206432,0.00368034,0.003362,-0.00837345,1.23181,0.00697836,0.0301839,1945,981,16.9339,-3.00684
728,43,16.6093,3.21088,-0.00697007,0.00190142,0.00327868,0.00298161,-0.00805026,1.25254,0.00658954,0.0192207,1952,981,16.6093,-3.21085
735,43,16.5144,3.3111,-0.00675701,0.00143393,0.00283848,0.00232141,-0.0076445,1.26776,0.0060212,0.0131152,1959,981,16.5144,-3.3111
742,43,16.522,3.3714,-0.00622205,0.000808901,0.00194728,0.00131219,-0.00672534,1.31787,0.00497893,0.0149807,1966,981,16.522,-3.37138
749,43,16.548,3.42383,-0.00531091,0.000580907,0.00080911,0.00069,-0.00542001,1.43677,0.00386393,0.0161364,1973,981,16.5479,-3.42386
756,43,16.5321,3.50104,-0.00363784,0.00149381,-0.000819166,0.0016214,-0.00376543,-1.41628,0.00319115,0.0150065,1980,981,16.5321,-3.50103
763,43,16.5027,3.54919,-0.00181961,0.00266134,-0.00296265,0.0041353,-0.00329357,-1.10914,0.00429823,0.0166812,1987,981,16.5027,-3.5492
770,43,16.504,3.57611,-2.65995e-05,0.00403388,-0.00502744,0.00742554,-0.00341826,-0.977301,0.00640158,0.0145386,1994,981,16.5041,-3.57609
777,43,16.4941,3.59528,0.00193717,0.00634421,-0.00727146,0.0117387,-0.00345731,-0.932519,0.00919744,0.0202776,2001,981,16.4942,-3.59528
784,43,16.4443,3.69556,0.00397503,0.00984375,-0.00988358,0.0172194,-0.00340058,-0.9297,0.012765,0.0420914,2008,981,16.4443,-3.69553
791,43,16.4167,3.78973,0,0,0,0,0,0,0,-1,2015,981,16.4167,-3.78976
798,43,16.9285,4.9538,0.0101917,0.021569,-0.0170369,0.0338418,-0.00208119,-0.946529,0.023286,0.0419465,2022,981,16.9285,-4.95379
805,43,17.1144,4.54028,0.0149903,0.0307068,-0.0218571,0.0460754,-0.000378273,-0.957968,0.0308438,0.0437328,2029,981,17.1143,-4.54025
812,43,17.3816,3.88251,0.0212041,0.0429339,-0.0276835,0.0618082,0.00232977,-0.972397,0.0404513,0.0481509,2036,981,17.3816,-3.88249
-700,36,0,0,0,0,0,0,0,0,0,-1,524,988,0,0
-693,36,-10.1938,-0.124878,0,0,0,0,0,0,0,-1,531,988,-10.1938,0.124853
-686,36,-10.7696,0.614868,0,0,0,0,0,0,0,-1,538,988,-10.7696,-0.614898
-679,36,-11.3636,1.36096,0,0,0,0,0,0,0,-1,545,988,-11.3636,-1.36099
-672,36,-11.9607,2.18378,0,0,0,0,0,0,0,-1,552,988,-11.9607,-2.18378
-665,36,-10.4612,-0.342529,0,0,0,0,0,0,0,-1,559,988,-10.4613,0.342505
-658,36,-10.5087,-0.447571,-0.00596746,0.0115797,0.0145294,0.019779,-0.0141668,1.05702,0.0196877,0.0454694,566,988,-10.5087,0.447542
-651,36,-10.9828,0.933838,-0.0045113,0.0108507,0.0119864,0.0174059,-0.0110665,1.07034,0.0165739,0.0359249,573,988,-10.9829,-0.933868
-644,36,-10.9305,1.27515,-0.00344202,0.00935387,0.00955603,0.014456,-0.00854414,1.08039,0.0134246,0.0182834,580,988,-10.9305,-1.27517
-637,36,-10.9149,1.28204,-0.00242358,0.00843585,0.00666382,0.011602,-0.0055897,1.12725,0.0101259,0.0129802,587,988,-10.9149,-1.28203
-630,36,-10.915,1.26208,-0.00209736,0.00650144,0.00455211,0.00846356,-0.00405947,1.16383,0.0073777,0.0117277,594,988,-10.9151,-1.26206
-623,36,-10.9017,1.19464,-0.00202054,0.00482542,0.00283446,0.00584665,-0.00304176,1.22499,0.0052162,0.0118462,601,988,-10.9017,-1.19463
-616,36,-10.8851,1.14294,-0.00201217,0.00312156,0.00133429,0.00344764,-0.00233825,1.33111,0.00336089,0.0105137,608,988,-10.8851,-1.14291
-609,36,-10.8777,1.1156,-0.00230379,0.00194689,-4.32273e-05,0.00194732,-0.00230423,-1.56063,0.00245752,0.0145222,615,988,-10.8777,-1.11557
-602,36,-10.8758,1.09723,-0.00252993,0.00077471,-0.00162026,0.00143657,-0.00319179,-1.18299,0.00273548,0.0188275,622,988,-10.8758,-1.09724
-595,36,-10.8728,1.05267,-0.00255138,0.000479538,-0.00259327,0.00196769,-0.00403953,-1.04983,0.00353636,0.0195088,629,988,-10.8728,-1.0527
-588,36,-10.906,0.864014,-0.00242542,0.000300052,-0.0029784,0.00221266,-0.00433803,-0.999951,0.00384783,0.0180051,636,988,-10.906,-0.86401
-581,36,-10.9815,0.632874,-0.00231824,0.00019334,-0.00324094,0.00241328,-0.00453818,-0.97023,0.00407545,0.0206374,643,988,-10.9815,-0.632846
-574,36,-11.0049,0.579346,-0.00202873,0.000359895,-0.00339295,0.0027626,-0.00443143,-0.954625,0.00419056,0.0254061,650,988,-11.005,-0.579371
-567,36,-10.9776,0.507141,-0.00154931,0.000512672,-0.00342014,0.00305384,-0.00409047,-0.93179,0.00413922,0.0340044,657,988,-10.9776,-0.507149
-560,36,-10.9203,0.413696,-0.000746486,0.000738522,-0.00338957,0.00346596,-0.00347393,-0.893223,0.00400675,0.0400832,664,988,-10.9204,-0.41368
-553,36,-10.9928,0.299927,0.000443109,0.00107796,-0.0033867,0.00416208,-0.00264101,-0.832125,0.00396035,0.0435986,671,988,-10.9928,-0.299913
-546,36,-10.9987,0.729309,0.00203841,0.0015584,-0.00349046,0.00529711,-0.0017003,-0.751072,0.00421411,0.0473877,678,988,-10.9987,-0.729333
-539,36,-10.6266,0.87439,0.00404599,0.00223734,-0.00388568,0.00713119,-0.000847864,-0.671067,0.00506048,0.0470975,685,988,-10.6266,-0.874401
-532,36,-10.5763,0.563477,0.00622408,0.00333435,-0.00498157,0.00996609,-0.000407662,-0.64425,0.00678403,0.046164,692,988,-10.5763,-0.563451
-525,36,-10.7006,0.231079,0.00811041,0.00517664,-0.00700565,0.0138011,-0.000514054,-0.682196,0.00937678,0.0488445,699,988,-10.7005,-0.23106
-518,36,0,0,0,0,0,0,0,0,0,-1,706,988,0,0
-511,36,0,0,0,0,0,0,0,0,0,-1,713,988,0,0
-504,36,0,0,0,0,0,0,0,0,0,-1,720,988,0,0
-497,36,0,0,0,0,0,0,0,0,0,-1,727,988,0,0
-490,36,0,0,0,0,0,0,0,0,0,-1,734,988,0,0
-483,36,0,0,0,0,0,0,0,0,0,-1,741,988,0,0
-476,36,0,0,0,0,0,0,0,0,0,-1,748,988,0,0
-469,36,0,0,0,0,0,0,0,0,0,-1,755,988,0,0
-462,36,0,0,0,0,0,0,0,0,0,-1,762,988,0,0
-455,36,0,0,0,0,0,0,0,0,0,-1,769,988,0,0
-448,36,0,0,0,0,0,0,0,0,0,-1,776,988,0,0
-441,36,0,0,0,0,0,0,0,0,0,-1,783,988,0,0
-434,36,0,0,0,0,0,0,0,0,0,-1,790,988,0,0
-427,36,0,0,0,0,0,0,0,0,0,-1,797,988,0,0
-420,36,0,0,0,0,0,0,0,0,0,-1,804,988,0,0
-413,36,0,0,0,0,0,0,0,0,0,-1,811,988,0,0
-406,36,0,0,0,0,0,0,0,0,0,-1,818,988,0,0
-399,36,0,0,0,0,0,0,0,0,0,-1,825,988,0,0
-392,36,0,0,0,0,0,0,0,0,0,-1,832,988,0,0
-385,36,0,0,0,0,0,0,0,0,0,-1,839,988,0,0
-378,36,0,0,0,0,0,0,0,0,0,-1,846,988,0,0
-371,36,0,0,0,0,0,0,0,0,0,-1,853,988,0,0
-364,36,0,0,0,0,0,0,0,0,0,-1,860,988,0,0
-357,36,0,0,0,0,0,0,0,0,0,-1,867,988,0,0
-350,36,0,0,0,0,0,0,0,0,0,-1,874,988,0,0
-343,36,0,0,0,0,0,0,0,0,0,-1,881,988,0,0
-336,36,0,0,0,0,0,0,0,0,0,-1,888,988,0,0
-329,36,0,0,0,0,0,0,0,0,0,-1,895,988,0,0
-322,36,0,0,0,0,0,0,0,0,0,-1,902,988,0,0
-315,36,0,0,0,0,0,0,0,0,0,-1,909,988,0,0
-308,36,0,0,0,0,0,0,0,0,0,-1,916,988,0,0
-301,36,0,0,0,0,0,0,0,0,0,-1,923,988,0,0
-294,36,0,0,0,0,0,0,0,0,0,-1,930,988,0,0
-287,36,0,0,0,0,0,0,0,0,0,-1,937,988,0,0
-280,36,0,0,0,0,0,0,0,0,0,-1,944,988,0,0
-273,36,0,0,0,0,0,0,0,0,0,-1,951,988,0,0
-266,36,0,0,0,0,0,0,0,0,0,-1,958,988,0,0
-259,36,0,0,0,0,0,0,0,0,0,-1,965,988,0,0
-252,36,0,0,0,0,0,0,0,0,0,-1,972,988,0,0
-245,36,0,0,0,0,0,0,0,0,0,-1,979,988,0,0
-238,36,0,0,0,0,0,0,0,0,0,-1,986,988,0,0
-231,36,0,0,0,0,0,0,0,0,0,-1,993,988,0,0
-224,36,0,0,0,0,0,0,0,0,0,-1,1000,988,0,0
-217,36,0,0,0,0,0,0,0,0,0,-1,1007,988,0,0
-210,36,0,0,0,0,0,0,0,0,0,-1,1014,988,0,0
-203,36,0,0,0,0,0,0,0,0,0,-1,1021,988,0,0
-196,36,0,0,0,0,0,0,0,0,0,-1,1028,988,0,0
-189,36,0,0,0,0,0,0,0,0,0,-1,1035,988,0,0
-182,36,0,0,0,0,0,0,0,0,0,-1,1042,988,0,0
-175,36,0,0,0,0,0,0,0,0,0,-1,1049,988,0,0
-168,36,0,0,0,0,0,0,0,0,0,-1,1056,988,0,0
-161,36,0,0,0,0,0,0,0,0,0,-1,1063,988,0,0
-154,36,0,0,0,0,0,0,0,0,0,-1,1070,988,0,0
-147,36,0,0,0,0,0,0,0,0,0,-1,1077,988,0,0
-140,36,0,0,0,0,0,0,0,0,0,-1,1084,988,0,0
-133,36,0,0,0,0,0,0,0,0,0,-1,1091,988,0,0
-126,36,0,0,0,0,0,0,0,0,0,-1,1098,988,0,0
-119,36,0,0,0,0,0,0,0,0,0,-1,1105,988,0,0
-112,36,0,0,0,0,0,0,0,0,0,-1,1112,988,0,0
-105,36,0,0,0,0,0,0,0,0,0,-1,1119,988,0,0
-98,36,0,0,0,0,0,0,0,0,0,-1,1126,988,0,0
-91,36,0,0,0,0,0,0,0,0,0,-1,1133,988,0,0
-84,36,0,0,0,0,0,0,0,0,0,-1,1140,988,0,0
-77,36,0,0,0,0,0,0,0,0,0,-1,1147,988,0,0
-70,36,0,0,0,0,0,0,0,0,0,-1,1154,988,0,0
-63,36,0,0,0,0,0,0,0,0,0,-1,1161,988,0,0
-56,36,0,0,0,0,0,0,0,0,0,-1,1168,988,0,0
-49,36,0,0,0,0,0,0,0,0,0,-1,1175,988,0,0
-42,36,0,0,0,0,0,0,0,0,0,-1,1182,988,0,0
-35,36,0,0,0,0,0,0,0,0,0,-1,1189,988,0,0
-28,36,0,0,0,0,0,0,0,0,0,-1,1196,988,0,0
-21,36,0,0,0,0,0,0,0,0,0,-1,1203,988,0,0
-14,36,0,0,0,0,0,0,0,0,0,-1,1210,988,0,0
-7,36,0,0,0,0,0,0,0,0,0,-1,1217,988,0,0
0,36,0,0,0,0,0,0,0,0,0,-1,1224,988,0,0
7,36,0,0,0,0,0,0,0,0,0,-1,1231,988,0,0
14,36,0,0,0,0,0,0,0,0,0,-1,1238,988,0,0
21,36,0,0,0,0,0,0,0,0,0,-1,1245,988,0,0
28,36,0,0,0,0,0,0,0,0,0,-1,1252,988,0,0
35,36,0,0,0,0,0,0,0,0,0,-1,1259,988,0,0
42,36,0,0,0,0,0,0,0,0,0,-1,1266,988,0,0
49,36,0,0,0,0,0,0,0,0,0,-1,1273,988,0,0
56,36,0,0,0,0,0,0,0,0,0,-1,1280,988,0,0
63,36,0,0,0,0,0,0,0,0,0,-1,1287,988,0,0
70,36,0,0,0,0,0,0,0,0,0,-1,1294,988,0,0
77,36,0,0,0,0,0,0,0,0,0,-1,1301,988,0,0
84,36,0,0,0,0,0,0,0,0,0,-1,1308,988,0,0
91,36,0,0,0,0,0,0,0,0,0,-1,1315,988,0,0
98,36,0,0,0,0,0,0,0,0,0,-1,1322,988,0,0
105,36,0,0,0,0,0,0,0,0,0,-1,1329,988,0,0
112,36,0,0,0,0,0,0,0,0,0,-1,1336,988,0,0
119,36,0,0,0,0,0,0,0,0,0,-1,1343,988,0,0
126,36,0,0,0,0,0,0,0,0,0,-1,1350,988,0,0
133,36,0,0,0,0,0,0,0,0,0,-1,1357,988,0,0
140,36,0,0,0,0,0,0,0,0,0,-1,1364,988,0,0
147,36,0,0,0,0,0,0,0,0,0,-1,1371,988,0,0
154,36,0,0,0,0,0,0,0,0,0,-1,1378,988,0,0
161,36,0,0,0,0,0,0,0,0,0,-1,1385,988,0,0
168,36,0,0,0,0,0,0,0,0,0,-1,1392,988,0,0
175,36,0,0,0,0,0,0,0,0,0,-1,1399,988,0,0
182,36,0,0,0,0,0,0,0,0,0,-1,1406,988,0,0
189,36,0,0,0,0,0,0,0,0,0,-1,1413,988,0,0
196,36,0,0,0,0,0,0,0,0,0,-1,1420,988,0,0
203,36,0,0,0,0,0,0,0,0,0,-1,1427,988,0,0
210,36,0,0,0,0,0,0,0,0,0,-1,1434,988,0,0
217,36,0,0,0,0,0,0,0,0,0,-1,1441,988,0,0
224,36,0,0,0,0,0,0,0,0,0,-1,1448,988,0,0
231,36,0,0,0,0,0,0,0,0,0,-1,1455,988,0,0
238,36,0,0,0,0,0,0,0,0,0,-1,1462,988,0,0
245,36,0,0,0,0,0,0,0,0,0,-1,1469,988,0,0
252,36,0,0,0,0,0,0,0,0,0,-1,1476,988,0,0
259,36,0,0,0,0,0,0,0,0,0,-1,1483,988,0,0
266,36,0,0,0,0,0,0,0,0,0,-1,1490,988,0,0
273,36,0,0,0,0,0,0,0,0,0,-1,1497,988,0,0
280,36,0,0,0,0,0,0,0,0,0,-1,1504,988,0,0
287,36,0,0,0,0,0,0,0,0,0,-1,1511,988,0,0
294,36,0,0,0,0,0,0,0,0,0,-1,1518,988,0,0
301,36,0,0,0,0,0,0,0,0,0,-1,1525,988,0,0
308,36,0,0,0,0,0,0,0,0,0,-1,1532,988,0,0
315,36,0,0,0,0,0,0,0,0,0,-1,1539,988,0,0
322,36,0,0,0,0,0,0,0,0,0,-1,1546,988,0,0
329,36,0,0,0,0,0,0,0,0,0,-1,1553,988,0,0
336,36,0,0,0,0,0,0,0,0,0,-1,1560,988,0,0
343,36,0,0,0,0,0,0,0,0,0,-1,1567,988,0,0
350,36,0,0,0,0,0,0,0,0,0,-1,1574,988,0,0
357,36,0,0,0,0,0,0,0,0,0,-1,1581,988,0,0
364,36,0,0,0,0,0,0,0,0,0,-1,1588,988,0,0
371,36,0,0,0,0,0,0,0,0,0,-1,1595,988,0,0
378,36,0,0,0,0,0,0,0,0,0,-1,1602,988,0,0
385,36,0,0,0,0,0,0,0,0,0,-1,1609,988,0,0
392,36,0,0,0,0,0,0,0,0,0,-1,1616,988,0,0
399,36,0,0,0,0,0,0,0,0,0,-1,1623,988,0,0
406,36,0,0,0,0,0,0,0,0,0,-1,1630,988,0,0
413,36,0,0,0,0,0,0,0,0,0,-1,1637,988,0,0
420,36,0,0,0,0,0,0,0,0,0,-1,1644,988,0,0
427,36,0,0,0,0,0,0,0,0,0,-1,1651,988,0,0
434,36,0,0,0,0,0,0,0,0,0,-1,1658,988,0,0
441,36,0,0,0,0,0,0,0,0,0,-1,1665,988,0,0
448,36,0,0,0,0,0,0,0,0,0,-1,1672,988,0,0
455,36,0,0,0,0,0,0,0,0,0,-1,1679,988,0,0
462,36,0,0,0,0,0,0,0,0,0,-1,1686,988,0,0
469,36,0,0,0,0,0,0,0,0,0,-1,1693,988,0,0
476,36,0,0,0,0,0,0,0,0,0,-1,1700,988,0,0
483,36,0,0,0,0,0,0,0,0,0,-1,1707,988,0,0
490,36,0,0,0,0,0,0,0,0,0,-1,1714,988,0,0
497,36,0,0,0,0,0,0,0,0,0,-1,1721,988,0,0
504,36,0,0,0,0,0,0,0,0,0,-1,1728,988,0,0
511,36,0,0,0,0,0,0,0,0,0,-1,1735,988,0,0
518,36,0,0,0,0,0,0,0,0,0,-1,1742,988,0,0
525,36,0,0,0,0,0,0,0,0,0,-1,1749,988,0,0
532,36,0,0,0,0,0,0,0,0,0,-1,1756,988,0,0
539,36,0,0,0,0,0,0,0,0,0,-1,1763,988,0,0
546,36,0,0,0,0,0,0,0,0,0,-1,1770,988,0,0
553,36,0,0,0,0,0,0,0,0,0,-1,1777,988,0,0
560,36,0,0,0,0,0,0,0,0,0,-1,1784,988,0,0
567,36,0,0,0,0,0,0,0,0,0,-1,1791,988,0,0
574,36,0,0,0,0,0,0,0,0,0,-1,1798,988,0,0
581,36,0,0,0,0,0,0,0,0,0,-1,1805,988,0,0
588,36,0,0,0,0,0,0,0,0,0,-1,1812,988,0,0
595,36,0,0,0,0,0,0,0,0,0,-1,1819,988,0,0
602,36,0,0,0,0,0,0,0,0,0,-1,1826,988,0,0
609,36,0,0,0,0,0,0,0,0,0,-1,1833,988,0,0
616,36,0,0,0,0,0,0,0,0,0,-1,1840,988,0,0
623,36,0,0,0,0,0,0,0,0,0,-1,1847,988,0,0
630,36,0,0,0,0,0,0,0,0,0,-1,1854,988,0,0
637,36,0,0,0,0,0,0,0,0,0,-1,1861,988,0,0
644,36,17.0823,2.6687,0.00584991,0.00418241,0.00329244,0.00841253,0.0016198,0.661389,0.00515397,0.0415561,1868,988,17.0823,-2.66868
651,36,17.1606,2.6673,0.00449079,0.00306349,0.00199191,0.00589303,0.00166125,0.613384,0.00350858,0.0393834,1875,988,17.1607,-2.66731
658,36,17.3585,2.43579,0.00332694,0.00222286,0.00125546,0.00414637,0.00140343,0.578265,0.00243519,0.0357383,1882,988,17.3585,-2.4358
665,36,17.3438,2.31525,0.00219761,0.00176657,0.0010503,0.00305427,0.000909907,0.684203,0.00181076,0.037898,1889,988,17.3437,-2.31528
672,36,17.072,2.79822,0.000756626,0.00164948,0.0013814,0.0026548,-0.00024869,0.941686,0.00185832,0.0410579,1896,988,17.0721,-2.79819
679,36,17.1229,2.44958,-0.000988316,0.00165901,0.00202204,0.00275211,-0.00208142,1.0752,0.00279958,0.0409328,1903,988,17.1229,-2.44959
686,36,17.2355,2.39148,-0.00254935,0.00171659,0.00271993,0.00304015,-0.00387291,1.11791,0.00400089,0.0381731,1910,988,17.2355,-2.3915
693,36,17.3328,2.25793,-0.00390534,0.00174051,0.00335083,0.00329902,-0.00546384,1.13545,0.00511045,0.0388213,1917,988,17.3328,-2.25793
700,36,17.2192,2.42535,-0.00509692,0.00179297,0.00387484,0.00353281,-0.00683676,1.14877,0.00608733,0.03495,1924,988,17.2192,-2.42536
707,36,17.1716,2.52057,-0.00613344,0.00190016,0.00418859,0.00368672,-0.00792,1.16763,0.0068481,0.0239844,1931,988,17.1716,-2.52055
714,36,17.2002,2.57458,-0.00674419,0.00197049,0.00429635,0.00373238,-0.00850609,1.18162,0.00724284,0.0258435,1938,988,17.2002,-2.57458
721,36,17.0607,2.98749,-0.00682958,0.00200311,0.00416299,0.00365591,-0.00848239,1.19286,0.00719035,0.0323871,1945,988,17.0606,-2.98748
728,36,16.7501,3.25659,-0.00681273,0.00186768,0.00389495,0.00335912,-0.00830416,1.2051,0.00693261,0.0212286,1952,988,16.7501,-3.25662
735,36,16.5757,3.34497,-0.00664109,0.00156972,0.00354635,0.00288935,-0.00796072,1.21456,0.00648837,0.0172204,1959,988,16.5757,-3.34499
742,36,16.5859,3.37299,-0.00617232,0.00113834,0.00268469,0.00201832,-0.0070523,1.25406,0.00549918,0.0145196,1966,988,16.5859,-3.37299
749,36,16.6134,3.42688,-0.00530603,0.00117784,0.00154827,0.00152858,-0.00565676,1.34802,0.00437073,0.0156906,1973,988,16.6134,-3.42686
756,36,16.5916,3.48901,-0.00364196,0.00238901,-0.000200488,0.00239567,-0.00364862,-1.5376,0.00351458,0.0129215,1980,988,16.5916,-3.48901
763,36,16.5631,3.53082,-0.00177226,0.00390576,-0.00250647,0.00485388,-0.00272039,-1.20916,0.00443046,0.014396,1987,988,16.5631,-3.53082
770,36,16.5585,3.55347,0.000160768,0.00568706,-0.0047994,0.00846189,-0.00261406,-1.04659,0.0066852,0.0123648,1994,988,16.5585,-3.55348
777,36,16.559,3.63086,0.00239146,0.00850278,-0.00736534,0.0134212,-0.00252692,-0.982028,0.00989786,0.0209093,2001,988,16.5589,-3.63087
784,36,16.4807,4.04413,0.00471862,0.0125947,-0.0103814,0.0197598,-0.00244654,-0.966682,0.0140599,0.0432473,2008,988,16.4807,-4.0441
791,36,16.4283,4.4538,0.00759409,0.0181855,-0.0141025,0.0279538,-0.00217421,-0.96501,0.0194013,0.0445544,2015,988,16.4284,-4.45378
798,36,16.3093,4.37848,0.0114924,0.0256174,-0.0187698,0.0386094,-0.00149963,-0.965339,0.0262538,0.0420144,2022,988,16.3093,-4.3785
805,36,16.439,3.82935,0.0166106,0.0353424,-0.0245147,0.0522195,-0.000266392,-0.967868,0.0349021,0.0459236,2029,988,16.439,-3.82935
812,36,16.665,3.23615,0.0231598,0.0479646,-0.0315393,0.0694524,0.00167204,-0.972729,0.0457544,0.0456139,2036,988,16.6651,-3.23615
-700,29,0,0,0,0,0,0,0,0,0,-1,524,995,0,0
-693,29,-10.2092,0.290466,-0.0287405,-0.0142002,0.0430193,0.0221589,-0.0650996,0.869106,0.0523726,0.0418684,531,995,-10.2092,-0.290458
-686,29,-10.7858,1.06995,0,0,0,0,0,0,0,-1,538,995,-10.7857,-1.06996
-679,29,-11.3758,1.83936,0,0,0,0,0,0,0,-1,545,995,-11.3758,-1.83937
-672,29,-11.9579,2.62579,0,0,0,0,0,0,0,-1,552,995,-11.9579,-2.62578
-665,29,-10.3584,-0.917664,0,0,0,0,0,0,0,-1,559,995,-10.3584,0.917639
-658,29,-10.0776,-0.963074,-0.00575135,0.0103207,0.0145549,0.0189107,-0.0143413,1.03763,0.0192584,0.0457128,566,995,-10.0776,0.963045
-651,29,-10.8619,1.0025,-0.00413582,0.00937788,0.0116788,0.0161136,-0.0108715,1.04765,0.0156775,0.0361342,573,995,-10.8619,-1.00251
-644,29,-10.8765,1.2381,-0.00298745,0.00790455,0.00909987,0.0130636,-0.00814648,1.05505,0.0123548,0.0189059,580,995,-10.8765,-1.23811
-637,29,-10.9406,1.24066,-0.00201032,0.00726679,0.00607295,0.01027,-0.00501355,1.11154,0.00899626,0.0125356,587,995,-10.9406,-1.24065
-630,29,-10.9491,1.24353,-0.0015771,0.00542811,0.00402075,0.00725792,-0.00340692,1.14372,0.00628973,0.0109237,594,995,-10.9491,-1.24353
-623,29,-10.9291,1.21429,-0.0014789,0.0038314,0.00236967,0.00473507,-0.00238256,1.20647,0.00418352,0.0102797,601,995,-10.9291,-1.21432
-616,29,-10.9235,1.15326,-0.00155055,0.00239801,0.00088281,0.0025864,-0.00173894,1.36055,0.00251316,0.0125041,608,995,-10.9235,-1.15324
-609,29,-10.9328,1.12286,-0.00178286,0.00141697,-0.000492868,0.00149116,-0.00185706,-1.42138,0.00193694,0.0196593,615,995,-10.9328,-1.12285
-602,29,-10.9204,1.0918,-0.00193088,0.000457467,-0.00197087,0.00156772,-0.00304113,-1.05778,0.00270587,0.0211302,622,995,-10.9204,-1.09182
-595,29,-10.8905,1.04504,-0.00194472,0.0002936,-0.00291424,0.00229619,-0.00394731,-0.968731,0.00364646,0.019121,629,995,-10.8905,-1.04503
-588,29,-10.9348,0.831665,-0.0018033,0.000154892,-0.00328003,0.00259884,-0.00424724,-0.930439,0.0039906,0.0228481,636,995,-10.9348,-0.83165
-581,29,-10.9979,0.597839,-0.00168781,2.02758e-05,-0.0035111,0.00277971,-0.00444724,-0.904701,0.00420935,0.0328355,643,995,-10.9978,-0.59782
-574,29,-10.9673,0.58844,-0.00141076,0.000153848,-0.00361099,0.00306631,-0.00432322,-0.892072,0.00428686,0.0299826,650,995,-10.9673,-0.588429
-567,29,-10.9387,0.566223,-0.000990852,0.000263412,-0.00356342,0.00325447,-0.00398191,-0.872502,0.00418495,0.0326446,657,995,-10.9387,-0.566236
-560,29,-11.0641,0.366333,-0.000311637,0.00043979,-0.00345489,0.00353934,-0.00341119,-0.839559,0.00401312,0.0387849,664,995,-11.0641,-0.36631
-553,29,-11.1577,0.506042,0.000657116,0.000700819,-0.00336765,0.00404669,-0.00268876,-0.788642,0.00391497,0.0418676,671,995,-11.1577,-0.50605
-546,29,-11.0405,0.723877,0.00191235,0.00105705,-0.00338726,0.00489885,-0.00192945,-0.722604,0.00406467,0.0433863,678,995,-11.0406,-0.723862
-539,29,-10.7609,0.736023,0.00344121,0.00154684,-0.00373878,0.00635092,-0.00136287,-0.661338,0.00475381,0.0435489,685,995,-10.761,-0.735993
-532,29,-10.4664,0.582031,0,0,0,0,0,0,0,-1,692,995,-10.4664,-0.582015
-525,29,-10.6636,0.052124,0,0,0,0,0,0,0,-1,699,995,-10.6635,-0.0521139
-518,29,0,0,0,0,0,0,0,0,0,-1,706,995,0,0
-511,29,0,0,0,0,0,0,0,0,0,-1,713,995,0,0
-504,29,0,0,0,0,0,0,0,0,0,-1,720,995,0,0
-497,29,0,0,0,0,0,0,0,0,0,-1,727,995,0,0
-490,29,0,0,0,0,0,0,0,0,0,-1,734,995,0,0
-483,29,0,0,0,0,0,0,0,0,0,-1,741,995,0,0
-476,29,0,0,0,0,0,0,0,0,0,-1,748,995,0,0
-469,29,0,0,0,0,0,0,0,0,0,-1,755,995,0,0
-462,29,0,0,0,0,0,0,0,0,0,-1,762,995,0,0
-455,29,0,0,0,0,0,0,0,0,0,-1,769,995,0,0
-448,29,0,0,0,0,0,0,0,0,0,-1,776,995,0,0
-441,29,0,0,0,0,0,0,0,0,0,-1,783,995,0,0
-434,29,0,0,0,0,0,0,0,0,0,-1,790,995,0,0
-427,29,0,0,0,0,0,0,0,0,0,-1,797,995,0,0
-420,29,0,0,0,0,0,0,0,0,0,-1,804,995,0,0
-413,29,0,0,0,0,0,0,0,0,0,-1,811,995,0,0
-406,29,0,0,0,0,0,0,0,0,0,-1,818,995,0,0
-399,29,0,0,0,0,0,0,0,0,0,-1,825,995,0,0
-392,29,0,0,0,0,0,0,0,0,0,-1,832,995,0,0
-385,29,0,0,0,0,0,0,0,0,0,-1,839,995,0,0
-378,29,0,0,0,0,0,0,0,0,0,-1,846,995,0,0
-371,29,0,0,0,0,0,0,0,0,0,-1,853,995,0,0
-364,29,0,0,0,0,0,0,0,0,0,-1,860,995,0,0
-357,29,0,0,0,0,0,0,0,0,0,-1,867,995,0,0
-350,29,0,0,0,0,0,0,0,0,0,-1,874,995,0,0
-343,29,0,0,0,0,0,0,0,0,0,-1,881,995,0,0
-336,29,0,0,0,0,0,0,0,0,0,-1,888,995,0,0
-329,29,0,0,0,0,0,0,0,0,0,-1,895,995,0,0
-322,29,0,0,0,0,0,0,0,0,0,-1,902,995,0,0
-315,29,0,0,0,0,0,0,0,0,0,-1,909,995,0,0
-308,29,0,0,0,0,0,0,0,0,0,-1,916,995,0,0
-301,29,0,0,0,0,0,0,0,0,0,-1,923,995,0,0
-294,29,0,0,0,0,0,0,0,0,0,-1,930,995,0,0
-287,29,0,0,0,0,0,0,0,0,0,-1,937,995,0,0
-280,29,0,0,0,0,0,0,0,0,0,-1,944,995,0,0
-273,29,0,0,0,0,0,0,0,0,0,-1,951,995,0,0
-266,29,0,0,0,0,0,0,0,0,0,-1,958,995,0,0
-259,29,0,0,0,0,0,0,0,0,0,-1,965,995,0,0
-252,29,0,0,0,0,0,0,0,0,0,-1,972,995,0,0
-245,29,0,0,0,0,0,0,0,0,0,-1,979,995,0,0
-238,29,0,0,0,0,0,0,0,0,0,-1,986,995,0,0
-231,29,0,0,0,0,0,0,0,0,0,-1,993,995,0,0
-224,29,0,0,0,0,0,0,0,0,0,-1,1000,995,0,0
-217,29,0,0,0,0,0,0,0,0,0,-1,1007,995,0,0
-210,29,0,0,0,0,0,0,0,0,0,-1,1014,995,0,0
-203,29,0,0,0,0,0,0,0,0,0,-1,1021,995,0,0
-196,29,0,0,0,0,0,0,0,0,0,-1,1028,995,0,0
-189,29,0,0,0,0,0,0,0,0,0,-1,1035,995,0,0
-182,29,0,0,0,0,0,0,0,0,0,-1,1042,995,0,0
-175,29,0,0,0,0,0,0,0,0,0,-1,1049,995,0,0
-168,29,0,0,0,0,0,0,0,0,0,-1,1056,995,0,0
-161,29,0,0,0,0,0,0,0,0,0,-1,1063,995,0,0
-154,29,0,0,0,0,0,0,0,0,0,-1,1070,995,0,0
-147,29,0,0,0,0,0,0,0,0,0,-1,1077,995,0,0
-140,29,0,0,0,0,0,0,0,0,0,-1,1084,995,0,0
-133,29,0,0,0,0,0,0,0,0,0,-1,1091,995,0,0
-126,29,0,0,0,0,0,0,0,0,0,-1,1098,995,0,0
-119,29,0,0,0,0,0,0,0,0,0,-1,1105,995,0,0
-112,29,0,0,0,0,0,0,0,0,0,-1,1112,995,0,0
-105,29,0,0,0,0,0,0,0,0,0,-1,1119,995,0,0
-98,29,0,0,0,0,0,0,0,0,0,-1,1126,995,0,0
-91,29,0,0,0,0,0,0,0,0,0,-1,1133,995,0,0
-84,29,0,0,0,0,0,0,0,0,0,-1,1140,995,0,0
-77,29,0,0,0,0,0,0,0,0,0,-1,1147,995,0,0
-70,29,0,0,0,0,0,0,0,0,0,-1,1154,995,0,0
-63,29,0,0,0,0,0,0,0,0,0,-1,1161,995,0,0
-56,29,0,0,0,0,0,0,0,0,0,-1,1168,995,0,0
-49,29,0,0,0,0,0,0,0,0,0,-1,1175,995,0,0
-42,29,0,0,0,0,0,0,0,0,0,-1,1182,995,0,0
-35,29,0,0,0,0,0,0,0,0,0,-1,1189,995,0,0
-28,29,0,0,0,0,0,0,0,0,0,-1,1196,995,0,0
-21,29,0,0,0,0,0,0,0,0,0,-1,1203,995,0,0
-14,29,0,0,0,0,0,0,0,0,0,-1,1210,995,0,0
-7,29,0,0,0,0,0,0,0,0,0,-1,1217,995,0,0
0,29,0,0,0,0,0,0,0,0,0,-1,1224,995,0,0
7,29,0,0,0,0,0,0,0,0,0,-1,1231,995,0,0
14,29,0,0,0,0,0,0,0,0,0,-1,1238,995,0,0
21,29,0,0,0,0,0,0,0,0,0,-1,1245,995,0,0
28,29,0,0,0,0,0,0,0,0,0,-1,1252,995,0,0
35,29,0,0,0,0,0,0,0,0,0,-1,1259,995,0,0
42,29,0,0,0,0,0,0,0,0,0,-1,1266,995,0,0
49,29,0,0,0,0,0,0,0,0,0,-1,1273,995,0,0
56,29,0,0,0,0,0,0,0,0,0,-1,1280,995,0,0
63,29,0,0,0,0,0,0,0,0,0,-1,1287,995,0,0
70,29,0,0,0,0,0,0,0,0,0,-1,1294,995,0,0
77,29,0,0,0,0,0,0,0,0,0,-1,1301,995,0,0
84,29,0,0,0,0,0,0,0,0,0,-1,1308,995,0,0
91,29,0,0,0,0,0,0,0,0,0,-1,1315,995,0,0
98,29,0,0,0,0,0,0,0,0,0,-1,1322,995,0,0
105,29,0,0,0,0,0,0,0,0,0,-1,1329,995,0,0
112,29,0,0,0,0,0,0,0,0,0,-1,1336,995,0,0
119,29,0,0,0,0,0,0,0,0,0,-1,1343,995,0,0
126,29,0,0,0,0,0,0,0,0,0,-1,1350,995,0,0
133,29,0,0,0,0,0,0,0,0,0,-1,1357,995,0,0
140,29,0,0,0,0,0,0,0,0,0,-1,1364,995,0,0
147,29,0,0,0,0,0,0,0,0,0,-1,1371,995,0,0
154,29,0,0,0,0,0,0,0,0,0,-1,1378,995,0,0
161,29,0,0,0,0,0,0,0,0,0,-1,1385,995,0,0
168,29,0,0,0,0,0,0,0,0,0,-1,1392,995,0,0
175,29,0,0,0,0,0,0,0,0,0,-1,1399,995,0,0
182,29,0,0,0,0,0,0,0,0,0,-1,1406,995,0,0
189,29,0,0,0,0,0,0,0,0,0,-1,1413,995,0,0
196,29,0,0,0,0,0,0,0,0,0,-1,1420,995,0,0
203,29,0,0,0,0,0,0,0,0,0,-1,1427,995,0,0
210,29,0,0,0,0,0,0,0,0,0,-1,1434,995,0,0
217,29,0,0,0,0,0,0,0,0,0,-1,1441,995,0,0
224,29,0,0,0,0,0,0,0,0,0,-1,1448,995,0,0
231,29,0,0,0,0,0,0,0,0,0,-1,1455,995,0,0
238,29,0,0,0,0,0,0,0,0,0,-1,1462,995,0,0
245,29,0,0,0,0,0,0,0,0,0,-1,1469,995,0,0
252,29,0,0,0,0,0,0,0,0,0,-1,1476,995,0,0
259,29,0,0,0,0,0,0,0,0,0,-1,1483,995,0,0
266,29,0,0,0,0,0,0,0,0,0,-1,1490,995,0,0
273,29,0,0,0,0,0,0,0,0,0,-1,1497,995,0,0
280,29,0,0,0,0,0,0,0,0,0,-1,1504,995,0,0
287,29,0,0,0,0,0,0,0,0,0,-1,1511,995,0,0
294,29,0,0,0,0,0,0,0,0,0,-1,1518,995,0,0
301,29,0,0,0,0,0,0,0,0,0,-1,1525,995,0,0
308,29,0,0,0,0,0,0,0,0,0,-1,1532,995,0,0
315,29,0,0,0,0,0,0,0,0,0,-1,1539,995,0,0
322,29,0,0,0,0,0,0,0,0,0,-1,1546,995,0,0
329,29,0,0,0,0,0,0,0,0,0,-1,1553,995,0,0
336,29,0,0,0,0,0,0,0,0,0,-1,1560,995,0,0
343,29,0,0,0,0,0,0,0,0,0,-1,1567,995,0,0
350,29,0,0,0,0,0,0,0,0,0,-1,1574,995,0,0
357,29,0,0,0,0,0,0,0,0,0,-1,1581,995,0,0
364,29,0,0,0,0,0,0,0,0,0,-1,1588,995,0,0
371,29,0,0,0,0,0,0,0,0,0,-1,1595,995,0,0
378,29,0,0,0,0,0,0,0,0,0,-1,1602,995,0,0
385,29,0,0,0,0,0,0,0,0,0,-1,1609,995,0,0
392,29,0,0,0,0,0,0,0,0,0,-1,1616,995,0,0
399,29,0,0,0,0,0,0,0,0,0,-1,1623,995,0,0
406,29,0,0,0,0,0,0,0,0,0,-1,1630,995,0,0
413,29,0,0,0,0,0,0,0,0,0,-1,1637,995,0,0
420,29,0,0,0,0,0,0,0,0,0,-1,1644,995,0,0
427,29,0,0,0,0,0,0,0,0,0,-1,1651,995,0,0
434,29,0,0,0,0,0,0,0,0,0,-1,1658,995,0,0
441,29,0,0,0,0,0,0,0,0,0,-1,1665,995,0,0
448,29,0,0,0,0,0,0,0,0,0,-1,1672,995,0,0
455,29,0,0,0,0,0,0,0,0,0,-1,1679,995,0,0
462,29,0,0,0,0,0,0,0,0,0,-1,1686,995,0,0
469,29,0,0,0,0,0,0,0,0,0,-1,1693,995,0,0
476,29,0,0,0,0,0,0,0,0,0,-1,1700,995,0,0
483,29,0,0,0,0,0,0,0,0,0,-1,1707,995,0,0
490,29,0,0,0,0,0,0,0,0,0,-1,1714,995,0,0
497,29,0,0,0,0,0,0,0,0,0,-1,1721,995,0,0
504,29,0,0,0,0,0,0,0,0,0,-1,1728,995,0,0
511,29,0,0,0,0,0,0,0,0,0,-1,1735,995,0,0
518,29,0,0,0,0,0,0,0,0,0,-1,1742,995,0,0
525,29,0,0,0,0,0,0,0,0,0,-1,1749,995,0,0
532,29,0,0,0,0,0,0,0,0,0,-1,1756,995,0,0
539,29,0,0,0,0,0,0,0,0,0,-1,1763,995,0,0
546,29,0,0,0,0,0,0,0,0,0,-1,1770,995,0,0
553,29,0,0,0,0,0,0,0,0,0,-1,1777,995,0,0
560,29,0,0,0,0,0,0,0,0,0,-1,1784,995,0,0
567,29,0,0,0,0,0,0,0,0,0,-1,1791,995,0,0
574,29,0,0,0,0,0,0,0,0,0,-1,1798,995,0,0
581,29,0,0,0,0,0,0,0,0,0,-1,1805,995,0,0
588,29,0,0,0,0,0,0,0,0,0,-1,1812,995,0,0
595,29,0,0,0,0,0,0,0,0,0,-1,1819,995,0,0
602,29,0,0,0,0,0,0,0,0,0,-1,1826,995,0,0
609,29,0,0,0,0,0,0,0,0,0,-1,1833,995,0,0
616,29,0,0,0,0,0,0,0,0,0,-1,1840,995,0,0
623,29,0,0,0,0,0,0,0,0,0,-1,1847,995,0,0
630,29,0,0,0,0,0,0,0,0,0,-1,1854,995,0,0
637,29,0,0,0,0,0,0,0,0,0,-1,1861,995,0,0
644,29,17.0929,2.38788,0.00568911,0.0047231,0.00376156,0.00899855,0.00141367,0.721545,0.00558774,0.0400322,1868,995,17.0928,-2.38788
651,29,17.1198,2.50616,0.00432541,0.00346678,0.00233407,0.00626932,0.00152287,0.694448,0.00377572,0.0400677,1875,995,17.1198,-2.50619
658,29,17.2598,2.35242,0.0031822,0.00247486,0.00145735,0.00432818,0.00132888,0.666359,0.00256016,0.0391688,1882,995,17.2598,-2.35244
665,29,17.2535,2.48151,0.00218508,0.00188764,0.00112158,0.00316775,0.000904965,0.719484,0.00188407,0.0411822,1889,995,17.2536,-2.48152
672,29,17.0806,2.745,0.0009126,0.00167811,0.00140522,0.00275177,-0.000161056,0.918363,0.00189048,0.0407033,1896,995,17.0806,-2.74499
679,29,17.0695,2.64343,-0.000741232,0.00163429,0.00206571,0.00282937,-0.00193632,1.04631,0.00276753,0.0390382,1903,995,17.0694,-2.64345
686,29,17.1307,2.50372,-0.00225369,0.00165991,0.00281746,0.00313344,-0.00372721,1.08892,0.00396594,0.0387018,1910,995,17.1307,-2.50372
693,29,17.2391,2.34265,-0.00358858,0.00168392,0.00352031,0.00344566,-0.00535033,1.10679,0.0051179,0.0382808,1917,995,17.2391,-2.34263
700,29,17.1855,2.4942,-0.00477727,0.00172254,0.00411054,0.00371271,-0.00676744,1.1199,0.0061358,0.0336818,1924,995,17.1856,-2.49419
707,29,17.1466,2.49561,-0.00583152,0.0018293,0.00449582,0.0039052,-0.00790742,1.13822,0.00694927,0.0225518,1931,995,17.1465,-2.49563
714,29,17.1788,2.63678,-0.0065055,0.00191801,0.00467986,0.00400229,-0.00858978,1.1518,0.00742911,0.0226298,1938,995,17.1788,-2.63677
721,29,17.0599,3.00446,-0.00667811,0.00197598,0.00463041,0.00398645,-0.00868858,1.16117,0.0074839,0.0283956,1945,995,17.06,-3.00444
728,29,16.77,3.23218,-0.00669816,0.00191497,0.0044449,0.00379739,-0.00858059,1.17019,0.00732213,0.0211893,1952,995,16.7701,-3.2322
735,29,16.6421,3.34894,-0.00653047,0.00177683,0.00415746,0.00350003,-0.00825366,1.17787,0.00696854,0.0144218,1959,995,16.6421,-3.34893
742,29,16.6414,3.37646,-0.00609749,0.00154032,0.00331366,0.00277753,-0.0073347,1.21346,0.00603269,0.0124757,1966,995,16.6414,-3.37648
749,29,16.658,3.42499,-0.00525527,0.0017699,0.00212638,0.00236338,-0.00584875,1.29862,0.00488154,0.0128187,1973,995,16.6579,-3.42501
756,29,16.6422,3.48779,-0.00359624,0.00319221,0.000201043,0.00319816,-0.00360219,1.54122,0.00392849,0.0113307,1980,995,16.6422,-3.4878
763,29,16.6293,3.51953,-0.00173298,0.00493489,-0.00232472,0.00566536,-0.00246345,-1.26634,0.00481301,0.0105957,1987,995,16.6293,-3.51951
770,29,16.5867,3.56665,0.000241284,0.00695176,-0.00490742,0.0095413,-0.00234826,-1.08525,0.00727114,0.0110371,1994,995,16.5866,-3.56663
777,29,16.5873,3.66608,0.00258693,0.0100094,-0.00787875,0.0150073,-0.0024109,-1.00551,0.0108977,0.0201677,2001,995,16.5873,-3.66606
784,29,16.6235,3.99402,0.00501843,0.0143271,-0.0113751,0.0219632,-0.00261769,-0.979591,0.0155881,0.0440196,2008,995,16.6235,-3.99403
791,29,16.6445,4.38019,0.00790233,0.0200578,-0.0156802,0.0307969,-0.00283681,-0.970286,0.0215392,0.0465203,2015,995,16.6445,-4.38019
798,29,16.4984,4.46368,0.0117433,0.0274712,-0.0210818,0.042108,-0.00289346,-0.963916,0.0290845,0.042132,2022,995,16.4984,-4.46366
805,29,16.5674,4.12415,0.0167366,0.0369268,-0.0277494,0.0563603,-0.00269692,-0.959853,0.038504,0.0439855,2029,995,16.5674,-4.12413
812,29,15.9661,2.6543,0.0230733,0.0488815,-0.0359173,0.0741424,-0.00218766,-0.957854,0.0501734,0.0449264,2036,995,15.966,-2.6543
-700,22,0,0,0,0,0,0,0,0,0,-1,524,1002,0,0
-693,22,-10.4362,0.784424,0,0,0,0,0,0,0,-1,531,1002,-10.4362,-0.784446
-686,22,-11.1945,1.45868,0,0,0,0,0,0,0,-1,538,1002,-11.1945,-1.45866
-679,22,-11.4009,2.31165,0,0,0,0,0,0,0,-1,545,1002,-11.4009,-2.31165
-672,22,-11.756,1.79492,0,0,0,0,0,0,0,-1,552,1002,-11.756,-1.79489
-665,22,-11.5806,2.14172,0,0,0,0,0,0,0,-1,559,1002,-11.5805,-2.14172
-658,22,-9.86279,-1.2738,0,0,0,0,0,0,0,-1,566,1002,-9.86281,1.2738
-651,22,-10.8204,1.23462,-0.0046246,0.00764421,0.0104601,0.013636,-0.0106164,1.0506,0.0140382,0.037963,573,1002,-10.8204,-1.2346
-644,22,-10.8647,1.24139,-0.00328385,0.00645355,0.00795535,0.0109118,-0.00774209,1.06,0.0108215,0.0184728,580,1002,-10.8647,-1.2414
-637,22,-10.9331,1.2345,-0.00226564,0.00617706,0.00497322,0.00847895,-0.00456753,1.1373,0.0076444,0.0129645,587,1002,-10.9331,-1.23448
-630,22,-10.9573,1.22754,-0.0016676,0.00452697,0.00308513,0.00580133,-0.00294195,1.17908,0.00513713,0.0107394,594,1002,-10.9573,-1.22752
-623,22,-10.9648,1.20709,-0.00127941,0.0030307,0.00167448,0.00360478,-0.00185348,1.24052,0.00320494,0.00978537,601,1002,-10.9648,-1.20711
-616,22,-10.9546,1.15851,-0.00109568,0.00181974,0.000263465,0.00184336,-0.0011193,1.48139,0.00172744,0.0153235,608,1002,-10.9546,-1.15852
-609,22,-10.972,1.11261,-0.00134605,0.00102146,-0.00106635,0.00143094,-0.00175553,-1.20416,0.00184288,0.0257498,615,1002,-10.972,-1.11262
-602,22,-10.9957,1.08429,-0.00146216,0.000226127,-0.00242812,0.00195266,-0.00318869,-0.952689,0.00299682,0.0246416,622,1002,-10.9957,-1.08426
-595,22,-10.9771,1.03424,-0.00143798,0.000165171,-0.00328962,0.00274946,-0.00402228,-0.904904,0.00393262,0.0200609,629,1002,-10.9771,-1.03424
-588,22,-10.9589,0.854431,-0.00128811,6.17288e-05,-0.00361903,0.00306824,-0.00429462,-0.877585,0.00427056,0.0269539,636,1002,-10.9589,-0.854448
-581,22,-11.0136,0.567017,-0.00118851,-5.72486e-05,-0.00379866,0.00321767,-0.00446342,-0.859306,0.00445408,0.03791,643,1002,-11.0136,-0.566992
-574,22,-10.9789,0.539856,-0.000956788,0.00010168,-0.00383365,0.00344245,-0.00429756,-0.853989,0.00447778,0.0337918,650,1002,-10.9789,-0.539855
-567,22,-10.9487,0.769592,-0.0006424,0.000242125,-0.0036867,0.00351299,-0.00391327,-0.845094,0.00428963,0.032504,657,1002,-10.9487,-0.769589
-560,22,-11.1194,0.486694,-0.000138902,0.000451412,-0.0034579,0.00362673,-0.00331422,-0.827974,0.00400872,0.0370716,664,1002,-11.1194,-0.486715
-553,22,-11.1959,0.479431,0.000545423,0.000724443,-0.00321809,0.00385426,-0.0025844,-0.799302,0.00374138,0.0398897,671,1002,-11.1959,-0.479421
-546,22,-11.0023,0.608276,0.00138087,0.00105415,-0.00305081,0.00427268,-0.00183767,-0.758651,0.00361998,0.0413931,678,1002,-11.0023,-0.608254
-539,22,-11.069,0.412048,0.00232937,0.00144829,-0.00321645,0.00513531,-0.00135765,-0.717339,0.00395455,0.0426942,685,1002,-11.0691,-0.412031
-532,22,-11.1677,0.527039,0.00306351,0.00210482,-0.00422766,0.00683891,-0.00167059,-0.728948,0.00520626,0.0439866,692,1002,-11.1677,-0.527057
-525,22,0,0,0,0,0,0,0,0,0,-1,699,1002,0,0
-518,22,0,0,0,0,0,0,0,0,0,-1,706,1002,0,0
-511,22,0,0,0,0,0,0,0,0,0,-1,713,1002,0,0
-504,22,0,0,0,0,0,0,0,0,0,-1,720,1002,0,0
-497,22,0,0,0,0,0,0,0,0,0,-1,727,1002,0,0
-490,22,0,0,0,0,0,0,0,0,0,-1,734,1002,0,0
-483,22,0,0,0,0,0,0,0,0,0,-1,741,1002,0,0
-476,22,0,0,0,0,0,0,0,0,0,-1,748,1002,0,0
-469,22,0,0,0,0,0,0,0,0,0,-1,755,1002,0,0
-462,22,0,0,0,0,0,0,0,0,0,-1,762,1002,0,0
-455,22,0,0,0,0,0,0,0,0,0,-1,769,1002,0,0
-448,22,0,0,0,0,0,0,0,0,0,-1,776,1002,0,0
-441,22,0,0,0,0,0,0,0,0,0,-1,783,1002,0,0
-434,22,0,0,0,0,0,0,0,0,0,-1,790,1002,0,0
-427,22,0,0,0,0,0,0,0,0,0,-1,797,1002,0,0
-420,22,0,0,0,0,0,0,0,0,0,-1,804,1002,0,0
-413,22,0,0,0,0,0,0,0,0,0,-1,811,1002,0,0
-406,22,0,0,0,0,0,0,0,0,0,-1,818,1002,0,0
-399,22,0,0,0,0,0,0,0,0,0,-1,825,1002,0,0
-392,22,0,0,0,0,0,0,0,0,0,-1,832,1002,0,0
-385,22,0,0,0,0,0,0,0,0,0,-1,839,1002,0,0
-378,22,0,0,0,0,0,0,0,0,0,-1,846,1002,0,0
-371,22,0,0,0,0,0,0,0,0,0,-1,853,1002,0,0
-364,22,0,0,0,0,0,0,0,0,0,-1,860,1002,0,0
-357,22,0,0,0,0,0,0,0,0,0,-1,867,1002,0,0
-350,22,0,0,0,0,0,0,0,0,0,-1,874,1002,0,0
-343,22,0,0,0,0,0,0,0,0,0,-1,881,1002,0,0
-336,22,0,0,0,0,0,0,0,0,0,-1,888,1002,0,0
-329,22,0,0,0,0,0,0,0,0,0,-1,895,1002,0,0
-322,22,0,0,0,0,0,0,0,0,0,-1,902,1002,0,0
-315,22,0,0,0,0,0,0,0,0,0,-1,909,1002,0,0
-308,22,0,0,0,0,0,0,0,0,0,-1,916,1002,0,0
-301,22,0,0,0,0,0,0,0,0,0,-1,923,1002,0,0
-294,22,0,0,0,0,0,0,0,0,0,-1,930,1002,0,0
-287,22,0,0,0,0,0,0,0,0,0,-1,937,1002,0,0
-280,22,0,0,0,0,0,0,0,0,0,-1,944,1002,0,0
-273,22,0,0,0,0,0,0,0,0,0,-1,951,1002,0,0
-266,22,0,0,0,0,0,0,0,0,0,-1,958,1002,0,0
-259,22,0,0,0,0,0,0,0,0,0,-1,965,1002,0,0
-252,22,0,0,0,0,0,0,0,0,0,-1,972,1002,0,0
-245,22,0,0,0,0,0,0,0,0,0,-1,979,1002,0,0
-238,22,0,0,0,0,0,0,0,0,0,-1,986,1002,0,0
-231,22,0,0,0,0,0,0,0,0,0,-1,993,1002,0,0
-224,22,0,0,0,0,0,0,0,0,0,-1,1000,1002,0,0
-217,22,0,0,0,0,0,0,0,0,0,-1,1007,1002,0,0
-210,22,0,0,0,0,0,0,0,0,0,-1,1014,1002,0,0
-203,22,0,0,0,0,0,0,0,0,0,-1,1021,1002,0,0
-196,22,0,0,0,0,0,0,0,0,0,-1,1028,1002,0,0
-189,22,0,0,0,0,0,0,0,0,0,-1,1035,1002,0,0
-182,22,0,0,0,0,0,0,0,0,0,-1,1042,1002,0,0
-175,22,0,0,0,0,0,0,0,0,0,-1,1049,1002,0,0
-168,22,0,0,0,0,0,0,0,0,0,-1,1056,1002,0,0
-161,22,0,0,0,0,0,0,0,0,0,-1,1063,1002,0,0
-154,22,0,0,0,0,0,0,0,0,0,-1,1070,1002,0,0
-147,22,0,0,0,0,0,0,0,0,0,-1,1077,1002,0,0
-140,22,0,0,0,0,0,0,0,0,0,-1,1084,1002,0,0
-133,22,0,0,0,0,0,0,0,0,0,-1,1091,1002,0,0
-126,22,0,0,0,0,0,0,0,0,0,-1,1098,1002,0,0
-119,22,0,0,0,0,0,0,0,0,0,-1,1105,1002,0,0
-112,22,0,0,0,0,0,0,0,0,0,-1,1112,1002,0,0
-105,22,0,0,0,0,0,0,0,0,0,-1,1119,1002,0,0
-98,22,0,0,0,0,0,0,0,0,0,-1,1126,1002,0,0
-91,22,0,0,0,0,0,0,0,0,0,-1,1133,1002,0,0
-84,22,0,0,0,0,0,0,0,0,0,-1,1140,1002,0,0
-77,22,0,0,0,0,0,0,0,0,0,-1,1147,1002,0,0
-70,22,0,0,0,0,0,0,0,0,0,-1,1154,1002,0,0
-63,22,0,0,0,0,0,0,0,0,0,-1,1161,1002,0,0
-56,22,0,0,0,0,0,0,0,0,0,-1,1168,1002,0,0
-49,22,0,0,0,0,0,0,0,0,0,-1,1175,1002,0,0
-42,22,0,0,0,0,0,0,0,0,0,-1,1182,1002,0,0
-35,22,0,0,0,0,0,0,0,0,0,-1,1189,1002,0,0
-28,22,0,0,0,0,0,0,0,0,0,-1,1196,1002,0,0
-21,22,0,0,0,0,0,0,0,0,0,-1,1203,1002,0,0
-14,22,0,0,0,0,0,0,0,0,0,-1,1210,1002,0,0
-7,22,0,0,0,0,0,0,0,0,0,-1,1217,1002,0,0
0,22,0,0,0,0,0,0,0,0,0,-1,1224,1002,0,0
7,22,0,0,0,0,0,0,0,0,0,-1,1231,1002,0,0
14,22,0,0,0,0,0,0,0,0,0,-1,1238,1002,0,0
21,22,0,0,0,0,0,0,0,0,0,-1,1245,1002,0,0
28,22,0,0,0,0,0,0,0,0,0,-1,1252,1002,0,0
35,22,0,0,0,0,0,0,0,0,0,-1,1259,1002,0,0
42,22,0,0,0,0,0,0,0,0,0,-1,1266,1002,0,0
49,22,0,0,0,0,0,0,0,0,0,-1,1273,1002,0,0
56,22,0,0,0,0,0,0,0,0,0,-1,1280,1002,0,0
63,22,0,0,0,0,0,0,0,0,0,-1,1287,1002,0,0
70,22,0,0,0,0,0,0,0,0,0,-1,1294,1002,0,0
77,22,0,0,0,0,0,0,0,0,0,-1,1301,1002,0,0
84,22,0,0,0,0,0,0,0,0,0,-1,1308,1002,0,0
91,22,0,0,0,0,0,0,0,0,0,-1,1315,1002,0,0
98,22,0,0,0,0,0,0,0,0,0,-1,1322,1002,0,0
105,22,0,0,0,0,0,0,0,0,0,-1,1329,1002,0,0
112,22,0,0,0,0,0,0,0,0,0,-1,1336,1002,0,0
119,22,0,0,0,0,0,0,0,0,0,-1,1343,1002,0,0
126,22,0,0,0,0,0,0,0,0,0,-1,1350,1002,0,0
133,22,0,0,0,0,0,0,0,0,0,-1,1357,1002,0,0
140,22,0,0,0,0,0,0,0,0,0,-1,1364,1002,0,0
147,22,0,0,0,0,0,0,0,0,0,-1,1371,1002,0,0
154,22,0,0,0,0,0,0,0,0,0,-1,1378,1002,0,0
161,22,0,0,0,0,0,0,0,0,0,-1,1385,1002,0,0
168,22,0,0,0,0,0,0,0,0,0,-1,1392,1002,0,0
175,22,0,0,0,0,0,0,0,0,0,-1,1399,1002,0,0
182,22,0,0,0,0,0,0,0,0,0,-1,1406,1002,0,0
189,22,0,0,0,0,0,0,0,0,0,-1,1413,1002,0,0
196,22,0,0,0,0,0,0,0,0,0,-1,1420,1002,0,0
203,22,0,0,0,0,0,0,0,0,0,-1,1427,1002,0,0
210,22,0,0,0,0,0,0,0,0,0,-1,1434,1002,0,0
217,22,0,0,0,0,0,0,0,0,0,-1,1441,1002,0,0
224,22,0,0,0,0,0,0,0,0,0,-1,1448,1002,0,0
231,22,0,0,0,0,0,0,0,0,0,-1,1455,1002,0,0
238,22,0,0,0,0,0,0,0,0,0,-1,1462,1002,0,0
245,22,0,0,0,0,0,0,0,0,0,-1,1469,1002,0,0
252,22,0,0,0,0,0,0,0,0,0,-1,1476,1002,0,0
259,22,0,0,0,0,0,0,0,0,0,-1,1483,1002,0,0
266,22,0,0,0,0,0,0,0,0,0,-1,1490,1002,0,0
273,22,0,0,0,0,0,0,0,0,0,-1,1497,1002,0,0
280,22,0,0,0,0,0,0,0,0,0,-1,1504,1002,0,0
287,22,0,0,0,0,0,0,0,0,0,-1,1511,1002,0,0
294,22,0,0,0,0,0,0,0,0,0,-1,1518,1002,0,0
301,22,0,0,0,0,0,0,0,0,0,-1,1525,1002,0,0
308,22,0,0,0,0,0,0,0,0,0,-1,1532,1002,0,0
315,22,0,0,0,0,0,0,0,0,0,-1,1539,1002,0,0
322,22,0,0,0,0,0,0,0,0,0,-1,1546,1002,0,0
329,22,0,0,0,0,0,0,0,0,0,-1,1553,1002,0,0
336,22,0,0,0,0,0,0,0,0,0,-1,1560,1002,0,0
343,22,0,0,0,0,0,0,0,0,0,-1,1567,1002,0,0
350,22,0,0,0,0,0,0,0,0,0,-1,1574,1002,0,0
357,22,0,0,0,0,0,0,0,0,0,-1,1581,1002,0,0
364,22,0,0,0,0,0,0,0,0,0,-1,1588,1002,0,0
371,22,0,0,0,0,0,0,0,0,0,-1,1595,1002,0,0
378,22,0,0,0,0,0,0,0,0,0,-1,1602,1002,0,0
385,22,0,0,0,0,0,0,0,0,0,-1,1609,1002,0,0
392,22,0,0,0,0,0,0,0,0,0,-1,1616,1002,0,0
399,22,0,0,0,0,0,0,0,0,0,-1,1623,1002,0,0
406,22,0,0,0,0,0,0,0,0,0,-1,1630,1002,0,0
413,22,0,0,0,0,0,0,0,0,0,-1,1637,1002,0,0
420,22,0,0,0,0,0,0,0,0,0,-1,1644,1002,0,0
427,22,0,0,0,0,0,0,0,0,0,-1,1651,1002,0,0
434,22,0,0,0,0,0,0,0,0,0,-1,1658,1002,0,0
441,22,0,0,0,0,0,0,0,0,0,-1,1665,1002,0,0
448,22,0,0,0,0,0,0,0,0,0,-1,1672,1002,0,0
455,22,0,0,0,0,0,0,0,0,0,-1,1679,1002,0,0
462,22,0,0,0,0,0,0,0,0,0,-1,1686,1002,0,0
469,22,0,0,0,0,0,0,0,0,0,-1,1693,1002,0,0
476,22,0,0,0,0,0,0,0,0,0,-1,1700,1002,0,0
483,22,0,0,0,0,0,0,0,0,0,-1,1707,1002,0,0
490,22,0,0,0,0,0,0,0,0,0,-1,1714,1002,0,0
497,22,0,0,0,0,0,0,0,0,0,-1,1721,1002,0,0
504,22,0,0,0,0,0,0,0,0,0,-1,1728,1002,0,0
511,22,0,0,0,0,0,0,0,0,0,-1,1735,1002,0,0
518,22,0,0,0,0,0,0,0,0,0,-1,1742,1002,0,0
525,22,0,0,0,0,0,0,0,0,0,-1,1749,1002,0,0
532,22,0,0,0,0,0,0,0,0,0,-1,1756,1002,0,0
539,22,0,0,0,0,0,0,0,0,0,-1,1763,1002,0,0
546,22,0,0,0,0,0,0,0,0,0,-1,1770,1002,0,0
553,22,0,0,0,0,0,0,0,0,0,-1,1777,1002,0,0
560,22,0,0,0,0,0,0,0,0,0,-1,1784,1002,0,0
567,22,0,0,0,0,0,0,0,0,0,-1,1791,1002,0,0
574,22,0,0,0,0,0,0,0,0,0,-1,1798,1002,0,0
581,22,0,0,0,0,0,0,0,0,0,-1,1805,1002,0,0
588,22,0,0,0,0,0,0,0,0,0,-1,1812,1002,0,0
595,22,0,0,0,0,0,0,0,0,0,-1,1819,1002,0,0
602,22,0,0,0,0,0,0,0,0,0,-1,1826,1002,0,0
609,22,0,0,0,0,0,0,0,0,0,-1,1833,1002,0,0
616,22,0,0,0,0,0,0,0,0,0,-1,1840,1002,0,0
623,22,0,0,0,0,0,0,0,0,0,-1,1847,1002,0,0
630,22,0,0,0,0,0,0,0,0,0,-1,1854,1002,0,0
637,22,0,0,0,0,0,0,0,0,0,-1,1861,1002,0,0
644,22,16.976,2.16064,0.00502404,0.00472647,0.0043259,0.00920371,0.0005468,0.768208,0.0059619,0.0379212,1868,1002,16.976,-2.16063
651,22,17.0919,2.11841,0.00380205,0.0035982,0.00279196,0.00649394,0.000906304,0.767153,0.00406104,0.0413748,1875,1002,17.0919,-2.11841
658,22,17.1819,2.38318,0.00277631,0.00264664,0.00178003,0.00449268,0.000930263,0.767194,0.00273822,0.0408718,1882,1002,17.1819,-2.38319
665,22,17.162,2.61401,0.00191976,0.00204055,0.00129115,0.00327272,0.00068759,0.808768,0.00199256,0.0412665,1889,1002,17.162,-2.614
672,22,17.0267,2.55646,0.000826238,0.00178647,0.00149804,0.00287945,-0.000266745,0.940474,0.00201444,0.0408942,1896,1002,17.0268,-2.55647
679,22,17.0609,2.45471,-0.000719881,0.00169503,0.00216092,0.00296296,-0.00198781,1.04017,0.00287675,0.0388952,1903,1002,17.0609,-2.45473
686,22,17.1654,2.34882,-0.00217496,0.00166891,0.00295254,0.00326995,-0.003776,1.07392,0.00407147,0.0387636,1910,1002,17.1654,-2.34879
693,22,17.196,2.43964,-0.00347572,0.00166756,0.00372441,0.0036219,-0.00543007,1.08755,0.0052608,0.0377698,1917,1002,17.1961,-2.43964
700,22,17.1775,2.54156,-0.00465056,0.00166282,0.00437912,0.00390441,-0.00689215,1.09769,0.00631245,0.0325083,1924,1002,17.1775,-2.54156
707,22,17.1254,2.44275,-0.00568363,0.00171777,0.0048156,0.00409039,-0.00805625,1.11301,0.00713637,0.0281375,1931,1002,17.1254,-2.44274
714,22,17.1638,2.60608,-0.00638412,0.00177808,0.00506695,0.00420308,-0.00880912,1.12442,0.00766788,0.0239635,1938,1002,17.1638,-2.60606
721,22,17.1315,2.8764,-0.00661103,0.0018333,0.00509247,0.00422626,-0.00900399,1.13152,0.00780275,0.0291972,1945,1002,17.1314,-2.87641
728,22,16.7673,3.15125,-0.00663609,0.00180896,0.00497405,0.00411107,-0.0089382,1.13733,0.00770391,0.0234059,1952,1002,16.7673,-3.15126
735,22,16.7225,3.33862,-0.00645493,0.00177677,0.00471984,0.00392327,-0.00860144,1.14397,0.00739737,0.0145749,1959,1002,16.7226,-3.33865
742,22,16.7019,3.3913,-0.00605815,0.00166803,0.00385274,0.00326086,-0.00765098,1.17877,0.00646768,0.0152158,1966,1002,16.7018,-3.3913
749,22,16.6949,3.43549,-0.00527702,0.00197676,0.00253523,0.002775,-0.00607525,1.26577,0.00522677,0.0116729,1973,1002,16.6949,-3.43546
756,22,16.6964,3.46338,-0.00370459,0.00349427,0.000354781,0.00351172,-0.00372204,1.52167,0.004177,0.0152662,1980,1002,16.6964,-3.46337
763,22,16.6593,3.51123,-0.00194964,0.00532721,-0.00241864,0.00605776,-0.00268019,-1.27746,0.00516896,0.0160373,1987,1002,16.6593,-3.51122
770,22,16.6393,3.53448,-0.000116049,0.00741211,-0.00535498,0.0101936,-0.00289751,-1.09174,0.00793978,0.0105525,1994,1002,16.6393,-3.5345
777,22,16.6224,3.61902,0.00209511,0.0104828,-0.00880704,0.0160435,-0.00346566,-1.00761,0.0120186,0.0194952,2001,1002,16.6224,-3.61901
784,22,16.6599,3.7533,0.00433039,0.0147464,-0.0128462,0.0234001,-0.00432331,-0.977981,0.017223,0.0448879,2008,1002,16.6599,-3.75328
791,22,17.1136,4.54169,0.00686269,0.020307,-0.0177755,0.0325889,-0.00541924,-0.966171,0.0237394,0.0479832,2015,1002,17.1137,-4.54168
798,22,16.5507,4.56909,0.0102222,0.0273837,-0.0239135,0.0442094,-0.0066035,-0.957656,0.0319027,0.0453985,2022,1002,16.5507,-4.56909
805,22,16.4834,3.9519,0.0146047,0.0362649,-0.0314405,0.0586883,-0.00781877,-0.951265,0.0419752,0.043979,2029,1002,16.4834,-3.95192
812,22,16.5972,3.28082,0.020196,0.047307,-0.0405839,0.0765394,-0.00903639,-0.946579,0.0542897,0.0435241,2036,1002,16.5971,-3.28084
-700,15,0,0,0,0,0,0,0,0,0,-1,524,1009,0,0
-693,15,-10.8293,1.06464,-0.0206289,-0.0168928,0.0392982,0.0205817,-0.0581034,0.809148,0.0471191,0.04658,531,1009,-10.8293,-1.06462
-686,15,-11.1581,1.78174,-0.0162927,-0.00667065,0.0302283,0.0191271,-0.0420905,0.864314,0.0361634,0.0464723,538,1009,-11.1582,-1.78172
-679,15,-11.4502,2.06329,0,0,0,0,0,0,0,-1,545,1009,-11.4502,-2.0633
-672,15,-11.8655,2.31128,-0.00980872,0.00341535,0.0182853,0.0162473,-0.0226407,0.958886,0.0225529,0.0463936,552,1009,-11.8655,-2.31131
-665,15,-11.8341,2.7757,0,0,0,0,0,0,0,-1,559,1009,-11.8341,-2.77567
-658,15,-11.0173,0.990295,0,0,0,0,0,0,0,-1,566,1009,-11.0173,-0.99028
-651,15,-10.886,1.18378,-0.00370888,0.00558275,0.00865679,0.0107616,-0.0088877,1.03167,0.0113617,0.0376724,573,1009,-10.886,-1.18379
-644,15,-10.9296,1.23511,-0.00252833,0.0048326,0.00645152,0.00857965,-0.00627538,1.04461,0.00861088,0.0181057,580,1009,-10.9296,-1.23513
-637,15,-10.9328,1.24475,-0.00171179,0.00495834,0.00367756,0.00658786,-0.00334131,1.1537,0.00583386,0.0137366,587,1009,-10.9328,-1.24477
-630,15,-10.9528,1.21594,-0.00117782,0.00355518,0.00205076,0.00432012,-0.00194276,1.21378,0.0037017,0.0104964,594,1009,-10.9527,-1.21595
-623,15,-10.9835,1.1922,-0.000772373,0.00226443,0.000905145,0.00251374,-0.00102169,1.30202,0.0021009,0.00909393,601,1009,-10.9835,-1.19219
-616,15,-11.0013,1.15753,-0.00057352,0.00130012,-0.000364855,0.00136866,-0.000642061,-1.3851,0.00118588,0.0138336,608,1009,-11.0013,-1.15753
-609,15,-10.9916,1.13159,-0.000874746,0.000755309,-0.00163276,0.00176516,-0.0018846,-1.01689,0.00210756,0.0186804,615,1009,-10.9916,-1.13158
-602,15,-11,1.1026,-0.00101448,7.33116e-05,-0.00288311,0.00246338,-0.00340455,-0.878627,0.00340234,0.0174022,622,1009,-11,-1.1026
-595,15,-10.9885,0.914856,-0.000967199,5.20945e-05,-0.0036238,0.00320191,-0.00411701,-0.855259,0.00423658,0.0207796,629,1009,-10.9885,-0.914826
-588,15,-10.9539,0.729248,-0.000798377,-3.70961e-05,-0.00390355,0.00350433,-0.0043398,-0.834,0.00453737,0.0275768,636,1009,-10.9538,-0.729245
-581,15,-11.01,0.515869,-0.000730563,-0.000132435,-0.00403722,0.00361678,-0.00447978,-0.822369,0.00468339,0.0349829,643,1009,-11.01,-0.515893
-574,15,-10.9675,0.516724,-0.000557791,4.13885e-05,-0.00401351,0.00376647,-0.00428288,-0.822652,0.00465048,0.0320894,650,1009,-10.9675,-0.516731
-567,15,-11.0098,0.566162,-0.00035599,0.00022525,-0.00378726,0.00373302,-0.00386376,-0.823691,0.00438622,0.0327442,657,1009,-11.0098,-0.566189
-560,15,-11.0303,0.591125,-4.8151e-05,0.000483583,-0.00345236,0.0036803,-0.00324487,-0.823827,0.00400088,0.0382446,664,1009,-11.0303,-0.59111
-553,15,-10.9393,0.885986,0,0,0,0,0,0,0,-1,671,1009,-10.9393,-0.886008
-546,15,-10.9984,0.902771,0,0,0,0,0,0,0,-1,678,1009,-10.9984,-0.902743
-539,15,-11.0788,0.593018,0.00113875,0.00154027,-0.00275426,0.00410108,-0.00142206,-0.821779,0.00331147,0.0427775,685,1009,-11.0788,-0.593012
-532,15,-11.182,0.534668,0.00115796,0.00213272,-0.00366779,0.00534537,-0.00205469,-0.851452,0.00441099,0.0435509,692,1009,-11.182,-0.534688
-525,15,0,0,0,0,0,0,0,0,0,-1,699,1009,0,0
-518,15,0,0,0,0,0,0,0,0,0,-1,706,1009,0,0
-511,15,0,0,0,0,0,0,0,0,0,-1,713,1009,0,0
-504,15,0,0,0,0,0,0,0,0,0,-1,720,1009,0,0
-497,15,0,0,0,0,0,0,0,0,0,-1,727,1009,0,0
-490,15,0,0,0,0,0,0,0,0,0,-1,734,1009,0,0
-483,15,0,0,0,0,0,0,0,0,0,-1,741,1009,0,0
-476,15,0,0,0,0,0,0,0,0,0,-1,748,1009,0,0
-469,15,0,0,0,0,0,0,0,0,0,-1,755,1009,0,0
-462,15,0,0,0,0,0,0,0,0,0,-1,762,1009,0,0
-455,15,0,0,0,0,0,0,0,0,0,-1,769,1009,0,0
-448,15,0,0,0,0,0,0,0,0,0,-1,776,1009,0,0
-441,15,0,0,0,0,0,0,0,0,0,-1,783,1009,0,0
-434,15,0,0,0,0,0,0,0,0,0,-1,790,1009,0,0
-427,15,0,0,0,0,0,0,0,0,0,-1,797,1009,0,0
-420,15,0,0,0,0,0,0,0,0,0,-1,804,1009,0,0
-413,15,0,0,0,0,0,0,0,0,0,-1,811,1009,0,0
-406,15,0,0,0,0,0,0,0,0,0,-1,818,1009,0,0
-399,15,0,0,0,0,0,0,0,0,0,-1,825,1009,0,0
-392,15,0,0,0,0,0,0,0,0,0,-1,832,1009,0,0
-385,15,0,0,0,0,0,0,0,0,0,-1,839,1009,0,0
-378,15,0,0,0,0,0,0,0,0,0,-1,846,1009,0,0
-371,15,0,0,0,0,0,0,0,0,0,-1,853,1009,0,0
-364,15,0,0,0,0,0,0,0,0,0,-1,860,1009,0,0
-357,15,0,0,0,0,0,0,0,0,0,-1,867,1009,0,0
-350,15,0,0,0,0,0,0,0,0,0,-1,874,1009,0,0
-343,15,0,0,0,0,0,0,0,0,0,-1,881,1009,0,0
-336,15,0,0,0,0,0,0,0,0,0,-1,888,1009,0,0
-329,15,0,0,0,0,0,0,0,0,0,-1,895,1009,0,0
-322,15,0,0,0,0,0,0,0,0,0,-1,902,1009,0,0
-315,15,0,0,0,0,0,0,0,0,0,-1,909,1009,0,0
-308,15,0,0,0,0,0,0,0,0,0,-1,916,1009,0,0
-301,15,0,0,0,0,0,0,0,0,0,-1,923,1009,0,0
-294,15,0,0,0,0,0,0,0,0,0,-1,930,1009,0,0
-287,15,0,0,0,0,0,0,0,0,0,-1,937,1009,0,0
-280,15,0,0,0,0,0,0,0,0,0,-1,944,1009,0,0
-273,15,0,0,0,0,0,0,0,0,0,-1,951,1009,0,0
-266,15,0,0,0,0,0,0,0,0,0,-1,958,1009,0,0
-259,15,0,0,0,0,0,0,0,0,0,-1,965,1009,0,0
-252,15,0,0,0,0,0,0,0,0,0,-1,972,1009,0,0
-245,15,0,0,0,0,0,0,0,0,0,-1,979,1009,0,0
-238,15,0,0,0,0,0,0,0,0,0,-1,986,1009,0,0
-231,15,0,0,0,0,0,0,0,0,0,-1,993,1009,0,0
-224,15,0,0,0,0,0,0,0,0,0,-1,1000,1009,0,0
-217,15,0,0,0,0,0,0,0,0,0,-1,1007,1009,0,0
-210,15,0,0,0,0,0,0,0,0,0,-1,1014,1009,0,0
-203,15,0,0,0,0,0,0,0,0,0,-1,1021,1009,0,0
-196,15,0,0,0,0,0,0,0,0,0,-1,1028,1009,0,0
-189,15,0,0,0,0,0,0,0,0,0,-1,1035,1009,0,0
-182,15,0,0,0,0,0,0,0,0,0,-1,1042,1009,0,0
-175,15,0,0,0,0,0,0,0,0,0,-1,1049,1009,0,0
-168,15,0,0,0,0,0,0,0,0,0,-1,1056,1009,0,0
-161,15,0,0,0,0,0,0,0,0,0,-1,1063,1009,0,0
-154,15,0,0,0,0,0,0,0,0,0,-1,1070,1009,0,0
-147,15,0,0,0,0,0,0,0,0,0,-1,1077,1009,0,0
-140,15,0,0,0,0,0,0,0,0,0,-1,1084,1009,0,0
-133,15,0,0,0,0,0,0,0,0,0,-1,1091,1009,0,0
-126,15,0,0,0,0,0,0,0,0,0,-1,1098,1009,0,0
-119,15,0,0,0,0,0,0,0,0,0,-1,1105,1009,0,0
-112,15,0,0,0,0,0,0,0,0,0,-1,1112,1009,0,0
-105,15,0,0,0,0,0,0,0,0,0,-1,1119,1009,0,0
-98,15,0,0,0,0,0,0,0,0,0,-1,1126,1009,0,0
-91,15,0,0,0,0,0,0,0,0,0,-1,1133,1009,0,0
-84,15,0,0,0,0,0,0,0,0,0,-1,1140,1009,0,0
-77,15,0,0,0,0,0,0,0,0,0,-1,1147,1009,0,0
-70,15,0,0,0,0,0,0,0,0,0,-1,1154,1009,0,0
-63,15,0,0,0,0,0,0,0,0,0,-1,1161,1009,0,0
-56,15,0,0,0,0,0,0,0,0,0,-1,1168,1009,0,0
-49,15,0,0,0,0,0,0,0,0,0,-1,1175,1009,0,0
-42,15,0,0,0,0,0,0,0,0,0,-1,1182,1009,0,0
-35,15,0,0,0,0,0,0,0,0,0,-1,1189,1009,0,0
-28,15,0,0,0,0,0,0,0,0,0,-1,1196,1009,0,0
-21,15,0,0,0,0,0,0,0,0,0,-1,1203,1009,0,0
-14,15,0,0,0,0,0,0,0,0,0,-1,1210,1009,0,0
-7,15,0,0,0,0,0,0,0,0,0,-1,1217,1009,0,0
0,15,0,0,0,0,0,0,0,0,0,-1,1224,1009,0,0
7,15,0,0,0,0,0,0,0,0,0,-1,1231,1009,0,0
14,15,0,0,0,0,0,0,0,0,0,-1,1238,1009,0,0
21,15,0,0,0,0,0,0,0,0,0,-1,1245,1009,0,0
28,15,0,0,0,0,0,0,0,0,0,-1,1252,1009,0,0
35,15,0,0,0,0,0,0,0,0,0,-1,1259,1009,0,0
42,15,0,0,0,0,0,0,0,0,0,-1,1266,1009,0,0
49,15,0,0,0,0,0,0,0,0,0,-1,1273,1009,0,0
56,15,0,0,0,0,0,0,0,0,0,-1,1280,1009,0,0
63,15,0,0,0,0,0,0,0,0,0,-1,1287,1009,0,0
70,15,0,0,0,0,0,0,0,0,0,-1,1294,1009,0,0
77,15,0,0,0,0,0,0,0,0,0,-1,1301,1009,0,0
84,15,0,0,0,0,0,0,0,0,0,-1,1308,1009,0,0
91,15,0,0,0,0,0,0,0,0,0,-1,1315,1009,0,0
98,15,0,0,0,0,0,0,0,0,0,-1,1322,1009,0,0
105,15,0,0,0,0,0,0,0,0,0,-1,1329,1009,0,0
112,15,0,0,0,0,0,0,0,0,0,-1,1336,1009,0,0
119,15,0,0,0,0,0,0,0,0,0,-1,1343,1009,0,0
126,15,0,0,0,0,0,0,0,0,0,-1,1350,1009,0,0
133,15,0,0,0,0,0,0,0,0,0,-1,1357,1009,0,0
140,15,0,0,0,0,0,0,0,0,0,-1,1364,1009,0,0
147,15,0,0,0,0,0,0,0,0,0,-1,1371,1009,0,0
154,15,0,0,0,0,0,0,0,0,0,-1,1378,1009,0,0
161,15,0,0,0,0,0,0,0,0,0,-1,1385,1009,0,0
168,15,0,0,0,0,0,0,0,0,0,-1,1392,1009,0,0
175,15,0,0,0,0,0,0,0,0,0,-1,1399,1009,0,0
182,15,0,0,0,0,0,0,0,0,0,-1,1406,1009,0,0
189,15,0,0,0,0,0,0,0,0,0,-1,1413,1009,0,0
196,15,0,0,0,0,0,0,0,0,0,-1,1420,1009,0,0
203,15,0,0,0,0,0,0,0,0,0,-1,1427,1009,0,0
210,15,0,0,0,0,0,0,0,0,0,-1,1434,1009,0,0
217,15,0,0,0,0,0,0,0,0,0,-1,1441,1009,0,0
224,15,0,0,0,0,0,0,0,0,0,-1,1448,1009,0,0
231,15,0,0,0,0,0,0,0,0,0,-1,1455,1009,0,0
238,15,0,0,0,0,0,0,0,0,0,-1,1462,1009,0,0
245,15,0,0,0,0,0,0,0,0,0,-1,1469,1009,0,0
252,15,0,0,0,0,0,0,0,0,0,-1,1476,1009,0,0
259,15,0,0,0,0,0,0,0,0,0,-1,1483,1009,0,0
266,15,0,0,0,0,0,0,0,0,0,-1,1490,1009,0,0
273,15,0,0,0,0,0,0,0,0,0,-1,1497,1009,0,0
280,15,0,0,0,0,0,0,0,0,0,-1,1504,1009,0,0
287,15,0,0,0,0,0,0,0,0,0,-1,1511,1009,0,0
294,15,0,0,0,0,0,0,0,0,0,-1,1518,1009,0,0
301,15,0,0,0,0,0,0,0,0,0,-1,1525,1009,0,0
308,15,0,0,0,0,0,0,0,0,0,-1,1532,1009,0,0
315,15,0,0,0,0,0,0,0,0,0,-1,1539,1009,0,0
322,15,0,0,0,0,0,0,0,0,0,-1,1546,1009,0,0
329,15,0,0,0,0,0,0,0,0,0,-1,1553,1009,0,0
336,15,0,0,0,0,0,0,0,0,0,-1,1560,1009,0,0
343,15,0,0,0,0,0,0,0,0,0,-1,1567,1009,0,0
350,15,0,0,0,0,0,0,0,0,0,-1,1574,1009,0,0
357,15,0,0,0,0,0,0,0,0,0,-1,1581,1009,0,0
364,15,0,0,0,0,0,0,0,0,0,-1,1588,1009,0,0
371,15,0,0,0,0,0,0,0,0,0,-1,1595,1009,0,0
378,15,0,0,0,0,0,0,0,0,0,-1,1602,1009,0,0
385,15,0,0,0,0,0,0,0,0,0,-1,1609,1009,0,0
392,15,0,0,0,0,0,0,0,0,0,-1,1616,1009,0,0
399,15,0,0,0,0,0,0,0,0,0,-1,1623,1009,0,0
406,15,0,0,0,0,0,0,0,0,0,-1,1630,1009,0,0
413,15,0,0,0,0,0,0,0,0,0,-1,1637,1009,0,0
420,15,0,0,0,0,0,0,0,0,0,-1,1644,1009,0,0
427,15,0,0,0,0,0,0,0,0,0,-1,1651,1009,0,0
434,15,0,0,0,0,0,0,0,0,0,-1,1658,1009,0,0
441,15,0,0,0,0,0,0,0,0,0,-1,1665,1009,0,0
448,15,0,0,0,0,0,0,0,0,0,-1,1672,1009,0,0
455,15,0,0,0,0,0,0,0,0,0,-1,1679,1009,0,0
462,15,0,0,0,0,0,0,0,0,0,-1,1686,1009,0,0
469,15,0,0,0,0,0,0,0,0,0,-1,1693,1009,0,0
476,15,0,0,0,0,0,0,0,0,0,-1,1700,1009,0,0
483,15,0,0,0,0,0,0,0,0,0,-1,1707,1009,0,0
490,15,0,0,0,0,0,0,0,0,0,-1,1714,1009,0,0
497,15,0,0,0,0,0,0,0,0,0,-1,1721,1009,0,0
504,15,0,0,0,0,0,0,0,0,0,-1,1728,1009,0,0
511,15,0,0,0,0,0,0,0,0,0,-1,1735,1009,0,0
518,15,0,0,0,0,0,0,0,0,0,-1,1742,1009,0,0
525,15,0,0,0,0,0,0,0,0,0,-1,1749,1009,0,0
532,15,0,0,0,0,0,0,0,0,0,-1,1756,1009,0,0
539,15,0,0,0,0,0,0,0,0,0,-1,1763,1009,0,0
546,15,0,0,0,0,0,0,0,0,0,-1,1770,1009,0,0
553,15,0,0,0,0,0,0,0,0,0,-1,1777,1009,0,0
560,15,0,0,0,0,0,0,0,0,0,-1,1784,1009,0,0
567,15,0,0,0,0,0,0,0,0,0,-1,1791,1009,0,0
574,15,0,0,0,0,0,0,0,0,0,-1,1798,1009,0,0
581,15,0,0,0,0,0,0,0,0,0,-1,1805,1009,0,0
588,15,0,0,0,0,0,0,0,0,0,-1,1812,1009,0,0
595,15,0,0,0,0,0,0,0,0,0,-1,1819,1009,0,0
602,15,0,0,0,0,0,0,0,0,0,-1,1826,1009,0,0
609,15,0,0,0,0,0,0,0,0,0,-1,1833,1009,0,0
616,15,0,0,0,0,0,0,0,0,0,-1,1840,1009,0,0
623,15,0,0,0,0,0,0,0,0,0,-1,1847,1009,0,0
630,15,0,0,0,0,0,0,0,0,0,-1,1854,1009,0,0
637,15,0,0,0,0,0,0,0,0,0,-1,1861,1009,0,0
644,15,17.0621,2.14172,0.00455451,0.00471329,0.00506555,0.00970007,-0.000432276,0.793233,0.00661552,0.0389943,1868,1009,17.0621,-2.14173
651,15,17.1333,2.23663,0.00341522,0.00367291,0.00337808,0.0069246,0.000163532,0.80446,0.00456287,0.0380202,1875,1009,17.1333,-2.23661
658,15,17.193,2.44586,0.00246624,0.00272576,0.00219865,0.00479847,0.000393524,0.814874,0.00307621,0.0381661,1882,1009,17.193,-2.44589
665,15,17.1456,2.60333,0.00168748,0.00206462,0.00151388,0.00340164,0.000350471,0.847359,0.00216043,0.0399709,1889,1009,17.1456,-2.60335
672,15,17.0271,2.54822,0.000733264,0.00173092,0.00160198,0.00290993,-0.000445751,0.936332,0.00210434,0.041242,1896,1009,17.0271,-2.54824
679,15,17.0931,2.37433,-0.000715078,0.00156161,0.00223856,0.00293463,-0.0020881,1.02062,0.00291357,0.041029,1903,1009,17.0932,-2.37433
686,15,17.302,2.15607,-0.00211588,0.00146704,0.00304847,0.00321147,-0.00386031,1.05105,0.00408862,0.0431667,1910,1009,17.302,-2.15609
693,15,17.194,2.51392,-0.00338419,0.00142973,0.0038718,0.00358175,-0.00553621,1.0635,0.00530442,0.0396422,1917,1009,17.194,-2.51391
700,15,17.1864,2.49554,-0.00452548,0.00138262,0.00458297,0.0038811,-0.00702395,1.07167,0.0063826,0.0312037,1924,1009,17.1864,-2.49552
707,15,17.1581,2.42767,-0.00549822,0.00138847,0.00506057,0.00406607,-0.00817582,1.08413,0.00719939,0.0258849,1931,1009,17.1581,-2.4277
714,15,17.1591,2.53693,-0.00620842,0.00142183,0.00537042,0.00419431,-0.0089809,1.09423,0.00777225,0.0260852,1938,1009,17.159,-2.53696
721,15,17.1763,2.82306,-0.00649135,0.00149783,0.0054646,0.00427218,-0.0092657,1.10101,0.00799137,0.0305661,1945,1009,17.1763,-2.82307
728,15,16.7118,3.21332,-0.00651755,0.00150863,0.00540739,0.00422939,-0.00923831,1.10463,0.00795282,0.0283562,1952,1009,16.7118,-3.21333
735,15,16.7488,3.36005,-0.00630631,0.00155962,0.00517615,0.00412748,-0.00887417,1.11028,0.00767145,0.0157726,1959,1009,16.7488,-3.36003
742,15,16.7407,3.42023,-0.00590374,0.00156542,0.00429462,0.00352213,-0.00786045,1.14328,0.00672896,0.0165613,1966,1009,16.7408,-3.42021
749,15,16.7212,3.44226,-0.00513163,0.00185905,0.0028204,0.00285504,-0.00612763,1.23133,0.00529963,0.0101638,1973,1009,16.7211,-3.44228
756,15,16.7261,3.46667,-0.00355946,0.00335649,0.000436083,0.00338388,-0.00358685,1.50807,0.00402512,0.0115187,1980,1009,16.7261,-3.46668
763,15,16.6987,3.4931,-0.00182212,0.00513256,-0.00253499,0.00595848,-0.00264804,-1.25583,0.00509003,0.0121238,1987,1009,16.6987,-3.49312
770,15,16.6824,3.51843,-1.53174e-05,0.00710646,-0.00578526,0.0103389,-0.00324775,-1.06127,0.00819264,0.0114375,1994,1009,16.6824,-3.51844
777,15,16.6873,3.54297,0.00220689,0.00994969,-0.00968784,0.016511,-0.00435444,-0.975485,0.01271,0.0208294,2001,1009,16.6872,-3.54295
784,15,16.6868,3.55841,0.00447163,0.0138439,-0.0142596,0.0241677,-0.00585211,-0.944154,0.0183758,0.0421448,2008,1009,16.6868,-3.55843
791,15,17.4761,4.38989,0,0,0,0,0,0,0,-1,2015,1009,17.4761,-4.38988
798,15,16.4902,4.6618,0,0,0,0,0,0,0,-1,2022,1009,16.4902,-4.6618
805,15,16.0914,3.8385,0.0143987,0.0329437,-0.035247,0.0601175,-0.0127751,-0.91402,0.044946,0.0458326,2029,1009,16.0914,-3.83849
812,15,16.0837,3.07648,0.019717,0.0425346,-0.0455359,0.0780692,-0.0158176,-0.908144,0.0580416,0.0435358,2036,1009,16.0838,-3.07645
-700,8,0,0,0,0,0,0,0,0,0,-1,524,1016,0,0
-693,8,-11.0515,1.21631,-0.0174447,-0.016718,0.0327755,0.0156962,-0.0498589,0.790942,0.0395242,0.0446366,531,1016,-11.0515,-1.21631
-686,8,-11.1529,2.14893,-0.0142301,-0.00819563,0.0247932,0.0137632,-0.036189,0.845949,0.029793,0.0455672,538,1016,-11.1529,-2.14891
-679,8,-11.5858,2.48566,-0.0113901,-0.00265697,0.0188539,0.0123294,-0.0263765,0.899192,0.0228321,0.0432894,545,1016,-11.5858,-2.48564
-672,8,-11.9089,2.79675,-0.00885301,0.000764482,0.0144045,0.0111417,-0.0192303,0.9465,0.0177413,0.0435015,552,1016,-11.9089,-2.79677
-665,8,-11.0508,1.12134,0,0,0,0,0,0,0,-1,559,1016,-11.0508,-1.12135
-658,8,-10.9938,1.09229,-0.0047454,0.00350004,0.00845363,0.00878267,-0.010028,1.01227,0.0108683,0.0365391,566,1016,-10.9938,-1.09228
-651,8,-10.9021,1.12891,-0.00326051,0.00360872,0.00641612,0.00745168,-0.00710347,1.03115,0.00840422,0.0198163,573,1016,-10.9021,-1.12894
-644,8,-10.901,1.16718,-0.00215466,0.00326455,0.00463676,0.00592538,-0.00481549,1.04982,0.00621227,0.0164949,580,1016,-10.901,-1.16717
-637,8,-10.9257,1.19623,-0.00144846,0.00371438,0.00218104,0.00451241,-0.00224649,1.22003,0.00397467,0.0139267,587,1016,-10.9257,-1.1962
-630,8,-10.9632,1.19006,-0.000869684,0.00254908,0.00090114,0.00277206,-0.00109267,1.32822,0.00230045,0.0116451,594,1016,-10.9632,-1.19005
-623,8,-10.9687,1.17627,-0.000415517,0.00147093,6.09343e-05,0.0014729,-0.000417483,1.53854,0.00114671,0.0130947,601,1016,-10.9687,-1.17624
-616,8,-10.9834,1.16406,-0.000162995,0.000851246,-0.00104981,0.00151001,-0.000821757,-1.0104,0.00136565,0.0129866,608,1016,-10.9834,-1.16407
-609,8,-10.967,1.13788,-0.000502703,0.000568337,-0.00221317,0.00230985,-0.00224422,-0.904101,0.00262939,0.015566,615,1016,-10.9671,-1.1379
-602,8,-10.9832,1.13055,-0.000671212,-1.39275e-05,-0.00332074,0.00299439,-0.00367953,-0.834721,0.00385995,0.0202089,622,1016,-10.9832,-1.13055
-595,8,-10.9286,0.903442,-0.00060801,4.22763e-06,-0.00395489,0.00366483,-0.00426862,-0.824022,0.0045848,0.0244936,629,1016,-10.9286,-0.903419
-588,8,-10.9537,0.667358,-0.000426654,-2.92895e-05,-0.00419144,0.00396817,-0.00442412,-0.809081,0.00484767,0.024383,636,1016,-10.9537,-0.667343
-581,8,-10.9692,0.58136,-0.000390146,-6.52342e-05,-0.00428468,0.00406007,-0.00451545,-0.804347,0.0049534,0.0278184,643,1016,-10.9692,-0.581374
-574,8,-10.9505,0.551331,-0.000275992,0.000137458,-0.0042158,0.0041516,-0.00429013,-0.809896,0.00487405,0.0342203,650,1016,-10.9505,-0.551309
-567,8,-10.964,0.463318,-0.000176687,0.000385247,-0.00392137,0.0040357,-0.00382714,-0.821162,0.00454015,0.0367642,657,1016,-10.964,-0.463311
-560,8,-11.0528,0.487427,-4.67662e-05,0.000704235,-0.00349187,0.00384074,-0.00318327,-0.83896,0.00406123,0.0393779,664,1016,-11.0528,-0.487409
-553,8,-11.0697,0.654419,6.95942e-05,0.00106553,-0.00299438,0.00360307,-0.00246794,-0.867795,0.00352546,0.0408577,671,1016,-11.0697,-0.65439
-546,8,-11.1036,0.74823,9.86063e-05,0.00143333,-0.00251801,0.00337091,-0.00183898,-0.914937,0.00305097,0.0406813,678,1016,-11.1036,-0.748218
-539,8,-11.1182,0.771667,-3.3205e-05,0.00175646,-0.00239157,0.00341512,-0.00169187,-0.964415,0.00300396,0.042745,685,1016,-11.1182,-0.771683
-532,8,-11.0437,0.754578,-0.000675189,0.00218006,-0.00325692,0.00430851,-0.00280363,-0.991954,0.00413672,0.0429975,692,1016,-11.0437,-0.754554
-525,8,0,0,0,0,0,0,0,0,0,-1,699,1016,0,0
-518,8,0,0,0,0,0,0,0,0,0,-1,706,1016,0,0
-511,8,0,0,0,0,0,0,0,0,0,-1,713,1016,0,0
-504,8,0,0,0,0,0,0,0,0,0,-1,720,1016,0,0
-497,8,0,0,0,0,0,0,0,0,0,-1,727,1016,0,0
-490,8,0,0,0,0,0,0,0,0,0,-1,734,1016,0,0
-483,8,0,0,0,0,0,0,0,0,0,-1,741,1016,0,0
-476,8,0,0,0,0,0,0,0,0,0,-1,748,1016,0,0
-469,8,0,0,0,0,0,0,0,0,0,-1,755,1016,0,0
-462,8,0,0,0,0,0,0,0,0,0,-1,762,1016,0,0
-455,8,0,0,0,0,0,0,0,0,0,-1,769,1016,0,0
-448,8,0,0,0,0,0,0,0,0,0,-1,776,1016,0,0
-441,8,0,0,0,0,0,0,0,0,0,-1,783,1016,0,0
-434,8,0,0,0,0,0,0,0,0,0,-1,790,1016,0,0
-427,8,0,0,0,0,0,0,0,0,0,-1,797,1016,0,0
-420,8,0,0,0,0,0,0,0,0,0,-1,804,1016,0,0
-413,8,0,0,0,0,0,0,0,0,0,-1,811,1016,0,0
-406,8,0,0,0,0,0,0,0,0,0,-1,818,1016,0,0
-399,8,0,0,0,0,0,0,0,0,0,-1,825,1016,0,0
-392,8,0,0,0,0,0,0,0,0,0,-1,832,1016,0,0
-385,8,0,0,0,0,0,0,0,0,0,-1,839,1016,0,0
-378,8,0,0,0,0,0,0,0,0,0,-1,846,1016,0,0
-371,8,0,0,0,0,0,0,0,0,0,-1,853,1016,0,0
-364,8,0,0,0,0,0,0,0,0,0,-1,860,1016,0,0
-357,8,0,0,0,0,0,0,0,0,0,-1,867,1016,0,0
-350,8,0,0,0,0,0,0,0,0,0,-1,874,1016,0,0
-343,8,0,0,0,0,0,0,0,0,0,-1,881,1016,0,0
-336,8,0,0,0,0,0,0,0,0,0,-1,888,1016,0,0
-329,8,0,0,0,0,0,0,0,0,0,-1,895,1016,0,0
-322,8,0,0,0,0,0,0,0,0,0,-1,902,1016,0,0
-315,8,0,0,0,0,0,0,0,0,0,-1,909,1016,0,0
-308,8,0,0,0,0,0,0,0,0,0,-1,916,1016,0,0
-301,8,0,0,0,0,0,0,0,0,0,-1,923,1016,0,0
-294,8,0,0,0,0,0,0,0,0,0,-1,930,1016,0,0
-287,8,0,0,0,0,0,0,0,0,0,-1,937,1016,0,0
-280,8,0,0,0,0,0,0,0,0,0,-1,944,1016,0,0
-273,8,0,0,0,0,0,0,0,0,0,-1,951,1016,0,0
-266,8,0,0,0,0,0,0,0,0,0,-1,958,1016,0,0
-259,8,0,0,0,0,0,0,0,0,0,-1,965,1016,0,0
-252,8,0,0,0,0,0,0,0,0,0,-1,972,1016,0,0
-245,8,0,0,0,0,0,0,0,0,0,-1,979,1016,0,0
-238,8,0,0,0,0,0,0,0,0,0,-1,986,1016,0,0
-231,8,0,0,0,0,0,0,0,0,0,-1,993,1016,0,0
-224,8,0,0,0,0,0,0,0,0,0,-1,1000,1016,0,0
-217,8,0,0,0,0,0,0,0,0,0,-1,1007,1016,0,0
-210,8,0,0,0,0,0,0,0,0,0,-1,1014,1016,0,0
-203,8,0,0,0,0,0,0,0,0,0,-1,1021,1016,0,0
-196,8,0,0,0,0,0,0,0,0,0,-1,1028,1016,0,0
-189,8,0,0,0,0,0,0,0,0,0,-1,1035,1016,0,0
-182,8,0,0,0,0,0,0,0,0,0,-1,1042,1016,0,0
-175,8,0,0,0,0,0,0,0,0,0,-1,1049,1016,0,0
-168,8,0,0,0,0,0,0,0,0,0,-1,1056,1016,0,0
-161,8,0,0,0,0,0,0,0,0,0,-1,1063,1016,0,0
-154,8,0,0,0,0,0,0,0,0,0,-1,1070,1016,0,0
-147,8,0,0,0,0,0,0,0,0,0,-1,1077,1016,0,0
-140,8,0,0,0,0,0,0,0,0,0,-1,1084,1016,0,0
-133,8,0,0,0,0,0,0,0,0,0,-1,1091,1016,0,0
-126,8,0,0,0,0,0,0,0,0,0,-1,1098,1016,0,0
-119,8,0,0,0,0,0,0,0,0,0,-1,1105,1016,0,0
-112,8,0,0,0,0,0,0,0,0,0,-1,1112,1016,0,0
-105,8,0,0,0,0,0,0,0,0,0,-1,1119,1016,0,0
-98,8,0,0,0,0,0,0,0,0,0,-1,1126,1016,0,0
-91,8,0,0,0,0,0,0,0,0,0,-1,1133,1016,0,0
-84,8,0,0,0,0,0,0,0,0,0,-1,1140,1016,0,0
-77,8,0,0,0,0,0,0,0,0,0,-1,1147,1016,0,0
-70,8,0,0,0,0,0,0,0,0,0,-1,1154,1016,0,0
-63,8,0,0,0,0,0,0,0,0,0,-1,1161,1016,0,0
-56,8,0,0,0,0,0,0,0,0,0,-1,1168,1016,0,0
-49,8,0,0,0,0,0,0,0,0,0,-1,1175,1016,0,0
-42,8,0,0,0,0,0,0,0,0,0,-1,1182,1016,0,0
-35,8,0,0,0,0,0,0,0,0,0,-1,1189,1016,0,0
-28,8,0,0,0,0,0,0,0,0,0,-1,1196,1016,0,0
-21,8,0,0,0,0,0,0,0,0,0,-1,1203,1016,0,0
-14,8,0,0,0,0,0,0,0,0,0,-1,1210,1016,0,0
-7,8,0,0,0,0,0,0,0,0,0,-1,1217,1016,0,0
0,8,0,0,0,0,0,0,0,0,0,-1,1224,1016,0,0
7,8,0,0,0,0,0,0,0,0,0,-1,1231,1016,0,0
14,8,0,0,0,0,0,0,0,0,0,-1,1238,1016,0,0
21,8,0,0,0,0,0,0,0,0,0,-1,1245,1016,0,0
28,8,0,0,0,0,0,0,0,0,0,-1,1252,1016,0,0
35,8,0,0,0,0,0,0,0,0,0,-1,1259,1016,0,0
42,8,0,0,0,0,0,0,0,0,0,-1,1266,1016,0,0
49,8,0,0,0,0,0,0,0,0,0,-1,1273,1016,0,0
56,8,0,0,0,0,0,0,0,0,0,-1,1280,1016,0,0
63,8,0,0,0,0,0,0,0,0,0,-1,1287,1016,0,0
70,8,0,0,0,0,0,0,0,0,0,-1,1294,1016,0,0
77,8,0,0,0,0,0,0,0,0,0,-1,1301,1016,0,0
84,8,0,0,0,0,0,0,0,0,0,-1,1308,1016,0,0
91,8,0,0,0,0,0,0,0,0,0,-1,1315,1016,0,0
98,8,0,0,0,0,0,0,0,0,0,-1,1322,1016,0,0
105,8,0,0,0,0,0,0,0,0,0,-1,1329,1016,0,0
112,8,0,0,0,0,0,0,0,0,0,-1,1336,1016,0,0
119,8,0,0,0,0,0,0,0,0,0,-1,1343,1016,0,0
126,8,0,0,0,0,0,0,0,0,0,-1,1350,1016,0,0
133,8,0,0,0,0,0,0,0,0,0,-1,1357,1016,0,0
140,8,0,0,0,0,0,0,0,0,0,-1,1364,1016,0,0
147,8,0,0,0,0,0,0,0,0,0,-1,1371,1016,0,0
154,8,0,0,0,0,0,0,0,0,0,-1,1378,1016,0,0
161,8,0,0,0,0,0,0,0,0,0,-1,1385,1016,0,0
168,8,0,0,0,0,0,0,0,0,0,-1,1392,1016,0,0
175,8,0,0,0,0,0,0,0,0,0,-1,1399,1016,0,0
182,8,0,0,0,0,0,0,0,0,0,-1,1406,1016,0,0
189,8,0,0,0,0,0,0,0,0,0,-1,1413,1016,0,0
196,8,0,0,0,0,0,0,0,0,0,-1,1420,1016,0,0
203,8,0,0,0,0,0,0,0,0,0,-1,1427,1016,0,0
210,8,0,0,0,0,0,0,0,0,0,-1,1434,1016,0,0
217,8,0,0,0,0,0,0,0,0,0,-1,1441,1016,0,0
224,8,0,0,0,0,0,0,0,0,0,-1,1448,1016,0,0
231,8,0,0,0,0,0,0,0,0,0,-1,1455,1016,0,0
238,8,0,0,0,0,0,0,0,0,0,-1,1462,1016,0,0
245,8,0,0,0,0,0,0,0,0,0,-1,1469,1016,0,0
252,8,0,0,0,0,0,0,0,0,0,-1,1476,1016,0,0
259,8,0,0,0,0,0,0,0,0,0,-1,1483,1016,0,0
266,8,0,0,0,0,0,0,0,0,0,-1,1490,1016,0,0
273,8,0,0,0,0,0,0,0,0,0,-1,1497,1016,0,0
280,8,0,0,0,0,0,0,0,0,0,-1,1504,1016,0,0
287,8,0,0,0,0,0,0,0,0,0,-1,1511,1016,0,0
294,8,0,0,0,0,0,0,0,0,0,-1,1518,1016,0,0
301,8,0,0,0,0,0,0,0,0,0,-1,1525,1016,0,0
308,8,0,0,0,0,0,0,0,0,0,-1,1532,1016,0,0
315,8,0,0,0,0,0,0,0,0,0,-1,1539,1016,0,0
322,8,0,0,0,0,0,0,0,0,0,-1,1546,1016,0,0
329,8,0,0,0,0,0,0,0,0,0,-1,1553,1016,0,0
336,8,0,0,0,0,0,0,0,0,0,-1,1560,1016,0,0
343,8,0,0,0,0,0,0,0,0,0,-1,1567,1016,0,0
350,8,0,0,0,0,0,0,0,0,0,-1,1574,1016,0,0
357,8,0,0,0,0,0,0,0,0,0,-1,1581,1016,0,0
364,8,0,0,0,0,0,0,0,0,0,-1,1588,1016,0,0
371,8,0,0,0,0,0,0,0,0,0,-1,1595,1016,0,0
378,8,0,0,0,0,0,0,0,0,0,-1,1602,1016,0,0
385,8,0,0,0,0,0,0,0,0,0,-1,1609,1016,0,0
392,8,0,0,0,0,0,0,0,0,0,-1,1616,1016,0,0
399,8,0,0,0,0,0,0,0,0,0,-1,1623,1016,0,0
406,8,0,0,0,0,0,0,0,0,0,-1,1630,1016,0,0
413,8,0,0,0,0,0,0,0,0,0,-1,1637,1016,0,0
420,8,0,0,0,0,0,0,0,0,0,-1,1644,1016,0,0
427,8,0,0,0,0,0,0,0,0,0,-1,1651,1016,0,0
434,8,0,0,0,0,0,0,0,0,0,-1,1658,1016,0,0
441,8,0,0,0,0,0,0,0,0,0,-1,1665,1016,0,0
448,8,0,0,0,0,0,0,0,0,0,-1,1672,1016,0,0
455,8,0,0,0,0,0,0,0,0,0,-1,1679,1016,0,0
462,8,0,0,0,0,0,0,0,0,0,-1,1686,1016,0,0
469,8,0,0,0,0,0,0,0,0,0,-1,1693,1016,0,0
476,8,0,0,0,0,0,0,0,0,0,-1,1700,1016,0,0
483,8,0,0,0,0,0,0,0,0,0,-1,1707,1016,0,0
490,8,0,0,0,0,0,0,0,0,0,-1,1714,1016,0,0
497,8,0,0,0,0,0,0,0,0,0,-1,1721,1016,0,0
504,8,0,0,0,0,0,0,0,0,0,-1,1728,1016,0,0
511,8,0,0,0,0,0,0,0,0,0,-1,1735,1016,0,0
518,8,0,0,0,0,0,0,0,0,0,-1,1742,1016,0,0
525,8,0,0,0,0,0,0,0,0,0,-1,1749,1016,0,0
532,8,0,0,0,0,0,0,0,0,0,-1,1756,1016,0,0
539,8,0,0,0,0,0,0,0,0,0,-1,1763,1016,0,0
546,8,0,0,0,0,0,0,0,0,0,-1,1770,1016,0,0
553,8,0,0,0,0,0,0,0,0,0,-1,1777,1016,0,0
560,8,0,0,0,0,0,0,0,0,0,-1,1784,1016,0,0
567,8,0,0,0,0,0,0,0,0,0,-1,1791,1016,0,0
574,8,0,0,0,0,0,0,0,0,0,-1,1798,1016,0,0
581,8,0,0,0,0,0,0,0,0,0,-1,1805,1016,0,0
588,8,0,0,0,0,0,0,0,0,0,-1,1812,1016,0,0
595,8,0,0,0,0,0,0,0,0,0,-1,1819,1016,0,0
602,8,0,0,0,0,0,0,0,0,0,-1,1826,1016,0,0
609,8,0,0,0,0,0,0,0,0,0,-1,1833,1016,0,0
616,8,0,0,0,0,0,0,0,0,0,-1,1840,1016,0,0
623,8,0,0,0,0,0,0,0,0,0,-1,1847,1016,0,0
630,8,0,0,0,0,0,0,0,0,0,-1,1854,1016,0,0
637,8,0,0,0,0,0,0,0,0,0,-1,1861,1016,0,0
644,8,17.2596,2.17023,0.00377174,0.00500792,0.00610932,0.0105303,-0.00175068,0.835813,0.00767067,0.0403092,1868,1016,17.2596,-2.17022
651,8,17.2537,2.34668,0.00297239,0.00388173,0.00429625,0.00774731,-0.000893186,0.838116,0.00548689,0.0374619,1875,1016,17.2537,-2.34666
658,8,17.186,2.52844,0.00221566,0.00285883,0.00295084,0.00550556,-0.000431064,0.839675,0.00382217,0.0381353,1882,1016,17.186,-2.52847
665,8,17.1278,2.52814,0.00155072,0.00212067,0.00204342,0.0038989,-0.000227497,0.854681,0.00267832,0.0401601,1889,1016,17.1278,-2.52816
672,8,17.1643,2.50385,0.000762097,0.00170771,0.00196418,0.00325519,-0.000785378,0.903509,0.00247383,0.0404799,1896,1016,17.1643,-2.50385
679,8,17.1575,2.3053,-0.000562114,0.00146254,0.00252316,0.00316888,-0.00226845,0.976174,0.00315356,0.0407458,1903,1016,17.1575,-2.30533
686,8,17.1934,2.20764,-0.00189557,0.00130619,0.0032983,0.00337159,-0.00396097,1.01133,0.00423801,0.0427016,1910,1016,17.1933,-2.20764
693,8,17.1608,2.45831,-0.00311268,0.00121689,0.00411487,0.00370167,-0.00559746,1.02755,0.00540592,0.0388501,1917,1016,17.1608,-2.45833
700,8,17.207,2.44202,-0.00421085,0.00113472,0.00483981,0.00399073,-0.00706686,1.03768,0.00646592,0.0303631,1924,1016,17.2071,-2.44204
707,8,17.1786,2.43774,-0.00512306,0.00110316,0.00532864,0.00416143,-0.00818133,1.04977,0.00725098,0.022729,1931,1016,17.1786,-2.43775
714,8,17.1558,2.46106,-0.00583186,0.0011026,0.00566044,0.00427331,-0.00900257,1.06019,0.00782527,0.023698,1938,1016,17.1558,-2.46109
721,8,17.2458,2.75482,-0.00618241,0.00118684,0.0057843,0.00436039,-0.00935596,1.06899,0.00809232,0.0293679,1945,1016,17.2458,-2.75484
728,8,16.8254,3.19836,-0.00624237,0.00121786,0.00576269,0.00435232,-0.00937682,1.07263,0.00810153,0.025441,1952,1016,16.8254,-3.19833
735,8,16.7412,3.36841,-0.00603009,0.00132303,0.00552276,0.00428107,-0.00898813,1.07907,0.00782,0.0177352,1959,1016,16.7412,-3.3684
742,8,16.7456,3.40271,-0.00562072,0.00141874,0.00458393,0.00367837,-0.00788034,1.11281,0.00681883,0.0158347,1966,1016,16.7456,-3.4027
749,8,16.7482,3.42676,-0.00483564,0.00160929,0.00291535,0.00273235,-0.0059587,1.20309,0.00513174,0.0106374,1973,1016,16.7482,-3.42674
756,8,16.7618,3.45795,-0.0032963,0.00297555,0.000321874,0.00299203,-0.00331278,1.51966,0.00364165,0.0128717,1980,1016,16.7619,-3.45794
763,8,16.738,3.4848,-0.00162202,0.004584,-0.00282324,0.00567615,-0.00271416,-1.20168,0.00494374,0.0137939,1987,1016,16.738,-3.48483
770,8,16.717,3.5025,0.000128329,0.00632085,-0.00639316,0.0103281,-0.00387889,-1.01091,0.00847941,0.0146222,1994,1016,16.717,-3.50253
777,8,16.7179,3.53156,0.00232034,0.00879206,-0.0107172,0.0167512,-0.00563884,-0.932012,0.0134472,0.0179962,2001,1016,16.7179,-3.53154
784,8,16.6926,3.53546,0.00456803,0.0121462,-0.0157552,0.0245615,-0.0078473,-0.903406,0.0195231,0.0349844,2008,1016,16.6926,-3.53549
791,8,16.7015,3.30255,0.00695208,0.0164281,-0.0218403,0.0340384,-0.0106582,-0.892213,0.0269567,0.0452191,2015,1016,16.7016,-3.30257
798,8,16.731,3.10272,0,0,0,0,0,0,0,-1,2022,1016,16.7309,-3.10274
805,8,15.7964,3.89526,0.0138811,0.0284521,-0.0385169,0.0603665,-0.0180332,-0.878869,0.0474127,0.0475304,2029,1016,15.7964,-3.89529
812,8,16.7073,2.31763,0.0187232,0.0366652,-0.0495048,0.0780053,-0.0226169,-0.875033,0.0609575,0.044394,2036,1016,16.7072,-2.31762
-700,1,0,0,0,0,0,0,0,0,0,-1,524,1023,0,0
-693,1,-11.1352,1.76624,-0.0158659,-0.014263,0.024645,0.00959352,-0.0397224,0.801652,0.0301919,0.0437251,531,1023,-11.1352,-1.76623
-686,1,-11.2435,2.36774,-0.0132403,-0.00769091,0.018185,0.00792984,-0.028861,0.861105,0.0223577,0.0477651,538,1023,-11.2435,-2.36774
-679,1,-11.6782,2.7746,-0.010758,-0.00330083,0.0134582,0.00693571,-0.0209945,0.920533,0.0167927,0.0474868,545,1023,-11.6781,-2.7746
-672,1,-11.7079,1.16113,-0.00842547,-0.00047979,0.00999143,0.00629968,-0.0152049,0.974627,0.0127656,0.045132,552,1023,-11.7079,-1.16116
-665,1,-11.4428,1.2146,-0.00630334,0.00119714,0.00743649,0.0057755,-0.0108817,1.01894,0.0097665,0.0425336,559,1023,-11.4428,-1.21458
-658,1,-11.0573,1.17932,-0.00449043,0.00204636,0.00554152,0.00521154,-0.00765561,1.05184,0.00747339,0.0315886,566,1023,-11.0573,-1.17931
-651,1,-10.9409,1.19598,-0.00303354,0.0023141,0.00408498,0.00452253,-0.00524197,1.07518,0.00564264,0.0152399,573,1023,-10.9409,-1.19597
-644,1,-10.8927,1.20636,-0.00191717,0.00220218,0.0027951,0.00361452,-0.0033295,1.10293,0.00401026,0.0152884,580,1023,-10.8927,-1.20639
-637,1,-10.9376,1.17706,-0.00128738,0.0028,0.000714183,0.0029212,-0.00140858,1.4027,0.00255014,0.0128572,587,1023,-10.9376,-1.17704
-630,1,-11.0037,1.1673,-0.0006684,0.00176381,-0.000203822,0.00178078,-0.000685362,-1.48777,0.0014699,0.0138389,594,1023,-11.0036,-1.16728
-623,1,-10.9772,1.17224,-0.000140235,0.00082291,-0.000761218,0.0012421,-0.00055942,-1.06743,0.00106471,0.0129037,601,1023,-10.9772,-1.17223
-616,1,-10.9764,1.16309,0.000177321,0.000493476,-0.00171584,0.0020585,-0.00138771,-0.831333,0.0020022,0.0153745,608,1023,-10.9765,-1.16307
-609,1,-10.9663,1.17438,-0.00019757,0.000403386,-0.00277573,0.00289486,-0.00268904,-0.839314,0.00322459,0.0168022,615,1023,-10.9663,-1.17436
-602,1,-10.9599,1.1626,-0.000391332,-0.000106421,-0.00374401,0.00349785,-0.0039956,-0.804413,0.00432952,0.0132489,622,1023,-10.9599,-1.16257
-595,1,-10.9659,1.12787,-0.000327368,-7.19779e-05,-0.0042744,0.00407663,-0.00447598,-0.800331,0.00493964,0.0153281,629,1023,-10.9659,-1.12788
-588,1,-10.9735,0.914612,-0.000144815,-4.34614e-05,-0.00446313,0.00436928,-0.00455756,-0.791075,0.00515429,0.0213839,636,1023,-10.9735,-0.914586
-581,1,-10.972,0.658508,-0.000138604,6.56105e-06,-0.00449414,0.0044287,-0.00456075,-0.793473,0.00519025,0.0257401,643,1023,-10.972,-0.658484
-574,1,-10.9651,0.608643,-7.35077e-05,0.000267241,-0.00435227,0.00445247,-0.00425874,-0.804961,0.00502983,0.0353325,650,1023,-10.9651,-0.608614
-567,1,-10.9001,0.499023,-6.3745e-05,0.00061048,-0.00395453,0.00424224,-0.0036955,-0.827919,0.00458648,0.0410983,657,1023,-10.9001,-0.499033
-560,1,-10.9841,0.723267,-8.63837e-05,0.00103914,-0.00337692,0.00389987,-0.00294711,-0.867964,0.00396584,0.0416044,664,1023,-10.9841,-0.723293
-553,1,-11.0085,0.626709,-0.000197054,0.00151861,-0.00267882,0.0034736,-0.00215204,-0.940353,0.0032777,0.042175,671,1023,-11.0085,-0.626698
-546,1,-11.0311,0.578186,-0.000489407,0.00200262,-0.00194332,0.00306508,-0.00155186,-1.07047,0.00271289,0.0421278,678,1023,-11.0311,-0.57819
-539,1,-11.0342,0.769836,-0.00105352,0.00241226,-0.00152885,0.00299027,-0.00163153,-1.20933,0.00270656,0.0429008,685,1023,-11.0342,-0.769855
-532,1,-10.9185,0.755188,-0.00223699,0.00284695,-0.00214475,0.00363088,-0.00302091,-1.22037,0.00384579,0.0425456,692,1023,-10.9185,-0.755195
-525,1,0,0,0,0,0,0,0,0,0,-1,699,1023,0,0
-518,1,0,0,0,0,0,0,0,0,0,-1,706,1023,0,0
-511,1,0,0,0,0,0,0,0,0,0,-1,713,1023,0,0
-504,1,0,0,0,0,0,0,0,0,0,-1,720,1023,0,0
-497,1,0,0,0,0,0,0,0,0,0,-1,727,1023,0,0
-490,1,0,0,0,0,0,0,0,0,0,-1,734,1023,0,0
-483,1,0,0,0,0,0,0,0,0,0,-1,741,1023,0,0
-476,1,0,0,0,0,0,0,0,0,0,-1,748,1023,0,0
-469,1,0,0,0,0,0,0,0,0,0,-1,755,1023,0,0
-462,1,0,0,0,0,0,0,0,0,0,-1,762,1023,0,0
-455,1,0,0,0,0,0,0,0,0,0,-1,769,1023,0,0
-448,1,0,0,0,0,0,0,0,0,0,-1,776,1023,0,0
-441,1,0,0,0,0,0,0,0,0,0,-1,783,1023,0,0
-434,1,0,0,0,0,0,0,0,0,0,-1,790,1023,0,0
-427,1,0,0,0,0,0,0,0,0,0,-1,797,1023,0,0
-420,1,0,0,0,0,0,0,0,0,0,-1,804,1023,0,0
-413,1,0,0,0,0,0,0,0,0,0,-1,811,1023,0,0
-406,1,0,0,0,0,0,0,0,0,0,-1,818,1023,0,0
-399,1,0,0,0,0,0,0,0,0,0,-1,825,1023,0,0
-392,1,0,0,0,0,0,0,0,0,0,-1,832,1023,0,0
-385,1,0,0,0,0,0,0,0,0,0,-1,839,1023,0,0
-378,1,0,0,0,0,0,0,0,0,0,-1,846,1023,0,0
-371,1,0,0,0,0,0,0,0,0,0,-1,853,1023,0,0
-364,1,0,0,0,0,0,0,0,0,0,-1,860,1023,0,0
-357,1,0,0,0,0,0,0,0,0,0,-1,867,1023,0,0
-350,1,0,0,0,0,0,0,0,0,0,-1,874,1023,0,0
-343,1,0,0,0,0,0,0,0,0,0,-1,881,1023,0,0
-336,1,0,0,0,0,0,0,0,0,0,-1,888,1023,0,0
-329,1,0,0,0,0,0,0,0,0,0,-1,895,1023,0,0
-322,1,0,0,0,0,0,0,0,0,0,-1,902,1023,0,0
-315,1,0,0,0,0,0,0,0,0,0,-1,909,1023,0,0
-308,1,0,0,0,0,0,0,0,0,0,-1,916,1023,0,0
-301,1,0,0,0,0,0,0,0,0,0,-1,923,1023,0,0
-294,1,0,0,0,0,0,0,0,0,0,-1,930,1023,0,0
-287,1,0,0,0,0,0,0,0,0,0,-1,937,1023,0,0
-280,1,0,0,0,0,0,0,0,0,0,-1,944,1023,0,0
-273,1,0,0,0,0,0,0,0,0,0,-1,951,1023,0,0
-266,1,0,0,0,0,0,0,0,0,0,-1,958,1023,0,0
-259,1,0,0,0,0,0,0,0,0,0,-1,965,1023,0,0
-252,1,0,0,0,0,0,0,0,0,0,-1,972,1023,0,0
-245,1,0,0,0,0,0,0,0,0,0,-1,979,1023,0,0
-238,1,0,0,0,0,0,0,0,0,0,-1,986,1023,0,0
-231,1,0,0,0,0,0,0,0,0,0,-1,993,1023,0,0
-224,1,0,0,0,0,0,0,0,0,0,-1,1000,1023,0,0
-217,1,0,0,0,0,0,0,0,0,0,-1,1007,1023,0,0
-210,1,0,0,0,0,0,0,0,0,0,-1,1014,1023,0,0
-203,1,0,0,0,0,0,0,0,0,0,-1,1021,1023,0,0
-196,1,0,0,0,0,0,0,0,0,0,-1,1028,1023,0,0
-189,1,0,0,0,0,0,0,0,0,0,-1,1035,1023,0,0
-182,1,0,0,0,0,0,0,0,0,0,-1,1042,1023,0,0
-175,1,0,0,0,0,0,0,0,0,0,-1,1049,1023,0,0
-168,1,0,0,0,0,0,0,0,0,0,-1,1056,1023,0,0
-161,1,0,0,0,0,0,0,0,0,0,-1,1063,1023,0,0
-154,1,0,0,0,0,0,0,0,0,0,-1,1070,1023,0,0
-147,1,0,0,0,0,0,0,0,0,0,-1,1077,1023,0,0
-140,1,0,0,0,0,0,0,0,0,0,-1,1084,1023,0,0
-133,1,0,0,0,0,0,0,0,0,0,-1,1091,1023,0,0
-126,1,0,0,0,0,0,0,0,0,0,-1,1098,1023,0,0
-119,1,0,0,0,0,0,0,0,0,0,-1,1105,1023,0,0
-112,1,0,0,0,0,0,0,0,0,0,-1,1112,1023,0,0
-105,1,0,0,0,0,0,0,0,0,0,-1,1119,1023,0,0
-98,1,0,0,0,0,0,0,0,0,0,-1,1126,1023,0,0
-91,1,0,0,0,0,0,0,0,0,0,-1,1133,1023,0,0
-84,1,0,0,0,0,0,0,0,0,0,-1,1140,1023,0,0
-77,1,0,0,0,0,0,0,0,0,0,-1,1147,1023,0,0
-70,1,0,0,0,0,0,0,0,0,0,-1,1154,1023,0,0
-63,1,0,0,0,0,0,0,0,0,0,-1,1161,1023,0,0
-56,1,0,0,0,0,0,0,0,0,0,-1,1168,1023,0,0
-49,1,0,0,0,0,0,0,0,0,0,-1,1175,1023,0,0
-42,1,0,0,0,0,0,0,0,0,0,-1,1182,1023,0,0
-35,1,0,0,0,0,0,0,0,0,0,-1,1189,1023,0,0
-28,1,0,0,0,0,0,0,0,0,0,-1,1196,1023,0,0
-21,1,0,0,0,0,0,0,0,0,0,-1,1203,1023,0,0
-14,1,0,0,0,0,0,0,0,0,0,-1,1210,1023,0,0
-7,1,0,0,0,0,0,0,0,0,0,-1,1217,1023,0,0
0,1,0,0,0,0,0,0,0,0,0,-1,1224,1023,0,0
7,1,0,0,0,0,0,0,0,0,0,-1,1231,1023,0,0
14,1,0,0,0,0,0,0,0,0,0,-1,1238,1023,0,0
21,1,0,0,0,0,0,0,0,0,0,-1,1245,1023,0,0
28,1,0,0,0,0,0,0,0,0,0,-1,1252,1023,0,0
35,1,0,0,0,0,0,0,0,0,0,-1,1259,1023,0,0
42,1,0,0,0,0,0,0,0,0,0,-1,1266,1023,0,0
49,1,0,0,0,0,0,0,0,0,0,-1,1273,1023,0,0
56,1,0,0,0,0,0,0,0,0,0,-1,1280,1023,0,0
63,1,0,0,0,0,0,0,0,0,0,-1,1287,1023,0,0
70,1,0,0,0,0,0,0,0,0,0,-1,1294,1023,0,0
77,1,0,0,0,0,0,0,0,0,0,-1,1301,1023,0,0
84,1,0,0,0,0,0,0,0,0,0,-1,1308,1023,0,0
91,1,0,0,0,0,0,0,0,0,0,-1,1315,1023,0,0
98,1,0,0,0,0,0,0,0,0,0,-1,1322,1023,0,0
105,1,0,0,0,0,0,0,0,0,0,-1,1329,1023,0,0
112,1,0,0,0,0,0,0,0,0,0,-1,1336,1023,0,0
119,1,0,0,0,0,0,0,0,0,0,-1,1343,1023,0,0
126,1,0,0,0,0,0,0,0,0,0,-1,1350,1023,0,0
133,1,0,0,0,0,0,0,0,0,0,-1,1357,1023,0,0
140,1,0,0,0,0,0,0,0,0,0,-1,1364,1023,0,0
147,1,0,0,0,0,0,0,0,0,0,-1,1371,1023,0,0
154,1,0,0,0,0,0,0,0,0,0,-1,1378,1023,0,0
161,1,0,0,0,0,0,0,0,0,0,-1,1385,1023,0,0
168,1,0,0,0,0,0,0,0,0,0,-1,1392,1023,0,0
175,1,0,0,0,0,0,0,0,0,0,-1,1399,1023,0,0
182,1,0,0,0,0,0,0,0,0,0,-1,1406,1023,0,0
189,1,0,0,0,0,0,0,0,0,0,-1,1413,1023,0,0
196,1,0,0,0,0,0,0,0,0,0,-1,1420,1023,0,0
203,1,0,0,0,0,0,0,0,0,0,-1,1427,1023,0,0
210,1,0,0,0,0,0,0,0,0,0,-1,1434,1023,0,0
217,1,0,0,0,0,0,0,0,0,0,-1,1441,1023,0,0
224,1,0,0,0,0,0,0,0,0,0,-1,1448,1023,0,0
231,1,0,0,0,0,0,0,0,0,0,-1,1455,1023,0,0
238,1,0,0,0,0,0,0,0,0,0,-1,1462,1023,0,0
245,1,0,0,0,0,0,0,0,0,0,-1,1469,1023,0,0
252,1,0,0,0,0,0,0,0,0,0,-1,1476,1023,0,0
259,1,0,0,0,0,0,0,0,0,0,-1,1483,1023,0,0
266,1,0,0,0,0,0,0,0,0,0,-1,1490,1023,0,0
273,1,0,0,0,0,0,0,0,0,0,-1,1497,1023,0,0
280,1,0,0,0,0,0,0,0,0,0,-1,1504,1023,0,0
287,1,0,0,0,0,0,0,0,0,0,-1,1511,1023,0,0
294,1,0,0,0,0,0,0,0,0,0,-1,1518,1023,0,0
301,1,0,0,0,0,0,0,0,0,0,-1,1525,1023,0,0
308,1,0,0,0,0,0,0,0,0,0,-1,1532,1023,0,0
315,1,0,0,0,0,0,0,0,0,0,-1,1539,1023,0,0
322,1,0,0,0,0,0,0,0,0,0,-1,1546,1023,0,0
329,1,0,0,0,0,0,0,0,0,0,-1,1553,1023,0,0
336,1,0,0,0,0,0,0,0,0,0,-1,1560,1023,0,0
343,1,0,0,0,0,0,0,0,0,0,-1,1567,1023,0,0
350,1,0,0,0,0,0,0,0,0,0,-1,1574,1023,0,0
357,1,0,0,0,0,0,0,0,0,0,-1,1581,1023,0,0
364,1,0,0,0,0,0,0,0,0,0,-1,1588,1023,0,0
371,1,0,0,0,0,0,0,0,0,0,-1,1595,1023,0,0
378,1,0,0,0,0,0,0,0,0,0,-1,1602,1023,0,0
385,1,0,0,0,0,0,0,0,0,0,-1,1609,1023,0,0
392,1,0,0,0,0,0,0,0,0,0,-1,1616,1023,0,0
399,1,0,0,0,0,0,0,0,0,0,-1,1623,1023,0,0
406,1,0,0,0,0,0,0,0,0,0,-1,1630,1023,0,0
413,1,0,0,0,0,0,0,0,0,0,-1,1637,1023,0,0
420,1,0,0,0,0,0,0,0,0,0,-1,1644,1023,0,0
427,1,0,0,0,0,0,0,0,0,0,-1,1651,1023,0,0
434,1,0,0,0,0,0,0,0,0,0,-1,1658,1023,0,0
441,1,0,0,0,0,0,0,0,0,0,-1,1665,1023,0,0
448,1,0,0,0,0,0,0,0,0,0,-1,1672,1023,0,0
455,1,0,0,0,0,0,0,0,0,0,-1,1679,1023,0,0
462,1,0,0,0,0,0,0,0,0,0,-1,1686,1023,0,0
469,1,0,0,0,0,0,0,0,0,0,-1,1693,1023,0,0
476,1,0,0,0,0,0,0,0,0,0,-1,1700,1023,0,0
483,1,0,0,0,0,0,0,0,0,0,-1,1707,1023,0,0
490,1,0,0,0,0,0,0,0,0,0,-1,1714,1023,0,0
497,1,0,0,0,0,0,0,0,0,0,-1,1721,1023,0,0
504,1,0,0,0,0,0,0,0,0,0,-1,1728,1023,0,0
511,1,0,0,0,0,0,0,0,0,0,-1,1735,1023,0,0
518,1,0,0,0,0,0,0,0,0,0,-1,1742,1023,0,0
525,1,0,0,0,0,0,0,0,0,0,-1,1749,1023,0,0
532,1,0,0,0,0,0,0,0,0,0,-1,1756,1023,0,0
539,1,0,0,0,0,0,0,0,0,0,-1,1763,1023,0,0
546,1,0,0,0,0,0,0,0,0,0,-1,1770,1023,0,0
553,1,0,0,0,0,0,0,0,0,0,-1,1777,1023,0,0
560,1,0,0,0,0,0,0,0,0,0,-1,1784,1023,0,0
567,1,0,0,0,0,0,0,0,0,0,-1,1791,1023,0,0
574,1,0,0,0,0,0,0,0,0,0,-1,1798,1023,0,0
581,1,0,0,0,0,0,0,0,0,0,-1,1805,1023,0,0
588,1,0,0,0,0,0,0,0,0,0,-1,1812,1023,0,0
595,1,0,0,0,0,0,0,0,0,0,-1,1819,1023,0,0
602,1,0,0,0,0,0,0,0,0,0,-1,1826,1023,0,0
609,1,0,0,0,0,0,0,0,0,0,-1,1833,1023,0,0
616,1,0,0,0,0,0,0,0,0,0,-1,1840,1023,0,0
623,1,0,0,0,0,0,0,0,0,0,-1,1847,1023,0,0
630,1,0,0,0,0,0,0,0,0,0,-1,1854,1023,0,0
637,1,0,0,0,0,0,0,0,0,0,-1,1861,1023,0,0
644,1,0,0,0,0,0,0,0,0,0,-1,1868,1023,0,0
651,1,17.2321,2.4502,0.00209809,0.00356289,0.00497431,0.00785842,-0.00219744,0.858491,0.00610472,0.0371547,1875,1023,17.2321,-2.45021
658,1,17.2426,2.64551,0.00169595,0.00262593,0.00354249,0.00573381,-0.00141193,0.850655,0.00436989,0.0407566,1882,1023,17.2425,-2.6455
665,1,17.3009,2.60706,0.001255,0.00194825,0.00248192,0.00410763,-0.000904377,0.85478,0.0030844,0.0418012,1889,1023,17.3008,-2.60706
672,1,17.3181,2.55737,0.000675716,0.00154902,0.00227525,0.00342914,-0.0012044,0.880203,0.00277606,0.0408344,1896,1023,17.3182,-2.55739
679,1,17.192,2.48993,-0.000497696,0.00129849,0.00277885,0.00332077,-0.00251998,0.941695,0.00338271,0.0382433,1903,1023,17.192,-2.48991
686,1,17.1704,2.33563,-0.00175996,0.00112291,0.00353315,0.00349735,-0.0041344,0.979079,0.00441131,0.037503,1910,1023,17.1705,-2.33564
693,1,17.2513,2.46198,-0.00293214,0.00100467,0.0043459,0.00380716,-0.00573464,0.998043,0.0055463,0.0358484,1917,1023,17.2513,-2.46199
700,1,17.2214,2.4873,-0.00399891,0.000898238,0.00508601,0.0040944,-0.00719507,1.00974,0.00659942,0.0306946,1924,1023,17.2214,-2.48728
707,1,17.1644,2.43396,-0.00484832,0.000843097,0.00558123,0.00426222,-0.00826744,1.02115,0.00735617,0.0239153,1931,1023,17.1645,-2.43393
714,1,17.1536,2.41895,-0.00554164,0.000806227,0.00592715,0.00435576,-0.00909118,1.03122,0.00792243,0.0220966,1938,1023,17.1535,-2.41895
721,1,17.1862,2.74847,-0.00595324,0.000881741,0.00607289,0.00443269,-0.00950419,1.04169,0.00822213,0.0284967,1945,1023,17.1862,-2.74847
728,1,16.8334,3.2287,-0.00605613,0.000931364,0.00606386,0.00443595,-0.00956071,1.04675,0.00825956,0.0225285,1952,1023,16.8333,-3.2287
735,1,16.7466,3.36243,-0.00584462,0.00108219,0.00579662,0.00437126,-0.0091337,1.05468,0.00795706,0.0163262,1959,1023,16.7466,-3.36241
742,1,16.7758,3.37915,-0.00540505,0.00124281,0.00479264,0.00375136,-0.00791361,1.08859,0.0068762,0.0154436,1966,1023,16.7758,-3.37912
749,1,16.7621,3.40924,-0.00455905,0.0013104,0.00292166,0.00251677,-0.00576542,1.17921,0.00490281,0.0132297,1973,1023,16.7621,-3.40922
756,1,16.7637,3.45313,-0.00302762,0.00250013,0.000129174,0.00250315,-0.00303064,1.54745,0.00319977,0.0132422,1980,1023,16.7637,-3.45311
763,1,16.7579,3.47797,-0.00140571,0.00391497,-0.00315696,0.00538305,-0.00287378,-1.13552,0.0048399,0.014382,1987,1023,16.7579,-3.47799
770,1,16.754,3.49097,0.000328973,0.00539672,-0.0070079,0.0103148,-0.00458908,-0.958872,0.00881386,0.013744,1994,1023,16.754,-3.49096
777,1,16.7294,3.5025,0.00249858,0.00746586,-0.0116938,0.0169369,-0.00697243,-0.890038,0.014198,0.0149175,2001,1023,16.7293,-3.50251
784,1,16.6836,3.52765,0.00471878,0.0102447,-0.0171277,0.0248309,-0.00986741,-0.865367,0.0206447,0.0325466,2008,1023,16.6835,-3.52765
791,1,16.6456,3.44171,0.00700423,0.013757,-0.0236402,0.0342607,-0.0134995,-0.856331,0.0284295,0.0446118,2015,1023,16.6456,-3.44171
798,1,16.592,3.36938,0,0,0,0,0,0,0,-1,2022,1023,16.592,-3.36938
805,1,16.3904,2.4328,0.0133992,0.0236241,-0.0412732,0.0601002,-0.023077,-0.847019,0.0495828,0.0463251,2029,1023,16.3904,-2.43282
812,1,16.5906,2.17059,0.0177059,0.030429,-0.0527097,0.0771597,-0.0290247,-0.845453,0.0633705,0.0410537,2036,1023,16.5905,-2.1706
-700,-6,0,0,0,0,0,0,0,0,0,-1,524,1030,0,0
-693,-6,-12.2254,2.75183,-0.015137,-0.0096884,0.015824,0.00364415,-0.0284695,0.870643,0.0203037,0.0435155,531,1030,-12.2254,-2.75189
-686,-6,-12.2123,2.755,-0.012973,-0.00514704,0.0111988,0.00280267,-0.0209227,0.953475,0.0149704,0.0468365,538,1030,-12.2123,-2.75502
-679,-6,-11.6774,2.63538,-0.0107025,-0.00213729,0.00795564,0.00261521,-0.015455,1.03231,0.0112766,0.0483977,545,1030,-11.6774,-2.63538
-672,-6,-11.0617,1.59351,-0.00844265,-0.000199133,0.00568203,0.00269868,-0.0113405,1.09918,0.00860215,0.047015,552,1030,-11.0617,-1.59346
-665,-6,-11.3303,1.43201,-0.00632223,0.000967499,0.0040829,0.00279576,-0.00815049,1.14979,0.00656704,0.045514,559,1030,-11.3303,-1.43199
-658,-6,-11.168,1.3407,-0.0044783,0.00157324,0.00295288,0.00277533,-0.00568039,1.18419,0.00497703,0.0398535,566,1030,-11.168,-1.34066
-651,-6,-10.9785,1.23865,-0.00298294,0.00177207,0.00210653,0.00257104,-0.00378191,1.20828,0.00369002,0.0344294,573,1030,-10.9784,-1.23859
-644,-6,-10.9104,1.18774,-0.00182643,0.00169741,0.00129596,0.0021227,-0.00225172,1.25371,0.00252594,0.0284662,580,1030,-10.9104,-1.18777
-637,-6,-10.9656,1.2085,-0.00124278,0.00226422,-0.000410708,0.00231167,-0.00129024,-1.45576,0.00210725,0.0159975,587,1030,-10.9656,-1.20849
-630,-6,-10.998,1.1759,-0.000565211,0.00124134,-0.00102902,0.0017073,-0.00103117,-1.1456,0.00159704,0.013024,594,1030,-10.9981,-1.17587
-623,-6,-10.9774,1.16162,5.75895e-05,0.000353209,-0.00137527,0.00158859,-0.00117779,-0.838931,0.00160303,0.0128797,601,1030,-10.9773,-1.16165
-616,-6,-10.9652,1.17053,0.000447799,0.000245538,-0.00222316,0.00257213,-0.00187879,-0.762669,0.00258011,0.0133905,608,1030,-10.9652,-1.17057
-609,-6,-10.9563,1.19019,3.92915e-05,0.000293505,-0.00320718,0.0033761,-0.0030433,-0.805204,0.0037079,0.0154901,615,1030,-10.9563,-1.19017
-602,-6,-10.9582,1.18506,-0.00018774,-0.000166897,-0.00405706,0.00387975,-0.00423439,-0.786683,0.00468619,0.0124264,622,1030,-10.9582,-1.18501
-595,-6,-10.9329,1.15723,-0.000142333,-0.000140255,-0.0045077,0.00436641,-0.00464899,-0.785513,0.0052059,0.013982,629,1030,-10.9329,-1.15725
-588,-6,-10.9496,0.861938,1.96855e-05,-6.92766e-05,-0.00466451,0.00463993,-0.00468952,-0.78063,0.00538639,0.0155651,636,1030,-10.9496,-0.861964
-581,-6,-10.9997,0.635132,-1.12559e-05,6.57818e-05,-0.00465419,0.00468161,-0.00462709,-0.789536,0.00537441,0.0220172,643,1030,-10.9997,-0.635109
-574,-6,-10.9996,0.654175,1.60807e-06,0.000390438,-0.00445619,0.00465645,-0.00426441,-0.807198,0.00515212,0.0309388,650,1030,-10.9996,-0.654199
-567,-6,-11.0009,0.719849,-6.85062e-05,0.000820471,-0.00398347,0.00438417,-0.00363221,-0.84096,0.00463504,0.0408139,657,1030,-11.0009,-0.719849
-560,-6,-11.0115,0.723267,-0.000220466,0.00134931,-0.00329694,0.0039535,-0.00282466,-0.902255,0.00393142,0.0423612,664,1030,-11.0115,-0.723274
-553,-6,-10.8824,0.707397,-0.000521143,0.001941,-0.00244898,0.00345092,-0.00203106,-1.0183,0.00320022,0.0427923,671,1030,-10.8824,-0.707345
-546,-6,-10.7953,0.619141,-0.00108387,0.0025493,-0.00151277,0.00309671,-0.00163128,-1.2236,0.00277306,0.0425563,678,1030,-10.7953,-0.619088
-539,-6,-10.7831,0.475098,-0.00201658,0.0030769,-0.000873722,0.00322261,-0.00216229,-1.40555,0.003129,0.0422858,685,1030,-10.7831,-0.47509
-532,-6,-10.8616,0.414307,-0.00368042,0.00358665,-0.00131598,0.00381761,-0.00391139,-1.39706,0.00446245,0.0423493,692,1030,-10.8616,-0.414321
-525,-6,0,0,0,0,0,0,0,0,0,-1,699,1030,0,0
-518,-6,0,0,0,0,0,0,0,0,0,-1,706,1030,0,0
-511,-6,0,0,0,0,0,0,0,0,0,-1,713,1030,0,0
-504,-6,0,0,0,0,0,0,0,0,0,-1,720,1030,0,0
-497,-6,0,0,0,0,0,0,0,0,0,-1,727,1030,0,0
-490,-6,0,0,0,0,0,0,0,0,0,-1,734,1030,0,0
-483,-6,0,0,0,0,0,0,0,0,0,-1,741,1030,0,0
-476,-6,0,0,0,0,0,0,0,0,0,-1,748,1030,0,0
-469,-6,0,0,0,0,0,0,0,0,0,-1,755,1030,0,0
-462,-6,0,0,0,0,0,0,0,0,0,-1,762,1030,0,0
-455,-6,0,0,0,0,0,0,0,0,0,-1,769,1030,0,0
-448,-6,0,0,0,0,0,0,0,0,0,-1,776,1030,0,0
-441,-6,0,0,0,0,0,0,0,0,0,-1,783,1030,0,0
-434,-6,0,0,0,0,0,0,0,0,0,-1,790,1030,0,0
-427,-6,0,0,0,0,0,0,0,0,0,-1,797,1030,0,0
-420,-6,0,0,0,0,0,0,0,0,0,-1,804,1030,0,0
-413,-6,0,0,0,0,0,0,0,0,0,-1,811,1030,0,0
-406,-6,0,0,0,0,0,0,0,0,0,-1,818,1030,0,0
-399,-6,0,0,0,0,0,0,0,0,0,-1,825,1030,0,0
-392,-6,0,0,0,0,0,0,0,0,0,-1,832,1030,0,0
-385,-6,0,0,0,0,0,0,0,0,0,-1,839,1030,0,0
-378,-6,0,0,0,0,0,0,0,0,0,-1,846,1030,0,0
-371,-6,0,0,0,0,0,0,0,0,0,-1,853,1030,0,0
-364,-6,0,0,0,0,0,0,0,0,0,-1,860,1030,0,0
-357,-6,0,0,0,0,0,0,0,0,0,-1,867,1030,0,0
-350,-6,0,0,0,0,0,0,0,0,0,-1,874,1030,0,0
-343,-6,0,0,0,0,0,0,0,0,0,-1,881,1030,0,0
-336,-6,0,0,0,0,0,0,0,0,0,-1,888,1030,0,0
-329,-6,0,0,0,0,0,0,0,0,0,-1,895,1030,0,0
-322,-6,0,0,0,0,0,0,0,0,0,-1,902,1030,0,0
-315,-6,0,0,0,0,0,0,0,0,0,-1,909,1030,0,0
-308,-6,0,0,0,0,0,0,0,0,0,-1,916,1030,0,0
-301,-6,0,0,0,0,0,0,0,0,0,-1,923,1030,0,0
-294,-6,0,0,0,0,0,0,0,0,0,-1,930,1030,0,0
-287,-6,0,0,0,0,0,0,0,0,0,-1,937,1030,0,0
-280,-6,0,0,0,0,0,0,0,0,0,-1,944,1030,0,0
-273,-6,0,0,0,0,0,0,0,0,0,-1,951,1030,0,0
-266,-6,0,0,0,0,0,0,0,0,0,-1,958,1030,0,0
-259,-6,0,0,0,0,0,0,0,0,0,-1,965,1030,0,0
-252,-6,0,0,0,0,0,0,0,0,0,-1,972,1030,0,0
-245,-6,0,0,0,0,0,0,0,0,0,-1,979,1030,0,0
-238,-6,0,0,0,0,0,0,0,0,0,-1,986,1030,0,0
-231,-6,0,0,0,0,0,0,0,0,0,-1,993,1030,0,0
-224,-6,0,0,0,0,0,0,0,0,0,-1,1000,1030,0,0
-217,-6,0,0,0,0,0,0,0,0,0,-1,1007,1030,0,0
-210,-6,0,0,0,0,0,0,0,0,0,-1,1014,1030,0,0
-203,-6,0,0,0,0,0,0,0,0,0,-1,1021,1030,0,0
-196,-6,0,0,0,0,0,0,0,0,0,-1,1028,1030,0,0
-189,-6,0,0,0,0,0,0,0,0,0,-1,1035,1030,0,0
-182,-6,0,0,0,0,0,0,0,0,0,-1,1042,1030,0,0
-175,-6,0,0,0,0,0,0,0,0,0,-1,1049,1030,0,0
-168,-6,0,0,0,0,0,0,0,0,0,-1,1056,1030,0,0
-161,-6,0,0,0,0,0,0,0,0,0,-1,1063,1030,0,0
-154,-6,0,0,0,0,0,0,0,0,0,-1,1070,1030,0,0
-147,-6,0,0,0,0,0,0,0,0,0,-1,1077,1030,0,0
-140,-6,0,0,0,0,0,0,0,0,0,-1,1084,1030,0,0
-133,-6,0,0,0,0,0,0,0,0,0,-1,1091,1030,0,0
-126,-6,0,0,0,0,0,0,0,0,0,-1,1098,1030,0,0
-119,-6,0,0,0,0,0,0,0,0,0,-1,1105,1030,0,0
-112,-6,0,0,0,0,0,0,0,0,0,-1,1112,1030,0,0
-105,-6,0,0,0,0,0,0,0,0,0,-1,1119,1030,0,0
-98,-6,0,0,0,0,0,0,0,0,0,-1,1126,1030,0,0
-91,-6,0,0,0,0,0,0,0,0,0,-1,1133,1030,0,0
-84,-6,0,0,0,0,0,0,0,0,0,-1,1140,1030,0,0
-77,-6,0,0,0,0,0,0,0,0,0,-1,1147,1030,0,0
-70,-6,0,0,0,0,0,0,0,0,0,-1,1154,1030,0,0
-63,-6,0,0,0,0,0,0,0,0,0,-1,1161,1030,0,0
-56,-6,0,0,0,0,0,0,0,0,0,-1,1168,1030,0,0
-49,-6,0,0,0,0,0,0,0,0,0,-1,1175,1030,0,0
-42,-6,0,0,0,0,0,0,0,0,0,-1,1182,1030,0,0
-35,-6,0,0,0,0,0,0,0,0,0,-1,1189,1030,0,0
-28,-6,0,0,0,0,0,0,0,0,0,-1,1196,1030,0,0
-21,-6,0,0,0,0,0,0,0,0,0,-1,1203,1030,0,0
-14,-6,0,0,0,0,0,0,0,0,0,-1,1210,1030,0,0
-7,-6,0,0,0,0,0,0,0,0,0,-1,1217,1030,0,0
0,-6,0,0,0,0,0,0,0,0,0,-1,1224,1030,0,0
7,-6,0,0,0,0,0,0,0,0,0,-1,1231,1030,0,0
14,-6,0,0,0,0,0,0,0,0,0,-1,1238,1030,0,0
21,-6,0,0,0,0,0,0,0,0,0,-1,1245,1030,0,0
28,-6,0,0,0,0,0,0,0,0,0,-1,1252,1030,0,0
35,-6,0,0,0,0,0,0,0,0,0,-1,1259,1030,0,0
42,-6,0,0,0,0,0,0,0,0,0,-1,1266,1030,0,0
49,-6,0,0,0,0,0,0,0,0,0,-1,1273,1030,0,0
56,-6,0,0,0,0,0,0,0,0,0,-1,1280,1030,0,0
63,-6,0,0,0,0,0,0,0,0,0,-1,1287,1030,0,0
70,-6,0,0,0,0,0,0,0,0,0,-1,1294,1030,0,0
77,-6,0,0,0,0,0,0,0,0,0,-1,1301,1030,0,0
84,-6,0,0,0,0,0,0,0,0,0,-1,1308,1030,0,0
91,-6,0,0,0,0,0,0,0,0,0,-1,1315,1030,0,0
98,-6,0,0,0,0,0,0,0,0,0,-1,1322,1030,0,0
105,-6,0,0,0,0,0,0,0,0,0,-1,1329,1030,0,0
112,-6,0,0,0,0,0,0,0,0,0,-1,1336,1030,0,0
119,-6,0,0,0,0,0,0,0,0,0,-1,1343,1030,0,0
126,-6,0,0,0,0,0,0,0,0,0,-1,1350,1030,0,0
133,-6,0,0,0,0,0,0,0,0,0,-1,1357,1030,0,0
140,-6,0,0,0,0,0,0,0,0,0,-1,1364,1030,0,0
147,-6,0,0,0,0,0,0,0,0,0,-1,1371,1030,0,0
154,-6,0,0,0,0,0,0,0,0,0,-1,1378,1030,0,0
161,-6,0,0,0,0,0,0,0,0,0,-1,1385,1030,0,0
168,-6,0,0,0,0,0,0,0,0,0,-1,1392,1030,0,0
175,-6,0,0,0,0,0,0,0,0,0,-1,1399,1030,0,0
182,-6,0,0,0,0,0,0,0,0,0,-1,1406,1030,0,0
189,-6,0,0,0,0,0,0,0,0,0,-1,1413,1030,0,0
196,-6,0,0,0,0,0,0,0,0,0,-1,1420,1030,0,0
203,-6,0,0,0,0,0,0,0,0,0,-1,1427,1030,0,0
210,-6,0,0,0,0,0,0,0,0,0,-1,1434,1030,0,0
217,-6,0,0,0,0,0,0,0,0,0,-1,1441,1030,0,0
224,-6,0,0,0,0,0,0,0,0,0,-1,1448,1030,0,0
231,-6,0,0,0,0,0,0,0,0,0,-1,1455,1030,0,0
238,-6,0,0,0,0,0,0,0,0,0,-1,1462,1030,0,0
245,-6,0,0,0,0,0,0,0,0,0,-1,1469,1030,0,0
252,-6,0,0,0,0,0,0,0,0,0,-1,1476,1030,0,0
259,-6,0,0,0,0,0,0,0,0,0,-1,1483,1030,0,0
266,-6,0,0,0,0,0,0,0,0,0,-1,1490,1030,0,0
273,-6,0,0,0,0,0,0,0,0,0,-1,1497,1030,0,0
280,-6,0,0,0,0,0,0,0,0,0,-1,1504,1030,0,0
287,-6,0,0,0,0,0,0,0,0,0,-1,1511,1030,0,0
294,-6,0,0,0,0,0,0,0,0,0,-1,1518,1030,0,0
301,-6,0,0,0,0,0,0,0,0,0,-1,1525,1030,0,0
308,-6,0,0,0,0,0,0,0,0,0,-1,1532,1030,0,0
315,-6,0,0,0,0,0,0,0,0,0,-1,1539,1030,0,0
322,-6,0,0,0,0,0,0,0,0,0,-1,1546,1030,0,0
329,-6,0,0,0,0,0,0,0,0,0,-1,1553,1030,0,0
336,-6,0,0,0,0,0,0,0,0,0,-1,1560,1030,0,0
343,-6,0,0,0,0,0,0,0,0,0,-1,1567,1030,0,0
350,-6,0,0,0,0,0,0,0,0,0,-1,1574,1030,0,0
357,-6,0,0,0,0,0,0,0,0,0,-1,1581,1030,0,0
364,-6,0,0,0,0,0,0,0,0,0,-1,1588,1030,0,0
371,-6,0,0,0,0,0,0,0,0,0,-1,1595,1030,0,0
378,-6,0,0,0,0,0,0,0,0,0,-1,1602,1030,0,0
385,-6,0,0,0,0,0,0,0,0,0,-1,1609,1030,0,0
392,-6,0,0,0,0,0,0,0,0,0,-1,1616,1030,0,0
399,-6,0,0,0,0,0,0,0,0,0,-1,1623,1030,0,0
406,-6,0,0,0,0,0,0,0,0,0,-1,1630,1030,0,0
413,-6,0,0,0,0,0,0,0,0,0,-1,1637,1030,0,0
420,-6,0,0,0,0,0,0,0,0,0,-1,1644,1030,0,0
427,-6,0,0,0,0,0,0,0,0,0,-1,1651,1030,0,0
434,-6,0,0,0,0,0,0,0,0,0,-1,1658,1030,0,0
441,-6,0,0,0,0,0,0,0,0,0,-1,1665,1030,0,0
448,-6,0,0,0,0,0,0,0,0,0,-1,1672,1030,0,0
455,-6,0,0,0,0,0,0,0,0,0,-1,1679,1030,0,0
462,-6,0,0,0,0,0,0,0,0,0,-1,1686,1030,0,0
469,-6,0,0,0,0,0,0,0,0,0,-1,1693,1030,0,0
476,-6,0,0,0,0,0,0,0,0,0,-1,1700,1030,0,0
483,-6,0,0,0,0,0,0,0,0,0,-1,1707,1030,0,0
490,-6,0,0,0,0,0,0,0,0,0,-1,1714,1030,0,0
497,-6,0,0,0,0,0,0,0,0,0,-1,1721,1030,0,0
504,-6,0,0,0,0,0,0,0,0,0,-1,1728,1030,0,0
511,-6,0,0,0,0,0,0,0,0,0,-1,1735,1030,0,0
518,-6,0,0,0,0,0,0,0,0,0,-1,1742,1030,0,0
525,-6,0,0,0,0,0,0,0,0,0,-1,1749,1030,0,0
532,-6,0,0,0,0,0,0,0,0,0,-1,1756,1030,0,0
539,-6,0,0,0,0,0,0,0,0,0,-1,1763,1030,0,0
546,-6,0,0,0,0,0,0,0,0,0,-1,1770,1030,0,0
553,-6,0,0,0,0,0,0,0,0,0,-1,1777,1030,0,0
560,-6,0,0,0,0,0,0,0,0,0,-1,1784,1030,0,0
567,-6,0,0,0,0,0,0,0,0,0,-1,1791,1030,0,0
574,-6,0,0,0,0,0,0,0,0,0,-1,1798,1030,0,0
581,-6,0,0,0,0,0,0,0,0,0,-1,1805,1030,0,0
588,-6,0,0,0,0,0,0,0,0,0,-1,1812,1030,0,0
595,-6,0,0,0,0,0,0,0,0,0,-1,1819,1030,0,0
602,-6,0,0,0,0,0,0,0,0,0,-1,1826,1030,0,0
609,-6,0,0,0,0,0,0,0,0,0,-1,1833,1030,0,0
616,-6,0,0,0,0,0,0,0,0,0,-1,1840,1030,0,0
623,-6,0,0,0,0,0,0,0,0,0,-1,1847,1030,0,0
630,-6,0,0,0,0,0,0,0,0,0,-1,1854,1030,0,0
637,-6,0,0,0,0,0,0,0,0,0,-1,1861,1030,0,0
644,-6,0,0,0,0,0,0,0,0,0,-1,1868,1030,0,0
651,-6,17.2766,2.36401,0.00154883,0.00336246,0.00543641,0.00796716,-0.00305587,0.86804,0.00657134,0.038094,1875,1030,17.2766,-2.36399
658,-6,17.3501,2.52515,0.00140704,0.00243185,0.00392265,0.00587542,-0.00203654,0.850344,0.00474382,0.0413453,1882,1030,17.3501,-2.5251
665,-6,17.4233,2.5459,0.00110945,0.00175982,0.00274428,0.00419812,-0.00132885,0.844371,0.00333125,0.0434487,1889,1030,17.4234,-2.54584
672,-6,17.4011,2.47278,0.000689206,0.00133046,0.00244939,0.00348012,-0.00146045,0.850478,0.00293081,0.0417721,1896,1030,17.4012,-2.47282
679,-6,17.2493,2.45789,-0.000337251,0.00103927,0.00294347,0.00337388,-0.00267186,0.900248,0.00349834,0.0425321,1903,1030,17.2492,-2.4579
686,-6,17.181,2.3877,-0.00151304,0.000822795,0.00372221,0.00355601,-0.00424626,0.937419,0.00451051,0.0380511,1910,1030,17.181,-2.38767
693,-6,17.2554,2.42578,-0.00261635,0.000662915,0.0045682,0.00387683,-0.00583026,0.957699,0.00564209,0.0341777,1917,1030,17.2554,-2.4258
700,-6,17.2432,2.50305,-0.00362908,0.000521575,0.00535068,0.0041853,-0.00729281,0.970398,0.00670736,0.0304355,1924,1030,17.2432,-2.50307
707,-6,17.1625,2.4563,-0.0044027,0.00044097,0.00586851,0.00436773,-0.00832946,0.981094,0.00744872,0.0256582,1931,1030,17.1625,-2.45631
714,-6,17.1271,2.47522,-0.00505784,0.000373385,0.0062328,0.00445648,-0.00914093,0.990846,0.00800425,0.0273486,1938,1030,17.1271,-2.47527
721,-6,17.0934,2.92065,-0.00551042,0.00044919,0.00639517,0.0045247,-0.00958593,1.00342,0.00831963,0.0313049,1945,1030,17.0934,-2.92065
728,-6,16.8297,3.29041,-0.0056621,0.000537089,0.00639505,0.00454413,-0.00966914,1.01106,0.00838197,0.0268747,1952,1030,16.8297,-3.29041
735,-6,16.7823,3.35486,-0.0054532,0.000740386,0.00609066,0.00447632,-0.00918914,1.02059,0.00804463,0.0164712,1959,1030,16.7823,-3.35491
742,-6,16.7981,3.3772,-0.00497536,0.000990443,0.00501066,0.00383887,-0.00782379,1.05388,0.00686321,0.0132594,1966,1030,16.7981,-3.37719
749,-6,16.7672,3.4137,-0.00408732,0.00094169,0.00291142,0.00227415,-0.00541978,1.14159,0.00456417,0.0127827,1973,1030,16.7672,-3.41373
756,-6,16.7877,3.43005,-0.00261215,0.00189648,-7.80335e-05,0.00189783,-0.0026135,-1.5535,0.00261552,0.0144557,1980,1030,16.7877,-3.43004
763,-6,16.7887,3.44897,-0.00107676,0.00310306,-0.00350998,0.0050982,-0.00307191,-1.05392,0.00476513,0.0132099,1987,1030,16.7887,-3.44896
770,-6,16.7805,3.46863,0.000612377,0.00430184,-0.00764479,0.0103213,-0.0054071,-0.903788,0.00922737,0.0116951,1994,1030,16.7805,-3.46865
777,-6,16.7412,3.47314,0.00271535,0.00593114,-0.0126841,0.0171088,-0.00846232,-0.848444,0.0150422,0.0149327,2001,1030,16.7412,-3.47314
784,-6,16.7233,3.4646,0.00485475,0.00808477,-0.018488,0.0250282,-0.0120887,-0.828965,0.0218592,0.0353452,2008,1030,16.7232,-3.46458
791,-6,16.7133,3.19263,0.00699188,0.0107724,-0.025394,0.0343465,-0.0165821,-0.822549,0.0299939,0.0460492,2015,1030,16.7133,-3.19264
798,-6,16.5079,2.62109,0.00956127,0.0141377,-0.0338011,0.0457279,-0.022029,-0.819194,0.0399091,0.0471845,2022,1030,16.5079,-2.62113
805,-6,16.4194,2.15979,0.0126647,0.0183619,-0.0438389,0.0594446,-0.028418,-0.817842,0.051771,0.0471456,2029,1030,16.4195,-2.15984
812,-6,16.4722,1.98914,0.0162425,0.0236962,-0.0555609,0.0756551,-0.0357164,-0.818887,0.0656641,0.0426628,2036,1030,16.4721,-1.98919
-700,-13,0,0,0,0,0,0,0,0,0,-1,524,1037,0,0
-693,-13,-9.0434,1.46997,0,0,0,0,0,0,0,-1,531,1037,-9.0434,-1.46992
-686,-13,-11.9625,2.26611,-0.0136534,-0.00129432,0.00470916,0.000295505,-0.0152432,1.24521,0.010262,0.0429934,538,1037,-11.9625,-2.26609
-679,-13,-11.6198,2.37744,-0.0111908,0.000320911,0.00284672,0.000986399,-0.0118563,1.34115,0.00825269,0.0451504,545,1037,-11.6198,-2.3775
-672,-13,-11.3797,2.12915,-0.00871552,0.00124328,0.00169587,0.00152415,-0.00899639,1.40667,0.00656489,0.0477618,552,1037,-11.3797,-2.12914
-665,-13,-11.3874,1.8949,-0.00640422,0.001708,0.000998852,0.00182918,-0.00652539,1.45007,0.00507117,0.0453731,559,1037,-11.3874,-1.89488
-658,-13,-11.2928,1.69519,-0.00441823,0.00186436,0.000588621,0.00191903,-0.0044729,1.47818,0.0037873,0.0474062,566,1037,-11.2928,-1.69516
-651,-13,-10.688,1.41663,-0.00283608,0.00180417,0.00031715,0.00182574,-0.00285766,1.50287,0.00272575,0.0391115,573,1037,-10.688,-1.4166
-644,-13,-10.9173,1.14465,-0.00163384,0.00160464,-3.55142e-05,0.00160503,-0.00163423,-1.55983,0.00187021,0.0274392,580,1037,-10.9173,-1.14467
-637,-13,-10.9533,1.15076,-0.00109279,0.00198318,-0.00136655,0.00250259,-0.00161219,-1.20757,0.00239413,0.0185866,587,1037,-10.9533,-1.15075
-630,-13,-10.9753,1.15442,-0.000399782,0.000913657,-0.00173718,0.00211411,-0.00160023,-0.966114,0.0021513,0.0127093,594,1037,-10.9753,-1.15444
-623,-13,-10.9597,1.18506,0.000251424,4.00788e-05,-0.00192491,0.00207356,-0.00178206,-0.757977,0.00222816,0.0115425,601,1037,-10.9596,-1.18507
-616,-13,-10.942,1.19397,0.000659414,6.87753e-05,-0.00266953,0.00304991,-0.00232172,-0.730309,0.0031108,0.0108905,608,1037,-10.942,-1.19396
-609,-13,-10.9401,1.19324,0.000186904,0.000183002,-0.0035923,0.00377725,-0.00340735,-0.785127,0.00414986,0.0152951,615,1037,-10.9401,-1.19329
-602,-13,-10.9515,1.18762,-9.64158e-05,-0.000253091,-0.00433958,0.00416553,-0.00451504,-0.776373,0.00501308,0.0106861,622,1037,-10.9515,-1.18757
-595,-13,-10.9451,1.14832,-8.71766e-05,-0.000258264,-0.00472897,0.00455703,-0.00490247,-0.776354,0.00546266,0.0140151,629,1037,-10.9451,-1.1483
-588,-13,-10.8803,0.812744,5.58669e-05,-0.00016257,-0.00486839,0.00481626,-0.00492296,-0.774183,0.00562306,0.0171106,636,1037,-10.8803,-0.812688
-581,-13,-10.9651,0.615723,9.5018e-06,3.01062e-05,-0.00483644,0.00485625,-0.00481664,-0.786463,0.00558466,0.0173005,643,1037,-10.9652,-0.61569
-574,-13,-11.0091,0.722046,8.88216e-07,0.000389192,-0.00460379,0.00480292,-0.00441284,-0.806472,0.00532231,0.0324266,650,1037,-11.0091,-0.722012
-567,-13,-11.1139,0.80249,-0.000101642,0.000878684,-0.00407551,0.0044934,-0.00371636,-0.845246,0.00474698,0.0395096,657,1037,-11.1139,-0.802471
-560,-13,-11.059,0.629761,-0.00031174,0.00147818,-0.00330115,0.00400353,-0.00283709,-0.917769,0.00396853,0.0429195,664,1037,-11.059,-0.629713
-553,-13,-10.839,0.505859,-0.000706331,0.00214891,-0.00232805,0.00345221,-0.00200963,-1.06044,0.00318985,0.0429435,671,1037,-10.839,-0.505887
-546,-13,-10.7764,0.592407,-0.00141532,0.00284418,-0.00121907,0.0031684,-0.00173954,-1.31086,0.00287335,0.0407376,678,1037,-10.7764,-0.592371
-539,-13,-10.8547,0.573486,-0.0025663,0.00344403,-0.000378622,0.00346778,-0.00259006,-1.50813,0.00350971,0.0395834,685,1037,-10.8547,-0.573504
-532,-13,-10.9708,0.488892,-0.0045477,0.00395161,-0.000666117,0.00400349,-0.00459959,-1.49306,0.00497097,0.0413114,692,1037,-10.9707,-0.48886
-525,-13,0,0,0,0,0,0,0,0,0,-1,699,1037,0,0
-518,-13,0,0,0,0,0,0,0,0,0,-1,706,1037,0,0
-511,-13,0,0,0,0,0,0,0,0,0,-1,713,1037,0,0
-504,-13,0,0,0,0,0,0,0,0,0,-1,720,1037,0,0
-497,-13,0,0,0,0,0,0,0,0,0,-1,727,1037,0,0
-490,-13,0,0,0,0,0,0,0,0,0,-1,734,1037,0,0
-483,-13,0,0,0,0,0,0,0,0,0,-1,741,1037,0,0
-476,-13,0,0,0,0,0,0,0,0,0,-1,748,1037,0,0
-469,-13,0,0,0,0,0,0,0,0,0,-1,755,1037,0,0
-462,-13,0,0,0,0,0,0,0,0,0,-1,762,1037,0,0
-455,-13,0,0,0,0,0,0,0,0,0,-1,769,1037,0,0
-448,-13,0,0,0,0,0,0,0,0,0,-1,776,1037,0,0
-441,-13,0,0,0,0,0,0,0,0,0,-1,783,1037,0,0
-434,-13,0,0,0,0,0,0,0,0,0,-1,790,1037,0,0
-427,-13,0,0,0,0,0,0,0,0,0,-1,797,1037,0,0
-420,-13,0,0,0,0,0,0,0,0,0,-1,804,1037,0,0
-413,-13,0,0,0,0,0,0,0,0,0,-1,811,1037,0,0
-406,-13,0,0,0,0,0,0,0,0,0,-1,818,1037,0,0
-399,-13,0,0,0,0,0,0,0,0,0,-1,825,1037,0,0
-392,-13,0,0,0,0,0,0,0,0,0,-1,832,1037,0,0
-385,-13,0,0,0,0,0,0,0,0,0,-1,839,1037,0,0
-378,-13,0,0,0,0,0,0,0,0,0,-1,846,1037,0,0
-371,-13,0,0,0,0,0,0,0,0,0,-1,853,1037,0,0
-364,-13,0,0,0,0,0,0,0,0,0,-1,860,1037,0,0
-357,-13,0,0,0,0,0,0,0,0,0,-1,867,1037,0,0
-350,-13,0,0,0,0,0,0,0,0,0,-1,874,1037,0,0
-343,-13,0,0,0,0,0,0,0,0,0,-1,881,1037,0,0
-336,-13,0,0,0,0,0,0,0,0,0,-1,888,1037,0,0
-329,-13,0,0,0,0,0,0,0,0,0,-1,895,1037,0,0
-322,-13,0,0,0,0,0,0,0,0,0,-1,902,1037,0,0
-315,-13,0,0,0,0,0,0,0,0,0,-1,909,1037,0,0
-308,-13,0,0,0,0,0,0,0,0,0,-1,916,1037,0,0
-301,-13,0,0,0,0,0,0,0,0,0,-1,923,1037,0,0
-294,-13,0,0,0,0,0,0,0,0,0,-1,930,1037,0,0
-287,-13,0,0,0,0,0,0,0,0,0,-1,937,1037,0,0
-280,-13,0,0,0,0,0,0,0,0,0,-1,944,1037,0,0
-273,-13,0,0,0,0,0,0,0,0,0,-1,951,1037,0,0
-266,-13,0,0,0,0,0,0,0,0,0,-1,958,1037,0,0
-259,-13,0,0,0,0,0,0,0,0,0,-1,965,1037,0,0
-252,-13,0,0,0,0,0,0,0,0,0,-1,972,1037,0,0
-245,-13,0,0,0,0,0,0,0,0,0,-1,979,1037,0,0
-238,-13,0,0,0,0,0,0,0,0,0,-1,986,1037,0,0
-231,-13,0,0,0,0,0,0,0,0,0,-1,993,1037,0,0
-224,-13,0,0,0,0,0,0,0,0,0,-1,1000,1037,0,0
-217,-13,0,0,0,0,0,0,0,0,0,-1,1007,1037,0,0
-210,-13,0,0,0,0,0,0,0,0,0,-1,1014,1037,0,0
-203,-13,0,0,0,0,0,0,0,0,0,-1,1021,1037,0,0
-196,-13,0,0,0,0,0,0,0,0,0,-1,1028,1037,0,0
-189,-13,0,0,0,0,0,0,0,0,0,-1,1035,1037,0,0
-182,-13,0,0,0,0,0,0,0,0,0,-1,1042,1037,0,0
-175,-13,0,0,0,0,0,0,0,0,0,-1,1049,1037,0,0
-168,-13,0,0,0,0,0,0,0,0,0,-1,1056,1037,0,0
-161,-13,0,0,0,0,0,0,0,0,0,-1,1063,1037,0,0
-154,-13,0,0,0,0,0,0,0,0,0,-1,1070,1037,0,0
-147,-13,0,0,0,0,0,0,0,0,0,-1,1077,1037,0,0
-140,-13,0,0,0,0,0,0,0,0,0,-1,1084,1037,0,0
-133,-13,0,0,0,0,0,0,0,0,0,-1,1091,1037,0,0
-126,-13,0,0,0,0,0,0,0,0,0,-1,1098,1037,0,0
-119,-13,0,0,0,0,0,0,0,0,0,-1,1105,1037,0,0
-112,-13,0,0,0,0,0,0,0,0,0,-1,1112,1037,0,0
-105,-13,0,0,0,0,0,0,0,0,0,-1,1119,1037,0,0
-98,-13,0,0,0,0,0,0,0,0,0,-1,1126,1037,0,0
-91,-13,0,0,0,0,0,0,0,0,0,-1,1133,1037,0,0
-84,-13,0,0,0,0,0,0,0,0,0,-1,1140,1037,0,0
-77,-13,0,0,0,0,0,0,0,0,0,-1,1147,1037,0,0
-70,-13,0,0,0,0,0,0,0,0,0,-1,1154,1037,0,0
-63,-13,0,0,0,0,0,0,0,0,0,-1,1161,1037,0,0
-56,-13,0,0,0,0,0,0,0,0,0,-1,1168,1037,0,0
-49,-13,0,0,0,0,0,0,0,0,0,-1,1175,1037,0,0
-42,-13,0,0,0,0,0,0,0,0,0,-1,1182,1037,0,0
-35,-13,0,0,0,0,0,0,0,0,0,-1,1189,1037,0,0
-28,-13,0,0,0,0,0,0,0,0,0,-1,1196,1037,0,0
-21,-13,0,0,0,0,0,0,0,0,0,-1,1203,1037,0,0
-14,-13,0,0,0,0,0,0,0,0,0,-1,1210,1037,0,0
-7,-13,0,0,0,0,0,0,0,0,0,-1,1217,1037,0,0
0,-13,0,0,0,0,0,0,0,0,0,-1,1224,1037,0,0
7,-13,0,0,0,0,0,0,0,0,0,-1,1231,1037,0,0
14,-13,0,0,0,0,0,0,0,0,0,-1,1238,1037,0,0
21,-13,0,0,0,0,0,0,0,0,0,-1,1245,1037,0,0
28,-13,0,0,0,0,0,0,0,0,0,-1,1252,1037,0,0
35,-13,0,0,0,0,0,0,0,0,0,-1,1259,1037,0,0
42,-13,0,0,0,0,0,0,0,0,0,-1,1266,1037,0,0
49,-13,0,0,0,0,0,0,0,0,0,-1,1273,1037,0,0
56,-13,0,0,0,0,0,0,0,0,0,-1,1280,1037,0,0
63,-13,0,0,0,0,0,0,0,0,0,-1,1287,1037,0,0
70,-13,0,0,0,0,0,0,0,0,0,-1,1294,1037,0,0
77,-13,0,0,0,0,0,0,0,0,0,-1,1301,1037,0,0
84,-13,0,0,0,0,0,0,0,0,0,-1,1308,1037,0,0
91,-13,0,0,0,0,0,0,0,0,0,-1,1315,1037,0,0
98,-13,0,0,0,0,0,0,0,0,0,-1,1322,1037,0,0
105,-13,0,0,0,0,0,0,0,0,0,-1,1329,1037,0,0
112,-13,0,0,0,0,0,0,0,0,0,-1,1336,1037,0,0
119,-13,0,0,0,0,0,0,0,0,0,-1,1343,1037,0,0
126,-13,0,0,0,0,0,0,0,0,0,-1,1350,1037,0,0
133,-13,0,0,0,0,0,0,0,0,0,-1,1357,1037,0,0
140,-13,0,0,0,0,0,0,0,0,0,-1,1364,1037,0,0
147,-13,0,0,0,0,0,0,0,0,0,-1,1371,1037,0,0
154,-13,0,0,0,0,0,0,0,0,0,-1,1378,1037,0,0
161,-13,0,0,0,0,0,0,0,0,0,-1,1385,1037,0,0
168,-13,0,0,0,0,0,0,0,0,0,-1,1392,1037,0,0
175,-13,0,0,0,0,0,0,0,0,0,-1,1399,1037,0,0
182,-13,0,0,0,0,0,0,0,0,0,-1,1406,1037,0,0
189,-13,0,0,0,0,0,0,0,0,0,-1,1413,1037,0,0
196,-13,0,0,0,0,0,0,0,0,0,-1,1420,1037,0,0
203,-13,0,0,0,0,0,0,0,0,0,-1,1427,1037,0,0
210,-13,0,0,0,0,0,0,0,0,0,-1,1434,1037,0,0
217,-13,0,0,0,0,0,0,0,0,0,-1,1441,1037,0,0
224,-13,0,0,0,0,0,0,0,0,0,-1,1448,1037,0,0
231,-13,0,0,0,0,0,0,0,0,0,-1,1455,1037,0,0
238,-13,0,0,0,0,0,0,0,0,0,-1,1462,1037,0,0
245,-13,0,0,0,0,0,0,0,0,0,-1,1469,1037,0,0
252,-13,0,0,0,0,0,0,0,0,0,-1,1476,1037,0,0
259,-13,0,0,0,0,0,0,0,0,0,-1,1483,1037,0,0
266,-13,0,0,0,0,0,0,0,0,0,-1,1490,1037,0,0
273,-13,0,0,0,0,0,0,0,0,0,-1,1497,1037,0,0
280,-13,0,0,0,0,0,0,0,0,0,-1,1504,1037,0,0
287,-13,0,0,0,0,0,0,0,0,0,-1,1511,1037,0,0
294,-13,0,0,0,0,0,0,0,0,0,-1,1518,1037,0,0
301,-13,0,0,0,0,0,0,0,0,0,-1,1525,1037,0,0
308,-13,0,0,0,0,0,0,0,0,0,-1,1532,1037,0,0
315,-13,0,0,0,0,0,0,0,0,0,-1,1539,1037,0,0
322,-13,0,0,0,0,0,0,0,0,0,-1,1546,1037,0,0
329,-13,0,0,0,0,0,0,0,0,0,-1,1553,1037,0,0
336,-13,0,0,0,0,0,0,0,0,0,-1,1560,1037,0,0
343,-13,0,0,0,0,0,0,0,0,0,-1,1567,1037,0,0
350,-13,0,0,0,0,0,0,0,0,0,-1,1574,1037,0,0
357,-13,0,0,0,0,0,0,0,0,0,-1,1581,1037,0,0
364,-13,0,0,0,0,0,0,0,0,0,-1,1588,1037,0,0
371,-13,0,0,0,0,0,0,0,0,0,-1,1595,1037,0,0
378,-13,0,0,0,0,0,0,0,0,0,-1,1602,1037,0,0
385,-13,0,0,0,0,0,0,0,0,0,-1,1609,1037,0,0
392,-13,0,0,0,0,0,0,0,0,0,-1,1616,1037,0,0
399,-13,0,0,0,0,0,0,0,0,0,-1,1623,1037,0,0
406,-13,0,0,0,0,0,0,0,0,0,-1,1630,1037,0,0
413,-13,0,0,0,0,0,0,0,0,0,-1,1637,1037,0,0
420,-13,0,0,0,0,0,0,0,0,0,-1,1644,1037,0,0
427,-13,0,0,0,0,0,0,0,0,0,-1,1651,1037,0,0
434,-13,0,0,0,0,0,0,0,0,0,-1,1658,1037,0,0
441,-13,0,0,0,0,0,0,0,0,0,-1,1665,1037,0,0
448,-13,0,0,0,0,0,0,0,0,0,-1,1672,1037,0,0
455,-13,0,0,0,0,0,0,0,0,0,-1,1679,1037,0,0
462,-13,0,0,0,0,0,0,0,0,0,-1,1686,1037,0,0
469,-13,0,0,0,0,0,0,0,0,0,-1,1693,1037,0,0
476,-13,0,0,0,0,0,0,0,0,0,-1,1700,1037,0,0
483,-13,0,0,0,0,0,0,0,0,0,-1,1707,1037,0,0
490,-13,0,0,0,0,0,0,0,0,0,-1,1714,1037,0,0
497,-13,0,0,0,0,0,0,0,0,0,-1,1721,1037,0,0
504,-13,0,0,0,0,0,0,0,0,0,-1,1728,1037,0,0
511,-13,0,0,0,0,0,0,0,0,0,-1,1735,1037,0,0
518,-13,0,0,0,0,0,0,0,0,0,-1,1742,1037,0,0
525,-13,0,0,0,0,0,0,0,0,0,-1,1749,1037,0,0
532,-13,0,0,0,0,0,0,0,0,0,-1,1756,1037,0,0
539,-13,0,0,0,0,0,0,0,0,0,-1,1763,1037,0,0
546,-13,0,0,0,0,0,0,0,0,0,-1,1770,1037,0,0
553,-13,0,0,0,0,0,0,0,0,0,-1,1777,1037,0,0
560,-13,0,0,0,0,0,0,0,0,0,-1,1784,1037,0,0
567,-13,0,0,0,0,0,0,0,0,0,-1,1791,1037,0,0
574,-13,0,0,0,0,0,0,0,0,0,-1,1798,1037,0,0
581,-13,0,0,0,0,0,0,0,0,0,-1,1805,1037,0,0
588,-13,0,0,0,0,0,0,0,0,0,-1,1812,1037,0,0
595,-13,0,0,0,0,0,0,0,0,0,-1,1819,1037,0,0
602,-13,0,0,0,0,0,0,0,0,0,-1,1826,1037,0,0
609,-13,0,0,0,0,0,0,0,0,0,-1,1833,1037,0,0
616,-13,0,0,0,0,0,0,0,0,0,-1,1840,1037,0,0
623,-13,0,0,0,0,0,0,0,0,0,-1,1847,1037,0,0
630,-13,0,0,0,0,0,0,0,0,0,-1,1854,1037,0,0
637,-13,0,0,0,0,0,0,0,0,0,-1,1861,1037,0,0
644,-13,0,0,0,0,0,0,0,0,0,-1,1868,1037,0,0
651,-13,17.3064,2.17639,0.000744241,0.00399849,0.00603032,0.00861735,-0.00387462,0.917172,0.00738348,0.0406224,1875,1037,17.3063,-2.17639
658,-13,17.2942,2.32935,0.00097219,0.00298323,0.00444361,0.00653367,-0.00257825,0.896666,0.00542347,0.0458392,1882,1037,17.2942,-2.32939
665,-13,17.3522,2.45325,0.000893104,0.00222598,0.00315263,0.00478184,-0.00166276,0.88956,0.00386332,0.042791,1889,1037,17.3522,-2.45321
672,-13,17.3452,2.40784,0.000646333,0.00169539,0.00275407,0.00397443,-0.00163271,0.879499,0.00333006,0.0362291,1896,1037,17.3452,-2.40787
679,-13,17.2382,2.43042,-0.000238712,0.00129829,0.00320284,0.00382354,-0.00276396,0.903144,0.00381966,0.0394316,1903,1037,17.2382,-2.43039
686,-13,17.1949,2.46106,-0.00133267,0.000980049,0.00396444,0.00395333,-0.00430595,0.927303,0.00476995,0.0410355,1910,1037,17.195,-2.46102
693,-13,17.2183,2.48682,-0.00237994,0.000724604,0.00480467,0.00422153,-0.00587687,0.941643,0.00585637,0.0380516,1917,1037,17.2182,-2.48677
700,-13,17.224,2.46826,-0.00334221,0.000501984,0.00559556,0.00449636,-0.00733659,0.950836,0.00689705,0.0357634,1924,1037,17.224,-2.46832
707,-13,17.1664,2.47083,-0.00405044,0.000348776,0.00611281,0.00464568,-0.00834734,0.958103,0.00760233,0.0299339,1931,1037,17.1664,-2.47081
714,-13,17.1327,2.573,-0.00467787,0.000212679,0.00646777,0.00468199,-0.00914718,0.966128,0.00812182,0.0240519,1938,1037,17.1327,-2.573
721,-13,17.1237,3.02625,-0.0051814,0.000247527,0.00661733,0.0046855,-0.00961937,0.980035,0.00842108,0.0285622,1945,1037,17.1237,-3.02624
728,-13,16.8706,3.32898,-0.00538006,0.000324335,0.00660311,0.00466492,-0.00972064,0.989268,0.00847475,0.0252468,1952,1037,16.8706,-3.32895
735,-13,16.8081,3.3634,-0.00514499,0.000554719,0.00625457,0.0045781,-0.00916837,0.999167,0.00808268,0.0199332,1959,1037,16.808,-3.36343
742,-13,16.8033,3.38831,-0.00457889,0.000856787,0.00513368,0.00394768,-0.00766978,1.02885,0.00682113,0.0112813,1966,1037,16.8034,-3.38828
749,-13,16.7843,3.40417,-0.00360447,0.000662571,0.00290844,0.00213612,-0.00507801,1.10185,0.00427896,0.0153519,1973,1037,16.7843,-3.40422
756,-13,16.8041,3.42224,-0.00216459,0.00137535,-0.000158875,0.00138247,-0.00217171,-1.52604,0.0020688,0.0135143,1980,1037,16.8041,-3.42225
763,-13,16.822,3.43359,-0.000699351,0.00229332,-0.00364345,0.00473573,-0.00314177,-0.980243,0.00457901,0.0125173,1987,1037,16.8221,-3.43358
770,-13,16.7882,3.45142,0.000981797,0.00314141,-0.00790676,0.0100418,-0.00591855,-0.853262,0.00931662,0.0111204,1994,1037,16.7882,-3.45147
777,-13,16.7578,3.45581,0.00304397,0.0042577,-0.0130958,0.0167607,-0.00945899,-0.808552,0.0153323,0.0124082,2001,1037,16.7578,-3.4558
784,-13,16.7777,3.427,0.00509857,0.00568714,-0.01904,0.0244351,-0.0136494,-0.793126,0.0222801,0.0279485,2008,1037,16.7777,-3.42699
791,-13,16.819,3.20923,0.00707779,0.00743236,-0.0260915,0.0333471,-0.018837,-0.788795,0.0305143,0.0430703,2015,1037,16.819,-3.20918
798,-13,16.6218,2.38208,0.00935233,0.00961413,-0.0346569,0.0441403,-0.0251739,-0.787287,0.0405149,0.0436224,2022,1037,16.6218,-2.38211
805,-13,16.6418,1.91382,0.0119556,0.012397,-0.0448386,0.0570154,-0.0326628,-0.78786,0.0524083,0.042026,2029,1037,16.6419,-1.91378
812,-13,16.6172,1.48743,0,0,0,0,0,0,0,-1,2036,1037,16.6173,-1.4874
-700,-20,-9.82458,1.79529,0,0,0,0,0,0,0,-1,524,1044,-9.82459,-1.79525
-693,-20,-9.21021,1.52844,-0.017482,-0.000724992,0.000862277,-0.000680737,-0.0175262,1.51952,0.011464,0.0455562,531,1044,-9.21021,-1.52849
-686,-20,-8.60297,1.27124,-0.0149599,0.000902402,-0.000551013,0.000921519,-0.014979,-1.53611,0.0103069,0.0468702,538,1044,-8.60295,-1.27123
-679,-20,-11.6313,2.57874,-0.012174,0.00171947,-0.00120707,0.00182356,-0.0122781,-1.48477,0.00885607,0.045474,545,1044,-11.6313,-2.57874
-672,-20,-11.8024,2.20471,-0.00938569,0.00206745,-0.00140896,0.00223823,-0.00955648,-1.45017,0.00723343,0.0464143,552,1044,-11.8023,-2.20475
-665,-20,-11.7072,1.95691,-0.00680362,0.00213883,-0.00136475,0.00234248,-0.00700726,-1.42267,0.00561756,0.0454314,559,1044,-11.7072,-1.95691
-658,-20,-11.3631,1.59314,-0.00460785,0.00204661,-0.00119914,0.0022561,-0.00481734,-1.39784,0.00417214,0.0452769,566,1044,-11.3631,-1.5931
-651,-20,-10.884,1.13513,-0.00288296,0.00184529,-0.00101694,0.00205473,-0.0030924,-1.36768,0.00299176,0.0385974,573,1044,-10.8841,-1.1351
-644,-20,-10.8942,1.11841,-0.00159434,0.00158181,-0.00100799,0.0018747,-0.00188723,-1.28801,0.00217196,0.0235257,580,1044,-10.8942,-1.11845
-637,-20,-10.9294,1.10193,-0.00103216,0.00181325,-0.00199694,0.00284245,-0.00206136,-1.09491,0.00284316,0.0150849,587,1044,-10.9295,-1.10198
-630,-20,-10.9449,1.13672,-0.000324191,0.000738127,-0.00221507,0.00248483,-0.0020709,-0.903073,0.00263387,0.0128106,594,1044,-10.945,-1.13668
-623,-20,-10.9412,1.1676,0.000324501,-0.000100376,-0.00231845,0.00244022,-0.0022161,-0.739711,0.00268937,0.0126366,601,1044,-10.9412,-1.16757
-616,-20,-10.9301,1.18152,0.000746134,1.29679e-05,-0.0030152,0.00341695,-0.00265785,-0.724906,0.0035164,0.0124495,608,1044,-10.9301,-1.18148
-609,-20,-10.9215,1.17981,0.000232227,0.00012748,-0.00391672,0.00409693,-0.00373722,-0.778713,0.00452464,0.0139889,615,1044,-10.9215,-1.17975
-602,-20,-10.9413,1.17981,-0.00010983,-0.000321914,-0.00459833,0.00438368,-0.00481543,-0.77387,0.00531306,0.0103485,622,1044,-10.9413,-1.17987
-595,-20,-10.9662,1.14648,-0.000147652,-0.000393414,-0.00498262,0.0047136,-0.00525467,-0.77307,0.00575801,0.0117404,629,1044,-10.9662,-1.14643
-588,-20,-10.959,0.839722,-2.99855e-05,-0.000306358,-0.00514853,0.00498221,-0.00531856,-0.771981,0.00594821,0.01449,636,1044,-10.959,-0.839682
-581,-20,-10.9645,0.612549,-6.64021e-05,-9.35524e-05,-0.00511321,0.00503325,-0.0051932,-0.784071,0.00590449,0.0224788,643,1044,-10.9646,-0.612562
-574,-20,-11.0519,0.785278,-5.91432e-05,0.000251698,-0.00486561,0.00496437,-0.00477181,-0.801364,0.00562155,0.0371585,650,1044,-11.052,-0.785257
-567,-20,-11.1461,0.970093,-0.000144801,0.000753149,-0.00430309,0.00463062,-0.00402227,-0.837379,0.00499986,0.0430342,657,1044,-11.1461,-0.970126
-560,-20,-10.9553,0.728516,-0.000331041,0.00138416,-0.00344839,0.00407999,-0.00302687,-0.907274,0.00411814,0.0439532,664,1044,-10.9553,-0.728546
-553,-20,-10.7911,0.131592,0,0,0,0,0,0,0,-1,671,1044,-10.7911,-0.13156
-546,-20,-10.8862,0.637817,-0.00136581,0.00289088,-0.00100267,0.00311523,-0.00159017,-1.35067,0.00276382,0.0405742,678,1044,-10.8861,-0.637836
-539,-20,-10.9662,0.748169,-0.00247931,0.00359627,0.000157276,0.00360034,-0.00248338,1.54493,0.00353211,0.0417264,685,1044,-10.9662,-0.748228
-532,-20,-11.0948,0.792358,-0.00442996,0.00419041,0.000246004,0.00419743,-0.00443698,1.54229,0.00498572,0.042802,692,1044,-11.0949,-0.792418
-525,-20,0,0,0,0,0,0,0,0,0,-1,699,1044,0,0
-518,-20,0,0,0,0,0,0,0,0,0,-1,706,1044,0,0
-511,-20,0,0,0,0,0,0,0,0,0,-1,713,1044,0,0
-504,-20,0,0,0,0,0,0,0,0,0,-1,720,1044,0,0
-497,-20,0,0,0,0,0,0,0,0,0,-1,727,1044,0,0
-490,-20,0,0,0,0,0,0,0,0,0,-1,734,1044,0,0
-483,-20,0,0,0,0,0,0,0,0,0,-1,741,1044,0,0
-476,-20,0,0,0,0,0,0,0,0,0,-1,748,1044,0,0
-469,-20,0,0,0,0,0,0,0,0,0,-1,755,1044,0,0
-462,-20,0,0,0,0,0,0,0,0,0,-1,762,1044,0,0
-455,-20,0,0,0,0,0,0,0,0,0,-1,769,1044,0,0
-448,-20,0,0,0,0,0,0,0,0,0,-1,776,1044,0,0
-441,-20,0,0,0,0,0,0,0,0,0,-1,783,1044,0,0
-434,-20,0,0,0,0,0,0,0,0,0,-1,790,1044,0,0
-427,-20,0,0,0,0,0,0,0,0,0,-1,797,1044,0,0
-420,-20,0,0,0,0,0,0,0,0,0,-1,804,1044,0,0
-413,-20,0,0,0,0,0,0,0,0,0,-1,811,1044,0,0
-406,-20,0,0,0,0,0,0,0,0,0,-1,818,1044,0,0
-399,-20,0,0,0,0,0,0,0,0,0,-1,825,1044,0,0
-392,-20,0,0,0,0,0,0,0,0,0,-1,832,1044,0,0
-385,-20,0,0,0,0,0,0,0,0,0,-1,839,1044,0,0
-378,-20,0,0,0,0,0,0,0,0,0,-1,846,1044,0,0
-371,-20,0,0,0,0,0,0,0,0,0,-1,853,1044,0,0
-364,-20,0,0,0,0,0,0,0,0,0,-1,860,1044,0,0
-357,-20,0,0,0,0,0,0,0,0,0,-1,867,1044,0,0
-350,-20,0,0,0,0,0,0,0,0,0,-1,874,1044,0,0
-343,-20,0,0,0,0,0,0,0,0,0,-1,881,1044,0,0
-336,-20,0,0,0,0,0,0,0,0,0,-1,888,1044,0,0
-329,-20,0,0,0,0,0,0,0,0,0,-1,895,1044,0,0
-322,-20,0,0,0,0,0,0,0,0,0,-1,902,1044,0,0
-315,-20,0,0,0,0,0,0,0,0,0,-1,909,1044,0,0
-308,-20,0,0,0,0,0,0,0,0,0,-1,916,1044,0,0
-301,-20,0,0,0,0,0,0,0,0,0,-1,923,1044,0,0
-294,-20,0,0,0,0,0,0,0,0,0,-1,930,1044,0,0
-287,-20,0,0,0,0,0,0,0,0,0,-1,937,1044,0,0
-280,-20,0,0,0,0,0,0,0,0,0,-1,944,1044,0,0
-273,-20,0,0,0,0,0,0,0,0,0,-1,951,1044,0,0
-266,-20,0,0,0,0,0,0,0,0,0,-1,958,1044,0,0
-259,-20,0,0,0,0,0,0,0,0,0,-1,965,1044,0,0
-252,-20,0,0,0,0,0,0,0,0,0,-1,972,1044,0,0
-245,-20,0,0,0,0,0,0,0,0,0,-1,979,1044,0,0
-238,-20,0,0,0,0,0,0,0,0,0,-1,986,1044,0,0
-231,-20,0,0,0,0,0,0,0,0,0,-1,993,1044,0,0
-224,-20,0,0,0,0,0,0,0,0,0,-1,1000,1044,0,0
-217,-20,0,0,0,0,0,0,0,0,0,-1,1007,1044,0,0
-210,-20,0,0,0,0,0,0,0,0,0,-1,1014,1044,0,0
-203,-20,0,0,0,0,0,0,0,0,0,-1,1021,1044,0,0
-196,-20,0,0,0,0,0,0,0,0,0,-1,1028,1044,0,0
-189,-20,0,0,0,0,0,0,0,0,0,-1,1035,1044,0,0
-182,-20,0,0,0,0,0,0,0,0,0,-1,1042,1044,0,0
-175,-20,0,0,0,0,0,0,0,0,0,-1,1049,1044,0,0
-168,-20,0,0,0,0,0,0,0,0,0,-1,1056,1044,0,0
-161,-20,0,0,0,0,0,0,0,0,0,-1,1063,1044,0,0
-154,-20,0,0,0,0,0,0,0,0,0,-1,1070,1044,0,0
-147,-20,0,0,0,0,0,0,0,0,0,-1,1077,1044,0,0
-140,-20,0,0,0,0,0,0,0,0,0,-1,1084,1044,0,0
-133,-20,0,0,0,0,0,0,0,0,0,-1,1091,1044,0,0
-126,-20,0,0,0,0,0,0,0,0,0,-1,1098,1044,0,0
-119,-20,0,0,0,0,0,0,0,0,0,-1,1105,1044,0,0
-112,-20,0,0,0,0,0,0,0,0,0,-1,1112,1044,0,0
-105,-20,0,0,0,0,0,0,0,0,0,-1,1119,1044,0,0
-98,-20,0,0,0,0,0,0,0,0,0,-1,1126,1044,0,0
-91,-20,0,0,0,0,0,0,0,0,0,-1,1133,1044,0,0
-84,-20,0,0,0,0,0,0,0,0,0,-1,1140,1044,0,0
-77,-20,0,0,0,0,0,0,0,0,0,-1,1147,1044,0,0
-70,-20,0,0,0,0,0,0,0,0,0,-1,1154,1044,0,0
-63,-20,0,0,0,0,0,0,0,0,0,-1,1161,1044,0,0
-56,-20,0,0,0,0,0,0,0,0,0,-1,1168,1044,0,0
-49,-20,0,0,0,0,0,0,0,0,0,-1,1175,1044,0,0
-42,-20,0,0,0,0,0,0,0,0,0,-1,1182,1044,0,0
-35,-20,0,0,0,0,0,0,0,0,0,-1,1189,1044,0,0
-28,-20,0,0,0,0,0,0,0,0,0,-1,1196,1044,0,0
-21,-20,0,0,0,0,0,0,0,0,0,-1,1203,1044,0,0
-14,-20,0,0,0,0,0,0,0,0,0,-1,1210,1044,0,0
-7,-20,0,0,0,0,0,0,0,0,0,-1,1217,1044,0,0
0,-20,0,0,0,0,0,0,0,0,0,-1,1224,1044,0,0
7,-20,0,0,0,0,0,0,0,0,0,-1,1231,1044,0,0
14,-20,0,0,0,0,0,0,0,0,0,-1,1238,1044,0,0
21,-20,0,0,0,0,0,0,0,0,0,-1,1245,1044,0,0
28,-20,0,0,0,0,0,0,0,0,0,-1,1252,1044,0,0
35,-20,0,0,0,0,0,0,0,0,0,-1,1259,1044,0,0
42,-20,0,0,0,0,0,0,0,0,0,-1,1266,1044,0,0
49,-20,0,0,0,0,0,0,0,0,0,-1,1273,1044,0,0
56,-20,0,0,0,0,0,0,0,0,0,-1,1280,1044,0,0
63,-20,0,0,0,0,0,0,0,0,0,-1,1287,1044,0,0
70,-20,0,0,0,0,0,0,0,0,0,-1,1294,1044,0,0
77,-20,0,0,0,0,0,0,0,0,0,-1,1301,1044,0,0
84,-20,0,0,0,0,0,0,0,0,0,-1,1308,1044,0,0
91,-20,0,0,0,0,0,0,0,0,0,-1,1315,1044,0,0
98,-20,0,0,0,0,0,0,0,0,0,-1,1322,1044,0,0
105,-20,0,0,0,0,0,0,0,0,0,-1,1329,1044,0,0
112,-20,0,0,0,0,0,0,0,0,0,-1,1336,1044,0,0
119,-20,0,0,0,0,0,0,0,0,0,-1,1343,1044,0,0
126,-20,0,0,0,0,0,0,0,0,0,-1,1350,1044,0,0
133,-20,0,0,0,0,0,0,0,0,0,-1,1357,1044,0,0
140,-20,0,0,0,0,0,0,0,0,0,-1,1364,1044,0,0
147,-20,0,0,0,0,0,0,0,0,0,-1,1371,1044,0,0
154,-20,0,0,0,0,0,0,0,0,0,-1,1378,1044,0,0
161,-20,0,0,0,0,0,0,0,0,0,-1,1385,1044,0,0
168,-20,0,0,0,0,0,0,0,0,0,-1,1392,1044,0,0
175,-20,0,0,0,0,0,0,0,0,0,-1,1399,1044,0,0
182,-20,0,0,0,0,0,0,0,0,0,-1,1406,1044,0,0
189,-20,0,0,0,0,0,0,0,0,0,-1,1413,1044,0,0
196,-20,0,0,0,0,0,0,0,0,0,-1,1420,1044,0,0
203,-20,0,0,0,0,0,0,0,0,0,-1,1427,1044,0,0
210,-20,0,0,0,0,0,0,0,0,0,-1,1434,1044,0,0
217,-20,0,0,0,0,0,0,0,0,0,-1,1441,1044,0,0
224,-20,0,0,0,0,0,0,0,0,0,-1,1448,1044,0,0
231,-20,0,0,0,0,0,0,0,0,0,-1,1455,1044,0,0
238,-20,0,0,0,0,0,0,0,0,0,-1,1462,1044,0,0
245,-20,0,0,0,0,0,0,0,0,0,-1,1469,1044,0,0
252,-20,0,0,0,0,0,0,0,0,0,-1,1476,1044,0,0
259,-20,0,0,0,0,0,0,0,0,0,-1,1483,1044,0,0
266,-20,0,0,0,0,0,0,0,0,0,-1,1490,1044,0,0
273,-20,0,0,0,0,0,0,0,0,0,-1,1497,1044,0,0
280,-20,0,0,0,0,0,0,0,0,0,-1,1504,1044,0,0
287,-20,0,0,0,0,0,0,0,0,0,-1,1511,1044,0,0
294,-20,0,0,0,0,0,0,0,0,0,-1,1518,1044,0,0
301,-20,0,0,0,0,0,0,0,0,0,-1,1525,1044,0,0
308,-20,0,0,0,0,0,0,0,0,0,-1,1532,1044,0,0
315,-20,0,0,0,0,0,0,0,0,0,-1,1539,1044,0,0
322,-20,0,0,0,0,0,0,0,0,0,-1,1546,1044,0,0
329,-20,0,0,0,0,0,0,0,0,0,-1,1553,1044,0,0
336,-20,0,0,0,0,0,0,0,0,0,-1,1560,1044,0,0
343,-20,0,0,0,0,0,0,0,0,0,-1,1567,1044,0,0
350,-20,0,0,0,0,0,0,0,0,0,-1,1574,1044,0,0
357,-20,0,0,0,0,0,0,0,0,0,-1,1581,1044,0,0
364,-20,0,0,0,0,0,0,0,0,0,-1,1588,1044,0,0
371,-20,0,0,0,0,0,0,0,0,0,-1,1595,1044,0,0
378,-20,0,0,0,0,0,0,0,0,0,-1,1602,1044,0,0
385,-20,0,0,0,0,0,0,0,0,0,-1,1609,1044,0,0
392,-20,0,0,0,0,0,0,0,0,0,-1,1616,1044,0,0
399,-20,0,0,0,0,0,0,0,0,0,-1,1623,1044,0,0
406,-20,0,0,0,0,0,0,0,0,0,-1,1630,1044,0,0
413,-20,0,0,0,0,0,0,0,0,0,-1,1637,1044,0,0
420,-20,0,0,0,0,0,0,0,0,0,-1,1644,1044,0,0
427,-20,0,0,0,0,0,0,0,0,0,-1,1651,1044,0,0
434,-20,0,0,0,0,0,0,0,0,0,-1,1658,1044,0,0
441,-20,0,0,0,0,0,0,0,0,0,-1,1665,1044,0,0
448,-20,0,0,0,0,0,0,0,0,0,-1,1672,1044,0,0
455,-20,0,0,0,0,0,0,0,0,0,-1,1679,1044,0,0
462,-20,0,0,0,0,0,0,0,0,0,-1,1686,1044,0,0
469,-20,0,0,0,0,0,0,0,0,0,-1,1693,1044,0,0
476,-20,0,0,0,0,0,0,0,0,0,-1,1700,1044,0,0
483,-20,0,0,0,0,0,0,0,0,0,-1,1707,1044,0,0
490,-20,0,0,0,0,0,0,0,0,0,-1,1714,1044,0,0
497,-20,0,0,0,0,0,0,0,0,0,-1,1721,1044,0,0
504,-20,0,0,0,0,0,0,0,0,0,-1,1728,1044,0,0
511,-20,0,0,0,0,0,0,0,0,0,-1,1735,1044,0,0
518,-20,0,0,0,0,0,0,0,0,0,-1,1742,1044,0,0
525,-20,0,0,0,0,0,0,0,0,0,-1,1749,1044,0,0
532,-20,0,0,0,0,0,0,0,0,0,-1,1756,1044,0,0
539,-20,0,0,0,0,0,0,0,0,0,-1,1763,1044,0,0
546,-20,0,0,0,0,0,0,0,0,0,-1,1770,1044,0,0
553,-20,0,0,0,0,0,0,0,0,0,-1,1777,1044,0,0
560,-20,0,0,0,0,0,0,0,0,0,-1,1784,1044,0,0
567,-20,0,0,0,0,0,0,0,0,0,-1,1791,1044,0,0
574,-20,0,0,0,0,0,0,0,0,0,-1,1798,1044,0,0
581,-20,0,0,0,0,0,0,0,0,0,-1,1805,1044,0,0
588,-20,0,0,0,0,0,0,0,0,0,-1,1812,1044,0,0
595,-20,0,0,0,0,0,0,0,0,0,-1,1819,1044,0,0
602,-20,0,0,0,0,0,0,0,0,0,-1,1826,1044,0,0
609,-20,0,0,0,0,0,0,0,0,0,-1,1833,1044,0,0
616,-20,0,0,0,0,0,0,0,0,0,-1,1840,1044,0,0
623,-20,0,0,0,0,0,0,0,0,0,-1,1847,1044,0,0
630,-20,0,0,0,0,0,0,0,0,0,-1,1854,1044,0,0
637,-20,0,0,0,0,0,0,0,0,0,-1,1861,1044,0,0
644,-20,0,0,0,0,0,0,0,0,0,-1,1868,1044,0,0
651,-20,17.2905,2.22815,0,0,0,0,0,0,0,-1,1875,1044,17.2905,-2.22809
658,-20,17.152,2.1709,0,0,0,0,0,0,0,-1,1882,1044,17.152,-2.17089
665,-20,17.1953,2.37451,0.000611492,0.00272906,0.00343793,0.00526754,-0.001927,0.934775,0.00430043,0.0391186,1889,1044,17.1953,-2.37455
672,-20,17.228,2.40002,0.000597954,0.00224073,0.00297062,0.00450143,-0.00166275,0.92028,0.00368253,0.0249778,1896,1044,17.2281,-2.4
679,-20,17.2017,2.45398,-0.000117725,0.00181718,0.0033976,0.00438238,-0.00268292,0.924101,0.0041183,0.0289028,1903,1044,17.2017,-2.45398
686,-20,17.2467,2.51563,-0.00112114,0.0014313,0.00415827,0.00450479,-0.00419463,0.934291,0.00502368,0.0394419,1910,1044,17.2467,-2.51563
693,-20,17.1785,2.53687,-0.00211965,0.00108318,0.00500282,0.00473464,-0.00577111,0.940296,0.00607533,0.0442335,1917,1044,17.1785,-2.53683
700,-20,17.204,2.5083,-0.00304658,0.000771149,0.00580423,0.00497235,-0.00724778,0.944264,0.00709595,0.0400385,1924,1044,17.204,-2.50828
707,-20,17.2039,2.43665,-0.0037056,0.000528916,0.00633248,0.00508871,-0.0082654,0.94673,0.00778238,0.0296989,1931,1044,17.2038,-2.4367
714,-20,17.1654,2.47815,-0.00431406,0.000291742,0.00668213,0.00505667,-0.00907899,0.951342,0.00827063,0.0221092,1938,1044,17.1654,-2.47817
721,-20,17.2019,2.646,-0.00486813,0.000238318,0.00681836,0.00496582,-0.00959563,0.964548,0.00854753,0.0189173,1945,1044,17.2019,-2.64599
728,-20,16.9744,3.12317,-0.00513738,0.000258682,0.00677128,0.00484966,-0.00972836,0.974984,0.00857229,0.018822,1952,1044,16.9744,-3.12312
735,-20,16.7712,3.36023,-0.00492148,0.000446349,0.00637806,0.00468219,-0.00915732,0.984554,0.0081283,0.0170507,1959,1044,16.7712,-3.36018
742,-20,16.8064,3.40125,-0.00429239,0.000747601,0.00526136,0.00406132,-0.00760611,1.00874,0.00683904,0.0150409,1966,1044,16.8064,-3.40122
749,-20,16.807,3.38269,-0.00322366,0.000351308,0.00304248,0.00209253,-0.00496488,1.05099,0.00418558,0.0158958,1973,1044,16.807,-3.38268
756,-20,16.8135,3.40137,-0.00181109,0.000837991,1.5654e-05,0.000838083,-0.00181118,1.56489,0.00156357,0.0124143,1980,1044,16.8134,-3.40139
763,-20,16.8219,3.40283,-0.000401624,0.00145895,-0.00339341,0.00404729,-0.00298996,-0.919184,0.00407821,0.013517,1987,1044,16.8219,-3.40281
770,-20,16.7958,3.42944,0.00128468,0.00194212,-0.00759589,0.0092164,-0.0059896,-0.807023,0.00884483,0.0125976,1994,1044,16.7958,-3.42944
777,-20,16.7639,3.43909,0.00332278,0.00254168,-0.0126814,0.0156197,-0.00975519,-0.770005,0.01478,0.0120919,2001,1044,16.7639,-3.43912
784,-20,16.7834,3.45642,0.00531043,0.00323787,-0.0184482,0.0227515,-0.0142032,-0.757341,0.0215252,0.0172013,2008,1044,16.7835,-3.45646
791,-20,16.7721,3.23096,0,0,0,0,0,0,0,-1,2015,1044,16.7721,-3.23091
798,-20,17.0183,2.72351,0.00917931,0.00496409,-0.0335553,0.0406931,-0.0265497,-0.754034,0.0391078,0.0433804,2022,1044,17.0183,-2.72347
805,-20,17.1062,2.21729,0.011344,0.00620229,-0.0433951,0.0522443,-0.0346981,-0.755812,0.0505358,0.0411914,2029,1044,17.1062,-2.21724
812,-20,16.6958,2.21924,0.0133593,0.00791484,-0.0547545,0.0654592,-0.0441851,-0.76056,0.0636991,0.0428363,2036,1044,16.6957,-2.21923
-700,-27,-9.95825,1.81787,0,0,0,0,0,0,0,-1,524,1051,-9.95828,-1.81784
-693,-27,-9.37463,1.57129,-0.0192025,0.00184617,-0.00461591,0.00281393,-0.0201702,-1.36413,0.0144763,0.0457527,531,1051,-9.37462,-1.57134
-686,-27,-8.81183,1.33582,-0.0164506,0.00261414,-0.00459345,0.00366316,-0.0174996,-1.34627,0.0130599,0.0444793,538,1051,-8.81183,-1.33587
-679,-27,-8.19928,1.34155,-0.013364,0.00282606,-0.00417185,0.00383783,-0.0143758,-1.33287,0.0110868,0.0460456,545,1051,-8.1993,-1.34158
-672,-27,-12.2571,2.25598,-0.0102685,0.00275074,-0.00356914,0.003665,-0.0111828,-1.32003,0.00893113,0.0462376,552,1051,-12.2571,-2.25595
-665,-27,-10.86,1.29199,0,0,0,0,0,0,0,-1,559,1051,-10.86,-1.29195
-658,-27,-10.9254,1.19739,-0.00497897,0.00226459,-0.00233079,0.00294976,-0.00566415,-1.28488,0.00505488,0.046616,566,1051,-10.9254,-1.19737
-651,-27,-10.8742,1.12366,-0.00308345,0.00195488,-0.00182495,0.00254644,-0.00367501,-1.25733,0.0036116,0.0332131,573,1051,-10.8742,-1.12368
-644,-27,-10.8915,1.07605,-0.00168437,0.00164061,-0.00156496,0.00226131,-0.00230507,-1.1932,0.00263644,0.0139831,580,1051,-10.8916,-1.07605
-637,-27,-10.9153,1.06555,-0.00109464,0.00169654,-0.00229134,0.00298384,-0.00238194,-1.05893,0.00310443,0.0112055,587,1051,-10.9153,-1.0655
-630,-27,-10.951,1.13879,-0.000354125,0.000657356,-0.00246416,0.00266714,-0.00236391,-0.886612,0.00290644,0.0152674,594,1051,-10.9511,-1.13884
-623,-27,-10.9377,1.15698,0.00029359,-0.000128396,-0.00257796,0.00266917,-0.00250398,-0.744567,0.00298723,0.0147719,601,1051,-10.9378,-1.15699
-616,-27,-10.9124,1.15552,0.000717945,5.83499e-05,-0.00326448,0.00366925,-0.00289295,-0.735056,0.00379751,0.0130934,608,1051,-10.9124,-1.15546
-609,-27,-10.8995,1.17981,0.000196136,0.000159517,-0.00416888,0.00434675,-0.0039911,-0.783202,0.00481532,0.0135136,615,1051,-10.8995,-1.17975
-602,-27,-10.9034,1.21936,-0.000177845,-0.000281249,-0.0048004,0.00457113,-0.00503022,-0.780013,0.00554545,0.0114553,622,1051,-10.9034,-1.21933
-595,-27,-10.9319,1.23584,-0.000263959,-0.00041674,-0.00518078,0.00484099,-0.00552169,-0.778026,0.0059872,0.0100141,629,1051,-10.9319,-1.23583
-588,-27,-10.955,0.928223,-0.000180267,-0.000365527,-0.00537593,0.00510383,-0.00564962,-0.776784,0.00621117,0.0135969,636,1051,-10.9549,-0.928272
-581,-27,-10.954,0.588623,-0.000201339,-0.000174498,-0.00534359,0.00515569,-0.00553153,-0.786654,0.00617154,0.0188601,643,1051,-10.954,-0.588617
-574,-27,-10.9733,0.57666,-0.000187017,0.000125013,-0.00510417,0.00507556,-0.00513756,-0.800676,0.00589658,0.0337827,650,1051,-10.9733,-0.576674
-567,-27,-10.9971,0.772217,-0.000250174,0.000562746,-0.00453714,0.0047116,-0.00439903,-0.830071,0.00526106,0.0441486,657,1051,-10.9972,-0.772188
-560,-27,-10.9972,0.976196,-0.000397794,0.00111393,-0.00366312,0.00409836,-0.00338222,-0.887142,0.00432551,0.0489833,664,1051,-10.9972,-0.976167
-553,-27,-10.7347,0.20813,-0.000701127,0.00174722,-0.00251701,0.00332197,-0.00227587,-1.01174,0.00325067,0.0415089,671,1051,-10.7347,-0.208134
-546,-27,-10.7372,0.422363,-0.00128482,0.00242407,-0.0011316,0.00274206,-0.00160281,-1.29685,0.00253709,0.0395588,678,1051,-10.7372,-0.422306
-539,-27,-10.7722,0.610352,-0.00228612,0.0030252,0.000102672,0.00302718,-0.0022881,1.55148,0.00307865,0.0411238,685,1051,-10.7721,-0.610391
-532,-27,-11.0657,0.929199,-0.00409807,0.00350322,0.000224866,0.00350987,-0.00410472,1.54125,0.00440075,0.0439741,692,1051,-11.0657,-0.92924
-525,-27,0,0,0,0,0,0,0,0,0,-1,699,1051,0,0
-518,-27,0,0,0,0,0,0,0,0,0,-1,706,1051,0,0
-511,-27,0,0,0,0,0,0,0,0,0,-1,713,1051,0,0
-504,-27,0,0,0,0,0,0,0,0,0,-1,720,1051,0,0
-497,-27,0,0,0,0,0,0,0,0,0,-1,727,1051,0,0
-490,-27,0,0,0,0,0,0,0,0,0,-1,734,1051,0,0
-483,-27,0,0,0,0,0,0,0,0,0,-1,741,1051,0,0
-476,-27,0,0,0,0,0,0,0,0,0,-1,748,1051,0,0
-469,-27,0,0,0,0,0,0,0,0,0,-1,755,1051,0,0
-462,-27,0,0,0,0,0,0,0,0,0,-1,762,1051,0,0
-455,-27,0,0,0,0,0,0,0,0,0,-1,769,1051,0,0
-448,-27,0,0,0,0,0,0,0,0,0,-1,776,1051,0,0
-441,-27,0,0,0,0,0,0,0,0,0,-1,783,1051,0,0
-434,-27,0,0,0,0,0,0,0,0,0,-1,790,1051,0,0
-427,-27,0,0,0,0,0,0,0,0,0,-1,797,1051,0,0
-420,-27,0,0,0,0,0,0,0,0,0,-1,804,1051,0,0
-413,-27,0,0,0,0,0,0,0,0,0,-1,811,1051,0,0
-406,-27,0,0,0,0,0,0,0,0,0,-1,818,1051,0,0
-399,-27,0,0,0,0,0,0,0,0,0,-1,825,1051,0,0
-392,-27,0,0,0,0,0,0,0,0,0,-1,832,1051,0,0
-385,-27,0,0,0,0,0,0,0,0,0,-1,839,1051,0,0
-378,-27,0,0,0,0,0,0,0,0,0,-1,846,1051,0,0
-371,-27,0,0,0,0,0,0,0,0,0,-1,853,1051,0,0
-364,-27,0,0,0,0,0,0,0,0,0,-1,860,1051,0,0
-357,-27,0,0,0,0,0,0,0,0,0,-1,867,1051,0,0
-350,-27,0,0,0,0,0,0,0,0,0,-1,874,1051,0,0
-343,-27,0,0,0,0,0,0,0,0,0,-1,881,1051,0,0
-336,-27,0,0,0,0,0,0,0,0,0,-1,888,1051,0,0
-329,-27,0,0,0,0,0,0,0,0,0,-1,895,1051,0,0
-322,-27,0,0,0,0,0,0,0,0,0,-1,902,1051,0,0
-315,-27,0,0,0,0,0,0,0,0,0,-1,909,1051,0,0
-308,-27,0,0,0,0,0,0,0,0,0,-1,916,1051,0,0
-301,-27,0,0,0,0,0,0,0,0,0,-1,923,1051,0,0
-294,-27,0,0,0,0,0,0,0,0,0,-1,930,1051,0,0
-287,-27,0,0,0,0,0,0,0,0,0,-1,937,1051,0,0
-280,-27,0,0,0,0,0,0,0,0,0,-1,944,1051,0,0
-273,-27,0,0,0,0,0,0,0,0,0,-1,951,1051,0,0
-266,-27,0,0,0,0,0,0,0,0,0,-1,958,1051,0,0
-259,-27,0,0,0,0,0,0,0,0,0,-1,965,1051,0,0
-252,-27,0,0,0,0,0,0,0,0,0,-1,972,1051,0,0
-245,-27,0,0,0,0,0,0,0,0,0,-1,979,1051,0,0
-238,-27,0,0,0,0,0,0,0,0,0,-1,986,1051,0,0
-231,-27,0,0,0,0,0,0,0,0,0,-1,993,1051,0,0
-224,-27,0,0,0,0,0,0,0,0,0,-1,1000,1051,0,0
-217,-27,0,0,0,0,0,0,0,0,0,-1,1007,1051,0,0
-210,-27,0,0,0,0,0,0,0,0,0,-1,1014,1051,0,0
-203,-27,0,0,0,0,0,0,0,0,0,-1,1021,1051,0,0
-196,-27,0,0,0,0,0,0,0,0,0,-1,1028,1051,0,0
-189,-27,0,0,0,0,0,0,0,0,0,-1,1035,1051,0,0
-182,-27,0,0,0,0,0,0,0,0,0,-1,1042,1051,0,0
-175,-27,0,0,0,0,0,0,0,0,0,-1,1049,1051,0,0
-168,-27,0,0,0,0,0,0,0,0,0,-1,1056,1051,0,0
-161,-27,0,0,0,0,0,0,0,0,0,-1,1063,1051,0,0
-154,-27,0,0,0,0,0,0,0,0,0,-1,1070,1051,0,0
-147,-27,0,0,0,0,0,0,0,0,0,-1,1077,1051,0,0
-140,-27,0,0,0,0,0,0,0,0,0,-1,1084,1051,0,0
-133,-27,0,0,0,0,0,0,0,0,0,-1,1091,1051,0,0
-126,-27,0,0,0,0,0,0,0,0,0,-1,1098,1051,0,0
-119,-27,0,0,0,0,0,0,0,0,0,-1,1105,1051,0,0
-112,-27,0,0,0,0,0,0,0,0,0,-1,1112,1051,0,0
-105,-27,0,0,0,0,0,0,0,0,0,-1,1119,1051,0,0
-98,-27,0,0,0,0,0,0,0,0,0,-1,1126,1051,0,0
-91,-27,0,0,0,0,0,0,0,0,0,-1,1133,1051,0,0
-84,-27,0,0,0,0,0,0,0,0,0,-1,1140,1051,0,0
-77,-27,0,0,0,0,0,0,0,0,0,-1,1147,1051,0,0
-70,-27,0,0,0,0,0,0,0,0,0,-1,1154,1051,0,0
-63,-27,0,0,0,0,0,0,0,0,0,-1,1161,1051,0,0
-56,-27,0,0,0,0,0,0,0,0,0,-1,1168,1051,0,0
-49,-27,0,0,0,0,0,0,0,0,0,-1,1175,1051,0,0
-42,-27,0,0,0,0,0,0,0,0,0,-1,1182,1051,0,0
-35,-27,0,0,0,0,0,0,0,0,0,-1,1189,1051,0,0
-28,-27,0,0,0,0,0,0,0,0,0,-1,1196,1051,0,0
-21,-27,0,0,0,0,0,0,0,0,0,-1,1203,1051,0,0
-14,-27,0,0,0,0,0,0,0,0,0,-1,1210,1051,0,0
-7,-27,0,0,0,0,0,0,0,0,0,-1,1217,1051,0,0
0,-27,0,0,0,0,0,0,0,0,0,-1,1224,1051,0,0
7,-27,0,0,0,0,0,0,0,0,0,-1,1231,1051,0,0
14,-27,0,0,0,0,0,0,0,0,0,-1,1238,1051,0,0
21,-27,0,0,0,0,0,0,0,0,0,-1,1245,1051,0,0
28,-27,0,0,0,0,0,0,0,0,0,-1,1252,1051,0,0
35,-27,0,0,0,0,0,0,0,0,0,-1,1259,1051,0,0
42,-27,0,0,0,0,0,0,0,0,0,-1,1266,1051,0,0
49,-27,0,0,0,0,0,0,0,0,0,-1,1273,1051,0,0
56,-27,0,0,0,0,0,0,0,0,0,-1,1280,1051,0,0
63,-27,0,0,0,0,0,0,0,0,0,-1,1287,1051,0,0
70,-27,0,0,0,0,0,0,0,0,0,-1,1294,1051,0,0
77,-27,0,0,0,0,0,0,0,0,0,-1,1301,1051,0,0
84,-27,0,0,0,0,0,0,0,0,0,-1,1308,1051,0,0
91,-27,0,0,0,0,0,0,0,0,0,-1,1315,1051,0,0
98,-27,0,0,0,0,0,0,0,0,0,-1,1322,1051,0,0
105,-27,0,0,0,0,0,0,0,0,0,-1,1329,1051,0,0
112,-27,0,0,0,0,0,0,0,0,0,-1,1336,1051,0,0
119,-27,0,0,0,0,0,0,0,0,0,-1,1343,1051,0,0
126,-27,0,0,0,0,0,0,0,0,0,-1,1350,1051,0,0
133,-27,0,0,0,0,0,0,0,0,0,-1,1357,1051,0,0
140,-27,0,0,0,0,0,0,0,0,0,-1,1364,1051,0,0
147,-27,0,0,0,0,0,0,0,0,0,-1,1371,1051,0,0
154,-27,0,0,0,0,0,0,0,0,0,-1,1378,1051,0,0
161,-27,0,0,0,0,0,0,0,0,0,-1,1385,1051,0,0
168,-27,0,0,0,0,0,0,0,0,0,-1,1392,1051,0,0
175,-27,0,0,0,0,0,0,0,0,0,-1,1399,1051,0,0
182,-27,0,0,0,0,0,0,0,0,0,-1,1406,1051,0,0
189,-27,0,0,0,0,0,0,0,0,0,-1,1413,1051,0,0
196,-27,0,0,0,0,0,0,0,0,0,-1,1420,1051,0,0
203,-27,0,0,0,0,0,0,0,0,0,-1,1427,1051,0,0
210,-27,0,0,0,0,0,0,0,0,0,-1,1434,1051,0,0
217,-27,0,0,0,0,0,0,0,0,0,-1,1441,1051,0,0
224,-27,0,0,0,0,0,0,0,0,0,-1,1448,1051,0,0
231,-27,0,0,0,0,0,0,0,0,0,-1,1455,1051,0,0
238,-27,0,0,0,0,0,0,0,0,0,-1,1462,1051,0,0
245,-27,0,0,0,0,0,0,0,0,0,-1,1469,1051,0,0
252,-27,0,0,0,0,0,0,0,0,0,-1,1476,1051,0,0
259,-27,0,0,0,0,0,0,0,0,0,-1,1483,1051,0,0
266,-27,0,0,0,0,0,0,0,0,0,-1,1490,1051,0,0
273,-27,0,0,0,0,0,0,0,0,0,-1,1497,1051,0,0
280,-27,0,0,0,0,0,0,0,0,0,-1,1504,1051,0,0
287,-27,0,0,0,0,0,0,0,0,0,-1,1511,1051,0,0
294,-27,0,0,0,0,0,0,0,0,0,-1,1518,1051,0,0
301,-27,0,0,0,0,0,0,0,0,0,-1,1525,1051,0,0
308,-27,0,0,0,0,0,0,0,0,0,-1,1532,1051,0,0
315,-27,0,0,0,0,0,0,0,0,0,-1,1539,1051,0,0
322,-27,0,0,0,0,0,0,0,0,0,-1,1546,1051,0,0
329,-27,0,0,0,0,0,0,0,0,0,-1,1553,1051,0,0
336,-27,0,0,0,0,0,0,0,0,0,-1,1560,1051,0,0
343,-27,0,0,0,0,0,0,0,0,0,-1,1567,1051,0,0
350,-27,0,0,0,0,0,0,0,0,0,-1,1574,1051,0,0
357,-27,0,0,0,0,0,0,0,0,0,-1,1581,1051,0,0
364,-27,0,0,0,0,0,0,0,0,0,-1,1588,1051,0,0
371,-27,0,0,0,0,0,0,0,0,0,-1,1595,1051,0,0
378,-27,0,0,0,0,0,0,0,0,0,-1,1602,1051,0,0
385,-27,0,0,0,0,0,0,0,0,0,-1,1609,1051,0,0
392,-27,0,0,0,0,0,0,0,0,0,-1,1616,1051,0,0
399,-27,0,0,0,0,0,0,0,0,0,-1,1623,1051,0,0
406,-27,0,0,0,0,0,0,0,0,0,-1,1630,1051,0,0
413,-27,0,0,0,0,0,0,0,0,0,-1,1637,1051,0,0
420,-27,0,0,0,0,0,0,0,0,0,-1,1644,1051,0,0
427,-27,0,0,0,0,0,0,0,0,0,-1,1651,1051,0,0
434,-27,0,0,0,0,0,0,0,0,0,-1,1658,1051,0,0
441,-27,0,0,0,0,0,0,0,0,0,-1,1665,1051,0,0
448,-27,0,0,0,0,0,0,0,0,0,-1,1672,1051,0,0
455,-27,0,0,0,0,0,0,0,0,0,-1,1679,1051,0,0
462,-27,0,0,0,0,0,0,0,0,0,-1,1686,1051,0,0
469,-27,0,0,0,0,0,0,0,0,0,-1,1693,1051,0,0
476,-27,0,0,0,0,0,0,0,0,0,-1,1700,1051,0,0
483,-27,0,0,0,0,0,0,0,0,0,-1,1707,1051,0,0
490,-27,0,0,0,0,0,0,0,0,0,-1,1714,1051,0,0
497,-27,0,0,0,0,0,0,0,0,0,-1,1721,1051,0,0
504,-27,0,0,0,0,0,0,0,0,0,-1,1728,1051,0,0
511,-27,0,0,0,0,0,0,0,0,0,-1,1735,1051,0,0
518,-27,0,0,0,0,0,0,0,0,0,-1,1742,1051,0,0
525,-27,0,0,0,0,0,0,0,0,0,-1,1749,1051,0,0
532,-27,0,0,0,0,0,0,0,0,0,-1,1756,1051,0,0
539,-27,0,0,0,0,0,0,0,0,0,-1,1763,1051,0,0
546,-27,0,0,0,0,0,0,0,0,0,-1,1770,1051,0,0
553,-27,0,0,0,0,0,0,0,0,0,-1,1777,1051,0,0
560,-27,0,0,0,0,0,0,0,0,0,-1,1784,1051,0,0
567,-27,0,0,0,0,0,0,0,0,0,-1,1791,1051,0,0
574,-27,0,0,0,0,0,0,0,0,0,-1,1798,1051,0,0
581,-27,0,0,0,0,0,0,0,0,0,-1,1805,1051,0,0
588,-27,0,0,0,0,0,0,0,0,0,-1,1812,1051,0,0
595,-27,0,0,0,0,0,0,0,0,0,-1,1819,1051,0,0
602,-27,0,0,0,0,0,0,0,0,0,-1,1826,1051,0,0
609,-27,0,0,0,0,0,0,0,0,0,-1,1833,1051,0,0
616,-27,0,0,0,0,0,0,0,0,0,-1,1840,1051,0,0
623,-27,0,0,0,0,0,0,0,0,0,-1,1847,1051,0,0
630,-27,0,0,0,0,0,0,0,0,0,-1,1854,1051,0,0
637,-27,0,0,0,0,0,0,0,0,0,-1,1861,1051,0,0
644,-27,0,0,0,0,0,0,0,0,0,-1,1868,1051,0,0
651,-27,17.1444,2.32654,-0.00138412,0.0030837,0.00597633,0.00722998,-0.0055304,0.964255,0.00738896,0.0400462,1875,1051,17.1445,-2.32653
658,-27,16.9974,2.45129,-0.000141764,0.00278547,0.00450071,0.00605457,-0.00341086,0.942603,0.00553546,0.0409149,1882,1051,16.9975,-2.45132
665,-27,17.05,2.35706,0.000430181,0.00247502,0.00322422,0.00483504,-0.00192984,0.938936,0.00402397,0.0383946,1889,1051,17.0501,-2.35701
672,-27,17.1198,2.41711,0.000618688,0.00218885,0.00283319,0.00434372,-0.00153618,0.920557,0.00352139,0.0304692,1896,1051,17.1198,-2.41706
679,-27,17.0149,2.38257,3.25277e-05,0.00185106,0.00336157,0.00442416,-0.00254058,0.917481,0.00406982,0.0313205,1903,1051,17.0149,-2.3826
686,-27,17.2053,2.39111,-0.000913814,0.00148282,0.00421516,0.00466668,-0.00409768,0.923888,0.00506366,0.0432349,1910,1051,17.2053,-2.39107
693,-27,17.0653,2.46509,-0.00189059,0.00110695,0.00513533,0.00495775,-0.00574139,0.927382,0.00618267,0.0463827,1917,1051,17.0653,-2.46507
700,-27,17.1492,2.45361,-0.00280929,0.000757579,0.00599724,0.00523094,-0.00728265,0.929922,0.00725703,0.0404691,1924,1051,17.1492,-2.45358
707,-27,17.1672,2.36292,-0.0034412,0.000479064,0.00657352,0.00537848,-0.00834061,0.930294,0.00798202,0.0229282,1931,1051,17.1672,-2.36294
714,-27,17.1412,2.43628,-0.00404058,0.000180149,0.00694119,0.0053247,-0.00918513,0.932975,0.00847551,0.0165961,1938,1051,17.1412,-2.43627
721,-27,17.1731,2.57385,-0.00463552,6.21451e-05,0.00707168,0.00516486,-0.00973824,0.945739,0.00873831,0.018568,1945,1051,17.1731,-2.57391
728,-27,17.0211,3.13599,-0.00497426,5.47825e-05,0.00699751,0.00497585,-0.00989533,0.957886,0.00874107,0.0224602,1952,1051,17.0211,-3.13604
735,-27,16.78,3.39661,-0.00479047,0.000190227,0.00655924,0.00471596,-0.00931621,0.966828,0.00824532,0.017165,1959,1051,16.78,-3.3966
742,-27,16.7852,3.42273,-0.00411429,0.000509509,0.00543282,0.00410188,-0.00770666,0.986563,0.00692274,0.0160706,1966,1051,16.7852,-3.42272
749,-27,16.795,3.40625,-0.00295421,2.28495e-05,0.00322071,0.00208238,-0.00501373,1.00186,0.00421185,0.0114964,1973,1051,16.7951,-3.40629
756,-27,16.806,3.41675,-0.00153773,0.000365058,0.000270888,0.000402871,-0.00157555,1.4321,0.00120727,0.0107943,1980,1051,16.806,-3.41672
763,-27,16.8109,3.40198,-0.000107332,0.000829733,-0.00298179,0.00337958,-0.00265718,-0.863327,0.00349363,0.0126709,1987,1051,16.8109,-3.40198
770,-27,16.7729,3.40271,0.00165057,0.00110225,-0.00704134,0.00842309,-0.00567027,-0.76594,0.00818838,0.0138335,1994,1051,16.773,-3.40271
777,-27,16.7509,3.42822,0.00375859,0.00137927,-0.0118995,0.0145277,-0.00938985,-0.735576,0.0139146,0.0139421,2001,1051,16.7508,-3.42828
784,-27,16.7936,3.48511,0.00580575,0.00157532,-0.0173183,0.0211375,-0.0137564,-0.72463,0.0202957,0.0222244,2008,1051,16.7936,-3.48517
791,-27,17.2365,3.69067,0,0,0,0,0,0,0,-1,2015,1051,17.2365,-3.69061
798,-27,17.5072,3.15027,0.00975158,0.00171268,-0.031474,0.0374618,-0.0259975,-0.721889,0.036837,0.0473701,2022,1051,17.5072,-3.1503
805,-27,17.7659,2.26392,0.0118459,0.00176016,-0.0406851,0.0477995,-0.0341934,-0.723739,0.0475554,0.0437641,2029,1051,17.7659,-2.26397
812,-27,17.2771,2.20972,0.0135813,0.00190812,-0.051265,0.0593409,-0.0438515,-0.728717,0.0598014,0.0446608,2036,1051,17.277,-2.20977
-700,-34,-10.1564,1.80896,0,0,0,0,0,0,0,-1,524,1058,-10.1564,-1.80894
-693,-34,-9.56384,1.60046,0,0,0,0,0,0,0,-1,531,1058,-9.56385,-1.60048
-686,-34,-10.644,1.30298,0,0,0,0,0,0,0,-1,538,1058,-10.644,-1.30292
-679,-34,-7.95294,1.43945,0,0,0,0,0,0,0,-1,545,1058,-7.95295,-1.43941
-672,-34,-12.7504,2.27258,0,0,0,0,0,0,0,-1,552,1058,-12.7504,-2.27252
-665,-34,-11.0311,0.145142,-0.00755501,0.00199635,-0.00322496,0.00298326,-0.00854192,-1.27382,0.00690723,0.04402,559,1058,-11.0311,-0.145174
-658,-34,-10.8776,1.15247,-0.0051853,0.0019582,-0.00223474,0.00259969,-0.0058268,-1.29126,0.00498254,0.0443686,566,1058,-10.8776,-1.15252
-651,-34,-10.7455,1.00171,-0.0032873,0.00180905,-0.00152221,0.00222909,-0.00370734,-1.30155,0.00346264,0.0274018,573,1058,-10.7455,-1.00177
-644,-34,-10.8885,1.03345,-0.00186087,0.00159815,-0.00117314,0.00195849,-0.00222121,-1.27279,0.00241474,0.0102098,580,1058,-10.8886,-1.03342
-637,-34,-10.9024,1.05762,-0.00132329,0.00166382,-0.00175263,0.00247297,-0.00213244,-1.13828,0.00266136,0.0110475,587,1058,-10.9024,-1.05758
-630,-34,-10.9207,1.12695,-0.000533447,0.000664747,-0.00206087,0.00221183,-0.00208053,-0.92685,0.00247858,0.0144917,594,1058,-10.9207,-1.12691
-623,-34,-10.9095,1.14026,0.000119404,-8.44909e-05,-0.00234643,0.0023661,-0.00233118,-0.763688,0.002712,0.0130732,601,1058,-10.9095,-1.14025
-616,-34,-10.8821,1.16467,0.000571535,0.000100847,-0.00314518,0.00349016,-0.00281778,-0.748054,0.00364878,0.0190648,608,1058,-10.8821,-1.16471
-609,-34,-10.8749,1.17749,0.000104469,0.00016751,-0.00414569,0.0042818,-0.00400982,-0.7892,0.00478802,0.0188325,615,1058,-10.8749,-1.17753
-602,-34,-10.8792,1.21301,-0.000243601,-0.000333903,-0.00482551,0.00453696,-0.00511447,-0.78072,0.00557558,0.0153661,622,1058,-10.8792,-1.21302
-595,-34,-10.8789,1.36047,0,0,0,0,0,0,0,-1,629,1058,-10.8789,-1.36044
-588,-34,-10.921,0.919067,-0.000268947,-0.00052858,-0.00545755,0.00506033,-0.00585785,-0.773507,0.00630922,0.0174873,636,1058,-10.9209,-0.919009
-581,-34,-10.9316,0.596436,-0.000236831,-0.000368123,-0.00542857,0.00512649,-0.00573144,-0.779352,0.00627207,0.0211905,643,1058,-10.9316,-0.596462
-574,-34,-10.8867,0.605835,-0.000178146,-0.000121259,-0.00518848,0.00503885,-0.00533826,-0.788139,0.00599206,0.0344417,650,1058,-10.8866,-0.605885
-567,-34,-10.8999,0.491699,0,0,0,0,0,0,0,-1,657,1058,-10.8999,-0.491751
-560,-34,-10.8733,0.465332,-0.000212543,0.000713055,-0.00373485,0.00401367,-0.00351316,-0.847041,0.00434881,0.0425231,664,1058,-10.8733,-0.465307
-553,-34,-10.7717,0.243042,-0.000372298,0.00124813,-0.00258077,0.00314288,-0.00226705,-0.937497,0.00313704,0.0423001,671,1058,-10.7717,-0.243092
-546,-34,-10.7678,0.383545,-0.000757596,0.00181812,-0.00118616,0.00228113,-0.00122061,-1.19864,0.0020524,0.0432744,678,1058,-10.7678,-0.383503
-539,-34,-10.8846,0.684937,-0.00151536,0.00231275,4.67504e-05,0.00231332,-0.00151593,1.55859,0.00222673,0.041113,685,1058,-10.8846,-0.684933
-532,-34,-11.0199,0.78064,-0.00305153,0.00265722,7.51864e-05,0.00265821,-0.00305252,1.55763,0.00329971,0.0407878,692,1058,-11.0199,-0.780601
-525,-34,0,0,0,0,0,0,0,0,0,-1,699,1058,0,0
-518,-34,0,0,0,0,0,0,0,0,0,-1,706,1058,0,0
-511,-34,0,0,0,0,0,0,0,0,0,-1,713,1058,0,0
-504,-34,0,0,0,0,0,0,0,0,0,-1,720,1058,0,0
-497,-34,0,0,0,0,0,0,0,0,0,-1,727,1058,0,0
-490,-34,0,0,0,0,0,0,0,0,0,-1,734,1058,0,0
-483,-34,0,0,0,0,0,0,0,0,0,-1,741,1058,0,0
-476,-34,0,0,0,0,0,0,0,0,0,-1,748,1058,0,0
-469,-34,0,0,0,0,0,0,0,0,0,-1,755,1058,0,0
-462,-34,0,0,0,0,0,0,0,0,0,-1,762,1058,0,0
-455,-34,0,0,0,0,0,0,0,0,0,-1,769,1058,0,0
-448,-34,0,0,0,0,0,0,0,0,0,-1,776,1058,0,0
-441,-34,0,0,0,0,0,0,0,0,0,-1,783,1058,0,0
-434,-34,0,0,0,0,0,0,0,0,0,-1,790,1058,0,0
-427,-34,0,0,0,0,0,0,0,0,0,-1,797,1058,0,0
-420,-34,0,0,0,0,0,0,0,0,0,-1,804,1058,0,0
-413,-34,0,0,0,0,0,0,0,0,0,-1,811,1058,0,0
-406,-34,0,0,0,0,0,0,0,0,0,-1,818,1058,0,0
-399,-34,0,0,0,0,0,0,0,0,0,-1,825,1058,0,0
-392,-34,0,0,0,0,0,0,0,0,0,-1,832,1058,0,0
-385,-34,0,0,0,0,0,0,0,0,0,-1,839,1058,0,0
-378,-34,0,0,0,0,0,0,0,0,0,-1,846,1058,0,0
-371,-34,0,0,0,0,0,0,0,0,0,-1,853,1058,0,0
-364,-34,0,0,0,0,0,0,0,0,0,-1,860,1058,0,0
-357,-34,0,0,0,0,0,0,0,0,0,-1,867,1058,0,0
-350,-34,0,0,0,0,0,0,0,0,0,-1,874,1058,0,0
-343,-34,0,0,0,0,0,0,0,0,0,-1,881,1058,0,0
-336,-34,0,0,0,0,0,0,0,0,0,-1,888,1058,0,0
-329,-34,0,0,0,0,0,0,0,0,0,-1,895,1058,0,0
-322,-34,0,0,0,0,0,0,0,0,0,-1,902,1058,0,0
-315,-34,0,0,0,0,0,0,0,0,0,-1,909,1058,0,0
-308,-34,0,0,0,0,0,0,0,0,0,-1,916,1058,0,0
-301,-34,0,0,0,0,0,0,0,0,0,-1,923,1058,0,0
-294,-34,0,0,0,0,0,0,0,0,0,-1,930,1058,0,0
-287,-34,0,0,0,0,0,0,0,0,0,-1,937,1058,0,0
-280,-34,0,0,0,0,0,0,0,0,0,-1,944,1058,0,0
-273,-34,0,0,0,0,0,0,0,0,0,-1,951,1058,0,0
-266,-34,0,0,0,0,0,0,0,0,0,-1,958,1058,0,0
-259,-34,0,0,0,0,0,0,0,0,0,-1,965,1058,0,0
-252,-34,0,0,0,0,0,0,0,0,0,-1,972,1058,0,0
-245,-34,0,0,0,0,0,0,0,0,0,-1,979,1058,0,0
-238,-34,0,0,0,0,0,0,0,0,0,-1,986,1058,0,0
-231,-34,0,0,0,0,0,0,0,0,0,-1,993,1058,0,0
-224,-34,0,0,0,0,0,0,0,0,0,-1,1000,1058,0,0
-217,-34,0,0,0,0,0,0,0,0,0,-1,1007,1058,0,0
-210,-34,0,0,0,0,0,0,0,0,0,-1,1014,1058,0,0
-203,-34,0,0,0,0,0,0,0,0,0,-1,1021,1058,0,0
-196,-34,0,0,0,0,0,0,0,0,0,-1,1028,1058,0,0
-189,-34,0,0,0,0,0,0,0,0,0,-1,1035,1058,0,0
-182,-34,0,0,0,0,0,0,0,0,0,-1,1042,1058,0,0
-175,-34,0,0,0,0,0,0,0,0,0,-1,1049,1058,0,0
-168,-34,0,0,0,0,0,0,0,0,0,-1,1056,1058,0,0
-161,-34,0,0,0,0,0,0,0,0,0,-1,1063,1058,0,0
-154,-34,0,0,0,0,0,0,0,0,0,-1,1070,1058,0,0
-147,-34,0,0,0,0,0,0,0,0,0,-1,1077,1058,0,0
-140,-34,0,0,0,0,0,0,0,0,0,-1,1084,1058,0,0
-133,-34,0,0,0,0,0,0,0,0,0,-1,1091,1058,0,0
-126,-34,0,0,0,0,0,0,0,0,0,-1,1098,1058,0,0
-119,-34,0,0,0,0,0,0,0,0,0,-1,1105,1058,0,0
-112,-34,0,0,0,0,0,0,0,0,0,-1,1112,1058,0,0
-105,-34,0,0,0,0,0,0,0,0,0,-1,1119,1058,0,0
-98,-34,0,0,0,0,0,0,0,0,0,-1,1126,1058,0,0
-91,-34,0,0,0,0,0,0,0,0,0,-1,1133,1058,0,0
-84,-34,0,0,0,0,0,0,0,0,0,-1,1140,1058,0,0
-77,-34,0,0,0,0,0,0,0,0,0,-1,1147,1058,0,0
-70,-34,0,0,0,0,0,0,0,0,0,-1,1154,1058,0,0
-63,-34,0,0,0,0,0,0,0,0,0,-1,1161,1058,0,0
-56,-34,0,0,0,0,0,0,0,0,0,-1,1168,1058,0,0
-49,-34,0,0,0,0,0,0,0,0,0,-1,1175,1058,0,0
-42,-34,0,0,0,0,0,0,0,0,0,-1,1182,1058,0,0
-35,-34,0,0,0,0,0,0,0,0,0,-1,1189,1058,0,0
-28,-34,0,0,0,0,0,0,0,0,0,-1,1196,1058,0,0
-21,-34,0,0,0,0,0,0,0,0,0,-1,1203,1058,0,0
-14,-34,0,0,0,0,0,0,0,0,0,-1,1210,1058,0,0
-7,-34,0,0,0,0,0,0,0,0,0,-1,1217,1058,0,0
0,-34,0,0,0,0,0,0,0,0,0,-1,1224,1058,0,0
7,-34,0,0,0,0,0,0,0,0,0,-1,1231,1058,0,0
14,-34,0,0,0,0,0,0,0,0,0,-1,1238,1058,0,0
21,-34,0,0,0,0,0,0,0,0,0,-1,1245,1058,0,0
28,-34,0,0,0,0,0,0,0,0,0,-1,1252,1058,0,0
35,-34,0,0,0,0,0,0,0,0,0,-1,1259,1058,0,0
42,-34,0,0,0,0,0,0,0,0,0,-1,1266,1058,0,0
49,-34,0,0,0,0,0,0,0,0,0,-1,1273,1058,0,0
56,-34,0,0,0,0,0,0,0,0,0,-1,1280,1058,0,0
63,-34,0,0,0,0,0,0,0,0,0,-1,1287,1058,0,0
70,-34,0,0,0,0,0,0,0,0,0,-1,1294,1058,0,0
77,-34,0,0,0,0,0,0,0,0,0,-1,1301,1058,0,0
84,-34,0,0,0,0,0,0,0,0,0,-1,1308,1058,0,0
91,-34,0,0,0,0,0,0,0,0,0,-1,1315,1058,0,0
98,-34,0,0,0,0,0,0,0,0,0,-1,1322,1058,0,0
105,-34,0,0,0,0,0,0,0,0,0,-1,1329,1058,0,0
112,-34,0,0,0,0,0,0,0,0,0,-1,1336,1058,0,0
119,-34,0,0,0,0,0,0,0,0,0,-1,1343,1058,0,0
126,-34,0,0,0,0,0,0,0,0,0,-1,1350,1058,0,0
133,-34,0,0,0,0,0,0,0,0,0,-1,1357,1058,0,0
140,-34,0,0,0,0,0,0,0,0,0,-1,1364,1058,0,0
147,-34,0,0,0,0,0,0,0,0,0,-1,1371,1058,0,0
154,-34,0,0,0,0,0,0,0,0,0,-1,1378,1058,0,0
161,-34,0,0,0,0,0,0,0,0,0,-1,1385,1058,0,0
168,-34,0,0,0,0,0,0,0,0,0,-1,1392,1058,0,0
175,-34,0,0,0,0,0,0,0,0,0,-1,1399,1058,0,0
182,-34,0,0,0,0,0,0,0,0,0,-1,1406,1058,0,0
189,-34,0,0,0,0,0,0,0,0,0,-1,1413,1058,0,0
196,-34,0,0,0,0,0,0,0,0,0,-1,1420,1058,0,0
203,-34,0,0,0,0,0,0,0,0,0,-1,1427,1058,0,0
210,-34,0,0,0,0,0,0,0,0,0,-1,1434,1058,0,0
217,-34,0,0,0,0,0,0,0,0,0,-1,1441,1058,0,0
224,-34,0,0,0,0,0,0,0,0,0,-1,1448,1058,0,0
231,-34,0,0,0,0,0,0,0,0,0,-1,1455,1058,0,0
238,-34,0,0,0,0,0,0,0,0,0,-1,1462,1058,0,0
245,-34,0,0,0,0,0,0,0,0,0,-1,1469,1058,0,0
252,-34,0,0,0,0,0,0,0,0,0,-1,1476,1058,0,0
259,-34,0,0,0,0,0,0,0,0,0,-1,1483,1058,0,0
266,-34,0,0,0,0,0,0,0,0,0,-1,1490,1058,0,0
273,-34,0,0,0,0,0,0,0,0,0,-1,1497,1058,0,0
280,-34,0,0,0,0,0,0,0,0,0,-1,1504,1058,0,0
287,-34,0,0,0,0,0,0,0,0,0,-1,1511,1058,0,0
294,-34,0,0,0,0,0,0,0,0,0,-1,1518,1058,0,0
301,-34,0,0,0,0,0,0,0,0,0,-1,1525,1058,0,0
308,-34,0,0,0,0,0,0,0,0,0,-1,1532,1058,0,0
315,-34,0,0,0,0,0,0,0,0,0,-1,1539,1058,0,0
322,-34,0,0,0,0,0,0,0,0,0,-1,1546,1058,0,0
329,-34,0,0,0,0,0,0,0,0,0,-1,1553,1058,0,0
336,-34,0,0,0,0,0,0,0,0,0,-1,1560,1058,0,0
343,-34,0,0,0,0,0,0,0,0,0,-1,1567,1058,0,0
350,-34,0,0,0,0,0,0,0,0,0,-1,1574,1058,0,0
357,-34,0,0,0,0,0,0,0,0,0,-1,1581,1058,0,0
364,-34,0,0,0,0,0,0,0,0,0,-1,1588,1058,0,0
371,-34,0,0,0,0,0,0,0,0,0,-1,1595,1058,0,0
378,-34,0,0,0,0,0,0,0,0,0,-1,1602,1058,0,0
385,-34,0,0,0,0,0,0,0,0,0,-1,1609,1058,0,0
392,-34,0,0,0,0,0,0,0,0,0,-1,1616,1058,0,0
399,-34,0,0,0,0,0,0,0,0,0,-1,1623,1058,0,0
406,-34,0,0,0,0,0,0,0,0,0,-1,1630,1058,0,0
413,-34,0,0,0,0,0,0,0,0,0,-1,1637,1058,0,0
420,-34,0,0,0,0,0,0,0,0,0,-1,1644,1058,0,0
427,-34,0,0,0,0,0,0,0,0,0,-1,1651,1058,0,0
434,-34,0,0,0,0,0,0,0,0,0,-1,1658,1058,0,0
441,-34,0,0,0,0,0,0,0,0,0,-1,1665,1058,0,0
448,-34,0,0,0,0,0,0,0,0,0,-1,1672,1058,0,0
455,-34,0,0,0,0,0,0,0,0,0,-1,1679,1058,0,0
462,-34,0,0,0,0,0,0,0,0,0,-1,1686,1058,0,0
469,-34,0,0,0,0,0,0,0,0,0,-1,1693,1058,0,0
476,-34,0,0,0,0,0,0,0,0,0,-1,1700,1058,0,0
483,-34,0,0,0,0,0,0,0,0,0,-1,1707,1058,0,0
490,-34,0,0,0,0,0,0,0,0,0,-1,1714,1058,0,0
497,-34,0,0,0,0,0,0,0,0,0,-1,1721,1058,0,0
504,-34,0,0,0,0,0,0,0,0,0,-1,1728,1058,0,0
511,-34,0,0,0,0,0,0,0,0,0,-1,1735,1058,0,0
518,-34,0,0,0,0,0,0,0,0,0,-1,1742,1058,0,0
525,-34,0,0,0,0,0,0,0,0,0,-1,1749,1058,0,0
532,-34,0,0,0,0,0,0,0,0,0,-1,1756,1058,0,0
539,-34,0,0,0,0,0,0,0,0,0,-1,1763,1058,0,0
546,-34,0,0,0,0,0,0,0,0,0,-1,1770,1058,0,0
553,-34,0,0,0,0,0,0,0,0,0,-1,1777,1058,0,0
560,-34,0,0,0,0,0,0,0,0,0,-1,1784,1058,0,0
567,-34,0,0,0,0,0,0,0,0,0,-1,1791,1058,0,0
574,-34,0,0,0,0,0,0,0,0,0,-1,1798,1058,0,0
581,-34,0,0,0,0,0,0,0,0,0,-1,1805,1058,0,0
588,-34,0,0,0,0,0,0,0,0,0,-1,1812,1058,0,0
595,-34,0,0,0,0,0,0,0,0,0,-1,1819,1058,0,0
602,-34,0,0,0,0,0,0,0,0,0,-1,1826,1058,0,0
609,-34,0,0,0,0,0,0,0,0,0,-1,1833,1058,0,0
616,-34,0,0,0,0,0,0,0,0,0,-1,1840,1058,0,0
623,-34,0,0,0,0,0,0,0,0,0,-1,1847,1058,0,0
630,-34,0,0,0,0,0,0,0,0,0,-1,1854,1058,0,0
637,-34,0,0,0,0,0,0,0,0,0,-1,1861,1058,0,0
644,-34,0,0,0,0,0,0,0,0,0,-1,1868,1058,0,0
651,-34,16.9822,2.3208,-0.00240493,0.00194356,0.00530661,0.00550407,-0.00596544,0.979829,0.00662371,0.0387492,1875,1058,16.9822,-2.32081
658,-34,16.8439,2.41748,-0.000720742,0.002005,0.00399719,0.00486527,-0.00358102,0.949696,0.00489522,0.0404459,1882,1058,16.8438,-2.41752
665,-34,17.011,2.39014,0.000171055,0.00194923,0.00285657,0.00405188,-0.00193159,0.936268,0.00352611,0.042175,1889,1058,17.011,-2.39015
672,-34,17.1355,2.35327,0.000545991,0.00181006,0.00260971,0.00386318,-0.00150713,0.904203,0.00319846,0.039232,1896,1058,17.1355,-2.35322
679,-34,17.2734,2.42334,7.33592e-05,0.00152425,0.0032873,0.0041652,-0.00256759,0.893999,0.00392348,0.0374929,1903,1058,17.2735,-2.42334
686,-34,17.139,2.24048,-0.000817464,0.00116738,0.00426078,0.00454979,-0.00419987,0.899818,0.00505297,0.0441204,1910,1058,17.139,-2.24042
693,-34,17.0768,2.45862,0,0,0,0,0,0,0,-1,1917,1058,17.0768,-2.45863
700,-34,17.0787,2.39783,-0.00267013,0.000429279,0.00619587,0.00526631,-0.00750716,0.907943,0.0074125,0.0404727,1924,1058,17.0787,-2.39779
707,-34,17.1083,2.42151,-0.00328699,0.000143968,0.00682758,0.00546828,-0.00861131,0.908479,0.00819609,0.0234546,1931,1058,17.1082,-2.42145
714,-34,17.1254,2.4895,-0.00387634,-0.000165447,0.00721853,0.00543228,-0.00947407,0.911195,0.008711,0.0151456,1938,1058,17.1254,-2.48947
721,-34,17.1659,2.64526,-0.00448853,-0.000297886,0.00733697,0.00523709,-0.0100235,0.924488,0.008954,0.0230964,1945,1058,17.1658,-2.64523
728,-34,16.9785,3.15979,-0.00487382,-0.000295229,0.00723126,0.00500046,-0.0101695,0.938698,0.00892626,0.024308,1952,1058,16.9785,-3.15983
735,-34,16.7761,3.43176,-0.00472916,-0.000152478,0.00674242,0.00467934,-0.00956098,0.948996,0.00838114,0.0144289,1959,1058,16.7762,-3.43172
742,-34,16.7617,3.40442,-0.0040223,0.000224265,0.00559839,0.00408849,-0.00788653,0.966651,0.00702874,0.0136847,1966,1058,16.7617,-3.40442
749,-34,16.7854,3.40796,-0.0027763,-0.000309726,0.00343704,0.0021086,-0.00519462,0.957654,0.00434018,0.0122155,1973,1058,16.7854,-3.408
756,-34,16.8149,3.41992,-0.00140151,-0.0001404,0.000559823,7.22535e-05,-0.00161417,1.20777,0.00110099,0.00988231,1980,1058,16.815,-3.41995
763,-34,16.8018,3.41357,-5.74897e-05,0.000121402,-0.00258678,0.00262028,-0.00255637,-0.80268,0.00298882,0.0104054,1987,1058,16.8017,-3.4136
770,-34,16.7512,3.40662,0.00166517,0.000131309,-0.00651541,0.00745863,-0.00566215,-0.726813,0.00759892,0.014028,1994,1058,16.7512,-3.40662
777,-34,16.7286,3.41711,0.00367699,-4.91035e-06,-0.0111637,0.0131505,-0.00947839,-0.703681,0.013122,0.0144378,2001,1058,16.7287,-3.41707
784,-34,16.7692,3.42517,0.00553881,-0.000441723,-0.0162854,0.0191062,-0.0140091,-0.694601,0.0191945,0.0302997,2008,1058,16.7692,-3.42516
791,-34,16.858,3.44727,0.00715494,-0.00119459,-0.0223519,0.0257186,-0.0197583,-0.693075,0.0263311,0.0451658,2015,1058,16.858,-3.44724
798,-34,17.9185,3.53052,0,0,0,0,0,0,0,-1,2022,1058,17.9184,-3.53048
805,-34,18.2626,2.23645,0,0,0,0,0,0,0,-1,2029,1058,18.2626,-2.23647
812,-34,17.2031,2.01758,0,0,0,0,0,0,0,-1,2036,1058,17.2032,-2.01757
-700,-41,-9.84387,1.6969,-0.0182761,-0.00317437,-0.0174426,0.00828164,-0.0297321,-0.989668,0.0230826,0.0464154,524,1065,-9.84389,-1.69685
-693,-41,-9.77399,1.64783,-0.0175268,-0.000646424,-0.0134288,0.00677433,-0.0249476,-1.06596,0.0192905,0.0429233,531,1065,-9.77399,-1.64784
-686,-41,-10.4651,1.37476,-0.0156265,0.000866739,-0.00992361,0.00552302,-0.0202828,-1.13208,0.0156903,0.0468972,538,1065,-10.4651,-1.37473
-679,-41,-10.8868,0.902222,0,0,0,0,0,0,0,-1,545,1065,-10.8868,-0.902196
-672,-41,-10.7491,0.639038,-0.0103986,0.00211687,-0.00474621,0.00371316,-0.0119949,-1.24635,0.0094799,0.0450922,552,1065,-10.7491,-0.639044
-665,-41,-10.8615,0.591919,-0.00772507,0.00224624,-0.00302002,0.00308959,-0.00856842,-1.29848,0.00697412,0.0437868,559,1065,-10.8615,-0.591906
-658,-41,-10.623,0.811157,-0.00535824,0.00219341,-0.00179368,0.0025978,-0.00576262,-1.34905,0.00494083,0.0395319,566,1065,-10.623,-0.811148
-651,-41,-10.674,0.940308,-0.0034433,0.00201028,-0.000981993,0.00218172,-0.00361474,-1.39796,0.0033805,0.0262799,573,1065,-10.674,-0.940286
-644,-41,-10.8683,1.00549,-0.00199548,0.00176939,-0.000609919,0.00186574,-0.00209182,-1.41413,0.00228614,0.0104808,580,1065,-10.8683,-1.00544
-637,-41,-10.8802,1.03687,-0.00147792,0.00172,-0.00110406,0.00206414,-0.00182205,-1.26864,0.00224514,0.0108246,587,1065,-10.8802,-1.03692
-630,-41,-10.8648,1.09033,-0.000717323,0.000706729,-0.00158816,0.00173517,-0.00174576,-0.996132,0.00200972,0.0117653,594,1065,-10.8648,-1.09038
-623,-41,-10.8721,1.13892,-0.000102828,-5.78314e-05,-0.00209717,0.00201696,-0.00217762,-0.790762,0.00242234,0.0111741,601,1065,-10.8721,-1.13894
-616,-41,-10.8701,1.16797,0.000322532,6.50757e-05,-0.00300954,0.0032061,-0.00281849,-0.764025,0.0034807,0.0142324,608,1065,-10.8701,-1.16803
-609,-41,-10.8427,1.1842,-0.000124934,6.14884e-05,-0.00410536,0.0040747,-0.00413814,-0.796749,0.00474173,0.0198847,615,1065,-10.8427,-1.18423
-602,-41,-10.849,1.22705,-0.000474303,-0.000481146,-0.00483427,0.00435655,-0.005312,-0.785044,0.00559121,0.0127547,622,1065,-10.849,-1.22708
-595,-41,-10.8592,1.2655,-0.000616813,-0.000727761,-0.00529459,0.00462259,-0.00596717,-0.78016,0.00613041,0.0139703,629,1065,-10.8592,-1.26554
-588,-41,-10.8942,0.916138,-0.000548934,-0.00074158,-0.0055313,0.00488688,-0.0061774,-0.776692,0.00640243,0.0231919,636,1065,-10.8942,-0.916173
-581,-41,-10.8965,0.608765,-0.000464989,-0.000611237,-0.00549679,0.00495916,-0.00603539,-0.778747,0.00635784,0.0351227,643,1065,-10.8965,-0.608756
-574,-41,-10.8508,0.66272,-0.000360305,-0.000406163,-0.00524039,0.0048572,-0.00562367,-0.78321,0.00605653,0.0373782,650,1065,-10.8508,-0.662686
-567,-41,-10.8334,0.717529,-0.000258651,-8.05402e-05,-0.00464071,0.00447197,-0.00481116,-0.794992,0.00536081,0.0428465,657,1065,-10.8334,-0.717554
-560,-41,-10.8552,0.57666,-0.000155653,0.000345452,-0.00371981,0.00382314,-0.00363334,-0.819026,0.00430547,0.041133,664,1065,-10.8552,-0.576647
-553,-41,-10.8196,0.400024,-0.000102722,0.000849508,-0.00252066,0.00293863,-0.00219184,-0.878741,0.00297252,0.0418718,671,1065,-10.8196,-0.400038
-546,-41,-10.8456,0.451538,-0.000192828,0.00140787,-0.00107608,0.0019486,-0.000733563,-1.10515,0.00160064,0.041514,678,1065,-10.8457,-0.4515
-539,-41,-10.9437,0.459839,-0.000576026,0.00192777,0.000206738,0.00194473,-0.000592982,1.48897,0.00153287,0.0402316,685,1065,-10.9437,-0.45981
-532,-41,-10.9102,0.393799,-0.00170059,0.00228884,0.000177251,0.0022967,-0.00170844,1.52648,0.00232067,0.0403525,692,1065,-10.9102,-0.39385
-525,-41,0,0,0,0,0,0,0,0,0,-1,699,1065,0,0
-518,-41,0,0,0,0,0,0,0,0,0,-1,706,1065,0,0
-511,-41,0,0,0,0,0,0,0,0,0,-1,713,1065,0,0
-504,-41,0,0,0,0,0,0,0,0,0,-1,720,1065,0,0
-497,-41,0,0,0,0,0,0,0,0,0,-1,727,1065,0,0
-490,-41,0,0,0,0,0,0,0,0,0,-1,734,1065,0,0
-483,-41,0,0,0,0,0,0,0,0,0,-1,741,1065,0,0
-476,-41,0,0,0,0,0,0,0,0,0,-1,748,1065,0,0
-469,-41,0,0,0,0,0,0,0,0,0,-1,755,1065,0,0
-462,-41,0,0,0,0,0,0,0,0,0,-1,762,1065,0,0
-455,-41,0,0,0,0,0,0,0,0,0,-1,769,1065,0,0
-448,-41,0,0,0,0,0,0,0,0,0,-1,776,1065,0,0
-441,-41,0,0,0,0,0,0,0,0,0,-1,783,1065,0,0
-434,-41,0,0,0,0,0,0,0,0,0,-1,790,1065,0,0
-427,-41,0,0,0,0,0,0,0,0,0,-1,797,1065,0,0
-420,-41,0,0,0,0,0,0,0,0,0,-1,804,1065,0,0
-413,-41,0,0,0,0,0,0,0,0,0,-1,811,1065,0,0
-406,-41,0,0,0,0,0,0,0,0,0,-1,818,1065,0,0
-399,-41,0,0,0,0,0,0,0,0,0,-1,825,1065,0,0
-392,-41,0,0,0,0,0,0,0,0,0,-1,832,1065,0,0
-385,-41,0,0,0,0,0,0,0,0,0,-1,839,1065,0,0
-378,-41,0,0,0,0,0,0,0,0,0,-1,846,1065,0,0
-371,-41,0,0,0,0,0,0,0,0,0,-1,853,1065,0,0
-364,-41,0,0,0,0,0,0,0,0,0,-1,860,1065,0,0
-357,-41,0,0,0,0,0,0,0,0,0,-1,867,1065,0,0
-350,-41,0,0,0,0,0,0,0,0,0,-1,874,1065,0,0
-343,-41,0,0,0,0,0,0,0,0,0,-1,881,1065,0,0
-336,-41,0,0,0,0,0,0,0,0,0,-1,888,1065,0,0
-329,-41,0,0,0,0,0,0,0,0,0,-1,895,1065,0,0
-322,-41,0,0,0,0,0,0,0,0,0,-1,902,1065,0,0
-315,-41,0,0,0,0,0,0,0,0,0,-1,909,1065,0,0
-308,-41,0,0,0,0,0,0,0,0,0,-1,916,1065,0,0
-301,-41,0,0,0,0,0,0,0,0,0,-1,923,1065,0,0
-294,-41,0,0,0,0,0,0,0,0,0,-1,930,1065,0,0
-287,-41,0,0,0,0,0,0,0,0,0,-1,937,1065,0,0
-280,-41,0,0,0,0,0,0,0,0,0,-1,944,1065,0,0
-273,-41,0,0,0,0,0,0,0,0,0,-1,951,1065,0,0
-266,-41,0,0,0,0,0,0,0,0,0,-1,958,1065,0,0
-259,-41,0,0,0,0,0,0,0,0,0,-1,965,1065,0,0
-252,-41,0,0,0,0,0,0,0,0,0,-1,972,1065,0,0
-245,-41,0,0,0,0,0,0,0,0,0,-1,979,1065,0,0
-238,-41,0,0,0,0,0,0,0,0,0,-1,986,1065,0,0
-231,-41,0,0,0,0,0,0,0,0,0,-1,993,1065,0,0
-224,-41,0,0,0,0,0,0,0,0,0,-1,1000,1065,0,0
-217,-41,0,0,0,0,0,0,0,0,0,-1,1007,1065,0,0
-210,-41,0,0,0,0,0,0,0,0,0,-1,1014,1065,0,0
-203,-41,0,0,0,0,0,0,0,0,0,-1,1021,1065,0,0
-196,-41,0,0,0,0,0,0,0,0,0,-1,1028,1065,0,0
-189,-41,0,0,0,0,0,0,0,0,0,-1,1035,1065,0,0
-182,-41,0,0,0,0,0,0,0,0,0,-1,1042,1065,0,0
-175,-41,0,0,0,0,0,0,0,0,0,-1,1049,1065,0,0
-168,-41,0,0,0,0,0,0,0,0,0,-1,1056,1065,0,0
-161,-41,0,0,0,0,0,0,0,0,0,-1,1063,1065,0,0
-154,-41,0,0,0,0,0,0,0,0,0,-1,1070,1065,0,0
-147,-41,0,0,0,0,0,0,0,0,0,-1,1077,1065,0,0
-140,-41,0,0,0,0,0,0,0,0,0,-1,1084,1065,0,0
-133,-41,0,0,0,0,0,0,0,0,0,-1,1091,1065,0,0
-126,-41,0,0,0,0,0,0,0,0,0,-1,1098,1065,0,0
-119,-41,0,0,0,0,0,0,0,0,0,-1,1105,1065,0,0
-112,-41,0,0,0,0,0,0,0,0,0,-1,1112,1065,0,0
-105,-41,0,0,0,0,0,0,0,0,0,-1,1119,1065,0,0
-98,-41,0,0,0,0,0,0,0,0,0,-1,1126,1065,0,0
-91,-41,0,0,0,0,0,0,0,0,0,-1,1133,1065,0,0
-84,-41,0,0,0,0,0,0,0,0,0,-1,1140,1065,0,0
-77,-41,0,0,0,0,0,0,0,0,0,-1,1147,1065,0,0
-70,-41,0,0,0,0,0,0,0,0,0,-1,1154,1065,0,0
-63,-41,0,0,0,0,0,0,0,0,0,-1,1161,1065,0,0
-56,-41,0,0,0,0,0,0,0,0,0,-1,1168,1065,0,0
-49,-41,0,0,0,0,0,0,0,0,0,-1,1175,1065,0,0
-42,-41,0,0,0,0,0,0,0,0,0,-1,1182,1065,0,0
-35,-41,0,0,0,0,0,0,0,0,0,-1,1189,1065,0,0
-28,-41,0,0,0,0,0,0,0,0,0,-1,1196,1065,0,0
-21,-41,0,0,0,0,0,0,0,0,0,-1,1203,1065,0,0
-14,-41,0,0,0,0,0,0,0,0,0,-1,1210,1065,0,0
-7,-41,0,0,0,0,0,0,0,0,0,-1,1217,1065,0,0
0,-41,0,0,0,0,0,0,0,0,0,-1,1224,1065,0,0
7,-41,0,0,0,0,0,0,0,0,0,-1,1231,1065,0,0
14,-41,0,0,0,0,0,0,0,0,0,-1,1238,1065,0,0
21,-41,0,0,0,0,0,0,0,0,0,-1,1245,1065,0,0
28,-41,0,0,0,0,0,0,0,0,0,-1,1252,1065,0,0
35,-41,0,0,0,0,0,0,0,0,0,-1,1259,1065,0,0
42,-41,0,0,0,0,0,0,0,0,0,-1,1266,1065,0,0
49,-41,0,0,0,0,0,0,0,0,0,-1,1273,1065,0,0
56,-41,0,0,0,0,0,0,0,0,0,-1,1280,1065,0,0
63,-41,0,0,0,0,0,0,0,0,0,-1,1287,1065,0,0
70,-41,0,0,0,0,0,0,0,0,0,-1,1294,1065,0,0
77,-41,0,0,0,0,0,0,0,0,0,-1,1301,1065,0,0
84,-41,0,0,0,0,0,0,0,0,0,-1,1308,1065,0,0
91,-41,0,0,0,0,0,0,0,0,0,-1,1315,1065,0,0
98,-41,0,0,0,0,0,0,0,0,0,-1,1322,1065,0,0
105,-41,0,0,0,0,0,0,0,0,0,-1,1329,1065,0,0
112,-41,0,0,0,0,0,0,0,0,0,-1,1336,1065,0,0
119,-41,0,0,0,0,0,0,0,0,0,-1,1343,1065,0,0
126,-41,0,0,0,0,0,0,0,0,0,-1,1350,1065,0,0
133,-41,0,0,0,0,0,0,0,0,0,-1,1357,1065,0,0
140,-41,0,0,0,0,0,0,0,0,0,-1,1364,1065,0,0
147,-41,0,0,0,0,0,0,0,0,0,-1,1371,1065,0,0
154,-41,0,0,0,0,0,0,0,0,0,-1,1378,1065,0,0
161,-41,0,0,0,0,0,0,0,0,0,-1,1385,1065,0,0
168,-41,0,0,0,0,0,0,0,0,0,-1,1392,1065,0,0
175,-41,0,0,0,0,0,0,0,0,0,-1,1399,1065,0,0
182,-41,0,0,0,0,0,0,0,0,0,-1,1406,1065,0,0
189,-41,0,0,0,0,0,0,0,0,0,-1,1413,1065,0,0
196,-41,0,0,0,0,0,0,0,0,0,-1,1420,1065,0,0
203,-41,0,0,0,0,0,0,0,0,0,-1,1427,1065,0,0
210,-41,0,0,0,0,0,0,0,0,0,-1,1434,1065,0,0
217,-41,0,0,0,0,0,0,0,0,0,-1,1441,1065,0,0
224,-41,0,0,0,0,0,0,0,0,0,-1,1448,1065,0,0
231,-41,0,0,0,0,0,0,0,0,0,-1,1455,1065,0,0
238,-41,0,0,0,0,0,0,0,0,0,-1,1462,1065,0,0
245,-41,0,0,0,0,0,0,0,0,0,-1,1469,1065,0,0
252,-41,0,0,0,0,0,0,0,0,0,-1,1476,1065,0,0
259,-41,0,0,0,0,0,0,0,0,0,-1,1483,1065,0,0
266,-41,0,0,0,0,0,0,0,0,0,-1,1490,1065,0,0
273,-41,0,0,0,0,0,0,0,0,0,-1,1497,1065,0,0
280,-41,0,0,0,0,0,0,0,0,0,-1,1504,1065,0,0
287,-41,0,0,0,0,0,0,0,0,0,-1,1511,1065,0,0
294,-41,0,0,0,0,0,0,0,0,0,-1,1518,1065,0,0
301,-41,0,0,0,0,0,0,0,0,0,-1,1525,1065,0,0
308,-41,0,0,0,0,0,0,0,0,0,-1,1532,1065,0,0
315,-41,0,0,0,0,0,0,0,0,0,-1,1539,1065,0,0
322,-41,0,0,0,0,0,0,0,0,0,-1,1546,1065,0,0
329,-41,0,0,0,0,0,0,0,0,0,-1,1553,1065,0,0
336,-41,0,0,0,0,0,0,0,0,0,-1,1560,1065,0,0
343,-41,0,0,0,0,0,0,0,0,0,-1,1567,1065,0,0
350,-41,0,0,0,0,0,0,0,0,0,-1,1574,1065,0,0
357,-41,0,0,0,0,0,0,0,0,0,-1,1581,1065,0,0
364,-41,0,0,0,0,0,0,0,0,0,-1,1588,1065,0,0
371,-41,0,0,0,0,0,0,0,0,0,-1,1595,1065,0,0
378,-41,0,0,0,0,0,0,0,0,0,-1,1602,1065,0,0
385,-41,0,0,0,0,0,0,0,0,0,-1,1609,1065,0,0
392,-41,0,0,0,0,0,0,0,0,0,-1,1616,1065,0,0
399,-41,0,0,0,0,0,0,0,0,0,-1,1623,1065,0,0
406,-41,0,0,0,0,0,0,0,0,0,-1,1630,1065,0,0
413,-41,0,0,0,0,0,0,0,0,0,-1,1637,1065,0,0
420,-41,0,0,0,0,0,0,0,0,0,-1,1644,1065,0,0
427,-41,0,0,0,0,0,0,0,0,0,-1,1651,1065,0,0
434,-41,0,0,0,0,0,0,0,0,0,-1,1658,1065,0,0
441,-41,0,0,0,0,0,0,0,0,0,-1,1665,1065,0,0
448,-41,0,0,0,0,0,0,0,0,0,-1,1672,1065,0,0
455,-41,0,0,0,0,0,0,0,0,0,-1,1679,1065,0,0
462,-41,0,0,0,0,0,0,0,0,0,-1,1686,1065,0,0
469,-41,0,0,0,0,0,0,0,0,0,-1,1693,1065,0,0
476,-41,0,0,0,0,0,0,0,0,0,-1,1700,1065,0,0
483,-41,0,0,0,0,0,0,0,0,0,-1,1707,1065,0,0
490,-41,0,0,0,0,0,0,0,0,0,-1,1714,1065,0,0
497,-41,0,0,0,0,0,0,0,0,0,-1,1721,1065,0,0
504,-41,0,0,0,0,0,0,0,0,0,-1,1728,1065,0,0
511,-41,0,0,0,0,0,0,0,0,0,-1,1735,1065,0,0
518,-41,0,0,0,0,0,0,0,0,0,-1,1742,1065,0,0
525,-41,0,0,0,0,0,0,0,0,0,-1,1749,1065,0,0
532,-41,0,0,0,0,0,0,0,0,0,-1,1756,1065,0,0
539,-41,0,0,0,0,0,0,0,0,0,-1,1763,1065,0,0
546,-41,0,0,0,0,0,0,0,0,0,-1,1770,1065,0,0
553,-41,0,0,0,0,0,0,0,0,0,-1,1777,1065,0,0
560,-41,0,0,0,0,0,0,0,0,0,-1,1784,1065,0,0
567,-41,0,0,0,0,0,0,0,0,0,-1,1791,1065,0,0
574,-41,0,0,0,0,0,0,0,0,0,-1,1798,1065,0,0
581,-41,0,0,0,0,0,0,0,0,0,-1,1805,1065,0,0
588,-41,0,0,0,0,0,0,0,0,0,-1,1812,1065,0,0
595,-41,0,0,0,0,0,0,0,0,0,-1,1819,1065,0,0
602,-41,0,0,0,0,0,0,0,0,0,-1,1826,1065,0,0
609,-41,0,0,0,0,0,0,0,0,0,-1,1833,1065,0,0
616,-41,0,0,0,0,0,0,0,0,0,-1,1840,1065,0,0
623,-41,0,0,0,0,0,0,0,0,0,-1,1847,1065,0,0
630,-41,0,0,0,0,0,0,0,0,0,-1,1854,1065,0,0
637,-41,0,0,0,0,0,0,0,0,0,-1,1861,1065,0,0
644,-41,0,0,0,0,0,0,0,0,0,-1,1868,1065,0,0
651,-41,17.0134,2.29797,-0.00271567,0.0016212,0.00453585,0.00448029,-0.00557477,1.00837,0.00581674,0.0339054,1875,1065,17.0135,-2.29798
658,-41,16.8951,2.31177,-0.00087469,0.00169738,0.00339654,0.0040432,-0.00322051,0.966373,0.00420266,0.0389834,1882,1065,16.8951,-2.3118
665,-41,16.7142,2.83484,0.000180806,0.00167461,0.00237765,0.00341991,-0.00156449,0.937585,0.00294346,0.0433071,1889,1065,16.7142,-2.8348
672,-41,17.1255,2.76172,0.000609569,0.00152004,0.00231644,0.00342555,-0.00129594,0.882424,0.00281687,0.0428341,1896,1065,17.1255,-2.76169
679,-41,17.2903,2.55334,0.000148623,0.0011808,0.0031758,0.00388217,-0.00255275,0.865947,0.00374153,0.0385145,1903,1065,17.2902,-2.55329
686,-41,17.3135,2.47656,-0.000752259,0.000773476,0.00429004,0.00436794,-0.00434673,0.87339,0.00503142,0.0389017,1910,1065,17.3134,-2.47658
693,-41,17.304,2.56458,-0.00172362,0.000348295,0.00541067,0.00482129,-0.00619662,0.879986,0.00637769,0.0420493,1917,1065,17.3039,-2.56452
700,-41,17.1953,2.54211,-0.00264077,-2.30219e-05,0.00640279,0.00520331,-0.0078671,0.88622,0.00759826,0.0388285,1924,1065,17.1953,-2.54208
707,-41,17.145,2.44751,-0.00326825,-0.000318851,0.00709661,0.00545466,-0.00904177,0.887842,0.0084545,0.0258186,1931,1065,17.145,-2.44745
714,-41,17.1417,2.47314,-0.00385646,-0.00061898,0.00751169,0.00544641,-0.00992185,0.891523,0.00899741,0.0134581,1938,1065,17.1418,-2.4731
721,-41,17.1614,2.76147,-0.00447394,-0.000733324,0.00762154,0.00524404,-0.0104513,0.905719,0.00922645,0.027026,1945,1065,17.1614,-2.76148
728,-41,16.9147,3.34058,-0.0048863,-0.000697966,0.00748342,0.00497878,-0.010563,0.921829,0.00916411,0.028122,1952,1065,16.9147,-3.34059
735,-41,16.7852,3.43115,-0.0047434,-0.000505325,0.00695608,0.00464732,-0.00989604,0.933248,0.00857696,0.0154793,1959,1065,16.7852,-3.4311
742,-41,16.767,3.42114,-0.00398653,-6.51623e-05,0.00580356,0.00409996,-0.00815166,0.9483,0.00720126,0.012891,1966,1065,16.767,-3.42116
749,-41,16.7997,3.42627,-0.00268005,-0.000610308,0.00373653,0.00223201,-0.00552237,0.920492,0.00460938,0.0129955,1973,1065,16.7997,-3.42633
756,-41,16.8354,3.42615,-0.00132804,-0.000546199,0.000981774,0.000119621,-0.00199386,0.974865,0.00137085,0.0130645,1980,1065,16.8354,-3.42617
763,-41,16.7924,3.40869,-2.46851e-05,-0.000529212,-0.00203769,0.00177629,-0.00233019,-0.723812,0.00237806,0.0110271,1987,1065,16.7923,-3.40869
770,-41,16.7548,3.39185,0.0016834,-0.000785835,-0.00577112,0.00635048,-0.00545292,-0.680021,0.00682126,0.0120206,1994,1065,16.7548,-3.39183
777,-41,16.7365,3.3667,0.00360056,-0.00136576,-0.0101069,0.0115248,-0.00929004,-0.664939,0.0120405,0.0128891,2001,1065,16.7364,-3.36668
784,-41,16.728,3.29712,0.00527211,-0.00248151,-0.0148288,0.0167225,-0.0139319,-0.657541,0.0177227,0.0230139,2008,1065,16.728,-3.29712
791,-41,16.6971,3.17017,0.00659548,-0.00414764,-0.0204953,0.0224114,-0.0199636,-0.657237,0.0244789,0.043491,2015,1065,16.6972,-3.17023
798,-41,17.2158,2.21704,0.00775179,-0.00641422,-0.0275497,0.0291145,-0.0277769,-0.659574,0.0328493,0.0461511,2022,1065,17.2158,-2.2171
805,-41,17.213,1.71448,0.00848444,-0.00929759,-0.0361385,0.0368096,-0.0376227,-0.664781,0.0429744,0.0449011,2029,1065,17.213,-1.71445
812,-41,17.1289,1.86243,0,0,0,0,0,0,0,-1,2036,1065,17.129,-1.86248
-700,-48,-9.64636,1.78674,-0.0155389,-0.00491041,-0.0264982,0.0168012,-0.0372505,-0.884361,0.0319425,0.0479986,524,1072,-9.64634,-1.78672
-693,-48,-10.0278,1.6322,-0.0148556,-0.00200413,-0.019745,0.0123344,-0.0291941,-0.942711,0.0246263,0.0465671,531,1072,-10.0278,-1.63219
-686,-48,-10.3799,1.33069,-0.0132218,-0.000155828,-0.0140918,0.0088437,-0.0222213,-1.00245,0.0184814,0.048307,538,1072,-10.3799,-1.3307
-679,-48,-10.6855,1.06104,0,0,0,0,0,0,0,-1,545,1072,-10.6855,-1.06107
-672,-48,-10.7616,1.00708,-0.00872874,0.00155284,-0.00611399,0.00440008,-0.011576,-1.13497,0.00952889,0.0467766,552,1072,-10.7616,-1.00704
-665,-48,-10.7161,0.721313,-0.00642137,0.00183551,-0.00357579,0.00316878,-0.00775464,-1.2139,0.00648925,0.044424,559,1072,-10.7161,-0.721302
-658,-48,-10.687,0.642822,-0.00438117,0.00190008,-0.00183698,0.00239786,-0.00487895,-1.30617,0.0042819,0.0419134,566,1072,-10.6869,-0.642803
-651,-48,-10.7591,0.821533,-0.00273817,0.00180687,-0.000738388,0.00192382,-0.00285512,-1.41372,0.00277653,0.0298435,573,1072,-10.7591,-0.821514
-644,-48,-10.816,1.01404,-0.00150034,0.00164567,-0.000228207,0.00166214,-0.00151681,-1.49876,0.00183601,0.0126756,580,1072,-10.816,-1.01401
-637,-48,-10.8185,1.02991,-0.00116795,0.00159874,-0.000566975,0.00171043,-0.00127963,-1.37631,0.00173227,0.0122853,587,1072,-10.8185,-1.0299
-630,-48,-10.8062,1.06982,-0.000613364,0.000699461,-0.00108967,0.00131516,-0.00122906,-1.05649,0.00146919,0.0141635,594,1072,-10.8062,-1.06988
-623,-48,-10.807,1.12256,-0.000205471,-4.87097e-05,-0.00182722,0.00170181,-0.00195599,-0.806833,0.00211353,0.0090919,601,1072,-10.807,-1.12255
-616,-48,-10.8136,1.16211,8.23202e-05,9.42071e-05,-0.00285485,0.00294312,-0.0027666,-0.786439,0.00329703,0.00841237,608,1072,-10.8136,-1.16207
-609,-48,-10.8021,1.20264,-0.000403583,1.41887e-05,-0.00405111,0.00386179,-0.00425119,-0.811157,0.00468583,0.0108029,615,1072,-10.8022,-1.20258
-602,-48,-10.7984,1.22815,-0.000784496,-0.000543637,-0.00484158,0.00417901,-0.00550714,-0.797833,0.0056098,0.0118033,622,1072,-10.7984,-1.22818
-595,-48,-10.8057,1.27441,-0.000970307,-0.000838131,-0.00535874,0.00445492,-0.00626336,-0.791564,0.0062175,0.0152109,629,1072,-10.8057,-1.27446
-588,-48,-10.8719,1.00562,-0.000934751,-0.000900785,-0.0056139,0.00469615,-0.00653169,-0.786911,0.00651121,0.0280413,636,1072,-10.8719,-1.00562
-581,-48,-10.8869,0.618774,-0.000822537,-0.000828775,-0.00555696,0.0047313,-0.00638261,-0.785118,0.00644019,0.0363839,643,1072,-10.8869,-0.61883
-574,-48,-10.8447,0.59668,-0.000686869,-0.000701942,-0.00527596,0.00458156,-0.00597038,-0.784684,0.00610973,0.036658,650,1072,-10.8447,-0.596659
-567,-48,-10.5569,0.299561,-0.000508588,-0.00046454,-0.00463849,0.00415198,-0.0051251,-0.787772,0.00536594,0.0402611,657,1072,-10.5569,-0.299593
-560,-48,-10.8663,0.470825,-0.000276348,-0.000131707,-0.00366559,0.00346227,-0.00387033,-0.795262,0.00423566,0.0395322,664,1072,-10.8663,-0.470851
-553,-48,-10.8038,0.430664,-3.23801e-05,0.000281267,-0.0024019,0.00253145,-0.00228257,-0.817998,0.00278061,0.0417933,671,1072,-10.8038,-0.430695
-546,-48,-10.8809,0.386475,0.00014705,0.000762475,-0.000879544,0.00138658,-0.000477055,-0.953671,0.00111787,0.0406364,678,1072,-10.8808,-0.386445
-539,-48,-10.9114,0.151855,0.000114271,0.00125271,0.000499556,0.00144083,-7.38526e-05,1.21064,0.000986092,0.0398555,685,1072,-10.9114,-0.151889
-532,-48,-10.8529,0.255249,-0.000643143,0.00160296,0.000497541,0.00170824,-0.00074842,1.36228,0.00145399,0.0414796,692,1072,-10.8529,-0.255213
-525,-48,0,0,0,0,0,0,0,0,0,-1,699,1072,0,0
-518,-48,0,0,0,0,0,0,0,0,0,-1,706,1072,0,0
-511,-48,0,0,0,0,0,0,0,0,0,-1,713,1072,0,0
-504,-48,0,0,0,0,0,0,0,0,0,-1,720,1072,0,0
-497,-48,0,0,0,0,0,0,0,0,0,-1,727,1072,0,0
-490,-48,0,0,0,0,0,0,0,0,0,-1,734,1072,0,0
-483,-48,0,0,0,0,0,0,0,0,0,-1,741,1072,0,0
-476,-48,0,0,0,0,0,0,0,0,0,-1,748,1072,0,0
-469,-48,0,0,0,0,0,0,0,0,0,-1,755,1072,0,0
-462,-48,0,0,0,0,0,0,0,0,0,-1,762,1072,0,0
-455,-48,0,0,0,0,0,0,0,0,0,-1,769,1072,0,0
-448,-48,0,0,0,0,0,0,0,0,0,-1,776,1072,0,0
-441,-48,0,0,0,0,0,0,0,0,0,-1,783,1072,0,0
-434,-48,0,0,0,0,0,0,0,0,0,-1,790,1072,0,0
-427,-48,0,0,0,0,0,0,0,0,0,-1,797,1072,0,0
-420,-48,0,0,0,0,0,0,0,0,0,-1,804,1072,0,0
-413,-48,0,0,0,0,0,0,0,0,0,-1,811,1072,0,0
-406,-48,0,0,0,0,0,0,0,0,0,-1,818,1072,0,0
-399,-48,0,0,0,0,0,0,0,0,0,-1,825,1072,0,0
-392,-48,0,0,0,0,0,0,0,0,0,-1,832,1072,0,0
-385,-48,0,0,0,0,0,0,0,0,0,-1,839,1072,0,0
-378,-48,0,0,0,0,0,0,0,0,0,-1,846,1072,0,0
-371,-48,0,0,0,0,0,0,0,0,0,-1,853,1072,0,0
-364,-48,0,0,0,0,0,0,0,0,0,-1,860,1072,0,0
-357,-48,0,0,0,0,0,0,0,0,0,-1,867,1072,0,0
-350,-48,0,0,0,0,0,0,0,0,0,-1,874,1072,0,0
-343,-48,0,0,0,0,0,0,0,0,0,-1,881,1072,0,0
-336,-48,0,0,0,0,0,0,0,0,0,-1,888,1072,0,0
-329,-48,0,0,0,0,0,0,0,0,0,-1,895,1072,0,0
-322,-48,0,0,0,0,0,0,0,0,0,-1,902,1072,0,0
-315,-48,0,0,0,0,0,0,0,0,0,-1,909,1072,0,0
-308,-48,0,0,0,0,0,0,0,0,0,-1,916,1072,0,0
-301,-48,0,0,0,0,0,0,0,0,0,-1,923,1072,0,0
-294,-48,0,0,0,0,0,0,0,0,0,-1,930,1072,0,0
-287,-48,0,0,0,0,0,0,0,0,0,-1,937,1072,0,0
-280,-48,0,0,0,0,0,0,0,0,0,-1,944,1072,0,0
-273,-48,0,0,0,0,0,0,0,0,0,-1,951,1072,0,0
-266,-48,0,0,0,0,0,0,0,0,0,-1,958,1072,0,0
-259,-48,0,0,0,0,0,0,0,0,0,-1,965,1072,0,0
-252,-48,0,0,0,0,0,0,0,0,0,-1,972,1072,0,0
-245,-48,0,0,0,0,0,0,0,0,0,-1,979,1072,0,0
-238,-48,0,0,0,0,0,0,0,0,0,-1,986,1072,0,0
-231,-48,0,0,0,0,0,0,0,0,0,-1,993,1072,0,0
-224,-48,0,0,0,0,0,0,0,0,0,-1,1000,1072,0,0
-217,-48,0,0,0,0,0,0,0,0,0,-1,1007,1072,0,0
-210,-48,0,0,0,0,0,0,0,0,0,-1,1014,1072,0,0
-203,-48,0,0,0,0,0,0,0,0,0,-1,1021,1072,0,0
-196,-48,0,0,0,0,0,0,0,0,0,-1,1028,1072,0,0
-189,-48,0,0,0,0,0,0,0,0,0,-1,1035,1072,0,0
-182,-48,0,0,0,0,0,0,0,0,0,-1,1042,1072,0,0
-175,-48,0,0,0,0,0,0,0,0,0,-1,1049,1072,0,0
-168,-48,0,0,0,0,0,0,0,0,0,-1,1056,1072,0,0
-161,-48,0,0,0,0,0,0,0,0,0,-1,1063,1072,0,0
-154,-48,0,0,0,0,0,0,0,0,0,-1,1070,1072,0,0
-147,-48,0,0,0,0,0,0,0,0,0,-1,1077,1072,0,0
-140,-48,0,0,0,0,0,0,0,0,0,-1,1084,1072,0,0
-133,-48,0,0,0,0,0,0,0,0,0,-1,1091,1072,0,0
-126,-48,0,0,0,0,0,0,0,0,0,-1,1098,1072,0,0
-119,-48,0,0,0,0,0,0,0,0,0,-1,1105,1072,0,0
-112,-48,0,0,0,0,0,0,0,0,0,-1,1112,1072,0,0
-105,-48,0,0,0,0,0,0,0,0,0,-1,1119,1072,0,0
-98,-48,0,0,0,0,0,0,0,0,0,-1,1126,1072,0,0
-91,-48,0,0,0,0,0,0,0,0,0,-1,1133,1072,0,0
-84,-48,0,0,0,0,0,0,0,0,0,-1,1140,1072,0,0
-77,-48,0,0,0,0,0,0,0,0,0,-1,1147,1072,0,0
-70,-48,0,0,0,0,0,0,0,0,0,-1,1154,1072,0,0
-63,-48,0,0,0,0,0,0,0,0,0,-1,1161,1072,0,0
-56,-48,0,0,0,0,0,0,0,0,0,-1,1168,1072,0,0
-49,-48,0,0,0,0,0,0,0,0,0,-1,1175,1072,0,0
-42,-48,0,0,0,0,0,0,0,0,0,-1,1182,1072,0,0
-35,-48,0,0,0,0,0,0,0,0,0,-1,1189,1072,0,0
-28,-48,0,0,0,0,0,0,0,0,0,-1,1196,1072,0,0
-21,-48,0,0,0,0,0,0,0,0,0,-1,1203,1072,0,0
-14,-48,0,0,0,0,0,0,0,0,0,-1,1210,1072,0,0
-7,-48,0,0,0,0,0,0,0,0,0,-1,1217,1072,0,0
0,-48,0,0,0,0,0,0,0,0,0,-1,1224,1072,0,0
7,-48,0,0,0,0,0,0,0,0,0,-1,1231,1072,0,0
14,-48,0,0,0,0,0,0,0,0,0,-1,1238,1072,0,0
21,-48,0,0,0,0,0,0,0,0,0,-1,1245,1072,0,0
28,-48,0,0,0,0,0,0,0,0,0,-1,1252,1072,0,0
35,-48,0,0,0,0,0,0,0,0,0,-1,1259,1072,0,0
42,-48,0,0,0,0,0,0,0,0,0,-1,1266,1072,0,0
49,-48,0,0,0,0,0,0,0,0,0,-1,1273,1072,0,0
56,-48,0,0,0,0,0,0,0,0,0,-1,1280,1072,0,0
63,-48,0,0,0,0,0,0,0,0,0,-1,1287,1072,0,0
70,-48,0,0,0,0,0,0,0,0,0,-1,1294,1072,0,0
77,-48,0,0,0,0,0,0,0,0,0,-1,1301,1072,0,0
84,-48,0,0,0,0,0,0,0,0,0,-1,1308,1072,0,0
91,-48,0,0,0,0,0,0,0,0,0,-1,1315,1072,0,0
98,-48,0,0,0,0,0,0,0,0,0,-1,1322,1072,0,0
105,-48,0,0,0,0,0,0,0,0,0,-1,1329,1072,0,0
112,-48,0,0,0,0,0,0,0,0,0,-1,1336,1072,0,0
119,-48,0,0,0,0,0,0,0,0,0,-1,1343,1072,0,0
126,-48,0,0,0,0,0,0,0,0,0,-1,1350,1072,0,0
133,-48,0,0,0,0,0,0,0,0,0,-1,1357,1072,0,0
140,-48,0,0,0,0,0,0,0,0,0,-1,1364,1072,0,0
147,-48,0,0,0,0,0,0,0,0,0,-1,1371,1072,0,0
154,-48,0,0,0,0,0,0,0,0,0,-1,1378,1072,0,0
161,-48,0,0,0,0,0,0,0,0,0,-1,1385,1072,0,0
168,-48,0,0,0,0,0,0,0,0,0,-1,1392,1072,0,0
175,-48,0,0,0,0,0,0,0,0,0,-1,1399,1072,0,0
182,-48,0,0,0,0,0,0,0,0,0,-1,1406,1072,0,0
189,-48,0,0,0,0,0,0,0,0,0,-1,1413,1072,0,0
196,-48,0,0,0,0,0,0,0,0,0,-1,1420,1072,0,0
203,-48,0,0,0,0,0,0,0,0,0,-1,1427,1072,0,0
210,-48,0,0,0,0,0,0,0,0,0,-1,1434,1072,0,0
217,-48,0,0,0,0,0,0,0,0,0,-1,1441,1072,0,0
224,-48,0,0,0,0,0,0,0,0,0,-1,1448,1072,0,0
231,-48,0,0,0,0,0,0,0,0,0,-1,1455,1072,0,0
238,-48,0,0,0,0,0,0,0,0,0,-1,1462,1072,0,0
245,-48,0,0,0,0,0,0,0,0,0,-1,1469,1072,0,0
252,-48,0,0,0,0,0,0,0,0,0,-1,1476,1072,0,0
259,-48,0,0,0,0,0,0,0,0,0,-1,1483,1072,0,0
266,-48,0,0,0,0,0,0,0,0,0,-1,1490,1072,0,0
273,-48,0,0,0,0,0,0,0,0,0,-1,1497,1072,0,0
280,-48,0,0,0,0,0,0,0,0,0,-1,1504,1072,0,0
287,-48,0,0,0,0,0,0,0,0,0,-1,1511,1072,0,0
294,-48,0,0,0,0,0,0,0,0,0,-1,1518,1072,0,0
301,-48,0,0,0,0,0,0,0,0,0,-1,1525,1072,0,0
308,-48,0,0,0,0,0,0,0,0,0,-1,1532,1072,0,0
315,-48,0,0,0,0,0,0,0,0,0,-1,1539,1072,0,0
322,-48,0,0,0,0,0,0,0,0,0,-1,1546,1072,0,0
329,-48,0,0,0,0,0,0,0,0,0,-1,1553,1072,0,0
336,-48,0,0,0,0,0,0,0,0,0,-1,1560,1072,0,0
343,-48,0,0,0,0,0,0,0,0,0,-1,1567,1072,0,0
350,-48,0,0,0,0,0,0,0,0,0,-1,1574,1072,0,0
357,-48,0,0,0,0,0,0,0,0,0,-1,1581,1072,0,0
364,-48,0,0,0,0,0,0,0,0,0,-1,1588,1072,0,0
371,-48,0,0,0,0,0,0,0,0,0,-1,1595,1072,0,0
378,-48,0,0,0,0,0,0,0,0,0,-1,1602,1072,0,0
385,-48,0,0,0,0,0,0,0,0,0,-1,1609,1072,0,0
392,-48,0,0,0,0,0,0,0,0,0,-1,1616,1072,0,0
399,-48,0,0,0,0,0,0,0,0,0,-1,1623,1072,0,0
406,-48,0,0,0,0,0,0,0,0,0,-1,1630,1072,0,0
413,-48,0,0,0,0,0,0,0,0,0,-1,1637,1072,0,0
420,-48,0,0,0,0,0,0,0,0,0,-1,1644,1072,0,0
427,-48,0,0,0,0,0,0,0,0,0,-1,1651,1072,0,0
434,-48,0,0,0,0,0,0,0,0,0,-1,1658,1072,0,0
441,-48,0,0,0,0,0,0,0,0,0,-1,1665,1072,0,0
448,-48,0,0,0,0,0,0,0,0,0,-1,1672,1072,0,0
455,-48,0,0,0,0,0,0,0,0,0,-1,1679,1072,0,0
462,-48,0,0,0,0,0,0,0,0,0,-1,1686,1072,0,0
469,-48,0,0,0,0,0,0,0,0,0,-1,1693,1072,0,0
476,-48,0,0,0,0,0,0,0,0,0,-1,1700,1072,0,0
483,-48,0,0,0,0,0,0,0,0,0,-1,1707,1072,0,0
490,-48,0,0,0,0,0,0,0,0,0,-1,1714,1072,0,0
497,-48,0,0,0,0,0,0,0,0,0,-1,1721,1072,0,0
504,-48,0,0,0,0,0,0,0,0,0,-1,1728,1072,0,0
511,-48,0,0,0,0,0,0,0,0,0,-1,1735,1072,0,0
518,-48,0,0,0,0,0,0,0,0,0,-1,1742,1072,0,0
525,-48,0,0,0,0,0,0,0,0,0,-1,1749,1072,0,0
532,-48,0,0,0,0,0,0,0,0,0,-1,1756,1072,0,0
539,-48,0,0,0,0,0,0,0,0,0,-1,1763,1072,0,0
546,-48,0,0,0,0,0,0,0,0,0,-1,1770,1072,0,0
553,-48,0,0,0,0,0,0,0,0,0,-1,1777,1072,0,0
560,-48,0,0,0,0,0,0,0,0,0,-1,1784,1072,0,0
567,-48,0,0,0,0,0,0,0,0,0,-1,1791,1072,0,0
574,-48,0,0,0,0,0,0,0,0,0,-1,1798,1072,0,0
581,-48,0,0,0,0,0,0,0,0,0,-1,1805,1072,0,0
588,-48,0,0,0,0,0,0,0,0,0,-1,1812,1072,0,0
595,-48,0,0,0,0,0,0,0,0,0,-1,1819,1072,0,0
602,-48,0,0,0,0,0,0,0,0,0,-1,1826,1072,0,0
609,-48,0,0,0,0,0,0,0,0,0,-1,1833,1072,0,0
616,-48,0,0,0,0,0,0,0,0,0,-1,1840,1072,0,0
623,-48,0,0,0,0,0,0,0,0,0,-1,1847,1072,0,0
630,-48,0,0,0,0,0,0,0,0,0,-1,1854,1072,0,0
637,-48,0,0,0,0,0,0,0,0,0,-1,1861,1072,0,0
644,-48,0,0,0,0,0,0,0,0,0,-1,1868,1072,0,0
651,-48,17.1147,2.32617,-0.00232923,0.00133615,0.00357058,0.00351691,-0.00451,1.0225,0.00464614,0.0319146,1875,1072,17.1148,-2.3262
658,-48,17.0046,2.41809,-0.000612872,0.00148884,0.00265629,0.00329459,-0.00241862,0.973757,0.00331142,0.0361411,1882,1072,17.0047,-2.41808
665,-48,16.6547,2.74756,0.000428699,0.00153862,0.00178773,0.00285555,-0.000888228,0.935896,0.00225876,0.0416933,1889,1072,16.6546,-2.7476
672,-48,16.8922,2.59839,0.000765883,0.00137432,0.00195387,0.00304751,-0.000907308,0.862628,0.00239217,0.041685,1896,1072,16.8922,-2.59845
679,-48,17.1172,2.59644,0.000207315,0.000984518,0.00301379,0.00363466,-0.00244283,0.849515,0.00353126,0.0384767,1903,1072,17.1172,-2.59643
686,-48,17.23,2.5061,-0.000767373,0.000524748,0.00427378,0.00420102,-0.00444364,0.860414,0.00499165,0.0378415,1910,1072,17.23,-2.50616
693,-48,17.2162,2.44177,-0.0017978,5.11607e-05,0.00550277,0.00470656,-0.00645321,0.868623,0.00646935,0.0400379,1917,1072,17.2162,-2.44176
700,-48,17.2119,2.44067,-0.00275987,-0.000351331,0.00656495,0.00511889,-0.00823009,0.876109,0.0077765,0.0345066,1924,1072,17.2119,-2.44062
707,-48,17.1566,2.4137,-0.00341562,-0.000664858,0.00732193,0.00540975,-0.00949023,0.878238,0.00870937,0.024599,1931,1072,17.1566,-2.4137
714,-48,17.1547,2.45728,-0.00400627,-0.000969227,0.00775606,0.00541557,-0.0103911,0.882068,0.00927544,0.0219853,1938,1072,17.1546,-2.45722
721,-48,17.0641,2.99194,-0.00460597,-0.00108287,0.00785607,0.00520671,-0.0108956,0.895688,0.00948808,0.0349448,1945,1072,17.0641,-2.99193
728,-48,16.8344,3.43555,0,0,0,0,0,0,0,-1,1952,1072,16.8344,-3.43553
735,-48,16.7938,3.45825,-0.00485143,-0.000800053,0.00712502,0.00458164,-0.0102331,0.923897,0.0087583,0.0166548,1959,1072,16.7939,-3.45826
742,-48,16.7432,3.45166,-0.00404975,-0.000293097,0.00598982,0.004106,-0.00844884,0.937335,0.00739168,0.0128042,1966,1072,16.7431,-3.45168
749,-48,16.785,3.41919,-0.00269245,-0.000806454,0.00405178,0.00241061,-0.00590952,0.899731,0.00494319,0.012539,1973,1072,16.785,-3.41916
756,-48,16.8047,3.39771,-0.00141502,-0.000854386,0.0015063,0.000397452,-0.00266686,0.877395,0.00192412,0.0124227,1980,1072,16.8046,-3.39775
763,-48,16.7742,3.38342,-0.000245529,-0.00102226,-0.00127618,0.000700066,-0.00196786,-0.63769,0.00159725,0.012538,1987,1072,16.7742,-3.3834
770,-48,16.761,3.35925,0.0013343,-0.0014989,-0.00467398,0.00480164,-0.00496624,-0.638257,0.00563975,0.0126535,1994,1072,16.761,-3.35931
777,-48,16.7506,3.32275,0.00296981,-0.00248859,-0.00847953,0.00914853,-0.00866731,-0.629705,0.0102872,0.0107889,2001,1072,16.7506,-3.32281
784,-48,16.7281,3.26794,0.00417931,-0.0042537,-0.0125216,0.0131752,-0.0132496,-0.622992,0.0152564,0.0215036,2008,1072,16.7281,-3.26795
791,-48,16.7263,3.15881,0.00486653,-0.00683873,-0.0174351,0.0174051,-0.0193773,-0.623467,0.0212465,0.0398821,2015,1072,16.7263,-3.15883
798,-48,17.0909,2.66626,0.0051291,-0.0103797,-0.0236599,0.022273,-0.0275236,-0.627042,0.0288033,0.044468,2022,1072,17.091,-2.66621
805,-48,17.292,1.87549,0.00460199,-0.014981,-0.0313881,0.0276904,-0.0380694,-0.634207,0.0381237,0.0447183,2029,1072,17.2919,-1.87552
812,-48,17.467,1.11707,0,0,0,0,0,0,0,-1,2036,1072,17.4671,-1.11711
-700,-55,-9.39478,1.86047,0,0,0,0,0,0,0,-1,524,1079,-9.39477,-1.86052
-693,-55,-9.87494,1.63074,0,0,0,0,0,0,0,-1,531,1079,-9.87492,-1.63077
-686,-55,-10.2429,1.30859,0,0,0,0,0,0,0,-1,538,1079,-10.2429,-1.30864
-679,-55,-10.4843,1.21997,0,0,0,0,0,0,0,-1,545,1079,-10.4843,-1.21995
-672,-55,-10.5886,1.25061,0,0,0,0,0,0,0,-1,552,1079,-10.5886,-1.25055
-665,-55,-10.7914,0.414063,-0.00846023,0.00095159,-0.00415565,0.00252382,-0.0100325,-1.20911,0.00766927,0.0437564,559,1079,-10.7914,-0.414037
-658,-55,-10.9167,0.443848,-0.00577307,0.00126407,-0.00189224,0.00174061,-0.00624961,-1.32409,0.00485183,0.0429851,566,1079,-10.9167,-0.443788
-651,-55,-10.8619,0.736206,-0.00364835,0.00137001,-0.000501489,0.00141963,-0.00369797,-1.47216,0.00305069,0.0316347,573,1079,-10.8619,-0.736175
-644,-55,-10.7693,1.00024,-0.00208638,0.0013636,0.000140691,0.00136933,-0.00209211,1.53011,0.00201293,0.0141876,580,1079,-10.7693,-1.00022
-637,-55,-10.7633,1.02502,-0.00154696,0.00137965,-6.99505e-05,0.00138132,-0.00154863,-1.54691,0.00169253,0.0121951,587,1079,-10.7633,-1.02502
-630,-55,-10.7523,1.06738,-0.00084689,0.000639206,-0.000626775,0.000868252,-0.00107594,-1.22044,0.00112461,0.0141841,594,1079,-10.7523,-1.06735
-623,-55,-10.7582,1.12195,-0.000364925,-2.88486e-05,-0.00153575,0.00134803,-0.00174181,-0.83989,0.00178874,0.0129769,601,1079,-10.7582,-1.12195
-616,-55,-10.7581,1.16467,-0.00019878,8.51409e-05,-0.00272773,0.00267461,-0.00278825,-0.811396,0.00315421,0.0118006,608,1079,-10.7581,-1.16469
-609,-55,-10.7577,1.22925,-0.000727912,-9.29841e-05,-0.00402089,0.00362295,-0.00444385,-0.824793,0.0046654,0.0125988,615,1079,-10.7577,-1.22921
-602,-55,-10.7647,1.26685,-0.00117841,-0.000640045,-0.00486984,0.00396805,-0.0057865,-0.813008,0.00566432,0.0132116,622,1079,-10.7647,-1.26684
-595,-55,-10.742,1.3219,-0.00144065,-0.000983211,-0.00543859,0.00423147,-0.00665533,-0.806413,0.00633721,0.0151963,629,1079,-10.742,-1.32189
-588,-55,-10.785,0.984131,-0.00145835,-0.00113506,-0.00570929,0.00441488,-0.00700829,-0.799551,0.00665158,0.0264781,636,1079,-10.7851,-0.984191
-581,-55,-10.8952,0.46582,-0.00133373,-0.00116491,-0.00563765,0.00438895,-0.0068876,-0.792884,0.00656358,0.0353716,643,1079,-10.8952,-0.465877
-574,-55,-10.7617,0.391479,-0.00118504,-0.00114643,-0.00533996,0.00417425,-0.00650573,-0.787206,0.00621487,0.0388321,650,1079,-10.7617,-0.39147
-567,-55,-10.7209,0.534302,-0.000943422,-0.00103724,-0.00467811,0.00368802,-0.00566868,-0.780385,0.00544229,0.0404349,657,1079,-10.721,-0.534329
-560,-55,-11.0129,0.536865,-0.000589941,-0.000851462,-0.0036748,0.00295642,-0.00439783,-0.767614,0.00427308,0.0401978,664,1079,-11.013,-0.536901
-553,-55,-11.0342,0.526245,-0.00015587,-0.00060427,-0.00238023,0.0020107,-0.00277084,-0.73844,0.00277222,0.0427922,671,1079,-11.0342,-0.526286
-546,-55,-10.8524,0.469727,0.00030712,-0.000306209,-0.000831427,0.000886635,-0.000885724,-0.608718,0.00102327,0.0410427,678,1079,-10.8523,-0.469685
-539,-55,-10.8448,0.167603,0.00065756,3.80669e-06,0.000582174,0.000998347,-0.00033698,0.529593,0.000801852,0.0397828,685,1079,-10.8448,-0.167647
-532,-55,-10.8267,-0.0939941,0.000303318,0.00012481,0.000571875,0.000792862,-0.000364734,0.707987,0.000683405,0.0421,692,1079,-10.8267,0.0940342
-525,-55,0,0,0,0,0,0,0,0,0,-1,699,1079,0,0
-518,-55,0,0,0,0,0,0,0,0,0,-1,706,1079,0,0
-511,-55,0,0,0,0,0,0,0,0,0,-1,713,1079,0,0
-504,-55,0,0,0,0,0,0,0,0,0,-1,720,1079,0,0
-497,-55,0,0,0,0,0,0,0,0,0,-1,727,1079,0,0
-490,-55,0,0,0,0,0,0,0,0,0,-1,734,1079,0,0
-483,-55,0,0,0,0,0,0,0,0,0,-1,741,1079,0,0
-476,-55,0,0,0,0,0,0,0,0,0,-1,748,1079,0,0
-469,-55,0,0,0,0,0,0,0,0,0,-1,755,1079,0,0
-462,-55,0,0,0,0,0,0,0,0,0,-1,762,1079,0,0
-455,-55,0,0,0,0,0,0,0,0,0,-1,769,1079,0,0
-448,-55,0,0,0,0,0,0,0,0,0,-1,776,1079,0,0
-441,-55,0,0,0,0,0,0,0,0,0,-1,783,1079,0,0
-434,-55,0,0,0,0,0,0,0,0,0,-1,790,1079,0,0
-427,-55,0,0,0,0,0,0,0,0,0,-1,797,1079,0,0
-420,-55,0,0,0,0,0,0,0,0,0,-1,804,1079,0,0
-413,-55,0,0,0,0,0,0,0,0,0,-1,811,1079,0,0
-406,-55,0,0,0,0,0,0,0,0,0,-1,818,1079,0,0
-399,-55,0,0,0,0,0,0,0,0,0,-1,825,1079,0,0
-392,-55,0,0,0,0,0,0,0,0,0,-1,832,1079,0,0
-385,-55,0,0,0,0,0,0,0,0,0,-1,839,1079,0,0
-378,-55,0,0,0,0,0,0,0,0,0,-1,846,1079,0,0
-371,-55,0,0,0,0,0,0,0,0,0,-1,853,1079,0,0
-364,-55,0,0,0,0,0,0,0,0,0,-1,860,1079,0,0
-357,-55,0,0,0,0,0,0,0,0,0,-1,867,1079,0,0
-350,-55,0,0,0,0,0,0,0,0,0,-1,874,1079,0,0
-343,-55,0,0,0,0,0,0,0,0,0,-1,881,1079,0,0
-336,-55,0,0,0,0,0,0,0,0,0,-1,888,1079,0,0
-329,-55,0,0,0,0,0,0,0,0,0,-1,895,1079,0,0
-322,-55,0,0,0,0,0,0,0,0,0,-1,902,1079,0,0
-315,-55,0,0,0,0,0,0,0,0,0,-1,909,1079,0,0
-308,-55,0,0,0,0,0,0,0,0,0,-1,916,1079,0,0
-301,-55,0,0,0,0,0,0,0,0,0,-1,923,1079,0,0
-294,-55,0,0,0,0,0,0,0,0,0,-1,930,1079,0,0
-287,-55,0,0,0,0,0,0,0,0,0,-1,937,1079,0,0
-280,-55,0,0,0,0,0,0,0,0,0,-1,944,1079,0,0
-273,-55,0,0,0,0,0,0,0,0,0,-1,951,1079,0,0
-266,-55,0,0,0,0,0,0,0,0,0,-1,958,1079,0,0
-259,-55,0,0,0,0,0,0,0,0,0,-1,965,1079,0,0
-252,-55,0,0,0,0,0,0,0,0,0,-1,972,1079,0,0
-245,-55,0,0,0,0,0,0,0,0,0,-1,979,1079,0,0
-238,-55,0,0,0,0,0,0,0,0,0,-1,986,1079,0,0
-231,-55,0,0,0,0,0,0,0,0,0,-1,993,1079,0,0
-224,-55,0,0,0,0,0,0,0,0,0,-1,1000,1079,0,0
-217,-55,0,0,0,0,0,0,0,0,0,-1,1007,1079,0,0
-210,-55,0,0,0,0,0,0,0,0,0,-1,1014,1079,0,0
-203,-55,0,0,0,0,0,0,0,0,0,-1,1021,1079,0,0
-196,-55,0,0,0,0,0,0,0,0,0,-1,1028,1079,0,0
-189,-55,0,0,0,0,0,0,0,0,0,-1,1035,1079,0,0
-182,-55,0,0,0,0,0,0,0,0,0,-1,1042,1079,0,0
-175,-55,0,0,0,0,0,0,0,0,0,-1,1049,1079,0,0
-168,-55,0,0,0,0,0,0,0,0,0,-1,1056,1079,0,0
-161,-55,0,0,0,0,0,0,0,0,0,-1,1063,1079,0,0
-154,-55,0,0,0,0,0,0,0,0,0,-1,1070,1079,0,0
-147,-55,0,0,0,0,0,0,0,0,0,-1,1077,1079,0,0
-140,-55,0,0,0,0,0,0,0,0,0,-1,1084,1079,0,0
-133,-55,0,0,0,0,0,0,0,0,0,-1,1091,1079,0,0
-126,-55,0,0,0,0,0,0,0,0,0,-1,1098,1079,0,0
-119,-55,0,0,0,0,0,0,0,0,0,-1,1105,1079,0,0
-112,-55,0,0,0,0,0,0,0,0,0,-1,1112,1079,0,0
-105,-55,0,0,0,0,0,0,0,0,0,-1,1119,1079,0,0
-98,-55,0,0,0,0,0,0,0,0,0,-1,1126,1079,0,0
-91,-55,0,0,0,0,0,0,0,0,0,-1,1133,1079,0,0
-84,-55,0,0,0,0,0,0,0,0,0,-1,1140,1079,0,0
-77,-55,0,0,0,0,0,0,0,0,0,-1,1147,1079,0,0
-70,-55,0,0,0,0,0,0,0,0,0,-1,1154,1079,0,0
-63,-55,0,0,0,0,0,0,0,0,0,-1,1161,1079,0,0
-56,-55,0,0,0,0,0,0,0,0,0,-1,1168,1079,0,0
-49,-55,0,0,0,0,0,0,0,0,0,-1,1175,1079,0,0
-42,-55,0,0,0,0,0,0,0,0,0,-1,1182,1079,0,0
-35,-55,0,0,0,0,0,0,0,0,0,-1,1189,1079,0,0
-28,-55,0,0,0,0,0,0,0,0,0,-1,1196,1079,0,0
-21,-55,0,0,0,0,0,0,0,0,0,-1,1203,1079,0,0
-14,-55,0,0,0,0,0,0,0,0,0,-1,1210,1079,0,0
-7,-55,0,0,0,0,0,0,0,0,0,-1,1217,1079,0,0
0,-55,0,0,0,0,0,0,0,0,0,-1,1224,1079,0,0
7,-55,0,0,0,0,0,0,0,0,0,-1,1231,1079,0,0
14,-55,0,0,0,0,0,0,0,0,0,-1,1238,1079,0,0
21,-55,0,0,0,0,0,0,0,0,0,-1,1245,1079,0,0
28,-55,0,0,0,0,0,0,0,0,0,-1,1252,1079,0,0
35,-55,0,0,0,0,0,0,0,0,0,-1,1259,1079,0,0
42,-55,0,0,0,0,0,0,0,0,0,-1,1266,1079,0,0
49,-55,0,0,0,0,0,0,0,0,0,-1,1273,1079,0,0
56,-55,0,0,0,0,0,0,0,0,0,-1,1280,1079,0,0
63,-55,0,0,0,0,0,0,0,0,0,-1,1287,1079,0,0
70,-55,0,0,0,0,0,0,0,0,0,-1,1294,1079,0,0
77,-55,0,0,0,0,0,0,0,0,0,-1,1301,1079,0,0
84,-55,0,0,0,0,0,0,0,0,0,-1,1308,1079,0,0
91,-55,0,0,0,0,0,0,0,0,0,-1,1315,1079,0,0
98,-55,0,0,0,0,0,0,0,0,0,-1,1322,1079,0,0
105,-55,0,0,0,0,0,0,0,0,0,-1,1329,1079,0,0
112,-55,0,0,0,0,0,0,0,0,0,-1,1336,1079,0,0
119,-55,0,0,0,0,0,0,0,0,0,-1,1343,1079,0,0
126,-55,0,0,0,0,0,0,0,0,0,-1,1350,1079,0,0
133,-55,0,0,0,0,0,0,0,0,0,-1,1357,1079,0,0
140,-55,0,0,0,0,0,0,0,0,0,-1,1364,1079,0,0
147,-55,0,0,0,0,0,0,0,0,0,-1,1371,1079,0,0
154,-55,0,0,0,0,0,0,0,0,0,-1,1378,1079,0,0
161,-55,0,0,0,0,0,0,0,0,0,-1,1385,1079,0,0
168,-55,0,0,0,0,0,0,0,0,0,-1,1392,1079,0,0
175,-55,0,0,0,0,0,0,0,0,0,-1,1399,1079,0,0
182,-55,0,0,0,0,0,0,0,0,0,-1,1406,1079,0,0
189,-55,0,0,0,0,0,0,0,0,0,-1,1413,1079,0,0
196,-55,0,0,0,0,0,0,0,0,0,-1,1420,1079,0,0
203,-55,0,0,0,0,0,0,0,0,0,-1,1427,1079,0,0
210,-55,0,0,0,0,0,0,0,0,0,-1,1434,1079,0,0
217,-55,0,0,0,0,0,0,0,0,0,-1,1441,1079,0,0
224,-55,0,0,0,0,0,0,0,0,0,-1,1448,1079,0,0
231,-55,0,0,0,0,0,0,0,0,0,-1,1455,1079,0,0
238,-55,0,0,0,0,0,0,0,0,0,-1,1462,1079,0,0
245,-55,0,0,0,0,0,0,0,0,0,-1,1469,1079,0,0
252,-55,0,0,0,0,0,0,0,0,0,-1,1476,1079,0,0
259,-55,0,0,0,0,0,0,0,0,0,-1,1483,1079,0,0
266,-55,0,0,0,0,0,0,0,0,0,-1,1490,1079,0,0
273,-55,0,0,0,0,0,0,0,0,0,-1,1497,1079,0,0
280,-55,0,0,0,0,0,0,0,0,0,-1,1504,1079,0,0
287,-55,0,0,0,0,0,0,0,0,0,-1,1511,1079,0,0
294,-55,0,0,0,0,0,0,0,0,0,-1,1518,1079,0,0
301,-55,0,0,0,0,0,0,0,0,0,-1,1525,1079,0,0
308,-55,0,0,0,0,0,0,0,0,0,-1,1532,1079,0,0
315,-55,0,0,0,0,0,0,0,0,0,-1,1539,1079,0,0
322,-55,0,0,0,0,0,0,0,0,0,-1,1546,1079,0,0
329,-55,0,0,0,0,0,0,0,0,0,-1,1553,1079,0,0
336,-55,0,0,0,0,0,0,0,0,0,-1,1560,1079,0,0
343,-55,0,0,0,0,0,0,0,0,0,-1,1567,1079,0,0
350,-55,0,0,0,0,0,0,0,0,0,-1,1574,1079,0,0
357,-55,0,0,0,0,0,0,0,0,0,-1,1581,1079,0,0
364,-55,0,0,0,0,0,0,0,0,0,-1,1588,1079,0,0
371,-55,0,0,0,0,0,0,0,0,0,-1,1595,1079,0,0
378,-55,0,0,0,0,0,0,0,0,0,-1,1602,1079,0,0
385,-55,0,0,0,0,0,0,0,0,0,-1,1609,1079,0,0
392,-55,0,0,0,0,0,0,0,0,0,-1,1616,1079,0,0
399,-55,0,0,0,0,0,0,0,0,0,-1,1623,1079,0,0
406,-55,0,0,0,0,0,0,0,0,0,-1,1630,1079,0,0
413,-55,0,0,0,0,0,0,0,0,0,-1,1637,1079,0,0
420,-55,0,0,0,0,0,0,0,0,0,-1,1644,1079,0,0
427,-55,0,0,0,0,0,0,0,0,0,-1,1651,1079,0,0
434,-55,0,0,0,0,0,0,0,0,0,-1,1658,1079,0,0
441,-55,0,0,0,0,0,0,0,0,0,-1,1665,1079,0,0
448,-55,0,0,0,0,0,0,0,0,0,-1,1672,1079,0,0
455,-55,0,0,0,0,0,0,0,0,0,-1,1679,1079,0,0
462,-55,0,0,0,0,0,0,0,0,0,-1,1686,1079,0,0
469,-55,0,0,0,0,0,0,0,0,0,-1,1693,1079,0,0
476,-55,0,0,0,0,0,0,0,0,0,-1,1700,1079,0,0
483,-55,0,0,0,0,0,0,0,0,0,-1,1707,1079,0,0
490,-55,0,0,0,0,0,0,0,0,0,-1,1714,1079,0,0
497,-55,0,0,0,0,0,0,0,0,0,-1,1721,1079,0,0
504,-55,0,0,0,0,0,0,0,0,0,-1,1728,1079,0,0
511,-55,0,0,0,0,0,0,0,0,0,-1,1735,1079,0,0
518,-55,0,0,0,0,0,0,0,0,0,-1,1742,1079,0,0
525,-55,0,0,0,0,0,0,0,0,0,-1,1749,1079,0,0
532,-55,0,0,0,0,0,0,0,0,0,-1,1756,1079,0,0
539,-55,0,0,0,0,0,0,0,0,0,-1,1763,1079,0,0
546,-55,0,0,0,0,0,0,0,0,0,-1,1770,1079,0,0
553,-55,0,0,0,0,0,0,0,0,0,-1,1777,1079,0,0
560,-55,0,0,0,0,0,0,0,0,0,-1,1784,1079,0,0
567,-55,0,0,0,0,0,0,0,0,0,-1,1791,1079,0,0
574,-55,0,0,0,0,0,0,0,0,0,-1,1798,1079,0,0
581,-55,0,0,0,0,0,0,0,0,0,-1,1805,1079,0,0
588,-55,0,0,0,0,0,0,0,0,0,-1,1812,1079,0,0
595,-55,0,0,0,0,0,0,0,0,0,-1,1819,1079,0,0
602,-55,0,0,0,0,0,0,0,0,0,-1,1826,1079,0,0
609,-55,0,0,0,0,0,0,0,0,0,-1,1833,1079,0,0
616,-55,0,0,0,0,0,0,0,0,0,-1,1840,1079,0,0
623,-55,0,0,0,0,0,0,0,0,0,-1,1847,1079,0,0
630,-55,0,0,0,0,0,0,0,0,0,-1,1854,1079,0,0
637,-55,0,0,0,0,0,0,0,0,0,-1,1861,1079,0,0
644,-55,0,0,0,0,0,0,0,0,0,-1,1868,1079,0,0
651,-55,17.0514,2.51746,-0.00190898,-8.92549e-05,0.0022296,0.00140898,-0.00340722,0.979126,0.0028593,0.0344104,1875,1079,17.0514,-2.51752
658,-55,17.155,2.53857,-0.000407306,0.000453814,0.00170884,0.00178551,-0.001739,0.908809,0.00203493,0.0337565,1882,1079,17.1551,-2.53855
665,-55,16.9559,2.65723,0.000573778,0.00079979,0.00111776,0.00181024,-0.000436671,0.835777,0.00137568,0.0385338,1889,1079,16.9559,-2.65718
672,-55,16.9652,2.63806,0.000777851,0.000792635,0.00160245,0.00238771,-0.000817225,0.787705,0.001923,0.0385833,1896,1079,16.9652,-2.63804
679,-55,17.14,2.52722,0.000108054,0.000495777,0.00289463,0.00320303,-0.0025992,0.818835,0.00335596,0.0362803,1903,1079,17.14,-2.52717
686,-55,17.1312,2.35913,-0.000933408,9.37188e-05,0.00430834,0.003919,-0.00475869,0.844719,0.00501788,0.0387618,1910,1079,17.1312,-2.35913
693,-55,17.1312,2.32727,-0.00201008,-0.000343051,0.00564325,0.0045279,-0.00688104,0.858719,0.00663349,0.0397965,1917,1079,17.1313,-2.32727
700,-55,17.1245,2.37,-0.00299781,-0.000699295,0.00676681,0.00501516,-0.00871226,0.869514,0.00802077,0.0345404,1924,1079,17.1245,-2.36997
707,-55,17.14,2.42468,-0.00367442,-0.000980895,0.00758137,0.0053724,-0.0100277,0.873302,0.00902566,0.0231741,1931,1079,17.14,-2.42472
714,-55,17.1538,2.49426,-0.00425982,-0.00124545,0.00802551,0.00541317,-0.0109184,0.878217,0.00960598,0.0259434,1938,1079,17.1538,-2.49429
721,-55,17.0956,3.03931,-0.00482479,-0.00135955,0.00810672,0.00519764,-0.011382,0.890677,0.0097917,0.0341684,1945,1079,17.0956,-3.03925
728,-55,16.7733,3.44189,0,0,0,0,0,0,0,-1,1952,1079,16.7733,-3.44184
735,-55,16.7495,3.45764,-0.00502251,-0.00105382,0.00728353,0.00451084,-0.0105872,0.918392,0.00894906,0.0166576,1959,1079,16.7495,-3.45764
742,-55,16.7432,3.46143,-0.00420508,-0.000568292,0.00611785,0.00399569,-0.00876906,0.929854,0.00753954,0.0152553,1966,1079,16.7431,-3.46148
749,-55,16.7609,3.41797,-0.0028438,-0.000986137,0.00425925,0.00244438,-0.00627432,0.892754,0.00519311,0.0122056,1973,1079,16.7609,-3.41799
756,-55,16.7622,3.38379,-0.00158674,-0.0010316,0.00180732,0.000519343,-0.00313768,0.861592,0.00228467,0.0117706,1980,1079,16.7622,-3.3838
763,-55,16.7405,3.3717,-0.00041229,-0.00126556,-0.00094196,0.000195146,-0.001873,-0.572757,0.00131854,0.0143837,1987,1079,16.7405,-3.37168
770,-55,16.7314,3.34082,0.00114657,-0.00177732,-0.00422243,0.00415298,-0.00478373,-0.61874,0.00516389,0.0141075,1994,1079,16.7314,-3.34077
777,-55,16.7262,3.31506,0.00267301,-0.00286185,-0.00780697,0.00818854,-0.00837738,-0.615067,0.00956455,0.0118926,2001,1079,16.7262,-3.31502
784,-55,16.7661,3.29456,0.00371501,-0.00476891,-0.0116143,0.0118378,-0.0128917,-0.610307,0.0142819,0.0279554,2008,1079,16.7661,-3.29455
791,-55,17.1337,3.19312,0.00421333,-0.00752794,-0.0163575,0.0157218,-0.0190364,-0.61311,0.020098,0.0418746,2015,1079,17.1337,-3.19307
798,-55,17.2252,2.87976,0.00423074,-0.0112795,-0.0225052,0.0202795,-0.0273283,-0.619473,0.0275866,0.0459571,2022,1079,17.2252,-2.87973
805,-55,17.4064,2.09485,0,0,0,0,0,0,0,-1,2029,1079,17.4063,-2.0948
812,-55,16.9351,0.598389,0,0,0,0,0,0,0,-1,2036,1079,16.935,-0.598334
-700,-62,-9.22168,1.92395,0,0,0,0,0,0,0,-1,524,1086,-9.2217,-1.92398
-693,-62,-10.5479,-0.336548,0,0,0,0,0,0,0,-1,531,1086,-10.5479,0.33653
-686,-62,-11.1479,-0.684692,0,0,0,0,0,0,0,-1,538,1086,-11.148,0.684733
-679,-62,-11.1862,-0.443726,-0.017233,-0.00194452,-0.012759,0.00528492,-0.0244624,-1.05529,0.0183257,0.0494772,545,1086,-11.1862,0.443709
-672,-62,-11.1545,-0.168091,-0.0130883,-0.00064731,-0.00754866,0.00291365,-0.0166492,-1.13002,0.0121874,0.045925,552,1086,-11.1545,0.168058
-665,-62,-11.0878,0.283691,-0.00937065,0.000227236,-0.00382928,0.00156777,-0.0107112,-1.23405,0.00771665,0.042506,559,1086,-11.0879,-0.283644
-658,-62,-10.97,0.512573,-0.00628006,0.000772168,-0.0013795,0.00103241,-0.0065403,-1.38434,0.00474195,0.0419901,566,1086,-10.9699,-0.51257
-651,-62,-10.8011,0.845215,-0.00388727,0.00104883,6.97209e-05,0.00104981,-0.00388826,1.55668,0.00300389,0.0331274,573,1086,-10.8011,-0.845252
-644,-62,-10.7232,0.966797,-0.00217615,0.00116018,0.000697727,0.00130022,-0.00231618,1.37272,0.00211522,0.0111906,580,1086,-10.7232,-0.96683
-637,-62,-10.7195,1.01526,-0.00154199,0.0012111,0.000502693,0.00130002,-0.0016309,1.39573,0.00169576,0.0101072,587,1086,-10.7195,-1.01522
-630,-62,-10.7227,1.06592,-0.000831446,0.00060848,-0.000196785,0.000634889,-0.000857855,-1.43739,0.000865035,0.0116159,594,1086,-10.7227,-1.06593
-623,-62,-10.7185,1.12451,-0.000389895,4.09318e-06,-0.00126814,0.00109045,-0.00147625,-0.862453,0.00148745,0.0124338,601,1086,-10.7185,-1.12456
-616,-62,-10.7048,1.17761,-0.000395053,-2.24971e-05,-0.00258794,0.00238586,-0.00280341,-0.821326,0.00299926,0.0122106,608,1086,-10.7048,-1.17758
-609,-62,-10.7078,1.23572,-0.00101342,-0.000317597,-0.00398384,0.00333349,-0.00466451,-0.828953,0.00463892,0.0126268,615,1086,-10.7078,-1.2357
-602,-62,-10.7059,1.28491,-0.00156339,-0.000846295,-0.00489761,0.00370587,-0.00611556,-0.821937,0.00572701,0.0133166,622,1086,-10.7059,-1.28488
-595,-62,-10.686,1.35278,-0.00191558,-0.00124877,-0.0055169,0.00394479,-0.00710915,-0.815578,0.00646857,0.0157548,629,1086,-10.686,-1.35274
-588,-62,-10.761,1.10193,-0.00198609,-0.00149373,-0.005807,0.00407231,-0.00755213,-0.806582,0.00681087,0.0251935,636,1086,-10.761,-1.10189
-581,-62,-10.9152,0.656494,-0.00184228,-0.0016363,-0.00573046,0.00399209,-0.00747067,-0.794383,0.00671884,0.0334101,643,1086,-10.9151,-0.656498
-574,-62,-10.8946,0.359863,-0.00168316,-0.00173815,-0.00542875,0.00371816,-0.00713948,-0.782866,0.00637156,0.0366671,650,1086,-10.8946,-0.359816
-567,-62,-10.952,0.154663,-0.00138542,-0.00176046,-0.00475786,0.00318861,-0.00633449,-0.765702,0.00559727,0.0416746,657,1086,-10.952,-0.154645
-560,-62,-11.2203,0.5448,-0.000920754,-0.001718,-0.00374007,0.00244188,-0.00508063,-0.732308,0.00443129,0.0398791,664,1086,-11.2203,-0.54486
-553,-62,-11.0574,0.671875,-0.000310154,-0.00162608,-0.00242905,0.00154846,-0.0034847,-0.653135,0.00297671,0.0373963,671,1086,-11.0574,-0.671934
-546,-62,-10.8627,0.624878,0.000420287,-0.00149835,-0.000863789,0.000751869,-0.00182993,-0.366523,0.00153331,0.0320234,678,1086,-10.8628,-0.624819
-539,-62,-10.7927,0.336426,0.00114837,-0.0013665,0.000601913,0.00128501,-0.00150314,0.223225,0.00161138,0.0363193,685,1086,-10.7927,-0.33647
-532,-62,-10.7114,0.118408,0.00120717,-0.00149463,0.000633425,0.0013483,-0.00163576,0.219227,0.00172551,0.0417776,692,1086,-10.7114,-0.118386
-525,-62,0,0,0,0,0,0,0,0,0,-1,699,1086,0,0
-518,-62,0,0,0,0,0,0,0,0,0,-1,706,1086,0,0
-511,-62,0,0,0,0,0,0,0,0,0,-1,713,1086,0,0
-504,-62,0,0,0,0,0,0,0,0,0,-1,720,1086,0,0
-497,-62,0,0,0,0,0,0,0,0,0,-1,727,1086,0,0
-490,-62,0,0,0,0,0,0,0,0,0,-1,734,1086,0,0
-483,-62,0,0,0,0,0,0,0,0,0,-1,741,1086,0,0
-476,-62,0,0,0,0,0,0,0,0,0,-1,748,1086,0,0
-469,-62,0,0,0,0,0,0,0,0,0,-1,755,1086,0,0
-462,-62,0,0,0,0,0,0,0,0,0,-1,762,1086,0,0
-455,-62,0,0,0,0,0,0,0,0,0,-1,769,1086,0,0
-448,-62,0,0,0,0,0,0,0,0,0,-1,776,1086,0,0
-441,-62,0,0,0,0,0,0,0,0,0,-1,783,1086,0,0
-434,-62,0,0,0,0,0,0,0,0,0,-1,790,1086,0,0
-427,-62,0,0,0,0,0,0,0,0,0,-1,797,1086,0,0
-420,-62,0,0,0,0,0,0,0,0,0,-1,804,1086,0,0
-413,-62,0,0,0,0,0,0,0,0,0,-1,811,1086,0,0
-406,-62,0,0,0,0,0,0,0,0,0,-1,818,1086,0,0
-399,-62,0,0,0,0,0,0,0,0,0,-1,825,1086,0,0
-392,-62,0,0,0,0,0,0,0,0,0,-1,832,1086,0,0
-385,-62,0,0,0,0,0,0,0,0,0,-1,839,1086,0,0
-378,-62,0,0,0,0,0,0,0,0,0,-1,846,1086,0,0
-371,-62,0,0,0,0,0,0,0,0,0,-1,853,1086,0,0
-364,-62,0,0,0,0,0,0,0,0,0,-1,860,1086,0,0
-357,-62,0,0,0,0,0,0,0,0,0,-1,867,1086,0,0
-350,-62,0,0,0,0,0,0,0,0,0,-1,874,1086,0,0
-343,-62,0,0,0,0,0,0,0,0,0,-1,881,1086,0,0
-336,-62,0,0,0,0,0,0,0,0,0,-1,888,1086,0,0
-329,-62,0,0,0,0,0,0,0,0,0,-1,895,1086,0,0
-322,-62,0,0,0,0,0,0,0,0,0,-1,902,1086,0,0
-315,-62,0,0,0,0,0,0,0,0,0,-1,909,1086,0,0
-308,-62,0,0,0,0,0,0,0,0,0,-1,916,1086,0,0
-301,-62,0,0,0,0,0,0,0,0,0,-1,923,1086,0,0
-294,-62,0,0,0,0,0,0,0,0,0,-1,930,1086,0,0
-287,-62,0,0,0,0,0,0,0,0,0,-1,937,1086,0,0
-280,-62,0,0,0,0,0,0,0,0,0,-1,944,1086,0,0
-273,-62,0,0,0,0,0,0,0,0,0,-1,951,1086,0,0
-266,-62,0,0,0,0,0,0,0,0,0,-1,958,1086,0,0
-259,-62,0,0,0,0,0,0,0,0,0,-1,965,1086,0,0
-252,-62,0,0,0,0,0,0,0,0,0,-1,972,1086,0,0
-245,-62,0,0,0,0,0,0,0,0,0,-1,979,1086,0,0
-238,-62,0,0,0,0,0,0,0,0,0,-1,986,1086,0,0
-231,-62,0,0,0,0,0,0,0,0,0,-1,993,1086,0,0
-224,-62,0,0,0,0,0,0,0,0,0,-1,1000,1086,0,0
-217,-62,0,0,0,0,0,0,0,0,0,-1,1007,1086,0,0
-210,-62,0,0,0,0,0,0,0,0,0,-1,1014,1086,0,0
-203,-62,0,0,0,0,0,0,0,0,0,-1,1021,1086,0,0
-196,-62,0,0,0,0,0,0,0,0,0,-1,1028,1086,0,0
-189,-62,0,0,0,0,0,0,0,0,0,-1,1035,1086,0,0
-182,-62,0,0,0,0,0,0,0,0,0,-1,1042,1086,0,0
-175,-62,0,0,0,0,0,0,0,0,0,-1,1049,1086,0,0
-168,-62,0,0,0,0,0,0,0,0,0,-1,1056,1086,0,0
-161,-62,0,0,0,0,0,0,0,0,0,-1,1063,1086,0,0
-154,-62,0,0,0,0,0,0,0,0,0,-1,1070,1086,0,0
-147,-62,0,0,0,0,0,0,0,0,0,-1,1077,1086,0,0
-140,-62,0,0,0,0,0,0,0,0,0,-1,1084,1086,0,0
-133,-62,0,0,0,0,0,0,0,0,0,-1,1091,1086,0,0
-126,-62,0,0,0,0,0,0,0,0,0,-1,1098,1086,0,0
-119,-62,0,0,0,0,0,0,0,0,0,-1,1105,1086,0,0
-112,-62,0,0,0,0,0,0,0,0,0,-1,1112,1086,0,0
-105,-62,0,0,0,0,0,0,0,0,0,-1,1119,1086,0,0
-98,-62,0,0,0,0,0,0,0,0,0,-1,1126,1086,0,0
-91,-62,0,0,0,0,0,0,0,0,0,-1,1133,1086,0,0
-84,-62,0,0,0,0,0,0,0,0,0,-1,1140,1086,0,0
-77,-62,0,0,0,0,0,0,0,0,0,-1,1147,1086,0,0
-70,-62,0,0,0,0,0,0,0,0,0,-1,1154,1086,0,0
-63,-62,0,0,0,0,0,0,0,0,0,-1,1161,1086,0,0
-56,-62,0,0,0,0,0,0,0,0,0,-1,1168,1086,0,0
-49,-62,0,0,0,0,0,0,0,0,0,-1,1175,1086,0,0
-42,-62,0,0,0,0,0,0,0,0,0,-1,1182,1086,0,0
-35,-62,0,0,0,0,0,0,0,0,0,-1,1189,1086,0,0
-28,-62,0,0,0,0,0,0,0,0,0,-1,1196,1086,0,0
-21,-62,0,0,0,0,0,0,0,0,0,-1,1203,1086,0,0
-14,-62,0,0,0,0,0,0,0,0,0,-1,1210,1086,0,0
-7,-62,0,0,0,0,0,0,0,0,0,-1,1217,1086,0,0
0,-62,0,0,0,0,0,0,0,0,0,-1,1224,1086,0,0
7,-62,0,0,0,0,0,0,0,0,0,-1,1231,1086,0,0
14,-62,0,0,0,0,0,0,0,0,0,-1,1238,1086,0,0
21,-62,0,0,0,0,0,0,0,0,0,-1,1245,1086,0,0
28,-62,0,0,0,0,0,0,0,0,0,-1,1252,1086,0,0
35,-62,0,0,0,0,0,0,0,0,0,-1,1259,1086,0,0
42,-62,0,0,0,0,0,0,0,0,0,-1,1266,1086,0,0
49,-62,0,0,0,0,0,0,0,0,0,-1,1273,1086,0,0
56,-62,0,0,0,0,0,0,0,0,0,-1,1280,1086,0,0
63,-62,0,0,0,0,0,0,0,0,0,-1,1287,1086,0,0
70,-62,0,0,0,0,0,0,0,0,0,-1,1294,1086,0,0
77,-62,0,0,0,0,0,0,0,0,0,-1,1301,1086,0,0
84,-62,0,0,0,0,0,0,0,0,0,-1,1308,1086,0,0
91,-62,0,0,0,0,0,0,0,0,0,-1,1315,1086,0,0
98,-62,0,0,0,0,0,0,0,0,0,-1,1322,1086,0,0
105,-62,0,0,0,0,0,0,0,0,0,-1,1329,1086,0,0
112,-62,0,0,0,0,0,0,0,0,0,-1,1336,1086,0,0
119,-62,0,0,0,0,0,0,0,0,0,-1,1343,1086,0,0
126,-62,0,0,0,0,0,0,0,0,0,-1,1350,1086,0,0
133,-62,0,0,0,0,0,0,0,0,0,-1,1357,1086,0,0
140,-62,0,0,0,0,0,0,0,0,0,-1,1364,1086,0,0
147,-62,0,0,0,0,0,0,0,0,0,-1,1371,1086,0,0
154,-62,0,0,0,0,0,0,0,0,0,-1,1378,1086,0,0
161,-62,0,0,0,0,0,0,0,0,0,-1,1385,1086,0,0
168,-62,0,0,0,0,0,0,0,0,0,-1,1392,1086,0,0
175,-62,0,0,0,0,0,0,0,0,0,-1,1399,1086,0,0
182,-62,0,0,0,0,0,0,0,0,0,-1,1406,1086,0,0
189,-62,0,0,0,0,0,0,0,0,0,-1,1413,1086,0,0
196,-62,0,0,0,0,0,0,0,0,0,-1,1420,1086,0,0
203,-62,0,0,0,0,0,0,0,0,0,-1,1427,1086,0,0
210,-62,0,0,0,0,0,0,0,0,0,-1,1434,1086,0,0
217,-62,0,0,0,0,0,0,0,0,0,-1,1441,1086,0,0
224,-62,0,0,0,0,0,0,0,0,0,-1,1448,1086,0,0
231,-62,0,0,0,0,0,0,0,0,0,-1,1455,1086,0,0
238,-62,0,0,0,0,0,0,0,0,0,-1,1462,1086,0,0
245,-62,0,0,0,0,0,0,0,0,0,-1,1469,1086,0,0
252,-62,0,0,0,0,0,0,0,0,0,-1,1476,1086,0,0
259,-62,0,0,0,0,0,0,0,0,0,-1,1483,1086,0,0
266,-62,0,0,0,0,0,0,0,0,0,-1,1490,1086,0,0
273,-62,0,0,0,0,0,0,0,0,0,-1,1497,1086,0,0
280,-62,0,0,0,0,0,0,0,0,0,-1,1504,1086,0,0
287,-62,0,0,0,0,0,0,0,0,0,-1,1511,1086,0,0
294,-62,0,0,0,0,0,0,0,0,0,-1,1518,1086,0,0
301,-62,0,0,0,0,0,0,0,0,0,-1,1525,1086,0,0
308,-62,0,0,0,0,0,0,0,0,0,-1,1532,1086,0,0
315,-62,0,0,0,0,0,0,0,0,0,-1,1539,1086,0,0
322,-62,0,0,0,0,0,0,0,0,0,-1,1546,1086,0,0
329,-62,0,0,0,0,0,0,0,0,0,-1,1553,1086,0,0
336,-62,0,0,0,0,0,0,0,0,0,-1,1560,1086,0,0
343,-62,0,0,0,0,0,0,0,0,0,-1,1567,1086,0,0
350,-62,0,0,0,0,0,0,0,0,0,-1,1574,1086,0,0
357,-62,0,0,0,0,0,0,0,0,0,-1,1581,1086,0,0
364,-62,0,0,0,0,0,0,0,0,0,-1,1588,1086,0,0
371,-62,0,0,0,0,0,0,0,0,0,-1,1595,1086,0,0
378,-62,0,0,0,0,0,0,0,0,0,-1,1602,1086,0,0
385,-62,0,0,0,0,0,0,0,0,0,-1,1609,1086,0,0
392,-62,0,0,0,0,0,0,0,0,0,-1,1616,1086,0,0
399,-62,0,0,0,0,0,0,0,0,0,-1,1623,1086,0,0
406,-62,0,0,0,0,0,0,0,0,0,-1,1630,1086,0,0
413,-62,0,0,0,0,0,0,0,0,0,-1,1637,1086,0,0
420,-62,0,0,0,0,0,0,0,0,0,-1,1644,1086,0,0
427,-62,0,0,0,0,0,0,0,0,0,-1,1651,1086,0,0
434,-62,0,0,0,0,0,0,0,0,0,-1,1658,1086,0,0
441,-62,0,0,0,0,0,0,0,0,0,-1,1665,1086,0,0
448,-62,0,0,0,0,0,0,0,0,0,-1,1672,1086,0,0
455,-62,0,0,0,0,0,0,0,0,0,-1,1679,1086,0,0
462,-62,0,0,0,0,0,0,0,0,0,-1,1686,1086,0,0
469,-62,0,0,0,0,0,0,0,0,0,-1,1693,1086,0,0
476,-62,0,0,0,0,0,0,0,0,0,-1,1700,1086,0,0
483,-62,0,0,0,0,0,0,0,0,0,-1,1707,1086,0,0
490,-62,0,0,0,0,0,0,0,0,0,-1,1714,1086,0,0
497,-62,0,0,0,0,0,0,0,0,0,-1,1721,1086,0,0
504,-62,0,0,0,0,0,0,0,0,0,-1,1728,1086,0,0
511,-62,0,0,0,0,0,0,0,0,0,-1,1735,1086,0,0
518,-62,0,0,0,0,0,0,0,0,0,-1,1742,1086,0,0
525,-62,0,0,0,0,0,0,0,0,0,-1,1749,1086,0,0
532,-62,0,0,0,0,0,0,0,0,0,-1,1756,1086,0,0
539,-62,0,0,0,0,0,0,0,0,0,-1,1763,1086,0,0
546,-62,0,0,0,0,0,0,0,0,0,-1,1770,1086,0,0
553,-62,0,0,0,0,0,0,0,0,0,-1,1777,1086,0,0
560,-62,0,0,0,0,0,0,0,0,0,-1,1784,1086,0,0
567,-62,0,0,0,0,0,0,0,0,0,-1,1791,1086,0,0
574,-62,0,0,0,0,0,0,0,0,0,-1,1798,1086,0,0
581,-62,0,0,0,0,0,0,0,0,0,-1,1805,1086,0,0
588,-62,0,0,0,0,0,0,0,0,0,-1,1812,1086,0,0
595,-62,0,0,0,0,0,0,0,0,0,-1,1819,1086,0,0
602,-62,0,0,0,0,0,0,0,0,0,-1,1826,1086,0,0
609,-62,0,0,0,0,0,0,0,0,0,-1,1833,1086,0,0
616,-62,0,0,0,0,0,0,0,0,0,-1,1840,1086,0,0
623,-62,0,0,0,0,0,0,0,0,0,-1,1847,1086,0,0
630,-62,0,0,0,0,0,0,0,0,0,-1,1854,1086,0,0
637,-62,0,0,0,0,0,0,0,0,0,-1,1861,1086,0,0
644,-62,0,0,0,0,0,0,0,0,0,-1,1868,1086,0,0
651,-62,17.0973,2.40393,-0.0016773,-0.00240748,0.000761577,-0.00119783,-0.00288696,0.561887,0.00167481,0.0374085,1875,1086,17.0973,-2.40387
658,-62,17.1635,2.34277,-0.00037229,-0.00142788,0.000612556,-9.15111e-05,-0.00170866,0.429794,0.00110986,0.0382115,1882,1086,17.1635,-2.34273
665,-62,17.0961,2.51172,0.000557036,-0.000710057,0.000315095,0.000631068,-0.000784088,0.230763,0.000818631,0.0387654,1889,1086,17.0961,-2.51172
672,-62,17.1177,2.59192,0.00063446,-0.000468517,0.00113733,0.00134696,-0.00118102,0.559652,0.00146057,0.0369804,1896,1086,17.1177,-2.59187
679,-62,17.1157,2.43225,-0.000130474,-0.000561372,0.00266954,0.0023323,-0.00302414,0.745132,0.00310113,0.0378811,1903,1086,17.1157,-2.43227
686,-62,17.1207,2.37842,-0.00121631,-0.000798211,0.0042461,0.00324399,-0.00525851,0.809995,0.00495463,0.0397511,1910,1086,17.1207,-2.37846
693,-62,17.1171,2.41907,-0.00231674,-0.00109534,0.00569566,0.00402227,-0.00743435,0.838805,0.00671155,0.0370274,1917,1086,17.1171,-2.41905
700,-62,17.1178,2.41113,-0.00330834,-0.00131318,0.00689011,0.00465119,-0.00927271,0.857291,0.00818524,0.0311464,1924,1086,17.1178,-2.41118
707,-62,17.0903,2.4425,-0.00399004,-0.00147905,0.00776522,0.00513152,-0.0106006,0.865546,0.00926409,0.0202783,1931,1086,17.0904,-2.44256
714,-62,17.1489,2.43567,-0.00456746,-0.00162982,0.00823726,0.00526855,-0.0114658,0.873628,0.00987998,0.0210979,1938,1086,17.149,-2.43565
721,-62,17.1987,2.98499,-0.00508936,-0.00169633,0.00832439,0.00510266,-0.0118883,0.885922,0.0100672,0.0318425,1945,1086,17.1987,-2.98499
728,-62,16.7571,3.47266,-0.00540412,-0.00157921,0.0080891,0.00482043,-0.0118038,0.901479,0.00987623,0.0264929,1952,1086,16.7571,-3.47268
735,-62,16.7344,3.46631,-0.00519849,-0.00131774,0.0074604,0.00445049,-0.0109667,0.912624,0.00916232,0.0164112,1959,1086,16.7344,-3.46637
742,-62,16.7227,3.47607,-0.0043514,-0.000906357,0.00625731,0.00386119,-0.00911895,0.919712,0.00769629,0.0138618,1966,1086,16.7226,-3.47607
749,-62,16.7068,3.42358,-0.00298566,-0.00120989,0.0044261,0.0024165,-0.00661205,0.884386,0.00539699,0.0125249,1973,1086,16.7068,-3.42362
756,-62,16.7166,3.40002,-0.00174941,-0.00114927,0.00203358,0.000606258,-0.00350494,0.858648,0.00256273,0.0136207,1980,1086,16.7165,-3.40005
763,-62,16.7114,3.36755,-0.000532369,-0.00139975,-0.000734265,-0.000113281,-0.00181884,-0.518641,0.00117662,0.0135582,1987,1086,16.7115,-3.36759
770,-62,16.6953,3.3219,0.00103062,-0.00185388,-0.00397976,0.00382141,-0.00464467,-0.611561,0.00489559,0.0106276,1994,1086,16.6953,-3.32184
777,-62,16.6781,3.25916,0.00247467,-0.00287553,-0.00746701,0.0077313,-0.00813216,-0.613393,0.00915975,0.0127933,2001,1086,16.6781,-3.25914
784,-62,16.7155,3.20227,0.00339591,-0.0046687,-0.0112224,0.0112885,-0.0125613,-0.612927,0.0137762,0.0280338,2008,1086,16.7155,-3.20223
791,-62,17.0989,2.97424,0.00377653,-0.0072367,-0.0160208,0.0152106,-0.0186708,-0.619865,0.0195954,0.0449391,2015,1086,17.0989,-2.9743
798,-62,17.392,2.75134,0.00364772,-0.0106946,-0.0223588,0.0199572,-0.0270041,-0.630215,0.0272147,0.0452427,2022,1086,17.392,-2.75137
805,-62,17.4829,2.48535,0,0,0,0,0,0,0,-1,2029,1086,17.4829,-2.48536
812,-62,16.4399,0.0421143,0,0,0,0,0,0,0,-1,2036,1086,16.44,-0.0420874
-700,-69,-10.1528,-0.231689,0,0,0,0,0,0,0,-1,524,1093,-10.1528,0.231693
-693,-69,-10.4113,-0.33252,-0.0310524,-0.00976903,-0.0257497,0.00745136,-0.0482728,-0.981346,0.0349315,0.0480892,531,1093,-10.4113,0.332463
-686,-69,-10.6649,-0.311646,0,0,0,0,0,0,0,-1,538,1093,-10.6649,0.311649
-679,-69,-10.7057,-0.166748,-0.0202903,-0.00387125,-0.0108059,0.00148991,-0.0256514,-1.11025,0.0176186,0.0473138,545,1093,-10.7057,0.166794
-672,-69,-10.5061,-0.115601,-0.0152431,-0.00207521,-0.0059673,0.000226613,-0.017545,-1.20264,0.0117729,0.0459673,552,1093,-10.5061,0.115571
-665,-69,-10.8882,0.689209,-0.010813,-0.000817554,-0.0025885,-0.000186995,-0.0114436,-1.33185,0.0075675,0.0452081,559,1093,-10.8882,-0.689259
-658,-69,-10.7913,0.841187,-0.00719004,9.79001e-06,-0.000434439,3.59092e-05,-0.00721616,-1.51075,0.00482279,0.0441732,566,1093,-10.7913,-0.841217
-651,-69,-10.6915,0.910889,-0.00441736,0.000489144,0.000770305,0.000607237,-0.00453546,1.41867,0.00324504,0.0313131,573,1093,-10.6915,-0.910929
-644,-69,-10.6543,0.944458,-0.00246501,0.000732547,0.0012148,0.00114171,-0.00287418,1.24592,0.00238941,0.00970529,580,1093,-10.6543,-0.944404
-637,-69,-10.6652,1.02051,-0.00166309,0.000922412,0.000891013,0.00119973,-0.00194041,1.26906,0.00182969,0.0117832,587,1093,-10.6652,-1.02052
-630,-69,-10.6887,1.06213,-0.000874797,0.000485677,-1.87296e-06,0.000485679,-0.0008748,-1.56942,0.00079611,0.0128754,594,1093,-10.6887,-1.06218
-623,-69,-10.6678,1.12671,-0.00043039,-0.00011827,-0.00120234,0.0009381,-0.00148676,-0.849935,0.00141189,0.011712,601,1093,-10.6678,-1.12676
-616,-69,-10.6436,1.18127,-0.000567206,-0.000284129,-0.00258333,0.00216154,-0.00301287,-0.812765,0.00300089,0.0123092,608,1093,-10.6436,-1.18124
-609,-69,-10.6401,1.18323,-0.00126631,-0.000631402,-0.00401967,0.00308334,-0.00498104,-0.824804,0.00469874,0.0122793,615,1093,-10.6401,-1.18318
-602,-69,-10.6485,1.27576,-0.00191577,-0.00108782,-0.00494241,0.00345792,-0.00646151,-0.827181,0.00581385,0.0146284,622,1093,-10.6485,-1.27579
-595,-69,-10.644,1.35303,-0.00235344,-0.00151305,-0.00559364,0.00367616,-0.00754264,-0.822888,0.00660416,0.0174029,629,1093,-10.644,-1.35302
-588,-69,-10.7351,1.19739,-0.00248247,-0.00181312,-0.0059008,0.00376248,-0.00805807,-0.813726,0.00697319,0.0234873,636,1093,-10.7351,-1.19742
-581,-69,-10.8969,0.869263,-0.00233101,-0.0020221,-0.0058069,0.0036324,-0.00798551,-0.798695,0.00686275,0.0300419,643,1093,-10.8968,-0.869221
-574,-69,-10.9244,0.640015,-0.00217304,-0.00218924,-0.00549107,0.00330994,-0.00767222,-0.78466,0.00650515,0.0317049,650,1093,-10.9244,-0.640062
-567,-69,-10.9443,0.546753,-0.001841,-0.00227769,-0.00480535,0.00275097,-0.00686966,-0.762694,0.00572163,0.0383442,657,1093,-10.9443,-0.546784
-560,-69,-11.0856,0.571289,-0.00130287,-0.00229798,-0.0037707,0.00200296,-0.00560381,-0.719801,0.00455284,0.0403017,664,1093,-11.0856,-0.57135
-553,-69,-11.044,0.69397,-0.000576354,-0.00226492,-0.00244389,0.00116498,-0.00400625,-0.619083,0.00313222,0.0380192,671,1093,-11.044,-0.693939
-546,-69,-10.9127,0.569824,0.000328106,-0.00219109,-0.000867706,0.000598051,-0.00246103,-0.30161,0.00187216,0.0333592,678,1093,-10.9127,-0.569775
-539,-69,-10.8795,0.491943,0.00130891,-0.00210085,0.000644194,0.00142656,-0.0022185,0.180634,0.00212097,0.0353416,685,1093,-10.8795,-0.492002
-532,-69,-10.6907,0.435059,0.00162289,-0.00227836,0.000722145,0.00175227,-0.00240774,0.177283,0.0024117,0.0404289,692,1093,-10.6907,-0.435092
-525,-69,0,0,0,0,0,0,0,0,0,-1,699,1093,0,0
-518,-69,0,0,0,0,0,0,0,0,0,-1,706,1093,0,0
-511,-69,0,0,0,0,0,0,0,0,0,-1,713,1093,0,0
-504,-69,0,0,0,0,0,0,0,0,0,-1,720,1093,0,0
-497,-69,0,0,0,0,0,0,0,0,0,-1,727,1093,0,0
-490,-69,0,0,0,0,0,0,0,0,0,-1,734,1093,0,0
-483,-69,0,0,0,0,0,0,0,0,0,-1,741,1093,0,0
-476,-69,0,0,0,0,0,0,0,0,0,-1,748,1093,0,0
-469,-69,0,0,0,0,0,0,0,0,0,-1,755,1093,0,0
-462,-69,0,0,0,0,0,0,0,0,0,-1,762,1093,0,0
-455,-69,0,0,0,0,0,0,0,0,0,-1,769,1093,0,0
-448,-69,0,0,0,0,0,0,0,0,0,-1,776,1093,0,0
-441,-69,0,0,0,0,0,0,0,0,0,-1,783,1093,0,0
-434,-69,0,0,0,0,0,0,0,0,0,-1,790,1093,0,0
-427,-69,0,0,0,0,0,0,0,0,0,-1,797,1093,0,0
-420,-69,0,0,0,0,0,0,0,0,0,-1,804,1093,0,0
-413,-69,0,0,0,0,0,0,0,0,0,-1,811,1093,0,0
-406,-69,0,0,0,0,0,0,0,0,0,-1,818,1093,0,0
-399,-69,0,0,0,0,0,0,0,0,0,-1,825,1093,0,0
-392,-69,0,0,0,0,0,0,0,0,0,-1,832,1093,0,0
-385,-69,0,0,0,0,0,0,0,0,0,-1,839,1093,0,0
-378,-69,0,0,0,0,0,0,0,0,0,-1,846,1093,0,0
-371,-69,0,0,0,0,0,0,0,0,0,-1,853,1093,0,0
-364,-69,0,0,0,0,0,0,0,0,0,-1,860,1093,0,0
-357,-69,0,0,0,0,0,0,0,0,0,-1,867,1093,0,0
-350,-69,0,0,0,0,0,0,0,0,0,-1,874,1093,0,0
-343,-69,0,0,0,0,0,0,0,0,0,-1,881,1093,0,0
-336,-69,0,0,0,0,0,0,0,0,0,-1,888,1093,0,0
-329,-69,0,0,0,0,0,0,0,0,0,-1,895,1093,0,0
-322,-69,0,0,0,0,0,0,0,0,0,-1,902,1093,0,0
-315,-69,0,0,0,0,0,0,0,0,0,-1,909,1093,0,0
-308,-69,0,0,0,0,0,0,0,0,0,-1,916,1093,0,0
-301,-69,0,0,0,0,0,0,0,0,0,-1,923,1093,0,0
-294,-69,0,0,0,0,0,0,0,0,0,-1,930,1093,0,0
-287,-69,0,0,0,0,0,0,0,0,0,-1,937,1093,0,0
-280,-69,0,0,0,0,0,0,0,0,0,-1,944,1093,0,0
-273,-69,0,0,0,0,0,0,0,0,0,-1,951,1093,0,0
-266,-69,0,0,0,0,0,0,0,0,0,-1,958,1093,0,0
-259,-69,0,0,0,0,0,0,0,0,0,-1,965,1093,0,0
-252,-69,0,0,0,0,0,0,0,0,0,-1,972,1093,0,0
-245,-69,0,0,0,0,0,0,0,0,0,-1,979,1093,0,0
-238,-69,0,0,0,0,0,0,0,0,0,-1,986,1093,0,0
-231,-69,0,0,0,0,0,0,0,0,0,-1,993,1093,0,0
-224,-69,0,0,0,0,0,0,0,0,0,-1,1000,1093,0,0
-217,-69,0,0,0,0,0,0,0,0,0,-1,1007,1093,0,0
-210,-69,0,0,0,0,0,0,0,0,0,-1,1014,1093,0,0
-203,-69,0,0,0,0,0,0,0,0,0,-1,1021,1093,0,0
-196,-69,0,0,0,0,0,0,0,0,0,-1,1028,1093,0,0
-189,-69,0,0,0,0,0,0,0,0,0,-1,1035,1093,0,0
-182,-69,0,0,0,0,0,0,0,0,0,-1,1042,1093,0,0
-175,-69,0,0,0,0,0,0,0,0,0,-1,1049,1093,0,0
-168,-69,0,0,0,0,0,0,0,0,0,-1,1056,1093,0,0
-161,-69,0,0,0,0,0,0,0,0,0,-1,1063,1093,0,0
-154,-69,0,0,0,0,0,0,0,0,0,-1,1070,1093,0,0
-147,-69,0,0,0,0,0,0,0,0,0,-1,1077,1093,0,0
-140,-69,0,0,0,0,0,0,0,0,0,-1,1084,1093,0,0
-133,-69,0,0,0,0,0,0,0,0,0,-1,1091,1093,0,0
-126,-69,0,0,0,0,0,0,0,0,0,-1,1098,1093,0,0
-119,-69,0,0,0,0,0,0,0,0,0,-1,1105,1093,0,0
-112,-69,0,0,0,0,0,0,0,0,0,-1,1112,1093,0,0
-105,-69,0,0,0,0,0,0,0,0,0,-1,1119,1093,0,0
-98,-69,0,0,0,0,0,0,0,0,0,-1,1126,1093,0,0
-91,-69,0,0,0,0,0,0,0,0,0,-1,1133,1093,0,0
-84,-69,0,0,0,0,0,0,0,0,0,-1,1140,1093,0,0
-77,-69,0,0,0,0,0,0,0,0,0,-1,1147,1093,0,0
-70,-69,0,0,0,0,0,0,0,0,0,-1,1154,1093,0,0
-63,-69,0,0,0,0,0,0,0,0,0,-1,1161,1093,0,0
-56,-69,0,0,0,0,0,0,0,0,0,-1,1168,1093,0,0
-49,-69,0,0,0,0,0,0,0,0,0,-1,1175,1093,0,0
-42,-69,0,0,0,0,0,0,0,0,0,-1,1182,1093,0,0
-35,-69,0,0,0,0,0,0,0,0,0,-1,1189,1093,0,0
-28,-69,0,0,0,0,0,0,0,0,0,-1,1196,1093,0,0
-21,-69,0,0,0,0,0,0,0,0,0,-1,1203,1093,0,0
-14,-69,0,0,0,0,0,0,0,0,0,-1,1210,1093,0,0
-7,-69,0,0,0,0,0,0,0,0,0,-1,1217,1093,0,0
0,-69,0,0,0,0,0,0,0,0,0,-1,1224,1093,0,0
7,-69,0,0,0,0,0,0,0,0,0,-1,1231,1093,0,0
14,-69,0,0,0,0,0,0,0,0,0,-1,1238,1093,0,0
21,-69,0,0,0,0,0,0,0,0,0,-1,1245,1093,0,0
28,-69,0,0,0,0,0,0,0,0,0,-1,1252,1093,0,0
35,-69,0,0,0,0,0,0,0,0,0,-1,1259,1093,0,0
42,-69,0,0,0,0,0,0,0,0,0,-1,1266,1093,0,0
49,-69,0,0,0,0,0,0,0,0,0,-1,1273,1093,0,0
56,-69,0,0,0,0,0,0,0,0,0,-1,1280,1093,0,0
63,-69,0,0,0,0,0,0,0,0,0,-1,1287,1093,0,0
70,-69,0,0,0,0,0,0,0,0,0,-1,1294,1093,0,0
77,-69,0,0,0,0,0,0,0,0,0,-1,1301,1093,0,0
84,-69,0,0,0,0,0,0,0,0,0,-1,1308,1093,0,0
91,-69,0,0,0,0,0,0,0,0,0,-1,1315,1093,0,0
98,-69,0,0,0,0,0,0,0,0,0,-1,1322,1093,0,0
105,-69,0,0,0,0,0,0,0,0,0,-1,1329,1093,0,0
112,-69,0,0,0,0,0,0,0,0,0,-1,1336,1093,0,0
119,-69,0,0,0,0,0,0,0,0,0,-1,1343,1093,0,0
126,-69,0,0,0,0,0,0,0,0,0,-1,1350,1093,0,0
133,-69,0,0,0,0,0,0,0,0,0,-1,1357,1093,0,0
140,-69,0,0,0,0,0,0,0,0,0,-1,1364,1093,0,0
147,-69,0,0,0,0,0,0,0,0,0,-1,1371,1093,0,0
154,-69,0,0,0,0,0,0,0,0,0,-1,1378,1093,0,0
161,-69,0,0,0,0,0,0,0,0,0,-1,1385,1093,0,0
168,-69,0,0,0,0,0,0,0,0,0,-1,1392,1093,0,0
175,-69,0,0,0,0,0,0,0,0,0,-1,1399,1093,0,0
182,-69,0,0,0,0,0,0,0,0,0,-1,1406,1093,0,0
189,-69,0,0,0,0,0,0,0,0,0,-1,1413,1093,0,0
196,-69,0,0,0,0,0,0,0,0,0,-1,1420,1093,0,0
203,-69,0,0,0,0,0,0,0,0,0,-1,1427,1093,0,0
210,-69,0,0,0,0,0,0,0,0,0,-1,1434,1093,0,0
217,-69,0,0,0,0,0,0,0,0,0,-1,1441,1093,0,0
224,-69,0,0,0,0,0,0,0,0,0,-1,1448,1093,0,0
231,-69,0,0,0,0,0,0,0,0,0,-1,1455,1093,0,0
238,-69,0,0,0,0,0,0,0,0,0,-1,1462,1093,0,0
245,-69,0,0,0,0,0,0,0,0,0,-1,1469,1093,0,0
252,-69,0,0,0,0,0,0,0,0,0,-1,1476,1093,0,0
259,-69,0,0,0,0,0,0,0,0,0,-1,1483,1093,0,0
266,-69,0,0,0,0,0,0,0,0,0,-1,1490,1093,0,0
273,-69,0,0,0,0,0,0,0,0,0,-1,1497,1093,0,0
280,-69,0,0,0,0,0,0,0,0,0,-1,1504,1093,0,0
287,-69,0,0,0,0,0,0,0,0,0,-1,1511,1093,0,0
294,-69,0,0,0,0,0,0,0,0,0,-1,1518,1093,0,0
301,-69,0,0,0,0,0,0,0,0,0,-1,1525,1093,0,0
308,-69,0,0,0,0,0,0,0,0,0,-1,1532,1093,0,0
315,-69,0,0,0,0,0,0,0,0,0,-1,1539,1093,0,0
322,-69,0,0,0,0,0,0,0,0,0,-1,1546,1093,0,0
329,-69,0,0,0,0,0,0,0,0,0,-1,1553,1093,0,0
336,-69,0,0,0,0,0,0,0,0,0,-1,1560,1093,0,0
343,-69,0,0,0,0,0,0,0,0,0,-1,1567,1093,0,0
350,-69,0,0,0,0,0,0,0,0,0,-1,1574,1093,0,0
357,-69,0,0,0,0,0,0,0,0,0,-1,1581,1093,0,0
364,-69,0,0,0,0,0,0,0,0,0,-1,1588,1093,0,0
371,-69,0,0,0,0,0,0,0,0,0,-1,1595,1093,0,0
378,-69,0,0,0,0,0,0,0,0,0,-1,1602,1093,0,0
385,-69,0,0,0,0,0,0,0,0,0,-1,1609,1093,0,0
392,-69,0,0,0,0,0,0,0,0,0,-1,1616,1093,0,0
399,-69,0,0,0,0,0,0,0,0,0,-1,1623,1093,0,0
406,-69,0,0,0,0,0,0,0,0,0,-1,1630,1093,0,0
413,-69,0,0,0,0,0,0,0,0,0,-1,1637,1093,0,0
420,-69,0,0,0,0,0,0,0,0,0,-1,1644,1093,0,0
427,-69,0,0,0,0,0,0,0,0,0,-1,1651,1093,0,0
434,-69,0,0,0,0,0,0,0,0,0,-1,1658,1093,0,0
441,-69,0,0,0,0,0,0,0,0,0,-1,1665,1093,0,0
448,-69,0,0,0,0,0,0,0,0,0,-1,1672,1093,0,0
455,-69,0,0,0,0,0,0,0,0,0,-1,1679,1093,0,0
462,-69,0,0,0,0,0,0,0,0,0,-1,1686,1093,0,0
469,-69,0,0,0,0,0,0,0,0,0,-1,1693,1093,0,0
476,-69,0,0,0,0,0,0,0,0,0,-1,1700,1093,0,0
483,-69,0,0,0,0,0,0,0,0,0,-1,1707,1093,0,0
490,-69,0,0,0,0,0,0,0,0,0,-1,1714,1093,0,0
497,-69,0,0,0,0,0,0,0,0,0,-1,1721,1093,0,0
504,-69,0,0,0,0,0,0,0,0,0,-1,1728,1093,0,0
511,-69,0,0,0,0,0,0,0,0,0,-1,1735,1093,0,0
518,-69,0,0,0,0,0,0,0,0,0,-1,1742,1093,0,0
525,-69,0,0,0,0,0,0,0,0,0,-1,1749,1093,0,0
532,-69,0,0,0,0,0,0,0,0,0,-1,1756,1093,0,0
539,-69,0,0,0,0,0,0,0,0,0,-1,1763,1093,0,0
546,-69,0,0,0,0,0,0,0,0,0,-1,1770,1093,0,0
553,-69,0,0,0,0,0,0,0,0,0,-1,1777,1093,0,0
560,-69,0,0,0,0,0,0,0,0,0,-1,1784,1093,0,0
567,-69,0,0,0,0,0,0,0,0,0,-1,1791,1093,0,0
574,-69,0,0,0,0,0,0,0,0,0,-1,1798,1093,0,0
581,-69,0,0,0,0,0,0,0,0,0,-1,1805,1093,0,0
588,-69,0,0,0,0,0,0,0,0,0,-1,1812,1093,0,0
595,-69,0,0,0,0,0,0,0,0,0,-1,1819,1093,0,0
602,-69,0,0,0,0,0,0,0,0,0,-1,1826,1093,0,0
609,-69,0,0,0,0,0,0,0,0,0,-1,1833,1093,0,0
616,-69,0,0,0,0,0,0,0,0,0,-1,1840,1093,0,0
623,-69,0,0,0,0,0,0,0,0,0,-1,1847,1093,0,0
630,-69,0,0,0,0,0,0,0,0,0,-1,1854,1093,0,0
637,-69,0,0,0,0,0,0,0,0,0,-1,1861,1093,0,0
644,-69,0,0,0,0,0,0,0,0,0,-1,1868,1093,0,0
651,-69,17.0708,2.22754,-0.00141455,-0.00354692,-0.000597194,-0.00125869,-0.00370278,-0.255291,0.00217401,0.0383648,1875,1093,17.0708,-2.22749
658,-69,17.0079,2.08069,-0.000343727,-0.00240533,-0.00046579,-0.000243373,-0.00250568,-0.212205,0.00159553,0.0424409,1882,1093,17.0079,-2.08074
665,-69,16.9255,2.24988,0.000481277,-0.00152328,-0.0004999,0.000599027,-0.00164103,-0.231329,0.00133913,0.0431725,1889,1093,16.9256,-2.24984
672,-69,16.9823,2.46753,0.000377033,-0.00121931,0.000628651,0.000594874,-0.00143715,0.333572,0.00120631,0.0378923,1896,1093,16.9823,-2.46758
679,-69,17.0994,2.35168,-0.000514449,-0.00126546,0.00236542,0.00150508,-0.003285,0.706681,0.00282848,0.0375769,1903,1093,17.0993,-2.3517
686,-69,17.1598,2.34009,-0.0016611,-0.00146406,0.00407925,0.00251786,-0.00564302,0.797471,0.00482548,0.03882,1910,1093,17.1598,-2.34011
693,-69,17.1714,2.37512,-0.00278982,-0.00172228,0.00562891,0.00339811,-0.00791021,0.83267,0.00669986,0.0341167,1917,1093,17.1714,-2.37511
700,-69,17.1311,2.36072,-0.00377879,-0.00189624,0.0068801,0.00410667,-0.00978171,0.853382,0.00823858,0.0277251,1924,1093,17.1311,-2.36072
707,-69,17.0979,2.41602,-0.00446037,-0.00200474,0.00781321,0.00467654,-0.0111417,0.863334,0.00938346,0.0194531,1931,1093,17.0979,-2.41597
714,-69,17.1395,2.3385,-0.00502461,-0.00208758,0.00833294,0.00490526,-0.0120174,0.872618,0.0100538,0.0197978,1938,1093,17.1395,-2.33846
721,-69,17.1858,3.0011,-0.00549337,-0.00212021,0.00844029,0.00480036,-0.0124139,0.884012,0.0102576,0.0399438,1945,1093,17.1858,-3.00107
728,-69,16.8448,3.43665,-0.00571883,-0.00196636,0.00820023,0.00456955,-0.0122547,0.897864,0.0100456,0.0248763,1952,1093,16.8449,-3.43661
735,-69,16.6969,3.50354,-0.00544245,-0.00167652,0.00759251,0.00426304,-0.011382,0.906947,0.00933918,0.015794,1959,1093,16.6969,-3.50357
742,-69,16.6775,3.47852,-0.00454698,-0.00130197,0.00642408,0.00370133,-0.00955029,0.909094,0.00789533,0.0132994,1966,1093,16.6774,-3.47854
749,-69,16.6361,3.43054,-0.00317574,-0.00144081,0.00470097,0.00247206,-0.00708861,0.876636,0.00573034,0.0145916,1973,1093,16.6361,-3.43056
756,-69,16.6732,3.4082,-0.00194097,-0.0012285,0.00245209,0.000893096,-0.00406256,0.857532,0.00304998,0.0137331,1980,1093,16.6733,-3.40824
763,-69,16.6738,3.35303,-0.000680038,-0.00140824,-0.000212809,-0.000622407,-0.00146587,-0.264464,0.00084952,0.0135871,1987,1093,16.6739,-3.35304
770,-69,16.6548,3.29871,0.000884078,-0.00171661,-0.00326249,0.00309582,-0.00392835,-0.59576,0.00406489,0.0128364,1994,1093,16.6548,-3.29865
777,-69,16.6477,3.23499,0.0022157,-0.00258002,-0.00644003,0.0066898,-0.00705411,-0.607181,0.00793598,0.017583,2001,1093,16.6477,-3.23496
784,-69,16.6385,3.06445,0.00297571,-0.00415258,-0.00986987,0.00990525,-0.0110821,-0.612128,0.0121234,0.0318152,2008,1093,16.6386,-3.06448
791,-69,16.4932,3.40247,0.00319374,-0.00639987,-0.0143644,0.0135411,-0.0167472,-0.624251,0.0175196,0.0449581,2015,1093,16.4932,-3.40241
798,-69,16.561,3.79919,0.00287497,-0.00940522,-0.0204192,0.0180573,-0.0245875,-0.639348,0.024717,0.048227,2022,1093,16.561,-3.79916
805,-69,16.495,4.20337,0,0,0,0,0,0,0,-1,2029,1093,16.495,-4.20339
812,-69,16.377,0.584473,0,0,0,0,0,0,0,-1,2036,1093,16.3771,-0.584521
-700,-76,0,0,0,0,0,0,0,0,0,-1,524,1100,0,0
-693,-76,-9.59314,-0.103882,0,0,0,0,0,0,0,-1,531,1100,-9.59316,0.103906
-686,-76,-10.3196,-0.109619,0,0,0,0,0,0,0,-1,538,1100,-10.3196,0.109625
-679,-76,-10.359,0.041748,0,0,0,0,0,0,0,-1,545,1100,-10.359,-0.0417611
-672,-76,-10.2824,0.0541992,0,0,0,0,0,0,0,-1,552,1100,-10.2824,-0.0541709
-665,-76,-10.3307,0.609009,-0.0118704,-0.00237077,-0.00176835,-0.00205227,-0.0121889,-1.3926,0.00753556,0.0484576,559,1100,-10.3307,-0.609038
-658,-76,-10.494,1.05188,-0.00780642,-0.00123068,9.01757e-05,-0.00122944,-0.00780766,1.55709,0.00484754,0.0468659,566,1100,-10.494,-1.05186
-651,-76,-10.5476,0.868774,-0.00474029,-0.000492791,0.00107152,-0.000237789,-0.00499529,1.33716,0.00325383,0.0284616,573,1100,-10.5476,-0.868759
-644,-76,-10.5524,0.933838,-0.00260447,-5.21582e-05,0.00136964,0.000543718,-0.00320034,1.16044,0.00233599,0.0104257,580,1100,-10.5524,-0.933856
-637,-76,-10.6041,0.995728,-0.00159375,0.000344417,0.000954137,0.000735297,-0.00198463,1.18198,0.00162463,0.0130027,587,1100,-10.6041,-0.995707
-630,-76,-10.6335,1.0332,-0.000859001,9.15293e-05,-5.20396e-09,9.15293e-05,-0.000859001,-1.57079,0.000605488,0.0136023,594,1100,-10.6335,-1.03325
-623,-76,-10.6119,1.10388,-0.000500685,-0.000399429,-0.00127965,0.00083059,-0.0017307,-0.80517,0.0015089,0.0124783,601,1100,-10.6119,-1.10393
-616,-76,-10.5985,1.1626,-0.000788989,-0.000652805,-0.00266487,0.00194484,-0.00338664,-0.798171,0.00311542,0.0111164,608,1100,-10.5985,-1.16255
-609,-76,-10.6109,1.19861,-0.00158708,-0.000989674,-0.0040816,0.00280414,-0.00538089,-0.821924,0.00480305,0.011953,615,1100,-10.6109,-1.1986
-602,-76,-10.5939,1.27686,-0.00233938,-0.00129009,-0.0049391,0.00315214,-0.00678162,-0.838311,0.00586148,0.0158611,622,1100,-10.594,-1.27681
-595,-76,-10.5853,1.33765,-0.00286485,-0.0017064,-0.00555919,0.00330366,-0.00787491,-0.837307,0.00663139,0.0199277,629,1100,-10.5853,-1.33761
-588,-76,-10.6696,1.17932,-0.00306313,-0.00204306,-0.00584698,0.00331609,-0.00842227,-0.828903,0.00698761,0.024233,636,1100,-10.6696,-1.17938
-581,-76,-10.8239,0.741821,-0.00292257,-0.00229158,-0.00572134,0.00312296,-0.00833711,-0.812942,0.00684095,0.0270877,643,1100,-10.8239,-0.741818
-574,-76,-10.9144,0.586426,-0.00275093,-0.00248099,-0.00539082,0.00277655,-0.00800847,-0.797914,0.00646635,0.033556,650,1100,-10.9144,-0.586443
-567,-76,-10.8292,0.862671,-0.00237837,-0.00259183,-0.00469031,0.00220642,-0.00717662,-0.774022,0.00566498,0.0404317,657,1100,-10.8292,-0.862683
-560,-76,-10.8705,1.13416,-0.00175215,-0.00263403,-0.00364871,0.00148217,-0.00586834,-0.725266,0.00448861,0.0419013,664,1100,-10.8705,-1.13417
-553,-76,-11.1342,0.63855,0,0,0,0,0,0,0,-1,671,1100,-11.1342,-0.638554
-546,-76,-10.9154,0.477417,0.000229362,-0.00259031,-0.000780768,0.00043112,-0.00279207,-0.252878,0.00202048,0.0396828,678,1100,-10.9154,-0.47745
-539,-76,-11.03,0.466553,0.00152952,-0.00255014,0.000712505,0.00165038,-0.002671,0.168024,0.00251804,0.0385856,685,1100,-11.03,-0.466518
-532,-76,-10.8828,0.652832,0.00220259,-0.002812,0.000768639,0.00231776,-0.00292717,0.148733,0.00303497,0.0407656,692,1100,-10.8828,-0.65284
-525,-76,0,0,0,0,0,0,0,0,0,-1,699,1100,0,0
-518,-76,0,0,0,0,0,0,0,0,0,-1,706,1100,0,0
-511,-76,0,0,0,0,0,0,0,0,0,-1,713,1100,0,0
-504,-76,0,0,0,0,0,0,0,0,0,-1,720,1100,0,0
-497,-76,0,0,0,0,0,0,0,0,0,-1,727,1100,0,0
-490,-76,0,0,0,0,0,0,0,0,0,-1,734,1100,0,0
-483,-76,0,0,0,0,0,0,0,0,0,-1,741,1100,0,0
-476,-76,0,0,0,0,0,0,0,0,0,-1,748,1100,0,0
-469,-76,0,0,0,0,0,0,0,0,0,-1,755,1100,0,0
-462,-76,0,0,0,0,0,0,0,0,0,-1,762,1100,0,0
-455,-76,0,0,0,0,0,0,0,0,0,-1,769,1100,0,0
-448,-76,0,0,0,0,0,0,0,0,0,-1,776,1100,0,0
-441,-76,0,0,0,0,0,0,0,0,0,-1,783,1100,0,0
-434,-76,0,0,0,0,0,0,0,0,0,-1,790,1100,0,0
-427,-76,0,0,0,0,0,0,0,0,0,-1,797,1100,0,0
-420,-76,0,0,0,0,0,0,0,0,0,-1,804,1100,0,0
-413,-76,0,0,0,0,0,0,0,0,0,-1,811,1100,0,0
-406,-76,0,0,0,0,0,0,0,0,0,-1,818,1100,0,0
-399,-76,0,0,0,0,0,0,0,0,0,-1,825,1100,0,0
-392,-76,0,0,0,0,0,0,0,0,0,-1,832,1100,0,0
-385,-76,0,0,0,0,0,0,0,0,0,-1,839,1100,0,0
-378,-76,0,0,0,0,0,0,0,0,0,-1,846,1100,0,0
-371,-76,0,0,0,0,0,0,0,0,0,-1,853,1100,0,0
-364,-76,0,0,0,0,0,0,0,0,0,-1,860,1100,0,0
-357,-76,0,0,0,0,0,0,0,0,0,-1,867,1100,0,0
-350,-76,0,0,0,0,0,0,0,0,0,-1,874,1100,0,0
-343,-76,0,0,0,0,0,0,0,0,0,-1,881,1100,0,0
-336,-76,0,0,0,0,0,0,0,0,0,-1,888,1100,0,0
-329,-76,0,0,0,0,0,0,0,0,0,-1,895,1100,0,0
-322,-76,0,0,0,0,0,0,0,0,0,-1,902,1100,0,0
-315,-76,0,0,0,0,0,0,0,0,0,-1,909,1100,0,0
-308,-76,0,0,0,0,0,0,0,0,0,-1,916,1100,0,0
-301,-76,0,0,0,0,0,0,0,0,0,-1,923,1100,0,0
-294,-76,0,0,0,0,0,0,0,0,0,-1,930,1100,0,0
-287,-76,0,0,0,0,0,0,0,0,0,-1,937,1100,0,0
-280,-76,0,0,0,0,0,0,0,0,0,-1,944,1100,0,0
-273,-76,0,0,0,0,0,0,0,0,0,-1,951,1100,0,0
-266,-76,0,0,0,0,0,0,0,0,0,-1,958,1100,0,0
-259,-76,0,0,0,0,0,0,0,0,0,-1,965,1100,0,0
-252,-76,0,0,0,0,0,0,0,0,0,-1,972,1100,0,0
-245,-76,0,0,0,0,0,0,0,0,0,-1,979,1100,0,0
-238,-76,0,0,0,0,0,0,0,0,0,-1,986,1100,0,0
-231,-76,0,0,0,0,0,0,0,0,0,-1,993,1100,0,0
-224,-76,0,0,0,0,0,0,0,0,0,-1,1000,1100,0,0
-217,-76,0,0,0,0,0,0,0,0,0,-1,1007,1100,0,0
-210,-76,0,0,0,0,0,0,0,0,0,-1,1014,1100,0,0
-203,-76,0,0,0,0,0,0,0,0,0,-1,1021,1100,0,0
-196,-76,0,0,0,0,0,0,0,0,0,-1,1028,1100,0,0
-189,-76,0,0,0,0,0,0,0,0,0,-1,1035,1100,0,0
-182,-76,0,0,0,0,0,0,0,0,0,-1,1042,1100,0,0
-175,-76,0,0,0,0,0,0,0,0,0,-1,1049,1100,0,0
-168,-76,0,0,0,0,0,0,0,0,0,-1,1056,1100,0,0
-161,-76,0,0,0,0,0,0,0,0,0,-1,1063,1100,0,0
-154,-76,0,0,0,0,0,0,0,0,0,-1,1070,1100,0,0
-147,-76,0,0,0,0,0,0,0,0,0,-1,1077,1100,0,0
-140,-76,0,0,0,0,0,0,0,0,0,-1,1084,1100,0,0
-133,-76,0,0,0,0,0,0,0,0,0,-1,1091,1100,0,0
-126,-76,0,0,0,0,0,0,0,0,0,-1,1098,1100,0,0
-119,-76,0,0,0,0,0,0,0,0,0,-1,1105,1100,0,0
-112,-76,0,0,0,0,0,0,0,0,0,-1,1112,1100,0,0
-105,-76,0,0,0,0,0,0,0,0,0,-1,1119,1100,0,0
-98,-76,0,0,0,0,0,0,0,0,0,-1,1126,1100,0,0
-91,-76,0,0,0,0,0,0,0,0,0,-1,1133,1100,0,0
-84,-76,0,0,0,0,0,0,0,0,0,-1,1140,1100,0,0
-77,-76,0,0,0,0,0,0,0,0,0,-1,1147,1100,0,0
-70,-76,0,0,0,0,0,0,0,0,0,-1,1154,1100,0,0
-63,-76,0,0,0,0,0,0,0,0,0,-1,1161,1100,0,0
-56,-76,0,0,0,0,0,0,0,0,0,-1,1168,1100,0,0
-49,-76,0,0,0,0,0,0,0,0,0,-1,1175,1100,0,0
-42,-76,0,0,0,0,0,0,0,0,0,-1,1182,1100,0,0
-35,-76,0,0,0,0,0,0,0,0,0,-1,1189,1100,0,0
-28,-76,0,0,0,0,0,0,0,0,0,-1,1196,1100,0,0
-21,-76,0,0,0,0,0,0,0,0,0,-1,1203,1100,0,0
-14,-76,0,0,0,0,0,0,0,0,0,-1,1210,1100,0,0
-7,-76,0,0,0,0,0,0,0,0,0,-1,1217,1100,0,0
0,-76,0,0,0,0,0,0,0,0,0,-1,1224,1100,0,0
7,-76,0,0,0,0,0,0,0,0,0,-1,1231,1100,0,0
14,-76,0,0,0,0,0,0,0,0,0,-1,1238,1100,0,0
21,-76,0,0,0,0,0,0,0,0,0,-1,1245,1100,0,0
28,-76,0,0,0,0,0,0,0,0,0,-1,1252,1100,0,0
35,-76,0,0,0,0,0,0,0,0,0,-1,1259,1100,0,0
42,-76,0,0,0,0,0,0,0,0,0,-1,1266,1100,0,0
49,-76,0,0,0,0,0,0,0,0,0,-1,1273,1100,0,0
56,-76,0,0,0,0,0,0,0,0,0,-1,1280,1100,0,0
63,-76,0,0,0,0,0,0,0,0,0,-1,1287,1100,0,0
70,-76,0,0,0,0,0,0,0,0,0,-1,1294,1100,0,0
77,-76,0,0,0,0,0,0,0,0,0,-1,1301,1100,0,0
84,-76,0,0,0,0,0,0,0,0,0,-1,1308,1100,0,0
91,-76,0,0,0,0,0,0,0,0,0,-1,1315,1100,0,0
98,-76,0,0,0,0,0,0,0,0,0,-1,1322,1100,0,0
105,-76,0,0,0,0,0,0,0,0,0,-1,1329,1100,0,0
112,-76,0,0,0,0,0,0,0,0,0,-1,1336,1100,0,0
119,-76,0,0,0,0,0,0,0,0,0,-1,1343,1100,0,0
126,-76,0,0,0,0,0,0,0,0,0,-1,1350,1100,0,0
133,-76,0,0,0,0,0,0,0,0,0,-1,1357,1100,0,0
140,-76,0,0,0,0,0,0,0,0,0,-1,1364,1100,0,0
147,-76,0,0,0,0,0,0,0,0,0,-1,1371,1100,0,0
154,-76,0,0,0,0,0,0,0,0,0,-1,1378,1100,0,0
161,-76,0,0,0,0,0,0,0,0,0,-1,1385,1100,0,0
168,-76,0,0,0,0,0,0,0,0,0,-1,1392,1100,0,0
175,-76,0,0,0,0,0,0,0,0,0,-1,1399,1100,0,0
182,-76,0,0,0,0,0,0,0,0,0,-1,1406,1100,0,0
189,-76,0,0,0,0,0,0,0,0,0,-1,1413,1100,0,0
196,-76,0,0,0,0,0,0,0,0,0,-1,1420,1100,0,0
203,-76,0,0,0,0,0,0,0,0,0,-1,1427,1100,0,0
210,-76,0,0,0,0,0,0,0,0,0,-1,1434,1100,0,0
217,-76,0,0,0,0,0,0,0,0,0,-1,1441,1100,0,0
224,-76,0,0,0,0,0,0,0,0,0,-1,1448,1100,0,0
231,-76,0,0,0,0,0,0,0,0,0,-1,1455,1100,0,0
238,-76,0,0,0,0,0,0,0,0,0,-1,1462,1100,0,0
245,-76,0,0,0,0,0,0,0,0,0,-1,1469,1100,0,0
252,-76,0,0,0,0,0,0,0,0,0,-1,1476,1100,0,0
259,-76,0,0,0,0,0,0,0,0,0,-1,1483,1100,0,0
266,-76,0,0,0,0,0,0,0,0,0,-1,1490,1100,0,0
273,-76,0,0,0,0,0,0,0,0,0,-1,1497,1100,0,0
280,-76,0,0,0,0,0,0,0,0,0,-1,1504,1100,0,0
287,-76,0,0,0,0,0,0,0,0,0,-1,1511,1100,0,0
294,-76,0,0,0,0,0,0,0,0,0,-1,1518,1100,0,0
301,-76,0,0,0,0,0,0,0,0,0,-1,1525,1100,0,0
308,-76,0,0,0,0,0,0,0,0,0,-1,1532,1100,0,0
315,-76,0,0,0,0,0,0,0,0,0,-1,1539,1100,0,0
322,-76,0,0,0,0,0,0,0,0,0,-1,1546,1100,0,0
329,-76,0,0,0,0,0,0,0,0,0,-1,1553,1100,0,0
336,-76,0,0,0,0,0,0,0,0,0,-1,1560,1100,0,0
343,-76,0,0,0,0,0,0,0,0,0,-1,1567,1100,0,0
350,-76,0,0,0,0,0,0,0,0,0,-1,1574,1100,0,0
357,-76,0,0,0,0,0,0,0,0,0,-1,1581,1100,0,0
364,-76,0,0,0,0,0,0,0,0,0,-1,1588,1100,0,0
371,-76,0,0,0,0,0,0,0,0,0,-1,1595,1100,0,0
378,-76,0,0,0,0,0,0,0,0,0,-1,1602,1100,0,0
385,-76,0,0,0,0,0,0,0,0,0,-1,1609,1100,0,0
392,-76,0,0,0,0,0,0,0,0,0,-1,1616,1100,0,0
399,-76,0,0,0,0,0,0,0,0,0,-1,1623,1100,0,0
406,-76,0,0,0,0,0,0,0,0,0,-1,1630,1100,0,0
413,-76,0,0,0,0,0,0,0,0,0,-1,1637,1100,0,0
420,-76,0,0,0,0,0,0,0,0,0,-1,1644,1100,0,0
427,-76,0,0,0,0,0,0,0,0,0,-1,1651,1100,0,0
434,-76,0,0,0,0,0,0,0,0,0,-1,1658,1100,0,0
441,-76,0,0,0,0,0,0,0,0,0,-1,1665,1100,0,0
448,-76,0,0,0,0,0,0,0,0,0,-1,1672,1100,0,0
455,-76,0,0,0,0,0,0,0,0,0,-1,1679,1100,0,0
462,-76,0,0,0,0,0,0,0,0,0,-1,1686,1100,0,0
469,-76,0,0,0,0,0,0,0,0,0,-1,1693,1100,0,0
476,-76,0,0,0,0,0,0,0,0,0,-1,1700,1100,0,0
483,-76,0,0,0,0,0,0,0,0,0,-1,1707,1100,0,0
490,-76,0,0,0,0,0,0,0,0,0,-1,1714,1100,0,0
497,-76,0,0,0,0,0,0,0,0,0,-1,1721,1100,0,0
504,-76,0,0,0,0,0,0,0,0,0,-1,1728,1100,0,0
511,-76,0,0,0,0,0,0,0,0,0,-1,1735,1100,0,0
518,-76,0,0,0,0,0,0,0,0,0,-1,1742,1100,0,0
525,-76,0,0,0,0,0,0,0,0,0,-1,1749,1100,0,0
532,-76,0,0,0,0,0,0,0,0,0,-1,1756,1100,0,0
539,-76,0,0,0,0,0,0,0,0,0,-1,1763,1100,0,0
546,-76,0,0,0,0,0,0,0,0,0,-1,1770,1100,0,0
553,-76,0,0,0,0,0,0,0,0,0,-1,1777,1100,0,0
560,-76,0,0,0,0,0,0,0,0,0,-1,1784,1100,0,0
567,-76,0,0,0,0,0,0,0,0,0,-1,1791,1100,0,0
574,-76,0,0,0,0,0,0,0,0,0,-1,1798,1100,0,0
581,-76,0,0,0,0,0,0,0,0,0,-1,1805,1100,0,0
588,-76,0,0,0,0,0,0,0,0,0,-1,1812,1100,0,0
595,-76,0,0,0,0,0,0,0,0,0,-1,1819,1100,0,0
602,-76,0,0,0,0,0,0,0,0,0,-1,1826,1100,0,0
609,-76,0,0,0,0,0,0,0,0,0,-1,1833,1100,0,0
616,-76,0,0,0,0,0,0,0,0,0,-1,1840,1100,0,0
623,-76,0,0,0,0,0,0,0,0,0,-1,1847,1100,0,0
630,-76,0,0,0,0,0,0,0,0,0,-1,1854,1100,0,0
637,-76,0,0,0,0,0,0,0,0,0,-1,1861,1100,0,0
644,-76,0,0,0,0,0,0,0,0,0,-1,1868,1100,0,0
651,-76,17.0548,2.24377,-0.00143111,-0.00378137,-0.00132137,-0.000837923,-0.00437455,-0.421954,0.00268107,0.0386294,1875,1100,17.0548,-2.24376
658,-76,16.9259,2.11743,-0.00054446,-0.00267406,-0.00107618,-9.5339e-05,-0.00312318,-0.395356,0.00205108,0.0414382,1882,1100,16.9259,-2.11742
665,-76,16.9363,2.19971,0.000172701,-0.00180823,-0.000919565,0.000533761,-0.00216929,-0.374148,0.00165309,0.0399458,1889,1100,16.9363,-2.19971
672,-76,17.0298,2.27417,-0.000101857,-0.00158801,0.000432549,1.48697e-05,-0.00170474,0.263579,0.00114148,0.0365773,1896,1100,17.0297,-2.27423
679,-76,17.1605,2.14514,-0.00108086,-0.0017006,0.00227497,0.00090525,-0.00368671,0.717711,0.00280861,0.0362292,1903,1100,17.1605,-2.14508
686,-76,17.2275,2.33386,-0.00225153,-0.00194678,0.00404196,0.00194568,-0.00614399,0.804239,0.00487572,0.0371816,1910,1100,17.2275,-2.33386
693,-76,17.1317,2.25488,-0.00337863,-0.00223058,0.00562275,0.00284737,-0.00845658,0.836267,0.00678889,0.036883,1917,1100,17.1317,-2.25487
700,-76,17.1078,2.33252,-0.00432907,-0.00241148,0.00686518,0.00356154,-0.0103021,0.85478,0.00831355,0.0322051,1924,1100,17.1078,-2.33258
707,-76,17.1074,2.44104,-0.00498382,-0.00250464,0.00780708,0.00416064,-0.0116491,0.86413,0.00946292,0.0220151,1931,1100,17.1075,-2.44109
714,-76,17.161,2.448,-0.00552041,-0.00254801,0.00835339,0.00445035,-0.0125188,0.873435,0.0101596,0.0276567,1938,1100,17.161,-2.44796
721,-76,16.9648,3.09692,-0.0059249,-0.00255284,0.0084755,0.0044027,-0.0128804,0.883581,0.0103709,0.031506,1945,1100,16.9649,-3.09691
728,-76,16.7312,3.50403,-0.00603895,-0.00236867,0.00822559,0.004224,-0.0126316,0.895152,0.0101271,0.0212223,1952,1100,16.7312,-3.50403
735,-76,16.5699,3.5,-0.00562476,-0.00201244,0.00765466,0.00404626,-0.0116835,0.901257,0.00943162,0.0174782,1959,1100,16.57,-3.5
742,-76,16.6309,3.48071,-0.00461776,-0.00167094,0.00650113,0.00352165,-0.00981035,0.896835,0.00797757,0.0133085,1966,1100,16.6309,-3.48075
749,-76,16.5999,3.43164,-0.00318748,-0.00158935,0.00485642,0.0025333,-0.00731014,0.866937,0.00590196,0.0137758,1973,1100,16.5999,-3.43163
756,-76,16.6145,3.38672,-0.0018782,-0.0011666,0.00273224,0.0012329,-0.00427771,0.850145,0.00333952,0.0136427,1980,1100,16.6145,-3.38677
763,-76,16.6215,3.32141,-0.000437423,-0.00120347,0.000159782,-0.000405432,-0.00123547,0.197605,0.000727202,0.0137648,1987,1100,16.6214,-3.3214
770,-76,16.6184,3.27429,0.00127338,-0.00127941,-0.00272776,0.00300861,-0.00301463,-0.566567,0.00347752,0.013165,1994,1100,16.6184,-3.27425
777,-76,16.6166,3.25854,0.00266751,-0.00187446,-0.00564845,0.00648441,-0.00569136,-0.59426,0.00703465,0.0162036,2001,1100,16.6165,-3.25853
784,-76,16.6157,3.19861,0.00349031,-0.00307889,-0.00883763,0.00963398,-0.00922256,-0.607478,0.0108877,0.0311105,2008,1100,16.6158,-3.19867
791,-76,16.3936,3.27161,0.00381381,-0.00482452,-0.0131332,0.0133198,-0.0143305,-0.626532,0.0159675,0.0439866,2015,1100,16.3936,-3.27163
798,-76,16.1536,3.14343,0,0,0,0,0,0,0,-1,2022,1100,16.1536,-3.14349
805,-76,16.3159,1.72339,0,0,0,0,0,0,0,-1,2029,1100,16.3159,-1.72343
812,-76,16.3115,1.06653,0,0,0,0,0,0,0,-1,2036,1100,16.3115,-1.06653
-700,-83,0,0,0,0,0,0,0,0,0,-1,524,1107,0,0
-693,-83,-8.76794,0.587646,-0.0416359,-0.0149392,-0.0221445,-0.00243102,-0.054144,-1.05663,0.0353136,0.0426352,531,1107,-8.76797,-0.587683
-686,-83,-7.75848,-0.164185,0,0,0,0,0,0,0,-1,538,1107,-7.75851,0.164185
-679,-83,-10.1378,-0.202393,0,0,0,0,0,0,0,-1,545,1107,-10.1378,0.202406
-672,-83,-10.4156,0.180054,-0.0178127,-0.00440311,-0.00471217,-0.00291285,-0.0193029,-1.26449,0.0120159,0.0469804,552,1107,-10.4157,-0.180024
-665,-83,-10.5432,0.665161,-0.0121393,-0.00258709,-0.00199934,-0.00218549,-0.0125409,-1.37257,0.00773568,0.0474287,559,1107,-10.5432,-0.665139
-658,-83,-10.657,1.15344,0,0,0,0,0,0,0,-1,566,1107,-10.657,-1.15342
-651,-83,-10.501,0.724121,-0.004481,-0.000555963,0.000529549,-0.000485773,-0.00455119,1.43902,0.00288586,0.0304737,573,1107,-10.501,-0.724064
-644,-83,-10.486,0.897095,-0.00227265,-9.79756e-05,0.000817154,0.00017485,-0.00254548,1.24856,0.00175817,0.0137768,580,1107,-10.486,-0.897061
-637,-83,-10.5054,0.982056,-0.00119607,0.00033299,0.000421699,0.000441579,-0.00130466,1.31877,0.00104844,0.0109235,587,1107,-10.5054,-0.982113
-630,-83,-10.546,1.04578,-0.000533035,6.88218e-05,-0.000424111,0.000287921,-0.000752134,-1.09395,0.000620093,0.015236,594,1107,-10.546,-1.04579
-623,-83,-10.5377,1.10059,-0.00034595,-0.000404054,-0.00167678,0.00130203,-0.00205203,-0.776736,0.00195254,0.0146981,601,1107,-10.5377,-1.10057
-616,-83,-10.555,1.15344,-0.000989594,-0.000810389,-0.00298875,0.00209011,-0.00389009,-0.800384,0.00350441,0.0110486,608,1107,-10.555,-1.15339
-609,-83,-10.54,1.23926,-0.00194662,-0.00121614,-0.00434539,0.00277933,-0.00594209,-0.827326,0.0051445,0.0108067,615,1107,-10.54,-1.23924
-602,-83,-10.53,1.32385,-0.00285847,-0.0014893,-0.00507825,0.0029503,-0.00729807,-0.852398,0.00609181,0.0129602,622,1107,-10.5299,-1.32382
-595,-83,-10.5073,1.38867,-0.00350834,-0.00193607,-0.00564496,0.00297723,-0.00842164,-0.854585,0.00682678,0.0164572,629,1107,-10.5073,-1.38862
-588,-83,-10.6087,1.16992,-0.00380433,-0.00232821,-0.00592944,0.00290893,-0.00904148,-0.847317,0.00719602,0.0276207,636,1107,-10.6087,-1.16986
-581,-83,-10.8879,0.35791,0,0,0,0,0,0,0,-1,643,1107,-10.8879,-0.357914
-574,-83,-10.9141,0.540161,-0.00353281,-0.00285907,-0.00547279,0.0022872,-0.00867909,-0.816136,0.00668028,0.0356549,650,1107,-10.9141,-0.540181
-567,-83,-10.8567,0.877319,-0.00313089,-0.00300477,-0.00476708,0.00169967,-0.00783533,-0.792012,0.00587268,0.0411887,657,1107,-10.8567,-0.877321
-560,-83,-10.5542,0.971191,-0.00241934,-0.00307713,-0.00371554,0.000981835,-0.00647831,-0.741254,0.0046806,0.0408264,664,1107,-10.5542,-0.971196
-553,-83,-10.6329,0.494751,-0.00140005,-0.00309834,-0.00238483,0.000282301,-0.00478069,-0.614365,0.00328527,0.0436733,671,1107,-10.633,-0.494692
-546,-83,-10.8519,0.601318,-4.88084e-05,-0.0030931,-0.000841624,0.000168373,-0.00331028,-0.252541,0.00226506,0.0407749,678,1107,-10.8519,-0.60135
-539,-83,-11.0739,0.626831,0.00161965,-0.00309566,0.000669743,0.00171293,-0.00318894,0.13839,0.00287255,0.0423326,685,1107,-11.0739,-0.626828
-532,-83,-10.9672,0.704468,0.0027725,-0.00342558,0.000791199,0.0028719,-0.00352498,0.124983,0.00369965,0.0418242,692,1107,-10.9671,-0.70449
-525,-83,0,0,0,0,0,0,0,0,0,-1,699,1107,0,0
-518,-83,0,0,0,0,0,0,0,0,0,-1,706,1107,0,0
-511,-83,0,0,0,0,0,0,0,0,0,-1,713,1107,0,0
-504,-83,0,0,0,0,0,0,0,0,0,-1,720,1107,0,0
-497,-83,0,0,0,0,0,0,0,0,0,-1,727,1107,0,0
-490,-83,0,0,0,0,0,0,0,0,0,-1,734,1107,0,0
-483,-83,0,0,0,0,0,0,0,0,0,-1,741,1107,0,0
-476,-83,0,0,0,0,0,0,0,0,0,-1,748,1107,0,0
-469,-83,0,0,0,0,0,0,0,0,0,-1,755,1107,0,0
-462,-83,0,0,0,0,0,0,0,0,0,-1,762,1107,0,0
-455,-83,0,0,0,0,0,0,0,0,0,-1,769,1107,0,0
-448,-83,0,0,0,0,0,0,0,0,0,-1,776,1107,0,0
-441,-83,0,0,0,0,0,0,0,0,0,-1,783,1107,0,0
-434,-83,0,0,0,0,0,0,0,0,0,-1,790,1107,0,0
-427,-83,0,0,0,0,0,0,0,0,0,-1,797,1107,0,0
-420,-83,0,0,0,0,0,0,0,0,0,-1,804,1107,0,0
-413,-83,0,0,0,0,0,0,0,0,0,-1,811,1107,0,0
-406,-83,0,0,0,0,0,0,0,0,0,-1,818,1107,0,0
-399,-83,0,0,0,0,0,0,0,0,0,-1,825,1107,0,0
-392,-83,0,0,0,0,0,0,0,0,0,-1,832,1107,0,0
-385,-83,0,0,0,0,0,0,0,0,0,-1,839,1107,0,0
-378,-83,0,0,0,0,0,0,0,0,0,-1,846,1107,0,0
-371,-83,0,0,0,0,0,0,0,0,0,-1,853,1107,0,0
-364,-83,0,0,0,0,0,0,0,0,0,-1,860,1107,0,0
-357,-83,0,0,0,0,0,0,0,0,0,-1,867,1107,0,0
-350,-83,0,0,0,0,0,0,0,0,0,-1,874,1107,0,0
-343,-83,0,0,0,0,0,0,0,0,0,-1,881,1107,0,0
-336,-83,0,0,0,0,0,0,0,0,0,-1,888,1107,0,0
-329,-83,0,0,0,0,0,0,0,0,0,-1,895,1107,0,0
-322,-83,0,0,0,0,0,0,0,0,0,-1,902,1107,0,0
-315,-83,0,0,0,0,0,0,0,0,0,-1,909,1107,0,0
-308,-83,0,0,0,0,0,0,0,0,0,-1,916,1107,0,0
-301,-83,0,0,0,0,0,0,0,0,0,-1,923,1107,0,0
-294,-83,0,0,0,0,0,0,0,0,0,-1,930,1107,0,0
-287,-83,0,0,0,0,0,0,0,0,0,-1,937,1107,0,0
-280,-83,0,0,0,0,0,0,0,0,0,-1,944,1107,0,0
-273,-83,0,0,0,0,0,0,0,0,0,-1,951,1107,0,0
-266,-83,0,0,0,0,0,0,0,0,0,-1,958,1107,0,0
-259,-83,0,0,0,0,0,0,0,0,0,-1,965,1107,0,0
-252,-83,0,0,0,0,0,0,0,0,0,-1,972,1107,0,0
-245,-83,0,0,0,0,0,0,0,0,0,-1,979,1107,0,0
-238,-83,0,0,0,0,0,0,0,0,0,-1,986,1107,0,0
-231,-83,0,0,0,0,0,0,0,0,0,-1,993,1107,0,0
-224,-83,0,0,0,0,0,0,0,0,0,-1,1000,1107,0,0
-217,-83,0,0,0,0,0,0,0,0,0,-1,1007,1107,0,0
-210,-83,0,0,0,0,0,0,0,0,0,-1,1014,1107,0,0
-203,-83,0,0,0,0,0,0,0,0,0,-1,1021,1107,0,0
-196,-83,0,0,0,0,0,0,0,0,0,-1,1028,1107,0,0
-189,-83,0,0,0,0,0,0,0,0,0,-1,1035,1107,0,0
-182,-83,0,0,0,0,0,0,0,0,0,-1,1042,1107,0,0
-175,-83,0,0,0,0,0,0,0,0,0,-1,1049,1107,0,0
-168,-83,0,0,0,0,0,0,0,0,0,-1,1056,1107,0,0
-161,-83,0,0,0,0,0,0,0,0,0,-1,1063,1107,0,0
-154,-83,0,0,0,0,0,0,0,0,0,-1,1070,1107,0,0
-147,-83,0,0,0,0,0,0,0,0,0,-1,1077,1107,0,0
-140,-83,0,0,0,0,0,0,0,0,0,-1,1084,1107,0,0
-133,-83,0,0,0,0,0,0,0,0,0,-1,1091,1107,0,0
-126,-83,0,0,0,0,0,0,0,0,0,-1,1098,1107,0,0
-119,-83,0,0,0,0,0,0,0,0,0,-1,1105,1107,0,0
-112,-83,0,0,0,0,0,0,0,0,0,-1,1112,1107,0,0
-105,-83,0,0,0,0,0,0,0,0,0,-1,1119,1107,0,0
-98,-83,0,0,0,0,0,0,0,0,0,-1,1126,1107,0,0
-91,-83,0,0,0,0,0,0,0,0,0,-1,1133,1107,0,0
-84,-83,0,0,0,0,0,0,0,0,0,-1,1140,1107,0,0
-77,-83,0,0,0,0,0,0,0,0,0,-1,1147,1107,0,0
-70,-83,0,0,0,0,0,0,0,0,0,-1,1154,1107,0,0
-63,-83,0,0,0,0,0,0,0,0,0,-1,1161,1107,0,0
-56,-83,0,0,0,0,0,0,0,0,0,-1,1168,1107,0,0
-49,-83,0,0,0,0,0,0,0,0,0,-1,1175,1107,0,0
-42,-83,0,0,0,0,0,0,0,0,0,-1,1182,1107,0,0
-35,-83,0,0,0,0,0,0,0,0,0,-1,1189,1107,0,0
-28,-83,0,0,0,0,0,0,0,0,0,-1,1196,1107,0,0
-21,-83,0,0,0,0,0,0,0,0,0,-1,1203,1107,0,0
-14,-83,0,0,0,0,0,0,0,0,0,-1,1210,1107,0,0
-7,-83,0,0,0,0,0,0,0,0,0,-1,1217,1107,0,0
0,-83,0,0,0,0,0,0,0,0,0,-1,1224,1107,0,0
7,-83,0,0,0,0,0,0,0,0,0,-1,1231,1107,0,0
14,-83,0,0,0,0,0,0,0,0,0,-1,1238,1107,0,0
21,-83,0,0,0,0,0,0,0,0,0,-1,1245,1107,0,0
28,-83,0,0,0,0,0,0,0,0,0,-1,1252,1107,0,0
35,-83,0,0,0,0,0,0,0,0,0,-1,1259,1107,0,0
42,-83,0,0,0,0,0,0,0,0,0,-1,1266,1107,0,0
49,-83,0,0,0,0,0,0,0,0,0,-1,1273,1107,0,0
56,-83,0,0,0,0,0,0,0,0,0,-1,1280,1107,0,0
63,-83,0,0,0,0,0,0,0,0,0,-1,1287,1107,0,0
70,-83,0,0,0,0,0,0,0,0,0,-1,1294,1107,0,0
77,-83,0,0,0,0,0,0,0,0,0,-1,1301,1107,0,0
84,-83,0,0,0,0,0,0,0,0,0,-1,1308,1107,0,0
91,-83,0,0,0,0,0,0,0,0,0,-1,1315,1107,0,0
98,-83,0,0,0,0,0,0,0,0,0,-1,1322,1107,0,0
105,-83,0,0,0,0,0,0,0,0,0,-1,1329,1107,0,0
112,-83,0,0,0,0,0,0,0,0,0,-1,1336,1107,0,0
119,-83,0,0,0,0,0,0,0,0,0,-1,1343,1107,0,0
126,-83,0,0,0,0,0,0,0,0,0,-1,1350,1107,0,0
133,-83,0,0,0,0,0,0,0,0,0,-1,1357,1107,0,0
140,-83,0,0,0,0,0,0,0,0,0,-1,1364,1107,0,0
147,-83,0,0,0,0,0,0,0,0,0,-1,1371,1107,0,0
154,-83,0,0,0,0,0,0,0,0,0,-1,1378,1107,0,0
161,-83,0,0,0,0,0,0,0,0,0,-1,1385,1107,0,0
168,-83,0,0,0,0,0,0,0,0,0,-1,1392,1107,0,0
175,-83,0,0,0,0,0,0,0,0,0,-1,1399,1107,0,0
182,-83,0,0,0,0,0,0,0,0,0,-1,1406,1107,0,0
189,-83,0,0,0,0,0,0,0,0,0,-1,1413,1107,0,0
196,-83,0,0,0,0,0,0,0,0,0,-1,1420,1107,0,0
203,-83,0,0,0,0,0,0,0,0,0,-1,1427,1107,0,0
210,-83,0,0,0,0,0,0,0,0,0,-1,1434,1107,0,0
217,-83,0,0,0,0,0,0,0,0,0,-1,1441,1107,0,0
224,-83,0,0,0,0,0,0,0,0,0,-1,1448,1107,0,0
231,-83,0,0,0,0,0,0,0,0,0,-1,1455,1107,0,0
238,-83,0,0,0,0,0,0,0,0,0,-1,1462,1107,0,0
245,-83,0,0,0,0,0,0,0,0,0,-1,1469,1107,0,0
252,-83,0,0,0,0,0,0,0,0,0,-1,1476,1107,0,0
259,-83,0,0,0,0,0,0,0,0,0,-1,1483,1107,0,0
266,-83,0,0,0,0,0,0,0,0,0,-1,1490,1107,0,0
273,-83,0,0,0,0,0,0,0,0,0,-1,1497,1107,0,0
280,-83,0,0,0,0,0,0,0,0,0,-1,1504,1107,0,0
287,-83,0,0,0,0,0,0,0,0,0,-1,1511,1107,0,0
294,-83,0,0,0,0,0,0,0,0,0,-1,1518,1107,0,0
301,-83,0,0,0,0,0,0,0,0,0,-1,1525,1107,0,0
308,-83,0,0,0,0,0,0,0,0,0,-1,1532,1107,0,0
315,-83,0,0,0,0,0,0,0,0,0,-1,1539,1107,0,0
322,-83,0,0,0,0,0,0,0,0,0,-1,1546,1107,0,0
329,-83,0,0,0,0,0,0,0,0,0,-1,1553,1107,0,0
336,-83,0,0,0,0,0,0,0,0,0,-1,1560,1107,0,0
343,-83,0,0,0,0,0,0,0,0,0,-1,1567,1107,0,0
350,-83,0,0,0,0,0,0,0,0,0,-1,1574,1107,0,0
357,-83,0,0,0,0,0,0,0,0,0,-1,1581,1107,0,0
364,-83,0,0,0,0,0,0,0,0,0,-1,1588,1107,0,0
371,-83,0,0,0,0,0,0,0,0,0,-1,1595,1107,0,0
378,-83,0,0,0,0,0,0,0,0,0,-1,1602,1107,0,0
385,-83,0,0,0,0,0,0,0,0,0,-1,1609,1107,0,0
392,-83,0,0,0,0,0,0,0,0,0,-1,1616,1107,0,0
399,-83,0,0,0,0,0,0,0,0,0,-1,1623,1107,0,0
406,-83,0,0,0,0,0,0,0,0,0,-1,1630,1107,0,0
413,-83,0,0,0,0,0,0,0,0,0,-1,1637,1107,0,0
420,-83,0,0,0,0,0,0,0,0,0,-1,1644,1107,0,0
427,-83,0,0,0,0,0,0,0,0,0,-1,1651,1107,0,0
434,-83,0,0,0,0,0,0,0,0,0,-1,1658,1107,0,0
441,-83,0,0,0,0,0,0,0,0,0,-1,1665,1107,0,0
448,-83,0,0,0,0,0,0,0,0,0,-1,1672,1107,0,0
455,-83,0,0,0,0,0,0,0,0,0,-1,1679,1107,0,0
462,-83,0,0,0,0,0,0,0,0,0,-1,1686,1107,0,0
469,-83,0,0,0,0,0,0,0,0,0,-1,1693,1107,0,0
476,-83,0,0,0,0,0,0,0,0,0,-1,1700,1107,0,0
483,-83,0,0,0,0,0,0,0,0,0,-1,1707,1107,0,0
490,-83,0,0,0,0,0,0,0,0,0,-1,1714,1107,0,0
497,-83,0,0,0,0,0,0,0,0,0,-1,1721,1107,0,0
504,-83,0,0,0,0,0,0,0,0,0,-1,1728,1107,0,0
511,-83,0,0,0,0,0,0,0,0,0,-1,1735,1107,0,0
518,-83,0,0,0,0,0,0,0,0,0,-1,1742,1107,0,0
525,-83,0,0,0,0,0,0,0,0,0,-1,1749,1107,0,0
532,-83,0,0,0,0,0,0,0,0,0,-1,1756,1107,0,0
539,-83,0,0,0,0,0,0,0,0,0,-1,1763,1107,0,0
546,-83,0,0,0,0,0,0,0,0,0,-1,1770,1107,0,0
553,-83,0,0,0,0,0,0,0,0,0,-1,1777,1107,0,0
560,-83,0,0,0,0,0,0,0,0,0,-1,1784,1107,0,0
567,-83,0,0,0,0,0,0,0,0,0,-1,1791,1107,0,0
574,-83,0,0,0,0,0,0,0,0,0,-1,1798,1107,0,0
581,-83,0,0,0,0,0,0,0,0,0,-1,1805,1107,0,0
588,-83,0,0,0,0,0,0,0,0,0,-1,1812,1107,0,0
595,-83,0,0,0,0,0,0,0,0,0,-1,1819,1107,0,0
602,-83,0,0,0,0,0,0,0,0,0,-1,1826,1107,0,0
609,-83,0,0,0,0,0,0,0,0,0,-1,1833,1107,0,0
616,-83,0,0,0,0,0,0,0,0,0,-1,1840,1107,0,0
623,-83,0,0,0,0,0,0,0,0,0,-1,1847,1107,0,0
630,-83,0,0,0,0,0,0,0,0,0,-1,1854,1107,0,0
637,-83,0,0,0,0,0,0,0,0,0,-1,1861,1107,0,0
644,-83,17.153,2.40955,-0.00249956,-0.0056735,-0.0023651,-0.00123834,-0.00693472,-0.489902,0.00427064,0.0376395,1868,1107,17.153,-2.4096
651,-83,17.1454,2.38745,-0.00154862,-0.00429383,-0.00195735,-0.000530564,-0.00531188,-0.479614,0.00337832,0.0400897,1875,1107,17.1454,-2.38748
658,-83,17.0961,2.38757,-0.000777601,-0.00327016,-0.00161694,1.76164e-05,-0.00406538,-0.457069,0.00271614,0.0423042,1882,1107,17.0961,-2.38756
665,-83,17.075,2.31616,-0.000136123,-0.00244199,-0.00130488,0.000452202,-0.00303031,-0.423572,0.00218659,0.0388954,1889,1107,17.075,-2.31618
672,-83,17.0352,2.23999,-0.000547071,-0.0022753,0.000213113,-0.000521179,-0.00230119,0.120901,0.00139328,0.0364841,1896,1107,17.0352,-2.23999
679,-83,17.0657,2.1217,-0.00158197,-0.00239147,0.002108,0.000159785,-0.00413323,0.690549,0.00281026,0.039139,1903,1107,17.0656,-2.12173
686,-83,17.151,2.13074,-0.00275816,-0.00261148,0.0038873,0.00120317,-0.00657281,0.79483,0.00483311,0.0379037,1910,1107,17.1509,-2.13076
693,-83,17.1273,2.29565,-0.0038707,-0.00284352,0.00546183,0.00212881,-0.00884303,0.832277,0.00671834,0.0362399,1917,1107,17.1273,-2.29562
700,-83,17.1317,2.40576,-0.00475857,-0.00295516,0.0066643,0.00286815,-0.0105819,0.852642,0.00818001,0.0328898,1924,1107,17.1317,-2.4058
707,-83,17.1228,2.41614,-0.00539114,-0.00298076,0.00760079,0.0035098,-0.0118817,0.864024,0.00931417,0.0228639,1931,1107,17.1228,-2.4161
714,-83,17.1461,2.58533,-0.00591201,-0.0029359,0.00817292,0.00388333,-0.0127312,0.875448,0.0100356,0.0310438,1938,1107,17.1461,-2.5853
721,-83,16.7653,3.30164,-0.00625481,-0.00286406,0.00831181,0.00392352,-0.0130424,0.886004,0.0102561,0.0218498,1945,1107,16.7653,-3.30166
728,-83,16.5734,3.52173,-0.00626342,-0.00259955,0.00805201,0.00382629,-0.0126893,0.897251,0.00998244,0.0192079,1952,1107,16.5734,-3.52171
735,-83,16.505,3.47949,-0.00574991,-0.00215998,0.00751217,0.0037687,-0.0116786,0.90267,0.00930007,0.020296,1959,1107,16.505,-3.4795
742,-83,16.5518,3.48242,-0.00468437,-0.00184165,0.00638336,0.00327668,-0.0098027,0.894944,0.00785846,0.01359,1966,1107,16.5517,-3.48246
749,-83,16.5731,3.42517,-0.00326708,-0.00152798,0.00480315,0.00248369,-0.00727876,0.874947,0.00585861,0.0125063,1973,1107,16.5732,-3.42513
756,-83,16.5884,3.37048,-0.00196377,-0.000898541,0.00279539,0.00141452,-0.00427684,0.879536,0.00342162,0.0136894,1980,1107,16.5884,-3.37049
763,-83,16.5907,3.31714,-0.000446209,-0.000779801,0.000284861,-0.000282904,-0.000943106,0.52054,0.000558838,0.0108908,1987,1107,16.5907,-3.31714
770,-83,16.5742,3.27844,0.00127516,-0.000597383,-0.00248454,0.00299399,-0.00231621,-0.605208,0.00307416,0.0127201,1994,1107,16.5743,-3.27841
777,-83,16.5682,3.24609,0.00256222,-0.000869956,-0.00522148,0.00634238,-0.00465012,-0.626629,0.00637155,0.0136817,2001,1107,16.5682,-3.24605
784,-83,16.5392,3.23743,0.00325042,-0.00158849,-0.00828379,0.00946085,-0.00779892,-0.643315,0.00998032,0.0233686,2008,1107,16.5392,-3.23742
791,-83,16.3894,3.15576,0.00345032,-0.00265605,-0.0125094,0.0132738,-0.0124795,-0.665703,0.014871,0.0433226,2015,1107,16.3894,-3.15576
798,-83,16.2667,3.03235,0,0,0,0,0,0,0,-1,2022,1107,16.2667,-3.0324
805,-83,16.4711,1.93213,0.00184748,-0.00603663,-0.0263407,0.0245395,-0.0287286,-0.711121,0.030786,0.0447956,2029,1107,16.4711,-1.93215
812,-83,16.2456,1.61121,-0.00112608,-0.00856191,-0.0369693,0.0323117,-0.0419997,-0.735283,0.0430251,0.0456802,2036,1107,16.2456,-1.61123
-700,-90,0,0,0,0,0,0,0,0,0,-1,524,1114,0,0
-693,-90,-8.03003,1.47852,0,0,0,0,0,0,0,-1,531,1114,-8.03,-1.47854
-686,-90,-9.91144,-0.785645,0,0,0,0,0,0,0,-1,538,1114,-9.91144,0.78564
-679,-90,-10.1559,-0.326294,-0.0291957,-0.00521088,-0.00786173,-0.00286367,-0.0315429,-1.28066,0.020142,0.043292,545,1114,-10.1559,0.326317
-672,-90,-10.4491,0.0928955,-0.021219,-0.00274048,-0.00452513,-0.00169185,-0.0222677,-1.34308,0.0143145,0.0447597,552,1114,-10.4491,-0.0928767
-665,-90,-10.7404,0.434814,-0.0146385,-0.00109555,-0.0022901,-0.000718778,-0.0150153,-1.40774,0.0097794,0.0477511,559,1114,-10.7404,-0.434756
-658,-90,-10.4009,0.566284,-0.0094921,-7.6918e-05,-0.000908731,9.98843e-06,-0.00957901,-1.47545,0.00638934,0.0459927,566,1114,-10.401,-0.566262
-651,-90,-10.432,0.682129,-0.005683,0.000472883,-0.000137672,0.000475961,-0.00568608,-1.54845,0.00395892,0.0294113,573,1114,-10.432,-0.682176
-644,-90,-10.4573,0.846924,-0.0030653,0.000693718,0.00015345,0.000699971,-0.00307156,1.53006,0.00231655,0.0123119,580,1114,-10.4573,-0.846964
-637,-90,-10.455,0.97229,-0.00165822,0.000949367,-0.000203955,0.000965223,-0.00167408,-1.49321,0.00154201,0.0109283,587,1114,-10.4549,-0.972285
-630,-90,-10.4611,1.03687,-0.000825113,0.000484023,-0.000922955,0.000960961,-0.00130205,-1.09384,0.00131149,0.01091,594,1114,-10.4611,-1.03688
-623,-90,-10.4614,1.09155,-0.000535781,-0.000173353,-0.00210003,0.00175327,-0.0024624,-0.828437,0.00244537,0.00892421,601,1114,-10.4614,-1.09158
-616,-90,-10.4489,1.17603,-0.00123767,-0.000788312,-0.00337413,0.00236861,-0.00439459,-0.818644,0.00396271,0.00717153,608,1114,-10.4489,-1.17606
-609,-90,-10.4393,1.25916,-0.0023283,-0.00134504,-0.00464138,0.00283068,-0.00650402,-0.838163,0.00552673,0.00983535,615,1114,-10.4393,-1.25914
-602,-90,-10.4596,1.33252,-0.00337538,-0.00167691,-0.00528935,0.00283094,-0.00788323,-0.864997,0.00641098,0.00971422,622,1114,-10.4596,-1.3325
-595,-90,-10.4363,1.41663,-0.00412932,-0.00214714,-0.00583556,0.00278089,-0.00905736,-0.869514,0.00714786,0.011765,629,1114,-10.4364,-1.41657
-588,-90,-10.4944,1.29675,-0.00451813,-0.00256781,-0.00614124,0.00267521,-0.00976115,-0.864135,0.00755866,0.0235002,636,1114,-10.4945,-1.29675
-581,-90,-10.8073,0.758301,-0.0044824,-0.00289359,-0.00602821,0.00239234,-0.00976832,-0.850911,0.00743902,0.0324415,643,1114,-10.8073,-0.7583
-574,-90,-10.8943,0.602417,-0.00432031,-0.00311376,-0.005732,0.00204662,-0.0094807,-0.837829,0.00710166,0.034408,650,1114,-10.8943,-0.602381
-567,-90,-10.9081,0.648804,-0.00390987,-0.00324947,-0.00504169,0.00147282,-0.00863216,-0.818098,0.00630333,0.0342066,657,1114,-10.9082,-0.648818
-560,-90,-10.7421,0.583252,-0.0031469,-0.00330511,-0.00399165,0.000766434,-0.00721844,-0.775491,0.00508705,0.038411,664,1114,-10.7421,-0.583277
-553,-90,-10.6434,0.71582,-0.00202626,-0.00330825,-0.00264739,5.66316e-05,-0.00539114,-0.666623,0.00361312,0.0404231,671,1114,-10.6433,-0.715801
-546,-90,-10.8277,0.639038,-0.00051489,-0.00329698,-0.00108082,-0.00014435,-0.00366752,-0.330275,0.00239834,0.0409496,678,1114,-10.8277,-0.639053
-539,-90,-10.9807,0.687012,0.00140877,-0.00332013,0.00050654,0.00146242,-0.00337378,0.105521,0.00286395,0.0424504,685,1114,-10.9806,-0.687038
-532,-90,-10.9655,0.71167,0.00293399,-0.00370449,0.000833778,0.00303711,-0.00380761,0.123052,0.00396014,0.0404955,692,1114,-10.9655,-0.711663
-525,-90,0,0,0,0,0,0,0,0,0,-1,699,1114,0,0
-518,-90,0,0,0,0,0,0,0,0,0,-1,706,1114,0,0
-511,-90,0,0,0,0,0,0,0,0,0,-1,713,1114,0,0
-504,-90,0,0,0,0,0,0,0,0,0,-1,720,1114,0,0
-497,-90,0,0,0,0,0,0,0,0,0,-1,727,1114,0,0
-490,-90,0,0,0,0,0,0,0,0,0,-1,734,1114,0,0
-483,-90,0,0,0,0,0,0,0,0,0,-1,741,1114,0,0
-476,-90,0,0,0,0,0,0,0,0,0,-1,748,1114,0,0
-469,-90,0,0,0,0,0,0,0,0,0,-1,755,1114,0,0
-462,-90,0,0,0,0,0,0,0,0,0,-1,762,1114,0,0
-455,-90,0,0,0,0,0,0,0,0,0,-1,769,1114,0,0
-448,-90,0,0,0,0,0,0,0,0,0,-1,776,1114,0,0
-441,-90,0,0,0,0,0,0,0,0,0,-1,783,1114,0,0
-434,-90,0,0,0,0,0,0,0,0,0,-1,790,1114,0,0
-427,-90,0,0,0,0,0,0,0,0,0,-1,797,1114,0,0
-420,-90,0,0,0,0,0,0,0,0,0,-1,804,1114,0,0
-413,-90,0,0,0,0,0,0,0,0,0,-1,811,1114,0,0
-406,-90,0,0,0,0,0,0,0,0,0,-1,818,1114,0,0
-399,-90,0,0,0,0,0,0,0,0,0,-1,825,1114,0,0
-392,-90,0,0,0,0,0,0,0,0,0,-1,832,1114,0,0
-385,-90,0,0,0,0,0,0,0,0,0,-1,839,1114,0,0
-378,-90,0,0,0,0,0,0,0,0,0,-1,846,1114,0,0
-371,-90,0,0,0,0,0,0,0,0,0,-1,853,1114,0,0
-364,-90,0,0,0,0,0,0,0,0,0,-1,860,1114,0,0
-357,-90,0,0,0,0,0,0,0,0,0,-1,867,1114,0,0
-350,-90,0,0,0,0,0,0,0,0,0,-1,874,1114,0,0
-343,-90,0,0,0,0,0,0,0,0,0,-1,881,1114,0,0
-336,-90,0,0,0,0,0,0,0,0,0,-1,888,1114,0,0
-329,-90,0,0,0,0,0,0,0,0,0,-1,895,1114,0,0
-322,-90,0,0,0,0,0,0,0,0,0,-1,902,1114,0,0
-315,-90,0,0,0,0,0,0,0,0,0,-1,909,1114,0,0
-308,-90,0,0,0,0,0,0,0,0,0,-1,916,1114,0,0
-301,-90,0,0,0,0,0,0,0,0,0,-1,923,1114,0,0
-294,-90,0,0,0,0,0,0,0,0,0,-1,930,1114,0,0
-287,-90,0,0,0,0,0,0,0,0,0,-1,937,1114,0,0
-280,-90,0,0,0,0,0,0,0,0,0,-1,944,1114,0,0
-273,-90,0,0,0,0,0,0,0,0,0,-1,951,1114,0,0
-266,-90,0,0,0,0,0,0,0,0,0,-1,958,1114,0,0
-259,-90,0,0,0,0,0,0,0,0,0,-1,965,1114,0,0
-252,-90,0,0,0,0,0,0,0,0,0,-1,972,1114,0,0
-245,-90,0,0,0,0,0,0,0,0,0,-1,979,1114,0,0
-238,-90,0,0,0,0,0,0,0,0,0,-1,986,1114,0,0
-231,-90,0,0,0,0,0,0,0,0,0,-1,993,1114,0,0
-224,-90,0,0,0,0,0,0,0,0,0,-1,1000,1114,0,0
-217,-90,0,0,0,0,0,0,0,0,0,-1,1007,1114,0,0
-210,-90,0,0,0,0,0,0,0,0,0,-1,1014,1114,0,0
-203,-90,0,0,0,0,0,0,0,0,0,-1,1021,1114,0,0
-196,-90,0,0,0,0,0,0,0,0,0,-1,1028,1114,0,0
-189,-90,0,0,0,0,0,0,0,0,0,-1,1035,1114,0,0
-182,-90,0,0,0,0,0,0,0,0,0,-1,1042,1114,0,0
-175,-90,0,0,0,0,0,0,0,0,0,-1,1049,1114,0,0
-168,-90,0,0,0,0,0,0,0,0,0,-1,1056,1114,0,0
-161,-90,0,0,0,0,0,0,0,0,0,-1,1063,1114,0,0
-154,-90,0,0,0,0,0,0,0,0,0,-1,1070,1114,0,0
-147,-90,0,0,0,0,0,0,0,0,0,-1,1077,1114,0,0
-140,-90,0,0,0,0,0,0,0,0,0,-1,1084,1114,0,0
-133,-90,0,0,0,0,0,0,0,0,0,-1,1091,1114,0,0
-126,-90,0,0,0,0,0,0,0,0,0,-1,1098,1114,0,0
-119,-90,0,0,0,0,0,0,0,0,0,-1,1105,1114,0,0
-112,-90,0,0,0,0,0,0,0,0,0,-1,1112,1114,0,0
-105,-90,0,0,0,0,0,0,0,0,0,-1,1119,1114,0,0
-98,-90,0,0,0,0,0,0,0,0,0,-1,1126,1114,0,0
-91,-90,0,0,0,0,0,0,0,0,0,-1,1133,1114,0,0
-84,-90,0,0,0,0,0,0,0,0,0,-1,1140,1114,0,0
-77,-90,0,0,0,0,0,0,0,0,0,-1,1147,1114,0,0
-70,-90,0,0,0,0,0,0,0,0,0,-1,1154,1114,0,0
-63,-90,0,0,0,0,0,0,0,0,0,-1,1161,1114,0,0
-56,-90,0,0,0,0,0,0,0,0,0,-1,1168,1114,0,0
-49,-90,0,0,0,0,0,0,0,0,0,-1,1175,1114,0,0
-42,-90,0,0,0,0,0,0,0,0,0,-1,1182,1114,0,0
-35,-90,0,0,0,0,0,0,0,0,0,-1,1189,1114,0,0
-28,-90,0,0,0,0,0,0,0,0,0,-1,1196,1114,0,0
-21,-90,0,0,0,0,0,0,0,0,0,-1,1203,1114,0,0
-14,-90,0,0,0,0,0,0,0,0,0,-1,1210,1114,0,0
-7,-90,0,0,0,0,0,0,0,0,0,-1,1217,1114,0,0
0,-90,0,0,0,0,0,0,0,0,0,-1,1224,1114,0,0
7,-90,0,0,0,0,0,0,0,0,0,-1,1231,1114,0,0
14,-90,0,0,0,0,0,0,0,0,0,-1,1238,1114,0,0
21,-90,0,0,0,0,0,0,0,0,0,-1,1245,1114,0,0
28,-90,0,0,0,0,0,0,0,0,0,-1,1252,1114,0,0
35,-90,0,0,0,0,0,0,0,0,0,-1,1259,1114,0,0
42,-90,0,0,0,0,0,0,0,0,0,-1,1266,1114,0,0
49,-90,0,0,0,0,0,0,0,0,0,-1,1273,1114,0,0
56,-90,0,0,0,0,0,0,0,0,0,-1,1280,1114,0,0
63,-90,0,0,0,0,0,0,0,0,0,-1,1287,1114,0,0
70,-90,0,0,0,0,0,0,0,0,0,-1,1294,1114,0,0
77,-90,0,0,0,0,0,0,0,0,0,-1,1301,1114,0,0
84,-90,0,0,0,0,0,0,0,0,0,-1,1308,1114,0,0
91,-90,0,0,0,0,0,0,0,0,0,-1,1315,1114,0,0
98,-90,0,0,0,0,0,0,0,0,0,-1,1322,1114,0,0
105,-90,0,0,0,0,0,0,0,0,0,-1,1329,1114,0,0
112,-90,0,0,0,0,0,0,0,0,0,-1,1336,1114,0,0
119,-90,0,0,0,0,0,0,0,0,0,-1,1343,1114,0,0
126,-90,0,0,0,0,0,0,0,0,0,-1,1350,1114,0,0
133,-90,0,0,0,0,0,0,0,0,0,-1,1357,1114,0,0
140,-90,0,0,0,0,0,0,0,0,0,-1,1364,1114,0,0
147,-90,0,0,0,0,0,0,0,0,0,-1,1371,1114,0,0
154,-90,0,0,0,0,0,0,0,0,0,-1,1378,1114,0,0
161,-90,0,0,0,0,0,0,0,0,0,-1,1385,1114,0,0
168,-90,0,0,0,0,0,0,0,0,0,-1,1392,1114,0,0
175,-90,0,0,0,0,0,0,0,0,0,-1,1399,1114,0,0
182,-90,0,0,0,0,0,0,0,0,0,-1,1406,1114,0,0
189,-90,0,0,0,0,0,0,0,0,0,-1,1413,1114,0,0
196,-90,0,0,0,0,0,0,0,0,0,-1,1420,1114,0,0
203,-90,0,0,0,0,0,0,0,0,0,-1,1427,1114,0,0
210,-90,0,0,0,0,0,0,0,0,0,-1,1434,1114,0,0
217,-90,0,0,0,0,0,0,0,0,0,-1,1441,1114,0,0
224,-90,0,0,0,0,0,0,0,0,0,-1,1448,1114,0,0
231,-90,0,0,0,0,0,0,0,0,0,-1,1455,1114,0,0
238,-90,0,0,0,0,0,0,0,0,0,-1,1462,1114,0,0
245,-90,0,0,0,0,0,0,0,0,0,-1,1469,1114,0,0
252,-90,0,0,0,0,0,0,0,0,0,-1,1476,1114,0,0
259,-90,0,0,0,0,0,0,0,0,0,-1,1483,1114,0,0
266,-90,0,0,0,0,0,0,0,0,0,-1,1490,1114,0,0
273,-90,0,0,0,0,0,0,0,0,0,-1,1497,1114,0,0
280,-90,0,0,0,0,0,0,0,0,0,-1,1504,1114,0,0
287,-90,0,0,0,0,0,0,0,0,0,-1,1511,1114,0,0
294,-90,0,0,0,0,0,0,0,0,0,-1,1518,1114,0,0
301,-90,0,0,0,0,0,0,0,0,0,-1,1525,1114,0,0
308,-90,0,0,0,0,0,0,0,0,0,-1,1532,1114,0,0
315,-90,0,0,0,0,0,0,0,0,0,-1,1539,1114,0,0
322,-90,0,0,0,0,0,0,0,0,0,-1,1546,1114,0,0
329,-90,0,0,0,0,0,0,0,0,0,-1,1553,1114,0,0
336,-90,0,0,0,0,0,0,0,0,0,-1,1560,1114,0,0
343,-90,0,0,0,0,0,0,0,0,0,-1,1567,1114,0,0
350,-90,0,0,0,0,0,0,0,0,0,-1,1574,1114,0,0
357,-90,0,0,0,0,0,0,0,0,0,-1,1581,1114,0,0
364,-90,0,0,0,0,0,0,0,0,0,-1,1588,1114,0,0
371,-90,0,0,0,0,0,0,0,0,0,-1,1595,1114,0,0
378,-90,0,0,0,0,0,0,0,0,0,-1,1602,1114,0,0
385,-90,0,0,0,0,0,0,0,0,0,-1,1609,1114,0,0
392,-90,0,0,0,0,0,0,0,0,0,-1,1616,1114,0,0
399,-90,0,0,0,0,0,0,0,0,0,-1,1623,1114,0,0
406,-90,0,0,0,0,0,0,0,0,0,-1,1630,1114,0,0
413,-90,0,0,0,0,0,0,0,0,0,-1,1637,1114,0,0
420,-90,0,0,0,0,0,0,0,0,0,-1,1644,1114,0,0
427,-90,0,0,0,0,0,0,0,0,0,-1,1651,1114,0,0
434,-90,0,0,0,0,0,0,0,0,0,-1,1658,1114,0,0
441,-90,0,0,0,0,0,0,0,0,0,-1,1665,1114,0,0
448,-90,0,0,0,0,0,0,0,0,0,-1,1672,1114,0,0
455,-90,0,0,0,0,0,0,0,0,0,-1,1679,1114,0,0
462,-90,0,0,0,0,0,0,0,0,0,-1,1686,1114,0,0
469,-90,0,0,0,0,0,0,0,0,0,-1,1693,1114,0,0
476,-90,0,0,0,0,0,0,0,0,0,-1,1700,1114,0,0
483,-90,0,0,0,0,0,0,0,0,0,-1,1707,1114,0,0
490,-90,0,0,0,0,0,0,0,0,0,-1,1714,1114,0,0
497,-90,0,0,0,0,0,0,0,0,0,-1,1721,1114,0,0
504,-90,0,0,0,0,0,0,0,0,0,-1,1728,1114,0,0
511,-90,0,0,0,0,0,0,0,0,0,-1,1735,1114,0,0
518,-90,0,0,0,0,0,0,0,0,0,-1,1742,1114,0,0
525,-90,0,0,0,0,0,0,0,0,0,-1,1749,1114,0,0
532,-90,0,0,0,0,0,0,0,0,0,-1,1756,1114,0,0
539,-90,0,0,0,0,0,0,0,0,0,-1,1763,1114,0,0
546,-90,0,0,0,0,0,0,0,0,0,-1,1770,1114,0,0
553,-90,0,0,0,0,0,0,0,0,0,-1,1777,1114,0,0
560,-90,0,0,0,0,0,0,0,0,0,-1,1784,1114,0,0
567,-90,0,0,0,0,0,0,0,0,0,-1,1791,1114,0,0
574,-90,0,0,0,0,0,0,0,0,0,-1,1798,1114,0,0
581,-90,0,0,0,0,0,0,0,0,0,-1,1805,1114,0,0
588,-90,0,0,0,0,0,0,0,0,0,-1,1812,1114,0,0
595,-90,0,0,0,0,0,0,0,0,0,-1,1819,1114,0,0
602,-90,0,0,0,0,0,0,0,0,0,-1,1826,1114,0,0
609,-90,0,0,0,0,0,0,0,0,0,-1,1833,1114,0,0
616,-90,0,0,0,0,0,0,0,0,0,-1,1840,1114,0,0
623,-90,0,0,0,0,0,0,0,0,0,-1,1847,1114,0,0
630,-90,0,0,0,0,0,0,0,0,0,-1,1854,1114,0,0
637,-90,0,0,0,0,0,0,0,0,0,-1,1861,1114,0,0
644,-90,17.0447,2.53455,-0.00247327,-0.00576522,-0.00276301,-0.000903121,-0.00733538,-0.516766,0.00461874,0.0379281,1868,1114,17.0446,-2.5346
651,-90,17.1176,2.49707,-0.00178962,-0.00445638,-0.00229848,-0.000465761,-0.00578024,-0.522564,0.003708,0.0381308,1875,1114,17.1176,-2.49702
658,-90,17.151,2.47424,-0.00106283,-0.00345735,-0.00194463,2.35471e-05,-0.00454373,-0.509464,0.00303703,0.0396099,1882,1114,17.151,-2.4743
665,-90,17.1656,2.34167,-0.000544858,-0.00267771,-0.00148059,0.000213382,-0.00343595,-0.473297,0.00236497,0.0405988,1889,1114,17.1657,-2.34172
672,-90,17.125,2.33557,-0.00111152,-0.00256313,0.000164811,-0.00109305,-0.00258161,0.111644,0.00149631,0.0412184,1896,1114,17.125,-2.33554
679,-90,17.0868,2.4093,-0.00220443,-0.00268825,0.00207353,-0.000358749,-0.00453393,0.727327,0.00291042,0.0410241,1903,1114,17.0867,-2.40931
686,-90,17.1549,2.46326,-0.0033905,-0.00290493,0.0038355,0.00069546,-0.00699088,0.817006,0.00490886,0.0365769,1910,1114,17.1549,-2.46326
693,-90,17.1681,2.48621,-0.00448624,-0.0031166,0.00537639,0.00161841,-0.00922125,0.848745,0.00675194,0.0346744,1917,1114,17.1681,-2.48625
700,-90,17.1711,2.48511,-0.00531538,-0.00320343,0.00651945,0.00234501,-0.0108638,0.865687,0.00813764,0.0296108,1924,1114,17.1712,-2.48511
707,-90,17.17,2.10681,0,0,0,0,0,0,0,-1,1931,1114,17.1701,-2.10684
714,-90,17.0625,2.6864,-0.00639961,-0.00310208,0.00800726,0.0034244,-0.0129261,0.886934,0.00995711,0.032509,1938,1114,17.0625,-2.68641
721,-90,16.6895,3.49866,-0.00666206,-0.0029869,0.00814626,0.00352647,-0.0131754,0.896328,0.0101651,0.0216349,1945,1114,16.6895,-3.49865
728,-90,16.5315,3.57544,-0.0065374,-0.00268008,0.00787112,0.00349522,-0.0127127,0.905546,0.00984916,0.0172559,1952,1114,16.5315,-3.57549
735,-90,16.5181,3.5083,-0.00589183,-0.00220814,0.0073647,0.00354154,-0.0116415,0.90793,0.00917233,0.0192465,1959,1114,16.5181,-3.50835
742,-90,16.5166,3.45264,-0.00473578,-0.00197113,0.00624927,0.00304688,-0.00975379,0.894245,0.00772121,0.0185431,1966,1114,16.5166,-3.45268
749,-90,16.5352,3.38757,-0.00327036,-0.00151148,0.0046739,0.002365,-0.00714684,0.878391,0.00571831,0.0148562,1973,1114,16.5351,-3.38762
756,-90,16.5559,3.35388,-0.00191137,-0.000733726,0.00269113,0.00143225,-0.00407734,0.893101,0.0033009,0.0135836,1980,1114,16.556,-3.35392
763,-90,16.5463,3.31799,-0.000293399,-0.000478334,0.000157789,-0.00020298,-0.000568753,0.520359,0.000332823,0.0111011,1987,1114,16.5463,-3.31798
770,-90,16.5267,3.2843,0.00146493,-8.84336e-05,-0.002605,0.00340656,-0.00203007,-0.640518,0.0031722,0.0133104,1994,1114,16.5268,-3.28431
777,-90,16.5142,3.24414,0.00266943,-6.2357e-05,-0.0053379,0.00681342,-0.00420635,-0.660143,0.00642134,0.0121802,2001,1114,16.5142,-3.24415
784,-90,16.5061,3.1731,0.003242,-0.000261588,-0.00852991,0.0101981,-0.00721772,-0.684121,0.010104,0.0243361,2008,1114,16.506,-3.17312
791,-90,16.5115,3.02808,0.0032911,-0.000525341,-0.013003,0.0145252,-0.0117594,-0.712542,0.0152034,0.0417869,2015,1114,16.5114,-3.02812
798,-90,16.6672,2.66272,0,0,0,0,0,0,0,-1,2022,1114,16.6673,-2.66274
805,-90,16.8224,2.34387,0.00101188,-0.000997792,-0.0276171,0.0276424,-0.0276283,-0.767214,0.0319106,0.0451669,2029,1114,16.8224,-2.34386
812,-90,16.6436,1.93127,-0.00258187,-0.00110601,-0.0387617,0.0369248,-0.0406126,-0.794916,0.0447831,0.0462461,2036,1114,16.6435,-1.93123
-700,-97,0,0,0,0,0,0,0,0,0,-1,524,1121,0,0
-693,-97,-7.49969,-0.810425,0,0,0,0,0,0,0,-1,531,1121,-7.49967,0.810436
-686,-97,-10.5018,-0.977173,-0.0444692,-0.00725783,-0.0103393,-0.00457802,-0.047149,-1.31719,0.0300232,0.0451077,538,1121,-10.5018,0.977178
-679,-97,-10.3647,-0.901489,-0.033975,-0.00350555,-0.00670447,-0.00209556,-0.035385,-1.36351,0.0229234,0.0440888,545,1121,-10.3647,0.901531
-672,-97,-11.001,-0.262085,0,0,0,0,0,0,0,-1,552,1121,-11.001,0.262055
-665,-97,-10.9316,0.0875244,-0.0174514,0.000416695,-0.00251264,0.000763303,-0.017798,-1.43372,0.0121278,0.0467562,559,1121,-10.9316,-0.0875058
-658,-97,-10.5485,0.533325,-0.0115709,0.00120752,-0.00146226,0.00137271,-0.0117361,-1.4583,0.00831947,0.0431363,566,1121,-10.5485,-0.533337
-651,-97,-10.4074,0.730225,-0.00717952,0.00150908,-0.000838629,0.00158929,-0.00725973,-1.47545,0.00544742,0.0292221,573,1121,-10.4074,-0.730258
-644,-97,-10.3959,0.846802,-0.00409517,0.00148497,-0.000560296,0.00154067,-0.00415087,-1.47171,0.00339925,0.00985337,580,1121,-10.3959,-0.84684
-637,-97,-10.3925,0.949219,-0.00231286,0.00155794,-0.000879661,0.00174847,-0.00250339,-1.3575,0.00246767,0.0106719,587,1121,-10.3925,-0.949258
-630,-97,-10.3904,1.02124,-0.00129002,0.000907971,-0.00147994,0.00165235,-0.0020344,-1.10477,0.00213235,0.00948914,594,1121,-10.3905,-1.02126
-623,-97,-10.3859,1.10681,-0.000841051,9.14414e-05,-0.00253774,0.00220541,-0.00295502,-0.876248,0.00298983,0.0110823,601,1121,-10.3859,-1.10684
-616,-97,-10.3658,1.17908,-0.00149942,-0.000767258,-0.0037036,0.00258831,-0.00485499,-0.83466,0.00436331,0.011036,608,1121,-10.3658,-1.17913
-609,-97,-10.3752,1.25928,-0.00263418,-0.00141081,-0.00483382,0.00284987,-0.00689486,-0.848335,0.00578543,0.0126652,615,1121,-10.3752,-1.25931
-602,-97,-10.3914,1.31677,-0.00372863,-0.00178812,-0.00535418,0.00268301,-0.00819976,-0.875032,0.00654674,0.0116248,622,1121,-10.3914,-1.3168
-595,-97,-10.3582,1.39917,-0.00452398,-0.00227923,-0.00584838,0.0025535,-0.00935671,-0.880202,0.00724065,0.0155088,629,1121,-10.3582,-1.39917
-588,-97,-10.3694,1.36584,-0.00497809,-0.00271511,-0.00614818,0.00240483,-0.010098,-0.876398,0.0076605,0.0239178,636,1121,-10.3694,-1.36586
-581,-97,-10.7169,0.878906,-0.00500733,-0.00302401,-0.00604434,0.00210947,-0.0101408,-0.866706,0.00756242,0.0338175,643,1121,-10.7169,-0.87894
-574,-97,-10.8815,0.623901,-0.00485794,-0.00323271,-0.00577489,0.00178646,-0.00987712,-0.855297,0.00725393,0.0372851,650,1121,-10.8815,-0.623859
-567,-97,-10.8436,0.539551,-0.00447341,-0.00334653,-0.0051121,0.00123308,-0.00905303,-0.840285,0.00648557,0.035146,657,1121,-10.8436,-0.539606
-560,-97,-10.8337,0.615723,-0.0037282,-0.00337446,-0.00408404,0.000536542,-0.0076392,-0.807038,0.00528074,0.0395113,664,1121,-10.8337,-0.615677
-553,-97,-10.8218,0.795898,-0.00261187,-0.00335024,-0.00274808,-0.000208283,-0.00575383,-0.718626,0.00376838,0.0433015,671,1121,-10.8218,-0.795944
-546,-97,-10.9006,0.525391,-0.00108952,-0.0033214,-0.0011704,-0.000588316,-0.00382261,-0.404607,0.0023767,0.0421361,678,1121,-10.9007,-0.525438
-539,-97,-10.9014,0.389526,0.000884215,-0.00335176,0.000494911,0.000941269,-0.00340882,0.114776,0.00264278,0.039488,685,1121,-10.9014,-0.389518
-532,-97,-10.9664,0.650146,0.00255531,-0.00376615,0.00107078,0.00273176,-0.0039426,0.16332,0.00387452,0.0354412,692,1121,-10.9665,-0.650117
-525,-97,0,0,0,0,0,0,0,0,0,-1,699,1121,0,0
-518,-97,0,0,0,0,0,0,0,0,0,-1,706,1121,0,0
-511,-97,0,0,0,0,0,0,0,0,0,-1,713,1121,0,0
-504,-97,0,0,0,0,0,0,0,0,0,-1,720,1121,0,0
-497,-97,0,0,0,0,0,0,0,0,0,-1,727,1121,0,0
-490,-97,0,0,0,0,0,0,0,0,0,-1,734,1121,0,0
-483,-97,0,0,0,0,0,0,0,0,0,-1,741,1121,0,0
-476,-97,0,0,0,0,0,0,0,0,0,-1,748,1121,0,0
-469,-97,0,0,0,0,0,0,0,0,0,-1,755,1121,0,0
-462,-97,0,0,0,0,0,0,0,0,0,-1,762,1121,0,0
-455,-97,0,0,0,0,0,0,0,0,0,-1,769,1121,0,0
-448,-97,0,0,0,0,0,0,0,0,0,-1,776,1121,0,0
-441,-97,0,0,0,0,0,0,0,0,0,-1,783,1121,0,0
-434,-97,0,0,0,0,0,0,0,0,0,-1,790,1121,0,0
-427,-97,0,0,0,0,0,0,0,0,0,-1,797,1121,0,0
-420,-97,0,0,0,0,0,0,0,0,0,-1,804,1121,0,0
-413,-97,0,0,0,0,0,0,0,0,0,-1,811,1121,0,0
-406,-97,0,0,0,0,0,0,0,0,0,-1,818,1121,0,0
-399,-97,0,0,0,0,0,0,0,0,0,-1,825,1121,0,0
-392,-97,0,0,0,0,0,0,0,0,0,-1,832,1121,0,0
-385,-97,0,0,0,0,0,0,0,0,0,-1,839,1121,0,0
-378,-97,0,0,0,0,0,0,0,0,0,-1,846,1121,0,0
-371,-97,0,0,0,0,0,0,0,0,0,-1,853,1121,0,0
-364,-97,0,0,0,0,0,0,0,0,0,-1,860,1121,0,0
-357,-97,0,0,0,0,0,0,0,0,0,-1,867,1121,0,0
-350,-97,0,0,0,0,0,0,0,0,0,-1,874,1121,0,0
-343,-97,0,0,0,0,0,0,0,0,0,-1,881,1121,0,0
-336,-97,0,0,0,0,0,0,0,0,0,-1,888,1121,0,0
-329,-97,0,0,0,0,0,0,0,0,0,-1,895,1121,0,0
-322,-97,0,0,0,0,0,0,0,0,0,-1,902,1121,0,0
-315,-97,0,0,0,0,0,0,0,0,0,-1,909,1121,0,0
-308,-97,0,0,0,0,0,0,0,0,0,-1,916,1121,0,0
-301,-97,0,0,0,0,0,0,0,0,0,-1,923,1121,0,0
-294,-97,0,0,0,0,0,0,0,0,0,-1,930,1121,0,0
-287,-97,0,0,0,0,0,0,0,0,0,-1,937,1121,0,0
-280,-97,0,0,0,0,0,0,0,0,0,-1,944,1121,0,0
-273,-97,0,0,0,0,0,0,0,0,0,-1,951,1121,0,0
-266,-97,0,0,0,0,0,0,0,0,0,-1,958,1121,0,0
-259,-97,0,0,0,0,0,0,0,0,0,-1,965,1121,0,0
-252,-97,0,0,0,0,0,0,0,0,0,-1,972,1121,0,0
-245,-97,0,0,0,0,0,0,0,0,0,-1,979,1121,0,0
-238,-97,0,0,0,0,0,0,0,0,0,-1,986,1121,0,0
-231,-97,0,0,0,0,0,0,0,0,0,-1,993,1121,0,0
-224,-97,0,0,0,0,0,0,0,0,0,-1,1000,1121,0,0
-217,-97,0,0,0,0,0,0,0,0,0,-1,1007,1121,0,0
-210,-97,0,0,0,0,0,0,0,0,0,-1,1014,1121,0,0
-203,-97,0,0,0,0,0,0,0,0,0,-1,1021,1121,0,0
-196,-97,0,0,0,0,0,0,0,0,0,-1,1028,1121,0,0
-189,-97,0,0,0,0,0,0,0,0,0,-1,1035,1121,0,0
-182,-97,0,0,0,0,0,0,0,0,0,-1,1042,1121,0,0
-175,-97,0,0,0,0,0,0,0,0,0,-1,1049,1121,0,0
-168,-97,0,0,0,0,0,0,0,0,0,-1,1056,1121,0,0
-161,-97,0,0,0,0,0,0,0,0,0,-1,1063,1121,0,0
-154,-97,0,0,0,0,0,0,0,0,0,-1,1070,1121,0,0
-147,-97,0,0,0,0,0,0,0,0,0,-1,1077,1121,0,0
-140,-97,0,0,0,0,0,0,0,0,0,-1,1084,1121,0,0
-133,-97,0,0,0,0,0,0,0,0,0,-1,1091,1121,0,0
-126,-97,0,0,0,0,0,0,0,0,0,-1,1098,1121,0,0
-119,-97,0,0,0,0,0,0,0,0,0,-1,1105,1121,0,0
-112,-97,0,0,0,0,0,0,0,0,0,-1,1112,1121,0,0
-105,-97,0,0,0,0,0,0,0,0,0,-1,1119,1121,0,0
-98,-97,0,0,0,0,0,0,0,0,0,-1,1126,1121,0,0
-91,-97,0,0,0,0,0,0,0,0,0,-1,1133,1121,0,0
-84,-97,0,0,0,0,0,0,0,0,0,-1,1140,1121,0,0
-77,-97,0,0,0,0,0,0,0,0,0,-1,1147,1121,0,0
-70,-97,0,0,0,0,0,0,0,0,0,-1,1154,1121,0,0
-63,-97,0,0,0,0,0,0,0,0,0,-1,1161,1121,0,0
-56,-97,0,0,0,0,0,0,0,0,0,-1,1168,1121,0,0
-49,-97,0,0,0,0,0,0,0,0,0,-1,1175,1121,0,0
-42,-97,0,0,0,0,0,0,0,0,0,-1,1182,1121,0,0
-35,-97,0,0,0,0,0,0,0,0,0,-1,1189,1121,0,0
-28,-97,0,0,0,0,0,0,0,0,0,-1,1196,1121,0,0
-21,-97,0,0,0,0,0,0,0,0,0,-1,1203,1121,0,0
-14,-97,0,0,0,0,0,0,0,0,0,-1,1210,1121,0,0
-7,-97,0,0,0,0,0,0,0,0,0,-1,1217,1121,0,0
0,-97,0,0,0,0,0,0,0,0,0,-1,1224,1121,0,0
7,-97,0,0,0,0,0,0,0,0,0,-1,1231,1121,0,0
14,-97,0,0,0,0,0,0,0,0,0,-1,1238,1121,0,0
21,-97,0,0,0,0,0,0,0,0,0,-1,1245,1121,0,0
28,-97,0,0,0,0,0,0,0,0,0,-1,1252,1121,0,0
35,-97,0,0,0,0,0,0,0,0,0,-1,1259,1121,0,0
42,-97,0,0,0,0,0,0,0,0,0,-1,1266,1121,0,0
49,-97,0,0,0,0,0,0,0,0,0,-1,1273,1121,0,0
56,-97,0,0,0,0,0,0,0,0,0,-1,1280,1121,0,0
63,-97,0,0,0,0,0,0,0,0,0,-1,1287,1121,0,0
70,-97,0,0,0,0,0,0,0,0,0,-1,1294,1121,0,0
77,-97,0,0,0,0,0,0,0,0,0,-1,1301,1121,0,0
84,-97,0,0,0,0,0,0,0,0,0,-1,1308,1121,0,0
91,-97,0,0,0,0,0,0,0,0,0,-1,1315,1121,0,0
98,-97,0,0,0,0,0,0,0,0,0,-1,1322,1121,0,0
105,-97,0,0,0,0,0,0,0,0,0,-1,1329,1121,0,0
112,-97,0,0,0,0,0,0,0,0,0,-1,1336,1121,0,0
119,-97,0,0,0,0,0,0,0,0,0,-1,1343,1121,0,0
126,-97,0,0,0,0,0,0,0,0,0,-1,1350,1121,0,0
133,-97,0,0,0,0,0,0,0,0,0,-1,1357,1121,0,0
140,-97,0,0,0,0,0,0,0,0,0,-1,1364,1121,0,0
147,-97,0,0,0,0,0,0,0,0,0,-1,1371,1121,0,0
154,-97,0,0,0,0,0,0,0,0,0,-1,1378,1121,0,0
161,-97,0,0,0,0,0,0,0,0,0,-1,1385,1121,0,0
168,-97,0,0,0,0,0,0,0,0,0,-1,1392,1121,0,0
175,-97,0,0,0,0,0,0,0,0,0,-1,1399,1121,0,0
182,-97,0,0,0,0,0,0,0,0,0,-1,1406,1121,0,0
189,-97,0,0,0,0,0,0,0,0,0,-1,1413,1121,0,0
196,-97,0,0,0,0,0,0,0,0,0,-1,1420,1121,0,0
203,-97,0,0,0,0,0,0,0,0,0,-1,1427,1121,0,0
210,-97,0,0,0,0,0,0,0,0,0,-1,1434,1121,0,0
217,-97,0,0,0,0,0,0,0,0,0,-1,1441,1121,0,0
224,-97,0,0,0,0,0,0,0,0,0,-1,1448,1121,0,0
231,-97,0,0,0,0,0,0,0,0,0,-1,1455,1121,0,0
238,-97,0,0,0,0,0,0,0,0,0,-1,1462,1121,0,0
245,-97,0,0,0,0,0,0,0,0,0,-1,1469,1121,0,0
252,-97,0,0,0,0,0,0,0,0,0,-1,1476,1121,0,0
259,-97,0,0,0,0,0,0,0,0,0,-1,1483,1121,0,0
266,-97,0,0,0,0,0,0,0,0,0,-1,1490,1121,0,0
273,-97,0,0,0,0,0,0,0,0,0,-1,1497,1121,0,0
280,-97,0,0,0,0,0,0,0,0,0,-1,1504,1121,0,0
287,-97,0,0,0,0,0,0,0,0,0,-1,1511,1121,0,0
294,-97,0,0,0,0,0,0,0,0,0,-1,1518,1121,0,0
301,-97,0,0,0,0,0,0,0,0,0,-1,1525,1121,0,0
308,-97,0,0,0,0,0,0,0,0,0,-1,1532,1121,0,0
315,-97,0,0,0,0,0,0,0,0,0,-1,1539,1121,0,0
322,-97,0,0,0,0,0,0,0,0,0,-1,1546,1121,0,0
329,-97,0,0,0,0,0,0,0,0,0,-1,1553,1121,0,0
336,-97,0,0,0,0,0,0,0,0,0,-1,1560,1121,0,0
343,-97,0,0,0,0,0,0,0,0,0,-1,1567,1121,0,0
350,-97,0,0,0,0,0,0,0,0,0,-1,1574,1121,0,0
357,-97,0,0,0,0,0,0,0,0,0,-1,1581,1121,0,0
364,-97,0,0,0,0,0,0,0,0,0,-1,1588,1121,0,0
371,-97,0,0,0,0,0,0,0,0,0,-1,1595,1121,0,0
378,-97,0,0,0,0,0,0,0,0,0,-1,1602,1121,0,0
385,-97,0,0,0,0,0,0,0,0,0,-1,1609,1121,0,0
392,-97,0,0,0,0,0,0,0,0,0,-1,1616,1121,0,0
399,-97,0,0,0,0,0,0,0,0,0,-1,1623,1121,0,0
406,-97,0,0,0,0,0,0,0,0,0,-1,1630,1121,0,0
413,-97,0,0,0,0,0,0,0,0,0,-1,1637,1121,0,0
420,-97,0,0,0,0,0,0,0,0,0,-1,1644,1121,0,0
427,-97,0,0,0,0,0,0,0,0,0,-1,1651,1121,0,0
434,-97,0,0,0,0,0,0,0,0,0,-1,1658,1121,0,0
441,-97,0,0,0,0,0,0,0,0,0,-1,1665,1121,0,0
448,-97,0,0,0,0,0,0,0,0,0,-1,1672,1121,0,0
455,-97,0,0,0,0,0,0,0,0,0,-1,1679,1121,0,0
462,-97,0,0,0,0,0,0,0,0,0,-1,1686,1121,0,0
469,-97,0,0,0,0,0,0,0,0,0,-1,1693,1121,0,0
476,-97,0,0,0,0,0,0,0,0,0,-1,1700,1121,0,0
483,-97,0,0,0,0,0,0,0,0,0,-1,1707,1121,0,0
490,-97,0,0,0,0,0,0,0,0,0,-1,1714,1121,0,0
497,-97,0,0,0,0,0,0,0,0,0,-1,1721,1121,0,0
504,-97,0,0,0,0,0,0,0,0,0,-1,1728,1121,0,0
511,-97,0,0,0,0,0,0,0,0,0,-1,1735,1121,0,0
518,-97,0,0,0,0,0,0,0,0,0,-1,1742,1121,0,0
525,-97,0,0,0,0,0,0,0,0,0,-1,1749,1121,0,0
532,-97,0,0,0,0,0,0,0,0,0,-1,1756,1121,0,0
539,-97,0,0,0,0,0,0,0,0,0,-1,1763,1121,0,0
546,-97,0,0,0,0,0,0,0,0,0,-1,1770,1121,0,0
553,-97,0,0,0,0,0,0,0,0,0,-1,1777,1121,0,0
560,-97,0,0,0,0,0,0,0,0,0,-1,1784,1121,0,0
567,-97,0,0,0,0,0,0,0,0,0,-1,1791,1121,0,0
574,-97,0,0,0,0,0,0,0,0,0,-1,1798,1121,0,0
581,-97,0,0,0,0,0,0,0,0,0,-1,1805,1121,0,0
588,-97,0,0,0,0,0,0,0,0,0,-1,1812,1121,0,0
595,-97,0,0,0,0,0,0,0,0,0,-1,1819,1121,0,0
602,-97,0,0,0,0,0,0,0,0,0,-1,1826,1121,0,0
609,-97,0,0,0,0,0,0,0,0,0,-1,1833,1121,0,0
616,-97,0,0,0,0,0,0,0,0,0,-1,1840,1121,0,0
623,-97,0,0,0,0,0,0,0,0,0,-1,1847,1121,0,0
630,-97,0,0,0,0,0,0,0,0,0,-1,1854,1121,0,0
637,-97,0,0,0,0,0,0,0,0,0,-1,1861,1121,0,0
644,-97,17.1156,2.54138,-0.00265962,-0.00518546,-0.00265037,-0.000986647,-0.00685843,-0.56306,0.00428147,0.0377375,1868,1121,17.1156,-2.54142
651,-97,17.1647,2.51172,-0.00215055,-0.00404317,-0.00231769,-0.000593423,-0.00560029,-0.591578,0.00355228,0.036109,1875,1121,17.1647,-2.51172
658,-97,17.1884,2.40552,-0.00141398,-0.00313964,-0.00207004,-3.41479e-05,-0.00451947,-0.587939,0.00300166,0.0367767,1882,1121,17.1884,-2.40554
665,-97,17.3149,2.49329,-0.00100224,-0.00249449,-0.00154111,-3.61351e-05,-0.00346059,-0.559956,0.00229511,0.0407818,1889,1121,17.315,-2.49333
672,-97,17.3356,2.45142,-0.00168003,-0.00248091,0.000128929,-0.00165979,-0.00250116,0.155744,0.00146959,0.0414843,1896,1121,17.3355,-2.45138
679,-97,17.2455,2.62524,-0.00278881,-0.00265902,0.00197649,-0.000746357,-0.00470147,0.80181,0.00291753,0.0407834,1903,1121,17.2455,-2.62525
686,-97,17.1499,2.68982,-0.00396158,-0.00291434,0.00367415,0.000273316,-0.00714924,0.856179,0.00485983,0.0366608,1910,1121,17.1499,-2.68978
693,-97,17.1576,2.57288,-0.00502072,-0.00314746,0.00514869,0.00114911,-0.00931728,0.875373,0.00662785,0.034045,1917,1121,17.1576,-2.57285
700,-97,17.1283,2.44421,-0.00577669,-0.00325849,0.00621565,0.00182431,-0.0108595,0.88533,0.00791813,0.0255627,1924,1121,17.1283,-2.4442
707,-97,17.1638,2.26782,0,0,0,0,0,0,0,-1,1931,1121,17.1638,-2.26781
714,-97,16.9773,2.9176,-0.00678619,-0.00316064,0.00766475,0.00290279,-0.0128496,0.901518,0.00968019,0.0316885,1938,1121,16.9772,-2.91759
721,-97,16.6469,3.56934,-0.00698308,-0.00302711,0.00782052,0.00306168,-0.0130719,0.909262,0.00989432,0.0247319,1945,1121,16.6469,-3.56928
728,-97,16.5215,3.61035,-0.00673395,-0.00270783,0.00754799,0.00309093,-0.0125327,0.915716,0.0095536,0.0190066,1952,1121,16.5214,-3.61029
735,-97,16.504,3.50391,-0.00585722,-0.00221183,0.007056,0.00325309,-0.0113221,0.911795,0.00883441,0.0186014,1959,1121,16.5041,-3.50392
742,-97,16.4886,3.44519,-0.00442109,-0.00211205,0.00596742,0.00281151,-0.00934465,0.880953,0.00734846,0.0152293,1966,1121,16.4886,-3.44515
749,-97,16.4871,3.38684,-0.00277468,-0.00151835,0.0044003,0.00229839,-0.00659143,0.856297,0.0053283,0.0168488,1973,1121,16.487,-3.38684
756,-97,16.481,3.33374,-0.00114974,-0.000610571,0.00244716,0.00158181,-0.00334212,0.840258,0.00290275,0.013335,1980,1121,16.481,-3.33377
763,-97,16.4774,3.29065,0.000870145,-0.000221693,-9.18226e-05,0.000877813,-0.000229361,-0.0833193,0.000674783,0.0112015,1987,1121,16.4774,-3.29059
770,-97,16.4784,3.24963,0.00302441,0.000328519,-0.00282713,0.0048085,-0.00145557,-0.562944,0.00378532,0.00945548,1994,1121,16.4784,-3.24958
777,-97,16.4912,3.20813,0.00461407,0.000610745,-0.00555643,0.00851839,-0.00329357,-0.612513,0.00703851,0.0121735,2001,1121,16.4912,-3.20818
784,-97,16.5104,3.13806,0.00564095,0.000880852,-0.00888641,0.0124605,-0.00593872,-0.654554,0.010843,0.030913,2008,1121,16.5104,-3.13803
791,-97,16.5336,3.05103,0.0061679,0.00134537,-0.013595,0.0175638,-0.0100505,-0.697629,0.0161387,0.0428906,2015,1121,16.5335,-3.05104
798,-97,16.5568,2.97424,0,0,0,0,0,0,0,-1,2022,1121,16.5567,-2.97419
805,-97,16.4041,1.8739,0,0,0,0,0,0,0,-1,2029,1121,16.4041,-1.87389
812,-97,16.3855,1.28113,0,0,0,0,0,0,0,-1,2036,1121,16.3854,-1.28114
-700,-104,0,0,0,0,0,0,0,0,0,-1,524,1128,0,0
-693,-104,-7.26605,-0.778931,-0.063484,-0.0112412,-0.0101592,-0.00933513,-0.0653901,-1.38534,0.0408389,0.0473725,531,1128,-7.26603,0.778963
-686,-104,-7.78003,-0.0585938,-0.0505146,-0.00526811,-0.00730419,-0.00411821,-0.0516645,-1.41465,0.0331556,0.0483447,538,1128,-7.78004,0.058574
-679,-104,-10.8984,-1.40503,-0.0388271,-0.00144391,-0.00520373,-0.000733066,-0.039538,-1.43503,0.0261177,0.0455539,545,1128,-10.8985,1.40508
-672,-104,-10.937,-0.266235,0,0,0,0,0,0,0,-1,552,1128,-10.9369,0.266221
-665,-104,-10.8137,0.0957031,-0.0204328,0.00215475,-0.00274917,0.00248455,-0.0207626,-1.45141,0.0147399,0.0460891,559,1128,-10.8137,-0.0956452
-658,-104,-10.5876,0.484253,-0.0138549,0.00268631,-0.00208026,0.00294392,-0.0141125,-1.44759,0.0105278,0.0411921,566,1128,-10.5876,-0.484303
-651,-104,-10.3337,0.751587,-0.00890484,0.00271587,-0.00161808,0.00293697,-0.00912594,-1.435,0.00726364,0.0349013,573,1128,-10.3337,-0.751597
-644,-104,-10.3065,0.838867,-0.00538855,0.00242612,-0.00135004,0.00265278,-0.00561521,-1.40446,0.00487459,0.0135357,580,1128,-10.3065,-0.838817
-637,-104,-10.2924,0.930786,-0.00318301,0.0022829,-0.00161527,0.00272456,-0.00362466,-1.3039,0.00367798,0.00970517,587,1128,-10.2924,-0.930846
-630,-104,-10.3004,1.00732,-0.00192132,0.00141799,-0.00209797,0.00242961,-0.00293294,-1.1215,0.00310061,0.0113906,594,1128,-10.3003,-1.00728
-623,-104,-10.2971,1.09863,-0.00135519,0.000363403,-0.00304137,0.00266454,-0.00365632,-0.923077,0.00366429,0.0151031,601,1128,-10.2971,-1.09867
-616,-104,-10.3124,1.18579,-0.00195823,-0.000756689,-0.00410569,0.00279195,-0.00550687,-0.858046,0.00487604,0.0148666,608,1128,-10.3124,-1.18578
-609,-104,-10.3411,1.22217,-0.00310521,-0.001516,-0.00510516,0.00285602,-0.00747723,-0.862602,0.00616157,0.0161065,615,1128,-10.3412,-1.22211
-602,-104,-10.2776,1.31812,-0.00421001,-0.00200399,-0.00551677,0.00251895,-0.00873296,-0.884066,0.00681852,0.0144855,622,1128,-10.2777,-1.31807
-595,-104,-10.2505,1.44617,-0.00503401,-0.00254864,-0.00599009,0.00232631,-0.00990896,-0.887676,0.00750261,0.0150771,629,1128,-10.2505,-1.44622
-588,-104,-10.3031,1.40442,-0.00556472,-0.00300221,-0.00630938,0.00215469,-0.0107216,-0.885572,0.00796374,0.0260842,636,1128,-10.3031,-1.40443
-581,-104,-10.5883,0.95105,-0.00567623,-0.0032915,-0.00624374,0.00187271,-0.0108404,-0.879747,0.0079253,0.037368,643,1128,-10.5882,-0.951105
-574,-104,-10.866,0.6427,-0.00554437,-0.00345675,-0.00600999,0.00159941,-0.0106005,-0.87138,0.00765604,0.0407407,650,1128,-10.866,-0.642645
-567,-104,-10.8043,0.663696,-0.005181,-0.00349785,-0.00537037,0.00109649,-0.00977533,-0.863119,0.00691144,0.0362928,657,1128,-10.8043,-0.663689
-560,-104,-10.7336,0.709351,-0.00443558,-0.00341512,-0.00434854,0.000453023,-0.00830372,-0.843798,0.00569283,0.0419441,664,1128,-10.7336,-0.709293
-553,-104,-10.9571,0.645264,-0.00329097,-0.00324328,-0.0029982,-0.000268829,-0.00626542,-0.789374,0.00409028,0.0463949,671,1128,-10.9571,-0.64528
-546,-104,-10.9785,0.533203,-0.00171268,-0.00303906,-0.0013859,-0.000839462,-0.00391227,-0.562238,0.00237827,0.044101,678,1128,-10.9785,-0.533167
-539,-104,-10.9666,0.503174,0.000348884,-0.00287962,0.00035481,0.000387418,-0.00291815,0.108179,0.0020866,0.0386856,685,1128,-10.9665,-0.503179
-532,-104,-10.9995,0.533325,0.00223431,-0.00307852,0.00116763,0.0024796,-0.00332381,0.207066,0.0033624,0.0376811,692,1128,-10.9995,-0.533344
-525,-104,-11.0245,0.572144,0.00216617,-0.00452422,-0.00117193,0.00236551,-0.00472357,-0.168485,0.00416767,0.0365761,699,1128,-11.0245,-0.572106
-518,-104,0,0,0,0,0,0,0,0,0,-1,706,1128,0,0
-511,-104,0,0,0,0,0,0,0,0,0,-1,713,1128,0,0
-504,-104,0,0,0,0,0,0,0,0,0,-1,720,1128,0,0
-497,-104,0,0,0,0,0,0,0,0,0,-1,727,1128,0,0
-490,-104,0,0,0,0,0,0,0,0,0,-1,734,1128,0,0
-483,-104,0,0,0,0,0,0,0,0,0,-1,741,1128,0,0
-476,-104,0,0,0,0,0,0,0,0,0,-1,748,1128,0,0
-469,-104,0,0,0,0,0,0,0,0,0,-1,755,1128,0,0
-462,-104,0,0,0,0,0,0,0,0,0,-1,762,1128,0,0
-455,-104,0,0,0,0,0,0,0,0,0,-1,769,1128,0,0
-448,-104,0,0,0,0,0,0,0,0,0,-1,776,1128,0,0
-441,-104,0,0,0,0,0,0,0,0,0,-1,783,1128,0,0
-434,-104,0,0,0,0,0,0,0,0,0,-1,790,1128,0,0
-427,-104,0,0,0,0,0,0,0,0,0,-1,797,1128,0,0
-420,-104,0,0,0,0,0,0,0,0,0,-1,804,1128,0,0
-413,-104,0,0,0,0,0,0,0,0,0,-1,811,1128,0,0
-406,-104,0,0,0,0,0,0,0,0,0,-1,818,1128,0,0
-399,-104,0,0,0,0,0,0,0,0,0,-1,825,1128,0,0
-392,-104,0,0,0,0,0,0,0,0,0,-1,832,1128,0,0
-385,-104,0,0,0,0,0,0,0,0,0,-1,839,1128,0,0
-378,-104,0,0,0,0,0,0,0,0,0,-1,846,1128,0,0
-371,-104,0,0,0,0,0,0,0,0,0,-1,853,1128,0,0
-364,-104,0,0,0,0,0,0,0,0,0,-1,860,1128,0,0
-357,-104,0,0,0,0,0,0,0,0,0,-1,867,1128,0,0
-350,-104,0,0,0,0,0,0,0,0,0,-1,874,1128,0,0
-343,-104,0,0,0,0,0,0,0,0,0,-1,881,1128,0,0
-336,-104,0,0,0,0,0,0,0,0,0,-1,888,1128,0,0
-329,-104,0,0,0,0,0,0,0,0,0,-1,895,1128,0,0
-322,-104,0,0,0,0,0,0,0,0,0,-1,902,1128,0,0
-315,-104,0,0,0,0,0,0,0,0,0,-1,909,1128,0,0
-308,-104,0,0,0,0,0,0,0,0,0,-1,916,1128,0,0
-301,-104,0,0,0,0,0,0,0,0,0,-1,923,1128,0,0
-294,-104,0,0,0,0,0,0,0,0,0,-1,930,1128,0,0
-287,-104,0,0,0,0,0,0,0,0,0,-1,937,1128,0,0
-280,-104,0,0,0,0,0,0,0,0,0,-1,944,1128,0,0
-273,-104,0,0,0,0,0,0,0,0,0,-1,951,1128,0,0
-266,-104,0,0,0,0,0,0,0,0,0,-1,958,1128,0,0
-259,-104,0,0,0,0,0,0,0,0,0,-1,965,1128,0,0
-252,-104,0,0,0,0,0,0,0,0,0,-1,972,1128,0,0
-245,-104,0,0,0,0,0,0,0,0,0,-1,979,1128,0,0
-238,-104,0,0,0,0,0,0,0,0,0,-1,986,1128,0,0
-231,-104,0,0,0,0,0,0,0,0,0,-1,993,1128,0,0
-224,-104,0,0,0,0,0,0,0,0,0,-1,1000,1128,0,0
-217,-104,0,0,0,0,0,0,0,0,0,-1,1007,1128,0,0
-210,-104,0,0,0,0,0,0,0,0,0,-1,1014,1128,0,0
-203,-104,0,0,0,0,0,0,0,0,0,-1,1021,1128,0,0
-196,-104,0,0,0,0,0,0,0,0,0,-1,1028,1128,0,0
-189,-104,0,0,0,0,0,0,0,0,0,-1,1035,1128,0,0
-182,-104,0,0,0,0,0,0,0,0,0,-1,1042,1128,0,0
-175,-104,0,0,0,0,0,0,0,0,0,-1,1049,1128,0,0
-168,-104,0,0,0,0,0,0,0,0,0,-1,1056,1128,0,0
-161,-104,0,0,0,0,0,0,0,0,0,-1,1063,1128,0,0
-154,-104,0,0,0,0,0,0,0,0,0,-1,1070,1128,0,0
-147,-104,0,0,0,0,0,0,0,0,0,-1,1077,1128,0,0
-140,-104,0,0,0,0,0,0,0,0,0,-1,1084,1128,0,0
-133,-104,0,0,0,0,0,0,0,0,0,-1,1091,1128,0,0
-126,-104,0,0,0,0,0,0,0,0,0,-1,1098,1128,0,0
-119,-104,0,0,0,0,0,0,0,0,0,-1,1105,1128,0,0
-112,-104,0,0,0,0,0,0,0,0,0,-1,1112,1128,0,0
-105,-104,0,0,0,0,0,0,0,0,0,-1,1119,1128,0,0
-98,-104,0,0,0,0,0,0,0,0,0,-1,1126,1128,0,0
-91,-104,0,0,0,0,0,0,0,0,0,-1,1133,1128,0,0
-84,-104,0,0,0,0,0,0,0,0,0,-1,1140,1128,0,0
-77,-104,0,0,0,0,0,0,0,0,0,-1,1147,1128,0,0
-70,-104,0,0,0,0,0,0,0,0,0,-1,1154,1128,0,0
-63,-104,0,0,0,0,0,0,0,0,0,-1,1161,1128,0,0
-56,-104,0,0,0,0,0,0,0,0,0,-1,1168,1128,0,0
-49,-104,0,0,0,0,0,0,0,0,0,-1,1175,1128,0,0
-42,-104,0,0,0,0,0,0,0,0,0,-1,1182,1128,0,0
-35,-104,0,0,0,0,0,0,0,0,0,-1,1189,1128,0,0
-28,-104,0,0,0,0,0,0,0,0,0,-1,1196,1128,0,0
-21,-104,0,0,0,0,0,0,0,0,0,-1,1203,1128,0,0
-14,-104,0,0,0,0,0,0,0,0,0,-1,1210,1128,0,0
-7,-104,0,0,0,0,0,0,0,0,0,-1,1217,1128,0,0
0,-104,0,0,0,0,0,0,0,0,0,-1,1224,1128,0,0
7,-104,0,0,0,0,0,0,0,0,0,-1,1231,1128,0,0
14,-104,0,0,0,0,0,0,0,0,0,-1,1238,1128,0,0
21,-104,0,0,0,0,0,0,0,0,0,-1,1245,1128,0,0
28,-104,0,0,0,0,0,0,0,0,0,-1,1252,1128,0,0
35,-104,0,0,0,0,0,0,0,0,0,-1,1259,1128,0,0
42,-104,0,0,0,0,0,0,0,0,0,-1,1266,1128,0,0
49,-104,0,0,0,0,0,0,0,0,0,-1,1273,1128,0,0
56,-104,0,0,0,0,0,0,0,0,0,-1,1280,1128,0,0
63,-104,0,0,0,0,0,0,0,0,0,-1,1287,1128,0,0
70,-104,0,0,0,0,0,0,0,0,0,-1,1294,1128,0,0
77,-104,0,0,0,0,0,0,0,0,0,-1,1301,1128,0,0
84,-104,0,0,0,0,0,0,0,0,0,-1,1308,1128,0,0
91,-104,0,0,0,0,0,0,0,0,0,-1,1315,1128,0,0
98,-104,0,0,0,0,0,0,0,0,0,-1,1322,1128,0,0
105,-104,0,0,0,0,0,0,0,0,0,-1,1329,1128,0,0
112,-104,0,0,0,0,0,0,0,0,0,-1,1336,1128,0,0
119,-104,0,0,0,0,0,0,0,0,0,-1,1343,1128,0,0
126,-104,0,0,0,0,0,0,0,0,0,-1,1350,1128,0,0
133,-104,0,0,0,0,0,0,0,0,0,-1,1357,1128,0,0
140,-104,0,0,0,0,0,0,0,0,0,-1,1364,1128,0,0
147,-104,0,0,0,0,0,0,0,0,0,-1,1371,1128,0,0
154,-104,0,0,0,0,0,0,0,0,0,-1,1378,1128,0,0
161,-104,0,0,0,0,0,0,0,0,0,-1,1385,1128,0,0
168,-104,0,0,0,0,0,0,0,0,0,-1,1392,1128,0,0
175,-104,0,0,0,0,0,0,0,0,0,-1,1399,1128,0,0
182,-104,0,0,0,0,0,0,0,0,0,-1,1406,1128,0,0
189,-104,0,0,0,0,0,0,0,0,0,-1,1413,1128,0,0
196,-104,0,0,0,0,0,0,0,0,0,-1,1420,1128,0,0
203,-104,0,0,0,0,0,0,0,0,0,-1,1427,1128,0,0
210,-104,0,0,0,0,0,0,0,0,0,-1,1434,1128,0,0
217,-104,0,0,0,0,0,0,0,0,0,-1,1441,1128,0,0
224,-104,0,0,0,0,0,0,0,0,0,-1,1448,1128,0,0
231,-104,0,0,0,0,0,0,0,0,0,-1,1455,1128,0,0
238,-104,0,0,0,0,0,0,0,0,0,-1,1462,1128,0,0
245,-104,0,0,0,0,0,0,0,0,0,-1,1469,1128,0,0
252,-104,0,0,0,0,0,0,0,0,0,-1,1476,1128,0,0
259,-104,0,0,0,0,0,0,0,0,0,-1,1483,1128,0,0
266,-104,0,0,0,0,0,0,0,0,0,-1,1490,1128,0,0
273,-104,0,0,0,0,0,0,0,0,0,-1,1497,1128,0,0
280,-104,0,0,0,0,0,0,0,0,0,-1,1504,1128,0,0
287,-104,0,0,0,0,0,0,0,0,0,-1,1511,1128,0,0
294,-104,0,0,0,0,0,0,0,0,0,-1,1518,1128,0,0
301,-104,0,0,0,0,0,0,0,0,0,-1,1525,1128,0,0
308,-104,0,0,0,0,0,0,0,0,0,-1,1532,1128,0,0
315,-104,0,0,0,0,0,0,0,0,0,-1,1539,1128,0,0
322,-104,0,0,0,0,0,0,0,0,0,-1,1546,1128,0,0
329,-104,0,0,0,0,0,0,0,0,0,-1,1553,1128,0,0
336,-104,0,0,0,0,0,0,0,0,0,-1,1560,1128,0,0
343,-104,0,0,0,0,0,0,0,0,0,-1,1567,1128,0,0
350,-104,0,0,0,0,0,0,0,0,0,-1,1574,1128,0,0
357,-104,0,0,0,0,0,0,0,0,0,-1,1581,1128,0,0
364,-104,0,0,0,0,0,0,0,0,0,-1,1588,1128,0,0
371,-104,0,0,0,0,0,0,0,0,0,-1,1595,1128,0,0
378,-104,0,0,0,0,0,0,0,0,0,-1,1602,1128,0,0
385,-104,0,0,0,0,0,0,0,0,0,-1,1609,1128,0,0
392,-104,0,0,0,0,0,0,0,0,0,-1,1616,1128,0,0
399,-104,0,0,0,0,0,0,0,0,0,-1,1623,1128,0,0
406,-104,0,0,0,0,0,0,0,0,0,-1,1630,1128,0,0
413,-104,0,0,0,0,0,0,0,0,0,-1,1637,1128,0,0
420,-104,0,0,0,0,0,0,0,0,0,-1,1644,1128,0,0
427,-104,0,0,0,0,0,0,0,0,0,-1,1651,1128,0,0
434,-104,0,0,0,0,0,0,0,0,0,-1,1658,1128,0,0
441,-104,0,0,0,0,0,0,0,0,0,-1,1665,1128,0,0
448,-104,0,0,0,0,0,0,0,0,0,-1,1672,1128,0,0
455,-104,0,0,0,0,0,0,0,0,0,-1,1679,1128,0,0
462,-104,0,0,0,0,0,0,0,0,0,-1,1686,1128,0,0
469,-104,0,0,0,0,0,0,0,0,0,-1,1693,1128,0,0
476,-104,0,0,0,0,0,0,0,0,0,-1,1700,1128,0,0
483,-104,0,0,0,0,0,0,0,0,0,-1,1707,1128,0,0
490,-104,0,0,0,0,0,0,0,0,0,-1,1714,1128,0,0
497,-104,0,0,0,0,0,0,0,0,0,-1,1721,1128,0,0
504,-104,0,0,0,0,0,0,0,0,0,-1,1728,1128,0,0
511,-104,0,0,0,0,0,0,0,0,0,-1,1735,1128,0,0
518,-104,0,0,0,0,0,0,0,0,0,-1,1742,1128,0,0
525,-104,0,0,0,0,0,0,0,0,0,-1,1749,1128,0,0
532,-104,0,0,0,0,0,0,0,0,0,-1,1756,1128,0,0
539,-104,0,0,0,0,0,0,0,0,0,-1,1763,1128,0,0
546,-104,0,0,0,0,0,0,0,0,0,-1,1770,1128,0,0
553,-104,0,0,0,0,0,0,0,0,0,-1,1777,1128,0,0
560,-104,0,0,0,0,0,0,0,0,0,-1,1784,1128,0,0
567,-104,0,0,0,0,0,0,0,0,0,-1,1791,1128,0,0
574,-104,0,0,0,0,0,0,0,0,0,-1,1798,1128,0,0
581,-104,0,0,0,0,0,0,0,0,0,-1,1805,1128,0,0
588,-104,0,0,0,0,0,0,0,0,0,-1,1812,1128,0,0
595,-104,0,0,0,0,0,0,0,0,0,-1,1819,1128,0,0
602,-104,0,0,0,0,0,0,0,0,0,-1,1826,1128,0,0
609,-104,0,0,0,0,0,0,0,0,0,-1,1833,1128,0,0
616,-104,0,0,0,0,0,0,0,0,0,-1,1840,1128,0,0
623,-104,0,0,0,0,0,0,0,0,0,-1,1847,1128,0,0
630,-104,0,0,0,0,0,0,0,0,0,-1,1854,1128,0,0
637,-104,0,0,0,0,0,0,0,0,0,-1,1861,1128,0,0
644,-104,17.2013,2.6759,-0.00302091,-0.00398449,-0.00202119,-0.00142488,-0.00558052,-0.668397,0.00334803,0.0357316,1868,1128,17.2014,-2.67591
651,-104,17.1984,2.57922,-0.00252545,-0.00323307,-0.00190197,-0.00094466,-0.00481386,-0.693438,0.00294529,0.036779,1875,1128,17.1984,-2.57927
658,-104,17.271,2.37415,-0.00173381,-0.00258742,-0.00182386,-0.00028748,-0.00403375,-0.67046,0.00259864,0.040579,1882,1128,17.271,-2.3742
665,-104,17.3914,2.45691,-0.00137333,-0.00218513,-0.00134408,-0.000375201,-0.00318326,-0.638757,0.00200882,0.0419355,1889,1128,17.3914,-2.45697
672,-104,17.3961,2.5238,-0.00209435,-0.00232365,0.000215008,-0.00196533,-0.00245267,0.540456,0.0014993,0.0412491,1896,1128,17.3961,-2.52378
679,-104,17.2201,2.71851,-0.00317675,-0.00259032,0.00190037,-0.000960684,-0.00480639,0.861941,0.00293688,0.0408183,1903,1128,17.22,-2.71848
686,-104,17.0239,2.64722,-0.00431311,-0.00289721,0.00345236,-8.0965e-05,-0.00712935,0.886528,0.00472615,0.0384409,1910,1128,17.0239,-2.64726
693,-104,17.0771,2.5011,-0.00531993,-0.00315465,0.00479687,0.000680242,-0.00915482,0.896387,0.00634213,0.0350003,1917,1128,17.0772,-2.50115
700,-104,17.1101,2.39771,-0.00599279,-0.00329349,0.00574274,0.00125606,-0.0105423,0.900813,0.00748214,0.0249309,1924,1128,17.1101,-2.39765
707,-104,17.1133,2.43274,0,0,0,0,0,0,0,-1,1931,1128,17.1133,-2.4327
714,-104,16.8352,3.06287,-0.00694341,-0.00321954,0.00710742,0.00226578,-0.0124287,0.913505,0.00913524,0.0305217,1938,1128,16.8352,-3.06291
721,-104,16.4983,3.63977,-0.00711101,-0.00304959,0.00727224,0.00247015,-0.0126307,0.921551,0.00935324,0.0215762,1945,1128,16.4982,-3.63978
728,-104,16.5256,3.57483,-0.00675141,-0.00270661,0.00701828,0.00257485,-0.0120329,0.925678,0.00900377,0.0232584,1952,1128,16.5256,-3.57485
735,-104,16.4968,3.46643,-0.00564408,-0.00216871,0.00656521,0.00288489,-0.0106977,0.914772,0.00826303,0.0206754,1959,1128,16.4968,-3.46641
742,-104,16.443,3.43909,-0.0038987,-0.00219264,0.00557923,0.0025984,-0.00868973,0.861258,0.00682617,0.0132343,1966,1128,16.443,-3.43903
749,-104,16.4338,3.40002,-0.00202121,-0.00151795,0.00407617,0.00231435,-0.0058535,0.816225,0.00486104,0.015134,1973,1128,16.4338,-3.40007
756,-104,16.4196,3.34436,-4.89739e-05,-0.000520938,0.00222417,0.00195169,-0.00252161,0.732546,0.00258964,0.0148121,1980,1128,16.4196,-3.34431
763,-104,16.4166,3.29004,0.00249174,-4.51379e-05,-0.00021502,0.00250984,-6.32334e-05,-0.0839595,0.0016947,0.0137032,1987,1128,16.4166,-3.29005
770,-104,16.4166,3.23511,0.00517869,0.000583169,-0.00279849,0.00650187,-0.000740015,-0.441669,0.00460113,0.0115479,1994,1128,16.4166,-3.23506
777,-104,16.4227,3.19299,0.00737683,0.00101077,-0.00539829,0.0104606,-0.00207304,-0.519016,0.00775765,0.0184716,2001,1128,16.4227,-3.19294
784,-104,16.446,3.14844,0.00916489,0.00157567,-0.00870209,0.0148637,-0.00412316,-0.579798,0.0115319,0.0376997,2008,1128,16.446,-3.14839
791,-104,16.1189,2.61011,0.0105601,0.00252091,-0.0134377,0.0205665,-0.00748552,-0.64007,0.0167725,0.0440297,2015,1128,16.1189,-2.6101
798,-104,16.158,1.72998,0.0112835,0.00411324,-0.0200517,0.0280681,-0.0126714,-0.696936,0.0240743,0.0435104,2022,1128,16.1579,-1.73001
805,-104,16.1267,1.1355,0.0107399,0.00666656,-0.0290878,0.0378623,-0.0204559,-0.750447,0.0341662,0.0453489,2029,1128,16.1268,-1.13553
812,-104,16.0989,0.587524,0,0,0,0,0,0,0,-1,2036,1128,16.099,-0.587571
-700,-111,0,0,0,0,0,0,0,0,0,-1,524,1135,0,0
-693,-111,-7.01929,-0.753784,-0.0712925,-0.00671922,-0.00575334,-0.00621061,-0.0718012,-1.48262,0.0459374,0.0463404,531,1135,-7.01929,0.753828
-686,-111,-7.52393,-0.038208,-0.0564454,-0.00126949,-0.00538231,-0.000749355,-0.0569655,-1.47446,0.0377297,0.0463351,538,1135,-7.52392,0.0381782
-679,-111,-7.81403,0.646729,-0.0434069,0.00200575,-0.00485808,0.00251964,-0.0439208,-1.46541,0.0301555,0.0458062,545,1135,-7.81402,-0.646762
-672,-111,-10.5891,-0.567261,0,0,0,0,0,0,0,-1,552,1135,-10.5891,0.567315
-665,-111,-10.6454,0.0280762,-0.0232553,0.00456974,-0.00387978,0.00510059,-0.0237862,-1.43482,0.0178029,0.0488902,559,1135,-10.6454,-0.0280233
-658,-111,-10.5271,0.766479,-0.0160694,0.00464021,-0.00341571,0.00518903,-0.0166182,-1.41148,0.0131542,0.0402984,566,1135,-10.5271,-0.766454
-651,-111,-10.2239,0.722046,-0.0106282,0.0042559,-0.00294641,0.00481794,-0.0111902,-1.38231,0.00948326,0.0378725,573,1135,-10.224,-0.722
-644,-111,-10.1874,0.803711,-0.00669436,0.00360617,-0.00252152,0.0041903,-0.00727849,-1.34315,0.00670105,0.0231892,580,1135,-10.1874,-0.803752
-637,-111,-10.2011,0.92334,-0.00405869,0.00316378,-0.00261545,0.00401142,-0.00490634,-1.25739,0.00515731,0.00900413,587,1135,-10.2011,-0.923352
-630,-111,-10.2032,0.994385,-0.00255818,0.00204211,-0.00287495,0.00342381,-0.00393988,-1.12279,0.00425491,0.012611,594,1135,-10.2032,-0.994403
-623,-111,-10.2099,1.07861,-0.00187307,0.000708208,-0.00360275,0.00324452,-0.00440938,-0.957395,0.00443601,0.0126964,601,1135,-10.2099,-1.07861
-616,-111,-10.2273,1.14783,-0.00238776,-0.000664207,-0.00448783,0.00304384,-0.00609581,-0.880256,0.00537395,0.0132707,608,1135,-10.2273,-1.14782
-609,-111,-10.2548,1.23376,-0.00352538,-0.00155438,-0.00530049,0.00285145,-0.0079312,-0.877312,0.00645153,0.014588,615,1135,-10.2549,-1.23371
-602,-111,-10.2228,1.3175,-0.00462159,-0.00215555,-0.00561018,0.0023555,-0.00913265,-0.893569,0.00700684,0.0150348,622,1135,-10.2228,-1.31752
-595,-111,-10.194,1.4425,-0.00546263,-0.00274287,-0.00606402,0.00211188,-0.0103174,-0.8957,0.00767962,0.012451,629,1135,-10.1941,-1.4425
-588,-111,-10.1802,1.54895,-0.00604291,-0.00318243,-0.0064126,0.0019575,-0.0111828,-0.895121,0.00818611,0.0252092,636,1135,-10.1802,-1.54901
-581,-111,-10.4386,0.979126,-0.00619296,-0.00339232,-0.00639855,0.00175735,-0.0113426,-0.893125,0.00821046,0.0387581,643,1135,-10.4386,-0.979163
-574,-111,-10.772,0.422241,0,0,0,0,0,0,0,-1,650,1135,-10.7719,-0.422192
-567,-111,-10.8323,0.674561,-0.00570805,-0.00340249,-0.00565206,0.00121315,-0.0103237,-0.885997,0.00732043,0.040405,657,1135,-10.8324,-0.674582
-560,-111,-10.7744,0.79126,-0.00494578,-0.00314729,-0.00468517,0.000724155,-0.00881723,-0.880212,0.0061338,0.0401644,664,1135,-10.7744,-0.79128
-553,-111,-10.8209,0.64563,-0.0037466,-0.00274526,-0.00336932,0.000160383,-0.00665224,-0.859157,0.00448924,0.0436388,671,1135,-10.8209,-0.645596
-546,-111,-10.8055,0.60498,-0.00206722,-0.00225539,-0.0017606,-0.000398189,-0.00392442,-0.758704,0.00249417,0.0404725,678,1135,-10.8055,-0.604991
-539,-111,-10.8182,0.589722,0.000144154,-0.00175658,3.47624e-05,0.00014479,-0.00175722,0.0182808,0.0012226,0.0392088,685,1135,-10.8182,-0.589723
-532,-111,-10.8848,0.560791,0.00233264,-0.00153938,0.00109601,0.00262135,-0.00182809,0.257567,0.00258246,0.0396706,692,1135,-10.8848,-0.56084
-525,-111,-10.9162,0.592529,0.00251538,-0.00261955,-0.000940158,0.00268211,-0.00278627,-0.175508,0.00315736,0.0392307,699,1135,-10.9162,-0.592566
-518,-111,0,0,0,0,0,0,0,0,0,-1,706,1135,0,0
-511,-111,0,0,0,0,0,0,0,0,0,-1,713,1135,0,0
-504,-111,0,0,0,0,0,0,0,0,0,-1,720,1135,0,0
-497,-111,0,0,0,0,0,0,0,0,0,-1,727,1135,0,0
-490,-111,0,0,0,0,0,0,0,0,0,-1,734,1135,0,0
-483,-111,0,0,0,0,0,0,0,0,0,-1,741,1135,0,0
-476,-111,0,0,0,0,0,0,0,0,0,-1,748,1135,0,0
-469,-111,0,0,0,0,0,0,0,0,0,-1,755,1135,0,0
-462,-111,0,0,0,0,0,0,0,0,0,-1,762,1135,0,0
-455,-111,0,0,0,0,0,0,0,0,0,-1,769,1135,0,0
-448,-111,0,0,0,0,0,0,0,0,0,-1,776,1135,0,0
-441,-111,0,0,0,0,0,0,0,0,0,-1,783,1135,0,0
-434,-111,0,0,0,0,0,0,0,0,0,-1,790,1135,0,0
-427,-111,0,0,0,0,0,0,0,0,0,-1,797,1135,0,0
-420,-111,0,0,0,0,0,0,0,0,0,-1,804,1135,0,0
-413,-111,0,0,0,0,0,0,0,0,0,-1,811,1135,0,0
-406,-111,0,0,0,0,0,0,0,0,0,-1,818,1135,0,0
-399,-111,0,0,0,0,0,0,0,0,0,-1,825,1135,0,0
-392,-111,0,0,0,0,0,0,0,0,0,-1,832,1135,0,0
-385,-111,0,0,0,0,0,0,0,0,0,-1,839,1135,0,0
-378,-111,0,0,0,0,0,0,0,0,0,-1,846,1135,0,0
-371,-111,0,0,0,0,0,0,0,0,0,-1,853,1135,0,0
-364,-111,0,0,0,0,0,0,0,0,0,-1,860,1135,0,0
-357,-111,0,0,0,0,0,0,0,0,0,-1,867,1135,0,0
-350,-111,0,0,0,0,0,0,0,0,0,-1,874,1135,0,0
-343,-111,0,0,0,0,0,0,0,0,0,-1,881,1135,0,0
-336,-111,0,0,0,0,0,0,0,0,0,-1,888,1135,0,0
-329,-111,0,0,0,0,0,0,0,0,0,-1,895,1135,0,0
-322,-111,0,0,0,0,0,0,0,0,0,-1,902,1135,0,0
-315,-111,0,0,0,0,0,0,0,0,0,-1,909,1135,0,0
-308,-111,0,0,0,0,0,0,0,0,0,-1,916,1135,0,0
-301,-111,0,0,0,0,0,0,0,0,0,-1,923,1135,0,0
-294,-111,0,0,0,0,0,0,0,0,0,-1,930,1135,0,0
-287,-111,0,0,0,0,0,0,0,0,0,-1,937,1135,0,0
-280,-111,0,0,0,0,0,0,0,0,0,-1,944,1135,0,0
-273,-111,0,0,0,0,0,0,0,0,0,-1,951,1135,0,0
-266,-111,0,0,0,0,0,0,0,0,0,-1,958,1135,0,0
-259,-111,0,0,0,0,0,0,0,0,0,-1,965,1135,0,0
-252,-111,0,0,0,0,0,0,0,0,0,-1,972,1135,0,0
-245,-111,0,0,0,0,0,0,0,0,0,-1,979,1135,0,0
-238,-111,0,0,0,0,0,0,0,0,0,-1,986,1135,0,0
-231,-111,0,0,0,0,0,0,0,0,0,-1,993,1135,0,0
-224,-111,0,0,0,0,0,0,0,0,0,-1,1000,1135,0,0
-217,-111,0,0,0,0,0,0,0,0,0,-1,1007,1135,0,0
-210,-111,0,0,0,0,0,0,0,0,0,-1,1014,1135,0,0
-203,-111,0,0,0,0,0,0,0,0,0,-1,1021,1135,0,0
-196,-111,0,0,0,0,0,0,0,0,0,-1,1028,1135,0,0
-189,-111,0,0,0,0,0,0,0,0,0,-1,1035,1135,0,0
-182,-111,0,0,0,0,0,0,0,0,0,-1,1042,1135,0,0
-175,-111,0,0,0,0,0,0,0,0,0,-1,1049,1135,0,0
-168,-111,0,0,0,0,0,0,0,0,0,-1,1056,1135,0,0
-161,-111,0,0,0,0,0,0,0,0,0,-1,1063,1135,0,0
-154,-111,0,0,0,0,0,0,0,0,0,-1,1070,1135,0,0
-147,-111,0,0,0,0,0,0,0,0,0,-1,1077,1135,0,0
-140,-111,0,0,0,0,0,0,0,0,0,-1,1084,1135,0,0
-133,-111,0,0,0,0,0,0,0,0,0,-1,1091,1135,0,0
-126,-111,0,0,0,0,0,0,0,0,0,-1,1098,1135,0,0
-119,-111,0,0,0,0,0,0,0,0,0,-1,1105,1135,0,0
-112,-111,0,0,0,0,0,0,0,0,0,-1,1112,1135,0,0
-105,-111,0,0,0,0,0,0,0,0,0,-1,1119,1135,0,0
-98,-111,0,0,0,0,0,0,0,0,0,-1,1126,1135,0,0
-91,-111,0,0,0,0,0,0,0,0,0,-1,1133,1135,0,0
-84,-111,0,0,0,0,0,0,0,0,0,-1,1140,1135,0,0
-77,-111,0,0,0,0,0,0,0,0,0,-1,1147,1135,0,0
-70,-111,0,0,0,0,0,0,0,0,0,-1,1154,1135,0,0
-63,-111,0,0,0,0,0,0,0,0,0,-1,1161,1135,0,0
-56,-111,0,0,0,0,0,0,0,0,0,-1,1168,1135,0,0
-49,-111,0,0,0,0,0,0,0,0,0,-1,1175,1135,0,0
-42,-111,0,0,0,0,0,0,0,0,0,-1,1182,1135,0,0
-35,-111,0,0,0,0,0,0,0,0,0,-1,1189,1135,0,0
-28,-111,0,0,0,0,0,0,0,0,0,-1,1196,1135,0,0
-21,-111,0,0,0,0,0,0,0,0,0,-1,1203,1135,0,0
-14,-111,0,0,0,0,0,0,0,0,0,-1,1210,1135,0,0
-7,-111,0,0,0,0,0,0,0,0,0,-1,1217,1135,0,0
0,-111,0,0,0,0,0,0,0,0,0,-1,1224,1135,0,0
7,-111,0,0,0,0,0,0,0,0,0,-1,1231,1135,0,0
14,-111,0,0,0,0,0,0,0,0,0,-1,1238,1135,0,0
21,-111,0,0,0,0,0,0,0,0,0,-1,1245,1135,0,0
28,-111,0,0,0,0,0,0,0,0,0,-1,1252,1135,0,0
35,-111,0,0,0,0,0,0,0,0,0,-1,1259,1135,0,0
42,-111,0,0,0,0,0,0,0,0,0,-1,1266,1135,0,0
49,-111,0,0,0,0,0,0,0,0,0,-1,1273,1135,0,0
56,-111,0,0,0,0,0,0,0,0,0,-1,1280,1135,0,0
63,-111,0,0,0,0,0,0,0,0,0,-1,1287,1135,0,0
70,-111,0,0,0,0,0,0,0,0,0,-1,1294,1135,0,0
77,-111,0,0,0,0,0,0,0,0,0,-1,1301,1135,0,0
84,-111,0,0,0,0,0,0,0,0,0,-1,1308,1135,0,0
91,-111,0,0,0,0,0,0,0,0,0,-1,1315,1135,0,0
98,-111,0,0,0,0,0,0,0,0,0,-1,1322,1135,0,0
105,-111,0,0,0,0,0,0,0,0,0,-1,1329,1135,0,0
112,-111,0,0,0,0,0,0,0,0,0,-1,1336,1135,0,0
119,-111,0,0,0,0,0,0,0,0,0,-1,1343,1135,0,0
126,-111,0,0,0,0,0,0,0,0,0,-1,1350,1135,0,0
133,-111,0,0,0,0,0,0,0,0,0,-1,1357,1135,0,0
140,-111,0,0,0,0,0,0,0,0,0,-1,1364,1135,0,0
147,-111,0,0,0,0,0,0,0,0,0,-1,1371,1135,0,0
154,-111,0,0,0,0,0,0,0,0,0,-1,1378,1135,0,0
161,-111,0,0,0,0,0,0,0,0,0,-1,1385,1135,0,0
168,-111,0,0,0,0,0,0,0,0,0,-1,1392,1135,0,0
175,-111,0,0,0,0,0,0,0,0,0,-1,1399,1135,0,0
182,-111,0,0,0,0,0,0,0,0,0,-1,1406,1135,0,0
189,-111,0,0,0,0,0,0,0,0,0,-1,1413,1135,0,0
196,-111,0,0,0,0,0,0,0,0,0,-1,1420,1135,0,0
203,-111,0,0,0,0,0,0,0,0,0,-1,1427,1135,0,0
210,-111,0,0,0,0,0,0,0,0,0,-1,1434,1135,0,0
217,-111,0,0,0,0,0,0,0,0,0,-1,1441,1135,0,0
224,-111,0,0,0,0,0,0,0,0,0,-1,1448,1135,0,0
231,-111,0,0,0,0,0,0,0,0,0,-1,1455,1135,0,0
238,-111,0,0,0,0,0,0,0,0,0,-1,1462,1135,0,0
245,-111,0,0,0,0,0,0,0,0,0,-1,1469,1135,0,0
252,-111,0,0,0,0,0,0,0,0,0,-1,1476,1135,0,0
259,-111,0,0,0,0,0,0,0,0,0,-1,1483,1135,0,0
266,-111,0,0,0,0,0,0,0,0,0,-1,1490,1135,0,0
273,-111,0,0,0,0,0,0,0,0,0,-1,1497,1135,0,0
280,-111,0,0,0,0,0,0,0,0,0,-1,1504,1135,0,0
287,-111,0,0,0,0,0,0,0,0,0,-1,1511,1135,0,0
294,-111,0,0,0,0,0,0,0,0,0,-1,1518,1135,0,0
301,-111,0,0,0,0,0,0,0,0,0,-1,1525,1135,0,0
308,-111,0,0,0,0,0,0,0,0,0,-1,1532,1135,0,0
315,-111,0,0,0,0,0,0,0,0,0,-1,1539,1135,0,0
322,-111,0,0,0,0,0,0,0,0,0,-1,1546,1135,0,0
329,-111,0,0,0,0,0,0,0,0,0,-1,1553,1135,0,0
336,-111,0,0,0,0,0,0,0,0,0,-1,1560,1135,0,0
343,-111,0,0,0,0,0,0,0,0,0,-1,1567,1135,0,0
350,-111,0,0,0,0,0,0,0,0,0,-1,1574,1135,0,0
357,-111,0,0,0,0,0,0,0,0,0,-1,1581,1135,0,0
364,-111,0,0,0,0,0,0,0,0,0,-1,1588,1135,0,0
371,-111,0,0,0,0,0,0,0,0,0,-1,1595,1135,0,0
378,-111,0,0,0,0,0,0,0,0,0,-1,1602,1135,0,0
385,-111,0,0,0,0,0,0,0,0,0,-1,1609,1135,0,0
392,-111,0,0,0,0,0,0,0,0,0,-1,1616,1135,0,0
399,-111,0,0,0,0,0,0,0,0,0,-1,1623,1135,0,0
406,-111,0,0,0,0,0,0,0,0,0,-1,1630,1135,0,0
413,-111,0,0,0,0,0,0,0,0,0,-1,1637,1135,0,0
420,-111,0,0,0,0,0,0,0,0,0,-1,1644,1135,0,0
427,-111,0,0,0,0,0,0,0,0,0,-1,1651,1135,0,0
434,-111,0,0,0,0,0,0,0,0,0,-1,1658,1135,0,0
441,-111,0,0,0,0,0,0,0,0,0,-1,1665,1135,0,0
448,-111,0,0,0,0,0,0,0,0,0,-1,1672,1135,0,0
455,-111,0,0,0,0,0,0,0,0,0,-1,1679,1135,0,0
462,-111,0,0,0,0,0,0,0,0,0,-1,1686,1135,0,0
469,-111,0,0,0,0,0,0,0,0,0,-1,1693,1135,0,0
476,-111,0,0,0,0,0,0,0,0,0,-1,1700,1135,0,0
483,-111,0,0,0,0,0,0,0,0,0,-1,1707,1135,0,0
490,-111,0,0,0,0,0,0,0,0,0,-1,1714,1135,0,0
497,-111,0,0,0,0,0,0,0,0,0,-1,1721,1135,0,0
504,-111,0,0,0,0,0,0,0,0,0,-1,1728,1135,0,0
511,-111,0,0,0,0,0,0,0,0,0,-1,1735,1135,0,0
518,-111,0,0,0,0,0,0,0,0,0,-1,1742,1135,0,0
525,-111,0,0,0,0,0,0,0,0,0,-1,1749,1135,0,0
532,-111,0,0,0,0,0,0,0,0,0,-1,1756,1135,0,0
539,-111,0,0,0,0,0,0,0,0,0,-1,1763,1135,0,0
546,-111,0,0,0,0,0,0,0,0,0,-1,1770,1135,0,0
553,-111,0,0,0,0,0,0,0,0,0,-1,1777,1135,0,0
560,-111,0,0,0,0,0,0,0,0,0,-1,1784,1135,0,0
567,-111,0,0,0,0,0,0,0,0,0,-1,1791,1135,0,0
574,-111,0,0,0,0,0,0,0,0,0,-1,1798,1135,0,0
581,-111,0,0,0,0,0,0,0,0,0,-1,1805,1135,0,0
588,-111,0,0,0,0,0,0,0,0,0,-1,1812,1135,0,0
595,-111,0,0,0,0,0,0,0,0,0,-1,1819,1135,0,0
602,-111,0,0,0,0,0,0,0,0,0,-1,1826,1135,0,0
609,-111,0,0,0,0,0,0,0,0,0,-1,1833,1135,0,0
616,-111,0,0,0,0,0,0,0,0,0,-1,1840,1135,0,0
623,-111,0,0,0,0,0,0,0,0,0,-1,1847,1135,0,0
630,-111,0,0,0,0,0,0,0,0,0,-1,1854,1135,0,0
637,-111,0,0,0,0,0,0,0,0,0,-1,1861,1135,0,0
644,-111,17.2952,2.97937,-0.00392669,-0.00259014,-0.000892148,-0.00214373,-0.0043731,-1.10685,0.00252497,0.0395526,1868,1135,17.2951,-2.97941
651,-111,17.2201,2.85498,-0.00310802,-0.00225558,-0.00117273,-0.00143402,-0.00392958,-0.959699,0.00229617,0.0405869,1875,1135,17.22,-2.85498
658,-111,17.1824,2.89526,-0.00215824,-0.00189058,-0.00129265,-0.000724851,-0.00332397,-0.836981,0.00201823,0.0457856,1882,1135,17.1824,-2.8953
665,-111,17.3622,2.45874,-0.00185032,-0.00176683,-0.000839925,-0.000967616,-0.00264954,-0.810229,0.00154813,0.0424972,1889,1135,17.3622,-2.45878
672,-111,17.2316,2.42432,-0.0026048,-0.00207153,0.000597922,-0.00168349,-0.00299285,0.995132,0.00173242,0.0420204,1896,1135,17.2316,-2.42426
679,-111,17.0841,2.68152,-0.00366902,-0.00243306,0.00212254,-0.000840364,-0.00526171,0.927058,0.00326395,0.0414862,1903,1135,17.0842,-2.68146
686,-111,16.9484,2.68237,-0.00478873,-0.00279878,0.00352687,-0.000129228,-0.00745828,0.922881,0.00492968,0.0375722,1910,1135,16.9484,-2.68242
693,-111,16.9623,2.50049,-0.00575233,-0.00308842,0.00472377,0.000487592,-0.00932834,0.922815,0.00638763,0.0337332,1917,1135,16.9623,-2.50047
700,-111,17.0985,2.42065,-0.00635793,-0.00327499,0.00554623,0.000939998,-0.0105729,0.920943,0.00738192,0.0255402,1924,1135,17.0985,-2.42062
707,-111,17.0474,2.52222,0,0,0,0,0,0,0,-1,1931,1135,17.0474,-2.52223
714,-111,16.6913,3.1322,-0.00721903,-0.00322385,0.00676284,0.00183025,-0.0122731,0.929003,0.00885545,0.0209931,1938,1135,16.6913,-3.13224
721,-111,16.4113,3.66321,-0.00734754,-0.00301872,0.00689119,0.00203997,-0.0124062,0.937562,0.00902797,0.0121885,1945,1135,16.4113,-3.66323
728,-111,16.4094,3.59949,-0.00686934,-0.00265338,0.00660392,0.00217084,-0.0116936,0.939888,0.00861102,0.0163874,1952,1135,16.4094,-3.59953
735,-111,16.3934,3.51379,-0.00557658,-0.0020687,0.00616351,0.00258558,-0.0102309,0.924018,0.00782612,0.0155278,1959,1135,16.3935,-3.51385
742,-111,16.3707,3.46155,-0.00359928,-0.00214586,0.00526297,0.00244034,-0.00818547,0.854004,0.00642677,0.0101738,1966,1135,16.3707,-3.46153
749,-111,16.3536,3.41272,-0.00150958,-0.00133554,0.00379609,0.00237452,-0.00521964,0.796858,0.00448589,0.0133004,1973,1135,16.3537,-3.41274
756,-111,16.3469,3.35168,0.000793616,-9.03478e-05,0.00200174,0.00240158,-0.00169832,0.676742,0.00237866,0.0148186,1980,1135,16.3469,-3.35166
763,-111,16.3546,3.29834,0.00374802,0.000677526,-0.000298383,0.00377675,0.000648799,-0.095981,0.00233185,0.0125351,1987,1135,16.3546,-3.29839
770,-111,16.3495,3.22742,0.00680249,0.00166965,-0.00269361,0.00795656,0.000515576,-0.404787,0.00514114,0.0106241,1994,1135,16.3495,-3.22746
777,-111,16.3328,3.18152,0.00945353,0.00266026,-0.00514151,0.0122191,-0.000105266,-0.493492,0.00818135,0.0228911,2001,1135,16.3327,-3.18151
784,-111,16.2932,3.41064,0.0118479,0.00409337,-0.00834914,0.0171761,-0.00123486,-0.56802,0.0118838,0.0401542,2008,1135,16.2933,-3.41066
791,-111,16.5609,4.02271,0.0139371,0.00631032,-0.0129708,0.0236435,-0.00339603,-0.642427,0.0170077,0.0417009,2015,1135,16.5609,-4.02268
798,-111,16.0776,0.932373,0.0154254,0.0097434,-0.0194358,0.0322267,-0.00705789,-0.712825,0.0241829,0.0456252,2022,1135,16.0776,-0.932378
805,-111,15.8468,0.404175,0.0156952,0.0149352,-0.0282695,0.0435873,-0.0129568,-0.778678,0.0342052,0.0443705,2029,1135,15.8467,-0.404217
812,-111,15.5566,0.013916,0,0,0,0,0,0,0,-1,2036,1135,15.5567,-0.0138989
-700,-118,0,0,0,0,0,0,0,0,0,-1,524,1142,0,0
-693,-118,-6.83148,-0.782471,-0.0771438,-0.000530147,-0.00323109,-0.000394121,-0.0772798,-1.52872,0.051389,0.0471672,531,1142,-6.8315,0.782423
-686,-118,-7.30511,-0.00219727,-0.0613809,0.00433986,-0.00471511,0.00467642,-0.0617175,-1.49954,0.0427891,0.0484255,538,1142,-7.30514,0.00214461
-679,-118,-7.81201,0.58728,-0.0476239,0.00694039,-0.00531961,0.00745418,-0.0481377,-1.47451,0.0348433,0.0449006,545,1142,-7.81202,-0.587258
-672,-118,-8.34192,1.25281,-0.0359569,0.00803627,-0.00547359,0.00870706,-0.0366277,-1.44885,0.0277795,0.0477513,552,1142,-8.34192,-1.25276
-665,-118,-10.5044,0.0351563,0,0,0,0,0,0,0,-1,559,1142,-10.5044,-0.0352079
-658,-118,-10.2985,1.26208,-0.0186545,0.00754253,-0.00491914,0.00843576,-0.0195477,-1.39117,0.0165754,0.0388175,566,1142,-10.2985,-1.26208
-651,-118,-10.1146,0.703735,-0.0127453,0.00655905,-0.00436085,0.00749845,-0.0136847,-1.35862,0.0124027,0.0385744,573,1142,-10.1146,-0.703676
-644,-118,-10.0881,0.764038,-0.00836622,0.00537741,-0.0037325,0.00632566,-0.00931447,-1.32201,0.00908462,0.0253585,580,1142,-10.0881,-0.763986
-637,-118,-10.0966,0.920044,-0.00526111,0.00449977,-0.00360543,0.0056871,-0.00644844,-1.25266,0.00701105,0.0145992,587,1142,-10.0966,-0.92008
-630,-118,-10.1227,0.985352,-0.00341536,0.00299542,-0.00360884,0.00461686,-0.0050368,-1.14853,0.0055753,0.0171158,594,1142,-10.1227,-0.985404
-623,-118,-10.1191,1.05811,-0.00254494,0.00130289,-0.00410527,0.0039127,-0.00515475,-1.00452,0.00525144,0.0148822,601,1142,-10.1192,-1.05807
-616,-118,-10.1247,1.14624,-0.00294739,-0.000293586,-0.00482119,0.00337996,-0.00662094,-0.919685,0.00587422,0.0137711,608,1142,-10.1247,-1.14625
-609,-118,-10.137,1.22546,-0.00404721,-0.00132874,-0.00546134,0.00293996,-0.00831592,-0.907362,0.00674113,0.0140721,615,1142,-10.137,-1.22543
-602,-118,-10.1356,1.32849,-0.00514482,-0.00202759,-0.00571482,0.00233734,-0.00950975,-0.918526,0.00724572,0.0132227,622,1142,-10.1356,-1.32852
-595,-118,-10.1627,1.40991,-0.00603224,-0.00262703,-0.00619669,0.0020967,-0.010756,-0.91947,0.00796211,0.0114113,629,1142,-10.1626,-1.40995
-588,-118,-10.0739,1.52991,-0.00669028,-0.00302799,-0.00662017,0.00200962,-0.0117279,-0.920325,0.00856739,0.0182496,636,1142,-10.0739,-1.52993
-581,-118,-10.308,0.987305,-0.00690391,-0.00316522,-0.00669922,0.00192058,-0.0119897,-0.921457,0.00870425,0.0412707,643,1142,-10.308,-0.98725
-574,-118,-10.5656,0.00720215,0,0,0,0,0,0,0,-1,650,1142,-10.5656,-0.00715242
-567,-118,-10.8287,0.569336,-0.00646812,-0.0030468,-0.00615249,0.00162842,-0.0111433,-0.920995,0.00802696,0.0432825,657,1142,-10.8287,-0.569332
-560,-118,-10.83,0.81897,-0.00567376,-0.00270665,-0.0052816,0.00129581,-0.00967621,-0.922316,0.00692328,0.0369223,664,1142,-10.8299,-0.818927
-553,-118,-10.6957,0.72168,-0.00436229,-0.00220299,-0.0040377,0.000896918,-0.00746219,-0.916038,0.00529913,0.039179,671,1142,-10.6957,-0.721671
-546,-118,-10.6682,0.708374,-0.00246724,-0.00159461,-0.00246302,0.000470444,-0.00453229,-0.873062,0.00318992,0.039882,678,1142,-10.6681,-0.7084
-539,-118,-10.7377,0.686035,7.99204e-05,-0.000949634,-0.000638104,0.000385004,-0.00125472,-0.445983,0.000990088,0.0411854,685,1142,-10.7378,-0.686036
-532,-118,-10.8366,0.743896,0.00284576,-0.000514046,0.000636422,0.00296227,-0.000630558,0.181068,0.00221515,0.0419383,692,1142,-10.8366,-0.74395
-525,-118,-10.9133,0.775513,0.00374165,-0.001326,-0.00104021,0.00394686,-0.00153121,-0.194776,0.00326365,0.0438889,699,1142,-10.9132,-0.775483
-518,-118,0,0,0,0,0,0,0,0,0,-1,706,1142,0,0
-511,-118,0,0,0,0,0,0,0,0,0,-1,713,1142,0,0
-504,-118,0,0,0,0,0,0,0,0,0,-1,720,1142,0,0
-497,-118,0,0,0,0,0,0,0,0,0,-1,727,1142,0,0
-490,-118,0,0,0,0,0,0,0,0,0,-1,734,1142,0,0
-483,-118,0,0,0,0,0,0,0,0,0,-1,741,1142,0,0
-476,-118,0,0,0,0,0,0,0,0,0,-1,748,1142,0,0
-469,-118,0,0,0,0,0,0,0,0,0,-1,755,1142,0,0
-462,-118,0,0,0,0,0,0,0,0,0,-1,762,1142,0,0
-455,-118,0,0,0,0,0,0,0,0,0,-1,769,1142,0,0
-448,-118,0,0,0,0,0,0,0,0,0,-1,776,1142,0,0
-441,-118,0,0,0,0,0,0,0,0,0,-1,783,1142,0,0
-434,-118,0,0,0,0,0,0,0,0,0,-1,790,1142,0,0
-427,-118,0,0,0,0,0,0,0,0,0,-1,797,1142,0,0
-420,-118,0,0,0,0,0,0,0,0,0,-1,804,1142,0,0
-413,-118,0,0,0,0,0,0,0,0,0,-1,811,1142,0,0
-406,-118,0,0,0,0,0,0,0,0,0,-1,818,1142,0,0
-399,-118,0,0,0,0,0,0,0,0,0,-1,825,1142,0,0
-392,-118,0,0,0,0,0,0,0,0,0,-1,832,1142,0,0
-385,-118,0,0,0,0,0,0,0,0,0,-1,839,1142,0,0
-378,-118,0,0,0,0,0,0,0,0,0,-1,846,1142,0,0
-371,-118,0,0,0,0,0,0,0,0,0,-1,853,1142,0,0
-364,-118,0,0,0,0,0,0,0,0,0,-1,860,1142,0,0
-357,-118,0,0,0,0,0,0,0,0,0,-1,867,1142,0,0
-350,-118,0,0,0,0,0,0,0,0,0,-1,874,1142,0,0
-343,-118,0,0,0,0,0,0,0,0,0,-1,881,1142,0,0
-336,-118,0,0,0,0,0,0,0,0,0,-1,888,1142,0,0
-329,-118,0,0,0,0,0,0,0,0,0,-1,895,1142,0,0
-322,-118,0,0,0,0,0,0,0,0,0,-1,902,1142,0,0
-315,-118,0,0,0,0,0,0,0,0,0,-1,909,1142,0,0
-308,-118,0,0,0,0,0,0,0,0,0,-1,916,1142,0,0
-301,-118,0,0,0,0,0,0,0,0,0,-1,923,1142,0,0
-294,-118,0,0,0,0,0,0,0,0,0,-1,930,1142,0,0
-287,-118,0,0,0,0,0,0,0,0,0,-1,937,1142,0,0
-280,-118,0,0,0,0,0,0,0,0,0,-1,944,1142,0,0
-273,-118,0,0,0,0,0,0,0,0,0,-1,951,1142,0,0
-266,-118,0,0,0,0,0,0,0,0,0,-1,958,1142,0,0
-259,-118,0,0,0,0,0,0,0,0,0,-1,965,1142,0,0
-252,-118,0,0,0,0,0,0,0,0,0,-1,972,1142,0,0
-245,-118,0,0,0,0,0,0,0,0,0,-1,979,1142,0,0
-238,-118,0,0,0,0,0,0,0,0,0,-1,986,1142,0,0
-231,-118,0,0,0,0,0,0,0,0,0,-1,993,1142,0,0
-224,-118,0,0,0,0,0,0,0,0,0,-1,1000,1142,0,0
-217,-118,0,0,0,0,0,0,0,0,0,-1,1007,1142,0,0
-210,-118,0,0,0,0,0,0,0,0,0,-1,1014,1142,0,0
-203,-118,0,0,0,0,0,0,0,0,0,-1,1021,1142,0,0
-196,-118,0,0,0,0,0,0,0,0,0,-1,1028,1142,0,0
-189,-118,0,0,0,0,0,0,0,0,0,-1,1035,1142,0,0
-182,-118,0,0,0,0,0,0,0,0,0,-1,1042,1142,0,0
-175,-118,0,0,0,0,0,0,0,0,0,-1,1049,1142,0,0
-168,-118,0,0,0,0,0,0,0,0,0,-1,1056,1142,0,0
-161,-118,0,0,0,0,0,0,0,0,0,-1,1063,1142,0,0
-154,-118,0,0,0,0,0,0,0,0,0,-1,1070,1142,0,0
-147,-118,0,0,0,0,0,0,0,0,0,-1,1077,1142,0,0
-140,-118,0,0,0,0,0,0,0,0,0,-1,1084,1142,0,0
-133,-118,0,0,0,0,0,0,0,0,0,-1,1091,1142,0,0
-126,-118,0,0,0,0,0,0,0,0,0,-1,1098,1142,0,0
-119,-118,0,0,0,0,0,0,0,0,0,-1,1105,1142,0,0
-112,-118,0,0,0,0,0,0,0,0,0,-1,1112,1142,0,0
-105,-118,0,0,0,0,0,0,0,0,0,-1,1119,1142,0,0
-98,-118,0,0,0,0,0,0,0,0,0,-1,1126,1142,0,0
-91,-118,0,0,0,0,0,0,0,0,0,-1,1133,1142,0,0
-84,-118,0,0,0,0,0,0,0,0,0,-1,1140,1142,0,0
-77,-118,0,0,0,0,0,0,0,0,0,-1,1147,1142,0,0
-70,-118,0,0,0,0,0,0,0,0,0,-1,1154,1142,0,0
-63,-118,0,0,0,0,0,0,0,0,0,-1,1161,1142,0,0
-56,-118,0,0,0,0,0,0,0,0,0,-1,1168,1142,0,0
-49,-118,0,0,0,0,0,0,0,0,0,-1,1175,1142,0,0
-42,-118,0,0,0,0,0,0,0,0,0,-1,1182,1142,0,0
-35,-118,0,0,0,0,0,0,0,0,0,-1,1189,1142,0,0
-28,-118,0,0,0,0,0,0,0,0,0,-1,1196,1142,0,0
-21,-118,0,0,0,0,0,0,0,0,0,-1,1203,1142,0,0
-14,-118,0,0,0,0,0,0,0,0,0,-1,1210,1142,0,0
-7,-118,0,0,0,0,0,0,0,0,0,-1,1217,1142,0,0
0,-118,0,0,0,0,0,0,0,0,0,-1,1224,1142,0,0
7,-118,0,0,0,0,0,0,0,0,0,-1,1231,1142,0,0
14,-118,0,0,0,0,0,0,0,0,0,-1,1238,1142,0,0
21,-118,0,0,0,0,0,0,0,0,0,-1,1245,1142,0,0
28,-118,0,0,0,0,0,0,0,0,0,-1,1252,1142,0,0
35,-118,0,0,0,0,0,0,0,0,0,-1,1259,1142,0,0
42,-118,0,0,0,0,0,0,0,0,0,-1,1266,1142,0,0
49,-118,0,0,0,0,0,0,0,0,0,-1,1273,1142,0,0
56,-118,0,0,0,0,0,0,0,0,0,-1,1280,1142,0,0
63,-118,0,0,0,0,0,0,0,0,0,-1,1287,1142,0,0
70,-118,0,0,0,0,0,0,0,0,0,-1,1294,1142,0,0
77,-118,0,0,0,0,0,0,0,0,0,-1,1301,1142,0,0
84,-118,0,0,0,0,0,0,0,0,0,-1,1308,1142,0,0
91,-118,0,0,0,0,0,0,0,0,0,-1,1315,1142,0,0
98,-118,0,0,0,0,0,0,0,0,0,-1,1322,1142,0,0
105,-118,0,0,0,0,0,0,0,0,0,-1,1329,1142,0,0
112,-118,0,0,0,0,0,0,0,0,0,-1,1336,1142,0,0
119,-118,0,0,0,0,0,0,0,0,0,-1,1343,1142,0,0
126,-118,0,0,0,0,0,0,0,0,0,-1,1350,1142,0,0
133,-118,0,0,0,0,0,0,0,0,0,-1,1357,1142,0,0
140,-118,0,0,0,0,0,0,0,0,0,-1,1364,1142,0,0
147,-118,0,0,0,0,0,0,0,0,0,-1,1371,1142,0,0
154,-118,0,0,0,0,0,0,0,0,0,-1,1378,1142,0,0
161,-118,0,0,0,0,0,0,0,0,0,-1,1385,1142,0,0
168,-118,0,0,0,0,0,0,0,0,0,-1,1392,1142,0,0
175,-118,0,0,0,0,0,0,0,0,0,-1,1399,1142,0,0
182,-118,0,0,0,0,0,0,0,0,0,-1,1406,1142,0,0
189,-118,0,0,0,0,0,0,0,0,0,-1,1413,1142,0,0
196,-118,0,0,0,0,0,0,0,0,0,-1,1420,1142,0,0
203,-118,0,0,0,0,0,0,0,0,0,-1,1427,1142,0,0
210,-118,0,0,0,0,0,0,0,0,0,-1,1434,1142,0,0
217,-118,0,0,0,0,0,0,0,0,0,-1,1441,1142,0,0
224,-118,0,0,0,0,0,0,0,0,0,-1,1448,1142,0,0
231,-118,0,0,0,0,0,0,0,0,0,-1,1455,1142,0,0
238,-118,0,0,0,0,0,0,0,0,0,-1,1462,1142,0,0
245,-118,0,0,0,0,0,0,0,0,0,-1,1469,1142,0,0
252,-118,0,0,0,0,0,0,0,0,0,-1,1476,1142,0,0
259,-118,0,0,0,0,0,0,0,0,0,-1,1483,1142,0,0
266,-118,0,0,0,0,0,0,0,0,0,-1,1490,1142,0,0
273,-118,0,0,0,0,0,0,0,0,0,-1,1497,1142,0,0
280,-118,0,0,0,0,0,0,0,0,0,-1,1504,1142,0,0
287,-118,0,0,0,0,0,0,0,0,0,-1,1511,1142,0,0
294,-118,0,0,0,0,0,0,0,0,0,-1,1518,1142,0,0
301,-118,0,0,0,0,0,0,0,0,0,-1,1525,1142,0,0
308,-118,0,0,0,0,0,0,0,0,0,-1,1532,1142,0,0
315,-118,0,0,0,0,0,0,0,0,0,-1,1539,1142,0,0
322,-118,0,0,0,0,0,0,0,0,0,-1,1546,1142,0,0
329,-118,0,0,0,0,0,0,0,0,0,-1,1553,1142,0,0
336,-118,0,0,0,0,0,0,0,0,0,-1,1560,1142,0,0
343,-118,0,0,0,0,0,0,0,0,0,-1,1567,1142,0,0
350,-118,0,0,0,0,0,0,0,0,0,-1,1574,1142,0,0
357,-118,0,0,0,0,0,0,0,0,0,-1,1581,1142,0,0
364,-118,0,0,0,0,0,0,0,0,0,-1,1588,1142,0,0
371,-118,0,0,0,0,0,0,0,0,0,-1,1595,1142,0,0
378,-118,0,0,0,0,0,0,0,0,0,-1,1602,1142,0,0
385,-118,0,0,0,0,0,0,0,0,0,-1,1609,1142,0,0
392,-118,0,0,0,0,0,0,0,0,0,-1,1616,1142,0,0
399,-118,0,0,0,0,0,0,0,0,0,-1,1623,1142,0,0
406,-118,0,0,0,0,0,0,0,0,0,-1,1630,1142,0,0
413,-118,0,0,0,0,0,0,0,0,0,-1,1637,1142,0,0
420,-118,0,0,0,0,0,0,0,0,0,-1,1644,1142,0,0
427,-118,0,0,0,0,0,0,0,0,0,-1,1651,1142,0,0
434,-118,0,0,0,0,0,0,0,0,0,-1,1658,1142,0,0
441,-118,0,0,0,0,0,0,0,0,0,-1,1665,1142,0,0
448,-118,0,0,0,0,0,0,0,0,0,-1,1672,1142,0,0
455,-118,0,0,0,0,0,0,0,0,0,-1,1679,1142,0,0
462,-118,0,0,0,0,0,0,0,0,0,-1,1686,1142,0,0
469,-118,0,0,0,0,0,0,0,0,0,-1,1693,1142,0,0
476,-118,0,0,0,0,0,0,0,0,0,-1,1700,1142,0,0
483,-118,0,0,0,0,0,0,0,0,0,-1,1707,1142,0,0
490,-118,0,0,0,0,0,0,0,0,0,-1,1714,1142,0,0
497,-118,0,0,0,0,0,0,0,0,0,-1,1721,1142,0,0
504,-118,0,0,0,0,0,0,0,0,0,-1,1728,1142,0,0
511,-118,0,0,0,0,0,0,0,0,0,-1,1735,1142,0,0
518,-118,0,0,0,0,0,0,0,0,0,-1,1742,1142,0,0
525,-118,0,0,0,0,0,0,0,0,0,-1,1749,1142,0,0
532,-118,0,0,0,0,0,0,0,0,0,-1,1756,1142,0,0
539,-118,0,0,0,0,0,0,0,0,0,-1,1763,1142,0,0
546,-118,0,0,0,0,0,0,0,0,0,-1,1770,1142,0,0
553,-118,0,0,0,0,0,0,0,0,0,-1,1777,1142,0,0
560,-118,0,0,0,0,0,0,0,0,0,-1,1784,1142,0,0
567,-118,0,0,0,0,0,0,0,0,0,-1,1791,1142,0,0
574,-118,0,0,0,0,0,0,0,0,0,-1,1798,1142,0,0
581,-118,0,0,0,0,0,0,0,0,0,-1,1805,1142,0,0
588,-118,0,0,0,0,0,0,0,0,0,-1,1812,1142,0,0
595,-118,0,0,0,0,0,0,0,0,0,-1,1819,1142,0,0
602,-118,0,0,0,0,0,0,0,0,0,-1,1826,1142,0,0
609,-118,0,0,0,0,0,0,0,0,0,-1,1833,1142,0,0
616,-118,0,0,0,0,0,0,0,0,0,-1,1840,1142,0,0
623,-118,0,0,0,0,0,0,0,0,0,-1,1847,1142,0,0
630,-118,0,0,0,0,0,0,0,0,0,-1,1854,1142,0,0
637,-118,0,0,0,0,0,0,0,0,0,-1,1861,1142,0,0
644,-118,17.3252,3.08411,-0.00440401,-0.00143604,0.000143408,-0.00142913,-0.00441092,1.52263,0.00259871,0.043199,1868,1142,17.3251,-3.08414
651,-118,17.2216,3.12598,-0.00332925,-0.00135075,-0.0005673,-0.00119963,-0.00348037,-1.31046,0.00204145,0.0443282,1875,1142,17.2215,-3.12598
658,-118,17.0248,3.06421,-0.002312,-0.00117253,-0.000858754,-0.000711706,-0.00277283,-1.07828,0.00166288,0.0468431,1882,1142,17.0247,-3.06416
665,-118,17.1666,2.55554,-0.0021226,-0.00127207,-0.00041375,-0.00110401,-0.00229067,-1.18496,0.0013228,0.043208,1889,1142,17.1666,-2.55553
672,-118,17.1375,2.79846,-0.00292359,-0.00170992,0.000908411,-0.0012243,-0.00340921,1.07987,0.00199418,0.0475928,1896,1142,17.1375,-2.79848
679,-118,17.1005,2.79602,-0.00397357,-0.00216445,0.00229699,-0.000600332,-0.00553769,0.972974,0.00350884,0.0429461,1903,1142,17.1004,-2.79604
686,-118,17.0175,2.67004,-0.00507845,-0.00259621,0.00357826,-4.99408e-05,-0.00762472,0.952331,0.00506658,0.0342258,1910,1142,17.0175,-2.6701
693,-118,16.9745,2.44702,-0.00599991,-0.0029307,0.00465215,0.000433419,-0.00936403,0.944713,0.00639206,0.0319808,1917,1142,16.9744,-2.44708
700,-118,17.0692,2.4043,-0.00653939,-0.00318477,0.00536515,0.000759154,-0.0104833,0.9369,0.00725517,0.019369,1924,1142,17.0693,-2.40433
707,-118,17.2156,2.55566,0,0,0,0,0,0,0,-1,1931,1142,17.2156,-2.55566
714,-118,16.6998,3.27148,-0.00730882,-0.00319441,0.00642647,0.00149609,-0.0119993,0.940302,0.00854203,0.0329307,1938,1142,16.6999,-3.27153
721,-118,16.3481,3.64758,-0.00739372,-0.00297495,0.00652409,0.0017037,-0.0120724,0.948662,0.00867212,0.00990461,1945,1142,16.3482,-3.64759
728,-118,16.3275,3.6062,-0.00682257,-0.00260817,0.00619939,0.00183236,-0.0112631,0.949225,0.00818815,0.0131461,1952,1142,16.3276,-3.60625
735,-118,16.2953,3.54688,-0.00536648,-0.00198835,0.0057404,0.00230632,-0.00966115,0.928481,0.00733148,0.0134618,1959,1142,16.2953,-3.54692
742,-118,16.2991,3.46167,-0.00317514,-0.00204244,0.00484745,0.00227163,-0.00748921,0.843552,0.0058977,0.0185953,1966,1142,16.299,-3.46163
749,-118,16.3223,3.38928,-0.000903369,-0.00104591,0.00333643,0.00236255,-0.00431183,0.774719,0.00390785,0.018729,1973,1142,16.3222,-3.38931
756,-118,16.3015,3.33655,0.00170203,0.000512164,0.00146957,0.00269253,-0.000478331,0.593064,0.00197388,0.0164562,1980,1142,16.3015,-3.33658
763,-118,16.3036,3.29382,0.00501488,0.00169285,-0.000815976,0.00520449,0.00150325,-0.228312,0.00309284,0.00926248,1987,1142,16.3035,-3.29379
770,-118,16.2916,3.22217,0.00838123,0.00318897,-0.00319759,0.0099039,0.0016663,-0.44442,0.00612321,0.0111205,1994,1142,16.2916,-3.22212
777,-118,16.266,3.17395,0.011435,0.00492551,-0.00574049,0.0147792,0.00158126,-0.527505,0.00937032,0.0239687,2001,1142,16.266,-3.17391
784,-118,16.3577,3.63257,0.0143427,0.00742906,-0.00914984,0.0206669,0.00110481,-0.604786,0.0134249,0.0409529,2008,1142,16.3576,-3.63253
791,-118,16.6199,4.38989,0.0169477,0.0111342,-0.0140159,0.0283551,-0.000273257,-0.683153,0.0189951,0.0441381,2015,1142,16.6198,-4.38987
798,-118,15.9525,0.447144,0,0,0,0,0,0,0,-1,2022,1142,15.9525,-0.447113
805,-118,15.535,-0.294556,0,0,0,0,0,0,0,-1,2029,1142,15.535,0.294555
812,-118,15.229,-0.614502,0,0,0,0,0,0,0,-1,2036,1142,15.2289,0.614478
-700,-125,0,0,0,0,0,0,0,0,0,-1,524,1149,0,0
-693,-125,-6.61237,-0.53125,-0.0804718,0.00582924,-0.00177732,0.00586582,-0.0805084,-1.55021,0.0557306,0.0458688,531,1149,-6.61235,0.531205
-686,-125,-7.4502,-0.168335,-0.0644248,0.01025,-0.00475249,0.0105512,-0.0647261,-1.50749,0.0470637,0.0484165,538,1149,-7.45017,0.1683
-679,-125,-7.95367,0.372559,-0.0504288,0.0122107,-0.00622033,0.0128224,-0.0510405,-1.47277,0.03901,0.0433852,545,1149,-7.95368,-0.372535
-672,-125,-8.20496,0.711182,-0.0385448,0.0125947,-0.00683152,0.0134916,-0.0394416,-1.44026,0.0317616,0.0439124,552,1149,-8.20494,-0.711231
-665,-125,-10.0711,2.01038,0,0,0,0,0,0,0,-1,559,1149,-10.0711,-2.0104
-658,-125,-10.0616,1.68799,-0.0207726,0.0106832,-0.00642395,0.0119446,-0.022034,-1.37691,0.0199037,0.0392796,566,1149,-10.0616,-1.68799
-651,-125,-10.0618,0.76001,-0.014581,0.00905079,-0.00571219,0.0103591,-0.0158893,-1.34564,0.0152662,0.0375609,573,1149,-10.0618,-0.759969
-644,-125,-9.99408,0.816528,-0.00988999,0.00728885,-0.00484927,0.00856318,-0.0111643,-1.31382,0.0114226,0.0240089,580,1149,-9.9941,-0.816468
-637,-125,-9.97156,0.925171,-0.00641919,0.00590577,-0.00448099,0.00736271,-0.00787612,-1.25644,0.00879981,0.0131655,587,1149,-9.97153,-0.925171
-630,-125,-9.98999,0.981079,-0.00427649,0.003971,-0.00421505,0.00574402,-0.00604952,-1.17262,0.00680977,0.0146217,594,1149,-9.99,-0.981062
-623,-125,-10.0076,1.0719,-0.00321313,0.00190783,-0.00447632,0.00450424,-0.00580954,-1.04519,0.00597054,0.0130674,601,1149,-10.0076,-1.07184
-616,-125,-10.0209,1.16357,-0.00343961,4.34902e-05,-0.00496725,0.00356564,-0.00696176,-0.954006,0.00618252,0.0130057,608,1149,-10.0209,-1.16353
-609,-125,-10.0292,1.23254,-0.00444106,-0.00116531,-0.00541075,0.00285003,-0.0084564,-0.932367,0.00679001,0.0143228,615,1149,-10.0292,-1.23251
-602,-125,-10.05,1.33862,-0.0054824,-0.00199168,-0.00561111,0.00213925,-0.00961334,-0.936182,0.00722828,0.0123597,622,1149,-10.05,-1.33867
-595,-125,-10.0651,1.44958,-0.00636454,-0.00262961,-0.00610097,0.00188331,-0.0108775,-0.933917,0.00795408,0.0109634,629,1149,-10.0651,-1.44955
-588,-125,-9.96118,1.57153,-0.00705972,-0.00303204,-0.00654828,0.00180507,-0.0118968,-0.934577,0.00859631,0.0168906,636,1149,-9.96117,-1.57159
-581,-125,-10.3239,1.38342,-0.00731875,-0.00314497,-0.00665694,0.00174453,-0.0122082,-0.937292,0.00877831,0.0386451,643,1149,-10.3239,-1.38338
-574,-125,-10.7529,1.10278,0,0,0,0,0,0,0,-1,650,1149,-10.7529,-1.10283
-567,-125,-10.8408,0.527344,-0.00686735,-0.00295142,-0.00625294,0.00164294,-0.0114617,-0.937126,0.00824354,0.0386184,657,1149,-10.8407,-0.527292
-560,-125,-10.8893,0.590576,-0.00605561,-0.00257054,-0.00547685,0.0014343,-0.0100605,-0.939416,0.00723263,0.0380117,664,1149,-10.8893,-0.590591
-553,-125,-10.8751,0.68396,-0.00467185,-0.00201265,-0.00434025,0.00119709,-0.00788159,-0.934031,0.00569551,0.0405488,671,1149,-10.8751,-0.684001
-546,-125,-10.7264,0.661255,-0.00262375,-0.0013334,-0.00288409,0.000976797,-0.00493394,-0.895437,0.00365862,0.0416333,678,1149,-10.7265,-0.661241
-539,-125,-10.8401,0.748169,0.00018529,-0.00059098,-0.00118171,0.00104097,-0.00144666,-0.626723,0.00144259,0.0424185,685,1149,-10.8401,-0.748153
-532,-125,-10.9594,0.860718,0.0034801,1.70932e-05,7.94582e-05,0.00348193,1.5271e-05,0.0229287,0.00231621,0.0410337,692,1149,-10.9594,-0.860661
-525,-125,-10.8198,0.643799,0.00516905,-0.000596398,-0.00152551,0.00554782,-0.00097516,-0.243364,0.0040628,0.041174,699,1149,-10.8199,-0.64376
-518,-125,0,0,0,0,0,0,0,0,0,-1,706,1149,0,0
-511,-125,0,0,0,0,0,0,0,0,0,-1,713,1149,0,0
-504,-125,0,0,0,0,0,0,0,0,0,-1,720,1149,0,0
-497,-125,0,0,0,0,0,0,0,0,0,-1,727,1149,0,0
-490,-125,0,0,0,0,0,0,0,0,0,-1,734,1149,0,0
-483,-125,0,0,0,0,0,0,0,0,0,-1,741,1149,0,0
-476,-125,0,0,0,0,0,0,0,0,0,-1,748,1149,0,0
-469,-125,0,0,0,0,0,0,0,0,0,-1,755,1149,0,0
-462,-125,0,0,0,0,0,0,0,0,0,-1,762,1149,0,0
-455,-125,0,0,0,0,0,0,0,0,0,-1,769,1149,0,0
-448,-125,0,0,0,0,0,0,0,0,0,-1,776,1149,0,0
-441,-125,0,0,0,0,0,0,0,0,0,-1,783,1149,0,0
-434,-125,0,0,0,0,0,0,0,0,0,-1,790,1149,0,0
-427,-125,0,0,0,0,0,0,0,0,0,-1,797,1149,0,0
-420,-125,0,0,0,0,0,0,0,0,0,-1,804,1149,0,0
-413,-125,0,0,0,0,0,0,0,0,0,-1,811,1149,0,0
-406,-125,0,0,0,0,0,0,0,0,0,-1,818,1149,0,0
-399,-125,0,0,0,0,0,0,0,0,0,-1,825,1149,0,0
-392,-125,0,0,0,0,0,0,0,0,0,-1,832,1149,0,0
-385,-125,0,0,0,0,0,0,0,0,0,-1,839,1149,0,0
-378,-125,0,0,0,0,0,0,0,0,0,-1,846,1149,0,0
-371,-125,0,0,0,0,0,0,0,0,0,-1,853,1149,0,0
-364,-125,0,0,0,0,0,0,0,0,0,-1,860,1149,0,0
-357,-125,0,0,0,0,0,0,0,0,0,-1,867,1149,0,0
-350,-125,0,0,0,0,0,0,0,0,0,-1,874,1149,0,0
-343,-125,0,0,0,0,0,0,0,0,0,-1,881,1149,0,0
-336,-125,0,0,0,0,0,0,0,0,0,-1,888,1149,0,0
-329,-125,0,0,0,0,0,0,0,0,0,-1,895,1149,0,0
-322,-125,0,0,0,0,0,0,0,0,0,-1,902,1149,0,0
-315,-125,0,0,0,0,0,0,0,0,0,-1,909,1149,0,0
-308,-125,0,0,0,0,0,0,0,0,0,-1,916,1149,0,0
-301,-125,0,0,0,0,0,0,0,0,0,-1,923,1149,0,0
-294,-125,0,0,0,0,0,0,0,0,0,-1,930,1149,0,0
-287,-125,0,0,0,0,0,0,0,0,0,-1,937,1149,0,0
-280,-125,0,0,0,0,0,0,0,0,0,-1,944,1149,0,0
-273,-125,0,0,0,0,0,0,0,0,0,-1,951,1149,0,0
-266,-125,0,0,0,0,0,0,0,0,0,-1,958,1149,0,0
-259,-125,0,0,0,0,0,0,0,0,0,-1,965,1149,0,0
-252,-125,0,0,0,0,0,0,0,0,0,-1,972,1149,0,0
-245,-125,0,0,0,0,0,0,0,0,0,-1,979,1149,0,0
-238,-125,0,0,0,0,0,0,0,0,0,-1,986,1149,0,0
-231,-125,0,0,0,0,0,0,0,0,0,-1,993,1149,0,0
-224,-125,0,0,0,0,0,0,0,0,0,-1,1000,1149,0,0
-217,-125,0,0,0,0,0,0,0,0,0,-1,1007,1149,0,0
-210,-125,0,0,0,0,0,0,0,0,0,-1,1014,1149,0,0
-203,-125,0,0,0,0,0,0,0,0,0,-1,1021,1149,0,0
-196,-125,0,0,0,0,0,0,0,0,0,-1,1028,1149,0,0
-189,-125,0,0,0,0,0,0,0,0,0,-1,1035,1149,0,0
-182,-125,0,0,0,0,0,0,0,0,0,-1,1042,1149,0,0
-175,-125,0,0,0,0,0,0,0,0,0,-1,1049,1149,0,0
-168,-125,0,0,0,0,0,0,0,0,0,-1,1056,1149,0,0
-161,-125,0,0,0,0,0,0,0,0,0,-1,1063,1149,0,0
-154,-125,0,0,0,0,0,0,0,0,0,-1,1070,1149,0,0
-147,-125,0,0,0,0,0,0,0,0,0,-1,1077,1149,0,0
-140,-125,0,0,0,0,0,0,0,0,0,-1,1084,1149,0,0
-133,-125,0,0,0,0,0,0,0,0,0,-1,1091,1149,0,0
-126,-125,0,0,0,0,0,0,0,0,0,-1,1098,1149,0,0
-119,-125,0,0,0,0,0,0,0,0,0,-1,1105,1149,0,0
-112,-125,0,0,0,0,0,0,0,0,0,-1,1112,1149,0,0
-105,-125,0,0,0,0,0,0,0,0,0,-1,1119,1149,0,0
-98,-125,0,0,0,0,0,0,0,0,0,-1,1126,1149,0,0
-91,-125,0,0,0,0,0,0,0,0,0,-1,1133,1149,0,0
-84,-125,0,0,0,0,0,0,0,0,0,-1,1140,1149,0,0
-77,-125,0,0,0,0,0,0,0,0,0,-1,1147,1149,0,0
-70,-125,0,0,0,0,0,0,0,0,0,-1,1154,1149,0,0
-63,-125,0,0,0,0,0,0,0,0,0,-1,1161,1149,0,0
-56,-125,0,0,0,0,0,0,0,0,0,-1,1168,1149,0,0
-49,-125,0,0,0,0,0,0,0,0,0,-1,1175,1149,0,0
-42,-125,0,0,0,0,0,0,0,0,0,-1,1182,1149,0,0
-35,-125,0,0,0,0,0,0,0,0,0,-1,1189,1149,0,0
-28,-125,0,0,0,0,0,0,0,0,0,-1,1196,1149,0,0
-21,-125,0,0,0,0,0,0,0,0,0,-1,1203,1149,0,0
-14,-125,0,0,0,0,0,0,0,0,0,-1,1210,1149,0,0
-7,-125,0,0,0,0,0,0,0,0,0,-1,1217,1149,0,0
0,-125,0,0,0,0,0,0,0,0,0,-1,1224,1149,0,0
7,-125,0,0,0,0,0,0,0,0,0,-1,1231,1149,0,0
14,-125,0,0,0,0,0,0,0,0,0,-1,1238,1149,0,0
21,-125,0,0,0,0,0,0,0,0,0,-1,1245,1149,0,0
28,-125,0,0,0,0,0,0,0,0,0,-1,1252,1149,0,0
35,-125,0,0,0,0,0,0,0,0,0,-1,1259,1149,0,0
42,-125,0,0,0,0,0,0,0,0,0,-1,1266,1149,0,0
49,-125,0,0,0,0,0,0,0,0,0,-1,1273,1149,0,0
56,-125,0,0,0,0,0,0,0,0,0,-1,1280,1149,0,0
63,-125,0,0,0,0,0,0,0,0,0,-1,1287,1149,0,0
70,-125,0,0,0,0,0,0,0,0,0,-1,1294,1149,0,0
77,-125,0,0,0,0,0,0,0,0,0,-1,1301,1149,0,0
84,-125,0,0,0,0,0,0,0,0,0,-1,1308,1149,0,0
91,-125,0,0,0,0,0,0,0,0,0,-1,1315,1149,0,0
98,-125,0,0,0,0,0,0,0,0,0,-1,1322,1149,0,0
105,-125,0,0,0,0,0,0,0,0,0,-1,1329,1149,0,0
112,-125,0,0,0,0,0,0,0,0,0,-1,1336,1149,0,0
119,-125,0,0,0,0,0,0,0,0,0,-1,1343,1149,0,0
126,-125,0,0,0,0,0,0,0,0,0,-1,1350,1149,0,0
133,-125,0,0,0,0,0,0,0,0,0,-1,1357,1149,0,0
140,-125,0,0,0,0,0,0,0,0,0,-1,1364,1149,0,0
147,-125,0,0,0,0,0,0,0,0,0,-1,1371,1149,0,0
154,-125,0,0,0,0,0,0,0,0,0,-1,1378,1149,0,0
161,-125,0,0,0,0,0,0,0,0,0,-1,1385,1149,0,0
168,-125,0,0,0,0,0,0,0,0,0,-1,1392,1149,0,0
175,-125,0,0,0,0,0,0,0,0,0,-1,1399,1149,0,0
182,-125,0,0,0,0,0,0,0,0,0,-1,1406,1149,0,0
189,-125,0,0,0,0,0,0,0,0,0,-1,1413,1149,0,0
196,-125,0,0,0,0,0,0,0,0,0,-1,1420,1149,0,0
203,-125,0,0,0,0,0,0,0,0,0,-1,1427,1149,0,0
210,-125,0,0,0,0,0,0,0,0,0,-1,1434,1149,0,0
217,-125,0,0,0,0,0,0,0,0,0,-1,1441,1149,0,0
224,-125,0,0,0,0,0,0,0,0,0,-1,1448,1149,0,0
231,-125,0,0,0,0,0,0,0,0,0,-1,1455,1149,0,0
238,-125,0,0,0,0,0,0,0,0,0,-1,1462,1149,0,0
245,-125,0,0,0,0,0,0,0,0,0,-1,1469,1149,0,0
252,-125,0,0,0,0,0,0,0,0,0,-1,1476,1149,0,0
259,-125,0,0,0,0,0,0,0,0,0,-1,1483,1149,0,0
266,-125,0,0,0,0,0,0,0,0,0,-1,1490,1149,0,0
273,-125,0,0,0,0,0,0,0,0,0,-1,1497,1149,0,0
280,-125,0,0,0,0,0,0,0,0,0,-1,1504,1149,0,0
287,-125,0,0,0,0,0,0,0,0,0,-1,1511,1149,0,0
294,-125,0,0,0,0,0,0,0,0,0,-1,1518,1149,0,0
301,-125,0,0,0,0,0,0,0,0,0,-1,1525,1149,0,0
308,-125,0,0,0,0,0,0,0,0,0,-1,1532,1149,0,0
315,-125,0,0,0,0,0,0,0,0,0,-1,1539,1149,0,0
322,-125,0,0,0,0,0,0,0,0,0,-1,1546,1149,0,0
329,-125,0,0,0,0,0,0,0,0,0,-1,1553,1149,0,0
336,-125,0,0,0,0,0,0,0,0,0,-1,1560,1149,0,0
343,-125,0,0,0,0,0,0,0,0,0,-1,1567,1149,0,0
350,-125,0,0,0,0,0,0,0,0,0,-1,1574,1149,0,0
357,-125,0,0,0,0,0,0,0,0,0,-1,1581,1149,0,0
364,-125,0,0,0,0,0,0,0,0,0,-1,1588,1149,0,0
371,-125,0,0,0,0,0,0,0,0,0,-1,1595,1149,0,0
378,-125,0,0,0,0,0,0,0,0,0,-1,1602,1149,0,0
385,-125,0,0,0,0,0,0,0,0,0,-1,1609,1149,0,0
392,-125,0,0,0,0,0,0,0,0,0,-1,1616,1149,0,0
399,-125,0,0,0,0,0,0,0,0,0,-1,1623,1149,0,0
406,-125,0,0,0,0,0,0,0,0,0,-1,1630,1149,0,0
413,-125,0,0,0,0,0,0,0,0,0,-1,1637,1149,0,0
420,-125,0,0,0,0,0,0,0,0,0,-1,1644,1149,0,0
427,-125,0,0,0,0,0,0,0,0,0,-1,1651,1149,0,0
434,-125,0,0,0,0,0,0,0,0,0,-1,1658,1149,0,0
441,-125,0,0,0,0,0,0,0,0,0,-1,1665,1149,0,0
448,-125,0,0,0,0,0,0,0,0,0,-1,1672,1149,0,0
455,-125,0,0,0,0,0,0,0,0,0,-1,1679,1149,0,0
462,-125,0,0,0,0,0,0,0,0,0,-1,1686,1149,0,0
469,-125,0,0,0,0,0,0,0,0,0,-1,1693,1149,0,0
476,-125,0,0,0,0,0,0,0,0,0,-1,1700,1149,0,0
483,-125,0,0,0,0,0,0,0,0,0,-1,1707,1149,0,0
490,-125,0,0,0,0,0,0,0,0,0,-1,1714,1149,0,0
497,-125,0,0,0,0,0,0,0,0,0,-1,1721,1149,0,0
504,-125,0,0,0,0,0,0,0,0,0,-1,1728,1149,0,0
511,-125,0,0,0,0,0,0,0,0,0,-1,1735,1149,0,0
518,-125,0,0,0,0,0,0,0,0,0,-1,1742,1149,0,0
525,-125,0,0,0,0,0,0,0,0,0,-1,1749,1149,0,0
532,-125,0,0,0,0,0,0,0,0,0,-1,1756,1149,0,0
539,-125,0,0,0,0,0,0,0,0,0,-1,1763,1149,0,0
546,-125,0,0,0,0,0,0,0,0,0,-1,1770,1149,0,0
553,-125,0,0,0,0,0,0,0,0,0,-1,1777,1149,0,0
560,-125,0,0,0,0,0,0,0,0,0,-1,1784,1149,0,0
567,-125,0,0,0,0,0,0,0,0,0,-1,1791,1149,0,0
574,-125,0,0,0,0,0,0,0,0,0,-1,1798,1149,0,0
581,-125,0,0,0,0,0,0,0,0,0,-1,1805,1149,0,0
588,-125,0,0,0,0,0,0,0,0,0,-1,1812,1149,0,0
595,-125,0,0,0,0,0,0,0,0,0,-1,1819,1149,0,0
602,-125,0,0,0,0,0,0,0,0,0,-1,1826,1149,0,0
609,-125,0,0,0,0,0,0,0,0,0,-1,1833,1149,0,0
616,-125,0,0,0,0,0,0,0,0,0,-1,1840,1149,0,0
623,-125,0,0,0,0,0,0,0,0,0,-1,1847,1149,0,0
630,-125,0,0,0,0,0,0,0,0,0,-1,1854,1149,0,0
637,-125,0,0,0,0,0,0,0,0,0,-1,1861,1149,0,0
644,-125,17.254,2.55969,-0.00434013,-0.000392997,0.00097511,-0.000165245,-0.00456788,1.34134,0.0029917,0.041306,1868,1149,17.254,-2.55969
651,-125,17.1332,2.86487,-0.00317596,-0.000392573,-6.31931e-05,-0.000391139,-0.0031774,-1.54811,0.00200067,0.0420567,1875,1149,17.1332,-2.86488
658,-125,16.9841,2.77051,-0.00219023,-0.000323634,-0.000508179,-0.000194251,-0.00231962,-1.32149,0.0014859,0.0443803,1882,1149,16.9841,-2.77045
665,-125,16.9708,2.43115,-0.00215427,-0.000601553,-0.000112597,-0.00059343,-0.00216239,-1.49878,0.00129011,0.0442155,1889,1149,16.9709,-2.43118
672,-125,16.9846,2.29712,-0.00300151,-0.00114766,0.00104079,-0.000680872,-0.0034683,1.1492,0.00212197,0.045663,1896,1149,16.9846,-2.29714
679,-125,17.0232,2.47168,-0.00403734,-0.00168723,0.00225377,-0.000320584,-0.00540398,1.0257,0.00350069,0.0397783,1903,1149,17.0233,-2.47168
686,-125,17.0151,2.52979,-0.00511632,-0.00218569,0.00337958,3.25646e-05,-0.00733458,0.989955,0.00490061,0.0362679,1910,1149,17.0151,-2.52975
693,-125,16.9883,2.35632,-0.00599047,-0.00256093,0.00431192,0.000364679,-0.00891608,0.974651,0.00606927,0.03092,1917,1149,16.9883,-2.35637
700,-125,17.0817,2.43689,-0.00647091,-0.00288021,0.00490697,0.000549539,-0.00990066,0.960772,0.00679104,0.0136,1924,1149,17.0817,-2.43687
707,-125,17.0044,3.10327,0,0,0,0,0,0,0,-1,1931,1149,17.0044,-3.10326
714,-125,16.576,3.43799,-0.00718685,-0.00300532,0.00582386,0.0010917,-0.0112839,0.957733,0.00791163,0.0354224,1938,1149,16.576,-3.43796
721,-125,16.2251,3.68188,-0.00724466,-0.00279977,0.00590981,0.00129166,-0.0113361,0.965248,0.00802269,0.0164945,1945,1149,16.2251,-3.68193
728,-125,16.2385,3.61108,-0.0066031,-0.00244513,0.00558679,0.00143696,-0.0104852,0.963522,0.00751505,0.0121409,1952,1149,16.2386,-3.61104
735,-125,16.2035,3.55237,-0.0050091,-0.0018041,0.00512242,0.00196063,-0.00877384,0.936996,0.00660056,0.0159595,1959,1149,16.2035,-3.55231
742,-125,16.1591,3.4552,-0.00260918,-0.00187548,0.0042328,0.00200634,-0.006491,0.828624,0.00512864,0.0229016,1966,1149,16.1591,-3.45519
749,-125,16.2087,3.37512,-0.000118066,-0.000744908,0.00263911,0.00222617,-0.00308914,0.726295,0.00308225,0.0248889,1973,1149,16.2087,-3.37516
756,-125,16.2476,3.33252,0.00284005,0.00104687,0.000644147,0.00304746,0.000839471,0.311498,0.00181762,0.0195086,1980,1149,16.2475,-3.33252
763,-125,16.2362,3.27954,0.00655831,0.00253229,-0.00171325,0.00718867,0.00190192,-0.352562,0.00430101,0.010718,1987,1149,16.2362,-3.27948
770,-125,16.2404,3.20483,0.0103483,0.00440091,-0.00423342,0.0125481,0.00220115,-0.479219,0.00773676,0.013113,1994,1149,16.2403,-3.20488
777,-125,16.23,3.13745,0.0139702,0.00671469,-0.00709301,0.0183094,0.00237557,-0.549012,0.0114965,0.0249086,2001,1149,16.23,-3.1375
784,-125,16.3309,3.56946,0.0175747,0.0100408,-0.010981,0.0254169,0.0021986,-0.620167,0.0162614,0.042712,2008,1149,16.3309,-3.56946
791,-125,17.2823,4.7135,0.0209032,0.0148661,-0.0164355,0.034595,0.00117427,-0.694581,0.022682,0.0440076,2015,1149,17.2824,-4.71348
798,-125,17.4948,5.36829,0.0235287,0.0218282,-0.0238908,0.0465844,-0.00122748,-0.767611,0.0314734,0.0484189,2022,1149,17.4947,-5.36827
805,-125,17.6454,5.96423,0,0,0,0,0,0,0,-1,2029,1149,17.6454,-5.96427
812,-125,15.0896,3.77112,0,0,0,0,0,0,0,-1,2036,1149,15.0896,-3.77114
-700,-132,0,0,0,0,0,0,0,0,0,-1,524,1156,0,0
-693,-132,-6.43164,-0.150879,0,0,0,0,0,0,0,-1,531,1156,-6.43163,0.150919
-686,-132,-7.64417,0.189331,0,0,0,0,0,0,0,-1,538,1156,-7.64416,-0.189362
-679,-132,-7.91583,0.45813,-0.0505495,0.0168051,-0.0087875,0.0179327,-0.0516771,-1.44318,0.0417336,0.0483539,545,1156,-7.91583,-0.458139
-672,-132,-8.2027,0.72644,-0.039052,0.0165224,-0.0093404,0.0180502,-0.0405798,-1.40866,0.0346731,0.0426883,552,1156,-8.20267,-0.726402
-665,-132,-9.77582,0.683105,0,0,0,0,0,0,0,-1,559,1156,-9.7758,-0.683058
-658,-132,-9.70068,2.10449,-0.0217608,0.0133294,-0.0083417,0.0152115,-0.0236429,-1.34889,0.0226079,0.0426914,566,1156,-9.70071,-2.10449
-651,-132,-10.0223,0.821777,-0.015624,0.011134,-0.00725229,0.0129732,-0.0174632,-1.32243,0.0176361,0.0395852,573,1156,-10.0223,-0.821717
-644,-132,-9.94415,0.80957,-0.010878,0.00887923,-0.00601328,0.0105655,-0.0125642,-1.29739,0.0133706,0.0211551,580,1156,-9.94416,-0.80961
-637,-132,-9.88318,0.922241,-0.00722168,0.00706349,-0.0052668,0.00879535,-0.00895354,-1.25311,0.0102475,0.0112046,587,1156,-9.88317,-0.9222
-630,-132,-9.87787,0.985107,-0.00491633,0.00476665,-0.00469517,0.00666939,-0.00681907,-1.18577,0.00778773,0.0101923,594,1156,-9.87788,-0.985099
-623,-132,-9.89984,1.08252,-0.00378271,0.00240978,-0.00469293,0.00493585,-0.00630877,-1.077,0.00650819,0.0155043,601,1156,-9.89983,-1.08252
-616,-132,-9.94574,1.17139,-0.00388647,0.000405884,-0.00502095,0.00372011,-0.0072007,-0.987368,0.00641099,0.0199519,608,1156,-9.94573,-1.17144
-609,-132,-9.91144,1.24329,-0.00481314,-0.000922469,-0.00535844,0.00283282,-0.00856843,-0.959521,0.00685454,0.013365,615,1156,-9.91146,-1.24334
-602,-132,-9.93634,1.32703,-0.00583355,-0.00182338,-0.00561192,0.0021309,-0.00978783,-0.956976,0.00733937,0.011428,622,1156,-9.93631,-1.32699
-595,-132,-9.95575,1.45715,-0.0067338,-0.00243933,-0.0062048,0.00197927,-0.0111524,-0.951979,0.00817495,0.012083,629,1156,-9.95574,-1.45713
-588,-132,-9.89319,1.6051,-0.00747782,-0.00279213,-0.00675734,0.00201699,-0.0122869,-0.952269,0.00893979,0.0158311,636,1156,-9.89322,-1.60513
-581,-132,-10.1479,1.36853,-0.00777189,-0.00281926,-0.00697824,0.00210902,-0.0127002,-0.955898,0.00925028,0.0375944,643,1156,-10.1479,-1.36849
-574,-132,-10.4885,0.798828,-0.00766901,-0.00270973,-0.00706887,0.0023018,-0.0126805,-0.954085,0.00931623,0.0404253,650,1156,-10.4885,-0.79878
-567,-132,-10.8279,0.611572,-0.00728953,-0.00246252,-0.00682264,0.00236092,-0.012113,-0.955404,0.0089665,0.0364114,657,1156,-10.8279,-0.611617
-560,-132,-10.9275,0.494385,-0.00643641,-0.0020235,-0.00617309,0.00232561,-0.0107855,-0.957038,0.00807792,0.0369561,664,1156,-10.9275,-0.494405
-553,-132,-11.0145,0.456909,-0.00493729,-0.0014301,-0.00514475,0.00225171,-0.0086191,-0.949649,0.00662543,0.0393653,671,1156,-11.0145,-0.456851
-546,-132,-10.8911,0.646362,-0.00267908,-0.000740355,-0.00376462,0.0021777,-0.00559714,-0.911408,0.00463125,0.041306,678,1156,-10.8911,-0.646357
-539,-132,-10.9322,0.814819,0.000457336,-1.48341e-05,-0.00208637,0.00232093,-0.00187843,-0.72906,0.00242899,0.0416909,685,1156,-10.9322,-0.81482
-532,-132,-10.977,0.902588,0.00434865,0.000573147,-0.000648629,0.00445697,0.000464821,-0.16548,0.00282913,0.039446,692,1156,-10.977,-0.902606
-525,-132,-10.8591,0.661865,0.00697156,-9.19974e-05,-0.00175617,0.00738409,-0.000504529,-0.230721,0.00509923,0.0390507,699,1156,-10.8591,-0.661903
-518,-132,0,0,0,0,0,0,0,0,0,-1,706,1156,0,0
-511,-132,0,0,0,0,0,0,0,0,0,-1,713,1156,0,0
-504,-132,0,0,0,0,0,0,0,0,0,-1,720,1156,0,0
-497,-132,0,0,0,0,0,0,0,0,0,-1,727,1156,0,0
-490,-132,0,0,0,0,0,0,0,0,0,-1,734,1156,0,0
-483,-132,0,0,0,0,0,0,0,0,0,-1,741,1156,0,0
-476,-132,0,0,0,0,0,0,0,0,0,-1,748,1156,0,0
-469,-132,0,0,0,0,0,0,0,0,0,-1,755,1156,0,0
-462,-132,0,0,0,0,0,0,0,0,0,-1,762,1156,0,0
-455,-132,0,0,0,0,0,0,0,0,0,-1,769,1156,0,0
-448,-132,0,0,0,0,0,0,0,0,0,-1,776,1156,0,0
-441,-132,0,0,0,0,0,0,0,0,0,-1,783,1156,0,0
-434,-132,0,0,0,0,0,0,0,0,0,-1,790,1156,0,0
-427,-132,0,0,0,0,0,0,0,0,0,-1,797,1156,0,0
-420,-132,0,0,0,0,0,0,0,0,0,-1,804,1156,0,0
-413,-132,0,0,0,0,0,0,0,0,0,-1,811,1156,0,0
-406,-132,0,0,0,0,0,0,0,0,0,-1,818,1156,0,0
-399,-132,0,0,0,0,0,0,0,0,0,-1,825,1156,0,0
-392,-132,0,0,0,0,0,0,0,0,0,-1,832,1156,0,0
-385,-132,0,0,0,0,0,0,0,0,0,-1,839,1156,0,0
-378,-132,0,0,0,0,0,0,0,0,0,-1,846,1156,0,0
-371,-132,0,0,0,0,0,0,0,0,0,-1,853,1156,0,0
-364,-132,0,0,0,0,0,0,0,0,0,-1,860,1156,0,0
-357,-132,0,0,0,0,0,0,0,0,0,-1,867,1156,0,0
-350,-132,0,0,0,0,0,0,0,0,0,-1,874,1156,0,0
-343,-132,0,0,0,0,0,0,0,0,0,-1,881,1156,0,0
-336,-132,0,0,0,0,0,0,0,0,0,-1,888,1156,0,0
-329,-132,0,0,0,0,0,0,0,0,0,-1,895,1156,0,0
-322,-132,0,0,0,0,0,0,0,0,0,-1,902,1156,0,0
-315,-132,0,0,0,0,0,0,0,0,0,-1,909,1156,0,0
-308,-132,0,0,0,0,0,0,0,0,0,-1,916,1156,0,0
-301,-132,0,0,0,0,0,0,0,0,0,-1,923,1156,0,0
-294,-132,0,0,0,0,0,0,0,0,0,-1,930,1156,0,0
-287,-132,0,0,0,0,0,0,0,0,0,-1,937,1156,0,0
-280,-132,0,0,0,0,0,0,0,0,0,-1,944,1156,0,0
-273,-132,0,0,0,0,0,0,0,0,0,-1,951,1156,0,0
-266,-132,0,0,0,0,0,0,0,0,0,-1,958,1156,0,0
-259,-132,0,0,0,0,0,0,0,0,0,-1,965,1156,0,0
-252,-132,0,0,0,0,0,0,0,0,0,-1,972,1156,0,0
-245,-132,0,0,0,0,0,0,0,0,0,-1,979,1156,0,0
-238,-132,0,0,0,0,0,0,0,0,0,-1,986,1156,0,0
-231,-132,0,0,0,0,0,0,0,0,0,-1,993,1156,0,0
-224,-132,0,0,0,0,0,0,0,0,0,-1,1000,1156,0,0
-217,-132,0,0,0,0,0,0,0,0,0,-1,1007,1156,0,0
-210,-132,0,0,0,0,0,0,0,0,0,-1,1014,1156,0,0
-203,-132,0,0,0,0,0,0,0,0,0,-1,1021,1156,0,0
-196,-132,0,0,0,0,0,0,0,0,0,-1,1028,1156,0,0
-189,-132,0,0,0,0,0,0,0,0,0,-1,1035,1156,0,0
-182,-132,0,0,0,0,0,0,0,0,0,-1,1042,1156,0,0
-175,-132,0,0,0,0,0,0,0,0,0,-1,1049,1156,0,0
-168,-132,0,0,0,0,0,0,0,0,0,-1,1056,1156,0,0
-161,-132,0,0,0,0,0,0,0,0,0,-1,1063,1156,0,0
-154,-132,0,0,0,0,0,0,0,0,0,-1,1070,1156,0,0
-147,-132,0,0,0,0,0,0,0,0,0,-1,1077,1156,0,0
-140,-132,0,0,0,0,0,0,0,0,0,-1,1084,1156,0,0
-133,-132,0,0,0,0,0,0,0,0,0,-1,1091,1156,0,0
-126,-132,0,0,0,0,0,0,0,0,0,-1,1098,1156,0,0
-119,-132,0,0,0,0,0,0,0,0,0,-1,1105,1156,0,0
-112,-132,0,0,0,0,0,0,0,0,0,-1,1112,1156,0,0
-105,-132,0,0,0,0,0,0,0,0,0,-1,1119,1156,0,0
-98,-132,0,0,0,0,0,0,0,0,0,-1,1126,1156,0,0
-91,-132,0,0,0,0,0,0,0,0,0,-1,1133,1156,0,0
-84,-132,0,0,0,0,0,0,0,0,0,-1,1140,1156,0,0
-77,-132,0,0,0,0,0,0,0,0,0,-1,1147,1156,0,0
-70,-132,0,0,0,0,0,0,0,0,0,-1,1154,1156,0,0
-63,-132,0,0,0,0,0,0,0,0,0,-1,1161,1156,0,0
-56,-132,0,0,0,0,0,0,0,0,0,-1,1168,1156,0,0
-49,-132,0,0,0,0,0,0,0,0,0,-1,1175,1156,0,0
-42,-132,0,0,0,0,0,0,0,0,0,-1,1182,1156,0,0
-35,-132,0,0,0,0,0,0,0,0,0,-1,1189,1156,0,0
-28,-132,0,0,0,0,0,0,0,0,0,-1,1196,1156,0,0
-21,-132,0,0,0,0,0,0,0,0,0,-1,1203,1156,0,0
-14,-132,0,0,0,0,0,0,0,0,0,-1,1210,1156,0,0
-7,-132,0,0,0,0,0,0,0,0,0,-1,1217,1156,0,0
0,-132,0,0,0,0,0,0,0,0,0,-1,1224,1156,0,0
7,-132,0,0,0,0,0,0,0,0,0,-1,1231,1156,0,0
14,-132,0,0,0,0,0,0,0,0,0,-1,1238,1156,0,0
21,-132,0,0,0,0,0,0,0,0,0,-1,1245,1156,0,0
28,-132,0,0,0,0,0,0,0,0,0,-1,1252,1156,0,0
35,-132,0,0,0,0,0,0,0,0,0,-1,1259,1156,0,0
42,-132,0,0,0,0,0,0,0,0,0,-1,1266,1156,0,0
49,-132,0,0,0,0,0,0,0,0,0,-1,1273,1156,0,0
56,-132,0,0,0,0,0,0,0,0,0,-1,1280,1156,0,0
63,-132,0,0,0,0,0,0,0,0,0,-1,1287,1156,0,0
70,-132,0,0,0,0,0,0,0,0,0,-1,1294,1156,0,0
77,-132,0,0,0,0,0,0,0,0,0,-1,1301,1156,0,0
84,-132,0,0,0,0,0,0,0,0,0,-1,1308,1156,0,0
91,-132,0,0,0,0,0,0,0,0,0,-1,1315,1156,0,0
98,-132,0,0,0,0,0,0,0,0,0,-1,1322,1156,0,0
105,-132,0,0,0,0,0,0,0,0,0,-1,1329,1156,0,0
112,-132,0,0,0,0,0,0,0,0,0,-1,1336,1156,0,0
119,-132,0,0,0,0,0,0,0,0,0,-1,1343,1156,0,0
126,-132,0,0,0,0,0,0,0,0,0,-1,1350,1156,0,0
133,-132,0,0,0,0,0,0,0,0,0,-1,1357,1156,0,0
140,-132,0,0,0,0,0,0,0,0,0,-1,1364,1156,0,0
147,-132,0,0,0,0,0,0,0,0,0,-1,1371,1156,0,0
154,-132,0,0,0,0,0,0,0,0,0,-1,1378,1156,0,0
161,-132,0,0,0,0,0,0,0,0,0,-1,1385,1156,0,0
168,-132,0,0,0,0,0,0,0,0,0,-1,1392,1156,0,0
175,-132,0,0,0,0,0,0,0,0,0,-1,1399,1156,0,0
182,-132,0,0,0,0,0,0,0,0,0,-1,1406,1156,0,0
189,-132,0,0,0,0,0,0,0,0,0,-1,1413,1156,0,0
196,-132,0,0,0,0,0,0,0,0,0,-1,1420,1156,0,0
203,-132,0,0,0,0,0,0,0,0,0,-1,1427,1156,0,0
210,-132,0,0,0,0,0,0,0,0,0,-1,1434,1156,0,0
217,-132,0,0,0,0,0,0,0,0,0,-1,1441,1156,0,0
224,-132,0,0,0,0,0,0,0,0,0,-1,1448,1156,0,0
231,-132,0,0,0,0,0,0,0,0,0,-1,1455,1156,0,0
238,-132,0,0,0,0,0,0,0,0,0,-1,1462,1156,0,0
245,-132,0,0,0,0,0,0,0,0,0,-1,1469,1156,0,0
252,-132,0,0,0,0,0,0,0,0,0,-1,1476,1156,0,0
259,-132,0,0,0,0,0,0,0,0,0,-1,1483,1156,0,0
266,-132,0,0,0,0,0,0,0,0,0,-1,1490,1156,0,0
273,-132,0,0,0,0,0,0,0,0,0,-1,1497,1156,0,0
280,-132,0,0,0,0,0,0,0,0,0,-1,1504,1156,0,0
287,-132,0,0,0,0,0,0,0,0,0,-1,1511,1156,0,0
294,-132,0,0,0,0,0,0,0,0,0,-1,1518,1156,0,0
301,-132,0,0,0,0,0,0,0,0,0,-1,1525,1156,0,0
308,-132,0,0,0,0,0,0,0,0,0,-1,1532,1156,0,0
315,-132,0,0,0,0,0,0,0,0,0,-1,1539,1156,0,0
322,-132,0,0,0,0,0,0,0,0,0,-1,1546,1156,0,0
329,-132,0,0,0,0,0,0,0,0,0,-1,1553,1156,0,0
336,-132,0,0,0,0,0,0,0,0,0,-1,1560,1156,0,0
343,-132,0,0,0,0,0,0,0,0,0,-1,1567,1156,0,0
350,-132,0,0,0,0,0,0,0,0,0,-1,1574,1156,0,0
357,-132,0,0,0,0,0,0,0,0,0,-1,1581,1156,0,0
364,-132,0,0,0,0,0,0,0,0,0,-1,1588,1156,0,0
371,-132,0,0,0,0,0,0,0,0,0,-1,1595,1156,0,0
378,-132,0,0,0,0,0,0,0,0,0,-1,1602,1156,0,0
385,-132,0,0,0,0,0,0,0,0,0,-1,1609,1156,0,0
392,-132,0,0,0,0,0,0,0,0,0,-1,1616,1156,0,0
399,-132,0,0,0,0,0,0,0,0,0,-1,1623,1156,0,0
406,-132,0,0,0,0,0,0,0,0,0,-1,1630,1156,0,0
413,-132,0,0,0,0,0,0,0,0,0,-1,1637,1156,0,0
420,-132,0,0,0,0,0,0,0,0,0,-1,1644,1156,0,0
427,-132,0,0,0,0,0,0,0,0,0,-1,1651,1156,0,0
434,-132,0,0,0,0,0,0,0,0,0,-1,1658,1156,0,0
441,-132,0,0,0,0,0,0,0,0,0,-1,1665,1156,0,0
448,-132,0,0,0,0,0,0,0,0,0,-1,1672,1156,0,0
455,-132,0,0,0,0,0,0,0,0,0,-1,1679,1156,0,0
462,-132,0,0,0,0,0,0,0,0,0,-1,1686,1156,0,0
469,-132,0,0,0,0,0,0,0,0,0,-1,1693,1156,0,0
476,-132,0,0,0,0,0,0,0,0,0,-1,1700,1156,0,0
483,-132,0,0,0,0,0,0,0,0,0,-1,1707,1156,0,0
490,-132,0,0,0,0,0,0,0,0,0,-1,1714,1156,0,0
497,-132,0,0,0,0,0,0,0,0,0,-1,1721,1156,0,0
504,-132,0,0,0,0,0,0,0,0,0,-1,1728,1156,0,0
511,-132,0,0,0,0,0,0,0,0,0,-1,1735,1156,0,0
518,-132,0,0,0,0,0,0,0,0,0,-1,1742,1156,0,0
525,-132,0,0,0,0,0,0,0,0,0,-1,1749,1156,0,0
532,-132,0,0,0,0,0,0,0,0,0,-1,1756,1156,0,0
539,-132,0,0,0,0,0,0,0,0,0,-1,1763,1156,0,0
546,-132,0,0,0,0,0,0,0,0,0,-1,1770,1156,0,0
553,-132,0,0,0,0,0,0,0,0,0,-1,1777,1156,0,0
560,-132,0,0,0,0,0,0,0,0,0,-1,1784,1156,0,0
567,-132,0,0,0,0,0,0,0,0,0,-1,1791,1156,0,0
574,-132,0,0,0,0,0,0,0,0,0,-1,1798,1156,0,0
581,-132,0,0,0,0,0,0,0,0,0,-1,1805,1156,0,0
588,-132,0,0,0,0,0,0,0,0,0,-1,1812,1156,0,0
595,-132,0,0,0,0,0,0,0,0,0,-1,1819,1156,0,0
602,-132,0,0,0,0,0,0,0,0,0,-1,1826,1156,0,0
609,-132,0,0,0,0,0,0,0,0,0,-1,1833,1156,0,0
616,-132,0,0,0,0,0,0,0,0,0,-1,1840,1156,0,0
623,-132,0,0,0,0,0,0,0,0,0,-1,1847,1156,0,0
630,-132,0,0,0,0,0,0,0,0,0,-1,1854,1156,0,0
637,-132,0,0,0,0,0,0,0,0,0,-1,1861,1156,0,0
644,-132,17.1451,2.51416,-0.00458934,0.000736013,0.00142223,0.00109204,-0.00494537,1.32551,0.00371483,0.0432369,1868,1156,17.1452,-2.51415
651,-132,16.9338,2.66492,-0.00316174,0.000702099,0.000252345,0.00071851,-0.00317815,1.50585,0.00239448,0.0408784,1875,1156,16.9338,-2.66495
658,-132,16.9431,2.74524,-0.00215166,0.000642689,-0.000228068,0.000661181,-0.00217015,-1.48989,0.0017103,0.0402837,1882,1156,16.9431,-2.74524
665,-132,16.9738,2.34668,-0.00222966,0.000190813,0.000176475,0.000203612,-0.00224245,1.4984,0.00156726,0.0409356,1889,1156,16.9738,-2.34669
672,-132,16.9404,2.36084,-0.00307859,-0.000453715,0.0011792,-1.77964e-06,-0.00353053,1.20481,0.00235309,0.0392504,1896,1156,16.9405,-2.36083
679,-132,16.9801,2.50403,-0.00408252,-0.00107206,0.00222646,0.00011024,-0.00526482,1.08264,0.0035472,0.0390688,1903,1156,16.9801,-2.50397
686,-132,16.998,2.45605,-0.00510742,-0.0016272,0.00320301,0.000277863,-0.00701248,1.03423,0.00477031,0.0370532,1910,1156,16.998,-2.45604
693,-132,17.0173,2.41992,-0.00592459,-0.00204224,0.00400225,0.000464751,-0.00843159,1.01119,0.0057822,0.0267863,1917,1156,17.0173,-2.41991
700,-132,17.1215,2.46045,-0.00636318,-0.00242145,0.00448718,0.000508619,-0.00929324,0.992325,0.00637181,0.0258995,1924,1156,17.1214,-2.46049
707,-132,16.7371,3.30518,0,0,0,0,0,0,0,-1,1931,1156,16.7371,-3.30512
714,-132,16.3333,3.62402,-0.00704136,-0.00268491,0.00524646,0.000817533,-0.0105438,0.98216,0.00731695,0.0302433,1938,1156,16.3332,-3.62408
721,-132,16.1283,3.71033,-0.0070655,-0.0025073,0.00530013,0.000982975,-0.0105558,0.98845,0.00738667,0.0213749,1945,1156,16.1283,-3.71036
728,-132,16.158,3.62317,-0.00636582,-0.00217186,0.00497079,0.00112616,-0.00966384,0.985002,0.00684888,0.0129222,1952,1156,16.1579,-3.62315
735,-132,16.1489,3.53833,-0.00467079,-0.00151965,0.00450154,0.00167409,-0.00786452,0.953739,0.00588101,0.0155318,1959,1156,16.149,-3.53827
742,-132,16.1024,3.45898,-0.00209268,-0.00162272,0.00360151,0.00175146,-0.00546687,0.817974,0.00434763,0.0194784,1966,1156,16.1024,-3.45902
749,-132,16.1315,3.3844,0.000606589,-0.000513785,0.00193983,0.0020655,-0.0019727,0.644832,0.00233166,0.0229943,1973,1156,16.1315,-3.38443
756,-132,16.1797,3.30786,0.00389887,0.00135649,-0.00015178,0.0039079,0.00134746,-0.0594188,0.00229217,0.0209448,1980,1156,16.1797,-3.30789
763,-132,16.1653,3.25562,0.00796001,0.00293616,-0.0025454,0.00902423,0.00187194,-0.396008,0.00549942,0.0121571,1987,1156,16.1652,-3.25566
770,-132,16.1749,3.19702,0.0121388,0.00490708,-0.00514768,0.0148137,0.00223223,-0.479222,0.0092222,0.0124002,1994,1156,16.1749,-3.19703
777,-132,16.1844,3.12549,0.016323,0.00742566,-0.00822892,0.0212288,0.00251988,-0.537594,0.0133918,0.0209354,2001,1156,16.1844,-3.1255
784,-132,16.1687,3.07581,0.0206317,0.011063,-0.0124339,0.02917,0.00252469,-0.601738,0.0186621,0.0427354,2008,1156,16.1686,-3.0758
791,-132,16.1754,3.03003,0,0,0,0,0,0,0,-1,2015,1156,16.1754,-3.02999
798,-132,18.2504,5.62646,0,0,0,0,0,0,0,-1,2022,1156,18.2504,-5.62649
805,-132,20.2803,0.065918,0,0,0,0,0,0,0,-1,2029,1156,20.2804,-0.0659233
812,-132,15.707,3.38147,0,0,0,0,0,0,0,-1,2036,1156,15.7069,-3.38149
-700,-139,0,0,0,0,0,0,0,0,0,-1,524,1163,0,0
-693,-139,-9.71375,5.57581,0,0,0,0,0,0,0,-1,531,1163,-9.71373,-5.57586
-686,-139,-7.78699,0.311279,0,0,0,0,0,0,0,-1,538,1163,-7.78697,-0.311239
-679,-139,-8.06036,0.540161,0,0,0,0,0,0,0,-1,545,1163,-8.06036,-0.540156
-672,-139,-9.58649,0.433228,0,0,0,0,0,0,0,-1,552,1163,-9.58647,-0.433214
-665,-139,-9.56946,0.503418,-0.0295137,0.018932,-0.0115505,0.0215449,-0.0321267,-1.34832,0.0311874,0.0446181,559,1163,-9.56945,-0.503422
-658,-139,-9.57397,0.569702,-0.021846,0.0162401,-0.0104506,0.0189193,-0.0245251,-1.31984,0.0251521,0.0423009,566,1163,-9.57397,-0.569716
-651,-139,-9.69629,0.656616,-0.0157954,0.0133663,-0.00896927,0.0159041,-0.0183332,-1.29506,0.0197835,0.0384296,573,1163,-9.69629,-0.656572
-644,-139,-9.80267,0.748535,-0.0111059,0.0105458,-0.00733342,0.0127958,-0.0133559,-1.2731,0.0150999,0.0212279,580,1163,-9.80267,-0.74857
-637,-139,-9.78986,0.875122,-0.00736174,0.00820055,-0.00620615,0.0103724,-0.00953361,-1.23416,0.0114962,0.0120261,587,1163,-9.78983,-0.875123
-630,-139,-9.78143,0.975586,-0.00505074,0.00557825,-0.00527144,0.0077492,-0.00722169,-1.18013,0.00864523,0.010799,594,1163,-9.78141,-0.975605
-623,-139,-9.80103,1.07532,-0.00391276,0.00296087,-0.00499515,0.00558732,-0.00653921,-1.08672,0.00700844,0.0171016,601,1163,-9.80104,-1.07535
-616,-139,-9.8512,1.13867,-0.0038419,0.000854912,-0.00516749,0.00418259,-0.00716958,-0.998676,0.00662937,0.0179408,608,1163,-9.85123,-1.13871
-609,-139,-9.81708,1.24841,-0.00464827,-0.000599881,-0.00541546,0.00315732,-0.00840547,-0.964249,0.00690119,0.0206008,615,1163,-9.81708,-1.24841
-602,-139,-9.84143,1.37073,-0.0056185,-0.00151471,-0.00576296,0.00255074,-0.00968395,-0.956425,0.00745316,0.0132911,622,1163,-9.84144,-1.37069
-595,-139,-9.86035,1.48474,-0.00647542,-0.00210417,-0.00649347,0.00256164,-0.0111412,-0.947737,0.00841238,0.0117035,629,1163,-9.86035,-1.48477
-588,-139,-9.79791,1.6156,-0.00713033,-0.00239633,-0.00718654,0.00280298,-0.0123296,-0.944486,0.00929603,0.0151764,636,1163,-9.79793,-1.61557
-581,-139,-9.83429,1.62744,-0.00733298,-0.00234756,-0.0075365,0.00309777,-0.0127783,-0.945111,0.00971746,0.0355532,643,1163,-9.83428,-1.62749
-574,-139,-10.259,0.910889,-0.00714352,-0.00213945,-0.00774788,0.00350037,-0.0127833,-0.941578,0.00989754,0.0435939,650,1163,-10.259,-0.910838
-567,-139,-10.8151,0.431641,0,0,0,0,0,0,0,-1,657,1163,-10.8151,-0.431605
-560,-139,-10.8373,0.546997,-0.00579434,-0.00138305,-0.0071113,0.00385681,-0.0110342,-0.935774,0.00892401,0.0369598,664,1163,-10.8373,-0.54694
-553,-139,-10.9346,0.510254,-0.00427777,-0.000797442,-0.00616031,0.00386377,-0.00893898,-0.923051,0.00758279,0.040467,671,1163,-10.9346,-0.510315
-546,-139,-10.9905,0.674438,-0.00203237,-0.00016095,-0.00480355,0.00379717,-0.0059905,-0.881592,0.00569801,0.0420248,678,1163,-10.9905,-0.674474
-539,-139,-10.9297,0.825195,0.00104524,0.00045912,-0.00307888,0.00384497,-0.00234061,-0.737949,0.00360628,0.041056,685,1163,-10.9297,-0.825217
-532,-139,-10.9079,0.74646,0.00493955,0.000913641,-0.00136986,0.00536144,0.000491744,-0.298767,0.00342218,0.0391086,692,1163,-10.9079,-0.74652
-525,-139,-10.8262,0.586426,0.00783644,0.000186707,-0.00173319,0.00821081,-0.000187659,-0.21273,0.00553749,0.0398306,699,1163,-10.8263,-0.586422
-518,-139,0,0,0,0,0,0,0,0,0,-1,706,1163,0,0
-511,-139,0,0,0,0,0,0,0,0,0,-1,713,1163,0,0
-504,-139,0,0,0,0,0,0,0,0,0,-1,720,1163,0,0
-497,-139,0,0,0,0,0,0,0,0,0,-1,727,1163,0,0
-490,-139,0,0,0,0,0,0,0,0,0,-1,734,1163,0,0
-483,-139,0,0,0,0,0,0,0,0,0,-1,741,1163,0,0
-476,-139,0,0,0,0,0,0,0,0,0,-1,748,1163,0,0
-469,-139,0,0,0,0,0,0,0,0,0,-1,755,1163,0,0
-462,-139,0,0,0,0,0,0,0,0,0,-1,762,1163,0,0
-455,-139,0,0,0,0,0,0,0,0,0,-1,769,1163,0,0
-448,-139,0,0,0,0,0,0,0,0,0,-1,776,1163,0,0
-441,-139,0,0,0,0,0,0,0,0,0,-1,783,1163,0,0
-434,-139,0,0,0,0,0,0,0,0,0,-1,790,1163,0,0
-427,-139,0,0,0,0,0,0,0,0,0,-1,797,1163,0,0
-420,-139,0,0,0,0,0,0,0,0,0,-1,804,1163,0,0
-413,-139,0,0,0,0,0,0,0,0,0,-1,811,1163,0,0
-406,-139,0,0,0,0,0,0,0,0,0,-1,818,1163,0,0
-399,-139,0,0,0,0,0,0,0,0,0,-1,825,1163,0,0
-392,-139,0,0,0,0,0,0,0,0,0,-1,832,1163,0,0
-385,-139,0,0,0,0,0,0,0,0,0,-1,839,1163,0,0
-378,-139,0,0,0,0,0,0,0,0,0,-1,846,1163,0,0
-371,-139,0,0,0,0,0,0,0,0,0,-1,853,1163,0,0
-364,-139,0,0,0,0,0,0,0,0,0,-1,860,1163,0,0
-357,-139,0,0,0,0,0,0,0,0,0,-1,867,1163,0,0
-350,-139,0,0,0,0,0,0,0,0,0,-1,874,1163,0,0
-343,-139,0,0,0,0,0,0,0,0,0,-1,881,1163,0,0
-336,-139,0,0,0,0,0,0,0,0,0,-1,888,1163,0,0
-329,-139,0,0,0,0,0,0,0,0,0,-1,895,1163,0,0
-322,-139,0,0,0,0,0,0,0,0,0,-1,902,1163,0,0
-315,-139,0,0,0,0,0,0,0,0,0,-1,909,1163,0,0
-308,-139,0,0,0,0,0,0,0,0,0,-1,916,1163,0,0
-301,-139,0,0,0,0,0,0,0,0,0,-1,923,1163,0,0
-294,-139,0,0,0,0,0,0,0,0,0,-1,930,1163,0,0
-287,-139,0,0,0,0,0,0,0,0,0,-1,937,1163,0,0
-280,-139,0,0,0,0,0,0,0,0,0,-1,944,1163,0,0
-273,-139,0,0,0,0,0,0,0,0,0,-1,951,1163,0,0
-266,-139,0,0,0,0,0,0,0,0,0,-1,958,1163,0,0
-259,-139,0,0,0,0,0,0,0,0,0,-1,965,1163,0,0
-252,-139,0,0,0,0,0,0,0,0,0,-1,972,1163,0,0
-245,-139,0,0,0,0,0,0,0,0,0,-1,979,1163,0,0
-238,-139,0,0,0,0,0,0,0,0,0,-1,986,1163,0,0
-231,-139,0,0,0,0,0,0,0,0,0,-1,993,1163,0,0
-224,-139,0,0,0,0,0,0,0,0,0,-1,1000,1163,0,0
-217,-139,0,0,0,0,0,0,0,0,0,-1,1007,1163,0,0
-210,-139,0,0,0,0,0,0,0,0,0,-1,1014,1163,0,0
-203,-139,0,0,0,0,0,0,0,0,0,-1,1021,1163,0,0
-196,-139,0,0,0,0,0,0,0,0,0,-1,1028,1163,0,0
-189,-139,0,0,0,0,0,0,0,0,0,-1,1035,1163,0,0
-182,-139,0,0,0,0,0,0,0,0,0,-1,1042,1163,0,0
-175,-139,0,0,0,0,0,0,0,0,0,-1,1049,1163,0,0
-168,-139,0,0,0,0,0,0,0,0,0,-1,1056,1163,0,0
-161,-139,0,0,0,0,0,0,0,0,0,-1,1063,1163,0,0
-154,-139,0,0,0,0,0,0,0,0,0,-1,1070,1163,0,0
-147,-139,0,0,0,0,0,0,0,0,0,-1,1077,1163,0,0
-140,-139,0,0,0,0,0,0,0,0,0,-1,1084,1163,0,0
-133,-139,0,0,0,0,0,0,0,0,0,-1,1091,1163,0,0
-126,-139,0,0,0,0,0,0,0,0,0,-1,1098,1163,0,0
-119,-139,0,0,0,0,0,0,0,0,0,-1,1105,1163,0,0
-112,-139,0,0,0,0,0,0,0,0,0,-1,1112,1163,0,0
-105,-139,0,0,0,0,0,0,0,0,0,-1,1119,1163,0,0
-98,-139,0,0,0,0,0,0,0,0,0,-1,1126,1163,0,0
-91,-139,0,0,0,0,0,0,0,0,0,-1,1133,1163,0,0
-84,-139,0,0,0,0,0,0,0,0,0,-1,1140,1163,0,0
-77,-139,0,0,0,0,0,0,0,0,0,-1,1147,1163,0,0
-70,-139,0,0,0,0,0,0,0,0,0,-1,1154,1163,0,0
-63,-139,0,0,0,0,0,0,0,0,0,-1,1161,1163,0,0
-56,-139,0,0,0,0,0,0,0,0,0,-1,1168,1163,0,0
-49,-139,0,0,0,0,0,0,0,0,0,-1,1175,1163,0,0
-42,-139,0,0,0,0,0,0,0,0,0,-1,1182,1163,0,0
-35,-139,0,0,0,0,0,0,0,0,0,-1,1189,1163,0,0
-28,-139,0,0,0,0,0,0,0,0,0,-1,1196,1163,0,0
-21,-139,0,0,0,0,0,0,0,0,0,-1,1203,1163,0,0
-14,-139,0,0,0,0,0,0,0,0,0,-1,1210,1163,0,0
-7,-139,0,0,0,0,0,0,0,0,0,-1,1217,1163,0,0
0,-139,0,0,0,0,0,0,0,0,0,-1,1224,1163,0,0
7,-139,0,0,0,0,0,0,0,0,0,-1,1231,1163,0,0
14,-139,0,0,0,0,0,0,0,0,0,-1,1238,1163,0,0
21,-139,0,0,0,0,0,0,0,0,0,-1,1245,1163,0,0
28,-139,0,0,0,0,0,0,0,0,0,-1,1252,1163,0,0
35,-139,0,0,0,0,0,0,0,0,0,-1,1259,1163,0,0
42,-139,0,0,0,0,0,0,0,0,0,-1,1266,1163,0,0
49,-139,0,0,0,0,0,0,0,0,0,-1,1273,1163,0,0
56,-139,0,0,0,0,0,0,0,0,0,-1,1280,1163,0,0
63,-139,0,0,0,0,0,0,0,0,0,-1,1287,1163,0,0
70,-139,0,0,0,0,0,0,0,0,0,-1,1294,1163,0,0
77,-139,0,0,0,0,0,0,0,0,0,-1,1301,1163,0,0
84,-139,0,0,0,0,0,0,0,0,0,-1,1308,1163,0,0
91,-139,0,0,0,0,0,0,0,0,0,-1,1315,1163,0,0
98,-139,0,0,0,0,0,0,0,0,0,-1,1322,1163,0,0
105,-139,0,0,0,0,0,0,0,0,0,-1,1329,1163,0,0
112,-139,0,0,0,0,0,0,0,0,0,-1,1336,1163,0,0
119,-139,0,0,0,0,0,0,0,0,0,-1,1343,1163,0,0
126,-139,0,0,0,0,0,0,0,0,0,-1,1350,1163,0,0
133,-139,0,0,0,0,0,0,0,0,0,-1,1357,1163,0,0
140,-139,0,0,0,0,0,0,0,0,0,-1,1364,1163,0,0
147,-139,0,0,0,0,0,0,0,0,0,-1,1371,1163,0,0
154,-139,0,0,0,0,0,0,0,0,0,-1,1378,1163,0,0
161,-139,0,0,0,0,0,0,0,0,0,-1,1385,1163,0,0
168,-139,0,0,0,0,0,0,0,0,0,-1,1392,1163,0,0
175,-139,0,0,0,0,0,0,0,0,0,-1,1399,1163,0,0
182,-139,0,0,0,0,0,0,0,0,0,-1,1406,1163,0,0
189,-139,0,0,0,0,0,0,0,0,0,-1,1413,1163,0,0
196,-139,0,0,0,0,0,0,0,0,0,-1,1420,1163,0,0
203,-139,0,0,0,0,0,0,0,0,0,-1,1427,1163,0,0
210,-139,0,0,0,0,0,0,0,0,0,-1,1434,1163,0,0
217,-139,0,0,0,0,0,0,0,0,0,-1,1441,1163,0,0
224,-139,0,0,0,0,0,0,0,0,0,-1,1448,1163,0,0
231,-139,0,0,0,0,0,0,0,0,0,-1,1455,1163,0,0
238,-139,0,0,0,0,0,0,0,0,0,-1,1462,1163,0,0
245,-139,0,0,0,0,0,0,0,0,0,-1,1469,1163,0,0
252,-139,0,0,0,0,0,0,0,0,0,-1,1476,1163,0,0
259,-139,0,0,0,0,0,0,0,0,0,-1,1483,1163,0,0
266,-139,0,0,0,0,0,0,0,0,0,-1,1490,1163,0,0
273,-139,0,0,0,0,0,0,0,0,0,-1,1497,1163,0,0
280,-139,0,0,0,0,0,0,0,0,0,-1,1504,1163,0,0
287,-139,0,0,0,0,0,0,0,0,0,-1,1511,1163,0,0
294,-139,0,0,0,0,0,0,0,0,0,-1,1518,1163,0,0
301,-139,0,0,0,0,0,0,0,0,0,-1,1525,1163,0,0
308,-139,0,0,0,0,0,0,0,0,0,-1,1532,1163,0,0
315,-139,0,0,0,0,0,0,0,0,0,-1,1539,1163,0,0
322,-139,0,0,0,0,0,0,0,0,0,-1,1546,1163,0,0
329,-139,0,0,0,0,0,0,0,0,0,-1,1553,1163,0,0
336,-139,0,0,0,0,0,0,0,0,0,-1,1560,1163,0,0
343,-139,0,0,0,0,0,0,0,0,0,-1,1567,1163,0,0
350,-139,0,0,0,0,0,0,0,0,0,-1,1574,1163,0,0
357,-139,0,0,0,0,0,0,0,0,0,-1,1581,1163,0,0
364,-139,0,0,0,0,0,0,0,0,0,-1,1588,1163,0,0
371,-139,0,0,0,0,0,0,0,0,0,-1,1595,1163,0,0
378,-139,0,0,0,0,0,0,0,0,0,-1,1602,1163,0,0
385,-139,0,0,0,0,0,0,0,0,0,-1,1609,1163,0,0
392,-139,0,0,0,0,0,0,0,0,0,-1,1616,1163,0,0
399,-139,0,0,0,0,0,0,0,0,0,-1,1623,1163,0,0
406,-139,0,0,0,0,0,0,0,0,0,-1,1630,1163,0,0
413,-139,0,0,0,0,0,0,0,0,0,-1,1637,1163,0,0
420,-139,0,0,0,0,0,0,0,0,0,-1,1644,1163,0,0
427,-139,0,0,0,0,0,0,0,0,0,-1,1651,1163,0,0
434,-139,0,0,0,0,0,0,0,0,0,-1,1658,1163,0,0
441,-139,0,0,0,0,0,0,0,0,0,-1,1665,1163,0,0
448,-139,0,0,0,0,0,0,0,0,0,-1,1672,1163,0,0
455,-139,0,0,0,0,0,0,0,0,0,-1,1679,1163,0,0
462,-139,0,0,0,0,0,0,0,0,0,-1,1686,1163,0,0
469,-139,0,0,0,0,0,0,0,0,0,-1,1693,1163,0,0
476,-139,0,0,0,0,0,0,0,0,0,-1,1700,1163,0,0
483,-139,0,0,0,0,0,0,0,0,0,-1,1707,1163,0,0
490,-139,0,0,0,0,0,0,0,0,0,-1,1714,1163,0,0
497,-139,0,0,0,0,0,0,0,0,0,-1,1721,1163,0,0
504,-139,0,0,0,0,0,0,0,0,0,-1,1728,1163,0,0
511,-139,0,0,0,0,0,0,0,0,0,-1,1735,1163,0,0
518,-139,0,0,0,0,0,0,0,0,0,-1,1742,1163,0,0
525,-139,0,0,0,0,0,0,0,0,0,-1,1749,1163,0,0
532,-139,0,0,0,0,0,0,0,0,0,-1,1756,1163,0,0
539,-139,0,0,0,0,0,0,0,0,0,-1,1763,1163,0,0
546,-139,0,0,0,0,0,0,0,0,0,-1,1770,1163,0,0
553,-139,0,0,0,0,0,0,0,0,0,-1,1777,1163,0,0
560,-139,0,0,0,0,0,0,0,0,0,-1,1784,1163,0,0
567,-139,0,0,0,0,0,0,0,0,0,-1,1791,1163,0,0
574,-139,0,0,0,0,0,0,0,0,0,-1,1798,1163,0,0
581,-139,0,0,0,0,0,0,0,0,0,-1,1805,1163,0,0
588,-139,0,0,0,0,0,0,0,0,0,-1,1812,1163,0,0
595,-139,0,0,0,0,0,0,0,0,0,-1,1819,1163,0,0
602,-139,0,0,0,0,0,0,0,0,0,-1,1826,1163,0,0
609,-139,0,0,0,0,0,0,0,0,0,-1,1833,1163,0,0
616,-139,0,0,0,0,0,0,0,0,0,-1,1840,1163,0,0
623,-139,0,0,0,0,0,0,0,0,0,-1,1847,1163,0,0
630,-139,0,0,0,0,0,0,0,0,0,-1,1854,1163,0,0
637,-139,0,0,0,0,0,0,0,0,0,-1,1861,1163,0,0
644,-139,17.0592,2.63477,-0.00441852,0.00195731,0.00119724,0.00217472,-0.00463593,1.39117,0.0040168,0.0420726,1868,1163,17.0592,-2.63482
651,-139,17.05,2.64246,-0.00287924,0.00187111,0.000169596,0.00187716,-0.00288528,1.53515,0.00277005,0.0418867,1875,1163,17.05,-2.64246
658,-139,17.0873,2.57007,-0.00211231,0.00164011,-3.42579e-05,0.00164042,-0.00211262,-1.56167,0.00217253,0.0415908,1882,1163,17.0873,-2.57008
665,-139,17.0671,2.50732,-0.00248522,0.00101963,0.000611483,0.00112325,-0.00258884,1.40293,0.00219815,0.0380741,1889,1163,17.0672,-2.50727
672,-139,17.0508,2.58289,-0.00345539,0.00027589,0.00164268,0.000896015,-0.00407551,1.20983,0.00305973,0.0368782,1896,1163,17.0508,-2.58294
679,-139,17.0731,2.5575,-0.00451318,-0.000430744,0.00265819,0.000879534,-0.00582346,1.11283,0.00420625,0.0360475,1903,1163,17.0731,-2.55744
686,-139,17.0284,2.52917,-0.00552265,-0.00105783,0.00357113,0.000921241,-0.00750172,1.06474,0.00533481,0.0320693,1910,1163,17.0285,-2.52913
693,-139,17.0707,2.4696,-0.00628947,-0.00152708,0.00428178,0.000991089,-0.00880764,1.03916,0.00622846,0.0190245,1917,1163,17.0707,-2.46962
700,-139,17.0463,2.72876,0,0,0,0,0,0,0,-1,1924,1163,17.0463,-2.72879
707,-139,16.5718,3.23303,-0.00695996,-0.00225628,0.00495306,0.000874936,-0.0100912,1.00705,0.00703725,0.0254121,1931,1163,16.5717,-3.23297
714,-139,16.1051,3.80725,-0.00722088,-0.00236393,0.00519265,0.000940055,-0.0105249,1.00413,0.00734999,0.0262979,1938,1163,16.1051,-3.8073
721,-139,16.09,3.67249,-0.0071465,-0.00221722,0.00513767,0.0010164,-0.0103801,1.00904,0.00728256,0.0192972,1945,1163,16.09,-3.67242
728,-139,16.0884,3.60632,-0.00630971,-0.00191716,0.00473011,0.00110169,-0.00932856,1.00275,0.00661691,0.0205772,1952,1163,16.0883,-3.60631
735,-139,16.0781,3.54321,-0.00441664,-0.00126451,0.00419866,0.00164415,-0.0073253,0.964947,0.00551391,0.0164479,1959,1163,16.0782,-3.54316
742,-139,16.0795,3.4259,-0.00160919,-0.00134045,0.00322579,0.00175377,-0.00470341,0.806213,0.00385553,0.0207629,1966,1163,16.0794,-3.42587
749,-139,16.0675,3.35315,0.00134292,-0.000173869,0.00146833,0.00223715,-0.00106809,0.547017,0.00194766,0.0182054,1973,1163,16.0675,-3.3532
756,-139,16.0701,3.30286,0.00497804,0.00188961,-0.000678482,0.00512052,0.00174713,-0.206989,0.00300562,0.0104318,1980,1163,16.07,-3.3029
763,-139,16.0703,3.23169,0.00937373,0.00372576,-0.00298891,0.0106617,0.00243776,-0.406881,0.00645065,0.00945003,1987,1163,16.0704,-3.23164
770,-139,16.0693,3.15906,0.0139538,0.0060123,-0.00553149,0.0167922,0.00317392,-0.474097,0.0103011,0.0103898,1994,1163,16.0693,-3.15907
777,-139,16.079,3.07007,0.0187611,0.00904698,-0.00864562,0.0238206,0.0039875,-0.529472,0.0147322,0.0203939,2001,1163,16.079,-3.0701
784,-139,16.1356,3.01855,0.0238813,0.0134411,-0.0129126,0.0325891,0.00473331,-0.593309,0.0203328,0.0411052,2008,1163,16.1356,-3.01851
791,-139,16.1785,2.97974,0,0,0,0,0,0,0,-1,2015,1163,16.1784,-2.97977
798,-139,18.9609,0.514648,0,0,0,0,0,0,0,-1,2022,1163,18.9609,-0.514617
805,-139,19.9995,0.373901,0,0,0,0,0,0,0,-1,2029,1163,19.9994,-0.373874
812,-139,0,0,0,0,0,0,0,0,0,-1,2036,1163,0,0
-700,-146,0,0,0,0,0,0,0,0,0,-1,524,1170,0,0
-693,-146,-8.883,4.04932,0,0,0,0,0,0,0,-1,531,1170,-8.883,-4.04927
-686,-146,-7.87311,0.329468,0,0,0,0,0,0,0,-1,538,1170,-7.87314,-0.329412
-679,-146,-8.15051,0.641602,0,0,0,0,0,0,0,-1,545,1170,-8.15051,-0.641597
-672,-146,-8.47638,0.828735,-0.0364742,0.0245292,-0.0156928,0.0283293,-0.0402743,-1.33321,0.039808,0.0441799,552,1170,-8.47637,-0.828767
-665,-146,-9.16504,0.324097,-0.0276479,0.0216976,-0.0146218,0.0257048,-0.0316551,-1.30331,0.0331762,0.0447622,559,1170,-9.16506,-0.324039
-658,-146,-9.30212,0.30603,-0.0205315,0.0184546,-0.0129019,0.0223376,-0.0244144,-1.27846,0.0270012,0.0424048,566,1170,-9.30215,-0.306074
-651,-146,-9.49554,0.485962,-0.0149152,0.0151055,-0.010857,0.0186204,-0.0184301,-1.2577,0.0213912,0.0344991,573,1170,-9.49552,-0.485975
-644,-146,-9.66895,0.668091,-0.0105591,0.0118786,-0.0087306,0.0148754,-0.0135559,-1.24014,0.0164207,0.0195637,580,1170,-9.66893,-0.668072
-637,-146,-9.67065,0.841431,-0.00706077,0.00918422,-0.00711454,0.0118595,-0.00973604,-1.21113,0.0124883,0.0110472,587,1170,-9.67067,-0.841425
-630,-146,-9.67743,0.972412,-0.00482265,0.00629909,-0.00577687,0.00875666,-0.00728023,-1.16857,0.00927197,0.0110231,594,1170,-9.67743,-0.972453
-623,-146,-9.68878,1.07544,-0.00373418,0.00351873,-0.00517553,0.00621187,-0.00642733,-1.09099,0.0072976,0.0135351,601,1170,-9.68876,-1.07548
-616,-146,-9.74872,1.17834,-0.0035083,0.00129594,-0.00516638,0.00459134,-0.00680369,-1.00301,0.00662013,0.0189783,608,1170,-9.74873,-1.17838
-609,-146,-9.67584,1.26782,-0.00417422,-0.000266335,-0.00533368,0.00346004,-0.0079006,-0.960977,0.00672401,0.01758,615,1170,-9.67587,-1.2678
-602,-146,-9.71698,1.44092,-0.0051011,-0.00117537,-0.00575985,0.00294688,-0.00922336,-0.949619,0.00733135,0.0196947,622,1170,-9.717,-1.44091
-595,-146,-9.76935,1.50427,-0.00591295,-0.00174039,-0.0065999,0.00309512,-0.0107485,-0.938483,0.00838986,0.0116706,629,1170,-9.76936,-1.50424
-588,-146,-9.69537,1.62195,-0.00645224,-0.00200266,-0.00741128,0.00351057,-0.0119655,-0.931214,0.00936902,0.0138248,636,1170,-9.69539,-1.62192
-581,-146,-9.51489,1.51453,0,0,0,0,0,0,0,-1,643,1170,-9.51491,-1.51449
-574,-146,-10.1369,0.899292,0,0,0,0,0,0,0,-1,650,1170,-10.1369,-0.899313
-567,-146,-10.759,0.28418,0,0,0,0,0,0,0,-1,657,1170,-10.759,-0.284137
-560,-146,-10.8257,0.669312,-0.00489463,-0.000845688,-0.00775147,0.00514132,-0.0108816,-0.913131,0.00944667,0.0367802,664,1170,-10.8257,-0.669298
-553,-146,-10.799,0.762573,-0.00345842,-0.000286225,-0.00688152,0.00518962,-0.00893426,-0.898663,0.0082494,0.038922,671,1170,-10.799,-0.762571
-546,-146,-10.7678,0.699219,-0.00136443,0.00027644,-0.00555569,0.00507194,-0.00615993,-0.858706,0.00649486,0.0421311,678,1170,-10.7677,-0.699209
-539,-146,-10.8479,0.662231,0.00147,0.000759447,-0.0037897,0.00492105,-0.00269159,-0.738661,0.00445755,0.0424862,685,1170,-10.8479,-0.662216
-532,-146,-10.8717,0.540283,0.00511947,0.00101872,-0.00180997,0.00580406,0.000334135,-0.361601,0.00376294,0.0404322,692,1170,-10.8717,-0.540257
-525,-146,-10.8155,0.628662,0.00806114,0.000179168,-0.0012798,0.00826374,-2.34265e-05,-0.156999,0.00551698,0.0408729,699,1170,-10.8155,-0.628648
-518,-146,0,0,0,0,0,0,0,0,0,-1,706,1170,0,0
-511,-146,0,0,0,0,0,0,0,0,0,-1,713,1170,0,0
-504,-146,0,0,0,0,0,0,0,0,0,-1,720,1170,0,0
-497,-146,0,0,0,0,0,0,0,0,0,-1,727,1170,0,0
-490,-146,0,0,0,0,0,0,0,0,0,-1,734,1170,0,0
-483,-146,0,0,0,0,0,0,0,0,0,-1,741,1170,0,0
-476,-146,0,0,0,0,0,0,0,0,0,-1,748,1170,0,0
-469,-146,0,0,0,0,0,0,0,0,0,-1,755,1170,0,0
-462,-146,0,0,0,0,0,0,0,0,0,-1,762,1170,0,0
-455,-146,0,0,0,0,0,0,0,0,0,-1,769,1170,0,0
-448,-146,0,0,0,0,0,0,0,0,0,-1,776,1170,0,0
-441,-146,0,0,0,0,0,0,0,0,0,-1,783,1170,0,0
-434,-146,0,0,0,0,0,0,0,0,0,-1,790,1170,0,0
-427,-146,0,0,0,0,0,0,0,0,0,-1,797,1170,0,0
-420,-146,0,0,0,0,0,0,0,0,0,-1,804,1170,0,0
-413,-146,0,0,0,0,0,0,0,0,0,-1,811,1170,0,0
-406,-146,0,0,0,0,0,0,0,0,0,-1,818,1170,0,0
-399,-146,0,0,0,0,0,0,0,0,0,-1,825,1170,0,0
-392,-146,0,0,0,0,0,0,0,0,0,-1,832,1170,0,0
-385,-146,0,0,0,0,0,0,0,0,0,-1,839,1170,0,0
-378,-146,0,0,0,0,0,0,0,0,0,-1,846,1170,0,0
-371,-146,0,0,0,0,0,0,0,0,0,-1,853,1170,0,0
-364,-146,0,0,0,0,0,0,0,0,0,-1,860,1170,0,0
-357,-146,0,0,0,0,0,0,0,0,0,-1,867,1170,0,0
-350,-146,0,0,0,0,0,0,0,0,0,-1,874,1170,0,0
-343,-146,0,0,0,0,0,0,0,0,0,-1,881,1170,0,0
-336,-146,0,0,0,0,0,0,0,0,0,-1,888,1170,0,0
-329,-146,0,0,0,0,0,0,0,0,0,-1,895,1170,0,0
-322,-146,0,0,0,0,0,0,0,0,0,-1,902,1170,0,0
-315,-146,0,0,0,0,0,0,0,0,0,-1,909,1170,0,0
-308,-146,0,0,0,0,0,0,0,0,0,-1,916,1170,0,0
-301,-146,0,0,0,0,0,0,0,0,0,-1,923,1170,0,0
-294,-146,0,0,0,0,0,0,0,0,0,-1,930,1170,0,0
-287,-146,0,0,0,0,0,0,0,0,0,-1,937,1170,0,0
-280,-146,0,0,0,0,0,0,0,0,0,-1,944,1170,0,0
-273,-146,0,0,0,0,0,0,0,0,0,-1,951,1170,0,0
-266,-146,0,0,0,0,0,0,0,0,0,-1,958,1170,0,0
-259,-146,0,0,0,0,0,0,0,0,0,-1,965,1170,0,0
-252,-146,0,0,0,0,0,0,0,0,0,-1,972,1170,0,0
-245,-146,0,0,0,0,0,0,0,0,0,-1,979,1170,0,0
-238,-146,0,0,0,0,0,0,0,0,0,-1,986,1170,0,0
-231,-146,0,0,0,0,0,0,0,0,0,-1,993,1170,0,0
-224,-146,0,0,0,0,0,0,0,0,0,-1,1000,1170,0,0
-217,-146,0,0,0,0,0,0,0,0,0,-1,1007,1170,0,0
-210,-146,0,0,0,0,0,0,0,0,0,-1,1014,1170,0,0
-203,-146,0,0,0,0,0,0,0,0,0,-1,1021,1170,0,0
-196,-146,0,0,0,0,0,0,0,0,0,-1,1028,1170,0,0
-189,-146,0,0,0,0,0,0,0,0,0,-1,1035,1170,0,0
-182,-146,0,0,0,0,0,0,0,0,0,-1,1042,1170,0,0
-175,-146,0,0,0,0,0,0,0,0,0,-1,1049,1170,0,0
-168,-146,0,0,0,0,0,0,0,0,0,-1,1056,1170,0,0
-161,-146,0,0,0,0,0,0,0,0,0,-1,1063,1170,0,0
-154,-146,0,0,0,0,0,0,0,0,0,-1,1070,1170,0,0
-147,-146,0,0,0,0,0,0,0,0,0,-1,1077,1170,0,0
-140,-146,0,0,0,0,0,0,0,0,0,-1,1084,1170,0,0
-133,-146,0,0,0,0,0,0,0,0,0,-1,1091,1170,0,0
-126,-146,0,0,0,0,0,0,0,0,0,-1,1098,1170,0,0
-119,-146,0,0,0,0,0,0,0,0,0,-1,1105,1170,0,0
-112,-146,0,0,0,0,0,0,0,0,0,-1,1112,1170,0,0
-105,-146,0,0,0,0,0,0,0,0,0,-1,1119,1170,0,0
-98,-146,0,0,0,0,0,0,0,0,0,-1,1126,1170,0,0
-91,-146,0,0,0,0,0,0,0,0,0,-1,1133,1170,0,0
-84,-146,0,0,0,0,0,0,0,0,0,-1,1140,1170,0,0
-77,-146,0,0,0,0,0,0,0,0,0,-1,1147,1170,0,0
-70,-146,0,0,0,0,0,0,0,0,0,-1,1154,1170,0,0
-63,-146,0,0,0,0,0,0,0,0,0,-1,1161,1170,0,0
-56,-146,0,0,0,0,0,0,0,0,0,-1,1168,1170,0,0
-49,-146,0,0,0,0,0,0,0,0,0,-1,1175,1170,0,0
-42,-146,0,0,0,0,0,0,0,0,0,-1,1182,1170,0,0
-35,-146,0,0,0,0,0,0,0,0,0,-1,1189,1170,0,0
-28,-146,0,0,0,0,0,0,0,0,0,-1,1196,1170,0,0
-21,-146,0,0,0,0,0,0,0,0,0,-1,1203,1170,0,0
-14,-146,0,0,0,0,0,0,0,0,0,-1,1210,1170,0,0
-7,-146,0,0,0,0,0,0,0,0,0,-1,1217,1170,0,0
0,-146,0,0,0,0,0,0,0,0,0,-1,1224,1170,0,0
7,-146,0,0,0,0,0,0,0,0,0,-1,1231,1170,0,0
14,-146,0,0,0,0,0,0,0,0,0,-1,1238,1170,0,0
21,-146,0,0,0,0,0,0,0,0,0,-1,1245,1170,0,0
28,-146,0,0,0,0,0,0,0,0,0,-1,1252,1170,0,0
35,-146,0,0,0,0,0,0,0,0,0,-1,1259,1170,0,0
42,-146,0,0,0,0,0,0,0,0,0,-1,1266,1170,0,0
49,-146,0,0,0,0,0,0,0,0,0,-1,1273,1170,0,0
56,-146,0,0,0,0,0,0,0,0,0,-1,1280,1170,0,0
63,-146,0,0,0,0,0,0,0,0,0,-1,1287,1170,0,0
70,-146,0,0,0,0,0,0,0,0,0,-1,1294,1170,0,0
77,-146,0,0,0,0,0,0,0,0,0,-1,1301,1170,0,0
84,-146,0,0,0,0,0,0,0,0,0,-1,1308,1170,0,0
91,-146,0,0,0,0,0,0,0,0,0,-1,1315,1170,0,0
98,-146,0,0,0,0,0,0,0,0,0,-1,1322,1170,0,0
105,-146,0,0,0,0,0,0,0,0,0,-1,1329,1170,0,0
112,-146,0,0,0,0,0,0,0,0,0,-1,1336,1170,0,0
119,-146,0,0,0,0,0,0,0,0,0,-1,1343,1170,0,0
126,-146,0,0,0,0,0,0,0,0,0,-1,1350,1170,0,0
133,-146,0,0,0,0,0,0,0,0,0,-1,1357,1170,0,0
140,-146,0,0,0,0,0,0,0,0,0,-1,1364,1170,0,0
147,-146,0,0,0,0,0,0,0,0,0,-1,1371,1170,0,0
154,-146,0,0,0,0,0,0,0,0,0,-1,1378,1170,0,0
161,-146,0,0,0,0,0,0,0,0,0,-1,1385,1170,0,0
168,-146,0,0,0,0,0,0,0,0,0,-1,1392,1170,0,0
175,-146,0,0,0,0,0,0,0,0,0,-1,1399,1170,0,0
182,-146,0,0,0,0,0,0,0,0,0,-1,1406,1170,0,0
189,-146,0,0,0,0,0,0,0,0,0,-1,1413,1170,0,0
196,-146,0,0,0,0,0,0,0,0,0,-1,1420,1170,0,0
203,-146,0,0,0,0,0,0,0,0,0,-1,1427,1170,0,0
210,-146,0,0,0,0,0,0,0,0,0,-1,1434,1170,0,0
217,-146,0,0,0,0,0,0,0,0,0,-1,1441,1170,0,0
224,-146,0,0,0,0,0,0,0,0,0,-1,1448,1170,0,0
231,-146,0,0,0,0,0,0,0,0,0,-1,1455,1170,0,0
238,-146,0,0,0,0,0,0,0,0,0,-1,1462,1170,0,0
245,-146,0,0,0,0,0,0,0,0,0,-1,1469,1170,0,0
252,-146,0,0,0,0,0,0,0,0,0,-1,1476,1170,0,0
259,-146,0,0,0,0,0,0,0,0,0,-1,1483,1170,0,0
266,-146,0,0,0,0,0,0,0,0,0,-1,1490,1170,0,0
273,-146,0,0,0,0,0,0,0,0,0,-1,1497,1170,0,0
280,-146,0,0,0,0,0,0,0,0,0,-1,1504,1170,0,0
287,-146,0,0,0,0,0,0,0,0,0,-1,1511,1170,0,0
294,-146,0,0,0,0,0,0,0,0,0,-1,1518,1170,0,0
301,-146,0,0,0,0,0,0,0,0,0,-1,1525,1170,0,0
308,-146,0,0,0,0,0,0,0,0,0,-1,1532,1170,0,0
315,-146,0,0,0,0,0,0,0,0,0,-1,1539,1170,0,0
322,-146,0,0,0,0,0,0,0,0,0,-1,1546,1170,0,0
329,-146,0,0,0,0,0,0,0,0,0,-1,1553,1170,0,0
336,-146,0,0,0,0,0,0,0,0,0,-1,1560,1170,0,0
343,-146,0,0,0,0,0,0,0,0,0,-1,1567,1170,0,0
350,-146,0,0,0,0,0,0,0,0,0,-1,1574,1170,0,0
357,-146,0,0,0,0,0,0,0,0,0,-1,1581,1170,0,0
364,-146,0,0,0,0,0,0,0,0,0,-1,1588,1170,0,0
371,-146,0,0,0,0,0,0,0,0,0,-1,1595,1170,0,0
378,-146,0,0,0,0,0,0,0,0,0,-1,1602,1170,0,0
385,-146,0,0,0,0,0,0,0,0,0,-1,1609,1170,0,0
392,-146,0,0,0,0,0,0,0,0,0,-1,1616,1170,0,0
399,-146,0,0,0,0,0,0,0,0,0,-1,1623,1170,0,0
406,-146,0,0,0,0,0,0,0,0,0,-1,1630,1170,0,0
413,-146,0,0,0,0,0,0,0,0,0,-1,1637,1170,0,0
420,-146,0,0,0,0,0,0,0,0,0,-1,1644,1170,0,0
427,-146,0,0,0,0,0,0,0,0,0,-1,1651,1170,0,0
434,-146,0,0,0,0,0,0,0,0,0,-1,1658,1170,0,0
441,-146,0,0,0,0,0,0,0,0,0,-1,1665,1170,0,0
448,-146,0,0,0,0,0,0,0,0,0,-1,1672,1170,0,0
455,-146,0,0,0,0,0,0,0,0,0,-1,1679,1170,0,0
462,-146,0,0,0,0,0,0,0,0,0,-1,1686,1170,0,0
469,-146,0,0,0,0,0,0,0,0,0,-1,1693,1170,0,0
476,-146,0,0,0,0,0,0,0,0,0,-1,1700,1170,0,0
483,-146,0,0,0,0,0,0,0,0,0,-1,1707,1170,0,0
490,-146,0,0,0,0,0,0,0,0,0,-1,1714,1170,0,0
497,-146,0,0,0,0,0,0,0,0,0,-1,1721,1170,0,0
504,-146,0,0,0,0,0,0,0,0,0,-1,1728,1170,0,0
511,-146,0,0,0,0,0,0,0,0,0,-1,1735,1170,0,0
518,-146,0,0,0,0,0,0,0,0,0,-1,1742,1170,0,0
525,-146,0,0,0,0,0,0,0,0,0,-1,1749,1170,0,0
532,-146,0,0,0,0,0,0,0,0,0,-1,1756,1170,0,0
539,-146,0,0,0,0,0,0,0,0,0,-1,1763,1170,0,0
546,-146,0,0,0,0,0,0,0,0,0,-1,1770,1170,0,0
553,-146,0,0,0,0,0,0,0,0,0,-1,1777,1170,0,0
560,-146,0,0,0,0,0,0,0,0,0,-1,1784,1170,0,0
567,-146,0,0,0,0,0,0,0,0,0,-1,1791,1170,0,0
574,-146,0,0,0,0,0,0,0,0,0,-1,1798,1170,0,0
581,-146,0,0,0,0,0,0,0,0,0,-1,1805,1170,0,0
588,-146,0,0,0,0,0,0,0,0,0,-1,1812,1170,0,0
595,-146,0,0,0,0,0,0,0,0,0,-1,1819,1170,0,0
602,-146,0,0,0,0,0,0,0,0,0,-1,1826,1170,0,0
609,-146,0,0,0,0,0,0,0,0,0,-1,1833,1170,0,0
616,-146,0,0,0,0,0,0,0,0,0,-1,1840,1170,0,0
623,-146,0,0,0,0,0,0,0,0,0,-1,1847,1170,0,0
630,-146,0,0,0,0,0,0,0,0,0,-1,1854,1170,0,0
637,-146,17.1261,2.31604,0,0,0,0,0,0,0,-1,1861,1170,17.1261,-2.31598
644,-146,17.0781,2.53833,-0.00395731,0.00269202,0.000817672,0.00279109,-0.00405638,1.45022,0.00397582,0.0392884,1868,1170,17.0781,-2.53837
651,-146,17.0717,2.58093,-0.00252924,0.0026386,-1.46551e-05,0.00263864,-0.00252928,-1.56796,0.00298392,0.0381755,1875,1170,17.0717,-2.58091
658,-146,17.0796,2.54297,-0.00218259,0.00231922,0.000134925,0.00232326,-0.00218663,1.54086,0.00260418,0.0415969,1882,1170,17.0796,-2.54292
665,-146,17.0562,2.56177,-0.00289844,0.00163113,0.00103568,0.00185671,-0.00312401,1.35634,0.00290648,0.0392619,1889,1170,17.0561,-2.5618
672,-146,17.1174,2.58679,-0.00401165,0.000854842,0.00212972,0.00165523,-0.00481204,1.21131,0.00387932,0.0368249,1896,1170,17.1174,-2.58679
679,-146,17.1274,2.4696,-0.00512923,0.00010544,0.00315228,0.00158533,-0.00660913,1.13187,0.0050187,0.0304554,1903,1170,17.1274,-2.46961
686,-146,17.0449,2.44763,-0.00611057,-0.000568618,0.00402518,0.00154716,-0.00822634,1.08685,0.00606608,0.0220476,1910,1170,17.0449,-2.44757
693,-146,17.0963,2.4248,-0.00680709,-0.00107273,0.00467247,0.00154212,-0.00942194,1.06059,0.00685342,0.0140994,1917,1170,17.0963,-2.42484
700,-146,17.1688,2.2572,0,0,0,0,0,0,0,-1,1924,1170,17.1688,-2.25715
707,-146,16.4475,3.43396,-0.00731682,-0.00189331,0.00515458,0.00121931,-0.0104294,1.02755,0.00739299,0.0305139,1931,1170,16.4475,-3.43397
714,-146,16.0627,3.82019,-0.00745993,-0.00204778,0.00525695,0.00115871,-0.0106664,1.02309,0.00752697,0.0222233,1938,1170,16.0628,-3.82016
721,-146,16.0763,3.66821,-0.00724779,-0.00194466,0.00507818,0.00113254,-0.010325,1.026,0.00729022,0.0282924,1945,1170,16.0763,-3.66824
728,-146,16.0939,3.57129,-0.00625698,-0.00166001,0.00457211,0.00115885,-0.00907584,1.01831,0.00647152,0.0226415,1952,1170,16.0939,-3.57129
735,-146,15.9941,3.5647,-0.00420221,-0.000996573,0.00395579,0.00166878,-0.00686756,0.977881,0.00522425,0.0181382,1959,1170,15.9942,-3.56468
742,-146,15.9628,3.47668,-0.00122304,-0.00101572,0.00285185,0.00173435,-0.00397311,0.803564,0.00337865,0.0172694,1966,1170,15.9628,-3.47672
749,-146,15.9714,3.40283,0.00189039,0.000273914,0.00094511,0.00232573,-0.000161424,0.431651,0.001607,0.0158984,1973,1170,15.9714,-3.40277
756,-146,15.9828,3.30151,0.00567417,0.00252654,-0.00130298,0.00614355,0.00205716,-0.345764,0.0036109,0.0118278,1980,1170,15.9828,-3.3015
763,-146,15.9807,3.21912,0.0101432,0.00459974,-0.00358721,0.0119047,0.0028382,-0.456472,0.00717992,0.00976542,1987,1170,15.9808,-3.21909
770,-146,15.9805,3.13391,0.0148758,0.00718859,-0.00615677,0.0182902,0.00377416,-0.506354,0.0111504,0.0101209,1994,1170,15.9804,-3.13394
777,-146,15.988,3.03223,0.0200213,0.0106817,-0.00941069,0.0258571,0.00484586,-0.555087,0.0158713,0.0187728,2001,1170,15.988,-3.0322
784,-146,16.082,2.91772,0.0256297,0.0156931,-0.0138505,0.035376,0.00594681,-0.61319,0.0218729,0.0401103,2008,1170,16.082,-2.9177
791,-146,17.6832,1.30847,0.0313572,0.0228985,-0.0198709,0.0474439,0.00681177,-0.680542,0.0296209,0.0439097,2015,1170,17.6832,-1.3085
798,-146,18.692,0.933105,0,0,0,0,0,0,0,-1,2022,1170,18.692,-0.933148
805,-146,19.6729,0.639771,0,0,0,0,0,0,0,-1,2029,1170,19.6727,-0.639822
812,-146,0,0,0,0,0,0,0,0,0,-1,2036,1170,0,0
-700,-153,0,0,0,0,0,0,0,0,0,-1,524,1177,0,0
-693,-153,0,0,0,0,0,0,0,0,0,-1,531,1177,0,0
-686,-153,-8.13629,4.05774,0,0,0,0,0,0,0,-1,538,1177,-8.1363,-4.05777
-679,-153,-8.19824,0.815186,0,0,0,0,0,0,0,-1,545,1177,-8.19826,-0.81515
-672,-153,-8.46985,0.55835,-0.0330404,0.0260492,-0.0172602,0.0307215,-0.0377127,-1.30643,0.0395792,0.0457013,552,1177,-8.46985,-0.558353
-665,-153,-8.67432,0.288452,-0.0249755,0.0225195,-0.0155414,0.0271529,-0.0296089,-1.28105,0.0327817,0.0451479,559,1177,-8.67433,-0.288403
-658,-153,-8.97339,0.019043,-0.0185496,0.0188207,-0.0133052,0.0230738,-0.0228027,-1.26141,0.026487,0.0493369,566,1177,-8.9734,-0.0190845
-651,-153,-9.38,0.331787,-0.0135229,0.0152012,-0.0108869,0.0188612,-0.0171828,-1.24649,0.0208175,0.0483426,573,1177,-9.37998,-0.331784
-644,-153,-9.5368,0.668579,-0.00965282,0.011839,-0.00852149,0.0148077,-0.0126215,-1.23557,0.015853,0.0283322,580,1177,-9.53683,-0.66854
-637,-153,-9.56372,0.838867,-0.00655657,0.00906975,-0.00669698,0.0115471,-0.00903395,-1.21648,0.011912,0.0114882,587,1177,-9.56369,-0.83882
-630,-153,-9.56915,0.971436,-0.00449075,0.00615797,-0.00529303,0.00834127,-0.00667406,-1.17957,0.0086869,0.0103073,594,1177,-9.56916,-0.97139
-623,-153,-9.57153,1.07593,-0.00350847,0.00346137,-0.00458869,0.00573846,-0.00578556,-1.11016,0.00665342,0.00989035,601,1177,-9.57156,-1.07591
-616,-153,-9.57782,1.16699,-0.00321649,0.00133357,-0.00458674,0.00417849,-0.00606141,-1.01562,0.00594523,0.0119586,608,1177,-9.57779,-1.16695
-609,-153,-9.55859,1.27246,-0.0037755,-0.000154945,-0.00480456,0.00316906,-0.00709951,-0.965565,0.0060716,0.0169602,615,1177,-9.5586,-1.27243
-602,-153,-9.59003,1.38159,-0.00465148,-0.000891885,-0.00542385,0.00296868,-0.00851204,-0.95221,0.00688113,0.0217065,622,1177,-9.59005,-1.38161
-595,-153,-9.6626,1.47693,-0.00538794,-0.00134721,-0.00646325,0.0034041,-0.0101392,-0.936883,0.00813517,0.0174622,629,1177,-9.66258,-1.47692
-588,-153,-9.60895,1.61169,-0.00581186,-0.00158115,-0.00742416,0.00402314,-0.0114161,-0.924185,0.00924825,0.0114907,636,1177,-9.60892,-1.61176
-581,-153,-9.53931,1.70093,-0.00580388,-0.00147127,-0.0079429,0.00459544,-0.0118706,-0.918528,0.0098111,0.0199096,643,1177,-9.53931,-1.70089
-574,-153,-10.0068,0.973267,-0.00549004,-0.00111707,-0.0082941,0.0052739,-0.011881,-0.914276,0.0101463,0.0433884,650,1177,-10.0068,-0.973254
-567,-153,-10.5669,0.296997,0,0,0,0,0,0,0,-1,657,1177,-10.5669,-0.296991
-560,-153,-10.8002,0.544312,-0.00423267,-0.000412009,-0.00797529,0.00587855,-0.0105232,-0.902949,0.00959531,0.0365524,664,1177,-10.8003,-0.544343
-553,-153,-10.7712,0.691772,-0.00294951,7.99274e-05,-0.00715371,0.00587753,-0.00874711,-0.889727,0.00849754,0.0361502,671,1177,-10.7713,-0.691804
-546,-153,-10.6363,0.473511,0,0,0,0,0,0,0,-1,678,1177,-10.6363,-0.473478
-539,-153,-10.8968,0.584595,0,0,0,0,0,0,0,-1,685,1177,-10.8968,-0.584619
-532,-153,-10.8986,0.441528,0,0,0,0,0,0,0,-1,692,1177,-10.8986,-0.441583
-525,-153,-10.8026,0.795166,0,0,0,0,0,0,0,-1,699,1177,-10.8026,-0.795113
-518,-153,0,0,0,0,0,0,0,0,0,-1,706,1177,0,0
-511,-153,0,0,0,0,0,0,0,0,0,-1,713,1177,0,0
-504,-153,0,0,0,0,0,0,0,0,0,-1,720,1177,0,0
-497,-153,0,0,0,0,0,0,0,0,0,-1,727,1177,0,0
-490,-153,0,0,0,0,0,0,0,0,0,-1,734,1177,0,0
-483,-153,0,0,0,0,0,0,0,0,0,-1,741,1177,0,0
-476,-153,0,0,0,0,0,0,0,0,0,-1,748,1177,0,0
-469,-153,0,0,0,0,0,0,0,0,0,-1,755,1177,0,0
-462,-153,0,0,0,0,0,0,0,0,0,-1,762,1177,0,0
-455,-153,0,0,0,0,0,0,0,0,0,-1,769,1177,0,0
-448,-153,0,0,0,0,0,0,0,0,0,-1,776,1177,0,0
-441,-153,0,0,0,0,0,0,0,0,0,-1,783,1177,0,0
-434,-153,0,0,0,0,0,0,0,0,0,-1,790,1177,0,0
-427,-153,0,0,0,0,0,0,0,0,0,-1,797,1177,0,0
-420,-153,0,0,0,0,0,0,0,0,0,-1,804,1177,0,0
-413,-153,0,0,0,0,0,0,0,0,0,-1,811,1177,0,0
-406,-153,0,0,0,0,0,0,0,0,0,-1,818,1177,0,0
-399,-153,0,0,0,0,0,0,0,0,0,-1,825,1177,0,0
-392,-153,0,0,0,0,0,0,0,0,0,-1,832,1177,0,0
-385,-153,0,0,0,0,0,0,0,0,0,-1,839,1177,0,0
-378,-153,0,0,0,0,0,0,0,0,0,-1,846,1177,0,0
-371,-153,0,0,0,0,0,0,0,0,0,-1,853,1177,0,0
-364,-153,0,0,0,0,0,0,0,0,0,-1,860,1177,0,0
-357,-153,0,0,0,0,0,0,0,0,0,-1,867,1177,0,0
-350,-153,0,0,0,0,0,0,0,0,0,-1,874,1177,0,0
-343,-153,0,0,0,0,0,0,0,0,0,-1,881,1177,0,0
-336,-153,0,0,0,0,0,0,0,0,0,-1,888,1177,0,0
-329,-153,0,0,0,0,0,0,0,0,0,-1,895,1177,0,0
-322,-153,0,0,0,0,0,0,0,0,0,-1,902,1177,0,0
-315,-153,0,0,0,0,0,0,0,0,0,-1,909,1177,0,0
-308,-153,0,0,0,0,0,0,0,0,0,-1,916,1177,0,0
-301,-153,0,0,0,0,0,0,0,0,0,-1,923,1177,0,0
-294,-153,0,0,0,0,0,0,0,0,0,-1,930,1177,0,0
-287,-153,0,0,0,0,0,0,0,0,0,-1,937,1177,0,0
-280,-153,0,0,0,0,0,0,0,0,0,-1,944,1177,0,0
-273,-153,0,0,0,0,0,0,0,0,0,-1,951,1177,0,0
-266,-153,0,0,0,0,0,0,0,0,0,-1,958,1177,0,0
-259,-153,0,0,0,0,0,0,0,0,0,-1,965,1177,0,0
-252,-153,0,0,0,0,0,0,0,0,0,-1,972,1177,0,0
-245,-153,0,0,0,0,0,0,0,0,0,-1,979,1177,0,0
-238,-153,0,0,0,0,0,0,0,0,0,-1,986,1177,0,0
-231,-153,0,0,0,0,0,0,0,0,0,-1,993,1177,0,0
-224,-153,0,0,0,0,0,0,0,0,0,-1,1000,1177,0,0
-217,-153,0,0,0,0,0,0,0,0,0,-1,1007,1177,0,0
-210,-153,0,0,0,0,0,0,0,0,0,-1,1014,1177,0,0
-203,-153,0,0,0,0,0,0,0,0,0,-1,1021,1177,0,0
-196,-153,0,0,0,0,0,0,0,0,0,-1,1028,1177,0,0
-189,-153,0,0,0,0,0,0,0,0,0,-1,1035,1177,0,0
-182,-153,0,0,0,0,0,0,0,0,0,-1,1042,1177,0,0
-175,-153,0,0,0,0,0,0,0,0,0,-1,1049,1177,0,0
-168,-153,0,0,0,0,0,0,0,0,0,-1,1056,1177,0,0
-161,-153,0,0,0,0,0,0,0,0,0,-1,1063,1177,0,0
-154,-153,0,0,0,0,0,0,0,0,0,-1,1070,1177,0,0
-147,-153,0,0,0,0,0,0,0,0,0,-1,1077,1177,0,0
-140,-153,0,0,0,0,0,0,0,0,0,-1,1084,1177,0,0
-133,-153,0,0,0,0,0,0,0,0,0,-1,1091,1177,0,0
-126,-153,0,0,0,0,0,0,0,0,0,-1,1098,1177,0,0
-119,-153,0,0,0,0,0,0,0,0,0,-1,1105,1177,0,0
-112,-153,0,0,0,0,0,0,0,0,0,-1,1112,1177,0,0
-105,-153,0,0,0,0,0,0,0,0,0,-1,1119,1177,0,0
-98,-153,0,0,0,0,0,0,0,0,0,-1,1126,1177,0,0
-91,-153,0,0,0,0,0,0,0,0,0,-1,1133,1177,0,0
-84,-153,0,0,0,0,0,0,0,0,0,-1,1140,1177,0,0
-77,-153,0,0,0,0,0,0,0,0,0,-1,1147,1177,0,0
-70,-153,0,0,0,0,0,0,0,0,0,-1,1154,1177,0,0
-63,-153,0,0,0,0,0,0,0,0,0,-1,1161,1177,0,0
-56,-153,0,0,0,0,0,0,0,0,0,-1,1168,1177,0,0
-49,-153,0,0,0,0,0,0,0,0,0,-1,1175,1177,0,0
-42,-153,0,0,0,0,0,0,0,0,0,-1,1182,1177,0,0
-35,-153,0,0,0,0,0,0,0,0,0,-1,1189,1177,0,0
-28,-153,0,0,0,0,0,0,0,0,0,-1,1196,1177,0,0
-21,-153,0,0,0,0,0,0,0,0,0,-1,1203,1177,0,0
-14,-153,0,0,0,0,0,0,0,0,0,-1,1210,1177,0,0
-7,-153,0,0,0,0,0,0,0,0,0,-1,1217,1177,0,0
0,-153,0,0,0,0,0,0,0,0,0,-1,1224,1177,0,0
7,-153,0,0,0,0,0,0,0,0,0,-1,1231,1177,0,0
14,-153,0,0,0,0,0,0,0,0,0,-1,1238,1177,0,0
21,-153,0,0,0,0,0,0,0,0,0,-1,1245,1177,0,0
28,-153,0,0,0,0,0,0,0,0,0,-1,1252,1177,0,0
35,-153,0,0,0,0,0,0,0,0,0,-1,1259,1177,0,0
42,-153,0,0,0,0,0,0,0,0,0,-1,1266,1177,0,0
49,-153,0,0,0,0,0,0,0,0,0,-1,1273,1177,0,0
56,-153,0,0,0,0,0,0,0,0,0,-1,1280,1177,0,0
63,-153,0,0,0,0,0,0,0,0,0,-1,1287,1177,0,0
70,-153,0,0,0,0,0,0,0,0,0,-1,1294,1177,0,0
77,-153,0,0,0,0,0,0,0,0,0,-1,1301,1177,0,0
84,-153,0,0,0,0,0,0,0,0,0,-1,1308,1177,0,0
91,-153,0,0,0,0,0,0,0,0,0,-1,1315,1177,0,0
98,-153,0,0,0,0,0,0,0,0,0,-1,1322,1177,0,0
105,-153,0,0,0,0,0,0,0,0,0,-1,1329,1177,0,0
112,-153,0,0,0,0,0,0,0,0,0,-1,1336,1177,0,0
119,-153,0,0,0,0,0,0,0,0,0,-1,1343,1177,0,0
126,-153,0,0,0,0,0,0,0,0,0,-1,1350,1177,0,0
133,-153,0,0,0,0,0,0,0,0,0,-1,1357,1177,0,0
140,-153,0,0,0,0,0,0,0,0,0,-1,1364,1177,0,0
147,-153,0,0,0,0,0,0,0,0,0,-1,1371,1177,0,0
154,-153,0,0,0,0,0,0,0,0,0,-1,1378,1177,0,0
161,-153,0,0,0,0,0,0,0,0,0,-1,1385,1177,0,0
168,-153,0,0,0,0,0,0,0,0,0,-1,1392,1177,0,0
175,-153,0,0,0,0,0,0,0,0,0,-1,1399,1177,0,0
182,-153,0,0,0,0,0,0,0,0,0,-1,1406,1177,0,0
189,-153,0,0,0,0,0,0,0,0,0,-1,1413,1177,0,0
196,-153,0,0,0,0,0,0,0,0,0,-1,1420,1177,0,0
203,-153,0,0,0,0,0,0,0,0,0,-1,1427,1177,0,0
210,-153,0,0,0,0,0,0,0,0,0,-1,1434,1177,0,0
217,-153,0,0,0,0,0,0,0,0,0,-1,1441,1177,0,0
224,-153,0,0,0,0,0,0,0,0,0,-1,1448,1177,0,0
231,-153,0,0,0,0,0,0,0,0,0,-1,1455,1177,0,0
238,-153,0,0,0,0,0,0,0,0,0,-1,1462,1177,0,0
245,-153,0,0,0,0,0,0,0,0,0,-1,1469,1177,0,0
252,-153,0,0,0,0,0,0,0,0,0,-1,1476,1177,0,0
259,-153,0,0,0,0,0,0,0,0,0,-1,1483,1177,0,0
266,-153,0,0,0,0,0,0,0,0,0,-1,1490,1177,0,0
273,-153,0,0,0,0,0,0,0,0,0,-1,1497,1177,0,0
280,-153,0,0,0,0,0,0,0,0,0,-1,1504,1177,0,0
287,-153,0,0,0,0,0,0,0,0,0,-1,1511,1177,0,0
294,-153,0,0,0,0,0,0,0,0,0,-1,1518,1177,0,0
301,-153,0,0,0,0,0,0,0,0,0,-1,1525,1177,0,0
308,-153,0,0,0,0,0,0,0,0,0,-1,1532,1177,0,0
315,-153,0,0,0,0,0,0,0,0,0,-1,1539,1177,0,0
322,-153,0,0,0,0,0,0,0,0,0,-1,1546,1177,0,0
329,-153,0,0,0,0,0,0,0,0,0,-1,1553,1177,0,0
336,-153,0,0,0,0,0,0,0,0,0,-1,1560,1177,0,0
343,-153,0,0,0,0,0,0,0,0,0,-1,1567,1177,0,0
350,-153,0,0,0,0,0,0,0,0,0,-1,1574,1177,0,0
357,-153,0,0,0,0,0,0,0,0,0,-1,1581,1177,0,0
364,-153,0,0,0,0,0,0,0,0,0,-1,1588,1177,0,0
371,-153,0,0,0,0,0,0,0,0,0,-1,1595,1177,0,0
378,-153,0,0,0,0,0,0,0,0,0,-1,1602,1177,0,0
385,-153,0,0,0,0,0,0,0,0,0,-1,1609,1177,0,0
392,-153,0,0,0,0,0,0,0,0,0,-1,1616,1177,0,0
399,-153,0,0,0,0,0,0,0,0,0,-1,1623,1177,0,0
406,-153,0,0,0,0,0,0,0,0,0,-1,1630,1177,0,0
413,-153,0,0,0,0,0,0,0,0,0,-1,1637,1177,0,0
420,-153,0,0,0,0,0,0,0,0,0,-1,1644,1177,0,0
427,-153,0,0,0,0,0,0,0,0,0,-1,1651,1177,0,0
434,-153,0,0,0,0,0,0,0,0,0,-1,1658,1177,0,0
441,-153,0,0,0,0,0,0,0,0,0,-1,1665,1177,0,0
448,-153,0,0,0,0,0,0,0,0,0,-1,1672,1177,0,0
455,-153,0,0,0,0,0,0,0,0,0,-1,1679,1177,0,0
462,-153,0,0,0,0,0,0,0,0,0,-1,1686,1177,0,0
469,-153,0,0,0,0,0,0,0,0,0,-1,1693,1177,0,0
476,-153,0,0,0,0,0,0,0,0,0,-1,1700,1177,0,0
483,-153,0,0,0,0,0,0,0,0,0,-1,1707,1177,0,0
490,-153,0,0,0,0,0,0,0,0,0,-1,1714,1177,0,0
497,-153,0,0,0,0,0,0,0,0,0,-1,1721,1177,0,0
504,-153,0,0,0,0,0,0,0,0,0,-1,1728,1177,0,0
511,-153,0,0,0,0,0,0,0,0,0,-1,1735,1177,0,0
518,-153,0,0,0,0,0,0,0,0,0,-1,1742,1177,0,0
525,-153,0,0,0,0,0,0,0,0,0,-1,1749,1177,0,0
532,-153,0,0,0,0,0,0,0,0,0,-1,1756,1177,0,0
539,-153,0,0,0,0,0,0,0,0,0,-1,1763,1177,0,0
546,-153,0,0,0,0,0,0,0,0,0,-1,1770,1177,0,0
553,-153,0,0,0,0,0,0,0,0,0,-1,1777,1177,0,0
560,-153,0,0,0,0,0,0,0,0,0,-1,1784,1177,0,0
567,-153,0,0,0,0,0,0,0,0,0,-1,1791,1177,0,0
574,-153,0,0,0,0,0,0,0,0,0,-1,1798,1177,0,0
581,-153,0,0,0,0,0,0,0,0,0,-1,1805,1177,0,0
588,-153,0,0,0,0,0,0,0,0,0,-1,1812,1177,0,0
595,-153,0,0,0,0,0,0,0,0,0,-1,1819,1177,0,0
602,-153,0,0,0,0,0,0,0,0,0,-1,1826,1177,0,0
609,-153,0,0,0,0,0,0,0,0,0,-1,1833,1177,0,0
616,-153,0,0,0,0,0,0,0,0,0,-1,1840,1177,0,0
623,-153,0,0,0,0,0,0,0,0,0,-1,1847,1177,0,0
630,-153,0,0,0,0,0,0,0,0,0,-1,1854,1177,0,0
637,-153,17.2561,1.99341,0,0,0,0,0,0,0,-1,1861,1177,17.2561,-1.99346
644,-153,17.1193,2.39539,-0.00329509,0.00308336,0.000460212,0.00311639,-0.00332812,1.49914,0.00372141,0.0385326,1868,1177,17.1192,-2.39533
651,-153,17.0779,2.49731,-0.00203439,0.00301297,-0.00019241,0.00302029,-0.00204172,-1.53275,0.0029407,0.0324015,1875,1177,17.0779,-2.49728
658,-153,17.0612,2.42554,-0.00210901,0.00257411,0.000238543,0.00258623,-0.00212113,1.52003,0.00272221,0.0379898,1882,1177,17.0611,-2.42559
665,-153,17.1047,2.52332,-0.00309849,0.00180945,0.00128717,0.00212654,-0.00341558,1.32926,0.00322846,0.0381553,1889,1177,17.1048,-2.52336
672,-153,17.1127,2.48059,-0.00432789,0.000990907,0.00239922,0.00191322,-0.0052502,1.20379,0.00428277,0.0353654,1896,1177,17.1127,-2.48061
679,-153,17.0353,2.38623,-0.00550154,0.000203273,0.00341433,0.0017999,-0.00709817,1.13338,0.0054324,0.0284926,1903,1177,17.0352,-2.38629
686,-153,17.067,2.42017,-0.00646674,-0.000497705,0.00425058,0.0017115,-0.00867595,1.09148,0.00643084,0.0179156,1910,1177,17.067,-2.42011
693,-153,17.1323,2.39526,-0.00711511,-0.0010074,0.00485264,0.00167234,-0.00979485,1.06625,0.00715281,0.0278574,1917,1177,17.1324,-2.39521
700,-153,17.0133,3.83093,0,0,0,0,0,0,0,-1,1924,1177,17.0133,-3.83097
707,-153,15.9647,3.83911,0,0,0,0,0,0,0,-1,1931,1177,15.9647,-3.83909
714,-153,16.0309,3.77527,-0.00756818,-0.00199438,0.00521257,0.00112953,-0.0106921,1.03089,0.00753285,0.0225579,1938,1177,16.0309,-3.77533
721,-153,16.0095,3.65857,-0.00722771,-0.0018702,0.00492919,0.00106109,-0.010159,1.0343,0.00715265,0.0189246,1945,1177,16.0095,-3.65855
728,-153,16.0349,3.58533,-0.00611773,-0.00151331,0.00433443,0.00109237,-0.00872342,1.02952,0.00621183,0.0247909,1952,1177,16.0349,-3.58533
735,-153,15.8936,3.57947,-0.00396077,-0.000753066,0.0036608,0.0016398,-0.00635364,0.991862,0.00487517,0.0172907,1959,1177,15.8935,-3.57947
742,-153,15.9021,3.5127,-0.000847599,-0.000582452,0.00242908,0.00171767,-0.00314772,0.81266,0.00284919,0.0149404,1966,1177,15.9021,-3.51268
749,-153,15.8933,3.41772,0.00242614,0.000924586,0.00036613,0.00251066,0.000840069,0.226866,0.00147573,0.0159092,1973,1177,15.8933,-3.41778
756,-153,15.9003,3.31177,0.00627512,0.00341018,-0.00200492,0.00730673,0.00237857,-0.47521,0.0043033,0.0112142,1980,1177,15.9003,-3.31181
763,-153,15.9075,3.22363,0.0106828,0.00570331,-0.00433932,0.0131959,0.0031902,-0.524945,0.00795017,0.0108982,1987,1177,15.9075,-3.22367
770,-153,15.9113,3.12805,0.0154195,0.00855858,-0.00700422,0.0197882,0.00418985,-0.557683,0.012041,0.00961023,1994,1177,15.9112,-3.12804
777,-153,15.9364,3.01929,0.0206552,0.0123591,-0.0104435,0.0277443,0.00526999,-0.596358,0.0170138,0.0198572,2001,1177,15.9364,-3.01931
784,-153,16.4468,2.66516,0.0263695,0.0176441,-0.0150862,0.0377111,0.00630243,-0.644645,0.0233255,0.0432818,2008,1177,16.4468,-2.6652
791,-153,17.4137,2.04651,0.0322154,0.0250288,-0.0212947,0.0502178,0.00702635,-0.701814,0.0313996,0.04507,2015,1177,17.4137,-2.04648
798,-153,15.7015,2.88611,0,0,0,0,0,0,0,-1,2022,1177,15.7016,-2.88613
805,-153,19.7888,1.10474,0,0,0,0,0,0,0,-1,2029,1177,19.7888,-1.10474
812,-153,0,0,0,0,0,0,0,0,0,-1,2036,1177,0,0
-700,-160,0,0,0,0,0,0,0,0,0,-1,524,1184,0,0
-693,-160,0,0,0,0,0,0,0,0,0,-1,531,1184,0,0
-686,-160,-8.0929,0.484375,0,0,0,0,0,0,0,-1,538,1184,-8.0929,-0.484367
-679,-160,-8.31946,0.33728,-0.0349331,0.0307622,-0.0193017,0.0360135,-0.0401843,-1.30517,0.0440148,0.0463301,545,1184,-8.31944,-0.337233
-672,-160,-8.52997,0.244141,-0.0263883,0.0265953,-0.0175407,0.031876,-0.031669,-1.27837,0.0366878,0.0431754,552,1184,-8.52995,-0.244084
-665,-160,-8.6239,-0.118164,-0.0197829,0.0223161,-0.0151286,0.0271888,-0.0246555,-1.25921,0.0299442,0.0449858,559,1184,-8.62391,0.118104
-658,-160,-8.80707,-0.423828,0,0,0,0,0,0,0,-1,566,1184,-8.80708,0.423839
-651,-160,-9.2431,0.276855,0,0,0,0,0,0,0,-1,573,1184,-9.24309,-0.276895
-644,-160,-9.37329,0.6875,-0.00765461,0.0110623,-0.00748373,0.0136866,-0.0102789,-1.23352,0.0138831,0.0386996,580,1184,-9.3733,-0.687495
-637,-160,-9.44397,0.838867,-0.00526444,0.00834857,-0.00563366,0.0103776,-0.00729346,-1.2251,0.0102541,0.0139376,587,1184,-9.44398,-0.838815
-630,-160,-9.47357,0.946411,-0.00368988,0.00557949,-0.00429164,0.00726134,-0.00537172,-1.1973,0.00732085,0.00871662,594,1184,-9.4736,-0.946469
-623,-160,-9.49377,1.04309,-0.00305686,0.00306101,-0.00372052,0.00481865,-0.0048145,-1.12946,0.0055617,0.0102295,601,1184,-9.49378,-1.04311
-616,-160,-9.49396,1.146,-0.00276394,0.00118314,-0.00384228,0.00352909,-0.00510988,-1.02265,0.00501547,0.00899843,608,1184,-9.49395,-1.14601
-609,-160,-9.46826,1.2998,-0.00322498,-0.000117122,-0.00423329,0.00283844,-0.00618054,-0.9613,0.00532495,0.0119155,615,1184,-9.46828,-1.29981
-602,-160,-9.4679,1.42419,-0.00404285,-0.000601877,-0.00509639,0.0030566,-0.00770133,-0.948186,0.00640115,0.0184586,622,1184,-9.46791,-1.42415
-595,-160,-9.43365,1.55615,-0.00469358,-0.000878274,-0.00635885,0.00385291,-0.00942476,-0.931126,0.00788765,0.0202961,629,1184,-9.43363,-1.55618
-588,-160,-9.52222,1.64331,-0.00499976,-0.00103897,-0.00746782,0.00470659,-0.0107453,-0.91501,0.00914543,0.019496,636,1184,-9.52224,-1.64332
-581,-160,-9.45355,1.76721,-0.00490762,-0.000910683,-0.00805831,0.00539327,-0.0112116,-0.906946,0.00978102,0.0161346,643,1184,-9.45355,-1.76721
-574,-160,-9.78961,1.67908,-0.00457925,-0.00049363,-0.00847174,0.00617811,-0.011251,-0.903706,0.0102038,0.0426098,650,1184,-9.78964,-1.67903
-567,-160,-10.1837,1.5282,0,0,0,0,0,0,0,-1,657,1184,-10.1837,-1.52825
-560,-160,-10.7685,0.483154,-0.00347754,0.000201837,-0.00828467,0.00684863,-0.0101243,-0.894655,0.00985999,0.036493,664,1184,-10.7685,-0.483198
-553,-160,-10.7694,0.568115,-0.00238088,0.000654792,-0.00753082,0.00681921,-0.0085453,-0.884841,0.00888934,0.0366614,671,1184,-10.7694,-0.56814
-546,-160,-10.7648,0.400024,-0.000814806,0.00102061,-0.00625975,0.00642956,-0.00622376,-0.858182,0.00730572,0.0396142,678,1184,-10.7648,-0.400024
-539,-160,-10.9105,0.275146,0.00124544,0.00119313,-0.00445325,0.00567261,-0.00323404,-0.782462,0.00520611,0.043854,685,1184,-10.9105,-0.275172
-532,-160,-10.7149,0.317383,0.00394759,0.00101449,-0.00213488,0.00507112,-0.000109032,-0.484443,0.00341767,0.0449344,692,1184,-10.7149,-0.317421
-525,-160,-10.4943,0.46167,0,0,0,0,0,0,0,-1,699,1184,-10.4943,-0.461609
-518,-160,-10.482,0.451904,0,0,0,0,0,0,0,-1,706,1184,-10.482,-0.451962
-511,-160,0,0,0,0,0,0,0,0,0,-1,713,1184,0,0
-504,-160,0,0,0,0,0,0,0,0,0,-1,720,1184,0,0
-497,-160,0,0,0,0,0,0,0,0,0,-1,727,1184,0,0
-490,-160,0,0,0,0,0,0,0,0,0,-1,734,1184,0,0
-483,-160,0,0,0,0,0,0,0,0,0,-1,741,1184,0,0
-476,-160,0,0,0,0,0,0,0,0,0,-1,748,1184,0,0
-469,-160,0,0,0,0,0,0,0,0,0,-1,755,1184,0,0
-462,-160,0,0,0,0,0,0,0,0,0,-1,762,1184,0,0
-455,-160,0,0,0,0,0,0,0,0,0,-1,769,1184,0,0
-448,-160,0,0,0,0,0,0,0,0,0,-1,776,1184,0,0
-441,-160,0,0,0,0,0,0,0,0,0,-1,783,1184,0,0
-434,-160,0,0,0,0,0,0,0,0,0,-1,790,1184,0,0
-427,-160,0,0,0,0,0,0,0,0,0,-1,797,1184,0,0
-420,-160,0,0,0,0,0,0,0,0,0,-1,804,1184,0,0
-413,-160,0,0,0,0,0,0,0,0,0,-1,811,1184,0,0
-406,-160,0,0,0,0,0,0,0,0,0,-1,818,1184,0,0
-399,-160,0,0,0,0,0,0,0,0,0,-1,825,1184,0,0
-392,-160,0,0,0,0,0,0,0,0,0,-1,832,1184,0,0
-385,-160,0,0,0,0,0,0,0,0,0,-1,839,1184,0,0
-378,-160,0,0,0,0,0,0,0,0,0,-1,846,1184,0,0
-371,-160,0,0,0,0,0,0,0,0,0,-1,853,1184,0,0
-364,-160,0,0,0,0,0,0,0,0,0,-1,860,1184,0,0
-357,-160,0,0,0,0,0,0,0,0,0,-1,867,1184,0,0
-350,-160,0,0,0,0,0,0,0,0,0,-1,874,1184,0,0
-343,-160,0,0,0,0,0,0,0,0,0,-1,881,1184,0,0
-336,-160,0,0,0,0,0,0,0,0,0,-1,888,1184,0,0
-329,-160,0,0,0,0,0,0,0,0,0,-1,895,1184,0,0
-322,-160,0,0,0,0,0,0,0,0,0,-1,902,1184,0,0
-315,-160,0,0,0,0,0,0,0,0,0,-1,909,1184,0,0
-308,-160,0,0,0,0,0,0,0,0,0,-1,916,1184,0,0
-301,-160,0,0,0,0,0,0,0,0,0,-1,923,1184,0,0
-294,-160,0,0,0,0,0,0,0,0,0,-1,930,1184,0,0
-287,-160,0,0,0,0,0,0,0,0,0,-1,937,1184,0,0
-280,-160,0,0,0,0,0,0,0,0,0,-1,944,1184,0,0
-273,-160,0,0,0,0,0,0,0,0,0,-1,951,1184,0,0
-266,-160,0,0,0,0,0,0,0,0,0,-1,958,1184,0,0
-259,-160,0,0,0,0,0,0,0,0,0,-1,965,1184,0,0
-252,-160,0,0,0,0,0,0,0,0,0,-1,972,1184,0,0
-245,-160,0,0,0,0,0,0,0,0,0,-1,979,1184,0,0
-238,-160,0,0,0,0,0,0,0,0,0,-1,986,1184,0,0
-231,-160,0,0,0,0,0,0,0,0,0,-1,993,1184,0,0
-224,-160,0,0,0,0,0,0,0,0,0,-1,1000,1184,0,0
-217,-160,0,0,0,0,0,0,0,0,0,-1,1007,1184,0,0
-210,-160,0,0,0,0,0,0,0,0,0,-1,1014,1184,0,0
-203,-160,0,0,0,0,0,0,0,0,0,-1,1021,1184,0,0
-196,-160,0,0,0,0,0,0,0,0,0,-1,1028,1184,0,0
-189,-160,0,0,0,0,0,0,0,0,0,-1,1035,1184,0,0
-182,-160,0,0,0,0,0,0,0,0,0,-1,1042,1184,0,0
-175,-160,0,0,0,0,0,0,0,0,0,-1,1049,1184,0,0
-168,-160,0,0,0,0,0,0,0,0,0,-1,1056,1184,0,0
-161,-160,0,0,0,0,0,0,0,0,0,-1,1063,1184,0,0
-154,-160,0,0,0,0,0,0,0,0,0,-1,1070,1184,0,0
-147,-160,0,0,0,0,0,0,0,0,0,-1,1077,1184,0,0
-140,-160,0,0,0,0,0,0,0,0,0,-1,1084,1184,0,0
-133,-160,0,0,0,0,0,0,0,0,0,-1,1091,1184,0,0
-126,-160,0,0,0,0,0,0,0,0,0,-1,1098,1184,0,0
-119,-160,0,0,0,0,0,0,0,0,0,-1,1105,1184,0,0
-112,-160,0,0,0,0,0,0,0,0,0,-1,1112,1184,0,0
-105,-160,0,0,0,0,0,0,0,0,0,-1,1119,1184,0,0
-98,-160,0,0,0,0,0,0,0,0,0,-1,1126,1184,0,0
-91,-160,0,0,0,0,0,0,0,0,0,-1,1133,1184,0,0
-84,-160,0,0,0,0,0,0,0,0,0,-1,1140,1184,0,0
-77,-160,0,0,0,0,0,0,0,0,0,-1,1147,1184,0,0
-70,-160,0,0,0,0,0,0,0,0,0,-1,1154,1184,0,0
-63,-160,0,0,0,0,0,0,0,0,0,-1,1161,1184,0,0
-56,-160,0,0,0,0,0,0,0,0,0,-1,1168,1184,0,0
-49,-160,0,0,0,0,0,0,0,0,0,-1,1175,1184,0,0
-42,-160,0,0,0,0,0,0,0,0,0,-1,1182,1184,0,0
-35,-160,0,0,0,0,0,0,0,0,0,-1,1189,1184,0,0
-28,-160,0,0,0,0,0,0,0,0,0,-1,1196,1184,0,0
-21,-160,0,0,0,0,0,0,0,0,0,-1,1203,1184,0,0
-14,-160,0,0,0,0,0,0,0,0,0,-1,1210,1184,0,0
-7,-160,0,0,0,0,0,0,0,0,0,-1,1217,1184,0,0
0,-160,0,0,0,0,0,0,0,0,0,-1,1224,1184,0,0
7,-160,0,0,0,0,0,0,0,0,0,-1,1231,1184,0,0
14,-160,0,0,0,0,0,0,0,0,0,-1,1238,1184,0,0
21,-160,0,0,0,0,0,0,0,0,0,-1,1245,1184,0,0
28,-160,0,0,0,0,0,0,0,0,0,-1,1252,1184,0,0
35,-160,0,0,0,0,0,0,0,0,0,-1,1259,1184,0,0
42,-160,0,0,0,0,0,0,0,0,0,-1,1266,1184,0,0
49,-160,0,0,0,0,0,0,0,0,0,-1,1273,1184,0,0
56,-160,0,0,0,0,0,0,0,0,0,-1,1280,1184,0,0
63,-160,0,0,0,0,0,0,0,0,0,-1,1287,1184,0,0
70,-160,0,0,0,0,0,0,0,0,0,-1,1294,1184,0,0
77,-160,0,0,0,0,0,0,0,0,0,-1,1301,1184,0,0
84,-160,0,0,0,0,0,0,0,0,0,-1,1308,1184,0,0
91,-160,0,0,0,0,0,0,0,0,0,-1,1315,1184,0,0
98,-160,0,0,0,0,0,0,0,0,0,-1,1322,1184,0,0
105,-160,0,0,0,0,0,0,0,0,0,-1,1329,1184,0,0
112,-160,0,0,0,0,0,0,0,0,0,-1,1336,1184,0,0
119,-160,0,0,0,0,0,0,0,0,0,-1,1343,1184,0,0
126,-160,0,0,0,0,0,0,0,0,0,-1,1350,1184,0,0
133,-160,0,0,0,0,0,0,0,0,0,-1,1357,1184,0,0
140,-160,0,0,0,0,0,0,0,0,0,-1,1364,1184,0,0
147,-160,0,0,0,0,0,0,0,0,0,-1,1371,1184,0,0
154,-160,0,0,0,0,0,0,0,0,0,-1,1378,1184,0,0
161,-160,0,0,0,0,0,0,0,0,0,-1,1385,1184,0,0
168,-160,0,0,0,0,0,0,0,0,0,-1,1392,1184,0,0
175,-160,0,0,0,0,0,0,0,0,0,-1,1399,1184,0,0
182,-160,0,0,0,0,0,0,0,0,0,-1,1406,1184,0,0
189,-160,0,0,0,0,0,0,0,0,0,-1,1413,1184,0,0
196,-160,0,0,0,0,0,0,0,0,0,-1,1420,1184,0,0
203,-160,0,0,0,0,0,0,0,0,0,-1,1427,1184,0,0
210,-160,0,0,0,0,0,0,0,0,0,-1,1434,1184,0,0
217,-160,0,0,0,0,0,0,0,0,0,-1,1441,1184,0,0
224,-160,0,0,0,0,0,0,0,0,0,-1,1448,1184,0,0
231,-160,0,0,0,0,0,0,0,0,0,-1,1455,1184,0,0
238,-160,0,0,0,0,0,0,0,0,0,-1,1462,1184,0,0
245,-160,0,0,0,0,0,0,0,0,0,-1,1469,1184,0,0
252,-160,0,0,0,0,0,0,0,0,0,-1,1476,1184,0,0
259,-160,0,0,0,0,0,0,0,0,0,-1,1483,1184,0,0
266,-160,0,0,0,0,0,0,0,0,0,-1,1490,1184,0,0
273,-160,0,0,0,0,0,0,0,0,0,-1,1497,1184,0,0
280,-160,0,0,0,0,0,0,0,0,0,-1,1504,1184,0,0
287,-160,0,0,0,0,0,0,0,0,0,-1,1511,1184,0,0
294,-160,0,0,0,0,0,0,0,0,0,-1,1518,1184,0,0
301,-160,0,0,0,0,0,0,0,0,0,-1,1525,1184,0,0
308,-160,0,0,0,0,0,0,0,0,0,-1,1532,1184,0,0
315,-160,0,0,0,0,0,0,0,0,0,-1,1539,1184,0,0
322,-160,0,0,0,0,0,0,0,0,0,-1,1546,1184,0,0
329,-160,0,0,0,0,0,0,0,0,0,-1,1553,1184,0,0
336,-160,0,0,0,0,0,0,0,0,0,-1,1560,1184,0,0
343,-160,0,0,0,0,0,0,0,0,0,-1,1567,1184,0,0
350,-160,0,0,0,0,0,0,0,0,0,-1,1574,1184,0,0
357,-160,0,0,0,0,0,0,0,0,0,-1,1581,1184,0,0
364,-160,0,0,0,0,0,0,0,0,0,-1,1588,1184,0,0
371,-160,0,0,0,0,0,0,0,0,0,-1,1595,1184,0,0
378,-160,0,0,0,0,0,0,0,0,0,-1,1602,1184,0,0
385,-160,0,0,0,0,0,0,0,0,0,-1,1609,1184,0,0
392,-160,0,0,0,0,0,0,0,0,0,-1,1616,1184,0,0
399,-160,0,0,0,0,0,0,0,0,0,-1,1623,1184,0,0
406,-160,0,0,0,0,0,0,0,0,0,-1,1630,1184,0,0
413,-160,0,0,0,0,0,0,0,0,0,-1,1637,1184,0,0
420,-160,0,0,0,0,0,0,0,0,0,-1,1644,1184,0,0
427,-160,0,0,0,0,0,0,0,0,0,-1,1651,1184,0,0
434,-160,0,0,0,0,0,0,0,0,0,-1,1658,1184,0,0
441,-160,0,0,0,0,0,0,0,0,0,-1,1665,1184,0,0
448,-160,0,0,0,0,0,0,0,0,0,-1,1672,1184,0,0
455,-160,0,0,0,0,0,0,0,0,0,-1,1679,1184,0,0
462,-160,0,0,0,0,0,0,0,0,0,-1,1686,1184,0,0
469,-160,0,0,0,0,0,0,0,0,0,-1,1693,1184,0,0
476,-160,0,0,0,0,0,0,0,0,0,-1,1700,1184,0,0
483,-160,0,0,0,0,0,0,0,0,0,-1,1707,1184,0,0
490,-160,0,0,0,0,0,0,0,0,0,-1,1714,1184,0,0
497,-160,0,0,0,0,0,0,0,0,0,-1,1721,1184,0,0
504,-160,0,0,0,0,0,0,0,0,0,-1,1728,1184,0,0
511,-160,0,0,0,0,0,0,0,0,0,-1,1735,1184,0,0
518,-160,0,0,0,0,0,0,0,0,0,-1,1742,1184,0,0
525,-160,0,0,0,0,0,0,0,0,0,-1,1749,1184,0,0
532,-160,0,0,0,0,0,0,0,0,0,-1,1756,1184,0,0
539,-160,0,0,0,0,0,0,0,0,0,-1,1763,1184,0,0
546,-160,0,0,0,0,0,0,0,0,0,-1,1770,1184,0,0
553,-160,0,0,0,0,0,0,0,0,0,-1,1777,1184,0,0
560,-160,0,0,0,0,0,0,0,0,0,-1,1784,1184,0,0
567,-160,0,0,0,0,0,0,0,0,0,-1,1791,1184,0,0
574,-160,0,0,0,0,0,0,0,0,0,-1,1798,1184,0,0
581,-160,0,0,0,0,0,0,0,0,0,-1,1805,1184,0,0
588,-160,0,0,0,0,0,0,0,0,0,-1,1812,1184,0,0
595,-160,0,0,0,0,0,0,0,0,0,-1,1819,1184,0,0
602,-160,0,0,0,0,0,0,0,0,0,-1,1826,1184,0,0
609,-160,0,0,0,0,0,0,0,0,0,-1,1833,1184,0,0
616,-160,0,0,0,0,0,0,0,0,0,-1,1840,1184,0,0
623,-160,0,0,0,0,0,0,0,0,0,-1,1847,1184,0,0
630,-160,0,0,0,0,0,0,0,0,0,-1,1854,1184,0,0
637,-160,17.115,2.38086,-0.00427172,0.0031189,0.00058895,0.00316554,-0.00431836,1.49177,0.00433788,0.0441119,1861,1184,17.115,-2.38088
644,-160,17.0334,2.37402,-0.00229442,0.00348508,-0.000169708,0.00349006,-0.0022994,-1.54147,0.00336603,0.0447384,1868,1184,17.0334,-2.37402
651,-160,17.0197,2.48474,-0.00148656,0.00326484,-0.00050324,0.00331755,-0.00153928,-1.46643,0.00286606,0.0395852,1875,1184,17.0196,-2.48478
658,-160,16.9188,2.51013,-0.00212057,0.00262941,0.000238119,0.00264131,-0.00213248,1.52083,0.00276136,0.0392369,1882,1184,16.9189,-2.51008
665,-160,17.1113,2.54358,-0.00342964,0.00173589,0.00142002,0.00210051,-0.00379427,1.31945,0.00344987,0.0367516,1889,1184,17.1113,-2.54352
672,-160,17.1279,2.49768,-0.00482097,0.000834034,0.00256691,0.0018254,-0.00581234,1.20223,0.00460557,0.0314586,1896,1184,17.1279,-2.49766
679,-160,17.0507,2.44702,-0.00607974,-1.93447e-06,0.00359514,0.0016666,-0.00774827,1.13627,0.0058014,0.0247003,1903,1184,17.0507,-2.44707
686,-160,17.0784,2.42786,-0.00703172,-0.0007297,0.00441108,0.00154022,-0.00930164,1.09554,0.00677313,0.0154469,1910,1184,17.0784,-2.42781
693,-160,16.783,2.26038,0,0,0,0,0,0,0,-1,1917,1184,16.7829,-2.26037
700,-160,16.49,3.14844,-0.00786049,-0.00169154,0.00520941,0.00127807,-0.0108301,1.05269,0.00768162,0.049455,1924,1184,16.49,-3.14838
707,-160,15.8694,3.94617,-0.00791537,-0.00202049,0.00523954,0.00104375,-0.0109796,1.04161,0.00769129,0.0388282,1931,1184,15.8694,-3.94617
714,-160,15.9532,3.80505,-0.00782588,-0.00215608,0.00514365,0.000882166,-0.0108641,1.03726,0.00755399,0.0275016,1938,1184,15.9533,-3.805
721,-160,15.9481,3.63062,-0.00729714,-0.00197887,0.00475102,0.000806548,-0.0100826,1.04053,0.00700605,0.0138979,1945,1184,15.9481,-3.63059
728,-160,15.9082,3.60437,-0.00602855,-0.00149453,0.00407362,0.000900403,-0.00842348,1.03931,0.00593859,0.0131238,1952,1184,15.9082,-3.60442
735,-160,15.8289,3.56201,-0.00373263,-0.000576274,0.00333425,0.00153443,-0.00584333,1.00644,0.00449519,0.0136779,1959,1184,15.8289,-3.56197
742,-160,15.8181,3.46985,-0.00042446,-7.54709e-05,0.00199169,0.00174936,-0.00224929,0.829092,0.00231463,0.0154699,1966,1184,15.8181,-3.46985
749,-160,15.8224,3.36328,0.00312153,0.00161812,-0.000173803,0.00314136,0.00159829,-0.11361,0.00181376,0.0168681,1973,1184,15.8224,-3.36327
756,-160,15.8269,3.29944,0.00711167,0.00425819,-0.00257379,0.00862772,0.00274214,-0.532316,0.00509023,0.0112428,1980,1184,15.8269,-3.29943
763,-160,15.8291,3.21338,0.011595,0.00671445,-0.00486208,0.0145948,0.00371462,-0.552815,0.00875833,0.012033,1987,1184,15.8291,-3.21332
770,-160,15.8193,3.09009,0.0165363,0.00974443,-0.00749868,0.0213722,0.00490857,-0.572778,0.0129264,0.0163846,1994,1184,15.8194,-3.09004
777,-160,15.8679,2.94067,0.0221427,0.0136882,-0.0109426,0.0296462,0.00618476,-0.601072,0.0180591,0.0293792,2001,1184,15.8679,-2.94062
784,-160,16.2318,2.62842,0.0283557,0.0189918,-0.0155632,0.039926,0.00742158,-0.639287,0.0245207,0.0445193,2008,1184,16.2318,-2.62844
791,-160,15.649,3.10535,0.0348709,0.0261844,-0.0217118,0.0526696,0.00838576,-0.68668,0.0326785,0.047862,2015,1184,15.649,-3.10539
798,-160,15.6005,2.31238,0.0413202,0.0360061,-0.0298462,0.0686274,0.00869894,-0.741003,0.0431452,0.0462596,2022,1184,15.6005,-2.31237
805,-160,15.7042,2.17542,0.0468014,0.049565,-0.0404304,0.0886372,0.00772927,-0.80248,0.0566909,0.0435161,2029,1184,15.7042,-2.17547
812,-160,0,0,0,0,0,0,0,0,0,-1,2036,1184,0,0
-700,-167,0,0,0,0,0,0,0,0,0,-1,524,1191,0,0
-693,-167,0,0,0,0,0,0,0,0,0,-1,531,1191,0,0
-686,-167,-7.37488,0.110718,-0.0395443,0.0367326,-0.0254758,0.0444587,-0.0472704,-1.27634,0.0529681,0.0437459,538,1191,-7.37486,-0.110753
-679,-167,-7.87646,-0.0489502,-0.0284961,0.0314752,-0.0227161,0.0391082,-0.0361291,-1.24663,0.0434496,0.0436451,545,1191,-7.87648,0.0489228
-672,-167,-8.30743,-0.123901,-0.0205896,0.0262997,-0.0192282,0.0331762,-0.0274662,-1.22734,0.0350636,0.0453513,552,1191,-8.30743,0.123929
-665,-167,-8.46045,-0.328491,-0.0148045,0.0214888,-0.0156573,0.0273098,-0.0206255,-1.21485,0.027765,0.0451461,559,1191,-8.46045,0.328478
-658,-167,-8.71002,-0.512695,0,0,0,0,0,0,0,-1,566,1191,-8.71001,0.512668
-651,-167,-9.17334,0.546143,0,0,0,0,0,0,0,-1,573,1191,-9.17336,-0.546154
-644,-167,-9.23511,0.680908,-0.00510761,0.0101171,-0.00665636,0.0126169,-0.00760738,-1.21155,0.0117953,0.0385539,580,1191,-9.23509,-0.680904
-637,-167,-9.30347,0.812988,-0.00342568,0.00752893,-0.00468717,0.00926067,-0.00515743,-1.21689,0.00843591,0.0151868,587,1191,-9.3035,-0.813037
-630,-167,-9.34235,0.930542,-0.00231167,0.00496899,-0.00327827,0.00622754,-0.00357022,-1.20424,0.00572567,0.00818899,594,1191,-9.34233,-0.930501
-623,-167,-9.35925,1.02002,-0.00197543,0.00267667,-0.00277129,0.00396871,-0.00326746,-1.13453,0.00418434,0.00990064,601,1191,-9.35924,-1.02005
-616,-167,-9.36963,1.14648,-0.001834,0.00105531,-0.00301752,0.00295616,-0.00373485,-1.00865,0.00387177,0.0134956,608,1191,-9.36961,-1.14654
-609,-167,-9.36511,1.29321,-0.00227611,-3.96013e-05,-0.00356227,0.0025758,-0.00489152,-0.937486,0.00437982,0.014297,615,1191,-9.36512,-1.29325
-602,-167,-9.35907,1.39063,-0.00311099,-0.000254032,-0.00465048,0.00318241,-0.00654744,-0.934408,0.00572842,0.0146827,622,1191,-9.35909,-1.39068
-595,-167,-9.33185,1.53259,-0.0037086,-0.000358254,-0.00612397,0.00431552,-0.00838238,-0.918904,0.00745542,0.0193909,629,1191,-9.33184,-1.53263
-588,-167,-9.34668,1.67529,-0.0039297,-0.000448404,-0.00737624,0.00538978,-0.00976788,-0.901268,0.00887213,0.0181362,636,1191,-9.34668,-1.67534
-581,-167,-9.37219,1.74548,-0.00381542,-0.000296435,-0.008019,0.00615383,-0.0102657,-0.893394,0.00957839,0.0168969,643,1191,-9.37217,-1.74543
-574,-167,-9.508,1.89014,-0.00354001,0.000184417,-0.00848579,0.00700993,-0.0103655,-0.893411,0.0100939,0.0362228,650,1191,-9.50802,-1.89019
-567,-167,-10.2451,1.44617,-0.00324258,0.00055135,-0.00863851,0.00749872,-0.01019,-0.89348,0.0102519,0.040156,657,1191,-10.2451,-1.4462
-560,-167,-10.9622,0.805176,0,0,0,0,0,0,0,-1,664,1191,-10.9622,-0.805132
-553,-167,-10.6934,0.437744,-0.0020297,0.00141572,-0.00771655,0.00759951,-0.0082135,-0.895222,0.00913194,0.035899,671,1191,-10.6934,-0.437804
-546,-167,-10.7587,0.449341,-0.000914805,0.00178645,-0.00650897,0.00708345,-0.0062118,-0.887698,0.00768151,0.0358245,678,1191,-10.7587,-0.449284
-539,-167,-10.6736,0.310913,0.00056307,0.0019752,-0.00475584,0.0060771,-0.00353883,-0.859092,0.00561586,0.0403697,685,1191,-10.6736,-0.310864
-532,-167,-10.5039,0.120483,0.00257278,0.00185449,-0.00244176,0.00468167,-0.000254395,-0.712379,0.00320927,0.0444837,692,1191,-10.5039,-0.120489
-525,-167,-10.3138,0.17334,0,0,0,0,0,0,0,-1,699,1191,-10.3138,-0.173336
-518,-167,-10.5344,0.563843,0,0,0,0,0,0,0,-1,706,1191,-10.5344,-0.563824
-511,-167,0,0,0,0,0,0,0,0,0,-1,713,1191,0,0
-504,-167,0,0,0,0,0,0,0,0,0,-1,720,1191,0,0
-497,-167,0,0,0,0,0,0,0,0,0,-1,727,1191,0,0
-490,-167,0,0,0,0,0,0,0,0,0,-1,734,1191,0,0
-483,-167,0,0,0,0,0,0,0,0,0,-1,741,1191,0,0
-476,-167,0,0,0,0,0,0,0,0,0,-1,748,1191,0,0
-469,-167,0,0,0,0,0,0,0,0,0,-1,755,1191,0,0
-462,-167,0,0,0,0,0,0,0,0,0,-1,762,1191,0,0
-455,-167,0,0,0,0,0,0,0,0,0,-1,769,1191,0,0
-448,-167,0,0,0,0,0,0,0,0,0,-1,776,1191,0,0
-441,-167,0,0,0,0,0,0,0,0,0,-1,783,1191,0,0
-434,-167,0,0,0,0,0,0,0,0,0,-1,790,1191,0,0
-427,-167,0,0,0,0,0,0,0,0,0,-1,797,1191,0,0
-420,-167,0,0,0,0,0,0,0,0,0,-1,804,1191,0,0
-413,-167,0,0,0,0,0,0,0,0,0,-1,811,1191,0,0
-406,-167,0,0,0,0,0,0,0,0,0,-1,818,1191,0,0
-399,-167,0,0,0,0,0,0,0,0,0,-1,825,1191,0,0
-392,-167,0,0,0,0,0,0,0,0,0,-1,832,1191,0,0
-385,-167,0,0,0,0,0,0,0,0,0,-1,839,1191,0,0
-378,-167,0,0,0,0,0,0,0,0,0,-1,846,1191,0,0
-371,-167,0,0,0,0,0,0,0,0,0,-1,853,1191,0,0
-364,-167,0,0,0,0,0,0,0,0,0,-1,860,1191,0,0
-357,-167,0,0,0,0,0,0,0,0,0,-1,867,1191,0,0
-350,-167,0,0,0,0,0,0,0,0,0,-1,874,1191,0,0
-343,-167,0,0,0,0,0,0,0,0,0,-1,881,1191,0,0
-336,-167,0,0,0,0,0,0,0,0,0,-1,888,1191,0,0
-329,-167,0,0,0,0,0,0,0,0,0,-1,895,1191,0,0
-322,-167,0,0,0,0,0,0,0,0,0,-1,902,1191,0,0
-315,-167,0,0,0,0,0,0,0,0,0,-1,909,1191,0,0
-308,-167,0,0,0,0,0,0,0,0,0,-1,916,1191,0,0
-301,-167,0,0,0,0,0,0,0,0,0,-1,923,1191,0,0
-294,-167,0,0,0,0,0,0,0,0,0,-1,930,1191,0,0
-287,-167,0,0,0,0,0,0,0,0,0,-1,937,1191,0,0
-280,-167,0,0,0,0,0,0,0,0,0,-1,944,1191,0,0
-273,-167,0,0,0,0,0,0,0,0,0,-1,951,1191,0,0
-266,-167,0,0,0,0,0,0,0,0,0,-1,958,1191,0,0
-259,-167,0,0,0,0,0,0,0,0,0,-1,965,1191,0,0
-252,-167,0,0,0,0,0,0,0,0,0,-1,972,1191,0,0
-245,-167,0,0,0,0,0,0,0,0,0,-1,979,1191,0,0
-238,-167,0,0,0,0,0,0,0,0,0,-1,986,1191,0,0
-231,-167,0,0,0,0,0,0,0,0,0,-1,993,1191,0,0
-224,-167,0,0,0,0,0,0,0,0,0,-1,1000,1191,0,0
-217,-167,0,0,0,0,0,0,0,0,0,-1,1007,1191,0,0
-210,-167,0,0,0,0,0,0,0,0,0,-1,1014,1191,0,0
-203,-167,0,0,0,0,0,0,0,0,0,-1,1021,1191,0,0
-196,-167,0,0,0,0,0,0,0,0,0,-1,1028,1191,0,0
-189,-167,0,0,0,0,0,0,0,0,0,-1,1035,1191,0,0
-182,-167,0,0,0,0,0,0,0,0,0,-1,1042,1191,0,0
-175,-167,0,0,0,0,0,0,0,0,0,-1,1049,1191,0,0
-168,-167,0,0,0,0,0,0,0,0,0,-1,1056,1191,0,0
-161,-167,0,0,0,0,0,0,0,0,0,-1,1063,1191,0,0
-154,-167,0,0,0,0,0,0,0,0,0,-1,1070,1191,0,0
-147,-167,0,0,0,0,0,0,0,0,0,-1,1077,1191,0,0
-140,-167,0,0,0,0,0,0,0,0,0,-1,1084,1191,0,0
-133,-167,0,0,0,0,0,0,0,0,0,-1,1091,1191,0,0
-126,-167,0,0,0,0,0,0,0,0,0,-1,1098,1191,0,0
-119,-167,0,0,0,0,0,0,0,0,0,-1,1105,1191,0,0
-112,-167,0,0,0,0,0,0,0,0,0,-1,1112,1191,0,0
-105,-167,0,0,0,0,0,0,0,0,0,-1,1119,1191,0,0
-98,-167,0,0,0,0,0,0,0,0,0,-1,1126,1191,0,0
-91,-167,0,0,0,0,0,0,0,0,0,-1,1133,1191,0,0
-84,-167,0,0,0,0,0,0,0,0,0,-1,1140,1191,0,0
-77,-167,0,0,0,0,0,0,0,0,0,-1,1147,1191,0,0
-70,-167,0,0,0,0,0,0,0,0,0,-1,1154,1191,0,0
-63,-167,0,0,0,0,0,0,0,0,0,-1,1161,1191,0,0
-56,-167,0,0,0,0,0,0,0,0,0,-1,1168,1191,0,0
-49,-167,0,0,0,0,0,0,0,0,0,-1,1175,1191,0,0
-42,-167,0,0,0,0,0,0,0,0,0,-1,1182,1191,0,0
-35,-167,0,0,0,0,0,0,0,0,0,-1,1189,1191,0,0
-28,-167,0,0,0,0,0,0,0,0,0,-1,1196,1191,0,0
-21,-167,0,0,0,0,0,0,0,0,0,-1,1203,1191,0,0
-14,-167,0,0,0,0,0,0,0,0,0,-1,1210,1191,0,0
-7,-167,0,0,0,0,0,0,0,0,0,-1,1217,1191,0,0
0,-167,0,0,0,0,0,0,0,0,0,-1,1224,1191,0,0
7,-167,0,0,0,0,0,0,0,0,0,-1,1231,1191,0,0
14,-167,0,0,0,0,0,0,0,0,0,-1,1238,1191,0,0
21,-167,0,0,0,0,0,0,0,0,0,-1,1245,1191,0,0
28,-167,0,0,0,0,0,0,0,0,0,-1,1252,1191,0,0
35,-167,0,0,0,0,0,0,0,0,0,-1,1259,1191,0,0
42,-167,0,0,0,0,0,0,0,0,0,-1,1266,1191,0,0
49,-167,0,0,0,0,0,0,0,0,0,-1,1273,1191,0,0
56,-167,0,0,0,0,0,0,0,0,0,-1,1280,1191,0,0
63,-167,0,0,0,0,0,0,0,0,0,-1,1287,1191,0,0
70,-167,0,0,0,0,0,0,0,0,0,-1,1294,1191,0,0
77,-167,0,0,0,0,0,0,0,0,0,-1,1301,1191,0,0
84,-167,0,0,0,0,0,0,0,0,0,-1,1308,1191,0,0
91,-167,0,0,0,0,0,0,0,0,0,-1,1315,1191,0,0
98,-167,0,0,0,0,0,0,0,0,0,-1,1322,1191,0,0
105,-167,0,0,0,0,0,0,0,0,0,-1,1329,1191,0,0
112,-167,0,0,0,0,0,0,0,0,0,-1,1336,1191,0,0
119,-167,0,0,0,0,0,0,0,0,0,-1,1343,1191,0,0
126,-167,0,0,0,0,0,0,0,0,0,-1,1350,1191,0,0
133,-167,0,0,0,0,0,0,0,0,0,-1,1357,1191,0,0
140,-167,0,0,0,0,0,0,0,0,0,-1,1364,1191,0,0
147,-167,0,0,0,0,0,0,0,0,0,-1,1371,1191,0,0
154,-167,0,0,0,0,0,0,0,0,0,-1,1378,1191,0,0
161,-167,0,0,0,0,0,0,0,0,0,-1,1385,1191,0,0
168,-167,0,0,0,0,0,0,0,0,0,-1,1392,1191,0,0
175,-167,0,0,0,0,0,0,0,0,0,-1,1399,1191,0,0
182,-167,0,0,0,0,0,0,0,0,0,-1,1406,1191,0,0
189,-167,0,0,0,0,0,0,0,0,0,-1,1413,1191,0,0
196,-167,0,0,0,0,0,0,0,0,0,-1,1420,1191,0,0
203,-167,0,0,0,0,0,0,0,0,0,-1,1427,1191,0,0
210,-167,0,0,0,0,0,0,0,0,0,-1,1434,1191,0,0
217,-167,0,0,0,0,0,0,0,0,0,-1,1441,1191,0,0
224,-167,0,0,0,0,0,0,0,0,0,-1,1448,1191,0,0
231,-167,0,0,0,0,0,0,0,0,0,-1,1455,1191,0,0
238,-167,0,0,0,0,0,0,0,0,0,-1,1462,1191,0,0
245,-167,0,0,0,0,0,0,0,0,0,-1,1469,1191,0,0
252,-167,0,0,0,0,0,0,0,0,0,-1,1476,1191,0,0
259,-167,0,0,0,0,0,0,0,0,0,-1,1483,1191,0,0
266,-167,0,0,0,0,0,0,0,0,0,-1,1490,1191,0,0
273,-167,0,0,0,0,0,0,0,0,0,-1,1497,1191,0,0
280,-167,0,0,0,0,0,0,0,0,0,-1,1504,1191,0,0
287,-167,0,0,0,0,0,0,0,0,0,-1,1511,1191,0,0
294,-167,0,0,0,0,0,0,0,0,0,-1,1518,1191,0,0
301,-167,0,0,0,0,0,0,0,0,0,-1,1525,1191,0,0
308,-167,0,0,0,0,0,0,0,0,0,-1,1532,1191,0,0
315,-167,0,0,0,0,0,0,0,0,0,-1,1539,1191,0,0
322,-167,0,0,0,0,0,0,0,0,0,-1,1546,1191,0,0
329,-167,0,0,0,0,0,0,0,0,0,-1,1553,1191,0,0
336,-167,0,0,0,0,0,0,0,0,0,-1,1560,1191,0,0
343,-167,0,0,0,0,0,0,0,0,0,-1,1567,1191,0,0
350,-167,0,0,0,0,0,0,0,0,0,-1,1574,1191,0,0
357,-167,0,0,0,0,0,0,0,0,0,-1,1581,1191,0,0
364,-167,0,0,0,0,0,0,0,0,0,-1,1588,1191,0,0
371,-167,0,0,0,0,0,0,0,0,0,-1,1595,1191,0,0
378,-167,0,0,0,0,0,0,0,0,0,-1,1602,1191,0,0
385,-167,0,0,0,0,0,0,0,0,0,-1,1609,1191,0,0
392,-167,0,0,0,0,0,0,0,0,0,-1,1616,1191,0,0
399,-167,0,0,0,0,0,0,0,0,0,-1,1623,1191,0,0
406,-167,0,0,0,0,0,0,0,0,0,-1,1630,1191,0,0
413,-167,0,0,0,0,0,0,0,0,0,-1,1637,1191,0,0
420,-167,0,0,0,0,0,0,0,0,0,-1,1644,1191,0,0
427,-167,0,0,0,0,0,0,0,0,0,-1,1651,1191,0,0
434,-167,0,0,0,0,0,0,0,0,0,-1,1658,1191,0,0
441,-167,0,0,0,0,0,0,0,0,0,-1,1665,1191,0,0
448,-167,0,0,0,0,0,0,0,0,0,-1,1672,1191,0,0
455,-167,0,0,0,0,0,0,0,0,0,-1,1679,1191,0,0
462,-167,0,0,0,0,0,0,0,0,0,-1,1686,1191,0,0
469,-167,0,0,0,0,0,0,0,0,0,-1,1693,1191,0,0
476,-167,0,0,0,0,0,0,0,0,0,-1,1700,1191,0,0
483,-167,0,0,0,0,0,0,0,0,0,-1,1707,1191,0,0
490,-167,0,0,0,0,0,0,0,0,0,-1,1714,1191,0,0
497,-167,0,0,0,0,0,0,0,0,0,-1,1721,1191,0,0
504,-167,0,0,0,0,0,0,0,0,0,-1,1728,1191,0,0
511,-167,0,0,0,0,0,0,0,0,0,-1,1735,1191,0,0
518,-167,0,0,0,0,0,0,0,0,0,-1,1742,1191,0,0
525,-167,0,0,0,0,0,0,0,0,0,-1,1749,1191,0,0
532,-167,0,0,0,0,0,0,0,0,0,-1,1756,1191,0,0
539,-167,0,0,0,0,0,0,0,0,0,-1,1763,1191,0,0
546,-167,0,0,0,0,0,0,0,0,0,-1,1770,1191,0,0
553,-167,0,0,0,0,0,0,0,0,0,-1,1777,1191,0,0
560,-167,0,0,0,0,0,0,0,0,0,-1,1784,1191,0,0
567,-167,0,0,0,0,0,0,0,0,0,-1,1791,1191,0,0
574,-167,0,0,0,0,0,0,0,0,0,-1,1798,1191,0,0
581,-167,0,0,0,0,0,0,0,0,0,-1,1805,1191,0,0
588,-167,0,0,0,0,0,0,0,0,0,-1,1812,1191,0,0
595,-167,0,0,0,0,0,0,0,0,0,-1,1819,1191,0,0
602,-167,0,0,0,0,0,0,0,0,0,-1,1826,1191,0,0
609,-167,0,0,0,0,0,0,0,0,0,-1,1833,1191,0,0
616,-167,0,0,0,0,0,0,0,0,0,-1,1840,1191,0,0
623,-167,0,0,0,0,0,0,0,0,0,-1,1847,1191,0,0
630,-167,0,0,0,0,0,0,0,0,0,-1,1854,1191,0,0
637,-167,16.9633,2.37048,-0.00316488,0.00327798,-3.72615e-05,0.00327819,-0.00316509,-1.56501,0.00372023,0.0444015,1861,1191,16.9632,-2.37043
644,-167,16.9755,2.16821,-0.00129487,0.00367584,-0.000758779,0.00378909,-0.00140812,-1.42264,0.0031038,0.0488062,1868,1191,16.9755,-2.16827
651,-167,16.9497,2.36597,-0.00100883,0.0033746,-0.000819515,0.0035228,-0.00115703,-1.39189,0.00281463,0.0436918,1875,1191,16.9497,-2.36596
658,-167,16.9246,2.66541,-0.00213121,0.00265416,0.000111194,0.00265674,-0.00213379,1.54758,0.0027713,0.0416902,1882,1191,16.9245,-2.66546
665,-167,17.1664,2.72949,-0.00370148,0.00172538,0.00133117,0.00203432,-0.00401042,1.34275,0.00355156,0.0364169,1889,1191,17.1663,-2.7295
672,-167,17.1423,2.55945,-0.0052437,0.000796185,0.00247585,0.00168135,-0.00612886,1.22744,0.00474668,0.0264285,1896,1191,17.1423,-2.55949
679,-167,17.0496,2.48364,-0.00658698,-5.29526e-05,0.00350236,0.00146959,-0.00810953,1.16072,0.00595695,0.0200011,1903,1191,17.0495,-2.4836
686,-167,17.056,2.39502,-0.00753309,-0.000787558,0.00429902,0.00130384,-0.00962449,1.11802,0.00689217,0.0267104,1910,1191,17.0561,-2.39499
693,-167,16.771,2.37622,0,0,0,0,0,0,0,-1,1917,1191,16.771,-2.37624
700,-167,16.2053,3.22815,-0.00829923,-0.00171809,0.00509058,0.00105285,-0.0110702,1.07232,0.00775492,0.0396955,1924,1191,16.2053,-3.22815
707,-167,15.7168,3.95337,-0.00829787,-0.00204112,0.0051008,0.000814226,-0.0111532,1.06047,0.00772121,0.0323098,1931,1191,15.7168,-3.95331
714,-167,15.8702,3.86853,-0.00809011,-0.00217138,0.00495189,0.000638051,-0.0108995,1.05473,0.00748811,0.0215329,1938,1191,15.8702,-3.8685
721,-167,15.873,3.68018,-0.00740662,-0.0019925,0.0045083,0.00055904,-0.00995816,1.05578,0.00683275,0.0179079,1945,1191,15.8731,-3.68014
728,-167,15.8044,3.64551,-0.00600756,-0.00143186,0.00379805,0.00071419,-0.0081536,1.05648,0.00568876,0.0130728,1952,1191,15.8044,-3.64549
735,-167,15.7439,3.5835,-0.00359716,-0.000400215,0.00301183,0.00141104,-0.00540841,1.02936,0.00415657,0.0135838,1959,1191,15.7439,-3.58351
742,-167,15.7122,3.48926,-0.00018545,0.000373492,0.00161623,0.00173423,-0.00154619,0.871009,0.00189499,0.0151815,1966,1191,15.7121,-3.48923
749,-167,15.7158,3.37708,0.00347529,0.00221958,-0.000588143,0.00370774,0.00198714,-0.376375,0.00214251,0.0147428,1973,1191,15.7159,-3.3771
756,-167,15.7474,3.29919,0.00744209,0.00499076,-0.00298495,0.00944322,0.00298963,-0.590587,0.00557297,0.0109399,1980,1191,15.7474,-3.29916
763,-167,15.7264,3.1908,0.0118114,0.00760986,-0.00522011,0.0153376,0.00408366,-0.594096,0.00917204,0.0113835,1987,1191,15.7264,-3.19084
770,-167,15.7024,3.08032,0.016737,0.0108639,-0.00784471,0.0221768,0.00542413,-0.606303,0.013349,0.0201437,1994,1191,15.7024,-3.08027
777,-167,15.7264,2.77917,0.0224434,0.0150619,-0.0113162,0.0306555,0.00684981,-0.627763,0.0185795,0.0374898,2001,1191,15.7265,-2.77914
784,-167,15.7405,2.43335,0.0288444,0.0205743,-0.0159519,0.0411885,0.00823022,-0.658579,0.0251682,0.0487521,2008,1191,15.7405,-2.4334
791,-167,15.7953,2.01794,0.0356808,0.0278623,-0.0220862,0.0542011,0.00934199,-0.697806,0.0334576,0.0461703,2015,1191,15.7953,-2.01798
798,-167,15.6995,1.55017,0.0426463,0.0375432,-0.0301591,0.0703615,0.00982795,-0.743197,0.0439991,0.0453032,2022,1191,15.6995,-1.5502
805,-167,15.6604,1.10352,0.0489175,0.0505397,-0.0406305,0.0903672,0.00909,-0.795378,0.057455,0.0453859,2029,1191,15.6604,-1.10351
812,-167,0,0,0,0,0,0,0,0,0,-1,2036,1191,0,0
-700,-174,0,0,0,0,0,0,0,0,0,-1,524,1198,0,0
-693,-174,0,0,0,0,0,0,0,0,0,-1,531,1198,0,0
-686,-174,-7.0918,-0.296021,-0.0310465,0.0360078,-0.0320693,0.0488758,-0.0439145,-1.18921,0.053598,0.0433063,538,1198,-7.09178,0.296065
-679,-174,-7.43567,-0.521484,-0.0201955,0.0291531,-0.0261907,0.0404618,-0.0315041,-1.1632,0.0416567,0.0427861,545,1198,-7.43568,0.521541
-672,-174,-7.7876,-0.475098,-0.0131773,0.0233517,-0.0206631,0.0326654,-0.022491,-1.14733,0.0320247,0.045292,552,1198,-7.78758,0.475097
-665,-174,-8.02911,-0.670898,-0.00850187,0.018464,-0.0157942,0.0257475,-0.0157854,-1.13871,0.0242079,0.044842,559,1198,-8.02909,0.670911
-658,-174,-8.29504,-0.817749,0,0,0,0,0,0,0,-1,566,1198,-8.29507,0.817716
-651,-174,-9.10107,0.638306,0,0,0,0,0,0,0,-1,573,1198,-9.10109,-0.638365
-644,-174,-9.09357,0.647583,-0.00197239,0.00816653,-0.00544922,0.0105397,-0.00434561,-1.16005,0.0088386,0.0414841,580,1198,-9.09359,-0.647545
-637,-174,-9.14166,0.755859,-0.0011545,0.00597646,-0.00343338,0.0073608,-0.00253884,-1.18753,0.00593727,0.019897,587,1198,-9.14167,-0.755824
-630,-174,-9.20013,0.908203,-0.00062962,0.00386152,-0.00203655,0.00464747,-0.00141557,-1.20248,0.00366252,0.0110809,594,1198,-9.20011,-0.908157
-623,-174,-9.22876,1.00623,-0.000667328,0.00203553,-0.00158558,0.00276747,-0.00139927,-1.13832,0.00244852,0.0130929,601,1198,-9.22876,-1.00623
-616,-174,-9.24597,1.13513,-0.000749714,0.000780275,-0.00197806,0.00213611,-0.00210555,-0.96991,0.00244895,0.0198077,608,1198,-9.24596,-1.13519
-609,-174,-9.24915,1.28711,-0.00123344,-3.77097e-05,-0.00274956,0.00217824,-0.00344938,-0.892452,0.00327662,0.0225483,615,1198,-9.24913,-1.28715
-602,-174,-9.2691,1.37683,-0.00207427,3.94443e-05,-0.0040937,0.00321051,-0.00524533,-0.911723,0.00492888,0.0143016,622,1198,-9.26912,-1.37678
-595,-174,-9.21594,1.5144,-0.00265382,9.81754e-05,-0.00575919,0.00464347,-0.00719911,-0.902661,0.00689018,0.0120239,629,1198,-9.21592,-1.5144
-588,-174,-9.24957,1.64197,-0.00285231,1.20366e-05,-0.00713036,0.00585264,-0.00869291,-0.884507,0.00845107,0.0131549,636,1198,-9.24958,-1.64192
-581,-174,-9.29803,1.73071,-0.00278863,0.000153127,-0.00783288,0.00665203,-0.00928753,-0.878209,0.00924455,0.01549,643,1198,-9.29806,-1.73069
-574,-174,-9.40692,1.74316,0,0,0,0,0,0,0,-1,650,1198,-9.40689,-1.74317
-567,-174,-9.65826,0.924438,0,0,0,0,0,0,0,-1,657,1198,-9.65827,-0.924451
-560,-174,-9.91663,-0.488525,0,0,0,0,0,0,0,-1,664,1198,-9.91661,0.488504
-553,-174,-10.6704,0.428711,-0.00194469,0.00184828,-0.00786105,0.00803838,-0.00813479,-0.903762,0.00933764,0.0355215,671,1198,-10.6704,-0.428661
-546,-174,-10.7507,0.588623,-0.00128644,0.00221898,-0.00680292,0.00749135,-0.00655881,-0.911476,0.00811782,0.0293414,678,1198,-10.7507,-0.588626
-539,-174,-10.6915,0.54541,-0.000338138,0.00246187,-0.00523227,0.0064782,-0.00435446,-0.916122,0.00629418,0.0349696,685,1198,-10.6914,-0.545441
-532,-174,-10.8539,0.867188,0.00109678,0.00249935,-0.00313131,0.00500694,-0.00141081,-0.89556,0.00389437,0.0453675,692,1198,-10.8539,-0.867154
-525,-174,-10.9162,1.09485,0.00287851,0.00213202,-0.00076311,0.00335476,0.00165576,-0.55795,0.00193693,0.0463116,699,1198,-10.9162,-1.09484
-518,-174,-10.7029,0.714111,0.00506176,5.04529e-05,-0.000301162,0.00507979,3.24191e-05,-0.0598097,0.00337577,0.0435185,706,1198,-10.703,-0.71409
-511,-174,0,0,0,0,0,0,0,0,0,-1,713,1198,0,0
-504,-174,0,0,0,0,0,0,0,0,0,-1,720,1198,0,0
-497,-174,0,0,0,0,0,0,0,0,0,-1,727,1198,0,0
-490,-174,0,0,0,0,0,0,0,0,0,-1,734,1198,0,0
-483,-174,0,0,0,0,0,0,0,0,0,-1,741,1198,0,0
-476,-174,0,0,0,0,0,0,0,0,0,-1,748,1198,0,0
-469,-174,0,0,0,0,0,0,0,0,0,-1,755,1198,0,0
-462,-174,0,0,0,0,0,0,0,0,0,-1,762,1198,0,0
-455,-174,0,0,0,0,0,0,0,0,0,-1,769,1198,0,0
-448,-174,0,0,0,0,0,0,0,0,0,-1,776,1198,0,0
-441,-174,0,0,0,0,0,0,0,0,0,-1,783,1198,0,0
-434,-174,0,0,0,0,0,0,0,0,0,-1,790,1198,0,0
-427,-174,0,0,0,0,0,0,0,0,0,-1,797,1198,0,0
-420,-174,0,0,0,0,0,0,0,0,0,-1,804,1198,0,0
-413,-174,0,0,0,0,0,0,0,0,0,-1,811,1198,0,0
-406,-174,0,0,0,0,0,0,0,0,0,-1,818,1198,0,0
-399,-174,0,0,0,0,0,0,0,0,0,-1,825,1198,0,0
-392,-174,0,0,0,0,0,0,0,0,0,-1,832,1198,0,0
-385,-174,0,0,0,0,0,0,0,0,0,-1,839,1198,0,0
-378,-174,0,0,0,0,0,0,0,0,0,-1,846,1198,0,0
-371,-174,0,0,0,0,0,0,0,0,0,-1,853,1198,0,0
-364,-174,0,0,0,0,0,0,0,0,0,-1,860,1198,0,0
-357,-174,0,0,0,0,0,0,0,0,0,-1,867,1198,0,0
-350,-174,0,0,0,0,0,0,0,0,0,-1,874,1198,0,0
-343,-174,0,0,0,0,0,0,0,0,0,-1,881,1198,0,0
-336,-174,0,0,0,0,0,0,0,0,0,-1,888,1198,0,0
-329,-174,0,0,0,0,0,0,0,0,0,-1,895,1198,0,0
-322,-174,0,0,0,0,0,0,0,0,0,-1,902,1198,0,0
-315,-174,0,0,0,0,0,0,0,0,0,-1,909,1198,0,0
-308,-174,0,0,0,0,0,0,0,0,0,-1,916,1198,0,0
-301,-174,0,0,0,0,0,0,0,0,0,-1,923,1198,0,0
-294,-174,0,0,0,0,0,0,0,0,0,-1,930,1198,0,0
-287,-174,0,0,0,0,0,0,0,0,0,-1,937,1198,0,0
-280,-174,0,0,0,0,0,0,0,0,0,-1,944,1198,0,0
-273,-174,0,0,0,0,0,0,0,0,0,-1,951,1198,0,0
-266,-174,0,0,0,0,0,0,0,0,0,-1,958,1198,0,0
-259,-174,0,0,0,0,0,0,0,0,0,-1,965,1198,0,0
-252,-174,0,0,0,0,0,0,0,0,0,-1,972,1198,0,0
-245,-174,0,0,0,0,0,0,0,0,0,-1,979,1198,0,0
-238,-174,0,0,0,0,0,0,0,0,0,-1,986,1198,0,0
-231,-174,0,0,0,0,0,0,0,0,0,-1,993,1198,0,0
-224,-174,0,0,0,0,0,0,0,0,0,-1,1000,1198,0,0
-217,-174,0,0,0,0,0,0,0,0,0,-1,1007,1198,0,0
-210,-174,0,0,0,0,0,0,0,0,0,-1,1014,1198,0,0
-203,-174,0,0,0,0,0,0,0,0,0,-1,1021,1198,0,0
-196,-174,0,0,0,0,0,0,0,0,0,-1,1028,1198,0,0
-189,-174,0,0,0,0,0,0,0,0,0,-1,1035,1198,0,0
-182,-174,0,0,0,0,0,0,0,0,0,-1,1042,1198,0,0
-175,-174,0,0,0,0,0,0,0,0,0,-1,1049,1198,0,0
-168,-174,0,0,0,0,0,0,0,0,0,-1,1056,1198,0,0
-161,-174,0,0,0,0,0,0,0,0,0,-1,1063,1198,0,0
-154,-174,0,0,0,0,0,0,0,0,0,-1,1070,1198,0,0
-147,-174,0,0,0,0,0,0,0,0,0,-1,1077,1198,0,0
-140,-174,0,0,0,0,0,0,0,0,0,-1,1084,1198,0,0
-133,-174,0,0,0,0,0,0,0,0,0,-1,1091,1198,0,0
-126,-174,0,0,0,0,0,0,0,0,0,-1,1098,1198,0,0
-119,-174,0,0,0,0,0,0,0,0,0,-1,1105,1198,0,0
-112,-174,0,0,0,0,0,0,0,0,0,-1,1112,1198,0,0
-105,-174,0,0,0,0,0,0,0,0,0,-1,1119,1198,0,0
-98,-174,0,0,0,0,0,0,0,0,0,-1,1126,1198,0,0
-91,-174,0,0,0,0,0,0,0,0,0,-1,1133,1198,0,0
-84,-174,0,0,0,0,0,0,0,0,0,-1,1140,1198,0,0
-77,-174,0,0,0,0,0,0,0,0,0,-1,1147,1198,0,0
-70,-174,0,0,0,0,0,0,0,0,0,-1,1154,1198,0,0
-63,-174,0,0,0,0,0,0,0,0,0,-1,1161,1198,0,0
-56,-174,0,0,0,0,0,0,0,0,0,-1,1168,1198,0,0
-49,-174,0,0,0,0,0,0,0,0,0,-1,1175,1198,0,0
-42,-174,0,0,0,0,0,0,0,0,0,-1,1182,1198,0,0
-35,-174,0,0,0,0,0,0,0,0,0,-1,1189,1198,0,0
-28,-174,0,0,0,0,0,0,0,0,0,-1,1196,1198,0,0
-21,-174,0,0,0,0,0,0,0,0,0,-1,1203,1198,0,0
-14,-174,0,0,0,0,0,0,0,0,0,-1,1210,1198,0,0
-7,-174,0,0,0,0,0,0,0,0,0,-1,1217,1198,0,0
0,-174,0,0,0,0,0,0,0,0,0,-1,1224,1198,0,0
7,-174,0,0,0,0,0,0,0,0,0,-1,1231,1198,0,0
14,-174,0,0,0,0,0,0,0,0,0,-1,1238,1198,0,0
21,-174,0,0,0,0,0,0,0,0,0,-1,1245,1198,0,0
28,-174,0,0,0,0,0,0,0,0,0,-1,1252,1198,0,0
35,-174,0,0,0,0,0,0,0,0,0,-1,1259,1198,0,0
42,-174,0,0,0,0,0,0,0,0,0,-1,1266,1198,0,0
49,-174,0,0,0,0,0,0,0,0,0,-1,1273,1198,0,0
56,-174,0,0,0,0,0,0,0,0,0,-1,1280,1198,0,0
63,-174,0,0,0,0,0,0,0,0,0,-1,1287,1198,0,0
70,-174,0,0,0,0,0,0,0,0,0,-1,1294,1198,0,0
77,-174,0,0,0,0,0,0,0,0,0,-1,1301,1198,0,0
84,-174,0,0,0,0,0,0,0,0,0,-1,1308,1198,0,0
91,-174,0,0,0,0,0,0,0,0,0,-1,1315,1198,0,0
98,-174,0,0,0,0,0,0,0,0,0,-1,1322,1198,0,0
105,-174,0,0,0,0,0,0,0,0,0,-1,1329,1198,0,0
112,-174,0,0,0,0,0,0,0,0,0,-1,1336,1198,0,0
119,-174,0,0,0,0,0,0,0,0,0,-1,1343,1198,0,0
126,-174,0,0,0,0,0,0,0,0,0,-1,1350,1198,0,0
133,-174,0,0,0,0,0,0,0,0,0,-1,1357,1198,0,0
140,-174,0,0,0,0,0,0,0,0,0,-1,1364,1198,0,0
147,-174,0,0,0,0,0,0,0,0,0,-1,1371,1198,0,0
154,-174,0,0,0,0,0,0,0,0,0,-1,1378,1198,0,0
161,-174,0,0,0,0,0,0,0,0,0,-1,1385,1198,0,0
168,-174,0,0,0,0,0,0,0,0,0,-1,1392,1198,0,0
175,-174,0,0,0,0,0,0,0,0,0,-1,1399,1198,0,0
182,-174,0,0,0,0,0,0,0,0,0,-1,1406,1198,0,0
189,-174,0,0,0,0,0,0,0,0,0,-1,1413,1198,0,0
196,-174,0,0,0,0,0,0,0,0,0,-1,1420,1198,0,0
203,-174,0,0,0,0,0,0,0,0,0,-1,1427,1198,0,0
210,-174,0,0,0,0,0,0,0,0,0,-1,1434,1198,0,0
217,-174,0,0,0,0,0,0,0,0,0,-1,1441,1198,0,0
224,-174,0,0,0,0,0,0,0,0,0,-1,1448,1198,0,0
231,-174,0,0,0,0,0,0,0,0,0,-1,1455,1198,0,0
238,-174,0,0,0,0,0,0,0,0,0,-1,1462,1198,0,0
245,-174,0,0,0,0,0,0,0,0,0,-1,1469,1198,0,0
252,-174,0,0,0,0,0,0,0,0,0,-1,1476,1198,0,0
259,-174,0,0,0,0,0,0,0,0,0,-1,1483,1198,0,0
266,-174,0,0,0,0,0,0,0,0,0,-1,1490,1198,0,0
273,-174,0,0,0,0,0,0,0,0,0,-1,1497,1198,0,0
280,-174,0,0,0,0,0,0,0,0,0,-1,1504,1198,0,0
287,-174,0,0,0,0,0,0,0,0,0,-1,1511,1198,0,0
294,-174,0,0,0,0,0,0,0,0,0,-1,1518,1198,0,0
301,-174,0,0,0,0,0,0,0,0,0,-1,1525,1198,0,0
308,-174,0,0,0,0,0,0,0,0,0,-1,1532,1198,0,0
315,-174,0,0,0,0,0,0,0,0,0,-1,1539,1198,0,0
322,-174,0,0,0,0,0,0,0,0,0,-1,1546,1198,0,0
329,-174,0,0,0,0,0,0,0,0,0,-1,1553,1198,0,0
336,-174,0,0,0,0,0,0,0,0,0,-1,1560,1198,0,0
343,-174,0,0,0,0,0,0,0,0,0,-1,1567,1198,0,0
350,-174,0,0,0,0,0,0,0,0,0,-1,1574,1198,0,0
357,-174,0,0,0,0,0,0,0,0,0,-1,1581,1198,0,0
364,-174,0,0,0,0,0,0,0,0,0,-1,1588,1198,0,0
371,-174,0,0,0,0,0,0,0,0,0,-1,1595,1198,0,0
378,-174,0,0,0,0,0,0,0,0,0,-1,1602,1198,0,0
385,-174,0,0,0,0,0,0,0,0,0,-1,1609,1198,0,0
392,-174,0,0,0,0,0,0,0,0,0,-1,1616,1198,0,0
399,-174,0,0,0,0,0,0,0,0,0,-1,1623,1198,0,0
406,-174,0,0,0,0,0,0,0,0,0,-1,1630,1198,0,0
413,-174,0,0,0,0,0,0,0,0,0,-1,1637,1198,0,0
420,-174,0,0,0,0,0,0,0,0,0,-1,1644,1198,0,0
427,-174,0,0,0,0,0,0,0,0,0,-1,1651,1198,0,0
434,-174,0,0,0,0,0,0,0,0,0,-1,1658,1198,0,0
441,-174,0,0,0,0,0,0,0,0,0,-1,1665,1198,0,0
448,-174,0,0,0,0,0,0,0,0,0,-1,1672,1198,0,0
455,-174,0,0,0,0,0,0,0,0,0,-1,1679,1198,0,0
462,-174,0,0,0,0,0,0,0,0,0,-1,1686,1198,0,0
469,-174,0,0,0,0,0,0,0,0,0,-1,1693,1198,0,0
476,-174,0,0,0,0,0,0,0,0,0,-1,1700,1198,0,0
483,-174,0,0,0,0,0,0,0,0,0,-1,1707,1198,0,0
490,-174,0,0,0,0,0,0,0,0,0,-1,1714,1198,0,0
497,-174,0,0,0,0,0,0,0,0,0,-1,1721,1198,0,0
504,-174,0,0,0,0,0,0,0,0,0,-1,1728,1198,0,0
511,-174,0,0,0,0,0,0,0,0,0,-1,1735,1198,0,0
518,-174,0,0,0,0,0,0,0,0,0,-1,1742,1198,0,0
525,-174,0,0,0,0,0,0,0,0,0,-1,1749,1198,0,0
532,-174,0,0,0,0,0,0,0,0,0,-1,1756,1198,0,0
539,-174,0,0,0,0,0,0,0,0,0,-1,1763,1198,0,0
546,-174,0,0,0,0,0,0,0,0,0,-1,1770,1198,0,0
553,-174,0,0,0,0,0,0,0,0,0,-1,1777,1198,0,0
560,-174,0,0,0,0,0,0,0,0,0,-1,1784,1198,0,0
567,-174,0,0,0,0,0,0,0,0,0,-1,1791,1198,0,0
574,-174,0,0,0,0,0,0,0,0,0,-1,1798,1198,0,0
581,-174,0,0,0,0,0,0,0,0,0,-1,1805,1198,0,0
588,-174,0,0,0,0,0,0,0,0,0,-1,1812,1198,0,0
595,-174,0,0,0,0,0,0,0,0,0,-1,1819,1198,0,0
602,-174,0,0,0,0,0,0,0,0,0,-1,1826,1198,0,0
609,-174,0,0,0,0,0,0,0,0,0,-1,1833,1198,0,0
616,-174,0,0,0,0,0,0,0,0,0,-1,1840,1198,0,0
623,-174,0,0,0,0,0,0,0,0,0,-1,1847,1198,0,0
630,-174,0,0,0,0,0,0,0,0,0,-1,1854,1198,0,0
637,-174,16.8811,2.42834,-0.00199789,0.00218869,-0.000924378,0.00238371,-0.00219291,-1.36288,0.00264307,0.0409729,1861,1198,16.8811,-2.42829
644,-174,16.9404,2.33105,-0.000460767,0.00276405,-0.00145819,0.00332562,-0.00102233,-1.20319,0.00262507,0.0446177,1868,1198,16.9405,-2.33108
651,-174,16.9177,2.3645,-0.000777008,0.00255702,-0.00117995,0.00293236,-0.00115235,-1.26282,0.0024318,0.0437147,1875,1198,16.9178,-2.3645
658,-174,16.9586,2.49097,-0.00232539,0.00193048,-6.68005e-05,0.00193153,-0.00232644,-1.55511,0.00246186,0.0403668,1882,1198,16.9586,-2.49092
665,-174,17.1586,2.58789,-0.00409403,0.00112375,0.00119903,0.0013861,-0.00435637,1.35539,0.0034601,0.0348754,1889,1198,17.1585,-2.58792
672,-174,17.0785,2.5354,-0.00574177,0.000298655,0.00236112,0.00111205,-0.00655517,1.23903,0.00478408,0.0270378,1896,1198,17.0785,-2.53544
679,-174,17.0341,2.46912,-0.00712209,-0.000455635,0.00339433,0.000968438,-0.00854617,1.17356,0.00604617,0.0225202,1903,1198,17.034,-2.46913
686,-174,17.0714,2.33228,-0.00803402,-0.00110581,0.00417901,0.000858171,-0.009998,1.13147,0.00696903,0.0479296,1910,1198,17.0714,-2.3323
693,-174,17.0927,2.21582,0,0,0,0,0,0,0,-1,1917,1198,17.0926,-2.21582
700,-174,15.9603,3.05701,0,0,0,0,0,0,0,-1,1924,1198,15.9603,-3.057
707,-174,15.7252,3.98718,-0.00862508,-0.00212947,0.00499438,0.000580241,-0.0113348,1.07369,0.00775718,0.033767,1931,1198,15.7252,-3.98718
714,-174,15.781,3.8761,-0.0082832,-0.00219728,0.00479034,0.000434878,-0.0109154,1.06836,0.00742611,0.0209571,1938,1198,15.781,-3.87612
721,-174,15.7462,3.76245,-0.00742554,-0.00197414,0.00428527,0.000378845,-0.00977852,1.06866,0.00664889,0.0161172,1945,1198,15.7462,-3.7624
728,-174,15.6614,3.68921,-0.00589331,-0.00127786,0.00351974,0.000623231,-0.0077944,1.07557,0.00541598,0.0119404,1952,1198,15.6614,-3.68921
735,-174,15.6501,3.59302,-0.00339649,-0.000132527,0.00267362,0.00136784,-0.00489686,1.05942,0.00380341,0.0112643,1959,1198,15.6501,-3.593
742,-174,15.63,3.48694,7.33878e-05,0.000848542,0.00116374,0.00168755,-0.00076562,0.946143,0.00144929,0.0189631,1966,1198,15.6301,-3.48693
749,-174,15.6337,3.40088,0.00378163,0.00288106,-0.001169,0.00458407,0.00207862,-0.601563,0.00265043,0.0180795,1973,1198,15.6336,-3.40094
756,-174,15.6381,3.28809,0.00760576,0.0058144,-0.00362227,0.0104414,0.00297871,-0.664194,0.0062109,0.0110459,1980,1198,15.638,-3.28808
763,-174,15.6078,3.17566,0.0117902,0.0086288,-0.00593364,0.0163501,0.00406894,-0.655221,0.00982863,0.0121513,1987,1198,15.6078,-3.17569
770,-174,15.5975,3.07898,0.0166059,0.012149,-0.00871956,0.0233773,0.00537764,-0.66029,0.0141374,0.0227854,1994,1198,15.5976,-3.07902
777,-174,15.6207,2.96558,0.0222712,0.0166557,-0.0124181,0.032195,0.00673189,-0.674218,0.0196084,0.0448751,2001,1198,15.6208,-2.96556
784,-174,15.6473,2.38696,0,0,0,0,0,0,0,-1,2008,1198,15.6474,-2.38694
791,-174,16.0337,1.74536,0.0355478,0.0299525,-0.0237097,0.0566243,0.00887595,-0.726672,0.0351663,0.0448464,2015,1198,16.0337,-1.74542
798,-174,16.1322,1.07678,0.0426462,0.039663,-0.0320471,0.0732363,0.00907286,-0.762143,0.0460985,0.0449847,2022,1198,16.1322,-1.07684
805,-174,16.3429,0.690918,0.0491883,0.05236,-0.0427636,0.0935671,0.00798111,-0.803932,0.0598952,0.0455583,2029,1198,16.3429,-0.690863
812,-174,0,0,0,0,0,0,0,0,0,-1,2036,1198,0,0
-700,-181,0,0,0,0,0,0,0,0,0,-1,524,1205,0,0
-693,-181,0,0,0,0,0,0,0,0,0,-1,531,1205,0,0
-686,-181,-7.45093,-0.0985107,0,0,0,0,0,0,0,-1,538,1205,-7.45092,0.0984629
-679,-181,-7.40088,-0.351563,-0.0115004,0.0233949,-0.0271688,0.038236,-0.0263416,-1.07083,0.0374941,0.0450899,545,1205,-7.40088,0.351528
-672,-181,-7.28381,-0.697144,-0.00560976,0.0172715,-0.0201397,0.0289932,-0.0173315,-1.0437,0.0270266,0.0453829,552,1205,-7.28382,0.697124
-665,-181,-7.64099,-1.052,0,0,0,0,0,0,0,-1,559,1205,-7.641,1.05199
-658,-181,-6.685,-1.58789,0,0,0,0,0,0,0,-1,566,1205,-6.68501,1.58788
-651,-181,-6.10797,-2.17688,0,0,0,0,0,0,0,-1,573,1205,-6.10796,2.1769
-644,-181,-9.00421,0.573975,0.00146215,0.00453214,-0.00379158,0.00708766,-0.00109336,-0.977736,0.00512856,0.040958,580,1205,-9.00421,-0.573973
-637,-181,-9.03607,0.734131,0.00142469,0.00308671,-0.00197068,0.00439443,0.000116976,-0.984929,0.00289142,0.0213497,587,1205,-9.03608,-0.734159
-630,-181,-9.09973,0.888794,0.00134278,0.00173483,-0.000775427,0.00233862,0.000738983,-0.909203,0.00138035,0.0118313,594,1205,-9.09972,-0.888753
-623,-181,-9.14984,0.993408,0.000913454,0.000628546,-0.000509338,0.00129988,0.000242116,-0.64904,0.000798219,0.0140624,601,1205,-9.14984,-0.993451
-616,-181,-9.11414,1.13159,0.000588766,-6.26632e-05,-0.00109239,0.00140297,-0.000876866,-0.640511,0.00132789,0.0145837,608,1205,-9.11415,-1.13161
-609,-181,-9.10541,1.28003,2.70921e-05,-0.000399535,-0.00207723,0.00190194,-0.00227438,-0.734232,0.00241439,0.0144797,615,1205,-9.10539,-1.28007
-602,-181,-9.1123,1.40698,-0.000807544,0.000110747,-0.00362265,0.00330324,-0.00400003,-0.848434,0.00422294,0.0121847,622,1205,-9.11228,-1.40694
-595,-181,-9.10248,1.52429,-0.00131526,0.000407305,-0.00543931,0.0050531,-0.00596105,-0.863918,0.00636622,0.0106718,629,1205,-9.10249,-1.52423
-588,-181,-9.10986,1.66748,-0.00149019,0.000399245,-0.00691651,0.00643526,-0.0075262,-0.853272,0.00806885,0.01034,636,1205,-9.10988,-1.66748
-581,-181,-9.13635,1.82751,-0.00143797,0.000555295,-0.00766071,0.00728393,-0.0081666,-0.850083,0.00892522,0.0125763,643,1205,-9.13638,-1.82746
-574,-181,-9.33844,1.87915,-0.00139684,0.00108156,-0.00819943,0.0081349,-0.00845018,-0.860397,0.00957598,0.0312994,650,1205,-9.33846,-1.87912
-567,-181,-9.36572,1.88806,-0.00145409,0.00143307,-0.008437,0.0085491,-0.00857011,-0.870128,0.00988378,0.0475619,657,1205,-9.36574,-1.88811
-560,-181,-10.0419,1.51648,0,0,0,0,0,0,0,-1,664,1205,-10.0418,-1.51653
-553,-181,-10.8,1.01294,0,0,0,0,0,0,0,-1,671,1205,-10.8,-1.01298
-546,-181,-10.7503,0.670166,-0.00123571,0.0026859,-0.00709173,0.00808291,-0.00663272,-0.920274,0.00850981,0.0343989,678,1205,-10.7503,-0.6702
-539,-181,-10.8022,0.615601,-0.000871478,0.00296129,-0.00573534,0.00709194,-0.00500213,-0.946635,0.00701718,0.0376126,685,1205,-10.8022,-0.615627
-532,-181,-10.9727,0.768311,-0.000147938,0.00307626,-0.00388442,0.00566981,-0.0027415,-0.98209,0.0049534,0.0445498,692,1205,-10.9727,-0.768314
-525,-181,-10.8424,0.893066,0.00100601,0.00291738,-0.00165681,0.00387438,4.90161e-05,-1.047,0.00256674,0.0441842,699,1205,-10.8424,-0.893014
-518,-181,-10.7676,0.75769,0.0030219,0.00158754,-0.000718876,0.00332016,0.00128927,-0.39329,0.00193277,0.0404964,706,1205,-10.7676,-0.757749
-511,-181,0,0,0,0,0,0,0,0,0,-1,713,1205,0,0
-504,-181,0,0,0,0,0,0,0,0,0,-1,720,1205,0,0
-497,-181,0,0,0,0,0,0,0,0,0,-1,727,1205,0,0
-490,-181,0,0,0,0,0,0,0,0,0,-1,734,1205,0,0
-483,-181,0,0,0,0,0,0,0,0,0,-1,741,1205,0,0
-476,-181,0,0,0,0,0,0,0,0,0,-1,748,1205,0,0
-469,-181,0,0,0,0,0,0,0,0,0,-1,755,1205,0,0
-462,-181,0,0,0,0,0,0,0,0,0,-1,762,1205,0,0
-455,-181,0,0,0,0,0,0,0,0,0,-1,769,1205,0,0
-448,-181,0,0,0,0,0,0,0,0,0,-1,776,1205,0,0
-441,-181,0,0,0,0,0,0,0,0,0,-1,783,1205,0,0
-434,-181,0,0,0,0,0,0,0,0,0,-1,790,1205,0,0
-427,-181,0,0,0,0,0,0,0,0,0,-1,797,1205,0,0
-420,-181,0,0,0,0,0,0,0,0,0,-1,804,1205,0,0
-413,-181,0,0,0,0,0,0,0,0,0,-1,811,1205,0,0
-406,-181,0,0,0,0,0,0,0,0,0,-1,818,1205,0,0
-399,-181,0,0,0,0,0,0,0,0,0,-1,825,1205,0,0
-392,-181,0,0,0,0,0,0,0,0,0,-1,832,1205,0,0
-385,-181,0,0,0,0,0,0,0,0,0,-1,839,1205,0,0
-378,-181,0,0,0,0,0,0,0,0,0,-1,846,1205,0,0
-371,-181,0,0,0,0,0,0,0,0,0,-1,853,1205,0,0
-364,-181,0,0,0,0,0,0,0,0,0,-1,860,1205,0,0
-357,-181,0,0,0,0,0,0,0,0,0,-1,867,1205,0,0
-350,-181,0,0,0,0,0,0,0,0,0,-1,874,1205,0,0
-343,-181,0,0,0,0,0,0,0,0,0,-1,881,1205,0,0
-336,-181,0,0,0,0,0,0,0,0,0,-1,888,1205,0,0
-329,-181,0,0,0,0,0,0,0,0,0,-1,895,1205,0,0
-322,-181,0,0,0,0,0,0,0,0,0,-1,902,1205,0,0
-315,-181,0,0,0,0,0,0,0,0,0,-1,909,1205,0,0
-308,-181,0,0,0,0,0,0,0,0,0,-1,916,1205,0,0
-301,-181,0,0,0,0,0,0,0,0,0,-1,923,1205,0,0
-294,-181,0,0,0,0,0,0,0,0,0,-1,930,1205,0,0
-287,-181,0,0,0,0,0,0,0,0,0,-1,937,1205,0,0
-280,-181,0,0,0,0,0,0,0,0,0,-1,944,1205,0,0
-273,-181,0,0,0,0,0,0,0,0,0,-1,951,1205,0,0
-266,-181,0,0,0,0,0,0,0,0,0,-1,958,1205,0,0
-259,-181,0,0,0,0,0,0,0,0,0,-1,965,1205,0,0
-252,-181,0,0,0,0,0,0,0,0,0,-1,972,1205,0,0
-245,-181,0,0,0,0,0,0,0,0,0,-1,979,1205,0,0
-238,-181,0,0,0,0,0,0,0,0,0,-1,986,1205,0,0
-231,-181,0,0,0,0,0,0,0,0,0,-1,993,1205,0,0
-224,-181,0,0,0,0,0,0,0,0,0,-1,1000,1205,0,0
-217,-181,0,0,0,0,0,0,0,0,0,-1,1007,1205,0,0
-210,-181,0,0,0,0,0,0,0,0,0,-1,1014,1205,0,0
-203,-181,0,0,0,0,0,0,0,0,0,-1,1021,1205,0,0
-196,-181,0,0,0,0,0,0,0,0,0,-1,1028,1205,0,0
-189,-181,0,0,0,0,0,0,0,0,0,-1,1035,1205,0,0
-182,-181,0,0,0,0,0,0,0,0,0,-1,1042,1205,0,0
-175,-181,0,0,0,0,0,0,0,0,0,-1,1049,1205,0,0
-168,-181,0,0,0,0,0,0,0,0,0,-1,1056,1205,0,0
-161,-181,0,0,0,0,0,0,0,0,0,-1,1063,1205,0,0
-154,-181,0,0,0,0,0,0,0,0,0,-1,1070,1205,0,0
-147,-181,0,0,0,0,0,0,0,0,0,-1,1077,1205,0,0
-140,-181,0,0,0,0,0,0,0,0,0,-1,1084,1205,0,0
-133,-181,0,0,0,0,0,0,0,0,0,-1,1091,1205,0,0
-126,-181,0,0,0,0,0,0,0,0,0,-1,1098,1205,0,0
-119,-181,0,0,0,0,0,0,0,0,0,-1,1105,1205,0,0
-112,-181,0,0,0,0,0,0,0,0,0,-1,1112,1205,0,0
-105,-181,0,0,0,0,0,0,0,0,0,-1,1119,1205,0,0
-98,-181,0,0,0,0,0,0,0,0,0,-1,1126,1205,0,0
-91,-181,0,0,0,0,0,0,0,0,0,-1,1133,1205,0,0
-84,-181,0,0,0,0,0,0,0,0,0,-1,1140,1205,0,0
-77,-181,0,0,0,0,0,0,0,0,0,-1,1147,1205,0,0
-70,-181,0,0,0,0,0,0,0,0,0,-1,1154,1205,0,0
-63,-181,0,0,0,0,0,0,0,0,0,-1,1161,1205,0,0
-56,-181,0,0,0,0,0,0,0,0,0,-1,1168,1205,0,0
-49,-181,0,0,0,0,0,0,0,0,0,-1,1175,1205,0,0
-42,-181,0,0,0,0,0,0,0,0,0,-1,1182,1205,0,0
-35,-181,0,0,0,0,0,0,0,0,0,-1,1189,1205,0,0
-28,-181,0,0,0,0,0,0,0,0,0,-1,1196,1205,0,0
-21,-181,0,0,0,0,0,0,0,0,0,-1,1203,1205,0,0
-14,-181,0,0,0,0,0,0,0,0,0,-1,1210,1205,0,0
-7,-181,0,0,0,0,0,0,0,0,0,-1,1217,1205,0,0
0,-181,0,0,0,0,0,0,0,0,0,-1,1224,1205,0,0
7,-181,0,0,0,0,0,0,0,0,0,-1,1231,1205,0,0
14,-181,0,0,0,0,0,0,0,0,0,-1,1238,1205,0,0
21,-181,0,0,0,0,0,0,0,0,0,-1,1245,1205,0,0
28,-181,0,0,0,0,0,0,0,0,0,-1,1252,1205,0,0
35,-181,0,0,0,0,0,0,0,0,0,-1,1259,1205,0,0
42,-181,0,0,0,0,0,0,0,0,0,-1,1266,1205,0,0
49,-181,0,0,0,0,0,0,0,0,0,-1,1273,1205,0,0
56,-181,0,0,0,0,0,0,0,0,0,-1,1280,1205,0,0
63,-181,0,0,0,0,0,0,0,0,0,-1,1287,1205,0,0
70,-181,0,0,0,0,0,0,0,0,0,-1,1294,1205,0,0
77,-181,0,0,0,0,0,0,0,0,0,-1,1301,1205,0,0
84,-181,0,0,0,0,0,0,0,0,0,-1,1308,1205,0,0
91,-181,0,0,0,0,0,0,0,0,0,-1,1315,1205,0,0
98,-181,0,0,0,0,0,0,0,0,0,-1,1322,1205,0,0
105,-181,0,0,0,0,0,0,0,0,0,-1,1329,1205,0,0
112,-181,0,0,0,0,0,0,0,0,0,-1,1336,1205,0,0
119,-181,0,0,0,0,0,0,0,0,0,-1,1343,1205,0,0
126,-181,0,0,0,0,0,0,0,0,0,-1,1350,1205,0,0
133,-181,0,0,0,0,0,0,0,0,0,-1,1357,1205,0,0
140,-181,0,0,0,0,0,0,0,0,0,-1,1364,1205,0,0
147,-181,0,0,0,0,0,0,0,0,0,-1,1371,1205,0,0
154,-181,0,0,0,0,0,0,0,0,0,-1,1378,1205,0,0
161,-181,0,0,0,0,0,0,0,0,0,-1,1385,1205,0,0
168,-181,0,0,0,0,0,0,0,0,0,-1,1392,1205,0,0
175,-181,0,0,0,0,0,0,0,0,0,-1,1399,1205,0,0
182,-181,0,0,0,0,0,0,0,0,0,-1,1406,1205,0,0
189,-181,0,0,0,0,0,0,0,0,0,-1,1413,1205,0,0
196,-181,0,0,0,0,0,0,0,0,0,-1,1420,1205,0,0
203,-181,0,0,0,0,0,0,0,0,0,-1,1427,1205,0,0
210,-181,0,0,0,0,0,0,0,0,0,-1,1434,1205,0,0
217,-181,0,0,0,0,0,0,0,0,0,-1,1441,1205,0,0
224,-181,0,0,0,0,0,0,0,0,0,-1,1448,1205,0,0
231,-181,0,0,0,0,0,0,0,0,0,-1,1455,1205,0,0
238,-181,0,0,0,0,0,0,0,0,0,-1,1462,1205,0,0
245,-181,0,0,0,0,0,0,0,0,0,-1,1469,1205,0,0
252,-181,0,0,0,0,0,0,0,0,0,-1,1476,1205,0,0
259,-181,0,0,0,0,0,0,0,0,0,-1,1483,1205,0,0
266,-181,0,0,0,0,0,0,0,0,0,-1,1490,1205,0,0
273,-181,0,0,0,0,0,0,0,0,0,-1,1497,1205,0,0
280,-181,0,0,0,0,0,0,0,0,0,-1,1504,1205,0,0
287,-181,0,0,0,0,0,0,0,0,0,-1,1511,1205,0,0
294,-181,0,0,0,0,0,0,0,0,0,-1,1518,1205,0,0
301,-181,0,0,0,0,0,0,0,0,0,-1,1525,1205,0,0
308,-181,0,0,0,0,0,0,0,0,0,-1,1532,1205,0,0
315,-181,0,0,0,0,0,0,0,0,0,-1,1539,1205,0,0
322,-181,0,0,0,0,0,0,0,0,0,-1,1546,1205,0,0
329,-181,0,0,0,0,0,0,0,0,0,-1,1553,1205,0,0
336,-181,0,0,0,0,0,0,0,0,0,-1,1560,1205,0,0
343,-181,0,0,0,0,0,0,0,0,0,-1,1567,1205,0,0
350,-181,0,0,0,0,0,0,0,0,0,-1,1574,1205,0,0
357,-181,0,0,0,0,0,0,0,0,0,-1,1581,1205,0,0
364,-181,0,0,0,0,0,0,0,0,0,-1,1588,1205,0,0
371,-181,0,0,0,0,0,0,0,0,0,-1,1595,1205,0,0
378,-181,0,0,0,0,0,0,0,0,0,-1,1602,1205,0,0
385,-181,0,0,0,0,0,0,0,0,0,-1,1609,1205,0,0
392,-181,0,0,0,0,0,0,0,0,0,-1,1616,1205,0,0
399,-181,0,0,0,0,0,0,0,0,0,-1,1623,1205,0,0
406,-181,0,0,0,0,0,0,0,0,0,-1,1630,1205,0,0
413,-181,0,0,0,0,0,0,0,0,0,-1,1637,1205,0,0
420,-181,0,0,0,0,0,0,0,0,0,-1,1644,1205,0,0
427,-181,0,0,0,0,0,0,0,0,0,-1,1651,1205,0,0
434,-181,0,0,0,0,0,0,0,0,0,-1,1658,1205,0,0
441,-181,0,0,0,0,0,0,0,0,0,-1,1665,1205,0,0
448,-181,0,0,0,0,0,0,0,0,0,-1,1672,1205,0,0
455,-181,0,0,0,0,0,0,0,0,0,-1,1679,1205,0,0
462,-181,0,0,0,0,0,0,0,0,0,-1,1686,1205,0,0
469,-181,0,0,0,0,0,0,0,0,0,-1,1693,1205,0,0
476,-181,0,0,0,0,0,0,0,0,0,-1,1700,1205,0,0
483,-181,0,0,0,0,0,0,0,0,0,-1,1707,1205,0,0
490,-181,0,0,0,0,0,0,0,0,0,-1,1714,1205,0,0
497,-181,0,0,0,0,0,0,0,0,0,-1,1721,1205,0,0
504,-181,0,0,0,0,0,0,0,0,0,-1,1728,1205,0,0
511,-181,0,0,0,0,0,0,0,0,0,-1,1735,1205,0,0
518,-181,0,0,0,0,0,0,0,0,0,-1,1742,1205,0,0
525,-181,0,0,0,0,0,0,0,0,0,-1,1749,1205,0,0
532,-181,0,0,0,0,0,0,0,0,0,-1,1756,1205,0,0
539,-181,0,0,0,0,0,0,0,0,0,-1,1763,1205,0,0
546,-181,0,0,0,0,0,0,0,0,0,-1,1770,1205,0,0
553,-181,0,0,0,0,0,0,0,0,0,-1,1777,1205,0,0
560,-181,0,0,0,0,0,0,0,0,0,-1,1784,1205,0,0
567,-181,0,0,0,0,0,0,0,0,0,-1,1791,1205,0,0
574,-181,0,0,0,0,0,0,0,0,0,-1,1798,1205,0,0
581,-181,0,0,0,0,0,0,0,0,0,-1,1805,1205,0,0
588,-181,0,0,0,0,0,0,0,0,0,-1,1812,1205,0,0
595,-181,0,0,0,0,0,0,0,0,0,-1,1819,1205,0,0
602,-181,0,0,0,0,0,0,0,0,0,-1,1826,1205,0,0
609,-181,0,0,0,0,0,0,0,0,0,-1,1833,1205,0,0
616,-181,0,0,0,0,0,0,0,0,0,-1,1840,1205,0,0
623,-181,0,0,0,0,0,0,0,0,0,-1,1847,1205,0,0
630,-181,17.1803,2.72717,-0.00526318,0.000811884,-0.00146238,0.00114558,-0.00559688,-1.34645,0.00416595,0.0383063,1854,1205,17.1803,-2.72717
637,-181,16.988,2.60461,-0.00146632,0.00137649,-0.00188222,0.00231372,-0.00240355,-1.1088,0.00272368,0.0371046,1861,1205,16.988,-2.60457
644,-181,16.9164,2.44617,-0.000115675,0.00199596,-0.00215505,0.00333993,-0.00145964,-1.01318,0.00284103,0.0413003,1868,1205,16.9164,-2.44612
651,-181,17.0253,2.43689,-0.000768743,0.00180649,-0.00156706,0.00254708,-0.00150934,-1.12931,0.00236738,0.0399787,1875,1205,17.0252,-2.43689
658,-181,17.1179,2.43909,-0.00247413,0.00122809,-0.000343744,0.00125973,-0.00250577,-1.47899,0.00221334,0.0356843,1882,1205,17.1179,-2.43911
665,-181,17.1182,2.46936,-0.00428073,0.000507509,0.000927035,0.000680723,-0.00445394,1.38608,0.00322027,0.032168,1889,1205,17.1181,-2.46933
672,-181,17.0591,2.52124,-0.00594468,-0.000240321,0.00208182,0.000438635,-0.00662364,1.25554,0.00456899,0.0233347,1896,1205,17.0591,-2.52129
679,-181,17.0844,2.46375,-0.00732487,-0.000907619,0.00310929,0.000351749,-0.00858424,1.18596,0.0058436,0.028215,1903,1205,17.0844,-2.46374
686,-181,17.0657,2.25659,-0.00820612,-0.00147789,0.00388483,0.00029698,-0.00998099,1.14224,0.00675517,0.0499467,1910,1205,17.0656,-2.2566
693,-181,17.0718,2.06042,0,0,0,0,0,0,0,-1,1917,1205,17.0718,-2.06044
700,-181,15.8605,4.15906,0,0,0,0,0,0,0,-1,1924,1205,15.8604,-4.15905
707,-181,15.7208,3.98596,-0.00870657,-0.00226082,0.00475107,0.000257349,-0.0112247,1.08342,0.0075704,0.0253055,1931,1205,15.7208,-3.98594
714,-181,15.6832,3.85742,-0.00826876,-0.00225523,0.00450558,0.000154729,-0.0106787,1.07963,0.00717128,0.0186595,1938,1205,15.6832,-3.85742
721,-181,15.6028,3.7865,-0.00727834,-0.00196467,0.00394906,0.000138093,-0.00938111,1.08151,0.00630061,0.0129012,1945,1205,15.6028,-3.78647
728,-181,15.5458,3.68787,-0.00565428,-0.00110387,0.00314721,0.000504419,-0.00726257,1.09837,0.00501831,0.0108741,1952,1205,15.5458,-3.68787
735,-181,15.5529,3.56323,-0.00311307,0.000136492,0.00226034,0.00129542,-0.004272,1.09702,0.003364,0.0110673,1959,1205,15.5529,-3.5632
742,-181,15.5524,3.47949,0.000352284,0.00132026,0.000690741,0.0016797,-7.15442e-06,1.09099,0.00112219,0.0160513,1966,1205,15.5524,-3.47946
749,-181,15.5636,3.38367,0.00406706,0.00350309,-0.00168835,0.00549681,0.00207334,-0.702653,0.00320533,0.0158164,1973,1205,15.5636,-3.38369
756,-181,15.5382,3.27234,0.00773133,0.00653164,-0.00410606,0.0112811,0.00298184,-0.712867,0.00675003,0.0118633,1980,1205,15.5382,-3.27233
763,-181,15.5214,3.17285,0.0117645,0.00950063,-0.0064133,0.017145,0.00412014,-0.698049,0.0103341,0.0114712,1987,1205,15.5214,-3.17281
770,-181,15.5154,3.05981,0.0165411,0.0132252,-0.00924631,0.024277,0.0054894,-0.696686,0.0147005,0.0238883,1994,1205,15.5153,-3.05977
777,-181,15.5598,2.94434,0.0222754,0.0179434,-0.0129944,0.033283,0.00693575,-0.702814,0.0202761,0.0458207,2001,1205,15.5598,-2.9443
784,-181,15.6093,2.83521,0,0,0,0,0,0,0,-1,2008,1205,15.6093,-2.83522
791,-181,16.4174,2.19702,0.0361028,0.0314192,-0.0242305,0.0581044,0.00941766,-0.737225,0.0360099,0.0468968,2015,1205,16.4174,-2.19705
798,-181,16.6127,1.28882,0.0438331,0.0409118,-0.0324125,0.0748179,0.00992703,-0.762881,0.0469209,0.0464395,2022,1205,16.6127,-1.28879
805,-181,0,0,0,0,0,0,0,0,0,-1,2029,1205,0,0
812,-181,0,0,0,0,0,0,0,0,0,-1,2036,1205,0,0
-700,-188,0,0,0,0,0,0,0,0,0,-1,524,1212,0,0
-693,-188,0,0,0,0,0,0,0,0,0,-1,531,1212,0,0
-686,-188,0,0,0,0,0,0,0,0,0,-1,538,1212,0,0
-679,-188,-7.41095,-0.315308,0,0,0,0,0,0,0,-1,545,1212,-7.41095,0.315366
-672,-188,-7.15863,-0.917847,-0.000821255,0.00731045,-0.0176678,0.0213742,-0.014885,-0.898493,0.0210457,0.0498253,552,1212,-7.15862,0.917891
-665,-188,-7.09137,-1.23755,0,0,0,0,0,0,0,-1,559,1212,-7.09138,1.23755
-658,-188,-6.90216,-1.81299,0.0031617,0.00161906,-0.00744082,0.00987108,-0.00509031,-0.733752,0.00878373,0.0444663,566,1212,-6.90214,1.81294
-651,-188,-6.31549,-2.40942,0.00354484,0.000228928,-0.00416662,0.00637125,-0.00259748,-0.596045,0.0053287,0.0493468,573,1212,-6.31547,2.40942
-644,-188,-5.67035,-2.94568,0,0,0,0,0,0,0,-1,580,1212,-5.67033,2.94563
-637,-188,-8.95514,0.769043,0.00278759,-0.000829421,-0.000442487,0.00284093,-0.000882766,-0.119978,0.00224678,0.0208606,587,1212,-8.95514,-0.769095
-630,-188,-9.00751,0.896606,0.00234335,-0.00117523,0.000431902,0.00239559,-0.00122747,0.120368,0.00212771,0.0099422,594,1212,-9.0075,-0.896609
-623,-188,-9.00354,1.01221,0.00170092,-0.00137238,0.000487983,0.00177655,-0.00144801,0.153745,0.00186491,0.0103606,601,1212,-9.00354,-1.01226
-616,-188,-8.9632,1.13232,0.00131534,-0.00137219,-0.000243629,0.00133725,-0.0013941,-0.0896777,0.00157705,0.0104861,608,1212,-8.96317,-1.13228
-609,-188,-8.9317,1.28186,0.000859457,-0.00108028,-0.00135054,0.0015523,-0.00177312,-0.474003,0.00192135,0.0132476,615,1212,-8.93167,-1.28184
-602,-188,-8.94965,1.43286,0.000204239,3.07656e-06,-0.00296183,0.0030672,-0.00285988,-0.768425,0.0034227,0.0157823,622,1212,-8.94966,-1.43282
-595,-188,-8.97595,1.54688,-9.96625e-05,0.000578743,-0.0048264,0.00507785,-0.00459877,-0.820481,0.00558908,0.0112185,629,1212,-8.97593,-1.54686
-588,-188,-8.97357,1.68799,-0.000123095,0.000663513,-0.00631045,0.00659291,-0.00605249,-0.816521,0.00730304,0.00825698,636,1212,-8.9736,-1.68797
-581,-188,-8.98547,1.83777,-4.55897e-05,0.00082748,-0.0070499,0.00745435,-0.00667246,-0.816319,0.00816028,0.0085765,643,1212,-8.98549,-1.8378
-574,-188,-8.98096,1.93469,-8.20013e-05,0.0013719,-0.0075644,0.0082442,-0.0069543,-0.833302,0.00878538,0.0234606,650,1212,-8.98094,-1.93469
-567,-188,-8.19604,0.987183,-0.000294799,0.00172944,-0.00778625,0.00856908,-0.00713443,-0.85003,0.00907903,0.0458752,657,1212,-8.19605,-0.9872
-560,-188,-7.56647,-0.0693359,0,0,0,0,0,0,0,-1,664,1212,-7.56645,0.0693935
-553,-188,-10.7903,0.708252,-0.000772762,0.00259177,-0.00751245,0.00860801,-0.006789,-0.895546,0.00891012,0.0432367,671,1212,-10.7904,-0.70822
-546,-188,-10.7872,0.705078,-0.00101851,0.002934,-0.00681715,0.00805557,-0.00614007,-0.926478,0.00822069,0.0405753,678,1212,-10.7872,-0.705082
-539,-188,-10.7759,0.687988,-0.00121344,0.00319984,-0.00571562,0.00711999,-0.00513359,-0.969619,0.00710553,0.0373169,685,1212,-10.776,-0.688033
-532,-188,-10.7616,0.732422,-0.00116468,0.00332489,-0.0041993,0.00584174,-0.00368153,-1.03085,0.00554522,0.0415217,692,1212,-10.7616,-0.732391
-525,-188,-10.6586,0.79187,-0.000660874,0.00323608,-0.00230919,0.00430902,-0.00173381,-1.13584,0.00359288,0.0404055,699,1212,-10.6587,-0.79191
-518,-188,-10.6978,0.794434,0.000970407,0.00238771,-0.00118257,0.00305771,0.000300413,-1.05533,0.00194608,0.0398257,706,1212,-10.6977,-0.794409
-511,-188,-10.6553,0.623535,0.00654311,0.00259249,-0.00314391,0.00828076,0.000854842,-0.504915,0.00525877,0.0364461,713,1212,-10.6552,-0.62352
-504,-188,0,0,0,0,0,0,0,0,0,-1,720,1212,0,0
-497,-188,0,0,0,0,0,0,0,0,0,-1,727,1212,0,0
-490,-188,0,0,0,0,0,0,0,0,0,-1,734,1212,0,0
-483,-188,0,0,0,0,0,0,0,0,0,-1,741,1212,0,0
-476,-188,0,0,0,0,0,0,0,0,0,-1,748,1212,0,0
-469,-188,0,0,0,0,0,0,0,0,0,-1,755,1212,0,0
-462,-188,0,0,0,0,0,0,0,0,0,-1,762,1212,0,0
-455,-188,0,0,0,0,0,0,0,0,0,-1,769,1212,0,0
-448,-188,0,0,0,0,0,0,0,0,0,-1,776,1212,0,0
-441,-188,0,0,0,0,0,0,0,0,0,-1,783,1212,0,0
-434,-188,0,0,0,0,0,0,0,0,0,-1,790,1212,0,0
-427,-188,0,0,0,0,0,0,0,0,0,-1,797,1212,0,0
-420,-188,0,0,0,0,0,0,0,0,0,-1,804,1212,0,0
-413,-188,0,0,0,0,0,0,0,0,0,-1,811,1212,0,0
-406,-188,0,0,0,0,0,0,0,0,0,-1,818,1212,0,0
-399,-188,0,0,0,0,0,0,0,0,0,-1,825,1212,0,0
-392,-188,0,0,0,0,0,0,0,0,0,-1,832,1212,0,0
-385,-188,0,0,0,0,0,0,0,0,0,-1,839,1212,0,0
-378,-188,0,0,0,0,0,0,0,0,0,-1,846,1212,0,0
-371,-188,0,0,0,0,0,0,0,0,0,-1,853,1212,0,0
-364,-188,0,0,0,0,0,0,0,0,0,-1,860,1212,0,0
-357,-188,0,0,0,0,0,0,0,0,0,-1,867,1212,0,0
-350,-188,0,0,0,0,0,0,0,0,0,-1,874,1212,0,0
-343,-188,0,0,0,0,0,0,0,0,0,-1,881,1212,0,0
-336,-188,0,0,0,0,0,0,0,0,0,-1,888,1212,0,0
-329,-188,0,0,0,0,0,0,0,0,0,-1,895,1212,0,0
-322,-188,0,0,0,0,0,0,0,0,0,-1,902,1212,0,0
-315,-188,0,0,0,0,0,0,0,0,0,-1,909,1212,0,0
-308,-188,0,0,0,0,0,0,0,0,0,-1,916,1212,0,0
-301,-188,0,0,0,0,0,0,0,0,0,-1,923,1212,0,0
-294,-188,0,0,0,0,0,0,0,0,0,-1,930,1212,0,0
-287,-188,0,0,0,0,0,0,0,0,0,-1,937,1212,0,0
-280,-188,0,0,0,0,0,0,0,0,0,-1,944,1212,0,0
-273,-188,0,0,0,0,0,0,0,0,0,-1,951,1212,0,0
-266,-188,0,0,0,0,0,0,0,0,0,-1,958,1212,0,0
-259,-188,0,0,0,0,0,0,0,0,0,-1,965,1212,0,0
-252,-188,0,0,0,0,0,0,0,0,0,-1,972,1212,0,0
-245,-188,0,0,0,0,0,0,0,0,0,-1,979,1212,0,0
-238,-188,0,0,0,0,0,0,0,0,0,-1,986,1212,0,0
-231,-188,0,0,0,0,0,0,0,0,0,-1,993,1212,0,0
-224,-188,0,0,0,0,0,0,0,0,0,-1,1000,1212,0,0
-217,-188,0,0,0,0,0,0,0,0,0,-1,1007,1212,0,0
-210,-188,0,0,0,0,0,0,0,0,0,-1,1014,1212,0,0
-203,-188,0,0,0,0,0,0,0,0,0,-1,1021,1212,0,0
-196,-188,0,0,0,0,0,0,0,0,0,-1,1028,1212,0,0
-189,-188,0,0,0,0,0,0,0,0,0,-1,1035,1212,0,0
-182,-188,0,0,0,0,0,0,0,0,0,-1,1042,1212,0,0
-175,-188,0,0,0,0,0,0,0,0,0,-1,1049,1212,0,0
-168,-188,0,0,0,0,0,0,0,0,0,-1,1056,1212,0,0
-161,-188,0,0,0,0,0,0,0,0,0,-1,1063,1212,0,0
-154,-188,0,0,0,0,0,0,0,0,0,-1,1070,1212,0,0
-147,-188,0,0,0,0,0,0,0,0,0,-1,1077,1212,0,0
-140,-188,0,0,0,0,0,0,0,0,0,-1,1084,1212,0,0
-133,-188,0,0,0,0,0,0,0,0,0,-1,1091,1212,0,0
-126,-188,0,0,0,0,0,0,0,0,0,-1,1098,1212,0,0
-119,-188,0,0,0,0,0,0,0,0,0,-1,1105,1212,0,0
-112,-188,0,0,0,0,0,0,0,0,0,-1,1112,1212,0,0
-105,-188,0,0,0,0,0,0,0,0,0,-1,1119,1212,0,0
-98,-188,0,0,0,0,0,0,0,0,0,-1,1126,1212,0,0
-91,-188,0,0,0,0,0,0,0,0,0,-1,1133,1212,0,0
-84,-188,0,0,0,0,0,0,0,0,0,-1,1140,1212,0,0
-77,-188,0,0,0,0,0,0,0,0,0,-1,1147,1212,0,0
-70,-188,0,0,0,0,0,0,0,0,0,-1,1154,1212,0,0
-63,-188,0,0,0,0,0,0,0,0,0,-1,1161,1212,0,0
-56,-188,0,0,0,0,0,0,0,0,0,-1,1168,1212,0,0
-49,-188,0,0,0,0,0,0,0,0,0,-1,1175,1212,0,0
-42,-188,0,0,0,0,0,0,0,0,0,-1,1182,1212,0,0
-35,-188,0,0,0,0,0,0,0,0,0,-1,1189,1212,0,0
-28,-188,0,0,0,0,0,0,0,0,0,-1,1196,1212,0,0
-21,-188,0,0,0,0,0,0,0,0,0,-1,1203,1212,0,0
-14,-188,0,0,0,0,0,0,0,0,0,-1,1210,1212,0,0
-7,-188,0,0,0,0,0,0,0,0,0,-1,1217,1212,0,0
0,-188,0,0,0,0,0,0,0,0,0,-1,1224,1212,0,0
7,-188,0,0,0,0,0,0,0,0,0,-1,1231,1212,0,0
14,-188,0,0,0,0,0,0,0,0,0,-1,1238,1212,0,0
21,-188,0,0,0,0,0,0,0,0,0,-1,1245,1212,0,0
28,-188,0,0,0,0,0,0,0,0,0,-1,1252,1212,0,0
35,-188,0,0,0,0,0,0,0,0,0,-1,1259,1212,0,0
42,-188,0,0,0,0,0,0,0,0,0,-1,1266,1212,0,0
49,-188,0,0,0,0,0,0,0,0,0,-1,1273,1212,0,0
56,-188,0,0,0,0,0,0,0,0,0,-1,1280,1212,0,0
63,-188,0,0,0,0,0,0,0,0,0,-1,1287,1212,0,0
70,-188,0,0,0,0,0,0,0,0,0,-1,1294,1212,0,0
77,-188,0,0,0,0,0,0,0,0,0,-1,1301,1212,0,0
84,-188,0,0,0,0,0,0,0,0,0,-1,1308,1212,0,0
91,-188,0,0,0,0,0,0,0,0,0,-1,1315,1212,0,0
98,-188,0,0,0,0,0,0,0,0,0,-1,1322,1212,0,0
105,-188,0,0,0,0,0,0,0,0,0,-1,1329,1212,0,0
112,-188,0,0,0,0,0,0,0,0,0,-1,1336,1212,0,0
119,-188,0,0,0,0,0,0,0,0,0,-1,1343,1212,0,0
126,-188,0,0,0,0,0,0,0,0,0,-1,1350,1212,0,0
133,-188,0,0,0,0,0,0,0,0,0,-1,1357,1212,0,0
140,-188,0,0,0,0,0,0,0,0,0,-1,1364,1212,0,0
147,-188,0,0,0,0,0,0,0,0,0,-1,1371,1212,0,0
154,-188,0,0,0,0,0,0,0,0,0,-1,1378,1212,0,0
161,-188,0,0,0,0,0,0,0,0,0,-1,1385,1212,0,0
168,-188,0,0,0,0,0,0,0,0,0,-1,1392,1212,0,0
175,-188,0,0,0,0,0,0,0,0,0,-1,1399,1212,0,0
182,-188,0,0,0,0,0,0,0,0,0,-1,1406,1212,0,0
189,-188,0,0,0,0,0,0,0,0,0,-1,1413,1212,0,0
196,-188,0,0,0,0,0,0,0,0,0,-1,1420,1212,0,0
203,-188,0,0,0,0,0,0,0,0,0,-1,1427,1212,0,0
210,-188,0,0,0,0,0,0,0,0,0,-1,1434,1212,0,0
217,-188,0,0,0,0,0,0,0,0,0,-1,1441,1212,0,0
224,-188,0,0,0,0,0,0,0,0,0,-1,1448,1212,0,0
231,-188,0,0,0,0,0,0,0,0,0,-1,1455,1212,0,0
238,-188,0,0,0,0,0,0,0,0,0,-1,1462,1212,0,0
245,-188,0,0,0,0,0,0,0,0,0,-1,1469,1212,0,0
252,-188,0,0,0,0,0,0,0,0,0,-1,1476,1212,0,0
259,-188,0,0,0,0,0,0,0,0,0,-1,1483,1212,0,0
266,-188,0,0,0,0,0,0,0,0,0,-1,1490,1212,0,0
273,-188,0,0,0,0,0,0,0,0,0,-1,1497,1212,0,0
280,-188,0,0,0,0,0,0,0,0,0,-1,1504,1212,0,0
287,-188,0,0,0,0,0,0,0,0,0,-1,1511,1212,0,0
294,-188,0,0,0,0,0,0,0,0,0,-1,1518,1212,0,0
301,-188,0,0,0,0,0,0,0,0,0,-1,1525,1212,0,0
308,-188,0,0,0,0,0,0,0,0,0,-1,1532,1212,0,0
315,-188,0,0,0,0,0,0,0,0,0,-1,1539,1212,0,0
322,-188,0,0,0,0,0,0,0,0,0,-1,1546,1212,0,0
329,-188,0,0,0,0,0,0,0,0,0,-1,1553,1212,0,0
336,-188,0,0,0,0,0,0,0,0,0,-1,1560,1212,0,0
343,-188,0,0,0,0,0,0,0,0,0,-1,1567,1212,0,0
350,-188,0,0,0,0,0,0,0,0,0,-1,1574,1212,0,0
357,-188,0,0,0,0,0,0,0,0,0,-1,1581,1212,0,0
364,-188,0,0,0,0,0,0,0,0,0,-1,1588,1212,0,0
371,-188,0,0,0,0,0,0,0,0,0,-1,1595,1212,0,0
378,-188,0,0,0,0,0,0,0,0,0,-1,1602,1212,0,0
385,-188,0,0,0,0,0,0,0,0,0,-1,1609,1212,0,0
392,-188,0,0,0,0,0,0,0,0,0,-1,1616,1212,0,0
399,-188,0,0,0,0,0,0,0,0,0,-1,1623,1212,0,0
406,-188,0,0,0,0,0,0,0,0,0,-1,1630,1212,0,0
413,-188,0,0,0,0,0,0,0,0,0,-1,1637,1212,0,0
420,-188,0,0,0,0,0,0,0,0,0,-1,1644,1212,0,0
427,-188,0,0,0,0,0,0,0,0,0,-1,1651,1212,0,0
434,-188,0,0,0,0,0,0,0,0,0,-1,1658,1212,0,0
441,-188,0,0,0,0,0,0,0,0,0,-1,1665,1212,0,0
448,-188,0,0,0,0,0,0,0,0,0,-1,1672,1212,0,0
455,-188,0,0,0,0,0,0,0,0,0,-1,1679,1212,0,0
462,-188,0,0,0,0,0,0,0,0,0,-1,1686,1212,0,0
469,-188,0,0,0,0,0,0,0,0,0,-1,1693,1212,0,0
476,-188,0,0,0,0,0,0,0,0,0,-1,1700,1212,0,0
483,-188,0,0,0,0,0,0,0,0,0,-1,1707,1212,0,0
490,-188,0,0,0,0,0,0,0,0,0,-1,1714,1212,0,0
497,-188,0,0,0,0,0,0,0,0,0,-1,1721,1212,0,0
504,-188,0,0,0,0,0,0,0,0,0,-1,1728,1212,0,0
511,-188,0,0,0,0,0,0,0,0,0,-1,1735,1212,0,0
518,-188,0,0,0,0,0,0,0,0,0,-1,1742,1212,0,0
525,-188,0,0,0,0,0,0,0,0,0,-1,1749,1212,0,0
532,-188,0,0,0,0,0,0,0,0,0,-1,1756,1212,0,0
539,-188,0,0,0,0,0,0,0,0,0,-1,1763,1212,0,0
546,-188,0,0,0,0,0,0,0,0,0,-1,1770,1212,0,0
553,-188,0,0,0,0,0,0,0,0,0,-1,1777,1212,0,0
560,-188,0,0,0,0,0,0,0,0,0,-1,1784,1212,0,0
567,-188,0,0,0,0,0,0,0,0,0,-1,1791,1212,0,0
574,-188,0,0,0,0,0,0,0,0,0,-1,1798,1212,0,0
581,-188,0,0,0,0,0,0,0,0,0,-1,1805,1212,0,0
588,-188,0,0,0,0,0,0,0,0,0,-1,1812,1212,0,0
595,-188,0,0,0,0,0,0,0,0,0,-1,1819,1212,0,0
602,-188,0,0,0,0,0,0,0,0,0,-1,1826,1212,0,0
609,-188,0,0,0,0,0,0,0,0,0,-1,1833,1212,0,0
616,-188,0,0,0,0,0,0,0,0,0,-1,1840,1212,0,0
623,-188,0,0,0,0,0,0,0,0,0,-1,1847,1212,0,0
630,-188,17.1688,2.75012,-0.00505988,0.00110156,-0.00223129,0.00182472,-0.00578304,-1.25738,0.00458624,0.0404259,1854,1212,17.1688,-2.7501
637,-188,17.0409,2.56445,-0.00123867,0.00170773,-0.00243696,0.00308217,-0.00261311,-1.05727,0.00329189,0.0401595,1861,1212,17.0409,-2.56447
644,-188,16.9325,2.44788,3.30561e-05,0.00222046,-0.00243517,0.00379626,-0.00154274,-0.996462,0.00317268,0.0370467,1868,1212,16.9325,-2.44783
651,-188,17.0206,2.46008,-0.000734949,0.00193668,-0.00163471,0.00271195,-0.00151022,-1.12796,0.00247036,0.0303976,1875,1212,17.0207,-2.4601
658,-188,17.1166,2.44958,-0.00240275,0.00131241,-0.000398441,0.00135466,-0.002445,-1.46515,0.00222364,0.0304308,1882,1212,17.1165,-2.44954
665,-188,17.0364,2.49304,-0.00415561,0.000576469,0.000815457,0.000713051,-0.00429219,1.40485,0.00312637,0.028067,1889,1212,17.0364,-2.49306
672,-188,17.0863,2.51318,-0.00579947,-0.000192662,0.00190958,0.000395918,-0.00638805,1.27181,0.00439662,0.0214299,1896,1212,17.0863,-2.51316
679,-188,17.0917,2.41858,-0.00717092,-0.000863046,0.00288648,0.000258424,-0.00829239,1.20022,0.00561639,0.0414357,1903,1212,17.0917,-2.41855
686,-188,16.7347,2.40564,-0.00804854,-0.00143545,0.00362659,0.000165691,-0.00964969,1.15503,0.00648906,0.0427059,1910,1212,16.7347,-2.40558
693,-188,16.092,3.42151,-0.00854939,-0.00179012,0.00419422,0.000216655,-0.0105562,1.12453,0.00711076,0.0432154,1917,1212,16.092,-3.42154
700,-188,15.6418,3.83142,-0.0087146,-0.00205147,0.00449642,0.000213139,-0.0109792,1.10424,0.00739154,0.0392101,1924,1212,15.6418,-3.83142
707,-188,15.5006,3.97498,-0.00858327,-0.00221884,0.00448963,0.000101966,-0.0109041,1.0937,0.00730361,0.0134806,1931,1212,15.5006,-3.97493
714,-188,15.499,3.89905,-0.0081043,-0.00217916,0.0041876,-1.21305e-05,-0.0102713,1.09326,0.00684352,0.0106939,1938,1212,15.499,-3.89905
721,-188,15.4495,3.80566,-0.00705052,-0.00186418,0.003589,-2.95439e-05,-0.00888516,1.09824,0.00591362,0.0103523,1945,1212,15.4494,-3.80562
728,-188,15.4286,3.68286,-0.00532267,-0.000894693,0.00274854,0.000420652,-0.00663802,1.12445,0.00457202,0.00910501,1952,1212,15.4286,-3.6828
735,-188,15.4249,3.56458,-0.00269886,0.000625191,0.00185954,0.0014572,-0.00353087,1.15008,0.00296166,0.0128461,1959,1212,15.425,-3.5646
742,-188,15.4229,3.4696,0.000841879,0.00210406,0.000305886,0.00217429,0.000771656,1.34513,0.00127282,0.0144726,1966,1212,15.4228,-3.46957
749,-188,15.4395,3.36755,0.00465861,0.00453828,-0.0020086,0.00660795,0.00258894,-0.770425,0.00384476,0.0140106,1973,1212,15.4395,-3.36751
756,-188,15.4305,3.2782,0.00830613,0.00782473,-0.00428115,0.0123533,0.00377752,-0.757316,0.00730934,0.0122317,1980,1212,15.4305,-3.27824
763,-188,15.4319,3.17786,0.0124051,0.0112056,-0.00645966,0.0182928,0.00531791,-0.739107,0.0108654,0.0134145,1987,1212,15.4318,-3.17786
770,-188,15.4384,3.03174,0.0174039,0.0154433,-0.00915531,0.0256312,0.00721591,-0.732064,0.0152618,0.0217892,1994,1212,15.4384,-3.03177
777,-188,15.4868,2.9248,0.0235027,0.0207193,-0.012687,0.0348741,0.00934788,-0.730769,0.0208442,0.0445397,2001,1212,15.4868,-2.92483
784,-188,16.0409,2.89099,0.0306198,0.0272015,-0.0172384,0.0462335,0.0115877,-0.735986,0.0277775,0.0478695,2008,1212,16.0409,-2.89101
791,-188,16.6699,2.74719,0,0,0,0,0,0,0,-1,2015,1212,16.67,-2.74724
798,-188,17.0161,1.72363,0,0,0,0,0,0,0,-1,2022,1212,17.0161,-1.72364
805,-188,0,0,0,0,0,0,0,0,0,-1,2029,1212,0,0
812,-188,0,0,0,0,0,0,0,0,0,-1,2036,1212,0,0
-700,-195,0,0,0,0,0,0,0,0,0,-1,524,1219,0,0
-693,-195,0,0,0,0,0,0,0,0,0,-1,531,1219,0,0
-686,-195,0,0,0,0,0,0,0,0,0,-1,538,1219,0,0
-679,-195,-7.28198,1.54785,0,0,0,0,0,0,0,-1,545,1219,-7.282,-1.54783
-672,-195,-7.02661,-1.13391,0,0,0,0,0,0,0,-1,552,1219,-7.02662,1.13395
-665,-195,-7.02209,-1.47119,0,0,0,0,0,0,0,-1,559,1219,-7.02207,1.47119
-658,-195,-7.11926,-1.8584,0.00781808,-0.0068251,-0.00782024,0.0112092,-0.0102162,-0.409159,0.0123744,0.0442867,566,1219,-7.11927,1.85845
-651,-195,-6.49542,-2.62524,0.00791036,-0.00632164,-0.00462104,0.00927914,-0.00769042,-0.287972,0.00981168,0.0488695,573,1219,-6.49545,2.6253
-644,-195,-5.83209,-3.14917,0,0,0,0,0,0,0,-1,580,1219,-5.83211,3.1492
-637,-195,-8.76105,0.757202,0.00613759,-0.00432834,-0.00098636,0.00622973,-0.00442049,-0.093152,0.00617841,0.0206978,587,1219,-8.76103,-0.757234
-630,-195,-8.84241,0.884888,0.00510196,-0.00353956,-8.8264e-05,0.00510286,-0.00354046,-0.0102125,0.00501733,0.00754981,594,1219,-8.84239,-0.884877
-623,-195,-8.84259,1.00464,0.00394981,-0.00281361,8.41127e-05,0.00395085,-0.00281466,0.0124339,0.00392439,0.00766999,601,1219,-8.84259,-1.00461
-616,-195,-8.8161,1.14185,0.00314341,-0.00219934,-0.00045108,0.00318123,-0.00223715,-0.0836394,0.00314409,0.00982664,608,1219,-8.81613,-1.14187
-609,-195,-8.82135,1.28735,0.00243332,-0.00133156,-0.0013021,0.00283978,-0.00173801,-0.30257,0.00266838,0.0166867,615,1219,-8.82134,-1.28736
-602,-195,-8.84668,1.41797,0.00165409,0.000191765,-0.00262504,0.00364789,-0.00180204,-0.649574,0.00320611,0.0201936,622,1219,-8.84668,-1.41792
-595,-195,-8.85693,1.5625,0.00128515,0.000926593,-0.00428683,0.00539645,-0.0031847,-0.7645,0.00500888,0.0146986,629,1219,-8.85691,-1.56244
-588,-195,-8.85236,1.68005,0.00106778,0.000918641,-0.00554034,0.00653405,-0.00454762,-0.778669,0.00643218,0.0072832,636,1219,-8.85234,-1.68002
-581,-195,-8.86023,1.78674,0.00101592,0.00102961,-0.00622197,0.00724474,-0.00519921,-0.785948,0.0072168,0.0080746,643,1219,-8.86024,-1.7868
-574,-195,-8.8172,1.83679,0.000914501,0.00153157,-0.00666141,0.00789159,-0.00544552,-0.80854,0.00774323,0.0210467,650,1219,-8.81717,-1.83678
-567,-195,-8.22729,0.990234,0.000518019,0.00184777,-0.00680294,0.00801825,-0.00565246,-0.83411,0.00793209,0.0446485,657,1219,-8.22729,-0.990176
-560,-195,-7.67944,0.1073,0,0,0,0,0,0,0,-1,664,1219,-7.67942,-0.107293
-553,-195,-10.6665,0.538086,-0.000393256,0.00269085,-0.00663555,0.00796117,-0.00566357,-0.899568,0.00790344,0.0428671,671,1219,-10.6665,-0.538047
-546,-195,-10.639,0.611694,-0.000982619,0.00300345,-0.00610351,0.00743109,-0.00541025,-0.94321,0.00744449,0.0423928,678,1219,-10.639,-0.611682
-539,-195,-10.7365,0.69751,-0.0016091,0.00328041,-0.00524449,0.00662197,-0.00495066,-1.0035,0.00670465,0.0376493,685,1219,-10.7364,-0.697526
-532,-195,-10.6701,0.580566,-0.00204053,0.00346523,-0.00407075,0.00562656,-0.00420186,-1.08271,0.00569427,0.0358146,692,1219,-10.6701,-0.580554
-525,-195,-10.5726,0.684326,-0.00198859,0.00352191,-0.00260793,0.00456043,-0.00302711,-1.19183,0.00441038,0.0370555,699,1219,-10.5726,-0.684359
-518,-195,-10.6171,0.740356,-0.00070044,0.00318886,-0.00157015,0.00374362,-0.0012552,-1.23117,0.0030029,0.0391941,706,1219,-10.6172,-0.740306
-511,-195,-10.5781,0.702881,0.00446607,0.00324418,-0.00275406,0.00667614,0.00103411,-0.676248,0.00414923,0.0390328,713,1219,-10.5781,-0.702937
-504,-195,0,0,0,0,0,0,0,0,0,-1,720,1219,0,0
-497,-195,0,0,0,0,0,0,0,0,0,-1,727,1219,0,0
-490,-195,0,0,0,0,0,0,0,0,0,-1,734,1219,0,0
-483,-195,0,0,0,0,0,0,0,0,0,-1,741,1219,0,0
-476,-195,0,0,0,0,0,0,0,0,0,-1,748,1219,0,0
-469,-195,0,0,0,0,0,0,0,0,0,-1,755,1219,0,0
-462,-195,0,0,0,0,0,0,0,0,0,-1,762,1219,0,0
-455,-195,0,0,0,0,0,0,0,0,0,-1,769,1219,0,0
-448,-195,0,0,0,0,0,0,0,0,0,-1,776,1219,0,0
-441,-195,0,0,0,0,0,0,0,0,0,-1,783,1219,0,0
-434,-195,0,0,0,0,0,0,0,0,0,-1,790,1219,0,0
-427,-195,0,0,0,0,0,0,0,0,0,-1,797,1219,0,0
-420,-195,0,0,0,0,0,0,0,0,0,-1,804,1219,0,0
-413,-195,0,0,0,0,0,0,0,0,0,-1,811,1219,0,0
-406,-195,0,0,0,0,0,0,0,0,0,-1,818,1219,0,0
-399,-195,0,0,0,0,0,0,0,0,0,-1,825,1219,0,0
-392,-195,0,0,0,0,0,0,0,0,0,-1,832,1219,0,0
-385,-195,0,0,0,0,0,0,0,0,0,-1,839,1219,0,0
-378,-195,0,0,0,0,0,0,0,0,0,-1,846,1219,0,0
-371,-195,0,0,0,0,0,0,0,0,0,-1,853,1219,0,0
-364,-195,0,0,0,0,0,0,0,0,0,-1,860,1219,0,0
-357,-195,0,0,0,0,0,0,0,0,0,-1,867,1219,0,0
-350,-195,0,0,0,0,0,0,0,0,0,-1,874,1219,0,0
-343,-195,0,0,0,0,0,0,0,0,0,-1,881,1219,0,0
-336,-195,0,0,0,0,0,0,0,0,0,-1,888,1219,0,0
-329,-195,0,0,0,0,0,0,0,0,0,-1,895,1219,0,0
-322,-195,0,0,0,0,0,0,0,0,0,-1,902,1219,0,0
-315,-195,0,0,0,0,0,0,0,0,0,-1,909,1219,0,0
-308,-195,0,0,0,0,0,0,0,0,0,-1,916,1219,0,0
-301,-195,0,0,0,0,0,0,0,0,0,-1,923,1219,0,0
-294,-195,0,0,0,0,0,0,0,0,0,-1,930,1219,0,0
-287,-195,0,0,0,0,0,0,0,0,0,-1,937,1219,0,0
-280,-195,0,0,0,0,0,0,0,0,0,-1,944,1219,0,0
-273,-195,0,0,0,0,0,0,0,0,0,-1,951,1219,0,0
-266,-195,0,0,0,0,0,0,0,0,0,-1,958,1219,0,0
-259,-195,0,0,0,0,0,0,0,0,0,-1,965,1219,0,0
-252,-195,0,0,0,0,0,0,0,0,0,-1,972,1219,0,0
-245,-195,0,0,0,0,0,0,0,0,0,-1,979,1219,0,0
-238,-195,0,0,0,0,0,0,0,0,0,-1,986,1219,0,0
-231,-195,0,0,0,0,0,0,0,0,0,-1,993,1219,0,0
-224,-195,0,0,0,0,0,0,0,0,0,-1,1000,1219,0,0
-217,-195,0,0,0,0,0,0,0,0,0,-1,1007,1219,0,0
-210,-195,0,0,0,0,0,0,0,0,0,-1,1014,1219,0,0
-203,-195,0,0,0,0,0,0,0,0,0,-1,1021,1219,0,0
-196,-195,0,0,0,0,0,0,0,0,0,-1,1028,1219,0,0
-189,-195,0,0,0,0,0,0,0,0,0,-1,1035,1219,0,0
-182,-195,0,0,0,0,0,0,0,0,0,-1,1042,1219,0,0
-175,-195,0,0,0,0,0,0,0,0,0,-1,1049,1219,0,0
-168,-195,0,0,0,0,0,0,0,0,0,-1,1056,1219,0,0
-161,-195,0,0,0,0,0,0,0,0,0,-1,1063,1219,0,0
-154,-195,0,0,0,0,0,0,0,0,0,-1,1070,1219,0,0
-147,-195,0,0,0,0,0,0,0,0,0,-1,1077,1219,0,0
-140,-195,0,0,0,0,0,0,0,0,0,-1,1084,1219,0,0
-133,-195,0,0,0,0,0,0,0,0,0,-1,1091,1219,0,0
-126,-195,0,0,0,0,0,0,0,0,0,-1,1098,1219,0,0
-119,-195,0,0,0,0,0,0,0,0,0,-1,1105,1219,0,0
-112,-195,0,0,0,0,0,0,0,0,0,-1,1112,1219,0,0
-105,-195,0,0,0,0,0,0,0,0,0,-1,1119,1219,0,0
-98,-195,0,0,0,0,0,0,0,0,0,-1,1126,1219,0,0
-91,-195,0,0,0,0,0,0,0,0,0,-1,1133,1219,0,0
-84,-195,0,0,0,0,0,0,0,0,0,-1,1140,1219,0,0
-77,-195,0,0,0,0,0,0,0,0,0,-1,1147,1219,0,0
-70,-195,0,0,0,0,0,0,0,0,0,-1,1154,1219,0,0
-63,-195,0,0,0,0,0,0,0,0,0,-1,1161,1219,0,0
-56,-195,0,0,0,0,0,0,0,0,0,-1,1168,1219,0,0
-49,-195,0,0,0,0,0,0,0,0,0,-1,1175,1219,0,0
-42,-195,0,0,0,0,0,0,0,0,0,-1,1182,1219,0,0
-35,-195,0,0,0,0,0,0,0,0,0,-1,1189,1219,0,0
-28,-195,0,0,0,0,0,0,0,0,0,-1,1196,1219,0,0
-21,-195,0,0,0,0,0,0,0,0,0,-1,1203,1219,0,0
-14,-195,0,0,0,0,0,0,0,0,0,-1,1210,1219,0,0
-7,-195,0,0,0,0,0,0,0,0,0,-1,1217,1219,0,0
0,-195,0,0,0,0,0,0,0,0,0,-1,1224,1219,0,0
7,-195,0,0,0,0,0,0,0,0,0,-1,1231,1219,0,0
14,-195,0,0,0,0,0,0,0,0,0,-1,1238,1219,0,0
21,-195,0,0,0,0,0,0,0,0,0,-1,1245,1219,0,0
28,-195,0,0,0,0,0,0,0,0,0,-1,1252,1219,0,0
35,-195,0,0,0,0,0,0,0,0,0,-1,1259,1219,0,0
42,-195,0,0,0,0,0,0,0,0,0,-1,1266,1219,0,0
49,-195,0,0,0,0,0,0,0,0,0,-1,1273,1219,0,0
56,-195,0,0,0,0,0,0,0,0,0,-1,1280,1219,0,0
63,-195,0,0,0,0,0,0,0,0,0,-1,1287,1219,0,0
70,-195,0,0,0,0,0,0,0,0,0,-1,1294,1219,0,0
77,-195,0,0,0,0,0,0,0,0,0,-1,1301,1219,0,0
84,-195,0,0,0,0,0,0,0,0,0,-1,1308,1219,0,0
91,-195,0,0,0,0,0,0,0,0,0,-1,1315,1219,0,0
98,-195,0,0,0,0,0,0,0,0,0,-1,1322,1219,0,0
105,-195,0,0,0,0,0,0,0,0,0,-1,1329,1219,0,0
112,-195,0,0,0,0,0,0,0,0,0,-1,1336,1219,0,0
119,-195,0,0,0,0,0,0,0,0,0,-1,1343,1219,0,0
126,-195,0,0,0,0,0,0,0,0,0,-1,1350,1219,0,0
133,-195,0,0,0,0,0,0,0,0,0,-1,1357,1219,0,0
140,-195,0,0,0,0,0,0,0,0,0,-1,1364,1219,0,0
147,-195,0,0,0,0,0,0,0,0,0,-1,1371,1219,0,0
154,-195,0,0,0,0,0,0,0,0,0,-1,1378,1219,0,0
161,-195,0,0,0,0,0,0,0,0,0,-1,1385,1219,0,0
168,-195,0,0,0,0,0,0,0,0,0,-1,1392,1219,0,0
175,-195,0,0,0,0,0,0,0,0,0,-1,1399,1219,0,0
182,-195,0,0,0,0,0,0,0,0,0,-1,1406,1219,0,0
189,-195,0,0,0,0,0,0,0,0,0,-1,1413,1219,0,0
196,-195,0,0,0,0,0,0,0,0,0,-1,1420,1219,0,0
203,-195,0,0,0,0,0,0,0,0,0,-1,1427,1219,0,0
210,-195,0,0,0,0,0,0,0,0,0,-1,1434,1219,0,0
217,-195,0,0,0,0,0,0,0,0,0,-1,1441,1219,0,0
224,-195,0,0,0,0,0,0,0,0,0,-1,1448,1219,0,0
231,-195,0,0,0,0,0,0,0,0,0,-1,1455,1219,0,0
238,-195,0,0,0,0,0,0,0,0,0,-1,1462,1219,0,0
245,-195,0,0,0,0,0,0,0,0,0,-1,1469,1219,0,0
252,-195,0,0,0,0,0,0,0,0,0,-1,1476,1219,0,0
259,-195,0,0,0,0,0,0,0,0,0,-1,1483,1219,0,0
266,-195,0,0,0,0,0,0,0,0,0,-1,1490,1219,0,0
273,-195,0,0,0,0,0,0,0,0,0,-1,1497,1219,0,0
280,-195,0,0,0,0,0,0,0,0,0,-1,1504,1219,0,0
287,-195,0,0,0,0,0,0,0,0,0,-1,1511,1219,0,0
294,-195,0,0,0,0,0,0,0,0,0,-1,1518,1219,0,0
301,-195,0,0,0,0,0,0,0,0,0,-1,1525,1219,0,0
308,-195,0,0,0,0,0,0,0,0,0,-1,1532,1219,0,0
315,-195,0,0,0,0,0,0,0,0,0,-1,1539,1219,0,0
322,-195,0,0,0,0,0,0,0,0,0,-1,1546,1219,0,0
329,-195,0,0,0,0,0,0,0,0,0,-1,1553,1219,0,0
336,-195,0,0,0,0,0,0,0,0,0,-1,1560,1219,0,0
343,-195,0,0,0,0,0,0,0,0,0,-1,1567,1219,0,0
350,-195,0,0,0,0,0,0,0,0,0,-1,1574,1219,0,0
357,-195,0,0,0,0,0,0,0,0,0,-1,1581,1219,0,0
364,-195,0,0,0,0,0,0,0,0,0,-1,1588,1219,0,0
371,-195,0,0,0,0,0,0,0,0,0,-1,1595,1219,0,0
378,-195,0,0,0,0,0,0,0,0,0,-1,1602,1219,0,0
385,-195,0,0,0,0,0,0,0,0,0,-1,1609,1219,0,0
392,-195,0,0,0,0,0,0,0,0,0,-1,1616,1219,0,0
399,-195,0,0,0,0,0,0,0,0,0,-1,1623,1219,0,0
406,-195,0,0,0,0,0,0,0,0,0,-1,1630,1219,0,0
413,-195,0,0,0,0,0,0,0,0,0,-1,1637,1219,0,0
420,-195,0,0,0,0,0,0,0,0,0,-1,1644,1219,0,0
427,-195,0,0,0,0,0,0,0,0,0,-1,1651,1219,0,0
434,-195,0,0,0,0,0,0,0,0,0,-1,1658,1219,0,0
441,-195,0,0,0,0,0,0,0,0,0,-1,1665,1219,0,0
448,-195,0,0,0,0,0,0,0,0,0,-1,1672,1219,0,0
455,-195,0,0,0,0,0,0,0,0,0,-1,1679,1219,0,0
462,-195,0,0,0,0,0,0,0,0,0,-1,1686,1219,0,0
469,-195,0,0,0,0,0,0,0,0,0,-1,1693,1219,0,0
476,-195,0,0,0,0,0,0,0,0,0,-1,1700,1219,0,0
483,-195,0,0,0,0,0,0,0,0,0,-1,1707,1219,0,0
490,-195,0,0,0,0,0,0,0,0,0,-1,1714,1219,0,0
497,-195,0,0,0,0,0,0,0,0,0,-1,1721,1219,0,0
504,-195,0,0,0,0,0,0,0,0,0,-1,1728,1219,0,0
511,-195,0,0,0,0,0,0,0,0,0,-1,1735,1219,0,0
518,-195,0,0,0,0,0,0,0,0,0,-1,1742,1219,0,0
525,-195,0,0,0,0,0,0,0,0,0,-1,1749,1219,0,0
532,-195,0,0,0,0,0,0,0,0,0,-1,1756,1219,0,0
539,-195,0,0,0,0,0,0,0,0,0,-1,1763,1219,0,0
546,-195,0,0,0,0,0,0,0,0,0,-1,1770,1219,0,0
553,-195,0,0,0,0,0,0,0,0,0,-1,1777,1219,0,0
560,-195,0,0,0,0,0,0,0,0,0,-1,1784,1219,0,0
567,-195,0,0,0,0,0,0,0,0,0,-1,1791,1219,0,0
574,-195,0,0,0,0,0,0,0,0,0,-1,1798,1219,0,0
581,-195,0,0,0,0,0,0,0,0,0,-1,1805,1219,0,0
588,-195,0,0,0,0,0,0,0,0,0,-1,1812,1219,0,0
595,-195,0,0,0,0,0,0,0,0,0,-1,1819,1219,0,0
602,-195,0,0,0,0,0,0,0,0,0,-1,1826,1219,0,0
609,-195,0,0,0,0,0,0,0,0,0,-1,1833,1219,0,0
616,-195,0,0,0,0,0,0,0,0,0,-1,1840,1219,0,0
623,-195,0,0,0,0,0,0,0,0,0,-1,1847,1219,0,0
630,-195,17.1302,2.59619,-0.00477035,0.00162021,-0.0024224,0.00243464,-0.00558478,-1.24646,0.0047476,0.0386657,1854,1219,17.1303,-2.59624
637,-195,17.0857,2.59045,-0.00118468,0.00223133,-0.00264432,0.0036713,-0.00262464,-1.07215,0.00365167,0.0385014,1861,1219,17.0857,-2.59043
644,-195,17.0435,2.47607,-0.000150103,0.00257519,-0.00252776,0.0040842,-0.00165911,-1.03261,0.00341301,0.0347424,1868,1219,17.0434,-2.47606
651,-195,17.041,2.43872,-0.000991537,0.00216225,-0.00169338,0.00289925,-0.00172854,-1.1603,0.00270021,0.026398,1875,1219,17.041,-2.43878
658,-195,17.0723,2.45569,-0.0025094,0.00147719,-0.000576566,0.0015589,-0.00259111,-1.43001,0.00242059,0.0239246,1882,1219,17.0723,-2.45574
665,-195,17.0793,2.48413,-0.00409675,0.000701023,0.000508855,0.000754399,-0.00415013,1.46628,0.00304948,0.0220708,1889,1219,17.0793,-2.48415
672,-195,17.1218,2.43457,-0.00560403,-9.58544e-05,0.00149389,0.00028322,-0.00598311,1.32229,0.00408642,0.0322566,1896,1219,17.1218,-2.43455
679,-195,17.0751,2.29883,-0.0068655,-0.000774015,0.00239238,5.32286e-05,-0.00769274,1.23788,0.00514633,0.0462431,1903,1219,17.0751,-2.29886
686,-195,16.7084,2.24866,-0.00768316,-0.00135385,0.00309189,-9.41623e-05,-0.00894285,1.18391,0.00593076,0.0441582,1910,1219,16.7084,-2.24868
693,-195,15.6359,3.65662,-0.00816465,-0.00172715,0.00365674,-7.434e-05,-0.00981746,1.14629,0.00652034,0.0457153,1917,1219,15.6359,-3.6566
700,-195,15.4049,3.95789,-0.00830653,-0.00199486,0.003983,-6.90026e-05,-0.0102324,1.12042,0.00679871,0.0277757,1924,1219,15.4049,-3.95786
707,-195,15.3151,4.03296,-0.00814368,-0.00214318,0.00397765,-0.000161141,-0.0101257,1.10851,0.00669741,0.0134691,1931,1219,15.315,-4.03293
714,-195,15.3214,3.93188,-0.00761423,-0.0020621,0.00366447,-0.00024089,-0.00943543,1.10956,0.00621155,0.0142929,1938,1219,15.3214,-3.93187
721,-195,15.328,3.81384,-0.0065075,-0.00171591,0.0030637,-0.000222478,-0.00800093,1.11723,0.00526136,0.0117322,1945,1219,15.328,-3.8138
728,-195,15.3168,3.69507,-0.00475087,-0.000632674,0.00221673,0.000333752,-0.00571729,1.15967,0.00392751,0.0102647,1952,1219,15.3167,-3.69502
735,-195,15.3135,3.57141,-0.00215219,0.00107292,0.00135199,0.00156469,-0.00264396,1.22193,0.00245636,0.0125865,1959,1219,15.3134,-3.57139
742,-195,15.3088,3.4679,0.00136136,0.0027692,-0.000119132,0.00277921,0.00135135,-1.48697,0.00160478,0.0138053,1966,1219,15.3089,-3.46796
749,-195,15.313,3.36633,0.00518958,0.00533413,-0.00228573,0.00754872,0.00297498,-0.801203,0.00439072,0.0129797,1973,1219,15.313,-3.36636
756,-195,15.3085,3.2832,0.00877344,0.00873597,-0.00435072,0.0131055,0.00440394,-0.783245,0.00770086,0.0123877,1980,1219,15.3084,-3.28315
763,-195,15.3108,3.1626,0.0129636,0.0124,-0.00635947,0.0190475,0.0063161,-0.763255,0.0112031,0.013598,1987,1219,15.3108,-3.16254
770,-195,15.3594,2.97559,0.0182593,0.0170053,-0.00886732,0.0265217,0.00874281,-0.750103,0.0156058,0.0257926,1994,1219,15.3594,-2.9756
777,-195,15.4246,2.84143,0.0248402,0.0226804,-0.0120945,0.0359029,0.0116177,-0.740874,0.0211542,0.0444773,2001,1219,15.4245,-2.84139
784,-195,15.528,2.64233,0.0327076,0.0295408,-0.0161788,0.0473803,0.0148681,-0.73662,0.0279801,0.0455289,2008,1219,15.528,-2.64239
791,-195,15.7214,2.51672,0,0,0,0,0,0,0,-1,2015,1219,15.7214,-2.51678
798,-195,15.8314,2.68433,0,0,0,0,0,0,0,-1,2022,1219,15.8315,-2.68429
805,-195,0,0,0,0,0,0,0,0,0,-1,2029,1219,0,0
812,-195,0,0,0,0,0,0,0,0,0,-1,2036,1219,0,0
-700,-202,0,0,0,0,0,0,0,0,0,-1,524,1226,0,0
-693,-202,0,0,0,0,0,0,0,0,0,-1,531,1226,0,0
-686,-202,0,0,0,0,0,0,0,0,0,-1,538,1226,0,0
-679,-202,-6.88397,1.38721,0,0,0,0,0,0,0,-1,545,1226,-6.88395,-1.38717
-672,-202,-8.2326,-0.411133,0,0,0,0,0,0,0,-1,552,1226,-8.23258,0.411103
-665,-202,-8.03259,-0.580811,0.0136754,-0.0171649,-0.0153005,0.0199782,-0.0234677,-0.390751,0.0251105,0.0468999,559,1226,-8.03261,0.580775
-658,-202,-7.63757,-1.74719,0.0145968,-0.0147397,-0.010511,0.017974,-0.0181169,-0.310883,0.0208371,0.0437922,566,1226,-7.63758,1.74723
-651,-202,-6.75958,-2.82385,0.0139597,-0.0120581,-0.00699397,0.0157206,-0.013819,-0.246648,0.0170665,0.0471592,573,1226,-6.75961,2.82381
-644,-202,-8.58258,0.431641,0.0123834,-0.00935489,-0.00450228,0.013279,-0.0102505,-0.196355,0.0136222,0.0411175,580,1226,-8.5826,-0.431601
-637,-202,-8.54407,0.688599,0.0103277,-0.00683847,-0.00280824,0.0107755,-0.00728619,-0.158102,0.0104926,0.029204,587,1226,-8.54406,-0.688643
-630,-202,-8.63647,0.843506,0.0083651,-0.00496953,-0.0016312,0.00856174,-0.00516617,-0.119971,0.00800623,0.0122758,594,1226,-8.63645,-0.843529
-623,-202,-8.67804,0.980713,0.00642409,-0.00346027,-0.00113985,0.00655383,-0.00359001,-0.113337,0.00593929,0.00767973,601,1226,-8.67805,-0.980673
-616,-202,-8.68237,1.12512,0.00494738,-0.00237602,-0.00131697,0.00517701,-0.00260565,-0.172627,0.00457434,0.00824959,608,1226,-8.68239,-1.12506
-609,-202,-8.6803,1.27942,0.00381181,-0.00114376,-0.00174395,0.00436401,-0.00169596,-0.306648,0.00360998,0.0198278,615,1226,-8.68028,-1.27938
-602,-202,-8.69946,1.40186,0.00280044,0.000562672,-0.00264755,0.00455583,-0.00119271,-0.585475,0.00350314,0.020629,622,1226,-8.69948,-1.40189
-595,-202,-8.72888,1.57227,0.00216474,0.00125687,-0.00393539,0.00567229,-0.00225068,-0.727979,0.00471437,0.0155582,629,1226,-8.72887,-1.57232
-588,-202,-8.69495,1.68713,0.00171032,0.000933231,-0.0048524,0.0061897,-0.00354615,-0.745447,0.00568965,0.00742452,636,1226,-8.69492,-1.68712
-581,-202,-8.68866,1.79028,0.00163168,0.000883811,-0.00549198,0.00676244,-0.00424695,-0.751407,0.00641134,0.0097999,643,1226,-8.68867,-1.79033
-574,-202,-8.72583,1.81958,0.00148711,0.00125867,-0.00586411,0.00723811,-0.00449233,-0.77566,0.00683414,0.0162504,650,1226,-8.72586,-1.81956
-567,-202,-8.74121,1.78894,0.000964781,0.00146193,-0.00591026,0.00712884,-0.00470213,-0.806415,0.00687834,0.042138,657,1226,-8.74123,-1.78889
-560,-202,-8.80359,1.76086,0,0,0,0,0,0,0,-1,664,1226,-8.80359,-1.76091
-553,-202,-10.5362,0.238525,-0.000179358,0.0022966,-0.00586231,0.00705022,-0.00493298,-0.889457,0.00695441,0.0486113,671,1226,-10.5362,-0.238541
-546,-202,-10.3378,0.208862,-0.000986974,0.0026487,-0.00547235,0.00659724,-0.00493552,-0.945757,0.00668144,0.0462616,678,1226,-10.3378,-0.208835
-539,-202,-10.6574,0.593384,-0.0018722,0.00303002,-0.0048453,0.00600891,-0.00485109,-1.01957,0.00628189,0.0413838,685,1226,-10.6574,-0.593399
-532,-202,-10.6306,0.500488,-0.00259724,0.00342533,-0.00400242,0.00542276,-0.00459467,-1.1079,0.00579014,0.0303904,692,1226,-10.6306,-0.500497
-525,-202,-10.6122,0.583252,-0.00287624,0.00385297,-0.00296606,0.00497368,-0.00399695,-1.20953,0.00518942,0.0341183,699,1226,-10.6122,-0.583194
-518,-202,-10.7063,0.779053,-0.00207967,0.00423889,-0.00216178,0.00490771,-0.00274848,-1.27075,0.00447852,0.0386521,706,1226,-10.7063,-0.779079
-511,-202,-10.7781,0.851074,0.00206808,0.00486666,-0.00284643,0.00663915,0.000295592,-1.01385,0.00433093,0.0411814,713,1226,-10.7781,-0.851096
-504,-202,0,0,0,0,0,0,0,0,0,-1,720,1226,0,0
-497,-202,0,0,0,0,0,0,0,0,0,-1,727,1226,0,0
-490,-202,0,0,0,0,0,0,0,0,0,-1,734,1226,0,0
-483,-202,0,0,0,0,0,0,0,0,0,-1,741,1226,0,0
-476,-202,0,0,0,0,0,0,0,0,0,-1,748,1226,0,0
-469,-202,0,0,0,0,0,0,0,0,0,-1,755,1226,0,0
-462,-202,0,0,0,0,0,0,0,0,0,-1,762,1226,0,0
-455,-202,0,0,0,0,0,0,0,0,0,-1,769,1226,0,0
-448,-202,0,0,0,0,0,0,0,0,0,-1,776,1226,0,0
-441,-202,0,0,0,0,0,0,0,0,0,-1,783,1226,0,0
-434,-202,0,0,0,0,0,0,0,0,0,-1,790,1226,0,0
-427,-202,0,0,0,0,0,0,0,0,0,-1,797,1226,0,0
-420,-202,0,0,0,0,0,0,0,0,0,-1,804,1226,0,0
-413,-202,0,0,0,0,0,0,0,0,0,-1,811,1226,0,0
-406,-202,0,0,0,0,0,0,0,0,0,-1,818,1226,0,0
-399,-202,0,0,0,0,0,0,0,0,0,-1,825,1226,0,0
-392,-202,0,0,0,0,0,0,0,0,0,-1,832,1226,0,0
-385,-202,0,0,0,0,0,0,0,0,0,-1,839,1226,0,0
-378,-202,0,0,0,0,0,0,0,0,0,-1,846,1226,0,0
-371,-202,0,0,0,0,0,0,0,0,0,-1,853,1226,0,0
-364,-202,0,0,0,0,0,0,0,0,0,-1,860,1226,0,0
-357,-202,0,0,0,0,0,0,0,0,0,-1,867,1226,0,0
-350,-202,0,0,0,0,0,0,0,0,0,-1,874,1226,0,0
-343,-202,0,0,0,0,0,0,0,0,0,-1,881,1226,0,0
-336,-202,0,0,0,0,0,0,0,0,0,-1,888,1226,0,0
-329,-202,0,0,0,0,0,0,0,0,0,-1,895,1226,0,0
-322,-202,0,0,0,0,0,0,0,0,0,-1,902,1226,0,0
-315,-202,0,0,0,0,0,0,0,0,0,-1,909,1226,0,0
-308,-202,0,0,0,0,0,0,0,0,0,-1,916,1226,0,0
-301,-202,0,0,0,0,0,0,0,0,0,-1,923,1226,0,0
-294,-202,0,0,0,0,0,0,0,0,0,-1,930,1226,0,0
-287,-202,0,0,0,0,0,0,0,0,0,-1,937,1226,0,0
-280,-202,0,0,0,0,0,0,0,0,0,-1,944,1226,0,0
-273,-202,0,0,0,0,0,0,0,0,0,-1,951,1226,0,0
-266,-202,0,0,0,0,0,0,0,0,0,-1,958,1226,0,0
-259,-202,0,0,0,0,0,0,0,0,0,-1,965,1226,0,0
-252,-202,0,0,0,0,0,0,0,0,0,-1,972,1226,0,0
-245,-202,0,0,0,0,0,0,0,0,0,-1,979,1226,0,0
-238,-202,0,0,0,0,0,0,0,0,0,-1,986,1226,0,0
-231,-202,0,0,0,0,0,0,0,0,0,-1,993,1226,0,0
-224,-202,0,0,0,0,0,0,0,0,0,-1,1000,1226,0,0
-217,-202,0,0,0,0,0,0,0,0,0,-1,1007,1226,0,0
-210,-202,0,0,0,0,0,0,0,0,0,-1,1014,1226,0,0
-203,-202,0,0,0,0,0,0,0,0,0,-1,1021,1226,0,0
-196,-202,0,0,0,0,0,0,0,0,0,-1,1028,1226,0,0
-189,-202,0,0,0,0,0,0,0,0,0,-1,1035,1226,0,0
-182,-202,0,0,0,0,0,0,0,0,0,-1,1042,1226,0,0
-175,-202,0,0,0,0,0,0,0,0,0,-1,1049,1226,0,0
-168,-202,0,0,0,0,0,0,0,0,0,-1,1056,1226,0,0
-161,-202,0,0,0,0,0,0,0,0,0,-1,1063,1226,0,0
-154,-202,0,0,0,0,0,0,0,0,0,-1,1070,1226,0,0
-147,-202,0,0,0,0,0,0,0,0,0,-1,1077,1226,0,0
-140,-202,0,0,0,0,0,0,0,0,0,-1,1084,1226,0,0
-133,-202,0,0,0,0,0,0,0,0,0,-1,1091,1226,0,0
-126,-202,0,0,0,0,0,0,0,0,0,-1,1098,1226,0,0
-119,-202,0,0,0,0,0,0,0,0,0,-1,1105,1226,0,0
-112,-202,0,0,0,0,0,0,0,0,0,-1,1112,1226,0,0
-105,-202,0,0,0,0,0,0,0,0,0,-1,1119,1226,0,0
-98,-202,0,0,0,0,0,0,0,0,0,-1,1126,1226,0,0
-91,-202,0,0,0,0,0,0,0,0,0,-1,1133,1226,0,0
-84,-202,0,0,0,0,0,0,0,0,0,-1,1140,1226,0,0
-77,-202,0,0,0,0,0,0,0,0,0,-1,1147,1226,0,0
-70,-202,0,0,0,0,0,0,0,0,0,-1,1154,1226,0,0
-63,-202,0,0,0,0,0,0,0,0,0,-1,1161,1226,0,0
-56,-202,0,0,0,0,0,0,0,0,0,-1,1168,1226,0,0
-49,-202,0,0,0,0,0,0,0,0,0,-1,1175,1226,0,0
-42,-202,0,0,0,0,0,0,0,0,0,-1,1182,1226,0,0
-35,-202,0,0,0,0,0,0,0,0,0,-1,1189,1226,0,0
-28,-202,0,0,0,0,0,0,0,0,0,-1,1196,1226,0,0
-21,-202,0,0,0,0,0,0,0,0,0,-1,1203,1226,0,0
-14,-202,0,0,0,0,0,0,0,0,0,-1,1210,1226,0,0
-7,-202,0,0,0,0,0,0,0,0,0,-1,1217,1226,0,0
0,-202,0,0,0,0,0,0,0,0,0,-1,1224,1226,0,0
7,-202,0,0,0,0,0,0,0,0,0,-1,1231,1226,0,0
14,-202,0,0,0,0,0,0,0,0,0,-1,1238,1226,0,0
21,-202,0,0,0,0,0,0,0,0,0,-1,1245,1226,0,0
28,-202,0,0,0,0,0,0,0,0,0,-1,1252,1226,0,0
35,-202,0,0,0,0,0,0,0,0,0,-1,1259,1226,0,0
42,-202,0,0,0,0,0,0,0,0,0,-1,1266,1226,0,0
49,-202,0,0,0,0,0,0,0,0,0,-1,1273,1226,0,0
56,-202,0,0,0,0,0,0,0,0,0,-1,1280,1226,0,0
63,-202,0,0,0,0,0,0,0,0,0,-1,1287,1226,0,0
70,-202,0,0,0,0,0,0,0,0,0,-1,1294,1226,0,0
77,-202,0,0,0,0,0,0,0,0,0,-1,1301,1226,0,0
84,-202,0,0,0,0,0,0,0,0,0,-1,1308,1226,0,0
91,-202,0,0,0,0,0,0,0,0,0,-1,1315,1226,0,0
98,-202,0,0,0,0,0,0,0,0,0,-1,1322,1226,0,0
105,-202,0,0,0,0,0,0,0,0,0,-1,1329,1226,0,0
112,-202,0,0,0,0,0,0,0,0,0,-1,1336,1226,0,0
119,-202,0,0,0,0,0,0,0,0,0,-1,1343,1226,0,0
126,-202,0,0,0,0,0,0,0,0,0,-1,1350,1226,0,0
133,-202,0,0,0,0,0,0,0,0,0,-1,1357,1226,0,0
140,-202,0,0,0,0,0,0,0,0,0,-1,1364,1226,0,0
147,-202,0,0,0,0,0,0,0,0,0,-1,1371,1226,0,0
154,-202,0,0,0,0,0,0,0,0,0,-1,1378,1226,0,0
161,-202,0,0,0,0,0,0,0,0,0,-1,1385,1226,0,0
168,-202,0,0,0,0,0,0,0,0,0,-1,1392,1226,0,0
175,-202,0,0,0,0,0,0,0,0,0,-1,1399,1226,0,0
182,-202,0,0,0,0,0,0,0,0,0,-1,1406,1226,0,0
189,-202,0,0,0,0,0,0,0,0,0,-1,1413,1226,0,0
196,-202,0,0,0,0,0,0,0,0,0,-1,1420,1226,0,0
203,-202,0,0,0,0,0,0,0,0,0,-1,1427,1226,0,0
210,-202,0,0,0,0,0,0,0,0,0,-1,1434,1226,0,0
217,-202,0,0,0,0,0,0,0,0,0,-1,1441,1226,0,0
224,-202,0,0,0,0,0,0,0,0,0,-1,1448,1226,0,0
231,-202,0,0,0,0,0,0,0,0,0,-1,1455,1226,0,0
238,-202,0,0,0,0,0,0,0,0,0,-1,1462,1226,0,0
245,-202,0,0,0,0,0,0,0,0,0,-1,1469,1226,0,0
252,-202,0,0,0,0,0,0,0,0,0,-1,1476,1226,0,0
259,-202,0,0,0,0,0,0,0,0,0,-1,1483,1226,0,0
266,-202,0,0,0,0,0,0,0,0,0,-1,1490,1226,0,0
273,-202,0,0,0,0,0,0,0,0,0,-1,1497,1226,0,0
280,-202,0,0,0,0,0,0,0,0,0,-1,1504,1226,0,0
287,-202,0,0,0,0,0,0,0,0,0,-1,1511,1226,0,0
294,-202,0,0,0,0,0,0,0,0,0,-1,1518,1226,0,0
301,-202,0,0,0,0,0,0,0,0,0,-1,1525,1226,0,0
308,-202,0,0,0,0,0,0,0,0,0,-1,1532,1226,0,0
315,-202,0,0,0,0,0,0,0,0,0,-1,1539,1226,0,0
322,-202,0,0,0,0,0,0,0,0,0,-1,1546,1226,0,0
329,-202,0,0,0,0,0,0,0,0,0,-1,1553,1226,0,0
336,-202,0,0,0,0,0,0,0,0,0,-1,1560,1226,0,0
343,-202,0,0,0,0,0,0,0,0,0,-1,1567,1226,0,0
350,-202,0,0,0,0,0,0,0,0,0,-1,1574,1226,0,0
357,-202,0,0,0,0,0,0,0,0,0,-1,1581,1226,0,0
364,-202,0,0,0,0,0,0,0,0,0,-1,1588,1226,0,0
371,-202,0,0,0,0,0,0,0,0,0,-1,1595,1226,0,0
378,-202,0,0,0,0,0,0,0,0,0,-1,1602,1226,0,0
385,-202,0,0,0,0,0,0,0,0,0,-1,1609,1226,0,0
392,-202,0,0,0,0,0,0,0,0,0,-1,1616,1226,0,0
399,-202,0,0,0,0,0,0,0,0,0,-1,1623,1226,0,0
406,-202,0,0,0,0,0,0,0,0,0,-1,1630,1226,0,0
413,-202,0,0,0,0,0,0,0,0,0,-1,1637,1226,0,0
420,-202,0,0,0,0,0,0,0,0,0,-1,1644,1226,0,0
427,-202,0,0,0,0,0,0,0,0,0,-1,1651,1226,0,0
434,-202,0,0,0,0,0,0,0,0,0,-1,1658,1226,0,0
441,-202,0,0,0,0,0,0,0,0,0,-1,1665,1226,0,0
448,-202,0,0,0,0,0,0,0,0,0,-1,1672,1226,0,0
455,-202,0,0,0,0,0,0,0,0,0,-1,1679,1226,0,0
462,-202,0,0,0,0,0,0,0,0,0,-1,1686,1226,0,0
469,-202,0,0,0,0,0,0,0,0,0,-1,1693,1226,0,0
476,-202,0,0,0,0,0,0,0,0,0,-1,1700,1226,0,0
483,-202,0,0,0,0,0,0,0,0,0,-1,1707,1226,0,0
490,-202,0,0,0,0,0,0,0,0,0,-1,1714,1226,0,0
497,-202,0,0,0,0,0,0,0,0,0,-1,1721,1226,0,0
504,-202,0,0,0,0,0,0,0,0,0,-1,1728,1226,0,0
511,-202,0,0,0,0,0,0,0,0,0,-1,1735,1226,0,0
518,-202,0,0,0,0,0,0,0,0,0,-1,1742,1226,0,0
525,-202,0,0,0,0,0,0,0,0,0,-1,1749,1226,0,0
532,-202,0,0,0,0,0,0,0,0,0,-1,1756,1226,0,0
539,-202,0,0,0,0,0,0,0,0,0,-1,1763,1226,0,0
546,-202,0,0,0,0,0,0,0,0,0,-1,1770,1226,0,0
553,-202,0,0,0,0,0,0,0,0,0,-1,1777,1226,0,0
560,-202,0,0,0,0,0,0,0,0,0,-1,1784,1226,0,0
567,-202,0,0,0,0,0,0,0,0,0,-1,1791,1226,0,0
574,-202,0,0,0,0,0,0,0,0,0,-1,1798,1226,0,0
581,-202,0,0,0,0,0,0,0,0,0,-1,1805,1226,0,0
588,-202,0,0,0,0,0,0,0,0,0,-1,1812,1226,0,0
595,-202,0,0,0,0,0,0,0,0,0,-1,1819,1226,0,0
602,-202,0,0,0,0,0,0,0,0,0,-1,1826,1226,0,0
609,-202,0,0,0,0,0,0,0,0,0,-1,1833,1226,0,0
616,-202,0,0,0,0,0,0,0,0,0,-1,1840,1226,0,0
623,-202,0,0,0,0,0,0,0,0,0,-1,1847,1226,0,0
630,-202,17.0583,2.52515,-0.00431909,0.00213594,-0.00254074,0.00301601,-0.00519916,-1.23735,0.00479853,0.0346766,1854,1226,17.0583,-2.5251
637,-202,17.1285,2.50317,-0.000866081,0.00258095,-0.00278847,0.00413555,-0.00242069,-1.0622,0.00382816,0.0327039,1861,1226,17.1285,-2.50321
644,-202,17.1493,2.46411,2.93273e-05,0.00265545,-0.00259031,0.0042465,-0.00156172,-1.01998,0.00347074,0.0313776,1868,1226,17.1493,-2.46414
651,-202,17.0961,2.40552,-0.000763342,0.00209618,-0.00179328,0.0029599,-0.00162707,-1.12194,0.0026853,0.0273489,1875,1226,17.0961,-2.40552
658,-202,17.0708,2.43127,-0.00210063,0.00135901,-0.000821533,0.00154418,-0.0022858,-1.3491,0.00222502,0.0230421,1882,1226,17.0708,-2.43131
665,-202,17.072,2.40186,-0.00353199,0.000569192,0.000123795,0.000572925,-0.00353573,1.54065,0.00256951,0.0203692,1889,1226,17.072,-2.40183
672,-202,17.1357,2.34497,-0.00493015,-0.000218113,0.000993387,-1.72502e-05,-0.00513101,1.37129,0.00341494,0.0401678,1896,1226,17.1358,-2.34497
679,-202,17.2411,2.27124,-0.00611986,-0.000871493,0.00181278,-0.000306237,-0.00668512,1.26853,0.00435825,0.0434122,1903,1226,17.2411,-2.2713
686,-202,16.0526,4.08521,0,0,0,0,0,0,0,-1,1910,1226,16.0527,-4.08521
693,-202,15.6487,4.10339,-0.00746415,-0.00180668,0.00304148,-0.000481824,-0.00878901,1.15998,0.00570552,0.0493867,1917,1226,15.6487,-4.10335
700,-202,15.1804,4.13367,-0.0076581,-0.00205078,0.00339322,-0.000452802,-0.00925608,1.13067,0.00602546,0.0208996,1924,1226,15.1805,-4.13364
707,-202,15.1658,4.00623,-0.00753635,-0.00212926,0.00341928,-0.000473837,-0.00919178,1.11991,0.00597617,0.0181794,1931,1226,15.1658,-4.00622
714,-202,15.2017,3.91418,-0.00700062,-0.00200299,0.00312823,-0.000498072,-0.00850554,1.1224,0.00551184,0.014648,1938,1226,15.2016,-3.9142
721,-202,15.228,3.80444,-0.00588029,-0.00160141,0.00255249,-0.000410321,-0.00707138,1.13419,0.0045836,0.0119204,1945,1226,15.228,-3.80439
728,-202,15.2107,3.69214,-0.00410502,-0.000434188,0.00173364,0.000255126,-0.00479433,1.19235,0.00328457,0.0105266,1952,1226,15.2107,-3.6921
735,-202,15.2056,3.56995,-0.00160198,0.0013796,0.000955706,0.00165964,-0.00188202,1.28576,0.00204612,0.0107005,1959,1226,15.2056,-3.56992
742,-202,15.2095,3.45972,0.0017186,0.003246,-0.000339969,0.00331825,0.00164634,-1.36139,0.00191581,0.00921772,1966,1226,15.2095,-3.45977
749,-202,15.1978,3.36096,0.00544794,0.00583298,-0.00224955,0.00789823,0.00338268,-0.828084,0.00457566,0.00866972,1973,1226,15.1978,-3.361
756,-202,15.1876,3.24695,0.00890847,0.0092232,-0.00401183,0.0130807,0.00505092,-0.805001,0.00761717,0.00990051,1980,1226,15.1876,-3.24694
763,-202,15.2029,3.14294,0.0131281,0.0130229,-0.00574059,0.0188163,0.00733465,-0.780817,0.0109512,0.0142258,1987,1226,15.2029,-3.14293
770,-202,15.2776,3.00391,0.0186442,0.0177877,-0.0079056,0.0261332,0.0102988,-0.758338,0.0152004,0.0364974,1994,1226,15.2776,-3.00392
777,-202,15.5457,2.16858,0.025659,0.023603,-0.0106566,0.035337,0.0139249,-0.737313,0.0205539,0.0450619,2001,1226,15.5457,-2.16858
784,-202,15.3148,2.45398,0.0343243,0.0305327,-0.0141164,0.0466716,0.0181853,-0.718649,0.0271637,0.0453943,2008,1226,15.3148,-2.45393
791,-202,15.9165,2.53345,0.0448924,0.0386207,-0.0185211,0.0605413,0.0229719,-0.701537,0.0352906,0.0441714,2015,1226,15.9165,-2.53345
798,-202,16.2775,2.67993,0.0575766,0.0477858,-0.0241231,0.077296,0.0280664,-0.68529,0.045181,0.0462724,2022,1226,16.2774,-2.67992
805,-202,0,0,0,0,0,0,0,0,0,-1,2029,1226,0,0
812,-202,0,0,0,0,0,0,0,0,0,-1,2036,1226,0,0
-700,-209,0,0,0,0,0,0,0,0,0,-1,524,1233,0,0
-693,-209,0,0,0,0,0,0,0,0,0,-1,531,1233,0,0
-686,-209,0,0,0,0,0,0,0,0,0,-1,538,1233,0,0
-679,-209,-6.93964,1.22046,0,0,0,0,0,0,0,-1,545,1233,-6.93962,-1.22042
-672,-209,-8.48059,-0.613403,0,0,0,0,0,0,0,-1,552,1233,-8.48058,0.613372
-665,-209,-8.50006,-0.462036,0.0179799,-0.0290354,-0.0170602,0.0235181,-0.0345736,-0.313892,0.0337411,0.0452372,559,1233,-8.50003,0.461998
-658,-209,-8.51208,-0.299072,0.0189095,-0.0235629,-0.0120932,0.0221114,-0.0267648,-0.25883,0.0282613,0.045679,566,1233,-8.5121,0.299032
-651,-209,-8.51221,0.133667,0.0178892,-0.0183188,-0.00846686,0.0197713,-0.0202008,-0.218729,0.0230783,0.0461699,573,1233,-8.51219,-0.133631
-644,-209,-8.48322,0.371338,0.0157447,-0.0135377,-0.0058673,0.0168765,-0.0146695,-0.190572,0.018228,0.0456362,580,1233,-8.48319,-0.371396
-637,-209,-8.46399,0.572998,0.013058,-0.00940996,-0.00402869,0.0137585,-0.0101105,-0.172166,0.0138343,0.0403552,587,1233,-8.46396,-0.572996
-630,-209,-8.47302,0.785034,0.0104599,-0.00633717,-0.0026731,0.010875,-0.00675231,-0.154072,0.0102695,0.0212769,594,1233,-8.47303,-0.785011
-623,-209,-8.5304,0.986084,0.008002,-0.00396056,-0.00191956,0.00830248,-0.00426103,-0.155272,0.00737758,0.0106444,601,1233,-8.53041,-0.98606
-616,-209,-8.54291,1.12683,0.00612347,-0.00237038,-0.00177606,0.00647989,-0.0027268,-0.198048,0.00546071,0.0115067,608,1233,-8.54294,-1.12681
-609,-209,-8.54535,1.26575,0.00477872,-0.000796264,-0.00183704,0.00532961,-0.00134716,-0.291348,0.00407701,0.0139076,615,1233,-8.54537,-1.26577
-602,-209,-8.55634,1.41748,0.00367954,0.00103544,-0.00236279,0.005065,-0.00035002,-0.530333,0.00349918,0.0159994,622,1233,-8.55631,-1.41754
-595,-209,-8.54327,1.55225,0.00291623,0.00166309,-0.00329889,0.00564752,-0.00106821,-0.691549,0.00416698,0.0111921,629,1233,-8.54326,-1.55222
-588,-209,-8.52759,1.6897,0.00223616,0.0010782,-0.00389498,0.00559496,-0.0022806,-0.711615,0.00467925,0.0120442,636,1233,-8.52756,-1.68964
-581,-209,-8.51532,1.83264,0.00208834,0.000863552,-0.00446052,0.00597831,-0.00302641,-0.717179,0.00529118,0.0121707,643,1233,-8.51532,-1.83266
-574,-209,-8.59924,1.92322,0.00189166,0.00104129,-0.00475568,0.00624113,-0.00330818,-0.740814,0.0055993,0.0145704,650,1233,-8.59923,-1.92323
-567,-209,-8.69647,2.09912,0.00123414,0.00108178,-0.00473481,0.00589338,-0.00357747,-0.777354,0.00552222,0.0310759,657,1233,-8.69647,-2.09914
-560,-209,-8.26514,2.52563,0,0,0,0,0,0,0,-1,664,1233,-8.26513,-2.52565
-553,-209,-10.9804,1.25256,0,0,0,0,0,0,0,-1,671,1233,-10.9804,-1.25262
-546,-209,-10.6931,0.7771,-0.000996791,0.00219057,-0.00472395,0.00558242,-0.00438864,-0.948084,0.00577053,0.0443727,678,1233,-10.6931,-0.777156
-539,-209,-10.6241,0.513306,-0.00206485,0.00262841,-0.00437171,0.00524348,-0.00467993,-1.03171,0.00573236,0.0388914,685,1233,-10.6241,-0.513362
-532,-209,-10.6027,0.536133,-0.00296261,0.00316683,-0.00391426,0.00507342,-0.0048692,-1.11753,0.00574078,0.0320388,692,1233,-10.6027,-0.536125
-525,-209,-10.663,0.597656,-0.00344595,0.00385235,-0.00334604,0.00515418,-0.00474779,-1.19975,0.00571851,0.0329509,699,1233,-10.663,-0.597696
-518,-209,-10.8415,0.737793,-0.00302162,0.0047035,-0.00286838,0.00565207,-0.00397019,-1.25142,0.00558363,0.0394254,706,1233,-10.8415,-0.73783
-511,-209,-11.0787,0.961548,0,0,0,0,0,0,0,-1,713,1233,-11.0787,-0.961563
-504,-209,0,0,0,0,0,0,0,0,0,-1,720,1233,0,0
-497,-209,0,0,0,0,0,0,0,0,0,-1,727,1233,0,0
-490,-209,0,0,0,0,0,0,0,0,0,-1,734,1233,0,0
-483,-209,0,0,0,0,0,0,0,0,0,-1,741,1233,0,0
-476,-209,0,0,0,0,0,0,0,0,0,-1,748,1233,0,0
-469,-209,0,0,0,0,0,0,0,0,0,-1,755,1233,0,0
-462,-209,0,0,0,0,0,0,0,0,0,-1,762,1233,0,0
-455,-209,0,0,0,0,0,0,0,0,0,-1,769,1233,0,0
-448,-209,0,0,0,0,0,0,0,0,0,-1,776,1233,0,0
-441,-209,0,0,0,0,0,0,0,0,0,-1,783,1233,0,0
-434,-209,0,0,0,0,0,0,0,0,0,-1,790,1233,0,0
-427,-209,0,0,0,0,0,0,0,0,0,-1,797,1233,0,0
-420,-209,0,0,0,0,0,0,0,0,0,-1,804,1233,0,0
-413,-209,0,0,0,0,0,0,0,0,0,-1,811,1233,0,0
-406,-209,0,0,0,0,0,0,0,0,0,-1,818,1233,0,0
-399,-209,0,0,0,0,0,0,0,0,0,-1,825,1233,0,0
-392,-209,0,0,0,0,0,0,0,0,0,-1,832,1233,0,0
-385,-209,0,0,0,0,0,0,0,0,0,-1,839,1233,0,0
-378,-209,0,0,0,0,0,0,0,0,0,-1,846,1233,0,0
-371,-209,0,0,0,0,0,0,0,0,0,-1,853,1233,0,0
-364,-209,0,0,0,0,0,0,0,0,0,-1,860,1233,0,0
-357,-209,0,0,0,0,0,0,0,0,0,-1,867,1233,0,0
-350,-209,0,0,0,0,0,0,0,0,0,-1,874,1233,0,0
-343,-209,0,0,0,0,0,0,0,0,0,-1,881,1233,0,0
-336,-209,0,0,0,0,0,0,0,0,0,-1,888,1233,0,0
-329,-209,0,0,0,0,0,0,0,0,0,-1,895,1233,0,0
-322,-209,0,0,0,0,0,0,0,0,0,-1,902,1233,0,0
-315,-209,0,0,0,0,0,0,0,0,0,-1,909,1233,0,0
-308,-209,0,0,0,0,0,0,0,0,0,-1,916,1233,0,0
-301,-209,0,0,0,0,0,0,0,0,0,-1,923,1233,0,0
-294,-209,0,0,0,0,0,0,0,0,0,-1,930,1233,0,0
-287,-209,0,0,0,0,0,0,0,0,0,-1,937,1233,0,0
-280,-209,0,0,0,0,0,0,0,0,0,-1,944,1233,0,0
-273,-209,0,0,0,0,0,0,0,0,0,-1,951,1233,0,0
-266,-209,0,0,0,0,0,0,0,0,0,-1,958,1233,0,0
-259,-209,0,0,0,0,0,0,0,0,0,-1,965,1233,0,0
-252,-209,0,0,0,0,0,0,0,0,0,-1,972,1233,0,0
-245,-209,0,0,0,0,0,0,0,0,0,-1,979,1233,0,0
-238,-209,0,0,0,0,0,0,0,0,0,-1,986,1233,0,0
-231,-209,0,0,0,0,0,0,0,0,0,-1,993,1233,0,0
-224,-209,0,0,0,0,0,0,0,0,0,-1,1000,1233,0,0
-217,-209,0,0,0,0,0,0,0,0,0,-1,1007,1233,0,0
-210,-209,0,0,0,0,0,0,0,0,0,-1,1014,1233,0,0
-203,-209,0,0,0,0,0,0,0,0,0,-1,1021,1233,0,0
-196,-209,0,0,0,0,0,0,0,0,0,-1,1028,1233,0,0
-189,-209,0,0,0,0,0,0,0,0,0,-1,1035,1233,0,0
-182,-209,0,0,0,0,0,0,0,0,0,-1,1042,1233,0,0
-175,-209,0,0,0,0,0,0,0,0,0,-1,1049,1233,0,0
-168,-209,0,0,0,0,0,0,0,0,0,-1,1056,1233,0,0
-161,-209,0,0,0,0,0,0,0,0,0,-1,1063,1233,0,0
-154,-209,0,0,0,0,0,0,0,0,0,-1,1070,1233,0,0
-147,-209,0,0,0,0,0,0,0,0,0,-1,1077,1233,0,0
-140,-209,0,0,0,0,0,0,0,0,0,-1,1084,1233,0,0
-133,-209,0,0,0,0,0,0,0,0,0,-1,1091,1233,0,0
-126,-209,0,0,0,0,0,0,0,0,0,-1,1098,1233,0,0
-119,-209,0,0,0,0,0,0,0,0,0,-1,1105,1233,0,0
-112,-209,0,0,0,0,0,0,0,0,0,-1,1112,1233,0,0
-105,-209,0,0,0,0,0,0,0,0,0,-1,1119,1233,0,0
-98,-209,0,0,0,0,0,0,0,0,0,-1,1126,1233,0,0
-91,-209,0,0,0,0,0,0,0,0,0,-1,1133,1233,0,0
-84,-209,0,0,0,0,0,0,0,0,0,-1,1140,1233,0,0
-77,-209,0,0,0,0,0,0,0,0,0,-1,1147,1233,0,0
-70,-209,0,0,0,0,0,0,0,0,0,-1,1154,1233,0,0
-63,-209,0,0,0,0,0,0,0,0,0,-1,1161,1233,0,0
-56,-209,0,0,0,0,0,0,0,0,0,-1,1168,1233,0,0
-49,-209,0,0,0,0,0,0,0,0,0,-1,1175,1233,0,0
-42,-209,0,0,0,0,0,0,0,0,0,-1,1182,1233,0,0
-35,-209,0,0,0,0,0,0,0,0,0,-1,1189,1233,0,0
-28,-209,0,0,0,0,0,0,0,0,0,-1,1196,1233,0,0
-21,-209,0,0,0,0,0,0,0,0,0,-1,1203,1233,0,0
-14,-209,0,0,0,0,0,0,0,0,0,-1,1210,1233,0,0
-7,-209,0,0,0,0,0,0,0,0,0,-1,1217,1233,0,0
0,-209,0,0,0,0,0,0,0,0,0,-1,1224,1233,0,0
7,-209,0,0,0,0,0,0,0,0,0,-1,1231,1233,0,0
14,-209,0,0,0,0,0,0,0,0,0,-1,1238,1233,0,0
21,-209,0,0,0,0,0,0,0,0,0,-1,1245,1233,0,0
28,-209,0,0,0,0,0,0,0,0,0,-1,1252,1233,0,0
35,-209,0,0,0,0,0,0,0,0,0,-1,1259,1233,0,0
42,-209,0,0,0,0,0,0,0,0,0,-1,1266,1233,0,0
49,-209,0,0,0,0,0,0,0,0,0,-1,1273,1233,0,0
56,-209,0,0,0,0,0,0,0,0,0,-1,1280,1233,0,0
63,-209,0,0,0,0,0,0,0,0,0,-1,1287,1233,0,0
70,-209,0,0,0,0,0,0,0,0,0,-1,1294,1233,0,0
77,-209,0,0,0,0,0,0,0,0,0,-1,1301,1233,0,0
84,-209,0,0,0,0,0,0,0,0,0,-1,1308,1233,0,0
91,-209,0,0,0,0,0,0,0,0,0,-1,1315,1233,0,0
98,-209,0,0,0,0,0,0,0,0,0,-1,1322,1233,0,0
105,-209,0,0,0,0,0,0,0,0,0,-1,1329,1233,0,0
112,-209,0,0,0,0,0,0,0,0,0,-1,1336,1233,0,0
119,-209,0,0,0,0,0,0,0,0,0,-1,1343,1233,0,0
126,-209,0,0,0,0,0,0,0,0,0,-1,1350,1233,0,0
133,-209,0,0,0,0,0,0,0,0,0,-1,1357,1233,0,0
140,-209,0,0,0,0,0,0,0,0,0,-1,1364,1233,0,0
147,-209,0,0,0,0,0,0,0,0,0,-1,1371,1233,0,0
154,-209,0,0,0,0,0,0,0,0,0,-1,1378,1233,0,0
161,-209,0,0,0,0,0,0,0,0,0,-1,1385,1233,0,0
168,-209,0,0,0,0,0,0,0,0,0,-1,1392,1233,0,0
175,-209,0,0,0,0,0,0,0,0,0,-1,1399,1233,0,0
182,-209,0,0,0,0,0,0,0,0,0,-1,1406,1233,0,0
189,-209,0,0,0,0,0,0,0,0,0,-1,1413,1233,0,0
196,-209,0,0,0,0,0,0,0,0,0,-1,1420,1233,0,0
203,-209,0,0,0,0,0,0,0,0,0,-1,1427,1233,0,0
210,-209,0,0,0,0,0,0,0,0,0,-1,1434,1233,0,0
217,-209,0,0,0,0,0,0,0,0,0,-1,1441,1233,0,0
224,-209,0,0,0,0,0,0,0,0,0,-1,1448,1233,0,0
231,-209,0,0,0,0,0,0,0,0,0,-1,1455,1233,0,0
238,-209,0,0,0,0,0,0,0,0,0,-1,1462,1233,0,0
245,-209,0,0,0,0,0,0,0,0,0,-1,1469,1233,0,0
252,-209,0,0,0,0,0,0,0,0,0,-1,1476,1233,0,0
259,-209,0,0,0,0,0,0,0,0,0,-1,1483,1233,0,0
266,-209,0,0,0,0,0,0,0,0,0,-1,1490,1233,0,0
273,-209,0,0,0,0,0,0,0,0,0,-1,1497,1233,0,0
280,-209,0,0,0,0,0,0,0,0,0,-1,1504,1233,0,0
287,-209,0,0,0,0,0,0,0,0,0,-1,1511,1233,0,0
294,-209,0,0,0,0,0,0,0,0,0,-1,1518,1233,0,0
301,-209,0,0,0,0,0,0,0,0,0,-1,1525,1233,0,0
308,-209,0,0,0,0,0,0,0,0,0,-1,1532,1233,0,0
315,-209,0,0,0,0,0,0,0,0,0,-1,1539,1233,0,0
322,-209,0,0,0,0,0,0,0,0,0,-1,1546,1233,0,0
329,-209,0,0,0,0,0,0,0,0,0,-1,1553,1233,0,0
336,-209,0,0,0,0,0,0,0,0,0,-1,1560,1233,0,0
343,-209,0,0,0,0,0,0,0,0,0,-1,1567,1233,0,0
350,-209,0,0,0,0,0,0,0,0,0,-1,1574,1233,0,0
357,-209,0,0,0,0,0,0,0,0,0,-1,1581,1233,0,0
364,-209,0,0,0,0,0,0,0,0,0,-1,1588,1233,0,0
371,-209,0,0,0,0,0,0,0,0,0,-1,1595,1233,0,0
378,-209,0,0,0,0,0,0,0,0,0,-1,1602,1233,0,0
385,-209,0,0,0,0,0,0,0,0,0,-1,1609,1233,0,0
392,-209,0,0,0,0,0,0,0,0,0,-1,1616,1233,0,0
399,-209,0,0,0,0,0,0,0,0,0,-1,1623,1233,0,0
406,-209,0,0,0,0,0,0,0,0,0,-1,1630,1233,0,0
413,-209,0,0,0,0,0,0,0,0,0,-1,1637,1233,0,0
420,-209,0,0,0,0,0,0,0,0,0,-1,1644,1233,0,0
427,-209,0,0,0,0,0,0,0,0,0,-1,1651,1233,0,0
434,-209,0,0,0,0,0,0,0,0,0,-1,1658,1233,0,0
441,-209,0,0,0,0,0,0,0,0,0,-1,1665,1233,0,0
448,-209,0,0,0,0,0,0,0,0,0,-1,1672,1233,0,0
455,-209,0,0,0,0,0,0,0,0,0,-1,1679,1233,0,0
462,-209,0,0,0,0,0,0,0,0,0,-1,1686,1233,0,0
469,-209,0,0,0,0,0,0,0,0,0,-1,1693,1233,0,0
476,-209,0,0,0,0,0,0,0,0,0,-1,1700,1233,0,0
483,-209,0,0,0,0,0,0,0,0,0,-1,1707,1233,0,0
490,-209,0,0,0,0,0,0,0,0,0,-1,1714,1233,0,0
497,-209,0,0,0,0,0,0,0,0,0,-1,1721,1233,0,0
504,-209,0,0,0,0,0,0,0,0,0,-1,1728,1233,0,0
511,-209,0,0,0,0,0,0,0,0,0,-1,1735,1233,0,0
518,-209,0,0,0,0,0,0,0,0,0,-1,1742,1233,0,0
525,-209,0,0,0,0,0,0,0,0,0,-1,1749,1233,0,0
532,-209,0,0,0,0,0,0,0,0,0,-1,1756,1233,0,0
539,-209,0,0,0,0,0,0,0,0,0,-1,1763,1233,0,0
546,-209,0,0,0,0,0,0,0,0,0,-1,1770,1233,0,0
553,-209,0,0,0,0,0,0,0,0,0,-1,1777,1233,0,0
560,-209,0,0,0,0,0,0,0,0,0,-1,1784,1233,0,0
567,-209,0,0,0,0,0,0,0,0,0,-1,1791,1233,0,0
574,-209,0,0,0,0,0,0,0,0,0,-1,1798,1233,0,0
581,-209,0,0,0,0,0,0,0,0,0,-1,1805,1233,0,0
588,-209,0,0,0,0,0,0,0,0,0,-1,1812,1233,0,0
595,-209,0,0,0,0,0,0,0,0,0,-1,1819,1233,0,0
602,-209,0,0,0,0,0,0,0,0,0,-1,1826,1233,0,0
609,-209,0,0,0,0,0,0,0,0,0,-1,1833,1233,0,0
616,-209,0,0,0,0,0,0,0,0,0,-1,1840,1233,0,0
623,-209,17.0258,2.59753,-0.00698519,0.00280316,-0.00282464,0.00355979,-0.00774182,-1.30907,0.00667223,0.0332621,1847,1233,17.0258,-2.59757
630,-209,17.0654,2.5144,-0.00360081,0.00302,-0.0027872,0.00403709,-0.0046179,-1.2209,0.00500071,0.0346919,1854,1233,17.0655,-2.51435
637,-209,17.0845,2.47546,-0.000505107,0.00302908,-0.00281742,0.00458771,-0.00206374,-1.06549,0.0039313,0.0326391,1861,1233,17.0844,-2.47548
644,-209,17.0896,2.4519,0.000191508,0.00270292,-0.002437,0.0041887,-0.00129427,-1.02329,0.00330936,0.0282541,1868,1233,17.0897,-2.45191
651,-209,17.0781,2.44031,-0.000517664,0.00195374,-0.00165357,0.00278232,-0.00134624,-1.10628,0.00243122,0.0246344,1875,1233,17.0781,-2.44031
658,-209,17.0602,2.42285,-0.00166521,0.00114567,-0.000805197,0.00135999,-0.00187952,-1.31066,0.00187833,0.0210035,1882,1233,17.0602,-2.42288
665,-209,17.0967,2.34033,-0.00291809,0.000357171,-6.61346e-06,0.000357185,-0.0029181,-1.56878,0.00207474,0.0336076,1889,1233,17.0967,-2.34034
672,-209,17.1226,2.18555,-0.0041672,-0.000397476,0.000712979,-0.000267135,-0.00429754,1.38998,0.00278026,0.0464123,1896,1233,17.1225,-2.18549
679,-209,15.9362,4.52661,0,0,0,0,0,0,0,-1,1903,1233,15.9362,-4.52663
686,-209,15.7577,4.47339,-0.00605738,-0.00154164,0.00200406,-0.000780529,-0.00681849,1.20784,0.00430911,0.0489445,1910,1233,15.7577,-4.47336
693,-209,15.3583,4.34229,-0.00663375,-0.00189233,0.00251934,-0.000803656,-0.00772242,1.1629,0.0049024,0.0451749,1917,1233,15.3582,-4.34229
700,-209,15.0692,4.21521,-0.00693632,-0.0020968,0.00287427,-0.000759342,-0.00827378,1.13528,0.00528097,0.017973,1924,1233,15.0693,-4.21517
707,-209,15.0605,4.03699,-0.00690233,-0.00210051,0.00289326,-0.000741728,-0.00826112,1.13173,0.00527757,0.0159141,1931,1233,15.0606,-4.037
714,-209,15.0898,3.927,-0.00632098,-0.00193436,0.00257246,-0.000747114,-0.00750823,1.1384,0.00477597,0.0129765,1938,1233,15.0898,-3.92694
721,-209,15.1244,3.79541,-0.00517526,-0.00153894,0.00199917,-0.000654807,-0.00605939,1.15441,0.00383998,0.0123659,1945,1233,15.1244,-3.79546
728,-209,15.1093,3.68494,-0.00338502,-0.0003886,0.00120882,3.82575e-05,-0.00381188,1.23135,0.0025541,0.0118807,1952,1233,15.1093,-3.68497
735,-209,15.1075,3.57178,-0.000909652,0.00141904,0.000462068,0.00150737,-0.000997987,1.3819,0.0014564,0.0121906,1959,1233,15.1075,-3.57176
742,-209,15.106,3.45642,0.00234187,0.00328588,-0.000751729,0.0037015,0.00192625,-1.06573,0.00213766,0.00948839,1966,1233,15.106,-3.45644
749,-209,15.0962,3.35022,0.00608767,0.00572676,-0.0024865,0.00840026,0.00341418,-0.749174,0.00487811,0.0081231,1973,1233,15.0961,-3.35022
756,-209,15.0779,3.24182,0.00964012,0.00890935,-0.00408375,0.0133748,0.00517467,-0.740781,0.00778752,0.00977013,1980,1233,15.0779,-3.24176
763,-209,15.0686,3.14087,0.0141248,0.0125964,-0.00567934,0.0190911,0.00763007,-0.718519,0.011096,0.016787,1987,1233,15.0686,-3.14088
770,-209,15.3424,2.3717,0.0200736,0.017223,-0.00762827,0.0264086,0.010888,-0.69304,0.015325,0.0419189,1994,1233,15.3425,-2.37169
777,-209,15.759,1.57239,0.0277158,0.0228485,-0.0100201,0.0355936,0.0149707,-0.666267,0.0206361,0.048162,2001,1233,15.759,-1.57235
784,-209,15.2505,2.37671,0.0373122,0.0295054,-0.0129394,0.0469241,0.0198935,-0.638905,0.0271959,0.0446424,2008,1233,15.2505,-2.37672
791,-209,15.6451,2.2771,0.049246,0.037152,-0.0165454,0.0608148,0.0255832,-0.610199,0.0352584,0.042282,2015,1233,15.6451,-2.2771
798,-209,16.7815,2.61499,0.0638495,0.0455938,-0.0209905,0.077611,0.0318324,-0.580304,0.0450492,0.0433255,2022,1233,16.7815,-2.61498
805,-209,0,0,0,0,0,0,0,0,0,-1,2029,1233,0,0
812,-209,0,0,0,0,0,0,0,0,0,-1,2036,1233,0,0
-700,-216,0,0,0,0,0,0,0,0,0,-1,524,1240,0,0
-693,-216,0,0,0,0,0,0,0,0,0,-1,531,1240,0,0
-686,-216,0,0,0,0,0,0,0,0,0,-1,538,1240,0,0
-679,-216,-6.9538,1.13135,0,0,0,0,0,0,0,-1,545,1240,-6.95379,-1.1313
-672,-216,-7.34802,1.07813,0,0,0,0,0,0,0,-1,552,1240,-7.34804,-1.07818
-665,-216,-9.20337,-0.225952,0,0,0,0,0,0,0,-1,559,1240,-9.2034,0.226
-658,-216,-9.15796,-0.00134277,0.0228737,-0.0324979,-0.0150569,0.0267032,-0.0363273,-0.249054,0.0365318,0.0496621,566,1240,-9.15799,0.00139361
-651,-216,-8.43488,-0.0239258,0.0216822,-0.0241158,-0.0112383,0.0242913,-0.026725,-0.228121,0.0294654,0.0464132,573,1240,-8.43491,0.0238797
-644,-216,-8.42694,0.345093,0.0191162,-0.0169719,-0.00836453,0.0209606,-0.0188163,-0.217037,0.0229764,0.0490491,580,1240,-8.42692,-0.345117
-637,-216,-8.35016,0.533203,0,0,0,0,0,0,0,-1,587,1240,-8.35017,-0.533261
-630,-216,-8.42365,0.714355,0.0127162,-0.00696063,-0.00443356,0.013669,-0.00791345,-0.211692,0.0126075,0.0270674,594,1240,-8.42362,-0.714328
-623,-216,-8.37189,0.977173,0.00970243,-0.00385144,-0.0032729,0.0104514,-0.00460038,-0.224956,0.0089063,0.0121008,601,1240,-8.37188,-0.977223
-616,-216,-8.39392,1.14001,0.00738506,-0.00194146,-0.00265923,0.00809,-0.00264639,-0.259129,0.00645878,0.0136365,608,1240,-8.39392,-1.13999
-609,-216,-8.4057,1.28223,0.0057916,-0.000206639,-0.00224417,0.00653828,-0.000953318,-0.321198,0.0047089,0.0133046,615,1240,-8.40567,-1.28221
-602,-216,-8.39764,1.41211,0.00457172,0.00155858,-0.00229866,0.00581354,0.000316771,-0.495313,0.00377453,0.0127947,622,1240,-8.39765,-1.41208
-595,-216,-8.38123,1.53394,0.00359283,0.00201699,-0.0028197,0.00573263,-0.000122808,-0.649156,0.00386334,0.016692,629,1240,-8.3812,-1.53394
-588,-216,-8.3725,1.68323,0.00260506,0.00112385,-0.00304703,0.0050002,-0.00127129,-0.666181,0.00382825,0.0191305,636,1240,-8.37251,-1.68327
-581,-216,-8.37952,1.84521,0.00233436,0.000697236,-0.00353428,0.00514363,-0.00211203,-0.671601,0.00430922,0.0176995,643,1240,-8.3795,-1.84523
-574,-216,-8.40149,2.02222,0.00206563,0.000687604,-0.00375623,0.00519551,-0.00244228,-0.694691,0.00450417,0.0152153,650,1240,-8.4015,-2.02219
-567,-216,-8.41278,2.20056,0.00132836,0.000633997,-0.00374235,0.00473959,-0.00277724,-0.739145,0.00438886,0.0247914,657,1240,-8.41281,-2.20052
-560,-216,-7.95172,2.44104,0.000741039,0.000800313,-0.00394152,0.00471231,-0.00317095,-0.789158,0.00458031,0.0490736,664,1240,-7.95171,-2.44107
-553,-216,-7.46204,2.6593,0,0,0,0,0,0,0,-1,671,1240,-7.46206,-2.65936
-546,-216,-9.73505,0.334351,-0.000945495,0.0017062,-0.00419118,0.00477624,-0.00401554,-0.938589,0.00508227,0.0381766,678,1240,-9.73503,-0.334307
-539,-216,-10.0986,0.254272,-0.00209623,0.00215546,-0.00410171,0.00464949,-0.00459026,-1.02448,0.00533461,0.0389038,685,1240,-10.0987,-0.254331
-532,-216,-10.6087,0.602295,-0.00307264,0.00273913,-0.00398937,0.00476875,-0.00510227,-1.10017,0.00570012,0.039256,692,1240,-10.6087,-0.602348
-525,-216,-10.6273,0.591309,-0.00370613,0.00348906,-0.00380416,0.00512733,-0.0053444,-1.16415,0.00604629,0.0365593,699,1240,-10.6273,-0.591249
-518,-216,-10.7906,0.71875,-0.0036792,0.00443045,-0.00359922,0.00579743,-0.00504619,-1.20782,0.00626557,0.037722,706,1240,-10.7906,-0.71879
-511,-216,-11.0173,1.03662,-0.00170759,0.00555146,-0.0037142,0.00711508,-0.00327121,-1.17233,0.00613189,0.0426201,713,1240,-11.0173,-1.03657
-504,-216,-10.8424,0.947632,0.0032055,0.00736839,-0.00284021,0.0088082,0.00176569,-1.10162,0.00538101,0.0437991,720,1240,-10.8424,-0.947676
-497,-216,0,0,0,0,0,0,0,0,0,-1,727,1240,0,0
-490,-216,0,0,0,0,0,0,0,0,0,-1,734,1240,0,0
-483,-216,0,0,0,0,0,0,0,0,0,-1,741,1240,0,0
-476,-216,0,0,0,0,0,0,0,0,0,-1,748,1240,0,0
-469,-216,0,0,0,0,0,0,0,0,0,-1,755,1240,0,0
-462,-216,0,0,0,0,0,0,0,0,0,-1,762,1240,0,0
-455,-216,0,0,0,0,0,0,0,0,0,-1,769,1240,0,0
-448,-216,0,0,0,0,0,0,0,0,0,-1,776,1240,0,0
-441,-216,0,0,0,0,0,0,0,0,0,-1,783,1240,0,0
-434,-216,0,0,0,0,0,0,0,0,0,-1,790,1240,0,0
-427,-216,0,0,0,0,0,0,0,0,0,-1,797,1240,0,0
-420,-216,0,0,0,0,0,0,0,0,0,-1,804,1240,0,0
-413,-216,0,0,0,0,0,0,0,0,0,-1,811,1240,0,0
-406,-216,0,0,0,0,0,0,0,0,0,-1,818,1240,0,0
-399,-216,0,0,0,0,0,0,0,0,0,-1,825,1240,0,0
-392,-216,0,0,0,0,0,0,0,0,0,-1,832,1240,0,0
-385,-216,0,0,0,0,0,0,0,0,0,-1,839,1240,0,0
-378,-216,0,0,0,0,0,0,0,0,0,-1,846,1240,0,0
-371,-216,0,0,0,0,0,0,0,0,0,-1,853,1240,0,0
-364,-216,0,0,0,0,0,0,0,0,0,-1,860,1240,0,0
-357,-216,0,0,0,0,0,0,0,0,0,-1,867,1240,0,0
-350,-216,0,0,0,0,0,0,0,0,0,-1,874,1240,0,0
-343,-216,0,0,0,0,0,0,0,0,0,-1,881,1240,0,0
-336,-216,0,0,0,0,0,0,0,0,0,-1,888,1240,0,0
-329,-216,0,0,0,0,0,0,0,0,0,-1,895,1240,0,0
-322,-216,0,0,0,0,0,0,0,0,0,-1,902,1240,0,0
-315,-216,0,0,0,0,0,0,0,0,0,-1,909,1240,0,0
-308,-216,0,0,0,0,0,0,0,0,0,-1,916,1240,0,0
-301,-216,0,0,0,0,0,0,0,0,0,-1,923,1240,0,0
-294,-216,0,0,0,0,0,0,0,0,0,-1,930,1240,0,0
-287,-216,0,0,0,0,0,0,0,0,0,-1,937,1240,0,0
-280,-216,0,0,0,0,0,0,0,0,0,-1,944,1240,0,0
-273,-216,0,0,0,0,0,0,0,0,0,-1,951,1240,0,0
-266,-216,0,0,0,0,0,0,0,0,0,-1,958,1240,0,0
-259,-216,0,0,0,0,0,0,0,0,0,-1,965,1240,0,0
-252,-216,0,0,0,0,0,0,0,0,0,-1,972,1240,0,0
-245,-216,0,0,0,0,0,0,0,0,0,-1,979,1240,0,0
-238,-216,0,0,0,0,0,0,0,0,0,-1,986,1240,0,0
-231,-216,0,0,0,0,0,0,0,0,0,-1,993,1240,0,0
-224,-216,0,0,0,0,0,0,0,0,0,-1,1000,1240,0,0
-217,-216,0,0,0,0,0,0,0,0,0,-1,1007,1240,0,0
-210,-216,0,0,0,0,0,0,0,0,0,-1,1014,1240,0,0
-203,-216,0,0,0,0,0,0,0,0,0,-1,1021,1240,0,0
-196,-216,0,0,0,0,0,0,0,0,0,-1,1028,1240,0,0
-189,-216,0,0,0,0,0,0,0,0,0,-1,1035,1240,0,0
-182,-216,0,0,0,0,0,0,0,0,0,-1,1042,1240,0,0
-175,-216,0,0,0,0,0,0,0,0,0,-1,1049,1240,0,0
-168,-216,0,0,0,0,0,0,0,0,0,-1,1056,1240,0,0
-161,-216,0,0,0,0,0,0,0,0,0,-1,1063,1240,0,0
-154,-216,0,0,0,0,0,0,0,0,0,-1,1070,1240,0,0
-147,-216,0,0,0,0,0,0,0,0,0,-1,1077,1240,0,0
-140,-216,0,0,0,0,0,0,0,0,0,-1,1084,1240,0,0
-133,-216,0,0,0,0,0,0,0,0,0,-1,1091,1240,0,0
-126,-216,0,0,0,0,0,0,0,0,0,-1,1098,1240,0,0
-119,-216,0,0,0,0,0,0,0,0,0,-1,1105,1240,0,0
-112,-216,0,0,0,0,0,0,0,0,0,-1,1112,1240,0,0
-105,-216,0,0,0,0,0,0,0,0,0,-1,1119,1240,0,0
-98,-216,0,0,0,0,0,0,0,0,0,-1,1126,1240,0,0
-91,-216,0,0,0,0,0,0,0,0,0,-1,1133,1240,0,0
-84,-216,0,0,0,0,0,0,0,0,0,-1,1140,1240,0,0
-77,-216,0,0,0,0,0,0,0,0,0,-1,1147,1240,0,0
-70,-216,0,0,0,0,0,0,0,0,0,-1,1154,1240,0,0
-63,-216,0,0,0,0,0,0,0,0,0,-1,1161,1240,0,0
-56,-216,0,0,0,0,0,0,0,0,0,-1,1168,1240,0,0
-49,-216,0,0,0,0,0,0,0,0,0,-1,1175,1240,0,0
-42,-216,0,0,0,0,0,0,0,0,0,-1,1182,1240,0,0
-35,-216,0,0,0,0,0,0,0,0,0,-1,1189,1240,0,0
-28,-216,0,0,0,0,0,0,0,0,0,-1,1196,1240,0,0
-21,-216,0,0,0,0,0,0,0,0,0,-1,1203,1240,0,0
-14,-216,0,0,0,0,0,0,0,0,0,-1,1210,1240,0,0
-7,-216,0,0,0,0,0,0,0,0,0,-1,1217,1240,0,0
0,-216,0,0,0,0,0,0,0,0,0,-1,1224,1240,0,0
7,-216,0,0,0,0,0,0,0,0,0,-1,1231,1240,0,0
14,-216,0,0,0,0,0,0,0,0,0,-1,1238,1240,0,0
21,-216,0,0,0,0,0,0,0,0,0,-1,1245,1240,0,0
28,-216,0,0,0,0,0,0,0,0,0,-1,1252,1240,0,0
35,-216,0,0,0,0,0,0,0,0,0,-1,1259,1240,0,0
42,-216,0,0,0,0,0,0,0,0,0,-1,1266,1240,0,0
49,-216,0,0,0,0,0,0,0,0,0,-1,1273,1240,0,0
56,-216,0,0,0,0,0,0,0,0,0,-1,1280,1240,0,0
63,-216,0,0,0,0,0,0,0,0,0,-1,1287,1240,0,0
70,-216,0,0,0,0,0,0,0,0,0,-1,1294,1240,0,0
77,-216,0,0,0,0,0,0,0,0,0,-1,1301,1240,0,0
84,-216,0,0,0,0,0,0,0,0,0,-1,1308,1240,0,0
91,-216,0,0,0,0,0,0,0,0,0,-1,1315,1240,0,0
98,-216,0,0,0,0,0,0,0,0,0,-1,1322,1240,0,0
105,-216,0,0,0,0,0,0,0,0,0,-1,1329,1240,0,0
112,-216,0,0,0,0,0,0,0,0,0,-1,1336,1240,0,0
119,-216,0,0,0,0,0,0,0,0,0,-1,1343,1240,0,0
126,-216,0,0,0,0,0,0,0,0,0,-1,1350,1240,0,0
133,-216,0,0,0,0,0,0,0,0,0,-1,1357,1240,0,0
140,-216,0,0,0,0,0,0,0,0,0,-1,1364,1240,0,0
147,-216,0,0,0,0,0,0,0,0,0,-1,1371,1240,0,0
154,-216,0,0,0,0,0,0,0,0,0,-1,1378,1240,0,0
161,-216,0,0,0,0,0,0,0,0,0,-1,1385,1240,0,0
168,-216,0,0,0,0,0,0,0,0,0,-1,1392,1240,0,0
175,-216,0,0,0,0,0,0,0,0,0,-1,1399,1240,0,0
182,-216,0,0,0,0,0,0,0,0,0,-1,1406,1240,0,0
189,-216,0,0,0,0,0,0,0,0,0,-1,1413,1240,0,0
196,-216,0,0,0,0,0,0,0,0,0,-1,1420,1240,0,0
203,-216,0,0,0,0,0,0,0,0,0,-1,1427,1240,0,0
210,-216,0,0,0,0,0,0,0,0,0,-1,1434,1240,0,0
217,-216,0,0,0,0,0,0,0,0,0,-1,1441,1240,0,0
224,-216,0,0,0,0,0,0,0,0,0,-1,1448,1240,0,0
231,-216,0,0,0,0,0,0,0,0,0,-1,1455,1240,0,0
238,-216,0,0,0,0,0,0,0,0,0,-1,1462,1240,0,0
245,-216,0,0,0,0,0,0,0,0,0,-1,1469,1240,0,0
252,-216,0,0,0,0,0,0,0,0,0,-1,1476,1240,0,0
259,-216,0,0,0,0,0,0,0,0,0,-1,1483,1240,0,0
266,-216,0,0,0,0,0,0,0,0,0,-1,1490,1240,0,0
273,-216,0,0,0,0,0,0,0,0,0,-1,1497,1240,0,0
280,-216,0,0,0,0,0,0,0,0,0,-1,1504,1240,0,0
287,-216,0,0,0,0,0,0,0,0,0,-1,1511,1240,0,0
294,-216,0,0,0,0,0,0,0,0,0,-1,1518,1240,0,0
301,-216,0,0,0,0,0,0,0,0,0,-1,1525,1240,0,0
308,-216,0,0,0,0,0,0,0,0,0,-1,1532,1240,0,0
315,-216,0,0,0,0,0,0,0,0,0,-1,1539,1240,0,0
322,-216,0,0,0,0,0,0,0,0,0,-1,1546,1240,0,0
329,-216,0,0,0,0,0,0,0,0,0,-1,1553,1240,0,0
336,-216,0,0,0,0,0,0,0,0,0,-1,1560,1240,0,0
343,-216,0,0,0,0,0,0,0,0,0,-1,1567,1240,0,0
350,-216,0,0,0,0,0,0,0,0,0,-1,1574,1240,0,0
357,-216,0,0,0,0,0,0,0,0,0,-1,1581,1240,0,0
364,-216,0,0,0,0,0,0,0,0,0,-1,1588,1240,0,0
371,-216,0,0,0,0,0,0,0,0,0,-1,1595,1240,0,0
378,-216,0,0,0,0,0,0,0,0,0,-1,1602,1240,0,0
385,-216,0,0,0,0,0,0,0,0,0,-1,1609,1240,0,0
392,-216,0,0,0,0,0,0,0,0,0,-1,1616,1240,0,0
399,-216,0,0,0,0,0,0,0,0,0,-1,1623,1240,0,0
406,-216,0,0,0,0,0,0,0,0,0,-1,1630,1240,0,0
413,-216,0,0,0,0,0,0,0,0,0,-1,1637,1240,0,0
420,-216,0,0,0,0,0,0,0,0,0,-1,1644,1240,0,0
427,-216,0,0,0,0,0,0,0,0,0,-1,1651,1240,0,0
434,-216,0,0,0,0,0,0,0,0,0,-1,1658,1240,0,0
441,-216,0,0,0,0,0,0,0,0,0,-1,1665,1240,0,0
448,-216,0,0,0,0,0,0,0,0,0,-1,1672,1240,0,0
455,-216,0,0,0,0,0,0,0,0,0,-1,1679,1240,0,0
462,-216,0,0,0,0,0,0,0,0,0,-1,1686,1240,0,0
469,-216,0,0,0,0,0,0,0,0,0,-1,1693,1240,0,0
476,-216,0,0,0,0,0,0,0,0,0,-1,1700,1240,0,0
483,-216,0,0,0,0,0,0,0,0,0,-1,1707,1240,0,0
490,-216,0,0,0,0,0,0,0,0,0,-1,1714,1240,0,0
497,-216,0,0,0,0,0,0,0,0,0,-1,1721,1240,0,0
504,-216,0,0,0,0,0,0,0,0,0,-1,1728,1240,0,0
511,-216,0,0,0,0,0,0,0,0,0,-1,1735,1240,0,0
518,-216,0,0,0,0,0,0,0,0,0,-1,1742,1240,0,0
525,-216,0,0,0,0,0,0,0,0,0,-1,1749,1240,0,0
532,-216,0,0,0,0,0,0,0,0,0,-1,1756,1240,0,0
539,-216,0,0,0,0,0,0,0,0,0,-1,1763,1240,0,0
546,-216,0,0,0,0,0,0,0,0,0,-1,1770,1240,0,0
553,-216,0,0,0,0,0,0,0,0,0,-1,1777,1240,0,0
560,-216,0,0,0,0,0,0,0,0,0,-1,1784,1240,0,0
567,-216,0,0,0,0,0,0,0,0,0,-1,1791,1240,0,0
574,-216,0,0,0,0,0,0,0,0,0,-1,1798,1240,0,0
581,-216,0,0,0,0,0,0,0,0,0,-1,1805,1240,0,0
588,-216,0,0,0,0,0,0,0,0,0,-1,1812,1240,0,0
595,-216,0,0,0,0,0,0,0,0,0,-1,1819,1240,0,0
602,-216,0,0,0,0,0,0,0,0,0,-1,1826,1240,0,0
609,-216,0,0,0,0,0,0,0,0,0,-1,1833,1240,0,0
616,-216,0,0,0,0,0,0,0,0,0,-1,1840,1240,0,0
623,-216,17.0775,2.66394,-0.00544354,0.0039448,-0.00315348,0.00490569,-0.00640443,-1.27503,0.00654899,0.036835,1847,1240,17.0775,-2.66399
630,-216,17.1067,2.49927,-0.00247983,0.00387739,-0.00313917,0.00516621,-0.00376865,-1.18122,0.00517954,0.0354603,1854,1240,17.1067,-2.49925
637,-216,17.0614,2.48706,-6.59948e-05,0.00349484,-0.00292106,0.00513531,-0.00170647,-1.05909,0.00411213,0.0295898,1861,1240,17.0613,-2.4871
644,-216,17.0521,2.53333,0.000290542,0.00283468,-0.00234052,0.00422648,-0.00110126,-1.03432,0.00324759,0.0244569,1868,1240,17.0521,-2.53332
651,-216,17.01,2.45044,-0.000362274,0.00194521,-0.0015605,0.00273216,-0.00114922,-1.10372,0.0023022,0.0222353,1875,1240,17.01,-2.45041
658,-216,17.0461,2.41602,-0.00130655,0.00109353,-0.000812539,0.00134273,-0.00155575,-1.2732,0.00167495,0.0301476,1882,1240,17.0462,-2.41596
665,-216,17.1439,2.28284,-0.00234342,0.000320592,-0.000141276,0.000328063,-0.00235089,-1.51796,0.00168728,0.0407527,1889,1240,17.144,-2.28289
672,-216,17.3326,1.93347,-0.00337299,-0.000392955,0.000433396,-0.000331204,-0.00343474,1.42927,0.0021878,0.0443182,1896,1240,17.3327,-1.93351
679,-216,15.8064,5.59338,0,0,0,0,0,0,0,-1,1903,1240,15.8064,-5.59338
686,-216,15.457,5.1178,-0.00500115,-0.00147118,0.0014833,-0.000930659,-0.00554167,1.22135,0.00342662,0.046413,1910,1240,15.4571,-5.11775
693,-216,14.9673,4.29883,-0.00558842,-0.00178733,0.0019333,-0.00097684,-0.00639891,1.17383,0.00398049,0.0342968,1917,1240,14.9673,-4.2988
700,-216,14.9664,4.21326,-0.00593863,-0.00193124,0.00226951,-0.000907487,-0.00696239,1.14703,0.00437061,0.0147139,1924,1240,14.9664,-4.21328
707,-216,14.9569,4.06848,-0.00588646,-0.00186327,0.00220176,-0.000892543,-0.00685719,1.15555,0.0043049,0.014878,1931,1240,14.9569,-4.06846
714,-216,14.9779,3.93262,-0.00527503,-0.00167529,0.0018289,-0.000909152,-0.00604117,1.1741,0.0037612,0.0140608,1938,1240,14.9779,-3.93256
721,-216,15.0031,3.80078,-0.00420148,-0.00128087,0.00129917,-0.00078661,-0.00469574,1.20726,0.00290402,0.01347,1945,1240,15.0031,-3.80081
728,-216,14.9952,3.68286,-0.00248553,-0.000174444,0.00057818,-3.78679e-05,-0.00262211,1.33883,0.00173559,0.0114102,1952,1240,14.9952,-3.68291
735,-216,14.9974,3.56812,-7.56544e-05,0.00165553,-0.000137354,0.00166636,-8.64844e-05,-1.49211,0.00114083,0.00975751,1959,1240,14.9975,-3.56816
742,-216,14.9967,3.4657,0.00313533,0.00346082,-0.00122783,0.00453664,0.00205951,-0.851287,0.00262293,0.00973788,1966,1240,14.9967,-3.46569
749,-216,15.004,3.34937,0.00690035,0.00572156,-0.00273292,0.00910671,0.00351521,-0.679192,0.00530312,0.00800086,1973,1240,15.004,-3.34941
756,-216,14.9745,3.23425,0.0106719,0.008621,-0.00415401,0.0139252,0.00536776,-0.664386,0.00810971,0.0094603,1980,1240,14.9744,-3.23423
763,-216,14.9418,3.12549,0.0156515,0.0121429,-0.00562454,0.019789,0.00800543,-0.634231,0.0114944,0.0157778,1987,1240,14.9417,-3.12547
770,-216,14.9213,3.00732,0.0223315,0.0165534,-0.00736203,0.0273511,0.0115339,-0.598418,0.0158556,0.0403398,1994,1240,14.9213,-3.00738
777,-216,14.1908,3.11475,0,0,0,0,0,0,0,-1,2001,1240,14.1908,-3.11478
784,-216,15.2279,2.21875,0,0,0,0,0,0,0,-1,2008,1240,15.2279,-2.21878
791,-216,15.6014,2.05908,0,0,0,0,0,0,0,-1,2015,1240,15.6014,-2.05911
798,-216,0,0,0,0,0,0,0,0,0,-1,2022,1240,0,0
805,-216,0,0,0,0,0,0,0,0,0,-1,2029,1240,0,0
812,-216,0,0,0,0,0,0,0,0,0,-1,2036,1240,0,0
-700,-223,0,0,0,0,0,0,0,0,0,-1,524,1247,0,0
-693,-223,0,0,0,0,0,0,0,0,0,-1,531,1247,0,0
-686,-223,0,0,0,0,0,0,0,0,0,-1,538,1247,0,0
-679,-223,0,0,0,0,0,0,0,0,0,-1,545,1247,0,0
-672,-223,-14.6797,-2.83008,0,0,0,0,0,0,0,-1,552,1247,-14.6797,2.83013
-665,-223,-9.22388,0.943237,0,0,0,0,0,0,0,-1,559,1247,-9.22389,-0.943295
-658,-223,-9.44287,0.991577,0,0,0,0,0,0,0,-1,566,1247,-9.4429,-0.99157
-651,-223,-8.35822,-0.026001,0,0,0,0,0,0,0,-1,573,1247,-8.35819,0.0260263
-644,-223,-8.35065,0.34436,0,0,0,0,0,0,0,-1,580,1247,-8.35062,-0.344375
-637,-223,-8.51617,0.444214,0,0,0,0,0,0,0,-1,587,1247,-8.51618,-0.444262
-630,-223,-8.36542,0.686401,0.0142831,-0.00750222,-0.00688407,0.0162761,-0.00949523,-0.281806,0.0150498,0.0347891,594,1247,-8.36543,-0.686386
-623,-223,-8.23895,0.92627,0.0107466,-0.00381556,-0.00505599,0.0123299,-0.00539886,-0.303479,0.0104932,0.0199154,601,1247,-8.23894,-0.926311
-616,-223,-8.24225,1.14502,0.00804195,-0.00168344,-0.00376955,0.00933193,-0.00297341,-0.329717,0.00741391,0.0154188,608,1247,-8.24224,-1.14505
-609,-223,-8.24591,1.27197,0.0062817,0.000159094,-0.00276646,0.00734652,-0.000905725,-0.367424,0.00522581,0.0117365,615,1247,-8.2459,-1.27199
-602,-223,-8.25079,1.38928,0.0050633,0.00181773,-0.00225429,0.00621815,0.000662877,-0.473431,0.00394309,0.0142911,622,1247,-8.25079,-1.3893
-595,-223,-8.25366,1.54419,0.00394553,0.00208271,-0.00229337,0.00548941,0.000538823,-0.592508,0.00349388,0.0192756,629,1247,-8.25363,-1.54422
-588,-223,-8.25989,1.7168,0.00272502,0.000873137,-0.00212506,0.0041171,-0.000518944,-0.579938,0.00293306,0.0216908,636,1247,-8.2599,-1.71674
-581,-223,-8.27264,1.89771,0.00246427,0.000308564,-0.00254757,0.00415263,-0.00137979,-0.585272,0.00332518,0.0207959,643,1247,-8.27264,-1.89774
-574,-223,-8.23816,1.98889,0.00221707,0.000167369,-0.00273508,0.004113,-0.00172856,-0.606142,0.00346501,0.0183141,650,1247,-8.23819,-1.98883
-567,-223,-8.08472,2.1543,0.0014592,0.000125397,-0.0028354,0.00370507,-0.00212048,-0.669895,0.00340461,0.0228524,657,1247,-8.08469,-2.15426
-560,-223,-7.91949,2.38452,0.000932981,0.000317734,-0.00323115,0.00387111,-0.0026204,-0.737938,0.00377099,0.0361753,664,1247,-7.9195,-2.38454
-553,-223,-7.54108,2.70325,0,0,0,0,0,0,0,-1,671,1247,-7.54106,-2.70319
-546,-223,-9.43176,0.425415,-0.000729952,0.00140143,-0.00394542,0.00442255,-0.00375107,-0.917305,0.00472434,0.0435706,678,1247,-9.43174,-0.425475
-539,-223,-10.0209,0.667114,-0.00192288,0.00191887,-0.00413669,0.00455891,-0.00456292,-1.00276,0.00526649,0.0408175,685,1247,-10.0209,-0.667155
-532,-223,-10.5789,0.85498,-0.00293682,0.00260988,-0.00437846,0.00501943,-0.00534636,-1.06771,0.00598569,0.0447774,692,1247,-10.5789,-0.854971
-525,-223,-10.646,0.676025,-0.00367207,0.00346003,-0.00453929,0.00566648,-0.00587853,-1.11835,0.00666589,0.0452038,699,1247,-10.646,-0.676004
-518,-223,-10.7004,0.639648,-0.00395034,0.00447513,-0.00456321,0.00647288,-0.00594808,-1.15814,0.00717338,0.0407094,706,1247,-10.7004,-0.639639
-511,-223,-10.812,0.691406,-0.00285727,0.00556153,-0.00447996,0.00749941,-0.00479515,-1.16253,0.00715528,0.03903,713,1247,-10.8119,-0.691381
-504,-223,-10.812,0.689331,0.00063625,0.0070385,-0.00323814,0.00839069,-0.000715944,-1.17522,0.00584707,0.0426975,720,1247,-10.812,-0.689295
-497,-223,0,0,0,0,0,0,0,0,0,-1,727,1247,0,0
-490,-223,0,0,0,0,0,0,0,0,0,-1,734,1247,0,0
-483,-223,0,0,0,0,0,0,0,0,0,-1,741,1247,0,0
-476,-223,0,0,0,0,0,0,0,0,0,-1,748,1247,0,0
-469,-223,0,0,0,0,0,0,0,0,0,-1,755,1247,0,0
-462,-223,0,0,0,0,0,0,0,0,0,-1,762,1247,0,0
-455,-223,0,0,0,0,0,0,0,0,0,-1,769,1247,0,0
-448,-223,0,0,0,0,0,0,0,0,0,-1,776,1247,0,0
-441,-223,0,0,0,0,0,0,0,0,0,-1,783,1247,0,0
-434,-223,0,0,0,0,0,0,0,0,0,-1,790,1247,0,0
-427,-223,0,0,0,0,0,0,0,0,0,-1,797,1247,0,0
-420,-223,0,0,0,0,0,0,0,0,0,-1,804,1247,0,0
-413,-223,0,0,0,0,0,0,0,0,0,-1,811,1247,0,0
-406,-223,0,0,0,0,0,0,0,0,0,-1,818,1247,0,0
-399,-223,0,0,0,0,0,0,0,0,0,-1,825,1247,0,0
-392,-223,0,0,0,0,0,0,0,0,0,-1,832,1247,0,0
-385,-223,0,0,0,0,0,0,0,0,0,-1,839,1247,0,0
-378,-223,0,0,0,0,0,0,0,0,0,-1,846,1247,0,0
-371,-223,0,0,0,0,0,0,0,0,0,-1,853,1247,0,0
-364,-223,0,0,0,0,0,0,0,0,0,-1,860,1247,0,0
-357,-223,0,0,0,0,0,0,0,0,0,-1,867,1247,0,0
-350,-223,0,0,0,0,0,0,0,0,0,-1,874,1247,0,0
-343,-223,0,0,0,0,0,0,0,0,0,-1,881,1247,0,0
-336,-223,0,0,0,0,0,0,0,0,0,-1,888,1247,0,0
-329,-223,0,0,0,0,0,0,0,0,0,-1,895,1247,0,0
-322,-223,0,0,0,0,0,0,0,0,0,-1,902,1247,0,0
-315,-223,0,0,0,0,0,0,0,0,0,-1,909,1247,0,0
-308,-223,0,0,0,0,0,0,0,0,0,-1,916,1247,0,0
-301,-223,0,0,0,0,0,0,0,0,0,-1,923,1247,0,0
-294,-223,0,0,0,0,0,0,0,0,0,-1,930,1247,0,0
-287,-223,0,0,0,0,0,0,0,0,0,-1,937,1247,0,0
-280,-223,0,0,0,0,0,0,0,0,0,-1,944,1247,0,0
-273,-223,0,0,0,0,0,0,0,0,0,-1,951,1247,0,0
-266,-223,0,0,0,0,0,0,0,0,0,-1,958,1247,0,0
-259,-223,0,0,0,0,0,0,0,0,0,-1,965,1247,0,0
-252,-223,0,0,0,0,0,0,0,0,0,-1,972,1247,0,0
-245,-223,0,0,0,0,0,0,0,0,0,-1,979,1247,0,0
-238,-223,0,0,0,0,0,0,0,0,0,-1,986,1247,0,0
-231,-223,0,0,0,0,0,0,0,0,0,-1,993,1247,0,0
-224,-223,0,0,0,0,0,0,0,0,0,-1,1000,1247,0,0
-217,-223,0,0,0,0,0,0,0,0,0,-1,1007,1247,0,0
-210,-223,0,0,0,0,0,0,0,0,0,-1,1014,1247,0,0
-203,-223,0,0,0,0,0,0,0,0,0,-1,1021,1247,0,0
-196,-223,0,0,0,0,0,0,0,0,0,-1,1028,1247,0,0
-189,-223,0,0,0,0,0,0,0,0,0,-1,1035,1247,0,0
-182,-223,0,0,0,0,0,0,0,0,0,-1,1042,1247,0,0
-175,-223,0,0,0,0,0,0,0,0,0,-1,1049,1247,0,0
-168,-223,0,0,0,0,0,0,0,0,0,-1,1056,1247,0,0
-161,-223,0,0,0,0,0,0,0,0,0,-1,1063,1247,0,0
-154,-223,0,0,0,0,0,0,0,0,0,-1,1070,1247,0,0
-147,-223,0,0,0,0,0,0,0,0,0,-1,1077,1247,0,0
-140,-223,0,0,0,0,0,0,0,0,0,-1,1084,1247,0,0
-133,-223,0,0,0,0,0,0,0,0,0,-1,1091,1247,0,0
-126,-223,0,0,0,0,0,0,0,0,0,-1,1098,1247,0,0
-119,-223,0,0,0,0,0,0,0,0,0,-1,1105,1247,0,0
-112,-223,0,0,0,0,0,0,0,0,0,-1,1112,1247,0,0
-105,-223,0,0,0,0,0,0,0,0,0,-1,1119,1247,0,0
-98,-223,0,0,0,0,0,0,0,0,0,-1,1126,1247,0,0
-91,-223,0,0,0,0,0,0,0,0,0,-1,1133,1247,0,0
-84,-223,0,0,0,0,0,0,0,0,0,-1,1140,1247,0,0
-77,-223,0,0,0,0,0,0,0,0,0,-1,1147,1247,0,0
-70,-223,0,0,0,0,0,0,0,0,0,-1,1154,1247,0,0
-63,-223,0,0,0,0,0,0,0,0,0,-1,1161,1247,0,0
-56,-223,0,0,0,0,0,0,0,0,0,-1,1168,1247,0,0
-49,-223,0,0,0,0,0,0,0,0,0,-1,1175,1247,0,0
-42,-223,0,0,0,0,0,0,0,0,0,-1,1182,1247,0,0
-35,-223,0,0,0,0,0,0,0,0,0,-1,1189,1247,0,0
-28,-223,0,0,0,0,0,0,0,0,0,-1,1196,1247,0,0
-21,-223,0,0,0,0,0,0,0,0,0,-1,1203,1247,0,0
-14,-223,0,0,0,0,0,0,0,0,0,-1,1210,1247,0,0
-7,-223,0,0,0,0,0,0,0,0,0,-1,1217,1247,0,0
0,-223,0,0,0,0,0,0,0,0,0,-1,1224,1247,0,0
7,-223,0,0,0,0,0,0,0,0,0,-1,1231,1247,0,0
14,-223,0,0,0,0,0,0,0,0,0,-1,1238,1247,0,0
21,-223,0,0,0,0,0,0,0,0,0,-1,1245,1247,0,0
28,-223,0,0,0,0,0,0,0,0,0,-1,1252,1247,0,0
35,-223,0,0,0,0,0,0,0,0,0,-1,1259,1247,0,0
42,-223,0,0,0,0,0,0,0,0,0,-1,1266,1247,0,0
49,-223,0,0,0,0,0,0,0,0,0,-1,1273,1247,0,0
56,-223,0,0,0,0,0,0,0,0,0,-1,1280,1247,0,0
63,-223,0,0,0,0,0,0,0,0,0,-1,1287,1247,0,0
70,-223,0,0,0,0,0,0,0,0,0,-1,1294,1247,0,0
77,-223,0,0,0,0,0,0,0,0,0,-1,1301,1247,0,0
84,-223,0,0,0,0,0,0,0,0,0,-1,1308,1247,0,0
91,-223,0,0,0,0,0,0,0,0,0,-1,1315,1247,0,0
98,-223,0,0,0,0,0,0,0,0,0,-1,1322,1247,0,0
105,-223,0,0,0,0,0,0,0,0,0,-1,1329,1247,0,0
112,-223,0,0,0,0,0,0,0,0,0,-1,1336,1247,0,0
119,-223,0,0,0,0,0,0,0,0,0,-1,1343,1247,0,0
126,-223,0,0,0,0,0,0,0,0,0,-1,1350,1247,0,0
133,-223,0,0,0,0,0,0,0,0,0,-1,1357,1247,0,0
140,-223,0,0,0,0,0,0,0,0,0,-1,1364,1247,0,0
147,-223,0,0,0,0,0,0,0,0,0,-1,1371,1247,0,0
154,-223,0,0,0,0,0,0,0,0,0,-1,1378,1247,0,0
161,-223,0,0,0,0,0,0,0,0,0,-1,1385,1247,0,0
168,-223,0,0,0,0,0,0,0,0,0,-1,1392,1247,0,0
175,-223,0,0,0,0,0,0,0,0,0,-1,1399,1247,0,0
182,-223,0,0,0,0,0,0,0,0,0,-1,1406,1247,0,0
189,-223,0,0,0,0,0,0,0,0,0,-1,1413,1247,0,0
196,-223,0,0,0,0,0,0,0,0,0,-1,1420,1247,0,0
203,-223,0,0,0,0,0,0,0,0,0,-1,1427,1247,0,0
210,-223,0,0,0,0,0,0,0,0,0,-1,1434,1247,0,0
217,-223,0,0,0,0,0,0,0,0,0,-1,1441,1247,0,0
224,-223,0,0,0,0,0,0,0,0,0,-1,1448,1247,0,0
231,-223,0,0,0,0,0,0,0,0,0,-1,1455,1247,0,0
238,-223,0,0,0,0,0,0,0,0,0,-1,1462,1247,0,0
245,-223,0,0,0,0,0,0,0,0,0,-1,1469,1247,0,0
252,-223,0,0,0,0,0,0,0,0,0,-1,1476,1247,0,0
259,-223,0,0,0,0,0,0,0,0,0,-1,1483,1247,0,0
266,-223,0,0,0,0,0,0,0,0,0,-1,1490,1247,0,0
273,-223,0,0,0,0,0,0,0,0,0,-1,1497,1247,0,0
280,-223,0,0,0,0,0,0,0,0,0,-1,1504,1247,0,0
287,-223,0,0,0,0,0,0,0,0,0,-1,1511,1247,0,0
294,-223,0,0,0,0,0,0,0,0,0,-1,1518,1247,0,0
301,-223,0,0,0,0,0,0,0,0,0,-1,1525,1247,0,0
308,-223,0,0,0,0,0,0,0,0,0,-1,1532,1247,0,0
315,-223,0,0,0,0,0,0,0,0,0,-1,1539,1247,0,0
322,-223,0,0,0,0,0,0,0,0,0,-1,1546,1247,0,0
329,-223,0,0,0,0,0,0,0,0,0,-1,1553,1247,0,0
336,-223,0,0,0,0,0,0,0,0,0,-1,1560,1247,0,0
343,-223,0,0,0,0,0,0,0,0,0,-1,1567,1247,0,0
350,-223,0,0,0,0,0,0,0,0,0,-1,1574,1247,0,0
357,-223,0,0,0,0,0,0,0,0,0,-1,1581,1247,0,0
364,-223,0,0,0,0,0,0,0,0,0,-1,1588,1247,0,0
371,-223,0,0,0,0,0,0,0,0,0,-1,1595,1247,0,0
378,-223,0,0,0,0,0,0,0,0,0,-1,1602,1247,0,0
385,-223,0,0,0,0,0,0,0,0,0,-1,1609,1247,0,0
392,-223,0,0,0,0,0,0,0,0,0,-1,1616,1247,0,0
399,-223,0,0,0,0,0,0,0,0,0,-1,1623,1247,0,0
406,-223,0,0,0,0,0,0,0,0,0,-1,1630,1247,0,0
413,-223,0,0,0,0,0,0,0,0,0,-1,1637,1247,0,0
420,-223,0,0,0,0,0,0,0,0,0,-1,1644,1247,0,0
427,-223,0,0,0,0,0,0,0,0,0,-1,1651,1247,0,0
434,-223,0,0,0,0,0,0,0,0,0,-1,1658,1247,0,0
441,-223,0,0,0,0,0,0,0,0,0,-1,1665,1247,0,0
448,-223,0,0,0,0,0,0,0,0,0,-1,1672,1247,0,0
455,-223,0,0,0,0,0,0,0,0,0,-1,1679,1247,0,0
462,-223,0,0,0,0,0,0,0,0,0,-1,1686,1247,0,0
469,-223,0,0,0,0,0,0,0,0,0,-1,1693,1247,0,0
476,-223,0,0,0,0,0,0,0,0,0,-1,1700,1247,0,0
483,-223,0,0,0,0,0,0,0,0,0,-1,1707,1247,0,0
490,-223,0,0,0,0,0,0,0,0,0,-1,1714,1247,0,0
497,-223,0,0,0,0,0,0,0,0,0,-1,1721,1247,0,0
504,-223,0,0,0,0,0,0,0,0,0,-1,1728,1247,0,0
511,-223,0,0,0,0,0,0,0,0,0,-1,1735,1247,0,0
518,-223,0,0,0,0,0,0,0,0,0,-1,1742,1247,0,0
525,-223,0,0,0,0,0,0,0,0,0,-1,1749,1247,0,0
532,-223,0,0,0,0,0,0,0,0,0,-1,1756,1247,0,0
539,-223,0,0,0,0,0,0,0,0,0,-1,1763,1247,0,0
546,-223,0,0,0,0,0,0,0,0,0,-1,1770,1247,0,0
553,-223,0,0,0,0,0,0,0,0,0,-1,1777,1247,0,0
560,-223,0,0,0,0,0,0,0,0,0,-1,1784,1247,0,0
567,-223,0,0,0,0,0,0,0,0,0,-1,1791,1247,0,0
574,-223,0,0,0,0,0,0,0,0,0,-1,1798,1247,0,0
581,-223,0,0,0,0,0,0,0,0,0,-1,1805,1247,0,0
588,-223,0,0,0,0,0,0,0,0,0,-1,1812,1247,0,0
595,-223,0,0,0,0,0,0,0,0,0,-1,1819,1247,0,0
602,-223,0,0,0,0,0,0,0,0,0,-1,1826,1247,0,0
609,-223,0,0,0,0,0,0,0,0,0,-1,1833,1247,0,0
616,-223,0,0,0,0,0,0,0,0,0,-1,1840,1247,0,0
623,-223,17.0243,2.60266,-0.00361073,0.00497117,-0.00327981,0.00608109,-0.00472065,-1.24448,0.00625286,0.0364326,1847,1247,17.0243,-2.6026
630,-223,16.9946,2.47961,-0.000617826,0.00461325,-0.00296738,0.00595327,-0.00195784,-1.14663,0.00475769,0.0348226,1854,1247,16.9946,-2.47966
637,-223,17.0536,2.50964,0.00126046,0.00388687,-0.00239078,0.00530136,-0.000154036,-1.03654,0.00358669,0.0291109,1861,1247,17.0536,-2.50969
644,-223,17.0531,2.48657,0.00126849,0.00295199,-0.00161623,0.00393253,0.000287951,-1.02548,0.00253117,0.0218778,1868,1247,17.0531,-2.4866
651,-223,16.999,2.3783,0.000531358,0.00194606,-0.000861484,0.00235338,0.000124033,-1.12913,0.00152925,0.0253713,1875,1247,16.999,-2.37826
658,-223,17.0668,2.37415,-0.000401055,0.00104766,-0.00022889,0.00108296,-0.000436358,-1.41777,0.000903273,0.042218,1882,1247,17.0668,-2.37412
665,-223,17.113,2.24426,-0.00139103,0.000280522,0.000283183,0.000327194,-0.0014377,1.40745,0.00108412,0.0417917,1889,1247,17.1131,-2.24425
672,-223,17.1161,2.23035,-0.00233632,-0.000396308,0.000675492,-0.000184281,-0.00254835,1.26665,0.00164092,0.0426277,1896,1247,17.1161,-2.23032
679,-223,15.4513,5.16284,0,0,0,0,0,0,0,-1,1903,1247,15.4513,-5.16281
686,-223,15.1686,4.75183,-0.00400912,-0.00141938,0.00136359,-0.000833807,-0.00459469,1.16517,0.00282649,0.0479246,1910,1247,15.1686,-4.75185
693,-223,14.8232,4.29626,-0.00470348,-0.00170449,0.00169371,-0.000941879,-0.00546609,1.14772,0.00337421,0.0234989,1917,1247,14.8233,-4.29629
700,-223,14.8502,4.17444,-0.00504947,-0.00178339,0.0019221,-0.000894266,-0.00593859,1.13753,0.0036972,0.0107828,1924,1247,14.8502,-4.17441
707,-223,14.8534,4.05005,-0.00491359,-0.0016361,0.0016808,-0.000927386,-0.0056223,1.17176,0.0034805,0.0126982,1931,1247,14.8534,-4.05009
714,-223,14.8665,3.91931,-0.00421833,-0.00143603,0.00116729,-0.00101118,-0.00464318,1.22173,0.0028195,0.0116573,1938,1247,14.8664,-3.91934
721,-223,14.8721,3.79785,-0.00321079,-0.00104764,0.000608253,-0.000888339,-0.0033701,1.31465,0.00201692,0.0148928,1945,1247,14.8721,-3.79785
728,-223,14.853,3.67773,-0.00153334,-4.99323e-05,-0.000107193,-4.22263e-05,-0.00154104,-1.49903,0.00101358,0.015989,1952,1247,14.853,-3.67774
735,-223,14.8495,3.56665,0.00083128,0.00168969,-0.000860107,0.00222173,0.000299235,-1.01683,0.00139217,0.0127192,1959,1247,14.8494,-3.56669
742,-223,14.8448,3.45789,0.00397656,0.00326908,-0.00187617,0.00553205,0.00171359,-0.692221,0.00327009,0.0103302,1966,1247,14.8449,-3.45794
749,-223,14.8589,3.33545,0.00775707,0.00523705,-0.00323738,0.00997099,0.00302312,-0.599815,0.00590354,0.00916432,1973,1247,14.8588,-3.33542
756,-223,14.86,3.20776,0.0117729,0.00774701,-0.00452068,0.0147085,0.00481138,-0.575939,0.00865955,0.0112061,1980,1247,14.86,-3.20778
763,-223,14.8381,3.09399,0.0171681,0.0109147,-0.00585934,0.0206828,0.00739999,-0.540304,0.0121012,0.0146237,1987,1247,14.8382,-3.09398
770,-223,14.7899,2.94958,0.0244143,0.0149112,-0.00731533,0.0283857,0.0109397,-0.497376,0.0165314,0.036944,1994,1247,14.7899,-2.94955
777,-223,14.6665,2.52539,0,0,0,0,0,0,0,-1,2001,1247,14.6665,-2.52533
784,-223,14.6329,2.06433,0,0,0,0,0,0,0,-1,2008,1247,14.6329,-2.06438
791,-223,14.7549,1.69495,0,0,0,0,0,0,0,-1,2015,1247,14.7549,-1.69493
798,-223,0,0,0,0,0,0,0,0,0,-1,2022,1247,0,0
805,-223,0,0,0,0,0,0,0,0,0,-1,2029,1247,0,0
812,-223,0,0,0,0,0,0,0,0,0,-1,2036,1247,0,0
-700,-230,0,0,0,0,0,0,0,0,0,-1,524,1254,0,0
-693,-230,0,0,0,0,0,0,0,0,0,-1,531,1254,0,0
-686,-230,0,0,0,0,0,0,0,0,0,-1,538,1254,0,0
-679,-230,0,0,0,0,0,0,0,0,0,-1,545,1254,0,0
-672,-230,-9.1734,2.08032,0,0,0,0,0,0,0,-1,552,1254,-9.17339,-2.08034
-665,-230,-9.40839,2.03088,0,0,0,0,0,0,0,-1,559,1254,-9.40837,-2.03093
-658,-230,-9.72559,1.86597,0.0291057,-0.0494448,-0.0252096,0.0365002,-0.0568393,-0.285319,0.0543144,0.0467532,566,1254,-9.72559,-1.866
-651,-230,-10.1428,1.61011,0.0270784,-0.0335037,-0.0206965,0.0334737,-0.0398991,-0.2997,0.042416,0.0461957,573,1254,-10.1428,-1.61006
-644,-230,-10.7093,1.35339,0.0234572,-0.0214773,-0.0165208,0.0288775,-0.0268975,-0.317022,0.0322085,0.0483905,580,1254,-10.7093,-1.35343
-637,-230,-8.56311,1.32068,0,0,0,0,0,0,0,-1,587,1254,-8.56311,-1.32066
-630,-230,-8.30951,1.13318,0.0147839,-0.00659224,-0.00955014,0.018429,-0.0102373,-0.364615,0.0167743,0.039737,594,1254,-8.30948,-1.13312
-623,-230,-8.07312,0.917358,0.0108451,-0.00266988,-0.00694327,0.0137764,-0.00560117,-0.399478,0.0115148,0.0256682,601,1254,-8.0731,-0.917412
-616,-230,-8.09558,1.11353,0.00782076,-0.000530547,-0.00498801,0.0101502,-0.00285999,-0.436908,0.00789474,0.0154326,608,1254,-8.09557,-1.11348
-609,-230,-8.10364,1.26819,0.00594498,0.00125375,-0.0034488,0.00777024,-0.000571498,-0.486767,0.00538078,0.0120979,615,1254,-8.10363,-1.26824
-602,-230,-8.09863,1.39001,0.00476678,0.00265966,-0.00244544,0.00637595,0.00105048,-0.582001,0.00394735,0.0116522,622,1254,-8.09866,-1.39002
-595,-230,-8.10486,1.53284,0.00354071,0.0026229,-0.00202739,0.00516049,0.00100312,-0.674098,0.00315948,0.0178521,629,1254,-8.10489,-1.53284
-588,-230,-8.11218,1.69934,0.00215283,0.00101571,-0.00149025,0.0031793,-1.0757e-05,-0.603162,0.00212313,0.0249712,636,1254,-8.1122,-1.6993
-581,-230,-8.13092,1.88123,0.00200468,0.000236777,-0.00192286,0.00323704,-0.00099558,-0.56995,0.00255537,0.0236598,643,1254,-8.13093,-1.88127
-574,-230,-8.10547,1.99744,0.00192234,-0.000170308,-0.0021354,0.00325398,-0.00150195,-0.557594,0.00280726,0.0167999,650,1254,-8.10547,-1.99741
-567,-230,-7.99695,2.15601,0.00126212,-0.000240744,-0.00232705,0.00295605,-0.00193468,-0.629228,0.00284411,0.019103,657,1254,-7.99696,-2.15601
-560,-230,-7.88446,2.38794,0.000907836,-8.23725e-05,-0.0029143,0.00336879,-0.00254332,-0.701257,0.00342443,0.0315597,664,1254,-7.88447,-2.38798
-553,-230,-7.63501,2.60913,0,0,0,0,0,0,0,-1,671,1254,-7.63499,-2.60909
-546,-230,-9.32324,0.747192,0,0,0,0,0,0,0,-1,678,1254,-9.32326,-0.747157
-539,-230,-10.4762,0.716919,0,0,0,0,0,0,0,-1,685,1254,-10.4762,-0.716898
-532,-230,-10.5438,0.67688,-0.00288337,0.00250368,-0.00471379,0.00523923,-0.00561892,-1.04497,0.00627023,0.0481122,692,1254,-10.5438,-0.676828
-525,-230,-10.5966,0.612671,-0.0037608,0.0034748,-0.00503472,0.00605675,-0.00634275,-1.09694,0.00715949,0.0479462,699,1254,-10.5966,-0.612668
-518,-230,-10.6319,0.544189,-0.00443531,0.0046402,-0.00513474,0.00695495,-0.00675006,-1.14728,0.00791288,0.0444592,706,1254,-10.6319,-0.544243
-511,-230,-10.6517,0.5177,-0.00438021,0.00591745,-0.00489887,0.00787561,-0.00633837,-1.19053,0.00822243,0.039664,713,1254,-10.6517,-0.517661
-504,-230,-10.6422,0.418579,-0.00268596,0.0074496,-0.00346337,0.00852001,-0.00375636,-1.27104,0.00726346,0.0386567,720,1254,-10.6422,-0.418615
-497,-230,0,0,0,0,0,0,0,0,0,-1,727,1254,0,0
-490,-230,0,0,0,0,0,0,0,0,0,-1,734,1254,0,0
-483,-230,0,0,0,0,0,0,0,0,0,-1,741,1254,0,0
-476,-230,0,0,0,0,0,0,0,0,0,-1,748,1254,0,0
-469,-230,0,0,0,0,0,0,0,0,0,-1,755,1254,0,0
-462,-230,0,0,0,0,0,0,0,0,0,-1,762,1254,0,0
-455,-230,0,0,0,0,0,0,0,0,0,-1,769,1254,0,0
-448,-230,0,0,0,0,0,0,0,0,0,-1,776,1254,0,0
-441,-230,0,0,0,0,0,0,0,0,0,-1,783,1254,0,0
-434,-230,0,0,0,0,0,0,0,0,0,-1,790,1254,0,0
-427,-230,0,0,0,0,0,0,0,0,0,-1,797,1254,0,0
-420,-230,0,0,0,0,0,0,0,0,0,-1,804,1254,0,0
-413,-230,0,0,0,0,0,0,0,0,0,-1,811,1254,0,0
-406,-230,0,0,0,0,0,0,0,0,0,-1,818,1254,0,0
-399,-230,0,0,0,0,0,0,0,0,0,-1,825,1254,0,0
-392,-230,0,0,0,0,0,0,0,0,0,-1,832,1254,0,0
-385,-230,0,0,0,0,0,0,0,0,0,-1,839,1254,0,0
-378,-230,0,0,0,0,0,0,0,0,0,-1,846,1254,0,0
-371,-230,0,0,0,0,0,0,0,0,0,-1,853,1254,0,0
-364,-230,0,0,0,0,0,0,0,0,0,-1,860,1254,0,0
-357,-230,0,0,0,0,0,0,0,0,0,-1,867,1254,0,0
-350,-230,0,0,0,0,0,0,0,0,0,-1,874,1254,0,0
-343,-230,0,0,0,0,0,0,0,0,0,-1,881,1254,0,0
-336,-230,0,0,0,0,0,0,0,0,0,-1,888,1254,0,0
-329,-230,0,0,0,0,0,0,0,0,0,-1,895,1254,0,0
-322,-230,0,0,0,0,0,0,0,0,0,-1,902,1254,0,0
-315,-230,0,0,0,0,0,0,0,0,0,-1,909,1254,0,0
-308,-230,0,0,0,0,0,0,0,0,0,-1,916,1254,0,0
-301,-230,0,0,0,0,0,0,0,0,0,-1,923,1254,0,0
-294,-230,0,0,0,0,0,0,0,0,0,-1,930,1254,0,0
-287,-230,0,0,0,0,0,0,0,0,0,-1,937,1254,0,0
-280,-230,0,0,0,0,0,0,0,0,0,-1,944,1254,0,0
-273,-230,0,0,0,0,0,0,0,0,0,-1,951,1254,0,0
-266,-230,0,0,0,0,0,0,0,0,0,-1,958,1254,0,0
-259,-230,0,0,0,0,0,0,0,0,0,-1,965,1254,0,0
-252,-230,0,0,0,0,0,0,0,0,0,-1,972,1254,0,0
-245,-230,0,0,0,0,0,0,0,0,0,-1,979,1254,0,0
-238,-230,0,0,0,0,0,0,0,0,0,-1,986,1254,0,0
-231,-230,0,0,0,0,0,0,0,0,0,-1,993,1254,0,0
-224,-230,0,0,0,0,0,0,0,0,0,-1,1000,1254,0,0
-217,-230,0,0,0,0,0,0,0,0,0,-1,1007,1254,0,0
-210,-230,0,0,0,0,0,0,0,0,0,-1,1014,1254,0,0
-203,-230,0,0,0,0,0,0,0,0,0,-1,1021,1254,0,0
-196,-230,0,0,0,0,0,0,0,0,0,-1,1028,1254,0,0
-189,-230,0,0,0,0,0,0,0,0,0,-1,1035,1254,0,0
-182,-230,0,0,0,0,0,0,0,0,0,-1,1042,1254,0,0
-175,-230,0,0,0,0,0,0,0,0,0,-1,1049,1254,0,0
-168,-230,0,0,0,0,0,0,0,0,0,-1,1056,1254,0,0
-161,-230,0,0,0,0,0,0,0,0,0,-1,1063,1254,0,0
-154,-230,0,0,0,0,0,0,0,0,0,-1,1070,1254,0,0
-147,-230,0,0,0,0,0,0,0,0,0,-1,1077,1254,0,0
-140,-230,0,0,0,0,0,0,0,0,0,-1,1084,1254,0,0
-133,-230,0,0,0,0,0,0,0,0,0,-1,1091,1254,0,0
-126,-230,0,0,0,0,0,0,0,0,0,-1,1098,1254,0,0
-119,-230,0,0,0,0,0,0,0,0,0,-1,1105,1254,0,0
-112,-230,0,0,0,0,0,0,0,0,0,-1,1112,1254,0,0
-105,-230,0,0,0,0,0,0,0,0,0,-1,1119,1254,0,0
-98,-230,0,0,0,0,0,0,0,0,0,-1,1126,1254,0,0
-91,-230,0,0,0,0,0,0,0,0,0,-1,1133,1254,0,0
-84,-230,0,0,0,0,0,0,0,0,0,-1,1140,1254,0,0
-77,-230,0,0,0,0,0,0,0,0,0,-1,1147,1254,0,0
-70,-230,0,0,0,0,0,0,0,0,0,-1,1154,1254,0,0
-63,-230,0,0,0,0,0,0,0,0,0,-1,1161,1254,0,0
-56,-230,0,0,0,0,0,0,0,0,0,-1,1168,1254,0,0
-49,-230,0,0,0,0,0,0,0,0,0,-1,1175,1254,0,0
-42,-230,0,0,0,0,0,0,0,0,0,-1,1182,1254,0,0
-35,-230,0,0,0,0,0,0,0,0,0,-1,1189,1254,0,0
-28,-230,0,0,0,0,0,0,0,0,0,-1,1196,1254,0,0
-21,-230,0,0,0,0,0,0,0,0,0,-1,1203,1254,0,0
-14,-230,0,0,0,0,0,0,0,0,0,-1,1210,1254,0,0
-7,-230,0,0,0,0,0,0,0,0,0,-1,1217,1254,0,0
0,-230,0,0,0,0,0,0,0,0,0,-1,1224,1254,0,0
7,-230,0,0,0,0,0,0,0,0,0,-1,1231,1254,0,0
14,-230,0,0,0,0,0,0,0,0,0,-1,1238,1254,0,0
21,-230,0,0,0,0,0,0,0,0,0,-1,1245,1254,0,0
28,-230,0,0,0,0,0,0,0,0,0,-1,1252,1254,0,0
35,-230,0,0,0,0,0,0,0,0,0,-1,1259,1254,0,0
42,-230,0,0,0,0,0,0,0,0,0,-1,1266,1254,0,0
49,-230,0,0,0,0,0,0,0,0,0,-1,1273,1254,0,0
56,-230,0,0,0,0,0,0,0,0,0,-1,1280,1254,0,0
63,-230,0,0,0,0,0,0,0,0,0,-1,1287,1254,0,0
70,-230,0,0,0,0,0,0,0,0,0,-1,1294,1254,0,0
77,-230,0,0,0,0,0,0,0,0,0,-1,1301,1254,0,0
84,-230,0,0,0,0,0,0,0,0,0,-1,1308,1254,0,0
91,-230,0,0,0,0,0,0,0,0,0,-1,1315,1254,0,0
98,-230,0,0,0,0,0,0,0,0,0,-1,1322,1254,0,0
105,-230,0,0,0,0,0,0,0,0,0,-1,1329,1254,0,0
112,-230,0,0,0,0,0,0,0,0,0,-1,1336,1254,0,0
119,-230,0,0,0,0,0,0,0,0,0,-1,1343,1254,0,0
126,-230,0,0,0,0,0,0,0,0,0,-1,1350,1254,0,0
133,-230,0,0,0,0,0,0,0,0,0,-1,1357,1254,0,0
140,-230,0,0,0,0,0,0,0,0,0,-1,1364,1254,0,0
147,-230,0,0,0,0,0,0,0,0,0,-1,1371,1254,0,0
154,-230,0,0,0,0,0,0,0,0,0,-1,1378,1254,0,0
161,-230,0,0,0,0,0,0,0,0,0,-1,1385,1254,0,0
168,-230,0,0,0,0,0,0,0,0,0,-1,1392,1254,0,0
175,-230,0,0,0,0,0,0,0,0,0,-1,1399,1254,0,0
182,-230,0,0,0,0,0,0,0,0,0,-1,1406,1254,0,0
189,-230,0,0,0,0,0,0,0,0,0,-1,1413,1254,0,0
196,-230,0,0,0,0,0,0,0,0,0,-1,1420,1254,0,0
203,-230,0,0,0,0,0,0,0,0,0,-1,1427,1254,0,0
210,-230,0,0,0,0,0,0,0,0,0,-1,1434,1254,0,0
217,-230,0,0,0,0,0,0,0,0,0,-1,1441,1254,0,0
224,-230,0,0,0,0,0,0,0,0,0,-1,1448,1254,0,0
231,-230,0,0,0,0,0,0,0,0,0,-1,1455,1254,0,0
238,-230,0,0,0,0,0,0,0,0,0,-1,1462,1254,0,0
245,-230,0,0,0,0,0,0,0,0,0,-1,1469,1254,0,0
252,-230,0,0,0,0,0,0,0,0,0,-1,1476,1254,0,0
259,-230,0,0,0,0,0,0,0,0,0,-1,1483,1254,0,0
266,-230,0,0,0,0,0,0,0,0,0,-1,1490,1254,0,0
273,-230,0,0,0,0,0,0,0,0,0,-1,1497,1254,0,0
280,-230,0,0,0,0,0,0,0,0,0,-1,1504,1254,0,0
287,-230,0,0,0,0,0,0,0,0,0,-1,1511,1254,0,0
294,-230,0,0,0,0,0,0,0,0,0,-1,1518,1254,0,0
301,-230,0,0,0,0,0,0,0,0,0,-1,1525,1254,0,0
308,-230,0,0,0,0,0,0,0,0,0,-1,1532,1254,0,0
315,-230,0,0,0,0,0,0,0,0,0,-1,1539,1254,0,0
322,-230,0,0,0,0,0,0,0,0,0,-1,1546,1254,0,0
329,-230,0,0,0,0,0,0,0,0,0,-1,1553,1254,0,0
336,-230,0,0,0,0,0,0,0,0,0,-1,1560,1254,0,0
343,-230,0,0,0,0,0,0,0,0,0,-1,1567,1254,0,0
350,-230,0,0,0,0,0,0,0,0,0,-1,1574,1254,0,0
357,-230,0,0,0,0,0,0,0,0,0,-1,1581,1254,0,0
364,-230,0,0,0,0,0,0,0,0,0,-1,1588,1254,0,0
371,-230,0,0,0,0,0,0,0,0,0,-1,1595,1254,0,0
378,-230,0,0,0,0,0,0,0,0,0,-1,1602,1254,0,0
385,-230,0,0,0,0,0,0,0,0,0,-1,1609,1254,0,0
392,-230,0,0,0,0,0,0,0,0,0,-1,1616,1254,0,0
399,-230,0,0,0,0,0,0,0,0,0,-1,1623,1254,0,0
406,-230,0,0,0,0,0,0,0,0,0,-1,1630,1254,0,0
413,-230,0,0,0,0,0,0,0,0,0,-1,1637,1254,0,0
420,-230,0,0,0,0,0,0,0,0,0,-1,1644,1254,0,0
427,-230,0,0,0,0,0,0,0,0,0,-1,1651,1254,0,0
434,-230,0,0,0,0,0,0,0,0,0,-1,1658,1254,0,0
441,-230,0,0,0,0,0,0,0,0,0,-1,1665,1254,0,0
448,-230,0,0,0,0,0,0,0,0,0,-1,1672,1254,0,0
455,-230,0,0,0,0,0,0,0,0,0,-1,1679,1254,0,0
462,-230,0,0,0,0,0,0,0,0,0,-1,1686,1254,0,0
469,-230,0,0,0,0,0,0,0,0,0,-1,1693,1254,0,0
476,-230,0,0,0,0,0,0,0,0,0,-1,1700,1254,0,0
483,-230,0,0,0,0,0,0,0,0,0,-1,1707,1254,0,0
490,-230,0,0,0,0,0,0,0,0,0,-1,1714,1254,0,0
497,-230,0,0,0,0,0,0,0,0,0,-1,1721,1254,0,0
504,-230,0,0,0,0,0,0,0,0,0,-1,1728,1254,0,0
511,-230,0,0,0,0,0,0,0,0,0,-1,1735,1254,0,0
518,-230,0,0,0,0,0,0,0,0,0,-1,1742,1254,0,0
525,-230,0,0,0,0,0,0,0,0,0,-1,1749,1254,0,0
532,-230,0,0,0,0,0,0,0,0,0,-1,1756,1254,0,0
539,-230,0,0,0,0,0,0,0,0,0,-1,1763,1254,0,0
546,-230,0,0,0,0,0,0,0,0,0,-1,1770,1254,0,0
553,-230,0,0,0,0,0,0,0,0,0,-1,1777,1254,0,0
560,-230,0,0,0,0,0,0,0,0,0,-1,1784,1254,0,0
567,-230,0,0,0,0,0,0,0,0,0,-1,1791,1254,0,0
574,-230,0,0,0,0,0,0,0,0,0,-1,1798,1254,0,0
581,-230,0,0,0,0,0,0,0,0,0,-1,1805,1254,0,0
588,-230,0,0,0,0,0,0,0,0,0,-1,1812,1254,0,0
595,-230,0,0,0,0,0,0,0,0,0,-1,1819,1254,0,0
602,-230,0,0,0,0,0,0,0,0,0,-1,1826,1254,0,0
609,-230,0,0,0,0,0,0,0,0,0,-1,1833,1254,0,0
616,-230,17.135,2.53503,-0.00455416,0.00645461,-0.00357679,0.00751465,-0.0056142,-1.28268,0.00760637,0.0348376,1840,1254,17.1351,-2.53501
623,-230,17.0529,2.50049,-0.000804435,0.00629615,-0.00255582,0.00712042,-0.00162871,-1.25882,0.00537277,0.0356646,1847,1254,17.0528,-2.50043
630,-230,16.952,2.51636,0.00251267,0.00549054,-0.00201011,0.0065031,0.00150011,-1.10417,0.00393194,0.0339692,1854,1254,16.952,-2.51639
637,-230,17.0427,2.47827,0.00388175,0.0043505,-0.00127485,0.00541234,0.00281991,-0.876305,0.00312573,0.0286366,1861,1254,17.0427,-2.47822
644,-230,17.0258,2.43286,0.00343263,0.00310935,-0.000511117,0.00380706,0.00273492,-0.63225,0.00226681,0.0213653,1868,1254,17.0258,-2.43283
651,-230,16.9609,2.33118,0.00235949,0.00194446,0.00012155,0.00239247,0.00191148,0.264932,0.00146128,0.0364027,1875,1254,16.9609,-2.33115
658,-230,17.0554,2.28918,0.00116686,0.000947379,0.000600498,0.00166757,0.000446678,0.69502,0.000996757,0.0412787,1882,1254,17.0555,-2.2892
665,-230,17.2968,2.26892,-1.99067e-05,0.000147076,0.000943901,0.00101117,-0.000884002,0.82951,0.001095,0.0431358,1889,1254,17.2967,-2.26897
672,-230,17.5023,2.48999,-0.00110675,-0.00051544,0.00116537,0.00039119,-0.00201338,0.909628,0.00148987,0.0452653,1896,1254,17.5023,-2.48998
679,-230,14.8691,4.51196,0,0,0,0,0,0,0,-1,1903,1254,14.8691,-4.51193
686,-230,14.7722,4.41187,-0.00324313,-0.00153345,0.00150903,-0.000653951,-0.00412263,1.0431,0.00255845,0.040702,1910,1254,14.7723,-4.4119
693,-230,14.6781,4.30444,-0.00413682,-0.00178572,0.00171783,-0.00087972,-0.00504282,1.08546,0.00311039,0.0186749,1917,1254,14.6781,-4.30445
700,-230,14.7311,4.18274,-0.00445482,-0.00177829,0.00186495,-0.000821126,-0.00541198,1.09661,0.00336781,0.0109667,1924,1254,14.7311,-4.18276
707,-230,14.7272,4.06714,-0.0042004,-0.0015085,0.00145816,-0.000870058,-0.00483884,1.1581,0.00297854,0.00923821,1931,1254,14.7272,-4.0671
714,-230,14.7365,3.93298,-0.00336011,-0.00125226,0.000796034,-0.000985418,-0.00362695,1.24735,0.00216556,0.0122891,1938,1254,14.7365,-3.93303
721,-230,14.7588,3.80457,-0.00233905,-0.000855756,0.000159495,-0.0008388,-0.00235601,1.46488,0.00137891,0.0132475,1945,1254,14.7588,-3.80461
728,-230,14.7408,3.69458,-0.00068623,3.82192e-05,-0.000613418,0.000388376,-0.00103639,-1.0521,0.000850475,0.0137244,1952,1254,14.7409,-3.69458
735,-230,14.7306,3.58728,0.00164318,0.00166792,-0.00146335,0.00311895,0.000192147,-0.789625,0.0020183,0.0129402,1959,1254,14.7306,-3.58722
742,-230,14.7173,3.46521,0.00466794,0.00309347,-0.00248148,0.00648406,0.00127734,-0.631797,0.0039661,0.00955472,1966,1254,14.7173,-3.46526
749,-230,14.7261,3.31458,0.00834837,0.0048773,-0.00376803,0.0107613,0.00246433,-0.569583,0.00651016,0.00927972,1973,1254,14.726,-3.31452
756,-230,14.7441,3.17065,0.0124087,0.00716359,-0.00495389,0.0153914,0.0041809,-0.541955,0.00918998,0.0127749,1980,1254,14.7442,-3.17069
763,-230,14.7513,3.00134,0.0178832,0.0101575,-0.00614597,0.0212795,0.00676123,-0.504835,0.0125548,0.0250744,1987,1254,14.7513,-3.00138
770,-230,14.8563,2.75232,0.0252053,0.0140163,-0.00725849,0.0287751,0.0104465,-0.457073,0.0168198,0.0410162,1994,1254,14.8564,-2.75228
777,-230,15.1421,1.93591,0,0,0,0,0,0,0,-1,2001,1254,15.1421,-1.93589
784,-230,15.5114,1.51135,0,0,0,0,0,0,0,-1,2008,1254,15.5113,-1.51141
791,-230,15.8677,1.05725,0,0,0,0,0,0,0,-1,2015,1254,15.8677,-1.05729
798,-230,0,0,0,0,0,0,0,0,0,-1,2022,1254,0,0
805,-230,0,0,0,0,0,0,0,0,0,-1,2029,1254,0,0
812,-230,0,0,0,0,0,0,0,0,0,-1,2036,1254,0,0
-700,-237,0,0,0,0,0,0,0,0,0,-1,524,1261,0,0
-693,-237,0,0,0,0,0,0,0,0,0,-1,531,1261,0,0
-686,-237,0,0,0,0,0,0,0,0,0,-1,538,1261,0,0
-679,-237,0,0,0,0,0,0,0,0,0,-1,545,1261,0,0
-672,-237,-9.32379,3.22681,0,0,0,0,0,0,0,-1,552,1261,-9.32377,-3.2268
-665,-237,-9.58954,2.67944,0,0,0,0,0,0,0,-1,559,1261,-9.58954,-2.67948
-658,-237,-9.91693,2.4519,0.0279572,-0.0523705,-0.032524,0.0394746,-0.0638878,-0.340339,0.0602286,0.0477982,566,1261,-9.91691,-2.45192
-651,-237,-10.4008,2.10901,0.0266907,-0.034086,-0.027078,0.0370046,-0.0443998,-0.363928,0.0470634,0.0479902,573,1261,-10.4008,-2.10904
-644,-237,-10.9758,1.88452,0.0234354,-0.0208305,-0.0217482,0.0323323,-0.0297274,-0.388315,0.0358407,0.049128,580,1261,-10.9758,-1.88451
-637,-237,-7.71973,0.939453,0,0,0,0,0,0,0,-1,587,1261,-7.71973,-0.939422
-630,-237,-7.81274,1.00037,0.0148976,-0.00520006,-0.0125478,0.0209244,-0.0112269,-0.447771,0.0188419,0.0444019,594,1261,-7.81276,-1.00035
-623,-237,-7.89929,1.05334,0.0108561,-0.00131546,-0.00901634,0.0156483,-0.0061077,-0.488533,0.0129572,0.0267472,601,1261,-7.89926,-1.05332
-616,-237,-7.93042,1.12024,0.00767884,0.000669986,-0.006267,0.0113547,-0.00300586,-0.530463,0.00874565,0.0128505,608,1261,-7.93044,-1.12028
-609,-237,-7.94855,1.27307,0.0057571,0.00228043,-0.00411245,0.00848352,-0.000445992,-0.585437,0.00581006,0.0157414,615,1261,-7.94857,-1.27309
-602,-237,-7.93854,1.40674,0.00462571,0.00337102,-0.00257892,0.00665249,0.00134424,-0.666086,0.00406175,0.0117512,622,1261,-7.93854,-1.40671
-595,-237,-7.95966,1.52966,0.00331195,0.0029993,-0.00164549,0.00480852,0.00150273,-0.73804,0.00284051,0.0142122,629,1261,-7.95966,-1.52961
-588,-237,-7.97235,1.67407,0.00179128,0.000970447,-0.000695179,0.00218815,0.000573575,-0.518741,0.00131012,0.0243674,636,1261,-7.97232,-1.67409
-581,-237,-7.97205,1.8512,0.00175287,-0.000115862,-0.00107231,0.00224078,-0.00060378,-0.427017,0.00173059,0.0237854,643,1261,-7.97208,-1.85118
-574,-237,-7.94824,1.99316,0.00183483,-0.000786543,-0.00128189,0.00235748,-0.0013092,-0.387146,0.0021456,0.01485,650,1261,-7.94825,-1.99318
-567,-237,-7.89667,2.16479,0.00130529,-0.000925389,-0.00160136,0.00214144,-0.00176155,-0.481214,0.00225695,0.0141411,657,1261,-7.89669,-2.1648
-560,-237,-7.76599,2.38635,0.00112568,-0.000794752,-0.00240667,0.00275662,-0.00242569,-0.595584,0.00299404,0.024883,664,1261,-7.76598,-2.38629
-553,-237,-7.60883,2.48523,0.000739132,8.22858e-05,-0.00335728,0.00378401,-0.00296259,-0.736641,0.00390477,0.0481602,671,1261,-7.60884,-2.48519
-546,-237,-7.40552,2.60925,0,0,0,0,0,0,0,-1,678,1261,-7.40553,-2.6093
-539,-237,-9.59259,0.415527,0,0,0,0,0,0,0,-1,685,1261,-9.59262,-0.415552
-532,-237,-10.3115,0.367798,0,0,0,0,0,0,0,-1,692,1261,-10.3115,-0.367773
-525,-237,-10.4235,0.469604,-0.00381297,0.00386459,-0.00541577,0.00666409,-0.00661248,-1.09371,0.00766525,0.0448431,699,1261,-10.4235,-0.469641
-518,-237,-10.5305,0.495728,-0.00488842,0.00545863,-0.00566542,0.00795729,-0.00738708,-1.15542,0.00886111,0.0429873,706,1261,-10.5305,-0.495787
-511,-237,-10.6655,0.62146,-0.00573196,0.00729723,-0.00545442,0.00927914,-0.00771387,-1.22227,0.00982478,0.0431576,713,1261,-10.6655,-0.621448
-504,-237,-10.5893,0.485229,-0.00567733,0.0093791,-0.00403388,0.0103917,-0.00668997,-1.32484,0.00993902,0.0408164,720,1261,-10.5893,-0.485204
-497,-237,-10.5229,0.434814,-0.00444576,0.0116886,-0.00065902,0.0117155,-0.00447263,-1.53004,0.00965299,0.0424077,727,1261,-10.523,-0.434875
-490,-237,0,0,0,0,0,0,0,0,0,-1,734,1261,0,0
-483,-237,0,0,0,0,0,0,0,0,0,-1,741,1261,0,0
-476,-237,0,0,0,0,0,0,0,0,0,-1,748,1261,0,0
-469,-237,0,0,0,0,0,0,0,0,0,-1,755,1261,0,0
-462,-237,0,0,0,0,0,0,0,0,0,-1,762,1261,0,0
-455,-237,0,0,0,0,0,0,0,0,0,-1,769,1261,0,0
-448,-237,0,0,0,0,0,0,0,0,0,-1,776,1261,0,0
-441,-237,0,0,0,0,0,0,0,0,0,-1,783,1261,0,0
-434,-237,0,0,0,0,0,0,0,0,0,-1,790,1261,0,0
-427,-237,0,0,0,0,0,0,0,0,0,-1,797,1261,0,0
-420,-237,0,0,0,0,0,0,0,0,0,-1,804,1261,0,0
-413,-237,0,0,0,0,0,0,0,0,0,-1,811,1261,0,0
-406,-237,0,0,0,0,0,0,0,0,0,-1,818,1261,0,0
-399,-237,0,0,0,0,0,0,0,0,0,-1,825,1261,0,0
-392,-237,0,0,0,0,0,0,0,0,0,-1,832,1261,0,0
-385,-237,0,0,0,0,0,0,0,0,0,-1,839,1261,0,0
-378,-237,0,0,0,0,0,0,0,0,0,-1,846,1261,0,0
-371,-237,0,0,0,0,0,0,0,0,0,-1,853,1261,0,0
-364,-237,0,0,0,0,0,0,0,0,0,-1,860,1261,0,0
-357,-237,0,0,0,0,0,0,0,0,0,-1,867,1261,0,0
-350,-237,0,0,0,0,0,0,0,0,0,-1,874,1261,0,0
-343,-237,0,0,0,0,0,0,0,0,0,-1,881,1261,0,0
-336,-237,0,0,0,0,0,0,0,0,0,-1,888,1261,0,0
-329,-237,0,0,0,0,0,0,0,0,0,-1,895,1261,0,0
-322,-237,0,0,0,0,0,0,0,0,0,-1,902,1261,0,0
-315,-237,0,0,0,0,0,0,0,0,0,-1,909,1261,0,0
-308,-237,0,0,0,0,0,0,0,0,0,-1,916,1261,0,0
-301,-237,0,0,0,0,0,0,0,0,0,-1,923,1261,0,0
-294,-237,0,0,0,0,0,0,0,0,0,-1,930,1261,0,0
-287,-237,0,0,0,0,0,0,0,0,0,-1,937,1261,0,0
-280,-237,0,0,0,0,0,0,0,0,0,-1,944,1261,0,0
-273,-237,0,0,0,0,0,0,0,0,0,-1,951,1261,0,0
-266,-237,0,0,0,0,0,0,0,0,0,-1,958,1261,0,0
-259,-237,0,0,0,0,0,0,0,0,0,-1,965,1261,0,0
-252,-237,0,0,0,0,0,0,0,0,0,-1,972,1261,0,0
-245,-237,0,0,0,0,0,0,0,0,0,-1,979,1261,0,0
-238,-237,0,0,0,0,0,0,0,0,0,-1,986,1261,0,0
-231,-237,0,0,0,0,0,0,0,0,0,-1,993,1261,0,0
-224,-237,0,0,0,0,0,0,0,0,0,-1,1000,1261,0,0
-217,-237,0,0,0,0,0,0,0,0,0,-1,1007,1261,0,0
-210,-237,0,0,0,0,0,0,0,0,0,-1,1014,1261,0,0
-203,-237,0,0,0,0,0,0,0,0,0,-1,1021,1261,0,0
-196,-237,0,0,0,0,0,0,0,0,0,-1,1028,1261,0,0
-189,-237,0,0,0,0,0,0,0,0,0,-1,1035,1261,0,0
-182,-237,0,0,0,0,0,0,0,0,0,-1,1042,1261,0,0
-175,-237,0,0,0,0,0,0,0,0,0,-1,1049,1261,0,0
-168,-237,0,0,0,0,0,0,0,0,0,-1,1056,1261,0,0
-161,-237,0,0,0,0,0,0,0,0,0,-1,1063,1261,0,0
-154,-237,0,0,0,0,0,0,0,0,0,-1,1070,1261,0,0
-147,-237,0,0,0,0,0,0,0,0,0,-1,1077,1261,0,0
-140,-237,0,0,0,0,0,0,0,0,0,-1,1084,1261,0,0
-133,-237,0,0,0,0,0,0,0,0,0,-1,1091,1261,0,0
-126,-237,0,0,0,0,0,0,0,0,0,-1,1098,1261,0,0
-119,-237,0,0,0,0,0,0,0,0,0,-1,1105,1261,0,0
-112,-237,0,0,0,0,0,0,0,0,0,-1,1112,1261,0,0
-105,-237,0,0,0,0,0,0,0,0,0,-1,1119,1261,0,0
-98,-237,0,0,0,0,0,0,0,0,0,-1,1126,1261,0,0
-91,-237,0,0,0,0,0,0,0,0,0,-1,1133,1261,0,0
-84,-237,0,0,0,0,0,0,0,0,0,-1,1140,1261,0,0
-77,-237,0,0,0,0,0,0,0,0,0,-1,1147,1261,0,0
-70,-237,0,0,0,0,0,0,0,0,0,-1,1154,1261,0,0
-63,-237,0,0,0,0,0,0,0,0,0,-1,1161,1261,0,0
-56,-237,0,0,0,0,0,0,0,0,0,-1,1168,1261,0,0
-49,-237,0,0,0,0,0,0,0,0,0,-1,1175,1261,0,0
-42,-237,0,0,0,0,0,0,0,0,0,-1,1182,1261,0,0
-35,-237,0,0,0,0,0,0,0,0,0,-1,1189,1261,0,0
-28,-237,0,0,0,0,0,0,0,0,0,-1,1196,1261,0,0
-21,-237,0,0,0,0,0,0,0,0,0,-1,1203,1261,0,0
-14,-237,0,0,0,0,0,0,0,0,0,-1,1210,1261,0,0
-7,-237,0,0,0,0,0,0,0,0,0,-1,1217,1261,0,0
0,-237,0,0,0,0,0,0,0,0,0,-1,1224,1261,0,0
7,-237,0,0,0,0,0,0,0,0,0,-1,1231,1261,0,0
14,-237,0,0,0,0,0,0,0,0,0,-1,1238,1261,0,0
21,-237,0,0,0,0,0,0,0,0,0,-1,1245,1261,0,0
28,-237,0,0,0,0,0,0,0,0,0,-1,1252,1261,0,0
35,-237,0,0,0,0,0,0,0,0,0,-1,1259,1261,0,0
42,-237,0,0,0,0,0,0,0,0,0,-1,1266,1261,0,0
49,-237,0,0,0,0,0,0,0,0,0,-1,1273,1261,0,0
56,-237,0,0,0,0,0,0,0,0,0,-1,1280,1261,0,0
63,-237,0,0,0,0,0,0,0,0,0,-1,1287,1261,0,0
70,-237,0,0,0,0,0,0,0,0,0,-1,1294,1261,0,0
77,-237,0,0,0,0,0,0,0,0,0,-1,1301,1261,0,0
84,-237,0,0,0,0,0,0,0,0,0,-1,1308,1261,0,0
91,-237,0,0,0,0,0,0,0,0,0,-1,1315,1261,0,0
98,-237,0,0,0,0,0,0,0,0,0,-1,1322,1261,0,0
105,-237,0,0,0,0,0,0,0,0,0,-1,1329,1261,0,0
112,-237,0,0,0,0,0,0,0,0,0,-1,1336,1261,0,0
119,-237,0,0,0,0,0,0,0,0,0,-1,1343,1261,0,0
126,-237,0,0,0,0,0,0,0,0,0,-1,1350,1261,0,0
133,-237,0,0,0,0,0,0,0,0,0,-1,1357,1261,0,0
140,-237,0,0,0,0,0,0,0,0,0,-1,1364,1261,0,0
147,-237,0,0,0,0,0,0,0,0,0,-1,1371,1261,0,0
154,-237,0,0,0,0,0,0,0,0,0,-1,1378,1261,0,0
161,-237,0,0,0,0,0,0,0,0,0,-1,1385,1261,0,0
168,-237,0,0,0,0,0,0,0,0,0,-1,1392,1261,0,0
175,-237,0,0,0,0,0,0,0,0,0,-1,1399,1261,0,0
182,-237,0,0,0,0,0,0,0,0,0,-1,1406,1261,0,0
189,-237,0,0,0,0,0,0,0,0,0,-1,1413,1261,0,0
196,-237,0,0,0,0,0,0,0,0,0,-1,1420,1261,0,0
203,-237,0,0,0,0,0,0,0,0,0,-1,1427,1261,0,0
210,-237,0,0,0,0,0,0,0,0,0,-1,1434,1261,0,0
217,-237,0,0,0,0,0,0,0,0,0,-1,1441,1261,0,0
224,-237,0,0,0,0,0,0,0,0,0,-1,1448,1261,0,0
231,-237,0,0,0,0,0,0,0,0,0,-1,1455,1261,0,0
238,-237,0,0,0,0,0,0,0,0,0,-1,1462,1261,0,0
245,-237,0,0,0,0,0,0,0,0,0,-1,1469,1261,0,0
252,-237,0,0,0,0,0,0,0,0,0,-1,1476,1261,0,0
259,-237,0,0,0,0,0,0,0,0,0,-1,1483,1261,0,0
266,-237,0,0,0,0,0,0,0,0,0,-1,1490,1261,0,0
273,-237,0,0,0,0,0,0,0,0,0,-1,1497,1261,0,0
280,-237,0,0,0,0,0,0,0,0,0,-1,1504,1261,0,0
287,-237,0,0,0,0,0,0,0,0,0,-1,1511,1261,0,0
294,-237,0,0,0,0,0,0,0,0,0,-1,1518,1261,0,0
301,-237,0,0,0,0,0,0,0,0,0,-1,1525,1261,0,0
308,-237,0,0,0,0,0,0,0,0,0,-1,1532,1261,0,0
315,-237,0,0,0,0,0,0,0,0,0,-1,1539,1261,0,0
322,-237,0,0,0,0,0,0,0,0,0,-1,1546,1261,0,0
329,-237,0,0,0,0,0,0,0,0,0,-1,1553,1261,0,0
336,-237,0,0,0,0,0,0,0,0,0,-1,1560,1261,0,0
343,-237,0,0,0,0,0,0,0,0,0,-1,1567,1261,0,0
350,-237,0,0,0,0,0,0,0,0,0,-1,1574,1261,0,0
357,-237,0,0,0,0,0,0,0,0,0,-1,1581,1261,0,0
364,-237,0,0,0,0,0,0,0,0,0,-1,1588,1261,0,0
371,-237,0,0,0,0,0,0,0,0,0,-1,1595,1261,0,0
378,-237,0,0,0,0,0,0,0,0,0,-1,1602,1261,0,0
385,-237,0,0,0,0,0,0,0,0,0,-1,1609,1261,0,0
392,-237,0,0,0,0,0,0,0,0,0,-1,1616,1261,0,0
399,-237,0,0,0,0,0,0,0,0,0,-1,1623,1261,0,0
406,-237,0,0,0,0,0,0,0,0,0,-1,1630,1261,0,0
413,-237,0,0,0,0,0,0,0,0,0,-1,1637,1261,0,0
420,-237,0,0,0,0,0,0,0,0,0,-1,1644,1261,0,0
427,-237,0,0,0,0,0,0,0,0,0,-1,1651,1261,0,0
434,-237,0,0,0,0,0,0,0,0,0,-1,1658,1261,0,0
441,-237,0,0,0,0,0,0,0,0,0,-1,1665,1261,0,0
448,-237,0,0,0,0,0,0,0,0,0,-1,1672,1261,0,0
455,-237,0,0,0,0,0,0,0,0,0,-1,1679,1261,0,0
462,-237,0,0,0,0,0,0,0,0,0,-1,1686,1261,0,0
469,-237,0,0,0,0,0,0,0,0,0,-1,1693,1261,0,0
476,-237,0,0,0,0,0,0,0,0,0,-1,1700,1261,0,0
483,-237,0,0,0,0,0,0,0,0,0,-1,1707,1261,0,0
490,-237,0,0,0,0,0,0,0,0,0,-1,1714,1261,0,0
497,-237,0,0,0,0,0,0,0,0,0,-1,1721,1261,0,0
504,-237,0,0,0,0,0,0,0,0,0,-1,1728,1261,0,0
511,-237,0,0,0,0,0,0,0,0,0,-1,1735,1261,0,0
518,-237,0,0,0,0,0,0,0,0,0,-1,1742,1261,0,0
525,-237,0,0,0,0,0,0,0,0,0,-1,1749,1261,0,0
532,-237,0,0,0,0,0,0,0,0,0,-1,1756,1261,0,0
539,-237,0,0,0,0,0,0,0,0,0,-1,1763,1261,0,0
546,-237,0,0,0,0,0,0,0,0,0,-1,1770,1261,0,0
553,-237,0,0,0,0,0,0,0,0,0,-1,1777,1261,0,0
560,-237,0,0,0,0,0,0,0,0,0,-1,1784,1261,0,0
567,-237,0,0,0,0,0,0,0,0,0,-1,1791,1261,0,0
574,-237,0,0,0,0,0,0,0,0,0,-1,1798,1261,0,0
581,-237,0,0,0,0,0,0,0,0,0,-1,1805,1261,0,0
588,-237,0,0,0,0,0,0,0,0,0,-1,1812,1261,0,0
595,-237,0,0,0,0,0,0,0,0,0,-1,1819,1261,0,0
602,-237,0,0,0,0,0,0,0,0,0,-1,1826,1261,0,0
609,-237,0,0,0,0,0,0,0,0,0,-1,1833,1261,0,0
616,-237,17.1013,2.43164,-0.00101713,0.00800717,-0.00270599,0.00875637,-0.00176633,-1.30069,0.00650677,0.0351029,1840,1261,17.1014,-2.4316
623,-237,17.1288,2.46033,0.00374113,0.00747019,-0.0013866,0.00792927,0.00328205,-1.25108,0.00460053,0.032638,1847,1261,17.1288,-2.46038
630,-237,17.0809,2.53003,0.00680405,0.00624492,-0.000486394,0.0070855,0.00596347,-0.524565,0.00439763,0.0273003,1854,1261,17.0809,-2.53005
637,-237,17.0105,2.43286,0.00723328,0.00479399,0.000372919,0.00728901,0.00473825,0.148367,0.00427102,0.021209,1861,1261,17.0105,-2.43285
644,-237,16.8944,2.31165,0.00600059,0.0033402,0.00106218,0.00637265,0.00296815,0.336918,0.00368212,0.0405872,1868,1261,16.8944,-2.31168
651,-237,16.7458,2.1134,0.00435701,0.00205594,0.00154456,0.00513246,0.00128049,0.465286,0.00308471,0.0492091,1875,1261,16.7458,-2.1134
658,-237,16.8589,2.15698,0.00272887,0.000964328,0.00184041,0.00388756,-0.000194359,0.561886,0.00265886,0.0447492,1882,1261,16.8589,-2.15693
665,-237,17.5706,2.23877,0.00119091,0.000148074,0.00197582,0.00271296,-0.00137397,0.65639,0.00240143,0.0455476,1889,1261,17.5706,-2.23882
672,-237,14.5033,4.30884,0,0,0,0,0,0,0,-1,1896,1261,14.5033,-4.30884
679,-237,14.6605,4.32678,-0.00161532,-0.00109259,0.00191416,0.000577966,-0.00328588,0.853251,0.00240649,0.0460038,1903,1261,14.6605,-4.32679
686,-237,14.6864,4.43237,-0.00294505,-0.00158101,0.00186547,-0.000276798,-0.00424926,0.960651,0.00274523,0.0286961,1910,1261,14.6864,-4.43234
693,-237,14.5557,4.32959,-0.0038881,-0.00178366,0.00192847,-0.000639032,-0.00503274,1.03514,0.00316373,0.0156994,1917,1261,14.5557,-4.32964
700,-237,14.5974,4.18726,-0.00407376,-0.00167424,0.00192406,-0.000606521,-0.00514148,1.06418,0.00324443,0.0109235,1924,1261,14.5974,-4.18721
707,-237,14.611,4.07898,-0.00361436,-0.00126736,0.00128951,-0.00069732,-0.0041844,1.15457,0.00258866,0.00955069,1931,1261,14.6109,-4.07892
714,-237,14.5999,3.95911,-0.00253286,-0.000969724,0.000434751,-0.000856944,-0.00264564,1.31698,0.00155872,0.0125463,1938,1261,14.5999,-3.95917
721,-237,14.6049,3.82959,-0.00138401,-0.000569186,-0.000338527,-0.000446895,-0.0015063,-1.22414,0.000893306,0.0151839,1945,1261,14.6049,-3.82955
728,-237,14.6298,3.71277,0.000326943,0.00021178,-0.0011964,0.00146715,-0.000928424,-0.761352,0.00139469,0.0144691,1952,1261,14.6297,-3.71277
735,-237,14.6353,3.58728,0.0027026,0.00170406,-0.00215708,0.00441743,-1.07819e-05,-0.671673,0.00294856,0.0176191,1959,1261,14.6352,-3.58722
742,-237,14.608,3.46155,0.00571719,0.00299123,-0.00321718,0.0078482,0.000860213,-0.585032,0.00497027,0.0127233,1966,1261,14.6081,-3.46158
749,-237,14.5886,3.33215,0.00945931,0.00463363,-0.00446874,0.012125,0.00196794,-0.537856,0.00751375,0.00913745,1973,1261,14.5886,-3.33213
756,-237,14.5901,3.15271,0.0137831,0.0067619,-0.0056872,0.016956,0.00358905,-0.508883,0.0103178,0.01351,1980,1261,14.59,-3.15273
763,-237,14.6237,2.94836,0.0195751,0.00962609,-0.00683591,0.0230549,0.0061463,-0.470859,0.0137857,0.029167,1987,1261,14.6237,-2.94837
770,-237,14.8917,2.59839,0.0272119,0.0134348,-0.00774309,0.0306871,0.00995957,-0.421867,0.0180771,0.0422362,1994,1261,14.8917,-2.59841
777,-237,15.1144,2.31702,0,0,0,0,0,0,0,-1,2001,1261,15.1144,-2.31704
784,-237,16.4843,1.18933,0.0495116,0.024555,-0.00772405,0.0517088,0.0223579,-0.277137,0.0299449,0.0448118,2008,1261,16.4843,-1.1893
791,-237,16.731,0.706665,0,0,0,0,0,0,0,-1,2015,1261,16.731,-0.706677
798,-237,0,0,0,0,0,0,0,0,0,-1,2022,1261,0,0
805,-237,0,0,0,0,0,0,0,0,0,-1,2029,1261,0,0
812,-237,0,0,0,0,0,0,0,0,0,-1,2036,1261,0,0
-700,-244,0,0,0,0,0,0,0,0,0,-1,524,1268,0,0
-693,-244,0,0,0,0,0,0,0,0,0,-1,531,1268,0,0
-686,-244,0,0,0,0,0,0,0,0,0,-1,538,1268,0,0
-679,-244,0,0,0,0,0,0,0,0,0,-1,545,1268,0,0
-672,-244,-9.09045,4.32629,0,0,0,0,0,0,0,-1,552,1268,-9.09047,-4.32625
-665,-244,-9.41437,3.71582,0.0198187,-0.0816642,-0.0441076,0.0363095,-0.098155,-0.357785,0.0803236,0.047716,559,1268,-9.41438,-3.71586
-658,-244,-9.81989,3.23718,0.0238025,-0.0536897,-0.0384493,0.0396422,-0.0695294,-0.390777,0.0638127,0.0451474,566,1268,-9.8199,-3.23722
-651,-244,-10.3511,2.73267,0.023398,-0.033963,-0.0319318,0.0376385,-0.0482035,-0.419494,0.0496859,0.045656,573,1268,-10.3511,-2.73263
-644,-244,-10.4695,2.09375,0.0207987,-0.0200225,-0.02557,0.0331053,-0.0323291,-0.448569,0.0377795,0.0454161,580,1268,-10.4695,-2.0938
-637,-244,-6.56671,0.787109,0.0171527,-0.0104096,-0.019726,0.0274346,-0.0206916,-0.480495,0.0278765,0.0443794,587,1268,-6.56672,-0.787058
-630,-244,-7.77368,1.15112,0.0132,-0.00411091,-0.0146244,0.0215384,-0.0124493,-0.518196,0.0198553,0.041313,594,1268,-7.77367,-1.15114
-623,-244,-7.75897,1.17432,0.00947173,-0.000339821,-0.0104057,0.0160701,-0.0069382,-0.565124,0.0136282,0.0299878,601,1268,-7.75896,-1.17435
-616,-244,-7.79987,1.12366,0.00643374,0.00151488,-0.00707713,0.0114666,-0.00351799,-0.618167,0.00904799,0.0155455,608,1268,-7.79984,-1.12365
-609,-244,-7.79211,1.26331,0.00464289,0.00298718,-0.00449614,0.00838675,-0.000756681,-0.694355,0.0058597,0.0141376,615,1268,-7.79212,-1.26332
-602,-244,-7.78821,1.40881,0.00367887,0.00380464,-0.00257867,0.00632119,0.00116232,-0.79759,0.00388508,0.0144432,622,1268,-7.78822,-1.40877
-595,-244,-7.79456,1.56384,0.00239544,0.00321602,-0.00125419,0.00412532,0.00148614,-0.943479,0.00241257,0.0145919,629,1268,-7.79458,-1.56381
-588,-244,-7.78815,1.73315,0.000812987,0.000947267,-5.68047e-06,0.000947507,0.000812747,-1.52859,0.000591887,0.0185951,636,1268,-7.78812,-1.73311
-581,-244,-7.79578,1.87573,0.000863931,-0.000369686,-0.000333048,0.000948103,-0.000453859,-0.247549,0.000826019,0.0172244,643,1268,-7.79579,-1.87571
-574,-244,-7.80554,2.0105,0.00112248,-0.00126854,-0.000546448,0.00124145,-0.0013875,-0.214365,0.00151861,0.0132335,650,1268,-7.80555,-2.01053
-567,-244,-7.79004,2.17566,0.000799732,-0.00146265,-0.00101335,0.00118725,-0.00185017,-0.365251,0.00176752,0.0102508,657,1268,-7.79005,-2.17568
-560,-244,-7.75787,2.34729,0.000873018,-0.00136106,-0.00203621,0.00207846,-0.00256651,-0.534519,0.0026867,0.0145264,664,1268,-7.75787,-2.34727
-553,-244,-7.62177,2.50098,0.000685269,-0.000412836,-0.00321003,0.00339286,-0.00312043,-0.700696,0.00376155,0.0376489,671,1268,-7.62178,-2.50092
-546,-244,-7.40637,2.61768,0,0,0,0,0,0,0,-1,678,1268,-7.40638,-2.61766
-539,-244,-8.66705,0.0211182,0,0,0,0,0,0,0,-1,685,1268,-8.66705,-0.0211652
-532,-244,-10.3285,0.429077,0,0,0,0,0,0,0,-1,692,1268,-10.3285,-0.429127
-525,-244,-10.4719,0.567993,-0.00410549,0.00464693,-0.00566365,0.0074281,-0.00688666,-1.11433,0.00826661,0.0454721,699,1268,-10.4719,-0.568037
-518,-244,-10.6586,0.675049,-0.00549566,0.00677767,-0.00596506,0.00919907,-0.00791707,-1.18519,0.00989124,0.0418326,706,1268,-10.6586,-0.675014
-511,-244,-10.8085,0.824829,-0.007053,0.00932639,-0.00571069,0.0111208,-0.00884744,-1.26634,0.0115536,0.0447952,713,1268,-10.8085,-0.824806
-504,-244,-10.5961,0.607178,-0.00841377,0.0122362,-0.00421193,0.0130623,-0.00923982,-1.37713,0.012939,0.0431625,720,1268,-10.5961,-0.607135
-497,-244,-10.4648,0.593262,-0.0092027,0.015387,-0.000516955,0.0153978,-0.00921357,-1.54979,0.0143581,0.0441773,727,1268,-10.4648,-0.593242
-490,-244,0,0,0,0,0,0,0,0,0,-1,734,1268,0,0
-483,-244,0,0,0,0,0,0,0,0,0,-1,741,1268,0,0
-476,-244,0,0,0,0,0,0,0,0,0,-1,748,1268,0,0
-469,-244,0,0,0,0,0,0,0,0,0,-1,755,1268,0,0
-462,-244,0,0,0,0,0,0,0,0,0,-1,762,1268,0,0
-455,-244,0,0,0,0,0,0,0,0,0,-1,769,1268,0,0
-448,-244,0,0,0,0,0,0,0,0,0,-1,776,1268,0,0
-441,-244,0,0,0,0,0,0,0,0,0,-1,783,1268,0,0
-434,-244,0,0,0,0,0,0,0,0,0,-1,790,1268,0,0
-427,-244,0,0,0,0,0,0,0,0,0,-1,797,1268,0,0
-420,-244,0,0,0,0,0,0,0,0,0,-1,804,1268,0,0
-413,-244,0,0,0,0,0,0,0,0,0,-1,811,1268,0,0
-406,-244,0,0,0,0,0,0,0,0,0,-1,818,1268,0,0
-399,-244,0,0,0,0,0,0,0,0,0,-1,825,1268,0,0
-392,-244,0,0,0,0,0,0,0,0,0,-1,832,1268,0,0
-385,-244,0,0,0,0,0,0,0,0,0,-1,839,1268,0,0
-378,-244,0,0,0,0,0,0,0,0,0,-1,846,1268,0,0
-371,-244,0,0,0,0,0,0,0,0,0,-1,853,1268,0,0
-364,-244,0,0,0,0,0,0,0,0,0,-1,860,1268,0,0
-357,-244,0,0,0,0,0,0,0,0,0,-1,867,1268,0,0
-350,-244,0,0,0,0,0,0,0,0,0,-1,874,1268,0,0
-343,-244,0,0,0,0,0,0,0,0,0,-1,881,1268,0,0
-336,-244,0,0,0,0,0,0,0,0,0,-1,888,1268,0,0
-329,-244,0,0,0,0,0,0,0,0,0,-1,895,1268,0,0
-322,-244,0,0,0,0,0,0,0,0,0,-1,902,1268,0,0
-315,-244,0,0,0,0,0,0,0,0,0,-1,909,1268,0,0
-308,-244,0,0,0,0,0,0,0,0,0,-1,916,1268,0,0
-301,-244,0,0,0,0,0,0,0,0,0,-1,923,1268,0,0
-294,-244,0,0,0,0,0,0,0,0,0,-1,930,1268,0,0
-287,-244,0,0,0,0,0,0,0,0,0,-1,937,1268,0,0
-280,-244,0,0,0,0,0,0,0,0,0,-1,944,1268,0,0
-273,-244,0,0,0,0,0,0,0,0,0,-1,951,1268,0,0
-266,-244,0,0,0,0,0,0,0,0,0,-1,958,1268,0,0
-259,-244,0,0,0,0,0,0,0,0,0,-1,965,1268,0,0
-252,-244,0,0,0,0,0,0,0,0,0,-1,972,1268,0,0
-245,-244,0,0,0,0,0,0,0,0,0,-1,979,1268,0,0
-238,-244,0,0,0,0,0,0,0,0,0,-1,986,1268,0,0
-231,-244,0,0,0,0,0,0,0,0,0,-1,993,1268,0,0
-224,-244,0,0,0,0,0,0,0,0,0,-1,1000,1268,0,0
-217,-244,0,0,0,0,0,0,0,0,0,-1,1007,1268,0,0
-210,-244,0,0,0,0,0,0,0,0,0,-1,1014,1268,0,0
-203,-244,0,0,0,0,0,0,0,0,0,-1,1021,1268,0,0
-196,-244,0,0,0,0,0,0,0,0,0,-1,1028,1268,0,0
-189,-244,0,0,0,0,0,0,0,0,0,-1,1035,1268,0,0
-182,-244,0,0,0,0,0,0,0,0,0,-1,1042,1268,0,0
-175,-244,0,0,0,0,0,0,0,0,0,-1,1049,1268,0,0
-168,-244,0,0,0,0,0,0,0,0,0,-1,1056,1268,0,0
-161,-244,0,0,0,0,0,0,0,0,0,-1,1063,1268,0,0
-154,-244,0,0,0,0,0,0,0,0,0,-1,1070,1268,0,0
-147,-244,0,0,0,0,0,0,0,0,0,-1,1077,1268,0,0
-140,-244,0,0,0,0,0,0,0,0,0,-1,1084,1268,0,0
-133,-244,0,0,0,0,0,0,0,0,0,-1,1091,1268,0,0
-126,-244,0,0,0,0,0,0,0,0,0,-1,1098,1268,0,0
-119,-244,0,0,0,0,0,0,0,0,0,-1,1105,1268,0,0
-112,-244,0,0,0,0,0,0,0,0,0,-1,1112,1268,0,0
-105,-244,0,0,0,0,0,0,0,0,0,-1,1119,1268,0,0
-98,-244,0,0,0,0,0,0,0,0,0,-1,1126,1268,0,0
-91,-244,0,0,0,0,0,0,0,0,0,-1,1133,1268,0,0
-84,-244,0,0,0,0,0,0,0,0,0,-1,1140,1268,0,0
-77,-244,0,0,0,0,0,0,0,0,0,-1,1147,1268,0,0
-70,-244,0,0,0,0,0,0,0,0,0,-1,1154,1268,0,0
-63,-244,0,0,0,0,0,0,0,0,0,-1,1161,1268,0,0
-56,-244,0,0,0,0,0,0,0,0,0,-1,1168,1268,0,0
-49,-244,0,0,0,0,0,0,0,0,0,-1,1175,1268,0,0
-42,-244,0,0,0,0,0,0,0,0,0,-1,1182,1268,0,0
-35,-244,0,0,0,0,0,0,0,0,0,-1,1189,1268,0,0
-28,-244,0,0,0,0,0,0,0,0,0,-1,1196,1268,0,0
-21,-244,0,0,0,0,0,0,0,0,0,-1,1203,1268,0,0
-14,-244,0,0,0,0,0,0,0,0,0,-1,1210,1268,0,0
-7,-244,0,0,0,0,0,0,0,0,0,-1,1217,1268,0,0
0,-244,0,0,0,0,0,0,0,0,0,-1,1224,1268,0,0
7,-244,0,0,0,0,0,0,0,0,0,-1,1231,1268,0,0
14,-244,0,0,0,0,0,0,0,0,0,-1,1238,1268,0,0
21,-244,0,0,0,0,0,0,0,0,0,-1,1245,1268,0,0
28,-244,0,0,0,0,0,0,0,0,0,-1,1252,1268,0,0
35,-244,0,0,0,0,0,0,0,0,0,-1,1259,1268,0,0
42,-244,0,0,0,0,0,0,0,0,0,-1,1266,1268,0,0
49,-244,0,0,0,0,0,0,0,0,0,-1,1273,1268,0,0
56,-244,0,0,0,0,0,0,0,0,0,-1,1280,1268,0,0
63,-244,0,0,0,0,0,0,0,0,0,-1,1287,1268,0,0
70,-244,0,0,0,0,0,0,0,0,0,-1,1294,1268,0,0
77,-244,0,0,0,0,0,0,0,0,0,-1,1301,1268,0,0
84,-244,0,0,0,0,0,0,0,0,0,-1,1308,1268,0,0
91,-244,0,0,0,0,0,0,0,0,0,-1,1315,1268,0,0
98,-244,0,0,0,0,0,0,0,0,0,-1,1322,1268,0,0
105,-244,0,0,0,0,0,0,0,0,0,-1,1329,1268,0,0
112,-244,0,0,0,0,0,0,0,0,0,-1,1336,1268,0,0
119,-244,0,0,0,0,0,0,0,0,0,-1,1343,1268,0,0
126,-244,0,0,0,0,0,0,0,0,0,-1,1350,1268,0,0
133,-244,0,0,0,0,0,0,0,0,0,-1,1357,1268,0,0
140,-244,0,0,0,0,0,0,0,0,0,-1,1364,1268,0,0
147,-244,0,0,0,0,0,0,0,0,0,-1,1371,1268,0,0
154,-244,0,0,0,0,0,0,0,0,0,-1,1378,1268,0,0
161,-244,0,0,0,0,0,0,0,0,0,-1,1385,1268,0,0
168,-244,0,0,0,0,0,0,0,0,0,-1,1392,1268,0,0
175,-244,0,0,0,0,0,0,0,0,0,-1,1399,1268,0,0
182,-244,0,0,0,0,0,0,0,0,0,-1,1406,1268,0,0
189,-244,0,0,0,0,0,0,0,0,0,-1,1413,1268,0,0
196,-244,0,0,0,0,0,0,0,0,0,-1,1420,1268,0,0
203,-244,0,0,0,0,0,0,0,0,0,-1,1427,1268,0,0
210,-244,0,0,0,0,0,0,0,0,0,-1,1434,1268,0,0
217,-244,0,0,0,0,0,0,0,0,0,-1,1441,1268,0,0
224,-244,0,0,0,0,0,0,0,0,0,-1,1448,1268,0,0
231,-244,0,0,0,0,0,0,0,0,0,-1,1455,1268,0,0
238,-244,0,0,0,0,0,0,0,0,0,-1,1462,1268,0,0
245,-244,0,0,0,0,0,0,0,0,0,-1,1469,1268,0,0
252,-244,0,0,0,0,0,0,0,0,0,-1,1476,1268,0,0
259,-244,0,0,0,0,0,0,0,0,0,-1,1483,1268,0,0
266,-244,0,0,0,0,0,0,0,0,0,-1,1490,1268,0,0
273,-244,0,0,0,0,0,0,0,0,0,-1,1497,1268,0,0
280,-244,0,0,0,0,0,0,0,0,0,-1,1504,1268,0,0
287,-244,0,0,0,0,0,0,0,0,0,-1,1511,1268,0,0
294,-244,0,0,0,0,0,0,0,0,0,-1,1518,1268,0,0
301,-244,0,0,0,0,0,0,0,0,0,-1,1525,1268,0,0
308,-244,0,0,0,0,0,0,0,0,0,-1,1532,1268,0,0
315,-244,0,0,0,0,0,0,0,0,0,-1,1539,1268,0,0
322,-244,0,0,0,0,0,0,0,0,0,-1,1546,1268,0,0
329,-244,0,0,0,0,0,0,0,0,0,-1,1553,1268,0,0
336,-244,0,0,0,0,0,0,0,0,0,-1,1560,1268,0,0
343,-244,0,0,0,0,0,0,0,0,0,-1,1567,1268,0,0
350,-244,0,0,0,0,0,0,0,0,0,-1,1574,1268,0,0
357,-244,0,0,0,0,0,0,0,0,0,-1,1581,1268,0,0
364,-244,0,0,0,0,0,0,0,0,0,-1,1588,1268,0,0
371,-244,0,0,0,0,0,0,0,0,0,-1,1595,1268,0,0
378,-244,0,0,0,0,0,0,0,0,0,-1,1602,1268,0,0
385,-244,0,0,0,0,0,0,0,0,0,-1,1609,1268,0,0
392,-244,0,0,0,0,0,0,0,0,0,-1,1616,1268,0,0
399,-244,0,0,0,0,0,0,0,0,0,-1,1623,1268,0,0
406,-244,0,0,0,0,0,0,0,0,0,-1,1630,1268,0,0
413,-244,0,0,0,0,0,0,0,0,0,-1,1637,1268,0,0
420,-244,0,0,0,0,0,0,0,0,0,-1,1644,1268,0,0
427,-244,0,0,0,0,0,0,0,0,0,-1,1651,1268,0,0
434,-244,0,0,0,0,0,0,0,0,0,-1,1658,1268,0,0
441,-244,0,0,0,0,0,0,0,0,0,-1,1665,1268,0,0
448,-244,0,0,0,0,0,0,0,0,0,-1,1672,1268,0,0
455,-244,0,0,0,0,0,0,0,0,0,-1,1679,1268,0,0
462,-244,0,0,0,0,0,0,0,0,0,-1,1686,1268,0,0
469,-244,0,0,0,0,0,0,0,0,0,-1,1693,1268,0,0
476,-244,0,0,0,0,0,0,0,0,0,-1,1700,1268,0,0
483,-244,0,0,0,0,0,0,0,0,0,-1,1707,1268,0,0
490,-244,0,0,0,0,0,0,0,0,0,-1,1714,1268,0,0
497,-244,0,0,0,0,0,0,0,0,0,-1,1721,1268,0,0
504,-244,0,0,0,0,0,0,0,0,0,-1,1728,1268,0,0
511,-244,0,0,0,0,0,0,0,0,0,-1,1735,1268,0,0
518,-244,0,0,0,0,0,0,0,0,0,-1,1742,1268,0,0
525,-244,0,0,0,0,0,0,0,0,0,-1,1749,1268,0,0
532,-244,0,0,0,0,0,0,0,0,0,-1,1756,1268,0,0
539,-244,0,0,0,0,0,0,0,0,0,-1,1763,1268,0,0
546,-244,0,0,0,0,0,0,0,0,0,-1,1770,1268,0,0
553,-244,0,0,0,0,0,0,0,0,0,-1,1777,1268,0,0
560,-244,0,0,0,0,0,0,0,0,0,-1,1784,1268,0,0
567,-244,0,0,0,0,0,0,0,0,0,-1,1791,1268,0,0
574,-244,0,0,0,0,0,0,0,0,0,-1,1798,1268,0,0
581,-244,0,0,0,0,0,0,0,0,0,-1,1805,1268,0,0
588,-244,0,0,0,0,0,0,0,0,0,-1,1812,1268,0,0
595,-244,0,0,0,0,0,0,0,0,0,-1,1819,1268,0,0
602,-244,0,0,0,0,0,0,0,0,0,-1,1826,1268,0,0
609,-244,0,0,0,0,0,0,0,0,0,-1,1833,1268,0,0
616,-244,17.0792,2.38098,0.00372964,0.00943128,-0.0019624,0.0100414,0.00311951,-1.26936,0.00593435,0.0330854,1840,1268,17.0792,-2.38094
623,-244,17.094,2.45105,0.00967665,0.00845743,-8.75959e-05,0.00968291,0.00845116,-0.0713572,0.00608638,0.0264659,1847,1268,17.094,-2.45107
630,-244,17.0586,2.50647,0.0123329,0.0068346,0.00124574,0.012602,0.00656552,0.212729,0.00727792,0.0241621,1854,1268,17.0586,-2.50644
637,-244,16.9733,2.33716,0.0117462,0.00513018,0.00219755,0.0124096,0.00446678,0.293184,0.00725779,0.0369306,1861,1268,16.9733,-2.33713
644,-244,16.8851,2.20154,0.00958934,0.00352582,0.00273924,0.0106435,0.00247163,0.367377,0.00643211,0.044436,1868,1268,16.8851,-2.20155
651,-244,16.5643,1.90417,0,0,0,0,0,0,0,-1,1875,1268,16.5643,-1.90412
658,-244,16.1942,2.3418,0,0,0,0,0,0,0,-1,1882,1268,16.1942,-2.3418
665,-244,17.77,2.25,0,0,0,0,0,0,0,-1,1889,1268,17.7701,-2.25005
672,-244,14.6257,4.38708,0,0,0,0,0,0,0,-1,1896,1268,14.6257,-4.38709
679,-244,14.5215,4.43884,-0.000867834,-0.00108636,0.00234186,0.00136731,-0.00332151,0.762087,0.00278436,0.0450661,1903,1268,14.5215,-4.43884
686,-244,14.5016,4.48413,-0.00259863,-0.00159733,0.00204712,9.4641e-06,-0.00420543,0.905326,0.00280678,0.0238457,1910,1268,14.5016,-4.48414
693,-244,14.4438,4.37146,-0.00354902,-0.00172416,0.00192245,-0.000508599,-0.00476458,1.00697,0.00302116,0.0112655,1917,1268,14.4439,-4.37146
700,-244,14.4541,4.20398,-0.00354601,-0.00148756,0.00172663,-0.000506673,-0.0045269,1.05417,0.00286402,0.00900897,1924,1268,14.4541,-4.204
707,-244,14.4807,4.07263,-0.00286632,-0.000956697,0.000870898,-0.000619174,-0.00320385,1.20106,0.00196234,0.0100162,1931,1268,14.4808,-4.07267
714,-244,14.4952,3.96069,-0.00157396,-0.000637546,-0.00015776,-0.000611683,-0.00159983,-1.4083,0.000932146,0.0110945,1938,1268,14.4952,-3.96075
721,-244,14.4662,3.83557,-0.000362166,-0.000258497,-0.0010393,0.000730264,-0.00135093,-0.810315,0.00121926,0.014094,1945,1268,14.4661,-3.8356
728,-244,14.464,3.69946,0.00131097,0.000373041,-0.00195214,0.00284968,-0.00116568,-0.667517,0.00238526,0.017861,1952,1268,14.464,-3.69945
735,-244,14.4644,3.56104,0.00359832,0.00163754,-0.00300775,0.00578143,-0.000545571,-0.627851,0.00404842,0.0214518,1959,1268,14.4644,-3.56106
742,-244,14.4825,3.43701,0.00649615,0.00263768,-0.00418592,0.00917602,-4.21931e-05,-0.569463,0.00613146,0.0144891,1966,1268,14.4825,-3.43695
749,-244,14.4587,3.3208,0.0101864,0.00391563,-0.00558583,0.0134567,0.000645385,-0.529655,0.00876391,0.0181249,1973,1268,14.4587,-3.32079
756,-244,14.4169,3.15454,0.014612,0.00559333,-0.00705034,0.0184717,0.00173359,-0.500886,0.0117792,0.0239755,1980,1268,14.4169,-3.15449
763,-244,14.5023,2.90955,0.0204811,0.00788979,-0.00848365,0.0247499,0.003621,-0.466188,0.0154352,0.0395382,1987,1268,14.5023,-2.90954
770,-244,14.4926,2.81641,0,0,0,0,0,0,0,-1,1994,1268,14.4925,-2.81644
777,-244,15.6533,-0.0124512,0,0,0,0,0,0,0,-1,2001,1268,15.6533,0.0123971
784,-244,15.8934,-0.762695,0,0,0,0,0,0,0,-1,2008,1268,15.8935,0.762661
791,-244,0,0,0,0,0,0,0,0,0,-1,2015,1268,0,0
798,-244,0,0,0,0,0,0,0,0,0,-1,2022,1268,0,0
805,-244,0,0,0,0,0,0,0,0,0,-1,2029,1268,0,0
812,-244,0,0,0,0,0,0,0,0,0,-1,2036,1268,0,0
-700,-251,0,0,0,0,0,0,0,0,0,-1,524,1275,0,0
-693,-251,0,0,0,0,0,0,0,0,0,-1,531,1275,0,0
-686,-251,0,0,0,0,0,0,0,0,0,-1,538,1275,0,0
-679,-251,0,0,0,0,0,0,0,0,0,-1,545,1275,0,0
-672,-251,0,0,0,0,0,0,0,0,0,-1,552,1275,0,0
-665,-251,-9.44855,4.91284,0.0137266,-0.0810329,-0.0504958,0.0355904,-0.102897,-0.408612,0.0830436,0.0432377,559,1275,-9.44855,-4.91278
-658,-251,-9.62769,4.15881,0.0187554,-0.0521737,-0.043509,0.0394225,-0.0728409,-0.443456,0.0657656,0.0489599,566,1275,-9.62768,-4.1588
-651,-251,-9.8595,3.40918,0.0191609,-0.032212,-0.035813,0.0375467,-0.0505978,-0.474297,0.0510759,0.0469791,573,1275,-9.85951,-3.40918
-644,-251,-6.58154,0.442383,0.0172747,-0.0183298,-0.0284755,0.0330548,-0.0341099,-0.506035,0.0387792,0.0441762,580,1275,-6.58152,-0.44234
-637,-251,-6.97711,0.401855,0.0142605,-0.00891632,-0.0218266,0.0273843,-0.02204,-0.541355,0.0285907,0.0413365,587,1275,-6.97711,-0.401907
-630,-251,-7.22961,0.494019,0.010869,-0.00287783,-0.0160699,0.0214737,-0.0134825,-0.583311,0.020357,0.0421144,594,1275,-7.22959,-0.493959
-623,-251,-7.4635,0.820679,0.007614,0.000623591,-0.0113264,0.0159722,-0.00773465,-0.635739,0.0139599,0.0349628,601,1275,-7.4635,-0.820658
-616,-251,-7.63232,1.08765,0.0049129,0.00226359,-0.00758981,0.0112928,-0.00411629,-0.699003,0.00921244,0.0196169,608,1275,-7.63232,-1.08762
-609,-251,-7.64282,1.25354,0.00336348,0.00359029,-0.00473968,0.00821792,-0.00126416,-0.797359,0.00594497,0.0197839,615,1275,-7.64282,-1.25356
-602,-251,-7.62415,1.40137,0.00264512,0.00416538,-0.00259391,0.00610824,0.000702262,-0.92793,0.00385943,0.0144927,622,1275,-7.62416,-1.40134
-595,-251,-7.61884,1.55945,0.00151235,0.00343747,-0.00105139,0.00390038,0.00104945,-1.15606,0.00233057,0.0121597,629,1275,-7.61885,-1.55945
-588,-251,-7.60291,1.724,4.36931e-05,0.00110361,0.000344031,0.00120548,-5.81816e-05,1.2829,0.000823734,0.0143346,636,1275,-7.60291,-1.72394
-581,-251,-7.62006,1.88452,0.000247679,-0.000333768,6.98271e-06,0.000247763,-0.000333852,0.0120069,0.000337019,0.0136721,643,1275,-7.62006,-1.88447
-574,-251,-7.63763,2.03674,0.000755599,-0.00141263,-0.000256846,0.00078561,-0.00144264,-0.116314,0.00130499,0.0127248,650,1275,-7.63764,-2.03671
-567,-251,-7.63824,2.18726,0.000689242,-0.00165876,-0.000881917,0.000983592,-0.00195311,-0.322136,0.00172603,0.0114624,657,1275,-7.63826,-2.18729
-560,-251,-7.61584,2.36584,0.0010274,-0.00162181,-0.00210709,0.00219165,-0.00278606,-0.504791,0.00288071,0.0131076,664,1275,-7.61582,-2.36585
-553,-251,-7.50604,2.38159,0.00102714,-0.000641437,-0.00346518,0.00375705,-0.00337135,-0.667265,0.00411759,0.0283137,671,1275,-7.50606,-2.38161
-546,-251,-7.35468,2.35107,6.66199e-05,0.00016799,-0.00418025,0.00429787,-0.00406326,-0.79146,0.00482793,0.0458573,678,1275,-7.3547,-2.35105
-539,-251,-7.86505,2.29175,0,0,0,0,0,0,0,-1,685,1275,-7.86508,-2.29172
-532,-251,-9.16803,0.959106,0,0,0,0,0,0,0,-1,692,1275,-9.16803,-0.959152
-525,-251,-10.4987,0.651245,0,0,0,0,0,0,0,-1,699,1275,-10.4987,-0.651244
-518,-251,-10.791,0.868896,-0.00607272,0.00837192,-0.00619168,0.0106627,-0.00836349,-1.21644,0.0110115,0.0446313,706,1275,-10.791,-0.868843
-511,-251,-10.6755,0.975342,-0.00839929,0.0115956,-0.00580951,0.013161,-0.00996468,-1.30759,0.0133941,0.0414273,713,1275,-10.6755,-0.975364
-504,-251,-10.3054,0.250732,-0.0111951,0.0153679,-0.00421199,0.0160198,-0.011847,-1.41725,0.0161489,0.0415842,720,1275,-10.3054,-0.250715
-497,-251,-10.4468,0.498901,-0.0142556,0.0195365,-0.000434411,0.019542,-0.0142612,-1.55794,0.0195955,0.0468092,727,1275,-10.4468,-0.498915
-490,-251,0,0,0,0,0,0,0,0,0,-1,734,1275,0,0
-483,-251,0,0,0,0,0,0,0,0,0,-1,741,1275,0,0
-476,-251,0,0,0,0,0,0,0,0,0,-1,748,1275,0,0
-469,-251,0,0,0,0,0,0,0,0,0,-1,755,1275,0,0
-462,-251,0,0,0,0,0,0,0,0,0,-1,762,1275,0,0
-455,-251,0,0,0,0,0,0,0,0,0,-1,769,1275,0,0
-448,-251,0,0,0,0,0,0,0,0,0,-1,776,1275,0,0
-441,-251,0,0,0,0,0,0,0,0,0,-1,783,1275,0,0
-434,-251,0,0,0,0,0,0,0,0,0,-1,790,1275,0,0
-427,-251,0,0,0,0,0,0,0,0,0,-1,797,1275,0,0
-420,-251,0,0,0,0,0,0,0,0,0,-1,804,1275,0,0
-413,-251,0,0,0,0,0,0,0,0,0,-1,811,1275,0,0
-406,-251,0,0,0,0,0,0,0,0,0,-1,818,1275,0,0
-399,-251,0,0,0,0,0,0,0,0,0,-1,825,1275,0,0
-392,-251,0,0,0,0,0,0,0,0,0,-1,832,1275,0,0
-385,-251,0,0,0,0,0,0,0,0,0,-1,839,1275,0,0
-378,-251,0,0,0,0,0,0,0,0,0,-1,846,1275,0,0
-371,-251,0,0,0,0,0,0,0,0,0,-1,853,1275,0,0
-364,-251,0,0,0,0,0,0,0,0,0,-1,860,1275,0,0
-357,-251,0,0,0,0,0,0,0,0,0,-1,867,1275,0,0
-350,-251,0,0,0,0,0,0,0,0,0,-1,874,1275,0,0
-343,-251,0,0,0,0,0,0,0,0,0,-1,881,1275,0,0
-336,-251,0,0,0,0,0,0,0,0,0,-1,888,1275,0,0
-329,-251,0,0,0,0,0,0,0,0,0,-1,895,1275,0,0
-322,-251,0,0,0,0,0,0,0,0,0,-1,902,1275,0,0
-315,-251,0,0,0,0,0,0,0,0,0,-1,909,1275,0,0
-308,-251,0,0,0,0,0,0,0,0,0,-1,916,1275,0,0
-301,-251,0,0,0,0,0,0,0,0,0,-1,923,1275,0,0
-294,-251,0,0,0,0,0,0,0,0,0,-1,930,1275,0,0
-287,-251,0,0,0,0,0,0,0,0,0,-1,937,1275,0,0
-280,-251,0,0,0,0,0,0,0,0,0,-1,944,1275,0,0
-273,-251,0,0,0,0,0,0,0,0,0,-1,951,1275,0,0
-266,-251,0,0,0,0,0,0,0,0,0,-1,958,1275,0,0
-259,-251,0,0,0,0,0,0,0,0,0,-1,965,1275,0,0
-252,-251,0,0,0,0,0,0,0,0,0,-1,972,1275,0,0
-245,-251,0,0,0,0,0,0,0,0,0,-1,979,1275,0,0
-238,-251,0,0,0,0,0,0,0,0,0,-1,986,1275,0,0
-231,-251,0,0,0,0,0,0,0,0,0,-1,993,1275,0,0
-224,-251,0,0,0,0,0,0,0,0,0,-1,1000,1275,0,0
-217,-251,0,0,0,0,0,0,0,0,0,-1,1007,1275,0,0
-210,-251,0,0,0,0,0,0,0,0,0,-1,1014,1275,0,0
-203,-251,0,0,0,0,0,0,0,0,0,-1,1021,1275,0,0
-196,-251,0,0,0,0,0,0,0,0,0,-1,1028,1275,0,0
-189,-251,0,0,0,0,0,0,0,0,0,-1,1035,1275,0,0
-182,-251,0,0,0,0,0,0,0,0,0,-1,1042,1275,0,0
-175,-251,0,0,0,0,0,0,0,0,0,-1,1049,1275,0,0
-168,-251,0,0,0,0,0,0,0,0,0,-1,1056,1275,0,0
-161,-251,0,0,0,0,0,0,0,0,0,-1,1063,1275,0,0
-154,-251,0,0,0,0,0,0,0,0,0,-1,1070,1275,0,0
-147,-251,0,0,0,0,0,0,0,0,0,-1,1077,1275,0,0
-140,-251,0,0,0,0,0,0,0,0,0,-1,1084,1275,0,0
-133,-251,0,0,0,0,0,0,0,0,0,-1,1091,1275,0,0
-126,-251,0,0,0,0,0,0,0,0,0,-1,1098,1275,0,0
-119,-251,0,0,0,0,0,0,0,0,0,-1,1105,1275,0,0
-112,-251,0,0,0,0,0,0,0,0,0,-1,1112,1275,0,0
-105,-251,0,0,0,0,0,0,0,0,0,-1,1119,1275,0,0
-98,-251,0,0,0,0,0,0,0,0,0,-1,1126,1275,0,0
-91,-251,0,0,0,0,0,0,0,0,0,-1,1133,1275,0,0
-84,-251,0,0,0,0,0,0,0,0,0,-1,1140,1275,0,0
-77,-251,0,0,0,0,0,0,0,0,0,-1,1147,1275,0,0
-70,-251,0,0,0,0,0,0,0,0,0,-1,1154,1275,0,0
-63,-251,0,0,0,0,0,0,0,0,0,-1,1161,1275,0,0
-56,-251,0,0,0,0,0,0,0,0,0,-1,1168,1275,0,0
-49,-251,0,0,0,0,0,0,0,0,0,-1,1175,1275,0,0
-42,-251,0,0,0,0,0,0,0,0,0,-1,1182,1275,0,0
-35,-251,0,0,0,0,0,0,0,0,0,-1,1189,1275,0,0
-28,-251,0,0,0,0,0,0,0,0,0,-1,1196,1275,0,0
-21,-251,0,0,0,0,0,0,0,0,0,-1,1203,1275,0,0
-14,-251,0,0,0,0,0,0,0,0,0,-1,1210,1275,0,0
-7,-251,0,0,0,0,0,0,0,0,0,-1,1217,1275,0,0
0,-251,0,0,0,0,0,0,0,0,0,-1,1224,1275,0,0
7,-251,0,0,0,0,0,0,0,0,0,-1,1231,1275,0,0
14,-251,0,0,0,0,0,0,0,0,0,-1,1238,1275,0,0
21,-251,0,0,0,0,0,0,0,0,0,-1,1245,1275,0,0
28,-251,0,0,0,0,0,0,0,0,0,-1,1252,1275,0,0
35,-251,0,0,0,0,0,0,0,0,0,-1,1259,1275,0,0
42,-251,0,0,0,0,0,0,0,0,0,-1,1266,1275,0,0
49,-251,0,0,0,0,0,0,0,0,0,-1,1273,1275,0,0
56,-251,0,0,0,0,0,0,0,0,0,-1,1280,1275,0,0
63,-251,0,0,0,0,0,0,0,0,0,-1,1287,1275,0,0
70,-251,0,0,0,0,0,0,0,0,0,-1,1294,1275,0,0
77,-251,0,0,0,0,0,0,0,0,0,-1,1301,1275,0,0
84,-251,0,0,0,0,0,0,0,0,0,-1,1308,1275,0,0
91,-251,0,0,0,0,0,0,0,0,0,-1,1315,1275,0,0
98,-251,0,0,0,0,0,0,0,0,0,-1,1322,1275,0,0
105,-251,0,0,0,0,0,0,0,0,0,-1,1329,1275,0,0
112,-251,0,0,0,0,0,0,0,0,0,-1,1336,1275,0,0
119,-251,0,0,0,0,0,0,0,0,0,-1,1343,1275,0,0
126,-251,0,0,0,0,0,0,0,0,0,-1,1350,1275,0,0
133,-251,0,0,0,0,0,0,0,0,0,-1,1357,1275,0,0
140,-251,0,0,0,0,0,0,0,0,0,-1,1364,1275,0,0
147,-251,0,0,0,0,0,0,0,0,0,-1,1371,1275,0,0
154,-251,0,0,0,0,0,0,0,0,0,-1,1378,1275,0,0
161,-251,0,0,0,0,0,0,0,0,0,-1,1385,1275,0,0
168,-251,0,0,0,0,0,0,0,0,0,-1,1392,1275,0,0
175,-251,0,0,0,0,0,0,0,0,0,-1,1399,1275,0,0
182,-251,0,0,0,0,0,0,0,0,0,-1,1406,1275,0,0
189,-251,0,0,0,0,0,0,0,0,0,-1,1413,1275,0,0
196,-251,0,0,0,0,0,0,0,0,0,-1,1420,1275,0,0
203,-251,0,0,0,0,0,0,0,0,0,-1,1427,1275,0,0
210,-251,0,0,0,0,0,0,0,0,0,-1,1434,1275,0,0
217,-251,0,0,0,0,0,0,0,0,0,-1,1441,1275,0,0
224,-251,0,0,0,0,0,0,0,0,0,-1,1448,1275,0,0
231,-251,0,0,0,0,0,0,0,0,0,-1,1455,1275,0,0
238,-251,0,0,0,0,0,0,0,0,0,-1,1462,1275,0,0
245,-251,0,0,0,0,0,0,0,0,0,-1,1469,1275,0,0
252,-251,0,0,0,0,0,0,0,0,0,-1,1476,1275,0,0
259,-251,0,0,0,0,0,0,0,0,0,-1,1483,1275,0,0
266,-251,0,0,0,0,0,0,0,0,0,-1,1490,1275,0,0
273,-251,0,0,0,0,0,0,0,0,0,-1,1497,1275,0,0
280,-251,0,0,0,0,0,0,0,0,0,-1,1504,1275,0,0
287,-251,0,0,0,0,0,0,0,0,0,-1,1511,1275,0,0
294,-251,0,0,0,0,0,0,0,0,0,-1,1518,1275,0,0
301,-251,0,0,0,0,0,0,0,0,0,-1,1525,1275,0,0
308,-251,0,0,0,0,0,0,0,0,0,-1,1532,1275,0,0
315,-251,0,0,0,0,0,0,0,0,0,-1,1539,1275,0,0
322,-251,0,0,0,0,0,0,0,0,0,-1,1546,1275,0,0
329,-251,0,0,0,0,0,0,0,0,0,-1,1553,1275,0,0
336,-251,0,0,0,0,0,0,0,0,0,-1,1560,1275,0,0
343,-251,0,0,0,0,0,0,0,0,0,-1,1567,1275,0,0
350,-251,0,0,0,0,0,0,0,0,0,-1,1574,1275,0,0
357,-251,0,0,0,0,0,0,0,0,0,-1,1581,1275,0,0
364,-251,0,0,0,0,0,0,0,0,0,-1,1588,1275,0,0
371,-251,0,0,0,0,0,0,0,0,0,-1,1595,1275,0,0
378,-251,0,0,0,0,0,0,0,0,0,-1,1602,1275,0,0
385,-251,0,0,0,0,0,0,0,0,0,-1,1609,1275,0,0
392,-251,0,0,0,0,0,0,0,0,0,-1,1616,1275,0,0
399,-251,0,0,0,0,0,0,0,0,0,-1,1623,1275,0,0
406,-251,0,0,0,0,0,0,0,0,0,-1,1630,1275,0,0
413,-251,0,0,0,0,0,0,0,0,0,-1,1637,1275,0,0
420,-251,0,0,0,0,0,0,0,0,0,-1,1644,1275,0,0
427,-251,0,0,0,0,0,0,0,0,0,-1,1651,1275,0,0
434,-251,0,0,0,0,0,0,0,0,0,-1,1658,1275,0,0
441,-251,0,0,0,0,0,0,0,0,0,-1,1665,1275,0,0
448,-251,0,0,0,0,0,0,0,0,0,-1,1672,1275,0,0
455,-251,0,0,0,0,0,0,0,0,0,-1,1679,1275,0,0
462,-251,0,0,0,0,0,0,0,0,0,-1,1686,1275,0,0
469,-251,0,0,0,0,0,0,0,0,0,-1,1693,1275,0,0
476,-251,0,0,0,0,0,0,0,0,0,-1,1700,1275,0,0
483,-251,0,0,0,0,0,0,0,0,0,-1,1707,1275,0,0
490,-251,0,0,0,0,0,0,0,0,0,-1,1714,1275,0,0
497,-251,0,0,0,0,0,0,0,0,0,-1,1721,1275,0,0
504,-251,0,0,0,0,0,0,0,0,0,-1,1728,1275,0,0
511,-251,0,0,0,0,0,0,0,0,0,-1,1735,1275,0,0
518,-251,0,0,0,0,0,0,0,0,0,-1,1742,1275,0,0
525,-251,0,0,0,0,0,0,0,0,0,-1,1749,1275,0,0
532,-251,0,0,0,0,0,0,0,0,0,-1,1756,1275,0,0
539,-251,0,0,0,0,0,0,0,0,0,-1,1763,1275,0,0
546,-251,0,0,0,0,0,0,0,0,0,-1,1770,1275,0,0
553,-251,0,0,0,0,0,0,0,0,0,-1,1777,1275,0,0
560,-251,0,0,0,0,0,0,0,0,0,-1,1784,1275,0,0
567,-251,0,0,0,0,0,0,0,0,0,-1,1791,1275,0,0
574,-251,0,0,0,0,0,0,0,0,0,-1,1798,1275,0,0
581,-251,0,0,0,0,0,0,0,0,0,-1,1805,1275,0,0
588,-251,0,0,0,0,0,0,0,0,0,-1,1812,1275,0,0
595,-251,0,0,0,0,0,0,0,0,0,-1,1819,1275,0,0
602,-251,0,0,0,0,0,0,0,0,0,-1,1826,1275,0,0
609,-251,17.0872,2.41077,-0.00104101,0.012004,-0.00369586,0.0129783,-0.00201533,-1.31304,0.00939632,0.029866,1833,1275,17.0872,-2.41081
616,-251,17.0671,2.42078,0.0111215,0.0106235,-0.000405263,0.0113481,0.0103969,-0.509927,0.00726911,0.0257403,1840,1275,17.0672,-2.42083
623,-251,17.05,2.45178,0.0175029,0.00928665,0.00179204,0.0178767,0.0089128,0.205668,0.0103212,0.0219956,1847,1275,17.0501,-2.45181
630,-251,17.0228,2.3999,0.0191422,0.00736178,0.00328193,0.0199948,0.00650917,0.254171,0.0117759,0.0335583,1854,1275,17.0228,-2.39985
637,-251,16.9591,2.20178,0.0172598,0.00546363,0.00415923,0.0185788,0.00414461,0.307099,0.0112615,0.0404633,1861,1275,16.9591,-2.20177
644,-251,17.1949,1.94727,0.0139299,0.00374846,0.00448913,0.0156265,0.00205186,0.361343,0.00980552,0.0461846,1868,1275,17.195,-1.94727
651,-251,17.486,1.922,0.0106004,0.00229617,0.00457707,0.0126281,0.000268514,0.417021,0.00833065,0.0470174,1875,1275,17.486,-1.92202
658,-251,17.6187,1.69482,0,0,0,0,0,0,0,-1,1882,1275,17.6186,-1.69485
665,-251,16.7271,2.5459,0,0,0,0,0,0,0,-1,1889,1275,16.727,-2.54589
672,-251,14.6704,4.26465,0,0,0,0,0,0,0,-1,1896,1275,14.6704,-4.26463
679,-251,14.4325,4.39331,-0.000195563,-0.00110997,0.00293404,0.00231669,-0.00362222,0.708107,0.00345633,0.0429814,1903,1275,14.4325,-4.39328
686,-251,14.3082,4.48694,-0.00249811,-0.00166349,0.00242127,0.000376166,-0.00453777,0.870736,0.00315805,0.0207009,1910,1275,14.3082,-4.48699
693,-251,14.3231,4.38672,-0.003438,-0.00170364,0.00211072,-0.000288905,-0.00485274,0.980309,0.00314329,0.00970917,1917,1275,14.3232,-4.3867
700,-251,14.3298,4.22607,-0.00320136,-0.00131708,0.00170209,-0.000313782,-0.00420466,1.03817,0.00270459,0.00889983,1924,1275,14.3299,-4.22605
707,-251,14.3613,4.08044,-0.0022808,-0.000655384,0.000615512,-0.000448607,-0.00248757,1.2467,0.00153092,0.0109236,1931,1275,14.3613,-4.08044
714,-251,14.3678,3.9646,-0.000749489,-0.000302383,-0.000610104,0.000123836,-0.00117571,-0.961011,0.000828176,0.0116116,1938,1275,14.3678,-3.96466
721,-251,14.3198,3.83093,0.000594729,9.49212e-05,-0.00166639,0.00202985,-0.0013402,-0.710969,0.00195924,0.0136971,1945,1275,14.3199,-3.83088
728,-251,14.2968,3.6759,0.00230404,0.000603345,-0.00269538,0.00428002,-0.00137264,-0.632598,0.00340442,0.0150106,1952,1275,14.2968,-3.67594
735,-251,14.3248,3.54761,0.00463316,0.00164783,-0.00389116,0.00730813,-0.00102713,-0.602252,0.00524807,0.0141738,1959,1275,14.3249,-3.54764
742,-251,14.3514,3.41736,0.00754601,0.00238259,-0.00525167,0.0108162,-0.00088764,-0.556946,0.00752418,0.0150888,1966,1275,14.3514,-3.41733
749,-251,14.334,3.2998,0.0113307,0.00328447,-0.00685805,0.0152586,-0.000643407,-0.520134,0.0103935,0.0230276,1973,1275,14.334,-3.29977
756,-251,14.2994,3.14526,0.0159987,0.00445299,-0.00858559,0.0205718,-0.000120086,-0.489421,0.0137547,0.0388944,1980,1275,14.2995,-3.14527
763,-251,14.3058,2.94519,0.0220802,0.00605781,-0.0102866,0.0271071,0.0010309,-0.454557,0.0177378,0.0485357,1987,1275,14.3058,-2.94524
770,-251,14.3186,2.78638,0,0,0,0,0,0,0,-1,1994,1275,14.3187,-2.78634
777,-251,15.3146,0.270996,0.0392315,0.0113342,-0.0124732,0.0439951,0.0065707,-0.364807,0.0274037,0.0477758,2001,1275,15.3146,-0.271003
784,-251,15.6715,-0.208862,0.0508337,0.0154397,-0.012115,0.0545833,0.0116901,-0.300151,0.0331857,0.0468008,2008,1275,15.6715,0.208828
791,-251,0,0,0,0,0,0,0,0,0,-1,2015,1275,0,0
798,-251,0,0,0,0,0,0,0,0,0,-1,2022,1275,0,0
805,-251,0,0,0,0,0,0,0,0,0,-1,2029,1275,0,0
812,-251,0,0,0,0,0,0,0,0,0,-1,2036,1275,0,0
-700,-258,0,0,0,0,0,0,0,0,0,-1,524,1282,0,0
-693,-258,0,0,0,0,0,0,0,0,0,-1,531,1282,0,0
-686,-258,0,0,0,0,0,0,0,0,0,-1,538,1282,0,0
-679,-258,0,0,0,0,0,0,0,0,0,-1,545,1282,0,0
-672,-258,0,0,0,0,0,0,0,0,0,-1,552,1282,0,0
-665,-258,-9.63641,5.99329,0,0,0,0,0,0,0,-1,559,1282,-9.63639,-5.99333
-658,-258,-9.54645,5.04333,0,0,0,0,0,0,0,-1,566,1282,-9.54644,-5.04335
-651,-258,-9.55096,3.82092,0,0,0,0,0,0,0,-1,573,1282,-9.55097,-3.82087
-644,-258,-6.93585,-0.210083,0,0,0,0,0,0,0,-1,580,1282,-6.93588,0.210068
-637,-258,-6.89081,-0.126709,0,0,0,0,0,0,0,-1,587,1282,-6.8908,0.126721
-630,-258,-7.04681,0.115112,0.00857756,-0.00100537,-0.0177637,0.0221846,-0.0146125,-0.653666,0.0213942,0.0464,594,1282,-7.0468,-0.115134
-623,-258,-7.19574,0.383423,0.00578955,0.00203302,-0.0124372,0.0164895,-0.00866694,-0.710455,0.0147563,0.041976,601,1282,-7.19572,-0.383362
-616,-258,-7.43359,0.987305,0.00346267,0.00330277,-0.00825241,0.0116355,-0.00487008,-0.780554,0.00979271,0.0307691,608,1282,-7.43359,-0.987291
-609,-258,-7.43781,1.23022,0.00220528,0.00435353,-0.00512365,0.00851443,-0.00195562,-0.888722,0.0064281,0.0172164,615,1282,-7.43783,-1.23026
-602,-258,-7.43604,1.39856,0.00174175,0.00458494,-0.00275387,0.0062625,6.41984e-05,-1.02367,0.00415376,0.0142606,622,1282,-7.43603,-1.39858
-595,-258,-7.45508,1.55566,0.000806324,0.00368538,-0.000983703,0.00398939,0.000502318,-1.27106,0.00250897,0.0113951,629,1282,-7.45505,-1.55563
-588,-258,-7.44,1.72327,-0.000418803,0.00137751,0.000490189,0.00150257,-0.000543862,1.321,0.00122396,0.0123815,636,1282,-7.44002,-1.72331
-581,-258,-7.45367,1.87512,1.38633e-05,-8.60968e-05,7.58181e-05,5.46929e-05,-0.000126926,0.493987,0.000107587,0.0143361,643,1282,-7.45365,-1.8751
-574,-258,-7.45258,2.02307,0.000794053,-0.00129126,-0.000303003,0.000837188,-0.00133439,-0.141409,0.00126467,0.0137186,650,1282,-7.45257,-2.02307
-567,-258,-7.46021,2.19141,0.00101346,-0.00161934,-0.00112498,0.00142868,-0.00203455,-0.353576,0.00200967,0.0137005,657,1282,-7.46021,-2.19138
-560,-258,-7.44775,2.36011,0.0015884,-0.00168766,-0.00254937,0.00298063,-0.00307988,-0.499848,0.00349919,0.01998,664,1282,-7.44777,-2.3601
-553,-258,-7.40027,2.49768,0.00171276,-0.000751637,-0.00406635,0.0047295,-0.00376838,-0.638284,0.0049167,0.0251736,671,1282,-7.40025,-2.49769
-546,-258,-7.38074,2.69446,0.000734349,0.000125348,-0.00487606,0.00531541,-0.00445571,-0.754215,0.00564864,0.0407985,678,1282,-7.38075,-2.69443
-539,-258,-7.61108,2.90527,-0.000863053,0.00160504,-0.00541292,0.0059228,-0.00518082,-0.897473,0.00641545,0.0494677,685,1282,-7.61106,-2.9053
-532,-258,-7.80176,3.35425,0,0,0,0,0,0,0,-1,692,1282,-7.80173,-3.35424
-525,-258,-11.2694,0.580322,0,0,0,0,0,0,0,-1,699,1282,-11.2694,-0.580271
-518,-258,-10.8995,1.00745,0,0,0,0,0,0,0,-1,706,1282,-10.8995,-1.00747
-511,-258,-10.5239,0.909546,-0.00932956,0.0135063,-0.00622584,0.0150934,-0.0109166,-1.32119,0.0150813,0.040952,713,1282,-10.5239,-0.909582
-504,-258,-10.0257,0.142578,-0.0131265,0.0181998,-0.00451794,0.0188383,-0.013765,-1.43039,0.0188994,0.0424454,720,1282,-10.0257,-0.142604
-497,-258,-10.3323,0.264526,-0.0177967,0.0237148,-0.000741011,0.023728,-0.0178099,-1.55295,0.0240629,0.0466251,727,1282,-10.3323,-0.26456
-490,-258,-10.5671,0.647461,-0.0243427,0.0289129,0.00635654,0.0296611,-0.0250909,1.45363,0.0316478,0.0468645,734,1282,-10.5671,-0.647504
-483,-258,0,0,0,0,0,0,0,0,0,-1,741,1282,0,0
-476,-258,0,0,0,0,0,0,0,0,0,-1,748,1282,0,0
-469,-258,0,0,0,0,0,0,0,0,0,-1,755,1282,0,0
-462,-258,0,0,0,0,0,0,0,0,0,-1,762,1282,0,0
-455,-258,0,0,0,0,0,0,0,0,0,-1,769,1282,0,0
-448,-258,0,0,0,0,0,0,0,0,0,-1,776,1282,0,0
-441,-258,0,0,0,0,0,0,0,0,0,-1,783,1282,0,0
-434,-258,0,0,0,0,0,0,0,0,0,-1,790,1282,0,0
-427,-258,0,0,0,0,0,0,0,0,0,-1,797,1282,0,0
-420,-258,0,0,0,0,0,0,0,0,0,-1,804,1282,0,0
-413,-258,0,0,0,0,0,0,0,0,0,-1,811,1282,0,0
-406,-258,0,0,0,0,0,0,0,0,0,-1,818,1282,0,0
-399,-258,0,0,0,0,0,0,0,0,0,-1,825,1282,0,0
-392,-258,0,0,0,0,0,0,0,0,0,-1,832,1282,0,0
-385,-258,0,0,0,0,0,0,0,0,0,-1,839,1282,0,0
-378,-258,0,0,0,0,0,0,0,0,0,-1,846,1282,0,0
-371,-258,0,0,0,0,0,0,0,0,0,-1,853,1282,0,0
-364,-258,0,0,0,0,0,0,0,0,0,-1,860,1282,0,0
-357,-258,0,0,0,0,0,0,0,0,0,-1,867,1282,0,0
-350,-258,0,0,0,0,0,0,0,0,0,-1,874,1282,0,0
-343,-258,0,0,0,0,0,0,0,0,0,-1,881,1282,0,0
-336,-258,0,0,0,0,0,0,0,0,0,-1,888,1282,0,0
-329,-258,0,0,0,0,0,0,0,0,0,-1,895,1282,0,0
-322,-258,0,0,0,0,0,0,0,0,0,-1,902,1282,0,0
-315,-258,0,0,0,0,0,0,0,0,0,-1,909,1282,0,0
-308,-258,0,0,0,0,0,0,0,0,0,-1,916,1282,0,0
-301,-258,0,0,0,0,0,0,0,0,0,-1,923,1282,0,0
-294,-258,0,0,0,0,0,0,0,0,0,-1,930,1282,0,0
-287,-258,0,0,0,0,0,0,0,0,0,-1,937,1282,0,0
-280,-258,0,0,0,0,0,0,0,0,0,-1,944,1282,0,0
-273,-258,0,0,0,0,0,0,0,0,0,-1,951,1282,0,0
-266,-258,0,0,0,0,0,0,0,0,0,-1,958,1282,0,0
-259,-258,0,0,0,0,0,0,0,0,0,-1,965,1282,0,0
-252,-258,0,0,0,0,0,0,0,0,0,-1,972,1282,0,0
-245,-258,0,0,0,0,0,0,0,0,0,-1,979,1282,0,0
-238,-258,0,0,0,0,0,0,0,0,0,-1,986,1282,0,0
-231,-258,0,0,0,0,0,0,0,0,0,-1,993,1282,0,0
-224,-258,0,0,0,0,0,0,0,0,0,-1,1000,1282,0,0
-217,-258,0,0,0,0,0,0,0,0,0,-1,1007,1282,0,0
-210,-258,0,0,0,0,0,0,0,0,0,-1,1014,1282,0,0
-203,-258,0,0,0,0,0,0,0,0,0,-1,1021,1282,0,0
-196,-258,0,0,0,0,0,0,0,0,0,-1,1028,1282,0,0
-189,-258,0,0,0,0,0,0,0,0,0,-1,1035,1282,0,0
-182,-258,0,0,0,0,0,0,0,0,0,-1,1042,1282,0,0
-175,-258,0,0,0,0,0,0,0,0,0,-1,1049,1282,0,0
-168,-258,0,0,0,0,0,0,0,0,0,-1,1056,1282,0,0
-161,-258,0,0,0,0,0,0,0,0,0,-1,1063,1282,0,0
-154,-258,0,0,0,0,0,0,0,0,0,-1,1070,1282,0,0
-147,-258,0,0,0,0,0,0,0,0,0,-1,1077,1282,0,0
-140,-258,0,0,0,0,0,0,0,0,0,-1,1084,1282,0,0
-133,-258,0,0,0,0,0,0,0,0,0,-1,1091,1282,0,0
-126,-258,0,0,0,0,0,0,0,0,0,-1,1098,1282,0,0
-119,-258,0,0,0,0,0,0,0,0,0,-1,1105,1282,0,0
-112,-258,0,0,0,0,0,0,0,0,0,-1,1112,1282,0,0
-105,-258,0,0,0,0,0,0,0,0,0,-1,1119,1282,0,0
-98,-258,0,0,0,0,0,0,0,0,0,-1,1126,1282,0,0
-91,-258,0,0,0,0,0,0,0,0,0,-1,1133,1282,0,0
-84,-258,0,0,0,0,0,0,0,0,0,-1,1140,1282,0,0
-77,-258,0,0,0,0,0,0,0,0,0,-1,1147,1282,0,0
-70,-258,0,0,0,0,0,0,0,0,0,-1,1154,1282,0,0
-63,-258,0,0,0,0,0,0,0,0,0,-1,1161,1282,0,0
-56,-258,0,0,0,0,0,0,0,0,0,-1,1168,1282,0,0
-49,-258,0,0,0,0,0,0,0,0,0,-1,1175,1282,0,0
-42,-258,0,0,0,0,0,0,0,0,0,-1,1182,1282,0,0
-35,-258,0,0,0,0,0,0,0,0,0,-1,1189,1282,0,0
-28,-258,0,0,0,0,0,0,0,0,0,-1,1196,1282,0,0
-21,-258,0,0,0,0,0,0,0,0,0,-1,1203,1282,0,0
-14,-258,0,0,0,0,0,0,0,0,0,-1,1210,1282,0,0
-7,-258,0,0,0,0,0,0,0,0,0,-1,1217,1282,0,0
0,-258,0,0,0,0,0,0,0,0,0,-1,1224,1282,0,0
7,-258,0,0,0,0,0,0,0,0,0,-1,1231,1282,0,0
14,-258,0,0,0,0,0,0,0,0,0,-1,1238,1282,0,0
21,-258,0,0,0,0,0,0,0,0,0,-1,1245,1282,0,0
28,-258,0,0,0,0,0,0,0,0,0,-1,1252,1282,0,0
35,-258,0,0,0,0,0,0,0,0,0,-1,1259,1282,0,0
42,-258,0,0,0,0,0,0,0,0,0,-1,1266,1282,0,0
49,-258,0,0,0,0,0,0,0,0,0,-1,1273,1282,0,0
56,-258,0,0,0,0,0,0,0,0,0,-1,1280,1282,0,0
63,-258,0,0,0,0,0,0,0,0,0,-1,1287,1282,0,0
70,-258,0,0,0,0,0,0,0,0,0,-1,1294,1282,0,0
77,-258,0,0,0,0,0,0,0,0,0,-1,1301,1282,0,0
84,-258,0,0,0,0,0,0,0,0,0,-1,1308,1282,0,0
91,-258,0,0,0,0,0,0,0,0,0,-1,1315,1282,0,0
98,-258,0,0,0,0,0,0,0,0,0,-1,1322,1282,0,0
105,-258,0,0,0,0,0,0,0,0,0,-1,1329,1282,0,0
112,-258,0,0,0,0,0,0,0,0,0,-1,1336,1282,0,0
119,-258,0,0,0,0,0,0,0,0,0,-1,1343,1282,0,0
126,-258,0,0,0,0,0,0,0,0,0,-1,1350,1282,0,0
133,-258,0,0,0,0,0,0,0,0,0,-1,1357,1282,0,0
140,-258,0,0,0,0,0,0,0,0,0,-1,1364,1282,0,0
147,-258,0,0,0,0,0,0,0,0,0,-1,1371,1282,0,0
154,-258,0,0,0,0,0,0,0,0,0,-1,1378,1282,0,0
161,-258,0,0,0,0,0,0,0,0,0,-1,1385,1282,0,0
168,-258,0,0,0,0,0,0,0,0,0,-1,1392,1282,0,0
175,-258,0,0,0,0,0,0,0,0,0,-1,1399,1282,0,0
182,-258,0,0,0,0,0,0,0,0,0,-1,1406,1282,0,0
189,-258,0,0,0,0,0,0,0,0,0,-1,1413,1282,0,0
196,-258,0,0,0,0,0,0,0,0,0,-1,1420,1282,0,0
203,-258,0,0,0,0,0,0,0,0,0,-1,1427,1282,0,0
210,-258,0,0,0,0,0,0,0,0,0,-1,1434,1282,0,0
217,-258,0,0,0,0,0,0,0,0,0,-1,1441,1282,0,0
224,-258,0,0,0,0,0,0,0,0,0,-1,1448,1282,0,0
231,-258,0,0,0,0,0,0,0,0,0,-1,1455,1282,0,0
238,-258,0,0,0,0,0,0,0,0,0,-1,1462,1282,0,0
245,-258,0,0,0,0,0,0,0,0,0,-1,1469,1282,0,0
252,-258,0,0,0,0,0,0,0,0,0,-1,1476,1282,0,0
259,-258,0,0,0,0,0,0,0,0,0,-1,1483,1282,0,0
266,-258,0,0,0,0,0,0,0,0,0,-1,1490,1282,0,0
273,-258,0,0,0,0,0,0,0,0,0,-1,1497,1282,0,0
280,-258,0,0,0,0,0,0,0,0,0,-1,1504,1282,0,0
287,-258,0,0,0,0,0,0,0,0,0,-1,1511,1282,0,0
294,-258,0,0,0,0,0,0,0,0,0,-1,1518,1282,0,0
301,-258,0,0,0,0,0,0,0,0,0,-1,1525,1282,0,0
308,-258,0,0,0,0,0,0,0,0,0,-1,1532,1282,0,0
315,-258,0,0,0,0,0,0,0,0,0,-1,1539,1282,0,0
322,-258,0,0,0,0,0,0,0,0,0,-1,1546,1282,0,0
329,-258,0,0,0,0,0,0,0,0,0,-1,1553,1282,0,0
336,-258,0,0,0,0,0,0,0,0,0,-1,1560,1282,0,0
343,-258,0,0,0,0,0,0,0,0,0,-1,1567,1282,0,0
350,-258,0,0,0,0,0,0,0,0,0,-1,1574,1282,0,0
357,-258,0,0,0,0,0,0,0,0,0,-1,1581,1282,0,0
364,-258,0,0,0,0,0,0,0,0,0,-1,1588,1282,0,0
371,-258,0,0,0,0,0,0,0,0,0,-1,1595,1282,0,0
378,-258,0,0,0,0,0,0,0,0,0,-1,1602,1282,0,0
385,-258,0,0,0,0,0,0,0,0,0,-1,1609,1282,0,0
392,-258,0,0,0,0,0,0,0,0,0,-1,1616,1282,0,0
399,-258,0,0,0,0,0,0,0,0,0,-1,1623,1282,0,0
406,-258,0,0,0,0,0,0,0,0,0,-1,1630,1282,0,0
413,-258,0,0,0,0,0,0,0,0,0,-1,1637,1282,0,0
420,-258,0,0,0,0,0,0,0,0,0,-1,1644,1282,0,0
427,-258,0,0,0,0,0,0,0,0,0,-1,1651,1282,0,0
434,-258,0,0,0,0,0,0,0,0,0,-1,1658,1282,0,0
441,-258,0,0,0,0,0,0,0,0,0,-1,1665,1282,0,0
448,-258,0,0,0,0,0,0,0,0,0,-1,1672,1282,0,0
455,-258,0,0,0,0,0,0,0,0,0,-1,1679,1282,0,0
462,-258,0,0,0,0,0,0,0,0,0,-1,1686,1282,0,0
469,-258,0,0,0,0,0,0,0,0,0,-1,1693,1282,0,0
476,-258,0,0,0,0,0,0,0,0,0,-1,1700,1282,0,0
483,-258,0,0,0,0,0,0,0,0,0,-1,1707,1282,0,0
490,-258,0,0,0,0,0,0,0,0,0,-1,1714,1282,0,0
497,-258,0,0,0,0,0,0,0,0,0,-1,1721,1282,0,0
504,-258,0,0,0,0,0,0,0,0,0,-1,1728,1282,0,0
511,-258,0,0,0,0,0,0,0,0,0,-1,1735,1282,0,0
518,-258,0,0,0,0,0,0,0,0,0,-1,1742,1282,0,0
525,-258,0,0,0,0,0,0,0,0,0,-1,1749,1282,0,0
532,-258,0,0,0,0,0,0,0,0,0,-1,1756,1282,0,0
539,-258,0,0,0,0,0,0,0,0,0,-1,1763,1282,0,0
546,-258,0,0,0,0,0,0,0,0,0,-1,1770,1282,0,0
553,-258,0,0,0,0,0,0,0,0,0,-1,1777,1282,0,0
560,-258,0,0,0,0,0,0,0,0,0,-1,1784,1282,0,0
567,-258,0,0,0,0,0,0,0,0,0,-1,1791,1282,0,0
574,-258,0,0,0,0,0,0,0,0,0,-1,1798,1282,0,0
581,-258,0,0,0,0,0,0,0,0,0,-1,1805,1282,0,0
588,-258,0,0,0,0,0,0,0,0,0,-1,1812,1282,0,0
595,-258,0,0,0,0,0,0,0,0,0,-1,1819,1282,0,0
602,-258,0,0,0,0,0,0,0,0,0,-1,1826,1282,0,0
609,-258,17.0474,2.45142,0.00397699,0.013614,-0.00157049,0.0138635,0.00372752,-1.41326,0.00828426,0.0251941,1833,1282,17.0473,-2.45143
616,-258,17.0054,2.43945,0.0160457,0.0121261,0.00202586,0.0169045,0.0112672,0.400991,0.00993863,0.0229569,1840,1282,17.0053,-2.43947
623,-258,16.959,2.40076,0.0215708,0.0104403,0.00436063,0.0230757,0.00893536,0.332312,0.0134353,0.0311157,1847,1282,16.959,-2.40081
630,-258,16.9633,2.2832,0.0220517,0.00821686,0.00579154,0.0241561,0.0061125,0.348519,0.0145025,0.0398347,1854,1282,16.9632,-2.28317
637,-258,16.7917,2.13696,0.019377,0.00610988,0.00648032,0.022017,0.00346989,0.386857,0.013669,0.0433187,1861,1282,16.7918,-2.13697
644,-258,16.7142,2.04919,0.0154963,0.00423942,0.00657303,0.0185214,0.0012143,0.431331,0.0119634,0.0469088,1868,1282,16.7143,-2.04918
651,-258,17.6365,2.31604,0.0118497,0.00267876,0.00644393,0.0151732,-0.000644665,0.476164,0.010337,0.0467821,1875,1282,17.6365,-2.31608
658,-258,17.0386,2.59314,0.00862531,0.00124129,0.00614954,0.012106,-0.00223941,0.515052,0.00891144,0.0484839,1882,1282,17.0386,-2.59309
665,-258,16.4344,2.67908,0,0,0,0,0,0,0,-1,1889,1282,16.4345,-2.67906
672,-258,14.4978,4.44019,0,0,0,0,0,0,0,-1,1896,1282,14.4978,-4.44024
679,-258,14.2418,4.54211,-0.000110561,-0.00111719,0.0039236,0.00334187,-0.00456962,0.721607,0.004586,0.0355522,1903,1282,14.2418,-4.54209
686,-258,14.1586,4.52295,-0.00290066,-0.00169486,0.00319363,0.000952282,-0.0055478,0.878692,0.00405342,0.0202249,1910,1282,14.1586,-4.523
693,-258,14.2064,4.37256,-0.0037829,-0.00160848,0.00266918,0.000186421,-0.0055778,0.978799,0.0037822,0.00967078,1917,1282,14.2064,-4.3725
700,-258,14.2047,4.22144,-0.00325038,-0.00103506,0.00199646,0.000140427,-0.00442586,1.03866,0.00299848,0.00901623,1924,1282,14.2047,-4.22138
707,-258,14.2264,4.07898,-0.00203325,-0.000177606,0.000584973,-8.5932e-06,-0.00220227,1.28953,0.00146532,0.0105686,1931,1282,14.2265,-4.07897
714,-258,14.2131,3.95947,-0.000184456,0.000282366,-0.00092727,0.00100515,-0.000907241,-0.908696,0.0011046,0.00999966,1938,1282,14.2131,-3.95948
721,-258,14.1849,3.82019,0.0014146,0.000795964,-0.00227866,0.00340484,-0.00119427,-0.717938,0.00275564,0.0114923,1945,1282,14.1849,-3.82017
728,-258,14.1885,3.68457,0.00325191,0.00132715,-0.00353791,0.005956,-0.00137694,-0.652601,0.00450042,0.0109755,1952,1282,14.1885,-3.68451
735,-258,14.2136,3.57092,0.00568788,0.00229392,-0.00499146,0.00926294,-0.00128113,-0.621539,0.00664364,0.0131669,1959,1282,14.2137,-3.57092
742,-258,14.2332,3.4585,0.00864193,0.00290493,-0.00667673,0.0130403,-0.00149341,-0.582507,0.00923167,0.0158743,1966,1282,14.2331,-3.45846
749,-258,14.1825,3.32263,0.0124921,0.00356992,-0.00858639,0.0177072,-0.00164511,-0.545814,0.0123896,0.0281573,1973,1282,14.1825,-3.32265
756,-258,14.0117,3.1814,0.0173214,0.00431345,-0.0106417,0.0232893,-0.00165443,-0.511099,0.016106,0.0411789,1980,1282,14.0118,-3.1814
763,-258,13.7306,3.12463,0.0234805,0.00522607,-0.0126471,0.0299499,-0.00124336,-0.472833,0.0203937,0.0461452,1987,1282,13.7306,-3.12459
770,-258,14.5382,0.821167,0.0310671,0.00644764,-0.0142909,0.037619,-0.000104172,-0.429868,0.0251141,0.0455189,1994,1282,14.5382,-0.821155
777,-258,14.8611,0.547607,0.0402153,0.00816724,-0.0151383,0.0462352,0.0021473,-0.378491,0.0301332,0.0447502,2001,1282,14.8611,-0.547579
784,-258,15.1421,0.168457,0.0511802,0.0106707,-0.0145474,0.055863,0.0059879,-0.311425,0.0354152,0.0441329,2008,1282,15.1421,-0.168464
791,-258,0,0,0,0,0,0,0,0,0,-1,2015,1282,0,0
798,-258,0,0,0,0,0,0,0,0,0,-1,2022,1282,0,0
805,-258,0,0,0,0,0,0,0,0,0,-1,2029,1282,0,0
812,-258,0,0,0,0,0,0,0,0,0,-1,2036,1282,0,0
-700,-265,0,0,0,0,0,0,0,0,0,-1,524,1289,0,0
-693,-265,0,0,0,0,0,0,0,0,0,-1,531,1289,0,0
-686,-265,0,0,0,0,0,0,0,0,0,-1,538,1289,0,0
-679,-265,0,0,0,0,0,0,0,0,0,-1,545,1289,0,0
-672,-265,0,0,0,0,0,0,0,0,0,-1,552,1289,0,0
-665,-265,-6.45416,-0.464355,0,0,0,0,0,0,0,-1,559,1289,-6.45415,0.464347
-658,-265,-6.61139,-0.702637,0,0,0,0,0,0,0,-1,566,1289,-6.61139,0.702643
-651,-265,-6.76862,-0.940918,0,0,0,0,0,0,0,-1,573,1289,-6.76863,0.940939
-644,-265,-7.73608,-0.621826,0,0,0,0,0,0,0,-1,580,1289,-7.73606,0.621799
-637,-265,-7.3363,-0.359619,0.00787277,-0.00790311,-0.0252619,0.0264496,-0.02648,-0.634071,0.0305589,0.0459001,587,1289,-7.33628,0.359633
-630,-265,-6.93555,-0.24292,0.00558157,-0.00261101,-0.0183393,0.0202765,-0.0173059,-0.675521,0.0217208,0.0487927,594,1289,-6.93555,0.242909
-623,-265,-6.98419,-0.0274658,0,0,0,0,0,0,0,-1,601,1289,-6.9842,0.0274485
-616,-265,-7.15192,0.755615,0.00152877,0.00178659,-0.00829672,0.0099554,-0.00664004,-0.793166,0.0096449,0.0347162,608,1289,-7.15194,-0.7556
-609,-265,-7.26355,1.24377,0.000641364,0.00301468,-0.00503428,0.00700027,-0.00334423,-0.901143,0.00609547,0.0168193,615,1289,-7.26357,-1.24382
-602,-265,-7.28668,1.39697,0.000480228,0.00338348,-0.00259121,0.00490197,-0.00103826,-1.04072,0.00366344,0.0148453,622,1289,-7.28669,-1.39695
-595,-265,-7.29901,1.57422,-0.00010822,0.00278424,-0.000783944,0.00298305,-0.000307027,-1.32243,0.00209854,0.0124447,629,1289,-7.29902,-1.57416
-588,-265,-7.27734,1.73413,-0.000926857,0.000921294,0.000639219,0.00112084,-0.0011264,1.26822,0.00129744,0.0113293,636,1289,-7.27733,-1.73414
-581,-265,-7.27911,1.896,-0.000254777,-0.000238478,0.000211795,-3.46759e-05,-0.000458579,0.804627,0.000294841,0.0134575,643,1289,-7.2791,-1.89603
-574,-265,-7.29413,2.0752,0.000770946,-0.00127691,-0.000211063,0.000792473,-0.00129844,-0.101641,0.00121891,0.0143488,650,1289,-7.29411,-2.07514
-567,-265,-7.32709,2.23889,0.00127028,-0.00161689,-0.00112808,0.00165877,-0.00200538,-0.331661,0.00211865,0.0196718,657,1289,-7.32709,-2.23883
-560,-265,-7.33337,2.39331,0.00203744,-0.00182457,-0.00262278,0.00336339,-0.00315052,-0.468079,0.00376148,0.0203539,664,1289,-7.33338,-2.3933
-553,-265,-7.27197,2.58948,0.00225413,-0.00100623,-0.00421128,0.00513974,-0.00389184,-0.600731,0.00523095,0.0217675,671,1289,-7.27196,-2.58945
-546,-265,-7.21252,2.78369,0.00123208,-8.53562e-05,-0.00508485,0.0057007,-0.00455398,-0.720984,0.00593287,0.0316779,678,1289,-7.21251,-2.78364
-539,-265,-7.21124,2.87427,-0.00053204,0.00158679,-0.00559266,0.0062195,-0.00516474,-0.879004,0.00658209,0.0476601,685,1289,-7.21124,-2.87421
-532,-265,-7.07635,2.73792,0,0,0,0,0,0,0,-1,692,1289,-7.07634,-2.73796
-525,-265,-11.0193,1.19958,0,0,0,0,0,0,0,-1,699,1289,-11.0193,-1.19957
-518,-265,-10.6689,1.0636,-0.00710356,0.0108381,-0.00665081,0.0130346,-0.00930005,-1.25181,0.0129549,0.0481594,706,1289,-10.6689,-1.06364
-511,-265,-10.4956,0.664673,-0.0106771,0.0154102,-0.00596574,0.0167097,-0.0119766,-1.35631,0.016637,0.0430103,713,1289,-10.4956,-0.664683
-504,-265,-9.99103,0.226807,0,0,0,0,0,0,0,-1,720,1289,-9.99101,-0.226837
-497,-265,-10.2792,0.470337,-0.0212743,0.0281389,-0.000378731,0.0281418,-0.0212772,-1.56313,0.0286237,0.0474697,727,1289,-10.2792,-0.47036
-490,-265,-10.5374,0.620605,-0.0292394,0.0358769,0.00640877,0.0365017,-0.0298641,1.47362,0.0383801,0.0439934,734,1289,-10.5373,-0.620572
-483,-265,0,0,0,0,0,0,0,0,0,-1,741,1289,0,0
-476,-265,0,0,0,0,0,0,0,0,0,-1,748,1289,0,0
-469,-265,0,0,0,0,0,0,0,0,0,-1,755,1289,0,0
-462,-265,0,0,0,0,0,0,0,0,0,-1,762,1289,0,0
-455,-265,0,0,0,0,0,0,0,0,0,-1,769,1289,0,0
-448,-265,0,0,0,0,0,0,0,0,0,-1,776,1289,0,0
-441,-265,0,0,0,0,0,0,0,0,0,-1,783,1289,0,0
-434,-265,0,0,0,0,0,0,0,0,0,-1,790,1289,0,0
-427,-265,0,0,0,0,0,0,0,0,0,-1,797,1289,0,0
-420,-265,0,0,0,0,0,0,0,0,0,-1,804,1289,0,0
-413,-265,0,0,0,0,0,0,0,0,0,-1,811,1289,0,0
-406,-265,0,0,0,0,0,0,0,0,0,-1,818,1289,0,0
-399,-265,0,0,0,0,0,0,0,0,0,-1,825,1289,0,0
-392,-265,0,0,0,0,0,0,0,0,0,-1,832,1289,0,0
-385,-265,0,0,0,0,0,0,0,0,0,-1,839,1289,0,0
-378,-265,0,0,0,0,0,0,0,0,0,-1,846,1289,0,0
-371,-265,0,0,0,0,0,0,0,0,0,-1,853,1289,0,0
-364,-265,0,0,0,0,0,0,0,0,0,-1,860,1289,0,0
-357,-265,0,0,0,0,0,0,0,0,0,-1,867,1289,0,0
-350,-265,0,0,0,0,0,0,0,0,0,-1,874,1289,0,0
-343,-265,0,0,0,0,0,0,0,0,0,-1,881,1289,0,0
-336,-265,0,0,0,0,0,0,0,0,0,-1,888,1289,0,0
-329,-265,0,0,0,0,0,0,0,0,0,-1,895,1289,0,0
-322,-265,0,0,0,0,0,0,0,0,0,-1,902,1289,0,0
-315,-265,0,0,0,0,0,0,0,0,0,-1,909,1289,0,0
-308,-265,0,0,0,0,0,0,0,0,0,-1,916,1289,0,0
-301,-265,0,0,0,0,0,0,0,0,0,-1,923,1289,0,0
-294,-265,0,0,0,0,0,0,0,0,0,-1,930,1289,0,0
-287,-265,0,0,0,0,0,0,0,0,0,-1,937,1289,0,0
-280,-265,0,0,0,0,0,0,0,0,0,-1,944,1289,0,0
-273,-265,0,0,0,0,0,0,0,0,0,-1,951,1289,0,0
-266,-265,0,0,0,0,0,0,0,0,0,-1,958,1289,0,0
-259,-265,0,0,0,0,0,0,0,0,0,-1,965,1289,0,0
-252,-265,0,0,0,0,0,0,0,0,0,-1,972,1289,0,0
-245,-265,0,0,0,0,0,0,0,0,0,-1,979,1289,0,0
-238,-265,0,0,0,0,0,0,0,0,0,-1,986,1289,0,0
-231,-265,0,0,0,0,0,0,0,0,0,-1,993,1289,0,0
-224,-265,0,0,0,0,0,0,0,0,0,-1,1000,1289,0,0
-217,-265,0,0,0,0,0,0,0,0,0,-1,1007,1289,0,0
-210,-265,0,0,0,0,0,0,0,0,0,-1,1014,1289,0,0
-203,-265,0,0,0,0,0,0,0,0,0,-1,1021,1289,0,0
-196,-265,0,0,0,0,0,0,0,0,0,-1,1028,1289,0,0
-189,-265,0,0,0,0,0,0,0,0,0,-1,1035,1289,0,0
-182,-265,0,0,0,0,0,0,0,0,0,-1,1042,1289,0,0
-175,-265,0,0,0,0,0,0,0,0,0,-1,1049,1289,0,0
-168,-265,0,0,0,0,0,0,0,0,0,-1,1056,1289,0,0
-161,-265,0,0,0,0,0,0,0,0,0,-1,1063,1289,0,0
-154,-265,0,0,0,0,0,0,0,0,0,-1,1070,1289,0,0
-147,-265,0,0,0,0,0,0,0,0,0,-1,1077,1289,0,0
-140,-265,0,0,0,0,0,0,0,0,0,-1,1084,1289,0,0
-133,-265,0,0,0,0,0,0,0,0,0,-1,1091,1289,0,0
-126,-265,0,0,0,0,0,0,0,0,0,-1,1098,1289,0,0
-119,-265,0,0,0,0,0,0,0,0,0,-1,1105,1289,0,0
-112,-265,0,0,0,0,0,0,0,0,0,-1,1112,1289,0,0
-105,-265,0,0,0,0,0,0,0,0,0,-1,1119,1289,0,0
-98,-265,0,0,0,0,0,0,0,0,0,-1,1126,1289,0,0
-91,-265,0,0,0,0,0,0,0,0,0,-1,1133,1289,0,0
-84,-265,0,0,0,0,0,0,0,0,0,-1,1140,1289,0,0
-77,-265,0,0,0,0,0,0,0,0,0,-1,1147,1289,0,0
-70,-265,0,0,0,0,0,0,0,0,0,-1,1154,1289,0,0
-63,-265,0,0,0,0,0,0,0,0,0,-1,1161,1289,0,0
-56,-265,0,0,0,0,0,0,0,0,0,-1,1168,1289,0,0
-49,-265,0,0,0,0,0,0,0,0,0,-1,1175,1289,0,0
-42,-265,0,0,0,0,0,0,0,0,0,-1,1182,1289,0,0
-35,-265,0,0,0,0,0,0,0,0,0,-1,1189,1289,0,0
-28,-265,0,0,0,0,0,0,0,0,0,-1,1196,1289,0,0
-21,-265,0,0,0,0,0,0,0,0,0,-1,1203,1289,0,0
-14,-265,0,0,0,0,0,0,0,0,0,-1,1210,1289,0,0
-7,-265,0,0,0,0,0,0,0,0,0,-1,1217,1289,0,0
0,-265,0,0,0,0,0,0,0,0,0,-1,1224,1289,0,0
7,-265,0,0,0,0,0,0,0,0,0,-1,1231,1289,0,0
14,-265,0,0,0,0,0,0,0,0,0,-1,1238,1289,0,0
21,-265,0,0,0,0,0,0,0,0,0,-1,1245,1289,0,0
28,-265,0,0,0,0,0,0,0,0,0,-1,1252,1289,0,0
35,-265,0,0,0,0,0,0,0,0,0,-1,1259,1289,0,0
42,-265,0,0,0,0,0,0,0,0,0,-1,1266,1289,0,0
49,-265,0,0,0,0,0,0,0,0,0,-1,1273,1289,0,0
56,-265,0,0,0,0,0,0,0,0,0,-1,1280,1289,0,0
63,-265,0,0,0,0,0,0,0,0,0,-1,1287,1289,0,0
70,-265,0,0,0,0,0,0,0,0,0,-1,1294,1289,0,0
77,-265,0,0,0,0,0,0,0,0,0,-1,1301,1289,0,0
84,-265,0,0,0,0,0,0,0,0,0,-1,1308,1289,0,0
91,-265,0,0,0,0,0,0,0,0,0,-1,1315,1289,0,0
98,-265,0,0,0,0,0,0,0,0,0,-1,1322,1289,0,0
105,-265,0,0,0,0,0,0,0,0,0,-1,1329,1289,0,0
112,-265,0,0,0,0,0,0,0,0,0,-1,1336,1289,0,0
119,-265,0,0,0,0,0,0,0,0,0,-1,1343,1289,0,0
126,-265,0,0,0,0,0,0,0,0,0,-1,1350,1289,0,0
133,-265,0,0,0,0,0,0,0,0,0,-1,1357,1289,0,0
140,-265,0,0,0,0,0,0,0,0,0,-1,1364,1289,0,0
147,-265,0,0,0,0,0,0,0,0,0,-1,1371,1289,0,0
154,-265,0,0,0,0,0,0,0,0,0,-1,1378,1289,0,0
161,-265,0,0,0,0,0,0,0,0,0,-1,1385,1289,0,0
168,-265,0,0,0,0,0,0,0,0,0,-1,1392,1289,0,0
175,-265,0,0,0,0,0,0,0,0,0,-1,1399,1289,0,0
182,-265,0,0,0,0,0,0,0,0,0,-1,1406,1289,0,0
189,-265,0,0,0,0,0,0,0,0,0,-1,1413,1289,0,0
196,-265,0,0,0,0,0,0,0,0,0,-1,1420,1289,0,0
203,-265,0,0,0,0,0,0,0,0,0,-1,1427,1289,0,0
210,-265,0,0,0,0,0,0,0,0,0,-1,1434,1289,0,0
217,-265,0,0,0,0,0,0,0,0,0,-1,1441,1289,0,0
224,-265,0,0,0,0,0,0,0,0,0,-1,1448,1289,0,0
231,-265,0,0,0,0,0,0,0,0,0,-1,1455,1289,0,0
238,-265,0,0,0,0,0,0,0,0,0,-1,1462,1289,0,0
245,-265,0,0,0,0,0,0,0,0,0,-1,1469,1289,0,0
252,-265,0,0,0,0,0,0,0,0,0,-1,1476,1289,0,0
259,-265,0,0,0,0,0,0,0,0,0,-1,1483,1289,0,0
266,-265,0,0,0,0,0,0,0,0,0,-1,1490,1289,0,0
273,-265,0,0,0,0,0,0,0,0,0,-1,1497,1289,0,0
280,-265,0,0,0,0,0,0,0,0,0,-1,1504,1289,0,0
287,-265,0,0,0,0,0,0,0,0,0,-1,1511,1289,0,0
294,-265,0,0,0,0,0,0,0,0,0,-1,1518,1289,0,0
301,-265,0,0,0,0,0,0,0,0,0,-1,1525,1289,0,0
308,-265,0,0,0,0,0,0,0,0,0,-1,1532,1289,0,0
315,-265,0,0,0,0,0,0,0,0,0,-1,1539,1289,0,0
322,-265,0,0,0,0,0,0,0,0,0,-1,1546,1289,0,0
329,-265,0,0,0,0,0,0,0,0,0,-1,1553,1289,0,0
336,-265,0,0,0,0,0,0,0,0,0,-1,1560,1289,0,0
343,-265,0,0,0,0,0,0,0,0,0,-1,1567,1289,0,0
350,-265,0,0,0,0,0,0,0,0,0,-1,1574,1289,0,0
357,-265,0,0,0,0,0,0,0,0,0,-1,1581,1289,0,0
364,-265,0,0,0,0,0,0,0,0,0,-1,1588,1289,0,0
371,-265,0,0,0,0,0,0,0,0,0,-1,1595,1289,0,0
378,-265,0,0,0,0,0,0,0,0,0,-1,1602,1289,0,0
385,-265,0,0,0,0,0,0,0,0,0,-1,1609,1289,0,0
392,-265,0,0,0,0,0,0,0,0,0,-1,1616,1289,0,0
399,-265,0,0,0,0,0,0,0,0,0,-1,1623,1289,0,0
406,-265,0,0,0,0,0,0,0,0,0,-1,1630,1289,0,0
413,-265,0,0,0,0,0,0,0,0,0,-1,1637,1289,0,0
420,-265,0,0,0,0,0,0,0,0,0,-1,1644,1289,0,0
427,-265,0,0,0,0,0,0,0,0,0,-1,1651,1289,0,0
434,-265,0,0,0,0,0,0,0,0,0,-1,1658,1289,0,0
441,-265,0,0,0,0,0,0,0,0,0,-1,1665,1289,0,0
448,-265,0,0,0,0,0,0,0,0,0,-1,1672,1289,0,0
455,-265,0,0,0,0,0,0,0,0,0,-1,1679,1289,0,0
462,-265,0,0,0,0,0,0,0,0,0,-1,1686,1289,0,0
469,-265,0,0,0,0,0,0,0,0,0,-1,1693,1289,0,0
476,-265,0,0,0,0,0,0,0,0,0,-1,1700,1289,0,0
483,-265,0,0,0,0,0,0,0,0,0,-1,1707,1289,0,0
490,-265,0,0,0,0,0,0,0,0,0,-1,1714,1289,0,0
497,-265,0,0,0,0,0,0,0,0,0,-1,1721,1289,0,0
504,-265,0,0,0,0,0,0,0,0,0,-1,1728,1289,0,0
511,-265,0,0,0,0,0,0,0,0,0,-1,1735,1289,0,0
518,-265,0,0,0,0,0,0,0,0,0,-1,1742,1289,0,0
525,-265,0,0,0,0,0,0,0,0,0,-1,1749,1289,0,0
532,-265,0,0,0,0,0,0,0,0,0,-1,1756,1289,0,0
539,-265,0,0,0,0,0,0,0,0,0,-1,1763,1289,0,0
546,-265,0,0,0,0,0,0,0,0,0,-1,1770,1289,0,0
553,-265,0,0,0,0,0,0,0,0,0,-1,1777,1289,0,0
560,-265,0,0,0,0,0,0,0,0,0,-1,1784,1289,0,0
567,-265,0,0,0,0,0,0,0,0,0,-1,1791,1289,0,0
574,-265,0,0,0,0,0,0,0,0,0,-1,1798,1289,0,0
581,-265,0,0,0,0,0,0,0,0,0,-1,1805,1289,0,0
588,-265,0,0,0,0,0,0,0,0,0,-1,1812,1289,0,0
595,-265,0,0,0,0,0,0,0,0,0,-1,1819,1289,0,0
602,-265,16.9995,2.47473,-0.0185224,0.0163173,-0.00229978,0.0164684,-0.0186736,-1.50517,0.0203026,0.0276455,1826,1289,16.9995,-2.47467
609,-265,16.9861,2.42175,0.00941954,0.015821,0.00040613,0.0158466,0.00939388,1.50769,0.00920144,0.0291439,1833,1289,16.9861,-2.42179
616,-265,16.9379,2.41174,0.0216833,0.0141811,0.00398891,0.0234078,0.0124566,0.408058,0.0135238,0.0336469,1840,1289,16.9379,-2.41169
623,-265,16.85,2.23218,0.0265668,0.0120947,0.00629255,0.0289202,0.00974131,0.357884,0.0169908,0.044849,1847,1289,16.85,-2.2322
630,-265,17.0094,2.09583,0.0261801,0.00952904,0.00762859,0.0291466,0.00656254,0.370871,0.0176549,0.043267,1854,1289,17.0094,-2.09582
637,-265,16.6863,2.21643,0.0228412,0.00716933,0.00818615,0.0263373,0.00367323,0.403627,0.0164709,0.0461895,1861,1289,16.6863,-2.21641
644,-265,17.7706,2.3396,0.0183693,0.00506224,0.00814293,0.0222313,0.00120022,0.44286,0.0144374,0.0437528,1868,1289,17.7706,-2.33955
651,-265,17.1255,2.59229,0.0143129,0.00332014,0.00791822,0.0184554,-0.000822376,0.482005,0.0125867,0.044554,1875,1289,17.1255,-2.5923
658,-265,16.4463,2.83435,0.010687,0.00165379,0.00754714,0.0149658,-0.002625,0.515757,0.0109575,0.0454914,1882,1289,16.4463,-2.83429
665,-265,15.8237,3.00122,0,0,0,0,0,0,0,-1,1889,1289,15.8237,-3.00116
672,-265,14.1025,4.55518,0,0,0,0,0,0,0,-1,1896,1289,14.1025,-4.55512
679,-265,14.0641,4.58447,0.000265945,-0.00107398,0.00484195,0.00448406,-0.0052921,0.716652,0.00565069,0.0307333,1903,1289,14.0641,-4.58447
686,-265,14.0442,4.51318,-0.00305322,-0.00163187,0.00385123,0.00157371,-0.0062588,0.876638,0.00478417,0.0138141,1910,1289,14.0441,-4.51313
693,-265,14.0599,4.37122,-0.00385999,-0.00138252,0.00306434,0.000683987,-0.0059265,0.977477,0.00419761,0.00986504,1917,1289,14.0599,-4.37124
700,-265,14.0707,4.23669,-0.0030506,-0.000585318,0.00208404,0.00060333,-0.00423924,1.05246,0.00304725,0.0098888,1924,1289,14.0707,-4.23672
707,-265,14.0947,4.07629,-0.00160216,0.000523802,0.000327936,0.000573237,-0.0016516,1.42118,0.00133386,0.00939919,1931,1289,14.0947,-4.07634
714,-265,14.069,3.94275,0.000521954,0.00119476,-0.00148773,0.00238365,-0.000666933,-0.896587,0.00185188,0.00904193,1938,1289,14.069,-3.9427
721,-265,14.0623,3.8158,0.00238925,0.00197747,-0.0031862,0.0053762,-0.00100949,-0.753133,0.00396371,0.00894621,1945,1289,14.0623,-3.81577
728,-265,14.0703,3.69031,0.00436603,0.00273701,-0.00475142,0.00837224,-0.00126921,-0.700511,0.00604911,0.0112879,1952,1289,14.0703,-3.69028
735,-265,14.0728,3.5697,0.00694059,0.00382163,-0.00652824,0.012093,-0.00133081,-0.668154,0.00854026,0.0150228,1959,1289,14.0727,-3.56971
742,-265,14.0925,3.44934,0.00996206,0.00455381,-0.00860735,0.0162801,-0.00176419,-0.633198,0.0114867,0.0186163,1966,1289,14.0925,-3.44937
749,-265,14.0541,3.24438,0.0137706,0.00523106,-0.0109138,0.0212201,-0.00221847,-0.598938,0.0149412,0.0375515,1973,1289,14.0541,-3.2444
756,-265,14.0662,3.01343,0,0,0,0,0,0,0,-1,1980,1289,14.0661,-3.01338
763,-265,14.1302,1.88318,0,0,0,0,0,0,0,-1,1987,1289,14.1303,-1.88317
770,-265,14.2759,1.32056,0,0,0,0,0,0,0,-1,1994,1289,14.2759,-1.32058
777,-265,14.4541,0.868652,0,0,0,0,0,0,0,-1,2001,1289,14.4541,-0.868659
784,-265,0,0,0,0,0,0,0,0,0,-1,2008,1289,0,0
791,-265,0,0,0,0,0,0,0,0,0,-1,2015,1289,0,0
798,-265,0,0,0,0,0,0,0,0,0,-1,2022,1289,0,0
805,-265,0,0,0,0,0,0,0,0,0,-1,2029,1289,0,0
812,-265,0,0,0,0,0,0,0,0,0,-1,2036,1289,0,0
-700,-272,0,0,0,0,0,0,0,0,0,-1,524,1296,0,0
-693,-272,0,0,0,0,0,0,0,0,0,-1,531,1296,0,0
-686,-272,0,0,0,0,0,0,0,0,0,-1,538,1296,0,0
-679,-272,0,0,0,0,0,0,0,0,0,-1,545,1296,0,0
-672,-272,0,0,0,0,0,0,0,0,0,-1,552,1296,0,0
-665,-272,0,0,0,0,0,0,0,0,0,-1,559,1296,0,0
-658,-272,-6.04547,-0.512207,0.000423578,-0.0487472,-0.0520263,0.033381,-0.0817046,-0.564672,0.0683693,0.046115,566,1296,-6.04548,0.512259
-651,-272,-6.14453,-0.633301,0,0,0,0,0,0,0,-1,573,1296,-6.14455,0.63334
-644,-272,-6.57043,-0.49939,0,0,0,0,0,0,0,-1,580,1296,-6.57046,0.499375
-637,-272,-7.19556,-0.70874,0,0,0,0,0,0,0,-1,587,1296,-7.19558,0.708763
-630,-272,-5.97736,0.220947,0,0,0,0,0,0,0,-1,594,1296,-5.97738,-0.220887
-623,-272,-6.45239,0.397705,-1.54557e-05,-0.00188452,-0.0129253,0.0120091,-0.0139091,-0.74931,0.0149773,0.0448584,601,1296,-6.45237,-0.397761
-616,-272,-6.8078,0.842163,-0.000977597,-0.000151789,-0.00855999,0.00800525,-0.00913463,-0.809498,0.00990287,0.0348148,608,1296,-6.80781,-0.842121
-609,-272,-7.08331,1.30603,-0.00126153,0.00137866,-0.00531525,0.00553529,-0.00541816,-0.907116,0.0063241,0.0179624,615,1296,-7.08333,-1.30604
-602,-272,-7.1261,1.3938,-0.000967467,0.0019892,-0.00284559,0.00371756,-0.00269582,-1.02497,0.0037184,0.0125877,622,1296,-7.1261,-1.3938
-595,-272,-7.13171,1.56421,-0.00110095,0.00181097,-0.00102869,0.00213771,-0.00142769,-1.26325,0.00207205,0.0110171,629,1296,-7.13173,-1.56417
-588,-272,-7.11707,1.72864,-0.00144322,0.000441087,0.000371954,0.000511851,-0.00151398,1.38279,0.00121638,0.0111082,636,1296,-7.11705,-1.72867
-581,-272,-7.11737,1.90356,-0.000554959,-0.000424687,5.64634e-05,-0.000403621,-0.000576025,1.2137,0.000341382,0.0106797,643,1296,-7.11737,-1.90361
-574,-272,-7.13715,2.08069,0.000660859,-0.00126336,-0.000295735,0.000705285,-0.00130779,-0.149108,0.00117947,0.0153775,650,1296,-7.13714,-2.08075
-567,-272,-7.16913,2.25195,0.00139468,-0.00160657,-0.00120624,0.00181938,-0.00203127,-0.338534,0.0022243,0.0209647,657,1296,-7.16914,-2.2519
-560,-272,-7.18866,2.43054,0.00229471,-0.00197643,-0.00271077,0.00361007,-0.00329179,-0.451766,0.00398621,0.0194115,664,1296,-7.18867,-2.43058
-553,-272,-7.13104,2.59631,0.00258567,-0.00131534,-0.00433188,0.00538592,-0.00411559,-0.573859,0.00550201,0.0136576,671,1296,-7.13105,-2.59628
-546,-272,-7.05475,2.7052,0.00151306,-0.000345218,-0.00526314,0.00592845,-0.00476061,-0.69803,0.00618359,0.0190194,678,1296,-7.05475,-2.70519
-539,-272,-6.9455,2.54358,-0.00045527,0.00153614,-0.00574344,0.00636955,-0.00528868,-0.871227,0.00674052,0.0444533,685,1296,-6.94551,-2.54354
-532,-272,-7.19055,2.07971,0,0,0,0,0,0,0,-1,692,1296,-7.19054,-2.07972
-525,-272,-10.6295,0.71106,0,0,0,0,0,0,0,-1,699,1296,-10.6294,-0.711106
-518,-272,-10.157,0.907959,-0.00831844,0.0119928,-0.00647231,0.0138799,-0.0102056,-1.28709,0.0139596,0.0482008,706,1296,-10.157,-0.907915
-511,-272,-10.2653,0.60376,-0.0125833,0.017258,-0.00560372,0.0182756,-0.0136009,-1.39116,0.0184698,0.0452525,713,1296,-10.2653,-0.603707
-504,-272,-10.1592,0.625,-0.0181189,0.0239299,-0.00356458,0.02423,-0.0184189,-1.48682,0.0246994,0.0477489,720,1296,-10.1592,-0.625031
-497,-272,-10.3254,0.763672,-0.0251172,0.0322763,0.000261175,0.0322774,-0.0251184,1.56625,0.0332233,0.0461258,727,1296,-10.3254,-0.763731
-490,-272,-10.4512,0.851685,-0.0340719,0.0420249,0.00686624,0.0426395,-0.0346865,1.48153,0.0447228,0.0430691,734,1296,-10.4513,-0.851719
-483,-272,-10.6927,0.793213,0,0,0,0,0,0,0,-1,741,1296,-10.6927,-0.793201
-476,-272,0,0,0,0,0,0,0,0,0,-1,748,1296,0,0
-469,-272,0,0,0,0,0,0,0,0,0,-1,755,1296,0,0
-462,-272,0,0,0,0,0,0,0,0,0,-1,762,1296,0,0
-455,-272,0,0,0,0,0,0,0,0,0,-1,769,1296,0,0
-448,-272,0,0,0,0,0,0,0,0,0,-1,776,1296,0,0
-441,-272,0,0,0,0,0,0,0,0,0,-1,783,1296,0,0
-434,-272,0,0,0,0,0,0,0,0,0,-1,790,1296,0,0
-427,-272,0,0,0,0,0,0,0,0,0,-1,797,1296,0,0
-420,-272,0,0,0,0,0,0,0,0,0,-1,804,1296,0,0
-413,-272,0,0,0,0,0,0,0,0,0,-1,811,1296,0,0
-406,-272,0,0,0,0,0,0,0,0,0,-1,818,1296,0,0
-399,-272,0,0,0,0,0,0,0,0,0,-1,825,1296,0,0
-392,-272,0,0,0,0,0,0,0,0,0,-1,832,1296,0,0
-385,-272,0,0,0,0,0,0,0,0,0,-1,839,1296,0,0
-378,-272,0,0,0,0,0,0,0,0,0,-1,846,1296,0,0
-371,-272,0,0,0,0,0,0,0,0,0,-1,853,1296,0,0
-364,-272,0,0,0,0,0,0,0,0,0,-1,860,1296,0,0
-357,-272,0,0,0,0,0,0,0,0,0,-1,867,1296,0,0
-350,-272,0,0,0,0,0,0,0,0,0,-1,874,1296,0,0
-343,-272,0,0,0,0,0,0,0,0,0,-1,881,1296,0,0
-336,-272,0,0,0,0,0,0,0,0,0,-1,888,1296,0,0
-329,-272,0,0,0,0,0,0,0,0,0,-1,895,1296,0,0
-322,-272,0,0,0,0,0,0,0,0,0,-1,902,1296,0,0
-315,-272,0,0,0,0,0,0,0,0,0,-1,909,1296,0,0
-308,-272,0,0,0,0,0,0,0,0,0,-1,916,1296,0,0
-301,-272,0,0,0,0,0,0,0,0,0,-1,923,1296,0,0
-294,-272,0,0,0,0,0,0,0,0,0,-1,930,1296,0,0
-287,-272,0,0,0,0,0,0,0,0,0,-1,937,1296,0,0
-280,-272,0,0,0,0,0,0,0,0,0,-1,944,1296,0,0
-273,-272,0,0,0,0,0,0,0,0,0,-1,951,1296,0,0
-266,-272,0,0,0,0,0,0,0,0,0,-1,958,1296,0,0
-259,-272,0,0,0,0,0,0,0,0,0,-1,965,1296,0,0
-252,-272,0,0,0,0,0,0,0,0,0,-1,972,1296,0,0
-245,-272,0,0,0,0,0,0,0,0,0,-1,979,1296,0,0
-238,-272,0,0,0,0,0,0,0,0,0,-1,986,1296,0,0
-231,-272,0,0,0,0,0,0,0,0,0,-1,993,1296,0,0
-224,-272,0,0,0,0,0,0,0,0,0,-1,1000,1296,0,0
-217,-272,0,0,0,0,0,0,0,0,0,-1,1007,1296,0,0
-210,-272,0,0,0,0,0,0,0,0,0,-1,1014,1296,0,0
-203,-272,0,0,0,0,0,0,0,0,0,-1,1021,1296,0,0
-196,-272,0,0,0,0,0,0,0,0,0,-1,1028,1296,0,0
-189,-272,0,0,0,0,0,0,0,0,0,-1,1035,1296,0,0
-182,-272,0,0,0,0,0,0,0,0,0,-1,1042,1296,0,0
-175,-272,0,0,0,0,0,0,0,0,0,-1,1049,1296,0,0
-168,-272,0,0,0,0,0,0,0,0,0,-1,1056,1296,0,0
-161,-272,0,0,0,0,0,0,0,0,0,-1,1063,1296,0,0
-154,-272,0,0,0,0,0,0,0,0,0,-1,1070,1296,0,0
-147,-272,0,0,0,0,0,0,0,0,0,-1,1077,1296,0,0
-140,-272,0,0,0,0,0,0,0,0,0,-1,1084,1296,0,0
-133,-272,0,0,0,0,0,0,0,0,0,-1,1091,1296,0,0
-126,-272,0,0,0,0,0,0,0,0,0,-1,1098,1296,0,0
-119,-272,0,0,0,0,0,0,0,0,0,-1,1105,1296,0,0
-112,-272,0,0,0,0,0,0,0,0,0,-1,1112,1296,0,0
-105,-272,0,0,0,0,0,0,0,0,0,-1,1119,1296,0,0
-98,-272,0,0,0,0,0,0,0,0,0,-1,1126,1296,0,0
-91,-272,0,0,0,0,0,0,0,0,0,-1,1133,1296,0,0
-84,-272,0,0,0,0,0,0,0,0,0,-1,1140,1296,0,0
-77,-272,0,0,0,0,0,0,0,0,0,-1,1147,1296,0,0
-70,-272,0,0,0,0,0,0,0,0,0,-1,1154,1296,0,0
-63,-272,0,0,0,0,0,0,0,0,0,-1,1161,1296,0,0
-56,-272,0,0,0,0,0,0,0,0,0,-1,1168,1296,0,0
-49,-272,0,0,0,0,0,0,0,0,0,-1,1175,1296,0,0
-42,-272,0,0,0,0,0,0,0,0,0,-1,1182,1296,0,0
-35,-272,0,0,0,0,0,0,0,0,0,-1,1189,1296,0,0
-28,-272,0,0,0,0,0,0,0,0,0,-1,1196,1296,0,0
-21,-272,0,0,0,0,0,0,0,0,0,-1,1203,1296,0,0
-14,-272,0,0,0,0,0,0,0,0,0,-1,1210,1296,0,0
-7,-272,0,0,0,0,0,0,0,0,0,-1,1217,1296,0,0
0,-272,0,0,0,0,0,0,0,0,0,-1,1224,1296,0,0
7,-272,0,0,0,0,0,0,0,0,0,-1,1231,1296,0,0
14,-272,0,0,0,0,0,0,0,0,0,-1,1238,1296,0,0
21,-272,0,0,0,0,0,0,0,0,0,-1,1245,1296,0,0
28,-272,0,0,0,0,0,0,0,0,0,-1,1252,1296,0,0
35,-272,0,0,0,0,0,0,0,0,0,-1,1259,1296,0,0
42,-272,0,0,0,0,0,0,0,0,0,-1,1266,1296,0,0
49,-272,0,0,0,0,0,0,0,0,0,-1,1273,1296,0,0
56,-272,0,0,0,0,0,0,0,0,0,-1,1280,1296,0,0
63,-272,0,0,0,0,0,0,0,0,0,-1,1287,1296,0,0
70,-272,0,0,0,0,0,0,0,0,0,-1,1294,1296,0,0
77,-272,0,0,0,0,0,0,0,0,0,-1,1301,1296,0,0
84,-272,0,0,0,0,0,0,0,0,0,-1,1308,1296,0,0
91,-272,0,0,0,0,0,0,0,0,0,-1,1315,1296,0,0
98,-272,0,0,0,0,0,0,0,0,0,-1,1322,1296,0,0
105,-272,0,0,0,0,0,0,0,0,0,-1,1329,1296,0,0
112,-272,0,0,0,0,0,0,0,0,0,-1,1336,1296,0,0
119,-272,0,0,0,0,0,0,0,0,0,-1,1343,1296,0,0
126,-272,0,0,0,0,0,0,0,0,0,-1,1350,1296,0,0
133,-272,0,0,0,0,0,0,0,0,0,-1,1357,1296,0,0
140,-272,0,0,0,0,0,0,0,0,0,-1,1364,1296,0,0
147,-272,0,0,0,0,0,0,0,0,0,-1,1371,1296,0,0
154,-272,0,0,0,0,0,0,0,0,0,-1,1378,1296,0,0
161,-272,0,0,0,0,0,0,0,0,0,-1,1385,1296,0,0
168,-272,0,0,0,0,0,0,0,0,0,-1,1392,1296,0,0
175,-272,0,0,0,0,0,0,0,0,0,-1,1399,1296,0,0
182,-272,0,0,0,0,0,0,0,0,0,-1,1406,1296,0,0
189,-272,0,0,0,0,0,0,0,0,0,-1,1413,1296,0,0
196,-272,0,0,0,0,0,0,0,0,0,-1,1420,1296,0,0
203,-272,0,0,0,0,0,0,0,0,0,-1,1427,1296,0,0
210,-272,0,0,0,0,0,0,0,0,0,-1,1434,1296,0,0
217,-272,0,0,0,0,0,0,0,0,0,-1,1441,1296,0,0
224,-272,0,0,0,0,0,0,0,0,0,-1,1448,1296,0,0
231,-272,0,0,0,0,0,0,0,0,0,-1,1455,1296,0,0
238,-272,0,0,0,0,0,0,0,0,0,-1,1462,1296,0,0
245,-272,0,0,0,0,0,0,0,0,0,-1,1469,1296,0,0
252,-272,0,0,0,0,0,0,0,0,0,-1,1476,1296,0,0
259,-272,0,0,0,0,0,0,0,0,0,-1,1483,1296,0,0
266,-272,0,0,0,0,0,0,0,0,0,-1,1490,1296,0,0
273,-272,0,0,0,0,0,0,0,0,0,-1,1497,1296,0,0
280,-272,0,0,0,0,0,0,0,0,0,-1,1504,1296,0,0
287,-272,0,0,0,0,0,0,0,0,0,-1,1511,1296,0,0
294,-272,0,0,0,0,0,0,0,0,0,-1,1518,1296,0,0
301,-272,0,0,0,0,0,0,0,0,0,-1,1525,1296,0,0
308,-272,0,0,0,0,0,0,0,0,0,-1,1532,1296,0,0
315,-272,0,0,0,0,0,0,0,0,0,-1,1539,1296,0,0
322,-272,0,0,0,0,0,0,0,0,0,-1,1546,1296,0,0
329,-272,0,0,0,0,0,0,0,0,0,-1,1553,1296,0,0
336,-272,0,0,0,0,0,0,0,0,0,-1,1560,1296,0,0
343,-272,0,0,0,0,0,0,0,0,0,-1,1567,1296,0,0
350,-272,0,0,0,0,0,0,0,0,0,-1,1574,1296,0,0
357,-272,0,0,0,0,0,0,0,0,0,-1,1581,1296,0,0
364,-272,0,0,0,0,0,0,0,0,0,-1,1588,1296,0,0
371,-272,0,0,0,0,0,0,0,0,0,-1,1595,1296,0,0
378,-272,0,0,0,0,0,0,0,0,0,-1,1602,1296,0,0
385,-272,0,0,0,0,0,0,0,0,0,-1,1609,1296,0,0
392,-272,0,0,0,0,0,0,0,0,0,-1,1616,1296,0,0
399,-272,0,0,0,0,0,0,0,0,0,-1,1623,1296,0,0
406,-272,0,0,0,0,0,0,0,0,0,-1,1630,1296,0,0
413,-272,0,0,0,0,0,0,0,0,0,-1,1637,1296,0,0
420,-272,0,0,0,0,0,0,0,0,0,-1,1644,1296,0,0
427,-272,0,0,0,0,0,0,0,0,0,-1,1651,1296,0,0
434,-272,0,0,0,0,0,0,0,0,0,-1,1658,1296,0,0
441,-272,0,0,0,0,0,0,0,0,0,-1,1665,1296,0,0
448,-272,0,0,0,0,0,0,0,0,0,-1,1672,1296,0,0
455,-272,0,0,0,0,0,0,0,0,0,-1,1679,1296,0,0
462,-272,0,0,0,0,0,0,0,0,0,-1,1686,1296,0,0
469,-272,0,0,0,0,0,0,0,0,0,-1,1693,1296,0,0
476,-272,0,0,0,0,0,0,0,0,0,-1,1700,1296,0,0
483,-272,0,0,0,0,0,0,0,0,0,-1,1707,1296,0,0
490,-272,0,0,0,0,0,0,0,0,0,-1,1714,1296,0,0
497,-272,0,0,0,0,0,0,0,0,0,-1,1721,1296,0,0
504,-272,0,0,0,0,0,0,0,0,0,-1,1728,1296,0,0
511,-272,0,0,0,0,0,0,0,0,0,-1,1735,1296,0,0
518,-272,0,0,0,0,0,0,0,0,0,-1,1742,1296,0,0
525,-272,0,0,0,0,0,0,0,0,0,-1,1749,1296,0,0
532,-272,0,0,0,0,0,0,0,0,0,-1,1756,1296,0,0
539,-272,0,0,0,0,0,0,0,0,0,-1,1763,1296,0,0
546,-272,0,0,0,0,0,0,0,0,0,-1,1770,1296,0,0
553,-272,0,0,0,0,0,0,0,0,0,-1,1777,1296,0,0
560,-272,0,0,0,0,0,0,0,0,0,-1,1784,1296,0,0
567,-272,0,0,0,0,0,0,0,0,0,-1,1791,1296,0,0
574,-272,0,0,0,0,0,0,0,0,0,-1,1798,1296,0,0
581,-272,0,0,0,0,0,0,0,0,0,-1,1805,1296,0,0
588,-272,0,0,0,0,0,0,0,0,0,-1,1812,1296,0,0
595,-272,0,0,0,0,0,0,0,0,0,-1,1819,1296,0,0
602,-272,16.9865,2.46436,-0.0132607,0.018553,-0.000970182,0.0185825,-0.0132902,-1.54034,0.0184861,0.0310033,1826,1296,16.9865,-2.46441
609,-272,16.9805,2.35608,0.0149239,0.0179939,0.00256992,0.0194523,0.0134655,1.05461,0.0115042,0.0394484,1833,1296,16.9805,-2.3561
616,-272,16.8981,2.34399,0.0268349,0.0161219,0.00622894,0.0296937,0.013263,0.43028,0.0171762,0.0438205,1840,1296,16.8981,-2.344
623,-272,15.8582,1.38184,0,0,0,0,0,0,0,-1,1847,1296,15.8582,-1.38188
630,-272,16.8702,1.90393,0.02972,0.0108325,0.00959493,0.033739,0.00681343,0.396669,0.0206006,0.0417017,1854,1296,16.8703,-1.90392
637,-272,18.1002,2.26721,0.0258746,0.00823193,0.00996143,0.0303591,0.0037474,0.423011,0.0191131,0.044764,1861,1296,18.1002,-2.26717
644,-272,17.0164,2.34729,0,0,0,0,0,0,0,-1,1868,1296,17.0164,-2.34725
651,-272,16.3486,2.67102,0.016564,0.00395622,0.00941833,0.0215934,-0.00107321,0.49048,0.0147663,0.0476253,1875,1296,16.3487,-2.67102
658,-272,15.7108,2.79285,0.0125916,0.00201673,0.00897755,0.017723,-0.00311475,0.519267,0.0129788,0.0475995,1882,1296,15.7108,-2.79284
665,-272,14.6925,4.74097,0,0,0,0,0,0,0,-1,1889,1296,14.6925,-4.74101
672,-272,13.845,4.54529,0,0,0,0,0,0,0,-1,1896,1296,13.845,-4.54526
679,-272,13.9225,4.58533,0.000305317,-0.00114095,0.00573131,0.00535893,-0.00619457,0.722643,0.00667623,0.0229696,1903,1296,13.9225,-4.58533
686,-272,13.905,4.51648,-0.00351225,-0.00167999,0.00449537,0.00199165,-0.00718389,0.885919,0.00557306,0.0133046,1910,1296,13.9051,-4.51643
693,-272,13.9081,4.38086,-0.00413654,-0.0012638,0.00343692,0.00102482,-0.00642516,0.983329,0.00466274,0.010869,1917,1296,13.9081,-4.38084
700,-272,13.9263,4.25415,-0.0029886,-0.000204413,0.0021045,0.000926754,-0.00411977,1.0776,0.00310193,0.010245,1924,1296,13.9263,-4.2542
707,-272,13.9474,4.08301,-0.00126414,0.00119612,1.20468e-05,0.00119618,-0.0012642,1.5659,0.00142068,0.0101089,1931,1296,13.9474,-4.083
714,-272,13.9437,3.92371,0.00115428,0.00217894,-0.00213627,0.00386346,-0.000530242,-0.903087,0.00276936,0.0101062,1938,1296,13.9437,-3.92366
721,-272,13.9254,3.80664,0.0033627,0.0033738,-0.00427109,0.00763935,-0.000902847,-0.786048,0.00541898,0.0110426,1945,1296,13.9254,-3.80669
728,-272,13.9203,3.70239,0.00552915,0.00457853,-0.00623885,0.0113108,-0.00120309,-0.747379,0.00797186,0.0131838,1952,1296,13.9203,-3.70237
735,-272,13.9357,3.55103,0.00827837,0.00600476,-0.00842379,0.0156417,-0.00135859,-0.718328,0.0109089,0.0130537,1959,1296,13.9356,-3.551
742,-272,13.9298,3.37805,0.0115366,0.00718363,-0.0109782,0.020552,-0.00183181,-0.687541,0.0143509,0.0218357,1966,1296,13.9298,-3.37811
749,-272,13.9254,3.10242,0.015645,0.00823327,-0.0137771,0.0262059,-0.00232762,-0.654013,0.0182959,0.0397047,1973,1296,13.9254,-3.10241
756,-272,13.9673,2.49548,0.020775,0.0090022,-0.0167082,0.0326034,-0.00282619,-0.616035,0.0227363,0.0467541,1980,1296,13.9673,-2.49546
763,-272,14.203,1.91589,0.0269458,0.00935978,-0.0195031,0.0395464,-0.00324081,-0.573616,0.0275083,0.0464378,1987,1296,14.203,-1.9159
770,-272,14.4017,1.36145,0.0340193,0.00916705,-0.021747,0.0466399,-0.00345357,-0.525838,0.032306,0.0493698,1994,1296,14.4017,-1.36151
777,-272,14.5458,0.938599,0.0418261,0.00824493,-0.0228429,0.0533855,-0.0033145,-0.468468,0.0367451,0.0474112,2001,1296,14.5458,-0.938633
784,-272,0,0,0,0,0,0,0,0,0,-1,2008,1296,0,0
791,-272,0,0,0,0,0,0,0,0,0,-1,2015,1296,0,0
798,-272,0,0,0,0,0,0,0,0,0,-1,2022,1296,0,0
805,-272,0,0,0,0,0,0,0,0,0,-1,2029,1296,0,0
812,-272,0,0,0,0,0,0,0,0,0,-1,2036,1296,0,0
-700,-279,0,0,0,0,0,0,0,0,0,-1,524,1303,0,0
-693,-279,0,0,0,0,0,0,0,0,0,-1,531,1303,0,0
-686,-279,0,0,0,0,0,0,0,0,0,-1,538,1303,0,0
-679,-279,0,0,0,0,0,0,0,0,0,-1,545,1303,0,0
-672,-279,0,0,0,0,0,0,0,0,0,-1,552,1303,0,0
-665,-279,0,0,0,0,0,0,0,0,0,-1,559,1303,0,0
-658,-279,-5.48834,-0.500122,0,0,0,0,0,0,0,-1,566,1303,-5.48832,0.500092
-651,-279,-5.88666,-0.838501,0,0,0,0,0,0,0,-1,573,1303,-5.88664,0.838442
-644,-279,-6.15796,-0.524902,-0.00270208,-0.0197519,-0.0338611,0.0236908,-0.0461448,-0.66208,0.0410084,0.04582,580,1303,-6.15796,0.524905
-637,-279,-6.17639,-0.390503,0,0,0,0,0,0,0,-1,587,1303,-6.17639,0.390505
-630,-279,-5.55817,1.26685,-0.00281711,-0.00670964,-0.0195666,0.0148998,-0.0244265,-0.735827,0.022926,0.0430905,594,1303,-5.55815,-1.26689
-623,-279,-6.30853,0.988037,-0.00311213,-0.0034155,-0.0141088,0.0108458,-0.0173734,-0.780023,0.016437,0.0431307,601,1303,-6.30851,-0.988042
-616,-279,-6.651,0.934814,-0.0032378,-0.00144571,-0.00978499,0.00748417,-0.0121677,-0.831058,0.0114529,0.041769,608,1303,-6.65103,-0.934848
-609,-279,-7.03748,1.21252,-0.00292997,0.000245031,-0.00647788,0.0053271,-0.00801204,-0.905562,0.00775318,0.0269327,615,1303,-7.03746,-1.21252
-602,-279,-6.9425,1.39124,-0.00226081,0.00104792,-0.00389565,0.00362593,-0.00483883,-0.986193,0.00490383,0.0114655,622,1303,-6.9425,-1.39129
-595,-279,-6.95587,1.5636,-0.00194651,0.00117104,-0.00194513,0.00210492,-0.00288038,-1.12319,0.00288985,0.00956803,629,1303,-6.95589,-1.56363
-588,-279,-6.94934,1.73755,-0.00179661,0.000242559,-0.000454697,0.000339354,-0.00189341,-1.36105,0.00138927,0.010393,636,1303,-6.94936,-1.73753
-581,-279,-6.95026,1.88818,-0.000713227,-0.000408084,-0.000483197,-5.39437e-05,-0.00106737,-0.938322,0.000694296,0.0119034,643,1303,-6.95024,-1.88815
-574,-279,-6.96576,2.04639,0.000654038,-0.00105701,-0.000609258,0.000848808,-0.00125178,-0.309416,0.00122019,0.0114695,650,1303,-6.96577,-2.04633
-567,-279,-6.99139,2.22949,0.00158885,-0.00140361,-0.00139276,0.00213676,-0.00195152,-0.3748,0.00236117,0.0148581,657,1303,-6.9914,-2.2295
-560,-279,-6.98468,2.42761,0.00258922,-0.00191157,-0.00279965,0.0039308,-0.00325315,-0.446868,0.0041538,0.0148002,664,1303,-6.9847,-2.42763
-553,-279,-6.95966,2.60034,0.00291635,-0.00139839,-0.00434682,0.00561172,-0.00409376,-0.555053,0.00562626,0.010974,671,1303,-6.95967,-2.60028
-546,-279,-6.93713,2.7395,0.00181696,-0.000410083,-0.00528684,0.00610627,-0.0046994,-0.681605,0.00625626,0.0131416,678,1303,-6.93712,-2.73949
-539,-279,-6.815,2.74963,-0.000340715,0.00165141,-0.00570079,0.0064425,-0.0051318,-0.871887,0.00669669,0.0425469,685,1303,-6.81502,-2.74959
-532,-279,-6.66779,2.74182,0,0,0,0,0,0,0,-1,692,1303,-6.66776,-2.74179
-525,-279,-8.93805,1.23022,0,0,0,0,0,0,0,-1,699,1303,-8.93802,-1.2302
-518,-279,-8.94739,0.637329,0,0,0,0,0,0,0,-1,706,1303,-8.94741,-0.637276
-511,-279,-10.2029,0.539673,0,0,0,0,0,0,0,-1,713,1303,-10.2029,-0.539686
-504,-279,-10.0052,0.307373,-0.0209735,0.0264571,-0.00241428,0.0265797,-0.0210961,-1.52007,0.0275862,0.0470555,720,1303,-10.0053,-0.307383
-497,-279,-10.1587,0.494629,-0.0289987,0.0360352,0.00160418,0.0360747,-0.0290382,1.54615,0.0376661,0.0431412,727,1303,-10.1587,-0.494611
-490,-279,-10.852,1.03723,-0.038891,0.0476704,0.00807501,0.0484173,-0.0396379,1.47857,0.0509228,0.0421845,734,1303,-10.852,-1.03718
-483,-279,-11.3537,1.49377,0,0,0,0,0,0,0,-1,741,1303,-11.3537,-1.49372
-476,-279,0,0,0,0,0,0,0,0,0,-1,748,1303,0,0
-469,-279,0,0,0,0,0,0,0,0,0,-1,755,1303,0,0
-462,-279,0,0,0,0,0,0,0,0,0,-1,762,1303,0,0
-455,-279,0,0,0,0,0,0,0,0,0,-1,769,1303,0,0
-448,-279,0,0,0,0,0,0,0,0,0,-1,776,1303,0,0
-441,-279,0,0,0,0,0,0,0,0,0,-1,783,1303,0,0
-434,-279,0,0,0,0,0,0,0,0,0,-1,790,1303,0,0
-427,-279,0,0,0,0,0,0,0,0,0,-1,797,1303,0,0
-420,-279,0,0,0,0,0,0,0,0,0,-1,804,1303,0,0
-413,-279,0,0,0,0,0,0,0,0,0,-1,811,1303,0,0
-406,-279,0,0,0,0,0,0,0,0,0,-1,818,1303,0,0
-399,-279,0,0,0,0,0,0,0,0,0,-1,825,1303,0,0
-392,-279,0,0,0,0,0,0,0,0,0,-1,832,1303,0,0
-385,-279,0,0,0,0,0,0,0,0,0,-1,839,1303,0,0
-378,-279,0,0,0,0,0,0,0,0,0,-1,846,1303,0,0
-371,-279,0,0,0,0,0,0,0,0,0,-1,853,1303,0,0
-364,-279,0,0,0,0,0,0,0,0,0,-1,860,1303,0,0
-357,-279,0,0,0,0,0,0,0,0,0,-1,867,1303,0,0
-350,-279,0,0,0,0,0,0,0,0,0,-1,874,1303,0,0
-343,-279,0,0,0,0,0,0,0,0,0,-1,881,1303,0,0
-336,-279,0,0,0,0,0,0,0,0,0,-1,888,1303,0,0
-329,-279,0,0,0,0,0,0,0,0,0,-1,895,1303,0,0
-322,-279,0,0,0,0,0,0,0,0,0,-1,902,1303,0,0
-315,-279,0,0,0,0,0,0,0,0,0,-1,909,1303,0,0
-308,-279,0,0,0,0,0,0,0,0,0,-1,916,1303,0,0
-301,-279,0,0,0,0,0,0,0,0,0,-1,923,1303,0,0
-294,-279,0,0,0,0,0,0,0,0,0,-1,930,1303,0,0
-287,-279,0,0,0,0,0,0,0,0,0,-1,937,1303,0,0
-280,-279,0,0,0,0,0,0,0,0,0,-1,944,1303,0,0
-273,-279,0,0,0,0,0,0,0,0,0,-1,951,1303,0,0
-266,-279,0,0,0,0,0,0,0,0,0,-1,958,1303,0,0
-259,-279,0,0,0,0,0,0,0,0,0,-1,965,1303,0,0
-252,-279,0,0,0,0,0,0,0,0,0,-1,972,1303,0,0
-245,-279,0,0,0,0,0,0,0,0,0,-1,979,1303,0,0
-238,-279,0,0,0,0,0,0,0,0,0,-1,986,1303,0,0
-231,-279,0,0,0,0,0,0,0,0,0,-1,993,1303,0,0
-224,-279,0,0,0,0,0,0,0,0,0,-1,1000,1303,0,0
-217,-279,0,0,0,0,0,0,0,0,0,-1,1007,1303,0,0
-210,-279,0,0,0,0,0,0,0,0,0,-1,1014,1303,0,0
-203,-279,0,0,0,0,0,0,0,0,0,-1,1021,1303,0,0
-196,-279,0,0,0,0,0,0,0,0,0,-1,1028,1303,0,0
-189,-279,0,0,0,0,0,0,0,0,0,-1,1035,1303,0,0
-182,-279,0,0,0,0,0,0,0,0,0,-1,1042,1303,0,0
-175,-279,0,0,0,0,0,0,0,0,0,-1,1049,1303,0,0
-168,-279,0,0,0,0,0,0,0,0,0,-1,1056,1303,0,0
-161,-279,0,0,0,0,0,0,0,0,0,-1,1063,1303,0,0
-154,-279,0,0,0,0,0,0,0,0,0,-1,1070,1303,0,0
-147,-279,0,0,0,0,0,0,0,0,0,-1,1077,1303,0,0
-140,-279,0,0,0,0,0,0,0,0,0,-1,1084,1303,0,0
-133,-279,0,0,0,0,0,0,0,0,0,-1,1091,1303,0,0
-126,-279,0,0,0,0,0,0,0,0,0,-1,1098,1303,0,0
-119,-279,0,0,0,0,0,0,0,0,0,-1,1105,1303,0,0
-112,-279,0,0,0,0,0,0,0,0,0,-1,1112,1303,0,0
-105,-279,0,0,0,0,0,0,0,0,0,-1,1119,1303,0,0
-98,-279,0,0,0,0,0,0,0,0,0,-1,1126,1303,0,0
-91,-279,0,0,0,0,0,0,0,0,0,-1,1133,1303,0,0
-84,-279,0,0,0,0,0,0,0,0,0,-1,1140,1303,0,0
-77,-279,0,0,0,0,0,0,0,0,0,-1,1147,1303,0,0
-70,-279,0,0,0,0,0,0,0,0,0,-1,1154,1303,0,0
-63,-279,0,0,0,0,0,0,0,0,0,-1,1161,1303,0,0
-56,-279,0,0,0,0,0,0,0,0,0,-1,1168,1303,0,0
-49,-279,0,0,0,0,0,0,0,0,0,-1,1175,1303,0,0
-42,-279,0,0,0,0,0,0,0,0,0,-1,1182,1303,0,0
-35,-279,0,0,0,0,0,0,0,0,0,-1,1189,1303,0,0
-28,-279,0,0,0,0,0,0,0,0,0,-1,1196,1303,0,0
-21,-279,0,0,0,0,0,0,0,0,0,-1,1203,1303,0,0
-14,-279,0,0,0,0,0,0,0,0,0,-1,1210,1303,0,0
-7,-279,0,0,0,0,0,0,0,0,0,-1,1217,1303,0,0
0,-279,0,0,0,0,0,0,0,0,0,-1,1224,1303,0,0
7,-279,0,0,0,0,0,0,0,0,0,-1,1231,1303,0,0
14,-279,0,0,0,0,0,0,0,0,0,-1,1238,1303,0,0
21,-279,0,0,0,0,0,0,0,0,0,-1,1245,1303,0,0
28,-279,0,0,0,0,0,0,0,0,0,-1,1252,1303,0,0
35,-279,0,0,0,0,0,0,0,0,0,-1,1259,1303,0,0
42,-279,0,0,0,0,0,0,0,0,0,-1,1266,1303,0,0
49,-279,0,0,0,0,0,0,0,0,0,-1,1273,1303,0,0
56,-279,0,0,0,0,0,0,0,0,0,-1,1280,1303,0,0
63,-279,0,0,0,0,0,0,0,0,0,-1,1287,1303,0,0
70,-279,0,0,0,0,0,0,0,0,0,-1,1294,1303,0,0
77,-279,0,0,0,0,0,0,0,0,0,-1,1301,1303,0,0
84,-279,0,0,0,0,0,0,0,0,0,-1,1308,1303,0,0
91,-279,0,0,0,0,0,0,0,0,0,-1,1315,1303,0,0
98,-279,0,0,0,0,0,0,0,0,0,-1,1322,1303,0,0
105,-279,0,0,0,0,0,0,0,0,0,-1,1329,1303,0,0
112,-279,0,0,0,0,0,0,0,0,0,-1,1336,1303,0,0
119,-279,0,0,0,0,0,0,0,0,0,-1,1343,1303,0,0
126,-279,0,0,0,0,0,0,0,0,0,-1,1350,1303,0,0
133,-279,0,0,0,0,0,0,0,0,0,-1,1357,1303,0,0
140,-279,0,0,0,0,0,0,0,0,0,-1,1364,1303,0,0
147,-279,0,0,0,0,0,0,0,0,0,-1,1371,1303,0,0
154,-279,0,0,0,0,0,0,0,0,0,-1,1378,1303,0,0
161,-279,0,0,0,0,0,0,0,0,0,-1,1385,1303,0,0
168,-279,0,0,0,0,0,0,0,0,0,-1,1392,1303,0,0
175,-279,0,0,0,0,0,0,0,0,0,-1,1399,1303,0,0
182,-279,0,0,0,0,0,0,0,0,0,-1,1406,1303,0,0
189,-279,0,0,0,0,0,0,0,0,0,-1,1413,1303,0,0
196,-279,0,0,0,0,0,0,0,0,0,-1,1420,1303,0,0
203,-279,0,0,0,0,0,0,0,0,0,-1,1427,1303,0,0
210,-279,0,0,0,0,0,0,0,0,0,-1,1434,1303,0,0
217,-279,0,0,0,0,0,0,0,0,0,-1,1441,1303,0,0
224,-279,0,0,0,0,0,0,0,0,0,-1,1448,1303,0,0
231,-279,0,0,0,0,0,0,0,0,0,-1,1455,1303,0,0
238,-279,0,0,0,0,0,0,0,0,0,-1,1462,1303,0,0
245,-279,0,0,0,0,0,0,0,0,0,-1,1469,1303,0,0
252,-279,0,0,0,0,0,0,0,0,0,-1,1476,1303,0,0
259,-279,0,0,0,0,0,0,0,0,0,-1,1483,1303,0,0
266,-279,0,0,0,0,0,0,0,0,0,-1,1490,1303,0,0
273,-279,0,0,0,0,0,0,0,0,0,-1,1497,1303,0,0
280,-279,0,0,0,0,0,0,0,0,0,-1,1504,1303,0,0
287,-279,0,0,0,0,0,0,0,0,0,-1,1511,1303,0,0
294,-279,0,0,0,0,0,0,0,0,0,-1,1518,1303,0,0
301,-279,0,0,0,0,0,0,0,0,0,-1,1525,1303,0,0
308,-279,0,0,0,0,0,0,0,0,0,-1,1532,1303,0,0
315,-279,0,0,0,0,0,0,0,0,0,-1,1539,1303,0,0
322,-279,0,0,0,0,0,0,0,0,0,-1,1546,1303,0,0
329,-279,0,0,0,0,0,0,0,0,0,-1,1553,1303,0,0
336,-279,0,0,0,0,0,0,0,0,0,-1,1560,1303,0,0
343,-279,0,0,0,0,0,0,0,0,0,-1,1567,1303,0,0
350,-279,0,0,0,0,0,0,0,0,0,-1,1574,1303,0,0
357,-279,0,0,0,0,0,0,0,0,0,-1,1581,1303,0,0
364,-279,0,0,0,0,0,0,0,0,0,-1,1588,1303,0,0
371,-279,0,0,0,0,0,0,0,0,0,-1,1595,1303,0,0
378,-279,0,0,0,0,0,0,0,0,0,-1,1602,1303,0,0
385,-279,0,0,0,0,0,0,0,0,0,-1,1609,1303,0,0
392,-279,0,0,0,0,0,0,0,0,0,-1,1616,1303,0,0
399,-279,0,0,0,0,0,0,0,0,0,-1,1623,1303,0,0
406,-279,0,0,0,0,0,0,0,0,0,-1,1630,1303,0,0
413,-279,0,0,0,0,0,0,0,0,0,-1,1637,1303,0,0
420,-279,0,0,0,0,0,0,0,0,0,-1,1644,1303,0,0
427,-279,0,0,0,0,0,0,0,0,0,-1,1651,1303,0,0
434,-279,0,0,0,0,0,0,0,0,0,-1,1658,1303,0,0
441,-279,0,0,0,0,0,0,0,0,0,-1,1665,1303,0,0
448,-279,0,0,0,0,0,0,0,0,0,-1,1672,1303,0,0
455,-279,0,0,0,0,0,0,0,0,0,-1,1679,1303,0,0
462,-279,0,0,0,0,0,0,0,0,0,-1,1686,1303,0,0
469,-279,0,0,0,0,0,0,0,0,0,-1,1693,1303,0,0
476,-279,0,0,0,0,0,0,0,0,0,-1,1700,1303,0,0
483,-279,0,0,0,0,0,0,0,0,0,-1,1707,1303,0,0
490,-279,0,0,0,0,0,0,0,0,0,-1,1714,1303,0,0
497,-279,0,0,0,0,0,0,0,0,0,-1,1721,1303,0,0
504,-279,0,0,0,0,0,0,0,0,0,-1,1728,1303,0,0
511,-279,0,0,0,0,0,0,0,0,0,-1,1735,1303,0,0
518,-279,0,0,0,0,0,0,0,0,0,-1,1742,1303,0,0
525,-279,0,0,0,0,0,0,0,0,0,-1,1749,1303,0,0
532,-279,0,0,0,0,0,0,0,0,0,-1,1756,1303,0,0
539,-279,0,0,0,0,0,0,0,0,0,-1,1763,1303,0,0
546,-279,0,0,0,0,0,0,0,0,0,-1,1770,1303,0,0
553,-279,0,0,0,0,0,0,0,0,0,-1,1777,1303,0,0
560,-279,0,0,0,0,0,0,0,0,0,-1,1784,1303,0,0
567,-279,0,0,0,0,0,0,0,0,0,-1,1791,1303,0,0
574,-279,0,0,0,0,0,0,0,0,0,-1,1798,1303,0,0
581,-279,0,0,0,0,0,0,0,0,0,-1,1805,1303,0,0
588,-279,0,0,0,0,0,0,0,0,0,-1,1812,1303,0,0
595,-279,0,0,0,0,0,0,0,0,0,-1,1819,1303,0,0
602,-279,16.874,2.29016,-0.00582181,0.021113,0.00103247,0.0211525,-0.00586133,1.53254,0.0164082,0.0418161,1826,1303,16.874,-2.29013
609,-279,16.8921,2.18958,0.019858,0.0201403,0.0050189,0.02502,0.0149783,0.79946,0.0145387,0.0486264,1833,1303,16.8921,-2.18953
616,-279,14.5852,1.20618,0,0,0,0,0,0,0,-1,1840,1303,14.5852,-1.20615
623,-279,15.5665,1.59985,0.0331007,0.0150076,0.0104069,0.0378434,0.0102649,0.427607,0.0225983,0.0419915,1847,1303,15.5665,-1.59986
630,-279,16.6934,1.89575,0.0314694,0.011945,0.0112893,0.036632,0.00678238,0.428906,0.0225038,0.0427938,1854,1303,16.6933,-1.8957
637,-279,17.8765,2.17651,0.0274594,0.00909677,0.0114404,0.0329471,0.00360907,0.447257,0.020866,0.0481466,1861,1303,17.8764,-2.17655
644,-279,18.9091,2.50037,0,0,0,0,0,0,0,-1,1868,1303,18.909,-2.5004
651,-279,15.6887,2.76697,0,0,0,0,0,0,0,-1,1875,1303,15.6887,-2.76691
658,-279,14.3973,5.57385,0,0,0,0,0,0,0,-1,1882,1303,14.3974,-5.57388
665,-279,14.3124,5.04565,0.00923476,0.00085083,0.00911903,0.0150792,-0.00499361,0.569955,0.0120668,0.0488104,1889,1303,14.3124,-5.04563
672,-279,13.9954,4.60217,0.00495515,-0.000173388,0.00747677,0.0102952,-0.00551339,0.620201,0.0092652,0.0400885,1896,1303,13.9954,-4.60221
679,-279,13.8013,4.67236,0.000215056,-0.00126281,0.00631358,0.0058328,-0.00688055,0.727144,0.00734836,0.0248204,1903,1303,13.8013,-4.67239
686,-279,13.7719,4.526,-0.00387566,-0.00174316,0.00482596,0.00213294,-0.00775175,0.894122,0.00600641,0.0196872,1910,1303,13.7719,-4.52604
693,-279,13.7771,4.38623,-0.00417548,-0.00112706,0.00346141,0.00113087,-0.00643341,0.992795,0.00471135,0.0150142,1917,1303,13.7771,-4.38619
700,-279,13.7914,4.25244,-0.00264765,0.000233744,0.00176135,0.00106856,-0.00348246,1.12819,0.00274798,0.0104883,1924,1303,13.7914,-4.25242
707,-279,13.7881,4.09753,-0.000648422,0.00196954,-0.000624852,0.00211103,-0.000789914,-1.34811,0.00173179,0.00893716,1931,1303,13.7881,-4.09754
714,-279,13.7798,3.93909,0.0020526,0.00331801,-0.00304832,0.00579859,-0.000427981,-0.887725,0.004016,0.0101194,1938,1303,13.7798,-3.93907
721,-279,13.775,3.80872,0.00463255,0.0049625,-0.0055594,0.0103594,-0.000764323,-0.800232,0.00717461,0.0119794,1945,1303,13.7751,-3.80867
728,-279,13.7797,3.67749,0.00706023,0.00669117,-0.00791822,0.0147961,-0.00104467,-0.773748,0.0102301,0.0123862,1952,1303,13.7797,-3.67752
735,-279,13.7931,3.53418,0.0100841,0.00859513,-0.0105452,0.019911,-0.00123182,-0.750158,0.0137031,0.0118263,1959,1303,13.793,-3.53415
742,-279,13.7721,3.32837,0.0136827,0.0103749,-0.0136102,0.0257391,-0.00168147,-0.724935,0.0177464,0.0219944,1966,1303,13.772,-3.32839
749,-279,13.7906,3.03101,0.0181548,0.0119937,-0.0169579,0.0323097,-0.00216121,-0.695548,0.0222951,0.0400874,1973,1303,13.7906,-3.03099
756,-279,13.8629,2.71069,0.0236086,0.0132606,-0.0204393,0.0395186,-0.00264941,-0.661433,0.0272718,0.046388,1980,1303,13.863,-2.71065
763,-279,14.3047,2.1333,0.0300076,0.0139634,-0.0237482,0.047052,-0.00308099,-0.622516,0.0324438,0.0447629,1987,1303,14.3046,-2.13333
770,-279,14.5122,1.25244,0.037134,0.0138489,-0.0264168,0.05436,-0.00337715,-0.577841,0.0374166,0.045381,1994,1303,14.5122,-1.25241
777,-279,14.1605,0.896606,0.0447159,0.012562,-0.0277664,0.0607238,-0.00344596,-0.522977,0.0416787,0.0479795,2001,1303,14.1605,-0.896558
784,-279,0,0,0,0,0,0,0,0,0,-1,2008,1303,0,0
791,-279,0,0,0,0,0,0,0,0,0,-1,2015,1303,0,0
798,-279,0,0,0,0,0,0,0,0,0,-1,2022,1303,0,0
805,-279,0,0,0,0,0,0,0,0,0,-1,2029,1303,0,0
812,-279,0,0,0,0,0,0,0,0,0,-1,2036,1303,0,0
-700,-286,0,0,0,0,0,0,0,0,0,-1,524,1310,0,0
-693,-286,0,0,0,0,0,0,0,0,0,-1,531,1310,0,0
-686,-286,0,0,0,0,0,0,0,0,0,-1,538,1310,0,0
-679,-286,0,0,0,0,0,0,0,0,0,-1,545,1310,0,0
-672,-286,0,0,0,0,0,0,0,0,0,-1,552,1310,0,0
-665,-286,0,0,0,0,0,0,0,0,0,-1,559,1310,0,0
-658,-286,-5.14417,-0.224365,0,0,0,0,0,0,0,-1,566,1310,-5.14417,0.224424
-651,-286,-5.53485,-0.391113,-0.00942782,-0.0313941,-0.0444602,0.0253858,-0.0662077,-0.664306,0.0546041,0.0448343,573,1310,-5.53486,0.39114
-644,-286,-5.71423,-0.539551,-0.00763834,-0.0202255,-0.0362601,0.0228703,-0.0507342,-0.69947,0.0434987,0.0437261,580,1310,-5.71422,0.539569
-637,-286,-6.36823,-0.265503,0,0,0,0,0,0,0,-1,587,1310,-6.36821,0.265475
-630,-286,-6.43359,0.177124,0,0,0,0,0,0,0,-1,594,1310,-6.43357,-0.177152
-623,-286,-6.66223,0.695068,0,0,0,0,0,0,0,-1,601,1310,-6.66222,-0.695054
-616,-286,-6.88318,0.874268,-0.00505122,-0.00227823,-0.012301,0.00871419,-0.0160436,-0.841518,0.0145012,0.0418595,608,1310,-6.88315,-0.874209
-609,-286,-6.8728,1.09021,-0.00422655,-0.000496147,-0.00872133,0.0065572,-0.0112799,-0.890745,0.0104179,0.0325452,615,1310,-6.87278,-1.09024
-602,-286,-6.79657,1.38318,-0.00326683,0.000401252,-0.0058173,0.00466678,-0.00753236,-0.938103,0.00710765,0.0129562,622,1310,-6.7966,-1.38312
-595,-286,-6.79517,1.56714,-0.00261519,0.000736005,-0.00355093,0.00298682,-0.00486601,-1.00585,0.0045769,0.0102922,629,1310,-6.79515,-1.56719
-588,-286,-6.78339,1.73035,-0.00203154,0.000149282,-0.00180085,0.00116411,-0.00304637,-1.05762,0.00251059,0.0111204,636,1310,-6.78339,-1.73033
-581,-286,-6.7713,1.87695,-0.000924407,-0.000351684,-0.00136576,0.000757408,-0.0020335,-0.888737,0.00166653,0.0129138,643,1310,-6.7713,-1.87695
-574,-286,-6.77954,2.03589,0.000380853,-0.000817794,-0.00112906,0.00105979,-0.00149673,-0.541399,0.00148318,0.012966,650,1310,-6.77954,-2.0359
-567,-286,-6.79547,2.23401,0.0012744,-0.00127198,-0.00155594,0.00201167,-0.00200925,-0.442504,0.00232148,0.0121261,657,1310,-6.79546,-2.23404
-560,-286,-6.79633,2.40869,0.00213683,-0.00205208,-0.00267667,0.0034411,-0.00335635,-0.453414,0.00392461,0.0116245,664,1310,-6.79635,-2.4087
-553,-286,-6.78186,2.59253,0.00235724,-0.00177511,-0.00406514,0.00485116,-0.00426903,-0.550278,0.00526911,0.00891399,671,1310,-6.78183,-2.59247
-546,-286,-6.77258,2.79199,0.0012412,-0.00088033,-0.00499345,0.00528531,-0.00492444,-0.680738,0.00589583,0.0111079,678,1310,-6.77259,-2.79194
-539,-286,-6.73602,2.92664,-0.00104429,0.00128195,-0.00535886,0.00560246,-0.0053648,-0.892264,0.00633245,0.0291093,685,1310,-6.73605,-2.92669
-532,-286,-6.66974,3.04565,0,0,0,0,0,0,0,-1,692,1310,-6.66971,-3.0457
-525,-286,-7.85571,0.786621,0,0,0,0,0,0,0,-1,699,1310,-7.85569,-0.786587
-518,-286,-7.97015,0.366577,0,0,0,0,0,0,0,-1,706,1310,-7.97013,-0.366585
-511,-286,-9.79242,-0.184448,0,0,0,0,0,0,0,-1,713,1310,-9.79244,0.184427
-504,-286,-9.80023,0.0406494,-0.0238837,0.028263,-0.00106387,0.0282847,-0.0239054,-1.55041,0.0301673,0.0473966,720,1310,-9.80021,-0.0406386
-497,-286,-10.028,0.137817,-0.0325828,0.0389228,0.00314697,0.039061,-0.0327211,1.5269,0.0414972,0.0422141,727,1310,-10.028,-0.137787
-490,-286,-10.5014,0.471069,-0.0432354,0.0522557,0.00966222,0.0532236,-0.0442032,1.47096,0.0563297,0.0423274,734,1310,-10.5014,-0.47106
-483,-286,-10.9024,0.983276,-0.0563221,0.0692904,0.0189,0.0720725,-0.0591042,1.42464,0.0758582,0.0464645,741,1310,-10.9024,-0.98332
-476,-286,-11.1729,1.49548,0,0,0,0,0,0,0,-1,748,1310,-11.1729,-1.49543
-469,-286,0,0,0,0,0,0,0,0,0,-1,755,1310,0,0
-462,-286,0,0,0,0,0,0,0,0,0,-1,762,1310,0,0
-455,-286,0,0,0,0,0,0,0,0,0,-1,769,1310,0,0
-448,-286,0,0,0,0,0,0,0,0,0,-1,776,1310,0,0
-441,-286,0,0,0,0,0,0,0,0,0,-1,783,1310,0,0
-434,-286,0,0,0,0,0,0,0,0,0,-1,790,1310,0,0
-427,-286,0,0,0,0,0,0,0,0,0,-1,797,1310,0,0
-420,-286,0,0,0,0,0,0,0,0,0,-1,804,1310,0,0
-413,-286,0,0,0,0,0,0,0,0,0,-1,811,1310,0,0
-406,-286,0,0,0,0,0,0,0,0,0,-1,818,1310,0,0
-399,-286,0,0,0,0,0,0,0,0,0,-1,825,1310,0,0
-392,-286,0,0,0,0,0,0,0,0,0,-1,832,1310,0,0
-385,-286,0,0,0,0,0,0,0,0,0,-1,839,1310,0,0
-378,-286,0,0,0,0,0,0,0,0,0,-1,846,1310,0,0
-371,-286,0,0,0,0,0,0,0,0,0,-1,853,1310,0,0
-364,-286,0,0,0,0,0,0,0,0,0,-1,860,1310,0,0
-357,-286,0,0,0,0,0,0,0,0,0,-1,867,1310,0,0
-350,-286,0,0,0,0,0,0,0,0,0,-1,874,1310,0,0
-343,-286,0,0,0,0,0,0,0,0,0,-1,881,1310,0,0
-336,-286,0,0,0,0,0,0,0,0,0,-1,888,1310,0,0
-329,-286,0,0,0,0,0,0,0,0,0,-1,895,1310,0,0
-322,-286,0,0,0,0,0,0,0,0,0,-1,902,1310,0,0
-315,-286,0,0,0,0,0,0,0,0,0,-1,909,1310,0,0
-308,-286,0,0,0,0,0,0,0,0,0,-1,916,1310,0,0
-301,-286,0,0,0,0,0,0,0,0,0,-1,923,1310,0,0
-294,-286,0,0,0,0,0,0,0,0,0,-1,930,1310,0,0
-287,-286,0,0,0,0,0,0,0,0,0,-1,937,1310,0,0
-280,-286,0,0,0,0,0,0,0,0,0,-1,944,1310,0,0
-273,-286,0,0,0,0,0,0,0,0,0,-1,951,1310,0,0
-266,-286,0,0,0,0,0,0,0,0,0,-1,958,1310,0,0
-259,-286,0,0,0,0,0,0,0,0,0,-1,965,1310,0,0
-252,-286,0,0,0,0,0,0,0,0,0,-1,972,1310,0,0
-245,-286,0,0,0,0,0,0,0,0,0,-1,979,1310,0,0
-238,-286,0,0,0,0,0,0,0,0,0,-1,986,1310,0,0
-231,-286,0,0,0,0,0,0,0,0,0,-1,993,1310,0,0
-224,-286,0,0,0,0,0,0,0,0,0,-1,1000,1310,0,0
-217,-286,0,0,0,0,0,0,0,0,0,-1,1007,1310,0,0
-210,-286,0,0,0,0,0,0,0,0,0,-1,1014,1310,0,0
-203,-286,0,0,0,0,0,0,0,0,0,-1,1021,1310,0,0
-196,-286,0,0,0,0,0,0,0,0,0,-1,1028,1310,0,0
-189,-286,0,0,0,0,0,0,0,0,0,-1,1035,1310,0,0
-182,-286,0,0,0,0,0,0,0,0,0,-1,1042,1310,0,0
-175,-286,0,0,0,0,0,0,0,0,0,-1,1049,1310,0,0
-168,-286,0,0,0,0,0,0,0,0,0,-1,1056,1310,0,0
-161,-286,0,0,0,0,0,0,0,0,0,-1,1063,1310,0,0
-154,-286,0,0,0,0,0,0,0,0,0,-1,1070,1310,0,0
-147,-286,0,0,0,0,0,0,0,0,0,-1,1077,1310,0,0
-140,-286,0,0,0,0,0,0,0,0,0,-1,1084,1310,0,0
-133,-286,0,0,0,0,0,0,0,0,0,-1,1091,1310,0,0
-126,-286,0,0,0,0,0,0,0,0,0,-1,1098,1310,0,0
-119,-286,0,0,0,0,0,0,0,0,0,-1,1105,1310,0,0
-112,-286,0,0,0,0,0,0,0,0,0,-1,1112,1310,0,0
-105,-286,0,0,0,0,0,0,0,0,0,-1,1119,1310,0,0
-98,-286,0,0,0,0,0,0,0,0,0,-1,1126,1310,0,0
-91,-286,0,0,0,0,0,0,0,0,0,-1,1133,1310,0,0
-84,-286,0,0,0,0,0,0,0,0,0,-1,1140,1310,0,0
-77,-286,0,0,0,0,0,0,0,0,0,-1,1147,1310,0,0
-70,-286,0,0,0,0,0,0,0,0,0,-1,1154,1310,0,0
-63,-286,0,0,0,0,0,0,0,0,0,-1,1161,1310,0,0
-56,-286,0,0,0,0,0,0,0,0,0,-1,1168,1310,0,0
-49,-286,0,0,0,0,0,0,0,0,0,-1,1175,1310,0,0
-42,-286,0,0,0,0,0,0,0,0,0,-1,1182,1310,0,0
-35,-286,0,0,0,0,0,0,0,0,0,-1,1189,1310,0,0
-28,-286,0,0,0,0,0,0,0,0,0,-1,1196,1310,0,0
-21,-286,0,0,0,0,0,0,0,0,0,-1,1203,1310,0,0
-14,-286,0,0,0,0,0,0,0,0,0,-1,1210,1310,0,0
-7,-286,0,0,0,0,0,0,0,0,0,-1,1217,1310,0,0
0,-286,0,0,0,0,0,0,0,0,0,-1,1224,1310,0,0
7,-286,0,0,0,0,0,0,0,0,0,-1,1231,1310,0,0
14,-286,0,0,0,0,0,0,0,0,0,-1,1238,1310,0,0
21,-286,0,0,0,0,0,0,0,0,0,-1,1245,1310,0,0
28,-286,0,0,0,0,0,0,0,0,0,-1,1252,1310,0,0
35,-286,0,0,0,0,0,0,0,0,0,-1,1259,1310,0,0
42,-286,0,0,0,0,0,0,0,0,0,-1,1266,1310,0,0
49,-286,0,0,0,0,0,0,0,0,0,-1,1273,1310,0,0
56,-286,0,0,0,0,0,0,0,0,0,-1,1280,1310,0,0
63,-286,0,0,0,0,0,0,0,0,0,-1,1287,1310,0,0
70,-286,0,0,0,0,0,0,0,0,0,-1,1294,1310,0,0
77,-286,0,0,0,0,0,0,0,0,0,-1,1301,1310,0,0
84,-286,0,0,0,0,0,0,0,0,0,-1,1308,1310,0,0
91,-286,0,0,0,0,0,0,0,0,0,-1,1315,1310,0,0
98,-286,0,0,0,0,0,0,0,0,0,-1,1322,1310,0,0
105,-286,0,0,0,0,0,0,0,0,0,-1,1329,1310,0,0
112,-286,0,0,0,0,0,0,0,0,0,-1,1336,1310,0,0
119,-286,0,0,0,0,0,0,0,0,0,-1,1343,1310,0,0
126,-286,0,0,0,0,0,0,0,0,0,-1,1350,1310,0,0
133,-286,0,0,0,0,0,0,0,0,0,-1,1357,1310,0,0
140,-286,0,0,0,0,0,0,0,0,0,-1,1364,1310,0,0
147,-286,0,0,0,0,0,0,0,0,0,-1,1371,1310,0,0
154,-286,0,0,0,0,0,0,0,0,0,-1,1378,1310,0,0
161,-286,0,0,0,0,0,0,0,0,0,-1,1385,1310,0,0
168,-286,0,0,0,0,0,0,0,0,0,-1,1392,1310,0,0
175,-286,0,0,0,0,0,0,0,0,0,-1,1399,1310,0,0
182,-286,0,0,0,0,0,0,0,0,0,-1,1406,1310,0,0
189,-286,0,0,0,0,0,0,0,0,0,-1,1413,1310,0,0
196,-286,0,0,0,0,0,0,0,0,0,-1,1420,1310,0,0
203,-286,0,0,0,0,0,0,0,0,0,-1,1427,1310,0,0
210,-286,0,0,0,0,0,0,0,0,0,-1,1434,1310,0,0
217,-286,0,0,0,0,0,0,0,0,0,-1,1441,1310,0,0
224,-286,0,0,0,0,0,0,0,0,0,-1,1448,1310,0,0
231,-286,0,0,0,0,0,0,0,0,0,-1,1455,1310,0,0
238,-286,0,0,0,0,0,0,0,0,0,-1,1462,1310,0,0
245,-286,0,0,0,0,0,0,0,0,0,-1,1469,1310,0,0
252,-286,0,0,0,0,0,0,0,0,0,-1,1476,1310,0,0
259,-286,0,0,0,0,0,0,0,0,0,-1,1483,1310,0,0
266,-286,0,0,0,0,0,0,0,0,0,-1,1490,1310,0,0
273,-286,0,0,0,0,0,0,0,0,0,-1,1497,1310,0,0
280,-286,0,0,0,0,0,0,0,0,0,-1,1504,1310,0,0
287,-286,0,0,0,0,0,0,0,0,0,-1,1511,1310,0,0
294,-286,0,0,0,0,0,0,0,0,0,-1,1518,1310,0,0
301,-286,0,0,0,0,0,0,0,0,0,-1,1525,1310,0,0
308,-286,0,0,0,0,0,0,0,0,0,-1,1532,1310,0,0
315,-286,0,0,0,0,0,0,0,0,0,-1,1539,1310,0,0
322,-286,0,0,0,0,0,0,0,0,0,-1,1546,1310,0,0
329,-286,0,0,0,0,0,0,0,0,0,-1,1553,1310,0,0
336,-286,0,0,0,0,0,0,0,0,0,-1,1560,1310,0,0
343,-286,0,0,0,0,0,0,0,0,0,-1,1567,1310,0,0
350,-286,0,0,0,0,0,0,0,0,0,-1,1574,1310,0,0
357,-286,0,0,0,0,0,0,0,0,0,-1,1581,1310,0,0
364,-286,0,0,0,0,0,0,0,0,0,-1,1588,1310,0,0
371,-286,0,0,0,0,0,0,0,0,0,-1,1595,1310,0,0
378,-286,0,0,0,0,0,0,0,0,0,-1,1602,1310,0,0
385,-286,0,0,0,0,0,0,0,0,0,-1,1609,1310,0,0
392,-286,0,0,0,0,0,0,0,0,0,-1,1616,1310,0,0
399,-286,0,0,0,0,0,0,0,0,0,-1,1623,1310,0,0
406,-286,0,0,0,0,0,0,0,0,0,-1,1630,1310,0,0
413,-286,0,0,0,0,0,0,0,0,0,-1,1637,1310,0,0
420,-286,0,0,0,0,0,0,0,0,0,-1,1644,1310,0,0
427,-286,0,0,0,0,0,0,0,0,0,-1,1651,1310,0,0
434,-286,0,0,0,0,0,0,0,0,0,-1,1658,1310,0,0
441,-286,0,0,0,0,0,0,0,0,0,-1,1665,1310,0,0
448,-286,0,0,0,0,0,0,0,0,0,-1,1672,1310,0,0
455,-286,0,0,0,0,0,0,0,0,0,-1,1679,1310,0,0
462,-286,0,0,0,0,0,0,0,0,0,-1,1686,1310,0,0
469,-286,0,0,0,0,0,0,0,0,0,-1,1693,1310,0,0
476,-286,0,0,0,0,0,0,0,0,0,-1,1700,1310,0,0
483,-286,0,0,0,0,0,0,0,0,0,-1,1707,1310,0,0
490,-286,0,0,0,0,0,0,0,0,0,-1,1714,1310,0,0
497,-286,0,0,0,0,0,0,0,0,0,-1,1721,1310,0,0
504,-286,0,0,0,0,0,0,0,0,0,-1,1728,1310,0,0
511,-286,0,0,0,0,0,0,0,0,0,-1,1735,1310,0,0
518,-286,0,0,0,0,0,0,0,0,0,-1,1742,1310,0,0
525,-286,0,0,0,0,0,0,0,0,0,-1,1749,1310,0,0
532,-286,0,0,0,0,0,0,0,0,0,-1,1756,1310,0,0
539,-286,0,0,0,0,0,0,0,0,0,-1,1763,1310,0,0
546,-286,0,0,0,0,0,0,0,0,0,-1,1770,1310,0,0
553,-286,0,0,0,0,0,0,0,0,0,-1,1777,1310,0,0
560,-286,0,0,0,0,0,0,0,0,0,-1,1784,1310,0,0
567,-286,0,0,0,0,0,0,0,0,0,-1,1791,1310,0,0
574,-286,0,0,0,0,0,0,0,0,0,-1,1798,1310,0,0
581,-286,0,0,0,0,0,0,0,0,0,-1,1805,1310,0,0
588,-286,0,0,0,0,0,0,0,0,0,-1,1812,1310,0,0
595,-286,16.8556,2.32043,-0.0338813,0.0215096,-0.000900407,0.0215243,-0.033896,-1.55455,0.0322615,0.0388375,1819,1310,16.8556,-2.32049
602,-286,16.6718,2.01953,0.00060425,0.0236294,0.00320973,0.0240685,0.000165183,1.43485,0.0159909,0.0445343,1826,1310,16.6717,-2.01952
609,-286,13.6505,0.346924,0,0,0,0,0,0,0,-1,1833,1310,13.6505,-0.346932
616,-286,14.3883,0.997437,0.0313873,0.0194606,0.0102876,0.037315,0.0135329,0.522733,0.021813,0.0452738,1840,1310,14.3883,-0.997409
623,-286,15.2892,1.42847,0.0335148,0.0162431,0.0119046,0.039586,0.0101718,0.471607,0.023738,0.0410369,1847,1310,15.2892,-1.4285
630,-286,16.6331,1.69385,0.0317976,0.0129483,0.0125394,0.0380592,0.0066866,0.463135,0.0234637,0.0406201,1854,1310,16.6331,-1.69384
637,-286,17.6964,2.02686,0,0,0,0,0,0,0,-1,1861,1310,17.6964,-2.02688
644,-286,15.4884,1.75452,0,0,0,0,0,0,0,-1,1868,1310,15.4884,-1.75456
651,-286,14.5765,5.10022,0,0,0,0,0,0,0,-1,1875,1310,14.5766,-5.10019
658,-286,14.4738,5.04224,0.0147054,0.00243469,0.0109861,0.0211533,-0.00401315,0.530738,0.0156128,0.0427367,1882,1310,14.4738,-5.04228
665,-286,14.1027,4.93726,0.00962714,0.000899408,0.00981581,0.0160054,-0.00547887,0.576232,0.0128907,0.0448446,1889,1310,14.1027,-4.9373
672,-286,13.7701,4.81458,0.00495577,-0.000190938,0.00789712,0.0106882,-0.00592341,0.627894,0.00972136,0.028432,1896,1310,13.7702,-4.81456
679,-286,13.634,4.70093,-0.000130094,-0.00131769,0.00659011,0.00589292,-0.0073407,0.740467,0.00765566,0.0215577,1903,1310,13.6341,-4.70091
686,-286,13.6464,4.55481,-0.00430675,-0.00168036,0.00485994,0.00204067,-0.00802779,0.917351,0.00614607,0.0199994,1910,1310,13.6464,-4.55483
693,-286,13.646,4.39526,-0.00419051,-0.000827998,0.00318102,0.00108873,-0.00610724,1.0285,0.00447873,0.0150496,1917,1310,13.646,-4.39525
700,-286,13.642,4.23108,-0.00228997,0.000847762,0.00112081,0.00120699,-0.00264921,1.26063,0.00227769,0.0104928,1924,1310,13.642,-4.2311
707,-286,13.6399,4.10242,-5.52871e-05,0.00291976,-0.00151517,0.00355555,-0.00069108,-1.17349,0.00263116,0.00894939,1931,1310,13.6399,-4.10242
714,-286,13.6274,3.96252,0.00286766,0.00464314,-0.00417923,0.00802787,-0.000517072,-0.890051,0.00553233,0.00921578,1938,1310,13.6275,-3.96256
721,-286,13.6277,3.81775,0.00577064,0.00675367,-0.00705621,0.0133355,-0.000811153,-0.82017,0.00917266,0.0111763,1945,1310,13.6277,-3.81779
728,-286,13.6243,3.66638,0.00846098,0.00905597,-0.00984486,0.0186078,-0.00109087,-0.800503,0.0127844,0.0129947,1952,1310,13.6243,-3.66633
735,-286,13.6346,3.50146,0.0117687,0.0115621,-0.012995,0.0246608,-0.00133005,-0.781424,0.0169013,0.0145594,1959,1310,13.6347,-3.50149
742,-286,13.6464,3.29919,0.015717,0.0140983,-0.0166693,0.0315966,-0.00178135,-0.761141,0.0216826,0.0239561,1966,1310,13.6464,-3.29916
749,-286,13.6218,2.91882,0.0205437,0.0165188,-0.0206932,0.039322,-0.00225962,-0.736925,0.0269994,0.0397294,1973,1310,13.6219,-2.91882
756,-286,13.6306,2.38245,0.0263151,0.0185896,-0.024873,0.0476235,-0.00271874,-0.708364,0.0326929,0.0464134,1980,1310,13.6306,-2.3825
763,-286,13.652,2.09705,0.0329556,0.0200312,-0.0288552,0.0560633,-0.00307653,-0.675239,0.0384421,0.0472372,1987,1310,13.652,-2.09703
770,-286,14.464,1.17957,0.0401704,0.020495,-0.0321028,0.063909,-0.00324361,-0.636719,0.0437273,0.0481572,1994,1310,14.464,-1.17951
777,-286,0,0,0,0,0,0,0,0,0,-1,2001,1310,0,0
784,-286,0,0,0,0,0,0,0,0,0,-1,2008,1310,0,0
791,-286,0,0,0,0,0,0,0,0,0,-1,2015,1310,0,0
798,-286,0,0,0,0,0,0,0,0,0,-1,2022,1310,0,0
805,-286,0,0,0,0,0,0,0,0,0,-1,2029,1310,0,0
812,-286,0,0,0,0,0,0,0,0,0,-1,2036,1310,0,0
-700,-293,0,0,0,0,0,0,0,0,0,-1,524,1317,0,0
-693,-293,0,0,0,0,0,0,0,0,0,-1,531,1317,0,0
-686,-293,0,0,0,0,0,0,0,0,0,-1,538,1317,0,0
-679,-293,0,0,0,0,0,0,0,0,0,-1,545,1317,0,0
-672,-293,0,0,0,0,0,0,0,0,0,-1,552,1317,0,0
-665,-293,0,0,0,0,0,0,0,0,0,-1,559,1317,0,0
-658,-293,0,0,0,0,0,0,0,0,0,-1,566,1317,0,0
-651,-293,-5.26465,-0.282471,-0.0144962,-0.0334623,-0.0458166,0.0228084,-0.070767,-0.68335,0.0563413,0.0478582,573,1317,-5.26467,0.282486
-644,-293,-5.59814,-0.425049,-0.0117083,-0.0229197,-0.0381689,0.0212643,-0.0558923,-0.712487,0.0460176,0.0441372,580,1317,-5.59815,0.425055
-637,-293,-6.10516,-0.191284,-0.00998915,-0.0156818,-0.0311146,0.0184091,-0.04408,-0.739786,0.037079,0.0454253,587,1317,-6.10519,0.191267
-630,-293,-6.47461,0.231079,0,0,0,0,0,0,0,-1,594,1317,-6.4746,-0.231063
-623,-293,-6.65118,0.832275,-0.0073576,-0.00685524,-0.0194977,0.0123929,-0.0266058,-0.791839,0.0230089,0.0439686,601,1317,-6.65115,-0.832272
-616,-293,-6.56464,1.05554,-0.00619972,-0.00422259,-0.014908,0.00972958,-0.0201519,-0.818505,0.0175984,0.0406662,608,1317,-6.56461,-1.05559
-609,-293,-6.55908,1.20313,-0.0050349,-0.00202766,-0.011055,0.00762552,-0.0146881,-0.85299,0.0130961,0.0368918,615,1317,-6.55909,-1.20308
-602,-293,-6.60327,1.34961,-0.00393634,-0.000748858,-0.00780982,0.00562818,-0.0103134,-0.886051,0.00933542,0.0248189,622,1317,-6.60326,-1.34955
-595,-293,-6.64221,1.5343,-0.00309283,-3.95787e-06,-0.00518877,0.00386535,-0.00696214,-0.930048,0.00633591,0.0140237,629,1317,-6.64224,-1.53428
-588,-293,-6.6308,1.68738,-0.00230525,-0.000114008,-0.00314986,0.00212534,-0.00454459,-0.952769,0.00393442,0.0144103,636,1317,-6.63078,-1.68742
-581,-293,-6.6217,1.8623,-0.00120284,-0.000351553,-0.00225223,0.0015149,-0.00306929,-0.878791,0.00269692,0.0164002,643,1317,-6.62171,-1.86234
-574,-293,-6.6098,2.06775,-2.28319e-06,-0.000462074,-0.00162773,0.0014117,-0.00187606,-0.715244,0.00190449,0.0150905,650,1317,-6.60983,-2.06778
-567,-293,-6.62036,2.26001,0.000828763,-0.000953667,-0.00168407,0.0018429,-0.00196781,-0.542031,0.00220051,0.0147388,657,1317,-6.62035,-2.26005
-560,-293,-6.62848,2.42236,0.00154949,-0.0019597,-0.00250106,0.00285004,-0.00326026,-0.479519,0.00353043,0.0150706,664,1317,-6.62846,-2.42241
-553,-293,-6.59692,2.59705,0.00166719,-0.00186329,-0.00373622,0.00403419,-0.0042303,-0.564709,0.00477195,0.0104292,671,1317,-6.59691,-2.59708
-546,-293,-6.59583,2.8175,0.000598414,-0.00108228,-0.00467636,0.00450933,-0.00499319,-0.696497,0.00548865,0.00922987,678,1317,-6.5958,-2.81757
-539,-293,-6.59015,2.9718,-0.00171849,0.00110803,-0.00505129,0.00494004,-0.0055505,-0.921801,0.00606013,0.0216433,685,1317,-6.59016,-2.97186
-532,-293,-6.51831,2.80054,-0.00455646,0.0048022,-0.00546962,0.00732098,-0.00707524,-1.13924,0.00831207,0.0421069,692,1317,-6.51831,-2.80048
-525,-293,-6.36176,2.6051,0,0,0,0,0,0,0,-1,699,1317,-6.36174,-2.60514
-518,-293,-7.10632,0.164673,0,0,0,0,0,0,0,-1,706,1317,-7.10634,-0.16462
-511,-293,-6.34161,-1.85059,0,0,0,0,0,0,0,-1,713,1317,-6.34164,1.85054
-504,-293,-9.65088,-0.346558,0,0,0,0,0,0,0,-1,720,1317,-9.65085,0.346548
-497,-293,-9.63721,-0.391357,-0.0356344,0.0407709,0.00441697,0.0410254,-0.0358889,1.51324,0.0444394,0.0441819,727,1317,-9.63723,0.391406
-490,-293,-10.0292,-0.153076,-0.04693,0.0550186,0.0111708,0.0562283,-0.0481397,1.46293,0.0603171,0.0434881,734,1317,-10.0292,0.153016
-483,-293,-10.441,0.227417,-0.0607443,0.0736351,0.0206143,0.0767263,-0.0638355,1.42195,0.0812671,0.0448505,741,1317,-10.441,-0.227422
-476,-293,-10.6103,0.627197,-0.0723032,0.091228,0.031183,0.0969723,-0.0780475,1.38862,0.101244,0.0438687,748,1317,-10.6103,-0.627188
-469,-293,0,0,0,0,0,0,0,0,0,-1,755,1317,0,0
-462,-293,0,0,0,0,0,0,0,0,0,-1,762,1317,0,0
-455,-293,0,0,0,0,0,0,0,0,0,-1,769,1317,0,0
-448,-293,0,0,0,0,0,0,0,0,0,-1,776,1317,0,0
-441,-293,0,0,0,0,0,0,0,0,0,-1,783,1317,0,0
-434,-293,0,0,0,0,0,0,0,0,0,-1,790,1317,0,0
-427,-293,0,0,0,0,0,0,0,0,0,-1,797,1317,0,0
-420,-293,0,0,0,0,0,0,0,0,0,-1,804,1317,0,0
-413,-293,0,0,0,0,0,0,0,0,0,-1,811,1317,0,0
-406,-293,0,0,0,0,0,0,0,0,0,-1,818,1317,0,0
-399,-293,0,0,0,0,0,0,0,0,0,-1,825,1317,0,0
-392,-293,0,0,0,0,0,0,0,0,0,-1,832,1317,0,0
-385,-293,0,0,0,0,0,0,0,0,0,-1,839,1317,0,0
-378,-293,0,0,0,0,0,0,0,0,0,-1,846,1317,0,0
-371,-293,0,0,0,0,0,0,0,0,0,-1,853,1317,0,0
-364,-293,0,0,0,0,0,0,0,0,0,-1,860,1317,0,0
-357,-293,0,0,0,0,0,0,0,0,0,-1,867,1317,0,0
-350,-293,0,0,0,0,0,0,0,0,0,-1,874,1317,0,0
-343,-293,0,0,0,0,0,0,0,0,0,-1,881,1317,0,0
-336,-293,0,0,0,0,0,0,0,0,0,-1,888,1317,0,0
-329,-293,0,0,0,0,0,0,0,0,0,-1,895,1317,0,0
-322,-293,0,0,0,0,0,0,0,0,0,-1,902,1317,0,0
-315,-293,0,0,0,0,0,0,0,0,0,-1,909,1317,0,0
-308,-293,0,0,0,0,0,0,0,0,0,-1,916,1317,0,0
-301,-293,0,0,0,0,0,0,0,0,0,-1,923,1317,0,0
-294,-293,0,0,0,0,0,0,0,0,0,-1,930,1317,0,0
-287,-293,0,0,0,0,0,0,0,0,0,-1,937,1317,0,0
-280,-293,0,0,0,0,0,0,0,0,0,-1,944,1317,0,0
-273,-293,0,0,0,0,0,0,0,0,0,-1,951,1317,0,0
-266,-293,0,0,0,0,0,0,0,0,0,-1,958,1317,0,0
-259,-293,0,0,0,0,0,0,0,0,0,-1,965,1317,0,0
-252,-293,0,0,0,0,0,0,0,0,0,-1,972,1317,0,0
-245,-293,0,0,0,0,0,0,0,0,0,-1,979,1317,0,0
-238,-293,0,0,0,0,0,0,0,0,0,-1,986,1317,0,0
-231,-293,0,0,0,0,0,0,0,0,0,-1,993,1317,0,0
-224,-293,0,0,0,0,0,0,0,0,0,-1,1000,1317,0,0
-217,-293,0,0,0,0,0,0,0,0,0,-1,1007,1317,0,0
-210,-293,0,0,0,0,0,0,0,0,0,-1,1014,1317,0,0
-203,-293,0,0,0,0,0,0,0,0,0,-1,1021,1317,0,0
-196,-293,0,0,0,0,0,0,0,0,0,-1,1028,1317,0,0
-189,-293,0,0,0,0,0,0,0,0,0,-1,1035,1317,0,0
-182,-293,0,0,0,0,0,0,0,0,0,-1,1042,1317,0,0
-175,-293,0,0,0,0,0,0,0,0,0,-1,1049,1317,0,0
-168,-293,0,0,0,0,0,0,0,0,0,-1,1056,1317,0,0
-161,-293,0,0,0,0,0,0,0,0,0,-1,1063,1317,0,0
-154,-293,0,0,0,0,0,0,0,0,0,-1,1070,1317,0,0
-147,-293,0,0,0,0,0,0,0,0,0,-1,1077,1317,0,0
-140,-293,0,0,0,0,0,0,0,0,0,-1,1084,1317,0,0
-133,-293,0,0,0,0,0,0,0,0,0,-1,1091,1317,0,0
-126,-293,0,0,0,0,0,0,0,0,0,-1,1098,1317,0,0
-119,-293,0,0,0,0,0,0,0,0,0,-1,1105,1317,0,0
-112,-293,0,0,0,0,0,0,0,0,0,-1,1112,1317,0,0
-105,-293,0,0,0,0,0,0,0,0,0,-1,1119,1317,0,0
-98,-293,0,0,0,0,0,0,0,0,0,-1,1126,1317,0,0
-91,-293,0,0,0,0,0,0,0,0,0,-1,1133,1317,0,0
-84,-293,0,0,0,0,0,0,0,0,0,-1,1140,1317,0,0
-77,-293,0,0,0,0,0,0,0,0,0,-1,1147,1317,0,0
-70,-293,0,0,0,0,0,0,0,0,0,-1,1154,1317,0,0
-63,-293,0,0,0,0,0,0,0,0,0,-1,1161,1317,0,0
-56,-293,0,0,0,0,0,0,0,0,0,-1,1168,1317,0,0
-49,-293,0,0,0,0,0,0,0,0,0,-1,1175,1317,0,0
-42,-293,0,0,0,0,0,0,0,0,0,-1,1182,1317,0,0
-35,-293,0,0,0,0,0,0,0,0,0,-1,1189,1317,0,0
-28,-293,0,0,0,0,0,0,0,0,0,-1,1196,1317,0,0
-21,-293,0,0,0,0,0,0,0,0,0,-1,1203,1317,0,0
-14,-293,0,0,0,0,0,0,0,0,0,-1,1210,1317,0,0
-7,-293,0,0,0,0,0,0,0,0,0,-1,1217,1317,0,0
0,-293,0,0,0,0,0,0,0,0,0,-1,1224,1317,0,0
7,-293,0,0,0,0,0,0,0,0,0,-1,1231,1317,0,0
14,-293,0,0,0,0,0,0,0,0,0,-1,1238,1317,0,0
21,-293,0,0,0,0,0,0,0,0,0,-1,1245,1317,0,0
28,-293,0,0,0,0,0,0,0,0,0,-1,1252,1317,0,0
35,-293,0,0,0,0,0,0,0,0,0,-1,1259,1317,0,0
42,-293,0,0,0,0,0,0,0,0,0,-1,1266,1317,0,0
49,-293,0,0,0,0,0,0,0,0,0,-1,1273,1317,0,0
56,-293,0,0,0,0,0,0,0,0,0,-1,1280,1317,0,0
63,-293,0,0,0,0,0,0,0,0,0,-1,1287,1317,0,0
70,-293,0,0,0,0,0,0,0,0,0,-1,1294,1317,0,0
77,-293,0,0,0,0,0,0,0,0,0,-1,1301,1317,0,0
84,-293,0,0,0,0,0,0,0,0,0,-1,1308,1317,0,0
91,-293,0,0,0,0,0,0,0,0,0,-1,1315,1317,0,0
98,-293,0,0,0,0,0,0,0,0,0,-1,1322,1317,0,0
105,-293,0,0,0,0,0,0,0,0,0,-1,1329,1317,0,0
112,-293,0,0,0,0,0,0,0,0,0,-1,1336,1317,0,0
119,-293,0,0,0,0,0,0,0,0,0,-1,1343,1317,0,0
126,-293,0,0,0,0,0,0,0,0,0,-1,1350,1317,0,0
133,-293,0,0,0,0,0,0,0,0,0,-1,1357,1317,0,0
140,-293,0,0,0,0,0,0,0,0,0,-1,1364,1317,0,0
147,-293,0,0,0,0,0,0,0,0,0,-1,1371,1317,0,0
154,-293,0,0,0,0,0,0,0,0,0,-1,1378,1317,0,0
161,-293,0,0,0,0,0,0,0,0,0,-1,1385,1317,0,0
168,-293,0,0,0,0,0,0,0,0,0,-1,1392,1317,0,0
175,-293,0,0,0,0,0,0,0,0,0,-1,1399,1317,0,0
182,-293,0,0,0,0,0,0,0,0,0,-1,1406,1317,0,0
189,-293,0,0,0,0,0,0,0,0,0,-1,1413,1317,0,0
196,-293,0,0,0,0,0,0,0,0,0,-1,1420,1317,0,0
203,-293,0,0,0,0,0,0,0,0,0,-1,1427,1317,0,0
210,-293,0,0,0,0,0,0,0,0,0,-1,1434,1317,0,0
217,-293,0,0,0,0,0,0,0,0,0,-1,1441,1317,0,0
224,-293,0,0,0,0,0,0,0,0,0,-1,1448,1317,0,0
231,-293,0,0,0,0,0,0,0,0,0,-1,1455,1317,0,0
238,-293,0,0,0,0,0,0,0,0,0,-1,1462,1317,0,0
245,-293,0,0,0,0,0,0,0,0,0,-1,1469,1317,0,0
252,-293,0,0,0,0,0,0,0,0,0,-1,1476,1317,0,0
259,-293,0,0,0,0,0,0,0,0,0,-1,1483,1317,0,0
266,-293,0,0,0,0,0,0,0,0,0,-1,1490,1317,0,0
273,-293,0,0,0,0,0,0,0,0,0,-1,1497,1317,0,0
280,-293,0,0,0,0,0,0,0,0,0,-1,1504,1317,0,0
287,-293,0,0,0,0,0,0,0,0,0,-1,1511,1317,0,0
294,-293,0,0,0,0,0,0,0,0,0,-1,1518,1317,0,0
301,-293,0,0,0,0,0,0,0,0,0,-1,1525,1317,0,0
308,-293,0,0,0,0,0,0,0,0,0,-1,1532,1317,0,0
315,-293,0,0,0,0,0,0,0,0,0,-1,1539,1317,0,0
322,-293,0,0,0,0,0,0,0,0,0,-1,1546,1317,0,0
329,-293,0,0,0,0,0,0,0,0,0,-1,1553,1317,0,0
336,-293,0,0,0,0,0,0,0,0,0,-1,1560,1317,0,0
343,-293,0,0,0,0,0,0,0,0,0,-1,1567,1317,0,0
350,-293,0,0,0,0,0,0,0,0,0,-1,1574,1317,0,0
357,-293,0,0,0,0,0,0,0,0,0,-1,1581,1317,0,0
364,-293,0,0,0,0,0,0,0,0,0,-1,1588,1317,0,0
371,-293,0,0,0,0,0,0,0,0,0,-1,1595,1317,0,0
378,-293,0,0,0,0,0,0,0,0,0,-1,1602,1317,0,0
385,-293,0,0,0,0,0,0,0,0,0,-1,1609,1317,0,0
392,-293,0,0,0,0,0,0,0,0,0,-1,1616,1317,0,0
399,-293,0,0,0,0,0,0,0,0,0,-1,1623,1317,0,0
406,-293,0,0,0,0,0,0,0,0,0,-1,1630,1317,0,0
413,-293,0,0,0,0,0,0,0,0,0,-1,1637,1317,0,0
420,-293,0,0,0,0,0,0,0,0,0,-1,1644,1317,0,0
427,-293,0,0,0,0,0,0,0,0,0,-1,1651,1317,0,0
434,-293,0,0,0,0,0,0,0,0,0,-1,1658,1317,0,0
441,-293,0,0,0,0,0,0,0,0,0,-1,1665,1317,0,0
448,-293,0,0,0,0,0,0,0,0,0,-1,1672,1317,0,0
455,-293,0,0,0,0,0,0,0,0,0,-1,1679,1317,0,0
462,-293,0,0,0,0,0,0,0,0,0,-1,1686,1317,0,0
469,-293,0,0,0,0,0,0,0,0,0,-1,1693,1317,0,0
476,-293,0,0,0,0,0,0,0,0,0,-1,1700,1317,0,0
483,-293,0,0,0,0,0,0,0,0,0,-1,1707,1317,0,0
490,-293,0,0,0,0,0,0,0,0,0,-1,1714,1317,0,0
497,-293,0,0,0,0,0,0,0,0,0,-1,1721,1317,0,0
504,-293,0,0,0,0,0,0,0,0,0,-1,1728,1317,0,0
511,-293,0,0,0,0,0,0,0,0,0,-1,1735,1317,0,0
518,-293,0,0,0,0,0,0,0,0,0,-1,1742,1317,0,0
525,-293,0,0,0,0,0,0,0,0,0,-1,1749,1317,0,0
532,-293,0,0,0,0,0,0,0,0,0,-1,1756,1317,0,0
539,-293,0,0,0,0,0,0,0,0,0,-1,1763,1317,0,0
546,-293,0,0,0,0,0,0,0,0,0,-1,1770,1317,0,0
553,-293,0,0,0,0,0,0,0,0,0,-1,1777,1317,0,0
560,-293,0,0,0,0,0,0,0,0,0,-1,1784,1317,0,0
567,-293,0,0,0,0,0,0,0,0,0,-1,1791,1317,0,0
574,-293,0,0,0,0,0,0,0,0,0,-1,1798,1317,0,0
581,-293,0,0,0,0,0,0,0,0,0,-1,1805,1317,0,0
588,-293,0,0,0,0,0,0,0,0,0,-1,1812,1317,0,0
595,-293,16.7931,2.15552,-0.0225948,0.0224998,0.00313857,0.0227172,-0.0228122,1.50164,0.0262864,0.0459641,1819,1317,16.7931,-2.15555
602,-293,16.5204,1.59216,0.00656444,0.0245453,0.00670445,0.02677,0.00433982,1.25042,0.0165903,0.0454341,1826,1317,16.5204,-1.59218
609,-293,16.4764,1.4093,0,0,0,0,0,0,0,-1,1833,1317,16.4765,-1.40932
616,-293,13.7054,0.997925,0.0303157,0.0201568,0.0120869,0.0383471,0.0121254,0.586481,0.0226329,0.0482421,1840,1317,13.7055,-0.997877
623,-293,15.0408,1.28113,0.0318313,0.0168997,0.0131019,0.0394452,0.00928585,0.52643,0.0238129,0.0449363,1847,1317,15.0408,-1.28116
630,-293,16.4797,1.39709,0.0303736,0.0135801,0.013368,0.0377632,0.00619048,0.504978,0.0233867,0.0431276,1854,1317,16.4797,-1.39705
637,-293,17.6396,1.67041,0,0,0,0,0,0,0,-1,1861,1317,17.6397,-1.67035
644,-293,14.8771,1.60461,0,0,0,0,0,0,0,-1,1868,1317,14.877,-1.60463
651,-293,14.2732,5.03442,0,0,0,0,0,0,0,-1,1875,1317,14.2731,-5.03439
658,-293,14.0199,4.97791,0.0148784,0.00260299,0.0113857,0.0216754,-0.00419401,0.538192,0.0160322,0.0388466,1882,1317,14.0199,-4.97793
665,-293,13.7054,4.90198,0.00955365,0.00094448,0.0100709,0.0162014,-0.00570326,0.583436,0.0131219,0.0326497,1889,1317,13.7055,-4.90194
672,-293,13.5182,4.86304,0.00468788,-0.000190478,0.00790834,0.0105247,-0.00602725,0.635811,0.00967312,0.0177616,1896,1317,13.5182,-4.86307
679,-293,13.4951,4.69421,-0.000477562,-0.00131181,0.00650619,0.00562486,-0.00741424,0.753386,0.00755172,0.0128657,1903,1317,13.4952,-4.69425
686,-293,13.521,4.55945,-0.00446946,-0.00149625,0.00458529,0.0018374,-0.0078031,0.942158,0.00591052,0.0142992,1910,1317,13.5211,-4.55942
693,-293,13.5183,4.39148,-0.0038986,-0.000395146,0.00265101,0.00103061,-0.00532436,1.07736,0.00393832,0.0112265,1917,1317,13.5183,-4.39147
700,-293,13.4973,4.2168,-0.00170392,0.00158041,0.000310293,0.00160947,-0.00173298,1.47742,0.0019302,0.00981197,1924,1317,13.4973,-4.21679
707,-293,13.5001,4.09424,0.000697325,0.00398394,-0.00248716,0.00532164,-0.000640382,-1.07733,0.00377935,0.0115757,1931,1317,13.5002,-4.09426
714,-293,13.4843,3.95813,0.00376886,0.00610902,-0.00531964,0.0103857,-0.000507866,-0.893652,0.00709917,0.00854952,1938,1317,13.4843,-3.95816
721,-293,13.483,3.81641,0.00692947,0.00874609,-0.00851803,0.0164041,-0.000728544,-0.838514,0.0111868,0.00947524,1945,1317,13.4831,-3.81638
728,-293,13.4849,3.65845,0.00985651,0.0117179,-0.01173,0.0225541,-0.000979653,-0.824987,0.015373,0.0114917,1952,1317,13.4848,-3.65849
735,-293,13.4907,3.46411,0.0134593,0.0147739,-0.0154699,0.0296004,-0.00136725,-0.806629,0.0202048,0.0150296,1959,1317,13.4907,-3.46408
742,-293,13.5227,3.22888,0.0177687,0.0181177,-0.0198304,0.0377744,-0.00188798,-0.789797,0.0258353,0.0250672,1966,1317,13.5227,-3.22891
749,-293,13.5925,2.80933,0.0229575,0.0213364,-0.0246333,0.0467936,-0.00249966,-0.768952,0.0320614,0.0394063,1973,1317,13.5926,-2.80937
756,-293,13.6927,2.27246,0,0,0,0,0,0,0,-1,1980,1317,13.6928,-2.27248
763,-293,13.0333,2.17566,0,0,0,0,0,0,0,-1,1987,1317,13.0333,-2.17566
770,-293,14.4299,1.1571,0,0,0,0,0,0,0,-1,1994,1317,14.4299,-1.15716
777,-293,0,0,0,0,0,0,0,0,0,-1,2001,1317,0,0
784,-293,0,0,0,0,0,0,0,0,0,-1,2008,1317,0,0
791,-293,0,0,0,0,0,0,0,0,0,-1,2015,1317,0,0
798,-293,0,0,0,0,0,0,0,0,0,-1,2022,1317,0,0
805,-293,0,0,0,0,0,0,0,0,0,-1,2029,1317,0,0
812,-293,0,0,0,0,0,0,0,0,0,-1,2036,1317,0,0
-700,-300,0,0,0,0,0,0,0,0,0,-1,524,1324,0,0
-693,-300,0,0,0,0,0,0,0,0,0,-1,531,1324,0,0
-686,-300,0,0,0,0,0,0,0,0,0,-1,538,1324,0,0
-679,-300,0,0,0,0,0,0,0,0,0,-1,545,1324,0,0
-672,-300,0,0,0,0,0,0,0,0,0,-1,552,1324,0,0
-665,-300,0,0,0,0,0,0,0,0,0,-1,559,1324,0,0
-658,-300,0,0,0,0,0,0,0,0,0,-1,566,1324,0,0
-651,-300,-5.0426,-0.327026,0,0,0,0,0,0,0,-1,573,1324,-5.04261,0.327064
-644,-300,-5.38049,-0.274292,-0.0184264,-0.026051,-0.0401249,0.0180669,-0.0625443,-0.738035,0.0488452,0.0480351,580,1324,-5.38049,0.274342
-637,-300,-5.77734,-0.155884,-0.0155558,-0.0194392,-0.0339408,0.0164988,-0.0514938,-0.756825,0.0409521,0.0464669,587,1324,-5.77732,0.155827
-630,-300,-6.66113,0.923218,0,0,0,0,0,0,0,-1,594,1324,-6.66114,-0.923189
-623,-300,-6.60138,1.06042,-0.0105399,-0.00988572,-0.0230368,0.0128263,-0.0332519,-0.792497,0.0274607,0.0479211,601,1324,-6.60138,-1.06037
-616,-300,-6.52332,1.18689,-0.00847973,-0.00654309,-0.0182841,0.0107983,-0.0258211,-0.811853,0.0217272,0.043648,608,1324,-6.52332,-1.18688
-609,-300,-6.44775,1.29883,-0.00672476,-0.00387168,-0.0140364,0.00881046,-0.0194069,-0.83604,0.0166698,0.0421416,615,1324,-6.44777,-1.29888
-602,-300,-6.36676,1.38367,-0.00523927,-0.00205521,-0.0103014,0.00677647,-0.014071,-0.862064,0.0122794,0.0323733,622,1324,-6.36678,-1.38372
-595,-300,-6.46149,1.5116,-0.00403307,-0.000827866,-0.00718237,0.00492853,-0.00978946,-0.895165,0.00865054,0.0175152,629,1324,-6.46147,-1.51155
-588,-300,-6.44061,1.69971,-0.00276201,-0.00034511,-0.00480537,0.00340143,-0.00650855,-0.908583,0.00581452,0.0188793,636,1324,-6.4406,-1.69966
-581,-300,-6.45001,1.89221,-0.00150993,-0.000311784,-0.00332004,0.0024628,-0.00428451,-0.874658,0.00394261,0.0184081,643,1324,-6.44999,-1.89217
-574,-300,-6.44904,2.08545,-0.000433228,-7.34425e-06,-0.0021993,0.0019893,-0.00242987,-0.833659,0.00255563,0.0146883,650,1324,-6.44904,-2.08542
-567,-300,-6.43848,2.2666,0.000349878,-0.0005237,-0.00179602,0.00176146,-0.00193528,-0.666115,0.0021351,0.0154322,657,1324,-6.43845,-2.26665
-560,-300,-6.44366,2.44446,0.000956066,-0.00177832,-0.00223248,0.00220673,-0.00302898,-0.510651,0.00303524,0.0142188,664,1324,-6.44366,-2.44443
-553,-300,-6.42218,2.61462,0.000999647,-0.00186148,-0.00328986,0.00315652,-0.00401835,-0.58031,0.00415236,0.00980703,671,1324,-6.42219,-2.61462
-546,-300,-6.41498,2.8031,1.53548e-05,-0.00124533,-0.00420967,0.00364162,-0.00487159,-0.711082,0.00493217,0.00816016,678,1324,-6.415,-2.80309
-539,-300,-6.40802,2.98462,-0.00223982,0.000833226,-0.00461373,0.00415956,-0.00556616,-0.946138,0.00563469,0.0132146,685,1324,-6.40805,-2.98465
-532,-300,-6.54889,3.04297,-0.00518577,0.00447483,-0.00499491,0.00659298,-0.00730392,-1.16972,0.00802688,0.0303057,692,1324,-6.54892,-3.04298
-525,-300,-6.1795,2.953,-0.00918132,0.0087196,-0.00443558,0.00975839,-0.0102201,-1.34075,0.0115356,0.045527,699,1324,-6.17951,-2.95296
-518,-300,-6.00452,2.78467,0,0,0,0,0,0,0,-1,706,1324,-6.00454,-2.78465
-511,-300,-6.20953,-1.93762,0,0,0,0,0,0,0,-1,713,1324,-6.20955,1.93757
-504,-300,-7.23419,-0.838135,0,0,0,0,0,0,0,-1,720,1324,-7.23417,0.838159
-497,-300,-9.20538,-0.944458,0,0,0,0,0,0,0,-1,727,1324,-9.20537,0.94442
-490,-300,-9.72479,-0.845581,-0.0486806,0.0553643,0.0120563,0.0567431,-0.0500594,1.45693,0.0617027,0.0451871,734,1324,-9.72478,0.845543
-483,-300,-9.96429,-0.411377,-0.0626298,0.0745115,0.0218053,0.077895,-0.0660133,1.41685,0.0831799,0.0442012,741,1324,-9.96432,0.411422
-476,-300,-10.7219,0.213135,-0.0745114,0.0935397,0.0328191,0.0997216,-0.0806933,1.38461,0.104356,0.0422314,748,1324,-10.7218,-0.213077
-469,-300,0,0,0,0,0,0,0,0,0,-1,755,1324,0,0
-462,-300,0,0,0,0,0,0,0,0,0,-1,762,1324,0,0
-455,-300,0,0,0,0,0,0,0,0,0,-1,769,1324,0,0
-448,-300,0,0,0,0,0,0,0,0,0,-1,776,1324,0,0
-441,-300,0,0,0,0,0,0,0,0,0,-1,783,1324,0,0
-434,-300,0,0,0,0,0,0,0,0,0,-1,790,1324,0,0
-427,-300,0,0,0,0,0,0,0,0,0,-1,797,1324,0,0
-420,-300,0,0,0,0,0,0,0,0,0,-1,804,1324,0,0
-413,-300,0,0,0,0,0,0,0,0,0,-1,811,1324,0,0
-406,-300,0,0,0,0,0,0,0,0,0,-1,818,1324,0,0
-399,-300,0,0,0,0,0,0,0,0,0,-1,825,1324,0,0
-392,-300,0,0,0,0,0,0,0,0,0,-1,832,1324,0,0
-385,-300,0,0,0,0,0,0,0,0,0,-1,839,1324,0,0
-378,-300,0,0,0,0,0,0,0,0,0,-1,846,1324,0,0
-371,-300,0,0,0,0,0,0,0,0,0,-1,853,1324,0,0
-364,-300,0,0,0,0,0,0,0,0,0,-1,860,1324,0,0
-357,-300,0,0,0,0,0,0,0,0,0,-1,867,1324,0,0
-350,-300,0,0,0,0,0,0,0,0,0,-1,874,1324,0,0
-343,-300,0,0,0,0,0,0,0,0,0,-1,881,1324,0,0
-336,-300,0,0,0,0,0,0,0,0,0,-1,888,1324,0,0
-329,-300,0,0,0,0,0,0,0,0,0,-1,895,1324,0,0
-322,-300,0,0,0,0,0,0,0,0,0,-1,902,1324,0,0
-315,-300,0,0,0,0,0,0,0,0,0,-1,909,1324,0,0
-308,-300,0,0,0,0,0,0,0,0,0,-1,916,1324,0,0
-301,-300,0,0,0,0,0,0,0,0,0,-1,923,1324,0,0
-294,-300,0,0,0,0,0,0,0,0,0,-1,930,1324,0,0
-287,-300,0,0,0,0,0,0,0,0,0,-1,937,1324,0,0
-280,-300,0,0,0,0,0,0,0,0,0,-1,944,1324,0,0
-273,-300,0,0,0,0,0,0,0,0,0,-1,951,1324,0,0
-266,-300,0,0,0,0,0,0,0,0,0,-1,958,1324,0,0
-259,-300,0,0,0,0,0,0,0,0,0,-1,965,1324,0,0
-252,-300,0,0,0,0,0,0,0,0,0,-1,972,1324,0,0
-245,-300,0,0,0,0,0,0,0,0,0,-1,979,1324,0,0
-238,-300,0,0,0,0,0,0,0,0,0,-1,986,1324,0,0
-231,-300,0,0,0,0,0,0,0,0,0,-1,993,1324,0,0
-224,-300,0,0,0,0,0,0,0,0,0,-1,1000,1324,0,0
-217,-300,0,0,0,0,0,0,0,0,0,-1,1007,1324,0,0
-210,-300,0,0,0,0,0,0,0,0,0,-1,1014,1324,0,0
-203,-300,0,0,0,0,0,0,0,0,0,-1,1021,1324,0,0
-196,-300,0,0,0,0,0,0,0,0,0,-1,1028,1324,0,0
-189,-300,0,0,0,0,0,0,0,0,0,-1,1035,1324,0,0
-182,-300,0,0,0,0,0,0,0,0,0,-1,1042,1324,0,0
-175,-300,0,0,0,0,0,0,0,0,0,-1,1049,1324,0,0
-168,-300,0,0,0,0,0,0,0,0,0,-1,1056,1324,0,0
-161,-300,0,0,0,0,0,0,0,0,0,-1,1063,1324,0,0
-154,-300,0,0,0,0,0,0,0,0,0,-1,1070,1324,0,0
-147,-300,0,0,0,0,0,0,0,0,0,-1,1077,1324,0,0
-140,-300,0,0,0,0,0,0,0,0,0,-1,1084,1324,0,0
-133,-300,0,0,0,0,0,0,0,0,0,-1,1091,1324,0,0
-126,-300,0,0,0,0,0,0,0,0,0,-1,1098,1324,0,0
-119,-300,0,0,0,0,0,0,0,0,0,-1,1105,1324,0,0
-112,-300,0,0,0,0,0,0,0,0,0,-1,1112,1324,0,0
-105,-300,0,0,0,0,0,0,0,0,0,-1,1119,1324,0,0
-98,-300,0,0,0,0,0,0,0,0,0,-1,1126,1324,0,0
-91,-300,0,0,0,0,0,0,0,0,0,-1,1133,1324,0,0
-84,-300,0,0,0,0,0,0,0,0,0,-1,1140,1324,0,0
-77,-300,0,0,0,0,0,0,0,0,0,-1,1147,1324,0,0
-70,-300,0,0,0,0,0,0,0,0,0,-1,1154,1324,0,0
-63,-300,0,0,0,0,0,0,0,0,0,-1,1161,1324,0,0
-56,-300,0,0,0,0,0,0,0,0,0,-1,1168,1324,0,0
-49,-300,0,0,0,0,0,0,0,0,0,-1,1175,1324,0,0
-42,-300,0,0,0,0,0,0,0,0,0,-1,1182,1324,0,0
-35,-300,0,0,0,0,0,0,0,0,0,-1,1189,1324,0,0
-28,-300,0,0,0,0,0,0,0,0,0,-1,1196,1324,0,0
-21,-300,0,0,0,0,0,0,0,0,0,-1,1203,1324,0,0
-14,-300,0,0,0,0,0,0,0,0,0,-1,1210,1324,0,0
-7,-300,0,0,0,0,0,0,0,0,0,-1,1217,1324,0,0
0,-300,0,0,0,0,0,0,0,0,0,-1,1224,1324,0,0
7,-300,0,0,0,0,0,0,0,0,0,-1,1231,1324,0,0
14,-300,0,0,0,0,0,0,0,0,0,-1,1238,1324,0,0
21,-300,0,0,0,0,0,0,0,0,0,-1,1245,1324,0,0
28,-300,0,0,0,0,0,0,0,0,0,-1,1252,1324,0,0
35,-300,0,0,0,0,0,0,0,0,0,-1,1259,1324,0,0
42,-300,0,0,0,0,0,0,0,0,0,-1,1266,1324,0,0
49,-300,0,0,0,0,0,0,0,0,0,-1,1273,1324,0,0
56,-300,0,0,0,0,0,0,0,0,0,-1,1280,1324,0,0
63,-300,0,0,0,0,0,0,0,0,0,-1,1287,1324,0,0
70,-300,0,0,0,0,0,0,0,0,0,-1,1294,1324,0,0
77,-300,0,0,0,0,0,0,0,0,0,-1,1301,1324,0,0
84,-300,0,0,0,0,0,0,0,0,0,-1,1308,1324,0,0
91,-300,0,0,0,0,0,0,0,0,0,-1,1315,1324,0,0
98,-300,0,0,0,0,0,0,0,0,0,-1,1322,1324,0,0
105,-300,0,0,0,0,0,0,0,0,0,-1,1329,1324,0,0
112,-300,0,0,0,0,0,0,0,0,0,-1,1336,1324,0,0
119,-300,0,0,0,0,0,0,0,0,0,-1,1343,1324,0,0
126,-300,0,0,0,0,0,0,0,0,0,-1,1350,1324,0,0
133,-300,0,0,0,0,0,0,0,0,0,-1,1357,1324,0,0
140,-300,0,0,0,0,0,0,0,0,0,-1,1364,1324,0,0
147,-300,0,0,0,0,0,0,0,0,0,-1,1371,1324,0,0
154,-300,0,0,0,0,0,0,0,0,0,-1,1378,1324,0,0
161,-300,0,0,0,0,0,0,0,0,0,-1,1385,1324,0,0
168,-300,0,0,0,0,0,0,0,0,0,-1,1392,1324,0,0
175,-300,0,0,0,0,0,0,0,0,0,-1,1399,1324,0,0
182,-300,0,0,0,0,0,0,0,0,0,-1,1406,1324,0,0
189,-300,0,0,0,0,0,0,0,0,0,-1,1413,1324,0,0
196,-300,0,0,0,0,0,0,0,0,0,-1,1420,1324,0,0
203,-300,0,0,0,0,0,0,0,0,0,-1,1427,1324,0,0
210,-300,0,0,0,0,0,0,0,0,0,-1,1434,1324,0,0
217,-300,0,0,0,0,0,0,0,0,0,-1,1441,1324,0,0
224,-300,0,0,0,0,0,0,0,0,0,-1,1448,1324,0,0
231,-300,0,0,0,0,0,0,0,0,0,-1,1455,1324,0,0
238,-300,0,0,0,0,0,0,0,0,0,-1,1462,1324,0,0
245,-300,0,0,0,0,0,0,0,0,0,-1,1469,1324,0,0
252,-300,0,0,0,0,0,0,0,0,0,-1,1476,1324,0,0
259,-300,0,0,0,0,0,0,0,0,0,-1,1483,1324,0,0
266,-300,0,0,0,0,0,0,0,0,0,-1,1490,1324,0,0
273,-300,0,0,0,0,0,0,0,0,0,-1,1497,1324,0,0
280,-300,0,0,0,0,0,0,0,0,0,-1,1504,1324,0,0
287,-300,0,0,0,0,0,0,0,0,0,-1,1511,1324,0,0
294,-300,0,0,0,0,0,0,0,0,0,-1,1518,1324,0,0
301,-300,0,0,0,0,0,0,0,0,0,-1,1525,1324,0,0
308,-300,0,0,0,0,0,0,0,0,0,-1,1532,1324,0,0
315,-300,0,0,0,0,0,0,0,0,0,-1,1539,1324,0,0
322,-300,0,0,0,0,0,0,0,0,0,-1,1546,1324,0,0
329,-300,0,0,0,0,0,0,0,0,0,-1,1553,1324,0,0
336,-300,0,0,0,0,0,0,0,0,0,-1,1560,1324,0,0
343,-300,0,0,0,0,0,0,0,0,0,-1,1567,1324,0,0
350,-300,0,0,0,0,0,0,0,0,0,-1,1574,1324,0,0
357,-300,0,0,0,0,0,0,0,0,0,-1,1581,1324,0,0
364,-300,0,0,0,0,0,0,0,0,0,-1,1588,1324,0,0
371,-300,0,0,0,0,0,0,0,0,0,-1,1595,1324,0,0
378,-300,0,0,0,0,0,0,0,0,0,-1,1602,1324,0,0
385,-300,0,0,0,0,0,0,0,0,0,-1,1609,1324,0,0
392,-300,0,0,0,0,0,0,0,0,0,-1,1616,1324,0,0
399,-300,0,0,0,0,0,0,0,0,0,-1,1623,1324,0,0
406,-300,0,0,0,0,0,0,0,0,0,-1,1630,1324,0,0
413,-300,0,0,0,0,0,0,0,0,0,-1,1637,1324,0,0
420,-300,0,0,0,0,0,0,0,0,0,-1,1644,1324,0,0
427,-300,0,0,0,0,0,0,0,0,0,-1,1651,1324,0,0
434,-300,0,0,0,0,0,0,0,0,0,-1,1658,1324,0,0
441,-300,0,0,0,0,0,0,0,0,0,-1,1665,1324,0,0
448,-300,0,0,0,0,0,0,0,0,0,-1,1672,1324,0,0
455,-300,0,0,0,0,0,0,0,0,0,-1,1679,1324,0,0
462,-300,0,0,0,0,0,0,0,0,0,-1,1686,1324,0,0
469,-300,0,0,0,0,0,0,0,0,0,-1,1693,1324,0,0
476,-300,0,0,0,0,0,0,0,0,0,-1,1700,1324,0,0
483,-300,0,0,0,0,0,0,0,0,0,-1,1707,1324,0,0
490,-300,0,0,0,0,0,0,0,0,0,-1,1714,1324,0,0
497,-300,0,0,0,0,0,0,0,0,0,-1,1721,1324,0,0
504,-300,0,0,0,0,0,0,0,0,0,-1,1728,1324,0,0
511,-300,0,0,0,0,0,0,0,0,0,-1,1735,1324,0,0
518,-300,0,0,0,0,0,0,0,0,0,-1,1742,1324,0,0
525,-300,0,0,0,0,0,0,0,0,0,-1,1749,1324,0,0
532,-300,0,0,0,0,0,0,0,0,0,-1,1756,1324,0,0
539,-300,0,0,0,0,0,0,0,0,0,-1,1763,1324,0,0
546,-300,0,0,0,0,0,0,0,0,0,-1,1770,1324,0,0
553,-300,0,0,0,0,0,0,0,0,0,-1,1777,1324,0,0
560,-300,0,0,0,0,0,0,0,0,0,-1,1784,1324,0,0
567,-300,0,0,0,0,0,0,0,0,0,-1,1791,1324,0,0
574,-300,0,0,0,0,0,0,0,0,0,-1,1798,1324,0,0
581,-300,0,0,0,0,0,0,0,0,0,-1,1805,1324,0,0
588,-300,16.9188,2.37781,0,0,0,0,0,0,0,-1,1812,1324,16.9188,-2.37777
595,-300,16.7423,2.02173,0,0,0,0,0,0,0,-1,1819,1324,16.7423,-2.02167
602,-300,16.4208,1.15259,0,0,0,0,0,0,0,-1,1826,1324,16.4207,-1.15262
609,-300,16.3939,1.02734,0,0,0,0,0,0,0,-1,1833,1324,16.3939,-1.02733
616,-300,13.6091,1.1333,0,0,0,0,0,0,0,-1,1840,1324,13.6092,-1.13325
623,-300,14.7715,1.27563,0.0280794,0.0175021,0.0139886,0.0377457,0.00783581,0.604669,0.0230011,0.0472693,1847,1324,14.7715,-1.27568
630,-300,16.2216,1.19421,0.0270044,0.0142376,0.0139504,0.0359626,0.00527951,0.570829,0.0224233,0.0452554,1854,1324,16.2216,-1.19416
637,-300,17.2971,1.93994,0,0,0,0,0,0,0,-1,1861,1324,17.2972,-1.93998
644,-300,13.1221,5.77844,0,0,0,0,0,0,0,-1,1868,1324,13.1221,-5.77841
651,-300,13.8512,4.85144,0,0,0,0,0,0,0,-1,1875,1324,13.8512,-4.85148
658,-300,13.5524,4.99951,0.0140004,0.00292723,0.0115911,0.0213094,-0.00438174,0.562591,0.0158698,0.0419709,1882,1324,13.5523,-4.99956
665,-300,13.3834,4.99829,0.0088836,0.00113549,0.0101298,0.0158549,-0.0058358,0.602759,0.0129608,0.0262523,1889,1324,13.3834,-4.9983
672,-300,13.3245,4.87512,0.00428908,-9.51609e-05,0.00778948,0.010189,-0.00599509,0.648235,0.0094479,0.0118455,1896,1324,13.3245,-4.87511
679,-300,13.3296,4.69836,-0.000503784,-0.00119442,0.00631697,0.0054773,-0.00717551,0.758093,0.007327,0.0116242,1903,1324,13.3295,-4.69835
686,-300,13.345,4.55774,-0.00394909,-0.00113017,0.00424021,0.0019287,-0.00700797,0.945855,0.00543027,0.0112217,1910,1324,13.345,-4.55774
693,-300,13.3324,4.39539,-0.00297991,0.00021472,0.00204347,0.00121108,-0.00397627,1.11713,0.00313355,0.0100712,1917,1324,13.3324,-4.39539
700,-300,13.3192,4.21985,-0.000691319,0.00248604,-0.00055215,0.00257926,-0.000784535,-1.40355,0.00203214,0.0115328,1924,1324,13.3192,-4.21986
707,-300,13.3376,4.05627,0.00169121,0.00520402,-0.00347557,0.00734179,-0.000446556,-1.01936,0.00504996,0.00908497,1931,1324,13.3376,-4.05628
714,-300,13.3514,3.93152,0.00475178,0.00778192,-0.00648944,0.0129308,-0.000397102,-0.900078,0.0087559,0.0110391,1938,1324,13.3515,-3.93153
721,-300,13.3508,3.81177,0.00807271,0.0110087,-0.0100175,0.0196652,-0.000583815,-0.858151,0.013309,0.0118796,1945,1324,13.3509,-3.81175
728,-300,13.3561,3.65881,0.0112748,0.0147513,-0.0137249,0.0268476,-0.00082144,-0.848387,0.0181784,0.00980228,1952,1324,13.3561,-3.65876
735,-300,13.2924,3.53955,0.0152543,0.0188831,-0.0181344,0.0352936,-0.00115617,-0.835258,0.0239238,0.0146661,1959,1324,13.2924,-3.53953
742,-300,13.3604,3.27283,0.0200184,0.0235337,-0.0232912,0.0451335,-0.00158137,-0.823059,0.0306298,0.0273206,1966,1324,13.3603,-3.27284
749,-300,13.6136,2.71277,0.0256723,0.0283112,-0.028999,0.0560207,-0.00203723,-0.808132,0.0380444,0.0423553,1973,1324,13.6137,-2.71275
756,-300,13.759,2.14624,0,0,0,0,0,0,0,-1,1980,1324,13.7591,-2.1463
763,-300,13.6387,2.69275,0,0,0,0,0,0,0,-1,1987,1324,13.6387,-2.6928
770,-300,14.4004,3.8844,0,0,0,0,0,0,0,-1,1994,1324,14.4004,-3.88436
777,-300,0,0,0,0,0,0,0,0,0,-1,2001,1324,0,0
784,-300,0,0,0,0,0,0,0,0,0,-1,2008,1324,0,0
791,-300,0,0,0,0,0,0,0,0,0,-1,2015,1324,0,0
798,-300,0,0,0,0,0,0,0,0,0,-1,2022,1324,0,0
805,-300,0,0,0,0,0,0,0,0,0,-1,2029,1324,0,0
812,-300,0,0,0,0,0,0,0,0,0,-1,2036,1324,0,0
-700,-307,0,0,0,0,0,0,0,0,0,-1,524,1331,0,0
-693,-307,0,0,0,0,0,0,0,0,0,-1,531,1331,0,0
-686,-307,0,0,0,0,0,0,0,0,0,-1,538,1331,0,0
-679,-307,0,0,0,0,0,0,0,0,0,-1,545,1331,0,0
-672,-307,0,0,0,0,0,0,0,0,0,-1,552,1331,0,0
-665,-307,0,0,0,0,0,0,0,0,0,-1,559,1331,0,0
-658,-307,0,0,0,0,0,0,0,0,0,-1,566,1331,0,0
-651,-307,-11.0544,2.69751,0,0,0,0,0,0,0,-1,573,1331,-11.0544,-2.69755
-644,-307,-5.1156,-0.083374,0,0,0,0,0,0,0,-1,580,1331,-5.11562,0.0834155
-637,-307,-5.54333,-0.114502,0,0,0,0,0,0,0,-1,587,1331,-5.54332,0.114453
-630,-307,-6.47461,0.805176,0,0,0,0,0,0,0,-1,594,1331,-6.4746,-0.805205
-623,-307,-6.42084,0.972534,-0.0125109,-0.0123124,-0.0288954,0.0164839,-0.0413073,-0.787116,0.0343765,0.0472656,601,1331,-6.42083,-0.972495
-616,-307,-6.33368,1.11292,-0.00970681,-0.00823243,-0.0235866,0.0146285,-0.0325677,-0.80102,0.0278972,0.0459488,608,1331,-6.33367,-1.11293
-609,-307,-6.31628,0.880493,0,0,0,0,0,0,0,-1,615,1331,-6.31627,-0.88049
-602,-307,-6.21484,1.26831,-0.0058408,-0.00283806,-0.0139759,0.00971692,-0.0183958,-0.838906,0.0164867,0.0346841,622,1331,-6.21487,-1.26828
-595,-307,-6.28601,1.53137,-0.00430169,-0.00126088,-0.0100892,0.00742179,-0.0129844,-0.860184,0.0119265,0.016865,629,1331,-6.28601,-1.53136
-588,-307,-6.26038,1.73608,-0.00285998,-0.000300206,-0.00705881,0.00559381,-0.008754,-0.875083,0.00835042,0.0172924,636,1331,-6.2604,-1.73606
-581,-307,-6.23529,1.89612,-0.00175521,-6.01067e-05,-0.00478842,0.0039552,-0.00577051,-0.872991,0.00564765,0.0153667,643,1331,-6.23527,-1.89607
-574,-307,-6.25586,2.05798,-0.000819129,0.000666248,-0.00301858,0.00303216,-0.00318504,-0.906022,0.00358987,0.0129452,650,1331,-6.25584,-2.05801
-567,-307,-6.26233,2.23645,-0.000160478,0.000117575,-0.00200382,0.00198719,-0.00203009,-0.820033,0.00231942,0.0128752,657,1331,-6.2623,-2.23647
-560,-307,-6.24329,2.44006,0.000268237,-0.00143233,-0.00191582,0.00151398,-0.00267808,-0.576545,0.0024512,0.0135785,664,1331,-6.2433,-2.4401
-553,-307,-6.24432,2.62537,0.000179118,-0.00168796,-0.00270661,0.00210866,-0.00361751,-0.619331,0.00334404,0.0107055,671,1331,-6.24435,-2.62542
-546,-307,-6.23749,2.79578,-0.000731321,-0.00132242,-0.00352101,0.00250653,-0.00456027,-0.743527,0.00413705,0.010062,678,1331,-6.23746,-2.79572
-539,-307,-6.22162,2.9812,-0.00287981,0.000507551,-0.00390817,0.00307325,-0.00544551,-0.989867,0.00498147,0.0117027,685,1331,-6.22161,-2.98114
-532,-307,-6.21448,3.10266,-0.00583381,0.00384336,-0.00424496,0.00544151,-0.00743197,-1.21073,0.00746206,0.0239635,692,1331,-6.21447,-3.10262
-525,-307,-6.14459,2.9458,-0.00990466,0.00793342,-0.00369132,0.0086671,-0.0106383,-1.37459,0.0111654,0.0426775,699,1331,-6.1446,-2.94579
-518,-307,-6.05713,2.64148,-0.0148696,0.013178,-0.00297231,0.0134895,-0.0151812,-1.46637,0.0165626,0.0498433,706,1331,-6.0571,-2.64145
-511,-307,-6.13531,2.63171,0,0,0,0,0,0,0,-1,713,1331,-6.13533,-2.63177
-504,-307,-7.17999,-1.11121,0,0,0,0,0,0,0,-1,720,1331,-7.18002,1.11117
-497,-307,-8.13727,0.522583,0,0,0,0,0,0,0,-1,727,1331,-8.13725,-0.522549
-490,-307,-9.44379,-1.51672,0,0,0,0,0,0,0,-1,734,1331,-9.44378,1.51668
-483,-307,-9.49158,-1.00378,0,0,0,0,0,0,0,-1,741,1331,-9.49159,1.00381
-476,-307,-10.3927,-0.256836,0,0,0,0,0,0,0,-1,748,1331,-10.3927,0.256844
-469,-307,-8.20233,0.22937,0,0,0,0,0,0,0,-1,755,1331,-8.20233,-0.229403
-462,-307,0,0,0,0,0,0,0,0,0,-1,762,1331,0,0
-455,-307,0,0,0,0,0,0,0,0,0,-1,769,1331,0,0
-448,-307,0,0,0,0,0,0,0,0,0,-1,776,1331,0,0
-441,-307,0,0,0,0,0,0,0,0,0,-1,783,1331,0,0
-434,-307,0,0,0,0,0,0,0,0,0,-1,790,1331,0,0
-427,-307,0,0,0,0,0,0,0,0,0,-1,797,1331,0,0
-420,-307,0,0,0,0,0,0,0,0,0,-1,804,1331,0,0
-413,-307,0,0,0,0,0,0,0,0,0,-1,811,1331,0,0
-406,-307,0,0,0,0,0,0,0,0,0,-1,818,1331,0,0
-399,-307,0,0,0,0,0,0,0,0,0,-1,825,1331,0,0
-392,-307,0,0,0,0,0,0,0,0,0,-1,832,1331,0,0
-385,-307,0,0,0,0,0,0,0,0,0,-1,839,1331,0,0
-378,-307,0,0,0,0,0,0,0,0,0,-1,846,1331,0,0
-371,-307,0,0,0,0,0,0,0,0,0,-1,853,1331,0,0
-364,-307,0,0,0,0,0,0,0,0,0,-1,860,1331,0,0
-357,-307,0,0,0,0,0,0,0,0,0,-1,867,1331,0,0
-350,-307,0,0,0,0,0,0,0,0,0,-1,874,1331,0,0
-343,-307,0,0,0,0,0,0,0,0,0,-1,881,1331,0,0
-336,-307,0,0,0,0,0,0,0,0,0,-1,888,1331,0,0
-329,-307,0,0,0,0,0,0,0,0,0,-1,895,1331,0,0
-322,-307,0,0,0,0,0,0,0,0,0,-1,902,1331,0,0
-315,-307,0,0,0,0,0,0,0,0,0,-1,909,1331,0,0
-308,-307,0,0,0,0,0,0,0,0,0,-1,916,1331,0,0
-301,-307,0,0,0,0,0,0,0,0,0,-1,923,1331,0,0
-294,-307,0,0,0,0,0,0,0,0,0,-1,930,1331,0,0
-287,-307,0,0,0,0,0,0,0,0,0,-1,937,1331,0,0
-280,-307,0,0,0,0,0,0,0,0,0,-1,944,1331,0,0
-273,-307,0,0,0,0,0,0,0,0,0,-1,951,1331,0,0
-266,-307,0,0,0,0,0,0,0,0,0,-1,958,1331,0,0
-259,-307,0,0,0,0,0,0,0,0,0,-1,965,1331,0,0
-252,-307,0,0,0,0,0,0,0,0,0,-1,972,1331,0,0
-245,-307,0,0,0,0,0,0,0,0,0,-1,979,1331,0,0
-238,-307,0,0,0,0,0,0,0,0,0,-1,986,1331,0,0
-231,-307,0,0,0,0,0,0,0,0,0,-1,993,1331,0,0
-224,-307,0,0,0,0,0,0,0,0,0,-1,1000,1331,0,0
-217,-307,0,0,0,0,0,0,0,0,0,-1,1007,1331,0,0
-210,-307,0,0,0,0,0,0,0,0,0,-1,1014,1331,0,0
-203,-307,0,0,0,0,0,0,0,0,0,-1,1021,1331,0,0
-196,-307,0,0,0,0,0,0,0,0,0,-1,1028,1331,0,0
-189,-307,0,0,0,0,0,0,0,0,0,-1,1035,1331,0,0
-182,-307,0,0,0,0,0,0,0,0,0,-1,1042,1331,0,0
-175,-307,0,0,0,0,0,0,0,0,0,-1,1049,1331,0,0
-168,-307,0,0,0,0,0,0,0,0,0,-1,1056,1331,0,0
-161,-307,0,0,0,0,0,0,0,0,0,-1,1063,1331,0,0
-154,-307,0,0,0,0,0,0,0,0,0,-1,1070,1331,0,0
-147,-307,0,0,0,0,0,0,0,0,0,-1,1077,1331,0,0
-140,-307,0,0,0,0,0,0,0,0,0,-1,1084,1331,0,0
-133,-307,0,0,0,0,0,0,0,0,0,-1,1091,1331,0,0
-126,-307,0,0,0,0,0,0,0,0,0,-1,1098,1331,0,0
-119,-307,0,0,0,0,0,0,0,0,0,-1,1105,1331,0,0
-112,-307,0,0,0,0,0,0,0,0,0,-1,1112,1331,0,0
-105,-307,0,0,0,0,0,0,0,0,0,-1,1119,1331,0,0
-98,-307,0,0,0,0,0,0,0,0,0,-1,1126,1331,0,0
-91,-307,0,0,0,0,0,0,0,0,0,-1,1133,1331,0,0
-84,-307,0,0,0,0,0,0,0,0,0,-1,1140,1331,0,0
-77,-307,0,0,0,0,0,0,0,0,0,-1,1147,1331,0,0
-70,-307,0,0,0,0,0,0,0,0,0,-1,1154,1331,0,0
-63,-307,0,0,0,0,0,0,0,0,0,-1,1161,1331,0,0
-56,-307,0,0,0,0,0,0,0,0,0,-1,1168,1331,0,0
-49,-307,0,0,0,0,0,0,0,0,0,-1,1175,1331,0,0
-42,-307,0,0,0,0,0,0,0,0,0,-1,1182,1331,0,0
-35,-307,0,0,0,0,0,0,0,0,0,-1,1189,1331,0,0
-28,-307,0,0,0,0,0,0,0,0,0,-1,1196,1331,0,0
-21,-307,0,0,0,0,0,0,0,0,0,-1,1203,1331,0,0
-14,-307,0,0,0,0,0,0,0,0,0,-1,1210,1331,0,0
-7,-307,0,0,0,0,0,0,0,0,0,-1,1217,1331,0,0
0,-307,0,0,0,0,0,0,0,0,0,-1,1224,1331,0,0
7,-307,0,0,0,0,0,0,0,0,0,-1,1231,1331,0,0
14,-307,0,0,0,0,0,0,0,0,0,-1,1238,1331,0,0
21,-307,0,0,0,0,0,0,0,0,0,-1,1245,1331,0,0
28,-307,0,0,0,0,0,0,0,0,0,-1,1252,1331,0,0
35,-307,0,0,0,0,0,0,0,0,0,-1,1259,1331,0,0
42,-307,0,0,0,0,0,0,0,0,0,-1,1266,1331,0,0
49,-307,0,0,0,0,0,0,0,0,0,-1,1273,1331,0,0
56,-307,0,0,0,0,0,0,0,0,0,-1,1280,1331,0,0
63,-307,0,0,0,0,0,0,0,0,0,-1,1287,1331,0,0
70,-307,0,0,0,0,0,0,0,0,0,-1,1294,1331,0,0
77,-307,0,0,0,0,0,0,0,0,0,-1,1301,1331,0,0
84,-307,0,0,0,0,0,0,0,0,0,-1,1308,1331,0,0
91,-307,0,0,0,0,0,0,0,0,0,-1,1315,1331,0,0
98,-307,0,0,0,0,0,0,0,0,0,-1,1322,1331,0,0
105,-307,0,0,0,0,0,0,0,0,0,-1,1329,1331,0,0
112,-307,0,0,0,0,0,0,0,0,0,-1,1336,1331,0,0
119,-307,0,0,0,0,0,0,0,0,0,-1,1343,1331,0,0
126,-307,0,0,0,0,0,0,0,0,0,-1,1350,1331,0,0
133,-307,0,0,0,0,0,0,0,0,0,-1,1357,1331,0,0
140,-307,0,0,0,0,0,0,0,0,0,-1,1364,1331,0,0
147,-307,0,0,0,0,0,0,0,0,0,-1,1371,1331,0,0
154,-307,0,0,0,0,0,0,0,0,0,-1,1378,1331,0,0
161,-307,0,0,0,0,0,0,0,0,0,-1,1385,1331,0,0
168,-307,0,0,0,0,0,0,0,0,0,-1,1392,1331,0,0
175,-307,0,0,0,0,0,0,0,0,0,-1,1399,1331,0,0
182,-307,0,0,0,0,0,0,0,0,0,-1,1406,1331,0,0
189,-307,0,0,0,0,0,0,0,0,0,-1,1413,1331,0,0
196,-307,0,0,0,0,0,0,0,0,0,-1,1420,1331,0,0
203,-307,0,0,0,0,0,0,0,0,0,-1,1427,1331,0,0
210,-307,0,0,0,0,0,0,0,0,0,-1,1434,1331,0,0
217,-307,0,0,0,0,0,0,0,0,0,-1,1441,1331,0,0
224,-307,0,0,0,0,0,0,0,0,0,-1,1448,1331,0,0
231,-307,0,0,0,0,0,0,0,0,0,-1,1455,1331,0,0
238,-307,0,0,0,0,0,0,0,0,0,-1,1462,1331,0,0
245,-307,0,0,0,0,0,0,0,0,0,-1,1469,1331,0,0
252,-307,0,0,0,0,0,0,0,0,0,-1,1476,1331,0,0
259,-307,0,0,0,0,0,0,0,0,0,-1,1483,1331,0,0
266,-307,0,0,0,0,0,0,0,0,0,-1,1490,1331,0,0
273,-307,0,0,0,0,0,0,0,0,0,-1,1497,1331,0,0
280,-307,0,0,0,0,0,0,0,0,0,-1,1504,1331,0,0
287,-307,0,0,0,0,0,0,0,0,0,-1,1511,1331,0,0
294,-307,0,0,0,0,0,0,0,0,0,-1,1518,1331,0,0
301,-307,0,0,0,0,0,0,0,0,0,-1,1525,1331,0,0
308,-307,0,0,0,0,0,0,0,0,0,-1,1532,1331,0,0
315,-307,0,0,0,0,0,0,0,0,0,-1,1539,1331,0,0
322,-307,0,0,0,0,0,0,0,0,0,-1,1546,1331,0,0
329,-307,0,0,0,0,0,0,0,0,0,-1,1553,1331,0,0
336,-307,0,0,0,0,0,0,0,0,0,-1,1560,1331,0,0
343,-307,0,0,0,0,0,0,0,0,0,-1,1567,1331,0,0
350,-307,0,0,0,0,0,0,0,0,0,-1,1574,1331,0,0
357,-307,0,0,0,0,0,0,0,0,0,-1,1581,1331,0,0
364,-307,0,0,0,0,0,0,0,0,0,-1,1588,1331,0,0
371,-307,0,0,0,0,0,0,0,0,0,-1,1595,1331,0,0
378,-307,0,0,0,0,0,0,0,0,0,-1,1602,1331,0,0
385,-307,0,0,0,0,0,0,0,0,0,-1,1609,1331,0,0
392,-307,0,0,0,0,0,0,0,0,0,-1,1616,1331,0,0
399,-307,0,0,0,0,0,0,0,0,0,-1,1623,1331,0,0
406,-307,0,0,0,0,0,0,0,0,0,-1,1630,1331,0,0
413,-307,0,0,0,0,0,0,0,0,0,-1,1637,1331,0,0
420,-307,0,0,0,0,0,0,0,0,0,-1,1644,1331,0,0
427,-307,0,0,0,0,0,0,0,0,0,-1,1651,1331,0,0
434,-307,0,0,0,0,0,0,0,0,0,-1,1658,1331,0,0
441,-307,0,0,0,0,0,0,0,0,0,-1,1665,1331,0,0
448,-307,0,0,0,0,0,0,0,0,0,-1,1672,1331,0,0
455,-307,0,0,0,0,0,0,0,0,0,-1,1679,1331,0,0
462,-307,0,0,0,0,0,0,0,0,0,-1,1686,1331,0,0
469,-307,0,0,0,0,0,0,0,0,0,-1,1693,1331,0,0
476,-307,0,0,0,0,0,0,0,0,0,-1,1700,1331,0,0
483,-307,0,0,0,0,0,0,0,0,0,-1,1707,1331,0,0
490,-307,0,0,0,0,0,0,0,0,0,-1,1714,1331,0,0
497,-307,0,0,0,0,0,0,0,0,0,-1,1721,1331,0,0
504,-307,0,0,0,0,0,0,0,0,0,-1,1728,1331,0,0
511,-307,0,0,0,0,0,0,0,0,0,-1,1735,1331,0,0
518,-307,0,0,0,0,0,0,0,0,0,-1,1742,1331,0,0
525,-307,0,0,0,0,0,0,0,0,0,-1,1749,1331,0,0
532,-307,0,0,0,0,0,0,0,0,0,-1,1756,1331,0,0
539,-307,0,0,0,0,0,0,0,0,0,-1,1763,1331,0,0
546,-307,0,0,0,0,0,0,0,0,0,-1,1770,1331,0,0
553,-307,0,0,0,0,0,0,0,0,0,-1,1777,1331,0,0
560,-307,0,0,0,0,0,0,0,0,0,-1,1784,1331,0,0
567,-307,0,0,0,0,0,0,0,0,0,-1,1791,1331,0,0
574,-307,0,0,0,0,0,0,0,0,0,-1,1798,1331,0,0
581,-307,0,0,0,0,0,0,0,0,0,-1,1805,1331,0,0
588,-307,16.5608,0.742554,0,0,0,0,0,0,0,-1,1812,1331,16.5608,-0.742615
595,-307,16.4709,0.670776,-0.0032514,0.0241592,0.0114075,0.0282855,-0.0073777,1.22372,0.0217377,0.0465064,1819,1331,16.4709,-0.670781
602,-307,16.2969,0.841309,0.0114112,0.0253478,0.0124059,0.0326085,0.00415055,1.04129,0.0204961,0.0480902,1826,1331,16.2969,-0.841255
609,-307,16.3193,0.696899,0,0,0,0,0,0,0,-1,1833,1331,16.3194,-0.696886
616,-307,16.4713,0.561401,0.0235198,0.0209053,0.0143067,0.0365788,0.00784626,0.739839,0.0222368,0.0488086,1840,1331,16.4713,-0.561415
623,-307,14.3704,1.12769,0.0243942,0.0177174,0.0145117,0.0359466,0.00616508,0.67234,0.0221966,0.0457914,1847,1331,14.3704,-1.12772
630,-307,16.0757,1.08447,0,0,0,0,0,0,0,-1,1854,1331,16.0756,-1.08446
637,-307,12.832,3.13599,0,0,0,0,0,0,0,-1,1861,1331,12.832,-3.13602
644,-307,13.2107,4.72815,0,0,0,0,0,0,0,-1,1868,1331,13.2107,-4.72813
651,-307,13.27,4.69324,0.0155409,0.0059461,0.0123224,0.0239668,-0.0024798,0.599764,0.0168653,0.0498981,1875,1331,13.27,-4.69322
658,-307,13.3772,4.81531,0.0121206,0.00303809,0.0116577,0.0200903,-0.00493163,0.599665,0.0153046,0.0441612,1882,1331,13.3772,-4.81525
665,-307,13.1907,4.98132,0.00737954,0.00115944,0.0100418,0.0147819,-0.00624291,0.635228,0.0124679,0.0158956,1889,1331,13.1907,-4.98133
672,-307,13.1837,4.86072,0.0033236,-8.62e-05,0.00755688,0.00936551,-0.00612811,0.674451,0.00901011,0.00886613,1896,1331,13.1837,-4.86076
679,-307,13.1821,4.71167,-0.000810866,-0.00103482,0.00599241,0.00507061,-0.0069163,0.776056,0.00694794,0.0094615,1903,1331,13.1821,-4.71164
686,-307,13.1838,4.56165,-0.00351162,-0.000659804,0.0037714,0.00194625,-0.00611767,0.966134,0.00485891,0.00932249,1910,1331,13.1838,-4.56168
693,-307,13.1814,4.40222,-0.00217814,0.000934685,0.00134591,0.00143592,-0.00267937,1.2143,0.00241185,0.0112711,1917,1331,13.1814,-4.40217
700,-307,13.1868,4.22729,0.000169908,0.00349028,-0.00146064,0.00404136,-0.00038117,-1.21002,0.00282986,0.0124061,1924,1331,13.1867,-4.22734
707,-307,13.1866,4.05078,0.00253603,0.00654036,-0.00451588,0.00947802,-0.000401627,-0.994058,0.00645672,0.0138576,1931,1331,13.1867,-4.05081
714,-307,13.2085,3.91687,0.00556282,0.00963346,-0.00773251,0.015594,-0.000397757,-0.914087,0.0105311,0.0133435,1938,1331,13.2085,-3.91691
721,-307,13.228,3.80176,0.00901814,0.0135095,-0.0116096,0.0230886,-0.000560987,-0.880935,0.0155828,0.0147704,1945,1331,13.228,-3.8018
728,-307,13.2078,3.70117,0.012511,0.0181452,-0.0158917,0.0314676,-0.000811396,-0.873122,0.021254,0.0176166,1952,1331,13.2078,-3.70121
735,-307,13.1621,3.49548,0.0169023,0.0235583,-0.0211073,0.0415983,-0.00113782,-0.86359,0.0281192,0.0279947,1959,1331,13.1621,-3.49549
742,-307,13.4211,3.02014,0.0221769,0.0297368,-0.0272223,0.0534404,-0.00152668,-0.854385,0.0361466,0.036529,1966,1331,13.4211,-3.02013
749,-307,13.7046,2.29626,0.0283409,0.0363617,-0.0340513,0.0666379,-0.00193533,-0.844016,0.0450842,0.0397369,1973,1331,13.7046,-2.29625
756,-307,13.8076,1.89868,0.0353123,0.0430186,-0.0412778,0.0806227,-0.0022918,-0.831936,0.0545285,0.0471147,1980,1331,13.8076,-1.89867
763,-307,14.0383,1.69043,0,0,0,0,0,0,0,-1,1987,1331,14.0383,-1.69037
770,-307,0,0,0,0,0,0,0,0,0,-1,1994,1331,0,0
777,-307,0,0,0,0,0,0,0,0,0,-1,2001,1331,0,0
784,-307,0,0,0,0,0,0,0,0,0,-1,2008,1331,0,0
791,-307,0,0,0,0,0,0,0,0,0,-1,2015,1331,0,0
798,-307,0,0,0,0,0,0,0,0,0,-1,2022,1331,0,0
805,-307,0,0,0,0,0,0,0,0,0,-1,2029,1331,0,0
812,-307,0,0,0,0,0,0,0,0,0,-1,2036,1331,0,0
-700,-314,0,0,0,0,0,0,0,0,0,-1,524,1338,0,0
-693,-314,0,0,0,0,0,0,0,0,0,-1,531,1338,0,0
-686,-314,0,0,0,0,0,0,0,0,0,-1,538,1338,0,0
-679,-314,0,0,0,0,0,0,0,0,0,-1,545,1338,0,0
-672,-314,0,0,0,0,0,0,0,0,0,-1,552,1338,0,0
-665,-314,0,0,0,0,0,0,0,0,0,-1,559,1338,0,0
-658,-314,0,0,0,0,0,0,0,0,0,-1,566,1338,0,0
-651,-314,0,0,0,0,0,0,0,0,0,-1,573,1338,0,0
-644,-314,-6.59485,0.0650635,0,0,0,0,0,0,0,-1,580,1338,-6.59486,-0.0651028
-637,-314,-6.20819,0.330444,0,0,0,0,0,0,0,-1,587,1338,-6.20822,-0.330406
-630,-314,-6.08838,0.761475,-0.01447,-0.0182891,-0.0463602,0.0300199,-0.062779,-0.764815,0.054679,0.0438394,594,1338,-6.08837,-0.761474
-623,-314,-6.09814,0.921753,-0.0115893,-0.012525,-0.0390188,0.0269644,-0.0510788,-0.779403,0.0457696,0.0488351,601,1338,-6.09813,-0.921784
-616,-314,-6.69135,3.20593,0,0,0,0,0,0,0,-1,608,1338,-6.69136,-3.20593
-609,-314,-6.57178,2.6604,0,0,0,0,0,0,0,-1,615,1338,-6.5718,-2.66036
-602,-314,-6.27271,2.34863,0,0,0,0,0,0,0,-1,622,1338,-6.2727,-2.34868
-595,-314,-6.01971,1.59412,-0.00506378,-0.000729762,-0.01362,0.0108945,-0.016688,-0.86429,0.0160414,0.0289888,629,1338,-6.01972,-1.5941
-588,-314,-6.08185,1.71387,-0.00373724,0.000230187,-0.00952314,0.00797403,-0.0114811,-0.888082,0.0112931,0.0147265,636,1338,-6.08185,-1.71381
-581,-314,-6.04889,1.88416,-0.00265902,0.000484341,-0.00639485,0.00549782,-0.0076725,-0.905896,0.00763836,0.0132426,643,1338,-6.04892,-1.88418
-574,-314,-6.09015,2.02808,-0.00172936,0.00150594,-0.00391134,0.00412095,-0.00434437,-0.981477,0.00488802,0.0127582,650,1338,-6.09012,-2.02812
-567,-314,-6.0838,2.22229,-0.00102897,0.00085429,-0.00225507,0.00235643,-0.00253111,-0.983175,0.00282242,0.0134849,657,1338,-6.0838,-2.22226
-560,-314,-6.05157,2.43774,-0.000557168,-0.00104981,-0.00162995,0.000844968,-0.00245195,-0.710405,0.00197741,0.0146837,664,1338,-6.05157,-2.4377
-553,-314,-6.09674,2.60254,-0.000550486,-0.00147462,-0.00215655,0.00119295,-0.00321805,-0.679863,0.00263463,0.0175649,671,1338,-6.09677,-2.60257
-546,-314,-6.11554,2.78735,-0.00123043,-0.00138917,-0.00278998,0.00148131,-0.00410091,-0.771178,0.00333909,0.0176872,678,1338,-6.11555,-2.7873
-539,-314,-6.07715,2.98096,-0.00313045,6.89989e-05,-0.00315549,0.0020071,-0.00506855,-1.02,0.00421066,0.01597,685,1338,-6.07716,-2.98097
-532,-314,-5.9621,3.16504,-0.0059618,0.00293592,-0.00345442,0.00411958,-0.00714547,-1.24068,0.00658162,0.0220604,692,1338,-5.96207,-3.16509
-525,-314,-6.07892,3.2251,-0.0099964,0.00670539,-0.00297273,0.00721873,-0.0105097,-1.3998,0.0102942,0.0365183,699,1338,-6.07889,-3.22511
-518,-314,-6.10114,3.10327,-0.0149947,0.0117371,-0.00237876,0.0119471,-0.0152047,-1.48273,0.0157137,0.0438559,706,1338,-6.10113,-3.10321
-511,-314,-6.18842,3.04749,0,0,0,0,0,0,0,-1,713,1338,-6.18839,-3.04746
-504,-314,-6.55859,0.286255,0,0,0,0,0,0,0,-1,720,1338,-6.55857,-0.286298
-497,-314,-7.53638,0.727661,0,0,0,0,0,0,0,-1,727,1338,-7.5364,-0.727614
-490,-314,-8.32819,1.97522,0,0,0,0,0,0,0,-1,734,1338,-8.32819,-1.97518
-483,-314,-9.19611,3.01001,0,0,0,0,0,0,0,-1,741,1338,-9.19608,-3.00996
-476,-314,-10.0875,4.0531,0,0,0,0,0,0,0,-1,748,1338,-10.0875,-4.05312
-469,-314,-7.72278,-0.262085,0,0,0,0,0,0,0,-1,755,1338,-7.72276,0.262118
-462,-314,0,0,0,0,0,0,0,0,0,-1,762,1338,0,0
-455,-314,0,0,0,0,0,0,0,0,0,-1,769,1338,0,0
-448,-314,0,0,0,0,0,0,0,0,0,-1,776,1338,0,0
-441,-314,0,0,0,0,0,0,0,0,0,-1,783,1338,0,0
-434,-314,0,0,0,0,0,0,0,0,0,-1,790,1338,0,0
-427,-314,0,0,0,0,0,0,0,0,0,-1,797,1338,0,0
-420,-314,0,0,0,0,0,0,0,0,0,-1,804,1338,0,0
-413,-314,0,0,0,0,0,0,0,0,0,-1,811,1338,0,0
-406,-314,0,0,0,0,0,0,0,0,0,-1,818,1338,0,0
-399,-314,0,0,0,0,0,0,0,0,0,-1,825,1338,0,0
-392,-314,0,0,0,0,0,0,0,0,0,-1,832,1338,0,0
-385,-314,0,0,0,0,0,0,0,0,0,-1,839,1338,0,0
-378,-314,0,0,0,0,0,0,0,0,0,-1,846,1338,0,0
-371,-314,0,0,0,0,0,0,0,0,0,-1,853,1338,0,0
-364,-314,0,0,0,0,0,0,0,0,0,-1,860,1338,0,0
-357,-314,0,0,0,0,0,0,0,0,0,-1,867,1338,0,0
-350,-314,0,0,0,0,0,0,0,0,0,-1,874,1338,0,0
-343,-314,0,0,0,0,0,0,0,0,0,-1,881,1338,0,0
-336,-314,0,0,0,0,0,0,0,0,0,-1,888,1338,0,0
-329,-314,0,0,0,0,0,0,0,0,0,-1,895,1338,0,0
-322,-314,0,0,0,0,0,0,0,0,0,-1,902,1338,0,0
-315,-314,0,0,0,0,0,0,0,0,0,-1,909,1338,0,0
-308,-314,0,0,0,0,0,0,0,0,0,-1,916,1338,0,0
-301,-314,0,0,0,0,0,0,0,0,0,-1,923,1338,0,0
-294,-314,0,0,0,0,0,0,0,0,0,-1,930,1338,0,0
-287,-314,0,0,0,0,0,0,0,0,0,-1,937,1338,0,0
-280,-314,0,0,0,0,0,0,0,0,0,-1,944,1338,0,0
-273,-314,0,0,0,0,0,0,0,0,0,-1,951,1338,0,0
-266,-314,0,0,0,0,0,0,0,0,0,-1,958,1338,0,0
-259,-314,0,0,0,0,0,0,0,0,0,-1,965,1338,0,0
-252,-314,0,0,0,0,0,0,0,0,0,-1,972,1338,0,0
-245,-314,0,0,0,0,0,0,0,0,0,-1,979,1338,0,0
-238,-314,0,0,0,0,0,0,0,0,0,-1,986,1338,0,0
-231,-314,0,0,0,0,0,0,0,0,0,-1,993,1338,0,0
-224,-314,0,0,0,0,0,0,0,0,0,-1,1000,1338,0,0
-217,-314,0,0,0,0,0,0,0,0,0,-1,1007,1338,0,0
-210,-314,0,0,0,0,0,0,0,0,0,-1,1014,1338,0,0
-203,-314,0,0,0,0,0,0,0,0,0,-1,1021,1338,0,0
-196,-314,0,0,0,0,0,0,0,0,0,-1,1028,1338,0,0
-189,-314,0,0,0,0,0,0,0,0,0,-1,1035,1338,0,0
-182,-314,0,0,0,0,0,0,0,0,0,-1,1042,1338,0,0
-175,-314,0,0,0,0,0,0,0,0,0,-1,1049,1338,0,0
-168,-314,0,0,0,0,0,0,0,0,0,-1,1056,1338,0,0
-161,-314,0,0,0,0,0,0,0,0,0,-1,1063,1338,0,0
-154,-314,0,0,0,0,0,0,0,0,0,-1,1070,1338,0,0
-147,-314,0,0,0,0,0,0,0,0,0,-1,1077,1338,0,0
-140,-314,0,0,0,0,0,0,0,0,0,-1,1084,1338,0,0
-133,-314,0,0,0,0,0,0,0,0,0,-1,1091,1338,0,0
-126,-314,0,0,0,0,0,0,0,0,0,-1,1098,1338,0,0
-119,-314,0,0,0,0,0,0,0,0,0,-1,1105,1338,0,0
-112,-314,0,0,0,0,0,0,0,0,0,-1,1112,1338,0,0
-105,-314,0,0,0,0,0,0,0,0,0,-1,1119,1338,0,0
-98,-314,0,0,0,0,0,0,0,0,0,-1,1126,1338,0,0
-91,-314,0,0,0,0,0,0,0,0,0,-1,1133,1338,0,0
-84,-314,0,0,0,0,0,0,0,0,0,-1,1140,1338,0,0
-77,-314,0,0,0,0,0,0,0,0,0,-1,1147,1338,0,0
-70,-314,0,0,0,0,0,0,0,0,0,-1,1154,1338,0,0
-63,-314,0,0,0,0,0,0,0,0,0,-1,1161,1338,0,0
-56,-314,0,0,0,0,0,0,0,0,0,-1,1168,1338,0,0
-49,-314,0,0,0,0,0,0,0,0,0,-1,1175,1338,0,0
-42,-314,0,0,0,0,0,0,0,0,0,-1,1182,1338,0,0
-35,-314,0,0,0,0,0,0,0,0,0,-1,1189,1338,0,0
-28,-314,0,0,0,0,0,0,0,0,0,-1,1196,1338,0,0
-21,-314,0,0,0,0,0,0,0,0,0,-1,1203,1338,0,0
-14,-314,0,0,0,0,0,0,0,0,0,-1,1210,1338,0,0
-7,-314,0,0,0,0,0,0,0,0,0,-1,1217,1338,0,0
0,-314,0,0,0,0,0,0,0,0,0,-1,1224,1338,0,0
7,-314,0,0,0,0,0,0,0,0,0,-1,1231,1338,0,0
14,-314,0,0,0,0,0,0,0,0,0,-1,1238,1338,0,0
21,-314,0,0,0,0,0,0,0,0,0,-1,1245,1338,0,0
28,-314,0,0,0,0,0,0,0,0,0,-1,1252,1338,0,0
35,-314,0,0,0,0,0,0,0,0,0,-1,1259,1338,0,0
42,-314,0,0,0,0,0,0,0,0,0,-1,1266,1338,0,0
49,-314,0,0,0,0,0,0,0,0,0,-1,1273,1338,0,0
56,-314,0,0,0,0,0,0,0,0,0,-1,1280,1338,0,0
63,-314,0,0,0,0,0,0,0,0,0,-1,1287,1338,0,0
70,-314,0,0,0,0,0,0,0,0,0,-1,1294,1338,0,0
77,-314,0,0,0,0,0,0,0,0,0,-1,1301,1338,0,0
84,-314,0,0,0,0,0,0,0,0,0,-1,1308,1338,0,0
91,-314,0,0,0,0,0,0,0,0,0,-1,1315,1338,0,0
98,-314,0,0,0,0,0,0,0,0,0,-1,1322,1338,0,0
105,-314,0,0,0,0,0,0,0,0,0,-1,1329,1338,0,0
112,-314,0,0,0,0,0,0,0,0,0,-1,1336,1338,0,0
119,-314,0,0,0,0,0,0,0,0,0,-1,1343,1338,0,0
126,-314,0,0,0,0,0,0,0,0,0,-1,1350,1338,0,0
133,-314,0,0,0,0,0,0,0,0,0,-1,1357,1338,0,0
140,-314,0,0,0,0,0,0,0,0,0,-1,1364,1338,0,0
147,-314,0,0,0,0,0,0,0,0,0,-1,1371,1338,0,0
154,-314,0,0,0,0,0,0,0,0,0,-1,1378,1338,0,0
161,-314,0,0,0,0,0,0,0,0,0,-1,1385,1338,0,0
168,-314,0,0,0,0,0,0,0,0,0,-1,1392,1338,0,0
175,-314,0,0,0,0,0,0,0,0,0,-1,1399,1338,0,0
182,-314,0,0,0,0,0,0,0,0,0,-1,1406,1338,0,0
189,-314,0,0,0,0,0,0,0,0,0,-1,1413,1338,0,0
196,-314,0,0,0,0,0,0,0,0,0,-1,1420,1338,0,0
203,-314,0,0,0,0,0,0,0,0,0,-1,1427,1338,0,0
210,-314,0,0,0,0,0,0,0,0,0,-1,1434,1338,0,0
217,-314,0,0,0,0,0,0,0,0,0,-1,1441,1338,0,0
224,-314,0,0,0,0,0,0,0,0,0,-1,1448,1338,0,0
231,-314,0,0,0,0,0,0,0,0,0,-1,1455,1338,0,0
238,-314,0,0,0,0,0,0,0,0,0,-1,1462,1338,0,0
245,-314,0,0,0,0,0,0,0,0,0,-1,1469,1338,0,0
252,-314,0,0,0,0,0,0,0,0,0,-1,1476,1338,0,0
259,-314,0,0,0,0,0,0,0,0,0,-1,1483,1338,0,0
266,-314,0,0,0,0,0,0,0,0,0,-1,1490,1338,0,0
273,-314,0,0,0,0,0,0,0,0,0,-1,1497,1338,0,0
280,-314,0,0,0,0,0,0,0,0,0,-1,1504,1338,0,0
287,-314,0,0,0,0,0,0,0,0,0,-1,1511,1338,0,0
294,-314,0,0,0,0,0,0,0,0,0,-1,1518,1338,0,0
301,-314,0,0,0,0,0,0,0,0,0,-1,1525,1338,0,0
308,-314,0,0,0,0,0,0,0,0,0,-1,1532,1338,0,0
315,-314,0,0,0,0,0,0,0,0,0,-1,1539,1338,0,0
322,-314,0,0,0,0,0,0,0,0,0,-1,1546,1338,0,0
329,-314,0,0,0,0,0,0,0,0,0,-1,1553,1338,0,0
336,-314,0,0,0,0,0,0,0,0,0,-1,1560,1338,0,0
343,-314,0,0,0,0,0,0,0,0,0,-1,1567,1338,0,0
350,-314,0,0,0,0,0,0,0,0,0,-1,1574,1338,0,0
357,-314,0,0,0,0,0,0,0,0,0,-1,1581,1338,0,0
364,-314,0,0,0,0,0,0,0,0,0,-1,1588,1338,0,0
371,-314,0,0,0,0,0,0,0,0,0,-1,1595,1338,0,0
378,-314,0,0,0,0,0,0,0,0,0,-1,1602,1338,0,0
385,-314,0,0,0,0,0,0,0,0,0,-1,1609,1338,0,0
392,-314,0,0,0,0,0,0,0,0,0,-1,1616,1338,0,0
399,-314,0,0,0,0,0,0,0,0,0,-1,1623,1338,0,0
406,-314,0,0,0,0,0,0,0,0,0,-1,1630,1338,0,0
413,-314,0,0,0,0,0,0,0,0,0,-1,1637,1338,0,0
420,-314,0,0,0,0,0,0,0,0,0,-1,1644,1338,0,0
427,-314,0,0,0,0,0,0,0,0,0,-1,1651,1338,0,0
434,-314,0,0,0,0,0,0,0,0,0,-1,1658,1338,0,0
441,-314,0,0,0,0,0,0,0,0,0,-1,1665,1338,0,0
448,-314,0,0,0,0,0,0,0,0,0,-1,1672,1338,0,0
455,-314,0,0,0,0,0,0,0,0,0,-1,1679,1338,0,0
462,-314,0,0,0,0,0,0,0,0,0,-1,1686,1338,0,0
469,-314,0,0,0,0,0,0,0,0,0,-1,1693,1338,0,0
476,-314,0,0,0,0,0,0,0,0,0,-1,1700,1338,0,0
483,-314,0,0,0,0,0,0,0,0,0,-1,1707,1338,0,0
490,-314,0,0,0,0,0,0,0,0,0,-1,1714,1338,0,0
497,-314,0,0,0,0,0,0,0,0,0,-1,1721,1338,0,0
504,-314,0,0,0,0,0,0,0,0,0,-1,1728,1338,0,0
511,-314,0,0,0,0,0,0,0,0,0,-1,1735,1338,0,0
518,-314,0,0,0,0,0,0,0,0,0,-1,1742,1338,0,0
525,-314,0,0,0,0,0,0,0,0,0,-1,1749,1338,0,0
532,-314,0,0,0,0,0,0,0,0,0,-1,1756,1338,0,0
539,-314,0,0,0,0,0,0,0,0,0,-1,1763,1338,0,0
546,-314,0,0,0,0,0,0,0,0,0,-1,1770,1338,0,0
553,-314,0,0,0,0,0,0,0,0,0,-1,1777,1338,0,0
560,-314,0,0,0,0,0,0,0,0,0,-1,1784,1338,0,0
567,-314,0,0,0,0,0,0,0,0,0,-1,1791,1338,0,0
574,-314,0,0,0,0,0,0,0,0,0,-1,1798,1338,0,0
581,-314,17.6028,2.23486,0,0,0,0,0,0,0,-1,1805,1338,17.6028,-2.23481
588,-314,16.0432,0.943481,0,0,0,0,0,0,0,-1,1812,1338,16.0432,-0.943504
595,-314,16.0901,0.761841,0.00160447,0.0240539,0.0150171,0.0315778,-0.00591936,1.10634,0.0232772,0.0478689,1819,1338,16.0901,-0.761789
602,-314,16.1519,0.595703,0.0109444,0.0243636,0.0148286,0.0339299,0.00137803,0.997855,0.0221749,0.0427131,1826,1338,16.1518,-0.595664
609,-314,16.2318,0.435547,0.0170201,0.0224784,0.0150585,0.035053,0.00444547,0.875043,0.0220368,0.0430956,1833,1338,16.2318,-0.43553
616,-314,16.2676,0.337769,0.0196949,0.0197811,0.0151889,0.0349269,0.00454905,0.786817,0.0219261,0.046311,1840,1338,16.2675,-0.337745
623,-314,16.3767,0.915039,0.0205332,0.0167431,0.0150212,0.0337784,0.00349786,0.722651,0.0214483,0.0453229,1847,1338,16.3767,-0.915021
630,-314,16.2689,1.72046,0,0,0,0,0,0,0,-1,1854,1338,16.2689,-1.72042
637,-314,13.2236,5.99304,0,0,0,0,0,0,0,-1,1861,1338,13.2236,-5.99306
644,-314,12.559,4.5874,0,0,0,0,0,0,0,-1,1868,1338,12.559,-4.58745
651,-314,12.7391,4.82703,0.0131711,0.00554964,0.012107,0.0220529,-0.00333219,0.63293,0.0159293,0.0471002,1875,1338,12.7391,-4.82697
658,-314,13.1655,4.8877,0.0100898,0.00274731,0.0112767,0.0182778,-0.00544066,0.628028,0.0143468,0.0345407,1882,1338,13.1656,-4.88772
665,-314,13.0087,5.01526,0.00585644,0.000943796,0.00946687,0.0131805,-0.00638023,0.658465,0.0115186,0.0142972,1889,1338,13.0086,-5.01531
672,-314,13.0282,4.87512,0.00245458,-0.000190182,0.00690713,0.00816477,-0.00590038,0.690817,0.00815552,0.0110562,1896,1338,13.0281,-4.87513
679,-314,13.0306,4.71582,-0.000910375,-0.000882502,0.0052866,0.00439018,-0.00618306,0.786716,0.00613365,0.00953989,1903,1338,13.0306,-4.71585
686,-314,13.0372,4.55627,-0.00285649,-0.000212191,0.00298707,0.00173226,-0.00480094,0.993749,0.00390818,0.0115713,1910,1338,13.0372,-4.55622
693,-314,13.0409,4.40405,-0.00131206,0.00156591,0.000404641,0.00162172,-0.00136787,1.43374,0.00172811,0.0115575,1917,1338,13.0409,-4.40409
700,-314,13.0442,4.23645,0.00102065,0.00432058,-0.00257009,0.00572475,-0.000383519,-1.07076,0.00395055,0.0124745,1924,1338,13.0441,-4.23649
707,-314,13.0444,4.0592,0.003356,0.00764796,-0.00573753,0.0116277,-0.000623741,-0.964356,0.00796786,0.0127173,1931,1338,13.0444,-4.05926
714,-314,13.0364,3.93091,0.0063133,0.0112224,-0.00915381,0.018245,-0.000709341,-0.916389,0.0124066,0.0116784,1938,1338,13.0363,-3.93088
721,-314,13.0725,3.81873,0.00982239,0.0157909,-0.0133682,0.0265039,-0.000890639,-0.895215,0.0179735,0.0155388,1945,1338,13.0725,-3.81869
728,-314,13.0413,3.72095,0.0135949,0.0213605,-0.0182402,0.0361266,-0.00117115,-0.890267,0.0244841,0.0263248,1952,1338,13.0412,-3.72091
735,-314,13.1456,3.45129,0.0183822,0.0281461,-0.0242634,0.0480138,-0.00148552,-0.884676,0.0325157,0.0392993,1959,1338,13.1457,-3.45126
742,-314,13.6996,2.32654,0.0241156,0.0360201,-0.0313269,0.0619553,-0.00181953,-0.879281,0.0419232,0.0424729,1966,1338,13.6996,-2.32653
749,-314,13.7207,1.6748,0.0307237,0.0447782,-0.0392941,0.0776685,-0.0021666,-0.873882,0.0525161,0.0421313,1973,1338,13.7207,-1.67484
756,-314,13.911,1.2699,0.0380718,0.054021,-0.0478419,0.0945483,-0.0024556,-0.867982,0.0638665,0.04441,1980,1338,13.911,-1.26987
763,-314,14.1282,0.901611,0,0,0,0,0,0,0,-1,1987,1338,14.1281,-0.901611
770,-314,0,0,0,0,0,0,0,0,0,-1,1994,1338,0,0
777,-314,0,0,0,0,0,0,0,0,0,-1,2001,1338,0,0
784,-314,0,0,0,0,0,0,0,0,0,-1,2008,1338,0,0
791,-314,0,0,0,0,0,0,0,0,0,-1,2015,1338,0,0
798,-314,0,0,0,0,0,0,0,0,0,-1,2022,1338,0,0
805,-314,0,0,0,0,0,0,0,0,0,-1,2029,1338,0,0
812,-314,0,0,0,0,0,0,0,0,0,-1,2036,1338,0,0
-700,-321,0,0,0,0,0,0,0,0,0,-1,524,1345,0,0
-693,-321,0,0,0,0,0,0,0,0,0,-1,531,1345,0,0
-686,-321,0,0,0,0,0,0,0,0,0,-1,538,1345,0,0
-679,-321,0,0,0,0,0,0,0,0,0,-1,545,1345,0,0
-672,-321,0,0,0,0,0,0,0,0,0,-1,552,1345,0,0
-665,-321,0,0,0,0,0,0,0,0,0,-1,559,1345,0,0
-658,-321,0,0,0,0,0,0,0,0,0,-1,566,1345,0,0
-651,-321,0,0,0,0,0,0,0,0,0,-1,573,1345,0,0
-644,-321,-12.8208,3.77771,0,0,0,0,0,0,0,-1,580,1345,-12.8208,-3.77769
-637,-321,-5.98877,4.05603,0,0,0,0,0,0,0,-1,587,1345,-5.98877,-4.05605
-630,-321,-6.00085,3.45679,-0.0130525,-0.016794,-0.0607428,0.0458484,-0.0756948,-0.770004,0.0708748,0.0474566,594,1345,-6.00085,-3.45683
-623,-321,-6.10046,2.9519,-0.011547,-0.0108203,-0.0505268,0.0393444,-0.0617117,-0.788994,0.0588192,0.0450868,601,1345,-6.10046,-2.95195
-616,-321,-6.1955,2.35144,-0.0102339,-0.00640825,-0.040787,0.0325107,-0.0491529,-0.80883,0.0474738,0.0491331,608,1345,-6.19551,-2.35147
-609,-321,-6.27222,1.90674,0,0,0,0,0,0,0,-1,615,1345,-6.27221,-1.9067
-602,-321,-6.2334,1.7196,0,0,0,0,0,0,0,-1,622,1345,-6.23338,-1.71957
-595,-321,-5.95679,1.6106,-0.00687034,0.000312613,-0.0173107,0.0144004,-0.0209582,-0.887683,0.020531,0.0461495,629,1345,-5.95676,-1.61065
-588,-321,-5.90155,1.68372,-0.00554804,0.00110901,-0.0120684,0.0102995,-0.0147386,-0.919955,0.0145313,0.0171864,636,1345,-5.90156,-1.68369
-581,-321,-5.90216,1.88647,-0.00434814,0.00126375,-0.00801957,0.00695409,-0.0100385,-0.953685,0.00986439,0.0129433,643,1345,-5.90218,-1.88646
-574,-321,-5.92371,2.03845,-0.00328752,0.0024148,-0.00481488,0.00515937,-0.00603209,-1.05271,0.00646794,0.0146204,650,1345,-5.92372,-2.03849
-567,-321,-5.90173,2.22192,-0.00244497,0.00155388,-0.00252201,0.00277287,-0.00366397,-1.12056,0.00372816,0.0205941,657,1345,-5.90172,-2.22194
-560,-321,-5.88708,2.42981,-0.0017831,-0.000718623,-0.00138485,0.00023274,-0.00273446,-0.968861,0.0019053,0.0241542,664,1345,-5.8871,-2.42986
-553,-321,-5.92981,2.55835,-0.00154466,-0.00128051,-0.00167217,0.000264794,-0.00308996,-0.824809,0.00215367,0.024742,671,1345,-5.92979,-2.55834
-546,-321,-5.9743,2.73621,-0.00190337,-0.00140446,-0.0021039,0.000464714,-0.00377255,-0.844407,0.00268339,0.0248583,678,1345,-5.9743,-2.73618
-539,-321,-5.9491,2.9729,-0.00343708,-0.000327227,-0.00241326,0.000988669,-0.00475298,-1.07159,0.00354447,0.0236362,685,1345,-5.94908,-2.97288
-532,-321,-5.84753,3.19116,-0.00594235,0.0019947,-0.00272276,0.00283893,-0.00678658,-1.27013,0.00571095,0.0169805,692,1345,-5.84755,-3.19121
-525,-321,-5.8136,3.47046,-0.00967691,0.00523623,-0.00251022,0.00564742,-0.0100881,-1.40843,0.0092047,0.0268223,699,1345,-5.8136,-3.47043
-518,-321,-5.97809,3.64258,-0.014443,0.00980215,-0.00225814,0.0100107,-0.0146515,-1.47871,0.0143225,0.04313,706,1345,-5.97811,-3.64255
-511,-321,-6.39233,3.71912,-0.0203246,0.0160829,-0.00158095,0.0161514,-0.0203931,-1.52748,0.0211463,0.0455201,713,1345,-6.39231,-3.71916
-504,-321,-6.54498,4.29993,0,0,0,0,0,0,0,-1,720,1345,-6.54498,-4.2999
-497,-321,-5.02814,-0.774536,0,0,0,0,0,0,0,-1,727,1345,-5.02815,0.774507
-490,-321,-7.69165,2.32532,0,0,0,0,0,0,0,-1,734,1345,-7.69165,-2.32526
-483,-321,-8.37396,3.28284,0,0,0,0,0,0,0,-1,741,1345,-8.37399,-3.28289
-476,-321,-9.31982,4.52466,0,0,0,0,0,0,0,-1,748,1345,-9.31982,-4.52469
-469,-321,-7.26276,-0.69519,0,0,0,0,0,0,0,-1,755,1345,-7.26279,0.695205
-462,-321,-7.7442,0.416138,0,0,0,0,0,0,0,-1,762,1345,-7.7442,-0.41612
-455,-321,0,0,0,0,0,0,0,0,0,-1,769,1345,0,0
-448,-321,0,0,0,0,0,0,0,0,0,-1,776,1345,0,0
-441,-321,0,0,0,0,0,0,0,0,0,-1,783,1345,0,0
-434,-321,0,0,0,0,0,0,0,0,0,-1,790,1345,0,0
-427,-321,0,0,0,0,0,0,0,0,0,-1,797,1345,0,0
-420,-321,0,0,0,0,0,0,0,0,0,-1,804,1345,0,0
-413,-321,0,0,0,0,0,0,0,0,0,-1,811,1345,0,0
-406,-321,0,0,0,0,0,0,0,0,0,-1,818,1345,0,0
-399,-321,0,0,0,0,0,0,0,0,0,-1,825,1345,0,0
-392,-321,0,0,0,0,0,0,0,0,0,-1,832,1345,0,0
-385,-321,0,0,0,0,0,0,0,0,0,-1,839,1345,0,0
-378,-321,0,0,0,0,0,0,0,0,0,-1,846,1345,0,0
-371,-321,0,0,0,0,0,0,0,0,0,-1,853,1345,0,0
-364,-321,0,0,0,0,0,0,0,0,0,-1,860,1345,0,0
-357,-321,0,0,0,0,0,0,0,0,0,-1,867,1345,0,0
-350,-321,0,0,0,0,0,0,0,0,0,-1,874,1345,0,0
-343,-321,0,0,0,0,0,0,0,0,0,-1,881,1345,0,0
-336,-321,0,0,0,0,0,0,0,0,0,-1,888,1345,0,0
-329,-321,0,0,0,0,0,0,0,0,0,-1,895,1345,0,0
-322,-321,0,0,0,0,0,0,0,0,0,-1,902,1345,0,0
-315,-321,0,0,0,0,0,0,0,0,0,-1,909,1345,0,0
-308,-321,0,0,0,0,0,0,0,0,0,-1,916,1345,0,0
-301,-321,0,0,0,0,0,0,0,0,0,-1,923,1345,0,0
-294,-321,0,0,0,0,0,0,0,0,0,-1,930,1345,0,0
-287,-321,0,0,0,0,0,0,0,0,0,-1,937,1345,0,0
-280,-321,0,0,0,0,0,0,0,0,0,-1,944,1345,0,0
-273,-321,0,0,0,0,0,0,0,0,0,-1,951,1345,0,0
-266,-321,0,0,0,0,0,0,0,0,0,-1,958,1345,0,0
-259,-321,0,0,0,0,0,0,0,0,0,-1,965,1345,0,0
-252,-321,0,0,0,0,0,0,0,0,0,-1,972,1345,0,0
-245,-321,0,0,0,0,0,0,0,0,0,-1,979,1345,0,0
-238,-321,0,0,0,0,0,0,0,0,0,-1,986,1345,0,0
-231,-321,0,0,0,0,0,0,0,0,0,-1,993,1345,0,0
-224,-321,0,0,0,0,0,0,0,0,0,-1,1000,1345,0,0
-217,-321,0,0,0,0,0,0,0,0,0,-1,1007,1345,0,0
-210,-321,0,0,0,0,0,0,0,0,0,-1,1014,1345,0,0
-203,-321,0,0,0,0,0,0,0,0,0,-1,1021,1345,0,0
-196,-321,0,0,0,0,0,0,0,0,0,-1,1028,1345,0,0
-189,-321,0,0,0,0,0,0,0,0,0,-1,1035,1345,0,0
-182,-321,0,0,0,0,0,0,0,0,0,-1,1042,1345,0,0
-175,-321,0,0,0,0,0,0,0,0,0,-1,1049,1345,0,0
-168,-321,0,0,0,0,0,0,0,0,0,-1,1056,1345,0,0
-161,-321,0,0,0,0,0,0,0,0,0,-1,1063,1345,0,0
-154,-321,0,0,0,0,0,0,0,0,0,-1,1070,1345,0,0
-147,-321,0,0,0,0,0,0,0,0,0,-1,1077,1345,0,0
-140,-321,0,0,0,0,0,0,0,0,0,-1,1084,1345,0,0
-133,-321,0,0,0,0,0,0,0,0,0,-1,1091,1345,0,0
-126,-321,0,0,0,0,0,0,0,0,0,-1,1098,1345,0,0
-119,-321,0,0,0,0,0,0,0,0,0,-1,1105,1345,0,0
-112,-321,0,0,0,0,0,0,0,0,0,-1,1112,1345,0,0
-105,-321,0,0,0,0,0,0,0,0,0,-1,1119,1345,0,0
-98,-321,0,0,0,0,0,0,0,0,0,-1,1126,1345,0,0
-91,-321,0,0,0,0,0,0,0,0,0,-1,1133,1345,0,0
-84,-321,0,0,0,0,0,0,0,0,0,-1,1140,1345,0,0
-77,-321,0,0,0,0,0,0,0,0,0,-1,1147,1345,0,0
-70,-321,0,0,0,0,0,0,0,0,0,-1,1154,1345,0,0
-63,-321,0,0,0,0,0,0,0,0,0,-1,1161,1345,0,0
-56,-321,0,0,0,0,0,0,0,0,0,-1,1168,1345,0,0
-49,-321,0,0,0,0,0,0,0,0,0,-1,1175,1345,0,0
-42,-321,0,0,0,0,0,0,0,0,0,-1,1182,1345,0,0
-35,-321,0,0,0,0,0,0,0,0,0,-1,1189,1345,0,0
-28,-321,0,0,0,0,0,0,0,0,0,-1,1196,1345,0,0
-21,-321,0,0,0,0,0,0,0,0,0,-1,1203,1345,0,0
-14,-321,0,0,0,0,0,0,0,0,0,-1,1210,1345,0,0
-7,-321,0,0,0,0,0,0,0,0,0,-1,1217,1345,0,0
0,-321,0,0,0,0,0,0,0,0,0,-1,1224,1345,0,0
7,-321,0,0,0,0,0,0,0,0,0,-1,1231,1345,0,0
14,-321,0,0,0,0,0,0,0,0,0,-1,1238,1345,0,0
21,-321,0,0,0,0,0,0,0,0,0,-1,1245,1345,0,0
28,-321,0,0,0,0,0,0,0,0,0,-1,1252,1345,0,0
35,-321,0,0,0,0,0,0,0,0,0,-1,1259,1345,0,0
42,-321,0,0,0,0,0,0,0,0,0,-1,1266,1345,0,0
49,-321,0,0,0,0,0,0,0,0,0,-1,1273,1345,0,0
56,-321,0,0,0,0,0,0,0,0,0,-1,1280,1345,0,0
63,-321,0,0,0,0,0,0,0,0,0,-1,1287,1345,0,0
70,-321,0,0,0,0,0,0,0,0,0,-1,1294,1345,0,0
77,-321,0,0,0,0,0,0,0,0,0,-1,1301,1345,0,0
84,-321,0,0,0,0,0,0,0,0,0,-1,1308,1345,0,0
91,-321,0,0,0,0,0,0,0,0,0,-1,1315,1345,0,0
98,-321,0,0,0,0,0,0,0,0,0,-1,1322,1345,0,0
105,-321,0,0,0,0,0,0,0,0,0,-1,1329,1345,0,0
112,-321,0,0,0,0,0,0,0,0,0,-1,1336,1345,0,0
119,-321,0,0,0,0,0,0,0,0,0,-1,1343,1345,0,0
126,-321,0,0,0,0,0,0,0,0,0,-1,1350,1345,0,0
133,-321,0,0,0,0,0,0,0,0,0,-1,1357,1345,0,0
140,-321,0,0,0,0,0,0,0,0,0,-1,1364,1345,0,0
147,-321,0,0,0,0,0,0,0,0,0,-1,1371,1345,0,0
154,-321,0,0,0,0,0,0,0,0,0,-1,1378,1345,0,0
161,-321,0,0,0,0,0,0,0,0,0,-1,1385,1345,0,0
168,-321,0,0,0,0,0,0,0,0,0,-1,1392,1345,0,0
175,-321,0,0,0,0,0,0,0,0,0,-1,1399,1345,0,0
182,-321,0,0,0,0,0,0,0,0,0,-1,1406,1345,0,0
189,-321,0,0,0,0,0,0,0,0,0,-1,1413,1345,0,0
196,-321,0,0,0,0,0,0,0,0,0,-1,1420,1345,0,0
203,-321,0,0,0,0,0,0,0,0,0,-1,1427,1345,0,0
210,-321,0,0,0,0,0,0,0,0,0,-1,1434,1345,0,0
217,-321,0,0,0,0,0,0,0,0,0,-1,1441,1345,0,0
224,-321,0,0,0,0,0,0,0,0,0,-1,1448,1345,0,0
231,-321,0,0,0,0,0,0,0,0,0,-1,1455,1345,0,0
238,-321,0,0,0,0,0,0,0,0,0,-1,1462,1345,0,0
245,-321,0,0,0,0,0,0,0,0,0,-1,1469,1345,0,0
252,-321,0,0,0,0,0,0,0,0,0,-1,1476,1345,0,0
259,-321,0,0,0,0,0,0,0,0,0,-1,1483,1345,0,0
266,-321,0,0,0,0,0,0,0,0,0,-1,1490,1345,0,0
273,-321,0,0,0,0,0,0,0,0,0,-1,1497,1345,0,0
280,-321,0,0,0,0,0,0,0,0,0,-1,1504,1345,0,0
287,-321,0,0,0,0,0,0,0,0,0,-1,1511,1345,0,0
294,-321,0,0,0,0,0,0,0,0,0,-1,1518,1345,0,0
301,-321,0,0,0,0,0,0,0,0,0,-1,1525,1345,0,0
308,-321,0,0,0,0,0,0,0,0,0,-1,1532,1345,0,0
315,-321,0,0,0,0,0,0,0,0,0,-1,1539,1345,0,0
322,-321,0,0,0,0,0,0,0,0,0,-1,1546,1345,0,0
329,-321,0,0,0,0,0,0,0,0,0,-1,1553,1345,0,0
336,-321,0,0,0,0,0,0,0,0,0,-1,1560,1345,0,0
343,-321,0,0,0,0,0,0,0,0,0,-1,1567,1345,0,0
350,-321,0,0,0,0,0,0,0,0,0,-1,1574,1345,0,0
357,-321,0,0,0,0,0,0,0,0,0,-1,1581,1345,0,0
364,-321,0,0,0,0,0,0,0,0,0,-1,1588,1345,0,0
371,-321,0,0,0,0,0,0,0,0,0,-1,1595,1345,0,0
378,-321,0,0,0,0,0,0,0,0,0,-1,1602,1345,0,0
385,-321,0,0,0,0,0,0,0,0,0,-1,1609,1345,0,0
392,-321,0,0,0,0,0,0,0,0,0,-1,1616,1345,0,0
399,-321,0,0,0,0,0,0,0,0,0,-1,1623,1345,0,0
406,-321,0,0,0,0,0,0,0,0,0,-1,1630,1345,0,0
413,-321,0,0,0,0,0,0,0,0,0,-1,1637,1345,0,0
420,-321,0,0,0,0,0,0,0,0,0,-1,1644,1345,0,0
427,-321,0,0,0,0,0,0,0,0,0,-1,1651,1345,0,0
434,-321,0,0,0,0,0,0,0,0,0,-1,1658,1345,0,0
441,-321,0,0,0,0,0,0,0,0,0,-1,1665,1345,0,0
448,-321,0,0,0,0,0,0,0,0,0,-1,1672,1345,0,0
455,-321,0,0,0,0,0,0,0,0,0,-1,1679,1345,0,0
462,-321,0,0,0,0,0,0,0,0,0,-1,1686,1345,0,0
469,-321,0,0,0,0,0,0,0,0,0,-1,1693,1345,0,0
476,-321,0,0,0,0,0,0,0,0,0,-1,1700,1345,0,0
483,-321,0,0,0,0,0,0,0,0,0,-1,1707,1345,0,0
490,-321,0,0,0,0,0,0,0,0,0,-1,1714,1345,0,0
497,-321,0,0,0,0,0,0,0,0,0,-1,1721,1345,0,0
504,-321,0,0,0,0,0,0,0,0,0,-1,1728,1345,0,0
511,-321,0,0,0,0,0,0,0,0,0,-1,1735,1345,0,0
518,-321,0,0,0,0,0,0,0,0,0,-1,1742,1345,0,0
525,-321,0,0,0,0,0,0,0,0,0,-1,1749,1345,0,0
532,-321,0,0,0,0,0,0,0,0,0,-1,1756,1345,0,0
539,-321,0,0,0,0,0,0,0,0,0,-1,1763,1345,0,0
546,-321,0,0,0,0,0,0,0,0,0,-1,1770,1345,0,0
553,-321,0,0,0,0,0,0,0,0,0,-1,1777,1345,0,0
560,-321,0,0,0,0,0,0,0,0,0,-1,1784,1345,0,0
567,-321,0,0,0,0,0,0,0,0,0,-1,1791,1345,0,0
574,-321,0,0,0,0,0,0,0,0,0,-1,1798,1345,0,0
581,-321,15.4877,0.509277,0,0,0,0,0,0,0,-1,1805,1345,15.4876,-0.509326
588,-321,15.6481,0.629761,0,0,0,0,0,0,0,-1,1812,1345,15.6481,-0.629759
595,-321,15.8021,0.510376,0.00367294,0.0229284,0.0188249,0.0344447,-0.00784341,1.02177,0.0259754,0.0467427,1819,1345,15.8021,-0.510354
602,-321,15.9946,0.384155,0.00914859,0.0229192,0.0175655,0.0349007,-0.00283288,0.972184,0.0242666,0.0440525,1826,1345,15.9947,-0.38416
609,-321,15.9352,0.211182,0.0133945,0.0211301,0.0169095,0.0346086,-8.39233e-05,0.897832,0.0231004,0.0463861,1833,1345,15.9352,-0.211133
616,-321,16.049,0.140381,0,0,0,0,0,0,0,-1,1840,1345,16.0489,-0.140423
623,-321,15.6814,1.38574,0,0,0,0,0,0,0,-1,1847,1345,15.6814,-1.38577
630,-321,13.8412,5.96191,0,0,0,0,0,0,0,-1,1854,1345,13.8412,-5.96187
637,-321,13.8163,5.52051,0,0,0,0,0,0,0,-1,1861,1345,13.8162,-5.5205
644,-321,13.6729,5.09314,0,0,0,0,0,0,0,-1,1868,1345,13.6729,-5.09315
651,-321,13.212,5.05591,0,0,0,0,0,0,0,-1,1875,1345,13.212,-5.05592
658,-321,12.9458,5.12952,0.00787975,0.00216578,0.0108286,0.0162219,-0.00617638,0.656419,0.0133582,0.027737,1882,1345,12.9458,-5.1295
665,-321,12.8589,5.03821,0.0043363,0.00048009,0.00883656,0.0114527,-0.00663627,0.677984,0.0105663,0.016421,1889,1345,12.8589,-5.03818
672,-321,12.8794,4.86755,0.00169953,-0.000480896,0.0062454,0.00694916,-0.00573052,0.698987,0.00733188,0.0128647,1896,1345,12.8794,-4.86756
679,-321,12.882,4.71802,-0.000814399,-0.000872573,0.00456483,0.00372143,-0.00540841,0.782212,0.00530103,0.0109131,1903,1345,12.882,-4.71799
686,-321,12.866,4.57166,-0.00198854,0.000115509,0.00223395,0.00153275,-0.00340579,1.00546,0.00291882,0.0108482,1910,1345,12.866,-4.57169
693,-321,12.8701,4.42578,-0.000284167,0.00203818,-0.000456508,0.00212469,-0.00037068,-1.38351,0.00155482,0.0120163,1917,1345,12.8701,-4.42573
700,-321,12.8812,4.25354,0.0019778,0.0049337,-0.00353113,0.0072837,-0.000372205,-0.983595,0.0049845,0.0124383,1924,1345,12.8812,-4.2536
707,-321,12.8832,4.08154,0.00426306,0.00844915,-0.00673679,0.0134106,-0.000698343,-0.936015,0.00918201,0.0134323,1931,1345,12.8832,-4.08155
714,-321,12.8826,3.91772,0.007232,0.0123816,-0.010335,0.0204577,-0.00084406,-0.907481,0.0139283,0.0121951,1938,1345,12.8825,-3.91774
721,-321,12.8867,3.7843,0.0108824,0.0174364,-0.0148829,0.0293988,-0.00107994,-0.893762,0.0199689,0.0182412,1945,1345,12.8867,-3.78428
728,-321,12.7969,3.5127,0,0,0,0,0,0,0,-1,1952,1345,12.7968,-3.51265
735,-321,13.4609,2.62756,0.0202887,0.0313998,-0.0270222,0.0534317,-0.00174313,-0.886782,0.0362161,0.0416539,1959,1345,13.4609,-2.62761
742,-321,13.7754,1.81384,0.0266104,0.0404959,-0.0349596,0.0691954,-0.00208914,-0.88342,0.0468422,0.0442391,1966,1345,13.7753,-1.81388
749,-321,13.7734,1.11145,0.0338893,0.0508215,-0.0439885,0.0871512,-0.00244038,-0.880466,0.0589311,0.0462096,1973,1345,13.7734,-1.11145
756,-321,13.9081,0.679321,0,0,0,0,0,0,0,-1,1980,1345,13.908,-0.679356
763,-321,14.6802,3.20972,0,0,0,0,0,0,0,-1,1987,1345,14.6802,-3.20975
770,-321,0,0,0,0,0,0,0,0,0,-1,1994,1345,0,0
777,-321,0,0,0,0,0,0,0,0,0,-1,2001,1345,0,0
784,-321,0,0,0,0,0,0,0,0,0,-1,2008,1345,0,0
791,-321,0,0,0,0,0,0,0,0,0,-1,2015,1345,0,0
798,-321,0,0,0,0,0,0,0,0,0,-1,2022,1345,0,0
805,-321,0,0,0,0,0,0,0,0,0,-1,2029,1345,0,0
812,-321,0,0,0,0,0,0,0,0,0,-1,2036,1345,0,0
-700,-328,0,0,0,0,0,0,0,0,0,-1,524,1352,0,0
-693,-328,0,0,0,0,0,0,0,0,0,-1,531,1352,0,0
-686,-328,0,0,0,0,0,0,0,0,0,-1,538,1352,0,0
-679,-328,0,0,0,0,0,0,0,0,0,-1,545,1352,0,0
-672,-328,0,0,0,0,0,0,0,0,0,-1,552,1352,0,0
-665,-328,0,0,0,0,0,0,0,0,0,-1,559,1352,0,0
-658,-328,0,0,0,0,0,0,0,0,0,-1,566,1352,0,0
-651,-328,0,0,0,0,0,0,0,0,0,-1,573,1352,0,0
-644,-328,0,0,0,0,0,0,0,0,0,-1,580,1352,0,0
-637,-328,-5.63867,4.61389,0,0,0,0,0,0,0,-1,587,1352,-5.63868,-4.61386
-630,-328,-5.48706,3.5177,-0.0118106,-0.0128211,-0.077581,0.0652668,-0.0898985,-0.782142,0.0899602,0.0498815,594,1352,-5.48707,-3.51764
-623,-328,-5.62939,2.51636,-0.0117258,-0.00700109,-0.0633438,0.0540244,-0.0727513,-0.804037,0.0734597,0.0471803,601,1352,-5.6294,-2.51638
-616,-328,-5.68365,1.5249,-0.0112062,-0.00307194,-0.050517,0.0435414,-0.0578196,-0.825567,0.058714,0.0470438,608,1352,-5.68363,-1.52485
-609,-328,-5.9726,1.15308,0,0,0,0,0,0,0,-1,615,1352,-5.97262,-1.15304
-602,-328,-6.19409,1.09045,0,0,0,0,0,0,0,-1,622,1352,-6.19407,-1.09045
-595,-328,-5.78674,1.27673,0,0,0,0,0,0,0,-1,629,1352,-5.78673,-1.2767
-588,-328,-5.67212,1.61877,-0.00727611,0.00256721,-0.0146154,0.0130673,-0.0177762,-0.947807,0.0178766,0.0332878,636,1352,-5.6721,-1.61875
-581,-328,-5.72449,1.85925,-0.0060391,0.00237595,-0.00959209,0.00864275,-0.0123059,-0.992084,0.0121562,0.014112,643,1352,-5.72446,-1.85931
-574,-328,-5.716,2.05493,-0.00489161,0.00345117,-0.00564713,0.0063005,-0.00774095,-1.1035,0.00812104,0.0140168,650,1352,-5.71602,-2.0549
-567,-328,-5.73242,2.26599,-0.0039016,0.00228765,-0.00272019,0.00331323,-0.00492719,-1.21025,0.00478793,0.0186703,657,1352,-5.73245,-2.26594
-560,-328,-5.70587,2.46887,-0.00299286,-0.000319705,-0.00111895,8.68411e-05,-0.00339941,-1.2223,0.00229577,0.0263771,664,1352,-5.70589,-2.46883
-553,-328,-5.71954,2.57166,-0.00243864,-0.000989623,-0.00120517,-0.000307946,-0.00312032,-1.05604,0.00198554,0.027158,671,1352,-5.71955,-2.57166
-546,-328,-5.7406,2.75134,-0.0024227,-0.00131077,-0.0014417,-0.000321554,-0.00341192,-0.969428,0.00217536,0.026318,678,1352,-5.74058,-2.75134
-539,-328,-5.75629,2.96692,-0.00353686,-0.000636869,-0.00169151,0.000141068,-0.0043148,-1.13973,0.00292469,0.023491,685,1352,-5.7563,-2.9669
-532,-328,-5.71057,3.17566,-0.0056218,0.00100904,-0.00201593,0.00157383,-0.00618658,-1.29764,0.00473696,0.0162272,692,1352,-5.71059,-3.17561
-525,-328,-5.65875,3.40771,-0.00892838,0.00349623,-0.00208787,0.0038377,-0.00926984,-1.40868,0.00778126,0.0120006,699,1352,-5.65877,-3.40766
-518,-328,-5.57697,3.62866,-0.0133771,0.00726565,-0.00218029,0.00749342,-0.0136049,-1.46671,0.0123503,0.031287,706,1352,-5.57699,-3.62867
-511,-328,-5.69751,3.46216,-0.0189776,0.0126601,-0.00209057,0.0127976,-0.0191152,-1.5051,0.0185448,0.0420349,713,1352,-5.69752,-3.4622
-504,-328,-6.25067,4.16199,-0.025507,0.0197572,-0.00182529,0.0198306,-0.0255804,-1.53056,0.0262881,0.0455028,720,1352,-6.25065,-4.16199
-497,-328,-6.44592,4.427,0,0,0,0,0,0,0,-1,727,1352,-6.44591,-4.42706
-490,-328,-3.62909,-2.71887,0,0,0,0,0,0,0,-1,734,1352,-3.62906,2.71886
-483,-328,-7.4707,3.22949,0,0,0,0,0,0,0,-1,741,1352,-7.47067,-3.22951
-476,-328,-5.86536,-2.12378,0,0,0,0,0,0,0,-1,748,1352,-5.86536,2.12379
-469,-328,-6.61218,-1.19482,0,0,0,0,0,0,0,-1,755,1352,-6.61217,1.19483
-462,-328,-7.12329,-0.12439,0,0,0,0,0,0,0,-1,762,1352,-7.12331,0.124414
-455,-328,0,0,0,0,0,0,0,0,0,-1,769,1352,0,0
-448,-328,0,0,0,0,0,0,0,0,0,-1,776,1352,0,0
-441,-328,0,0,0,0,0,0,0,0,0,-1,783,1352,0,0
-434,-328,0,0,0,0,0,0,0,0,0,-1,790,1352,0,0
-427,-328,0,0,0,0,0,0,0,0,0,-1,797,1352,0,0
-420,-328,0,0,0,0,0,0,0,0,0,-1,804,1352,0,0
-413,-328,0,0,0,0,0,0,0,0,0,-1,811,1352,0,0
-406,-328,0,0,0,0,0,0,0,0,0,-1,818,1352,0,0
-399,-328,0,0,0,0,0,0,0,0,0,-1,825,1352,0,0
-392,-328,0,0,0,0,0,0,0,0,0,-1,832,1352,0,0
-385,-328,0,0,0,0,0,0,0,0,0,-1,839,1352,0,0
-378,-328,0,0,0,0,0,0,0,0,0,-1,846,1352,0,0
-371,-328,0,0,0,0,0,0,0,0,0,-1,853,1352,0,0
-364,-328,0,0,0,0,0,0,0,0,0,-1,860,1352,0,0
-357,-328,0,0,0,0,0,0,0,0,0,-1,867,1352,0,0
-350,-328,0,0,0,0,0,0,0,0,0,-1,874,1352,0,0
-343,-328,0,0,0,0,0,0,0,0,0,-1,881,1352,0,0
-336,-328,0,0,0,0,0,0,0,0,0,-1,888,1352,0,0
-329,-328,0,0,0,0,0,0,0,0,0,-1,895,1352,0,0
-322,-328,0,0,0,0,0,0,0,0,0,-1,902,1352,0,0
-315,-328,0,0,0,0,0,0,0,0,0,-1,909,1352,0,0
-308,-328,0,0,0,0,0,0,0,0,0,-1,916,1352,0,0
-301,-328,0,0,0,0,0,0,0,0,0,-1,923,1352,0,0
-294,-328,0,0,0,0,0,0,0,0,0,-1,930,1352,0,0
-287,-328,0,0,0,0,0,0,0,0,0,-1,937,1352,0,0
-280,-328,0,0,0,0,0,0,0,0,0,-1,944,1352,0,0
-273,-328,0,0,0,0,0,0,0,0,0,-1,951,1352,0,0
-266,-328,0,0,0,0,0,0,0,0,0,-1,958,1352,0,0
-259,-328,0,0,0,0,0,0,0,0,0,-1,965,1352,0,0
-252,-328,0,0,0,0,0,0,0,0,0,-1,972,1352,0,0
-245,-328,0,0,0,0,0,0,0,0,0,-1,979,1352,0,0
-238,-328,0,0,0,0,0,0,0,0,0,-1,986,1352,0,0
-231,-328,0,0,0,0,0,0,0,0,0,-1,993,1352,0,0
-224,-328,0,0,0,0,0,0,0,0,0,-1,1000,1352,0,0
-217,-328,0,0,0,0,0,0,0,0,0,-1,1007,1352,0,0
-210,-328,0,0,0,0,0,0,0,0,0,-1,1014,1352,0,0
-203,-328,0,0,0,0,0,0,0,0,0,-1,1021,1352,0,0
-196,-328,0,0,0,0,0,0,0,0,0,-1,1028,1352,0,0
-189,-328,0,0,0,0,0,0,0,0,0,-1,1035,1352,0,0
-182,-328,0,0,0,0,0,0,0,0,0,-1,1042,1352,0,0
-175,-328,0,0,0,0,0,0,0,0,0,-1,1049,1352,0,0
-168,-328,0,0,0,0,0,0,0,0,0,-1,1056,1352,0,0
-161,-328,0,0,0,0,0,0,0,0,0,-1,1063,1352,0,0
-154,-328,0,0,0,0,0,0,0,0,0,-1,1070,1352,0,0
-147,-328,0,0,0,0,0,0,0,0,0,-1,1077,1352,0,0
-140,-328,0,0,0,0,0,0,0,0,0,-1,1084,1352,0,0
-133,-328,0,0,0,0,0,0,0,0,0,-1,1091,1352,0,0
-126,-328,0,0,0,0,0,0,0,0,0,-1,1098,1352,0,0
-119,-328,0,0,0,0,0,0,0,0,0,-1,1105,1352,0,0
-112,-328,0,0,0,0,0,0,0,0,0,-1,1112,1352,0,0
-105,-328,0,0,0,0,0,0,0,0,0,-1,1119,1352,0,0
-98,-328,0,0,0,0,0,0,0,0,0,-1,1126,1352,0,0
-91,-328,0,0,0,0,0,0,0,0,0,-1,1133,1352,0,0
-84,-328,0,0,0,0,0,0,0,0,0,-1,1140,1352,0,0
-77,-328,0,0,0,0,0,0,0,0,0,-1,1147,1352,0,0
-70,-328,0,0,0,0,0,0,0,0,0,-1,1154,1352,0,0
-63,-328,0,0,0,0,0,0,0,0,0,-1,1161,1352,0,0
-56,-328,0,0,0,0,0,0,0,0,0,-1,1168,1352,0,0
-49,-328,0,0,0,0,0,0,0,0,0,-1,1175,1352,0,0
-42,-328,0,0,0,0,0,0,0,0,0,-1,1182,1352,0,0
-35,-328,0,0,0,0,0,0,0,0,0,-1,1189,1352,0,0
-28,-328,0,0,0,0,0,0,0,0,0,-1,1196,1352,0,0
-21,-328,0,0,0,0,0,0,0,0,0,-1,1203,1352,0,0
-14,-328,0,0,0,0,0,0,0,0,0,-1,1210,1352,0,0
-7,-328,0,0,0,0,0,0,0,0,0,-1,1217,1352,0,0
0,-328,0,0,0,0,0,0,0,0,0,-1,1224,1352,0,0
7,-328,0,0,0,0,0,0,0,0,0,-1,1231,1352,0,0
14,-328,0,0,0,0,0,0,0,0,0,-1,1238,1352,0,0
21,-328,0,0,0,0,0,0,0,0,0,-1,1245,1352,0,0
28,-328,0,0,0,0,0,0,0,0,0,-1,1252,1352,0,0
35,-328,0,0,0,0,0,0,0,0,0,-1,1259,1352,0,0
42,-328,0,0,0,0,0,0,0,0,0,-1,1266,1352,0,0
49,-328,0,0,0,0,0,0,0,0,0,-1,1273,1352,0,0
56,-328,0,0,0,0,0,0,0,0,0,-1,1280,1352,0,0
63,-328,0,0,0,0,0,0,0,0,0,-1,1287,1352,0,0
70,-328,0,0,0,0,0,0,0,0,0,-1,1294,1352,0,0
77,-328,0,0,0,0,0,0,0,0,0,-1,1301,1352,0,0
84,-328,0,0,0,0,0,0,0,0,0,-1,1308,1352,0,0
91,-328,0,0,0,0,0,0,0,0,0,-1,1315,1352,0,0
98,-328,0,0,0,0,0,0,0,0,0,-1,1322,1352,0,0
105,-328,0,0,0,0,0,0,0,0,0,-1,1329,1352,0,0
112,-328,0,0,0,0,0,0,0,0,0,-1,1336,1352,0,0
119,-328,0,0,0,0,0,0,0,0,0,-1,1343,1352,0,0
126,-328,0,0,0,0,0,0,0,0,0,-1,1350,1352,0,0
133,-328,0,0,0,0,0,0,0,0,0,-1,1357,1352,0,0
140,-328,0,0,0,0,0,0,0,0,0,-1,1364,1352,0,0
147,-328,0,0,0,0,0,0,0,0,0,-1,1371,1352,0,0
154,-328,0,0,0,0,0,0,0,0,0,-1,1378,1352,0,0
161,-328,0,0,0,0,0,0,0,0,0,-1,1385,1352,0,0
168,-328,0,0,0,0,0,0,0,0,0,-1,1392,1352,0,0
175,-328,0,0,0,0,0,0,0,0,0,-1,1399,1352,0,0
182,-328,0,0,0,0,0,0,0,0,0,-1,1406,1352,0,0
189,-328,0,0,0,0,0,0,0,0,0,-1,1413,1352,0,0
196,-328,0,0,0,0,0,0,0,0,0,-1,1420,1352,0,0
203,-328,0,0,0,0,0,0,0,0,0,-1,1427,1352,0,0
210,-328,0,0,0,0,0,0,0,0,0,-1,1434,1352,0,0
217,-328,0,0,0,0,0,0,0,0,0,-1,1441,1352,0,0
224,-328,0,0,0,0,0,0,0,0,0,-1,1448,1352,0,0
231,-328,0,0,0,0,0,0,0,0,0,-1,1455,1352,0,0
238,-328,0,0,0,0,0,0,0,0,0,-1,1462,1352,0,0
245,-328,0,0,0,0,0,0,0,0,0,-1,1469,1352,0,0
252,-328,0,0,0,0,0,0,0,0,0,-1,1476,1352,0,0
259,-328,0,0,0,0,0,0,0,0,0,-1,1483,1352,0,0
266,-328,0,0,0,0,0,0,0,0,0,-1,1490,1352,0,0
273,-328,0,0,0,0,0,0,0,0,0,-1,1497,1352,0,0
280,-328,0,0,0,0,0,0,0,0,0,-1,1504,1352,0,0
287,-328,0,0,0,0,0,0,0,0,0,-1,1511,1352,0,0
294,-328,0,0,0,0,0,0,0,0,0,-1,1518,1352,0,0
301,-328,0,0,0,0,0,0,0,0,0,-1,1525,1352,0,0
308,-328,0,0,0,0,0,0,0,0,0,-1,1532,1352,0,0
315,-328,0,0,0,0,0,0,0,0,0,-1,1539,1352,0,0
322,-328,0,0,0,0,0,0,0,0,0,-1,1546,1352,0,0
329,-328,0,0,0,0,0,0,0,0,0,-1,1553,1352,0,0
336,-328,0,0,0,0,0,0,0,0,0,-1,1560,1352,0,0
343,-328,0,0,0,0,0,0,0,0,0,-1,1567,1352,0,0
350,-328,0,0,0,0,0,0,0,0,0,-1,1574,1352,0,0
357,-328,0,0,0,0,0,0,0,0,0,-1,1581,1352,0,0
364,-328,0,0,0,0,0,0,0,0,0,-1,1588,1352,0,0
371,-328,0,0,0,0,0,0,0,0,0,-1,1595,1352,0,0
378,-328,0,0,0,0,0,0,0,0,0,-1,1602,1352,0,0
385,-328,0,0,0,0,0,0,0,0,0,-1,1609,1352,0,0
392,-328,0,0,0,0,0,0,0,0,0,-1,1616,1352,0,0
399,-328,0,0,0,0,0,0,0,0,0,-1,1623,1352,0,0
406,-328,0,0,0,0,0,0,0,0,0,-1,1630,1352,0,0
413,-328,0,0,0,0,0,0,0,0,0,-1,1637,1352,0,0
420,-328,0,0,0,0,0,0,0,0,0,-1,1644,1352,0,0
427,-328,0,0,0,0,0,0,0,0,0,-1,1651,1352,0,0
434,-328,0,0,0,0,0,0,0,0,0,-1,1658,1352,0,0
441,-328,0,0,0,0,0,0,0,0,0,-1,1665,1352,0,0
448,-328,0,0,0,0,0,0,0,0,0,-1,1672,1352,0,0
455,-328,0,0,0,0,0,0,0,0,0,-1,1679,1352,0,0
462,-328,0,0,0,0,0,0,0,0,0,-1,1686,1352,0,0
469,-328,0,0,0,0,0,0,0,0,0,-1,1693,1352,0,0
476,-328,0,0,0,0,0,0,0,0,0,-1,1700,1352,0,0
483,-328,0,0,0,0,0,0,0,0,0,-1,1707,1352,0,0
490,-328,0,0,0,0,0,0,0,0,0,-1,1714,1352,0,0
497,-328,0,0,0,0,0,0,0,0,0,-1,1721,1352,0,0
504,-328,0,0,0,0,0,0,0,0,0,-1,1728,1352,0,0
511,-328,0,0,0,0,0,0,0,0,0,-1,1735,1352,0,0
518,-328,0,0,0,0,0,0,0,0,0,-1,1742,1352,0,0
525,-328,0,0,0,0,0,0,0,0,0,-1,1749,1352,0,0
532,-328,0,0,0,0,0,0,0,0,0,-1,1756,1352,0,0
539,-328,0,0,0,0,0,0,0,0,0,-1,1763,1352,0,0
546,-328,0,0,0,0,0,0,0,0,0,-1,1770,1352,0,0
553,-328,0,0,0,0,0,0,0,0,0,-1,1777,1352,0,0
560,-328,0,0,0,0,0,0,0,0,0,-1,1784,1352,0,0
567,-328,0,0,0,0,0,0,0,0,0,-1,1791,1352,0,0
574,-328,15.3956,0.346924,0,0,0,0,0,0,0,-1,1798,1352,15.3957,-0.346929
581,-328,15.5134,0.275024,0,0,0,0,0,0,0,-1,1805,1352,15.5134,-0.275009
588,-328,15.6302,0.239624,0.00266341,0.0188046,0.0253131,0.0373025,-0.0158345,0.939719,0.0315022,0.0466077,1812,1352,15.6302,-0.239665
595,-328,15.6362,0.368896,0.00549421,0.0209725,0.0224043,0.0369366,-0.01047,0.951697,0.0287569,0.0443247,1819,1352,15.6363,-0.368868
602,-328,15.8066,0.152954,0,0,0,0,0,0,0,-1,1826,1352,15.8067,-0.152975
609,-328,15.6058,-0.0849609,0,0,0,0,0,0,0,-1,1833,1352,15.6058,0.0849358
616,-328,14.6827,2.80383,0,0,0,0,0,0,0,-1,1840,1352,14.6827,-2.80384
623,-328,14.4148,6.24377,0,0,0,0,0,0,0,-1,1847,1352,14.4148,-6.24378
630,-328,14.1799,5.94141,0,0,0,0,0,0,0,-1,1854,1352,14.1799,-5.94137
637,-328,13.7266,5.5708,0,0,0,0,0,0,0,-1,1861,1352,13.7266,-5.57078
644,-328,13.2561,5.25366,0.00783534,0.00624156,0.0119664,0.0190313,-0.00495442,0.75215,0.0146215,0.0429971,1868,1352,13.2561,-5.25362
651,-328,12.9591,5.20972,0.0066223,0.00382426,0.010943,0.0162554,-0.00580879,0.72182,0.0132061,0.0408954,1875,1352,12.9592,-5.20975
658,-328,12.7374,5.19336,0.00450933,0.00131654,0.00963699,0.0126813,-0.00685538,0.703317,0.0114454,0.0194389,1882,1352,12.7375,-5.19335
665,-328,12.7098,5.02954,0.00208913,-0.000108297,0.00765325,0.00872213,-0.0067413,0.714104,0.0089522,0.0135495,1889,1352,12.7098,-5.0296
672,-328,12.7192,4.87708,0.000486986,-0.000792468,0.00524082,0.00512698,-0.00543246,0.724666,0.00609735,0.0112767,1896,1352,12.7193,-4.87706
679,-328,12.7426,4.7196,-0.00102019,-0.000827952,0.00363719,0.00271439,-0.00456253,0.798608,0.00424626,0.0128445,1903,1352,12.7425,-4.71956
686,-328,12.7139,4.56055,-0.00131858,0.000464355,0.00142491,0.00125368,-0.00210791,1.06493,0.00196159,0.0118502,1910,1352,12.7139,-4.5605
693,-328,12.7109,4.41724,0.000490071,0.00251648,-0.00122916,0.00309621,-8.96523e-05,-1.13009,0.00209466,0.00907666,1917,1352,12.7109,-4.41723
700,-328,12.7151,4.26074,0.0026244,0.00551536,-0.00427115,0.008579,-0.000439241,-0.948563,0.00587123,0.0136181,1924,1352,12.715,-4.26074
707,-328,12.7334,4.08594,0.0048686,0.00918677,-0.00745783,0.0147918,-0.000736395,-0.926299,0.0101156,0.0149061,1931,1352,12.7334,-4.08594
714,-328,12.7389,3.91809,0.00784223,0.0134627,-0.0111773,0.0221777,-0.000872753,-0.908557,0.0150845,0.0120528,1938,1352,12.7389,-3.9181
721,-328,12.6826,3.80322,0.0116146,0.0190002,-0.0159881,0.0317165,-0.00110165,-0.898894,0.0215209,0.0236222,1945,1352,12.6826,-3.80318
728,-328,12.5333,3.25623,0,0,0,0,0,0,0,-1,1952,1352,12.5333,-3.25625
735,-328,12.9934,2.28088,0.0219033,0.0346499,-0.0293691,0.0583293,-0.00177608,-0.892245,0.0394915,0.0459164,1959,1352,12.9935,-2.28094
742,-328,13.48,1.34204,0.0288734,0.0450196,-0.0382462,0.0760355,-0.00214241,-0.889412,0.0514193,0.0489139,1966,1352,13.48,-1.34202
749,-328,13.766,0.642456,0.0369566,0.0570149,-0.0485116,0.0965232,-0.00255176,-0.887331,0.065216,0.0464688,1973,1352,13.766,-0.642441
756,-328,14.0538,-0.0606689,0,0,0,0,0,0,0,-1,1980,1352,14.0538,0.0607187
763,-328,0,0,0,0,0,0,0,0,0,-1,1987,1352,0,0
770,-328,0,0,0,0,0,0,0,0,0,-1,1994,1352,0,0
777,-328,0,0,0,0,0,0,0,0,0,-1,2001,1352,0,0
784,-328,0,0,0,0,0,0,0,0,0,-1,2008,1352,0,0
791,-328,0,0,0,0,0,0,0,0,0,-1,2015,1352,0,0
798,-328,0,0,0,0,0,0,0,0,0,-1,2022,1352,0,0
805,-328,0,0,0,0,0,0,0,0,0,-1,2029,1352,0,0
812,-328,0,0,0,0,0,0,0,0,0,-1,2036,1352,0,0
-700,-335,0,0,0,0,0,0,0,0,0,-1,524,1359,0,0
-693,-335,0,0,0,0,0,0,0,0,0,-1,531,1359,0,0
-686,-335,0,0,0,0,0,0,0,0,0,-1,538,1359,0,0
-679,-335,0,0,0,0,0,0,0,0,0,-1,545,1359,0,0
-672,-335,0,0,0,0,0,0,0,0,0,-1,552,1359,0,0
-665,-335,0,0,0,0,0,0,0,0,0,-1,559,1359,0,0
-658,-335,0,0,0,0,0,0,0,0,0,-1,566,1359,0,0
-651,-335,0,0,0,0,0,0,0,0,0,-1,573,1359,0,0
-644,-335,0,0,0,0,0,0,0,0,0,-1,580,1359,0,0
-637,-335,-2.55847,0.431274,0,0,0,0,0,0,0,-1,587,1359,-2.55847,-0.431232
-630,-335,-5.15405,3.25818,0,0,0,0,0,0,0,-1,594,1359,-5.15404,-3.25818
-623,-335,-5.14423,2.15601,-0.0136758,-0.00102437,-0.076539,0.0694499,-0.08415,-0.826628,0.0888162,0.0456456,601,1359,-5.1442,-2.15596
-616,-335,-5.17358,0.642944,-0.0133893,0.00112419,-0.0600165,0.054321,-0.0665861,-0.845562,0.0699254,0.0479819,608,1359,-5.1736,-0.642926
-609,-335,-4.50946,-0.464844,0,0,0,0,0,0,0,-1,615,1359,-4.50948,0.464839
-602,-335,-5.6991,1.55591,0,0,0,0,0,0,0,-1,622,1359,-5.69909,-1.55597
-595,-335,-5.53015,1.63306,0,0,0,0,0,0,0,-1,629,1359,-5.53017,-1.63312
-588,-335,-5.3941,1.73193,-0.00942465,0.00389586,-0.0166841,0.0152,-0.0207288,-0.975305,0.0208252,0.0348178,636,1359,-5.3941,-1.73193
-581,-335,-5.50519,1.86536,-0.00811719,0.00337728,-0.0107456,0.00981607,-0.014556,-1.03096,0.0141596,0.0177824,643,1359,-5.50518,-1.86531
-574,-335,-5.51996,2.05286,-0.00688991,0.00443431,-0.00613195,0.00711848,-0.00957407,-1.15819,0.00967215,0.0122606,650,1359,-5.51996,-2.05282
-567,-335,-5.53845,2.28809,-0.00567971,0.00298382,-0.002764,0.00379053,-0.00648642,-1.28682,0.00600106,0.0160488,657,1359,-5.53843,-2.28811
-560,-335,-5.49335,2.45642,-0.00443986,0.000185932,-0.000902527,0.000355785,-0.00460971,-1.38477,0.00319834,0.0234094,664,1359,-5.49333,-2.45648
-553,-335,-5.49786,2.61597,-0.00349581,-0.000473105,-0.000952555,-0.000197967,-0.00377095,-1.28961,0.00245064,0.0258304,671,1359,-5.49785,-2.61592
-546,-335,-5.52051,2.81335,-0.00304843,-0.000875841,-0.00114553,-0.000383442,-0.00354083,-1.16483,0.00224369,0.0242994,678,1359,-5.52052,-2.81335
-539,-335,-5.53113,2.98743,-0.00364109,-0.000560751,-0.00146026,2.14549e-05,-0.00422329,-1.19141,0.00282271,0.0201873,685,1359,-5.53112,-2.98744
-532,-335,-5.53363,3.18286,-0.00518533,0.000401706,-0.00190523,0.000989554,-0.00577318,-1.27152,0.00421751,0.0153853,692,1359,-5.53362,-3.1829
-525,-335,-5.49469,3.39636,-0.00781118,0.00201585,-0.00231705,0.00253477,-0.0083301,-1.35047,0.00656355,0.0102896,699,1359,-5.49469,-3.39641
-518,-335,-5.46729,3.57739,-0.0116324,0.00468917,-0.00280641,0.00515823,-0.0121015,-1.40519,0.0102301,0.0166141,706,1359,-5.46731,-3.57742
-511,-335,-5.57709,3.57385,-0.0166623,0.00872532,-0.00330737,0.00914911,-0.0170861,-1.44336,0.0153762,0.0384631,713,1359,-5.57708,-3.57381
-504,-335,-5.99408,4.09692,-0.0226959,0.014304,-0.00384066,0.0146985,-0.0230904,-1.46845,0.021996,0.0458397,720,1359,-5.99408,-4.09691
-497,-335,-6.28717,4.27979,0,0,0,0,0,0,0,-1,727,1359,-6.2872,-4.27984
-490,-335,-3.41833,-3.1582,0,0,0,0,0,0,0,-1,734,1359,-3.41831,3.15825
-483,-335,-2.55273,-4.46985,0,0,0,0,0,0,0,-1,741,1359,-2.55275,4.46984
-476,-335,-6.43317,0.717896,0,0,0,0,0,0,0,-1,748,1359,-6.43315,-0.71789
-469,-335,-5.9762,-1.66064,0,0,0,0,0,0,0,-1,755,1359,-5.97619,1.66061
-462,-335,-6.66785,-0.89856,0,0,0,0,0,0,0,-1,762,1359,-6.66785,0.898603
-455,-335,-7.39606,-0.372192,0,0,0,0,0,0,0,-1,769,1359,-7.39606,0.372237
-448,-335,0,0,0,0,0,0,0,0,0,-1,776,1359,0,0
-441,-335,0,0,0,0,0,0,0,0,0,-1,783,1359,0,0
-434,-335,0,0,0,0,0,0,0,0,0,-1,790,1359,0,0
-427,-335,0,0,0,0,0,0,0,0,0,-1,797,1359,0,0
-420,-335,0,0,0,0,0,0,0,0,0,-1,804,1359,0,0
-413,-335,0,0,0,0,0,0,0,0,0,-1,811,1359,0,0
-406,-335,0,0,0,0,0,0,0,0,0,-1,818,1359,0,0
-399,-335,0,0,0,0,0,0,0,0,0,-1,825,1359,0,0
-392,-335,0,0,0,0,0,0,0,0,0,-1,832,1359,0,0
-385,-335,0,0,0,0,0,0,0,0,0,-1,839,1359,0,0
-378,-335,0,0,0,0,0,0,0,0,0,-1,846,1359,0,0
-371,-335,0,0,0,0,0,0,0,0,0,-1,853,1359,0,0
-364,-335,0,0,0,0,0,0,0,0,0,-1,860,1359,0,0
-357,-335,0,0,0,0,0,0,0,0,0,-1,867,1359,0,0
-350,-335,0,0,0,0,0,0,0,0,0,-1,874,1359,0,0
-343,-335,0,0,0,0,0,0,0,0,0,-1,881,1359,0,0
-336,-335,0,0,0,0,0,0,0,0,0,-1,888,1359,0,0
-329,-335,0,0,0,0,0,0,0,0,0,-1,895,1359,0,0
-322,-335,0,0,0,0,0,0,0,0,0,-1,902,1359,0,0
-315,-335,0,0,0,0,0,0,0,0,0,-1,909,1359,0,0
-308,-335,0,0,0,0,0,0,0,0,0,-1,916,1359,0,0
-301,-335,0,0,0,0,0,0,0,0,0,-1,923,1359,0,0
-294,-335,0,0,0,0,0,0,0,0,0,-1,930,1359,0,0
-287,-335,0,0,0,0,0,0,0,0,0,-1,937,1359,0,0
-280,-335,0,0,0,0,0,0,0,0,0,-1,944,1359,0,0
-273,-335,0,0,0,0,0,0,0,0,0,-1,951,1359,0,0
-266,-335,0,0,0,0,0,0,0,0,0,-1,958,1359,0,0
-259,-335,0,0,0,0,0,0,0,0,0,-1,965,1359,0,0
-252,-335,0,0,0,0,0,0,0,0,0,-1,972,1359,0,0
-245,-335,0,0,0,0,0,0,0,0,0,-1,979,1359,0,0
-238,-335,0,0,0,0,0,0,0,0,0,-1,986,1359,0,0
-231,-335,0,0,0,0,0,0,0,0,0,-1,993,1359,0,0
-224,-335,0,0,0,0,0,0,0,0,0,-1,1000,1359,0,0
-217,-335,0,0,0,0,0,0,0,0,0,-1,1007,1359,0,0
-210,-335,0,0,0,0,0,0,0,0,0,-1,1014,1359,0,0
-203,-335,0,0,0,0,0,0,0,0,0,-1,1021,1359,0,0
-196,-335,0,0,0,0,0,0,0,0,0,-1,1028,1359,0,0
-189,-335,0,0,0,0,0,0,0,0,0,-1,1035,1359,0,0
-182,-335,0,0,0,0,0,0,0,0,0,-1,1042,1359,0,0
-175,-335,0,0,0,0,0,0,0,0,0,-1,1049,1359,0,0
-168,-335,0,0,0,0,0,0,0,0,0,-1,1056,1359,0,0
-161,-335,0,0,0,0,0,0,0,0,0,-1,1063,1359,0,0
-154,-335,0,0,0,0,0,0,0,0,0,-1,1070,1359,0,0
-147,-335,0,0,0,0,0,0,0,0,0,-1,1077,1359,0,0
-140,-335,0,0,0,0,0,0,0,0,0,-1,1084,1359,0,0
-133,-335,0,0,0,0,0,0,0,0,0,-1,1091,1359,0,0
-126,-335,0,0,0,0,0,0,0,0,0,-1,1098,1359,0,0
-119,-335,0,0,0,0,0,0,0,0,0,-1,1105,1359,0,0
-112,-335,0,0,0,0,0,0,0,0,0,-1,1112,1359,0,0
-105,-335,0,0,0,0,0,0,0,0,0,-1,1119,1359,0,0
-98,-335,0,0,0,0,0,0,0,0,0,-1,1126,1359,0,0
-91,-335,0,0,0,0,0,0,0,0,0,-1,1133,1359,0,0
-84,-335,0,0,0,0,0,0,0,0,0,-1,1140,1359,0,0
-77,-335,0,0,0,0,0,0,0,0,0,-1,1147,1359,0,0
-70,-335,0,0,0,0,0,0,0,0,0,-1,1154,1359,0,0
-63,-335,0,0,0,0,0,0,0,0,0,-1,1161,1359,0,0
-56,-335,0,0,0,0,0,0,0,0,0,-1,1168,1359,0,0
-49,-335,0,0,0,0,0,0,0,0,0,-1,1175,1359,0,0
-42,-335,0,0,0,0,0,0,0,0,0,-1,1182,1359,0,0
-35,-335,0,0,0,0,0,0,0,0,0,-1,1189,1359,0,0
-28,-335,0,0,0,0,0,0,0,0,0,-1,1196,1359,0,0
-21,-335,0,0,0,0,0,0,0,0,0,-1,1203,1359,0,0
-14,-335,0,0,0,0,0,0,0,0,0,-1,1210,1359,0,0
-7,-335,0,0,0,0,0,0,0,0,0,-1,1217,1359,0,0
0,-335,0,0,0,0,0,0,0,0,0,-1,1224,1359,0,0
7,-335,0,0,0,0,0,0,0,0,0,-1,1231,1359,0,0
14,-335,0,0,0,0,0,0,0,0,0,-1,1238,1359,0,0
21,-335,0,0,0,0,0,0,0,0,0,-1,1245,1359,0,0
28,-335,0,0,0,0,0,0,0,0,0,-1,1252,1359,0,0
35,-335,0,0,0,0,0,0,0,0,0,-1,1259,1359,0,0
42,-335,0,0,0,0,0,0,0,0,0,-1,1266,1359,0,0
49,-335,0,0,0,0,0,0,0,0,0,-1,1273,1359,0,0
56,-335,0,0,0,0,0,0,0,0,0,-1,1280,1359,0,0
63,-335,0,0,0,0,0,0,0,0,0,-1,1287,1359,0,0
70,-335,0,0,0,0,0,0,0,0,0,-1,1294,1359,0,0
77,-335,0,0,0,0,0,0,0,0,0,-1,1301,1359,0,0
84,-335,0,0,0,0,0,0,0,0,0,-1,1308,1359,0,0
91,-335,0,0,0,0,0,0,0,0,0,-1,1315,1359,0,0
98,-335,0,0,0,0,0,0,0,0,0,-1,1322,1359,0,0
105,-335,0,0,0,0,0,0,0,0,0,-1,1329,1359,0,0
112,-335,0,0,0,0,0,0,0,0,0,-1,1336,1359,0,0
119,-335,0,0,0,0,0,0,0,0,0,-1,1343,1359,0,0
126,-335,0,0,0,0,0,0,0,0,0,-1,1350,1359,0,0
133,-335,0,0,0,0,0,0,0,0,0,-1,1357,1359,0,0
140,-335,0,0,0,0,0,0,0,0,0,-1,1364,1359,0,0
147,-335,0,0,0,0,0,0,0,0,0,-1,1371,1359,0,0
154,-335,0,0,0,0,0,0,0,0,0,-1,1378,1359,0,0
161,-335,0,0,0,0,0,0,0,0,0,-1,1385,1359,0,0
168,-335,0,0,0,0,0,0,0,0,0,-1,1392,1359,0,0
175,-335,0,0,0,0,0,0,0,0,0,-1,1399,1359,0,0
182,-335,0,0,0,0,0,0,0,0,0,-1,1406,1359,0,0
189,-335,0,0,0,0,0,0,0,0,0,-1,1413,1359,0,0
196,-335,0,0,0,0,0,0,0,0,0,-1,1420,1359,0,0
203,-335,0,0,0,0,0,0,0,0,0,-1,1427,1359,0,0
210,-335,0,0,0,0,0,0,0,0,0,-1,1434,1359,0,0
217,-335,0,0,0,0,0,0,0,0,0,-1,1441,1359,0,0
224,-335,0,0,0,0,0,0,0,0,0,-1,1448,1359,0,0
231,-335,0,0,0,0,0,0,0,0,0,-1,1455,1359,0,0
238,-335,0,0,0,0,0,0,0,0,0,-1,1462,1359,0,0
245,-335,0,0,0,0,0,0,0,0,0,-1,1469,1359,0,0
252,-335,0,0,0,0,0,0,0,0,0,-1,1476,1359,0,0
259,-335,0,0,0,0,0,0,0,0,0,-1,1483,1359,0,0
266,-335,0,0,0,0,0,0,0,0,0,-1,1490,1359,0,0
273,-335,0,0,0,0,0,0,0,0,0,-1,1497,1359,0,0
280,-335,0,0,0,0,0,0,0,0,0,-1,1504,1359,0,0
287,-335,0,0,0,0,0,0,0,0,0,-1,1511,1359,0,0
294,-335,0,0,0,0,0,0,0,0,0,-1,1518,1359,0,0
301,-335,0,0,0,0,0,0,0,0,0,-1,1525,1359,0,0
308,-335,0,0,0,0,0,0,0,0,0,-1,1532,1359,0,0
315,-335,0,0,0,0,0,0,0,0,0,-1,1539,1359,0,0
322,-335,0,0,0,0,0,0,0,0,0,-1,1546,1359,0,0
329,-335,0,0,0,0,0,0,0,0,0,-1,1553,1359,0,0
336,-335,0,0,0,0,0,0,0,0,0,-1,1560,1359,0,0
343,-335,0,0,0,0,0,0,0,0,0,-1,1567,1359,0,0
350,-335,0,0,0,0,0,0,0,0,0,-1,1574,1359,0,0
357,-335,0,0,0,0,0,0,0,0,0,-1,1581,1359,0,0
364,-335,0,0,0,0,0,0,0,0,0,-1,1588,1359,0,0
371,-335,0,0,0,0,0,0,0,0,0,-1,1595,1359,0,0
378,-335,0,0,0,0,0,0,0,0,0,-1,1602,1359,0,0
385,-335,0,0,0,0,0,0,0,0,0,-1,1609,1359,0,0
392,-335,0,0,0,0,0,0,0,0,0,-1,1616,1359,0,0
399,-335,0,0,0,0,0,0,0,0,0,-1,1623,1359,0,0
406,-335,0,0,0,0,0,0,0,0,0,-1,1630,1359,0,0
413,-335,0,0,0,0,0,0,0,0,0,-1,1637,1359,0,0
420,-335,0,0,0,0,0,0,0,0,0,-1,1644,1359,0,0
427,-335,0,0,0,0,0,0,0,0,0,-1,1651,1359,0,0
434,-335,0,0,0,0,0,0,0,0,0,-1,1658,1359,0,0
441,-335,0,0,0,0,0,0,0,0,0,-1,1665,1359,0,0
448,-335,0,0,0,0,0,0,0,0,0,-1,1672,1359,0,0
455,-335,0,0,0,0,0,0,0,0,0,-1,1679,1359,0,0
462,-335,0,0,0,0,0,0,0,0,0,-1,1686,1359,0,0
469,-335,0,0,0,0,0,0,0,0,0,-1,1693,1359,0,0
476,-335,0,0,0,0,0,0,0,0,0,-1,1700,1359,0,0
483,-335,0,0,0,0,0,0,0,0,0,-1,1707,1359,0,0
490,-335,0,0,0,0,0,0,0,0,0,-1,1714,1359,0,0
497,-335,0,0,0,0,0,0,0,0,0,-1,1721,1359,0,0
504,-335,0,0,0,0,0,0,0,0,0,-1,1728,1359,0,0
511,-335,0,0,0,0,0,0,0,0,0,-1,1735,1359,0,0
518,-335,0,0,0,0,0,0,0,0,0,-1,1742,1359,0,0
525,-335,0,0,0,0,0,0,0,0,0,-1,1749,1359,0,0
532,-335,0,0,0,0,0,0,0,0,0,-1,1756,1359,0,0
539,-335,0,0,0,0,0,0,0,0,0,-1,1763,1359,0,0
546,-335,0,0,0,0,0,0,0,0,0,-1,1770,1359,0,0
553,-335,0,0,0,0,0,0,0,0,0,-1,1777,1359,0,0
560,-335,0,0,0,0,0,0,0,0,0,-1,1784,1359,0,0
567,-335,0,0,0,0,0,0,0,0,0,-1,1791,1359,0,0
574,-335,20.4679,4.50537,0,0,0,0,0,0,0,-1,1798,1359,20.4679,-4.50536
581,-335,15.5392,0.0406494,0,0,0,0,0,0,0,-1,1805,1359,15.5391,-0.0406916
588,-335,15.6636,-0.0556641,0,0,0,0,0,0,0,-1,1812,1359,15.6635,0.0556676
595,-335,15.6337,0.186646,0,0,0,0,0,0,0,-1,1819,1359,15.6337,-0.186596
602,-335,14.6962,1.51538,0,0,0,0,0,0,0,-1,1826,1359,14.6962,-1.51536
609,-335,14.6042,1.93579,0,0,0,0,0,0,0,-1,1833,1359,14.6043,-1.93583
616,-335,14.5464,2.47803,0,0,0,0,0,0,0,-1,1840,1359,14.5464,-2.47806
623,-335,14.4531,2.99451,0,0,0,0,0,0,0,-1,1847,1359,14.4531,-2.99448
630,-335,14.5187,5.9209,0,0,0,0,0,0,0,-1,1854,1359,14.5186,-5.92088
637,-335,13.637,5.62109,0,0,0,0,0,0,0,-1,1861,1359,13.637,-5.62105
644,-335,12.8445,5.35632,0.00250076,0.00425187,0.0117192,0.0151282,-0.00837559,0.822684,0.0137553,0.0412489,1868,1359,12.8445,-5.35633
651,-335,12.5817,5.35522,0.00190627,0.0021343,0.0103925,0.0124134,-0.00837286,0.790883,0.0120763,0.0189813,1875,1359,12.5816,-5.35523
658,-335,12.5265,5.22656,0.000818004,0.000213176,0.00883328,0.00935405,-0.00832287,0.768287,0.0102116,0.013281,1882,1359,12.5265,-5.22655
665,-335,12.5449,5.04639,-0.000231124,-0.000675365,0.00678511,0.0063355,-0.00724199,0.769036,0.00784479,0.0136894,1889,1359,12.545,-5.04645
672,-335,12.554,4.8811,-0.000743681,-0.000967333,0.00451134,0.00365722,-0.00536823,0.773007,0.00524196,0.0157423,1896,1359,12.554,-4.88112
679,-335,12.572,4.74561,-0.0012319,-0.000645058,0.00291481,0.00199106,-0.00386802,0.835562,0.00344011,0.0133661,1903,1359,12.5721,-4.74559
686,-335,12.5682,4.56958,-0.000859026,0.000840545,0.000771521,0.00113853,-0.00115701,1.20221,0.00132535,0.0107268,1910,1359,12.5683,-4.56961
693,-335,12.5695,4.38196,0.000950621,0.00292084,-0.00184481,0.00402709,-0.000155623,-1.03063,0.00273807,0.00998263,1917,1359,12.5695,-4.38199
700,-335,12.5614,4.245,0.0029464,0.00593422,-0.00488638,0.00954995,-0.000669334,-0.933751,0.00660107,0.0110993,1924,1359,12.5613,-4.24504
707,-335,12.567,4.08154,0.00513022,0.00963952,-0.0080988,0.0157916,-0.00102191,-0.921157,0.0108844,0.0138126,1931,1359,12.567,-4.08158
714,-335,12.5844,3.87915,0.008047,0.0141404,-0.011991,0.0234657,-0.00127828,-0.909807,0.0160868,0.0173798,1938,1359,12.5844,-3.87917
721,-335,12.4791,3.70374,0.0119366,0.0200389,-0.0170879,0.0335493,-0.00157388,-0.901788,0.0229089,0.0315718,1945,1359,12.4792,-3.70379
728,-335,12.5294,3.54175,0.0169533,0.0276308,-0.0236303,0.0465179,-0.00193378,-0.896498,0.0316762,0.0449113,1952,1359,12.5294,-3.54178
735,-335,12.7413,2.08582,0,0,0,0,0,0,0,-1,1959,1359,12.7413,-2.08581
742,-335,13.4943,1.23254,0.0312365,0.048577,-0.041723,0.0825211,-0.00270759,-0.887842,0.0559385,0.0496904,1966,1359,13.4943,-1.23254
749,-335,13.7532,0.331787,0.0406149,0.0620947,-0.0533912,0.105816,-0.00310593,-0.884651,0.0716014,0.0467258,1973,1359,13.7532,-0.331815
756,-335,14.0873,-0.394897,0,0,0,0,0,0,0,-1,1980,1359,14.0873,0.394917
763,-335,0,0,0,0,0,0,0,0,0,-1,1987,1359,0,0
770,-335,0,0,0,0,0,0,0,0,0,-1,1994,1359,0,0
777,-335,0,0,0,0,0,0,0,0,0,-1,2001,1359,0,0
784,-335,0,0,0,0,0,0,0,0,0,-1,2008,1359,0,0
791,-335,0,0,0,0,0,0,0,0,0,-1,2015,1359,0,0
798,-335,0,0,0,0,0,0,0,0,0,-1,2022,1359,0,0
805,-335,0,0,0,0,0,0,0,0,0,-1,2029,1359,0,0
812,-335,0,0,0,0,0,0,0,0,0,-1,2036,1359,0,0
-700,-342,0,0,0,0,0,0,0,0,0,-1,524,1366,0,0
-693,-342,0,0,0,0,0,0,0,0,0,-1,531,1366,0,0
-686,-342,0,0,0,0,0,0,0,0,0,-1,538,1366,0,0
-679,-342,0,0,0,0,0,0,0,0,0,-1,545,1366,0,0
-672,-342,0,0,0,0,0,0,0,0,0,-1,552,1366,0,0
-665,-342,0,0,0,0,0,0,0,0,0,-1,559,1366,0,0
-658,-342,0,0,0,0,0,0,0,0,0,-1,566,1366,0,0
-651,-342,0,0,0,0,0,0,0,0,0,-1,573,1366,0,0
-644,-342,0,0,0,0,0,0,0,0,0,-1,580,1366,0,0
-637,-342,-3.75891,-0.756104,0,0,0,0,0,0,0,-1,587,1366,-3.7589,0.756129
-630,-342,-4.68829,2.76465,0,0,0,0,0,0,0,-1,594,1366,-4.68829,-2.76461
-623,-342,-4.68439,1.79883,0,0,0,0,0,0,0,-1,601,1366,-4.68439,-1.79887
-616,-342,-4.72772,-0.445679,0,0,0,0,0,0,0,-1,608,1366,-4.72774,0.445641
-609,-342,-6.10938,0.395386,0,0,0,0,0,0,0,-1,615,1366,-6.10935,-0.39543
-602,-342,-5.93481,0.897705,0,0,0,0,0,0,0,-1,622,1366,-5.93482,-0.897681
-595,-342,-5.34973,1.5304,0,0,0,0,0,0,0,-1,629,1366,-5.3497,-1.53043
-588,-342,-4.99963,1.69934,-0.0127272,0.00570555,-0.0185531,0.0172054,-0.024227,-1.01592,0.0240352,0.0403064,636,1366,-4.99963,-1.69937
-581,-342,-5.29413,1.81775,-0.0110541,0.00465993,-0.0117669,0.0109519,-0.0173461,-1.07976,0.0164763,0.0289795,643,1366,-5.29416,-1.81771
-574,-342,-5.35071,2.07129,-0.0093968,0.00535678,-0.00661485,0.00788823,-0.0119283,-1.2053,0.01152,0.0105924,650,1366,-5.3507,-2.07131
-567,-342,-5.3324,2.26868,-0.00771919,0.00366824,-0.00285797,0.00434527,-0.00839622,-1.33819,0.0074792,0.0159313,657,1366,-5.3324,-2.26868
-560,-342,-5.33289,2.4397,-0.00595382,0.000717686,-0.000797134,0.000811609,-0.00604775,-1.45351,0.00432781,0.0230623,664,1366,-5.33288,-2.4397
-553,-342,-5.34167,2.60486,-0.00450051,5.19186e-05,-0.000809849,0.000191694,-0.00464029,-1.39989,0.00315936,0.0248109,671,1366,-5.34167,-2.60488
-546,-342,-5.33984,2.82849,-0.00360632,-0.000399169,-0.000929895,-0.000149057,-0.00385644,-1.30805,0.00252274,0.024669,678,1366,-5.33985,-2.82848
-539,-342,-5.34149,3.0376,-0.00373082,-0.000374858,-0.00122154,2.26779e-05,-0.00412836,-1.25617,0.00275983,0.0212077,685,1366,-5.3415,-3.03756
-532,-342,-5.33405,3.20398,-0.00470301,-5.61359e-05,-0.00174465,0.000525967,-0.00528511,-1.24876,0.00371117,0.0164219,692,1366,-5.33407,-3.20398
-525,-342,-5.30994,3.40247,-0.0066407,0.000716066,-0.00238673,0.00142254,-0.00734718,-1.28301,0.00543472,0.0105144,699,1366,-5.30996,-3.40243
-518,-342,-5.29004,3.59631,-0.0098151,0.00210688,-0.00311636,0.00287234,-0.0105806,-1.32994,0.008181,0.0122659,706,1366,-5.29002,-3.59631
-511,-342,-5.30963,3.72363,-0.0141877,0.00443107,-0.00404929,0.0052736,-0.0150302,-1.36565,0.0121652,0.0335286,713,1366,-5.30963,-3.72367
-504,-342,-5.60779,4.04639,-0.019649,0.00784275,-0.00522151,0.00880107,-0.0206073,-1.38928,0.0174291,0.0487118,720,1366,-5.60781,-4.04642
-497,-342,-5.87604,4.2218,0,0,0,0,0,0,0,-1,727,1366,-5.87602,-4.22186
-490,-342,-3.79974,2.95203,0,0,0,0,0,0,0,-1,734,1366,-3.79976,-2.95204
-483,-342,-6.38617,2.56531,0,0,0,0,0,0,0,-1,741,1366,-6.38616,-2.56535
-476,-342,-6.6441,1.36523,0,0,0,0,0,0,0,-1,748,1366,-6.64413,-1.36526
-469,-342,-6.159,-2.36792,0,0,0,0,0,0,0,-1,755,1366,-6.15901,2.36788
-462,-342,-6.8576,-1.88867,0,0,0,0,0,0,0,-1,762,1366,-6.85763,1.88862
-455,-342,-7.50574,-1.37073,0,0,0,0,0,0,0,-1,769,1366,-7.50571,1.3707
-448,-342,-8.61353,-1.16772,0,0,0,0,0,0,0,-1,776,1366,-8.61352,1.16773
-441,-342,0,0,0,0,0,0,0,0,0,-1,783,1366,0,0
-434,-342,0,0,0,0,0,0,0,0,0,-1,790,1366,0,0
-427,-342,0,0,0,0,0,0,0,0,0,-1,797,1366,0,0
-420,-342,0,0,0,0,0,0,0,0,0,-1,804,1366,0,0
-413,-342,0,0,0,0,0,0,0,0,0,-1,811,1366,0,0
-406,-342,0,0,0,0,0,0,0,0,0,-1,818,1366,0,0
-399,-342,0,0,0,0,0,0,0,0,0,-1,825,1366,0,0
-392,-342,0,0,0,0,0,0,0,0,0,-1,832,1366,0,0
-385,-342,0,0,0,0,0,0,0,0,0,-1,839,1366,0,0
-378,-342,0,0,0,0,0,0,0,0,0,-1,846,1366,0,0
-371,-342,0,0,0,0,0,0,0,0,0,-1,853,1366,0,0
-364,-342,0,0,0,0,0,0,0,0,0,-1,860,1366,0,0
-357,-342,0,0,0,0,0,0,0,0,0,-1,867,1366,0,0
-350,-342,0,0,0,0,0,0,0,0,0,-1,874,1366,0,0
-343,-342,0,0,0,0,0,0,0,0,0,-1,881,1366,0,0
-336,-342,0,0,0,0,0,0,0,0,0,-1,888,1366,0,0
-329,-342,0,0,0,0,0,0,0,0,0,-1,895,1366,0,0
-322,-342,0,0,0,0,0,0,0,0,0,-1,902,1366,0,0
-315,-342,0,0,0,0,0,0,0,0,0,-1,909,1366,0,0
-308,-342,0,0,0,0,0,0,0,0,0,-1,916,1366,0,0
-301,-342,0,0,0,0,0,0,0,0,0,-1,923,1366,0,0
-294,-342,0,0,0,0,0,0,0,0,0,-1,930,1366,0,0
-287,-342,0,0,0,0,0,0,0,0,0,-1,937,1366,0,0
-280,-342,0,0,0,0,0,0,0,0,0,-1,944,1366,0,0
-273,-342,0,0,0,0,0,0,0,0,0,-1,951,1366,0,0
-266,-342,0,0,0,0,0,0,0,0,0,-1,958,1366,0,0
-259,-342,0,0,0,0,0,0,0,0,0,-1,965,1366,0,0
-252,-342,0,0,0,0,0,0,0,0,0,-1,972,1366,0,0
-245,-342,0,0,0,0,0,0,0,0,0,-1,979,1366,0,0
-238,-342,0,0,0,0,0,0,0,0,0,-1,986,1366,0,0
-231,-342,0,0,0,0,0,0,0,0,0,-1,993,1366,0,0
-224,-342,0,0,0,0,0,0,0,0,0,-1,1000,1366,0,0
-217,-342,0,0,0,0,0,0,0,0,0,-1,1007,1366,0,0
-210,-342,0,0,0,0,0,0,0,0,0,-1,1014,1366,0,0
-203,-342,0,0,0,0,0,0,0,0,0,-1,1021,1366,0,0
-196,-342,0,0,0,0,0,0,0,0,0,-1,1028,1366,0,0
-189,-342,0,0,0,0,0,0,0,0,0,-1,1035,1366,0,0
-182,-342,0,0,0,0,0,0,0,0,0,-1,1042,1366,0,0
-175,-342,0,0,0,0,0,0,0,0,0,-1,1049,1366,0,0
-168,-342,0,0,0,0,0,0,0,0,0,-1,1056,1366,0,0
-161,-342,0,0,0,0,0,0,0,0,0,-1,1063,1366,0,0
-154,-342,0,0,0,0,0,0,0,0,0,-1,1070,1366,0,0
-147,-342,0,0,0,0,0,0,0,0,0,-1,1077,1366,0,0
-140,-342,0,0,0,0,0,0,0,0,0,-1,1084,1366,0,0
-133,-342,0,0,0,0,0,0,0,0,0,-1,1091,1366,0,0
-126,-342,0,0,0,0,0,0,0,0,0,-1,1098,1366,0,0
-119,-342,0,0,0,0,0,0,0,0,0,-1,1105,1366,0,0
-112,-342,0,0,0,0,0,0,0,0,0,-1,1112,1366,0,0
-105,-342,0,0,0,0,0,0,0,0,0,-1,1119,1366,0,0
-98,-342,0,0,0,0,0,0,0,0,0,-1,1126,1366,0,0
-91,-342,0,0,0,0,0,0,0,0,0,-1,1133,1366,0,0
-84,-342,0,0,0,0,0,0,0,0,0,-1,1140,1366,0,0
-77,-342,0,0,0,0,0,0,0,0,0,-1,1147,1366,0,0
-70,-342,0,0,0,0,0,0,0,0,0,-1,1154,1366,0,0
-63,-342,0,0,0,0,0,0,0,0,0,-1,1161,1366,0,0
-56,-342,0,0,0,0,0,0,0,0,0,-1,1168,1366,0,0
-49,-342,0,0,0,0,0,0,0,0,0,-1,1175,1366,0,0
-42,-342,0,0,0,0,0,0,0,0,0,-1,1182,1366,0,0
-35,-342,0,0,0,0,0,0,0,0,0,-1,1189,1366,0,0
-28,-342,0,0,0,0,0,0,0,0,0,-1,1196,1366,0,0
-21,-342,0,0,0,0,0,0,0,0,0,-1,1203,1366,0,0
-14,-342,0,0,0,0,0,0,0,0,0,-1,1210,1366,0,0
-7,-342,0,0,0,0,0,0,0,0,0,-1,1217,1366,0,0
0,-342,0,0,0,0,0,0,0,0,0,-1,1224,1366,0,0
7,-342,0,0,0,0,0,0,0,0,0,-1,1231,1366,0,0
14,-342,0,0,0,0,0,0,0,0,0,-1,1238,1366,0,0
21,-342,0,0,0,0,0,0,0,0,0,-1,1245,1366,0,0
28,-342,0,0,0,0,0,0,0,0,0,-1,1252,1366,0,0
35,-342,0,0,0,0,0,0,0,0,0,-1,1259,1366,0,0
42,-342,0,0,0,0,0,0,0,0,0,-1,1266,1366,0,0
49,-342,0,0,0,0,0,0,0,0,0,-1,1273,1366,0,0
56,-342,0,0,0,0,0,0,0,0,0,-1,1280,1366,0,0
63,-342,0,0,0,0,0,0,0,0,0,-1,1287,1366,0,0
70,-342,0,0,0,0,0,0,0,0,0,-1,1294,1366,0,0
77,-342,0,0,0,0,0,0,0,0,0,-1,1301,1366,0,0
84,-342,0,0,0,0,0,0,0,0,0,-1,1308,1366,0,0
91,-342,0,0,0,0,0,0,0,0,0,-1,1315,1366,0,0
98,-342,0,0,0,0,0,0,0,0,0,-1,1322,1366,0,0
105,-342,0,0,0,0,0,0,0,0,0,-1,1329,1366,0,0
112,-342,0,0,0,0,0,0,0,0,0,-1,1336,1366,0,0
119,-342,0,0,0,0,0,0,0,0,0,-1,1343,1366,0,0
126,-342,0,0,0,0,0,0,0,0,0,-1,1350,1366,0,0
133,-342,0,0,0,0,0,0,0,0,0,-1,1357,1366,0,0
140,-342,0,0,0,0,0,0,0,0,0,-1,1364,1366,0,0
147,-342,0,0,0,0,0,0,0,0,0,-1,1371,1366,0,0
154,-342,0,0,0,0,0,0,0,0,0,-1,1378,1366,0,0
161,-342,0,0,0,0,0,0,0,0,0,-1,1385,1366,0,0
168,-342,0,0,0,0,0,0,0,0,0,-1,1392,1366,0,0
175,-342,0,0,0,0,0,0,0,0,0,-1,1399,1366,0,0
182,-342,0,0,0,0,0,0,0,0,0,-1,1406,1366,0,0
189,-342,0,0,0,0,0,0,0,0,0,-1,1413,1366,0,0
196,-342,0,0,0,0,0,0,0,0,0,-1,1420,1366,0,0
203,-342,0,0,0,0,0,0,0,0,0,-1,1427,1366,0,0
210,-342,0,0,0,0,0,0,0,0,0,-1,1434,1366,0,0
217,-342,0,0,0,0,0,0,0,0,0,-1,1441,1366,0,0
224,-342,0,0,0,0,0,0,0,0,0,-1,1448,1366,0,0
231,-342,0,0,0,0,0,0,0,0,0,-1,1455,1366,0,0
238,-342,0,0,0,0,0,0,0,0,0,-1,1462,1366,0,0
245,-342,0,0,0,0,0,0,0,0,0,-1,1469,1366,0,0
252,-342,0,0,0,0,0,0,0,0,0,-1,1476,1366,0,0
259,-342,0,0,0,0,0,0,0,0,0,-1,1483,1366,0,0
266,-342,0,0,0,0,0,0,0,0,0,-1,1490,1366,0,0
273,-342,0,0,0,0,0,0,0,0,0,-1,1497,1366,0,0
280,-342,0,0,0,0,0,0,0,0,0,-1,1504,1366,0,0
287,-342,0,0,0,0,0,0,0,0,0,-1,1511,1366,0,0
294,-342,0,0,0,0,0,0,0,0,0,-1,1518,1366,0,0
301,-342,0,0,0,0,0,0,0,0,0,-1,1525,1366,0,0
308,-342,0,0,0,0,0,0,0,0,0,-1,1532,1366,0,0
315,-342,0,0,0,0,0,0,0,0,0,-1,1539,1366,0,0
322,-342,0,0,0,0,0,0,0,0,0,-1,1546,1366,0,0
329,-342,0,0,0,0,0,0,0,0,0,-1,1553,1366,0,0
336,-342,0,0,0,0,0,0,0,0,0,-1,1560,1366,0,0
343,-342,0,0,0,0,0,0,0,0,0,-1,1567,1366,0,0
350,-342,0,0,0,0,0,0,0,0,0,-1,1574,1366,0,0
357,-342,0,0,0,0,0,0,0,0,0,-1,1581,1366,0,0
364,-342,0,0,0,0,0,0,0,0,0,-1,1588,1366,0,0
371,-342,0,0,0,0,0,0,0,0,0,-1,1595,1366,0,0
378,-342,0,0,0,0,0,0,0,0,0,-1,1602,1366,0,0
385,-342,0,0,0,0,0,0,0,0,0,-1,1609,1366,0,0
392,-342,0,0,0,0,0,0,0,0,0,-1,1616,1366,0,0
399,-342,0,0,0,0,0,0,0,0,0,-1,1623,1366,0,0
406,-342,0,0,0,0,0,0,0,0,0,-1,1630,1366,0,0
413,-342,0,0,0,0,0,0,0,0,0,-1,1637,1366,0,0
420,-342,0,0,0,0,0,0,0,0,0,-1,1644,1366,0,0
427,-342,0,0,0,0,0,0,0,0,0,-1,1651,1366,0,0
434,-342,0,0,0,0,0,0,0,0,0,-1,1658,1366,0,0
441,-342,0,0,0,0,0,0,0,0,0,-1,1665,1366,0,0
448,-342,0,0,0,0,0,0,0,0,0,-1,1672,1366,0,0
455,-342,0,0,0,0,0,0,0,0,0,-1,1679,1366,0,0
462,-342,0,0,0,0,0,0,0,0,0,-1,1686,1366,0,0
469,-342,0,0,0,0,0,0,0,0,0,-1,1693,1366,0,0
476,-342,0,0,0,0,0,0,0,0,0,-1,1700,1366,0,0
483,-342,0,0,0,0,0,0,0,0,0,-1,1707,1366,0,0
490,-342,0,0,0,0,0,0,0,0,0,-1,1714,1366,0,0
497,-342,0,0,0,0,0,0,0,0,0,-1,1721,1366,0,0
504,-342,0,0,0,0,0,0,0,0,0,-1,1728,1366,0,0
511,-342,0,0,0,0,0,0,0,0,0,-1,1735,1366,0,0
518,-342,0,0,0,0,0,0,0,0,0,-1,1742,1366,0,0
525,-342,0,0,0,0,0,0,0,0,0,-1,1749,1366,0,0
532,-342,0,0,0,0,0,0,0,0,0,-1,1756,1366,0,0
539,-342,0,0,0,0,0,0,0,0,0,-1,1763,1366,0,0
546,-342,0,0,0,0,0,0,0,0,0,-1,1770,1366,0,0
553,-342,0,0,0,0,0,0,0,0,0,-1,1777,1366,0,0
560,-342,0,0,0,0,0,0,0,0,0,-1,1784,1366,0,0
567,-342,19.6702,4.76367,0,0,0,0,0,0,0,-1,1791,1366,19.6701,-4.76362
574,-342,14.5073,-1.26013,0,0,0,0,0,0,0,-1,1798,1366,14.5073,1.26014
581,-342,14.8185,-0.559326,0.0133682,0.00696744,0.0442132,0.0544968,-0.0341611,0.749268,0.0516335,0.0460306,1805,1366,14.8185,0.559359
588,-342,15.1865,-0.180664,0.00927671,0.00905405,0.0378071,0.0469726,-0.0286419,0.783926,0.0440816,0.0464311,1812,1366,15.1865,0.180717
595,-342,15.5009,0.412109,0,0,0,0,0,0,0,-1,1819,1366,15.5008,-0.41209
602,-342,14.4944,0.827515,0,0,0,0,0,0,0,-1,1826,1366,14.4944,-0.8275
609,-342,14.418,1.49121,0,0,0,0,0,0,0,-1,1833,1366,14.418,-1.49123
616,-342,12.4237,5.7688,0,0,0,0,0,0,0,-1,1840,1366,12.4237,-5.7688
623,-342,12.5308,5.65015,0,0,0,0,0,0,0,-1,1847,1366,12.5308,-5.65018
630,-342,11.7201,4.95142,0,0,0,0,0,0,0,-1,1854,1366,11.7201,-4.9514
637,-342,12.6431,5.3075,0,0,0,0,0,0,0,-1,1861,1366,12.643,-5.30752
644,-342,12.4119,5.50842,-0.00131726,0.00198251,0.0113011,0.0117535,-0.0110883,0.857883,0.0131896,0.0376747,1868,1366,12.4119,-5.5084
651,-342,12.3916,5.42065,-0.00117325,0.000339012,0.00958881,0.00920145,-0.0100357,0.824745,0.0111101,0.0191411,1875,1366,12.3915,-5.42069
658,-342,12.3655,5.20056,-0.00129607,-0.00085057,0.00781676,0.00674661,-0.00889325,0.799643,0.00905799,0.0190043,1882,1366,12.3655,-5.20059
665,-342,12.3844,5.02722,-0.00133934,-0.00116882,0.00576084,0.00450739,-0.00701555,0.792797,0.0067051,0.0156987,1889,1366,12.3844,-5.02724
672,-342,12.4165,4.88086,-0.00109657,-0.00106228,0.00366425,0.00258487,-0.00474371,0.787738,0.00429191,0.0122948,1896,1366,12.4165,-4.88091
679,-342,12.4082,4.75134,-0.00100995,-0.000432008,0.00207905,0.00137806,-0.00282002,0.854452,0.00247096,0.0123036,1903,1366,12.4082,-4.75134
686,-342,12.4108,4.59412,-0.000307787,0.00117518,4.36897e-05,0.00117647,-0.000309073,1.54137,0.000905099,0.0106008,1910,1366,12.4108,-4.59408
693,-342,12.4092,4.40247,0.00131399,0.00322009,-0.00247056,0.00491505,-0.000380971,-0.969485,0.00341079,0.0114188,1917,1366,12.4091,-4.4025
700,-342,12.4105,4.2522,0.00314885,0.00618726,-0.0054361,0.0103124,-0.000976342,-0.921655,0.00722244,0.013133,1924,1366,12.4105,-4.25219
707,-342,12.4219,4.08459,0.00528423,0.00983218,-0.00862923,0.016482,-0.00136562,-0.914229,0.0114704,0.0125267,1931,1366,12.4219,-4.08462
714,-342,12.4115,3.90405,0.0081609,0.0144192,-0.0126943,0.0243643,-0.00178425,-0.906239,0.0168691,0.0237947,1938,1366,12.4115,-3.90402
721,-342,12.3088,3.72888,0.0120216,0.0205277,-0.0180668,0.0348353,-0.00228595,-0.900998,0.0240218,0.0359855,1945,1366,12.3089,-3.72884
728,-342,12.4194,3.43445,0.0172478,0.0284445,-0.0250965,0.0485595,-0.00286723,-0.895138,0.0333699,0.0491406,1952,1366,12.4195,-3.43443
735,-342,12.5165,3.40015,0,0,0,0,0,0,0,-1,1959,1366,12.5165,-3.40011
742,-342,13.485,0.865356,0,0,0,0,0,0,0,-1,1966,1366,13.485,-0.86541
749,-342,13.6312,-0.00817871,0,0,0,0,0,0,0,-1,1973,1366,13.6313,0.00817977
756,-342,0,0,0,0,0,0,0,0,0,-1,1980,1366,0,0
763,-342,0,0,0,0,0,0,0,0,0,-1,1987,1366,0,0
770,-342,0,0,0,0,0,0,0,0,0,-1,1994,1366,0,0
777,-342,0,0,0,0,0,0,0,0,0,-1,2001,1366,0,0
784,-342,0,0,0,0,0,0,0,0,0,-1,2008,1366,0,0
791,-342,0,0,0,0,0,0,0,0,0,-1,2015,1366,0,0
798,-342,0,0,0,0,0,0,0,0,0,-1,2022,1366,0,0
805,-342,0,0,0,0,0,0,0,0,0,-1,2029,1366,0,0
812,-342,0,0,0,0,0,0,0,0,0,-1,2036,1366,0,0
-700,-349,0,0,0,0,0,0,0,0,0,-1,524,1373,0,0
-693,-349,0,0,0,0,0,0,0,0,0,-1,531,1373,0,0
-686,-349,0,0,0,0,0,0,0,0,0,-1,538,1373,0,0
-679,-349,0,0,0,0,0,0,0,0,0,-1,545,1373,0,0
-672,-349,0,0,0,0,0,0,0,0,0,-1,552,1373,0,0
-665,-349,0,0,0,0,0,0,0,0,0,-1,559,1373,0,0
-658,-349,0,0,0,0,0,0,0,0,0,-1,566,1373,0,0
-651,-349,0,0,0,0,0,0,0,0,0,-1,573,1373,0,0
-644,-349,0,0,0,0,0,0,0,0,0,-1,580,1373,0,0
-637,-349,0,0,0,0,0,0,0,0,0,-1,587,1373,0,0
-630,-349,-5.16406,-3.00012,0,0,0,0,0,0,0,-1,594,1373,-5.16406,3.00016
-623,-349,-4.26752,1.50269,0,0,0,0,0,0,0,-1,601,1373,-4.26749,-1.50269
-616,-349,-7.53485,-0.736694,0,0,0,0,0,0,0,-1,608,1373,-7.53484,0.736698
-609,-349,-6.71759,-0.281616,0,0,0,0,0,0,0,-1,615,1373,-6.71757,0.281629
-602,-349,-6.02875,0.283447,0,0,0,0,0,0,0,-1,622,1373,-6.02877,-0.283421
-595,-349,-4.50189,1.33594,0,0,0,0,0,0,0,-1,629,1373,-4.50191,-1.33595
-588,-349,-4.7254,1.62573,-0.0108725,0.0106941,-0.0140209,0.0175988,-0.0177771,-1.1132,0.0204244,0.0439577,636,1373,-4.72542,-1.62569
-581,-349,-4.96906,1.9635,-0.0103621,0.00804756,-0.00835424,0.0112734,-0.013588,-1.2023,0.0143745,0.0348652,643,1373,-4.96906,-1.96351
-574,-349,-5.12897,2.05249,-0.00927291,0.00750142,-0.0041083,0.00845357,-0.0102251,-1.34306,0.0108003,0.0183529,650,1373,-5.12897,-2.05251
-567,-349,-5.16864,2.2688,-0.00783627,0.0050151,-0.00100899,0.00509383,-0.00791501,-1.49292,0.0075693,0.0152929,657,1373,-5.16865,-2.26877
-560,-349,-5.1571,2.46069,-0.0061138,0.00169777,0.000478292,0.00172695,-0.00614297,1.50987,0.00477619,0.0189346,664,1373,-5.15711,-2.46074
-553,-349,-5.13586,2.60754,-0.00461569,0.000790384,7.35156e-05,0.000791383,-0.00461669,1.5572,0.00337268,0.0243666,671,1373,-5.13588,-2.6076
-546,-349,-5.1347,2.82568,-0.00368981,0.00014622,-0.000341915,0.000176457,-0.00372005,-1.48259,0.00254089,0.0268366,678,1373,-5.13469,-2.82571
-539,-349,-5.16992,3.02039,-0.0036269,-6.44468e-05,-0.000793505,0.000104306,-0.00379566,-1.36125,0.00256591,0.0222052,685,1373,-5.1699,-3.02038
-532,-349,-5.14777,3.18872,-0.00423977,-0.00011975,-0.00139738,0.000309479,-0.004669,-1.27278,0.00322079,0.0157594,692,1373,-5.14778,-3.18871
-525,-349,-5.12585,3.40601,-0.00563669,1.67922e-05,-0.00227682,0.000819705,-0.0064396,-1.23177,0.00459076,0.011268,699,1373,-5.12583,-3.406
-518,-349,-5.12451,3.61072,-0.00824737,0.000466965,-0.00325782,0.00155023,-0.00933063,-1.24978,0.00679636,0.0114241,706,1373,-5.12449,-3.61073
-511,-349,-5.0459,3.81848,-0.0119854,0.0013503,-0.00458158,0.00277263,-0.0134078,-1.26978,0.00999178,0.0269411,713,1373,-5.04592,-3.81853
-504,-349,-5.28711,4.00244,-0.0168267,0.00274338,-0.00639352,0.00464697,-0.0187303,-1.28142,0.01429,0.0484508,720,1373,-5.28708,-4.00242
-497,-349,-5.37036,4.30371,-0.0229117,0.0046242,-0.00881465,0.00720417,-0.0254917,-1.28606,0.0198368,0.0450708,727,1373,-5.37038,-4.30372
-490,-349,-5.53284,4.23828,0,0,0,0,0,0,0,-1,734,1373,-5.53283,-4.2383
-483,-349,-3.69922,2.70166,0,0,0,0,0,0,0,-1,741,1373,-3.6992,-2.7017
-476,-349,-4.51025,-2.57019,0,0,0,0,0,0,0,-1,748,1373,-4.51025,2.57015
-469,-349,-5.44037,-2.6189,0,0,0,0,0,0,0,-1,755,1373,-5.44034,2.61885
-462,-349,-6.66028,-2.76257,0,0,0,0,0,0,0,-1,762,1373,-6.6603,2.76258
-455,-349,-7.56616,-2.33289,0,0,0,0,0,0,0,-1,769,1373,-7.56615,2.33289
-448,-349,-8.44684,-1.89453,0,0,0,0,0,0,0,-1,776,1373,-8.44683,1.89455
-441,-349,0,0,0,0,0,0,0,0,0,-1,783,1373,0,0
-434,-349,0,0,0,0,0,0,0,0,0,-1,790,1373,0,0
-427,-349,0,0,0,0,0,0,0,0,0,-1,797,1373,0,0
-420,-349,0,0,0,0,0,0,0,0,0,-1,804,1373,0,0
-413,-349,0,0,0,0,0,0,0,0,0,-1,811,1373,0,0
-406,-349,0,0,0,0,0,0,0,0,0,-1,818,1373,0,0
-399,-349,0,0,0,0,0,0,0,0,0,-1,825,1373,0,0
-392,-349,0,0,0,0,0,0,0,0,0,-1,832,1373,0,0
-385,-349,0,0,0,0,0,0,0,0,0,-1,839,1373,0,0
-378,-349,0,0,0,0,0,0,0,0,0,-1,846,1373,0,0
-371,-349,0,0,0,0,0,0,0,0,0,-1,853,1373,0,0
-364,-349,0,0,0,0,0,0,0,0,0,-1,860,1373,0,0
-357,-349,0,0,0,0,0,0,0,0,0,-1,867,1373,0,0
-350,-349,0,0,0,0,0,0,0,0,0,-1,874,1373,0,0
-343,-349,0,0,0,0,0,0,0,0,0,-1,881,1373,0,0
-336,-349,0,0,0,0,0,0,0,0,0,-1,888,1373,0,0
-329,-349,0,0,0,0,0,0,0,0,0,-1,895,1373,0,0
-322,-349,0,0,0,0,0,0,0,0,0,-1,902,1373,0,0
-315,-349,0,0,0,0,0,0,0,0,0,-1,909,1373,0,0
-308,-349,0,0,0,0,0,0,0,0,0,-1,916,1373,0,0
-301,-349,0,0,0,0,0,0,0,0,0,-1,923,1373,0,0
-294,-349,0,0,0,0,0,0,0,0,0,-1,930,1373,0,0
-287,-349,0,0,0,0,0,0,0,0,0,-1,937,1373,0,0
-280,-349,0,0,0,0,0,0,0,0,0,-1,944,1373,0,0
-273,-349,0,0,0,0,0,0,0,0,0,-1,951,1373,0,0
-266,-349,0,0,0,0,0,0,0,0,0,-1,958,1373,0,0
-259,-349,0,0,0,0,0,0,0,0,0,-1,965,1373,0,0
-252,-349,0,0,0,0,0,0,0,0,0,-1,972,1373,0,0
-245,-349,0,0,0,0,0,0,0,0,0,-1,979,1373,0,0
-238,-349,0,0,0,0,0,0,0,0,0,-1,986,1373,0,0
-231,-349,0,0,0,0,0,0,0,0,0,-1,993,1373,0,0
-224,-349,0,0,0,0,0,0,0,0,0,-1,1000,1373,0,0
-217,-349,0,0,0,0,0,0,0,0,0,-1,1007,1373,0,0
-210,-349,0,0,0,0,0,0,0,0,0,-1,1014,1373,0,0
-203,-349,0,0,0,0,0,0,0,0,0,-1,1021,1373,0,0
-196,-349,0,0,0,0,0,0,0,0,0,-1,1028,1373,0,0
-189,-349,0,0,0,0,0,0,0,0,0,-1,1035,1373,0,0
-182,-349,0,0,0,0,0,0,0,0,0,-1,1042,1373,0,0
-175,-349,0,0,0,0,0,0,0,0,0,-1,1049,1373,0,0
-168,-349,0,0,0,0,0,0,0,0,0,-1,1056,1373,0,0
-161,-349,0,0,0,0,0,0,0,0,0,-1,1063,1373,0,0
-154,-349,0,0,0,0,0,0,0,0,0,-1,1070,1373,0,0
-147,-349,0,0,0,0,0,0,0,0,0,-1,1077,1373,0,0
-140,-349,0,0,0,0,0,0,0,0,0,-1,1084,1373,0,0
-133,-349,0,0,0,0,0,0,0,0,0,-1,1091,1373,0,0
-126,-349,0,0,0,0,0,0,0,0,0,-1,1098,1373,0,0
-119,-349,0,0,0,0,0,0,0,0,0,-1,1105,1373,0,0
-112,-349,0,0,0,0,0,0,0,0,0,-1,1112,1373,0,0
-105,-349,0,0,0,0,0,0,0,0,0,-1,1119,1373,0,0
-98,-349,0,0,0,0,0,0,0,0,0,-1,1126,1373,0,0
-91,-349,0,0,0,0,0,0,0,0,0,-1,1133,1373,0,0
-84,-349,0,0,0,0,0,0,0,0,0,-1,1140,1373,0,0
-77,-349,0,0,0,0,0,0,0,0,0,-1,1147,1373,0,0
-70,-349,0,0,0,0,0,0,0,0,0,-1,1154,1373,0,0
-63,-349,0,0,0,0,0,0,0,0,0,-1,1161,1373,0,0
-56,-349,0,0,0,0,0,0,0,0,0,-1,1168,1373,0,0
-49,-349,0,0,0,0,0,0,0,0,0,-1,1175,1373,0,0
-42,-349,0,0,0,0,0,0,0,0,0,-1,1182,1373,0,0
-35,-349,0,0,0,0,0,0,0,0,0,-1,1189,1373,0,0
-28,-349,0,0,0,0,0,0,0,0,0,-1,1196,1373,0,0
-21,-349,0,0,0,0,0,0,0,0,0,-1,1203,1373,0,0
-14,-349,0,0,0,0,0,0,0,0,0,-1,1210,1373,0,0
-7,-349,0,0,0,0,0,0,0,0,0,-1,1217,1373,0,0
0,-349,0,0,0,0,0,0,0,0,0,-1,1224,1373,0,0
7,-349,0,0,0,0,0,0,0,0,0,-1,1231,1373,0,0
14,-349,0,0,0,0,0,0,0,0,0,-1,1238,1373,0,0
21,-349,0,0,0,0,0,0,0,0,0,-1,1245,1373,0,0
28,-349,0,0,0,0,0,0,0,0,0,-1,1252,1373,0,0
35,-349,0,0,0,0,0,0,0,0,0,-1,1259,1373,0,0
42,-349,0,0,0,0,0,0,0,0,0,-1,1266,1373,0,0
49,-349,0,0,0,0,0,0,0,0,0,-1,1273,1373,0,0
56,-349,0,0,0,0,0,0,0,0,0,-1,1280,1373,0,0
63,-349,0,0,0,0,0,0,0,0,0,-1,1287,1373,0,0
70,-349,0,0,0,0,0,0,0,0,0,-1,1294,1373,0,0
77,-349,0,0,0,0,0,0,0,0,0,-1,1301,1373,0,0
84,-349,0,0,0,0,0,0,0,0,0,-1,1308,1373,0,0
91,-349,0,0,0,0,0,0,0,0,0,-1,1315,1373,0,0
98,-349,0,0,0,0,0,0,0,0,0,-1,1322,1373,0,0
105,-349,0,0,0,0,0,0,0,0,0,-1,1329,1373,0,0
112,-349,0,0,0,0,0,0,0,0,0,-1,1336,1373,0,0
119,-349,0,0,0,0,0,0,0,0,0,-1,1343,1373,0,0
126,-349,0,0,0,0,0,0,0,0,0,-1,1350,1373,0,0
133,-349,0,0,0,0,0,0,0,0,0,-1,1357,1373,0,0
140,-349,0,0,0,0,0,0,0,0,0,-1,1364,1373,0,0
147,-349,0,0,0,0,0,0,0,0,0,-1,1371,1373,0,0
154,-349,0,0,0,0,0,0,0,0,0,-1,1378,1373,0,0
161,-349,0,0,0,0,0,0,0,0,0,-1,1385,1373,0,0
168,-349,0,0,0,0,0,0,0,0,0,-1,1392,1373,0,0
175,-349,0,0,0,0,0,0,0,0,0,-1,1399,1373,0,0
182,-349,0,0,0,0,0,0,0,0,0,-1,1406,1373,0,0
189,-349,0,0,0,0,0,0,0,0,0,-1,1413,1373,0,0
196,-349,0,0,0,0,0,0,0,0,0,-1,1420,1373,0,0
203,-349,0,0,0,0,0,0,0,0,0,-1,1427,1373,0,0
210,-349,0,0,0,0,0,0,0,0,0,-1,1434,1373,0,0
217,-349,0,0,0,0,0,0,0,0,0,-1,1441,1373,0,0
224,-349,0,0,0,0,0,0,0,0,0,-1,1448,1373,0,0
231,-349,0,0,0,0,0,0,0,0,0,-1,1455,1373,0,0
238,-349,0,0,0,0,0,0,0,0,0,-1,1462,1373,0,0
245,-349,0,0,0,0,0,0,0,0,0,-1,1469,1373,0,0
252,-349,0,0,0,0,0,0,0,0,0,-1,1476,1373,0,0
259,-349,0,0,0,0,0,0,0,0,0,-1,1483,1373,0,0
266,-349,0,0,0,0,0,0,0,0,0,-1,1490,1373,0,0
273,-349,0,0,0,0,0,0,0,0,0,-1,1497,1373,0,0
280,-349,0,0,0,0,0,0,0,0,0,-1,1504,1373,0,0
287,-349,0,0,0,0,0,0,0,0,0,-1,1511,1373,0,0
294,-349,0,0,0,0,0,0,0,0,0,-1,1518,1373,0,0
301,-349,0,0,0,0,0,0,0,0,0,-1,1525,1373,0,0
308,-349,0,0,0,0,0,0,0,0,0,-1,1532,1373,0,0
315,-349,0,0,0,0,0,0,0,0,0,-1,1539,1373,0,0
322,-349,0,0,0,0,0,0,0,0,0,-1,1546,1373,0,0
329,-349,0,0,0,0,0,0,0,0,0,-1,1553,1373,0,0
336,-349,0,0,0,0,0,0,0,0,0,-1,1560,1373,0,0
343,-349,0,0,0,0,0,0,0,0,0,-1,1567,1373,0,0
350,-349,0,0,0,0,0,0,0,0,0,-1,1574,1373,0,0
357,-349,0,0,0,0,0,0,0,0,0,-1,1581,1373,0,0
364,-349,0,0,0,0,0,0,0,0,0,-1,1588,1373,0,0
371,-349,0,0,0,0,0,0,0,0,0,-1,1595,1373,0,0
378,-349,0,0,0,0,0,0,0,0,0,-1,1602,1373,0,0
385,-349,0,0,0,0,0,0,0,0,0,-1,1609,1373,0,0
392,-349,0,0,0,0,0,0,0,0,0,-1,1616,1373,0,0
399,-349,0,0,0,0,0,0,0,0,0,-1,1623,1373,0,0
406,-349,0,0,0,0,0,0,0,0,0,-1,1630,1373,0,0
413,-349,0,0,0,0,0,0,0,0,0,-1,1637,1373,0,0
420,-349,0,0,0,0,0,0,0,0,0,-1,1644,1373,0,0
427,-349,0,0,0,0,0,0,0,0,0,-1,1651,1373,0,0
434,-349,0,0,0,0,0,0,0,0,0,-1,1658,1373,0,0
441,-349,0,0,0,0,0,0,0,0,0,-1,1665,1373,0,0
448,-349,0,0,0,0,0,0,0,0,0,-1,1672,1373,0,0
455,-349,0,0,0,0,0,0,0,0,0,-1,1679,1373,0,0
462,-349,0,0,0,0,0,0,0,0,0,-1,1686,1373,0,0
469,-349,0,0,0,0,0,0,0,0,0,-1,1693,1373,0,0
476,-349,0,0,0,0,0,0,0,0,0,-1,1700,1373,0,0
483,-349,0,0,0,0,0,0,0,0,0,-1,1707,1373,0,0
490,-349,0,0,0,0,0,0,0,0,0,-1,1714,1373,0,0
497,-349,0,0,0,0,0,0,0,0,0,-1,1721,1373,0,0
504,-349,0,0,0,0,0,0,0,0,0,-1,1728,1373,0,0
511,-349,0,0,0,0,0,0,0,0,0,-1,1735,1373,0,0
518,-349,0,0,0,0,0,0,0,0,0,-1,1742,1373,0,0
525,-349,0,0,0,0,0,0,0,0,0,-1,1749,1373,0,0
532,-349,0,0,0,0,0,0,0,0,0,-1,1756,1373,0,0
539,-349,0,0,0,0,0,0,0,0,0,-1,1763,1373,0,0
546,-349,0,0,0,0,0,0,0,0,0,-1,1770,1373,0,0
553,-349,0,0,0,0,0,0,0,0,0,-1,1777,1373,0,0
560,-349,19.2772,4.4115,0,0,0,0,0,0,0,-1,1784,1373,19.2772,-4.4115
567,-349,18.7013,4.53003,0,0,0,0,0,0,0,-1,1791,1373,18.7013,-4.53004
574,-349,14.6354,-0.693115,0,0,0,0,0,0,0,-1,1798,1373,14.6354,0.693126
581,-349,14.5881,-0.567627,0.017525,-0.000518923,0.0517868,0.0610698,-0.0440638,0.699157,0.060963,0.0456038,1805,1373,14.5881,0.567657
588,-349,14.6154,-0.12146,0.0115872,0.00193488,0.043643,0.0506701,-0.037148,0.730331,0.0509017,0.0458366,1812,1373,14.6153,0.121518
595,-349,15.1029,0.584595,0,0,0,0,0,0,0,-1,1819,1373,15.103,-0.584554
602,-349,15.6923,1.2439,0,0,0,0,0,0,0,-1,1826,1373,15.6922,-1.24396
609,-349,12.1912,5.32239,0,0,0,0,0,0,0,-1,1833,1373,12.1912,-5.32236
616,-349,12.3214,5.17859,-0.00200073,0.00545924,0.0220861,0.0241281,-0.0206696,0.869051,0.0258896,0.0457974,1840,1373,12.3215,-5.17858
623,-349,12.4398,5.12036,-0.00312748,0.00409465,0.0189921,0.0198159,-0.0188487,0.879345,0.0223253,0.0422859,1847,1373,12.4398,-5.12038
630,-349,13.0911,5.40234,0,0,0,0,0,0,0,-1,1854,1373,13.0911,-5.40236
637,-349,12.564,5.41431,-0.00437525,0.00108088,0.0135728,0.012197,-0.0154914,0.884574,0.0160236,0.0473457,1861,1373,12.564,-5.4143
644,-349,12.155,5.54407,-0.00465338,-0.000262066,0.0109666,0.00872653,-0.013642,0.884198,0.013018,0.0369695,1868,1373,12.1551,-5.54406
651,-349,12.2742,5.33496,-0.0036427,-0.00125407,0.00884132,0.00647323,-0.01137,0.852534,0.0104303,0.0217835,1875,1373,12.2742,-5.33496
658,-349,12.1948,5.18579,-0.00288107,-0.0016644,0.00685901,0.00461319,-0.00915867,0.829628,0.00809426,0.0255742,1882,1373,12.1948,-5.18579
665,-349,12.2323,5.03418,-0.00216167,-0.00141766,0.00478463,0.00300941,-0.00658874,0.824195,0.00566848,0.019506,1889,1373,12.2323,-5.03418
672,-349,12.2527,4.86487,-0.00136574,-0.000963486,0.00283174,0.00167427,-0.00400349,0.820851,0.00336875,0.0143234,1896,1373,12.2526,-4.86486
679,-349,12.23,4.72253,-0.00089663,-0.000110323,0.00127258,0.000828455,-0.00183541,0.935218,0.00157418,0.0136876,1903,1373,12.23,-4.72254
686,-349,12.2489,4.59705,-3.35795e-05,0.00152089,-0.000617027,0.00173604,-0.000248723,-1.2353,0.00124855,0.0118898,1910,1373,12.2489,-4.59706
693,-349,12.2405,4.41052,0.0013947,0.0034742,-0.00296721,0.00557856,-0.00070966,-0.95392,0.00397676,0.0137687,1917,1373,12.2404,-4.41049
700,-349,12.2505,4.24023,0.00305864,0.00632453,-0.00579961,0.0107167,-0.00133352,-0.922626,0.00762793,0.015813,1924,1373,12.2505,-4.24023
707,-349,12.2816,4.07336,0.00512077,0.00985403,-0.0089285,0.0167242,-0.00174942,-0.914951,0.011776,0.0185264,1931,1373,12.2816,-4.07335
714,-349,12.2412,3.90747,0.00800795,0.0143838,-0.0130619,0.0246412,-0.0022494,-0.905091,0.0172263,0.0238745,1938,1373,12.2412,-3.90747
721,-349,12.1105,3.61926,0.0120293,0.0204627,-0.0186287,0.035346,-0.00285393,-0.896701,0.0245706,0.0393974,1945,1373,12.1105,-3.61926
728,-349,12.0675,3.28577,0,0,0,0,0,0,0,-1,1952,1373,12.0675,-3.28573
735,-349,12.4799,3.23694,0,0,0,0,0,0,0,-1,1959,1373,12.4798,-3.23696
742,-349,11.7262,2.67896,0,0,0,0,0,0,0,-1,1966,1373,11.7262,-2.679
749,-349,11.9012,2.57483,0,0,0,0,0,0,0,-1,1973,1373,11.9013,-2.57481
756,-349,0,0,0,0,0,0,0,0,0,-1,1980,1373,0,0
763,-349,0,0,0,0,0,0,0,0,0,-1,1987,1373,0,0
770,-349,0,0,0,0,0,0,0,0,0,-1,1994,1373,0,0
777,-349,0,0,0,0,0,0,0,0,0,-1,2001,1373,0,0
784,-349,0,0,0,0,0,0,0,0,0,-1,2008,1373,0,0
791,-349,0,0,0,0,0,0,0,0,0,-1,2015,1373,0,0
798,-349,0,0,0,0,0,0,0,0,0,-1,2022,1373,0,0
805,-349,0,0,0,0,0,0,0,0,0,-1,2029,1373,0,0
812,-349,0,0,0,0,0,0,0,0,0,-1,2036,1373,0,0
-700,-356,0,0,0,0,0,0,0,0,0,-1,524,1380,0,0
-693,-356,0,0,0,0,0,0,0,0,0,-1,531,1380,0,0
-686,-356,0,0,0,0,0,0,0,0,0,-1,538,1380,0,0
-679,-356,0,0,0,0,0,0,0,0,0,-1,545,1380,0,0
-672,-356,0,0,0,0,0,0,0,0,0,-1,552,1380,0,0
-665,-356,0,0,0,0,0,0,0,0,0,-1,559,1380,0,0
-658,-356,0,0,0,0,0,0,0,0,0,-1,566,1380,0,0
-651,-356,0,0,0,0,0,0,0,0,0,-1,573,1380,0,0
-644,-356,0,0,0,0,0,0,0,0,0,-1,580,1380,0,0
-637,-356,0,0,0,0,0,0,0,0,0,-1,587,1380,0,0
-630,-356,-5.27063,-5.19885,0,0,0,0,0,0,0,-1,594,1380,-5.2706,5.19882
-623,-356,-5.27997,-4.25562,0,0,0,0,0,0,0,-1,601,1380,-5.27998,4.25563
-616,-356,-8.12122,-1.58813,0,0,0,0,0,0,0,-1,608,1380,-8.1212,1.58813
-609,-356,-7.28381,-1.50513,0,0,0,0,0,0,0,-1,615,1380,-7.28384,1.50515
-602,-356,-4.3714,0.966309,0,0,0,0,0,0,0,-1,622,1380,-4.37142,-0.966254
-595,-356,-4.47589,1.06995,0,0,0,0,0,0,0,-1,629,1380,-4.47587,-1.06996
-588,-356,-4.46417,1.65527,0,0,0,0,0,0,0,-1,636,1380,-4.46418,-1.65527
-581,-356,-4.86859,1.99988,-0.00692291,0.0120791,-0.00280233,0.0124838,-0.00732756,-1.42739,0.0115665,0.0370954,643,1380,-4.86858,-1.99984
-574,-356,-4.85486,2.12573,-0.00695699,0.00993579,-0.000288428,0.00994071,-0.00696191,-1.55373,0.00980912,0.0249915,650,1380,-4.85484,-2.12577
-567,-356,-4.97345,2.23645,-0.00623973,0.00646517,0.00150551,0.00664113,-0.00641569,1.45444,0.00753874,0.0154587,657,1380,-4.97342,-2.23643
-560,-356,-4.9577,2.44531,-0.00495785,0.00272896,0.00202287,0.0032288,-0.00545769,1.32856,0.00506988,0.0162387,664,1380,-4.9577,-2.44537
-553,-356,-4.93817,2.61377,-0.00373676,0.00145237,0.00106762,0.00166344,-0.00394783,1.37561,0.00332795,0.0190999,671,1380,-4.93819,-2.6138
-546,-356,-4.94977,2.78894,-0.00311712,0.000560436,0.000221268,0.000573701,-0.00313038,1.51092,0.00230211,0.0214311,678,1380,-4.94975,-2.789
-539,-356,-4.95581,2.99133,-0.003173,0.000130896,-0.000460255,0.000193814,-0.00323591,-1.43493,0.0022247,0.0155245,685,1380,-4.95583,-2.99138
-532,-356,-4.96362,3.18799,-0.00368365,-8.74914e-05,-0.00112947,0.00023782,-0.00400896,-1.29036,0.00275534,0.0142767,692,1380,-4.96361,-3.18802
-525,-356,-4.95636,3.3927,-0.00471746,-0.000285484,-0.00216706,0.000598004,-0.00560095,-1.18368,0.00394842,0.01125,699,1380,-4.95634,-3.39269
-518,-356,-4.92328,3.60828,-0.00689412,-0.000350781,-0.00331256,0.0010334,-0.0082783,-1.17499,0.00589361,0.0111175,706,1380,-4.92328,-3.60824
-511,-356,-4.84619,3.82593,-0.0100176,-0.000230961,-0.00491827,0.00181359,-0.0120621,-1.17683,0.00870912,0.0196802,713,1380,-4.84621,-3.82589
-504,-356,-4.961,3.93945,-0.0139976,-1.22213e-05,-0.00725588,0.00307207,-0.0170819,-1.16886,0.012538,0.0421963,720,1380,-4.96103,-3.93948
-497,-356,-5.03577,4.08508,-0.0190272,9.74493e-05,-0.010522,0.00475311,-0.0236828,-1.15422,0.0175883,0.0467149,727,1380,-5.03577,-4.08507
-490,-356,-5.21161,4.37439,-0.0253979,8.75813e-05,-0.0149781,0.00701007,-0.0323204,-1.13786,0.0242241,0.0485839,734,1380,-5.21163,-4.37438
-483,-356,-5.47919,4.24512,0,0,0,0,0,0,0,-1,741,1380,-5.47919,-4.24507
-476,-356,-3.85577,2.13367,0,0,0,0,0,0,0,-1,748,1380,-3.85576,-2.13363
-469,-356,-4.72894,-3.14575,0,0,0,0,0,0,0,-1,755,1380,-4.72892,3.14575
-462,-356,-6.2052,-3.45215,0,0,0,0,0,0,0,-1,762,1380,-6.20522,3.4521
-455,-356,-7.15009,-3.04504,0,0,0,0,0,0,0,-1,769,1380,-7.15007,3.04508
-448,-356,-7.95459,-2.33423,0,0,0,0,0,0,0,-1,776,1380,-7.95456,2.33426
-441,-356,-8.95667,-1.80969,0,0,0,0,0,0,0,-1,783,1380,-8.95669,1.80968
-434,-356,0,0,0,0,0,0,0,0,0,-1,790,1380,0,0
-427,-356,0,0,0,0,0,0,0,0,0,-1,797,1380,0,0
-420,-356,0,0,0,0,0,0,0,0,0,-1,804,1380,0,0
-413,-356,0,0,0,0,0,0,0,0,0,-1,811,1380,0,0
-406,-356,0,0,0,0,0,0,0,0,0,-1,818,1380,0,0
-399,-356,0,0,0,0,0,0,0,0,0,-1,825,1380,0,0
-392,-356,0,0,0,0,0,0,0,0,0,-1,832,1380,0,0
-385,-356,0,0,0,0,0,0,0,0,0,-1,839,1380,0,0
-378,-356,0,0,0,0,0,0,0,0,0,-1,846,1380,0,0
-371,-356,0,0,0,0,0,0,0,0,0,-1,853,1380,0,0
-364,-356,0,0,0,0,0,0,0,0,0,-1,860,1380,0,0
-357,-356,0,0,0,0,0,0,0,0,0,-1,867,1380,0,0
-350,-356,0,0,0,0,0,0,0,0,0,-1,874,1380,0,0
-343,-356,0,0,0,0,0,0,0,0,0,-1,881,1380,0,0
-336,-356,0,0,0,0,0,0,0,0,0,-1,888,1380,0,0
-329,-356,0,0,0,0,0,0,0,0,0,-1,895,1380,0,0
-322,-356,0,0,0,0,0,0,0,0,0,-1,902,1380,0,0
-315,-356,0,0,0,0,0,0,0,0,0,-1,909,1380,0,0
-308,-356,0,0,0,0,0,0,0,0,0,-1,916,1380,0,0
-301,-356,0,0,0,0,0,0,0,0,0,-1,923,1380,0,0
-294,-356,0,0,0,0,0,0,0,0,0,-1,930,1380,0,0
-287,-356,0,0,0,0,0,0,0,0,0,-1,937,1380,0,0
-280,-356,0,0,0,0,0,0,0,0,0,-1,944,1380,0,0
-273,-356,0,0,0,0,0,0,0,0,0,-1,951,1380,0,0
-266,-356,0,0,0,0,0,0,0,0,0,-1,958,1380,0,0
-259,-356,0,0,0,0,0,0,0,0,0,-1,965,1380,0,0
-252,-356,0,0,0,0,0,0,0,0,0,-1,972,1380,0,0
-245,-356,0,0,0,0,0,0,0,0,0,-1,979,1380,0,0
-238,-356,0,0,0,0,0,0,0,0,0,-1,986,1380,0,0
-231,-356,0,0,0,0,0,0,0,0,0,-1,993,1380,0,0
-224,-356,0,0,0,0,0,0,0,0,0,-1,1000,1380,0,0
-217,-356,0,0,0,0,0,0,0,0,0,-1,1007,1380,0,0
-210,-356,0,0,0,0,0,0,0,0,0,-1,1014,1380,0,0
-203,-356,0,0,0,0,0,0,0,0,0,-1,1021,1380,0,0
-196,-356,0,0,0,0,0,0,0,0,0,-1,1028,1380,0,0
-189,-356,0,0,0,0,0,0,0,0,0,-1,1035,1380,0,0
-182,-356,0,0,0,0,0,0,0,0,0,-1,1042,1380,0,0
-175,-356,0,0,0,0,0,0,0,0,0,-1,1049,1380,0,0
-168,-356,0,0,0,0,0,0,0,0,0,-1,1056,1380,0,0
-161,-356,0,0,0,0,0,0,0,0,0,-1,1063,1380,0,0
-154,-356,0,0,0,0,0,0,0,0,0,-1,1070,1380,0,0
-147,-356,0,0,0,0,0,0,0,0,0,-1,1077,1380,0,0
-140,-356,0,0,0,0,0,0,0,0,0,-1,1084,1380,0,0
-133,-356,0,0,0,0,0,0,0,0,0,-1,1091,1380,0,0
-126,-356,0,0,0,0,0,0,0,0,0,-1,1098,1380,0,0
-119,-356,0,0,0,0,0,0,0,0,0,-1,1105,1380,0,0
-112,-356,0,0,0,0,0,0,0,0,0,-1,1112,1380,0,0
-105,-356,0,0,0,0,0,0,0,0,0,-1,1119,1380,0,0
-98,-356,0,0,0,0,0,0,0,0,0,-1,1126,1380,0,0
-91,-356,0,0,0,0,0,0,0,0,0,-1,1133,1380,0,0
-84,-356,0,0,0,0,0,0,0,0,0,-1,1140,1380,0,0
-77,-356,0,0,0,0,0,0,0,0,0,-1,1147,1380,0,0
-70,-356,0,0,0,0,0,0,0,0,0,-1,1154,1380,0,0
-63,-356,0,0,0,0,0,0,0,0,0,-1,1161,1380,0,0
-56,-356,0,0,0,0,0,0,0,0,0,-1,1168,1380,0,0
-49,-356,0,0,0,0,0,0,0,0,0,-1,1175,1380,0,0
-42,-356,0,0,0,0,0,0,0,0,0,-1,1182,1380,0,0
-35,-356,0,0,0,0,0,0,0,0,0,-1,1189,1380,0,0
-28,-356,0,0,0,0,0,0,0,0,0,-1,1196,1380,0,0
-21,-356,0,0,0,0,0,0,0,0,0,-1,1203,1380,0,0
-14,-356,0,0,0,0,0,0,0,0,0,-1,1210,1380,0,0
-7,-356,0,0,0,0,0,0,0,0,0,-1,1217,1380,0,0
0,-356,0,0,0,0,0,0,0,0,0,-1,1224,1380,0,0
7,-356,0,0,0,0,0,0,0,0,0,-1,1231,1380,0,0
14,-356,0,0,0,0,0,0,0,0,0,-1,1238,1380,0,0
21,-356,0,0,0,0,0,0,0,0,0,-1,1245,1380,0,0
28,-356,0,0,0,0,0,0,0,0,0,-1,1252,1380,0,0
35,-356,0,0,0,0,0,0,0,0,0,-1,1259,1380,0,0
42,-356,0,0,0,0,0,0,0,0,0,-1,1266,1380,0,0
49,-356,0,0,0,0,0,0,0,0,0,-1,1273,1380,0,0
56,-356,0,0,0,0,0,0,0,0,0,-1,1280,1380,0,0
63,-356,0,0,0,0,0,0,0,0,0,-1,1287,1380,0,0
70,-356,0,0,0,0,0,0,0,0,0,-1,1294,1380,0,0
77,-356,0,0,0,0,0,0,0,0,0,-1,1301,1380,0,0
84,-356,0,0,0,0,0,0,0,0,0,-1,1308,1380,0,0
91,-356,0,0,0,0,0,0,0,0,0,-1,1315,1380,0,0
98,-356,0,0,0,0,0,0,0,0,0,-1,1322,1380,0,0
105,-356,0,0,0,0,0,0,0,0,0,-1,1329,1380,0,0
112,-356,0,0,0,0,0,0,0,0,0,-1,1336,1380,0,0
119,-356,0,0,0,0,0,0,0,0,0,-1,1343,1380,0,0
126,-356,0,0,0,0,0,0,0,0,0,-1,1350,1380,0,0
133,-356,0,0,0,0,0,0,0,0,0,-1,1357,1380,0,0
140,-356,0,0,0,0,0,0,0,0,0,-1,1364,1380,0,0
147,-356,0,0,0,0,0,0,0,0,0,-1,1371,1380,0,0
154,-356,0,0,0,0,0,0,0,0,0,-1,1378,1380,0,0
161,-356,0,0,0,0,0,0,0,0,0,-1,1385,1380,0,0
168,-356,0,0,0,0,0,0,0,0,0,-1,1392,1380,0,0
175,-356,0,0,0,0,0,0,0,0,0,-1,1399,1380,0,0
182,-356,0,0,0,0,0,0,0,0,0,-1,1406,1380,0,0
189,-356,0,0,0,0,0,0,0,0,0,-1,1413,1380,0,0
196,-356,0,0,0,0,0,0,0,0,0,-1,1420,1380,0,0
203,-356,0,0,0,0,0,0,0,0,0,-1,1427,1380,0,0
210,-356,0,0,0,0,0,0,0,0,0,-1,1434,1380,0,0
217,-356,0,0,0,0,0,0,0,0,0,-1,1441,1380,0,0
224,-356,0,0,0,0,0,0,0,0,0,-1,1448,1380,0,0
231,-356,0,0,0,0,0,0,0,0,0,-1,1455,1380,0,0
238,-356,0,0,0,0,0,0,0,0,0,-1,1462,1380,0,0
245,-356,0,0,0,0,0,0,0,0,0,-1,1469,1380,0,0
252,-356,0,0,0,0,0,0,0,0,0,-1,1476,1380,0,0
259,-356,0,0,0,0,0,0,0,0,0,-1,1483,1380,0,0
266,-356,0,0,0,0,0,0,0,0,0,-1,1490,1380,0,0
273,-356,0,0,0,0,0,0,0,0,0,-1,1497,1380,0,0
280,-356,0,0,0,0,0,0,0,0,0,-1,1504,1380,0,0
287,-356,0,0,0,0,0,0,0,0,0,-1,1511,1380,0,0
294,-356,0,0,0,0,0,0,0,0,0,-1,1518,1380,0,0
301,-356,0,0,0,0,0,0,0,0,0,-1,1525,1380,0,0
308,-356,0,0,0,0,0,0,0,0,0,-1,1532,1380,0,0
315,-356,0,0,0,0,0,0,0,0,0,-1,1539,1380,0,0
322,-356,0,0,0,0,0,0,0,0,0,-1,1546,1380,0,0
329,-356,0,0,0,0,0,0,0,0,0,-1,1553,1380,0,0
336,-356,0,0,0,0,0,0,0,0,0,-1,1560,1380,0,0
343,-356,0,0,0,0,0,0,0,0,0,-1,1567,1380,0,0
350,-356,0,0,0,0,0,0,0,0,0,-1,1574,1380,0,0
357,-356,0,0,0,0,0,0,0,0,0,-1,1581,1380,0,0
364,-356,0,0,0,0,0,0,0,0,0,-1,1588,1380,0,0
371,-356,0,0,0,0,0,0,0,0,0,-1,1595,1380,0,0
378,-356,0,0,0,0,0,0,0,0,0,-1,1602,1380,0,0
385,-356,0,0,0,0,0,0,0,0,0,-1,1609,1380,0,0
392,-356,0,0,0,0,0,0,0,0,0,-1,1616,1380,0,0
399,-356,0,0,0,0,0,0,0,0,0,-1,1623,1380,0,0
406,-356,0,0,0,0,0,0,0,0,0,-1,1630,1380,0,0
413,-356,0,0,0,0,0,0,0,0,0,-1,1637,1380,0,0
420,-356,0,0,0,0,0,0,0,0,0,-1,1644,1380,0,0
427,-356,0,0,0,0,0,0,0,0,0,-1,1651,1380,0,0
434,-356,0,0,0,0,0,0,0,0,0,-1,1658,1380,0,0
441,-356,0,0,0,0,0,0,0,0,0,-1,1665,1380,0,0
448,-356,0,0,0,0,0,0,0,0,0,-1,1672,1380,0,0
455,-356,0,0,0,0,0,0,0,0,0,-1,1679,1380,0,0
462,-356,0,0,0,0,0,0,0,0,0,-1,1686,1380,0,0
469,-356,0,0,0,0,0,0,0,0,0,-1,1693,1380,0,0
476,-356,0,0,0,0,0,0,0,0,0,-1,1700,1380,0,0
483,-356,0,0,0,0,0,0,0,0,0,-1,1707,1380,0,0
490,-356,0,0,0,0,0,0,0,0,0,-1,1714,1380,0,0
497,-356,0,0,0,0,0,0,0,0,0,-1,1721,1380,0,0
504,-356,0,0,0,0,0,0,0,0,0,-1,1728,1380,0,0
511,-356,0,0,0,0,0,0,0,0,0,-1,1735,1380,0,0
518,-356,0,0,0,0,0,0,0,0,0,-1,1742,1380,0,0
525,-356,0,0,0,0,0,0,0,0,0,-1,1749,1380,0,0
532,-356,0,0,0,0,0,0,0,0,0,-1,1756,1380,0,0
539,-356,0,0,0,0,0,0,0,0,0,-1,1763,1380,0,0
546,-356,0,0,0,0,0,0,0,0,0,-1,1770,1380,0,0
553,-356,0,0,0,0,0,0,0,0,0,-1,1777,1380,0,0
560,-356,18.7601,4.17639,0,0,0,0,0,0,0,-1,1784,1380,18.7601,-4.17643
567,-356,18.1165,4.09094,0,0,0,0,0,0,0,-1,1791,1380,18.1165,-4.09095
574,-356,18.0585,3.32813,0,0,0,0,0,0,0,-1,1798,1380,18.0585,-3.32808
581,-356,13.5471,-0.680908,0,0,0,0,0,0,0,-1,1805,1380,13.5472,0.680902
588,-356,14.7126,-0.0810547,0,0,0,0,0,0,0,-1,1812,1380,14.7126,0.0810932
595,-356,14.6317,0.82251,0,0,0,0,0,0,0,-1,1819,1380,14.6318,-0.822534
602,-356,11.6603,5.26782,0,0,0,0,0,0,0,-1,1826,1380,11.6603,-5.26778
609,-356,11.931,5.0686,-0.00419148,0.00139591,0.0273331,0.0260778,-0.0288733,0.836326,0.0317397,0.0426731,1833,1380,11.931,-5.06862
616,-356,12.0955,4.80237,-0.00583006,0.0010156,0.0232718,0.021115,-0.0259294,0.858415,0.0272085,0.040993,1840,1380,12.0954,-4.80234
623,-356,12.1561,4.82031,-0.00664015,0.00020257,0.0197446,0.0168201,-0.0232576,0.871187,0.0232382,0.0403243,1847,1380,12.1561,-4.82027
630,-356,12.3204,5.14722,-0.00675816,-0.000743039,0.016571,0.0130911,-0.0205923,0.875169,0.0196073,0.0441217,1854,1380,12.3204,-5.14724
637,-356,12.1033,5.33447,-0.0068418,-0.0015532,0.0135247,0.00958329,-0.0179783,0.881938,0.0161569,0.0373407,1861,1380,12.1033,-5.33452
644,-356,12.0442,5.55359,-0.0064493,-0.00219078,0.0106235,0.00651475,-0.0151548,0.884302,0.0128382,0.023147,1868,1380,12.0442,-5.55365
651,-356,12.0962,5.32373,-0.00478849,-0.00249852,0.00825147,0.00468703,-0.011974,0.854339,0.00992121,0.0155633,1875,1380,12.0962,-5.32377
658,-356,12.071,5.16223,-0.00346624,-0.00226364,0.00612544,0.00328994,-0.00901982,0.834324,0.00735922,0.0144638,1882,1380,12.071,-5.1622
665,-356,12.0724,5.04895,-0.00236517,-0.00154566,0.00399795,0.00206348,-0.0059743,0.836465,0.00482024,0.014346,1889,1380,12.0724,-5.04896
672,-356,12.0591,4.90503,-0.00143001,-0.000830432,0.00212028,0.00101115,-0.00327159,0.855628,0.0025849,0.0149108,1896,1380,12.0591,-4.90502
679,-356,12.0551,4.73218,-0.000738021,0.000153882,0.000600496,0.000455907,-0.00104005,1.10478,0.000885365,0.0163142,1903,1380,12.0551,-4.73216
686,-356,12.0524,4.57324,0.000175088,0.00170396,-0.00112713,0.00230143,-0.000422383,-1.08338,0.00169274,0.0147763,1910,1380,12.0523,-4.5732
693,-356,12.0758,4.41309,0.00142302,0.00349688,-0.00326875,0.00588923,-0.000969333,-0.93899,0.00428596,0.0128827,1917,1380,12.0758,-4.41309
700,-356,12.0898,4.23315,0.00291478,0.00613135,-0.00591641,0.0106542,-0.00160804,-0.918109,0.007695,0.0175964,1924,1380,12.0898,-4.23311
707,-356,12.1162,3.91138,0.00490547,0.00944415,-0.00895011,0.0164081,-0.00205852,-0.909559,0.0116855,0.0315661,1931,1380,12.1163,-3.91137
714,-356,11.7405,3.62134,0.00779372,0.0137635,-0.0131015,0.0242158,-0.00265861,-0.8974,0.0170991,0.0407184,1938,1380,11.7404,-3.62129
721,-356,11.3457,3.36682,0,0,0,0,0,0,0,-1,1945,1380,11.3457,-3.36677
728,-356,11.9027,3.47852,0,0,0,0,0,0,0,-1,1952,1380,11.9028,-3.47853
735,-356,11.754,3.39221,0,0,0,0,0,0,0,-1,1959,1380,11.754,-3.39224
742,-356,12.2675,3.42578,0,0,0,0,0,0,0,-1,1966,1380,12.2674,-3.42582
749,-356,12.8143,3.45264,0,0,0,0,0,0,0,-1,1973,1380,12.8144,-3.45269
756,-356,0,0,0,0,0,0,0,0,0,-1,1980,1380,0,0
763,-356,0,0,0,0,0,0,0,0,0,-1,1987,1380,0,0
770,-356,0,0,0,0,0,0,0,0,0,-1,1994,1380,0,0
777,-356,0,0,0,0,0,0,0,0,0,-1,2001,1380,0,0
784,-356,0,0,0,0,0,0,0,0,0,-1,2008,1380,0,0
791,-356,0,0,0,0,0,0,0,0,0,-1,2015,1380,0,0
798,-356,0,0,0,0,0,0,0,0,0,-1,2022,1380,0,0
805,-356,0,0,0,0,0,0,0,0,0,-1,2029,1380,0,0
812,-356,0,0,0,0,0,0,0,0,0,-1,2036,1380,0,0
-700,-363,0,0,0,0,0,0,0,0,0,-1,524,1387,0,0
-693,-363,0,0,0,0,0,0,0,0,0,-1,531,1387,0,0
-686,-363,0,0,0,0,0,0,0,0,0,-1,538,1387,0,0
-679,-363,0,0,0,0,0,0,0,0,0,-1,545,1387,0,0
-672,-363,0,0,0,0,0,0,0,0,0,-1,552,1387,0,0
-665,-363,0,0,0,0,0,0,0,0,0,-1,559,1387,0,0
-658,-363,0,0,0,0,0,0,0,0,0,-1,566,1387,0,0
-651,-363,0,0,0,0,0,0,0,0,0,-1,573,1387,0,0
-644,-363,0,0,0,0,0,0,0,0,0,-1,580,1387,0,0
-637,-363,0,0,0,0,0,0,0,0,0,-1,587,1387,0,0
-630,-363,0,0,0,0,0,0,0,0,0,-1,594,1387,0,0
-623,-363,-9.67566,-5.91846,0,0,0,0,0,0,0,-1,601,1387,-9.67563,5.91847
-616,-363,-8.55841,-4.36792,0,0,0,0,0,0,0,-1,608,1387,-8.55841,4.36795
-609,-363,-7.59436,-2.83923,0,0,0,0,0,0,0,-1,615,1387,-7.59434,2.83925
-602,-363,-4.18011,1.95313,0,0,0,0,0,0,0,-1,622,1387,-4.18011,-1.95313
-595,-363,-4.32184,1.07483,0,0,0,0,0,0,0,-1,629,1387,-4.32181,-1.07482
-588,-363,-3.45819,1.08521,0,0,0,0,0,0,0,-1,636,1387,-3.45821,-1.08519
-581,-363,-4.03522,1.59949,-0.0041851,0.0156537,0.00280686,0.0160432,-0.00457457,1.43292,0.0125025,0.0369213,643,1387,-4.03522,-1.59946
-574,-363,-4.6394,2.15295,-0.00515864,0.0118668,0.0034781,0.0125499,-0.00584177,1.37686,0.0108513,0.0282561,650,1387,-4.63938,-2.15294
-567,-363,-4.75946,2.2583,-0.00499177,0.00746294,0.00383039,0.00854666,-0.00607549,1.29508,0.00848219,0.0182701,657,1387,-4.75946,-2.25826
-560,-363,-4.75562,2.42322,-0.00403575,0.00341915,0.00334303,0.00469867,-0.00531526,1.20526,0.0057852,0.0124523,664,1387,-4.7556,-2.42322
-553,-363,-4.7663,2.63196,-0.00300942,0.00184244,0.00188952,0.00249147,-0.00365845,1.23993,0.00357191,0.012443,671,1387,-4.7663,-2.63201
-546,-363,-4.75732,2.8103,-0.00257919,0.000748478,0.000676593,0.000880785,-0.0027115,1.37768,0.00216192,0.0124836,678,1387,-4.75732,-2.81025
-539,-363,-4.73059,2.99146,-0.00266792,0.000235109,-0.000175157,0.000245639,-0.00267845,-1.51075,0.00187289,0.0143996,685,1387,-4.73058,-2.99141
-532,-363,-4.75116,3.20618,-0.00307095,9.39153e-05,-0.000840145,0.000303112,-0.00328015,-1.32676,0.00229449,0.0128618,692,1387,-4.75116,-3.20612
-525,-363,-4.76178,3.3988,-0.00384964,-6.73202e-05,-0.00184231,0.000681708,-0.00459867,-1.18464,0.00331645,0.0106028,699,1387,-4.76178,-3.3988
-518,-363,-4.74713,3.59985,-0.00565705,-0.000165875,-0.00294189,0.00111258,-0.00693551,-1.16085,0.00503567,0.00915958,706,1387,-4.74711,-3.59981
-511,-363,-4.71588,3.81201,-0.0083486,-3.73314e-05,-0.0044762,0.00191487,-0.0103008,-1.15954,0.00758648,0.0145354,713,1387,-4.71588,-3.81202
-504,-363,-4.64111,4.00647,-0.0117526,0.000109297,-0.00669448,0.00312219,-0.0147655,-1.1479,0.0110326,0.0313701,720,1387,-4.64111,-4.00651
-497,-363,-4.76807,4.01453,0,0,0,0,0,0,0,-1,727,1387,-4.76809,-4.01447
-490,-363,-4.9668,4.03931,-0.0215052,-0.000172705,-0.0139046,0.00668552,-0.0283634,-1.11258,0.021487,0.0475337,734,1387,-4.96679,-4.03936
-483,-363,-5.21924,4.00281,-0.0281978,-0.000481427,-0.0193691,0.00947659,-0.0381558,-1.09592,0.0291148,0.046379,741,1387,-5.21925,-4.00278
-476,-363,-5.45282,3.18384,0,0,0,0,0,0,0,-1,748,1387,-5.45284,-3.18386
-469,-363,-5.2547,3.62427,0,0,0,0,0,0,0,-1,755,1387,-5.25468,-3.62425
-462,-363,-6.51111,-1.99341,0,0,0,0,0,0,0,-1,762,1387,-6.51112,1.99341
-455,-363,-6.8446,-2.34521,0,0,0,0,0,0,0,-1,769,1387,-6.8446,2.34527
-448,-363,-7.46906,-2.68921,0,0,0,0,0,0,0,-1,776,1387,-7.46903,2.68915
-441,-363,-8.59491,-2.23914,0,0,0,0,0,0,0,-1,783,1387,-8.59491,2.23911
-434,-363,-9.94299,-1.88953,0,0,0,0,0,0,0,-1,790,1387,-9.94302,1.88958
-427,-363,0,0,0,0,0,0,0,0,0,-1,797,1387,0,0
-420,-363,0,0,0,0,0,0,0,0,0,-1,804,1387,0,0
-413,-363,0,0,0,0,0,0,0,0,0,-1,811,1387,0,0
-406,-363,0,0,0,0,0,0,0,0,0,-1,818,1387,0,0
-399,-363,0,0,0,0,0,0,0,0,0,-1,825,1387,0,0
-392,-363,0,0,0,0,0,0,0,0,0,-1,832,1387,0,0
-385,-363,0,0,0,0,0,0,0,0,0,-1,839,1387,0,0
-378,-363,0,0,0,0,0,0,0,0,0,-1,846,1387,0,0
-371,-363,0,0,0,0,0,0,0,0,0,-1,853,1387,0,0
-364,-363,0,0,0,0,0,0,0,0,0,-1,860,1387,0,0
-357,-363,0,0,0,0,0,0,0,0,0,-1,867,1387,0,0
-350,-363,0,0,0,0,0,0,0,0,0,-1,874,1387,0,0
-343,-363,0,0,0,0,0,0,0,0,0,-1,881,1387,0,0
-336,-363,0,0,0,0,0,0,0,0,0,-1,888,1387,0,0
-329,-363,0,0,0,0,0,0,0,0,0,-1,895,1387,0,0
-322,-363,0,0,0,0,0,0,0,0,0,-1,902,1387,0,0
-315,-363,0,0,0,0,0,0,0,0,0,-1,909,1387,0,0
-308,-363,0,0,0,0,0,0,0,0,0,-1,916,1387,0,0
-301,-363,0,0,0,0,0,0,0,0,0,-1,923,1387,0,0
-294,-363,0,0,0,0,0,0,0,0,0,-1,930,1387,0,0
-287,-363,0,0,0,0,0,0,0,0,0,-1,937,1387,0,0
-280,-363,0,0,0,0,0,0,0,0,0,-1,944,1387,0,0
-273,-363,0,0,0,0,0,0,0,0,0,-1,951,1387,0,0
-266,-363,0,0,0,0,0,0,0,0,0,-1,958,1387,0,0
-259,-363,0,0,0,0,0,0,0,0,0,-1,965,1387,0,0
-252,-363,0,0,0,0,0,0,0,0,0,-1,972,1387,0,0
-245,-363,0,0,0,0,0,0,0,0,0,-1,979,1387,0,0
-238,-363,0,0,0,0,0,0,0,0,0,-1,986,1387,0,0
-231,-363,0,0,0,0,0,0,0,0,0,-1,993,1387,0,0
-224,-363,0,0,0,0,0,0,0,0,0,-1,1000,1387,0,0
-217,-363,0,0,0,0,0,0,0,0,0,-1,1007,1387,0,0
-210,-363,0,0,0,0,0,0,0,0,0,-1,1014,1387,0,0
-203,-363,0,0,0,0,0,0,0,0,0,-1,1021,1387,0,0
-196,-363,0,0,0,0,0,0,0,0,0,-1,1028,1387,0,0
-189,-363,0,0,0,0,0,0,0,0,0,-1,1035,1387,0,0
-182,-363,0,0,0,0,0,0,0,0,0,-1,1042,1387,0,0
-175,-363,0,0,0,0,0,0,0,0,0,-1,1049,1387,0,0
-168,-363,0,0,0,0,0,0,0,0,0,-1,1056,1387,0,0
-161,-363,0,0,0,0,0,0,0,0,0,-1,1063,1387,0,0
-154,-363,0,0,0,0,0,0,0,0,0,-1,1070,1387,0,0
-147,-363,0,0,0,0,0,0,0,0,0,-1,1077,1387,0,0
-140,-363,0,0,0,0,0,0,0,0,0,-1,1084,1387,0,0
-133,-363,0,0,0,0,0,0,0,0,0,-1,1091,1387,0,0
-126,-363,0,0,0,0,0,0,0,0,0,-1,1098,1387,0,0
-119,-363,0,0,0,0,0,0,0,0,0,-1,1105,1387,0,0
-112,-363,0,0,0,0,0,0,0,0,0,-1,1112,1387,0,0
-105,-363,0,0,0,0,0,0,0,0,0,-1,1119,1387,0,0
-98,-363,0,0,0,0,0,0,0,0,0,-1,1126,1387,0,0
-91,-363,0,0,0,0,0,0,0,0,0,-1,1133,1387,0,0
-84,-363,0,0,0,0,0,0,0,0,0,-1,1140,1387,0,0
-77,-363,0,0,0,0,0,0,0,0,0,-1,1147,1387,0,0
-70,-363,0,0,0,0,0,0,0,0,0,-1,1154,1387,0,0
-63,-363,0,0,0,0,0,0,0,0,0,-1,1161,1387,0,0
-56,-363,0,0,0,0,0,0,0,0,0,-1,1168,1387,0,0
-49,-363,0,0,0,0,0,0,0,0,0,-1,1175,1387,0,0
-42,-363,0,0,0,0,0,0,0,0,0,-1,1182,1387,0,0
-35,-363,0,0,0,0,0,0,0,0,0,-1,1189,1387,0,0
-28,-363,0,0,0,0,0,0,0,0,0,-1,1196,1387,0,0
-21,-363,0,0,0,0,0,0,0,0,0,-1,1203,1387,0,0
-14,-363,0,0,0,0,0,0,0,0,0,-1,1210,1387,0,0
-7,-363,0,0,0,0,0,0,0,0,0,-1,1217,1387,0,0
0,-363,0,0,0,0,0,0,0,0,0,-1,1224,1387,0,0
7,-363,0,0,0,0,0,0,0,0,0,-1,1231,1387,0,0
14,-363,0,0,0,0,0,0,0,0,0,-1,1238,1387,0,0
21,-363,0,0,0,0,0,0,0,0,0,-1,1245,1387,0,0
28,-363,0,0,0,0,0,0,0,0,0,-1,1252,1387,0,0
35,-363,0,0,0,0,0,0,0,0,0,-1,1259,1387,0,0
42,-363,0,0,0,0,0,0,0,0,0,-1,1266,1387,0,0
49,-363,0,0,0,0,0,0,0,0,0,-1,1273,1387,0,0
56,-363,0,0,0,0,0,0,0,0,0,-1,1280,1387,0,0
63,-363,0,0,0,0,0,0,0,0,0,-1,1287,1387,0,0
70,-363,0,0,0,0,0,0,0,0,0,-1,1294,1387,0,0
77,-363,0,0,0,0,0,0,0,0,0,-1,1301,1387,0,0
84,-363,0,0,0,0,0,0,0,0,0,-1,1308,1387,0,0
91,-363,0,0,0,0,0,0,0,0,0,-1,1315,1387,0,0
98,-363,0,0,0,0,0,0,0,0,0,-1,1322,1387,0,0
105,-363,0,0,0,0,0,0,0,0,0,-1,1329,1387,0,0
112,-363,0,0,0,0,0,0,0,0,0,-1,1336,1387,0,0
119,-363,0,0,0,0,0,0,0,0,0,-1,1343,1387,0,0
126,-363,0,0,0,0,0,0,0,0,0,-1,1350,1387,0,0
133,-363,0,0,0,0,0,0,0,0,0,-1,1357,1387,0,0
140,-363,0,0,0,0,0,0,0,0,0,-1,1364,1387,0,0
147,-363,0,0,0,0,0,0,0,0,0,-1,1371,1387,0,0
154,-363,0,0,0,0,0,0,0,0,0,-1,1378,1387,0,0
161,-363,0,0,0,0,0,0,0,0,0,-1,1385,1387,0,0
168,-363,0,0,0,0,0,0,0,0,0,-1,1392,1387,0,0
175,-363,0,0,0,0,0,0,0,0,0,-1,1399,1387,0,0
182,-363,0,0,0,0,0,0,0,0,0,-1,1406,1387,0,0
189,-363,0,0,0,0,0,0,0,0,0,-1,1413,1387,0,0
196,-363,0,0,0,0,0,0,0,0,0,-1,1420,1387,0,0
203,-363,0,0,0,0,0,0,0,0,0,-1,1427,1387,0,0
210,-363,0,0,0,0,0,0,0,0,0,-1,1434,1387,0,0
217,-363,0,0,0,0,0,0,0,0,0,-1,1441,1387,0,0
224,-363,0,0,0,0,0,0,0,0,0,-1,1448,1387,0,0
231,-363,0,0,0,0,0,0,0,0,0,-1,1455,1387,0,0
238,-363,0,0,0,0,0,0,0,0,0,-1,1462,1387,0,0
245,-363,0,0,0,0,0,0,0,0,0,-1,1469,1387,0,0
252,-363,0,0,0,0,0,0,0,0,0,-1,1476,1387,0,0
259,-363,0,0,0,0,0,0,0,0,0,-1,1483,1387,0,0
266,-363,0,0,0,0,0,0,0,0,0,-1,1490,1387,0,0
273,-363,0,0,0,0,0,0,0,0,0,-1,1497,1387,0,0
280,-363,0,0,0,0,0,0,0,0,0,-1,1504,1387,0,0
287,-363,0,0,0,0,0,0,0,0,0,-1,1511,1387,0,0
294,-363,0,0,0,0,0,0,0,0,0,-1,1518,1387,0,0
301,-363,0,0,0,0,0,0,0,0,0,-1,1525,1387,0,0
308,-363,0,0,0,0,0,0,0,0,0,-1,1532,1387,0,0
315,-363,0,0,0,0,0,0,0,0,0,-1,1539,1387,0,0
322,-363,0,0,0,0,0,0,0,0,0,-1,1546,1387,0,0
329,-363,0,0,0,0,0,0,0,0,0,-1,1553,1387,0,0
336,-363,0,0,0,0,0,0,0,0,0,-1,1560,1387,0,0
343,-363,0,0,0,0,0,0,0,0,0,-1,1567,1387,0,0
350,-363,0,0,0,0,0,0,0,0,0,-1,1574,1387,0,0
357,-363,0,0,0,0,0,0,0,0,0,-1,1581,1387,0,0
364,-363,0,0,0,0,0,0,0,0,0,-1,1588,1387,0,0
371,-363,0,0,0,0,0,0,0,0,0,-1,1595,1387,0,0
378,-363,0,0,0,0,0,0,0,0,0,-1,1602,1387,0,0
385,-363,0,0,0,0,0,0,0,0,0,-1,1609,1387,0,0
392,-363,0,0,0,0,0,0,0,0,0,-1,1616,1387,0,0
399,-363,0,0,0,0,0,0,0,0,0,-1,1623,1387,0,0
406,-363,0,0,0,0,0,0,0,0,0,-1,1630,1387,0,0
413,-363,0,0,0,0,0,0,0,0,0,-1,1637,1387,0,0
420,-363,0,0,0,0,0,0,0,0,0,-1,1644,1387,0,0
427,-363,0,0,0,0,0,0,0,0,0,-1,1651,1387,0,0
434,-363,0,0,0,0,0,0,0,0,0,-1,1658,1387,0,0
441,-363,0,0,0,0,0,0,0,0,0,-1,1665,1387,0,0
448,-363,0,0,0,0,0,0,0,0,0,-1,1672,1387,0,0
455,-363,0,0,0,0,0,0,0,0,0,-1,1679,1387,0,0
462,-363,0,0,0,0,0,0,0,0,0,-1,1686,1387,0,0
469,-363,0,0,0,0,0,0,0,0,0,-1,1693,1387,0,0
476,-363,0,0,0,0,0,0,0,0,0,-1,1700,1387,0,0
483,-363,0,0,0,0,0,0,0,0,0,-1,1707,1387,0,0
490,-363,0,0,0,0,0,0,0,0,0,-1,1714,1387,0,0
497,-363,0,0,0,0,0,0,0,0,0,-1,1721,1387,0,0
504,-363,0,0,0,0,0,0,0,0,0,-1,1728,1387,0,0
511,-363,0,0,0,0,0,0,0,0,0,-1,1735,1387,0,0
518,-363,0,0,0,0,0,0,0,0,0,-1,1742,1387,0,0
525,-363,0,0,0,0,0,0,0,0,0,-1,1749,1387,0,0
532,-363,0,0,0,0,0,0,0,0,0,-1,1756,1387,0,0
539,-363,0,0,0,0,0,0,0,0,0,-1,1763,1387,0,0
546,-363,0,0,0,0,0,0,0,0,0,-1,1770,1387,0,0
553,-363,18.856,4.02698,0,0,0,0,0,0,0,-1,1777,1387,18.8559,-4.02694
560,-363,18.1256,3.77698,0,0,0,0,0,0,0,-1,1784,1387,18.1256,-3.77696
567,-363,17.4187,3.51648,0,0,0,0,0,0,0,-1,1791,1387,17.4187,-3.51649
574,-363,16.9084,3.11743,0,0,0,0,0,0,0,-1,1798,1387,16.9085,-3.11737
581,-363,16.3706,3.12317,0,0,0,0,0,0,0,-1,1805,1387,16.3706,-3.12313
588,-363,14.8104,-0.280762,0,0,0,0,0,0,0,-1,1812,1387,14.8104,0.280812
595,-363,15.597,3.31738,0,0,0,0,0,0,0,-1,1819,1387,15.597,-3.31735
602,-363,11.2152,4.15112,0,0,0,0,0,0,0,-1,1826,1387,11.2152,-4.15108
609,-363,11.9211,4.62549,0,0,0,0,0,0,0,-1,1833,1387,11.9211,-4.62543
616,-363,12.0182,5.03955,0,0,0,0,0,0,0,-1,1840,1387,12.0182,-5.03961
623,-363,11.983,5.21948,-0.00438715,-0.00379314,0.0203075,0.0162195,-0.0243998,0.79271,0.0236095,0.045388,1847,1387,11.9831,-5.21952
630,-363,11.9938,5.40186,-0.00431019,-0.00402232,0.0166443,0.0124787,-0.0208112,0.789722,0.0194195,0.0375081,1854,1387,11.9937,-5.40185
637,-363,11.8011,5.65417,-0.00438841,-0.00407881,0.0132019,0.00896918,-0.0174364,0.791261,0.0155043,0.0283007,1861,1387,11.8011,-5.65422
644,-363,11.9188,5.58972,-0.00422699,-0.00392602,0.0100467,0.00597134,-0.0141244,0.792887,0.0119163,0.0113564,1868,1387,11.9189,-5.58966
651,-363,11.9333,5.37476,-0.00304576,-0.00351099,0.00752334,0.00424856,-0.0108053,0.769944,0.00896194,0.010714,1875,1387,11.9333,-5.37478
658,-363,11.9283,5.17603,-0.00236641,-0.00272304,0.00543721,0.00289541,-0.00798487,0.769006,0.00650678,0.0119752,1882,1387,11.9284,-5.17603
665,-363,11.9103,5.0498,-0.00180255,-0.00168491,0.00344497,0.00170175,-0.00518921,0.793935,0.00414485,0.0119798,1889,1387,11.9103,-5.04986
672,-363,11.9012,4.90845,-0.00150337,-0.000828011,0.00184855,0.000713453,-0.00304483,0.875738,0.00230481,0.0129215,1896,1387,11.9012,-4.90842
679,-363,11.8735,4.7334,-0.00123436,0.000126921,0.00059151,0.000348031,-0.00145547,1.21307,0.00110475,0.0140224,1903,1387,11.8735,-4.73334
686,-363,11.8748,4.57495,-0.000651788,0.00143503,-0.000743506,0.00167283,-0.00088959,-1.26124,0.00150228,0.0145535,1910,1387,11.8748,-4.5749
693,-363,11.9146,4.40015,0.000196956,0.00291394,-0.0024258,0.00433574,-0.00122484,-1.04065,0.00337372,0.0130296,1917,1387,11.9145,-4.40018
700,-363,11.9719,4.19849,0.00133546,0.00514706,-0.00465336,0.00826976,-0.00178725,-0.979756,0.00619546,0.0164859,1924,1387,11.972,-4.19853
707,-363,11.9324,3.90393,0.00304355,0.00795723,-0.00738379,0.0132822,-0.00228141,-0.946004,0.00970506,0.0327624,1931,1387,11.9324,-3.90393
714,-363,11.8427,3.22571,0.00574784,0.0117489,-0.0113194,0.0204587,-0.00296194,-0.914958,0.0147261,0.0452428,1938,1387,11.8427,-3.22571
721,-363,11.8275,2.50037,0,0,0,0,0,0,0,-1,1945,1387,11.8275,-2.50036
728,-363,11.6582,3.69055,0,0,0,0,0,0,0,-1,1952,1387,11.6582,-3.69055
735,-363,12.0818,3.7196,0,0,0,0,0,0,0,-1,1959,1387,12.0818,-3.71964
742,-363,12.5081,3.75195,0,0,0,0,0,0,0,-1,1966,1387,12.508,-3.7519
749,-363,0,0,0,0,0,0,0,0,0,-1,1973,1387,0,0
756,-363,0,0,0,0,0,0,0,0,0,-1,1980,1387,0,0
763,-363,0,0,0,0,0,0,0,0,0,-1,1987,1387,0,0
770,-363,0,0,0,0,0,0,0,0,0,-1,1994,1387,0,0
777,-363,0,0,0,0,0,0,0,0,0,-1,2001,1387,0,0
784,-363,0,0,0,0,0,0,0,0,0,-1,2008,1387,0,0
791,-363,0,0,0,0,0,0,0,0,0,-1,2015,1387,0,0
798,-363,0,0,0,0,0,0,0,0,0,-1,2022,1387,0,0
805,-363,0,0,0,0,0,0,0,0,0,-1,2029,1387,0,0
812,-363,0,0,0,0,0,0,0,0,0,-1,2036,1387,0,0
-700,-370,0,0,0,0,0,0,0,0,0,-1,524,1394,0,0
-693,-370,0,0,0,0,0,0,0,0,0,-1,531,1394,0,0
-686,-370,0,0,0,0,0,0,0,0,0,-1,538,1394,0,0
-679,-370,0,0,0,0,0,0,0,0,0,-1,545,1394,0,0
-672,-370,0,0,0,0,0,0,0,0,0,-1,552,1394,0,0
-665,-370,0,0,0,0,0,0,0,0,0,-1,559,1394,0,0
-658,-370,0,0,0,0,0,0,0,0,0,-1,566,1394,0,0
-651,-370,0,0,0,0,0,0,0,0,0,-1,573,1394,0,0
-644,-370,0,0,0,0,0,0,0,0,0,-1,580,1394,0,0
-637,-370,0,0,0,0,0,0,0,0,0,-1,587,1394,0,0
-630,-370,0,0,0,0,0,0,0,0,0,-1,594,1394,0,0
-623,-370,-10.1758,-7.10486,0,0,0,0,0,0,0,-1,601,1394,-10.1758,7.10483
-616,-370,-8.69904,-5.56128,0,0,0,0,0,0,0,-1,608,1394,-8.69902,5.56123
-609,-370,-7.59174,-4.03979,0,0,0,0,0,0,0,-1,615,1394,-7.59173,4.03976
-602,-370,-4.66638,2.08374,0,0,0,0,0,0,0,-1,622,1394,-4.66636,-2.08371
-595,-370,-4.49005,1.38342,0,0,0,0,0,0,0,-1,629,1394,-4.49005,-1.38337
-588,-370,-2.99213,1.16577,0,0,0,0,0,0,0,-1,636,1394,-2.99215,-1.16573
-581,-370,-3.62512,1.62866,0.000453416,0.0213799,0.0107698,0.0259322,-0.0040989,1.17088,0.018804,0.0452484,643,1394,-3.62511,-1.62872
-574,-370,-4.35822,2.01404,-0.00193863,0.0142446,0.0087054,0.0180382,-0.00573224,1.15983,0.0143238,0.036223,650,1394,-4.35822,-2.01409
-567,-370,-4.51355,2.28064,-0.00281471,0.00841157,0.00692688,0.0117141,-0.00611723,1.12591,0.0104626,0.0217664,657,1394,-4.51356,-2.28066
-560,-370,-4.57263,2.42065,-0.00259951,0.00395102,0.00502362,0.00667277,-0.00532125,1.07428,0.00693939,0.0136319,664,1394,-4.57264,-2.42068
-553,-370,-4.56647,2.62292,-0.00202053,0.0019824,0.00284664,0.00346077,-0.0034989,1.0918,0.00401819,0.0104695,671,1394,-4.56649,-2.62291
-546,-370,-4.54388,2.80762,-0.00194357,0.000604959,0.00108526,0.00100448,-0.00234308,1.21806,0.00198355,0.0136186,678,1394,-4.5439,-2.80768
-539,-370,-4.52478,3.02234,-0.00211503,-2.01428e-05,-2.98776e-05,-1.97168e-05,-0.00211545,-1.55654,0.00140378,0.0171002,685,1394,-4.52477,-3.02235
-532,-370,-4.56189,3.21912,-0.00239296,-4.81957e-05,-0.000701814,0.000145812,-0.00258697,-1.30109,0.00177525,0.01999,692,1394,-4.56191,-3.21912
-525,-370,-4.56848,3.39502,-0.00292315,-0.000138219,-0.0016599,0.000635933,-0.00369731,-1.1344,0.00270191,0.0138848,699,1394,-4.5685,-3.39497
-518,-370,-4.56592,3.57153,-0.00435322,-0.000249396,-0.00269733,0.00108778,-0.0056904,-1.11056,0.00420338,0.0101023,706,1394,-4.56595,-3.57152
-511,-370,-4.5332,3.77344,-0.0066138,-0.000108088,-0.0041305,0.00189663,-0.00861852,-1.11894,0.00647121,0.0132152,713,1394,-4.53321,-3.77343
-504,-370,-4.48383,3.98694,-0.00950051,-5.95036e-05,-0.00615767,0.00297886,-0.0125389,-1.11242,0.00950903,0.0219948,720,1394,-4.4838,-3.98691
-497,-370,-4.30835,4.20752,-0.0131616,-0.000236833,-0.00896974,0.00435604,-0.0177545,-1.09756,0.0135242,0.042985,727,1394,-4.30833,-4.20755
-490,-370,-4.64789,4.08923,-0.0179217,-0.000634386,-0.0127287,0.00610806,-0.0246642,-1.08367,0.0188123,0.045386,734,1394,-4.64788,-4.08922
-483,-370,-4.95789,3.8916,-0.0238759,-0.00106695,-0.0176863,0.00857299,-0.0335159,-1.07176,0.025683,0.04568,741,1394,-4.9579,-3.89157
-476,-370,-5.12524,3.33984,-0.0311564,-0.0014995,-0.0239134,0.0118098,-0.0444657,-1.06293,0.0342656,0.0458033,748,1394,-5.12522,-3.3399
-469,-370,-5.21228,3.22021,0,0,0,0,0,0,0,-1,755,1394,-5.21226,-3.22017
-462,-370,-6.32324,-1.13013,0,0,0,0,0,0,0,-1,762,1394,-6.32324,1.13009
-455,-370,-6.31793,-1.87244,0,0,0,0,0,0,0,-1,769,1394,-6.31792,1.8724
-448,-370,-6.85388,-2.83984,0,0,0,0,0,0,0,-1,776,1394,-6.85385,2.83988
-441,-370,-8.422,-2.47058,0,0,0,0,0,0,0,-1,783,1394,-8.42202,2.47059
-434,-370,-9.50006,-2.39478,0,0,0,0,0,0,0,-1,790,1394,-9.50008,2.39472
-427,-370,0,0,0,0,0,0,0,0,0,-1,797,1394,0,0
-420,-370,0,0,0,0,0,0,0,0,0,-1,804,1394,0,0
-413,-370,0,0,0,0,0,0,0,0,0,-1,811,1394,0,0
-406,-370,0,0,0,0,0,0,0,0,0,-1,818,1394,0,0
-399,-370,0,0,0,0,0,0,0,0,0,-1,825,1394,0,0
-392,-370,0,0,0,0,0,0,0,0,0,-1,832,1394,0,0
-385,-370,0,0,0,0,0,0,0,0,0,-1,839,1394,0,0
-378,-370,0,0,0,0,0,0,0,0,0,-1,846,1394,0,0
-371,-370,0,0,0,0,0,0,0,0,0,-1,853,1394,0,0
-364,-370,0,0,0,0,0,0,0,0,0,-1,860,1394,0,0
-357,-370,0,0,0,0,0,0,0,0,0,-1,867,1394,0,0
-350,-370,0,0,0,0,0,0,0,0,0,-1,874,1394,0,0
-343,-370,0,0,0,0,0,0,0,0,0,-1,881,1394,0,0
-336,-370,0,0,0,0,0,0,0,0,0,-1,888,1394,0,0
-329,-370,0,0,0,0,0,0,0,0,0,-1,895,1394,0,0
-322,-370,0,0,0,0,0,0,0,0,0,-1,902,1394,0,0
-315,-370,0,0,0,0,0,0,0,0,0,-1,909,1394,0,0
-308,-370,0,0,0,0,0,0,0,0,0,-1,916,1394,0,0
-301,-370,0,0,0,0,0,0,0,0,0,-1,923,1394,0,0
-294,-370,0,0,0,0,0,0,0,0,0,-1,930,1394,0,0
-287,-370,0,0,0,0,0,0,0,0,0,-1,937,1394,0,0
-280,-370,0,0,0,0,0,0,0,0,0,-1,944,1394,0,0
-273,-370,0,0,0,0,0,0,0,0,0,-1,951,1394,0,0
-266,-370,0,0,0,0,0,0,0,0,0,-1,958,1394,0,0
-259,-370,0,0,0,0,0,0,0,0,0,-1,965,1394,0,0
-252,-370,0,0,0,0,0,0,0,0,0,-1,972,1394,0,0
-245,-370,0,0,0,0,0,0,0,0,0,-1,979,1394,0,0
-238,-370,0,0,0,0,0,0,0,0,0,-1,986,1394,0,0
-231,-370,0,0,0,0,0,0,0,0,0,-1,993,1394,0,0
-224,-370,0,0,0,0,0,0,0,0,0,-1,1000,1394,0,0
-217,-370,0,0,0,0,0,0,0,0,0,-1,1007,1394,0,0
-210,-370,0,0,0,0,0,0,0,0,0,-1,1014,1394,0,0
-203,-370,0,0,0,0,0,0,0,0,0,-1,1021,1394,0,0
-196,-370,0,0,0,0,0,0,0,0,0,-1,1028,1394,0,0
-189,-370,0,0,0,0,0,0,0,0,0,-1,1035,1394,0,0
-182,-370,0,0,0,0,0,0,0,0,0,-1,1042,1394,0,0
-175,-370,0,0,0,0,0,0,0,0,0,-1,1049,1394,0,0
-168,-370,0,0,0,0,0,0,0,0,0,-1,1056,1394,0,0
-161,-370,0,0,0,0,0,0,0,0,0,-1,1063,1394,0,0
-154,-370,0,0,0,0,0,0,0,0,0,-1,1070,1394,0,0
-147,-370,0,0,0,0,0,0,0,0,0,-1,1077,1394,0,0
-140,-370,0,0,0,0,0,0,0,0,0,-1,1084,1394,0,0
-133,-370,0,0,0,0,0,0,0,0,0,-1,1091,1394,0,0
-126,-370,0,0,0,0,0,0,0,0,0,-1,1098,1394,0,0
-119,-370,0,0,0,0,0,0,0,0,0,-1,1105,1394,0,0
-112,-370,0,0,0,0,0,0,0,0,0,-1,1112,1394,0,0
-105,-370,0,0,0,0,0,0,0,0,0,-1,1119,1394,0,0
-98,-370,0,0,0,0,0,0,0,0,0,-1,1126,1394,0,0
-91,-370,0,0,0,0,0,0,0,0,0,-1,1133,1394,0,0
-84,-370,0,0,0,0,0,0,0,0,0,-1,1140,1394,0,0
-77,-370,0,0,0,0,0,0,0,0,0,-1,1147,1394,0,0
-70,-370,0,0,0,0,0,0,0,0,0,-1,1154,1394,0,0
-63,-370,0,0,0,0,0,0,0,0,0,-1,1161,1394,0,0
-56,-370,0,0,0,0,0,0,0,0,0,-1,1168,1394,0,0
-49,-370,0,0,0,0,0,0,0,0,0,-1,1175,1394,0,0
-42,-370,0,0,0,0,0,0,0,0,0,-1,1182,1394,0,0
-35,-370,0,0,0,0,0,0,0,0,0,-1,1189,1394,0,0
-28,-370,0,0,0,0,0,0,0,0,0,-1,1196,1394,0,0
-21,-370,0,0,0,0,0,0,0,0,0,-1,1203,1394,0,0
-14,-370,0,0,0,0,0,0,0,0,0,-1,1210,1394,0,0
-7,-370,0,0,0,0,0,0,0,0,0,-1,1217,1394,0,0
0,-370,0,0,0,0,0,0,0,0,0,-1,1224,1394,0,0
7,-370,0,0,0,0,0,0,0,0,0,-1,1231,1394,0,0
14,-370,0,0,0,0,0,0,0,0,0,-1,1238,1394,0,0
21,-370,0,0,0,0,0,0,0,0,0,-1,1245,1394,0,0
28,-370,0,0,0,0,0,0,0,0,0,-1,1252,1394,0,0
35,-370,0,0,0,0,0,0,0,0,0,-1,1259,1394,0,0
42,-370,0,0,0,0,0,0,0,0,0,-1,1266,1394,0,0
49,-370,0,0,0,0,0,0,0,0,0,-1,1273,1394,0,0
56,-370,0,0,0,0,0,0,0,0,0,-1,1280,1394,0,0
63,-370,0,0,0,0,0,0,0,0,0,-1,1287,1394,0,0
70,-370,0,0,0,0,0,0,0,0,0,-1,1294,1394,0,0
77,-370,0,0,0,0,0,0,0,0,0,-1,1301,1394,0,0
84,-370,0,0,0,0,0,0,0,0,0,-1,1308,1394,0,0
91,-370,0,0,0,0,0,0,0,0,0,-1,1315,1394,0,0
98,-370,0,0,0,0,0,0,0,0,0,-1,1322,1394,0,0
105,-370,0,0,0,0,0,0,0,0,0,-1,1329,1394,0,0
112,-370,0,0,0,0,0,0,0,0,0,-1,1336,1394,0,0
119,-370,0,0,0,0,0,0,0,0,0,-1,1343,1394,0,0
126,-370,0,0,0,0,0,0,0,0,0,-1,1350,1394,0,0
133,-370,0,0,0,0,0,0,0,0,0,-1,1357,1394,0,0
140,-370,0,0,0,0,0,0,0,0,0,-1,1364,1394,0,0
147,-370,0,0,0,0,0,0,0,0,0,-1,1371,1394,0,0
154,-370,0,0,0,0,0,0,0,0,0,-1,1378,1394,0,0
161,-370,0,0,0,0,0,0,0,0,0,-1,1385,1394,0,0
168,-370,0,0,0,0,0,0,0,0,0,-1,1392,1394,0,0
175,-370,0,0,0,0,0,0,0,0,0,-1,1399,1394,0,0
182,-370,0,0,0,0,0,0,0,0,0,-1,1406,1394,0,0
189,-370,0,0,0,0,0,0,0,0,0,-1,1413,1394,0,0
196,-370,0,0,0,0,0,0,0,0,0,-1,1420,1394,0,0
203,-370,0,0,0,0,0,0,0,0,0,-1,1427,1394,0,0
210,-370,0,0,0,0,0,0,0,0,0,-1,1434,1394,0,0
217,-370,0,0,0,0,0,0,0,0,0,-1,1441,1394,0,0
224,-370,0,0,0,0,0,0,0,0,0,-1,1448,1394,0,0
231,-370,0,0,0,0,0,0,0,0,0,-1,1455,1394,0,0
238,-370,0,0,0,0,0,0,0,0,0,-1,1462,1394,0,0
245,-370,0,0,0,0,0,0,0,0,0,-1,1469,1394,0,0
252,-370,0,0,0,0,0,0,0,0,0,-1,1476,1394,0,0
259,-370,0,0,0,0,0,0,0,0,0,-1,1483,1394,0,0
266,-370,0,0,0,0,0,0,0,0,0,-1,1490,1394,0,0
273,-370,0,0,0,0,0,0,0,0,0,-1,1497,1394,0,0
280,-370,0,0,0,0,0,0,0,0,0,-1,1504,1394,0,0
287,-370,0,0,0,0,0,0,0,0,0,-1,1511,1394,0,0
294,-370,0,0,0,0,0,0,0,0,0,-1,1518,1394,0,0
301,-370,0,0,0,0,0,0,0,0,0,-1,1525,1394,0,0
308,-370,0,0,0,0,0,0,0,0,0,-1,1532,1394,0,0
315,-370,0,0,0,0,0,0,0,0,0,-1,1539,1394,0,0
322,-370,0,0,0,0,0,0,0,0,0,-1,1546,1394,0,0
329,-370,0,0,0,0,0,0,0,0,0,-1,1553,1394,0,0
336,-370,0,0,0,0,0,0,0,0,0,-1,1560,1394,0,0
343,-370,0,0,0,0,0,0,0,0,0,-1,1567,1394,0,0
350,-370,0,0,0,0,0,0,0,0,0,-1,1574,1394,0,0
357,-370,0,0,0,0,0,0,0,0,0,-1,1581,1394,0,0
364,-370,0,0,0,0,0,0,0,0,0,-1,1588,1394,0,0
371,-370,0,0,0,0,0,0,0,0,0,-1,1595,1394,0,0
378,-370,0,0,0,0,0,0,0,0,0,-1,1602,1394,0,0
385,-370,0,0,0,0,0,0,0,0,0,-1,1609,1394,0,0
392,-370,0,0,0,0,0,0,0,0,0,-1,1616,1394,0,0
399,-370,0,0,0,0,0,0,0,0,0,-1,1623,1394,0,0
406,-370,0,0,0,0,0,0,0,0,0,-1,1630,1394,0,0
413,-370,0,0,0,0,0,0,0,0,0,-1,1637,1394,0,0
420,-370,0,0,0,0,0,0,0,0,0,-1,1644,1394,0,0
427,-370,0,0,0,0,0,0,0,0,0,-1,1651,1394,0,0
434,-370,0,0,0,0,0,0,0,0,0,-1,1658,1394,0,0
441,-370,0,0,0,0,0,0,0,0,0,-1,1665,1394,0,0
448,-370,0,0,0,0,0,0,0,0,0,-1,1672,1394,0,0
455,-370,0,0,0,0,0,0,0,0,0,-1,1679,1394,0,0
462,-370,0,0,0,0,0,0,0,0,0,-1,1686,1394,0,0
469,-370,0,0,0,0,0,0,0,0,0,-1,1693,1394,0,0
476,-370,0,0,0,0,0,0,0,0,0,-1,1700,1394,0,0
483,-370,0,0,0,0,0,0,0,0,0,-1,1707,1394,0,0
490,-370,0,0,0,0,0,0,0,0,0,-1,1714,1394,0,0
497,-370,0,0,0,0,0,0,0,0,0,-1,1721,1394,0,0
504,-370,0,0,0,0,0,0,0,0,0,-1,1728,1394,0,0
511,-370,0,0,0,0,0,0,0,0,0,-1,1735,1394,0,0
518,-370,0,0,0,0,0,0,0,0,0,-1,1742,1394,0,0
525,-370,0,0,0,0,0,0,0,0,0,-1,1749,1394,0,0
532,-370,0,0,0,0,0,0,0,0,0,-1,1756,1394,0,0
539,-370,0,0,0,0,0,0,0,0,0,-1,1763,1394,0,0
546,-370,16.7576,1.23132,0,0,0,0,0,0,0,-1,1770,1394,16.7576,-1.23132
553,-370,18.1315,3.72559,0,0,0,0,0,0,0,-1,1777,1394,18.1314,-3.72561
560,-370,17.321,3.41821,0,0,0,0,0,0,0,-1,1784,1394,17.321,-3.41819
567,-370,16.6848,3.04944,0,0,0,0,0,0,0,-1,1791,1394,16.6848,-3.04944
574,-370,16.0674,2.91907,0,0,0,0,0,0,0,-1,1798,1394,16.0673,-2.91905
581,-370,15.7441,2.96643,0,0,0,0,0,0,0,-1,1805,1394,15.7441,-2.96644
588,-370,15.6188,2.86438,0,0,0,0,0,0,0,-1,1812,1394,15.6188,-2.86432
595,-370,14.8816,2.97034,-0.00887973,-0.00961122,0.0413933,0.0321495,-0.0506404,0.78098,0.0481945,0.0436516,1819,1394,14.8816,-2.97028
602,-370,14.1493,3.13171,0,0,0,0,0,0,0,-1,1826,1394,14.1493,-3.13171
609,-370,11.7533,4.19324,0,0,0,0,0,0,0,-1,1833,1394,11.7533,-4.19323
616,-370,11.4639,4.2345,0,0,0,0,0,0,0,-1,1840,1394,11.4638,-4.23448
623,-370,11.6543,5.12463,0,0,0,0,0,0,0,-1,1847,1394,11.6543,-5.12469
630,-370,11.7968,5.70349,-0.00619828,-0.00723073,0.0172877,0.0105809,-0.0240099,0.770472,0.0204665,0.0329605,1854,1394,11.7968,-5.70351
637,-370,11.6652,5.76953,-0.00557591,-0.00634552,0.0133444,0.00738926,-0.0193107,0.770984,0.0159192,0.0219997,1861,1394,11.6651,-5.7695
644,-370,11.7589,5.5835,-0.00485518,-0.00531541,0.00987344,0.00479082,-0.0149614,0.773747,0.0118972,0.0115707,1868,1394,11.7589,-5.58352
651,-370,11.7758,5.37805,-0.00335864,-0.00416623,0.00711431,0.00336332,-0.0108882,0.757049,0.00860194,0.0114464,1875,1394,11.7757,-5.3781
658,-370,11.7687,5.21228,-0.00251781,-0.00292238,0.00497944,0.00226346,-0.00770364,0.765097,0.00603347,0.0117609,1882,1394,11.7686,-5.21229
665,-370,11.7495,5.07666,-0.00189455,-0.00160716,0.003046,0.00129854,-0.00480025,0.808968,0.00370956,0.0128022,1889,1394,11.7495,-5.07666
672,-370,11.746,4.9176,-0.00163176,-0.00067,0.00164376,0.000561778,-0.00286354,0.927702,0.00212123,0.0135008,1896,1394,11.7459,-4.91762
679,-370,11.7214,4.72888,-0.00145124,0.000190735,0.000608851,0.000391863,-0.00165237,1.25174,0.0012528,0.0125239,1903,1394,11.7214,-4.72887
686,-370,11.7269,4.56531,-0.00110951,0.00116457,-0.000335232,0.00121296,-0.0011579,-1.42744,0.00136894,0.0128979,1910,1394,11.727,-4.56525
693,-370,11.7581,4.38159,-0.000595446,0.00223561,-0.00152636,0.00290178,-0.00126162,-1.15927,0.00246513,0.0115731,1917,1394,11.758,-4.38161
700,-370,11.8206,4.17065,0.000244195,0.00390711,-0.00326516,0.00581938,-0.00166807,-1.04099,0.00453896,0.0160145,1924,1394,11.8205,-4.17067
707,-370,11.8054,4.01807,0.00156914,0.0059694,-0.00558909,0.00977581,-0.00223727,-0.972907,0.00737693,0.0271781,1931,1394,11.8054,-4.01808
714,-370,12.1906,3.62451,0.00395624,0.00892928,-0.009115,0.0158908,-0.00300531,-0.918555,0.0117247,0.0435059,1938,1394,12.1905,-3.62456
721,-370,12.6248,3.21545,0,0,0,0,0,0,0,-1,1945,1394,12.6247,-3.21544
728,-370,12.1058,4.15918,0,0,0,0,0,0,0,-1,1952,1394,12.1058,-4.15922
735,-370,12.486,4.15796,0,0,0,0,0,0,0,-1,1959,1394,12.486,-4.15796
742,-370,12.6914,4.10376,0,0,0,0,0,0,0,-1,1966,1394,12.6914,-4.10374
749,-370,0,0,0,0,0,0,0,0,0,-1,1973,1394,0,0
756,-370,0,0,0,0,0,0,0,0,0,-1,1980,1394,0,0
763,-370,0,0,0,0,0,0,0,0,0,-1,1987,1394,0,0
770,-370,0,0,0,0,0,0,0,0,0,-1,1994,1394,0,0
777,-370,0,0,0,0,0,0,0,0,0,-1,2001,1394,0,0
784,-370,0,0,0,0,0,0,0,0,0,-1,2008,1394,0,0
791,-370,0,0,0,0,0,0,0,0,0,-1,2015,1394,0,0
798,-370,0,0,0,0,0,0,0,0,0,-1,2022,1394,0,0
805,-370,0,0,0,0,0,0,0,0,0,-1,2029,1394,0,0
812,-370,0,0,0,0,0,0,0,0,0,-1,2036,1394,0,0
-700,-377,0,0,0,0,0,0,0,0,0,-1,524,1401,0,0
-693,-377,0,0,0,0,0,0,0,0,0,-1,531,1401,0,0
-686,-377,0,0,0,0,0,0,0,0,0,-1,538,1401,0,0
-679,-377,0,0,0,0,0,0,0,0,0,-1,545,1401,0,0
-672,-377,0,0,0,0,0,0,0,0,0,-1,552,1401,0,0
-665,-377,0,0,0,0,0,0,0,0,0,-1,559,1401,0,0
-658,-377,0,0,0,0,0,0,0,0,0,-1,566,1401,0,0
-651,-377,0,0,0,0,0,0,0,0,0,-1,573,1401,0,0
-644,-377,0,0,0,0,0,0,0,0,0,-1,580,1401,0,0
-637,-377,0,0,0,0,0,0,0,0,0,-1,587,1401,0,0
-630,-377,0,0,0,0,0,0,0,0,0,-1,594,1401,0,0
-623,-377,0,0,0,0,0,0,0,0,0,-1,601,1401,0,0
-616,-377,-8.87878,-6.72974,0,0,0,0,0,0,0,-1,608,1401,-8.87877,6.72973
-609,-377,-7.45264,-4.74719,0,0,0,0,0,0,0,-1,615,1401,-7.45261,4.74719
-602,-377,-5.52997,2.14539,0,0,0,0,0,0,0,-1,622,1401,-5.52994,-2.14543
-595,-377,-4.66656,1.57288,0,0,0,0,0,0,0,-1,629,1401,-4.66656,-1.57289
-588,-377,-3.80316,1.00037,0,0,0,0,0,0,0,-1,636,1401,-3.80317,-1.00034
-581,-377,-3.72711,1.30212,0,0,0,0,0,0,0,-1,643,1401,-3.72714,-1.30217
-574,-377,-4.01422,1.84778,0.00361533,0.0168189,0.0156669,0.0272181,-0.00678394,0.9848,0.0207792,0.0454269,650,1401,-4.0142,-1.84779
-567,-377,-4.28729,2.3197,0.00132415,0.00958774,0.0110211,0.0172261,-0.00631423,0.964738,0.0140693,0.0276853,657,1401,-4.28729,-2.31969
-560,-377,-4.40503,2.45276,0.00045465,0.00470507,0.00721966,0.0101058,-0.0049461,0.928537,0.00885879,0.0186,664,1401,-4.40504,-2.45274
-553,-377,-4.36511,2.60791,0.000279839,0.0021868,0.00411231,0.00545472,-0.00298808,0.899315,0.00494332,0.012596,671,1401,-4.36511,-2.60785
-546,-377,-4.37244,2.84094,-0.000258298,0.000376242,0.00163734,0.00172677,-0.00160883,0.881098,0.00192621,0.0157138,678,1401,-4.37243,-2.841
-539,-377,-4.36761,3.0127,-0.000714432,-0.00047749,0.00017466,-0.000384913,-0.00080701,1.0834,0.000466092,0.020376,685,1401,-4.3676,-3.01274
-532,-377,-4.39172,3.19031,-0.00103985,-0.000455391,-0.000507592,-0.000161916,-0.00133332,-1.04658,0.000840126,0.0192292,692,1401,-4.39171,-3.19025
-525,-377,-4.35022,3.40039,-0.00152167,-0.000530393,-0.00141249,0.000470893,-0.00252296,-0.954135,0.00185892,0.0172883,699,1401,-4.3502,-3.40043
-518,-377,-4.35748,3.58069,-0.00276802,-0.000698629,-0.00237574,0.000857957,-0.00432461,-0.990774,0.00320754,0.0114838,706,1401,-4.3575,-3.58068
-511,-377,-4.3382,3.78308,-0.00479417,-0.000574663,-0.00368205,0.00155923,-0.00692807,-1.04556,0.00521671,0.0111869,713,1401,-4.33818,-3.78309
-504,-377,-4.34503,3.98438,-0.00734613,-0.000648919,-0.00549061,0.00243364,-0.0104287,-1.05922,0.0078898,0.0114101,720,1401,-4.34501,-3.98438
-497,-377,-4.18182,4.17029,-0.0104875,-0.000922876,-0.00801429,0.00362752,-0.0150379,-1.0544,0.011428,0.0190153,727,1401,-4.18184,-4.17031
-490,-377,-4.2522,4.13904,-0.0144354,-0.00145617,-0.0112986,0.00508393,-0.0209755,-1.04608,0.0159507,0.042642,734,1401,-4.25218,-4.139
-483,-377,-4.5766,3.87146,-0.0194541,-0.00199197,-0.0157059,0.00724659,-0.0286927,-1.03908,0.0219465,0.0445515,741,1401,-4.57658,-3.87148
-476,-377,-4.68774,3.54834,-0.0258026,-0.00249679,-0.0212457,0.0100819,-0.0383812,-1.03624,0.0295275,0.0444121,748,1401,-4.68772,-3.54833
-469,-377,-4.81866,3.32996,0,0,0,0,0,0,0,-1,755,1401,-4.81868,-3.32995
-462,-377,-6.49249,3.61462,0,0,0,0,0,0,0,-1,762,1401,-6.49251,-3.61457
-455,-377,-3.3089,1.23254,0,0,0,0,0,0,0,-1,769,1401,-3.30891,-1.23258
-448,-377,-2.71375,-1.16174,0,0,0,0,0,0,0,-1,776,1401,-2.71377,1.16169
-441,-377,-8.1756,-2.43384,0,0,0,0,0,0,0,-1,783,1401,-8.17558,2.43384
-434,-377,-6.90076,0.886108,0,0,0,0,0,0,0,-1,790,1401,-6.90078,-0.886068
-427,-377,-6.73157,1.24084,0,0,0,0,0,0,0,-1,797,1401,-6.73154,-1.2408
-420,-377,0,0,0,0,0,0,0,0,0,-1,804,1401,0,0
-413,-377,0,0,0,0,0,0,0,0,0,-1,811,1401,0,0
-406,-377,0,0,0,0,0,0,0,0,0,-1,818,1401,0,0
-399,-377,0,0,0,0,0,0,0,0,0,-1,825,1401,0,0
-392,-377,0,0,0,0,0,0,0,0,0,-1,832,1401,0,0
-385,-377,0,0,0,0,0,0,0,0,0,-1,839,1401,0,0
-378,-377,0,0,0,0,0,0,0,0,0,-1,846,1401,0,0
-371,-377,0,0,0,0,0,0,0,0,0,-1,853,1401,0,0
-364,-377,0,0,0,0,0,0,0,0,0,-1,860,1401,0,0
-357,-377,0,0,0,0,0,0,0,0,0,-1,867,1401,0,0
-350,-377,0,0,0,0,0,0,0,0,0,-1,874,1401,0,0
-343,-377,0,0,0,0,0,0,0,0,0,-1,881,1401,0,0
-336,-377,0,0,0,0,0,0,0,0,0,-1,888,1401,0,0
-329,-377,0,0,0,0,0,0,0,0,0,-1,895,1401,0,0
-322,-377,0,0,0,0,0,0,0,0,0,-1,902,1401,0,0
-315,-377,0,0,0,0,0,0,0,0,0,-1,909,1401,0,0
-308,-377,0,0,0,0,0,0,0,0,0,-1,916,1401,0,0
-301,-377,0,0,0,0,0,0,0,0,0,-1,923,1401,0,0
-294,-377,0,0,0,0,0,0,0,0,0,-1,930,1401,0,0
-287,-377,0,0,0,0,0,0,0,0,0,-1,937,1401,0,0
-280,-377,0,0,0,0,0,0,0,0,0,-1,944,1401,0,0
-273,-377,0,0,0,0,0,0,0,0,0,-1,951,1401,0,0
-266,-377,0,0,0,0,0,0,0,0,0,-1,958,1401,0,0
-259,-377,0,0,0,0,0,0,0,0,0,-1,965,1401,0,0
-252,-377,0,0,0,0,0,0,0,0,0,-1,972,1401,0,0
-245,-377,0,0,0,0,0,0,0,0,0,-1,979,1401,0,0
-238,-377,0,0,0,0,0,0,0,0,0,-1,986,1401,0,0
-231,-377,0,0,0,0,0,0,0,0,0,-1,993,1401,0,0
-224,-377,0,0,0,0,0,0,0,0,0,-1,1000,1401,0,0
-217,-377,0,0,0,0,0,0,0,0,0,-1,1007,1401,0,0
-210,-377,0,0,0,0,0,0,0,0,0,-1,1014,1401,0,0
-203,-377,0,0,0,0,0,0,0,0,0,-1,1021,1401,0,0
-196,-377,0,0,0,0,0,0,0,0,0,-1,1028,1401,0,0
-189,-377,0,0,0,0,0,0,0,0,0,-1,1035,1401,0,0
-182,-377,0,0,0,0,0,0,0,0,0,-1,1042,1401,0,0
-175,-377,0,0,0,0,0,0,0,0,0,-1,1049,1401,0,0
-168,-377,0,0,0,0,0,0,0,0,0,-1,1056,1401,0,0
-161,-377,0,0,0,0,0,0,0,0,0,-1,1063,1401,0,0
-154,-377,0,0,0,0,0,0,0,0,0,-1,1070,1401,0,0
-147,-377,0,0,0,0,0,0,0,0,0,-1,1077,1401,0,0
-140,-377,0,0,0,0,0,0,0,0,0,-1,1084,1401,0,0
-133,-377,0,0,0,0,0,0,0,0,0,-1,1091,1401,0,0
-126,-377,0,0,0,0,0,0,0,0,0,-1,1098,1401,0,0
-119,-377,0,0,0,0,0,0,0,0,0,-1,1105,1401,0,0
-112,-377,0,0,0,0,0,0,0,0,0,-1,1112,1401,0,0
-105,-377,0,0,0,0,0,0,0,0,0,-1,1119,1401,0,0
-98,-377,0,0,0,0,0,0,0,0,0,-1,1126,1401,0,0
-91,-377,0,0,0,0,0,0,0,0,0,-1,1133,1401,0,0
-84,-377,0,0,0,0,0,0,0,0,0,-1,1140,1401,0,0
-77,-377,0,0,0,0,0,0,0,0,0,-1,1147,1401,0,0
-70,-377,0,0,0,0,0,0,0,0,0,-1,1154,1401,0,0
-63,-377,0,0,0,0,0,0,0,0,0,-1,1161,1401,0,0
-56,-377,0,0,0,0,0,0,0,0,0,-1,1168,1401,0,0
-49,-377,0,0,0,0,0,0,0,0,0,-1,1175,1401,0,0
-42,-377,0,0,0,0,0,0,0,0,0,-1,1182,1401,0,0
-35,-377,0,0,0,0,0,0,0,0,0,-1,1189,1401,0,0
-28,-377,0,0,0,0,0,0,0,0,0,-1,1196,1401,0,0
-21,-377,0,0,0,0,0,0,0,0,0,-1,1203,1401,0,0
-14,-377,0,0,0,0,0,0,0,0,0,-1,1210,1401,0,0
-7,-377,0,0,0,0,0,0,0,0,0,-1,1217,1401,0,0
0,-377,0,0,0,0,0,0,0,0,0,-1,1224,1401,0,0
7,-377,0,0,0,0,0,0,0,0,0,-1,1231,1401,0,0
14,-377,0,0,0,0,0,0,0,0,0,-1,1238,1401,0,0
21,-377,0,0,0,0,0,0,0,0,0,-1,1245,1401,0,0
28,-377,0,0,0,0,0,0,0,0,0,-1,1252,1401,0,0
35,-377,0,0,0,0,0,0,0,0,0,-1,1259,1401,0,0
42,-377,0,0,0,0,0,0,0,0,0,-1,1266,1401,0,0
49,-377,0,0,0,0,0,0,0,0,0,-1,1273,1401,0,0
56,-377,0,0,0,0,0,0,0,0,0,-1,1280,1401,0,0
63,-377,0,0,0,0,0,0,0,0,0,-1,1287,1401,0,0
70,-377,0,0,0,0,0,0,0,0,0,-1,1294,1401,0,0
77,-377,0,0,0,0,0,0,0,0,0,-1,1301,1401,0,0
84,-377,0,0,0,0,0,0,0,0,0,-1,1308,1401,0,0
91,-377,0,0,0,0,0,0,0,0,0,-1,1315,1401,0,0
98,-377,0,0,0,0,0,0,0,0,0,-1,1322,1401,0,0
105,-377,0,0,0,0,0,0,0,0,0,-1,1329,1401,0,0
112,-377,0,0,0,0,0,0,0,0,0,-1,1336,1401,0,0
119,-377,0,0,0,0,0,0,0,0,0,-1,1343,1401,0,0
126,-377,0,0,0,0,0,0,0,0,0,-1,1350,1401,0,0
133,-377,0,0,0,0,0,0,0,0,0,-1,1357,1401,0,0
140,-377,0,0,0,0,0,0,0,0,0,-1,1364,1401,0,0
147,-377,0,0,0,0,0,0,0,0,0,-1,1371,1401,0,0
154,-377,0,0,0,0,0,0,0,0,0,-1,1378,1401,0,0
161,-377,0,0,0,0,0,0,0,0,0,-1,1385,1401,0,0
168,-377,0,0,0,0,0,0,0,0,0,-1,1392,1401,0,0
175,-377,0,0,0,0,0,0,0,0,0,-1,1399,1401,0,0
182,-377,0,0,0,0,0,0,0,0,0,-1,1406,1401,0,0
189,-377,0,0,0,0,0,0,0,0,0,-1,1413,1401,0,0
196,-377,0,0,0,0,0,0,0,0,0,-1,1420,1401,0,0
203,-377,0,0,0,0,0,0,0,0,0,-1,1427,1401,0,0
210,-377,0,0,0,0,0,0,0,0,0,-1,1434,1401,0,0
217,-377,0,0,0,0,0,0,0,0,0,-1,1441,1401,0,0
224,-377,0,0,0,0,0,0,0,0,0,-1,1448,1401,0,0
231,-377,0,0,0,0,0,0,0,0,0,-1,1455,1401,0,0
238,-377,0,0,0,0,0,0,0,0,0,-1,1462,1401,0,0
245,-377,0,0,0,0,0,0,0,0,0,-1,1469,1401,0,0
252,-377,0,0,0,0,0,0,0,0,0,-1,1476,1401,0,0
259,-377,0,0,0,0,0,0,0,0,0,-1,1483,1401,0,0
266,-377,0,0,0,0,0,0,0,0,0,-1,1490,1401,0,0
273,-377,0,0,0,0,0,0,0,0,0,-1,1497,1401,0,0
280,-377,0,0,0,0,0,0,0,0,0,-1,1504,1401,0,0
287,-377,0,0,0,0,0,0,0,0,0,-1,1511,1401,0,0
294,-377,0,0,0,0,0,0,0,0,0,-1,1518,1401,0,0
301,-377,0,0,0,0,0,0,0,0,0,-1,1525,1401,0,0
308,-377,0,0,0,0,0,0,0,0,0,-1,1532,1401,0,0
315,-377,0,0,0,0,0,0,0,0,0,-1,1539,1401,0,0
322,-377,0,0,0,0,0,0,0,0,0,-1,1546,1401,0,0
329,-377,0,0,0,0,0,0,0,0,0,-1,1553,1401,0,0
336,-377,0,0,0,0,0,0,0,0,0,-1,1560,1401,0,0
343,-377,0,0,0,0,0,0,0,0,0,-1,1567,1401,0,0
350,-377,0,0,0,0,0,0,0,0,0,-1,1574,1401,0,0
357,-377,0,0,0,0,0,0,0,0,0,-1,1581,1401,0,0
364,-377,0,0,0,0,0,0,0,0,0,-1,1588,1401,0,0
371,-377,0,0,0,0,0,0,0,0,0,-1,1595,1401,0,0
378,-377,0,0,0,0,0,0,0,0,0,-1,1602,1401,0,0
385,-377,0,0,0,0,0,0,0,0,0,-1,1609,1401,0,0
392,-377,0,0,0,0,0,0,0,0,0,-1,1616,1401,0,0
399,-377,0,0,0,0,0,0,0,0,0,-1,1623,1401,0,0
406,-377,0,0,0,0,0,0,0,0,0,-1,1630,1401,0,0
413,-377,0,0,0,0,0,0,0,0,0,-1,1637,1401,0,0
420,-377,0,0,0,0,0,0,0,0,0,-1,1644,1401,0,0
427,-377,0,0,0,0,0,0,0,0,0,-1,1651,1401,0,0
434,-377,0,0,0,0,0,0,0,0,0,-1,1658,1401,0,0
441,-377,0,0,0,0,0,0,0,0,0,-1,1665,1401,0,0
448,-377,0,0,0,0,0,0,0,0,0,-1,1672,1401,0,0
455,-377,0,0,0,0,0,0,0,0,0,-1,1679,1401,0,0
462,-377,0,0,0,0,0,0,0,0,0,-1,1686,1401,0,0
469,-377,0,0,0,0,0,0,0,0,0,-1,1693,1401,0,0
476,-377,0,0,0,0,0,0,0,0,0,-1,1700,1401,0,0
483,-377,0,0,0,0,0,0,0,0,0,-1,1707,1401,0,0
490,-377,0,0,0,0,0,0,0,0,0,-1,1714,1401,0,0
497,-377,0,0,0,0,0,0,0,0,0,-1,1721,1401,0,0
504,-377,0,0,0,0,0,0,0,0,0,-1,1728,1401,0,0
511,-377,0,0,0,0,0,0,0,0,0,-1,1735,1401,0,0
518,-377,0,0,0,0,0,0,0,0,0,-1,1742,1401,0,0
525,-377,0,0,0,0,0,0,0,0,0,-1,1749,1401,0,0
532,-377,0,0,0,0,0,0,0,0,0,-1,1756,1401,0,0
539,-377,0,0,0,0,0,0,0,0,0,-1,1763,1401,0,0
546,-377,16.6301,1.86731,0,0,0,0,0,0,0,-1,1770,1401,16.6301,-1.86737
553,-377,17.2404,1.89417,0,0,0,0,0,0,0,-1,1777,1401,17.2404,-1.89418
560,-377,16.3752,3.22534,0,0,0,0,0,0,0,-1,1784,1401,16.3753,-3.22539
567,-377,15.1582,2.81689,0,0,0,0,0,0,0,-1,1791,1401,15.1583,-2.81688
574,-377,15.473,2.99524,0,0,0,0,0,0,0,-1,1798,1401,15.473,-2.99521
581,-377,15.309,3.06311,0,0,0,0,0,0,0,-1,1805,1401,15.3089,-3.06316
588,-377,14.9818,2.77893,0,0,0,0,0,0,0,-1,1812,1401,14.9818,-2.77896
595,-377,14.2272,2.92456,0,0,0,0,0,0,0,-1,1819,1401,14.2272,-2.92461
602,-377,12.7983,3.3374,0,0,0,0,0,0,0,-1,1826,1401,12.7984,-3.33746
609,-377,12.6263,3.79395,0,0,0,0,0,0,0,-1,1833,1401,12.6264,-3.79399
616,-377,12.1989,4.89685,0,0,0,0,0,0,0,-1,1840,1401,12.1988,-4.8969
623,-377,11.6897,5.6095,0,0,0,0,0,0,0,-1,1847,1401,11.6897,-5.60951
630,-377,11.7043,6.17126,0,0,0,0,0,0,0,-1,1854,1401,11.7043,-6.17124
637,-377,11.551,5.76257,-0.00581334,-0.00748749,0.0125003,0.00587787,-0.0191787,0.751966,0.0151306,0.0130811,1861,1401,11.5511,-5.76257
644,-377,11.58,5.56921,-0.00469622,-0.00586476,0.00911499,0.00385321,-0.0144142,0.753392,0.0111187,0.0109877,1868,1401,11.58,-5.56923
651,-377,11.5852,5.38428,-0.0031702,-0.00433291,0.00645348,0.00272805,-0.0102312,0.740478,0.00788896,0.0125141,1875,1401,11.5852,-5.3843
658,-377,11.5874,5.23267,-0.00241026,-0.00296432,0.00451095,0.00183216,-0.00720674,0.754731,0.00551756,0.0135246,1882,1401,11.5874,-5.23261
665,-377,11.5916,5.06982,-0.00193474,-0.00163182,0.00280204,0.00102285,-0.00458942,0.812398,0.00345146,0.0153638,1889,1401,11.5915,-5.06981
672,-377,11.6022,4.89648,-0.00190566,-0.00081151,0.00170071,0.000427949,-0.00314512,0.941009,0.00225299,0.0157569,1896,1401,11.6022,-4.8965
679,-377,11.5551,4.74683,-0.00199484,-0.000191981,0.00100933,0.000259856,-0.00244667,1.14989,0.00172427,0.0157388,1903,1401,11.555,-4.74688
686,-377,11.5586,4.55957,-0.00205638,0.000353613,0.000489268,0.000449155,-0.00215192,1.37795,0.00160541,0.0138169,1910,1401,11.5586,-4.55959
693,-377,11.6083,4.36096,-0.00201626,0.000945348,-0.000187087,0.000957119,-0.00202803,-1.50796,0.00176005,0.0118297,1917,1401,11.6083,-4.36097
700,-377,11.5872,4.14526,-0.0016101,0.00193579,-0.00131928,0.00237278,-0.00204709,-1.25093,0.00255412,0.0207127,1924,1401,11.5872,-4.14521
707,-377,11.5885,3.89795,-0.000682312,0.00321884,-0.00305771,0.00489515,-0.00235863,-1.06932,0.00427247,0.0379919,1931,1401,11.5885,-3.89801
714,-377,11.7599,3.59717,0.00138468,0.00521623,-0.00591344,0.00951648,-0.00291557,-0.942048,0.00750733,0.0456143,1938,1401,11.7599,-3.59711
721,-377,11.9259,3.29468,0,0,0,0,0,0,0,-1,1945,1401,11.926,-3.29466
728,-377,12.5571,5.13257,0,0,0,0,0,0,0,-1,1952,1401,12.5571,-5.13256
735,-377,12.7489,5.08521,0,0,0,0,0,0,0,-1,1959,1401,12.7489,-5.08523
742,-377,0,0,0,0,0,0,0,0,0,-1,1966,1401,0,0
749,-377,0,0,0,0,0,0,0,0,0,-1,1973,1401,0,0
756,-377,0,0,0,0,0,0,0,0,0,-1,1980,1401,0,0
763,-377,0,0,0,0,0,0,0,0,0,-1,1987,1401,0,0
770,-377,0,0,0,0,0,0,0,0,0,-1,1994,1401,0,0
777,-377,0,0,0,0,0,0,0,0,0,-1,2001,1401,0,0
784,-377,0,0,0,0,0,0,0,0,0,-1,2008,1401,0,0
791,-377,0,0,0,0,0,0,0,0,0,-1,2015,1401,0,0
798,-377,0,0,0,0,0,0,0,0,0,-1,2022,1401,0,0
805,-377,0,0,0,0,0,0,0,0,0,-1,2029,1401,0,0
812,-377,0,0,0,0,0,0,0,0,0,-1,2036,1401,0,0
-700,-384,0,0,0,0,0,0,0,0,0,-1,524,1408,0,0
-693,-384,0,0,0,0,0,0,0,0,0,-1,531,1408,0,0
-686,-384,0,0,0,0,0,0,0,0,0,-1,538,1408,0,0
-679,-384,0,0,0,0,0,0,0,0,0,-1,545,1408,0,0
-672,-384,0,0,0,0,0,0,0,0,0,-1,552,1408,0,0
-665,-384,0,0,0,0,0,0,0,0,0,-1,559,1408,0,0
-658,-384,0,0,0,0,0,0,0,0,0,-1,566,1408,0,0
-651,-384,0,0,0,0,0,0,0,0,0,-1,573,1408,0,0
-644,-384,0,0,0,0,0,0,0,0,0,-1,580,1408,0,0
-637,-384,0,0,0,0,0,0,0,0,0,-1,587,1408,0,0
-630,-384,0,0,0,0,0,0,0,0,0,-1,594,1408,0,0
-623,-384,0,0,0,0,0,0,0,0,0,-1,601,1408,0,0
-616,-384,-3.49261,-6.7959,0,0,0,0,0,0,0,-1,608,1408,-3.4926,6.79592
-609,-384,-7.63745,-5.35522,0,0,0,0,0,0,0,-1,615,1408,-7.63746,5.35522
-602,-384,-6.32739,1.74963,0,0,0,0,0,0,0,-1,622,1408,-6.32741,-1.7496
-595,-384,-4.87549,1.48328,0,0,0,0,0,0,0,-1,629,1408,-4.87547,-1.48322
-588,-384,-3.27368,1.14441,0,0,0,0,0,0,0,-1,636,1408,-3.27371,-1.14439
-581,-384,-3.48676,1.18689,0,0,0,0,0,0,0,-1,643,1408,-3.48679,-1.18691
-574,-384,-3.79517,1.81384,0.0109915,0.0193391,0.0237199,0.0392497,-0.00891899,0.872488,0.0295909,0.0475656,650,1408,-3.79519,-1.81389
-567,-384,-4.07202,2.33618,0.00681072,0.011086,0.0156786,0.024772,-0.00687524,0.853152,0.0192207,0.0402279,657,1408,-4.07203,-2.33617
-560,-384,-4.14447,2.43323,0.00434499,0.00560784,0.00975748,0.0147543,-0.00480148,0.817709,0.0117679,0.0253372,664,1408,-4.14448,-2.43327
-553,-384,-4.16455,2.62463,0.00295851,0.00247747,0.00559511,0.00831827,-0.00288228,0.763918,0.00671571,0.0175714,671,1408,-4.16454,-2.62467
-546,-384,-4.16516,2.8302,0.00149892,0.000162223,0.00227276,0.00319956,-0.00153842,0.642394,0.00279095,0.014123,678,1408,-4.16514,-2.83023
-539,-384,-4.203,3.00732,0.000570531,-0.000954219,0.000385642,0.000662519,-0.00104621,0.234156,0.000994789,0.0158384,685,1408,-4.20298,-3.00738
-532,-384,-4.17261,3.2124,0.00012753,-0.000866039,-0.000317826,0.000220498,-0.000959007,-0.284574,0.000724116,0.0227752,692,1408,-4.17263,-3.21237
-525,-384,-4.15363,3.43103,-0.000367228,-0.000901056,-0.00118958,0.000585017,-0.0018533,-0.675038,0.00146987,0.0212391,699,1408,-4.15362,-3.43102
-518,-384,-4.17511,3.61255,-0.00146812,-0.00109035,-0.00211202,0.000841217,-0.00339969,-0.829997,0.00259276,0.0117305,706,1408,-4.17513,-3.61257
-511,-384,-4.17767,3.81519,-0.00328288,-0.00094787,-0.00333204,0.00141529,-0.00564604,-0.953908,0.00431388,0.00965248,713,1408,-4.17764,-3.81515
-504,-384,-4.18054,4.02393,-0.00550645,-0.00109382,-0.00495862,0.00212718,-0.00872744,-0.994719,0.00664189,0.0110865,720,1408,-4.18053,-4.02391
-497,-384,-4.1579,4.21667,-0.00812953,-0.00142062,-0.00722441,0.00319013,-0.0127403,-1.00275,0.00973276,0.0137143,727,1408,-4.1579,-4.21668
-490,-384,-4.03741,4.42688,-0.011419,-0.00203917,-0.0101399,0.00444288,-0.017901,-1.00201,0.013658,0.0286176,734,1408,-4.03739,-4.42687
-483,-384,-4.51117,4.55151,-0.015627,-0.00264872,-0.0139994,0.00629236,-0.024568,-1.00242,0.0188299,0.0437768,741,1408,-4.51116,-4.55151
-476,-384,-4.18146,3.8064,0,0,0,0,0,0,0,-1,748,1408,-4.18145,-3.80636
-469,-384,-4.34106,3.81067,0,0,0,0,0,0,0,-1,755,1408,-4.34104,-3.81066
-462,-384,-4.71008,4.20154,0,0,0,0,0,0,0,-1,762,1408,-4.71007,-4.20157
-455,-384,-5.35962,3.8905,0,0,0,0,0,0,0,-1,769,1408,-5.35964,-3.89045
-448,-384,-1.89233,1.6134,0,0,0,0,0,0,0,-1,776,1408,-1.89231,-1.61337
-441,-384,-2.54742,0.868164,0,0,0,0,0,0,0,-1,783,1408,-2.54745,-0.868223
-434,-384,-5.99164,0.274902,0,0,0,0,0,0,0,-1,790,1408,-5.99164,-0.274901
-427,-384,-5.77826,1.16138,0,0,0,0,0,0,0,-1,797,1408,-5.77824,-1.16133
-420,-384,-5.56482,2.04773,0,0,0,0,0,0,0,-1,804,1408,-5.56483,-2.04776
-413,-384,0,0,0,0,0,0,0,0,0,-1,811,1408,0,0
-406,-384,0,0,0,0,0,0,0,0,0,-1,818,1408,0,0
-399,-384,0,0,0,0,0,0,0,0,0,-1,825,1408,0,0
-392,-384,0,0,0,0,0,0,0,0,0,-1,832,1408,0,0
-385,-384,0,0,0,0,0,0,0,0,0,-1,839,1408,0,0
-378,-384,0,0,0,0,0,0,0,0,0,-1,846,1408,0,0
-371,-384,0,0,0,0,0,0,0,0,0,-1,853,1408,0,0
-364,-384,0,0,0,0,0,0,0,0,0,-1,860,1408,0,0
-357,-384,0,0,0,0,0,0,0,0,0,-1,867,1408,0,0
-350,-384,0,0,0,0,0,0,0,0,0,-1,874,1408,0,0
-343,-384,0,0,0,0,0,0,0,0,0,-1,881,1408,0,0
-336,-384,0,0,0,0,0,0,0,0,0,-1,888,1408,0,0
-329,-384,0,0,0,0,0,0,0,0,0,-1,895,1408,0,0
-322,-384,0,0,0,0,0,0,0,0,0,-1,902,1408,0,0
-315,-384,0,0,0,0,0,0,0,0,0,-1,909,1408,0,0
-308,-384,0,0,0,0,0,0,0,0,0,-1,916,1408,0,0
-301,-384,0,0,0,0,0,0,0,0,0,-1,923,1408,0,0
-294,-384,0,0,0,0,0,0,0,0,0,-1,930,1408,0,0
-287,-384,0,0,0,0,0,0,0,0,0,-1,937,1408,0,0
-280,-384,0,0,0,0,0,0,0,0,0,-1,944,1408,0,0
-273,-384,0,0,0,0,0,0,0,0,0,-1,951,1408,0,0
-266,-384,0,0,0,0,0,0,0,0,0,-1,958,1408,0,0
-259,-384,0,0,0,0,0,0,0,0,0,-1,965,1408,0,0
-252,-384,0,0,0,0,0,0,0,0,0,-1,972,1408,0,0
-245,-384,0,0,0,0,0,0,0,0,0,-1,979,1408,0,0
-238,-384,0,0,0,0,0,0,0,0,0,-1,986,1408,0,0
-231,-384,0,0,0,0,0,0,0,0,0,-1,993,1408,0,0
-224,-384,0,0,0,0,0,0,0,0,0,-1,1000,1408,0,0
-217,-384,0,0,0,0,0,0,0,0,0,-1,1007,1408,0,0
-210,-384,0,0,0,0,0,0,0,0,0,-1,1014,1408,0,0
-203,-384,0,0,0,0,0,0,0,0,0,-1,1021,1408,0,0
-196,-384,0,0,0,0,0,0,0,0,0,-1,1028,1408,0,0
-189,-384,0,0,0,0,0,0,0,0,0,-1,1035,1408,0,0
-182,-384,0,0,0,0,0,0,0,0,0,-1,1042,1408,0,0
-175,-384,0,0,0,0,0,0,0,0,0,-1,1049,1408,0,0
-168,-384,0,0,0,0,0,0,0,0,0,-1,1056,1408,0,0
-161,-384,0,0,0,0,0,0,0,0,0,-1,1063,1408,0,0
-154,-384,0,0,0,0,0,0,0,0,0,-1,1070,1408,0,0
-147,-384,0,0,0,0,0,0,0,0,0,-1,1077,1408,0,0
-140,-384,0,0,0,0,0,0,0,0,0,-1,1084,1408,0,0
-133,-384,0,0,0,0,0,0,0,0,0,-1,1091,1408,0,0
-126,-384,0,0,0,0,0,0,0,0,0,-1,1098,1408,0,0
-119,-384,0,0,0,0,0,0,0,0,0,-1,1105,1408,0,0
-112,-384,0,0,0,0,0,0,0,0,0,-1,1112,1408,0,0
-105,-384,0,0,0,0,0,0,0,0,0,-1,1119,1408,0,0
-98,-384,0,0,0,0,0,0,0,0,0,-1,1126,1408,0,0
-91,-384,0,0,0,0,0,0,0,0,0,-1,1133,1408,0,0
-84,-384,0,0,0,0,0,0,0,0,0,-1,1140,1408,0,0
-77,-384,0,0,0,0,0,0,0,0,0,-1,1147,1408,0,0
-70,-384,0,0,0,0,0,0,0,0,0,-1,1154,1408,0,0
-63,-384,0,0,0,0,0,0,0,0,0,-1,1161,1408,0,0
-56,-384,0,0,0,0,0,0,0,0,0,-1,1168,1408,0,0
-49,-384,0,0,0,0,0,0,0,0,0,-1,1175,1408,0,0
-42,-384,0,0,0,0,0,0,0,0,0,-1,1182,1408,0,0
-35,-384,0,0,0,0,0,0,0,0,0,-1,1189,1408,0,0
-28,-384,0,0,0,0,0,0,0,0,0,-1,1196,1408,0,0
-21,-384,0,0,0,0,0,0,0,0,0,-1,1203,1408,0,0
-14,-384,0,0,0,0,0,0,0,0,0,-1,1210,1408,0,0
-7,-384,0,0,0,0,0,0,0,0,0,-1,1217,1408,0,0
0,-384,0,0,0,0,0,0,0,0,0,-1,1224,1408,0,0
7,-384,0,0,0,0,0,0,0,0,0,-1,1231,1408,0,0
14,-384,0,0,0,0,0,0,0,0,0,-1,1238,1408,0,0
21,-384,0,0,0,0,0,0,0,0,0,-1,1245,1408,0,0
28,-384,0,0,0,0,0,0,0,0,0,-1,1252,1408,0,0
35,-384,0,0,0,0,0,0,0,0,0,-1,1259,1408,0,0
42,-384,0,0,0,0,0,0,0,0,0,-1,1266,1408,0,0
49,-384,0,0,0,0,0,0,0,0,0,-1,1273,1408,0,0
56,-384,0,0,0,0,0,0,0,0,0,-1,1280,1408,0,0
63,-384,0,0,0,0,0,0,0,0,0,-1,1287,1408,0,0
70,-384,0,0,0,0,0,0,0,0,0,-1,1294,1408,0,0
77,-384,0,0,0,0,0,0,0,0,0,-1,1301,1408,0,0
84,-384,0,0,0,0,0,0,0,0,0,-1,1308,1408,0,0
91,-384,0,0,0,0,0,0,0,0,0,-1,1315,1408,0,0
98,-384,0,0,0,0,0,0,0,0,0,-1,1322,1408,0,0
105,-384,0,0,0,0,0,0,0,0,0,-1,1329,1408,0,0
112,-384,0,0,0,0,0,0,0,0,0,-1,1336,1408,0,0
119,-384,0,0,0,0,0,0,0,0,0,-1,1343,1408,0,0
126,-384,0,0,0,0,0,0,0,0,0,-1,1350,1408,0,0
133,-384,0,0,0,0,0,0,0,0,0,-1,1357,1408,0,0
140,-384,0,0,0,0,0,0,0,0,0,-1,1364,1408,0,0
147,-384,0,0,0,0,0,0,0,0,0,-1,1371,1408,0,0
154,-384,0,0,0,0,0,0,0,0,0,-1,1378,1408,0,0
161,-384,0,0,0,0,0,0,0,0,0,-1,1385,1408,0,0
168,-384,0,0,0,0,0,0,0,0,0,-1,1392,1408,0,0
175,-384,0,0,0,0,0,0,0,0,0,-1,1399,1408,0,0
182,-384,0,0,0,0,0,0,0,0,0,-1,1406,1408,0,0
189,-384,0,0,0,0,0,0,0,0,0,-1,1413,1408,0,0
196,-384,0,0,0,0,0,0,0,0,0,-1,1420,1408,0,0
203,-384,0,0,0,0,0,0,0,0,0,-1,1427,1408,0,0
210,-384,0,0,0,0,0,0,0,0,0,-1,1434,1408,0,0
217,-384,0,0,0,0,0,0,0,0,0,-1,1441,1408,0,0
224,-384,0,0,0,0,0,0,0,0,0,-1,1448,1408,0,0
231,-384,0,0,0,0,0,0,0,0,0,-1,1455,1408,0,0
238,-384,0,0,0,0,0,0,0,0,0,-1,1462,1408,0,0
245,-384,0,0,0,0,0,0,0,0,0,-1,1469,1408,0,0
252,-384,0,0,0,0,0,0,0,0,0,-1,1476,1408,0,0
259,-384,0,0,0,0,0,0,0,0,0,-1,1483,1408,0,0
266,-384,0,0,0,0,0,0,0,0,0,-1,1490,1408,0,0
273,-384,0,0,0,0,0,0,0,0,0,-1,1497,1408,0,0
280,-384,0,0,0,0,0,0,0,0,0,-1,1504,1408,0,0
287,-384,0,0,0,0,0,0,0,0,0,-1,1511,1408,0,0
294,-384,0,0,0,0,0,0,0,0,0,-1,1518,1408,0,0
301,-384,0,0,0,0,0,0,0,0,0,-1,1525,1408,0,0
308,-384,0,0,0,0,0,0,0,0,0,-1,1532,1408,0,0
315,-384,0,0,0,0,0,0,0,0,0,-1,1539,1408,0,0
322,-384,0,0,0,0,0,0,0,0,0,-1,1546,1408,0,0
329,-384,0,0,0,0,0,0,0,0,0,-1,1553,1408,0,0
336,-384,0,0,0,0,0,0,0,0,0,-1,1560,1408,0,0
343,-384,0,0,0,0,0,0,0,0,0,-1,1567,1408,0,0
350,-384,0,0,0,0,0,0,0,0,0,-1,1574,1408,0,0
357,-384,0,0,0,0,0,0,0,0,0,-1,1581,1408,0,0
364,-384,0,0,0,0,0,0,0,0,0,-1,1588,1408,0,0
371,-384,0,0,0,0,0,0,0,0,0,-1,1595,1408,0,0
378,-384,0,0,0,0,0,0,0,0,0,-1,1602,1408,0,0
385,-384,0,0,0,0,0,0,0,0,0,-1,1609,1408,0,0
392,-384,0,0,0,0,0,0,0,0,0,-1,1616,1408,0,0
399,-384,0,0,0,0,0,0,0,0,0,-1,1623,1408,0,0
406,-384,0,0,0,0,0,0,0,0,0,-1,1630,1408,0,0
413,-384,0,0,0,0,0,0,0,0,0,-1,1637,1408,0,0
420,-384,0,0,0,0,0,0,0,0,0,-1,1644,1408,0,0
427,-384,0,0,0,0,0,0,0,0,0,-1,1651,1408,0,0
434,-384,0,0,0,0,0,0,0,0,0,-1,1658,1408,0,0
441,-384,0,0,0,0,0,0,0,0,0,-1,1665,1408,0,0
448,-384,0,0,0,0,0,0,0,0,0,-1,1672,1408,0,0
455,-384,0,0,0,0,0,0,0,0,0,-1,1679,1408,0,0
462,-384,0,0,0,0,0,0,0,0,0,-1,1686,1408,0,0
469,-384,0,0,0,0,0,0,0,0,0,-1,1693,1408,0,0
476,-384,0,0,0,0,0,0,0,0,0,-1,1700,1408,0,0
483,-384,0,0,0,0,0,0,0,0,0,-1,1707,1408,0,0
490,-384,0,0,0,0,0,0,0,0,0,-1,1714,1408,0,0
497,-384,0,0,0,0,0,0,0,0,0,-1,1721,1408,0,0
504,-384,0,0,0,0,0,0,0,0,0,-1,1728,1408,0,0
511,-384,0,0,0,0,0,0,0,0,0,-1,1735,1408,0,0
518,-384,0,0,0,0,0,0,0,0,0,-1,1742,1408,0,0
525,-384,0,0,0,0,0,0,0,0,0,-1,1749,1408,0,0
532,-384,0,0,0,0,0,0,0,0,0,-1,1756,1408,0,0
539,-384,15.3091,2.38269,0,0,0,0,0,0,0,-1,1763,1408,15.3091,-2.38266
546,-384,16.1472,2.3949,0,0,0,0,0,0,0,-1,1770,1408,16.1472,-2.39487
553,-384,16.7972,2.35193,0,0,0,0,0,0,0,-1,1777,1408,16.7973,-2.35191
560,-384,15.2682,2.68872,0,0,0,0,0,0,0,-1,1784,1408,15.2682,-2.68875
567,-384,15.0455,3.12732,0,0,0,0,0,0,0,-1,1791,1408,15.0456,-3.12727
574,-384,14.9525,3.45105,0,0,0,0,0,0,0,-1,1798,1408,14.9526,-3.45109
581,-384,15.0204,3.39185,0,0,0,0,0,0,0,-1,1805,1408,15.0204,-3.39188
588,-384,13.7046,3.09436,0,0,0,0,0,0,0,-1,1812,1408,13.7046,-3.09442
595,-384,12.6344,3.78394,0,0,0,0,0,0,0,-1,1819,1408,12.6344,-3.78393
602,-384,12.3657,4.16125,0,0,0,0,0,0,0,-1,1826,1408,12.3657,-4.1612
609,-384,12.1113,4.62878,-0.0151084,-0.0173199,0.0310868,0.0148923,-0.0473206,0.767621,0.0375099,0.0433107,1833,1408,12.1113,-4.62882
616,-384,11.741,5.27002,-0.0124042,-0.0151015,0.0251754,0.0114587,-0.0389643,0.758639,0.0305214,0.0476389,1840,1408,11.741,-5.26999
623,-384,11.4655,5.96497,-0.00976281,-0.01255,0.0197517,0.00864444,-0.0309573,0.750179,0.0240433,0.0422644,1847,1408,11.4655,-5.96497
630,-384,11.416,5.90674,-0.00734403,-0.00999043,0.0150358,0.00642667,-0.0237611,0.741509,0.0183618,0.01859,1854,1408,11.416,-5.90676
637,-384,11.3843,5.7627,-0.00552608,-0.0078387,0.0111564,0.00453377,-0.0178985,0.73376,0.0136961,0.0144441,1861,1408,11.3843,-5.76273
644,-384,11.3784,5.59497,-0.00420052,-0.00592948,0.00806393,0.00304514,-0.0131751,0.732,0.00995495,0.0146063,1868,1408,11.3784,-5.59503
651,-384,11.3765,5.40027,-0.00279307,-0.00435699,0.00568107,0.0021596,-0.00930967,0.717006,0.00703764,0.0152056,1875,1408,11.3764,-5.40026
658,-384,11.391,5.22974,-0.00216416,-0.00312212,0.00403395,0.00141915,-0.00670543,0.726306,0.00501078,0.0154546,1882,1408,11.391,-5.22979
665,-384,11.4192,5.08203,-0.00187176,-0.0019823,0.00264339,0.000716938,-0.00457099,0.774945,0.00331227,0.0156366,1889,1408,11.4192,-5.08209
672,-384,11.434,4.89563,-0.00211896,-0.00143735,0.00192697,0.000178718,-0.00373503,0.872924,0.00255168,0.0138895,1896,1408,11.434,-4.89565
679,-384,11.3969,4.7124,-0.00254726,-0.00118791,0.00166987,-6.46864e-05,-0.00367048,0.978671,0.00242571,0.0146967,1903,1408,11.3968,-4.71246
686,-384,11.3972,4.53503,-0.00313244,-0.00114598,0.00165439,-0.000209566,-0.00406885,1.05574,0.00264548,0.0121442,1910,1408,11.3972,-4.53501
693,-384,11.4241,4.33191,-0.00378232,-0.00109,0.00161547,-0.000333332,-0.00453899,1.13275,0.00292123,0.0160838,1917,1408,11.4241,-4.33189
700,-384,11.299,4.2179,-0.00411393,-0.000800676,0.00120826,-0.000406861,-0.00450774,1.25572,0.00287914,0.0365623,1924,1408,11.2989,-4.21786
707,-384,11.413,3.729,0,0,0,0,0,0,0,-1,1931,1408,11.413,-3.72896
714,-384,11.5903,3.41956,0,0,0,0,0,0,0,-1,1938,1408,11.5903,-3.41954
721,-384,12.5815,6.69556,0,0,0,0,0,0,0,-1,1945,1408,12.5816,-6.69556
728,-384,12.9172,6.28796,0,0,0,0,0,0,0,-1,1952,1408,12.9173,-6.28802
735,-384,13.028,6.02173,0,0,0,0,0,0,0,-1,1959,1408,13.028,-6.02172
742,-384,0,0,0,0,0,0,0,0,0,-1,1966,1408,0,0
749,-384,0,0,0,0,0,0,0,0,0,-1,1973,1408,0,0
756,-384,0,0,0,0,0,0,0,0,0,-1,1980,1408,0,0
763,-384,0,0,0,0,0,0,0,0,0,-1,1987,1408,0,0
770,-384,0,0,0,0,0,0,0,0,0,-1,1994,1408,0,0
777,-384,0,0,0,0,0,0,0,0,0,-1,2001,1408,0,0
784,-384,0,0,0,0,0,0,0,0,0,-1,2008,1408,0,0
791,-384,0,0,0,0,0,0,0,0,0,-1,2015,1408,0,0
798,-384,0,0,0,0,0,0,0,0,0,-1,2022,1408,0,0
805,-384,0,0,0,0,0,0,0,0,0,-1,2029,1408,0,0
812,-384,0,0,0,0,0,0,0,0,0,-1,2036,1408,0,0
-700,-391,0,0,0,0,0,0,0,0,0,-1,524,1415,0,0
-693,-391,0,0,0,0,0,0,0,0,0,-1,531,1415,0,0
-686,-391,0,0,0,0,0,0,0,0,0,-1,538,1415,0,0
-679,-391,0,0,0,0,0,0,0,0,0,-1,545,1415,0,0
-672,-391,0,0,0,0,0,0,0,0,0,-1,552,1415,0,0
-665,-391,0,0,0,0,0,0,0,0,0,-1,559,1415,0,0
-658,-391,0,0,0,0,0,0,0,0,0,-1,566,1415,0,0
-651,-391,0,0,0,0,0,0,0,0,0,-1,573,1415,0,0
-644,-391,0,0,0,0,0,0,0,0,0,-1,580,1415,0,0
-637,-391,0,0,0,0,0,0,0,0,0,-1,587,1415,0,0
-630,-391,0,0,0,0,0,0,0,0,0,-1,594,1415,0,0
-623,-391,0,0,0,0,0,0,0,0,0,-1,601,1415,0,0
-616,-391,0,0,0,0,0,0,0,0,0,-1,608,1415,0,0
-609,-391,-3.49896,-3.13977,0,0,0,0,0,0,0,-1,615,1415,-3.49898,3.13983
-602,-391,-2.59613,-1.59216,0,0,0,0,0,0,0,-1,622,1415,-2.59616,1.59214
-595,-391,-2.24915,-0.24646,0,0,0,0,0,0,0,-1,629,1415,-2.24916,0.246446
-588,-391,-3.35028,1.27734,0,0,0,0,0,0,0,-1,636,1415,-3.35027,-1.2774
-581,-391,-4.09814,1.15039,0,0,0,0,0,0,0,-1,643,1415,-4.09815,-1.15041
-574,-391,-4.15442,1.67725,0,0,0,0,0,0,0,-1,650,1415,-4.15443,-1.67729
-567,-391,-3.77448,2.38074,0,0,0,0,0,0,0,-1,657,1415,-3.77445,-2.38078
-560,-391,-3.87714,2.50635,0.00923079,0.00638396,0.0125627,0.0204505,-0.00483576,0.728987,0.0154991,0.0354749,664,1415,-3.87715,-2.50637
-553,-391,-3.94128,2.6123,0.00629321,0.00263175,0.00721656,0.0119076,-0.00298267,0.661176,0.00909712,0.0217538,671,1415,-3.94128,-2.61229
-546,-391,-3.96667,2.82031,0.00364357,-0.00019899,0.00293537,0.00523053,-0.00178595,0.495623,0.00421054,0.0114849,678,1415,-3.96667,-2.82036
-539,-391,-3.95178,3.01599,0.00204874,-0.00154198,0.000574501,0.00213842,-0.00163165,0.154848,0.0021832,0.0137319,685,1415,-3.95176,-3.01594
-532,-391,-3.91034,3.22729,0.00136042,-0.00128884,-0.000124651,0.00136627,-0.0012947,-0.0469132,0.0015365,0.0259457,692,1415,-3.91031,-3.22725
-525,-391,-3.9422,3.42297,0.000733579,-0.0011951,-0.000924464,0.00110512,-0.00156664,-0.382145,0.0015502,0.0247115,699,1415,-3.94218,-3.42291
-518,-391,-3.98077,3.61792,-0.000318631,-0.00131475,-0.00176824,0.00102035,-0.00265373,-0.648119,0.00218999,0.0139855,706,1415,-3.9808,-3.61796
-511,-391,-3.9787,3.81348,-0.00201699,-0.00108691,-0.00286833,0.00135384,-0.00445773,-0.865763,0.00351121,0.0116037,713,1415,-3.97872,-3.81349
-504,-391,-3.98199,4.02173,-0.00400991,-0.00122707,-0.00427375,0.00187606,-0.00711304,-0.942773,0.00547558,0.0108584,720,1415,-3.98199,-4.02176
-497,-391,-3.96649,4.20752,-0.0062243,-0.00149665,-0.0062421,0.00281422,-0.0105352,-0.966399,0.00812562,0.00985345,727,1415,-3.9665,-4.20751
-490,-391,-3.92523,4.44336,-0.00896272,-0.00209697,-0.00875351,0.00387274,-0.0149324,-0.972268,0.011466,0.0148256,734,1415,-3.92523,-4.44331
-483,-391,-3.88892,4.57568,-0.0124594,-0.00269642,-0.0120302,0.00540496,-0.0205608,-0.978134,0.0158197,0.0365148,741,1415,-3.88893,-4.57571
-476,-391,-3.74872,4.18591,0,0,0,0,0,0,0,-1,748,1415,-3.7487,-4.18588
-469,-391,-4.04565,4.57422,-0.0228326,-0.00393906,-0.0215208,0.010117,-0.0368887,-0.992216,0.0285683,0.0438943,755,1415,-4.04562,-4.57416
-462,-391,-4.42615,5.08862,0,0,0,0,0,0,0,-1,762,1415,-4.42614,-5.08867
-455,-391,-4.95203,5.32104,0,0,0,0,0,0,0,-1,769,1415,-4.95203,-5.32103
-448,-391,-4.15601,2.72815,0,0,0,0,0,0,0,-1,776,1415,-4.156,-2.72814
-441,-391,-2.80511,1.66772,0,0,0,0,0,0,0,-1,783,1415,-2.80509,-1.66773
-434,-391,-4.99182,0.0065918,0,0,0,0,0,0,0,-1,790,1415,-4.99185,-0.00653608
-427,-391,-4.73364,0.990479,0,0,0,0,0,0,0,-1,797,1415,-4.73362,-0.990476
-420,-391,-4.47412,1.97998,0,0,0,0,0,0,0,-1,804,1415,-4.47412,-1.97998
-413,-391,0,0,0,0,0,0,0,0,0,-1,811,1415,0,0
-406,-391,0,0,0,0,0,0,0,0,0,-1,818,1415,0,0
-399,-391,0,0,0,0,0,0,0,0,0,-1,825,1415,0,0
-392,-391,0,0,0,0,0,0,0,0,0,-1,832,1415,0,0
-385,-391,0,0,0,0,0,0,0,0,0,-1,839,1415,0,0
-378,-391,0,0,0,0,0,0,0,0,0,-1,846,1415,0,0
-371,-391,0,0,0,0,0,0,0,0,0,-1,853,1415,0,0
-364,-391,0,0,0,0,0,0,0,0,0,-1,860,1415,0,0
-357,-391,0,0,0,0,0,0,0,0,0,-1,867,1415,0,0
-350,-391,0,0,0,0,0,0,0,0,0,-1,874,1415,0,0
-343,-391,0,0,0,0,0,0,0,0,0,-1,881,1415,0,0
-336,-391,0,0,0,0,0,0,0,0,0,-1,888,1415,0,0
-329,-391,0,0,0,0,0,0,0,0,0,-1,895,1415,0,0
-322,-391,0,0,0,0,0,0,0,0,0,-1,902,1415,0,0
-315,-391,0,0,0,0,0,0,0,0,0,-1,909,1415,0,0
-308,-391,0,0,0,0,0,0,0,0,0,-1,916,1415,0,0
-301,-391,0,0,0,0,0,0,0,0,0,-1,923,1415,0,0
-294,-391,0,0,0,0,0,0,0,0,0,-1,930,1415,0,0
-287,-391,0,0,0,0,0,0,0,0,0,-1,937,1415,0,0
-280,-391,0,0,0,0,0,0,0,0,0,-1,944,1415,0,0
-273,-391,0,0,0,0,0,0,0,0,0,-1,951,1415,0,0
-266,-391,0,0,0,0,0,0,0,0,0,-1,958,1415,0,0
-259,-391,0,0,0,0,0,0,0,0,0,-1,965,1415,0,0
-252,-391,0,0,0,0,0,0,0,0,0,-1,972,1415,0,0
-245,-391,0,0,0,0,0,0,0,0,0,-1,979,1415,0,0
-238,-391,0,0,0,0,0,0,0,0,0,-1,986,1415,0,0
-231,-391,0,0,0,0,0,0,0,0,0,-1,993,1415,0,0
-224,-391,0,0,0,0,0,0,0,0,0,-1,1000,1415,0,0
-217,-391,0,0,0,0,0,0,0,0,0,-1,1007,1415,0,0
-210,-391,0,0,0,0,0,0,0,0,0,-1,1014,1415,0,0
-203,-391,0,0,0,0,0,0,0,0,0,-1,1021,1415,0,0
-196,-391,0,0,0,0,0,0,0,0,0,-1,1028,1415,0,0
-189,-391,0,0,0,0,0,0,0,0,0,-1,1035,1415,0,0
-182,-391,0,0,0,0,0,0,0,0,0,-1,1042,1415,0,0
-175,-391,0,0,0,0,0,0,0,0,0,-1,1049,1415,0,0
-168,-391,0,0,0,0,0,0,0,0,0,-1,1056,1415,0,0
-161,-391,0,0,0,0,0,0,0,0,0,-1,1063,1415,0,0
-154,-391,0,0,0,0,0,0,0,0,0,-1,1070,1415,0,0
-147,-391,0,0,0,0,0,0,0,0,0,-1,1077,1415,0,0
-140,-391,0,0,0,0,0,0,0,0,0,-1,1084,1415,0,0
-133,-391,0,0,0,0,0,0,0,0,0,-1,1091,1415,0,0
-126,-391,0,0,0,0,0,0,0,0,0,-1,1098,1415,0,0
-119,-391,0,0,0,0,0,0,0,0,0,-1,1105,1415,0,0
-112,-391,0,0,0,0,0,0,0,0,0,-1,1112,1415,0,0
-105,-391,0,0,0,0,0,0,0,0,0,-1,1119,1415,0,0
-98,-391,0,0,0,0,0,0,0,0,0,-1,1126,1415,0,0
-91,-391,0,0,0,0,0,0,0,0,0,-1,1133,1415,0,0
-84,-391,0,0,0,0,0,0,0,0,0,-1,1140,1415,0,0
-77,-391,0,0,0,0,0,0,0,0,0,-1,1147,1415,0,0
-70,-391,0,0,0,0,0,0,0,0,0,-1,1154,1415,0,0
-63,-391,0,0,0,0,0,0,0,0,0,-1,1161,1415,0,0
-56,-391,0,0,0,0,0,0,0,0,0,-1,1168,1415,0,0
-49,-391,0,0,0,0,0,0,0,0,0,-1,1175,1415,0,0
-42,-391,0,0,0,0,0,0,0,0,0,-1,1182,1415,0,0
-35,-391,0,0,0,0,0,0,0,0,0,-1,1189,1415,0,0
-28,-391,0,0,0,0,0,0,0,0,0,-1,1196,1415,0,0
-21,-391,0,0,0,0,0,0,0,0,0,-1,1203,1415,0,0
-14,-391,0,0,0,0,0,0,0,0,0,-1,1210,1415,0,0
-7,-391,0,0,0,0,0,0,0,0,0,-1,1217,1415,0,0
0,-391,0,0,0,0,0,0,0,0,0,-1,1224,1415,0,0
7,-391,0,0,0,0,0,0,0,0,0,-1,1231,1415,0,0
14,-391,0,0,0,0,0,0,0,0,0,-1,1238,1415,0,0
21,-391,0,0,0,0,0,0,0,0,0,-1,1245,1415,0,0
28,-391,0,0,0,0,0,0,0,0,0,-1,1252,1415,0,0
35,-391,0,0,0,0,0,0,0,0,0,-1,1259,1415,0,0
42,-391,0,0,0,0,0,0,0,0,0,-1,1266,1415,0,0
49,-391,0,0,0,0,0,0,0,0,0,-1,1273,1415,0,0
56,-391,0,0,0,0,0,0,0,0,0,-1,1280,1415,0,0
63,-391,0,0,0,0,0,0,0,0,0,-1,1287,1415,0,0
70,-391,0,0,0,0,0,0,0,0,0,-1,1294,1415,0,0
77,-391,0,0,0,0,0,0,0,0,0,-1,1301,1415,0,0
84,-391,0,0,0,0,0,0,0,0,0,-1,1308,1415,0,0
91,-391,0,0,0,0,0,0,0,0,0,-1,1315,1415,0,0
98,-391,0,0,0,0,0,0,0,0,0,-1,1322,1415,0,0
105,-391,0,0,0,0,0,0,0,0,0,-1,1329,1415,0,0
112,-391,0,0,0,0,0,0,0,0,0,-1,1336,1415,0,0
119,-391,0,0,0,0,0,0,0,0,0,-1,1343,1415,0,0
126,-391,0,0,0,0,0,0,0,0,0,-1,1350,1415,0,0
133,-391,0,0,0,0,0,0,0,0,0,-1,1357,1415,0,0
140,-391,0,0,0,0,0,0,0,0,0,-1,1364,1415,0,0
147,-391,0,0,0,0,0,0,0,0,0,-1,1371,1415,0,0
154,-391,0,0,0,0,0,0,0,0,0,-1,1378,1415,0,0
161,-391,0,0,0,0,0,0,0,0,0,-1,1385,1415,0,0
168,-391,0,0,0,0,0,0,0,0,0,-1,1392,1415,0,0
175,-391,0,0,0,0,0,0,0,0,0,-1,1399,1415,0,0
182,-391,0,0,0,0,0,0,0,0,0,-1,1406,1415,0,0
189,-391,0,0,0,0,0,0,0,0,0,-1,1413,1415,0,0
196,-391,0,0,0,0,0,0,0,0,0,-1,1420,1415,0,0
203,-391,0,0,0,0,0,0,0,0,0,-1,1427,1415,0,0
210,-391,0,0,0,0,0,0,0,0,0,-1,1434,1415,0,0
217,-391,0,0,0,0,0,0,0,0,0,-1,1441,1415,0,0
224,-391,0,0,0,0,0,0,0,0,0,-1,1448,1415,0,0
231,-391,0,0,0,0,0,0,0,0,0,-1,1455,1415,0,0
238,-391,0,0,0,0,0,0,0,0,0,-1,1462,1415,0,0
245,-391,0,0,0,0,0,0,0,0,0,-1,1469,1415,0,0
252,-391,0,0,0,0,0,0,0,0,0,-1,1476,1415,0,0
259,-391,0,0,0,0,0,0,0,0,0,-1,1483,1415,0,0
266,-391,0,0,0,0,0,0,0,0,0,-1,1490,1415,0,0
273,-391,0,0,0,0,0,0,0,0,0,-1,1497,1415,0,0
280,-391,0,0,0,0,0,0,0,0,0,-1,1504,1415,0,0
287,-391,0,0,0,0,0,0,0,0,0,-1,1511,1415,0,0
294,-391,0,0,0,0,0,0,0,0,0,-1,1518,1415,0,0
301,-391,0,0,0,0,0,0,0,0,0,-1,1525,1415,0,0
308,-391,0,0,0,0,0,0,0,0,0,-1,1532,1415,0,0
315,-391,0,0,0,0,0,0,0,0,0,-1,1539,1415,0,0
322,-391,0,0,0,0,0,0,0,0,0,-1,1546,1415,0,0
329,-391,0,0,0,0,0,0,0,0,0,-1,1553,1415,0,0
336,-391,0,0,0,0,0,0,0,0,0,-1,1560,1415,0,0
343,-391,0,0,0,0,0,0,0,0,0,-1,1567,1415,0,0
350,-391,0,0,0,0,0,0,0,0,0,-1,1574,1415,0,0
357,-391,0,0,0,0,0,0,0,0,0,-1,1581,1415,0,0
364,-391,0,0,0,0,0,0,0,0,0,-1,1588,1415,0,0
371,-391,0,0,0,0,0,0,0,0,0,-1,1595,1415,0,0
378,-391,0,0,0,0,0,0,0,0,0,-1,1602,1415,0,0
385,-391,0,0,0,0,0,0,0,0,0,-1,1609,1415,0,0
392,-391,0,0,0,0,0,0,0,0,0,-1,1616,1415,0,0
399,-391,0,0,0,0,0,0,0,0,0,-1,1623,1415,0,0
406,-391,0,0,0,0,0,0,0,0,0,-1,1630,1415,0,0
413,-391,0,0,0,0,0,0,0,0,0,-1,1637,1415,0,0
420,-391,0,0,0,0,0,0,0,0,0,-1,1644,1415,0,0
427,-391,0,0,0,0,0,0,0,0,0,-1,1651,1415,0,0
434,-391,0,0,0,0,0,0,0,0,0,-1,1658,1415,0,0
441,-391,0,0,0,0,0,0,0,0,0,-1,1665,1415,0,0
448,-391,0,0,0,0,0,0,0,0,0,-1,1672,1415,0,0
455,-391,0,0,0,0,0,0,0,0,0,-1,1679,1415,0,0
462,-391,0,0,0,0,0,0,0,0,0,-1,1686,1415,0,0
469,-391,0,0,0,0,0,0,0,0,0,-1,1693,1415,0,0
476,-391,0,0,0,0,0,0,0,0,0,-1,1700,1415,0,0
483,-391,0,0,0,0,0,0,0,0,0,-1,1707,1415,0,0
490,-391,0,0,0,0,0,0,0,0,0,-1,1714,1415,0,0
497,-391,0,0,0,0,0,0,0,0,0,-1,1721,1415,0,0
504,-391,0,0,0,0,0,0,0,0,0,-1,1728,1415,0,0
511,-391,0,0,0,0,0,0,0,0,0,-1,1735,1415,0,0
518,-391,0,0,0,0,0,0,0,0,0,-1,1742,1415,0,0
525,-391,0,0,0,0,0,0,0,0,0,-1,1749,1415,0,0
532,-391,14.0776,2.49634,0,0,0,0,0,0,0,-1,1756,1415,14.0776,-2.49637
539,-391,14.6643,2.64636,0,0,0,0,0,0,0,-1,1763,1415,14.6643,-2.64638
546,-391,15.4535,2.6123,0,0,0,0,0,0,0,-1,1770,1415,15.4535,-2.61233
553,-391,15.4753,2.77844,0,0,0,0,0,0,0,-1,1777,1415,15.4754,-2.77844
560,-391,15.259,2.96619,0,0,0,0,0,0,0,-1,1784,1415,15.259,-2.96619
567,-391,14.9443,3.43286,0,0,0,0,0,0,0,-1,1791,1415,14.9443,-3.43288
574,-391,14.7999,3.80591,0,0,0,0,0,0,0,-1,1798,1415,14.7999,-3.80592
581,-391,14.6332,3.76685,0,0,0,0,0,0,0,-1,1805,1415,14.6331,-3.76679
588,-391,12.8027,3.39819,0,0,0,0,0,0,0,-1,1812,1415,12.8028,-3.39813
595,-391,12.3188,3.80542,0,0,0,0,0,0,0,-1,1819,1415,12.3188,-3.80539
602,-391,11.9331,4.98499,0,0,0,0,0,0,0,-1,1826,1415,11.9331,-4.98493
609,-391,11.5741,5.17444,-0.0165235,-0.0190107,0.0279897,0.0102502,-0.0457843,0.763197,0.0344517,0.04596,1833,1415,11.5741,-5.1744
616,-391,11.3174,5.84863,-0.013171,-0.0158705,0.0224877,0.00800737,-0.0370489,0.755424,0.0277561,0.0348725,1840,1415,11.3174,-5.84865
623,-391,11.2644,6.05713,-0.0100037,-0.0127417,0.0174432,0.00612413,-0.0288695,0.746237,0.0215794,0.018934,1847,1415,11.2644,-6.05716
630,-391,11.248,5.8927,-0.00721128,-0.00987095,0.0131383,0.00466433,-0.0217466,0.734961,0.0162768,0.0157087,1854,1415,11.2481,-5.89273
637,-391,11.2202,5.73242,-0.00510931,-0.00762976,0.00966794,0.00338019,-0.0161193,0.720588,0.0120322,0.0146713,1861,1415,11.2203,-5.73237
644,-391,11.1987,5.57544,-0.00367948,-0.00577624,0.00702751,0.00237742,-0.0118331,0.711353,0.00878908,0.0151715,1868,1415,11.1988,-5.5754
651,-391,11.2113,5.41309,-0.00233171,-0.00432676,0.00497713,0.00174688,-0.00840535,0.686498,0.00626754,0.0166398,1875,1415,11.2113,-5.41312
658,-391,11.2338,5.23267,-0.00171595,-0.00330494,0.00364784,0.00122292,-0.0062438,0.678174,0.00462439,0.015534,1882,1415,11.2337,-5.23268
665,-391,11.2463,5.07861,-0.00149945,-0.00245856,0.00262295,0.000687431,-0.00464543,0.694982,0.0033497,0.012413,1889,1415,11.2463,-5.07856
672,-391,11.2559,4.89319,-0.00190314,-0.00227745,0.00232666,0.000243885,-0.00442447,0.745266,0.00303421,0.0118057,1896,1415,11.2558,-4.89315
679,-391,11.2433,4.72375,-0.00256486,-0.00246649,0.00252666,1.1463e-05,-0.00504281,0.79513,0.0033657,0.0119775,1903,1415,11.2433,-4.72375
686,-391,11.2372,4.53528,-0.00347278,-0.00292919,0.00300723,-0.000181492,-0.00622047,0.830465,0.00408783,0.0133951,1910,1415,11.2372,-4.53526
693,-391,11.209,4.36755,-0.00465734,-0.00341749,0.00368269,-0.000302914,-0.00777191,0.868784,0.00508331,0.0266973,1917,1415,11.209,-4.36755
700,-391,10.9956,4.30408,0,0,0,0,0,0,0,-1,1924,1415,10.9956,-4.30411
707,-391,10.7288,4.56091,0,0,0,0,0,0,0,-1,1931,1415,10.7288,-4.56091
714,-391,11.5524,5.5033,0,0,0,0,0,0,0,-1,1938,1415,11.5523,-5.50331
721,-391,12.3358,6.09009,0,0,0,0,0,0,0,-1,1945,1415,12.3358,-6.09009
728,-391,13.4933,6.71106,0,0,0,0,0,0,0,-1,1952,1415,13.4933,-6.71106
735,-391,0,0,0,0,0,0,0,0,0,-1,1959,1415,0,0
742,-391,0,0,0,0,0,0,0,0,0,-1,1966,1415,0,0
749,-391,0,0,0,0,0,0,0,0,0,-1,1973,1415,0,0
756,-391,0,0,0,0,0,0,0,0,0,-1,1980,1415,0,0
763,-391,0,0,0,0,0,0,0,0,0,-1,1987,1415,0,0
770,-391,0,0,0,0,0,0,0,0,0,-1,1994,1415,0,0
777,-391,0,0,0,0,0,0,0,0,0,-1,2001,1415,0,0
784,-391,0,0,0,0,0,0,0,0,0,-1,2008,1415,0,0
791,-391,0,0,0,0,0,0,0,0,0,-1,2015,1415,0,0
798,-391,0,0,0,0,0,0,0,0,0,-1,2022,1415,0,0
805,-391,0,0,0,0,0,0,0,0,0,-1,2029,1415,0,0
812,-391,0,0,0,0,0,0,0,0,0,-1,2036,1415,0,0
-700,-398,0,0,0,0,0,0,0,0,0,-1,524,1422,0,0
-693,-398,0,0,0,0,0,0,0,0,0,-1,531,1422,0,0
-686,-398,0,0,0,0,0,0,0,0,0,-1,538,1422,0,0
-679,-398,0,0,0,0,0,0,0,0,0,-1,545,1422,0,0
-672,-398,0,0,0,0,0,0,0,0,0,-1,552,1422,0,0
-665,-398,0,0,0,0,0,0,0,0,0,-1,559,1422,0,0
-658,-398,0,0,0,0,0,0,0,0,0,-1,566,1422,0,0
-651,-398,0,0,0,0,0,0,0,0,0,-1,573,1422,0,0
-644,-398,0,0,0,0,0,0,0,0,0,-1,580,1422,0,0
-637,-398,0,0,0,0,0,0,0,0,0,-1,587,1422,0,0
-630,-398,0,0,0,0,0,0,0,0,0,-1,594,1422,0,0
-623,-398,0,0,0,0,0,0,0,0,0,-1,601,1422,0,0
-616,-398,0,0,0,0,0,0,0,0,0,-1,608,1422,0,0
-609,-398,-4.10541,-3.99109,0,0,0,0,0,0,0,-1,615,1422,-4.1054,3.9911
-602,-398,-3.29889,-2.50366,0.0794094,0.101275,0.12368,0.214504,-0.0338201,0.829481,0.155507,0.0450222,622,1422,-3.29887,2.50371
-595,-398,-2.77258,-1.12231,0.0671692,0.0785535,0.099754,0.172778,-0.027055,0.813898,0.125182,0.0446,629,1422,-2.77261,1.12229
-588,-398,-6.79309,3.12769,0,0,0,0,0,0,0,-1,636,1422,-6.79307,-3.12763
-581,-398,-5.99091,2.90466,0,0,0,0,0,0,0,-1,643,1422,-5.99088,-2.90472
-574,-398,-4.44025,1.22742,0,0,0,0,0,0,0,-1,650,1422,-4.44024,-1.22741
-567,-398,-4.33777,2.06702,0.0217629,0.0144696,0.0254764,0.0438523,-0.0076198,0.714312,0.0320779,0.0459977,657,1422,-4.33778,-2.06706
-560,-398,-3.81934,2.3407,0.0150929,0.00716949,0.0155469,0.0271749,-0.00491256,0.660642,0.0199567,0.0411895,664,1422,-3.81934,-2.34074
-553,-398,-3.70819,2.6532,0.0103356,0.00279225,0.00897324,0.0162976,-0.00316977,0.586447,0.0120613,0.0275412,671,1422,-3.70817,-2.65318
-546,-398,-3.77124,2.83081,0.00627967,-0.000561103,0.00369301,0.00789291,-0.00217434,0.411852,0.00611692,0.0136827,678,1422,-3.77121,-2.83084
-539,-398,-3.75189,3.03162,0.00383171,-0.00211105,0.000849417,0.00395074,-0.00223008,0.13922,0.00361429,0.0117998,685,1422,-3.75191,-3.0316
-532,-398,-3.7428,3.21265,0.00273425,-0.00164709,0.00018021,0.00274165,-0.00165449,0.0410389,0.00256385,0.0199463,692,1422,-3.74282,-3.21259
-525,-398,-3.75928,3.40552,0.00184364,-0.00140837,-0.000529998,0.00192783,-0.00149257,-0.157546,0.00198009,0.0204119,699,1422,-3.75926,-3.40549
-518,-398,-3.75262,3.60522,0.000734919,-0.00142802,-0.00128415,0.00133232,-0.00202542,-0.435433,0.00195231,0.0172373,706,1422,-3.75265,-3.60525
-511,-398,-3.76044,3.78687,-0.000937509,-0.00111522,-0.00225894,0.00123432,-0.00328705,-0.76574,0.0026986,0.0122929,713,1422,-3.76046,-3.78684
-504,-398,-3.75946,4.00403,-0.00279246,-0.00123452,-0.00345393,0.00152719,-0.00555418,-0.896308,0.00430315,0.0128014,720,1422,-3.75948,-4.00404
-497,-398,-3.76215,4.21094,-0.0046945,-0.00140891,-0.00514347,0.00234775,-0.00845116,-0.939975,0.00655829,0.0102401,727,1422,-3.76213,-4.21098
-490,-398,-3.7514,4.41138,-0.00699145,-0.00193945,-0.00728964,0.00324944,-0.0121803,-0.952184,0.00939264,0.0105548,734,1422,-3.75138,-4.4114
-483,-398,-3.66742,4.65295,-0.00986956,-0.00248511,-0.0100681,0.00454643,-0.0169011,-0.961146,0.0130496,0.0201641,741,1422,-3.6674,-4.6529
-476,-398,-3.67853,4.37463,0,0,0,0,0,0,0,-1,748,1422,-3.6785,-4.37459
-469,-398,-3.87885,5.06897,0,0,0,0,0,0,0,-1,755,1422,-3.87887,-5.06898
-462,-398,-4.18127,5.6062,0,0,0,0,0,0,0,-1,762,1422,-4.1813,-5.60617
-455,-398,-4.63446,5.37317,0,0,0,0,0,0,0,-1,769,1422,-4.63443,-5.37316
-448,-398,-3.96271,3.68347,0,0,0,0,0,0,0,-1,776,1422,-3.96271,-3.68351
-441,-398,-2.95306,2.51233,0,0,0,0,0,0,0,-1,783,1422,-2.95305,-2.51227
-434,-398,-3.71259,0.368286,0,0,0,0,0,0,0,-1,790,1422,-3.7126,-0.368295
-427,-398,-3.55646,1.08508,0,0,0,0,0,0,0,-1,797,1422,-3.55649,-1.0851
-420,-398,-2.02679,3.55188,0,0,0,0,0,0,0,-1,804,1422,-2.02678,-3.5519
-413,-398,-1.77942,2.48938,0,0,0,0,0,0,0,-1,811,1422,-1.77943,-2.48934
-406,-398,0,0,0,0,0,0,0,0,0,-1,818,1422,0,0
-399,-398,0,0,0,0,0,0,0,0,0,-1,825,1422,0,0
-392,-398,0,0,0,0,0,0,0,0,0,-1,832,1422,0,0
-385,-398,0,0,0,0,0,0,0,0,0,-1,839,1422,0,0
-378,-398,0,0,0,0,0,0,0,0,0,-1,846,1422,0,0
-371,-398,0,0,0,0,0,0,0,0,0,-1,853,1422,0,0
-364,-398,0,0,0,0,0,0,0,0,0,-1,860,1422,0,0
-357,-398,0,0,0,0,0,0,0,0,0,-1,867,1422,0,0
-350,-398,0,0,0,0,0,0,0,0,0,-1,874,1422,0,0
-343,-398,0,0,0,0,0,0,0,0,0,-1,881,1422,0,0
-336,-398,0,0,0,0,0,0,0,0,0,-1,888,1422,0,0
-329,-398,0,0,0,0,0,0,0,0,0,-1,895,1422,0,0
-322,-398,0,0,0,0,0,0,0,0,0,-1,902,1422,0,0
-315,-398,0,0,0,0,0,0,0,0,0,-1,909,1422,0,0
-308,-398,0,0,0,0,0,0,0,0,0,-1,916,1422,0,0
-301,-398,0,0,0,0,0,0,0,0,0,-1,923,1422,0,0
-294,-398,0,0,0,0,0,0,0,0,0,-1,930,1422,0,0
-287,-398,0,0,0,0,0,0,0,0,0,-1,937,1422,0,0
-280,-398,0,0,0,0,0,0,0,0,0,-1,944,1422,0,0
-273,-398,0,0,0,0,0,0,0,0,0,-1,951,1422,0,0
-266,-398,0,0,0,0,0,0,0,0,0,-1,958,1422,0,0
-259,-398,0,0,0,0,0,0,0,0,0,-1,965,1422,0,0
-252,-398,0,0,0,0,0,0,0,0,0,-1,972,1422,0,0
-245,-398,0,0,0,0,0,0,0,0,0,-1,979,1422,0,0
-238,-398,0,0,0,0,0,0,0,0,0,-1,986,1422,0,0
-231,-398,0,0,0,0,0,0,0,0,0,-1,993,1422,0,0
-224,-398,0,0,0,0,0,0,0,0,0,-1,1000,1422,0,0
-217,-398,0,0,0,0,0,0,0,0,0,-1,1007,1422,0,0
-210,-398,0,0,0,0,0,0,0,0,0,-1,1014,1422,0,0
-203,-398,0,0,0,0,0,0,0,0,0,-1,1021,1422,0,0
-196,-398,0,0,0,0,0,0,0,0,0,-1,1028,1422,0,0
-189,-398,0,0,0,0,0,0,0,0,0,-1,1035,1422,0,0
-182,-398,0,0,0,0,0,0,0,0,0,-1,1042,1422,0,0
-175,-398,0,0,0,0,0,0,0,0,0,-1,1049,1422,0,0
-168,-398,0,0,0,0,0,0,0,0,0,-1,1056,1422,0,0
-161,-398,0,0,0,0,0,0,0,0,0,-1,1063,1422,0,0
-154,-398,0,0,0,0,0,0,0,0,0,-1,1070,1422,0,0
-147,-398,0,0,0,0,0,0,0,0,0,-1,1077,1422,0,0
-140,-398,0,0,0,0,0,0,0,0,0,-1,1084,1422,0,0
-133,-398,0,0,0,0,0,0,0,0,0,-1,1091,1422,0,0
-126,-398,0,0,0,0,0,0,0,0,0,-1,1098,1422,0,0
-119,-398,0,0,0,0,0,0,0,0,0,-1,1105,1422,0,0
-112,-398,0,0,0,0,0,0,0,0,0,-1,1112,1422,0,0
-105,-398,0,0,0,0,0,0,0,0,0,-1,1119,1422,0,0
-98,-398,0,0,0,0,0,0,0,0,0,-1,1126,1422,0,0
-91,-398,0,0,0,0,0,0,0,0,0,-1,1133,1422,0,0
-84,-398,0,0,0,0,0,0,0,0,0,-1,1140,1422,0,0
-77,-398,0,0,0,0,0,0,0,0,0,-1,1147,1422,0,0
-70,-398,0,0,0,0,0,0,0,0,0,-1,1154,1422,0,0
-63,-398,0,0,0,0,0,0,0,0,0,-1,1161,1422,0,0
-56,-398,0,0,0,0,0,0,0,0,0,-1,1168,1422,0,0
-49,-398,0,0,0,0,0,0,0,0,0,-1,1175,1422,0,0
-42,-398,0,0,0,0,0,0,0,0,0,-1,1182,1422,0,0
-35,-398,0,0,0,0,0,0,0,0,0,-1,1189,1422,0,0
-28,-398,0,0,0,0,0,0,0,0,0,-1,1196,1422,0,0
-21,-398,0,0,0,0,0,0,0,0,0,-1,1203,1422,0,0
-14,-398,0,0,0,0,0,0,0,0,0,-1,1210,1422,0,0
-7,-398,0,0,0,0,0,0,0,0,0,-1,1217,1422,0,0
0,-398,0,0,0,0,0,0,0,0,0,-1,1224,1422,0,0
7,-398,0,0,0,0,0,0,0,0,0,-1,1231,1422,0,0
14,-398,0,0,0,0,0,0,0,0,0,-1,1238,1422,0,0
21,-398,0,0,0,0,0,0,0,0,0,-1,1245,1422,0,0
28,-398,0,0,0,0,0,0,0,0,0,-1,1252,1422,0,0
35,-398,0,0,0,0,0,0,0,0,0,-1,1259,1422,0,0
42,-398,0,0,0,0,0,0,0,0,0,-1,1266,1422,0,0
49,-398,0,0,0,0,0,0,0,0,0,-1,1273,1422,0,0
56,-398,0,0,0,0,0,0,0,0,0,-1,1280,1422,0,0
63,-398,0,0,0,0,0,0,0,0,0,-1,1287,1422,0,0
70,-398,0,0,0,0,0,0,0,0,0,-1,1294,1422,0,0
77,-398,0,0,0,0,0,0,0,0,0,-1,1301,1422,0,0
84,-398,0,0,0,0,0,0,0,0,0,-1,1308,1422,0,0
91,-398,0,0,0,0,0,0,0,0,0,-1,1315,1422,0,0
98,-398,0,0,0,0,0,0,0,0,0,-1,1322,1422,0,0
105,-398,0,0,0,0,0,0,0,0,0,-1,1329,1422,0,0
112,-398,0,0,0,0,0,0,0,0,0,-1,1336,1422,0,0
119,-398,0,0,0,0,0,0,0,0,0,-1,1343,1422,0,0
126,-398,0,0,0,0,0,0,0,0,0,-1,1350,1422,0,0
133,-398,0,0,0,0,0,0,0,0,0,-1,1357,1422,0,0
140,-398,0,0,0,0,0,0,0,0,0,-1,1364,1422,0,0
147,-398,0,0,0,0,0,0,0,0,0,-1,1371,1422,0,0
154,-398,0,0,0,0,0,0,0,0,0,-1,1378,1422,0,0
161,-398,0,0,0,0,0,0,0,0,0,-1,1385,1422,0,0
168,-398,0,0,0,0,0,0,0,0,0,-1,1392,1422,0,0
175,-398,0,0,0,0,0,0,0,0,0,-1,1399,1422,0,0
182,-398,0,0,0,0,0,0,0,0,0,-1,1406,1422,0,0
189,-398,0,0,0,0,0,0,0,0,0,-1,1413,1422,0,0
196,-398,0,0,0,0,0,0,0,0,0,-1,1420,1422,0,0
203,-398,0,0,0,0,0,0,0,0,0,-1,1427,1422,0,0
210,-398,0,0,0,0,0,0,0,0,0,-1,1434,1422,0,0
217,-398,0,0,0,0,0,0,0,0,0,-1,1441,1422,0,0
224,-398,0,0,0,0,0,0,0,0,0,-1,1448,1422,0,0
231,-398,0,0,0,0,0,0,0,0,0,-1,1455,1422,0,0
238,-398,0,0,0,0,0,0,0,0,0,-1,1462,1422,0,0
245,-398,0,0,0,0,0,0,0,0,0,-1,1469,1422,0,0
252,-398,0,0,0,0,0,0,0,0,0,-1,1476,1422,0,0
259,-398,0,0,0,0,0,0,0,0,0,-1,1483,1422,0,0
266,-398,0,0,0,0,0,0,0,0,0,-1,1490,1422,0,0
273,-398,0,0,0,0,0,0,0,0,0,-1,1497,1422,0,0
280,-398,0,0,0,0,0,0,0,0,0,-1,1504,1422,0,0
287,-398,0,0,0,0,0,0,0,0,0,-1,1511,1422,0,0
294,-398,0,0,0,0,0,0,0,0,0,-1,1518,1422,0,0
301,-398,0,0,0,0,0,0,0,0,0,-1,1525,1422,0,0
308,-398,0,0,0,0,0,0,0,0,0,-1,1532,1422,0,0
315,-398,0,0,0,0,0,0,0,0,0,-1,1539,1422,0,0
322,-398,0,0,0,0,0,0,0,0,0,-1,1546,1422,0,0
329,-398,0,0,0,0,0,0,0,0,0,-1,1553,1422,0,0
336,-398,0,0,0,0,0,0,0,0,0,-1,1560,1422,0,0
343,-398,0,0,0,0,0,0,0,0,0,-1,1567,1422,0,0
350,-398,0,0,0,0,0,0,0,0,0,-1,1574,1422,0,0
357,-398,0,0,0,0,0,0,0,0,0,-1,1581,1422,0,0
364,-398,0,0,0,0,0,0,0,0,0,-1,1588,1422,0,0
371,-398,0,0,0,0,0,0,0,0,0,-1,1595,1422,0,0
378,-398,0,0,0,0,0,0,0,0,0,-1,1602,1422,0,0
385,-398,0,0,0,0,0,0,0,0,0,-1,1609,1422,0,0
392,-398,0,0,0,0,0,0,0,0,0,-1,1616,1422,0,0
399,-398,0,0,0,0,0,0,0,0,0,-1,1623,1422,0,0
406,-398,0,0,0,0,0,0,0,0,0,-1,1630,1422,0,0
413,-398,0,0,0,0,0,0,0,0,0,-1,1637,1422,0,0
420,-398,0,0,0,0,0,0,0,0,0,-1,1644,1422,0,0
427,-398,0,0,0,0,0,0,0,0,0,-1,1651,1422,0,0
434,-398,0,0,0,0,0,0,0,0,0,-1,1658,1422,0,0
441,-398,0,0,0,0,0,0,0,0,0,-1,1665,1422,0,0
448,-398,0,0,0,0,0,0,0,0,0,-1,1672,1422,0,0
455,-398,0,0,0,0,0,0,0,0,0,-1,1679,1422,0,0
462,-398,0,0,0,0,0,0,0,0,0,-1,1686,1422,0,0
469,-398,0,0,0,0,0,0,0,0,0,-1,1693,1422,0,0
476,-398,0,0,0,0,0,0,0,0,0,-1,1700,1422,0,0
483,-398,0,0,0,0,0,0,0,0,0,-1,1707,1422,0,0
490,-398,0,0,0,0,0,0,0,0,0,-1,1714,1422,0,0
497,-398,0,0,0,0,0,0,0,0,0,-1,1721,1422,0,0
504,-398,0,0,0,0,0,0,0,0,0,-1,1728,1422,0,0
511,-398,0,0,0,0,0,0,0,0,0,-1,1735,1422,0,0
518,-398,0,0,0,0,0,0,0,0,0,-1,1742,1422,0,0
525,-398,0,0,0,0,0,0,0,0,0,-1,1749,1422,0,0
532,-398,14.3583,2.38013,0,0,0,0,0,0,0,-1,1756,1422,14.3583,-2.38009
539,-398,14.4083,2.59595,0,0,0,0,0,0,0,-1,1763,1422,14.4084,-2.59597
546,-398,15.1697,2.71484,0,0,0,0,0,0,0,-1,1770,1422,15.1697,-2.71489
553,-398,15.0483,2.65625,0,0,0,0,0,0,0,-1,1777,1422,15.0483,-2.65628
560,-398,14.8939,2.65112,0,0,0,0,0,0,0,-1,1784,1422,14.8939,-2.6511
567,-398,14.8154,3.60425,0,0,0,0,0,0,0,-1,1791,1422,14.8154,-3.60427
574,-398,14.564,3.85864,0,0,0,0,0,0,0,-1,1798,1422,14.564,-3.85858
581,-398,13.532,2.37219,0,0,0,0,0,0,0,-1,1805,1422,13.532,-2.37222
588,-398,13.5308,3.4978,0,0,0,0,0,0,0,-1,1812,1422,13.5308,-3.49777
595,-398,11.3235,4.23254,0,0,0,0,0,0,0,-1,1819,1422,11.3235,-4.23257
602,-398,11.8915,6.18469,0,0,0,0,0,0,0,-1,1826,1422,11.8915,-6.18474
609,-398,11.2036,5.89832,-0.0183484,-0.019848,0.0246534,0.00556663,-0.043763,0.770197,0.0311969,0.0398737,1833,1422,11.2037,-5.89832
616,-398,11.0955,6.19006,-0.0140094,-0.0159206,0.0195711,0.00462947,-0.0345595,0.761003,0.0247277,0.0168297,1840,1422,11.0954,-6.19003
623,-398,11.068,6.08618,-0.010209,-0.012378,0.0150008,0.00374645,-0.0263334,0.749313,0.0189284,0.010342,1847,1422,11.0679,-6.08615
630,-398,11.0808,5.91821,-0.00709258,-0.00937931,0.0111823,0.00300464,-0.0194765,0.734451,0.0140931,0.0113902,1854,1422,11.0808,-5.91823
637,-398,11.0659,5.73901,-0.00477657,-0.00716418,0.00818273,0.00229898,-0.0142397,0.712963,0.010345,0.0125731,1861,1422,11.0659,-5.73905
644,-398,11.0194,5.56226,-0.0033372,-0.00546574,0.00604061,0.00173218,-0.0105351,0.6982,0.00766631,0.0180124,1868,1422,11.0194,-5.56229
651,-398,11.0834,5.37488,-0.00214837,-0.00421868,0.0043503,0.00128824,-0.00765529,0.668595,0.00558271,0.0239917,1875,1422,11.0833,-5.37484
658,-398,11.1006,5.23608,-0.00164592,-0.00347168,0.00337283,0.000935378,-0.00605299,0.653236,0.00438053,0.0185015,1882,1422,11.1006,-5.23608
665,-398,11.0553,5.04932,-0.00160925,-0.00301268,0.00278655,0.000562577,-0.00518451,0.662051,0.00365831,0.0135264,1889,1422,11.0552,-5.04928
672,-398,11.0681,4.88647,-0.00226403,-0.00327779,0.00298912,0.000260882,-0.00580271,0.70141,0.0039583,0.0122801,1896,1422,11.0681,-4.88654
679,-398,11.0718,4.72266,-0.00327086,-0.00397115,0.00373933,0.000134687,-0.0073767,0.738715,0.0049633,0.0118733,1903,1422,11.0718,-4.72266
686,-398,11.0836,4.5343,-0.00463776,-0.00502296,0.00484763,2.10954e-05,-0.00968182,0.765543,0.00646159,0.0184686,1910,1422,11.0836,-4.53424
693,-398,10.9335,4.35779,-0.00642901,-0.00617059,0.00628133,-1.71363e-05,-0.0125825,0.795682,0.0083826,0.0453262,1917,1422,10.9334,-4.35776
700,-398,10.8182,4.12402,0,0,0,0,0,0,0,-1,1924,1422,10.8183,-4.12406
707,-398,10.9731,5.479,0,0,0,0,0,0,0,-1,1931,1422,10.9732,-5.47896
714,-398,11.7313,6.17346,0,0,0,0,0,0,0,-1,1938,1422,11.7313,-6.17348
721,-398,13.778,7.50818,0,0,0,0,0,0,0,-1,1945,1422,13.7779,-7.50821
728,-398,14.2487,6.92688,0,0,0,0,0,0,0,-1,1952,1422,14.2487,-6.92687
735,-398,0,0,0,0,0,0,0,0,0,-1,1959,1422,0,0
742,-398,0,0,0,0,0,0,0,0,0,-1,1966,1422,0,0
749,-398,0,0,0,0,0,0,0,0,0,-1,1973,1422,0,0
756,-398,0,0,0,0,0,0,0,0,0,-1,1980,1422,0,0
763,-398,0,0,0,0,0,0,0,0,0,-1,1987,1422,0,0
770,-398,0,0,0,0,0,0,0,0,0,-1,1994,1422,0,0
777,-398,0,0,0,0,0,0,0,0,0,-1,2001,1422,0,0
784,-398,0,0,0,0,0,0,0,0,0,-1,2008,1422,0,0
791,-398,0,0,0,0,0,0,0,0,0,-1,2015,1422,0,0
798,-398,0,0,0,0,0,0,0,0,0,-1,2022,1422,0,0
805,-398,0,0,0,0,0,0,0,0,0,-1,2029,1422,0,0
812,-398,0,0,0,0,0,0,0,0,0,-1,2036,1422,0,0
-700,-405,0,0,0,0,0,0,0,0,0,-1,524,1429,0,0
-693,-405,0,0,0,0,0,0,0,0,0,-1,531,1429,0,0
-686,-405,0,0,0,0,0,0,0,0,0,-1,538,1429,0,0
-679,-405,0,0,0,0,0,0,0,0,0,-1,545,1429,0,0
-672,-405,0,0,0,0,0,0,0,0,0,-1,552,1429,0,0
-665,-405,0,0,0,0,0,0,0,0,0,-1,559,1429,0,0
-658,-405,0,0,0,0,0,0,0,0,0,-1,566,1429,0,0
-651,-405,0,0,0,0,0,0,0,0,0,-1,573,1429,0,0
-644,-405,0,0,0,0,0,0,0,0,0,-1,580,1429,0,0
-637,-405,0,0,0,0,0,0,0,0,0,-1,587,1429,0,0
-630,-405,0,0,0,0,0,0,0,0,0,-1,594,1429,0,0
-623,-405,0,0,0,0,0,0,0,0,0,-1,601,1429,0,0
-616,-405,0,0,0,0,0,0,0,0,0,-1,608,1429,0,0
-609,-405,0,0,0,0,0,0,0,0,0,-1,615,1429,0,0
-602,-405,-3.60876,-3.24097,0.0988247,0.106868,0.134513,0.237419,-0.0317269,0.800342,0.169846,0.0414517,622,1429,-3.60874,3.24098
-595,-405,-3.10577,-1.92151,0.0852296,0.0836786,0.110112,0.194568,-0.0256602,0.781877,0.139057,0.0464822,629,1429,-3.10578,1.92149
-588,-405,-7.53772,2.56042,0,0,0,0,0,0,0,-1,636,1429,-7.53773,-2.56046
-581,-405,-6.60419,2.54785,0,0,0,0,0,0,0,-1,643,1429,-6.60418,-2.5479
-574,-405,-5.65741,2.48511,0,0,0,0,0,0,0,-1,650,1429,-5.65739,-2.48514
-567,-405,-4.80066,2.37219,0.0304528,0.0163685,0.0301124,0.0543355,-0.00751432,0.670532,0.0389707,0.04924,657,1429,-4.80069,-2.37219
-560,-405,-4.10492,2.15161,0.0214396,0.00803198,0.0185354,0.0344463,-0.00497471,0.61188,0.0247894,0.0453557,664,1429,-4.10492,-2.15156
-553,-405,-3.46564,2.6571,0.0147221,0.00302635,0.0107427,0.0211055,-0.00335702,0.536147,0.0153125,0.0409783,671,1429,-3.46567,-2.65705
-546,-405,-3.5791,2.83386,0.00913235,-0.000835101,0.00445484,0.0108332,-0.00253592,0.364711,0.0081992,0.0199706,678,1429,-3.57908,-2.83381
-539,-405,-3.58258,3.01086,0.00569463,-0.00258553,0.00112402,0.0058445,-0.0027354,0.132554,0.00506086,0.0107931,685,1429,-3.58259,-3.01086
-532,-405,-3.58655,3.21094,0.00408339,-0.00189218,0.000507547,0.00412619,-0.00193498,0.0841338,0.00357483,0.014324,692,1429,-3.58655,-3.2109
-525,-405,-3.5722,3.42566,0.00285479,-0.00151708,-0.00011689,0.00285791,-0.00152021,-0.0267114,0.00256674,0.0145632,699,1429,-3.57223,-3.42564
-518,-405,-3.55035,3.62842,0.00163163,-0.00144013,-0.000795681,0.0018255,-0.001634,-0.238997,0.00199836,0.0148905,706,1429,-3.55037,-3.62838
-511,-405,-3.56726,3.81091,-4.54299e-05,-0.00107792,-0.00165701,0.0011739,-0.00229724,-0.634388,0.00203875,0.014094,713,1429,-3.56724,-3.81089
-504,-405,-3.58069,4.01282,-0.00178748,-0.00119875,-0.00267189,0.00119494,-0.00418117,-0.840263,0.00325961,0.0156052,720,1429,-3.58067,-4.01278
-497,-405,-3.55957,4.23364,-0.00342282,-0.00131157,-0.00413267,0.00189816,-0.00663255,-0.910441,0.00517187,0.0140684,727,1429,-3.55957,-4.23363
-490,-405,-3.55029,4.43286,-0.00534192,-0.00179114,-0.00598838,0.00267948,-0.00981254,-0.929507,0.0075941,0.0129369,734,1429,-3.55032,-4.43289
-483,-405,-3.53003,4.62158,-0.00765985,-0.0023217,-0.00834958,0.00377503,-0.0137566,-0.940098,0.0106547,0.0118022,741,1429,-3.53,-4.62159
-476,-405,-3.51398,4.80627,-0.0106198,-0.00292564,-0.0114682,0.00532355,-0.018869,-0.947228,0.0146792,0.0277238,748,1429,-3.51398,-4.80633
-469,-405,-3.67999,5.07837,-0.0144285,-0.00364353,-0.0154609,0.00733833,-0.0254103,-0.953192,0.0198439,0.0419551,755,1429,-3.67998,-5.0784
-462,-405,-3.84247,5.46069,-0.0192429,-0.00443456,-0.0206237,0.0100738,-0.0337513,-0.957738,0.0265048,0.0444785,762,1429,-3.84248,-5.46067
-455,-405,-4.12244,5.37183,-0.0252331,-0.0054243,-0.0271741,0.0135941,-0.0442515,-0.960156,0.0349256,0.0484393,769,1429,-4.12246,-5.37183
-448,-405,-4.46088,5.05566,0,0,0,0,0,0,0,-1,776,1429,-4.46088,-5.05566
-441,-405,-2.69183,2.41272,0,0,0,0,0,0,0,-1,783,1429,-2.69185,-2.41272
-434,-405,-1.48053,1.55676,0,0,0,0,0,0,0,-1,790,1429,-1.48053,-1.55682
-427,-405,-2.31445,4.56921,0,0,0,0,0,0,0,-1,797,1429,-2.31443,-4.56921
-420,-405,-2.51123,1.51331,0,0,0,0,0,0,0,-1,804,1429,-2.51123,-1.51333
-413,-405,-2.64545,2.01294,0,0,0,0,0,0,0,-1,811,1429,-2.64547,-2.01294
-406,-405,-6.7381,2.14014,0,0,0,0,0,0,0,-1,818,1429,-6.73809,-2.14017
-399,-405,0,0,0,0,0,0,0,0,0,-1,825,1429,0,0
-392,-405,0,0,0,0,0,0,0,0,0,-1,832,1429,0,0
-385,-405,0,0,0,0,0,0,0,0,0,-1,839,1429,0,0
-378,-405,0,0,0,0,0,0,0,0,0,-1,846,1429,0,0
-371,-405,0,0,0,0,0,0,0,0,0,-1,853,1429,0,0
-364,-405,0,0,0,0,0,0,0,0,0,-1,860,1429,0,0
-357,-405,0,0,0,0,0,0,0,0,0,-1,867,1429,0,0
-350,-405,0,0,0,0,0,0,0,0,0,-1,874,1429,0,0
-343,-405,0,0,0,0,0,0,0,0,0,-1,881,1429,0,0
-336,-405,0,0,0,0,0,0,0,0,0,-1,888,1429,0,0
-329,-405,0,0,0,0,0,0,0,0,0,-1,895,1429,0,0
-322,-405,0,0,0,0,0,0,0,0,0,-1,902,1429,0,0
-315,-405,0,0,0,0,0,0,0,0,0,-1,909,1429,0,0
-308,-405,0,0,0,0,0,0,0,0,0,-1,916,1429,0,0
-301,-405,0,0,0,0,0,0,0,0,0,-1,923,1429,0,0
-294,-405,0,0,0,0,0,0,0,0,0,-1,930,1429,0,0
-287,-405,0,0,0,0,0,0,0,0,0,-1,937,1429,0,0
-280,-405,0,0,0,0,0,0,0,0,0,-1,944,1429,0,0
-273,-405,0,0,0,0,0,0,0,0,0,-1,951,1429,0,0
-266,-405,0,0,0,0,0,0,0,0,0,-1,958,1429,0,0
-259,-405,0,0,0,0,0,0,0,0,0,-1,965,1429,0,0
-252,-405,0,0,0,0,0,0,0,0,0,-1,972,1429,0,0
-245,-405,0,0,0,0,0,0,0,0,0,-1,979,1429,0,0
-238,-405,0,0,0,0,0,0,0,0,0,-1,986,1429,0,0
-231,-405,0,0,0,0,0,0,0,0,0,-1,993,1429,0,0
-224,-405,0,0,0,0,0,0,0,0,0,-1,1000,1429,0,0
-217,-405,0,0,0,0,0,0,0,0,0,-1,1007,1429,0,0
-210,-405,0,0,0,0,0,0,0,0,0,-1,1014,1429,0,0
-203,-405,0,0,0,0,0,0,0,0,0,-1,1021,1429,0,0
-196,-405,0,0,0,0,0,0,0,0,0,-1,1028,1429,0,0
-189,-405,0,0,0,0,0,0,0,0,0,-1,1035,1429,0,0
-182,-405,0,0,0,0,0,0,0,0,0,-1,1042,1429,0,0
-175,-405,0,0,0,0,0,0,0,0,0,-1,1049,1429,0,0
-168,-405,0,0,0,0,0,0,0,0,0,-1,1056,1429,0,0
-161,-405,0,0,0,0,0,0,0,0,0,-1,1063,1429,0,0
-154,-405,0,0,0,0,0,0,0,0,0,-1,1070,1429,0,0
-147,-405,0,0,0,0,0,0,0,0,0,-1,1077,1429,0,0
-140,-405,0,0,0,0,0,0,0,0,0,-1,1084,1429,0,0
-133,-405,0,0,0,0,0,0,0,0,0,-1,1091,1429,0,0
-126,-405,0,0,0,0,0,0,0,0,0,-1,1098,1429,0,0
-119,-405,0,0,0,0,0,0,0,0,0,-1,1105,1429,0,0
-112,-405,0,0,0,0,0,0,0,0,0,-1,1112,1429,0,0
-105,-405,0,0,0,0,0,0,0,0,0,-1,1119,1429,0,0
-98,-405,0,0,0,0,0,0,0,0,0,-1,1126,1429,0,0
-91,-405,0,0,0,0,0,0,0,0,0,-1,1133,1429,0,0
-84,-405,0,0,0,0,0,0,0,0,0,-1,1140,1429,0,0
-77,-405,0,0,0,0,0,0,0,0,0,-1,1147,1429,0,0
-70,-405,0,0,0,0,0,0,0,0,0,-1,1154,1429,0,0
-63,-405,0,0,0,0,0,0,0,0,0,-1,1161,1429,0,0
-56,-405,0,0,0,0,0,0,0,0,0,-1,1168,1429,0,0
-49,-405,0,0,0,0,0,0,0,0,0,-1,1175,1429,0,0
-42,-405,0,0,0,0,0,0,0,0,0,-1,1182,1429,0,0
-35,-405,0,0,0,0,0,0,0,0,0,-1,1189,1429,0,0
-28,-405,0,0,0,0,0,0,0,0,0,-1,1196,1429,0,0
-21,-405,0,0,0,0,0,0,0,0,0,-1,1203,1429,0,0
-14,-405,0,0,0,0,0,0,0,0,0,-1,1210,1429,0,0
-7,-405,0,0,0,0,0,0,0,0,0,-1,1217,1429,0,0
0,-405,0,0,0,0,0,0,0,0,0,-1,1224,1429,0,0
7,-405,0,0,0,0,0,0,0,0,0,-1,1231,1429,0,0
14,-405,0,0,0,0,0,0,0,0,0,-1,1238,1429,0,0
21,-405,0,0,0,0,0,0,0,0,0,-1,1245,1429,0,0
28,-405,0,0,0,0,0,0,0,0,0,-1,1252,1429,0,0
35,-405,0,0,0,0,0,0,0,0,0,-1,1259,1429,0,0
42,-405,0,0,0,0,0,0,0,0,0,-1,1266,1429,0,0
49,-405,0,0,0,0,0,0,0,0,0,-1,1273,1429,0,0
56,-405,0,0,0,0,0,0,0,0,0,-1,1280,1429,0,0
63,-405,0,0,0,0,0,0,0,0,0,-1,1287,1429,0,0
70,-405,0,0,0,0,0,0,0,0,0,-1,1294,1429,0,0
77,-405,0,0,0,0,0,0,0,0,0,-1,1301,1429,0,0
84,-405,0,0,0,0,0,0,0,0,0,-1,1308,1429,0,0
91,-405,0,0,0,0,0,0,0,0,0,-1,1315,1429,0,0
98,-405,0,0,0,0,0,0,0,0,0,-1,1322,1429,0,0
105,-405,0,0,0,0,0,0,0,0,0,-1,1329,1429,0,0
112,-405,0,0,0,0,0,0,0,0,0,-1,1336,1429,0,0
119,-405,0,0,0,0,0,0,0,0,0,-1,1343,1429,0,0
126,-405,0,0,0,0,0,0,0,0,0,-1,1350,1429,0,0
133,-405,0,0,0,0,0,0,0,0,0,-1,1357,1429,0,0
140,-405,0,0,0,0,0,0,0,0,0,-1,1364,1429,0,0
147,-405,0,0,0,0,0,0,0,0,0,-1,1371,1429,0,0
154,-405,0,0,0,0,0,0,0,0,0,-1,1378,1429,0,0
161,-405,0,0,0,0,0,0,0,0,0,-1,1385,1429,0,0
168,-405,0,0,0,0,0,0,0,0,0,-1,1392,1429,0,0
175,-405,0,0,0,0,0,0,0,0,0,-1,1399,1429,0,0
182,-405,0,0,0,0,0,0,0,0,0,-1,1406,1429,0,0
189,-405,0,0,0,0,0,0,0,0,0,-1,1413,1429,0,0
196,-405,0,0,0,0,0,0,0,0,0,-1,1420,1429,0,0
203,-405,0,0,0,0,0,0,0,0,0,-1,1427,1429,0,0
210,-405,0,0,0,0,0,0,0,0,0,-1,1434,1429,0,0
217,-405,0,0,0,0,0,0,0,0,0,-1,1441,1429,0,0
224,-405,0,0,0,0,0,0,0,0,0,-1,1448,1429,0,0
231,-405,0,0,0,0,0,0,0,0,0,-1,1455,1429,0,0
238,-405,0,0,0,0,0,0,0,0,0,-1,1462,1429,0,0
245,-405,0,0,0,0,0,0,0,0,0,-1,1469,1429,0,0
252,-405,0,0,0,0,0,0,0,0,0,-1,1476,1429,0,0
259,-405,0,0,0,0,0,0,0,0,0,-1,1483,1429,0,0
266,-405,0,0,0,0,0,0,0,0,0,-1,1490,1429,0,0
273,-405,0,0,0,0,0,0,0,0,0,-1,1497,1429,0,0
280,-405,0,0,0,0,0,0,0,0,0,-1,1504,1429,0,0
287,-405,0,0,0,0,0,0,0,0,0,-1,1511,1429,0,0
294,-405,0,0,0,0,0,0,0,0,0,-1,1518,1429,0,0
301,-405,0,0,0,0,0,0,0,0,0,-1,1525,1429,0,0
308,-405,0,0,0,0,0,0,0,0,0,-1,1532,1429,0,0
315,-405,0,0,0,0,0,0,0,0,0,-1,1539,1429,0,0
322,-405,0,0,0,0,0,0,0,0,0,-1,1546,1429,0,0
329,-405,0,0,0,0,0,0,0,0,0,-1,1553,1429,0,0
336,-405,0,0,0,0,0,0,0,0,0,-1,1560,1429,0,0
343,-405,0,0,0,0,0,0,0,0,0,-1,1567,1429,0,0
350,-405,0,0,0,0,0,0,0,0,0,-1,1574,1429,0,0
357,-405,0,0,0,0,0,0,0,0,0,-1,1581,1429,0,0
364,-405,0,0,0,0,0,0,0,0,0,-1,1588,1429,0,0
371,-405,0,0,0,0,0,0,0,0,0,-1,1595,1429,0,0
378,-405,0,0,0,0,0,0,0,0,0,-1,1602,1429,0,0
385,-405,0,0,0,0,0,0,0,0,0,-1,1609,1429,0,0
392,-405,0,0,0,0,0,0,0,0,0,-1,1616,1429,0,0
399,-405,0,0,0,0,0,0,0,0,0,-1,1623,1429,0,0
406,-405,0,0,0,0,0,0,0,0,0,-1,1630,1429,0,0
413,-405,0,0,0,0,0,0,0,0,0,-1,1637,1429,0,0
420,-405,0,0,0,0,0,0,0,0,0,-1,1644,1429,0,0
427,-405,0,0,0,0,0,0,0,0,0,-1,1651,1429,0,0
434,-405,0,0,0,0,0,0,0,0,0,-1,1658,1429,0,0
441,-405,0,0,0,0,0,0,0,0,0,-1,1665,1429,0,0
448,-405,0,0,0,0,0,0,0,0,0,-1,1672,1429,0,0
455,-405,0,0,0,0,0,0,0,0,0,-1,1679,1429,0,0
462,-405,0,0,0,0,0,0,0,0,0,-1,1686,1429,0,0
469,-405,0,0,0,0,0,0,0,0,0,-1,1693,1429,0,0
476,-405,0,0,0,0,0,0,0,0,0,-1,1700,1429,0,0
483,-405,0,0,0,0,0,0,0,0,0,-1,1707,1429,0,0
490,-405,0,0,0,0,0,0,0,0,0,-1,1714,1429,0,0
497,-405,0,0,0,0,0,0,0,0,0,-1,1721,1429,0,0
504,-405,0,0,0,0,0,0,0,0,0,-1,1728,1429,0,0
511,-405,0,0,0,0,0,0,0,0,0,-1,1735,1429,0,0
518,-405,0,0,0,0,0,0,0,0,0,-1,1742,1429,0,0
525,-405,14.6423,1.7583,0,0,0,0,0,0,0,-1,1749,1429,14.6424,-1.75824
532,-405,14.6371,2.20154,0,0,0,0,0,0,0,-1,1756,1429,14.6371,-2.20148
539,-405,14.4425,2.4873,0,0,0,0,0,0,0,-1,1763,1429,14.4425,-2.48728
546,-405,14.6687,2.55518,0,0,0,0,0,0,0,-1,1770,1429,14.6687,-2.55518
553,-405,14.7871,2.46875,0,0,0,0,0,0,0,-1,1777,1429,14.7871,-2.46872
560,-405,14.6351,2.33765,0,0,0,0,0,0,0,-1,1784,1429,14.6352,-2.33762
567,-405,14.3387,2.32117,0,0,0,0,0,0,0,-1,1791,1429,14.3388,-2.32117
574,-405,13.1868,0.606689,0,0,0,0,0,0,0,-1,1798,1429,13.1868,-0.606683
581,-405,12.6162,2.0719,0,0,0,0,0,0,0,-1,1805,1429,12.6162,-2.07194
588,-405,12.4559,3.46912,0,0,0,0,0,0,0,-1,1812,1429,12.456,-3.46917
595,-405,12.0593,6.30518,0,0,0,0,0,0,0,-1,1819,1429,12.0593,-6.30512
602,-405,11.499,6.32959,-0.0237008,-0.0252953,0.0264094,0.0019234,-0.0509196,0.770309,0.0346053,0.0383392,1826,1429,11.499,-6.32964
609,-405,10.9459,6.39197,-0.0181523,-0.0201845,0.0213519,0.0022077,-0.0405445,0.761622,0.0277948,0.0177177,1833,1429,10.9459,-6.39192
616,-405,10.8912,6.28772,-0.0135546,-0.0157946,0.0167108,0.00207371,-0.0314229,0.751936,0.0216729,0.00986997,1840,1429,10.8913,-6.28771
623,-405,10.8875,6.10657,-0.00961843,-0.0120334,0.0126248,0.00185653,-0.0235084,0.737721,0.0163263,0.00923012,1847,1429,10.8875,-6.10653
630,-405,10.8978,5.92761,-0.0064722,-0.0090225,0.00927497,0.00161487,-0.0171096,0.717085,0.011981,0.00949266,1854,1429,10.8978,-5.92756
637,-405,10.8899,5.75781,-0.00415884,-0.00687473,0.00670087,0.0013203,-0.0123539,0.685426,0.00870944,0.0103677,1861,1429,10.8898,-5.7578
644,-405,10.8768,5.58484,-0.00277774,-0.00532179,0.00497611,0.00108636,-0.00918588,0.660264,0.0065163,0.026617,1868,1429,10.8768,-5.58481
651,-405,10.9178,5.40735,-0.00173222,-0.00427369,0.0036351,0.000847846,-0.00685376,0.61725,0.00487642,0.0287562,1875,1429,10.9178,-5.40738
658,-405,10.9126,5.22485,-0.00135883,-0.00381328,0.00301885,0.000672703,-0.00584481,0.59234,0.00413904,0.0198792,1882,1429,10.9125,-5.2248
665,-405,10.8619,5.02051,-0.00153343,-0.00382334,0.00291148,0.000450136,-0.0058069,0.598058,0.0040297,0.0159171,1889,1429,10.8619,-5.02054
672,-405,10.8723,4.82263,-0.00245288,-0.00465821,0.00366396,0.000270742,-0.00738183,0.639234,0.0050139,0.0189149,1896,1429,10.8723,-4.82267
679,-405,10.9158,4.63428,-0.00381392,-0.00598625,0.00500837,0.000224708,-0.0100249,0.678617,0.00675941,0.0191867,1903,1429,10.9157,-4.63427
686,-405,10.8711,4.50513,-0.00566969,-0.00779281,0.0068469,0.000197458,-0.01366,0.708489,0.00917317,0.0322276,1910,1429,10.8711,-4.50507
693,-405,10.7573,4.38635,0,0,0,0,0,0,0,-1,1917,1429,10.7573,-4.38636
700,-405,9.1958,4.02026,0,0,0,0,0,0,0,-1,1924,1429,9.19579,-4.02025
707,-405,7.40308,3.83191,0,0,0,0,0,0,0,-1,1931,1429,7.40311,-3.83194
714,-405,7.33252,3.47388,0,0,0,0,0,0,0,-1,1938,1429,7.33255,-3.47383
721,-405,9.23523,0.993896,0,0,0,0,0,0,0,-1,1945,1429,9.23523,-0.993884
728,-405,0,0,0,0,0,0,0,0,0,-1,1952,1429,0,0
735,-405,0,0,0,0,0,0,0,0,0,-1,1959,1429,0,0
742,-405,0,0,0,0,0,0,0,0,0,-1,1966,1429,0,0
749,-405,0,0,0,0,0,0,0,0,0,-1,1973,1429,0,0
756,-405,0,0,0,0,0,0,0,0,0,-1,1980,1429,0,0
763,-405,0,0,0,0,0,0,0,0,0,-1,1987,1429,0,0
770,-405,0,0,0,0,0,0,0,0,0,-1,1994,1429,0,0
777,-405,0,0,0,0,0,0,0,0,0,-1,2001,1429,0,0
784,-405,0,0,0,0,0,0,0,0,0,-1,2008,1429,0,0
791,-405,0,0,0,0,0,0,0,0,0,-1,2015,1429,0,0
798,-405,0,0,0,0,0,0,0,0,0,-1,2022,1429,0,0
805,-405,0,0,0,0,0,0,0,0,0,-1,2029,1429,0,0
812,-405,0,0,0,0,0,0,0,0,0,-1,2036,1429,0,0
-700,-412,0,0,0,0,0,0,0,0,0,-1,524,1436,0,0
-693,-412,0,0,0,0,0,0,0,0,0,-1,531,1436,0,0
-686,-412,0,0,0,0,0,0,0,0,0,-1,538,1436,0,0
-679,-412,0,0,0,0,0,0,0,0,0,-1,545,1436,0,0
-672,-412,0,0,0,0,0,0,0,0,0,-1,552,1436,0,0
-665,-412,0,0,0,0,0,0,0,0,0,-1,559,1436,0,0
-658,-412,0,0,0,0,0,0,0,0,0,-1,566,1436,0,0
-651,-412,0,0,0,0,0,0,0,0,0,-1,573,1436,0,0
-644,-412,0,0,0,0,0,0,0,0,0,-1,580,1436,0,0
-637,-412,0,0,0,0,0,0,0,0,0,-1,587,1436,0,0
-630,-412,0,0,0,0,0,0,0,0,0,-1,594,1436,0,0
-623,-412,0,0,0,0,0,0,0,0,0,-1,601,1436,0,0
-616,-412,0,0,0,0,0,0,0,0,0,-1,608,1436,0,0
-609,-412,0,0,0,0,0,0,0,0,0,-1,615,1436,0,0
-602,-412,-3.72766,-3.50012,0,0,0,0,0,0,0,-1,622,1436,-3.72764,3.50017
-595,-412,-3.48932,-2.58386,0,0,0,0,0,0,0,-1,629,1436,-3.48931,2.58391
-588,-412,-3.70703,-2.11816,0,0,0,0,0,0,0,-1,636,1436,-3.70702,2.11822
-581,-412,-7.06207,2.19458,0,0,0,0,0,0,0,-1,643,1436,-7.06205,-2.19461
-574,-412,-5.83325,2.24939,0,0,0,0,0,0,0,-1,650,1436,-5.83324,-2.24943
-567,-412,-3.92334,1.35669,0,0,0,0,0,0,0,-1,657,1436,-3.92336,-1.35671
-560,-412,-3.33612,2.14807,0.0303729,0.00785723,0.0198974,0.0419765,-0.00374639,0.527954,0.0293131,0.0483573,664,1436,-3.33613,-2.1481
-553,-412,-3.0625,2.74316,0.0217176,0.00243938,0.0112635,0.0269035,-0.00274649,0.431478,0.0189177,0.044768,671,1436,-3.06248,-2.74315
-546,-412,-3.25281,2.93384,0.0144994,-0.00167284,0.00433358,0.0155874,-0.00276088,0.245988,0.0114237,0.0307701,678,1436,-3.25282,-2.93381
-539,-412,-3.37085,2.99109,0.00970304,-0.0033773,0.000803709,0.00975224,-0.0034265,0.0611375,0.00789552,0.0140591,685,1436,-3.37087,-2.99109
-532,-412,-3.37067,3.22925,0.00707408,-0.00238099,0.000377335,0.00708911,-0.00239603,0.0398238,0.0056953,0.0129919,692,1436,-3.37067,-3.22927
-525,-412,-3.3739,3.4458,0.00506584,-0.00178156,-6.21872e-05,0.0050664,-0.00178213,-0.00908086,0.00410276,0.0150934,699,1436,-3.3739,-3.44585
-518,-412,-3.35919,3.64905,0.00333264,-0.00155346,-0.000562599,0.00339658,-0.0016174,-0.11317,0.00295495,0.0156095,706,1436,-3.35917,-3.64908
-511,-412,-3.37823,3.8374,0.00135107,-0.00112459,-0.00123461,0.00186152,-0.00163504,-0.392047,0.00202015,0.0175068,713,1436,-3.37824,-3.83739
-504,-412,-3.39746,4.03052,-0.000513342,-0.00120988,-0.00202851,0.00119658,-0.0029198,-0.700383,0.00244502,0.0168154,720,1436,-3.39746,-4.03052
-497,-412,-3.37646,4.24414,-0.00210071,-0.0012545,-0.00324714,0.00159698,-0.00495219,-0.850184,0.0039431,0.0136385,727,1436,-3.37647,-4.24418
-490,-412,-3.3642,4.44458,-0.00384876,-0.00167797,-0.00482827,0.0021854,-0.00771213,-0.89596,0.00600396,0.0129297,734,1436,-3.36418,-4.44456
-483,-412,-3.35742,4.61707,-0.00574356,-0.00221686,-0.00682231,0.0030663,-0.0110267,-0.911864,0.00855835,0.00908247,741,1436,-3.35742,-4.6171
-476,-412,-3.30432,4.86438,-0.00804386,-0.0028866,-0.00952618,0.00440379,-0.0153342,-0.917575,0.011964,0.0159665,748,1436,-3.30432,-4.86434
-469,-412,-3.34412,5.01758,-0.0110301,-0.00374345,-0.0129427,0.00605899,-0.0208325,-0.922595,0.0162881,0.0267612,755,1436,-3.34412,-5.01754
-462,-412,-3.40466,5.15222,-0.0148055,-0.00470034,-0.017324,0.00829287,-0.0277987,-0.927289,0.0218283,0.0372501,762,1436,-3.40468,-5.15218
-455,-412,-3.664,5.16663,-0.0195213,-0.00600518,-0.0228953,0.0111086,-0.0366352,-0.928909,0.0288483,0.0452927,769,1436,-3.66401,-5.16658
-448,-412,-3.9223,5.49023,0,0,0,0,0,0,0,-1,776,1436,-3.92229,-5.49019
-441,-412,-4.62598,5.22168,0,0,0,0,0,0,0,-1,783,1436,-4.62597,-5.22163
-434,-412,-6.57056,4.76978,0,0,0,0,0,0,0,-1,790,1436,-6.57057,-4.76981
-427,-412,-6.6745,4.76904,0,0,0,0,0,0,0,-1,797,1436,-6.67451,-4.76901
-420,-412,-6.65302,4.95691,0,0,0,0,0,0,0,-1,804,1436,-6.65301,-4.95687
-413,-412,-7.31799,1.63599,0,0,0,0,0,0,0,-1,811,1436,-7.31802,-1.63597
-406,-412,-7.98541,1.59583,0,0,0,0,0,0,0,-1,818,1436,-7.9854,-1.59582
-399,-412,-7.8808,1.85815,0,0,0,0,0,0,0,-1,825,1436,-7.8808,-1.85817
-392,-412,0,0,0,0,0,0,0,0,0,-1,832,1436,0,0
-385,-412,0,0,0,0,0,0,0,0,0,-1,839,1436,0,0
-378,-412,0,0,0,0,0,0,0,0,0,-1,846,1436,0,0
-371,-412,0,0,0,0,0,0,0,0,0,-1,853,1436,0,0
-364,-412,0,0,0,0,0,0,0,0,0,-1,860,1436,0,0
-357,-412,0,0,0,0,0,0,0,0,0,-1,867,1436,0,0
-350,-412,0,0,0,0,0,0,0,0,0,-1,874,1436,0,0
-343,-412,0,0,0,0,0,0,0,0,0,-1,881,1436,0,0
-336,-412,0,0,0,0,0,0,0,0,0,-1,888,1436,0,0
-329,-412,0,0,0,0,0,0,0,0,0,-1,895,1436,0,0
-322,-412,0,0,0,0,0,0,0,0,0,-1,902,1436,0,0
-315,-412,0,0,0,0,0,0,0,0,0,-1,909,1436,0,0
-308,-412,0,0,0,0,0,0,0,0,0,-1,916,1436,0,0
-301,-412,0,0,0,0,0,0,0,0,0,-1,923,1436,0,0
-294,-412,0,0,0,0,0,0,0,0,0,-1,930,1436,0,0
-287,-412,0,0,0,0,0,0,0,0,0,-1,937,1436,0,0
-280,-412,0,0,0,0,0,0,0,0,0,-1,944,1436,0,0
-273,-412,0,0,0,0,0,0,0,0,0,-1,951,1436,0,0
-266,-412,0,0,0,0,0,0,0,0,0,-1,958,1436,0,0
-259,-412,0,0,0,0,0,0,0,0,0,-1,965,1436,0,0
-252,-412,0,0,0,0,0,0,0,0,0,-1,972,1436,0,0
-245,-412,0,0,0,0,0,0,0,0,0,-1,979,1436,0,0
-238,-412,0,0,0,0,0,0,0,0,0,-1,986,1436,0,0
-231,-412,0,0,0,0,0,0,0,0,0,-1,993,1436,0,0
-224,-412,0,0,0,0,0,0,0,0,0,-1,1000,1436,0,0
-217,-412,0,0,0,0,0,0,0,0,0,-1,1007,1436,0,0
-210,-412,0,0,0,0,0,0,0,0,0,-1,1014,1436,0,0
-203,-412,0,0,0,0,0,0,0,0,0,-1,1021,1436,0,0
-196,-412,0,0,0,0,0,0,0,0,0,-1,1028,1436,0,0
-189,-412,0,0,0,0,0,0,0,0,0,-1,1035,1436,0,0
-182,-412,0,0,0,0,0,0,0,0,0,-1,1042,1436,0,0
-175,-412,0,0,0,0,0,0,0,0,0,-1,1049,1436,0,0
-168,-412,0,0,0,0,0,0,0,0,0,-1,1056,1436,0,0
-161,-412,0,0,0,0,0,0,0,0,0,-1,1063,1436,0,0
-154,-412,0,0,0,0,0,0,0,0,0,-1,1070,1436,0,0
-147,-412,0,0,0,0,0,0,0,0,0,-1,1077,1436,0,0
-140,-412,0,0,0,0,0,0,0,0,0,-1,1084,1436,0,0
-133,-412,0,0,0,0,0,0,0,0,0,-1,1091,1436,0,0
-126,-412,0,0,0,0,0,0,0,0,0,-1,1098,1436,0,0
-119,-412,0,0,0,0,0,0,0,0,0,-1,1105,1436,0,0
-112,-412,0,0,0,0,0,0,0,0,0,-1,1112,1436,0,0
-105,-412,0,0,0,0,0,0,0,0,0,-1,1119,1436,0,0
-98,-412,0,0,0,0,0,0,0,0,0,-1,1126,1436,0,0
-91,-412,0,0,0,0,0,0,0,0,0,-1,1133,1436,0,0
-84,-412,0,0,0,0,0,0,0,0,0,-1,1140,1436,0,0
-77,-412,0,0,0,0,0,0,0,0,0,-1,1147,1436,0,0
-70,-412,0,0,0,0,0,0,0,0,0,-1,1154,1436,0,0
-63,-412,0,0,0,0,0,0,0,0,0,-1,1161,1436,0,0
-56,-412,0,0,0,0,0,0,0,0,0,-1,1168,1436,0,0
-49,-412,0,0,0,0,0,0,0,0,0,-1,1175,1436,0,0
-42,-412,0,0,0,0,0,0,0,0,0,-1,1182,1436,0,0
-35,-412,0,0,0,0,0,0,0,0,0,-1,1189,1436,0,0
-28,-412,0,0,0,0,0,0,0,0,0,-1,1196,1436,0,0
-21,-412,0,0,0,0,0,0,0,0,0,-1,1203,1436,0,0
-14,-412,0,0,0,0,0,0,0,0,0,-1,1210,1436,0,0
-7,-412,0,0,0,0,0,0,0,0,0,-1,1217,1436,0,0
0,-412,0,0,0,0,0,0,0,0,0,-1,1224,1436,0,0
7,-412,0,0,0,0,0,0,0,0,0,-1,1231,1436,0,0
14,-412,0,0,0,0,0,0,0,0,0,-1,1238,1436,0,0
21,-412,0,0,0,0,0,0,0,0,0,-1,1245,1436,0,0
28,-412,0,0,0,0,0,0,0,0,0,-1,1252,1436,0,0
35,-412,0,0,0,0,0,0,0,0,0,-1,1259,1436,0,0
42,-412,0,0,0,0,0,0,0,0,0,-1,1266,1436,0,0
49,-412,0,0,0,0,0,0,0,0,0,-1,1273,1436,0,0
56,-412,0,0,0,0,0,0,0,0,0,-1,1280,1436,0,0
63,-412,0,0,0,0,0,0,0,0,0,-1,1287,1436,0,0
70,-412,0,0,0,0,0,0,0,0,0,-1,1294,1436,0,0
77,-412,0,0,0,0,0,0,0,0,0,-1,1301,1436,0,0
84,-412,0,0,0,0,0,0,0,0,0,-1,1308,1436,0,0
91,-412,0,0,0,0,0,0,0,0,0,-1,1315,1436,0,0
98,-412,0,0,0,0,0,0,0,0,0,-1,1322,1436,0,0
105,-412,0,0,0,0,0,0,0,0,0,-1,1329,1436,0,0
112,-412,0,0,0,0,0,0,0,0,0,-1,1336,1436,0,0
119,-412,0,0,0,0,0,0,0,0,0,-1,1343,1436,0,0
126,-412,0,0,0,0,0,0,0,0,0,-1,1350,1436,0,0
133,-412,0,0,0,0,0,0,0,0,0,-1,1357,1436,0,0
140,-412,0,0,0,0,0,0,0,0,0,-1,1364,1436,0,0
147,-412,0,0,0,0,0,0,0,0,0,-1,1371,1436,0,0
154,-412,0,0,0,0,0,0,0,0,0,-1,1378,1436,0,0
161,-412,0,0,0,0,0,0,0,0,0,-1,1385,1436,0,0
168,-412,0,0,0,0,0,0,0,0,0,-1,1392,1436,0,0
175,-412,0,0,0,0,0,0,0,0,0,-1,1399,1436,0,0
182,-412,0,0,0,0,0,0,0,0,0,-1,1406,1436,0,0
189,-412,0,0,0,0,0,0,0,0,0,-1,1413,1436,0,0
196,-412,0,0,0,0,0,0,0,0,0,-1,1420,1436,0,0
203,-412,0,0,0,0,0,0,0,0,0,-1,1427,1436,0,0
210,-412,0,0,0,0,0,0,0,0,0,-1,1434,1436,0,0
217,-412,0,0,0,0,0,0,0,0,0,-1,1441,1436,0,0
224,-412,0,0,0,0,0,0,0,0,0,-1,1448,1436,0,0
231,-412,0,0,0,0,0,0,0,0,0,-1,1455,1436,0,0
238,-412,0,0,0,0,0,0,0,0,0,-1,1462,1436,0,0
245,-412,0,0,0,0,0,0,0,0,0,-1,1469,1436,0,0
252,-412,0,0,0,0,0,0,0,0,0,-1,1476,1436,0,0
259,-412,0,0,0,0,0,0,0,0,0,-1,1483,1436,0,0
266,-412,0,0,0,0,0,0,0,0,0,-1,1490,1436,0,0
273,-412,0,0,0,0,0,0,0,0,0,-1,1497,1436,0,0
280,-412,0,0,0,0,0,0,0,0,0,-1,1504,1436,0,0
287,-412,0,0,0,0,0,0,0,0,0,-1,1511,1436,0,0
294,-412,0,0,0,0,0,0,0,0,0,-1,1518,1436,0,0
301,-412,0,0,0,0,0,0,0,0,0,-1,1525,1436,0,0
308,-412,0,0,0,0,0,0,0,0,0,-1,1532,1436,0,0
315,-412,0,0,0,0,0,0,0,0,0,-1,1539,1436,0,0
322,-412,0,0,0,0,0,0,0,0,0,-1,1546,1436,0,0
329,-412,0,0,0,0,0,0,0,0,0,-1,1553,1436,0,0
336,-412,0,0,0,0,0,0,0,0,0,-1,1560,1436,0,0
343,-412,0,0,0,0,0,0,0,0,0,-1,1567,1436,0,0
350,-412,0,0,0,0,0,0,0,0,0,-1,1574,1436,0,0
357,-412,0,0,0,0,0,0,0,0,0,-1,1581,1436,0,0
364,-412,0,0,0,0,0,0,0,0,0,-1,1588,1436,0,0
371,-412,0,0,0,0,0,0,0,0,0,-1,1595,1436,0,0
378,-412,0,0,0,0,0,0,0,0,0,-1,1602,1436,0,0
385,-412,0,0,0,0,0,0,0,0,0,-1,1609,1436,0,0
392,-412,0,0,0,0,0,0,0,0,0,-1,1616,1436,0,0
399,-412,0,0,0,0,0,0,0,0,0,-1,1623,1436,0,0
406,-412,0,0,0,0,0,0,0,0,0,-1,1630,1436,0,0
413,-412,0,0,0,0,0,0,0,0,0,-1,1637,1436,0,0
420,-412,0,0,0,0,0,0,0,0,0,-1,1644,1436,0,0
427,-412,0,0,0,0,0,0,0,0,0,-1,1651,1436,0,0
434,-412,0,0,0,0,0,0,0,0,0,-1,1658,1436,0,0
441,-412,0,0,0,0,0,0,0,0,0,-1,1665,1436,0,0
448,-412,0,0,0,0,0,0,0,0,0,-1,1672,1436,0,0
455,-412,0,0,0,0,0,0,0,0,0,-1,1679,1436,0,0
462,-412,0,0,0,0,0,0,0,0,0,-1,1686,1436,0,0
469,-412,0,0,0,0,0,0,0,0,0,-1,1693,1436,0,0
476,-412,0,0,0,0,0,0,0,0,0,-1,1700,1436,0,0
483,-412,0,0,0,0,0,0,0,0,0,-1,1707,1436,0,0
490,-412,0,0,0,0,0,0,0,0,0,-1,1714,1436,0,0
497,-412,0,0,0,0,0,0,0,0,0,-1,1721,1436,0,0
504,-412,0,0,0,0,0,0,0,0,0,-1,1728,1436,0,0
511,-412,0,0,0,0,0,0,0,0,0,-1,1735,1436,0,0
518,-412,13.5378,1.3866,0,0,0,0,0,0,0,-1,1742,1436,13.5379,-1.38663
525,-412,13.9802,1.73328,0,0,0,0,0,0,0,-1,1749,1436,13.9802,-1.73328
532,-412,14.7107,2.18335,0,0,0,0,0,0,0,-1,1756,1436,14.7107,-2.18338
539,-412,14.6216,2.23132,0,0,0,0,0,0,0,-1,1763,1436,14.6215,-2.23129
546,-412,14.5795,2.26074,0,0,0,0,0,0,0,-1,1770,1436,14.5794,-2.26071
553,-412,14.5394,2.30518,0,0,0,0,0,0,0,-1,1777,1436,14.5394,-2.30521
560,-412,14.3042,2.26672,0,0,0,0,0,0,0,-1,1784,1436,14.3042,-2.26675
567,-412,12.9342,-1.24585,0,0,0,0,0,0,0,-1,1791,1436,12.9342,1.24591
574,-412,12.6833,-0.457642,0,0,0,0,0,0,0,-1,1798,1436,12.6833,0.457671
581,-412,11.2246,6.27612,0,0,0,0,0,0,0,-1,1805,1436,11.2247,-6.27608
588,-412,11.9087,5.89771,0,0,0,0,0,0,0,-1,1812,1436,11.9087,-5.8977
595,-412,11.4633,6.23181,-0.0272673,-0.0290996,0.0276948,-0.000473512,-0.0558933,0.768864,0.0371054,0.0407762,1819,1436,11.4633,-6.23178
602,-412,10.9377,6.5918,-0.0214313,-0.0236032,0.0225501,5.89732e-05,-0.0450934,0.761338,0.030082,0.0231865,1826,1436,10.9378,-6.59178
609,-412,10.7362,6.45068,-0.016483,-0.018489,0.0180565,0.000598317,-0.0355704,0.757653,0.0239155,0.00901144,1833,1436,10.7363,-6.45074
616,-412,10.6859,6.29419,-0.0123067,-0.0142679,0.0139517,0.00069882,-0.0272734,0.750314,0.0184196,0.00772924,1840,1436,10.686,-6.29424
623,-412,10.697,6.11389,-0.00862505,-0.0107392,0.0103707,0.000742335,-0.0201066,0.734609,0.0136586,0.00873607,1847,1436,10.697,-6.11383
630,-412,10.7073,5.92639,-0.00563911,-0.00801688,0.0074582,0.000724369,-0.0143804,0.70636,0.00983725,0.0101596,1854,1436,10.7073,-5.92643
637,-412,10.7109,5.7688,-0.00341536,-0.00615603,0.00524958,0.000639796,-0.0102112,0.657729,0.00703043,0.0121877,1861,1436,10.7109,-5.76879
644,-412,10.7268,5.59473,-0.00208721,-0.00491091,0.0038717,0.000622027,-0.00762015,0.610561,0.00529962,0.0133971,1868,1436,10.7268,-5.59477
651,-412,10.7572,5.40479,-0.00108582,-0.00422244,0.00287219,0.000618343,-0.0059266,0.535501,0.00417248,0.0233245,1875,1436,10.7572,-5.40478
658,-412,10.7189,5.22986,-0.000733226,-0.00420934,0.00261932,0.000672234,-0.0056148,0.492477,0.00398622,0.0155419,1882,1436,10.7189,-5.22985
665,-412,10.6887,5.02283,-0.000982302,-0.00492164,0.00302686,0.000659327,-0.00656327,0.496954,0.00461103,0.0199573,1889,1436,10.6887,-5.02289
672,-412,10.7324,4.83752,-0.00202463,-0.00654344,0.00434612,0.000614293,-0.00918237,0.545691,0.00633628,0.0241444,1896,1436,10.7324,-4.83752
679,-412,10.804,4.66272,-0.00358163,-0.00868444,0.00631028,0.000673527,-0.0129396,0.593284,0.00885945,0.0331173,1903,1436,10.8039,-4.66267
686,-412,10.2694,4.94543,-0.00575024,-0.0114051,0.00887944,0.000741073,-0.0178964,0.631262,0.0121855,0.047665,1910,1436,10.2694,-4.94545
693,-412,9.50305,5.4696,-0.00849052,-0.0145851,0.0120488,0.000890372,-0.023966,0.661539,0.0162823,0.048316,1917,1436,9.50306,-5.46956
700,-412,8.82764,5.8844,0,0,0,0,0,0,0,-1,1924,1436,8.82761,-5.88444
707,-412,6.59998,1.68994,0,0,0,0,0,0,0,-1,1931,1436,6.60002,-1.68995
714,-412,4.77283,-2.39832,0,0,0,0,0,0,0,-1,1938,1436,4.77288,2.39835
721,-412,0,0,0,0,0,0,0,0,0,-1,1945,1436,0,0
728,-412,0,0,0,0,0,0,0,0,0,-1,1952,1436,0,0
735,-412,0,0,0,0,0,0,0,0,0,-1,1959,1436,0,0
742,-412,0,0,0,0,0,0,0,0,0,-1,1966,1436,0,0
749,-412,0,0,0,0,0,0,0,0,0,-1,1973,1436,0,0
756,-412,0,0,0,0,0,0,0,0,0,-1,1980,1436,0,0
763,-412,0,0,0,0,0,0,0,0,0,-1,1987,1436,0,0
770,-412,0,0,0,0,0,0,0,0,0,-1,1994,1436,0,0
777,-412,0,0,0,0,0,0,0,0,0,-1,2001,1436,0,0
784,-412,0,0,0,0,0,0,0,0,0,-1,2008,1436,0,0
791,-412,0,0,0,0,0,0,0,0,0,-1,2015,1436,0,0
798,-412,0,0,0,0,0,0,0,0,0,-1,2022,1436,0,0
805,-412,0,0,0,0,0,0,0,0,0,-1,2029,1436,0,0
812,-412,0,0,0,0,0,0,0,0,0,-1,2036,1436,0,0
-700,-419,0,0,0,0,0,0,0,0,0,-1,524,1443,0,0
-693,-419,0,0,0,0,0,0,0,0,0,-1,531,1443,0,0
-686,-419,0,0,0,0,0,0,0,0,0,-1,538,1443,0,0
-679,-419,0,0,0,0,0,0,0,0,0,-1,545,1443,0,0
-672,-419,0,0,0,0,0,0,0,0,0,-1,552,1443,0,0
-665,-419,0,0,0,0,0,0,0,0,0,-1,559,1443,0,0
-658,-419,0,0,0,0,0,0,0,0,0,-1,566,1443,0,0
-651,-419,0,0,0,0,0,0,0,0,0,-1,573,1443,0,0
-644,-419,0,0,0,0,0,0,0,0,0,-1,580,1443,0,0
-637,-419,0,0,0,0,0,0,0,0,0,-1,587,1443,0,0
-630,-419,0,0,0,0,0,0,0,0,0,-1,594,1443,0,0
-623,-419,0,0,0,0,0,0,0,0,0,-1,601,1443,0,0
-616,-419,0,0,0,0,0,0,0,0,0,-1,608,1443,0,0
-609,-419,0,0,0,0,0,0,0,0,0,-1,615,1443,0,0
-602,-419,0,0,0,0,0,0,0,0,0,-1,622,1443,0,0
-595,-419,-4.27423,-0.479492,0,0,0,0,0,0,0,-1,629,1443,-4.27421,0.479525
-588,-419,-3.75415,0.426147,0,0,0,0,0,0,0,-1,636,1443,-3.75414,-0.426145
-581,-419,-3.37775,1.73169,0,0,0,0,0,0,0,-1,643,1443,-3.37775,-1.73163
-574,-419,-2.86279,2.7804,0,0,0,0,0,0,0,-1,650,1443,-2.86279,-2.7804
-567,-419,-3.76215,1.37549,0,0,0,0,0,0,0,-1,657,1443,-3.76215,-1.37547
-560,-419,-2.38483,2.93579,0,0,0,0,0,0,0,-1,664,1443,-2.38482,-2.93576
-553,-419,-2.72278,3.12842,0.0304762,0.00417221,0.0133541,0.0360674,-0.00141901,0.396512,0.0245316,0.0441692,671,1443,-2.72278,-3.12838
-546,-419,-2.88599,3.18042,0.0216552,-0.000586277,0.00566744,0.0230161,-0.00194715,0.23566,0.0160326,0.0405504,678,1443,-2.88596,-3.18041
-539,-419,-3.07306,3.05945,0.0152743,-0.00267678,0.00164262,0.0154233,-0.00282585,0.0905038,0.0113421,0.0286961,685,1443,-3.07305,-3.05948
-532,-419,-3.16888,3.23279,0.0112308,-0.00187347,0.000979601,0.0113036,-0.0019463,0.0742045,0.00826131,0.0136305,692,1443,-3.1689,-3.23283
-525,-419,-3.15887,3.46289,0.00809324,-0.00137839,0.00044412,0.00811401,-0.00139917,0.0467528,0.005931,0.0127117,699,1443,-3.15886,-3.46288
-518,-419,-3.17755,3.6438,0.00558979,-0.00119584,-6.57921e-05,0.00559043,-0.00119648,-0.00969458,0.00418321,0.0163086,706,1443,-3.17754,-3.64383
-511,-419,-3.19287,3.85022,0.00313787,-0.00083906,-0.000676884,0.00324992,-0.000951111,-0.164051,0.00254363,0.0181853,713,1443,-3.19287,-3.85019
-504,-419,-3.20435,4.03589,0.00101819,-0.000942125,-0.00133961,0.00169793,-0.00162187,-0.469564,0.00191685,0.017332,720,1443,-3.20433,-4.03592
-497,-419,-3.17902,4.23376,-0.00066675,-0.000997618,-0.002417,0.00159048,-0.00325484,-0.751229,0.00285193,0.0126077,727,1443,-3.17901,-4.23372
-490,-419,-3.16992,4.43848,-0.00239018,-0.00135186,-0.00373858,0.00190343,-0.00564547,-0.854389,0.00453334,0.0106691,734,1443,-3.16991,-4.43851
-483,-419,-3.16132,4.62866,-0.00402249,-0.00186776,-0.00538613,0.0025477,-0.00843795,-0.884108,0.00663952,0.00944313,741,1443,-3.1613,-4.62865
-476,-419,-3.1593,4.84058,-0.0058218,-0.00257034,-0.00770399,0.00367758,-0.0120697,-0.889385,0.00951234,0.0096081,748,1443,-3.15929,-4.84057
-469,-419,-3.14246,5.06555,-0.00808735,-0.0035274,-0.0106188,0.00505341,-0.0166682,-0.891149,0.013125,0.0138167,755,1443,-3.14243,-5.06555
-462,-419,-3.05737,5.18848,-0.0108483,-0.00467909,-0.0143029,0.00686802,-0.0223954,-0.891603,0.0176702,0.0250369,762,1443,-3.05736,-5.18847
-455,-419,-3.20129,5.14612,-0.0143012,-0.00622552,-0.0189905,0.0091516,-0.0296784,-0.890151,0.0234394,0.0388328,769,1443,-3.20131,-5.14612
-448,-419,-3.67786,5.15784,-0.0184919,-0.00838444,-0.0248701,0.0119402,-0.0388165,-0.885636,0.0306432,0.043017,776,1443,-3.67785,-5.15784
-441,-419,-4.20892,4.94141,0,0,0,0,0,0,0,-1,783,1443,-4.20895,-4.94138
-434,-419,-4.58813,4.59229,0,0,0,0,0,0,0,-1,790,1443,-4.58813,-4.59231
-427,-419,-5.93756,4.82532,0,0,0,0,0,0,0,-1,797,1443,-5.93758,-4.82526
-420,-419,-7.08368,2.08118,0,0,0,0,0,0,0,-1,804,1443,-7.08368,-2.08119
-413,-419,-7.81604,2.06384,0,0,0,0,0,0,0,-1,811,1443,-7.81601,-2.06379
-406,-419,-8.49615,2.08191,0,0,0,0,0,0,0,-1,818,1443,-8.49614,-2.08197
-399,-419,-9.20044,2.04614,0,0,0,0,0,0,0,-1,825,1443,-9.20042,-2.04611
-392,-419,0,0,0,0,0,0,0,0,0,-1,832,1443,0,0
-385,-419,0,0,0,0,0,0,0,0,0,-1,839,1443,0,0
-378,-419,0,0,0,0,0,0,0,0,0,-1,846,1443,0,0
-371,-419,0,0,0,0,0,0,0,0,0,-1,853,1443,0,0
-364,-419,0,0,0,0,0,0,0,0,0,-1,860,1443,0,0
-357,-419,0,0,0,0,0,0,0,0,0,-1,867,1443,0,0
-350,-419,0,0,0,0,0,0,0,0,0,-1,874,1443,0,0
-343,-419,0,0,0,0,0,0,0,0,0,-1,881,1443,0,0
-336,-419,0,0,0,0,0,0,0,0,0,-1,888,1443,0,0
-329,-419,0,0,0,0,0,0,0,0,0,-1,895,1443,0,0
-322,-419,0,0,0,0,0,0,0,0,0,-1,902,1443,0,0
-315,-419,0,0,0,0,0,0,0,0,0,-1,909,1443,0,0
-308,-419,0,0,0,0,0,0,0,0,0,-1,916,1443,0,0
-301,-419,0,0,0,0,0,0,0,0,0,-1,923,1443,0,0
-294,-419,0,0,0,0,0,0,0,0,0,-1,930,1443,0,0
-287,-419,0,0,0,0,0,0,0,0,0,-1,937,1443,0,0
-280,-419,0,0,0,0,0,0,0,0,0,-1,944,1443,0,0
-273,-419,0,0,0,0,0,0,0,0,0,-1,951,1443,0,0
-266,-419,0,0,0,0,0,0,0,0,0,-1,958,1443,0,0
-259,-419,0,0,0,0,0,0,0,0,0,-1,965,1443,0,0
-252,-419,0,0,0,0,0,0,0,0,0,-1,972,1443,0,0
-245,-419,0,0,0,0,0,0,0,0,0,-1,979,1443,0,0
-238,-419,0,0,0,0,0,0,0,0,0,-1,986,1443,0,0
-231,-419,0,0,0,0,0,0,0,0,0,-1,993,1443,0,0
-224,-419,0,0,0,0,0,0,0,0,0,-1,1000,1443,0,0
-217,-419,0,0,0,0,0,0,0,0,0,-1,1007,1443,0,0
-210,-419,0,0,0,0,0,0,0,0,0,-1,1014,1443,0,0
-203,-419,0,0,0,0,0,0,0,0,0,-1,1021,1443,0,0
-196,-419,0,0,0,0,0,0,0,0,0,-1,1028,1443,0,0
-189,-419,0,0,0,0,0,0,0,0,0,-1,1035,1443,0,0
-182,-419,0,0,0,0,0,0,0,0,0,-1,1042,1443,0,0
-175,-419,0,0,0,0,0,0,0,0,0,-1,1049,1443,0,0
-168,-419,0,0,0,0,0,0,0,0,0,-1,1056,1443,0,0
-161,-419,0,0,0,0,0,0,0,0,0,-1,1063,1443,0,0
-154,-419,0,0,0,0,0,0,0,0,0,-1,1070,1443,0,0
-147,-419,0,0,0,0,0,0,0,0,0,-1,1077,1443,0,0
-140,-419,0,0,0,0,0,0,0,0,0,-1,1084,1443,0,0
-133,-419,0,0,0,0,0,0,0,0,0,-1,1091,1443,0,0
-126,-419,0,0,0,0,0,0,0,0,0,-1,1098,1443,0,0
-119,-419,0,0,0,0,0,0,0,0,0,-1,1105,1443,0,0
-112,-419,0,0,0,0,0,0,0,0,0,-1,1112,1443,0,0
-105,-419,0,0,0,0,0,0,0,0,0,-1,1119,1443,0,0
-98,-419,0,0,0,0,0,0,0,0,0,-1,1126,1443,0,0
-91,-419,0,0,0,0,0,0,0,0,0,-1,1133,1443,0,0
-84,-419,0,0,0,0,0,0,0,0,0,-1,1140,1443,0,0
-77,-419,0,0,0,0,0,0,0,0,0,-1,1147,1443,0,0
-70,-419,0,0,0,0,0,0,0,0,0,-1,1154,1443,0,0
-63,-419,0,0,0,0,0,0,0,0,0,-1,1161,1443,0,0
-56,-419,0,0,0,0,0,0,0,0,0,-1,1168,1443,0,0
-49,-419,0,0,0,0,0,0,0,0,0,-1,1175,1443,0,0
-42,-419,0,0,0,0,0,0,0,0,0,-1,1182,1443,0,0
-35,-419,0,0,0,0,0,0,0,0,0,-1,1189,1443,0,0
-28,-419,0,0,0,0,0,0,0,0,0,-1,1196,1443,0,0
-21,-419,0,0,0,0,0,0,0,0,0,-1,1203,1443,0,0
-14,-419,0,0,0,0,0,0,0,0,0,-1,1210,1443,0,0
-7,-419,0,0,0,0,0,0,0,0,0,-1,1217,1443,0,0
0,-419,0,0,0,0,0,0,0,0,0,-1,1224,1443,0,0
7,-419,0,0,0,0,0,0,0,0,0,-1,1231,1443,0,0
14,-419,0,0,0,0,0,0,0,0,0,-1,1238,1443,0,0
21,-419,0,0,0,0,0,0,0,0,0,-1,1245,1443,0,0
28,-419,0,0,0,0,0,0,0,0,0,-1,1252,1443,0,0
35,-419,0,0,0,0,0,0,0,0,0,-1,1259,1443,0,0
42,-419,0,0,0,0,0,0,0,0,0,-1,1266,1443,0,0
49,-419,0,0,0,0,0,0,0,0,0,-1,1273,1443,0,0
56,-419,0,0,0,0,0,0,0,0,0,-1,1280,1443,0,0
63,-419,0,0,0,0,0,0,0,0,0,-1,1287,1443,0,0
70,-419,0,0,0,0,0,0,0,0,0,-1,1294,1443,0,0
77,-419,0,0,0,0,0,0,0,0,0,-1,1301,1443,0,0
84,-419,0,0,0,0,0,0,0,0,0,-1,1308,1443,0,0
91,-419,0,0,0,0,0,0,0,0,0,-1,1315,1443,0,0
98,-419,0,0,0,0,0,0,0,0,0,-1,1322,1443,0,0
105,-419,0,0,0,0,0,0,0,0,0,-1,1329,1443,0,0
112,-419,0,0,0,0,0,0,0,0,0,-1,1336,1443,0,0
119,-419,0,0,0,0,0,0,0,0,0,-1,1343,1443,0,0
126,-419,0,0,0,0,0,0,0,0,0,-1,1350,1443,0,0
133,-419,0,0,0,0,0,0,0,0,0,-1,1357,1443,0,0
140,-419,0,0,0,0,0,0,0,0,0,-1,1364,1443,0,0
147,-419,0,0,0,0,0,0,0,0,0,-1,1371,1443,0,0
154,-419,0,0,0,0,0,0,0,0,0,-1,1378,1443,0,0
161,-419,0,0,0,0,0,0,0,0,0,-1,1385,1443,0,0
168,-419,0,0,0,0,0,0,0,0,0,-1,1392,1443,0,0
175,-419,0,0,0,0,0,0,0,0,0,-1,1399,1443,0,0
182,-419,0,0,0,0,0,0,0,0,0,-1,1406,1443,0,0
189,-419,0,0,0,0,0,0,0,0,0,-1,1413,1443,0,0
196,-419,0,0,0,0,0,0,0,0,0,-1,1420,1443,0,0
203,-419,0,0,0,0,0,0,0,0,0,-1,1427,1443,0,0
210,-419,0,0,0,0,0,0,0,0,0,-1,1434,1443,0,0
217,-419,0,0,0,0,0,0,0,0,0,-1,1441,1443,0,0
224,-419,0,0,0,0,0,0,0,0,0,-1,1448,1443,0,0
231,-419,0,0,0,0,0,0,0,0,0,-1,1455,1443,0,0
238,-419,0,0,0,0,0,0,0,0,0,-1,1462,1443,0,0
245,-419,0,0,0,0,0,0,0,0,0,-1,1469,1443,0,0
252,-419,0,0,0,0,0,0,0,0,0,-1,1476,1443,0,0
259,-419,0,0,0,0,0,0,0,0,0,-1,1483,1443,0,0
266,-419,0,0,0,0,0,0,0,0,0,-1,1490,1443,0,0
273,-419,0,0,0,0,0,0,0,0,0,-1,1497,1443,0,0
280,-419,0,0,0,0,0,0,0,0,0,-1,1504,1443,0,0
287,-419,0,0,0,0,0,0,0,0,0,-1,1511,1443,0,0
294,-419,0,0,0,0,0,0,0,0,0,-1,1518,1443,0,0
301,-419,0,0,0,0,0,0,0,0,0,-1,1525,1443,0,0
308,-419,0,0,0,0,0,0,0,0,0,-1,1532,1443,0,0
315,-419,0,0,0,0,0,0,0,0,0,-1,1539,1443,0,0
322,-419,0,0,0,0,0,0,0,0,0,-1,1546,1443,0,0
329,-419,0,0,0,0,0,0,0,0,0,-1,1553,1443,0,0
336,-419,0,0,0,0,0,0,0,0,0,-1,1560,1443,0,0
343,-419,0,0,0,0,0,0,0,0,0,-1,1567,1443,0,0
350,-419,0,0,0,0,0,0,0,0,0,-1,1574,1443,0,0
357,-419,0,0,0,0,0,0,0,0,0,-1,1581,1443,0,0
364,-419,0,0,0,0,0,0,0,0,0,-1,1588,1443,0,0
371,-419,0,0,0,0,0,0,0,0,0,-1,1595,1443,0,0
378,-419,0,0,0,0,0,0,0,0,0,-1,1602,1443,0,0
385,-419,0,0,0,0,0,0,0,0,0,-1,1609,1443,0,0
392,-419,0,0,0,0,0,0,0,0,0,-1,1616,1443,0,0
399,-419,0,0,0,0,0,0,0,0,0,-1,1623,1443,0,0
406,-419,0,0,0,0,0,0,0,0,0,-1,1630,1443,0,0
413,-419,0,0,0,0,0,0,0,0,0,-1,1637,1443,0,0
420,-419,0,0,0,0,0,0,0,0,0,-1,1644,1443,0,0
427,-419,0,0,0,0,0,0,0,0,0,-1,1651,1443,0,0
434,-419,0,0,0,0,0,0,0,0,0,-1,1658,1443,0,0
441,-419,0,0,0,0,0,0,0,0,0,-1,1665,1443,0,0
448,-419,0,0,0,0,0,0,0,0,0,-1,1672,1443,0,0
455,-419,0,0,0,0,0,0,0,0,0,-1,1679,1443,0,0
462,-419,0,0,0,0,0,0,0,0,0,-1,1686,1443,0,0
469,-419,0,0,0,0,0,0,0,0,0,-1,1693,1443,0,0
476,-419,0,0,0,0,0,0,0,0,0,-1,1700,1443,0,0
483,-419,0,0,0,0,0,0,0,0,0,-1,1707,1443,0,0
490,-419,0,0,0,0,0,0,0,0,0,-1,1714,1443,0,0
497,-419,0,0,0,0,0,0,0,0,0,-1,1721,1443,0,0
504,-419,0,0,0,0,0,0,0,0,0,-1,1728,1443,0,0
511,-419,12.6509,-0.385132,0,0,0,0,0,0,0,-1,1735,1443,12.6508,0.385172
518,-419,13.1429,1.10168,0,0,0,0,0,0,0,-1,1742,1443,13.1429,-1.10166
525,-419,13.5118,1.47205,0,0,0,0,0,0,0,-1,1749,1443,13.5119,-1.472
532,-419,14.6622,2.34265,0,0,0,0,0,0,0,-1,1756,1443,14.6622,-2.3426
539,-419,14.7181,2.0625,0,0,0,0,0,0,0,-1,1763,1443,14.7181,-2.06255
546,-419,14.2803,2.17969,0,0,0,0,0,0,0,-1,1770,1443,14.2803,-2.17967
553,-419,14.1864,2.23438,0,0,0,0,0,0,0,-1,1777,1443,14.1864,-2.23433
560,-419,11.7478,6.99146,0,0,0,0,0,0,0,-1,1784,1443,11.7477,-6.99145
567,-419,11.3684,6.36987,0,0,0,0,0,0,0,-1,1791,1443,11.3684,-6.36982
574,-419,11.9622,6.49207,0,0,0,0,0,0,0,-1,1798,1443,11.9621,-6.49202
581,-419,11.0585,6.44238,0,0,0,0,0,0,0,-1,1805,1443,11.0585,-6.44235
588,-419,10.1549,6.3927,0,0,0,0,0,0,0,-1,1812,1443,10.1549,-6.39268
595,-419,10.7874,6.67688,-0.022459,-0.0236744,0.022126,-0.000932354,-0.045201,0.771668,0.0298281,0.0343588,1819,1443,10.7874,-6.67689
602,-419,10.5872,6.63501,-0.0176916,-0.0189349,0.0178999,-0.000402492,-0.036224,0.768041,0.0240163,0.0145004,1826,1443,10.5872,-6.63497
609,-419,10.5331,6.46301,-0.013655,-0.014545,0.014261,0.000167896,-0.028368,0.769801,0.0189682,0.0109988,1833,1443,10.5331,-6.46307
616,-419,10.5226,6.31055,-0.0101217,-0.0110807,0.0109228,0.000332114,-0.0215345,0.763461,0.0144683,0.011717,1840,1443,10.5226,-6.31049
623,-419,10.5282,6.12341,-0.00688718,-0.00831008,0.00803288,0.00046569,-0.015663,0.74123,0.0106006,0.00940959,1847,1443,10.5282,-6.12343
630,-419,10.5389,5.9364,-0.00420685,-0.00630619,0.00567802,0.000517707,-0.0110308,0.693998,0.00753234,0.0112029,1854,1443,10.539,-5.93644
637,-419,10.5419,5.77332,-0.0021694,-0.00506917,0.00391119,0.000551998,-0.00779057,0.607899,0.00538715,0.0122689,1861,1443,10.5419,-5.7733
644,-419,10.5413,5.61743,-0.000930414,-0.00441923,0.00290741,0.000715754,-0.0060654,0.515193,0.00430208,0.0110549,1868,1443,10.5412,-5.61737
651,-419,10.5432,5.44641,3.43138e-05,-0.00434424,0.00225684,0.000989281,-0.00529921,0.400297,0.00390457,0.0109086,1875,1443,10.5433,-5.44642
658,-419,10.5231,5.23193,0.000393539,-0.00496996,0.00234304,0.00127291,-0.00584933,0.359046,0.00438587,0.0127345,1882,1443,10.523,-5.23198
665,-419,10.5216,5.05249,0.000117316,-0.00650285,0.00325347,0.00144854,-0.00783408,0.388387,0.00576653,0.0191839,1889,1443,10.5216,-5.05246
672,-419,10.5806,4.8457,-0.000942246,-0.00898984,0.00510678,0.0015355,-0.0114676,0.451728,0.00820493,0.0248337,1896,1443,10.5806,-4.84575
679,-419,10.6162,4.81372,-0.002614,-0.0119399,0.00770726,0.00173111,-0.016285,0.513352,0.0114773,0.0420384,1903,1443,10.6161,-4.81375
686,-419,10.634,4.91992,0,0,0,0,0,0,0,-1,1910,1443,10.634,-4.91996
693,-419,8.76086,5.60535,0,0,0,0,0,0,0,-1,1917,1443,8.76091,-5.6054
700,-419,8.49817,5.59277,0,0,0,0,0,0,0,-1,1924,1443,8.49817,-5.59282
707,-419,9.5752,1.80042,0,0,0,0,0,0,0,-1,1931,1443,9.57523,-1.80037
714,-419,5.77576,-1.25061,0,0,0,0,0,0,0,-1,1938,1443,5.7757,1.25056
721,-419,0,0,0,0,0,0,0,0,0,-1,1945,1443,0,0
728,-419,0,0,0,0,0,0,0,0,0,-1,1952,1443,0,0
735,-419,0,0,0,0,0,0,0,0,0,-1,1959,1443,0,0
742,-419,0,0,0,0,0,0,0,0,0,-1,1966,1443,0,0
749,-419,0,0,0,0,0,0,0,0,0,-1,1973,1443,0,0
756,-419,0,0,0,0,0,0,0,0,0,-1,1980,1443,0,0
763,-419,0,0,0,0,0,0,0,0,0,-1,1987,1443,0,0
770,-419,0,0,0,0,0,0,0,0,0,-1,1994,1443,0,0
777,-419,0,0,0,0,0,0,0,0,0,-1,2001,1443,0,0
784,-419,0,0,0,0,0,0,0,0,0,-1,2008,1443,0,0
791,-419,0,0,0,0,0,0,0,0,0,-1,2015,1443,0,0
798,-419,0,0,0,0,0,0,0,0,0,-1,2022,1443,0,0
805,-419,0,0,0,0,0,0,0,0,0,-1,2029,1443,0,0
812,-419,0,0,0,0,0,0,0,0,0,-1,2036,1443,0,0
-700,-426,0,0,0,0,0,0,0,0,0,-1,524,1450,0,0
-693,-426,0,0,0,0,0,0,0,0,0,-1,531,1450,0,0
-686,-426,0,0,0,0,0,0,0,0,0,-1,538,1450,0,0
-679,-426,0,0,0,0,0,0,0,0,0,-1,545,1450,0,0
-672,-426,0,0,0,0,0,0,0,0,0,-1,552,1450,0,0
-665,-426,0,0,0,0,0,0,0,0,0,-1,559,1450,0,0
-658,-426,0,0,0,0,0,0,0,0,0,-1,566,1450,0,0
-651,-426,0,0,0,0,0,0,0,0,0,-1,573,1450,0,0
-644,-426,0,0,0,0,0,0,0,0,0,-1,580,1450,0,0
-637,-426,0,0,0,0,0,0,0,0,0,-1,587,1450,0,0
-630,-426,0,0,0,0,0,0,0,0,0,-1,594,1450,0,0
-623,-426,0,0,0,0,0,0,0,0,0,-1,601,1450,0,0
-616,-426,0,0,0,0,0,0,0,0,0,-1,608,1450,0,0
-609,-426,0,0,0,0,0,0,0,0,0,-1,615,1450,0,0
-602,-426,0,0,0,0,0,0,0,0,0,-1,622,1450,0,0
-595,-426,0,0,0,0,0,0,0,0,0,-1,629,1450,0,0
-588,-426,-4.39026,0.156494,0,0,0,0,0,0,0,-1,636,1450,-4.39027,-0.156543
-581,-426,-3.61182,1.14502,0,0,0,0,0,0,0,-1,643,1450,-3.61184,-1.14503
-574,-426,-3.31049,1.22742,0,0,0,0,0,0,0,-1,650,1450,-3.3105,-1.22744
-567,-426,-3.02087,-1.11523,0,0,0,0,0,0,0,-1,657,1450,-3.0209,1.11518
-560,-426,-2.7691,0.0230713,0,0,0,0,0,0,0,-1,664,1450,-2.76912,-0.0231147
-553,-426,-2.56903,3.37451,0,0,0,0,0,0,0,-1,671,1450,-2.56905,-3.37455
-546,-426,-3.51239,3.40173,0.0342305,0.00143308,0.00927609,0.0366722,-0.0010087,0.257394,0.0247912,0.0487482,678,1450,-3.51239,-3.40169
-539,-426,-2.82733,3.12549,0.0248536,-0.00110706,0.00443486,0.0255903,-0.00184376,0.164613,0.0177068,0.039249,685,1450,-2.82731,-3.12544
-532,-426,-2.92017,3.24744,0.0180898,-0.000696591,0.00306171,0.0185762,-0.00118298,0.157545,0.0127967,0.0235788,692,1450,-2.92015,-3.24739
-525,-426,-2.95972,3.43835,0.0128583,-0.000483426,0.00205033,0.0131663,-0.000791408,0.149096,0.00905285,0.0130096,699,1450,-2.95969,-3.4383
-518,-426,-2.9563,3.63953,0.00889136,-0.000451481,0.00124637,0.00905477,-0.000614892,0.130367,0.00625156,0.0154007,706,1450,-2.9563,-3.63951
-511,-426,-2.98364,3.828,0.00551984,-0.000255895,0.000480732,0.00555958,-0.000295635,0.0824767,0.00380876,0.0150144,713,1450,-2.98362,-3.82799
-504,-426,-2.98749,4.02478,0.00285576,-0.000428257,-0.000228089,0.00287152,-0.000444023,-0.0690126,0.00207823,0.0145082,720,1450,-2.98747,-4.02479
-497,-426,-2.96234,4.22485,0.000790755,-0.000552301,-0.00132922,0.00160845,-0.00137,-0.551497,0.00172144,0.0118552,727,1450,-2.96236,-4.22483
-490,-426,-2.97217,4.44263,-0.00106307,-0.000903485,-0.00249921,0.00151721,-0.00348376,-0.801356,0.00296079,0.0116228,734,1450,-2.97215,-4.44267
-483,-426,-2.96466,4.64148,-0.0025293,-0.0014087,-0.00386663,0.00193801,-0.00587602,-0.85735,0.00469852,0.0116815,741,1450,-2.96464,-4.64153
-476,-426,-2.96869,4.85046,-0.00393501,-0.0021338,-0.00583695,0.00287162,-0.00894043,-0.861942,0.0071134,0.00942404,748,1450,-2.96871,-4.85047
-469,-426,-2.96399,5.05054,-0.00562403,-0.00317583,-0.00828312,0.00397315,-0.012773,-0.858759,0.0101036,0.00731409,755,1450,-2.96397,-5.05058
-462,-426,-2.87689,5.23608,-0.00759506,-0.0044728,-0.0113143,0.00538758,-0.0174554,-0.853954,0.0137883,0.0149034,762,1450,-2.87686,-5.23606
-455,-426,-2.87347,5.25549,-0.0100356,-0.00619216,-0.0152026,0.00720972,-0.0234375,-0.848269,0.0185026,0.0303246,769,1450,-2.87348,-5.25549
-448,-426,-3.02808,5.03674,-0.0129745,-0.00858526,-0.0200684,0.00940816,-0.0309679,-0.83986,0.0243938,0.0435368,776,1450,-3.02809,-5.03673
-441,-426,-3.79193,4.66113,0,0,0,0,0,0,0,-1,783,1450,-3.79193,-4.66113
-434,-426,-3.32214,3.08447,0,0,0,0,0,0,0,-1,790,1450,-3.32211,-3.08447
-427,-426,-3.26508,3.67554,0,0,0,0,0,0,0,-1,797,1450,-3.26507,-3.67553
-420,-426,-5.54272,5.15503,0,0,0,0,0,0,0,-1,804,1450,-5.54275,-5.155
-413,-426,-8.31403,2.49158,0,0,0,0,0,0,0,-1,811,1450,-8.314,-2.49162
-406,-426,-9.0069,2.56812,0,0,0,0,0,0,0,-1,818,1450,-9.00689,-2.56812
-399,-426,-9.25275,2.21338,0,0,0,0,0,0,0,-1,825,1450,-9.25274,-2.21335
-392,-426,-9.92609,2.41931,0,0,0,0,0,0,0,-1,832,1450,-9.9261,-2.4193
-385,-426,0,0,0,0,0,0,0,0,0,-1,839,1450,0,0
-378,-426,0,0,0,0,0,0,0,0,0,-1,846,1450,0,0
-371,-426,0,0,0,0,0,0,0,0,0,-1,853,1450,0,0
-364,-426,0,0,0,0,0,0,0,0,0,-1,860,1450,0,0
-357,-426,0,0,0,0,0,0,0,0,0,-1,867,1450,0,0
-350,-426,0,0,0,0,0,0,0,0,0,-1,874,1450,0,0
-343,-426,0,0,0,0,0,0,0,0,0,-1,881,1450,0,0
-336,-426,0,0,0,0,0,0,0,0,0,-1,888,1450,0,0
-329,-426,0,0,0,0,0,0,0,0,0,-1,895,1450,0,0
-322,-426,0,0,0,0,0,0,0,0,0,-1,902,1450,0,0
-315,-426,0,0,0,0,0,0,0,0,0,-1,909,1450,0,0
-308,-426,0,0,0,0,0,0,0,0,0,-1,916,1450,0,0
-301,-426,0,0,0,0,0,0,0,0,0,-1,923,1450,0,0
-294,-426,0,0,0,0,0,0,0,0,0,-1,930,1450,0,0
-287,-426,0,0,0,0,0,0,0,0,0,-1,937,1450,0,0
-280,-426,0,0,0,0,0,0,0,0,0,-1,944,1450,0,0
-273,-426,0,0,0,0,0,0,0,0,0,-1,951,1450,0,0
-266,-426,0,0,0,0,0,0,0,0,0,-1,958,1450,0,0
-259,-426,0,0,0,0,0,0,0,0,0,-1,965,1450,0,0
-252,-426,0,0,0,0,0,0,0,0,0,-1,972,1450,0,0
-245,-426,0,0,0,0,0,0,0,0,0,-1,979,1450,0,0
-238,-426,0,0,0,0,0,0,0,0,0,-1,986,1450,0,0
-231,-426,0,0,0,0,0,0,0,0,0,-1,993,1450,0,0
-224,-426,0,0,0,0,0,0,0,0,0,-1,1000,1450,0,0
-217,-426,0,0,0,0,0,0,0,0,0,-1,1007,1450,0,0
-210,-426,0,0,0,0,0,0,0,0,0,-1,1014,1450,0,0
-203,-426,0,0,0,0,0,0,0,0,0,-1,1021,1450,0,0
-196,-426,0,0,0,0,0,0,0,0,0,-1,1028,1450,0,0
-189,-426,0,0,0,0,0,0,0,0,0,-1,1035,1450,0,0
-182,-426,0,0,0,0,0,0,0,0,0,-1,1042,1450,0,0
-175,-426,0,0,0,0,0,0,0,0,0,-1,1049,1450,0,0
-168,-426,0,0,0,0,0,0,0,0,0,-1,1056,1450,0,0
-161,-426,0,0,0,0,0,0,0,0,0,-1,1063,1450,0,0
-154,-426,0,0,0,0,0,0,0,0,0,-1,1070,1450,0,0
-147,-426,0,0,0,0,0,0,0,0,0,-1,1077,1450,0,0
-140,-426,0,0,0,0,0,0,0,0,0,-1,1084,1450,0,0
-133,-426,0,0,0,0,0,0,0,0,0,-1,1091,1450,0,0
-126,-426,0,0,0,0,0,0,0,0,0,-1,1098,1450,0,0
-119,-426,0,0,0,0,0,0,0,0,0,-1,1105,1450,0,0
-112,-426,0,0,0,0,0,0,0,0,0,-1,1112,1450,0,0
-105,-426,0,0,0,0,0,0,0,0,0,-1,1119,1450,0,0
-98,-426,0,0,0,0,0,0,0,0,0,-1,1126,1450,0,0
-91,-426,0,0,0,0,0,0,0,0,0,-1,1133,1450,0,0
-84,-426,0,0,0,0,0,0,0,0,0,-1,1140,1450,0,0
-77,-426,0,0,0,0,0,0,0,0,0,-1,1147,1450,0,0
-70,-426,0,0,0,0,0,0,0,0,0,-1,1154,1450,0,0
-63,-426,0,0,0,0,0,0,0,0,0,-1,1161,1450,0,0
-56,-426,0,0,0,0,0,0,0,0,0,-1,1168,1450,0,0
-49,-426,0,0,0,0,0,0,0,0,0,-1,1175,1450,0,0
-42,-426,0,0,0,0,0,0,0,0,0,-1,1182,1450,0,0
-35,-426,0,0,0,0,0,0,0,0,0,-1,1189,1450,0,0
-28,-426,0,0,0,0,0,0,0,0,0,-1,1196,1450,0,0
-21,-426,0,0,0,0,0,0,0,0,0,-1,1203,1450,0,0
-14,-426,0,0,0,0,0,0,0,0,0,-1,1210,1450,0,0
-7,-426,0,0,0,0,0,0,0,0,0,-1,1217,1450,0,0
0,-426,0,0,0,0,0,0,0,0,0,-1,1224,1450,0,0
7,-426,0,0,0,0,0,0,0,0,0,-1,1231,1450,0,0
14,-426,0,0,0,0,0,0,0,0,0,-1,1238,1450,0,0
21,-426,0,0,0,0,0,0,0,0,0,-1,1245,1450,0,0
28,-426,0,0,0,0,0,0,0,0,0,-1,1252,1450,0,0
35,-426,0,0,0,0,0,0,0,0,0,-1,1259,1450,0,0
42,-426,0,0,0,0,0,0,0,0,0,-1,1266,1450,0,0
49,-426,0,0,0,0,0,0,0,0,0,-1,1273,1450,0,0
56,-426,0,0,0,0,0,0,0,0,0,-1,1280,1450,0,0
63,-426,0,0,0,0,0,0,0,0,0,-1,1287,1450,0,0
70,-426,0,0,0,0,0,0,0,0,0,-1,1294,1450,0,0
77,-426,0,0,0,0,0,0,0,0,0,-1,1301,1450,0,0
84,-426,0,0,0,0,0,0,0,0,0,-1,1308,1450,0,0
91,-426,0,0,0,0,0,0,0,0,0,-1,1315,1450,0,0
98,-426,0,0,0,0,0,0,0,0,0,-1,1322,1450,0,0
105,-426,0,0,0,0,0,0,0,0,0,-1,1329,1450,0,0
112,-426,0,0,0,0,0,0,0,0,0,-1,1336,1450,0,0
119,-426,0,0,0,0,0,0,0,0,0,-1,1343,1450,0,0
126,-426,0,0,0,0,0,0,0,0,0,-1,1350,1450,0,0
133,-426,0,0,0,0,0,0,0,0,0,-1,1357,1450,0,0
140,-426,0,0,0,0,0,0,0,0,0,-1,1364,1450,0,0
147,-426,0,0,0,0,0,0,0,0,0,-1,1371,1450,0,0
154,-426,0,0,0,0,0,0,0,0,0,-1,1378,1450,0,0
161,-426,0,0,0,0,0,0,0,0,0,-1,1385,1450,0,0
168,-426,0,0,0,0,0,0,0,0,0,-1,1392,1450,0,0
175,-426,0,0,0,0,0,0,0,0,0,-1,1399,1450,0,0
182,-426,0,0,0,0,0,0,0,0,0,-1,1406,1450,0,0
189,-426,0,0,0,0,0,0,0,0,0,-1,1413,1450,0,0
196,-426,0,0,0,0,0,0,0,0,0,-1,1420,1450,0,0
203,-426,0,0,0,0,0,0,0,0,0,-1,1427,1450,0,0
210,-426,0,0,0,0,0,0,0,0,0,-1,1434,1450,0,0
217,-426,0,0,0,0,0,0,0,0,0,-1,1441,1450,0,0
224,-426,0,0,0,0,0,0,0,0,0,-1,1448,1450,0,0
231,-426,0,0,0,0,0,0,0,0,0,-1,1455,1450,0,0
238,-426,0,0,0,0,0,0,0,0,0,-1,1462,1450,0,0
245,-426,0,0,0,0,0,0,0,0,0,-1,1469,1450,0,0
252,-426,0,0,0,0,0,0,0,0,0,-1,1476,1450,0,0
259,-426,0,0,0,0,0,0,0,0,0,-1,1483,1450,0,0
266,-426,0,0,0,0,0,0,0,0,0,-1,1490,1450,0,0
273,-426,0,0,0,0,0,0,0,0,0,-1,1497,1450,0,0
280,-426,0,0,0,0,0,0,0,0,0,-1,1504,1450,0,0
287,-426,0,0,0,0,0,0,0,0,0,-1,1511,1450,0,0
294,-426,0,0,0,0,0,0,0,0,0,-1,1518,1450,0,0
301,-426,0,0,0,0,0,0,0,0,0,-1,1525,1450,0,0
308,-426,0,0,0,0,0,0,0,0,0,-1,1532,1450,0,0
315,-426,0,0,0,0,0,0,0,0,0,-1,1539,1450,0,0
322,-426,0,0,0,0,0,0,0,0,0,-1,1546,1450,0,0
329,-426,0,0,0,0,0,0,0,0,0,-1,1553,1450,0,0
336,-426,0,0,0,0,0,0,0,0,0,-1,1560,1450,0,0
343,-426,0,0,0,0,0,0,0,0,0,-1,1567,1450,0,0
350,-426,0,0,0,0,0,0,0,0,0,-1,1574,1450,0,0
357,-426,0,0,0,0,0,0,0,0,0,-1,1581,1450,0,0
364,-426,0,0,0,0,0,0,0,0,0,-1,1588,1450,0,0
371,-426,0,0,0,0,0,0,0,0,0,-1,1595,1450,0,0
378,-426,0,0,0,0,0,0,0,0,0,-1,1602,1450,0,0
385,-426,0,0,0,0,0,0,0,0,0,-1,1609,1450,0,0
392,-426,0,0,0,0,0,0,0,0,0,-1,1616,1450,0,0
399,-426,0,0,0,0,0,0,0,0,0,-1,1623,1450,0,0
406,-426,0,0,0,0,0,0,0,0,0,-1,1630,1450,0,0
413,-426,0,0,0,0,0,0,0,0,0,-1,1637,1450,0,0
420,-426,0,0,0,0,0,0,0,0,0,-1,1644,1450,0,0
427,-426,0,0,0,0,0,0,0,0,0,-1,1651,1450,0,0
434,-426,0,0,0,0,0,0,0,0,0,-1,1658,1450,0,0
441,-426,0,0,0,0,0,0,0,0,0,-1,1665,1450,0,0
448,-426,0,0,0,0,0,0,0,0,0,-1,1672,1450,0,0
455,-426,0,0,0,0,0,0,0,0,0,-1,1679,1450,0,0
462,-426,0,0,0,0,0,0,0,0,0,-1,1686,1450,0,0
469,-426,0,0,0,0,0,0,0,0,0,-1,1693,1450,0,0
476,-426,0,0,0,0,0,0,0,0,0,-1,1700,1450,0,0
483,-426,0,0,0,0,0,0,0,0,0,-1,1707,1450,0,0
490,-426,0,0,0,0,0,0,0,0,0,-1,1714,1450,0,0
497,-426,0,0,0,0,0,0,0,0,0,-1,1721,1450,0,0
504,-426,11.2445,1.75195,0,0,0,0,0,0,0,-1,1728,1450,11.2445,-1.75193
511,-426,10.9731,1.4895,0,0,0,0,0,0,0,-1,1735,1450,10.9732,-1.48954
518,-426,12.8763,0.845581,0,0,0,0,0,0,0,-1,1742,1450,12.8764,-0.845541
525,-426,13.1451,1.1593,0,0,0,0,0,0,0,-1,1749,1450,13.1452,-1.15936
532,-426,14.6205,2.94202,0,0,0,0,0,0,0,-1,1756,1450,14.6205,-2.94199
539,-426,14.678,2.28503,0,0,0,0,0,0,0,-1,1763,1450,14.678,-2.28502
546,-426,14.6774,1.99292,0,0,0,0,0,0,0,-1,1770,1450,14.6774,-1.99287
553,-426,12.5996,7.43384,0,0,0,0,0,0,0,-1,1777,1450,12.5996,-7.43381
560,-426,11.5884,6.95703,0,0,0,0,0,0,0,-1,1784,1450,11.5883,-6.95709
567,-426,12.3074,7.48621,0,0,0,0,0,0,0,-1,1791,1450,12.3074,-7.48615
574,-426,11.6066,6.9856,0,0,0,0,0,0,0,-1,1798,1450,11.6066,-6.98555
581,-426,10.7794,6.52026,-0.0265593,-0.0303549,0.0249214,-0.00346355,-0.0534507,0.747395,0.0345372,0.0465126,1805,1450,10.7794,-6.52025
588,-426,10.5027,6.67456,-0.0216502,-0.024574,0.0210504,-0.00201091,-0.0442132,0.75073,0.0288286,0.0436939,1812,1450,10.5027,-6.67454
595,-426,10.3722,6.78186,-0.0174805,-0.0195314,0.0174248,-0.001051,-0.0359609,0.756006,0.0236314,0.0235019,1819,1450,10.3722,-6.78188
602,-426,10.3733,6.61841,-0.013783,-0.0154225,0.0139704,-0.000608284,-0.0285971,0.756093,0.0188653,0.0141942,1826,1450,10.3733,-6.61839
609,-426,10.3494,6.44495,-0.0105772,-0.0116454,0.0110375,-6.09262e-05,-0.0221617,0.761222,0.0147542,0.012284,1833,1450,10.3494,-6.44492
616,-426,10.3607,6.29675,-0.00767513,-0.00874254,0.00832332,0.000131579,-0.0165493,0.753381,0.011077,0.0142705,1840,1450,10.3607,-6.29674
623,-426,10.3641,6.11926,-0.00492363,-0.00654477,0.00600747,0.000327711,-0.0117961,0.71834,0.00797556,0.0112308,1847,1450,10.3642,-6.11932
630,-426,10.3663,5.94324,-0.00258984,-0.00509967,0.00411491,0.000457251,-0.00814677,0.637394,0.00558983,0.0115054,1854,1450,10.3663,-5.9432
637,-426,10.3776,5.76672,-0.000789588,-0.00435832,0.00272174,0.000680555,-0.00582846,0.495248,0.00413122,0.0122969,1861,1450,10.3775,-5.76669
644,-426,10.3641,5.60376,0.000329883,-0.00420353,0.0020243,0.00110221,-0.00497586,0.364483,0.00373919,0.0117055,1868,1450,10.3641,-5.60379
651,-426,10.3403,5.43176,0.00124646,-0.00467934,0.00166334,0.00168143,-0.0051143,0.255772,0.00408698,0.0116324,1875,1450,10.3403,-5.43172
658,-426,10.3574,5.20764,0.00161482,-0.00589963,0.00199174,0.0021101,-0.00639491,0.243722,0.00511387,0.0114834,1882,1450,10.3574,-5.20767
665,-426,10.3679,4.97876,0.0013053,-0.00820416,0.00322692,0.00229692,-0.00919578,0.298135,0.00702251,0.0180888,1889,1450,10.3679,-4.97871
672,-426,10.3429,4.75159,0.000274369,-0.0115366,0.00541784,0.00238311,-0.0136453,0.37118,0.0099865,0.0315492,1896,1450,10.3428,-4.75157
679,-426,10.183,4.88599,-0.00152991,-0.0154464,0.00848302,0.00248358,-0.0194598,0.441914,0.0138754,0.0450721,1903,1450,10.183,-4.88601
686,-426,10.1406,5.07678,0,0,0,0,0,0,0,-1,1910,1450,10.1407,-5.07675
693,-426,7.96655,5.48169,0,0,0,0,0,0,0,-1,1917,1450,7.9665,-5.48164
700,-426,9.24304,2.95447,0,0,0,0,0,0,0,-1,1924,1450,9.24305,-2.95442
707,-426,8.44519,-1.21448,0,0,0,0,0,0,0,-1,1931,1450,8.44514,1.21454
714,-426,0,0,0,0,0,0,0,0,0,-1,1938,1450,0,0
721,-426,0,0,0,0,0,0,0,0,0,-1,1945,1450,0,0
728,-426,0,0,0,0,0,0,0,0,0,-1,1952,1450,0,0
735,-426,0,0,0,0,0,0,0,0,0,-1,1959,1450,0,0
742,-426,0,0,0,0,0,0,0,0,0,-1,1966,1450,0,0
749,-426,0,0,0,0,0,0,0,0,0,-1,1973,1450,0,0
756,-426,0,0,0,0,0,0,0,0,0,-1,1980,1450,0,0
763,-426,0,0,0,0,0,0,0,0,0,-1,1987,1450,0,0
770,-426,0,0,0,0,0,0,0,0,0,-1,1994,1450,0,0
777,-426,0,0,0,0,0,0,0,0,0,-1,2001,1450,0,0
784,-426,0,0,0,0,0,0,0,0,0,-1,2008,1450,0,0
791,-426,0,0,0,0,0,0,0,0,0,-1,2015,1450,0,0
798,-426,0,0,0,0,0,0,0,0,0,-1,2022,1450,0,0
805,-426,0,0,0,0,0,0,0,0,0,-1,2029,1450,0,0
812,-426,0,0,0,0,0,0,0,0,0,-1,2036,1450,0,0
-700,-433,0,0,0,0,0,0,0,0,0,-1,524,1457,0,0
-693,-433,0,0,0,0,0,0,0,0,0,-1,531,1457,0,0
-686,-433,0,0,0,0,0,0,0,0,0,-1,538,1457,0,0
-679,-433,0,0,0,0,0,0,0,0,0,-1,545,1457,0,0
-672,-433,0,0,0,0,0,0,0,0,0,-1,552,1457,0,0
-665,-433,0,0,0,0,0,0,0,0,0,-1,559,1457,0,0
-658,-433,0,0,0,0,0,0,0,0,0,-1,566,1457,0,0
-651,-433,0,0,0,0,0,0,0,0,0,-1,573,1457,0,0
-644,-433,0,0,0,0,0,0,0,0,0,-1,580,1457,0,0
-637,-433,0,0,0,0,0,0,0,0,0,-1,587,1457,0,0
-630,-433,0,0,0,0,0,0,0,0,0,-1,594,1457,0,0
-623,-433,0,0,0,0,0,0,0,0,0,-1,601,1457,0,0
-616,-433,0,0,0,0,0,0,0,0,0,-1,608,1457,0,0
-609,-433,0,0,0,0,0,0,0,0,0,-1,615,1457,0,0
-602,-433,0,0,0,0,0,0,0,0,0,-1,622,1457,0,0
-595,-433,0,0,0,0,0,0,0,0,0,-1,629,1457,0,0
-588,-433,-4.99121,-0.205688,0,0,0,0,0,0,0,-1,636,1457,-4.99119,0.205667
-581,-433,-5.03912,0.544922,0,0,0,0,0,0,0,-1,643,1457,-5.0391,-0.54497
-574,-433,-3.95532,-1.26086,0,0,0,0,0,0,0,-1,650,1457,-3.95533,1.26081
-567,-433,-3.75928,-1.375,0,0,0,0,0,0,0,-1,657,1457,-3.75929,1.37495
-560,-433,-3.63959,-0.339966,0,0,0,0,0,0,0,-1,664,1457,-3.63962,0.339992
-553,-433,-3.65491,0.601318,0,0,0,0,0,0,0,-1,671,1457,-3.65489,-0.60126
-546,-433,-2.81934,2.70703,0,0,0,0,0,0,0,-1,678,1457,-2.81934,-2.70699
-539,-433,-2.74548,2.98267,0.0324847,0.000356013,0.00722186,0.0340334,-0.00119266,0.211243,0.0230967,0.0463917,685,1457,-2.74545,-2.98268
-532,-433,-2.67944,3.2417,0.02359,0.000422978,0.00531613,0.0247516,-0.000738666,0.215132,0.0167527,0.0290447,692,1457,-2.67942,-3.24172
-525,-433,-2.73419,3.45154,0.0167647,0.000425198,0.00388988,0.0176435,-0.000453583,0.222185,0.0119164,0.0154352,699,1457,-2.73418,-3.4515
-518,-433,-2.72571,3.63391,0.0115895,0.000361176,0.00277921,0.0122398,-0.000289071,0.229834,0.00825788,0.0153353,706,1457,-2.72572,-3.63393
-511,-433,-2.75635,3.82397,0.00746648,0.000441443,0.0017971,0.00789951,8.41403e-06,0.236453,0.00526354,0.0157759,713,1457,-2.75634,-3.82402
-504,-433,-2.74976,4.00806,0.00437495,0.000237636,0.000946512,0.0045812,3.13807e-05,0.214557,0.00304373,0.0126141,720,1457,-2.74978,-4.00811
-497,-433,-2.73322,4.18506,0.00201203,4.19046e-05,-0.000279006,0.00205078,3.15451e-06,-0.138004,0.00136614,0.0124741,727,1457,-2.73323,-4.18501
-490,-433,-2.75793,4.41821,9.58052e-06,-0.000299771,-0.00141041,0.00127377,-0.00156396,-0.730783,0.00164121,0.0141644,734,1457,-2.75794,-4.41823
-483,-433,-2.76294,4.65393,-0.00139217,-0.000800479,-0.00263716,0.00155738,-0.00375003,-0.841256,0.00315019,0.0151868,741,1457,-2.76295,-4.65399
-476,-433,-2.73834,4.85229,-0.0025306,-0.00155693,-0.00438198,0.00236517,-0.0064527,-0.840721,0.00527017,0.0102866,748,1457,-2.73835,-4.85229
-469,-433,-2.7442,5.0415,-0.00371799,-0.00269632,-0.0065154,0.00332824,-0.00974255,-0.82452,0.00784347,0.0100631,755,1457,-2.74423,-5.04151
-462,-433,-2.76892,5.23572,-0.00504254,-0.00410372,-0.00901854,0.00445762,-0.0136039,-0.811399,0.0108644,0.00998961,762,1457,-2.76895,-5.23568
-455,-433,-2.6488,5.43884,-0.0066713,-0.00594864,-0.0122039,0.00589932,-0.0185193,-0.800198,0.0147123,0.0219649,769,1457,-2.64881,-5.43889
-448,-433,-2.6001,5.40967,-0.00851405,-0.00841435,-0.0161596,0.00769544,-0.0246238,-0.786941,0.0194941,0.0353481,776,1457,-2.60013,-5.40965
-441,-433,-2.66638,5.24023,-0.0106587,-0.0117691,-0.0210352,0.00982868,-0.0322565,-0.772204,0.025422,0.0433392,783,1457,-2.66635,-5.24019
-434,-433,-3.27985,4.422,0,0,0,0,0,0,0,-1,790,1457,-3.27984,-4.42204
-427,-433,-3.04095,4.69983,0,0,0,0,0,0,0,-1,797,1457,-3.04094,-4.69984
-420,-433,-2.91479,4.86768,0,0,0,0,0,0,0,-1,804,1457,-2.91482,-4.86773
-413,-433,-1.53833,4.20422,0,0,0,0,0,0,0,-1,811,1457,-1.53834,-4.20424
-406,-433,-9.14117,2.24158,0,0,0,0,0,0,0,-1,818,1457,-9.14118,-2.24158
-399,-433,-9.59204,2.41504,0,0,0,0,0,0,0,-1,825,1457,-9.59204,-2.41508
-392,-433,-10.7191,2.36316,0,0,0,0,0,0,0,-1,832,1457,-10.719,-2.3632
-385,-433,-1.65833,1.2821,0,0,0,0,0,0,0,-1,839,1457,-1.65834,-1.28209
-378,-433,0,0,0,0,0,0,0,0,0,-1,846,1457,0,0
-371,-433,0,0,0,0,0,0,0,0,0,-1,853,1457,0,0
-364,-433,0,0,0,0,0,0,0,0,0,-1,860,1457,0,0
-357,-433,0,0,0,0,0,0,0,0,0,-1,867,1457,0,0
-350,-433,0,0,0,0,0,0,0,0,0,-1,874,1457,0,0
-343,-433,0,0,0,0,0,0,0,0,0,-1,881,1457,0,0
-336,-433,0,0,0,0,0,0,0,0,0,-1,888,1457,0,0
-329,-433,0,0,0,0,0,0,0,0,0,-1,895,1457,0,0
-322,-433,0,0,0,0,0,0,0,0,0,-1,902,1457,0,0
-315,-433,0,0,0,0,0,0,0,0,0,-1,909,1457,0,0
-308,-433,0,0,0,0,0,0,0,0,0,-1,916,1457,0,0
-301,-433,0,0,0,0,0,0,0,0,0,-1,923,1457,0,0
-294,-433,0,0,0,0,0,0,0,0,0,-1,930,1457,0,0
-287,-433,0,0,0,0,0,0,0,0,0,-1,937,1457,0,0
-280,-433,0,0,0,0,0,0,0,0,0,-1,944,1457,0,0
-273,-433,0,0,0,0,0,0,0,0,0,-1,951,1457,0,0
-266,-433,0,0,0,0,0,0,0,0,0,-1,958,1457,0,0
-259,-433,0,0,0,0,0,0,0,0,0,-1,965,1457,0,0
-252,-433,0,0,0,0,0,0,0,0,0,-1,972,1457,0,0
-245,-433,0,0,0,0,0,0,0,0,0,-1,979,1457,0,0
-238,-433,0,0,0,0,0,0,0,0,0,-1,986,1457,0,0
-231,-433,0,0,0,0,0,0,0,0,0,-1,993,1457,0,0
-224,-433,0,0,0,0,0,0,0,0,0,-1,1000,1457,0,0
-217,-433,0,0,0,0,0,0,0,0,0,-1,1007,1457,0,0
-210,-433,0,0,0,0,0,0,0,0,0,-1,1014,1457,0,0
-203,-433,0,0,0,0,0,0,0,0,0,-1,1021,1457,0,0
-196,-433,0,0,0,0,0,0,0,0,0,-1,1028,1457,0,0
-189,-433,0,0,0,0,0,0,0,0,0,-1,1035,1457,0,0
-182,-433,0,0,0,0,0,0,0,0,0,-1,1042,1457,0,0
-175,-433,0,0,0,0,0,0,0,0,0,-1,1049,1457,0,0
-168,-433,0,0,0,0,0,0,0,0,0,-1,1056,1457,0,0
-161,-433,0,0,0,0,0,0,0,0,0,-1,1063,1457,0,0
-154,-433,0,0,0,0,0,0,0,0,0,-1,1070,1457,0,0
-147,-433,0,0,0,0,0,0,0,0,0,-1,1077,1457,0,0
-140,-433,0,0,0,0,0,0,0,0,0,-1,1084,1457,0,0
-133,-433,0,0,0,0,0,0,0,0,0,-1,1091,1457,0,0
-126,-433,0,0,0,0,0,0,0,0,0,-1,1098,1457,0,0
-119,-433,0,0,0,0,0,0,0,0,0,-1,1105,1457,0,0
-112,-433,0,0,0,0,0,0,0,0,0,-1,1112,1457,0,0
-105,-433,0,0,0,0,0,0,0,0,0,-1,1119,1457,0,0
-98,-433,0,0,0,0,0,0,0,0,0,-1,1126,1457,0,0
-91,-433,0,0,0,0,0,0,0,0,0,-1,1133,1457,0,0
-84,-433,0,0,0,0,0,0,0,0,0,-1,1140,1457,0,0
-77,-433,0,0,0,0,0,0,0,0,0,-1,1147,1457,0,0
-70,-433,0,0,0,0,0,0,0,0,0,-1,1154,1457,0,0
-63,-433,0,0,0,0,0,0,0,0,0,-1,1161,1457,0,0
-56,-433,0,0,0,0,0,0,0,0,0,-1,1168,1457,0,0
-49,-433,0,0,0,0,0,0,0,0,0,-1,1175,1457,0,0
-42,-433,0,0,0,0,0,0,0,0,0,-1,1182,1457,0,0
-35,-433,0,0,0,0,0,0,0,0,0,-1,1189,1457,0,0
-28,-433,0,0,0,0,0,0,0,0,0,-1,1196,1457,0,0
-21,-433,0,0,0,0,0,0,0,0,0,-1,1203,1457,0,0
-14,-433,0,0,0,0,0,0,0,0,0,-1,1210,1457,0,0
-7,-433,0,0,0,0,0,0,0,0,0,-1,1217,1457,0,0
0,-433,0,0,0,0,0,0,0,0,0,-1,1224,1457,0,0
7,-433,0,0,0,0,0,0,0,0,0,-1,1231,1457,0,0
14,-433,0,0,0,0,0,0,0,0,0,-1,1238,1457,0,0
21,-433,0,0,0,0,0,0,0,0,0,-1,1245,1457,0,0
28,-433,0,0,0,0,0,0,0,0,0,-1,1252,1457,0,0
35,-433,0,0,0,0,0,0,0,0,0,-1,1259,1457,0,0
42,-433,0,0,0,0,0,0,0,0,0,-1,1266,1457,0,0
49,-433,0,0,0,0,0,0,0,0,0,-1,1273,1457,0,0
56,-433,0,0,0,0,0,0,0,0,0,-1,1280,1457,0,0
63,-433,0,0,0,0,0,0,0,0,0,-1,1287,1457,0,0
70,-433,0,0,0,0,0,0,0,0,0,-1,1294,1457,0,0
77,-433,0,0,0,0,0,0,0,0,0,-1,1301,1457,0,0
84,-433,0,0,0,0,0,0,0,0,0,-1,1308,1457,0,0
91,-433,0,0,0,0,0,0,0,0,0,-1,1315,1457,0,0
98,-433,0,0,0,0,0,0,0,0,0,-1,1322,1457,0,0
105,-433,0,0,0,0,0,0,0,0,0,-1,1329,1457,0,0
112,-433,0,0,0,0,0,0,0,0,0,-1,1336,1457,0,0
119,-433,0,0,0,0,0,0,0,0,0,-1,1343,1457,0,0
126,-433,0,0,0,0,0,0,0,0,0,-1,1350,1457,0,0
133,-433,0,0,0,0,0,0,0,0,0,-1,1357,1457,0,0
140,-433,0,0,0,0,0,0,0,0,0,-1,1364,1457,0,0
147,-433,0,0,0,0,0,0,0,0,0,-1,1371,1457,0,0
154,-433,0,0,0,0,0,0,0,0,0,-1,1378,1457,0,0
161,-433,0,0,0,0,0,0,0,0,0,-1,1385,1457,0,0
168,-433,0,0,0,0,0,0,0,0,0,-1,1392,1457,0,0
175,-433,0,0,0,0,0,0,0,0,0,-1,1399,1457,0,0
182,-433,0,0,0,0,0,0,0,0,0,-1,1406,1457,0,0
189,-433,0,0,0,0,0,0,0,0,0,-1,1413,1457,0,0
196,-433,0,0,0,0,0,0,0,0,0,-1,1420,1457,0,0
203,-433,0,0,0,0,0,0,0,0,0,-1,1427,1457,0,0
210,-433,0,0,0,0,0,0,0,0,0,-1,1434,1457,0,0
217,-433,0,0,0,0,0,0,0,0,0,-1,1441,1457,0,0
224,-433,0,0,0,0,0,0,0,0,0,-1,1448,1457,0,0
231,-433,0,0,0,0,0,0,0,0,0,-1,1455,1457,0,0
238,-433,0,0,0,0,0,0,0,0,0,-1,1462,1457,0,0
245,-433,0,0,0,0,0,0,0,0,0,-1,1469,1457,0,0
252,-433,0,0,0,0,0,0,0,0,0,-1,1476,1457,0,0
259,-433,0,0,0,0,0,0,0,0,0,-1,1483,1457,0,0
266,-433,0,0,0,0,0,0,0,0,0,-1,1490,1457,0,0
273,-433,0,0,0,0,0,0,0,0,0,-1,1497,1457,0,0
280,-433,0,0,0,0,0,0,0,0,0,-1,1504,1457,0,0
287,-433,0,0,0,0,0,0,0,0,0,-1,1511,1457,0,0
294,-433,0,0,0,0,0,0,0,0,0,-1,1518,1457,0,0
301,-433,0,0,0,0,0,0,0,0,0,-1,1525,1457,0,0
308,-433,0,0,0,0,0,0,0,0,0,-1,1532,1457,0,0
315,-433,0,0,0,0,0,0,0,0,0,-1,1539,1457,0,0
322,-433,0,0,0,0,0,0,0,0,0,-1,1546,1457,0,0
329,-433,0,0,0,0,0,0,0,0,0,-1,1553,1457,0,0
336,-433,0,0,0,0,0,0,0,0,0,-1,1560,1457,0,0
343,-433,0,0,0,0,0,0,0,0,0,-1,1567,1457,0,0
350,-433,0,0,0,0,0,0,0,0,0,-1,1574,1457,0,0
357,-433,0,0,0,0,0,0,0,0,0,-1,1581,1457,0,0
364,-433,0,0,0,0,0,0,0,0,0,-1,1588,1457,0,0
371,-433,0,0,0,0,0,0,0,0,0,-1,1595,1457,0,0
378,-433,0,0,0,0,0,0,0,0,0,-1,1602,1457,0,0
385,-433,0,0,0,0,0,0,0,0,0,-1,1609,1457,0,0
392,-433,0,0,0,0,0,0,0,0,0,-1,1616,1457,0,0
399,-433,0,0,0,0,0,0,0,0,0,-1,1623,1457,0,0
406,-433,0,0,0,0,0,0,0,0,0,-1,1630,1457,0,0
413,-433,0,0,0,0,0,0,0,0,0,-1,1637,1457,0,0
420,-433,0,0,0,0,0,0,0,0,0,-1,1644,1457,0,0
427,-433,0,0,0,0,0,0,0,0,0,-1,1651,1457,0,0
434,-433,0,0,0,0,0,0,0,0,0,-1,1658,1457,0,0
441,-433,0,0,0,0,0,0,0,0,0,-1,1665,1457,0,0
448,-433,0,0,0,0,0,0,0,0,0,-1,1672,1457,0,0
455,-433,0,0,0,0,0,0,0,0,0,-1,1679,1457,0,0
462,-433,0,0,0,0,0,0,0,0,0,-1,1686,1457,0,0
469,-433,0,0,0,0,0,0,0,0,0,-1,1693,1457,0,0
476,-433,0,0,0,0,0,0,0,0,0,-1,1700,1457,0,0
483,-433,0,0,0,0,0,0,0,0,0,-1,1707,1457,0,0
490,-433,0,0,0,0,0,0,0,0,0,-1,1714,1457,0,0
497,-433,0,0,0,0,0,0,0,0,0,-1,1721,1457,0,0
504,-433,11.0808,1.72498,0,0,0,0,0,0,0,-1,1728,1457,11.0808,-1.72492
511,-433,10.6913,2.06396,0,0,0,0,0,0,0,-1,1735,1457,10.6913,-2.06403
518,-433,10.2898,2.58838,0,0,0,0,0,0,0,-1,1742,1457,10.2897,-2.58838
525,-433,12.8851,0.920532,0,0,0,0,0,0,0,-1,1749,1457,12.8852,-0.920487
532,-433,14.2776,3.4751,0,0,0,0,0,0,0,-1,1756,1457,14.2776,-3.47508
539,-433,14.5688,2.54126,0,0,0,0,0,0,0,-1,1763,1457,14.5689,-2.54128
546,-433,12.918,8.31519,0,0,0,0,0,0,0,-1,1770,1457,12.9179,-8.31515
553,-433,10.5166,6.54968,0,0,0,0,0,0,0,-1,1777,1457,10.5166,-6.54966
560,-433,10.5306,6.76135,0,0,0,0,0,0,0,-1,1784,1457,10.5306,-6.76131
567,-433,11.1608,6.61414,0,0,0,0,0,0,0,-1,1791,1457,11.1607,-6.6141
574,-433,10.7772,6.21912,0,0,0,0,0,0,0,-1,1798,1457,10.7772,-6.21915
581,-433,10.5247,6.71997,-0.0215781,-0.024492,0.0196861,-0.00329513,-0.042775,0.748461,0.0274842,0.0410103,1805,1457,10.5247,-6.72
588,-433,10.2765,6.84106,-0.0172565,-0.0195532,0.016449,-0.0019158,-0.034894,0.750548,0.0226511,0.0300466,1812,1457,10.2764,-6.84111
595,-433,10.151,6.80969,-0.0138346,-0.0153375,0.0135809,-0.00098444,-0.0281877,0.757761,0.0184724,0.0204519,1819,1457,10.151,-6.80965
602,-433,10.1902,6.63818,-0.0108576,-0.0120406,0.0107882,-0.000644626,-0.0222535,0.758011,0.0146255,0.019452,1826,1457,10.1902,-6.63813
609,-433,10.186,6.4552,-0.00823387,-0.00903592,0.00843977,-0.000185605,-0.0170842,0.761658,0.0113281,0.0158797,1833,1457,10.186,-6.45521
616,-433,10.1726,6.28406,-0.00578913,-0.0067863,0.0062592,-8.6925e-06,-0.0125667,0.745654,0.00837493,0.0138211,1840,1457,10.1726,-6.28401
623,-433,10.1619,6.11096,-0.00339063,-0.00520917,0.00443384,0.000226217,-0.00882602,0.684263,0.00596085,0.0102709,1847,1457,10.1618,-6.11093
630,-433,10.1729,5.9574,-0.00129308,-0.00433969,0.00292852,0.000484633,-0.0061174,0.545574,0.00424904,0.0122611,1854,1457,10.1728,-5.95742
637,-433,10.188,5.77649,0.000361666,-0.00410106,0.00185138,0.00102971,-0.0047691,0.346298,0.00357246,0.0132966,1861,1457,10.188,-5.77653
644,-433,10.188,5.6145,0.00147089,-0.00443643,0.00138786,0.00178071,-0.00474624,0.219631,0.00389583,0.0135863,1868,1457,10.188,-5.61447
651,-433,10.1755,5.43921,0.00246473,-0.00544849,0.00124353,0.00265554,-0.0056393,0.152258,0.00489122,0.0114054,1875,1457,10.1755,-5.4392
658,-433,10.192,5.20386,0.00300106,-0.00724943,0.00172221,0.00328268,-0.00753105,0.162085,0.0064019,0.0129237,1882,1457,10.192,-5.20382
665,-433,10.1693,4.99377,0.00295436,-0.0103407,0.00307903,0.00363281,-0.0110192,0.216881,0.00881037,0.021351,1889,1457,10.1693,-4.99374
672,-433,10.3262,5.12964,0.00232928,-0.0145569,0.00537451,0.00389474,-0.0161224,0.283434,0.0122546,0.0406033,1896,1457,10.3261,-5.12966
679,-433,10.3862,5.44531,0.000888168,-0.0196084,0.00862323,0.00403345,-0.0227536,0.34975,0.016677,0.0465731,1903,1457,10.3863,-5.44534
686,-433,10.3915,5.62451,0,0,0,0,0,0,0,-1,1910,1457,10.3915,-5.62453
693,-433,8.27722,4.4519,0,0,0,0,0,0,0,-1,1917,1457,8.27728,-4.45186
700,-433,7.16809,-1.5166,0,0,0,0,0,0,0,-1,1924,1457,7.16806,1.51656
707,-433,8.68359,-2.82202,0,0,0,0,0,0,0,-1,1931,1457,8.68359,2.82197
714,-433,0,0,0,0,0,0,0,0,0,-1,1938,1457,0,0
721,-433,0,0,0,0,0,0,0,0,0,-1,1945,1457,0,0
728,-433,0,0,0,0,0,0,0,0,0,-1,1952,1457,0,0
735,-433,0,0,0,0,0,0,0,0,0,-1,1959,1457,0,0
742,-433,0,0,0,0,0,0,0,0,0,-1,1966,1457,0,0
749,-433,0,0,0,0,0,0,0,0,0,-1,1973,1457,0,0
756,-433,0,0,0,0,0,0,0,0,0,-1,1980,1457,0,0
763,-433,0,0,0,0,0,0,0,0,0,-1,1987,1457,0,0
770,-433,0,0,0,0,0,0,0,0,0,-1,1994,1457,0,0
777,-433,0,0,0,0,0,0,0,0,0,-1,2001,1457,0,0
784,-433,0,0,0,0,0,0,0,0,0,-1,2008,1457,0,0
791,-433,0,0,0,0,0,0,0,0,0,-1,2015,1457,0,0
798,-433,0,0,0,0,0,0,0,0,0,-1,2022,1457,0,0
805,-433,0,0,0,0,0,0,0,0,0,-1,2029,1457,0,0
812,-433,0,0,0,0,0,0,0,0,0,-1,2036,1457,0,0
-700,-440,0,0,0,0,0,0,0,0,0,-1,524,1464,0,0
-693,-440,0,0,0,0,0,0,0,0,0,-1,531,1464,0,0
-686,-440,0,0,0,0,0,0,0,0,0,-1,538,1464,0,0
-679,-440,0,0,0,0,0,0,0,0,0,-1,545,1464,0,0
-672,-440,0,0,0,0,0,0,0,0,0,-1,552,1464,0,0
-665,-440,0,0,0,0,0,0,0,0,0,-1,559,1464,0,0
-658,-440,0,0,0,0,0,0,0,0,0,-1,566,1464,0,0
-651,-440,0,0,0,0,0,0,0,0,0,-1,573,1464,0,0
-644,-440,0,0,0,0,0,0,0,0,0,-1,580,1464,0,0
-637,-440,0,0,0,0,0,0,0,0,0,-1,587,1464,0,0
-630,-440,0,0,0,0,0,0,0,0,0,-1,594,1464,0,0
-623,-440,0,0,0,0,0,0,0,0,0,-1,601,1464,0,0
-616,-440,0,0,0,0,0,0,0,0,0,-1,608,1464,0,0
-609,-440,0,0,0,0,0,0,0,0,0,-1,615,1464,0,0
-602,-440,0,0,0,0,0,0,0,0,0,-1,622,1464,0,0
-595,-440,0,0,0,0,0,0,0,0,0,-1,629,1464,0,0
-588,-440,0,0,0,0,0,0,0,0,0,-1,636,1464,0,0
-581,-440,-4.76263,-2.40723,0,0,0,0,0,0,0,-1,643,1464,-4.76262,2.40718
-574,-440,-4.5788,-2.59216,0,0,0,0,0,0,0,-1,650,1464,-4.57878,2.59222
-567,-440,-4.49176,-1.63062,0,0,0,0,0,0,0,-1,657,1464,-4.49176,1.63066
-560,-440,-4.48364,-0.710815,0,0,0,0,0,0,0,-1,664,1464,-4.48363,0.710763
-553,-440,-4.61749,0.12915,0,0,0,0,0,0,0,-1,671,1464,-4.61751,-0.129112
-546,-440,-4.49756,1.28198,0,0,0,0,0,0,0,-1,678,1464,-4.49753,-1.28197
-539,-440,-2.62616,2.948,0,0,0,0,0,0,0,-1,685,1464,-2.62617,-2.94801
-532,-440,-2.5788,3.24414,0.0325841,0.00219905,0.00746284,0.0343181,0.000465062,0.228299,0.0227253,0.03553,692,1464,-2.57878,-3.24413
-525,-440,-2.57178,3.46875,0.0233532,0.00176046,0.00559589,0.0247172,0.000396417,0.239095,0.0163476,0.0166317,699,1464,-2.57175,-3.46879
-518,-440,-2.56696,3.61206,0.0162578,0.00139119,0.00414413,0.0173349,0.000314035,0.254295,0.0114534,0.012674,706,1464,-2.56696,-3.61203
-511,-440,-2.54315,3.81677,0.0108029,0.00119777,0.002891,0.0116059,0.000394757,0.270933,0.00760911,0.0145059,713,1464,-2.54318,-3.81679
-504,-440,-2.52155,4.00574,0.00681546,0.000843411,0.00184998,0.00734209,0.00031678,0.277333,0.00479262,0.017143,720,1464,-2.52153,-4.00571
-497,-440,-2.53149,4.19299,0.00376703,0.00046352,0.000448709,0.00382689,0.000403658,0.132627,0.00242792,0.0195764,727,1464,-2.53147,-4.193
-490,-440,-2.54651,4.37195,0.00132558,6.86185e-05,-0.000657834,0.0016069,-0.000212699,-0.404106,0.00114875,0.0200923,734,1464,-2.54651,-4.37199
-483,-440,-2.56213,4.61255,-0.00034033,-0.000468527,-0.00176466,0.0013614,-0.00217025,-0.767244,0.00205675,0.0181678,741,1464,-2.56213,-4.61257
-476,-440,-2.54785,4.82361,-0.00134044,-0.001244,-0.00331169,0.00201982,-0.00460426,-0.792678,0.00392024,0.0121931,748,1464,-2.54783,-4.8236
-469,-440,-2.55414,5.03601,-0.00211612,-0.00244603,-0.00522062,0.00294215,-0.00750431,-0.769605,0.00622003,0.0124594,755,1464,-2.55412,-5.03602
-462,-440,-2.56757,5.24939,-0.00289091,-0.0038712,-0.0073096,0.00394496,-0.0107071,-0.751921,0.0087545,0.0141763,762,1464,-2.56757,-5.24943
-455,-440,-2.52515,5.48889,-0.00388423,-0.00572017,-0.00987708,0.00511745,-0.0147218,-0.739062,0.0118932,0.0159544,769,1464,-2.52517,-5.48887
-448,-440,-2.37982,5.64331,-0.0048193,-0.00815487,-0.0129861,0.00660568,-0.0195799,-0.721534,0.0157246,0.0261705,776,1464,-2.3798,-5.6433
-441,-440,-2.47937,5.47498,-0.00584213,-0.0114211,-0.0166768,0.00827686,-0.0255401,-0.702531,0.0203546,0.0365736,783,1464,-2.47936,-5.47494
-434,-440,-2.5108,5.35388,0,0,0,0,0,0,0,-1,790,1464,-2.51078,-5.35383
-427,-440,-2.72015,5.53394,0,0,0,0,0,0,0,-1,797,1464,-2.72018,-5.53394
-420,-440,-2.6983,5.56714,0,0,0,0,0,0,0,-1,804,1464,-2.69829,-5.56714
-413,-440,-3.93939,5.00146,0,0,0,0,0,0,0,-1,811,1464,-3.93938,-5.0015
-406,-440,-5.2887,5.20264,0,0,0,0,0,0,0,-1,818,1464,-5.2887,-5.20261
-399,-440,-9.74152,2.91626,0,0,0,0,0,0,0,-1,825,1464,-9.74152,-2.91623
-392,-440,0.510254,0.437744,0,0,0,0,0,0,0,-1,832,1464,0.510244,-0.43771
-385,-440,6.70496,1.25854,0,0,0,0,0,0,0,-1,839,1464,6.70498,-1.25858
-378,-440,7.93719,1.35864,0,0,0,0,0,0,0,-1,846,1464,7.93722,-1.35859
-371,-440,0,0,0,0,0,0,0,0,0,-1,853,1464,0,0
-364,-440,0,0,0,0,0,0,0,0,0,-1,860,1464,0,0
-357,-440,0,0,0,0,0,0,0,0,0,-1,867,1464,0,0
-350,-440,0,0,0,0,0,0,0,0,0,-1,874,1464,0,0
-343,-440,0,0,0,0,0,0,0,0,0,-1,881,1464,0,0
-336,-440,0,0,0,0,0,0,0,0,0,-1,888,1464,0,0
-329,-440,0,0,0,0,0,0,0,0,0,-1,895,1464,0,0
-322,-440,0,0,0,0,0,0,0,0,0,-1,902,1464,0,0
-315,-440,0,0,0,0,0,0,0,0,0,-1,909,1464,0,0
-308,-440,0,0,0,0,0,0,0,0,0,-1,916,1464,0,0
-301,-440,0,0,0,0,0,0,0,0,0,-1,923,1464,0,0
-294,-440,0,0,0,0,0,0,0,0,0,-1,930,1464,0,0
-287,-440,0,0,0,0,0,0,0,0,0,-1,937,1464,0,0
-280,-440,0,0,0,0,0,0,0,0,0,-1,944,1464,0,0
-273,-440,0,0,0,0,0,0,0,0,0,-1,951,1464,0,0
-266,-440,0,0,0,0,0,0,0,0,0,-1,958,1464,0,0
-259,-440,0,0,0,0,0,0,0,0,0,-1,965,1464,0,0
-252,-440,0,0,0,0,0,0,0,0,0,-1,972,1464,0,0
-245,-440,0,0,0,0,0,0,0,0,0,-1,979,1464,0,0
-238,-440,0,0,0,0,0,0,0,0,0,-1,986,1464,0,0
-231,-440,0,0,0,0,0,0,0,0,0,-1,993,1464,0,0
-224,-440,0,0,0,0,0,0,0,0,0,-1,1000,1464,0,0
-217,-440,0,0,0,0,0,0,0,0,0,-1,1007,1464,0,0
-210,-440,0,0,0,0,0,0,0,0,0,-1,1014,1464,0,0
-203,-440,0,0,0,0,0,0,0,0,0,-1,1021,1464,0,0
-196,-440,0,0,0,0,0,0,0,0,0,-1,1028,1464,0,0
-189,-440,0,0,0,0,0,0,0,0,0,-1,1035,1464,0,0
-182,-440,0,0,0,0,0,0,0,0,0,-1,1042,1464,0,0
-175,-440,0,0,0,0,0,0,0,0,0,-1,1049,1464,0,0
-168,-440,0,0,0,0,0,0,0,0,0,-1,1056,1464,0,0
-161,-440,0,0,0,0,0,0,0,0,0,-1,1063,1464,0,0
-154,-440,0,0,0,0,0,0,0,0,0,-1,1070,1464,0,0
-147,-440,0,0,0,0,0,0,0,0,0,-1,1077,1464,0,0
-140,-440,0,0,0,0,0,0,0,0,0,-1,1084,1464,0,0
-133,-440,0,0,0,0,0,0,0,0,0,-1,1091,1464,0,0
-126,-440,0,0,0,0,0,0,0,0,0,-1,1098,1464,0,0
-119,-440,0,0,0,0,0,0,0,0,0,-1,1105,1464,0,0
-112,-440,0,0,0,0,0,0,0,0,0,-1,1112,1464,0,0
-105,-440,0,0,0,0,0,0,0,0,0,-1,1119,1464,0,0
-98,-440,0,0,0,0,0,0,0,0,0,-1,1126,1464,0,0
-91,-440,0,0,0,0,0,0,0,0,0,-1,1133,1464,0,0
-84,-440,0,0,0,0,0,0,0,0,0,-1,1140,1464,0,0
-77,-440,0,0,0,0,0,0,0,0,0,-1,1147,1464,0,0
-70,-440,0,0,0,0,0,0,0,0,0,-1,1154,1464,0,0
-63,-440,0,0,0,0,0,0,0,0,0,-1,1161,1464,0,0
-56,-440,0,0,0,0,0,0,0,0,0,-1,1168,1464,0,0
-49,-440,0,0,0,0,0,0,0,0,0,-1,1175,1464,0,0
-42,-440,0,0,0,0,0,0,0,0,0,-1,1182,1464,0,0
-35,-440,0,0,0,0,0,0,0,0,0,-1,1189,1464,0,0
-28,-440,0,0,0,0,0,0,0,0,0,-1,1196,1464,0,0
-21,-440,0,0,0,0,0,0,0,0,0,-1,1203,1464,0,0
-14,-440,0,0,0,0,0,0,0,0,0,-1,1210,1464,0,0
-7,-440,0,0,0,0,0,0,0,0,0,-1,1217,1464,0,0
0,-440,0,0,0,0,0,0,0,0,0,-1,1224,1464,0,0
7,-440,0,0,0,0,0,0,0,0,0,-1,1231,1464,0,0
14,-440,0,0,0,0,0,0,0,0,0,-1,1238,1464,0,0
21,-440,0,0,0,0,0,0,0,0,0,-1,1245,1464,0,0
28,-440,0,0,0,0,0,0,0,0,0,-1,1252,1464,0,0
35,-440,0,0,0,0,0,0,0,0,0,-1,1259,1464,0,0
42,-440,0,0,0,0,0,0,0,0,0,-1,1266,1464,0,0
49,-440,0,0,0,0,0,0,0,0,0,-1,1273,1464,0,0
56,-440,0,0,0,0,0,0,0,0,0,-1,1280,1464,0,0
63,-440,0,0,0,0,0,0,0,0,0,-1,1287,1464,0,0
70,-440,0,0,0,0,0,0,0,0,0,-1,1294,1464,0,0
77,-440,0,0,0,0,0,0,0,0,0,-1,1301,1464,0,0
84,-440,0,0,0,0,0,0,0,0,0,-1,1308,1464,0,0
91,-440,0,0,0,0,0,0,0,0,0,-1,1315,1464,0,0
98,-440,0,0,0,0,0,0,0,0,0,-1,1322,1464,0,0
105,-440,0,0,0,0,0,0,0,0,0,-1,1329,1464,0,0
112,-440,0,0,0,0,0,0,0,0,0,-1,1336,1464,0,0
119,-440,0,0,0,0,0,0,0,0,0,-1,1343,1464,0,0
126,-440,0,0,0,0,0,0,0,0,0,-1,1350,1464,0,0
133,-440,0,0,0,0,0,0,0,0,0,-1,1357,1464,0,0
140,-440,0,0,0,0,0,0,0,0,0,-1,1364,1464,0,0
147,-440,0,0,0,0,0,0,0,0,0,-1,1371,1464,0,0
154,-440,0,0,0,0,0,0,0,0,0,-1,1378,1464,0,0
161,-440,0,0,0,0,0,0,0,0,0,-1,1385,1464,0,0
168,-440,0,0,0,0,0,0,0,0,0,-1,1392,1464,0,0
175,-440,0,0,0,0,0,0,0,0,0,-1,1399,1464,0,0
182,-440,0,0,0,0,0,0,0,0,0,-1,1406,1464,0,0
189,-440,0,0,0,0,0,0,0,0,0,-1,1413,1464,0,0
196,-440,0,0,0,0,0,0,0,0,0,-1,1420,1464,0,0
203,-440,0,0,0,0,0,0,0,0,0,-1,1427,1464,0,0
210,-440,0,0,0,0,0,0,0,0,0,-1,1434,1464,0,0
217,-440,0,0,0,0,0,0,0,0,0,-1,1441,1464,0,0
224,-440,0,0,0,0,0,0,0,0,0,-1,1448,1464,0,0
231,-440,0,0,0,0,0,0,0,0,0,-1,1455,1464,0,0
238,-440,0,0,0,0,0,0,0,0,0,-1,1462,1464,0,0
245,-440,0,0,0,0,0,0,0,0,0,-1,1469,1464,0,0
252,-440,0,0,0,0,0,0,0,0,0,-1,1476,1464,0,0
259,-440,0,0,0,0,0,0,0,0,0,-1,1483,1464,0,0
266,-440,0,0,0,0,0,0,0,0,0,-1,1490,1464,0,0
273,-440,0,0,0,0,0,0,0,0,0,-1,1497,1464,0,0
280,-440,0,0,0,0,0,0,0,0,0,-1,1504,1464,0,0
287,-440,0,0,0,0,0,0,0,0,0,-1,1511,1464,0,0
294,-440,0,0,0,0,0,0,0,0,0,-1,1518,1464,0,0
301,-440,0,0,0,0,0,0,0,0,0,-1,1525,1464,0,0
308,-440,0,0,0,0,0,0,0,0,0,-1,1532,1464,0,0
315,-440,0,0,0,0,0,0,0,0,0,-1,1539,1464,0,0
322,-440,0,0,0,0,0,0,0,0,0,-1,1546,1464,0,0
329,-440,0,0,0,0,0,0,0,0,0,-1,1553,1464,0,0
336,-440,0,0,0,0,0,0,0,0,0,-1,1560,1464,0,0
343,-440,0,0,0,0,0,0,0,0,0,-1,1567,1464,0,0
350,-440,0,0,0,0,0,0,0,0,0,-1,1574,1464,0,0
357,-440,0,0,0,0,0,0,0,0,0,-1,1581,1464,0,0
364,-440,0,0,0,0,0,0,0,0,0,-1,1588,1464,0,0
371,-440,0,0,0,0,0,0,0,0,0,-1,1595,1464,0,0
378,-440,0,0,0,0,0,0,0,0,0,-1,1602,1464,0,0
385,-440,0,0,0,0,0,0,0,0,0,-1,1609,1464,0,0
392,-440,0,0,0,0,0,0,0,0,0,-1,1616,1464,0,0
399,-440,0,0,0,0,0,0,0,0,0,-1,1623,1464,0,0
406,-440,0,0,0,0,0,0,0,0,0,-1,1630,1464,0,0
413,-440,0,0,0,0,0,0,0,0,0,-1,1637,1464,0,0
420,-440,0,0,0,0,0,0,0,0,0,-1,1644,1464,0,0
427,-440,0,0,0,0,0,0,0,0,0,-1,1651,1464,0,0
434,-440,0,0,0,0,0,0,0,0,0,-1,1658,1464,0,0
441,-440,0,0,0,0,0,0,0,0,0,-1,1665,1464,0,0
448,-440,0,0,0,0,0,0,0,0,0,-1,1672,1464,0,0
455,-440,0,0,0,0,0,0,0,0,0,-1,1679,1464,0,0
462,-440,0,0,0,0,0,0,0,0,0,-1,1686,1464,0,0
469,-440,0,0,0,0,0,0,0,0,0,-1,1693,1464,0,0
476,-440,0,0,0,0,0,0,0,0,0,-1,1700,1464,0,0
483,-440,0,0,0,0,0,0,0,0,0,-1,1707,1464,0,0
490,-440,0,0,0,0,0,0,0,0,0,-1,1714,1464,0,0
497,-440,12.1191,2.20862,0,0,0,0,0,0,0,-1,1721,1464,12.1192,-2.20862
504,-440,11.019,1.94946,0,0,0,0,0,0,0,-1,1728,1464,11.019,-1.94941
511,-440,9.98865,1.87866,0,0,0,0,0,0,0,-1,1735,1464,9.98861,-1.87864
518,-440,10.1204,0.547607,0,0,0,0,0,0,0,-1,1742,1464,10.1204,-0.547577
525,-440,10.0325,0.758545,0,0,0,0,0,0,0,-1,1749,1464,10.0324,-0.758504
532,-440,13.9508,3.87207,0,0,0,0,0,0,0,-1,1756,1464,13.9508,-3.87211
539,-440,9.24414,5.26172,0,0,0,0,0,0,0,-1,1763,1464,9.24413,-5.26169
546,-440,11.8075,7.87939,0,0,0,0,0,0,0,-1,1770,1464,11.8075,-7.8794
553,-440,10.8983,7.16235,-0.0361768,-0.0410054,0.0257119,-0.0127661,-0.064416,0.738586,0.0393845,0.0441239,1777,1464,10.8983,-7.16233
560,-440,10.7816,7.11267,-0.0304568,-0.0352693,0.0235265,-0.00921389,-0.0565123,0.734436,0.0350101,0.044273,1784,1464,10.7816,-7.11263
567,-440,10.8114,6.9563,-0.025474,-0.0295732,0.0208981,-0.00652524,-0.048522,0.736517,0.0304072,0.0480277,1791,1464,10.8115,-6.95633
574,-440,10.4727,6.67957,-0.0211083,-0.0242163,0.0180486,-0.00454699,-0.0407777,0.742454,0.0258033,0.0473263,1798,1464,10.4727,-6.6796
581,-440,10.182,6.92651,-0.0171725,-0.0194202,0.0151865,-0.00306835,-0.0335243,0.748463,0.0214002,0.0337053,1805,1464,10.1821,-6.92657
588,-440,9.99976,7.0105,-0.0133476,-0.0152316,0.0124441,-0.00180987,-0.0267694,0.747621,0.0172746,0.0219575,1812,1464,9.99977,-7.01047
595,-440,9.99438,6.85156,-0.0105861,-0.011714,0.0101574,-0.000976966,-0.0213231,0.757666,0.0139012,0.0188164,1819,1464,9.99444,-6.85152
602,-440,10.0225,6.66541,-0.0082661,-0.00909861,0.00791889,-0.000752533,-0.0166122,0.75914,0.0108327,0.0179349,1826,1464,10.0224,-6.66538
609,-440,9.99988,6.48682,-0.00619119,-0.00677696,0.00607604,-0.000400974,-0.0125672,0.761315,0.00824771,0.0158135,1833,1464,9.99984,-6.48676
616,-440,9.96716,6.30664,-0.00424171,-0.0051302,0.00440521,-0.000258401,-0.0091135,0.735145,0.00599139,0.0174837,1840,1464,9.96711,-6.30668
623,-440,9.99866,6.11255,-0.00227304,-0.0041453,0.00307581,5.93695e-06,-0.00642428,0.637676,0.00428484,0.0128369,1847,1464,9.99867,-6.11256
630,-440,9.99365,5.9364,-0.000496352,-0.00384885,0.00199296,0.000431566,-0.00477677,0.43575,0.00333768,0.0102009,1854,1464,9.99364,-5.93642
637,-440,9.99792,5.78455,0.00093181,-0.00415189,0.00129036,0.00124058,-0.00446066,0.234873,0.0034622,0.013825,1861,1464,9.99796,-5.78453
644,-440,10.0125,5.62671,0.00198662,-0.00504066,0.00111104,0.00215809,-0.00521214,0.153129,0.00437529,0.0132166,1868,1464,10.0125,-5.62668
651,-440,10.0443,5.42249,0.00307212,-0.00667202,0.00122368,0.00322344,-0.00682334,0.123036,0.00592333,0.0114996,1875,1464,10.0443,-5.42247
658,-440,10.0377,5.21899,0.00388599,-0.0091242,0.00185413,0.00414507,-0.00938328,0.138832,0.00800339,0.0161803,1882,1464,10.0377,-5.21903
665,-440,10.1543,5.12585,0.00443898,-0.0129362,0.00317089,0.00499956,-0.0134967,0.174984,0.0110481,0.0309005,1889,1464,10.1543,-5.12587
672,-440,10.5082,5.41882,0.00478162,-0.0178429,0.0052309,0.00593249,-0.0189938,0.216563,0.0150353,0.0448788,1896,1464,10.5082,-5.41882
679,-440,10.9097,5.60327,0.00461038,-0.0238471,0.0081538,0.00678108,-0.0260178,0.260184,0.0199926,0.0483403,1903,1464,10.9097,-5.60321
686,-440,11.0723,5.65149,0,0,0,0,0,0,0,-1,1910,1464,11.0723,-5.65145
693,-440,9.88635,2.89795,0,0,0,0,0,0,0,-1,1917,1464,9.88638,-2.89798
700,-440,7.07825,-2.62061,0,0,0,0,0,0,0,-1,1924,1464,7.07829,2.62057
707,-440,0,0,0,0,0,0,0,0,0,-1,1931,1464,0,0
714,-440,0,0,0,0,0,0,0,0,0,-1,1938,1464,0,0
721,-440,0,0,0,0,0,0,0,0,0,-1,1945,1464,0,0
728,-440,0,0,0,0,0,0,0,0,0,-1,1952,1464,0,0
735,-440,0,0,0,0,0,0,0,0,0,-1,1959,1464,0,0
742,-440,0,0,0,0,0,0,0,0,0,-1,1966,1464,0,0
749,-440,0,0,0,0,0,0,0,0,0,-1,1973,1464,0,0
756,-440,0,0,0,0,0,0,0,0,0,-1,1980,1464,0,0
763,-440,0,0,0,0,0,0,0,0,0,-1,1987,1464,0,0
770,-440,0,0,0,0,0,0,0,0,0,-1,1994,1464,0,0
777,-440,0,0,0,0,0,0,0,0,0,-1,2001,1464,0,0
784,-440,0,0,0,0,0,0,0,0,0,-1,2008,1464,0,0
791,-440,0,0,0,0,0,0,0,0,0,-1,2015,1464,0,0
798,-440,0,0,0,0,0,0,0,0,0,-1,2022,1464,0,0
805,-440,0,0,0,0,0,0,0,0,0,-1,2029,1464,0,0
812,-440,0,0,0,0,0,0,0,0,0,-1,2036,1464,0,0
-700,-447,0,0,0,0,0,0,0,0,0,-1,524,1471,0,0
-693,-447,0,0,0,0,0,0,0,0,0,-1,531,1471,0,0
-686,-447,0,0,0,0,0,0,0,0,0,-1,538,1471,0,0
-679,-447,0,0,0,0,0,0,0,0,0,-1,545,1471,0,0
-672,-447,0,0,0,0,0,0,0,0,0,-1,552,1471,0,0
-665,-447,0,0,0,0,0,0,0,0,0,-1,559,1471,0,0
-658,-447,0,0,0,0,0,0,0,0,0,-1,566,1471,0,0
-651,-447,0,0,0,0,0,0,0,0,0,-1,573,1471,0,0
-644,-447,0,0,0,0,0,0,0,0,0,-1,580,1471,0,0
-637,-447,0,0,0,0,0,0,0,0,0,-1,587,1471,0,0
-630,-447,0,0,0,0,0,0,0,0,0,-1,594,1471,0,0
-623,-447,0,0,0,0,0,0,0,0,0,-1,601,1471,0,0
-616,-447,0,0,0,0,0,0,0,0,0,-1,608,1471,0,0
-609,-447,0,0,0,0,0,0,0,0,0,-1,615,1471,0,0
-602,-447,0,0,0,0,0,0,0,0,0,-1,622,1471,0,0
-595,-447,0,0,0,0,0,0,0,0,0,-1,629,1471,0,0
-588,-447,0,0,0,0,0,0,0,0,0,-1,636,1471,0,0
-581,-447,-7.09741,0.302368,0,0,0,0,0,0,0,-1,643,1471,-7.09741,-0.302372
-574,-447,-5.3689,-2.94214,0,0,0,0,0,0,0,-1,650,1471,-5.3689,2.94209
-567,-447,-5.284,-1.97253,0,0,0,0,0,0,0,-1,657,1471,-5.284,1.97259
-560,-447,-5.27264,-1.02979,0,0,0,0,0,0,0,-1,664,1471,-5.27264,1.02975
-553,-447,-5.45758,-0.368408,0,0,0,0,0,0,0,-1,671,1471,-5.45761,0.368407
-546,-447,-5.23407,0.459595,0,0,0,0,0,0,0,-1,678,1471,-5.23407,-0.459552
-539,-447,-2.79572,2.80737,0,0,0,0,0,0,0,-1,685,1471,-2.7957,-2.80741
-532,-447,-2.52155,3.09167,0.0421733,0.00287022,0.0100123,0.0445769,0.000466591,0.235607,0.0295636,0.0457419,692,1471,-2.52153,-3.09163
-525,-447,-2.29425,3.50208,0.0306579,0.00187259,0.00751969,0.0325039,2.65799e-05,0.24073,0.0216604,0.0285777,699,1471,-2.29423,-3.50208
-518,-447,-2.35858,3.61133,0.0216967,0.00117479,0.00558173,0.0231166,-0.000245131,0.249104,0.0154934,0.019167,706,1471,-2.35861,-3.61134
-511,-447,-2.33716,3.82776,0.014828,0.000814245,0.00398656,0.0158827,-0.000240449,0.258637,0.0106695,0.0141223,713,1471,-2.33715,-3.82779
-504,-447,-2.31433,4.07507,0.0097814,0.000462712,0.00271076,0.0105126,-0.000268464,0.263461,0.00709956,0.0179887,720,1471,-2.31432,-4.07505
-497,-447,-2.34436,4.2699,0.0058737,4.84492e-05,0.00109917,0.00607421,-0.000152053,0.180428,0.00410109,0.0228879,727,1471,-2.34439,-4.26996
-490,-447,-2.3429,4.39453,0.00283858,-0.000229912,1.10811e-05,0.00283862,-0.000229952,0.00361119,0.00197354,0.0226205,734,1471,-2.34289,-4.39448
-483,-447,-2.36975,4.60242,0.000742242,-0.000610696,-0.00098984,0.00126469,-0.00113314,-0.485645,0.00138508,0.0198939,741,1471,-2.36974,-4.60238
-476,-447,-2.35284,4.8114,-0.000337096,-0.00121257,-0.00234483,0.00161051,-0.00316017,-0.693119,0.00280237,0.0133116,748,1471,-2.35282,-4.81135
-469,-447,-2.35522,5.04468,-0.000913099,-0.00228691,-0.00406269,0.00252035,-0.00572035,-0.701652,0.00487588,0.0133406,755,1471,-2.35525,-5.04469
-462,-447,-2.36426,5.26965,-0.00137594,-0.0035376,-0.00579536,0.00343852,-0.00835206,-0.693208,0.00700156,0.0132591,762,1471,-2.36428,-5.26963
-455,-447,-2.38971,5.47424,-0.00192433,-0.00522264,-0.00782279,0.00442125,-0.0115682,-0.681512,0.00953396,0.0130719,769,1471,-2.38971,-5.47428
-448,-447,-2.32642,5.66663,-0.00225042,-0.00745929,-0.0102395,0.00571069,-0.0154204,-0.660863,0.0126221,0.0177549,776,1471,-2.32644,-5.66668
-441,-447,-2.29559,5.77271,-0.00252745,-0.0104693,-0.0130151,0.00710903,-0.0201058,-0.637333,0.0162988,0.0278428,783,1471,-2.29559,-5.77267
-434,-447,-2.2998,5.85303,-0.00293774,-0.0138039,-0.0159637,0.00849211,-0.0252338,-0.621376,0.0202556,0.0384902,790,1471,-2.29978,-5.85304
-427,-447,-2.3371,5.72119,-0.00326648,-0.0181176,-0.0193828,0.0100645,-0.0314485,-0.602472,0.025005,0.0440167,797,1471,-2.33711,-5.72116
-420,-447,-2.44745,5.80261,0,0,0,0,0,0,0,-1,804,1471,-2.44745,-5.80262
-413,-447,-2.53137,5.29395,0,0,0,0,0,0,0,-1,811,1471,-2.53136,-5.29396
-406,-447,-4.48694,5.62988,0,0,0,0,0,0,0,-1,818,1471,-4.48696,-5.62994
-399,-447,0.0134888,0.687622,0,0,0,0,0,0,0,-1,825,1471,0.0134841,-0.68767
-392,-447,0.271057,0.278809,0,0,0,0,0,0,0,-1,832,1471,0.27108,-0.278763
-385,-447,0.327515,-0.0834961,0,0,0,0,0,0,0,-1,839,1471,0.327498,0.0834516
-378,-447,6.5293,1.50708,0,0,0,0,0,0,0,-1,846,1471,6.52927,-1.50709
-371,-447,7.32819,1.62622,0,0,0,0,0,0,0,-1,853,1471,7.3282,-1.62617
-364,-447,0,0,0,0,0,0,0,0,0,-1,860,1471,0,0
-357,-447,0,0,0,0,0,0,0,0,0,-1,867,1471,0,0
-350,-447,0,0,0,0,0,0,0,0,0,-1,874,1471,0,0
-343,-447,0,0,0,0,0,0,0,0,0,-1,881,1471,0,0
-336,-447,0,0,0,0,0,0,0,0,0,-1,888,1471,0,0
-329,-447,0,0,0,0,0,0,0,0,0,-1,895,1471,0,0
-322,-447,0,0,0,0,0,0,0,0,0,-1,902,1471,0,0
-315,-447,0,0,0,0,0,0,0,0,0,-1,909,1471,0,0
-308,-447,0,0,0,0,0,0,0,0,0,-1,916,1471,0,0
-301,-447,0,0,0,0,0,0,0,0,0,-1,923,1471,0,0
-294,-447,0,0,0,0,0,0,0,0,0,-1,930,1471,0,0
-287,-447,0,0,0,0,0,0,0,0,0,-1,937,1471,0,0
-280,-447,0,0,0,0,0,0,0,0,0,-1,944,1471,0,0
-273,-447,0,0,0,0,0,0,0,0,0,-1,951,1471,0,0
-266,-447,0,0,0,0,0,0,0,0,0,-1,958,1471,0,0
-259,-447,0,0,0,0,0,0,0,0,0,-1,965,1471,0,0
-252,-447,0,0,0,0,0,0,0,0,0,-1,972,1471,0,0
-245,-447,0,0,0,0,0,0,0,0,0,-1,979,1471,0,0
-238,-447,0,0,0,0,0,0,0,0,0,-1,986,1471,0,0
-231,-447,0,0,0,0,0,0,0,0,0,-1,993,1471,0,0
-224,-447,0,0,0,0,0,0,0,0,0,-1,1000,1471,0,0
-217,-447,0,0,0,0,0,0,0,0,0,-1,1007,1471,0,0
-210,-447,0,0,0,0,0,0,0,0,0,-1,1014,1471,0,0
-203,-447,0,0,0,0,0,0,0,0,0,-1,1021,1471,0,0
-196,-447,0,0,0,0,0,0,0,0,0,-1,1028,1471,0,0
-189,-447,0,0,0,0,0,0,0,0,0,-1,1035,1471,0,0
-182,-447,0,0,0,0,0,0,0,0,0,-1,1042,1471,0,0
-175,-447,0,0,0,0,0,0,0,0,0,-1,1049,1471,0,0
-168,-447,0,0,0,0,0,0,0,0,0,-1,1056,1471,0,0
-161,-447,0,0,0,0,0,0,0,0,0,-1,1063,1471,0,0
-154,-447,0,0,0,0,0,0,0,0,0,-1,1070,1471,0,0
-147,-447,0,0,0,0,0,0,0,0,0,-1,1077,1471,0,0
-140,-447,0,0,0,0,0,0,0,0,0,-1,1084,1471,0,0
-133,-447,0,0,0,0,0,0,0,0,0,-1,1091,1471,0,0
-126,-447,0,0,0,0,0,0,0,0,0,-1,1098,1471,0,0
-119,-447,0,0,0,0,0,0,0,0,0,-1,1105,1471,0,0
-112,-447,0,0,0,0,0,0,0,0,0,-1,1112,1471,0,0
-105,-447,0,0,0,0,0,0,0,0,0,-1,1119,1471,0,0
-98,-447,0,0,0,0,0,0,0,0,0,-1,1126,1471,0,0
-91,-447,0,0,0,0,0,0,0,0,0,-1,1133,1471,0,0
-84,-447,0,0,0,0,0,0,0,0,0,-1,1140,1471,0,0
-77,-447,0,0,0,0,0,0,0,0,0,-1,1147,1471,0,0
-70,-447,0,0,0,0,0,0,0,0,0,-1,1154,1471,0,0
-63,-447,0,0,0,0,0,0,0,0,0,-1,1161,1471,0,0
-56,-447,0,0,0,0,0,0,0,0,0,-1,1168,1471,0,0
-49,-447,0,0,0,0,0,0,0,0,0,-1,1175,1471,0,0
-42,-447,0,0,0,0,0,0,0,0,0,-1,1182,1471,0,0
-35,-447,0,0,0,0,0,0,0,0,0,-1,1189,1471,0,0
-28,-447,0,0,0,0,0,0,0,0,0,-1,1196,1471,0,0
-21,-447,0,0,0,0,0,0,0,0,0,-1,1203,1471,0,0
-14,-447,0,0,0,0,0,0,0,0,0,-1,1210,1471,0,0
-7,-447,0,0,0,0,0,0,0,0,0,-1,1217,1471,0,0
0,-447,0,0,0,0,0,0,0,0,0,-1,1224,1471,0,0
7,-447,0,0,0,0,0,0,0,0,0,-1,1231,1471,0,0
14,-447,0,0,0,0,0,0,0,0,0,-1,1238,1471,0,0
21,-447,0,0,0,0,0,0,0,0,0,-1,1245,1471,0,0
28,-447,0,0,0,0,0,0,0,0,0,-1,1252,1471,0,0
35,-447,0,0,0,0,0,0,0,0,0,-1,1259,1471,0,0
42,-447,0,0,0,0,0,0,0,0,0,-1,1266,1471,0,0
49,-447,0,0,0,0,0,0,0,0,0,-1,1273,1471,0,0
56,-447,0,0,0,0,0,0,0,0,0,-1,1280,1471,0,0
63,-447,0,0,0,0,0,0,0,0,0,-1,1287,1471,0,0
70,-447,0,0,0,0,0,0,0,0,0,-1,1294,1471,0,0
77,-447,0,0,0,0,0,0,0,0,0,-1,1301,1471,0,0
84,-447,0,0,0,0,0,0,0,0,0,-1,1308,1471,0,0
91,-447,0,0,0,0,0,0,0,0,0,-1,1315,1471,0,0
98,-447,0,0,0,0,0,0,0,0,0,-1,1322,1471,0,0
105,-447,0,0,0,0,0,0,0,0,0,-1,1329,1471,0,0
112,-447,0,0,0,0,0,0,0,0,0,-1,1336,1471,0,0
119,-447,0,0,0,0,0,0,0,0,0,-1,1343,1471,0,0
126,-447,0,0,0,0,0,0,0,0,0,-1,1350,1471,0,0
133,-447,0,0,0,0,0,0,0,0,0,-1,1357,1471,0,0
140,-447,0,0,0,0,0,0,0,0,0,-1,1364,1471,0,0
147,-447,0,0,0,0,0,0,0,0,0,-1,1371,1471,0,0
154,-447,0,0,0,0,0,0,0,0,0,-1,1378,1471,0,0
161,-447,0,0,0,0,0,0,0,0,0,-1,1385,1471,0,0
168,-447,0,0,0,0,0,0,0,0,0,-1,1392,1471,0,0
175,-447,0,0,0,0,0,0,0,0,0,-1,1399,1471,0,0
182,-447,0,0,0,0,0,0,0,0,0,-1,1406,1471,0,0
189,-447,0,0,0,0,0,0,0,0,0,-1,1413,1471,0,0
196,-447,0,0,0,0,0,0,0,0,0,-1,1420,1471,0,0
203,-447,0,0,0,0,0,0,0,0,0,-1,1427,1471,0,0
210,-447,0,0,0,0,0,0,0,0,0,-1,1434,1471,0,0
217,-447,0,0,0,0,0,0,0,0,0,-1,1441,1471,0,0
224,-447,0,0,0,0,0,0,0,0,0,-1,1448,1471,0,0
231,-447,0,0,0,0,0,0,0,0,0,-1,1455,1471,0,0
238,-447,0,0,0,0,0,0,0,0,0,-1,1462,1471,0,0
245,-447,0,0,0,0,0,0,0,0,0,-1,1469,1471,0,0
252,-447,0,0,0,0,0,0,0,0,0,-1,1476,1471,0,0
259,-447,0,0,0,0,0,0,0,0,0,-1,1483,1471,0,0
266,-447,0,0,0,0,0,0,0,0,0,-1,1490,1471,0,0
273,-447,0,0,0,0,0,0,0,0,0,-1,1497,1471,0,0
280,-447,0,0,0,0,0,0,0,0,0,-1,1504,1471,0,0
287,-447,0,0,0,0,0,0,0,0,0,-1,1511,1471,0,0
294,-447,0,0,0,0,0,0,0,0,0,-1,1518,1471,0,0
301,-447,0,0,0,0,0,0,0,0,0,-1,1525,1471,0,0
308,-447,0,0,0,0,0,0,0,0,0,-1,1532,1471,0,0
315,-447,0,0,0,0,0,0,0,0,0,-1,1539,1471,0,0
322,-447,0,0,0,0,0,0,0,0,0,-1,1546,1471,0,0
329,-447,0,0,0,0,0,0,0,0,0,-1,1553,1471,0,0
336,-447,0,0,0,0,0,0,0,0,0,-1,1560,1471,0,0
343,-447,0,0,0,0,0,0,0,0,0,-1,1567,1471,0,0
350,-447,0,0,0,0,0,0,0,0,0,-1,1574,1471,0,0
357,-447,0,0,0,0,0,0,0,0,0,-1,1581,1471,0,0
364,-447,0,0,0,0,0,0,0,0,0,-1,1588,1471,0,0
371,-447,0,0,0,0,0,0,0,0,0,-1,1595,1471,0,0
378,-447,0,0,0,0,0,0,0,0,0,-1,1602,1471,0,0
385,-447,0,0,0,0,0,0,0,0,0,-1,1609,1471,0,0
392,-447,0,0,0,0,0,0,0,0,0,-1,1616,1471,0,0
399,-447,0,0,0,0,0,0,0,0,0,-1,1623,1471,0,0
406,-447,0,0,0,0,0,0,0,0,0,-1,1630,1471,0,0
413,-447,0,0,0,0,0,0,0,0,0,-1,1637,1471,0,0
420,-447,0,0,0,0,0,0,0,0,0,-1,1644,1471,0,0
427,-447,0,0,0,0,0,0,0,0,0,-1,1651,1471,0,0
434,-447,0,0,0,0,0,0,0,0,0,-1,1658,1471,0,0
441,-447,0,0,0,0,0,0,0,0,0,-1,1665,1471,0,0
448,-447,0,0,0,0,0,0,0,0,0,-1,1672,1471,0,0
455,-447,0,0,0,0,0,0,0,0,0,-1,1679,1471,0,0
462,-447,0,0,0,0,0,0,0,0,0,-1,1686,1471,0,0
469,-447,0,0,0,0,0,0,0,0,0,-1,1693,1471,0,0
476,-447,0,0,0,0,0,0,0,0,0,-1,1700,1471,0,0
483,-447,0,0,0,0,0,0,0,0,0,-1,1707,1471,0,0
490,-447,12.9698,2.78125,0,0,0,0,0,0,0,-1,1714,1471,12.9698,-2.78125
497,-447,11.929,2.60156,0,0,0,0,0,0,0,-1,1721,1471,11.9289,-2.60159
504,-447,10.7043,2.46021,0,0,0,0,0,0,0,-1,1728,1471,10.7044,-2.46025
511,-447,9.8457,2.16089,0,0,0,0,0,0,0,-1,1735,1471,9.84576,-2.16092
518,-447,8.8656,2.03796,0,0,0,0,0,0,0,-1,1742,1471,8.86562,-2.03797
525,-447,10.0773,0.879639,0,0,0,0,0,0,0,-1,1749,1471,10.0772,-0.879601
532,-447,9.80176,6.0155,0,0,0,0,0,0,0,-1,1756,1471,9.80182,-6.01547
539,-447,11.0714,7.58997,0,0,0,0,0,0,0,-1,1763,1471,11.0714,-7.58999
546,-447,11.0022,7.49072,-0.0378603,-0.0415496,0.0239469,-0.0156871,-0.0637228,0.746958,0.038338,0.0436249,1770,1471,11.0022,-7.49076
553,-447,10.7417,7.51331,-0.0310892,-0.0351904,0.0219032,-0.0111408,-0.0551388,0.738725,0.0336658,0.0418911,1777,1471,10.7417,-7.51328
560,-447,10.6554,7.54309,-0.0254822,-0.0295023,0.0194705,-0.00791825,-0.0470663,0.733963,0.0290995,0.0445096,1784,1471,10.6554,-7.54313
567,-447,10.3597,7.2677,-0.0208559,-0.0242312,0.016891,-0.00556848,-0.0395186,0.735607,0.0246997,0.0410406,1791,1471,10.3598,-7.26774
574,-447,9.96899,7.20776,-0.0169757,-0.0195313,0.0142893,-0.00390717,-0.0325998,0.740806,0.020555,0.0279019,1798,1471,9.96899,-7.20777
581,-447,9.84045,7.19495,-0.0136225,-0.0153887,0.0118085,-0.00266405,-0.0263471,0.748076,0.0167475,0.0128271,1805,1471,9.84044,-7.195
588,-447,9.8457,7.01904,-0.010364,-0.0118987,0.00955548,-0.00154514,-0.0207176,0.745331,0.0133266,0.0115365,1812,1471,9.84568,-7.01909
595,-447,9.83228,6.83997,-0.00815458,-0.00895686,0.00774774,-0.000797605,-0.0163138,0.759534,0.01062,0.0121586,1819,1471,9.83228,-6.83991
602,-447,9.84131,6.65808,-0.00636897,-0.00690377,0.00595399,-0.000676376,-0.0125964,0.762958,0.00818144,0.0106781,1826,1471,9.84136,-6.65804
609,-447,9.82104,6.4679,-0.00471544,-0.00516852,0.00450093,-0.000435347,-0.00944861,0.760253,0.00615909,0.0117551,1833,1471,9.82102,-6.46787
616,-447,9.82385,6.28149,-0.00316191,-0.00404097,0.00323578,-0.000335943,-0.00686694,0.717894,0.00447019,0.0136128,1840,1471,9.82388,-6.28149
623,-447,9.8396,6.11035,-0.00154298,-0.00356522,0.00229562,-4.56674e-05,-0.00506253,0.577953,0.0033599,0.0148578,1847,1471,9.83964,-6.11029
630,-447,9.83472,5.9386,-1.76871e-05,-0.00377401,0.00154047,0.000533255,-0.00432495,0.343469,0.0030765,0.00874866,1854,1471,9.83473,-5.93855
637,-447,9.83472,5.76135,0.00125445,-0.00457692,0.00112497,0.00146395,-0.00478642,0.184118,0.00377477,0.00919468,1861,1471,9.83469,-5.76136
644,-447,9.86218,5.58435,0.00232771,-0.0059916,0.00113181,0.00247894,-0.00614283,0.132831,0.00512541,0.00976492,1868,1471,9.86219,-5.58438
651,-447,9.88013,5.36926,0.00357072,-0.00823112,0.00140684,0.00373611,-0.00839651,0.117021,0.00717496,0.0173969,1875,1471,9.88013,-5.36922
658,-447,9.76831,5.1936,0.00477406,-0.0113432,0.00207052,0.0050358,-0.011605,0.125746,0.00985394,0.0276206,1882,1471,9.76832,-5.1936
665,-447,9.67456,4.88306,0,0,0,0,0,0,0,-1,1889,1471,9.67458,-4.883
672,-447,10.5231,5.51709,0,0,0,0,0,0,0,-1,1896,1471,10.5231,-5.51705
679,-447,10.9224,5.55212,0,0,0,0,0,0,0,-1,1903,1471,10.9223,-5.55217
686,-447,9.81079,4.30859,0,0,0,0,0,0,0,-1,1910,1471,9.8108,-4.30864
693,-447,10.48,2.08643,0,0,0,0,0,0,0,-1,1917,1471,10.48,-2.08642
700,-447,0,0,0,0,0,0,0,0,0,-1,1924,1471,0,0
707,-447,0,0,0,0,0,0,0,0,0,-1,1931,1471,0,0
714,-447,0,0,0,0,0,0,0,0,0,-1,1938,1471,0,0
721,-447,0,0,0,0,0,0,0,0,0,-1,1945,1471,0,0
728,-447,0,0,0,0,0,0,0,0,0,-1,1952,1471,0,0
735,-447,0,0,0,0,0,0,0,0,0,-1,1959,1471,0,0
742,-447,0,0,0,0,0,0,0,0,0,-1,1966,1471,0,0
749,-447,0,0,0,0,0,0,0,0,0,-1,1973,1471,0,0
756,-447,0,0,0,0,0,0,0,0,0,-1,1980,1471,0,0
763,-447,0,0,0,0,0,0,0,0,0,-1,1987,1471,0,0
770,-447,0,0,0,0,0,0,0,0,0,-1,1994,1471,0,0
777,-447,0,0,0,0,0,0,0,0,0,-1,2001,1471,0,0
784,-447,0,0,0,0,0,0,0,0,0,-1,2008,1471,0,0
791,-447,0,0,0,0,0,0,0,0,0,-1,2015,1471,0,0
798,-447,0,0,0,0,0,0,0,0,0,-1,2022,1471,0,0
805,-447,0,0,0,0,0,0,0,0,0,-1,2029,1471,0,0
812,-447,0,0,0,0,0,0,0,0,0,-1,2036,1471,0,0
-700,-454,0,0,0,0,0,0,0,0,0,-1,524,1478,0,0
-693,-454,0,0,0,0,0,0,0,0,0,-1,531,1478,0,0
-686,-454,0,0,0,0,0,0,0,0,0,-1,538,1478,0,0
-679,-454,0,0,0,0,0,0,0,0,0,-1,545,1478,0,0
-672,-454,0,0,0,0,0,0,0,0,0,-1,552,1478,0,0
-665,-454,0,0,0,0,0,0,0,0,0,-1,559,1478,0,0
-658,-454,0,0,0,0,0,0,0,0,0,-1,566,1478,0,0
-651,-454,0,0,0,0,0,0,0,0,0,-1,573,1478,0,0
-644,-454,0,0,0,0,0,0,0,0,0,-1,580,1478,0,0
-637,-454,0,0,0,0,0,0,0,0,0,-1,587,1478,0,0
-630,-454,0,0,0,0,0,0,0,0,0,-1,594,1478,0,0
-623,-454,0,0,0,0,0,0,0,0,0,-1,601,1478,0,0
-616,-454,0,0,0,0,0,0,0,0,0,-1,608,1478,0,0
-609,-454,0,0,0,0,0,0,0,0,0,-1,615,1478,0,0
-602,-454,0,0,0,0,0,0,0,0,0,-1,622,1478,0,0
-595,-454,0,0,0,0,0,0,0,0,0,-1,629,1478,0,0
-588,-454,0,0,0,0,0,0,0,0,0,-1,636,1478,0,0
-581,-454,0,0,0,0,0,0,0,0,0,-1,643,1478,0,0
-574,-454,-7.54492,0.926392,0,0,0,0,0,0,0,-1,650,1478,-7.54491,-0.926348
-567,-454,-6.88684,1.67615,0,0,0,0,0,0,0,-1,657,1478,-6.88683,-1.67613
-560,-454,-5.27094,-0.668945,0,0,0,0,0,0,0,-1,664,1478,-5.27092,0.669002
-553,-454,-6.04883,-0.807129,0,0,0,0,0,0,0,-1,671,1478,-6.04881,0.807068
-546,-454,-6.02301,8.45129,0,0,0,0,0,0,0,-1,678,1478,-6.02303,-8.45135
-539,-454,-4.67957,7.94934,0,0,0,0,0,0,0,-1,685,1478,-4.6796,-7.94934
-532,-454,-3.74664,7.51575,0,0,0,0,0,0,0,-1,692,1478,-3.74663,-7.51579
-525,-454,-2.20789,3.34448,0.0389452,0.00204716,0.0086718,0.0408816,0.000110731,0.219697,0.0272176,0.0424052,699,1478,-2.20789,-3.34449
-518,-454,-2.1214,3.69531,0.0279671,0.000963216,0.00622464,0.0293328,-0.00040255,0.21599,0.0196908,0.0252423,706,1478,-2.12138,-3.69533
-511,-454,-2.16376,3.81995,0.0195191,0.000370477,0.00432946,0.0204525,-0.00056291,0.212339,0.0138264,0.0158612,713,1478,-2.16374,-3.81994
-504,-454,-2.13733,4.06384,0.013228,7.99638e-06,0.00286356,0.0138216,-0.00058562,0.204405,0.00941567,0.0151863,720,1478,-2.13734,-4.06389
-497,-454,-2.13782,4.28076,0.00826351,-0.00046934,0.00108658,0.00839668,-0.000602507,0.121948,0.00580905,0.0182996,727,1478,-2.13781,-4.28073
-490,-454,-2.14966,4.44446,0.00447588,-0.000658347,9.66711e-05,0.0044777,-0.000660167,0.0188199,0.00322777,0.0166353,734,1478,-2.14968,-4.44451
-483,-454,-2.16376,4.6449,0.00177285,-0.000909906,-0.00070363,0.0019462,-0.00108325,-0.24155,0.00177255,0.0150832,741,1478,-2.16373,-4.6449
-476,-454,-2.16425,4.82324,0.00049579,-0.00134981,-0.00176195,0.00156197,-0.00241598,-0.54417,0.00231425,0.01328,748,1478,-2.16423,-4.8233
-469,-454,-2.16205,5.03674,4.48506e-06,-0.00230275,-0.00320928,0.00226119,-0.00455945,-0.612858,0.00401173,0.0103946,755,1478,-2.16205,-5.0367
-462,-454,-2.17548,5.24573,-0.000332655,-0.00331723,-0.00453722,0.00295139,-0.00660127,-0.626521,0.00564783,0.0107019,762,1478,-2.17546,-5.24578
-455,-454,-2.17413,5.44128,-0.000619637,-0.00482952,-0.00599528,0.00362949,-0.00907864,-0.616571,0.00755854,0.0112311,769,1478,-2.17413,-5.44123
-448,-454,-2.15778,5.63184,-0.000528758,-0.00682438,-0.00774889,0.00468728,-0.0120404,-0.592467,0.00996391,0.0118182,776,1478,-2.15778,-5.63179
-441,-454,-2.03607,5.83386,-0.000263361,-0.00952439,-0.00973902,0.00588992,-0.0156777,-0.563486,0.0128724,0.0206395,783,1478,-2.03608,-5.83383
-434,-454,-1.85413,5.91992,-3.34438e-06,-0.012354,-0.0118072,0.00714594,-0.0195033,-0.544454,0.0159278,0.0302412,790,1478,-1.85412,-5.91998
-427,-454,-1.78418,5.8938,0.000612831,-0.016029,-0.014172,0.00872614,-0.0241423,-0.519944,0.0196601,0.0425179,797,1478,-1.7842,-5.89377
-420,-454,-2.0683,5.74109,0.0019849,-0.0200467,-0.0163766,0.0107059,-0.0287677,-0.48933,0.0235719,0.0480171,804,1478,-2.06831,-5.74108
-413,-454,-2.25153,5.31165,0,0,0,0,0,0,0,-1,811,1478,-2.25154,-5.31159
-406,-454,-2.43701,4.69275,0,0,0,0,0,0,0,-1,818,1478,-2.43701,-4.69269
-399,-454,-1.20758,6.51941,0,0,0,0,0,0,0,-1,825,1478,-1.20757,-6.51941
-392,-454,0.0967407,0.985474,0,0,0,0,0,0,0,-1,832,1478,0.0967364,-0.985529
-385,-454,2.38629,3.297,0,0,0,0,0,0,0,-1,839,1478,2.38629,-3.29702
-378,-454,3.80048,3.42151,0,0,0,0,0,0,0,-1,846,1478,3.80046,-3.4215
-371,-454,1.25891,1.51331,0,0,0,0,0,0,0,-1,853,1478,1.25891,-1.51328
-364,-454,1.08124,0.819458,0,0,0,0,0,0,0,-1,860,1478,1.08124,-0.819513
-357,-454,0,0,0,0,0,0,0,0,0,-1,867,1478,0,0
-350,-454,0,0,0,0,0,0,0,0,0,-1,874,1478,0,0
-343,-454,0,0,0,0,0,0,0,0,0,-1,881,1478,0,0
-336,-454,0,0,0,0,0,0,0,0,0,-1,888,1478,0,0
-329,-454,0,0,0,0,0,0,0,0,0,-1,895,1478,0,0
-322,-454,0,0,0,0,0,0,0,0,0,-1,902,1478,0,0
-315,-454,0,0,0,0,0,0,0,0,0,-1,909,1478,0,0
-308,-454,0,0,0,0,0,0,0,0,0,-1,916,1478,0,0
-301,-454,0,0,0,0,0,0,0,0,0,-1,923,1478,0,0
-294,-454,0,0,0,0,0,0,0,0,0,-1,930,1478,0,0
-287,-454,0,0,0,0,0,0,0,0,0,-1,937,1478,0,0
-280,-454,0,0,0,0,0,0,0,0,0,-1,944,1478,0,0
-273,-454,0,0,0,0,0,0,0,0,0,-1,951,1478,0,0
-266,-454,0,0,0,0,0,0,0,0,0,-1,958,1478,0,0
-259,-454,0,0,0,0,0,0,0,0,0,-1,965,1478,0,0
-252,-454,0,0,0,0,0,0,0,0,0,-1,972,1478,0,0
-245,-454,0,0,0,0,0,0,0,0,0,-1,979,1478,0,0
-238,-454,0,0,0,0,0,0,0,0,0,-1,986,1478,0,0
-231,-454,0,0,0,0,0,0,0,0,0,-1,993,1478,0,0
-224,-454,0,0,0,0,0,0,0,0,0,-1,1000,1478,0,0
-217,-454,0,0,0,0,0,0,0,0,0,-1,1007,1478,0,0
-210,-454,0,0,0,0,0,0,0,0,0,-1,1014,1478,0,0
-203,-454,0,0,0,0,0,0,0,0,0,-1,1021,1478,0,0
-196,-454,0,0,0,0,0,0,0,0,0,-1,1028,1478,0,0
-189,-454,0,0,0,0,0,0,0,0,0,-1,1035,1478,0,0
-182,-454,0,0,0,0,0,0,0,0,0,-1,1042,1478,0,0
-175,-454,0,0,0,0,0,0,0,0,0,-1,1049,1478,0,0
-168,-454,0,0,0,0,0,0,0,0,0,-1,1056,1478,0,0
-161,-454,0,0,0,0,0,0,0,0,0,-1,1063,1478,0,0
-154,-454,0,0,0,0,0,0,0,0,0,-1,1070,1478,0,0
-147,-454,0,0,0,0,0,0,0,0,0,-1,1077,1478,0,0
-140,-454,0,0,0,0,0,0,0,0,0,-1,1084,1478,0,0
-133,-454,0,0,0,0,0,0,0,0,0,-1,1091,1478,0,0
-126,-454,0,0,0,0,0,0,0,0,0,-1,1098,1478,0,0
-119,-454,0,0,0,0,0,0,0,0,0,-1,1105,1478,0,0
-112,-454,0,0,0,0,0,0,0,0,0,-1,1112,1478,0,0
-105,-454,0,0,0,0,0,0,0,0,0,-1,1119,1478,0,0
-98,-454,0,0,0,0,0,0,0,0,0,-1,1126,1478,0,0
-91,-454,0,0,0,0,0,0,0,0,0,-1,1133,1478,0,0
-84,-454,0,0,0,0,0,0,0,0,0,-1,1140,1478,0,0
-77,-454,0,0,0,0,0,0,0,0,0,-1,1147,1478,0,0
-70,-454,0,0,0,0,0,0,0,0,0,-1,1154,1478,0,0
-63,-454,0,0,0,0,0,0,0,0,0,-1,1161,1478,0,0
-56,-454,0,0,0,0,0,0,0,0,0,-1,1168,1478,0,0
-49,-454,0,0,0,0,0,0,0,0,0,-1,1175,1478,0,0
-42,-454,0,0,0,0,0,0,0,0,0,-1,1182,1478,0,0
-35,-454,0,0,0,0,0,0,0,0,0,-1,1189,1478,0,0
-28,-454,0,0,0,0,0,0,0,0,0,-1,1196,1478,0,0
-21,-454,0,0,0,0,0,0,0,0,0,-1,1203,1478,0,0
-14,-454,0,0,0,0,0,0,0,0,0,-1,1210,1478,0,0
-7,-454,0,0,0,0,0,0,0,0,0,-1,1217,1478,0,0
0,-454,0,0,0,0,0,0,0,0,0,-1,1224,1478,0,0
7,-454,0,0,0,0,0,0,0,0,0,-1,1231,1478,0,0
14,-454,0,0,0,0,0,0,0,0,0,-1,1238,1478,0,0
21,-454,0,0,0,0,0,0,0,0,0,-1,1245,1478,0,0
28,-454,0,0,0,0,0,0,0,0,0,-1,1252,1478,0,0
35,-454,0,0,0,0,0,0,0,0,0,-1,1259,1478,0,0
42,-454,0,0,0,0,0,0,0,0,0,-1,1266,1478,0,0
49,-454,0,0,0,0,0,0,0,0,0,-1,1273,1478,0,0
56,-454,0,0,0,0,0,0,0,0,0,-1,1280,1478,0,0
63,-454,0,0,0,0,0,0,0,0,0,-1,1287,1478,0,0
70,-454,0,0,0,0,0,0,0,0,0,-1,1294,1478,0,0
77,-454,0,0,0,0,0,0,0,0,0,-1,1301,1478,0,0
84,-454,0,0,0,0,0,0,0,0,0,-1,1308,1478,0,0
91,-454,0,0,0,0,0,0,0,0,0,-1,1315,1478,0,0
98,-454,0,0,0,0,0,0,0,0,0,-1,1322,1478,0,0
105,-454,0,0,0,0,0,0,0,0,0,-1,1329,1478,0,0
112,-454,0,0,0,0,0,0,0,0,0,-1,1336,1478,0,0
119,-454,0,0,0,0,0,0,0,0,0,-1,1343,1478,0,0
126,-454,0,0,0,0,0,0,0,0,0,-1,1350,1478,0,0
133,-454,0,0,0,0,0,0,0,0,0,-1,1357,1478,0,0
140,-454,0,0,0,0,0,0,0,0,0,-1,1364,1478,0,0
147,-454,0,0,0,0,0,0,0,0,0,-1,1371,1478,0,0
154,-454,0,0,0,0,0,0,0,0,0,-1,1378,1478,0,0
161,-454,0,0,0,0,0,0,0,0,0,-1,1385,1478,0,0
168,-454,0,0,0,0,0,0,0,0,0,-1,1392,1478,0,0
175,-454,0,0,0,0,0,0,0,0,0,-1,1399,1478,0,0
182,-454,0,0,0,0,0,0,0,0,0,-1,1406,1478,0,0
189,-454,0,0,0,0,0,0,0,0,0,-1,1413,1478,0,0
196,-454,0,0,0,0,0,0,0,0,0,-1,1420,1478,0,0
203,-454,0,0,0,0,0,0,0,0,0,-1,1427,1478,0,0
210,-454,0,0,0,0,0,0,0,0,0,-1,1434,1478,0,0
217,-454,0,0,0,0,0,0,0,0,0,-1,1441,1478,0,0
224,-454,0,0,0,0,0,0,0,0,0,-1,1448,1478,0,0
231,-454,0,0,0,0,0,0,0,0,0,-1,1455,1478,0,0
238,-454,0,0,0,0,0,0,0,0,0,-1,1462,1478,0,0
245,-454,0,0,0,0,0,0,0,0,0,-1,1469,1478,0,0
252,-454,0,0,0,0,0,0,0,0,0,-1,1476,1478,0,0
259,-454,0,0,0,0,0,0,0,0,0,-1,1483,1478,0,0
266,-454,0,0,0,0,0,0,0,0,0,-1,1490,1478,0,0
273,-454,0,0,0,0,0,0,0,0,0,-1,1497,1478,0,0
280,-454,0,0,0,0,0,0,0,0,0,-1,1504,1478,0,0
287,-454,0,0,0,0,0,0,0,0,0,-1,1511,1478,0,0
294,-454,0,0,0,0,0,0,0,0,0,-1,1518,1478,0,0
301,-454,0,0,0,0,0,0,0,0,0,-1,1525,1478,0,0
308,-454,0,0,0,0,0,0,0,0,0,-1,1532,1478,0,0
315,-454,0,0,0,0,0,0,0,0,0,-1,1539,1478,0,0
322,-454,0,0,0,0,0,0,0,0,0,-1,1546,1478,0,0
329,-454,0,0,0,0,0,0,0,0,0,-1,1553,1478,0,0
336,-454,0,0,0,0,0,0,0,0,0,-1,1560,1478,0,0
343,-454,0,0,0,0,0,0,0,0,0,-1,1567,1478,0,0
350,-454,0,0,0,0,0,0,0,0,0,-1,1574,1478,0,0
357,-454,0,0,0,0,0,0,0,0,0,-1,1581,1478,0,0
364,-454,0,0,0,0,0,0,0,0,0,-1,1588,1478,0,0
371,-454,0,0,0,0,0,0,0,0,0,-1,1595,1478,0,0
378,-454,0,0,0,0,0,0,0,0,0,-1,1602,1478,0,0
385,-454,0,0,0,0,0,0,0,0,0,-1,1609,1478,0,0
392,-454,0,0,0,0,0,0,0,0,0,-1,1616,1478,0,0
399,-454,0,0,0,0,0,0,0,0,0,-1,1623,1478,0,0
406,-454,0,0,0,0,0,0,0,0,0,-1,1630,1478,0,0
413,-454,0,0,0,0,0,0,0,0,0,-1,1637,1478,0,0
420,-454,0,0,0,0,0,0,0,0,0,-1,1644,1478,0,0
427,-454,0,0,0,0,0,0,0,0,0,-1,1651,1478,0,0
434,-454,0,0,0,0,0,0,0,0,0,-1,1658,1478,0,0
441,-454,0,0,0,0,0,0,0,0,0,-1,1665,1478,0,0
448,-454,0,0,0,0,0,0,0,0,0,-1,1672,1478,0,0
455,-454,0,0,0,0,0,0,0,0,0,-1,1679,1478,0,0
462,-454,0,0,0,0,0,0,0,0,0,-1,1686,1478,0,0
469,-454,0,0,0,0,0,0,0,0,0,-1,1693,1478,0,0
476,-454,0,0,0,0,0,0,0,0,0,-1,1700,1478,0,0
483,-454,12.265,3.05029,0,0,0,0,0,0,0,-1,1707,1478,12.2651,-3.05029
490,-454,11.8601,2.47205,0,0,0,0,0,0,0,-1,1714,1478,11.8601,-2.472
497,-454,11.5433,1.1958,0,0,0,0,0,0,0,-1,1721,1478,11.5434,-1.19579
504,-454,10.6036,3.28125,0,0,0,0,0,0,0,-1,1728,1478,10.6037,-3.28124
511,-454,9.55981,2.97351,0,0,0,0,0,0,0,-1,1735,1478,9.55978,-2.97346
518,-454,8.50256,2.70117,0,0,0,0,0,0,0,-1,1742,1478,8.50262,-2.70112
525,-454,9.43726,4.62024,0,0,0,0,0,0,0,-1,1749,1478,9.43721,-4.62022
532,-454,9.18518,5.00281,0,0,0,0,0,0,0,-1,1756,1478,9.18517,-5.00282
539,-454,10.8339,7.98499,0,0,0,0,0,0,0,-1,1763,1478,10.8338,-7.98494
546,-454,10.4833,7.47571,0,0,0,0,0,0,0,-1,1770,1478,10.4833,-7.47565
553,-454,9.77625,7.61365,0,0,0,0,0,0,0,-1,1777,1478,9.7762,-7.61368
560,-454,9.86707,7.62732,-0.0214032,-0.0245806,0.0161656,-0.00674844,-0.0392353,0.736417,0.0242228,0.0450535,1784,1478,9.86706,-7.62732
567,-454,9.76086,7.48877,-0.0169512,-0.019854,0.0136974,-0.00462847,-0.0321766,0.732614,0.0200868,0.0246816,1791,1478,9.76087,-7.48882
574,-454,9.66504,7.32031,-0.0135224,-0.0157588,0.0114281,-0.0031579,-0.0261233,0.736632,0.0164641,0.0125796,1798,1478,9.66504,-7.32033
581,-454,9.66968,7.15588,-0.0107351,-0.0122551,0.00934623,-0.002118,-0.0208722,0.744831,0.0132653,0.00983708,1805,1478,9.66971,-7.15587
588,-454,9.67224,6.99072,-0.00802164,-0.00938012,0.00751083,-0.0011594,-0.0162424,0.740304,0.0104632,0.0115463,1812,1478,9.67227,-6.99073
595,-454,9.6593,6.82898,-0.00628701,-0.00691392,0.00608551,-0.000506883,-0.012694,0.759667,0.0082989,0.0119046,1819,1478,9.65931,-6.82899
602,-454,9.6582,6.646,-0.00496377,-0.0053228,0.00464118,-0.000498634,-0.00978794,0.766068,0.00636559,0.00869139,1826,1478,9.65821,-6.64596
609,-454,9.65356,6.46436,-0.00367027,-0.00409526,0.00348142,-0.000394871,-0.00737066,0.754918,0.00478758,0.0100788,1833,1478,9.65357,-6.46432
616,-454,9.66125,6.29077,-0.00247704,-0.00341749,0.0025306,-0.000373348,-0.00552118,0.693539,0.00356287,0.0130046,1840,1478,9.66123,-6.29078
623,-454,9.67493,6.11414,-0.00118987,-0.00338758,0.0018868,-0.000105271,-0.00447218,0.521713,0.00294699,0.0106234,1847,1478,9.67487,-6.11416
630,-454,9.66138,5.94312,9.60983e-05,-0.00406161,0.00138171,0.000513391,-0.0044789,0.293302,0.00317095,0.0090996,1854,1478,9.66142,-5.94313
637,-454,9.66162,5.78308,0.0012358,-0.00535157,0.00118673,0.00144307,-0.00555884,0.172912,0.00426901,0.00882093,1861,1478,9.66165,-5.78311
644,-454,9.70129,5.59521,0.00238311,-0.00730354,0.00130915,0.00255692,-0.00747735,0.131995,0.00602098,0.013217,1868,1478,9.70131,-5.59516
651,-454,9.5979,5.40576,0.00386756,-0.0101902,0.00166862,0.00406291,-0.0103856,0.11654,0.00860396,0.0237165,1875,1478,9.59789,-5.40573
658,-454,9.59424,5.13501,0.00560884,-0.0140438,0.00227026,0.00586769,-0.0143026,0.113528,0.0119799,0.0357836,1882,1478,9.59424,-5.13495
665,-454,9.64673,4.92908,0,0,0,0,0,0,0,-1,1889,1478,9.64675,-4.92905
672,-454,9.69165,4.72717,0,0,0,0,0,0,0,-1,1896,1478,9.69163,-4.72718
679,-454,10.9514,4.3175,0,0,0,0,0,0,0,-1,1903,1478,10.9514,-4.31749
686,-454,10.3767,2.12842,0,0,0,0,0,0,0,-1,1910,1478,10.3767,-2.12839
693,-454,11.1857,1.48486,0,0,0,0,0,0,0,-1,1917,1478,11.1857,-1.48487
700,-454,0,0,0,0,0,0,0,0,0,-1,1924,1478,0,0
707,-454,0,0,0,0,0,0,0,0,0,-1,1931,1478,0,0
714,-454,0,0,0,0,0,0,0,0,0,-1,1938,1478,0,0
721,-454,0,0,0,0,0,0,0,0,0,-1,1945,1478,0,0
728,-454,0,0,0,0,0,0,0,0,0,-1,1952,1478,0,0
735,-454,0,0,0,0,0,0,0,0,0,-1,1959,1478,0,0
742,-454,0,0,0,0,0,0,0,0,0,-1,1966,1478,0,0
749,-454,0,0,0,0,0,0,0,0,0,-1,1973,1478,0,0
756,-454,0,0,0,0,0,0,0,0,0,-1,1980,1478,0,0
763,-454,0,0,0,0,0,0,0,0,0,-1,1987,1478,0,0
770,-454,0,0,0,0,0,0,0,0,0,-1,1994,1478,0,0
777,-454,0,0,0,0,0,0,0,0,0,-1,2001,1478,0,0
784,-454,0,0,0,0,0,0,0,0,0,-1,2008,1478,0,0
791,-454,0,0,0,0,0,0,0,0,0,-1,2015,1478,0,0
798,-454,0,0,0,0,0,0,0,0,0,-1,2022,1478,0,0
805,-454,0,0,0,0,0,0,0,0,0,-1,2029,1478,0,0
812,-454,0,0,0,0,0,0,0,0,0,-1,2036,1478,0,0
-700,-461,0,0,0,0,0,0,0,0,0,-1,524,1485,0,0
-693,-461,0,0,0,0,0,0,0,0,0,-1,531,1485,0,0
-686,-461,0,0,0,0,0,0,0,0,0,-1,538,1485,0,0
-679,-461,0,0,0,0,0,0,0,0,0,-1,545,1485,0,0
-672,-461,0,0,0,0,0,0,0,0,0,-1,552,1485,0,0
-665,-461,0,0,0,0,0,0,0,0,0,-1,559,1485,0,0
-658,-461,0,0,0,0,0,0,0,0,0,-1,566,1485,0,0
-651,-461,0,0,0,0,0,0,0,0,0,-1,573,1485,0,0
-644,-461,0,0,0,0,0,0,0,0,0,-1,580,1485,0,0
-637,-461,0,0,0,0,0,0,0,0,0,-1,587,1485,0,0
-630,-461,0,0,0,0,0,0,0,0,0,-1,594,1485,0,0
-623,-461,0,0,0,0,0,0,0,0,0,-1,601,1485,0,0
-616,-461,0,0,0,0,0,0,0,0,0,-1,608,1485,0,0
-609,-461,0,0,0,0,0,0,0,0,0,-1,615,1485,0,0
-602,-461,0,0,0,0,0,0,0,0,0,-1,622,1485,0,0
-595,-461,0,0,0,0,0,0,0,0,0,-1,629,1485,0,0
-588,-461,0,0,0,0,0,0,0,0,0,-1,636,1485,0,0
-581,-461,0,0,0,0,0,0,0,0,0,-1,643,1485,0,0
-574,-461,0,0,0,0,0,0,0,0,0,-1,650,1485,0,0
-567,-461,-7.94788,1.73059,0,0,0,0,0,0,0,-1,657,1485,-7.94788,-1.73063
-560,-461,-6.47272,3.74414,0,0,0,0,0,0,0,-1,664,1485,-6.47274,-3.74413
-553,-461,-6.22736,9.04028,0,0,0,0,0,0,0,-1,671,1485,-6.22737,-9.04028
-546,-461,-5.55035,8.59668,0.107865,0.0137527,0.0263526,0.114742,0.00687619,0.255252,0.0743087,0.0437596,678,1485,-5.55034,-8.59669
-539,-461,-4.77301,8.11365,0.0856732,0.00861368,0.0199276,0.0905214,0.00376544,0.238656,0.0591325,0.0452335,685,1485,-4.77299,-8.11359
-532,-461,-4.05865,7.58325,0.0662195,0.00497303,0.014814,0.0696145,0.00157806,0.225282,0.0458927,0.0495777,692,1485,-4.05864,-7.58322
-525,-461,-1.90314,3.12341,0,0,0,0,0,0,0,-1,699,1485,-1.90314,-3.12339
-518,-461,-1.89105,3.49329,0.0365033,0.000986275,0.00763513,0.038075,-0.000585502,0.203025,0.0255808,0.0350852,706,1485,-1.89106,-3.49333
-511,-461,-1.91675,3.84717,0.026019,0.000122787,0.00523293,0.0270365,-0.000894669,0.192037,0.0183298,0.01786,713,1485,-1.91675,-3.8472
-504,-461,-1.95746,4.04456,0.0180221,-0.000308841,0.00341482,0.0186376,-0.000924315,0.178321,0.0127443,0.0109498,720,1485,-1.95745,-4.04452
-497,-461,-1.93494,4.26721,0.0116221,-0.000877781,0.00137404,0.0117714,-0.00102704,0.108203,0.00821135,0.010606,727,1485,-1.93496,-4.26718
-490,-461,-1.94928,4.44897,0.00677416,-0.00101847,0.000379318,0.00679258,-0.00103689,0.0485236,0.00491064,0.0115639,734,1485,-1.94927,-4.44899
-483,-461,-1.95703,4.65918,0.00321335,-0.00118321,-0.00032174,0.00323677,-0.00120663,-0.0726641,0.00265315,0.0121135,741,1485,-1.95706,-4.65913
-476,-461,-1.96869,4.87207,0.00156598,-0.00150037,-0.00118139,0.00196835,-0.00190273,-0.328263,0.00223508,0.0109466,748,1485,-1.96872,-4.87208
-469,-461,-1.97516,5.06165,0.000924554,-0.00236541,-0.00245847,0.00223762,-0.00367847,-0.490553,0.00344926,0.0127799,755,1485,-1.97518,-5.06162
-462,-461,-1.95172,5.22351,0.000549984,-0.00315126,-0.00349034,0.00264997,-0.00525124,-0.541636,0.00464344,0.0182553,762,1485,-1.95174,-5.22348
-455,-461,-1.94702,5.43982,0.00043287,-0.00451754,-0.00448735,0.0030824,-0.00716708,-0.533364,0.00607216,0.0213656,769,1485,-1.94702,-5.43976
-448,-461,-1.95514,5.66711,0.000787144,-0.00630111,-0.00570012,0.00395511,-0.00946908,-0.507264,0.00796541,0.0174811,776,1485,-1.95513,-5.66708
-441,-461,-1.92902,5.86707,0.00141686,-0.00870046,-0.00707813,0.0050582,-0.0123418,-0.47514,0.0103351,0.0134433,783,1485,-1.92901,-5.867
-434,-461,-1.79034,6.00525,0.00211937,-0.0110841,-0.00846504,0.00625262,-0.0152173,-0.454222,0.0127508,0.0184741,790,1485,-1.79034,-6.00523
-427,-461,-1.72046,6.12341,0.00325786,-0.0142123,-0.0100732,0.00785581,-0.0188103,-0.42821,0.0158228,0.0263185,797,1485,-1.72045,-6.12346
-420,-461,-1.83087,6.10559,0.0053105,-0.0175615,-0.0114498,0.0100572,-0.0223082,-0.392999,0.0191272,0.0444919,804,1485,-1.83086,-6.1056
-413,-461,-1.88843,6.04785,0,0,0,0,0,0,0,-1,811,1485,-1.88845,-6.04785
-406,-461,-1.90442,7.02087,0,0,0,0,0,0,0,-1,818,1485,-1.9044,-7.02085
-399,-461,-0.661316,6.36182,0,0,0,0,0,0,0,-1,825,1485,-0.661336,-6.36176
-392,-461,-0.357544,5.55225,0,0,0,0,0,0,0,-1,832,1485,-0.357536,-5.55228
-385,-461,1.71509,3.35254,0,0,0,0,0,0,0,-1,839,1485,1.71511,-3.35255
-378,-461,1.95996,3.01111,0,0,0,0,0,0,0,-1,846,1485,1.95993,-3.01111
-371,-461,0.702881,2.33459,0,0,0,0,0,0,0,-1,853,1485,0.702859,-2.33459
-364,-461,-1.93097,2.56458,0,0,0,0,0,0,0,-1,860,1485,-1.93095,-2.56456
-357,-461,-2.41516,3.49487,0,0,0,0,0,0,0,-1,867,1485,-2.41517,-3.49487
-350,-461,0,0,0,0,0,0,0,0,0,-1,874,1485,0,0
-343,-461,0,0,0,0,0,0,0,0,0,-1,881,1485,0,0
-336,-461,0,0,0,0,0,0,0,0,0,-1,888,1485,0,0
-329,-461,0,0,0,0,0,0,0,0,0,-1,895,1485,0,0
-322,-461,0,0,0,0,0,0,0,0,0,-1,902,1485,0,0
-315,-461,0,0,0,0,0,0,0,0,0,-1,909,1485,0,0
-308,-461,0,0,0,0,0,0,0,0,0,-1,916,1485,0,0
-301,-461,0,0,0,0,0,0,0,0,0,-1,923,1485,0,0
-294,-461,0,0,0,0,0,0,0,0,0,-1,930,1485,0,0
-287,-461,0,0,0,0,0,0,0,0,0,-1,937,1485,0,0
-280,-461,0,0,0,0,0,0,0,0,0,-1,944,1485,0,0
-273,-461,0,0,0,0,0,0,0,0,0,-1,951,1485,0,0
-266,-461,0,0,0,0,0,0,0,0,0,-1,958,1485,0,0
-259,-461,0,0,0,0,0,0,0,0,0,-1,965,1485,0,0
-252,-461,0,0,0,0,0,0,0,0,0,-1,972,1485,0,0
-245,-461,0,0,0,0,0,0,0,0,0,-1,979,1485,0,0
-238,-461,0,0,0,0,0,0,0,0,0,-1,986,1485,0,0
-231,-461,0,0,0,0,0,0,0,0,0,-1,993,1485,0,0
-224,-461,0,0,0,0,0,0,0,0,0,-1,1000,1485,0,0
-217,-461,0,0,0,0,0,0,0,0,0,-1,1007,1485,0,0
-210,-461,0,0,0,0,0,0,0,0,0,-1,1014,1485,0,0
-203,-461,0,0,0,0,0,0,0,0,0,-1,1021,1485,0,0
-196,-461,0,0,0,0,0,0,0,0,0,-1,1028,1485,0,0
-189,-461,0,0,0,0,0,0,0,0,0,-1,1035,1485,0,0
-182,-461,0,0,0,0,0,0,0,0,0,-1,1042,1485,0,0
-175,-461,0,0,0,0,0,0,0,0,0,-1,1049,1485,0,0
-168,-461,0,0,0,0,0,0,0,0,0,-1,1056,1485,0,0
-161,-461,0,0,0,0,0,0,0,0,0,-1,1063,1485,0,0
-154,-461,0,0,0,0,0,0,0,0,0,-1,1070,1485,0,0
-147,-461,0,0,0,0,0,0,0,0,0,-1,1077,1485,0,0
-140,-461,0,0,0,0,0,0,0,0,0,-1,1084,1485,0,0
-133,-461,0,0,0,0,0,0,0,0,0,-1,1091,1485,0,0
-126,-461,0,0,0,0,0,0,0,0,0,-1,1098,1485,0,0
-119,-461,0,0,0,0,0,0,0,0,0,-1,1105,1485,0,0
-112,-461,0,0,0,0,0,0,0,0,0,-1,1112,1485,0,0
-105,-461,0,0,0,0,0,0,0,0,0,-1,1119,1485,0,0
-98,-461,0,0,0,0,0,0,0,0,0,-1,1126,1485,0,0
-91,-461,0,0,0,0,0,0,0,0,0,-1,1133,1485,0,0
-84,-461,0,0,0,0,0,0,0,0,0,-1,1140,1485,0,0
-77,-461,0,0,0,0,0,0,0,0,0,-1,1147,1485,0,0
-70,-461,0,0,0,0,0,0,0,0,0,-1,1154,1485,0,0
-63,-461,0,0,0,0,0,0,0,0,0,-1,1161,1485,0,0
-56,-461,0,0,0,0,0,0,0,0,0,-1,1168,1485,0,0
-49,-461,0,0,0,0,0,0,0,0,0,-1,1175,1485,0,0
-42,-461,0,0,0,0,0,0,0,0,0,-1,1182,1485,0,0
-35,-461,0,0,0,0,0,0,0,0,0,-1,1189,1485,0,0
-28,-461,0,0,0,0,0,0,0,0,0,-1,1196,1485,0,0
-21,-461,0,0,0,0,0,0,0,0,0,-1,1203,1485,0,0
-14,-461,0,0,0,0,0,0,0,0,0,-1,1210,1485,0,0
-7,-461,0,0,0,0,0,0,0,0,0,-1,1217,1485,0,0
0,-461,0,0,0,0,0,0,0,0,0,-1,1224,1485,0,0
7,-461,0,0,0,0,0,0,0,0,0,-1,1231,1485,0,0
14,-461,0,0,0,0,0,0,0,0,0,-1,1238,1485,0,0
21,-461,0,0,0,0,0,0,0,0,0,-1,1245,1485,0,0
28,-461,0,0,0,0,0,0,0,0,0,-1,1252,1485,0,0
35,-461,0,0,0,0,0,0,0,0,0,-1,1259,1485,0,0
42,-461,0,0,0,0,0,0,0,0,0,-1,1266,1485,0,0
49,-461,0,0,0,0,0,0,0,0,0,-1,1273,1485,0,0
56,-461,0,0,0,0,0,0,0,0,0,-1,1280,1485,0,0
63,-461,0,0,0,0,0,0,0,0,0,-1,1287,1485,0,0
70,-461,0,0,0,0,0,0,0,0,0,-1,1294,1485,0,0
77,-461,0,0,0,0,0,0,0,0,0,-1,1301,1485,0,0
84,-461,0,0,0,0,0,0,0,0,0,-1,1308,1485,0,0
91,-461,0,0,0,0,0,0,0,0,0,-1,1315,1485,0,0
98,-461,0,0,0,0,0,0,0,0,0,-1,1322,1485,0,0
105,-461,0,0,0,0,0,0,0,0,0,-1,1329,1485,0,0
112,-461,0,0,0,0,0,0,0,0,0,-1,1336,1485,0,0
119,-461,0,0,0,0,0,0,0,0,0,-1,1343,1485,0,0
126,-461,0,0,0,0,0,0,0,0,0,-1,1350,1485,0,0
133,-461,0,0,0,0,0,0,0,0,0,-1,1357,1485,0,0
140,-461,0,0,0,0,0,0,0,0,0,-1,1364,1485,0,0
147,-461,0,0,0,0,0,0,0,0,0,-1,1371,1485,0,0
154,-461,0,0,0,0,0,0,0,0,0,-1,1378,1485,0,0
161,-461,0,0,0,0,0,0,0,0,0,-1,1385,1485,0,0
168,-461,0,0,0,0,0,0,0,0,0,-1,1392,1485,0,0
175,-461,0,0,0,0,0,0,0,0,0,-1,1399,1485,0,0
182,-461,0,0,0,0,0,0,0,0,0,-1,1406,1485,0,0
189,-461,0,0,0,0,0,0,0,0,0,-1,1413,1485,0,0
196,-461,0,0,0,0,0,0,0,0,0,-1,1420,1485,0,0
203,-461,0,0,0,0,0,0,0,0,0,-1,1427,1485,0,0
210,-461,0,0,0,0,0,0,0,0,0,-1,1434,1485,0,0
217,-461,0,0,0,0,0,0,0,0,0,-1,1441,1485,0,0
224,-461,0,0,0,0,0,0,0,0,0,-1,1448,1485,0,0
231,-461,0,0,0,0,0,0,0,0,0,-1,1455,1485,0,0
238,-461,0,0,0,0,0,0,0,0,0,-1,1462,1485,0,0
245,-461,0,0,0,0,0,0,0,0,0,-1,1469,1485,0,0
252,-461,0,0,0,0,0,0,0,0,0,-1,1476,1485,0,0
259,-461,0,0,0,0,0,0,0,0,0,-1,1483,1485,0,0
266,-461,0,0,0,0,0,0,0,0,0,-1,1490,1485,0,0
273,-461,0,0,0,0,0,0,0,0,0,-1,1497,1485,0,0
280,-461,0,0,0,0,0,0,0,0,0,-1,1504,1485,0,0
287,-461,0,0,0,0,0,0,0,0,0,-1,1511,1485,0,0
294,-461,0,0,0,0,0,0,0,0,0,-1,1518,1485,0,0
301,-461,0,0,0,0,0,0,0,0,0,-1,1525,1485,0,0
308,-461,0,0,0,0,0,0,0,0,0,-1,1532,1485,0,0
315,-461,0,0,0,0,0,0,0,0,0,-1,1539,1485,0,0
322,-461,0,0,0,0,0,0,0,0,0,-1,1546,1485,0,0
329,-461,0,0,0,0,0,0,0,0,0,-1,1553,1485,0,0
336,-461,0,0,0,0,0,0,0,0,0,-1,1560,1485,0,0
343,-461,0,0,0,0,0,0,0,0,0,-1,1567,1485,0,0
350,-461,0,0,0,0,0,0,0,0,0,-1,1574,1485,0,0
357,-461,0,0,0,0,0,0,0,0,0,-1,1581,1485,0,0
364,-461,0,0,0,0,0,0,0,0,0,-1,1588,1485,0,0
371,-461,0,0,0,0,0,0,0,0,0,-1,1595,1485,0,0
378,-461,0,0,0,0,0,0,0,0,0,-1,1602,1485,0,0
385,-461,0,0,0,0,0,0,0,0,0,-1,1609,1485,0,0
392,-461,0,0,0,0,0,0,0,0,0,-1,1616,1485,0,0
399,-461,0,0,0,0,0,0,0,0,0,-1,1623,1485,0,0
406,-461,0,0,0,0,0,0,0,0,0,-1,1630,1485,0,0
413,-461,0,0,0,0,0,0,0,0,0,-1,1637,1485,0,0
420,-461,0,0,0,0,0,0,0,0,0,-1,1644,1485,0,0
427,-461,0,0,0,0,0,0,0,0,0,-1,1651,1485,0,0
434,-461,0,0,0,0,0,0,0,0,0,-1,1658,1485,0,0
441,-461,0,0,0,0,0,0,0,0,0,-1,1665,1485,0,0
448,-461,0,0,0,0,0,0,0,0,0,-1,1672,1485,0,0
455,-461,0,0,0,0,0,0,0,0,0,-1,1679,1485,0,0
462,-461,0,0,0,0,0,0,0,0,0,-1,1686,1485,0,0
469,-461,0,0,0,0,0,0,0,0,0,-1,1693,1485,0,0
476,-461,14.1906,0.690552,0,0,0,0,0,0,0,-1,1700,1485,14.1906,-0.690525
483,-461,10.6361,3.09106,0,0,0,0,0,0,0,-1,1707,1485,10.6361,-3.091
490,-461,10.7461,2.45007,0,0,0,0,0,0,0,-1,1714,1485,10.746,-2.45007
497,-461,11.1135,1.81384,0,0,0,0,0,0,0,-1,1721,1485,11.1135,-1.81387
504,-461,11.6407,1.29785,0,0,0,0,0,0,0,-1,1728,1485,11.6407,-1.29786
511,-461,9.55627,3.86523,0,0,0,0,0,0,0,-1,1735,1485,9.55627,-3.86518
518,-461,9.94092,4.37708,0,0,0,0,0,0,0,-1,1742,1485,9.94092,-4.37704
525,-461,8.61694,6.01184,0,0,0,0,0,0,0,-1,1749,1485,8.61699,-6.01187
532,-461,8.14246,5.72546,0,0,0,0,0,0,0,-1,1756,1485,8.14251,-5.72547
539,-461,8.67957,6.5271,0,0,0,0,0,0,0,-1,1763,1485,8.67952,-6.52704
546,-461,9.51978,7.46191,0,0,0,0,0,0,0,-1,1770,1485,9.51973,-7.46188
553,-461,9.55481,7.4436,-0.0226567,-0.0252045,0.0162542,-0.0076266,-0.0402346,0.74629,0.0246769,0.0403717,1777,1485,9.55479,-7.44361
560,-461,9.47009,7.53406,-0.0175923,-0.0203485,0.013329,-0.00557037,-0.0323704,0.733885,0.019984,0.0270928,1784,1485,9.47005,-7.53402
567,-461,9.50024,7.49512,-0.0134962,-0.0162018,0.0109983,-0.00376777,-0.0259302,0.724204,0.0161778,0.0124873,1791,1485,9.50023,-7.49512
574,-461,9.49902,7.32349,-0.0104837,-0.0126763,0.00905184,-0.00246204,-0.020698,0.725135,0.0130556,0.0126114,1798,1485,9.49906,-7.32346
581,-461,9.50671,7.15527,-0.00817502,-0.00975958,0.00732476,-0.00159982,-0.0163348,0.731525,0.0103977,0.0124405,1805,1485,9.50674,-7.15526
588,-461,9.48486,6.99133,-0.00591543,-0.00743344,0.00582254,-0.00080263,-0.0125462,0.720585,0.00810986,0.0106488,1812,1485,9.48481,-6.99133
595,-461,9.47375,6.82861,-0.00453221,-0.00539169,0.00467366,-0.000268574,-0.00965533,0.739552,0.00634925,0.0086955,1819,1485,9.4737,-6.82859
602,-461,9.48486,6.65051,-0.0035424,-0.00419604,0.00346946,-0.000384403,-0.00735404,0.738438,0.00477971,0.00868216,1826,1485,9.48482,-6.65051
609,-461,9.48474,6.46741,-0.00249912,-0.0033994,0.00248553,-0.000423295,-0.00547523,0.695817,0.00351755,0.0098914,1833,1485,9.48475,-6.46744
616,-461,9.49463,6.29321,-0.00155127,-0.00308741,0.00170274,-0.000451385,-0.00418729,0.573524,0.00265389,0.0122091,1840,1485,9.49466,-6.29322
623,-461,9.49573,6.12012,-0.000479048,-0.00339842,0.0011774,-6.3377e-05,-0.0038141,0.33938,0.00252187,0.0113716,1847,1485,9.49578,-6.1201
630,-461,9.48462,5.94019,0.000692873,-0.00442077,0.000728294,0.000794575,-0.00452247,0.138747,0.00331177,0.00954323,1854,1485,9.48462,-5.94024
637,-461,9.49902,5.78125,0.00185,-0.00605737,0.0005147,0.00188336,-0.00609073,0.0647272,0.00481272,0.0110418,1861,1485,9.49901,-5.78121
644,-461,9.52393,5.62939,0.00320732,-0.00839527,0.000506486,0.00322939,-0.00841734,0.0435424,0.00694305,0.018905,1868,1485,9.52391,-5.62935
651,-461,9.49951,5.42078,0.00513599,-0.0117565,0.000643284,0.00516045,-0.0117809,0.0380077,0.010027,0.0240587,1875,1485,9.49945,-5.42082
658,-461,9.71741,5.24121,0.00781455,-0.0160516,0.000738057,0.00783736,-0.0160745,0.0308854,0.0140759,0.0405534,1882,1485,9.71737,-5.24124
665,-461,9.95129,5.06848,0,0,0,0,0,0,0,-1,1889,1485,9.9513,-5.06848
672,-461,10.0039,5.11865,0,0,0,0,0,0,0,-1,1896,1485,10.0039,-5.11871
679,-461,10.0535,2.16321,0,0,0,0,0,0,0,-1,1903,1485,10.0535,-2.16317
686,-461,10.8195,1.84192,0,0,0,0,0,0,0,-1,1910,1485,10.8194,-1.84195
693,-461,0,0,0,0,0,0,0,0,0,-1,1917,1485,0,0
700,-461,0,0,0,0,0,0,0,0,0,-1,1924,1485,0,0
707,-461,0,0,0,0,0,0,0,0,0,-1,1931,1485,0,0
714,-461,0,0,0,0,0,0,0,0,0,-1,1938,1485,0,0
721,-461,0,0,0,0,0,0,0,0,0,-1,1945,1485,0,0
728,-461,0,0,0,0,0,0,0,0,0,-1,1952,1485,0,0
735,-461,0,0,0,0,0,0,0,0,0,-1,1959,1485,0,0
742,-461,0,0,0,0,0,0,0,0,0,-1,1966,1485,0,0
749,-461,0,0,0,0,0,0,0,0,0,-1,1973,1485,0,0
756,-461,0,0,0,0,0,0,0,0,0,-1,1980,1485,0,0
763,-461,0,0,0,0,0,0,0,0,0,-1,1987,1485,0,0
770,-461,0,0,0,0,0,0,0,0,0,-1,1994,1485,0,0
777,-461,0,0,0,0,0,0,0,0,0,-1,2001,1485,0,0
784,-461,0,0,0,0,0,0,0,0,0,-1,2008,1485,0,0
791,-461,0,0,0,0,0,0,0,0,0,-1,2015,1485,0,0
798,-461,0,0,0,0,0,0,0,0,0,-1,2022,1485,0,0
805,-461,0,0,0,0,0,0,0,0,0,-1,2029,1485,0,0
812,-461,0,0,0,0,0,0,0,0,0,-1,2036,1485,0,0
-700,-468,0,0,0,0,0,0,0,0,0,-1,524,1492,0,0
-693,-468,0,0,0,0,0,0,0,0,0,-1,531,1492,0,0
-686,-468,0,0,0,0,0,0,0,0,0,-1,538,1492,0,0
-679,-468,0,0,0,0,0,0,0,0,0,-1,545,1492,0,0
-672,-468,0,0,0,0,0,0,0,0,0,-1,552,1492,0,0
-665,-468,0,0,0,0,0,0,0,0,0,-1,559,1492,0,0
-658,-468,0,0,0,0,0,0,0,0,0,-1,566,1492,0,0
-651,-468,0,0,0,0,0,0,0,0,0,-1,573,1492,0,0
-644,-468,0,0,0,0,0,0,0,0,0,-1,580,1492,0,0
-637,-468,0,0,0,0,0,0,0,0,0,-1,587,1492,0,0
-630,-468,0,0,0,0,0,0,0,0,0,-1,594,1492,0,0
-623,-468,0,0,0,0,0,0,0,0,0,-1,601,1492,0,0
-616,-468,0,0,0,0,0,0,0,0,0,-1,608,1492,0,0
-609,-468,0,0,0,0,0,0,0,0,0,-1,615,1492,0,0
-602,-468,0,0,0,0,0,0,0,0,0,-1,622,1492,0,0
-595,-468,0,0,0,0,0,0,0,0,0,-1,629,1492,0,0
-588,-468,0,0,0,0,0,0,0,0,0,-1,636,1492,0,0
-581,-468,0,0,0,0,0,0,0,0,0,-1,643,1492,0,0
-574,-468,0,0,0,0,0,0,0,0,0,-1,650,1492,0,0
-567,-468,-0.0491333,0.895996,0,0,0,0,0,0,0,-1,657,1492,-0.0491181,-0.896051
-560,-468,-8.62305,8.70813,0,0,0,0,0,0,0,-1,664,1492,-8.62302,-8.70814
-553,-468,-5.94061,9.26318,0.158183,0.0278286,0.0425181,0.170826,0.0151864,0.289011,0.109174,0.0464272,671,1492,-5.94062,-9.26322
-546,-468,-5.5108,8.79199,0.130614,0.0176441,0.0322252,0.13916,0.00909821,0.259227,0.089894,0.0433652,678,1492,-5.51082,-8.79198
-539,-468,-4.92737,8.27002,0.105887,0.0106502,0.0242244,0.111694,0.00484259,0.2353,0.0729024,0.0416457,685,1492,-4.92735,-8.27008
-532,-468,-4.21155,7.7146,0.0836132,0.00579787,0.0179256,0.087544,0.00186709,0.215867,0.0577504,0.0404726,692,1492,-4.21154,-7.71465
-525,-468,-1.99945,3.30676,0,0,0,0,0,0,0,-1,699,1492,-1.99942,-3.30673
-518,-468,-1.90314,3.57458,0.0481097,0.000667742,0.00912234,0.0498033,-0.00102588,0.183567,0.0335494,0.0437094,706,1492,-1.90317,-3.57456
-511,-468,-1.78552,3.83118,0.0349725,-0.00036728,0.00619717,0.0360277,-0.0014225,0.168658,0.0245064,0.032486,713,1492,-1.78551,-3.83115
-504,-468,-1.73413,4.04138,0.024651,-0.000820851,0.00401376,0.0252685,-0.00143835,0.15265,0.017345,0.0134547,720,1492,-1.7341,-4.04144
-497,-468,-1.74786,4.25366,0.0163106,-0.00140744,0.00171178,0.0164745,-0.0015713,0.0954358,0.0115425,0.00878597,727,1492,-1.74786,-4.25365
-490,-468,-1.74109,4.46362,0.00997046,-0.00142725,0.000685524,0.0100115,-0.00146833,0.0598581,0.00721379,0.00805916,734,1492,-1.74107,-4.46367
-483,-468,-1.75574,4.66626,0.00516792,-0.00143298,5.12471e-05,0.00516832,-0.00143338,0.00776303,0.00400967,0.00826387,741,1492,-1.75573,-4.66627
-476,-468,-1.75958,4.87683,0.0028386,-0.00153836,-0.000645761,0.00293188,-0.00163164,-0.143465,0.00267016,0.00854434,748,1492,-1.75956,-4.87679
-469,-468,-1.75446,5.07214,0.00168112,-0.00222218,-0.00180752,0.00238955,-0.00293061,-0.373538,0.00307689,0.0126888,755,1492,-1.75447,-5.0722
-462,-468,-1.71277,5.26208,0.000976888,-0.00266737,-0.0026115,0.00233911,-0.0040296,-0.480797,0.0037199,0.0229792,762,1492,-1.71279,-5.26203
-455,-468,-1.71765,5.44141,0.000906525,-0.00382655,-0.00323167,0.00254551,-0.00546553,-0.469361,0.00472648,0.0225258,769,1492,-1.71764,-5.44138
-448,-468,-1.745,5.64185,0.00138129,-0.00535823,-0.0040366,0.0032698,-0.00724674,-0.437596,0.00621476,0.0137812,776,1492,-1.74499,-5.64189
-441,-468,-1.74561,5.85803,0.00222575,-0.00742702,-0.00497884,0.00433354,-0.00953482,-0.400472,0.00819246,0.0124484,783,1492,-1.74558,-5.85802
-434,-468,-1.73047,6.04285,0.00321169,-0.00932922,-0.00584932,0.00551638,-0.0116339,-0.375332,0.0101095,0.0122186,790,1492,-1.7305,-6.04286
-427,-468,-1.68903,6.20007,0.00466489,-0.0119162,-0.0068876,0.00715266,-0.014404,-0.346614,0.0126783,0.0151693,797,1492,-1.68902,-6.20011
-420,-468,-1.57385,6.30725,0.00703826,-0.0147474,-0.00766594,0.00946535,-0.0171745,-0.306623,0.0155937,0.026326,804,1492,-1.57386,-6.30724
-413,-468,-1.41766,6.19165,0.00963931,-0.0180325,-0.00826587,0.0119204,-0.0203135,-0.269261,0.0188194,0.0469218,811,1492,-1.41768,-6.19171
-406,-468,-1.20154,6.07629,0,0,0,0,0,0,0,-1,818,1492,-1.20152,-6.07625
-399,-468,-1.64758,6.06042,0,0,0,0,0,0,0,-1,825,1492,-1.64761,-6.06044
-392,-468,-0.419495,5.10693,0,0,0,0,0,0,0,-1,832,1492,-0.419505,-5.10688
-385,-468,0.465759,5.35864,0,0,0,0,0,0,0,-1,839,1492,0.465732,-5.35864
-378,-468,1.99835,3.25391,0,0,0,0,0,0,0,-1,846,1492,1.99837,-3.2539
-371,-468,-0.31842,3.1532,0,0,0,0,0,0,0,-1,853,1492,-0.318441,-3.15324
-364,-468,-0.966736,2.14563,0,0,0,0,0,0,0,-1,860,1492,-0.966735,-2.14557
-357,-468,-3.06787,3.22742,0,0,0,0,0,0,0,-1,867,1492,-3.06784,-3.2274
-350,-468,-3.18658,4.12659,0,0,0,0,0,0,0,-1,874,1492,-3.18659,-4.12658
-343,-468,0,0,0,0,0,0,0,0,0,-1,881,1492,0,0
-336,-468,0,0,0,0,0,0,0,0,0,-1,888,1492,0,0
-329,-468,0,0,0,0,0,0,0,0,0,-1,895,1492,0,0
-322,-468,0,0,0,0,0,0,0,0,0,-1,902,1492,0,0
-315,-468,0,0,0,0,0,0,0,0,0,-1,909,1492,0,0
-308,-468,0,0,0,0,0,0,0,0,0,-1,916,1492,0,0
-301,-468,0,0,0,0,0,0,0,0,0,-1,923,1492,0,0
-294,-468,0,0,0,0,0,0,0,0,0,-1,930,1492,0,0
-287,-468,0,0,0,0,0,0,0,0,0,-1,937,1492,0,0
-280,-468,0,0,0,0,0,0,0,0,0,-1,944,1492,0,0
-273,-468,0,0,0,0,0,0,0,0,0,-1,951,1492,0,0
-266,-468,0,0,0,0,0,0,0,0,0,-1,958,1492,0,0
-259,-468,0,0,0,0,0,0,0,0,0,-1,965,1492,0,0
-252,-468,0,0,0,0,0,0,0,0,0,-1,972,1492,0,0
-245,-468,0,0,0,0,0,0,0,0,0,-1,979,1492,0,0
-238,-468,0,0,0,0,0,0,0,0,0,-1,986,1492,0,0
-231,-468,0,0,0,0,0,0,0,0,0,-1,993,1492,0,0
-224,-468,0,0,0,0,0,0,0,0,0,-1,1000,1492,0,0
-217,-468,0,0,0,0,0,0,0,0,0,-1,1007,1492,0,0
-210,-468,0,0,0,0,0,0,0,0,0,-1,1014,1492,0,0
-203,-468,0,0,0,0,0,0,0,0,0,-1,1021,1492,0,0
-196,-468,0,0,0,0,0,0,0,0,0,-1,1028,1492,0,0
-189,-468,0,0,0,0,0,0,0,0,0,-1,1035,1492,0,0
-182,-468,0,0,0,0,0,0,0,0,0,-1,1042,1492,0,0
-175,-468,0,0,0,0,0,0,0,0,0,-1,1049,1492,0,0
-168,-468,0,0,0,0,0,0,0,0,0,-1,1056,1492,0,0
-161,-468,0,0,0,0,0,0,0,0,0,-1,1063,1492,0,0
-154,-468,0,0,0,0,0,0,0,0,0,-1,1070,1492,0,0
-147,-468,0,0,0,0,0,0,0,0,0,-1,1077,1492,0,0
-140,-468,0,0,0,0,0,0,0,0,0,-1,1084,1492,0,0
-133,-468,0,0,0,0,0,0,0,0,0,-1,1091,1492,0,0
-126,-468,0,0,0,0,0,0,0,0,0,-1,1098,1492,0,0
-119,-468,0,0,0,0,0,0,0,0,0,-1,1105,1492,0,0
-112,-468,0,0,0,0,0,0,0,0,0,-1,1112,1492,0,0
-105,-468,0,0,0,0,0,0,0,0,0,-1,1119,1492,0,0
-98,-468,0,0,0,0,0,0,0,0,0,-1,1126,1492,0,0
-91,-468,0,0,0,0,0,0,0,0,0,-1,1133,1492,0,0
-84,-468,0,0,0,0,0,0,0,0,0,-1,1140,1492,0,0
-77,-468,0,0,0,0,0,0,0,0,0,-1,1147,1492,0,0
-70,-468,0,0,0,0,0,0,0,0,0,-1,1154,1492,0,0
-63,-468,0,0,0,0,0,0,0,0,0,-1,1161,1492,0,0
-56,-468,0,0,0,0,0,0,0,0,0,-1,1168,1492,0,0
-49,-468,0,0,0,0,0,0,0,0,0,-1,1175,1492,0,0
-42,-468,0,0,0,0,0,0,0,0,0,-1,1182,1492,0,0
-35,-468,0,0,0,0,0,0,0,0,0,-1,1189,1492,0,0
-28,-468,0,0,0,0,0,0,0,0,0,-1,1196,1492,0,0
-21,-468,0,0,0,0,0,0,0,0,0,-1,1203,1492,0,0
-14,-468,0,0,0,0,0,0,0,0,0,-1,1210,1492,0,0
-7,-468,0,0,0,0,0,0,0,0,0,-1,1217,1492,0,0
0,-468,0,0,0,0,0,0,0,0,0,-1,1224,1492,0,0
7,-468,0,0,0,0,0,0,0,0,0,-1,1231,1492,0,0
14,-468,0,0,0,0,0,0,0,0,0,-1,1238,1492,0,0
21,-468,0,0,0,0,0,0,0,0,0,-1,1245,1492,0,0
28,-468,0,0,0,0,0,0,0,0,0,-1,1252,1492,0,0
35,-468,0,0,0,0,0,0,0,0,0,-1,1259,1492,0,0
42,-468,0,0,0,0,0,0,0,0,0,-1,1266,1492,0,0
49,-468,0,0,0,0,0,0,0,0,0,-1,1273,1492,0,0
56,-468,0,0,0,0,0,0,0,0,0,-1,1280,1492,0,0
63,-468,0,0,0,0,0,0,0,0,0,-1,1287,1492,0,0
70,-468,0,0,0,0,0,0,0,0,0,-1,1294,1492,0,0
77,-468,0,0,0,0,0,0,0,0,0,-1,1301,1492,0,0
84,-468,0,0,0,0,0,0,0,0,0,-1,1308,1492,0,0
91,-468,0,0,0,0,0,0,0,0,0,-1,1315,1492,0,0
98,-468,0,0,0,0,0,0,0,0,0,-1,1322,1492,0,0
105,-468,0,0,0,0,0,0,0,0,0,-1,1329,1492,0,0
112,-468,0,0,0,0,0,0,0,0,0,-1,1336,1492,0,0
119,-468,0,0,0,0,0,0,0,0,0,-1,1343,1492,0,0
126,-468,0,0,0,0,0,0,0,0,0,-1,1350,1492,0,0
133,-468,0,0,0,0,0,0,0,0,0,-1,1357,1492,0,0
140,-468,0,0,0,0,0,0,0,0,0,-1,1364,1492,0,0
147,-468,0,0,0,0,0,0,0,0,0,-1,1371,1492,0,0
154,-468,0,0,0,0,0,0,0,0,0,-1,1378,1492,0,0
161,-468,0,0,0,0,0,0,0,0,0,-1,1385,1492,0,0
168,-468,0,0,0,0,0,0,0,0,0,-1,1392,1492,0,0
175,-468,0,0,0,0,0,0,0,0,0,-1,1399,1492,0,0
182,-468,0,0,0,0,0,0,0,0,0,-1,1406,1492,0,0
189,-468,0,0,0,0,0,0,0,0,0,-1,1413,1492,0,0
196,-468,0,0,0,0,0,0,0,0,0,-1,1420,1492,0,0
203,-468,0,0,0,0,0,0,0,0,0,-1,1427,1492,0,0
210,-468,0,0,0,0,0,0,0,0,0,-1,1434,1492,0,0
217,-468,0,0,0,0,0,0,0,0,0,-1,1441,1492,0,0
224,-468,0,0,0,0,0,0,0,0,0,-1,1448,1492,0,0
231,-468,0,0,0,0,0,0,0,0,0,-1,1455,1492,0,0
238,-468,0,0,0,0,0,0,0,0,0,-1,1462,1492,0,0
245,-468,0,0,0,0,0,0,0,0,0,-1,1469,1492,0,0
252,-468,0,0,0,0,0,0,0,0,0,-1,1476,1492,0,0
259,-468,0,0,0,0,0,0,0,0,0,-1,1483,1492,0,0
266,-468,0,0,0,0,0,0,0,0,0,-1,1490,1492,0,0
273,-468,0,0,0,0,0,0,0,0,0,-1,1497,1492,0,0
280,-468,0,0,0,0,0,0,0,0,0,-1,1504,1492,0,0
287,-468,0,0,0,0,0,0,0,0,0,-1,1511,1492,0,0
294,-468,0,0,0,0,0,0,0,0,0,-1,1518,1492,0,0
301,-468,0,0,0,0,0,0,0,0,0,-1,1525,1492,0,0
308,-468,0,0,0,0,0,0,0,0,0,-1,1532,1492,0,0
315,-468,0,0,0,0,0,0,0,0,0,-1,1539,1492,0,0
322,-468,0,0,0,0,0,0,0,0,0,-1,1546,1492,0,0
329,-468,0,0,0,0,0,0,0,0,0,-1,1553,1492,0,0
336,-468,0,0,0,0,0,0,0,0,0,-1,1560,1492,0,0
343,-468,0,0,0,0,0,0,0,0,0,-1,1567,1492,0,0
350,-468,0,0,0,0,0,0,0,0,0,-1,1574,1492,0,0
357,-468,0,0,0,0,0,0,0,0,0,-1,1581,1492,0,0
364,-468,0,0,0,0,0,0,0,0,0,-1,1588,1492,0,0
371,-468,0,0,0,0,0,0,0,0,0,-1,1595,1492,0,0
378,-468,0,0,0,0,0,0,0,0,0,-1,1602,1492,0,0
385,-468,0,0,0,0,0,0,0,0,0,-1,1609,1492,0,0
392,-468,0,0,0,0,0,0,0,0,0,-1,1616,1492,0,0
399,-468,0,0,0,0,0,0,0,0,0,-1,1623,1492,0,0
406,-468,0,0,0,0,0,0,0,0,0,-1,1630,1492,0,0
413,-468,0,0,0,0,0,0,0,0,0,-1,1637,1492,0,0
420,-468,0,0,0,0,0,0,0,0,0,-1,1644,1492,0,0
427,-468,0,0,0,0,0,0,0,0,0,-1,1651,1492,0,0
434,-468,0,0,0,0,0,0,0,0,0,-1,1658,1492,0,0
441,-468,0,0,0,0,0,0,0,0,0,-1,1665,1492,0,0
448,-468,0,0,0,0,0,0,0,0,0,-1,1672,1492,0,0
455,-468,0,0,0,0,0,0,0,0,0,-1,1679,1492,0,0
462,-468,0,0,0,0,0,0,0,0,0,-1,1686,1492,0,0
469,-468,15.6879,1.2677,0,0,0,0,0,0,0,-1,1693,1492,15.6879,-1.26772
476,-468,14.9318,1.61865,0,0,0,0,0,0,0,-1,1700,1492,14.9318,-1.61869
483,-468,9.87329,3.38733,0,0,0,0,0,0,0,-1,1707,1492,9.87329,-3.38737
490,-468,10.3018,2.82959,0,0,0,0,0,0,0,-1,1714,1492,10.3017,-2.82959
497,-468,10.6504,2.51782,0,0,0,0,0,0,0,-1,1721,1492,10.6504,-2.5178
504,-468,12.2002,3.88367,0,0,0,0,0,0,0,-1,1728,1492,12.2002,-3.8837
511,-468,11.2576,5.18835,0,0,0,0,0,0,0,-1,1735,1492,11.2576,-5.18835
518,-468,9.03796,6.02148,0,0,0,0,0,0,0,-1,1742,1492,9.03793,-6.02149
525,-468,8.65503,6.36401,0,0,0,0,0,0,0,-1,1749,1492,8.65501,-6.36405
532,-468,10.5459,7.34985,0,0,0,0,0,0,0,-1,1756,1492,10.5458,-7.34981
539,-468,8.5343,6.84167,0,0,0,0,0,0,0,-1,1763,1492,8.53426,-6.8417
546,-468,9.24585,7.60938,0,0,0,0,0,0,0,-1,1770,1492,9.24583,-7.60937
553,-468,9.41138,7.55334,-0.0187549,-0.0208301,0.0137365,-0.00601691,-0.0335681,0.747703,0.0206672,0.0334478,1777,1492,9.41137,-7.55329
560,-468,9.34827,7.64453,-0.014261,-0.0165733,0.0107903,-0.00456505,-0.0262693,0.732027,0.0162069,0.0177779,1784,1492,9.34824,-7.64458
567,-468,9.32874,7.5376,-0.0105741,-0.0130196,0.00860753,-0.00310291,-0.0204908,0.714844,0.0127527,0.0131716,1791,1492,9.32877,-7.53761
574,-468,9.3418,7.33936,-0.00798296,-0.0100511,0.00694484,-0.00199563,-0.0160384,0.711492,0.0100931,0.0131264,1798,1492,9.3418,-7.33934
581,-468,9.3335,7.15564,-0.00609477,-0.00765059,0.00551907,-0.00129906,-0.0124463,0.715385,0.0079002,0.0130365,1805,1492,9.33355,-7.15558
588,-468,9.30688,6.98767,-0.00422246,-0.005796,0.00427642,-0.000661033,-0.00935743,0.694426,0.00603003,0.0118168,1812,1492,9.30682,-6.9877
595,-468,9.31641,6.81934,-0.00316524,-0.00414614,0.0033846,-0.000235735,-0.00707564,0.713446,0.00464051,0.00995295,1819,1492,9.31638,-6.81939
602,-468,9.33447,6.63074,-0.00249857,-0.00331607,0.00243824,-0.000435053,-0.00537958,0.70235,0.00345052,0.00834205,1826,1492,9.33447,-6.63078
609,-468,9.31921,6.46216,-0.00173892,-0.00293275,0.00167482,-0.000557828,-0.00411385,0.614213,0.00257683,0.00841008,1833,1492,9.31922,-6.46214
616,-468,9.31458,6.29382,-0.00110713,-0.00299083,0.0011314,-0.000576856,-0.0035211,0.438284,0.0021807,0.00857993,1840,1492,9.31454,-6.29383
623,-468,9.31567,6.12134,-0.000353322,-0.00365947,0.000812377,-0.000164492,-0.0038483,0.228386,0.0025125,0.00959077,1847,1492,9.3157,-6.12137
630,-468,9.32361,5.93567,0.000601896,-0.00504974,0.000509631,0.000647483,-0.00509533,0.0892151,0.00363201,0.0102439,1854,1492,9.32362,-5.93562
637,-468,9.34131,5.73889,0.00174824,-0.00704293,0.000323262,0.00176011,-0.0070548,0.0367051,0.00538662,0.0142708,1861,1492,9.34128,-5.73894
644,-468,9.30457,5.62573,0.00349518,-0.00979488,7.41538e-05,0.00349559,-0.0097953,0.00557941,0.00795564,0.0287304,1868,1492,9.30462,-5.6257
651,-468,9.46924,5.5542,0.00629882,-0.0134992,-0.00033126,0.00630437,-0.0135048,-0.0167257,0.0116859,0.0433437,1875,1492,9.46926,-5.55425
658,-468,9.77649,5.5022,0.0105454,-0.0182285,-0.0011913,0.0105946,-0.0182777,-0.0413078,0.016865,0.0422731,1882,1492,9.77647,-5.50217
665,-468,10.0691,5.33008,0,0,0,0,0,0,0,-1,1889,1492,10.0691,-5.33011
672,-468,8.50745,4.37378,0,0,0,0,0,0,0,-1,1896,1492,8.50749,-4.3738
679,-468,11.2191,1.91968,0,0,0,0,0,0,0,-1,1903,1492,11.2191,-1.91965
686,-468,11.9252,1.42285,0,0,0,0,0,0,0,-1,1910,1492,11.9252,-1.42291
693,-468,0,0,0,0,0,0,0,0,0,-1,1917,1492,0,0
700,-468,0,0,0,0,0,0,0,0,0,-1,1924,1492,0,0
707,-468,0,0,0,0,0,0,0,0,0,-1,1931,1492,0,0
714,-468,0,0,0,0,0,0,0,0,0,-1,1938,1492,0,0
721,-468,0,0,0,0,0,0,0,0,0,-1,1945,1492,0,0
728,-468,0,0,0,0,0,0,0,0,0,-1,1952,1492,0,0
735,-468,0,0,0,0,0,0,0,0,0,-1,1959,1492,0,0
742,-468,0,0,0,0,0,0,0,0,0,-1,1966,1492,0,0
749,-468,0,0,0,0,0,0,0,0,0,-1,1973,1492,0,0
756,-468,0,0,0,0,0,0,0,0,0,-1,1980,1492,0,0
763,-468,0,0,0,0,0,0,0,0,0,-1,1987,1492,0,0
770,-468,0,0,0,0,0,0,0,0,0,-1,1994,1492,0,0
777,-468,0,0,0,0,0,0,0,0,0,-1,2001,1492,0,0
784,-468,0,0,0,0,0,0,0,0,0,-1,2008,1492,0,0
791,-468,0,0,0,0,0,0,0,0,0,-1,2015,1492,0,0
798,-468,0,0,0,0,0,0,0,0,0,-1,2022,1492,0,0
805,-468,0,0,0,0,0,0,0,0,0,-1,2029,1492,0,0
812,-468,0,0,0,0,0,0,0,0,0,-1,2036,1492,0,0
-700,-475,0,0,0,0,0,0,0,0,0,-1,524,1499,0,0
-693,-475,0,0,0,0,0,0,0,0,0,-1,531,1499,0,0
-686,-475,0,0,0,0,0,0,0,0,0,-1,538,1499,0,0
-679,-475,0,0,0,0,0,0,0,0,0,-1,545,1499,0,0
-672,-475,0,0,0,0,0,0,0,0,0,-1,552,1499,0,0
-665,-475,0,0,0,0,0,0,0,0,0,-1,559,1499,0,0
-658,-475,0,0,0,0,0,0,0,0,0,-1,566,1499,0,0
-651,-475,0,0,0,0,0,0,0,0,0,-1,573,1499,0,0
-644,-475,0,0,0,0,0,0,0,0,0,-1,580,1499,0,0
-637,-475,0,0,0,0,0,0,0,0,0,-1,587,1499,0,0
-630,-475,0,0,0,0,0,0,0,0,0,-1,594,1499,0,0
-623,-475,0,0,0,0,0,0,0,0,0,-1,601,1499,0,0
-616,-475,0,0,0,0,0,0,0,0,0,-1,608,1499,0,0
-609,-475,0,0,0,0,0,0,0,0,0,-1,615,1499,0,0
-602,-475,0,0,0,0,0,0,0,0,0,-1,622,1499,0,0
-595,-475,0,0,0,0,0,0,0,0,0,-1,629,1499,0,0
-588,-475,0,0,0,0,0,0,0,0,0,-1,636,1499,0,0
-581,-475,0,0,0,0,0,0,0,0,0,-1,643,1499,0,0
-574,-475,0,0,0,0,0,0,0,0,0,-1,650,1499,0,0
-567,-475,0,0,0,0,0,0,0,0,0,-1,657,1499,0,0
-560,-475,-9.42731,9.29517,0,0,0,0,0,0,0,-1,664,1499,-9.42731,-9.29519
-553,-475,-8.15131,8.78369,0.186492,0.0335849,0.0492168,0.200964,0.019113,0.285984,0.128081,0.0459379,671,1499,-8.15131,-8.78367
-546,-475,-6.63885,8.42383,0.156741,0.0207683,0.0371286,0.166219,0.0112906,0.249929,0.107247,0.0409313,678,1499,-6.63886,-8.42381
-539,-475,-5.37665,8.17761,0.129666,0.012015,0.027771,0.135891,0.00578925,0.220537,0.0887276,0.0402932,685,1499,-5.37664,-8.17761
-532,-475,-0.804016,2.37305,0,0,0,0,0,0,0,-1,692,1499,-0.804006,-2.37301
-525,-475,-1.29169,3.02136,0.0823239,0.0026216,0.0147425,0.0849634,-1.78926e-05,0.177163,0.0566482,0.0432071,699,1499,-1.29169,-3.0214
-518,-475,-1.79083,3.71545,0.0630762,0.000579436,0.0103098,0.064733,-0.0010774,0.159343,0.0435189,0.0456823,706,1499,-1.79083,-3.71549
-511,-475,-1.63037,3.80054,0.0469558,-0.000388602,0.00694826,0.0479545,-0.00138726,0.14275,0.032442,0.0471586,713,1499,-1.63035,-3.80059
-504,-475,-1.53809,4.06287,0.0338756,-0.000683557,0.00446706,0.0344436,-0.00125162,0.126489,0.0233908,0.0263361,720,1499,-1.53809,-4.06292
-497,-475,-1.53772,4.2572,0.0231547,-0.00114678,0.00193953,0.0233085,-0.0013006,0.0791434,0.0159902,0.0130126,727,1499,-1.5377,-4.25722
-490,-475,-1.5354,4.44995,0.0149078,-0.00099656,0.000889584,0.0149574,-0.00104616,0.0557017,0.010338,0.00865081,734,1499,-1.53541,-4.45
-483,-475,-1.54156,4.66748,0.00849877,-0.000862946,0.000304301,0.00850865,-0.000872827,0.0324591,0.00598463,0.00849637,741,1499,-1.54158,-4.66743
-476,-475,-1.54523,4.86865,0.00511057,-0.000829181,-0.00024652,0.00512078,-0.000839395,-0.0414084,0.00372531,0.00924942,748,1499,-1.54522,-4.86865
-469,-475,-1.53223,5.07568,0.00298917,-0.00141357,-0.00130132,0.00334504,-0.00176944,-0.266941,0.00299919,0.011237,755,1499,-1.5322,-5.07574
-462,-475,-1.50574,5.27039,0.00159535,-0.00162456,-0.00189728,0.00247369,-0.0025029,-0.433569,0.00287325,0.0162374,762,1499,-1.50573,-5.27043
-455,-475,-1.51624,5.44031,0.00140135,-0.0027325,-0.00217983,0.0023384,-0.00366955,-0.40599,0.00349695,0.0146039,769,1499,-1.51622,-5.44025
-448,-475,-1.54419,5.64587,0.00181868,-0.00416393,-0.002648,0.00282235,-0.0051676,-0.362299,0.00467877,0.0125883,776,1499,-1.54421,-5.64593
-441,-475,-1.54565,5.88452,0.00269268,-0.00604301,-0.0032609,0.00377567,-0.007126,-0.320651,0.00639239,0.015925,783,1499,-1.54568,-5.88448
-434,-475,-1.55701,6.05151,0.00379406,-0.00760323,-0.00374954,0.00491697,-0.00872614,-0.290979,0.00797853,0.010132,790,1499,-1.55698,-6.05155
-427,-475,-1.53485,6.26001,0.00543226,-0.00968046,-0.00436672,0.00660326,-0.0108515,-0.262,0.0101765,0.0128495,797,1499,-1.53487,-6.26001
-420,-475,-1.44147,6.42419,0.00797094,-0.0120142,-0.00472166,0.00903032,-0.0130736,-0.22071,0.0128327,0.0193883,804,1499,-1.44145,-6.42425
-413,-475,-1.29657,6.40906,0.0105891,-0.0148083,-0.00495361,0.011521,-0.0157403,-0.185967,0.015802,0.0352414,811,1499,-1.29656,-6.40902
-406,-475,-1.02185,6.49268,0,0,0,0,0,0,0,-1,818,1499,-1.02188,-6.49264
-399,-475,-0.877808,6.7002,0,0,0,0,0,0,0,-1,825,1499,-0.877811,-6.70025
-392,-475,-0.680298,6.84106,0,0,0,0,0,0,0,-1,832,1499,-0.680282,-6.84106
-385,-475,1.18372,2.73999,0,0,0,0,0,0,0,-1,839,1499,1.18372,-2.73995
-378,-475,1.31409,2.90149,0,0,0,0,0,0,0,-1,846,1499,1.31411,-2.90151
-371,-475,2.3476,3.31116,0,0,0,0,0,0,0,-1,853,1499,2.34761,-3.31121
-364,-475,1.04462,9.05823,0,0,0,0,0,0,0,-1,860,1499,1.04461,-9.05825
-357,-475,-0.262756,7.97205,0,0,0,0,0,0,0,-1,867,1499,-0.262784,-7.97205
-350,-475,-2.77173,4.35486,0,0,0,0,0,0,0,-1,874,1499,-2.77175,-4.35491
-343,-475,-6.81641,-1.95203,0,0,0,0,0,0,0,-1,881,1499,-6.81643,1.95198
-336,-475,0,0,0,0,0,0,0,0,0,-1,888,1499,0,0
-329,-475,0,0,0,0,0,0,0,0,0,-1,895,1499,0,0
-322,-475,0,0,0,0,0,0,0,0,0,-1,902,1499,0,0
-315,-475,0,0,0,0,0,0,0,0,0,-1,909,1499,0,0
-308,-475,0,0,0,0,0,0,0,0,0,-1,916,1499,0,0
-301,-475,0,0,0,0,0,0,0,0,0,-1,923,1499,0,0
-294,-475,0,0,0,0,0,0,0,0,0,-1,930,1499,0,0
-287,-475,0,0,0,0,0,0,0,0,0,-1,937,1499,0,0
-280,-475,0,0,0,0,0,0,0,0,0,-1,944,1499,0,0
-273,-475,0,0,0,0,0,0,0,0,0,-1,951,1499,0,0
-266,-475,0,0,0,0,0,0,0,0,0,-1,958,1499,0,0
-259,-475,0,0,0,0,0,0,0,0,0,-1,965,1499,0,0
-252,-475,0,0,0,0,0,0,0,0,0,-1,972,1499,0,0
-245,-475,0,0,0,0,0,0,0,0,0,-1,979,1499,0,0
-238,-475,0,0,0,0,0,0,0,0,0,-1,986,1499,0,0
-231,-475,0,0,0,0,0,0,0,0,0,-1,993,1499,0,0
-224,-475,0,0,0,0,0,0,0,0,0,-1,1000,1499,0,0
-217,-475,0,0,0,0,0,0,0,0,0,-1,1007,1499,0,0
-210,-475,0,0,0,0,0,0,0,0,0,-1,1014,1499,0,0
-203,-475,0,0,0,0,0,0,0,0,0,-1,1021,1499,0,0
-196,-475,0,0,0,0,0,0,0,0,0,-1,1028,1499,0,0
-189,-475,0,0,0,0,0,0,0,0,0,-1,1035,1499,0,0
-182,-475,0,0,0,0,0,0,0,0,0,-1,1042,1499,0,0
-175,-475,0,0,0,0,0,0,0,0,0,-1,1049,1499,0,0
-168,-475,0,0,0,0,0,0,0,0,0,-1,1056,1499,0,0
-161,-475,0,0,0,0,0,0,0,0,0,-1,1063,1499,0,0
-154,-475,0,0,0,0,0,0,0,0,0,-1,1070,1499,0,0
-147,-475,0,0,0,0,0,0,0,0,0,-1,1077,1499,0,0
-140,-475,0,0,0,0,0,0,0,0,0,-1,1084,1499,0,0
-133,-475,0,0,0,0,0,0,0,0,0,-1,1091,1499,0,0
-126,-475,0,0,0,0,0,0,0,0,0,-1,1098,1499,0,0
-119,-475,0,0,0,0,0,0,0,0,0,-1,1105,1499,0,0
-112,-475,0,0,0,0,0,0,0,0,0,-1,1112,1499,0,0
-105,-475,0,0,0,0,0,0,0,0,0,-1,1119,1499,0,0
-98,-475,0,0,0,0,0,0,0,0,0,-1,1126,1499,0,0
-91,-475,0,0,0,0,0,0,0,0,0,-1,1133,1499,0,0
-84,-475,0,0,0,0,0,0,0,0,0,-1,1140,1499,0,0
-77,-475,0,0,0,0,0,0,0,0,0,-1,1147,1499,0,0
-70,-475,0,0,0,0,0,0,0,0,0,-1,1154,1499,0,0
-63,-475,0,0,0,0,0,0,0,0,0,-1,1161,1499,0,0
-56,-475,0,0,0,0,0,0,0,0,0,-1,1168,1499,0,0
-49,-475,0,0,0,0,0,0,0,0,0,-1,1175,1499,0,0
-42,-475,0,0,0,0,0,0,0,0,0,-1,1182,1499,0,0
-35,-475,0,0,0,0,0,0,0,0,0,-1,1189,1499,0,0
-28,-475,0,0,0,0,0,0,0,0,0,-1,1196,1499,0,0
-21,-475,0,0,0,0,0,0,0,0,0,-1,1203,1499,0,0
-14,-475,0,0,0,0,0,0,0,0,0,-1,1210,1499,0,0
-7,-475,0,0,0,0,0,0,0,0,0,-1,1217,1499,0,0
0,-475,0,0,0,0,0,0,0,0,0,-1,1224,1499,0,0
7,-475,0,0,0,0,0,0,0,0,0,-1,1231,1499,0,0
14,-475,0,0,0,0,0,0,0,0,0,-1,1238,1499,0,0
21,-475,0,0,0,0,0,0,0,0,0,-1,1245,1499,0,0
28,-475,0,0,0,0,0,0,0,0,0,-1,1252,1499,0,0
35,-475,0,0,0,0,0,0,0,0,0,-1,1259,1499,0,0
42,-475,0,0,0,0,0,0,0,0,0,-1,1266,1499,0,0
49,-475,0,0,0,0,0,0,0,0,0,-1,1273,1499,0,0
56,-475,0,0,0,0,0,0,0,0,0,-1,1280,1499,0,0
63,-475,0,0,0,0,0,0,0,0,0,-1,1287,1499,0,0
70,-475,0,0,0,0,0,0,0,0,0,-1,1294,1499,0,0
77,-475,0,0,0,0,0,0,0,0,0,-1,1301,1499,0,0
84,-475,0,0,0,0,0,0,0,0,0,-1,1308,1499,0,0
91,-475,0,0,0,0,0,0,0,0,0,-1,1315,1499,0,0
98,-475,0,0,0,0,0,0,0,0,0,-1,1322,1499,0,0
105,-475,0,0,0,0,0,0,0,0,0,-1,1329,1499,0,0
112,-475,0,0,0,0,0,0,0,0,0,-1,1336,1499,0,0
119,-475,0,0,0,0,0,0,0,0,0,-1,1343,1499,0,0
126,-475,0,0,0,0,0,0,0,0,0,-1,1350,1499,0,0
133,-475,0,0,0,0,0,0,0,0,0,-1,1357,1499,0,0
140,-475,0,0,0,0,0,0,0,0,0,-1,1364,1499,0,0
147,-475,0,0,0,0,0,0,0,0,0,-1,1371,1499,0,0
154,-475,0,0,0,0,0,0,0,0,0,-1,1378,1499,0,0
161,-475,0,0,0,0,0,0,0,0,0,-1,1385,1499,0,0
168,-475,0,0,0,0,0,0,0,0,0,-1,1392,1499,0,0
175,-475,0,0,0,0,0,0,0,0,0,-1,1399,1499,0,0
182,-475,0,0,0,0,0,0,0,0,0,-1,1406,1499,0,0
189,-475,0,0,0,0,0,0,0,0,0,-1,1413,1499,0,0
196,-475,0,0,0,0,0,0,0,0,0,-1,1420,1499,0,0
203,-475,0,0,0,0,0,0,0,0,0,-1,1427,1499,0,0
210,-475,0,0,0,0,0,0,0,0,0,-1,1434,1499,0,0
217,-475,0,0,0,0,0,0,0,0,0,-1,1441,1499,0,0
224,-475,0,0,0,0,0,0,0,0,0,-1,1448,1499,0,0
231,-475,0,0,0,0,0,0,0,0,0,-1,1455,1499,0,0
238,-475,0,0,0,0,0,0,0,0,0,-1,1462,1499,0,0
245,-475,0,0,0,0,0,0,0,0,0,-1,1469,1499,0,0
252,-475,0,0,0,0,0,0,0,0,0,-1,1476,1499,0,0
259,-475,0,0,0,0,0,0,0,0,0,-1,1483,1499,0,0
266,-475,0,0,0,0,0,0,0,0,0,-1,1490,1499,0,0
273,-475,0,0,0,0,0,0,0,0,0,-1,1497,1499,0,0
280,-475,0,0,0,0,0,0,0,0,0,-1,1504,1499,0,0
287,-475,0,0,0,0,0,0,0,0,0,-1,1511,1499,0,0
294,-475,0,0,0,0,0,0,0,0,0,-1,1518,1499,0,0
301,-475,0,0,0,0,0,0,0,0,0,-1,1525,1499,0,0
308,-475,0,0,0,0,0,0,0,0,0,-1,1532,1499,0,0
315,-475,0,0,0,0,0,0,0,0,0,-1,1539,1499,0,0
322,-475,0,0,0,0,0,0,0,0,0,-1,1546,1499,0,0
329,-475,0,0,0,0,0,0,0,0,0,-1,1553,1499,0,0
336,-475,0,0,0,0,0,0,0,0,0,-1,1560,1499,0,0
343,-475,0,0,0,0,0,0,0,0,0,-1,1567,1499,0,0
350,-475,0,0,0,0,0,0,0,0,0,-1,1574,1499,0,0
357,-475,0,0,0,0,0,0,0,0,0,-1,1581,1499,0,0
364,-475,0,0,0,0,0,0,0,0,0,-1,1588,1499,0,0
371,-475,0,0,0,0,0,0,0,0,0,-1,1595,1499,0,0
378,-475,0,0,0,0,0,0,0,0,0,-1,1602,1499,0,0
385,-475,0,0,0,0,0,0,0,0,0,-1,1609,1499,0,0
392,-475,0,0,0,0,0,0,0,0,0,-1,1616,1499,0,0
399,-475,0,0,0,0,0,0,0,0,0,-1,1623,1499,0,0
406,-475,0,0,0,0,0,0,0,0,0,-1,1630,1499,0,0
413,-475,0,0,0,0,0,0,0,0,0,-1,1637,1499,0,0
420,-475,0,0,0,0,0,0,0,0,0,-1,1644,1499,0,0
427,-475,0,0,0,0,0,0,0,0,0,-1,1651,1499,0,0
434,-475,0,0,0,0,0,0,0,0,0,-1,1658,1499,0,0
441,-475,0,0,0,0,0,0,0,0,0,-1,1665,1499,0,0
448,-475,0,0,0,0,0,0,0,0,0,-1,1672,1499,0,0
455,-475,0,0,0,0,0,0,0,0,0,-1,1679,1499,0,0
462,-475,12.6372,0.275391,0,0,0,0,0,0,0,-1,1686,1499,12.6372,-0.27536
469,-475,15.6437,2.28296,0,0,0,0,0,0,0,-1,1693,1499,15.6437,-2.28293
476,-475,15.3302,2.71436,0,0,0,0,0,0,0,-1,1700,1499,15.3303,-2.7143
483,-475,14.7006,2.77881,0,0,0,0,0,0,0,-1,1707,1499,14.7005,-2.77885
490,-475,9.76526,3.76575,0,0,0,0,0,0,0,-1,1714,1499,9.7653,-3.76579
497,-475,12.5792,3.39417,0,0,0,0,0,0,0,-1,1721,1499,12.5792,-3.39417
504,-475,11.5964,4.55408,0,0,0,0,0,0,0,-1,1728,1499,11.5964,-4.55402
511,-475,10.6611,5.92505,0,0,0,0,0,0,0,-1,1735,1499,10.6612,-5.92511
518,-475,9.03394,6.40881,0,0,0,0,0,0,0,-1,1742,1499,9.03394,-6.40878
525,-475,10.5458,7.72229,0,0,0,0,0,0,0,-1,1749,1499,10.5457,-7.72224
532,-475,10.1044,7.60547,-0.0325871,-0.0330584,0.0274358,-0.00538594,-0.0602595,0.781103,0.0385035,0.0474111,1756,1499,10.1043,-7.60547
539,-475,8.75085,7.18774,-0.0256374,-0.0268074,0.0206582,-0.00555591,-0.0468889,0.771242,0.0295817,0.0467336,1763,1499,8.75088,-7.18772
546,-475,9.16357,7.73792,-0.0198142,-0.0215583,0.0156881,-0.0049739,-0.0363986,0.757634,0.0227894,0.0396736,1770,1499,9.16357,-7.73788
553,-475,9.21594,7.7699,-0.0152985,-0.0170291,0.0115156,-0.0046157,-0.0277118,0.747898,0.0171444,0.0194726,1777,1499,9.21595,-7.76987
560,-475,9.10242,7.70447,-0.0114685,-0.0133548,0.00869484,-0.0036658,-0.0211575,0.731372,0.0130558,0.0132535,1784,1499,9.10248,-7.70448
567,-475,9.15332,7.52356,-0.00824973,-0.0103593,0.00671606,-0.00250614,-0.0161029,0.707507,0.0100051,0.0135849,1791,1499,9.15338,-7.52359
574,-475,9.1521,7.33911,-0.00605216,-0.00786907,0.00532721,-0.0015565,-0.0123647,0.700945,0.00777641,0.0140029,1798,1499,9.15209,-7.33909
581,-475,9.13928,7.16797,-0.00451313,-0.00590199,0.00417807,-0.000972171,-0.00944295,0.703047,0.00599756,0.0109253,1805,1499,9.13925,-7.16796
588,-475,9.12244,7.00024,-0.00295004,-0.00443468,0.00314247,-0.000463404,-0.00692132,0.669414,0.00446776,0.00916403,1812,1499,9.12239,-7.00025
595,-475,9.1449,6.82959,-0.00212444,-0.00312631,0.00245216,-0.000122569,-0.00512818,0.684643,0.00337867,0.0102028,1819,1499,9.14491,-6.82959
602,-475,9.17004,6.63367,-0.00167453,-0.00259925,0.00171165,-0.000363894,-0.00390989,0.653484,0.00249416,0.0120243,1826,1499,9.17009,-6.63361
609,-475,9.16187,6.45972,-0.00111517,-0.00256957,0.00111573,-0.000510576,-0.00317417,0.49659,0.00196812,0.0112984,1833,1499,9.16181,-6.45975
616,-475,9.14331,6.30566,-0.000707104,-0.00294962,0.000737787,-0.000486144,-0.00317058,0.290989,0.00197175,0.0103701,1840,1499,9.1433,-6.30563
623,-475,9.13965,6.13147,-0.000178465,-0.00393864,0.000524189,-0.000106758,-0.00401035,0.135953,0.0026387,0.0101169,1847,1499,9.13959,-6.13142
630,-475,9.1593,5.94556,0.000600225,-0.00566058,0.000255254,0.000610614,-0.00567097,0.0406802,0.00399975,0.0120536,1854,1499,9.15932,-5.94554
637,-475,9.15735,5.7655,0.00165037,-0.00804743,4.88554e-05,0.00165062,-0.00804768,0.00503761,0.0059916,0.0251137,1861,1499,9.15734,-5.76554
644,-475,9.17004,5.54846,0,0,0,0,0,0,0,-1,1868,1499,9.17004,-5.54847
651,-475,9.45679,5.80127,0,0,0,0,0,0,0,-1,1875,1499,9.4568,-5.80127
658,-475,9.73975,6.05884,0,0,0,0,0,0,0,-1,1882,1499,9.73978,-6.05882
665,-475,10.1117,5.70471,0,0,0,0,0,0,0,-1,1889,1499,10.1117,-5.70468
672,-475,9.38635,1.10474,0,0,0,0,0,0,0,-1,1896,1499,9.38629,-1.10475
679,-475,12.2594,1.31079,0,0,0,0,0,0,0,-1,1903,1499,12.2594,-1.31077
686,-475,0,0,0,0,0,0,0,0,0,-1,1910,1499,0,0
693,-475,0,0,0,0,0,0,0,0,0,-1,1917,1499,0,0
700,-475,0,0,0,0,0,0,0,0,0,-1,1924,1499,0,0
707,-475,0,0,0,0,0,0,0,0,0,-1,1931,1499,0,0
714,-475,0,0,0,0,0,0,0,0,0,-1,1938,1499,0,0
721,-475,0,0,0,0,0,0,0,0,0,-1,1945,1499,0,0
728,-475,0,0,0,0,0,0,0,0,0,-1,1952,1499,0,0
735,-475,0,0,0,0,0,0,0,0,0,-1,1959,1499,0,0
742,-475,0,0,0,0,0,0,0,0,0,-1,1966,1499,0,0
749,-475,0,0,0,0,0,0,0,0,0,-1,1973,1499,0,0
756,-475,0,0,0,0,0,0,0,0,0,-1,1980,1499,0,0
763,-475,0,0,0,0,0,0,0,0,0,-1,1987,1499,0,0
770,-475,0,0,0,0,0,0,0,0,0,-1,1994,1499,0,0
777,-475,0,0,0,0,0,0,0,0,0,-1,2001,1499,0,0
784,-475,0,0,0,0,0,0,0,0,0,-1,2008,1499,0,0
791,-475,0,0,0,0,0,0,0,0,0,-1,2015,1499,0,0
798,-475,0,0,0,0,0,0,0,0,0,-1,2022,1499,0,0
805,-475,0,0,0,0,0,0,0,0,0,-1,2029,1499,0,0
812,-475,0,0,0,0,0,0,0,0,0,-1,2036,1499,0,0
-700,-482,0,0,0,0,0,0,0,0,0,-1,524,1506,0,0
-693,-482,0,0,0,0,0,0,0,0,0,-1,531,1506,0,0
-686,-482,0,0,0,0,0,0,0,0,0,-1,538,1506,0,0
-679,-482,0,0,0,0,0,0,0,0,0,-1,545,1506,0,0
-672,-482,0,0,0,0,0,0,0,0,0,-1,552,1506,0,0
-665,-482,0,0,0,0,0,0,0,0,0,-1,559,1506,0,0
-658,-482,0,0,0,0,0,0,0,0,0,-1,566,1506,0,0
-651,-482,0,0,0,0,0,0,0,0,0,-1,573,1506,0,0
-644,-482,0,0,0,0,0,0,0,0,0,-1,580,1506,0,0
-637,-482,0,0,0,0,0,0,0,0,0,-1,587,1506,0,0
-630,-482,0,0,0,0,0,0,0,0,0,-1,594,1506,0,0
-623,-482,0,0,0,0,0,0,0,0,0,-1,601,1506,0,0
-616,-482,0,0,0,0,0,0,0,0,0,-1,608,1506,0,0
-609,-482,0,0,0,0,0,0,0,0,0,-1,615,1506,0,0
-602,-482,0,0,0,0,0,0,0,0,0,-1,622,1506,0,0
-595,-482,0,0,0,0,0,0,0,0,0,-1,629,1506,0,0
-588,-482,0,0,0,0,0,0,0,0,0,-1,636,1506,0,0
-581,-482,0,0,0,0,0,0,0,0,0,-1,643,1506,0,0
-574,-482,0,0,0,0,0,0,0,0,0,-1,650,1506,0,0
-567,-482,0,0,0,0,0,0,0,0,0,-1,657,1506,0,0
-560,-482,0,0,0,0,0,0,0,0,0,-1,664,1506,0,0
-553,-482,-9.06055,9.34314,0,0,0,0,0,0,0,-1,671,1506,-9.06056,-9.34312
-546,-482,-7.11084,8.48279,0,0,0,0,0,0,0,-1,678,1506,-7.11084,-8.48281
-539,-482,-5.57861,7.97778,0,0,0,0,0,0,0,-1,685,1506,-5.57861,-7.97783
-532,-482,-1.06976,2.35876,0,0,0,0,0,0,0,-1,692,1506,-1.06977,-2.35876
-525,-482,-1.73016,2.89209,0.100671,0.00217414,0.0154375,0.103034,-0.00018869,0.15188,0.0687524,0.0422691,699,1506,-1.73018,-2.89211
-518,-482,-2.00446,3.75769,0.0785893,0.000529857,0.0105547,0.0799913,-0.000872113,0.132055,0.0536206,0.0476903,706,1506,-2.00443,-3.75767
-511,-482,-1.50214,3.81152,0,0,0,0,0,0,0,-1,713,1506,-1.50215,-3.81154
-504,-482,-1.40009,4.01318,0.0438909,0.000120243,0.00422031,0.0442941,-0.000282958,0.0952496,0.0296241,0.0429937,720,1506,-1.4001,-4.01313
-497,-482,-1.2467,4.16174,0.0308135,-2.64484e-05,0.00159495,0.0308957,-0.000108714,0.0515337,0.0206335,0.0235871,727,1506,-1.24673,-4.16177
-490,-482,-1.33728,4.41467,0.0206122,0.000342812,0.000603914,0.0206302,0.000324835,0.0297592,0.0136465,0.0137891,734,1506,-1.33726,-4.41471
-483,-482,-1.33661,4.65259,0.0125011,0.000595906,0.000132662,0.0125026,0.000594428,0.0111414,0.00814415,0.00866715,741,1506,-1.33659,-4.65253
-476,-482,-1.33325,4.85095,0.00786987,0.000685079,-0.000218208,0.00787649,0.000678458,-0.0303336,0.00504008,0.009492,748,1506,-1.33324,-4.8509
-469,-482,-1.33966,5.06128,0.00460402,0.000114579,-0.00111157,0.00486417,-0.000145567,-0.229897,0.00329237,0.0103557,755,1506,-1.33968,-5.06131
-462,-482,-1.33563,5.26978,0.00231851,3.21222e-05,-0.00148037,0.00304572,-0.000695084,-0.456608,0.00229749,0.0115786,762,1506,-1.33562,-5.26982
-455,-482,-1.33966,5.45886,0.00176852,-0.00116438,-0.00144461,0.00236055,-0.00175642,-0.388947,0.00238545,0.0123055,769,1506,-1.33969,-5.45889
-448,-482,-1.34375,5.67859,0.00192872,-0.00261326,-0.0016307,0.00245355,-0.00313809,-0.311372,0.00323638,0.0126003,776,1506,-1.34376,-5.67861
-441,-482,-1.35175,5.90039,0.00264758,-0.00440092,-0.00199872,0.0031749,-0.00492824,-0.257952,0.00471472,0.0123371,783,1506,-1.35172,-5.90041
-434,-482,-1.38055,6.08838,0.00365355,-0.00576569,-0.00222816,0.00415404,-0.00626617,-0.220952,0.00605717,0.0143238,790,1506,-1.38056,-6.08834
-427,-482,-1.37506,6.30151,0.00531241,-0.00748296,-0.00258616,0.00581535,-0.0079859,-0.192075,0.00800094,0.0158371,797,1506,-1.37507,-6.30147
-420,-482,-1.30835,6.5791,0.00784969,-0.00935021,-0.00265584,0.00825044,-0.00975096,-0.149765,0.0104051,0.0222217,804,1506,-1.30834,-6.57914
-413,-482,-1.17401,6.62732,0.0103383,-0.0116685,-0.00266185,0.0106557,-0.0119859,-0.118676,0.0130796,0.0294248,811,1506,-1.17404,-6.62737
-406,-482,-1.10754,6.64282,0,0,0,0,0,0,0,-1,818,1506,-1.10753,-6.6428
-399,-482,-0.982361,6.64832,0.0176633,-0.0169476,-0.00173844,0.0177504,-0.0170347,-0.0500601,0.0200846,0.0485691,825,1506,-0.98236,-6.64836
-392,-482,-0.845825,6.63635,0.0230315,-0.0197676,-0.00062027,0.0230404,-0.0197766,-0.0144885,0.0247444,0.0498519,832,1506,-0.845819,-6.63636
-385,-482,-0.590942,6.58411,0,0,0,0,0,0,0,-1,839,1506,-0.590928,-6.58413
-378,-482,0.215698,5.96948,0,0,0,0,0,0,0,-1,846,1506,0.215681,-5.9695
-371,-482,-0.10907,8.10437,0,0,0,0,0,0,0,-1,853,1506,-0.109063,-8.10433
-364,-482,-0.154968,10.5032,0,0,0,0,0,0,0,-1,860,1506,-0.154976,-10.5032
-357,-482,2.14807,4.60144,0,0,0,0,0,0,0,-1,867,1506,2.14807,-4.60144
-350,-482,-7.5813,-1.45935,0,0,0,0,0,0,0,-1,874,1506,-7.58133,1.45937
-343,-482,-7.19983,-1.26416,0,0,0,0,0,0,0,-1,881,1506,-7.19981,1.26414
-336,-482,-6.78491,-1.18127,0,0,0,0,0,0,0,-1,888,1506,-6.78488,1.18125
-329,-482,0,0,0,0,0,0,0,0,0,-1,895,1506,0,0
-322,-482,0,0,0,0,0,0,0,0,0,-1,902,1506,0,0
-315,-482,0,0,0,0,0,0,0,0,0,-1,909,1506,0,0
-308,-482,0,0,0,0,0,0,0,0,0,-1,916,1506,0,0
-301,-482,0,0,0,0,0,0,0,0,0,-1,923,1506,0,0
-294,-482,0,0,0,0,0,0,0,0,0,-1,930,1506,0,0
-287,-482,0,0,0,0,0,0,0,0,0,-1,937,1506,0,0
-280,-482,0,0,0,0,0,0,0,0,0,-1,944,1506,0,0
-273,-482,0,0,0,0,0,0,0,0,0,-1,951,1506,0,0
-266,-482,0,0,0,0,0,0,0,0,0,-1,958,1506,0,0
-259,-482,0,0,0,0,0,0,0,0,0,-1,965,1506,0,0
-252,-482,0,0,0,0,0,0,0,0,0,-1,972,1506,0,0
-245,-482,0,0,0,0,0,0,0,0,0,-1,979,1506,0,0
-238,-482,0,0,0,0,0,0,0,0,0,-1,986,1506,0,0
-231,-482,0,0,0,0,0,0,0,0,0,-1,993,1506,0,0
-224,-482,0,0,0,0,0,0,0,0,0,-1,1000,1506,0,0
-217,-482,0,0,0,0,0,0,0,0,0,-1,1007,1506,0,0
-210,-482,0,0,0,0,0,0,0,0,0,-1,1014,1506,0,0
-203,-482,0,0,0,0,0,0,0,0,0,-1,1021,1506,0,0
-196,-482,0,0,0,0,0,0,0,0,0,-1,1028,1506,0,0
-189,-482,0,0,0,0,0,0,0,0,0,-1,1035,1506,0,0
-182,-482,0,0,0,0,0,0,0,0,0,-1,1042,1506,0,0
-175,-482,0,0,0,0,0,0,0,0,0,-1,1049,1506,0,0
-168,-482,0,0,0,0,0,0,0,0,0,-1,1056,1506,0,0
-161,-482,0,0,0,0,0,0,0,0,0,-1,1063,1506,0,0
-154,-482,0,0,0,0,0,0,0,0,0,-1,1070,1506,0,0
-147,-482,0,0,0,0,0,0,0,0,0,-1,1077,1506,0,0
-140,-482,0,0,0,0,0,0,0,0,0,-1,1084,1506,0,0
-133,-482,0,0,0,0,0,0,0,0,0,-1,1091,1506,0,0
-126,-482,0,0,0,0,0,0,0,0,0,-1,1098,1506,0,0
-119,-482,0,0,0,0,0,0,0,0,0,-1,1105,1506,0,0
-112,-482,0,0,0,0,0,0,0,0,0,-1,1112,1506,0,0
-105,-482,0,0,0,0,0,0,0,0,0,-1,1119,1506,0,0
-98,-482,0,0,0,0,0,0,0,0,0,-1,1126,1506,0,0
-91,-482,0,0,0,0,0,0,0,0,0,-1,1133,1506,0,0
-84,-482,0,0,0,0,0,0,0,0,0,-1,1140,1506,0,0
-77,-482,0,0,0,0,0,0,0,0,0,-1,1147,1506,0,0
-70,-482,0,0,0,0,0,0,0,0,0,-1,1154,1506,0,0
-63,-482,0,0,0,0,0,0,0,0,0,-1,1161,1506,0,0
-56,-482,0,0,0,0,0,0,0,0,0,-1,1168,1506,0,0
-49,-482,0,0,0,0,0,0,0,0,0,-1,1175,1506,0,0
-42,-482,0,0,0,0,0,0,0,0,0,-1,1182,1506,0,0
-35,-482,0,0,0,0,0,0,0,0,0,-1,1189,1506,0,0
-28,-482,0,0,0,0,0,0,0,0,0,-1,1196,1506,0,0
-21,-482,0,0,0,0,0,0,0,0,0,-1,1203,1506,0,0
-14,-482,0,0,0,0,0,0,0,0,0,-1,1210,1506,0,0
-7,-482,0,0,0,0,0,0,0,0,0,-1,1217,1506,0,0
0,-482,0,0,0,0,0,0,0,0,0,-1,1224,1506,0,0
7,-482,0,0,0,0,0,0,0,0,0,-1,1231,1506,0,0
14,-482,0,0,0,0,0,0,0,0,0,-1,1238,1506,0,0
21,-482,0,0,0,0,0,0,0,0,0,-1,1245,1506,0,0
28,-482,0,0,0,0,0,0,0,0,0,-1,1252,1506,0,0
35,-482,0,0,0,0,0,0,0,0,0,-1,1259,1506,0,0
42,-482,0,0,0,0,0,0,0,0,0,-1,1266,1506,0,0
49,-482,0,0,0,0,0,0,0,0,0,-1,1273,1506,0,0
56,-482,0,0,0,0,0,0,0,0,0,-1,1280,1506,0,0
63,-482,0,0,0,0,0,0,0,0,0,-1,1287,1506,0,0
70,-482,0,0,0,0,0,0,0,0,0,-1,1294,1506,0,0
77,-482,0,0,0,0,0,0,0,0,0,-1,1301,1506,0,0
84,-482,0,0,0,0,0,0,0,0,0,-1,1308,1506,0,0
91,-482,0,0,0,0,0,0,0,0,0,-1,1315,1506,0,0
98,-482,0,0,0,0,0,0,0,0,0,-1,1322,1506,0,0
105,-482,0,0,0,0,0,0,0,0,0,-1,1329,1506,0,0
112,-482,0,0,0,0,0,0,0,0,0,-1,1336,1506,0,0
119,-482,0,0,0,0,0,0,0,0,0,-1,1343,1506,0,0
126,-482,0,0,0,0,0,0,0,0,0,-1,1350,1506,0,0
133,-482,0,0,0,0,0,0,0,0,0,-1,1357,1506,0,0
140,-482,0,0,0,0,0,0,0,0,0,-1,1364,1506,0,0
147,-482,0,0,0,0,0,0,0,0,0,-1,1371,1506,0,0
154,-482,0,0,0,0,0,0,0,0,0,-1,1378,1506,0,0
161,-482,0,0,0,0,0,0,0,0,0,-1,1385,1506,0,0
168,-482,0,0,0,0,0,0,0,0,0,-1,1392,1506,0,0
175,-482,0,0,0,0,0,0,0,0,0,-1,1399,1506,0,0
182,-482,0,0,0,0,0,0,0,0,0,-1,1406,1506,0,0
189,-482,0,0,0,0,0,0,0,0,0,-1,1413,1506,0,0
196,-482,0,0,0,0,0,0,0,0,0,-1,1420,1506,0,0
203,-482,0,0,0,0,0,0,0,0,0,-1,1427,1506,0,0
210,-482,0,0,0,0,0,0,0,0,0,-1,1434,1506,0,0
217,-482,0,0,0,0,0,0,0,0,0,-1,1441,1506,0,0
224,-482,0,0,0,0,0,0,0,0,0,-1,1448,1506,0,0
231,-482,0,0,0,0,0,0,0,0,0,-1,1455,1506,0,0
238,-482,0,0,0,0,0,0,0,0,0,-1,1462,1506,0,0
245,-482,0,0,0,0,0,0,0,0,0,-1,1469,1506,0,0
252,-482,0,0,0,0,0,0,0,0,0,-1,1476,1506,0,0
259,-482,0,0,0,0,0,0,0,0,0,-1,1483,1506,0,0
266,-482,0,0,0,0,0,0,0,0,0,-1,1490,1506,0,0
273,-482,0,0,0,0,0,0,0,0,0,-1,1497,1506,0,0
280,-482,0,0,0,0,0,0,0,0,0,-1,1504,1506,0,0
287,-482,0,0,0,0,0,0,0,0,0,-1,1511,1506,0,0
294,-482,0,0,0,0,0,0,0,0,0,-1,1518,1506,0,0
301,-482,0,0,0,0,0,0,0,0,0,-1,1525,1506,0,0
308,-482,0,0,0,0,0,0,0,0,0,-1,1532,1506,0,0
315,-482,0,0,0,0,0,0,0,0,0,-1,1539,1506,0,0
322,-482,0,0,0,0,0,0,0,0,0,-1,1546,1506,0,0
329,-482,0,0,0,0,0,0,0,0,0,-1,1553,1506,0,0
336,-482,0,0,0,0,0,0,0,0,0,-1,1560,1506,0,0
343,-482,0,0,0,0,0,0,0,0,0,-1,1567,1506,0,0
350,-482,0,0,0,0,0,0,0,0,0,-1,1574,1506,0,0
357,-482,0,0,0,0,0,0,0,0,0,-1,1581,1506,0,0
364,-482,0,0,0,0,0,0,0,0,0,-1,1588,1506,0,0
371,-482,0,0,0,0,0,0,0,0,0,-1,1595,1506,0,0
378,-482,0,0,0,0,0,0,0,0,0,-1,1602,1506,0,0
385,-482,0,0,0,0,0,0,0,0,0,-1,1609,1506,0,0
392,-482,0,0,0,0,0,0,0,0,0,-1,1616,1506,0,0
399,-482,0,0,0,0,0,0,0,0,0,-1,1623,1506,0,0
406,-482,0,0,0,0,0,0,0,0,0,-1,1630,1506,0,0
413,-482,0,0,0,0,0,0,0,0,0,-1,1637,1506,0,0
420,-482,0,0,0,0,0,0,0,0,0,-1,1644,1506,0,0
427,-482,0,0,0,0,0,0,0,0,0,-1,1651,1506,0,0
434,-482,0,0,0,0,0,0,0,0,0,-1,1658,1506,0,0
441,-482,0,0,0,0,0,0,0,0,0,-1,1665,1506,0,0
448,-482,4.24146,1.55383,0,0,0,0,0,0,0,-1,1672,1506,4.24149,-1.55381
455,-482,12.4122,1.09729,0,0,0,0,0,0,0,-1,1679,1506,12.4122,-1.09734
462,-482,15.0673,3.13135,0,0,0,0,0,0,0,-1,1686,1506,15.0672,-3.13134
469,-482,15.3793,3.46301,0,0,0,0,0,0,0,-1,1693,1506,15.3793,-3.46307
476,-482,15.7294,3.81396,0,0,0,0,0,0,0,-1,1700,1506,15.7293,-3.81396
483,-482,14.9957,3.45825,0,0,0,0,0,0,0,-1,1707,1506,14.9957,-3.45829
490,-482,9.18359,4.40454,0,0,0,0,0,0,0,-1,1714,1506,9.18355,-4.4046
497,-482,11.5775,4.1084,0,0,0,0,0,0,0,-1,1721,1506,11.5775,-4.10845
504,-482,10.8325,5.16162,0,0,0,0,0,0,0,-1,1728,1506,10.8325,-5.16157
511,-482,9.97229,6.69226,0,0,0,0,0,0,0,-1,1735,1506,9.97232,-6.69223
518,-482,9.02307,6.76855,0,0,0,0,0,0,0,-1,1742,1506,9.02302,-6.76859
525,-482,9.86487,7.86853,0,0,0,0,0,0,0,-1,1749,1506,9.86485,-7.86859
532,-482,9.57397,7.85669,-0.0265713,-0.0281253,0.0247411,-0.00259506,-0.0521016,0.769701,0.0339025,0.043749,1756,1506,9.57399,-7.8567
539,-482,9.1626,7.90173,-0.0207547,-0.0222687,0.0182125,-0.0032835,-0.0397398,0.764628,0.0254694,0.0339821,1763,1506,9.16264,-7.90177
546,-482,8.9978,7.96545,-0.0158856,-0.0176262,0.0134607,-0.00326709,-0.0302446,0.753116,0.0191671,0.0176806,1770,1506,8.99782,-7.96542
553,-482,8.94312,7.86914,-0.0121444,-0.013686,0.00951147,-0.00337257,-0.0224579,0.744968,0.013984,0.013933,1777,1506,8.94306,-7.86912
560,-482,8.9397,7.6897,-0.00894127,-0.0105411,0.00687608,-0.00281872,-0.0166636,0.727493,0.0102989,0.012224,1784,1506,8.93971,-7.68967
567,-482,8.96643,7.52173,-0.00617957,-0.00799253,0.00507922,-0.00192658,-0.0122455,0.697094,0.00760329,0.0147721,1791,1506,8.96647,-7.52179
574,-482,8.96204,7.36035,-0.00435357,-0.00587001,0.00391214,-0.00112685,-0.00909672,0.689679,0.00572594,0.0135915,1798,1506,8.96202,-7.36037
581,-482,8.94861,7.19836,-0.00313306,-0.00422827,0.00298495,-0.000645904,-0.00671543,0.694679,0.00427793,0.00973223,1805,1506,8.94857,-7.19832
588,-482,8.93396,7.03235,-0.00184959,-0.00304721,0.00209047,-0.000273854,-0.00462294,0.64591,0.00299485,0.0105194,1812,1506,8.93392,-7.03237
595,-482,8.94971,6.83972,-0.00122866,-0.00201619,0.00154187,-3.10645e-05,-0.00321378,0.66038,0.00213224,0.0160596,1819,1506,8.94973,-6.83978
602,-482,8.99817,6.62463,-0.000960962,-0.00172848,0.000960047,-0.000310817,-0.00237863,0.595261,0.00149297,0.020195,1826,1506,8.99821,-6.62458
609,-482,8.9967,6.45715,-0.000586138,-0.00199534,0.000491486,-0.000431657,-0.00214982,0.304536,0.00131319,0.0166761,1833,1506,8.99669,-6.45717
616,-482,8.96643,6.29797,-0.000369566,-0.00266626,0.000225772,-0.000347583,-0.00268824,0.0970651,0.00168827,0.0120717,1840,1506,8.96638,-6.29794
623,-482,8.96484,6.13,-1.25253e-05,-0.00393561,5.21993e-05,-1.18308e-05,-0.00393631,0.0133025,0.00262027,0.011578,1847,1506,8.96481,-6.13001
630,-482,9.00391,5.95984,0.000681238,-0.00593614,-0.000260652,0.000691489,-0.00594639,-0.0393079,0.00421371,0.0215751,1854,1506,9.00393,-5.95989
637,-482,8.80127,5.948,0.00182671,-0.00860481,-0.000647245,0.00186672,-0.00864482,-0.0617314,0.00647576,0.0462948,1861,1506,8.80123,-5.94798
644,-482,8.5824,5.79651,0,0,0,0,0,0,0,-1,1868,1506,8.58245,-5.79646
651,-482,4.03845,7.05273,0,0,0,0,0,0,0,-1,1875,1506,4.03843,-7.05279
658,-482,9.62573,6.64893,0,0,0,0,0,0,0,-1,1882,1506,9.62579,-6.64892
665,-482,8.15198,3.22229,0,0,0,0,0,0,0,-1,1889,1506,8.15199,-3.22232
672,-482,9.87415,1.3147,0,0,0,0,0,0,0,-1,1896,1506,9.87416,-1.31473
679,-482,0,0,0,0,0,0,0,0,0,-1,1903,1506,0,0
686,-482,0,0,0,0,0,0,0,0,0,-1,1910,1506,0,0
693,-482,0,0,0,0,0,0,0,0,0,-1,1917,1506,0,0
700,-482,0,0,0,0,0,0,0,0,0,-1,1924,1506,0,0
707,-482,0,0,0,0,0,0,0,0,0,-1,1931,1506,0,0
714,-482,0,0,0,0,0,0,0,0,0,-1,1938,1506,0,0
721,-482,0,0,0,0,0,0,0,0,0,-1,1945,1506,0,0
728,-482,0,0,0,0,0,0,0,0,0,-1,1952,1506,0,0
735,-482,0,0,0,0,0,0,0,0,0,-1,1959,1506,0,0
742,-482,0,0,0,0,0,0,0,0,0,-1,1966,1506,0,0
749,-482,0,0,0,0,0,0,0,0,0,-1,1973,1506,0,0
756,-482,0,0,0,0,0,0,0,0,0,-1,1980,1506,0,0
763,-482,0,0,0,0,0,0,0,0,0,-1,1987,1506,0,0
770,-482,0,0,0,0,0,0,0,0,0,-1,1994,1506,0,0
777,-482,0,0,0,0,0,0,0,0,0,-1,2001,1506,0,0
784,-482,0,0,0,0,0,0,0,0,0,-1,2008,1506,0,0
791,-482,0,0,0,0,0,0,0,0,0,-1,2015,1506,0,0
798,-482,0,0,0,0,0,0,0,0,0,-1,2022,1506,0,0
805,-482,0,0,0,0,0,0,0,0,0,-1,2029,1506,0,0
812,-482,0,0,0,0,0,0,0,0,0,-1,2036,1506,0,0
-700,-489,0,0,0,0,0,0,0,0,0,-1,524,1513,0,0
-693,-489,0,0,0,0,0,0,0,0,0,-1,531,1513,0,0
-686,-489,0,0,0,0,0,0,0,0,0,-1,538,1513,0,0
-679,-489,0,0,0,0,0,0,0,0,0,-1,545,1513,0,0
-672,-489,0,0,0,0,0,0,0,0,0,-1,552,1513,0,0
-665,-489,0,0,0,0,0,0,0,0,0,-1,559,1513,0,0
-658,-489,0,0,0,0,0,0,0,0,0,-1,566,1513,0,0
-651,-489,0,0,0,0,0,0,0,0,0,-1,573,1513,0,0
-644,-489,0,0,0,0,0,0,0,0,0,-1,580,1513,0,0
-637,-489,0,0,0,0,0,0,0,0,0,-1,587,1513,0,0
-630,-489,0,0,0,0,0,0,0,0,0,-1,594,1513,0,0
-623,-489,0,0,0,0,0,0,0,0,0,-1,601,1513,0,0
-616,-489,0,0,0,0,0,0,0,0,0,-1,608,1513,0,0
-609,-489,0,0,0,0,0,0,0,0,0,-1,615,1513,0,0
-602,-489,0,0,0,0,0,0,0,0,0,-1,622,1513,0,0
-595,-489,0,0,0,0,0,0,0,0,0,-1,629,1513,0,0
-588,-489,0,0,0,0,0,0,0,0,0,-1,636,1513,0,0
-581,-489,0,0,0,0,0,0,0,0,0,-1,643,1513,0,0
-574,-489,0,0,0,0,0,0,0,0,0,-1,650,1513,0,0
-567,-489,0,0,0,0,0,0,0,0,0,-1,657,1513,0,0
-560,-489,0,0,0,0,0,0,0,0,0,-1,664,1513,0,0
-553,-489,-9.42206,8.5116,0,0,0,0,0,0,0,-1,671,1513,-9.42205,-8.51158
-546,-489,-7.80951,8.18506,0,0,0,0,0,0,0,-1,678,1513,-7.8095,-8.18503
-539,-489,-6.0658,7.92261,0.182273,0.00956455,0.0310574,0.187688,0.00414942,0.172623,0.123765,0.0492234,685,1513,-6.0658,-7.92262
-532,-489,-4.39185,7.59717,0,0,0,0,0,0,0,-1,692,1513,-4.39186,-7.59719
-525,-489,-1.78174,3.15662,0,0,0,0,0,0,0,-1,699,1513,-1.78175,-3.15658
-518,-489,-2.2113,3.8291,0,0,0,0,0,0,0,-1,706,1513,-2.21131,-3.82912
-511,-489,-1.56519,3.98157,0,0,0,0,0,0,0,-1,713,1513,-1.56518,-3.98154
-504,-489,-1.15955,3.88818,0.0559079,0.000418827,0.00382915,0.0561709,0.000155833,0.0685741,0.0373954,0.0473911,720,1513,-1.15955,-3.88819
-497,-489,-0.867065,3.9845,0.0398926,0.000618032,0.00119344,0.0399288,0.000581801,0.0303498,0.0264274,0.0386432,727,1513,-0.86704,-3.98447
-490,-489,-1.10693,4.44592,0.0271499,0.00123118,0.000246935,0.0271522,0.00122883,0.00952613,0.0177061,0.0206307,734,1513,-1.10693,-4.44595
-483,-489,-1.14978,4.64819,0.0169146,0.00163373,-0.000106604,0.0169154,0.00163299,-0.00697587,0.0107739,0.0104696,741,1513,-1.14979,-4.6482
-476,-489,-1.14337,4.84863,0.0107422,0.00183428,-0.000285333,0.0107513,0.00182514,-0.0319876,0.00664329,0.0095609,748,1513,-1.14335,-4.8486
-469,-489,-1.14789,5.0448,0.00604709,0.00134845,-0.00105056,0.00627129,0.00112426,-0.210252,0.00386106,0.0101421,755,1513,-1.14788,-5.04485
-462,-489,-1.14417,5.26794,0.00274032,0.00147868,-0.00122393,0.00348643,0.000732564,-0.547451,0.00212266,0.0149319,762,1513,-1.14415,-5.26789
-455,-489,-1.15332,5.48828,0.00191362,0.000273126,-0.000929278,0.00233287,-0.000146129,-0.42382,0.00160617,0.0188783,769,1513,-1.15335,-5.48833
-448,-489,-1.15253,5.69263,0.00188958,-0.00112446,-0.00090421,0.00214003,-0.00137491,-0.270209,0.00204532,0.0165402,776,1513,-1.1525,-5.69262
-441,-489,-1.14807,5.896,0.00250174,-0.00276922,-0.00110184,0.0027228,-0.00299028,-0.197997,0.00329965,0.0143489,783,1513,-1.14804,-5.89603
-434,-489,-1.18561,6.0835,0.00336822,-0.00397431,-0.00113936,0.00354096,-0.00414704,-0.15046,0.00444326,0.0172987,790,1513,-1.18559,-6.08351
-427,-489,-1.19519,6.30762,0.00495143,-0.00550951,-0.00131174,0.0051134,-0.00567149,-0.12286,0.00622944,0.0190221,797,1513,-1.19517,-6.30767
-420,-489,-1.19537,6.55212,0.00739654,-0.00704931,-0.00123997,0.0075022,-0.00715497,-0.0850068,0.00846311,0.017741,804,1513,-1.19535,-6.55215
-413,-489,-0.976807,6.67603,0.00967913,-0.00901294,-0.00113543,0.00974785,-0.00908166,-0.0604478,0.0108735,0.0231516,811,1513,-0.976808,-6.67598
-406,-489,-0.800293,6.93115,0,0,0,0,0,0,0,-1,818,1513,-0.800308,-6.93117
-399,-489,-0.897461,6.69092,0.0162351,-0.0135878,-0.000244914,0.0162371,-0.0135898,-0.00821156,0.0172432,0.0373966,825,1513,-0.89749,-6.69094
-392,-489,-0.678589,7.02014,0.0208204,-0.0161193,0.000619003,0.0208308,-0.0161297,0.0167508,0.0213966,0.0401144,832,1513,-0.678575,-7.02018
-385,-489,-0.6521,7.4812,0.0264966,-0.0188555,0.00190096,0.0265761,-0.018935,0.0418178,0.026399,0.0468589,839,1513,-0.652094,-7.48117
-378,-489,-0.392273,7.97949,0,0,0,0,0,0,0,-1,846,1513,-0.392257,-7.97945
-371,-489,0.699707,7.82031,0,0,0,0,0,0,0,-1,853,1513,0.699707,-7.82033
-364,-489,-0.503113,8.98486,0,0,0,0,0,0,0,-1,860,1513,-0.503097,-8.98482
-357,-489,-0.609924,10.9606,0,0,0,0,0,0,0,-1,867,1513,-0.609947,-10.9605
-350,-489,-7.94659,-0.358887,0,0,0,0,0,0,0,-1,874,1513,-7.94657,0.358912
-343,-489,-7.49323,-0.437866,0,0,0,0,0,0,0,-1,881,1513,-7.49322,0.437823
-336,-489,-7.02332,-0.53125,0,0,0,0,0,0,0,-1,888,1513,-7.0233,0.531295
-329,-489,-6.70221,-0.242432,0,0,0,0,0,0,0,-1,895,1513,-6.70221,0.2424
-322,-489,0,0,0,0,0,0,0,0,0,-1,902,1513,0,0
-315,-489,0,0,0,0,0,0,0,0,0,-1,909,1513,0,0
-308,-489,0,0,0,0,0,0,0,0,0,-1,916,1513,0,0
-301,-489,0,0,0,0,0,0,0,0,0,-1,923,1513,0,0
-294,-489,0,0,0,0,0,0,0,0,0,-1,930,1513,0,0
-287,-489,0,0,0,0,0,0,0,0,0,-1,937,1513,0,0
-280,-489,0,0,0,0,0,0,0,0,0,-1,944,1513,0,0
-273,-489,0,0,0,0,0,0,0,0,0,-1,951,1513,0,0
-266,-489,0,0,0,0,0,0,0,0,0,-1,958,1513,0,0
-259,-489,0,0,0,0,0,0,0,0,0,-1,965,1513,0,0
-252,-489,0,0,0,0,0,0,0,0,0,-1,972,1513,0,0
-245,-489,0,0,0,0,0,0,0,0,0,-1,979,1513,0,0
-238,-489,0,0,0,0,0,0,0,0,0,-1,986,1513,0,0
-231,-489,0,0,0,0,0,0,0,0,0,-1,993,1513,0,0
-224,-489,0,0,0,0,0,0,0,0,0,-1,1000,1513,0,0
-217,-489,0,0,0,0,0,0,0,0,0,-1,1007,1513,0,0
-210,-489,0,0,0,0,0,0,0,0,0,-1,1014,1513,0,0
-203,-489,0,0,0,0,0,0,0,0,0,-1,1021,1513,0,0
-196,-489,0,0,0,0,0,0,0,0,0,-1,1028,1513,0,0
-189,-489,0,0,0,0,0,0,0,0,0,-1,1035,1513,0,0
-182,-489,0,0,0,0,0,0,0,0,0,-1,1042,1513,0,0
-175,-489,0,0,0,0,0,0,0,0,0,-1,1049,1513,0,0
-168,-489,0,0,0,0,0,0,0,0,0,-1,1056,1513,0,0
-161,-489,0,0,0,0,0,0,0,0,0,-1,1063,1513,0,0
-154,-489,0,0,0,0,0,0,0,0,0,-1,1070,1513,0,0
-147,-489,0,0,0,0,0,0,0,0,0,-1,1077,1513,0,0
-140,-489,0,0,0,0,0,0,0,0,0,-1,1084,1513,0,0
-133,-489,0,0,0,0,0,0,0,0,0,-1,1091,1513,0,0
-126,-489,0,0,0,0,0,0,0,0,0,-1,1098,1513,0,0
-119,-489,0,0,0,0,0,0,0,0,0,-1,1105,1513,0,0
-112,-489,0,0,0,0,0,0,0,0,0,-1,1112,1513,0,0
-105,-489,0,0,0,0,0,0,0,0,0,-1,1119,1513,0,0
-98,-489,0,0,0,0,0,0,0,0,0,-1,1126,1513,0,0
-91,-489,0,0,0,0,0,0,0,0,0,-1,1133,1513,0,0
-84,-489,0,0,0,0,0,0,0,0,0,-1,1140,1513,0,0
-77,-489,0,0,0,0,0,0,0,0,0,-1,1147,1513,0,0
-70,-489,0,0,0,0,0,0,0,0,0,-1,1154,1513,0,0
-63,-489,0,0,0,0,0,0,0,0,0,-1,1161,1513,0,0
-56,-489,0,0,0,0,0,0,0,0,0,-1,1168,1513,0,0
-49,-489,0,0,0,0,0,0,0,0,0,-1,1175,1513,0,0
-42,-489,0,0,0,0,0,0,0,0,0,-1,1182,1513,0,0
-35,-489,0,0,0,0,0,0,0,0,0,-1,1189,1513,0,0
-28,-489,0,0,0,0,0,0,0,0,0,-1,1196,1513,0,0
-21,-489,0,0,0,0,0,0,0,0,0,-1,1203,1513,0,0
-14,-489,0,0,0,0,0,0,0,0,0,-1,1210,1513,0,0
-7,-489,0,0,0,0,0,0,0,0,0,-1,1217,1513,0,0
0,-489,0,0,0,0,0,0,0,0,0,-1,1224,1513,0,0
7,-489,0,0,0,0,0,0,0,0,0,-1,1231,1513,0,0
14,-489,0,0,0,0,0,0,0,0,0,-1,1238,1513,0,0
21,-489,0,0,0,0,0,0,0,0,0,-1,1245,1513,0,0
28,-489,0,0,0,0,0,0,0,0,0,-1,1252,1513,0,0
35,-489,0,0,0,0,0,0,0,0,0,-1,1259,1513,0,0
42,-489,0,0,0,0,0,0,0,0,0,-1,1266,1513,0,0
49,-489,0,0,0,0,0,0,0,0,0,-1,1273,1513,0,0
56,-489,0,0,0,0,0,0,0,0,0,-1,1280,1513,0,0
63,-489,0,0,0,0,0,0,0,0,0,-1,1287,1513,0,0
70,-489,0,0,0,0,0,0,0,0,0,-1,1294,1513,0,0
77,-489,0,0,0,0,0,0,0,0,0,-1,1301,1513,0,0
84,-489,0,0,0,0,0,0,0,0,0,-1,1308,1513,0,0
91,-489,0,0,0,0,0,0,0,0,0,-1,1315,1513,0,0
98,-489,0,0,0,0,0,0,0,0,0,-1,1322,1513,0,0
105,-489,0,0,0,0,0,0,0,0,0,-1,1329,1513,0,0
112,-489,0,0,0,0,0,0,0,0,0,-1,1336,1513,0,0
119,-489,0,0,0,0,0,0,0,0,0,-1,1343,1513,0,0
126,-489,0,0,0,0,0,0,0,0,0,-1,1350,1513,0,0
133,-489,0,0,0,0,0,0,0,0,0,-1,1357,1513,0,0
140,-489,0,0,0,0,0,0,0,0,0,-1,1364,1513,0,0
147,-489,0,0,0,0,0,0,0,0,0,-1,1371,1513,0,0
154,-489,0,0,0,0,0,0,0,0,0,-1,1378,1513,0,0
161,-489,0,0,0,0,0,0,0,0,0,-1,1385,1513,0,0
168,-489,0,0,0,0,0,0,0,0,0,-1,1392,1513,0,0
175,-489,0,0,0,0,0,0,0,0,0,-1,1399,1513,0,0
182,-489,0,0,0,0,0,0,0,0,0,-1,1406,1513,0,0
189,-489,0,0,0,0,0,0,0,0,0,-1,1413,1513,0,0
196,-489,0,0,0,0,0,0,0,0,0,-1,1420,1513,0,0
203,-489,0,0,0,0,0,0,0,0,0,-1,1427,1513,0,0
210,-489,0,0,0,0,0,0,0,0,0,-1,1434,1513,0,0
217,-489,0,0,0,0,0,0,0,0,0,-1,1441,1513,0,0
224,-489,0,0,0,0,0,0,0,0,0,-1,1448,1513,0,0
231,-489,0,0,0,0,0,0,0,0,0,-1,1455,1513,0,0
238,-489,0,0,0,0,0,0,0,0,0,-1,1462,1513,0,0
245,-489,0,0,0,0,0,0,0,0,0,-1,1469,1513,0,0
252,-489,0,0,0,0,0,0,0,0,0,-1,1476,1513,0,0
259,-489,0,0,0,0,0,0,0,0,0,-1,1483,1513,0,0
266,-489,0,0,0,0,0,0,0,0,0,-1,1490,1513,0,0
273,-489,0,0,0,0,0,0,0,0,0,-1,1497,1513,0,0
280,-489,0,0,0,0,0,0,0,0,0,-1,1504,1513,0,0
287,-489,0,0,0,0,0,0,0,0,0,-1,1511,1513,0,0
294,-489,0,0,0,0,0,0,0,0,0,-1,1518,1513,0,0
301,-489,0,0,0,0,0,0,0,0,0,-1,1525,1513,0,0
308,-489,0,0,0,0,0,0,0,0,0,-1,1532,1513,0,0
315,-489,0,0,0,0,0,0,0,0,0,-1,1539,1513,0,0
322,-489,0,0,0,0,0,0,0,0,0,-1,1546,1513,0,0
329,-489,0,0,0,0,0,0,0,0,0,-1,1553,1513,0,0
336,-489,0,0,0,0,0,0,0,0,0,-1,1560,1513,0,0
343,-489,0,0,0,0,0,0,0,0,0,-1,1567,1513,0,0
350,-489,0,0,0,0,0,0,0,0,0,-1,1574,1513,0,0
357,-489,0,0,0,0,0,0,0,0,0,-1,1581,1513,0,0
364,-489,0,0,0,0,0,0,0,0,0,-1,1588,1513,0,0
371,-489,0,0,0,0,0,0,0,0,0,-1,1595,1513,0,0
378,-489,0,0,0,0,0,0,0,0,0,-1,1602,1513,0,0
385,-489,0,0,0,0,0,0,0,0,0,-1,1609,1513,0,0
392,-489,0,0,0,0,0,0,0,0,0,-1,1616,1513,0,0
399,-489,0,0,0,0,0,0,0,0,0,-1,1623,1513,0,0
406,-489,0,0,0,0,0,0,0,0,0,-1,1630,1513,0,0
413,-489,0,0,0,0,0,0,0,0,0,-1,1637,1513,0,0
420,-489,0,0,0,0,0,0,0,0,0,-1,1644,1513,0,0
427,-489,0,0,0,0,0,0,0,0,0,-1,1651,1513,0,0
434,-489,0,0,0,0,0,0,0,0,0,-1,1658,1513,0,0
441,-489,11.4602,2.56787,0,0,0,0,0,0,0,-1,1665,1513,11.4602,-2.56786
448,-489,12.4425,1.72351,0,0,0,0,0,0,0,-1,1672,1513,12.4425,-1.72349
455,-489,12.5575,1.37463,0,0,0,0,0,0,0,-1,1679,1513,12.5575,-1.37469
462,-489,14.9784,3.84888,0,0,0,0,0,0,0,-1,1686,1513,14.9784,-3.84892
469,-489,15.1367,4.53101,0,0,0,0,0,0,0,-1,1693,1513,15.1368,-4.531
476,-489,15.5536,5.09338,0,0,0,0,0,0,0,-1,1700,1513,15.5536,-5.09339
483,-489,16.0366,5.55762,0,0,0,0,0,0,0,-1,1707,1513,16.0366,-5.55761
490,-489,11.6985,5.91296,0,0,0,0,0,0,0,-1,1714,1513,11.6985,-5.91298
497,-489,10.9141,5.33899,0,0,0,0,0,0,0,-1,1721,1513,10.9141,-5.33897
504,-489,11.6742,7.49231,0,0,0,0,0,0,0,-1,1728,1513,11.6742,-7.49234
511,-489,9.38245,6.6084,0,0,0,0,0,0,0,-1,1735,1513,9.38246,-6.60836
518,-489,8.46826,6.80554,0,0,0,0,0,0,0,-1,1742,1513,8.46827,-6.80553
525,-489,8.90979,8.06409,0,0,0,0,0,0,0,-1,1749,1513,8.90985,-8.06406
532,-489,9.05823,8.11951,-0.0211854,-0.023378,0.021872,-0.000382209,-0.0441812,0.760358,0.0293276,0.0364877,1756,1513,9.05826,-8.11955
539,-489,8.83289,8.14746,-0.0164226,-0.018115,0.0158195,-0.00142664,-0.0331109,0.758678,0.0216141,0.0177954,1763,1513,8.83283,-8.14743
546,-489,8.77014,8.04126,-0.0124504,-0.0141119,0.0114525,-0.00179857,-0.0247637,0.749191,0.0159435,0.0113045,1770,1513,8.7701,-8.04124
553,-489,8.76648,7.88757,-0.0094115,-0.0106857,0.00778647,-0.00223612,-0.0178611,0.744578,0.0112364,0.0133049,1777,1513,8.76651,-7.88753
560,-489,8.77808,7.69482,-0.00677188,-0.00799165,0.00533524,-0.00201178,-0.0127517,0.728489,0.00791624,0.0135371,1784,1513,8.77809,-7.69478
567,-489,8.79895,7.51721,-0.0044388,-0.00580492,0.00368507,-0.00137402,-0.0088697,0.693759,0.00551251,0.0147004,1791,1513,8.79899,-7.51717
574,-489,8.77478,7.36548,-0.00294843,-0.00396976,0.00268388,-0.000727062,-0.00619113,0.691387,0.00390767,0.0138711,1798,1513,8.77483,-7.36553
581,-489,8.76917,7.20288,-0.00199956,-0.00257534,0.00191928,-0.000346699,-0.0042282,0.710955,0.00271063,0.0100211,1805,1513,8.76911,-7.20287
588,-489,8.75867,7.02246,-0.00094994,-0.00160714,0.0010962,-0.000134145,-0.00242293,0.639779,0.00157248,0.0122824,1812,1513,8.75862,-7.02248
595,-489,8.77429,6.84875,-0.000484199,-0.000809292,0.000616273,-9.39693e-06,-0.00128409,0.656456,0.000852948,0.0190987,1819,1513,8.77432,-6.84871
602,-489,8.80603,6.64966,-0.000326138,-0.000704656,0.000126274,-0.00028788,-0.000742915,0.294186,0.000432526,0.0251587,1826,1513,8.806,-6.64971
609,-489,8.81287,6.46045,-6.98589e-05,-0.00120693,-0.000287379,-1.35525e-06,-0.00127544,-0.234007,0.00084984,0.0178945,1833,1513,8.81288,-6.46042
616,-489,8.79236,6.2926,3.54698e-05,-0.00211088,-0.000548123,0.000167344,-0.00224275,-0.236105,0.00155395,0.0105171,1840,1513,8.79231,-6.29261
623,-489,8.80261,6.14807,0.000282239,-0.00358315,-0.000816749,0.000447732,-0.00374864,-0.199916,0.00266093,0.0149442,1847,1513,8.80267,-6.14807
630,-489,8.76978,6.10791,0.000910623,-0.00578169,-0.0013052,0.00115617,-0.00602723,-0.185954,0.00445385,0.034619,1854,1513,8.7698,-6.10785
637,-489,8.05945,6.50696,0.00221866,-0.00859657,-0.00208866,0.00260801,-0.00898593,-0.184296,0.00702326,0.0478981,1861,1513,8.05944,-6.50695
644,-489,7.40393,6.71887,0,0,0,0,0,0,0,-1,1868,1513,7.40394,-6.71884
651,-489,6.13818,6.85095,0,0,0,0,0,0,0,-1,1875,1513,6.13823,-6.85097
658,-489,5.43848,7.75513,0,0,0,0,0,0,0,-1,1882,1513,5.43844,-7.75509
665,-489,5.48438,8.59912,0,0,0,0,0,0,0,-1,1889,1513,5.48434,-8.59907
672,-489,0,0,0,0,0,0,0,0,0,-1,1896,1513,0,0
679,-489,0,0,0,0,0,0,0,0,0,-1,1903,1513,0,0
686,-489,0,0,0,0,0,0,0,0,0,-1,1910,1513,0,0
693,-489,0,0,0,0,0,0,0,0,0,-1,1917,1513,0,0
700,-489,0,0,0,0,0,0,0,0,0,-1,1924,1513,0,0
707,-489,0,0,0,0,0,0,0,0,0,-1,1931,1513,0,0
714,-489,0,0,0,0,0,0,0,0,0,-1,1938,1513,0,0
721,-489,0,0,0,0,0,0,0,0,0,-1,1945,1513,0,0
728,-489,0,0,0,0,0,0,0,0,0,-1,1952,1513,0,0
735,-489,0,0,0,0,0,0,0,0,0,-1,1959,1513,0,0
742,-489,0,0,0,0,0,0,0,0,0,-1,1966,1513,0,0
749,-489,0,0,0,0,0,0,0,0,0,-1,1973,1513,0,0
756,-489,0,0,0,0,0,0,0,0,0,-1,1980,1513,0,0
763,-489,0,0,0,0,0,0,0,0,0,-1,1987,1513,0,0
770,-489,0,0,0,0,0,0,0,0,0,-1,1994,1513,0,0
777,-489,0,0,0,0,0,0,0,0,0,-1,2001,1513,0,0
784,-489,0,0,0,0,0,0,0,0,0,-1,2008,1513,0,0
791,-489,0,0,0,0,0,0,0,0,0,-1,2015,1513,0,0
798,-489,0,0,0,0,0,0,0,0,0,-1,2022,1513,0,0
805,-489,0,0,0,0,0,0,0,0,0,-1,2029,1513,0,0
812,-489,0,0,0,0,0,0,0,0,0,-1,2036,1513,0,0
-700,-496,0,0,0,0,0,0,0,0,0,-1,524,1520,0,0
-693,-496,0,0,0,0,0,0,0,0,0,-1,531,1520,0,0
-686,-496,0,0,0,0,0,0,0,0,0,-1,538,1520,0,0
-679,-496,0,0,0,0,0,0,0,0,0,-1,545,1520,0,0
-672,-496,0,0,0,0,0,0,0,0,0,-1,552,1520,0,0
-665,-496,0,0,0,0,0,0,0,0,0,-1,559,1520,0,0
-658,-496,0,0,0,0,0,0,0,0,0,-1,566,1520,0,0
-651,-496,0,0,0,0,0,0,0,0,0,-1,573,1520,0,0
-644,-496,0,0,0,0,0,0,0,0,0,-1,580,1520,0,0
-637,-496,0,0,0,0,0,0,0,0,0,-1,587,1520,0,0
-630,-496,0,0,0,0,0,0,0,0,0,-1,594,1520,0,0
-623,-496,0,0,0,0,0,0,0,0,0,-1,601,1520,0,0
-616,-496,0,0,0,0,0,0,0,0,0,-1,608,1520,0,0
-609,-496,0,0,0,0,0,0,0,0,0,-1,615,1520,0,0
-602,-496,0,0,0,0,0,0,0,0,0,-1,622,1520,0,0
-595,-496,0,0,0,0,0,0,0,0,0,-1,629,1520,0,0
-588,-496,0,0,0,0,0,0,0,0,0,-1,636,1520,0,0
-581,-496,0,0,0,0,0,0,0,0,0,-1,643,1520,0,0
-574,-496,0,0,0,0,0,0,0,0,0,-1,650,1520,0,0
-567,-496,0,0,0,0,0,0,0,0,0,-1,657,1520,0,0
-560,-496,0,0,0,0,0,0,0,0,0,-1,664,1520,0,0
-553,-496,0,0,0,0,0,0,0,0,0,-1,671,1520,0,0
-546,-496,-8.09711,7.94836,0,0,0,0,0,0,0,-1,678,1520,-8.09712,-7.94842
-539,-496,-6.36414,7.62939,0,0,0,0,0,0,0,-1,685,1520,-6.36412,-7.62939
-532,-496,-4.70099,7.1145,0,0,0,0,0,0,0,-1,692,1520,-4.70101,-7.11455
-525,-496,-2.55743,3.16125,0,0,0,0,0,0,0,-1,699,1520,-2.55746,-3.16124
-518,-496,-2.39099,3.74414,0.119908,-0.000236163,0.00978892,0.1207,-0.0010285,0.0807667,0.0808118,0.0474256,706,1520,-2.39098,-3.7441
-511,-496,-1.66144,4.3501,0.0934962,0.000415234,0.00591189,0.0938702,4.12539e-05,0.063175,0.0625664,0.0425087,713,1520,-1.66143,-4.35011
-504,-496,-1.12714,3.93274,0.0706132,0.00152939,0.00319197,0.0707604,0.00138222,0.0460735,0.0467197,0.0469326,720,1520,-1.12716,-3.93269
-497,-496,-0.773376,4.0614,0.0511938,0.00212445,0.000659337,0.0512027,0.00211559,0.0134336,0.0334522,0.0496851,727,1520,-0.773353,-4.0614
-490,-496,-0.814941,4.54236,0.0354379,0.00292418,-0.000218977,0.0354394,0.00292271,-0.00673451,0.0227148,0.0378079,734,1520,-0.814953,-4.54233
-483,-496,-0.9552,4.71289,0.0226724,0.00335757,-0.000462402,0.0226834,0.0033465,-0.023922,0.0141394,0.0187121,741,1520,-0.95521,-4.71293
-476,-496,-0.966736,4.86243,0.0145272,0.00354109,-0.000480989,0.0145482,0.00352007,-0.0436703,0.00876433,0.0107438,748,1520,-0.966763,-4.86246
-469,-496,-0.961731,5.05896,0.00796535,0.00301801,-0.00113521,0.0082134,0.00276997,-0.215122,0.00482502,0.0102567,755,1520,-0.961708,-5.05897
-462,-496,-0.966919,5.29346,0.00334723,0.00323512,-0.00113117,0.00442373,0.00215862,-0.760642,0.00255429,0.0149949,762,1520,-0.966936,-5.29348
-455,-496,-0.984009,5.51746,0.00214423,0.0018688,-0.000630204,0.00265159,0.00136144,-0.677826,0.00153108,0.0199697,769,1520,-0.983998,-5.51746
-448,-496,-0.969116,5.68921,0.00184737,0.000393721,-0.000458518,0.00197992,0.000261178,-0.281397,0.00124207,0.01843,776,1520,-0.969119,-5.68922
-441,-496,-0.943604,5.87756,0.00226572,-0.00121929,-0.000556049,0.00235229,-0.00130586,-0.154447,0.00214065,0.0142149,783,1520,-0.943574,-5.87758
-434,-496,-0.956665,6.07422,0.0028823,-0.00240682,-0.000477325,0.00292503,-0.00244956,-0.0892852,0.00310707,0.0135481,790,1520,-0.956678,-6.07417
-427,-496,-0.974426,6.28809,0.00429432,-0.00390863,-0.00055342,0.00433149,-0.0039458,-0.0670609,0.00478062,0.0171432,797,1520,-0.974438,-6.28808
-420,-496,-0.989502,6.50012,0.00656064,-0.00523651,-0.000442255,0.0065772,-0.00525307,-0.0374182,0.00684445,0.0176973,804,1520,-0.989508,-6.50008
-413,-496,-0.929016,6.6886,0.00857838,-0.00693485,-0.000315429,0.00858479,-0.00694126,-0.0203217,0.00898069,0.0157163,811,1520,-0.92904,-6.68857
-406,-496,-0.893005,6.89868,0.0110456,-0.00884509,-7.19926e-05,0.0110459,-0.00884535,-0.00361934,0.0115076,0.0249987,818,1520,-0.893002,-6.89869
-399,-496,-0.744263,7.09692,0.014231,-0.0109347,0.000419866,0.014238,-0.0109417,0.0166779,0.014579,0.0401688,825,1520,-0.744258,-7.09694
-392,-496,-0.907654,7.03027,0.0180611,-0.01318,0.00105198,0.0180964,-0.0132153,0.0336223,0.0181509,0.0417879,832,1520,-0.907626,-7.03023
-385,-496,-0.796387,7.17908,0.0226409,-0.0157758,0.00190385,0.022735,-0.0158699,0.0493967,0.0224057,0.0447449,839,1520,-0.796414,-7.17908
-378,-496,-0.478149,7.24792,0,0,0,0,0,0,0,-1,846,1520,-0.478156,-7.24798
-371,-496,1.10431,7.17676,0,0,0,0,0,0,0,-1,853,1520,1.10429,-7.17671
-364,-496,0.496765,8.29834,0,0,0,0,0,0,0,-1,860,1520,0.496737,-8.29838
-357,-496,0.323792,7.56812,0,0,0,0,0,0,0,-1,867,1520,0.323782,-7.56806
-350,-496,2.1535,7.18945,0,0,0,0,0,0,0,-1,874,1520,2.15348,-7.1894
-343,-496,-7.56244,0.335327,0,0,0,0,0,0,0,-1,881,1520,-7.56242,-0.335322
-336,-496,-7.664,-0.446289,0,0,0,0,0,0,0,-1,888,1520,-7.66398,0.446252
-329,-496,-6.93689,-0.100342,0,0,0,0,0,0,0,-1,895,1520,-6.93686,0.1003
-322,-496,-6.17505,0.494385,0,0,0,0,0,0,0,-1,902,1520,-6.17507,-0.49437
-315,-496,-5.46338,1.0459,0,0,0,0,0,0,0,-1,909,1520,-5.46338,-1.04587
-308,-496,0,0,0,0,0,0,0,0,0,-1,916,1520,0,0
-301,-496,0,0,0,0,0,0,0,0,0,-1,923,1520,0,0
-294,-496,0,0,0,0,0,0,0,0,0,-1,930,1520,0,0
-287,-496,0,0,0,0,0,0,0,0,0,-1,937,1520,0,0
-280,-496,0,0,0,0,0,0,0,0,0,-1,944,1520,0,0
-273,-496,0,0,0,0,0,0,0,0,0,-1,951,1520,0,0
-266,-496,0,0,0,0,0,0,0,0,0,-1,958,1520,0,0
-259,-496,0,0,0,0,0,0,0,0,0,-1,965,1520,0,0
-252,-496,0,0,0,0,0,0,0,0,0,-1,972,1520,0,0
-245,-496,0,0,0,0,0,0,0,0,0,-1,979,1520,0,0
-238,-496,0,0,0,0,0,0,0,0,0,-1,986,1520,0,0
-231,-496,0,0,0,0,0,0,0,0,0,-1,993,1520,0,0
-224,-496,0,0,0,0,0,0,0,0,0,-1,1000,1520,0,0
-217,-496,0,0,0,0,0,0,0,0,0,-1,1007,1520,0,0
-210,-496,0,0,0,0,0,0,0,0,0,-1,1014,1520,0,0
-203,-496,0,0,0,0,0,0,0,0,0,-1,1021,1520,0,0
-196,-496,0,0,0,0,0,0,0,0,0,-1,1028,1520,0,0
-189,-496,0,0,0,0,0,0,0,0,0,-1,1035,1520,0,0
-182,-496,0,0,0,0,0,0,0,0,0,-1,1042,1520,0,0
-175,-496,0,0,0,0,0,0,0,0,0,-1,1049,1520,0,0
-168,-496,0,0,0,0,0,0,0,0,0,-1,1056,1520,0,0
-161,-496,0,0,0,0,0,0,0,0,0,-1,1063,1520,0,0
-154,-496,0,0,0,0,0,0,0,0,0,-1,1070,1520,0,0
-147,-496,0,0,0,0,0,0,0,0,0,-1,1077,1520,0,0
-140,-496,0,0,0,0,0,0,0,0,0,-1,1084,1520,0,0
-133,-496,0,0,0,0,0,0,0,0,0,-1,1091,1520,0,0
-126,-496,0,0,0,0,0,0,0,0,0,-1,1098,1520,0,0
-119,-496,0,0,0,0,0,0,0,0,0,-1,1105,1520,0,0
-112,-496,0,0,0,0,0,0,0,0,0,-1,1112,1520,0,0
-105,-496,0,0,0,0,0,0,0,0,0,-1,1119,1520,0,0
-98,-496,0,0,0,0,0,0,0,0,0,-1,1126,1520,0,0
-91,-496,0,0,0,0,0,0,0,0,0,-1,1133,1520,0,0
-84,-496,0,0,0,0,0,0,0,0,0,-1,1140,1520,0,0
-77,-496,0,0,0,0,0,0,0,0,0,-1,1147,1520,0,0
-70,-496,0,0,0,0,0,0,0,0,0,-1,1154,1520,0,0
-63,-496,0,0,0,0,0,0,0,0,0,-1,1161,1520,0,0
-56,-496,0,0,0,0,0,0,0,0,0,-1,1168,1520,0,0
-49,-496,0,0,0,0,0,0,0,0,0,-1,1175,1520,0,0
-42,-496,0,0,0,0,0,0,0,0,0,-1,1182,1520,0,0
-35,-496,0,0,0,0,0,0,0,0,0,-1,1189,1520,0,0
-28,-496,0,0,0,0,0,0,0,0,0,-1,1196,1520,0,0
-21,-496,0,0,0,0,0,0,0,0,0,-1,1203,1520,0,0
-14,-496,0,0,0,0,0,0,0,0,0,-1,1210,1520,0,0
-7,-496,0,0,0,0,0,0,0,0,0,-1,1217,1520,0,0
0,-496,0,0,0,0,0,0,0,0,0,-1,1224,1520,0,0
7,-496,0,0,0,0,0,0,0,0,0,-1,1231,1520,0,0
14,-496,0,0,0,0,0,0,0,0,0,-1,1238,1520,0,0
21,-496,0,0,0,0,0,0,0,0,0,-1,1245,1520,0,0
28,-496,0,0,0,0,0,0,0,0,0,-1,1252,1520,0,0
35,-496,0,0,0,0,0,0,0,0,0,-1,1259,1520,0,0
42,-496,0,0,0,0,0,0,0,0,0,-1,1266,1520,0,0
49,-496,0,0,0,0,0,0,0,0,0,-1,1273,1520,0,0
56,-496,0,0,0,0,0,0,0,0,0,-1,1280,1520,0,0
63,-496,0,0,0,0,0,0,0,0,0,-1,1287,1520,0,0
70,-496,0,0,0,0,0,0,0,0,0,-1,1294,1520,0,0
77,-496,0,0,0,0,0,0,0,0,0,-1,1301,1520,0,0
84,-496,0,0,0,0,0,0,0,0,0,-1,1308,1520,0,0
91,-496,0,0,0,0,0,0,0,0,0,-1,1315,1520,0,0
98,-496,0,0,0,0,0,0,0,0,0,-1,1322,1520,0,0
105,-496,0,0,0,0,0,0,0,0,0,-1,1329,1520,0,0
112,-496,0,0,0,0,0,0,0,0,0,-1,1336,1520,0,0
119,-496,0,0,0,0,0,0,0,0,0,-1,1343,1520,0,0
126,-496,0,0,0,0,0,0,0,0,0,-1,1350,1520,0,0
133,-496,0,0,0,0,0,0,0,0,0,-1,1357,1520,0,0
140,-496,0,0,0,0,0,0,0,0,0,-1,1364,1520,0,0
147,-496,0,0,0,0,0,0,0,0,0,-1,1371,1520,0,0
154,-496,0,0,0,0,0,0,0,0,0,-1,1378,1520,0,0
161,-496,0,0,0,0,0,0,0,0,0,-1,1385,1520,0,0
168,-496,0,0,0,0,0,0,0,0,0,-1,1392,1520,0,0
175,-496,0,0,0,0,0,0,0,0,0,-1,1399,1520,0,0
182,-496,0,0,0,0,0,0,0,0,0,-1,1406,1520,0,0
189,-496,0,0,0,0,0,0,0,0,0,-1,1413,1520,0,0
196,-496,0,0,0,0,0,0,0,0,0,-1,1420,1520,0,0
203,-496,0,0,0,0,0,0,0,0,0,-1,1427,1520,0,0
210,-496,0,0,0,0,0,0,0,0,0,-1,1434,1520,0,0
217,-496,0,0,0,0,0,0,0,0,0,-1,1441,1520,0,0
224,-496,0,0,0,0,0,0,0,0,0,-1,1448,1520,0,0
231,-496,0,0,0,0,0,0,0,0,0,-1,1455,1520,0,0
238,-496,0,0,0,0,0,0,0,0,0,-1,1462,1520,0,0
245,-496,0,0,0,0,0,0,0,0,0,-1,1469,1520,0,0
252,-496,0,0,0,0,0,0,0,0,0,-1,1476,1520,0,0
259,-496,0,0,0,0,0,0,0,0,0,-1,1483,1520,0,0
266,-496,0,0,0,0,0,0,0,0,0,-1,1490,1520,0,0
273,-496,0,0,0,0,0,0,0,0,0,-1,1497,1520,0,0
280,-496,0,0,0,0,0,0,0,0,0,-1,1504,1520,0,0
287,-496,0,0,0,0,0,0,0,0,0,-1,1511,1520,0,0
294,-496,0,0,0,0,0,0,0,0,0,-1,1518,1520,0,0
301,-496,0,0,0,0,0,0,0,0,0,-1,1525,1520,0,0
308,-496,0,0,0,0,0,0,0,0,0,-1,1532,1520,0,0
315,-496,0,0,0,0,0,0,0,0,0,-1,1539,1520,0,0
322,-496,0,0,0,0,0,0,0,0,0,-1,1546,1520,0,0
329,-496,0,0,0,0,0,0,0,0,0,-1,1553,1520,0,0
336,-496,0,0,0,0,0,0,0,0,0,-1,1560,1520,0,0
343,-496,0,0,0,0,0,0,0,0,0,-1,1567,1520,0,0
350,-496,0,0,0,0,0,0,0,0,0,-1,1574,1520,0,0
357,-496,0,0,0,0,0,0,0,0,0,-1,1581,1520,0,0
364,-496,0,0,0,0,0,0,0,0,0,-1,1588,1520,0,0
371,-496,0,0,0,0,0,0,0,0,0,-1,1595,1520,0,0
378,-496,0,0,0,0,0,0,0,0,0,-1,1602,1520,0,0
385,-496,0,0,0,0,0,0,0,0,0,-1,1609,1520,0,0
392,-496,0,0,0,0,0,0,0,0,0,-1,1616,1520,0,0
399,-496,0,0,0,0,0,0,0,0,0,-1,1623,1520,0,0
406,-496,0,0,0,0,0,0,0,0,0,-1,1630,1520,0,0
413,-496,0,0,0,0,0,0,0,0,0,-1,1637,1520,0,0
420,-496,0,0,0,0,0,0,0,0,0,-1,1644,1520,0,0
427,-496,0,0,0,0,0,0,0,0,0,-1,1651,1520,0,0
434,-496,11.0457,3.37732,0,0,0,0,0,0,0,-1,1658,1520,11.0456,-3.37736
441,-496,11.788,2.75488,0,0,0,0,0,0,0,-1,1665,1520,11.7879,-2.75485
448,-496,12.2146,2.18494,0,0,0,0,0,0,0,-1,1672,1520,12.2146,-2.18489
455,-496,12.3489,1.65173,0,0,0,0,0,0,0,-1,1679,1520,12.3489,-1.65178
462,-496,12.1912,1.32361,0,0,0,0,0,0,0,-1,1686,1520,12.1911,-1.32357
469,-496,14.8138,5.77954,0,0,0,0,0,0,0,-1,1693,1520,14.8138,-5.77958
476,-496,15.2449,6.27942,0,0,0,0,0,0,0,-1,1700,1520,15.2449,-6.27936
483,-496,10.9437,6.62354,0,0,0,0,0,0,0,-1,1707,1520,10.9437,-6.62353
490,-496,10.9678,6.51672,0,0,0,0,0,0,0,-1,1714,1520,10.9677,-6.51671
497,-496,11.0656,7.67798,0,0,0,0,0,0,0,-1,1721,1520,11.0655,-7.67796
504,-496,11.0784,7.83105,0,0,0,0,0,0,0,-1,1728,1520,11.0784,-7.83109
511,-496,10.4321,8.26355,0,0,0,0,0,0,0,-1,1735,1520,10.4321,-8.26354
518,-496,8.7915,8.27246,0,0,0,0,0,0,0,-1,1742,1520,8.79149,-8.27247
525,-496,8.65417,8.22864,-0.0211941,-0.0242515,0.0261465,0.00346834,-0.048914,0.756199,0.0338247,0.0438132,1749,1520,8.65419,-8.22866
532,-496,8.67224,8.3075,-0.0167054,-0.0187344,0.0190924,0.00139948,-0.0368393,0.758856,0.025039,0.0241423,1756,1520,8.67219,-8.30753
539,-496,8.62476,8.21313,-0.0128132,-0.0140954,0.0136031,0.000163867,-0.0270724,0.76185,0.0181032,0.0125231,1763,1520,8.62477,-8.2131
546,-496,8.59045,8.05457,-0.00958843,-0.0106261,0.00963288,-0.000460429,-0.0197541,0.758493,0.0130186,0.00909984,1770,1520,8.59046,-8.05451
553,-496,8.61011,7.88464,-0.00710841,-0.00766002,0.00626409,-0.00111406,-0.0136544,0.763398,0.00875522,0.0145858,1777,1520,8.61008,-7.88462
560,-496,8.62793,7.71472,-0.00493528,-0.00538672,0.00399627,-0.00115836,-0.00916365,0.757187,0.00576192,0.014327,1784,1520,8.62796,-7.71467
567,-496,8.63013,7.52673,-0.00298036,-0.0035529,0.00247765,-0.000772496,-0.00576077,0.727883,0.00361066,0.0120312,1791,1520,8.63009,-7.52672
574,-496,8.62683,7.3623,-0.00178293,-0.0020145,0.00161238,-0.000282187,-0.00351524,0.749554,0.00225533,0.0117953,1798,1520,8.62684,-7.36226
581,-496,8.61255,7.20386,-0.00106141,-0.00088027,0.00098077,1.41008e-05,-0.00195579,0.831442,0.00130858,0.0121456,1805,1520,8.6125,-7.20388
588,-496,8.60461,7.01123,-0.000197594,-0.000131283,0.000194672,3.3037e-05,-0.000361914,0.869746,0.000253008,0.0134264,1812,1520,8.60462,-7.01122
595,-496,8.60779,6.84619,0.000148423,0.000399785,-0.000256326,0.000559583,-1.13753e-05,-1.01333,0.000376905,0.0150389,1819,1520,8.60784,-6.84615
602,-496,8.62231,6.66016,0.000258713,0.0003035,-0.000704975,0.000986437,-0.000424224,-0.801275,0.000835729,0.0175609,1826,1520,8.62229,-6.66012
609,-496,8.62842,6.46777,0.00046541,-0.000412545,-0.00113869,0.00124681,-0.00119394,-0.601421,0.00140928,0.0145046,1833,1520,8.62838,-6.46775
616,-496,8.62732,6.2804,0.000550466,-0.00147437,-0.00151791,0.00136261,-0.00228652,-0.491288,0.00212922,0.0114669,1840,1520,8.62726,-6.28036
623,-496,8.61841,6.15405,0.000780313,-0.00308532,-0.0020717,0.00168082,-0.00398582,-0.410033,0.00336065,0.0243481,1847,1520,8.61843,-6.15407
630,-496,8.56738,6.36096,0.00138542,-0.00535273,-0.00298772,0.00251936,-0.00648667,-0.362739,0.00536517,0.0414391,1854,1520,8.56741,-6.361
637,-496,8.35315,6.52441,0.00283456,-0.00824312,-0.0045108,0.00443898,-0.00984753,-0.341728,0.00844305,0.0480332,1861,1520,8.35312,-6.52436
644,-496,7.99023,6.50378,0,0,0,0,0,0,0,-1,1868,1520,7.99018,-6.50382
651,-496,6.02295,6.79968,0,0,0,0,0,0,0,-1,1875,1520,6.02298,-6.79971
658,-496,5.57922,7.42651,0,0,0,0,0,0,0,-1,1882,1520,5.57926,-7.42654
665,-496,5.47583,7.90625,0,0,0,0,0,0,0,-1,1889,1520,5.47581,-7.90628
672,-496,0,0,0,0,0,0,0,0,0,-1,1896,1520,0,0
679,-496,0,0,0,0,0,0,0,0,0,-1,1903,1520,0,0
686,-496,0,0,0,0,0,0,0,0,0,-1,1910,1520,0,0
693,-496,0,0,0,0,0,0,0,0,0,-1,1917,1520,0,0
700,-496,0,0,0,0,0,0,0,0,0,-1,1924,1520,0,0
707,-496,0,0,0,0,0,0,0,0,0,-1,1931,1520,0,0
714,-496,0,0,0,0,0,0,0,0,0,-1,1938,1520,0,0
721,-496,0,0,0,0,0,0,0,0,0,-1,1945,1520,0,0
728,-496,0,0,0,0,0,0,0,0,0,-1,1952,1520,0,0
735,-496,0,0,0,0,0,0,0,0,0,-1,1959,1520,0,0
742,-496,0,0,0,0,0,0,0,0,0,-1,1966,1520,0,0
749,-496,0,0,0,0,0,0,0,0,0,-1,1973,1520,0,0
756,-496,0,0,0,0,0,0,0,0,0,-1,1980,1520,0,0
763,-496,0,0,0,0,0,0,0,0,0,-1,1987,1520,0,0
770,-496,0,0,0,0,0,0,0,0,0,-1,1994,1520,0,0
777,-496,0,0,0,0,0,0,0,0,0,-1,2001,1520,0,0
784,-496,0,0,0,0,0,0,0,0,0,-1,2008,1520,0,0
791,-496,0,0,0,0,0,0,0,0,0,-1,2015,1520,0,0
798,-496,0,0,0,0,0,0,0,0,0,-1,2022,1520,0,0
805,-496,0,0,0,0,0,0,0,0,0,-1,2029,1520,0,0
812,-496,0,0,0,0,0,0,0,0,0,-1,2036,1520,0,0
-700,-503,0,0,0,0,0,0,0,0,0,-1,524,1527,0,0
-693,-503,0,0,0,0,0,0,0,0,0,-1,531,1527,0,0
-686,-503,0,0,0,0,0,0,0,0,0,-1,538,1527,0,0
-679,-503,0,0,0,0,0,0,0,0,0,-1,545,1527,0,0
-672,-503,0,0,0,0,0,0,0,0,0,-1,552,1527,0,0
-665,-503,0,0,0,0,0,0,0,0,0,-1,559,1527,0,0
-658,-503,0,0,0,0,0,0,0,0,0,-1,566,1527,0,0
-651,-503,0,0,0,0,0,0,0,0,0,-1,573,1527,0,0
-644,-503,0,0,0,0,0,0,0,0,0,-1,580,1527,0,0
-637,-503,0,0,0,0,0,0,0,0,0,-1,587,1527,0,0
-630,-503,0,0,0,0,0,0,0,0,0,-1,594,1527,0,0
-623,-503,0,0,0,0,0,0,0,0,0,-1,601,1527,0,0
-616,-503,0,0,0,0,0,0,0,0,0,-1,608,1527,0,0
-609,-503,0,0,0,0,0,0,0,0,0,-1,615,1527,0,0
-602,-503,0,0,0,0,0,0,0,0,0,-1,622,1527,0,0
-595,-503,0,0,0,0,0,0,0,0,0,-1,629,1527,0,0
-588,-503,0,0,0,0,0,0,0,0,0,-1,636,1527,0,0
-581,-503,0,0,0,0,0,0,0,0,0,-1,643,1527,0,0
-574,-503,0,0,0,0,0,0,0,0,0,-1,650,1527,0,0
-567,-503,0,0,0,0,0,0,0,0,0,-1,657,1527,0,0
-560,-503,0,0,0,0,0,0,0,0,0,-1,664,1527,0,0
-553,-503,0,0,0,0,0,0,0,0,0,-1,671,1527,0,0
-546,-503,0,0,0,0,0,0,0,0,0,-1,678,1527,0,0
-539,-503,-6.67188,7.45154,0,0,0,0,0,0,0,-1,685,1527,-6.67189,-7.45151
-532,-503,-5.16809,6.93628,0,0,0,0,0,0,0,-1,692,1527,-5.16812,-6.93624
-525,-503,-2.89502,5.89709,0,0,0,0,0,0,0,-1,699,1527,-2.89505,-5.89707
-518,-503,-2.08679,5.24475,0.146134,0.000496243,0.00890879,0.146677,-4.66928e-05,0.0608683,0.0978003,0.0433127,706,1527,-2.08677,-5.24472
-511,-503,-1.20575,4.46082,0.115289,0.00197394,0.0050395,0.115513,0.00175025,0.0443565,0.076432,0.0421352,713,1527,-1.20575,-4.46085
-504,-503,-0.889771,3.97839,0.0881289,0.00370044,0.00239648,0.0881969,0.00363247,0.0283544,0.0576253,0.0489227,720,1527,-0.889789,-3.97834
-497,-503,-0.28894,4.39209,0,0,0,0,0,0,0,-1,727,1527,-0.288954,-4.3921
-490,-503,-0.447571,4.60828,0.0455761,0.00561087,-0.000715343,0.0455889,0.00559807,-0.0178915,0.0287091,0.0475224,734,1527,-0.447561,-4.60831
-483,-503,-0.58374,4.73572,0.0298744,0.00592562,-0.000848701,0.0299045,0.00589558,-0.0353789,0.0182906,0.0367928,741,1527,-0.583716,-4.73573
-476,-503,-0.745544,4.92944,0.019328,0.00589185,-0.000703005,0.0193647,0.00585517,-0.0521323,0.0114676,0.0171785,748,1527,-0.745563,-4.92942
-469,-503,-0.766296,5.07568,0.0104557,0.00516303,-0.00123369,0.0107292,0.00488959,-0.218115,0.00620259,0.00963475,755,1527,-0.766318,-5.07573
-462,-503,-0.770996,5.30151,0.00425516,0.00527831,-0.00104,0.00592575,0.00360771,-1.01397,0.00344813,0.011608,762,1527,-0.770994,-5.3015
-455,-503,-0.781616,5.53418,0.00260149,0.00358196,-0.000338049,0.00368722,0.00249624,-1.26895,0.00217282,0.0169446,769,1527,-0.781634,-5.53413
-448,-503,-0.767151,5.71008,0.00197188,0.00190237,-3.19552e-05,0.00198434,0.00188992,-0.371736,0.00129257,0.0157389,776,1527,-0.767126,-5.71003
-441,-503,-0.742737,5.87341,0.00214008,0.000224573,-4.30955e-05,0.00214105,0.000223604,-0.0224831,0.00135898,0.0124306,783,1527,-0.742755,-5.87343
-434,-503,-0.741272,6.06519,0.00243588,-0.00105142,0.000129968,0.00244072,-0.00105625,0.0372003,0.00207105,0.0103842,790,1527,-0.741269,-6.06513
-427,-503,-0.789612,6.25,0.00362334,-0.00261839,0.000112509,0.00362537,-0.00262042,0.0180174,0.00362153,0.0162563,797,1527,-0.789638,-6.24997
-420,-503,-0.770813,6.47314,0.0056642,-0.00379462,0.00021253,0.00566897,-0.00379939,0.0224539,0.00550197,0.0173577,804,1527,-0.770783,-6.47315
-413,-503,-0.763672,6.67969,0.00740405,-0.00527942,0.00031859,0.00741205,-0.00528742,0.0250974,0.00736616,0.0138356,811,1527,-0.763684,-6.67969
-406,-503,-0.734009,6.87073,0.00947408,-0.0069564,0.000478965,0.00948803,-0.00697035,0.0291181,0.00953924,0.0126769,818,1527,-0.73398,-6.87072
-399,-503,-0.661377,7.10437,0.0120967,-0.00879371,0.000837299,0.0121302,-0.00882722,0.039995,0.0121498,0.0171798,825,1527,-0.661357,-7.10431
-392,-503,-0.570801,7.31677,0.015161,-0.0107593,0.0012546,0.0152215,-0.0108199,0.0482518,0.0151065,0.031664,832,1527,-0.570771,-7.31678
-385,-503,-0.564392,7.14783,0.0187861,-0.0131091,0.00178799,0.018886,-0.0132091,0.055825,0.0186265,0.0404295,839,1527,-0.564388,-7.14786
-378,-503,-0.223755,7.24036,0.0220409,-0.016169,0.00300457,0.0222757,-0.0164038,0.0779945,0.0224172,0.0449996,846,1527,-0.223732,-7.24041
-371,-503,0.630676,7.0769,0.0247277,-0.0213945,0.00585308,0.0254589,-0.0221257,0.124279,0.0274955,0.0470129,853,1527,0.630657,-7.07691
-364,-503,1.7486,6.76343,0,0,0,0,0,0,0,-1,860,1527,1.74858,-6.76343
-357,-503,-2.10437,7.26636,0,0,0,0,0,0,0,-1,867,1527,-2.10436,-7.26641
-350,-503,0.219971,6.84827,0,0,0,0,0,0,0,-1,874,1527,0.21996,-6.84831
-343,-503,0.895691,7.56384,0,0,0,0,0,0,0,-1,881,1527,0.8957,-7.56384
-336,-503,1.26941,8.81177,0,0,0,0,0,0,0,-1,888,1527,1.26943,-8.81178
-329,-503,-6.71832,-0.386597,0,0,0,0,0,0,0,-1,895,1527,-6.71832,0.386628
-322,-503,-3.31317,8.81519,0,0,0,0,0,0,0,-1,902,1527,-3.31315,-8.81524
-315,-503,-3.90265,7.73853,0,0,0,0,0,0,0,-1,909,1527,-3.90264,-7.73854
-308,-503,-4.07867,7.25977,0,0,0,0,0,0,0,-1,916,1527,-4.07868,-7.25973
-301,-503,0,0,0,0,0,0,0,0,0,-1,923,1527,0,0
-294,-503,0,0,0,0,0,0,0,0,0,-1,930,1527,0,0
-287,-503,0,0,0,0,0,0,0,0,0,-1,937,1527,0,0
-280,-503,0,0,0,0,0,0,0,0,0,-1,944,1527,0,0
-273,-503,0,0,0,0,0,0,0,0,0,-1,951,1527,0,0
-266,-503,0,0,0,0,0,0,0,0,0,-1,958,1527,0,0
-259,-503,0,0,0,0,0,0,0,0,0,-1,965,1527,0,0
-252,-503,0,0,0,0,0,0,0,0,0,-1,972,1527,0,0
-245,-503,0,0,0,0,0,0,0,0,0,-1,979,1527,0,0
-238,-503,0,0,0,0,0,0,0,0,0,-1,986,1527,0,0
-231,-503,0,0,0,0,0,0,0,0,0,-1,993,1527,0,0
-224,-503,0,0,0,0,0,0,0,0,0,-1,1000,1527,0,0
-217,-503,0,0,0,0,0,0,0,0,0,-1,1007,1527,0,0
-210,-503,0,0,0,0,0,0,0,0,0,-1,1014,1527,0,0
-203,-503,0,0,0,0,0,0,0,0,0,-1,1021,1527,0,0
-196,-503,0,0,0,0,0,0,0,0,0,-1,1028,1527,0,0
-189,-503,0,0,0,0,0,0,0,0,0,-1,1035,1527,0,0
-182,-503,0,0,0,0,0,0,0,0,0,-1,1042,1527,0,0
-175,-503,0,0,0,0,0,0,0,0,0,-1,1049,1527,0,0
-168,-503,0,0,0,0,0,0,0,0,0,-1,1056,1527,0,0
-161,-503,0,0,0,0,0,0,0,0,0,-1,1063,1527,0,0
-154,-503,0,0,0,0,0,0,0,0,0,-1,1070,1527,0,0
-147,-503,0,0,0,0,0,0,0,0,0,-1,1077,1527,0,0
-140,-503,0,0,0,0,0,0,0,0,0,-1,1084,1527,0,0
-133,-503,0,0,0,0,0,0,0,0,0,-1,1091,1527,0,0
-126,-503,0,0,0,0,0,0,0,0,0,-1,1098,1527,0,0
-119,-503,0,0,0,0,0,0,0,0,0,-1,1105,1527,0,0
-112,-503,0,0,0,0,0,0,0,0,0,-1,1112,1527,0,0
-105,-503,0,0,0,0,0,0,0,0,0,-1,1119,1527,0,0
-98,-503,0,0,0,0,0,0,0,0,0,-1,1126,1527,0,0
-91,-503,0,0,0,0,0,0,0,0,0,-1,1133,1527,0,0
-84,-503,0,0,0,0,0,0,0,0,0,-1,1140,1527,0,0
-77,-503,0,0,0,0,0,0,0,0,0,-1,1147,1527,0,0
-70,-503,0,0,0,0,0,0,0,0,0,-1,1154,1527,0,0
-63,-503,0,0,0,0,0,0,0,0,0,-1,1161,1527,0,0
-56,-503,0,0,0,0,0,0,0,0,0,-1,1168,1527,0,0
-49,-503,0,0,0,0,0,0,0,0,0,-1,1175,1527,0,0
-42,-503,0,0,0,0,0,0,0,0,0,-1,1182,1527,0,0
-35,-503,0,0,0,0,0,0,0,0,0,-1,1189,1527,0,0
-28,-503,0,0,0,0,0,0,0,0,0,-1,1196,1527,0,0
-21,-503,0,0,0,0,0,0,0,0,0,-1,1203,1527,0,0
-14,-503,0,0,0,0,0,0,0,0,0,-1,1210,1527,0,0
-7,-503,0,0,0,0,0,0,0,0,0,-1,1217,1527,0,0
0,-503,0,0,0,0,0,0,0,0,0,-1,1224,1527,0,0
7,-503,0,0,0,0,0,0,0,0,0,-1,1231,1527,0,0
14,-503,0,0,0,0,0,0,0,0,0,-1,1238,1527,0,0
21,-503,0,0,0,0,0,0,0,0,0,-1,1245,1527,0,0
28,-503,0,0,0,0,0,0,0,0,0,-1,1252,1527,0,0
35,-503,0,0,0,0,0,0,0,0,0,-1,1259,1527,0,0
42,-503,0,0,0,0,0,0,0,0,0,-1,1266,1527,0,0
49,-503,0,0,0,0,0,0,0,0,0,-1,1273,1527,0,0
56,-503,0,0,0,0,0,0,0,0,0,-1,1280,1527,0,0
63,-503,0,0,0,0,0,0,0,0,0,-1,1287,1527,0,0
70,-503,0,0,0,0,0,0,0,0,0,-1,1294,1527,0,0
77,-503,0,0,0,0,0,0,0,0,0,-1,1301,1527,0,0
84,-503,0,0,0,0,0,0,0,0,0,-1,1308,1527,0,0
91,-503,0,0,0,0,0,0,0,0,0,-1,1315,1527,0,0
98,-503,0,0,0,0,0,0,0,0,0,-1,1322,1527,0,0
105,-503,0,0,0,0,0,0,0,0,0,-1,1329,1527,0,0
112,-503,0,0,0,0,0,0,0,0,0,-1,1336,1527,0,0
119,-503,0,0,0,0,0,0,0,0,0,-1,1343,1527,0,0
126,-503,0,0,0,0,0,0,0,0,0,-1,1350,1527,0,0
133,-503,0,0,0,0,0,0,0,0,0,-1,1357,1527,0,0
140,-503,0,0,0,0,0,0,0,0,0,-1,1364,1527,0,0
147,-503,0,0,0,0,0,0,0,0,0,-1,1371,1527,0,0
154,-503,0,0,0,0,0,0,0,0,0,-1,1378,1527,0,0
161,-503,0,0,0,0,0,0,0,0,0,-1,1385,1527,0,0
168,-503,0,0,0,0,0,0,0,0,0,-1,1392,1527,0,0
175,-503,0,0,0,0,0,0,0,0,0,-1,1399,1527,0,0
182,-503,0,0,0,0,0,0,0,0,0,-1,1406,1527,0,0
189,-503,0,0,0,0,0,0,0,0,0,-1,1413,1527,0,0
196,-503,0,0,0,0,0,0,0,0,0,-1,1420,1527,0,0
203,-503,0,0,0,0,0,0,0,0,0,-1,1427,1527,0,0
210,-503,0,0,0,0,0,0,0,0,0,-1,1434,1527,0,0
217,-503,0,0,0,0,0,0,0,0,0,-1,1441,1527,0,0
224,-503,0,0,0,0,0,0,0,0,0,-1,1448,1527,0,0
231,-503,0,0,0,0,0,0,0,0,0,-1,1455,1527,0,0
238,-503,0,0,0,0,0,0,0,0,0,-1,1462,1527,0,0
245,-503,0,0,0,0,0,0,0,0,0,-1,1469,1527,0,0
252,-503,0,0,0,0,0,0,0,0,0,-1,1476,1527,0,0
259,-503,0,0,0,0,0,0,0,0,0,-1,1483,1527,0,0
266,-503,0,0,0,0,0,0,0,0,0,-1,1490,1527,0,0
273,-503,0,0,0,0,0,0,0,0,0,-1,1497,1527,0,0
280,-503,0,0,0,0,0,0,0,0,0,-1,1504,1527,0,0
287,-503,0,0,0,0,0,0,0,0,0,-1,1511,1527,0,0
294,-503,0,0,0,0,0,0,0,0,0,-1,1518,1527,0,0
301,-503,0,0,0,0,0,0,0,0,0,-1,1525,1527,0,0
308,-503,0,0,0,0,0,0,0,0,0,-1,1532,1527,0,0
315,-503,0,0,0,0,0,0,0,0,0,-1,1539,1527,0,0
322,-503,0,0,0,0,0,0,0,0,0,-1,1546,1527,0,0
329,-503,0,0,0,0,0,0,0,0,0,-1,1553,1527,0,0
336,-503,0,0,0,0,0,0,0,0,0,-1,1560,1527,0,0
343,-503,0,0,0,0,0,0,0,0,0,-1,1567,1527,0,0
350,-503,0,0,0,0,0,0,0,0,0,-1,1574,1527,0,0
357,-503,0,0,0,0,0,0,0,0,0,-1,1581,1527,0,0
364,-503,0,0,0,0,0,0,0,0,0,-1,1588,1527,0,0
371,-503,0,0,0,0,0,0,0,0,0,-1,1595,1527,0,0
378,-503,0,0,0,0,0,0,0,0,0,-1,1602,1527,0,0
385,-503,0,0,0,0,0,0,0,0,0,-1,1609,1527,0,0
392,-503,0,0,0,0,0,0,0,0,0,-1,1616,1527,0,0
399,-503,0,0,0,0,0,0,0,0,0,-1,1623,1527,0,0
406,-503,0,0,0,0,0,0,0,0,0,-1,1630,1527,0,0
413,-503,0,0,0,0,0,0,0,0,0,-1,1637,1527,0,0
420,-503,0,0,0,0,0,0,0,0,0,-1,1644,1527,0,0
427,-503,10.5968,4.9856,0,0,0,0,0,0,0,-1,1651,1527,10.5969,-4.98563
434,-503,11.4329,3.97217,0,0,0,0,0,0,0,-1,1658,1527,11.4328,-3.97222
441,-503,12.0957,2.96509,0,0,0,0,0,0,0,-1,1665,1527,12.0957,-2.96512
448,-503,12.3259,2.53894,0,0,0,0,0,0,0,-1,1672,1527,12.326,-2.53895
455,-503,12.1669,2.18762,0,0,0,0,0,0,0,-1,1679,1527,12.1668,-2.18767
462,-503,11.59,2.60791,0,0,0,0,0,0,0,-1,1686,1527,11.5899,-2.60794
469,-503,11.1625,1.61853,0,0,0,0,0,0,0,-1,1693,1527,11.1625,-1.61856
476,-503,15.047,7.33289,0,0,0,0,0,0,0,-1,1700,1527,15.047,-7.33291
483,-503,10.1305,7.04089,0,0,0,0,0,0,0,-1,1707,1527,10.1305,-7.04085
490,-503,10.5542,7.73254,0,0,0,0,0,0,0,-1,1714,1527,10.5542,-7.73249
497,-503,10.3116,7.89331,-0.0350837,-0.054062,0.0650621,0.0211776,-0.110323,0.712985,0.0815301,0.0448467,1721,1527,10.3117,-7.89326
504,-503,10.1831,8.29895,-0.0299457,-0.0430505,0.0515438,0.0154604,-0.0884567,0.722176,0.0647429,0.0459599,1728,1527,10.1831,-8.29898
511,-503,9.87561,8.50818,-0.0248265,-0.0336594,0.0399154,0.010916,-0.069402,0.7303,0.050303,0.0408544,1735,1527,9.87562,-8.50819
518,-503,8.63965,8.43213,0,0,0,0,0,0,0,-1,1742,1527,8.63965,-8.43218
525,-503,8.48352,8.41516,-0.0163473,-0.0200892,0.0224845,0.00434403,-0.0407805,0.743889,0.0287446,0.0306301,1749,1527,8.48353,-8.41521
532,-503,8.46277,8.37573,-0.012762,-0.0151823,0.0162537,0.00232648,-0.0302708,0.748239,0.020999,0.0122908,1756,1527,8.4628,-8.37568
539,-503,8.4541,8.24377,-0.00961811,-0.0110581,0.0113465,0.00103123,-0.0217074,0.753714,0.0148273,0.0113,1763,1527,8.45411,-8.24376
546,-503,8.41663,8.07336,-0.00700113,-0.00798468,0.00778423,0.000306847,-0.0152927,0.753852,0.0102989,0.0107434,1770,1527,8.41659,-8.07341
553,-503,8.43652,7.88916,-0.00498054,-0.00536857,0.00476238,-0.000408231,-0.00994089,0.76504,0.00649546,0.0137565,1777,1527,8.43658,-7.88913
560,-503,8.4397,7.71167,-0.00321457,-0.00341331,0.00272947,-0.000582659,-0.00604522,0.767204,0.00385065,0.0132945,1784,1527,8.43972,-7.7117
567,-503,8.44495,7.53564,-0.00163144,-0.00183081,0.0013765,-0.000351021,-0.00311124,0.749252,0.00196761,0.011979,1791,1527,8.44495,-7.53563
574,-503,8.46375,7.36853,-0.000718937,-0.000485433,0.0006513,5.9497e-05,-0.00126387,0.874086,0.000863094,0.0123711,1798,1527,8.46369,-7.36856
581,-503,8.42273,7.20837,-0.000204002,0.000501354,0.000145402,0.000530151,-0.000232799,1.37527,0.000451503,0.0131042,1805,1527,8.42271,-7.20837
588,-503,8.40784,7.02454,0.000511588,0.00115432,-0.000638121,0.00154743,0.000118477,-1.01866,0.00099448,0.0150477,1812,1527,8.40784,-7.02453
595,-503,8.42517,6.84607,0.000792905,0.00154854,-0.00112033,0.00235304,-1.15996e-05,-0.948028,0.00157258,0.0111561,1819,1527,8.42512,-6.8461
602,-503,8.46021,6.66638,0.000970011,0.00141121,-0.00162941,0.00283489,-0.000453667,-0.852682,0.00205788,0.0126297,1826,1527,8.46015,-6.66634
609,-503,8.48254,6.46655,0.00129746,0.000679499,-0.00222144,0.0032313,-0.00125435,-0.716297,0.00267232,0.0159114,1833,1527,8.48256,-6.46651
616,-503,8.41626,6.32166,0.00165392,-0.000339892,-0.00293228,0.00375412,-0.0024401,-0.62154,0.00360296,0.0182349,1840,1527,8.41631,-6.32163
623,-503,8.29504,6.07275,0.00235339,-0.00192391,-0.00402832,0.00477558,-0.0043461,-0.541366,0.00526834,0.0344879,1847,1527,8.29509,-6.07278
630,-503,8.19385,5.86877,0,0,0,0,0,0,0,-1,1854,1527,8.19387,-5.86875
637,-503,8.25171,6.60925,0,0,0,0,0,0,0,-1,1861,1527,8.2517,-6.60922
644,-503,9.65637,3.39685,0,0,0,0,0,0,0,-1,1868,1527,9.65638,-3.39687
651,-503,5.90771,6.74841,0,0,0,0,0,0,0,-1,1875,1527,5.90774,-6.74845
658,-503,5.73291,7.09534,0,0,0,0,0,0,0,-1,1882,1527,5.73293,-7.09529
665,-503,0,0,0,0,0,0,0,0,0,-1,1889,1527,0,0
672,-503,0,0,0,0,0,0,0,0,0,-1,1896,1527,0,0
679,-503,0,0,0,0,0,0,0,0,0,-1,1903,1527,0,0
686,-503,0,0,0,0,0,0,0,0,0,-1,1910,1527,0,0
693,-503,0,0,0,0,0,0,0,0,0,-1,1917,1527,0,0
700,-503,0,0,0,0,0,0,0,0,0,-1,1924,1527,0,0
707,-503,0,0,0,0,0,0,0,0,0,-1,1931,1527,0,0
714,-503,0,0,0,0,0,0,0,0,0,-1,1938,1527,0,0
721,-503,0,0,0,0,0,0,0,0,0,-1,1945,1527,0,0
728,-503,0,0,0,0,0,0,0,0,0,-1,1952,1527,0,0
735,-503,0,0,0,0,0,0,0,0,0,-1,1959,1527,0,0
742,-503,0,0,0,0,0,0,0,0,0,-1,1966,1527,0,0
749,-503,0,0,0,0,0,0,0,0,0,-1,1973,1527,0,0
756,-503,0,0,0,0,0,0,0,0,0,-1,1980,1527,0,0
763,-503,0,0,0,0,0,0,0,0,0,-1,1987,1527,0,0
770,-503,0,0,0,0,0,0,0,0,0,-1,1994,1527,0,0
777,-503,0,0,0,0,0,0,0,0,0,-1,2001,1527,0,0
784,-503,0,0,0,0,0,0,0,0,0,-1,2008,1527,0,0
791,-503,0,0,0,0,0,0,0,0,0,-1,2015,1527,0,0
798,-503,0,0,0,0,0,0,0,0,0,-1,2022,1527,0,0
805,-503,0,0,0,0,0,0,0,0,0,-1,2029,1527,0,0
812,-503,0,0,0,0,0,0,0,0,0,-1,2036,1527,0,0
-700,-510,0,0,0,0,0,0,0,0,0,-1,524,1534,0,0
-693,-510,0,0,0,0,0,0,0,0,0,-1,531,1534,0,0
-686,-510,0,0,0,0,0,0,0,0,0,-1,538,1534,0,0
-679,-510,0,0,0,0,0,0,0,0,0,-1,545,1534,0,0
-672,-510,0,0,0,0,0,0,0,0,0,-1,552,1534,0,0
-665,-510,0,0,0,0,0,0,0,0,0,-1,559,1534,0,0
-658,-510,0,0,0,0,0,0,0,0,0,-1,566,1534,0,0
-651,-510,0,0,0,0,0,0,0,0,0,-1,573,1534,0,0
-644,-510,0,0,0,0,0,0,0,0,0,-1,580,1534,0,0
-637,-510,0,0,0,0,0,0,0,0,0,-1,587,1534,0,0
-630,-510,0,0,0,0,0,0,0,0,0,-1,594,1534,0,0
-623,-510,0,0,0,0,0,0,0,0,0,-1,601,1534,0,0
-616,-510,0,0,0,0,0,0,0,0,0,-1,608,1534,0,0
-609,-510,0,0,0,0,0,0,0,0,0,-1,615,1534,0,0
-602,-510,0,0,0,0,0,0,0,0,0,-1,622,1534,0,0
-595,-510,0,0,0,0,0,0,0,0,0,-1,629,1534,0,0
-588,-510,0,0,0,0,0,0,0,0,0,-1,636,1534,0,0
-581,-510,0,0,0,0,0,0,0,0,0,-1,643,1534,0,0
-574,-510,0,0,0,0,0,0,0,0,0,-1,650,1534,0,0
-567,-510,0,0,0,0,0,0,0,0,0,-1,657,1534,0,0
-560,-510,0,0,0,0,0,0,0,0,0,-1,664,1534,0,0
-553,-510,0,0,0,0,0,0,0,0,0,-1,671,1534,0,0
-546,-510,0,0,0,0,0,0,0,0,0,-1,678,1534,0,0
-539,-510,0,0,0,0,0,0,0,0,0,-1,685,1534,0,0
-532,-510,-5.60931,6.90723,0,0,0,0,0,0,0,-1,692,1534,-5.60933,-6.90728
-525,-510,-4.14172,6.21191,0.213114,0.00266998,0.0168761,0.214459,0.00132523,0.0795155,0.142533,0.0457964,699,1534,-4.1417,-6.21191
-518,-510,-2.68597,5.47058,0.173858,0.00466579,0.0120075,0.174706,0.00381786,0.070499,0.115219,0.0424364,706,1534,-2.68595,-5.47054
-511,-510,-1.29755,3.99268,0,0,0,0,0,0,0,-1,713,1534,-1.29753,-3.99271
-504,-510,-0.58551,3.92468,0,0,0,0,0,0,0,-1,720,1534,-0.585493,-3.92463
-497,-510,-0.21228,4.43713,0,0,0,0,0,0,0,-1,727,1534,-0.212286,-4.43715
-490,-510,-0.111328,4.59448,0.0566044,0.0116808,0.00320352,0.0568317,0.0114535,0.0708327,0.0347058,0.0440875,734,1534,-0.111305,-4.59442
-483,-510,-0.152039,4.72437,0.0380247,0.0114718,0.00272517,0.0383015,0.011195,0.101226,0.0227405,0.0403414,741,1534,-0.152036,-4.72439
-476,-510,-0.41571,4.83655,0.0249997,0.0106794,0.00240909,0.0253941,0.0102849,0.16228,0.0147492,0.0274135,748,1534,-0.415737,-4.83658
-469,-510,-0.54071,5.07153,0.0137014,0.00928915,0.00145232,0.0141365,0.00885402,0.291099,0.00824809,0.0110221,755,1534,-0.540721,-5.07152
-462,-510,-0.547607,5.27356,0.00583576,0.00879057,0.00125798,0.00925359,0.00537274,1.21812,0.00536566,0.0110793,762,1534,-0.547616,-5.27354
-455,-510,-0.575195,5.50623,0.00359589,0.00629174,0.00148265,0.0069476,0.00294003,1.15432,0.00402695,0.0136197,769,1534,-0.575203,-5.50618
-448,-510,-0.56604,5.71606,0.00250557,0.00403648,0.00138317,0.00485187,0.00169018,1.03813,0.00284385,0.0129542,776,1534,-0.566038,-5.71611
-441,-510,-0.538452,5.90515,0.00230121,0.00200556,0.00103912,0.00320297,0.0011038,0.714742,0.00187876,0.0129731,783,1534,-0.538425,-5.90511
-434,-510,-0.552979,6.06384,0.00217445,0.00042692,0.00101018,0.00263632,-3.49522e-05,0.42884,0.00176931,0.0139262,790,1534,-0.553,-6.06388
-427,-510,-0.591919,6.22412,0.00303293,-0.00140159,0.000737594,0.0031524,-0.00152105,0.160572,0.00275247,0.0218683,797,1534,-0.59193,-6.2241
-420,-510,-0.581604,6.44299,0.00477757,-0.00255729,0.000630183,0.00483132,-0.00261104,0.0850852,0.00436012,0.0212316,804,1534,-0.581626,-6.44295
-413,-510,-0.565491,6.67688,0.00624118,-0.00384172,0.000671245,0.00628567,-0.00388621,0.0661834,0.00592695,0.0107229,811,1534,-0.565468,-6.67691
-406,-510,-0.571289,6.86621,0.00792532,-0.00529962,0.000720181,0.00796442,-0.00533872,0.0542425,0.00773028,0.00978414,818,1534,-0.571316,-6.86621
-399,-510,-0.565491,7.04602,0.0100073,-0.00690165,0.000931788,0.0100584,-0.00695285,0.0548848,0.00987588,0.0107537,825,1534,-0.565461,-7.04606
-392,-510,-0.490479,7.30518,0.0123726,-0.00858821,0.00115217,0.0124357,-0.00865135,0.0547482,0.0122398,0.0193625,832,1534,-0.490463,-7.30513
-385,-510,-0.475281,7.44678,0.0151595,-0.0106295,0.00143852,0.0152395,-0.0107095,0.0555508,0.0150576,0.0313695,839,1534,-0.475304,-7.44675
-378,-510,-0.473633,7.36511,0.0174767,-0.0133779,0.00237042,0.0176578,-0.0135589,0.0762293,0.0180747,0.0370996,846,1534,-0.473613,-7.36517
-371,-510,0.0710449,6.99475,0.0190831,-0.0181083,0.00466907,0.0196603,-0.0186855,0.122999,0.0221413,0.0440941,853,1534,0.0710363,-6.99478
-364,-510,0.768555,6.59631,0,0,0,0,0,0,0,-1,860,1534,0.768573,-6.59635
-357,-510,-0.213196,6.49634,0,0,0,0,0,0,0,-1,867,1534,-0.213173,-6.49638
-350,-510,0.471191,6.06458,0,0,0,0,0,0,0,-1,874,1534,0.47118,-6.06453
-343,-510,-0.248047,5.14624,0,0,0,0,0,0,0,-1,881,1534,-0.248023,-5.1462
-336,-510,-2.29181,7.53674,0,0,0,0,0,0,0,-1,888,1534,-2.29181,-7.5367
-329,-510,-2.1748,8.57715,0,0,0,0,0,0,0,-1,895,1534,-2.17481,-8.57714
-322,-510,-2.31232,7.97729,0,0,0,0,0,0,0,-1,902,1534,-2.31234,-7.97731
-315,-510,-2.82269,7.57251,0,0,0,0,0,0,0,-1,909,1534,-2.82271,-7.57247
-308,-510,-2.98779,7.09631,0,0,0,0,0,0,0,-1,916,1534,-2.98781,-7.09636
-301,-510,-3.17023,10.2111,0,0,0,0,0,0,0,-1,923,1534,-3.17023,-10.2111
-294,-510,0,0,0,0,0,0,0,0,0,-1,930,1534,0,0
-287,-510,0,0,0,0,0,0,0,0,0,-1,937,1534,0,0
-280,-510,0,0,0,0,0,0,0,0,0,-1,944,1534,0,0
-273,-510,0,0,0,0,0,0,0,0,0,-1,951,1534,0,0
-266,-510,0,0,0,0,0,0,0,0,0,-1,958,1534,0,0
-259,-510,0,0,0,0,0,0,0,0,0,-1,965,1534,0,0
-252,-510,0,0,0,0,0,0,0,0,0,-1,972,1534,0,0
-245,-510,0,0,0,0,0,0,0,0,0,-1,979,1534,0,0
-238,-510,0,0,0,0,0,0,0,0,0,-1,986,1534,0,0
-231,-510,0,0,0,0,0,0,0,0,0,-1,993,1534,0,0
-224,-510,0,0,0,0,0,0,0,0,0,-1,1000,1534,0,0
-217,-510,0,0,0,0,0,0,0,0,0,-1,1007,1534,0,0
-210,-510,0,0,0,0,0,0,0,0,0,-1,1014,1534,0,0
-203,-510,0,0,0,0,0,0,0,0,0,-1,1021,1534,0,0
-196,-510,0,0,0,0,0,0,0,0,0,-1,1028,1534,0,0
-189,-510,0,0,0,0,0,0,0,0,0,-1,1035,1534,0,0
-182,-510,0,0,0,0,0,0,0,0,0,-1,1042,1534,0,0
-175,-510,0,0,0,0,0,0,0,0,0,-1,1049,1534,0,0
-168,-510,0,0,0,0,0,0,0,0,0,-1,1056,1534,0,0
-161,-510,0,0,0,0,0,0,0,0,0,-1,1063,1534,0,0
-154,-510,0,0,0,0,0,0,0,0,0,-1,1070,1534,0,0
-147,-510,0,0,0,0,0,0,0,0,0,-1,1077,1534,0,0
-140,-510,0,0,0,0,0,0,0,0,0,-1,1084,1534,0,0
-133,-510,0,0,0,0,0,0,0,0,0,-1,1091,1534,0,0
-126,-510,0,0,0,0,0,0,0,0,0,-1,1098,1534,0,0
-119,-510,0,0,0,0,0,0,0,0,0,-1,1105,1534,0,0
-112,-510,0,0,0,0,0,0,0,0,0,-1,1112,1534,0,0
-105,-510,0,0,0,0,0,0,0,0,0,-1,1119,1534,0,0
-98,-510,0,0,0,0,0,0,0,0,0,-1,1126,1534,0,0
-91,-510,0,0,0,0,0,0,0,0,0,-1,1133,1534,0,0
-84,-510,0,0,0,0,0,0,0,0,0,-1,1140,1534,0,0
-77,-510,0,0,0,0,0,0,0,0,0,-1,1147,1534,0,0
-70,-510,0,0,0,0,0,0,0,0,0,-1,1154,1534,0,0
-63,-510,0,0,0,0,0,0,0,0,0,-1,1161,1534,0,0
-56,-510,0,0,0,0,0,0,0,0,0,-1,1168,1534,0,0
-49,-510,0,0,0,0,0,0,0,0,0,-1,1175,1534,0,0
-42,-510,0,0,0,0,0,0,0,0,0,-1,1182,1534,0,0
-35,-510,0,0,0,0,0,0,0,0,0,-1,1189,1534,0,0
-28,-510,0,0,0,0,0,0,0,0,0,-1,1196,1534,0,0
-21,-510,0,0,0,0,0,0,0,0,0,-1,1203,1534,0,0
-14,-510,0,0,0,0,0,0,0,0,0,-1,1210,1534,0,0
-7,-510,0,0,0,0,0,0,0,0,0,-1,1217,1534,0,0
0,-510,0,0,0,0,0,0,0,0,0,-1,1224,1534,0,0
7,-510,0,0,0,0,0,0,0,0,0,-1,1231,1534,0,0
14,-510,0,0,0,0,0,0,0,0,0,-1,1238,1534,0,0
21,-510,0,0,0,0,0,0,0,0,0,-1,1245,1534,0,0
28,-510,0,0,0,0,0,0,0,0,0,-1,1252,1534,0,0
35,-510,0,0,0,0,0,0,0,0,0,-1,1259,1534,0,0
42,-510,0,0,0,0,0,0,0,0,0,-1,1266,1534,0,0
49,-510,0,0,0,0,0,0,0,0,0,-1,1273,1534,0,0
56,-510,0,0,0,0,0,0,0,0,0,-1,1280,1534,0,0
63,-510,0,0,0,0,0,0,0,0,0,-1,1287,1534,0,0
70,-510,0,0,0,0,0,0,0,0,0,-1,1294,1534,0,0
77,-510,0,0,0,0,0,0,0,0,0,-1,1301,1534,0,0
84,-510,0,0,0,0,0,0,0,0,0,-1,1308,1534,0,0
91,-510,0,0,0,0,0,0,0,0,0,-1,1315,1534,0,0
98,-510,0,0,0,0,0,0,0,0,0,-1,1322,1534,0,0
105,-510,0,0,0,0,0,0,0,0,0,-1,1329,1534,0,0
112,-510,0,0,0,0,0,0,0,0,0,-1,1336,1534,0,0
119,-510,0,0,0,0,0,0,0,0,0,-1,1343,1534,0,0
126,-510,0,0,0,0,0,0,0,0,0,-1,1350,1534,0,0
133,-510,0,0,0,0,0,0,0,0,0,-1,1357,1534,0,0
140,-510,0,0,0,0,0,0,0,0,0,-1,1364,1534,0,0
147,-510,0,0,0,0,0,0,0,0,0,-1,1371,1534,0,0
154,-510,0,0,0,0,0,0,0,0,0,-1,1378,1534,0,0
161,-510,0,0,0,0,0,0,0,0,0,-1,1385,1534,0,0
168,-510,0,0,0,0,0,0,0,0,0,-1,1392,1534,0,0
175,-510,0,0,0,0,0,0,0,0,0,-1,1399,1534,0,0
182,-510,0,0,0,0,0,0,0,0,0,-1,1406,1534,0,0
189,-510,0,0,0,0,0,0,0,0,0,-1,1413,1534,0,0
196,-510,0,0,0,0,0,0,0,0,0,-1,1420,1534,0,0
203,-510,0,0,0,0,0,0,0,0,0,-1,1427,1534,0,0
210,-510,0,0,0,0,0,0,0,0,0,-1,1434,1534,0,0
217,-510,0,0,0,0,0,0,0,0,0,-1,1441,1534,0,0
224,-510,0,0,0,0,0,0,0,0,0,-1,1448,1534,0,0
231,-510,0,0,0,0,0,0,0,0,0,-1,1455,1534,0,0
238,-510,0,0,0,0,0,0,0,0,0,-1,1462,1534,0,0
245,-510,0,0,0,0,0,0,0,0,0,-1,1469,1534,0,0
252,-510,0,0,0,0,0,0,0,0,0,-1,1476,1534,0,0
259,-510,0,0,0,0,0,0,0,0,0,-1,1483,1534,0,0
266,-510,0,0,0,0,0,0,0,0,0,-1,1490,1534,0,0
273,-510,0,0,0,0,0,0,0,0,0,-1,1497,1534,0,0
280,-510,0,0,0,0,0,0,0,0,0,-1,1504,1534,0,0
287,-510,0,0,0,0,0,0,0,0,0,-1,1511,1534,0,0
294,-510,0,0,0,0,0,0,0,0,0,-1,1518,1534,0,0
301,-510,0,0,0,0,0,0,0,0,0,-1,1525,1534,0,0
308,-510,0,0,0,0,0,0,0,0,0,-1,1532,1534,0,0
315,-510,0,0,0,0,0,0,0,0,0,-1,1539,1534,0,0
322,-510,0,0,0,0,0,0,0,0,0,-1,1546,1534,0,0
329,-510,0,0,0,0,0,0,0,0,0,-1,1553,1534,0,0
336,-510,0,0,0,0,0,0,0,0,0,-1,1560,1534,0,0
343,-510,0,0,0,0,0,0,0,0,0,-1,1567,1534,0,0
350,-510,0,0,0,0,0,0,0,0,0,-1,1574,1534,0,0
357,-510,0,0,0,0,0,0,0,0,0,-1,1581,1534,0,0
364,-510,0,0,0,0,0,0,0,0,0,-1,1588,1534,0,0
371,-510,0,0,0,0,0,0,0,0,0,-1,1595,1534,0,0
378,-510,0,0,0,0,0,0,0,0,0,-1,1602,1534,0,0
385,-510,0,0,0,0,0,0,0,0,0,-1,1609,1534,0,0
392,-510,0,0,0,0,0,0,0,0,0,-1,1616,1534,0,0
399,-510,0,0,0,0,0,0,0,0,0,-1,1623,1534,0,0
406,-510,0,0,0,0,0,0,0,0,0,-1,1630,1534,0,0
413,-510,0,0,0,0,0,0,0,0,0,-1,1637,1534,0,0
420,-510,13.1918,5.99402,0,0,0,0,0,0,0,-1,1644,1534,13.1917,-5.994
427,-510,10.9799,5.12341,0,0,0,0,0,0,0,-1,1651,1534,10.9798,-5.12337
434,-510,11.8219,4.07898,0,0,0,0,0,0,0,-1,1658,1534,11.8219,-4.07895
441,-510,12.6812,3.02991,0,0,0,0,0,0,0,-1,1665,1534,12.6811,-3.0299
448,-510,13.2379,2.2804,0,0,0,0,0,0,0,-1,1672,1534,13.2379,-2.28037
455,-510,9.76892,2.20642,0,0,0,0,0,0,0,-1,1679,1534,9.76894,-2.20647
462,-510,9.84692,2.49182,0,0,0,0,0,0,0,-1,1686,1534,9.84695,-2.49185
469,-510,9.99475,2.57556,0,0,0,0,0,0,0,-1,1693,1534,9.99477,-2.57556
476,-510,9.94727,3.302,0,0,0,0,0,0,0,-1,1700,1534,9.94725,-3.30196
483,-510,9.25598,7.29993,0,0,0,0,0,0,0,-1,1707,1534,9.25594,-7.29993
490,-510,9.13403,7.87268,0,0,0,0,0,0,0,-1,1714,1534,9.13402,-7.87271
497,-510,9.2738,8.40283,-0.0273317,-0.0467965,0.0541684,0.0179716,-0.0920999,0.696512,0.0681846,0.0422696,1721,1534,9.27381,-8.40286
504,-510,9.24109,8.62415,-0.0232644,-0.0367194,0.043197,0.0137259,-0.0737096,0.708149,0.0542965,0.0402833,1728,1534,9.24105,-8.62411
511,-510,9.07568,8.67273,-0.0192606,-0.0283216,0.0335716,0.0100848,-0.057667,0.718328,0.0422098,0.0366588,1735,1534,9.07566,-8.67277
518,-510,8.53577,8.66504,0,0,0,0,0,0,0,-1,1742,1534,8.5358,-8.66505
525,-510,8.29407,8.57068,-0.0125323,-0.0163717,0.018916,0.00456111,-0.0334651,0.734829,0.0239755,0.0174613,1749,1534,8.29401,-8.57069
532,-510,8.28137,8.40869,-0.00969079,-0.0121193,0.0135577,0.00270693,-0.024517,0.740737,0.0173176,0.0118481,1756,1534,8.28137,-8.40873
539,-510,8.26685,8.22546,-0.0071655,-0.00853208,0.00926694,0.0014433,-0.0171409,0.748598,0.0119375,0.0118053,1763,1534,8.26688,-8.22552
546,-510,8.24255,8.06567,-0.00504156,-0.00583685,0.00612769,0.000701379,-0.0115798,0.752997,0.00796395,0.011513,1770,1534,8.24258,-8.06572
553,-510,8.25476,7.89233,-0.00337256,-0.00354812,0.00348656,2.7329e-05,-0.00694801,0.772812,0.00464114,0.012761,1777,1534,8.25471,-7.89233
560,-510,8.25195,7.70508,-0.00191239,-0.00185484,0.0016969,-0.000186475,-0.00358076,0.793876,0.00232751,0.0131595,1784,1534,8.25193,-7.70509
567,-510,8.25745,7.52893,-0.000628668,-0.000436976,0.000487909,-3.55881e-05,-0.00103006,0.882385,0.000675154,0.0125299,1791,1534,8.25746,-7.52898
574,-510,8.27686,7.35046,0.000100233,0.000826699,-0.000164249,0.000862108,6.48237e-05,-1.35846,0.000554396,0.0131955,1798,1534,8.27685,-7.35052
581,-510,8.23169,7.20422,0.000517972,0.00179506,-0.000614716,0.00204287,0.000270168,-1.1876,0.00128138,0.0117219,1805,1534,8.23173,-7.20417
588,-510,8.23218,7.04004,0.00119764,0.00250545,-0.00146848,0.00345903,0.000244061,-0.994865,0.00222913,0.0127558,1812,1534,8.23218,-7.0401
595,-510,8.28589,6.81921,0.00154413,0.00294097,-0.00208011,0.00443678,4.83256e-05,-0.947365,0.00294188,0.0119016,1819,1534,8.28586,-6.81918
602,-510,8.29553,6.61902,0.00194603,0.00297084,-0.0027599,0.00526549,-0.000348626,-0.877184,0.00363212,0.0184844,1826,1534,8.29553,-6.61898
609,-510,8.28992,6.52173,0.00256223,0.00244772,-0.00364572,0.00615115,-0.0011412,-0.777547,0.00452934,0.0261398,1833,1534,8.28992,-6.52173
616,-510,8.29797,6.38159,0.00340988,0.00167556,-0.00489528,0.00751421,-0.00242877,-0.697736,0.00598563,0.0379778,1840,1534,8.29803,-6.38154
623,-510,8.21399,6.13123,0.0048619,0.000311309,-0.00678731,0.00974514,-0.00457193,-0.623671,0.00844392,0.0429384,1847,1534,8.21403,-6.13124
630,-510,8.30334,5.79858,0,0,0,0,0,0,0,-1,1854,1534,8.3033,-5.79863
637,-510,9.67639,3.88989,0.0110524,-0.00419276,-0.0139107,0.0192921,-0.0124324,-0.534759,0.0184583,0.0454797,1861,1534,9.67635,-3.88984
644,-510,10.6316,2.95374,0,0,0,0,0,0,0,-1,1868,1534,10.6316,-2.9537
651,-510,11.5236,2.09265,0,0,0,0,0,0,0,-1,1875,1534,11.5235,-2.09265
658,-510,0,0,0,0,0,0,0,0,0,-1,1882,1534,0,0
665,-510,0,0,0,0,0,0,0,0,0,-1,1889,1534,0,0
672,-510,0,0,0,0,0,0,0,0,0,-1,1896,1534,0,0
679,-510,0,0,0,0,0,0,0,0,0,-1,1903,1534,0,0
686,-510,0,0,0,0,0,0,0,0,0,-1,1910,1534,0,0
693,-510,0,0,0,0,0,0,0,0,0,-1,1917,1534,0,0
700,-510,0,0,0,0,0,0,0,0,0,-1,1924,1534,0,0
707,-510,0,0,0,0,0,0,0,0,0,-1,1931,1534,0,0
714,-510,0,0,0,0,0,0,0,0,0,-1,1938,1534,0,0
721,-510,0,0,0,0,0,0,0,0,0,-1,1945,1534,0,0
728,-510,0,0,0,0,0,0,0,0,0,-1,1952,1534,0,0
735,-510,0,0,0,0,0,0,0,0,0,-1,1959,1534,0,0
742,-510,0,0,0,0,0,0,0,0,0,-1,1966,1534,0,0
749,-510,0,0,0,0,0,0,0,0,0,-1,1973,1534,0,0
756,-510,0,0,0,0,0,0,0,0,0,-1,1980,1534,0,0
763,-510,0,0,0,0,0,0,0,0,0,-1,1987,1534,0,0
770,-510,0,0,0,0,0,0,0,0,0,-1,1994,1534,0,0
777,-510,0,0,0,0,0,0,0,0,0,-1,2001,1534,0,0
784,-510,0,0,0,0,0,0,0,0,0,-1,2008,1534,0,0
791,-510,0,0,0,0,0,0,0,0,0,-1,2015,1534,0,0
798,-510,0,0,0,0,0,0,0,0,0,-1,2022,1534,0,0
805,-510,0,0,0,0,0,0,0,0,0,-1,2029,1534,0,0
812,-510,0,0,0,0,0,0,0,0,0,-1,2036,1534,0,0
-700,-517,0,0,0,0,0,0,0,0,0,-1,524,1541,0,0
-693,-517,0,0,0,0,0,0,0,0,0,-1,531,1541,0,0
-686,-517,0,0,0,0,0,0,0,0,0,-1,538,1541,0,0
-679,-517,0,0,0,0,0,0,0,0,0,-1,545,1541,0,0
-672,-517,0,0,0,0,0,0,0,0,0,-1,552,1541,0,0
-665,-517,0,0,0,0,0,0,0,0,0,-1,559,1541,0,0
-658,-517,0,0,0,0,0,0,0,0,0,-1,566,1541,0,0
-651,-517,0,0,0,0,0,0,0,0,0,-1,573,1541,0,0
-644,-517,0,0,0,0,0,0,0,0,0,-1,580,1541,0,0
-637,-517,0,0,0,0,0,0,0,0,0,-1,587,1541,0,0
-630,-517,0,0,0,0,0,0,0,0,0,-1,594,1541,0,0
-623,-517,0,0,0,0,0,0,0,0,0,-1,601,1541,0,0
-616,-517,0,0,0,0,0,0,0,0,0,-1,608,1541,0,0
-609,-517,0,0,0,0,0,0,0,0,0,-1,615,1541,0,0
-602,-517,0,0,0,0,0,0,0,0,0,-1,622,1541,0,0
-595,-517,0,0,0,0,0,0,0,0,0,-1,629,1541,0,0
-588,-517,0,0,0,0,0,0,0,0,0,-1,636,1541,0,0
-581,-517,0,0,0,0,0,0,0,0,0,-1,643,1541,0,0
-574,-517,0,0,0,0,0,0,0,0,0,-1,650,1541,0,0
-567,-517,0,0,0,0,0,0,0,0,0,-1,657,1541,0,0
-560,-517,0,0,0,0,0,0,0,0,0,-1,664,1541,0,0
-553,-517,0,0,0,0,0,0,0,0,0,-1,671,1541,0,0
-546,-517,0,0,0,0,0,0,0,0,0,-1,678,1541,0,0
-539,-517,0,0,0,0,0,0,0,0,0,-1,685,1541,0,0
-532,-517,0,0,0,0,0,0,0,0,0,-1,692,1541,0,0
-525,-517,-5.12762,6.14978,0.245096,0.00848075,0.0235863,0.247424,0.00615253,0.0983921,0.162937,0.0452852,699,1541,-5.12763,-6.14977
-518,-517,-3.33447,5.54248,0.200478,0.0122391,0.0193302,0.202442,0.0102746,0.101282,0.13167,0.0469685,706,1541,-3.33448,-5.54248
-511,-517,-1.729,4.86182,0,0,0,0,0,0,0,-1,713,1541,-1.72898,-4.86185
-504,-517,-0.399719,3.94312,0,0,0,0,0,0,0,-1,720,1541,-0.399727,-3.94312
-497,-517,-0.796753,4.67993,0,0,0,0,0,0,0,-1,727,1541,-0.796766,-4.67998
-490,-517,0.139221,4.68286,0,0,0,0,0,0,0,-1,734,1541,0.139191,-4.68287
-483,-517,-0.0886841,4.72876,0.0450145,0.021773,0.0112298,0.0495539,0.0172337,0.384145,0.0290486,0.042674,741,1541,-0.0886984,-4.72876
-476,-517,-0.227173,4.83679,0.0299094,0.0198435,0.0100171,0.0360869,0.013666,0.552603,0.0210382,0.0341141,748,1541,-0.227169,-4.83685
-469,-517,-0.296509,5.04858,0.0165666,0.0173586,0.00818616,0.0251583,0.00876686,0.809565,0.0147458,0.0142826,755,1541,-0.296526,-5.04862
-462,-517,-0.350647,5.26563,0.00732489,0.0156334,0.00703013,0.0196449,0.00331333,1.05226,0.0121438,0.0139827,762,1541,-0.350657,-5.26559
-455,-517,-0.360168,5.49707,0.00460015,0.0116713,0.0060434,0.0151374,0.00113409,1.05007,0.00973561,0.0128537,769,1541,-0.360188,-5.49707
-448,-517,-0.366882,5.70813,0.00309939,0.00818757,0.00484774,0.0111182,0.000168721,1.02704,0.00735656,0.0132401,776,1541,-0.366912,-5.70814
-441,-517,-0.359558,5.89563,0.002533,0.00519414,0.00356739,0.00767102,5.61157e-05,0.963897,0.00509541,0.0114533,783,1541,-0.359565,-5.89563
-434,-517,-0.33551,6.06714,0.00197343,0.00281931,0.00285717,0.00528468,-0.000491937,0.858879,0.00369802,0.013285,790,1541,-0.335484,-6.06717
-427,-517,-0.340515,6.25903,0.00246845,0.00027492,0.00185922,0.0035303,-0.000786928,0.518917,0.002655,0.0130315,797,1541,-0.340517,-6.25909
-420,-517,-0.372925,6.47888,0.00386973,-0.00126392,0.00115726,0.00411855,-0.00151273,0.211782,0.00336525,0.0185893,804,1541,-0.372914,-6.47882
-413,-517,-0.378479,6.67407,0.00505156,-0.00256971,0.000928954,0.00516315,-0.0026813,0.119558,0.00460393,0.0104013,811,1541,-0.378468,-6.67407
-406,-517,-0.377808,6.87061,0.00636012,-0.004006,0.000706097,0.006408,-0.00405388,0.0676991,0.00609092,0.0110091,818,1541,-0.377787,-6.87065
-399,-517,-0.374451,7.06555,0.00793988,-0.00544437,0.000749839,0.00798176,-0.00548625,0.0557913,0.00782012,0.0101187,825,1541,-0.374471,-7.06554
-392,-517,-0.364563,7.25696,0.00969056,-0.00685175,0.000832354,0.00973234,-0.00689353,0.0501479,0.00964548,0.0108542,832,1541,-0.364571,-7.25696
-385,-517,-0.313782,7.53772,0.0117117,-0.00856193,0.00093555,0.0117548,-0.00860501,0.0460158,0.0118015,0.0162961,839,1541,-0.313764,-7.53772
-378,-517,-0.33728,7.61401,0.0132252,-0.0109216,0.0016817,0.0133418,-0.0110381,0.0691999,0.0140967,0.0311164,846,1541,-0.337304,-7.61398
-371,-517,-0.0892334,7.32471,0.0140753,-0.0150258,0.00360613,0.0145155,-0.015466,0.12147,0.0173127,0.0393109,853,1541,-0.089223,-7.3247
-364,-517,-0.106934,7.37671,0.0148456,-0.0190786,0.00564705,0.0157609,-0.0199939,0.16069,0.0206912,0.0479094,860,1541,-0.106909,-7.37676
-357,-517,-0.510864,7.63892,0,0,0,0,0,0,0,-1,867,1541,-0.510858,-7.63887
-350,-517,0.274963,7.1239,0,0,0,0,0,0,0,-1,874,1541,0.274979,-7.12386
-343,-517,0.366028,7.41064,0,0,0,0,0,0,0,-1,881,1541,0.366019,-7.4106
-336,-517,2.93292,5.28625,0,0,0,0,0,0,0,-1,888,1541,2.93293,-5.28621
-329,-517,-0.752991,7.49341,0,0,0,0,0,0,0,-1,895,1541,-0.752981,-7.49339
-322,-517,-1.2431,7.35327,0,0,0,0,0,0,0,-1,902,1541,-1.24312,-7.35326
-315,-517,-1.7171,7.29028,0,0,0,0,0,0,0,-1,909,1541,-1.71711,-7.29026
-308,-517,-2.2652,9.47229,0,0,0,0,0,0,0,-1,916,1541,-2.26517,-9.47235
-301,-517,-2.29553,10.151,0,0,0,0,0,0,0,-1,923,1541,-2.29556,-10.151
-294,-517,-1.94806,10.6923,0,0,0,0,0,0,0,-1,930,1541,-1.94807,-10.6923
-287,-517,-0.212158,3.43335,0,0,0,0,0,0,0,-1,937,1541,-0.212159,-3.43334
-280,-517,0,0,0,0,0,0,0,0,0,-1,944,1541,0,0
-273,-517,0,0,0,0,0,0,0,0,0,-1,951,1541,0,0
-266,-517,0,0,0,0,0,0,0,0,0,-1,958,1541,0,0
-259,-517,0,0,0,0,0,0,0,0,0,-1,965,1541,0,0
-252,-517,0,0,0,0,0,0,0,0,0,-1,972,1541,0,0
-245,-517,0,0,0,0,0,0,0,0,0,-1,979,1541,0,0
-238,-517,0,0,0,0,0,0,0,0,0,-1,986,1541,0,0
-231,-517,0,0,0,0,0,0,0,0,0,-1,993,1541,0,0
-224,-517,0,0,0,0,0,0,0,0,0,-1,1000,1541,0,0
-217,-517,0,0,0,0,0,0,0,0,0,-1,1007,1541,0,0
-210,-517,0,0,0,0,0,0,0,0,0,-1,1014,1541,0,0
-203,-517,0,0,0,0,0,0,0,0,0,-1,1021,1541,0,0
-196,-517,0,0,0,0,0,0,0,0,0,-1,1028,1541,0,0
-189,-517,0,0,0,0,0,0,0,0,0,-1,1035,1541,0,0
-182,-517,0,0,0,0,0,0,0,0,0,-1,1042,1541,0,0
-175,-517,0,0,0,0,0,0,0,0,0,-1,1049,1541,0,0
-168,-517,0,0,0,0,0,0,0,0,0,-1,1056,1541,0,0
-161,-517,0,0,0,0,0,0,0,0,0,-1,1063,1541,0,0
-154,-517,0,0,0,0,0,0,0,0,0,-1,1070,1541,0,0
-147,-517,0,0,0,0,0,0,0,0,0,-1,1077,1541,0,0
-140,-517,0,0,0,0,0,0,0,0,0,-1,1084,1541,0,0
-133,-517,0,0,0,0,0,0,0,0,0,-1,1091,1541,0,0
-126,-517,0,0,0,0,0,0,0,0,0,-1,1098,1541,0,0
-119,-517,0,0,0,0,0,0,0,0,0,-1,1105,1541,0,0
-112,-517,0,0,0,0,0,0,0,0,0,-1,1112,1541,0,0
-105,-517,0,0,0,0,0,0,0,0,0,-1,1119,1541,0,0
-98,-517,0,0,0,0,0,0,0,0,0,-1,1126,1541,0,0
-91,-517,0,0,0,0,0,0,0,0,0,-1,1133,1541,0,0
-84,-517,0,0,0,0,0,0,0,0,0,-1,1140,1541,0,0
-77,-517,0,0,0,0,0,0,0,0,0,-1,1147,1541,0,0
-70,-517,0,0,0,0,0,0,0,0,0,-1,1154,1541,0,0
-63,-517,0,0,0,0,0,0,0,0,0,-1,1161,1541,0,0
-56,-517,0,0,0,0,0,0,0,0,0,-1,1168,1541,0,0
-49,-517,0,0,0,0,0,0,0,0,0,-1,1175,1541,0,0
-42,-517,0,0,0,0,0,0,0,0,0,-1,1182,1541,0,0
-35,-517,0,0,0,0,0,0,0,0,0,-1,1189,1541,0,0
-28,-517,0,0,0,0,0,0,0,0,0,-1,1196,1541,0,0
-21,-517,0,0,0,0,0,0,0,0,0,-1,1203,1541,0,0
-14,-517,0,0,0,0,0,0,0,0,0,-1,1210,1541,0,0
-7,-517,0,0,0,0,0,0,0,0,0,-1,1217,1541,0,0
0,-517,0,0,0,0,0,0,0,0,0,-1,1224,1541,0,0
7,-517,0,0,0,0,0,0,0,0,0,-1,1231,1541,0,0
14,-517,0,0,0,0,0,0,0,0,0,-1,1238,1541,0,0
21,-517,0,0,0,0,0,0,0,0,0,-1,1245,1541,0,0
28,-517,0,0,0,0,0,0,0,0,0,-1,1252,1541,0,0
35,-517,0,0,0,0,0,0,0,0,0,-1,1259,1541,0,0
42,-517,0,0,0,0,0,0,0,0,0,-1,1266,1541,0,0
49,-517,0,0,0,0,0,0,0,0,0,-1,1273,1541,0,0
56,-517,0,0,0,0,0,0,0,0,0,-1,1280,1541,0,0
63,-517,0,0,0,0,0,0,0,0,0,-1,1287,1541,0,0
70,-517,0,0,0,0,0,0,0,0,0,-1,1294,1541,0,0
77,-517,0,0,0,0,0,0,0,0,0,-1,1301,1541,0,0
84,-517,0,0,0,0,0,0,0,0,0,-1,1308,1541,0,0
91,-517,0,0,0,0,0,0,0,0,0,-1,1315,1541,0,0
98,-517,0,0,0,0,0,0,0,0,0,-1,1322,1541,0,0
105,-517,0,0,0,0,0,0,0,0,0,-1,1329,1541,0,0
112,-517,0,0,0,0,0,0,0,0,0,-1,1336,1541,0,0
119,-517,0,0,0,0,0,0,0,0,0,-1,1343,1541,0,0
126,-517,0,0,0,0,0,0,0,0,0,-1,1350,1541,0,0
133,-517,0,0,0,0,0,0,0,0,0,-1,1357,1541,0,0
140,-517,0,0,0,0,0,0,0,0,0,-1,1364,1541,0,0
147,-517,0,0,0,0,0,0,0,0,0,-1,1371,1541,0,0
154,-517,0,0,0,0,0,0,0,0,0,-1,1378,1541,0,0
161,-517,0,0,0,0,0,0,0,0,0,-1,1385,1541,0,0
168,-517,0,0,0,0,0,0,0,0,0,-1,1392,1541,0,0
175,-517,0,0,0,0,0,0,0,0,0,-1,1399,1541,0,0
182,-517,0,0,0,0,0,0,0,0,0,-1,1406,1541,0,0
189,-517,0,0,0,0,0,0,0,0,0,-1,1413,1541,0,0
196,-517,0,0,0,0,0,0,0,0,0,-1,1420,1541,0,0
203,-517,0,0,0,0,0,0,0,0,0,-1,1427,1541,0,0
210,-517,0,0,0,0,0,0,0,0,0,-1,1434,1541,0,0
217,-517,0,0,0,0,0,0,0,0,0,-1,1441,1541,0,0
224,-517,0,0,0,0,0,0,0,0,0,-1,1448,1541,0,0
231,-517,0,0,0,0,0,0,0,0,0,-1,1455,1541,0,0
238,-517,0,0,0,0,0,0,0,0,0,-1,1462,1541,0,0
245,-517,0,0,0,0,0,0,0,0,0,-1,1469,1541,0,0
252,-517,0,0,0,0,0,0,0,0,0,-1,1476,1541,0,0
259,-517,0,0,0,0,0,0,0,0,0,-1,1483,1541,0,0
266,-517,0,0,0,0,0,0,0,0,0,-1,1490,1541,0,0
273,-517,0,0,0,0,0,0,0,0,0,-1,1497,1541,0,0
280,-517,0,0,0,0,0,0,0,0,0,-1,1504,1541,0,0
287,-517,0,0,0,0,0,0,0,0,0,-1,1511,1541,0,0
294,-517,0,0,0,0,0,0,0,0,0,-1,1518,1541,0,0
301,-517,0,0,0,0,0,0,0,0,0,-1,1525,1541,0,0
308,-517,0,0,0,0,0,0,0,0,0,-1,1532,1541,0,0
315,-517,0,0,0,0,0,0,0,0,0,-1,1539,1541,0,0
322,-517,0,0,0,0,0,0,0,0,0,-1,1546,1541,0,0
329,-517,0,0,0,0,0,0,0,0,0,-1,1553,1541,0,0
336,-517,0,0,0,0,0,0,0,0,0,-1,1560,1541,0,0
343,-517,0,0,0,0,0,0,0,0,0,-1,1567,1541,0,0
350,-517,0,0,0,0,0,0,0,0,0,-1,1574,1541,0,0
357,-517,0,0,0,0,0,0,0,0,0,-1,1581,1541,0,0
364,-517,0,0,0,0,0,0,0,0,0,-1,1588,1541,0,0
371,-517,0,0,0,0,0,0,0,0,0,-1,1595,1541,0,0
378,-517,0,0,0,0,0,0,0,0,0,-1,1602,1541,0,0
385,-517,0,0,0,0,0,0,0,0,0,-1,1609,1541,0,0
392,-517,0,0,0,0,0,0,0,0,0,-1,1616,1541,0,0
399,-517,0,0,0,0,0,0,0,0,0,-1,1623,1541,0,0
406,-517,12.1469,6.22412,0,0,0,0,0,0,0,-1,1630,1541,12.1468,-6.22408
413,-517,12.2695,6.3324,0,0,0,0,0,0,0,-1,1637,1541,12.2696,-6.33243
420,-517,12.4789,6.20337,0,0,0,0,0,0,0,-1,1644,1541,12.4789,-6.20333
427,-517,11.647,4.66516,0,0,0,0,0,0,0,-1,1651,1541,11.647,-4.66519
434,-517,12.3719,3.92773,0,0,0,0,0,0,0,-1,1658,1541,12.3719,-3.92776
441,-517,13.146,3.14124,0,0,0,0,0,0,0,-1,1665,1541,13.146,-3.14121
448,-517,13.8861,2.36682,0,0,0,0,0,0,0,-1,1672,1541,13.8861,-2.36684
455,-517,11.0901,2.86548,0,0,0,0,0,0,0,-1,1679,1541,11.0901,-2.86544
462,-517,8.50793,1.59912,0,0,0,0,0,0,0,-1,1686,1541,8.50799,-1.59913
469,-517,8.79614,2.86072,0,0,0,0,0,0,0,-1,1693,1541,8.79608,-2.86067
476,-517,8.27844,4.43079,0,0,0,0,0,0,0,-1,1700,1541,8.27848,-4.43073
483,-517,9.68469,6.87476,0,0,0,0,0,0,0,-1,1707,1541,9.6847,-6.87481
490,-517,8.48828,8.76123,0,0,0,0,0,0,0,-1,1714,1541,8.48833,-8.76121
497,-517,8.38464,8.65942,-0.0211855,-0.0400079,0.0441785,0.0145731,-0.0757665,0.680453,0.0560043,0.0429274,1721,1541,8.38467,-8.65946
504,-517,8.40601,8.76477,-0.0179862,-0.031062,0.0355407,0.0116129,-0.0606612,0.694438,0.0448161,0.0373109,1728,1541,8.40601,-8.76479
511,-517,8.22778,8.85779,-0.0148055,-0.0236598,0.0277378,0.00885624,-0.0473215,0.706262,0.0348766,0.0316818,1735,1541,8.22774,-8.85781
518,-517,8.08752,8.74634,-0.0119589,-0.0177774,0.0210895,0.00642111,-0.0361574,0.716857,0.0265058,0.0203244,1742,1541,8.08754,-8.74631
525,-517,8.08813,8.57214,-0.00941829,-0.0131202,0.0155222,0.00436299,-0.0269014,0.726056,0.0195516,0.0107646,1749,1541,8.08812,-8.57212
532,-517,8.08142,8.40076,-0.00715156,-0.00941498,0.0109642,0.00273917,-0.0193057,0.733971,0.013874,0.00941041,1756,1541,8.08139,-8.40076
539,-517,8.08838,8.22351,-0.00513097,-0.00628808,0.00727077,0.00158423,-0.0130033,0.745696,0.0092423,0.0105449,1763,1541,8.08835,-8.2235
546,-517,8.09045,8.04871,-0.00342067,-0.0038922,0.00454977,0.000899434,-0.00821231,0.759512,0.00579799,0.0114082,1770,1541,8.09046,-8.04872
553,-517,8.0907,7.88977,-0.0020469,-0.00186634,0.00230679,0.000351934,-0.00426517,0.804957,0.00296772,0.0149495,1777,1541,8.09067,-7.88975
560,-517,8.10168,7.71216,-0.000843452,-0.000365292,0.000775466,0.000207112,-0.00141586,0.934927,0.00101997,0.0160646,1784,1541,8.10169,-7.7122
567,-517,8.09619,7.54639,0.000171386,0.000959412,-0.000289597,0.00105439,7.64073e-05,-1.25388,0.000678892,0.0130725,1791,1541,8.09622,-7.54641
574,-517,8.09534,7.3501,0.000767403,0.00221712,-0.00090864,0.00265461,0.000329916,-1.12208,0.00167066,0.0138259,1798,1541,8.09538,-7.35006
581,-517,8.08044,7.17285,0.00114737,0.0032558,-0.00135488,0.00391829,0.000484878,-1.11602,0.0024665,0.0155081,1805,1541,8.08042,-7.17282
588,-517,8.07593,7.00159,0.00187728,0.00413591,-0.0023357,0.00560099,0.000412207,-1.01058,0.00360445,0.016134,1812,1541,8.07596,-7.00162
595,-517,8.09509,6.8136,0.00237792,0.00474647,-0.00316346,0.00694006,0.000184331,-0.964504,0.0045665,0.0160379,1819,1541,8.09508,-6.81363
602,-517,8.09692,6.62988,0.00312174,0.00511237,-0.00412903,0.00836435,-0.000130241,-0.903668,0.00562015,0.020387,1826,1541,8.09696,-6.62994
609,-517,8.29175,6.57458,0.00419542,0.00501541,-0.00548382,0.0101045,-0.000893706,-0.822711,0.00705316,0.0380051,1833,1541,8.29175,-6.57458
616,-517,8.24548,6.38635,0.00574973,0.00472075,-0.00749748,0.0127504,-0.00227987,-0.751141,0.00935328,0.0473161,1840,1541,8.24542,-6.38636
623,-517,8.22021,6.06641,0,0,0,0,0,0,0,-1,1847,1541,8.22017,-6.06646
630,-517,9.12646,4.78784,0,0,0,0,0,0,0,-1,1854,1541,9.1265,-4.78787
637,-517,10.334,3.64124,0,0,0,0,0,0,0,-1,1861,1541,10.334,-3.6412
644,-517,11.553,2.3092,0,0,0,0,0,0,0,-1,1868,1541,11.553,-2.30914
651,-517,0,0,0,0,0,0,0,0,0,-1,1875,1541,0,0
658,-517,0,0,0,0,0,0,0,0,0,-1,1882,1541,0,0
665,-517,0,0,0,0,0,0,0,0,0,-1,1889,1541,0,0
672,-517,0,0,0,0,0,0,0,0,0,-1,1896,1541,0,0
679,-517,0,0,0,0,0,0,0,0,0,-1,1903,1541,0,0
686,-517,0,0,0,0,0,0,0,0,0,-1,1910,1541,0,0
693,-517,0,0,0,0,0,0,0,0,0,-1,1917,1541,0,0
700,-517,0,0,0,0,0,0,0,0,0,-1,1924,1541,0,0
707,-517,0,0,0,0,0,0,0,0,0,-1,1931,1541,0,0
714,-517,0,0,0,0,0,0,0,0,0,-1,1938,1541,0,0
721,-517,0,0,0,0,0,0,0,0,0,-1,1945,1541,0,0
728,-517,0,0,0,0,0,0,0,0,0,-1,1952,1541,0,0
735,-517,0,0,0,0,0,0,0,0,0,-1,1959,1541,0,0
742,-517,0,0,0,0,0,0,0,0,0,-1,1966,1541,0,0
749,-517,0,0,0,0,0,0,0,0,0,-1,1973,1541,0,0
756,-517,0,0,0,0,0,0,0,0,0,-1,1980,1541,0,0
763,-517,0,0,0,0,0,0,0,0,0,-1,1987,1541,0,0
770,-517,0,0,0,0,0,0,0,0,0,-1,1994,1541,0,0
777,-517,0,0,0,0,0,0,0,0,0,-1,2001,1541,0,0
784,-517,0,0,0,0,0,0,0,0,0,-1,2008,1541,0,0
791,-517,0,0,0,0,0,0,0,0,0,-1,2015,1541,0,0
798,-517,0,0,0,0,0,0,0,0,0,-1,2022,1541,0,0
805,-517,0,0,0,0,0,0,0,0,0,-1,2029,1541,0,0
812,-517,0,0,0,0,0,0,0,0,0,-1,2036,1541,0,0
-700,-524,0,0,0,0,0,0,0,0,0,-1,524,1548,0,0
-693,-524,0,0,0,0,0,0,0,0,0,-1,531,1548,0,0
-686,-524,0,0,0,0,0,0,0,0,0,-1,538,1548,0,0
-679,-524,0,0,0,0,0,0,0,0,0,-1,545,1548,0,0
-672,-524,0,0,0,0,0,0,0,0,0,-1,552,1548,0,0
-665,-524,0,0,0,0,0,0,0,0,0,-1,559,1548,0,0
-658,-524,0,0,0,0,0,0,0,0,0,-1,566,1548,0,0
-651,-524,0,0,0,0,0,0,0,0,0,-1,573,1548,0,0
-644,-524,0,0,0,0,0,0,0,0,0,-1,580,1548,0,0
-637,-524,0,0,0,0,0,0,0,0,0,-1,587,1548,0,0
-630,-524,0,0,0,0,0,0,0,0,0,-1,594,1548,0,0
-623,-524,0,0,0,0,0,0,0,0,0,-1,601,1548,0,0
-616,-524,0,0,0,0,0,0,0,0,0,-1,608,1548,0,0
-609,-524,0,0,0,0,0,0,0,0,0,-1,615,1548,0,0
-602,-524,0,0,0,0,0,0,0,0,0,-1,622,1548,0,0
-595,-524,0,0,0,0,0,0,0,0,0,-1,629,1548,0,0
-588,-524,0,0,0,0,0,0,0,0,0,-1,636,1548,0,0
-581,-524,0,0,0,0,0,0,0,0,0,-1,643,1548,0,0
-574,-524,0,0,0,0,0,0,0,0,0,-1,650,1548,0,0
-567,-524,0,0,0,0,0,0,0,0,0,-1,657,1548,0,0
-560,-524,0,0,0,0,0,0,0,0,0,-1,664,1548,0,0
-553,-524,0,0,0,0,0,0,0,0,0,-1,671,1548,0,0
-546,-524,0,0,0,0,0,0,0,0,0,-1,678,1548,0,0
-539,-524,0,0,0,0,0,0,0,0,0,-1,685,1548,0,0
-532,-524,0,0,0,0,0,0,0,0,0,-1,692,1548,0,0
-525,-524,-5.90912,6.1665,0.28132,0.0140137,0.0307847,0.284819,0.0105142,0.113192,0.186474,0.0458044,699,1548,-5.90909,-6.16649
-518,-524,-4.05884,5.65247,0.230267,0.0207063,0.0277955,0.233891,0.0170822,0.129651,0.150556,0.0483823,706,1548,-4.05881,-5.65251
-511,-524,-2.25232,5.25269,0,0,0,0,0,0,0,-1,713,1548,-2.2523,-5.25268
-504,-524,0.498596,0.950562,0,0,0,0,0,0,0,-1,720,1548,0.498573,-0.950584
-497,-524,-1.36365,4.09314,0,0,0,0,0,0,0,-1,727,1548,-1.36366,-4.09308
-490,-524,-1.00616,4.50879,0.0761327,0.037051,0.0247837,0.0881525,0.0250312,0.451567,0.0524547,0.045374,734,1548,-1.00615,-4.50873
-483,-524,-0.401794,4.62964,0.0524089,0.0356208,0.0230619,0.0685569,0.0194728,0.610861,0.0407935,0.0443758,741,1548,-0.401808,-4.62958
-476,-524,-0.177612,4.84314,0.0351456,0.0325793,0.0209269,0.0548286,0.0128963,0.754778,0.0331019,0.0447164,748,1548,-0.177621,-4.84319
-469,-524,-0.133667,5.04004,0.0198947,0.0288391,0.0180653,0.0429775,0.00575621,0.906737,0.0269387,0.0326381,755,1548,-0.133681,-5.04008
-462,-524,-0.163696,5.29675,0.00941603,0.0255499,0.0156741,0.0351112,-0.000145258,1.02305,0.023456,0.0226994,762,1548,-0.163681,-5.29669
-455,-524,-0.186462,5.50061,0.00620913,0.0197519,0.0131375,0.0277605,-0.00179939,1.02335,0.019135,0.0151309,769,1548,-0.186454,-5.50057
-448,-524,-0.172424,5.69971,0.00428082,0.0145886,0.0104483,0.021085,-0.00221556,1.01453,0.0148504,0.0125446,776,1548,-0.172449,-5.69969
-441,-524,-0.176697,5.87756,0.00331749,0.0101621,0.00783582,0.0152903,-0.00181078,0.991288,0.0108476,0.0111124,783,1548,-0.176719,-5.87754
-434,-524,-0.137939,6.06152,0.00229675,0.00657626,0.00607733,0.0108795,-0.00200652,0.954665,0.00800611,0.0125848,790,1548,-0.137954,-6.06148
-427,-524,-0.143066,6.25867,0.00237613,0.00296962,0.00404088,0.00672464,-0.00137888,0.82205,0.00500642,0.0126823,797,1548,-0.143049,-6.25872
-420,-524,-0.169189,6.479,0.00336097,0.000688599,0.00244649,0.00481239,-0.000762818,0.535452,0.00349043,0.00973816,804,1548,-0.169166,-6.479
-413,-524,-0.177185,6.68103,0.00420533,-0.000952074,0.00170531,0.00471819,-0.00146494,0.292141,0.00373091,0.0094135,811,1548,-0.177187,-6.68097
-406,-524,-0.165894,6.87939,0.00509479,-0.00269685,0.000957433,0.00521072,-0.00281277,0.120492,0.00470082,0.0109351,818,1548,-0.165916,-6.87937
-399,-524,-0.163879,7.07458,0.00615855,-0.00421399,0.00066268,0.00620072,-0.00425616,0.0635436,0.00607197,0.00868354,825,1548,-0.163895,-7.07457
-392,-524,-0.167725,7.26086,0.00733496,-0.00542538,0.000600953,0.0073632,-0.00545362,0.0469568,0.00742712,0.00953357,832,1548,-0.167719,-7.26091
-385,-524,-0.180298,7.48193,0.00868795,-0.00681032,0.000591425,0.00871049,-0.00683286,0.0380869,0.00899575,0.0117945,839,1548,-0.180277,-7.48195
-378,-524,-0.147339,7.76379,0.00956923,-0.00877007,0.00121404,0.00964925,-0.00885008,0.065816,0.0106839,0.018585,846,1548,-0.14735,-7.76376
-371,-524,-0.0485229,7.91016,0.00988749,-0.0121439,0.00282198,0.0102432,-0.0124996,0.125393,0.0131521,0.0350092,853,1548,-0.0485285,-7.91021
-364,-524,-0.0509033,7.82898,0.0102402,-0.0154726,0.00443866,0.0109848,-0.0162172,0.166218,0.0158017,0.0390434,860,1548,-0.0509321,-7.82896
-357,-524,-0.166504,7.74719,0.0103425,-0.013998,0.00368537,0.0108883,-0.0145438,0.14702,0.0147337,0.0483156,867,1548,-0.166477,-7.74722
-350,-524,-0.375183,8.3833,0,0,0,0,0,0,0,-1,874,1548,-0.37518,-8.38328
-343,-524,1.85645,5.45215,0,0,0,0,0,0,0,-1,881,1548,1.85646,-5.45217
-336,-524,2.77802,5.96558,0,0,0,0,0,0,0,-1,888,1548,2.77804,-5.96554
-329,-524,0.881226,7.98999,0,0,0,0,0,0,0,-1,895,1548,0.881242,-7.98997
-322,-524,1.11176,7.57849,0,0,0,0,0,0,0,-1,902,1548,1.11178,-7.57843
-315,-524,-0.0593872,7.28699,0,0,0,0,0,0,0,-1,909,1548,-0.0593821,-7.28694
-308,-524,-1.90564,9.33582,0,0,0,0,0,0,0,-1,916,1548,-1.90563,-9.33577
-301,-524,-1.59973,9.88318,0.0217762,0.0211202,-0.0297353,0.0511853,-0.00828894,-0.779883,0.0371957,0.0470648,923,1548,-1.59973,-9.88321
-294,-524,-1.32819,10.4485,0.0276893,0.030366,-0.0391728,0.0682233,-0.010168,-0.802474,0.0492229,0.0479663,930,1548,-1.32821,-10.4485
-287,-524,-1.04639,11.0281,0,0,0,0,0,0,0,-1,937,1548,-1.04641,-11.0281
-280,-524,-1.99243,9.78064,0,0,0,0,0,0,0,-1,944,1548,-1.99241,-9.78061
-273,-524,0,0,0,0,0,0,0,0,0,-1,951,1548,0,0
-266,-524,0,0,0,0,0,0,0,0,0,-1,958,1548,0,0
-259,-524,0,0,0,0,0,0,0,0,0,-1,965,1548,0,0
-252,-524,0,0,0,0,0,0,0,0,0,-1,972,1548,0,0
-245,-524,0,0,0,0,0,0,0,0,0,-1,979,1548,0,0
-238,-524,0,0,0,0,0,0,0,0,0,-1,986,1548,0,0
-231,-524,0,0,0,0,0,0,0,0,0,-1,993,1548,0,0
-224,-524,0,0,0,0,0,0,0,0,0,-1,1000,1548,0,0
-217,-524,0,0,0,0,0,0,0,0,0,-1,1007,1548,0,0
-210,-524,0,0,0,0,0,0,0,0,0,-1,1014,1548,0,0
-203,-524,0,0,0,0,0,0,0,0,0,-1,1021,1548,0,0
-196,-524,0,0,0,0,0,0,0,0,0,-1,1028,1548,0,0
-189,-524,0,0,0,0,0,0,0,0,0,-1,1035,1548,0,0
-182,-524,0,0,0,0,0,0,0,0,0,-1,1042,1548,0,0
-175,-524,0,0,0,0,0,0,0,0,0,-1,1049,1548,0,0
-168,-524,0,0,0,0,0,0,0,0,0,-1,1056,1548,0,0
-161,-524,0,0,0,0,0,0,0,0,0,-1,1063,1548,0,0
-154,-524,0,0,0,0,0,0,0,0,0,-1,1070,1548,0,0
-147,-524,0,0,0,0,0,0,0,0,0,-1,1077,1548,0,0
-140,-524,0,0,0,0,0,0,0,0,0,-1,1084,1548,0,0
-133,-524,0,0,0,0,0,0,0,0,0,-1,1091,1548,0,0
-126,-524,0,0,0,0,0,0,0,0,0,-1,1098,1548,0,0
-119,-524,0,0,0,0,0,0,0,0,0,-1,1105,1548,0,0
-112,-524,0,0,0,0,0,0,0,0,0,-1,1112,1548,0,0
-105,-524,0,0,0,0,0,0,0,0,0,-1,1119,1548,0,0
-98,-524,0,0,0,0,0,0,0,0,0,-1,1126,1548,0,0
-91,-524,0,0,0,0,0,0,0,0,0,-1,1133,1548,0,0
-84,-524,0,0,0,0,0,0,0,0,0,-1,1140,1548,0,0
-77,-524,0,0,0,0,0,0,0,0,0,-1,1147,1548,0,0
-70,-524,0,0,0,0,0,0,0,0,0,-1,1154,1548,0,0
-63,-524,0,0,0,0,0,0,0,0,0,-1,1161,1548,0,0
-56,-524,0,0,0,0,0,0,0,0,0,-1,1168,1548,0,0
-49,-524,0,0,0,0,0,0,0,0,0,-1,1175,1548,0,0
-42,-524,0,0,0,0,0,0,0,0,0,-1,1182,1548,0,0
-35,-524,0,0,0,0,0,0,0,0,0,-1,1189,1548,0,0
-28,-524,0,0,0,0,0,0,0,0,0,-1,1196,1548,0,0
-21,-524,0,0,0,0,0,0,0,0,0,-1,1203,1548,0,0
-14,-524,0,0,0,0,0,0,0,0,0,-1,1210,1548,0,0
-7,-524,0,0,0,0,0,0,0,0,0,-1,1217,1548,0,0
0,-524,0,0,0,0,0,0,0,0,0,-1,1224,1548,0,0
7,-524,0,0,0,0,0,0,0,0,0,-1,1231,1548,0,0
14,-524,0,0,0,0,0,0,0,0,0,-1,1238,1548,0,0
21,-524,0,0,0,0,0,0,0,0,0,-1,1245,1548,0,0
28,-524,0,0,0,0,0,0,0,0,0,-1,1252,1548,0,0
35,-524,0,0,0,0,0,0,0,0,0,-1,1259,1548,0,0
42,-524,0,0,0,0,0,0,0,0,0,-1,1266,1548,0,0
49,-524,0,0,0,0,0,0,0,0,0,-1,1273,1548,0,0
56,-524,0,0,0,0,0,0,0,0,0,-1,1280,1548,0,0
63,-524,0,0,0,0,0,0,0,0,0,-1,1287,1548,0,0
70,-524,0,0,0,0,0,0,0,0,0,-1,1294,1548,0,0
77,-524,0,0,0,0,0,0,0,0,0,-1,1301,1548,0,0
84,-524,0,0,0,0,0,0,0,0,0,-1,1308,1548,0,0
91,-524,0,0,0,0,0,0,0,0,0,-1,1315,1548,0,0
98,-524,0,0,0,0,0,0,0,0,0,-1,1322,1548,0,0
105,-524,0,0,0,0,0,0,0,0,0,-1,1329,1548,0,0
112,-524,0,0,0,0,0,0,0,0,0,-1,1336,1548,0,0
119,-524,0,0,0,0,0,0,0,0,0,-1,1343,1548,0,0
126,-524,0,0,0,0,0,0,0,0,0,-1,1350,1548,0,0
133,-524,0,0,0,0,0,0,0,0,0,-1,1357,1548,0,0
140,-524,0,0,0,0,0,0,0,0,0,-1,1364,1548,0,0
147,-524,0,0,0,0,0,0,0,0,0,-1,1371,1548,0,0
154,-524,0,0,0,0,0,0,0,0,0,-1,1378,1548,0,0
161,-524,0,0,0,0,0,0,0,0,0,-1,1385,1548,0,0
168,-524,0,0,0,0,0,0,0,0,0,-1,1392,1548,0,0
175,-524,0,0,0,0,0,0,0,0,0,-1,1399,1548,0,0
182,-524,0,0,0,0,0,0,0,0,0,-1,1406,1548,0,0
189,-524,0,0,0,0,0,0,0,0,0,-1,1413,1548,0,0
196,-524,0,0,0,0,0,0,0,0,0,-1,1420,1548,0,0
203,-524,0,0,0,0,0,0,0,0,0,-1,1427,1548,0,0
210,-524,0,0,0,0,0,0,0,0,0,-1,1434,1548,0,0
217,-524,0,0,0,0,0,0,0,0,0,-1,1441,1548,0,0
224,-524,0,0,0,0,0,0,0,0,0,-1,1448,1548,0,0
231,-524,0,0,0,0,0,0,0,0,0,-1,1455,1548,0,0
238,-524,0,0,0,0,0,0,0,0,0,-1,1462,1548,0,0
245,-524,0,0,0,0,0,0,0,0,0,-1,1469,1548,0,0
252,-524,0,0,0,0,0,0,0,0,0,-1,1476,1548,0,0
259,-524,0,0,0,0,0,0,0,0,0,-1,1483,1548,0,0
266,-524,0,0,0,0,0,0,0,0,0,-1,1490,1548,0,0
273,-524,0,0,0,0,0,0,0,0,0,-1,1497,1548,0,0
280,-524,0,0,0,0,0,0,0,0,0,-1,1504,1548,0,0
287,-524,0,0,0,0,0,0,0,0,0,-1,1511,1548,0,0
294,-524,0,0,0,0,0,0,0,0,0,-1,1518,1548,0,0
301,-524,0,0,0,0,0,0,0,0,0,-1,1525,1548,0,0
308,-524,0,0,0,0,0,0,0,0,0,-1,1532,1548,0,0
315,-524,0,0,0,0,0,0,0,0,0,-1,1539,1548,0,0
322,-524,0,0,0,0,0,0,0,0,0,-1,1546,1548,0,0
329,-524,0,0,0,0,0,0,0,0,0,-1,1553,1548,0,0
336,-524,0,0,0,0,0,0,0,0,0,-1,1560,1548,0,0
343,-524,0,0,0,0,0,0,0,0,0,-1,1567,1548,0,0
350,-524,0,0,0,0,0,0,0,0,0,-1,1574,1548,0,0
357,-524,0,0,0,0,0,0,0,0,0,-1,1581,1548,0,0
364,-524,0,0,0,0,0,0,0,0,0,-1,1588,1548,0,0
371,-524,0,0,0,0,0,0,0,0,0,-1,1595,1548,0,0
378,-524,0,0,0,0,0,0,0,0,0,-1,1602,1548,0,0
385,-524,0,0,0,0,0,0,0,0,0,-1,1609,1548,0,0
392,-524,0,0,0,0,0,0,0,0,0,-1,1616,1548,0,0
399,-524,8.13403,4.49084,0,0,0,0,0,0,0,-1,1623,1548,8.13399,-4.4909
406,-524,8.64294,6.06799,0,0,0,0,0,0,0,-1,1630,1548,8.6429,-6.06805
413,-524,11.677,6.41858,0,0,0,0,0,0,0,-1,1637,1548,11.677,-6.41864
420,-524,11.4913,6.36401,0,0,0,0,0,0,0,-1,1644,1548,11.4913,-6.36402
427,-524,7.68335,6.17249,0,0,0,0,0,0,0,-1,1651,1548,7.68341,-6.17245
434,-524,9.63916,7.99463,0,0,0,0,0,0,0,-1,1658,1548,9.63919,-7.99464
441,-524,8.78552,4.12305,0,0,0,0,0,0,0,-1,1665,1548,8.78553,-4.12301
448,-524,10.3914,3.2467,0,0,0,0,0,0,0,-1,1672,1548,10.3914,-3.24668
455,-524,10.6394,4.00781,0,0,0,0,0,0,0,-1,1679,1548,10.6394,-4.00786
462,-524,10.8875,4.76904,0,0,0,0,0,0,0,-1,1686,1548,10.8875,-4.76904
469,-524,8.50928,4.75024,0,0,0,0,0,0,0,-1,1693,1548,8.5093,-4.75027
476,-524,8.27759,6.96704,0,0,0,0,0,0,0,-1,1700,1548,8.27765,-6.96707
483,-524,8.823,7.86841,-0.0215985,-0.0538734,0.0512736,0.0160172,-0.0914891,0.63294,0.0669733,0.046152,1707,1548,8.82304,-7.86836
490,-524,8.4823,8.44824,-0.0189902,-0.0429707,0.0428371,0.0135031,-0.075464,0.648939,0.055362,0.043035,1714,1548,8.48232,-8.44818
497,-524,7.9408,9.03003,-0.0161754,-0.0336357,0.0352665,0.0114255,-0.0612366,0.664063,0.0451177,0.0329814,1721,1548,7.94077,-9.03002
504,-524,7.9126,8.9751,-0.0136609,-0.0258387,0.0285086,0.00940184,-0.0489014,0.680188,0.0361448,0.0189599,1728,1548,7.91254,-8.97508
511,-524,7.88672,8.88318,-0.0111398,-0.0194159,0.0222871,0.00739015,-0.0379458,0.693608,0.0280866,0.0170779,1735,1548,7.88667,-8.88318
518,-524,7.92041,8.72266,-0.00886523,-0.0142649,0.0168565,0.00550624,-0.0286364,0.705989,0.0211664,0.015465,1742,1548,7.92036,-8.7227
525,-524,7.93726,8.57947,-0.0068376,-0.0102217,0.0122588,0.00384538,-0.0209047,0.716817,0.0153793,0.013029,1749,1548,7.93723,-8.57951
532,-524,7.9165,8.40747,-0.00503999,-0.00703325,0.00844665,0.00246862,-0.0145419,0.726674,0.0106136,0.00890862,1756,1548,7.91656,-8.40742
539,-524,7.92139,8.21887,-0.00344948,-0.00434911,0.00533165,0.0014513,-0.00924989,0.743314,0.00670294,0.00997516,1763,1548,7.92136,-8.21881
546,-524,7.93176,8.03223,-0.00209396,-0.00222242,0.00301397,0.000856461,-0.00517284,0.774744,0.00376665,0.0130606,1770,1548,7.93176,-8.03217
553,-524,7.95068,7.88733,-0.000967692,-0.000425546,0.00116901,0.000503405,-0.00189664,0.899326,0.00146142,0.0203752,1777,1548,7.95064,-7.88728
560,-524,7.9469,7.70325,2.52366e-05,0.000932973,-9.95667e-05,0.000943766,1.44438e-05,-1.46282,0.000624419,0.0293129,1784,1548,7.94693,-7.70324
567,-524,7.92334,7.5343,0.000798112,0.00222713,-0.00102229,0.00275986,0.00026538,-1.0904,0.00175814,0.0171879,1791,1548,7.92332,-7.53427
574,-524,7.92468,7.34656,0.00130416,0.00355104,-0.0016482,0.00442226,0.00043294,-1.08454,0.00281498,0.0130319,1798,1548,7.92467,-7.34652
581,-524,7.92456,7.16602,0.00169033,0.0047514,-0.00213732,0.00584968,0.000592052,-1.09612,0.00371819,0.0148675,1805,1548,7.92451,-7.166
588,-524,7.9425,6.98779,0.00253187,0.00593149,-0.00329318,0.00793768,0.000525685,-1.02364,0.00512555,0.0150906,1812,1548,7.94252,-6.98782
595,-524,7.94678,6.78577,0.00324811,0.00690593,-0.00442111,0.00986148,0.000292555,-0.981519,0.006479,0.0145414,1819,1548,7.94675,-6.78577
602,-524,8.06812,6.56836,0.00447365,0.00785871,-0.00578677,0.0121954,0.000136967,-0.927671,0.00808499,0.027604,1826,1548,8.06814,-6.56836
609,-524,8.29712,6.5957,0.00614977,0.00849631,-0.00783952,0.0152499,-0.000603786,-0.859677,0.0103737,0.0420323,1833,1548,8.29718,-6.59574
616,-524,8.45898,6.52002,0,0,0,0,0,0,0,-1,1840,1548,8.45903,-6.52004
623,-524,9.41785,4.4386,0,0,0,0,0,0,0,-1,1847,1548,9.41789,-4.43859
630,-524,9.72314,4.48669,0,0,0,0,0,0,0,-1,1854,1548,9.72315,-4.48668
637,-524,11.0884,3.10242,0,0,0,0,0,0,0,-1,1861,1548,11.0884,-3.10244
644,-524,12.4685,1.35266,0,0,0,0,0,0,0,-1,1868,1548,12.4686,-1.35261
651,-524,0,0,0,0,0,0,0,0,0,-1,1875,1548,0,0
658,-524,0,0,0,0,0,0,0,0,0,-1,1882,1548,0,0
665,-524,0,0,0,0,0,0,0,0,0,-1,1889,1548,0,0
672,-524,0,0,0,0,0,0,0,0,0,-1,1896,1548,0,0
679,-524,0,0,0,0,0,0,0,0,0,-1,1903,1548,0,0
686,-524,0,0,0,0,0,0,0,0,0,-1,1910,1548,0,0
693,-524,0,0,0,0,0,0,0,0,0,-1,1917,1548,0,0
700,-524,0,0,0,0,0,0,0,0,0,-1,1924,1548,0,0
707,-524,0,0,0,0,0,0,0,0,0,-1,1931,1548,0,0
714,-524,0,0,0,0,0,0,0,0,0,-1,1938,1548,0,0
721,-524,0,0,0,0,0,0,0,0,0,-1,1945,1548,0,0
728,-524,0,0,0,0,0,0,0,0,0,-1,1952,1548,0,0
735,-524,0,0,0,0,0,0,0,0,0,-1,1959,1548,0,0
742,-524,0,0,0,0,0,0,0,0,0,-1,1966,1548,0,0
749,-524,0,0,0,0,0,0,0,0,0,-1,1973,1548,0,0
756,-524,0,0,0,0,0,0,0,0,0,-1,1980,1548,0,0
763,-524,0,0,0,0,0,0,0,0,0,-1,1987,1548,0,0
770,-524,0,0,0,0,0,0,0,0,0,-1,1994,1548,0,0
777,-524,0,0,0,0,0,0,0,0,0,-1,2001,1548,0,0
784,-524,0,0,0,0,0,0,0,0,0,-1,2008,1548,0,0
791,-524,0,0,0,0,0,0,0,0,0,-1,2015,1548,0,0
798,-524,0,0,0,0,0,0,0,0,0,-1,2022,1548,0,0
805,-524,0,0,0,0,0,0,0,0,0,-1,2029,1548,0,0
812,-524,0,0,0,0,0,0,0,0,0,-1,2036,1548,0,0
-700,-531,0,0,0,0,0,0,0,0,0,-1,524,1555,0,0
-693,-531,0,0,0,0,0,0,0,0,0,-1,531,1555,0,0
-686,-531,0,0,0,0,0,0,0,0,0,-1,538,1555,0,0
-679,-531,0,0,0,0,0,0,0,0,0,-1,545,1555,0,0
-672,-531,0,0,0,0,0,0,0,0,0,-1,552,1555,0,0
-665,-531,0,0,0,0,0,0,0,0,0,-1,559,1555,0,0
-658,-531,0,0,0,0,0,0,0,0,0,-1,566,1555,0,0
-651,-531,0,0,0,0,0,0,0,0,0,-1,573,1555,0,0
-644,-531,0,0,0,0,0,0,0,0,0,-1,580,1555,0,0
-637,-531,0,0,0,0,0,0,0,0,0,-1,587,1555,0,0
-630,-531,0,0,0,0,0,0,0,0,0,-1,594,1555,0,0
-623,-531,0,0,0,0,0,0,0,0,0,-1,601,1555,0,0
-616,-531,0,0,0,0,0,0,0,0,0,-1,608,1555,0,0
-609,-531,0,0,0,0,0,0,0,0,0,-1,615,1555,0,0
-602,-531,0,0,0,0,0,0,0,0,0,-1,622,1555,0,0
-595,-531,0,0,0,0,0,0,0,0,0,-1,629,1555,0,0
-588,-531,0,0,0,0,0,0,0,0,0,-1,636,1555,0,0
-581,-531,0,0,0,0,0,0,0,0,0,-1,643,1555,0,0
-574,-531,0,0,0,0,0,0,0,0,0,-1,650,1555,0,0
-567,-531,0,0,0,0,0,0,0,0,0,-1,657,1555,0,0
-560,-531,0,0,0,0,0,0,0,0,0,-1,664,1555,0,0
-553,-531,0,0,0,0,0,0,0,0,0,-1,671,1555,0,0
-546,-531,0,0,0,0,0,0,0,0,0,-1,678,1555,0,0
-539,-531,0,0,0,0,0,0,0,0,0,-1,685,1555,0,0
-532,-531,0,0,0,0,0,0,0,0,0,-1,692,1555,0,0
-525,-531,0,0,0,0,0,0,0,0,0,-1,699,1555,0,0
-518,-531,-4.44421,5.58679,0,0,0,0,0,0,0,-1,706,1555,-4.44422,-5.58685
-511,-531,-2.58734,5.21021,0,0,0,0,0,0,0,-1,713,1555,-2.58736,-5.21027
-504,-531,-2.95978,0.557861,0,0,0,0,0,0,0,-1,720,1555,-2.95978,-0.557917
-497,-531,-1.78857,3.65527,0,0,0,0,0,0,0,-1,727,1555,-1.78855,-3.65531
-490,-531,-1.02142,4.00537,0.0856241,0.0539191,0.0408782,0.113616,0.0259272,0.600426,0.068751,0.0486235,734,1555,-1.02139,-4.00539
-483,-531,0.211121,2.95178,0.0595701,0.051672,0.0381507,0.0939756,0.0172665,0.733826,0.0577617,0.0450162,741,1555,0.211137,-2.95184
-476,-531,0.0663452,4.59534,0.0403015,0.0471535,0.0345969,0.0784936,0.00896139,0.83475,0.0496125,0.0466847,748,1555,0.0663704,-4.59528
-469,-531,-0.0210571,4.90332,0.0232562,0.0418232,0.0302834,0.0642141,0.000865307,0.934128,0.0425239,0.0420146,755,1555,-0.0210762,-4.90334
-462,-531,-0.0158691,5.32434,0.0116989,0.0365101,0.0261248,0.0530251,-0.00481611,1.00706,0.0370599,0.0375332,762,1555,-0.0158393,-5.32437
-455,-531,-0.00244141,5.56592,0.00798759,0.0285578,0.0214972,0.0421036,-0.00555822,1.00852,0.0300934,0.0261654,769,1555,-0.00243293,-5.5659
-448,-531,0.0560303,5.69543,0.00558577,0.0214274,0.0168745,0.0321476,-0.00513441,1.00483,0.0233323,0.0127529,776,1555,0.0560069,-5.6954
-441,-531,0.0160522,5.87463,0.00417921,0.0153606,0.0126119,0.0235654,-0.00402562,0.994026,0.0172098,0.0117641,783,1555,0.0160261,-5.87465
-434,-531,0.0286865,6.0769,0.00266578,0.0104211,0.00958081,0.0168792,-0.00379234,0.977687,0.012707,0.0114774,790,1555,0.0286729,-6.07685
-427,-531,0.0413208,6.27661,0.00229629,0.0056733,0.00631919,0.0105257,-0.0025561,0.915949,0.00800634,0.01264,797,1555,0.0413099,-6.27663
-420,-531,0.0274048,6.49585,0.00285219,0.00258106,0.00372997,0.00644906,-0.0010158,0.767233,0.0046749,0.0112853,804,1555,0.0273746,-6.49589
-413,-531,0.0206909,6.68921,0.00341669,0.000657568,0.00252129,0.00491117,-0.000836905,0.535066,0.00358578,0.00967192,811,1555,0.0206716,-6.68918
-406,-531,0.0383911,6.87549,0.00398502,-0.00139432,0.00127287,0.004271,-0.00168031,0.221008,0.00354285,0.0108789,818,1555,0.0383834,-6.87544
-399,-531,0.0501099,7.06689,0.00466131,-0.00304006,0.000635373,0.00471338,-0.00309213,0.0817646,0.0045388,0.0121949,825,1555,0.0501295,-7.06688
-392,-531,0.0397339,7.27087,0.00542427,-0.00415767,0.000410848,0.00544186,-0.00417525,0.0427727,0.00556847,0.0154064,832,1555,0.0397131,-7.27091
-385,-531,0.0108643,7.47241,0.00631918,-0.00528366,0.000315849,0.00632777,-0.00529225,0.0271949,0.0067177,0.0138123,839,1555,0.010887,-7.47246
-378,-531,0.0140381,7.63599,0.0068102,-0.00689271,0.000832167,0.00686055,-0.00694306,0.0604332,0.00796957,0.011267,846,1555,0.0140546,-7.63604
-371,-531,0.0578613,7.86084,0.00683683,-0.00959197,0.00215887,0.00711578,-0.00987092,0.128502,0.00985018,0.0141038,853,1555,0.0578594,-7.86084
-364,-531,0.126526,8.04248,0.00688395,-0.0121738,0.00343528,0.00748427,-0.0127741,0.173005,0.0118283,0.0266433,860,1555,0.12654,-8.04242
-357,-531,-0.046936,8.02856,0.00673027,-0.0110245,0.00286757,0.00718193,-0.0114761,0.15622,0.0108669,0.0357251,867,1555,-0.046926,-8.02855
-350,-531,0.0783691,8.24988,0.00706155,-0.0112054,0.00141865,0.00717107,-0.0113149,0.0770467,0.0107619,0.0453169,874,1555,0.0783849,-8.24986
-343,-531,0.45282,8.23706,0,0,0,0,0,0,0,-1,881,1555,0.452795,-8.2371
-336,-531,0.84375,8.13611,0,0,0,0,0,0,0,-1,888,1555,0.843749,-8.13614
-329,-531,0.910583,8.19214,0.00896149,-0.00435823,-0.00544245,0.0109025,-0.00629918,-0.342571,0.0100492,0.0464099,895,1555,0.910573,-8.19219
-322,-531,1.06537,8.0481,0.00893947,0.000302756,-0.00900535,0.0146083,-0.00536611,-0.561828,0.0119367,0.0467062,902,1555,1.06537,-8.04809
-315,-531,1.0155,7.79614,0,0,0,0,0,0,0,-1,909,1555,1.01551,-7.79614
-308,-531,-1.25482,10.7084,0.0126425,0.013513,-0.0191953,0.032278,-0.00612254,-0.796734,0.0238232,0.0460204,916,1555,-1.25482,-10.7083
-301,-531,-0.848694,10.2446,0.0173413,0.0208216,-0.0258863,0.0450262,-0.0068633,-0.818959,0.0325473,0.043859,923,1555,-0.848693,-10.2446
-294,-531,-0.741821,10.252,0.022947,0.0281868,-0.0342785,0.0599454,-0.00881155,-0.823539,0.0432014,0.0478778,930,1555,-0.741832,-10.2519
-287,-531,-0.461792,10.8096,0,0,0,0,0,0,0,-1,937,1555,-0.46182,-10.8096
-280,-531,-1.7738,9.76196,0,0,0,0,0,0,0,-1,944,1555,-1.77378,-9.76194
-273,-531,-5.5531,14.6454,0,0,0,0,0,0,0,-1,951,1555,-5.5531,-14.6454
-266,-531,-6.7038,16.0303,0,0,0,0,0,0,0,-1,958,1555,-6.7038,-16.0303
-259,-531,0,0,0,0,0,0,0,0,0,-1,965,1555,0,0
-252,-531,0,0,0,0,0,0,0,0,0,-1,972,1555,0,0
-245,-531,0,0,0,0,0,0,0,0,0,-1,979,1555,0,0
-238,-531,0,0,0,0,0,0,0,0,0,-1,986,1555,0,0
-231,-531,0,0,0,0,0,0,0,0,0,-1,993,1555,0,0
-224,-531,0,0,0,0,0,0,0,0,0,-1,1000,1555,0,0
-217,-531,0,0,0,0,0,0,0,0,0,-1,1007,1555,0,0
-210,-531,0,0,0,0,0,0,0,0,0,-1,1014,1555,0,0
-203,-531,0,0,0,0,0,0,0,0,0,-1,1021,1555,0,0
-196,-531,0,0,0,0,0,0,0,0,0,-1,1028,1555,0,0
-189,-531,0,0,0,0,0,0,0,0,0,-1,1035,1555,0,0
-182,-531,0,0,0,0,0,0,0,0,0,-1,1042,1555,0,0
-175,-531,0,0,0,0,0,0,0,0,0,-1,1049,1555,0,0
-168,-531,0,0,0,0,0,0,0,0,0,-1,1056,1555,0,0
-161,-531,0,0,0,0,0,0,0,0,0,-1,1063,1555,0,0
-154,-531,0,0,0,0,0,0,0,0,0,-1,1070,1555,0,0
-147,-531,0,0,0,0,0,0,0,0,0,-1,1077,1555,0,0
-140,-531,0,0,0,0,0,0,0,0,0,-1,1084,1555,0,0
-133,-531,0,0,0,0,0,0,0,0,0,-1,1091,1555,0,0
-126,-531,0,0,0,0,0,0,0,0,0,-1,1098,1555,0,0
-119,-531,0,0,0,0,0,0,0,0,0,-1,1105,1555,0,0
-112,-531,0,0,0,0,0,0,0,0,0,-1,1112,1555,0,0
-105,-531,0,0,0,0,0,0,0,0,0,-1,1119,1555,0,0
-98,-531,0,0,0,0,0,0,0,0,0,-1,1126,1555,0,0
-91,-531,0,0,0,0,0,0,0,0,0,-1,1133,1555,0,0
-84,-531,0,0,0,0,0,0,0,0,0,-1,1140,1555,0,0
-77,-531,0,0,0,0,0,0,0,0,0,-1,1147,1555,0,0
-70,-531,0,0,0,0,0,0,0,0,0,-1,1154,1555,0,0
-63,-531,0,0,0,0,0,0,0,0,0,-1,1161,1555,0,0
-56,-531,0,0,0,0,0,0,0,0,0,-1,1168,1555,0,0
-49,-531,0,0,0,0,0,0,0,0,0,-1,1175,1555,0,0
-42,-531,0,0,0,0,0,0,0,0,0,-1,1182,1555,0,0
-35,-531,0,0,0,0,0,0,0,0,0,-1,1189,1555,0,0
-28,-531,0,0,0,0,0,0,0,0,0,-1,1196,1555,0,0
-21,-531,0,0,0,0,0,0,0,0,0,-1,1203,1555,0,0
-14,-531,0,0,0,0,0,0,0,0,0,-1,1210,1555,0,0
-7,-531,0,0,0,0,0,0,0,0,0,-1,1217,1555,0,0
0,-531,0,0,0,0,0,0,0,0,0,-1,1224,1555,0,0
7,-531,0,0,0,0,0,0,0,0,0,-1,1231,1555,0,0
14,-531,0,0,0,0,0,0,0,0,0,-1,1238,1555,0,0
21,-531,0,0,0,0,0,0,0,0,0,-1,1245,1555,0,0
28,-531,0,0,0,0,0,0,0,0,0,-1,1252,1555,0,0
35,-531,0,0,0,0,0,0,0,0,0,-1,1259,1555,0,0
42,-531,0,0,0,0,0,0,0,0,0,-1,1266,1555,0,0
49,-531,0,0,0,0,0,0,0,0,0,-1,1273,1555,0,0
56,-531,0,0,0,0,0,0,0,0,0,-1,1280,1555,0,0
63,-531,0,0,0,0,0,0,0,0,0,-1,1287,1555,0,0
70,-531,0,0,0,0,0,0,0,0,0,-1,1294,1555,0,0
77,-531,0,0,0,0,0,0,0,0,0,-1,1301,1555,0,0
84,-531,0,0,0,0,0,0,0,0,0,-1,1308,1555,0,0
91,-531,0,0,0,0,0,0,0,0,0,-1,1315,1555,0,0
98,-531,0,0,0,0,0,0,0,0,0,-1,1322,1555,0,0
105,-531,0,0,0,0,0,0,0,0,0,-1,1329,1555,0,0
112,-531,0,0,0,0,0,0,0,0,0,-1,1336,1555,0,0
119,-531,0,0,0,0,0,0,0,0,0,-1,1343,1555,0,0
126,-531,0,0,0,0,0,0,0,0,0,-1,1350,1555,0,0
133,-531,0,0,0,0,0,0,0,0,0,-1,1357,1555,0,0
140,-531,0,0,0,0,0,0,0,0,0,-1,1364,1555,0,0
147,-531,0,0,0,0,0,0,0,0,0,-1,1371,1555,0,0
154,-531,0,0,0,0,0,0,0,0,0,-1,1378,1555,0,0
161,-531,0,0,0,0,0,0,0,0,0,-1,1385,1555,0,0
168,-531,0,0,0,0,0,0,0,0,0,-1,1392,1555,0,0
175,-531,0,0,0,0,0,0,0,0,0,-1,1399,1555,0,0
182,-531,0,0,0,0,0,0,0,0,0,-1,1406,1555,0,0
189,-531,0,0,0,0,0,0,0,0,0,-1,1413,1555,0,0
196,-531,0,0,0,0,0,0,0,0,0,-1,1420,1555,0,0
203,-531,0,0,0,0,0,0,0,0,0,-1,1427,1555,0,0
210,-531,0,0,0,0,0,0,0,0,0,-1,1434,1555,0,0
217,-531,0,0,0,0,0,0,0,0,0,-1,1441,1555,0,0
224,-531,0,0,0,0,0,0,0,0,0,-1,1448,1555,0,0
231,-531,0,0,0,0,0,0,0,0,0,-1,1455,1555,0,0
238,-531,0,0,0,0,0,0,0,0,0,-1,1462,1555,0,0
245,-531,0,0,0,0,0,0,0,0,0,-1,1469,1555,0,0
252,-531,0,0,0,0,0,0,0,0,0,-1,1476,1555,0,0
259,-531,0,0,0,0,0,0,0,0,0,-1,1483,1555,0,0
266,-531,0,0,0,0,0,0,0,0,0,-1,1490,1555,0,0
273,-531,0,0,0,0,0,0,0,0,0,-1,1497,1555,0,0
280,-531,0,0,0,0,0,0,0,0,0,-1,1504,1555,0,0
287,-531,0,0,0,0,0,0,0,0,0,-1,1511,1555,0,0
294,-531,0,0,0,0,0,0,0,0,0,-1,1518,1555,0,0
301,-531,0,0,0,0,0,0,0,0,0,-1,1525,1555,0,0
308,-531,0,0,0,0,0,0,0,0,0,-1,1532,1555,0,0
315,-531,0,0,0,0,0,0,0,0,0,-1,1539,1555,0,0
322,-531,0,0,0,0,0,0,0,0,0,-1,1546,1555,0,0
329,-531,0,0,0,0,0,0,0,0,0,-1,1553,1555,0,0
336,-531,0,0,0,0,0,0,0,0,0,-1,1560,1555,0,0
343,-531,0,0,0,0,0,0,0,0,0,-1,1567,1555,0,0
350,-531,0,0,0,0,0,0,0,0,0,-1,1574,1555,0,0
357,-531,0,0,0,0,0,0,0,0,0,-1,1581,1555,0,0
364,-531,0,0,0,0,0,0,0,0,0,-1,1588,1555,0,0
371,-531,0,0,0,0,0,0,0,0,0,-1,1595,1555,0,0
378,-531,0,0,0,0,0,0,0,0,0,-1,1602,1555,0,0
385,-531,3.13403,1.88721,0,0,0,0,0,0,0,-1,1609,1555,3.13401,-1.88726
392,-531,8.49451,7.77673,0,0,0,0,0,0,0,-1,1616,1555,8.49447,-7.77677
399,-531,8.26306,5.29602,0,0,0,0,0,0,0,-1,1623,1555,8.26302,-5.29607
406,-531,8.26147,5.42712,0,0,0,0,0,0,0,-1,1630,1555,8.26145,-5.42716
413,-531,8.20618,5.75012,0,0,0,0,0,0,0,-1,1637,1555,8.20619,-5.75017
420,-531,7.64868,7.09558,0,0,0,0,0,0,0,-1,1644,1555,7.64867,-7.09564
427,-531,8.19263,7.02405,0,0,0,0,0,0,0,-1,1651,1555,8.19269,-7.02407
434,-531,8.07349,5.4751,0,0,0,0,0,0,0,-1,1658,1555,8.07347,-5.47512
441,-531,8.90076,5.23291,0,0,0,0,0,0,0,-1,1665,1555,8.90074,-5.23295
448,-531,9.86816,4.59766,0,0,0,0,0,0,0,-1,1672,1555,9.86818,-4.59762
455,-531,10.0073,5.36377,0,0,0,0,0,0,0,-1,1679,1555,10.0074,-5.36377
462,-531,9.74646,6.61975,0,0,0,0,0,0,0,-1,1686,1555,9.74645,-6.61979
469,-531,7.6825,6.49353,0,0,0,0,0,0,0,-1,1693,1555,7.68251,-6.4935
476,-531,8.03821,8.29089,0,0,0,0,0,0,0,-1,1700,1555,8.03824,-8.29084
483,-531,8.20544,8.651,-0.0162564,-0.0449717,0.0399417,0.0118298,-0.0730579,0.612857,0.0530897,0.0460094,1707,1555,8.20543,-8.65101
490,-531,7.91736,9.14063,-0.0140333,-0.0356271,0.0336534,0.0105127,-0.0601731,0.630171,0.0440399,0.0347269,1714,1555,7.91731,-9.14066
497,-531,7.7251,9.1731,-0.0118605,-0.0277085,0.0278266,0.00914829,-0.0487173,0.646688,0.0359181,0.0166338,1721,1555,7.72515,-9.17304
504,-531,7.71948,9.0625,-0.00983281,-0.0209871,0.0225548,0.00782409,-0.038644,0.664193,0.0287281,0.0118095,1728,1555,7.71948,-9.06251
511,-531,7.71912,8.90576,-0.0077825,-0.0154791,0.0176223,0.00640676,-0.0296684,0.677897,0.0222245,0.0137059,1735,1555,7.71906,-8.90582
518,-531,7.7262,8.74976,-0.0059275,-0.0110092,0.013202,0.0049759,-0.0219126,0.690331,0.0165187,0.0141546,1742,1555,7.72618,-8.74974
525,-531,7.74976,8.57056,-0.00428681,-0.00754157,0.00941136,0.00363684,-0.0154652,0.699787,0.0117122,0.0125949,1749,1555,7.74972,-8.5706
532,-531,7.77856,8.38831,-0.00286609,-0.00484913,0.00622301,0.0024439,-0.0101591,0.706397,0.00771746,0.00954979,1756,1555,7.77851,-8.38831
539,-531,7.77234,8.21094,-0.00165351,-0.00261225,0.0035987,0.00149761,-0.00576336,0.719185,0.00442671,0.0117185,1763,1555,7.77236,-8.21098
546,-531,7.76526,8.02808,-0.000639975,-0.000781017,0.00161295,0.00090399,-0.00232498,0.763551,0.00192348,0.0151522,1770,1555,7.76531,-8.02813
553,-531,7.80078,7.85339,0.000220444,0.000759237,0.000107981,0.000780072,0.000199609,1.38019,0.000467925,0.0267815,1777,1555,7.80084,-7.85338
560,-531,7.75354,7.72241,0.000973751,0.00195448,-0.000929174,0.00251475,0.000413488,-1.0282,0.00155708,0.0301693,1784,1555,7.7536,-7.72237
567,-531,7.70862,7.53259,0.00146362,0.00321328,-0.00172437,0.00427204,0.000404859,-1.02015,0.00272313,0.0179459,1791,1555,7.70867,-7.53262
574,-531,7.75232,7.35144,0.00185769,0.00462705,-0.00239427,0.00600821,0.000476531,-1.04756,0.00385645,0.0127784,1798,1555,7.75231,-7.35146
581,-531,7.75928,7.16064,0.00223573,0.00604729,-0.00296969,0.00767012,0.000612905,-1.07067,0.00492185,0.0110924,1805,1555,7.7593,-7.16068
588,-531,7.76685,6.94922,0.00338141,0.00768071,-0.00434654,0.0103801,0.000681993,-1.01504,0.00670432,0.0138475,1812,1555,7.76689,-6.94927
595,-531,7.74561,6.67041,0.00440142,0.00937249,-0.00577941,0.0131782,0.000595733,-0.988476,0.00859376,0.0275613,1819,1555,7.74557,-6.67047
602,-531,7.85474,6.30872,0.00606357,0.0113077,-0.00769194,0.0168122,0.000559063,-0.949664,0.0110265,0.0430596,1826,1555,7.85476,-6.30872
609,-531,8.13806,6.20264,0,0,0,0,0,0,0,-1,1833,1555,8.13806,-6.2026
616,-531,7.89709,5.54199,0,0,0,0,0,0,0,-1,1840,1555,7.89709,-5.54197
623,-531,10.3961,5.82263,0,0,0,0,0,0,0,-1,1847,1555,10.3961,-5.82263
630,-531,10.248,3.99646,0,0,0,0,0,0,0,-1,1854,1555,10.248,-3.99643
637,-531,12.1736,2.3468,0,0,0,0,0,0,0,-1,1861,1555,12.1736,-2.34678
644,-531,0,0,0,0,0,0,0,0,0,-1,1868,1555,0,0
651,-531,0,0,0,0,0,0,0,0,0,-1,1875,1555,0,0
658,-531,0,0,0,0,0,0,0,0,0,-1,1882,1555,0,0
665,-531,0,0,0,0,0,0,0,0,0,-1,1889,1555,0,0
672,-531,0,0,0,0,0,0,0,0,0,-1,1896,1555,0,0
679,-531,0,0,0,0,0,0,0,0,0,-1,1903,1555,0,0
686,-531,0,0,0,0,0,0,0,0,0,-1,1910,1555,0,0
693,-531,0,0,0,0,0,0,0,0,0,-1,1917,1555,0,0
700,-531,0,0,0,0,0,0,0,0,0,-1,1924,1555,0,0
707,-531,0,0,0,0,0,0,0,0,0,-1,1931,1555,0,0
714,-531,0,0,0,0,0,0,0,0,0,-1,1938,1555,0,0
721,-531,0,0,0,0,0,0,0,0,0,-1,1945,1555,0,0
728,-531,0,0,0,0,0,0,0,0,0,-1,1952,1555,0,0
735,-531,0,0,0,0,0,0,0,0,0,-1,1959,1555,0,0
742,-531,0,0,0,0,0,0,0,0,0,-1,1966,1555,0,0
749,-531,0,0,0,0,0,0,0,0,0,-1,1973,1555,0,0
756,-531,0,0,0,0,0,0,0,0,0,-1,1980,1555,0,0
763,-531,0,0,0,0,0,0,0,0,0,-1,1987,1555,0,0
770,-531,0,0,0,0,0,0,0,0,0,-1,1994,1555,0,0
777,-531,0,0,0,0,0,0,0,0,0,-1,2001,1555,0,0
784,-531,0,0,0,0,0,0,0,0,0,-1,2008,1555,0,0
791,-531,0,0,0,0,0,0,0,0,0,-1,2015,1555,0,0
798,-531,0,0,0,0,0,0,0,0,0,-1,2022,1555,0,0
805,-531,0,0,0,0,0,0,0,0,0,-1,2029,1555,0,0
812,-531,0,0,0,0,0,0,0,0,0,-1,2036,1555,0,0
-700,-538,0,0,0,0,0,0,0,0,0,-1,524,1562,0,0
-693,-538,0,0,0,0,0,0,0,0,0,-1,531,1562,0,0
-686,-538,0,0,0,0,0,0,0,0,0,-1,538,1562,0,0
-679,-538,0,0,0,0,0,0,0,0,0,-1,545,1562,0,0
-672,-538,0,0,0,0,0,0,0,0,0,-1,552,1562,0,0
-665,-538,0,0,0,0,0,0,0,0,0,-1,559,1562,0,0
-658,-538,0,0,0,0,0,0,0,0,0,-1,566,1562,0,0
-651,-538,0,0,0,0,0,0,0,0,0,-1,573,1562,0,0
-644,-538,0,0,0,0,0,0,0,0,0,-1,580,1562,0,0
-637,-538,0,0,0,0,0,0,0,0,0,-1,587,1562,0,0
-630,-538,0,0,0,0,0,0,0,0,0,-1,594,1562,0,0
-623,-538,0,0,0,0,0,0,0,0,0,-1,601,1562,0,0
-616,-538,0,0,0,0,0,0,0,0,0,-1,608,1562,0,0
-609,-538,0,0,0,0,0,0,0,0,0,-1,615,1562,0,0
-602,-538,0,0,0,0,0,0,0,0,0,-1,622,1562,0,0
-595,-538,0,0,0,0,0,0,0,0,0,-1,629,1562,0,0
-588,-538,0,0,0,0,0,0,0,0,0,-1,636,1562,0,0
-581,-538,0,0,0,0,0,0,0,0,0,-1,643,1562,0,0
-574,-538,0,0,0,0,0,0,0,0,0,-1,650,1562,0,0
-567,-538,0,0,0,0,0,0,0,0,0,-1,657,1562,0,0
-560,-538,0,0,0,0,0,0,0,0,0,-1,664,1562,0,0
-553,-538,0,0,0,0,0,0,0,0,0,-1,671,1562,0,0
-546,-538,0,0,0,0,0,0,0,0,0,-1,678,1562,0,0
-539,-538,0,0,0,0,0,0,0,0,0,-1,685,1562,0,0
-532,-538,0,0,0,0,0,0,0,0,0,-1,692,1562,0,0
-525,-538,0,0,0,0,0,0,0,0,0,-1,699,1562,0,0
-518,-538,0,0,0,0,0,0,0,0,0,-1,706,1562,0,0
-511,-538,-2.6582,-1.54321,0,0,0,0,0,0,0,-1,713,1562,-2.65821,1.54327
-504,-538,-2.66455,-0.71167,0,0,0,0,0,0,0,-1,720,1562,-2.66456,0.711667
-497,-538,-2.42926,-0.0274658,0,0,0,0,0,0,0,-1,727,1562,-2.42927,0.0274374
-490,-538,0.298645,2.43005,0,0,0,0,0,0,0,-1,734,1562,0.298661,-2.43011
-483,-538,1.02179,1.70129,0,0,0,0,0,0,0,-1,741,1562,1.02181,-1.70132
-476,-538,0.0568237,4.59863,0,0,0,0,0,0,0,-1,748,1562,0.0568357,-4.59868
-469,-538,0.270508,4.98242,0.0261124,0.0585634,0.0473842,0.0924231,-0.00774726,0.950353,0.0643535,0.0454499,755,1562,0.270534,-4.98245
-462,-538,0.20105,5.31763,0.0140338,0.0507766,0.040823,0.0771716,-0.0123612,0.996836,0.0560245,0.0427204,762,1562,0.20107,-5.31766
-455,-538,0.208679,5.51953,0.00998196,0.0402483,0.0333467,0.061735,-0.0115048,0.998408,0.0454793,0.0374588,769,1562,0.208658,-5.51948
-448,-538,0.276733,5.72095,0.00722463,0.0306377,0.0260751,0.0475136,-0.00965128,0.99639,0.0353349,0.0156127,776,1562,0.276762,-5.7209
-441,-538,0.251587,5.92554,0.00542055,0.0223695,0.019492,0.0351496,-0.0073595,0.990455,0.0262326,0.0140613,783,1562,0.251601,-5.92548
-434,-538,0.234985,6.09338,0.00345439,0.0155854,0.0146103,0.0253392,-0.00629946,0.982148,0.0193377,0.0107899,790,1562,0.234964,-6.09334
-427,-538,0.216919,6.29846,0.00263421,0.00932478,0.00965088,0.0161937,-0.00423473,0.952233,0.0124498,0.0120534,797,1562,0.216922,-6.29848
-420,-538,0.207031,6.50159,0.00274632,0.00505637,0.00572129,0.00973806,-0.00193537,0.885001,0.0072241,0.0159929,804,1562,0.207044,-6.50162
-413,-538,0.207031,6.70752,0.00302959,0.00264559,0.00386336,0.00670572,-0.00103054,0.76057,0.00485062,0.0165862,811,1562,0.207009,-6.70753
-406,-538,0.229675,6.86499,0.00329512,0.000102147,0.00195931,0.00422602,-0.000828749,0.443542,0.00313038,0.0133506,818,1562,0.229647,-6.86496
-399,-538,0.251648,7.05566,0.00361989,-0.00178899,0.000888173,0.003762,-0.0019311,0.158658,0.00334309,0.0125256,825,1562,0.251635,-7.05562
-392,-538,0.231445,7.26013,0.00401778,-0.00289239,0.000462319,0.00404857,-0.00292318,0.0665091,0.00404259,0.0131315,832,1562,0.231452,-7.26011
-385,-538,0.211487,7.46851,0.0045296,-0.003815,0.000275216,0.00453866,-0.00382407,0.0329336,0.0048341,0.0115243,839,1562,0.211485,-7.46847
-378,-538,0.219055,7.64648,0.00473736,-0.00512711,0.000662686,0.00478168,-0.00517143,0.0667791,0.0057479,0.00992283,846,1562,0.219075,-7.64647
-371,-538,0.217773,7.82654,0.00459376,-0.00723777,0.00170781,0.00483534,-0.00747935,0.140523,0.00716431,0.0103154,853,1562,0.217767,-7.82659
-364,-538,0.237671,8.03601,0.00446291,-0.0091911,0.00267659,0.00496886,-0.00969704,0.186821,0.00861279,0.00955586,860,1562,0.237678,-8.03601
-357,-538,0.257568,8.19031,0.00420892,-0.00832195,0.00226626,0.00460619,-0.00871921,0.173534,0.00781463,0.0175273,867,1562,0.257559,-8.19025
-350,-538,0.187927,8.32568,0.00438977,-0.00845854,0.00128512,0.00451705,-0.00858582,0.0987192,0.00768556,0.0304174,874,1562,0.187925,-8.32569
-343,-538,0.103271,8.74585,0.00492158,-0.00669307,-6.93129e-05,0.00492199,-0.00669348,-0.00596743,0.00673214,0.0417211,881,1562,0.10327,-8.7459
-336,-538,0.433044,8.78479,0,0,0,0,0,0,0,-1,888,1562,0.433029,-8.7848
-329,-538,0.729614,8.4696,0.00572759,-0.00267417,-0.00384425,0.00722106,-0.00416764,-0.370549,0.00665358,0.0427657,895,1562,0.729618,-8.46964
-322,-538,0.113342,9.42969,0.00615318,0.00123809,-0.00682709,0.0109516,-0.00356031,-0.612634,0.00873317,0.0443856,902,1562,0.113313,-9.42969
-315,-538,0.0778198,9.40344,0,0,0,0,0,0,0,-1,909,1562,0.0778344,-9.40344
-308,-538,-0.0765381,9.65942,0.0102211,0.0120019,-0.0157423,0.0268789,-0.00465592,-0.813649,0.0196559,0.0468102,916,1562,-0.0765173,-9.65938
-301,-538,-0.2995,9.82373,0.0142072,0.017668,-0.0215917,0.0375986,-0.0057233,-0.825383,0.0271751,0.0465929,923,1562,-0.299473,-9.82378
-294,-538,-0.0762329,10.027,0.0188791,0.0230943,-0.0285317,0.0495961,-0.00762279,-0.822265,0.035876,0.0461498,930,1562,-0.076209,-10.0269
-287,-538,0.191833,10.5402,0,0,0,0,0,0,0,-1,937,1562,0.19184,-10.5402
-280,-538,-4.0293,11.8911,0,0,0,0,0,0,0,-1,944,1562,-4.02932,-11.8911
-273,-538,-4.85803,13.4651,0,0,0,0,0,0,0,-1,951,1562,-4.85802,-13.4651
-266,-538,-5.69073,14.9116,0,0,0,0,0,0,0,-1,958,1562,-5.69073,-14.9116
-259,-538,-6.4397,16.3737,0,0,0,0,0,0,0,-1,965,1562,-6.43969,-16.3737
-252,-538,0,0,0,0,0,0,0,0,0,-1,972,1562,0,0
-245,-538,0,0,0,0,0,0,0,0,0,-1,979,1562,0,0
-238,-538,0,0,0,0,0,0,0,0,0,-1,986,1562,0,0
-231,-538,0,0,0,0,0,0,0,0,0,-1,993,1562,0,0
-224,-538,0,0,0,0,0,0,0,0,0,-1,1000,1562,0,0
-217,-538,0,0,0,0,0,0,0,0,0,-1,1007,1562,0,0
-210,-538,0,0,0,0,0,0,0,0,0,-1,1014,1562,0,0
-203,-538,0,0,0,0,0,0,0,0,0,-1,1021,1562,0,0
-196,-538,0,0,0,0,0,0,0,0,0,-1,1028,1562,0,0
-189,-538,0,0,0,0,0,0,0,0,0,-1,1035,1562,0,0
-182,-538,0,0,0,0,0,0,0,0,0,-1,1042,1562,0,0
-175,-538,0,0,0,0,0,0,0,0,0,-1,1049,1562,0,0
-168,-538,0,0,0,0,0,0,0,0,0,-1,1056,1562,0,0
-161,-538,0,0,0,0,0,0,0,0,0,-1,1063,1562,0,0
-154,-538,0,0,0,0,0,0,0,0,0,-1,1070,1562,0,0
-147,-538,0,0,0,0,0,0,0,0,0,-1,1077,1562,0,0
-140,-538,0,0,0,0,0,0,0,0,0,-1,1084,1562,0,0
-133,-538,0,0,0,0,0,0,0,0,0,-1,1091,1562,0,0
-126,-538,0,0,0,0,0,0,0,0,0,-1,1098,1562,0,0
-119,-538,0,0,0,0,0,0,0,0,0,-1,1105,1562,0,0
-112,-538,0,0,0,0,0,0,0,0,0,-1,1112,1562,0,0
-105,-538,0,0,0,0,0,0,0,0,0,-1,1119,1562,0,0
-98,-538,0,0,0,0,0,0,0,0,0,-1,1126,1562,0,0
-91,-538,0,0,0,0,0,0,0,0,0,-1,1133,1562,0,0
-84,-538,0,0,0,0,0,0,0,0,0,-1,1140,1562,0,0
-77,-538,0,0,0,0,0,0,0,0,0,-1,1147,1562,0,0
-70,-538,0,0,0,0,0,0,0,0,0,-1,1154,1562,0,0
-63,-538,0,0,0,0,0,0,0,0,0,-1,1161,1562,0,0
-56,-538,0,0,0,0,0,0,0,0,0,-1,1168,1562,0,0
-49,-538,0,0,0,0,0,0,0,0,0,-1,1175,1562,0,0
-42,-538,0,0,0,0,0,0,0,0,0,-1,1182,1562,0,0
-35,-538,0,0,0,0,0,0,0,0,0,-1,1189,1562,0,0
-28,-538,0,0,0,0,0,0,0,0,0,-1,1196,1562,0,0
-21,-538,0,0,0,0,0,0,0,0,0,-1,1203,1562,0,0
-14,-538,0,0,0,0,0,0,0,0,0,-1,1210,1562,0,0
-7,-538,0,0,0,0,0,0,0,0,0,-1,1217,1562,0,0
0,-538,0,0,0,0,0,0,0,0,0,-1,1224,1562,0,0
7,-538,0,0,0,0,0,0,0,0,0,-1,1231,1562,0,0
14,-538,0,0,0,0,0,0,0,0,0,-1,1238,1562,0,0
21,-538,0,0,0,0,0,0,0,0,0,-1,1245,1562,0,0
28,-538,0,0,0,0,0,0,0,0,0,-1,1252,1562,0,0
35,-538,0,0,0,0,0,0,0,0,0,-1,1259,1562,0,0
42,-538,0,0,0,0,0,0,0,0,0,-1,1266,1562,0,0
49,-538,0,0,0,0,0,0,0,0,0,-1,1273,1562,0,0
56,-538,0,0,0,0,0,0,0,0,0,-1,1280,1562,0,0
63,-538,0,0,0,0,0,0,0,0,0,-1,1287,1562,0,0
70,-538,0,0,0,0,0,0,0,0,0,-1,1294,1562,0,0
77,-538,0,0,0,0,0,0,0,0,0,-1,1301,1562,0,0
84,-538,0,0,0,0,0,0,0,0,0,-1,1308,1562,0,0
91,-538,0,0,0,0,0,0,0,0,0,-1,1315,1562,0,0
98,-538,0,0,0,0,0,0,0,0,0,-1,1322,1562,0,0
105,-538,0,0,0,0,0,0,0,0,0,-1,1329,1562,0,0
112,-538,0,0,0,0,0,0,0,0,0,-1,1336,1562,0,0
119,-538,0,0,0,0,0,0,0,0,0,-1,1343,1562,0,0
126,-538,0,0,0,0,0,0,0,0,0,-1,1350,1562,0,0
133,-538,0,0,0,0,0,0,0,0,0,-1,1357,1562,0,0
140,-538,0,0,0,0,0,0,0,0,0,-1,1364,1562,0,0
147,-538,0,0,0,0,0,0,0,0,0,-1,1371,1562,0,0
154,-538,0,0,0,0,0,0,0,0,0,-1,1378,1562,0,0
161,-538,0,0,0,0,0,0,0,0,0,-1,1385,1562,0,0
168,-538,0,0,0,0,0,0,0,0,0,-1,1392,1562,0,0
175,-538,0,0,0,0,0,0,0,0,0,-1,1399,1562,0,0
182,-538,0,0,0,0,0,0,0,0,0,-1,1406,1562,0,0
189,-538,0,0,0,0,0,0,0,0,0,-1,1413,1562,0,0
196,-538,0,0,0,0,0,0,0,0,0,-1,1420,1562,0,0
203,-538,0,0,0,0,0,0,0,0,0,-1,1427,1562,0,0
210,-538,0,0,0,0,0,0,0,0,0,-1,1434,1562,0,0
217,-538,0,0,0,0,0,0,0,0,0,-1,1441,1562,0,0
224,-538,0,0,0,0,0,0,0,0,0,-1,1448,1562,0,0
231,-538,0,0,0,0,0,0,0,0,0,-1,1455,1562,0,0
238,-538,0,0,0,0,0,0,0,0,0,-1,1462,1562,0,0
245,-538,0,0,0,0,0,0,0,0,0,-1,1469,1562,0,0
252,-538,0,0,0,0,0,0,0,0,0,-1,1476,1562,0,0
259,-538,0,0,0,0,0,0,0,0,0,-1,1483,1562,0,0
266,-538,0,0,0,0,0,0,0,0,0,-1,1490,1562,0,0
273,-538,0,0,0,0,0,0,0,0,0,-1,1497,1562,0,0
280,-538,0,0,0,0,0,0,0,0,0,-1,1504,1562,0,0
287,-538,0,0,0,0,0,0,0,0,0,-1,1511,1562,0,0
294,-538,0,0,0,0,0,0,0,0,0,-1,1518,1562,0,0
301,-538,0,0,0,0,0,0,0,0,0,-1,1525,1562,0,0
308,-538,0,0,0,0,0,0,0,0,0,-1,1532,1562,0,0
315,-538,0,0,0,0,0,0,0,0,0,-1,1539,1562,0,0
322,-538,0,0,0,0,0,0,0,0,0,-1,1546,1562,0,0
329,-538,0,0,0,0,0,0,0,0,0,-1,1553,1562,0,0
336,-538,0,0,0,0,0,0,0,0,0,-1,1560,1562,0,0
343,-538,0,0,0,0,0,0,0,0,0,-1,1567,1562,0,0
350,-538,0,0,0,0,0,0,0,0,0,-1,1574,1562,0,0
357,-538,0,0,0,0,0,0,0,0,0,-1,1581,1562,0,0
364,-538,0,0,0,0,0,0,0,0,0,-1,1588,1562,0,0
371,-538,0,0,0,0,0,0,0,0,0,-1,1595,1562,0,0
378,-538,7.65637,4.13477,0,0,0,0,0,0,0,-1,1602,1562,7.65643,-4.13477
385,-538,8.69836,7.6283,0,0,0,0,0,0,0,-1,1609,1562,8.69835,-7.62829
392,-538,8.20361,7.07214,0,0,0,0,0,0,0,-1,1616,1562,8.20362,-7.07211
399,-538,7.85425,4.70508,0,0,0,0,0,0,0,-1,1623,1562,7.85425,-4.70512
406,-538,7.77734,4.96094,0,0,0,0,0,0,0,-1,1630,1562,7.77729,-4.96097
413,-538,13.0446,13.1765,0,0,0,0,0,0,0,-1,1637,1562,13.0446,-13.1765
420,-538,8.45642,8.08704,0,0,0,0,0,0,0,-1,1644,1562,8.45636,-8.08707
427,-538,8.62769,7.85291,0,0,0,0,0,0,0,-1,1651,1562,8.62772,-7.85285
434,-538,8.56519,6.61145,0,0,0,0,0,0,0,-1,1658,1562,8.56519,-6.61149
441,-538,9.12781,6.43835,0,0,0,0,0,0,0,-1,1665,1562,9.12785,-6.43831
448,-538,9.33496,5.52502,0,0,0,0,0,0,0,-1,1672,1562,9.33502,-5.52506
455,-538,9.36621,6.46448,0,0,0,0,0,0,0,-1,1679,1562,9.36627,-6.46452
462,-538,7.91296,8.23816,0,0,0,0,0,0,0,-1,1686,1562,7.91291,-8.23815
469,-538,7.82178,8.41443,0,0,0,0,0,0,0,-1,1693,1562,7.82176,-8.41446
476,-538,7.92456,8.74451,-0.0140472,-0.0454992,0.0354445,0.00900333,-0.0685497,0.576606,0.0489776,0.0449249,1700,1562,7.92458,-8.74447
483,-538,7.66699,9.3916,-0.0122453,-0.0368164,0.0304735,0.0083259,-0.0573876,0.593786,0.0413143,0.029067,1707,1562,7.66705,-9.39157
490,-538,7.61279,9.34668,-0.0104804,-0.029074,0.0257505,0.0076001,-0.0471545,0.612162,0.0342519,0.0136126,1714,1562,7.61285,-9.34663
497,-538,7.57068,9.20581,-0.00876298,-0.0225537,0.0213204,0.00674938,-0.0380661,0.628999,0.0279006,0.00994844,1721,1562,7.57068,-9.20579
504,-538,7.56848,9.0603,-0.00712136,-0.0168237,0.0172088,0.00590697,-0.0298521,0.648013,0.0221347,0.00949499,1728,1562,7.56846,-9.06032
511,-538,7.56714,8.90088,-0.00542649,-0.0121513,0.0133092,0.00493847,-0.0225163,0.661668,0.0168993,0.00957089,1735,1562,7.56712,-8.90092
518,-538,7.56201,8.74414,-0.00386602,-0.00830698,0.00973295,0.00389653,-0.0160695,0.673247,0.0122207,0.00991236,1742,1562,7.56204,-8.74414
525,-538,7.56897,8.56726,-0.00247053,-0.0053614,0.00664092,0.00288043,-0.0107124,0.678242,0.00827064,0.0105888,1749,1562,7.56898,-8.56722
532,-538,7.60205,8.39355,-0.00127799,-0.00311652,0.00402106,0.00192754,-0.00632206,0.673023,0.00498307,0.0115264,1756,1562,7.60205,-8.39354
539,-538,7.59985,8.23657,-0.000310074,-0.00129248,0.00187266,0.00113473,-0.00273729,0.657136,0.00229845,0.0144376,1763,1562,7.5999,-8.23653
546,-538,7.58752,8.06812,0.000485029,0.000282983,0.000218022,0.000624296,0.000143716,0.568443,0.000377523,0.015977,1770,1562,7.58752,-8.06813
553,-538,7.62024,7.84937,0.00117933,0.00161463,-0.000949685,0.00237129,0.000422672,-0.898045,0.0014605,0.0241641,1777,1562,7.62023,-7.84938
560,-538,7.58521,7.66187,0.00178498,0.00270921,-0.00175039,0.00405746,0.000436733,-0.914457,0.00257179,0.0255192,1784,1562,7.58517,-7.66181
567,-538,7.5188,7.53918,0.00205775,0.00400584,-0.00241301,0.00563399,0.000429603,-0.977228,0.00362129,0.0183141,1791,1562,7.51878,-7.53913
574,-538,7.56702,7.34119,0.00239261,0.00560362,-0.00315296,0.0075363,0.00045992,-1.02089,0.00487813,0.0117846,1798,1562,7.56697,-7.34118
581,-538,7.55591,7.12671,0.00280305,0.00736123,-0.00386836,0.00957195,0.00059233,-1.0516,0.00619331,0.0134238,1805,1562,7.55587,-7.12671
588,-538,7.48315,6.87402,0.0042173,0.00963561,-0.00562254,0.0131676,0.000685265,-1.0099,0.00855915,0.0278654,1812,1562,7.48315,-6.87403
595,-538,7.49268,6.24329,0.00549039,0.012324,-0.00743656,0.0170911,0.000723247,-1.00074,0.0111608,0.0428269,1819,1562,7.49263,-6.24325
602,-538,7.5946,6.00427,0,0,0,0,0,0,0,-1,1826,1562,7.59459,-6.00428
609,-538,7.74109,5.12695,0,0,0,0,0,0,0,-1,1833,1562,7.74108,-5.12697
616,-538,11.9706,6.6803,0,0,0,0,0,0,0,-1,1840,1562,11.9705,-6.68028
623,-538,11.6731,4.90771,0,0,0,0,0,0,0,-1,1847,1562,11.673,-4.90772
630,-538,11.3368,3.23474,0,0,0,0,0,0,0,-1,1854,1562,11.3368,-3.23475
637,-538,0,0,0,0,0,0,0,0,0,-1,1861,1562,0,0
644,-538,0,0,0,0,0,0,0,0,0,-1,1868,1562,0,0
651,-538,0,0,0,0,0,0,0,0,0,-1,1875,1562,0,0
658,-538,0,0,0,0,0,0,0,0,0,-1,1882,1562,0,0
665,-538,0,0,0,0,0,0,0,0,0,-1,1889,1562,0,0
672,-538,0,0,0,0,0,0,0,0,0,-1,1896,1562,0,0
679,-538,0,0,0,0,0,0,0,0,0,-1,1903,1562,0,0
686,-538,0,0,0,0,0,0,0,0,0,-1,1910,1562,0,0
693,-538,0,0,0,0,0,0,0,0,0,-1,1917,1562,0,0
700,-538,0,0,0,0,0,0,0,0,0,-1,1924,1562,0,0
707,-538,0,0,0,0,0,0,0,0,0,-1,1931,1562,0,0
714,-538,0,0,0,0,0,0,0,0,0,-1,1938,1562,0,0
721,-538,0,0,0,0,0,0,0,0,0,-1,1945,1562,0,0
728,-538,0,0,0,0,0,0,0,0,0,-1,1952,1562,0,0
735,-538,0,0,0,0,0,0,0,0,0,-1,1959,1562,0,0
742,-538,0,0,0,0,0,0,0,0,0,-1,1966,1562,0,0
749,-538,0,0,0,0,0,0,0,0,0,-1,1973,1562,0,0
756,-538,0,0,0,0,0,0,0,0,0,-1,1980,1562,0,0
763,-538,0,0,0,0,0,0,0,0,0,-1,1987,1562,0,0
770,-538,0,0,0,0,0,0,0,0,0,-1,1994,1562,0,0
777,-538,0,0,0,0,0,0,0,0,0,-1,2001,1562,0,0
784,-538,0,0,0,0,0,0,0,0,0,-1,2008,1562,0,0
791,-538,0,0,0,0,0,0,0,0,0,-1,2015,1562,0,0
798,-538,0,0,0,0,0,0,0,0,0,-1,2022,1562,0,0
805,-538,0,0,0,0,0,0,0,0,0,-1,2029,1562,0,0
812,-538,0,0,0,0,0,0,0,0,0,-1,2036,1562,0,0
-700,-545,0,0,0,0,0,0,0,0,0,-1,524,1569,0,0
-693,-545,0,0,0,0,0,0,0,0,0,-1,531,1569,0,0
-686,-545,0,0,0,0,0,0,0,0,0,-1,538,1569,0,0
-679,-545,0,0,0,0,0,0,0,0,0,-1,545,1569,0,0
-672,-545,0,0,0,0,0,0,0,0,0,-1,552,1569,0,0
-665,-545,0,0,0,0,0,0,0,0,0,-1,559,1569,0,0
-658,-545,0,0,0,0,0,0,0,0,0,-1,566,1569,0,0
-651,-545,0,0,0,0,0,0,0,0,0,-1,573,1569,0,0
-644,-545,0,0,0,0,0,0,0,0,0,-1,580,1569,0,0
-637,-545,0,0,0,0,0,0,0,0,0,-1,587,1569,0,0
-630,-545,0,0,0,0,0,0,0,0,0,-1,594,1569,0,0
-623,-545,0,0,0,0,0,0,0,0,0,-1,601,1569,0,0
-616,-545,0,0,0,0,0,0,0,0,0,-1,608,1569,0,0
-609,-545,0,0,0,0,0,0,0,0,0,-1,615,1569,0,0
-602,-545,0,0,0,0,0,0,0,0,0,-1,622,1569,0,0
-595,-545,0,0,0,0,0,0,0,0,0,-1,629,1569,0,0
-588,-545,0,0,0,0,0,0,0,0,0,-1,636,1569,0,0
-581,-545,0,0,0,0,0,0,0,0,0,-1,643,1569,0,0
-574,-545,0,0,0,0,0,0,0,0,0,-1,650,1569,0,0
-567,-545,0,0,0,0,0,0,0,0,0,-1,657,1569,0,0
-560,-545,0,0,0,0,0,0,0,0,0,-1,664,1569,0,0
-553,-545,0,0,0,0,0,0,0,0,0,-1,671,1569,0,0
-546,-545,0,0,0,0,0,0,0,0,0,-1,678,1569,0,0
-539,-545,0,0,0,0,0,0,0,0,0,-1,685,1569,0,0
-532,-545,0,0,0,0,0,0,0,0,0,-1,692,1569,0,0
-525,-545,0,0,0,0,0,0,0,0,0,-1,699,1569,0,0
-518,-545,0,0,0,0,0,0,0,0,0,-1,706,1569,0,0
-511,-545,0,0,0,0,0,0,0,0,0,-1,713,1569,0,0
-504,-545,-3.55237,-2.5354,0,0,0,0,0,0,0,-1,720,1569,-3.55236,2.53545
-497,-545,0.119141,5.68481,0,0,0,0,0,0,0,-1,727,1569,0.119132,-5.68483
-490,-545,-2.12604,7.04187,0,0,0,0,0,0,0,-1,734,1569,-2.12601,-7.04189
-483,-545,1.53607,0.510986,0,0,0,0,0,0,0,-1,741,1569,1.53607,-0.510949
-476,-545,-1.56097,6.08887,0,0,0,0,0,0,0,-1,748,1569,-1.56098,-6.08889
-469,-545,0.750122,4.60986,0,0,0,0,0,0,0,-1,755,1569,0.750094,-4.6098
-462,-545,0.47467,5.18713,0,0,0,0,0,0,0,-1,762,1569,0.474687,-5.18719
-455,-545,0.401733,5.40479,0.0120301,0.0552633,0.0491392,0.0873304,-0.020037,0.992612,0.0659223,0.0417577,769,1569,0.401752,-5.40481
-448,-545,0.474548,5.62134,0.00904658,0.0426199,0.038453,0.0677907,-0.0161242,0.991205,0.0514182,0.0267936,776,1569,0.474518,-5.62133
-441,-545,0.453674,5.94177,0.00689902,0.0315662,0.0288039,0.0505661,-0.0121008,0.987684,0.0383854,0.0167071,783,1569,0.453649,-5.94183
-434,-545,0.407959,6.12268,0.00451223,0.0223805,0.0213445,0.0365852,-0.00969245,0.983604,0.0281821,0.0135895,790,1569,0.407945,-6.12265
-427,-545,0.415344,6.29724,0.0032102,0.0141141,0.0140407,0.0237242,-0.00639989,0.970586,0.0183258,0.0154903,797,1569,0.415331,-6.29723
-420,-545,0.430725,6.47339,0.0028346,0.00815604,0.00824805,0.0141619,-0.00317127,0.941423,0.0106568,0.0211389,804,1569,0.430744,-6.47337
-413,-545,0.405762,6.69189,0.00281026,0.00493912,0.0054143,0.00939263,-0.00164325,0.882458,0.00687528,0.0210439,811,1569,0.405776,-6.69185
-406,-545,0.413208,6.87891,0.00278119,0.00163115,0.00258303,0.00485243,-0.000440094,0.675877,0.00339119,0.0155522,818,1569,0.413223,-6.8789
-399,-545,0.453247,7.05652,0.00279105,-0.000673698,0.000918966,0.0030197,-0.000902348,0.243861,0.00237184,0.0109608,825,1569,0.453268,-7.05646
-392,-545,0.422668,7.24707,0.00289223,-0.0018685,0.000237063,0.00290401,-0.00188028,0.0496318,0.00278321,0.010734,832,1569,0.422639,-7.24706
-385,-545,0.41156,7.45911,0.00312519,-0.00264946,-2.72132e-05,0.00312532,-0.00264959,-0.00471239,0.00333791,0.00931237,839,1569,0.411531,-7.45905
-378,-545,0.409607,7.66174,0.00317521,-0.00372328,0.000258357,0.00318488,-0.00373294,0.0373815,0.00399818,0.0112607,846,1569,0.409595,-7.6617
-371,-545,0.404602,7.85364,0.00298361,-0.00534705,0.00108431,0.00312243,-0.00548587,0.127333,0.00503206,0.0139135,853,1569,0.404572,-7.85365
-364,-545,0.407837,8.02625,0.00279877,-0.00680519,0.0018439,0.00314062,-0.00714704,0.183314,0.00608786,0.00917107,860,1569,0.407831,-8.02628
-357,-545,0.445618,8.22034,0.0025719,-0.00619686,0.00161471,0.00285979,-0.00648475,0.176436,0.00552873,0.010125,867,1569,0.445618,-8.2203
-350,-545,0.455505,8.39209,0.00268946,-0.00635222,0.000966137,0.00279154,-0.0064543,0.10527,0.00547593,0.0147223,874,1569,0.455507,-8.39214
-343,-545,0.455872,8.56482,0.00312095,-0.00499734,6.0143e-05,0.00312139,-0.00499779,0.00740779,0.00472915,0.0254128,881,1569,0.455854,-8.56479
-336,-545,0.51123,8.68518,0.00340024,-0.00377401,-0.000949247,0.00352371,-0.00389748,-0.129348,0.00428644,0.0329839,888,1569,0.511204,-8.68514
-329,-545,0.561523,8.79309,0.00388359,-0.00168099,-0.00261608,0.00492034,-0.00271773,-0.37731,0.00447054,0.0383015,895,1569,0.561509,-8.79313
-322,-545,0.331604,9.26868,0.00451414,0.00132776,-0.00501361,0.00818161,-0.00233971,-0.631557,0.00637898,0.0448044,902,1569,0.331599,-9.26867
-315,-545,0.296875,9.2417,0,0,0,0,0,0,0,-1,909,1569,0.296861,-9.24166
-308,-545,0.427063,9.80286,0,0,0,0,0,0,0,-1,916,1569,0.427035,-9.80281
-301,-545,0.381592,9.94189,0.0114419,0.0136131,-0.0171238,0.0296857,-0.00463074,-0.817055,0.0215009,0.0492481,923,1569,0.38158,-9.94187
-294,-545,0.37677,9.91589,0.0150161,0.0174293,-0.0225967,0.0388515,-0.00640619,-0.812072,0.0282793,0.0479414,930,1569,0.37675,-9.9159
-287,-545,0.50061,10.3329,0,0,0,0,0,0,0,-1,937,1569,0.500609,-10.3328
-280,-545,0.226746,10.4198,0,0,0,0,0,0,0,-1,944,1569,0.226742,-10.4198
-273,-545,-4.10596,12.3789,0,0,0,0,0,0,0,-1,951,1569,-4.10598,-12.3789
-266,-545,-5.10779,14.1372,0,0,0,0,0,0,0,-1,958,1569,-5.10778,-14.1372
-259,-545,-3.98706,7.8916,0,0,0,0,0,0,0,-1,965,1569,-3.98704,-7.89159
-252,-545,-4.75641,8.30005,0,0,0,0,0,0,0,-1,972,1569,-4.75641,-8.3001
-245,-545,0.484619,5.7207,0,0,0,0,0,0,0,-1,979,1569,0.484599,-5.72068
-238,-545,0,0,0,0,0,0,0,0,0,-1,986,1569,0,0
-231,-545,0,0,0,0,0,0,0,0,0,-1,993,1569,0,0
-224,-545,0,0,0,0,0,0,0,0,0,-1,1000,1569,0,0
-217,-545,0,0,0,0,0,0,0,0,0,-1,1007,1569,0,0
-210,-545,0,0,0,0,0,0,0,0,0,-1,1014,1569,0,0
-203,-545,0,0,0,0,0,0,0,0,0,-1,1021,1569,0,0
-196,-545,0,0,0,0,0,0,0,0,0,-1,1028,1569,0,0
-189,-545,0,0,0,0,0,0,0,0,0,-1,1035,1569,0,0
-182,-545,0,0,0,0,0,0,0,0,0,-1,1042,1569,0,0
-175,-545,0,0,0,0,0,0,0,0,0,-1,1049,1569,0,0
-168,-545,0,0,0,0,0,0,0,0,0,-1,1056,1569,0,0
-161,-545,0,0,0,0,0,0,0,0,0,-1,1063,1569,0,0
-154,-545,0,0,0,0,0,0,0,0,0,-1,1070,1569,0,0
-147,-545,0,0,0,0,0,0,0,0,0,-1,1077,1569,0,0
-140,-545,0,0,0,0,0,0,0,0,0,-1,1084,1569,0,0
-133,-545,0,0,0,0,0,0,0,0,0,-1,1091,1569,0,0
-126,-545,0,0,0,0,0,0,0,0,0,-1,1098,1569,0,0
-119,-545,0,0,0,0,0,0,0,0,0,-1,1105,1569,0,0
-112,-545,0,0,0,0,0,0,0,0,0,-1,1112,1569,0,0
-105,-545,0,0,0,0,0,0,0,0,0,-1,1119,1569,0,0
-98,-545,0,0,0,0,0,0,0,0,0,-1,1126,1569,0,0
-91,-545,0,0,0,0,0,0,0,0,0,-1,1133,1569,0,0
-84,-545,0,0,0,0,0,0,0,0,0,-1,1140,1569,0,0
-77,-545,0,0,0,0,0,0,0,0,0,-1,1147,1569,0,0
-70,-545,0,0,0,0,0,0,0,0,0,-1,1154,1569,0,0
-63,-545,0,0,0,0,0,0,0,0,0,-1,1161,1569,0,0
-56,-545,0,0,0,0,0,0,0,0,0,-1,1168,1569,0,0
-49,-545,0,0,0,0,0,0,0,0,0,-1,1175,1569,0,0
-42,-545,0,0,0,0,0,0,0,0,0,-1,1182,1569,0,0
-35,-545,0,0,0,0,0,0,0,0,0,-1,1189,1569,0,0
-28,-545,0,0,0,0,0,0,0,0,0,-1,1196,1569,0,0
-21,-545,0,0,0,0,0,0,0,0,0,-1,1203,1569,0,0
-14,-545,0,0,0,0,0,0,0,0,0,-1,1210,1569,0,0
-7,-545,0,0,0,0,0,0,0,0,0,-1,1217,1569,0,0
0,-545,0,0,0,0,0,0,0,0,0,-1,1224,1569,0,0
7,-545,0,0,0,0,0,0,0,0,0,-1,1231,1569,0,0
14,-545,0,0,0,0,0,0,0,0,0,-1,1238,1569,0,0
21,-545,0,0,0,0,0,0,0,0,0,-1,1245,1569,0,0
28,-545,0,0,0,0,0,0,0,0,0,-1,1252,1569,0,0
35,-545,0,0,0,0,0,0,0,0,0,-1,1259,1569,0,0
42,-545,0,0,0,0,0,0,0,0,0,-1,1266,1569,0,0
49,-545,0,0,0,0,0,0,0,0,0,-1,1273,1569,0,0
56,-545,0,0,0,0,0,0,0,0,0,-1,1280,1569,0,0
63,-545,0,0,0,0,0,0,0,0,0,-1,1287,1569,0,0
70,-545,0,0,0,0,0,0,0,0,0,-1,1294,1569,0,0
77,-545,0,0,0,0,0,0,0,0,0,-1,1301,1569,0,0
84,-545,0,0,0,0,0,0,0,0,0,-1,1308,1569,0,0
91,-545,0,0,0,0,0,0,0,0,0,-1,1315,1569,0,0
98,-545,0,0,0,0,0,0,0,0,0,-1,1322,1569,0,0
105,-545,0,0,0,0,0,0,0,0,0,-1,1329,1569,0,0
112,-545,0,0,0,0,0,0,0,0,0,-1,1336,1569,0,0
119,-545,0,0,0,0,0,0,0,0,0,-1,1343,1569,0,0
126,-545,0,0,0,0,0,0,0,0,0,-1,1350,1569,0,0
133,-545,0,0,0,0,0,0,0,0,0,-1,1357,1569,0,0
140,-545,0,0,0,0,0,0,0,0,0,-1,1364,1569,0,0
147,-545,0,0,0,0,0,0,0,0,0,-1,1371,1569,0,0
154,-545,0,0,0,0,0,0,0,0,0,-1,1378,1569,0,0
161,-545,0,0,0,0,0,0,0,0,0,-1,1385,1569,0,0
168,-545,0,0,0,0,0,0,0,0,0,-1,1392,1569,0,0
175,-545,0,0,0,0,0,0,0,0,0,-1,1399,1569,0,0
182,-545,0,0,0,0,0,0,0,0,0,-1,1406,1569,0,0
189,-545,0,0,0,0,0,0,0,0,0,-1,1413,1569,0,0
196,-545,0,0,0,0,0,0,0,0,0,-1,1420,1569,0,0
203,-545,0,0,0,0,0,0,0,0,0,-1,1427,1569,0,0
210,-545,0,0,0,0,0,0,0,0,0,-1,1434,1569,0,0
217,-545,0,0,0,0,0,0,0,0,0,-1,1441,1569,0,0
224,-545,0,0,0,0,0,0,0,0,0,-1,1448,1569,0,0
231,-545,0,0,0,0,0,0,0,0,0,-1,1455,1569,0,0
238,-545,0,0,0,0,0,0,0,0,0,-1,1462,1569,0,0
245,-545,0,0,0,0,0,0,0,0,0,-1,1469,1569,0,0
252,-545,0,0,0,0,0,0,0,0,0,-1,1476,1569,0,0
259,-545,0,0,0,0,0,0,0,0,0,-1,1483,1569,0,0
266,-545,0,0,0,0,0,0,0,0,0,-1,1490,1569,0,0
273,-545,0,0,0,0,0,0,0,0,0,-1,1497,1569,0,0
280,-545,0,0,0,0,0,0,0,0,0,-1,1504,1569,0,0
287,-545,0,0,0,0,0,0,0,0,0,-1,1511,1569,0,0
294,-545,0,0,0,0,0,0,0,0,0,-1,1518,1569,0,0
301,-545,0,0,0,0,0,0,0,0,0,-1,1525,1569,0,0
308,-545,0,0,0,0,0,0,0,0,0,-1,1532,1569,0,0
315,-545,0,0,0,0,0,0,0,0,0,-1,1539,1569,0,0
322,-545,0,0,0,0,0,0,0,0,0,-1,1546,1569,0,0
329,-545,0,0,0,0,0,0,0,0,0,-1,1553,1569,0,0
336,-545,0,0,0,0,0,0,0,0,0,-1,1560,1569,0,0
343,-545,0,0,0,0,0,0,0,0,0,-1,1567,1569,0,0
350,-545,0,0,0,0,0,0,0,0,0,-1,1574,1569,0,0
357,-545,0,0,0,0,0,0,0,0,0,-1,1581,1569,0,0
364,-545,5.47632,4.19043,0,0,0,0,0,0,0,-1,1588,1569,5.47628,-4.19048
371,-545,7.62146,5.18079,0,0,0,0,0,0,0,-1,1595,1569,7.62146,-5.1808
378,-545,7.24146,4.54224,0,0,0,0,0,0,0,-1,1602,1569,7.24145,-4.54226
385,-545,8.58447,1.16125,0,0,0,0,0,0,0,-1,1609,1569,8.5845,-1.1612
392,-545,12.5654,3.89526,0,0,0,0,0,0,0,-1,1616,1569,12.5655,-3.89532
399,-545,11.5869,5.6333,0,0,0,0,0,0,0,-1,1623,1569,11.5869,-5.63326
406,-545,11.234,6.36414,0,0,0,0,0,0,0,-1,1630,1569,11.234,-6.3641
413,-545,12.1521,13.4817,0,0,0,0,0,0,0,-1,1637,1569,12.1521,-13.4817
420,-545,9.16418,9.51489,0,0,0,0,0,0,0,-1,1644,1569,9.16414,-9.51487
427,-545,9.15601,8.86621,0,0,0,0,0,0,0,-1,1651,1569,9.15598,-8.86626
434,-545,9.18359,8.17285,0,0,0,0,0,0,0,-1,1658,1569,9.18357,-8.1729
441,-545,7.80066,8.72266,0,0,0,0,0,0,0,-1,1665,1569,7.80069,-8.72263
448,-545,7.79126,8.76624,0,0,0,0,0,0,0,-1,1672,1569,7.79122,-8.76624
455,-545,7.64502,8.54541,0,0,0,0,0,0,0,-1,1679,1569,7.64505,-8.54539
462,-545,7.56335,8.74707,-0.0129818,-0.0514296,0.0341691,0.007,-0.0714113,0.529161,0.0501041,0.0468439,1686,1569,7.56338,-8.74707
469,-545,7.50854,8.9801,-0.0117451,-0.0437147,0.0305857,0.00678097,-0.0622408,0.544607,0.043929,0.0450677,1693,1569,7.50855,-8.98007
476,-545,7.47278,9.55737,-0.0104175,-0.0363837,0.0266525,0.00624598,-0.0530471,0.558751,0.03762,0.0322683,1700,1569,7.4728,-9.55739
483,-545,7.41882,9.53748,-0.00898475,-0.0294946,0.0228508,0.00580675,-0.0442861,0.57448,0.0316378,0.0130789,1707,1569,7.41885,-9.53748
490,-545,7.40393,9.3905,-0.00761261,-0.0232602,0.0193049,0.00539368,-0.0362665,0.592876,0.0261616,0.0110952,1714,1569,7.40396,-9.39054
497,-545,7.39355,9.22925,-0.00629928,-0.0179822,0.0159211,0.00481812,-0.0290996,0.609573,0.0211892,0.0170552,1721,1569,7.39352,-9.22927
504,-545,7.41003,9.05994,-0.00501071,-0.0131547,0.0127061,0.00425989,-0.0224253,0.63033,0.0165539,0.016102,1728,1569,7.41001,-9.05999
511,-545,7.41626,8.89233,-0.0036417,-0.00924099,0.00961847,0.00357629,-0.016459,0.643776,0.0123387,0.0112587,1735,1569,7.41623,-8.89237
518,-545,7.40808,8.74146,-0.00235982,-0.00598312,0.0067334,0.00280139,-0.0111443,0.653983,0.00851831,0.0119774,1742,1569,7.40806,-8.74144
525,-545,7.39624,8.57275,-0.00118825,-0.00352404,0.00422402,0.00202635,-0.00673864,0.650523,0.00529865,0.0122048,1749,1569,7.3963,-8.57279
532,-545,7.40857,8.40027,-0.000191171,-0.00169483,0.00209459,0.00128244,-0.00316844,0.613091,0.0026455,0.0133661,1756,1569,7.40855,-8.40021
539,-545,7.40857,8.25134,0.000573608,-0.000255902,0.000370691,0.00071512,-0.000397414,0.364678,0.000650994,0.0166724,1763,1569,7.40855,-8.25136
546,-545,7.39465,8.10596,0.00120441,0.0010955,-0.000994483,0.00214593,0.000153979,-0.758047,0.00138215,0.0178977,1770,1569,7.3947,-8.10598
553,-545,7.41724,7.86377,0.00179666,0.00226939,-0.00187756,0.0039254,0.000140649,-0.848013,0.00257133,0.0246986,1777,1569,7.41719,-7.86376
560,-545,7.43201,7.61804,0.0023355,0.0033238,-0.0024845,0.00536281,0.000296489,-0.883563,0.00348059,0.025481,1784,1569,7.432,-7.61805
567,-545,7.32678,7.54895,0.00248164,0.00472955,-0.00305044,0.0068565,0.000354678,-0.961909,0.00445748,0.0326268,1791,1569,7.32677,-7.54898
574,-545,7.32239,7.34302,0.00284917,0.00660261,-0.00391483,0.00906731,0.000384466,-1.00891,0.00592088,0.0285411,1798,1569,7.32242,-7.34301
581,-545,7.31714,7.08679,0.00343549,0.00879529,-0.00486898,0.0116732,0.000557613,-1.03697,0.00760306,0.0392655,1805,1569,7.31714,-7.08684
588,-545,7.21582,6.71057,0.00531391,0.0117973,-0.00714225,0.0163991,0.000712121,-0.998435,0.0107033,0.0495754,1812,1569,7.21583,-6.71055
595,-545,7.26489,5.75256,0,0,0,0,0,0,0,-1,1819,1569,7.26485,-5.75261
602,-545,6.79126,5.93616,0,0,0,0,0,0,0,-1,1826,1569,6.79129,-5.93617
609,-545,8.71558,3.14709,0,0,0,0,0,0,0,-1,1833,1569,8.71563,-3.14711
616,-545,9.32727,2.09204,0,0,0,0,0,0,0,-1,1840,1569,9.32733,-2.09203
623,-545,13.2522,3.6488,0,0,0,0,0,0,0,-1,1847,1569,13.2522,-3.64886
630,-545,0,0,0,0,0,0,0,0,0,-1,1854,1569,0,0
637,-545,0,0,0,0,0,0,0,0,0,-1,1861,1569,0,0
644,-545,0,0,0,0,0,0,0,0,0,-1,1868,1569,0,0
651,-545,0,0,0,0,0,0,0,0,0,-1,1875,1569,0,0
658,-545,0,0,0,0,0,0,0,0,0,-1,1882,1569,0,0
665,-545,0,0,0,0,0,0,0,0,0,-1,1889,1569,0,0
672,-545,0,0,0,0,0,0,0,0,0,-1,1896,1569,0,0
679,-545,0,0,0,0,0,0,0,0,0,-1,1903,1569,0,0
686,-545,0,0,0,0,0,0,0,0,0,-1,1910,1569,0,0
693,-545,0,0,0,0,0,0,0,0,0,-1,1917,1569,0,0
700,-545,0,0,0,0,0,0,0,0,0,-1,1924,1569,0,0
707,-545,0,0,0,0,0,0,0,0,0,-1,1931,1569,0,0
714,-545,0,0,0,0,0,0,0,0,0,-1,1938,1569,0,0
721,-545,0,0,0,0,0,0,0,0,0,-1,1945,1569,0,0
728,-545,0,0,0,0,0,0,0,0,0,-1,1952,1569,0,0
735,-545,0,0,0,0,0,0,0,0,0,-1,1959,1569,0,0
742,-545,0,0,0,0,0,0,0,0,0,-1,1966,1569,0,0
749,-545,0,0,0,0,0,0,0,0,0,-1,1973,1569,0,0
756,-545,0,0,0,0,0,0,0,0,0,-1,1980,1569,0,0
763,-545,0,0,0,0,0,0,0,0,0,-1,1987,1569,0,0
770,-545,0,0,0,0,0,0,0,0,0,-1,1994,1569,0,0
777,-545,0,0,0,0,0,0,0,0,0,-1,2001,1569,0,0
784,-545,0,0,0,0,0,0,0,0,0,-1,2008,1569,0,0
791,-545,0,0,0,0,0,0,0,0,0,-1,2015,1569,0,0
798,-545,0,0,0,0,0,0,0,0,0,-1,2022,1569,0,0
805,-545,0,0,0,0,0,0,0,0,0,-1,2029,1569,0,0
812,-545,0,0,0,0,0,0,0,0,0,-1,2036,1569,0,0
-700,-552,0,0,0,0,0,0,0,0,0,-1,524,1576,0,0
-693,-552,0,0,0,0,0,0,0,0,0,-1,531,1576,0,0
-686,-552,0,0,0,0,0,0,0,0,0,-1,538,1576,0,0
-679,-552,0,0,0,0,0,0,0,0,0,-1,545,1576,0,0
-672,-552,0,0,0,0,0,0,0,0,0,-1,552,1576,0,0
-665,-552,0,0,0,0,0,0,0,0,0,-1,559,1576,0,0
-658,-552,0,0,0,0,0,0,0,0,0,-1,566,1576,0,0
-651,-552,0,0,0,0,0,0,0,0,0,-1,573,1576,0,0
-644,-552,0,0,0,0,0,0,0,0,0,-1,580,1576,0,0
-637,-552,0,0,0,0,0,0,0,0,0,-1,587,1576,0,0
-630,-552,0,0,0,0,0,0,0,0,0,-1,594,1576,0,0
-623,-552,0,0,0,0,0,0,0,0,0,-1,601,1576,0,0
-616,-552,0,0,0,0,0,0,0,0,0,-1,608,1576,0,0
-609,-552,0,0,0,0,0,0,0,0,0,-1,615,1576,0,0
-602,-552,0,0,0,0,0,0,0,0,0,-1,622,1576,0,0
-595,-552,0,0,0,0,0,0,0,0,0,-1,629,1576,0,0
-588,-552,0,0,0,0,0,0,0,0,0,-1,636,1576,0,0
-581,-552,0,0,0,0,0,0,0,0,0,-1,643,1576,0,0
-574,-552,0,0,0,0,0,0,0,0,0,-1,650,1576,0,0
-567,-552,0,0,0,0,0,0,0,0,0,-1,657,1576,0,0
-560,-552,0,0,0,0,0,0,0,0,0,-1,664,1576,0,0
-553,-552,0,0,0,0,0,0,0,0,0,-1,671,1576,0,0
-546,-552,0,0,0,0,0,0,0,0,0,-1,678,1576,0,0
-539,-552,0,0,0,0,0,0,0,0,0,-1,685,1576,0,0
-532,-552,0,0,0,0,0,0,0,0,0,-1,692,1576,0,0
-525,-552,0,0,0,0,0,0,0,0,0,-1,699,1576,0,0
-518,-552,0,0,0,0,0,0,0,0,0,-1,706,1576,0,0
-511,-552,0,0,0,0,0,0,0,0,0,-1,713,1576,0,0
-504,-552,0,0,0,0,0,0,0,0,0,-1,720,1576,0,0
-497,-552,4.93781,1.23352,0,0,0,0,0,0,0,-1,727,1576,4.93781,-1.23351
-490,-552,4.63727,-3.9071,0,0,0,0,0,0,0,-1,734,1576,4.6373,3.90714
-483,-552,4.64648,-1.84534,0,0,0,0,0,0,0,-1,741,1576,4.64651,1.84539
-476,-552,4.99792,0.756592,0,0,0,0,0,0,0,-1,748,1576,4.99794,-0.756561
-469,-552,4.7887,1.22095,0,0,0,0,0,0,0,-1,755,1576,4.78872,-1.22091
-462,-552,4.67712,2.448,0,0,0,0,0,0,0,-1,762,1576,4.67711,-2.44794
-455,-552,0.606689,5.2666,0,0,0,0,0,0,0,-1,769,1576,0.606704,-5.26665
-448,-552,0.51178,5.48328,0,0,0,0,0,0,0,-1,776,1576,0.511765,-5.48328
-441,-552,0.557617,5.8313,0.00859481,0.0435554,0.0410084,0.0706537,-0.0185034,0.986868,0.0543309,0.035396,783,1576,0.557639,-5.83134
-434,-552,0.636475,6.12732,0.00588844,0.0314207,0.0301782,0.0514219,-0.0141128,0.985496,0.0398279,0.0197195,790,1576,0.636492,-6.12732
-427,-552,0.615906,6.27527,0.00408724,0.0206472,0.0198392,0.033865,-0.00913055,0.983086,0.0261569,0.014324,797,1576,0.615919,-6.27525
-420,-552,0.638977,6.47192,0.00321498,0.01243,0.0116509,0.0203514,-0.00470641,0.973693,0.0153784,0.0171468,804,1576,0.639007,-6.47198
-413,-552,0.629395,6.67554,0.00287838,0.00803838,0.00753223,0.0134202,-0.00250346,0.9504,0.00988752,0.0159196,811,1576,0.62937,-6.67548
-406,-552,0.628601,6.89282,0.00257035,0.00366842,0.00353899,0.00670071,-0.00046194,0.862354,0.00462881,0.0120698,818,1576,0.628574,-6.89277
-399,-552,0.628479,7.06799,0.00228963,0.000776329,0.00117582,0.00293122,0.000134742,0.499499,0.00191081,0.0129088,825,1576,0.628473,-7.06796
-392,-552,0.593628,7.25122,0.00212429,-0.00061138,0.000232744,0.00214395,-0.00063104,0.0842705,0.00167964,0.0141447,832,1576,0.593635,-7.25119
-385,-552,0.595764,7.46179,0.00212555,-0.00130546,-6.67957e-05,0.00212685,-0.00130676,-0.0194584,0.00200115,0.0129063,839,1576,0.595756,-7.46181
-378,-552,0.597229,7.64526,0.00207209,-0.00220584,0.000132941,0.00207622,-0.00220997,0.0310361,0.00247503,0.0143027,846,1576,0.597217,-7.64521
-371,-552,0.589294,7.83557,0.00188223,-0.00346066,0.000763892,0.00198931,-0.00356773,0.139257,0.00325121,0.0181258,853,1576,0.589288,-7.83559
-364,-552,0.602661,8.02771,0.00168676,-0.00458008,0.00135177,0.00196591,-0.00485923,0.203642,0.0040568,0.0144069,860,1576,0.602639,-8.02776
-357,-552,0.63092,8.21692,0.00152822,-0.00426916,0.00126218,0.0017911,-0.00453204,0.205337,0.00376326,0.00993557,867,1576,0.6309,-8.21698
-350,-552,0.622314,8.40735,0.00166561,-0.00451059,0.000827245,0.00177449,-0.00461947,0.130868,0.00381142,0.00924581,874,1576,0.622306,-8.40737
-343,-552,0.609619,8.56982,0.00205139,-0.00355659,0.000208332,0.00205912,-0.00356431,0.0370812,0.00328523,0.00994698,881,1576,0.609631,-8.56979
-336,-552,0.634521,8.6792,0.00237526,-0.00275059,-0.000485887,0.00242091,-0.00279624,-0.0936798,0.00301472,0.0146829,888,1576,0.634511,-8.67926
-329,-552,0.645386,8.88281,0.00287644,-0.00120547,-0.00172061,0.00350495,-0.00183398,-0.35022,0.00313235,0.0285574,895,1576,0.645407,-8.88285
-322,-552,0.705566,9.21484,0.00354643,0.000928015,-0.00357418,0.00604364,-0.00156919,-0.60984,0.00464143,0.046214,902,1576,0.705547,-9.21481
-315,-552,0.862854,9.36279,0,0,0,0,0,0,0,-1,909,1576,0.862826,-9.36276
-308,-552,3.51166,6.09509,0,0,0,0,0,0,0,-1,916,1576,3.51166,-6.09507
-301,-552,0.554626,9.4668,0,0,0,0,0,0,0,-1,923,1576,0.554636,-9.46681
-294,-552,0.638977,9.81787,0,0,0,0,0,0,0,-1,930,1576,0.639004,-9.81789
-287,-552,0.746643,10.2659,0,0,0,0,0,0,0,-1,937,1576,0.74664,-10.2659
-280,-552,1.53284,9.10034,0,0,0,0,0,0,0,-1,944,1576,1.53283,-9.10031
-273,-552,1.64587,10.6685,0,0,0,0,0,0,0,-1,951,1576,1.6459,-10.6685
-266,-552,-1.32678,8.05688,0,0,0,0,0,0,0,-1,958,1576,-1.32677,-8.05683
-259,-552,-5.54321,8.31213,0,0,0,0,0,0,0,-1,965,1576,-5.54324,-8.31214
-252,-552,-6.49988,8.56104,0,0,0,0,0,0,0,-1,972,1576,-6.49986,-8.56109
-245,-552,-3.40894,1.31848,0,0,0,0,0,0,0,-1,979,1576,-3.40892,-1.31848
-238,-552,-3.21082,1.84302,0,0,0,0,0,0,0,-1,986,1576,-3.21083,-1.84301
-231,-552,-2.26306,3.03308,0,0,0,0,0,0,0,-1,993,1576,-2.26306,-3.03305
-224,-552,0,0,0,0,0,0,0,0,0,-1,1000,1576,0,0
-217,-552,0,0,0,0,0,0,0,0,0,-1,1007,1576,0,0
-210,-552,0,0,0,0,0,0,0,0,0,-1,1014,1576,0,0
-203,-552,0,0,0,0,0,0,0,0,0,-1,1021,1576,0,0
-196,-552,0,0,0,0,0,0,0,0,0,-1,1028,1576,0,0
-189,-552,0,0,0,0,0,0,0,0,0,-1,1035,1576,0,0
-182,-552,0,0,0,0,0,0,0,0,0,-1,1042,1576,0,0
-175,-552,0,0,0,0,0,0,0,0,0,-1,1049,1576,0,0
-168,-552,0,0,0,0,0,0,0,0,0,-1,1056,1576,0,0
-161,-552,0,0,0,0,0,0,0,0,0,-1,1063,1576,0,0
-154,-552,0,0,0,0,0,0,0,0,0,-1,1070,1576,0,0
-147,-552,0,0,0,0,0,0,0,0,0,-1,1077,1576,0,0
-140,-552,0,0,0,0,0,0,0,0,0,-1,1084,1576,0,0
-133,-552,0,0,0,0,0,0,0,0,0,-1,1091,1576,0,0
-126,-552,0,0,0,0,0,0,0,0,0,-1,1098,1576,0,0
-119,-552,0,0,0,0,0,0,0,0,0,-1,1105,1576,0,0
-112,-552,0,0,0,0,0,0,0,0,0,-1,1112,1576,0,0
-105,-552,0,0,0,0,0,0,0,0,0,-1,1119,1576,0,0
-98,-552,0,0,0,0,0,0,0,0,0,-1,1126,1576,0,0
-91,-552,0,0,0,0,0,0,0,0,0,-1,1133,1576,0,0
-84,-552,0,0,0,0,0,0,0,0,0,-1,1140,1576,0,0
-77,-552,0,0,0,0,0,0,0,0,0,-1,1147,1576,0,0
-70,-552,0,0,0,0,0,0,0,0,0,-1,1154,1576,0,0
-63,-552,0,0,0,0,0,0,0,0,0,-1,1161,1576,0,0
-56,-552,0,0,0,0,0,0,0,0,0,-1,1168,1576,0,0
-49,-552,0,0,0,0,0,0,0,0,0,-1,1175,1576,0,0
-42,-552,0,0,0,0,0,0,0,0,0,-1,1182,1576,0,0
-35,-552,0,0,0,0,0,0,0,0,0,-1,1189,1576,0,0
-28,-552,0,0,0,0,0,0,0,0,0,-1,1196,1576,0,0
-21,-552,0,0,0,0,0,0,0,0,0,-1,1203,1576,0,0
-14,-552,0,0,0,0,0,0,0,0,0,-1,1210,1576,0,0
-7,-552,0,0,0,0,0,0,0,0,0,-1,1217,1576,0,0
0,-552,0,0,0,0,0,0,0,0,0,-1,1224,1576,0,0
7,-552,0,0,0,0,0,0,0,0,0,-1,1231,1576,0,0
14,-552,0,0,0,0,0,0,0,0,0,-1,1238,1576,0,0
21,-552,0,0,0,0,0,0,0,0,0,-1,1245,1576,0,0
28,-552,0,0,0,0,0,0,0,0,0,-1,1252,1576,0,0
35,-552,0,0,0,0,0,0,0,0,0,-1,1259,1576,0,0
42,-552,0,0,0,0,0,0,0,0,0,-1,1266,1576,0,0
49,-552,0,0,0,0,0,0,0,0,0,-1,1273,1576,0,0
56,-552,0,0,0,0,0,0,0,0,0,-1,1280,1576,0,0
63,-552,0,0,0,0,0,0,0,0,0,-1,1287,1576,0,0
70,-552,0,0,0,0,0,0,0,0,0,-1,1294,1576,0,0
77,-552,0,0,0,0,0,0,0,0,0,-1,1301,1576,0,0
84,-552,0,0,0,0,0,0,0,0,0,-1,1308,1576,0,0
91,-552,0,0,0,0,0,0,0,0,0,-1,1315,1576,0,0
98,-552,0,0,0,0,0,0,0,0,0,-1,1322,1576,0,0
105,-552,0,0,0,0,0,0,0,0,0,-1,1329,1576,0,0
112,-552,0,0,0,0,0,0,0,0,0,-1,1336,1576,0,0
119,-552,0,0,0,0,0,0,0,0,0,-1,1343,1576,0,0
126,-552,0,0,0,0,0,0,0,0,0,-1,1350,1576,0,0
133,-552,0,0,0,0,0,0,0,0,0,-1,1357,1576,0,0
140,-552,0,0,0,0,0,0,0,0,0,-1,1364,1576,0,0
147,-552,0,0,0,0,0,0,0,0,0,-1,1371,1576,0,0
154,-552,0,0,0,0,0,0,0,0,0,-1,1378,1576,0,0
161,-552,0,0,0,0,0,0,0,0,0,-1,1385,1576,0,0
168,-552,0,0,0,0,0,0,0,0,0,-1,1392,1576,0,0
175,-552,0,0,0,0,0,0,0,0,0,-1,1399,1576,0,0
182,-552,0,0,0,0,0,0,0,0,0,-1,1406,1576,0,0
189,-552,0,0,0,0,0,0,0,0,0,-1,1413,1576,0,0
196,-552,0,0,0,0,0,0,0,0,0,-1,1420,1576,0,0
203,-552,0,0,0,0,0,0,0,0,0,-1,1427,1576,0,0
210,-552,0,0,0,0,0,0,0,0,0,-1,1434,1576,0,0
217,-552,0,0,0,0,0,0,0,0,0,-1,1441,1576,0,0
224,-552,0,0,0,0,0,0,0,0,0,-1,1448,1576,0,0
231,-552,0,0,0,0,0,0,0,0,0,-1,1455,1576,0,0
238,-552,0,0,0,0,0,0,0,0,0,-1,1462,1576,0,0
245,-552,0,0,0,0,0,0,0,0,0,-1,1469,1576,0,0
252,-552,0,0,0,0,0,0,0,0,0,-1,1476,1576,0,0
259,-552,0,0,0,0,0,0,0,0,0,-1,1483,1576,0,0
266,-552,0,0,0,0,0,0,0,0,0,-1,1490,1576,0,0
273,-552,0,0,0,0,0,0,0,0,0,-1,1497,1576,0,0
280,-552,0,0,0,0,0,0,0,0,0,-1,1504,1576,0,0
287,-552,0,0,0,0,0,0,0,0,0,-1,1511,1576,0,0
294,-552,0,0,0,0,0,0,0,0,0,-1,1518,1576,0,0
301,-552,0,0,0,0,0,0,0,0,0,-1,1525,1576,0,0
308,-552,0,0,0,0,0,0,0,0,0,-1,1532,1576,0,0
315,-552,0,0,0,0,0,0,0,0,0,-1,1539,1576,0,0
322,-552,0,0,0,0,0,0,0,0,0,-1,1546,1576,0,0
329,-552,0,0,0,0,0,0,0,0,0,-1,1553,1576,0,0
336,-552,0,0,0,0,0,0,0,0,0,-1,1560,1576,0,0
343,-552,0,0,0,0,0,0,0,0,0,-1,1567,1576,0,0
350,-552,4.97876,4.09888,0,0,0,0,0,0,0,-1,1574,1576,4.97875,-4.09883
357,-552,5.18469,4.10706,0,0,0,0,0,0,0,-1,1581,1576,5.1847,-4.10702
364,-552,5.448,4.15759,0,0,0,0,0,0,0,-1,1588,1576,5.44797,-4.15757
371,-552,7.10657,5.64783,0,0,0,0,0,0,0,-1,1595,1576,7.10651,-5.64786
378,-552,6.44446,4.91492,0,0,0,0,0,0,0,-1,1602,1576,6.44448,-4.91496
385,-552,12.8276,3.16504,0,0,0,0,0,0,0,-1,1609,1576,12.8276,-3.16503
392,-552,12.1301,4.3363,0,0,0,0,0,0,0,-1,1616,1576,12.1302,-4.33631
399,-552,11.3486,5.6012,0,0,0,0,0,0,0,-1,1623,1576,11.3486,-5.60115
406,-552,10.7863,6.42542,0,0,0,0,0,0,0,-1,1630,1576,10.7863,-6.42536
413,-552,10.4117,7.00818,0,0,0,0,0,0,0,-1,1637,1576,10.4118,-7.00812
420,-552,11.7545,11.6764,0,0,0,0,0,0,0,-1,1644,1576,11.7546,-11.6764
427,-552,7.55859,9.02161,0,0,0,0,0,0,0,-1,1651,1576,7.55863,-9.02165
434,-552,7.74097,9.37,0,0,0,0,0,0,0,-1,1658,1576,7.741,-9.37
441,-552,7.59619,9.08606,0,0,0,0,0,0,0,-1,1665,1576,7.59625,-9.08602
448,-552,7.49634,9.1532,-0.0115737,-0.0522408,0.0310592,0.00521589,-0.0690304,0.495572,0.0478537,0.0470786,1672,1576,7.4964,-9.1532
455,-552,7.48706,9.15588,-0.0104739,-0.0461823,0.0284032,0.0052206,-0.0618768,0.504807,0.043097,0.043242,1679,1576,7.48712,-9.15587
462,-552,7.19006,9.23145,-0.0096161,-0.0400497,0.0256341,0.00497744,-0.0546432,0.517542,0.0381962,0.0407394,1686,1576,7.19009,-9.23149
469,-552,7.32715,9.67297,-0.00856764,-0.0341268,0.0228161,0.00480406,-0.0474985,0.530111,0.0333825,0.0335733,1693,1576,7.32719,-9.67292
476,-552,7.2207,9.71875,-0.0075684,-0.0284879,0.0197745,0.00434229,-0.0403986,0.542128,0.0284903,0.0153119,1700,1576,7.22068,-9.71876
483,-552,7.24951,9.58167,-0.00649314,-0.0231052,0.0168789,0.00401277,-0.0336111,0.556747,0.0238577,0.0129654,1707,1576,7.24953,-9.58166
490,-552,7.24988,9.40466,-0.0054342,-0.0181183,0.0141891,0.00376574,-0.0273182,0.575235,0.0195884,0.0142527,1714,1576,7.24989,-9.40463
497,-552,7.26917,9.23682,-0.00444848,-0.0138748,0.0115668,0.00332856,-0.0216518,0.591932,0.0156624,0.0222142,1721,1576,7.26913,-9.23679
504,-552,7.26123,9.06165,-0.00345545,-0.00983005,0.0090213,0.00292505,-0.0162106,0.615589,0.0119025,0.0233972,1728,1576,7.26121,-9.06161
511,-552,7.23511,8.88403,-0.00235686,-0.00657667,0.00654578,0.00241066,-0.0113442,0.62949,0.00848132,0.0175829,1735,1576,7.23515,-8.88402
518,-552,7.24707,8.74158,-0.00130458,-0.00385034,0.00419972,0.00181092,-0.00696584,0.638255,0.00535067,0.014531,1742,1576,7.24702,-8.74159
525,-552,7.22778,8.5752,-0.000301846,-0.00183476,0.00214654,0.00121097,-0.00334758,0.61392,0.00272654,0.0126079,1749,1576,7.22774,-8.57518
532,-552,7.23022,8.38855,0.000566791,-0.000392102,0.000407844,0.000716793,-0.000542104,0.352437,0.000729153,0.0144622,1756,1576,7.23019,-8.38861
539,-552,7.23535,8.21045,0.00120815,0.000683755,-0.000974426,0.00195504,-6.31334e-05,-0.653972,0.0013249,0.0180794,1763,1576,7.23533,-8.21042
546,-552,7.21741,8.05286,0.00175912,0.00181489,-0.00212043,0.00390762,-0.000333616,-0.791973,0.00272311,0.0209839,1770,1576,7.2174,-8.05286
553,-552,7.26111,7.84424,0.00233745,0.00284759,-0.00280452,0.00540861,-0.000223574,-0.830748,0.00368253,0.0236451,1777,1576,7.26115,-7.84419
560,-552,7.20959,7.81702,0.00290975,0.00388184,-0.0032916,0.00672308,6.85079e-05,-0.8587,0.0044594,0.0476705,1784,1576,7.2096,-7.81698
567,-552,7.27258,7.44495,0,0,0,0,0,0,0,-1,1791,1576,7.27264,-7.4449
574,-552,7.2793,7.26929,0,0,0,0,0,0,0,-1,1798,1576,7.27928,-7.26928
581,-552,7.20569,6.99817,0,0,0,0,0,0,0,-1,1805,1576,7.20566,-6.99817
588,-552,6.99768,6.64026,0,0,0,0,0,0,0,-1,1812,1576,6.99772,-6.64024
595,-552,5.36194,6.62744,0,0,0,0,0,0,0,-1,1819,1576,5.36193,-6.62742
602,-552,7.57312,5.09302,0,0,0,0,0,0,0,-1,1826,1576,7.57311,-5.09302
609,-552,9.7843,3.55859,0,0,0,0,0,0,0,-1,1833,1576,9.78429,-3.55861
616,-552,8.70496,2.2627,0,0,0,0,0,0,0,-1,1840,1576,8.70495,-2.26274
623,-552,0,0,0,0,0,0,0,0,0,-1,1847,1576,0,0
630,-552,0,0,0,0,0,0,0,0,0,-1,1854,1576,0,0
637,-552,0,0,0,0,0,0,0,0,0,-1,1861,1576,0,0
644,-552,0,0,0,0,0,0,0,0,0,-1,1868,1576,0,0
651,-552,0,0,0,0,0,0,0,0,0,-1,1875,1576,0,0
658,-552,0,0,0,0,0,0,0,0,0,-1,1882,1576,0,0
665,-552,0,0,0,0,0,0,0,0,0,-1,1889,1576,0,0
672,-552,0,0,0,0,0,0,0,0,0,-1,1896,1576,0,0
679,-552,0,0,0,0,0,0,0,0,0,-1,1903,1576,0,0
686,-552,0,0,0,0,0,0,0,0,0,-1,1910,1576,0,0
693,-552,0,0,0,0,0,0,0,0,0,-1,1917,1576,0,0
700,-552,0,0,0,0,0,0,0,0,0,-1,1924,1576,0,0
707,-552,0,0,0,0,0,0,0,0,0,-1,1931,1576,0,0
714,-552,0,0,0,0,0,0,0,0,0,-1,1938,1576,0,0
721,-552,0,0,0,0,0,0,0,0,0,-1,1945,1576,0,0
728,-552,0,0,0,0,0,0,0,0,0,-1,1952,1576,0,0
735,-552,0,0,0,0,0,0,0,0,0,-1,1959,1576,0,0
742,-552,0,0,0,0,0,0,0,0,0,-1,1966,1576,0,0
749,-552,0,0,0,0,0,0,0,0,0,-1,1973,1576,0,0
756,-552,0,0,0,0,0,0,0,0,0,-1,1980,1576,0,0
763,-552,0,0,0,0,0,0,0,0,0,-1,1987,1576,0,0
770,-552,0,0,0,0,0,0,0,0,0,-1,1994,1576,0,0
777,-552,0,0,0,0,0,0,0,0,0,-1,2001,1576,0,0
784,-552,0,0,0,0,0,0,0,0,0,-1,2008,1576,0,0
791,-552,0,0,0,0,0,0,0,0,0,-1,2015,1576,0,0
798,-552,0,0,0,0,0,0,0,0,0,-1,2022,1576,0,0
805,-552,0,0,0,0,0,0,0,0,0,-1,2029,1576,0,0
812,-552,0,0,0,0,0,0,0,0,0,-1,2036,1576,0,0
-700,-559,0,0,0,0,0,0,0,0,0,-1,524,1583,0,0
-693,-559,0,0,0,0,0,0,0,0,0,-1,531,1583,0,0
-686,-559,0,0,0,0,0,0,0,0,0,-1,538,1583,0,0
-679,-559,0,0,0,0,0,0,0,0,0,-1,545,1583,0,0
-672,-559,0,0,0,0,0,0,0,0,0,-1,552,1583,0,0
-665,-559,0,0,0,0,0,0,0,0,0,-1,559,1583,0,0
-658,-559,0,0,0,0,0,0,0,0,0,-1,566,1583,0,0
-651,-559,0,0,0,0,0,0,0,0,0,-1,573,1583,0,0
-644,-559,0,0,0,0,0,0,0,0,0,-1,580,1583,0,0
-637,-559,0,0,0,0,0,0,0,0,0,-1,587,1583,0,0
-630,-559,0,0,0,0,0,0,0,0,0,-1,594,1583,0,0
-623,-559,0,0,0,0,0,0,0,0,0,-1,601,1583,0,0
-616,-559,0,0,0,0,0,0,0,0,0,-1,608,1583,0,0
-609,-559,0,0,0,0,0,0,0,0,0,-1,615,1583,0,0
-602,-559,0,0,0,0,0,0,0,0,0,-1,622,1583,0,0
-595,-559,0,0,0,0,0,0,0,0,0,-1,629,1583,0,0
-588,-559,0,0,0,0,0,0,0,0,0,-1,636,1583,0,0
-581,-559,0,0,0,0,0,0,0,0,0,-1,643,1583,0,0
-574,-559,0,0,0,0,0,0,0,0,0,-1,650,1583,0,0
-567,-559,0,0,0,0,0,0,0,0,0,-1,657,1583,0,0
-560,-559,0,0,0,0,0,0,0,0,0,-1,664,1583,0,0
-553,-559,0,0,0,0,0,0,0,0,0,-1,671,1583,0,0
-546,-559,0,0,0,0,0,0,0,0,0,-1,678,1583,0,0
-539,-559,0,0,0,0,0,0,0,0,0,-1,685,1583,0,0
-532,-559,0,0,0,0,0,0,0,0,0,-1,692,1583,0,0
-525,-559,0,0,0,0,0,0,0,0,0,-1,699,1583,0,0
-518,-559,0,0,0,0,0,0,0,0,0,-1,706,1583,0,0
-511,-559,0,0,0,0,0,0,0,0,0,-1,713,1583,0,0
-504,-559,0,0,0,0,0,0,0,0,0,-1,720,1583,0,0
-497,-559,0,0,0,0,0,0,0,0,0,-1,727,1583,0,0
-490,-559,3.92438,-3.86279,0,0,0,0,0,0,0,-1,734,1583,3.92436,3.86275
-483,-559,3.6922,-2.35962,0.0639045,0.155253,0.157152,0.273233,-0.0540761,0.92682,0.202601,0.0488571,741,1583,3.69219,2.35966
-476,-559,3.75653,-0.426514,0.0436421,0.145592,0.144772,0.248102,-0.0588674,0.954673,0.188119,0.0480047,748,1583,3.7565,0.426511
-469,-559,3.58325,0.761475,0,0,0,0,0,0,0,-1,755,1583,3.58323,-0.761526
-462,-559,3.4751,1.99597,0,0,0,0,0,0,0,-1,762,1583,3.47512,-1.99593
-455,-559,3.3172,3.40308,0,0,0,0,0,0,0,-1,769,1583,3.31721,-3.40304
-448,-559,0.621765,5.23804,0,0,0,0,0,0,0,-1,776,1583,0.621752,-5.23807
-441,-559,0.689331,5.69336,0.0104745,0.0585814,0.0563036,0.0957543,-0.0266984,0.987269,0.0743511,0.0450361,783,1583,0.68933,-5.6934
-434,-559,0.843384,6.13611,0.00752523,0.0429146,0.0412742,0.0701272,-0.0196873,0.987903,0.0545121,0.0342968,790,1583,0.843387,-6.13605
-427,-559,0.844727,6.34827,0.00528655,0.0291266,0.0272837,0.0469805,-0.0125674,0.991348,0.0362432,0.0200346,797,1583,0.844707,-6.34828
-420,-559,0.816162,6.48608,0.00397258,0.0180275,0.0161417,0.0286052,-0.00660511,0.990704,0.021611,0.019724,804,1583,0.816137,-6.48607
-413,-559,0.822815,6.67871,0.00321472,0.0119348,0.0102888,0.0187492,-0.00359975,0.98581,0.0138562,0.0121617,811,1583,0.822808,-6.67876
-406,-559,0.819702,6.89063,0.00253236,0.00609213,0.00478649,0.00941896,-0.000794467,0.963404,0.00656018,0.00933228,818,1583,0.819714,-6.89066
-399,-559,0.812073,7.08594,0.00185372,0.00238379,0.001536,0.00367746,0.000560056,0.870831,0.00228792,0.0118383,825,1583,0.812093,-7.08589
-392,-559,0.767395,7.26526,0.00131252,0.000685151,0.000255833,0.00140362,0.000594053,0.342084,0.000813556,0.0152623,832,1583,0.767406,-7.26523
-385,-559,0.786011,7.46033,0.00099824,2.80522e-05,-0.000101779,0.0010088,1.749e-05,-0.103406,0.000666782,0.0155435,839,1583,0.786,-7.46033
-378,-559,0.799622,7.65991,0.000785056,-0.000754586,-1.49291e-05,0.000785201,-0.00075473,-0.00969529,0.000889138,0.0142644,846,1583,0.799647,-7.65986
-371,-559,0.772461,7.86743,0.000570299,-0.00174671,0.000420811,0.000644358,-0.00182077,0.174209,0.00147627,0.0213105,853,1583,0.772482,-7.86748
-364,-559,0.809509,8.03711,0.000358141,-0.00264518,0.000848278,0.000581172,-0.00286821,0.257103,0.00213243,0.0194001,860,1583,0.809486,-8.03708
-357,-559,0.823303,8.21497,0.000295956,-0.00261893,0.000848857,0.000525137,-0.00284811,0.263699,0.00209583,0.0112404,867,1583,0.823326,-8.21495
-350,-559,0.806458,8.37915,0.000530175,-0.00298996,0.000558327,0.000616609,-0.00307639,0.153589,0.00228438,0.00919519,874,1583,0.806486,-8.37912
-343,-559,0.800964,8.55396,0.00099122,-0.00238059,0.000163517,0.000999131,-0.0023885,0.0483441,0.00200994,0.0103901,881,1583,0.800977,-8.55394
-336,-559,0.783325,8.71375,0.00145231,-0.00198745,-0.000283482,0.00147551,-0.00201066,-0.081679,0.00202063,0.0114497,888,1583,0.783324,-8.7137
-329,-559,0.821594,8.91968,0.00204984,-0.00101193,-0.00115571,0.00243709,-0.00139918,-0.323324,0.00224173,0.0143675,895,1583,0.821595,-8.91962
-322,-559,0.928772,9.14526,0.00282167,0.000366581,-0.00249754,0.00437704,-0.00118878,-0.556986,0.00338461,0.0338922,902,1583,0.9288,-9.14525
-315,-559,1.02759,9.27258,0.00389505,0.00212553,-0.00439494,0.0074934,-0.00147282,-0.68607,0.00555205,0.0427127,909,1583,1.02756,-9.27254
-308,-559,1.00525,9.48096,0,0,0,0,0,0,0,-1,916,1583,1.00522,-9.48092
-301,-559,0.852356,9.42847,0.00735059,0.00584481,-0.00946338,0.016091,-0.00289558,-0.745703,0.0118114,0.0482305,923,1583,0.852341,-9.42843
-294,-559,0.964661,9.80859,0.00947683,0.00733189,-0.0122883,0.0207393,-0.00393061,-0.74187,0.0153056,0.0490167,930,1583,0.964679,-9.80862
-287,-559,1.08435,10.2173,0,0,0,0,0,0,0,-1,937,1583,1.08433,-10.2173
-280,-559,0.831299,10.1692,0,0,0,0,0,0,0,-1,944,1583,0.831308,-10.1692
-273,-559,2.12836,10.3059,0,0,0,0,0,0,0,-1,951,1583,2.12839,-10.3059
-266,-559,-0.597046,6.68933,0,0,0,0,0,0,0,-1,958,1583,-0.597031,-6.68937
-259,-559,-7.00311,8.62756,0,0,0,0,0,0,0,-1,965,1583,-7.00312,-8.6275
-252,-559,-8.16071,8.59155,0,0,0,0,0,0,0,-1,972,1583,-8.16071,-8.5915
-245,-559,-5.53461,1.41357,0,0,0,0,0,0,0,-1,979,1583,-5.53459,-1.41351
-238,-559,-4.4657,2.41089,0,0,0,0,0,0,0,-1,986,1583,-4.46567,-2.41091
-231,-559,-3.12872,3.47144,0,0,0,0,0,0,0,-1,993,1583,-3.12872,-3.47149
-224,-559,-1.71423,4.45544,0,0,0,0,0,0,0,-1,1000,1583,-1.71422,-4.4554
-217,-559,0,0,0,0,0,0,0,0,0,-1,1007,1583,0,0
-210,-559,0,0,0,0,0,0,0,0,0,-1,1014,1583,0,0
-203,-559,0,0,0,0,0,0,0,0,0,-1,1021,1583,0,0
-196,-559,0,0,0,0,0,0,0,0,0,-1,1028,1583,0,0
-189,-559,0,0,0,0,0,0,0,0,0,-1,1035,1583,0,0
-182,-559,0,0,0,0,0,0,0,0,0,-1,1042,1583,0,0
-175,-559,0,0,0,0,0,0,0,0,0,-1,1049,1583,0,0
-168,-559,0,0,0,0,0,0,0,0,0,-1,1056,1583,0,0
-161,-559,0,0,0,0,0,0,0,0,0,-1,1063,1583,0,0
-154,-559,0,0,0,0,0,0,0,0,0,-1,1070,1583,0,0
-147,-559,0,0,0,0,0,0,0,0,0,-1,1077,1583,0,0
-140,-559,0,0,0,0,0,0,0,0,0,-1,1084,1583,0,0
-133,-559,0,0,0,0,0,0,0,0,0,-1,1091,1583,0,0
-126,-559,0,0,0,0,0,0,0,0,0,-1,1098,1583,0,0
-119,-559,0,0,0,0,0,0,0,0,0,-1,1105,1583,0,0
-112,-559,0,0,0,0,0,0,0,0,0,-1,1112,1583,0,0
-105,-559,0,0,0,0,0,0,0,0,0,-1,1119,1583,0,0
-98,-559,0,0,0,0,0,0,0,0,0,-1,1126,1583,0,0
-91,-559,0,0,0,0,0,0,0,0,0,-1,1133,1583,0,0
-84,-559,0,0,0,0,0,0,0,0,0,-1,1140,1583,0,0
-77,-559,0,0,0,0,0,0,0,0,0,-1,1147,1583,0,0
-70,-559,0,0,0,0,0,0,0,0,0,-1,1154,1583,0,0
-63,-559,0,0,0,0,0,0,0,0,0,-1,1161,1583,0,0
-56,-559,0,0,0,0,0,0,0,0,0,-1,1168,1583,0,0
-49,-559,0,0,0,0,0,0,0,0,0,-1,1175,1583,0,0
-42,-559,0,0,0,0,0,0,0,0,0,-1,1182,1583,0,0
-35,-559,0,0,0,0,0,0,0,0,0,-1,1189,1583,0,0
-28,-559,0,0,0,0,0,0,0,0,0,-1,1196,1583,0,0
-21,-559,0,0,0,0,0,0,0,0,0,-1,1203,1583,0,0
-14,-559,0,0,0,0,0,0,0,0,0,-1,1210,1583,0,0
-7,-559,0,0,0,0,0,0,0,0,0,-1,1217,1583,0,0
0,-559,0,0,0,0,0,0,0,0,0,-1,1224,1583,0,0
7,-559,0,0,0,0,0,0,0,0,0,-1,1231,1583,0,0
14,-559,0,0,0,0,0,0,0,0,0,-1,1238,1583,0,0
21,-559,0,0,0,0,0,0,0,0,0,-1,1245,1583,0,0
28,-559,0,0,0,0,0,0,0,0,0,-1,1252,1583,0,0
35,-559,0,0,0,0,0,0,0,0,0,-1,1259,1583,0,0
42,-559,0,0,0,0,0,0,0,0,0,-1,1266,1583,0,0
49,-559,0,0,0,0,0,0,0,0,0,-1,1273,1583,0,0
56,-559,0,0,0,0,0,0,0,0,0,-1,1280,1583,0,0
63,-559,0,0,0,0,0,0,0,0,0,-1,1287,1583,0,0
70,-559,0,0,0,0,0,0,0,0,0,-1,1294,1583,0,0
77,-559,0,0,0,0,0,0,0,0,0,-1,1301,1583,0,0
84,-559,0,0,0,0,0,0,0,0,0,-1,1308,1583,0,0
91,-559,0,0,0,0,0,0,0,0,0,-1,1315,1583,0,0
98,-559,0,0,0,0,0,0,0,0,0,-1,1322,1583,0,0
105,-559,0,0,0,0,0,0,0,0,0,-1,1329,1583,0,0
112,-559,0,0,0,0,0,0,0,0,0,-1,1336,1583,0,0
119,-559,0,0,0,0,0,0,0,0,0,-1,1343,1583,0,0
126,-559,0,0,0,0,0,0,0,0,0,-1,1350,1583,0,0
133,-559,0,0,0,0,0,0,0,0,0,-1,1357,1583,0,0
140,-559,0,0,0,0,0,0,0,0,0,-1,1364,1583,0,0
147,-559,0,0,0,0,0,0,0,0,0,-1,1371,1583,0,0
154,-559,0,0,0,0,0,0,0,0,0,-1,1378,1583,0,0
161,-559,0,0,0,0,0,0,0,0,0,-1,1385,1583,0,0
168,-559,0,0,0,0,0,0,0,0,0,-1,1392,1583,0,0
175,-559,0,0,0,0,0,0,0,0,0,-1,1399,1583,0,0
182,-559,0,0,0,0,0,0,0,0,0,-1,1406,1583,0,0
189,-559,0,0,0,0,0,0,0,0,0,-1,1413,1583,0,0
196,-559,0,0,0,0,0,0,0,0,0,-1,1420,1583,0,0
203,-559,0,0,0,0,0,0,0,0,0,-1,1427,1583,0,0
210,-559,0,0,0,0,0,0,0,0,0,-1,1434,1583,0,0
217,-559,0,0,0,0,0,0,0,0,0,-1,1441,1583,0,0
224,-559,0,0,0,0,0,0,0,0,0,-1,1448,1583,0,0
231,-559,0,0,0,0,0,0,0,0,0,-1,1455,1583,0,0
238,-559,0,0,0,0,0,0,0,0,0,-1,1462,1583,0,0
245,-559,0,0,0,0,0,0,0,0,0,-1,1469,1583,0,0
252,-559,0,0,0,0,0,0,0,0,0,-1,1476,1583,0,0
259,-559,0,0,0,0,0,0,0,0,0,-1,1483,1583,0,0
266,-559,0,0,0,0,0,0,0,0,0,-1,1490,1583,0,0
273,-559,0,0,0,0,0,0,0,0,0,-1,1497,1583,0,0
280,-559,0,0,0,0,0,0,0,0,0,-1,1504,1583,0,0
287,-559,0,0,0,0,0,0,0,0,0,-1,1511,1583,0,0
294,-559,0,0,0,0,0,0,0,0,0,-1,1518,1583,0,0
301,-559,0,0,0,0,0,0,0,0,0,-1,1525,1583,0,0
308,-559,0,0,0,0,0,0,0,0,0,-1,1532,1583,0,0
315,-559,0,0,0,0,0,0,0,0,0,-1,1539,1583,0,0
322,-559,0,0,0,0,0,0,0,0,0,-1,1546,1583,0,0
329,-559,0,0,0,0,0,0,0,0,0,-1,1553,1583,0,0
336,-559,5.97668,3.09827,0,0,0,0,0,0,0,-1,1560,1583,5.97667,-3.09824
343,-559,5.44824,2.88696,0,0,0,0,0,0,0,-1,1567,1583,5.44819,-2.88693
350,-559,4.69775,3.27051,0,0,0,0,0,0,0,-1,1574,1583,4.69771,-3.27048
357,-559,3.88025,3.60999,0,0,0,0,0,0,0,-1,1581,1583,3.88027,-3.60998
364,-559,5.00928,5.32605,0,0,0,0,0,0,0,-1,1588,1583,5.00928,-5.32607
371,-559,1.84436,2.52441,0,0,0,0,0,0,0,-1,1595,1583,1.84441,-2.52447
378,-559,6.34753,1.53137,0,0,0,0,0,0,0,-1,1602,1583,6.34752,-1.53139
385,-559,6.95911,1.48181,0,0,0,0,0,0,0,-1,1609,1583,6.95916,-1.48175
392,-559,11.6949,4.77734,0,0,0,0,0,0,0,-1,1616,1583,11.6949,-4.77731
399,-559,11.1104,5.56909,0,0,0,0,0,0,0,-1,1623,1583,11.1103,-5.56905
406,-559,10.3385,6.48657,0,0,0,0,0,0,0,-1,1630,1583,10.3385,-6.48661
413,-559,9.76147,6.97571,0,0,0,0,0,0,0,-1,1637,1583,9.76143,-6.97574
420,-559,9.1095,7.36182,0,0,0,0,0,0,0,-1,1644,1583,9.10955,-7.36184
427,-559,10.047,10.3655,0,0,0,0,0,0,0,-1,1651,1583,10.047,-10.3655
434,-559,7.40967,9.34033,0,0,0,0,0,0,0,-1,1658,1583,7.40961,-9.34028
441,-559,7.19348,10.3015,0,0,0,0,0,0,0,-1,1665,1583,7.19352,-10.3015
448,-559,7.1947,9.60535,-0.00886479,-0.0394608,0.0234062,0.00379933,-0.0521249,0.495952,0.0360831,0.0482091,1672,1583,7.19472,-9.60538
455,-559,7.23657,9.56531,-0.00783855,-0.0351146,0.0210292,0.00358776,-0.0465409,0.497728,0.0322897,0.0411451,1679,1583,7.23659,-9.56532
462,-559,7.19922,9.76257,-0.00693483,-0.0305994,0.0187347,0.0033912,-0.0409254,0.503743,0.0284814,0.0327626,1686,1583,7.19921,-9.76253
469,-559,7.06531,9.85583,-0.00607421,-0.0261259,0.0164998,0.00320699,-0.0354071,0.512392,0.0247431,0.0169745,1693,1583,7.06526,-9.85589
476,-559,7.03845,9.73523,-0.00526945,-0.0218122,0.014088,0.00279585,-0.0298775,0.51995,0.0209127,0.00965796,1700,1583,7.0385,-9.73522
483,-559,7.06885,9.57129,-0.00435893,-0.017585,0.0118136,0.00256662,-0.0245106,0.530237,0.0172596,0.0119194,1707,1583,7.0689,-9.57134
490,-559,7.06799,9.40845,-0.00342385,-0.0135666,0.00971361,0.00246257,-0.019453,0.544817,0.0138626,0.0152531,1714,1583,7.06801,-9.4084
497,-559,7.07898,9.24268,-0.00258916,-0.0101353,0.00763509,0.00215425,-0.0148787,0.555909,0.0107097,0.0178143,1721,1583,7.07897,-9.2427
504,-559,7.06885,9.05872,-0.00174574,-0.0067396,0.00560435,0.00189276,-0.0103781,0.575831,0.00762833,0.0220533,1728,1583,7.06881,-9.05866
511,-559,7.06262,8.89197,-0.000802672,-0.00404065,0.00362862,0.00155175,-0.00639507,0.575565,0.00486385,0.0205857,1735,1583,7.06262,-8.89192
518,-559,7.08337,8.74268,9.43399e-05,-0.0017896,0.0017639,0.00115203,-0.00284729,0.540149,0.00237715,0.0130279,1742,1583,7.08341,-8.74268
525,-559,7.07043,8.57629,0.000959499,-0.000184004,0.000150312,0.000978927,-0.000203432,0.12854,0.00072994,0.0105488,1749,1583,7.07037,-8.57629
532,-559,7.05518,8.39124,0.00169745,0.000885744,-0.00118571,0.00254484,3.83477e-05,-0.620506,0.00168392,0.0121421,1756,1583,7.05512,-8.39122
539,-559,7.06909,8.23022,0.00219009,0.00160429,-0.00220593,0.00412248,-0.000328102,-0.719395,0.00286396,0.0167511,1763,1583,7.06907,-8.23028
546,-559,7.06006,8.04688,0.00261851,0.00250235,-0.0031122,0.00567317,-0.000552316,-0.776068,0.00397902,0.0152796,1770,1583,7.06009,-8.04682
553,-559,7.18311,7.81873,0.00315106,0.00346349,-0.00371476,0.00702532,-0.000410767,-0.806412,0.0048263,0.02267,1777,1583,7.18312,-7.81872
560,-559,7.23083,7.91772,0.003787,0.00457034,-0.00426847,0.00846508,-0.000107734,-0.83115,0.00567964,0.0435206,1784,1583,7.23082,-7.91769
567,-559,7.59216,7.50952,0,0,0,0,0,0,0,-1,1791,1583,7.59222,-7.50957
574,-559,8.08838,6.98047,0,0,0,0,0,0,0,-1,1798,1583,8.08843,-6.98043
581,-559,5.97095,5.96179,0,0,0,0,0,0,0,-1,1805,1583,5.97093,-5.96181
588,-559,5.79102,5.89954,0,0,0,0,0,0,0,-1,1812,1583,5.79098,-5.89949
595,-559,5.79089,6.24231,0,0,0,0,0,0,0,-1,1819,1583,5.7909,-6.24227
602,-559,8.72339,4.28833,0,0,0,0,0,0,0,-1,1826,1583,8.72334,-4.28838
609,-559,11.6558,2.33447,0,0,0,0,0,0,0,-1,1833,1583,11.6558,-2.33449
616,-559,0,0,0,0,0,0,0,0,0,-1,1840,1583,0,0
623,-559,0,0,0,0,0,0,0,0,0,-1,1847,1583,0,0
630,-559,0,0,0,0,0,0,0,0,0,-1,1854,1583,0,0
637,-559,0,0,0,0,0,0,0,0,0,-1,1861,1583,0,0
644,-559,0,0,0,0,0,0,0,0,0,-1,1868,1583,0,0
651,-559,0,0,0,0,0,0,0,0,0,-1,1875,1583,0,0
658,-559,0,0,0,0,0,0,0,0,0,-1,1882,1583,0,0
665,-559,0,0,0,0,0,0,0,0,0,-1,1889,1583,0,0
672,-559,0,0,0,0,0,0,0,0,0,-1,1896,1583,0,0
679,-559,0,0,0,0,0,0,0,0,0,-1,1903,1583,0,0
686,-559,0,0,0,0,0,0,0,0,0,-1,1910,1583,0,0
693,-559,0,0,0,0,0,0,0,0,0,-1,1917,1583,0,0
700,-559,0,0,0,0,0,0,0,0,0,-1,1924,1583,0,0
707,-559,0,0,0,0,0,0,0,0,0,-1,1931,1583,0,0
714,-559,0,0,0,0,0,0,0,0,0,-1,1938,1583,0,0
721,-559,0,0,0,0,0,0,0,0,0,-1,1945,1583,0,0
728,-559,0,0,0,0,0,0,0,0,0,-1,1952,1583,0,0
735,-559,0,0,0,0,0,0,0,0,0,-1,1959,1583,0,0
742,-559,0,0,0,0,0,0,0,0,0,-1,1966,1583,0,0
749,-559,0,0,0,0,0,0,0,0,0,-1,1973,1583,0,0
756,-559,0,0,0,0,0,0,0,0,0,-1,1980,1583,0,0
763,-559,0,0,0,0,0,0,0,0,0,-1,1987,1583,0,0
770,-559,0,0,0,0,0,0,0,0,0,-1,1994,1583,0,0
777,-559,0,0,0,0,0,0,0,0,0,-1,2001,1583,0,0
784,-559,0,0,0,0,0,0,0,0,0,-1,2008,1583,0,0
791,-559,0,0,0,0,0,0,0,0,0,-1,2015,1583,0,0
798,-559,0,0,0,0,0,0,0,0,0,-1,2022,1583,0,0
805,-559,0,0,0,0,0,0,0,0,0,-1,2029,1583,0,0
812,-559,0,0,0,0,0,0,0,0,0,-1,2036,1583,0,0
-700,-566,0,0,0,0,0,0,0,0,0,-1,524,1590,0,0
-693,-566,0,0,0,0,0,0,0,0,0,-1,531,1590,0,0
-686,-566,0,0,0,0,0,0,0,0,0,-1,538,1590,0,0
-679,-566,0,0,0,0,0,0,0,0,0,-1,545,1590,0,0
-672,-566,0,0,0,0,0,0,0,0,0,-1,552,1590,0,0
-665,-566,0,0,0,0,0,0,0,0,0,-1,559,1590,0,0
-658,-566,0,0,0,0,0,0,0,0,0,-1,566,1590,0,0
-651,-566,0,0,0,0,0,0,0,0,0,-1,573,1590,0,0
-644,-566,0,0,0,0,0,0,0,0,0,-1,580,1590,0,0
-637,-566,0,0,0,0,0,0,0,0,0,-1,587,1590,0,0
-630,-566,0,0,0,0,0,0,0,0,0,-1,594,1590,0,0
-623,-566,0,0,0,0,0,0,0,0,0,-1,601,1590,0,0
-616,-566,0,0,0,0,0,0,0,0,0,-1,608,1590,0,0
-609,-566,0,0,0,0,0,0,0,0,0,-1,615,1590,0,0
-602,-566,0,0,0,0,0,0,0,0,0,-1,622,1590,0,0
-595,-566,0,0,0,0,0,0,0,0,0,-1,629,1590,0,0
-588,-566,0,0,0,0,0,0,0,0,0,-1,636,1590,0,0
-581,-566,0,0,0,0,0,0,0,0,0,-1,643,1590,0,0
-574,-566,0,0,0,0,0,0,0,0,0,-1,650,1590,0,0
-567,-566,0,0,0,0,0,0,0,0,0,-1,657,1590,0,0
-560,-566,0,0,0,0,0,0,0,0,0,-1,664,1590,0,0
-553,-566,0,0,0,0,0,0,0,0,0,-1,671,1590,0,0
-546,-566,0,0,0,0,0,0,0,0,0,-1,678,1590,0,0
-539,-566,0,0,0,0,0,0,0,0,0,-1,685,1590,0,0
-532,-566,0,0,0,0,0,0,0,0,0,-1,692,1590,0,0
-525,-566,0,0,0,0,0,0,0,0,0,-1,699,1590,0,0
-518,-566,0,0,0,0,0,0,0,0,0,-1,706,1590,0,0
-511,-566,0,0,0,0,0,0,0,0,0,-1,713,1590,0,0
-504,-566,0,0,0,0,0,0,0,0,0,-1,720,1590,0,0
-497,-566,0,0,0,0,0,0,0,0,0,-1,727,1590,0,0
-490,-566,0,0,0,0,0,0,0,0,0,-1,734,1590,0,0
-483,-566,2.79437,-3.02209,0.0559603,0.188005,0.198497,0.331172,-0.0872066,0.945948,0.254873,0.0471537,741,1590,2.79438,3.02208
-476,-566,2.74774,-1.60376,0.0380855,0.178429,0.184188,0.30536,-0.0888452,0.967399,0.238764,0.0471388,748,1590,2.74772,1.60376
-469,-566,2.61011,-0.319336,0,0,0,0,0,0,0,-1,755,1590,2.61008,0.319306
-462,-566,2.27856,1.19995,0.0198657,0.144036,0.145252,0.239915,-0.0760132,0.987362,0.190408,0.0460248,762,1590,2.27857,-1.19999
-455,-566,2.11517,2.53662,0.0171051,0.122115,0.121631,0.20209,-0.06287,0.989152,0.159859,0.0440504,769,1590,2.11516,-2.53657
-448,-566,0.477905,4.90222,0,0,0,0,0,0,0,-1,776,1590,0.4779,-4.90228
-441,-566,0.848511,5.60352,0,0,0,0,0,0,0,-1,783,1590,0.848512,-5.60349
-434,-566,1.21912,6.30469,0,0,0,0,0,0,0,-1,790,1590,1.21912,-6.3047
-427,-566,0.86145,6.50037,0.00646321,0.0397525,0.0364332,0.0631631,-0.0169473,0.999668,0.0487498,0.0405325,797,1590,0.861443,-6.50036
-420,-566,0.924194,6.60254,0.00474782,0.0250851,0.0217588,0.0389341,-0.00910116,1.00399,0.0294621,0.0292214,804,1590,0.92422,-6.60251
-413,-566,1.00067,6.70227,0.00356042,0.0166537,0.0136913,0.0252831,-0.00506893,1.00841,0.0187745,0.0141626,811,1590,1.00068,-6.70224
-406,-566,0.995117,6.88794,0.00253695,0.00884485,0.00631644,0.012751,-0.00136919,1.01695,0.00899187,0.00904654,818,1590,0.995125,-6.88788
-399,-566,0.985901,7.07617,0.00152164,0.00403886,0.00200068,0.0051439,0.0004166,1.06617,0.00329918,0.00903497,825,1590,0.98588,-7.07613
-392,-566,0.965332,7.25916,0.000699772,0.00188284,0.000346126,0.00197667,0.000605948,1.30609,0.00116935,0.0116006,832,1590,0.96531,-7.25914
-385,-566,0.97406,7.46985,0.000189539,0.00120794,-4.42112e-05,0.00120985,0.000187623,-1.52749,0.000751871,0.0147344,839,1590,0.974064,-7.46979
-378,-566,0.954773,7.68079,-7.89446e-05,0.000488224,-5.3384e-05,0.000493205,-8.39256e-05,-1.47776,0.000360054,0.0151887,846,1590,0.954759,-7.68076
-371,-566,0.956482,7.87695,-0.000239648,-0.000331955,0.000218416,-6.25621e-05,-0.000509041,0.681275,0.000320548,0.0217947,853,1590,0.95646,-7.87701
-364,-566,0.9823,8.04797,-0.000397894,-0.00109052,0.000522505,-0.000117354,-0.00137106,0.492741,0.00087754,0.0222097,860,1590,0.982301,-8.04799
-357,-566,0.986145,8.21301,-0.000329892,-0.00131767,0.000593669,-5.15329e-05,-0.00159603,0.438443,0.00104727,0.0172374,867,1590,0.986123,-8.21301
-350,-566,1.00824,8.3667,-1.47117e-06,-0.00182106,0.00039437,8.0326e-05,-0.00190286,0.204512,0.00129618,0.019834,874,1590,1.00826,-8.36666
-343,-566,1.01544,8.5177,0.000511515,-0.00150689,0.000152087,0.000522911,-0.00151828,0.0747873,0.0012243,0.0244628,881,1590,1.01544,-8.51773
-336,-566,0.973083,8.70947,0.00105877,-0.00143685,-0.000107965,0.00106343,-0.00144151,-0.0431543,0.00145171,0.0209756,888,1590,0.973055,-8.70952
-329,-566,0.995972,8.89063,0.00168029,-0.000930579,-0.000700547,0.00185638,-0.00110667,-0.246264,0.00172888,0.0119691,895,1590,0.995971,-8.89066
-322,-566,1.05328,9.07324,0.00241263,-0.000148123,-0.00166178,0.00323007,-0.00096557,-0.457156,0.00253724,0.0136044,902,1590,1.05331,-9.07325
-315,-566,1.00116,9.20337,0.00333247,0.000861057,-0.00302426,0.00536373,-0.00117021,-0.59145,0.00402303,0.0277704,909,1590,1.00115,-9.20337
-308,-566,0.982483,9.33472,0.00450217,0.00195009,-0.00471168,0.00810754,-0.00165528,-0.653158,0.00603297,0.0372018,916,1590,0.982463,-9.33473
-301,-566,1.05585,9.46948,0.00590752,0.00292153,-0.00663795,0.0112183,-0.00238925,-0.67478,0.00838947,0.0435968,923,1590,1.05582,-9.46947
-294,-566,1.06659,9.59692,0.00752347,0.0036722,-0.00857548,0.0143869,-0.00319119,-0.674954,0.0108131,0.0466346,930,1590,1.06658,-9.59691
-287,-566,1.15143,9.73804,0,0,0,0,0,0,0,-1,937,1590,1.15144,-9.73804
-280,-566,0.525757,10.3123,0,0,0,0,0,0,0,-1,944,1590,0.525768,-10.3123
-273,-566,2.79315,9.90991,0,0,0,0,0,0,0,-1,951,1590,2.79315,-9.90994
-266,-566,0.392151,6.90295,0,0,0,0,0,0,0,-1,958,1590,0.392151,-6.90294
-259,-566,0.343628,6.47437,0,0,0,0,0,0,0,-1,965,1590,0.34363,-6.47438
-252,-566,-7.68311,1.01343,0,0,0,0,0,0,0,-1,972,1590,-7.68308,-1.01348
-245,-566,-6.65582,1.8938,0,0,0,0,0,0,0,-1,979,1590,-6.6558,-1.89384
-238,-566,-5.70203,3.03857,0,0,0,0,0,0,0,-1,986,1590,-5.70204,-3.03855
-231,-566,-4.51263,4.12744,0,0,0,0,0,0,0,-1,993,1590,-4.51261,-4.12748
-224,-566,-3.11914,5.40015,0,0,0,0,0,0,0,-1,1000,1590,-3.11915,-5.4001
-217,-566,-2.33643,6.79932,0,0,0,0,0,0,0,-1,1007,1590,-2.33642,-6.79936
-210,-566,-2.04175,7.89893,0,0,0,0,0,0,0,-1,1014,1590,-2.04177,-7.89897
-203,-566,0,0,0,0,0,0,0,0,0,-1,1021,1590,0,0
-196,-566,0,0,0,0,0,0,0,0,0,-1,1028,1590,0,0
-189,-566,0,0,0,0,0,0,0,0,0,-1,1035,1590,0,0
-182,-566,0,0,0,0,0,0,0,0,0,-1,1042,1590,0,0
-175,-566,0,0,0,0,0,0,0,0,0,-1,1049,1590,0,0
-168,-566,0,0,0,0,0,0,0,0,0,-1,1056,1590,0,0
-161,-566,0,0,0,0,0,0,0,0,0,-1,1063,1590,0,0
-154,-566,0,0,0,0,0,0,0,0,0,-1,1070,1590,0,0
-147,-566,0,0,0,0,0,0,0,0,0,-1,1077,1590,0,0
-140,-566,0,0,0,0,0,0,0,0,0,-1,1084,1590,0,0
-133,-566,0,0,0,0,0,0,0,0,0,-1,1091,1590,0,0
-126,-566,0,0,0,0,0,0,0,0,0,-1,1098,1590,0,0
-119,-566,0,0,0,0,0,0,0,0,0,-1,1105,1590,0,0
-112,-566,0,0,0,0,0,0,0,0,0,-1,1112,1590,0,0
-105,-566,0,0,0,0,0,0,0,0,0,-1,1119,1590,0,0
-98,-566,0,0,0,0,0,0,0,0,0,-1,1126,1590,0,0
-91,-566,0,0,0,0,0,0,0,0,0,-1,1133,1590,0,0
-84,-566,0,0,0,0,0,0,0,0,0,-1,1140,1590,0,0
-77,-566,0,0,0,0,0,0,0,0,0,-1,1147,1590,0,0
-70,-566,0,0,0,0,0,0,0,0,0,-1,1154,1590,0,0
-63,-566,0,0,0,0,0,0,0,0,0,-1,1161,1590,0,0
-56,-566,0,0,0,0,0,0,0,0,0,-1,1168,1590,0,0
-49,-566,0,0,0,0,0,0,0,0,0,-1,1175,1590,0,0
-42,-566,0,0,0,0,0,0,0,0,0,-1,1182,1590,0,0
-35,-566,0,0,0,0,0,0,0,0,0,-1,1189,1590,0,0
-28,-566,0,0,0,0,0,0,0,0,0,-1,1196,1590,0,0
-21,-566,0,0,0,0,0,0,0,0,0,-1,1203,1590,0,0
-14,-566,0,0,0,0,0,0,0,0,0,-1,1210,1590,0,0
-7,-566,0,0,0,0,0,0,0,0,0,-1,1217,1590,0,0
0,-566,0,0,0,0,0,0,0,0,0,-1,1224,1590,0,0
7,-566,0,0,0,0,0,0,0,0,0,-1,1231,1590,0,0
14,-566,0,0,0,0,0,0,0,0,0,-1,1238,1590,0,0
21,-566,0,0,0,0,0,0,0,0,0,-1,1245,1590,0,0
28,-566,0,0,0,0,0,0,0,0,0,-1,1252,1590,0,0
35,-566,0,0,0,0,0,0,0,0,0,-1,1259,1590,0,0
42,-566,0,0,0,0,0,0,0,0,0,-1,1266,1590,0,0
49,-566,0,0,0,0,0,0,0,0,0,-1,1273,1590,0,0
56,-566,0,0,0,0,0,0,0,0,0,-1,1280,1590,0,0
63,-566,0,0,0,0,0,0,0,0,0,-1,1287,1590,0,0
70,-566,0,0,0,0,0,0,0,0,0,-1,1294,1590,0,0
77,-566,0,0,0,0,0,0,0,0,0,-1,1301,1590,0,0
84,-566,0,0,0,0,0,0,0,0,0,-1,1308,1590,0,0
91,-566,0,0,0,0,0,0,0,0,0,-1,1315,1590,0,0
98,-566,0,0,0,0,0,0,0,0,0,-1,1322,1590,0,0
105,-566,0,0,0,0,0,0,0,0,0,-1,1329,1590,0,0
112,-566,0,0,0,0,0,0,0,0,0,-1,1336,1590,0,0
119,-566,0,0,0,0,0,0,0,0,0,-1,1343,1590,0,0
126,-566,0,0,0,0,0,0,0,0,0,-1,1350,1590,0,0
133,-566,0,0,0,0,0,0,0,0,0,-1,1357,1590,0,0
140,-566,0,0,0,0,0,0,0,0,0,-1,1364,1590,0,0
147,-566,0,0,0,0,0,0,0,0,0,-1,1371,1590,0,0
154,-566,0,0,0,0,0,0,0,0,0,-1,1378,1590,0,0
161,-566,0,0,0,0,0,0,0,0,0,-1,1385,1590,0,0
168,-566,0,0,0,0,0,0,0,0,0,-1,1392,1590,0,0
175,-566,0,0,0,0,0,0,0,0,0,-1,1399,1590,0,0
182,-566,0,0,0,0,0,0,0,0,0,-1,1406,1590,0,0
189,-566,0,0,0,0,0,0,0,0,0,-1,1413,1590,0,0
196,-566,0,0,0,0,0,0,0,0,0,-1,1420,1590,0,0
203,-566,0,0,0,0,0,0,0,0,0,-1,1427,1590,0,0
210,-566,0,0,0,0,0,0,0,0,0,-1,1434,1590,0,0
217,-566,0,0,0,0,0,0,0,0,0,-1,1441,1590,0,0
224,-566,0,0,0,0,0,0,0,0,0,-1,1448,1590,0,0
231,-566,0,0,0,0,0,0,0,0,0,-1,1455,1590,0,0
238,-566,0,0,0,0,0,0,0,0,0,-1,1462,1590,0,0
245,-566,0,0,0,0,0,0,0,0,0,-1,1469,1590,0,0
252,-566,0,0,0,0,0,0,0,0,0,-1,1476,1590,0,0
259,-566,0,0,0,0,0,0,0,0,0,-1,1483,1590,0,0
266,-566,0,0,0,0,0,0,0,0,0,-1,1490,1590,0,0
273,-566,0,0,0,0,0,0,0,0,0,-1,1497,1590,0,0
280,-566,0,0,0,0,0,0,0,0,0,-1,1504,1590,0,0
287,-566,0,0,0,0,0,0,0,0,0,-1,1511,1590,0,0
294,-566,0,0,0,0,0,0,0,0,0,-1,1518,1590,0,0
301,-566,0,0,0,0,0,0,0,0,0,-1,1525,1590,0,0
308,-566,0,0,0,0,0,0,0,0,0,-1,1532,1590,0,0
315,-566,0,0,0,0,0,0,0,0,0,-1,1539,1590,0,0
322,-566,6.07983,4.44873,0,0,0,0,0,0,0,-1,1546,1590,6.07983,-4.44873
329,-566,5.77026,3.47534,0,0,0,0,0,0,0,-1,1553,1590,5.77026,-3.47535
336,-566,5.41138,2.62915,0,0,0,0,0,0,0,-1,1560,1590,5.41138,-2.62909
343,-566,4.81873,1.79089,0,0,0,0,0,0,0,-1,1567,1590,4.81878,-1.79095
350,-566,4.41663,2.44214,0,0,0,0,0,0,0,-1,1574,1590,4.41666,-2.44214
357,-566,6.34058,5.18579,0,0,0,0,0,0,0,-1,1581,1590,6.34059,-5.1858
364,-566,6.06262,4.20251,0,0,0,0,0,0,0,-1,1588,1590,6.06259,-4.20246
371,-566,5.78455,3.21912,0,0,0,0,0,0,0,-1,1595,1590,5.7846,-3.21912
378,-566,5.7439,0.695557,0,0,0,0,0,0,0,-1,1602,1590,5.74392,-0.695531
385,-566,5.67615,-0.573975,0,0,0,0,0,0,0,-1,1609,1590,5.67612,0.573956
392,-566,5.78638,1.82434,0,0,0,0,0,0,0,-1,1616,1590,5.78637,-1.82439
399,-566,5.36621,1.7373,0,0,0,0,0,0,0,-1,1623,1590,5.36627,-1.7373
406,-566,4.30359,5.26868,0,0,0,0,0,0,0,-1,1630,1590,4.30364,-5.26867
413,-566,4.27124,5.79492,0,0,0,0,0,0,0,-1,1637,1590,4.27123,-5.7949
420,-566,7.19812,8.25146,0,0,0,0,0,0,0,-1,1644,1590,7.19817,-8.25149
427,-566,6.67944,9.07837,0,0,0,0,0,0,0,-1,1651,1590,6.67939,-9.07837
434,-566,6.95703,10.172,0,0,0,0,0,0,0,-1,1658,1590,6.95701,-10.172
441,-566,6.98645,10.2959,-0.00790064,-0.0320792,0.0198256,0.00323084,-0.0432107,0.511608,0.0299422,0.0474828,1665,1590,6.98647,-10.2959
448,-566,6.99341,10.1011,-0.00674749,-0.0290784,0.0175455,0.00288396,-0.0387099,0.50203,0.0268196,0.0344291,1672,1590,6.99338,-10.1011
455,-566,6.91052,10.0875,-0.00584079,-0.0260022,0.0154781,0.00254991,-0.0343929,0.496758,0.0238241,0.0238397,1679,1590,6.91048,-10.0875
462,-566,6.88916,10.0002,-0.00504061,-0.0227673,0.0135754,0.00230872,-0.0301166,0.496194,0.0208899,0.0149628,1686,1590,6.88917,-10.0003
469,-566,6.86707,9.87329,-0.00431559,-0.0194373,0.0117572,0.00210207,-0.025855,0.49965,0.0179784,0.0127112,1693,1590,6.86711,-9.87328
476,-566,6.87378,9.7157,-0.00370523,-0.0161701,0.00980638,0.00168165,-0.0215569,0.502324,0.0149634,0.0102784,1700,1590,6.87379,-9.71566
483,-566,6.88831,9.54919,-0.00296472,-0.0128673,0.00799347,0.0014867,-0.0173187,0.508111,0.0120719,0.00996862,1707,1590,6.88825,-9.54917
490,-566,6.88623,9.38794,-0.0021527,-0.00964222,0.0063275,0.00145512,-0.01325,0.518205,0.0093562,0.0102048,1714,1590,6.88623,-9.38793
497,-566,6.90808,9.23145,-0.00145386,-0.00688845,0.00465397,0.00121801,-0.00956032,0.521162,0.00681592,0.0134033,1721,1590,6.90812,-9.23144
504,-566,6.9176,9.07373,-0.000733203,-0.00407278,0.0030208,0.00104859,-0.00585458,0.532917,0.00429546,0.0184519,1728,1590,6.91755,-9.07374
511,-566,6.91028,8.90735,0.000101612,-0.00186105,0.00143543,0.000859092,-0.00261853,0.485563,0.00209171,0.0184785,1735,1590,6.9103,-8.90729
518,-566,6.90942,8.75391,0.000913712,-3.65348e-05,-4.13049e-05,0.000915504,-3.83269e-05,-0.0433585,0.000623505,0.0118066,1742,1590,6.9094,-8.75392
525,-566,6.90698,8.56677,0.00173831,0.0012159,-0.00130349,0.00280651,0.000147704,-0.686514,0.00182377,0.0108554,1749,1590,6.90696,-8.56679
532,-566,6.90332,8.3938,0.00246378,0.00197474,-0.0023159,0.00454803,-0.000109509,-0.732802,0.00306917,0.0118267,1756,1590,6.90332,-8.39382
539,-566,6.90125,8.21045,0.00294165,0.00240499,-0.00305185,0.00573694,-0.0003903,-0.741549,0.00396114,0.0162621,1763,1590,6.90122,-8.21047
546,-566,6.94995,8.00452,0.00338547,0.00312531,-0.00379518,0.0070528,-0.000542012,-0.768267,0.00489255,0.0179737,1770,1590,6.94991,-8.00453
553,-566,7.06689,7.95447,0,0,0,0,0,0,0,-1,1777,1590,7.0669,-7.95451
560,-566,7.26453,7.90002,0,0,0,0,0,0,0,-1,1784,1590,7.26456,-7.90004
567,-566,8.30212,7.41785,0,0,0,0,0,0,0,-1,1791,1590,8.30207,-7.41786
574,-566,7.99548,3.14514,0,0,0,0,0,0,0,-1,1798,1590,7.99543,-3.14511
581,-566,2.54102,5.1311,0,0,0,0,0,0,0,-1,1805,1590,2.54099,-5.13111
588,-566,-1.91321,8.39197,0,0,0,0,0,0,0,-1,1812,1590,-1.91316,-8.39199
595,-566,9.0271,4.66467,0,0,0,0,0,0,0,-1,1819,1590,9.02705,-4.66468
602,-566,9.953,3.54895,0,0,0,0,0,0,0,-1,1826,1590,9.953,-3.54898
609,-566,0,0,0,0,0,0,0,0,0,-1,1833,1590,0,0
616,-566,0,0,0,0,0,0,0,0,0,-1,1840,1590,0,0
623,-566,0,0,0,0,0,0,0,0,0,-1,1847,1590,0,0
630,-566,0,0,0,0,0,0,0,0,0,-1,1854,1590,0,0
637,-566,0,0,0,0,0,0,0,0,0,-1,1861,1590,0,0
644,-566,0,0,0,0,0,0,0,0,0,-1,1868,1590,0,0
651,-566,0,0,0,0,0,0,0,0,0,-1,1875,1590,0,0
658,-566,0,0,0,0,0,0,0,0,0,-1,1882,1590,0,0
665,-566,0,0,0,0,0,0,0,0,0,-1,1889,1590,0,0
672,-566,0,0,0,0,0,0,0,0,0,-1,1896,1590,0,0
679,-566,0,0,0,0,0,0,0,0,0,-1,1903,1590,0,0
686,-566,0,0,0,0,0,0,0,0,0,-1,1910,1590,0,0
693,-566,0,0,0,0,0,0,0,0,0,-1,1917,1590,0,0
700,-566,0,0,0,0,0,0,0,0,0,-1,1924,1590,0,0
707,-566,0,0,0,0,0,0,0,0,0,-1,1931,1590,0,0
714,-566,0,0,0,0,0,0,0,0,0,-1,1938,1590,0,0
721,-566,0,0,0,0,0,0,0,0,0,-1,1945,1590,0,0
728,-566,0,0,0,0,0,0,0,0,0,-1,1952,1590,0,0
735,-566,0,0,0,0,0,0,0,0,0,-1,1959,1590,0,0
742,-566,0,0,0,0,0,0,0,0,0,-1,1966,1590,0,0
749,-566,0,0,0,0,0,0,0,0,0,-1,1973,1590,0,0
756,-566,0,0,0,0,0,0,0,0,0,-1,1980,1590,0,0
763,-566,0,0,0,0,0,0,0,0,0,-1,1987,1590,0,0
770,-566,0,0,0,0,0,0,0,0,0,-1,1994,1590,0,0
777,-566,0,0,0,0,0,0,0,0,0,-1,2001,1590,0,0
784,-566,0,0,0,0,0,0,0,0,0,-1,2008,1590,0,0
791,-566,0,0,0,0,0,0,0,0,0,-1,2015,1590,0,0
798,-566,0,0,0,0,0,0,0,0,0,-1,2022,1590,0,0
805,-566,0,0,0,0,0,0,0,0,0,-1,2029,1590,0,0
812,-566,0,0,0,0,0,0,0,0,0,-1,2036,1590,0,0
-700,-573,0,0,0,0,0,0,0,0,0,-1,524,1597,0,0
-693,-573,0,0,0,0,0,0,0,0,0,-1,531,1597,0,0
-686,-573,0,0,0,0,0,0,0,0,0,-1,538,1597,0,0
-679,-573,0,0,0,0,0,0,0,0,0,-1,545,1597,0,0
-672,-573,0,0,0,0,0,0,0,0,0,-1,552,1597,0,0
-665,-573,0,0,0,0,0,0,0,0,0,-1,559,1597,0,0
-658,-573,0,0,0,0,0,0,0,0,0,-1,566,1597,0,0
-651,-573,0,0,0,0,0,0,0,0,0,-1,573,1597,0,0
-644,-573,0,0,0,0,0,0,0,0,0,-1,580,1597,0,0
-637,-573,0,0,0,0,0,0,0,0,0,-1,587,1597,0,0
-630,-573,0,0,0,0,0,0,0,0,0,-1,594,1597,0,0
-623,-573,0,0,0,0,0,0,0,0,0,-1,601,1597,0,0
-616,-573,0,0,0,0,0,0,0,0,0,-1,608,1597,0,0
-609,-573,0,0,0,0,0,0,0,0,0,-1,615,1597,0,0
-602,-573,0,0,0,0,0,0,0,0,0,-1,622,1597,0,0
-595,-573,0,0,0,0,0,0,0,0,0,-1,629,1597,0,0
-588,-573,0,0,0,0,0,0,0,0,0,-1,636,1597,0,0
-581,-573,0,0,0,0,0,0,0,0,0,-1,643,1597,0,0
-574,-573,0,0,0,0,0,0,0,0,0,-1,650,1597,0,0
-567,-573,0,0,0,0,0,0,0,0,0,-1,657,1597,0,0
-560,-573,0,0,0,0,0,0,0,0,0,-1,664,1597,0,0
-553,-573,0,0,0,0,0,0,0,0,0,-1,671,1597,0,0
-546,-573,0,0,0,0,0,0,0,0,0,-1,678,1597,0,0
-539,-573,0,0,0,0,0,0,0,0,0,-1,685,1597,0,0
-532,-573,0,0,0,0,0,0,0,0,0,-1,692,1597,0,0
-525,-573,0,0,0,0,0,0,0,0,0,-1,699,1597,0,0
-518,-573,0,0,0,0,0,0,0,0,0,-1,706,1597,0,0
-511,-573,0,0,0,0,0,0,0,0,0,-1,713,1597,0,0
-504,-573,0,0,0,0,0,0,0,0,0,-1,720,1597,0,0
-497,-573,0,0,0,0,0,0,0,0,0,-1,727,1597,0,0
-490,-573,0,0,0,0,0,0,0,0,0,-1,734,1597,0,0
-483,-573,0,0,0,0,0,0,0,0,0,-1,741,1597,0,0
-476,-573,1.69208,-2.76819,0,0,0,0,0,0,0,-1,748,1597,1.69206,2.76818
-469,-573,1.12164,-1.50391,0,0,0,0,0,0,0,-1,755,1597,1.12165,1.50388
-462,-573,1.04968,-0.0865479,0.0192878,0.176106,0.181717,0.295609,-0.100215,0.989075,0.237629,0.0497419,762,1597,1.04967,0.0865191
-455,-573,0.97113,1.25684,0.0178502,0.151735,0.153453,0.252211,-0.0826265,0.991074,0.201414,0.0476847,769,1597,0.97112,-1.25681
-448,-573,0.990662,2.60376,0.0161632,0.124384,0.123907,0.205481,-0.0649336,0.991268,0.163001,0.045668,776,1597,0.990687,-2.60378
-441,-573,0.861511,5.24243,0,0,0,0,0,0,0,-1,783,1597,0.861521,-5.24247
-434,-573,1.0697,4.62976,0,0,0,0,0,0,0,-1,790,1597,1.06971,-4.62981
-427,-573,0.826538,6.65955,0,0,0,0,0,0,0,-1,797,1597,0.826545,-6.65949
-420,-573,0.707947,6.84863,0.00505916,0.033022,0.0285211,0.0508043,-0.0127232,1.01329,0.0388121,0.0407568,804,1597,0.70796,-6.8486
-413,-573,1.21381,6.70508,0.00352949,0.0215619,0.0179092,0.0325963,-0.007505,1.0186,0.0246169,0.0323807,811,1597,1.21378,-6.70508
-406,-573,1.18774,6.86499,0.00224909,0.0113077,0.00837339,0.0162983,-0.00274149,1.03332,0.0118852,0.0165261,818,1597,1.18772,-6.86498
-399,-573,1.16882,7.08435,0.000986506,0.00518076,0.00286311,0.00663263,-0.000465361,1.10149,0.00458475,0.010405,825,1597,1.16883,-7.08434
-392,-573,1.17938,7.27808,4.09733e-06,0.00250688,0.00078919,0.00273495,-0.000223971,1.28947,0.00190236,0.0106051,832,1597,1.17939,-7.27806
-385,-573,1.16913,7.47253,-0.000561134,0.00182616,0.000342014,0.00187419,-0.000609167,1.43127,0.00149449,0.0127811,839,1597,1.16916,-7.47251
-378,-573,1.15131,7.6554,-0.00077645,0.00117293,0.000213031,0.00119594,-0.000799459,1.46321,0.0011596,0.0139113,846,1597,1.15133,-7.65535
-371,-573,1.15662,7.84558,-0.000817294,0.000490205,0.000316273,0.000562691,-0.00088978,1.3455,0.000845642,0.0161334,853,1597,1.15659,-7.84562
-364,-573,1.16571,8.02734,-0.000873349,-0.000142744,0.000479913,9.50808e-05,-0.00111117,1.11071,0.000774424,0.0195913,860,1597,1.16569,-8.02733
-357,-573,1.16394,8.20081,-0.000664026,-0.00051714,0.000547881,-3.78016e-05,-0.00114336,0.852026,0.00074996,0.0222921,867,1597,1.16393,-8.20082
-350,-573,1.18402,8.39258,-0.000251805,-0.00109726,0.000365227,-0.000115882,-0.00123318,0.356277,0.000786343,0.0172894,874,1597,1.18403,-8.39255
-343,-573,1.21118,8.54651,0.000292788,-0.000986592,0.000194215,0.000321621,-0.00101543,0.147382,0.000805843,0.0199526,881,1597,1.21121,-8.54652
-336,-573,1.18292,8.7522,0.000877302,-0.00112654,3.46343e-05,0.000877901,-0.00112714,0.0172771,0.00116059,0.0157236,888,1597,1.1829,-8.75219
-329,-573,1.18134,8.92566,0.0014941,-0.000920731,-0.000374391,0.00155082,-0.000977444,-0.150337,0.00147215,0.0158604,895,1597,1.18134,-8.92565
-322,-573,1.18829,9.11255,0.00215574,-0.000541616,-0.00106358,0.00252466,-0.000910536,-0.333879,0.002055,0.0120468,902,1597,1.1883,-9.11259
-315,-573,1.24786,9.31482,0.00286653,-7.67962e-05,-0.00202592,0.00389889,-0.00110916,-0.47128,0.00303725,0.0179759,909,1597,1.24787,-9.31487
-308,-573,1.23535,9.36304,0.00372816,0.000389955,-0.003192,0.00566111,-0.001543,-0.544498,0.00437996,0.0275795,916,1597,1.23533,-9.36302
-301,-573,1.28998,9.48669,0.00477469,0.000745718,-0.00449453,0.00768555,-0.00216514,-0.574717,0.00597758,0.0298984,923,1597,1.28995,-9.48669
-294,-573,1.30133,9.58435,0.00601195,0.000900163,-0.00574587,0.00974474,-0.00283263,-0.576128,0.00761831,0.0350921,930,1597,1.30134,-9.58435
-287,-573,1.72821,9.34399,0,0,0,0,0,0,0,-1,937,1597,1.72821,-9.34395
-280,-573,0.90448,9.89551,0,0,0,0,0,0,0,-1,944,1597,0.904464,-9.89547
-273,-573,-0.0268555,7.75781,0,0,0,0,0,0,0,-1,951,1597,-0.02685,-7.75777
-266,-573,1.31116,7.1814,0,0,0,0,0,0,0,-1,958,1597,1.31118,-7.18142
-259,-573,1.2514,6.70959,0,0,0,0,0,0,0,-1,965,1597,1.25137,-6.70965
-252,-573,2.07874,5.27161,0,0,0,0,0,0,0,-1,972,1597,2.07875,-5.27157
-245,-573,-7.6889,2.38464,0,0,0,0,0,0,0,-1,979,1597,-7.68892,-2.3846
-238,-573,-7.02698,3.49939,0,0,0,0,0,0,0,-1,986,1597,-7.02695,-3.49936
-231,-573,-5.94739,4.67358,0,0,0,0,0,0,0,-1,993,1597,-5.94739,-4.67362
-224,-573,-4.5816,5.62634,0,0,0,0,0,0,0,-1,1000,1597,-4.58162,-5.62629
-217,-573,-3.57495,6.78931,0,0,0,0,0,0,0,-1,1007,1597,-3.57495,-6.78931
-210,-573,-2.81018,7.94775,0,0,0,0,0,0,0,-1,1014,1597,-2.81015,-7.94777
-203,-573,-1.79614,9.03638,0,0,0,0,0,0,0,-1,1021,1597,-1.79612,-9.03643
-196,-573,-4.87726,6.96936,0,0,0,0,0,0,0,-1,1028,1597,-4.87723,-6.96935
-189,-573,-6.12915,6.66882,0,0,0,0,0,0,0,-1,1035,1597,-6.12913,-6.66884
-182,-573,0,0,0,0,0,0,0,0,0,-1,1042,1597,0,0
-175,-573,0,0,0,0,0,0,0,0,0,-1,1049,1597,0,0
-168,-573,0,0,0,0,0,0,0,0,0,-1,1056,1597,0,0
-161,-573,0,0,0,0,0,0,0,0,0,-1,1063,1597,0,0
-154,-573,0,0,0,0,0,0,0,0,0,-1,1070,1597,0,0
-147,-573,0,0,0,0,0,0,0,0,0,-1,1077,1597,0,0
-140,-573,0,0,0,0,0,0,0,0,0,-1,1084,1597,0,0
-133,-573,0,0,0,0,0,0,0,0,0,-1,1091,1597,0,0
-126,-573,0,0,0,0,0,0,0,0,0,-1,1098,1597,0,0
-119,-573,0,0,0,0,0,0,0,0,0,-1,1105,1597,0,0
-112,-573,0,0,0,0,0,0,0,0,0,-1,1112,1597,0,0
-105,-573,0,0,0,0,0,0,0,0,0,-1,1119,1597,0,0
-98,-573,0,0,0,0,0,0,0,0,0,-1,1126,1597,0,0
-91,-573,0,0,0,0,0,0,0,0,0,-1,1133,1597,0,0
-84,-573,0,0,0,0,0,0,0,0,0,-1,1140,1597,0,0
-77,-573,0,0,0,0,0,0,0,0,0,-1,1147,1597,0,0
-70,-573,0,0,0,0,0,0,0,0,0,-1,1154,1597,0,0
-63,-573,0,0,0,0,0,0,0,0,0,-1,1161,1597,0,0
-56,-573,0,0,0,0,0,0,0,0,0,-1,1168,1597,0,0
-49,-573,0,0,0,0,0,0,0,0,0,-1,1175,1597,0,0
-42,-573,0,0,0,0,0,0,0,0,0,-1,1182,1597,0,0
-35,-573,0,0,0,0,0,0,0,0,0,-1,1189,1597,0,0
-28,-573,0,0,0,0,0,0,0,0,0,-1,1196,1597,0,0
-21,-573,0,0,0,0,0,0,0,0,0,-1,1203,1597,0,0
-14,-573,0,0,0,0,0,0,0,0,0,-1,1210,1597,0,0
-7,-573,0,0,0,0,0,0,0,0,0,-1,1217,1597,0,0
0,-573,0,0,0,0,0,0,0,0,0,-1,1224,1597,0,0
7,-573,0,0,0,0,0,0,0,0,0,-1,1231,1597,0,0
14,-573,0,0,0,0,0,0,0,0,0,-1,1238,1597,0,0
21,-573,0,0,0,0,0,0,0,0,0,-1,1245,1597,0,0
28,-573,0,0,0,0,0,0,0,0,0,-1,1252,1597,0,0
35,-573,0,0,0,0,0,0,0,0,0,-1,1259,1597,0,0
42,-573,0,0,0,0,0,0,0,0,0,-1,1266,1597,0,0
49,-573,0,0,0,0,0,0,0,0,0,-1,1273,1597,0,0
56,-573,0,0,0,0,0,0,0,0,0,-1,1280,1597,0,0
63,-573,0,0,0,0,0,0,0,0,0,-1,1287,1597,0,0
70,-573,0,0,0,0,0,0,0,0,0,-1,1294,1597,0,0
77,-573,0,0,0,0,0,0,0,0,0,-1,1301,1597,0,0
84,-573,0,0,0,0,0,0,0,0,0,-1,1308,1597,0,0
91,-573,0,0,0,0,0,0,0,0,0,-1,1315,1597,0,0
98,-573,0,0,0,0,0,0,0,0,0,-1,1322,1597,0,0
105,-573,0,0,0,0,0,0,0,0,0,-1,1329,1597,0,0
112,-573,0,0,0,0,0,0,0,0,0,-1,1336,1597,0,0
119,-573,0,0,0,0,0,0,0,0,0,-1,1343,1597,0,0
126,-573,0,0,0,0,0,0,0,0,0,-1,1350,1597,0,0
133,-573,0,0,0,0,0,0,0,0,0,-1,1357,1597,0,0
140,-573,0,0,0,0,0,0,0,0,0,-1,1364,1597,0,0
147,-573,0,0,0,0,0,0,0,0,0,-1,1371,1597,0,0
154,-573,0,0,0,0,0,0,0,0,0,-1,1378,1597,0,0
161,-573,0,0,0,0,0,0,0,0,0,-1,1385,1597,0,0
168,-573,0,0,0,0,0,0,0,0,0,-1,1392,1597,0,0
175,-573,0,0,0,0,0,0,0,0,0,-1,1399,1597,0,0
182,-573,0,0,0,0,0,0,0,0,0,-1,1406,1597,0,0
189,-573,0,0,0,0,0,0,0,0,0,-1,1413,1597,0,0
196,-573,0,0,0,0,0,0,0,0,0,-1,1420,1597,0,0
203,-573,0,0,0,0,0,0,0,0,0,-1,1427,1597,0,0
210,-573,0,0,0,0,0,0,0,0,0,-1,1434,1597,0,0
217,-573,0,0,0,0,0,0,0,0,0,-1,1441,1597,0,0
224,-573,0,0,0,0,0,0,0,0,0,-1,1448,1597,0,0
231,-573,0,0,0,0,0,0,0,0,0,-1,1455,1597,0,0
238,-573,0,0,0,0,0,0,0,0,0,-1,1462,1597,0,0
245,-573,0,0,0,0,0,0,0,0,0,-1,1469,1597,0,0
252,-573,0,0,0,0,0,0,0,0,0,-1,1476,1597,0,0
259,-573,0,0,0,0,0,0,0,0,0,-1,1483,1597,0,0
266,-573,0,0,0,0,0,0,0,0,0,-1,1490,1597,0,0
273,-573,0,0,0,0,0,0,0,0,0,-1,1497,1597,0,0
280,-573,0,0,0,0,0,0,0,0,0,-1,1504,1597,0,0
287,-573,0,0,0,0,0,0,0,0,0,-1,1511,1597,0,0
294,-573,0,0,0,0,0,0,0,0,0,-1,1518,1597,0,0
301,-573,0,0,0,0,0,0,0,0,0,-1,1525,1597,0,0
308,-573,9.99329,6.14063,0,0,0,0,0,0,0,-1,1532,1597,9.99331,-6.14065
315,-573,10.5015,6.63318,0,0,0,0,0,0,0,-1,1539,1597,10.5014,-6.63316
322,-573,10.3269,7.77563,0,0,0,0,0,0,0,-1,1546,1597,10.327,-7.77565
329,-573,4.99573,3.80273,0,0,0,0,0,0,0,-1,1553,1597,4.9957,-3.80273
336,-573,4.85693,2.53455,0,0,0,0,0,0,0,-1,1560,1597,4.8569,-2.53459
343,-573,4.11877,0.735596,0,0,0,0,0,0,0,-1,1567,1597,4.11878,-0.735585
350,-573,2.53748,1.56433,0,0,0,0,0,0,0,-1,1574,1597,2.53753,-1.5643
357,-573,7.40247,4.03613,0,0,0,0,0,0,0,-1,1581,1597,7.40244,-4.03614
364,-573,7.14551,3.02087,0,0,0,0,0,0,0,-1,1588,1597,7.14556,-3.02084
371,-573,6.88867,2.00549,0,0,0,0,0,0,0,-1,1595,1597,6.88868,-2.00553
378,-573,8.62012,6.09106,0,0,0,0,0,0,0,-1,1602,1597,8.62012,-6.09103
385,-573,6.54346,-0.951904,0,0,0,0,0,0,0,-1,1609,1597,6.54349,0.951901
392,-573,6.41833,-2.18225,0,0,0,0,0,0,0,-1,1616,1597,6.41831,2.18228
399,-573,4.26282,4.73657,0,0,0,0,0,0,0,-1,1623,1597,4.26285,-4.73652
406,-573,6.82715,10.823,0,0,0,0,0,0,0,-1,1630,1597,6.82719,-10.823
413,-573,6.86316,10.7551,0,0,0,0,0,0,0,-1,1637,1597,6.86319,-10.7552
420,-573,8.01587,10.7863,0,0,0,0,0,0,0,-1,1644,1597,8.01583,-10.7863
427,-573,6.97449,10.042,0,0,0,0,0,0,0,-1,1651,1597,6.97449,-10.042
434,-573,6.81946,10.2313,-0.00713439,-0.0247815,0.017042,0.00323281,-0.0351487,0.546524,0.024581,0.0414584,1658,1597,6.81948,-10.2313
441,-573,6.76721,10.364,-0.00614195,-0.0230876,0.0150432,0.00265042,-0.03188,0.528925,0.0221896,0.0270746,1665,1597,6.7672,-10.3641
448,-573,6.74402,10.3323,-0.00510722,-0.0209459,0.0130572,0.00224456,-0.0282977,0.512802,0.0196561,0.0163397,1672,1597,6.74406,-10.3323
455,-573,6.71997,10.1646,-0.00433866,-0.0187946,0.0113355,0.00187722,-0.0250105,0.501579,0.0173333,0.0138123,1679,1597,6.71995,-10.1645
462,-573,6.72058,10.007,-0.00362758,-0.0164565,0.00976971,0.00164524,-0.0217293,0.49491,0.0150646,0.0168819,1686,1597,6.72061,-10.0069
469,-573,6.74365,9.88477,-0.00299596,-0.0139771,0.00828002,0.00144851,-0.0184216,0.492629,0.0127913,0.0145833,1693,1597,6.74371,-9.88478
476,-573,6.75293,9.7179,-0.00252868,-0.0114797,0.00668303,0.00103901,-0.0150474,0.490354,0.0103953,0.0133304,1700,1597,6.75289,-9.7179
483,-573,6.74805,9.54346,-0.00191317,-0.00886699,0.00522086,0.000882579,-0.0116627,0.49164,0.00808542,0.0107652,1707,1597,6.74804,-9.54341
490,-573,6.73364,9.38684,-0.00118251,-0.00624976,0.00387258,0.000911623,-0.00834389,0.49572,0.00589003,0.00909403,1714,1597,6.73362,-9.3869
497,-573,6.74207,9.21765,-0.000569844,-0.00401495,0.00249113,0.000736285,-0.00532108,0.482907,0.00381656,0.0141958,1721,1597,6.74208,-9.2177
504,-573,6.74487,9.05139,7.40106e-05,-0.0016788,0.00114502,0.000639537,-0.00224433,0.458755,0.00174882,0.0165786,1728,1597,6.7449,-9.0514
511,-573,6.74695,8.87903,0.000838654,0.000145158,-0.000168256,0.000877321,0.000106491,-0.225885,0.000552813,0.0172413,1735,1597,6.74695,-8.87899
518,-573,6.75305,8.73401,0.00160452,0.00163245,-0.00137791,0.00299646,0.000240509,-0.790465,0.00192249,0.0139767,1742,1597,6.75302,-8.73402
525,-573,6.73303,8.56799,0.00242754,0.00262675,-0.00241192,0.00494112,0.000113165,-0.806035,0.00325701,0.0166959,1749,1597,6.73309,-8.56798
532,-573,6.75415,8.38025,0.00318592,0.00317756,-0.00322163,0.00640337,-3.9889e-05,-0.784749,0.00428227,0.0146261,1756,1597,6.75415,-8.38027
539,-573,6.75415,8.22705,0.00371928,0.00341848,-0.00380207,0.00737392,-0.000236164,-0.765629,0.00499653,0.0181599,1763,1597,6.7541,-8.22707
546,-573,6.82581,8.07642,0.00425941,0.00402881,-0.00450206,0.00864764,-0.000359424,-0.772596,0.00588856,0.0304952,1770,1597,6.82575,-8.07644
553,-573,6.44556,7.69434,0,0,0,0,0,0,0,-1,1777,1597,6.44555,-7.69437
560,-573,6.37524,7.43311,0,0,0,0,0,0,0,-1,1784,1597,6.3752,-7.4331
567,-573,4.99597,2.77759,0,0,0,0,0,0,0,-1,1791,1597,4.99596,-2.7776
574,-573,0.83374,5.7041,0,0,0,0,0,0,0,-1,1798,1597,0.833718,-5.70405
581,-573,-0.224854,7.41602,0,0,0,0,0,0,0,-1,1805,1597,-0.224904,-7.41596
588,-573,-0.134033,7.67065,0,0,0,0,0,0,0,-1,1812,1597,-0.134037,-7.67063
595,-573,-0.0825195,8.35083,0,0,0,0,0,0,0,-1,1819,1597,-0.0824684,-8.35088
602,-573,0,0,0,0,0,0,0,0,0,-1,1826,1597,0,0
609,-573,0,0,0,0,0,0,0,0,0,-1,1833,1597,0,0
616,-573,0,0,0,0,0,0,0,0,0,-1,1840,1597,0,0
623,-573,0,0,0,0,0,0,0,0,0,-1,1847,1597,0,0
630,-573,0,0,0,0,0,0,0,0,0,-1,1854,1597,0,0
637,-573,0,0,0,0,0,0,0,0,0,-1,1861,1597,0,0
644,-573,0,0,0,0,0,0,0,0,0,-1,1868,1597,0,0
651,-573,0,0,0,0,0,0,0,0,0,-1,1875,1597,0,0
658,-573,0,0,0,0,0,0,0,0,0,-1,1882,1597,0,0
665,-573,0,0,0,0,0,0,0,0,0,-1,1889,1597,0,0
672,-573,0,0,0,0,0,0,0,0,0,-1,1896,1597,0,0
679,-573,0,0,0,0,0,0,0,0,0,-1,1903,1597,0,0
686,-573,0,0,0,0,0,0,0,0,0,-1,1910,1597,0,0
693,-573,0,0,0,0,0,0,0,0,0,-1,1917,1597,0,0
700,-573,0,0,0,0,0,0,0,0,0,-1,1924,1597,0,0
707,-573,0,0,0,0,0,0,0,0,0,-1,1931,1597,0,0
714,-573,0,0,0,0,0,0,0,0,0,-1,1938,1597,0,0
721,-573,0,0,0,0,0,0,0,0,0,-1,1945,1597,0,0
728,-573,0,0,0,0,0,0,0,0,0,-1,1952,1597,0,0
735,-573,0,0,0,0,0,0,0,0,0,-1,1959,1597,0,0
742,-573,0,0,0,0,0,0,0,0,0,-1,1966,1597,0,0
749,-573,0,0,0,0,0,0,0,0,0,-1,1973,1597,0,0
756,-573,0,0,0,0,0,0,0,0,0,-1,1980,1597,0,0
763,-573,0,0,0,0,0,0,0,0,0,-1,1987,1597,0,0
770,-573,0,0,0,0,0,0,0,0,0,-1,1994,1597,0,0
777,-573,0,0,0,0,0,0,0,0,0,-1,2001,1597,0,0
784,-573,0,0,0,0,0,0,0,0,0,-1,2008,1597,0,0
791,-573,0,0,0,0,0,0,0,0,0,-1,2015,1597,0,0
798,-573,0,0,0,0,0,0,0,0,0,-1,2022,1597,0,0
805,-573,0,0,0,0,0,0,0,0,0,-1,2029,1597,0,0
812,-573,0,0,0,0,0,0,0,0,0,-1,2036,1597,0,0
-700,-580,0,0,0,0,0,0,0,0,0,-1,524,1604,0,0
-693,-580,0,0,0,0,0,0,0,0,0,-1,531,1604,0,0
-686,-580,0,0,0,0,0,0,0,0,0,-1,538,1604,0,0
-679,-580,0,0,0,0,0,0,0,0,0,-1,545,1604,0,0
-672,-580,0,0,0,0,0,0,0,0,0,-1,552,1604,0,0
-665,-580,0,0,0,0,0,0,0,0,0,-1,559,1604,0,0
-658,-580,0,0,0,0,0,0,0,0,0,-1,566,1604,0,0
-651,-580,0,0,0,0,0,0,0,0,0,-1,573,1604,0,0
-644,-580,0,0,0,0,0,0,0,0,0,-1,580,1604,0,0
-637,-580,0,0,0,0,0,0,0,0,0,-1,587,1604,0,0
-630,-580,0,0,0,0,0,0,0,0,0,-1,594,1604,0,0
-623,-580,0,0,0,0,0,0,0,0,0,-1,601,1604,0,0
-616,-580,0,0,0,0,0,0,0,0,0,-1,608,1604,0,0
-609,-580,0,0,0,0,0,0,0,0,0,-1,615,1604,0,0
-602,-580,0,0,0,0,0,0,0,0,0,-1,622,1604,0,0
-595,-580,0,0,0,0,0,0,0,0,0,-1,629,1604,0,0
-588,-580,0,0,0,0,0,0,0,0,0,-1,636,1604,0,0
-581,-580,0,0,0,0,0,0,0,0,0,-1,643,1604,0,0
-574,-580,0,0,0,0,0,0,0,0,0,-1,650,1604,0,0
-567,-580,0,0,0,0,0,0,0,0,0,-1,657,1604,0,0
-560,-580,0,0,0,0,0,0,0,0,0,-1,664,1604,0,0
-553,-580,0,0,0,0,0,0,0,0,0,-1,671,1604,0,0
-546,-580,0,0,0,0,0,0,0,0,0,-1,678,1604,0,0
-539,-580,0,0,0,0,0,0,0,0,0,-1,685,1604,0,0
-532,-580,0,0,0,0,0,0,0,0,0,-1,692,1604,0,0
-525,-580,0,0,0,0,0,0,0,0,0,-1,699,1604,0,0
-518,-580,0,0,0,0,0,0,0,0,0,-1,706,1604,0,0
-511,-580,0,0,0,0,0,0,0,0,0,-1,713,1604,0,0
-504,-580,0,0,0,0,0,0,0,0,0,-1,720,1604,0,0
-497,-580,0,0,0,0,0,0,0,0,0,-1,727,1604,0,0
-490,-580,0,0,0,0,0,0,0,0,0,-1,734,1604,0,0
-483,-580,0,0,0,0,0,0,0,0,0,-1,741,1604,0,0
-476,-580,0,0,0,0,0,0,0,0,0,-1,748,1604,0,0
-469,-580,-5.0246,3.93115,0,0,0,0,0,0,0,-1,755,1604,-5.02457,-3.9311
-462,-580,-0.117065,-1.59436,0,0,0,0,0,0,0,-1,762,1604,-0.117043,1.59442
-455,-580,0.0982666,-0.292969,0,0,0,0,0,0,0,-1,769,1604,0.098271,0.292982
-448,-580,-0.0664673,1.10571,0,0,0,0,0,0,0,-1,776,1604,-0.0664391,-1.10574
-441,-580,-0.23114,2.50439,0,0,0,0,0,0,0,-1,783,1604,-0.231149,-2.50445
-434,-580,-1.508,6.62341,0,0,0,0,0,0,0,-1,790,1604,-1.50798,-6.62347
-427,-580,0.801636,4.72095,0,0,0,0,0,0,0,-1,797,1604,0.80164,-4.72097
-420,-580,0.692261,6.95435,0,0,0,0,0,0,0,-1,804,1604,0.692233,-6.95432
-413,-580,1.4259,6.5769,0,0,0,0,0,0,0,-1,811,1604,1.4259,-6.57687
-406,-580,1.44019,6.85498,0.00200706,0.0129178,0.0112355,0.0199523,-0.00502747,1.01141,0.0152561,0.038114,818,1604,1.44019,-6.85502
-399,-580,1.36841,7.09949,0.00055483,0.00541422,0.00442653,0.00803404,-0.00206499,1.03639,0.00616081,0.0167753,825,1604,1.36842,-7.09949
-392,-580,1.3689,7.29529,-0.000533975,0.00222855,0.00182434,0.00313554,-0.00144097,1.10942,0.00270195,0.0112963,832,1604,1.36888,-7.29534
-385,-580,1.38452,7.47717,-0.00110425,0.00152661,0.00121091,0.0019991,-0.00157674,1.19877,0.00206931,0.0107859,839,1604,1.38453,-7.47721
-378,-580,1.36597,7.65796,-0.0012448,0.000915264,0.000883468,0.00123058,-0.00156011,1.22799,0.00161494,0.013485,846,1604,1.36595,-7.658
-371,-580,1.35272,7.85266,-0.00116431,0.000331251,0.000774021,0.000659707,-0.00149276,1.16948,0.00127338,0.0131879,853,1604,1.3527,-7.85264
-364,-580,1.32294,8.01917,-0.00111406,-0.000185539,0.000756279,0.000237609,-0.00153721,1.06068,0.0011125,0.0193929,860,1604,1.32295,-8.0192
-357,-580,1.34698,8.18677,-0.000783274,-0.000591019,0.000742657,6.17058e-05,-0.001436,0.849759,0.00097855,0.0143604,867,1604,1.347,-8.18676
-350,-580,1.36804,8.40967,-0.000324672,-0.00112498,0.000517467,-7.06887e-05,-0.00137896,0.456276,0.000896676,0.0105658,874,1604,1.36806,-8.40968
-343,-580,1.37323,8.59607,0.000202686,-0.00107673,0.000351131,0.000292718,-0.00116676,0.250996,0.000891576,0.0103279,881,1604,1.37323,-8.59606
-336,-580,1.38196,8.72729,0.000744895,-0.00125164,0.000213241,0.000767416,-0.00127416,0.105224,0.00119075,0.0175256,888,1604,1.38197,-8.72724
-329,-580,1.36981,8.94531,0.00129493,-0.00113585,-9.67905e-05,0.00129878,-0.0011397,-0.0397348,0.00140885,0.0175466,895,1604,1.36978,-8.94532
-322,-580,1.36646,9.14307,0.00183452,-0.000902951,-0.000596585,0.00195889,-0.00102732,-0.205519,0.00175183,0.0190479,902,1604,1.36648,-9.14302
-315,-580,1.38745,9.28577,0.00228364,-0.0006998,-0.00127991,0.00275748,-0.00117363,-0.354563,0.00233022,0.0150395,909,1604,1.38743,-9.28576
-308,-580,1.40027,9.46936,0.00281736,-0.0005681,-0.00209083,0.00381479,-0.00156552,-0.445116,0.00319552,0.0166983,916,1604,1.40026,-9.46936
-301,-580,1.44135,9.5979,0.00350397,-0.000618077,-0.00295996,0.00504977,-0.00216388,-0.481279,0.00427446,0.0154105,923,1604,1.44134,-9.59792
-294,-580,1.48651,9.65723,0.00439925,-0.000849025,-0.0037359,0.00634053,-0.0027903,-0.479227,0.00540289,0.0192014,930,1604,1.48653,-9.65718
-287,-580,1.69519,9.53931,0.005385,-0.00109947,-0.00439855,0.00760713,-0.0033216,-0.467797,0.00646939,0.0396961,937,1604,1.69521,-9.53928
-280,-580,1.51184,9.9342,0,0,0,0,0,0,0,-1,944,1604,1.51186,-9.93424
-273,-580,1.48468,10.0126,0,0,0,0,0,0,0,-1,951,1604,1.4847,-10.0126
-266,-580,0.494202,8.78955,0,0,0,0,0,0,0,-1,958,1604,0.494174,-8.78958
-259,-580,1.26038,8.20007,0,0,0,0,0,0,0,-1,965,1604,1.2604,-8.2001
-252,-580,1.07629,7.74097,0,0,0,0,0,0,0,-1,972,1604,1.07627,-7.74101
-245,-580,2.16681,7.00159,0,0,0,0,0,0,0,-1,979,1604,2.16683,-7.00159
-238,-580,-8.46027,3.61304,0,0,0,0,0,0,0,-1,986,1604,-8.46029,-3.61304
-231,-580,-7.33667,4.63391,0,0,0,0,0,0,0,-1,993,1604,-7.33665,-4.63388
-224,-580,-5.93512,5.573,0,0,0,0,0,0,0,-1,1000,1604,-5.93513,-5.57301
-217,-580,-4.62665,6.6665,0,0,0,0,0,0,0,-1,1007,1604,-4.62663,-6.66649
-210,-580,-3.7674,8.03394,0,0,0,0,0,0,0,-1,1014,1604,-3.76738,-8.03397
-203,-580,-3.01923,7.66492,0,0,0,0,0,0,0,-1,1021,1604,-3.01924,-7.66493
-196,-580,-3.65857,7.91418,0,0,0,0,0,0,0,-1,1028,1604,-3.65863,-7.9142
-189,-580,-4.58252,7.59058,0,0,0,0,0,0,0,-1,1035,1604,-4.58256,-7.59057
-182,-580,-5.45874,7.65942,0,0,0,0,0,0,0,-1,1042,1604,-5.45876,-7.65939
-175,-580,-6.38977,7.55005,0,0,0,0,0,0,0,-1,1049,1604,-6.38981,-7.5501
-168,-580,0,0,0,0,0,0,0,0,0,-1,1056,1604,0,0
-161,-580,0,0,0,0,0,0,0,0,0,-1,1063,1604,0,0
-154,-580,0,0,0,0,0,0,0,0,0,-1,1070,1604,0,0
-147,-580,0,0,0,0,0,0,0,0,0,-1,1077,1604,0,0
-140,-580,0,0,0,0,0,0,0,0,0,-1,1084,1604,0,0
-133,-580,0,0,0,0,0,0,0,0,0,-1,1091,1604,0,0
-126,-580,0,0,0,0,0,0,0,0,0,-1,1098,1604,0,0
-119,-580,0,0,0,0,0,0,0,0,0,-1,1105,1604,0,0
-112,-580,0,0,0,0,0,0,0,0,0,-1,1112,1604,0,0
-105,-580,0,0,0,0,0,0,0,0,0,-1,1119,1604,0,0
-98,-580,0,0,0,0,0,0,0,0,0,-1,1126,1604,0,0
-91,-580,0,0,0,0,0,0,0,0,0,-1,1133,1604,0,0
-84,-580,0,0,0,0,0,0,0,0,0,-1,1140,1604,0,0
-77,-580,0,0,0,0,0,0,0,0,0,-1,1147,1604,0,0
-70,-580,0,0,0,0,0,0,0,0,0,-1,1154,1604,0,0
-63,-580,0,0,0,0,0,0,0,0,0,-1,1161,1604,0,0
-56,-580,0,0,0,0,0,0,0,0,0,-1,1168,1604,0,0
-49,-580,0,0,0,0,0,0,0,0,0,-1,1175,1604,0,0
-42,-580,0,0,0,0,0,0,0,0,0,-1,1182,1604,0,0
-35,-580,0,0,0,0,0,0,0,0,0,-1,1189,1604,0,0
-28,-580,0,0,0,0,0,0,0,0,0,-1,1196,1604,0,0
-21,-580,0,0,0,0,0,0,0,0,0,-1,1203,1604,0,0
-14,-580,0,0,0,0,0,0,0,0,0,-1,1210,1604,0,0
-7,-580,0,0,0,0,0,0,0,0,0,-1,1217,1604,0,0
0,-580,0,0,0,0,0,0,0,0,0,-1,1224,1604,0,0
7,-580,0,0,0,0,0,0,0,0,0,-1,1231,1604,0,0
14,-580,0,0,0,0,0,0,0,0,0,-1,1238,1604,0,0
21,-580,0,0,0,0,0,0,0,0,0,-1,1245,1604,0,0
28,-580,0,0,0,0,0,0,0,0,0,-1,1252,1604,0,0
35,-580,0,0,0,0,0,0,0,0,0,-1,1259,1604,0,0
42,-580,0,0,0,0,0,0,0,0,0,-1,1266,1604,0,0
49,-580,0,0,0,0,0,0,0,0,0,-1,1273,1604,0,0
56,-580,0,0,0,0,0,0,0,0,0,-1,1280,1604,0,0
63,-580,0,0,0,0,0,0,0,0,0,-1,1287,1604,0,0
70,-580,0,0,0,0,0,0,0,0,0,-1,1294,1604,0,0
77,-580,0,0,0,0,0,0,0,0,0,-1,1301,1604,0,0
84,-580,0,0,0,0,0,0,0,0,0,-1,1308,1604,0,0
91,-580,0,0,0,0,0,0,0,0,0,-1,1315,1604,0,0
98,-580,0,0,0,0,0,0,0,0,0,-1,1322,1604,0,0
105,-580,0,0,0,0,0,0,0,0,0,-1,1329,1604,0,0
112,-580,0,0,0,0,0,0,0,0,0,-1,1336,1604,0,0
119,-580,0,0,0,0,0,0,0,0,0,-1,1343,1604,0,0
126,-580,0,0,0,0,0,0,0,0,0,-1,1350,1604,0,0
133,-580,0,0,0,0,0,0,0,0,0,-1,1357,1604,0,0
140,-580,0,0,0,0,0,0,0,0,0,-1,1364,1604,0,0
147,-580,0,0,0,0,0,0,0,0,0,-1,1371,1604,0,0
154,-580,0,0,0,0,0,0,0,0,0,-1,1378,1604,0,0
161,-580,0,0,0,0,0,0,0,0,0,-1,1385,1604,0,0
168,-580,0,0,0,0,0,0,0,0,0,-1,1392,1604,0,0
175,-580,0,0,0,0,0,0,0,0,0,-1,1399,1604,0,0
182,-580,0,0,0,0,0,0,0,0,0,-1,1406,1604,0,0
189,-580,0,0,0,0,0,0,0,0,0,-1,1413,1604,0,0
196,-580,0,0,0,0,0,0,0,0,0,-1,1420,1604,0,0
203,-580,0,0,0,0,0,0,0,0,0,-1,1427,1604,0,0
210,-580,0,0,0,0,0,0,0,0,0,-1,1434,1604,0,0
217,-580,0,0,0,0,0,0,0,0,0,-1,1441,1604,0,0
224,-580,0,0,0,0,0,0,0,0,0,-1,1448,1604,0,0
231,-580,0,0,0,0,0,0,0,0,0,-1,1455,1604,0,0
238,-580,0,0,0,0,0,0,0,0,0,-1,1462,1604,0,0
245,-580,0,0,0,0,0,0,0,0,0,-1,1469,1604,0,0
252,-580,0,0,0,0,0,0,0,0,0,-1,1476,1604,0,0
259,-580,0,0,0,0,0,0,0,0,0,-1,1483,1604,0,0
266,-580,0,0,0,0,0,0,0,0,0,-1,1490,1604,0,0
273,-580,0,0,0,0,0,0,0,0,0,-1,1497,1604,0,0
280,-580,0,0,0,0,0,0,0,0,0,-1,1504,1604,0,0
287,-580,0,0,0,0,0,0,0,0,0,-1,1511,1604,0,0
294,-580,4.0437,0.177368,0,0,0,0,0,0,0,-1,1518,1604,4.04369,-0.177371
301,-580,4.89465,1.3446,0,0,0,0,0,0,0,-1,1525,1604,4.89467,-1.34463
308,-580,5.5979,4.69128,0,0,0,0,0,0,0,-1,1532,1604,5.59784,-4.69123
315,-580,10.5341,6.62097,0,0,0,0,0,0,0,-1,1539,1604,10.5341,-6.62096
322,-580,10.2366,7.50281,0,0,0,0,0,0,0,-1,1546,1604,10.2366,-7.50282
329,-580,10.5962,8.69641,0,0,0,0,0,0,0,-1,1553,1604,10.5962,-8.69642
336,-580,3.66431,1.58862,0,0,0,0,0,0,0,-1,1560,1604,3.6643,-1.58864
343,-580,3.32227,1.39636,0,0,0,0,0,0,0,-1,1567,1604,3.32222,-1.39633
350,-580,8.71277,4.0564,0,0,0,0,0,0,0,-1,1574,1604,8.71271,-4.05638
357,-580,8.52332,3.08154,0,0,0,0,0,0,0,-1,1581,1604,8.52332,-3.08157
364,-580,8.25818,2.07605,0,0,0,0,0,0,0,-1,1588,1604,8.25812,-2.07608
371,-580,7.42114,7.14282,0,0,0,0,0,0,0,-1,1595,1604,7.42119,-7.14281
378,-580,7.9718,6.6731,0,0,0,0,0,0,0,-1,1602,1604,7.9718,-6.67307
385,-580,8.52246,6.20337,0,0,0,0,0,0,0,-1,1609,1604,8.52241,-6.20334
392,-580,6.5498,-2.15625,0,0,0,0,0,0,0,-1,1616,1604,6.54984,2.15626
399,-580,6.52625,10.7247,0,0,0,0,0,0,0,-1,1623,1604,6.52628,-10.7248
406,-580,6.90662,10.7493,0,0,0,0,0,0,0,-1,1630,1604,6.90662,-10.7492
413,-580,6.70374,10.6909,0,0,0,0,0,0,0,-1,1637,1604,6.70376,-10.6909
420,-580,7.14111,10.7766,-0.00788711,-0.0195264,0.0165835,0.0038682,-0.0312818,0.616646,0.0222562,0.040582,1644,1604,7.14111,-10.7766
427,-580,7.19592,10.6824,-0.00656589,-0.0186065,0.0147288,0.00332551,-0.0284979,0.591387,0.0201986,0.0359085,1651,1604,7.19589,-10.6824
434,-580,6.67053,10.4755,-0.0055379,-0.0174905,0.0129526,0.00275062,-0.025779,0.569252,0.0181724,0.0252279,1658,1604,6.67056,-10.4755
441,-580,6.56458,10.4375,-0.00457254,-0.0161533,0.0111369,0.00218933,-0.0229152,0.545667,0.0160564,0.0118663,1665,1604,6.56452,-10.4375
448,-580,6.55286,10.3262,-0.00361806,-0.0145459,0.00941287,0.0018018,-0.0199658,0.522429,0.0139499,0.0114882,1672,1604,6.55289,-10.3261
455,-580,6.57312,10.1721,-0.00297691,-0.012957,0.00798394,0.00144812,-0.017382,0.506095,0.0120997,0.0173012,1679,1604,6.57312,-10.1721
462,-580,6.55249,10.0125,-0.00237055,-0.0111931,0.00670301,0.0012425,-0.0148061,0.494373,0.0103099,0.0204224,1686,1604,6.55253,-10.0124
469,-580,6.57544,9.88025,-0.00183698,-0.00926237,0.0054631,0.00105559,-0.0121549,0.486948,0.00847709,0.0174383,1693,1604,6.57544,-9.88029
476,-580,6.60291,9.71033,-0.00151455,-0.00729006,0.00416425,0.000665248,-0.00946986,0.482236,0.00654627,0.0135037,1700,1604,6.60289,-9.71037
483,-580,6.57959,9.54126,-0.0010451,-0.0051755,0.00301229,0.000541948,-0.00676255,0.484903,0.00469944,0.012334,1707,1604,6.57964,-9.54122
490,-580,6.54883,9.39526,-0.000433307,-0.00303132,0.00195195,0.00061237,-0.004077,0.491804,0.00294343,0.0133427,1714,1604,6.54882,-9.39532
497,-580,6.54602,9.22461,5.96525e-05,-0.00121604,0.000847626,0.000482617,-0.001639,0.462846,0.00128413,0.0108571,1721,1604,6.54602,-9.22462
504,-580,6.55286,9.05322,0.000590922,0.000681628,-0.00022046,0.000861351,0.000411198,-0.886843,0.000497471,0.0160828,1728,1604,6.55288,-9.05328
511,-580,6.58081,8.90417,0.00124849,0.00213642,-0.00127856,0.0030459,0.000339009,-0.952504,0.00192756,0.0161157,1735,1604,6.58084,-8.90413
518,-580,6.58679,8.73462,0.00194155,0.00328083,-0.00225298,0.00496158,0.000260801,-0.929852,0.00322431,0.0148546,1742,1604,6.58683,-8.73463
525,-580,6.55676,8.54236,0.00275465,0.00401371,-0.00310752,0.00655483,0.000213537,-0.885337,0.00430047,0.0168429,1749,1604,6.55673,-8.54238
532,-580,6.5719,8.37378,0.00357735,0.004368,-0.00378819,0.00778143,0.000163914,-0.837389,0.00513386,0.0183207,1756,1604,6.57184,-8.37379
539,-580,6.60852,8.29797,0.00431384,0.00459805,-0.00444625,0.00890446,7.42404e-06,-0.801373,0.00593383,0.0239178,1763,1604,6.60858,-8.298
546,-580,6.82556,8.16797,0.00520422,0.00532238,-0.00546081,0.0107244,-0.000197832,-0.790808,0.00721647,0.0433065,1770,1604,6.8256,-8.16802
553,-580,7.12695,7.97729,0,0,0,0,0,0,0,-1,1777,1604,7.12693,-7.97735
560,-580,7.09021,6.49438,0,0,0,0,0,0,0,-1,1784,1604,7.09016,-6.4944
567,-580,2.20801,6.05261,0,0,0,0,0,0,0,-1,1791,1604,2.20799,-6.0526
574,-580,2.31653,5.62952,0,0,0,0,0,0,0,-1,1798,1604,2.31654,-5.62947
581,-580,1.60876,6.67664,0,0,0,0,0,0,0,-1,1805,1604,1.60873,-6.67667
588,-580,1.38684,7.14441,0,0,0,0,0,0,0,-1,1812,1604,1.38689,-7.14443
595,-580,0,0,0,0,0,0,0,0,0,-1,1819,1604,0,0
602,-580,0,0,0,0,0,0,0,0,0,-1,1826,1604,0,0
609,-580,0,0,0,0,0,0,0,0,0,-1,1833,1604,0,0
616,-580,0,0,0,0,0,0,0,0,0,-1,1840,1604,0,0
623,-580,0,0,0,0,0,0,0,0,0,-1,1847,1604,0,0
630,-580,0,0,0,0,0,0,0,0,0,-1,1854,1604,0,0
637,-580,0,0,0,0,0,0,0,0,0,-1,1861,1604,0,0
644,-580,0,0,0,0,0,0,0,0,0,-1,1868,1604,0,0
651,-580,0,0,0,0,0,0,0,0,0,-1,1875,1604,0,0
658,-580,0,0,0,0,0,0,0,0,0,-1,1882,1604,0,0
665,-580,0,0,0,0,0,0,0,0,0,-1,1889,1604,0,0
672,-580,0,0,0,0,0,0,0,0,0,-1,1896,1604,0,0
679,-580,0,0,0,0,0,0,0,0,0,-1,1903,1604,0,0
686,-580,0,0,0,0,0,0,0,0,0,-1,1910,1604,0,0
693,-580,0,0,0,0,0,0,0,0,0,-1,1917,1604,0,0
700,-580,0,0,0,0,0,0,0,0,0,-1,1924,1604,0,0
707,-580,0,0,0,0,0,0,0,0,0,-1,1931,1604,0,0
714,-580,0,0,0,0,0,0,0,0,0,-1,1938,1604,0,0
721,-580,0,0,0,0,0,0,0,0,0,-1,1945,1604,0,0
728,-580,0,0,0,0,0,0,0,0,0,-1,1952,1604,0,0
735,-580,0,0,0,0,0,0,0,0,0,-1,1959,1604,0,0
742,-580,0,0,0,0,0,0,0,0,0,-1,1966,1604,0,0
749,-580,0,0,0,0,0,0,0,0,0,-1,1973,1604,0,0
756,-580,0,0,0,0,0,0,0,0,0,-1,1980,1604,0,0
763,-580,0,0,0,0,0,0,0,0,0,-1,1987,1604,0,0
770,-580,0,0,0,0,0,0,0,0,0,-1,1994,1604,0,0
777,-580,0,0,0,0,0,0,0,0,0,-1,2001,1604,0,0
784,-580,0,0,0,0,0,0,0,0,0,-1,2008,1604,0,0
791,-580,0,0,0,0,0,0,0,0,0,-1,2015,1604,0,0
798,-580,0,0,0,0,0,0,0,0,0,-1,2022,1604,0,0
805,-580,0,0,0,0,0,0,0,0,0,-1,2029,1604,0,0
812,-580,0,0,0,0,0,0,0,0,0,-1,2036,1604,0,0
-700,-587,0,0,0,0,0,0,0,0,0,-1,524,1611,0,0
-693,-587,0,0,0,0,0,0,0,0,0,-1,531,1611,0,0
-686,-587,0,0,0,0,0,0,0,0,0,-1,538,1611,0,0
-679,-587,0,0,0,0,0,0,0,0,0,-1,545,1611,0,0
-672,-587,0,0,0,0,0,0,0,0,0,-1,552,1611,0,0
-665,-587,0,0,0,0,0,0,0,0,0,-1,559,1611,0,0
-658,-587,0,0,0,0,0,0,0,0,0,-1,566,1611,0,0
-651,-587,0,0,0,0,0,0,0,0,0,-1,573,1611,0,0
-644,-587,0,0,0,0,0,0,0,0,0,-1,580,1611,0,0
-637,-587,0,0,0,0,0,0,0,0,0,-1,587,1611,0,0
-630,-587,0,0,0,0,0,0,0,0,0,-1,594,1611,0,0
-623,-587,0,0,0,0,0,0,0,0,0,-1,601,1611,0,0
-616,-587,0,0,0,0,0,0,0,0,0,-1,608,1611,0,0
-609,-587,0,0,0,0,0,0,0,0,0,-1,615,1611,0,0
-602,-587,0,0,0,0,0,0,0,0,0,-1,622,1611,0,0
-595,-587,0,0,0,0,0,0,0,0,0,-1,629,1611,0,0
-588,-587,0,0,0,0,0,0,0,0,0,-1,636,1611,0,0
-581,-587,0,0,0,0,0,0,0,0,0,-1,643,1611,0,0
-574,-587,0,0,0,0,0,0,0,0,0,-1,650,1611,0,0
-567,-587,0,0,0,0,0,0,0,0,0,-1,657,1611,0,0
-560,-587,0,0,0,0,0,0,0,0,0,-1,664,1611,0,0
-553,-587,0,0,0,0,0,0,0,0,0,-1,671,1611,0,0
-546,-587,0,0,0,0,0,0,0,0,0,-1,678,1611,0,0
-539,-587,0,0,0,0,0,0,0,0,0,-1,685,1611,0,0
-532,-587,0,0,0,0,0,0,0,0,0,-1,692,1611,0,0
-525,-587,0,0,0,0,0,0,0,0,0,-1,699,1611,0,0
-518,-587,0,0,0,0,0,0,0,0,0,-1,706,1611,0,0
-511,-587,0,0,0,0,0,0,0,0,0,-1,713,1611,0,0
-504,-587,0,0,0,0,0,0,0,0,0,-1,720,1611,0,0
-497,-587,0,0,0,0,0,0,0,0,0,-1,727,1611,0,0
-490,-587,0,0,0,0,0,0,0,0,0,-1,734,1611,0,0
-483,-587,0,0,0,0,0,0,0,0,0,-1,741,1611,0,0
-476,-587,0,0,0,0,0,0,0,0,0,-1,748,1611,0,0
-469,-587,0,0,0,0,0,0,0,0,0,-1,755,1611,0,0
-462,-587,-0.729492,-4.46301,0,0,0,0,0,0,0,-1,762,1611,-0.729484,4.46305
-455,-587,-0.965698,-3.32373,0,0,0,0,0,0,0,-1,769,1611,-0.965729,3.32372
-448,-587,-1.10828,-0.327637,0,0,0,0,0,0,0,-1,776,1611,-1.10829,0.327577
-441,-587,-3.53021,4.56543,0,0,0,0,0,0,0,-1,783,1611,-3.53023,-4.56538
-434,-587,-2.36865,6.41638,0,0,0,0,0,0,0,-1,790,1611,-2.36868,-6.41644
-427,-587,-1.47821,8.11377,0,0,0,0,0,0,0,-1,797,1611,-1.4782,-8.11378
-420,-587,-0.647156,10.1157,0,0,0,0,0,0,0,-1,804,1611,-0.647128,-10.1158
-413,-587,1.30896,5.89941,0,0,0,0,0,0,0,-1,811,1611,1.30897,-5.8994
-406,-587,1.49005,6.41357,0.00152081,0.0135759,0.0144954,0.023247,-0.00815033,0.982435,0.0188128,0.0466619,818,1611,1.49005,-6.41356
-399,-587,1.64001,7.09314,-6.63943e-05,0.00497386,0.00640467,0.00933639,-0.00442892,0.972836,0.00811401,0.0333474,825,1611,1.63999,-7.0931
-392,-587,1.57867,7.27527,-0.00125036,0.00143201,0.00321864,0.00357771,-0.00339606,0.982805,0.00402677,0.0238317,832,1611,1.57869,-7.2753
-385,-587,1.5376,7.46204,-0.00179569,0.000740401,0.0023486,0.00214141,-0.0031967,1.03293,0.00310197,0.0139259,839,1611,1.53757,-7.46198
-378,-587,1.52148,7.6604,-0.00184585,0.000172985,0.00175183,0.00118541,-0.00285827,1.04677,0.00240029,0.012411,846,1611,1.5215,-7.66045
-371,-587,1.51355,7.85669,-0.00164864,-0.000305743,0.00137778,0.000555493,-0.00250987,1.01213,0.00188588,0.0132362,853,1611,1.51357,-7.85669
-364,-587,1.5199,8.0332,-0.0014914,-0.00065351,0.00112218,0.000125376,-0.00227028,0.964051,0.001557,0.0165972,860,1611,1.51991,-8.03317
-357,-587,1.5238,8.18823,-0.00107418,-0.000995641,0.000984076,-5.00511e-05,-0.00201977,0.80534,0.00133014,0.0167951,867,1611,1.52381,-8.18819
-350,-587,1.53223,8.41431,-0.00058603,-0.00141494,0.0006917,-0.000194123,-0.00180685,0.515487,0.00114536,0.00992924,874,1611,1.53223,-8.41425
-343,-587,1.52728,8.59497,-7.26016e-05,-0.00133078,0.000532979,0.000122821,-0.0015262,0.351439,0.00106078,0.0119233,881,1611,1.52729,-8.59499
-336,-587,1.51489,8.73926,0.000428697,-0.00146075,0.000433739,0.000523508,-0.00155557,0.215204,0.00124868,0.011848,888,1611,1.5149,-8.73922
-329,-587,1.52002,8.91992,0.00091869,-0.00138584,0.000237403,0.000942892,-0.00141004,0.101594,0.00136736,0.014736,895,1611,1.51999,-8.91995
-322,-587,1.5528,9.12781,0.00137469,-0.00125427,-2.80894e-05,0.00137499,-0.00125457,-0.010683,0.00151871,0.0177526,902,1611,1.55282,-9.12777
-315,-587,1.55573,9.26941,0.00164722,-0.00126924,-0.000375342,0.00169475,-0.00131678,-0.125963,0.00174327,0.0140349,909,1611,1.55572,-9.26936
-308,-587,1.54224,9.44519,0.00196856,-0.00142565,-0.000794137,0.00214517,-0.00160226,-0.218835,0.00217114,0.0138783,916,1611,1.54223,-9.44523
-301,-587,1.56281,9.61816,0.0024384,-0.00184393,-0.00120528,0.00275432,-0.00215986,-0.25635,0.00284411,0.0123896,923,1611,1.56281,-9.61816
-294,-587,1.59113,9.7616,0.00314022,-0.00245579,-0.00148286,0.00350887,-0.00282444,-0.243668,0.00366365,0.0126674,930,1611,1.59115,-9.76162
-287,-587,1.61993,9.90625,0.00391921,-0.00307902,-0.00165575,0.00429118,-0.00345099,-0.220986,0.00447871,0.0232997,937,1611,1.61996,-9.90625
-280,-587,1.63104,10.0022,0.00480623,-0.00374666,-0.00179687,0.0051684,-0.00410883,-0.19889,0.00536784,0.036556,944,1611,1.63107,-10.0022
-273,-587,1.62408,10.0704,0.00604319,-0.00433198,-0.00200617,0.0064176,-0.00470639,-0.184505,0.00644772,0.0463039,951,1611,1.62407,-10.0705
-266,-587,1.51544,10.1167,0,0,0,0,0,0,0,-1,958,1611,1.51541,-10.1167
-259,-587,1.57776,10.3351,0,0,0,0,0,0,0,-1,965,1611,1.57775,-10.3351
-252,-587,1.69226,8.79053,0,0,0,0,0,0,0,-1,972,1611,1.69224,-8.79057
-245,-587,2.68207,10.2224,0,0,0,0,0,0,0,-1,979,1611,2.68205,-10.2224
-238,-587,2.45251,8.59753,0,0,0,0,0,0,0,-1,986,1611,2.45254,-8.59754
-231,-587,-8.47339,4.69678,0,0,0,0,0,0,0,-1,993,1611,-8.47339,-4.69683
-224,-587,-7.047,5.60828,0,0,0,0,0,0,0,-1,1000,1611,-7.04699,-5.6083
-217,-587,-5.39899,6.52637,0,0,0,0,0,0,0,-1,1007,1611,-5.39901,-6.52634
-210,-587,-3.96399,7.48633,0,0,0,0,0,0,0,-1,1014,1611,-3.96397,-7.48632
-203,-587,-1.55042,9.40186,0,0,0,0,0,0,0,-1,1021,1611,-1.55043,-9.40186
-196,-587,-2.32214,9.0835,0,0,0,0,0,0,0,-1,1028,1611,-2.32215,-9.08353
-189,-587,-3.04138,8.66638,0,0,0,0,0,0,0,-1,1035,1611,-3.04136,-8.66635
-182,-587,-3.97095,9.7146,0,0,0,0,0,0,0,-1,1042,1611,-3.97093,-9.71461
-175,-587,-4.80969,8.37878,0,0,0,0,0,0,0,-1,1049,1611,-4.80964,-8.37883
-168,-587,-5.91394,8.72546,0,0,0,0,0,0,0,-1,1056,1611,-5.91398,-8.72542
-161,-587,-7.06946,8.88501,0,0,0,0,0,0,0,-1,1063,1611,-7.06947,-8.885
-154,-587,-2.24731,6.56519,0,0,0,0,0,0,0,-1,1070,1611,-2.24728,-6.56517
-147,-587,0,0,0,0,0,0,0,0,0,-1,1077,1611,0,0
-140,-587,0,0,0,0,0,0,0,0,0,-1,1084,1611,0,0
-133,-587,0,0,0,0,0,0,0,0,0,-1,1091,1611,0,0
-126,-587,0,0,0,0,0,0,0,0,0,-1,1098,1611,0,0
-119,-587,0,0,0,0,0,0,0,0,0,-1,1105,1611,0,0
-112,-587,0,0,0,0,0,0,0,0,0,-1,1112,1611,0,0
-105,-587,0,0,0,0,0,0,0,0,0,-1,1119,1611,0,0
-98,-587,0,0,0,0,0,0,0,0,0,-1,1126,1611,0,0
-91,-587,0,0,0,0,0,0,0,0,0,-1,1133,1611,0,0
-84,-587,0,0,0,0,0,0,0,0,0,-1,1140,1611,0,0
-77,-587,0,0,0,0,0,0,0,0,0,-1,1147,1611,0,0
-70,-587,0,0,0,0,0,0,0,0,0,-1,1154,1611,0,0
-63,-587,0,0,0,0,0,0,0,0,0,-1,1161,1611,0,0
-56,-587,0,0,0,0,0,0,0,0,0,-1,1168,1611,0,0
-49,-587,0,0,0,0,0,0,0,0,0,-1,1175,1611,0,0
-42,-587,0,0,0,0,0,0,0,0,0,-1,1182,1611,0,0
-35,-587,0,0,0,0,0,0,0,0,0,-1,1189,1611,0,0
-28,-587,0,0,0,0,0,0,0,0,0,-1,1196,1611,0,0
-21,-587,0,0,0,0,0,0,0,0,0,-1,1203,1611,0,0
-14,-587,0,0,0,0,0,0,0,0,0,-1,1210,1611,0,0
-7,-587,0,0,0,0,0,0,0,0,0,-1,1217,1611,0,0
0,-587,0,0,0,0,0,0,0,0,0,-1,1224,1611,0,0
7,-587,0,0,0,0,0,0,0,0,0,-1,1231,1611,0,0
14,-587,0,0,0,0,0,0,0,0,0,-1,1238,1611,0,0
21,-587,0,0,0,0,0,0,0,0,0,-1,1245,1611,0,0
28,-587,0,0,0,0,0,0,0,0,0,-1,1252,1611,0,0
35,-587,0,0,0,0,0,0,0,0,0,-1,1259,1611,0,0
42,-587,0,0,0,0,0,0,0,0,0,-1,1266,1611,0,0
49,-587,0,0,0,0,0,0,0,0,0,-1,1273,1611,0,0
56,-587,0,0,0,0,0,0,0,0,0,-1,1280,1611,0,0
63,-587,0,0,0,0,0,0,0,0,0,-1,1287,1611,0,0
70,-587,0,0,0,0,0,0,0,0,0,-1,1294,1611,0,0
77,-587,0,0,0,0,0,0,0,0,0,-1,1301,1611,0,0
84,-587,0,0,0,0,0,0,0,0,0,-1,1308,1611,0,0
91,-587,0,0,0,0,0,0,0,0,0,-1,1315,1611,0,0
98,-587,0,0,0,0,0,0,0,0,0,-1,1322,1611,0,0
105,-587,0,0,0,0,0,0,0,0,0,-1,1329,1611,0,0
112,-587,0,0,0,0,0,0,0,0,0,-1,1336,1611,0,0
119,-587,0,0,0,0,0,0,0,0,0,-1,1343,1611,0,0
126,-587,0,0,0,0,0,0,0,0,0,-1,1350,1611,0,0
133,-587,0,0,0,0,0,0,0,0,0,-1,1357,1611,0,0
140,-587,0,0,0,0,0,0,0,0,0,-1,1364,1611,0,0
147,-587,0,0,0,0,0,0,0,0,0,-1,1371,1611,0,0
154,-587,0,0,0,0,0,0,0,0,0,-1,1378,1611,0,0
161,-587,0,0,0,0,0,0,0,0,0,-1,1385,1611,0,0
168,-587,0,0,0,0,0,0,0,0,0,-1,1392,1611,0,0
175,-587,0,0,0,0,0,0,0,0,0,-1,1399,1611,0,0
182,-587,0,0,0,0,0,0,0,0,0,-1,1406,1611,0,0
189,-587,0,0,0,0,0,0,0,0,0,-1,1413,1611,0,0
196,-587,0,0,0,0,0,0,0,0,0,-1,1420,1611,0,0
203,-587,0,0,0,0,0,0,0,0,0,-1,1427,1611,0,0
210,-587,0,0,0,0,0,0,0,0,0,-1,1434,1611,0,0
217,-587,0,0,0,0,0,0,0,0,0,-1,1441,1611,0,0
224,-587,0,0,0,0,0,0,0,0,0,-1,1448,1611,0,0
231,-587,0,0,0,0,0,0,0,0,0,-1,1455,1611,0,0
238,-587,0,0,0,0,0,0,0,0,0,-1,1462,1611,0,0
245,-587,0,0,0,0,0,0,0,0,0,-1,1469,1611,0,0
252,-587,0,0,0,0,0,0,0,0,0,-1,1476,1611,0,0
259,-587,0,0,0,0,0,0,0,0,0,-1,1483,1611,0,0
266,-587,0,0,0,0,0,0,0,0,0,-1,1490,1611,0,0
273,-587,10.2936,6.35083,0,0,0,0,0,0,0,-1,1497,1611,10.2936,-6.35087
280,-587,2.09204,1.1217,0,0,0,0,0,0,0,-1,1504,1611,2.092,-1.12176
287,-587,3.2865,0.671509,0,0,0,0,0,0,0,-1,1511,1611,3.28656,-0.671538
294,-587,4.24646,1.58765,0,0,0,0,0,0,0,-1,1518,1611,4.24648,-1.58761
301,-587,5.13647,2.76465,0,0,0,0,0,0,0,-1,1525,1611,5.13648,-2.76469
308,-587,5.62061,10.1396,0,0,0,0,0,0,0,-1,1532,1611,5.62065,-10.1397
315,-587,4.14722,11.6769,0,0,0,0,0,0,0,-1,1539,1611,4.14727,-11.6769
322,-587,10.4526,6.38245,0,0,0,0,0,0,0,-1,1546,1611,10.4526,-6.38245
329,-587,10.7738,8.42444,0,0,0,0,0,0,0,-1,1553,1611,10.7738,-8.42438
336,-587,7.5531,5.96619,0,0,0,0,0,0,0,-1,1560,1611,7.55311,-5.96617
343,-587,9.57495,4.38391,0,0,0,0,0,0,0,-1,1567,1611,9.57494,-4.38397
350,-587,9.50378,3.45093,0,0,0,0,0,0,0,-1,1574,1611,9.50376,-3.4509
357,-587,9.40027,2.50806,0,0,0,0,0,0,0,-1,1581,1611,9.40022,-2.50803
364,-587,9.26477,1.34131,0,0,0,0,0,0,0,-1,1588,1611,9.26479,-1.34126
371,-587,6.98926,7.87561,0,0,0,0,0,0,0,-1,1595,1611,6.98928,-7.87564
378,-587,6.91187,9.53101,0,0,0,0,0,0,0,-1,1602,1611,6.91184,-9.53103
385,-587,7.17224,7.03772,0,0,0,0,0,0,0,-1,1609,1611,7.1722,-7.03778
392,-587,5.3916,8.21436,0,0,0,0,0,0,0,-1,1616,1611,5.39157,-8.21437
399,-587,6.84814,11.0374,0,0,0,0,0,0,0,-1,1623,1611,6.8481,-11.0373
406,-587,6.6792,10.8971,-0.00847222,-0.0154365,0.0162099,0.00462529,-0.028534,0.679598,0.0207371,0.0428356,1630,1611,6.67922,-10.8971
413,-587,6.49805,10.8196,-0.00737398,-0.0148017,0.0145635,0.00394178,-0.0261174,0.660554,0.0188633,0.0338406,1637,1611,6.4981,-10.8195
420,-587,6.46436,10.8357,-0.00624071,-0.0139396,0.0128393,0.0033138,-0.0234941,0.639754,0.0168761,0.0302729,1644,1611,6.46433,-10.8357
427,-587,6.51404,10.7596,-0.00515865,-0.0131201,0.0112703,0.00281327,-0.021092,0.615634,0.0150868,0.024317,1651,1611,6.51402,-10.7597
434,-587,6.41602,10.6417,-0.00423707,-0.0121252,0.00971754,0.00230628,-0.0186686,0.592619,0.0132814,0.0146901,1658,1611,6.41607,-10.6417
441,-587,6.38684,10.5237,-0.00340764,-0.0110547,0.00816552,0.00178521,-0.0162475,0.566434,0.0114731,0.0160151,1665,1611,6.38678,-10.5237
448,-587,6.39453,10.3436,-0.00262766,-0.00981803,0.00674132,0.00141723,-0.0138629,0.54043,0.00974875,0.0149933,1672,1611,6.39458,-10.3436
455,-587,6.3949,10.1899,-0.00215902,-0.00860757,0.00558165,0.0010627,-0.0118293,0.523484,0.00826323,0.0136198,1679,1611,6.39489,-10.1899
462,-587,6.39526,10.0325,-0.00170794,-0.00723015,0.00455686,0.000859057,-0.00979715,0.513017,0.0068358,0.0164498,1686,1611,6.39524,-10.0324
469,-587,6.41577,9.88245,-0.00131264,-0.00565614,0.00352702,0.000657641,-0.00762641,0.50944,0.00531706,0.0144124,1693,1611,6.41583,-9.88241
476,-587,6.43018,9.71545,-0.00116637,-0.00402851,0.00248586,0.000270911,-0.00546579,0.524224,0.00373744,0.00993191,1700,1611,6.4302,-9.71551
483,-587,6.41992,9.53406,-0.000873105,-0.00223863,0.00159008,0.000174602,-0.00328634,0.582607,0.00225135,0.0129753,1707,1611,6.41993,-9.53405
490,-587,6.40503,9.37756,-0.000404054,-0.000403787,0.000752961,0.00034904,-0.00115688,0.785487,0.00091019,0.0149742,1714,1611,6.40502,-9.37762
497,-587,6.39111,9.22351,-2.83125e-05,0.0011641,-0.000144602,0.00118139,-4.55977e-05,-1.45183,0.000803223,0.0122339,1721,1611,6.39116,-9.22357
504,-587,6.38037,9.07092,0.000414999,0.00278625,-0.00102028,0.00316481,3.64392e-05,-1.21551,0.00209783,0.0121249,1728,1611,6.38037,-9.07094
511,-587,6.39502,8.92236,0.00101784,0.00404387,-0.00192783,0.00498151,8.01936e-05,-1.11811,0.0032946,0.0139071,1735,1611,6.395,-8.92239
518,-587,6.41455,8.74646,0.00170907,0.00502575,-0.00279014,0.00661317,0.000121644,-1.05353,0.0043688,0.0136682,1742,1611,6.41459,-8.7465
525,-587,6.42395,8.54199,0.00259727,0.0056874,-0.00360456,0.00806408,0.000220593,-0.987874,0.00530405,0.0162894,1749,1611,6.42393,-8.54204
532,-587,6.43188,8.39282,0.00360483,0.00601082,-0.00432509,0.0092971,0.000318553,-0.921041,0.00609466,0.0290937,1756,1611,6.43189,-8.39287
539,-587,6.63196,8.19116,0.00479366,0.00647932,-0.00529293,0.0109961,0.000276877,-0.864354,0.00724021,0.0419889,1763,1611,6.6319,-8.1911
546,-587,6.83459,7.94031,0,0,0,0,0,0,0,-1,1770,1611,6.83463,-7.94029
553,-587,6.78259,7.4989,0,0,0,0,0,0,0,-1,1777,1611,6.78264,-7.49888
560,-587,4.21179,5.23547,0,0,0,0,0,0,0,-1,1784,1611,4.21185,-5.23553
567,-587,4.03711,5.46387,0,0,0,0,0,0,0,-1,1791,1611,4.03715,-5.46382
574,-587,3.83142,5.68884,0,0,0,0,0,0,0,-1,1798,1611,3.83141,-5.68881
581,-587,3.47168,6.00977,0,0,0,0,0,0,0,-1,1805,1611,3.47167,-6.00983
588,-587,0,0,0,0,0,0,0,0,0,-1,1812,1611,0,0
595,-587,0,0,0,0,0,0,0,0,0,-1,1819,1611,0,0
602,-587,0,0,0,0,0,0,0,0,0,-1,1826,1611,0,0
609,-587,0,0,0,0,0,0,0,0,0,-1,1833,1611,0,0
616,-587,0,0,0,0,0,0,0,0,0,-1,1840,1611,0,0
623,-587,0,0,0,0,0,0,0,0,0,-1,1847,1611,0,0
630,-587,0,0,0,0,0,0,0,0,0,-1,1854,1611,0,0
637,-587,0,0,0,0,0,0,0,0,0,-1,1861,1611,0,0
644,-587,0,0,0,0,0,0,0,0,0,-1,1868,1611,0,0
651,-587,0,0,0,0,0,0,0,0,0,-1,1875,1611,0,0
658,-587,0,0,0,0,0,0,0,0,0,-1,1882,1611,0,0
665,-587,0,0,0,0,0,0,0,0,0,-1,1889,1611,0,0
672,-587,0,0,0,0,0,0,0,0,0,-1,1896,1611,0,0
679,-587,0,0,0,0,0,0,0,0,0,-1,1903,1611,0,0
686,-587,0,0,0,0,0,0,0,0,0,-1,1910,1611,0,0
693,-587,0,0,0,0,0,0,0,0,0,-1,1917,1611,0,0
700,-587,0,0,0,0,0,0,0,0,0,-1,1924,1611,0,0
707,-587,0,0,0,0,0,0,0,0,0,-1,1931,1611,0,0
714,-587,0,0,0,0,0,0,0,0,0,-1,1938,1611,0,0
721,-587,0,0,0,0,0,0,0,0,0,-1,1945,1611,0,0
728,-587,0,0,0,0,0,0,0,0,0,-1,1952,1611,0,0
735,-587,0,0,0,0,0,0,0,0,0,-1,1959,1611,0,0
742,-587,0,0,0,0,0,0,0,0,0,-1,1966,1611,0,0
749,-587,0,0,0,0,0,0,0,0,0,-1,1973,1611,0,0
756,-587,0,0,0,0,0,0,0,0,0,-1,1980,1611,0,0
763,-587,0,0,0,0,0,0,0,0,0,-1,1987,1611,0,0
770,-587,0,0,0,0,0,0,0,0,0,-1,1994,1611,0,0
777,-587,0,0,0,0,0,0,0,0,0,-1,2001,1611,0,0
784,-587,0,0,0,0,0,0,0,0,0,-1,2008,1611,0,0
791,-587,0,0,0,0,0,0,0,0,0,-1,2015,1611,0,0
798,-587,0,0,0,0,0,0,0,0,0,-1,2022,1611,0,0
805,-587,0,0,0,0,0,0,0,0,0,-1,2029,1611,0,0
812,-587,0,0,0,0,0,0,0,0,0,-1,2036,1611,0,0
-700,-594,0,0,0,0,0,0,0,0,0,-1,524,1618,0,0
-693,-594,0,0,0,0,0,0,0,0,0,-1,531,1618,0,0
-686,-594,0,0,0,0,0,0,0,0,0,-1,538,1618,0,0
-679,-594,0,0,0,0,0,0,0,0,0,-1,545,1618,0,0
-672,-594,0,0,0,0,0,0,0,0,0,-1,552,1618,0,0
-665,-594,0,0,0,0,0,0,0,0,0,-1,559,1618,0,0
-658,-594,0,0,0,0,0,0,0,0,0,-1,566,1618,0,0
-651,-594,0,0,0,0,0,0,0,0,0,-1,573,1618,0,0
-644,-594,0,0,0,0,0,0,0,0,0,-1,580,1618,0,0
-637,-594,0,0,0,0,0,0,0,0,0,-1,587,1618,0,0
-630,-594,0,0,0,0,0,0,0,0,0,-1,594,1618,0,0
-623,-594,0,0,0,0,0,0,0,0,0,-1,601,1618,0,0
-616,-594,0,0,0,0,0,0,0,0,0,-1,608,1618,0,0
-609,-594,0,0,0,0,0,0,0,0,0,-1,615,1618,0,0
-602,-594,0,0,0,0,0,0,0,0,0,-1,622,1618,0,0
-595,-594,0,0,0,0,0,0,0,0,0,-1,629,1618,0,0
-588,-594,0,0,0,0,0,0,0,0,0,-1,636,1618,0,0
-581,-594,0,0,0,0,0,0,0,0,0,-1,643,1618,0,0
-574,-594,0,0,0,0,0,0,0,0,0,-1,650,1618,0,0
-567,-594,0,0,0,0,0,0,0,0,0,-1,657,1618,0,0
-560,-594,0,0,0,0,0,0,0,0,0,-1,664,1618,0,0
-553,-594,0,0,0,0,0,0,0,0,0,-1,671,1618,0,0
-546,-594,0,0,0,0,0,0,0,0,0,-1,678,1618,0,0
-539,-594,0,0,0,0,0,0,0,0,0,-1,685,1618,0,0
-532,-594,0,0,0,0,0,0,0,0,0,-1,692,1618,0,0
-525,-594,0,0,0,0,0,0,0,0,0,-1,699,1618,0,0
-518,-594,0,0,0,0,0,0,0,0,0,-1,706,1618,0,0
-511,-594,0,0,0,0,0,0,0,0,0,-1,713,1618,0,0
-504,-594,0,0,0,0,0,0,0,0,0,-1,720,1618,0,0
-497,-594,0,0,0,0,0,0,0,0,0,-1,727,1618,0,0
-490,-594,0,0,0,0,0,0,0,0,0,-1,734,1618,0,0
-483,-594,0,0,0,0,0,0,0,0,0,-1,741,1618,0,0
-476,-594,0,0,0,0,0,0,0,0,0,-1,748,1618,0,0
-469,-594,0,0,0,0,0,0,0,0,0,-1,755,1618,0,0
-462,-594,0,0,0,0,0,0,0,0,0,-1,762,1618,0,0
-455,-594,-1.65491,-4.9729,0,0,0,0,0,0,0,-1,769,1618,-1.65492,4.97285
-448,-594,-1.93896,-3.84717,0,0,0,0,0,0,0,-1,776,1618,-1.93896,3.84713
-441,-594,-4.79364,4.07727,0,0,0,0,0,0,0,-1,783,1618,-4.79365,-4.07727
-434,-594,-3.62231,5.8208,0,0,0,0,0,0,0,-1,790,1618,-3.62229,-5.82083
-427,-594,-3.97693,6.77759,0,0,0,0,0,0,0,-1,797,1618,-3.97695,-6.77764
-420,-594,-2.53046,7.71606,0,0,0,0,0,0,0,-1,804,1618,-2.53047,-7.71609
-413,-594,-0.860413,8.00391,0,0,0,0,0,0,0,-1,811,1618,-0.860423,-8.00389
-406,-594,1.54956,6.09363,0,0,0,0,0,0,0,-1,818,1618,1.54953,-6.09358
-399,-594,1.89899,7.02393,-0.00109225,0.00441959,0.0087498,0.0108372,-0.00750988,0.937965,0.0106506,0.0472856,825,1618,1.899,-7.02387
-392,-594,1.86041,7.26306,-0.00236981,0.000496765,0.00494027,0.00420746,-0.00608051,0.926584,0.00597248,0.0401054,832,1618,1.86039,-7.26311
-385,-594,1.76306,7.48364,-0.00282767,-0.000279624,0.00376289,0.00241907,-0.00552637,0.948629,0.00470278,0.0260366,839,1618,1.76305,-7.48364
-378,-594,1.69958,7.66357,-0.00275678,-0.000875927,0.00288221,0.0012154,-0.00484811,0.943095,0.00370428,0.0120733,846,1618,1.6996,-7.66358
-371,-594,1.70337,7.8728,-0.0023637,-0.00135127,0.00221466,0.000414294,-0.00412926,0.897755,0.00290082,0.0120391,853,1618,1.70339,-7.87286
-364,-594,1.71521,8.05054,-0.0019791,-0.00160046,0.00167222,-0.000106879,-0.00347268,0.841766,0.00228033,0.0102908,860,1618,1.71521,-8.05057
-357,-594,1.72778,8.22559,-0.0013312,-0.00183942,0.00129371,-0.000266876,-0.00290374,0.688423,0.00185328,0.00992319,867,1618,1.72781,-8.22561
-350,-594,1.71539,8.43127,-0.000671269,-0.00212881,0.000813811,-0.000307613,-0.00249246,0.420236,0.00156919,0.0146704,874,1618,1.71538,-8.43132
-343,-594,1.6991,8.63342,-4.49814e-05,-0.00196597,0.00052792,9.05393e-05,-0.00210149,0.251281,0.00143213,0.0161917,881,1618,1.69909,-8.63342
-336,-594,1.68677,8.77283,0.000544883,-0.00199976,0.000325696,0.000585909,-0.00204079,0.125302,0.00159218,0.013328,888,1618,1.68674,-8.77284
-329,-594,1.6972,8.9375,0.00113256,-0.00189043,7.49007e-05,0.00113442,-0.00189229,0.0247567,0.00176564,0.0138529,895,1618,1.69721,-8.93755
-322,-594,1.72284,9.13074,0.00167311,-0.00175268,-0.000149967,0.00167967,-0.00175923,-0.0436643,0.00198563,0.0157654,902,1618,1.72284,-9.13077
-315,-594,1.73901,9.29089,0.00192589,-0.00185256,-0.000377881,0.00196331,-0.00188998,-0.0987071,0.00222483,0.0156966,909,1618,1.73903,-9.29093
-308,-594,1.73688,9.45264,0.00218062,-0.0021008,-0.000637226,0.00227345,-0.00219363,-0.144659,0.00257921,0.0144511,916,1618,1.73685,-9.45267
-301,-594,1.73553,9.59924,0.00256178,-0.0026462,-0.000848315,0.00269648,-0.0027809,-0.157466,0.00316249,0.0115616,923,1618,1.7355,-9.59927
-294,-594,1.74457,9.76318,0.00314874,-0.0033853,-0.00090313,0.00327128,-0.00350784,-0.134851,0.00391472,0.0102179,930,1618,1.74454,-9.76314
-287,-594,1.74908,9.94556,0.00377862,-0.00409974,-0.000853676,0.00387006,-0.00419118,-0.106707,0.00465539,0.0119468,937,1618,1.74911,-9.94552
-280,-594,1.75873,10.0729,0.00448804,-0.00487289,-0.0007947,0.00455503,-0.00493988,-0.0840934,0.00548339,0.016825,944,1618,1.75875,-10.0728
-273,-594,1.77704,10.1383,0.00532561,-0.00560881,-0.00069141,0.00536915,-0.00565236,-0.0628986,0.00636397,0.0285376,951,1618,1.77703,-10.1383
-266,-594,1.73425,10.2306,0.00633721,-0.00668978,-0.000338291,0.00634599,-0.00669855,-0.0259452,0.00753219,0.0363286,958,1618,1.73424,-10.2305
-259,-594,1.77295,10.3885,0.00728188,-0.00790112,0.000207136,0.00728471,-0.00790395,0.0136393,0.0087716,0.0409749,965,1618,1.77294,-10.3886
-252,-594,1.9422,10.436,0,0,0,0,0,0,0,-1,972,1618,1.94222,-10.436
-245,-594,2.4812,10.5104,0,0,0,0,0,0,0,-1,979,1618,2.48121,-10.5104
-238,-594,2.53363,10.8269,0,0,0,0,0,0,0,-1,986,1618,2.53362,-10.8269
-231,-594,3.05115,9.41333,0,0,0,0,0,0,0,-1,993,1618,3.05118,-9.4133
-224,-594,-8.25311,5.81628,0,0,0,0,0,0,0,-1,1000,1618,-8.25308,-5.81625
-217,-594,-6.57324,6.72607,0,0,0,0,0,0,0,-1,1007,1618,-6.57323,-6.72605
-210,-594,0.957092,11.3329,0,0,0,0,0,0,0,-1,1014,1618,0.957079,-11.3329
-203,-594,-0.0402832,10.9181,0,0,0,0,0,0,0,-1,1021,1618,-0.0402818,-10.9181
-196,-594,-0.760986,11.9658,0,0,0,0,0,0,0,-1,1028,1618,-0.760987,-11.9658
-189,-594,2.60913,9.48865,0,0,0,0,0,0,0,-1,1035,1618,2.6091,-9.48871
-182,-594,1.2395,9.38806,0,0,0,0,0,0,0,-1,1042,1618,1.23951,-9.38804
-175,-594,0.234863,8.73792,0,0,0,0,0,0,0,-1,1049,1618,0.234812,-8.73786
-168,-594,-0.495483,8.46289,0,0,0,0,0,0,0,-1,1056,1618,-0.495513,-8.46285
-161,-594,-1.39734,8.28699,0,0,0,0,0,0,0,-1,1063,1618,-1.39729,-8.28699
-154,-594,-0.000854492,7.68445,0,0,0,0,0,0,0,-1,1070,1618,-0.000805755,-7.6845
-147,-594,0.348267,9.3385,0,0,0,0,0,0,0,-1,1077,1618,0.348237,-9.33849
-140,-594,0.675171,11.5884,0,0,0,0,0,0,0,-1,1084,1618,0.675204,-11.5884
-133,-594,0,0,0,0,0,0,0,0,0,-1,1091,1618,0,0
-126,-594,0,0,0,0,0,0,0,0,0,-1,1098,1618,0,0
-119,-594,0,0,0,0,0,0,0,0,0,-1,1105,1618,0,0
-112,-594,0,0,0,0,0,0,0,0,0,-1,1112,1618,0,0
-105,-594,0,0,0,0,0,0,0,0,0,-1,1119,1618,0,0
-98,-594,0,0,0,0,0,0,0,0,0,-1,1126,1618,0,0
-91,-594,0,0,0,0,0,0,0,0,0,-1,1133,1618,0,0
-84,-594,0,0,0,0,0,0,0,0,0,-1,1140,1618,0,0
-77,-594,0,0,0,0,0,0,0,0,0,-1,1147,1618,0,0
-70,-594,0,0,0,0,0,0,0,0,0,-1,1154,1618,0,0
-63,-594,0,0,0,0,0,0,0,0,0,-1,1161,1618,0,0
-56,-594,0,0,0,0,0,0,0,0,0,-1,1168,1618,0,0
-49,-594,0,0,0,0,0,0,0,0,0,-1,1175,1618,0,0
-42,-594,0,0,0,0,0,0,0,0,0,-1,1182,1618,0,0
-35,-594,0,0,0,0,0,0,0,0,0,-1,1189,1618,0,0
-28,-594,0,0,0,0,0,0,0,0,0,-1,1196,1618,0,0
-21,-594,0,0,0,0,0,0,0,0,0,-1,1203,1618,0,0
-14,-594,0,0,0,0,0,0,0,0,0,-1,1210,1618,0,0
-7,-594,0,0,0,0,0,0,0,0,0,-1,1217,1618,0,0
0,-594,0,0,0,0,0,0,0,0,0,-1,1224,1618,0,0
7,-594,0,0,0,0,0,0,0,0,0,-1,1231,1618,0,0
14,-594,0,0,0,0,0,0,0,0,0,-1,1238,1618,0,0
21,-594,0,0,0,0,0,0,0,0,0,-1,1245,1618,0,0
28,-594,0,0,0,0,0,0,0,0,0,-1,1252,1618,0,0
35,-594,0,0,0,0,0,0,0,0,0,-1,1259,1618,0,0
42,-594,0,0,0,0,0,0,0,0,0,-1,1266,1618,0,0
49,-594,0,0,0,0,0,0,0,0,0,-1,1273,1618,0,0
56,-594,0,0,0,0,0,0,0,0,0,-1,1280,1618,0,0
63,-594,0,0,0,0,0,0,0,0,0,-1,1287,1618,0,0
70,-594,0,0,0,0,0,0,0,0,0,-1,1294,1618,0,0
77,-594,0,0,0,0,0,0,0,0,0,-1,1301,1618,0,0
84,-594,0,0,0,0,0,0,0,0,0,-1,1308,1618,0,0
91,-594,0,0,0,0,0,0,0,0,0,-1,1315,1618,0,0
98,-594,0,0,0,0,0,0,0,0,0,-1,1322,1618,0,0
105,-594,0,0,0,0,0,0,0,0,0,-1,1329,1618,0,0
112,-594,0,0,0,0,0,0,0,0,0,-1,1336,1618,0,0
119,-594,0,0,0,0,0,0,0,0,0,-1,1343,1618,0,0
126,-594,0,0,0,0,0,0,0,0,0,-1,1350,1618,0,0
133,-594,0,0,0,0,0,0,0,0,0,-1,1357,1618,0,0
140,-594,0,0,0,0,0,0,0,0,0,-1,1364,1618,0,0
147,-594,0,0,0,0,0,0,0,0,0,-1,1371,1618,0,0
154,-594,0,0,0,0,0,0,0,0,0,-1,1378,1618,0,0
161,-594,0,0,0,0,0,0,0,0,0,-1,1385,1618,0,0
168,-594,0,0,0,0,0,0,0,0,0,-1,1392,1618,0,0
175,-594,0,0,0,0,0,0,0,0,0,-1,1399,1618,0,0
182,-594,0,0,0,0,0,0,0,0,0,-1,1406,1618,0,0
189,-594,0,0,0,0,0,0,0,0,0,-1,1413,1618,0,0
196,-594,0,0,0,0,0,0,0,0,0,-1,1420,1618,0,0
203,-594,0,0,0,0,0,0,0,0,0,-1,1427,1618,0,0
210,-594,0,0,0,0,0,0,0,0,0,-1,1434,1618,0,0
217,-594,0,0,0,0,0,0,0,0,0,-1,1441,1618,0,0
224,-594,0,0,0,0,0,0,0,0,0,-1,1448,1618,0,0
231,-594,0,0,0,0,0,0,0,0,0,-1,1455,1618,0,0
238,-594,0,0,0,0,0,0,0,0,0,-1,1462,1618,0,0
245,-594,0,0,0,0,0,0,0,0,0,-1,1469,1618,0,0
252,-594,3.03674,1.20996,0,0,0,0,0,0,0,-1,1476,1618,3.0368,-1.20999
259,-594,4.79834,1.53113,0,0,0,0,0,0,0,-1,1483,1618,4.79837,-1.53118
266,-594,3.71606,2.68152,0,0,0,0,0,0,0,-1,1490,1618,3.71609,-2.68149
273,-594,9.7655,6.33557,0,0,0,0,0,0,0,-1,1497,1618,9.76555,-6.33554
280,-594,3.13281,0.911255,0,0,0,0,0,0,0,-1,1504,1618,3.13277,-0.911207
287,-594,4.42749,1.51563,0,0,0,0,0,0,0,-1,1511,1618,4.42747,-1.51564
294,-594,4.86377,2.89954,0,0,0,0,0,0,0,-1,1518,1618,4.8638,-2.89954
301,-594,7.40552,9.07483,0,0,0,0,0,0,0,-1,1525,1618,7.40555,-9.07483
308,-594,6.02271,10.0214,0,0,0,0,0,0,0,-1,1532,1618,6.02267,-10.0213
315,-594,4.36401,10.6393,0,0,0,0,0,0,0,-1,1539,1618,4.36404,-10.6393
322,-594,2.98352,11.3137,0,0,0,0,0,0,0,-1,1546,1618,2.98351,-11.3137
329,-594,4.19861,9.77258,0,0,0,0,0,0,0,-1,1553,1618,4.19865,-9.77264
336,-594,10.1353,4.66528,0,0,0,0,0,0,0,-1,1560,1618,10.1353,-4.66533
343,-594,10.5729,3.71228,0,0,0,0,0,0,0,-1,1567,1618,10.5729,-3.71232
350,-594,10.219,2.98792,0,0,0,0,0,0,0,-1,1574,1618,10.219,-2.98797
357,-594,9.83154,1.96326,0,0,0,0,0,0,0,-1,1581,1618,9.8315,-1.96321
364,-594,9.74939,0.700562,0,0,0,0,0,0,0,-1,1588,1618,9.74939,-0.700615
371,-594,6.37524,10.0662,0,0,0,0,0,0,0,-1,1595,1618,6.37528,-10.0661
378,-594,6.41321,11.3068,0,0,0,0,0,0,0,-1,1602,1618,6.41316,-11.3068
385,-594,6.57056,9.70728,0,0,0,0,0,0,0,-1,1609,1618,6.57061,-9.70732
392,-594,6.37708,11.213,0,0,0,0,0,0,0,-1,1616,1618,6.37702,-11.213
399,-594,6.37183,11.1196,-0.00738698,-0.0122881,0.0138317,0.00420962,-0.0238847,0.697724,0.017496,0.042638,1623,1618,6.37184,-11.1196
406,-594,6.36584,11.0284,-0.00640731,-0.0113531,0.0123097,0.00367546,-0.0214359,0.686273,0.0156602,0.0272225,1630,1618,6.36588,-11.0284
413,-594,6.29211,10.9148,-0.00564587,-0.0105947,0.0110065,0.00316088,-0.0194015,0.674829,0.0141065,0.0209362,1637,1618,6.29214,-10.9148
420,-594,6.27686,10.7988,-0.00480011,-0.0097723,0.00966197,0.00269048,-0.0172629,0.659476,0.0125023,0.015897,1644,1618,6.27688,-10.7988
427,-594,6.27844,10.7488,-0.00389741,-0.00899586,0.00833351,0.00226806,-0.0151613,0.636968,0.0109422,0.0114981,1651,1618,6.2785,-10.7488
434,-594,6.25513,10.6135,-0.00316625,-0.00818127,0.0070698,0.00182755,-0.0131751,0.61498,0.00945164,0.015875,1658,1618,6.25509,-10.6135
441,-594,6.2417,10.47,-0.00250876,-0.00735014,0.0058434,0.00139551,-0.0112544,0.589029,0.00800874,0.0154027,1665,1618,6.24175,-10.47
448,-594,6.26697,10.323,-0.00189301,-0.00638429,0.00472909,0.00109654,-0.00937383,0.563732,0.00664496,0.0153675,1672,1618,6.26698,-10.323
455,-594,6.25452,10.1733,-0.00154521,-0.00546164,0.00381084,0.000781089,-0.00778794,0.548064,0.00547094,0.0116877,1679,1618,6.25453,-10.1734
462,-594,6.24976,10.0154,-0.00120249,-0.00437318,0.00300728,0.000611737,-0.0061874,0.542825,0.00434323,0.012751,1686,1618,6.24975,-10.0153
469,-594,6.26184,9.86353,-0.000893529,-0.00304838,0.00214319,0.000427816,-0.00436972,0.552487,0.00306572,0.0112954,1693,1618,6.26187,-9.86356
476,-594,6.2533,9.72058,-0.000873072,-0.00165472,0.00131493,0.00010788,-0.00263568,0.640945,0.00179416,0.0115835,1700,1618,6.25326,-9.72062
483,-594,6.25208,9.55127,-0.00072479,-8.07667e-05,0.000623757,0.000299193,-0.00110475,1.02368,0.000853886,0.0142584,1707,1618,6.25202,-9.55128
490,-594,6.26538,9.37415,-0.00038789,0.00154875,-4.4337e-05,0.00154977,-0.000388905,-1.54792,0.00118429,0.0125111,1714,1618,6.2654,-9.37409
497,-594,6.25342,9.21643,-0.000116655,0.00298813,-0.000783818,0.00317479,-0.000303312,-1.33701,0.00222453,0.0102085,1721,1618,6.25338,-9.21638
504,-594,6.24548,9.04944,0.000253132,0.00446888,-0.00152962,0.0049654,-0.000243386,-1.25692,0.0033943,0.0107334,1728,1618,6.24544,-9.04945
511,-594,6.2583,8.90247,0.000807345,0.00569307,-0.00235836,0.00664571,-0.000145292,-1.1869,0.00447969,0.0124674,1735,1618,6.25833,-8.90246
518,-594,6.27112,8.73865,0.0014898,0.00672179,-0.00319386,0.00823426,-2.26605e-05,-1.12853,0.00549708,0.0152675,1742,1618,6.27116,-8.73864
525,-594,6.2312,8.52051,0.00245846,0.0075306,-0.00404319,0.00976727,0.00022179,-1.0655,0.00643886,0.0267471,1749,1618,6.23117,-8.52046
532,-594,6.10669,8.20203,0.00381502,0.00827298,-0.00509152,0.011602,0.000485946,-0.991722,0.00757791,0.0440125,1756,1618,6.10673,-8.20207
539,-594,6.65564,8.09473,0,0,0,0,0,0,0,-1,1763,1618,6.6557,-8.09477
546,-594,6.76489,7.1521,0,0,0,0,0,0,0,-1,1770,1618,6.76486,-7.1521
553,-594,3.69714,5.68762,0,0,0,0,0,0,0,-1,1777,1618,3.69715,-5.68764
560,-594,6.06616,4.44482,0,0,0,0,0,0,0,-1,1784,1618,6.06621,-4.44477
567,-594,5.97266,4.73303,0,0,0,0,0,0,0,-1,1791,1618,5.97271,-4.73309
574,-594,5.9906,4.96326,0,0,0,0,0,0,0,-1,1798,1618,5.99065,-4.96326
581,-594,0,0,0,0,0,0,0,0,0,-1,1805,1618,0,0
588,-594,0,0,0,0,0,0,0,0,0,-1,1812,1618,0,0
595,-594,0,0,0,0,0,0,0,0,0,-1,1819,1618,0,0
602,-594,0,0,0,0,0,0,0,0,0,-1,1826,1618,0,0
609,-594,0,0,0,0,0,0,0,0,0,-1,1833,1618,0,0
616,-594,0,0,0,0,0,0,0,0,0,-1,1840,1618,0,0
623,-594,0,0,0,0,0,0,0,0,0,-1,1847,1618,0,0
630,-594,0,0,0,0,0,0,0,0,0,-1,1854,1618,0,0
637,-594,0,0,0,0,0,0,0,0,0,-1,1861,1618,0,0
644,-594,0,0,0,0,0,0,0,0,0,-1,1868,1618,0,0
651,-594,0,0,0,0,0,0,0,0,0,-1,1875,1618,0,0
658,-594,0,0,0,0,0,0,0,0,0,-1,1882,1618,0,0
665,-594,0,0,0,0,0,0,0,0,0,-1,1889,1618,0,0
672,-594,0,0,0,0,0,0,0,0,0,-1,1896,1618,0,0
679,-594,0,0,0,0,0,0,0,0,0,-1,1903,1618,0,0
686,-594,0,0,0,0,0,0,0,0,0,-1,1910,1618,0,0
693,-594,0,0,0,0,0,0,0,0,0,-1,1917,1618,0,0
700,-594,0,0,0,0,0,0,0,0,0,-1,1924,1618,0,0
707,-594,0,0,0,0,0,0,0,0,0,-1,1931,1618,0,0
714,-594,0,0,0,0,0,0,0,0,0,-1,1938,1618,0,0
721,-594,0,0,0,0,0,0,0,0,0,-1,1945,1618,0,0
728,-594,0,0,0,0,0,0,0,0,0,-1,1952,1618,0,0
735,-594,0,0,0,0,0,0,0,0,0,-1,1959,1618,0,0
742,-594,0,0,0,0,0,0,0,0,0,-1,1966,1618,0,0
749,-594,0,0,0,0,0,0,0,0,0,-1,1973,1618,0,0
756,-594,0,0,0,0,0,0,0,0,0,-1,1980,1618,0,0
763,-594,0,0,0,0,0,0,0,0,0,-1,1987,1618,0,0
770,-594,0,0,0,0,0,0,0,0,0,-1,1994,1618,0,0
777,-594,0,0,0,0,0,0,0,0,0,-1,2001,1618,0,0
784,-594,0,0,0,0,0,0,0,0,0,-1,2008,1618,0,0
791,-594,0,0,0,0,0,0,0,0,0,-1,2015,1618,0,0
798,-594,0,0,0,0,0,0,0,0,0,-1,2022,1618,0,0
805,-594,0,0,0,0,0,0,0,0,0,-1,2029,1618,0,0
812,-594,0,0,0,0,0,0,0,0,0,-1,2036,1618,0,0
-700,-601,0,0,0,0,0,0,0,0,0,-1,524,1625,0,0
-693,-601,0,0,0,0,0,0,0,0,0,-1,531,1625,0,0
-686,-601,0,0,0,0,0,0,0,0,0,-1,538,1625,0,0
-679,-601,0,0,0,0,0,0,0,0,0,-1,545,1625,0,0
-672,-601,0,0,0,0,0,0,0,0,0,-1,552,1625,0,0
-665,-601,0,0,0,0,0,0,0,0,0,-1,559,1625,0,0
-658,-601,0,0,0,0,0,0,0,0,0,-1,566,1625,0,0
-651,-601,0,0,0,0,0,0,0,0,0,-1,573,1625,0,0
-644,-601,0,0,0,0,0,0,0,0,0,-1,580,1625,0,0
-637,-601,0,0,0,0,0,0,0,0,0,-1,587,1625,0,0
-630,-601,0,0,0,0,0,0,0,0,0,-1,594,1625,0,0
-623,-601,0,0,0,0,0,0,0,0,0,-1,601,1625,0,0
-616,-601,0,0,0,0,0,0,0,0,0,-1,608,1625,0,0
-609,-601,0,0,0,0,0,0,0,0,0,-1,615,1625,0,0
-602,-601,0,0,0,0,0,0,0,0,0,-1,622,1625,0,0
-595,-601,0,0,0,0,0,0,0,0,0,-1,629,1625,0,0
-588,-601,0,0,0,0,0,0,0,0,0,-1,636,1625,0,0
-581,-601,0,0,0,0,0,0,0,0,0,-1,643,1625,0,0
-574,-601,0,0,0,0,0,0,0,0,0,-1,650,1625,0,0
-567,-601,0,0,0,0,0,0,0,0,0,-1,657,1625,0,0
-560,-601,0,0,0,0,0,0,0,0,0,-1,664,1625,0,0
-553,-601,0,0,0,0,0,0,0,0,0,-1,671,1625,0,0
-546,-601,0,0,0,0,0,0,0,0,0,-1,678,1625,0,0
-539,-601,0,0,0,0,0,0,0,0,0,-1,685,1625,0,0
-532,-601,0,0,0,0,0,0,0,0,0,-1,692,1625,0,0
-525,-601,0,0,0,0,0,0,0,0,0,-1,699,1625,0,0
-518,-601,0,0,0,0,0,0,0,0,0,-1,706,1625,0,0
-511,-601,0,0,0,0,0,0,0,0,0,-1,713,1625,0,0
-504,-601,0,0,0,0,0,0,0,0,0,-1,720,1625,0,0
-497,-601,0,0,0,0,0,0,0,0,0,-1,727,1625,0,0
-490,-601,0,0,0,0,0,0,0,0,0,-1,734,1625,0,0
-483,-601,0,0,0,0,0,0,0,0,0,-1,741,1625,0,0
-476,-601,0,0,0,0,0,0,0,0,0,-1,748,1625,0,0
-469,-601,0,0,0,0,0,0,0,0,0,-1,755,1625,0,0
-462,-601,0,0,0,0,0,0,0,0,0,-1,762,1625,0,0
-455,-601,0,0,0,0,0,0,0,0,0,-1,769,1625,0,0
-448,-601,-7.07623,2.7616,0,0,0,0,0,0,0,-1,776,1625,-7.07626,-2.76161
-441,-601,-6.06689,3.33447,0,0,0,0,0,0,0,-1,783,1625,-6.06691,-3.33448
-434,-601,-5.02655,3.8468,0,0,0,0,0,0,0,-1,790,1625,-5.02657,-3.84674
-427,-601,-5.78601,4.2406,0,0,0,0,0,0,0,-1,797,1625,-5.786,-4.24058
-420,-601,-4.26819,5.33447,0,0,0,0,0,0,0,-1,804,1625,-4.26817,-5.33442
-413,-601,-2.75446,6.1803,0,0,0,0,0,0,0,-1,811,1625,-2.75449,-6.18033
-406,-601,-1.67493,7.20422,0,0,0,0,0,0,0,-1,818,1625,-1.67493,-7.20428
-399,-601,2.47339,6.58154,0,0,0,0,0,0,0,-1,825,1625,2.47339,-6.58155
-392,-601,2.34277,6.93701,-0.00356685,-0.00134801,0.00732081,0.00494696,-0.00986182,0.860598,0.0087054,0.0463039,832,1625,2.34277,-6.93695
-385,-601,2.35974,7.29663,-0.00389977,-0.0021597,0.00577326,0.00280871,-0.00886818,0.860186,0.00703773,0.0407561,839,1625,2.35973,-7.29667
-378,-601,2.01245,7.66467,-0.00369776,-0.002673,0.00455011,0.00139349,-0.00776425,0.841466,0.00569775,0.0314363,846,1625,2.01244,-7.66473
-371,-601,1.8913,7.8678,-0.00317374,-0.00303319,0.0035541,0.000451329,-0.00665826,0.795284,0.00459667,0.0153794,853,1625,1.89127,-7.86785
-364,-601,1.89105,8.04883,-0.00263492,-0.00308429,0.00271174,-0.000138573,-0.00558063,0.744064,0.0036751,0.0104472,860,1625,1.89107,-8.04881
-357,-601,1.88483,8.22522,-0.00187866,-0.00304163,0.0020751,-0.00030511,-0.00461517,0.648791,0.00298029,0.00972486,867,1625,1.88484,-8.22524
-350,-601,1.90558,8.4397,-0.00116887,-0.00303503,0.00140397,-0.000416197,-0.0037877,0.492112,0.00239847,0.0202563,874,1625,1.90559,-8.43971
-343,-601,1.87311,8.66492,-0.000523607,-0.00263554,0.000977651,-0.000140523,-0.00301862,0.373453,0.00196725,0.0196154,881,1625,1.87308,-8.66491
-336,-601,1.85004,8.83533,5.87677e-05,-0.00240516,0.000655602,0.00022235,-0.00256875,0.244521,0.00179122,0.0154955,888,1625,1.85003,-8.8353
-329,-601,1.87317,8.97278,0.000674302,-0.0020877,0.000313349,0.000709405,-0.0021228,0.111561,0.0017017,0.013689,895,1625,1.87314,-8.97282
-322,-601,1.89459,9.14099,0.00126454,-0.00175153,8.30985e-05,0.00126683,-0.00175382,0.0275241,0.00175151,0.0119615,902,1625,1.89457,-9.14096
-315,-601,1.88403,9.28186,0.00149438,-0.0017249,-9.89959e-05,0.00149743,-0.00172794,-0.0307123,0.00186375,0.0118264,909,1625,1.88404,-9.28192
-308,-601,1.896,9.44421,0.00170958,-0.00183601,-0.000308115,0.00173615,-0.00186259,-0.0860414,0.00207816,0.0114351,916,1625,1.89598,-9.44417
-301,-601,1.92664,9.61902,0.00206237,-0.00225058,-0.000448451,0.0021085,-0.00229672,-0.102517,0.00254413,0.00971834,923,1625,1.92663,-9.61898
-294,-601,1.91675,9.77124,0.00261091,-0.00287012,-0.000438052,0.00264569,-0.00290491,-0.0792512,0.00320581,0.00940691,930,1625,1.91673,-9.77122
-287,-601,1.88739,9.93848,0.00317809,-0.00347368,-0.000331581,0.00319458,-0.00349017,-0.0496843,0.0038607,0.00995845,937,1625,1.88741,-9.93843
-280,-601,1.89026,10.0786,0.0037904,-0.00413316,-0.000219583,0.00379648,-0.00413924,-0.0276843,0.00458311,0.010404,944,1625,1.89023,-10.0786
-273,-601,1.92523,10.2152,0.004474,-0.00477057,-3.84755e-05,0.00447416,-0.00477073,-0.00416187,0.00533845,0.0104181,951,1625,1.92524,-10.2152
-266,-601,1.94916,10.3531,0.00523808,-0.00563166,0.000309896,0.00524691,-0.00564049,0.0284791,0.00628721,0.0124044,958,1625,1.94914,-10.3532
-259,-601,1.98126,10.4521,0.00598637,-0.00663199,0.000740049,0.00602963,-0.00667525,0.0583818,0.00733832,0.0226366,965,1625,1.98125,-10.4521
-252,-601,2.00696,10.512,0.00650341,-0.00829006,0.00118493,0.00659772,-0.00838437,0.0794233,0.0086704,0.0408115,972,1625,2.00695,-10.512
-245,-601,2.19244,10.7563,0.0060679,-0.00963224,0.000990105,0.00613009,-0.00969443,0.0627322,0.00921322,0.0462027,979,1625,2.19247,-10.7563
-238,-601,2.31812,11.1647,0,0,0,0,0,0,0,-1,986,1625,2.31814,-11.1646
-231,-601,3.11517,10.7604,0,0,0,0,0,0,0,-1,993,1625,3.11519,-10.7604
-224,-601,5.13934,13.0479,0,0,0,0,0,0,0,-1,1000,1625,5.13935,-13.0479
-217,-601,3.39429,10.3898,0,0,0,0,0,0,0,-1,1007,1625,3.39431,-10.3898
-210,-601,2.94611,10.4186,0,0,0,0,0,0,0,-1,1014,1625,2.94611,-10.4186
-203,-601,-0.0888062,11.0984,0,0,0,0,0,0,0,-1,1021,1625,-0.0887957,-11.0983
-196,-601,-0.0766602,11.7427,0,0,0,0,0,0,0,-1,1028,1625,-0.0766252,-11.7427
-189,-601,-0.0644531,12.3871,0,0,0,0,0,0,0,-1,1035,1625,-0.0644547,-12.3871
-182,-601,-0.533447,12.4641,0,0,0,0,0,0,0,-1,1042,1625,-0.533401,-12.4641
-175,-601,0.544922,9.28687,0,0,0,0,0,0,0,-1,1049,1625,0.544879,-9.28685
-168,-601,-0.247559,8.97461,0,0,0,0,0,0,0,-1,1056,1625,-0.247598,-8.97466
-161,-601,-1.16833,8.80078,0,0,0,0,0,0,0,-1,1063,1625,-1.16837,-8.80081
-154,-601,1.12756,7.94861,0,0,0,0,0,0,0,-1,1070,1625,1.12762,-7.94855
-147,-601,1.35352,9.55432,0.0607994,0.0365665,0.0250124,0.0764755,0.0208904,0.559845,0.0456426,0.0439005,1077,1625,1.35351,-9.55429
-140,-601,1.72437,11.1498,0.0652825,0.0411992,0.0264109,0.0822673,0.0242144,0.571509,0.048818,0.0477826,1084,1625,1.72432,-11.1498
-133,-601,2.13281,12.8347,0,0,0,0,0,0,0,-1,1091,1625,2.13287,-12.8348
-126,-601,3.09534,15.427,0,0,0,0,0,0,0,-1,1098,1625,3.0953,-15.4271
-119,-601,1.22485,9.43457,0,0,0,0,0,0,0,-1,1105,1625,1.22489,-9.43456
-112,-601,0,0,0,0,0,0,0,0,0,-1,1112,1625,0,0
-105,-601,0,0,0,0,0,0,0,0,0,-1,1119,1625,0,0
-98,-601,0,0,0,0,0,0,0,0,0,-1,1126,1625,0,0
-91,-601,0,0,0,0,0,0,0,0,0,-1,1133,1625,0,0
-84,-601,0,0,0,0,0,0,0,0,0,-1,1140,1625,0,0
-77,-601,0,0,0,0,0,0,0,0,0,-1,1147,1625,0,0
-70,-601,0,0,0,0,0,0,0,0,0,-1,1154,1625,0,0
-63,-601,0,0,0,0,0,0,0,0,0,-1,1161,1625,0,0
-56,-601,0,0,0,0,0,0,0,0,0,-1,1168,1625,0,0
-49,-601,0,0,0,0,0,0,0,0,0,-1,1175,1625,0,0
-42,-601,0,0,0,0,0,0,0,0,0,-1,1182,1625,0,0
-35,-601,0,0,0,0,0,0,0,0,0,-1,1189,1625,0,0
-28,-601,0,0,0,0,0,0,0,0,0,-1,1196,1625,0,0
-21,-601,0,0,0,0,0,0,0,0,0,-1,1203,1625,0,0
-14,-601,0,0,0,0,0,0,0,0,0,-1,1210,1625,0,0
-7,-601,0,0,0,0,0,0,0,0,0,-1,1217,1625,0,0
0,-601,0,0,0,0,0,0,0,0,0,-1,1224,1625,0,0
7,-601,0,0,0,0,0,0,0,0,0,-1,1231,1625,0,0
14,-601,0,0,0,0,0,0,0,0,0,-1,1238,1625,0,0
21,-601,0,0,0,0,0,0,0,0,0,-1,1245,1625,0,0
28,-601,0,0,0,0,0,0,0,0,0,-1,1252,1625,0,0
35,-601,0,0,0,0,0,0,0,0,0,-1,1259,1625,0,0
42,-601,0,0,0,0,0,0,0,0,0,-1,1266,1625,0,0
49,-601,0,0,0,0,0,0,0,0,0,-1,1273,1625,0,0
56,-601,0,0,0,0,0,0,0,0,0,-1,1280,1625,0,0
63,-601,0,0,0,0,0,0,0,0,0,-1,1287,1625,0,0
70,-601,0,0,0,0,0,0,0,0,0,-1,1294,1625,0,0
77,-601,0,0,0,0,0,0,0,0,0,-1,1301,1625,0,0
84,-601,0,0,0,0,0,0,0,0,0,-1,1308,1625,0,0
91,-601,0,0,0,0,0,0,0,0,0,-1,1315,1625,0,0
98,-601,0,0,0,0,0,0,0,0,0,-1,1322,1625,0,0
105,-601,0,0,0,0,0,0,0,0,0,-1,1329,1625,0,0
112,-601,0,0,0,0,0,0,0,0,0,-1,1336,1625,0,0
119,-601,0,0,0,0,0,0,0,0,0,-1,1343,1625,0,0
126,-601,0,0,0,0,0,0,0,0,0,-1,1350,1625,0,0
133,-601,0,0,0,0,0,0,0,0,0,-1,1357,1625,0,0
140,-601,0,0,0,0,0,0,0,0,0,-1,1364,1625,0,0
147,-601,0,0,0,0,0,0,0,0,0,-1,1371,1625,0,0
154,-601,0,0,0,0,0,0,0,0,0,-1,1378,1625,0,0
161,-601,0,0,0,0,0,0,0,0,0,-1,1385,1625,0,0
168,-601,0,0,0,0,0,0,0,0,0,-1,1392,1625,0,0
175,-601,0,0,0,0,0,0,0,0,0,-1,1399,1625,0,0
182,-601,0,0,0,0,0,0,0,0,0,-1,1406,1625,0,0
189,-601,0,0,0,0,0,0,0,0,0,-1,1413,1625,0,0
196,-601,0,0,0,0,0,0,0,0,0,-1,1420,1625,0,0
203,-601,0,0,0,0,0,0,0,0,0,-1,1427,1625,0,0
210,-601,0,0,0,0,0,0,0,0,0,-1,1434,1625,0,0
217,-601,0,0,0,0,0,0,0,0,0,-1,1441,1625,0,0
224,-601,0,0,0,0,0,0,0,0,0,-1,1448,1625,0,0
231,-601,-0.0371094,0.525879,0,0,0,0,0,0,0,-1,1455,1625,-0.0371518,-0.525824
238,-601,2.03369,-1.32861,0,0,0,0,0,0,0,-1,1462,1625,2.03364,1.32858
245,-601,2.71375,2.44983,0,0,0,0,0,0,0,-1,1469,1625,2.71371,-2.44979
252,-601,4.66943,2.28381,0,0,0,0,0,0,0,-1,1476,1625,4.66947,-2.28376
259,-601,6.42712,2.61987,0,0,0,0,0,0,0,-1,1483,1625,6.42711,-2.61985
266,-601,6.75317,1.68701,0,0,0,0,0,0,0,-1,1490,1625,6.75323,-1.687
273,-601,5.4314,2.92053,0,0,0,0,0,0,0,-1,1497,1625,5.43144,-2.92051
280,-601,4.64722,1.17786,0,0,0,0,0,0,0,-1,1504,1625,4.64722,-1.1779
287,-601,5.32532,2.6217,0,0,0,0,0,0,0,-1,1511,1625,5.32535,-2.62171
294,-601,5.97693,4.22693,0,0,0,0,0,0,0,-1,1518,1625,5.97697,-4.22694
301,-601,7.28162,9.50024,0,0,0,0,0,0,0,-1,1525,1625,7.28162,-9.50025
308,-601,6.42468,9.90295,0,0,0,0,0,0,0,-1,1532,1625,6.42468,-9.90299
315,-601,7.80762,8.37769,0,0,0,0,0,0,0,-1,1539,1625,7.80756,-8.37772
322,-601,7.1355,7.7937,0,0,0,0,0,0,0,-1,1546,1625,7.1355,-7.79368
329,-601,6.51721,7.23535,0,0,0,0,0,0,0,-1,1553,1625,6.51719,-7.23529
336,-601,4.67847,9.53308,0,0,0,0,0,0,0,-1,1560,1625,4.67848,-9.53309
343,-601,11.1404,3.14575,0,0,0,0,0,0,0,-1,1567,1625,11.1404,-3.1458
350,-601,10.9462,2.37769,0,0,0,0,0,0,0,-1,1574,1625,10.9461,-2.37764
357,-601,10.7518,1.6095,0,0,0,0,0,0,0,-1,1581,1625,10.7518,-1.60948
364,-601,5.33643,9.74426,0,0,0,0,0,0,0,-1,1588,1625,5.33637,-9.74429
371,-601,6.11292,11.7454,0,0,0,0,0,0,0,-1,1595,1625,6.11286,-11.7453
378,-601,6.22644,11.4329,0,0,0,0,0,0,0,-1,1602,1625,6.2265,-11.4328
385,-601,6.56128,11.137,0,0,0,0,0,0,0,-1,1609,1625,6.5613,-11.1369
392,-601,6.32544,11.0825,-0.00622866,-0.0100783,0.0115945,0.00359972,-0.0199066,0.703144,0.0146195,0.0439886,1616,1625,6.32549,-11.0826
399,-601,6.06482,11.1886,-0.00528911,-0.00925863,0.0102981,0.00321372,-0.0177615,0.6902,0.0130448,0.0217243,1623,1625,6.06476,-11.1886
406,-601,6.11768,11.1064,-0.00456847,-0.00831667,0.00910184,0.00285021,-0.0157354,0.683866,0.011558,0.0146399,1630,1625,6.11767,-11.1064
413,-601,6.11243,10.98,-0.00405846,-0.0075074,0.00807171,0.00247093,-0.0140368,0.680159,0.010281,0.0125514,1637,1625,6.11249,-10.98
420,-601,6.10596,10.8864,-0.0034639,-0.00673949,0.00705545,0.00214135,-0.0123447,0.671352,0.00902865,0.00923556,1644,1625,6.10595,-10.8863
427,-601,6.12524,10.7667,-0.0028067,-0.00608425,0.00602134,0.00179489,-0.0106858,0.652536,0.00779141,0.0131986,1651,1625,6.12528,-10.7667
434,-601,6.1145,10.6185,-0.00232849,-0.00544303,0.00507904,0.00142665,-0.00919818,0.636644,0.00665881,0.0145859,1658,1625,6.11456,-10.6185
441,-601,6.11694,10.4476,-0.00190162,-0.00478536,0.00419764,0.00109488,-0.00778186,0.619964,0.00558873,0.0163104,1665,1625,6.11693,-10.4477
448,-601,6.10681,10.302,-0.00149962,-0.00396864,0.00342458,0.000906165,-0.00637442,0.612406,0.00458164,0.015226,1672,1625,6.10675,-10.302
455,-601,6.11743,10.1528,-0.00130342,-0.00321742,0.002781,0.000680636,-0.00520148,0.619684,0.00371537,0.0131763,1679,1625,6.1174,-10.1528
462,-601,6.11792,10.001,-0.0010835,-0.00228636,0.00222959,0.000624355,-0.00399421,0.653659,0.00289347,0.0104533,1686,1625,6.11787,-10.001
469,-601,6.10681,9.8551,-0.000849793,-0.00106231,0.00156009,0.000607653,-0.00251976,0.751395,0.0019148,0.00994524,1693,1625,6.10682,-9.85511
476,-601,6.10083,9.72156,-0.000907987,0.000265221,0.000958798,0.000802627,-0.00144539,1.05993,0.00131546,0.0127333,1700,1625,6.10081,-9.72152
483,-601,6.08801,9.56323,-0.000844702,0.00181292,0.000470293,0.00189368,-0.00092547,1.40071,0.00165933,0.0163553,1707,1625,6.08805,-9.5632
490,-601,6.09106,9.39758,-0.000584233,0.00345187,-4.08447e-05,0.00345228,-0.000584646,-1.56068,0.00251912,0.0125625,1714,1625,6.091,-9.39756
497,-601,6.10999,9.22437,-0.000331829,0.00500099,-0.000645338,0.00507798,-0.000408812,-1.45207,0.00352949,0.00971927,1721,1625,6.10999,-9.22433
504,-601,6.11316,9.03137,6.51068e-05,0.00662452,-0.00132041,0.00688034,-0.000190713,-1.37942,0.00465177,0.0130436,1728,1625,6.11315,-9.03136
511,-601,6.12036,8.90637,0.000660179,0.00814367,-0.00214862,0.0087167,8.71546e-05,-1.31017,0.0057823,0.0221756,1735,1625,6.12032,-8.90637
518,-601,6.10046,8.7793,0.00143823,0.00965888,-0.00312877,0.0107142,0.000382902,-1.24548,0.00701865,0.0318805,1742,1625,6.1005,-8.77929
525,-601,5.88867,8.38135,0.00260014,0.0110944,-0.00418467,0.0128097,0.000884926,-1.1818,0.00826061,0.0423387,1749,1625,5.88871,-8.38138
532,-601,5.81104,8.08008,0,0,0,0,0,0,0,-1,1756,1625,5.81103,-8.08011
539,-601,6.10803,7.45581,0,0,0,0,0,0,0,-1,1763,1625,6.10808,-7.45579
546,-601,6.56873,3.62354,0,0,0,0,0,0,0,-1,1770,1625,6.56867,-3.62352
553,-601,7.03015,4.25049,0,0,0,0,0,0,0,-1,1777,1625,7.03011,-4.25048
560,-601,7.50745,4.83374,0,0,0,0,0,0,0,-1,1784,1625,7.50744,-4.83376
567,-601,7.82043,3.83301,0,0,0,0,0,0,0,-1,1791,1625,7.82041,-3.83303
574,-601,0,0,0,0,0,0,0,0,0,-1,1798,1625,0,0
581,-601,0,0,0,0,0,0,0,0,0,-1,1805,1625,0,0
588,-601,0,0,0,0,0,0,0,0,0,-1,1812,1625,0,0
595,-601,0,0,0,0,0,0,0,0,0,-1,1819,1625,0,0
602,-601,0,0,0,0,0,0,0,0,0,-1,1826,1625,0,0
609,-601,0,0,0,0,0,0,0,0,0,-1,1833,1625,0,0
616,-601,0,0,0,0,0,0,0,0,0,-1,1840,1625,0,0
623,-601,0,0,0,0,0,0,0,0,0,-1,1847,1625,0,0
630,-601,0,0,0,0,0,0,0,0,0,-1,1854,1625,0,0
637,-601,0,0,0,0,0,0,0,0,0,-1,1861,1625,0,0
644,-601,0,0,0,0,0,0,0,0,0,-1,1868,1625,0,0
651,-601,0,0,0,0,0,0,0,0,0,-1,1875,1625,0,0
658,-601,0,0,0,0,0,0,0,0,0,-1,1882,1625,0,0
665,-601,0,0,0,0,0,0,0,0,0,-1,1889,1625,0,0
672,-601,0,0,0,0,0,0,0,0,0,-1,1896,1625,0,0
679,-601,0,0,0,0,0,0,0,0,0,-1,1903,1625,0,0
686,-601,0,0,0,0,0,0,0,0,0,-1,1910,1625,0,0
693,-601,0,0,0,0,0,0,0,0,0,-1,1917,1625,0,0
700,-601,0,0,0,0,0,0,0,0,0,-1,1924,1625,0,0
707,-601,0,0,0,0,0,0,0,0,0,-1,1931,1625,0,0
714,-601,0,0,0,0,0,0,0,0,0,-1,1938,1625,0,0
721,-601,0,0,0,0,0,0,0,0,0,-1,1945,1625,0,0
728,-601,0,0,0,0,0,0,0,0,0,-1,1952,1625,0,0
735,-601,0,0,0,0,0,0,0,0,0,-1,1959,1625,0,0
742,-601,0,0,0,0,0,0,0,0,0,-1,1966,1625,0,0
749,-601,0,0,0,0,0,0,0,0,0,-1,1973,1625,0,0
756,-601,0,0,0,0,0,0,0,0,0,-1,1980,1625,0,0
763,-601,0,0,0,0,0,0,0,0,0,-1,1987,1625,0,0
770,-601,0,0,0,0,0,0,0,0,0,-1,1994,1625,0,0
777,-601,0,0,0,0,0,0,0,0,0,-1,2001,1625,0,0
784,-601,0,0,0,0,0,0,0,0,0,-1,2008,1625,0,0
791,-601,0,0,0,0,0,0,0,0,0,-1,2015,1625,0,0
798,-601,0,0,0,0,0,0,0,0,0,-1,2022,1625,0,0
805,-601,0,0,0,0,0,0,0,0,0,-1,2029,1625,0,0
812,-601,0,0,0,0,0,0,0,0,0,-1,2036,1625,0,0
-700,-608,0,0,0,0,0,0,0,0,0,-1,524,1632,0,0
-693,-608,0,0,0,0,0,0,0,0,0,-1,531,1632,0,0
-686,-608,0,0,0,0,0,0,0,0,0,-1,538,1632,0,0
-679,-608,0,0,0,0,0,0,0,0,0,-1,545,1632,0,0
-672,-608,0,0,0,0,0,0,0,0,0,-1,552,1632,0,0
-665,-608,0,0,0,0,0,0,0,0,0,-1,559,1632,0,0
-658,-608,0,0,0,0,0,0,0,0,0,-1,566,1632,0,0
-651,-608,0,0,0,0,0,0,0,0,0,-1,573,1632,0,0
-644,-608,0,0,0,0,0,0,0,0,0,-1,580,1632,0,0
-637,-608,0,0,0,0,0,0,0,0,0,-1,587,1632,0,0
-630,-608,0,0,0,0,0,0,0,0,0,-1,594,1632,0,0
-623,-608,0,0,0,0,0,0,0,0,0,-1,601,1632,0,0
-616,-608,0,0,0,0,0,0,0,0,0,-1,608,1632,0,0
-609,-608,0,0,0,0,0,0,0,0,0,-1,615,1632,0,0
-602,-608,0,0,0,0,0,0,0,0,0,-1,622,1632,0,0
-595,-608,0,0,0,0,0,0,0,0,0,-1,629,1632,0,0
-588,-608,0,0,0,0,0,0,0,0,0,-1,636,1632,0,0
-581,-608,0,0,0,0,0,0,0,0,0,-1,643,1632,0,0
-574,-608,0,0,0,0,0,0,0,0,0,-1,650,1632,0,0
-567,-608,0,0,0,0,0,0,0,0,0,-1,657,1632,0,0
-560,-608,0,0,0,0,0,0,0,0,0,-1,664,1632,0,0
-553,-608,0,0,0,0,0,0,0,0,0,-1,671,1632,0,0
-546,-608,0,0,0,0,0,0,0,0,0,-1,678,1632,0,0
-539,-608,0,0,0,0,0,0,0,0,0,-1,685,1632,0,0
-532,-608,0,0,0,0,0,0,0,0,0,-1,692,1632,0,0
-525,-608,0,0,0,0,0,0,0,0,0,-1,699,1632,0,0
-518,-608,0,0,0,0,0,0,0,0,0,-1,706,1632,0,0
-511,-608,0,0,0,0,0,0,0,0,0,-1,713,1632,0,0
-504,-608,0,0,0,0,0,0,0,0,0,-1,720,1632,0,0
-497,-608,0,0,0,0,0,0,0,0,0,-1,727,1632,0,0
-490,-608,0,0,0,0,0,0,0,0,0,-1,734,1632,0,0
-483,-608,0,0,0,0,0,0,0,0,0,-1,741,1632,0,0
-476,-608,0,0,0,0,0,0,0,0,0,-1,748,1632,0,0
-469,-608,0,0,0,0,0,0,0,0,0,-1,755,1632,0,0
-462,-608,0,0,0,0,0,0,0,0,0,-1,762,1632,0,0
-455,-608,0,0,0,0,0,0,0,0,0,-1,769,1632,0,0
-448,-608,0,0,0,0,0,0,0,0,0,-1,776,1632,0,0
-441,-608,-7.34601,2.78052,0,0,0,0,0,0,0,-1,783,1632,-7.346,-2.78056
-434,-608,-6.34558,3.27405,0,0,0,0,0,0,0,-1,790,1632,-6.34555,-3.27406
-427,-608,-5.05603,3.92859,0,0,0,0,0,0,0,-1,797,1632,-5.05602,-3.92857
-420,-608,-5.61499,3.51917,0,0,0,0,0,0,0,-1,804,1632,-5.61498,-3.51914
-413,-608,-4.63806,4.34399,0,0,0,0,0,0,0,-1,811,1632,-4.63808,-4.34396
-406,-608,-3.69275,5.26758,0,0,0,0,0,0,0,-1,818,1632,-3.69272,-5.26761
-399,-608,-2.60645,6.34167,0,0,0,0,0,0,0,-1,825,1632,-2.60643,-6.34169
-392,-608,2.85754,6.69019,0,0,0,0,0,0,0,-1,832,1632,2.85754,-6.6902
-385,-608,3.05963,7.06494,-0.00493391,-0.00508669,0.00849106,0.00348111,-0.0135017,0.7809,0.0103584,0.0484069,839,1632,3.05964,-7.06496
-378,-608,2.89514,7.59619,-0.00451229,-0.005453,0.00682412,0.00185766,-0.011823,0.75099,0.00856858,0.0462175,846,1632,2.89516,-7.59621
-371,-608,2.45129,7.88708,0,0,0,0,0,0,0,-1,853,1632,2.45128,-7.88704
-364,-608,2.07886,8.01196,-0.0031159,-0.00530275,0.00414661,7.90246e-05,-0.00849768,0.656487,0.00569164,0.016173,860,1632,2.07886,-8.01198
-357,-608,2.06268,8.20984,-0.00227639,-0.00484198,0.00315385,-0.000154439,-0.00696393,0.592247,0.00459201,0.0125351,867,1632,2.06271,-8.20982
-350,-608,2.04517,8.40698,-0.0015588,-0.00438156,0.00220964,-0.000348255,-0.00559211,0.501189,0.00361758,0.017478,874,1632,2.04519,-8.40704
-343,-608,2.05084,8.58582,-0.000944689,-0.00361814,0.00156357,-0.000224331,-0.0043385,0.431727,0.00282053,0.0206137,881,1632,2.05085,-8.58582
-336,-608,2.06079,8.81653,-0.000416854,-0.00301083,0.00104272,-4.96755e-05,-0.00337801,0.338575,0.00223563,0.0137019,888,1632,2.06082,-8.81649
-329,-608,2.05121,8.97314,0.000178721,-0.00239623,0.000527892,0.000282742,-0.00250025,0.194557,0.00176863,0.0127645,895,1632,2.05123,-8.97312
-322,-608,2.04028,9.11646,0.000774735,-0.00178144,0.000239415,0.000796966,-0.00180367,0.0925887,0.00153852,0.0128653,902,1632,2.04029,-9.11645
-315,-608,2.03241,9.25745,0.00093047,-0.00155547,5.32964e-05,0.000931612,-0.00155661,0.021426,0.0014516,0.0112317,909,1632,2.03242,-9.25742
-308,-608,2.04773,9.45203,0.00106197,-0.00145546,-0.000166729,0.00107297,-0.00146646,-0.0658466,0.00147199,0.0121715,916,1632,2.04774,-9.45201
-301,-608,2.06964,9.63721,0.00135574,-0.00166574,-0.000304353,0.0013861,-0.00169609,-0.099399,0.0017825,0.0103445,923,1632,2.06963,-9.63724
-294,-608,2.07452,9.78027,0.00184631,-0.00210634,-0.000298136,0.00186867,-0.00212871,-0.0748622,0.00230952,0.0097516,930,1632,2.0745,-9.78031
-287,-608,2.04706,9.94897,0.00234285,-0.00257873,-0.000203066,0.00235122,-0.00258709,-0.041167,0.00285222,0.00977311,937,1632,2.04705,-9.94898
-280,-608,2.04907,10.0884,0.00286454,-0.00310056,-0.00010429,0.00286637,-0.00310239,-0.0174762,0.00344696,0.00843695,944,1632,2.04908,-10.0883
-273,-608,2.04865,10.2469,0.00347919,-0.00362973,4.91599e-05,0.00347953,-0.00363007,0.0069148,0.00410503,0.00847142,951,1632,2.04863,-10.247
-266,-608,2.08099,10.405,0.00414372,-0.0042813,0.000324164,0.00415617,-0.00429375,0.0384007,0.00487878,0.0080098,958,1632,2.08101,-10.405
-259,-608,2.10449,10.5305,0.00473488,-0.00509314,0.000647077,0.0047773,-0.00513556,0.0654634,0.00572444,0.0108739,965,1632,2.10452,-10.5306
-252,-608,2.09912,10.6528,0.0050933,-0.00651005,0.000920854,0.00516593,-0.00658267,0.0787045,0.00679948,0.0228336,972,1632,2.09911,-10.6529
-245,-608,2.21405,10.8826,0.00476147,-0.00777978,0.000731156,0.00480396,-0.00782226,0.058038,0.00735885,0.0359471,979,1632,2.21405,-10.8826
-238,-608,2.34399,11.0739,0.00482596,-0.0103339,0.000504039,0.0048427,-0.0103507,0.0331993,0.00896199,0.0418225,986,1632,2.34399,-11.0738
-231,-608,2.17163,11.1625,0,0,0,0,0,0,0,-1,993,1632,2.1716,-11.1625
-224,-608,1.14557,10.6169,0,0,0,0,0,0,0,-1,1000,1632,1.14558,-10.617
-217,-608,3.08533,10.4965,0,0,0,0,0,0,0,-1,1007,1632,3.08531,-10.4965
-210,-608,0.148865,10.3182,0,0,0,0,0,0,0,-1,1014,1632,0.148877,-10.3182
-203,-608,0.472229,10.911,0,0,0,0,0,0,0,-1,1021,1632,0.472256,-10.911
-196,-608,0.60144,11.4822,-0.00334168,-0.0303926,-0.00498924,-0.00245081,-0.0312835,-0.176696,0.0200886,0.0472942,1028,1632,0.601427,-11.4822
-189,-608,0.491943,12.0632,0,0,0,0,0,0,0,-1,1035,1632,0.49192,-12.0633
-182,-608,0.149292,12.0546,0,0,0,0,0,0,0,-1,1042,1632,0.149337,-12.0545
-175,-608,-0.475342,12.0377,0,0,0,0,0,0,0,-1,1049,1632,-0.475388,-12.0378
-168,-608,0.000366211,9.48645,0,0,0,0,0,0,0,-1,1056,1632,0.000317105,-9.48648
-161,-608,-0.939453,9.31458,0,0,0,0,0,0,0,-1,1063,1632,-0.939447,-9.31463
-154,-608,2.03992,8.13574,0,0,0,0,0,0,0,-1,1070,1632,2.03988,-8.13577
-147,-608,2.4386,9.50317,0.0366799,0.0127667,0.0135366,0.0427843,0.00666231,0.423648,0.0265819,0.0496005,1077,1632,2.43858,-9.50313
-140,-608,2.74121,10.6572,0.0449309,0.0220761,0.0171292,0.0540946,0.0129124,0.491236,0.0326222,0.049371,1084,1632,2.74117,-10.6572
-133,-608,3.2312,12.4738,0,0,0,0,0,0,0,-1,1091,1632,3.23116,-12.4738
-126,-608,3.76465,13.9644,0,0,0,0,0,0,0,-1,1098,1632,3.76466,-13.9644
-119,-608,4.28906,15.4196,0,0,0,0,0,0,0,-1,1105,1632,4.28911,-15.4195
-112,-608,0.745117,10.5587,0,0,0,0,0,0,0,-1,1112,1632,0.745145,-10.5587
-105,-608,-0.252319,1.42419,0,0,0,0,0,0,0,-1,1119,1632,-0.252331,-1.42418
-98,-608,-1.67896,0.994629,0,0,0,0,0,0,0,-1,1126,1632,-1.67895,-0.994599
-91,-608,-2.99451,0.744629,0,0,0,0,0,0,0,-1,1133,1632,-2.99453,-0.744605
-84,-608,0,0,0,0,0,0,0,0,0,-1,1140,1632,0,0
-77,-608,0,0,0,0,0,0,0,0,0,-1,1147,1632,0,0
-70,-608,0,0,0,0,0,0,0,0,0,-1,1154,1632,0,0
-63,-608,0,0,0,0,0,0,0,0,0,-1,1161,1632,0,0
-56,-608,0,0,0,0,0,0,0,0,0,-1,1168,1632,0,0
-49,-608,0,0,0,0,0,0,0,0,0,-1,1175,1632,0,0
-42,-608,0,0,0,0,0,0,0,0,0,-1,1182,1632,0,0
-35,-608,0,0,0,0,0,0,0,0,0,-1,1189,1632,0,0
-28,-608,0,0,0,0,0,0,0,0,0,-1,1196,1632,0,0
-21,-608,0,0,0,0,0,0,0,0,0,-1,1203,1632,0,0
-14,-608,0,0,0,0,0,0,0,0,0,-1,1210,1632,0,0
-7,-608,0,0,0,0,0,0,0,0,0,-1,1217,1632,0,0
0,-608,0,0,0,0,0,0,0,0,0,-1,1224,1632,0,0
7,-608,0,0,0,0,0,0,0,0,0,-1,1231,1632,0,0
14,-608,0,0,0,0,0,0,0,0,0,-1,1238,1632,0,0
21,-608,0,0,0,0,0,0,0,0,0,-1,1245,1632,0,0
28,-608,0,0,0,0,0,0,0,0,0,-1,1252,1632,0,0
35,-608,0,0,0,0,0,0,0,0,0,-1,1259,1632,0,0
42,-608,0,0,0,0,0,0,0,0,0,-1,1266,1632,0,0
49,-608,0,0,0,0,0,0,0,0,0,-1,1273,1632,0,0
56,-608,0,0,0,0,0,0,0,0,0,-1,1280,1632,0,0
63,-608,0,0,0,0,0,0,0,0,0,-1,1287,1632,0,0
70,-608,0,0,0,0,0,0,0,0,0,-1,1294,1632,0,0
77,-608,0,0,0,0,0,0,0,0,0,-1,1301,1632,0,0
84,-608,0,0,0,0,0,0,0,0,0,-1,1308,1632,0,0
91,-608,0,0,0,0,0,0,0,0,0,-1,1315,1632,0,0
98,-608,0,0,0,0,0,0,0,0,0,-1,1322,1632,0,0
105,-608,0,0,0,0,0,0,0,0,0,-1,1329,1632,0,0
112,-608,0,0,0,0,0,0,0,0,0,-1,1336,1632,0,0
119,-608,0,0,0,0,0,0,0,0,0,-1,1343,1632,0,0
126,-608,0,0,0,0,0,0,0,0,0,-1,1350,1632,0,0
133,-608,0,0,0,0,0,0,0,0,0,-1,1357,1632,0,0
140,-608,0,0,0,0,0,0,0,0,0,-1,1364,1632,0,0
147,-608,0,0,0,0,0,0,0,0,0,-1,1371,1632,0,0
154,-608,0,0,0,0,0,0,0,0,0,-1,1378,1632,0,0
161,-608,0,0,0,0,0,0,0,0,0,-1,1385,1632,0,0
168,-608,0,0,0,0,0,0,0,0,0,-1,1392,1632,0,0
175,-608,0,0,0,0,0,0,0,0,0,-1,1399,1632,0,0
182,-608,0,0,0,0,0,0,0,0,0,-1,1406,1632,0,0
189,-608,0,0,0,0,0,0,0,0,0,-1,1413,1632,0,0
196,-608,0,0,0,0,0,0,0,0,0,-1,1420,1632,0,0
203,-608,0,0,0,0,0,0,0,0,0,-1,1427,1632,0,0
210,-608,5.7157,-0.333008,0,0,0,0,0,0,0,-1,1434,1632,5.71566,0.333004
217,-608,4.49402,-0.831787,0,0,0,0,0,0,0,-1,1441,1632,4.49396,0.831738
224,-608,4.18018,-1.11792,0,0,0,0,0,0,0,-1,1448,1632,4.1802,1.11796
231,-608,0.361816,0.825195,0,0,0,0,0,0,0,-1,1455,1632,0.36185,-0.825226
238,-608,2.85388,-0.28833,0,0,0,0,0,0,0,-1,1462,1632,2.85391,0.288282
245,-608,3.87537,4.02173,0,0,0,0,0,0,0,-1,1469,1632,3.87538,-4.02168
252,-608,5.66956,3.5282,0,0,0,0,0,0,0,-1,1476,1632,5.6696,-3.52815
259,-608,7.47437,3.07178,0,0,0,0,0,0,0,-1,1483,1632,7.4744,-3.07172
266,-608,9.46936,2.34766,0,0,0,0,0,0,0,-1,1490,1632,9.46932,-2.34764
273,-608,6.03003,3.34241,0,0,0,0,0,0,0,-1,1497,1632,6.02997,-3.34245
280,-608,5.72461,2.0769,0,0,0,0,0,0,0,-1,1504,1632,5.72457,-2.07688
287,-608,6.20581,3.59338,0,0,0,0,0,0,0,-1,1511,1632,6.20585,-3.59341
294,-608,6.94922,5.17151,0,0,0,0,0,0,0,-1,1518,1632,6.94925,-5.17151
301,-608,7.60083,6.68018,0,0,0,0,0,0,0,-1,1525,1632,7.60086,-6.68013
308,-608,7.64746,9.93848,0,0,0,0,0,0,0,-1,1532,1632,7.64745,-9.93842
315,-608,7.15491,9.41858,0,0,0,0,0,0,0,-1,1539,1632,7.15493,-9.41852
322,-608,6.66101,8.89734,0,0,0,0,0,0,0,-1,1546,1632,6.66101,-8.8974
329,-608,6.08679,8.37207,0,0,0,0,0,0,0,-1,1553,1632,6.08675,-8.37209
336,-608,5.48633,7.82446,0,0,0,0,0,0,0,-1,1560,1632,5.48634,-7.82446
343,-608,5.47192,5.61047,0,0,0,0,0,0,0,-1,1567,1632,5.47192,-5.61045
350,-608,11.6957,1.71387,0,0,0,0,0,0,0,-1,1574,1632,11.6957,-1.71388
357,-608,3.77002,5.10046,0,0,0,0,0,0,0,-1,1581,1632,3.77002,-5.10043
364,-608,5.6925,11.2163,0,0,0,0,0,0,0,-1,1588,1632,5.69255,-11.2163
371,-608,6.09607,11.7363,0,0,0,0,0,0,0,-1,1595,1632,6.09613,-11.7363
378,-608,6.0321,11.5171,-0.00469051,-0.00850239,0.0108319,0.00440187,-0.0175948,0.698312,0.0134396,0.0394084,1602,1632,6.03212,-11.5171
385,-608,6.11804,11.3856,-0.00486221,-0.00865563,0.00948974,0.00291852,-0.0164364,0.686763,0.0120488,0.034596,1609,1632,6.11805,-11.3856
392,-608,5.98486,11.3123,-0.00442824,-0.00770686,0.00865695,0.00274324,-0.0148783,0.691824,0.0109485,0.0222634,1616,1632,5.98482,-11.3123
399,-608,5.94788,11.2582,-0.00378212,-0.00689388,0.00765257,0.00247113,-0.0131471,0.685108,0.00969403,0.011166,1623,1632,5.94793,-11.2582
406,-608,5.95129,11.1687,-0.00325403,-0.0060241,0.00673532,0.00223719,-0.0115153,0.683993,0.00852107,0.00915064,1630,1632,5.95126,-11.1687
413,-608,5.92871,11.0206,-0.00289483,-0.00530021,0.00595648,0.00197917,-0.0101742,0.685781,0.00752974,0.00982354,1637,1632,5.92867,-11.0206
420,-608,5.89917,10.8752,-0.00243984,-0.00461901,0.00514184,0.0017266,-0.00878544,0.68099,0.00650928,0.0155842,1644,1632,5.89917,-10.8753
427,-608,5.94995,10.7263,-0.00192937,-0.00408313,0.00431016,0.0014364,-0.00744889,0.662981,0.00550752,0.0168374,1651,1632,5.94995,-10.7263
434,-608,5.9624,10.5831,-0.00162442,-0.00354986,0.00357148,0.00111181,-0.0062861,0.653748,0.00460628,0.013834,1658,1632,5.96235,-10.5831
441,-608,5.95251,10.459,-0.00135561,-0.00296063,0.00294297,0.000892308,-0.00520854,0.652291,0.00380484,0.0127644,1665,1632,5.95252,-10.459
448,-608,5.96606,10.3022,-0.0011114,-0.00214006,0.00243512,0.000863113,-0.00411457,0.68132,0.00307145,0.0162306,1672,1632,5.96607,-10.3023
455,-608,5.98828,10.1328,-0.00102892,-0.00145291,0.00200495,0.000775213,-0.00325705,0.732727,0.00247065,0.0121258,1679,1632,5.98833,-10.1329
462,-608,5.96899,9.99646,-0.000911685,-0.000564192,0.00165801,0.000929147,-0.00240502,0.837604,0.00198685,0.00994396,1686,1632,5.96903,-9.99644
469,-608,5.94727,9.85596,-0.000742907,0.000682224,0.00115188,0.00132412,-0.00138481,1.06239,0.00156413,0.00788707,1693,1632,5.94723,-9.85596
476,-608,5.94763,9.70703,-0.000856359,0.00209239,0.000742363,0.00226874,-0.00103271,1.33757,0.00195011,0.00871257,1700,1632,5.94766,-9.70704
483,-608,5.95288,9.55652,-0.000854739,0.00379769,0.000417269,0.00383482,-0.000891867,1.48205,0.00289992,0.00874161,1707,1632,5.95292,-9.55655
490,-608,5.97241,9.39832,-0.000651954,0.00566582,1.56763e-05,0.00566586,-0.000651993,1.56832,0.00401227,0.0085899,1714,1632,5.97237,-9.39833
497,-608,5.98315,9.22998,-0.000387836,0.00758079,-0.000504122,0.00761255,-0.000419602,-1.50787,0.00522053,0.0122812,1721,1632,5.98314,-9.22998
504,-608,5.96082,9.04895,8.30503e-05,0.00967873,-0.00117852,0.00982135,-5.95725e-05,-1.45036,0.00656752,0.0270748,1728,1632,5.96076,-9.04899
511,-608,5.93347,8.87512,0.000817321,0.0118724,-0.00208789,0.0122535,0.00043614,-1.39022,0.00802759,0.0416949,1735,1632,5.93346,-8.87515
518,-608,6.33008,8.46033,0.00176938,0.0142368,-0.00325746,0.0150366,0.000969589,-1.33003,0.00971736,0.0495084,1742,1632,6.33003,-8.46033
525,-608,5.64197,8.27051,0,0,0,0,0,0,0,-1,1749,1632,5.64193,-8.27048
532,-608,6.04138,7.48975,0,0,0,0,0,0,0,-1,1756,1632,6.04138,-7.48969
539,-608,9.40796,1.43457,0,0,0,0,0,0,0,-1,1763,1632,9.40801,-1.43463
546,-608,9.94031,2.1134,0,0,0,0,0,0,0,-1,1770,1632,9.94031,-2.11346
553,-608,10.363,2.81335,0,0,0,0,0,0,0,-1,1777,1632,10.3631,-2.81333
560,-608,9.23999,4.5636,0,0,0,0,0,0,0,-1,1784,1632,9.24,-4.56354
567,-608,0,0,0,0,0,0,0,0,0,-1,1791,1632,0,0
574,-608,0,0,0,0,0,0,0,0,0,-1,1798,1632,0,0
581,-608,0,0,0,0,0,0,0,0,0,-1,1805,1632,0,0
588,-608,0,0,0,0,0,0,0,0,0,-1,1812,1632,0,0
595,-608,0,0,0,0,0,0,0,0,0,-1,1819,1632,0,0
602,-608,0,0,0,0,0,0,0,0,0,-1,1826,1632,0,0
609,-608,0,0,0,0,0,0,0,0,0,-1,1833,1632,0,0
616,-608,0,0,0,0,0,0,0,0,0,-1,1840,1632,0,0
623,-608,0,0,0,0,0,0,0,0,0,-1,1847,1632,0,0
630,-608,0,0,0,0,0,0,0,0,0,-1,1854,1632,0,0
637,-608,0,0,0,0,0,0,0,0,0,-1,1861,1632,0,0
644,-608,0,0,0,0,0,0,0,0,0,-1,1868,1632,0,0
651,-608,0,0,0,0,0,0,0,0,0,-1,1875,1632,0,0
658,-608,0,0,0,0,0,0,0,0,0,-1,1882,1632,0,0
665,-608,0,0,0,0,0,0,0,0,0,-1,1889,1632,0,0
672,-608,0,0,0,0,0,0,0,0,0,-1,1896,1632,0,0
679,-608,0,0,0,0,0,0,0,0,0,-1,1903,1632,0,0
686,-608,0,0,0,0,0,0,0,0,0,-1,1910,1632,0,0
693,-608,0,0,0,0,0,0,0,0,0,-1,1917,1632,0,0
700,-608,0,0,0,0,0,0,0,0,0,-1,1924,1632,0,0
707,-608,0,0,0,0,0,0,0,0,0,-1,1931,1632,0,0
714,-608,0,0,0,0,0,0,0,0,0,-1,1938,1632,0,0
721,-608,0,0,0,0,0,0,0,0,0,-1,1945,1632,0,0
728,-608,0,0,0,0,0,0,0,0,0,-1,1952,1632,0,0
735,-608,0,0,0,0,0,0,0,0,0,-1,1959,1632,0,0
742,-608,0,0,0,0,0,0,0,0,0,-1,1966,1632,0,0
749,-608,0,0,0,0,0,0,0,0,0,-1,1973,1632,0,0
756,-608,0,0,0,0,0,0,0,0,0,-1,1980,1632,0,0
763,-608,0,0,0,0,0,0,0,0,0,-1,1987,1632,0,0
770,-608,0,0,0,0,0,0,0,0,0,-1,1994,1632,0,0
777,-608,0,0,0,0,0,0,0,0,0,-1,2001,1632,0,0
784,-608,0,0,0,0,0,0,0,0,0,-1,2008,1632,0,0
791,-608,0,0,0,0,0,0,0,0,0,-1,2015,1632,0,0
798,-608,0,0,0,0,0,0,0,0,0,-1,2022,1632,0,0
805,-608,0,0,0,0,0,0,0,0,0,-1,2029,1632,0,0
812,-608,0,0,0,0,0,0,0,0,0,-1,2036,1632,0,0
-700,-615,0,0,0,0,0,0,0,0,0,-1,524,1639,0,0
-693,-615,0,0,0,0,0,0,0,0,0,-1,531,1639,0,0
-686,-615,0,0,0,0,0,0,0,0,0,-1,538,1639,0,0
-679,-615,0,0,0,0,0,0,0,0,0,-1,545,1639,0,0
-672,-615,0,0,0,0,0,0,0,0,0,-1,552,1639,0,0
-665,-615,0,0,0,0,0,0,0,0,0,-1,559,1639,0,0
-658,-615,0,0,0,0,0,0,0,0,0,-1,566,1639,0,0
-651,-615,0,0,0,0,0,0,0,0,0,-1,573,1639,0,0
-644,-615,0,0,0,0,0,0,0,0,0,-1,580,1639,0,0
-637,-615,0,0,0,0,0,0,0,0,0,-1,587,1639,0,0
-630,-615,0,0,0,0,0,0,0,0,0,-1,594,1639,0,0
-623,-615,0,0,0,0,0,0,0,0,0,-1,601,1639,0,0
-616,-615,0,0,0,0,0,0,0,0,0,-1,608,1639,0,0
-609,-615,0,0,0,0,0,0,0,0,0,-1,615,1639,0,0
-602,-615,0,0,0,0,0,0,0,0,0,-1,622,1639,0,0
-595,-615,0,0,0,0,0,0,0,0,0,-1,629,1639,0,0
-588,-615,0,0,0,0,0,0,0,0,0,-1,636,1639,0,0
-581,-615,0,0,0,0,0,0,0,0,0,-1,643,1639,0,0
-574,-615,0,0,0,0,0,0,0,0,0,-1,650,1639,0,0
-567,-615,0,0,0,0,0,0,0,0,0,-1,657,1639,0,0
-560,-615,0,0,0,0,0,0,0,0,0,-1,664,1639,0,0
-553,-615,0,0,0,0,0,0,0,0,0,-1,671,1639,0,0
-546,-615,0,0,0,0,0,0,0,0,0,-1,678,1639,0,0
-539,-615,0,0,0,0,0,0,0,0,0,-1,685,1639,0,0
-532,-615,0,0,0,0,0,0,0,0,0,-1,692,1639,0,0
-525,-615,0,0,0,0,0,0,0,0,0,-1,699,1639,0,0
-518,-615,0,0,0,0,0,0,0,0,0,-1,706,1639,0,0
-511,-615,0,0,0,0,0,0,0,0,0,-1,713,1639,0,0
-504,-615,0,0,0,0,0,0,0,0,0,-1,720,1639,0,0
-497,-615,0,0,0,0,0,0,0,0,0,-1,727,1639,0,0
-490,-615,0,0,0,0,0,0,0,0,0,-1,734,1639,0,0
-483,-615,0,0,0,0,0,0,0,0,0,-1,741,1639,0,0
-476,-615,0,0,0,0,0,0,0,0,0,-1,748,1639,0,0
-469,-615,0,0,0,0,0,0,0,0,0,-1,755,1639,0,0
-462,-615,0,0,0,0,0,0,0,0,0,-1,762,1639,0,0
-455,-615,0,0,0,0,0,0,0,0,0,-1,769,1639,0,0
-448,-615,0,0,0,0,0,0,0,0,0,-1,776,1639,0,0
-441,-615,0,0,0,0,0,0,0,0,0,-1,783,1639,0,0
-434,-615,-7.64508,2.98596,0,0,0,0,0,0,0,-1,790,1639,-7.64505,-2.98594
-427,-615,-8.88153,0.496216,0,0,0,0,0,0,0,-1,797,1639,-8.88154,-0.49627
-420,-615,-7.74091,1.49768,0,0,0,0,0,0,0,-1,804,1639,-7.7409,-1.49771
-413,-615,-6.54474,2.53772,0,0,0,0,0,0,0,-1,811,1639,-6.54472,-2.53775
-406,-615,-5.43872,3.50488,0,0,0,0,0,0,0,-1,818,1639,-5.43874,-3.50493
-399,-615,-4.84875,3.91907,0,0,0,0,0,0,0,-1,825,1639,-4.84877,-3.91901
-392,-615,-3.4469,5.28418,0,0,0,0,0,0,0,-1,832,1639,-3.44689,-5.28422
-385,-615,3.64203,6.86121,0,0,0,0,0,0,0,-1,839,1639,3.64204,-6.86115
-378,-615,3.21887,7.60791,-0.00506931,-0.00928453,0.00975709,0.00280521,-0.017159,0.679029,0.01248,0.0493734,846,1639,3.21889,-7.60789
-371,-615,2.68365,7.98303,0,0,0,0,0,0,0,-1,853,1639,2.68363,-7.98309
-364,-615,2.28473,8.14417,-0.00339016,-0.0082117,0.00605273,0.00071423,-0.0123161,0.59588,0.00845886,0.0324327,860,1639,2.28474,-8.14422
-357,-615,2.2525,8.30078,-0.00236426,-0.00710891,0.00462275,0.000459354,-0.00993253,0.548328,0.00677999,0.0263822,867,1639,2.25251,-8.30075
-350,-615,2.21155,8.41553,-0.00157566,-0.00600258,0.00335582,0.000230947,-0.00780919,0.493855,0.00528479,0.0242307,874,1639,2.21155,-8.41552
-343,-615,2.22198,8.55579,-0.000954495,-0.00473379,0.00243193,0.00023564,-0.00592392,0.455114,0.00403013,0.018454,881,1639,2.22196,-8.55576
-336,-615,2.23895,8.76965,-0.000428115,-0.00364651,0.0016555,0.000271406,-0.00434603,0.399789,0.00299193,0.0104193,888,1639,2.23897,-8.76962
-329,-615,2.21259,8.95313,0.000177239,-0.0026718,0.000907448,0.000441718,-0.00293628,0.283598,0.00212015,0.0102709,895,1639,2.21259,-8.95312
-322,-615,2.20734,9.13049,0.000789303,-0.00176265,0.000532666,0.000896022,-0.00186937,0.197733,0.00162923,0.0102532,902,1639,2.20733,-9.13051
-315,-615,2.2135,9.29309,0.000861891,-0.00135011,0.000307166,0.000903753,-0.00139197,0.13545,0.00133539,0.0117553,909,1639,2.21349,-9.29304
-308,-615,2.1936,9.45532,0.000887877,-0.00106642,4.02204e-05,0.000888704,-0.00106724,0.0205689,0.00113083,0.0183604,916,1639,2.19363,-9.45534
-301,-615,2.21906,9.6167,0.00107243,-0.00110867,-0.000134917,0.00108075,-0.00111699,-0.0615445,0.00126892,0.0126074,923,1639,2.21904,-9.61665
-294,-615,2.23871,9.78027,0.00143351,-0.00140858,-0.000170321,0.00144368,-0.00141875,-0.0596435,0.00165265,0.0100989,930,1639,2.23874,-9.78028
-287,-615,2.21185,9.94543,0.00177706,-0.00178839,-0.00011683,0.00178089,-0.00179221,-0.0327204,0.00206293,0.00783383,937,1639,2.21185,-9.94544
-280,-615,2.2132,10.0946,0.00212879,-0.00221458,-5.21665e-05,0.00212941,-0.00221521,-0.0120083,0.00250853,0.00856131,944,1639,2.21321,-10.0947
-273,-615,2.20856,10.2605,0.00260584,-0.00267661,5.82551e-05,0.00260649,-0.00267725,0.0110263,0.00305066,0.00936542,951,1639,2.20854,-10.2605
-266,-615,2.2204,10.4146,0.00312069,-0.00318081,0.000268519,0.00313211,-0.00319224,0.0425091,0.00365142,0.00907844,958,1639,2.22042,-10.4145
-259,-615,2.26324,10.554,0.00355009,-0.00384001,0.000523202,0.00358695,-0.00387687,0.0703301,0.00431032,0.0104242,965,1639,2.26323,-10.554
-252,-615,2.26324,10.6815,0.00384538,-0.0050626,0.000709458,0.00390153,-0.00511875,0.0789795,0.00522364,0.0116215,972,1639,2.26326,-10.6815
-245,-615,2.2525,10.8009,0.00365663,-0.00623079,0.000547176,0.00368682,-0.00626098,0.0551163,0.00580711,0.0179449,979,1639,2.25249,-10.8009
-238,-615,2.28815,10.9659,0.00378722,-0.00836146,0.000317008,0.00379548,-0.00836973,0.0260704,0.00718719,0.0261232,986,1639,2.28815,-10.9659
-231,-615,2.30609,11.1814,0.00426136,-0.0104467,0.000206537,0.00426426,-0.0104496,0.0140387,0.00874166,0.0357702,993,1639,2.30611,-11.1813
-224,-615,2.41858,11.3833,0,0,0,0,0,0,0,-1,1000,1639,2.41857,-11.3833
-217,-615,2.75476,11.0457,0,0,0,0,0,0,0,-1,1007,1639,2.75477,-11.0457
-210,-615,2.74615,11.0862,0,0,0,0,0,0,0,-1,1014,1639,2.74614,-11.0861
-203,-615,2.54272,10.7004,0,0,0,0,0,0,0,-1,1021,1639,2.54271,-10.7004
-196,-615,1.35901,11.3344,0,0,0,0,0,0,0,-1,1028,1639,1.35905,-11.3343
-189,-615,1.32788,12.1322,0,0,0,0,0,0,0,-1,1035,1639,1.32784,-12.1322
-182,-615,0.832031,11.645,0,0,0,0,0,0,0,-1,1042,1639,0.832076,-11.645
-175,-615,-0.609985,13.8434,0,0,0,0,0,0,0,-1,1049,1639,-0.610016,-13.8434
-168,-615,2.02783,9.96631,0,0,0,0,0,0,0,-1,1056,1639,2.0278,-9.96637
-161,-615,3.41223,8.97534,0,0,0,0,0,0,0,-1,1063,1639,3.41226,-8.97539
-154,-615,-0.658569,11.2257,0,0,0,0,0,0,0,-1,1070,1639,-0.658593,-11.2257
-147,-615,3.62854,9.30518,0,0,0,0,0,0,0,-1,1077,1639,3.62848,-9.30514
-140,-615,3.73401,10.2349,0,0,0,0,0,0,0,-1,1084,1639,3.73402,-10.2348
-133,-615,3.88013,11.3654,0,0,0,0,0,0,0,-1,1091,1639,3.88015,-11.3654
-126,-615,4.43408,12.5017,0,0,0,0,0,0,0,-1,1098,1639,4.43403,-12.5018
-119,-615,4.82983,13.9279,0,0,0,0,0,0,0,-1,1105,1639,4.82986,-13.9278
-112,-615,3.65698,14.4874,0,0,0,0,0,0,0,-1,1112,1639,3.65695,-14.4875
-105,-615,0.958496,2.45398,0,0,0,0,0,0,0,-1,1119,1639,0.958452,-2.45398
-98,-615,-0.647705,2.12109,0,0,0,0,0,0,0,-1,1126,1639,-0.647756,-2.12105
-91,-615,-1.48572,0.604492,0,0,0,0,0,0,0,-1,1133,1639,-1.48576,-0.604443
-84,-615,-2.46509,0.703247,0,0,0,0,0,0,0,-1,1140,1639,-2.46505,-0.703273
-77,-615,-3.17859,1.23755,0,0,0,0,0,0,0,-1,1147,1639,-3.17865,-1.23752
-70,-615,-4.03943,1.43335,0,0,0,0,0,0,0,-1,1154,1639,-4.03942,-1.43339
-63,-615,-4.8877,1.45544,0,0,0,0,0,0,0,-1,1161,1639,-4.88766,-1.45549
-56,-615,0,0,0,0,0,0,0,0,0,-1,1168,1639,0,0
-49,-615,0,0,0,0,0,0,0,0,0,-1,1175,1639,0,0
-42,-615,0,0,0,0,0,0,0,0,0,-1,1182,1639,0,0
-35,-615,0,0,0,0,0,0,0,0,0,-1,1189,1639,0,0
-28,-615,0,0,0,0,0,0,0,0,0,-1,1196,1639,0,0
-21,-615,0,0,0,0,0,0,0,0,0,-1,1203,1639,0,0
-14,-615,0,0,0,0,0,0,0,0,0,-1,1210,1639,0,0
-7,-615,0,0,0,0,0,0,0,0,0,-1,1217,1639,0,0
0,-615,0,0,0,0,0,0,0,0,0,-1,1224,1639,0,0
7,-615,0,0,0,0,0,0,0,0,0,-1,1231,1639,0,0
14,-615,0,0,0,0,0,0,0,0,0,-1,1238,1639,0,0
21,-615,0,0,0,0,0,0,0,0,0,-1,1245,1639,0,0
28,-615,0,0,0,0,0,0,0,0,0,-1,1252,1639,0,0
35,-615,0,0,0,0,0,0,0,0,0,-1,1259,1639,0,0
42,-615,0,0,0,0,0,0,0,0,0,-1,1266,1639,0,0
49,-615,0,0,0,0,0,0,0,0,0,-1,1273,1639,0,0
56,-615,0,0,0,0,0,0,0,0,0,-1,1280,1639,0,0
63,-615,0,0,0,0,0,0,0,0,0,-1,1287,1639,0,0
70,-615,0,0,0,0,0,0,0,0,0,-1,1294,1639,0,0
77,-615,0,0,0,0,0,0,0,0,0,-1,1301,1639,0,0
84,-615,0,0,0,0,0,0,0,0,0,-1,1308,1639,0,0
91,-615,0,0,0,0,0,0,0,0,0,-1,1315,1639,0,0
98,-615,0,0,0,0,0,0,0,0,0,-1,1322,1639,0,0
105,-615,0,0,0,0,0,0,0,0,0,-1,1329,1639,0,0
112,-615,0,0,0,0,0,0,0,0,0,-1,1336,1639,0,0
119,-615,0,0,0,0,0,0,0,0,0,-1,1343,1639,0,0
126,-615,0,0,0,0,0,0,0,0,0,-1,1350,1639,0,0
133,-615,0,0,0,0,0,0,0,0,0,-1,1357,1639,0,0
140,-615,0,0,0,0,0,0,0,0,0,-1,1364,1639,0,0
147,-615,0,0,0,0,0,0,0,0,0,-1,1371,1639,0,0
154,-615,0,0,0,0,0,0,0,0,0,-1,1378,1639,0,0
161,-615,0,0,0,0,0,0,0,0,0,-1,1385,1639,0,0
168,-615,0,0,0,0,0,0,0,0,0,-1,1392,1639,0,0
175,-615,5.39648,-2.00879,0,0,0,0,0,0,0,-1,1399,1639,5.3965,2.00881
182,-615,5.65393,-1.51025,0,0,0,0,0,0,0,-1,1406,1639,5.65388,1.51028
189,-615,5.58972,-1.35608,0,0,0,0,0,0,0,-1,1413,1639,5.58967,1.35607
196,-615,5.49915,-0.693604,0,0,0,0,0,0,0,-1,1420,1639,5.4991,0.693602
203,-615,5.33411,-0.226685,0,0,0,0,0,0,0,-1,1427,1639,5.33414,0.226689
210,-615,5.60278,0.108276,0,0,0,0,0,0,0,-1,1434,1639,5.60284,-0.10831
217,-615,6.26331,-0.307373,0,0,0,0,0,0,0,-1,1441,1639,6.26331,0.307372
224,-615,5.45422,-0.333984,0,0,0,0,0,0,0,-1,1448,1639,5.45422,0.333992
231,-615,4.92542,1.80298,0,0,0,0,0,0,0,-1,1455,1639,4.92537,-1.80297
238,-615,4.76355,1.96729,0,0,0,0,0,0,0,-1,1462,1639,4.76357,-1.96734
245,-615,4.08643,3.15906,0,0,0,0,0,0,0,-1,1469,1639,4.08638,-3.159
252,-615,6.37805,3.73889,0,0,0,0,0,0,0,-1,1476,1639,6.37806,-3.73891
259,-615,8.35974,3.16443,0,0,0,0,0,0,0,-1,1483,1639,8.35975,-3.16444
266,-615,10.3414,2.58997,0,0,0,0,0,0,0,-1,1490,1639,10.3414,-2.58996
273,-615,6.57043,1.84766,0,0,0,0,0,0,0,-1,1497,1639,6.5704,-1.84771
280,-615,7.10449,3.23438,0,0,0,0,0,0,0,-1,1504,1639,7.10447,-3.23435
287,-615,7.35779,4.68542,0,0,0,0,0,0,0,-1,1511,1639,7.35776,-4.68546
294,-615,7.63733,6.29114,0,0,0,0,0,0,0,-1,1518,1639,7.63735,-6.29109
301,-615,8.20715,7.81995,0,0,0,0,0,0,0,-1,1525,1639,8.20719,-7.81993
308,-615,6.8114,10.9059,0,0,0,0,0,0,0,-1,1532,1639,6.81137,-10.9058
315,-615,5.12427,12.4235,0,0,0,0,0,0,0,-1,1539,1639,5.12424,-12.4235
322,-615,5.31519,12.7671,0,0,0,0,0,0,0,-1,1546,1639,5.31523,-12.7671
329,-615,5.60083,9.57312,0,0,0,0,0,0,0,-1,1553,1639,5.60086,-9.57311
336,-615,4.98572,9.04773,0,0,0,0,0,0,0,-1,1560,1639,4.98573,-9.04775
343,-615,2.40491,6.50134,0,0,0,0,0,0,0,-1,1567,1639,2.40489,-6.50137
350,-615,5.73694,12.4938,0,0,0,0,0,0,0,-1,1574,1639,5.7369,-12.4938
357,-615,5.52808,12.0955,0,0,0,0,0,0,0,-1,1581,1639,5.52802,-12.0955
364,-615,6.0636,11.8468,0,0,0,0,0,0,0,-1,1588,1639,6.06355,-11.8468
371,-615,5.92969,11.7214,-0.00297297,-0.00674086,0.00913824,0.0044735,-0.0141873,0.683742,0.0112499,0.0412662,1595,1639,5.92973,-11.7214
378,-615,5.81885,11.6455,-0.00331427,-0.00621155,0.00802227,0.0033891,-0.0129149,0.696072,0.00993426,0.0206519,1602,1639,5.81882,-11.6456
385,-615,5.80273,11.5179,-0.00343231,-0.00638545,0.00693235,0.00217898,-0.0119967,0.680468,0.00881439,0.0112703,1609,1639,5.80271,-11.518
392,-615,5.79333,11.4042,-0.00310228,-0.00569794,0.00627466,0.00200737,-0.0108076,0.683418,0.00795901,0.00956271,1616,1639,5.79332,-11.4042
399,-615,5.79089,11.3059,-0.00263237,-0.00500812,0.00549151,0.00179827,-0.00943875,0.678884,0.00696969,0.0111369,1623,1639,5.79094,-11.3059
406,-615,5.79773,11.1572,-0.00224612,-0.00430252,0.00480128,0.00163581,-0.00818446,0.679916,0.00607543,0.011417,1630,1639,5.79776,-11.1573
413,-615,5.78833,11.0103,-0.00196973,-0.00377526,0.00426013,0.00148223,-0.00722723,0.680988,0.00538072,0.0124457,1637,1639,5.78829,-11.0102
420,-615,5.79492,10.8717,-0.00158494,-0.00329101,0.00364873,0.00130914,-0.00618509,0.670566,0.004622,0.0130821,1644,1639,5.79493,-10.8717
427,-615,5.81995,10.7266,-0.00118454,-0.00294174,0.00302406,0.00108597,-0.00521225,0.644022,0.00388771,0.0137944,1651,1639,5.82,-10.7266
434,-615,5.82751,10.5901,-0.00102557,-0.00256876,0.00248709,0.000806863,-0.0044012,0.634986,0.00323678,0.0127085,1658,1639,5.82754,-10.59
441,-615,5.82861,10.4552,-0.00089237,-0.00205688,0.00211368,0.00071778,-0.00366703,0.650996,0.00271575,0.0134876,1665,1639,5.82856,-10.4552
448,-615,5.83093,10.3043,-0.000800722,-0.00119672,0.00187802,0.000889709,-0.00288715,0.732878,0.00227995,0.01558,1672,1639,5.83097,-10.3044
455,-615,5.83679,10.134,-0.000840796,-0.000537363,0.00167115,0.000988941,-0.0023671,0.830667,0.00199132,0.0140398,1679,1639,5.83676,-10.134
462,-615,5.80786,9.99731,-0.000850997,0.000380333,0.00153973,0.00142292,-0.00189359,0.975588,0.00192121,0.0132785,1686,1639,5.80791,-9.99734
469,-615,5.79639,9.85266,-0.00078096,0.00175873,0.00121173,0.0022441,-0.00126633,1.18981,0.00205279,0.012017,1693,1639,5.79643,-9.85269
476,-615,5.80579,9.69031,-0.000978031,0.0034045,0.00100183,0.00362265,-0.00119619,1.35639,0.00289734,0.0109612,1700,1639,5.80584,-9.69025
483,-615,5.8136,9.51965,-0.00108072,0.00545952,0.000841702,0.00556611,-0.00118731,1.44483,0.00416333,0.0147665,1707,1639,5.81356,-9.51969
490,-615,5.82654,9.36475,-0.000971853,0.00777788,0.000544189,0.00781159,-0.00100557,1.50892,0.00557324,0.0159624,1714,1639,5.82651,-9.36473
497,-615,5.79553,9.24658,-0.000726453,0.0103172,0.000108357,0.0103182,-0.000727516,1.56099,0.0071337,0.0229369,1721,1639,5.79556,-9.24655
504,-615,5.74902,9.07349,-0.00022179,0.0132135,-0.000584035,0.0132388,-0.00024713,-1.52743,0.00890939,0.0447908,1728,1639,5.74898,-9.07344
511,-615,5.72803,8.91321,0,0,0,0,0,0,0,-1,1735,1639,5.72803,-8.9132
518,-615,6.46326,8.26929,0,0,0,0,0,0,0,-1,1742,1639,6.46326,-8.26927
525,-615,4.37524,3.90491,0,0,0,0,0,0,0,-1,1749,1639,4.37518,-3.90495
532,-615,7.3645,0.848145,0,0,0,0,0,0,0,-1,1756,1639,7.36451,-0.848093
539,-615,12.8112,-0.0476074,0,0,0,0,0,0,0,-1,1763,1639,12.8111,0.0475553
546,-615,8.33813,2.94556,0,0,0,0,0,0,0,-1,1770,1639,8.33813,-2.9455
553,-615,5.82532,-2.04199,0,0,0,0,0,0,0,-1,1777,1639,5.82534,2.04195
560,-615,0,0,0,0,0,0,0,0,0,-1,1784,1639,0,0
567,-615,0,0,0,0,0,0,0,0,0,-1,1791,1639,0,0
574,-615,0,0,0,0,0,0,0,0,0,-1,1798,1639,0,0
581,-615,0,0,0,0,0,0,0,0,0,-1,1805,1639,0,0
588,-615,0,0,0,0,0,0,0,0,0,-1,1812,1639,0,0
595,-615,0,0,0,0,0,0,0,0,0,-1,1819,1639,0,0
602,-615,0,0,0,0,0,0,0,0,0,-1,1826,1639,0,0
609,-615,0,0,0,0,0,0,0,0,0,-1,1833,1639,0,0
616,-615,0,0,0,0,0,0,0,0,0,-1,1840,1639,0,0
623,-615,0,0,0,0,0,0,0,0,0,-1,1847,1639,0,0
630,-615,0,0,0,0,0,0,0,0,0,-1,1854,1639,0,0
637,-615,0,0,0,0,0,0,0,0,0,-1,1861,1639,0,0
644,-615,0,0,0,0,0,0,0,0,0,-1,1868,1639,0,0
651,-615,0,0,0,0,0,0,0,0,0,-1,1875,1639,0,0
658,-615,0,0,0,0,0,0,0,0,0,-1,1882,1639,0,0
665,-615,0,0,0,0,0,0,0,0,0,-1,1889,1639,0,0
672,-615,0,0,0,0,0,0,0,0,0,-1,1896,1639,0,0
679,-615,0,0,0,0,0,0,0,0,0,-1,1903,1639,0,0
686,-615,0,0,0,0,0,0,0,0,0,-1,1910,1639,0,0
693,-615,0,0,0,0,0,0,0,0,0,-1,1917,1639,0,0
700,-615,0,0,0,0,0,0,0,0,0,-1,1924,1639,0,0
707,-615,0,0,0,0,0,0,0,0,0,-1,1931,1639,0,0
714,-615,0,0,0,0,0,0,0,0,0,-1,1938,1639,0,0
721,-615,0,0,0,0,0,0,0,0,0,-1,1945,1639,0,0
728,-615,0,0,0,0,0,0,0,0,0,-1,1952,1639,0,0
735,-615,0,0,0,0,0,0,0,0,0,-1,1959,1639,0,0
742,-615,0,0,0,0,0,0,0,0,0,-1,1966,1639,0,0
749,-615,0,0,0,0,0,0,0,0,0,-1,1973,1639,0,0
756,-615,0,0,0,0,0,0,0,0,0,-1,1980,1639,0,0
763,-615,0,0,0,0,0,0,0,0,0,-1,1987,1639,0,0
770,-615,0,0,0,0,0,0,0,0,0,-1,1994,1639,0,0
777,-615,0,0,0,0,0,0,0,0,0,-1,2001,1639,0,0
784,-615,0,0,0,0,0,0,0,0,0,-1,2008,1639,0,0
791,-615,0,0,0,0,0,0,0,0,0,-1,2015,1639,0,0
798,-615,0,0,0,0,0,0,0,0,0,-1,2022,1639,0,0
805,-615,0,0,0,0,0,0,0,0,0,-1,2029,1639,0,0
812,-615,0,0,0,0,0,0,0,0,0,-1,2036,1639,0,0
-700,-622,0,0,0,0,0,0,0,0,0,-1,524,1646,0,0
-693,-622,0,0,0,0,0,0,0,0,0,-1,531,1646,0,0
-686,-622,0,0,0,0,0,0,0,0,0,-1,538,1646,0,0
-679,-622,0,0,0,0,0,0,0,0,0,-1,545,1646,0,0
-672,-622,0,0,0,0,0,0,0,0,0,-1,552,1646,0,0
-665,-622,0,0,0,0,0,0,0,0,0,-1,559,1646,0,0
-658,-622,0,0,0,0,0,0,0,0,0,-1,566,1646,0,0
-651,-622,0,0,0,0,0,0,0,0,0,-1,573,1646,0,0
-644,-622,0,0,0,0,0,0,0,0,0,-1,580,1646,0,0
-637,-622,0,0,0,0,0,0,0,0,0,-1,587,1646,0,0
-630,-622,0,0,0,0,0,0,0,0,0,-1,594,1646,0,0
-623,-622,0,0,0,0,0,0,0,0,0,-1,601,1646,0,0
-616,-622,0,0,0,0,0,0,0,0,0,-1,608,1646,0,0
-609,-622,0,0,0,0,0,0,0,0,0,-1,615,1646,0,0
-602,-622,0,0,0,0,0,0,0,0,0,-1,622,1646,0,0
-595,-622,0,0,0,0,0,0,0,0,0,-1,629,1646,0,0
-588,-622,0,0,0,0,0,0,0,0,0,-1,636,1646,0,0
-581,-622,0,0,0,0,0,0,0,0,0,-1,643,1646,0,0
-574,-622,0,0,0,0,0,0,0,0,0,-1,650,1646,0,0
-567,-622,0,0,0,0,0,0,0,0,0,-1,657,1646,0,0
-560,-622,0,0,0,0,0,0,0,0,0,-1,664,1646,0,0
-553,-622,0,0,0,0,0,0,0,0,0,-1,671,1646,0,0
-546,-622,0,0,0,0,0,0,0,0,0,-1,678,1646,0,0
-539,-622,0,0,0,0,0,0,0,0,0,-1,685,1646,0,0
-532,-622,0,0,0,0,0,0,0,0,0,-1,692,1646,0,0
-525,-622,0,0,0,0,0,0,0,0,0,-1,699,1646,0,0
-518,-622,0,0,0,0,0,0,0,0,0,-1,706,1646,0,0
-511,-622,0,0,0,0,0,0,0,0,0,-1,713,1646,0,0
-504,-622,0,0,0,0,0,0,0,0,0,-1,720,1646,0,0
-497,-622,0,0,0,0,0,0,0,0,0,-1,727,1646,0,0
-490,-622,0,0,0,0,0,0,0,0,0,-1,734,1646,0,0
-483,-622,0,0,0,0,0,0,0,0,0,-1,741,1646,0,0
-476,-622,0,0,0,0,0,0,0,0,0,-1,748,1646,0,0
-469,-622,0,0,0,0,0,0,0,0,0,-1,755,1646,0,0
-462,-622,0,0,0,0,0,0,0,0,0,-1,762,1646,0,0
-455,-622,0,0,0,0,0,0,0,0,0,-1,769,1646,0,0
-448,-622,0,0,0,0,0,0,0,0,0,-1,776,1646,0,0
-441,-622,0,0,0,0,0,0,0,0,0,-1,783,1646,0,0
-434,-622,0,0,0,0,0,0,0,0,0,-1,790,1646,0,0
-427,-622,-7.62891,3.48096,0,0,0,0,0,0,0,-1,797,1646,-7.62892,-3.48092
-420,-622,-9.86938,0.0371094,0,0,0,0,0,0,0,-1,804,1646,-9.86937,-0.0371326
-413,-622,-8.5658,1.0321,0,0,0,0,0,0,0,-1,811,1646,-8.56579,-1.03216
-406,-622,-4.44318,2.16858,0,0,0,0,0,0,0,-1,818,1646,-4.44315,-2.16859
-399,-622,-7.06976,1.51001,0,0,0,0,0,0,0,-1,825,1646,-7.06976,-1.51005
-392,-622,3.89551,5.85376,0,0,0,0,0,0,0,-1,832,1646,3.8955,-5.85379
-385,-622,3.8147,6.92322,-0.00619117,-0.0145803,0.0161047,0.00625628,-0.0270278,0.658001,0.0204259,0.0497978,839,1646,3.81467,-6.92321
-378,-622,3.52643,7.77087,-0.00521383,-0.0142615,0.0133787,0.00438518,-0.0238605,0.622365,0.0175523,0.047329,846,1646,3.52642,-7.77093
-371,-622,2.94299,8.08057,0,0,0,0,0,0,0,-1,853,1646,2.94297,-8.08057
-364,-622,2.25177,8.23694,-0.00343557,-0.0118298,0.00844534,0.0017981,-0.0170635,0.554787,0.0120199,0.0439664,860,1646,2.25175,-8.2369
-357,-622,2.40143,8.43347,-0.00233432,-0.00986981,0.00645828,0.00137492,-0.0135791,0.521337,0.00954408,0.0447692,867,1646,2.40144,-8.43347
-350,-622,2.39453,8.54639,-0.00156862,-0.00792298,0.00477189,0.000987031,-0.0104786,0.491693,0.00733693,0.0383749,874,1646,2.39454,-8.54642
-343,-622,2.31104,8.63013,-0.000974901,-0.00599035,0.00344876,0.000781481,-0.00774674,0.471044,0.00544371,0.0247512,881,1646,2.31106,-8.63012
-336,-622,2.38519,8.7478,-0.00044912,-0.00428953,0.0023008,0.000627484,-0.00536614,0.437661,0.00380388,0.00950929,888,1646,2.3852,-8.74778
-329,-622,2.37885,8.95105,0.000148264,-0.00285509,0.00121566,0.000578646,-0.00328547,0.340263,0.0024065,0.0086192,895,1646,2.37886,-8.95099
-322,-622,2.37775,9.15027,0.000765271,-0.00157738,0.00074381,0.000981481,-0.00179359,0.282884,0.0016249,0.00971859,902,1646,2.37777,-9.15028
-315,-622,2.37805,9.31274,0.000797696,-0.00093774,0.000498127,0.000930511,-0.00107055,0.260566,0.00115626,0.0132322,909,1646,2.37804,-9.31273
-308,-622,2.38342,9.45691,0.000759247,-0.000455451,0.00020369,0.000792494,-0.000488698,0.161794,0.000746596,0.0138775,916,1646,2.38345,-9.45696
-301,-622,2.39172,9.61206,0.000891319,-0.000327597,2.14956e-05,0.000891698,-0.000327975,0.0176277,0.000728819,0.0136337,923,1646,2.39174,-9.612
-294,-622,2.38092,9.7821,0.00118443,-0.000504166,-2.18111e-05,0.00118471,-0.000504447,-0.0129138,0.00100125,0.0106018,930,1646,2.38094,-9.78216
-287,-622,2.37482,9.93323,0.00144151,-0.000821609,2.7008e-05,0.00144183,-0.000821931,0.0119317,0.00132322,0.00801477,937,1646,2.37482,-9.93318
-280,-622,2.37427,10.0822,0.00168875,-0.00119071,9.21511e-05,0.00169169,-0.00119366,0.0319593,0.00167411,0.00813883,944,1646,2.37428,-10.0822
-273,-622,2.38226,10.2319,0.00208828,-0.00163554,0.000188862,0.00209784,-0.00164509,0.0505444,0.00216624,0.0114666,951,1646,2.38225,-10.232
-266,-622,2.37219,10.3843,0.00250111,-0.00205655,0.000363963,0.00252999,-0.00208543,0.0791886,0.00266883,0.0111638,958,1646,2.37216,-10.3843
-259,-622,2.39648,10.5507,0.00280795,-0.00264238,0.000560889,0.00286507,-0.0026995,0.101492,0.00321318,0.0112036,965,1646,2.39647,-10.5506
-252,-622,2.39978,10.6906,0.00297735,-0.00370888,0.000653618,0.00304065,-0.00377217,0.0965381,0.00394094,0.011602,972,1646,2.39975,-10.6905
-245,-622,2.41144,10.8412,0.00283542,-0.00478595,0.000458627,0.00286292,-0.00481345,0.0598885,0.00447939,0.008322,979,1646,2.41144,-10.8411
-238,-622,2.40887,11.001,0.00299183,-0.00662696,0.000180086,0.0029952,-0.00663033,0.0187136,0.00568787,0.00936767,986,1646,2.4089,-11.001
-231,-622,2.43713,11.1465,0.00348905,-0.00855641,4.59857e-05,0.00348923,-0.00855659,0.00381761,0.00715684,0.01381,993,1646,2.43715,-11.1465
-224,-622,2.54199,11.2522,0.00357487,-0.0107812,-0.000179517,0.00357712,-0.0107835,-0.012502,0.00863207,0.0234159,1000,1646,2.54198,-11.2521
-217,-622,2.65173,11.2333,0.00318367,-0.0130963,-0.000560748,0.00320296,-0.0131156,-0.0343896,0.00998415,0.0358079,1007,1646,2.65171,-11.2332
-210,-622,2.70917,11.2264,0.000221875,-0.0173446,-0.00176493,0.000397445,-0.0175202,-0.0991509,0.0118149,0.0466152,1014,1646,2.70916,-11.2265
-203,-622,2.47339,10.9725,-0.00459758,-0.0247258,-0.00411117,-0.00379026,-0.0255331,-0.193905,0.0159099,0.0477948,1021,1646,2.47339,-10.9725
-196,-622,2.2207,11.1135,-0.00483007,-0.0275259,-0.00519468,-0.00369761,-0.0286583,-0.214646,0.0180001,0.048723,1028,1646,2.22067,-11.1136
-189,-622,2.18005,11.3118,0,0,0,0,0,0,0,-1,1035,1646,2.18006,-11.3118
-182,-622,2.90881,11.3291,0,0,0,0,0,0,0,-1,1042,1646,2.9088,-11.3291
-175,-622,2.56091,11.0195,0,0,0,0,0,0,0,-1,1049,1646,2.56095,-11.0195
-168,-622,4.76489,10.7617,0,0,0,0,0,0,0,-1,1056,1646,4.76491,-10.7617
-161,-622,3.35608,9.88965,0,0,0,0,0,0,0,-1,1063,1646,3.35603,-9.88969
-154,-622,2.29626,9.17993,0,0,0,0,0,0,0,-1,1070,1646,2.29631,-9.17998
-147,-622,3.45923,11.9279,0,0,0,0,0,0,0,-1,1077,1646,3.45923,-11.9278
-140,-622,3.15784,10.7809,0,0,0,0,0,0,0,-1,1084,1646,3.15778,-10.7809
-133,-622,3.40173,10.0699,0,0,0,0,0,0,0,-1,1091,1646,3.40173,-10.0699
-126,-622,4.83423,11.7699,0,0,0,0,0,0,0,-1,1098,1646,4.83428,-11.7699
-119,-622,4.06384,13.1715,0,0,0,0,0,0,0,-1,1105,1646,4.06379,-13.1716
-112,-622,4.33276,14.6605,0,0,0,0,0,0,0,-1,1112,1646,4.33281,-14.6605
-105,-622,0.306519,4.38159,0,0,0,0,0,0,0,-1,1119,1646,0.306536,-4.38159
-98,-622,-0.510376,3.5033,0,0,0,0,0,0,0,-1,1126,1646,-0.510393,-3.50324
-91,-622,-1.146,0.975952,0,0,0,0,0,0,0,-1,1133,1646,-1.14599,-0.97597
-84,-622,-2.04895,1.31787,0,0,0,0,0,0,0,-1,1140,1646,-2.0489,-1.31781
-77,-622,-1.80627,0.332275,0,0,0,0,0,0,0,-1,1147,1646,-1.80622,-0.33223
-70,-622,-3.65588,2.28149,0,0,0,0,0,0,0,-1,1154,1646,-3.65589,-2.28155
-63,-622,-2.49683,1.27087,0,0,0,0,0,0,0,-1,1161,1646,-2.49679,-1.27093
-56,-622,-2.44238,-0.575562,0,0,0,0,0,0,0,-1,1168,1646,-2.44242,0.575508
-49,-622,-2.41089,1.38818,0,0,0,0,0,0,0,-1,1175,1646,-2.41088,-1.38815
-42,-622,-2.71497,2.85242,0,0,0,0,0,0,0,-1,1182,1646,-2.71491,-2.85247
-35,-622,-3.0177,4.25842,0,0,0,0,0,0,0,-1,1189,1646,-3.01773,-4.25838
-28,-622,-0.896606,0.678833,0,0,0,0,0,0,0,-1,1196,1646,-0.89661,-0.678835
-21,-622,6.63062,12.6195,0,0,0,0,0,0,0,-1,1203,1646,6.63065,-12.6195
-14,-622,6.52832,13.0504,0,0,0,0,0,0,0,-1,1210,1646,6.52833,-13.0504
-7,-622,6.2821,13.4749,0,0,0,0,0,0,0,-1,1217,1646,6.28209,-13.4748
0,-622,0,0,0,0,0,0,0,0,0,-1,1224,1646,0,0
7,-622,0,0,0,0,0,0,0,0,0,-1,1231,1646,0,0
14,-622,0,0,0,0,0,0,0,0,0,-1,1238,1646,0,0
21,-622,0,0,0,0,0,0,0,0,0,-1,1245,1646,0,0
28,-622,0,0,0,0,0,0,0,0,0,-1,1252,1646,0,0
35,-622,0,0,0,0,0,0,0,0,0,-1,1259,1646,0,0
42,-622,0,0,0,0,0,0,0,0,0,-1,1266,1646,0,0
49,-622,0,0,0,0,0,0,0,0,0,-1,1273,1646,0,0
56,-622,0,0,0,0,0,0,0,0,0,-1,1280,1646,0,0
63,-622,0,0,0,0,0,0,0,0,0,-1,1287,1646,0,0
70,-622,0,0,0,0,0,0,0,0,0,-1,1294,1646,0,0
77,-622,0,0,0,0,0,0,0,0,0,-1,1301,1646,0,0
84,-622,0,0,0,0,0,0,0,0,0,-1,1308,1646,0,0
91,-622,0,0,0,0,0,0,0,0,0,-1,1315,1646,0,0
98,-622,0,0,0,0,0,0,0,0,0,-1,1322,1646,0,0
105,-622,0,0,0,0,0,0,0,0,0,-1,1329,1646,0,0
112,-622,0,0,0,0,0,0,0,0,0,-1,1336,1646,0,0
119,-622,0,0,0,0,0,0,0,0,0,-1,1343,1646,0,0
126,-622,0.245972,10.9246,0,0,0,0,0,0,0,-1,1350,1646,0.245985,-10.9245
133,-622,0.727539,10.5338,0,0,0,0,0,0,0,-1,1357,1646,0.727543,-10.5338
140,-622,1.33142,10.1527,0,0,0,0,0,0,0,-1,1364,1646,1.33145,-10.1528
147,-622,1.93982,9.66919,0,0,0,0,0,0,0,-1,1371,1646,1.93984,-9.66914
154,-622,2.60974,9.26624,0,0,0,0,0,0,0,-1,1378,1646,2.6097,-9.2662
161,-622,10.6884,6.46448,0,0,0,0,0,0,0,-1,1385,1646,10.6883,-6.46442
168,-622,12.2402,5.18091,0,0,0,0,0,0,0,-1,1392,1646,12.2403,-5.1809
175,-622,5.64355,-1.77075,0,0,0,0,0,0,0,-1,1399,1646,5.64351,1.77077
182,-622,5.88586,-1.32251,0,0,0,0,0,0,0,-1,1406,1646,5.88587,1.32256
189,-622,5.97986,-1.18005,0,0,0,0,0,0,0,-1,1413,1646,5.97986,1.18003
196,-622,5.85022,-0.244507,0,0,0,0,0,0,0,-1,1420,1646,5.85026,0.244478
203,-622,5.25159,0.138794,0,0,0,0,0,0,0,-1,1427,1646,5.25162,-0.138822
210,-622,6.66833,0.0397949,0,0,0,0,0,0,0,-1,1434,1646,6.6684,-0.0398278
217,-622,6.12061,0.0506592,0,0,0,0,0,0,0,-1,1441,1646,6.12058,-0.0507181
224,-622,5.57275,0.0616455,0,0,0,0,0,0,0,-1,1448,1646,5.57276,-0.0616084
231,-622,5.31348,1.3949,0,0,0,0,0,0,0,-1,1455,1646,5.31342,-1.39495
238,-622,3.76477,2.90686,0,0,0,0,0,0,0,-1,1462,1646,3.7648,-2.90686
245,-622,5.13794,2.67993,0,0,0,0,0,0,0,-1,1469,1646,5.13796,-2.67992
252,-622,6.66528,2.53992,0,0,0,0,0,0,0,-1,1476,1646,6.66522,-2.53991
259,-622,8.93787,3.31458,0,0,0,0,0,0,0,-1,1483,1646,8.93791,-3.31454
266,-622,5.72644,3.11926,0,0,0,0,0,0,0,-1,1490,1646,5.72647,-3.1192
273,-622,7.28076,3.61218,0,0,0,0,0,0,0,-1,1497,1646,7.28071,-3.61212
280,-622,8.43127,4.4447,0,0,0,0,0,0,0,-1,1504,1646,8.43123,-4.44467
287,-622,8.60315,5.94617,0,0,0,0,0,0,0,-1,1511,1646,8.60319,-5.94622
294,-622,8.77515,7.44775,0,0,0,0,0,0,0,-1,1518,1646,8.77514,-7.44777
301,-622,4.71997,12.7284,0,0,0,0,0,0,0,-1,1525,1646,4.71997,-12.7284
308,-622,4.29065,11.7554,0,0,0,0,0,0,0,-1,1532,1646,4.29059,-11.7554
315,-622,4.953,12.2437,0,0,0,0,0,0,0,-1,1539,1646,4.95306,-12.2436
322,-622,5.40515,12.5829,0,0,0,0,0,0,0,-1,1546,1646,5.4051,-12.5829
329,-622,5.97717,13.0389,0,0,0,0,0,0,0,-1,1553,1646,5.97715,-13.039
336,-622,5.64441,12.1544,0,0,0,0,0,0,0,-1,1560,1646,5.64447,-12.1544
343,-622,6.19617,12.1467,0,0,0,0,0,0,0,-1,1567,1646,6.19615,-12.1467
350,-622,5.86902,12.0125,0,0,0,0,0,0,0,-1,1574,1646,5.86901,-12.0124
357,-622,5.57007,12.0471,-0.00167825,-0.0050765,0.00883763,0.00562211,-0.0123769,0.690427,0.0106328,0.04085,1581,1646,5.57011,-12.0472
364,-622,5.70862,11.8457,-0.00180625,-0.00504196,0.00758727,0.00433374,-0.0111819,0.680355,0.00924426,0.0333654,1588,1646,5.70858,-11.8457
371,-622,5.68018,11.77,-0.00200856,-0.00478181,0.00672498,0.00347126,-0.0102616,0.683728,0.00824544,0.0201384,1595,1646,5.68022,-11.77
378,-622,5.66101,11.6772,-0.00225143,-0.00440813,0.00580017,0.00256978,-0.00922934,0.693489,0.00716479,0.00999351,1602,1646,5.66098,-11.6773
385,-622,5.64185,11.5613,-0.00230731,-0.00459473,0.00491147,0.00159186,-0.0084939,0.671004,0.00626104,0.0085825,1609,1646,5.64188,-11.5613
392,-622,5.64026,11.4397,-0.00204448,-0.00411217,0.00439645,0.00143805,-0.0075947,0.669919,0.00560432,0.0104115,1616,1646,5.64026,-11.4397
399,-622,5.64844,11.312,-0.00168591,-0.00359245,0.00380132,0.00127985,-0.0065582,0.662545,0.00485531,0.0112932,1623,1646,5.64839,-11.312
406,-622,5.64795,11.1565,-0.00139443,-0.00310446,0.0033228,0.0011816,-0.00568049,0.659471,0.00423615,0.0141047,1630,1646,5.6479,-11.1565
413,-622,5.64844,10.9928,-0.00117369,-0.00283699,0.00300812,0.00111562,-0.0051263,0.650533,0.00384376,0.0153138,1637,1646,5.64846,-10.9928
420,-622,5.6665,10.8558,-0.00083962,-0.0025928,0.00259347,0.00102139,-0.00445381,0.622426,0.0033618,0.0150584,1644,1646,5.66656,-10.8559
427,-622,5.68896,10.7236,-0.000534483,-0.00247302,0.00217516,0.000877595,-0.0038851,0.575801,0.00292679,0.011785,1651,1646,5.68902,-10.7237
434,-622,5.69788,10.5955,-0.000512267,-0.00230613,0.00183624,0.000634393,-0.00345279,0.558211,0.00253987,0.0121621,1658,1646,5.69793,-10.5954
441,-622,5.69617,10.4589,-0.00049576,-0.0018721,0.00171042,0.000659734,-0.0030276,0.594137,0.00227049,0.0141167,1665,1646,5.69613,-10.4588
448,-622,5.68298,10.3146,-0.000536859,-0.000901836,0.00173918,0.00102938,-0.00246807,0.733125,0.00207542,0.0134028,1672,1646,5.68296,-10.3146
455,-622,5.65979,10.1449,-0.000687822,-0.000202257,0.00175367,0.00132536,-0.00221544,0.854182,0.0020657,0.0147528,1679,1646,5.65982,-10.1449
462,-622,5.67505,10.0144,-0.000815325,0.000868342,0.00182811,0.00203914,-0.00198612,1.00117,0.00232405,0.0157605,1686,1646,5.67505,-10.0144
469,-622,5.66626,9.87817,-0.000842669,0.00255489,0.00167631,0.00324271,-0.00153049,1.18143,0.00281429,0.0172637,1693,1646,5.66625,-9.87819
476,-622,5.68896,9.70386,-0.00110378,0.00467848,0.00165,0.00511618,-0.00154148,1.31149,0.00402426,0.0170054,1700,1646,5.68899,-9.70383
483,-622,5.67712,9.5033,-0.00126389,0.00736732,0.00162001,0.00766136,-0.00155793,1.39124,0.00569832,0.0246539,1707,1646,5.6771,-9.5033
490,-622,5.65332,9.36426,-0.00121123,0.0104841,0.00138629,0.0106462,-0.0013733,1.45441,0.00759672,0.0314349,1714,1646,5.6533,-9.36422
497,-622,5.63599,9.22705,-0.000929092,0.0140209,0.000984375,0.0140854,-0.000993629,1.50533,0.00973841,0.0399493,1721,1646,5.63595,-9.22708
504,-622,5.51892,9.10059,0,0,0,0,0,0,0,-1,1728,1646,5.51889,-9.10058
511,-622,5.29004,4.14587,0,0,0,0,0,0,0,-1,1735,1646,5.29008,-4.14589
518,-622,5.6001,1.55359,0,0,0,0,0,0,0,-1,1742,1646,5.60015,-1.5536
525,-622,5.68213,1.32361,0,0,0,0,0,0,0,-1,1749,1646,5.68209,-1.32361
532,-622,5.44202,0.57373,0,0,0,0,0,0,0,-1,1756,1646,5.44196,-0.573705
539,-622,9.32129,1.06116,0,0,0,0,0,0,0,-1,1763,1646,9.32131,-1.0612
546,-622,6.50977,-3.45618,0,0,0,0,0,0,0,-1,1770,1646,6.50981,3.4562
553,-622,0,0,0,0,0,0,0,0,0,-1,1777,1646,0,0
560,-622,0,0,0,0,0,0,0,0,0,-1,1784,1646,0,0
567,-622,0,0,0,0,0,0,0,0,0,-1,1791,1646,0,0
574,-622,0,0,0,0,0,0,0,0,0,-1,1798,1646,0,0
581,-622,0,0,0,0,0,0,0,0,0,-1,1805,1646,0,0
588,-622,0,0,0,0,0,0,0,0,0,-1,1812,1646,0,0
595,-622,0,0,0,0,0,0,0,0,0,-1,1819,1646,0,0
602,-622,0,0,0,0,0,0,0,0,0,-1,1826,1646,0,0
609,-622,0,0,0,0,0,0,0,0,0,-1,1833,1646,0,0
616,-622,0,0,0,0,0,0,0,0,0,-1,1840,1646,0,0
623,-622,0,0,0,0,0,0,0,0,0,-1,1847,1646,0,0
630,-622,0,0,0,0,0,0,0,0,0,-1,1854,1646,0,0
637,-622,0,0,0,0,0,0,0,0,0,-1,1861,1646,0,0
644,-622,0,0,0,0,0,0,0,0,0,-1,1868,1646,0,0
651,-622,0,0,0,0,0,0,0,0,0,-1,1875,1646,0,0
658,-622,0,0,0,0,0,0,0,0,0,-1,1882,1646,0,0
665,-622,0,0,0,0,0,0,0,0,0,-1,1889,1646,0,0
672,-622,0,0,0,0,0,0,0,0,0,-1,1896,1646,0,0
679,-622,0,0,0,0,0,0,0,0,0,-1,1903,1646,0,0
686,-622,0,0,0,0,0,0,0,0,0,-1,1910,1646,0,0
693,-622,0,0,0,0,0,0,0,0,0,-1,1917,1646,0,0
700,-622,0,0,0,0,0,0,0,0,0,-1,1924,1646,0,0
707,-622,0,0,0,0,0,0,0,0,0,-1,1931,1646,0,0
714,-622,0,0,0,0,0,0,0,0,0,-1,1938,1646,0,0
721,-622,0,0,0,0,0,0,0,0,0,-1,1945,1646,0,0
728,-622,0,0,0,0,0,0,0,0,0,-1,1952,1646,0,0
735,-622,0,0,0,0,0,0,0,0,0,-1,1959,1646,0,0
742,-622,0,0,0,0,0,0,0,0,0,-1,1966,1646,0,0
749,-622,0,0,0,0,0,0,0,0,0,-1,1973,1646,0,0
756,-622,0,0,0,0,0,0,0,0,0,-1,1980,1646,0,0
763,-622,0,0,0,0,0,0,0,0,0,-1,1987,1646,0,0
770,-622,0,0,0,0,0,0,0,0,0,-1,1994,1646,0,0
777,-622,0,0,0,0,0,0,0,0,0,-1,2001,1646,0,0
784,-622,0,0,0,0,0,0,0,0,0,-1,2008,1646,0,0
791,-622,0,0,0,0,0,0,0,0,0,-1,2015,1646,0,0
798,-622,0,0,0,0,0,0,0,0,0,-1,2022,1646,0,0
805,-622,0,0,0,0,0,0,0,0,0,-1,2029,1646,0,0
812,-622,0,0,0,0,0,0,0,0,0,-1,2036,1646,0,0
-700,-629,0,0,0,0,0,0,0,0,0,-1,524,1653,0,0
-693,-629,0,0,0,0,0,0,0,0,0,-1,531,1653,0,0
-686,-629,0,0,0,0,0,0,0,0,0,-1,538,1653,0,0
-679,-629,0,0,0,0,0,0,0,0,0,-1,545,1653,0,0
-672,-629,0,0,0,0,0,0,0,0,0,-1,552,1653,0,0
-665,-629,0,0,0,0,0,0,0,0,0,-1,559,1653,0,0
-658,-629,0,0,0,0,0,0,0,0,0,-1,566,1653,0,0
-651,-629,0,0,0,0,0,0,0,0,0,-1,573,1653,0,0
-644,-629,0,0,0,0,0,0,0,0,0,-1,580,1653,0,0
-637,-629,0,0,0,0,0,0,0,0,0,-1,587,1653,0,0
-630,-629,0,0,0,0,0,0,0,0,0,-1,594,1653,0,0
-623,-629,0,0,0,0,0,0,0,0,0,-1,601,1653,0,0
-616,-629,0,0,0,0,0,0,0,0,0,-1,608,1653,0,0
-609,-629,0,0,0,0,0,0,0,0,0,-1,615,1653,0,0
-602,-629,0,0,0,0,0,0,0,0,0,-1,622,1653,0,0
-595,-629,0,0,0,0,0,0,0,0,0,-1,629,1653,0,0
-588,-629,0,0,0,0,0,0,0,0,0,-1,636,1653,0,0
-581,-629,0,0,0,0,0,0,0,0,0,-1,643,1653,0,0
-574,-629,0,0,0,0,0,0,0,0,0,-1,650,1653,0,0
-567,-629,0,0,0,0,0,0,0,0,0,-1,657,1653,0,0
-560,-629,0,0,0,0,0,0,0,0,0,-1,664,1653,0,0
-553,-629,0,0,0,0,0,0,0,0,0,-1,671,1653,0,0
-546,-629,0,0,0,0,0,0,0,0,0,-1,678,1653,0,0
-539,-629,0,0,0,0,0,0,0,0,0,-1,685,1653,0,0
-532,-629,0,0,0,0,0,0,0,0,0,-1,692,1653,0,0
-525,-629,0,0,0,0,0,0,0,0,0,-1,699,1653,0,0
-518,-629,0,0,0,0,0,0,0,0,0,-1,706,1653,0,0
-511,-629,0,0,0,0,0,0,0,0,0,-1,713,1653,0,0
-504,-629,0,0,0,0,0,0,0,0,0,-1,720,1653,0,0
-497,-629,0,0,0,0,0,0,0,0,0,-1,727,1653,0,0
-490,-629,0,0,0,0,0,0,0,0,0,-1,734,1653,0,0
-483,-629,0,0,0,0,0,0,0,0,0,-1,741,1653,0,0
-476,-629,0,0,0,0,0,0,0,0,0,-1,748,1653,0,0
-469,-629,0,0,0,0,0,0,0,0,0,-1,755,1653,0,0
-462,-629,0,0,0,0,0,0,0,0,0,-1,762,1653,0,0
-455,-629,0,0,0,0,0,0,0,0,0,-1,769,1653,0,0
-448,-629,0,0,0,0,0,0,0,0,0,-1,776,1653,0,0
-441,-629,0,0,0,0,0,0,0,0,0,-1,783,1653,0,0
-434,-629,0,0,0,0,0,0,0,0,0,-1,790,1653,0,0
-427,-629,0,0,0,0,0,0,0,0,0,-1,797,1653,0,0
-420,-629,-3.87103,3.37634,0,0,0,0,0,0,0,-1,804,1653,-3.87101,-3.37633
-413,-629,-5.69751,1.33582,0,0,0,0,0,0,0,-1,811,1653,-5.69754,-1.3358
-406,-629,3.13916,3.62292,0,0,0,0,0,0,0,-1,818,1653,3.13915,-3.62297
-399,-629,4.06927,4.78992,0,0,0,0,0,0,0,-1,825,1653,4.06928,-4.78991
-392,-629,4.20575,6.00378,-0.00791102,-0.0197895,0.0244082,0.0112701,-0.0389707,0.666052,0.0304407,0.0473241,832,1653,4.20576,-6.00382
-385,-629,4.22339,7.18823,-0.00594433,-0.0217402,0.0211031,0.00869032,-0.0363749,0.606339,0.0276065,0.0446193,839,1653,4.22341,-7.18825
-378,-629,4.0119,8.11877,-0.00467625,-0.0205158,0.0177167,0.00681027,-0.0320023,0.575211,0.0239302,0.0493722,846,1653,4.01193,-8.11875
-371,-629,2.38208,7.67065,0,0,0,0,0,0,0,-1,853,1653,2.38207,-7.67069
-364,-629,2.15039,8.48328,-0.00315028,-0.0160722,0.0113313,0.00343258,-0.0226551,0.526292,0.016368,0.0468087,860,1653,2.15039,-8.48332
-357,-629,2.33655,8.62524,-0.00201375,-0.0130305,0.00870625,0.00278035,-0.0178246,0.503342,0.01291,0.0459886,867,1653,2.33654,-8.62526
-350,-629,2.40936,8.80957,-0.001327,-0.0100698,0.0065302,0.00215988,-0.0135567,0.490447,0.00983712,0.0470593,874,1653,2.40936,-8.80954
-343,-629,2.45099,8.7644,-0.000810317,-0.00737045,0.00472254,0.00165951,-0.00984027,0.481867,0.00717758,0.03751,881,1653,2.45099,-8.76441
-336,-629,2.54913,8.76343,-0.000238982,-0.00495325,0.00304616,0.00125553,-0.00644776,0.456117,0.00477239,0.0176773,888,1653,2.54911,-8.76345
-329,-629,2.56165,8.93909,0.000259383,-0.0029823,0.00147121,0.000827509,-0.00355042,0.368522,0.00268562,0.0112772,895,1653,2.56167,-8.93905
-322,-629,2.54877,9.11365,0.00076485,-0.00125611,0.000875047,0.00109107,-0.00158233,0.356847,0.00155215,0.0113489,902,1653,2.54878,-9.11366
-315,-629,2.53583,9.276,0.000729599,-0.000337867,0.000610702,0.00100693,-0.0006152,0.426276,0.000945597,0.0147841,909,1653,2.53585,-9.27598
-308,-629,2.53992,9.44678,0.000603737,0.000372891,0.000283636,0.000794535,0.000182093,0.592161,0.000480632,0.0123635,916,1653,2.5399,-9.44681
-301,-629,2.55341,9.63696,0.000661835,0.000681796,8.66847e-05,0.000759073,0.000584558,0.842713,0.00045907,0.0111761,923,1653,2.55342,-9.63697
-294,-629,2.53613,9.78882,0.000872717,0.000625451,2.79405e-05,0.000875835,0.000622333,0.111131,0.000520395,0.0119769,930,1653,2.53611,-9.78876
-287,-629,2.53204,9.93481,0.00104266,0.000355475,6.54003e-05,0.00104883,0.000349306,0.0940463,0.000616692,0.00925718,937,1653,2.53202,-9.93478
-280,-629,2.54224,10.0935,0.00119856,2.001e-05,0.000126823,0.00121206,6.51728e-06,0.105992,0.000805873,0.00920151,944,1653,2.54222,-10.0935
-273,-629,2.53912,10.2239,0.00154376,-0.000446309,0.0002081,0.00156528,-0.000467837,0.103084,0.0012295,0.0119,951,1653,2.53913,-10.2239
-266,-629,2.52722,10.379,0.00189682,-0.000838969,0.000356353,0.00194247,-0.000884624,0.127424,0.00166988,0.0126022,958,1653,2.52722,-10.379
-259,-629,2.53754,10.5947,0.00213994,-0.00141577,0.000511755,0.00221212,-0.00148796,0.140137,0.00214984,0.0141276,965,1653,2.53754,-10.5947
-252,-629,2.54047,10.7104,0.00222964,-0.00240128,0.000547381,0.00229346,-0.0024651,0.116071,0.00274795,0.0109107,972,1653,2.54048,-10.7105
-245,-629,2.56628,10.8461,0.0021449,-0.00343216,0.000352926,0.00216714,-0.0034544,0.062947,0.00327384,0.00772488,979,1653,2.5663,-10.8461
-238,-629,2.56543,10.999,0.00232191,-0.00505895,9.32882e-05,0.00232308,-0.00506013,0.0126365,0.00435925,0.00956135,986,1653,2.56544,-10.999
-231,-629,2.55298,11.1404,0.00280906,-0.00679238,-2.01517e-05,0.0028091,-0.00679242,-0.0020988,0.00570024,0.0101761,993,1653,2.55295,-11.1403
-224,-629,2.60321,11.2725,0.00293849,-0.00869342,-0.000202526,0.00294202,-0.00869695,-0.0174042,0.00698821,0.0105214,1000,1653,2.60321,-11.2725
-217,-629,2.61218,11.3907,0.00264437,-0.0106202,-0.000497509,0.00266301,-0.0106388,-0.0374365,0.00812698,0.0149734,1007,1653,2.61219,-11.3908
-210,-629,2.625,11.4709,0.000404601,-0.0141175,-0.00141679,0.000541532,-0.0142545,-0.0963499,0.00968852,0.0297292,1014,1653,2.625,-11.471
-203,-629,2.53918,11.4034,-0.00325549,-0.0200284,-0.00326666,-0.00264174,-0.0206422,-0.185718,0.0129709,0.040853,1021,1653,2.53919,-11.4034
-196,-629,2.56372,11.3749,-0.00421413,-0.0232605,-0.00450787,-0.0032011,-0.0242735,-0.221054,0.0152279,0.0400326,1028,1653,2.56368,-11.3749
-189,-629,2.47668,11.2745,-0.00437653,-0.0241828,-0.00479617,-0.00327624,-0.0252831,-0.225508,0.0158764,0.0422099,1035,1653,2.47671,-11.2745
-182,-629,2.95313,11.6602,-0.00568753,-0.0269138,-0.0057299,-0.00423956,-0.0283618,-0.247523,0.0176651,0.048518,1042,1653,2.95314,-11.6601
-175,-629,3.24451,12.2104,0,0,0,0,0,0,0,-1,1049,1653,3.24455,-12.2104
-168,-629,3.55615,12.3984,0,0,0,0,0,0,0,-1,1056,1653,3.55612,-12.3984
-161,-629,3.05212,11.0347,-0.00582218,-0.0272333,-0.00605817,-0.00422691,-0.0288286,-0.25748,0.0179765,0.0441243,1063,1653,3.05207,-11.0347
-154,-629,1.88354,10.0275,-0.00353331,-0.0245825,-0.0052127,-0.00231315,-0.0258026,-0.229936,0.0164849,0.0431257,1070,1653,1.88353,-10.0274
-147,-629,0.727295,9.37048,0,0,0,0,0,0,0,-1,1077,1653,0.727305,-9.37045
-140,-629,2.55859,10.9294,0,0,0,0,0,0,0,-1,1084,1653,2.55863,-10.9295
-133,-629,4.54871,12.1666,0,0,0,0,0,0,0,-1,1091,1653,4.54872,-12.1667
-126,-629,2.69519,10.2487,0,0,0,0,0,0,0,-1,1098,1653,2.69515,-10.2486
-119,-629,4.94177,13.5525,0,0,0,0,0,0,0,-1,1105,1653,4.94172,-13.5525
-112,-629,5.63123,15.9187,0,0,0,0,0,0,0,-1,1112,1653,5.63118,-15.9187
-105,-629,2.15881,4.38342,0,0,0,0,0,0,0,-1,1119,1653,2.15878,-4.38347
-98,-629,0.825806,4.19385,0,0,0,0,0,0,0,-1,1126,1653,0.825779,-4.1939
-91,-629,-0.452271,3.64465,0,0,0,0,0,0,0,-1,1133,1653,-0.452278,-3.6446
-84,-629,-2.6084,0.466797,0,0,0,0,0,0,0,-1,1140,1653,-2.6084,-0.466786
-77,-629,-3.50903,2.10706,0,0,0,0,0,0,0,-1,1147,1653,-3.509,-2.10707
-70,-629,-1.20886,2.52502,0,0,0,0,0,0,0,-1,1154,1653,-1.20886,-2.525
-63,-629,-0.960693,4.30212,0,0,0,0,0,0,0,-1,1161,1653,-0.960691,-4.30215
-56,-629,-1.31934,5.64343,0,0,0,0,0,0,0,-1,1168,1653,-1.31928,-5.6434
-49,-629,-2.15662,2.57458,0,0,0,0,0,0,0,-1,1175,1653,-2.15656,-2.57459
-42,-629,-2.46326,3.91467,0,0,0,0,0,0,0,-1,1182,1653,-2.4633,-3.91466
-35,-629,-2.67261,5.24292,0,0,0,0,0,0,0,-1,1189,1653,-2.67257,-5.24298
-28,-629,-0.402954,-0.866577,0,0,0,0,0,0,0,-1,1196,1653,-0.402943,0.866612
-21,-629,10.063,9.59705,0,0,0,0,0,0,0,-1,1203,1653,10.063,-9.59708
-14,-629,6.19409,12.3474,0,0,0,0,0,0,0,-1,1210,1653,6.19415,-12.3474
-7,-629,5.99182,12.8071,0,0,0,0,0,0,0,-1,1217,1653,5.99182,-12.8071
0,-629,5.91895,14.4216,0,0,0,0,0,0,0,-1,1224,1653,5.91897,-14.4216
7,-629,4.91821,14.4758,0,0,0,0,0,0,0,-1,1231,1653,4.91825,-14.4758
14,-629,3.88232,14.6151,-0.0765873,0.00602789,0.0521745,0.0312673,-0.101827,1.12023,0.0803607,0.0453265,1238,1653,3.88228,-14.6151
21,-629,2.85559,14.7773,-0.066131,0.00983975,0.0450704,0.030797,-0.0870882,1.13555,0.0706002,0.0460417,1245,1653,2.85556,-14.7774
28,-629,1.8811,15.2733,-0.0313495,0.0187723,0.0395602,0.0405415,-0.0531187,1.06774,0.054237,0.0470269,1252,1653,1.88111,-15.2733
35,-629,0.973755,15.306,0.0158995,0.0266511,0.0380262,0.0596796,-0.017129,0.855618,0.0465585,0.0467497,1259,1653,0.973739,-15.306
42,-629,0.721558,12.7733,0,0,0,0,0,0,0,-1,1266,1653,0.72161,-12.7733
49,-629,-0.706299,13.4819,0.138592,0.041586,0.046176,0.157057,0.0231206,0.380412,0.0979123,0.0455135,1273,1653,-0.706272,-13.482
56,-629,-2.20886,14.4329,0.21237,0.051683,0.0563889,0.230183,0.0338695,0.305983,0.143504,0.0474864,1280,1653,-2.20882,-14.4329
63,-629,3.80212,12.298,0.290025,0.0601729,0.0705452,0.309949,0.0402486,0.275264,0.194609,0.0449887,1287,1653,3.8021,-12.298
70,-629,3.85962,12.8759,0.348039,0.0666025,0.0879955,0.373287,0.0413544,0.279419,0.236282,0.0470004,1294,1653,3.85966,-12.8758
77,-629,3.87012,13.3528,0,0,0,0,0,0,0,-1,1301,1653,3.87015,-13.3528
84,-629,4.18628,13.8911,0,0,0,0,0,0,0,-1,1308,1653,4.18623,-13.8911
91,-629,4.28955,14.4642,0,0,0,0,0,0,0,-1,1315,1653,4.28959,-14.4642
98,-629,5.16748,15.9033,0,0,0,0,0,0,0,-1,1322,1653,5.16749,-15.9033
105,-629,4.91821,16.5718,0,0,0,0,0,0,0,-1,1329,1653,4.9182,-16.5718
112,-629,4.8208,17.3265,0,0,0,0,0,0,0,-1,1336,1653,4.82085,-17.3265
119,-629,4.71326,18.0516,0,0,0,0,0,0,0,-1,1343,1653,4.71325,-18.0516
126,-629,4.61267,18.8013,0,0,0,0,0,0,0,-1,1350,1653,4.61264,-18.8012
133,-629,1.50354,11.5682,0,0,0,0,0,0,0,-1,1357,1653,1.50354,-11.5682
140,-629,1.87,11.3541,0,0,0,0,0,0,0,-1,1364,1653,1.86998,-11.3541
147,-629,2.1532,11.549,0,0,0,0,0,0,0,-1,1371,1653,2.15317,-11.549
154,-629,9.14783,7.88013,0,0,0,0,0,0,0,-1,1378,1653,9.14786,-7.88011
161,-629,10.5461,6.83752,0,0,0,0,0,0,0,-1,1385,1653,10.5461,-6.83758
168,-629,12.0059,5.56348,0,0,0,0,0,0,0,-1,1392,1653,12.0059,-5.56352
175,-629,5.84485,-1.78845,0,0,0,0,0,0,0,-1,1399,1653,5.84479,1.7884
182,-629,5.99036,-1.27783,0,0,0,0,0,0,0,-1,1406,1653,5.99041,1.27778
189,-629,5.97668,-0.748535,0,0,0,0,0,0,0,-1,1413,1653,5.97671,0.748544
196,-629,4.52869,9.24695,0,0,0,0,0,0,0,-1,1420,1653,4.52869,-9.2469
203,-629,3.75085,6.88037,0,0,0,0,0,0,0,-1,1427,1653,3.75087,-6.88032
210,-629,3.5907,6.52637,0,0,0,0,0,0,0,-1,1434,1653,3.59067,-6.52642
217,-629,2.4585,4.84448,0,0,0,0,0,0,0,-1,1441,1653,2.45855,-4.84448
224,-629,1.31982,3.68481,0,0,0,0,0,0,0,-1,1448,1653,1.31986,-3.68487
231,-629,3.63025,1.73499,0,0,0,0,0,0,0,-1,1455,1653,3.6303,-1.735
238,-629,4.26428,2.11255,0,0,0,0,0,0,0,-1,1462,1653,4.26429,-2.11253
245,-629,5.61816,1.95361,0,0,0,0,0,0,0,-1,1469,1653,5.61815,-1.95359
252,-629,7.27136,2.18982,0,0,0,0,0,0,0,-1,1476,1653,7.27131,-2.18985
259,-629,8.67334,2.18628,0,0,0,0,0,0,0,-1,1483,1653,8.6733,-2.18633
266,-629,6.86475,3.72058,0,0,0,0,0,0,0,-1,1490,1653,6.86479,-3.72063
273,-629,7.9021,3.8717,0,0,0,0,0,0,0,-1,1497,1653,7.90205,-3.87171
280,-629,9.70837,4.39087,0,0,0,0,0,0,0,-1,1504,1653,9.7084,-4.39082
287,-629,9.82947,7.19348,0,0,0,0,0,0,0,-1,1511,1653,9.8295,-7.19347
294,-629,4.77844,12.3685,0,0,0,0,0,0,0,-1,1518,1653,4.77849,-12.3686
301,-629,6.86328,14.0659,0,0,0,0,0,0,0,-1,1525,1653,6.86329,-14.0659
308,-629,4.45691,12.619,0,0,0,0,0,0,0,-1,1532,1653,4.45691,-12.619
315,-629,5.5531,12.4758,0,0,0,0,0,0,0,-1,1539,1653,5.55312,-12.4759
322,-629,5.62061,12.3203,-0.00296738,0.00262991,0.0158614,0.0159377,-0.0162751,0.872721,0.0185984,0.0474046,1546,1653,5.62065,-12.3203
329,-629,5.74072,12.6886,-0.00203926,0.00080838,0.0135663,0.0130253,-0.0142562,0.837683,0.0157563,0.0421501,1553,1653,5.74077,-12.6886
336,-629,5.68005,12.7382,0,0,0,0,0,0,0,-1,1560,1653,5.68001,-12.7382
343,-629,5.78064,12.2015,-0.00174726,-0.00221311,0.0102243,0.00824674,-0.0122071,0.774009,0.0118826,0.0394195,1567,1653,5.78063,-12.2015
350,-629,5.62341,12.0747,-0.00138922,-0.00299226,0.00812912,0.0059778,-0.0103593,0.736257,0.00954461,0.0254277,1574,1653,5.62343,-12.0747
357,-629,5.54395,12.0043,-0.00103517,-0.00368632,0.00664879,0.0044189,-0.00914039,0.687003,0.00798509,0.0160727,1581,1653,5.54392,-12.0043
364,-629,5.51917,11.8981,-0.0010707,-0.00359572,0.00564282,0.00344912,-0.00811555,0.675342,0.00685566,0.0130271,1588,1653,5.51912,-11.8981
371,-629,5.51245,11.791,-0.0012575,-0.00336861,0.00489386,0.00269335,-0.00731946,0.679181,0.00598303,0.00946604,1595,1653,5.51248,-11.791
378,-629,5.51306,11.6837,-0.00142245,-0.00306471,0.00411495,0.0019525,-0.00643966,0.686918,0.00507083,0.00931551,1602,1653,5.51311,-11.6837
385,-629,5.51843,11.5645,-0.00143087,-0.00318601,0.0033728,0.00117665,-0.00579354,0.658125,0.00430847,0.0114092,1609,1653,5.51846,-11.5644
392,-629,5.52661,11.4349,-0.00120976,-0.00281208,0.0029359,0.00103233,-0.00505418,0.652199,0.00376109,0.0101705,1616,1653,5.52664,-11.4349
399,-629,5.52014,11.308,-0.000943652,-0.00243897,0.00248415,0.000902915,-0.00428554,0.639224,0.00320073,0.0112907,1623,1653,5.5201,-11.3079
406,-629,5.51636,11.1683,-0.000731719,-0.00216568,0.00218784,0.000853624,-0.00375102,0.627057,0.00282849,0.0141298,1630,1653,5.51635,-11.1683
413,-629,5.52454,10.9814,-0.000546121,-0.002165,0.00207662,0.000873237,-0.00358436,0.599563,0.00272765,0.0221906,1637,1653,5.52451,-10.9815
420,-629,5.52148,10.8672,-0.000240834,-0.00218436,0.00184405,0.000871829,-0.00329703,0.542902,0.00253902,0.02024,1644,1653,5.5215,-10.8671
427,-629,5.5426,10.7489,-9.93754e-06,-0.00234168,0.00163827,0.00083496,-0.00318658,0.476148,0.00245059,0.0120723,1651,1653,5.5426,-10.7489
434,-629,5.54395,10.6136,-0.000104269,-0.00244087,0.00150546,0.000633036,-0.00317817,0.455418,0.00235829,0.0102822,1658,1653,5.54391,-10.6136
441,-629,5.55481,10.4812,-0.000168404,-0.00210393,0.00162613,0.000756151,-0.00302848,0.516982,0.00231262,0.015431,1665,1653,5.55485,-10.4812
448,-629,5.54407,10.2998,-0.000295766,-0.000975319,0.00192318,0.00131742,-0.00258851,0.697963,0.00229455,0.0145619,1672,1653,5.54412,-10.2998
455,-629,5.52454,10.1489,-0.000515446,-0.000208114,0.0021897,0.0018333,-0.00255686,0.820429,0.00254611,0.0137211,1679,1653,5.5246,-10.1489
462,-629,5.55579,10.0619,-0.00071439,0.00115134,0.00246957,0.00285837,-0.00242142,0.965985,0.00305176,0.016932,1686,1653,5.55577,-10.0619
469,-629,5.56787,9.88232,-0.000811805,0.00333435,0.00250459,0.00451252,-0.00198998,1.1311,0.00384723,0.0200672,1693,1653,5.5679,-9.88227
476,-629,5.62305,9.73706,-0.00110071,0.00620291,0.0026569,0.00706716,-0.00196496,1.25631,0.00548503,0.0253771,1700,1653,5.62303,-9.73711
483,-629,5.43018,9.36584,-0.00125028,0.00984602,0.00273199,0.0104822,-0.00188644,1.34202,0.00769441,0.0381357,1707,1653,5.43023,-9.36582
490,-629,5.37512,9.18591,-0.00117119,0.0141602,0.00248315,0.0145523,-0.00156335,1.41416,0.0102624,0.0434199,1714,1653,5.37515,-9.18589
497,-629,5.25635,9.12939,-0.000725166,0.0191087,0.00202745,0.0193138,-0.000930294,1.46996,0.0131969,0.0429374,1721,1653,5.25634,-9.12942
504,-629,5.35864,9.20264,0,0,0,0,0,0,0,-1,1728,1653,5.35864,-9.20262
511,-629,6.29138,3.40295,0,0,0,0,0,0,0,-1,1735,1653,6.29137,-3.403
518,-629,5.84387,1.41858,0,0,0,0,0,0,0,-1,1742,1653,5.84391,-1.4186
525,-629,6.4729,1.02319,0,0,0,0,0,0,0,-1,1749,1653,6.47284,-1.02316
532,-629,6.86511,0.903687,0,0,0,0,0,0,0,-1,1756,1653,6.86514,-0.903691
539,-629,6.60803,0.746704,0,0,0,0,0,0,0,-1,1763,1653,6.60809,-0.746691
546,-629,0,0,0,0,0,0,0,0,0,-1,1770,1653,0,0
553,-629,0,0,0,0,0,0,0,0,0,-1,1777,1653,0,0
560,-629,0,0,0,0,0,0,0,0,0,-1,1784,1653,0,0
567,-629,0,0,0,0,0,0,0,0,0,-1,1791,1653,0,0
574,-629,0,0,0,0,0,0,0,0,0,-1,1798,1653,0,0
581,-629,0,0,0,0,0,0,0,0,0,-1,1805,1653,0,0
588,-629,0,0,0,0,0,0,0,0,0,-1,1812,1653,0,0
595,-629,0,0,0,0,0,0,0,0,0,-1,1819,1653,0,0
602,-629,0,0,0,0,0,0,0,0,0,-1,1826,1653,0,0
609,-629,0,0,0,0,0,0,0,0,0,-1,1833,1653,0,0
616,-629,0,0,0,0,0,0,0,0,0,-1,1840,1653,0,0
623,-629,0,0,0,0,0,0,0,0,0,-1,1847,1653,0,0
630,-629,0,0,0,0,0,0,0,0,0,-1,1854,1653,0,0
637,-629,0,0,0,0,0,0,0,0,0,-1,1861,1653,0,0
644,-629,0,0,0,0,0,0,0,0,0,-1,1868,1653,0,0
651,-629,0,0,0,0,0,0,0,0,0,-1,1875,1653,0,0
658,-629,0,0,0,0,0,0,0,0,0,-1,1882,1653,0,0
665,-629,0,0,0,0,0,0,0,0,0,-1,1889,1653,0,0
672,-629,0,0,0,0,0,0,0,0,0,-1,1896,1653,0,0
679,-629,0,0,0,0,0,0,0,0,0,-1,1903,1653,0,0
686,-629,0,0,0,0,0,0,0,0,0,-1,1910,1653,0,0
693,-629,0,0,0,0,0,0,0,0,0,-1,1917,1653,0,0
700,-629,0,0,0,0,0,0,0,0,0,-1,1924,1653,0,0
707,-629,0,0,0,0,0,0,0,0,0,-1,1931,1653,0,0
714,-629,0,0,0,0,0,0,0,0,0,-1,1938,1653,0,0
721,-629,0,0,0,0,0,0,0,0,0,-1,1945,1653,0,0
728,-629,0,0,0,0,0,0,0,0,0,-1,1952,1653,0,0
735,-629,0,0,0,0,0,0,0,0,0,-1,1959,1653,0,0
742,-629,0,0,0,0,0,0,0,0,0,-1,1966,1653,0,0
749,-629,0,0,0,0,0,0,0,0,0,-1,1973,1653,0,0
756,-629,0,0,0,0,0,0,0,0,0,-1,1980,1653,0,0
763,-629,0,0,0,0,0,0,0,0,0,-1,1987,1653,0,0
770,-629,0,0,0,0,0,0,0,0,0,-1,1994,1653,0,0
777,-629,0,0,0,0,0,0,0,0,0,-1,2001,1653,0,0
784,-629,0,0,0,0,0,0,0,0,0,-1,2008,1653,0,0
791,-629,0,0,0,0,0,0,0,0,0,-1,2015,1653,0,0
798,-629,0,0,0,0,0,0,0,0,0,-1,2022,1653,0,0
805,-629,0,0,0,0,0,0,0,0,0,-1,2029,1653,0,0
812,-629,0,0,0,0,0,0,0,0,0,-1,2036,1653,0,0
-700,-636,0,0,0,0,0,0,0,0,0,-1,524,1660,0,0
-693,-636,0,0,0,0,0,0,0,0,0,-1,531,1660,0,0
-686,-636,0,0,0,0,0,0,0,0,0,-1,538,1660,0,0
-679,-636,0,0,0,0,0,0,0,0,0,-1,545,1660,0,0
-672,-636,0,0,0,0,0,0,0,0,0,-1,552,1660,0,0
-665,-636,0,0,0,0,0,0,0,0,0,-1,559,1660,0,0
-658,-636,0,0,0,0,0,0,0,0,0,-1,566,1660,0,0
-651,-636,0,0,0,0,0,0,0,0,0,-1,573,1660,0,0
-644,-636,0,0,0,0,0,0,0,0,0,-1,580,1660,0,0
-637,-636,0,0,0,0,0,0,0,0,0,-1,587,1660,0,0
-630,-636,0,0,0,0,0,0,0,0,0,-1,594,1660,0,0
-623,-636,0,0,0,0,0,0,0,0,0,-1,601,1660,0,0
-616,-636,0,0,0,0,0,0,0,0,0,-1,608,1660,0,0
-609,-636,0,0,0,0,0,0,0,0,0,-1,615,1660,0,0
-602,-636,0,0,0,0,0,0,0,0,0,-1,622,1660,0,0
-595,-636,0,0,0,0,0,0,0,0,0,-1,629,1660,0,0
-588,-636,0,0,0,0,0,0,0,0,0,-1,636,1660,0,0
-581,-636,0,0,0,0,0,0,0,0,0,-1,643,1660,0,0
-574,-636,0,0,0,0,0,0,0,0,0,-1,650,1660,0,0
-567,-636,0,0,0,0,0,0,0,0,0,-1,657,1660,0,0
-560,-636,0,0,0,0,0,0,0,0,0,-1,664,1660,0,0
-553,-636,0,0,0,0,0,0,0,0,0,-1,671,1660,0,0
-546,-636,0,0,0,0,0,0,0,0,0,-1,678,1660,0,0
-539,-636,0,0,0,0,0,0,0,0,0,-1,685,1660,0,0
-532,-636,0,0,0,0,0,0,0,0,0,-1,692,1660,0,0
-525,-636,0,0,0,0,0,0,0,0,0,-1,699,1660,0,0
-518,-636,0,0,0,0,0,0,0,0,0,-1,706,1660,0,0
-511,-636,0,0,0,0,0,0,0,0,0,-1,713,1660,0,0
-504,-636,0,0,0,0,0,0,0,0,0,-1,720,1660,0,0
-497,-636,0,0,0,0,0,0,0,0,0,-1,727,1660,0,0
-490,-636,0,0,0,0,0,0,0,0,0,-1,734,1660,0,0
-483,-636,0,0,0,0,0,0,0,0,0,-1,741,1660,0,0
-476,-636,0,0,0,0,0,0,0,0,0,-1,748,1660,0,0
-469,-636,0,0,0,0,0,0,0,0,0,-1,755,1660,0,0
-462,-636,0,0,0,0,0,0,0,0,0,-1,762,1660,0,0
-455,-636,0,0,0,0,0,0,0,0,0,-1,769,1660,0,0
-448,-636,0,0,0,0,0,0,0,0,0,-1,776,1660,0,0
-441,-636,0,0,0,0,0,0,0,0,0,-1,783,1660,0,0
-434,-636,0,0,0,0,0,0,0,0,0,-1,790,1660,0,0
-427,-636,0,0,0,0,0,0,0,0,0,-1,797,1660,0,0
-420,-636,0,0,0,0,0,0,0,0,0,-1,804,1660,0,0
-413,-636,0,0,0,0,0,0,0,0,0,-1,811,1660,0,0
-406,-636,4.01044,3.81982,0,0,0,0,0,0,0,-1,818,1660,4.01045,-3.81983
-399,-636,4.41577,4.92114,0,0,0,0,0,0,0,-1,825,1660,4.41575,-4.92117
-392,-636,4.89337,6.17615,-0.00609592,-0.0295832,0.0305146,0.0148569,-0.050536,0.601708,0.0395835,0.0453945,832,1660,4.89339,-6.17621
-385,-636,4.58118,7.39514,-0.00357516,-0.0311494,0.0267937,0.0127705,-0.0474951,0.547782,0.0366692,0.0440517,839,1660,4.58119,-7.39509
-378,-636,4.81262,8.29297,-0.00279936,-0.0278903,0.0227225,0.0106109,-0.0413005,0.533165,0.0316688,0.0498253,846,1660,4.8126,-8.29301
-371,-636,5.07294,9.22888,0,0,0,0,0,0,0,-1,853,1660,5.07297,-9.2289
-364,-636,2.17108,8.96448,0,0,0,0,0,0,0,-1,860,1660,2.17108,-8.96444
-357,-636,2.21167,9.12,0,0,0,0,0,0,0,-1,867,1660,2.21167,-9.12002
-350,-636,2.52325,8.98767,0,0,0,0,0,0,0,-1,874,1660,2.52323,-8.98767
-343,-636,2.63483,8.90735,0,0,0,0,0,0,0,-1,881,1660,2.63483,-8.9074
-336,-636,2.69421,8.85193,0.000367239,-0.00562512,0.00402278,0.00238702,-0.0076449,0.465315,0.0060513,0.0368127,888,1660,2.69423,-8.85198
-329,-636,2.7594,8.927,0.000747323,-0.00310277,0.00183688,0.00148309,-0.00383854,0.380983,0.00317118,0.0179764,895,1660,2.75937,-8.92694
-322,-636,2.72931,9.09265,0.00110851,-0.00093704,0.00107844,0.00157204,-0.00140057,0.405943,0.00171719,0.0116217,902,1660,2.72928,-9.09266
-315,-636,2.69373,9.26318,0.00102251,0.00030309,0.000783561,0.00152498,-0.000199383,0.570213,0.00108921,0.0122403,909,1660,2.69374,-9.2632
-308,-636,2.69348,9.44727,0.000808416,0.00126841,0.000418829,0.00151623,0.000560588,1.03649,0.000885247,0.0113924,916,1660,2.69348,-9.44733
-301,-636,2.70038,9.64465,0.000781871,0.00177432,0.000198943,0.00181272,0.000743477,1.38015,0.00105219,0.0111027,923,1660,2.70041,-9.64466
-294,-636,2.67444,9.8186,0.00088816,0.00187709,0.000109662,0.0018891,0.000876145,1.46167,0.00109163,0.0132308,930,1660,2.67443,-9.81864
-287,-636,2.67419,9.97058,0.000944761,0.00169236,0.000120557,0.00171132,0.000925801,1.4148,0.000989139,0.0118079,937,1660,2.67422,-9.97062
-280,-636,2.70892,10.1106,0.000982638,0.00141451,0.000162858,0.00146903,0.000928109,1.2477,0.000857911,0.0118342,944,1660,2.70894,-10.1106
-273,-636,2.70874,10.2365,0.00124209,0.000939741,0.000215098,0.00135382,0.000828007,0.479091,0.000788094,0.0119871,951,1660,2.70871,-10.2364
-266,-636,2.70111,10.3926,0.00149391,0.000577332,0.0003262,0.00159815,0.000473095,0.309294,0.000947938,0.0127234,958,1660,2.70109,-10.3926
-259,-636,2.70459,10.5829,0.00163428,-1.42547e-06,0.000443391,0.00174674,-0.000113884,0.248395,0.00120425,0.0139951,965,1660,2.70456,-10.5828
-252,-636,2.69653,10.7224,0.00160583,-0.000935488,0.000437576,0.00167906,-0.00100872,0.165825,0.0015678,0.011031,972,1660,2.69651,-10.7224
-245,-636,2.71606,10.866,0.00153417,-0.00195018,0.000256909,0.00155301,-0.00196902,0.0732049,0.00203816,0.0100332,979,1660,2.71607,-10.866
-238,-636,2.72717,11.0089,0.00170084,-0.00342898,3.93782e-05,0.00170114,-0.00342928,0.00767573,0.00301754,0.0108959,986,1660,2.72714,-11.0089
-231,-636,2.71399,11.1504,0.00213175,-0.00502415,-2.12665e-05,0.00213181,-0.00502421,-0.00297185,0.00424254,0.0108394,993,1660,2.71396,-11.1503
-224,-636,2.72241,11.2921,0.00231526,-0.00666446,-0.00012294,0.00231694,-0.00666614,-0.0136874,0.0053852,0.00931804,1000,1660,2.72243,-11.2921
-217,-636,2.72723,11.4312,0.00215722,-0.00829004,-0.000356014,0.00216934,-0.00830216,-0.0340246,0.00638199,0.0107251,1007,1660,2.72726,-11.4312
-210,-636,2.74225,11.5244,0.000503996,-0.0111062,-0.00106332,0.000600577,-0.0112028,-0.0905812,0.00767654,0.014155,1014,1660,2.74225,-11.5244
-203,-636,2.77521,11.6345,-0.00221842,-0.0157204,-0.00249362,-0.00177261,-0.0161662,-0.176914,0.0102379,0.0177381,1021,1660,2.77519,-11.6346
-196,-636,2.86401,11.7361,-0.00334717,-0.0187637,-0.00367755,-0.00251484,-0.019596,-0.222577,0.0123116,0.0191147,1028,1660,2.86399,-11.7361
-189,-636,2.87292,11.8694,-0.00421274,-0.0205636,-0.00433072,-0.00313653,-0.0216398,-0.243571,0.013503,0.0221229,1035,1660,2.87287,-11.8694
-182,-636,2.93323,11.9026,-0.00583828,-0.0234726,-0.00541509,-0.00430819,-0.0250027,-0.275381,0.0154341,0.0377609,1042,1660,2.93322,-11.9026
-175,-636,3.15149,12.1077,-0.00721507,-0.0257383,-0.00628702,-0.00528276,-0.0276706,-0.298186,0.0169626,0.0456351,1049,1660,3.1515,-12.1077
-168,-636,3.13037,12.2706,-0.00811581,-0.0269806,-0.00687977,-0.00587339,-0.029223,-0.315086,0.0178493,0.0480175,1056,1660,3.13036,-12.2707
-161,-636,2.79871,11.7402,-0.00811657,-0.0266798,-0.00698704,-0.00578065,-0.0290157,-0.32264,0.0177338,0.0466391,1063,1660,2.79868,-11.7402
-154,-636,2.08618,11.5331,-0.00698616,-0.025592,-0.0066976,-0.004826,-0.0277522,-0.311994,0.017121,0.0469233,1070,1660,2.08622,-11.533
-147,-636,2.07288,11.8265,0,0,0,0,0,0,0,-1,1077,1660,2.07286,-11.8265
-140,-636,2.32336,11.1306,0,0,0,0,0,0,0,-1,1084,1660,2.32342,-11.1306
-133,-636,2.80103,11.1724,0,0,0,0,0,0,0,-1,1091,1660,2.80102,-11.1724
-126,-636,0.480225,11.1675,0,0,0,0,0,0,0,-1,1098,1660,0.480189,-11.1675
-119,-636,1.8667,13.8916,0,0,0,0,0,0,0,-1,1105,1660,1.86668,-13.8916
-112,-636,-1.24963,9.7998,0,0,0,0,0,0,0,-1,1112,1660,-1.24968,-9.79978
-105,-636,3.51624,4.72791,0,0,0,0,0,0,0,-1,1119,1660,3.51618,-4.7279
-98,-636,1.54504,5.11914,0,0,0,0,0,0,0,-1,1126,1660,1.54503,-5.11912
-91,-636,-1.87964,-2.25012,0,0,0,0,0,0,0,-1,1133,1660,-1.87966,2.25016
-84,-636,-2.84143,0.133667,0,0,0,0,0,0,0,-1,1140,1660,-2.84144,-0.133701
-77,-636,-3.57349,2.45935,0,0,0,0,0,0,0,-1,1147,1660,-3.57345,-2.45939
-70,-636,-4.23682,4.82312,0,0,0,0,0,0,0,-1,1154,1660,-4.23681,-4.82307
-63,-636,-2.21033,6.97168,0,0,0,0,0,0,0,-1,1161,1660,-2.21034,-6.97165
-56,-636,-2.51917,8.80359,0,0,0,0,0,0,0,-1,1168,1660,-2.51916,-8.80361
-49,-636,-3.13,10.4113,0,0,0,0,0,0,0,-1,1175,1660,-3.12996,-10.4112
-42,-636,-2.27771,4.90173,0,0,0,0,0,0,0,-1,1182,1660,-2.27775,-4.90173
-35,-636,-2.27698,5.89685,0,0,0,0,0,0,0,-1,1189,1660,-2.27695,-5.89686
-28,-636,-1.70654,4.83936,0,0,0,0,0,0,0,-1,1196,1660,-1.70656,-4.8393
-21,-636,5.37976,10.947,0,0,0,0,0,0,0,-1,1203,1660,5.37979,-10.947
-14,-636,5.68323,11.4164,0,0,0,0,0,0,0,-1,1210,1660,5.6832,-11.4164
-7,-636,9.12402,12.3374,0,0,0,0,0,0,0,-1,1217,1660,9.12405,-12.3374
0,-636,8.76318,13.9395,0,0,0,0,0,0,0,-1,1224,1660,8.7632,-13.9395
7,-636,3.81934,13.9619,0,0,0,0,0,0,0,-1,1231,1660,3.81937,-13.9619
14,-636,3.16418,14.635,-0.0549018,0.0174493,0.0319527,0.0295402,-0.0669926,1.20905,0.0571144,0.041815,1238,1660,3.16415,-14.6351
21,-636,2.58362,15.6689,-0.0445726,0.0214017,0.0244872,0.0294971,-0.052668,1.25151,0.0480627,0.0440189,1245,1660,2.58364,-15.669
28,-636,2.53796,14.5726,-0.0159881,0.0270196,0.0185161,0.0338929,-0.0228614,1.21536,0.0329728,0.0473243,1252,1660,2.53797,-14.5726
35,-636,1.52307,14.9343,0.019755,0.0326911,0.0155721,0.043085,0.00936115,0.982237,0.0261672,0.0465864,1259,1660,1.52304,-14.9344
42,-636,0.361328,15.0553,0.0634441,0.0384579,0.0153458,0.0707392,0.0311628,0.443757,0.0409374,0.0488531,1266,1660,0.36137,-15.0553
49,-636,-0.474487,14.1117,0.113614,0.044188,0.017756,0.117891,0.0399103,0.236408,0.0692374,0.0437447,1273,1660,-0.474486,-14.1117
56,-636,-1.75806,14.6678,0.168669,0.0524693,0.0236378,0.173293,0.0478448,0.193198,0.103341,0.0436345,1280,1660,-1.75803,-14.6678
63,-636,-3.10962,14.9149,0.22623,0.0598438,0.0320103,0.232176,0.0538979,0.183654,0.140312,0.0456901,1287,1660,-3.10965,-14.9149
70,-636,3.78125,13.0024,0.268156,0.0654688,0.0439261,0.277266,0.0563586,0.204498,0.169216,0.0447239,1294,1660,3.78128,-13.0025
77,-636,4.00928,13.7081,0.295239,0.0749198,0.0587524,0.309928,0.0602316,0.244981,0.189755,0.0460162,1301,1660,4.00928,-13.7081
84,-636,4.46033,14.22,0,0,0,0,0,0,0,-1,1308,1660,4.46036,-14.22
91,-636,4.58704,14.8163,0,0,0,0,0,0,0,-1,1315,1660,4.58707,-14.8162
98,-636,5.52527,16.2838,0,0,0,0,0,0,0,-1,1322,1660,5.52528,-16.2838
105,-636,10.1665,18.6344,0,0,0,0,0,0,0,-1,1329,1660,10.1665,-18.6344
112,-636,9.08716,20.6541,0,0,0,0,0,0,0,-1,1336,1660,9.0872,-20.654
119,-636,9.55566,16.2363,0,0,0,0,0,0,0,-1,1343,1660,9.55566,-16.2363
126,-636,5.04712,19.5298,0,0,0,0,0,0,0,-1,1350,1660,5.04711,-19.5298
133,-636,10.9214,17.4844,0,0,0,0,0,0,0,-1,1357,1660,10.9214,-17.4844
140,-636,2.07214,12.3373,0,0,0,0,0,0,0,-1,1364,1660,2.07218,-12.3373
147,-636,2.13,12.3857,0,0,0,0,0,0,0,-1,1371,1660,2.13001,-12.3857
154,-636,2.23328,12.4125,0,0,0,0,0,0,0,-1,1378,1660,2.23322,-12.4125
161,-636,10.2961,7.13025,0,0,0,0,0,0,0,-1,1385,1660,10.2961,-7.13021
168,-636,11.7659,5.83899,0,0,0,0,0,0,0,-1,1392,1660,11.7658,-5.83899
175,-636,5.94592,-1.72888,0,0,0,0,0,0,0,-1,1399,1660,5.94598,1.72886
182,-636,5.93994,-1.11938,0,0,0,0,0,0,0,-1,1406,1660,5.93998,1.11936
189,-636,5.32544,11.9595,0,0,0,0,0,0,0,-1,1413,1660,5.32542,-11.9595
196,-636,5.3623,9.38025,0,0,0,0,0,0,0,-1,1420,1660,5.36225,-9.38027
203,-636,5.18542,9.02429,0,0,0,0,0,0,0,-1,1427,1660,5.18547,-9.0243
210,-636,4.09167,7.17041,0,0,0,0,0,0,0,-1,1434,1660,4.09173,-7.17041
217,-636,2.94897,5.28992,0,0,0,0,0,0,0,-1,1441,1660,2.94899,-5.28991
224,-636,1.49194,3.63916,0,0,0,0,0,0,0,-1,1448,1660,1.49197,-3.63918
231,-636,0.17749,2.24854,0,0,0,0,0,0,0,-1,1455,1660,0.177501,-2.24855
238,-636,-0.764648,1.00598,0,0,0,0,0,0,0,-1,1462,1660,-0.764704,-1.00595
245,-636,6.21204,1.18005,0,0,0,0,0,0,0,-1,1469,1660,6.21206,-1.18001
252,-636,7.70251,0.865723,0,0,0,0,0,0,0,-1,1476,1660,7.7025,-0.865692
259,-636,9.03601,0.787231,0,0,0,0,0,0,0,-1,1483,1660,9.03598,-0.787243
266,-636,10.1071,3.24109,0,0,0,0,0,0,0,-1,1490,1660,10.1071,-3.24103
273,-636,8.48535,5.02466,0,0,0,0,0,0,0,-1,1497,1660,8.48533,-5.02472
280,-636,8.81384,5.66992,0,0,0,0,0,0,0,-1,1504,1660,8.81381,-5.66998
287,-636,6.08606,11.49,0,0,0,0,0,0,0,-1,1511,1660,6.08606,-11.49
294,-636,6.7959,13.9199,0,0,0,0,0,0,0,-1,1518,1660,6.79588,-13.9199
301,-636,6.3468,13.5935,0,0,0,0,0,0,0,-1,1525,1660,6.3468,-13.5935
308,-636,5.46411,12.7441,0,0,0,0,0,0,0,-1,1532,1660,5.46414,-12.7442
315,-636,5.3739,12.545,-0.00320148,0.00371416,0.0132585,0.0139583,-0.0134457,0.912957,0.0158226,0.0483968,1539,1660,5.37391,-12.545
322,-636,5.4397,12.4417,-0.00246694,0.00207614,0.0118689,0.011889,-0.0122798,0.879947,0.0139544,0.038353,1546,1660,5.43966,-12.4417
329,-636,5.4093,12.4199,-0.0016955,0.000767674,0.0102388,0.00984871,-0.0107765,0.845254,0.011912,0.0271813,1553,1660,5.40929,-12.4199
336,-636,5.41479,12.3278,-0.0013282,-0.000664845,0.00905715,0.0080667,-0.0100597,0.8037,0.0104864,0.0224065,1560,1660,5.41486,-12.3277
343,-636,5.3916,12.2605,-0.00140703,-0.0014811,0.00782273,0.00637876,-0.00926688,0.783031,0.00908417,0.0199047,1567,1660,5.39156,-12.2605
350,-636,5.38477,12.1302,-0.00111109,-0.00208756,0.00619359,0.00461348,-0.00781213,0.746065,0.00725273,0.0111202,1574,1660,5.38476,-12.1303
357,-636,5.37781,12.0378,-0.00072462,-0.00258741,0.00499939,0.00342939,-0.00674142,0.693303,0.005975,0.0106307,1581,1660,5.37778,-12.0379
364,-636,5.38379,11.9164,-0.000663943,-0.00244857,0.00417763,0.0027156,-0.00582812,0.680182,0.00504065,0.0109396,1588,1660,5.38376,-11.9164
371,-636,5.37341,11.7992,-0.000759178,-0.0022285,0.00347207,0.0020551,-0.00504278,0.68114,0.00421724,0.00894729,1595,1660,5.3734,-11.7992
378,-636,5.38757,11.682,-0.000768873,-0.00193418,0.0027295,0.00143947,-0.00414253,0.680244,0.00334635,0.00940933,1602,1660,5.38756,-11.682
385,-636,5.41565,11.5511,-0.000628407,-0.001952,0.00203863,0.000853155,-0.00343356,0.628451,0.00262014,0.0141521,1609,1660,5.41565,-11.5511
392,-636,5.41455,11.4237,-0.000343651,-0.00160143,0.00158832,0.000735756,-0.00268083,0.596895,0.00207639,0.0151205,1616,1660,5.41457,-11.4237
399,-636,5.39575,11.2946,-8.19329e-05,-0.00131063,0.00119695,0.000649121,-0.00204168,0.548298,0.0016214,0.0118042,1623,1660,5.39572,-11.2946
406,-636,5.39429,11.1685,0.000109124,-0.00120081,0.00101891,0.000665423,-0.00175711,0.499746,0.00144521,0.0136684,1630,1660,5.39426,-11.1685
413,-636,5.41553,10.9935,0.00028844,-0.0014464,0.00108678,0.000811524,-0.00196948,0.44859,0.00165136,0.0218071,1637,1660,5.41547,-10.9936
420,-636,5.4043,10.8533,0.000562495,-0.00173899,0.00104826,0.000968368,-0.00214486,0.369414,0.00183971,0.0215694,1644,1660,5.40425,-10.8533
427,-636,5.4021,10.7612,0.000691054,-0.00221732,0.00110897,0.00106566,-0.00259193,0.325761,0.00217213,0.0124465,1651,1660,5.40209,-10.7613
434,-636,5.38574,10.615,0.000432163,-0.00265564,0.00125866,0.000880211,-0.00310368,0.341985,0.00241657,0.0112734,1658,1660,5.3858,-10.615
441,-636,5.40173,10.4542,0.00024222,-0.00245599,0.00170061,0.00106386,-0.00327764,0.450075,0.00261293,0.012379,1665,1660,5.40178,-10.4542
448,-636,5.45068,10.2976,-1.47429e-05,-0.00114251,0.00234768,0.00183582,-0.00299308,0.667537,0.00281453,0.0142231,1672,1660,5.45069,-10.2977
455,-636,5.44482,10.1382,-0.000355822,-0.000350874,0.00300019,0.00264685,-0.00335354,0.785811,0.00347233,0.0150967,1679,1660,5.4448,-10.1382
462,-636,5.38977,9.98779,-0.000584396,0.00143629,0.00350843,0.00407696,-0.00322507,0.925593,0.00422538,0.0190815,1686,1660,5.38975,-9.98775
469,-636,5.47034,9.89478,-0.000694983,0.00431088,0.00374865,0.00631539,-0.00269949,1.07975,0.00534248,0.0290415,1693,1660,5.4704,-9.89482
476,-636,5.64612,9.93225,0,0,0,0,0,0,0,-1,1700,1660,5.64615,-9.93226
483,-636,5.30188,9.28699,-0.000914757,0.0130505,0.00410085,0.0141657,-0.00202991,1.30528,0.010188,0.0466431,1707,1660,5.30191,-9.28695
490,-636,4.98059,9.01929,-0.000643812,0.0189067,0.00376672,0.0196073,-0.00134442,1.3869,0.013542,0.0487318,1714,1660,4.9806,-9.01927
497,-636,4.75391,8.93787,-4.17214e-05,0.0256535,0.00316435,0.0260374,-0.000425671,1.45005,0.0175019,0.0463757,1721,1660,4.75387,-8.93791
504,-636,4.85376,9.07483,0,0,0,0,0,0,0,-1,1728,1660,4.85378,-9.07477
511,-636,5.65466,9.23218,0,0,0,0,0,0,0,-1,1735,1660,5.65461,-9.23216
518,-636,6.72791,1.07605,0,0,0,0,0,0,0,-1,1742,1660,6.7279,-1.0761
525,-636,7.04309,0.93335,0,0,0,0,0,0,0,-1,1749,1660,7.04308,-0.933298
532,-636,0,0,0,0,0,0,0,0,0,-1,1756,1660,0,0
539,-636,0,0,0,0,0,0,0,0,0,-1,1763,1660,0,0
546,-636,0,0,0,0,0,0,0,0,0,-1,1770,1660,0,0
553,-636,0,0,0,0,0,0,0,0,0,-1,1777,1660,0,0
560,-636,0,0,0,0,0,0,0,0,0,-1,1784,1660,0,0
567,-636,0,0,0,0,0,0,0,0,0,-1,1791,1660,0,0
574,-636,0,0,0,0,0,0,0,0,0,-1,1798,1660,0,0
581,-636,0,0,0,0,0,0,0,0,0,-1,1805,1660,0,0
588,-636,0,0,0,0,0,0,0,0,0,-1,1812,1660,0,0
595,-636,0,0,0,0,0,0,0,0,0,-1,1819,1660,0,0
602,-636,0,0,0,0,0,0,0,0,0,-1,1826,1660,0,0
609,-636,0,0,0,0,0,0,0,0,0,-1,1833,1660,0,0
616,-636,0,0,0,0,0,0,0,0,0,-1,1840,1660,0,0
623,-636,0,0,0,0,0,0,0,0,0,-1,1847,1660,0,0
630,-636,0,0,0,0,0,0,0,0,0,-1,1854,1660,0,0
637,-636,0,0,0,0,0,0,0,0,0,-1,1861,1660,0,0
644,-636,0,0,0,0,0,0,0,0,0,-1,1868,1660,0,0
651,-636,0,0,0,0,0,0,0,0,0,-1,1875,1660,0,0
658,-636,0,0,0,0,0,0,0,0,0,-1,1882,1660,0,0
665,-636,0,0,0,0,0,0,0,0,0,-1,1889,1660,0,0
672,-636,0,0,0,0,0,0,0,0,0,-1,1896,1660,0,0
679,-636,0,0,0,0,0,0,0,0,0,-1,1903,1660,0,0
686,-636,0,0,0,0,0,0,0,0,0,-1,1910,1660,0,0
693,-636,0,0,0,0,0,0,0,0,0,-1,1917,1660,0,0
700,-636,0,0,0,0,0,0,0,0,0,-1,1924,1660,0,0
707,-636,0,0,0,0,0,0,0,0,0,-1,1931,1660,0,0
714,-636,0,0,0,0,0,0,0,0,0,-1,1938,1660,0,0
721,-636,0,0,0,0,0,0,0,0,0,-1,1945,1660,0,0
728,-636,0,0,0,0,0,0,0,0,0,-1,1952,1660,0,0
735,-636,0,0,0,0,0,0,0,0,0,-1,1959,1660,0,0
742,-636,0,0,0,0,0,0,0,0,0,-1,1966,1660,0,0
749,-636,0,0,0,0,0,0,0,0,0,-1,1973,1660,0,0
756,-636,0,0,0,0,0,0,0,0,0,-1,1980,1660,0,0
763,-636,0,0,0,0,0,0,0,0,0,-1,1987,1660,0,0
770,-636,0,0,0,0,0,0,0,0,0,-1,1994,1660,0,0
777,-636,0,0,0,0,0,0,0,0,0,-1,2001,1660,0,0
784,-636,0,0,0,0,0,0,0,0,0,-1,2008,1660,0,0
791,-636,0,0,0,0,0,0,0,0,0,-1,2015,1660,0,0
798,-636,0,0,0,0,0,0,0,0,0,-1,2022,1660,0,0
805,-636,0,0,0,0,0,0,0,0,0,-1,2029,1660,0,0
812,-636,0,0,0,0,0,0,0,0,0,-1,2036,1660,0,0
-700,-643,0,0,0,0,0,0,0,0,0,-1,524,1667,0,0
-693,-643,0,0,0,0,0,0,0,0,0,-1,531,1667,0,0
-686,-643,0,0,0,0,0,0,0,0,0,-1,538,1667,0,0
-679,-643,0,0,0,0,0,0,0,0,0,-1,545,1667,0,0
-672,-643,0,0,0,0,0,0,0,0,0,-1,552,1667,0,0
-665,-643,0,0,0,0,0,0,0,0,0,-1,559,1667,0,0
-658,-643,0,0,0,0,0,0,0,0,0,-1,566,1667,0,0
-651,-643,0,0,0,0,0,0,0,0,0,-1,573,1667,0,0
-644,-643,0,0,0,0,0,0,0,0,0,-1,580,1667,0,0
-637,-643,0,0,0,0,0,0,0,0,0,-1,587,1667,0,0
-630,-643,0,0,0,0,0,0,0,0,0,-1,594,1667,0,0
-623,-643,0,0,0,0,0,0,0,0,0,-1,601,1667,0,0
-616,-643,0,0,0,0,0,0,0,0,0,-1,608,1667,0,0
-609,-643,0,0,0,0,0,0,0,0,0,-1,615,1667,0,0
-602,-643,0,0,0,0,0,0,0,0,0,-1,622,1667,0,0
-595,-643,0,0,0,0,0,0,0,0,0,-1,629,1667,0,0
-588,-643,0,0,0,0,0,0,0,0,0,-1,636,1667,0,0
-581,-643,0,0,0,0,0,0,0,0,0,-1,643,1667,0,0
-574,-643,0,0,0,0,0,0,0,0,0,-1,650,1667,0,0
-567,-643,0,0,0,0,0,0,0,0,0,-1,657,1667,0,0
-560,-643,0,0,0,0,0,0,0,0,0,-1,664,1667,0,0
-553,-643,0,0,0,0,0,0,0,0,0,-1,671,1667,0,0
-546,-643,0,0,0,0,0,0,0,0,0,-1,678,1667,0,0
-539,-643,0,0,0,0,0,0,0,0,0,-1,685,1667,0,0
-532,-643,0,0,0,0,0,0,0,0,0,-1,692,1667,0,0
-525,-643,0,0,0,0,0,0,0,0,0,-1,699,1667,0,0
-518,-643,0,0,0,0,0,0,0,0,0,-1,706,1667,0,0
-511,-643,0,0,0,0,0,0,0,0,0,-1,713,1667,0,0
-504,-643,0,0,0,0,0,0,0,0,0,-1,720,1667,0,0
-497,-643,0,0,0,0,0,0,0,0,0,-1,727,1667,0,0
-490,-643,0,0,0,0,0,0,0,0,0,-1,734,1667,0,0
-483,-643,0,0,0,0,0,0,0,0,0,-1,741,1667,0,0
-476,-643,0,0,0,0,0,0,0,0,0,-1,748,1667,0,0
-469,-643,0,0,0,0,0,0,0,0,0,-1,755,1667,0,0
-462,-643,0,0,0,0,0,0,0,0,0,-1,762,1667,0,0
-455,-643,0,0,0,0,0,0,0,0,0,-1,769,1667,0,0
-448,-643,0,0,0,0,0,0,0,0,0,-1,776,1667,0,0
-441,-643,0,0,0,0,0,0,0,0,0,-1,783,1667,0,0
-434,-643,0,0,0,0,0,0,0,0,0,-1,790,1667,0,0
-427,-643,0,0,0,0,0,0,0,0,0,-1,797,1667,0,0
-420,-643,0,0,0,0,0,0,0,0,0,-1,804,1667,0,0
-413,-643,0,0,0,0,0,0,0,0,0,-1,811,1667,0,0
-406,-643,0,0,0,0,0,0,0,0,0,-1,818,1667,0,0
-399,-643,5.41827,5.08435,0,0,0,0,0,0,0,-1,825,1667,5.41826,-5.08434
-392,-643,6.14893,6.74487,0,0,0,0,0,0,0,-1,832,1667,6.14894,-6.74484
-385,-643,6.93591,8.33667,0,0,0,0,0,0,0,-1,839,1667,6.93591,-8.33669
-378,-643,5.29443,8.32349,0,0,0,0,0,0,0,-1,846,1667,5.29444,-8.32347
-371,-643,0.5849,3.26428,0,0,0,0,0,0,0,-1,853,1667,0.584909,-3.26426
-364,-643,1.69513,9.922,0,0,0,0,0,0,0,-1,860,1667,1.69511,-9.92205
-357,-643,2.09784,9.9458,0,0,0,0,0,0,0,-1,867,1667,2.09785,-9.9458
-350,-643,2.50061,9.96948,0,0,0,0,0,0,0,-1,874,1667,2.50059,-9.96954
-343,-643,2.61505,6.17407,0,0,0,0,0,0,0,-1,881,1667,2.61504,-6.17412
-336,-643,2.85339,8.927,0,0,0,0,0,0,0,-1,888,1667,2.85337,-8.92703
-329,-643,3.08221,8.88855,0.000617223,-0.00295248,0.00209215,0.00158243,-0.00391768,0.432248,0.00326951,0.0377338,895,1667,3.08224,-8.88855
-322,-643,2.92163,9.10059,0.000629408,-0.000359601,0.00108898,0.00133091,-0.0010611,0.57227,0.00138395,0.026032,902,1667,2.92164,-9.10061
-315,-643,2.85699,9.2655,0.000381939,0.00115695,0.000679874,0.001552,-1.31076e-05,1.04442,0.00103906,0.0168837,909,1667,2.85697,-9.26547
-308,-643,2.85693,9.42615,2.50827e-06,0.00231583,0.000212874,0.00233525,-1.69175e-05,1.47979,0.0015625,0.0122864,916,1667,2.85692,-9.42619
-301,-643,2.86615,9.62097,-0.000152793,0.00295316,-7.04324e-05,0.00295476,-0.00015439,-1.54814,0.00202327,0.0134174,923,1667,2.86618,-9.62098
-294,-643,2.83832,9.79016,-0.000170447,0.00319007,-0.000204908,0.00320251,-0.000182895,-1.51012,0.00219851,0.011253,930,1667,2.83835,-9.7901
-287,-643,2.83447,9.95251,-0.000193224,0.0030746,-0.000205629,0.00308749,-0.000206112,-1.5082,0.00213036,0.00989989,937,1667,2.8345,-9.95248
-280,-643,2.85602,10.1162,-0.000194751,0.00283818,-0.000143557,0.00284496,-0.000201531,-1.5236,0.00196726,0.0139849,944,1667,2.85603,-10.1162
-273,-643,2.85791,10.2445,8.88523e-05,0.00235437,-6.55191e-05,0.00235626,8.69592e-05,-1.54191,0.00154267,0.0120866,951,1667,2.8579,-10.2446
-266,-643,2.84247,10.3875,0.000393229,0.00203043,7.94718e-05,0.00203428,0.00038938,1.52241,0.00124683,0.0109812,958,1667,2.84246,-10.3874
-259,-643,2.85345,10.5455,0.000609865,0.00146173,0.000233869,0.00152171,0.000549882,1.31973,0.000889747,0.0108611,965,1667,2.85346,-10.5455
-252,-643,2.86139,10.72,0.000634634,0.000598973,0.000258252,0.00087567,0.000357937,0.750931,0.000508367,0.0125824,972,1667,2.86137,-10.72
-245,-643,2.85718,10.8768,0.000709087,-0.000371867,0.000146232,0.00072852,-0.0003913,0.132117,0.000656227,0.0114238,979,1667,2.85716,-10.8768
-238,-643,2.89832,10.9956,0.000975245,-0.00170025,2.2807e-05,0.00097544,-0.00170044,0.00852357,0.00156371,0.0141862,986,1667,2.89831,-10.9956
-231,-643,2.86102,11.1429,0.00141563,-0.00314166,3.56488e-05,0.00141591,-0.00314193,0.00782173,0.00269364,0.0111538,993,1667,2.86103,-11.143
-224,-643,2.8576,11.2712,0.00174128,-0.00459444,7.49539e-06,0.00174129,-0.00459445,0.00118303,0.00377955,0.00985946,1000,1667,2.85761,-11.2712
-217,-643,2.86261,11.386,0.00171848,-0.00600929,-0.000198944,0.0017236,-0.00601441,-0.0257213,0.00469091,0.00897959,1007,1667,2.86261,-11.386
-210,-643,2.87219,11.5382,0.000520537,-0.0083012,-0.000760769,0.000585664,-0.00836632,-0.0853978,0.00578267,0.0106889,1014,1667,2.87221,-11.5382
-203,-643,2.89105,11.6918,-0.0014677,-0.0118807,-0.00186156,-0.00114491,-0.0122035,-0.171691,0.00778213,0.0112365,1021,1667,2.89107,-11.6917
-196,-643,2.90161,11.8142,-0.00250307,-0.0145018,-0.00289015,-0.0018432,-0.0151616,-0.224468,0.00955282,0.0117056,1028,1667,2.90163,-11.8142
-189,-643,2.94226,11.9315,-0.00354245,-0.016483,-0.00362726,-0.00259507,-0.0174304,-0.255474,0.0108591,0.011994,1035,1667,2.94227,-11.9315
-182,-643,2.98706,12.0444,-0.00507061,-0.0191484,-0.00466462,-0.00366529,-0.0205537,-0.292623,0.0126589,0.0194898,1042,1667,2.98701,-12.0444
-175,-643,3.02795,12.1334,-0.00648529,-0.0214782,-0.00561553,-0.00461526,-0.0233482,-0.321459,0.0142779,0.0333861,1049,1667,3.0279,-12.1334
-168,-643,2.99341,12.2239,-0.00759537,-0.0231206,-0.00636453,-0.00531979,-0.0253962,-0.343378,0.0154656,0.0408863,1056,1667,2.99336,-12.2239
-161,-643,2.71826,12.1755,-0.00803434,-0.0234965,-0.0067024,-0.00553352,-0.0259973,-0.357124,0.0158131,0.045278,1063,1667,2.71821,-12.1755
-154,-643,2.48975,12.1709,-0.00764895,-0.0234514,-0.00676369,-0.00514936,-0.025951,-0.353993,0.0158652,0.0448638,1070,1667,2.48971,-12.1709
-147,-643,2.34705,11.9727,-0.00639564,-0.0221654,-0.00620841,-0.0042448,-0.0243162,-0.3335,0.0149975,0.048241,1077,1667,2.34703,-11.9726
-140,-643,2.43872,11.5688,0,0,0,0,0,0,0,-1,1084,1667,2.43876,-11.5689
-133,-643,2.78589,11.9738,0,0,0,0,0,0,0,-1,1091,1667,2.78594,-11.9738
-126,-643,1.29236,11.0852,0,0,0,0,0,0,0,-1,1098,1667,1.29231,-11.0852
-119,-643,2.54517,13.4681,0,0,0,0,0,0,0,-1,1105,1667,2.54516,-13.4682
-112,-643,3.81458,16.2069,0,0,0,0,0,0,0,-1,1112,1667,3.81463,-16.2069
-105,-643,-2.23413,10.0996,0,0,0,0,0,0,0,-1,1119,1667,-2.23415,-10.0996
-98,-643,3.11035,4.68066,0,0,0,0,0,0,0,-1,1126,1667,3.11041,-4.68071
-91,-643,-1.74146,-2.5885,0,0,0,0,0,0,0,-1,1133,1667,-1.74146,2.58856
-84,-643,-3.07446,-0.199341,0,0,0,0,0,0,0,-1,1140,1667,-3.07449,0.199383
-77,-643,-3.63794,2.81165,0,0,0,0,0,0,0,-1,1147,1667,-3.63791,-2.8117
-70,-643,-3.36938,4.45203,0,0,0,0,0,0,0,-1,1154,1667,-3.36941,-4.452
-63,-643,-3.67822,6.26855,0,0,0,0,0,0,0,-1,1161,1667,-3.67823,-6.26856
-56,-643,-3.95142,8.1073,0,0,0,0,0,0,0,-1,1168,1667,-3.95139,-8.10732
-49,-643,-4.23535,9.90552,0,0,0,0,0,0,0,-1,1175,1667,-4.23537,-9.90557
-42,-643,-4.25195,10.7059,0,0,0,0,0,0,0,-1,1182,1667,-4.25192,-10.706
-35,-643,-4.10986,11.6588,0,0,0,0,0,0,0,-1,1189,1667,-4.10982,-11.6589
-28,-643,-1.38513,5.604,0,0,0,0,0,0,0,-1,1196,1667,-1.3851,-5.60403
-21,-643,1.94421,11.4835,0,0,0,0,0,0,0,-1,1203,1667,1.9442,-11.4835
-14,-643,5.39832,10.4778,0,0,0,0,0,0,0,-1,1210,1667,5.39827,-10.4778
-7,-643,1.67114,15.299,0,0,0,0,0,0,0,-1,1217,1667,1.67111,-15.299
0,-643,1.11023,15.9446,0,0,0,0,0,0,0,-1,1224,1667,1.11023,-15.9446
7,-643,5.41565,12.9962,-0.0321981,0.0199829,0.0232974,0.0288707,-0.0410859,1.20634,0.0405942,0.0472038,1231,1667,5.41567,-12.9963
14,-643,4.53674,13.8329,-0.0395245,0.0212476,0.0179778,0.0261676,-0.0444444,1.30367,0.0412206,0.0435565,1238,1667,4.53673,-13.8329
21,-643,3.78271,14.3086,-0.029944,0.0250576,0.0110154,0.0271817,-0.0320681,1.38031,0.0342466,0.0441139,1245,1667,3.78267,-14.3086
28,-643,2.92712,14.4015,-0.00675989,0.0285872,0.00531788,0.0293699,-0.00754262,1.42466,0.0225192,0.0440941,1252,1667,2.92713,-14.4015
35,-643,2.13574,14.5063,0.020173,0.0326391,0.00188096,0.0329167,0.0198953,1.42426,0.0191421,0.0437804,1259,1667,2.13575,-14.5063
42,-643,1.20715,14.364,0.0534781,0.0369877,0.000379603,0.0534869,0.0369789,0.0230033,0.0316256,0.0469624,1266,1667,1.20719,-14.364
49,-643,0.0493164,14.588,0.0913144,0.0413711,0.000981692,0.0913337,0.0413518,0.019646,0.05281,0.0443604,1273,1667,0.0493443,-14.588
56,-643,-1.00146,14.9863,0.132236,0.0479754,0.00436809,0.132462,0.0477496,0.0516555,0.0774632,0.0446479,1280,1667,-1.0015,-14.9863
63,-643,-2.21301,15.251,0.174738,0.0541354,0.0092227,0.175439,0.0534342,0.075884,0.103837,0.0470349,1287,1667,-2.21307,-15.251
70,-643,-3.51904,15.4769,0.205374,0.0589665,0.0174948,0.207435,0.056905,0.117294,0.123762,0.0455902,1294,1667,-3.51899,-15.4769
77,-643,4.19128,14.1364,0.225543,0.0661116,0.0283514,0.230434,0.06122,0.170853,0.137825,0.0451267,1301,1667,4.19126,-14.1364
84,-643,4.1958,15.0829,0,0,0,0,0,0,0,-1,1308,1667,4.19577,-15.0828
91,-643,6.49463,17.0781,0,0,0,0,0,0,0,-1,1315,1667,6.49468,-17.0782
98,-643,7.57581,17.5367,0,0,0,0,0,0,0,-1,1322,1667,7.5758,-17.5367
105,-643,8.39404,17.2086,0,0,0,0,0,0,0,-1,1329,1667,8.39404,-17.2086
112,-643,8.43616,16.0425,0,0,0,0,0,0,0,-1,1336,1667,8.43622,-16.0425
119,-643,8.50317,15.5524,0,0,0,0,0,0,0,-1,1343,1667,8.50322,-15.5524
126,-643,8.57019,15.0623,0,0,0,0,0,0,0,-1,1350,1667,8.57022,-15.0622
133,-643,9.27209,16.2577,0,0,0,0,0,0,0,-1,1357,1667,9.27208,-16.2577
140,-643,9.41431,16.577,0,0,0,0,0,0,0,-1,1364,1667,9.41433,-16.577
147,-643,0.716797,8.4635,0,0,0,0,0,0,0,-1,1371,1667,0.716745,-8.46347
154,-643,2.53992,13.4635,0,0,0,0,0,0,0,-1,1378,1667,2.53993,-13.4636
161,-643,12.2321,5.97412,0,0,0,0,0,0,0,-1,1385,1667,12.232,-5.97411
168,-643,10.5563,10.9818,0,0,0,0,0,0,0,-1,1392,1667,10.5562,-10.9819
175,-643,5.88525,-1.1698,0,0,0,0,0,0,0,-1,1399,1667,5.88526,1.16977
182,-643,5.80945,-0.418701,0,0,0,0,0,0,0,-1,1406,1667,5.80949,0.418712
189,-643,5.42297,12.9208,0,0,0,0,0,0,0,-1,1413,1667,5.42298,-12.9208
196,-643,5.51953,11.2415,0,0,0,0,0,0,0,-1,1420,1667,5.51948,-11.2414
203,-643,5.60828,9.82153,0,0,0,0,0,0,0,-1,1427,1667,5.60833,-9.82148
210,-643,4.73218,7.58728,0,0,0,0,0,0,0,-1,1434,1667,4.73222,-7.58728
217,-643,3.8031,5.28955,0,0,0,0,0,0,0,-1,1441,1667,3.80305,-5.28955
224,-643,2.96436,2.97095,0,0,0,0,0,0,0,-1,1448,1667,2.96432,-2.97095
231,-643,2.13403,1.08472,0,0,0,0,0,0,0,-1,1455,1667,2.13403,-1.08467
238,-643,1.18152,-0.261963,0,0,0,0,0,0,0,-1,1462,1667,1.18152,0.26192
245,-643,-0.157471,-1.79016,0,0,0,0,0,0,0,-1,1469,1667,-0.157517,1.7901
252,-643,8.08789,0.0202637,0,0,0,0,0,0,0,-1,1476,1667,8.08791,-0.0203056
259,-643,9.02979,-0.46936,0,0,0,0,0,0,0,-1,1483,1667,9.02974,0.46933
266,-643,4.55066,5.17554,0,0,0,0,0,0,0,-1,1490,1667,4.55063,-5.17556
273,-643,4.34363,6.56836,0,0,0,0,0,0,0,-1,1497,1667,4.34363,-6.5684
280,-643,4.83948,13.7715,0,0,0,0,0,0,0,-1,1504,1667,4.83945,-13.7715
287,-643,5.01648,13.205,0,0,0,0,0,0,0,-1,1511,1667,5.01652,-13.205
294,-643,6.08118,12.9843,-0.00460088,0.00869216,0.0114946,0.0153236,-0.0112323,1.04753,0.0153926,0.0462932,1518,1667,6.08123,-12.9842
301,-643,5.79492,13.1006,-0.00409757,0.00626558,0.0113708,0.0135798,-0.0114118,0.999186,0.014447,0.0373595,1525,1667,5.79486,-13.1006
308,-643,5.25073,12.6699,-0.00328428,0.0044028,0.0106266,0.0118596,-0.0107411,0.958924,0.0130538,0.036561,1532,1667,5.25078,-12.6699
315,-643,5.21497,12.6276,-0.00251821,0.00282237,0.00975307,0.0102641,-0.00995994,0.919019,0.0116768,0.0265308,1539,1667,5.21501,-12.6275
322,-643,5.19275,12.5737,-0.00194223,0.00163836,0.00876164,0.00879075,-0.00909461,0.886178,0.0103266,0.0146306,1546,1667,5.19281,-12.5737
329,-643,5.2301,12.4486,-0.00131293,0.000721103,0.00758065,0.00735266,-0.00794449,0.85208,0.00883401,0.0115024,1553,1667,5.23012,-12.4486
336,-643,5.21179,12.3658,-0.00101542,-0.000351015,0.00675495,0.0060799,-0.00744634,0.809968,0.00782265,0.0111107,1560,1667,5.21175,-12.3658
343,-643,5.21362,12.2751,-0.00102204,-0.000860261,0.00581254,0.00487196,-0.00675425,0.792356,0.00674166,0.013306,1567,1667,5.2136,-12.2751
350,-643,5.24365,12.1436,-0.000737548,-0.00122619,0.0044843,0.00350908,-0.00547282,0.758183,0.00522685,0.0123298,1574,1667,5.24366,-12.1435
357,-643,5.24805,12.0365,-0.000344443,-0.00155898,0.00350842,0.00260888,-0.0045123,0.699703,0.00416008,0.0105018,1581,1667,5.24809,-12.0365
364,-643,5.25256,11.9288,-0.000229454,-0.00139744,0.00283329,0.0020794,-0.00370629,0.683763,0.0033841,0.00951068,1588,1667,5.25261,-11.9289
371,-643,5.24365,11.8094,-0.000248002,-0.00120529,0.00221666,0.00154111,-0.0029944,0.679066,0.00266301,0.00774364,1595,1667,5.24368,-11.8095
378,-643,5.26575,11.6956,-0.000178199,-0.000948987,0.00155951,0.00104283,-0.00217001,0.664262,0.0018926,0.00929645,1602,1667,5.26574,-11.6956
385,-643,5.2948,11.5682,2.27808e-05,-0.000926162,0.000955431,0.000615067,-0.00151845,0.554935,0.00126806,0.0150456,1609,1667,5.29483,-11.5683
392,-643,5.28345,11.4092,0.000316745,-0.000643687,0.000540092,0.000559237,-0.000886179,0.422008,0.000841598,0.0161084,1616,1667,5.2834,-11.4092
399,-643,5.24854,11.2991,0.000540063,-0.000464336,0.0002461,0.000597121,-0.000521395,0.227826,0.000646269,0.0133387,1623,1667,5.24854,-11.2991
406,-643,5.25476,11.1689,0.00068905,-0.000536527,0.000208715,0.000723619,-0.000571096,0.164138,0.000749231,0.0120314,1630,1667,5.25472,-11.169
413,-643,5.28699,10.9946,0.000854405,-0.0010415,0.00047296,0.000965841,-0.00115294,0.231395,0.00122487,0.017874,1637,1667,5.28693,-10.9947
420,-643,5.26709,10.8595,0.00110202,-0.00161646,0.000645221,0.00124739,-0.00176183,0.221598,0.00174582,0.0171037,1644,1667,5.26703,-10.8594
427,-643,5.27075,10.7521,0.00115558,-0.00243801,0.0010017,0.00141594,-0.00269837,0.254289,0.00241356,0.0144119,1651,1667,5.27081,-10.7521
434,-643,5.26428,10.6116,0.00079112,-0.00325146,0.0014624,0.00126467,-0.00372501,0.313161,0.00299525,0.015565,1658,1667,5.26434,-10.6116
441,-643,5.28064,10.4546,0.00055474,-0.00314457,0.00222249,0.00159657,-0.0041864,0.438351,0.0034486,0.0148051,1665,1667,5.28059,-10.4546
448,-643,5.35083,10.3103,0.000284479,-0.00145713,0.00318928,0.0027197,-0.00389235,0.652126,0.00383743,0.0196036,1672,1667,5.35089,-10.3103
455,-643,5.22107,10.2227,-6.098e-05,-0.000519863,0.0042309,0.00394669,-0.00452754,0.75831,0.00489643,0.0269703,1679,1667,5.22105,-10.2226
462,-643,5.32617,10.0973,-0.000148985,0.00189745,0.0049145,0.00589413,-0.00414566,0.888034,0.0058257,0.0359821,1686,1667,5.32615,-10.0972
469,-643,5.48596,10.0172,-0.000120834,0.00568603,0.00530792,0.00883271,-0.00326752,1.03567,0.00722817,0.0412026,1693,1667,5.48598,-10.0172
476,-643,5.54114,9.93469,0,0,0,0,0,0,0,-1,1700,1667,5.54114,-9.93466
483,-643,5.30249,9.47864,0,0,0,0,0,0,0,-1,1707,1667,5.30244,-9.47869
490,-643,4.40601,8.41614,0,0,0,0,0,0,0,-1,1714,1667,4.40604,-8.41613
497,-643,4.50024,8.55762,0,0,0,0,0,0,0,-1,1721,1667,4.50027,-8.55762
504,-643,4.59448,8.6991,0,0,0,0,0,0,0,-1,1728,1667,4.59451,-8.69911
511,-643,5.49524,8.6012,0,0,0,0,0,0,0,-1,1735,1667,5.49524,-8.60114
518,-643,7.40564,0.922607,0,0,0,0,0,0,0,-1,1742,1667,7.4057,-0.922598
525,-643,0,0,0,0,0,0,0,0,0,-1,1749,1667,0,0
532,-643,0,0,0,0,0,0,0,0,0,-1,1756,1667,0,0
539,-643,0,0,0,0,0,0,0,0,0,-1,1763,1667,0,0
546,-643,0,0,0,0,0,0,0,0,0,-1,1770,1667,0,0
553,-643,0,0,0,0,0,0,0,0,0,-1,1777,1667,0,0
560,-643,0,0,0,0,0,0,0,0,0,-1,1784,1667,0,0
567,-643,0,0,0,0,0,0,0,0,0,-1,1791,1667,0,0
574,-643,0,0,0,0,0,0,0,0,0,-1,1798,1667,0,0
581,-643,0,0,0,0,0,0,0,0,0,-1,1805,1667,0,0
588,-643,0,0,0,0,0,0,0,0,0,-1,1812,1667,0,0
595,-643,0,0,0,0,0,0,0,0,0,-1,1819,1667,0,0
602,-643,0,0,0,0,0,0,0,0,0,-1,1826,1667,0,0
609,-643,0,0,0,0,0,0,0,0,0,-1,1833,1667,0,0
616,-643,0,0,0,0,0,0,0,0,0,-1,1840,1667,0,0
623,-643,0,0,0,0,0,0,0,0,0,-1,1847,1667,0,0
630,-643,0,0,0,0,0,0,0,0,0,-1,1854,1667,0,0
637,-643,0,0,0,0,0,0,0,0,0,-1,1861,1667,0,0
644,-643,0,0,0,0,0,0,0,0,0,-1,1868,1667,0,0
651,-643,0,0,0,0,0,0,0,0,0,-1,1875,1667,0,0
658,-643,0,0,0,0,0,0,0,0,0,-1,1882,1667,0,0
665,-643,0,0,0,0,0,0,0,0,0,-1,1889,1667,0,0
672,-643,0,0,0,0,0,0,0,0,0,-1,1896,1667,0,0
679,-643,0,0,0,0,0,0,0,0,0,-1,1903,1667,0,0
686,-643,0,0,0,0,0,0,0,0,0,-1,1910,1667,0,0
693,-643,0,0,0,0,0,0,0,0,0,-1,1917,1667,0,0
700,-643,0,0,0,0,0,0,0,0,0,-1,1924,1667,0,0
707,-643,0,0,0,0,0,0,0,0,0,-1,1931,1667,0,0
714,-643,0,0,0,0,0,0,0,0,0,-1,1938,1667,0,0
721,-643,0,0,0,0,0,0,0,0,0,-1,1945,1667,0,0
728,-643,0,0,0,0,0,0,0,0,0,-1,1952,1667,0,0
735,-643,0,0,0,0,0,0,0,0,0,-1,1959,1667,0,0
742,-643,0,0,0,0,0,0,0,0,0,-1,1966,1667,0,0
749,-643,0,0,0,0,0,0,0,0,0,-1,1973,1667,0,0
756,-643,0,0,0,0,0,0,0,0,0,-1,1980,1667,0,0
763,-643,0,0,0,0,0,0,0,0,0,-1,1987,1667,0,0
770,-643,0,0,0,0,0,0,0,0,0,-1,1994,1667,0,0
777,-643,0,0,0,0,0,0,0,0,0,-1,2001,1667,0,0
784,-643,0,0,0,0,0,0,0,0,0,-1,2008,1667,0,0
791,-643,0,0,0,0,0,0,0,0,0,-1,2015,1667,0,0
798,-643,0,0,0,0,0,0,0,0,0,-1,2022,1667,0,0
805,-643,0,0,0,0,0,0,0,0,0,-1,2029,1667,0,0
812,-643,0,0,0,0,0,0,0,0,0,-1,2036,1667,0,0
-700,-650,0,0,0,0,0,0,0,0,0,-1,524,1674,0,0
-693,-650,0,0,0,0,0,0,0,0,0,-1,531,1674,0,0
-686,-650,0,0,0,0,0,0,0,0,0,-1,538,1674,0,0
-679,-650,0,0,0,0,0,0,0,0,0,-1,545,1674,0,0
-672,-650,0,0,0,0,0,0,0,0,0,-1,552,1674,0,0
-665,-650,0,0,0,0,0,0,0,0,0,-1,559,1674,0,0
-658,-650,0,0,0,0,0,0,0,0,0,-1,566,1674,0,0
-651,-650,0,0,0,0,0,0,0,0,0,-1,573,1674,0,0
-644,-650,0,0,0,0,0,0,0,0,0,-1,580,1674,0,0
-637,-650,0,0,0,0,0,0,0,0,0,-1,587,1674,0,0
-630,-650,0,0,0,0,0,0,0,0,0,-1,594,1674,0,0
-623,-650,0,0,0,0,0,0,0,0,0,-1,601,1674,0,0
-616,-650,0,0,0,0,0,0,0,0,0,-1,608,1674,0,0
-609,-650,0,0,0,0,0,0,0,0,0,-1,615,1674,0,0
-602,-650,0,0,0,0,0,0,0,0,0,-1,622,1674,0,0
-595,-650,0,0,0,0,0,0,0,0,0,-1,629,1674,0,0
-588,-650,0,0,0,0,0,0,0,0,0,-1,636,1674,0,0
-581,-650,0,0,0,0,0,0,0,0,0,-1,643,1674,0,0
-574,-650,0,0,0,0,0,0,0,0,0,-1,650,1674,0,0
-567,-650,0,0,0,0,0,0,0,0,0,-1,657,1674,0,0
-560,-650,0,0,0,0,0,0,0,0,0,-1,664,1674,0,0
-553,-650,0,0,0,0,0,0,0,0,0,-1,671,1674,0,0
-546,-650,0,0,0,0,0,0,0,0,0,-1,678,1674,0,0
-539,-650,0,0,0,0,0,0,0,0,0,-1,685,1674,0,0
-532,-650,0,0,0,0,0,0,0,0,0,-1,692,1674,0,0
-525,-650,0,0,0,0,0,0,0,0,0,-1,699,1674,0,0
-518,-650,0,0,0,0,0,0,0,0,0,-1,706,1674,0,0
-511,-650,0,0,0,0,0,0,0,0,0,-1,713,1674,0,0
-504,-650,0,0,0,0,0,0,0,0,0,-1,720,1674,0,0
-497,-650,0,0,0,0,0,0,0,0,0,-1,727,1674,0,0
-490,-650,0,0,0,0,0,0,0,0,0,-1,734,1674,0,0
-483,-650,0,0,0,0,0,0,0,0,0,-1,741,1674,0,0
-476,-650,0,0,0,0,0,0,0,0,0,-1,748,1674,0,0
-469,-650,0,0,0,0,0,0,0,0,0,-1,755,1674,0,0
-462,-650,0,0,0,0,0,0,0,0,0,-1,762,1674,0,0
-455,-650,0,0,0,0,0,0,0,0,0,-1,769,1674,0,0
-448,-650,0,0,0,0,0,0,0,0,0,-1,776,1674,0,0
-441,-650,0,0,0,0,0,0,0,0,0,-1,783,1674,0,0
-434,-650,0,0,0,0,0,0,0,0,0,-1,790,1674,0,0
-427,-650,0,0,0,0,0,0,0,0,0,-1,797,1674,0,0
-420,-650,0,0,0,0,0,0,0,0,0,-1,804,1674,0,0
-413,-650,0,0,0,0,0,0,0,0,0,-1,811,1674,0,0
-406,-650,0,0,0,0,0,0,0,0,0,-1,818,1674,0,0
-399,-650,0,0,0,0,0,0,0,0,0,-1,825,1674,0,0
-392,-650,7.82001,7.32654,0,0,0,0,0,0,0,-1,832,1674,7.82001,-7.32648
-385,-650,8.7821,8.6189,0,0,0,0,0,0,0,-1,839,1674,8.78213,-8.61893
-378,-650,0.997986,4.11108,0,0,0,0,0,0,0,-1,846,1674,0.998006,-4.11113
-371,-650,-1.80096,3.78625,0,0,0,0,0,0,0,-1,853,1674,-1.80094,-3.78625
-364,-650,-2.95679,2.57507,0,0,0,0,0,0,0,-1,860,1674,-2.95681,-2.57506
-357,-650,1.82904,10.6912,0,0,0,0,0,0,0,-1,867,1674,1.82902,-10.6912
-350,-650,-5.30243,0.159912,0,0,0,0,0,0,0,-1,874,1674,-5.30244,-0.159866
-343,-650,-6.21338,-1.4425,0,0,0,0,0,0,0,-1,881,1674,-6.21341,1.44248
-336,-650,3.51459,8.10864,0,0,0,0,0,0,0,-1,888,1674,3.51456,-8.10868
-329,-650,3.39465,8.62598,0.00105476,-0.00251951,0.00231011,0.00218832,-0.00365307,0.456176,0.00340769,0.047892,895,1674,3.39466,-8.62594
-322,-650,3.15643,9.19788,0.000612073,0.000505895,0.00103599,0.00159633,-0.000478366,0.759798,0.00125446,0.0442085,902,1674,3.15646,-9.19789
-315,-650,3.01648,9.23767,0.000222732,0.00225064,0.000497434,0.00236608,0.000107286,1.34275,0.00154287,0.0417384,909,1674,3.01647,-9.23766
-308,-650,3.02747,9.35889,-0.000319957,0.00356248,-7.7268e-05,0.00356401,-0.000321494,-1.5509,0.0024901,0.0224493,916,1674,3.02744,-9.35888
-301,-650,3.03662,9.5979,-0.000630999,0.00428873,-0.000418214,0.00432403,-0.000666297,-1.48659,0.00312853,0.0113644,923,1674,3.03659,-9.59791
-294,-650,3.00586,9.76746,-0.00080696,0.0046146,-0.000584352,0.00467687,-0.000869228,-1.46464,0.00344441,0.00935882,930,1674,3.00589,-9.76748
-287,-650,2.98499,9.92358,-0.000950106,0.00453811,-0.000579308,0.00459859,-0.00101059,-1.46677,0.00345225,0.0122334,937,1674,2.985,-9.92363
-280,-650,2.99597,10.0837,-0.00105784,0.00431191,-0.000474058,0.00435344,-0.00109937,-1.48341,0.0033298,0.0135562,944,1674,2.99594,-10.0837
-273,-650,2.99176,10.2429,-0.000816996,0.00380522,-0.00035404,0.00383218,-0.000843956,-1.49479,0.00287766,0.0127715,951,1674,2.99177,-10.2429
-266,-650,2.97852,10.3971,-0.000527594,0.0035158,-0.00016078,0.00352218,-0.000533977,-1.53112,0.00254486,0.0105303,958,1674,2.97854,-10.3971
-259,-650,2.99622,10.5463,-0.000300164,0.00296649,4.31359e-05,0.00296706,-0.000300734,1.55759,0.00208553,0.0129922,965,1674,2.99624,-10.5463
-252,-650,3.01526,10.7196,-0.000286926,0.00217433,0.000101025,0.00217847,-0.000291066,1.52984,0.00155842,0.0122675,972,1674,3.01524,-10.7196
-245,-650,3.01361,10.8719,-0.000124004,0.00125486,5.68654e-05,0.0012572,-0.000126345,1.52965,0.000883267,0.0113483,979,1674,3.01364,-10.8719
-238,-650,3.01776,10.9962,0.000193855,7.73462e-05,2.70105e-05,0.000199813,7.13889e-05,0.217079,0.000116918,0.0122845,986,1674,3.01776,-10.9962
-231,-650,2.98621,11.1442,0.000615817,-0.00121162,0.000108015,0.000622179,-0.00121799,0.0588341,0.00108082,0.0169595,993,1674,2.98618,-11.1442
-224,-650,2.98114,11.2833,0.00112772,-0.00252453,0.000158972,0.00113463,-0.00253144,0.0434176,0.00216721,0.0144568,1000,1674,2.98113,-11.2833
-217,-650,2.99915,11.3906,0.00122106,-0.00380253,-3.70462e-05,0.00122133,-0.00380281,-0.00737391,0.00302563,0.00998851,1007,1674,2.99916,-11.3906
-210,-650,3.00983,11.5365,0.000382124,-0.00569792,-0.000497065,0.000422493,-0.00573829,-0.0810364,0.00397385,0.00887472,1014,1674,3.00985,-11.5365
-203,-650,3.03088,11.6844,-0.00102447,-0.00847647,-0.00133696,-0.000791871,-0.00870907,-0.172255,0.00556091,0.0130812,1021,1674,3.03089,-11.6845
-196,-650,3.0415,11.7971,-0.00185979,-0.0106644,-0.00218813,-0.00134597,-0.0111782,-0.230641,0.00704644,0.0132281,1028,1674,3.04151,-11.7972
-189,-650,3.03687,11.9216,-0.00278223,-0.0125306,-0.00287144,-0.00199931,-0.0133136,-0.266186,0.00829003,0.011147,1035,1674,3.03681,-11.9216
-182,-650,3.05005,12.0594,-0.00400138,-0.014792,-0.00376735,-0.00281624,-0.0159771,-0.304781,0.00984782,0.0102231,1042,1674,3.05006,-12.0595
-175,-650,3.07141,12.1528,-0.00516799,-0.0168672,-0.00463876,-0.00355194,-0.0184832,-0.335231,0.0113254,0.0146005,1049,1674,3.07145,-12.1529
-168,-650,3.04016,12.2397,-0.0061534,-0.0184789,-0.00535977,-0.00414873,-0.0204835,-0.357912,0.0125043,0.0187958,1056,1674,3.04012,-12.2397
-161,-650,2.9469,12.3192,-0.00666241,-0.0190752,-0.00574316,-0.00441285,-0.0213248,-0.373325,0.0129977,0.026544,1063,1674,2.94687,-12.3193
-154,-650,2.90063,12.4424,-0.00660245,-0.0195134,-0.00593941,-0.00428582,-0.02183,-0.371894,0.013356,0.0292931,1070,1674,2.90062,-12.4424
-147,-650,2.86121,12.4429,-0.00597072,-0.0190627,-0.00567516,-0.00385314,-0.0211802,-0.357132,0.0130271,0.0388302,1077,1674,2.86122,-12.4429
-140,-650,2.85083,12.4257,0,0,0,0,0,0,0,-1,1084,1674,2.85083,-12.4256
-133,-650,2.96875,12.2961,0,0,0,0,0,0,0,-1,1091,1674,2.9688,-12.2962
-126,-650,3.3064,12.7003,0,0,0,0,0,0,0,-1,1098,1674,3.30646,-12.7004
-119,-650,3.21997,13.0941,0,0,0,0,0,0,0,-1,1105,1674,3.22002,-13.0941
-112,-650,3.82629,13.8242,0,0,0,0,0,0,0,-1,1112,1674,3.82625,-13.8243
-105,-650,4.9259,12.0626,0,0,0,0,0,0,0,-1,1119,1674,4.92591,-12.0626
-98,-650,3.3761,6.78003,0,0,0,0,0,0,0,-1,1126,1674,3.37611,-6.78009
-91,-650,3.66809,7.04443,0,0,0,0,0,0,0,-1,1133,1674,3.66806,-7.04439
-84,-650,-3.82666,-1.59521,0,0,0,0,0,0,0,-1,1140,1674,-3.82661,1.59517
-77,-650,-4.70557,1.90198,0,0,0,0,0,0,0,-1,1147,1674,-4.7056,-1.90194
-70,-650,-4.88171,3.81653,0,0,0,0,0,0,0,-1,1154,1674,-4.88176,-3.81651
-63,-650,-5.14612,5.56543,0,0,0,0,0,0,0,-1,1161,1674,-5.14612,-5.56547
-56,-650,-5.38367,7.41101,0,0,0,0,0,0,0,-1,1168,1674,-5.38361,-7.41102
-49,-650,-5.11316,8.23706,0,0,0,0,0,0,0,-1,1175,1674,-5.11317,-8.23708
-42,-650,-4.99487,9.6792,0,0,0,0,0,0,0,-1,1182,1674,-4.99484,-9.67921
-35,-650,-4.77771,11.3369,0,0,0,0,0,0,0,-1,1189,1674,-4.77769,-11.3369
-28,-650,-4.1936,13.1501,0,0,0,0,0,0,0,-1,1196,1674,-4.19358,-13.1501
-21,-650,3.4165,11.1599,0,0,0,0,0,0,0,-1,1203,1674,3.41654,-11.1599
-14,-650,1.78955,15.2094,0,0,0,0,0,0,0,-1,1210,1674,1.78951,-15.2093
-7,-650,1.76306,15.193,-0.00829347,0.0144708,0.0245135,0.0301158,-0.0239385,1.00275,0.0312761,0.0468598,1217,1674,1.76308,-15.193
0,-650,1.71143,15.4839,-0.0154772,0.0184719,0.0198567,0.0276206,-0.0246259,1.13905,0.030181,0.0439526,1224,1674,1.71149,-15.4839
7,-650,1.86328,15.6927,-0.0246224,0.0204713,0.0130552,0.0239782,-0.0281293,1.30837,0.0301161,0.0429245,1231,1674,1.86334,-15.6927
14,-650,1.69128,15.9528,-0.0284551,0.021606,0.00831989,0.0229525,-0.0298016,1.41035,0.0305431,0.0430218,1238,1674,1.69132,-15.9528
21,-650,5.10803,13.6879,-0.0198724,0.025074,0.00219587,0.025181,-0.0199794,1.5221,0.026131,0.0437954,1245,1674,5.10807,-13.6879
28,-650,3.93018,14.0638,-0.00137099,0.027161,-0.00288811,0.0274504,-0.0016604,-1.47092,0.0188781,0.040876,1252,1674,3.93014,-14.0638
35,-650,2.83997,14.4001,0.0187313,0.029959,-0.00628334,0.0327711,0.0159193,-1.14999,0.0189229,0.0434129,1259,1674,2.83991,-14.4001
42,-650,1.9491,14.3383,0.0437631,0.0331052,-0.00828709,0.0482867,0.0285816,-0.499665,0.0280349,0.0437139,1266,1674,1.94912,-14.3382
49,-650,1.15601,14.4172,0.0719858,0.0363493,-0.00859784,0.0739517,0.0343834,-0.224787,0.042731,0.0443121,1273,1674,1.15597,-14.4173
56,-650,0.362915,14.4949,0,0,0,0,0,0,0,-1,1280,1674,0.362921,-14.4949
63,-650,-1.28162,15.6068,0.133283,0.0463437,-0.00384599,0.133453,0.0461739,-0.0441225,0.0782581,0.0477628,1287,1674,-1.28159,-15.6068
70,-650,4.19727,14.3267,0.155615,0.0503631,0.00206214,0.155655,0.0503227,0.0195824,0.0917192,0.0481069,1294,1674,4.19722,-14.3266
77,-650,4.3158,14.7198,0.170544,0.0555797,0.0102819,0.171456,0.0546673,0.0884997,0.101133,0.0454595,1301,1674,4.31584,-14.7198
84,-650,4.28442,14.9987,0.181939,0.0594161,0.0205099,0.185282,0.056074,0.161531,0.109715,0.0491151,1308,1674,4.28438,-14.9987
91,-650,4.19031,15.1279,0,0,0,0,0,0,0,-1,1315,1674,4.19026,-15.1279
98,-650,5.82593,16.1267,0,0,0,0,0,0,0,-1,1322,1674,5.82597,-16.1267
105,-650,6.6991,15.834,0.178647,0.0779296,0.057133,0.204447,0.0521293,0.42417,0.122671,0.0443636,1329,1674,6.69913,-15.834
112,-650,7.31873,15.4282,0,0,0,0,0,0,0,-1,1336,1674,7.31872,-15.4282
119,-650,7.43152,14.7761,0.129877,0.0899075,0.0788342,0.19122,0.0285644,0.661261,0.119106,0.041073,1343,1674,7.43155,-14.7761
126,-650,7.54492,14.5477,0.0977148,0.0920148,0.0968383,0.191745,-0.00201547,0.770687,0.128507,0.0435263,1350,1674,7.54497,-14.5477
133,-650,7.63672,14.8536,0,0,0,0,0,0,0,-1,1357,1674,7.63667,-14.8537
140,-650,7.43713,17.8751,0,0,0,0,0,0,0,-1,1364,1674,7.43708,-17.8751
147,-650,1.276,8.32837,0,0,0,0,0,0,0,-1,1371,1674,1.27599,-8.32835
154,-650,1.54077,6.93909,0,0,0,0,0,0,0,-1,1378,1674,1.5408,-6.93908
161,-650,11.2434,8.83008,0,0,0,0,0,0,0,-1,1385,1674,11.2434,-8.83004
168,-650,11.2113,7.87231,0,0,0,0,0,0,0,-1,1392,1674,11.2113,-7.87236
175,-650,5.62537,-0.230713,0,0,0,0,0,0,0,-1,1399,1674,5.62538,0.230745
182,-650,5.56006,0.421631,0,0,0,0,0,0,0,-1,1406,1674,5.56,-0.421652
189,-650,4.81543,11.0654,0,0,0,0,0,0,0,-1,1413,1674,4.81542,-11.0654
196,-650,5.39575,11.9077,0,0,0,0,0,0,0,-1,1420,1674,5.39575,-11.9078
203,-650,3.93628,11.8215,0,0,0,0,0,0,0,-1,1427,1674,3.93624,-11.8216
210,-650,5.40955,8.08594,0,0,0,0,0,0,0,-1,1434,1674,5.40958,-8.086
217,-650,5.12451,4.69739,0,0,0,0,0,0,0,-1,1441,1674,5.12451,-4.69738
224,-650,4.79041,1.45813,0,0,0,0,0,0,0,-1,1448,1674,4.79046,-1.45816
231,-650,4.04102,-0.642212,0,0,0,0,0,0,0,-1,1455,1674,4.04101,0.642209
238,-650,3.23022,-1.43396,0,0,0,0,0,0,0,-1,1462,1674,3.23023,1.43394
245,-650,1.65894,-2.55042,0,0,0,0,0,0,0,-1,1469,1674,1.65889,2.55036
252,-650,8.75342,0.355103,0,0,0,0,0,0,0,-1,1476,1674,8.75337,-0.355147
259,-650,5.61255,3.17566,0,0,0,0,0,0,0,-1,1483,1674,5.61257,-3.17572
266,-650,4.00403,6.10229,0,0,0,0,0,0,0,-1,1490,1674,4.00401,-6.10225
273,-650,4.96667,13.7769,0,0,0,0,0,0,0,-1,1497,1674,4.9667,-13.7769
280,-650,4.91528,13.5035,-0.00363868,0.00937128,0.00801599,0.0131896,-0.00745701,1.12626,0.0120725,0.0496722,1504,1674,4.91525,-13.5036
287,-650,5.00525,13.047,-0.00343208,0.00785038,0.00816442,0.0121329,-0.00771462,1.08771,0.0115532,0.0439362,1511,1674,5.00526,-13.047
294,-650,5.37988,12.897,-0.00325003,0.00604955,0.00835727,0.0109635,-0.00816395,1.03926,0.0110826,0.0380453,1518,1674,5.37994,-12.897
301,-650,5.17908,12.7427,-0.00291307,0.00441919,0.00822341,0.00975666,-0.00825055,0.995083,0.0104086,0.0313271,1525,1674,5.17904,-12.7427
308,-650,5.07593,12.7236,-0.00238868,0.00312196,0.00769766,0.00854257,-0.00780928,0.957265,0.00944391,0.0178251,1532,1674,5.07591,-12.7236
315,-650,5.08838,12.6846,-0.00187398,0.00203939,0.0070672,0.00741578,-0.00725037,0.920449,0.00846768,0.0103412,1539,1674,5.08842,-12.6846
322,-650,5.10461,12.5804,-0.00145583,0.00121701,0.00634569,0.00636548,-0.0066043,0.889183,0.00748853,0.009422,1546,1674,5.10463,-12.5804
329,-650,5.10913,12.4597,-0.000992866,0.000590255,0.00548116,0.00533671,-0.00573932,0.85711,0.00639616,0.0152271,1553,1674,5.1091,-12.4598
336,-650,5.10376,12.3842,-0.000766438,-0.000188249,0.00488776,0.00441896,-0.00537365,0.814937,0.00566272,0.0137496,1560,1674,5.10372,-12.3842
343,-650,5.12756,12.2853,-0.000738138,-0.000456638,0.00414756,0.00355256,-0.00474734,0.802359,0.00480847,0.0133594,1567,1674,5.12753,-12.2852
350,-650,5.14343,12.1449,-0.000467429,-0.000584631,0.00303315,0.00250769,-0.00355975,0.775739,0.00352055,0.0154377,1574,1674,5.14346,-12.1449
357,-650,5.14148,12.0121,-0.000111299,-0.000747145,0.00222372,0.00181711,-0.00267555,0.714395,0.00260957,0.0127188,1581,1674,5.14148,-12.012
364,-650,5.12756,11.9165,3.90269e-05,-0.000540109,0.00165506,0.00142966,-0.00193074,0.698795,0.00194731,0.00890134,1588,1674,5.12753,-11.9165
371,-650,5.13306,11.811,0.000115579,-0.00033499,0.00112428,0.00103692,-0.00125633,0.686517,0.00132603,0.0104737,1595,1674,5.1331,-11.811
378,-650,5.14148,11.6802,0.000283776,-7.91547e-05,0.000554586,0.000685831,-0.000481209,0.627284,0.000677234,0.011838,1602,1674,5.14142,-11.6802
385,-650,5.14099,11.5507,0.000564055,7.02816e-06,3.86454e-05,0.000566724,4.35981e-06,0.0689377,0.000376371,0.0136385,1609,1674,5.14103,-11.5507
392,-650,5.13159,11.4135,0.000894489,0.000244329,-0.000333955,0.00103546,0.000103358,-0.399432,0.000658562,0.0170658,1616,1674,5.13163,-11.4135
399,-650,5.12048,11.2997,0.00111675,0.000326656,-0.000527452,0.00138069,6.2712e-05,-0.463978,0.000900284,0.0148268,1623,1674,5.12052,-11.2997
406,-650,5.1272,11.1776,0.00126638,8.33985e-05,-0.000424894,0.00140317,-5.33941e-05,-0.311467,0.000953742,0.0134809,1630,1674,5.1272,-11.1777
413,-650,5.15491,11.0156,0.00145465,-0.000687257,3.94755e-05,0.00145538,-0.000687984,0.0184217,0.00126363,0.0150507,1637,1674,5.15495,-11.0157
420,-650,5.13245,10.8707,0.00171056,-0.00153564,0.000426468,0.00176565,-0.00159073,0.128471,0.00193868,0.0157413,1644,1674,5.13251,-10.8708
427,-650,5.12659,10.744,0.00172422,-0.00274505,0.00109651,0.00197875,-0.00299958,0.228086,0.00289431,0.0142337,1651,1674,5.12664,-10.744
434,-650,5.12488,10.621,0.00128317,-0.00399634,0.00189466,0.00189273,-0.00460591,0.311267,0.00385945,0.0175774,1658,1674,5.12491,-10.621
441,-650,5.16602,10.4458,0.00106054,-0.0039316,0.00296662,0.00244148,-0.00531254,0.435663,0.00457793,0.0288466,1665,1674,5.166,-10.4458
448,-650,4.94104,10.4188,0.000856347,-0.00165847,0.00423658,0.00401817,-0.0048203,0.64114,0.00510989,0.0424043,1672,1674,4.94107,-10.4188
455,-650,4.75708,10.4921,0.000582073,-0.000503038,0.00569471,0.00576001,-0.00568098,0.737905,0.00660551,0.0429308,1679,1674,4.75713,-10.4921
462,-650,4.72363,10.5426,0.000791815,0.00278323,0.00648505,0.00834857,-0.00477352,0.861573,0.00766919,0.0483646,1686,1674,4.72369,-10.5425
469,-650,4.84058,10.5764,0,0,0,0,0,0,0,-1,1693,1674,4.84059,-10.5764
476,-650,5.78943,9.67615,0,0,0,0,0,0,0,-1,1700,1674,5.78944,-9.6762
483,-650,4.03223,7.81799,0,0,0,0,0,0,0,-1,1707,1674,4.03221,-7.81805
490,-650,4.18054,8.0387,0.00325863,0.0316771,0.00635857,0.0330349,0.00190079,1.36041,0.0214178,0.0472552,1714,1674,4.1806,-8.03869
497,-650,4.31458,8.24841,0.00468409,0.0425621,0.00504034,0.0432213,0.00402486,1.44074,0.0275707,0.0450722,1721,1674,4.31452,-8.24844
504,-650,4.39917,8.48206,0,0,0,0,0,0,0,-1,1728,1674,4.39913,-8.48203
511,-650,5.38293,7.94397,0,0,0,0,0,0,0,-1,1735,1674,5.38289,-7.944
518,-650,0,0,0,0,0,0,0,0,0,-1,1742,1674,0,0
525,-650,0,0,0,0,0,0,0,0,0,-1,1749,1674,0,0
532,-650,0,0,0,0,0,0,0,0,0,-1,1756,1674,0,0
539,-650,0,0,0,0,0,0,0,0,0,-1,1763,1674,0,0
546,-650,0,0,0,0,0,0,0,0,0,-1,1770,1674,0,0
553,-650,0,0,0,0,0,0,0,0,0,-1,1777,1674,0,0
560,-650,0,0,0,0,0,0,0,0,0,-1,1784,1674,0,0
567,-650,0,0,0,0,0,0,0,0,0,-1,1791,1674,0,0
574,-650,0,0,0,0,0,0,0,0,0,-1,1798,1674,0,0
581,-650,0,0,0,0,0,0,0,0,0,-1,1805,1674,0,0
588,-650,0,0,0,0,0,0,0,0,0,-1,1812,1674,0,0
595,-650,0,0,0,0,0,0,0,0,0,-1,1819,1674,0,0
602,-650,0,0,0,0,0,0,0,0,0,-1,1826,1674,0,0
609,-650,0,0,0,0,0,0,0,0,0,-1,1833,1674,0,0
616,-650,0,0,0,0,0,0,0,0,0,-1,1840,1674,0,0
623,-650,0,0,0,0,0,0,0,0,0,-1,1847,1674,0,0
630,-650,0,0,0,0,0,0,0,0,0,-1,1854,1674,0,0
637,-650,0,0,0,0,0,0,0,0,0,-1,1861,1674,0,0
644,-650,0,0,0,0,0,0,0,0,0,-1,1868,1674,0,0
651,-650,0,0,0,0,0,0,0,0,0,-1,1875,1674,0,0
658,-650,0,0,0,0,0,0,0,0,0,-1,1882,1674,0,0
665,-650,0,0,0,0,0,0,0,0,0,-1,1889,1674,0,0
672,-650,0,0,0,0,0,0,0,0,0,-1,1896,1674,0,0
679,-650,0,0,0,0,0,0,0,0,0,-1,1903,1674,0,0
686,-650,0,0,0,0,0,0,0,0,0,-1,1910,1674,0,0
693,-650,0,0,0,0,0,0,0,0,0,-1,1917,1674,0,0
700,-650,0,0,0,0,0,0,0,0,0,-1,1924,1674,0,0
707,-650,0,0,0,0,0,0,0,0,0,-1,1931,1674,0,0
714,-650,0,0,0,0,0,0,0,0,0,-1,1938,1674,0,0
721,-650,0,0,0,0,0,0,0,0,0,-1,1945,1674,0,0
728,-650,0,0,0,0,0,0,0,0,0,-1,1952,1674,0,0
735,-650,0,0,0,0,0,0,0,0,0,-1,1959,1674,0,0
742,-650,0,0,0,0,0,0,0,0,0,-1,1966,1674,0,0
749,-650,0,0,0,0,0,0,0,0,0,-1,1973,1674,0,0
756,-650,0,0,0,0,0,0,0,0,0,-1,1980,1674,0,0
763,-650,0,0,0,0,0,0,0,0,0,-1,1987,1674,0,0
770,-650,0,0,0,0,0,0,0,0,0,-1,1994,1674,0,0
777,-650,0,0,0,0,0,0,0,0,0,-1,2001,1674,0,0
784,-650,0,0,0,0,0,0,0,0,0,-1,2008,1674,0,0
791,-650,0,0,0,0,0,0,0,0,0,-1,2015,1674,0,0
798,-650,0,0,0,0,0,0,0,0,0,-1,2022,1674,0,0
805,-650,0,0,0,0,0,0,0,0,0,-1,2029,1674,0,0
812,-650,0,0,0,0,0,0,0,0,0,-1,2036,1674,0,0
-700,-657,0,0,0,0,0,0,0,0,0,-1,524,1681,0,0
-693,-657,0,0,0,0,0,0,0,0,0,-1,531,1681,0,0
-686,-657,0,0,0,0,0,0,0,0,0,-1,538,1681,0,0
-679,-657,0,0,0,0,0,0,0,0,0,-1,545,1681,0,0
-672,-657,0,0,0,0,0,0,0,0,0,-1,552,1681,0,0
-665,-657,0,0,0,0,0,0,0,0,0,-1,559,1681,0,0
-658,-657,0,0,0,0,0,0,0,0,0,-1,566,1681,0,0
-651,-657,0,0,0,0,0,0,0,0,0,-1,573,1681,0,0
-644,-657,0,0,0,0,0,0,0,0,0,-1,580,1681,0,0
-637,-657,0,0,0,0,0,0,0,0,0,-1,587,1681,0,0
-630,-657,0,0,0,0,0,0,0,0,0,-1,594,1681,0,0
-623,-657,0,0,0,0,0,0,0,0,0,-1,601,1681,0,0
-616,-657,0,0,0,0,0,0,0,0,0,-1,608,1681,0,0
-609,-657,0,0,0,0,0,0,0,0,0,-1,615,1681,0,0
-602,-657,0,0,0,0,0,0,0,0,0,-1,622,1681,0,0
-595,-657,0,0,0,0,0,0,0,0,0,-1,629,1681,0,0
-588,-657,0,0,0,0,0,0,0,0,0,-1,636,1681,0,0
-581,-657,0,0,0,0,0,0,0,0,0,-1,643,1681,0,0
-574,-657,0,0,0,0,0,0,0,0,0,-1,650,1681,0,0
-567,-657,0,0,0,0,0,0,0,0,0,-1,657,1681,0,0
-560,-657,0,0,0,0,0,0,0,0,0,-1,664,1681,0,0
-553,-657,0,0,0,0,0,0,0,0,0,-1,671,1681,0,0
-546,-657,0,0,0,0,0,0,0,0,0,-1,678,1681,0,0
-539,-657,0,0,0,0,0,0,0,0,0,-1,685,1681,0,0
-532,-657,0,0,0,0,0,0,0,0,0,-1,692,1681,0,0
-525,-657,0,0,0,0,0,0,0,0,0,-1,699,1681,0,0
-518,-657,0,0,0,0,0,0,0,0,0,-1,706,1681,0,0
-511,-657,0,0,0,0,0,0,0,0,0,-1,713,1681,0,0
-504,-657,0,0,0,0,0,0,0,0,0,-1,720,1681,0,0
-497,-657,0,0,0,0,0,0,0,0,0,-1,727,1681,0,0
-490,-657,0,0,0,0,0,0,0,0,0,-1,734,1681,0,0
-483,-657,0,0,0,0,0,0,0,0,0,-1,741,1681,0,0
-476,-657,0,0,0,0,0,0,0,0,0,-1,748,1681,0,0
-469,-657,0,0,0,0,0,0,0,0,0,-1,755,1681,0,0
-462,-657,0,0,0,0,0,0,0,0,0,-1,762,1681,0,0
-455,-657,0,0,0,0,0,0,0,0,0,-1,769,1681,0,0
-448,-657,0,0,0,0,0,0,0,0,0,-1,776,1681,0,0
-441,-657,0,0,0,0,0,0,0,0,0,-1,783,1681,0,0
-434,-657,0,0,0,0,0,0,0,0,0,-1,790,1681,0,0
-427,-657,0,0,0,0,0,0,0,0,0,-1,797,1681,0,0
-420,-657,0,0,0,0,0,0,0,0,0,-1,804,1681,0,0
-413,-657,0,0,0,0,0,0,0,0,0,-1,811,1681,0,0
-406,-657,0,0,0,0,0,0,0,0,0,-1,818,1681,0,0
-399,-657,0,0,0,0,0,0,0,0,0,-1,825,1681,0,0
-392,-657,0,0,0,0,0,0,0,0,0,-1,832,1681,0,0
-385,-657,1.09814,6.18896,0,0,0,0,0,0,0,-1,839,1681,1.09814,-6.18894
-378,-657,0.31488,4.46753,0,0,0,0,0,0,0,-1,846,1681,0.31487,-4.46755
-371,-657,-0.519043,2.69421,0,0,0,0,0,0,0,-1,853,1681,-0.519064,-2.69422
-364,-657,-3.42017,4.18323,0,0,0,0,0,0,0,-1,860,1681,-3.42019,-4.18319
-357,-657,-4.41913,2.97168,0,0,0,0,0,0,0,-1,867,1681,-4.41913,-2.97165
-350,-657,-5.42291,1.70276,0,0,0,0,0,0,0,-1,874,1681,-5.42291,-1.70277
-343,-657,-6.51294,0.397339,0,0,0,0,0,0,0,-1,881,1681,-6.51295,-0.397335
-336,-657,3.34485,6.49438,0,0,0,0,0,0,0,-1,888,1681,3.34483,-6.49433
-329,-657,3.7196,8.52344,0,0,0,0,0,0,0,-1,895,1681,3.71962,-8.52339
-322,-657,3.38055,9.36987,0,0,0,0,0,0,0,-1,902,1681,3.38052,-9.36988
-315,-657,3.08252,9.17944,0,0,0,0,0,0,0,-1,909,1681,3.08253,-9.17945
-308,-657,3.12482,9.24658,0,0,0,0,0,0,0,-1,916,1681,3.12481,-9.24654
-301,-657,3.16217,9.55603,-0.00157162,0.00590793,-0.00111966,0.00607194,-0.00173563,-1.42535,0.00473378,0.0276033,923,1681,3.16218,-9.55599
-294,-657,3.15894,9.77283,-0.00191867,0.00631718,-0.00128315,0.00651247,-0.00211396,-1.41976,0.0051918,0.0151917,930,1681,3.15891,-9.77283
-287,-657,3.15582,9.92944,-0.0021908,0.00629107,-0.00123759,0.00646796,-0.00236769,-1.42883,0.00528118,0.0108895,937,1681,3.15585,-9.92944
-280,-657,3.13837,10.078,-0.00238469,0.00604688,-0.00105206,0.00617617,-0.00251398,-1.44852,0.00516363,0.0127097,944,1681,3.13835,-10.078
-273,-657,3.14252,10.2416,-0.00214734,0.00549633,-0.000860423,0.00559199,-0.00224299,-1.46008,0.00465924,0.00954851,951,1681,3.14252,-10.2415
-266,-657,3.12988,10.4091,-0.00182117,0.00523032,-0.000586445,0.00527876,-0.00186961,-1.48838,0.00428071,0.0137467,958,1681,3.1299,-10.4091
-259,-657,3.10345,10.569,-0.00151914,0.00470188,-0.000293424,0.00471569,-0.00153295,-1.52377,0.00376041,0.0176777,965,1681,3.10346,-10.5689
-252,-657,3.12421,10.7177,-0.00145656,0.00394782,-0.000171039,0.00395322,-0.00146197,-1.53919,0.00323487,0.0123339,972,1681,3.12423,-10.7176
-245,-657,3.14551,10.8673,-0.00117071,0.00305013,-0.000134092,0.00305439,-0.00117496,-1.53907,0.0025209,0.0143273,979,1681,3.14553,-10.8673
-238,-657,3.15277,10.9835,-0.000775489,0.00197934,-6.32659e-05,0.00198079,-0.000776941,-1.54785,0.00164197,0.018938,986,1681,3.15276,-10.9835
-231,-657,3.13824,11.1254,-0.000344999,0.000787476,9.387e-05,0.000795204,-0.000352727,1.48865,0.000678972,0.0198926,993,1681,3.13823,-11.1253
-224,-657,3.12769,11.2916,0.000397432,-0.000453089,0.000231454,0.000456338,-0.000511996,0.249214,0.000559376,0.0158161,1000,1681,3.12768,-11.2916
-217,-657,3.133,11.4302,0.000609669,-0.00167075,4.42034e-05,0.000610526,-0.00167161,0.0193741,0.00136424,0.0101519,1007,1681,3.13302,-11.4302
-210,-657,3.15613,11.5442,7.10746e-05,-0.00329105,-0.000331992,0.000103543,-0.00332352,-0.09749,0.00225099,0.0101167,1014,1681,3.15611,-11.5442
-203,-657,3.1488,11.6801,-0.000864099,-0.00548559,-0.000956085,-0.000674116,-0.00567558,-0.196154,0.00358023,0.0125223,1021,1681,3.14877,-11.6801
-196,-657,3.1687,11.8053,-0.00152646,-0.00736041,-0.00165671,-0.00108882,-0.00779805,-0.258262,0.00487645,0.0140433,1028,1681,3.16876,-11.8053
-189,-657,3.17419,11.9288,-0.00233135,-0.00917028,-0.00228993,-0.00163542,-0.00986622,-0.295041,0.00610579,0.0106786,1035,1681,3.17415,-11.9288
-182,-657,3.17102,12.051,-0.00331108,-0.011151,-0.00308079,-0.00224532,-0.0122167,-0.333051,0.00750878,0.0084486,1042,1681,3.17106,-12.051
-175,-657,3.18469,12.1641,-0.00428296,-0.0130349,-0.0038921,-0.00280252,-0.0145154,-0.36347,0.0088912,0.00976573,1049,1681,3.18474,-12.1641
-168,-657,3.17542,12.2717,-0.00520353,-0.0146358,-0.00460636,-0.0033272,-0.0165121,-0.386813,0.0100837,0.011085,1056,1681,3.17536,-12.2718
-161,-657,3.17395,12.3628,-0.00583011,-0.0154515,-0.00506159,-0.00365779,-0.0176238,-0.405404,0.0107396,0.0109165,1063,1681,3.17396,-12.3628
-154,-657,3.17273,12.4729,-0.00610632,-0.016304,-0.00541122,-0.00377015,-0.0186402,-0.407555,0.0113802,0.011543,1070,1681,3.17278,-12.4729
-147,-657,3.16895,12.5614,-0.00603912,-0.0165553,-0.00543262,-0.00373673,-0.0188577,-0.400862,0.0115298,0.0163973,1077,1681,3.16889,-12.5615
-140,-657,3.15076,12.5873,-0.00565846,-0.0167,-0.00519763,-0.00359674,-0.0187618,-0.377629,0.011498,0.0277531,1084,1681,3.15079,-12.5873
-133,-657,3.24756,12.621,-0.00492535,-0.0159888,-0.00443046,-0.00336983,-0.0175443,-0.337651,0.0107504,0.0376013,1091,1681,3.24753,-12.6209
-126,-657,3.37732,12.7843,-0.00423276,-0.0151505,-0.00354969,-0.00318013,-0.0162031,-0.288279,0.00991355,0.0406035,1098,1681,3.3773,-12.7843
-119,-657,3.49121,12.9633,-0.00290475,-0.0139957,-0.00225949,-0.0024621,-0.0144383,-0.193456,0.00891885,0.0463275,1105,1681,3.49118,-12.9632
-112,-657,3.51794,13.4265,-0.00140375,-0.0129305,-0.000607996,-0.00137177,-0.0129625,-0.0525523,0.00822262,0.047623,1112,1681,3.51794,-13.4265
-105,-657,3.07178,13.8755,0,0,0,0,0,0,0,-1,1119,1681,3.07184,-13.8755
-98,-657,3.78662,8.16785,0,0,0,0,0,0,0,-1,1126,1681,3.78663,-8.16786
-91,-657,3.22156,11.7399,0,0,0,0,0,0,0,-1,1133,1681,3.22153,-11.7399
-84,-657,4.08008,10.4579,0,0,0,0,0,0,0,-1,1140,1681,4.08006,-10.4579
-77,-657,-5.29846,0.396606,0,0,0,0,0,0,0,-1,1147,1681,-5.29842,-0.396573
-70,-657,-4.14893,2.14575,0,0,0,0,0,0,0,-1,1154,1681,-4.14893,-2.1458
-63,-657,-4.1239,3.177,0,0,0,0,0,0,0,-1,1161,1681,-4.12391,-3.17698
-56,-657,-6.40576,5.73987,0,0,0,0,0,0,0,-1,1168,1681,-6.40577,-5.7399
-49,-657,-5.98462,7.54053,0,0,0,0,0,0,0,-1,1175,1681,-5.98466,-7.5405
-42,-657,-5.71948,9.28955,0,0,0,0,0,0,0,-1,1182,1681,-5.71951,-9.2895
-35,-657,-5.44556,11.015,0,0,0,0,0,0,0,-1,1189,1681,-5.44555,-11.015
-28,-657,-1.3446,8.92847,0,0,0,0,0,0,0,-1,1196,1681,-1.34459,-8.92848
-21,-657,3.65234,11.9055,0,0,0,0,0,0,0,-1,1203,1681,3.65239,-11.9056
-14,-657,1.9873,14.6974,0,0,0,0,0,0,0,-1,1210,1681,1.98728,-14.6974
-7,-657,2.14819,14.8384,-0.00588127,0.0161638,0.0140519,0.0230005,-0.0127179,1.11798,0.020905,0.0464193,1217,1681,2.14824,-14.8384
0,-657,2.31323,15.0159,-0.0115856,0.0183647,0.0108655,0.0218913,-0.0151122,1.25696,0.0214832,0.0455386,1224,1681,2.3132,-15.0159
7,-657,2.45715,15.4296,-0.0188243,0.0193743,0.00589711,0.020264,-0.019714,1.42106,0.023082,0.042352,1231,1681,2.45714,-15.4295
14,-657,2.32446,15.7557,-0.0203541,0.0203091,0.00166281,0.020377,-0.0204219,1.52999,0.0235553,0.0418128,1238,1681,2.32443,-15.7558
21,-657,2.11267,16.0269,-0.0129362,0.023255,-0.00351356,0.023593,-0.0132742,-1.47491,0.0215614,0.0454163,1245,1681,2.11268,-16.0269
28,-657,3.90198,15.3187,0,0,0,0,0,0,0,-1,1252,1681,3.90196,-15.3187
35,-657,3.20374,14.5885,0,0,0,0,0,0,0,-1,1259,1681,3.20377,-14.5886
42,-657,2.50562,13.8584,0,0,0,0,0,0,0,-1,1266,1681,2.50558,-13.8584
49,-657,2.71558,12.6957,0,0,0,0,0,0,0,-1,1273,1681,2.71558,-12.6957
56,-657,4.48547,14.4015,0,0,0,0,0,0,0,-1,1280,1681,4.48544,-14.4015
63,-657,4.57495,14.3136,0.100114,0.0380563,-0.0108464,0.101955,0.0362152,-0.168141,0.0596808,0.0462169,1287,1681,4.57499,-14.3136
70,-657,4.35864,14.4404,0.116194,0.0412649,-0.0064821,0.11675,0.0407082,-0.0856621,0.068427,0.0457625,1294,1681,4.3586,-14.4404
77,-657,4.30115,14.7178,0.127012,0.0448272,-8.67079e-05,0.127012,0.0448271,-0.00105503,0.0743803,0.0445595,1301,1681,4.30116,-14.7178
84,-657,4.31677,14.9144,0.135593,0.0479416,0.00856405,0.136422,0.0471127,0.0964896,0.0800094,0.0453028,1308,1681,4.31677,-14.9145
91,-657,4.03186,14.7511,0,0,0,0,0,0,0,-1,1315,1681,4.03182,-14.7511
98,-657,4.12805,14.6384,0,0,0,0,0,0,0,-1,1322,1681,4.12801,-14.6385
105,-657,4.90405,14.2435,0,0,0,0,0,0,0,-1,1329,1681,4.90406,-14.2435
112,-657,5.83875,13.7717,0,0,0,0,0,0,0,-1,1336,1681,5.83878,-13.7718
119,-657,6.42358,14.3545,0.0970362,0.0722932,0.0650258,0.150857,0.0184725,0.691394,0.0950142,0.0449124,1343,1681,6.42355,-14.3544
126,-657,6.26245,14.0339,0.0769302,0.0749046,0.0810245,0.156948,-0.00511348,0.779149,0.106378,0.0457378,1350,1681,6.26249,-14.034
133,-657,6.07263,13.8176,0,0,0,0,0,0,0,-1,1357,1681,6.07267,-13.8177
140,-657,7.00232,17.399,0,0,0,0,0,0,0,-1,1364,1681,7.00232,-17.399
147,-657,7.78992,18.1814,0,0,0,0,0,0,0,-1,1371,1681,7.78995,-18.1813
154,-657,12.2501,7.70422,0,0,0,0,0,0,0,-1,1378,1681,12.2501,-7.70418
161,-657,12.8524,6.43372,0,0,0,0,0,0,0,-1,1385,1681,12.8524,-6.43366
168,-657,5.21643,0.70105,0,0,0,0,0,0,0,-1,1392,1681,5.21648,-0.7011
175,-657,5.52771,0.649048,0,0,0,0,0,0,0,-1,1399,1681,5.52774,-0.649019
182,-657,5.73999,1.02612,0,0,0,0,0,0,0,-1,1406,1681,5.73995,-1.02611
189,-657,5.92126,1.44116,0,0,0,0,0,0,0,-1,1413,1681,5.92126,-1.44115
196,-657,4.92834,9.59021,0,0,0,0,0,0,0,-1,1420,1681,4.9284,-9.59018
203,-657,6.26343,5.16492,0,0,0,0,0,0,0,-1,1427,1681,6.26345,-5.16488
210,-657,3.9856,5.28088,0,0,0,0,0,0,0,-1,1434,1681,3.98555,-5.28084
217,-657,3.95178,5.2843,0,0,0,0,0,0,0,-1,1441,1681,3.95174,-5.28431
224,-657,6.66736,-0.250244,0,0,0,0,0,0,0,-1,1448,1681,6.66737,0.250229
231,-657,6.85498,-1.70752,0,0,0,0,0,0,0,-1,1455,1681,6.855,1.70758
238,-657,5.34143,-2.89819,0,0,0,0,0,0,0,-1,1462,1681,5.34143,2.89813
245,-657,8.66003,-0.102783,0,0,0,0,0,0,0,-1,1469,1681,8.66,0.102824
252,-657,4.78955,0.623779,0,0,0,0,0,0,0,-1,1476,1681,4.7895,-0.623826
259,-657,2.61523,4.31909,0,0,0,0,0,0,0,-1,1483,1681,2.61523,-4.31908
266,-657,5.35437,11.4742,0,0,0,0,0,0,0,-1,1490,1681,5.35441,-11.4742
273,-657,5.20435,13.1404,0,0,0,0,0,0,0,-1,1497,1681,5.20439,-13.1404
280,-657,4.94373,13.075,-0.00243288,0.00607912,0.00586884,0.00907274,-0.00542649,1.09911,0.0084589,0.0391836,1504,1681,4.94373,-13.075
287,-657,4.97046,12.9846,-0.00231666,0.00526564,0.00588627,0.00847599,-0.00552701,1.07149,0.00814418,0.0301977,1511,1681,4.9705,-12.9847
294,-657,4.96252,12.937,-0.00221958,0.00412425,0.00598313,0.00772426,-0.00581959,1.02913,0.00784528,0.0235203,1518,1681,4.9625,-12.937
301,-657,4.95081,12.8682,-0.00202139,0.00305853,0.00585247,0.00689844,-0.00586131,0.990132,0.00737495,0.0156099,1525,1681,4.95085,-12.8681
308,-657,4.96887,12.7797,-0.00169352,0.00218377,0.00546088,0.00603991,-0.00554966,0.955962,0.00669324,0.0107303,1532,1681,4.96886,-12.7797
315,-657,4.98621,12.6959,-0.00133654,0.00146941,0.00497913,0.00523945,-0.00510658,0.922723,0.00597344,0.0102352,1539,1681,4.98619,-12.6959
322,-657,5.01086,12.5807,-0.00103845,0.000923632,0.00443413,0.00448395,-0.00459877,0.894268,0.00524405,0.0130505,1546,1681,5.01092,-12.5807
329,-657,5.00513,12.4651,-0.000709628,0.000512274,0.00378417,0.00373449,-0.00393185,0.865432,0.00442665,0.0195949,1553,1681,5.00509,-12.465
336,-657,4.99646,12.3651,-0.000540142,-2.81743e-05,0.00334334,0.00306896,-0.00363728,0.823606,0.00387648,0.0167332,1560,1681,4.99648,-12.3651
343,-657,5.0293,12.2703,-0.000465679,-9.17141e-05,0.00273235,0.00246004,-0.00301744,0.819561,0.00316788,0.0127598,1567,1681,5.02936,-12.2702
350,-657,5.03613,12.1351,-0.000194157,-1.70693e-06,0.00178266,0.00168733,-0.00188319,0.812361,0.00206247,0.0149479,1574,1681,5.03612,-12.1351
357,-657,5.02271,12.0115,0.000117753,-5.84167e-06,0.00111186,0.00116953,-0.00105762,0.757636,0.00128638,0.0146783,1581,1681,5.02269,-12.0114
364,-657,5.01233,11.9237,0.000292238,0.000247238,0.000625958,0.0008961,-0.000356624,0.767433,0.00074528,0.0105306,1588,1681,5.01229,-11.9237
371,-657,5.02356,11.8175,0.000462757,0.000475607,0.000165155,0.000634463,0.000303902,0.804839,0.000366415,0.0143306,1595,1681,5.02358,-11.8175
378,-657,5.00684,11.678,0.000728715,0.000744596,-0.000331479,0.00106823,0.000405082,-0.797374,0.000622713,0.0144999,1602,1681,5.00687,-11.678
385,-657,4.99133,11.5466,0.00109145,0.00090347,-0.000764267,0.00176748,0.000227433,-0.724216,0.0011103,0.0130563,1609,1681,4.9913,-11.5466
392,-657,5.00171,11.4395,0.00146726,0.00112119,-0.00109175,0.00239961,0.000188843,-0.706807,0.00154065,0.0130132,1616,1681,5.0017,-11.4395
399,-657,5.01025,11.3109,0.00170586,0.0011076,-0.00118795,0.00263176,0.000181696,-0.662059,0.00169719,0.0125927,1623,1681,5.0103,-11.3109
406,-657,5.02124,11.1769,0.00186909,0.000695909,-0.000947169,0.0023966,0.000168399,-0.50815,0.00154466,0.0143251,1630,1681,5.0212,-11.1769
413,-657,5.03259,11.016,0.00210694,-0.000363707,-0.000279509,0.00213816,-0.000394933,-0.111259,0.00157369,0.0148021,1637,1681,5.03265,-11.016
420,-657,5.0271,10.8401,0.00242488,-0.00145535,0.000304753,0.00244867,-0.00147914,0.0779033,0.00229063,0.0156908,1644,1681,5.02707,-10.8401
427,-657,5.0033,10.6829,0.00241766,-0.0031156,0.00135073,0.00272979,-0.00342772,0.227091,0.00356264,0.0184688,1651,1681,5.00327,-10.6829
434,-657,5.07727,10.5587,0,0,0,0,0,0,0,-1,1658,1681,5.07723,-10.5587
441,-657,5.54565,10.2183,0,0,0,0,0,0,0,-1,1665,1681,5.54559,-10.2183
448,-657,4.45691,10.5425,0,0,0,0,0,0,0,-1,1672,1681,4.45691,-10.5425
455,-657,4.29504,10.7386,0,0,0,0,0,0,0,-1,1679,1681,4.29502,-10.7387
462,-657,4.44897,11.0062,0,0,0,0,0,0,0,-1,1686,1681,4.449,-11.0062
469,-657,5.10181,9.72278,0,0,0,0,0,0,0,-1,1693,1681,5.10182,-9.72276
476,-657,4.00061,7.79138,0,0,0,0,0,0,0,-1,1700,1681,4.00063,-7.79135
483,-657,4.10754,7.81067,0,0,0,0,0,0,0,-1,1707,1681,4.1076,-7.81069
490,-657,4.23486,7.78906,0.00725024,0.0392623,0.0073988,0.0408896,0.00562292,1.3543,0.0255922,0.0456671,1714,1681,4.23484,-7.78903
497,-657,4.41187,7.68823,0.0093463,0.0523602,0.00551531,0.0530561,0.00865038,1.44528,0.0328689,0.0456863,1721,1681,4.41192,-7.68829
504,-657,0,0,0,0,0,0,0,0,0,-1,1728,1681,0,0
511,-657,0,0,0,0,0,0,0,0,0,-1,1735,1681,0,0
518,-657,0,0,0,0,0,0,0,0,0,-1,1742,1681,0,0
525,-657,0,0,0,0,0,0,0,0,0,-1,1749,1681,0,0
532,-657,0,0,0,0,0,0,0,0,0,-1,1756,1681,0,0
539,-657,0,0,0,0,0,0,0,0,0,-1,1763,1681,0,0
546,-657,0,0,0,0,0,0,0,0,0,-1,1770,1681,0,0
553,-657,0,0,0,0,0,0,0,0,0,-1,1777,1681,0,0
560,-657,0,0,0,0,0,0,0,0,0,-1,1784,1681,0,0
567,-657,0,0,0,0,0,0,0,0,0,-1,1791,1681,0,0
574,-657,0,0,0,0,0,0,0,0,0,-1,1798,1681,0,0
581,-657,0,0,0,0,0,0,0,0,0,-1,1805,1681,0,0
588,-657,0,0,0,0,0,0,0,0,0,-1,1812,1681,0,0
595,-657,0,0,0,0,0,0,0,0,0,-1,1819,1681,0,0
602,-657,0,0,0,0,0,0,0,0,0,-1,1826,1681,0,0
609,-657,0,0,0,0,0,0,0,0,0,-1,1833,1681,0,0
616,-657,0,0,0,0,0,0,0,0,0,-1,1840,1681,0,0
623,-657,0,0,0,0,0,0,0,0,0,-1,1847,1681,0,0
630,-657,0,0,0,0,0,0,0,0,0,-1,1854,1681,0,0
637,-657,0,0,0,0,0,0,0,0,0,-1,1861,1681,0,0
644,-657,0,0,0,0,0,0,0,0,0,-1,1868,1681,0,0
651,-657,0,0,0,0,0,0,0,0,0,-1,1875,1681,0,0
658,-657,0,0,0,0,0,0,0,0,0,-1,1882,1681,0,0
665,-657,0,0,0,0,0,0,0,0,0,-1,1889,1681,0,0
672,-657,0,0,0,0,0,0,0,0,0,-1,1896,1681,0,0
679,-657,0,0,0,0,0,0,0,0,0,-1,1903,1681,0,0
686,-657,0,0,0,0,0,0,0,0,0,-1,1910,1681,0,0
693,-657,0,0,0,0,0,0,0,0,0,-1,1917,1681,0,0
700,-657,0,0,0,0,0,0,0,0,0,-1,1924,1681,0,0
707,-657,0,0,0,0,0,0,0,0,0,-1,1931,1681,0,0
714,-657,0,0,0,0,0,0,0,0,0,-1,1938,1681,0,0
721,-657,0,0,0,0,0,0,0,0,0,-1,1945,1681,0,0
728,-657,0,0,0,0,0,0,0,0,0,-1,1952,1681,0,0
735,-657,0,0,0,0,0,0,0,0,0,-1,1959,1681,0,0
742,-657,0,0,0,0,0,0,0,0,0,-1,1966,1681,0,0
749,-657,0,0,0,0,0,0,0,0,0,-1,1973,1681,0,0
756,-657,0,0,0,0,0,0,0,0,0,-1,1980,1681,0,0
763,-657,0,0,0,0,0,0,0,0,0,-1,1987,1681,0,0
770,-657,0,0,0,0,0,0,0,0,0,-1,1994,1681,0,0
777,-657,0,0,0,0,0,0,0,0,0,-1,2001,1681,0,0
784,-657,0,0,0,0,0,0,0,0,0,-1,2008,1681,0,0
791,-657,0,0,0,0,0,0,0,0,0,-1,2015,1681,0,0
798,-657,0,0,0,0,0,0,0,0,0,-1,2022,1681,0,0
805,-657,0,0,0,0,0,0,0,0,0,-1,2029,1681,0,0
812,-657,0,0,0,0,0,0,0,0,0,-1,2036,1681,0,0
-700,-664,0,0,0,0,0,0,0,0,0,-1,524,1688,0,0
-693,-664,0,0,0,0,0,0,0,0,0,-1,531,1688,0,0
-686,-664,0,0,0,0,0,0,0,0,0,-1,538,1688,0,0
-679,-664,0,0,0,0,0,0,0,0,0,-1,545,1688,0,0
-672,-664,0,0,0,0,0,0,0,0,0,-1,552,1688,0,0
-665,-664,0,0,0,0,0,0,0,0,0,-1,559,1688,0,0
-658,-664,0,0,0,0,0,0,0,0,0,-1,566,1688,0,0
-651,-664,0,0,0,0,0,0,0,0,0,-1,573,1688,0,0
-644,-664,0,0,0,0,0,0,0,0,0,-1,580,1688,0,0
-637,-664,0,0,0,0,0,0,0,0,0,-1,587,1688,0,0
-630,-664,0,0,0,0,0,0,0,0,0,-1,594,1688,0,0
-623,-664,0,0,0,0,0,0,0,0,0,-1,601,1688,0,0
-616,-664,0,0,0,0,0,0,0,0,0,-1,608,1688,0,0
-609,-664,0,0,0,0,0,0,0,0,0,-1,615,1688,0,0
-602,-664,0,0,0,0,0,0,0,0,0,-1,622,1688,0,0
-595,-664,0,0,0,0,0,0,0,0,0,-1,629,1688,0,0
-588,-664,0,0,0,0,0,0,0,0,0,-1,636,1688,0,0
-581,-664,0,0,0,0,0,0,0,0,0,-1,643,1688,0,0
-574,-664,0,0,0,0,0,0,0,0,0,-1,650,1688,0,0
-567,-664,0,0,0,0,0,0,0,0,0,-1,657,1688,0,0
-560,-664,0,0,0,0,0,0,0,0,0,-1,664,1688,0,0
-553,-664,0,0,0,0,0,0,0,0,0,-1,671,1688,0,0
-546,-664,0,0,0,0,0,0,0,0,0,-1,678,1688,0,0
-539,-664,0,0,0,0,0,0,0,0,0,-1,685,1688,0,0
-532,-664,0,0,0,0,0,0,0,0,0,-1,692,1688,0,0
-525,-664,0,0,0,0,0,0,0,0,0,-1,699,1688,0,0
-518,-664,0,0,0,0,0,0,0,0,0,-1,706,1688,0,0
-511,-664,0,0,0,0,0,0,0,0,0,-1,713,1688,0,0
-504,-664,0,0,0,0,0,0,0,0,0,-1,720,1688,0,0
-497,-664,0,0,0,0,0,0,0,0,0,-1,727,1688,0,0
-490,-664,0,0,0,0,0,0,0,0,0,-1,734,1688,0,0
-483,-664,0,0,0,0,0,0,0,0,0,-1,741,1688,0,0
-476,-664,0,0,0,0,0,0,0,0,0,-1,748,1688,0,0
-469,-664,0,0,0,0,0,0,0,0,0,-1,755,1688,0,0
-462,-664,0,0,0,0,0,0,0,0,0,-1,762,1688,0,0
-455,-664,0,0,0,0,0,0,0,0,0,-1,769,1688,0,0
-448,-664,0,0,0,0,0,0,0,0,0,-1,776,1688,0,0
-441,-664,0,0,0,0,0,0,0,0,0,-1,783,1688,0,0
-434,-664,0,0,0,0,0,0,0,0,0,-1,790,1688,0,0
-427,-664,0,0,0,0,0,0,0,0,0,-1,797,1688,0,0
-420,-664,0,0,0,0,0,0,0,0,0,-1,804,1688,0,0
-413,-664,0,0,0,0,0,0,0,0,0,-1,811,1688,0,0
-406,-664,0,0,0,0,0,0,0,0,0,-1,818,1688,0,0
-399,-664,0,0,0,0,0,0,0,0,0,-1,825,1688,0,0
-392,-664,0,0,0,0,0,0,0,0,0,-1,832,1688,0,0
-385,-664,0,0,0,0,0,0,0,0,0,-1,839,1688,0,0
-378,-664,0,0,0,0,0,0,0,0,0,-1,846,1688,0,0
-371,-664,-1.61676,5.92737,0,0,0,0,0,0,0,-1,853,1688,-1.61675,-5.92735
-364,-664,-3.901,5.87024,0,0,0,0,0,0,0,-1,860,1688,-3.90097,-5.87027
-357,-664,-4.81012,4.53479,0,0,0,0,0,0,0,-1,867,1688,-4.81012,-4.5348
-350,-664,-5.7193,3.19934,0,0,0,0,0,0,0,-1,874,1688,-5.71927,-3.19932
-343,-664,-6.37476,1.54712,0,0,0,0,0,0,0,-1,881,1688,-6.37479,-1.54714
-336,-664,2.65283,7.3949,0,0,0,0,0,0,0,-1,888,1688,2.65286,-7.39493
-329,-664,2.68933,7.60779,0,0,0,0,0,0,0,-1,895,1688,2.68932,-7.60775
-322,-664,2.37708,8.34717,0,0,0,0,0,0,0,-1,902,1688,2.37708,-8.34718
-315,-664,3.15936,9.06348,0,0,0,0,0,0,0,-1,909,1688,3.15937,-9.06347
-308,-664,2.58746,9.20154,-0.00279673,0.00722957,-0.00191755,0.00758378,-0.00315095,-1.38813,0.00637141,0.046329,916,1688,2.58749,-9.20156
-301,-664,3.16882,9.51636,-0.00354007,0.00799152,-0.0023507,0.0084523,-0.00400085,-1.37723,0.00734134,0.0429174,923,1688,3.16883,-9.5164
-294,-664,3.14343,9.71387,-0.00403659,0.00850355,-0.00245218,0.00896601,-0.00449905,-1.38439,0.00791536,0.0384077,930,1688,3.14345,-9.71387
-287,-664,3.32953,9.92676,-0.00434254,0.00855433,-0.00227077,0.00894246,-0.00473067,-1.40151,0.00801805,0.0278368,937,1688,3.32953,-9.92672
-280,-664,3.28796,10.0887,-0.00449499,0.00824813,-0.00191514,0.00852973,-0.00477658,-1.4248,0.0077836,0.017587,944,1688,3.28797,-10.0887
-273,-664,3.29999,10.2246,-0.00411695,0.00756139,-0.00161245,0.00777993,-0.0043355,-1.43608,0.00708845,0.0143258,951,1688,3.29999,-10.2246
-266,-664,3.29187,10.3734,-0.00360298,0.00725923,-0.00123449,0.00739777,-0.00374151,-1.45905,0.00654573,0.0215496,958,1688,3.29184,-10.3734
-259,-664,3.26483,10.5518,-0.00309034,0.006671,-0.000824737,0.00674019,-0.00315953,-1.4871,0.0058389,0.0190346,965,1688,3.26484,-10.5518
-252,-664,3.26453,10.7007,-0.00286906,0.00585761,-0.000637006,0.00590387,-0.00291531,-1.49831,0.00518829,0.0159407,972,1688,3.2645,-10.7007
-245,-664,3.26013,10.829,-0.00239468,0.00489658,-0.000527998,0.00493462,-0.00243272,-1.49888,0.00433452,0.0200911,979,1688,3.26013,-10.8289
-238,-664,3.27252,10.9716,-0.00188178,0.00382398,-0.000366953,0.00384749,-0.00190528,-1.50683,0.00338387,0.0235309,986,1688,3.27253,-10.9716
-231,-664,3.27307,11.1147,-0.00141068,0.00263415,-0.000141204,0.00263907,-0.0014156,-1.53594,0.00237623,0.0197837,993,1688,3.2731,-11.1148
-224,-664,3.27692,11.3066,-0.00038979,0.00136839,7.9414e-05,0.00137197,-0.00039337,1.52575,0.00107015,0.0138602,1000,1688,3.27692,-11.3066
-217,-664,3.28058,11.432,-7.17201e-05,0.00011987,-0.000100783,0.000163121,-0.000114971,-1.16541,0.000161357,0.0104374,1007,1688,3.2806,-11.432
-210,-664,3.28845,11.542,-0.000375053,-0.00134202,-0.000394482,-0.000234539,-0.00148253,-0.342185,0.000920194,0.0110046,1014,1688,3.28842,-11.542
-203,-664,3.28479,11.6736,-0.000938593,-0.00313406,-0.000817583,-0.000667581,-0.00340507,-0.32008,0.00208348,0.0132238,1021,1688,3.28483,-11.6736
-196,-664,3.28552,11.8046,-0.0013723,-0.00474063,-0.00130869,-0.00092361,-0.00518933,-0.330297,0.00319648,0.0142818,1028,1688,3.28553,-11.8046
-189,-664,3.27722,11.9392,-0.00194163,-0.00638125,-0.0017782,-0.00131722,-0.00700565,-0.337693,0.00429916,0.0102507,1035,1688,3.27723,-11.9392
-182,-664,3.28918,12.0482,-0.0025871,-0.00802626,-0.00236047,-0.00170558,-0.00890778,-0.357413,0.00545953,0.00941165,1042,1688,3.28918,-12.0482
-175,-664,3.30591,12.1332,-0.00321948,-0.00958116,-0.00297821,-0.00204285,-0.0107578,-0.376255,0.00659719,0.0118907,1049,1688,3.30596,-12.1332
-168,-664,3.29285,12.2491,-0.00386078,-0.0109242,-0.00351294,-0.00241115,-0.0123738,-0.391368,0.0075745,0.012797,1056,1688,3.29284,-12.2492
-161,-664,3.29456,12.3632,-0.00431994,-0.0116529,-0.00385176,-0.00266861,-0.0133042,-0.405018,0.00812734,0.00957721,1063,1688,3.29454,-12.3632
-154,-664,3.30713,12.4802,-0.00454127,-0.0124728,-0.0041259,-0.00278424,-0.0142298,-0.402593,0.00870812,0.00954093,1070,1688,3.30711,-12.4803
-147,-664,3.30774,12.5853,-0.00456461,-0.0128617,-0.00416748,-0.00283282,-0.0145935,-0.393836,0.00893569,0.0105441,1077,1688,3.30779,-12.5854
-140,-664,3.33752,12.6794,-0.00439122,-0.0131415,-0.00404452,-0.00280818,-0.0147245,-0.373075,0.00902709,0.0111193,1084,1688,3.33753,-12.6795
-133,-664,3.36829,12.7579,-0.00396819,-0.0129272,-0.00350356,-0.00276079,-0.0141346,-0.331874,0.00865094,0.0121877,1091,1688,3.36826,-12.758
-126,-664,3.42224,12.8492,-0.00353933,-0.0125817,-0.00284256,-0.00271998,-0.013401,-0.280636,0.00817951,0.0210002,1098,1688,3.42226,-12.8492
-119,-664,3.55432,12.8466,-0.00260832,-0.0119558,-0.00187898,-0.00224476,-0.0123194,-0.191127,0.00757634,0.0340567,1105,1688,3.55427,-12.8465
-112,-664,3.56409,13.0157,-0.00150963,-0.0113934,-0.00062233,-0.0014706,-0.0114325,-0.0626349,0.00718181,0.0447288,1112,1688,3.56406,-13.0157
-105,-664,3.49951,13.1597,0,0,0,0,0,0,0,-1,1119,1688,3.49955,-13.1597
-98,-664,3.70898,12.6564,0,0,0,0,0,0,0,-1,1126,1688,3.70896,-12.6564
-91,-664,3.4397,12.4033,0,0,0,0,0,0,0,-1,1133,1688,3.43966,-12.4033
-84,-664,3.33716,12.0026,0,0,0,0,0,0,0,-1,1140,1688,3.33718,-12.0026
-77,-664,4.52014,11.2122,0,0,0,0,0,0,0,-1,1147,1688,4.5202,-11.2122
-70,-664,4.20374,8.24524,0,0,0,0,0,0,0,-1,1154,1688,4.20379,-8.24519
-63,-664,-4.677,2.40503,0,0,0,0,0,0,0,-1,1161,1688,-4.67702,-2.40498
-56,-664,-4.66504,3.32727,0,0,0,0,0,0,0,-1,1168,1688,-4.6651,-3.32724
-49,-664,-2.54297,3.31848,0,0,0,0,0,0,0,-1,1175,1688,-2.54297,-3.31852
-42,-664,-0.359253,4.38684,0,0,0,0,0,0,0,-1,1182,1688,-0.359261,-4.38685
-35,-664,-0.705566,3.55017,0,0,0,0,0,0,0,-1,1189,1688,-0.705567,-3.55023
-28,-664,-1.54236,10.2538,0,0,0,0,0,0,0,-1,1196,1688,-1.54236,-10.2538
-21,-664,1.52905,15.3049,0,0,0,0,0,0,0,-1,1203,1688,1.52906,-15.305
-14,-664,2.08752,14.9785,0,0,0,0,0,0,0,-1,1210,1688,2.08757,-14.9785
-7,-664,2.61694,14.6056,-0.00370417,0.0159887,0.00692761,0.0181816,-0.005897,1.26424,0.0144923,0.0463079,1217,1688,2.61691,-14.6056
0,-664,2.8606,14.5101,-0.00841648,0.0170004,0.00466837,0.0178307,-0.00924681,1.39478,0.0158929,0.0477871,1224,1688,2.86058,-14.5101
7,-664,2.96411,14.6819,0,0,0,0,0,0,0,-1,1231,1688,2.96407,-14.6819
14,-664,2.95117,15.486,0,0,0,0,0,0,0,-1,1238,1688,2.95123,-15.486
21,-664,2.72156,15.7969,0,0,0,0,0,0,0,-1,1245,1688,2.72152,-15.7969
28,-664,4.06006,15.4979,0.0027968,0.0206457,-0.0104732,0.0254811,-0.00203863,-1.13826,0.0177061,0.0455993,1252,1688,4.0601,-15.4979
35,-664,3.50281,14.3624,0.0134875,0.0216728,-0.0130719,0.0312778,0.00388257,-0.937108,0.0196857,0.0448029,1259,1688,3.50281,-14.3624
42,-664,2.98413,13.0253,0,0,0,0,0,0,0,-1,1266,1688,2.98419,-13.0252
49,-664,2.86548,12.8849,0,0,0,0,0,0,0,-1,1273,1688,2.86551,-12.8849
56,-664,2.74683,12.7446,0,0,0,0,0,0,0,-1,1280,1688,2.74682,-12.7446
63,-664,4.57397,14.3904,0.0737638,0.0299989,-0.0139143,0.077813,0.0259497,-0.283187,0.0457482,0.0489409,1287,1688,4.57394,-14.3904
70,-664,4.24927,14.3689,0.0850865,0.0324733,-0.0105582,0.0871262,0.0304336,-0.190836,0.0510582,0.0481846,1294,1688,4.24923,-14.3689
77,-664,4.28979,14.5482,0.092658,0.0347116,-0.0054581,0.0931676,0.0342019,-0.0931012,0.05442,0.0448754,1301,1688,4.28982,-14.5483
84,-664,4.34448,14.6647,0.0987272,0.0372303,0.00183584,0.098782,0.0371755,0.0298171,0.0576103,0.0451233,1308,1688,4.34452,-14.6647
91,-664,4.1532,14.6636,0.101658,0.0403523,0.0103989,0.103374,0.0386365,0.163531,0.060314,0.0448155,1315,1688,4.15318,-14.6635
98,-664,3.95642,14.672,0,0,0,0,0,0,0,-1,1322,1688,3.9564,-14.672
105,-664,5.09924,13.6249,0,0,0,0,0,0,0,-1,1329,1688,5.09925,-13.6249
112,-664,5.24512,13.811,0.0868612,0.0540298,0.0416661,0.115229,0.0256622,0.597744,0.0698545,0.0451182,1336,1688,5.24514,-13.8111
119,-664,5.56714,14.1937,0.0717168,0.0567421,0.0524554,0.117216,0.0112424,0.714508,0.0746795,0.046431,1343,1688,5.56712,-14.1937
126,-664,5.19678,15.0034,0,0,0,0,0,0,0,-1,1350,1688,5.19683,-15.0034
133,-664,5.77039,15.957,0.0533901,0.0706185,0.0789265,0.1414,-0.0173909,0.839754,0.100566,0.0488063,1357,1688,5.77035,-15.957
140,-664,6.40039,16.8051,0.0628302,0.0789062,0.0899031,0.16113,-0.0193935,0.829983,0.114434,0.0480146,1364,1688,6.40044,-16.8051
147,-664,7.03589,17.6462,0,0,0,0,0,0,0,-1,1371,1688,7.03589,-17.6462
154,-664,13.5482,5.89453,0,0,0,0,0,0,0,-1,1378,1688,13.5482,-5.8945
161,-664,4.60132,1.56238,0,0,0,0,0,0,0,-1,1385,1688,4.60134,-1.56233
168,-664,5.172,1.25488,0,0,0,0,0,0,0,-1,1392,1688,5.17203,-1.25484
175,-664,5.58313,1.16467,0,0,0,0,0,0,0,-1,1399,1688,5.58317,-1.16466
182,-664,5.74268,1.41113,0,0,0,0,0,0,0,-1,1406,1688,5.74263,-1.41115
189,-664,5.87744,1.87061,0,0,0,0,0,0,0,-1,1413,1688,5.87745,-1.87065
196,-664,6.7594,5.97473,0,0,0,0,0,0,0,-1,1420,1688,6.75943,-5.97478
203,-664,5.38452,5.22034,0,0,0,0,0,0,0,-1,1427,1688,5.38453,-5.2203
210,-664,5.25549,6.45715,0,0,0,0,0,0,0,-1,1434,1688,5.25549,-6.45721
217,-664,5.72009,6.73975,0,0,0,0,0,0,0,-1,1441,1688,5.72014,-6.73972
224,-664,5.05725,7.42908,0,0,0,0,0,0,0,-1,1448,1688,5.05723,-7.42912
231,-664,5.13318,7.60864,0,0,0,0,0,0,0,-1,1455,1688,5.13313,-7.60862
238,-664,4.23193,6.45471,0,0,0,0,0,0,0,-1,1462,1688,4.23197,-6.45476
245,-664,4.42004,6.80896,0,0,0,0,0,0,0,-1,1469,1688,4.4201,-6.80901
252,-664,3.67346,6.85461,0,0,0,0,0,0,0,-1,1476,1688,3.6734,-6.85462
259,-664,4.55823,11.7435,0,0,0,0,0,0,0,-1,1483,1688,4.55826,-11.7435
266,-664,4.90698,13.061,0,0,0,0,0,0,0,-1,1490,1688,4.90696,-13.061
273,-664,4.97559,13.1815,-0.00177057,0.00309306,0.00432855,0.00562613,-0.00430364,1.04133,0.00574988,0.0346503,1497,1688,4.97555,-13.1815
280,-664,4.84241,13.1346,-0.00153957,0.00366129,0.00417897,0.00598285,-0.00386114,1.06371,0.00572727,0.0228703,1504,1688,4.84237,-13.1347
287,-664,4.80554,13.0317,-0.00147199,0.00335743,0.00410675,0.00570677,-0.00382134,1.05117,0.00553684,0.0205025,1511,1688,4.80559,-13.0318
294,-664,4.84741,12.9478,-0.00142611,0.0027445,0.00415398,0.00530721,-0.00398882,1.01802,0.00538503,0.0144549,1518,1688,4.84737,-12.9477
301,-664,4.87244,12.863,-0.00131531,0.00212615,0.00404058,0.00479714,-0.00398629,0.986699,0.00507831,0.00986449,1525,1688,4.87248,-12.863
308,-664,4.87927,12.7826,-0.00112986,0.00160665,0.00375054,0.00423072,-0.00375393,0.960304,0.00461268,0.00982939,1532,1688,4.87923,-12.7826
315,-664,4.8894,12.6886,-0.000902838,0.00112884,0.00340703,0.00366825,-0.00344225,0.930282,0.00410594,0.0115176,1539,1688,4.88936,-12.6886
322,-664,4.90881,12.5853,-0.00069878,0.000770462,0.00298813,0.00311295,-0.00304127,0.905931,0.00355322,0.015643,1546,1688,4.90887,-12.5854
329,-664,4.89966,12.4849,-0.000494123,0.000501697,0.002491,0.00254407,-0.00253649,0.88404,0.00293326,0.0180163,1553,1688,4.89968,-12.4849
336,-664,4.88342,12.365,-0.000376679,0.000142802,0.00213883,0.0020376,-0.00227148,0.845823,0.00248907,0.014908,1560,1688,4.88336,-12.3649
343,-664,4.89392,12.2511,-0.000298223,0.000204553,0.00161935,0.00159191,-0.00168558,0.862404,0.00189252,0.0116253,1567,1688,4.89391,-12.2511
350,-664,4.90515,12.1306,-4.44881e-05,0.000473393,0.000790127,0.00104593,-0.000617023,0.943743,0.000970691,0.0129685,1574,1688,4.90515,-12.1306
357,-664,4.90247,12.0204,0.00021728,0.000600035,0.000217843,0.000698625,0.00011869,1.14581,0.00043166,0.0135293,1581,1688,4.90251,-12.0203
364,-664,4.90283,11.9067,0.000413126,0.000886937,-0.000223903,0.000976002,0.000324062,-1.1922,0.000573996,0.0111861,1588,1688,4.90285,-11.9067
371,-664,4.90637,11.7961,0.00069096,0.00113669,-0.000648626,0.00159967,0.00022798,-0.950878,0.000999163,0.012905,1595,1688,4.9064,-11.7961
378,-664,4.89063,11.6732,0.00106896,0.00143745,-0.00110887,0.00237728,0.000129131,-0.867723,0.00154361,0.0119177,1602,1688,4.89065,-11.6732
385,-664,4.89636,11.5474,0.00154573,0.00169561,-0.00148836,0.00311091,0.000130427,-0.810552,0.00203186,0.0130778,1609,1688,4.89639,-11.5473
392,-664,4.87561,11.4467,0.00203747,0.00195309,-0.0018024,0.00379817,0.00019238,-0.773696,0.00247049,0.0165558,1616,1688,4.87558,-11.4466
399,-664,4.87537,11.3188,0.00237367,0.00187331,-0.00182513,0.00396569,0.000281292,-0.717285,0.0025552,0.0136812,1623,1688,4.87537,-11.3188
406,-664,4.9043,11.1666,0.00264219,0.00132601,-0.00147608,0.00360024,0.000367962,-0.575705,0.00228739,0.0124864,1630,1688,4.90431,-11.1666
413,-664,4.92615,10.9888,0.00301212,1.79071e-06,-0.000625076,0.00313675,-0.000122843,-0.196808,0.00213329,0.0127984,1637,1688,4.92612,-10.9887
420,-664,4.96106,10.8358,0.00346387,-0.0013279,0.000167319,0.00346971,-0.00133374,0.0348614,0.00286321,0.0268788,1644,1688,4.96108,-10.8359
427,-664,5.05188,10.7446,0.00351518,-0.00349238,0.00163381,0.00387738,-0.00385458,0.218162,0.00446406,0.0439996,1651,1688,5.05189,-10.7447
434,-664,5.18774,10.8206,0,0,0,0,0,0,0,-1,1658,1688,5.18776,-10.8205
441,-664,5.64294,10.8113,0,0,0,0,0,0,0,-1,1665,1688,5.6429,-10.8113
448,-664,6.12134,10.5239,0,0,0,0,0,0,0,-1,1672,1688,6.12134,-10.5239
455,-664,5.703,8.8092,0,0,0,0,0,0,0,-1,1679,1688,5.70294,-8.80919
462,-664,4.3147,4.25439,0,0,0,0,0,0,0,-1,1686,1688,4.31467,-4.25435
469,-664,6.05469,7.49341,0,0,0,0,0,0,0,-1,1693,1688,6.05474,-7.49339
476,-664,5.20984,9.48767,0,0,0,0,0,0,0,-1,1700,1688,5.20978,-9.48762
483,-664,4.21143,7.52271,0,0,0,0,0,0,0,-1,1707,1688,4.21139,-7.52274
490,-664,4.33044,7.50256,0,0,0,0,0,0,0,-1,1714,1688,4.33049,-7.50252
497,-664,0,0,0,0,0,0,0,0,0,-1,1721,1688,0,0
504,-664,0,0,0,0,0,0,0,0,0,-1,1728,1688,0,0
511,-664,0,0,0,0,0,0,0,0,0,-1,1735,1688,0,0
518,-664,0,0,0,0,0,0,0,0,0,-1,1742,1688,0,0
525,-664,0,0,0,0,0,0,0,0,0,-1,1749,1688,0,0
532,-664,0,0,0,0,0,0,0,0,0,-1,1756,1688,0,0
539,-664,0,0,0,0,0,0,0,0,0,-1,1763,1688,0,0
546,-664,0,0,0,0,0,0,0,0,0,-1,1770,1688,0,0
553,-664,0,0,0,0,0,0,0,0,0,-1,1777,1688,0,0
560,-664,0,0,0,0,0,0,0,0,0,-1,1784,1688,0,0
567,-664,0,0,0,0,0,0,0,0,0,-1,1791,1688,0,0
574,-664,0,0,0,0,0,0,0,0,0,-1,1798,1688,0,0
581,-664,0,0,0,0,0,0,0,0,0,-1,1805,1688,0,0
588,-664,0,0,0,0,0,0,0,0,0,-1,1812,1688,0,0
595,-664,0,0,0,0,0,0,0,0,0,-1,1819,1688,0,0
602,-664,0,0,0,0,0,0,0,0,0,-1,1826,1688,0,0
609,-664,0,0,0,0,0,0,0,0,0,-1,1833,1688,0,0
616,-664,0,0,0,0,0,0,0,0,0,-1,1840,1688,0,0
623,-664,0,0,0,0,0,0,0,0,0,-1,1847,1688,0,0
630,-664,0,0,0,0,0,0,0,0,0,-1,1854,1688,0,0
637,-664,0,0,0,0,0,0,0,0,0,-1,1861,1688,0,0
644,-664,0,0,0,0,0,0,0,0,0,-1,1868,1688,0,0
651,-664,0,0,0,0,0,0,0,0,0,-1,1875,1688,0,0
658,-664,0,0,0,0,0,0,0,0,0,-1,1882,1688,0,0
665,-664,0,0,0,0,0,0,0,0,0,-1,1889,1688,0,0
672,-664,0,0,0,0,0,0,0,0,0,-1,1896,1688,0,0
679,-664,0,0,0,0,0,0,0,0,0,-1,1903,1688,0,0
686,-664,0,0,0,0,0,0,0,0,0,-1,1910,1688,0,0
693,-664,0,0,0,0,0,0,0,0,0,-1,1917,1688,0,0
700,-664,0,0,0,0,0,0,0,0,0,-1,1924,1688,0,0
707,-664,0,0,0,0,0,0,0,0,0,-1,1931,1688,0,0
714,-664,0,0,0,0,0,0,0,0,0,-1,1938,1688,0,0
721,-664,0,0,0,0,0,0,0,0,0,-1,1945,1688,0,0
728,-664,0,0,0,0,0,0,0,0,0,-1,1952,1688,0,0
735,-664,0,0,0,0,0,0,0,0,0,-1,1959,1688,0,0
742,-664,0,0,0,0,0,0,0,0,0,-1,1966,1688,0,0
749,-664,0,0,0,0,0,0,0,0,0,-1,1973,1688,0,0
756,-664,0,0,0,0,0,0,0,0,0,-1,1980,1688,0,0
763,-664,0,0,0,0,0,0,0,0,0,-1,1987,1688,0,0
770,-664,0,0,0,0,0,0,0,0,0,-1,1994,1688,0,0
777,-664,0,0,0,0,0,0,0,0,0,-1,2001,1688,0,0
784,-664,0,0,0,0,0,0,0,0,0,-1,2008,1688,0,0
791,-664,0,0,0,0,0,0,0,0,0,-1,2015,1688,0,0
798,-664,0,0,0,0,0,0,0,0,0,-1,2022,1688,0,0
805,-664,0,0,0,0,0,0,0,0,0,-1,2029,1688,0,0
812,-664,0,0,0,0,0,0,0,0,0,-1,2036,1688,0,0
-700,-671,0,0,0,0,0,0,0,0,0,-1,524,1695,0,0
-693,-671,0,0,0,0,0,0,0,0,0,-1,531,1695,0,0
-686,-671,0,0,0,0,0,0,0,0,0,-1,538,1695,0,0
-679,-671,0,0,0,0,0,0,0,0,0,-1,545,1695,0,0
-672,-671,0,0,0,0,0,0,0,0,0,-1,552,1695,0,0
-665,-671,0,0,0,0,0,0,0,0,0,-1,559,1695,0,0
-658,-671,0,0,0,0,0,0,0,0,0,-1,566,1695,0,0
-651,-671,0,0,0,0,0,0,0,0,0,-1,573,1695,0,0
-644,-671,0,0,0,0,0,0,0,0,0,-1,580,1695,0,0
-637,-671,0,0,0,0,0,0,0,0,0,-1,587,1695,0,0
-630,-671,0,0,0,0,0,0,0,0,0,-1,594,1695,0,0
-623,-671,0,0,0,0,0,0,0,0,0,-1,601,1695,0,0
-616,-671,0,0,0,0,0,0,0,0,0,-1,608,1695,0,0
-609,-671,0,0,0,0,0,0,0,0,0,-1,615,1695,0,0
-602,-671,0,0,0,0,0,0,0,0,0,-1,622,1695,0,0
-595,-671,0,0,0,0,0,0,0,0,0,-1,629,1695,0,0
-588,-671,0,0,0,0,0,0,0,0,0,-1,636,1695,0,0
-581,-671,0,0,0,0,0,0,0,0,0,-1,643,1695,0,0
-574,-671,0,0,0,0,0,0,0,0,0,-1,650,1695,0,0
-567,-671,0,0,0,0,0,0,0,0,0,-1,657,1695,0,0
-560,-671,0,0,0,0,0,0,0,0,0,-1,664,1695,0,0
-553,-671,0,0,0,0,0,0,0,0,0,-1,671,1695,0,0
-546,-671,0,0,0,0,0,0,0,0,0,-1,678,1695,0,0
-539,-671,0,0,0,0,0,0,0,0,0,-1,685,1695,0,0
-532,-671,0,0,0,0,0,0,0,0,0,-1,692,1695,0,0
-525,-671,0,0,0,0,0,0,0,0,0,-1,699,1695,0,0
-518,-671,0,0,0,0,0,0,0,0,0,-1,706,1695,0,0
-511,-671,0,0,0,0,0,0,0,0,0,-1,713,1695,0,0
-504,-671,0,0,0,0,0,0,0,0,0,-1,720,1695,0,0
-497,-671,0,0,0,0,0,0,0,0,0,-1,727,1695,0,0
-490,-671,0,0,0,0,0,0,0,0,0,-1,734,1695,0,0
-483,-671,0,0,0,0,0,0,0,0,0,-1,741,1695,0,0
-476,-671,0,0,0,0,0,0,0,0,0,-1,748,1695,0,0
-469,-671,0,0,0,0,0,0,0,0,0,-1,755,1695,0,0
-462,-671,0,0,0,0,0,0,0,0,0,-1,762,1695,0,0
-455,-671,0,0,0,0,0,0,0,0,0,-1,769,1695,0,0
-448,-671,0,0,0,0,0,0,0,0,0,-1,776,1695,0,0
-441,-671,0,0,0,0,0,0,0,0,0,-1,783,1695,0,0
-434,-671,0,0,0,0,0,0,0,0,0,-1,790,1695,0,0
-427,-671,0,0,0,0,0,0,0,0,0,-1,797,1695,0,0
-420,-671,0,0,0,0,0,0,0,0,0,-1,804,1695,0,0
-413,-671,0,0,0,0,0,0,0,0,0,-1,811,1695,0,0
-406,-671,0,0,0,0,0,0,0,0,0,-1,818,1695,0,0
-399,-671,0,0,0,0,0,0,0,0,0,-1,825,1695,0,0
-392,-671,0,0,0,0,0,0,0,0,0,-1,832,1695,0,0
-385,-671,0,0,0,0,0,0,0,0,0,-1,839,1695,0,0
-378,-671,0,0,0,0,0,0,0,0,0,-1,846,1695,0,0
-371,-671,0,0,0,0,0,0,0,0,0,-1,853,1695,0,0
-364,-671,-4.18738,7.51416,0,0,0,0,0,0,0,-1,860,1695,-4.18739,-7.51419
-357,-671,-5.02393,6.07129,0,0,0,0,0,0,0,-1,867,1695,-5.0239,-6.07135
-350,-671,-5.72333,4.58386,0,0,0,0,0,0,0,-1,874,1695,-5.72333,-4.58386
-343,-671,-6.4884,3.11353,0,0,0,0,0,0,0,-1,881,1695,-6.48839,-3.11349
-336,-671,-7.30127,1.64417,0,0,0,0,0,0,0,-1,888,1695,-7.30127,-1.64414
-329,-671,-7.47766,-0.74585,0,0,0,0,0,0,0,-1,895,1695,-7.47769,0.745906
-322,-671,2.40674,7.72949,0,0,0,0,0,0,0,-1,902,1695,2.40676,-7.72949
-315,-671,2.20306,8.86414,0,0,0,0,0,0,0,-1,909,1695,2.20304,-8.86414
-308,-671,2.55884,9.22388,0,0,0,0,0,0,0,-1,916,1695,2.55885,-9.22387
-301,-671,3.23682,9.51575,0,0,0,0,0,0,0,-1,923,1695,3.23683,-9.5157
-294,-671,3.48132,9.75037,-0.00801869,0.011458,-0.00441475,0.012412,-0.00897265,-1.35798,0.0123995,0.0489878,930,1695,3.48133,-9.75041
-287,-671,3.60486,9.84827,-0.00819457,0.0115803,-0.00394394,0.0123378,-0.00895214,-1.38102,0.0123435,0.0435246,937,1695,3.60487,-9.84823
-280,-671,3.70551,9.93494,-0.00805233,0.0111496,-0.00325139,0.0116852,-0.00858793,-1.40753,0.0117502,0.0338084,944,1695,3.70548,-9.93491
-273,-671,3.48383,10.1764,-0.0072009,0.0101339,-0.00281067,0.0105783,-0.00764524,-1.41401,0.0105667,0.0309531,951,1695,3.48383,-10.1763
-266,-671,3.49164,10.4103,-0.00619219,0.00969045,-0.00231662,0.0100214,-0.00652319,-1.42888,0.00962297,0.022868,958,1695,3.49162,-10.4103
-259,-671,3.42865,10.5627,-0.00522656,0.0089563,-0.00174092,0.00916687,-0.00543713,-1.45043,0.00852279,0.0214005,965,1695,3.42865,-10.5627
-252,-671,3.3891,10.6971,-0.00465177,0.00798822,-0.00145552,0.00815366,-0.00481721,-1.45762,0.00757087,0.0168794,972,1695,3.38907,-10.6971
-245,-671,3.38074,10.8221,-0.00385791,0.00689439,-0.0012621,0.00704055,-0.00400407,-1.4555,0.00645644,0.0201423,979,1695,3.38076,-10.8221
-238,-671,3.4032,10.9753,-0.00313491,0.00571439,-0.00102203,0.0058309,-0.00325141,-1.45729,0.0053137,0.0210785,986,1695,3.40319,-10.9753
-231,-671,3.41266,11.1384,-0.00255723,0.00445984,-0.000730615,0.0045351,-0.00263249,-1.46814,0.00418653,0.016221,993,1695,3.41264,-11.1385
-224,-671,3.39532,11.2753,-0.0011917,0.00311061,-0.000419397,0.00315111,-0.0012322,-1.47452,0.00261029,0.0126324,1000,1695,3.39535,-11.2753
-217,-671,3.39954,11.3931,-0.000788899,0.0017801,-0.00058638,0.00190761,-0.000916413,-1.35667,0.00166359,0.0117593,1007,1695,3.39954,-11.393
-210,-671,3.43231,11.5389,-0.000913651,0.000402972,-0.000790749,0.000773572,-0.00128425,-1.13253,0.00120022,0.0111582,1014,1695,3.43233,-11.539
-203,-671,3.40344,11.6699,-0.00117733,-0.00110246,-0.00101334,-0.000125866,-0.00215392,-0.803862,0.00139589,0.0180128,1021,1695,3.40345,-11.6699
-196,-671,3.39856,11.792,-0.00137029,-0.00246992,-0.00127513,-0.000531488,-0.00330872,-0.58185,0.00205172,0.0153874,1028,1695,3.39857,-11.792
-189,-671,3.4104,11.9471,-0.00162957,-0.00385622,-0.00151258,-0.000864764,-0.00462103,-0.468143,0.00283672,0.0124407,1035,1695,3.41041,-11.9471
-182,-671,3.39917,12.0519,-0.00191796,-0.00516109,-0.00184825,-0.00108076,-0.00599828,-0.425318,0.00369172,0.00999818,1042,1695,3.39915,-12.0519
-175,-671,3.41577,12.145,-0.00214574,-0.00631624,-0.00221084,-0.0011919,-0.00727008,-0.407312,0.00450232,0.012307,1049,1695,3.41579,-12.145
-168,-671,3.41638,12.2457,-0.00240235,-0.00727967,-0.00248249,-0.0013611,-0.00832092,-0.397152,0.00515385,0.0129262,1056,1695,3.41642,-12.2458
-161,-671,3.41211,12.3688,-0.00254213,-0.00778617,-0.00262468,-0.00145417,-0.00887413,-0.392953,0.00549587,0.00893319,1063,1695,3.4121,-12.3688
-154,-671,3.4198,12.4873,-0.0024927,-0.00833171,-0.00274317,-0.00140615,-0.00941827,-0.377134,0.00586657,0.00855104,1070,1695,3.41976,-12.4873
-147,-671,3.42883,12.6036,-0.00231919,-0.00853449,-0.00268471,-0.00132012,-0.00953356,-0.356255,0.00596457,0.0102954,1077,1695,3.42878,-12.6037
-140,-671,3.4458,12.694,-0.00204219,-0.00871663,-0.00253916,-0.00118604,-0.00957278,-0.325208,0.00602554,0.0113071,1084,1695,3.44579,-12.6939
-133,-671,3.45581,12.7843,-0.00160913,-0.00861762,-0.00210226,-0.00102691,-0.00919984,-0.27018,0.0058212,0.0124844,1091,1695,3.45576,-12.7843
-126,-671,3.47217,12.9082,-0.00119953,-0.00845993,-0.00156242,-0.000877574,-0.00878188,-0.203216,0.00558509,0.0148469,1098,1695,3.47222,-12.9082
-119,-671,3.53687,12.969,-0.000525148,-0.00813261,-0.000834541,-0.000434675,-0.00822308,-0.107989,0.00534306,0.0259098,1105,1695,3.53692,-12.9689
-112,-671,3.5918,13.0651,0.000173861,-0.00792954,6.10011e-05,0.00017432,-0.00793,0.00752727,0.00534572,0.0341355,1112,1695,3.59177,-13.0651
-105,-671,3.82898,13.0621,0.00125982,-0.00672049,0.0012664,0.00145596,-0.00691664,0.153663,0.00516527,0.0415581,1119,1695,3.82895,-13.0621
-98,-671,3.72742,13.0852,0.00232324,-0.00488299,0.00280351,0.00328544,-0.00584519,0.330615,0.00534018,0.0401395,1126,1695,3.72739,-13.0852
-91,-671,3.53845,12.9558,0.00173418,-0.00454648,0.0039557,0.00364451,-0.00645682,0.449901,0.00590687,0.0418469,1133,1695,3.53841,-12.9558
-84,-671,3.42505,12.7103,0,0,0,0,0,0,0,-1,1140,1695,3.42502,-12.7103
-77,-671,3.57788,13.1096,0,0,0,0,0,0,0,-1,1147,1695,3.5779,-13.1096
-70,-671,3.06067,10.7737,0,0,0,0,0,0,0,-1,1154,1695,3.0607,-10.7737
-63,-671,2.94592,6.90198,0,0,0,0,0,0,0,-1,1161,1695,2.94594,-6.90198
-56,-671,-3.07678,2.87976,0,0,0,0,0,0,0,-1,1168,1695,-3.07675,-2.87979
-49,-671,-1.05957,4.76917,0,0,0,0,0,0,0,-1,1175,1695,-1.05958,-4.76921
-42,-671,0.539307,3.7865,0,0,0,0,0,0,0,-1,1182,1695,0.539266,-3.78648
-35,-671,-0.272461,0.347534,0,0,0,0,0,0,0,-1,1189,1695,-0.272434,-0.347569
-28,-671,-0.662964,5.40405,0,0,0,0,0,0,0,-1,1196,1695,-0.662966,-5.40405
-21,-671,3.20032,13.2023,0,0,0,0,0,0,0,-1,1203,1695,3.2003,-13.2022
-14,-671,4.06274,13.5327,0,0,0,0,0,0,0,-1,1210,1695,4.06278,-13.5327
-7,-671,4.13904,13.4705,0,0,0,0,0,0,0,-1,1217,1695,4.13904,-13.4705
0,-671,3.42529,14.0883,-0.0057851,0.0147566,0.000671787,0.0147785,-0.00580704,1.53814,0.0122555,0.0460588,1224,1695,3.42531,-14.0883
7,-671,3.29944,14.1874,-0.0103441,0.0146537,-0.00194021,0.0148034,-0.0104938,-1.4938,0.0146758,0.0436258,1231,1695,3.29939,-14.1874
14,-671,3.08972,14.2365,0,0,0,0,0,0,0,-1,1238,1695,3.08967,-14.2364
21,-671,4.41467,16.5784,-0.00500852,0.0167558,-0.00857953,0.0197311,-0.00798383,-1.23698,0.0164734,0.0485815,1245,1695,4.41462,-16.5784
28,-671,4.02661,15.3835,0.00306819,0.0166103,-0.0113733,0.0230756,-0.00339707,-1.05389,0.0166321,0.0492863,1252,1695,4.02661,-15.3835
35,-671,3.46802,14.1807,0.0106116,0.0170793,-0.0134741,0.0277021,-1.12802e-05,-0.903173,0.0184719,0.0456841,1259,1695,3.46805,-14.1806
42,-671,3.02148,13.2349,0.0200817,0.0178354,-0.0150334,0.0340339,0.00388324,-0.748113,0.021512,0.0491915,1266,1695,3.02143,-13.2348
49,-671,2.93604,13.0988,0.0306419,0.0188061,-0.0157554,0.0415542,0.00789376,-0.605745,0.0254824,0.0497719,1273,1695,2.93606,-13.0988
56,-671,2.76306,12.9523,0,0,0,0,0,0,0,-1,1280,1695,2.76305,-12.9523
63,-671,2.08325,13.2587,0,0,0,0,0,0,0,-1,1287,1695,2.0832,-13.2586
70,-671,4.65295,14.3802,0,0,0,0,0,0,0,-1,1294,1695,4.6529,-14.3802
77,-671,4.5498,14.4393,0.0658492,0.0256886,-0.00757942,0.067232,0.0243057,-0.180461,0.0393095,0.0475057,1301,1695,4.54979,-14.4393
84,-671,4.41272,14.501,0.0698786,0.0277457,-0.00150208,0.0699321,0.0276922,-0.0355908,0.0406655,0.0478963,1308,1695,4.41266,-14.501
91,-671,4.27039,14.5883,0.0718959,0.0302613,0.00575948,0.072678,0.0294793,0.134958,0.0422091,0.0451623,1315,1695,4.27044,-14.5883
98,-671,4.12219,14.6869,0.0702351,0.0338321,0.0142634,0.075158,0.0289092,0.332342,0.0437758,0.0456023,1322,1695,4.12223,-14.6869
105,-671,3.91736,14.8152,0.0673316,0.0375759,0.02252,0.0794445,0.025463,0.493486,0.046842,0.0460583,1329,1695,3.91741,-14.8152
112,-671,4.81836,13.9767,0.0617215,0.0411882,0.0316288,0.0847082,0.0182014,0.628464,0.0514888,0.0437461,1336,1695,4.81842,-13.9767
119,-671,4.78882,14.2141,0.0523047,0.0435325,0.0412674,0.0894184,0.00641881,0.732455,0.057592,0.0445575,1343,1695,4.7888,-14.2142
126,-671,4.76782,14.6193,0.0460402,0.045821,0.0513782,0.0973089,-0.00544774,0.784332,0.0667626,0.0476868,1350,1695,4.76785,-14.6193
133,-671,5.15503,15.4359,0.0436763,0.0540165,0.0614087,0.110472,-0.0127796,0.827395,0.0782567,0.0463846,1357,1695,5.15502,-15.4359
140,-671,5.76868,16.2974,0.0511305,0.0602461,0.0697292,0.125566,-0.0141897,0.818034,0.0888194,0.0497211,1364,1695,5.76873,-16.2974
147,-671,6.46118,17.0626,0,0,0,0,0,0,0,-1,1371,1695,6.46119,-17.0626
154,-671,6.47681,11.9669,0,0,0,0,0,0,0,-1,1378,1695,6.47685,-11.9669
161,-671,4.49292,4.91272,0,0,0,0,0,0,0,-1,1385,1695,4.49297,-4.91273
168,-671,5.17639,6.1416,0,0,0,0,0,0,0,-1,1392,1695,5.1764,-6.14164
175,-671,5.6731,1.64685,0,0,0,0,0,0,0,-1,1399,1695,5.67313,-1.64691
182,-671,5.56812,1.71692,0,0,0,0,0,0,0,-1,1406,1695,5.56809,-1.71686
189,-671,6.98315,6.36169,0,0,0,0,0,0,0,-1,1413,1695,6.98312,-6.36175
196,-671,5.38123,5.69775,0,0,0,0,0,0,0,-1,1420,1695,5.38125,-5.69769
203,-671,5.95117,8.11658,0,0,0,0,0,0,0,-1,1427,1695,5.9512,-8.11662
210,-671,4.73596,8.39624,0,0,0,0,0,0,0,-1,1434,1695,4.736,-8.39618
217,-671,5.37097,11.863,0,0,0,0,0,0,0,-1,1441,1695,5.37094,-11.863
224,-671,5.25684,13.2098,0,0,0,0,0,0,0,-1,1448,1695,5.25687,-13.2098
231,-671,5.07214,13.1682,0,0,0,0,0,0,0,-1,1455,1695,5.07211,-13.1682
238,-671,5.15808,12.608,0,0,0,0,0,0,0,-1,1462,1695,5.15802,-12.608
245,-671,4.9054,12.3986,0,0,0,0,0,0,0,-1,1469,1695,4.90544,-12.3986
252,-671,4.71143,13.1414,0,0,0,0,0,0,0,-1,1476,1695,4.71137,-13.1414
259,-671,4.79419,13.1893,0,0,0,0,0,0,0,-1,1483,1695,4.7942,-13.1893
266,-671,4.77332,13.2817,-0.00118715,0.000852276,0.00337563,0.00335885,-0.00369372,0.932081,0.00407333,0.0168086,1490,1695,4.77327,-13.2817
273,-671,4.76013,13.2363,-0.000965911,0.00120099,0.00317866,0.00347578,-0.0032407,0.949649,0.00387855,0.00912526,1497,1695,4.76007,-13.2363
280,-671,4.75684,13.1675,-0.000866573,0.00193888,0.00294827,0.00380111,-0.0027288,1.00744,0.00378695,0.0094597,1504,1695,4.75688,-13.1675
287,-671,4.74976,13.0392,-0.00087464,0.0020279,0.00283112,0.00375805,-0.00260479,1.02224,0.00369365,0.0113101,1511,1695,4.7497,-13.0392
294,-671,4.74817,12.9277,-0.000886444,0.00188366,0.00283276,0.00365184,-0.00265463,1.01278,0.00365618,0.0107999,1518,1695,4.74814,-12.9277
301,-671,4.76392,12.8507,-0.000855199,0.0016714,0.00272352,0.00341035,-0.00259414,1.00255,0.00347735,0.00998408,1525,1695,4.7639,-12.8507
308,-671,4.78809,12.7775,-0.00078178,0.00148178,0.00249078,0.00308586,-0.00238586,0.998646,0.0031677,0.0111329,1532,1695,4.78811,-12.7775
315,-671,4.81262,12.6841,-0.000656823,0.00120135,0.0022406,0.00269785,-0.00215332,0.981938,0.0028067,0.0133839,1539,1695,4.81258,-12.684
322,-671,4.81531,12.588,-0.000519143,0.000994377,0.00190005,0.00228283,-0.00180759,0.974911,0.00236691,0.0160138,1546,1695,4.81529,-12.588
329,-671,4.76648,12.4982,-0.000395845,0.000806383,0.00150459,0.00182549,-0.00141495,0.975445,0.00187587,0.0145447,1553,1695,4.76643,-12.4982
336,-671,4.76917,12.3647,-0.000305156,0.000555434,0.00119736,0.00139747,-0.0011472,0.957896,0.00147153,0.0110694,1560,1695,4.76922,-12.3648
343,-671,4.7782,12.2328,-0.000211417,0.000659776,0.000728712,0.00107316,-0.000624799,1.05478,0.000991643,0.0104127,1567,1695,4.77824,-12.2328
350,-671,4.77454,12.1272,4.80043e-05,0.00103598,-2.18291e-05,0.00103646,4.75221e-05,-1.54872,0.00067569,0.0101854,1574,1695,4.77456,-12.1272
357,-671,4.78491,12.0068,0.000283327,0.00119634,-0.000518625,0.00143075,4.89138e-05,-1.14629,0.000937956,0.00996975,1581,1695,4.78489,-12.0069
364,-671,4.78296,11.8967,0.000513791,0.00145808,-0.000952066,0.00204864,-7.67747e-05,-1.01558,0.00139206,0.0127601,1588,1695,4.783,-11.8967
371,-671,4.76172,11.8013,0.000907335,0.00170925,-0.00137948,0.00274486,-0.000128275,-0.92683,0.00187413,0.0142819,1595,1695,4.76177,-11.8012
378,-671,4.78699,11.6624,0.00141012,0.00205218,-0.0018451,0.00360397,-0.00014167,-0.871531,0.00245123,0.0114565,1602,1695,4.78703,-11.6624
385,-671,4.79016,11.5322,0.00201147,0.00244215,-0.00219352,0.00443087,2.27441e-05,-0.834327,0.00294636,0.0135871,1609,1695,4.79022,-11.5322
392,-671,4.76111,11.4369,0.00264465,0.00279476,-0.00251457,0.0052354,0.000204013,-0.800318,0.00342429,0.0192673,1616,1695,4.76114,-11.4368
399,-671,4.76697,11.3031,0.00313712,0.00271399,-0.00250137,0.00543586,0.000415255,-0.743209,0.00349373,0.0147453,1623,1695,4.76698,-11.3031
406,-671,4.78857,11.1619,0.00358934,0.00210632,-0.00208682,0.00506247,0.000633186,-0.61469,0.00318497,0.0191453,1630,1695,4.78855,-11.1619
413,-671,4.78748,11.0819,0.0041868,0.000567235,-0.00108781,0.00448857,0.000265468,-0.270604,0.00290793,0.0289498,1637,1695,4.78752,-11.0819
420,-671,4.88733,10.927,0.00489342,-0.000898554,-0.000128657,0.00489628,-0.000901411,-0.0221985,0.00360245,0.0466859,1644,1695,4.8873,-10.927
427,-671,4.95618,10.7565,0,0,0,0,0,0,0,-1,1651,1695,4.9562,-10.7565
434,-671,5.29834,11.0823,0,0,0,0,0,0,0,-1,1658,1695,5.29829,-11.0823
441,-671,5.74023,11.4043,0,0,0,0,0,0,0,-1,1665,1695,5.7402,-11.4043
448,-671,4.33752,8.12134,0,0,0,0,0,0,0,-1,1672,1695,4.33754,-8.12132
455,-671,3.40137,9.28076,0,0,0,0,0,0,0,-1,1679,1695,3.40135,-9.28082
462,-671,5.86255,4.47961,0,0,0,0,0,0,0,-1,1686,1695,5.8625,-4.4796
469,-671,3.71301,3.76978,0,0,0,0,0,0,0,-1,1693,1695,3.71297,-3.76974
476,-671,3.75574,3.18848,0,0,0,0,0,0,0,-1,1700,1695,3.7558,-3.18847
483,-671,3.56714,2.76868,0,0,0,0,0,0,0,-1,1707,1695,3.56713,-2.7687
490,-671,0,0,0,0,0,0,0,0,0,-1,1714,1695,0,0
497,-671,0,0,0,0,0,0,0,0,0,-1,1721,1695,0,0
504,-671,0,0,0,0,0,0,0,0,0,-1,1728,1695,0,0
511,-671,0,0,0,0,0,0,0,0,0,-1,1735,1695,0,0
518,-671,0,0,0,0,0,0,0,0,0,-1,1742,1695,0,0
525,-671,0,0,0,0,0,0,0,0,0,-1,1749,1695,0,0
532,-671,0,0,0,0,0,0,0,0,0,-1,1756,1695,0,0
539,-671,0,0,0,0,0,0,0,0,0,-1,1763,1695,0,0
546,-671,0,0,0,0,0,0,0,0,0,-1,1770,1695,0,0
553,-671,0,0,0,0,0,0,0,0,0,-1,1777,1695,0,0
560,-671,0,0,0,0,0,0,0,0,0,-1,1784,1695,0,0
567,-671,0,0,0,0,0,0,0,0,0,-1,1791,1695,0,0
574,-671,0,0,0,0,0,0,0,0,0,-1,1798,1695,0,0
581,-671,0,0,0,0,0,0,0,0,0,-1,1805,1695,0,0
588,-671,0,0,0,0,0,0,0,0,0,-1,1812,1695,0,0
595,-671,0,0,0,0,0,0,0,0,0,-1,1819,1695,0,0
602,-671,0,0,0,0,0,0,0,0,0,-1,1826,1695,0,0
609,-671,0,0,0,0,0,0,0,0,0,-1,1833,1695,0,0
616,-671,0,0,0,0,0,0,0,0,0,-1,1840,1695,0,0
623,-671,0,0,0,0,0,0,0,0,0,-1,1847,1695,0,0
630,-671,0,0,0,0,0,0,0,0,0,-1,1854,1695,0,0
637,-671,0,0,0,0,0,0,0,0,0,-1,1861,1695,0,0
644,-671,0,0,0,0,0,0,0,0,0,-1,1868,1695,0,0
651,-671,0,0,0,0,0,0,0,0,0,-1,1875,1695,0,0
658,-671,0,0,0,0,0,0,0,0,0,-1,1882,1695,0,0
665,-671,0,0,0,0,0,0,0,0,0,-1,1889,1695,0,0
672,-671,0,0,0,0,0,0,0,0,0,-1,1896,1695,0,0
679,-671,0,0,0,0,0,0,0,0,0,-1,1903,1695,0,0
686,-671,0,0,0,0,0,0,0,0,0,-1,1910,1695,0,0
693,-671,0,0,0,0,0,0,0,0,0,-1,1917,1695,0,0
700,-671,0,0,0,0,0,0,0,0,0,-1,1924,1695,0,0
707,-671,0,0,0,0,0,0,0,0,0,-1,1931,1695,0,0
714,-671,0,0,0,0,0,0,0,0,0,-1,1938,1695,0,0
721,-671,0,0,0,0,0,0,0,0,0,-1,1945,1695,0,0
728,-671,0,0,0,0,0,0,0,0,0,-1,1952,1695,0,0
735,-671,0,0,0,0,0,0,0,0,0,-1,1959,1695,0,0
742,-671,0,0,0,0,0,0,0,0,0,-1,1966,1695,0,0
749,-671,0,0,0,0,0,0,0,0,0,-1,1973,1695,0,0
756,-671,0,0,0,0,0,0,0,0,0,-1,1980,1695,0,0
763,-671,0,0,0,0,0,0,0,0,0,-1,1987,1695,0,0
770,-671,0,0,0,0,0,0,0,0,0,-1,1994,1695,0,0
777,-671,0,0,0,0,0,0,0,0,0,-1,2001,1695,0,0
784,-671,0,0,0,0,0,0,0,0,0,-1,2008,1695,0,0
791,-671,0,0,0,0,0,0,0,0,0,-1,2015,1695,0,0
798,-671,0,0,0,0,0,0,0,0,0,-1,2022,1695,0,0
805,-671,0,0,0,0,0,0,0,0,0,-1,2029,1695,0,0
812,-671,0,0,0,0,0,0,0,0,0,-1,2036,1695,0,0
-700,-678,0,0,0,0,0,0,0,0,0,-1,524,1702,0,0
-693,-678,0,0,0,0,0,0,0,0,0,-1,531,1702,0,0
-686,-678,0,0,0,0,0,0,0,0,0,-1,538,1702,0,0
-679,-678,0,0,0,0,0,0,0,0,0,-1,545,1702,0,0
-672,-678,0,0,0,0,0,0,0,0,0,-1,552,1702,0,0
-665,-678,0,0,0,0,0,0,0,0,0,-1,559,1702,0,0
-658,-678,0,0,0,0,0,0,0,0,0,-1,566,1702,0,0
-651,-678,0,0,0,0,0,0,0,0,0,-1,573,1702,0,0
-644,-678,0,0,0,0,0,0,0,0,0,-1,580,1702,0,0
-637,-678,0,0,0,0,0,0,0,0,0,-1,587,1702,0,0
-630,-678,0,0,0,0,0,0,0,0,0,-1,594,1702,0,0
-623,-678,0,0,0,0,0,0,0,0,0,-1,601,1702,0,0
-616,-678,0,0,0,0,0,0,0,0,0,-1,608,1702,0,0
-609,-678,0,0,0,0,0,0,0,0,0,-1,615,1702,0,0
-602,-678,0,0,0,0,0,0,0,0,0,-1,622,1702,0,0
-595,-678,0,0,0,0,0,0,0,0,0,-1,629,1702,0,0
-588,-678,0,0,0,0,0,0,0,0,0,-1,636,1702,0,0
-581,-678,0,0,0,0,0,0,0,0,0,-1,643,1702,0,0
-574,-678,0,0,0,0,0,0,0,0,0,-1,650,1702,0,0
-567,-678,0,0,0,0,0,0,0,0,0,-1,657,1702,0,0
-560,-678,0,0,0,0,0,0,0,0,0,-1,664,1702,0,0
-553,-678,0,0,0,0,0,0,0,0,0,-1,671,1702,0,0
-546,-678,0,0,0,0,0,0,0,0,0,-1,678,1702,0,0
-539,-678,0,0,0,0,0,0,0,0,0,-1,685,1702,0,0
-532,-678,0,0,0,0,0,0,0,0,0,-1,692,1702,0,0
-525,-678,0,0,0,0,0,0,0,0,0,-1,699,1702,0,0
-518,-678,0,0,0,0,0,0,0,0,0,-1,706,1702,0,0
-511,-678,0,0,0,0,0,0,0,0,0,-1,713,1702,0,0
-504,-678,0,0,0,0,0,0,0,0,0,-1,720,1702,0,0
-497,-678,0,0,0,0,0,0,0,0,0,-1,727,1702,0,0
-490,-678,0,0,0,0,0,0,0,0,0,-1,734,1702,0,0
-483,-678,0,0,0,0,0,0,0,0,0,-1,741,1702,0,0
-476,-678,0,0,0,0,0,0,0,0,0,-1,748,1702,0,0
-469,-678,0,0,0,0,0,0,0,0,0,-1,755,1702,0,0
-462,-678,0,0,0,0,0,0,0,0,0,-1,762,1702,0,0
-455,-678,0,0,0,0,0,0,0,0,0,-1,769,1702,0,0
-448,-678,0,0,0,0,0,0,0,0,0,-1,776,1702,0,0
-441,-678,0,0,0,0,0,0,0,0,0,-1,783,1702,0,0
-434,-678,0,0,0,0,0,0,0,0,0,-1,790,1702,0,0
-427,-678,0,0,0,0,0,0,0,0,0,-1,797,1702,0,0
-420,-678,0,0,0,0,0,0,0,0,0,-1,804,1702,0,0
-413,-678,0,0,0,0,0,0,0,0,0,-1,811,1702,0,0
-406,-678,0,0,0,0,0,0,0,0,0,-1,818,1702,0,0
-399,-678,0,0,0,0,0,0,0,0,0,-1,825,1702,0,0
-392,-678,0,0,0,0,0,0,0,0,0,-1,832,1702,0,0
-385,-678,0,0,0,0,0,0,0,0,0,-1,839,1702,0,0
-378,-678,0,0,0,0,0,0,0,0,0,-1,846,1702,0,0
-371,-678,0,0,0,0,0,0,0,0,0,-1,853,1702,0,0
-364,-678,0,0,0,0,0,0,0,0,0,-1,860,1702,0,0
-357,-678,0,0,0,0,0,0,0,0,0,-1,867,1702,0,0
-350,-678,-5.79944,6.11865,0,0,0,0,0,0,0,-1,874,1702,-5.79942,-6.11864
-343,-678,-6.44891,4.52759,0,0,0,0,0,0,0,-1,881,1702,-6.4489,-4.52758
-336,-678,-6.91888,2.99438,0,0,0,0,0,0,0,-1,888,1702,-6.9189,-2.99435
-329,-678,-7.14575,1.29761,0,0,0,0,0,0,0,-1,895,1702,-7.14577,-1.29755
-322,-678,-7.38513,-0.420044,0,0,0,0,0,0,0,-1,902,1702,-7.38514,0.420091
-315,-678,3.76923,12.7454,0,0,0,0,0,0,0,-1,909,1702,3.76925,-12.7453
-308,-678,2.56506,9.26538,0,0,0,0,0,0,0,-1,916,1702,2.56505,-9.26539
-301,-678,3.28058,8.07971,0,0,0,0,0,0,0,-1,923,1702,3.28059,-8.07974
-294,-678,3.90051,9.6554,0,0,0,0,0,0,0,-1,930,1702,3.90054,-9.65543
-287,-678,4.15143,9.83398,-0.0148266,0.0154745,-0.00655272,0.0168308,-0.0161829,-1.36669,0.0190617,0.0490265,937,1702,4.15143,-9.83398
-280,-678,4.35364,9.92822,-0.0138768,0.0148298,-0.00530163,0.0157776,-0.0148246,-1.39388,0.017671,0.0437691,944,1702,4.35364,-9.92818
-273,-678,3.5036,9.91016,-0.0119915,0.0130861,-0.0047906,0.0139701,-0.0128755,-1.38832,0.0155036,0.0420873,951,1702,3.50359,-9.91018
-266,-678,3.44543,10.2963,-0.0100808,0.0122967,-0.0041879,0.0130548,-0.0108389,-1.39172,0.0138147,0.0348693,958,1702,3.44544,-10.2963
-259,-678,3.53296,10.5726,-0.00838861,0.0112948,-0.0033884,0.0118617,-0.00895558,-1.40501,0.0120579,0.0222205,965,1702,3.53296,-10.5727
-252,-678,3.48785,10.6851,-0.00726852,0.0100302,-0.00296042,0.0105229,-0.00776112,-1.40591,0.0105963,0.0185659,972,1702,3.48787,-10.6851
-245,-678,3.52673,10.8275,-0.00602135,0.00871721,-0.00264401,0.00917717,-0.00648131,-1.39856,0.00908498,0.0183198,979,1702,3.52674,-10.8275
-238,-678,3.54144,10.9862,-0.00496229,0.00738923,-0.00227106,0.00779357,-0.00536664,-1.3946,0.007641,0.0147954,986,1702,3.54145,-10.9862
-231,-678,3.52142,11.1351,-0.00414422,0.00603166,-0.00183989,0.00635411,-0.00446667,-1.3973,0.00627898,0.0127441,993,1702,3.5214,-11.1351
-224,-678,3.50629,11.2448,-0.002301,0.00460559,-0.00136157,0.00486432,-0.00255973,-1.38301,0.00435457,0.0134541,1000,1702,3.50631,-11.2447
-217,-678,3.52222,11.3918,-0.00173888,0.00322644,-0.00143716,0.00361241,-0.00212484,-1.30842,0.00334931,0.0142231,1007,1702,3.52223,-11.3919
-210,-678,3.54138,11.5721,-0.00165036,0.00192237,-0.00149001,0.00246221,-0.0021902,-1.2232,0.0026876,0.0146296,1014,1702,3.54137,-11.5721
-203,-678,3.51343,11.6573,-0.00161411,0.000632646,-0.00147529,0.00136357,-0.00234504,-1.1108,0.00216602,0.0180963,1021,1702,3.51343,-11.6574
-196,-678,3.48962,11.7704,-0.00155613,-0.00055133,-0.00148107,0.000510235,-0.0026177,-0.948915,0.00193773,0.0177395,1028,1702,3.48961,-11.7704
-189,-678,3.50781,11.9137,-0.00153458,-0.00176155,-0.00147891,-0.000164806,-0.00313132,-0.747105,0.00203484,0.0106565,1035,1702,3.50782,-11.9137
-182,-678,3.5199,12.0668,-0.00153584,-0.00283837,-0.00158142,-0.000476829,-0.00389739,-0.59007,0.0024548,0.00992574,1042,1702,3.51994,-12.0668
-175,-678,3.53357,12.181,-0.00147394,-0.00373515,-0.00172147,-0.000544999,-0.00466408,-0.494839,0.00294458,0.0108137,1049,1702,3.53353,-12.181
-168,-678,3.53894,12.2853,-0.00146895,-0.00444487,-0.00174529,-0.000663422,-0.00525039,-0.43241,0.00330141,0.0101231,1056,1702,3.5389,-12.2852
-161,-678,3.52942,12.3958,-0.00143157,-0.00489647,-0.00172907,-0.000716357,-0.00561169,-0.39221,0.00352667,0.00858587,1063,1702,3.5294,-12.3957
-154,-678,3.52991,12.5052,-0.0012808,-0.00534015,-0.00177183,-0.000616233,-0.00600473,-0.358837,0.00381437,0.00812583,1070,1702,3.5299,-12.5053
-147,-678,3.53088,12.5959,-0.00105702,-0.00550399,-0.00167621,-0.00049598,-0.00606503,-0.322985,0.00388858,0.0101912,1077,1702,3.53088,-12.5959
-140,-678,3.54199,12.6923,-0.000779637,-0.0056875,-0.00154255,-0.000335082,-0.00613206,-0.280592,0.00398105,0.011516,1084,1702,3.54196,-12.6923
-133,-678,3.55249,12.7932,-0.000384593,-0.00569481,-0.00119784,-0.0001269,-0.00595251,-0.211902,0.00392672,0.0120162,1091,1702,3.55254,-12.7933
-126,-678,3.56396,12.9128,-2.88425e-05,-0.00571071,-0.000769678,7.35738e-05,-0.00581312,-0.132287,0.00390017,0.00944029,1098,1702,3.56396,-12.9128
-119,-678,3.59058,13.0498,0.000455386,-0.00560077,-0.000225827,0.000463796,-0.00560918,-0.03722,0.00390325,0.0178559,1105,1702,3.59053,-13.0498
-112,-678,3.6322,13.1428,0.000896676,-0.0056211,0.000397244,0.000920797,-0.00564522,0.0606486,0.00410498,0.0243146,1112,1702,3.63214,-13.1428
-105,-678,3.70142,13.1993,0.00145434,-0.00498148,0.00118264,0.00166478,-0.00519192,0.176097,0.00412962,0.0264554,1119,1702,3.7014,-13.1993
-98,-678,3.65698,13.1796,0.00191425,-0.00412354,0.0021047,0.0025755,-0.0047848,0.304413,0.00431281,0.0196166,1126,1702,3.65696,-13.1795
-91,-678,3.65332,13.245,0.00148806,-0.00396039,0.00280181,0.00267172,-0.00514405,0.399719,0.00458707,0.0189439,1133,1702,3.65334,-13.245
-84,-678,3.70068,13.2102,0.000921485,-0.00397462,0.00294827,0.00230557,-0.0053587,0.438915,0.00454049,0.0281527,1140,1702,3.70065,-13.2102
-77,-678,3.6488,13.37,0.000730141,-0.00359078,0.00265283,0.00199095,-0.00485159,0.443669,0.00406399,0.0383396,1147,1702,3.64875,-13.37
-70,-678,3.69727,13.7334,0,0,0,0,0,0,0,-1,1154,1702,3.6973,-13.7334
-63,-678,3.41687,11.0365,0,0,0,0,0,0,0,-1,1161,1702,3.41682,-11.0365
-56,-678,1.72388,6.13159,0,0,0,0,0,0,0,-1,1168,1702,1.72388,-6.13157
-49,-678,-0.241699,5.29895,0,0,0,0,0,0,0,-1,1175,1702,-0.241682,-5.29897
-42,-678,0.297119,3.90649,0,0,0,0,0,0,0,-1,1182,1702,0.297139,-3.90655
-35,-678,0.498413,3.64038,0,0,0,0,0,0,0,-1,1189,1702,0.498471,-3.64038
-28,-678,0.132446,3.55994,0,0,0,0,0,0,0,-1,1196,1702,0.132432,-3.55993
-21,-678,3.97327,13.6958,0,0,0,0,0,0,0,-1,1203,1702,3.97323,-13.6958
-14,-678,4.03491,13.6875,0.00157205,0.0114198,0.000508311,0.011446,0.00154588,1.51936,0.00717113,0.0406442,1210,1702,4.03493,-13.6875
-7,-678,4.07825,13.6404,-0.000440785,0.0121174,-0.000361498,0.0121278,-0.000451182,-1.54204,0.0082397,0.0439503,1217,1702,4.07826,-13.6404
0,-678,4.11304,13.7177,-0.0036381,0.0120024,-0.00160924,0.0121663,-0.00380196,-1.46932,0.00963163,0.0444193,1224,1702,4.11309,-13.7176
7,-678,4.40869,13.8245,-0.0071983,0.0116654,-0.0035011,0.0122943,-0.00782714,-1.39308,0.0117122,0.0473538,1231,1702,4.40869,-13.8244
14,-678,4.71216,13.9401,-0.00653656,0.0117744,-0.00634544,0.0137584,-0.00852053,-1.26776,0.0129807,0.0459433,1238,1702,4.71213,-13.9401
21,-678,4.59961,13.9252,-0.00288367,0.0129571,-0.00885688,0.0169185,-0.00684507,-1.15022,0.0141248,0.0444315,1245,1702,4.59959,-13.9252
28,-678,4.25098,14.079,0,0,0,0,0,0,0,-1,1252,1702,4.25096,-14.0789
35,-678,3.84375,13.7793,0.00795723,0.012638,-0.0126188,0.0231316,-0.00253644,-0.87709,0.0163324,0.0435339,1259,1702,3.84379,-13.7794
42,-678,3.38953,13.511,0.0144647,0.0129796,-0.0138451,0.0275871,-0.000142799,-0.758608,0.0184392,0.0446347,1266,1702,3.38954,-13.5109
49,-678,3.23596,13.407,0.0216962,0.0135329,-0.0144212,0.0326022,0.00262693,-0.647489,0.0209142,0.0467471,1273,1702,3.23597,-13.4069
56,-678,2.84546,13.2789,0.0293461,0.0147434,-0.0139931,0.0378282,0.00626134,-0.544939,0.0234125,0.0463482,1280,1702,2.84549,-13.279
63,-678,2.46912,13.3153,0.037032,0.0160329,-0.0132525,0.0434401,0.00962478,-0.450392,0.0263445,0.0477437,1287,1702,2.46914,-13.3153
70,-678,5.11743,14.8047,0.0421259,0.0174049,-0.0110575,0.0463501,0.0131807,-0.364906,0.0275772,0.0426523,1294,1702,5.11746,-14.8047
77,-678,4.82727,14.8903,0.0453659,0.0180264,-0.00768311,0.0473771,0.0160152,-0.256024,0.0278274,0.0442075,1301,1702,4.82723,-14.8903
84,-678,4.57642,14.4392,0.0478933,0.0197471,-0.00273112,0.0481558,0.0194845,-0.0958423,0.0279709,0.0460613,1308,1702,4.57647,-14.4392
91,-678,4.47583,14.5248,0.0492842,0.0218196,0.00323905,0.049661,0.0214428,0.115819,0.0287606,0.0444616,1315,1702,4.47578,-14.5248
98,-678,4.29895,14.6138,0.0481999,0.0249158,0.0101248,0.0519867,0.021129,0.357903,0.0301892,0.043363,1322,1702,4.29893,-14.6138
105,-678,4.01123,14.6443,0.0463076,0.0278524,0.0166727,0.0561358,0.0180241,0.532652,0.0330945,0.0414042,1329,1702,4.01127,-14.6442
112,-678,3.90344,14.8864,0.0430724,0.0306452,0.0237319,0.0613906,0.012327,0.65736,0.0374997,0.0424329,1336,1702,3.90344,-14.8863
119,-678,4.25598,14.196,0.0375579,0.0326203,0.0315857,0.0667711,0.00340707,0.746397,0.043423,0.0429861,1343,1702,4.25594,-14.1961
126,-678,4.22668,14.3206,0.0345799,0.0344649,0.0389848,0.0735073,-0.00446246,0.784661,0.050558,0.0428178,1350,1702,4.22667,-14.3206
133,-678,4.24219,14.2749,0,0,0,0,0,0,0,-1,1357,1702,4.24213,-14.2749
140,-678,5.21582,15.7039,0.04009,0.0446333,0.0522939,0.0947048,-0.00998159,0.807105,0.0667131,0.0495584,1364,1702,5.21581,-15.7039
147,-678,6.48389,16.4059,0.0437212,0.0475128,0.056016,0.101665,-0.0104311,0.802314,0.0715078,0.0484279,1371,1702,6.48391,-16.4059
154,-678,7.79871,17.1923,0,0,0,0,0,0,0,-1,1378,1702,7.79865,-17.1922
161,-678,3.44202,4.53992,0,0,0,0,0,0,0,-1,1385,1702,3.442,-4.53996
168,-678,4.21863,5.25781,0,0,0,0,0,0,0,-1,1392,1702,4.21865,-5.25781
175,-678,5.21899,5.9635,0,0,0,0,0,0,0,-1,1399,1702,5.21894,-5.96346
182,-678,7.31262,6.75122,0,0,0,0,0,0,0,-1,1406,1702,7.3126,-6.75123
189,-678,5.96021,6.36853,0,0,0,0,0,0,0,-1,1413,1702,5.96018,-6.36851
196,-678,5.01599,8.15771,0,0,0,0,0,0,0,-1,1420,1702,5.01596,-8.15767
203,-678,4.64771,13.0559,0,0,0,0,0,0,0,-1,1427,1702,4.64766,-13.0559
210,-678,4.70764,14.1621,0,0,0,0,0,0,0,-1,1434,1702,4.70766,-14.1621
217,-678,4.65894,13.7419,0,0,0,0,0,0,0,-1,1441,1702,4.6589,-13.742
224,-678,4.73145,13.4341,-0.00195007,-0.00503612,0.00502505,0.00176353,-0.00874972,0.636434,0.00650122,0.0476158,1448,1702,4.73138,-13.4341
231,-678,4.65381,13.5803,-0.00163983,-0.00321357,0.00396137,0.00161207,-0.00646546,0.687356,0.0049362,0.0436255,1455,1702,4.65385,-13.5804
238,-678,4.64539,13.5554,0,0,0,0,0,0,0,-1,1462,1702,4.64533,-13.5554
245,-678,4.61584,13.5193,0,0,0,0,0,0,0,-1,1469,1702,4.61581,-13.5193
252,-678,4.63245,13.427,-0.000758844,-0.000820013,0.00321191,0.00242263,-0.00400149,0.780637,0.00374612,0.0247826,1476,1702,4.63242,-13.427
259,-678,4.64502,13.4003,-0.000579158,-0.000478246,0.00274841,0.00222017,-0.00327757,0.794576,0.00319363,0.0147969,1483,1702,4.64507,-13.4002
266,-678,4.65845,13.3254,-0.000415113,-0.000174273,0.00244989,0.00215815,-0.00274754,0.809955,0.00283911,0.0105926,1490,1702,4.65844,-13.3254
273,-678,4.66138,13.239,-0.00033155,0.000353207,0.00222905,0.00226602,-0.00224436,0.861602,0.00260408,0.0105234,1497,1702,4.66137,-13.239
280,-678,4.66101,13.1528,-0.000399042,0.00118785,0.00197413,0.00252202,-0.00173321,0.976479,0.00247079,0.0110852,1504,1702,4.66101,-13.1528
287,-678,4.66663,13.0393,-0.000582224,0.00155508,0.00185266,0.00262521,-0.00165235,1.047,0.00249085,0.0115115,1511,1702,4.66657,-13.0393
294,-678,4.66089,12.9484,-0.000767303,0.00178452,0.00184242,0.0027497,-0.00173248,1.08824,0.0026099,0.011577,1518,1702,4.66094,-12.9484
301,-678,4.64856,12.8744,-0.000900895,0.0019027,0.00175299,0.00274545,-0.00174365,1.12267,0.00261321,0.0110653,1525,1702,4.64859,-12.8744
308,-678,4.66406,12.7677,-0.000988631,0.00197783,0.00157787,0.00266015,-0.00167096,1.16264,0.00252221,0.0132949,1532,1702,4.66401,-12.7677
315,-678,4.68921,12.6879,-0.000979318,0.00182325,0.00141342,0.00241228,-0.00156835,1.17594,0.00231537,0.015059,1539,1702,4.68927,-12.6879
322,-678,4.66589,12.5975,-0.000906305,0.00169526,0.00113825,0.00212296,-0.001334,1.21137,0.00201313,0.0180553,1546,1702,4.66588,-12.5975
329,-678,4.65527,12.4784,-0.000836594,0.00150249,0.000823767,0.00176348,-0.00109758,1.26398,0.00166668,0.0154776,1553,1702,4.6553,-12.4784
336,-678,4.65112,12.3442,-0.000713182,0.00125467,0.000535261,0.00139084,-0.000849352,1.32168,0.00130591,0.0119759,1560,1702,4.65117,-12.3442
343,-678,4.65271,12.2402,-0.000534179,0.00130681,8.29289e-05,0.00131054,-0.000537907,1.52587,0.00109784,0.0110454,1567,1702,4.65273,-12.2402
350,-678,4.65527,12.1459,-0.00019131,0.00170876,-0.00063327,0.00190047,-0.000383027,-1.27683,0.00141208,0.0105231,1574,1702,4.65533,-12.1459
357,-678,4.67554,12.0239,0.000160993,0.00176973,-0.00108956,0.00231968,-0.000388949,-1.10337,0.00169108,0.00841713,1581,1702,4.67559,-12.0239
364,-678,4.6709,11.8994,0.000553673,0.0019382,-0.00159099,0.00298101,-0.000489141,-0.990601,0.00216885,0.011683,1588,1702,4.67094,-11.8995
371,-678,4.64697,11.8053,0.0010891,0.00221694,-0.00206008,0.00378889,-0.000482847,-0.918995,0.0027013,0.012996,1595,1702,4.64695,-11.8053
378,-678,4.66333,11.6317,0.00175824,0.00264516,-0.00258508,0.00482454,-0.000421142,-0.870344,0.00336554,0.0132803,1602,1702,4.66337,-11.6317
385,-678,4.67273,11.5055,0.00255027,0.0032282,-0.002961,0.00586957,-9.11006e-05,-0.842389,0.00394377,0.0156575,1609,1702,4.67272,-11.5055
392,-678,4.65356,11.4297,0.00342518,0.0037856,-0.00335182,0.00696205,0.000248729,-0.812254,0.00456072,0.0275786,1616,1702,4.65355,-11.4297
399,-678,4.62268,11.2932,0.00419824,0.00378683,-0.00336461,0.00736342,0.000621645,-0.754867,0.00471541,0.0381185,1623,1702,4.62265,-11.2932
406,-678,4.57178,11.2339,0.00497431,0.00320733,-0.00294167,0.0071623,0.00101934,-0.639516,0.00447396,0.0386006,1630,1702,4.57183,-11.2339
413,-678,4.51172,11.1578,0.00588432,0.00148861,-0.00180362,0.00652964,0.000843297,-0.343596,0.004101,0.0410309,1637,1702,4.51173,-11.1578
420,-678,4.62683,11.0166,0.00699527,0.000106002,-0.000780231,0.00708253,1.87433e-05,-0.111374,0.00471545,0.0494343,1644,1702,4.62682,-11.0166
427,-678,4.67957,10.8966,0,0,0,0,0,0,0,-1,1651,1702,4.67956,-10.8966
434,-678,4.72046,10.1484,0,0,0,0,0,0,0,-1,1658,1702,4.72048,-10.1484
441,-678,4.81177,10.6176,0,0,0,0,0,0,0,-1,1665,1702,4.81178,-10.6175
448,-678,3.25525,9.74719,0,0,0,0,0,0,0,-1,1672,1702,3.25522,-9.7472
455,-678,5.44678,5.54297,0,0,0,0,0,0,0,-1,1679,1702,5.44676,-5.54294
462,-678,3.86792,2.87402,0,0,0,0,0,0,0,-1,1686,1702,3.86796,-2.87406
469,-678,2.26587,1.98755,0,0,0,0,0,0,0,-1,1693,1702,2.26592,-1.98755
476,-678,0,0,0,0,0,0,0,0,0,-1,1700,1702,0,0
483,-678,0,0,0,0,0,0,0,0,0,-1,1707,1702,0,0
490,-678,0,0,0,0,0,0,0,0,0,-1,1714,1702,0,0
497,-678,0,0,0,0,0,0,0,0,0,-1,1721,1702,0,0
504,-678,0,0,0,0,0,0,0,0,0,-1,1728,1702,0,0
511,-678,0,0,0,0,0,0,0,0,0,-1,1735,1702,0,0
518,-678,0,0,0,0,0,0,0,0,0,-1,1742,1702,0,0
525,-678,0,0,0,0,0,0,0,0,0,-1,1749,1702,0,0
532,-678,0,0,0,0,0,0,0,0,0,-1,1756,1702,0,0
539,-678,0,0,0,0,0,0,0,0,0,-1,1763,1702,0,0
546,-678,0,0,0,0,0,0,0,0,0,-1,1770,1702,0,0
553,-678,0,0,0,0,0,0,0,0,0,-1,1777,1702,0,0
560,-678,0,0,0,0,0,0,0,0,0,-1,1784,1702,0,0
567,-678,0,0,0,0,0,0,0,0,0,-1,1791,1702,0,0
574,-678,0,0,0,0,0,0,0,0,0,-1,1798,1702,0,0
581,-678,0,0,0,0,0,0,0,0,0,-1,1805,1702,0,0
588,-678,0,0,0,0,0,0,0,0,0,-1,1812,1702,0,0
595,-678,0,0,0,0,0,0,0,0,0,-1,1819,1702,0,0
602,-678,0,0,0,0,0,0,0,0,0,-1,1826,1702,0,0
609,-678,0,0,0,0,0,0,0,0,0,-1,1833,1702,0,0
616,-678,0,0,0,0,0,0,0,0,0,-1,1840,1702,0,0
623,-678,0,0,0,0,0,0,0,0,0,-1,1847,1702,0,0
630,-678,0,0,0,0,0,0,0,0,0,-1,1854,1702,0,0
637,-678,0,0,0,0,0,0,0,0,0,-1,1861,1702,0,0
644,-678,0,0,0,0,0,0,0,0,0,-1,1868,1702,0,0
651,-678,0,0,0,0,0,0,0,0,0,-1,1875,1702,0,0
658,-678,0,0,0,0,0,0,0,0,0,-1,1882,1702,0,0
665,-678,0,0,0,0,0,0,0,0,0,-1,1889,1702,0,0
672,-678,0,0,0,0,0,0,0,0,0,-1,1896,1702,0,0
679,-678,0,0,0,0,0,0,0,0,0,-1,1903,1702,0,0
686,-678,0,0,0,0,0,0,0,0,0,-1,1910,1702,0,0
693,-678,0,0,0,0,0,0,0,0,0,-1,1917,1702,0,0
700,-678,0,0,0,0,0,0,0,0,0,-1,1924,1702,0,0
707,-678,0,0,0,0,0,0,0,0,0,-1,1931,1702,0,0
714,-678,0,0,0,0,0,0,0,0,0,-1,1938,1702,0,0
721,-678,0,0,0,0,0,0,0,0,0,-1,1945,1702,0,0
728,-678,0,0,0,0,0,0,0,0,0,-1,1952,1702,0,0
735,-678,0,0,0,0,0,0,0,0,0,-1,1959,1702,0,0
742,-678,0,0,0,0,0,0,0,0,0,-1,1966,1702,0,0
749,-678,0,0,0,0,0,0,0,0,0,-1,1973,1702,0,0
756,-678,0,0,0,0,0,0,0,0,0,-1,1980,1702,0,0
763,-678,0,0,0,0,0,0,0,0,0,-1,1987,1702,0,0
770,-678,0,0,0,0,0,0,0,0,0,-1,1994,1702,0,0
777,-678,0,0,0,0,0,0,0,0,0,-1,2001,1702,0,0
784,-678,0,0,0,0,0,0,0,0,0,-1,2008,1702,0,0
791,-678,0,0,0,0,0,0,0,0,0,-1,2015,1702,0,0
798,-678,0,0,0,0,0,0,0,0,0,-1,2022,1702,0,0
805,-678,0,0,0,0,0,0,0,0,0,-1,2029,1702,0,0
812,-678,0,0,0,0,0,0,0,0,0,-1,2036,1702,0,0
-700,-685,0,0,0,0,0,0,0,0,0,-1,524,1709,0,0
-693,-685,0,0,0,0,0,0,0,0,0,-1,531,1709,0,0
-686,-685,0,0,0,0,0,0,0,0,0,-1,538,1709,0,0
-679,-685,0,0,0,0,0,0,0,0,0,-1,545,1709,0,0
-672,-685,0,0,0,0,0,0,0,0,0,-1,552,1709,0,0
-665,-685,0,0,0,0,0,0,0,0,0,-1,559,1709,0,0
-658,-685,0,0,0,0,0,0,0,0,0,-1,566,1709,0,0
-651,-685,0,0,0,0,0,0,0,0,0,-1,573,1709,0,0
-644,-685,0,0,0,0,0,0,0,0,0,-1,580,1709,0,0
-637,-685,0,0,0,0,0,0,0,0,0,-1,587,1709,0,0
-630,-685,0,0,0,0,0,0,0,0,0,-1,594,1709,0,0
-623,-685,0,0,0,0,0,0,0,0,0,-1,601,1709,0,0
-616,-685,0,0,0,0,0,0,0,0,0,-1,608,1709,0,0
-609,-685,0,0,0,0,0,0,0,0,0,-1,615,1709,0,0
-602,-685,0,0,0,0,0,0,0,0,0,-1,622,1709,0,0
-595,-685,0,0,0,0,0,0,0,0,0,-1,629,1709,0,0
-588,-685,0,0,0,0,0,0,0,0,0,-1,636,1709,0,0
-581,-685,0,0,0,0,0,0,0,0,0,-1,643,1709,0,0
-574,-685,0,0,0,0,0,0,0,0,0,-1,650,1709,0,0
-567,-685,0,0,0,0,0,0,0,0,0,-1,657,1709,0,0
-560,-685,0,0,0,0,0,0,0,0,0,-1,664,1709,0,0
-553,-685,0,0,0,0,0,0,0,0,0,-1,671,1709,0,0
-546,-685,0,0,0,0,0,0,0,0,0,-1,678,1709,0,0
-539,-685,0,0,0,0,0,0,0,0,0,-1,685,1709,0,0
-532,-685,0,0,0,0,0,0,0,0,0,-1,692,1709,0,0
-525,-685,0,0,0,0,0,0,0,0,0,-1,699,1709,0,0
-518,-685,0,0,0,0,0,0,0,0,0,-1,706,1709,0,0
-511,-685,0,0,0,0,0,0,0,0,0,-1,713,1709,0,0
-504,-685,0,0,0,0,0,0,0,0,0,-1,720,1709,0,0
-497,-685,0,0,0,0,0,0,0,0,0,-1,727,1709,0,0
-490,-685,0,0,0,0,0,0,0,0,0,-1,734,1709,0,0
-483,-685,0,0,0,0,0,0,0,0,0,-1,741,1709,0,0
-476,-685,0,0,0,0,0,0,0,0,0,-1,748,1709,0,0
-469,-685,0,0,0,0,0,0,0,0,0,-1,755,1709,0,0
-462,-685,0,0,0,0,0,0,0,0,0,-1,762,1709,0,0
-455,-685,0,0,0,0,0,0,0,0,0,-1,769,1709,0,0
-448,-685,0,0,0,0,0,0,0,0,0,-1,776,1709,0,0
-441,-685,0,0,0,0,0,0,0,0,0,-1,783,1709,0,0
-434,-685,0,0,0,0,0,0,0,0,0,-1,790,1709,0,0
-427,-685,0,0,0,0,0,0,0,0,0,-1,797,1709,0,0
-420,-685,0,0,0,0,0,0,0,0,0,-1,804,1709,0,0
-413,-685,0,0,0,0,0,0,0,0,0,-1,811,1709,0,0
-406,-685,0,0,0,0,0,0,0,0,0,-1,818,1709,0,0
-399,-685,0,0,0,0,0,0,0,0,0,-1,825,1709,0,0
-392,-685,0,0,0,0,0,0,0,0,0,-1,832,1709,0,0
-385,-685,0,0,0,0,0,0,0,0,0,-1,839,1709,0,0
-378,-685,0,0,0,0,0,0,0,0,0,-1,846,1709,0,0
-371,-685,0,0,0,0,0,0,0,0,0,-1,853,1709,0,0
-364,-685,0,0,0,0,0,0,0,0,0,-1,860,1709,0,0
-357,-685,0,0,0,0,0,0,0,0,0,-1,867,1709,0,0
-350,-685,0,0,0,0,0,0,0,0,0,-1,874,1709,0,0
-343,-685,-5.98505,6.56335,0,0,0,0,0,0,0,-1,881,1709,-5.98505,-6.56329
-336,-685,-6.51312,5.10571,0,0,0,0,0,0,0,-1,888,1709,-6.51311,-5.10575
-329,-685,-6.81384,3.34106,0,0,0,0,0,0,0,-1,895,1709,-6.81385,-3.341
-322,-685,3.48425,16.3307,0,0,0,0,0,0,0,-1,902,1709,3.48425,-16.3307
-315,-685,3.66089,14.3413,0,0,0,0,0,0,0,-1,909,1709,3.66091,-14.3413
-308,-685,4.00427,12.6189,0,0,0,0,0,0,0,-1,916,1709,4.00426,-12.6189
-301,-685,4.30664,10.9299,0,0,0,0,0,0,0,-1,923,1709,4.30661,-10.93
-294,-685,2.9881,9.97754,0,0,0,0,0,0,0,-1,930,1709,2.9881,-9.97753
-287,-685,5.01605,9.73865,0,0,0,0,0,0,0,-1,937,1709,5.01602,-9.73868
-280,-685,4.92944,9.86682,0,0,0,0,0,0,0,-1,944,1709,4.92946,-9.86687
-273,-685,3.34338,9.73291,0,0,0,0,0,0,0,-1,951,1709,3.34341,-9.73285
-266,-685,3.4588,10.0786,-0.0158082,0.0146771,-0.0072203,0.0163007,-0.0174318,-1.34961,0.0194791,0.0454001,958,1709,3.45882,-10.0786
-259,-685,3.64966,10.3622,-0.0129651,0.0133187,-0.0061068,0.0146683,-0.0143147,-1.3533,0.0167337,0.0422042,965,1709,3.64964,-10.3622
-252,-685,3.69159,10.6168,-0.0109689,0.0116614,-0.00546387,0.0129116,-0.012219,-1.34587,0.014511,0.0375783,972,1709,3.6916,-10.6168
-245,-685,3.77826,10.7612,-0.00903788,0.0100575,-0.00497142,0.0112743,-0.0102546,-1.33076,0.0124344,0.0322914,979,1709,3.77825,-10.7612
-238,-685,3.74927,10.947,-0.00746264,0.00849383,-0.0044072,0.00963018,-0.00859899,-1.31845,0.0105302,0.0231452,986,1709,3.74926,-10.947
-231,-685,3.67877,11.1217,-0.00622802,0.00696432,-0.00374197,0.00795181,-0.0072155,-1.31278,0.00876029,0.0150244,993,1709,3.67878,-11.1217
-224,-685,3.65686,11.2394,-0.00379836,0.0054896,-0.00301867,0.00638447,-0.00469324,-1.2826,0.00642052,0.013862,1000,1709,3.65686,-11.2394
-217,-685,3.6618,11.4137,-0.00306576,0.00409139,-0.00291382,0.00512763,-0.004102,-1.22911,0.00533969,0.0113164,1007,1709,3.66181,-11.4137
-210,-685,3.65466,11.5834,-0.00276425,0.0028764,-0.0027318,0.00398253,-0.00387038,-1.18607,0.00453403,0.0150848,1014,1709,3.65467,-11.5834
-203,-685,3.63977,11.6764,-0.00241022,0.00182815,-0.00240215,0.00291228,-0.00349436,-1.14685,0.00370396,0.0155464,1021,1709,3.6398,-11.6764
-196,-685,3.62891,11.7782,-0.00205957,0.000872699,-0.0020842,0.00195479,-0.00314166,-1.09192,0.00296891,0.0139891,1028,1709,3.62885,-11.7782
-189,-685,3.64111,11.9105,-0.00171392,-0.000103237,-0.00178053,0.00104561,-0.00286277,-0.997782,0.00233639,0.00932811,1035,1709,3.64107,-11.9105
-182,-685,3.63794,12.0619,-0.00139178,-0.000904678,-0.00159826,0.000468481,-0.00276494,-0.86101,0.00201767,0.0130883,1042,1709,3.63792,-12.0619
-175,-685,3.63489,12.1663,-0.00102109,-0.00151009,-0.00148858,0.000242937,-0.00277412,-0.704,0.00193548,0.0133776,1049,1709,3.63486,-12.1662
-168,-685,3.64038,12.2816,-0.00071323,-0.00191886,-0.00121193,3.75313e-05,-0.00266962,-0.554616,0.00179239,0.0102657,1056,1709,3.64035,-12.2817
-161,-685,3.6416,12.4023,-0.000503585,-0.00230016,-0.0010129,-4.80298e-05,-0.00275572,-0.422648,0.00182134,0.0104986,1063,1709,3.64166,-12.4024
-154,-685,3.65198,12.5071,-0.000238304,-0.00262318,-0.000982045,0.00011403,-0.00297551,-0.344472,0.00202276,0.00975539,1070,1709,3.65196,-12.5071
-147,-685,3.6449,12.5989,4.42403e-05,-0.0027302,-0.000855473,0.00028681,-0.00297277,-0.276297,0.00208404,0.00891284,1077,1709,3.64492,-12.5988
-140,-685,3.63879,12.6887,0.000317584,-0.00291734,-0.00073581,0.000477086,-0.00307684,-0.213468,0.00222735,0.0107758,1084,1709,3.63883,-12.6887
-133,-685,3.64441,12.7939,0.00064822,-0.00303668,-0.000473892,0.000708188,-0.00309664,-0.125875,0.00233654,0.0101879,1091,1709,3.64444,-12.7939
-126,-685,3.65295,12.8955,0.00091595,-0.0032072,-0.000135752,0.000920415,-0.00321167,-0.0328767,0.00250493,0.00929344,1098,1709,3.65301,-12.8955
-119,-685,3.68494,12.9764,0.00118215,-0.00329897,0.000248195,0.00119586,-0.00331267,0.0551619,0.00269694,0.01266,1105,1709,3.68493,-12.9765
-112,-685,3.68091,13.0879,0.00138749,-0.00351445,0.0006661,0.00147639,-0.00360335,0.13268,0.00301727,0.0115896,1112,1709,3.68097,-13.0879
-105,-685,3.66296,13.1801,0.00148076,-0.00334695,0.00112906,0.00173176,-0.00359795,0.218755,0.00313936,0.0105476,1119,1709,3.66299,-13.1801
-98,-685,3.70422,13.236,0.00149427,-0.00322235,0.00162879,0.00200207,-0.00373015,0.302215,0.00335925,0.0137467,1126,1709,3.7042,-13.236
-91,-685,3.71704,13.3181,0.00122204,-0.0031661,0.00207587,0.00204843,-0.0039925,0.378862,0.00354742,0.0155034,1133,1709,3.71705,-13.3181
-84,-685,3.71802,13.4053,0.000870024,-0.00312889,0.00218598,0.00183306,-0.00409192,0.414967,0.00350267,0.0148445,1140,1709,3.71804,-13.4053
-77,-685,3.73608,13.5201,0.000778324,-0.0027842,0.0019535,0.00164075,-0.00364662,0.415742,0.00312503,0.0142174,1147,1709,3.73614,-13.5201
-70,-685,3.80347,13.6732,0.000956239,-0.00274054,0.00151186,0.00149579,-0.00328009,0.34279,0.00282077,0.024311,1154,1709,3.80352,-13.6732
-63,-685,3.7782,13.9371,0,0,0,0,0,0,0,-1,1161,1709,3.77814,-13.9371
-56,-685,3.61841,14.3768,0,0,0,0,0,0,0,-1,1168,1709,3.61845,-14.3768
-49,-685,3.07471,9.86011,0,0,0,0,0,0,0,-1,1175,1709,3.07467,-9.86009
-42,-685,2.70618,7.54504,0,0,0,0,0,0,0,-1,1182,1709,2.7062,-7.54504
-35,-685,2.95264,7.91516,0,0,0,0,0,0,0,-1,1189,1709,2.95262,-7.91517
-28,-685,3.68567,13.959,0,0,0,0,0,0,0,-1,1196,1709,3.68563,-13.9589
-21,-685,3.85303,13.8298,0.00518847,0.00914727,-0.000335744,0.00917554,0.00516019,-1.48679,0.00531123,0.0395654,1203,1709,3.85305,-13.8298
-14,-685,3.97412,13.8276,0.00360586,0.00941912,-0.00117195,0.00964649,0.00337849,-1.37917,0.00565207,0.0246334,1210,1709,3.97418,-13.8276
-7,-685,4.00671,13.8303,0.00184124,0.00979558,-0.00194874,0.0102473,0.00138948,-1.343,0.00641873,0.0373645,1217,1709,4.00671,-13.8304
0,-685,4.12732,13.8243,-0.000632697,0.00955393,-0.00298775,0.0103656,-0.00144434,-1.30554,0.00743871,0.0427377,1224,1709,4.12726,-13.8244
7,-685,4.21765,13.9142,-0.0037913,0.00914169,-0.00436346,0.0104762,-0.00512578,-1.274,0.00918266,0.0408824,1231,1709,4.21759,-13.9142
14,-685,4.28735,14.043,-0.00363242,0.00898712,-0.00727283,0.0123058,-0.00695111,-1.1427,0.0112604,0.0408933,1238,1709,4.28734,-14.0429
21,-685,4.3302,14.0208,-0.00119098,0.00982768,-0.00938439,0.0152004,-0.00656372,-1.05083,0.0128911,0.034958,1245,1709,4.33023,-14.0207
28,-685,4.30542,14.0359,0.00245268,0.00928275,-0.0112038,0.0175805,-0.00584504,-0.93333,0.0140791,0.0365501,1252,1709,4.30543,-14.0359
35,-685,4.24475,13.9811,0.00560804,0.0091438,-0.0126691,0.0201678,-0.00541592,-0.854722,0.0155677,0.0393273,1259,1709,4.2447,-13.9811
42,-685,4.07971,13.9606,0.00969905,0.00921125,-0.0138359,0.0232932,-0.00438288,-0.776585,0.0171772,0.0424659,1266,1709,4.07973,-13.9606
49,-685,3.72791,13.7472,0.0142733,0.00946918,-0.0144933,0.0265623,-0.00281976,-0.703277,0.018719,0.0445956,1273,1709,3.72794,-13.7472
56,-685,3.43884,13.62,0.0192145,0.0102126,-0.0142716,0.029678,-0.000250973,-0.632646,0.0198695,0.0427931,1280,1709,3.43881,-13.62
63,-685,4.41589,14.3625,0.0242303,0.0110287,-0.0136522,0.0327937,0.00246524,-0.56022,0.0210888,0.0421472,1287,1709,4.4159,-14.3625
70,-685,4.48816,14.4495,0.0273158,0.0119926,-0.0117242,0.0336598,0.00564861,-0.495986,0.020814,0.0407342,1294,1709,4.48817,-14.4495
77,-685,4.44226,14.5228,0.0292122,0.0120948,-0.00879567,0.0329261,0.00838094,-0.399525,0.0197587,0.0408204,1301,1709,4.44225,-14.5228
84,-685,4.44727,14.6018,0.0307325,0.0135831,-0.00460389,0.0318902,0.0124253,-0.246371,0.0185608,0.0437694,1308,1709,4.44731,-14.6018
91,-685,4.42505,14.3667,0.0317723,0.0152951,0.000435965,0.0317839,0.0152835,0.0264339,0.0183549,0.0437596,1315,1709,4.42505,-14.3668
98,-685,4.34375,14.422,0.031392,0.017922,0.0061271,0.0337621,0.015552,0.369085,0.0195127,0.0392799,1322,1709,4.34376,-14.422
105,-685,4.10449,14.1959,0.0303367,0.0201335,0.0114188,0.0377417,0.0127285,0.575317,0.0221716,0.0414352,1329,1709,4.10448,-14.1959
112,-685,4.1239,14.3584,0.0291842,0.0222357,0.016851,0.0429154,0.0085045,0.683735,0.0262389,0.0426498,1336,1709,4.1239,-14.3584
119,-685,4.41968,14.4296,0.026566,0.0239167,0.0234595,0.0487382,0.00174446,0.757196,0.0319266,0.0396927,1343,1709,4.41967,-14.4295
126,-685,4.24792,14.2048,0.0253355,0.0251964,0.0286061,0.0538722,-0.00334022,0.784183,0.0370784,0.0398702,1350,1709,4.24788,-14.2049
133,-685,4.25928,14.2209,0.0261656,0.0290425,0.0336589,0.0612936,-0.00608556,0.806753,0.0430346,0.0462427,1357,1709,4.25927,-14.2209
140,-685,4.29602,14.1859,0,0,0,0,0,0,0,-1,1364,1709,4.29605,-14.186
147,-685,3.98328,14.9537,0,0,0,0,0,0,0,-1,1371,1709,3.98326,-14.9538
154,-685,4.43982,14.3085,0,0,0,0,0,0,0,-1,1378,1709,4.43979,-14.3084
161,-685,5.06116,14.1534,0,0,0,0,0,0,0,-1,1385,1709,5.06115,-14.1535
168,-685,4.37524,10.8778,0,0,0,0,0,0,0,-1,1392,1709,4.37525,-10.8778
175,-685,3.97522,8.94324,0,0,0,0,0,0,0,-1,1399,1709,3.97519,-8.94328
182,-685,3.98218,9.19739,0,0,0,0,0,0,0,-1,1406,1709,3.98221,-9.1974
189,-685,3.90552,10.3271,0,0,0,0,0,0,0,-1,1413,1709,3.90548,-10.3272
196,-685,4.50781,14.0884,0,0,0,0,0,0,0,-1,1420,1709,4.50783,-14.0883
203,-685,4.4696,13.9618,0,0,0,0,0,0,0,-1,1427,1709,4.46959,-13.9618
210,-685,4.5542,13.9949,1.68488e-06,-0.00294664,0.00376005,0.00256622,-0.00551118,0.598577,0.00476569,0.0291855,1434,1709,4.55423,-13.9949
217,-685,4.53979,13.7794,-0.00110276,-0.00322426,0.00339492,0.00139327,-0.00572029,0.633977,0.00435292,0.0209705,1441,1709,4.53977,-13.7794
224,-685,4.47546,13.6765,-0.00136254,-0.00331375,0.00356184,0.00135489,-0.00603118,0.651724,0.00454031,0.0152887,1448,1709,4.47551,-13.6765
231,-685,4.53369,13.6168,-0.00124186,-0.00241096,0.00298622,0.00121649,-0.0048693,0.688746,0.00371863,0.0159544,1455,1709,4.53365,-13.6169
238,-685,4.53992,13.5427,-0.000874229,-0.00193904,0.00243231,0.00108327,-0.00389653,0.677653,0.00302416,0.0192357,1462,1709,4.53992,-13.5427
245,-685,4.51685,13.4807,-0.000714343,-0.0013845,0.0024023,0.00137613,-0.00347498,0.716104,0.00288684,0.0204108,1469,1709,4.51681,-13.4807
252,-685,4.54163,13.4481,-0.000327573,-0.00102049,0.0022305,0.00158321,-0.00293127,0.70835,0.00264489,0.0152591,1476,1709,4.54167,-13.4481
259,-685,4.55664,13.3987,3.15574e-06,-0.000703063,0.00180436,0.00148864,-0.00218854,0.688771,0.0021358,0.0110243,1483,1709,4.55669,-13.3987
266,-685,4.54834,13.3153,3.84526e-05,-0.000309079,0.00156249,0.00143681,-0.00170743,0.73002,0.00181757,0.0120922,1490,1709,4.54836,-13.3153
273,-685,4.55347,13.2261,-0.000174139,0.000381452,0.0013709,0.00150242,-0.00129511,0.885363,0.00161663,0.0130787,1497,1709,4.55351,-13.2261
280,-685,4.56128,13.1472,-0.000612449,0.00129176,0.00114252,0.00182688,-0.00114757,1.13277,0.00173217,0.0140204,1504,1709,4.56122,-13.1472
287,-685,4.56885,13.071,-0.00120059,0.00189104,0.00108127,0.00223167,-0.00154123,1.26561,0.00219041,0.0122369,1511,1709,4.56881,-13.0711
294,-685,4.57117,12.9871,-0.00177792,0.00245081,0.00111211,0.00272545,-0.00205256,1.32869,0.00276769,0.0105741,1518,1709,4.57112,-12.9871
301,-685,4.54578,12.8856,-0.00223599,0.00285488,0.00108176,0.00307521,-0.00245632,1.36987,0.00320029,0.011739,1525,1709,4.54582,-12.8856
308,-685,4.5614,12.7681,-0.0025533,0.00314982,0.000961914,0.00330769,-0.00271117,1.40813,0.00348068,0.0138203,1532,1709,4.56143,-12.7681
315,-685,4.59827,12.6841,-0.00266062,0.00306628,0.000886099,0.00320025,-0.00279458,1.42074,0.00346376,0.0129233,1539,1709,4.59824,-12.6841
322,-685,4.57874,12.59,-0.00259125,0.00296766,0.00068117,0.00304991,-0.0026735,1.45063,0.00330679,0.0203014,1546,1709,4.57873,-12.59
329,-685,4.56238,12.4751,-0.0024353,0.00269723,0.000438895,0.00273449,-0.00247256,1.4861,0.00300756,0.0200433,1553,1709,4.56243,-12.4751
336,-685,4.56299,12.3478,-0.00211396,0.00236803,0.000166413,0.0023742,-0.00212013,1.53374,0.00259618,0.0134547,1560,1709,4.56295,-12.3478
343,-685,4.56335,12.245,-0.00168196,0.00228826,-0.000271735,0.00230678,-0.00170047,-1.50278,0.0023224,0.0113254,1567,1709,4.56336,-12.2451
350,-685,4.55933,12.1285,-0.00109473,0.00263813,-0.000958464,0.00286984,-0.00132645,-1.33359,0.00247675,0.0112838,1574,1709,4.55929,-12.1285
357,-685,4.56738,12.0172,-0.000299765,0.00244902,-0.00137616,0.00301956,-0.000870308,-1.17778,0.00235732,0.00977359,1581,1709,4.56743,-12.0172
364,-685,4.54956,11.8977,0.000552471,0.00241553,-0.00202372,0.00371182,-0.000743818,-1.00109,0.00275615,0.0101109,1588,1709,4.54952,-11.8978
371,-685,4.56653,11.7626,0.00121178,0.00272915,-0.0025564,0.00463707,-0.000696147,-0.929647,0.00334764,0.015769,1595,1709,4.56649,-11.7625
378,-685,4.51733,11.6422,0.00200922,0.0032868,-0.00322014,0.0059309,-0.000634879,-0.883314,0.00418165,0.0212491,1602,1709,4.51732,-11.6422
385,-685,4.51648,11.4474,0.00296402,0.00406276,-0.00373259,0.00728619,-0.000259413,-0.858465,0.0049462,0.0356862,1609,1709,4.51653,-11.4474
392,-685,4.70752,11.1602,0.00414568,0.00495724,-0.00425846,0.0088292,0.000273714,-0.832899,0.00579705,0.0412425,1616,1709,4.70751,-11.1601
399,-685,4.99109,10.8425,0.00534332,0.00514148,-0.00440036,0.00964391,0.000840887,-0.773933,0.00616812,0.0491056,1623,1709,4.99108,-10.8425
406,-685,5.31995,10.8604,0,0,0,0,0,0,0,-1,1630,1709,5.32,-10.8603
413,-685,4.2511,11.4487,0,0,0,0,0,0,0,-1,1637,1709,4.25108,-11.4487
420,-685,4.26416,11.3566,0,0,0,0,0,0,0,-1,1644,1709,4.26418,-11.3566
427,-685,6.05151,9.21155,0,0,0,0,0,0,0,-1,1651,1709,6.05156,-9.21156
434,-685,4.87769,8.91418,0,0,0,0,0,0,0,-1,1658,1709,4.87768,-8.91413
441,-685,5.62,8.75549,0,0,0,0,0,0,0,-1,1665,1709,5.61996,-8.75545
448,-685,6.4043,8.58972,0,0,0,0,0,0,0,-1,1672,1709,6.40435,-8.58971
455,-685,2.31958,4.09802,0,0,0,0,0,0,0,-1,1679,1709,2.31957,-4.09803
462,-685,0,0,0,0,0,0,0,0,0,-1,1686,1709,0,0
469,-685,0,0,0,0,0,0,0,0,0,-1,1693,1709,0,0
476,-685,0,0,0,0,0,0,0,0,0,-1,1700,1709,0,0
483,-685,0,0,0,0,0,0,0,0,0,-1,1707,1709,0,0
490,-685,0,0,0,0,0,0,0,0,0,-1,1714,1709,0,0
497,-685,0,0,0,0,0,0,0,0,0,-1,1721,1709,0,0
504,-685,0,0,0,0,0,0,0,0,0,-1,1728,1709,0,0
511,-685,0,0,0,0,0,0,0,0,0,-1,1735,1709,0,0
518,-685,0,0,0,0,0,0,0,0,0,-1,1742,1709,0,0
525,-685,0,0,0,0,0,0,0,0,0,-1,1749,1709,0,0
532,-685,0,0,0,0,0,0,0,0,0,-1,1756,1709,0,0
539,-685,0,0,0,0,0,0,0,0,0,-1,1763,1709,0,0
546,-685,0,0,0,0,0,0,0,0,0,-1,1770,1709,0,0
553,-685,0,0,0,0,0,0,0,0,0,-1,1777,1709,0,0
560,-685,0,0,0,0,0,0,0,0,0,-1,1784,1709,0,0
567,-685,0,0,0,0,0,0,0,0,0,-1,1791,1709,0,0
574,-685,0,0,0,0,0,0,0,0,0,-1,1798,1709,0,0
581,-685,0,0,0,0,0,0,0,0,0,-1,1805,1709,0,0
588,-685,0,0,0,0,0,0,0,0,0,-1,1812,1709,0,0
595,-685,0,0,0,0,0,0,0,0,0,-1,1819,1709,0,0
602,-685,0,0,0,0,0,0,0,0,0,-1,1826,1709,0,0
609,-685,0,0,0,0,0,0,0,0,0,-1,1833,1709,0,0
616,-685,0,0,0,0,0,0,0,0,0,-1,1840,1709,0,0
623,-685,0,0,0,0,0,0,0,0,0,-1,1847,1709,0,0
630,-685,0,0,0,0,0,0,0,0,0,-1,1854,1709,0,0
637,-685,0,0,0,0,0,0,0,0,0,-1,1861,1709,0,0
644,-685,0,0,0,0,0,0,0,0,0,-1,1868,1709,0,0
651,-685,0,0,0,0,0,0,0,0,0,-1,1875,1709,0,0
658,-685,0,0,0,0,0,0,0,0,0,-1,1882,1709,0,0
665,-685,0,0,0,0,0,0,0,0,0,-1,1889,1709,0,0
672,-685,0,0,0,0,0,0,0,0,0,-1,1896,1709,0,0
679,-685,0,0,0,0,0,0,0,0,0,-1,1903,1709,0,0
686,-685,0,0,0,0,0,0,0,0,0,-1,1910,1709,0,0
693,-685,0,0,0,0,0,0,0,0,0,-1,1917,1709,0,0
700,-685,0,0,0,0,0,0,0,0,0,-1,1924,1709,0,0
707,-685,0,0,0,0,0,0,0,0,0,-1,1931,1709,0,0
714,-685,0,0,0,0,0,0,0,0,0,-1,1938,1709,0,0
721,-685,0,0,0,0,0,0,0,0,0,-1,1945,1709,0,0
728,-685,0,0,0,0,0,0,0,0,0,-1,1952,1709,0,0
735,-685,0,0,0,0,0,0,0,0,0,-1,1959,1709,0,0
742,-685,0,0,0,0,0,0,0,0,0,-1,1966,1709,0,0
749,-685,0,0,0,0,0,0,0,0,0,-1,1973,1709,0,0
756,-685,0,0,0,0,0,0,0,0,0,-1,1980,1709,0,0
763,-685,0,0,0,0,0,0,0,0,0,-1,1987,1709,0,0
770,-685,0,0,0,0,0,0,0,0,0,-1,1994,1709,0,0
777,-685,0,0,0,0,0,0,0,0,0,-1,2001,1709,0,0
784,-685,0,0,0,0,0,0,0,0,0,-1,2008,1709,0,0
791,-685,0,0,0,0,0,0,0,0,0,-1,2015,1709,0,0
798,-685,0,0,0,0,0,0,0,0,0,-1,2022,1709,0,0
805,-685,0,0,0,0,0,0,0,0,0,-1,2029,1709,0,0
812,-685,0,0,0,0,0,0,0,0,0,-1,2036,1709,0,0
-700,-692,0,0,0,0,0,0,0,0,0,-1,524,1716,0,0
-693,-692,0,0,0,0,0,0,0,0,0,-1,531,1716,0,0
-686,-692,0,0,0,0,0,0,0,0,0,-1,538,1716,0,0
-679,-692,0,0,0,0,0,0,0,0,0,-1,545,1716,0,0
-672,-692,0,0,0,0,0,0,0,0,0,-1,552,1716,0,0
-665,-692,0,0,0,0,0,0,0,0,0,-1,559,1716,0,0
-658,-692,0,0,0,0,0,0,0,0,0,-1,566,1716,0,0
-651,-692,0,0,0,0,0,0,0,0,0,-1,573,1716,0,0
-644,-692,0,0,0,0,0,0,0,0,0,-1,580,1716,0,0
-637,-692,0,0,0,0,0,0,0,0,0,-1,587,1716,0,0
-630,-692,0,0,0,0,0,0,0,0,0,-1,594,1716,0,0
-623,-692,0,0,0,0,0,0,0,0,0,-1,601,1716,0,0
-616,-692,0,0,0,0,0,0,0,0,0,-1,608,1716,0,0
-609,-692,0,0,0,0,0,0,0,0,0,-1,615,1716,0,0
-602,-692,0,0,0,0,0,0,0,0,0,-1,622,1716,0,0
-595,-692,0,0,0,0,0,0,0,0,0,-1,629,1716,0,0
-588,-692,0,0,0,0,0,0,0,0,0,-1,636,1716,0,0
-581,-692,0,0,0,0,0,0,0,0,0,-1,643,1716,0,0
-574,-692,0,0,0,0,0,0,0,0,0,-1,650,1716,0,0
-567,-692,0,0,0,0,0,0,0,0,0,-1,657,1716,0,0
-560,-692,0,0,0,0,0,0,0,0,0,-1,664,1716,0,0
-553,-692,0,0,0,0,0,0,0,0,0,-1,671,1716,0,0
-546,-692,0,0,0,0,0,0,0,0,0,-1,678,1716,0,0
-539,-692,0,0,0,0,0,0,0,0,0,-1,685,1716,0,0
-532,-692,0,0,0,0,0,0,0,0,0,-1,692,1716,0,0
-525,-692,0,0,0,0,0,0,0,0,0,-1,699,1716,0,0
-518,-692,0,0,0,0,0,0,0,0,0,-1,706,1716,0,0
-511,-692,0,0,0,0,0,0,0,0,0,-1,713,1716,0,0
-504,-692,0,0,0,0,0,0,0,0,0,-1,720,1716,0,0
-497,-692,0,0,0,0,0,0,0,0,0,-1,727,1716,0,0
-490,-692,0,0,0,0,0,0,0,0,0,-1,734,1716,0,0
-483,-692,0,0,0,0,0,0,0,0,0,-1,741,1716,0,0
-476,-692,0,0,0,0,0,0,0,0,0,-1,748,1716,0,0
-469,-692,0,0,0,0,0,0,0,0,0,-1,755,1716,0,0
-462,-692,0,0,0,0,0,0,0,0,0,-1,762,1716,0,0
-455,-692,0,0,0,0,0,0,0,0,0,-1,769,1716,0,0
-448,-692,0,0,0,0,0,0,0,0,0,-1,776,1716,0,0
-441,-692,0,0,0,0,0,0,0,0,0,-1,783,1716,0,0
-434,-692,0,0,0,0,0,0,0,0,0,-1,790,1716,0,0
-427,-692,0,0,0,0,0,0,0,0,0,-1,797,1716,0,0
-420,-692,0,0,0,0,0,0,0,0,0,-1,804,1716,0,0
-413,-692,0,0,0,0,0,0,0,0,0,-1,811,1716,0,0
-406,-692,0,0,0,0,0,0,0,0,0,-1,818,1716,0,0
-399,-692,0,0,0,0,0,0,0,0,0,-1,825,1716,0,0
-392,-692,0,0,0,0,0,0,0,0,0,-1,832,1716,0,0
-385,-692,0,0,0,0,0,0,0,0,0,-1,839,1716,0,0
-378,-692,0,0,0,0,0,0,0,0,0,-1,846,1716,0,0
-371,-692,0,0,0,0,0,0,0,0,0,-1,853,1716,0,0
-364,-692,0,0,0,0,0,0,0,0,0,-1,860,1716,0,0
-357,-692,0,0,0,0,0,0,0,0,0,-1,867,1716,0,0
-350,-692,0,0,0,0,0,0,0,0,0,-1,874,1716,0,0
-343,-692,0,0,0,0,0,0,0,0,0,-1,881,1716,0,0
-336,-692,0,0,0,0,0,0,0,0,0,-1,888,1716,0,0
-329,-692,3.12396,3.50745,0,0,0,0,0,0,0,-1,895,1716,3.12398,-3.50748
-322,-692,3.67346,17.0139,0,0,0,0,0,0,0,-1,902,1716,3.67349,-17.0139
-315,-692,3.98718,15.2626,0,0,0,0,0,0,0,-1,909,1716,3.98716,-15.2626
-308,-692,4.28339,13.5061,0,0,0,0,0,0,0,-1,916,1716,4.2834,-13.5061
-301,-692,4.03302,12.2762,0,0,0,0,0,0,0,-1,923,1716,4.03304,-12.2762
-294,-692,2.43475,10.9552,0,0,0,0,0,0,0,-1,930,1716,2.43473,-10.9552
-287,-692,5.45319,9.55469,0,0,0,0,0,0,0,-1,937,1716,5.45318,-9.55464
-280,-692,5.34802,9.70605,-0.0381648,0.0250369,-0.0127883,0.0275264,-0.0406544,-1.37853,0.0396067,0.048074,944,1716,5.34803,-9.70602
-273,-692,3.3407,9.27002,0,0,0,0,0,0,0,-1,951,1716,3.34068,-9.27005
-266,-692,3.58124,9.69263,0,0,0,0,0,0,0,-1,958,1716,3.58122,-9.69257
-259,-692,3.49384,9.93958,0,0,0,0,0,0,0,-1,965,1716,3.49385,-9.93954
-252,-692,3.90015,10.5404,0,0,0,0,0,0,0,-1,972,1716,3.90015,-10.5404
-245,-692,4.15521,10.4528,-0.012705,0.0113558,-0.00814722,0.0138549,-0.0152042,-1.27316,0.0167833,0.0462008,979,1716,4.15521,-10.4528
-238,-692,4.02081,10.7646,-0.0104194,0.00947967,-0.00730741,0.0118748,-0.0128146,-1.25406,0.0142579,0.0391237,986,1716,4.0208,-10.7646
-231,-692,3.91321,11.0659,-0.00862796,0.00772501,-0.00631326,0.00987868,-0.0107816,-1.24204,0.011932,0.0299539,993,1716,3.91322,-11.0659
-224,-692,3.77936,11.2568,-0.00547467,0.00613535,-0.0052414,0.00815149,-0.00749081,-1.20359,0.00903377,0.0152651,1000,1716,3.77937,-11.2569
-217,-692,3.76868,11.4176,-0.00454018,0.00464409,-0.00488045,0.00675318,-0.00664928,-1.16288,0.00773799,0.011303,1007,1716,3.76869,-11.4176
-210,-692,3.78375,11.5616,-0.0040303,0.00339829,-0.00440282,0.00544427,-0.00607628,-1.13579,0.00665473,0.0124932,1014,1716,3.78376,-11.5617
-203,-692,3.78186,11.6654,-0.00340241,0.00242072,-0.00373001,0.00424098,-0.00522267,-1.11679,0.00547363,0.015178,1021,1716,3.78187,-11.6654
-196,-692,3.76318,11.7942,-0.00278429,0.00157259,-0.00305904,0.00314958,-0.00436129,-1.09481,0.00435517,0.018299,1028,1716,3.76314,-11.7941
-189,-692,3.73755,11.9127,-0.00217947,0.000718136,-0.0024488,0.00211462,-0.00357595,-1.05252,0.00332137,0.00904483,1035,1716,3.73753,-11.9127
-182,-692,3.73315,12.0396,-0.00162955,8.07609e-05,-0.00199419,0.00139542,-0.00294421,-0.98795,0.00255812,0.0125385,1042,1716,3.73317,-12.0395
-175,-692,3.724,12.161,-0.00109157,-0.000320817,-0.00167952,0.00101697,-0.00242937,-0.898175,0.00204468,0.0149331,1049,1716,3.72405,-12.1611
-168,-692,3.74548,12.2759,-0.00063645,-0.000470761,-0.00114543,0.000594818,-0.00170203,-0.821498,0.00137649,0.0112369,1056,1716,3.74542,-12.2758
-161,-692,3.77368,12.3984,-0.000374735,-0.000829109,-0.000803686,0.000233258,-0.0014371,-0.647652,0.00104454,0.0125169,1063,1716,3.77373,-12.3985
-154,-692,3.77332,12.5063,-0.000100939,-0.00103998,-0.000760946,0.000323682,-0.0014646,-0.508978,0.00110028,0.0133475,1070,1716,3.77329,-12.5063
-147,-692,3.75464,12.6083,0.000172912,-0.00105321,-0.000640181,0.000446233,-0.00132654,-0.403516,0.00106474,0.0122075,1077,1716,3.75467,-12.6083
-140,-692,3.74451,12.703,0.000425529,-0.00117196,-0.000542543,0.000592364,-0.0013388,-0.298329,0.00114238,0.00980509,1084,1716,3.7445,-12.703
-133,-692,3.74402,12.7992,0.000692108,-0.00127837,-0.000345391,0.000750895,-0.00133715,-0.16859,0.00122127,0.00931376,1091,1716,3.74403,-12.7992
-126,-692,3.75146,12.8811,0.000877772,-0.00148139,-8.49812e-05,0.000880829,-0.00148445,-0.0359596,0.00138034,0.00771075,1098,1716,3.75146,-12.881
-119,-692,3.78113,12.9724,0.00105172,-0.001672,0.000225574,0.00107028,-0.00169056,0.082073,0.00160732,0.0109236,1105,1716,3.78116,-12.9725
-112,-692,3.76807,13.0835,0.00117203,-0.00195646,0.000538947,0.00126227,-0.0020467,0.165902,0.00192824,0.0102869,1112,1716,3.76803,-13.0835
-105,-692,3.78259,13.1747,0.00116685,-0.00201912,0.000872545,0.00139016,-0.00224243,0.250554,0.00211643,0.0155613,1119,1716,3.78258,-13.1747
-98,-692,3.81677,13.2285,0.0010955,-0.00217589,0.00121926,0.00149993,-0.00258032,0.320278,0.0023831,0.0166403,1126,1716,3.81677,-13.2285
-91,-692,3.81458,13.2964,0.000950078,-0.00220011,0.00155286,0.00158684,-0.00283687,0.389146,0.0025878,0.0182122,1133,1716,3.81462,-13.2964
-84,-692,3.80896,13.3762,0.000742191,-0.0021784,0.00167713,0.00150568,-0.00294188,0.4272,0.00261205,0.02151,1140,1716,3.80892,-13.3762
-77,-692,3.83716,13.4962,0.000708189,-0.00191512,0.00153702,0.00141714,-0.00262408,0.432172,0.00236763,0.0138009,1147,1716,3.83714,-13.4962
-70,-692,3.84302,13.5912,0.000803305,-0.00181281,0.0012088,0.00127632,-0.00228582,0.372991,0.00208395,0.0150498,1154,1716,3.84308,-13.5912
-63,-692,3.83362,13.6674,0.00101636,-0.00213975,0.000936898,0.00127353,-0.00239691,0.267888,0.00215196,0.0222861,1161,1716,3.83366,-13.6673
-56,-692,3.77026,13.9559,0.00184283,-0.00190545,7.4243e-05,0.0018443,-0.00190692,0.0197969,0.00216586,0.0438866,1168,1716,3.77028,-13.9559
-49,-692,3.85022,13.8341,0,0,0,0,0,0,0,-1,1175,1716,3.85017,-13.8341
-42,-692,3.88147,13.9767,0,0,0,0,0,0,0,-1,1182,1716,3.88148,-13.9767
-35,-692,3.90381,13.9546,0,0,0,0,0,0,0,-1,1189,1716,3.90378,-13.9546
-28,-692,3.80811,13.963,0.0055376,0.00535164,-9.16327e-05,0.00557516,0.00531408,-0.38905,0.00363288,0.0401364,1196,1716,3.80816,-13.9631
-21,-692,3.95728,13.9226,0.00488189,0.00607141,-0.000791709,0.00646687,0.00448643,-1.10754,0.00382595,0.0248961,1203,1716,3.9573,-13.9227
-14,-692,3.97461,13.948,0.00380543,0.00629942,-0.0015011,0.00700391,0.00310094,-1.13199,0.00405254,0.0145598,1210,1716,3.97456,-13.9479
-7,-692,3.95154,14.0111,0.0025568,0.00640075,-0.00207526,0.00730733,0.00165022,-1.15893,0.00442526,0.0152819,1217,1716,3.95149,-14.0111
0,-692,3.9856,14.0369,0.000782816,0.00611501,-0.00285457,0.00735489,-0.000457063,-1.16103,0.00506249,0.0179277,1224,1716,3.98555,-14.0369
7,-692,4.00818,14.0471,-0.00133573,0.00569407,-0.00386884,0.00740626,-0.00304792,-1.15415,0.0062081,0.0221169,1231,1716,4.00822,-14.0471
14,-692,4.09277,14.1467,-0.0013782,0.00542756,-0.00632952,0.00921094,-0.00516158,-1.03204,0.00840705,0.0228428,1238,1716,4.09273,-14.1467
21,-692,4.15137,14.1443,-0.000143003,0.00591861,-0.00813815,0.011572,-0.0057964,-0.963651,0.0102108,0.0214933,1245,1716,4.15141,-14.1443
28,-692,4.11853,14.1095,0.00200421,0.00546118,-0.00967034,0.0135563,-0.00609091,-0.873835,0.0116131,0.0230102,1252,1716,4.1185,-14.1095
35,-692,4.1488,14.1986,0.00376253,0.00529084,-0.0109472,0.0155005,-0.00644714,-0.820243,0.0130259,0.0228166,1259,1716,4.14876,-14.1986
42,-692,4.16748,14.1937,0.00610235,0.00529284,-0.0120135,0.017718,-0.00632276,-0.768559,0.0143903,0.0220171,1266,1716,4.1675,-14.1938
49,-692,4.13269,14.1409,0.00868561,0.00546014,-0.0126872,0.0198622,-0.00571642,-0.72218,0.0155023,0.0261749,1273,1716,4.13268,-14.1409
56,-692,4.02588,14.214,0.0115455,0.00599643,-0.0126353,0.0217073,-0.0041654,-0.677321,0.0160413,0.0312726,1280,1716,4.02591,-14.214
63,-692,4.09595,14.2378,0.0145085,0.00660599,-0.0121424,0.0233264,-0.00221184,-0.628096,0.0163382,0.0295197,1287,1716,4.09591,-14.2378
70,-692,4.16101,14.2534,0.0161559,0.00744507,-0.0105389,0.0232039,0.000397101,-0.58945,0.0153386,0.0243781,1294,1716,4.16096,-14.2534
77,-692,4.22266,14.3069,0.0171459,0.00746236,-0.00815988,0.0217923,0.0028159,-0.517636,0.0136865,0.0278816,1301,1716,4.22268,-14.3069
84,-692,4.29749,14.3169,0.018031,0.00878886,-0.00481561,0.0200841,0.00673577,-0.403005,0.0118032,0.0337157,1308,1716,4.29743,-14.3169
91,-692,4.29041,14.3192,0.0188827,0.0102586,-0.000775318,0.0189518,0.0101894,-0.088951,0.0109522,0.0299326,1315,1716,4.29038,-14.3192
98,-692,4.2395,14.3058,0.0189447,0.0125047,0.00365791,0.020598,0.0108514,0.424489,0.011898,0.0248131,1322,1716,4.23955,-14.3057
105,-692,4.17432,14.2262,0.0187116,0.0141897,0.00767076,0.0244476,0.00845359,0.642083,0.0143369,0.0315998,1329,1716,4.1743,-14.2262
112,-692,4.14941,14.1738,0.0185418,0.0157634,0.011723,0.0289577,0.00534757,0.726422,0.0177925,0.0371234,1336,1716,4.14942,-14.1738
119,-692,4.23389,14.225,0.0177832,0.0170477,0.0166333,0.0340528,0.000778027,0.774345,0.022447,0.030914,1343,1716,4.23386,-14.225
126,-692,4.25732,14.2439,0.0180534,0.0179576,0.0202918,0.0382973,-0.00228637,0.784218,0.0263268,0.0287312,1350,1716,4.2573,-14.2439
133,-692,4.30505,14.2047,0.01918,0.0203118,0.023622,0.0433746,-0.00388288,0.797374,0.0302937,0.0229923,1357,1716,4.30506,-14.2047
140,-692,4.33325,14.1676,0.0220538,0.022173,0.026371,0.0484844,-0.00425773,0.786528,0.0338316,0.027977,1364,1716,4.33326,-14.1676
147,-692,4.31689,14.2352,0.0238601,0.023224,0.0279175,0.0514613,-0.00437727,0.779702,0.0358558,0.0299612,1371,1716,4.3169,-14.2353
154,-692,4.33411,14.2286,0.02468,0.0234196,0.0282935,0.0523503,-0.00425075,0.774263,0.0364,0.0282282,1378,1716,4.33405,-14.2286
161,-692,4.66479,14.1729,0.0238578,0.0220445,0.0272486,0.0502148,-0.00431251,0.768767,0.0350027,0.0419148,1385,1716,4.66474,-14.1728
168,-692,4.37183,14.1654,0,0,0,0,0,0,0,-1,1392,1716,4.3718,-14.1654
175,-692,4.40784,14.0895,0,0,0,0,0,0,0,-1,1399,1716,4.40778,-14.0895
182,-692,4.41589,14.0143,0,0,0,0,0,0,0,-1,1406,1716,4.41591,-14.0143
189,-692,4.44141,14.006,0,0,0,0,0,0,0,-1,1413,1716,4.44144,-14.006
196,-692,4.43372,13.9744,0.00497052,0.0040624,0.00748777,0.012018,-0.00298507,0.755115,0.00917042,0.021931,1420,1716,4.43366,-13.9743
203,-692,4.42334,13.9293,0.000952109,-0.0014474,0.00286459,0.00285804,-0.00335333,0.587085,0.00358993,0.0154429,1427,1716,4.42338,-13.9293
210,-692,4.47791,13.8827,7.76776e-05,-0.00182936,0.0027237,0.00200994,-0.00376162,0.617025,0.00338299,0.0164069,1434,1716,4.47787,-13.8827
217,-692,4.45581,13.8127,-0.000721204,-0.00204434,0.00237471,0.00108237,-0.00384792,0.649549,0.00299206,0.0163755,1441,1716,4.45576,-13.8128
224,-692,4.44006,13.7423,-0.000576372,-0.00217846,0.00235015,0.0011055,-0.00386033,0.621148,0.00301049,0.0128256,1448,1716,4.44005,-13.7423
231,-692,4.44751,13.6722,-0.000213474,-0.00178354,0.00194215,0.0010963,-0.00309331,0.593334,0.0025088,0.011355,1455,1716,4.4475,-13.6722
238,-692,4.46521,13.5729,0.000261013,-0.00154136,0.00154023,0.00114433,-0.00242467,0.520703,0.0021043,0.018589,1462,1716,4.46526,-13.5729
245,-692,4.43835,13.494,0.000299974,-0.0012003,0.00141298,0.00114959,-0.00204991,0.541371,0.00187145,0.0212799,1469,1716,4.43837,-13.4941
252,-692,4.45801,13.4362,0.000201934,-0.000801164,0.00121743,0.00101708,-0.00161631,0.590005,0.00153345,0.0183331,1476,1716,4.458,-13.4362
259,-692,4.4751,13.3889,-0.000196147,-0.000299369,0.000973812,0.00072742,-0.00122294,0.758923,0.00113809,0.0101465,1483,1716,4.47505,-13.3889
266,-692,4.45654,13.3165,-0.000892181,0.000280405,0.000865356,0.000739378,-0.00135115,1.08314,0.00122408,0.0106757,1490,1716,4.45649,-13.3165
273,-692,4.46143,13.2189,-0.00188413,0.00115207,0.000837011,0.00136752,-0.00209959,1.31886,0.00201656,0.0139691,1497,1716,4.46139,-13.2189
280,-692,4.48706,13.1609,-0.00302417,0.002193,0.000748574,0.00229829,-0.00312946,1.43107,0.00314593,0.0132059,1504,1716,4.48709,-13.1609
287,-692,4.48889,13.0903,-0.0041652,0.00298737,0.000789809,0.00307354,-0.00425137,1.46212,0.00424723,0.0117536,1511,1716,4.48886,-13.0903
294,-692,4.48193,12.999,-0.00510815,0.00380984,0.000887875,0.00389738,-0.00519568,1.47252,0.00526769,0.0109117,1518,1716,4.48189,-12.9991
301,-692,4.46863,12.8885,-0.00570699,0.00442689,0.0009272,0.00451102,-0.00579112,1.4803,0.00596323,0.0126882,1525,1716,4.46863,-12.8886
308,-692,4.4707,12.7897,-0.00595661,0.00486919,0.000846575,0.00493499,-0.00602241,1.49322,0.00633663,0.0160394,1532,1716,4.47071,-12.7896
315,-692,4.50623,12.6979,-0.00586598,0.00478315,0.000838647,0.00484879,-0.00593162,1.49269,0.00623453,0.0154746,1539,1716,4.50628,-12.6978
322,-692,4.5072,12.6019,-0.00551341,0.00465655,0.000678757,0.00470165,-0.00555852,1.50445,0.00593059,0.0198315,1546,1716,4.50723,-12.602
329,-692,4.47168,12.4761,-0.0048851,0.00426055,0.00046007,0.00428364,-0.00490818,1.52066,0.00531098,0.0180146,1553,1716,4.47172,-12.4761
336,-692,4.46521,12.3403,-0.00401133,0.00376565,0.000162909,0.00376906,-0.00401474,1.54986,0.00449473,0.0125775,1560,1716,4.46519,-12.3403
343,-692,4.47693,12.2211,-0.00298903,0.00348067,-0.000292692,0.00349389,-0.00300225,-1.52568,0.00375412,0.0123057,1567,1716,4.47699,-12.221
350,-692,4.47632,12.1261,-0.00216678,0.00370792,-0.000988819,0.00386989,-0.00232875,-1.40844,0.00361547,0.0124178,1574,1716,4.4763,-12.1261
357,-692,4.46216,12.0308,-0.000902921,0.00315829,-0.00139946,0.00359383,-0.00133846,-1.26908,0.00294522,0.0159753,1581,1716,4.46219,-12.0307
364,-692,4.44702,11.9128,0.000491583,0.00283137,-0.00226866,0.00421402,-0.00089107,-1.02345,0.00314868,0.0216165,1588,1716,4.44703,-11.9129
371,-692,4.54431,11.8041,0.00130863,0.00317569,-0.00293475,0.00532181,-0.000837486,-0.939385,0.00385746,0.0327127,1595,1716,4.5443,-11.804
378,-692,4.39502,11.7052,0.00228834,0.00389436,-0.00381483,0.00698978,-0.000807079,-0.889132,0.00495086,0.0418371,1602,1716,4.39503,-11.7052
385,-692,4.39832,11.2897,0,0,0,0,0,0,0,-1,1609,1716,4.39834,-11.2897
392,-692,4.64526,10.7529,0,0,0,0,0,0,0,-1,1616,1716,4.64524,-10.753
399,-692,5.2627,10.4279,0,0,0,0,0,0,0,-1,1623,1716,5.26267,-10.4278
406,-692,4.73633,10.6808,0,0,0,0,0,0,0,-1,1630,1716,4.73637,-10.6808
413,-692,4.25085,10.5685,0,0,0,0,0,0,0,-1,1637,1716,4.2508,-10.5685
420,-692,5.48901,10.4845,0,0,0,0,0,0,0,-1,1644,1716,5.48906,-10.4845
427,-692,3.79578,8.60339,0,0,0,0,0,0,0,-1,1651,1716,3.79577,-8.6034
434,-692,4.78516,8.64636,0,0,0,0,0,0,0,-1,1658,1716,4.78512,-8.64634
441,-692,5.8208,8.74036,0,0,0,0,0,0,0,-1,1665,1716,5.82084,-8.7404
448,-692,6.73792,8.51013,0,0,0,0,0,0,0,-1,1672,1716,6.73793,-8.5101
455,-692,0,0,0,0,0,0,0,0,0,-1,1679,1716,0,0
462,-692,0,0,0,0,0,0,0,0,0,-1,1686,1716,0,0
469,-692,0,0,0,0,0,0,0,0,0,-1,1693,1716,0,0
476,-692,0,0,0,0,0,0,0,0,0,-1,1700,1716,0,0
483,-692,0,0,0,0,0,0,0,0,0,-1,1707,1716,0,0
490,-692,0,0,0,0,0,0,0,0,0,-1,1714,1716,0,0
497,-692,0,0,0,0,0,0,0,0,0,-1,1721,1716,0,0
504,-692,0,0,0,0,0,0,0,0,0,-1,1728,1716,0,0
511,-692,0,0,0,0,0,0,0,0,0,-1,1735,1716,0,0
518,-692,0,0,0,0,0,0,0,0,0,-1,1742,1716,0,0
525,-692,0,0,0,0,0,0,0,0,0,-1,1749,1716,0,0
532,-692,0,0,0,0,0,0,0,0,0,-1,1756,1716,0,0
539,-692,0,0,0,0,0,0,0,0,0,-1,1763,1716,0,0
546,-692,0,0,0,0,0,0,0,0,0,-1,1770,1716,0,0
553,-692,0,0,0,0,0,0,0,0,0,-1,1777,1716,0,0
560,-692,0,0,0,0,0,0,0,0,0,-1,1784,1716,0,0
567,-692,0,0,0,0,0,0,0,0,0,-1,1791,1716,0,0
574,-692,0,0,0,0,0,0,0,0,0,-1,1798,1716,0,0
581,-692,0,0,0,0,0,0,0,0,0,-1,1805,1716,0,0
588,-692,0,0,0,0,0,0,0,0,0,-1,1812,1716,0,0
595,-692,0,0,0,0,0,0,0,0,0,-1,1819,1716,0,0
602,-692,0,0,0,0,0,0,0,0,0,-1,1826,1716,0,0
609,-692,0,0,0,0,0,0,0,0,0,-1,1833,1716,0,0
616,-692,0,0,0,0,0,0,0,0,0,-1,1840,1716,0,0
623,-692,0,0,0,0,0,0,0,0,0,-1,1847,1716,0,0
630,-692,0,0,0,0,0,0,0,0,0,-1,1854,1716,0,0
637,-692,0,0,0,0,0,0,0,0,0,-1,1861,1716,0,0
644,-692,0,0,0,0,0,0,0,0,0,-1,1868,1716,0,0
651,-692,0,0,0,0,0,0,0,0,0,-1,1875,1716,0,0
658,-692,0,0,0,0,0,0,0,0,0,-1,1882,1716,0,0
665,-692,0,0,0,0,0,0,0,0,0,-1,1889,1716,0,0
672,-692,0,0,0,0,0,0,0,0,0,-1,1896,1716,0,0
679,-692,0,0,0,0,0,0,0,0,0,-1,1903,1716,0,0
686,-692,0,0,0,0,0,0,0,0,0,-1,1910,1716,0,0
693,-692,0,0,0,0,0,0,0,0,0,-1,1917,1716,0,0
700,-692,0,0,0,0,0,0,0,0,0,-1,1924,1716,0,0
707,-692,0,0,0,0,0,0,0,0,0,-1,1931,1716,0,0
714,-692,0,0,0,0,0,0,0,0,0,-1,1938,1716,0,0
721,-692,0,0,0,0,0,0,0,0,0,-1,1945,1716,0,0
728,-692,0,0,0,0,0,0,0,0,0,-1,1952,1716,0,0
735,-692,0,0,0,0,0,0,0,0,0,-1,1959,1716,0,0
742,-692,0,0,0,0,0,0,0,0,0,-1,1966,1716,0,0
749,-692,0,0,0,0,0,0,0,0,0,-1,1973,1716,0,0
756,-692,0,0,0,0,0,0,0,0,0,-1,1980,1716,0,0
763,-692,0,0,0,0,0,0,0,0,0,-1,1987,1716,0,0
770,-692,0,0,0,0,0,0,0,0,0,-1,1994,1716,0,0
777,-692,0,0,0,0,0,0,0,0,0,-1,2001,1716,0,0
784,-692,0,0,0,0,0,0,0,0,0,-1,2008,1716,0,0
791,-692,0,0,0,0,0,0,0,0,0,-1,2015,1716,0,0
798,-692,0,0,0,0,0,0,0,0,0,-1,2022,1716,0,0
805,-692,0,0,0,0,0,0,0,0,0,-1,2029,1716,0,0
812,-692,0,0,0,0,0,0,0,0,0,-1,2036,1716,0,0
-700,-699,0,0,0,0,0,0,0,0,0,-1,524,1723,0,0
-693,-699,0,0,0,0,0,0,0,0,0,-1,531,1723,0,0
-686,-699,0,0,0,0,0,0,0,0,0,-1,538,1723,0,0
-679,-699,0,0,0,0,0,0,0,0,0,-1,545,1723,0,0
-672,-699,0,0,0,0,0,0,0,0,0,-1,552,1723,0,0
-665,-699,0,0,0,0,0,0,0,0,0,-1,559,1723,0,0
-658,-699,0,0,0,0,0,0,0,0,0,-1,566,1723,0,0
-651,-699,0,0,0,0,0,0,0,0,0,-1,573,1723,0,0
-644,-699,0,0,0,0,0,0,0,0,0,-1,580,1723,0,0
-637,-699,0,0,0,0,0,0,0,0,0,-1,587,1723,0,0
-630,-699,0,0,0,0,0,0,0,0,0,-1,594,1723,0,0
-623,-699,0,0,0,0,0,0,0,0,0,-1,601,1723,0,0
-616,-699,0,0,0,0,0,0,0,0,0,-1,608,1723,0,0
-609,-699,0,0,0,0,0,0,0,0,0,-1,615,1723,0,0
-602,-699,0,0,0,0,0,0,0,0,0,-1,622,1723,0,0
-595,-699,0,0,0,0,0,0,0,0,0,-1,629,1723,0,0
-588,-699,0,0,0,0,0,0,0,0,0,-1,636,1723,0,0
-581,-699,0,0,0,0,0,0,0,0,0,-1,643,1723,0,0
-574,-699,0,0,0,0,0,0,0,0,0,-1,650,1723,0,0
-567,-699,0,0,0,0,0,0,0,0,0,-1,657,1723,0,0
-560,-699,0,0,0,0,0,0,0,0,0,-1,664,1723,0,0
-553,-699,0,0,0,0,0,0,0,0,0,-1,671,1723,0,0
-546,-699,0,0,0,0,0,0,0,0,0,-1,678,1723,0,0
-539,-699,0,0,0,0,0,0,0,0,0,-1,685,1723,0,0
-532,-699,0,0,0,0,0,0,0,0,0,-1,692,1723,0,0
-525,-699,0,0,0,0,0,0,0,0,0,-1,699,1723,0,0
-518,-699,0,0,0,0,0,0,0,0,0,-1,706,1723,0,0
-511,-699,0,0,0,0,0,0,0,0,0,-1,713,1723,0,0
-504,-699,0,0,0,0,0,0,0,0,0,-1,720,1723,0,0
-497,-699,0,0,0,0,0,0,0,0,0,-1,727,1723,0,0
-490,-699,0,0,0,0,0,0,0,0,0,-1,734,1723,0,0
-483,-699,0,0,0,0,0,0,0,0,0,-1,741,1723,0,0
-476,-699,0,0,0,0,0,0,0,0,0,-1,748,1723,0,0
-469,-699,0,0,0,0,0,0,0,0,0,-1,755,1723,0,0
-462,-699,0,0,0,0,0,0,0,0,0,-1,762,1723,0,0
-455,-699,0,0,0,0,0,0,0,0,0,-1,769,1723,0,0
-448,-699,0,0,0,0,0,0,0,0,0,-1,776,1723,0,0
-441,-699,0,0,0,0,0,0,0,0,0,-1,783,1723,0,0
-434,-699,0,0,0,0,0,0,0,0,0,-1,790,1723,0,0
-427,-699,0,0,0,0,0,0,0,0,0,-1,797,1723,0,0
-420,-699,0,0,0,0,0,0,0,0,0,-1,804,1723,0,0
-413,-699,0,0,0,0,0,0,0,0,0,-1,811,1723,0,0
-406,-699,0,0,0,0,0,0,0,0,0,-1,818,1723,0,0
-399,-699,0,0,0,0,0,0,0,0,0,-1,825,1723,0,0
-392,-699,0,0,0,0,0,0,0,0,0,-1,832,1723,0,0
-385,-699,0,0,0,0,0,0,0,0,0,-1,839,1723,0,0
-378,-699,0,0,0,0,0,0,0,0,0,-1,846,1723,0,0
-371,-699,0,0,0,0,0,0,0,0,0,-1,853,1723,0,0
-364,-699,0,0,0,0,0,0,0,0,0,-1,860,1723,0,0
-357,-699,0,0,0,0,0,0,0,0,0,-1,867,1723,0,0
-350,-699,0,0,0,0,0,0,0,0,0,-1,874,1723,0,0
-343,-699,0,0,0,0,0,0,0,0,0,-1,881,1723,0,0
-336,-699,0,0,0,0,0,0,0,0,0,-1,888,1723,0,0
-329,-699,0,0,0,0,0,0,0,0,0,-1,895,1723,0,0
-322,-699,0,0,0,0,0,0,0,0,0,-1,902,1723,0,0
-315,-699,4.27734,16.1066,0,0,0,0,0,0,0,-1,909,1723,4.27737,-16.1066
-308,-699,4.55981,14.3354,0,0,0,0,0,0,0,-1,916,1723,4.55981,-14.3355
-301,-699,4.72729,12.8752,0,0,0,0,0,0,0,-1,923,1723,4.72732,-12.8752
-294,-699,4.01123,11.4454,0,0,0,0,0,0,0,-1,930,1723,4.0112,-11.4454
-287,-699,5.95435,9.41821,0,0,0,0,0,0,0,-1,937,1723,5.95432,-9.41822
-280,-699,5.72284,9.50464,0,0,0,0,0,0,0,-1,944,1723,5.72285,-9.5047
-273,-699,3.66559,9.46167,0,0,0,0,0,0,0,-1,951,1723,3.66559,-9.46167
-266,-699,3.42633,9.56653,0,0,0,0,0,0,0,-1,958,1723,3.42636,-9.56651
-259,-699,3.18713,9.67139,0,0,0,0,0,0,0,-1,965,1723,3.18712,-9.67134
-252,-699,4.95154,9.19482,0,0,0,0,0,0,0,-1,972,1723,4.95153,-9.19486
-245,-699,4.51245,10.1875,0,0,0,0,0,0,0,-1,979,1723,4.51243,-10.1875
-238,-699,4.24921,10.5691,0,0,0,0,0,0,0,-1,986,1723,4.24921,-10.5691
-231,-699,4.0636,11.0081,-0.0116115,0.00795779,-0.0100381,0.0121911,-0.0158448,-1.1717,0.0162323,0.0407602,993,1723,4.06358,-11.008
-224,-699,3.88074,11.2278,-0.00761286,0.00630187,-0.00848768,0.0103193,-0.0116303,-1.12872,0.0126801,0.0345595,1000,1723,3.88072,-11.2278
-217,-699,3.93292,11.3308,-0.00640453,0.00473484,-0.00772264,0.00868674,-0.0103564,-1.09781,0.0110087,0.0243746,1007,1723,3.9329,-11.3308
-210,-699,3.92029,11.5247,-0.00561006,0.00343155,-0.00680926,0.00708409,-0.00926261,-1.07845,0.00946567,0.0169019,1014,1723,3.92028,-11.5246
-203,-699,3.9425,11.6378,-0.00466864,0.00245054,-0.00568111,0.00559511,-0.00781321,-1.06526,0.00777652,0.0207041,1021,1723,3.94256,-11.6378
-196,-699,3.91541,11.7673,-0.00375499,0.00164798,-0.00455181,0.0042396,-0.00634661,-1.05321,0.00615217,0.0172378,1028,1723,3.91546,-11.7674
-189,-699,3.85889,11.9258,-0.00289281,0.000884849,-0.00353338,0.00300257,-0.00501054,-1.03086,0.00467454,0.00807771,1035,1723,3.85892,-11.9258
-182,-699,3.85327,12.0461,-0.00214789,0.000372922,-0.00272055,0.00211085,-0.00388582,-1.00232,0.00351237,0.0103176,1042,1723,3.85326,-12.0462
-175,-699,3.86584,12.1758,-0.00149346,0.000140249,-0.00213574,0.00161001,-0.00296322,-0.96805,0.00267861,0.0136822,1049,1723,3.8659,-12.1758
-168,-699,3.90234,12.293,-0.0009122,0.000241938,-0.00126078,0.00105144,-0.0017217,-1.00002,0.00161659,0.014439,1056,1723,3.90238,-12.293
-161,-699,3.90698,12.4034,-0.000642831,-0.000110718,-0.000726222,0.000396649,-0.0011502,-0.960984,0.000927724,0.012619,1063,1723,3.90693,-12.4034
-154,-699,3.88135,12.5139,-0.000408257,-0.000191043,-0.000652882,0.000362204,-0.000961503,-0.867819,0.00078992,0.0127687,1070,1723,3.88136,-12.5139
-147,-699,3.85547,12.6179,-0.000170063,-6.07496e-05,-0.000515652,0.000403134,-0.000633947,-0.838199,0.000603682,0.0142946,1077,1723,3.85542,-12.618
-140,-699,3.84119,12.7021,5.92228e-05,-3.60474e-05,-0.00041759,0.000431886,-0.00040871,-0.728608,0.00048538,0.0100691,1084,1723,3.84116,-12.7021
-133,-699,3.85376,12.8043,0.000282528,-2.27484e-05,-0.000263078,0.000434042,-0.000174262,-0.522531,0.000361722,0.00893999,1091,1723,3.85374,-12.8043
-126,-699,3.86743,12.8907,0.000406596,-0.000147067,-7.87848e-05,0.000417588,-0.00015806,-0.138632,0.000343425,0.0112266,1098,1723,3.86741,-12.8908
-119,-699,3.87061,12.9899,0.000529204,-0.000347183,0.000146528,0.000553054,-0.000371032,0.161351,0.00053696,0.0158155,1105,1723,3.87061,-12.9898
-112,-699,3.85864,13.0844,0.000651478,-0.000602414,0.000364233,0.000749602,-0.000700539,0.263153,0.000837399,0.0109171,1112,1723,3.85864,-13.0843
-105,-699,3.86487,13.1909,0.000674663,-0.000725818,0.000583575,0.000885958,-0.000937113,0.347387,0.00105269,0.0119901,1119,1723,3.86483,-13.1909
-98,-699,3.90637,13.2648,0.000664167,-0.00093394,0.000814493,0.00100612,-0.00127589,0.397483,0.00132058,0.013748,1126,1723,3.90636,-13.2647
-91,-699,3.91809,13.3135,0.000627,-0.00102358,0.00102087,0.00111445,-0.00151103,0.445472,0.00152158,0.0195958,1133,1723,3.91815,-13.3134
-84,-699,3.89954,13.4119,0.000540281,-0.00102278,0.00113527,0.00113702,-0.00161951,0.483946,0.00159959,0.023401,1140,1723,3.89956,-13.4119
-77,-699,3.90503,13.4805,0.000573487,-0.000855324,0.00105632,0.0011343,-0.00141614,0.488072,0.00147549,0.0153689,1147,1723,3.90505,-13.4804
-70,-699,3.90442,13.5729,0.000673855,-0.000801522,0.000848799,0.00106073,-0.0011884,0.42766,0.00129923,0.0159915,1154,1723,3.9044,-13.5729
-63,-699,3.90796,13.6565,0.00084921,-0.000991187,0.000665782,0.00106481,-0.00120678,0.313169,0.00131236,0.0138096,1161,1723,3.90795,-13.6565
-56,-699,3.88745,13.7123,0.00141297,-0.000973507,0.000161812,0.0014239,-0.000984429,0.0673926,0.00139814,0.0100062,1168,1723,3.88741,-13.7122
-49,-699,3.89734,13.8071,0.00213735,0.000529816,-0.000746213,0.00243034,0.000236826,-0.374142,0.00154734,0.0217152,1175,1723,3.89731,-13.8071
-42,-699,3.91687,13.8953,0.00287358,0.00139054,-0.00112123,0.00347631,0.000787818,-0.493243,0.00210467,0.0243631,1182,1723,3.91692,-13.8953
-35,-699,3.92004,13.9227,0.00421294,0.00186512,-0.00101017,0.00458774,0.00149032,-0.355283,0.00270236,0.0224341,1189,1723,3.92,-13.9227
-28,-699,3.96838,13.9373,0.00486685,0.00375057,-0.00109743,0.00553992,0.0030775,-0.550151,0.00320504,0.0170086,1196,1723,3.96838,-13.9373
-21,-699,3.96851,13.9478,0.00473084,0.00423358,-0.0016634,0.00616409,0.00280033,-0.711213,0.00356379,0.0117213,1203,1723,3.96851,-13.9478
-14,-699,3.96411,13.9943,0.0041592,0.00440297,-0.00224754,0.00653193,0.00203024,-0.812488,0.00386014,0.0109756,1210,1723,3.96416,-13.9942
-7,-699,3.97205,14.0566,0.00343823,0.00436838,-0.00270116,0.00664421,0.0011624,-0.870651,0.00409735,0.00903341,1217,1723,3.972,-14.0566
0,-699,4.0033,14.0956,0.00231543,0.0040173,-0.00326827,0.0065436,-0.000210863,-0.912752,0.00443436,0.0106464,1224,1723,4.00331,-14.0956
7,-699,4.03027,14.1135,0.00102483,0.00357008,-0.00396002,0.00645694,-0.00186203,-0.94087,0.00504126,0.015807,1231,1723,4.03033,-14.1135
14,-699,4.04785,14.1697,0.00131924,0.00322056,-0.00567278,0.00802179,-0.00348199,-0.868418,0.00681192,0.0165419,1238,1723,4.04786,-14.1697
21,-699,4.07166,14.2057,0.00185192,0.00310133,-0.00671602,0.00922164,-0.00426839,-0.831773,0.00796155,0.0155601,1245,1723,4.07165,-14.2057
28,-699,4.05164,14.1957,0.00200017,0.00256532,-0.00755454,0.00984256,-0.00527708,-0.804092,0.00886099,0.015338,1252,1723,4.05163,-14.1957
35,-699,4.06873,14.24,0.00251115,0.00221584,-0.00825325,0.0106181,-0.00589108,-0.776454,0.00966092,0.0132201,1259,1723,4.06876,-14.24
42,-699,4.11328,14.2714,0.00326508,0.00200878,-0.00878822,0.0114476,-0.00617371,-0.74972,0.0103244,0.0125296,1266,1723,4.11334,-14.2714
49,-699,4.11401,14.2723,0.00401891,0.00195274,-0.00902245,0.0120672,-0.00609558,-0.728396,0.0106736,0.0153634,1273,1723,4.11406,-14.2724
56,-699,4.12073,14.3027,0.0049399,0.00220382,-0.00874059,0.0124189,-0.00527514,-0.70777,0.0104895,0.0163169,1280,1723,4.12073,-14.3028
63,-699,4.13953,14.309,0.00596897,0.00250393,-0.00798841,0.0124106,-0.00393768,-0.678612,0.00985217,0.0136384,1287,1723,4.13955,-14.309
70,-699,4.15222,14.3157,0.00637442,0.00322556,-0.00667628,0.0116594,-0.00205943,-0.669602,0.00854256,0.0108776,1294,1723,4.1522,-14.3157
77,-699,4.15271,14.316,0.00660027,0.00337172,-0.00490559,0.0101504,-0.000178375,-0.626444,0.00682714,0.0109164,1301,1723,4.15267,-14.316
84,-699,4.17883,14.3204,0.00707418,0.00459114,-0.00251926,0.00864123,0.00302409,-0.556458,0.00506334,0.0136351,1308,1723,4.17885,-14.3204
91,-699,4.2113,14.3245,0.00793928,0.00591473,0.000320936,0.00798894,0.00586507,0.153509,0.00477803,0.0123926,1315,1723,4.21134,-14.3244
98,-699,4.21997,14.3239,0.00853299,0.0078533,0.00337486,0.0115851,0.00480122,0.735218,0.00672121,0.010657,1322,1723,4.22,-14.3239
105,-699,4.21765,14.3269,0.00910324,0.00925632,0.00601882,0.0151991,0.00316047,0.791757,0.00926078,0.0152815,1329,1723,4.2177,-14.3269
112,-699,4.20911,14.3353,0.00983706,0.0105102,0.00865882,0.018839,0.00150827,0.804824,0.012088,0.0237206,1336,1723,4.20909,-14.3353
119,-699,4.19678,14.3228,0.010022,0.011484,0.0118184,0.0225939,-0.00108794,0.816286,0.0154381,0.0174914,1343,1723,4.19675,-14.3228
126,-699,4.24011,14.3082,0.0113361,0.0123357,0.013979,0.0258239,-0.00215203,0.803268,0.0179763,0.0165508,1350,1723,4.24015,-14.3083
133,-699,4.29114,14.2769,0.0135558,0.0136796,0.0159634,0.0295812,-0.00234578,0.787337,0.0205474,0.0144007,1357,1723,4.29111,-14.2769
140,-699,4.2926,14.2274,0.0154278,0.014758,0.0176287,0.0327247,-0.00253897,0.775901,0.0227102,0.0162,1364,1723,4.29262,-14.2274
147,-699,4.28723,14.2168,0.0165487,0.015292,0.0184674,0.0343985,-0.00255772,0.768393,0.0238307,0.0137421,1371,1723,4.28721,-14.2168
154,-699,4.27344,14.1938,0.0169872,0.0152557,0.0185288,0.0346705,-0.00242755,0.762053,0.0239639,0.0134939,1378,1723,4.27342,-14.1939
161,-699,4.29846,14.1812,0.016338,0.0143433,0.0177395,0.0331081,-0.00242682,0.757316,0.0229239,0.00996197,1385,1723,4.2985,-14.1812
168,-699,4.31384,14.1493,0.0148154,0.0138471,0.0162031,0.0305416,-0.00187915,0.770462,0.0210155,0.0114771,1392,1723,4.31383,-14.1493
175,-699,4.32678,14.1007,0.0133592,0.0119491,0.0142106,0.0268822,-0.00157389,0.760611,0.0184684,0.0131611,1399,1723,4.32679,-14.1008
182,-699,4.35413,14.0416,0.0116056,0.00900502,0.0115623,0.0219405,-0.00132985,0.729403,0.0150898,0.0132082,1406,1723,4.35416,-14.0416
189,-699,4.35278,14.01,0.00818274,0.00595898,0.00833474,0.0154794,-0.00133771,0.719088,0.0107932,0.0156982,1413,1723,4.35275,-14.0101
196,-699,4.36133,13.9519,0.00361413,0.00253162,0.00470232,0.00780625,-0.0016605,0.728099,0.00583693,0.0157369,1420,1723,4.36139,-13.9518
203,-699,4.37695,13.9093,0.0011812,-0.000762503,0.00188269,0.00232808,-0.00190938,0.547135,0.00245048,0.0130616,1427,1723,4.37701,-13.9093
210,-699,4.38867,13.8719,0.000526953,-0.00101104,0.00169531,0.00161953,-0.00210361,0.572476,0.0021556,0.0131315,1434,1723,4.38865,-13.872
217,-699,4.37781,13.823,4.55136e-05,-0.00116373,0.00133507,0.000906487,-0.00202471,0.572775,0.00173289,0.0131895,1441,1723,4.37787,-13.823
224,-699,4.35938,13.7668,0.000117875,-0.00129141,0.0012249,0.000826351,-0.00199989,0.524381,0.00167796,0.0143874,1448,1723,4.35936,-13.7668
231,-699,4.38965,13.6969,0.000162897,-0.00114113,0.000949964,0.000663078,-0.00164131,0.484643,0.00136982,0.0115826,1455,1723,4.38962,-13.6969
238,-699,4.37695,13.6152,6.2118e-05,-0.00101455,0.000694877,0.000402793,-0.00135523,0.45583,0.00106349,0.0110691,1462,1723,4.37696,-13.6153
245,-699,4.36902,13.54,-0.000438628,-0.000815762,0.000533812,-6.1057e-05,-0.00119333,0.615617,0.000776004,0.013035,1469,1723,4.36896,-13.54
252,-699,4.38074,13.4728,-0.00141054,-0.000318786,0.000351434,-0.000215442,-0.00151388,1.2848,0.000945658,0.0105879,1476,1723,4.38076,-13.4728
259,-699,4.37805,13.3932,-0.00284469,0.00041173,0.00031929,0.000442741,-0.0028757,1.47398,0.00208048,0.0108131,1483,1723,4.37806,-13.3931
266,-699,4.37134,13.29,-0.00449275,0.00118981,0.000359746,0.00121249,-0.00451543,1.50782,0.00348547,0.0132699,1490,1723,4.37137,-13.2901
273,-699,4.3844,13.2059,-0.00636416,0.00224132,0.00053068,0.00227392,-0.00639676,1.50944,0.00519123,0.0121705,1497,1723,4.38445,-13.206
280,-699,4.3988,13.1447,-0.00828678,0.00346494,0.000603764,0.00349588,-0.00831772,1.5196,0.00700741,0.0119993,1504,1723,4.39882,-13.1446
287,-699,4.40015,13.0669,-0.0100255,0.00449242,0.000770455,0.00453319,-0.0100663,1.51793,0.00862844,0.0107389,1511,1723,4.40018,-13.0669
294,-699,4.40649,12.9768,-0.0113621,0.00563818,0.000974506,0.00569386,-0.0114178,1.51372,0.010062,0.0108486,1518,1723,4.40653,-12.9768
301,-699,4.39673,12.8785,-0.0120492,0.00651982,0.00113094,0.00658845,-0.0121178,1.51019,0.0109562,0.0117041,1525,1723,4.39674,-12.8785
308,-699,4.39099,12.7864,-0.0121268,0.00717712,0.00113633,0.00724378,-0.0121934,1.5122,0.0113427,0.0157108,1532,1723,4.39103,-12.7864
315,-699,4.43079,12.6898,-0.0117092,0.00715184,0.00123862,0.00723284,-0.0117902,1.5055,0.0110875,0.01848,1539,1723,4.43074,-12.6898
322,-699,4.42114,12.585,-0.0107819,0.00708921,0.00115997,0.00716418,-0.0108569,1.50625,0.010477,0.0191091,1546,1723,4.4211,-12.585
329,-699,4.37244,12.4757,-0.00938652,0.00660717,0.000984793,0.00666757,-0.00944693,1.50953,0.00934973,0.0148523,1553,1723,4.3725,-12.4757
336,-699,4.36914,12.343,-0.00755957,0.00588147,0.000653786,0.00591319,-0.0075913,1.52231,0.00781686,0.0133094,1560,1723,4.36911,-12.343
343,-699,4.40552,12.2336,-0.00545093,0.00531071,0.000154681,0.00531293,-0.00545315,1.55643,0.00621598,0.0164286,1567,1723,4.40558,-12.2336
350,-699,4.40015,12.1552,-0.00422554,0.00527441,-0.000648555,0.00531848,-0.00426961,-1.50295,0.00554672,0.025916,1574,1723,4.4001,-12.1552
357,-699,4.34412,12.0764,-0.00206398,0.00401212,-0.00111975,0.00421191,-0.00226376,-1.39423,0.00379471,0.0359035,1581,1723,4.34406,-12.0764
364,-699,4.37268,12.0026,0.000372071,0.00316755,-0.00235046,0.00450446,-0.000964842,-1.05364,0.00337093,0.0376605,1588,1723,4.3727,-12.0025
371,-699,4.50989,11.877,0,0,0,0,0,0,0,-1,1595,1723,4.50993,-11.8769
378,-699,4.32129,11.7125,0,0,0,0,0,0,0,-1,1602,1723,4.32128,-11.7126
385,-699,4.72437,10.5482,0,0,0,0,0,0,0,-1,1609,1723,4.72435,-10.5482
392,-699,4.98376,12.5409,0,0,0,0,0,0,0,-1,1616,1723,4.98372,-12.5409
399,-699,3.91516,9.81726,0,0,0,0,0,0,0,-1,1623,1723,3.9152,-9.81721
406,-699,5.50757,21.6672,0,0,0,0,0,0,0,-1,1630,1723,5.50755,-21.6672
413,-699,4.92773,3.5918,0,0,0,0,0,0,0,-1,1637,1723,4.92777,-3.59182
420,-699,2.15076,7.65527,0,0,0,0,0,0,0,-1,1644,1723,2.15079,-7.65522
427,-699,3.36328,8.2428,0,0,0,0,0,0,0,-1,1651,1723,3.36332,-8.24283
434,-699,4.66455,8.90222,0,0,0,0,0,0,0,-1,1658,1723,4.66456,-8.90223
441,-699,0,0,0,0,0,0,0,0,0,-1,1665,1723,0,0
448,-699,0,0,0,0,0,0,0,0,0,-1,1672,1723,0,0
455,-699,0,0,0,0,0,0,0,0,0,-1,1679,1723,0,0
462,-699,0,0,0,0,0,0,0,0,0,-1,1686,1723,0,0
469,-699,0,0,0,0,0,0,0,0,0,-1,1693,1723,0,0
476,-699,0,0,0,0,0,0,0,0,0,-1,1700,1723,0,0
483,-699,0,0,0,0,0,0,0,0,0,-1,1707,1723,0,0
490,-699,0,0,0,0,0,0,0,0,0,-1,1714,1723,0,0
497,-699,0,0,0,0,0,0,0,0,0,-1,1721,1723,0,0
504,-699,0,0,0,0,0,0,0,0,0,-1,1728,1723,0,0
511,-699,0,0,0,0,0,0,0,0,0,-1,1735,1723,0,0
518,-699,0,0,0,0,0,0,0,0,0,-1,1742,1723,0,0
525,-699,0,0,0,0,0,0,0,0,0,-1,1749,1723,0,0
532,-699,0,0,0,0,0,0,0,0,0,-1,1756,1723,0,0
539,-699,0,0,0,0,0,0,0,0,0,-1,1763,1723,0,0
546,-699,0,0,0,0,0,0,0,0,0,-1,1770,1723,0,0
553,-699,0,0,0,0,0,0,0,0,0,-1,1777,1723,0,0
560,-699,0,0,0,0,0,0,0,0,0,-1,1784,1723,0,0
567,-699,0,0,0,0,0,0,0,0,0,-1,1791,1723,0,0
574,-699,0,0,0,0,0,0,0,0,0,-1,1798,1723,0,0
581,-699,0,0,0,0,0,0,0,0,0,-1,1805,1723,0,0
588,-699,0,0,0,0,0,0,0,0,0,-1,1812,1723,0,0
595,-699,0,0,0,0,0,0,0,0,0,-1,1819,1723,0,0
602,-699,0,0,0,0,0,0,0,0,0,-1,1826,1723,0,0
609,-699,0,0,0,0,0,0,0,0,0,-1,1833,1723,0,0
616,-699,0,0,0,0,0,0,0,0,0,-1,1840,1723,0,0
623,-699,0,0,0,0,0,0,0,0,0,-1,1847,1723,0,0
630,-699,0,0,0,0,0,0,0,0,0,-1,1854,1723,0,0
637,-699,0,0,0,0,0,0,0,0,0,-1,1861,1723,0,0
644,-699,0,0,0,0,0,0,0,0,0,-1,1868,1723,0,0
651,-699,0,0,0,0,0,0,0,0,0,-1,1875,1723,0,0
658,-699,0,0,0,0,0,0,0,0,0,-1,1882,1723,0,0
665,-699,0,0,0,0,0,0,0,0,0,-1,1889,1723,0,0
672,-699,0,0,0,0,0,0,0,0,0,-1,1896,1723,0,0
679,-699,0,0,0,0,0,0,0,0,0,-1,1903,1723,0,0
686,-699,0,0,0,0,0,0,0,0,0,-1,1910,1723,0,0
693,-699,0,0,0,0,0,0,0,0,0,-1,1917,1723,0,0
700,-699,0,0,0,0,0,0,0,0,0,-1,1924,1723,0,0
707,-699,0,0,0,0,0,0,0,0,0,-1,1931,1723,0,0
714,-699,0,0,0,0,0,0,0,0,0,-1,1938,1723,0,0
721,-699,0,0,0,0,0,0,0,0,0,-1,1945,1723,0,0
728,-699,0,0,0,0,0,0,0,0,0,-1,1952,1723,0,0
735,-699,0,0,0,0,0,0,0,0,0,-1,1959,1723,0,0
742,-699,0,0,0,0,0,0,0,0,0,-1,1966,1723,0,0
749,-699,0,0,0,0,0,0,0,0,0,-1,1973,1723,0,0
756,-699,0,0,0,0,0,0,0,0,0,-1,1980,1723,0,0
763,-699,0,0,0,0,0,0,0,0,0,-1,1987,1723,0,0
770,-699,0,0,0,0,0,0,0,0,0,-1,1994,1723,0,0
777,-699,0,0,0,0,0,0,0,0,0,-1,2001,1723,0,0
784,-699,0,0,0,0,0,0,0,0,0,-1,2008,1723,0,0
791,-699,0,0,0,0,0,0,0,0,0,-1,2015,1723,0,0
798,-699,0,0,0,0,0,0,0,0,0,-1,2022,1723,0,0
805,-699,0,0,0,0,0,0,0,0,0,-1,2029,1723,0,0
812,-699,0,0,0,0,0,0,0,0,0,-1,2036,1723,0,0
-700,-706,0,0,0,0,0,0,0,0,0,-1,524,1730,0,0
-693,-706,0,0,0,0,0,0,0,0,0,-1,531,1730,0,0
-686,-706,0,0,0,0,0,0,0,0,0,-1,538,1730,0,0
-679,-706,0,0,0,0,0,0,0,0,0,-1,545,1730,0,0
-672,-706,0,0,0,0,0,0,0,0,0,-1,552,1730,0,0
-665,-706,0,0,0,0,0,0,0,0,0,-1,559,1730,0,0
-658,-706,0,0,0,0,0,0,0,0,0,-1,566,1730,0,0
-651,-706,0,0,0,0,0,0,0,0,0,-1,573,1730,0,0
-644,-706,0,0,0,0,0,0,0,0,0,-1,580,1730,0,0
-637,-706,0,0,0,0,0,0,0,0,0,-1,587,1730,0,0
-630,-706,0,0,0,0,0,0,0,0,0,-1,594,1730,0,0
-623,-706,0,0,0,0,0,0,0,0,0,-1,601,1730,0,0
-616,-706,0,0,0,0,0,0,0,0,0,-1,608,1730,0,0
-609,-706,0,0,0,0,0,0,0,0,0,-1,615,1730,0,0
-602,-706,0,0,0,0,0,0,0,0,0,-1,622,1730,0,0
-595,-706,0,0,0,0,0,0,0,0,0,-1,629,1730,0,0
-588,-706,0,0,0,0,0,0,0,0,0,-1,636,1730,0,0
-581,-706,0,0,0,0,0,0,0,0,0,-1,643,1730,0,0
-574,-706,0,0,0,0,0,0,0,0,0,-1,650,1730,0,0
-567,-706,0,0,0,0,0,0,0,0,0,-1,657,1730,0,0
-560,-706,0,0,0,0,0,0,0,0,0,-1,664,1730,0,0
-553,-706,0,0,0,0,0,0,0,0,0,-1,671,1730,0,0
-546,-706,0,0,0,0,0,0,0,0,0,-1,678,1730,0,0
-539,-706,0,0,0,0,0,0,0,0,0,-1,685,1730,0,0
-532,-706,0,0,0,0,0,0,0,0,0,-1,692,1730,0,0
-525,-706,0,0,0,0,0,0,0,0,0,-1,699,1730,0,0
-518,-706,0,0,0,0,0,0,0,0,0,-1,706,1730,0,0
-511,-706,0,0,0,0,0,0,0,0,0,-1,713,1730,0,0
-504,-706,0,0,0,0,0,0,0,0,0,-1,720,1730,0,0
-497,-706,0,0,0,0,0,0,0,0,0,-1,727,1730,0,0
-490,-706,0,0,0,0,0,0,0,0,0,-1,734,1730,0,0
-483,-706,0,0,0,0,0,0,0,0,0,-1,741,1730,0,0
-476,-706,0,0,0,0,0,0,0,0,0,-1,748,1730,0,0
-469,-706,0,0,0,0,0,0,0,0,0,-1,755,1730,0,0
-462,-706,0,0,0,0,0,0,0,0,0,-1,762,1730,0,0
-455,-706,0,0,0,0,0,0,0,0,0,-1,769,1730,0,0
-448,-706,0,0,0,0,0,0,0,0,0,-1,776,1730,0,0
-441,-706,0,0,0,0,0,0,0,0,0,-1,783,1730,0,0
-434,-706,0,0,0,0,0,0,0,0,0,-1,790,1730,0,0
-427,-706,0,0,0,0,0,0,0,0,0,-1,797,1730,0,0
-420,-706,0,0,0,0,0,0,0,0,0,-1,804,1730,0,0
-413,-706,0,0,0,0,0,0,0,0,0,-1,811,1730,0,0
-406,-706,0,0,0,0,0,0,0,0,0,-1,818,1730,0,0
-399,-706,0,0,0,0,0,0,0,0,0,-1,825,1730,0,0
-392,-706,0,0,0,0,0,0,0,0,0,-1,832,1730,0,0
-385,-706,0,0,0,0,0,0,0,0,0,-1,839,1730,0,0
-378,-706,0,0,0,0,0,0,0,0,0,-1,846,1730,0,0
-371,-706,0,0,0,0,0,0,0,0,0,-1,853,1730,0,0
-364,-706,0,0,0,0,0,0,0,0,0,-1,860,1730,0,0
-357,-706,0,0,0,0,0,0,0,0,0,-1,867,1730,0,0
-350,-706,0,0,0,0,0,0,0,0,0,-1,874,1730,0,0
-343,-706,0,0,0,0,0,0,0,0,0,-1,881,1730,0,0
-336,-706,0,0,0,0,0,0,0,0,0,-1,888,1730,0,0
-329,-706,0,0,0,0,0,0,0,0,0,-1,895,1730,0,0
-322,-706,0,0,0,0,0,0,0,0,0,-1,902,1730,0,0
-315,-706,0,0,0,0,0,0,0,0,0,-1,909,1730,0,0
-308,-706,5.08191,14.6245,0,0,0,0,0,0,0,-1,916,1730,5.08188,-14.6245
-301,-706,5.28516,13.4028,0,0,0,0,0,0,0,-1,923,1730,5.28516,-13.4029
-294,-706,5.65625,12.3273,0,0,0,0,0,0,0,-1,930,1730,5.65622,-12.3272
-287,-706,6.7771,8.99475,0,0,0,0,0,0,0,-1,937,1730,6.77712,-8.99473
-280,-706,6.2381,9.34949,0,0,0,0,0,0,0,-1,944,1730,6.2381,-9.34946
-273,-706,3.7002,9.59351,0,0,0,0,0,0,0,-1,951,1730,3.70019,-9.59351
-266,-706,3.52997,9.66162,0,0,0,0,0,0,0,-1,958,1730,3.52999,-9.66156
-259,-706,3.3598,9.72961,0,0,0,0,0,0,0,-1,965,1730,3.35979,-9.72962
-252,-706,3.05963,10.0499,0,0,0,0,0,0,0,-1,972,1730,3.05962,-10.05
-245,-706,3.63794,9.28613,0,0,0,0,0,0,0,-1,979,1730,3.63792,-9.28608
-238,-706,4.24341,10.9648,0,0,0,0,0,0,0,-1,986,1730,4.24339,-10.9649
-231,-706,4.27191,11.016,-0.0152482,0.00731961,-0.0152061,0.0149711,-0.0228998,-1.1046,0.0220239,0.0442418,993,1730,4.2719,-11.016
-224,-706,4.1427,11.1278,-0.0103272,0.0057614,-0.0130229,0.0130242,-0.01759,-1.06207,0.0177405,0.0433579,1000,1730,4.14269,-11.1278
-217,-706,4.14905,11.1172,-0.00875247,0.00423428,-0.0116619,0.0110887,-0.0156069,-1.03942,0.0154862,0.0394772,1007,1730,4.14907,-11.1172
-210,-706,4.05841,11.2531,-0.00756001,0.00296381,-0.0101258,0.00911324,-0.0137094,-1.02502,0.0132654,0.038378,1014,1730,4.05841,-11.2531
-203,-706,4.12097,11.6589,-0.00622077,0.00203438,-0.00838281,0.00725071,-0.0114371,-1.01417,0.0108793,0.0298979,1021,1730,4.12097,-11.659
-196,-706,4.08618,11.8135,-0.00495555,0.00128759,-0.00667497,0.00553484,-0.00920279,-1.00412,0.00859617,0.0212862,1028,1730,4.08621,-11.8135
-189,-706,4.00183,11.9279,-0.00379549,0.000656279,-0.00513001,0.00402249,-0.00716171,-0.990089,0.00654144,0.0168588,1035,1730,4.00183,-11.9279
-182,-706,3.9856,12.0675,-0.00284025,0.000280413,-0.00386773,0.00289068,-0.00545053,-0.977126,0.00489081,0.0124213,1042,1730,3.98557,-12.0675
-175,-706,3.98572,12.1775,-0.00208975,0.000229895,-0.00296478,0.00225364,-0.00411349,-0.971847,0.00372798,0.0137892,1049,1730,3.98572,-12.1776
-168,-706,4.00549,12.2837,-0.00136639,0.000638512,-0.00167914,0.00159168,-0.00231956,-1.0545,0.00227115,0.0148096,1056,1730,4.00552,-12.2837
-161,-706,4.00195,12.4073,-0.0013089,0.000304557,-0.000939398,0.000736085,-0.00174043,-1.14018,0.00146849,0.0124573,1063,1730,4.00197,-12.4073
-154,-706,3.98035,12.5189,-0.00138861,0.000418013,-0.000888534,0.000781771,-0.00175237,-1.18222,0.00149843,0.0127981,1070,1730,3.98036,-12.519
-147,-706,3.95361,12.6012,-0.00132695,0.000730104,-0.000760138,0.000980514,-0.00157736,-1.25257,0.00149013,0.0124921,1077,1730,3.95362,-12.6011
-140,-706,3.95703,12.7115,-0.00124673,0.000953647,-0.00067711,0.00114531,-0.0014384,-1.29495,0.0014949,0.0109659,1084,1730,3.95702,-12.7115
-133,-706,3.96179,12.8029,-0.00117485,0.00115203,-0.000561927,0.00128063,-0.00130345,-1.34582,0.00149194,0.00818557,1091,1730,3.96184,-12.8028
-126,-706,3.96814,12.8983,-0.00119613,0.00118503,-0.000435646,0.00126223,-0.00127333,-1.39541,0.00146391,0.0128108,1098,1730,3.9682,-12.8983
-119,-706,3.9646,12.9828,-0.00114778,0.00102124,-0.000266486,0.0010535,-0.00118005,-1.45032,0.00129023,0.0175531,1105,1730,3.96458,-12.9828
-112,-706,3.93542,13.0953,-0.000953277,0.000829212,-9.78604e-05,0.000834569,-0.000958634,-1.51611,0.00103613,0.0122183,1112,1730,3.93538,-13.0953
-105,-706,3.95007,13.2048,-0.000772067,0.000688242,7.11086e-05,0.000691696,-0.000775521,1.52226,0.000847559,0.00881895,1119,1730,3.95011,-13.2049
-98,-706,3.99402,13.2794,-0.000558678,0.000465762,0.000274302,0.000534585,-0.000627501,1.32497,0.000671645,0.0100589,1126,1730,3.99407,-13.2795
-91,-706,3.99316,13.3484,-0.000308675,0.000323257,0.000460685,0.000565918,-0.000551336,1.08598,0.000645066,0.0134055,1133,1730,3.99321,-13.3483
-84,-706,3.95544,13.4082,-8.74562e-05,0.000236323,0.000592619,0.000688767,-0.0005399,0.918733,0.000711105,0.0158232,1140,1730,3.95539,-13.4082
-77,-706,3.97327,13.4885,0.000194046,0.00024548,0.000590043,0.000810366,-0.000370839,0.807177,0.000697529,0.0150938,1147,1730,3.97333,-13.4885
-70,-706,3.96545,13.5948,0.000446862,0.000153702,0.000511519,0.000832388,-0.000231825,0.645858,0.000646213,0.0174843,1154,1730,3.9655,-13.5949
-63,-706,3.95117,13.6517,0.000650409,-6.92293e-05,0.000412824,0.000838214,-0.000257035,0.426946,0.000661352,0.0133247,1161,1730,3.9512,-13.6517
-56,-706,3.95203,13.6947,0.00102005,-0.000284332,0.000135506,0.00103398,-0.00029826,0.102427,0.00080732,0.0126555,1168,1730,3.95206,-13.6946
-49,-706,3.95447,13.7694,0.0014735,0.000210993,-0.000345254,0.00156174,0.000122746,-0.250243,0.00100276,0.0128636,1175,1730,3.95445,-13.7694
-42,-706,3.96802,13.8672,0.00200616,0.0005956,-0.000745223,0.00232693,0.00027483,-0.406464,0.00146828,0.0171719,1182,1730,3.968,-13.8672
-35,-706,3.97729,13.9185,0.00252789,0.000759532,-0.000739534,0.0027964,0.000491027,-0.348275,0.00172406,0.0160752,1189,1730,3.97728,-13.9184
-28,-706,4.00525,13.9404,0.00264619,0.00202115,-0.000912508,0.00329821,0.00136913,-0.620417,0.00191335,0.00990608,1196,1730,4.00522,-13.9404
-21,-706,4.00525,13.9731,0.0025687,0.00228951,-0.00132203,0.00375848,0.00109972,-0.732797,0.00223132,0.0100452,1203,1730,4.00528,-13.9731
-14,-706,4.00537,13.9995,0.00215981,0.00244478,-0.00178367,0.00409164,0.000512943,-0.825255,0.00257387,0.0100662,1210,1730,4.00538,-13.9995
-7,-706,4.01855,14.0527,0.00163392,0.00245343,-0.00215202,0.00423435,-0.000147008,-0.879475,0.00287316,0.008789,1217,1730,4.01859,-14.0527
0,-706,4.03613,14.0898,0.000855913,0.00218277,-0.00257283,0.00417633,-0.00113765,-0.911579,0.00323091,0.012586,1224,1730,4.03614,-14.0898
7,-706,4.04419,14.1293,3.52927e-06,0.00184827,-0.00307736,0.00413852,-0.00228672,-0.931001,0.00376062,0.0142551,1231,1730,4.04418,-14.1293
14,-706,4.04553,14.1702,-0.000334583,0.00138426,-0.00394851,0.0045658,-0.00351612,-0.892556,0.0046792,0.0142242,1238,1730,4.04558,-14.1702
21,-706,4.06555,14.1935,-0.00042997,0.000952329,-0.0041599,0.0044781,-0.00395574,-0.867719,0.00487239,0.0117895,1245,1730,4.06556,-14.1935
28,-706,4.0675,14.2087,-0.000645514,0.000369824,-0.00441078,0.00430205,-0.00457774,-0.842695,0.00512758,0.0119678,1252,1730,4.06755,-14.2087
35,-706,4.07446,14.2422,-0.000610832,-0.000116185,-0.00456556,0.00420874,-0.00493576,-0.812458,0.00528514,0.013828,1259,1730,4.07442,-14.2421
42,-706,4.09448,14.3057,-0.000427521,-0.00049332,-0.00456908,0.00410877,-0.00502962,-0.781798,0.00528497,0.0123955,1266,1730,4.09447,-14.3057
49,-706,4.11316,14.3188,-0.000270083,-0.000710676,-0.00435577,0.00387096,-0.00485172,-0.760132,0.00504664,0.0140435,1273,1730,4.11319,-14.3188
56,-706,4.1311,14.3169,4.19564e-05,-0.000819035,-0.00395054,0.00358539,-0.00436246,-0.731127,0.004596,0.0135492,1280,1730,4.13106,-14.3169
63,-706,4.15576,14.3224,0.000627348,-0.000729803,-0.00323782,0.00325694,-0.00335939,-0.682104,0.00382009,0.0124046,1287,1730,4.15579,-14.3224
70,-706,4.14502,14.3027,0.00110639,-0.000221798,-0.00242439,0.00295599,-0.0020714,-0.651716,0.00291751,0.0129057,1294,1730,4.14505,-14.3027
77,-706,4.13574,14.3136,0.00150831,-0.000121069,-0.00140949,0.00232162,-0.000934376,-0.523353,0.00193589,0.0114279,1301,1730,4.13573,-14.3136
84,-706,4.15356,14.3296,0.00203626,0.000955263,-8.80272e-05,0.00204338,0.000948141,-0.080723,0.00118076,0.00903154,1308,1730,4.15352,-14.3296
91,-706,4.18604,14.3563,0.0030217,0.00207445,0.00153082,0.00415049,0.000945664,0.635372,0.00251183,0.00989563,1315,1730,4.18606,-14.3563
98,-706,4.18018,14.3644,0.00390105,0.00367077,0.00327918,0.00706711,0.000504716,0.767849,0.0045525,0.0138426,1322,1730,4.18016,-14.3643
105,-706,4.18091,14.3635,0.00475632,0.00483112,0.004697,0.00949086,9.65735e-05,0.789379,0.0062953,0.0165554,1329,1730,4.18094,-14.3635
112,-706,4.18237,14.345,0.00572174,0.00584287,0.00618849,0.0119711,-0.000406482,0.790291,0.00811962,0.0164788,1336,1730,4.1824,-14.345
119,-706,4.19739,14.3412,0.00655842,0.00667881,0.00783748,0.0144563,-0.00121909,0.789238,0.0100685,0.0134145,1343,1730,4.19738,-14.3412
126,-706,4.21692,14.3163,0.00774441,0.00734279,0.008866,0.0164119,-0.00132467,0.774075,0.0114085,0.013522,1350,1730,4.21691,-14.3163
133,-706,4.24231,14.2769,0.00922013,0.00810114,0.0100611,0.0187373,-0.001416,0.757622,0.0129893,0.0117109,1357,1730,4.24227,-14.2768
140,-706,4.24951,14.2273,0.0103774,0.00871214,0.0109993,0.0205755,-0.00148602,0.747621,0.0142382,0.0122862,1364,1730,4.24947,-14.2273
147,-706,4.24939,14.2002,0.0110094,0.00899034,0.0113866,0.0214312,-0.00143144,0.741184,0.0147877,0.0227699,1371,1730,4.24937,-14.2002
154,-706,4.25073,14.1953,0.0111473,0.00889694,0.0112595,0.0213377,-0.00129339,0.735597,0.0146753,0.0215477,1378,1730,4.25069,-14.1953
161,-706,4.25366,14.1804,0.0106034,0.00852095,0.0106691,0.0202819,-0.00115758,0.736756,0.0139232,0.0108712,1385,1730,4.2536,-14.1804
168,-706,4.25916,14.1398,0.00938759,0.00814033,0.00952188,0.0183062,-0.00077832,0.752697,0.0124717,0.0104758,1392,1730,4.25916,-14.1398
175,-706,4.27771,14.094,0.00816787,0.00698291,0.0081568,0.0157537,-0.000602898,0.749143,0.0107091,0.0107934,1399,1730,4.27765,-14.0939
182,-706,4.29126,14.0415,0.00685922,0.00533276,0.00657483,0.012715,-0.000522987,0.727615,0.00865624,0.0108424,1406,1730,4.29128,-14.0415
189,-706,4.29285,13.9978,0.00475525,0.00359003,0.00470491,0.00891349,-0.000568205,0.723796,0.0061405,0.0135618,1413,1730,4.29285,-13.9978
196,-706,4.30872,13.9437,0.0020855,0.00169409,0.00262033,0.00451742,-0.000737839,0.748124,0.0032853,0.0122024,1420,1730,4.30868,-13.9437
203,-706,4.32422,13.9025,0.00065976,-0.000150978,0.000939741,0.00127783,-0.000769053,0.581775,0.00119388,0.0129555,1427,1730,4.32427,-13.9025
210,-706,4.31519,13.853,0.000238527,-0.000306897,0.000703753,0.00072056,-0.00078893,0.600551,0.000871802,0.012276,1434,1730,4.31519,-13.853
217,-706,4.28625,13.8114,-0.000128321,-0.000457095,0.000328238,7.43933e-05,-0.000659809,0.553248,0.000466652,0.0129997,1441,1730,4.28631,-13.8114
224,-706,4.28455,13.761,-0.000355387,-0.000615951,0.000158013,-0.000280873,-0.000690465,0.440646,0.000400943,0.017559,1448,1730,4.28456,-13.7609
231,-706,4.31506,13.6791,-0.000916224,-0.000657723,-2.56118e-07,-0.000657722,-0.000916224,-1.56981,0.000545464,0.0129143,1455,1730,4.3151,-13.6791
238,-706,4.30859,13.5975,-0.00193616,-0.000644106,-0.000124966,-0.000632131,-0.00194813,-1.47526,0.00114762,0.00914278,1462,1730,4.30864,-13.5975
245,-706,4.30066,13.5391,-0.0032167,-0.000561635,-0.000224834,-0.00054273,-0.00323561,-1.48691,0.00200085,0.0119808,1469,1730,4.30065,-13.5391
252,-706,4.3175,13.4703,-0.00528509,0.000128888,-0.00033526,0.000149569,-0.00530578,-1.50919,0.00358808,0.0114594,1476,1730,4.3175,-13.4703
259,-706,4.33691,13.3822,-0.00790538,0.00112478,-0.000134947,0.00112679,-0.0079074,-1.55586,0.00568454,0.0126416,1483,1730,4.33696,-13.3822
266,-706,4.31689,13.3092,-0.010595,0.0021475,9.07915e-05,0.00214814,-0.0105956,1.56367,0.00787803,0.0134361,1490,1730,4.31694,-13.3091
273,-706,4.31409,13.2279,-0.0133812,0.00345346,0.000491273,0.00346778,-0.0133956,1.54165,0.0102831,0.0122343,1497,1730,4.31408,-13.2279
280,-706,4.31677,13.1378,-0.0161199,0.00497029,0.000766898,0.00499814,-0.0161478,1.5345,0.0127618,0.00973206,1504,1730,4.31677,-13.1378
287,-706,4.30859,13.0409,-0.0184766,0.00634981,0.00110551,0.00639895,-0.0185257,1.52638,0.0149472,0.00996449,1511,1730,4.30854,-13.0408
294,-706,4.32202,12.979,-0.0203577,0.0079816,0.0015553,0.0080667,-0.0204428,1.51613,0.0169691,0.00953925,1518,1730,4.32196,-12.9791
301,-706,4.31531,12.8849,-0.0211149,0.00926553,0.00182577,0.00937486,-0.0212242,1.51099,0.0181026,0.00937603,1525,1730,4.31536,-12.8849
308,-706,4.30688,12.7689,-0.0209725,0.0102691,0.00191196,0.0103857,-0.0210891,1.5099,0.0185189,0.0110376,1532,1730,4.3069,-12.7689
315,-706,4.33679,12.6788,-0.0201608,0.0104094,0.00212493,0.0105564,-0.0203078,1.50173,0.0181135,0.0171624,1539,1730,4.33679,-12.6788
322,-706,4.33545,12.5756,-0.0184443,0.010559,0.00212987,0.0107146,-0.0185998,1.49788,0.0171276,0.0183429,1546,1730,4.3355,-12.5755
329,-706,4.30103,12.4756,-0.0159035,0.0101347,0.00198094,0.0102846,-0.0160534,1.4953,0.0153273,0.0158076,1553,1730,4.30105,-12.4756
336,-706,4.28149,12.3298,-0.0128878,0.00903878,0.00165125,0.00916244,-0.0130115,1.49605,0.0128663,0.0231372,1560,1730,4.28145,-12.3298
343,-706,4.3606,12.1122,-0.00937168,0.00807978,0.00113452,0.00815323,-0.00944513,1.50615,0.0101695,0.0314648,1567,1730,4.36057,-12.1122
350,-706,4.41101,12.0487,-0.00760107,0.00762217,0.00017287,0.00762413,-0.00760303,1.55944,0.00879141,0.0377436,1574,1730,4.41102,-12.0487
357,-706,4.53687,11.8433,-0.00401419,0.00526765,-0.00038419,0.00528352,-0.00403007,-1.5295,0.00539341,0.0449909,1581,1730,4.53688,-11.8433
364,-706,4.37939,12.1975,0.000131491,0.00352244,-0.00221394,0.00461554,-0.00096161,-1.11217,0.00344263,0.0478472,1588,1730,4.37943,-12.1976
371,-706,4.57642,11.905,0,0,0,0,0,0,0,-1,1595,1730,4.57639,-11.9051
378,-706,4.7522,10.6327,0,0,0,0,0,0,0,-1,1602,1730,4.75216,-10.6327
385,-706,3.59973,10.9214,0,0,0,0,0,0,0,-1,1609,1730,3.59973,-10.9214
392,-706,3.42236,11.9617,0,0,0,0,0,0,0,-1,1616,1730,3.42241,-11.9617
399,-706,3.21667,13.4043,0,0,0,0,0,0,0,-1,1623,1730,3.21671,-13.4043
406,-706,3.80188,18.3816,0,0,0,0,0,0,0,-1,1630,1730,3.80184,-18.3815
413,-706,4.23645,20.028,0,0,0,0,0,0,0,-1,1637,1730,4.23649,-20.0279
420,-706,5.7926,4.15125,0,0,0,0,0,0,0,-1,1644,1730,5.79255,-4.15128
427,-706,0,0,0,0,0,0,0,0,0,-1,1651,1730,0,0
434,-706,0,0,0,0,0,0,0,0,0,-1,1658,1730,0,0
441,-706,0,0,0,0,0,0,0,0,0,-1,1665,1730,0,0
448,-706,0,0,0,0,0,0,0,0,0,-1,1672,1730,0,0
455,-706,0,0,0,0,0,0,0,0,0,-1,1679,1730,0,0
462,-706,0,0,0,0,0,0,0,0,0,-1,1686,1730,0,0
469,-706,0,0,0,0,0,0,0,0,0,-1,1693,1730,0,0
476,-706,0,0,0,0,0,0,0,0,0,-1,1700,1730,0,0
483,-706,0,0,0,0,0,0,0,0,0,-1,1707,1730,0,0
490,-706,0,0,0,0,0,0,0,0,0,-1,1714,1730,0,0
497,-706,0,0,0,0,0,0,0,0,0,-1,1721,1730,0,0
504,-706,0,0,0,0,0,0,0,0,0,-1,1728,1730,0,0
511,-706,0,0,0,0,0,0,0,0,0,-1,1735,1730,0,0
518,-706,0,0,0,0,0,0,0,0,0,-1,1742,1730,0,0
525,-706,0,0,0,0,0,0,0,0,0,-1,1749,1730,0,0
532,-706,0,0,0,0,0,0,0,0,0,-1,1756,1730,0,0
539,-706,0,0,0,0,0,0,0,0,0,-1,1763,1730,0,0
546,-706,0,0,0,0,0,0,0,0,0,-1,1770,1730,0,0
553,-706,0,0,0,0,0,0,0,0,0,-1,1777,1730,0,0
560,-706,0,0,0,0,0,0,0,0,0,-1,1784,1730,0,0
567,-706,0,0,0,0,0,0,0,0,0,-1,1791,1730,0,0
574,-706,0,0,0,0,0,0,0,0,0,-1,1798,1730,0,0
581,-706,0,0,0,0,0,0,0,0,0,-1,1805,1730,0,0
588,-706,0,0,0,0,0,0,0,0,0,-1,1812,1730,0,0
595,-706,0,0,0,0,0,0,0,0,0,-1,1819,1730,0,0
602,-706,0,0,0,0,0,0,0,0,0,-1,1826,1730,0,0
609,-706,0,0,0,0,0,0,0,0,0,-1,1833,1730,0,0
616,-706,0,0,0,0,0,0,0,0,0,-1,1840,1730,0,0
623,-706,0,0,0,0,0,0,0,0,0,-1,1847,1730,0,0
630,-706,0,0,0,0,0,0,0,0,0,-1,1854,1730,0,0
637,-706,0,0,0,0,0,0,0,0,0,-1,1861,1730,0,0
644,-706,0,0,0,0,0,0,0,0,0,-1,1868,1730,0,0
651,-706,0,0,0,0,0,0,0,0,0,-1,1875,1730,0,0
658,-706,0,0,0,0,0,0,0,0,0,-1,1882,1730,0,0
665,-706,0,0,0,0,0,0,0,0,0,-1,1889,1730,0,0
672,-706,0,0,0,0,0,0,0,0,0,-1,1896,1730,0,0
679,-706,0,0,0,0,0,0,0,0,0,-1,1903,1730,0,0
686,-706,0,0,0,0,0,0,0,0,0,-1,1910,1730,0,0
693,-706,0,0,0,0,0,0,0,0,0,-1,1917,1730,0,0
700,-706,0,0,0,0,0,0,0,0,0,-1,1924,1730,0,0
707,-706,0,0,0,0,0,0,0,0,0,-1,1931,1730,0,0
714,-706,0,0,0,0,0,0,0,0,0,-1,1938,1730,0,0
721,-706,0,0,0,0,0,0,0,0,0,-1,1945,1730,0,0
728,-706,0,0,0,0,0,0,0,0,0,-1,1952,1730,0,0
735,-706,0,0,0,0,0,0,0,0,0,-1,1959,1730,0,0
742,-706,0,0,0,0,0,0,0,0,0,-1,1966,1730,0,0
749,-706,0,0,0,0,0,0,0,0,0,-1,1973,1730,0,0
756,-706,0,0,0,0,0,0,0,0,0,-1,1980,1730,0,0
763,-706,0,0,0,0,0,0,0,0,0,-1,1987,1730,0,0
770,-706,0,0,0,0,0,0,0,0,0,-1,1994,1730,0,0
777,-706,0,0,0,0,0,0,0,0,0,-1,2001,1730,0,0
784,-706,0,0,0,0,0,0,0,0,0,-1,2008,1730,0,0
791,-706,0,0,0,0,0,0,0,0,0,-1,2015,1730,0,0
798,-706,0,0,0,0,0,0,0,0,0,-1,2022,1730,0,0
805,-706,0,0,0,0,0,0,0,0,0,-1,2029,1730,0,0
812,-706,0,0,0,0,0,0,0,0,0,-1,2036,1730,0,0
-700,-713,0,0,0,0,0,0,0,0,0,-1,524,1737,0,0
-693,-713,0,0,0,0,0,0,0,0,0,-1,531,1737,0,0
-686,-713,0,0,0,0,0,0,0,0,0,-1,538,1737,0,0
-679,-713,0,0,0,0,0,0,0,0,0,-1,545,1737,0,0
-672,-713,0,0,0,0,0,0,0,0,0,-1,552,1737,0,0
-665,-713,0,0,0,0,0,0,0,0,0,-1,559,1737,0,0
-658,-713,0,0,0,0,0,0,0,0,0,-1,566,1737,0,0
-651,-713,0,0,0,0,0,0,0,0,0,-1,573,1737,0,0
-644,-713,0,0,0,0,0,0,0,0,0,-1,580,1737,0,0
-637,-713,0,0,0,0,0,0,0,0,0,-1,587,1737,0,0
-630,-713,0,0,0,0,0,0,0,0,0,-1,594,1737,0,0
-623,-713,0,0,0,0,0,0,0,0,0,-1,601,1737,0,0
-616,-713,0,0,0,0,0,0,0,0,0,-1,608,1737,0,0
-609,-713,0,0,0,0,0,0,0,0,0,-1,615,1737,0,0
-602,-713,0,0,0,0,0,0,0,0,0,-1,622,1737,0,0
-595,-713,0,0,0,0,0,0,0,0,0,-1,629,1737,0,0
-588,-713,0,0,0,0,0,0,0,0,0,-1,636,1737,0,0
-581,-713,0,0,0,0,0,0,0,0,0,-1,643,1737,0,0
-574,-713,0,0,0,0,0,0,0,0,0,-1,650,1737,0,0
-567,-713,0,0,0,0,0,0,0,0,0,-1,657,1737,0,0
-560,-713,0,0,0,0,0,0,0,0,0,-1,664,1737,0,0
-553,-713,0,0,0,0,0,0,0,0,0,-1,671,1737,0,0
-546,-713,0,0,0,0,0,0,0,0,0,-1,678,1737,0,0
-539,-713,0,0,0,0,0,0,0,0,0,-1,685,1737,0,0
-532,-713,0,0,0,0,0,0,0,0,0,-1,692,1737,0,0
-525,-713,0,0,0,0,0,0,0,0,0,-1,699,1737,0,0
-518,-713,0,0,0,0,0,0,0,0,0,-1,706,1737,0,0
-511,-713,0,0,0,0,0,0,0,0,0,-1,713,1737,0,0
-504,-713,0,0,0,0,0,0,0,0,0,-1,720,1737,0,0
-497,-713,0,0,0,0,0,0,0,0,0,-1,727,1737,0,0
-490,-713,0,0,0,0,0,0,0,0,0,-1,734,1737,0,0
-483,-713,0,0,0,0,0,0,0,0,0,-1,741,1737,0,0
-476,-713,0,0,0,0,0,0,0,0,0,-1,748,1737,0,0
-469,-713,0,0,0,0,0,0,0,0,0,-1,755,1737,0,0
-462,-713,0,0,0,0,0,0,0,0,0,-1,762,1737,0,0
-455,-713,0,0,0,0,0,0,0,0,0,-1,769,1737,0,0
-448,-713,0,0,0,0,0,0,0,0,0,-1,776,1737,0,0
-441,-713,0,0,0,0,0,0,0,0,0,-1,783,1737,0,0
-434,-713,0,0,0,0,0,0,0,0,0,-1,790,1737,0,0
-427,-713,0,0,0,0,0,0,0,0,0,-1,797,1737,0,0
-420,-713,0,0,0,0,0,0,0,0,0,-1,804,1737,0,0
-413,-713,0,0,0,0,0,0,0,0,0,-1,811,1737,0,0
-406,-713,0,0,0,0,0,0,0,0,0,-1,818,1737,0,0
-399,-713,0,0,0,0,0,0,0,0,0,-1,825,1737,0,0
-392,-713,0,0,0,0,0,0,0,0,0,-1,832,1737,0,0
-385,-713,0,0,0,0,0,0,0,0,0,-1,839,1737,0,0
-378,-713,0,0,0,0,0,0,0,0,0,-1,846,1737,0,0
-371,-713,0,0,0,0,0,0,0,0,0,-1,853,1737,0,0
-364,-713,0,0,0,0,0,0,0,0,0,-1,860,1737,0,0
-357,-713,0,0,0,0,0,0,0,0,0,-1,867,1737,0,0
-350,-713,0,0,0,0,0,0,0,0,0,-1,874,1737,0,0
-343,-713,0,0,0,0,0,0,0,0,0,-1,881,1737,0,0
-336,-713,0,0,0,0,0,0,0,0,0,-1,888,1737,0,0
-329,-713,0,0,0,0,0,0,0,0,0,-1,895,1737,0,0
-322,-713,0,0,0,0,0,0,0,0,0,-1,902,1737,0,0
-315,-713,0,0,0,0,0,0,0,0,0,-1,909,1737,0,0
-308,-713,0,0,0,0,0,0,0,0,0,-1,916,1737,0,0
-301,-713,0,0,0,0,0,0,0,0,0,-1,923,1737,0,0
-294,-713,6.3161,13.046,0,0,0,0,0,0,0,-1,930,1737,6.31612,-13.046
-287,-713,6.25946,11.4591,0,0,0,0,0,0,0,-1,937,1737,6.25947,-11.4591
-280,-713,6.70959,9.32935,0,0,0,0,0,0,0,-1,944,1737,6.70961,-9.3293
-273,-713,7.62915,7.59583,0,0,0,0,0,0,0,-1,951,1737,7.62917,-7.59584
-266,-713,3.72046,9.64844,0,0,0,0,0,0,0,-1,958,1737,3.72048,-9.64845
-259,-713,2.67322,10.5743,0,0,0,0,0,0,0,-1,965,1737,2.67324,-10.5743
-252,-713,3.55267,8.86694,0,0,0,0,0,0,0,-1,972,1737,3.55265,-8.86693
-245,-713,2.70886,15.8289,0,0,0,0,0,0,0,-1,979,1737,2.70888,-15.8288
-238,-713,2.43146,10.5703,0,0,0,0,0,0,0,-1,986,1737,2.43144,-10.5703
-231,-713,4.5907,11.0205,0,0,0,0,0,0,0,-1,993,1737,4.59069,-11.0205
-224,-713,4.31659,11.1321,-0.0136884,0.00419441,-0.0190291,0.0162781,-0.0257721,-1.00503,0.0244831,0.0453863,1000,1737,4.31661,-11.132
-217,-713,4.23511,10.8835,-0.0116284,0.0028815,-0.0168742,0.0139943,-0.0227411,-0.988423,0.0214087,0.0464522,1007,1737,4.23513,-10.8836
-210,-713,4.4389,11.5992,0,0,0,0,0,0,0,-1,1014,1737,4.43892,-11.5992
-203,-713,4.37952,11.699,-0.00804021,0.00105325,-0.0119833,0.00932341,-0.0163104,-0.966719,0.0149818,0.041721,1021,1737,4.37955,-11.699
-196,-713,4.33435,11.7926,-0.00633726,0.000464567,-0.0095507,0.00720181,-0.0130745,-0.956443,0.0118691,0.038295,1028,1737,4.33435,-11.7926
-189,-713,4.15771,11.9215,-0.00480793,7.91804e-05,-0.00734864,0.00537988,-0.0101086,-0.945906,0.00908015,0.0364895,1035,1737,4.15774,-11.9216
-182,-713,4.10828,12.0852,-0.00358985,-8.93088e-05,-0.00551904,0.00395035,-0.0076295,-0.938948,0.00679718,0.0227386,1042,1737,4.10832,-12.0852
-175,-713,4.10645,12.1772,-0.00274195,0.000120368,-0.00421901,0.00314435,-0.00576593,-0.948916,0.00521804,0.019295,1049,1737,4.10639,-12.1773
-168,-713,4.13232,12.2427,-0.00182171,0.00097619,-0.00240008,0.00235527,-0.0032008,-1.04926,0.00322015,0.022443,1056,1737,4.13231,-12.2426
-161,-713,4.10144,12.3811,-0.00220987,0.000744259,-0.0014156,0.00131308,-0.00277869,-1.18872,0.00241237,0.0127815,1063,1737,4.10141,-12.3811
-154,-713,4.0614,12.4805,-0.00285569,0.00110486,-0.00145156,0.00157989,-0.00333072,-1.25453,0.00289459,0.0115299,1070,1737,4.06137,-12.4805
-147,-713,4.05933,12.6066,-0.00309389,0.00162065,-0.00135441,0.00198205,-0.00345529,-1.31004,0.00317743,0.0181567,1077,1737,4.0593,-12.6066
-140,-713,4.07239,12.7485,-0.00326848,0.00205543,-0.00130913,0.00235993,-0.00357297,-1.34227,0.00344914,0.0168932,1084,1737,4.07242,-12.7486
-133,-713,4.04993,12.8237,-0.0034437,0.00244183,-0.00124845,0.0026957,-0.00369757,-1.37018,0.00370623,0.0102542,1091,1737,4.04996,-12.8237
-126,-713,4.0575,12.8868,-0.00370193,0.00263866,-0.00118931,0.0028544,-0.00391767,-1.39135,0.00392589,0.0159035,1098,1737,4.05753,-12.8869
-119,-713,4.06177,12.9514,-0.00379086,0.00249184,-0.00107641,0.00267114,-0.00397016,-1.40574,0.00385873,0.0256286,1105,1737,4.06172,-12.9514
-112,-713,4.03406,13.1122,-0.00354843,0.00234557,-0.000943047,0.00249278,-0.00369565,-1.41594,0.00359532,0.0130805,1112,1737,4.03411,-13.1122
-105,-713,4.04199,13.1931,-0.00322499,0.00218143,-0.000791154,0.00229483,-0.00333839,-1.42844,0.00327089,0.0104092,1119,1737,4.04201,-13.1931
-98,-713,4.06763,13.2628,-0.00280039,0.00194732,-0.00057019,0.00201483,-0.0028679,-1.45293,0.00283336,0.00955742,1126,1737,4.06757,-13.2628
-91,-713,4.0448,13.3373,-0.00225794,0.0017658,-0.00034522,0.00179521,-0.00228735,-1.48583,0.00236277,0.00971275,1133,1737,4.0448,-13.3372
-84,-713,4.01917,13.4043,-0.00171155,0.00158025,-0.000160549,0.00158806,-0.00171936,-1.52218,0.00191004,0.00876971,1140,1737,4.01915,-13.4043
-77,-713,4.04382,13.506,-0.0011065,0.00141157,-5.72989e-05,0.00141288,-0.0011078,-1.54806,0.00145886,0.011736,1147,1737,4.04388,-13.5059
-70,-713,4.04333,13.6013,-0.000566103,0.0011188,2.35028e-05,0.00111913,-0.000566431,1.55685,0.000990446,0.0144341,1154,1737,4.0434,-13.6013
-63,-713,4.04248,13.6539,-9.74943e-05,0.000735967,4.48764e-05,0.000738376,-9.99037e-05,1.51716,0.000528708,0.012772,1161,1737,4.04253,-13.6539
-56,-713,4.04761,13.7086,0.000449211,0.00039788,-6.91956e-05,0.000497348,0.000349744,-0.607808,0.000294943,0.0123112,1168,1737,4.04759,-13.7086
-49,-713,4.02222,13.7677,0.00084746,0.000298412,-0.000244017,0.000940234,0.000205638,-0.363317,0.000570761,0.0139968,1175,1737,4.02218,-13.7677
-42,-713,4.0459,13.8311,0.00113095,0.000238909,-0.000422489,0.00129928,7.05754e-05,-0.379156,0.000843649,0.0162583,1182,1737,4.04587,-13.8311
-35,-713,4.07007,13.8701,0.00150398,5.06729e-05,-0.000382367,0.00159845,-4.37882e-05,-0.242194,0.00108052,0.013535,1189,1737,4.07005,-13.8701
-28,-713,4.07227,13.9392,0.00167635,0.000680875,-0.000641462,0.00199053,0.000366691,-0.455449,0.00122325,0.0121261,1196,1737,4.07227,-13.9392
-21,-713,4.05249,13.9904,0.00169754,0.000741125,-0.000922771,0.00225865,0.000180012,-0.546336,0.0014495,0.00896266,1203,1737,4.05254,-13.9903
-14,-713,4.04773,14.0146,0.00149682,0.000777493,-0.00126082,0.00244827,-0.000173957,-0.646458,0.00169315,0.0100845,1210,1737,4.04775,-14.0146
-7,-713,4.06531,14.0659,0.00116956,0.000783439,-0.00157118,0.0025595,-0.0006065,-0.724266,0.00194036,0.00891063,1217,1737,4.06525,-14.0659
0,-713,4.08398,14.0903,0.000643006,0.000601361,-0.00192745,0.00254974,-0.00130538,-0.779997,0.00226408,0.0139706,1224,1737,4.08396,-14.0904
7,-713,4.10583,14.1132,6.55335e-05,0.000404105,-0.00233685,0.0025778,-0.00210816,-0.821556,0.00270996,0.017073,1231,1737,4.10588,-14.1132
14,-713,4.11279,14.1694,-0.00012904,-3.16047e-05,-0.0028764,0.00279649,-0.00295714,-0.793866,0.00332229,0.012013,1238,1737,4.11281,-14.1694
21,-713,4.09912,14.2086,-0.000152903,-0.000345177,-0.00298888,0.00274139,-0.00323947,-0.769321,0.00345704,0.00964059,1245,1737,4.09909,-14.2086
28,-713,4.09302,14.2354,-0.000272382,-0.000776785,-0.00311776,0.00260336,-0.00365253,-0.74504,0.00362873,0.0104394,1252,1737,4.09296,-14.2353
35,-713,4.09924,14.2517,-0.000200455,-0.00115752,-0.00317886,0.00253569,-0.00389367,-0.710691,0.00373949,0.0112194,1259,1737,4.09925,-14.2517
42,-713,4.10596,14.3104,-4.54412e-05,-0.00145004,-0.0031042,0.00243492,-0.0039304,-0.67415,0.00370867,0.0111735,1266,1737,4.10595,-14.3104
49,-713,4.10779,14.321,0.000114879,-0.00158576,-0.00286154,0.00224977,-0.00372065,-0.640976,0.00348172,0.0108954,1273,1737,4.10782,-14.321
56,-713,4.13257,14.3219,0.000388504,-0.00163808,-0.00251732,0.00208882,-0.0033384,-0.594056,0.00316097,0.0113217,1280,1737,4.13253,-14.3219
63,-713,4.14343,14.3308,0.000803688,-0.00150132,-0.00199432,0.00195457,-0.0026522,-0.523395,0.00266987,0.0120847,1287,1737,4.14343,-14.3308
70,-713,4.13843,14.3236,0.00112727,-0.00105634,-0.00145888,0.00185766,-0.00178672,-0.464165,0.00210422,0.0122477,1294,1737,4.1384,-14.3236
77,-713,4.14404,14.3239,0.00139703,-0.000985304,-0.000722411,0.00159897,-0.00118725,-0.272583,0.00161447,0.0123483,1301,1737,4.14405,-14.3239
84,-713,4.15979,14.3556,0.00175129,-0.000104151,8.34772e-05,0.00175504,-0.000107899,0.0448697,0.0012076,0.0114217,1308,1737,4.15977,-14.3556
91,-713,4.15967,14.3708,0.00241253,0.000769551,0.0011007,0.00296449,0.000217584,0.464823,0.00190794,0.011517,1315,1737,4.15972,-14.3708
98,-713,4.17322,14.347,0.00298803,0.00194834,0.00222278,0.00475094,0.000185422,0.670527,0.00310733,0.0119533,1322,1737,4.17318,-14.3471
105,-713,4.17883,14.3344,0.0035429,0.00277106,0.00308242,0.00626347,5.04926e-05,0.723123,0.00415892,0.0140257,1329,1737,4.17878,-14.3344
112,-713,4.18774,14.3292,0.00414217,0.00344381,0.00398806,0.00779631,-0.000210327,0.741731,0.00526905,0.0133639,1336,1737,4.18774,-14.3293
119,-713,4.19409,14.3198,0.00457653,0.00402996,0.00489209,0.00920297,-0.000596475,0.757496,0.00634349,0.0130988,1343,1737,4.19413,-14.3198
126,-713,4.18506,14.3082,0.00525902,0.00431279,0.00543715,0.0102436,-0.000671788,0.742,0.00706365,0.0128005,1350,1737,4.1851,-14.3083
133,-713,4.18933,14.285,0.00612002,0.00466512,0.00608177,0.0115177,-0.000732558,0.725875,0.00793393,0.0124949,1357,1737,4.1893,-14.2851
140,-713,4.2179,14.2432,0.00671445,0.00492731,0.00652987,0.0124116,-0.000769842,0.717399,0.00854259,0.0135158,1364,1737,4.21787,-14.2432
147,-713,4.21814,14.1943,0.00693432,0.00497597,0.00660496,0.0126323,-0.000721998,0.71181,0.00867221,0.0152842,1371,1737,4.21812,-14.1943
154,-713,4.18091,14.1986,0.00678664,0.00479108,0.00633054,0.0121976,-0.00061983,0.707234,0.00834599,0.0156291,1378,1737,4.18088,-14.1986
161,-713,4.20642,14.1672,0.00622287,0.00448784,0.00578632,0.0112063,-0.000495628,0.71099,0.00764147,0.0109194,1385,1737,4.20647,-14.1673
168,-713,4.22156,14.1318,0.00522316,0.00419961,0.00486571,0.00960394,-0.000181167,0.733001,0.00646386,0.0102068,1392,1737,4.22151,-14.1319
175,-713,4.23901,14.0935,0.00423461,0.00357298,0.00393978,0.00785744,-4.9849e-05,0.743512,0.00525499,0.0134974,1399,1737,4.23906,-14.0935
182,-713,4.23865,14.0413,0.00332956,0.00283222,0.00301876,0.00610988,5.19089e-05,0.744303,0.00405606,0.0116693,1406,1737,4.23864,-14.0412
189,-713,4.24634,13.9814,0.00225212,0.00199922,0.00191179,0.00404164,0.000209701,0.752375,0.00262731,0.0104166,1413,1737,4.24639,-13.9814
196,-713,4.27417,13.9587,0.00088808,0.00115034,0.000735568,0.00176638,0.000272046,0.873607,0.00109819,0.0115057,1420,1737,4.27413,-13.9588
203,-713,4.28247,13.9297,0.000103757,0.000288648,-0.000289241,0.000499857,-0.000107453,-0.940074,0.000374234,0.0158249,1427,1737,4.28253,-13.9297
210,-713,4.25916,13.8551,-0.000163172,0.000202461,-0.000607261,0.000653828,-0.000614539,-0.931608,0.000732409,0.0131626,1434,1737,4.25918,-13.8551
217,-713,4.24841,13.7963,-0.000889077,2.07e-05,-0.000952818,0.000621646,-0.00149002,-1.00811,0.00125306,0.0106102,1441,1737,4.24838,-13.7963
224,-713,4.25146,13.7363,-0.00199338,-0.000217163,-0.00105653,0.00027494,-0.00248549,-1.1349,0.00175583,0.0113916,1448,1737,4.25145,-13.7364
231,-713,4.25989,13.6713,-0.00359817,-0.000317299,-0.00108385,8.41799e-06,-0.00392388,-1.27886,0.00261873,0.0107672,1455,1737,4.25989,-13.6713
238,-713,4.24854,13.599,-0.00599243,-0.000365648,-0.00103601,-0.000180959,-0.00617712,-1.39438,0.00405911,0.00870984,1462,1737,4.24849,-13.599
245,-713,4.24023,13.5471,-0.00852574,-0.000359574,-0.000958461,-0.000248589,-0.00863673,-1.45551,0.00567677,0.0115337,1469,1737,4.24023,-13.5471
252,-713,4.26294,13.4677,-0.0121147,0.000559939,-0.000886523,0.000621645,-0.0121764,-1.5013,0.00833255,0.0120472,1476,1737,4.263,-13.4677
259,-713,4.29736,13.3751,-0.0162728,0.00184531,-0.000375546,0.00185309,-0.0162806,-1.55008,0.0115212,0.0124384,1483,1737,4.29735,-13.3752
266,-713,4.2655,13.3295,-0.0203477,0.00314729,0.000107156,0.00314778,-0.0203482,1.56624,0.0147273,0.0108502,1490,1737,4.2655,-13.3295
273,-713,4.23804,13.2567,-0.0243211,0.00475963,0.000799847,0.00478161,-0.0243431,1.54332,0.0180351,0.0087876,1497,1737,4.238,-13.2568
280,-713,4.22974,13.1566,-0.0281175,0.00664584,0.00133433,0.00669698,-0.0281687,1.53249,0.0213642,0.00969241,1504,1737,4.22976,-13.1566
287,-713,4.22229,13.0443,-0.0312867,0.00846559,0.00189894,0.00855609,-0.0313772,1.52317,0.024278,0.0103122,1511,1737,4.22226,-13.0444
294,-713,4.23401,12.9631,-0.0338546,0.0106579,0.00261417,0.0108109,-0.0340076,1.51234,0.0270066,0.0133841,1518,1737,4.23397,-12.9632
301,-713,4.21033,12.8539,-0.0347668,0.0124575,0.00305898,0.0126549,-0.0349641,1.50638,0.0284808,0.0155474,1525,1737,4.21027,-12.8539
308,-713,4.18335,12.7362,-0.0343294,0.014,0.00333516,0.0142291,-0.0345585,1.50222,0.0289712,0.0187507,1532,1737,4.18339,-12.7362
315,-713,4.19495,12.6805,-0.0331128,0.0144277,0.00368026,0.0147109,-0.033396,1.49399,0.0284643,0.025639,1539,1737,4.195,-12.6805
322,-713,4.09033,12.573,-0.0304083,0.0150528,0.00377275,0.0153638,-0.0307193,1.48856,0.0270939,0.0322126,1546,1737,4.09038,-12.573
329,-713,4.25598,12.4778,-0.02629,0.015072,0.00362568,0.0153874,-0.0266054,1.48402,0.0245313,0.0375483,1553,1737,4.25595,-12.4778
336,-713,4.18616,12.5277,-0.0215259,0.0135567,0.00329775,0.013864,-0.0218332,1.47788,0.0207803,0.0429835,1560,1737,4.18615,-12.5278
343,-713,4.10242,12.3824,0,0,0,0,0,0,0,-1,1567,1737,4.10242,-12.3825
350,-713,4.40063,11.954,0,0,0,0,0,0,0,-1,1574,1737,4.4006,-11.954
357,-713,4.05273,12.8247,0,0,0,0,0,0,0,-1,1581,1737,4.05278,-12.8247
364,-713,4.33484,12.4211,0,0,0,0,0,0,0,-1,1588,1737,4.33488,-12.4211
371,-713,4.61694,12.0175,0,0,0,0,0,0,0,-1,1595,1737,4.61698,-12.0175
378,-713,4.65076,10.6481,0,0,0,0,0,0,0,-1,1602,1737,4.65079,-10.6481
385,-713,1.78979,10.5552,0,0,0,0,0,0,0,-1,1609,1737,1.7898,-10.5551
392,-713,1.72632,11.7313,0,0,0,0,0,0,0,-1,1616,1737,1.72632,-11.7314
399,-713,1.83801,13.4545,0,0,0,0,0,0,0,-1,1623,1737,1.838,-13.4544
406,-713,2.13525,15.2334,0,0,0,0,0,0,0,-1,1630,1737,2.13526,-15.2334
413,-713,2.59546,16.7579,0,0,0,0,0,0,0,-1,1637,1737,2.5955,-16.7579
420,-713,0,0,0,0,0,0,0,0,0,-1,1644,1737,0,0
427,-713,0,0,0,0,0,0,0,0,0,-1,1651,1737,0,0
434,-713,0,0,0,0,0,0,0,0,0,-1,1658,1737,0,0
441,-713,0,0,0,0,0,0,0,0,0,-1,1665,1737,0,0
448,-713,0,0,0,0,0,0,0,0,0,-1,1672,1737,0,0
455,-713,0,0,0,0,0,0,0,0,0,-1,1679,1737,0,0
462,-713,0,0,0,0,0,0,0,0,0,-1,1686,1737,0,0
469,-713,0,0,0,0,0,0,0,0,0,-1,1693,1737,0,0
476,-713,0,0,0,0,0,0,0,0,0,-1,1700,1737,0,0
483,-713,0,0,0,0,0,0,0,0,0,-1,1707,1737,0,0
490,-713,0,0,0,0,0,0,0,0,0,-1,1714,1737,0,0
497,-713,0,0,0,0,0,0,0,0,0,-1,1721,1737,0,0
504,-713,0,0,0,0,0,0,0,0,0,-1,1728,1737,0,0
511,-713,0,0,0,0,0,0,0,0,0,-1,1735,1737,0,0
518,-713,0,0,0,0,0,0,0,0,0,-1,1742,1737,0,0
525,-713,0,0,0,0,0,0,0,0,0,-1,1749,1737,0,0
532,-713,0,0,0,0,0,0,0,0,0,-1,1756,1737,0,0
539,-713,0,0,0,0,0,0,0,0,0,-1,1763,1737,0,0
546,-713,0,0,0,0,0,0,0,0,0,-1,1770,1737,0,0
553,-713,0,0,0,0,0,0,0,0,0,-1,1777,1737,0,0
560,-713,0,0,0,0,0,0,0,0,0,-1,1784,1737,0,0
567,-713,0,0,0,0,0,0,0,0,0,-1,1791,1737,0,0
574,-713,0,0,0,0,0,0,0,0,0,-1,1798,1737,0,0
581,-713,0,0,0,0,0,0,0,0,0,-1,1805,1737,0,0
588,-713,0,0,0,0,0,0,0,0,0,-1,1812,1737,0,0
595,-713,0,0,0,0,0,0,0,0,0,-1,1819,1737,0,0
602,-713,0,0,0,0,0,0,0,0,0,-1,1826,1737,0,0
609,-713,0,0,0,0,0,0,0,0,0,-1,1833,1737,0,0
616,-713,0,0,0,0,0,0,0,0,0,-1,1840,1737,0,0
623,-713,0,0,0,0,0,0,0,0,0,-1,1847,1737,0,0
630,-713,0,0,0,0,0,0,0,0,0,-1,1854,1737,0,0
637,-713,0,0,0,0,0,0,0,0,0,-1,1861,1737,0,0
644,-713,0,0,0,0,0,0,0,0,0,-1,1868,1737,0,0
651,-713,0,0,0,0,0,0,0,0,0,-1,1875,1737,0,0
658,-713,0,0,0,0,0,0,0,0,0,-1,1882,1737,0,0
665,-713,0,0,0,0,0,0,0,0,0,-1,1889,1737,0,0
672,-713,0,0,0,0,0,0,0,0,0,-1,1896,1737,0,0
679,-713,0,0,0,0,0,0,0,0,0,-1,1903,1737,0,0
686,-713,0,0,0,0,0,0,0,0,0,-1,1910,1737,0,0
693,-713,0,0,0,0,0,0,0,0,0,-1,1917,1737,0,0
700,-713,0,0,0,0,0,0,0,0,0,-1,1924,1737,0,0
707,-713,0,0,0,0,0,0,0,0,0,-1,1931,1737,0,0
714,-713,0,0,0,0,0,0,0,0,0,-1,1938,1737,0,0
721,-713,0,0,0,0,0,0,0,0,0,-1,1945,1737,0,0
728,-713,0,0,0,0,0,0,0,0,0,-1,1952,1737,0,0
735,-713,0,0,0,0,0,0,0,0,0,-1,1959,1737,0,0
742,-713,0,0,0,0,0,0,0,0,0,-1,1966,1737,0,0
749,-713,0,0,0,0,0,0,0,0,0,-1,1973,1737,0,0
756,-713,0,0,0,0,0,0,0,0,0,-1,1980,1737,0,0
763,-713,0,0,0,0,0,0,0,0,0,-1,1987,1737,0,0
770,-713,0,0,0,0,0,0,0,0,0,-1,1994,1737,0,0
777,-713,0,0,0,0,0,0,0,0,0,-1,2001,1737,0,0
784,-713,0,0,0,0,0,0,0,0,0,-1,2008,1737,0,0
791,-713,0,0,0,0,0,0,0,0,0,-1,2015,1737,0,0
798,-713,0,0,0,0,0,0,0,0,0,-1,2022,1737,0,0
805,-713,0,0,0,0,0,0,0,0,0,-1,2029,1737,0,0
812,-713,0,0,0,0,0,0,0,0,0,-1,2036,1737,0,0
-700,-720,0,0,0,0,0,0,0,0,0,-1,524,1744,0,0
-693,-720,0,0,0,0,0,0,0,0,0,-1,531,1744,0,0
-686,-720,0,0,0,0,0,0,0,0,0,-1,538,1744,0,0
-679,-720,0,0,0,0,0,0,0,0,0,-1,545,1744,0,0
-672,-720,0,0,0,0,0,0,0,0,0,-1,552,1744,0,0
-665,-720,0,0,0,0,0,0,0,0,0,-1,559,1744,0,0
-658,-720,0,0,0,0,0,0,0,0,0,-1,566,1744,0,0
-651,-720,0,0,0,0,0,0,0,0,0,-1,573,1744,0,0
-644,-720,0,0,0,0,0,0,0,0,0,-1,580,1744,0,0
-637,-720,0,0,0,0,0,0,0,0,0,-1,587,1744,0,0
-630,-720,0,0,0,0,0,0,0,0,0,-1,594,1744,0,0
-623,-720,0,0,0,0,0,0,0,0,0,-1,601,1744,0,0
-616,-720,0,0,0,0,0,0,0,0,0,-1,608,1744,0,0
-609,-720,0,0,0,0,0,0,0,0,0,-1,615,1744,0,0
-602,-720,0,0,0,0,0,0,0,0,0,-1,622,1744,0,0
-595,-720,0,0,0,0,0,0,0,0,0,-1,629,1744,0,0
-588,-720,0,0,0,0,0,0,0,0,0,-1,636,1744,0,0
-581,-720,0,0,0,0,0,0,0,0,0,-1,643,1744,0,0
-574,-720,0,0,0,0,0,0,0,0,0,-1,650,1744,0,0
-567,-720,0,0,0,0,0,0,0,0,0,-1,657,1744,0,0
-560,-720,0,0,0,0,0,0,0,0,0,-1,664,1744,0,0
-553,-720,0,0,0,0,0,0,0,0,0,-1,671,1744,0,0
-546,-720,0,0,0,0,0,0,0,0,0,-1,678,1744,0,0
-539,-720,0,0,0,0,0,0,0,0,0,-1,685,1744,0,0
-532,-720,0,0,0,0,0,0,0,0,0,-1,692,1744,0,0
-525,-720,0,0,0,0,0,0,0,0,0,-1,699,1744,0,0
-518,-720,0,0,0,0,0,0,0,0,0,-1,706,1744,0,0
-511,-720,0,0,0,0,0,0,0,0,0,-1,713,1744,0,0
-504,-720,0,0,0,0,0,0,0,0,0,-1,720,1744,0,0
-497,-720,0,0,0,0,0,0,0,0,0,-1,727,1744,0,0
-490,-720,0,0,0,0,0,0,0,0,0,-1,734,1744,0,0
-483,-720,0,0,0,0,0,0,0,0,0,-1,741,1744,0,0
-476,-720,0,0,0,0,0,0,0,0,0,-1,748,1744,0,0
-469,-720,0,0,0,0,0,0,0,0,0,-1,755,1744,0,0
-462,-720,0,0,0,0,0,0,0,0,0,-1,762,1744,0,0
-455,-720,0,0,0,0,0,0,0,0,0,-1,769,1744,0,0
-448,-720,0,0,0,0,0,0,0,0,0,-1,776,1744,0,0
-441,-720,0,0,0,0,0,0,0,0,0,-1,783,1744,0,0
-434,-720,0,0,0,0,0,0,0,0,0,-1,790,1744,0,0
-427,-720,0,0,0,0,0,0,0,0,0,-1,797,1744,0,0
-420,-720,0,0,0,0,0,0,0,0,0,-1,804,1744,0,0
-413,-720,0,0,0,0,0,0,0,0,0,-1,811,1744,0,0
-406,-720,0,0,0,0,0,0,0,0,0,-1,818,1744,0,0
-399,-720,0,0,0,0,0,0,0,0,0,-1,825,1744,0,0
-392,-720,0,0,0,0,0,0,0,0,0,-1,832,1744,0,0
-385,-720,0,0,0,0,0,0,0,0,0,-1,839,1744,0,0
-378,-720,0,0,0,0,0,0,0,0,0,-1,846,1744,0,0
-371,-720,0,0,0,0,0,0,0,0,0,-1,853,1744,0,0
-364,-720,0,0,0,0,0,0,0,0,0,-1,860,1744,0,0
-357,-720,0,0,0,0,0,0,0,0,0,-1,867,1744,0,0
-350,-720,0,0,0,0,0,0,0,0,0,-1,874,1744,0,0
-343,-720,0,0,0,0,0,0,0,0,0,-1,881,1744,0,0
-336,-720,0,0,0,0,0,0,0,0,0,-1,888,1744,0,0
-329,-720,0,0,0,0,0,0,0,0,0,-1,895,1744,0,0
-322,-720,0,0,0,0,0,0,0,0,0,-1,902,1744,0,0
-315,-720,0,0,0,0,0,0,0,0,0,-1,909,1744,0,0
-308,-720,0,0,0,0,0,0,0,0,0,-1,916,1744,0,0
-301,-720,0,0,0,0,0,0,0,0,0,-1,923,1744,0,0
-294,-720,0,0,0,0,0,0,0,0,0,-1,930,1744,0,0
-287,-720,0,0,0,0,0,0,0,0,0,-1,937,1744,0,0
-280,-720,5.10437,9.33765,0,0,0,0,0,0,0,-1,944,1744,5.10435,-9.33761
-273,-720,4.63739,8.22498,0,0,0,0,0,0,0,-1,951,1744,4.6374,-8.22496
-266,-720,4.37134,7.47217,0,0,0,0,0,0,0,-1,958,1744,4.37132,-7.47215
-259,-720,2.38904,5.20947,0,0,0,0,0,0,0,-1,965,1744,2.38906,-5.20952
-252,-720,3.71014,6.78967,0,0,0,0,0,0,0,-1,972,1744,3.71016,-6.78973
-245,-720,4.38489,14.8328,0,0,0,0,0,0,0,-1,979,1744,4.38488,-14.8328
-238,-720,2.25476,11.2158,0,0,0,0,0,0,0,-1,986,1744,2.25476,-11.2158
-231,-720,4.5351,11.7617,0,0,0,0,0,0,0,-1,993,1744,4.53508,-11.7617
-224,-720,4.4187,11.2051,-0.0177569,0.00134932,-0.0265863,0.0200468,-0.0364543,-0.957877,0.0330762,0.0466029,1000,1744,4.41868,-11.2051
-217,-720,4.34027,10.6444,-0.0150728,0.000443531,-0.0234484,0.0173838,-0.0320131,-0.945161,0.0289332,0.0473041,1007,1744,4.34029,-10.6444
-210,-720,4.3139,10.0035,0,0,0,0,0,0,0,-1,1014,1744,4.31391,-10.0035
-203,-720,4.56885,11.7311,0,0,0,0,0,0,0,-1,1021,1744,4.56887,-11.7311
-196,-720,4.57507,11.7726,0,0,0,0,0,0,0,-1,1028,1744,4.57505,-11.7726
-189,-720,4.29126,12.1227,-0.00587824,-0.000900772,-0.0102464,0.0071548,-0.0139338,-0.904535,0.0123834,0.0463375,1035,1744,4.29131,-12.1227
-182,-720,4.23279,12.0422,-0.00433544,-0.000732181,-0.00771404,0.00538782,-0.0104554,-0.900118,0.00930178,0.0374002,1042,1744,4.2328,-12.0422
-175,-720,4.26892,12.2208,-0.00339252,-0.000126699,-0.00593536,0.00439628,-0.0079155,-0.919635,0.00720435,0.039712,1049,1744,4.26894,-12.2208
-168,-720,4.21277,12.3523,-0.00219355,0.00137732,-0.00344111,0.00346861,-0.00428484,-1.02471,0.00448472,0.0371277,1056,1744,4.21282,-12.3523
-161,-720,4.09668,12.3966,-0.00320651,0.00132243,-0.00213339,0.0021691,-0.00405318,-1.193,0.00364692,0.0272289,1063,1744,4.09663,-12.3965
-154,-720,4.14282,12.5101,-0.00459845,0.00201619,-0.00224946,0.00270867,-0.00529093,-1.27216,0.0046981,0.0208364,1070,1744,4.14287,-12.5101
-147,-720,4.16138,12.6608,-0.00520829,0.00278138,-0.00216484,0.00333025,-0.00575716,-1.32249,0.00530862,0.0204693,1077,1744,4.16143,-12.6608
-140,-720,4.17273,12.7773,-0.00568562,0.00347372,-0.00213469,0.0039468,-0.0061587,-1.35271,0.00588081,0.0165392,1084,1744,4.17274,-12.7773
-133,-720,4.14551,12.8367,-0.00614682,0.00408738,-0.00209539,0.00449977,-0.00655922,-1.37647,0.00642171,0.011622,1091,1744,4.14556,-12.8366
-126,-720,4.13965,12.938,-0.00668135,0.0044911,-0.00207073,0.00486255,-0.0070528,-1.3933,0.00691796,0.0121825,1098,1744,4.13959,-12.938
-119,-720,4.14478,13.0267,-0.00692929,0.00436132,-0.00198221,0.00469921,-0.00726718,-1.40196,0.00696162,0.0150335,1105,1744,4.14484,-13.0267
-112,-720,4.12683,13.0923,-0.0066466,0.00426525,-0.00185656,0.00457248,-0.00695382,-1.4068,0.00670189,0.0134505,1112,1744,4.12684,-13.0923
-105,-720,4.12805,13.1785,-0.00620057,0.00406646,-0.0017017,0.00434116,-0.00647527,-1.41075,0.00628526,0.0126108,1119,1744,4.12804,-13.1785
-98,-720,4.12939,13.244,-0.00559432,0.00379643,-0.00145607,0.00401701,-0.00581491,-1.42044,0.00570801,0.0100354,1126,1744,4.12937,-13.244
-91,-720,4.10254,13.3322,-0.00478766,0.00353768,-0.00119185,0.00370494,-0.00495492,-1.43137,0.0050171,0.00979164,1133,1744,4.10255,-13.3321
-84,-720,4.08789,13.4146,-0.00393955,0.00321061,-0.000955399,0.00333607,-0.00406501,-1.44023,0.00427991,0.0100462,1140,1744,4.08793,-13.4146
-77,-720,4.09912,13.5221,-0.00299695,0.00280835,-0.000752597,0.00290432,-0.00309293,-1.44395,0.00346309,0.0118728,1147,1744,4.09918,-13.5221
-70,-720,4.11035,13.603,-0.00211278,0.00222834,-0.00051504,0.00228861,-0.00217305,-1.45431,0.00257623,0.0112585,1154,1744,4.11037,-13.603
-63,-720,4.09753,13.66,-0.00125767,0.00154034,-0.000377265,0.00159031,-0.00130765,-1.4391,0.00167579,0.010479,1161,1744,4.09751,-13.66
-56,-720,4.11096,13.7251,-0.000207546,0.00101205,-0.000418199,0.00114168,-0.00033717,-1.27023,0.000894935,0.0127688,1168,1744,4.11101,-13.7251
-49,-720,4.07397,13.7666,0.000392628,0.000578741,-0.000370785,0.000867969,0.000103401,-0.908344,0.000547444,0.0181796,1175,1744,4.07397,-13.7665
-42,-720,4.12231,13.8185,0.000444073,0.00031728,-0.000418726,0.000804175,-4.28217e-05,-0.710267,0.000550946,0.0201067,1182,1744,4.12237,-13.8184
-35,-720,4.14197,13.8529,0.000628241,-1.32492e-05,-0.000392926,0.000814712,-0.00019972,-0.443098,0.000620523,0.0189773,1189,1744,4.14198,-13.8529
-28,-720,4.12244,13.9232,0.000753671,-3.23453e-05,-0.000497309,0.000994518,-0.000273192,-0.451008,0.000770395,0.0112239,1196,1744,4.12239,-13.9233
-21,-720,4.11206,13.9899,0.000815362,-0.000180179,-0.000571042,0.00107513,-0.000439947,-0.426923,0.000899989,0.00900136,1203,1744,4.11204,-13.9899
-14,-720,4.10059,14.0164,0.000785976,-0.000329019,-0.000646758,0.00108235,-0.000625395,-0.429692,0.000997665,0.0106516,1210,1744,4.10064,-14.0164
-7,-720,4.10486,14.0789,0.000633579,-0.000408677,-0.000730548,0.00100982,-0.00078492,-0.475587,0.0010389,0.0112576,1217,1744,4.10489,-14.0789
0,-720,4.11511,14.1387,0.000343748,-0.000594365,-0.000854372,0.000849354,-0.00109997,-0.534358,0.00112854,0.012416,1224,1744,4.11511,-14.1387
7,-720,4.12891,14.1486,1.9416e-05,-0.000751955,-0.00103355,0.000736903,-0.00146944,-0.606818,0.00129703,0.015049,1231,1744,4.12886,-14.1486
14,-720,4.14929,14.1704,-5.21998e-05,-0.00102432,-0.00131943,0.000867849,-0.00194437,-0.608917,0.00166282,0.0133092,1238,1744,4.14931,-14.1704
21,-720,4.13403,14.2152,-8.35644e-06,-0.00120084,-0.00136842,0.000888079,-0.00209727,-0.579943,0.00177009,0.0100127,1245,1744,4.13398,-14.2152
28,-720,4.12744,14.2531,-3.10815e-05,-0.00140861,-0.00145464,0.000889621,-0.00232932,-0.564288,0.00191941,0.0104396,1252,1744,4.12748,-14.253
35,-720,4.13208,14.2726,8.20544e-05,-0.00158014,-0.00153655,0.000997872,-0.00249596,-0.537489,0.00207806,0.0113376,1259,1744,4.13208,-14.2726
42,-720,4.11035,14.2935,0.000220514,-0.00168176,-0.00154235,0.00108142,-0.00254267,-0.509101,0.00214831,0.0113645,1266,1744,4.11031,-14.2934
49,-720,4.11707,14.3086,0.00037097,-0.00164711,-0.00144467,0.0011241,-0.00240024,-0.480553,0.00207876,0.0108454,1273,1744,4.11711,-14.3086
56,-720,4.13794,14.335,0.000602227,-0.00158363,-0.00131025,0.00121553,-0.00219694,-0.437791,0.00199717,0.0095469,1280,1744,4.13795,-14.3349
63,-720,4.14087,14.3365,0.000637367,-0.00135537,-0.00107565,0.00110721,-0.00182522,-0.411821,0.00170987,0.0110753,1287,1744,4.14083,-14.3366
70,-720,4.15369,14.3365,0.000553528,-0.00093771,-0.000874663,0.000957249,-0.00134143,-0.432437,0.00133331,0.0124491,1294,1744,4.15368,-14.3366
77,-720,4.16199,14.3391,0.000421024,-0.000784191,-0.000499467,0.000601106,-0.000964273,-0.346041,0.000911844,0.0144067,1301,1744,4.16202,-14.3391
84,-720,4.15698,14.3322,0.000293021,-0.000135896,-0.000134529,0.000331723,-0.000174599,-0.280125,0.00029698,0.0127189,1308,1744,4.15694,-14.3322
91,-720,4.15356,14.335,0.000331657,0.000447875,0.000369339,0.000763648,1.58836e-05,0.863425,0.000503887,0.0119458,1315,1744,4.15358,-14.335
98,-720,4.14343,14.3445,0.000368871,0.00120424,0.00101778,0.00188671,-0.000313598,0.980113,0.00137432,0.0120926,1322,1744,4.14347,-14.3445
105,-720,4.16138,14.3395,0.00043513,0.00168702,0.00146622,0.00265532,-0.000533171,0.987141,0.00197211,0.0118344,1329,1744,4.16143,-14.3395
112,-720,4.17505,14.3329,0.000583971,0.00203,0.00194315,0.00338029,-0.000766321,0.963503,0.00254768,0.0100046,1336,1744,4.17502,-14.3329
119,-720,4.1842,14.298,0.00067354,0.00226239,0.00238255,0.00397947,-0.00104354,0.946319,0.00306072,0.0100848,1343,1744,4.18419,-14.2979
126,-720,4.18091,14.2905,0.00105878,0.00227282,0.00259062,0.00432659,-0.000994981,0.900479,0.00326695,0.0107318,1350,1744,4.18095,-14.2906
133,-720,4.18738,14.2891,0.00165376,0.00231985,0.00286544,0.00487153,-0.00089792,0.843252,0.00358468,0.0122531,1357,1744,4.18735,-14.2891
140,-720,4.21509,14.2626,0.00212823,0.00232642,0.00303173,0.00526067,-0.000806023,0.801735,0.00380436,0.0177587,1364,1744,4.21508,-14.2626
147,-720,4.18848,14.2097,0.0023542,0.00220315,0.0029654,0.00524504,-0.00068769,0.772666,0.00374702,0.0198926,1371,1744,4.18852,-14.2097
154,-720,4.17029,14.1847,0.00230366,0.00195857,0.00268177,0.00481843,-0.000556205,0.753272,0.00341283,0.0140709,1378,1744,4.17023,-14.1846
161,-720,4.19653,14.1624,0.0019804,0.00172912,0.00224513,0.0041034,-0.000393877,0.757446,0.0028759,0.00963074,1385,1744,4.19649,-14.1623
168,-720,4.20959,14.1353,0.00150274,0.00152323,0.00149341,0.00300643,1.95402e-05,0.788829,0.00199781,0.00968901,1392,1744,4.20961,-14.1352
175,-720,4.19373,14.0808,0.00100953,0.00129447,0.000919855,0.00208282,0.000221174,0.862229,0.00132101,0.0156225,1399,1744,4.19372,-14.0808
182,-720,4.19434,14.0374,0.000604721,0.0011712,0.000420988,0.00139536,0.000380559,1.08151,0.00083289,0.0149666,1406,1744,4.19436,-14.0374
189,-720,4.19946,14.0015,0.000296098,0.000958901,-0.000307728,0.00107974,0.000175257,-1.19661,0.000669104,0.0122605,1413,1744,4.19946,-14.0015
196,-720,4.2146,13.9637,-0.000193703,0.00082803,-0.000980342,0.00142263,-0.000788303,-1.02559,0.00129388,0.011981,1420,1744,4.21458,-13.9637
203,-720,4.19495,13.9105,-0.000721318,0.000618801,-0.00169006,0.00176678,-0.0018693,-0.974129,0.00209957,0.0144333,1427,1744,4.1949,-13.9106
210,-720,4.19092,13.863,-0.000886318,0.00058185,-0.00212614,0.00209707,-0.00240154,-0.951624,0.00259925,0.0132451,1434,1744,4.19089,-13.863
217,-720,4.20508,13.7906,-0.0022734,0.000341887,-0.00241695,0.00178226,-0.00371377,-1.03336,0.00323779,0.0118761,1441,1744,4.20513,-13.7907
224,-720,4.1958,13.7164,-0.0045102,-5.60889e-06,-0.00238747,0.0010243,-0.00554011,-1.16353,0.00407795,0.00859802,1448,1744,4.19578,-13.7164
231,-720,4.1958,13.6572,-0.00731328,-0.000115363,-0.00226068,0.000535755,-0.0079644,-1.29037,0.0054969,0.00910981,1455,1744,4.19577,-13.6572
238,-720,4.18799,13.588,-0.0112866,-0.000190928,-0.00200963,0.000161837,-0.0116394,-1.39703,0.0078141,0.00855727,1462,1744,4.18805,-13.588
245,-720,4.18311,13.5408,-0.0152773,-0.000227269,-0.00170289,-3.69945e-05,-0.0154676,-1.45952,0.0102994,0.0110625,1469,1744,4.18313,-13.5408
252,-720,4.18542,13.4603,-0.0206248,0.000942813,-0.00139423,0.00103257,-0.0207145,-1.50651,0.0141664,0.0112492,1476,1744,4.18542,-13.4604
259,-720,4.19519,13.3777,-0.0266084,0.00256792,-0.000523345,0.00257731,-0.0266178,-1.55287,0.0186637,0.00992354,1483,1744,4.19522,-13.3777
266,-720,4.18323,13.3202,-0.032441,0.00422091,0.000268047,0.00422287,-0.0324429,1.56349,0.0231649,0.00803537,1490,1744,4.18318,-13.3201
273,-720,4.16809,13.2378,-0.038018,0.00622981,0.00131339,0.00626876,-0.038057,1.54115,0.0276984,0.0131829,1497,1744,4.16813,-13.2378
280,-720,4.11951,13.1301,-0.0433633,0.0086071,0.00216445,0.00869709,-0.0434533,1.52924,0.0322611,0.0181273,1504,1744,4.11951,-13.1302
287,-720,4.09802,13.0035,-0.0478756,0.0110124,0.00301877,0.0111668,-0.0480299,1.51971,0.036319,0.0292415,1511,1744,4.09797,-13.0035
294,-720,4.21191,12.9003,-0.0517316,0.0139317,0.00411031,0.014188,-0.0519878,1.50852,0.0402307,0.033765,1518,1744,4.21195,-12.9002
301,-720,4.13306,12.8007,-0.0532272,0.0164085,0.00479837,0.0167376,-0.0535563,1.50232,0.0423993,0.0325395,1525,1744,4.13309,-12.8007
308,-720,4.01257,12.6011,-0.0529389,0.0186514,0.00533299,0.0190465,-0.053334,1.49685,0.0433236,0.0356785,1532,1744,4.01258,-12.6011
315,-720,3.91541,12.5286,-0.051572,0.0195336,0.00588634,0.0200176,-0.052056,1.48876,0.0429603,0.0412175,1539,1744,3.91536,-12.5285
322,-720,3.84851,12.494,-0.0482264,0.0209338,0.00617919,0.0214816,-0.0487742,1.48238,0.0415699,0.0498328,1546,1744,3.84846,-12.494
329,-720,4.21875,12.4822,0,0,0,0,0,0,0,-1,1553,1744,4.21879,-12.4822
336,-720,4.13403,12.7654,0,0,0,0,0,0,0,-1,1560,1744,4.13403,-12.7654
343,-720,4.30798,12.6987,0,0,0,0,0,0,0,-1,1567,1744,4.30793,-12.6987
350,-720,4.0741,11.1836,0,0,0,0,0,0,0,-1,1574,1744,4.07412,-11.1836
357,-720,3.92322,10.9236,0,0,0,0,0,0,0,-1,1581,1744,3.92323,-10.9236
364,-720,4.30383,12.5797,0,0,0,0,0,0,0,-1,1588,1744,4.30382,-12.5797
371,-720,3.66003,10.7395,0,0,0,0,0,0,0,-1,1595,1744,3.66007,-10.7394
378,-720,2.21692,9.76758,0,0,0,0,0,0,0,-1,1602,1744,2.21689,-9.76754
385,-720,0.0605469,10.3186,0,0,0,0,0,0,0,-1,1609,1744,0.0605392,-10.3187
392,-720,-0.0305176,11.3309,0,0,0,0,0,0,0,-1,1616,1744,-0.0305729,-11.3309
399,-720,-0.0229492,11.1704,0,0,0,0,0,0,0,-1,1623,1744,-0.0229226,-11.1704
406,-720,0,0,0,0,0,0,0,0,0,-1,1630,1744,0,0
413,-720,0,0,0,0,0,0,0,0,0,-1,1637,1744,0,0
420,-720,0,0,0,0,0,0,0,0,0,-1,1644,1744,0,0
427,-720,0,0,0,0,0,0,0,0,0,-1,1651,1744,0,0
434,-720,0,0,0,0,0,0,0,0,0,-1,1658,1744,0,0
441,-720,0,0,0,0,0,0,0,0,0,-1,1665,1744,0,0
448,-720,0,0,0,0,0,0,0,0,0,-1,1672,1744,0,0
455,-720,0,0,0,0,0,0,0,0,0,-1,1679,1744,0,0
462,-720,0,0,0,0,0,0,0,0,0,-1,1686,1744,0,0
469,-720,0,0,0,0,0,0,0,0,0,-1,1693,1744,0,0
476,-720,0,0,0,0,0,0,0,0,0,-1,1700,1744,0,0
483,-720,0,0,0,0,0,0,0,0,0,-1,1707,1744,0,0
490,-720,0,0,0,0,0,0,0,0,0,-1,1714,1744,0,0
497,-720,0,0,0,0,0,0,0,0,0,-1,1721,1744,0,0
504,-720,0,0,0,0,0,0,0,0,0,-1,1728,1744,0,0
511,-720,0,0,0,0,0,0,0,0,0,-1,1735,1744,0,0
518,-720,0,0,0,0,0,0,0,0,0,-1,1742,1744,0,0
525,-720,0,0,0,0,0,0,0,0,0,-1,1749,1744,0,0
532,-720,0,0,0,0,0,0,0,0,0,-1,1756,1744,0,0
539,-720,0,0,0,0,0,0,0,0,0,-1,1763,1744,0,0
546,-720,0,0,0,0,0,0,0,0,0,-1,1770,1744,0,0
553,-720,0,0,0,0,0,0,0,0,0,-1,1777,1744,0,0
560,-720,0,0,0,0,0,0,0,0,0,-1,1784,1744,0,0
567,-720,0,0,0,0,0,0,0,0,0,-1,1791,1744,0,0
574,-720,0,0,0,0,0,0,0,0,0,-1,1798,1744,0,0
581,-720,0,0,0,0,0,0,0,0,0,-1,1805,1744,0,0
588,-720,0,0,0,0,0,0,0,0,0,-1,1812,1744,0,0
595,-720,0,0,0,0,0,0,0,0,0,-1,1819,1744,0,0
602,-720,0,0,0,0,0,0,0,0,0,-1,1826,1744,0,0
609,-720,0,0,0,0,0,0,0,0,0,-1,1833,1744,0,0
616,-720,0,0,0,0,0,0,0,0,0,-1,1840,1744,0,0
623,-720,0,0,0,0,0,0,0,0,0,-1,1847,1744,0,0
630,-720,0,0,0,0,0,0,0,0,0,-1,1854,1744,0,0
637,-720,0,0,0,0,0,0,0,0,0,-1,1861,1744,0,0
644,-720,0,0,0,0,0,0,0,0,0,-1,1868,1744,0,0
651,-720,0,0,0,0,0,0,0,0,0,-1,1875,1744,0,0
658,-720,0,0,0,0,0,0,0,0,0,-1,1882,1744,0,0
665,-720,0,0,0,0,0,0,0,0,0,-1,1889,1744,0,0
672,-720,0,0,0,0,0,0,0,0,0,-1,1896,1744,0,0
679,-720,0,0,0,0,0,0,0,0,0,-1,1903,1744,0,0
686,-720,0,0,0,0,0,0,0,0,0,-1,1910,1744,0,0
693,-720,0,0,0,0,0,0,0,0,0,-1,1917,1744,0,0
700,-720,0,0,0,0,0,0,0,0,0,-1,1924,1744,0,0
707,-720,0,0,0,0,0,0,0,0,0,-1,1931,1744,0,0
714,-720,0,0,0,0,0,0,0,0,0,-1,1938,1744,0,0
721,-720,0,0,0,0,0,0,0,0,0,-1,1945,1744,0,0
728,-720,0,0,0,0,0,0,0,0,0,-1,1952,1744,0,0
735,-720,0,0,0,0,0,0,0,0,0,-1,1959,1744,0,0
742,-720,0,0,0,0,0,0,0,0,0,-1,1966,1744,0,0
749,-720,0,0,0,0,0,0,0,0,0,-1,1973,1744,0,0
756,-720,0,0,0,0,0,0,0,0,0,-1,1980,1744,0,0
763,-720,0,0,0,0,0,0,0,0,0,-1,1987,1744,0,0
770,-720,0,0,0,0,0,0,0,0,0,-1,1994,1744,0,0
777,-720,0,0,0,0,0,0,0,0,0,-1,2001,1744,0,0
784,-720,0,0,0,0,0,0,0,0,0,-1,2008,1744,0,0
791,-720,0,0,0,0,0,0,0,0,0,-1,2015,1744,0,0
798,-720,0,0,0,0,0,0,0,0,0,-1,2022,1744,0,0
805,-720,0,0,0,0,0,0,0,0,0,-1,2029,1744,0,0
812,-720,0,0,0,0,0,0,0,0,0,-1,2036,1744,0,0
-700,-727,0,0,0,0,0,0,0,0,0,-1,524,1751,0,0
-693,-727,0,0,0,0,0,0,0,0,0,-1,531,1751,0,0
-686,-727,0,0,0,0,0,0,0,0,0,-1,538,1751,0,0
-679,-727,0,0,0,0,0,0,0,0,0,-1,545,1751,0,0
-672,-727,0,0,0,0,0,0,0,0,0,-1,552,1751,0,0
-665,-727,0,0,0,0,0,0,0,0,0,-1,559,1751,0,0
-658,-727,0,0,0,0,0,0,0,0,0,-1,566,1751,0,0
-651,-727,0,0,0,0,0,0,0,0,0,-1,573,1751,0,0
-644,-727,0,0,0,0,0,0,0,0,0,-1,580,1751,0,0
-637,-727,0,0,0,0,0,0,0,0,0,-1,587,1751,0,0
-630,-727,0,0,0,0,0,0,0,0,0,-1,594,1751,0,0
-623,-727,0,0,0,0,0,0,0,0,0,-1,601,1751,0,0
-616,-727,0,0,0,0,0,0,0,0,0,-1,608,1751,0,0
-609,-727,0,0,0,0,0,0,0,0,0,-1,615,1751,0,0
-602,-727,0,0,0,0,0,0,0,0,0,-1,622,1751,0,0
-595,-727,0,0,0,0,0,0,0,0,0,-1,629,1751,0,0
-588,-727,0,0,0,0,0,0,0,0,0,-1,636,1751,0,0
-581,-727,0,0,0,0,0,0,0,0,0,-1,643,1751,0,0
-574,-727,0,0,0,0,0,0,0,0,0,-1,650,1751,0,0
-567,-727,0,0,0,0,0,0,0,0,0,-1,657,1751,0,0
-560,-727,0,0,0,0,0,0,0,0,0,-1,664,1751,0,0
-553,-727,0,0,0,0,0,0,0,0,0,-1,671,1751,0,0
-546,-727,0,0,0,0,0,0,0,0,0,-1,678,1751,0,0
-539,-727,0,0,0,0,0,0,0,0,0,-1,685,1751,0,0
-532,-727,0,0,0,0,0,0,0,0,0,-1,692,1751,0,0
-525,-727,0,0,0,0,0,0,0,0,0,-1,699,1751,0,0
-518,-727,0,0,0,0,0,0,0,0,0,-1,706,1751,0,0
-511,-727,0,0,0,0,0,0,0,0,0,-1,713,1751,0,0
-504,-727,0,0,0,0,0,0,0,0,0,-1,720,1751,0,0
-497,-727,0,0,0,0,0,0,0,0,0,-1,727,1751,0,0
-490,-727,0,0,0,0,0,0,0,0,0,-1,734,1751,0,0
-483,-727,0,0,0,0,0,0,0,0,0,-1,741,1751,0,0
-476,-727,0,0,0,0,0,0,0,0,0,-1,748,1751,0,0
-469,-727,0,0,0,0,0,0,0,0,0,-1,755,1751,0,0
-462,-727,0,0,0,0,0,0,0,0,0,-1,762,1751,0,0
-455,-727,0,0,0,0,0,0,0,0,0,-1,769,1751,0,0
-448,-727,0,0,0,0,0,0,0,0,0,-1,776,1751,0,0
-441,-727,0,0,0,0,0,0,0,0,0,-1,783,1751,0,0
-434,-727,0,0,0,0,0,0,0,0,0,-1,790,1751,0,0
-427,-727,0,0,0,0,0,0,0,0,0,-1,797,1751,0,0
-420,-727,0,0,0,0,0,0,0,0,0,-1,804,1751,0,0
-413,-727,0,0,0,0,0,0,0,0,0,-1,811,1751,0,0
-406,-727,0,0,0,0,0,0,0,0,0,-1,818,1751,0,0
-399,-727,0,0,0,0,0,0,0,0,0,-1,825,1751,0,0
-392,-727,0,0,0,0,0,0,0,0,0,-1,832,1751,0,0
-385,-727,0,0,0,0,0,0,0,0,0,-1,839,1751,0,0
-378,-727,0,0,0,0,0,0,0,0,0,-1,846,1751,0,0
-371,-727,0,0,0,0,0,0,0,0,0,-1,853,1751,0,0
-364,-727,0,0,0,0,0,0,0,0,0,-1,860,1751,0,0
-357,-727,0,0,0,0,0,0,0,0,0,-1,867,1751,0,0
-350,-727,0,0,0,0,0,0,0,0,0,-1,874,1751,0,0
-343,-727,0,0,0,0,0,0,0,0,0,-1,881,1751,0,0
-336,-727,0,0,0,0,0,0,0,0,0,-1,888,1751,0,0
-329,-727,0,0,0,0,0,0,0,0,0,-1,895,1751,0,0
-322,-727,0,0,0,0,0,0,0,0,0,-1,902,1751,0,0
-315,-727,0,0,0,0,0,0,0,0,0,-1,909,1751,0,0
-308,-727,0,0,0,0,0,0,0,0,0,-1,916,1751,0,0
-301,-727,0,0,0,0,0,0,0,0,0,-1,923,1751,0,0
-294,-727,0,0,0,0,0,0,0,0,0,-1,930,1751,0,0
-287,-727,0,0,0,0,0,0,0,0,0,-1,937,1751,0,0
-280,-727,0,0,0,0,0,0,0,0,0,-1,944,1751,0,0
-273,-727,0,0,0,0,0,0,0,0,0,-1,951,1751,0,0
-266,-727,4.24805,7.61145,0,0,0,0,0,0,0,-1,958,1751,4.24802,-7.6115
-259,-727,3.65228,5.4082,0,0,0,0,0,0,0,-1,965,1751,3.65229,-5.40818
-252,-727,4.98651,6.28906,0,0,0,0,0,0,0,-1,972,1751,4.98649,-6.28908
-245,-727,6.25244,7.34888,0,0,0,0,0,0,0,-1,979,1751,6.25241,-7.3489
-238,-727,5.62982,12.9598,0,0,0,0,0,0,0,-1,986,1751,5.62984,-12.9599
-231,-727,4.86908,12.1199,0,0,0,0,0,0,0,-1,993,1751,4.86906,-12.1198
-224,-727,4.59277,11.3529,-0.0225255,-0.00314586,-0.0356608,0.0241181,-0.0497895,-0.918056,0.0435202,0.0459325,1000,1751,4.59275,-11.3529
-217,-727,4.31396,10.5747,-0.0190676,-0.00344295,-0.0313519,0.0210553,-0.0435658,-0.907502,0.0380561,0.0459099,1007,1751,4.31399,-10.5748
-210,-727,4.08282,9.84656,0,0,0,0,0,0,0,-1,1014,1751,4.08286,-9.8466
-203,-727,4.16467,12.1327,0,0,0,0,0,0,0,-1,1021,1751,4.16471,-12.1326
-196,-727,4.14832,12.3436,0,0,0,0,0,0,0,-1,1028,1751,4.14832,-12.3436
-189,-727,4.27332,11.8748,0,0,0,0,0,0,0,-1,1035,1751,4.27329,-11.8748
-182,-727,4.35303,12.0431,-0.0050198,-0.00175568,-0.010518,0.00725609,-0.0140316,-0.862369,0.0124962,0.0456012,1042,1751,4.35302,-12.0431
-175,-727,4.41541,12.2572,-0.00402532,-0.00053696,-0.00818334,0.00608601,-0.0106483,-0.890396,0.00978051,0.0494084,1049,1751,4.41546,-12.2572
-168,-727,4.56506,12.6309,0,0,0,0,0,0,0,-1,1056,1751,4.56512,-12.6308
-161,-727,4.0365,12.5262,0,0,0,0,0,0,0,-1,1063,1751,4.03654,-12.5262
-154,-727,4.36035,12.4761,-0.00724373,0.00319821,-0.00342543,0.0042216,-0.00826713,-1.28047,0.00733539,0.0433455,1070,1751,4.3604,-12.4761
-147,-727,4.31873,12.6415,-0.00847346,0.00423755,-0.00336644,0.00507408,-0.00930999,-1.32724,0.00842382,0.0373585,1077,1751,4.31871,-12.6414
-140,-727,4.2168,12.6274,-0.00946421,0.00517893,-0.0033866,0.00592423,-0.0102095,-1.35418,0.00942371,0.0253606,1084,1751,4.21685,-12.6275
-133,-727,4.25269,12.7467,-0.0103556,0.00604135,-0.00337532,0.00670898,-0.0110233,-1.37552,0.0103382,0.0190354,1091,1751,4.25271,-12.7466
-126,-727,4.18176,12.8914,-0.0112833,0.00667719,-0.00338876,0.0072953,-0.0119014,-1.39038,0.0111891,0.0139014,1098,1751,4.1818,-12.8913
-119,-727,4.18274,13.0248,-0.0117303,0.00654217,-0.00331691,0.00712564,-0.0123137,-1.39667,0.0113558,0.0117442,1105,1751,4.18277,-13.0247
-112,-727,4.19348,13.0975,-0.0113727,0.00648037,-0.00317853,0.00702939,-0.0119217,-1.39976,0.0110623,0.0132071,1112,1751,4.19347,-13.0975
-105,-727,4.17944,13.1794,-0.0107486,0.0062172,-0.00299318,0.00672978,-0.0112612,-1.40119,0.0104964,0.0123172,1119,1751,4.17939,-13.1794
-98,-727,4.19287,13.26,-0.00988851,0.00586673,-0.00269965,0.00631648,-0.0103383,-1.40572,0.00970861,0.0101296,1126,1751,4.19291,-13.26
-91,-727,4.19983,13.3406,-0.00872225,0.00546964,-0.00237014,0.00585501,-0.00910761,-1.40962,0.00870644,0.0103363,1133,1751,4.19986,-13.3406
-84,-727,4.16943,13.417,-0.00744218,0.00494621,-0.00204722,0.00527575,-0.00777173,-1.41119,0.00757877,0.0109485,1140,1751,4.16943,-13.417
-77,-727,4.16821,13.5093,-0.00597575,0.00424826,-0.00170439,0.0045249,-0.00625239,-1.40989,0.00624886,0.0114306,1147,1751,4.16824,-13.5093
-70,-727,4.1781,13.599,-0.00455168,0.00331934,-0.00126071,0.00351635,-0.00474868,-1.41579,0.00478946,0.011533,1154,1751,4.17815,-13.599
-63,-727,4.1731,13.6656,-0.00303338,0.00226109,-0.000954903,0.00242805,-0.00320034,-1.3977,0.00325973,0.00969034,1161,1751,4.17305,-13.6656
-56,-727,4.1637,13.7192,-0.00105347,0.00149244,-0.000943178,0.00180378,-0.00136481,-1.25196,0.00183523,0.0108185,1168,1751,4.16373,-13.7192
-49,-727,4.1615,13.7679,7.32832e-05,0.000871858,-0.00073376,0.00130793,-0.000362794,-1.03457,0.00101474,0.0128812,1175,1751,4.16145,-13.7679
-42,-727,4.18225,13.8376,-6.50759e-05,0.000574583,-0.000766889,0.00108566,-0.000576155,-0.982956,0.000974366,0.0161165,1182,1751,4.18225,-13.8377
-35,-727,4.18884,13.8798,-0.000139892,0.000175963,-0.00084438,0.000877058,-0.000840987,-0.877847,0.000991986,0.0156536,1189,1751,4.18887,-13.8798
-28,-727,4.16821,13.9089,-7.65352e-05,-0.000147485,-0.000917504,0.00080618,-0.0010302,-0.766075,0.00106286,0.00907732,1196,1751,4.16825,-13.9089
-21,-727,4.1615,13.9719,-0.000102598,-0.000563907,-0.00089569,0.000591659,-0.00125816,-0.659378,0.00109086,0.00946558,1203,1751,4.16152,-13.972
-14,-727,4.15735,14.0131,-0.000124026,-0.000999532,-0.00078585,0.000337769,-0.00146133,-0.531281,0.00110417,0.010937,1210,1751,4.15738,-14.013
-7,-727,4.16345,14.0782,-0.000247378,-0.00133582,-0.000627844,3.92833e-05,-0.00162248,-0.428312,0.00109498,0.0143559,1217,1751,4.16347,-14.0782
0,-727,4.16162,14.1426,-0.000488187,-0.00173328,-0.000470599,-0.000330331,-0.00189113,-0.323642,0.00116634,0.0144902,1224,1751,4.16166,-14.1426
7,-727,4.15271,14.1477,-0.000799113,-0.00207657,-0.000372348,-0.000698507,-0.00217718,-0.263895,0.00128361,0.0139104,1231,1751,4.15277,-14.1477
14,-727,4.15503,14.1724,-0.0009437,-0.00240749,-0.000364588,-0.000857918,-0.00249327,-0.231081,0.00146263,0.0134317,1238,1751,4.155,-14.1723
21,-727,4.14563,14.2224,-0.000986043,-0.00260436,-0.00027154,-0.000941696,-0.00264871,-0.161887,0.00155036,0.0117545,1245,1751,4.14563,-14.2224
28,-727,4.16406,14.2449,-0.00101897,-0.00269329,-0.000239764,-0.00098531,-0.00272695,-0.139467,0.00159446,0.01063,1252,1751,4.16409,-14.2449
35,-727,4.18469,14.2635,-0.000919545,-0.00261939,-0.000295463,-0.000869653,-0.00266928,-0.167283,0.00157198,0.0113278,1259,1751,4.18469,-14.2635
42,-727,4.15051,14.276,-0.000828713,-0.00245994,-0.000339961,-0.000760698,-0.00252796,-0.197459,0.00149759,0.0118088,1266,1751,4.15047,-14.276
49,-727,4.13232,14.2902,-0.00067729,-0.00215332,-0.000321375,-0.000610353,-0.00222026,-0.205347,0.00132446,0.01018,1273,1751,4.1323,-14.2901
56,-727,4.13623,14.3383,-0.00045482,-0.00181811,-0.000325541,-0.000381073,-0.00189186,-0.222776,0.00115536,0.00845183,1280,1751,4.13621,-14.3383
63,-727,4.13831,14.3392,-0.000661337,-0.00126873,-0.000276931,-0.000554032,-0.00137604,-0.369665,0.000799463,0.0104987,1287,1751,4.13834,-14.3393
70,-727,4.16052,14.3259,-0.00100008,-0.000655959,-0.000280132,-0.000499267,-0.00115678,-1.0608,0.000669945,0.0130027,1294,1751,4.16055,-14.3259
77,-727,4.17273,14.3545,-0.00149391,-0.000157345,-0.00022655,-0.000119988,-0.00153126,-1.40737,0.00098329,0.0154883,1301,1751,4.17275,-14.3545
84,-727,4.16638,14.314,-0.00191905,0.00045942,-0.000140456,0.000467686,-0.00192732,-1.51202,0.00146586,0.0143727,1308,1751,4.16637,-14.314
91,-727,4.15833,14.2878,-0.00231347,0.000910956,3.95598e-05,0.000911441,-0.00231395,1.55853,0.00191997,0.0144004,1315,1751,4.15833,-14.2878
98,-727,4.15527,14.3386,-0.00269082,0.00138606,0.00037222,0.00141976,-0.00272453,1.48049,0.00243191,0.0132186,1322,1751,4.15531,-14.3386
105,-727,4.15784,14.3466,-0.00299786,0.00162897,0.000572283,0.0016987,-0.00306759,1.44954,0.00278939,0.0128534,1329,1751,4.15787,-14.3465
112,-727,4.15881,14.3352,-0.00318147,0.00173787,0.000803736,0.00186586,-0.00330945,1.41288,0.00302647,0.0106254,1336,1751,4.15884,-14.3351
119,-727,4.1748,14.3146,-0.00333761,0.00169659,0.000987186,0.00188325,-0.00352427,1.38392,0.00316959,0.0085808,1343,1751,4.17486,-14.3146
126,-727,4.16467,14.2933,-0.00316121,0.00148256,0.00103366,0.00170225,-0.0033809,1.36138,0.00298763,0.0102911,1350,1751,4.16464,-14.2933
133,-727,4.17432,14.2952,-0.00274075,0.00126964,0.00112014,0.0015613,-0.0030324,1.31608,0.00269713,0.0143269,1357,1751,4.17437,-14.2952
140,-727,4.21509,14.2811,-0.00229082,0.00101277,0.00117344,0.00138715,-0.0026652,1.26196,0.00237809,0.0210109,1364,1751,4.21504,-14.2811
147,-727,4.17822,14.2166,-0.00193579,0.000750468,0.00108091,0.00113139,-0.00231671,1.23198,0.00202959,0.0189753,1371,1751,4.17821,-14.2165
154,-727,4.15662,14.1749,-0.00177787,0.000458781,0.000821832,0.000728282,-0.00204737,1.25392,0.00166175,0.011783,1378,1751,4.15661,-14.1749
161,-727,4.17688,14.1616,-0.00177427,0.000259855,0.000449324,0.000354686,-0.0018691,1.3628,0.00137958,0.00868299,1385,1751,4.17684,-14.1616
168,-727,4.16797,14.1383,-0.00159749,0.000118894,-0.000368162,0.000194531,-0.00167313,-1.36817,0.0011856,0.0113425,1392,1751,4.16799,-14.1383
175,-727,4.14807,14.0966,-0.00144072,0.000132533,-0.0008281,0.000488066,-0.00179626,-1.16526,0.00138908,0.0170586,1399,1751,4.14802,-14.0965
182,-727,4.15845,14.0544,-0.00130369,0.000369696,-0.00117397,0.000974617,-0.00190861,-1.095,0.0016935,0.0182689,1406,1751,4.15846,-14.0544
189,-727,4.14844,14.0094,-0.00117344,0.000404173,-0.00204579,0.00180796,-0.00257723,-0.969403,0.00254474,0.011522,1413,1751,4.14848,-14.0094
196,-727,4.15161,13.9576,-0.00122834,0.00064781,-0.00266351,0.00253361,-0.00311414,-0.954713,0.00326647,0.0119554,1420,1751,4.15167,-13.9576
203,-727,4.1239,13.8987,-0.00180863,0.000851462,-0.00333219,0.00310924,-0.00406641,-0.975286,0.00415513,0.01427,1427,1751,4.12395,-13.8986
210,-727,4.11902,13.853,-0.001945,0.000843948,-0.00393905,0.00362807,-0.00472913,-0.955521,0.00483897,0.0146355,1434,1751,4.11906,-13.8531
217,-727,4.14136,13.7869,-0.00436814,0.000517185,-0.00414993,0.00288997,-0.00674092,-1.0514,0.00570664,0.0107971,1441,1751,4.14138,-13.7868
224,-727,4.13733,13.7023,-0.00811685,1.50914e-05,-0.00391043,0.00159036,-0.00969212,-1.18785,0.00705157,0.0110895,1448,1751,4.13728,-13.7023
231,-727,4.13281,13.6503,-0.0124338,-0.000121639,-0.0035813,0.000844293,-0.0133997,-1.30735,0.00922746,0.00920683,1455,1751,4.13285,-13.6502
238,-727,4.1438,13.5732,-0.018363,-0.000240806,-0.00306785,0.000264453,-0.0188683,-1.40757,0.0126679,0.00965482,1462,1751,4.14384,-13.5733
245,-727,4.13647,13.5073,-0.0242461,-0.000336691,-0.00245267,-8.7685e-05,-0.0244951,-1.46962,0.0163009,0.00955921,1469,1751,4.13645,-13.5074
252,-727,4.11633,13.431,-0.0317676,0.00101325,-0.00181469,0.00111341,-0.0318678,-1.51566,0.0216259,0.010628,1476,1751,4.11632,-13.431
259,-727,4.12646,13.3497,-0.0400144,0.0029329,-0.000515194,0.00293908,-0.0400206,-1.5588,0.0277121,0.0134494,1483,1751,4.12652,-13.3497
266,-727,4.19336,13.3463,-0.048121,0.00493315,0.000663076,0.00494144,-0.0481293,1.5583,0.0338538,0.0213152,1490,1751,4.19335,-13.3463
273,-727,4.30823,13.3016,-0.0558359,0.00737112,0.00213827,0.00744338,-0.0559082,1.53702,0.0399849,0.0370014,1497,1751,4.3082,-13.3017
280,-727,4.19629,13.2086,0,0,0,0,0,0,0,-1,1504,1751,4.19629,-13.2086
287,-727,3.9668,12.9852,0,0,0,0,0,0,0,-1,1511,1751,3.96676,-12.9853
294,-727,4.1886,12.8154,0,0,0,0,0,0,0,-1,1518,1751,4.18861,-12.8155
301,-727,4.39319,12.009,-0.0780538,0.0206424,0.00720317,0.0211653,-0.0785768,1.49832,0.0606827,0.0471865,1525,1751,4.39325,-12.009
308,-727,3.70642,12.0806,-0.0784459,0.0238642,0.00813876,0.0245076,-0.0790893,1.49191,0.0625177,0.0468922,1532,1751,3.70648,-12.0806
315,-727,3.61597,11.7466,0,0,0,0,0,0,0,-1,1539,1751,3.61601,-11.7465
322,-727,3.52734,12.2556,0,0,0,0,0,0,0,-1,1546,1751,3.52735,-12.2556
329,-727,6.61853,11.6267,0,0,0,0,0,0,0,-1,1553,1751,6.61859,-11.6267
336,-727,3.34875,7.61792,0,0,0,0,0,0,0,-1,1560,1751,3.34872,-7.61791
343,-727,2.41699,8.72095,0,0,0,0,0,0,0,-1,1567,1751,2.41702,-8.72098
350,-727,3.89783,7.50195,0,0,0,0,0,0,0,-1,1574,1751,3.89782,-7.50193
357,-727,1.34595,5.08008,0,0,0,0,0,0,0,-1,1581,1751,1.34592,-5.08005
364,-727,1.62598,6.45728,0,0,0,0,0,0,0,-1,1588,1751,1.62603,-6.45724
371,-727,1.81128,8.06897,0,0,0,0,0,0,0,-1,1595,1751,1.81125,-8.06896
378,-727,1.68237,9.37512,0,0,0,0,0,0,0,-1,1602,1751,1.68242,-9.3751
385,-727,1.4812,10.5988,0,0,0,0,0,0,0,-1,1609,1751,1.48121,-10.5987
392,-727,0,0,0,0,0,0,0,0,0,-1,1616,1751,0,0
399,-727,0,0,0,0,0,0,0,0,0,-1,1623,1751,0,0
406,-727,0,0,0,0,0,0,0,0,0,-1,1630,1751,0,0
413,-727,0,0,0,0,0,0,0,0,0,-1,1637,1751,0,0
420,-727,0,0,0,0,0,0,0,0,0,-1,1644,1751,0,0
427,-727,0,0,0,0,0,0,0,0,0,-1,1651,1751,0,0
434,-727,0,0,0,0,0,0,0,0,0,-1,1658,1751,0,0
441,-727,0,0,0,0,0,0,0,0,0,-1,1665,1751,0,0
448,-727,0,0,0,0,0,0,0,0,0,-1,1672,1751,0,0
455,-727,0,0,0,0,0,0,0,0,0,-1,1679,1751,0,0
462,-727,0,0,0,0,0,0,0,0,0,-1,1686,1751,0,0
469,-727,0,0,0,0,0,0,0,0,0,-1,1693,1751,0,0
476,-727,0,0,0,0,0,0,0,0,0,-1,1700,1751,0,0
483,-727,0,0,0,0,0,0,0,0,0,-1,1707,1751,0,0
490,-727,0,0,0,0,0,0,0,0,0,-1,1714,1751,0,0
497,-727,0,0,0,0,0,0,0,0,0,-1,1721,1751,0,0
504,-727,0,0,0,0,0,0,0,0,0,-1,1728,1751,0,0
511,-727,0,0,0,0,0,0,0,0,0,-1,1735,1751,0,0
518,-727,0,0,0,0,0,0,0,0,0,-1,1742,1751,0,0
525,-727,0,0,0,0,0,0,0,0,0,-1,1749,1751,0,0
532,-727,0,0,0,0,0,0,0,0,0,-1,1756,1751,0,0
539,-727,0,0,0,0,0,0,0,0,0,-1,1763,1751,0,0
546,-727,0,0,0,0,0,0,0,0,0,-1,1770,1751,0,0
553,-727,0,0,0,0,0,0,0,0,0,-1,1777,1751,0,0
560,-727,0,0,0,0,0,0,0,0,0,-1,1784,1751,0,0
567,-727,0,0,0,0,0,0,0,0,0,-1,1791,1751,0,0
574,-727,0,0,0,0,0,0,0,0,0,-1,1798,1751,0,0
581,-727,0,0,0,0,0,0,0,0,0,-1,1805,1751,0,0
588,-727,0,0,0,0,0,0,0,0,0,-1,1812,1751,0,0
595,-727,0,0,0,0,0,0,0,0,0,-1,1819,1751,0,0
602,-727,0,0,0,0,0,0,0,0,0,-1,1826,1751,0,0
609,-727,0,0,0,0,0,0,0,0,0,-1,1833,1751,0,0
616,-727,0,0,0,0,0,0,0,0,0,-1,1840,1751,0,0
623,-727,0,0,0,0,0,0,0,0,0,-1,1847,1751,0,0
630,-727,0,0,0,0,0,0,0,0,0,-1,1854,1751,0,0
637,-727,0,0,0,0,0,0,0,0,0,-1,1861,1751,0,0
644,-727,0,0,0,0,0,0,0,0,0,-1,1868,1751,0,0
651,-727,0,0,0,0,0,0,0,0,0,-1,1875,1751,0,0
658,-727,0,0,0,0,0,0,0,0,0,-1,1882,1751,0,0
665,-727,0,0,0,0,0,0,0,0,0,-1,1889,1751,0,0
672,-727,0,0,0,0,0,0,0,0,0,-1,1896,1751,0,0
679,-727,0,0,0,0,0,0,0,0,0,-1,1903,1751,0,0
686,-727,0,0,0,0,0,0,0,0,0,-1,1910,1751,0,0
693,-727,0,0,0,0,0,0,0,0,0,-1,1917,1751,0,0
700,-727,0,0,0,0,0,0,0,0,0,-1,1924,1751,0,0
707,-727,0,0,0,0,0,0,0,0,0,-1,1931,1751,0,0
714,-727,0,0,0,0,0,0,0,0,0,-1,1938,1751,0,0
721,-727,0,0,0,0,0,0,0,0,0,-1,1945,1751,0,0
728,-727,0,0,0,0,0,0,0,0,0,-1,1952,1751,0,0
735,-727,0,0,0,0,0,0,0,0,0,-1,1959,1751,0,0
742,-727,0,0,0,0,0,0,0,0,0,-1,1966,1751,0,0
749,-727,0,0,0,0,0,0,0,0,0,-1,1973,1751,0,0
756,-727,0,0,0,0,0,0,0,0,0,-1,1980,1751,0,0
763,-727,0,0,0,0,0,0,0,0,0,-1,1987,1751,0,0
770,-727,0,0,0,0,0,0,0,0,0,-1,1994,1751,0,0
777,-727,0,0,0,0,0,0,0,0,0,-1,2001,1751,0,0
784,-727,0,0,0,0,0,0,0,0,0,-1,2008,1751,0,0
791,-727,0,0,0,0,0,0,0,0,0,-1,2015,1751,0,0
798,-727,0,0,0,0,0,0,0,0,0,-1,2022,1751,0,0
805,-727,0,0,0,0,0,0,0,0,0,-1,2029,1751,0,0
812,-727,0,0,0,0,0,0,0,0,0,-1,2036,1751,0,0
-700,-734,0,0,0,0,0,0,0,0,0,-1,524,1758,0,0
-693,-734,0,0,0,0,0,0,0,0,0,-1,531,1758,0,0
-686,-734,0,0,0,0,0,0,0,0,0,-1,538,1758,0,0
-679,-734,0,0,0,0,0,0,0,0,0,-1,545,1758,0,0
-672,-734,0,0,0,0,0,0,0,0,0,-1,552,1758,0,0
-665,-734,0,0,0,0,0,0,0,0,0,-1,559,1758,0,0
-658,-734,0,0,0,0,0,0,0,0,0,-1,566,1758,0,0
-651,-734,0,0,0,0,0,0,0,0,0,-1,573,1758,0,0
-644,-734,0,0,0,0,0,0,0,0,0,-1,580,1758,0,0
-637,-734,0,0,0,0,0,0,0,0,0,-1,587,1758,0,0
-630,-734,0,0,0,0,0,0,0,0,0,-1,594,1758,0,0
-623,-734,0,0,0,0,0,0,0,0,0,-1,601,1758,0,0
-616,-734,0,0,0,0,0,0,0,0,0,-1,608,1758,0,0
-609,-734,0,0,0,0,0,0,0,0,0,-1,615,1758,0,0
-602,-734,0,0,0,0,0,0,0,0,0,-1,622,1758,0,0
-595,-734,0,0,0,0,0,0,0,0,0,-1,629,1758,0,0
-588,-734,0,0,0,0,0,0,0,0,0,-1,636,1758,0,0
-581,-734,0,0,0,0,0,0,0,0,0,-1,643,1758,0,0
-574,-734,0,0,0,0,0,0,0,0,0,-1,650,1758,0,0
-567,-734,0,0,0,0,0,0,0,0,0,-1,657,1758,0,0
-560,-734,0,0,0,0,0,0,0,0,0,-1,664,1758,0,0
-553,-734,0,0,0,0,0,0,0,0,0,-1,671,1758,0,0
-546,-734,0,0,0,0,0,0,0,0,0,-1,678,1758,0,0
-539,-734,0,0,0,0,0,0,0,0,0,-1,685,1758,0,0
-532,-734,0,0,0,0,0,0,0,0,0,-1,692,1758,0,0
-525,-734,0,0,0,0,0,0,0,0,0,-1,699,1758,0,0
-518,-734,0,0,0,0,0,0,0,0,0,-1,706,1758,0,0
-511,-734,0,0,0,0,0,0,0,0,0,-1,713,1758,0,0
-504,-734,0,0,0,0,0,0,0,0,0,-1,720,1758,0,0
-497,-734,0,0,0,0,0,0,0,0,0,-1,727,1758,0,0
-490,-734,0,0,0,0,0,0,0,0,0,-1,734,1758,0,0
-483,-734,0,0,0,0,0,0,0,0,0,-1,741,1758,0,0
-476,-734,0,0,0,0,0,0,0,0,0,-1,748,1758,0,0
-469,-734,0,0,0,0,0,0,0,0,0,-1,755,1758,0,0
-462,-734,0,0,0,0,0,0,0,0,0,-1,762,1758,0,0
-455,-734,0,0,0,0,0,0,0,0,0,-1,769,1758,0,0
-448,-734,0,0,0,0,0,0,0,0,0,-1,776,1758,0,0
-441,-734,0,0,0,0,0,0,0,0,0,-1,783,1758,0,0
-434,-734,0,0,0,0,0,0,0,0,0,-1,790,1758,0,0
-427,-734,0,0,0,0,0,0,0,0,0,-1,797,1758,0,0
-420,-734,0,0,0,0,0,0,0,0,0,-1,804,1758,0,0
-413,-734,0,0,0,0,0,0,0,0,0,-1,811,1758,0,0
-406,-734,0,0,0,0,0,0,0,0,0,-1,818,1758,0,0
-399,-734,0,0,0,0,0,0,0,0,0,-1,825,1758,0,0
-392,-734,0,0,0,0,0,0,0,0,0,-1,832,1758,0,0
-385,-734,0,0,0,0,0,0,0,0,0,-1,839,1758,0,0
-378,-734,0,0,0,0,0,0,0,0,0,-1,846,1758,0,0
-371,-734,0,0,0,0,0,0,0,0,0,-1,853,1758,0,0
-364,-734,0,0,0,0,0,0,0,0,0,-1,860,1758,0,0
-357,-734,0,0,0,0,0,0,0,0,0,-1,867,1758,0,0
-350,-734,0,0,0,0,0,0,0,0,0,-1,874,1758,0,0
-343,-734,0,0,0,0,0,0,0,0,0,-1,881,1758,0,0
-336,-734,0,0,0,0,0,0,0,0,0,-1,888,1758,0,0
-329,-734,0,0,0,0,0,0,0,0,0,-1,895,1758,0,0
-322,-734,0,0,0,0,0,0,0,0,0,-1,902,1758,0,0
-315,-734,0,0,0,0,0,0,0,0,0,-1,909,1758,0,0
-308,-734,0,0,0,0,0,0,0,0,0,-1,916,1758,0,0
-301,-734,0,0,0,0,0,0,0,0,0,-1,923,1758,0,0
-294,-734,0,0,0,0,0,0,0,0,0,-1,930,1758,0,0
-287,-734,0,0,0,0,0,0,0,0,0,-1,937,1758,0,0
-280,-734,0,0,0,0,0,0,0,0,0,-1,944,1758,0,0
-273,-734,0,0,0,0,0,0,0,0,0,-1,951,1758,0,0
-266,-734,0,0,0,0,0,0,0,0,0,-1,958,1758,0,0
-259,-734,0,0,0,0,0,0,0,0,0,-1,965,1758,0,0
-252,-734,5.57068,5.35791,0,0,0,0,0,0,0,-1,972,1758,5.57068,-5.3579
-245,-734,6.83002,6.19312,0,0,0,0,0,0,0,-1,979,1758,6.83001,-6.19311
-238,-734,4.73474,14.3193,0,0,0,0,0,0,0,-1,986,1758,4.73471,-14.3193
-231,-734,4.94348,12.5161,0,0,0,0,0,0,0,-1,993,1758,4.94347,-12.5161
-224,-734,4.56622,11.6503,-0.0278816,-0.00977958,-0.0461501,0.0281987,-0.0658599,-0.88223,0.0557369,0.0464908,1000,1758,4.56625,-11.6503
-217,-734,3.96307,10.6863,-0.0234426,-0.00920498,-0.0404828,0.0247801,-0.0574277,-0.872432,0.0486943,0.0399868,1007,1758,3.96306,-10.6863
-210,-734,4.45264,10.1736,0,0,0,0,0,0,0,-1,1014,1758,4.45266,-10.1735
-203,-734,4.99219,9.97192,0,0,0,0,0,0,0,-1,1021,1758,4.99223,-9.97188
-196,-734,4.35144,13.0503,0,0,0,0,0,0,0,-1,1028,1758,4.3514,-13.0503
-189,-734,4.3114,12.3699,0,0,0,0,0,0,0,-1,1035,1758,4.31137,-12.3699
-182,-734,4.45557,12.1371,-0.00550334,-0.00327999,-0.014038,0.00969034,-0.0184737,-0.824911,0.016522,0.0465188,1042,1758,4.45555,-12.137
-175,-734,4.53308,12.047,-0.00456222,-0.00111661,-0.0111014,0.00839484,-0.0140737,-0.862378,0.0131096,0.0495438,1049,1758,4.53303,-12.0469
-168,-734,4.69568,12.3578,0,0,0,0,0,0,0,-1,1056,1758,4.69565,-12.3578
-161,-734,3.51257,9.94104,0,0,0,0,0,0,0,-1,1063,1758,3.51257,-9.94101
-154,-734,4.58606,12.5251,0,0,0,0,0,0,0,-1,1070,1758,4.58611,-12.5252
-147,-734,4.60339,12.8071,0,0,0,0,0,0,0,-1,1077,1758,4.60338,-12.8072
-140,-734,4.37158,12.5896,-0.0154146,0.00748209,-0.00521897,0.00861557,-0.0165481,-1.35693,0.0147669,0.0407373,1084,1758,4.37159,-12.5896
-133,-734,4.40393,12.7489,-0.0169184,0.00853009,-0.0052392,0.0095665,-0.0179548,-1.3755,0.0161336,0.0374528,1091,1758,4.4039,-12.7489
-126,-734,4.3186,12.8173,-0.0184018,0.00936368,-0.00529301,0.0103385,-0.0193766,-1.38867,0.0174185,0.0351467,1098,1758,4.31866,-12.8173
-119,-734,4.25732,12.9585,-0.0190803,0.00914427,-0.00522894,0.0100818,-0.0200179,-1.39338,0.0176909,0.0354002,1105,1758,4.25735,-12.9585
-112,-734,4.19751,13.0668,-0.0186013,0.00905217,-0.00506122,0.00994938,-0.0194985,-1.39535,0.0172971,0.0278113,1112,1758,4.19751,-13.0668
-105,-734,4.2323,13.1593,-0.0177279,0.00866515,-0.00481946,0.00951766,-0.0185804,-1.39572,0.0165013,0.0205817,1119,1758,4.23236,-13.1593
-98,-734,4.27405,13.2336,-0.0165141,0.00817252,-0.00445183,0.0089508,-0.0172924,-1.39772,0.0154045,0.0163348,1126,1758,4.27403,-13.2336
-91,-734,4.29333,13.2947,-0.0148475,0.00755967,-0.00402152,0.00825957,-0.0155474,-1.39848,0.013958,0.0192184,1133,1758,4.29338,-13.2947
-84,-734,4.26074,13.3872,-0.0129173,0.00676007,-0.00355708,0.00738334,-0.0135405,-1.39734,0.0122535,0.0169854,1140,1758,4.2607,-13.3872
-77,-734,4.23401,13.4858,-0.0106113,0.00565604,-0.00300307,0.00619272,-0.0111479,-1.39395,0.010147,0.0153151,1147,1758,4.23402,-13.4859
-70,-734,4.22754,13.5371,-0.00832392,0.00427993,-0.00227659,0.00467854,-0.00872253,-1.39746,0.00785366,0.0112619,1154,1758,4.22756,-13.5371
-63,-734,4.23804,13.6281,-0.00571215,0.00276647,-0.00173812,0.00310895,-0.00605463,-1.37625,0.00538094,0.0107453,1161,1758,4.23806,-13.628
-56,-734,4.24023,13.6991,-0.00211727,0.00176212,-0.00147114,0.0022569,-0.00261205,-1.24636,0.00281358,0.0117265,1168,1758,4.24026,-13.699
-49,-734,4.22449,13.7653,0.000298975,0.0011845,-0.000742773,0.00160646,-0.000122989,-1.05417,0.00111423,0.0111749,1175,1758,4.22446,-13.7652
-42,-734,4.2262,13.8475,0.000238489,0.00155258,-0.000419219,0.00167493,0.000116142,-1.28684,0.00107999,0.0128186,1182,1758,4.22618,-13.8475
-35,-734,4.23755,13.891,-0.000105184,0.00127839,-0.000562384,0.00147814,-0.000304938,-1.2295,0.00110124,0.0138255,1189,1758,4.23749,-13.891
-28,-734,4.22095,13.9084,-0.000128745,0.00117876,-0.0006298,0.00143277,-0.00038276,-1.18743,0.00110509,0.00935429,1196,1758,4.22092,-13.9084
-21,-734,4.25708,13.9518,-0.000421206,0.000683838,-0.000621352,0.000962796,-0.000700165,-1.14881,0.000964094,0.0141972,1203,1758,4.25709,-13.9518
-14,-734,4.20618,14.0485,-0.000698162,0.00016137,-0.000522638,0.00040825,-0.000945041,-1.12949,0.00080155,0.0152146,1210,1758,4.20614,-14.0485
-7,-734,4.20496,14.084,-0.00105545,-0.00030398,-0.000348967,-0.000166924,-0.00119251,-1.19656,0.000745617,0.0168157,1217,1758,4.20498,-14.084
0,-734,4.19934,14.1111,-0.00150584,-0.000871029,-0.000149413,-0.000837621,-0.00153925,-1.35082,0.000889841,0.0169871,1224,1758,4.19929,-14.1111
7,-734,4.17261,14.1436,-0.00202893,-0.00144269,6.60495e-06,-0.00144262,-0.002029,1.55953,0.00120571,0.0129671,1231,1758,4.17255,-14.1435
14,-734,4.15479,14.189,-0.00243263,-0.00194119,0.000111445,-0.0019171,-0.00245672,1.35789,0.00149086,0.0132465,1238,1758,4.15479,-14.189
21,-734,4.14734,14.2235,-0.00274628,-0.00233945,0.000201641,-0.00225645,-0.00282929,1.18029,0.00172721,0.0118516,1245,1758,4.14739,-14.2235
28,-734,4.17236,14.2455,-0.00293774,-0.00255023,0.000263742,-0.00241673,-0.00307125,1.1022,0.00186795,0.0111683,1252,1758,4.17239,-14.2455
35,-734,4.20105,14.2758,-0.00295717,-0.00242329,0.000227791,-0.00233931,-0.00304115,1.21758,0.00183869,0.0131603,1259,1758,4.20104,-14.2758
42,-734,4.19946,14.2769,-0.00298872,-0.00218783,0.000178156,-0.00214999,-0.00302656,1.3615,0.0017982,0.0115918,1266,1758,4.19946,-14.2768
49,-734,4.16711,14.2905,-0.00290061,-0.00180798,0.000178928,-0.00177943,-0.00292916,1.41254,0.00170413,0.00973715,1273,1758,4.16711,-14.2905
56,-734,4.14807,14.3339,-0.0026709,-0.0013824,8.37087e-05,-0.00137698,-0.00267632,1.50619,0.00154539,0.00888699,1280,1758,4.14811,-14.3339
63,-734,4.1543,14.3298,-0.00299968,-0.000749163,3.28464e-05,-0.000748684,-0.00300016,1.55621,0.00180312,0.0117081,1287,1758,4.15431,-14.3298
70,-734,4.14673,14.3312,-0.00352714,9.76082e-05,-2.95284e-06,9.76105e-05,-0.00352714,-1.56998,0.00238463,0.0123222,1294,1758,4.14669,-14.3312
77,-734,4.16296,14.3915,-0.00429195,0.000896624,-0.000108432,0.000898889,-0.00429421,-1.54991,0.00320474,0.0171072,1301,1758,4.16298,-14.3915
84,-734,4.17395,14.3671,-0.00483452,0.00167101,-0.000132816,0.00167372,-0.00483723,-1.55039,0.0039042,0.0163298,1308,1758,4.174,-14.3671
91,-734,4.18164,14.3387,-0.00555854,0.00216288,-0.000136576,0.00216529,-0.00556096,-1.55312,0.00460212,0.0161534,1315,1758,4.18167,-14.3388
98,-734,4.18164,14.3616,-0.00634474,0.00243235,-0.000107056,0.00243365,-0.00634604,-1.5586,0.00523403,0.0128101,1322,1758,4.18165,-14.3616
105,-734,4.18469,14.3551,-0.00703377,0.00255317,-0.000104753,0.00255432,-0.00703491,-1.55987,0.00573426,0.0142051,1329,1758,4.18473,-14.3551
112,-734,4.17896,14.3314,-0.00760499,0.00251503,-7.51943e-05,0.00251559,-0.00760555,-1.56337,0.00608477,0.0118783,1336,1758,4.17894,-14.3314
119,-734,4.17029,14.2882,-0.00804405,0.00225365,-8.13996e-05,0.00225429,-0.00804469,-1.56289,0.00625154,0.0126397,1343,1758,4.17026,-14.2883
126,-734,4.15637,14.2629,-0.0081286,0.00189378,-9.43294e-05,0.00189467,-0.00812948,-1.56139,0.00614929,0.0157056,1350,1758,4.15635,-14.2629
133,-734,4.1449,14.2665,-0.0078982,0.00152092,-8.00353e-05,0.0015216,-0.00789888,-1.5623,0.00583958,0.0136424,1357,1758,4.1449,-14.2664
140,-734,4.17419,14.2412,-0.007419,0.00106715,-8.72092e-06,0.00106716,-0.00741901,-1.56977,0.00533741,0.0185698,1364,1758,4.17424,-14.2412
147,-734,4.15759,14.1998,-0.00676366,0.000782172,3.68864e-05,0.000782352,-0.00676384,1.56591,0.00479135,0.0142928,1371,1758,4.15765,-14.1998
154,-734,4.13916,14.1984,-0.00610913,0.000624899,-1.93906e-05,0.000624954,-0.00610919,-1.56792,0.00429629,0.00927177,1378,1758,4.13915,-14.1984
161,-734,4.13818,14.171,-0.00547798,0.000568672,-0.000148636,0.000572324,-0.00548163,-1.54623,0.00385937,0.00847776,1385,1758,4.13819,-14.171
168,-734,4.10876,14.1263,-0.00439331,0.000579374,-0.00103638,0.000786723,-0.00460066,-1.37333,0.00336019,0.0135026,1392,1758,4.10872,-14.1263
175,-734,4.10596,14.1036,-0.00322429,0.000582453,-0.00140024,0.00104202,-0.00368386,-1.25367,0.00286708,0.016061,1399,1758,4.10597,-14.1036
182,-734,4.13879,14.0365,-0.00230043,0.000618795,-0.00169109,0.00139307,-0.00307471,-1.14143,0.00263968,0.0145311,1406,1758,4.13878,-14.0364
189,-734,4.13074,13.9907,-0.00204095,0.000489368,-0.00316788,0.00263538,-0.00418695,-0.97538,0.00397269,0.0111921,1413,1758,4.13072,-13.9907
196,-734,4.11829,13.9497,-0.00216519,0.000705772,-0.00414715,0.00365885,-0.00511827,-0.952012,0.00509077,0.0115725,1420,1758,4.11827,-13.9497
203,-734,4.11462,13.8926,-0.00331454,0.000886416,-0.00521543,0.00440846,-0.00683658,-0.976833,0.00654258,0.0115262,1427,1758,4.11458,-13.8926
210,-734,4.10022,13.8405,-0.00354081,0.000884258,-0.00606983,0.00513223,-0.00778878,-0.960171,0.00751232,0.0120679,1434,1758,4.10019,-13.8404
217,-734,4.08594,13.7876,-0.00749264,0.000455444,-0.0061769,0.00382627,-0.0108635,-1.07125,0.00879954,0.0102728,1441,1758,4.08592,-13.7876
224,-734,4.08606,13.7147,-0.0131648,-0.000234974,-0.00566189,0.00189383,-0.0152937,-1.21116,0.0108821,0.0119147,1448,1758,4.08602,-13.7147
231,-734,4.08105,13.6619,-0.0192976,-0.000410469,-0.00508976,0.000873804,-0.0205819,-1.32363,0.0140216,0.0133043,1455,1758,4.08106,-13.6618
238,-734,4.11499,13.585,-0.0275387,-0.000588897,-0.00425225,6.61192e-05,-0.0281937,-1.41796,0.0188179,0.015841,1462,1758,4.11504,-13.585
245,-734,4.11023,13.4666,-0.0357845,-0.000767147,-0.00323253,-0.000471247,-0.0360804,-1.47951,0.0238981,0.020806,1469,1758,4.11018,-13.4665
252,-734,4.05115,13.3756,-0.0459412,0.000649598,-0.00214387,0.00074804,-0.0460397,-1.52491,0.0309455,0.0273499,1476,1758,4.05111,-13.3756
259,-734,4.23938,13.4043,-0.0569628,0.00278306,-0.000326021,0.00278484,-0.0569646,-1.56534,0.0389379,0.036288,1483,1758,4.23935,-13.4043
266,-734,4.36938,13.4376,-0.0679736,0.00510769,0.00135165,0.00513268,-0.0679986,1.55231,0.0471365,0.047431,1490,1758,4.3694,-13.4376
273,-734,4.44092,13.5878,0,0,0,0,0,0,0,-1,1497,1758,4.44087,-13.5878
280,-734,16.6191,7.38013,0,0,0,0,0,0,0,-1,1504,1758,16.6192,-7.38011
287,-734,14.5862,6.93896,0,0,0,0,0,0,0,-1,1511,1758,14.5862,-6.93898
294,-734,4.57043,11.5205,0,0,0,0,0,0,0,-1,1518,1758,4.57042,-11.5205
301,-734,4.67419,11.4003,-0.110354,0.0249365,0.0104281,0.0257356,-0.111153,1.49432,0.0840053,0.0497085,1525,1758,4.67421,-11.4002
308,-734,3.10498,11.647,-0.112022,0.0293429,0.0119145,0.0303401,-0.11302,1.4873,0.0872365,0.0456396,1532,1758,3.10493,-11.647
315,-734,1.90796,11.879,0,0,0,0,0,0,0,-1,1539,1758,1.90792,-11.879
322,-734,4.17163,11.5508,0,0,0,0,0,0,0,-1,1546,1758,4.17163,-11.5508
329,-734,5.45972,12.4125,0,0,0,0,0,0,0,-1,1553,1758,5.45969,-12.4125
336,-734,5.92188,13.8751,0,0,0,0,0,0,0,-1,1560,1758,5.92183,-13.8751
343,-734,5.54968,5.14221,0,0,0,0,0,0,0,-1,1567,1758,5.54973,-5.14225
350,-734,5.07397,6.73242,0,0,0,0,0,0,0,-1,1574,1758,5.07402,-6.73243
357,-734,5.05542,7.19189,0,0,0,0,0,0,0,-1,1581,1758,5.05541,-7.19184
364,-734,1.31287,6.05872,0,0,0,0,0,0,0,-1,1588,1758,1.31283,-6.05868
371,-734,1.57007,7.77197,0,0,0,0,0,0,0,-1,1595,1758,1.57008,-7.77196
378,-734,0,0,0,0,0,0,0,0,0,-1,1602,1758,0,0
385,-734,0,0,0,0,0,0,0,0,0,-1,1609,1758,0,0
392,-734,0,0,0,0,0,0,0,0,0,-1,1616,1758,0,0
399,-734,0,0,0,0,0,0,0,0,0,-1,1623,1758,0,0
406,-734,0,0,0,0,0,0,0,0,0,-1,1630,1758,0,0
413,-734,0,0,0,0,0,0,0,0,0,-1,1637,1758,0,0
420,-734,0,0,0,0,0,0,0,0,0,-1,1644,1758,0,0
427,-734,0,0,0,0,0,0,0,0,0,-1,1651,1758,0,0
434,-734,0,0,0,0,0,0,0,0,0,-1,1658,1758,0,0
441,-734,0,0,0,0,0,0,0,0,0,-1,1665,1758,0,0
448,-734,0,0,0,0,0,0,0,0,0,-1,1672,1758,0,0
455,-734,0,0,0,0,0,0,0,0,0,-1,1679,1758,0,0
462,-734,0,0,0,0,0,0,0,0,0,-1,1686,1758,0,0
469,-734,0,0,0,0,0,0,0,0,0,-1,1693,1758,0,0
476,-734,0,0,0,0,0,0,0,0,0,-1,1700,1758,0,0
483,-734,0,0,0,0,0,0,0,0,0,-1,1707,1758,0,0
490,-734,0,0,0,0,0,0,0,0,0,-1,1714,1758,0,0
497,-734,0,0,0,0,0,0,0,0,0,-1,1721,1758,0,0
504,-734,0,0,0,0,0,0,0,0,0,-1,1728,1758,0,0
511,-734,0,0,0,0,0,0,0,0,0,-1,1735,1758,0,0
518,-734,0,0,0,0,0,0,0,0,0,-1,1742,1758,0,0
525,-734,0,0,0,0,0,0,0,0,0,-1,1749,1758,0,0
532,-734,0,0,0,0,0,0,0,0,0,-1,1756,1758,0,0
539,-734,0,0,0,0,0,0,0,0,0,-1,1763,1758,0,0
546,-734,0,0,0,0,0,0,0,0,0,-1,1770,1758,0,0
553,-734,0,0,0,0,0,0,0,0,0,-1,1777,1758,0,0
560,-734,0,0,0,0,0,0,0,0,0,-1,1784,1758,0,0
567,-734,0,0,0,0,0,0,0,0,0,-1,1791,1758,0,0
574,-734,0,0,0,0,0,0,0,0,0,-1,1798,1758,0,0
581,-734,0,0,0,0,0,0,0,0,0,-1,1805,1758,0,0
588,-734,0,0,0,0,0,0,0,0,0,-1,1812,1758,0,0
595,-734,0,0,0,0,0,0,0,0,0,-1,1819,1758,0,0
602,-734,0,0,0,0,0,0,0,0,0,-1,1826,1758,0,0
609,-734,0,0,0,0,0,0,0,0,0,-1,1833,1758,0,0
616,-734,0,0,0,0,0,0,0,0,0,-1,1840,1758,0,0
623,-734,0,0,0,0,0,0,0,0,0,-1,1847,1758,0,0
630,-734,0,0,0,0,0,0,0,0,0,-1,1854,1758,0,0
637,-734,0,0,0,0,0,0,0,0,0,-1,1861,1758,0,0
644,-734,0,0,0,0,0,0,0,0,0,-1,1868,1758,0,0
651,-734,0,0,0,0,0,0,0,0,0,-1,1875,1758,0,0
658,-734,0,0,0,0,0,0,0,0,0,-1,1882,1758,0,0
665,-734,0,0,0,0,0,0,0,0,0,-1,1889,1758,0,0
672,-734,0,0,0,0,0,0,0,0,0,-1,1896,1758,0,0
679,-734,0,0,0,0,0,0,0,0,0,-1,1903,1758,0,0
686,-734,0,0,0,0,0,0,0,0,0,-1,1910,1758,0,0
693,-734,0,0,0,0,0,0,0,0,0,-1,1917,1758,0,0
700,-734,0,0,0,0,0,0,0,0,0,-1,1924,1758,0,0
707,-734,0,0,0,0,0,0,0,0,0,-1,1931,1758,0,0
714,-734,0,0,0,0,0,0,0,0,0,-1,1938,1758,0,0
721,-734,0,0,0,0,0,0,0,0,0,-1,1945,1758,0,0
728,-734,0,0,0,0,0,0,0,0,0,-1,1952,1758,0,0
735,-734,0,0,0,0,0,0,0,0,0,-1,1959,1758,0,0
742,-734,0,0,0,0,0,0,0,0,0,-1,1966,1758,0,0
749,-734,0,0,0,0,0,0,0,0,0,-1,1973,1758,0,0
756,-734,0,0,0,0,0,0,0,0,0,-1,1980,1758,0,0
763,-734,0,0,0,0,0,0,0,0,0,-1,1987,1758,0,0
770,-734,0,0,0,0,0,0,0,0,0,-1,1994,1758,0,0
777,-734,0,0,0,0,0,0,0,0,0,-1,2001,1758,0,0
784,-734,0,0,0,0,0,0,0,0,0,-1,2008,1758,0,0
791,-734,0,0,0,0,0,0,0,0,0,-1,2015,1758,0,0
798,-734,0,0,0,0,0,0,0,0,0,-1,2022,1758,0,0
805,-734,0,0,0,0,0,0,0,0,0,-1,2029,1758,0,0
812,-734,0,0,0,0,0,0,0,0,0,-1,2036,1758,0,0
-700,-741,0,0,0,0,0,0,0,0,0,-1,524,1765,0,0
-693,-741,0,0,0,0,0,0,0,0,0,-1,531,1765,0,0
-686,-741,0,0,0,0,0,0,0,0,0,-1,538,1765,0,0
-679,-741,0,0,0,0,0,0,0,0,0,-1,545,1765,0,0
-672,-741,0,0,0,0,0,0,0,0,0,-1,552,1765,0,0
-665,-741,0,0,0,0,0,0,0,0,0,-1,559,1765,0,0
-658,-741,0,0,0,0,0,0,0,0,0,-1,566,1765,0,0
-651,-741,0,0,0,0,0,0,0,0,0,-1,573,1765,0,0
-644,-741,0,0,0,0,0,0,0,0,0,-1,580,1765,0,0
-637,-741,0,0,0,0,0,0,0,0,0,-1,587,1765,0,0
-630,-741,0,0,0,0,0,0,0,0,0,-1,594,1765,0,0
-623,-741,0,0,0,0,0,0,0,0,0,-1,601,1765,0,0
-616,-741,0,0,0,0,0,0,0,0,0,-1,608,1765,0,0
-609,-741,0,0,0,0,0,0,0,0,0,-1,615,1765,0,0
-602,-741,0,0,0,0,0,0,0,0,0,-1,622,1765,0,0
-595,-741,0,0,0,0,0,0,0,0,0,-1,629,1765,0,0
-588,-741,0,0,0,0,0,0,0,0,0,-1,636,1765,0,0
-581,-741,0,0,0,0,0,0,0,0,0,-1,643,1765,0,0
-574,-741,0,0,0,0,0,0,0,0,0,-1,650,1765,0,0
-567,-741,0,0,0,0,0,0,0,0,0,-1,657,1765,0,0
-560,-741,0,0,0,0,0,0,0,0,0,-1,664,1765,0,0
-553,-741,0,0,0,0,0,0,0,0,0,-1,671,1765,0,0
-546,-741,0,0,0,0,0,0,0,0,0,-1,678,1765,0,0
-539,-741,0,0,0,0,0,0,0,0,0,-1,685,1765,0,0
-532,-741,0,0,0,0,0,0,0,0,0,-1,692,1765,0,0
-525,-741,0,0,0,0,0,0,0,0,0,-1,699,1765,0,0
-518,-741,0,0,0,0,0,0,0,0,0,-1,706,1765,0,0
-511,-741,0,0,0,0,0,0,0,0,0,-1,713,1765,0,0
-504,-741,0,0,0,0,0,0,0,0,0,-1,720,1765,0,0
-497,-741,0,0,0,0,0,0,0,0,0,-1,727,1765,0,0
-490,-741,0,0,0,0,0,0,0,0,0,-1,734,1765,0,0
-483,-741,0,0,0,0,0,0,0,0,0,-1,741,1765,0,0
-476,-741,0,0,0,0,0,0,0,0,0,-1,748,1765,0,0
-469,-741,0,0,0,0,0,0,0,0,0,-1,755,1765,0,0
-462,-741,0,0,0,0,0,0,0,0,0,-1,762,1765,0,0
-455,-741,0,0,0,0,0,0,0,0,0,-1,769,1765,0,0
-448,-741,0,0,0,0,0,0,0,0,0,-1,776,1765,0,0
-441,-741,0,0,0,0,0,0,0,0,0,-1,783,1765,0,0
-434,-741,0,0,0,0,0,0,0,0,0,-1,790,1765,0,0
-427,-741,0,0,0,0,0,0,0,0,0,-1,797,1765,0,0
-420,-741,0,0,0,0,0,0,0,0,0,-1,804,1765,0,0
-413,-741,0,0,0,0,0,0,0,0,0,-1,811,1765,0,0
-406,-741,0,0,0,0,0,0,0,0,0,-1,818,1765,0,0
-399,-741,0,0,0,0,0,0,0,0,0,-1,825,1765,0,0
-392,-741,0,0,0,0,0,0,0,0,0,-1,832,1765,0,0
-385,-741,0,0,0,0,0,0,0,0,0,-1,839,1765,0,0
-378,-741,0,0,0,0,0,0,0,0,0,-1,846,1765,0,0
-371,-741,0,0,0,0,0,0,0,0,0,-1,853,1765,0,0
-364,-741,0,0,0,0,0,0,0,0,0,-1,860,1765,0,0
-357,-741,0,0,0,0,0,0,0,0,0,-1,867,1765,0,0
-350,-741,0,0,0,0,0,0,0,0,0,-1,874,1765,0,0
-343,-741,0,0,0,0,0,0,0,0,0,-1,881,1765,0,0
-336,-741,0,0,0,0,0,0,0,0,0,-1,888,1765,0,0
-329,-741,0,0,0,0,0,0,0,0,0,-1,895,1765,0,0
-322,-741,0,0,0,0,0,0,0,0,0,-1,902,1765,0,0
-315,-741,0,0,0,0,0,0,0,0,0,-1,909,1765,0,0
-308,-741,0,0,0,0,0,0,0,0,0,-1,916,1765,0,0
-301,-741,0,0,0,0,0,0,0,0,0,-1,923,1765,0,0
-294,-741,0,0,0,0,0,0,0,0,0,-1,930,1765,0,0
-287,-741,0,0,0,0,0,0,0,0,0,-1,937,1765,0,0
-280,-741,0,0,0,0,0,0,0,0,0,-1,944,1765,0,0
-273,-741,0,0,0,0,0,0,0,0,0,-1,951,1765,0,0
-266,-741,0,0,0,0,0,0,0,0,0,-1,958,1765,0,0
-259,-741,0,0,0,0,0,0,0,0,0,-1,965,1765,0,0
-252,-741,0,0,0,0,0,0,0,0,0,-1,972,1765,0,0
-245,-741,0,0,0,0,0,0,0,0,0,-1,979,1765,0,0
-238,-741,5.21851,13.642,0,0,0,0,0,0,0,-1,986,1765,5.2185,-13.6419
-231,-741,5.2019,13.5708,0,0,0,0,0,0,0,-1,993,1765,5.20192,-13.5708
-224,-741,4.6507,11.7822,0,0,0,0,0,0,0,-1,1000,1765,4.65068,-11.7823
-217,-741,3.39026,10.552,0,0,0,0,0,0,0,-1,1007,1765,3.39025,-10.552
-210,-741,4.43164,10.4541,0,0,0,0,0,0,0,-1,1014,1765,4.43165,-10.4541
-203,-741,4.42908,14.2213,0,0,0,0,0,0,0,-1,1021,1765,4.42905,-14.2214
-196,-741,4.56689,13.7816,0,0,0,0,0,0,0,-1,1028,1765,4.56694,-13.7816
-189,-741,4.19446,13.1483,0,0,0,0,0,0,0,-1,1035,1765,4.1944,-13.1484
-182,-741,4.54199,12.5651,0,0,0,0,0,0,0,-1,1042,1765,4.54199,-12.565
-175,-741,4.88953,11.9817,0,0,0,0,0,0,0,-1,1049,1765,4.88958,-11.9817
-168,-741,2.96594,8.87219,0,0,0,0,0,0,0,-1,1056,1765,2.96592,-8.87218
-161,-741,2.7699,9.14465,0,0,0,0,0,0,0,-1,1063,1765,2.76992,-9.14465
-154,-741,2.46143,9.75415,0,0,0,0,0,0,0,-1,1070,1765,2.46145,-9.75416
-147,-741,4.229,9.21167,0,0,0,0,0,0,0,-1,1077,1765,4.22896,-9.21167
-140,-741,4.49512,12.6318,0,0,0,0,0,0,0,-1,1084,1765,4.49512,-12.6319
-133,-741,4.62585,12.8875,0,0,0,0,0,0,0,-1,1091,1765,4.62591,-12.8875
-126,-741,4.76501,12.6941,-0.0291467,0.0129463,-0.00806186,0.0144375,-0.0306379,-1.38789,0.0265787,0.0472731,1098,1765,4.76501,-12.6941
-119,-741,4.58313,12.8031,-0.0300474,0.0125992,-0.00796806,0.0140393,-0.0314875,-1.39199,0.0269207,0.0450076,1105,1765,4.58318,-12.8031
-112,-741,4.39539,13.0735,0,0,0,0,0,0,0,-1,1112,1765,4.39543,-13.0734
-105,-741,4.31885,13.1195,-0.0281137,0.0118481,-0.00739652,0.0131732,-0.0294388,-1.39353,0.0251924,0.0387757,1119,1765,4.31881,-13.1195
-98,-741,4.37341,13.2074,-0.0264176,0.0111909,-0.00692279,0.0124247,-0.0276514,-1.39442,0.0236881,0.0397045,1126,1765,4.37341,-13.2074
-91,-741,4.42725,13.162,-0.0240724,0.0103461,-0.00635039,0.0114804,-0.0252067,-1.39404,0.0216698,0.0492185,1133,1765,4.42721,-13.1619
-84,-741,4.45422,13.1135,0,0,0,0,0,0,0,-1,1140,1765,4.45424,-13.1136
-77,-741,4.27979,13.2745,0,0,0,0,0,0,0,-1,1147,1765,4.27975,-13.2745
-70,-741,4.32129,13.4899,0,0,0,0,0,0,0,-1,1154,1765,4.32125,-13.4899
-63,-741,4.25659,13.5598,0,0,0,0,0,0,0,-1,1161,1765,4.25664,-13.5598
-56,-741,4.33142,13.6614,0,0,0,0,0,0,0,-1,1168,1765,4.33141,-13.6614
-49,-741,4.2854,13.7629,0,0,0,0,0,0,0,-1,1175,1765,4.28543,-13.7629
-42,-741,4.23132,13.8213,0,0,0,0,0,0,0,-1,1182,1765,4.23138,-13.8213
-35,-741,4.25867,13.8733,0.000424935,0.00247814,0.00108943,0.00294846,-4.53842e-05,1.16326,0.00198094,0.0185105,1189,1765,4.25865,-13.8732
-28,-741,4.27258,13.9381,-7.83016e-05,0.00259027,0.00111342,0.0029938,-0.000481839,1.22309,0.00217435,0.0128894,1196,1765,4.27253,-13.9381
-21,-741,4.29297,14.0006,-0.000850084,0.002106,0.00109172,0.00246547,-0.00120956,1.25271,0.00216268,0.0161838,1203,1765,4.29291,-14.0007
-14,-741,4.24731,14.0541,-0.00158234,0.00155857,0.00106044,0.00188307,-0.00190684,1.27384,0.00218812,0.0172586,1210,1765,4.24732,-14.054
-7,-741,4.23596,14.0698,-0.00233518,0.00107919,0.00109916,0.00140243,-0.00265843,1.28478,0.00238162,0.01456,1217,1765,4.23591,-14.0698
0,-741,4.22754,14.0964,-0.00315728,0.000452795,0.00116428,0.000795711,-0.00350019,1.28436,0.00263899,0.0155229,1224,1765,4.22749,-14.0965
7,-741,4.19299,14.1283,-0.00403511,-0.000253217,0.00119227,9.12764e-05,-0.0043796,1.28952,0.00295063,0.017963,1231,1765,4.19304,-14.1283
14,-741,4.20239,14.1692,-0.0047417,-0.000905452,0.0011819,-0.000570558,-0.00507659,1.29468,0.00321115,0.0163582,1238,1765,4.20242,-14.1692
21,-741,4.19897,14.2157,-0.005277,-0.00149571,0.00114289,-0.00117711,-0.00559559,1.29894,0.0034065,0.0124536,1245,1765,4.19902,-14.2157
28,-741,4.17542,14.2604,-0.00560525,-0.0018963,0.00107601,-0.00160675,-0.0058948,1.30792,0.00351877,0.0135853,1252,1765,4.17544,-14.2604
35,-741,4.19958,14.2675,-0.00556717,-0.00173166,0.00091092,-0.00152631,-0.00577251,1.34907,0.00345388,0.0149757,1259,1765,4.19958,-14.2674
42,-741,4.21692,14.2611,-0.00548334,-0.00140987,0.000696087,-0.00129421,-0.00559901,1.40614,0.00338477,0.0144183,1266,1765,4.21691,-14.261
49,-741,4.17981,14.2871,-0.00523284,-0.000976801,0.000572333,-0.00090118,-0.00530846,1.43943,0.00328011,0.00963551,1273,1765,4.17983,-14.2871
56,-741,4.1571,14.3126,-0.00476025,-0.000453213,0.000319977,-0.000429571,-0.00478389,1.49704,0.00305615,0.00981058,1280,1765,4.15705,-14.3126
63,-741,4.16345,14.3237,-0.00513592,0.000279455,0.00014348,0.000283254,-0.00513972,1.54433,0.00352469,0.0139469,1287,1765,4.16347,-14.3237
70,-741,4.15002,14.3455,-0.00572542,0.00143678,-1.07784e-07,0.00143678,-0.00572542,-1.57078,0.00437523,0.0153623,1294,1765,4.15,-14.3454
77,-741,4.14294,14.3652,-0.00658399,0.00256209,-0.000280151,0.00257067,-0.00659256,-1.5402,0.00545761,0.0134442,1301,1765,4.14297,-14.3652
84,-741,4.13977,14.3922,-0.00727318,0.00365988,-0.00039836,0.00367437,-0.00728768,-1.53442,0.00644253,0.0161671,1308,1765,4.13973,-14.3922
91,-741,4.13928,14.3986,-0.00830417,0.00439151,-0.000467985,0.00440873,-0.0083214,-1.534,0.00746457,0.0123356,1315,1765,4.13932,-14.3986
98,-741,4.15515,14.3589,-0.00951607,0.00475586,-0.000511593,0.00477418,-0.00953439,-1.53501,0.00841206,0.00982508,1322,1765,4.1551,-14.3588
105,-741,4.16541,14.3229,-0.0106862,0.00493655,-0.000584049,0.00495835,-0.010708,-1.53348,0.00924579,0.010752,1329,1765,4.16538,-14.3229
112,-741,4.17749,14.3064,-0.0117191,0.00493482,-0.000622971,0.0049581,-0.0117424,-1.53346,0.00990367,0.0107007,1336,1765,4.17743,-14.3064
119,-741,4.16174,14.2749,-0.0125983,0.00466283,-0.000675798,0.00468925,-0.0126248,-1.53172,0.0103403,0.0134058,1343,1765,4.16176,-14.2749
126,-741,4.16223,14.2341,-0.013055,0.00428788,-0.000712451,0.0043171,-0.0130842,-1.52981,0.0104631,0.0183265,1350,1765,4.16225,-14.2342
133,-741,4.1532,14.2346,-0.0130357,0.00385334,-0.000732442,0.00388505,-0.0130674,-1.52754,0.010255,0.0136128,1357,1765,4.15323,-14.2346
140,-741,4.14197,14.2323,-0.0127104,0.00315889,-0.000706846,0.00319031,-0.0127418,-1.52637,0.00973382,0.0105859,1364,1765,4.14196,-14.2323
147,-741,4.13892,14.2159,-0.0120064,0.00265126,-0.00065954,0.00268087,-0.012036,-1.52592,0.00905098,0.0101914,1371,1765,4.13891,-14.2159
154,-741,4.13135,14.2108,-0.0110104,0.00238215,-0.000748183,0.00242382,-0.0110521,-1.51516,0.00829488,0.00803618,1378,1765,4.13132,-14.2109
161,-741,4.1178,14.1709,-0.00995963,0.00209628,-0.000872687,0.00215913,-0.0100225,-1.49891,0.0075056,0.0097342,1385,1765,4.11779,-14.1709
168,-741,4.10583,14.137,-0.00802565,0.0018135,-0.00214516,0.00226086,-0.00847301,-1.3652,0.006534,0.0216086,1392,1765,4.10589,-14.137
175,-741,4.05359,14.1006,0,0,0,0,0,0,0,-1,1399,1765,4.05362,-14.1006
182,-741,4.13757,14.0082,0,0,0,0,0,0,0,-1,1406,1765,4.13762,-14.0082
189,-741,4.12036,13.9728,0,0,0,0,0,0,0,-1,1413,1765,4.12038,-13.9727
196,-741,4.07996,13.9519,0,0,0,0,0,0,0,-1,1420,1765,4.07996,-13.9519
203,-741,4.08386,13.9021,0,0,0,0,0,0,0,-1,1427,1765,4.08388,-13.9021
210,-741,4.06226,13.8214,-0.00590257,0.000766841,-0.00908655,0.00711127,-0.012247,-0.961265,0.0113068,0.0305547,1434,1765,4.06228,-13.8214
217,-741,4.10132,13.7671,-0.0121138,0.000194478,-0.00901037,0.0049518,-0.0168712,-1.08501,0.0132111,0.0207955,1441,1765,4.10127,-13.7671
224,-741,4.10425,13.6666,-0.0202519,-0.000774426,-0.00804882,0.00212118,-0.0231475,-1.22546,0.0161851,0.0255022,1448,1765,4.10423,-13.6667
231,-741,4.0741,13.6577,-0.0285633,-0.00104666,-0.00710527,0.000679727,-0.0302897,-1.33244,0.0204235,0.0328385,1455,1765,4.07405,-13.6577
238,-741,4.13501,13.6467,-0.039515,-0.0013297,-0.005796,-0.000469336,-0.0403754,-1.42343,0.0267619,0.0361493,1462,1765,4.13502,-13.6467
245,-741,4.19714,13.5464,-0.050658,-0.00162095,-0.00420812,-0.00126245,-0.0510165,-1.48581,0.0335981,0.0454202,1469,1765,4.19708,-13.5464
252,-741,3.97705,13.2924,0,0,0,0,0,0,0,-1,1476,1765,3.97708,-13.2924
259,-741,4.35645,13.481,0,0,0,0,0,0,0,-1,1483,1765,4.35639,-13.481
266,-741,4.49744,13.556,0,0,0,0,0,0,0,-1,1490,1765,4.49747,-13.5561
273,-741,17.4285,7.24963,-0.106662,0.00786468,0.00499346,0.00808199,-0.10688,1.52731,0.0740942,0.0464719,1497,1765,17.4284,-7.24958
280,-741,15.996,7.22278,-0.120141,0.0122282,0.00730067,0.0126296,-0.120543,1.51586,0.0848856,0.04619,1504,1765,15.9959,-7.22279
287,-741,14.0116,6.85144,-0.132169,0.0171532,0.00955632,0.0177623,-0.132778,1.50714,0.0949947,0.0422259,1511,1765,14.0116,-6.8514
294,-741,11.8184,6.48401,0,0,0,0,0,0,0,-1,1518,1765,11.8184,-6.48401
301,-741,4.90674,10.7687,0,0,0,0,0,0,0,-1,1525,1765,4.90672,-10.7687
308,-741,2.47021,11.4004,0,0,0,0,0,0,0,-1,1532,1765,2.47026,-11.4004
315,-741,7.94568,6.22974,0,0,0,0,0,0,0,-1,1539,1765,7.94567,-6.22972
322,-741,3.08521,12.3561,0,0,0,0,0,0,0,-1,1546,1765,3.08526,-12.3561
329,-741,4.46472,13.5316,0,0,0,0,0,0,0,-1,1553,1765,4.46467,-13.5316
336,-741,4.74475,14.6453,0,0,0,0,0,0,0,-1,1560,1765,4.7447,-14.6452
343,-741,5.42297,5.93701,0,0,0,0,0,0,0,-1,1567,1765,5.42296,-5.937
350,-741,4.90369,5.44666,0,0,0,0,0,0,0,-1,1574,1765,4.90368,-5.44664
357,-741,4.02063,5.16626,0,0,0,0,0,0,0,-1,1581,1765,4.02058,-5.1662
364,-741,0,0,0,0,0,0,0,0,0,-1,1588,1765,0,0
371,-741,0,0,0,0,0,0,0,0,0,-1,1595,1765,0,0
378,-741,0,0,0,0,0,0,0,0,0,-1,1602,1765,0,0
385,-741,0,0,0,0,0,0,0,0,0,-1,1609,1765,0,0
392,-741,0,0,0,0,0,0,0,0,0,-1,1616,1765,0,0
399,-741,0,0,0,0,0,0,0,0,0,-1,1623,1765,0,0
406,-741,0,0,0,0,0,0,0,0,0,-1,1630,1765,0,0
413,-741,0,0,0,0,0,0,0,0,0,-1,1637,1765,0,0
420,-741,0,0,0,0,0,0,0,0,0,-1,1644,1765,0,0
427,-741,0,0,0,0,0,0,0,0,0,-1,1651,1765,0,0
434,-741,0,0,0,0,0,0,0,0,0,-1,1658,1765,0,0
441,-741,0,0,0,0,0,0,0,0,0,-1,1665,1765,0,0
448,-741,0,0,0,0,0,0,0,0,0,-1,1672,1765,0,0
455,-741,0,0,0,0,0,0,0,0,0,-1,1679,1765,0,0
462,-741,0,0,0,0,0,0,0,0,0,-1,1686,1765,0,0
469,-741,0,0,0,0,0,0,0,0,0,-1,1693,1765,0,0
476,-741,0,0,0,0,0,0,0,0,0,-1,1700,1765,0,0
483,-741,0,0,0,0,0,0,0,0,0,-1,1707,1765,0,0
490,-741,0,0,0,0,0,0,0,0,0,-1,1714,1765,0,0
497,-741,0,0,0,0,0,0,0,0,0,-1,1721,1765,0,0
504,-741,0,0,0,0,0,0,0,0,0,-1,1728,1765,0,0
511,-741,0,0,0,0,0,0,0,0,0,-1,1735,1765,0,0
518,-741,0,0,0,0,0,0,0,0,0,-1,1742,1765,0,0
525,-741,0,0,0,0,0,0,0,0,0,-1,1749,1765,0,0
532,-741,0,0,0,0,0,0,0,0,0,-1,1756,1765,0,0
539,-741,0,0,0,0,0,0,0,0,0,-1,1763,1765,0,0
546,-741,0,0,0,0,0,0,0,0,0,-1,1770,1765,0,0
553,-741,0,0,0,0,0,0,0,0,0,-1,1777,1765,0,0
560,-741,0,0,0,0,0,0,0,0,0,-1,1784,1765,0,0
567,-741,0,0,0,0,0,0,0,0,0,-1,1791,1765,0,0
574,-741,0,0,0,0,0,0,0,0,0,-1,1798,1765,0,0
581,-741,0,0,0,0,0,0,0,0,0,-1,1805,1765,0,0
588,-741,0,0,0,0,0,0,0,0,0,-1,1812,1765,0,0
595,-741,0,0,0,0,0,0,0,0,0,-1,1819,1765,0,0
602,-741,0,0,0,0,0,0,0,0,0,-1,1826,1765,0,0
609,-741,0,0,0,0,0,0,0,0,0,-1,1833,1765,0,0
616,-741,0,0,0,0,0,0,0,0,0,-1,1840,1765,0,0
623,-741,0,0,0,0,0,0,0,0,0,-1,1847,1765,0,0
630,-741,0,0,0,0,0,0,0,0,0,-1,1854,1765,0,0
637,-741,0,0,0,0,0,0,0,0,0,-1,1861,1765,0,0
644,-741,0,0,0,0,0,0,0,0,0,-1,1868,1765,0,0
651,-741,0,0,0,0,0,0,0,0,0,-1,1875,1765,0,0
658,-741,0,0,0,0,0,0,0,0,0,-1,1882,1765,0,0
665,-741,0,0,0,0,0,0,0,0,0,-1,1889,1765,0,0
672,-741,0,0,0,0,0,0,0,0,0,-1,1896,1765,0,0
679,-741,0,0,0,0,0,0,0,0,0,-1,1903,1765,0,0
686,-741,0,0,0,0,0,0,0,0,0,-1,1910,1765,0,0
693,-741,0,0,0,0,0,0,0,0,0,-1,1917,1765,0,0
700,-741,0,0,0,0,0,0,0,0,0,-1,1924,1765,0,0
707,-741,0,0,0,0,0,0,0,0,0,-1,1931,1765,0,0
714,-741,0,0,0,0,0,0,0,0,0,-1,1938,1765,0,0
721,-741,0,0,0,0,0,0,0,0,0,-1,1945,1765,0,0
728,-741,0,0,0,0,0,0,0,0,0,-1,1952,1765,0,0
735,-741,0,0,0,0,0,0,0,0,0,-1,1959,1765,0,0
742,-741,0,0,0,0,0,0,0,0,0,-1,1966,1765,0,0
749,-741,0,0,0,0,0,0,0,0,0,-1,1973,1765,0,0
756,-741,0,0,0,0,0,0,0,0,0,-1,1980,1765,0,0
763,-741,0,0,0,0,0,0,0,0,0,-1,1987,1765,0,0
770,-741,0,0,0,0,0,0,0,0,0,-1,1994,1765,0,0
777,-741,0,0,0,0,0,0,0,0,0,-1,2001,1765,0,0
784,-741,0,0,0,0,0,0,0,0,0,-1,2008,1765,0,0
791,-741,0,0,0,0,0,0,0,0,0,-1,2015,1765,0,0
798,-741,0,0,0,0,0,0,0,0,0,-1,2022,1765,0,0
805,-741,0,0,0,0,0,0,0,0,0,-1,2029,1765,0,0
812,-741,0,0,0,0,0,0,0,0,0,-1,2036,1765,0,0
-700,-748,0,0,0,0,0,0,0,0,0,-1,524,1772,0,0
-693,-748,0,0,0,0,0,0,0,0,0,-1,531,1772,0,0
-686,-748,0,0,0,0,0,0,0,0,0,-1,538,1772,0,0
-679,-748,0,0,0,0,0,0,0,0,0,-1,545,1772,0,0
-672,-748,0,0,0,0,0,0,0,0,0,-1,552,1772,0,0
-665,-748,0,0,0,0,0,0,0,0,0,-1,559,1772,0,0
-658,-748,0,0,0,0,0,0,0,0,0,-1,566,1772,0,0
-651,-748,0,0,0,0,0,0,0,0,0,-1,573,1772,0,0
-644,-748,0,0,0,0,0,0,0,0,0,-1,580,1772,0,0
-637,-748,0,0,0,0,0,0,0,0,0,-1,587,1772,0,0
-630,-748,0,0,0,0,0,0,0,0,0,-1,594,1772,0,0
-623,-748,0,0,0,0,0,0,0,0,0,-1,601,1772,0,0
-616,-748,0,0,0,0,0,0,0,0,0,-1,608,1772,0,0
-609,-748,0,0,0,0,0,0,0,0,0,-1,615,1772,0,0
-602,-748,0,0,0,0,0,0,0,0,0,-1,622,1772,0,0
-595,-748,0,0,0,0,0,0,0,0,0,-1,629,1772,0,0
-588,-748,0,0,0,0,0,0,0,0,0,-1,636,1772,0,0
-581,-748,0,0,0,0,0,0,0,0,0,-1,643,1772,0,0
-574,-748,0,0,0,0,0,0,0,0,0,-1,650,1772,0,0
-567,-748,0,0,0,0,0,0,0,0,0,-1,657,1772,0,0
-560,-748,0,0,0,0,0,0,0,0,0,-1,664,1772,0,0
-553,-748,0,0,0,0,0,0,0,0,0,-1,671,1772,0,0
-546,-748,0,0,0,0,0,0,0,0,0,-1,678,1772,0,0
-539,-748,0,0,0,0,0,0,0,0,0,-1,685,1772,0,0
-532,-748,0,0,0,0,0,0,0,0,0,-1,692,1772,0,0
-525,-748,0,0,0,0,0,0,0,0,0,-1,699,1772,0,0
-518,-748,0,0,0,0,0,0,0,0,0,-1,706,1772,0,0
-511,-748,0,0,0,0,0,0,0,0,0,-1,713,1772,0,0
-504,-748,0,0,0,0,0,0,0,0,0,-1,720,1772,0,0
-497,-748,0,0,0,0,0,0,0,0,0,-1,727,1772,0,0
-490,-748,0,0,0,0,0,0,0,0,0,-1,734,1772,0,0
-483,-748,0,0,0,0,0,0,0,0,0,-1,741,1772,0,0
-476,-748,0,0,0,0,0,0,0,0,0,-1,748,1772,0,0
-469,-748,0,0,0,0,0,0,0,0,0,-1,755,1772,0,0
-462,-748,0,0,0,0,0,0,0,0,0,-1,762,1772,0,0
-455,-748,0,0,0,0,0,0,0,0,0,-1,769,1772,0,0
-448,-748,0,0,0,0,0,0,0,0,0,-1,776,1772,0,0
-441,-748,0,0,0,0,0,0,0,0,0,-1,783,1772,0,0
-434,-748,0,0,0,0,0,0,0,0,0,-1,790,1772,0,0
-427,-748,0,0,0,0,0,0,0,0,0,-1,797,1772,0,0
-420,-748,0,0,0,0,0,0,0,0,0,-1,804,1772,0,0
-413,-748,0,0,0,0,0,0,0,0,0,-1,811,1772,0,0
-406,-748,0,0,0,0,0,0,0,0,0,-1,818,1772,0,0
-399,-748,0,0,0,0,0,0,0,0,0,-1,825,1772,0,0
-392,-748,0,0,0,0,0,0,0,0,0,-1,832,1772,0,0
-385,-748,0,0,0,0,0,0,0,0,0,-1,839,1772,0,0
-378,-748,0,0,0,0,0,0,0,0,0,-1,846,1772,0,0
-371,-748,0,0,0,0,0,0,0,0,0,-1,853,1772,0,0
-364,-748,0,0,0,0,0,0,0,0,0,-1,860,1772,0,0
-357,-748,0,0,0,0,0,0,0,0,0,-1,867,1772,0,0
-350,-748,0,0,0,0,0,0,0,0,0,-1,874,1772,0,0
-343,-748,0,0,0,0,0,0,0,0,0,-1,881,1772,0,0
-336,-748,0,0,0,0,0,0,0,0,0,-1,888,1772,0,0
-329,-748,0,0,0,0,0,0,0,0,0,-1,895,1772,0,0
-322,-748,0,0,0,0,0,0,0,0,0,-1,902,1772,0,0
-315,-748,0,0,0,0,0,0,0,0,0,-1,909,1772,0,0
-308,-748,0,0,0,0,0,0,0,0,0,-1,916,1772,0,0
-301,-748,0,0,0,0,0,0,0,0,0,-1,923,1772,0,0
-294,-748,0,0,0,0,0,0,0,0,0,-1,930,1772,0,0
-287,-748,0,0,0,0,0,0,0,0,0,-1,937,1772,0,0
-280,-748,0,0,0,0,0,0,0,0,0,-1,944,1772,0,0
-273,-748,0,0,0,0,0,0,0,0,0,-1,951,1772,0,0
-266,-748,0,0,0,0,0,0,0,0,0,-1,958,1772,0,0
-259,-748,0,0,0,0,0,0,0,0,0,-1,965,1772,0,0
-252,-748,0,0,0,0,0,0,0,0,0,-1,972,1772,0,0
-245,-748,0,0,0,0,0,0,0,0,0,-1,979,1772,0,0
-238,-748,0,0,0,0,0,0,0,0,0,-1,986,1772,0,0
-231,-748,0,0,0,0,0,0,0,0,0,-1,993,1772,0,0
-224,-748,0,0,0,0,0,0,0,0,0,-1,1000,1772,0,0
-217,-748,2.75549,10.3676,0,0,0,0,0,0,0,-1,1007,1772,2.75551,-10.3675
-210,-748,8.3371,9.15466,0,0,0,0,0,0,0,-1,1014,1772,8.33709,-9.1547
-203,-748,4.65759,14.6309,0,0,0,0,0,0,0,-1,1021,1772,4.65762,-14.6309
-196,-748,4.78418,14.2625,0,0,0,0,0,0,0,-1,1028,1772,4.78423,-14.2624
-189,-748,4.91089,13.8939,0,0,0,0,0,0,0,-1,1035,1772,4.91085,-13.8939
-182,-748,4.59631,13.0856,0,0,0,0,0,0,0,-1,1042,1772,4.59629,-13.0856
-175,-748,3.73718,9.88293,0,0,0,0,0,0,0,-1,1049,1772,3.73717,-9.88289
-168,-748,2.64819,8.55664,0,0,0,0,0,0,0,-1,1056,1772,2.64817,-8.55666
-161,-748,2.37683,8.34314,0,0,0,0,0,0,0,-1,1063,1772,2.3768,-8.34318
-154,-748,-3.82056,10.7404,0,0,0,0,0,0,0,-1,1070,1772,-3.82062,-10.7403
-147,-748,-4.87122,10.7748,0,0,0,0,0,0,0,-1,1077,1772,-4.87117,-10.7748
-140,-748,5.38965,8.78552,0,0,0,0,0,0,0,-1,1084,1772,5.38969,-8.78552
-133,-748,5.2876,11.8365,0,0,0,0,0,0,0,-1,1091,1772,5.28761,-11.8365
-126,-748,4.8927,12.5208,0,0,0,0,0,0,0,-1,1098,1772,4.89266,-12.5208
-119,-748,5.02405,12.3422,0,0,0,0,0,0,0,-1,1105,1772,5.02405,-12.3421
-112,-748,4.32666,11.8191,0,0,0,0,0,0,0,-1,1112,1772,4.32668,-11.8191
-105,-748,4.42542,13.1205,0,0,0,0,0,0,0,-1,1119,1772,4.42538,-13.1205
-98,-748,4.49182,13.1622,0,0,0,0,0,0,0,-1,1126,1772,4.49183,-13.1623
-91,-748,4.67517,12.7203,0,0,0,0,0,0,0,-1,1133,1772,4.67518,-12.7203
-84,-748,-0.192017,7.26196,0,0,0,0,0,0,0,-1,1140,1772,-0.192047,-7.26201
-77,-748,-0.360718,5.58801,0,0,0,0,0,0,0,-1,1147,1772,-0.360768,-5.588
-70,-748,4.41602,13.5009,0,0,0,0,0,0,0,-1,1154,1772,4.41602,-13.5009
-63,-748,4.89355,12.1653,0,0,0,0,0,0,0,-1,1161,1772,4.89356,-12.1653
-56,-748,3.05762,7.87817,0,0,0,0,0,0,0,-1,1168,1772,3.05768,-7.87822
-49,-748,3.04102,7.82471,0,0,0,0,0,0,0,-1,1175,1772,3.04096,-7.82468
-42,-748,3.62585,10.0979,0,0,0,0,0,0,0,-1,1182,1772,3.62584,-10.0979
-35,-748,4.33789,13.8458,0,0,0,0,0,0,0,-1,1189,1772,4.33794,-13.8458
-28,-748,4.32385,13.9948,-5.22561e-05,0.0036405,0.00435092,0.0065206,-0.00293236,0.986064,0.00558719,0.04712,1196,1772,4.32387,-13.9948
-21,-748,4.33899,14.056,-0.0014075,0.00317499,0.0042005,0.00566851,-0.00390102,1.03508,0.00555629,0.0213677,1203,1772,4.33898,-14.056
-14,-748,4.28992,14.0507,-0.00262369,0.00262337,0.00394583,0.00473824,-0.00473856,1.07878,0.00547144,0.0149196,1210,1772,4.28991,-14.0506
-7,-748,4.28271,14.053,-0.00380913,0.00214584,0.00374846,0.00395546,-0.00561876,1.12103,0.00555541,0.0145846,1217,1772,4.28273,-14.053
0,-748,4.26135,14.0931,-0.00509577,0.00139812,0.00360748,0.00300469,-0.00670234,1.15182,0.00573829,0.0151795,1224,1772,4.26136,-14.0931
7,-748,4.24255,14.1235,-0.00639757,0.000513776,0.00339964,0.00190571,-0.0077895,1.18218,0.00593118,0.0150073,1231,1772,4.24257,-14.1236
14,-748,4.24438,14.1693,-0.00740138,-0.000349351,0.00313777,0.00084463,-0.00859536,1.2072,0.00603153,0.0157564,1238,1772,4.24434,-14.1693
21,-748,4.25806,14.2167,-0.00816523,-0.00117965,0.00287503,-0.000148571,-0.00919631,1.22645,0.00608195,0.0112507,1245,1772,4.25811,-14.2167
28,-748,4.21216,14.2432,-0.00861635,-0.00182045,0.00258832,-0.000946932,-0.00948986,1.24531,0.00603574,0.0117618,1252,1772,4.2121,-14.2432
35,-748,4.22192,14.2609,-0.0085325,-0.0017206,0.00218503,-0.00107996,-0.00917314,1.2856,0.00578912,0.0125946,1259,1772,4.22188,-14.2609
42,-748,4.2262,14.2611,-0.00832971,-0.00127103,0.00167035,-0.00089572,-0.00870502,1.34978,0.00552901,0.0128086,1266,1772,4.22622,-14.2611
49,-748,4.19275,14.2771,-0.00792631,-0.000735654,0.00130646,-0.000505644,-0.00815632,1.39653,0.00527708,0.0099248,1273,1772,4.19277,-14.2771
56,-748,4.18152,14.2994,-0.00723095,9.75695e-06,0.000800378,9.71742e-05,-0.00731837,1.46201,0.00491162,0.0098688,1280,1772,4.18157,-14.2995
63,-748,4.18091,14.3015,-0.00762957,0.00103647,0.000441255,0.00105888,-0.00765198,1.52005,0.00548844,0.0114614,1287,1772,4.18095,-14.3016
70,-748,4.16675,14.3164,-0.00829403,0.00262155,4.82603e-05,0.00262176,-0.00829424,1.56638,0.00657989,0.0127837,1294,1772,4.16672,-14.3164
77,-748,4.15552,14.3345,-0.00930617,0.00425825,-0.000498091,0.00427652,-0.00932444,-1.53414,0.00803077,0.0126274,1301,1772,4.15555,-14.3344
84,-748,4.13916,14.3654,-0.0102001,0.00589189,-0.000769457,0.0059286,-0.0102368,-1.52313,0.00944292,0.0146752,1308,1772,4.13915,-14.3653
91,-748,4.13525,14.3772,-0.0116584,0.00708097,-0.000932963,0.00712731,-0.0117047,-1.52117,0.0109792,0.011529,1315,1772,4.13531,-14.3772
98,-748,4.12866,14.3517,-0.0134312,0.00771284,-0.00106587,0.00776643,-0.0134848,-1.52056,0.0124166,0.0103894,1322,1772,4.12869,-14.3517
105,-748,4.13123,14.3101,-0.0151778,0.00811897,-0.00126106,0.00818704,-0.0152459,-1.51688,0.0137321,0.0121022,1329,1772,4.13118,-14.31
112,-748,4.16125,14.308,-0.0167898,0.00819225,-0.00139294,0.00826968,-0.0168673,-1.51527,0.0147931,0.0153985,1336,1772,4.16127,-14.3079
119,-748,4.14575,14.2928,-0.0182314,0.00788621,-0.00148853,0.00797077,-0.0183159,-1.51405,0.0155635,0.0135673,1343,1772,4.14572,-14.2929
126,-748,4.12976,14.2981,-0.0190606,0.00741035,-0.00158787,0.00750525,-0.0191556,-1.5111,0.015875,0.0144838,1350,1772,4.1298,-14.2981
133,-748,4.11108,14.2688,-0.0192462,0.00685632,-0.00167012,0.00696274,-0.0193526,-1.50716,0.0157445,0.00897211,1357,1772,4.11114,-14.2688
140,-748,4.12268,14.2522,-0.0190309,0.00594941,-0.00170908,0.00606579,-0.0191473,-1.5028,0.0151958,0.012022,1364,1772,4.12262,-14.2522
147,-748,4.13672,14.224,-0.0183077,0.00513702,-0.0016581,0.00525371,-0.0184244,-1.50054,0.0143582,0.0132921,1371,1772,4.13677,-14.224
154,-748,4.11023,14.2004,-0.0169196,0.00477809,-0.00176528,0.00492077,-0.0170623,-1.49015,0.0133216,0.0108634,1378,1772,4.1102,-14.2005
161,-748,4.10413,14.187,-0.015416,0.00433839,-0.00184899,0.00450996,-0.0155876,-1.47827,0.0121767,0.0181483,1385,1772,4.10414,-14.187
168,-748,4.09509,14.1799,0,0,0,0,0,0,0,-1,1392,1772,4.09511,-14.18
175,-748,4.22009,13.4792,0,0,0,0,0,0,0,-1,1399,1772,4.2201,-13.4793
182,-748,7.62476,10.3058,0,0,0,0,0,0,0,-1,1406,1772,7.62476,-10.3058
189,-748,6.15857,6.95898,0,0,0,0,0,0,0,-1,1413,1772,6.15862,-6.95896
196,-748,3.9425,8.46021,0,0,0,0,0,0,0,-1,1420,1772,3.9425,-8.46026
203,-748,3.9668,12.9835,0,0,0,0,0,0,0,-1,1427,1772,3.96678,-12.9836
210,-748,4.05078,13.7162,0,0,0,0,0,0,0,-1,1434,1772,4.05078,-13.7162
217,-748,4.64441,13.6796,-0.0189591,-0.000260419,-0.0128978,0.00632019,-0.0255397,-1.09901,0.019478,0.0390785,1441,1772,4.64445,-13.6795
224,-748,4.16919,13.5851,-0.0301562,-0.0016368,-0.0113016,0.00229872,-0.0340918,-1.2357,0.0235315,0.0395388,1448,1772,4.16914,-13.5851
231,-748,4.03723,13.6403,-0.0409561,-0.00210525,-0.00984589,0.000247497,-0.0433089,-1.33624,0.0289554,0.0397705,1455,1772,4.03725,-13.6403
238,-748,4.03088,13.7324,-0.0549234,-0.00256616,-0.00788256,-0.00140516,-0.0560844,-1.42456,0.0369301,0.0489093,1462,1772,4.03087,-13.7324
245,-748,4.28027,13.3636,0,0,0,0,0,0,0,-1,1469,1772,4.28026,-13.3637
252,-748,3.55042,11.6287,0,0,0,0,0,0,0,-1,1476,1772,3.55037,-11.6286
259,-748,19.7562,7.70105,0,0,0,0,0,0,0,-1,1483,1772,19.7562,-7.70105
266,-748,18.3119,7.38428,-0.122466,0.00288935,0.00350873,0.00298748,-0.122564,1.54284,0.0827235,0.0492161,1490,1772,18.3119,-7.38433
273,-748,16.87,7.15271,-0.140171,0.00661247,0.00699425,0.00694499,-0.140503,1.52329,0.0960674,0.0478112,1497,1772,16.87,-7.1527
280,-748,15.3959,7.00659,-0.15747,0.0117137,0.0100546,0.0123091,-0.158066,1.51164,0.109711,0.0453922,1504,1772,15.3958,-7.00658
287,-748,13.4386,6.74158,-0.173156,0.017687,0.0130672,0.0185775,-0.174047,1.50275,0.122693,0.0441658,1511,1772,13.4386,-6.74154
294,-748,11.5533,6.49109,0,0,0,0,0,0,0,-1,1518,1772,11.5533,-6.49111
301,-748,9.90784,6.21448,0,0,0,0,0,0,0,-1,1525,1772,9.90789,-6.2145
308,-748,8.88904,6.61414,0,0,0,0,0,0,0,-1,1532,1772,8.889,-6.61419
315,-748,7.85876,6.81372,0,0,0,0,0,0,0,-1,1539,1772,7.85879,-6.81372
322,-748,2.9469,13.4518,0,0,0,0,0,0,0,-1,1546,1772,2.94694,-13.4518
329,-748,3.48315,14.6533,0,0,0,0,0,0,0,-1,1553,1772,3.48316,-14.6534
336,-748,3.76001,15.8163,0,0,0,0,0,0,0,-1,1560,1772,3.75995,-15.8163
343,-748,0,0,0,0,0,0,0,0,0,-1,1567,1772,0,0
350,-748,0,0,0,0,0,0,0,0,0,-1,1574,1772,0,0
357,-748,0,0,0,0,0,0,0,0,0,-1,1581,1772,0,0
364,-748,0,0,0,0,0,0,0,0,0,-1,1588,1772,0,0
371,-748,0,0,0,0,0,0,0,0,0,-1,1595,1772,0,0
378,-748,0,0,0,0,0,0,0,0,0,-1,1602,1772,0,0
385,-748,0,0,0,0,0,0,0,0,0,-1,1609,1772,0,0
392,-748,0,0,0,0,0,0,0,0,0,-1,1616,1772,0,0
399,-748,0,0,0,0,0,0,0,0,0,-1,1623,1772,0,0
406,-748,0,0,0,0,0,0,0,0,0,-1,1630,1772,0,0
413,-748,0,0,0,0,0,0,0,0,0,-1,1637,1772,0,0
420,-748,0,0,0,0,0,0,0,0,0,-1,1644,1772,0,0
427,-748,0,0,0,0,0,0,0,0,0,-1,1651,1772,0,0
434,-748,0,0,0,0,0,0,0,0,0,-1,1658,1772,0,0
441,-748,0,0,0,0,0,0,0,0,0,-1,1665,1772,0,0
448,-748,0,0,0,0,0,0,0,0,0,-1,1672,1772,0,0
455,-748,0,0,0,0,0,0,0,0,0,-1,1679,1772,0,0
462,-748,0,0,0,0,0,0,0,0,0,-1,1686,1772,0,0
469,-748,0,0,0,0,0,0,0,0,0,-1,1693,1772,0,0
476,-748,0,0,0,0,0,0,0,0,0,-1,1700,1772,0,0
483,-748,0,0,0,0,0,0,0,0,0,-1,1707,1772,0,0
490,-748,0,0,0,0,0,0,0,0,0,-1,1714,1772,0,0
497,-748,0,0,0,0,0,0,0,0,0,-1,1721,1772,0,0
504,-748,0,0,0,0,0,0,0,0,0,-1,1728,1772,0,0
511,-748,0,0,0,0,0,0,0,0,0,-1,1735,1772,0,0
518,-748,0,0,0,0,0,0,0,0,0,-1,1742,1772,0,0
525,-748,0,0,0,0,0,0,0,0,0,-1,1749,1772,0,0
532,-748,0,0,0,0,0,0,0,0,0,-1,1756,1772,0,0
539,-748,0,0,0,0,0,0,0,0,0,-1,1763,1772,0,0
546,-748,0,0,0,0,0,0,0,0,0,-1,1770,1772,0,0
553,-748,0,0,0,0,0,0,0,0,0,-1,1777,1772,0,0
560,-748,0,0,0,0,0,0,0,0,0,-1,1784,1772,0,0
567,-748,0,0,0,0,0,0,0,0,0,-1,1791,1772,0,0
574,-748,0,0,0,0,0,0,0,0,0,-1,1798,1772,0,0
581,-748,0,0,0,0,0,0,0,0,0,-1,1805,1772,0,0
588,-748,0,0,0,0,0,0,0,0,0,-1,1812,1772,0,0
595,-748,0,0,0,0,0,0,0,0,0,-1,1819,1772,0,0
602,-748,0,0,0,0,0,0,0,0,0,-1,1826,1772,0,0
609,-748,0,0,0,0,0,0,0,0,0,-1,1833,1772,0,0
616,-748,0,0,0,0,0,0,0,0,0,-1,1840,1772,0,0
623,-748,0,0,0,0,0,0,0,0,0,-1,1847,1772,0,0
630,-748,0,0,0,0,0,0,0,0,0,-1,1854,1772,0,0
637,-748,0,0,0,0,0,0,0,0,0,-1,1861,1772,0,0
644,-748,0,0,0,0,0,0,0,0,0,-1,1868,1772,0,0
651,-748,0,0,0,0,0,0,0,0,0,-1,1875,1772,0,0
658,-748,0,0,0,0,0,0,0,0,0,-1,1882,1772,0,0
665,-748,0,0,0,0,0,0,0,0,0,-1,1889,1772,0,0
672,-748,0,0,0,0,0,0,0,0,0,-1,1896,1772,0,0
679,-748,0,0,0,0,0,0,0,0,0,-1,1903,1772,0,0
686,-748,0,0,0,0,0,0,0,0,0,-1,1910,1772,0,0
693,-748,0,0,0,0,0,0,0,0,0,-1,1917,1772,0,0
700,-748,0,0,0,0,0,0,0,0,0,-1,1924,1772,0,0
707,-748,0,0,0,0,0,0,0,0,0,-1,1931,1772,0,0
714,-748,0,0,0,0,0,0,0,0,0,-1,1938,1772,0,0
721,-748,0,0,0,0,0,0,0,0,0,-1,1945,1772,0,0
728,-748,0,0,0,0,0,0,0,0,0,-1,1952,1772,0,0
735,-748,0,0,0,0,0,0,0,0,0,-1,1959,1772,0,0
742,-748,0,0,0,0,0,0,0,0,0,-1,1966,1772,0,0
749,-748,0,0,0,0,0,0,0,0,0,-1,1973,1772,0,0
756,-748,0,0,0,0,0,0,0,0,0,-1,1980,1772,0,0
763,-748,0,0,0,0,0,0,0,0,0,-1,1987,1772,0,0
770,-748,0,0,0,0,0,0,0,0,0,-1,1994,1772,0,0
777,-748,0,0,0,0,0,0,0,0,0,-1,2001,1772,0,0
784,-748,0,0,0,0,0,0,0,0,0,-1,2008,1772,0,0
791,-748,0,0,0,0,0,0,0,0,0,-1,2015,1772,0,0
798,-748,0,0,0,0,0,0,0,0,0,-1,2022,1772,0,0
805,-748,0,0,0,0,0,0,0,0,0,-1,2029,1772,0,0
812,-748,0,0,0,0,0,0,0,0,0,-1,2036,1772,0,0
-700,-755,0,0,0,0,0,0,0,0,0,-1,524,1779,0,0
-693,-755,0,0,0,0,0,0,0,0,0,-1,531,1779,0,0
-686,-755,0,0,0,0,0,0,0,0,0,-1,538,1779,0,0
-679,-755,0,0,0,0,0,0,0,0,0,-1,545,1779,0,0
-672,-755,0,0,0,0,0,0,0,0,0,-1,552,1779,0,0
-665,-755,0,0,0,0,0,0,0,0,0,-1,559,1779,0,0
-658,-755,0,0,0,0,0,0,0,0,0,-1,566,1779,0,0
-651,-755,0,0,0,0,0,0,0,0,0,-1,573,1779,0,0
-644,-755,0,0,0,0,0,0,0,0,0,-1,580,1779,0,0
-637,-755,0,0,0,0,0,0,0,0,0,-1,587,1779,0,0
-630,-755,0,0,0,0,0,0,0,0,0,-1,594,1779,0,0
-623,-755,0,0,0,0,0,0,0,0,0,-1,601,1779,0,0
-616,-755,0,0,0,0,0,0,0,0,0,-1,608,1779,0,0
-609,-755,0,0,0,0,0,0,0,0,0,-1,615,1779,0,0
-602,-755,0,0,0,0,0,0,0,0,0,-1,622,1779,0,0
-595,-755,0,0,0,0,0,0,0,0,0,-1,629,1779,0,0
-588,-755,0,0,0,0,0,0,0,0,0,-1,636,1779,0,0
-581,-755,0,0,0,0,0,0,0,0,0,-1,643,1779,0,0
-574,-755,0,0,0,0,0,0,0,0,0,-1,650,1779,0,0
-567,-755,0,0,0,0,0,0,0,0,0,-1,657,1779,0,0
-560,-755,0,0,0,0,0,0,0,0,0,-1,664,1779,0,0
-553,-755,0,0,0,0,0,0,0,0,0,-1,671,1779,0,0
-546,-755,0,0,0,0,0,0,0,0,0,-1,678,1779,0,0
-539,-755,0,0,0,0,0,0,0,0,0,-1,685,1779,0,0
-532,-755,0,0,0,0,0,0,0,0,0,-1,692,1779,0,0
-525,-755,0,0,0,0,0,0,0,0,0,-1,699,1779,0,0
-518,-755,0,0,0,0,0,0,0,0,0,-1,706,1779,0,0
-511,-755,0,0,0,0,0,0,0,0,0,-1,713,1779,0,0
-504,-755,0,0,0,0,0,0,0,0,0,-1,720,1779,0,0
-497,-755,0,0,0,0,0,0,0,0,0,-1,727,1779,0,0
-490,-755,0,0,0,0,0,0,0,0,0,-1,734,1779,0,0
-483,-755,0,0,0,0,0,0,0,0,0,-1,741,1779,0,0
-476,-755,0,0,0,0,0,0,0,0,0,-1,748,1779,0,0
-469,-755,0,0,0,0,0,0,0,0,0,-1,755,1779,0,0
-462,-755,0,0,0,0,0,0,0,0,0,-1,762,1779,0,0
-455,-755,0,0,0,0,0,0,0,0,0,-1,769,1779,0,0
-448,-755,0,0,0,0,0,0,0,0,0,-1,776,1779,0,0
-441,-755,0,0,0,0,0,0,0,0,0,-1,783,1779,0,0
-434,-755,0,0,0,0,0,0,0,0,0,-1,790,1779,0,0
-427,-755,0,0,0,0,0,0,0,0,0,-1,797,1779,0,0
-420,-755,0,0,0,0,0,0,0,0,0,-1,804,1779,0,0
-413,-755,0,0,0,0,0,0,0,0,0,-1,811,1779,0,0
-406,-755,0,0,0,0,0,0,0,0,0,-1,818,1779,0,0
-399,-755,0,0,0,0,0,0,0,0,0,-1,825,1779,0,0
-392,-755,0,0,0,0,0,0,0,0,0,-1,832,1779,0,0
-385,-755,0,0,0,0,0,0,0,0,0,-1,839,1779,0,0
-378,-755,0,0,0,0,0,0,0,0,0,-1,846,1779,0,0
-371,-755,0,0,0,0,0,0,0,0,0,-1,853,1779,0,0
-364,-755,0,0,0,0,0,0,0,0,0,-1,860,1779,0,0
-357,-755,0,0,0,0,0,0,0,0,0,-1,867,1779,0,0
-350,-755,0,0,0,0,0,0,0,0,0,-1,874,1779,0,0
-343,-755,0,0,0,0,0,0,0,0,0,-1,881,1779,0,0
-336,-755,0,0,0,0,0,0,0,0,0,-1,888,1779,0,0
-329,-755,0,0,0,0,0,0,0,0,0,-1,895,1779,0,0
-322,-755,0,0,0,0,0,0,0,0,0,-1,902,1779,0,0
-315,-755,0,0,0,0,0,0,0,0,0,-1,909,1779,0,0
-308,-755,0,0,0,0,0,0,0,0,0,-1,916,1779,0,0
-301,-755,0,0,0,0,0,0,0,0,0,-1,923,1779,0,0
-294,-755,0,0,0,0,0,0,0,0,0,-1,930,1779,0,0
-287,-755,0,0,0,0,0,0,0,0,0,-1,937,1779,0,0
-280,-755,0,0,0,0,0,0,0,0,0,-1,944,1779,0,0
-273,-755,0,0,0,0,0,0,0,0,0,-1,951,1779,0,0
-266,-755,0,0,0,0,0,0,0,0,0,-1,958,1779,0,0
-259,-755,0,0,0,0,0,0,0,0,0,-1,965,1779,0,0
-252,-755,0,0,0,0,0,0,0,0,0,-1,972,1779,0,0
-245,-755,0,0,0,0,0,0,0,0,0,-1,979,1779,0,0
-238,-755,0,0,0,0,0,0,0,0,0,-1,986,1779,0,0
-231,-755,0,0,0,0,0,0,0,0,0,-1,993,1779,0,0
-224,-755,0,0,0,0,0,0,0,0,0,-1,1000,1779,0,0
-217,-755,0,0,0,0,0,0,0,0,0,-1,1007,1779,0,0
-210,-755,0,0,0,0,0,0,0,0,0,-1,1014,1779,0,0
-203,-755,9.17322,10.2322,0,0,0,0,0,0,0,-1,1021,1779,9.17323,-10.2322
-196,-755,4.91333,14.9064,0,0,0,0,0,0,0,-1,1028,1779,4.91327,-14.9063
-189,-755,4.85864,12.9271,0,0,0,0,0,0,0,-1,1035,1779,4.85866,-12.9272
-182,-755,4.35339,12.1057,0,0,0,0,0,0,0,-1,1042,1779,4.35337,-12.1057
-175,-755,3.88025,10.7515,0,0,0,0,0,0,0,-1,1049,1779,3.88029,-10.7515
-168,-755,3.58789,9.15454,0,0,0,0,0,0,0,-1,1056,1779,3.58791,-9.15456
-161,-755,-2.95337,11.1847,0,0,0,0,0,0,0,-1,1063,1779,-2.9534,-11.1847
-154,-755,-4.14355,11.0377,0,0,0,0,0,0,0,-1,1070,1779,-4.1436,-11.0378
-147,-755,-5.40332,10.7094,0,0,0,0,0,0,0,-1,1077,1779,-5.40328,-10.7094
-140,-755,3.29346,10.2112,0,0,0,0,0,0,0,-1,1084,1779,3.2935,-10.2112
-133,-755,3.33801,10.3369,0,0,0,0,0,0,0,-1,1091,1779,3.33801,-10.3369
-126,-755,6.26074,11.9512,0,0,0,0,0,0,0,-1,1098,1779,6.26073,-11.9511
-119,-755,5.37512,11.8438,0,0,0,0,0,0,0,-1,1105,1779,5.37508,-11.8437
-112,-755,4.47961,11.766,-0.0661611,0.0209272,-0.016472,0.0239386,-0.0691725,-1.38997,0.0558322,0.0413208,1112,1779,4.47959,-11.766
-105,-755,3.47339,12.0774,-0.0642084,0.0202543,-0.0158913,0.0231452,-0.0670993,-1.39085,0.0541235,0.0439673,1119,1779,3.4734,-12.0774
-98,-755,2.41589,12.5586,0,0,0,0,0,0,0,-1,1126,1779,2.41585,-12.5586
-91,-755,0.160522,10.7096,0,0,0,0,0,0,0,-1,1133,1779,0.160512,-10.7096
-84,-755,0.169312,8.66443,0,0,0,0,0,0,0,-1,1140,1779,0.16932,-8.66446
-77,-755,-0.0491943,6.87439,0,0,0,0,0,0,0,-1,1147,1779,-0.0491385,-6.87443
-70,-755,-0.0704346,5.30554,0,0,0,0,0,0,0,-1,1154,1779,-0.0703788,-5.30549
-63,-755,-1.36316,7.3147,0,0,0,0,0,0,0,-1,1161,1779,-1.36312,-7.31473
-56,-755,0.0483398,5.06079,0,0,0,0,0,0,0,-1,1168,1779,0.0483138,-5.06084
-49,-755,-1.32263,5.33716,0,0,0,0,0,0,0,-1,1175,1779,-1.32264,-5.33718
-42,-755,-2.03613,4.01672,0,0,0,0,0,0,0,-1,1182,1779,-2.0361,-4.01671
-35,-755,-2.72498,2.37476,0,0,0,0,0,0,0,-1,1189,1779,-2.72502,-2.37473
-28,-755,4.26001,14.087,0,0,0,0,0,0,0,-1,1196,1779,4.26005,-14.087
-21,-755,4.27844,14.1683,0,0,0,0,0,0,0,-1,1203,1779,4.2785,-14.1683
-14,-755,4.3772,14.0632,-0.00307346,0.00429173,0.00692846,0.00845547,-0.00723721,1.02967,0.00906926,0.0304415,1210,1779,4.37715,-14.0633
-7,-755,4.32959,14.0404,-0.004795,0.00368695,0.00646169,0.00717509,-0.00828314,1.0758,0.00893245,0.0220376,1217,1779,4.32954,-14.0404
0,-755,4.29553,14.0807,-0.00665204,0.00260931,0.0060968,0.00563462,-0.00967735,1.11018,0.00894249,0.0137984,1224,1779,4.29552,-14.0807
7,-755,4.28577,14.1346,-0.00847196,0.00134949,0.00561388,0.00389737,-0.0110198,1.14474,0.0089337,0.0126002,1231,1779,4.2858,-14.1346
14,-755,4.29114,14.1816,-0.00984727,8.44196e-05,0.00505814,0.0022069,-0.0119698,1.17349,0.00880812,0.0112,1238,1779,4.29114,-14.1816
21,-755,4.24658,14.2264,-0.0108991,-0.00115348,0.00454951,0.000640222,-0.0126928,1.19525,0.00868314,0.0146459,1245,1779,4.24654,-14.2265
28,-755,4.24438,14.2239,-0.011501,-0.00216293,0.00403557,-0.000660602,-0.0130034,1.21442,0.00845731,0.0171759,1252,1779,4.24433,-14.2239
35,-755,4.25757,14.3011,-0.0113603,-0.00216173,0.00340352,-0.00103936,-0.0124827,1.25226,0.00799789,0.0181056,1259,1779,4.25755,-14.3011
42,-755,4.24878,14.2819,-0.0110113,-0.00161481,0.00262409,-0.000931659,-0.0116944,1.31611,0.00750503,0.0135517,1266,1779,4.24882,-14.2819
49,-755,4.21863,14.269,-0.0104402,-0.000950705,0.00204744,-0.000527798,-0.0108631,1.36711,0.00707269,0.00932221,1273,1779,4.2186,-14.269
56,-755,4.21399,14.2941,-0.00953852,8.05092e-05,0.0013115,0.000256119,-0.00971413,1.43769,0.00656313,0.00874679,1280,1779,4.214,-14.2941
63,-755,4.21167,14.3035,-0.0100188,0.00148197,0.000788847,0.00153582,-0.0100727,1.50263,0.00728125,0.00889336,1287,1779,4.21164,-14.3035
70,-755,4.19397,14.3071,-0.0108832,0.00364411,0.000200899,0.00364689,-0.010886,1.55697,0.00873065,0.0113856,1294,1779,4.19402,-14.3071
77,-755,4.16626,14.3204,-0.0122012,0.00596377,-0.000611469,0.00598433,-0.0122218,-1.53719,0.010715,0.0111308,1301,1779,4.16631,-14.3205
84,-755,4.16589,14.3353,-0.013434,0.00830647,-0.0010471,0.00835678,-0.0134843,-1.52278,0.0127253,0.0117442,1308,1779,4.16587,-14.3353
91,-755,4.14941,14.3344,-0.0154937,0.0101513,-0.00134071,0.0102212,-0.0155636,-1.51871,0.014993,0.0113582,1315,1779,4.14937,-14.3343
98,-755,4.11853,14.3304,-0.0180428,0.0112487,-0.00162466,0.0113386,-0.0181327,-1.51556,0.0171653,0.0126885,1322,1779,4.11853,-14.3304
105,-755,4.17505,14.3356,-0.020621,0.0120953,-0.00200953,0.0122182,-0.020744,-1.50968,0.0192418,0.0162013,1329,1779,4.17505,-14.3356
112,-755,4.20691,14.322,-0.0230855,0.0123489,-0.00224373,0.0124905,-0.023227,-1.50781,0.0209297,0.02138,1336,1779,4.20687,-14.3221
119,-755,4.13708,14.3137,-0.025343,0.0120181,-0.00241099,0.012173,-0.025498,-1.50662,0.0221983,0.0212391,1343,1779,4.13704,-14.3137
126,-755,4.03772,14.349,-0.0266602,0.0113904,-0.00261125,0.0115687,-0.0268386,-1.5026,0.0227511,0.0231667,1350,1779,4.03775,-14.349
133,-755,4.01025,14.2946,-0.0270964,0.0106811,-0.00279678,0.0108871,-0.0273023,-1.4973,0.0227174,0.0244857,1357,1779,4.01027,-14.2945
140,-755,4.07227,14.3213,-0.0270281,0.0095585,-0.00296353,0.00979699,-0.0272666,-1.49049,0.0221769,0.0308921,1364,1779,4.07229,-14.3212
147,-755,4.09668,14.282,-0.0263603,0.00852921,-0.00298292,0.0087824,-0.0266135,-1.48612,0.0212826,0.0306697,1371,1779,4.09668,-14.282
154,-755,4.08533,14.2267,-0.0246869,0.00816756,-0.00317503,0.00847157,-0.0249909,-1.47533,0.020089,0.0333056,1378,1779,4.08527,-14.2267
161,-755,4.11499,14.2328,0,0,0,0,0,0,0,-1,1385,1779,4.11494,-14.2328
168,-755,3.98181,7.35901,0,0,0,0,0,0,0,-1,1392,1779,3.98184,-7.35904
175,-755,8.17065,1.34363,0,0,0,0,0,0,0,-1,1399,1779,8.1706,-1.34368
182,-755,8.09216,2.96924,0,0,0,0,0,0,0,-1,1406,1779,8.09213,-2.9693
189,-755,8.04419,4.68042,0,0,0,0,0,0,0,-1,1413,1779,8.04419,-4.68046
196,-755,7.74841,7.4541,0,0,0,0,0,0,0,-1,1420,1779,7.74842,-7.45405
203,-755,4.80554,6.88696,0,0,0,0,0,0,0,-1,1427,1779,4.80554,-6.88697
210,-755,3.07959,4.92688,0,0,0,0,0,0,0,-1,1434,1779,3.07955,-4.9269
217,-755,5.24817,13.6167,0,0,0,0,0,0,0,-1,1441,1779,5.24822,-13.6167
224,-755,4.29126,13.5764,0,0,0,0,0,0,0,-1,1448,1779,4.2912,-13.5764
231,-755,3.66711,15.5414,0,0,0,0,0,0,0,-1,1455,1779,3.66712,-15.5414
238,-755,3.97791,13.8705,-0.0742466,-0.00443183,-0.0108005,-0.00279915,-0.0758793,-1.42077,0.0496794,0.0425108,1462,1779,3.97789,-13.8705
245,-755,4.28406,12.2063,0,0,0,0,0,0,0,-1,1469,1779,4.28405,-12.2063
252,-755,4.57764,10.5864,0,0,0,0,0,0,0,-1,1476,1779,4.57761,-10.5864
259,-755,19.3054,7.79248,0,0,0,0,0,0,0,-1,1483,1779,19.3054,-7.79245
266,-755,17.8599,7.48157,-0.156722,-0.000226422,0.00485141,-7.61747e-05,-0.156873,1.53984,0.104556,0.0478795,1490,1779,17.8598,-7.48152
273,-755,16.4017,7.30176,-0.178627,0.00377134,0.00931352,0.00424568,-0.179102,1.51991,0.120841,0.0473194,1497,1779,16.4018,-7.30181
280,-755,14.868,7.03943,0,0,0,0,0,0,0,-1,1504,1779,14.868,-7.03948
287,-755,12.8143,6.74976,0,0,0,0,0,0,0,-1,1511,1779,12.8143,-6.74971
294,-755,10.1927,6.44788,0,0,0,0,0,0,0,-1,1518,1779,10.1928,-6.44785
301,-755,8.29565,6.27539,0,0,0,0,0,0,0,-1,1525,1779,8.29569,-6.27534
308,-755,8.76111,7.19995,0,0,0,0,0,0,0,-1,1532,1779,8.76106,-7.19997
315,-755,7.66003,7.40503,0,0,0,0,0,0,0,-1,1539,1779,7.66006,-7.40499
322,-755,0,0,0,0,0,0,0,0,0,-1,1546,1779,0,0
329,-755,0,0,0,0,0,0,0,0,0,-1,1553,1779,0,0
336,-755,0,0,0,0,0,0,0,0,0,-1,1560,1779,0,0
343,-755,0,0,0,0,0,0,0,0,0,-1,1567,1779,0,0
350,-755,0,0,0,0,0,0,0,0,0,-1,1574,1779,0,0
357,-755,0,0,0,0,0,0,0,0,0,-1,1581,1779,0,0
364,-755,0,0,0,0,0,0,0,0,0,-1,1588,1779,0,0
371,-755,0,0,0,0,0,0,0,0,0,-1,1595,1779,0,0
378,-755,0,0,0,0,0,0,0,0,0,-1,1602,1779,0,0
385,-755,0,0,0,0,0,0,0,0,0,-1,1609,1779,0,0
392,-755,0,0,0,0,0,0,0,0,0,-1,1616,1779,0,0
399,-755,0,0,0,0,0,0,0,0,0,-1,1623,1779,0,0
406,-755,0,0,0,0,0,0,0,0,0,-1,1630,1779,0,0
413,-755,0,0,0,0,0,0,0,0,0,-1,1637,1779,0,0
420,-755,0,0,0,0,0,0,0,0,0,-1,1644,1779,0,0
427,-755,0,0,0,0,0,0,0,0,0,-1,1651,1779,0,0
434,-755,0,0,0,0,0,0,0,0,0,-1,1658,1779,0,0
441,-755,0,0,0,0,0,0,0,0,0,-1,1665,1779,0,0
448,-755,0,0,0,0,0,0,0,0,0,-1,1672,1779,0,0
455,-755,0,0,0,0,0,0,0,0,0,-1,1679,1779,0,0
462,-755,0,0,0,0,0,0,0,0,0,-1,1686,1779,0,0
469,-755,0,0,0,0,0,0,0,0,0,-1,1693,1779,0,0
476,-755,0,0,0,0,0,0,0,0,0,-1,1700,1779,0,0
483,-755,0,0,0,0,0,0,0,0,0,-1,1707,1779,0,0
490,-755,0,0,0,0,0,0,0,0,0,-1,1714,1779,0,0
497,-755,0,0,0,0,0,0,0,0,0,-1,1721,1779,0,0
504,-755,0,0,0,0,0,0,0,0,0,-1,1728,1779,0,0
511,-755,0,0,0,0,0,0,0,0,0,-1,1735,1779,0,0
518,-755,0,0,0,0,0,0,0,0,0,-1,1742,1779,0,0
525,-755,0,0,0,0,0,0,0,0,0,-1,1749,1779,0,0
532,-755,0,0,0,0,0,0,0,0,0,-1,1756,1779,0,0
539,-755,0,0,0,0,0,0,0,0,0,-1,1763,1779,0,0
546,-755,0,0,0,0,0,0,0,0,0,-1,1770,1779,0,0
553,-755,0,0,0,0,0,0,0,0,0,-1,1777,1779,0,0
560,-755,0,0,0,0,0,0,0,0,0,-1,1784,1779,0,0
567,-755,0,0,0,0,0,0,0,0,0,-1,1791,1779,0,0
574,-755,0,0,0,0,0,0,0,0,0,-1,1798,1779,0,0
581,-755,0,0,0,0,0,0,0,0,0,-1,1805,1779,0,0
588,-755,0,0,0,0,0,0,0,0,0,-1,1812,1779,0,0
595,-755,0,0,0,0,0,0,0,0,0,-1,1819,1779,0,0
602,-755,0,0,0,0,0,0,0,0,0,-1,1826,1779,0,0
609,-755,0,0,0,0,0,0,0,0,0,-1,1833,1779,0,0
616,-755,0,0,0,0,0,0,0,0,0,-1,1840,1779,0,0
623,-755,0,0,0,0,0,0,0,0,0,-1,1847,1779,0,0
630,-755,0,0,0,0,0,0,0,0,0,-1,1854,1779,0,0
637,-755,0,0,0,0,0,0,0,0,0,-1,1861,1779,0,0
644,-755,0,0,0,0,0,0,0,0,0,-1,1868,1779,0,0
651,-755,0,0,0,0,0,0,0,0,0,-1,1875,1779,0,0
658,-755,0,0,0,0,0,0,0,0,0,-1,1882,1779,0,0
665,-755,0,0,0,0,0,0,0,0,0,-1,1889,1779,0,0
672,-755,0,0,0,0,0,0,0,0,0,-1,1896,1779,0,0
679,-755,0,0,0,0,0,0,0,0,0,-1,1903,1779,0,0
686,-755,0,0,0,0,0,0,0,0,0,-1,1910,1779,0,0
693,-755,0,0,0,0,0,0,0,0,0,-1,1917,1779,0,0
700,-755,0,0,0,0,0,0,0,0,0,-1,1924,1779,0,0
707,-755,0,0,0,0,0,0,0,0,0,-1,1931,1779,0,0
714,-755,0,0,0,0,0,0,0,0,0,-1,1938,1779,0,0
721,-755,0,0,0,0,0,0,0,0,0,-1,1945,1779,0,0
728,-755,0,0,0,0,0,0,0,0,0,-1,1952,1779,0,0
735,-755,0,0,0,0,0,0,0,0,0,-1,1959,1779,0,0
742,-755,0,0,0,0,0,0,0,0,0,-1,1966,1779,0,0
749,-755,0,0,0,0,0,0,0,0,0,-1,1973,1779,0,0
756,-755,0,0,0,0,0,0,0,0,0,-1,1980,1779,0,0
763,-755,0,0,0,0,0,0,0,0,0,-1,1987,1779,0,0
770,-755,0,0,0,0,0,0,0,0,0,-1,1994,1779,0,0
777,-755,0,0,0,0,0,0,0,0,0,-1,2001,1779,0,0
784,-755,0,0,0,0,0,0,0,0,0,-1,2008,1779,0,0
791,-755,0,0,0,0,0,0,0,0,0,-1,2015,1779,0,0
798,-755,0,0,0,0,0,0,0,0,0,-1,2022,1779,0,0
805,-755,0,0,0,0,0,0,0,0,0,-1,2029,1779,0,0
812,-755,0,0,0,0,0,0,0,0,0,-1,2036,1779,0,0
-700,-762,0,0,0,0,0,0,0,0,0,-1,524,1786,0,0
-693,-762,0,0,0,0,0,0,0,0,0,-1,531,1786,0,0
-686,-762,0,0,0,0,0,0,0,0,0,-1,538,1786,0,0
-679,-762,0,0,0,0,0,0,0,0,0,-1,545,1786,0,0
-672,-762,0,0,0,0,0,0,0,0,0,-1,552,1786,0,0
-665,-762,0,0,0,0,0,0,0,0,0,-1,559,1786,0,0
-658,-762,0,0,0,0,0,0,0,0,0,-1,566,1786,0,0
-651,-762,0,0,0,0,0,0,0,0,0,-1,573,1786,0,0
-644,-762,0,0,0,0,0,0,0,0,0,-1,580,1786,0,0
-637,-762,0,0,0,0,0,0,0,0,0,-1,587,1786,0,0
-630,-762,0,0,0,0,0,0,0,0,0,-1,594,1786,0,0
-623,-762,0,0,0,0,0,0,0,0,0,-1,601,1786,0,0
-616,-762,0,0,0,0,0,0,0,0,0,-1,608,1786,0,0
-609,-762,0,0,0,0,0,0,0,0,0,-1,615,1786,0,0
-602,-762,0,0,0,0,0,0,0,0,0,-1,622,1786,0,0
-595,-762,0,0,0,0,0,0,0,0,0,-1,629,1786,0,0
-588,-762,0,0,0,0,0,0,0,0,0,-1,636,1786,0,0
-581,-762,0,0,0,0,0,0,0,0,0,-1,643,1786,0,0
-574,-762,0,0,0,0,0,0,0,0,0,-1,650,1786,0,0
-567,-762,0,0,0,0,0,0,0,0,0,-1,657,1786,0,0
-560,-762,0,0,0,0,0,0,0,0,0,-1,664,1786,0,0
-553,-762,0,0,0,0,0,0,0,0,0,-1,671,1786,0,0
-546,-762,0,0,0,0,0,0,0,0,0,-1,678,1786,0,0
-539,-762,0,0,0,0,0,0,0,0,0,-1,685,1786,0,0
-532,-762,0,0,0,0,0,0,0,0,0,-1,692,1786,0,0
-525,-762,0,0,0,0,0,0,0,0,0,-1,699,1786,0,0
-518,-762,0,0,0,0,0,0,0,0,0,-1,706,1786,0,0
-511,-762,0,0,0,0,0,0,0,0,0,-1,713,1786,0,0
-504,-762,0,0,0,0,0,0,0,0,0,-1,720,1786,0,0
-497,-762,0,0,0,0,0,0,0,0,0,-1,727,1786,0,0
-490,-762,0,0,0,0,0,0,0,0,0,-1,734,1786,0,0
-483,-762,0,0,0,0,0,0,0,0,0,-1,741,1786,0,0
-476,-762,0,0,0,0,0,0,0,0,0,-1,748,1786,0,0
-469,-762,0,0,0,0,0,0,0,0,0,-1,755,1786,0,0
-462,-762,0,0,0,0,0,0,0,0,0,-1,762,1786,0,0
-455,-762,0,0,0,0,0,0,0,0,0,-1,769,1786,0,0
-448,-762,0,0,0,0,0,0,0,0,0,-1,776,1786,0,0
-441,-762,0,0,0,0,0,0,0,0,0,-1,783,1786,0,0
-434,-762,0,0,0,0,0,0,0,0,0,-1,790,1786,0,0
-427,-762,0,0,0,0,0,0,0,0,0,-1,797,1786,0,0
-420,-762,0,0,0,0,0,0,0,0,0,-1,804,1786,0,0
-413,-762,0,0,0,0,0,0,0,0,0,-1,811,1786,0,0
-406,-762,0,0,0,0,0,0,0,0,0,-1,818,1786,0,0
-399,-762,0,0,0,0,0,0,0,0,0,-1,825,1786,0,0
-392,-762,0,0,0,0,0,0,0,0,0,-1,832,1786,0,0
-385,-762,0,0,0,0,0,0,0,0,0,-1,839,1786,0,0
-378,-762,0,0,0,0,0,0,0,0,0,-1,846,1786,0,0
-371,-762,0,0,0,0,0,0,0,0,0,-1,853,1786,0,0
-364,-762,0,0,0,0,0,0,0,0,0,-1,860,1786,0,0
-357,-762,0,0,0,0,0,0,0,0,0,-1,867,1786,0,0
-350,-762,0,0,0,0,0,0,0,0,0,-1,874,1786,0,0
-343,-762,0,0,0,0,0,0,0,0,0,-1,881,1786,0,0
-336,-762,0,0,0,0,0,0,0,0,0,-1,888,1786,0,0
-329,-762,0,0,0,0,0,0,0,0,0,-1,895,1786,0,0
-322,-762,0,0,0,0,0,0,0,0,0,-1,902,1786,0,0
-315,-762,0,0,0,0,0,0,0,0,0,-1,909,1786,0,0
-308,-762,0,0,0,0,0,0,0,0,0,-1,916,1786,0,0
-301,-762,0,0,0,0,0,0,0,0,0,-1,923,1786,0,0
-294,-762,0,0,0,0,0,0,0,0,0,-1,930,1786,0,0
-287,-762,0,0,0,0,0,0,0,0,0,-1,937,1786,0,0
-280,-762,0,0,0,0,0,0,0,0,0,-1,944,1786,0,0
-273,-762,0,0,0,0,0,0,0,0,0,-1,951,1786,0,0
-266,-762,0,0,0,0,0,0,0,0,0,-1,958,1786,0,0
-259,-762,0,0,0,0,0,0,0,0,0,-1,965,1786,0,0
-252,-762,0,0,0,0,0,0,0,0,0,-1,972,1786,0,0
-245,-762,0,0,0,0,0,0,0,0,0,-1,979,1786,0,0
-238,-762,0,0,0,0,0,0,0,0,0,-1,986,1786,0,0
-231,-762,0,0,0,0,0,0,0,0,0,-1,993,1786,0,0
-224,-762,0,0,0,0,0,0,0,0,0,-1,1000,1786,0,0
-217,-762,0,0,0,0,0,0,0,0,0,-1,1007,1786,0,0
-210,-762,0,0,0,0,0,0,0,0,0,-1,1014,1786,0,0
-203,-762,0,0,0,0,0,0,0,0,0,-1,1021,1786,0,0
-196,-762,0,0,0,0,0,0,0,0,0,-1,1028,1786,0,0
-189,-762,0,0,0,0,0,0,0,0,0,-1,1035,1786,0,0
-182,-762,4.44226,13.2462,0,0,0,0,0,0,0,-1,1042,1786,4.44227,-13.2462
-175,-762,4.07861,11.6385,0,0,0,0,0,0,0,-1,1049,1786,4.07866,-11.6386
-168,-762,3.71509,10.031,0,0,0,0,0,0,0,-1,1056,1786,3.71504,-10.031
-161,-762,-3.15735,11.7089,0,0,0,0,0,0,0,-1,1063,1786,-3.15736,-11.7088
-154,-762,-4.57129,10.9923,0,0,0,0,0,0,0,-1,1070,1786,-4.57132,-10.9923
-147,-762,-1.09119,4.58313,0,0,0,0,0,0,0,-1,1077,1786,-1.09124,-4.58313
-140,-762,4.99792,5.28589,0,0,0,0,0,0,0,-1,1084,1786,4.99793,-5.28587
-133,-762,3.75159,9.08374,0,0,0,0,0,0,0,-1,1091,1786,3.75161,-9.08378
-126,-762,4.12476,10.2291,0,0,0,0,0,0,0,-1,1098,1786,4.1247,-10.2291
-119,-762,5.86304,11.4209,0,0,0,0,0,0,0,-1,1105,1786,5.86304,-11.4209
-112,-762,5.02844,11.6722,-0.0941694,0.0256895,-0.0226385,0.0298228,-0.0983028,-1.39021,0.0774152,0.0436033,1112,1786,5.02843,-11.6723
-105,-762,4.2052,11.8458,-0.0919107,0.0249507,-0.0219924,0.0289524,-0.0959125,-1.3908,0.075467,0.0428205,1119,1786,4.20524,-11.8459
-98,-762,3.53113,12.0697,0,0,0,0,0,0,0,-1,1126,1786,3.53116,-12.0697
-91,-762,2.83752,11.9459,0,0,0,0,0,0,0,-1,1133,1786,2.83751,-11.946
-84,-762,0.415161,10.0322,0,0,0,0,0,0,0,-1,1140,1786,0.415179,-10.0322
-77,-762,0.305054,8.49365,0,0,0,0,0,0,0,-1,1147,1786,0.305008,-8.49362
-70,-762,0.183716,6.74622,0,0,0,0,0,0,0,-1,1154,1786,0.183696,-6.74621
-63,-762,0.350098,6.29749,0,0,0,0,0,0,0,-1,1161,1786,0.350114,-6.29743
-56,-762,-0.578979,5.10254,0,0,0,0,0,0,0,-1,1168,1786,-0.578951,-5.10249
-49,-762,-2.04541,3.66321,0,0,0,0,0,0,0,-1,1175,1786,-2.0454,-3.66319
-42,-762,-2.23462,3.474,0,0,0,0,0,0,0,-1,1182,1786,-2.23459,-3.47399
-35,-762,-3.28992,1.68164,0,0,0,0,0,0,0,-1,1189,1786,-3.28998,-1.68164
-28,-762,-3.75378,1.37769,0,0,0,0,0,0,0,-1,1196,1786,-3.75373,-1.37767
-21,-762,4.55432,14.0985,0,0,0,0,0,0,0,-1,1203,1786,4.55437,-14.0985
-14,-762,4.49341,14.0822,-0.00306571,0.00651507,0.0109503,0.013677,-0.0102276,0.991589,0.0138491,0.0477029,1210,1786,4.49343,-14.0822
-7,-762,4.79932,14.1628,-0.0055532,0.00576622,0.0101475,0.0117257,-0.0115126,1.03978,0.0134168,0.0451702,1217,1786,4.79934,-14.1628
0,-762,4.46692,13.9971,-0.008226,0.00433197,0.00946845,0.0094142,-0.0133082,1.07818,0.0131829,0.0357373,1224,1786,4.46694,-13.9971
7,-762,4.3783,14.1008,-0.0108141,0.00260672,0.00864101,0.0068369,-0.0150443,1.11555,0.0129259,0.021397,1231,1786,4.37831,-14.1009
14,-762,4.34583,14.1566,-0.0127942,0.000818328,0.00771121,0.00429739,-0.0162733,1.14697,0.0125294,0.0339012,1238,1786,4.34585,-14.1566
21,-762,4.23254,14.2256,-0.0143169,-0.000954074,0.00686397,0.00194342,-0.0172144,1.17136,0.0121759,0.0393339,1245,1786,4.2325,-14.2255
28,-762,4.07153,14.4047,-0.0152007,-0.00245891,0.0060322,-5.62202e-05,-0.0176034,1.19175,0.0117169,0.0372022,1252,1786,4.07148,-14.4046
35,-762,4.14502,14.4176,-0.015031,-0.00257694,0.00508395,-0.000765161,-0.0168428,1.22846,0.0109824,0.0421734,1259,1786,4.14496,-14.4176
42,-762,4.29236,14.3683,-0.0144944,-0.00185444,0.00393063,-0.000731838,-0.015617,1.2926,0.0101762,0.0401554,1266,1786,4.29239,-14.3683
49,-762,4.33167,14.3373,-0.0137167,-0.000998419,0.00305528,-0.000302528,-0.0144126,1.34685,0.00950913,0.0302065,1273,1786,4.3317,-14.3373
56,-762,4.29626,14.2937,-0.0125502,0.00042595,0.00201097,0.000730451,-0.0128547,1.42052,0.00882337,0.0208232,1280,1786,4.2963,-14.2937
63,-762,4.23865,14.317,-0.013089,0.00229467,0.0012725,0.00239922,-0.0131935,1.48882,0.0096949,0.0191307,1287,1786,4.23868,-14.317
70,-762,4.19189,14.3312,-0.0141092,0.00514586,0.000416704,0.00515488,-0.0141182,1.54917,0.0115215,0.0188276,1294,1786,4.19189,-14.3312
77,-762,4.15918,14.2849,-0.0156357,0.00828553,-0.000747959,0.00830889,-0.0156591,-1.53957,0.0140531,0.0249112,1301,1786,4.15923,-14.2849
84,-762,4.22241,14.2764,-0.0171454,0.0115066,-0.00140422,0.0115752,-0.0172141,-1.52194,0.0167275,0.0308164,1308,1786,4.22247,-14.2764
91,-762,4.23511,14.2969,-0.0198173,0.0141685,-0.00187106,0.0142712,-0.01992,-1.51596,0.0198299,0.039439,1315,1786,4.23509,-14.2968
98,-762,4.12402,14.3734,-0.0232452,0.0158354,-0.00236049,0.0159775,-0.0233873,-1.51069,0.0228611,0.042523,1322,1786,4.12405,-14.3735
105,-762,4.22034,14.483,-0.0268003,0.0171959,-0.00300033,0.0173995,-0.027004,-1.50302,0.0258355,0.0409807,1329,1786,4.22035,-14.4831
112,-762,4.29309,14.5204,0,0,0,0,0,0,0,-1,1336,1786,4.29309,-14.5203
119,-762,4.18408,14.126,0,0,0,0,0,0,0,-1,1343,1786,4.18411,-14.126
126,-762,0.497192,15.6813,0,0,0,0,0,0,0,-1,1350,1786,0.497181,-15.6812
133,-762,3.93677,14.3037,-0.0362879,0.0157542,-0.00444748,0.0161315,-0.0366652,-1.48615,0.0312412,0.0487891,1357,1786,3.93679,-14.3037
140,-762,4.04395,14.3479,-0.0363819,0.0145882,-0.00485595,0.0150467,-0.0368404,-1.47665,0.0308253,0.0475331,1364,1786,4.04398,-14.348
147,-762,3.93164,14.2736,-0.0357908,0.0135192,-0.00507374,0.0140358,-0.0363074,-1.46932,0.0299988,0.0448788,1371,1786,3.93163,-14.2736
154,-762,4.04651,14.2667,0,0,0,0,0,0,0,-1,1378,1786,4.04653,-14.2667
161,-762,7.93408,-0.126221,0,0,0,0,0,0,0,-1,1385,1786,7.93402,0.126232
168,-762,8.19287,0.880615,0,0,0,0,0,0,0,-1,1392,1786,8.19291,-0.880603
175,-762,8.33997,1.95947,0,0,0,0,0,0,0,-1,1399,1786,8.33997,-1.95942
182,-762,8.28418,3.56482,0,0,0,0,0,0,0,-1,1406,1786,8.28415,-3.56485
189,-762,8.21179,5.23389,0,0,0,0,0,0,0,-1,1413,1786,8.21183,-5.23383
196,-762,8.05969,6.95483,0,0,0,0,0,0,0,-1,1420,1786,8.05972,-6.9548
203,-762,6.1261,3.35522,0,0,0,0,0,0,0,-1,1427,1786,6.12607,-3.35529
210,-762,3.74841,6.60901,0,0,0,0,0,0,0,-1,1434,1786,3.74835,-6.609
217,-762,1.37061,9.86267,0,0,0,0,0,0,0,-1,1441,1786,1.37064,-9.86271
224,-762,4.00732,17.3151,0,0,0,0,0,0,0,-1,1448,1786,4.00731,-17.315
231,-762,4.03174,15.6346,0,0,0,0,0,0,0,-1,1455,1786,4.03174,-15.6346
238,-762,3.97461,14.0748,0,0,0,0,0,0,0,-1,1462,1786,3.97455,-14.0749
245,-762,4.45313,12.139,0,0,0,0,0,0,0,-1,1469,1786,4.45315,-12.139
252,-762,20.6208,9.06189,-0.14257,-0.00902147,-0.00486916,-0.00884417,-0.142747,-1.5344,0.092358,0.0391669,1476,1786,20.6208,-9.06185
259,-762,19.1664,8.13806,0,0,0,0,0,0,0,-1,1483,1786,19.1664,-8.13807
266,-762,17.4075,7.54456,-0.194607,-0.00559088,0.00615017,-0.00539097,-0.194807,1.5383,0.128112,0.0458955,1490,1786,17.4075,-7.54455
273,-762,15.8035,7.57849,-0.221006,-0.0015599,0.0118493,-0.000921927,-0.221644,1.51701,0.147456,0.0465806,1497,1786,15.8035,-7.57849
280,-762,14.5614,7.43396,0,0,0,0,0,0,0,-1,1504,1786,14.5614,-7.43401
287,-762,13.2286,6.92615,0,0,0,0,0,0,0,-1,1511,1786,13.2286,-6.92616
294,-762,11.8696,6.71265,0,0,0,0,0,0,0,-1,1518,1786,11.8696,-6.71262
301,-762,7.09546,7.00146,0,0,0,0,0,0,0,-1,1525,1786,7.0954,-7.00144
308,-762,0,0,0,0,0,0,0,0,0,-1,1532,1786,0,0
315,-762,0,0,0,0,0,0,0,0,0,-1,1539,1786,0,0
322,-762,0,0,0,0,0,0,0,0,0,-1,1546,1786,0,0
329,-762,0,0,0,0,0,0,0,0,0,-1,1553,1786,0,0
336,-762,0,0,0,0,0,0,0,0,0,-1,1560,1786,0,0
343,-762,0,0,0,0,0,0,0,0,0,-1,1567,1786,0,0
350,-762,0,0,0,0,0,0,0,0,0,-1,1574,1786,0,0
357,-762,0,0,0,0,0,0,0,0,0,-1,1581,1786,0,0
364,-762,0,0,0,0,0,0,0,0,0,-1,1588,1786,0,0
371,-762,0,0,0,0,0,0,0,0,0,-1,1595,1786,0,0
378,-762,0,0,0,0,0,0,0,0,0,-1,1602,1786,0,0
385,-762,0,0,0,0,0,0,0,0,0,-1,1609,1786,0,0
392,-762,0,0,0,0,0,0,0,0,0,-1,1616,1786,0,0
399,-762,0,0,0,0,0,0,0,0,0,-1,1623,1786,0,0
406,-762,0,0,0,0,0,0,0,0,0,-1,1630,1786,0,0
413,-762,0,0,0,0,0,0,0,0,0,-1,1637,1786,0,0
420,-762,0,0,0,0,0,0,0,0,0,-1,1644,1786,0,0
427,-762,0,0,0,0,0,0,0,0,0,-1,1651,1786,0,0
434,-762,0,0,0,0,0,0,0,0,0,-1,1658,1786,0,0
441,-762,0,0,0,0,0,0,0,0,0,-1,1665,1786,0,0
448,-762,0,0,0,0,0,0,0,0,0,-1,1672,1786,0,0
455,-762,0,0,0,0,0,0,0,0,0,-1,1679,1786,0,0
462,-762,0,0,0,0,0,0,0,0,0,-1,1686,1786,0,0
469,-762,0,0,0,0,0,0,0,0,0,-1,1693,1786,0,0
476,-762,0,0,0,0,0,0,0,0,0,-1,1700,1786,0,0
483,-762,0,0,0,0,0,0,0,0,0,-1,1707,1786,0,0
490,-762,0,0,0,0,0,0,0,0,0,-1,1714,1786,0,0
497,-762,0,0,0,0,0,0,0,0,0,-1,1721,1786,0,0
504,-762,0,0,0,0,0,0,0,0,0,-1,1728,1786,0,0
511,-762,0,0,0,0,0,0,0,0,0,-1,1735,1786,0,0
518,-762,0,0,0,0,0,0,0,0,0,-1,1742,1786,0,0
525,-762,0,0,0,0,0,0,0,0,0,-1,1749,1786,0,0
532,-762,0,0,0,0,0,0,0,0,0,-1,1756,1786,0,0
539,-762,0,0,0,0,0,0,0,0,0,-1,1763,1786,0,0
546,-762,0,0,0,0,0,0,0,0,0,-1,1770,1786,0,0
553,-762,0,0,0,0,0,0,0,0,0,-1,1777,1786,0,0
560,-762,0,0,0,0,0,0,0,0,0,-1,1784,1786,0,0
567,-762,0,0,0,0,0,0,0,0,0,-1,1791,1786,0,0
574,-762,0,0,0,0,0,0,0,0,0,-1,1798,1786,0,0
581,-762,0,0,0,0,0,0,0,0,0,-1,1805,1786,0,0
588,-762,0,0,0,0,0,0,0,0,0,-1,1812,1786,0,0
595,-762,0,0,0,0,0,0,0,0,0,-1,1819,1786,0,0
602,-762,0,0,0,0,0,0,0,0,0,-1,1826,1786,0,0
609,-762,0,0,0,0,0,0,0,0,0,-1,1833,1786,0,0
616,-762,0,0,0,0,0,0,0,0,0,-1,1840,1786,0,0
623,-762,0,0,0,0,0,0,0,0,0,-1,1847,1786,0,0
630,-762,0,0,0,0,0,0,0,0,0,-1,1854,1786,0,0
637,-762,0,0,0,0,0,0,0,0,0,-1,1861,1786,0,0
644,-762,0,0,0,0,0,0,0,0,0,-1,1868,1786,0,0
651,-762,0,0,0,0,0,0,0,0,0,-1,1875,1786,0,0
658,-762,0,0,0,0,0,0,0,0,0,-1,1882,1786,0,0
665,-762,0,0,0,0,0,0,0,0,0,-1,1889,1786,0,0
672,-762,0,0,0,0,0,0,0,0,0,-1,1896,1786,0,0
679,-762,0,0,0,0,0,0,0,0,0,-1,1903,1786,0,0
686,-762,0,0,0,0,0,0,0,0,0,-1,1910,1786,0,0
693,-762,0,0,0,0,0,0,0,0,0,-1,1917,1786,0,0
700,-762,0,0,0,0,0,0,0,0,0,-1,1924,1786,0,0
707,-762,0,0,0,0,0,0,0,0,0,-1,1931,1786,0,0
714,-762,0,0,0,0,0,0,0,0,0,-1,1938,1786,0,0
721,-762,0,0,0,0,0,0,0,0,0,-1,1945,1786,0,0
728,-762,0,0,0,0,0,0,0,0,0,-1,1952,1786,0,0
735,-762,0,0,0,0,0,0,0,0,0,-1,1959,1786,0,0
742,-762,0,0,0,0,0,0,0,0,0,-1,1966,1786,0,0
749,-762,0,0,0,0,0,0,0,0,0,-1,1973,1786,0,0
756,-762,0,0,0,0,0,0,0,0,0,-1,1980,1786,0,0
763,-762,0,0,0,0,0,0,0,0,0,-1,1987,1786,0,0
770,-762,0,0,0,0,0,0,0,0,0,-1,1994,1786,0,0
777,-762,0,0,0,0,0,0,0,0,0,-1,2001,1786,0,0
784,-762,0,0,0,0,0,0,0,0,0,-1,2008,1786,0,0
791,-762,0,0,0,0,0,0,0,0,0,-1,2015,1786,0,0
798,-762,0,0,0,0,0,0,0,0,0,-1,2022,1786,0,0
805,-762,0,0,0,0,0,0,0,0,0,-1,2029,1786,0,0
812,-762,0,0,0,0,0,0,0,0,0,-1,2036,1786,0,0
-700,-769,0,0,0,0,0,0,0,0,0,-1,524,1793,0,0
-693,-769,0,0,0,0,0,0,0,0,0,-1,531,1793,0,0
-686,-769,0,0,0,0,0,0,0,0,0,-1,538,1793,0,0
-679,-769,0,0,0,0,0,0,0,0,0,-1,545,1793,0,0
-672,-769,0,0,0,0,0,0,0,0,0,-1,552,1793,0,0
-665,-769,0,0,0,0,0,0,0,0,0,-1,559,1793,0,0
-658,-769,0,0,0,0,0,0,0,0,0,-1,566,1793,0,0
-651,-769,0,0,0,0,0,0,0,0,0,-1,573,1793,0,0
-644,-769,0,0,0,0,0,0,0,0,0,-1,580,1793,0,0
-637,-769,0,0,0,0,0,0,0,0,0,-1,587,1793,0,0
-630,-769,0,0,0,0,0,0,0,0,0,-1,594,1793,0,0
-623,-769,0,0,0,0,0,0,0,0,0,-1,601,1793,0,0
-616,-769,0,0,0,0,0,0,0,0,0,-1,608,1793,0,0
-609,-769,0,0,0,0,0,0,0,0,0,-1,615,1793,0,0
-602,-769,0,0,0,0,0,0,0,0,0,-1,622,1793,0,0
-595,-769,0,0,0,0,0,0,0,0,0,-1,629,1793,0,0
-588,-769,0,0,0,0,0,0,0,0,0,-1,636,1793,0,0
-581,-769,0,0,0,0,0,0,0,0,0,-1,643,1793,0,0
-574,-769,0,0,0,0,0,0,0,0,0,-1,650,1793,0,0
-567,-769,0,0,0,0,0,0,0,0,0,-1,657,1793,0,0
-560,-769,0,0,0,0,0,0,0,0,0,-1,664,1793,0,0
-553,-769,0,0,0,0,0,0,0,0,0,-1,671,1793,0,0
-546,-769,0,0,0,0,0,0,0,0,0,-1,678,1793,0,0
-539,-769,0,0,0,0,0,0,0,0,0,-1,685,1793,0,0
-532,-769,0,0,0,0,0,0,0,0,0,-1,692,1793,0,0
-525,-769,0,0,0,0,0,0,0,0,0,-1,699,1793,0,0
-518,-769,0,0,0,0,0,0,0,0,0,-1,706,1793,0,0
-511,-769,0,0,0,0,0,0,0,0,0,-1,713,1793,0,0
-504,-769,0,0,0,0,0,0,0,0,0,-1,720,1793,0,0
-497,-769,0,0,0,0,0,0,0,0,0,-1,727,1793,0,0
-490,-769,0,0,0,0,0,0,0,0,0,-1,734,1793,0,0
-483,-769,0,0,0,0,0,0,0,0,0,-1,741,1793,0,0
-476,-769,0,0,0,0,0,0,0,0,0,-1,748,1793,0,0
-469,-769,0,0,0,0,0,0,0,0,0,-1,755,1793,0,0
-462,-769,0,0,0,0,0,0,0,0,0,-1,762,1793,0,0
-455,-769,0,0,0,0,0,0,0,0,0,-1,769,1793,0,0
-448,-769,0,0,0,0,0,0,0,0,0,-1,776,1793,0,0
-441,-769,0,0,0,0,0,0,0,0,0,-1,783,1793,0,0
-434,-769,0,0,0,0,0,0,0,0,0,-1,790,1793,0,0
-427,-769,0,0,0,0,0,0,0,0,0,-1,797,1793,0,0
-420,-769,0,0,0,0,0,0,0,0,0,-1,804,1793,0,0
-413,-769,0,0,0,0,0,0,0,0,0,-1,811,1793,0,0
-406,-769,0,0,0,0,0,0,0,0,0,-1,818,1793,0,0
-399,-769,0,0,0,0,0,0,0,0,0,-1,825,1793,0,0
-392,-769,0,0,0,0,0,0,0,0,0,-1,832,1793,0,0
-385,-769,0,0,0,0,0,0,0,0,0,-1,839,1793,0,0
-378,-769,0,0,0,0,0,0,0,0,0,-1,846,1793,0,0
-371,-769,0,0,0,0,0,0,0,0,0,-1,853,1793,0,0
-364,-769,0,0,0,0,0,0,0,0,0,-1,860,1793,0,0
-357,-769,0,0,0,0,0,0,0,0,0,-1,867,1793,0,0
-350,-769,0,0,0,0,0,0,0,0,0,-1,874,1793,0,0
-343,-769,0,0,0,0,0,0,0,0,0,-1,881,1793,0,0
-336,-769,0,0,0,0,0,0,0,0,0,-1,888,1793,0,0
-329,-769,0,0,0,0,0,0,0,0,0,-1,895,1793,0,0
-322,-769,0,0,0,0,0,0,0,0,0,-1,902,1793,0,0
-315,-769,0,0,0,0,0,0,0,0,0,-1,909,1793,0,0
-308,-769,0,0,0,0,0,0,0,0,0,-1,916,1793,0,0
-301,-769,0,0,0,0,0,0,0,0,0,-1,923,1793,0,0
-294,-769,0,0,0,0,0,0,0,0,0,-1,930,1793,0,0
-287,-769,0,0,0,0,0,0,0,0,0,-1,937,1793,0,0
-280,-769,0,0,0,0,0,0,0,0,0,-1,944,1793,0,0
-273,-769,0,0,0,0,0,0,0,0,0,-1,951,1793,0,0
-266,-769,0,0,0,0,0,0,0,0,0,-1,958,1793,0,0
-259,-769,0,0,0,0,0,0,0,0,0,-1,965,1793,0,0
-252,-769,0,0,0,0,0,0,0,0,0,-1,972,1793,0,0
-245,-769,0,0,0,0,0,0,0,0,0,-1,979,1793,0,0
-238,-769,0,0,0,0,0,0,0,0,0,-1,986,1793,0,0
-231,-769,0,0,0,0,0,0,0,0,0,-1,993,1793,0,0
-224,-769,0,0,0,0,0,0,0,0,0,-1,1000,1793,0,0
-217,-769,0,0,0,0,0,0,0,0,0,-1,1007,1793,0,0
-210,-769,0,0,0,0,0,0,0,0,0,-1,1014,1793,0,0
-203,-769,0,0,0,0,0,0,0,0,0,-1,1021,1793,0,0
-196,-769,0,0,0,0,0,0,0,0,0,-1,1028,1793,0,0
-189,-769,0,0,0,0,0,0,0,0,0,-1,1035,1793,0,0
-182,-769,0,0,0,0,0,0,0,0,0,-1,1042,1793,0,0
-175,-769,0,0,0,0,0,0,0,0,0,-1,1049,1793,0,0
-168,-769,0,0,0,0,0,0,0,0,0,-1,1056,1793,0,0
-161,-769,-3.39258,12.5125,0,0,0,0,0,0,0,-1,1063,1793,-3.39257,-12.5125
-154,-769,-0.813232,5.32874,0,0,0,0,0,0,0,-1,1070,1793,-0.813269,-5.32872
-147,-769,4.26587,4.7002,0,0,0,0,0,0,0,-1,1077,1793,4.26593,-4.70022
-140,-769,4.10376,5.28589,0,0,0,0,0,0,0,-1,1084,1793,4.10371,-5.28584
-133,-769,6.422,8.21777,0,0,0,0,0,0,0,-1,1091,1793,6.42198,-8.21773
-126,-769,5.81738,11.5902,0,0,0,0,0,0,0,-1,1098,1793,5.81743,-11.5903
-119,-769,5.33301,11.7186,0,0,0,0,0,0,0,-1,1105,1793,5.33298,-11.7187
-112,-769,5.54468,11.8738,0,0,0,0,0,0,0,-1,1112,1793,5.54472,-11.8738
-105,-769,5.02502,11.8981,0,0,0,0,0,0,0,-1,1119,1793,5.02505,-11.8981
-98,-769,4.26172,12.4446,0,0,0,0,0,0,0,-1,1126,1793,4.26175,-12.4445
-91,-769,-0.0803223,13.1161,0,0,0,0,0,0,0,-1,1133,1793,-0.0803354,-13.1161
-84,-769,-0.758667,12.4458,0,0,0,0,0,0,0,-1,1140,1793,-0.758724,-12.4458
-77,-769,0.406616,9.9126,0,0,0,0,0,0,0,-1,1147,1793,0.406638,-9.91265
-70,-769,0.99707,7.63843,0,0,0,0,0,0,0,-1,1154,1793,0.997071,-7.63837
-63,-769,-0.0517578,6.57178,0,0,0,0,0,0,0,-1,1161,1793,-0.0517467,-6.5718
-56,-769,-1.22949,5.21887,0,0,0,0,0,0,0,-1,1168,1793,-1.22948,-5.21891
-49,-769,-2.41443,3.95471,0,0,0,0,0,0,0,-1,1175,1793,-2.41446,-3.95471
-42,-769,-3.1991,2.64941,0,0,0,0,0,0,0,-1,1182,1793,-3.19914,-2.64944
-35,-769,-3.50183,1.73389,0,0,0,0,0,0,0,-1,1189,1793,-3.50189,-1.7339
-28,-769,-3.96985,1.14075,0,0,0,0,0,0,0,-1,1196,1793,-3.96985,-1.14078
-21,-769,3.54541,10.4323,0,0,0,0,0,0,0,-1,1203,1793,3.54539,-10.4322
-14,-769,4.61218,14.1476,0,0,0,0,0,0,0,-1,1210,1793,4.6122,-14.1476
-7,-769,5.27234,14.3071,0,0,0,0,0,0,0,-1,1217,1793,5.27238,-14.3071
0,-769,4.48242,13.9594,0,0,0,0,0,0,0,-1,1224,1793,4.4824,-13.9593
7,-769,4.44739,14.0449,0,0,0,0,0,0,0,-1,1231,1793,4.44735,-14.0449
14,-769,4.41235,14.1305,0,0,0,0,0,0,0,-1,1238,1793,4.4123,-14.1305
21,-769,4.23608,14.2281,0,0,0,0,0,0,0,-1,1245,1793,4.23603,-14.2281
28,-769,3.88684,14.5813,0,0,0,0,0,0,0,-1,1252,1793,3.88685,-14.5813
35,-769,4.20667,14.5647,0,0,0,0,0,0,0,-1,1259,1793,4.2067,-14.5647
42,-769,3.83777,14.611,0,0,0,0,0,0,0,-1,1266,1793,3.83773,-14.6109
49,-769,4.48401,14.5045,0,0,0,0,0,0,0,-1,1273,1793,4.48406,-14.5046
56,-769,2.90796,14.5408,0,0,0,0,0,0,0,-1,1280,1793,2.90797,-14.5408
63,-769,4.16431,14.2988,-0.0161844,0.00332812,0.0019537,0.00352182,-0.0163781,1.47198,0.0122624,0.0426558,1287,1793,4.16431,-14.2988
70,-769,4.10864,14.2576,-0.017351,0.00693442,0.000747791,0.00695742,-0.017374,1.54004,0.0144705,0.0441792,1294,1793,4.10862,-14.2576
77,-769,4.10828,14.1958,-0.019023,0.0110008,-0.000858102,0.0110253,-0.0190475,-1.54225,0.0175672,0.0483427,1301,1793,4.10833,-14.1958
84,-769,4.82593,14.5323,0,0,0,0,0,0,0,-1,1308,1793,4.82593,-14.5324
91,-769,4.33398,14.2391,0,0,0,0,0,0,0,-1,1315,1793,4.33397,-14.2391
98,-769,4.35925,14.2267,0,0,0,0,0,0,0,-1,1322,1793,4.35925,-14.2267
105,-769,4.26355,14.6263,0,0,0,0,0,0,0,-1,1329,1793,4.26357,-14.6263
112,-769,4.54248,15.0728,-0.0379432,0.0242367,-0.00496238,0.0246302,-0.0383368,-1.49166,0.03664,0.0469644,1336,1793,4.54243,-15.0728
119,-769,1.98816,15.2214,-0.0424519,0.0238984,-0.00547881,0.0243477,-0.0429013,-1.48896,0.0393157,0.0437791,1343,1793,1.98813,-15.2214
126,-769,1.12122,15.506,-0.0452213,0.0229867,-0.00612572,0.0235325,-0.0457671,-1.48193,0.0406908,0.0445,1350,1793,1.12127,-15.506
133,-769,0.914063,16.8301,0,0,0,0,0,0,0,-1,1357,1793,0.914061,-16.83
140,-769,4.00854,14.3859,0,0,0,0,0,0,0,-1,1364,1793,4.00858,-14.3858
147,-769,3.86621,14.2593,0,0,0,0,0,0,0,-1,1371,1793,3.86625,-14.2593
154,-769,6.37561,1.00024,0,0,0,0,0,0,0,-1,1378,1793,6.37566,-1.00028
161,-769,6.57019,1.53223,0,0,0,0,0,0,0,-1,1385,1793,6.57019,-1.53226
168,-769,8.27637,0.756958,0,0,0,0,0,0,0,-1,1392,1793,8.27639,-0.756944
175,-769,8.47144,2.41174,0,0,0,0,0,0,0,-1,1399,1793,8.47147,-2.4118
182,-769,8.41479,4.05994,0,0,0,0,0,0,0,-1,1406,1793,8.41479,-4.05997
189,-769,8.25049,5.68433,0,0,0,0,0,0,0,-1,1413,1793,8.25054,-5.68428
196,-769,7.97729,7.42847,0,0,0,0,0,0,0,-1,1420,1793,7.9773,-7.42848
203,-769,6.67419,5.07715,0,0,0,0,0,0,0,-1,1427,1793,6.67423,-5.07717
210,-769,4.46021,8.59021,0,0,0,0,0,0,0,-1,1434,1793,4.46023,-8.59018
217,-769,2.24622,12.1031,0,0,0,0,0,0,0,-1,1441,1793,2.24623,-12.1032
224,-769,3.1051,13.2957,0,0,0,0,0,0,0,-1,1448,1793,3.10508,-13.2957
231,-769,4.01929,16.109,0,0,0,0,0,0,0,-1,1455,1793,4.01931,-16.109
238,-769,3.99438,14.4867,0,0,0,0,0,0,0,-1,1462,1793,3.99439,-14.4867
245,-769,21.1951,9.82092,0,0,0,0,0,0,0,-1,1469,1793,21.1951,-9.82096
252,-769,20.0562,9.15234,0,0,0,0,0,0,0,-1,1476,1793,20.0561,-9.15231
259,-769,18.5807,8.23254,0,0,0,0,0,0,0,-1,1483,1793,18.5807,-8.23251
266,-769,16.9462,7.63489,0,0,0,0,0,0,0,-1,1490,1793,16.9462,-7.63491
273,-769,15.2043,7.75403,0,0,0,0,0,0,0,-1,1497,1793,15.2043,-7.754
280,-769,13.75,7.79102,0,0,0,0,0,0,0,-1,1504,1793,13.75,-7.791
287,-769,0,0,0,0,0,0,0,0,0,-1,1511,1793,0,0
294,-769,0,0,0,0,0,0,0,0,0,-1,1518,1793,0,0
301,-769,0,0,0,0,0,0,0,0,0,-1,1525,1793,0,0
308,-769,0,0,0,0,0,0,0,0,0,-1,1532,1793,0,0
315,-769,0,0,0,0,0,0,0,0,0,-1,1539,1793,0,0
322,-769,0,0,0,0,0,0,0,0,0,-1,1546,1793,0,0
329,-769,0,0,0,0,0,0,0,0,0,-1,1553,1793,0,0
336,-769,0,0,0,0,0,0,0,0,0,-1,1560,1793,0,0
343,-769,0,0,0,0,0,0,0,0,0,-1,1567,1793,0,0
350,-769,0,0,0,0,0,0,0,0,0,-1,1574,1793,0,0
357,-769,0,0,0,0,0,0,0,0,0,-1,1581,1793,0,0
364,-769,0,0,0,0,0,0,0,0,0,-1,1588,1793,0,0
371,-769,0,0,0,0,0,0,0,0,0,-1,1595,1793,0,0
378,-769,0,0,0,0,0,0,0,0,0,-1,1602,1793,0,0
385,-769,0,0,0,0,0,0,0,0,0,-1,1609,1793,0,0
392,-769,0,0,0,0,0,0,0,0,0,-1,1616,1793,0,0
399,-769,0,0,0,0,0,0,0,0,0,-1,1623,1793,0,0
406,-769,0,0,0,0,0,0,0,0,0,-1,1630,1793,0,0
413,-769,0,0,0,0,0,0,0,0,0,-1,1637,1793,0,0
420,-769,0,0,0,0,0,0,0,0,0,-1,1644,1793,0,0
427,-769,0,0,0,0,0,0,0,0,0,-1,1651,1793,0,0
434,-769,0,0,0,0,0,0,0,0,0,-1,1658,1793,0,0
441,-769,0,0,0,0,0,0,0,0,0,-1,1665,1793,0,0
448,-769,0,0,0,0,0,0,0,0,0,-1,1672,1793,0,0
455,-769,0,0,0,0,0,0,0,0,0,-1,1679,1793,0,0
462,-769,0,0,0,0,0,0,0,0,0,-1,1686,1793,0,0
469,-769,0,0,0,0,0,0,0,0,0,-1,1693,1793,0,0
476,-769,0,0,0,0,0,0,0,0,0,-1,1700,1793,0,0
483,-769,0,0,0,0,0,0,0,0,0,-1,1707,1793,0,0
490,-769,0,0,0,0,0,0,0,0,0,-1,1714,1793,0,0
497,-769,0,0,0,0,0,0,0,0,0,-1,1721,1793,0,0
504,-769,0,0,0,0,0,0,0,0,0,-1,1728,1793,0,0
511,-769,0,0,0,0,0,0,0,0,0,-1,1735,1793,0,0
518,-769,0,0,0,0,0,0,0,0,0,-1,1742,1793,0,0
525,-769,0,0,0,0,0,0,0,0,0,-1,1749,1793,0,0
532,-769,0,0,0,0,0,0,0,0,0,-1,1756,1793,0,0
539,-769,0,0,0,0,0,0,0,0,0,-1,1763,1793,0,0
546,-769,0,0,0,0,0,0,0,0,0,-1,1770,1793,0,0
553,-769,0,0,0,0,0,0,0,0,0,-1,1777,1793,0,0
560,-769,0,0,0,0,0,0,0,0,0,-1,1784,1793,0,0
567,-769,0,0,0,0,0,0,0,0,0,-1,1791,1793,0,0
574,-769,0,0,0,0,0,0,0,0,0,-1,1798,1793,0,0
581,-769,0,0,0,0,0,0,0,0,0,-1,1805,1793,0,0
588,-769,0,0,0,0,0,0,0,0,0,-1,1812,1793,0,0
595,-769,0,0,0,0,0,0,0,0,0,-1,1819,1793,0,0
602,-769,0,0,0,0,0,0,0,0,0,-1,1826,1793,0,0
609,-769,0,0,0,0,0,0,0,0,0,-1,1833,1793,0,0
616,-769,0,0,0,0,0,0,0,0,0,-1,1840,1793,0,0
623,-769,0,0,0,0,0,0,0,0,0,-1,1847,1793,0,0
630,-769,0,0,0,0,0,0,0,0,0,-1,1854,1793,0,0
637,-769,0,0,0,0,0,0,0,0,0,-1,1861,1793,0,0
644,-769,0,0,0,0,0,0,0,0,0,-1,1868,1793,0,0
651,-769,0,0,0,0,0,0,0,0,0,-1,1875,1793,0,0
658,-769,0,0,0,0,0,0,0,0,0,-1,1882,1793,0,0
665,-769,0,0,0,0,0,0,0,0,0,-1,1889,1793,0,0
672,-769,0,0,0,0,0,0,0,0,0,-1,1896,1793,0,0
679,-769,0,0,0,0,0,0,0,0,0,-1,1903,1793,0,0
686,-769,0,0,0,0,0,0,0,0,0,-1,1910,1793,0,0
693,-769,0,0,0,0,0,0,0,0,0,-1,1917,1793,0,0
700,-769,0,0,0,0,0,0,0,0,0,-1,1924,1793,0,0
707,-769,0,0,0,0,0,0,0,0,0,-1,1931,1793,0,0
714,-769,0,0,0,0,0,0,0,0,0,-1,1938,1793,0,0
721,-769,0,0,0,0,0,0,0,0,0,-1,1945,1793,0,0
728,-769,0,0,0,0,0,0,0,0,0,-1,1952,1793,0,0
735,-769,0,0,0,0,0,0,0,0,0,-1,1959,1793,0,0
742,-769,0,0,0,0,0,0,0,0,0,-1,1966,1793,0,0
749,-769,0,0,0,0,0,0,0,0,0,-1,1973,1793,0,0
756,-769,0,0,0,0,0,0,0,0,0,-1,1980,1793,0,0
763,-769,0,0,0,0,0,0,0,0,0,-1,1987,1793,0,0
770,-769,0,0,0,0,0,0,0,0,0,-1,1994,1793,0,0
777,-769,0,0,0,0,0,0,0,0,0,-1,2001,1793,0,0
784,-769,0,0,0,0,0,0,0,0,0,-1,2008,1793,0,0
791,-769,0,0,0,0,0,0,0,0,0,-1,2015,1793,0,0
798,-769,0,0,0,0,0,0,0,0,0,-1,2022,1793,0,0
805,-769,0,0,0,0,0,0,0,0,0,-1,2029,1793,0,0
812,-769,0,0,0,0,0,0,0,0,0,-1,2036,1793,0,0
-700,-776,0,0,0,0,0,0,0,0,0,-1,524,1800,0,0
-693,-776,0,0,0,0,0,0,0,0,0,-1,531,1800,0,0
-686,-776,0,0,0,0,0,0,0,0,0,-1,538,1800,0,0
-679,-776,0,0,0,0,0,0,0,0,0,-1,545,1800,0,0
-672,-776,0,0,0,0,0,0,0,0,0,-1,552,1800,0,0
-665,-776,0,0,0,0,0,0,0,0,0,-1,559,1800,0,0
-658,-776,0,0,0,0,0,0,0,0,0,-1,566,1800,0,0
-651,-776,0,0,0,0,0,0,0,0,0,-1,573,1800,0,0
-644,-776,0,0,0,0,0,0,0,0,0,-1,580,1800,0,0
-637,-776,0,0,0,0,0,0,0,0,0,-1,587,1800,0,0
-630,-776,0,0,0,0,0,0,0,0,0,-1,594,1800,0,0
-623,-776,0,0,0,0,0,0,0,0,0,-1,601,1800,0,0
-616,-776,0,0,0,0,0,0,0,0,0,-1,608,1800,0,0
-609,-776,0,0,0,0,0,0,0,0,0,-1,615,1800,0,0
-602,-776,0,0,0,0,0,0,0,0,0,-1,622,1800,0,0
-595,-776,0,0,0,0,0,0,0,0,0,-1,629,1800,0,0
-588,-776,0,0,0,0,0,0,0,0,0,-1,636,1800,0,0
-581,-776,0,0,0,0,0,0,0,0,0,-1,643,1800,0,0
-574,-776,0,0,0,0,0,0,0,0,0,-1,650,1800,0,0
-567,-776,0,0,0,0,0,0,0,0,0,-1,657,1800,0,0
-560,-776,0,0,0,0,0,0,0,0,0,-1,664,1800,0,0
-553,-776,0,0,0,0,0,0,0,0,0,-1,671,1800,0,0
-546,-776,0,0,0,0,0,0,0,0,0,-1,678,1800,0,0
-539,-776,0,0,0,0,0,0,0,0,0,-1,685,1800,0,0
-532,-776,0,0,0,0,0,0,0,0,0,-1,692,1800,0,0
-525,-776,0,0,0,0,0,0,0,0,0,-1,699,1800,0,0
-518,-776,0,0,0,0,0,0,0,0,0,-1,706,1800,0,0
-511,-776,0,0,0,0,0,0,0,0,0,-1,713,1800,0,0
-504,-776,0,0,0,0,0,0,0,0,0,-1,720,1800,0,0
-497,-776,0,0,0,0,0,0,0,0,0,-1,727,1800,0,0
-490,-776,0,0,0,0,0,0,0,0,0,-1,734,1800,0,0
-483,-776,0,0,0,0,0,0,0,0,0,-1,741,1800,0,0
-476,-776,0,0,0,0,0,0,0,0,0,-1,748,1800,0,0
-469,-776,0,0,0,0,0,0,0,0,0,-1,755,1800,0,0
-462,-776,0,0,0,0,0,0,0,0,0,-1,762,1800,0,0
-455,-776,0,0,0,0,0,0,0,0,0,-1,769,1800,0,0
-448,-776,0,0,0,0,0,0,0,0,0,-1,776,1800,0,0
-441,-776,0,0,0,0,0,0,0,0,0,-1,783,1800,0,0
-434,-776,0,0,0,0,0,0,0,0,0,-1,790,1800,0,0
-427,-776,0,0,0,0,0,0,0,0,0,-1,797,1800,0,0
-420,-776,0,0,0,0,0,0,0,0,0,-1,804,1800,0,0
-413,-776,0,0,0,0,0,0,0,0,0,-1,811,1800,0,0
-406,-776,0,0,0,0,0,0,0,0,0,-1,818,1800,0,0
-399,-776,0,0,0,0,0,0,0,0,0,-1,825,1800,0,0
-392,-776,0,0,0,0,0,0,0,0,0,-1,832,1800,0,0
-385,-776,0,0,0,0,0,0,0,0,0,-1,839,1800,0,0
-378,-776,0,0,0,0,0,0,0,0,0,-1,846,1800,0,0
-371,-776,0,0,0,0,0,0,0,0,0,-1,853,1800,0,0
-364,-776,0,0,0,0,0,0,0,0,0,-1,860,1800,0,0
-357,-776,0,0,0,0,0,0,0,0,0,-1,867,1800,0,0
-350,-776,0,0,0,0,0,0,0,0,0,-1,874,1800,0,0
-343,-776,0,0,0,0,0,0,0,0,0,-1,881,1800,0,0
-336,-776,0,0,0,0,0,0,0,0,0,-1,888,1800,0,0
-329,-776,0,0,0,0,0,0,0,0,0,-1,895,1800,0,0
-322,-776,0,0,0,0,0,0,0,0,0,-1,902,1800,0,0
-315,-776,0,0,0,0,0,0,0,0,0,-1,909,1800,0,0
-308,-776,0,0,0,0,0,0,0,0,0,-1,916,1800,0,0
-301,-776,0,0,0,0,0,0,0,0,0,-1,923,1800,0,0
-294,-776,0,0,0,0,0,0,0,0,0,-1,930,1800,0,0
-287,-776,0,0,0,0,0,0,0,0,0,-1,937,1800,0,0
-280,-776,0,0,0,0,0,0,0,0,0,-1,944,1800,0,0
-273,-776,0,0,0,0,0,0,0,0,0,-1,951,1800,0,0
-266,-776,0,0,0,0,0,0,0,0,0,-1,958,1800,0,0
-259,-776,0,0,0,0,0,0,0,0,0,-1,965,1800,0,0
-252,-776,0,0,0,0,0,0,0,0,0,-1,972,1800,0,0
-245,-776,0,0,0,0,0,0,0,0,0,-1,979,1800,0,0
-238,-776,0,0,0,0,0,0,0,0,0,-1,986,1800,0,0
-231,-776,0,0,0,0,0,0,0,0,0,-1,993,1800,0,0
-224,-776,0,0,0,0,0,0,0,0,0,-1,1000,1800,0,0
-217,-776,0,0,0,0,0,0,0,0,0,-1,1007,1800,0,0
-210,-776,0,0,0,0,0,0,0,0,0,-1,1014,1800,0,0
-203,-776,0,0,0,0,0,0,0,0,0,-1,1021,1800,0,0
-196,-776,0,0,0,0,0,0,0,0,0,-1,1028,1800,0,0
-189,-776,0,0,0,0,0,0,0,0,0,-1,1035,1800,0,0
-182,-776,0,0,0,0,0,0,0,0,0,-1,1042,1800,0,0
-175,-776,0,0,0,0,0,0,0,0,0,-1,1049,1800,0,0
-168,-776,0,0,0,0,0,0,0,0,0,-1,1056,1800,0,0
-161,-776,0,0,0,0,0,0,0,0,0,-1,1063,1800,0,0
-154,-776,0,0,0,0,0,0,0,0,0,-1,1070,1800,0,0
-147,-776,0,0,0,0,0,0,0,0,0,-1,1077,1800,0,0
-140,-776,2.98499,5.20911,0,0,0,0,0,0,0,-1,1084,1800,2.98493,-5.2091
-133,-776,6.72363,9.35828,0,0,0,0,0,0,0,-1,1091,1800,6.72358,-9.35824
-126,-776,4.9613,13.2006,0,0,0,0,0,0,0,-1,1098,1800,4.96128,-13.2005
-119,-776,4.56226,13.1111,0,0,0,0,0,0,0,-1,1105,1800,4.56223,-13.111
-112,-776,4.21924,12.8807,0,0,0,0,0,0,0,-1,1112,1800,4.21927,-12.8807
-105,-776,5.75183,12.2971,0,0,0,0,0,0,0,-1,1119,1800,5.75177,-12.2971
-98,-776,3.59863,13.1719,0,0,0,0,0,0,0,-1,1126,1800,3.59867,-13.1718
-91,-776,-0.0234375,14.5359,0,0,0,0,0,0,0,-1,1133,1800,-0.0234849,-14.5359
-84,-776,0.175415,12.9197,0,0,0,0,0,0,0,-1,1140,1800,0.175445,-12.9197
-77,-776,0.580078,11.1272,0,0,0,0,0,0,0,-1,1147,1800,0.58002,-11.1272
-70,-776,-2.7771,5.02222,0,0,0,0,0,0,0,-1,1154,1800,-2.77711,-5.02221
-63,-776,-0.453613,6.84619,0,0,0,0,0,0,0,-1,1161,1800,-0.453608,-6.84617
-56,-776,-2.95715,5.41614,0,0,0,0,0,0,0,-1,1168,1800,-2.95718,-5.4161
-49,-776,-2.81018,4.39587,0,0,0,0,0,0,0,-1,1175,1800,-2.8102,-4.39592
-42,-776,-3.41272,3.0249,0,0,0,0,0,0,0,-1,1182,1800,-3.41269,-3.02488
-35,-776,-3.71753,1.63635,0,0,0,0,0,0,0,-1,1189,1800,-3.71755,-1.63631
-28,-776,-4.03979,0.716064,0,0,0,0,0,0,0,-1,1196,1800,-4.03977,-0.716055
-21,-776,3.37305,11.3751,0,0,0,0,0,0,0,-1,1203,1800,3.37306,-11.3751
-14,-776,6.12109,14.5323,0,0,0,0,0,0,0,-1,1210,1800,6.12111,-14.5323
-7,-776,6.06494,12.4835,0,0,0,0,0,0,0,-1,1217,1800,6.06498,-12.4835
0,-776,6.30811,13.4774,0,0,0,0,0,0,0,-1,1224,1800,6.3081,-13.4774
7,-776,4.51965,13.9938,0,0,0,0,0,0,0,-1,1231,1800,4.51966,-13.9938
14,-776,5.74915,14.2871,-0.0189883,0.00318382,0.0152117,0.0109205,-0.0267251,1.10029,0.0223641,0.0441948,1238,1800,5.74919,-14.2871
21,-776,5.23413,14.4351,0,0,0,0,0,0,0,-1,1245,1800,5.23409,-14.435
28,-776,4.68396,14.5905,-0.0233003,-0.00289876,0.01162,0.00236269,-0.0285617,1.14562,0.0198756,0.0439825,1252,1800,4.68399,-14.5905
35,-776,4.22961,14.6046,-0.0229639,-0.00346627,0.00980685,0.000612927,-0.0270431,1.17661,0.0182365,0.0453529,1259,1800,4.22964,-14.6047
42,-776,3.79016,14.6189,-0.0217612,-0.00227571,0.00764496,0.000365669,-0.0244026,1.23813,0.0163916,0.0453561,1266,1800,3.79011,-14.6189
49,-776,3.38098,14.6753,-0.0203132,-0.000927985,0.00594243,0.000748623,-0.0219898,1.2958,0.0149157,0.0451238,1273,1800,3.38104,-14.6753
56,-776,2.89563,14.7826,-0.0184449,0.00156011,0.00410395,0.00236929,-0.019254,1.37612,0.0136943,0.0474651,1280,1800,2.89566,-14.7826
63,-776,2.39478,15.0107,0,0,0,0,0,0,0,-1,1287,1800,2.39473,-15.0107
70,-776,1.6875,16.2621,0,0,0,0,0,0,0,-1,1294,1800,1.68756,-16.2621
77,-776,5.00232,14.486,0,0,0,0,0,0,0,-1,1301,1800,5.00231,-14.486
84,-776,4.98499,14.2272,-0.0239301,0.019467,-0.00227218,0.0195856,-0.0240488,-1.51863,0.0252362,0.0484895,1308,1800,4.98497,-14.2272
91,-776,4.93933,13.9192,-0.0278201,0.0243736,-0.00330112,0.0245816,-0.028028,-1.50788,0.0303959,0.0445672,1315,1800,4.93935,-13.9192
98,-776,4.69446,14.0251,-0.0332974,0.0277927,-0.00450597,0.0281232,-0.033628,-1.49757,0.0356993,0.042851,1322,1800,4.6945,-14.0252
105,-776,4.47595,14.2599,-0.0392696,0.0308561,-0.00603136,0.031371,-0.0397845,-1.48562,0.0411773,0.0439144,1329,1800,4.47593,-14.2599
112,-776,4.24707,14.8254,-0.0454812,0.0320266,-0.00701195,0.0326559,-0.0461105,-1.4813,0.0456964,0.0465214,1336,1800,4.24702,-14.8254
119,-776,2.75037,15.1842,-0.0515013,0.0317079,-0.00783522,0.0324393,-0.0522327,-1.47772,0.0493286,0.0413907,1343,1800,2.75032,-15.1842
126,-776,1.7406,15.6342,-0.0552549,0.030586,-0.00888962,0.031497,-0.0561659,-1.46868,0.0512758,0.0453728,1350,1800,1.74058,-15.6341
133,-776,0.898315,15.8926,0,0,0,0,0,0,0,-1,1357,1800,0.898308,-15.8926
140,-776,4.39331,10.0631,0,0,0,0,0,0,0,-1,1364,1800,4.39332,-10.0631
147,-776,6.46301,-0.617188,0,0,0,0,0,0,0,-1,1371,1800,6.46305,0.61724
154,-776,6.43774,0.344116,0,0,0,0,0,0,0,-1,1378,1800,6.43776,-0.344162
161,-776,6.50293,1.1731,0,0,0,0,0,0,0,-1,1385,1800,6.5029,-1.17313
168,-776,8.44971,1.22913,0,0,0,0,0,0,0,-1,1392,1800,8.44974,-1.22915
175,-776,8.61523,2.87061,0,0,0,0,0,0,0,-1,1399,1800,8.6152,-2.87063
182,-776,8.54065,4.60645,0,0,0,0,0,0,0,-1,1406,1800,8.5407,-4.60643
189,-776,8.35303,6.28223,0,0,0,0,0,0,0,-1,1413,1800,8.35297,-6.28225
196,-776,8.0387,8.21704,0,0,0,0,0,0,0,-1,1420,1800,8.03865,-8.217
203,-776,7.91736,9.79919,0,0,0,0,0,0,0,-1,1427,1800,7.91735,-9.79922
210,-776,5.03577,10.4949,0,0,0,0,0,0,0,-1,1434,1800,5.03574,-10.4948
217,-776,1.48315,8.46082,0,0,0,0,0,0,0,-1,1441,1800,1.48314,-8.46081
224,-776,3.09253,14.9313,0,0,0,0,0,0,0,-1,1448,1800,3.09254,-14.9313
231,-776,14.7521,7.10779,0,0,0,0,0,0,0,-1,1455,1800,14.7521,-7.10776
238,-776,14.3297,7.43896,0,0,0,0,0,0,0,-1,1462,1800,14.3298,-7.43896
245,-776,20.6941,10.4924,0,0,0,0,0,0,0,-1,1469,1800,20.6941,-10.4924
252,-776,19.6592,9.16882,0,0,0,0,0,0,0,-1,1476,1800,19.6592,-9.16888
259,-776,14.1882,7.69055,0,0,0,0,0,0,0,-1,1483,1800,14.1882,-7.69061
266,-776,0,0,0,0,0,0,0,0,0,-1,1490,1800,0,0
273,-776,0,0,0,0,0,0,0,0,0,-1,1497,1800,0,0
280,-776,0,0,0,0,0,0,0,0,0,-1,1504,1800,0,0
287,-776,0,0,0,0,0,0,0,0,0,-1,1511,1800,0,0
294,-776,0,0,0,0,0,0,0,0,0,-1,1518,1800,0,0
301,-776,0,0,0,0,0,0,0,0,0,-1,1525,1800,0,0
308,-776,0,0,0,0,0,0,0,0,0,-1,1532,1800,0,0
315,-776,0,0,0,0,0,0,0,0,0,-1,1539,1800,0,0
322,-776,0,0,0,0,0,0,0,0,0,-1,1546,1800,0,0
329,-776,0,0,0,0,0,0,0,0,0,-1,1553,1800,0,0
336,-776,0,0,0,0,0,0,0,0,0,-1,1560,1800,0,0
343,-776,0,0,0,0,0,0,0,0,0,-1,1567,1800,0,0
350,-776,0,0,0,0,0,0,0,0,0,-1,1574,1800,0,0
357,-776,0,0,0,0,0,0,0,0,0,-1,1581,1800,0,0
364,-776,0,0,0,0,0,0,0,0,0,-1,1588,1800,0,0
371,-776,0,0,0,0,0,0,0,0,0,-1,1595,1800,0,0
378,-776,0,0,0,0,0,0,0,0,0,-1,1602,1800,0,0
385,-776,0,0,0,0,0,0,0,0,0,-1,1609,1800,0,0
392,-776,0,0,0,0,0,0,0,0,0,-1,1616,1800,0,0
399,-776,0,0,0,0,0,0,0,0,0,-1,1623,1800,0,0
406,-776,0,0,0,0,0,0,0,0,0,-1,1630,1800,0,0
413,-776,0,0,0,0,0,0,0,0,0,-1,1637,1800,0,0
420,-776,0,0,0,0,0,0,0,0,0,-1,1644,1800,0,0
427,-776,0,0,0,0,0,0,0,0,0,-1,1651,1800,0,0
434,-776,0,0,0,0,0,0,0,0,0,-1,1658,1800,0,0
441,-776,0,0,0,0,0,0,0,0,0,-1,1665,1800,0,0
448,-776,0,0,0,0,0,0,0,0,0,-1,1672,1800,0,0
455,-776,0,0,0,0,0,0,0,0,0,-1,1679,1800,0,0
462,-776,0,0,0,0,0,0,0,0,0,-1,1686,1800,0,0
469,-776,0,0,0,0,0,0,0,0,0,-1,1693,1800,0,0
476,-776,0,0,0,0,0,0,0,0,0,-1,1700,1800,0,0
483,-776,0,0,0,0,0,0,0,0,0,-1,1707,1800,0,0
490,-776,0,0,0,0,0,0,0,0,0,-1,1714,1800,0,0
497,-776,0,0,0,0,0,0,0,0,0,-1,1721,1800,0,0
504,-776,0,0,0,0,0,0,0,0,0,-1,1728,1800,0,0
511,-776,0,0,0,0,0,0,0,0,0,-1,1735,1800,0,0
518,-776,0,0,0,0,0,0,0,0,0,-1,1742,1800,0,0
525,-776,0,0,0,0,0,0,0,0,0,-1,1749,1800,0,0
532,-776,0,0,0,0,0,0,0,0,0,-1,1756,1800,0,0
539,-776,0,0,0,0,0,0,0,0,0,-1,1763,1800,0,0
546,-776,0,0,0,0,0,0,0,0,0,-1,1770,1800,0,0
553,-776,0,0,0,0,0,0,0,0,0,-1,1777,1800,0,0
560,-776,0,0,0,0,0,0,0,0,0,-1,1784,1800,0,0
567,-776,0,0,0,0,0,0,0,0,0,-1,1791,1800,0,0
574,-776,0,0,0,0,0,0,0,0,0,-1,1798,1800,0,0
581,-776,0,0,0,0,0,0,0,0,0,-1,1805,1800,0,0
588,-776,0,0,0,0,0,0,0,0,0,-1,1812,1800,0,0
595,-776,0,0,0,0,0,0,0,0,0,-1,1819,1800,0,0
602,-776,0,0,0,0,0,0,0,0,0,-1,1826,1800,0,0
609,-776,0,0,0,0,0,0,0,0,0,-1,1833,1800,0,0
616,-776,0,0,0,0,0,0,0,0,0,-1,1840,1800,0,0
623,-776,0,0,0,0,0,0,0,0,0,-1,1847,1800,0,0
630,-776,0,0,0,0,0,0,0,0,0,-1,1854,1800,0,0
637,-776,0,0,0,0,0,0,0,0,0,-1,1861,1800,0,0
644,-776,0,0,0,0,0,0,0,0,0,-1,1868,1800,0,0
651,-776,0,0,0,0,0,0,0,0,0,-1,1875,1800,0,0
658,-776,0,0,0,0,0,0,0,0,0,-1,1882,1800,0,0
665,-776,0,0,0,0,0,0,0,0,0,-1,1889,1800,0,0
672,-776,0,0,0,0,0,0,0,0,0,-1,1896,1800,0,0
679,-776,0,0,0,0,0,0,0,0,0,-1,1903,1800,0,0
686,-776,0,0,0,0,0,0,0,0,0,-1,1910,1800,0,0
693,-776,0,0,0,0,0,0,0,0,0,-1,1917,1800,0,0
700,-776,0,0,0,0,0,0,0,0,0,-1,1924,1800,0,0
707,-776,0,0,0,0,0,0,0,0,0,-1,1931,1800,0,0
714,-776,0,0,0,0,0,0,0,0,0,-1,1938,1800,0,0
721,-776,0,0,0,0,0,0,0,0,0,-1,1945,1800,0,0
728,-776,0,0,0,0,0,0,0,0,0,-1,1952,1800,0,0
735,-776,0,0,0,0,0,0,0,0,0,-1,1959,1800,0,0
742,-776,0,0,0,0,0,0,0,0,0,-1,1966,1800,0,0
749,-776,0,0,0,0,0,0,0,0,0,-1,1973,1800,0,0
756,-776,0,0,0,0,0,0,0,0,0,-1,1980,1800,0,0
763,-776,0,0,0,0,0,0,0,0,0,-1,1987,1800,0,0
770,-776,0,0,0,0,0,0,0,0,0,-1,1994,1800,0,0
777,-776,0,0,0,0,0,0,0,0,0,-1,2001,1800,0,0
784,-776,0,0,0,0,0,0,0,0,0,-1,2008,1800,0,0
791,-776,0,0,0,0,0,0,0,0,0,-1,2015,1800,0,0
798,-776,0,0,0,0,0,0,0,0,0,-1,2022,1800,0,0
805,-776,0,0,0,0,0,0,0,0,0,-1,2029,1800,0,0
812,-776,0,0,0,0,0,0,0,0,0,-1,2036,1800,0,0
-700,-783,0,0,0,0,0,0,0,0,0,-1,524,1807,0,0
-693,-783,0,0,0,0,0,0,0,0,0,-1,531,1807,0,0
-686,-783,0,0,0,0,0,0,0,0,0,-1,538,1807,0,0
-679,-783,0,0,0,0,0,0,0,0,0,-1,545,1807,0,0
-672,-783,0,0,0,0,0,0,0,0,0,-1,552,1807,0,0
-665,-783,0,0,0,0,0,0,0,0,0,-1,559,1807,0,0
-658,-783,0,0,0,0,0,0,0,0,0,-1,566,1807,0,0
-651,-783,0,0,0,0,0,0,0,0,0,-1,573,1807,0,0
-644,-783,0,0,0,0,0,0,0,0,0,-1,580,1807,0,0
-637,-783,0,0,0,0,0,0,0,0,0,-1,587,1807,0,0
-630,-783,0,0,0,0,0,0,0,0,0,-1,594,1807,0,0
-623,-783,0,0,0,0,0,0,0,0,0,-1,601,1807,0,0
-616,-783,0,0,0,0,0,0,0,0,0,-1,608,1807,0,0
-609,-783,0,0,0,0,0,0,0,0,0,-1,615,1807,0,0
-602,-783,0,0,0,0,0,0,0,0,0,-1,622,1807,0,0
-595,-783,0,0,0,0,0,0,0,0,0,-1,629,1807,0,0
-588,-783,0,0,0,0,0,0,0,0,0,-1,636,1807,0,0
-581,-783,0,0,0,0,0,0,0,0,0,-1,643,1807,0,0
-574,-783,0,0,0,0,0,0,0,0,0,-1,650,1807,0,0
-567,-783,0,0,0,0,0,0,0,0,0,-1,657,1807,0,0
-560,-783,0,0,0,0,0,0,0,0,0,-1,664,1807,0,0
-553,-783,0,0,0,0,0,0,0,0,0,-1,671,1807,0,0
-546,-783,0,0,0,0,0,0,0,0,0,-1,678,1807,0,0
-539,-783,0,0,0,0,0,0,0,0,0,-1,685,1807,0,0
-532,-783,0,0,0,0,0,0,0,0,0,-1,692,1807,0,0
-525,-783,0,0,0,0,0,0,0,0,0,-1,699,1807,0,0
-518,-783,0,0,0,0,0,0,0,0,0,-1,706,1807,0,0
-511,-783,0,0,0,0,0,0,0,0,0,-1,713,1807,0,0
-504,-783,0,0,0,0,0,0,0,0,0,-1,720,1807,0,0
-497,-783,0,0,0,0,0,0,0,0,0,-1,727,1807,0,0
-490,-783,0,0,0,0,0,0,0,0,0,-1,734,1807,0,0
-483,-783,0,0,0,0,0,0,0,0,0,-1,741,1807,0,0
-476,-783,0,0,0,0,0,0,0,0,0,-1,748,1807,0,0
-469,-783,0,0,0,0,0,0,0,0,0,-1,755,1807,0,0
-462,-783,0,0,0,0,0,0,0,0,0,-1,762,1807,0,0
-455,-783,0,0,0,0,0,0,0,0,0,-1,769,1807,0,0
-448,-783,0,0,0,0,0,0,0,0,0,-1,776,1807,0,0
-441,-783,0,0,0,0,0,0,0,0,0,-1,783,1807,0,0
-434,-783,0,0,0,0,0,0,0,0,0,-1,790,1807,0,0
-427,-783,0,0,0,0,0,0,0,0,0,-1,797,1807,0,0
-420,-783,0,0,0,0,0,0,0,0,0,-1,804,1807,0,0
-413,-783,0,0,0,0,0,0,0,0,0,-1,811,1807,0,0
-406,-783,0,0,0,0,0,0,0,0,0,-1,818,1807,0,0
-399,-783,0,0,0,0,0,0,0,0,0,-1,825,1807,0,0
-392,-783,0,0,0,0,0,0,0,0,0,-1,832,1807,0,0
-385,-783,0,0,0,0,0,0,0,0,0,-1,839,1807,0,0
-378,-783,0,0,0,0,0,0,0,0,0,-1,846,1807,0,0
-371,-783,0,0,0,0,0,0,0,0,0,-1,853,1807,0,0
-364,-783,0,0,0,0,0,0,0,0,0,-1,860,1807,0,0
-357,-783,0,0,0,0,0,0,0,0,0,-1,867,1807,0,0
-350,-783,0,0,0,0,0,0,0,0,0,-1,874,1807,0,0
-343,-783,0,0,0,0,0,0,0,0,0,-1,881,1807,0,0
-336,-783,0,0,0,0,0,0,0,0,0,-1,888,1807,0,0
-329,-783,0,0,0,0,0,0,0,0,0,-1,895,1807,0,0
-322,-783,0,0,0,0,0,0,0,0,0,-1,902,1807,0,0
-315,-783,0,0,0,0,0,0,0,0,0,-1,909,1807,0,0
-308,-783,0,0,0,0,0,0,0,0,0,-1,916,1807,0,0
-301,-783,0,0,0,0,0,0,0,0,0,-1,923,1807,0,0
-294,-783,0,0,0,0,0,0,0,0,0,-1,930,1807,0,0
-287,-783,0,0,0,0,0,0,0,0,0,-1,937,1807,0,0
-280,-783,0,0,0,0,0,0,0,0,0,-1,944,1807,0,0
-273,-783,0,0,0,0,0,0,0,0,0,-1,951,1807,0,0
-266,-783,0,0,0,0,0,0,0,0,0,-1,958,1807,0,0
-259,-783,0,0,0,0,0,0,0,0,0,-1,965,1807,0,0
-252,-783,0,0,0,0,0,0,0,0,0,-1,972,1807,0,0
-245,-783,0,0,0,0,0,0,0,0,0,-1,979,1807,0,0
-238,-783,0,0,0,0,0,0,0,0,0,-1,986,1807,0,0
-231,-783,0,0,0,0,0,0,0,0,0,-1,993,1807,0,0
-224,-783,0,0,0,0,0,0,0,0,0,-1,1000,1807,0,0
-217,-783,0,0,0,0,0,0,0,0,0,-1,1007,1807,0,0
-210,-783,0,0,0,0,0,0,0,0,0,-1,1014,1807,0,0
-203,-783,0,0,0,0,0,0,0,0,0,-1,1021,1807,0,0
-196,-783,0,0,0,0,0,0,0,0,0,-1,1028,1807,0,0
-189,-783,0,0,0,0,0,0,0,0,0,-1,1035,1807,0,0
-182,-783,0,0,0,0,0,0,0,0,0,-1,1042,1807,0,0
-175,-783,0,0,0,0,0,0,0,0,0,-1,1049,1807,0,0
-168,-783,0,0,0,0,0,0,0,0,0,-1,1056,1807,0,0
-161,-783,0,0,0,0,0,0,0,0,0,-1,1063,1807,0,0
-154,-783,0,0,0,0,0,0,0,0,0,-1,1070,1807,0,0
-147,-783,0,0,0,0,0,0,0,0,0,-1,1077,1807,0,0
-140,-783,0,0,0,0,0,0,0,0,0,-1,1084,1807,0,0
-133,-783,0,0,0,0,0,0,0,0,0,-1,1091,1807,0,0
-126,-783,0,0,0,0,0,0,0,0,0,-1,1098,1807,0,0
-119,-783,0,0,0,0,0,0,0,0,0,-1,1105,1807,0,0
-112,-783,5.35229,15.2482,0,0,0,0,0,0,0,-1,1112,1807,5.35229,-15.2482
-105,-783,4.41919,14.488,0,0,0,0,0,0,0,-1,1119,1807,4.41917,-14.4881
-98,-783,3.11047,14.0786,0,0,0,0,0,0,0,-1,1126,1807,3.11046,-14.0786
-91,-783,1.01868,14.7838,0,0,0,0,0,0,0,-1,1133,1807,1.01872,-14.7838
-84,-783,-0.0491943,14.5743,0,0,0,0,0,0,0,-1,1140,1807,-0.0491562,-14.5743
-77,-783,0.332764,12.7788,0,0,0,0,0,0,0,-1,1147,1807,0.332743,-12.7788
-70,-783,-1.93176,5.12817,0,0,0,0,0,0,0,-1,1154,1807,-1.93171,-5.12813
-63,-783,-2.46729,4.38416,0,0,0,0,0,0,0,-1,1161,1807,-2.46723,-4.38411
-56,-783,-2.11902,6.73853,0,0,0,0,0,0,0,-1,1168,1807,-2.11904,-6.73854
-49,-783,-3.17688,4.59705,0,0,0,0,0,0,0,-1,1175,1807,-3.17685,-4.5971
-42,-783,-3.72876,3.1405,0,0,0,0,0,0,0,-1,1182,1807,-3.72874,-3.14055
-35,-783,-3.97046,1.59399,0,0,0,0,0,0,0,-1,1189,1807,-3.97041,-1.59401
-28,-783,-4.12195,0.270386,0,0,0,0,0,0,0,-1,1196,1807,-4.12197,-0.270408
-21,-783,3.95068,11.5028,0,0,0,0,0,0,0,-1,1203,1807,3.95063,-11.5028
-14,-783,6.03796,11.8021,0,0,0,0,0,0,0,-1,1210,1807,6.03796,-11.8022
-7,-783,6.06775,12.3308,-0.00418204,0.0145801,0.0269066,0.0336941,-0.0232961,0.953135,0.0330854,0.046409,1217,1807,6.06777,-12.3308
0,-783,6.16772,13.0004,-0.0112701,0.0121289,0.0249692,0.0280036,-0.0271448,1.00449,0.0318412,0.0459276,1224,1807,6.16767,-13.0004
7,-783,6.82764,14.371,-0.0174153,0.00865969,0.0227225,0.0218193,-0.030575,1.04585,0.0303903,0.0475721,1231,1807,6.82767,-14.3709
14,-783,6.41199,14.3313,-0.0219709,0.00477019,0.0200957,0.0155369,-0.0327376,1.07894,0.028455,0.0475604,1238,1807,6.41204,-14.3313
21,-783,5.6842,14.6255,0,0,0,0,0,0,0,-1,1245,1807,5.68422,-14.6255
28,-783,4.73962,15.0776,-0.0272424,-0.00301346,0.0152021,0.00431078,-0.0345666,1.12182,0.0246075,0.0464107,1252,1807,4.73957,-15.0776
35,-783,4.20605,14.7905,-0.0267004,-0.00393384,0.0128268,0.00183242,-0.0324666,1.14832,0.0222804,0.0481864,1259,1807,4.20606,-14.7905
42,-783,3.73816,14.7036,-0.024958,-0.00244543,0.0100261,0.00137234,-0.0287758,1.20697,0.0196573,0.0457473,1266,1807,3.73813,-14.7036
49,-783,3.32227,14.8037,-0.0229652,-0.000788488,0.00778058,0.00166897,-0.0254227,1.26487,0.0175313,0.0453772,1273,1807,3.32221,-14.8037
56,-783,3.00818,15.0566,-0.0206064,0.00238297,0.00546083,0.00361418,-0.0218376,1.34904,0.0159007,0.0465953,1280,1807,3.00815,-15.0566
63,-783,2.57825,15.5068,0,0,0,0,0,0,0,-1,1287,1807,2.57824,-15.5068
70,-783,2.20532,15.9938,0,0,0,0,0,0,0,-1,1294,1807,2.20537,-15.9938
77,-783,1.83887,16.3793,0,0,0,0,0,0,0,-1,1301,1807,1.8389,-16.3793
84,-783,5.15967,13.6661,-0.0261659,0.0239912,-0.00282264,0.0241495,-0.0263242,-1.51476,0.0291501,0.0488066,1308,1807,5.15973,-13.6661
91,-783,5.10815,13.7635,-0.030526,0.0302599,-0.00425415,0.0305562,-0.0308223,-1.50126,0.035437,0.0442544,1315,1807,5.10821,-13.7636
98,-783,4.80029,13.9656,-0.0370162,0.0348896,-0.00600294,0.0353873,-0.0375139,-1.48808,0.0420955,0.0440892,1322,1807,4.80032,-13.9656
105,-783,4.60693,14.0363,-0.0442833,0.0392458,-0.00821935,0.0400469,-0.0450844,-1.47364,0.0491792,0.0484073,1329,1807,4.6069,-14.0362
112,-783,4.43054,14.184,0,0,0,0,0,0,0,-1,1336,1807,4.43054,-14.184
119,-783,3.37219,14.9341,-0.0599321,0.040604,-0.0108884,0.0417698,-0.0610978,-1.46414,0.059739,0.043113,1343,1807,3.37225,-14.9341
126,-783,2.40845,15.1687,-0.0648838,0.0391419,-0.012529,0.0406297,-0.0663715,-1.45261,0.0623702,0.0484461,1350,1807,2.40841,-15.1687
133,-783,1.48706,15.3972,0,0,0,0,0,0,0,-1,1357,1807,1.48711,-15.3972
140,-783,2.6543,15.261,0,0,0,0,0,0,0,-1,1364,1807,2.65435,-15.261
147,-783,6.45825,-1.2334,0,0,0,0,0,0,0,-1,1371,1807,6.45822,1.23339
154,-783,6.37024,-0.145874,0,0,0,0,0,0,0,-1,1378,1807,6.37018,0.145866
161,-783,6.57568,1.16174,0,0,0,0,0,0,0,-1,1385,1807,6.57562,-1.1617
168,-783,8.62561,1.79944,0,0,0,0,0,0,0,-1,1392,1807,8.62561,-1.79946
175,-783,8.78699,3.40857,0,0,0,0,0,0,0,-1,1399,1807,8.78697,-3.40854
182,-783,8.70984,5.14661,0,0,0,0,0,0,0,-1,1406,1807,8.70989,-5.14666
189,-783,8.55762,6.79871,0,0,0,0,0,0,0,-1,1413,1807,8.55766,-6.79872
196,-783,8.25488,8.66626,0,0,0,0,0,0,0,-1,1420,1807,8.25492,-8.66628
203,-783,7.86755,10.5735,0,0,0,0,0,0,0,-1,1427,1807,7.8676,-10.5734
210,-783,5.6969,8.99231,0,0,0,0,0,0,0,-1,1434,1807,5.69693,-8.99234
217,-783,5.28503,3.80872,0,0,0,0,0,0,0,-1,1441,1807,5.285,-3.80868
224,-783,3.22571,6.62903,0,0,0,0,0,0,0,-1,1448,1807,3.2257,-6.62907
231,-783,4.27942,4.56262,0,0,0,0,0,0,0,-1,1455,1807,4.27948,-4.56267
238,-783,0,0,0,0,0,0,0,0,0,-1,1462,1807,0,0
245,-783,0,0,0,0,0,0,0,0,0,-1,1469,1807,0,0
252,-783,0,0,0,0,0,0,0,0,0,-1,1476,1807,0,0
259,-783,0,0,0,0,0,0,0,0,0,-1,1483,1807,0,0
266,-783,0,0,0,0,0,0,0,0,0,-1,1490,1807,0,0
273,-783,0,0,0,0,0,0,0,0,0,-1,1497,1807,0,0
280,-783,0,0,0,0,0,0,0,0,0,-1,1504,1807,0,0
287,-783,0,0,0,0,0,0,0,0,0,-1,1511,1807,0,0
294,-783,0,0,0,0,0,0,0,0,0,-1,1518,1807,0,0
301,-783,0,0,0,0,0,0,0,0,0,-1,1525,1807,0,0
308,-783,0,0,0,0,0,0,0,0,0,-1,1532,1807,0,0
315,-783,0,0,0,0,0,0,0,0,0,-1,1539,1807,0,0
322,-783,0,0,0,0,0,0,0,0,0,-1,1546,1807,0,0
329,-783,0,0,0,0,0,0,0,0,0,-1,1553,1807,0,0
336,-783,0,0,0,0,0,0,0,0,0,-1,1560,1807,0,0
343,-783,0,0,0,0,0,0,0,0,0,-1,1567,1807,0,0
350,-783,0,0,0,0,0,0,0,0,0,-1,1574,1807,0,0
357,-783,0,0,0,0,0,0,0,0,0,-1,1581,1807,0,0
364,-783,0,0,0,0,0,0,0,0,0,-1,1588,1807,0,0
371,-783,0,0,0,0,0,0,0,0,0,-1,1595,1807,0,0
378,-783,0,0,0,0,0,0,0,0,0,-1,1602,1807,0,0
385,-783,0,0,0,0,0,0,0,0,0,-1,1609,1807,0,0
392,-783,0,0,0,0,0,0,0,0,0,-1,1616,1807,0,0
399,-783,0,0,0,0,0,0,0,0,0,-1,1623,1807,0,0
406,-783,0,0,0,0,0,0,0,0,0,-1,1630,1807,0,0
413,-783,0,0,0,0,0,0,0,0,0,-1,1637,1807,0,0
420,-783,0,0,0,0,0,0,0,0,0,-1,1644,1807,0,0
427,-783,0,0,0,0,0,0,0,0,0,-1,1651,1807,0,0
434,-783,0,0,0,0,0,0,0,0,0,-1,1658,1807,0,0
441,-783,0,0,0,0,0,0,0,0,0,-1,1665,1807,0,0
448,-783,0,0,0,0,0,0,0,0,0,-1,1672,1807,0,0
455,-783,0,0,0,0,0,0,0,0,0,-1,1679,1807,0,0
462,-783,0,0,0,0,0,0,0,0,0,-1,1686,1807,0,0
469,-783,0,0,0,0,0,0,0,0,0,-1,1693,1807,0,0
476,-783,0,0,0,0,0,0,0,0,0,-1,1700,1807,0,0
483,-783,0,0,0,0,0,0,0,0,0,-1,1707,1807,0,0
490,-783,0,0,0,0,0,0,0,0,0,-1,1714,1807,0,0
497,-783,0,0,0,0,0,0,0,0,0,-1,1721,1807,0,0
504,-783,0,0,0,0,0,0,0,0,0,-1,1728,1807,0,0
511,-783,0,0,0,0,0,0,0,0,0,-1,1735,1807,0,0
518,-783,0,0,0,0,0,0,0,0,0,-1,1742,1807,0,0
525,-783,0,0,0,0,0,0,0,0,0,-1,1749,1807,0,0
532,-783,0,0,0,0,0,0,0,0,0,-1,1756,1807,0,0
539,-783,0,0,0,0,0,0,0,0,0,-1,1763,1807,0,0
546,-783,0,0,0,0,0,0,0,0,0,-1,1770,1807,0,0
553,-783,0,0,0,0,0,0,0,0,0,-1,1777,1807,0,0
560,-783,0,0,0,0,0,0,0,0,0,-1,1784,1807,0,0
567,-783,0,0,0,0,0,0,0,0,0,-1,1791,1807,0,0
574,-783,0,0,0,0,0,0,0,0,0,-1,1798,1807,0,0
581,-783,0,0,0,0,0,0,0,0,0,-1,1805,1807,0,0
588,-783,0,0,0,0,0,0,0,0,0,-1,1812,1807,0,0
595,-783,0,0,0,0,0,0,0,0,0,-1,1819,1807,0,0
602,-783,0,0,0,0,0,0,0,0,0,-1,1826,1807,0,0
609,-783,0,0,0,0,0,0,0,0,0,-1,1833,1807,0,0
616,-783,0,0,0,0,0,0,0,0,0,-1,1840,1807,0,0
623,-783,0,0,0,0,0,0,0,0,0,-1,1847,1807,0,0
630,-783,0,0,0,0,0,0,0,0,0,-1,1854,1807,0,0
637,-783,0,0,0,0,0,0,0,0,0,-1,1861,1807,0,0
644,-783,0,0,0,0,0,0,0,0,0,-1,1868,1807,0,0
651,-783,0,0,0,0,0,0,0,0,0,-1,1875,1807,0,0
658,-783,0,0,0,0,0,0,0,0,0,-1,1882,1807,0,0
665,-783,0,0,0,0,0,0,0,0,0,-1,1889,1807,0,0
672,-783,0,0,0,0,0,0,0,0,0,-1,1896,1807,0,0
679,-783,0,0,0,0,0,0,0,0,0,-1,1903,1807,0,0
686,-783,0,0,0,0,0,0,0,0,0,-1,1910,1807,0,0
693,-783,0,0,0,0,0,0,0,0,0,-1,1917,1807,0,0
700,-783,0,0,0,0,0,0,0,0,0,-1,1924,1807,0,0
707,-783,0,0,0,0,0,0,0,0,0,-1,1931,1807,0,0
714,-783,0,0,0,0,0,0,0,0,0,-1,1938,1807,0,0
721,-783,0,0,0,0,0,0,0,0,0,-1,1945,1807,0,0
728,-783,0,0,0,0,0,0,0,0,0,-1,1952,1807,0,0
735,-783,0,0,0,0,0,0,0,0,0,-1,1959,1807,0,0
742,-783,0,0,0,0,0,0,0,0,0,-1,1966,1807,0,0
749,-783,0,0,0,0,0,0,0,0,0,-1,1973,1807,0,0
756,-783,0,0,0,0,0,0,0,0,0,-1,1980,1807,0,0
763,-783,0,0,0,0,0,0,0,0,0,-1,1987,1807,0,0
770,-783,0,0,0,0,0,0,0,0,0,-1,1994,1807,0,0
777,-783,0,0,0,0,0,0,0,0,0,-1,2001,1807,0,0
784,-783,0,0,0,0,0,0,0,0,0,-1,2008,1807,0,0
791,-783,0,0,0,0,0,0,0,0,0,-1,2015,1807,0,0
798,-783,0,0,0,0,0,0,0,0,0,-1,2022,1807,0,0
805,-783,0,0,0,0,0,0,0,0,0,-1,2029,1807,0,0
812,-783,0,0,0,0,0,0,0,0,0,-1,2036,1807,0,0
-700,-790,0,0,0,0,0,0,0,0,0,-1,524,1814,0,0
-693,-790,0,0,0,0,0,0,0,0,0,-1,531,1814,0,0
-686,-790,0,0,0,0,0,0,0,0,0,-1,538,1814,0,0
-679,-790,0,0,0,0,0,0,0,0,0,-1,545,1814,0,0
-672,-790,0,0,0,0,0,0,0,0,0,-1,552,1814,0,0
-665,-790,0,0,0,0,0,0,0,0,0,-1,559,1814,0,0
-658,-790,0,0,0,0,0,0,0,0,0,-1,566,1814,0,0
-651,-790,0,0,0,0,0,0,0,0,0,-1,573,1814,0,0
-644,-790,0,0,0,0,0,0,0,0,0,-1,580,1814,0,0
-637,-790,0,0,0,0,0,0,0,0,0,-1,587,1814,0,0
-630,-790,0,0,0,0,0,0,0,0,0,-1,594,1814,0,0
-623,-790,0,0,0,0,0,0,0,0,0,-1,601,1814,0,0
-616,-790,0,0,0,0,0,0,0,0,0,-1,608,1814,0,0
-609,-790,0,0,0,0,0,0,0,0,0,-1,615,1814,0,0
-602,-790,0,0,0,0,0,0,0,0,0,-1,622,1814,0,0
-595,-790,0,0,0,0,0,0,0,0,0,-1,629,1814,0,0
-588,-790,0,0,0,0,0,0,0,0,0,-1,636,1814,0,0
-581,-790,0,0,0,0,0,0,0,0,0,-1,643,1814,0,0
-574,-790,0,0,0,0,0,0,0,0,0,-1,650,1814,0,0
-567,-790,0,0,0,0,0,0,0,0,0,-1,657,1814,0,0
-560,-790,0,0,0,0,0,0,0,0,0,-1,664,1814,0,0
-553,-790,0,0,0,0,0,0,0,0,0,-1,671,1814,0,0
-546,-790,0,0,0,0,0,0,0,0,0,-1,678,1814,0,0
-539,-790,0,0,0,0,0,0,0,0,0,-1,685,1814,0,0
-532,-790,0,0,0,0,0,0,0,0,0,-1,692,1814,0,0
-525,-790,0,0,0,0,0,0,0,0,0,-1,699,1814,0,0
-518,-790,0,0,0,0,0,0,0,0,0,-1,706,1814,0,0
-511,-790,0,0,0,0,0,0,0,0,0,-1,713,1814,0,0
-504,-790,0,0,0,0,0,0,0,0,0,-1,720,1814,0,0
-497,-790,0,0,0,0,0,0,0,0,0,-1,727,1814,0,0
-490,-790,0,0,0,0,0,0,0,0,0,-1,734,1814,0,0
-483,-790,0,0,0,0,0,0,0,0,0,-1,741,1814,0,0
-476,-790,0,0,0,0,0,0,0,0,0,-1,748,1814,0,0
-469,-790,0,0,0,0,0,0,0,0,0,-1,755,1814,0,0
-462,-790,0,0,0,0,0,0,0,0,0,-1,762,1814,0,0
-455,-790,0,0,0,0,0,0,0,0,0,-1,769,1814,0,0
-448,-790,0,0,0,0,0,0,0,0,0,-1,776,1814,0,0
-441,-790,0,0,0,0,0,0,0,0,0,-1,783,1814,0,0
-434,-790,0,0,0,0,0,0,0,0,0,-1,790,1814,0,0
-427,-790,0,0,0,0,0,0,0,0,0,-1,797,1814,0,0
-420,-790,0,0,0,0,0,0,0,0,0,-1,804,1814,0,0
-413,-790,0,0,0,0,0,0,0,0,0,-1,811,1814,0,0
-406,-790,0,0,0,0,0,0,0,0,0,-1,818,1814,0,0
-399,-790,0,0,0,0,0,0,0,0,0,-1,825,1814,0,0
-392,-790,0,0,0,0,0,0,0,0,0,-1,832,1814,0,0
-385,-790,0,0,0,0,0,0,0,0,0,-1,839,1814,0,0
-378,-790,0,0,0,0,0,0,0,0,0,-1,846,1814,0,0
-371,-790,0,0,0,0,0,0,0,0,0,-1,853,1814,0,0
-364,-790,0,0,0,0,0,0,0,0,0,-1,860,1814,0,0
-357,-790,0,0,0,0,0,0,0,0,0,-1,867,1814,0,0
-350,-790,0,0,0,0,0,0,0,0,0,-1,874,1814,0,0
-343,-790,0,0,0,0,0,0,0,0,0,-1,881,1814,0,0
-336,-790,0,0,0,0,0,0,0,0,0,-1,888,1814,0,0
-329,-790,0,0,0,0,0,0,0,0,0,-1,895,1814,0,0
-322,-790,0,0,0,0,0,0,0,0,0,-1,902,1814,0,0
-315,-790,0,0,0,0,0,0,0,0,0,-1,909,1814,0,0
-308,-790,0,0,0,0,0,0,0,0,0,-1,916,1814,0,0
-301,-790,0,0,0,0,0,0,0,0,0,-1,923,1814,0,0
-294,-790,0,0,0,0,0,0,0,0,0,-1,930,1814,0,0
-287,-790,0,0,0,0,0,0,0,0,0,-1,937,1814,0,0
-280,-790,0,0,0,0,0,0,0,0,0,-1,944,1814,0,0
-273,-790,0,0,0,0,0,0,0,0,0,-1,951,1814,0,0
-266,-790,0,0,0,0,0,0,0,0,0,-1,958,1814,0,0
-259,-790,0,0,0,0,0,0,0,0,0,-1,965,1814,0,0
-252,-790,0,0,0,0,0,0,0,0,0,-1,972,1814,0,0
-245,-790,0,0,0,0,0,0,0,0,0,-1,979,1814,0,0
-238,-790,0,0,0,0,0,0,0,0,0,-1,986,1814,0,0
-231,-790,0,0,0,0,0,0,0,0,0,-1,993,1814,0,0
-224,-790,0,0,0,0,0,0,0,0,0,-1,1000,1814,0,0
-217,-790,0,0,0,0,0,0,0,0,0,-1,1007,1814,0,0
-210,-790,0,0,0,0,0,0,0,0,0,-1,1014,1814,0,0
-203,-790,0,0,0,0,0,0,0,0,0,-1,1021,1814,0,0
-196,-790,0,0,0,0,0,0,0,0,0,-1,1028,1814,0,0
-189,-790,0,0,0,0,0,0,0,0,0,-1,1035,1814,0,0
-182,-790,0,0,0,0,0,0,0,0,0,-1,1042,1814,0,0
-175,-790,0,0,0,0,0,0,0,0,0,-1,1049,1814,0,0
-168,-790,0,0,0,0,0,0,0,0,0,-1,1056,1814,0,0
-161,-790,0,0,0,0,0,0,0,0,0,-1,1063,1814,0,0
-154,-790,0,0,0,0,0,0,0,0,0,-1,1070,1814,0,0
-147,-790,0,0,0,0,0,0,0,0,0,-1,1077,1814,0,0
-140,-790,0,0,0,0,0,0,0,0,0,-1,1084,1814,0,0
-133,-790,0,0,0,0,0,0,0,0,0,-1,1091,1814,0,0
-126,-790,0,0,0,0,0,0,0,0,0,-1,1098,1814,0,0
-119,-790,0,0,0,0,0,0,0,0,0,-1,1105,1814,0,0
-112,-790,0,0,0,0,0,0,0,0,0,-1,1112,1814,0,0
-105,-790,0,0,0,0,0,0,0,0,0,-1,1119,1814,0,0
-98,-790,0,0,0,0,0,0,0,0,0,-1,1126,1814,0,0
-91,-790,0,0,0,0,0,0,0,0,0,-1,1133,1814,0,0
-84,-790,0,0,0,0,0,0,0,0,0,-1,1140,1814,0,0
-77,-790,-0.969238,5.30847,0,0,0,0,0,0,0,-1,1147,1814,-0.969277,-5.3085
-70,-790,-1.23169,4.98914,0,0,0,0,0,0,0,-1,1154,1814,-1.23163,-4.98916
-63,-790,-1.69128,4.32263,0,0,0,0,0,0,0,-1,1161,1814,-1.69128,-4.32258
-56,-790,-2.24756,3.75305,0,0,0,0,0,0,0,-1,1168,1814,-2.24758,-3.75302
-49,-790,-3.11011,3.35779,0,0,0,0,0,0,0,-1,1175,1814,-3.11006,-3.35781
-42,-790,0.593262,1.19165,0,0,0,0,0,0,0,-1,1182,1814,0.593225,-1.19165
-35,-790,0.307129,-0.20105,0,0,0,0,0,0,0,-1,1189,1814,0.307178,0.201006
-28,-790,-2.78467,0.785156,0,0,0,0,0,0,0,-1,1196,1814,-2.78471,-0.785183
-21,-790,6.35303,10.7018,0,0,0,0,0,0,0,-1,1203,1814,6.35298,-10.7017
-14,-790,6.31592,11.5159,0.00911971,0.0187398,0.0362545,0.050502,-0.0226424,0.851351,0.043239,0.0426179,1210,1814,6.31588,-11.5159
-7,-790,6.28918,12.1829,-0.00226485,0.0180363,0.0343795,0.0437324,-0.027961,0.928945,0.0417247,0.0449567,1217,1814,6.28917,-12.1828
0,-790,6.33337,12.7054,-0.0116649,0.0152576,0.0319863,0.0364998,-0.0329071,0.984571,0.04009,0.0431542,1224,1814,6.33339,-12.7055
7,-790,6.28381,13.3604,-0.0192362,0.011176,0.0291737,0.0288687,-0.0369289,1.02564,0.0380832,0.0426213,1231,1814,6.28385,-13.3604
14,-790,7.03491,14.3622,-0.0246247,0.00656052,0.0257862,0.0211019,-0.0391661,1.05733,0.0353129,0.048974,1238,1814,7.03492,-14.3622
21,-790,5.39014,14.6879,-0.0285781,0.00165219,0.0225377,0.013674,-0.0405999,1.08078,0.0325951,0.0442261,1245,1814,5.39017,-14.6878
28,-790,4.56042,15.2906,-0.0306355,-0.00302117,0.0193351,0.0069305,-0.0405872,1.09546,0.0296396,0.0427241,1252,1814,4.56042,-15.2907
35,-790,4.13501,15.0905,-0.0297552,-0.00442266,0.0162935,0.00354875,-0.0377266,1.1158,0.0264136,0.0478963,1259,1814,4.13502,-15.0905
42,-790,3.71216,14.7825,0,0,0,0,0,0,0,-1,1266,1814,3.71212,-14.7825
49,-790,3.30566,14.8707,0,0,0,0,0,0,0,-1,1273,1814,3.30572,-14.8707
56,-790,3.19934,15.0258,0,0,0,0,0,0,0,-1,1280,1814,3.19935,-15.0257
63,-790,3.0249,15.3228,0,0,0,0,0,0,0,-1,1287,1814,3.02489,-15.3228
70,-790,2.73608,15.7335,0,0,0,0,0,0,0,-1,1294,1814,2.73611,-15.7335
77,-790,2.40649,16.0972,0,0,0,0,0,0,0,-1,1301,1814,2.40644,-16.0972
84,-790,5.07056,12.9148,-0.0268884,0.0286051,-0.00346734,0.0288209,-0.0271042,-1.50864,0.0322935,0.0472153,1308,1814,5.0705,-12.9148
91,-790,5.54224,13.0901,-0.0315142,0.0363097,-0.00539634,0.0367363,-0.0319409,-1.49189,0.039683,0.0469547,1315,1814,5.54223,-13.0901
98,-790,4.93604,13.9089,0,0,0,0,0,0,0,-1,1322,1814,4.93606,-13.909
105,-790,4.92188,13.9305,-0.0472189,0.0484286,-0.010959,0.0496682,-0.0484585,-1.45816,0.0566549,0.0497125,1329,1814,4.92192,-13.9305
112,-790,4.70203,13.9934,-0.056756,0.0507476,-0.0129452,0.0522845,-0.0582929,-1.45263,0.0638733,0.0479318,1336,1814,4.70202,-13.9934
119,-790,3.97754,14.2864,-0.0665924,0.0504874,-0.0147389,0.0523143,-0.0684193,-1.44747,0.069912,0.0455318,1343,1814,3.9775,-14.2864
126,-790,3.60486,14.3086,-0.0730581,0.04848,-0.0171853,0.0508632,-0.0754413,-1.433,0.0733808,0.047297,1350,1814,3.60491,-14.3086
133,-790,3.47156,14.2495,0,0,0,0,0,0,0,-1,1357,1814,3.47153,-14.2495
140,-790,3.53845,14.0773,0,0,0,0,0,0,0,-1,1364,1814,3.53848,-14.0772
147,-790,3.4906,13.9751,0,0,0,0,0,0,0,-1,1371,1814,3.49064,-13.9751
154,-790,6.34485,-0.540405,0,0,0,0,0,0,0,-1,1378,1814,6.34482,0.540409
161,-790,6.62683,1.1134,0,0,0,0,0,0,0,-1,1385,1814,6.62682,-1.11344
168,-790,7.04077,2.23279,0,0,0,0,0,0,0,-1,1392,1814,7.04082,-2.23275
175,-790,9.03918,3.98535,0,0,0,0,0,0,0,-1,1399,1814,9.0392,-3.98535
182,-790,8.96997,5.67896,0,0,0,0,0,0,0,-1,1406,1814,8.97001,-5.6789
189,-790,8.59729,6.86975,0,0,0,0,0,0,0,-1,1413,1814,8.59728,-6.86972
196,-790,8.21924,9.29053,0,0,0,0,0,0,0,-1,1420,1814,8.21924,-9.29048
203,-790,0,0,0,0,0,0,0,0,0,-1,1427,1814,0,0
210,-790,0,0,0,0,0,0,0,0,0,-1,1434,1814,0,0
217,-790,0,0,0,0,0,0,0,0,0,-1,1441,1814,0,0
224,-790,0,0,0,0,0,0,0,0,0,-1,1448,1814,0,0
231,-790,0,0,0,0,0,0,0,0,0,-1,1455,1814,0,0
238,-790,0,0,0,0,0,0,0,0,0,-1,1462,1814,0,0
245,-790,0,0,0,0,0,0,0,0,0,-1,1469,1814,0,0
252,-790,0,0,0,0,0,0,0,0,0,-1,1476,1814,0,0
259,-790,0,0,0,0,0,0,0,0,0,-1,1483,1814,0,0
266,-790,0,0,0,0,0,0,0,0,0,-1,1490,1814,0,0
273,-790,0,0,0,0,0,0,0,0,0,-1,1497,1814,0,0
280,-790,0,0,0,0,0,0,0,0,0,-1,1504,1814,0,0
287,-790,0,0,0,0,0,0,0,0,0,-1,1511,1814,0,0
294,-790,0,0,0,0,0,0,0,0,0,-1,1518,1814,0,0
301,-790,0,0,0,0,0,0,0,0,0,-1,1525,1814,0,0
308,-790,0,0,0,0,0,0,0,0,0,-1,1532,1814,0,0
315,-790,0,0,0,0,0,0,0,0,0,-1,1539,1814,0,0
322,-790,0,0,0,0,0,0,0,0,0,-1,1546,1814,0,0
329,-790,0,0,0,0,0,0,0,0,0,-1,1553,1814,0,0
336,-790,0,0,0,0,0,0,0,0,0,-1,1560,1814,0,0
343,-790,0,0,0,0,0,0,0,0,0,-1,1567,1814,0,0
350,-790,0,0,0,0,0,0,0,0,0,-1,1574,1814,0,0
357,-790,0,0,0,0,0,0,0,0,0,-1,1581,1814,0,0
364,-790,0,0,0,0,0,0,0,0,0,-1,1588,1814,0,0
371,-790,0,0,0,0,0,0,0,0,0,-1,1595,1814,0,0
378,-790,0,0,0,0,0,0,0,0,0,-1,1602,1814,0,0
385,-790,0,0,0,0,0,0,0,0,0,-1,1609,1814,0,0
392,-790,0,0,0,0,0,0,0,0,0,-1,1616,1814,0,0
399,-790,0,0,0,0,0,0,0,0,0,-1,1623,1814,0,0
406,-790,0,0,0,0,0,0,0,0,0,-1,1630,1814,0,0
413,-790,0,0,0,0,0,0,0,0,0,-1,1637,1814,0,0
420,-790,0,0,0,0,0,0,0,0,0,-1,1644,1814,0,0
427,-790,0,0,0,0,0,0,0,0,0,-1,1651,1814,0,0
434,-790,0,0,0,0,0,0,0,0,0,-1,1658,1814,0,0
441,-790,0,0,0,0,0,0,0,0,0,-1,1665,1814,0,0
448,-790,0,0,0,0,0,0,0,0,0,-1,1672,1814,0,0
455,-790,0,0,0,0,0,0,0,0,0,-1,1679,1814,0,0
462,-790,0,0,0,0,0,0,0,0,0,-1,1686,1814,0,0
469,-790,0,0,0,0,0,0,0,0,0,-1,1693,1814,0,0
476,-790,0,0,0,0,0,0,0,0,0,-1,1700,1814,0,0
483,-790,0,0,0,0,0,0,0,0,0,-1,1707,1814,0,0
490,-790,0,0,0,0,0,0,0,0,0,-1,1714,1814,0,0
497,-790,0,0,0,0,0,0,0,0,0,-1,1721,1814,0,0
504,-790,0,0,0,0,0,0,0,0,0,-1,1728,1814,0,0
511,-790,0,0,0,0,0,0,0,0,0,-1,1735,1814,0,0
518,-790,0,0,0,0,0,0,0,0,0,-1,1742,1814,0,0
525,-790,0,0,0,0,0,0,0,0,0,-1,1749,1814,0,0
532,-790,0,0,0,0,0,0,0,0,0,-1,1756,1814,0,0
539,-790,0,0,0,0,0,0,0,0,0,-1,1763,1814,0,0
546,-790,0,0,0,0,0,0,0,0,0,-1,1770,1814,0,0
553,-790,0,0,0,0,0,0,0,0,0,-1,1777,1814,0,0
560,-790,0,0,0,0,0,0,0,0,0,-1,1784,1814,0,0
567,-790,0,0,0,0,0,0,0,0,0,-1,1791,1814,0,0
574,-790,0,0,0,0,0,0,0,0,0,-1,1798,1814,0,0
581,-790,0,0,0,0,0,0,0,0,0,-1,1805,1814,0,0
588,-790,0,0,0,0,0,0,0,0,0,-1,1812,1814,0,0
595,-790,0,0,0,0,0,0,0,0,0,-1,1819,1814,0,0
602,-790,0,0,0,0,0,0,0,0,0,-1,1826,1814,0,0
609,-790,0,0,0,0,0,0,0,0,0,-1,1833,1814,0,0
616,-790,0,0,0,0,0,0,0,0,0,-1,1840,1814,0,0
623,-790,0,0,0,0,0,0,0,0,0,-1,1847,1814,0,0
630,-790,0,0,0,0,0,0,0,0,0,-1,1854,1814,0,0
637,-790,0,0,0,0,0,0,0,0,0,-1,1861,1814,0,0
644,-790,0,0,0,0,0,0,0,0,0,-1,1868,1814,0,0
651,-790,0,0,0,0,0,0,0,0,0,-1,1875,1814,0,0
658,-790,0,0,0,0,0,0,0,0,0,-1,1882,1814,0,0
665,-790,0,0,0,0,0,0,0,0,0,-1,1889,1814,0,0
672,-790,0,0,0,0,0,0,0,0,0,-1,1896,1814,0,0
679,-790,0,0,0,0,0,0,0,0,0,-1,1903,1814,0,0
686,-790,0,0,0,0,0,0,0,0,0,-1,1910,1814,0,0
693,-790,0,0,0,0,0,0,0,0,0,-1,1917,1814,0,0
700,-790,0,0,0,0,0,0,0,0,0,-1,1924,1814,0,0
707,-790,0,0,0,0,0,0,0,0,0,-1,1931,1814,0,0
714,-790,0,0,0,0,0,0,0,0,0,-1,1938,1814,0,0
721,-790,0,0,0,0,0,0,0,0,0,-1,1945,1814,0,0
728,-790,0,0,0,0,0,0,0,0,0,-1,1952,1814,0,0
735,-790,0,0,0,0,0,0,0,0,0,-1,1959,1814,0,0
742,-790,0,0,0,0,0,0,0,0,0,-1,1966,1814,0,0
749,-790,0,0,0,0,0,0,0,0,0,-1,1973,1814,0,0
756,-790,0,0,0,0,0,0,0,0,0,-1,1980,1814,0,0
763,-790,0,0,0,0,0,0,0,0,0,-1,1987,1814,0,0
770,-790,0,0,0,0,0,0,0,0,0,-1,1994,1814,0,0
777,-790,0,0,0,0,0,0,0,0,0,-1,2001,1814,0,0
784,-790,0,0,0,0,0,0,0,0,0,-1,2008,1814,0,0
791,-790,0,0,0,0,0,0,0,0,0,-1,2015,1814,0,0
798,-790,0,0,0,0,0,0,0,0,0,-1,2022,1814,0,0
805,-790,0,0,0,0,0,0,0,0,0,-1,2029,1814,0,0
812,-790,0,0,0,0,0,0,0,0,0,-1,2036,1814,0,0
-700,-797,0,0,0,0,0,0,0,0,0,-1,524,1821,0,0
-693,-797,0,0,0,0,0,0,0,0,0,-1,531,1821,0,0
-686,-797,0,0,0,0,0,0,0,0,0,-1,538,1821,0,0
-679,-797,0,0,0,0,0,0,0,0,0,-1,545,1821,0,0
-672,-797,0,0,0,0,0,0,0,0,0,-1,552,1821,0,0
-665,-797,0,0,0,0,0,0,0,0,0,-1,559,1821,0,0
-658,-797,0,0,0,0,0,0,0,0,0,-1,566,1821,0,0
-651,-797,0,0,0,0,0,0,0,0,0,-1,573,1821,0,0
-644,-797,0,0,0,0,0,0,0,0,0,-1,580,1821,0,0
-637,-797,0,0,0,0,0,0,0,0,0,-1,587,1821,0,0
-630,-797,0,0,0,0,0,0,0,0,0,-1,594,1821,0,0
-623,-797,0,0,0,0,0,0,0,0,0,-1,601,1821,0,0
-616,-797,0,0,0,0,0,0,0,0,0,-1,608,1821,0,0
-609,-797,0,0,0,0,0,0,0,0,0,-1,615,1821,0,0
-602,-797,0,0,0,0,0,0,0,0,0,-1,622,1821,0,0
-595,-797,0,0,0,0,0,0,0,0,0,-1,629,1821,0,0
-588,-797,0,0,0,0,0,0,0,0,0,-1,636,1821,0,0
-581,-797,0,0,0,0,0,0,0,0,0,-1,643,1821,0,0
-574,-797,0,0,0,0,0,0,0,0,0,-1,650,1821,0,0
-567,-797,0,0,0,0,0,0,0,0,0,-1,657,1821,0,0
-560,-797,0,0,0,0,0,0,0,0,0,-1,664,1821,0,0
-553,-797,0,0,0,0,0,0,0,0,0,-1,671,1821,0,0
-546,-797,0,0,0,0,0,0,0,0,0,-1,678,1821,0,0
-539,-797,0,0,0,0,0,0,0,0,0,-1,685,1821,0,0
-532,-797,0,0,0,0,0,0,0,0,0,-1,692,1821,0,0
-525,-797,0,0,0,0,0,0,0,0,0,-1,699,1821,0,0
-518,-797,0,0,0,0,0,0,0,0,0,-1,706,1821,0,0
-511,-797,0,0,0,0,0,0,0,0,0,-1,713,1821,0,0
-504,-797,0,0,0,0,0,0,0,0,0,-1,720,1821,0,0
-497,-797,0,0,0,0,0,0,0,0,0,-1,727,1821,0,0
-490,-797,0,0,0,0,0,0,0,0,0,-1,734,1821,0,0
-483,-797,0,0,0,0,0,0,0,0,0,-1,741,1821,0,0
-476,-797,0,0,0,0,0,0,0,0,0,-1,748,1821,0,0
-469,-797,0,0,0,0,0,0,0,0,0,-1,755,1821,0,0
-462,-797,0,0,0,0,0,0,0,0,0,-1,762,1821,0,0
-455,-797,0,0,0,0,0,0,0,0,0,-1,769,1821,0,0
-448,-797,0,0,0,0,0,0,0,0,0,-1,776,1821,0,0
-441,-797,0,0,0,0,0,0,0,0,0,-1,783,1821,0,0
-434,-797,0,0,0,0,0,0,0,0,0,-1,790,1821,0,0
-427,-797,0,0,0,0,0,0,0,0,0,-1,797,1821,0,0
-420,-797,0,0,0,0,0,0,0,0,0,-1,804,1821,0,0
-413,-797,0,0,0,0,0,0,0,0,0,-1,811,1821,0,0
-406,-797,0,0,0,0,0,0,0,0,0,-1,818,1821,0,0
-399,-797,0,0,0,0,0,0,0,0,0,-1,825,1821,0,0
-392,-797,0,0,0,0,0,0,0,0,0,-1,832,1821,0,0
-385,-797,0,0,0,0,0,0,0,0,0,-1,839,1821,0,0
-378,-797,0,0,0,0,0,0,0,0,0,-1,846,1821,0,0
-371,-797,0,0,0,0,0,0,0,0,0,-1,853,1821,0,0
-364,-797,0,0,0,0,0,0,0,0,0,-1,860,1821,0,0
-357,-797,0,0,0,0,0,0,0,0,0,-1,867,1821,0,0
-350,-797,0,0,0,0,0,0,0,0,0,-1,874,1821,0,0
-343,-797,0,0,0,0,0,0,0,0,0,-1,881,1821,0,0
-336,-797,0,0,0,0,0,0,0,0,0,-1,888,1821,0,0
-329,-797,0,0,0,0,0,0,0,0,0,-1,895,1821,0,0
-322,-797,0,0,0,0,0,0,0,0,0,-1,902,1821,0,0
-315,-797,0,0,0,0,0,0,0,0,0,-1,909,1821,0,0
-308,-797,0,0,0,0,0,0,0,0,0,-1,916,1821,0,0
-301,-797,0,0,0,0,0,0,0,0,0,-1,923,1821,0,0
-294,-797,0,0,0,0,0,0,0,0,0,-1,930,1821,0,0
-287,-797,0,0,0,0,0,0,0,0,0,-1,937,1821,0,0
-280,-797,0,0,0,0,0,0,0,0,0,-1,944,1821,0,0
-273,-797,0,0,0,0,0,0,0,0,0,-1,951,1821,0,0
-266,-797,0,0,0,0,0,0,0,0,0,-1,958,1821,0,0
-259,-797,0,0,0,0,0,0,0,0,0,-1,965,1821,0,0
-252,-797,0,0,0,0,0,0,0,0,0,-1,972,1821,0,0
-245,-797,0,0,0,0,0,0,0,0,0,-1,979,1821,0,0
-238,-797,0,0,0,0,0,0,0,0,0,-1,986,1821,0,0
-231,-797,0,0,0,0,0,0,0,0,0,-1,993,1821,0,0
-224,-797,0,0,0,0,0,0,0,0,0,-1,1000,1821,0,0
-217,-797,0,0,0,0,0,0,0,0,0,-1,1007,1821,0,0
-210,-797,0,0,0,0,0,0,0,0,0,-1,1014,1821,0,0
-203,-797,0,0,0,0,0,0,0,0,0,-1,1021,1821,0,0
-196,-797,0,0,0,0,0,0,0,0,0,-1,1028,1821,0,0
-189,-797,0,0,0,0,0,0,0,0,0,-1,1035,1821,0,0
-182,-797,0,0,0,0,0,0,0,0,0,-1,1042,1821,0,0
-175,-797,0,0,0,0,0,0,0,0,0,-1,1049,1821,0,0
-168,-797,0,0,0,0,0,0,0,0,0,-1,1056,1821,0,0
-161,-797,0,0,0,0,0,0,0,0,0,-1,1063,1821,0,0
-154,-797,0,0,0,0,0,0,0,0,0,-1,1070,1821,0,0
-147,-797,0,0,0,0,0,0,0,0,0,-1,1077,1821,0,0
-140,-797,0,0,0,0,0,0,0,0,0,-1,1084,1821,0,0
-133,-797,0,0,0,0,0,0,0,0,0,-1,1091,1821,0,0
-126,-797,0,0,0,0,0,0,0,0,0,-1,1098,1821,0,0
-119,-797,0,0,0,0,0,0,0,0,0,-1,1105,1821,0,0
-112,-797,0,0,0,0,0,0,0,0,0,-1,1112,1821,0,0
-105,-797,0,0,0,0,0,0,0,0,0,-1,1119,1821,0,0
-98,-797,0,0,0,0,0,0,0,0,0,-1,1126,1821,0,0
-91,-797,0,0,0,0,0,0,0,0,0,-1,1133,1821,0,0
-84,-797,0,0,0,0,0,0,0,0,0,-1,1140,1821,0,0
-77,-797,0,0,0,0,0,0,0,0,0,-1,1147,1821,0,0
-70,-797,0,0,0,0,0,0,0,0,0,-1,1154,1821,0,0
-63,-797,0,0,0,0,0,0,0,0,0,-1,1161,1821,0,0
-56,-797,0,0,0,0,0,0,0,0,0,-1,1168,1821,0,0
-49,-797,0,0,0,0,0,0,0,0,0,-1,1175,1821,0,0
-42,-797,0.579834,0.692871,0,0,0,0,0,0,0,-1,1182,1821,0.579856,-0.692816
-35,-797,-0.185425,5.55396,0,0,0,0,0,0,0,-1,1189,1821,-0.18542,-5.55396
-28,-797,-0.310181,4.71509,0,0,0,0,0,0,0,-1,1196,1821,-0.310228,-4.71503
-21,-797,6.40039,10.4631,0,0,0,0,0,0,0,-1,1203,1821,6.40039,-10.4631
-14,-797,6.53247,11.4189,0.0129194,0.0216873,0.044885,0.062402,-0.0277952,0.834079,0.0533377,0.0439235,1210,1821,6.53253,-11.419
-7,-797,6.54602,12.2445,-0.00118622,0.0211356,0.0428763,0.0542798,-0.0343304,0.912725,0.0515895,0.0461669,1217,1821,6.54602,-12.2445
0,-797,6.58521,12.9042,-0.0122393,0.0180821,0.0400554,0.0457499,-0.0399071,0.966313,0.0494924,0.0461906,1224,1821,6.58523,-12.9042
7,-797,6.62793,13.5305,-0.0207212,0.0136091,0.0366018,0.0368709,-0.0439829,1.00466,0.0467411,0.0444769,1231,1821,6.62788,-13.5305
14,-797,6.11621,13.9957,-0.0265202,0.00846586,0.0323321,0.0277338,-0.0457881,1.03337,0.0428724,0.0433015,1238,1821,6.11621,-13.9957
21,-797,5.43787,14.4937,-0.0307668,0.00277219,0.0281913,0.0188046,-0.0467992,1.05371,0.0390089,0.0428741,1245,1821,5.43791,-14.4937
28,-797,4.44873,15.2229,-0.0327972,-0.00282846,0.0240492,0.0105226,-0.0461483,1.064,0.0348073,0.0423654,1252,1821,4.44872,-15.2229
35,-797,4.14673,15.4312,-0.031426,-0.00489341,0.0202244,0.00602747,-0.0423469,1.07567,0.03044,0.0492627,1259,1821,4.14671,-15.4311
42,-797,4.30322,15.6885,-0.0280672,-0.00285404,0.0158505,0.00479191,-0.0357132,1.12135,0.0255563,0.0481826,1266,1821,4.30319,-15.6885
49,-797,4.57678,15.6444,-0.0243338,-0.000537677,0.0121769,0.00458897,-0.0294604,1.17231,0.0213351,0.0464881,1273,1821,4.57683,-15.6444
56,-797,4.00647,16.3815,-0.0205066,0.0043034,0.00871252,0.00705728,-0.0232605,1.26465,0.0183183,0.0423496,1280,1821,4.00642,-16.3815
63,-797,4.11072,16.3867,-0.0201827,0.00994861,0.00655139,0.0113114,-0.0215455,1.3657,0.0192743,0.040408,1287,1821,4.11066,-16.3867
70,-797,3.21204,15.4995,0,0,0,0,0,0,0,-1,1294,1821,3.21198,-15.4996
77,-797,4.35645,16.5068,0,0,0,0,0,0,0,-1,1301,1821,4.35645,-16.5069
84,-797,4.28979,16.5265,0,0,0,0,0,0,0,-1,1308,1821,4.28978,-16.5264
91,-797,5.92358,12.3364,-0.0297114,0.0421819,-0.00674671,0.0428096,-0.030339,-1.47803,0.0424364,0.0488657,1315,1821,5.92359,-12.3364
98,-797,5.93811,12.3702,0,0,0,0,0,0,0,-1,1322,1821,5.93813,-12.3702
105,-797,5.15564,13.8678,0,0,0,0,0,0,0,-1,1329,1821,5.15569,-13.8678
112,-797,4.7572,13.8263,-0.0572147,0.0613061,-0.017025,0.0637032,-0.0596118,-1.43092,0.071209,0.0447379,1336,1821,4.75725,-13.8263
119,-797,4.44092,14.0676,-0.0692112,0.0612413,-0.0194937,0.064092,-0.0720619,-1.42559,0.0786533,0.0427462,1343,1821,4.44088,-14.0677
126,-797,4.24341,14.1412,-0.0775995,0.0583945,-0.0229796,0.0621725,-0.0813776,-1.40785,0.0831256,0.04473,1350,1821,4.24337,-14.1413
133,-797,3.90686,14.2891,0,0,0,0,0,0,0,-1,1357,1821,3.90684,-14.289
140,-797,4.53796,12.6726,0,0,0,0,0,0,0,-1,1364,1821,4.53798,-12.6726
147,-797,4.15686,12.8721,0,0,0,0,0,0,0,-1,1371,1821,4.15692,-12.872
154,-797,14.49,10.5256,0,0,0,0,0,0,0,-1,1378,1821,14.49,-10.5256
161,-797,6.79199,1.12952,0,0,0,0,0,0,0,-1,1385,1821,6.79203,-1.12957
168,-797,0,0,0,0,0,0,0,0,0,-1,1392,1821,0,0
175,-797,0,0,0,0,0,0,0,0,0,-1,1399,1821,0,0
182,-797,0,0,0,0,0,0,0,0,0,-1,1406,1821,0,0
189,-797,0,0,0,0,0,0,0,0,0,-1,1413,1821,0,0
196,-797,0,0,0,0,0,0,0,0,0,-1,1420,1821,0,0
203,-797,0,0,0,0,0,0,0,0,0,-1,1427,1821,0,0
210,-797,0,0,0,0,0,0,0,0,0,-1,1434,1821,0,0
217,-797,0,0,0,0,0,0,0,0,0,-1,1441,1821,0,0
224,-797,0,0,0,0,0,0,0,0,0,-1,1448,1821,0,0
231,-797,0,0,0,0,0,0,0,0,0,-1,1455,1821,0,0
238,-797,0,0,0,0,0,0,0,0,0,-1,1462,1821,0,0
245,-797,0,0,0,0,0,0,0,0,0,-1,1469,1821,0,0
252,-797,0,0,0,0,0,0,0,0,0,-1,1476,1821,0,0
259,-797,0,0,0,0,0,0,0,0,0,-1,1483,1821,0,0
266,-797,0,0,0,0,0,0,0,0,0,-1,1490,1821,0,0
273,-797,0,0,0,0,0,0,0,0,0,-1,1497,1821,0,0
280,-797,0,0,0,0,0,0,0,0,0,-1,1504,1821,0,0
287,-797,0,0,0,0,0,0,0,0,0,-1,1511,1821,0,0
294,-797,0,0,0,0,0,0,0,0,0,-1,1518,1821,0,0
301,-797,0,0,0,0,0,0,0,0,0,-1,1525,1821,0,0
308,-797,0,0,0,0,0,0,0,0,0,-1,1532,1821,0,0
315,-797,0,0,0,0,0,0,0,0,0,-1,1539,1821,0,0
322,-797,0,0,0,0,0,0,0,0,0,-1,1546,1821,0,0
329,-797,0,0,0,0,0,0,0,0,0,-1,1553,1821,0,0
336,-797,0,0,0,0,0,0,0,0,0,-1,1560,1821,0,0
343,-797,0,0,0,0,0,0,0,0,0,-1,1567,1821,0,0
350,-797,0,0,0,0,0,0,0,0,0,-1,1574,1821,0,0
357,-797,0,0,0,0,0,0,0,0,0,-1,1581,1821,0,0
364,-797,0,0,0,0,0,0,0,0,0,-1,1588,1821,0,0
371,-797,0,0,0,0,0,0,0,0,0,-1,1595,1821,0,0
378,-797,0,0,0,0,0,0,0,0,0,-1,1602,1821,0,0
385,-797,0,0,0,0,0,0,0,0,0,-1,1609,1821,0,0
392,-797,0,0,0,0,0,0,0,0,0,-1,1616,1821,0,0
399,-797,0,0,0,0,0,0,0,0,0,-1,1623,1821,0,0
406,-797,0,0,0,0,0,0,0,0,0,-1,1630,1821,0,0
413,-797,0,0,0,0,0,0,0,0,0,-1,1637,1821,0,0
420,-797,0,0,0,0,0,0,0,0,0,-1,1644,1821,0,0
427,-797,0,0,0,0,0,0,0,0,0,-1,1651,1821,0,0
434,-797,0,0,0,0,0,0,0,0,0,-1,1658,1821,0,0
441,-797,0,0,0,0,0,0,0,0,0,-1,1665,1821,0,0
448,-797,0,0,0,0,0,0,0,0,0,-1,1672,1821,0,0
455,-797,0,0,0,0,0,0,0,0,0,-1,1679,1821,0,0
462,-797,0,0,0,0,0,0,0,0,0,-1,1686,1821,0,0
469,-797,0,0,0,0,0,0,0,0,0,-1,1693,1821,0,0
476,-797,0,0,0,0,0,0,0,0,0,-1,1700,1821,0,0
483,-797,0,0,0,0,0,0,0,0,0,-1,1707,1821,0,0
490,-797,0,0,0,0,0,0,0,0,0,-1,1714,1821,0,0
497,-797,0,0,0,0,0,0,0,0,0,-1,1721,1821,0,0
504,-797,0,0,0,0,0,0,0,0,0,-1,1728,1821,0,0
511,-797,0,0,0,0,0,0,0,0,0,-1,1735,1821,0,0
518,-797,0,0,0,0,0,0,0,0,0,-1,1742,1821,0,0
525,-797,0,0,0,0,0,0,0,0,0,-1,1749,1821,0,0
532,-797,0,0,0,0,0,0,0,0,0,-1,1756,1821,0,0
539,-797,0,0,0,0,0,0,0,0,0,-1,1763,1821,0,0
546,-797,0,0,0,0,0,0,0,0,0,-1,1770,1821,0,0
553,-797,0,0,0,0,0,0,0,0,0,-1,1777,1821,0,0
560,-797,0,0,0,0,0,0,0,0,0,-1,1784,1821,0,0
567,-797,0,0,0,0,0,0,0,0,0,-1,1791,1821,0,0
574,-797,0,0,0,0,0,0,0,0,0,-1,1798,1821,0,0
581,-797,0,0,0,0,0,0,0,0,0,-1,1805,1821,0,0
588,-797,0,0,0,0,0,0,0,0,0,-1,1812,1821,0,0
595,-797,0,0,0,0,0,0,0,0,0,-1,1819,1821,0,0
602,-797,0,0,0,0,0,0,0,0,0,-1,1826,1821,0,0
609,-797,0,0,0,0,0,0,0,0,0,-1,1833,1821,0,0
616,-797,0,0,0,0,0,0,0,0,0,-1,1840,1821,0,0
623,-797,0,0,0,0,0,0,0,0,0,-1,1847,1821,0,0
630,-797,0,0,0,0,0,0,0,0,0,-1,1854,1821,0,0
637,-797,0,0,0,0,0,0,0,0,0,-1,1861,1821,0,0
644,-797,0,0,0,0,0,0,0,0,0,-1,1868,1821,0,0
651,-797,0,0,0,0,0,0,0,0,0,-1,1875,1821,0,0
658,-797,0,0,0,0,0,0,0,0,0,-1,1882,1821,0,0
665,-797,0,0,0,0,0,0,0,0,0,-1,1889,1821,0,0
672,-797,0,0,0,0,0,0,0,0,0,-1,1896,1821,0,0
679,-797,0,0,0,0,0,0,0,0,0,-1,1903,1821,0,0
686,-797,0,0,0,0,0,0,0,0,0,-1,1910,1821,0,0
693,-797,0,0,0,0,0,0,0,0,0,-1,1917,1821,0,0
700,-797,0,0,0,0,0,0,0,0,0,-1,1924,1821,0,0
707,-797,0,0,0,0,0,0,0,0,0,-1,1931,1821,0,0
714,-797,0,0,0,0,0,0,0,0,0,-1,1938,1821,0,0
721,-797,0,0,0,0,0,0,0,0,0,-1,1945,1821,0,0
728,-797,0,0,0,0,0,0,0,0,0,-1,1952,1821,0,0
735,-797,0,0,0,0,0,0,0,0,0,-1,1959,1821,0,0
742,-797,0,0,0,0,0,0,0,0,0,-1,1966,1821,0,0
749,-797,0,0,0,0,0,0,0,0,0,-1,1973,1821,0,0
756,-797,0,0,0,0,0,0,0,0,0,-1,1980,1821,0,0
763,-797,0,0,0,0,0,0,0,0,0,-1,1987,1821,0,0
770,-797,0,0,0,0,0,0,0,0,0,-1,1994,1821,0,0
777,-797,0,0,0,0,0,0,0,0,0,-1,2001,1821,0,0
784,-797,0,0,0,0,0,0,0,0,0,-1,2008,1821,0,0
791,-797,0,0,0,0,0,0,0,0,0,-1,2015,1821,0,0
798,-797,0,0,0,0,0,0,0,0,0,-1,2022,1821,0,0
805,-797,0,0,0,0,0,0,0,0,0,-1,2029,1821,0,0
812,-797,0,0,0,0,0,0,0,0,0,-1,2036,1821,0,0
-700,-804,0,0,0,0,0,0,0,0,0,-1,524,1828,0,0
-693,-804,0,0,0,0,0,0,0,0,0,-1,531,1828,0,0
-686,-804,0,0,0,0,0,0,0,0,0,-1,538,1828,0,0
-679,-804,0,0,0,0,0,0,0,0,0,-1,545,1828,0,0
-672,-804,0,0,0,0,0,0,0,0,0,-1,552,1828,0,0
-665,-804,0,0,0,0,0,0,0,0,0,-1,559,1828,0,0
-658,-804,0,0,0,0,0,0,0,0,0,-1,566,1828,0,0
-651,-804,0,0,0,0,0,0,0,0,0,-1,573,1828,0,0
-644,-804,0,0,0,0,0,0,0,0,0,-1,580,1828,0,0
-637,-804,0,0,0,0,0,0,0,0,0,-1,587,1828,0,0
-630,-804,0,0,0,0,0,0,0,0,0,-1,594,1828,0,0
-623,-804,0,0,0,0,0,0,0,0,0,-1,601,1828,0,0
-616,-804,0,0,0,0,0,0,0,0,0,-1,608,1828,0,0
-609,-804,0,0,0,0,0,0,0,0,0,-1,615,1828,0,0
-602,-804,0,0,0,0,0,0,0,0,0,-1,622,1828,0,0
-595,-804,0,0,0,0,0,0,0,0,0,-1,629,1828,0,0
-588,-804,0,0,0,0,0,0,0,0,0,-1,636,1828,0,0
-581,-804,0,0,0,0,0,0,0,0,0,-1,643,1828,0,0
-574,-804,0,0,0,0,0,0,0,0,0,-1,650,1828,0,0
-567,-804,0,0,0,0,0,0,0,0,0,-1,657,1828,0,0
-560,-804,0,0,0,0,0,0,0,0,0,-1,664,1828,0,0
-553,-804,0,0,0,0,0,0,0,0,0,-1,671,1828,0,0
-546,-804,0,0,0,0,0,0,0,0,0,-1,678,1828,0,0
-539,-804,0,0,0,0,0,0,0,0,0,-1,685,1828,0,0
-532,-804,0,0,0,0,0,0,0,0,0,-1,692,1828,0,0
-525,-804,0,0,0,0,0,0,0,0,0,-1,699,1828,0,0
-518,-804,0,0,0,0,0,0,0,0,0,-1,706,1828,0,0
-511,-804,0,0,0,0,0,0,0,0,0,-1,713,1828,0,0
-504,-804,0,0,0,0,0,0,0,0,0,-1,720,1828,0,0
-497,-804,0,0,0,0,0,0,0,0,0,-1,727,1828,0,0
-490,-804,0,0,0,0,0,0,0,0,0,-1,734,1828,0,0
-483,-804,0,0,0,0,0,0,0,0,0,-1,741,1828,0,0
-476,-804,0,0,0,0,0,0,0,0,0,-1,748,1828,0,0
-469,-804,0,0,0,0,0,0,0,0,0,-1,755,1828,0,0
-462,-804,0,0,0,0,0,0,0,0,0,-1,762,1828,0,0
-455,-804,0,0,0,0,0,0,0,0,0,-1,769,1828,0,0
-448,-804,0,0,0,0,0,0,0,0,0,-1,776,1828,0,0
-441,-804,0,0,0,0,0,0,0,0,0,-1,783,1828,0,0
-434,-804,0,0,0,0,0,0,0,0,0,-1,790,1828,0,0
-427,-804,0,0,0,0,0,0,0,0,0,-1,797,1828,0,0
-420,-804,0,0,0,0,0,0,0,0,0,-1,804,1828,0,0
-413,-804,0,0,0,0,0,0,0,0,0,-1,811,1828,0,0
-406,-804,0,0,0,0,0,0,0,0,0,-1,818,1828,0,0
-399,-804,0,0,0,0,0,0,0,0,0,-1,825,1828,0,0
-392,-804,0,0,0,0,0,0,0,0,0,-1,832,1828,0,0
-385,-804,0,0,0,0,0,0,0,0,0,-1,839,1828,0,0
-378,-804,0,0,0,0,0,0,0,0,0,-1,846,1828,0,0
-371,-804,0,0,0,0,0,0,0,0,0,-1,853,1828,0,0
-364,-804,0,0,0,0,0,0,0,0,0,-1,860,1828,0,0
-357,-804,0,0,0,0,0,0,0,0,0,-1,867,1828,0,0
-350,-804,0,0,0,0,0,0,0,0,0,-1,874,1828,0,0
-343,-804,0,0,0,0,0,0,0,0,0,-1,881,1828,0,0
-336,-804,0,0,0,0,0,0,0,0,0,-1,888,1828,0,0
-329,-804,0,0,0,0,0,0,0,0,0,-1,895,1828,0,0
-322,-804,0,0,0,0,0,0,0,0,0,-1,902,1828,0,0
-315,-804,0,0,0,0,0,0,0,0,0,-1,909,1828,0,0
-308,-804,0,0,0,0,0,0,0,0,0,-1,916,1828,0,0
-301,-804,0,0,0,0,0,0,0,0,0,-1,923,1828,0,0
-294,-804,0,0,0,0,0,0,0,0,0,-1,930,1828,0,0
-287,-804,0,0,0,0,0,0,0,0,0,-1,937,1828,0,0
-280,-804,0,0,0,0,0,0,0,0,0,-1,944,1828,0,0
-273,-804,0,0,0,0,0,0,0,0,0,-1,951,1828,0,0
-266,-804,0,0,0,0,0,0,0,0,0,-1,958,1828,0,0
-259,-804,0,0,0,0,0,0,0,0,0,-1,965,1828,0,0
-252,-804,0,0,0,0,0,0,0,0,0,-1,972,1828,0,0
-245,-804,0,0,0,0,0,0,0,0,0,-1,979,1828,0,0
-238,-804,0,0,0,0,0,0,0,0,0,-1,986,1828,0,0
-231,-804,0,0,0,0,0,0,0,0,0,-1,993,1828,0,0
-224,-804,0,0,0,0,0,0,0,0,0,-1,1000,1828,0,0
-217,-804,0,0,0,0,0,0,0,0,0,-1,1007,1828,0,0
-210,-804,0,0,0,0,0,0,0,0,0,-1,1014,1828,0,0
-203,-804,0,0,0,0,0,0,0,0,0,-1,1021,1828,0,0
-196,-804,0,0,0,0,0,0,0,0,0,-1,1028,1828,0,0
-189,-804,0,0,0,0,0,0,0,0,0,-1,1035,1828,0,0
-182,-804,0,0,0,0,0,0,0,0,0,-1,1042,1828,0,0
-175,-804,0,0,0,0,0,0,0,0,0,-1,1049,1828,0,0
-168,-804,0,0,0,0,0,0,0,0,0,-1,1056,1828,0,0
-161,-804,0,0,0,0,0,0,0,0,0,-1,1063,1828,0,0
-154,-804,0,0,0,0,0,0,0,0,0,-1,1070,1828,0,0
-147,-804,0,0,0,0,0,0,0,0,0,-1,1077,1828,0,0
-140,-804,0,0,0,0,0,0,0,0,0,-1,1084,1828,0,0
-133,-804,0,0,0,0,0,0,0,0,0,-1,1091,1828,0,0
-126,-804,0,0,0,0,0,0,0,0,0,-1,1098,1828,0,0
-119,-804,0,0,0,0,0,0,0,0,0,-1,1105,1828,0,0
-112,-804,0,0,0,0,0,0,0,0,0,-1,1112,1828,0,0
-105,-804,0,0,0,0,0,0,0,0,0,-1,1119,1828,0,0
-98,-804,0,0,0,0,0,0,0,0,0,-1,1126,1828,0,0
-91,-804,0,0,0,0,0,0,0,0,0,-1,1133,1828,0,0
-84,-804,0,0,0,0,0,0,0,0,0,-1,1140,1828,0,0
-77,-804,0,0,0,0,0,0,0,0,0,-1,1147,1828,0,0
-70,-804,0,0,0,0,0,0,0,0,0,-1,1154,1828,0,0
-63,-804,0,0,0,0,0,0,0,0,0,-1,1161,1828,0,0
-56,-804,0,0,0,0,0,0,0,0,0,-1,1168,1828,0,0
-49,-804,0,0,0,0,0,0,0,0,0,-1,1175,1828,0,0
-42,-804,0,0,0,0,0,0,0,0,0,-1,1182,1828,0,0
-35,-804,0,0,0,0,0,0,0,0,0,-1,1189,1828,0,0
-28,-804,0,0,0,0,0,0,0,0,0,-1,1196,1828,0,0
-21,-804,0,0,0,0,0,0,0,0,0,-1,1203,1828,0,0
-14,-804,0,0,0,0,0,0,0,0,0,-1,1210,1828,0,0
-7,-804,0,0,0,0,0,0,0,0,0,-1,1217,1828,0,0
0,-804,0,0,0,0,0,0,0,0,0,-1,1224,1828,0,0
7,-804,0,0,0,0,0,0,0,0,0,-1,1231,1828,0,0
14,-804,0,0,0,0,0,0,0,0,0,-1,1238,1828,0,0
21,-804,0,0,0,0,0,0,0,0,0,-1,1245,1828,0,0
28,-804,0,0,0,0,0,0,0,0,0,-1,1252,1828,0,0
35,-804,4.38843,15.4142,-0.0302835,-0.00534534,0.0246096,0.0097738,-0.0454026,1.01988,0.0339979,0.0477157,1259,1828,4.38848,-15.4141
42,-804,4.39075,15.7052,-0.0258886,-0.00325311,0.0192937,0.00779735,-0.0369391,1.05065,0.0275949,0.0468063,1266,1828,4.39077,-15.7053
49,-804,4.28699,16.2067,-0.0208852,-0.000678186,0.0146488,0.00701348,-0.0285769,1.08729,0.021769,0.046661,1273,1828,4.28702,-16.2067
56,-804,4.21948,16.4332,-0.015947,0.00514988,0.0104725,0.00946558,-0.0202627,1.1799,0.0175369,0.0456616,1280,1828,4.21952,-16.4332
63,-804,4.38635,16.3792,-0.0148385,0.0120092,0.00805162,0.0142387,-0.017068,1.30066,0.0180996,0.0446564,1287,1828,4.38639,-16.3792
70,-804,4.43921,16.4453,0,0,0,0,0,0,0,-1,1294,1828,4.43926,-16.4453
77,-804,4.50317,16.4058,0,0,0,0,0,0,0,-1,1301,1828,4.50315,-16.4057
84,-804,4.54517,16.4274,0,0,0,0,0,0,0,-1,1308,1828,4.54522,-16.4274
91,-804,0,0,0,0,0,0,0,0,0,-1,1315,1828,0,0
98,-804,0,0,0,0,0,0,0,0,0,-1,1322,1828,0,0
105,-804,0,0,0,0,0,0,0,0,0,-1,1329,1828,0,0
112,-804,0,0,0,0,0,0,0,0,0,-1,1336,1828,0,0
119,-804,0,0,0,0,0,0,0,0,0,-1,1343,1828,0,0
126,-804,0,0,0,0,0,0,0,0,0,-1,1350,1828,0,0
133,-804,0,0,0,0,0,0,0,0,0,-1,1357,1828,0,0
140,-804,0,0,0,0,0,0,0,0,0,-1,1364,1828,0,0
147,-804,0,0,0,0,0,0,0,0,0,-1,1371,1828,0,0
154,-804,0,0,0,0,0,0,0,0,0,-1,1378,1828,0,0
161,-804,0,0,0,0,0,0,0,0,0,-1,1385,1828,0,0
168,-804,0,0,0,0,0,0,0,0,0,-1,1392,1828,0,0
175,-804,0,0,0,0,0,0,0,0,0,-1,1399,1828,0,0
182,-804,0,0,0,0,0,0,0,0,0,-1,1406,1828,0,0
189,-804,0,0,0,0,0,0,0,0,0,-1,1413,1828,0,0
196,-804,0,0,0,0,0,0,0,0,0,-1,1420,1828,0,0
203,-804,0,0,0,0,0,0,0,0,0,-1,1427,1828,0,0
210,-804,0,0,0,0,0,0,0,0,0,-1,1434,1828,0,0
217,-804,0,0,0,0,0,0,0,0,0,-1,1441,1828,0,0
224,-804,0,0,0,0,0,0,0,0,0,-1,1448,1828,0,0
231,-804,0,0,0,0,0,0,0,0,0,-1,1455,1828,0,0
238,-804,0,0,0,0,0,0,0,0,0,-1,1462,1828,0,0
245,-804,0,0,0,0,0,0,0,0,0,-1,1469,1828,0,0
252,-804,0,0,0,0,0,0,0,0,0,-1,1476,1828,0,0
259,-804,0,0,0,0,0,0,0,0,0,-1,1483,1828,0,0
266,-804,0,0,0,0,0,0,0,0,0,-1,1490,1828,0,0
273,-804,0,0,0,0,0,0,0,0,0,-1,1497,1828,0,0
280,-804,0,0,0,0,0,0,0,0,0,-1,1504,1828,0,0
287,-804,0,0,0,0,0,0,0,0,0,-1,1511,1828,0,0
294,-804,0,0,0,0,0,0,0,0,0,-1,1518,1828,0,0
301,-804,0,0,0,0,0,0,0,0,0,-1,1525,1828,0,0
308,-804,0,0,0,0,0,0,0,0,0,-1,1532,1828,0,0
315,-804,0,0,0,0,0,0,0,0,0,-1,1539,1828,0,0
322,-804,0,0,0,0,0,0,0,0,0,-1,1546,1828,0,0
329,-804,0,0,0,0,0,0,0,0,0,-1,1553,1828,0,0
336,-804,0,0,0,0,0,0,0,0,0,-1,1560,1828,0,0
343,-804,0,0,0,0,0,0,0,0,0,-1,1567,1828,0,0
350,-804,0,0,0,0,0,0,0,0,0,-1,1574,1828,0,0
357,-804,0,0,0,0,0,0,0,0,0,-1,1581,1828,0,0
364,-804,0,0,0,0,0,0,0,0,0,-1,1588,1828,0,0
371,-804,0,0,0,0,0,0,0,0,0,-1,1595,1828,0,0
378,-804,0,0,0,0,0,0,0,0,0,-1,1602,1828,0,0
385,-804,0,0,0,0,0,0,0,0,0,-1,1609,1828,0,0
392,-804,0,0,0,0,0,0,0,0,0,-1,1616,1828,0,0
399,-804,0,0,0,0,0,0,0,0,0,-1,1623,1828,0,0
406,-804,0,0,0,0,0,0,0,0,0,-1,1630,1828,0,0
413,-804,0,0,0,0,0,0,0,0,0,-1,1637,1828,0,0
420,-804,0,0,0,0,0,0,0,0,0,-1,1644,1828,0,0
427,-804,0,0,0,0,0,0,0,0,0,-1,1651,1828,0,0
434,-804,0,0,0,0,0,0,0,0,0,-1,1658,1828,0,0
441,-804,0,0,0,0,0,0,0,0,0,-1,1665,1828,0,0
448,-804,0,0,0,0,0,0,0,0,0,-1,1672,1828,0,0
455,-804,0,0,0,0,0,0,0,0,0,-1,1679,1828,0,0
462,-804,0,0,0,0,0,0,0,0,0,-1,1686,1828,0,0
469,-804,0,0,0,0,0,0,0,0,0,-1,1693,1828,0,0
476,-804,0,0,0,0,0,0,0,0,0,-1,1700,1828,0,0
483,-804,0,0,0,0,0,0,0,0,0,-1,1707,1828,0,0
490,-804,0,0,0,0,0,0,0,0,0,-1,1714,1828,0,0
497,-804,0,0,0,0,0,0,0,0,0,-1,1721,1828,0,0
504,-804,0,0,0,0,0,0,0,0,0,-1,1728,1828,0,0
511,-804,0,0,0,0,0,0,0,0,0,-1,1735,1828,0,0
518,-804,0,0,0,0,0,0,0,0,0,-1,1742,1828,0,0
525,-804,0,0,0,0,0,0,0,0,0,-1,1749,1828,0,0
532,-804,0,0,0,0,0,0,0,0,0,-1,1756,1828,0,0
539,-804,0,0,0,0,0,0,0,0,0,-1,1763,1828,0,0
546,-804,0,0,0,0,0,0,0,0,0,-1,1770,1828,0,0
553,-804,0,0,0,0,0,0,0,0,0,-1,1777,1828,0,0
560,-804,0,0,0,0,0,0,0,0,0,-1,1784,1828,0,0
567,-804,0,0,0,0,0,0,0,0,0,-1,1791,1828,0,0
574,-804,0,0,0,0,0,0,0,0,0,-1,1798,1828,0,0
581,-804,0,0,0,0,0,0,0,0,0,-1,1805,1828,0,0
588,-804,0,0,0,0,0,0,0,0,0,-1,1812,1828,0,0
595,-804,0,0,0,0,0,0,0,0,0,-1,1819,1828,0,0
602,-804,0,0,0,0,0,0,0,0,0,-1,1826,1828,0,0
609,-804,0,0,0,0,0,0,0,0,0,-1,1833,1828,0,0
616,-804,0,0,0,0,0,0,0,0,0,-1,1840,1828,0,0
623,-804,0,0,0,0,0,0,0,0,0,-1,1847,1828,0,0
630,-804,0,0,0,0,0,0,0,0,0,-1,1854,1828,0,0
637,-804,0,0,0,0,0,0,0,0,0,-1,1861,1828,0,0
644,-804,0,0,0,0,0,0,0,0,0,-1,1868,1828,0,0
651,-804,0,0,0,0,0,0,0,0,0,-1,1875,1828,0,0
658,-804,0,0,0,0,0,0,0,0,0,-1,1882,1828,0,0
665,-804,0,0,0,0,0,0,0,0,0,-1,1889,1828,0,0
672,-804,0,0,0,0,0,0,0,0,0,-1,1896,1828,0,0
679,-804,0,0,0,0,0,0,0,0,0,-1,1903,1828,0,0
686,-804,0,0,0,0,0,0,0,0,0,-1,1910,1828,0,0
693,-804,0,0,0,0,0,0,0,0,0,-1,1917,1828,0,0
700,-804,0,0,0,0,0,0,0,0,0,-1,1924,1828,0,0
707,-804,0,0,0,0,0,0,0,0,0,-1,1931,1828,0,0
714,-804,0,0,0,0,0,0,0,0,0,-1,1938,1828,0,0
721,-804,0,0,0,0,0,0,0,0,0,-1,1945,1828,0,0
728,-804,0,0,0,0,0,0,0,0,0,-1,1952,1828,0,0
735,-804,0,0,0,0,0,0,0,0,0,-1,1959,1828,0,0
742,-804,0,0,0,0,0,0,0,0,0,-1,1966,1828,0,0
749,-804,0,0,0,0,0,0,0,0,0,-1,1973,1828,0,0
756,-804,0,0,0,0,0,0,0,0,0,-1,1980,1828,0,0
763,-804,0,0,0,0,0,0,0,0,0,-1,1987,1828,0,0
770,-804,0,0,0,0,0,0,0,0,0,-1,1994,1828,0,0
777,-804,0,0,0,0,0,0,0,0,0,-1,2001,1828,0,0
784,-804,0,0,0,0,0,0,0,0,0,-1,2008,1828,0,0
791,-804,0,0,0,0,0,0,0,0,0,-1,2015,1828,0,0
798,-804,0,0,0,0,0,0,0,0,0,-1,2022,1828,0,0
805,-804,0,0,0,0,0,0,0,0,0,-1,2029,1828,0,0
812,-804,0,0,0,0,0,0,0,0,0,-1,2036,1828,0,0

